Block Name,Point ID,cauchy_strain_0,cauchy_strain_1,cauchy_strain_2,cauchy_strain_3,cauchy_stress_0,cauchy_stress_1,cauchy_stress_2,cauchy_stress_3,displacement_0,displacement_1,displacement_2,displacement_Magnitude,Points_0,Points_1,Points_2,Points_Magnitude,stress_xy
step02_gravity_refstate-mantle.xmf,0,-1.7778e-06,7.44923e-07,0,-9.3548e-08,-1.09904e+09,-1.09871e+09,-1.09881e+09,-12502.7,-0.00417521,0.0308569,-0,0.0311381,-37663.8,-40000,-0,54941.4,-12502.7
step02_gravity_refstate-mantle.xmf,1,-1.79298e-06,7.65148e-07,0,-1.72109e-09,-1.09904e+09,-1.0987e+09,-1.09881e+09,-230.023,4.8493e-20,0.0315189,0,0.0315189,-40000,-40000,-0,56568.5,-230.023
step02_gravity_refstate-mantle.xmf,2,-1.9978e-06,8.76189e-07,0,-4.47649e-08,-1.1411e+09,-1.14072e+09,-1.14083e+09,-5982.83,-0.00253674,0.030264,-0,0.0303701,-38731.6,-41298,-0,56618.6,-5982.83
step02_gravity_refstate-mantle.xmf,3,-2.17765e-06,9.82099e-07,0,-2.59303e-09,-1.1767e+09,-1.17628e+09,-1.17641e+09,-346.559,7.97379e-20,0.0294266,0,0.0294266,-40000,-42396.8,-0,58288,-346.559
step02_gravity_refstate-mantle.xmf,4,-2.03735e-06,8.8011e-07,0,-1.00191e-07,-1.15204e+09,-1.15165e+09,-1.15177e+09,-13390.5,-0.00575387,0.0292411,-0,0.0298018,-37191.2,-41635.8,-0,55827.6,-13390.5
step02_gravity_refstate-mantle.xmf,5,-1.73368e-06,6.81437e-07,0,-1.89978e-07,-1.09904e+09,-1.09872e+09,-1.09881e+09,-25390.6,-0.00808184,0.0289773,-0,0.0300832,-35440.8,-40000,-0,53442,-25390.6
step02_gravity_refstate-mantle.xmf,6,-2.32392e-06,1.05433e-06,0,-6.67435e-08,-1.20891e+09,-1.20846e+09,-1.2086e+09,-8920.27,-0.00481628,0.0279464,-0,0.0283583,-37929.1,-43390.9,-0,57631.5,-8920.27
step02_gravity_refstate-mantle.xmf,7,-2.17003e-06,9.21222e-07,0,-1.51756e-07,-1.18438e+09,-1.18397e+09,-1.18409e+09,-20282.2,-0.0096735,0.0270362,-0,0.0287146,-35598.5,-42633.9,-0,55541.9,-20282.2
step02_gravity_refstate-mantle.xmf,8,-1.67182e-06,5.86759e-07,0,-2.89684e-07,-1.09903e+09,-1.09873e+09,-1.09881e+09,-38716.3,-0.0116851,0.0260085,-0,0.0285129,-33325.6,-40000,-0,52063.3,-38716.3
step02_gravity_refstate-mantle.xmf,9,-1.96231e-06,7.62108e-07,0,-2.2302e-07,-1.15051e+09,-1.15015e+09,-1.15025e+09,-29806.7,-0.0120333,0.0260463,-0,0.0286916,-34039.6,-41588.7,-0,53743,-29806.7
step02_gravity_refstate-mantle.xmf,10,-1.5922e-06,4.62673e-07,0,-3.97242e-07,-1.09903e+09,-1.09875e+09,-1.09881e+09,-53091.4,-0.0149658,0.0220418,-0,0.0266423,-31312.8,-40000,-0,50798.5,-53091.4
step02_gravity_refstate-mantle.xmf,11,-1.92985e-06,6.72529e-07,0,-3.07687e-07,-1.15355e+09,-1.1532e+09,-1.15329e+09,-41122.3,-0.015526,0.023119,-0,0.0278486,-32296.2,-41682.5,-0,52730.2,-41122.3
step02_gravity_refstate-mantle.xmf,12,-1.49585e-06,3.19425e-07,0,-5.12463e-07,-1.09902e+09,-1.09877e+09,-1.09882e+09,-68490.7,-0.0179224,0.0171441,-0,0.0248019,-29397.5,-40000,-0,49640.9,-68490.7
step02_gravity_refstate-mantle.xmf,13,-1.83576e-06,5.20988e-07,0,-4.21344e-07,-1.15024e+09,-1.14992e+09,-1.14999e+09,-56312.7,-0.0190882,0.0189345,-0,0.0268863,-30322.1,-41580.4,-0,51462.2,-56312.7
step02_gravity_refstate-mantle.xmf,14,-2.54249e-06,1.19927e-06,0,-2.51889e-09,-1.25484e+09,-1.25434e+09,-1.2545e+09,-336.65,9.32415e-20,0.0267956,0,0.0267956,-40000,-44808.6,-0,60065.1,-336.65
step02_gravity_refstate-mantle.xmf,15,-1.72018e-06,3.4815e-07,0,-5.48043e-07,-1.14524e+09,-1.14497e+09,-1.14501e+09,-73245.9,-0.0221651,0.0138319,-0,0.0261269,-28436.8,-41426.5,-0,50247.4,-73245.9
step02_gravity_refstate-mantle.xmf,16,-1.3988e-06,1.55903e-07,0,-6.44838e-07,-1.09901e+09,-1.0988e+09,-1.09882e+09,-86182.6,-0.0205622,0.0113643,-0,0.0234937,-27575,-40000,-0,48583.7,-86182.6
step02_gravity_refstate-mantle.xmf,17,-2.69923e-06,1.28193e-06,0,-6.04996e-08,-1.2934e+09,-1.29286e+09,-1.29303e+09,-8085.78,-0.00559504,0.0249005,-0,0.0255214,-37928.1,-45998.7,-0,59619,-8085.78
step02_gravity_refstate-mantle.xmf,18,-2.2816e-06,9.09492e-07,0,-2.27293e-07,-1.21655e+09,-1.21613e+09,-1.21625e+09,-30377.7,-0.0150878,0.0236278,-0,0.0280342,-33536.9,-43627,-0,55027.6,-30377.7
step02_gravity_refstate-mantle.xmf,19,-2.51684e-06,1.12502e-06,0,-1.28936e-07,-1.25732e+09,-1.25684e+09,-1.25699e+09,-17232.3,-0.0105436,0.0249581,-0,0.0270938,-35844.1,-44885.3,-0,57441.2,-17232.3
step02_gravity_refstate-mantle.xmf,20,-2.15628e-06,7.23983e-07,0,-3.48807e-07,-1.20581e+09,-1.20543e+09,-1.20552e+09,-46618.1,-0.0198881,0.0198289,-0,0.0280842,-31194.1,-43295.5,-0,53362.6,-46618.1
step02_gravity_refstate-mantle.xmf,21,-2.01537e-06,5.20673e-07,0,-4.82359e-07,-1.19338e+09,-1.19304e+09,-1.19311e+09,-64467.3,-0.0234962,0.0153144,-0,0.0280464,-29178.2,-42911.8,-0,51892.2,-64467.3
step02_gravity_refstate-mantle.xmf,22,-1.64278e-06,1.54724e-07,0,-7.08947e-07,-1.14724e+09,-1.147e+09,-1.14702e+09,-94750.7,-0.0254837,0.00740624,-0,0.0265381,-26540.8,-41488.2,-0,49251.3,-94750.7
step02_gravity_refstate-mantle.xmf,23,-1.30551e-06,-3.08777e-08,0,-8.03055e-07,-1.09901e+09,-1.09883e+09,-1.09883e+09,-107328,-0.022906,0.00473718,-0,0.0233907,-25840.6,-40000,-0,47620.8,-107328
step02_gravity_refstate-mantle.xmf,24,-2.86916e-06,1.40725e-06,0,-3.00311e-09,-1.3337e+09,-1.33313e+09,-1.33332e+09,-401.365,9.98671e-20,0.0236233,0,0.0236233,-40000,-47243,-0,61902.3,-401.365
step02_gravity_refstate-mantle.xmf,25,-1.21804e-06,-2.19245e-07,0,-9.72492e-07,-1.099e+09,-1.09887e+09,-1.09884e+09,-129974,-0.0249765,-0.00270987,-0,0.0251231,-24190.1,-40000,-0,46745.7,-129974
step02_gravity_refstate-mantle.xmf,26,-1.46427e-06,-5.78576e-08,0,-8.69026e-07,-1.13099e+09,-1.1308e+09,-1.13079e+09,-116145,-0.0266268,0.00122734,-0,0.0266551,-25010.1,-40986.9,-0,48014.9,-116145
step02_gravity_refstate-mantle.xmf,27,-1.88592e-06,3.36176e-07,0,-6.09559e-07,-1.18238e+09,-1.18209e+09,-1.18213e+09,-81467.6,-0.025947,0.0108083,-0,0.0281081,-27597.7,-42572.6,-0,50735.2,-81467.6
step02_gravity_refstate-mantle.xmf,28,-1.13297e-06,-4.22339e-07,0,-1.17012e-06,-1.099e+09,-1.09891e+09,-1.09885e+09,-156387,-0.0268074,-0.0109577,-0,0.0289604,-22619.3,-40000,-0,45952.5,-156387
step02_gravity_refstate-mantle.xmf,29,-1.48828e-06,-2.30622e-07,0,-1.05913e-06,-1.14559e+09,-1.14542e+09,-1.14539e+09,-141553,-0.0301536,-0.00597256,-0,0.0307395,-23465.9,-41437.1,-0,47620.2,-141553
step02_gravity_refstate-mantle.xmf,30,-2.99941e-06,1.47828e-06,0,-5.70588e-08,-1.37215e+09,-1.37155e+09,-1.37175e+09,-7625.91,-0.00626116,0.0215401,-0,0.0224317,-37913.7,-48430,-0,61505.4,-7625.91
step02_gravity_refstate-mantle.xmf,31,-3.14616e-06,1.60012e-06,0,-3.36928e-09,-1.4135e+09,-1.41287e+09,-1.41308e+09,-450.305,1.03948e-19,0.0199182,0,0.0199182,-40000,-49706.7,-0,63802.5,-450.305
step02_gravity_refstate-mantle.xmf,32,-1.05287e-06,-6.28235e-07,0,-1.385e-06,-1.099e+09,-1.09894e+09,-1.09886e+09,-185105,-0.0284275,-0.01999,-0,0.0347523,-21124.3,-40000,-0,45235.3,-185105
step02_gravity_refstate-mantle.xmf,33,-1.34964e-06,-4.51781e-07,0,-1.26293e-06,-1.13521e+09,-1.13509e+09,-1.13503e+09,-168791,-0.0311754,-0.0137167,-0,0.0340595,-22051,-41117.1,-0,46656.9,-168791
step02_gravity_refstate-mantle.xmf,34,-2.83067e-06,1.31755e-06,0,-1.20046e-07,-1.33354e+09,-1.33299e+09,-1.33316e+09,-16044.2,-0.0117172,0.0221214,-0,0.0250329,-35889.7,-47238.1,-0,59325.4,-16044.2
step02_gravity_refstate-mantle.xmf,35,-2.64634e-06,1.12646e-06,0,-1.99169e-07,-1.29771e+09,-1.2972e+09,-1.29735e+09,-26618.9,-0.0164963,0.0215282,-0,0.0271218,-33876.9,-46131.8,-0,57234.6,-26618.9
step02_gravity_refstate-mantle.xmf,36,-2.46121e-06,9.13953e-07,0,-3.00284e-07,-1.26746e+09,-1.26701e+09,-1.26713e+09,-40132.9,-0.0207668,0.0195066,-0,0.0284916,-31845,-45198.2,-0,55290,-40132.9
step02_gravity_refstate-mantle.xmf,37,-2.29886e-06,6.81242e-07,0,-4.36887e-07,-1.24885e+09,-1.24846e+09,-1.24855e+09,-58389.9,-0.0251383,0.0155658,-0,0.0295673,-29686.9,-44624,-0,53596.8,-58389.9
step02_gravity_refstate-mantle.xmf,38,-2.12282e-06,4.44185e-07,0,-5.85033e-07,-1.22773e+09,-1.22739e+09,-1.22745e+09,-78189.7,-0.0281551,0.0109892,-0,0.0302238,-27831.8,-43972.1,-0,52040,-78189.7
step02_gravity_refstate-mantle.xmf,39,-1.92446e-06,2.24138e-07,0,-7.25941e-07,-1.20064e+09,-1.20035e+09,-1.20038e+09,-97022,-0.0295072,0.00636995,-0,0.0301869,-26342.9,-43136,-0,50543.7,-97022
step02_gravity_refstate-mantle.xmf,40,-1.72682e-06,9.27472e-09,0,-8.76987e-07,-1.17529e+09,-1.17505e+09,-1.17505e+09,-117209,-0.0302376,0.000997925,-0,0.0302541,-24949.3,-42353.6,-0,49155.8,-117209
step02_gravity_refstate-mantle.xmf,41,-3.23991e-06,1.65345e-06,0,-5.25861e-08,-1.44957e+09,-1.44892e+09,-1.44914e+09,-7028.13,-0.00683946,0.0177903,-0,0.0190597,-37890.8,-50820.3,-0,63391,-7028.13
step02_gravity_refstate-mantle.xmf,42,-3.3667e-06,1.77674e-06,0,-3.62684e-09,-1.49447e+09,-1.49378e+09,-1.49402e+09,-484.727,1.06826e-19,0.0156955,0,0.0156955,-40000,-52206.7,-0,65768.8,-484.727
step02_gravity_refstate-mantle.xmf,43,-1.41986e-06,-6.10763e-07,0,-1.46889e-06,-1.15343e+09,-1.15332e+09,-1.15324e+09,-196317,-0.034556,-0.0200611,-0,0.0399571,-20950,-41679,-0,46648.1,-196317
step02_gravity_refstate-mantle.xmf,44,-9.987e-07,-8.53811e-07,0,-1.64573e-06,-1.09901e+09,-1.09899e+09,-1.09887e+09,-219952,-0.0298736,-0.0297947,-0,0.0421919,-19701.4,-40000,-0,44588.6,-219952
step02_gravity_refstate-mantle.xmf,45,-1.23824e-06,-7.67584e-07,0,-1.607e-06,-1.1308e+09,-1.13074e+09,-1.13064e+09,-214776,-0.0332842,-0.0264831,-0,0.0425346,-20053.1,-40980.7,-0,45624,-214776
step02_gravity_refstate-mantle.xmf,46,-1.61322e-06,-4.13181e-07,0,-1.29081e-06,-1.17905e+09,-1.17889e+09,-1.17883e+09,-172517,-0.0353092,-0.0128808,-0,0.0375854,-22095.7,-42469.4,-0,47873.5,-172517
step02_gravity_refstate-mantle.xmf,47,-3.08669e-06,1.4867e-06,0,-1.12747e-07,-1.40862e+09,-1.40801e+09,-1.40821e+09,-15068.6,-0.0128657,0.0188542,-0,0.0228255,-35864,-49555.9,-0,61172,-15068.6
step02_gravity_refstate-mantle.xmf,48,-3.42476e-06,1.81318e-06,0,-4.47726e-08,-1.52776e+09,-1.52706e+09,-1.5273e+09,-5983.86,-0.0073128,0.0135997,-0,0.0154412,-37867.5,-53234.7,-0,65329,-5983.86
step02_gravity_refstate-mantle.xmf,49,-9.57333e-07,-1.08407e-06,0,-1.93401e-06,-1.09902e+09,-1.09903e+09,-1.09889e+09,-258480,-0.0311764,-0.0403609,-0,0.0509997,-18347,-40000,-0,44007,-258480
step02_gravity_refstate-mantle.xmf,50,-1.23901e-06,-9.76253e-07,0,-1.87031e-06,-1.13461e+09,-1.13458e+09,-1.13445e+09,-249967,-0.035106,-0.0345166,-0,0.0492324,-18938.3,-41097.9,-0,45251.5,-249967
step02_gravity_refstate-mantle.xmf,51,-2.91867e-06,1.29061e-06,0,-1.87255e-07,-1.37179e+09,-1.37123e+09,-1.3714e+09,-25026.7,-0.0181031,0.0188029,-0,0.0261012,-33911.1,-48418.9,-0,59113,-25026.7
step02_gravity_refstate-mantle.xmf,52,-2.74113e-06,1.0671e-06,0,-2.84304e-07,-1.33919e+09,-1.33868e+09,-1.33882e+09,-37997.2,-0.0228487,0.0174692,-0,0.0287617,-31940.1,-47412.5,-0,57167.5,-37997.2
step02_gravity_refstate-mantle.xmf,53,-2.567e-06,8.19605e-07,0,-4.1204e-07,-1.31392e+09,-1.31347e+09,-1.31358e+09,-55069.1,-0.0273208,0.0145862,-0,0.0309707,-29925,-46632.6,-0,55408.5,-55069.1
step02_gravity_refstate-mantle.xmf,54,-1.78835e-06,-1.78207e-07,0,-1.08389e-06,-1.2008e+09,-1.20058e+09,-1.20056e+09,-144862,-0.0348253,-0.00556315,-0,0.0352668,-23478.3,-43140.7,-0,49115.7,-144862
step02_gravity_refstate-mantle.xmf,55,-2.37513e-06,5.59673e-07,0,-5.59896e-07,-1.28546e+09,-1.28507e+09,-1.28515e+09,-74830.2,-0.0306051,0.0108237,-0,0.0324627,-28088.4,-45754.1,-0,53687.9,-74830.2
step02_gravity_refstate-mantle.xmf,56,-2.1763e-06,2.953e-07,0,-7.3077e-07,-1.25669e+09,-1.25636e+09,-1.2564e+09,-97667.5,-0.0329807,0.00598689,-0,0.0335197,-26361.9,-44865.8,-0,52037.4,-97667.5
step02_gravity_refstate-mantle.xmf,57,-1.97403e-06,5.12998e-08,0,-9.0293e-07,-1.22649e+09,-1.22622e+09,-1.22623e+09,-120677,-0.0341515,0.000585181,-0,0.0341565,-24861.3,-43933.9,-0,50480.4,-120677
step02_gravity_refstate-mantle.xmf,58,-3.29054e-06,1.6412e-06,0,-9.94736e-08,-1.48443e+09,-1.48377e+09,-1.48399e+09,-13294.6,-0.0137584,0.0151888,-0,0.0204937,-35855.9,-51896.6,-0,63078.5,-13294.6
step02_gravity_refstate-mantle.xmf,59,-3.52702e-06,1.93871e-06,0,-3.78714e-09,-1.57684e+09,-1.57611e+09,-1.57637e+09,-506.151,1.10691e-19,0.0109671,0,0.0109671,-40000,-54750.5,-0,67805.7,-506.151
step02_gravity_refstate-mantle.xmf,60,-8.86328e-07,-1.88e-06,0,-3.03125e-06,-1.09907e+09,-1.0992e+09,-1.09895e+09,-405127,-0.0345105,-0.0765382,-0,0.0839587,-14661.8,-40000,-0,42602.4,-405127
step02_gravity_refstate-mantle.xmf,61,-9.06163e-07,-1.60135e-06,0,-2.63312e-06,-1.09905e+09,-1.09914e+09,-1.09893e+09,-351917,-0.0334719,-0.0637415,-0,0.0719955,-15830.4,-40000,-0,43018.6,-351917
step02_gravity_refstate-mantle.xmf,62,-1.05886e-06,-1.80294e-06,0,-2.93622e-06,-1.12179e+09,-1.12189e+09,-1.12165e+09,-392426,-0.0375682,-0.0688538,-0,0.0784361,-15234.5,-40700.8,-0,43458.6,-392426
step02_gravity_refstate-mantle.xmf,63,-9.31553e-07,-1.328e-06,0,-2.26069e-06,-1.09903e+09,-1.09908e+09,-1.09891e+09,-302141,-0.032366,-0.0516791,-0,0.0609778,-17057.8,-40000,-0,43485.3,-302141
step02_gravity_refstate-mantle.xmf,64,-1.20204e-06,-1.22937e-06,0,-2.19031e-06,-1.1335e+09,-1.13351e+09,-1.13334e+09,-292736,-0.0364876,-0.0448299,-0,0.0578019,-17671.5,-41063.3,-0,44704.3,-292736
step02_gravity_refstate-mantle.xmf,65,-1.18726e-06,-1.55704e-06,0,-2.62865e-06,-1.13603e+09,-1.13608e+09,-1.13587e+09,-351319,-0.0384445,-0.0573374,-0,0.069033,-16288.8,-41140.7,-0,44247.9,-351319
step02_gravity_refstate-mantle.xmf,66,-1.48493e-06,-8.7744e-07,0,-1.79677e-06,-1.17396e+09,-1.17388e+09,-1.17376e+09,-240138,-0.038696,-0.0287673,-0,0.0482176,-19568.6,-42311.9,-0,46617.9,-240138
step02_gravity_refstate-mantle.xmf,67,-1.66112e-06,-6.52424e-07,0,-1.56036e-06,-1.20199e+09,-1.20185e+09,-1.20176e+09,-208542,-0.0394933,-0.0199144,-0,0.0442301,-20821,-43177.1,-0,47935.1,-208542
step02_gravity_refstate-mantle.xmf,68,-1.82051e-06,-4.21355e-07,0,-1.33411e-06,-1.22582e+09,-1.22563e+09,-1.22557e+09,-178304,-0.0393555,-0.0123412,-0,0.0412451,-22084.1,-43912.8,-0,49153.2,-178304
step02_gravity_refstate-mantle.xmf,69,-3.12856e-06,1.42747e-06,0,-1.73858e-07,-1.44366e+09,-1.44305e+09,-1.44325e+09,-23236.2,-0.0196032,0.0157413,-0,0.025141,-33863.6,-50638,-0,60917.6,-23236.2
step02_gravity_refstate-mantle.xmf,70,-3.55103e-06,1.95752e-06,0,-3.37938e-08,-1.60598e+09,-1.60525e+09,-1.60551e+09,-4516.53,-0.00783164,0.00903301,-0,0.0119553,-37798.7,-55650.6,-0,67273.6,-4516.53
step02_gravity_refstate-mantle.xmf,71,-3.43909e-06,1.77993e-06,0,-8.00065e-08,-1.56045e+09,-1.55976e+09,-1.55999e+09,-10692.9,-0.0145557,0.0111523,-0,0.0183369,-35811,-54244.5,-0,64999.2,-10692.9
step02_gravity_refstate-mantle.xmf,72,-3.62431e-06,2.08838e-06,0,-2.71252e-09,-1.66086e+09,-1.6601e+09,-1.66038e+09,-362.528,1.10355e-19,0.00573646,0,0.00573646,-40000,-57345.7,-0,69918,-362.528
step02_gravity_refstate-mantle.xmf,73,-1.10906e-06,-2.17971e-06,0,-3.45545e-06,-1.1297e+09,-1.12984e+09,-1.12955e+09,-461820,-0.0399823,-0.0811548,-0,0.0904693,-14103.2,-40943.8,-0,43304.7,-461820
step02_gravity_refstate-mantle.xmf,74,-8.88519e-07,-2.21023e-06,0,-3.50421e-06,-1.0991e+09,-1.09927e+09,-1.09898e+09,-468338,-0.0355026,-0.0900602,-0,0.0968053,-13548.9,-40000,-0,42232.4,-468338
step02_gravity_refstate-mantle.xmf,75,-1.37775e-06,-1.14246e-06,0,-2.09606e-06,-1.16524e+09,-1.16521e+09,-1.16505e+09,-280139,-0.0395204,-0.0383365,-0,0.0550595,-18318.8,-42042.6,-0,45860.2,-280139
step02_gravity_refstate-mantle.xmf,76,-2.95685e-06,1.19308e-06,0,-2.66371e-07,-1.40795e+09,-1.4074e+09,-1.40756e+09,-35600.5,-0.0245825,0.0151318,-0,0.0288664,-31983.5,-49535.4,-0,58963.5,-35600.5
step02_gravity_refstate-mantle.xmf,77,-2.77544e-06,9.32656e-07,0,-3.86323e-07,-1.3763e+09,-1.3758e+09,-1.37592e+09,-51632,-0.0290776,0.013239,-0,0.0319496,-30099.4,-48558.1,-0,57130.3,-51632
step02_gravity_refstate-mantle.xmf,78,-2.58534e-06,6.50015e-07,0,-5.38174e-07,-1.3466e+09,-1.34617e+09,-1.34625e+09,-71927,-0.0329633,0.0100697,-0,0.034467,-28240.7,-47641.4,-0,55382.7,-71927
step02_gravity_refstate-mantle.xmf,79,-1.99263e-06,-1.80919e-07,0,-1.1204e-06,-1.25253e+09,-1.25229e+09,-1.25227e+09,-149741,-0.0388458,-0.00557696,-0,0.0392441,-23413.5,-44737.4,-0,50493.9,-149741
step02_gravity_refstate-mantle.xmf,80,-2.38656e-06,3.62919e-07,0,-7.14788e-07,-1.3151e+09,-1.31473e+09,-1.31478e+09,-95531.5,-0.0358217,0.00587255,-0,0.0362998,-26511.3,-46668.9,-0,53673.4,-95531.5
step02_gravity_refstate-mantle.xmf,81,-2.18693e-06,7.66594e-08,0,-9.1739e-07,-1.284e+09,-1.2837e+09,-1.28371e+09,-122609,-0.0378717,0.000479422,-0,0.0378748,-24863.3,-45708.8,-0,52033.4,-122609
step02_gravity_refstate-mantle.xmf,82,-3.29141e-06,1.55541e-06,0,-1.48214e-07,-1.51712e+09,-1.51647e+09,-1.51668e+09,-19808.8,-0.0207316,0.0123465,-0,0.0241296,-33848.8,-52906.2,-0,62807.7,-19808.8
step02_gravity_refstate-mantle.xmf,83,-3.61867e-06,2.08887e-06,0,-1.51098e-08,-1.682e+09,-1.68123e+09,-1.68151e+09,-2019.43,-0.00798796,0.00428382,-0,0.00906414,-37798.8,-57998.5,-0,69228.4,-2019.43
step02_gravity_refstate-mantle.xmf,84,-3.6627e-06,2.25072e-06,0,-1.79358e-09,-1.74679e+09,-1.746e+09,-1.7463e+09,-239.713,-5.51496e-19,-4.46059e-20,-0,5.53297e-19,-40000,-60000,-0,72111,-239.713
step02_gravity_refstate-mantle.xmf,85,-1.22151e-06,-1.95525e-06,0,-3.1284e-06,-1.15214e+09,-1.15223e+09,-1.15197e+09,-418110,-0.0420151,-0.0682764,-0,0.0801681,-15123.8,-41636.8,-0,44298.5,-418110
step02_gravity_refstate-mantle.xmf,86,-1.036e-06,-2.53567e-06,0,-3.93285e-06,-1.12118e+09,-1.12138e+09,-1.12104e+09,-525625,-0.0397853,-0.0953225,-0,0.103292,-13019,-40680.4,-0,42712.9,-525625
step02_gravity_refstate-mantle.xmf,87,-9.25058e-07,-2.59851e-06,0,-4.04627e-06,-1.09914e+09,-1.09936e+09,-1.09901e+09,-540784,-0.0364537,-0.104297,-0,0.110484,-12489.1,-40000,-0,41904.4,-540784
step02_gravity_refstate-mantle.xmf,88,-9.03006e-07,-3.02742e-06,0,-4.62396e-06,-1.09917e+09,-1.09945e+09,-1.09905e+09,-617993,-0.0373676,-0.119234,-0,0.124953,-11479.4,-40000,-0,41614.6,-617993
step02_gravity_refstate-mantle.xmf,89,-1.06138e-06,-2.98306e-06,0,-4.4911e-06,-1.12864e+09,-1.12889e+09,-1.1285e+09,-600235,-0.0419176,-0.106864,-0,0.114791,-12128.4,-40909.4,-0,42669.4,-600235
step02_gravity_refstate-mantle.xmf,90,-1.39684e-06,-1.46513e-06,0,-2.4907e-06,-1.17723e+09,-1.17724e+09,-1.17705e+09,-332883,-0.0425375,-0.0477417,-0,0.063943,-17124.2,-42412.2,-0,45738.8,-332883
step02_gravity_refstate-mantle.xmf,91,-1.80449e-06,-7.32763e-07,0,-1.62866e-06,-1.24813e+09,-1.24799e+09,-1.24789e+09,-217670,-0.0435736,-0.0194031,-0,0.0476984,-20741.2,-44601.3,-0,49188.1,-217670
step02_gravity_refstate-mantle.xmf,92,-1.66918e-06,-9.75484e-07,0,-1.88897e-06,-1.22641e+09,-1.22632e+09,-1.22619e+09,-252461,-0.0438079,-0.0273869,-0,0.0516641,-19551.2,-43930.7,-0,48084.9,-252461
step02_gravity_refstate-mantle.xmf,93,-1.53693e-06,-1.22518e-06,0,-2.17771e-06,-1.20496e+09,-1.20492e+09,-1.20476e+09,-291051,-0.0437013,-0.0366051,-0,0.0570065,-18355.3,-43268.4,-0,47000.7,-291051
step02_gravity_refstate-mantle.xmf,94,-1.94946e-06,-4.87012e-07,0,-1.38583e-06,-1.27229e+09,-1.27209e+09,-1.27203e+09,-185216,-0.0430959,-0.0123228,-0,0.0448231,-21961.2,-45347.3,-0,50385.2,-185216
step02_gravity_refstate-mantle.xmf,95,-3.1223e-06,1.30094e-06,0,-2.38524e-07,-1.47745e+09,-1.47686e+09,-1.47704e+09,-31878.8,-0.0261205,0.0124414,-0,0.0289322,-31971.9,-51681.5,-0,60771.5,-31878.8
step02_gravity_refstate-mantle.xmf,96,-3.40574e-06,1.67416e-06,0,-1.10324e-07,-1.5932e+09,-1.59252e+09,-1.59275e+09,-14744.8,-0.0217099,0.00851857,-0,0.0233214,-33794.3,-55256.1,-0,64771,-14744.8
step02_gravity_refstate-mantle.xmf,97,-3.53271e-06,1.90295e-06,0,-5.59468e-08,-1.63422e+09,-1.63349e+09,-1.63375e+09,-7477.29,-0.0153596,0.00692626,-0,0.016849,-35700.5,-56522.7,-0,66853.2,-7477.29
step02_gravity_refstate-mantle.xmf,98,-3.63275e-06,2.18905e-06,0,-6.29931e-10,-1.74679e+09,-1.74601e+09,-1.7463e+09,-84.1903,-0.00944575,-3.13248e-20,-0,0.00944575,-37408.2,-60000,-0,70706.3,-84.1903
step02_gravity_refstate-mantle.xmf,99,-1.31544e-06,-1.79271e-06,0,-2.89237e-06,-1.1716e+09,-1.17167e+09,-1.17143e+09,-386565,-0.043466,-0.0588936,-0,0.0731967,-15938.5,-42238,-0,45145.1,-386565
step02_gravity_refstate-mantle.xmf,100,-1.21674e-06,-2.42447e-06,0,-3.66354e-06,-1.16785e+09,-1.16801e+09,-1.16769e+09,-489632,-0.0453092,-0.0785392,-0,0.0906715,-14095,-42121.1,-0,44416.8,-489632
step02_gravity_refstate-mantle.xmf,101,-1.13797e-06,-2.69624e-06,0,-4.05527e-06,-1.14983e+09,-1.15004e+09,-1.14968e+09,-541987,-0.0440177,-0.091498,-0,0.101535,-13136.2,-41564.4,-0,43590.8,-541987
step02_gravity_refstate-mantle.xmf,102,-9.83264e-07,-3.52003e-06,0,-5.14606e-06,-1.12527e+09,-1.12561e+09,-1.12514e+09,-687771,-0.0424474,-0.123192,-0,0.1303,-11056.5,-40804.6,-0,42276,-687771
step02_gravity_refstate-mantle.xmf,103,-2.93822e-06,1.01993e-06,0,-3.56616e-07,-1.44143e+09,-1.4409e+09,-1.44104e+09,-47661.7,-0.0308923,0.0113235,-0,0.0329022,-30128,-50569.4,-0,58863.9,-47661.7
step02_gravity_refstate-mantle.xmf,104,-2.74551e-06,7.2071e-07,0,-5.04295e-07,-1.40794e+09,-1.40748e+09,-1.40758e+09,-67399,-0.0349531,0.00900929,-0,0.0360955,-28347,-49535.4,-0,57072.8,-67399
step02_gravity_refstate-mantle.xmf,105,-2.54693e-06,4.05744e-07,0,-6.86981e-07,-1.37609e+09,-1.37569e+09,-1.37575e+09,-91815,-0.0383631,0.00542236,-0,0.0387444,-26606.5,-48551.9,-0,55364.2,-91815
step02_gravity_refstate-mantle.xmf,106,-2.13133e-06,-2.64388e-07,0,-1.18066e-06,-1.30954e+09,-1.30929e+09,-1.30926e+09,-157796,-0.0430386,-0.00623928,-0,0.0434885,-23174.7,-46497.4,-0,51952.6,-157796
step02_gravity_refstate-mantle.xmf,107,-2.34021e-06,8.05314e-08,0,-9.08359e-07,-1.34175e+09,-1.34142e+09,-1.34143e+09,-121402,-0.0409414,0.000495491,-0,0.0409444,-24906.8,-47491.6,-0,53626.5,-121402
step02_gravity_refstate-mantle.xmf,108,-3.24245e-06,1.40017e-06,0,-1.94245e-07,-1.54848e+09,-1.54786e+09,-1.54805e+09,-25960.8,-0.0273694,0.00945105,-0,0.0289553,-31943.3,-53875,-0,62633,-25960.8
step02_gravity_refstate-mantle.xmf,109,-3.57592e-06,2.0218e-06,0,-1.79467e-08,-1.69732e+09,-1.69657e+09,-1.69684e+09,-2398.57,-0.0148958,0.00313955,-0,0.0152231,-35885.3,-58472,-0,68605.7,-2398.57
step02_gravity_refstate-mantle.xmf,110,-7.61074e-08,-8.33438e-06,0,-9.63999e-06,-1.09943e+09,-1.10053e+09,-1.09942e+09,-1.28838e+06,-0.0409162,-0.222048,-0,0.225786,-6341.87,-40000,-0,40499.6,-1.28838e+06
step02_gravity_refstate-mantle.xmf,111,-4.26119e-07,-6.97657e-06,0,-8.6417e-06,-1.09939e+09,-1.10027e+09,-1.09933e+09,-1.15496e+06,-0.0407464,-0.203552,-0,0.20759,-7100.11,-40000,-0,40625.3,-1.15496e+06
step02_gravity_refstate-mantle.xmf,112,7.4762e-08,-8.27318e-06,0,-9.36095e-06,-1.11835e+09,-1.11947e+09,-1.11836e+09,-1.25109e+06,-0.0440531,-0.209394,-0,0.213978,-6661.68,-40585.8,-0,41128.9,-1.25109e+06
step02_gravity_refstate-mantle.xmf,113,-1.29651e-06,-2.17884e-06,0,-3.30348e-06,-1.18739e+09,-1.1875e+09,-1.18721e+09,-441510,-0.0464513,-0.0666699,-0,0.0812563,-15062.3,-42724.6,-0,45301.9,-441510
step02_gravity_refstate-mantle.xmf,114,-6.64937e-07,-5.8601e-06,0,-7.70795e-06,-1.09935e+09,-1.10004e+09,-1.09926e+09,-1.03017e+06,-0.0403378,-0.185528,-0,0.189863,-7894.42,-40000,-0,40771.6,-1.03017e+06
step02_gravity_refstate-mantle.xmf,115,-3.05802e-07,-6.95166e-06,0,-8.39947e-06,-1.11915e+09,-1.12004e+09,-1.11911e+09,-1.12259e+06,-0.0440854,-0.191236,-0,0.196252,-7454.9,-40611.2,-0,41289.8,-1.12259e+06
step02_gravity_refstate-mantle.xmf,116,-8.03449e-07,-4.94219e-06,0,-6.82756e-06,-1.0993e+09,-1.09986e+09,-1.0992e+09,-912503,-0.0397513,-0.16804,-0,0.172678,-8727.16,-40000,-0,40941,-912503
step02_gravity_refstate-mantle.xmf,117,-5.53871e-07,-5.91126e-06,0,-7.5133e-06,-1.12453e+09,-1.12525e+09,-1.12446e+09,-1.00415e+06,-0.0445656,-0.172402,-0,0.178069,-8301.5,-40778.4,-0,41614.8,-1.00415e+06
step02_gravity_refstate-mantle.xmf,118,-8.84178e-07,-4.19238e-06,0,-6.03697e-06,-1.09926e+09,-1.0997e+09,-1.09914e+09,-806841,-0.0390389,-0.151136,-0,0.156097,-9600.66,-40000,-0,41136,-806841
step02_gravity_refstate-mantle.xmf,119,-7.9077e-07,-4.86742e-06,0,-6.61751e-06,-1.11791e+09,-1.11846e+09,-1.11781e+09,-884431,-0.042893,-0.156821,-0,0.162581,-9157.62,-40575.1,-0,41595.7,-884431
step02_gravity_refstate-mantle.xmf,120,-9.30949e-07,-3.55716e-06,0,-5.30263e-06,-1.09922e+09,-1.09957e+09,-1.09909e+09,-708696,-0.0382337,-0.134857,-0,0.140172,-10517.3,-40000,-0,41359.6,-708696
step02_gravity_refstate-mantle.xmf,121,-8.96692e-07,-4.28912e-06,0,-5.98668e-06,-1.1268e+09,-1.12725e+09,-1.12668e+09,-800120,-0.0436989,-0.14071,-0,0.147339,-9981.23,-40850.3,-0,42052.1,-800120
step02_gravity_refstate-mantle.xmf,122,-1.00634e-06,-3.51957e-06,0,-5.0088e-06,-1.14776e+09,-1.14809e+09,-1.14762e+09,-669426,-0.0454507,-0.113776,-0,0.122518,-11516.1,-41499,-0,43067.3,-669426
step02_gravity_refstate-mantle.xmf,123,-1.86348e-06,-8.5816e-07,0,-1.68857e-06,-1.28955e+09,-1.28941e+09,-1.2893e+09,-225678,-0.0468942,-0.0192303,-0,0.050684,-20593,-45880,-0,50289.6,-225678
step02_gravity_refstate-mantle.xmf,124,-1.38681e-06,-1.91123e-06,0,-2.93872e-06,-1.20522e+09,-1.20529e+09,-1.20503e+09,-392760,-0.0470131,-0.0555083,-0,0.072742,-16093.6,-43275.5,-0,46171.1,-392760
step02_gravity_refstate-mantle.xmf,125,-1.49263e-06,-1.63654e-06,0,-2.58446e-06,-1.22442e+09,-1.22443e+09,-1.22422e+09,-345414,-0.04733,-0.0448978,-0,0.0652376,-17193.7,-43868.6,-0,47117.6,-345414
step02_gravity_refstate-mantle.xmf,126,-1.73445e-06,-1.12142e-06,0,-1.9607e-06,-1.27013e+09,-1.27005e+09,-1.2699e+09,-262047,-0.0475372,-0.0265765,-0,0.0544619,-19458.2,-45280.4,-0,49284.3,-262047
step02_gravity_refstate-mantle.xmf,127,-1.60752e-06,-1.38279e-06,0,-2.264e-06,-1.24721e+09,-1.24718e+09,-1.247e+09,-302584,-0.0476354,-0.0352668,-0,0.0592696,-18306.4,-44572.7,-0,48185.5,-302584
step02_gravity_refstate-mantle.xmf,128,-1.97766e-06,-6.49333e-07,0,-1.48395e-06,-1.30983e+09,-1.30966e+09,-1.30957e+09,-198330,-0.0464027,-0.0137746,-0,0.048404,-21539,-46506.4,-0,51252.1,-198330
step02_gravity_refstate-mantle.xmf,129,-3.05659e-06,1.09631e-06,0,-3.08817e-07,-1.50682e+09,-1.50626e+09,-1.50641e+09,-41273.4,-0.0323596,0.00919853,-0,0.0336416,-30136.5,-52588.5,-0,60611.5,-41273.4
step02_gravity_refstate-mantle.xmf,130,-3.31359e-06,1.48481e-06,0,-1.34344e-07,-1.62115e+09,-1.62051e+09,-1.62071e+09,-17955,-0.0286508,0.00611479,-0,0.0292961,-31799.3,-56119.5,-0,64502.7,-17955
step02_gravity_refstate-mantle.xmf,131,-3.4753e-06,1.80576e-06,0,-5.03787e-08,-1.67845e+09,-1.67775e+09,-1.67799e+09,-6733.11,-0.0225556,0.00390989,-0,0.022892,-33697.6,-57889.2,-0,66982.8,-6733.11
step02_gravity_refstate-mantle.xmf,132,-3.55183e-06,2.0291e-06,0,-1.57962e-09,-1.74678e+09,-1.74603e+09,-1.74631e+09,-211.117,-0.0183741,-3.3183e-20,-0,0.0183741,-34922.2,-60000,-0,69423.1,-211.117
step02_gravity_refstate-mantle.xmf,133,4.31903e-07,-9.99371e-06,0,-1.06905e-05,-1.09945e+09,-1.10085e+09,-1.09951e+09,-1.42879e+06,-0.0407696,-0.240936,-0,0.244361,-5617.28,-40000,-0,40392.5,-1.42879e+06
step02_gravity_refstate-mantle.xmf,134,6.5519e-07,-9.8815e-06,0,-1.03096e-05,-1.11877e+09,-1.12018e+09,-1.11886e+09,-1.37787e+06,-0.0438403,-0.226899,-0,0.231095,-5930.27,-40598.6,-0,41029.4,-1.37787e+06
step02_gravity_refstate-mantle.xmf,135,2.22807e-06,-1.46052e-05,0,-1.2787e-05,-1.09945e+09,-1.1017e+09,-1.09975e+09,-1.70899e+06,-0.0390712,-0.279425,-0,0.282144,-4258.41,-40000,-0,40226,-1.70899e+06
step02_gravity_refstate-mantle.xmf,136,1.16488e-06,-1.20485e-05,0,-1.17602e-05,-1.09947e+09,-1.10123e+09,-1.09962e+09,-1.57175e+06,-0.0401998,-0.260112,-0,0.2632,-4923.76,-40000,-0,40301.9,-1.57175e+06
step02_gravity_refstate-mantle.xmf,137,2.58823e-06,-1.43575e-05,0,-1.21716e-05,-1.11836e+09,-1.12062e+09,-1.11871e+09,-1.62673e+06,-0.0416171,-0.264019,-0,0.267279,-4502.54,-40587.2,-0,40836.2,-1.62673e+06
step02_gravity_refstate-mantle.xmf,138,1.50502e-06,-1.19393e-05,0,-1.12845e-05,-1.11935e+09,-1.12114e+09,-1.11955e+09,-1.50817e+06,-0.04312,-0.245308,-0,0.249069,-5196.24,-40616.6,-0,40947.7,-1.50817e+06
step02_gravity_refstate-mantle.xmf,139,-1.19123e-06,-2.73944e-06,0,-3.83352e-06,-1.20437e+09,-1.20458e+09,-1.20422e+09,-512350,-0.0495461,-0.0761975,-0,0.0908894,-14044.2,-43248.7,-0,45471.8,-512350
step02_gravity_refstate-mantle.xmf,140,-1.12131e-06,-3.02508e-06,0,-4.25271e-06,-1.18488e+09,-1.18513e+09,-1.18473e+09,-568375,-0.0485057,-0.0887708,-0,0.101159,-13106.7,-42646.1,-0,44614.8,-568375
step02_gravity_refstate-mantle.xmf,141,-1.06408e-06,-3.26203e-06,0,-4.63046e-06,-1.16417e+09,-1.16446e+09,-1.16403e+09,-618860,-0.0468998,-0.10149,-0,0.111803,-12269.6,-42006.3,-0,43761.5,-618860
step02_gravity_refstate-mantle.xmf,142,-9.12879e-07,-4.08703e-06,0,-5.59962e-06,-1.15084e+09,-1.15126e+09,-1.15072e+09,-748389,-0.0466384,-0.125442,-0,0.133832,-10721.1,-41593.4,-0,42952.9,-748389
step02_gravity_refstate-mantle.xmf,143,-2.85138e-06,7.58166e-07,0,-4.62332e-07,-1.46922e+09,-1.46874e+09,-1.46884e+09,-61790.7,-0.0369109,0.00751871,-0,0.0376689,-28299.8,-51427.7,-0,58699.9,-61790.7
step02_gravity_refstate-mantle.xmf,144,-2.65219e-06,4.26713e-07,0,-6.3962e-07,-1.43609e+09,-1.43568e+09,-1.43574e+09,-85485.2,-0.0404863,0.00473705,-0,0.0407625,-26640.7,-50404.8,-0,57012,-85485.2
step02_gravity_refstate-mantle.xmf,145,-2.44853e-06,8.0453e-08,0,-8.55491e-07,-1.40462e+09,-1.40428e+09,-1.4043e+09,-114336,-0.0434918,0.000675369,-0,0.0434971,-25011.8,-49433.1,-0,55400.6,-114336
step02_gravity_refstate-mantle.xmf,146,-2.24854e-06,-2.65478e-07,0,-1.10845e-06,-1.37312e+09,-1.37286e+09,-1.37282e+09,-148145,-0.0457864,-0.00461062,-0,0.0460179,-23452.3,-48460.6,-0,53837.1,-148145
step02_gravity_refstate-mantle.xmf,147,-2.0779e-06,-5.68618e-07,0,-1.36115e-06,-1.34556e+09,-1.34536e+09,-1.34529e+09,-181917,-0.0472861,-0.0103847,-0,0.048413,-22117.3,-47609.6,-0,52496.2,-181917
step02_gravity_refstate-mantle.xmf,148,-3.13092e-06,1.15877e-06,0,-2.46113e-07,-1.57111e+09,-1.57054e+09,-1.57069e+09,-32893,-0.0336474,0.00688867,-0,0.0343453,-30072.2,-54574.2,-0,62311.1,-32893
step02_gravity_refstate-mantle.xmf,149,2.39757e-07,-8.23148e-06,0,-9.06183e-06,-1.13573e+09,-1.13686e+09,-1.13576e+09,-1.21111e+06,-0.0463882,-0.19811,-0,0.203469,-6963.96,-41123.6,-0,41709.1,-1.21111e+06
step02_gravity_refstate-mantle.xmf,150,3.74046e-06,-1.78115e-05,0,-1.36217e-05,-1.09939e+09,-1.10227e+09,-1.09989e+09,-1.82055e+06,-0.0371844,-0.298648,-0,0.300954,-3617.79,-40000,-0,40163.3,-1.82055e+06
step02_gravity_refstate-mantle.xmf,151,4.03842e-06,-1.71929e-05,0,-1.28034e-05,-1.11729e+09,-1.12013e+09,-1.11783e+09,-1.71118e+06,-0.0394357,-0.282038,-0,0.284781,-3856.3,-40556.7,-0,40739.7,-1.71118e+06
step02_gravity_refstate-mantle.xmf,152,8.47677e-07,-9.66411e-06,0,-9.82041e-06,-1.13809e+09,-1.1395e+09,-1.1382e+09,-1.3125e+06,-0.0462838,-0.212553,-0,0.217534,-6287.85,-41197.1,-0,41674.2,-1.3125e+06
step02_gravity_refstate-mantle.xmf,153,-1.27688e-06,-2.43227e-06,0,-3.40961e-06,-1.2237e+09,-1.22385e+09,-1.22353e+09,-455695,-0.0501953,-0.0640909,-0,0.0814077,-15061.7,-43845.8,-0,46360.6,-455695
step02_gravity_refstate-mantle.xmf,154,4.24983e-08,-7.44047e-06,0,-8.42469e-06,-1.14342e+09,-1.14442e+09,-1.14342e+09,-1.12596e+06,-0.0473605,-0.184052,-0,0.190047,-7539.06,-41361.9,-0,42043.3,-1.12596e+06
step02_gravity_refstate-mantle.xmf,155,-6.03914e-07,-5.40046e-06,0,-6.88692e-06,-1.14306e+09,-1.14371e+09,-1.14298e+09,-920437,-0.0468188,-0.15413,-0,0.161084,-9087.54,-41351.9,-0,42338.7,-920437
step02_gravity_refstate-mantle.xmf,156,-9.25577e-07,-3.87464e-06,0,-5.21874e-06,-1.17146e+09,-1.17185e+09,-1.17134e+09,-697484,-0.0486483,-0.112545,-0,0.12261,-11414,-42230.8,-0,43746.1,-697484
step02_gravity_refstate-mantle.xmf,157,-1.88539e-06,-9.76079e-07,0,-1.69189e-06,-1.3317e+09,-1.33157e+09,-1.33144e+09,-226121,-0.0495597,-0.0181352,-0,0.0527736,-20574.4,-47181.5,-0,51472.3,-226121
step02_gravity_refstate-mantle.xmf,158,-1.7296e-06,-1.3013e-06,0,-2.0047e-06,-1.31138e+09,-1.31132e+09,-1.31115e+09,-267928,-0.0505752,-0.0258007,-0,0.0567761,-19334.1,-46554.1,-0,50409.2,-267928
step02_gravity_refstate-mantle.xmf,159,-1.37343e-06,-2.13681e-06,0,-3.01491e-06,-1.24391e+09,-1.24401e+09,-1.24373e+09,-402942,-0.0506215,-0.0529946,-0,0.0732868,-16104.3,-44470.3,-0,47296.5,-402942
step02_gravity_refstate-mantle.xmf,160,-1.47222e-06,-1.88328e-06,0,-2.67072e-06,-1.26728e+09,-1.26733e+09,-1.26708e+09,-356941,-0.0510707,-0.0432299,-0,0.0669107,-17111.1,-45192,-0,48322.9,-356941
step02_gravity_refstate-mantle.xmf,161,-1.59197e-06,-1.60896e-06,0,-2.33652e-06,-1.2902e+09,-1.29021e+09,-1.28999e+09,-312276,-0.0511031,-0.0342086,-0,0.061496,-18174.9,-45900.2,-0,49367.5,-312276
step02_gravity_refstate-mantle.xmf,162,-2.92891e-06,8.08611e-07,0,-3.90732e-07,-1.52936e+09,-1.52886e+09,-1.52896e+09,-52221.3,-0.0381799,0.00612936,-0,0.0386688,-28340.5,-53284.8,-0,60352.7,-52221.3
step02_gravity_refstate-mantle.xmf,163,-3.15781e-06,1.19365e-06,0,-1.72118e-07,-1.63355e+09,-1.63297e+09,-1.63313e+09,-23003.6,-0.0351323,0.0044293,-0,0.0354104,-29829.9,-56502.9,-0,63893.7,-23003.6
step02_gravity_refstate-mantle.xmf,164,-3.31157e-06,1.50372e-06,0,-7.18618e-08,-1.68701e+09,-1.68637e+09,-1.68657e+09,-9604.34,-0.0309063,0.0028477,-0,0.0310372,-31246.3,-58154,-0,66016.8,-9604.34
step02_gravity_refstate-mantle.xmf,165,-3.42041e-06,1.77878e-06,0,-6.85654e-10,-1.74677e+09,-1.74608e+09,-1.74632e+09,-91.6377,-0.0266924,-1.52276e-20,-0,0.0266924,-32535.6,-60000,-0,68253.7,-91.6377
step02_gravity_refstate-mantle.xmf,166,5.8331e-06,-2.17737e-05,0,-1.3976e-05,-1.09926e+09,-1.10295e+09,-1.10004e+09,-1.86789e+06,-0.03427,-0.31738,-0,0.319225,-2997.53,-40000,-0,40112.2,-1.86789e+06
step02_gravity_refstate-mantle.xmf,167,5.80318e-06,-2.04642e-05,0,-1.30417e-05,-1.11641e+09,-1.11992e+09,-1.11719e+09,-1.74302e+06,-0.0364115,-0.299185,-0,0.301392,-3242.05,-40532.9,-0,40662.4,-1.74302e+06
step02_gravity_refstate-mantle.xmf,168,1.75337e-06,-1.1649e-05,0,-1.06725e-05,-1.13962e+09,-1.14141e+09,-1.13985e+09,-1.42637e+06,-0.0454309,-0.229824,-0,0.234271,-5521.75,-41245.2,-0,41613.2,-1.42637e+06
step02_gravity_refstate-mantle.xmf,169,4.1353e-06,-1.6536e-05,0,-1.20365e-05,-1.13362e+09,-1.13638e+09,-1.13417e+09,-1.60868e+06,-0.0410955,-0.267156,-0,0.270299,-4098.54,-41063.3,-0,41267.3,-1.60868e+06
step02_gravity_refstate-mantle.xmf,170,3.1434e-06,-1.44798e-05,0,-1.15229e-05,-1.14065e+09,-1.14301e+09,-1.14107e+09,-1.54003e+06,-0.0434427,-0.249575,-0,0.253328,-4677.96,-41279.3,-0,41543.5,-1.54003e+06
step02_gravity_refstate-mantle.xmf,171,7.73857e-07,-9.09373e-06,0,-9.23463e-06,-1.15508e+09,-1.1564e+09,-1.15519e+09,-1.23421e+06,-0.0482065,-0.196499,-0,0.202326,-6797.09,-41723,-0,42273,-1.23421e+06
step02_gravity_refstate-mantle.xmf,172,-1.19855e-07,-6.68649e-06,0,-7.72136e-06,-1.15635e+09,-1.15723e+09,-1.15633e+09,-1.03196e+06,-0.0487574,-0.167072,-0,0.174041,-8257.02,-41762.3,-0,42570.7,-1.03196e+06
step02_gravity_refstate-mantle.xmf,173,-6.58507e-07,-4.95986e-06,0,-6.32775e-06,-1.16001e+09,-1.16058e+09,-1.15992e+09,-845704,-0.0485145,-0.138322,-0,0.146583,-9841.81,-41876.1,-0,43017.1,-845704
step02_gravity_refstate-mantle.xmf,174,-1.06981e-06,-3.07486e-06,0,-3.91343e-06,-1.24093e+09,-1.2412e+09,-1.24079e+09,-523030,-0.0528919,-0.0730473,-0,0.0901857,-14031.8,-44377.9,-0,46543.4,-523030
step02_gravity_refstate-mantle.xmf,175,-9.78627e-07,-3.43632e-06,0,-4.39122e-06,-1.22161e+09,-1.22194e+09,-1.22148e+09,-586887,-0.0522535,-0.085753,-0,0.100419,-13052.3,-43780.8,-0,45685,-586887
step02_gravity_refstate-mantle.xmf,176,-8.98927e-07,-3.83064e-06,0,-4.93976e-06,-1.20012e+09,-1.20051e+09,-1.2e+09,-660200,-0.0511926,-0.100658,-0,0.112928,-12035.1,-43116.4,-0,44764.6,-660200
step02_gravity_refstate-mantle.xmf,177,-7.07708e-07,-4.63845e-06,0,-5.86533e-06,-1.17859e+09,-1.17912e+09,-1.1785e+09,-783901,-0.0501479,-0.124271,-0,0.134008,-10554.2,-42450.6,-0,43743,-783901
step02_gravity_refstate-mantle.xmf,178,-2.71568e-06,4.38212e-07,0,-5.67723e-07,-1.49483e+09,-1.49441e+09,-1.49446e+09,-75876.1,-0.0421854,0.00395527,-0,0.0423704,-26641.9,-52218.7,-0,58622.3,-75876.1
step02_gravity_refstate-mantle.xmf,179,-2.49439e-06,4.95389e-08,0,-7.84535e-07,-1.46313e+09,-1.46279e+09,-1.46279e+09,-104853,-0.0455867,0.000500302,-0,0.0455895,-24991.1,-51239.9,-0,57009.5,-104853
step02_gravity_refstate-mantle.xmf,180,-2.2824e-06,-3.28071e-07,0,-1.03132e-06,-1.43303e+09,-1.43277e+09,-1.43272e+09,-137836,-0.0481851,-0.00397189,-0,0.0483485,-23478.3,-50310.6,-0,55519.3,-137836
step02_gravity_refstate-mantle.xmf,181,-2.07407e-06,-7.10285e-07,0,-1.31771e-06,-1.40391e+09,-1.40373e+09,-1.40364e+09,-176112,-0.0502375,-0.00966459,-0,0.0511587,-22014.4,-49411.7,-0,54093.9,-176112
step02_gravity_refstate-mantle.xmf,182,-1.87096e-06,-1.10033e-06,0,-1.63692e-06,-1.3784e+09,-1.3783e+09,-1.37815e+09,-218774,-0.0518907,-0.0164791,-0,0.0544445,-20606.6,-48624,-0,52810.3,-218774
step02_gravity_refstate-mantle.xmf,183,-2.97328e-06,8.50641e-07,0,-3.07691e-07,-1.58603e+09,-1.58552e+09,-1.58563e+09,-41122.9,-0.0391962,0.00465536,-0,0.0394717,-28322.7,-55035.3,-0,61895.6,-41122.9
step02_gravity_refstate-mantle.xmf,184,1.10324e-05,-3.1057e-05,0,-1.15102e-05,-1.0989e+09,-1.10453e+09,-1.10038e+09,-1.53834e+06,-0.0242033,-0.350283,-0,0.351118,-1793.25,-40000,-0,40040.2,-1.53834e+06
step02_gravity_refstate-mantle.xmf,185,8.41963e-06,-2.63519e-05,0,-1.33458e-05,-1.09908e+09,-1.10373e+09,-1.10021e+09,-1.78366e+06,-0.0300106,-0.334936,-0,0.336278,-2391.83,-40000,-0,40071.4,-1.78366e+06
step02_gravity_refstate-mantle.xmf,186,1.01934e-05,-2.78601e-05,0,-1.12288e-05,-1.11522e+09,-1.12031e+09,-1.11658e+09,-1.50073e+06,-0.0271249,-0.329118,-0,0.330234,-2071.88,-40506.6,-0,40559.6,-1.50073e+06
step02_gravity_refstate-mantle.xmf,187,8.00496e-06,-2.42199e-05,0,-1.25882e-05,-1.11563e+09,-1.11993e+09,-1.1167e+09,-1.68242e+06,-0.0323179,-0.31528,-0,0.316932,-2644.64,-40513.7,-0,40600,-1.68242e+06
step02_gravity_refstate-mantle.xmf,188,6.06827e-06,-1.97806e-05,0,-1.20811e-05,-1.13655e+09,-1.14001e+09,-1.13737e+09,-1.61464e+06,-0.0377358,-0.281907,-0,0.284421,-3427.48,-41158.7,-0,41301.1,-1.61464e+06
step02_gravity_refstate-mantle.xmf,189,1.98106e-06,-1.13879e-05,0,-1.00342e-05,-1.16306e+09,-1.16485e+09,-1.16333e+09,-1.34107e+06,-0.047452,-0.213271,-0,0.218486,-5886.31,-41971.6,-0,42382.4,-1.34107e+06
step02_gravity_refstate-mantle.xmf,190,-1.17438e-06,-2.72063e-06,0,-3.45817e-06,-1.2606e+09,-1.26081e+09,-1.26044e+09,-462185,-0.0532765,-0.0612265,-0,0.0811607,-15054.2,-44985.6,-0,47437.7,-462185
step02_gravity_refstate-mantle.xmf,191,6.13173e-07,-8.22658e-06,0,-8.46326e-06,-1.16961e+09,-1.17079e+09,-1.16969e+09,-1.13111e+06,-0.0497913,-0.179277,-0,0.186063,-7459.92,-42172.8,-0,42827.5,-1.13111e+06
step02_gravity_refstate-mantle.xmf,192,-2.15326e-07,-6.1075e-06,0,-7.08618e-06,-1.17274e+09,-1.17353e+09,-1.17271e+09,-947068,-0.050292,-0.150649,-0,0.158822,-8986.07,-42269.4,-0,43214.1,-947068
step02_gravity_refstate-mantle.xmf,193,-7.05707e-07,-4.4391e-06,0,-5.51317e-06,-1.19624e+09,-1.19674e+09,-1.19615e+09,-736835,-0.0515308,-0.113451,-0,0.124606,-11125.6,-42996.4,-0,44412.5,-736835
step02_gravity_refstate-mantle.xmf,194,-1.67708e-06,-1.49483e-06,0,-1.98827e-06,-1.35553e+09,-1.3555e+09,-1.3553e+09,-265732,-0.0531658,-0.0243139,-0,0.0584617,-19261.8,-47917.7,-0,51644.2,-265732
step02_gravity_refstate-mantle.xmf,195,-1.50056e-06,-1.87712e-06,0,-2.36925e-06,-1.33213e+09,-1.33218e+09,-1.33193e+09,-316650,-0.0539368,-0.0331301,-0,0.0632992,-17998.6,-47195.1,-0,50510.7,-316650
step02_gravity_refstate-mantle.xmf,196,-1.27132e-06,-2.41993e-06,0,-3.05052e-06,-1.28466e+09,-1.28482e+09,-1.28449e+09,-407702,-0.0537477,-0.0505258,-0,0.0737677,-16057,-45729.1,-0,48466.3,-407702
step02_gravity_refstate-mantle.xmf,197,-1.33111e-06,-2.25815e-06,0,-2.75609e-06,-1.31317e+09,-1.3133e+09,-1.31299e+09,-368352,-0.0544939,-0.0423027,-0,0.0689863,-16846.6,-46609.8,-0,49560.8,-368352
step02_gravity_refstate-mantle.xmf,198,-2.7499e-06,4.49795e-07,0,-4.72663e-07,-1.55208e+09,-1.55165e+09,-1.55171e+09,-63171.4,-0.0434973,0.00313456,-0,0.0436101,-26621.5,-53986.9,-0,60193.8,-63171.4
step02_gravity_refstate-mantle.xmf,199,-2.97707e-06,8.67141e-07,0,-2.18442e-07,-1.63991e+09,-1.63939e+09,-1.63951e+09,-29194.8,-0.0403683,0.00306454,-0,0.0404844,-28141,-56699.5,-0,63298.9,-29194.8
step02_gravity_refstate-mantle.xmf,200,-3.0992e-06,1.12039e-06,0,-1.02172e-07,-1.68883e+09,-1.68827e+09,-1.68842e+09,-13655.3,-0.0379593,0.00206451,-0,0.0380154,-29048.4,-58210.6,-0,65056,-13655.3
step02_gravity_refstate-mantle.xmf,201,-3.23238e-06,1.43059e-06,0,2.38329e-10,-1.74676e+09,-1.74614e+09,-1.74633e+09,31.8527,-0.0343194,-1.91154e-21,-0,0.0343194,-30242,-60000,-0,67190.6,-31.8527
step02_gravity_refstate-mantle.xmf,202,1.23403e-05,-3.14437e-05,0,-8.86146e-06,-1.11469e+09,-1.12054e+09,-1.11634e+09,-1.18433e+06,-0.0203704,-0.34129,-0,0.341898,-1472.15,-40495.3,-0,40522.1,-1.18433e+06
step02_gravity_refstate-mantle.xmf,203,7.46299e-06,-2.24855e-05,0,-1.20688e-05,-1.13032e+09,-1.13432e+09,-1.13131e+09,-1.61299e+06,-0.0342754,-0.298244,-0,0.300207,-2908.56,-40968.4,-0,41071.5,-1.61299e+06
step02_gravity_refstate-mantle.xmf,204,2.89081e-06,-1.32962e-05,0,-1.0701e-05,-1.15773e+09,-1.15989e+09,-1.15811e+09,-1.43019e+06,-0.0454596,-0.23128,-0,0.235706,-5151.86,-41808.1,-0,42124.3,-1.43019e+06
step02_gravity_refstate-mantle.xmf,205,5.14714e-06,-1.74295e-05,0,-1.13315e-05,-1.15183e+09,-1.15485e+09,-1.15252e+09,-1.51445e+06,-0.0407194,-0.260553,-0,0.263715,-3971.32,-41630.4,-0,41819.4,-1.51445e+06
step02_gravity_refstate-mantle.xmf,206,1.31823e-05,-3.44565e-05,0,-8.12911e-06,-1.09872e+09,-1.10509e+09,-1.10048e+09,-1.08646e+06,-0.0169584,-0.362205,-0,0.362602,-1195.5,-40000,-0,40017.9,-1.08646e+06
step02_gravity_refstate-mantle.xmf,207,1.44193e-05,-3.65795e-05,0,-4.17454e-06,-1.09863e+09,-1.10545e+09,-1.10056e+09,-557927,-0.00871787,-0.369692,-0,0.369794,-597.755,-40000,-0,40004.5,-557927
step02_gravity_refstate-mantle.xmf,208,1.38787e-05,-3.36949e-05,0,-5.35904e-06,-1.11585e+09,-1.1222e+09,-1.1177e+09,-716236,-0.0123,-0.348446,-0,0.348664,-858.092,-40535.6,-0,40544.6,-716236
step02_gravity_refstate-mantle.xmf,209,1.4804e-05,-3.72518e-05,0,-1.66714e-09,-1.0986e+09,-1.10556e+09,-1.10058e+09,-222.813,-7.67852e-06,-0.372231,-0,0.372231,0,-40000,0,40000,-222.813
step02_gravity_refstate-mantle.xmf,210,1.45847e-05,-3.48423e-05,0,-1.62554e-06,-1.11562e+09,-1.12223e+09,-1.11757e+09,-217253,-0.00378232,-0.352699,-0,0.35272,-259.417,-40530.4,-0,40531.2,-217253
step02_gravity_refstate-mantle.xmf,211,1.55706e-06,-1.0057e-05,0,-9.12204e-06,-1.18078e+09,-1.18233e+09,-1.18098e+09,-1.21916e+06,-0.0495622,-0.191899,-0,0.198195,-6647.95,-42519.4,-0,43035.9,-1.21916e+06
step02_gravity_refstate-mantle.xmf,212,4.26738e-07,-7.45917e-06,0,-7.76981e-06,-1.1852e+09,-1.18625e+09,-1.18525e+09,-1.03844e+06,-0.0512558,-0.162409,-0,0.170305,-8166.84,-42655,-0,43429.8,-1.03844e+06
step02_gravity_refstate-mantle.xmf,213,-8.93783e-07,-3.39219e-06,0,-3.89723e-06,-1.27673e+09,-1.27706e+09,-1.27661e+09,-520864,-0.05539,-0.0691706,-0,0.088615,-14061.5,-45484.1,-0,47608,-520864
step02_gravity_refstate-mantle.xmf,214,-2.85051e-07,-5.63844e-06,0,-6.51825e-06,-1.19013e+09,-1.19085e+09,-1.1901e+09,-871164,-0.0516915,-0.135668,-0,0.145182,-9700.83,-42807.4,-0,43892.8,-871164
step02_gravity_refstate-mantle.xmf,215,-7.44314e-07,-3.856e-06,0,-4.4233e-06,-1.25827e+09,-1.25868e+09,-1.25817e+09,-591174,-0.0550624,-0.082006,-0,0.0987768,-13018.2,-44913.6,-0,46762.2,-591174
step02_gravity_refstate-mantle.xmf,216,-6.18509e-07,-4.30626e-06,0,-4.95661e-06,-1.23958e+09,-1.24007e+09,-1.23949e+09,-662451,-0.0544425,-0.0953232,-0,0.109775,-12064.9,-44335.9,-0,45948.2,-662451
step02_gravity_refstate-mantle.xmf,217,-3.71426e-07,-5.252e-06,0,-6.02884e-06,-1.20785e+09,-1.2085e+09,-1.2078e+09,-805754,-0.0529158,-0.122147,-0,0.133116,-10396.1,-43355.1,-0,44584.1,-805754
step02_gravity_refstate-mantle.xmf,218,-4.837e-07,-4.79051e-06,0,-5.50271e-06,-1.22332e+09,-1.22389e+09,-1.22325e+09,-735437,-0.0537605,-0.108874,-0,0.121424,-11178,-43833.3,-0,45236.1,-735437
step02_gravity_refstate-mantle.xmf,219,-2.50882e-06,2.0716e-08,0,-6.8339e-07,-1.51907e+09,-1.51874e+09,-1.51874e+09,-91335,-0.0471709,0.000361082,-0,0.0471723,-24957.6,-52968,-0,58553.3,-91335
step02_gravity_refstate-mantle.xmf,220,-1.57973e-06,-1.70163e-06,0,-1.90604e-06,-1.4035e+09,-1.40352e+09,-1.40329e+09,-254742,-0.055357,-0.0222493,-0,0.059661,-19204.7,-49399.8,-0,53001.5,-254742
step02_gravity_refstate-mantle.xmf,221,-2.27294e-06,-4.01781e-07,0,-9.25054e-07,-1.48932e+09,-1.48907e+09,-1.48902e+09,-123633,-0.050051,-0.00346726,-0,0.0501709,-23434.6,-52049.4,-0,57081.7,-123633
step02_gravity_refstate-mantle.xmf,222,-2.03312e-06,-8.36978e-07,0,-1.21222e-06,-1.45992e+09,-1.45976e+09,-1.45965e+09,-162013,-0.0523652,-0.0085418,-0,0.0530573,-21956.3,-51141.7,-0,55655.6,-162013
step02_gravity_refstate-mantle.xmf,223,-1.80243e-06,-1.26763e-06,0,-1.53978e-06,-1.4309e+09,-1.43083e+09,-1.43066e+09,-205791,-0.0540871,-0.0147956,-0,0.0560743,-20554,-50245.6,-0,54287.1,-205791
step02_gravity_refstate-mantle.xmf,224,-2.76891e-06,4.78516e-07,0,-3.51007e-07,-1.60996e+09,-1.60953e+09,-1.60959e+09,-46912.1,-0.0444001,0.00230446,-0,0.0444599,-26621.9,-55775,-0,61802.7,-46912.1
step02_gravity_refstate-mantle.xmf,225,1.13652e-05,-2.87906e-05,0,-9.38522e-06,-1.12699e+09,-1.13235e+09,-1.1285e+09,-1.25433e+06,-0.0236455,-0.324619,-0,0.325479,-1772.95,-40875.4,-0,40913.9,-1.25433e+06
step02_gravity_refstate-mantle.xmf,226,9.80139e-06,-2.58684e-05,0,-1.05956e-05,-1.13338e+09,-1.13814e+09,-1.13469e+09,-1.4161e+06,-0.0287173,-0.309806,-0,0.311135,-2271.35,-41069.9,-0,41132.6,-1.4161e+06
step02_gravity_refstate-mantle.xmf,227,8.41378e-06,-2.29226e-05,0,-1.07459e-05,-1.14717e+09,-1.15135e+09,-1.14829e+09,-1.43619e+06,-0.0327172,-0.289557,-0,0.2914,-2761.52,-41494.1,-0,41585.9,-1.43619e+06
step02_gravity_refstate-mantle.xmf,228,4.31678e-06,-1.5523e-05,0,-1.07708e-05,-1.16559e+09,-1.16825e+09,-1.16617e+09,-1.43952e+06,-0.0433114,-0.241337,-0,0.245193,-4529.05,-42054.9,-0,42298.1,-1.43952e+06
step02_gravity_refstate-mantle.xmf,229,3.62499e-06,-1.38315e-05,0,-1.01092e-05,-1.17986e+09,-1.18219e+09,-1.18034e+09,-1.35109e+06,-0.0456941,-0.222437,-0,0.227082,-5129.52,-42495.2,-0,42803.6,-1.35109e+06
step02_gravity_refstate-mantle.xmf,230,7.17746e-06,-2.03654e-05,0,-1.06681e-05,-1.16001e+09,-1.16369e+09,-1.16097e+09,-1.4258e+06,-0.0363092,-0.270549,-0,0.272975,-3278.25,-41889.2,-0,42017.3,-1.4258e+06
step02_gravity_refstate-mantle.xmf,231,1.44032e-05,-3.65536e-05,0,4.19483e-06,-1.09863e+09,-1.10544e+09,-1.10056e+09,560639,0.00871906,-0.369689,0,0.369792,597.755,-40000,0,40004.5,-560639
step02_gravity_refstate-mantle.xmf,232,1.45748e-05,-3.49114e-05,0,2.00717e-06,-1.1149e+09,-1.12151e+09,-1.11685e+09,268258,0.00451115,-0.353308,0,0.353337,309.494,-40507.8,0,40509,-268258
step02_gravity_refstate-mantle.xmf,233,-1.03564e-06,-2.98278e-06,0,-3.44761e-06,-1.2933e+09,-1.29356e+09,-1.29316e+09,-460774,-0.05545,-0.0584273,-0,0.0805509,-15044.7,-45996.1,-0,48394,-460774
step02_gravity_refstate-mantle.xmf,234,1.28672e-06,-9.0318e-06,0,-8.33201e-06,-1.197e+09,-1.19838e+09,-1.19717e+09,-1.11357e+06,-0.0512249,-0.173849,-0,0.181238,-7358.18,-43021.3,-0,43646,-1.11357e+06
step02_gravity_refstate-mantle.xmf,235,2.8843e-07,-6.83531e-06,0,-7.13878e-06,-1.20213e+09,-1.20308e+09,-1.20217e+09,-954099,-0.0526018,-0.146736,-0,0.155879,-8868.55,-43178.7,-0,44080.1,-954099
step02_gravity_refstate-mantle.xmf,236,-1.3689e-06,-2.13544e-06,0,-2.30244e-06,-1.37831e+09,-1.37841e+09,-1.37813e+09,-307721,-0.0562299,-0.0307173,-0,0.0640731,-17926.2,-48622,-0,51821.3,-307721
step02_gravity_refstate-mantle.xmf,237,-1.17036e-06,-2.57305e-06,0,-2.7363e-06,-1.35376e+09,-1.35395e+09,-1.35361e+09,-365707,-0.0567307,-0.0403352,-0,0.0696082,-16697.7,-47863.8,-0,50692.8,-365707
step02_gravity_refstate-mantle.xmf,238,-1.00096e-06,-2.996e-06,0,-3.22257e-06,-1.32595e+09,-1.32621e+09,-1.32581e+09,-430697,-0.0567276,-0.0515602,-0,0.0766582,-15504.3,-47004.6,-0,49495.6,-430697
step02_gravity_refstate-mantle.xmf,239,-2.50915e-06,1.10895e-08,0,-5.44085e-07,-1.5765e+09,-1.57616e+09,-1.57617e+09,-72717,-0.0483322,0.000309518,-0,0.0483332,-24945.2,-54741.9,-0,60157.6,-72717
step02_gravity_refstate-mantle.xmf,240,-2.80572e-06,5.84198e-07,0,-1.73913e-07,-1.67995e+09,-1.6795e+09,-1.67958e+09,-23243.5,-0.0446265,0.00128672,-0,0.0446451,-26773.4,-57936.9,-0,63824,-23243.5
step02_gravity_refstate-mantle.xmf,241,-2.98434e-06,9.85933e-07,0,1.19287e-09,-1.74674e+09,-1.74621e+09,-1.74635e+09,159.426,-0.0411764,2.34951e-20,-0,0.0411764,-28035.6,-60000,-0,66226.9,-159.426
step02_gravity_refstate-mantle.xmf,242,2.85075e-06,-1.21251e-05,0,-9.45028e-06,-1.19248e+09,-1.19448e+09,-1.19286e+09,-1.26303e+06,-0.0480898,-0.203237,-0,0.208849,-5852.26,-42884.2,-0,43281.7,-1.26303e+06
step02_gravity_refstate-mantle.xmf,243,1.29921e-05,-3.09091e-05,0,-6.41942e-06,-1.13152e+09,-1.13739e+09,-1.13326e+09,-857956,-0.016159,-0.3293,-0,0.329696,-1169.54,-41021,-0,41037.6,-857956
step02_gravity_refstate-mantle.xmf,244,6.09364e-06,-1.80428e-05,0,-1.02796e-05,-1.17455e+09,-1.17778e+09,-1.17537e+09,-1.37387e+06,-0.0395828,-0.250773,-0,0.253878,-3840.45,-42337.1,-0,42510.9,-1.37387e+06
step02_gravity_refstate-mantle.xmf,245,1.39818e-05,-3.20901e-05,0,-2.6327e-06,-1.13594e+09,-1.14209e+09,-1.13781e+09,-351860,-0.006481,-0.330819,-0,0.330883,-460.448,-41161,-0,41163.6,-351860
step02_gravity_refstate-mantle.xmf,246,1.31518e-05,-3.43247e-05,0,8.28684e-06,-1.09872e+09,-1.10506e+09,-1.10047e+09,1.10754e+06,0.0169568,-0.362202,0,0.362599,1195.5,-40000,0,40017.9,-1.10754e+06
step02_gravity_refstate-mantle.xmf,247,1.39855e-05,-3.41196e-05,0,5.25834e-06,-1.11298e+09,-1.11941e+09,-1.11485e+09,702778,0.0116978,-0.351918,0,0.352113,812.633,-40446.7,0,40454.9,-702778
step02_gravity_refstate-mantle.xmf,248,1.43389e-05,-3.31394e-05,0,5.02957e-07,-1.12927e+09,-1.13562e+09,-1.13119e+09,67220.2,0.00107858,-0.338639,0,0.338641,75.0809,-40954.8,0,40954.9,-67220.2
step02_gravity_refstate-mantle.xmf,249,2.32176e-06,-1.08018e-05,0,-8.73669e-06,-1.20824e+09,-1.21e+09,-1.20855e+09,-1.16766e+06,-0.0500814,-0.184606,-0,0.191279,-6562.86,-43371,-0,43864.8,-1.16766e+06
step02_gravity_refstate-mantle.xmf,250,1.03843e-06,-8.20672e-06,0,-7.65794e-06,-1.21378e+09,-1.21502e+09,-1.21392e+09,-1.02348e+06,-0.0526657,-0.157338,-0,0.165919,-8057.98,-43540.2,-0,44279.6,-1.02348e+06
step02_gravity_refstate-mantle.xmf,251,-7.07334e-07,-3.65855e-06,0,-3.79001e-06,-1.31222e+09,-1.31262e+09,-1.31213e+09,-506535,-0.0572111,-0.0644128,-0,0.0861517,-14156,-46581,-0,48684.5,-506535
step02_gravity_refstate-mantle.xmf,252,-4.79579e-07,-4.23013e-06,0,-4.33924e-06,-1.29459e+09,-1.29509e+09,-1.29453e+09,-579940,-0.0570471,-0.077275,-0,0.096051,-13036.4,-46036.4,-0,47846.6,-579940
step02_gravity_refstate-mantle.xmf,253,1.89985e-07,-6.33578e-06,0,-6.57355e-06,-1.22016e+09,-1.22103e+09,-1.22019e+09,-878555,-0.0538225,-0.132443,-0,0.142961,-9548.96,-43736.4,-0,44766.6,-878555
step02_gravity_refstate-mantle.xmf,254,-2.79714e-07,-4.78974e-06,0,-4.91181e-06,-1.27556e+09,-1.27616e+09,-1.27552e+09,-656464,-0.0565367,-0.0909141,-0,0.10706,-12009.5,-45448.4,-0,47008.4,-656464
step02_gravity_refstate-mantle.xmf,255,-1.03053e-07,-5.33551e-06,0,-5.48227e-06,-1.257e+09,-1.2577e+09,-1.25699e+09,-732706,-0.055811,-0.104706,-0,0.118652,-11092.5,-44875,-0,46225.6,-732706
step02_gravity_refstate-mantle.xmf,256,5.34099e-08,-5.86816e-06,0,-6.05017e-06,-1.23863e+09,-1.23942e+09,-1.23863e+09,-808605,-0.0549013,-0.118706,-0,0.130787,-10265.2,-44307,-0,45480.6,-808605
step02_gravity_refstate-mantle.xmf,257,-1.20209e-06,-2.39147e-06,0,-2.16141e-06,-1.42614e+09,-1.4263e+09,-1.42598e+09,-288872,-0.0579944,-0.0277694,-0,0.0643,-17855.4,-50099.8,-0,53186.5,-288872
step02_gravity_refstate-mantle.xmf,258,-2.23978e-06,-4.68753e-07,0,-7.79258e-07,-1.54536e+09,-1.54513e+09,-1.54506e+09,-104148,-0.0515045,-0.00287629,-0,0.0515848,-23368.5,-53780.6,-0,58638.2,-104148
step02_gravity_refstate-mantle.xmf,259,-1.45598e-06,-1.89843e-06,0,-1.75038e-06,-1.45405e+09,-1.45411e+09,-1.45386e+09,-233939,-0.0570667,-0.0196198,-0,0.0603452,-19166.2,-50961.6,-0,54446.6,-233939
step02_gravity_refstate-mantle.xmf,260,-1.96256e-06,-9.63844e-07,0,-1.06224e-06,-1.5154e+09,-1.51527e+09,-1.51514e+09,-141969,-0.0540393,-0.00731394,-0,0.054532,-21855.8,-52855.6,-0,57196.1,-141969
step02_gravity_refstate-mantle.xmf,261,-1.70783e-06,-1.42603e-06,0,-1.38263e-06,-1.48412e+09,-1.48408e+09,-1.48389e+09,-184788,-0.0557711,-0.0127994,-0,0.0572209,-20498.2,-51889.8,-0,55791.8,-184788
step02_gravity_refstate-mantle.xmf,262,-2.50402e-06,3.06236e-08,0,-3.72681e-07,-1.63447e+09,-1.63413e+09,-1.63414e+09,-49808.8,-0.0490745,0.000286192,-0,0.0490753,-24956.5,-56532.6,-0,61796.2,-49808.8
step02_gravity_refstate-mantle.xmf,263,1.16896e-05,-2.81816e-05,0,-7.86433e-06,-1.1432e+09,-1.14853e+09,-1.14476e+09,-1.05107e+06,-0.0214495,-0.312587,-0,0.313322,-1628.32,-41380.1,-0,41412.1,-1.05107e+06
step02_gravity_refstate-mantle.xmf,264,1.03965e-05,-2.54523e-05,0,-8.76386e-06,-1.15526e+09,-1.16005e+09,-1.15665e+09,-1.17129e+06,-0.026292,-0.295235,-0,0.296404,-2111.58,-41750.9,-0,41804.3,-1.17129e+06
step02_gravity_refstate-mantle.xmf,265,9.10339e-06,-2.2879e-05,0,-9.19388e-06,-1.16869e+09,-1.17296e+09,-1.1699e+09,-1.22876e+06,-0.0305242,-0.277059,-0,0.278735,-2609.66,-42163.6,-0,42244.3,-1.22876e+06
step02_gravity_refstate-mantle.xmf,266,5.13955e-06,-1.60204e-05,0,-9.879e-06,-1.18948e+09,-1.19231e+09,-1.19016e+09,-1.32033e+06,-0.0425846,-0.231266,-0,0.235154,-4448.27,-42796.9,-0,43027.4,-1.32033e+06
step02_gravity_refstate-mantle.xmf,267,4.30418e-06,-1.42402e-05,0,-9.37003e-06,-1.20424e+09,-1.20672e+09,-1.20481e+09,-1.2523e+06,-0.0453109,-0.21245,-0,0.217229,-5096.64,-43251.8,-0,43551,-1.2523e+06
step02_gravity_refstate-mantle.xmf,268,7.9017e-06,-2.04833e-05,0,-9.29746e-06,-1.18307e+09,-1.18687e+09,-1.18413e+09,-1.24261e+06,-0.0343783,-0.258439,-0,0.260716,-3142.88,-42606.1,-0,42721.8,-1.24261e+06
step02_gravity_refstate-mantle.xmf,269,1.10339e-05,-3.08685e-05,0,1.13983e-05,-1.09889e+09,-1.10449e+09,-1.10036e+09,1.52338e+06,0.0241996,-0.350282,0,0.351117,1793.25,-40000,0,40040.2,-1.52338e+06
step02_gravity_refstate-mantle.xmf,270,1.17119e-05,-3.05352e-05,0,9.82589e-06,-1.11239e+09,-1.11804e+09,-1.11395e+09,1.31323e+06,0.022665,-0.340133,0,0.340888,1660.08,-40422.4,0,40456.5,-1.31323e+06
step02_gravity_refstate-mantle.xmf,271,1.28708e-05,-3.15093e-05,0,7.51995e-06,-1.12129e+09,-1.12723e+09,-1.12301e+09,1.00504e+06,0.0176369,-0.338001,0,0.338461,1264.8,-40702.7,0,40722.4,-1.00504e+06
step02_gravity_refstate-mantle.xmf,272,1.38349e-05,-3.21097e-05,0,4.06142e-06,-1.13151e+09,-1.13765e+09,-1.13336e+09,542809,0.00981099,-0.333835,0,0.333979,695.615,-41023.1,0,41029,-542809
step02_gravity_refstate-mantle.xmf,273,1.97265e-06,-9.75549e-06,0,-8.0243e-06,-1.22518e+09,-1.22675e+09,-1.22544e+09,-1.07245e+06,-0.0517524,-0.167476,-0,0.17529,-7251.54,-43894.6,-0,44489.5,-1.07245e+06
step02_gravity_refstate-mantle.xmf,274,8.53969e-07,-7.55683e-06,0,-7.06144e-06,-1.2309e+09,-1.23202e+09,-1.23101e+09,-943762,-0.0538946,-0.14268,-0,0.15252,-8719.19,-44069.3,-0,44923.6,-943762
step02_gravity_refstate-mantle.xmf,275,-9.55132e-07,-2.89501e-06,0,-2.61195e-06,-1.39968e+09,-1.39994e+09,-1.39955e+09,-349087,-0.0585423,-0.0371478,-0,0.0693337,-16592,-49282.8,-0,52000.9,-349087
step02_gravity_refstate-mantle.xmf,276,-7.22706e-07,-3.39635e-06,0,-3.08554e-06,-1.37497e+09,-1.37533e+09,-1.37488e+09,-412382,-0.0587423,-0.0474208,-0,0.0754944,-15411.7,-48519.9,-0,50908.8,-412382
step02_gravity_refstate-mantle.xmf,277,-2.21019e-06,-4.92748e-07,0,-5.92552e-07,-1.60121e+09,-1.60098e+09,-1.60092e+09,-79194.5,-0.052453,-0.00207425,-0,0.052494,-23352.9,-55505.9,-0,60218.5,-79194.5
step02_gravity_refstate-mantle.xmf,278,-2.44864e-06,-5.30913e-09,0,-1.89046e-07,-1.69303e+09,-1.69271e+09,-1.69271e+09,-25266,-0.0502055,3.97378e-05,-0,0.0502056,-24676.1,-58341.9,-0,63345.8,-25266
step02_gravity_refstate-mantle.xmf,279,-2.67173e-06,4.45927e-07,0,1.56879e-09,-1.74672e+09,-1.7463e+09,-1.74636e+09,209.669,-0.047181,3.78299e-20,-0,0.047181,-25910.4,-60000,-0,65355.6,-209.669
step02_gravity_refstate-mantle.xmf,280,3.60146e-06,-1.27094e-05,0,-8.80268e-06,-1.21971e+09,-1.22189e+09,-1.22019e+09,-1.17648e+06,-0.0477137,-0.194183,-0,0.199959,-5773.08,-43729,-0,44108.4,-1.17648e+06
step02_gravity_refstate-mantle.xmf,281,1.29955e-05,-2.95232e-05,0,-4.76195e-06,-1.1504e+09,-1.15608e+09,-1.15213e+09,-636435,-0.0132743,-0.313463,-0,0.313744,-986.39,-41607.6,-0,41619.3,-636435
step02_gravity_refstate-mantle.xmf,282,6.76341e-06,-1.82475e-05,0,-9.14555e-06,-1.1985e+09,-1.20184e+09,-1.1994e+09,-1.2223e+06,-0.0380099,-0.239239,-0,0.24224,-3733.18,-43080.6,-0,43242,-1.2223e+06
step02_gravity_refstate-mantle.xmf,283,1.38644e-05,-3.10658e-05,0,1.16301e-06,-1.14639e+09,-1.1524e+09,-1.14825e+09,155436,0.00292134,-0.321379,0,0.321392,211.08,-41485.8,0,41486.4,-155436
step02_gravity_refstate-mantle.xmf,284,8.41715e-06,-2.63589e-05,0,1.33577e-05,-1.09908e+09,-1.10373e+09,-1.10021e+09,1.78525e+06,0.0300094,-0.334934,0,0.336276,2391.83,-40000,0,40071.4,-1.78525e+06
step02_gravity_refstate-mantle.xmf,285,1.00254e-05,-2.76249e-05,0,1.14045e-05,-1.11501e+09,-1.12004e+09,-1.11635e+09,1.52422e+06,0.0276126,-0.328253,0,0.329413,2119.59,-40499.5,0,40554.9,-1.52422e+06
step02_gravity_refstate-mantle.xmf,286,-4.6279e-07,-3.96661e-06,0,-3.60892e-06,-1.35272e+09,-1.35319e+09,-1.35266e+09,-482332,-0.0587313,-0.0591187,-0,0.083333,-14216.8,-47832.8,-0,49900.8,-482332
step02_gravity_refstate-mantle.xmf,287,3.03746e-06,-1.14238e-05,0,-8.20354e-06,-1.23633e+09,-1.23827e+09,-1.23674e+09,-1.0964e+06,-0.0497839,-0.176657,-0,0.183538,-6460.66,-44242,-0,44711.2,-1.0964e+06
step02_gravity_refstate-mantle.xmf,288,1.64428e-06,-8.86827e-06,0,-7.40495e-06,-1.24194e+09,-1.24334e+09,-1.24216e+09,-989672,-0.0532112,-0.15165,-0,0.160715,-7947.28,-44412.3,-0,45117.8,-989672
step02_gravity_refstate-mantle.xmf,289,-1.85074e-07,-4.59118e-06,0,-4.16596e-06,-1.33259e+09,-1.33318e+09,-1.33257e+09,-556780,-0.0584709,-0.0718968,-0,0.0926715,-13056.7,-47211.3,-0,48983.5,-556780
step02_gravity_refstate-mantle.xmf,290,8.09677e-08,-5.22965e-06,0,-4.74874e-06,-1.31225e+09,-1.31296e+09,-1.31226e+09,-634669,-0.0579119,-0.0855492,-0,0.103308,-11980.1,-46583.2,-0,48099,-634669
step02_gravity_refstate-mantle.xmf,291,7.49641e-07,-7.06963e-06,0,-6.51783e-06,-1.25045e+09,-1.2515e+09,-1.25055e+09,-871109,-0.0550248,-0.129095,-0,0.140333,-9346.32,-44673.9,-0,45641.1,-871109
step02_gravity_refstate-mantle.xmf,292,3.39491e-07,-5.89167e-06,0,-5.3549e-06,-1.2922e+09,-1.29304e+09,-1.29225e+09,-715682,-0.0571184,-0.0999444,-0,0.115115,-10980.3,-45963.9,-0,47257.3,-715682
step02_gravity_refstate-mantle.xmf,293,5.73394e-07,-6.53689e-06,0,-5.95379e-06,-1.27257e+09,-1.27353e+09,-1.27265e+09,-795724,-0.0561605,-0.114403,-0,0.127444,-10098.3,-45357.5,-0,46468,-795724
step02_gravity_refstate-mantle.xmf,294,-7.29175e-07,-3.18435e-06,0,-2.40034e-06,-1.44679e+09,-1.44712e+09,-1.44669e+09,-320805,-0.0598031,-0.033188,-0,0.0683949,-16512.3,-50738.8,-0,53358.1,-320805
step02_gravity_refstate-mantle.xmf,295,-1.01909e-06,-2.63228e-06,0,-1.95263e-06,-1.47495e+09,-1.47516e+09,-1.47481e+09,-260969,-0.0592864,-0.024377,-0,0.0641024,-17774.8,-51608.1,-0,54583.4,-260969
step02_gravity_refstate-mantle.xmf,296,-1.90018e-06,-1.03877e-06,0,-8.47145e-07,-1.57274e+09,-1.57263e+09,-1.57249e+09,-113221,-0.0551561,-0.00559416,-0,0.0554391,-21834.6,-54627.2,-0,58829.2,-113221
step02_gravity_refstate-mantle.xmf,297,-1.32055e-06,-2.07982e-06,0,-1.54128e-06,-1.5047e+09,-1.5048e+09,-1.50452e+09,-205993,-0.0583299,-0.0167354,-0,0.0606832,-19110.3,-52526.5,-0,55894.9,-205993
step02_gravity_refstate-mantle.xmf,298,-1.58963e-06,-1.58991e-06,0,-1.17403e-06,-1.53982e+09,-1.53982e+09,-1.53961e+09,-156909,-0.0571445,-0.0105908,-0,0.0581177,-20378.5,-53610.9,-0,57353.4,-156909
step02_gravity_refstate-mantle.xmf,299,-2.21086e-06,-4.35972e-07,0,-3.89082e-07,-1.6504e+09,-1.65016e+09,-1.6501e+09,-52000.8,-0.0527022,-0.00119323,-0,0.0527157,-23481.8,-57025.3,-0,61670.7,-52000.8
step02_gravity_refstate-mantle.xmf,300,1.17846e-05,-2.71667e-05,0,-6.3312e-06,-1.16275e+09,-1.16795e+09,-1.16432e+09,-846165,-0.0189258,-0.297755,-0,0.298355,-1476.72,-41987.1,-0,42013,-846165
step02_gravity_refstate-mantle.xmf,301,1.06807e-05,-2.48528e-05,0,-7.18284e-06,-1.17649e+09,-1.18124e+09,-1.17792e+09,-959987,-0.0235782,-0.281093,-0,0.28208,-1943.94,-42410.2,-0,42454.7,-959987
step02_gravity_refstate-mantle.xmf,302,9.54648e-06,-2.2542e-05,0,-7.62326e-06,-1.19221e+09,-1.1965e+09,-1.19348e+09,-1.01885e+06,-0.0277036,-0.263231,-0,0.264685,-2428.74,-42894,-0,42962.7,-1.01885e+06
step02_gravity_refstate-mantle.xmf,303,5.789e-06,-1.62935e-05,0,-8.91325e-06,-1.21412e+09,-1.21707e+09,-1.2149e+09,-1.19126e+06,-0.0413004,-0.220462,-0,0.224297,-4360.77,-43561.8,-0,43779.5,-1.19126e+06
step02_gravity_refstate-mantle.xmf,304,4.95306e-06,-1.46086e-05,0,-8.53656e-06,-1.23012e+09,-1.23274e+09,-1.23079e+09,-1.14091e+06,-0.0441711,-0.202414,-0,0.207178,-5005.88,-44054.8,-0,44338.3,-1.14091e+06
step02_gravity_refstate-mantle.xmf,305,8.35167e-06,-2.02728e-05,0,-7.95464e-06,-1.20749e+09,-1.21131e+09,-1.2086e+09,-1.06314e+06,-0.0321104,-0.245087,-0,0.247181,-3009.85,-43363.7,-0,43468,-1.06314e+06
step02_gravity_refstate-mantle.xmf,306,1.34036e-05,-2.9719e-05,0,-1.63289e-06,-1.15864e+09,-1.16441e+09,-1.16044e+09,-218236,-0.0045092,-0.309561,-0,0.309594,-335.28,-41864.6,-0,41866,-218236
step02_gravity_refstate-mantle.xmf,307,5.77927e-06,-2.17278e-05,0,1.39843e-05,-1.09927e+09,-1.10295e+09,-1.10004e+09,1.86901e+06,0.0342669,-0.317376,0,0.319221,2997.53,-40000,0,40112.2,-1.86901e+06
step02_gravity_refstate-mantle.xmf,308,7.8451e-06,-2.42264e-05,0,1.28134e-05,-1.11319e+09,-1.11748e+09,-1.11424e+09,1.71252e+06,0.0323432,-0.316984,0,0.31863,2649.98,-40437.4,0,40524.2,-1.71252e+06
step02_gravity_refstate-mantle.xmf,309,1.11601e-05,-2.81834e-05,0,9.42944e-06,-1.12979e+09,-1.13505e+09,-1.13129e+09,1.26024e+06,0.0244154,-0.320803,0,0.32173,1848.24,-40962.4,0,41004,-1.26024e+06
step02_gravity_refstate-mantle.xmf,310,1.23366e-05,-2.91603e-05,0,7.00427e-06,-1.1413e+09,-1.14684e+09,-1.14295e+09,936121,0.0185065,-0.317639,0,0.318177,1377.76,-41323.1,0,41346,-936121
step02_gravity_refstate-mantle.xmf,311,1.30808e-05,-2.94613e-05,0,4.13123e-06,-1.15365e+09,-1.15934e+09,-1.1554e+09,552139,0.0113744,-0.311591,0,0.311798,846.765,-41708.9,0,41717.5,-552139
step02_gravity_refstate-mantle.xmf,312,2.59037e-06,-1.03314e-05,0,-7.58475e-06,-1.25323e+09,-1.25496e+09,-1.25358e+09,-1.0137e+06,-0.0515772,-0.160291,-0,0.168385,-7153.02,-44763.7,-0,45331.6,-1.0137e+06
step02_gravity_refstate-mantle.xmf,313,1.38692e-06,-8.19779e-06,0,-6.90281e-06,-1.25689e+09,-1.25818e+09,-1.25708e+09,-922561,-0.0543189,-0.138887,-0,0.149131,-8546.03,-44874.3,-0,45680.8,-922561
step02_gravity_refstate-mantle.xmf,314,-4.40256e-07,-3.75104e-06,0,-2.87224e-06,-1.42132e+09,-1.42176e+09,-1.42126e+09,-383875,-0.0599799,-0.0429906,-0,0.0737956,-15310.1,-49952.5,-0,52246.1,-383875
step02_gravity_refstate-mantle.xmf,315,-1.56062e-07,-4.33268e-06,0,-3.37735e-06,-1.39653e+09,-1.39708e+09,-1.39651e+09,-451383,-0.0598316,-0.0539375,-0,0.0805548,-14160.6,-49187.1,-0,51184.9,-451383
step02_gravity_refstate-mantle.xmf,316,-1.84116e-06,-1.06919e-06,0,-5.49847e-07,-1.63832e+09,-1.63822e+09,-1.63808e+09,-73487.1,-0.0559732,-0.00348836,-0,0.0560818,-21814.8,-56653.2,-0,60708.1,-73487.1
step02_gravity_refstate-mantle.xmf,317,-2.04322e-06,-6.6578e-07,0,-2.33349e-07,-1.69599e+09,-1.69581e+09,-1.69572e+09,-31187.1,-0.0544983,-0.00100268,-0,0.0545075,-22770.9,-58434.4,-0,62714.4,-31187.1
step02_gravity_refstate-mantle.xmf,318,-2.28251e-06,-2.02642e-07,0,2.86181e-09,-1.74669e+09,-1.74641e+09,-1.74639e+09,382.48,-0.0522553,4.99078e-20,-0,0.0522553,-23860.6,-60000,-0,64570.3,-382.48
step02_gravity_refstate-mantle.xmf,319,4.25219e-06,-1.31562e-05,0,-8.07734e-06,-1.24708e+09,-1.2494e+09,-1.24764e+09,-1.07954e+06,-0.0466713,-0.184908,-0,0.190707,-5667.94,-44577.5,-0,44936.4,-1.07954e+06
step02_gravity_refstate-mantle.xmf,320,1.2627e-05,-2.78331e-05,0,-3.57132e-06,-1.17139e+09,-1.1768e+09,-1.17308e+09,-477306,-0.0110322,-0.295795,-0,0.296001,-854.597,-42258.1,-0,42266.7,-477306
step02_gravity_refstate-mantle.xmf,321,7.22761e-06,-1.82114e-05,0,-8.02378e-06,-1.22316e+09,-1.22656e+09,-1.22412e+09,-1.07238e+06,-0.0360783,-0.22704,-0,0.229889,-3621.81,-43845.5,-0,43994.9,-1.07238e+06
step02_gravity_refstate-mantle.xmf,322,1.32044e-05,-2.89051e-05,0,1.43902e-06,-1.16648e+09,-1.17211e+09,-1.16825e+09,192325,0.00410243,-0.302501,0,0.302529,310.663,-42107.6,0,42108.7,-192325
step02_gravity_refstate-mantle.xmf,323,3.67575e-06,-1.77496e-05,0,1.3648e-05,-1.09939e+09,-1.10226e+09,-1.09989e+09,1.82406e+06,0.0371895,-0.298648,0,0.300954,3617.79,-40000,0,40163.3,-1.82406e+06
step02_gravity_refstate-mantle.xmf,324,5.99472e-06,-2.06149e-05,0,1.28593e-05,-1.11951e+09,-1.12307e+09,-1.12031e+09,1.71865e+06,0.0364649,-0.297291,0,0.299519,3238.8,-40629.5,0,40758.4,-1.71865e+06
step02_gravity_refstate-mantle.xmf,325,8.81898e-06,-2.44247e-05,0,1.12848e-05,-1.13262e+09,-1.13706e+09,-1.1338e+09,1.50822e+06,0.0310766,-0.305227,0,0.306805,2522.37,-41043.5,0,41121,-1.50822e+06
step02_gravity_refstate-mantle.xmf,326,1.38065e-07,-4.95298e-06,0,-3.91216e-06,-1.37321e+09,-1.37389e+09,-1.37323e+09,-522860,-0.0594126,-0.0659859,-0,0.0887918,-13047.5,-48467.3,-0,50192.8,-522860
step02_gravity_refstate-mantle.xmf,327,3.64726e-06,-1.1884e-05,0,-7.58185e-06,-1.26452e+09,-1.2666e+09,-1.26501e+09,-1.01331e+06,-0.0489095,-0.168069,-0,0.175041,-6355.8,-45115.6,-0,45561.1,-1.01331e+06
step02_gravity_refstate-mantle.xmf,328,2.13884e-06,-9.28693e-06,0,-6.97077e-06,-1.27188e+09,-1.27341e+09,-1.27217e+09,-931644,-0.0533263,-0.143358,-0,0.152955,-7938.42,-45339.6,-0,46029.3,-931644
step02_gravity_refstate-mantle.xmf,329,4.51197e-07,-5.63195e-06,0,-4.48381e-06,-1.35074e+09,-1.35156e+09,-1.35081e+09,-599261,-0.0587247,-0.079313,-0,0.0986871,-11957.1,-47773.6,-0,49247.3,-599261
step02_gravity_refstate-mantle.xmf,330,7.90284e-07,-6.38545e-06,0,-5.09133e-06,-1.32901e+09,-1.32997e+09,-1.32912e+09,-680457,-0.05777,-0.0939148,-0,0.11026,-10893.5,-47102.7,-0,48345.9,-680457
step02_gravity_refstate-mantle.xmf,331,1.5258e-06,-8.12686e-06,0,-6.44244e-06,-1.28381e+09,-1.2851e+09,-1.28401e+09,-861033,-0.0550804,-0.127402,-0,0.138798,-8891.31,-45706.8,-0,46563.6,-861033
step02_gravity_refstate-mantle.xmf,332,1.16129e-06,-7.2323e-06,0,-5.73752e-06,-1.30789e+09,-1.30901e+09,-1.30804e+09,-766820,-0.0565447,-0.109792,-0,0.123497,-9859.85,-46450.4,-0,47485.4,-766820
step02_gravity_refstate-mantle.xmf,333,-5.03224e-07,-3.44265e-06,0,-2.11437e-06,-1.49533e+09,-1.49573e+09,-1.49527e+09,-282585,-0.0606413,-0.0286395,-0,0.067064,-16428.5,-52239.2,-0,54761.6,-282585
step02_gravity_refstate-mantle.xmf,334,-1.70875e-07,-4.05453e-06,0,-2.58002e-06,-1.4678e+09,-1.46832e+09,-1.46778e+09,-344819,-0.0607116,-0.037909,-0,0.0715751,-15221.7,-51389.3,-0,53596.3,-344819
step02_gravity_refstate-mantle.xmf,335,-8.21143e-07,-2.86659e-06,0,-1.68579e-06,-1.52454e+09,-1.52481e+09,-1.52443e+09,-225306,-0.0602236,-0.0207333,-0,0.0636927,-17638.2,-53140.7,-0,55991.4,-225306
step02_gravity_refstate-mantle.xmf,336,-1.47124e-06,-1.71006e-06,0,-8.76766e-07,-1.60001e+09,-1.60004e+09,-1.59981e+09,-117180,-0.0581153,-0.00774828,-0,0.0586295,-20288.5,-55470.5,-0,59064.4,-117180
step02_gravity_refstate-mantle.xmf,337,-1.05491e-06,-2.4111e-06,0,-1.25509e-06,-1.56777e+09,-1.56795e+09,-1.56763e+09,-167742,-0.0597385,-0.0136388,-0,0.0612757,-18720.2,-54475.6,-0,57602.5,-167742
step02_gravity_refstate-mantle.xmf,338,1.1706e-05,-2.60756e-05,0,-5.07049e-06,-1.1816e+09,-1.18665e+09,-1.18317e+09,-677671,-0.0166804,-0.283533,-0,0.284023,-1345.85,-42571.7,-0,42593,-677671
step02_gravity_refstate-mantle.xmf,339,1.09511e-05,-2.43664e-05,0,-5.245e-06,-1.20073e+09,-1.20545e+09,-1.2022e+09,-700995,-0.01881,-0.266393,-0,0.267056,-1600.48,-43162.1,-0,43191.7,-700995
step02_gravity_refstate-mantle.xmf,340,9.69429e-06,-2.1873e-05,0,-6.22734e-06,-1.21686e+09,-1.22108e+09,-1.21816e+09,-832285,-0.0249306,-0.248262,-0,0.24951,-2265.65,-43658.2,-0,43717,-832285
step02_gravity_refstate-mantle.xmf,341,6.31637e-06,-1.64404e-05,0,-7.91273e-06,-1.23981e+09,-1.24285e+09,-1.24066e+09,-1.05754e+06,-0.0394615,-0.209286,-0,0.212974,-4240.3,-44358.5,-0,44560.7,-1.05754e+06
step02_gravity_refstate-mantle.xmf,342,5.53499e-06,-1.48851e-05,0,-7.61787e-06,-1.25785e+09,-1.26058e+09,-1.25859e+09,-1.01813e+06,-0.0423328,-0.191869,-0,0.196483,-4862.78,-44914.3,-0,45176.8,-1.01813e+06
step02_gravity_refstate-mantle.xmf,343,8.56723e-06,-1.98481e-05,0,-6.7549e-06,-1.23222e+09,-1.23602e+09,-1.23337e+09,-902792,-0.0297664,-0.231381,-0,0.233288,-2881.7,-44130.4,-0,44224.4,-902792
step02_gravity_refstate-mantle.xmf,344,1.28321e-05,-2.78295e-05,0,-9.16439e-07,-1.17912e+09,-1.18455e+09,-1.18083e+09,-122482,-0.00277665,-0.291613,-0,0.291626,-216.404,-42498,-0,42498.5,-122482
step02_gravity_refstate-mantle.xmf,345,3.74517e-06,-1.67139e-05,0,1.27465e-05,-1.11697e+09,-1.1197e+09,-1.11747e+09,1.70357e+06,0.0397334,-0.279981,0,0.282786,3938.1,-40546,0,40736.8,-1.70357e+06
step02_gravity_refstate-mantle.xmf,346,1.05899e-05,-2.60558e-05,0,8.89893e-06,-1.14865e+09,-1.15355e+09,-1.15007e+09,1.18934e+06,0.0258284,-0.301641,0,0.302745,2041.19,-41546.6,0,41596.7,-1.18934e+06
step02_gravity_refstate-mantle.xmf,347,1.17341e-05,-2.70552e-05,0,6.49924e-06,-1.162e+09,-1.16719e+09,-1.16357e+09,868624,0.0193047,-0.298032,0,0.298656,1506.69,-41964.1,0,41991.1,-868624
step02_gravity_refstate-mantle.xmf,348,1.23943e-05,-2.73685e-05,0,4.00076e-06,-1.17423e+09,-1.17955e+09,-1.17589e+09,534702,0.0122994,-0.292659,0,0.292918,962.232,-42345.4,0,42356.4,-534702
step02_gravity_refstate-mantle.xmf,349,3.10112e-06,-1.07121e-05,0,-7.03905e-06,-1.28229e+09,-1.28414e+09,-1.28271e+09,-940769,-0.0510056,-0.151613,-0,0.159963,-7096.89,-45663.9,-0,46212.1,-940769
step02_gravity_refstate-mantle.xmf,350,1.53948e-07,-4.67349e-06,0,-3.0744e-06,-1.44106e+09,-1.44171e+09,-1.44108e+09,-410894,-0.060439,-0.0483228,-0,0.0773819,-14075.9,-50563.9,-0,52486.6,-410894
step02_gravity_refstate-mantle.xmf,351,4.84075e-07,-5.32123e-06,0,-3.59573e-06,-1.41548e+09,-1.41626e+09,-1.41554e+09,-480569,-0.0598732,-0.0598835,-0,0.0846807,-12970,-49774.3,-0,51436.4,-480569
step02_gravity_refstate-mantle.xmf,352,-1.35851e-06,-1.79876e-06,0,-5.77476e-07,-1.65328e+09,-1.65334e+09,-1.6531e+09,-77179.7,-0.0587728,-0.00512227,-0,0.0589956,-20135.6,-57116.7,-0,60562.1,-77179.7
step02_gravity_refstate-mantle.xmf,353,-1.56398e-06,-1.41428e-06,0,-2.57721e-07,-1.70164e+09,-1.70162e+09,-1.70143e+09,-34444.4,-0.0578518,-0.00194373,-0,0.0578844,-20922.7,-58610.1,-0,62232.6,-34444.4
step02_gravity_refstate-mantle.xmf,354,-1.81698e-06,-9.52147e-07,0,2.72387e-09,-1.74665e+09,-1.74654e+09,-1.74641e+09,364.046,-0.0563124,5.79228e-20,-0,0.0563124,-21880.6,-60000,-0,63865.2,-364.046
step02_gravity_refstate-mantle.xmf,355,4.81626e-06,-1.34862e-05,0,-7.28635e-06,-1.27534e+09,-1.27778e+09,-1.27598e+09,-973821,-0.0450635,-0.175212,-0,0.180914,-5529.62,-45453.3,-0,45788.4,-973821
step02_gravity_refstate-mantle.xmf,356,2.21472e-06,-1.45758e-05,0,1.27805e-05,-1.09945e+09,-1.10169e+09,-1.09974e+09,1.70812e+06,0.0390739,-0.279427,0,0.282146,4258.41,-40000,0,40226,-1.70812e+06
step02_gravity_refstate-mantle.xmf,357,1.20847e-05,-2.60629e-05,0,-2.62668e-06,-1.19514e+09,-1.20023e+09,-1.19675e+09,-351056,-0.00917657,-0.276609,-0,0.276761,-749.128,-42992.4,-0,42998.9,-351056
step02_gravity_refstate-mantle.xmf,358,7.53511e-06,-1.8036e-05,0,-6.98157e-06,-1.24746e+09,-1.25088e+09,-1.24847e+09,-933087,-0.0339287,-0.215067,-0,0.217726,-3496.45,-44598.9,-0,44735.7,-933087
step02_gravity_refstate-mantle.xmf,359,1.25438e-05,-2.70406e-05,0,1.72525e-06,-1.1859e+09,-1.19119e+09,-1.18758e+09,230579,0.00548512,-0.285359,0,0.285412,435.722,-42707.8,0,42710,-230579
step02_gravity_refstate-mantle.xmf,360,5.07129e-06,-1.82429e-05,0,1.22121e-05,-1.13261e+09,-1.13573e+09,-1.13329e+09,1.63214e+06,0.0393168,-0.277198,0,0.279972,3717.27,-41034.1,0,41202.1,-1.63214e+06
step02_gravity_refstate-mantle.xmf,361,6.81015e-06,-2.06483e-05,0,1.15926e-05,-1.14247e+09,-1.14614e+09,-1.14338e+09,1.54935e+06,0.0364117,-0.282737,0,0.285072,3230.86,-41344,0,41470.1,-1.54935e+06
step02_gravity_refstate-mantle.xmf,362,8.69018e-06,-2.28674e-05,0,1.00836e-05,-1.15616e+09,-1.16038e+09,-1.15732e+09,1.34768e+06,0.0318135,-0.284467,0,0.28624,2694.04,-41774,0,41860.8,-1.34768e+06
step02_gravity_refstate-mantle.xmf,363,8.25915e-07,-6.00952e-06,0,-4.13842e-06,-1.39115e+09,-1.39206e+09,-1.39126e+09,-553100,-0.059042,-0.0725012,-0,0.0935007,-11905.4,-49023.2,-0,50448.1,-553100
step02_gravity_refstate-mantle.xmf,364,4.16859e-06,-1.22391e-05,0,-6.92594e-06,-1.29233e+09,-1.29452e+09,-1.29289e+09,-925651,-0.0475646,-0.159458,-0,0.166401,-6224.44,-45977.1,-0,46396.6,-925651
step02_gravity_refstate-mantle.xmf,365,2.6091e-06,-9.66066e-06,0,-6.50609e-06,-1.30085e+09,-1.30249e+09,-1.3012e+09,-869540,-0.0529184,-0.135573,-0,0.145535,-7884.55,-46236.4,-0,46903.8,-869540
step02_gravity_refstate-mantle.xmf,366,1.20614e-06,-6.78348e-06,0,-4.71272e-06,-1.36769e+09,-1.36876e+09,-1.36786e+09,-629855,-0.0579199,-0.0865122,-0,0.104111,-10845.8,-48299.3,-0,49502.1,-629855
step02_gravity_refstate-mantle.xmf,367,1.66118e-06,-7.68916e-06,0,-5.29962e-06,-1.34617e+09,-1.34742e+09,-1.34639e+09,-708294,-0.0564576,-0.101794,-0,0.116402,-9783.91,-47635.2,-0,48629.6,-708294
step02_gravity_refstate-mantle.xmf,368,2.25979e-06,-8.85387e-06,0,-5.91283e-06,-1.32675e+09,-1.32823e+09,-1.32705e+09,-790250,-0.0544053,-0.119089,-0,0.130928,-8646.84,-47036.2,-0,47824.4,-790250
step02_gravity_refstate-mantle.xmf,369,-2.73252e-07,-3.69233e-06,0,-1.79226e-06,-1.54293e+09,-1.54338e+09,-1.54289e+09,-239536,-0.0611502,-0.0240454,-0,0.0657079,-16273.3,-53710.3,-0,56121.4,-239536
step02_gravity_refstate-mantle.xmf,370,8.66234e-08,-4.32251e-06,0,-2.22461e-06,-1.5152e+09,-1.51579e+09,-1.51521e+09,-297319,-0.0610856,-0.0323135,-0,0.0691058,-15114.8,-52854.5,-0,54973.2,-297319
step02_gravity_refstate-mantle.xmf,371,4.57635e-07,-4.98704e-06,0,-2.70729e-06,-1.48677e+09,-1.4875e+09,-1.48683e+09,-361829,-0.0606555,-0.0422051,-0,0.0738943,-13957.1,-51977.2,-0,53818.5,-361829
step02_gravity_refstate-mantle.xmf,372,-5.70937e-07,-3.17207e-06,0,-1.45474e-06,-1.5669e+09,-1.56724e+09,-1.56682e+09,-194426,-0.0609103,-0.0180574,-0,0.0635306,-17269.3,-54450,-0,57122.9,-194426
step02_gravity_refstate-mantle.xmf,373,-9.98893e-07,-2.4033e-06,0,-8.32764e-07,-1.62916e+09,-1.62935e+09,-1.62903e+09,-111299,-0.0600968,-0.00867957,-0,0.0607204,-18887.1,-56372.5,-0,59452.3,-111299
step02_gravity_refstate-mantle.xmf,374,2.32799e-06,-1.38224e-05,0,1.20012e-05,-1.11796e+09,-1.12011e+09,-1.11827e+09,1.60395e+06,0.0418995,-0.260781,0,0.264125,4630.01,-40574.4,0,40837.7,-1.60395e+06
step02_gravity_refstate-mantle.xmf,375,1.05919e-05,-2.28118e-05,0,-4.15522e-06,-1.22731e+09,-1.23178e+09,-1.22873e+09,-555346,-0.0168442,-0.24778,-0,0.248352,-1511.95,-43984.6,-0,44010.6,-555346
step02_gravity_refstate-mantle.xmf,376,9.59556e-06,-2.10239e-05,0,-5.1216e-06,-1.24195e+09,-1.24604e+09,-1.24324e+09,-684501,-0.0225547,-0.232861,-0,0.233951,-2138.44,-44434.8,-0,44486.2,-684501
step02_gravity_refstate-mantle.xmf,377,6.85141e-06,-1.65532e-05,0,-6.73833e-06,-1.26888e+09,-1.272e+09,-1.26979e+09,-900578,-0.036495,-0.197515,-0,0.200859,-4003.44,-45259.5,-0,45436.2,-900578
step02_gravity_refstate-mantle.xmf,378,5.95436e-06,-1.49722e-05,0,-6.71029e-06,-1.28584e+09,-1.28864e+09,-1.28664e+09,-896830,-0.0402569,-0.180754,-0,0.185182,-4720.62,-45781.7,-0,46024.4,-896830
step02_gravity_refstate-mantle.xmf,379,8.60679e-06,-1.9307e-05,0,-5.76359e-06,-1.25621e+09,-1.25994e+09,-1.25736e+09,-770304,-0.027638,-0.218045,-0,0.21979,-2771.89,-44872.9,-0,44958.5,-770304
step02_gravity_refstate-mantle.xmf,380,1.23438e-05,-2.63499e-05,0,-6.79847e-08,-1.19656e+09,-1.20173e+09,-1.19821e+09,-9086.15,-0.000348377,-0.277174,-0,0.277175,-27.9207,-43037.4,-0,43037.4,-9086.15
step02_gravity_refstate-mantle.xmf,381,3.68329e-06,-1.56704e-05,0,1.19098e-05,-1.1345e+09,-1.13708e+09,-1.13499e+09,1.59174e+06,0.0419079,-0.261729,0,0.265063,4299.04,-41089.6,0,41313.9,-1.59174e+06
step02_gravity_refstate-mantle.xmf,382,1.02348e-05,-2.44025e-05,0,8.01382e-06,-1.17044e+09,-1.17507e+09,-1.17181e+09,1.07105e+06,0.026068,-0.28283,0,0.284028,2156.16,-42221.4,0,42276.4,-1.07105e+06
step02_gravity_refstate-mantle.xmf,383,1.1187e-05,-2.5263e-05,0,5.88432e-06,-1.18381e+09,-1.18868e+09,-1.18531e+09,786440,0.0195837,-0.279265,0,0.279951,1608.06,-42638.6,0,42668.9,-786440
step02_gravity_refstate-mantle.xmf,384,1.17579e-05,-2.56452e-05,0,3.85593e-06,-1.19392e+09,-1.19891e+09,-1.19549e+09,515345,0.0132709,-0.275658,0,0.275977,1090.34,-42953.6,0,42967.4,-515345
step02_gravity_refstate-mantle.xmf,385,3.6105e-06,-1.11181e-05,0,-6.49064e-06,-1.31012e+09,-1.31209e+09,-1.31061e+09,-867474,-0.0497971,-0.144157,-0,0.152515,-6943.52,-46526,-0,47041.2,-867474
step02_gravity_refstate-mantle.xmf,386,8.12006e-07,-5.64648e-06,0,-3.21481e-06,-1.45857e+09,-1.45943e+09,-1.45868e+09,-429659,-0.0599318,-0.0532418,-0,0.0801655,-12873.8,-51106.7,-0,52703.3,-429659
step02_gravity_refstate-mantle.xmf,387,1.18322e-06,-6.34763e-06,0,-3.73238e-06,-1.43245e+09,-1.43345e+09,-1.4326e+09,-498832,-0.0589351,-0.0652628,-0,0.0879351,-11822.4,-50300.4,-0,51671.1,-498832
step02_gravity_refstate-mantle.xmf,388,-5.53434e-07,-3.11746e-06,0,-1.11186e-06,-1.6093e+09,-1.60964e+09,-1.60922e+09,-148600,-0.0610582,-0.0132999,-0,0.0624899,-17499,-55760,-0,58441.3,-148600
step02_gravity_refstate-mantle.xmf,389,-9.66253e-07,-2.36394e-06,0,-4.09687e-07,-1.68984e+09,-1.69003e+09,-1.68971e+09,-54754.7,-0.0602987,-0.00410157,-0,0.060438,-18961.2,-58247.2,-0,61255.7,-54754.7
step02_gravity_refstate-mantle.xmf,390,-1.26984e-06,-1.80641e-06,0,5.52872e-09,-1.7466e+09,-1.74668e+09,-1.74643e+09,738.913,-0.0592721,1.05224e-19,-0,0.0592721,-19964.7,-60000,-0,63234.4,-738.913
step02_gravity_refstate-mantle.xmf,391,1.18985e-06,-1.20481e-05,0,1.17443e-05,-1.09946e+09,-1.10123e+09,-1.09962e+09,1.56962e+06,0.0402001,-0.260113,0,0.263201,4923.76,-40000,0,40301.9,-1.56962e+06
step02_gravity_refstate-mantle.xmf,392,5.26159e-06,-1.36974e-05,0,-6.51438e-06,-1.30295e+09,-1.30548e+09,-1.30365e+09,-870646,-0.0431183,-0.165594,-0,0.171115,-5368.73,-46308.7,-0,46618.9,-870646
step02_gravity_refstate-mantle.xmf,393,1.13677e-05,-2.43058e-05,0,-2.88466e-06,-1.21586e+09,-1.22063e+09,-1.21738e+09,-385534,-0.0109092,-0.259588,-0,0.259817,-939.193,-43632.4,-0,43642.5,-385534
step02_gravity_refstate-mantle.xmf,394,7.79118e-06,-1.7922e-05,0,-6.12862e-06,-1.2673e+09,-1.27073e+09,-1.26834e+09,-819090,-0.0316332,-0.20596,-0,0.208375,-3327.28,-45213.6,-0,45335.9,-819090
step02_gravity_refstate-mantle.xmf,395,1.19092e-05,-2.53644e-05,0,2.00548e-06,-1.2055e+09,-1.21048e+09,-1.20709e+09,268032,0.0069275,-0.269046,0,0.269135,577.544,-43313.2,0,43317.1,-268032
step02_gravity_refstate-mantle.xmf,396,1.17486e-05,-2.47068e-05,0,-4.19023e-07,-1.21733e+09,-1.2222e+09,-1.2189e+09,-56002.5,-0.00179235,-0.26073,-0,0.260736,-153.121,-43679.1,-0,43679.3,-56002.5
step02_gravity_refstate-mantle.xmf,397,5.28476e-06,-1.76976e-05,0,1.14324e-05,-1.14982e+09,-1.1529e+09,-1.15053e+09,1.52793e+06,0.0403097,-0.263449,0,0.266515,3891.22,-41568.6,0,41750.4,-1.52793e+06
step02_gravity_refstate-mantle.xmf,398,6.95513e-06,-1.98247e-05,0,1.05266e-05,-1.16409e+09,-1.16767e+09,-1.16502e+09,1.40688e+06,0.0368979,-0.265985,0,0.268532,3379.71,-42015.1,0,42150.8,-1.40688e+06
step02_gravity_refstate-mantle.xmf,399,8.579e-06,-2.16586e-05,0,9.03151e-06,-1.17915e+09,-1.18319e+09,-1.18029e+09,1.20706e+06,0.0319279,-0.26632,0,0.268227,2823.37,-42486.3,0,42580,-1.20706e+06
step02_gravity_refstate-mantle.xmf,400,1.59009e-06,-7.12113e-06,0,-4.26329e-06,-1.4078e+09,-1.40897e+09,-1.40802e+09,-569789,-0.0576437,-0.0784331,-0,0.0973372,-10784,-49540,-0,50700.2,-569789
step02_gravity_refstate-mantle.xmf,401,4.6104e-06,-1.25116e-05,0,-6.27229e-06,-1.31919e+09,-1.32147e+09,-1.3198e+09,-838291,-0.0458568,-0.151151,-0,0.157954,-6059.08,-46809,-0,47199.5,-838291
step02_gravity_refstate-mantle.xmf,402,3.29789e-06,-1.03789e-05,0,-6.03212e-06,-1.33087e+09,-1.33269e+09,-1.33131e+09,-806193,-0.0511794,-0.130669,-0,0.140335,-7512.23,-47166.5,-0,47761,-806193
step02_gravity_refstate-mantle.xmf,403,2.05249e-06,-7.99345e-06,0,-4.7951e-06,-1.38489e+09,-1.38623e+09,-1.38516e+09,-640865,-0.0560209,-0.092678,-0,0.108294,-9755.76,-48833,-0,49798,-640865
step02_gravity_refstate-mantle.xmf,404,2.55719e-06,-8.92927e-06,0,-5.28425e-06,-1.36484e+09,-1.36638e+09,-1.36518e+09,-706241,-0.0541448,-0.107012,-0,0.11993,-8797.67,-48214.7,-0,49010.8,-706241
step02_gravity_refstate-mantle.xmf,405,-9.42239e-08,-3.85559e-06,0,-1.41339e-06,-1.5908e+09,-1.5913e+09,-1.59079e+09,-188900,-0.0614015,-0.018762,-0,0.064204,-16183.5,-55189.9,-0,57513.7,-188900
step02_gravity_refstate-mantle.xmf,406,3.34033e-07,-4.5629e-06,0,-1.80588e-06,-1.56479e+09,-1.56545e+09,-1.56484e+09,-241355,-0.0611934,-0.0260905,-0,0.0665232,-14972.1,-54387.5,-0,56410.7,-241355
step02_gravity_refstate-mantle.xmf,407,1.13281e-06,-5.95079e-06,0,-2.76897e-06,-1.50411e+09,-1.50506e+09,-1.50426e+09,-370073,-0.059656,-0.0459058,-0,0.075274,-12733.1,-52514.9,-0,54036.5,-370073
step02_gravity_refstate-mantle.xmf,408,7.41165e-07,-5.25901e-06,0,-2.27159e-06,-1.53456e+09,-1.53536e+09,-1.53466e+09,-303598,-0.0605785,-0.0353125,-0,0.0701194,-13821.7,-53454.4,-0,55212.5,-303598
step02_gravity_refstate-mantle.xmf,409,-5.54932e-07,-3.0301e-06,0,-7.33657e-07,-1.65494e+09,-1.65527e+09,-1.65487e+09,-98053.2,-0.0611316,-0.00852841,-0,0.0617236,-17719.2,-57170.3,-0,59853.2,-98053.2
step02_gravity_refstate-mantle.xmf,410,1.33653e-06,-1.16115e-05,0,1.11643e-05,-1.11789e+09,-1.11963e+09,-1.11807e+09,1.4921e+06,0.043087,-0.243601,0,0.247382,5282.64,-40571.5,0,40914,-1.4921e+06
step02_gravity_refstate-mantle.xmf,411,4.65825e-07,-1.00081e-05,0,1.06807e-05,-1.09945e+09,-1.10085e+09,-1.09951e+09,1.42747e+06,0.0407692,-0.240937,0,0.244362,5617.28,-40000,0,40392.5,-1.42747e+06
step02_gravity_refstate-mantle.xmf,412,2.38622e-06,-1.31211e-05,0,1.12805e-05,-1.13556e+09,-1.13763e+09,-1.13588e+09,1.50764e+06,0.0440634,-0.244103,0,0.248048,4992.92,-41120.3,0,41422.4,-1.50764e+06
step02_gravity_refstate-mantle.xmf,413,1.10483e-05,-2.317e-05,0,-1.95638e-06,-1.23646e+09,-1.24103e+09,-1.23793e+09,-261471,-0.00818322,-0.24532,-0,0.245457,-734.778,-44269.3,-0,44275.4,-261471
step02_gravity_refstate-mantle.xmf,414,1.02546e-05,-2.16694e-05,0,-3.26665e-06,-1.25217e+09,-1.25644e+09,-1.25354e+09,-436588,-0.0146267,-0.231537,-0,0.231998,-1378.02,-44753.2,-0,44774.4,-436588
step02_gravity_refstate-mantle.xmf,415,9.40241e-06,-2.01718e-05,0,-4.25404e-06,-1.26635e+09,-1.2703e+09,-1.26761e+09,-568553,-0.0205234,-0.218184,-0,0.219147,-2030.89,-45189.4,-0,45235,-568553
step02_gravity_refstate-mantle.xmf,416,6.3041e-06,-1.50261e-05,0,-5.80186e-06,-1.31557e+09,-1.31842e+09,-1.31641e+09,-775418,-0.0375689,-0.169286,-0,0.173405,-4508.09,-46702.1,-0,46919.1,-775418
step02_gravity_refstate-mantle.xmf,417,6.86924e-06,-1.61359e-05,0,-5.97479e-06,-1.29582e+09,-1.2989e+09,-1.29674e+09,-798531,-0.0352699,-0.183771,-0,0.187125,-4016,-46093.1,-0,46267.7,-798531
step02_gravity_refstate-mantle.xmf,418,8.54376e-06,-1.87408e-05,0,-4.99025e-06,-1.27843e+09,-1.28207e+09,-1.27957e+09,-666946,-0.0258769,-0.20576,-0,0.207381,-2686.64,-45560.3,-0,45639.4,-666946
step02_gravity_refstate-mantle.xmf,419,7.68211e-06,-1.73624e-05,0,-5.55622e-06,-1.28809e+09,-1.29144e+09,-1.28912e+09,-742588,-0.0308794,-0.194279,-0,0.196717,-3360.65,-45856.6,-0,45979.6,-742588
step02_gravity_refstate-mantle.xmf,420,3.74654e-06,-1.49145e-05,0,1.10825e-05,-1.15444e+09,-1.15694e+09,-1.15494e+09,1.48118e+06,0.0436447,-0.244415,0,0.248281,4629.17,-41708.2,0,41964.3,-1.48118e+06
step02_gravity_refstate-mantle.xmf,421,9.99287e-06,-2.30294e-05,0,6.97697e-06,-1.19464e+09,-1.19905e+09,-1.19597e+09,932472,0.0254609,-0.264331,0,0.265554,2210.42,-42970.8,0,43027.6,-932472
step02_gravity_refstate-mantle.xmf,422,1.09369e-05,-2.38556e-05,0,4.55893e-06,-1.21039e+09,-1.21504e+09,-1.21185e+09,609301,0.016862,-0.260412,0,0.260957,1456.33,-43461.4,0,43485.8,-609301
step02_gravity_refstate-mantle.xmf,423,4.08748e-06,-1.155e-05,0,-6.01101e-06,-1.33325e+09,-1.33534e+09,-1.3338e+09,-803371,-0.0480602,-0.138997,-0,0.147071,-6685.21,-47242.5,-0,47713.2,-803371
step02_gravity_refstate-mantle.xmf,424,3.10393e-06,-9.87339e-06,0,-5.58237e-06,-1.35427e+09,-1.356e+09,-1.35468e+09,-746084,-0.0520419,-0.11841,-0,0.129342,-7972.01,-47889.4,-0,48548.4,-746084
step02_gravity_refstate-mantle.xmf,425,1.51441e-06,-6.64753e-06,0,-3.28618e-06,-1.47405e+09,-1.47514e+09,-1.47425e+09,-439197,-0.058496,-0.0577163,-0,0.0821764,-11703.1,-51586.9,-0,52897.8,-439197
step02_gravity_refstate-mantle.xmf,426,1.93469e-06,-7.40562e-06,0,-3.7757e-06,-1.44831e+09,-1.44956e+09,-1.44857e+09,-504623,-0.0570373,-0.0700203,-0,0.0903111,-10694.7,-50792.8,-0,51906.5,-504623
step02_gravity_refstate-mantle.xmf,427,9.92961e-09,-3.90176e-06,0,-9.24786e-07,-1.6462e+09,-1.64672e+09,-1.6462e+09,-123598,-0.0615225,-0.0120472,-0,0.0626909,-16214.7,-56901.6,-0,59166.8,-123598
step02_gravity_refstate-mantle.xmf,428,-2.85753e-07,-3.36634e-06,0,-4.09759e-07,-1.69911e+09,-1.69953e+09,-1.69908e+09,-54764.3,-0.0614753,-0.00489742,-0,0.0616701,-17110.7,-58535.6,-0,60985.2,-54764.3
step02_gravity_refstate-mantle.xmf,429,-6.46934e-07,-2.75074e-06,0,3.52241e-09,-1.74655e+09,-1.74683e+09,-1.74646e+09,470.771,-0.0610489,1.13215e-19,-0,0.0610489,-18107.5,-60000,-0,62672.8,-470.771
step02_gravity_refstate-mantle.xmf,430,6.43847e-07,-9.83517e-06,0,1.02678e-05,-1.11872e+09,-1.12012e+09,-1.1188e+09,1.3723e+06,0.0438512,-0.226244,0,0.230455,5957.4,-40596.8,0,41031.6,-1.3723e+06
step02_gravity_refstate-mantle.xmf,431,5.62195e-06,-1.38262e-05,0,-5.75832e-06,-1.33038e+09,-1.33298e+09,-1.33113e+09,-769599,-0.0408611,-0.156019,-0,0.161281,-5173.78,-47158.3,-0,47441.2,-769599
step02_gravity_refstate-mantle.xmf,432,1.12242e-05,-2.36418e-05,0,2.13203e-06,-1.22848e+09,-1.23314e+09,-1.22998e+09,284946,0.00829605,-0.251104,0,0.251241,731.548,-44022.7,0,44028.8,-284946
step02_gravity_refstate-mantle.xmf,433,5.45346e-06,-1.70879e-05,0,1.05396e-05,-1.17085e+09,-1.17387e+09,-1.17158e+09,1.40862e+06,0.0411194,-0.24779,0,0.251179,4091.26,-42220.9,0,42418.7,-1.40862e+06
step02_gravity_refstate-mantle.xmf,434,7.02533e-06,-1.90175e-05,0,9.50638e-06,-1.18727e+09,-1.19076e+09,-1.18821e+09,1.27053e+06,0.0370636,-0.249251,0,0.251991,3527.22,-42733.8,0,42879.1,-1.27053e+06
step02_gravity_refstate-mantle.xmf,435,8.43432e-06,-2.05613e-05,0,8.04875e-06,-1.20334e+09,-1.20721e+09,-1.20446e+09,1.07572e+06,0.0317276,-0.248718,0,0.250733,2939.09,-43235.4,0,43335.2,-1.07572e+06
step02_gravity_refstate-mantle.xmf,436,2.40678e-06,-8.25193e-06,0,-4.25357e-06,-1.42456e+09,-1.42599e+09,-1.42488e+09,-568489,-0.0552321,-0.083267,-0,0.0999199,-9690.62,-50060.2,-0,50989.5,-568489
step02_gravity_refstate-mantle.xmf,437,4.89684e-06,-1.25842e-05,0,-5.64374e-06,-1.34606e+09,-1.3484e+09,-1.34671e+09,-754285,-0.0442984,-0.141822,-0,0.148579,-5954.8,-47640.9,-0,48011.6,-754285
step02_gravity_refstate-mantle.xmf,438,4.06438e-06,-1.123e-05,0,-5.50448e-06,-1.35995e+09,-1.362e+09,-1.3605e+09,-735674,-0.0481672,-0.126988,-0,0.135816,-6937.24,-48067.9,-0,48565.9,-735674
step02_gravity_refstate-mantle.xmf,439,2.93346e-06,-9.18565e-06,0,-4.69307e-06,-1.40313e+09,-1.40475e+09,-1.40352e+09,-627229,-0.053074,-0.097077,-0,0.110638,-8712.16,-49399.2,-0,50161.6,-627229
step02_gravity_refstate-mantle.xmf,440,3.48927e-06,-1.01723e-05,0,-5.08225e-06,-1.38317e+09,-1.385e+09,-1.38364e+09,-679243,-0.0506742,-0.111139,-0,0.122147,-7798.68,-48784,-0,49403.4,-679243
step02_gravity_refstate-mantle.xmf,441,1.84611e-06,-6.94142e-06,0,-2.7773e-06,-1.51885e+09,-1.52002e+09,-1.51909e+09,-371186,-0.0577225,-0.0493657,-0,0.075953,-11518,-52972.3,-0,54210.1,-371186
step02_gravity_refstate-mantle.xmf,442,5.22268e-07,-4.71484e-06,0,-1.33205e-06,-1.61525e+09,-1.61595e+09,-1.61532e+09,-178028,-0.0611504,-0.0191541,-0,0.06408,-14876.8,-55947.1,-0,57891.3,-178028
step02_gravity_refstate-mantle.xmf,443,1.00733e-06,-5.49817e-06,0,-1.76706e-06,-1.58541e+09,-1.58628e+09,-1.58554e+09,-236167,-0.0602735,-0.0275379,-0,0.0662664,-13648.7,-55026.4,-0,56693.8,-236167
step02_gravity_refstate-mantle.xmf,444,1.44969e-06,-6.24527e-06,0,-2.26754e-06,-1.55188e+09,-1.55291e+09,-1.55207e+09,-303056,-0.059076,-0.0379075,-0,0.0701923,-12524.6,-53991.7,-0,55425.4,-303056
step02_gravity_refstate-mantle.xmf,445,1.42197e-06,-1.11929e-05,0,1.0644e-05,-1.13201e+09,-1.1337e+09,-1.1322e+09,1.42257e+06,0.0449585,-0.230438,0,0.234783,5608.85,-41009.3,0,41391.1,-1.42257e+06
step02_gravity_refstate-mantle.xmf,446,-4.6623e-08,-8.34709e-06,0,9.64209e-06,-1.09942e+09,-1.10053e+09,-1.09942e+09,1.28867e+06,0.0409177,-0.222047,0,0.225786,6341.87,-40000,0,40499.6,-1.28867e+06
step02_gravity_refstate-mantle.xmf,447,2.33152e-06,-1.22184e-05,0,1.04074e-05,-1.15648e+09,-1.15843e+09,-1.15679e+09,1.39095e+06,0.0463541,-0.22386,0,0.228609,5509.13,-41768.6,0,42130.4,-1.39095e+06
step02_gravity_refstate-mantle.xmf,448,1.05091e-05,-2.17755e-05,0,-1.35636e-06,-1.26224e+09,-1.26656e+09,-1.26365e+09,-181278,-0.00631107,-0.227802,-0,0.227889,-598.311,-45065.8,-0,45069.8,-181278
step02_gravity_refstate-mantle.xmf,449,1.10263e-05,-2.29071e-05,0,2.04712e-07,-1.24492e+09,-1.24946e+09,-1.2464e+09,27359.8,0.000704994,-0.240482,0,0.240483,64.3117,-44531.3,0,44531.4,-27359.8
step02_gravity_refstate-mantle.xmf,450,9.88756e-06,-2.06023e-05,0,-2.56257e-06,-1.27703e+09,-1.2811e+09,-1.27835e+09,-342488,-0.0126382,-0.21594,-0,0.21631,-1248.78,-45521.3,-0,45538.4,-342488
step02_gravity_refstate-mantle.xmf,451,9.21062e-06,-1.94441e-05,0,-3.50272e-06,-1.28937e+09,-1.2932e+09,-1.2906e+09,-468138,-0.0183519,-0.205031,-0,0.205851,-1887.72,-45900.9,-0,45939.7,-468138
step02_gravity_refstate-mantle.xmf,452,6.67702e-06,-1.51723e-05,0,-4.94757e-06,-1.34013e+09,-1.34305e+09,-1.34102e+09,-661243,-0.0341656,-0.161064,-0,0.164648,-4155.94,-47463,-0,47644.6,-661243
step02_gravity_refstate-mantle.xmf,453,7.48908e-06,-1.66111e-05,0,-4.89794e-06,-1.31695e+09,-1.32017e+09,-1.31795e+09,-654610,-0.0301297,-0.178453,-0,0.180978,-3437.23,-46748.8,-0,46874.9,-654610
step02_gravity_refstate-mantle.xmf,454,8.4528e-06,-1.81832e-05,0,-4.25706e-06,-1.30155e+09,-1.30511e+09,-1.30268e+09,-568956,-0.0239171,-0.193462,-0,0.194935,-2571.7,-46275.5,-0,46346.9,-568956
step02_gravity_refstate-mantle.xmf,455,4.02352e-06,-1.45668e-05,0,1.02379e-05,-1.17759e+09,-1.18008e+09,-1.17813e+09,1.3683e+06,0.044683,-0.228761,0,0.233084,4865.26,-42426.1,0,42704.1,-1.3683e+06
step02_gravity_refstate-mantle.xmf,456,9.66494e-06,-2.17005e-05,0,6.05726e-06,-1.2205e+09,-1.22469e+09,-1.22179e+09,809553,0.0246916,-0.245881,0,0.247118,2258.81,-43770.8,0,43829,-809553
step02_gravity_refstate-mantle.xmf,457,1.03017e-05,-2.21357e-05,0,4.07553e-06,-1.23768e+09,-1.24202e+09,-1.23906e+09,544695,0.0170411,-0.240191,0,0.240794,1566.56,-44304.8,0,44332.5,-544695
step02_gravity_refstate-mantle.xmf,458,2.25248e-06,-7.65702e-06,0,-3.25243e-06,-1.49008e+09,-1.49141e+09,-1.49038e+09,-434687,-0.0561528,-0.0611506,-0,0.0830213,-10564,-52084.6,-0,53145.1,-434687
step02_gravity_refstate-mantle.xmf,459,2.73358e-06,-8.48208e-06,0,-3.68793e-06,-1.46527e+09,-1.46676e+09,-1.46563e+09,-492892,-0.0541275,-0.073605,-0,0.0913646,-9571.49,-51319.1,-0,52204.1,-492892
step02_gravity_refstate-mantle.xmf,460,6.80228e-07,-4.82686e-06,0,-8.70032e-07,-1.66159e+09,-1.66233e+09,-1.66168e+09,-116280,-0.0610209,-0.0126,-0,0.0623081,-14748.5,-57379.3,-0,59244.4,-116280
step02_gravity_refstate-mantle.xmf,461,4.18927e-07,-4.3748e-06,0,-3.95673e-07,-1.70636e+09,-1.707e+09,-1.70642e+09,-52881.7,-0.061365,-0.00539756,-0,0.0616019,-15425.9,-58761.6,-0,60752.7,-52881.7
step02_gravity_refstate-mantle.xmf,462,5.6965e-08,-3.78591e-06,0,3.01922e-09,-1.74648e+09,-1.74699e+09,-1.74649e+09,403.518,-0.0615795,1.10012e-19,-0,0.0615795,-16303.5,-60000,-0,62175.6,-403.518
step02_gravity_refstate-mantle.xmf,463,1.04413e-06,-1.00493e-05,0,9.93673e-06,-1.14085e+09,-1.14233e+09,-1.14099e+09,1.32804e+06,0.0464249,-0.214433,0,0.219401,6167.97,-41282.7,0,41740.9,-1.32804e+06
step02_gravity_refstate-mantle.xmf,464,1.77209e-07,-8.42288e-06,0,9.37811e-06,-1.12241e+09,-1.12356e+09,-1.12243e+09,1.25338e+06,0.0446283,-0.208422,0,0.213146,6658.35,-40711.3,0,41252.2,-1.25338e+06
step02_gravity_refstate-mantle.xmf,465,5.86363e-06,-1.3807e-05,0,-5.02636e-06,-1.35877e+09,-1.3614e+09,-1.35955e+09,-671773,-0.0386304,-0.145516,-0,0.150557,-4999.6,-48036.7,-0,48296.2,-671773
step02_gravity_refstate-mantle.xmf,466,1.05208e-05,-2.19743e-05,0,2.14392e-06,-1.25504e+09,-1.25938e+09,-1.25644e+09,286535,0.00937757,-0.231861,0,0.232051,879.116,-44842.8,0,44851.4,-286535
step02_gravity_refstate-mantle.xmf,467,5.65568e-06,-1.65687e-05,0,9.5809e-06,-1.19525e+09,-1.19822e+09,-1.19601e+09,1.28049e+06,0.0414389,-0.231689,0,0.235366,4266.42,-42977.3,0,43188.5,-1.28049e+06
step02_gravity_refstate-mantle.xmf,468,7.07425e-06,-1.82678e-05,0,8.49909e-06,-1.21269e+09,-1.21608e+09,-1.21363e+09,1.1359e+06,0.0367983,-0.232516,0,0.23541,3651.45,-43521,0,43674,-1.1359e+06
step02_gravity_refstate-mantle.xmf,469,8.30766e-06,-1.95826e-05,0,7.07608e-06,-1.22953e+09,-1.23325e+09,-1.23064e+09,945718,0.0310016,-0.231465,0,0.233532,3011.73,-44046.1,0,44148.9,-945718
step02_gravity_refstate-mantle.xmf,470,3.28103e-06,-9.40945e-06,0,-4.08007e-06,-1.44264e+09,-1.44433e+09,-1.44308e+09,-545301,-0.0516427,-0.0868493,-0,0.101043,-8569.61,-50621.5,-0,51341.7,-545301
step02_gravity_refstate-mantle.xmf,471,5.11258e-06,-1.25592e-05,0,-4.97099e-06,-1.37687e+09,-1.37923e+09,-1.37755e+09,-664373,-0.0426068,-0.1307,-0,0.137469,-5862.61,-48594.1,-0,48946.4,-664373
step02_gravity_refstate-mantle.xmf,472,3.8586e-06,-1.03952e-05,0,-4.4303e-06,-1.42065e+09,-1.42256e+09,-1.42117e+09,-592110,-0.0488685,-0.100771,-0,0.111995,-7616.13,-49943.7,-0,50521.1,-592110
step02_gravity_refstate-mantle.xmf,473,4.44303e-06,-1.14276e-05,0,-4.77501e-06,-1.39653e+09,-1.39865e+09,-1.39713e+09,-638180,-0.0460274,-0.116009,-0,0.124806,-6736.03,-49199.8,-0,49658.8,-638180
step02_gravity_refstate-mantle.xmf,474,2.55812e-06,-7.90055e-06,0,-2.70571e-06,-1.53289e+09,-1.53429e+09,-1.53324e+09,-361618,-0.0549801,-0.0519602,-0,0.0756484,-10360.5,-53408.5,-0,54404.1,-361618
step02_gravity_refstate-mantle.xmf,475,2.1595e-06,-7.21806e-06,0,-2.24383e-06,-1.56386e+09,-1.56512e+09,-1.56415e+09,-299888,-0.0566858,-0.0406844,-0,0.0697746,-11265.3,-54364.3,-0,55519.2,-299888
step02_gravity_refstate-mantle.xmf,476,1.17642e-06,-5.59985e-06,0,-1.19933e-06,-1.63805e+09,-1.63895e+09,-1.6382e+09,-160290,-0.0600023,-0.0186894,-0,0.0628456,-13585.7,-56653.3,-0,58259.5,-160290
step02_gravity_refstate-mantle.xmf,477,1.80631e-06,-6.56631e-06,0,-1.6556e-06,-1.60675e+09,-1.60787e+09,-1.60699e+09,-221271,-0.0581003,-0.0282713,-0,0.0646136,-12188.5,-55688.2,-0,57006.5,-221271
step02_gravity_refstate-mantle.xmf,478,-3.98898e-07,-6.98364e-06,0,8.6477e-06,-1.09939e+09,-1.10027e+09,-1.09933e+09,1.15577e+06,0.0407462,-0.203552,0,0.20759,7100.11,-40000,0,40625.3,-1.15577e+06
step02_gravity_refstate-mantle.xmf,479,2.92471e-06,-1.2431e-05,0,9.68802e-06,-1.18498e+09,-1.18703e+09,-1.18537e+09,1.2948e+06,0.0474892,-0.209643,0,0.214954,5668.37,-42652.2,0,43027.2,-1.2948e+06
step02_gravity_refstate-mantle.xmf,480,9.9699e-06,-2.04933e-05,0,-9.25171e-07,-1.28908e+09,-1.29315e+09,-1.29041e+09,-123649,-0.00479939,-0.210521,-0,0.210575,-480.281,-45894.3,-0,45896.8,-123649
step02_gravity_refstate-mantle.xmf,481,1.0363e-05,-2.13505e-05,0,4.5059e-07,-1.27262e+09,-1.27686e+09,-1.27401e+09,60221.4,0.00199697,-0.221485,0,0.221494,193.067,-45386.5,0,45386.9,-60221.4
step02_gravity_refstate-mantle.xmf,482,9.54106e-06,-1.97627e-05,0,-2.01207e-06,-1.29925e+09,-1.30317e+09,-1.30053e+09,-268914,-0.0106504,-0.202673,-0,0.202952,-1096.04,-46207.6,-0,46220.6,-268914
step02_gravity_refstate-mantle.xmf,483,9.01358e-06,-1.87576e-05,0,-2.76134e-06,-1.31354e+09,-1.31725e+09,-1.31475e+09,-369054,-0.015733,-0.191838,-0,0.192483,-1682.34,-46648.1,-0,46678.5,-369054
step02_gravity_refstate-mantle.xmf,484,6.7255e-06,-1.48603e-05,0,-4.21149e-06,-1.37041e+09,-1.3733e+09,-1.37131e+09,-562866,-0.0319794,-0.148061,-0,0.151476,-4019.95,-48399.4,-0,48566.1,-562866
step02_gravity_refstate-mantle.xmf,485,7.49473e-06,-1.61521e-05,0,-3.96413e-06,-1.35009e+09,-1.35325e+09,-1.3511e+09,-529807,-0.0271015,-0.163315,-0,0.165549,-3217.24,-47773.7,-0,47881.9,-529807
step02_gravity_refstate-mantle.xmf,486,8.28091e-06,-1.74828e-05,0,-3.48838e-06,-1.33082e+09,-1.33426e+09,-1.33192e+09,-466222,-0.021648,-0.17824,-0,0.17955,-2432.03,-47180.1,-0,47242.7,-466222
step02_gravity_refstate-mantle.xmf,487,4.39311e-06,-1.43932e-05,0,9.37324e-06,-1.2035e+09,-1.20601e+09,-1.20409e+09,1.25273e+06,0.0450234,-0.214026,0,0.21871,5027.19,-43229.1,0,43520.5,-1.25273e+06
step02_gravity_refstate-mantle.xmf,488,9.24176e-06,-2.03855e-05,0,5.3319e-06,-1.24754e+09,-1.2515e+09,-1.24877e+09,712608,0.0243184,-0.227363,0,0.228659,2352.94,-44606.6,0,44668.6,-712608
step02_gravity_refstate-mantle.xmf,489,9.72215e-06,-2.0652e-05,0,3.66977e-06,-1.26546e+09,-1.26952e+09,-1.26676e+09,490465,0.0172018,-0.221087,0,0.221755,1679.59,-45162.8,0,45194.1,-490465
step02_gravity_refstate-mantle.xmf,490,3.02118e-06,-8.67125e-06,0,-3.10703e-06,-1.50686e+09,-1.50843e+09,-1.50727e+09,-415255,-0.0528237,-0.063522,-0,0.0826159,-9416.65,-52605.6,-0,53441.7,-415255
step02_gravity_refstate-mantle.xmf,491,3.57964e-06,-9.58088e-06,0,-3.45477e-06,-1.48342e+09,-1.48518e+09,-1.4839e+09,-461730,-0.0499911,-0.0760533,-0,0.0910122,-8393.59,-51882.8,-0,52557.3,-461730
step02_gravity_refstate-mantle.xmf,492,2.82027e-06,-8.11006e-06,0,-2.18934e-06,-1.57299e+09,-1.57445e+09,-1.57337e+09,-292606,-0.0537235,-0.0430731,-0,0.0688586,-10124.6,-54648.2,-0,55578.2,-292606
step02_gravity_refstate-mantle.xmf,493,1.22854e-06,-5.55759e-06,0,-5.79555e-07,-1.69443e+09,-1.69533e+09,-1.69459e+09,-77457.5,-0.0599101,-0.00887482,-0,0.0605639,-13641.4,-58395.3,-0,59967.5,-77457.5
step02_gravity_refstate-mantle.xmf,494,8.28487e-07,-4.89593e-06,0,5.40156e-09,-1.74641e+09,-1.74717e+09,-1.74652e+09,721.918,-0.0608049,1.75164e-19,-0,0.0608049,-14547.3,-60000,-0,61738.4,-721.918
step02_gravity_refstate-mantle.xmf,495,1.5988e-06,-1.04491e-05,0,9.55143e-06,-1.16665e+09,-1.16826e+09,-1.16686e+09,1.27655e+06,0.0483794,-0.203186,0,0.208866,6308.7,-42082.3,0,42552.5,-1.27655e+06
step02_gravity_refstate-mantle.xmf,496,5.54752e-07,-8.67009e-06,0,9.09235e-06,-1.14822e+09,-1.14946e+09,-1.1483e+09,1.21519e+06,0.0476889,-0.195867,0,0.201589,6916.45,-41510.7,0,42082.9,-1.21519e+06
step02_gravity_refstate-mantle.xmf,497,-2.66464e-07,-6.93111e-06,0,8.31062e-06,-1.12753e+09,-1.12842e+09,-1.12749e+09,1.11071e+06,0.0453084,-0.186829,0,0.192244,7575.65,-40870.3,0,41566.5,-1.11071e+06
step02_gravity_refstate-mantle.xmf,498,5.98602e-06,-1.36481e-05,0,-4.333e-06,-1.38953e+09,-1.39215e+09,-1.39033e+09,-579106,-0.0365609,-0.133547,-0,0.138461,-4863.89,-48988.1,-0,49228.9,-579106
step02_gravity_refstate-mantle.xmf,499,9.88789e-06,-2.04882e-05,0,2.01928e-06,-1.28343e+09,-1.28749e+09,-1.28475e+09,269877,0.00992738,-0.212865,0,0.213096,988.793,-45719.3,0,45730,-269877
step02_gravity_refstate-mantle.xmf,500,5.83131e-06,-1.61051e-05,0,8.64298e-06,-1.2212e+09,-1.22413e+09,-1.22198e+09,1.15513e+06,0.0412952,-0.216141,0,0.22005,4408.25,-43781.2,0,44002.5,-1.15513e+06
step02_gravity_refstate-mantle.xmf,501,7.03183e-06,-1.7507e-05,0,7.60692e-06,-1.23858e+09,-1.24186e+09,-1.23952e+09,1.01667e+06,0.0364545,-0.216289,0,0.21934,3781.31,-44322.6,0,44483.6,-1.01667e+06
step02_gravity_refstate-mantle.xmf,502,8.0671e-06,-1.8589e-05,0,6.30181e-06,-1.25573e+09,-1.25929e+09,-1.25681e+09,842237,0.0306377,-0.214623,0,0.216799,3128.87,-44856.4,0,44965.4,-842237
step02_gravity_refstate-mantle.xmf,503,4.16816e-06,-1.05478e-05,0,-3.75828e-06,-1.4601e+09,-1.46206e+09,-1.46065e+09,-502294,-0.0468205,-0.0895117,-0,0.101017,-7405.72,-51163.8,-0,51697,-502294
step02_gravity_refstate-mantle.xmf,504,5.32546e-06,-1.25484e-05,0,-4.25302e-06,-1.41162e+09,-1.414e+09,-1.41233e+09,-568417,-0.0403886,-0.118565,-0,0.125255,-5693.87,-49668.8,-0,49994.1,-568417
step02_gravity_refstate-mantle.xmf,505,4.80531e-06,-1.15862e-05,0,-3.94118e-06,-1.44028e+09,-1.44247e+09,-1.44092e+09,-526738,-0.0430816,-0.102756,-0,0.111422,-6429.36,-50553.2,-0,50960.4,-526738
step02_gravity_refstate-mantle.xmf,506,3.26514e-06,-8.82234e-06,0,-2.5398e-06,-1.54785e+09,-1.54946e+09,-1.54828e+09,-339444,-0.0514338,-0.0533625,-0,0.0741148,-9232.16,-53872.7,-0,54658.1,-339444
step02_gravity_refstate-mantle.xmf,507,2.47487e-06,-7.53298e-06,0,-1.81428e-06,-1.59983e+09,-1.60117e+09,-1.60016e+09,-242478,-0.055361,-0.0339135,-0,0.0649228,-10875.5,-55476.5,-0,56532.5,-242478
step02_gravity_refstate-mantle.xmf,508,1.7824e-06,-6.40258e-06,0,-1.01818e-06,-1.65975e+09,-1.66084e+09,-1.65999e+09,-136079,-0.058217,-0.0170361,-0,0.0606585,-12440.2,-57325.7,-0,58660,-136079
step02_gravity_refstate-mantle.xmf,509,-6.35826e-07,-5.86315e-06,0,7.70302e-06,-1.09934e+09,-1.10004e+09,-1.09926e+09,1.02951e+06,0.0403374,-0.185528,0,0.189863,7894.42,-40000,0,40771.6,-1.02951e+06
step02_gravity_refstate-mantle.xmf,510,2.11729e-06,-1.07285e-05,0,9.0239e-06,-1.19378e+09,-1.1955e+09,-1.19406e+09,1.20604e+06,0.0496224,-0.19127,0,0.197602,6461.53,-42923.2,0,43406.8,-1.20604e+06
step02_gravity_refstate-mantle.xmf,511,3.38363e-06,-1.2506e-05,0,8.95723e-06,-1.2122e+09,-1.21432e+09,-1.21265e+09,1.19713e+06,0.0479432,-0.196438,0,0.202204,5812.4,-43495.9,0,43882.5,-1.19713e+06
step02_gravity_refstate-mantle.xmf,512,9.39628e-06,-1.91668e-05,0,-1.05074e-06,-1.31856e+09,-1.32238e+09,-1.31981e+09,-140431,-0.00612986,-0.192182,-0,0.19228,-650.608,-46804.6,-0,46809.1,-140431
step02_gravity_refstate-mantle.xmf,513,9.76463e-06,-1.99767e-05,0,5.66662e-07,-1.30139e+09,-1.30537e+09,-1.3027e+09,75734.3,0.00282338,-0.203054,0,0.203074,289.33,-46274.7,0,46275.6,-75734.3
step02_gravity_refstate-mantle.xmf,514,8.74355e-06,-1.79407e-05,0,-2.06884e-06,-1.34193e+09,-1.3455e+09,-1.3431e+09,-276500,-0.0130941,-0.176621,-0,0.177105,-1464.45,-47525.3,-0,47547.8,-276500
step02_gravity_refstate-mantle.xmf,515,6.70139e-06,-1.44998e-05,0,-3.56106e-06,-1.40136e+09,-1.40419e+09,-1.40226e+09,-475935,-0.0299864,-0.134811,-0,0.138106,-3898.29,-49356.3,-0,49510,-475935
step02_gravity_refstate-mantle.xmf,516,7.38646e-06,-1.5623e-05,0,-3.25701e-06,-1.38212e+09,-1.3852e+09,-1.38311e+09,-435300,-0.0248139,-0.148501,-0,0.15056,-3065.92,-48763.7,-0,48860,-435300
step02_gravity_refstate-mantle.xmf,517,8.07824e-06,-1.6788e-05,0,-2.77939e-06,-1.3619e+09,-1.36522e+09,-1.36298e+09,-371465,-0.0192154,-0.1627,-0,0.163831,-2256.3,-48140.6,-0,48193.4,-371465
step02_gravity_refstate-mantle.xmf,518,4.6749e-06,-1.41748e-05,0,8.54084e-06,-1.2299e+09,-1.23242e+09,-1.23052e+09,1.14148e+06,0.0449794,-0.199874,0,0.204873,5171.81,-44047.1,0,44349.7,-1.14148e+06
step02_gravity_refstate-mantle.xmf,519,8.71328e-06,-1.90493e-05,0,4.8022e-06,-1.27696e+09,-1.28067e+09,-1.27813e+09,641814,0.0244904,-0.208015,0,0.209452,2518.12,-45515.5,0,45585.1,-641814
step02_gravity_refstate-mantle.xmf,520,9.18898e-06,-1.93505e-05,0,3.28029e-06,-1.29397e+09,-1.29778e+09,-1.2952e+09,438411,0.0172795,-0.202839,0,0.203574,1787.47,-46043.1,0,46077.8,-438411
step02_gravity_refstate-mantle.xmf,521,3.81125e-06,-9.67937e-06,0,-2.83594e-06,-1.52496e+09,-1.52677e+09,-1.52547e+09,-379023,-0.0483464,-0.0646286,-0,0.0807108,-8221.77,-53167.4,-0,53799.3,-379023
step02_gravity_refstate-mantle.xmf,522,4.41176e-06,-1.06353e-05,0,-3.0995e-06,-1.5007e+09,-1.50271e+09,-1.50129e+09,-414248,-0.0446715,-0.077574,-0,0.0895168,-7176.31,-52419.4,-0,52908.3,-414248
step02_gravity_refstate-mantle.xmf,523,3.40132e-06,-8.87154e-06,0,-2.06989e-06,-1.58244e+09,-1.58408e+09,-1.5829e+09,-276641,-0.0504942,-0.0443013,-0,0.0671734,-9133.46,-54942.1,-0,55696.1,-276641
step02_gravity_refstate-mantle.xmf,524,2.52025e-06,-7.46357e-06,0,-1.21097e-06,-1.64831e+09,-1.64964e+09,-1.64865e+09,-161846,-0.0551329,-0.0224261,-0,0.0595194,-10971,-56974.5,-0,58021.2,-161846
step02_gravity_refstate-mantle.xmf,525,3.08853e-06,-8.34353e-06,0,-1.66909e-06,-1.61386e+09,-1.61539e+09,-1.61427e+09,-223074,-0.0522073,-0.0337773,-0,0.0621813,-9802.08,-55911.9,-0,56764.6,-223074
step02_gravity_refstate-mantle.xmf,526,2.08948e-06,-6.74461e-06,0,-5.40703e-07,-1.70136e+09,-1.70254e+09,-1.70164e+09,-72265,-0.0570389,-0.00931843,-0,0.0577951,-11920.9,-58612.3,-0,59812.3,-72265
step02_gravity_refstate-mantle.xmf,527,1.64662e-06,-6.04829e-06,0,2.41786e-09,-1.74632e+09,-1.74735e+09,-1.74654e+09,323.147,-0.0586829,1.77328e-19,-0,0.0586829,-12833.5,-60000,-0,61357.1,-323.147
step02_gravity_refstate-mantle.xmf,528,1.02354e-06,-9.02773e-06,0,8.76711e-06,-1.17508e+09,-1.17643e+09,-1.17522e+09,1.17172e+06,0.0498575,-0.18493,0,0.191533,7092.61,-42342.6,0,42932.5,-1.17172e+06
step02_gravity_refstate-mantle.xmf,529,1.91616e-07,-7.52068e-06,0,8.25626e-06,-1.15722e+09,-1.15825e+09,-1.15724e+09,1.10345e+06,0.0488321,-0.177423,0,0.18402,7710.04,-41789,0,42494.3,-1.10345e+06
step02_gravity_refstate-mantle.xmf,530,-6.32969e-07,-5.65871e-06,0,7.33751e-06,-1.12199e+09,-1.12267e+09,-1.12191e+09,980659,0.0440695,-0.169708,0,0.175337,8458.74,-40700.2,0,41569.9,-980659
step02_gravity_refstate-mantle.xmf,531,-7.95074e-07,-4.94688e-06,0,6.82614e-06,-1.0993e+09,-1.09986e+09,-1.0992e+09,912314,0.0397516,-0.16804,0,0.172678,8727.16,-40000,0,40941,-912314
step02_gravity_refstate-mantle.xmf,532,6.09282e-06,-1.35343e-05,0,-3.72487e-06,-1.41709e+09,-1.41972e+09,-1.41791e+09,-497829,-0.0343606,-0.123268,-0,0.127967,-4672.74,-49840.6,-0,50059.2,-497829
step02_gravity_refstate-mantle.xmf,533,9.31091e-06,-1.91639e-05,0,1.92101e-06,-1.31294e+09,-1.31675e+09,-1.31418e+09,256743,0.0105846,-0.194373,0,0.194661,1118.13,-46630.5,0,46643.9,-256743
step02_gravity_refstate-mantle.xmf,534,5.88921e-06,-1.55983e-05,0,7.83184e-06,-1.24642e+09,-1.24929e+09,-1.2472e+09,1.04672e+06,0.0410986,-0.201501,0,0.205649,4558.39,-44561.8,0,44794.3,-1.04672e+06
step02_gravity_refstate-mantle.xmf,535,6.89582e-06,-1.6696e-05,0,6.77401e-06,-1.2663e+09,-1.26945e+09,-1.26722e+09,905346,0.0362738,-0.199442,0,0.202714,3952.65,-45179.9,0,45352.5,-905346
step02_gravity_refstate-mantle.xmf,536,7.81748e-06,-1.7805e-05,0,5.76241e-06,-1.2771e+09,-1.28053e+09,-1.27815e+09,770147,0.0306085,-0.201258,0,0.203572,3257.42,-45516.9,0,45633.3,-770147
step02_gravity_refstate-mantle.xmf,537,5.05263e-06,-1.16495e-05,0,-3.26148e-06,-1.47749e+09,-1.47973e+09,-1.47817e+09,-435897,-0.0404663,-0.0911512,-0,0.0997299,-6142.27,-51704.3,-0,52067.9,-435897
step02_gravity_refstate-mantle.xmf,538,5.76312e-06,-1.28037e-05,0,-3.3749e-06,-1.44939e+09,-1.45187e+09,-1.45016e+09,-451055,-0.0356807,-0.107668,-0,0.113426,-5086.54,-50838,-0,51091.8,-451055
step02_gravity_refstate-mantle.xmf,539,3.90979e-06,-9.62915e-06,0,-2.26062e-06,-1.56607e+09,-1.56788e+09,-1.56659e+09,-302131,-0.0473182,-0.052534,-0,0.0707024,-8182.87,-54437.8,-0,55049.4,-302131
step02_gravity_refstate-mantle.xmf,540,-3.23753e-07,-6.364e-06,0,7.65415e-06,-1.14402e+09,-1.14483e+09,-1.14398e+09,1.02298e+06,0.047317,-0.1689,0,0.175403,8291.47,-41381,0,42203.5,-1.02298e+06
step02_gravity_refstate-mantle.xmf,541,-8.63378e-07,-4.20002e-06,0,6.03412e-06,-1.09925e+09,-1.0997e+09,-1.09914e+09,806460,0.0390401,-0.151136,0,0.156097,9600.66,-40000,0,41136,-806460
step02_gravity_refstate-mantle.xmf,542,-7.90976e-07,-4.86585e-06,0,6.61016e-06,-1.11834e+09,-1.11888e+09,-1.11823e+09,883448,0.0429567,-0.156536,0,0.162323,9169.37,-40588.2,0,41611,-883448
step02_gravity_refstate-mantle.xmf,543,1.47009e-06,-9.30327e-06,0,8.33917e-06,-1.20251e+09,-1.20395e+09,-1.2027e+09,1.11453e+06,0.0513003,-0.173842,0,0.181253,7270.79,-43192,0,43799.7,-1.11453e+06
step02_gravity_refstate-mantle.xmf,544,2.55673e-06,-1.08914e-05,0,8.42969e-06,-1.22124e+09,-1.22304e+09,-1.22158e+09,1.12663e+06,0.0502934,-0.179316,0,0.186235,6616.28,-43773.9,0,44271.1,-1.12663e+06
step02_gravity_refstate-mantle.xmf,545,3.72146e-06,-1.24676e-05,0,8.24174e-06,-1.23897e+09,-1.24113e+09,-1.23946e+09,1.10151e+06,0.0480333,-0.18368,0,0.189856,5956.37,-44325.2,0,44723.6,-1.10151e+06
step02_gravity_refstate-mantle.xmf,546,9.2091e-06,-1.87099e-05,0,5.55726e-07,-1.33238e+09,-1.33611e+09,-1.33361e+09,74272.8,0.0031545,-0.184493,0,0.18452,342.586,-47231.4,0,47232.7,-74272.8
step02_gravity_refstate-mantle.xmf,547,8.8795e-06,-1.79746e-05,0,-6.31029e-07,-1.35282e+09,-1.35641e+09,-1.35401e+09,-84337,-0.00420072,-0.17278,-0,0.172831,-473.049,-47862.6,-0,47864.9,-84337
step02_gravity_refstate-mantle.xmf,548,8.38779e-06,-1.70543e-05,0,-1.54626e-06,-1.37399e+09,-1.37739e+09,-1.37511e+09,-206657,-0.0109991,-0.159805,-0,0.160183,-1292.39,-48515.6,-0,48532.8,-206657
step02_gravity_refstate-mantle.xmf,549,6.61133e-06,-1.40827e-05,0,-2.99697e-06,-1.43358e+09,-1.43635e+09,-1.43447e+09,-400544,-0.0283879,-0.121005,-0,0.12429,-3821.13,-50352,-0,50496.8,-400544
step02_gravity_refstate-mantle.xmf,550,7.22172e-06,-1.50665e-05,0,-2.6819e-06,-1.41505e+09,-1.41803e+09,-1.41601e+09,-358436,-0.0229814,-0.133433,-0,0.135397,-2955.83,-49781.1,-0,49868.8,-358436
step02_gravity_refstate-mantle.xmf,551,7.82472e-06,-1.60739e-05,0,-2.21247e-06,-1.39468e+09,-1.39788e+09,-1.39573e+09,-295696,-0.0171993,-0.146651,-0,0.147656,-2112.6,-49153.4,-0,49198.8,-295696
step02_gravity_refstate-mantle.xmf,552,4.86021e-06,-1.39322e-05,0,7.81071e-06,-1.25467e+09,-1.25718e+09,-1.25532e+09,1.0439e+06,0.0447379,-0.187136,0,0.19241,5300.35,-44814.1,0,45126.5,-1.0439e+06
step02_gravity_refstate-mantle.xmf,553,7.88215e-06,-1.75034e-05,0,5.03987e-06,-1.29821e+09,-1.3016e+09,-1.29926e+09,673579,0.0285442,-0.19099,0,0.193111,3120.96,-46170.2,0,46275.5,-673579
step02_gravity_refstate-mantle.xmf,554,8.51778e-06,-1.82586e-05,0,4.01491e-06,-1.30489e+09,-1.30847e+09,-1.30603e+09,536592,0.022658,-0.192513,0,0.193841,2438.09,-46378.8,0,46442.9,-536592
step02_gravity_refstate-mantle.xmf,555,8.67631e-06,-1.81449e-05,0,3.05673e-06,-1.32323e+09,-1.32682e+09,-1.32439e+09,408531,0.0179454,-0.184956,0,0.185825,1964.92,-46946.8,0,46987.9,-408531
step02_gravity_refstate-mantle.xmf,556,5.17722e-06,-1.15848e-05,0,-2.63866e-06,-1.51681e+09,-1.51905e+09,-1.51751e+09,-352657,-0.0382698,-0.0780821,-0,0.0869563,-5931.03,-52919.9,-0,53251.2,-352657
step02_gravity_refstate-mantle.xmf,557,4.59721e-06,-1.06766e-05,0,-2.43929e-06,-1.54478e+09,-1.54682e+09,-1.54539e+09,-326011,-0.0425124,-0.0641623,-0,0.0769682,-6943.6,-53782.2,-0,54228.5,-326011
step02_gravity_refstate-mantle.xmf,558,3.89049e-06,-9.4418e-06,0,-1.67252e-06,-1.61145e+09,-1.61323e+09,-1.61197e+09,-223532,-0.0470925,-0.0386918,-0,0.0609488,-8325.59,-55840,-0,56457.2,-223532
step02_gravity_refstate-mantle.xmf,559,3.41786e-06,-8.67004e-06,0,-1.13154e-06,-1.65558e+09,-1.6572e+09,-1.65604e+09,-151231,-0.050086,-0.0240489,-0,0.0555604,-9292.31,-57202.1,-0,57951.9,-151231
step02_gravity_refstate-mantle.xmf,560,2.94517e-06,-7.92083e-06,0,-5.74152e-07,-1.70005e+09,-1.70151e+09,-1.70045e+09,-76735.4,-0.0528695,-0.0112385,-0,0.0540508,-10262.6,-58574.6,-0,59466.8,-76735.4
step02_gravity_refstate-mantle.xmf,561,2.49765e-06,-7.22247e-06,0,1.76953e-09,-1.74624e+09,-1.74754e+09,-1.74657e+09,236.498,-0.055209,2.05122e-19,-0,0.055209,-11156.7,-60000,-0,61028.4,-236.498
step02_gravity_refstate-mantle.xmf,562,5.54392e-07,-7.80952e-06,0,7.99207e-06,-1.18355e+09,-1.18467e+09,-1.18363e+09,1.06814e+06,0.0510251,-0.167278,0,0.174887,7916.83,-42604.2,0,43333.5,-1.06814e+06
step02_gravity_refstate-mantle.xmf,563,-1.28655e-07,-6.50407e-06,0,7.46561e-06,-1.16549e+09,-1.16634e+09,-1.16547e+09,997779,0.0496608,-0.159735,0,0.167277,8552.69,-42044.9,0,42906,-997779
step02_gravity_refstate-mantle.xmf,564,-6.01919e-07,-5.40488e-06,0,6.88732e-06,-1.14318e+09,-1.14382e+09,-1.1431e+09,920491,0.0468278,-0.153925,0,0.160891,9097.84,-41355.4,0,42344.3,-920491
step02_gravity_refstate-mantle.xmf,565,-9.00942e-07,-4.29941e-06,0,5.99871e-06,-1.12697e+09,-1.12743e+09,-1.12685e+09,801728,0.0437369,-0.140884,0,0.147517,9969.81,-40855.7,0,42054.5,-801728
step02_gravity_refstate-mantle.xmf,566,8.77354e-06,-1.79649e-05,0,1.83984e-06,-1.34404e+09,-1.34761e+09,-1.34521e+09,245894,0.0114262,-0.176049,0,0.176419,1278.55,-47590.5,0,47607.6,-245894
step02_gravity_refstate-mantle.xmf,567,5.79468e-06,-1.50693e-05,0,7.23139e-06,-1.26789e+09,-1.27068e+09,-1.26867e+09,966475,0.0411711,-0.188901,0,0.193336,4735.99,-45225.9,0,45473.2,-966475
step02_gravity_refstate-mantle.xmf,568,7.1864e-06,-1.66704e-05,0,5.93697e-06,-1.28914e+09,-1.29233e+09,-1.2901e+09,793475,0.0336845,-0.189936,0,0.1929,3744.96,-45887.6,0,46040.1,-793475
step02_gravity_refstate-mantle.xmf,569,5.77152e-06,-1.25104e-05,0,-2.66257e-06,-1.49422e+09,-1.49666e+09,-1.49499e+09,-355852,-0.0334847,-0.0908606,-0,0.0968342,-4942.13,-52223.6,-0,52456.9,-355852
step02_gravity_refstate-mantle.xmf,570,4.438e-06,-1.02838e-05,0,-1.94762e-06,-1.58467e+09,-1.58664e+09,-1.58526e+09,-260299,-0.0430915,-0.0501138,-0,0.0660929,-7256.09,-55014.2,-0,55490.7,-260299
step02_gravity_refstate-mantle.xmf,571,-8.97242e-07,-3.57467e-06,0,5.30095e-06,-1.09921e+09,-1.09957e+09,-1.09909e+09,708473,0.0382334,-0.134857,0,0.140172,10517.3,-40000,0,41359.6,-708473
step02_gravity_refstate-mantle.xmf,572,9.47171e-07,-8.09214e-06,0,7.64862e-06,-1.21149e+09,-1.2127e+09,-1.21162e+09,1.02224e+06,0.0526263,-0.157107,0,0.165686,8106.95,-43469.2,0,44218.7,-1.02224e+06
step02_gravity_refstate-mantle.xmf,573,1.8767e-06,-9.5141e-06,0,7.85446e-06,-1.23021e+09,-1.23174e+09,-1.23047e+09,1.04975e+06,0.0521659,-0.162992,0,0.171137,7435.24,-44050.1,0,44673.2,-1.04975e+06
step02_gravity_refstate-mantle.xmf,574,6.40856e-06,-1.35174e-05,0,-2.53598e-06,-1.47089e+09,-1.47355e+09,-1.47174e+09,-338934,-0.0278231,-0.104723,-0,0.108356,-3903.43,-51504.4,-0,51652.1,-338934
step02_gravity_refstate-mantle.xmf,575,2.90701e-06,-1.09612e-05,0,7.82666e-06,-1.24827e+09,-1.25013e+09,-1.24866e+09,1.04603e+06,0.0505581,-0.167775,0,0.175227,6765.05,-44611.1,0,45121.2,-1.04603e+06
step02_gravity_refstate-mantle.xmf,576,3.98566e-06,-1.24033e-05,0,7.58732e-06,-1.26453e+09,-1.26672e+09,-1.26506e+09,1.01405e+06,0.0478202,-0.172116,0,0.178636,6071.03,-45116.7,0,45523.4,-1.01405e+06
step02_gravity_refstate-mantle.xmf,577,8.6962e-06,-1.75822e-05,0,6.5401e-07,-1.36473e+09,-1.36825e+09,-1.3659e+09,87408.5,0.00425594,-0.166219,0,0.166273,489.048,-48230.3,0,48232.8,-87408.5
step02_gravity_refstate-mantle.xmf,578,8.43302e-06,-1.6978e-05,0,-3.52696e-07,-1.3859e+09,-1.38929e+09,-1.38702e+09,-47137.8,-0.00271024,-0.155054,-0,0.155077,-321.793,-48883.8,-0,48884.9,-47137.8
step02_gravity_refstate-mantle.xmf,579,8.0425e-06,-1.62341e-05,0,-1.13987e-06,-1.40719e+09,-1.41044e+09,-1.40827e+09,-152344,-0.00920095,-0.143089,-0,0.143385,-1133.74,-49540.9,-0,49553.9,-152344
step02_gravity_refstate-mantle.xmf,580,7.02543e-06,-1.45001e-05,0,-2.19917e-06,-1.44998e+09,-1.45286e+09,-1.45092e+09,-293919,-0.0215279,-0.117775,-0,0.119726,-2882.41,-50860.2,-0,50941.8,-293919
step02_gravity_refstate-mantle.xmf,581,7.56419e-06,-1.53959e-05,0,-1.75029e-06,-1.42871e+09,-1.43178e+09,-1.42972e+09,-233927,-0.0154587,-0.130532,-0,0.131444,-1983.25,-50204.6,-0,50243.7,-233927
step02_gravity_refstate-mantle.xmf,582,5.11743e-06,-1.38565e-05,0,7.10506e-06,-1.2799e+09,-1.28243e+09,-1.28058e+09,949591,0.0438135,-0.176074,0,0.181443,5315.19,-45595.3,0,45904.1,-949591
step02_gravity_refstate-mantle.xmf,583,6.16245e-06,-1.51786e-05,0,6.45865e-06,-1.29179e+09,-1.29465e+09,-1.29262e+09,863198,0.0389679,-0.179907,0,0.184079,4553.98,-45966.4,0,46191.5,-863198
step02_gravity_refstate-mantle.xmf,584,7.82191e-06,-1.69096e-05,0,4.17348e-06,-1.32882e+09,-1.33212e+09,-1.32986e+09,557786,0.0259776,-0.175934,0,0.177842,2960.43,-47116.7,0,47209.6,-557786
step02_gravity_refstate-mantle.xmf,585,7.01832e-06,-1.60555e-05,0,5.40359e-06,-1.3124e+09,-1.31548e+09,-1.31333e+09,722190,0.0333442,-0.177122,0,0.180233,3852.33,-46606.3,0,46765.2,-722190
step02_gravity_refstate-mantle.xmf,586,8.16448e-06,-1.70105e-05,0,2.8761e-06,-1.35423e+09,-1.35759e+09,-1.35532e+09,384391,0.0190789,-0.166915,0,0.168002,2211.63,-47903.7,0,47954.8,-384391
step02_gravity_refstate-mantle.xmf,587,5.77755e-06,-1.22971e-05,0,-2.10303e-06,-1.53319e+09,-1.53561e+09,-1.53397e+09,-281071,-0.0314766,-0.0766214,-0,0.0828349,-4764.54,-53428.1,-0,53640.1,-281071
step02_gravity_refstate-mantle.xmf,588,5.28207e-06,-1.15628e-05,0,-2.13995e-06,-1.54992e+09,-1.55217e+09,-1.55063e+09,-286004,-0.0361859,-0.0672207,-0,0.0763416,-5685.74,-53943.3,-0,54242.1,-286004
step02_gravity_refstate-mantle.xmf,589,5.0149e-06,-1.10786e-05,0,-1.84916e-06,-1.5813e+09,-1.58345e+09,-1.58197e+09,-247141,-0.0379899,-0.0546816,-0,0.0665831,-6163.2,-54912.1,-0,55256.9,-247141
step02_gravity_refstate-mantle.xmf,590,4.64988e-06,-1.04412e-05,0,-1.47558e-06,-1.61894e+09,-1.62095e+09,-1.61956e+09,-197211,-0.0407844,-0.0402357,-0,0.0572912,-6874.33,-56073.9,-0,56493.7,-197211
step02_gravity_refstate-mantle.xmf,591,4.22297e-06,-9.74534e-06,0,-1.05338e-06,-1.6583e+09,-1.66016e+09,-1.65886e+09,-140784,-0.0441398,-0.0261484,-0,0.0513037,-7742.68,-57288.6,-0,57809.4,-140784
step02_gravity_refstate-mantle.xmf,592,3.77977e-06,-9.04371e-06,0,-5.47218e-07,-1.70153e+09,-1.70324e+09,-1.70203e+09,-73135.7,-0.0474407,-0.0123944,-0,0.049033,-8649.89,-58622.9,-0,59257.6,-73135.7
step02_gravity_refstate-mantle.xmf,593,3.34771e-06,-8.37725e-06,0,-6.80487e-11,-1.74615e+09,-1.74772e+09,-1.7466e+09,-9.09471,-0.0504013,2.16574e-19,-0,0.0504013,-9511.38,-60000,-0,60749.2,-9.09471
step02_gravity_refstate-mantle.xmf,594,1.76373e-07,-6.75161e-06,0,7.21523e-06,-1.19343e+09,-1.19435e+09,-1.19345e+09,964316,0.052013,-0.149567,0,0.158353,8807.78,-42909.4,0,43804,-964316
step02_gravity_refstate-mantle.xmf,595,-3.92346e-07,-5.62205e-06,0,6.72183e-06,-1.17297e+09,-1.17366e+09,-1.17291e+09,898372,0.0501768,-0.143098,0,0.15164,9427.9,-42276.4,0,43314.9,-898372
step02_gravity_refstate-mantle.xmf,596,-9.79016e-07,-3.58956e-06,0,5.21338e-06,-1.12604e+09,-1.12639e+09,-1.12591e+09,696768,0.0426398,-0.124152,0,0.13127,10990.1,-40828.3,0,42281.6,-696768
step02_gravity_refstate-mantle.xmf,597,-7.14198e-07,-4.86083e-06,0,6.31307e-06,-1.15236e+09,-1.15291e+09,-1.15226e+09,843742,0.0475725,-0.139924,0,0.14779,9815.45,-41639.6,0,42780.8,-843742
step02_gravity_refstate-mantle.xmf,598,8.29281e-06,-1.69109e-05,0,1.74064e-06,-1.37617e+09,-1.37954e+09,-1.37728e+09,232636,0.0122377,-0.158253,0,0.158726,1445.95,-48582.5,0,48604,-232636
step02_gravity_refstate-mantle.xmf,599,6.31323e-06,-1.31352e-05,0,-2.00895e-06,-1.51027e+09,-1.51287e+09,-1.51111e+09,-268496,-0.0260513,-0.0889724,-0,0.0927079,-3778.62,-52721.3,-0,52856.6,-268496
step02_gravity_refstate-mantle.xmf,600,-9.37684e-07,-3.03903e-06,0,4.64427e-06,-1.09917e+09,-1.09946e+09,-1.09905e+09,620707,0.0373672,-0.119234,0,0.124953,11479.4,-40000,0,41614.6,-620707
step02_gravity_refstate-mantle.xmf,601,-9.33936e-07,-2.59694e-06,0,4.05205e-06,-1.09914e+09,-1.09936e+09,-1.09901e+09,541556,0.0364541,-0.104296,0,0.110484,12489.1,-40000,0,41904.4,-541556
step02_gravity_refstate-mantle.xmf,602,-1.06305e-06,-3.03147e-06,0,4.56218e-06,-1.12769e+09,-1.12795e+09,-1.12755e+09,609736,0.041894,-0.108747,0,0.116538,12002.6,-40880,0,42605.6,-609736
step02_gravity_refstate-mantle.xmf,603,-9.24002e-07,-2.21831e-06,0,3.52139e-06,-1.0991e+09,-1.09928e+09,-1.09898e+09,470634,0.035502,-0.0900598,0,0.0968047,13548.9,-40000,0,42232.4,-470634
step02_gravity_refstate-mantle.xmf,604,-1.10434e-06,-2.58261e-06,0,3.9896e-06,-1.13062e+09,-1.13082e+09,-1.13047e+09,533211,0.0412746,-0.094333,0,0.102967,13037.6,-40971.4,0,42995.8,-533211
step02_gravity_refstate-mantle.xmf,605,-8.90038e-07,-1.90012e-06,0,3.04643e-06,-1.09907e+09,-1.09921e+09,-1.09895e+09,407155,0.0345106,-0.0765379,0,0.0839585,14661.8,-40000,0,42602.4,-407155
step02_gravity_refstate-mantle.xmf,606,-1.11615e-06,-2.19039e-06,0,3.46994e-06,-1.13017e+09,-1.13031e+09,-1.13002e+09,463758,0.040083,-0.0814408,0,0.0907703,14076.4,-40958.4,0,43309.8,-463758
step02_gravity_refstate-mantle.xmf,607,-1.79356e-06,7.65406e-07,0,2.58361e-09,-1.09904e+09,-1.0987e+09,-1.09881e+09,345.3,-3.07109e-19,0.0315192,-0,0.0315192,40000,-40000,0,56568.5,-345.3
step02_gravity_refstate-mantle.xmf,608,-1.77835e-06,7.45378e-07,0,9.51242e-08,-1.09904e+09,-1.09871e+09,-1.09881e+09,12713.3,0.00417485,0.0308568,0,0.0311379,37663.8,-40000,0,54941.4,-12713.3
step02_gravity_refstate-mantle.xmf,609,-2.04433e-06,8.99345e-07,0,5.56879e-08,-1.15111e+09,-1.15072e+09,-1.15084e+09,7442.68,0.00329328,0.0298772,0,0.0300582,38392.6,-41607.1,0,56613.9,-7442.68
step02_gravity_refstate-mantle.xmf,610,-2.17892e-06,9.82714e-07,0,3.0451e-09,-1.1767e+09,-1.17628e+09,-1.17641e+09,406.978,-4.7008e-19,0.0294266,-0,0.0294266,40000,-42396.8,0,58288,-406.978
step02_gravity_refstate-mantle.xmf,611,-8.90986e-07,-4.18719e-06,0,5.68657e-06,-1.1524e+09,-1.15284e+09,-1.15228e+09,760010,0.0469452,-0.126945,0,0.135347,10612.6,-41641.4,0,42972.4,-760010
step02_gravity_refstate-mantle.xmf,612,5.41848e-07,-7.07115e-06,0,6.95566e-06,-1.22251e+09,-1.22353e+09,-1.22258e+09,929623,0.0537421,-0.140529,0,0.150455,8983.81,-43809.3,0,44721,-929623
step02_gravity_refstate-mantle.xmf,613,1.32145e-06,-8.34325e-06,0,7.26249e-06,-1.23927e+09,-1.24056e+09,-1.23945e+09,970632,0.053636,-0.147527,0,0.156974,8265.28,-44329.2,0,45093.1,-970632
step02_gravity_refstate-mantle.xmf,614,2.21696e-06,-9.65574e-06,0,7.36161e-06,-1.2569e+09,-1.25848e+09,-1.25719e+09,983880,0.0525894,-0.15283,0,0.161625,7581.27,-44876.2,0,45512.1,-983880
step02_gravity_refstate-mantle.xmf,615,6.83709e-06,-1.39753e-05,0,-1.76035e-06,-1.48724e+09,-1.49002e+09,-1.48815e+09,-235270,-0.0200635,-0.101684,-0,0.103645,-2790.64,-52011.2,-0,52086,-235270
step02_gravity_refstate-mantle.xmf,616,3.17243e-06,-1.09667e-05,0,7.26385e-06,-1.27376e+09,-1.27565e+09,-1.27418e+09,970814,0.0505568,-0.157172,0,0.165103,6899.17,-45400,0,45921.2,-970814
step02_gravity_refstate-mantle.xmf,617,4.16914e-06,-1.22674e-05,0,6.96599e-06,-1.29007e+09,-1.29227e+09,-1.29063e+09,931005,0.0474979,-0.160752,0,0.167622,6190.07,-45907.3,0,46322.8,-931005
step02_gravity_refstate-mantle.xmf,618,8.24132e-06,-1.65997e-05,0,7.41592e-07,-1.39753e+09,-1.40085e+09,-1.39864e+09,99113.7,0.00551501,-0.148704,0,0.148807,667.568,-49243,0,49247.5,-99113.7
step02_gravity_refstate-mantle.xmf,619,8.03498e-06,-1.61038e-05,0,-9.57169e-08,-1.41968e+09,-1.42291e+09,-1.42075e+09,-12792.6,-0.000939025,-0.137872,-0,0.137876,-117.106,-49927,-0,49927.1,-12792.6
step02_gravity_refstate-mantle.xmf,620,7.72031e-06,-1.54857e-05,0,-8.02965e-07,-1.44192e+09,-1.44502e+09,-1.44295e+09,-107316,-0.00745429,-0.126354,-0,0.126574,-960.946,-50613.4,-0,50622.5,-107316
step02_gravity_refstate-mantle.xmf,621,7.31446e-06,-1.47699e-05,0,-1.35359e-06,-1.46445e+09,-1.4674e+09,-1.46543e+09,-180907,-0.0137842,-0.114237,-0,0.115066,-1842.92,-51308.5,-0,51341.6,-180907
step02_gravity_refstate-mantle.xmf,622,5.11618e-06,-1.34446e-05,0,6.47819e-06,-1.30554e+09,-1.30802e+09,-1.30622e+09,865810,0.043646,-0.163091,0,0.168831,5491.4,-46388.4,0,46712.3,-865810
step02_gravity_refstate-mantle.xmf,623,6.01262e-06,-1.44832e-05,0,5.7467e-06,-1.32311e+09,-1.32585e+09,-1.32391e+09,768047,0.0388233,-0.163262,0,0.167815,4767.6,-46934.5,0,47176,-768047
step02_gravity_refstate-mantle.xmf,624,6.80377e-06,-1.53083e-05,0,4.76726e-06,-1.34373e+09,-1.34668e+09,-1.34464e+09,637144,0.032893,-0.160734,0,0.164065,3990.07,-47574.6,0,47741.6,-637144
step02_gravity_refstate-mantle.xmf,625,7.72815e-06,-1.60396e-05,0,2.61771e-06,-1.38703e+09,-1.3902e+09,-1.38806e+09,349857,0.0196896,-0.149287,0,0.15058,2407.63,-48916.4,0,48975.6,-349857
step02_gravity_refstate-mantle.xmf,626,7.39468e-06,-1.58459e-05,0,3.67836e-06,-1.36496e+09,-1.36806e+09,-1.36595e+09,491613,0.0262826,-0.156182,0,0.158378,3182.87,-48233,0,48337.9,-491613
step02_gravity_refstate-mantle.xmf,627,5.69573e-06,-1.19888e-05,0,-1.61477e-06,-1.57661e+09,-1.57897e+09,-1.57737e+09,-215813,-0.0305723,-0.0603614,-0,0.0676622,-4760.65,-54769.3,-0,54975.8,-215813
step02_gravity_refstate-mantle.xmf,628,6.21636e-06,-1.27925e-05,0,-1.56135e-06,-1.54965e+09,-1.55219e+09,-1.55048e+09,-208674,-0.0245413,-0.073536,-0,0.077523,-3663.91,-53937.9,-0,54062.2,-208674
step02_gravity_refstate-mantle.xmf,629,5.31855e-06,-1.13327e-05,0,-1.30103e-06,-1.61849e+09,-1.62071e+09,-1.6192e+09,-173883,-0.0337717,-0.0436184,-0,0.0551642,-5466.11,-56062.1,-0,56327.9,-173883
step02_gravity_refstate-mantle.xmf,630,4.94981e-06,-1.07082e-05,0,-9.32183e-07,-1.66011e+09,-1.6622e+09,-1.66077e+09,-124586,-0.0371917,-0.0280645,-0,0.0465923,-6231.65,-57347.1,-0,57684.7,-124586
step02_gravity_refstate-mantle.xmf,631,4.57123e-06,-1.00965e-05,0,-4.96753e-07,-1.70252e+09,-1.70448e+09,-1.70313e+09,-66391,-0.0407083,-0.0135009,-0,0.0428887,-7038.7,-58656,-0,59076.8,-66391
step02_gravity_refstate-mantle.xmf,632,4.16408e-06,-9.47089e-06,0,-1.96658e-09,-1.74606e+09,-1.74789e+09,-1.74662e+09,-262.834,-0.0443214,2.27936e-19,-0,0.0443214,-7892.26,-60000,-0,60516.8,-262.834
step02_gravity_refstate-mantle.xmf,633,-1.10404e-06,-1.84718e-06,0,2.99175e-06,-1.12924e+09,-1.12934e+09,-1.12909e+09,399848,0.0387208,-0.0688801,0,0.0790175,15193,-40930.5,0,43659.3,-399848
step02_gravity_refstate-mantle.xmf,634,-9.13961e-07,-1.59634e-06,0,2.63148e-06,-1.09905e+09,-1.09914e+09,-1.09893e+09,351698,0.0334709,-0.0637413,0,0.0719948,15830.4,-40000,0,43018.6,-351698
step02_gravity_refstate-mantle.xmf,635,-1.73591e-06,6.83114e-07,0,1.89734e-07,-1.09904e+09,-1.09872e+09,-1.09881e+09,25357.9,0.00808209,0.0289772,0,0.0300832,35440.8,-40000,0,53442,-25357.9
step02_gravity_refstate-mantle.xmf,636,-2.04948e-06,8.76004e-07,0,1.22736e-07,-1.15582e+09,-1.15543e+09,-1.15554e+09,16403.6,0.00716256,0.0286605,0,0.0295419,36529.7,-41752.3,0,55476.8,-16403.6
step02_gravity_refstate-mantle.xmf,637,-2.36927e-06,1.09073e-06,0,6.18696e-08,-1.21882e+09,-1.21836e+09,-1.2185e+09,8268.88,0.00498022,0.0276072,0,0.0280528,37900.3,-43696.9,0,57843.3,-8268.88
step02_gravity_refstate-mantle.xmf,638,-2.54352e-06,1.19987e-06,0,2.76019e-09,-1.25484e+09,-1.25434e+09,-1.2545e+09,368.899,-5.18785e-19,0.0267959,-0,0.0267959,40000,-44808.6,0,60065.1,-368.899
step02_gravity_refstate-mantle.xmf,639,-6.23701e-07,-4.86101e-06,0,6.05514e-06,-1.17822e+09,-1.17879e+09,-1.17814e+09,809270,0.0502825,-0.128422,0,0.137915,10286.8,-42439.2,0,43668.1,-809270
step02_gravity_refstate-mantle.xmf,640,-1.71754e-07,-5.73071e-06,0,6.38677e-06,-1.20577e+09,-1.20651e+09,-1.20575e+09,853592,0.0528954,-0.130347,0,0.140671,9866.82,-43290.9,0,44401.1,-853592
step02_gravity_refstate-mantle.xmf,641,-9.87573e-07,-3.6161e-06,0,5.0666e-06,-1.15476e+09,-1.15511e+09,-1.15462e+09,677151,0.046435,-0.113164,0,0.12232,11505.2,-41715.1,0,43272.6,-677151
step02_gravity_refstate-mantle.xmf,642,7.87327e-06,-1.60107e-05,0,1.65064e-06,-1.40809e+09,-1.41129e+09,-1.40915e+09,220608,0.0131577,-0.141505,0,0.142115,1633.49,-49568.2,0,49595.1,-220608
step02_gravity_refstate-mantle.xmf,643,6.67288e-06,-1.35188e-05,0,-1.35564e-06,-1.5261e+09,-1.5288e+09,-1.52699e+09,-181181,-0.0184616,-0.0855178,-0,0.0874879,-2656.58,-53211.8,-0,53278.1,-181181
step02_gravity_refstate-mantle.xmf,644,-1.67137e-06,5.86746e-07,0,2.89735e-07,-1.09903e+09,-1.09873e+09,-1.09881e+09,38723.1,0.011685,0.0260083,0,0.0285126,33325.6,-40000,0,52063.3,-38723.1
step02_gravity_refstate-mantle.xmf,645,-1.98233e-06,7.82808e-07,0,2.11022e-07,-1.15189e+09,-1.15152e+09,-1.15163e+09,28203.1,0.0114161,0.026471,0,0.0288278,34373.1,-41631.3,0,53987.7,-28203.1
step02_gravity_refstate-mantle.xmf,646,-1.59086e-06,4.62507e-07,0,3.97925e-07,-1.09903e+09,-1.09875e+09,-1.09881e+09,53182.7,0.014966,0.0220418,0,0.0266425,31312.8,-40000,0,50798.5,-53182.7
step02_gravity_refstate-mantle.xmf,647,-1.88864e-06,6.48697e-07,0,3.16024e-07,-1.14677e+09,-1.14643e+09,-1.14652e+09,42236.6,0.0154291,0.0230903,0,0.0277709,32208.1,-41473.3,0,52511,-42236.6
step02_gravity_refstate-mantle.xmf,648,-1.49989e-06,3.15495e-07,0,5.17414e-07,-1.09902e+09,-1.09878e+09,-1.09882e+09,69152.3,0.0179221,0.0171443,0,0.0248018,29397.5,-40000,0,49640.9,-69152.3
step02_gravity_refstate-mantle.xmf,649,-1.40469e-06,1.50672e-07,0,6.51047e-07,-1.09901e+09,-1.0988e+09,-1.09882e+09,87012.5,0.0205624,0.0113643,0,0.0234938,27575,-40000,0,48583.7,-87012.5
step02_gravity_refstate-mantle.xmf,650,-1.69237e-06,3.26171e-07,0,5.60085e-07,-1.14013e+09,-1.13986e+09,-1.1399e+09,74855.3,0.0219466,0.0137223,0,0.0258835,28383.9,-41268.7,0,50087.4,-74855.3
step02_gravity_refstate-mantle.xmf,651,-1.79136e-06,4.93684e-07,0,4.32848e-07,-1.14322e+09,-1.14291e+09,-1.14298e+09,57850.2,0.0189581,0.0187446,0,0.0266603,30200.8,-41363.7,0,51215.7,-57850.2
step02_gravity_refstate-mantle.xmf,652,-1.30859e-06,-2.91293e-08,0,8.02403e-07,-1.09901e+09,-1.09883e+09,-1.09883e+09,107241,0.0229053,0.0047374,0,0.0233901,25840.6,-40000,0,47620.8,-107241
step02_gravity_refstate-mantle.xmf,653,-1.61232e-06,1.57922e-07,0,6.98019e-07,-1.14131e+09,-1.14107e+09,-1.14109e+09,93290.2,0.0249002,0.00780667,0,0.0260953,26641.3,-41305.2,0,49151.6,-93290.2
step02_gravity_refstate-mantle.xmf,654,-1.20659e-06,-2.14394e-07,0,9.67056e-07,-1.099e+09,-1.09887e+09,-1.09884e+09,129247,0.0249772,-0.00270992,0,0.0251237,24190.1,-40000,0,46745.7,-129247
step02_gravity_refstate-mantle.xmf,655,-1.52497e-06,-5.15175e-08,0,8.82845e-07,-1.13984e+09,-1.13965e+09,-1.13964e+09,117992,0.0274904,0.000822541,0,0.0275027,24914.5,-41259.9,0,48198.7,-117992
step02_gravity_refstate-mantle.xmf,656,-9.10736e-07,-1.33754e-06,0,2.26003e-06,-1.09903e+09,-1.09909e+09,-1.09891e+09,302053,0.0323672,-0.0516794,0,0.0609786,17057.8,-40000,0,43485.3,-302053
step02_gravity_refstate-mantle.xmf,657,-1.16667e-06,-1.51437e-06,0,2.5642e-06,-1.13269e+09,-1.13273e+09,-1.13253e+09,342706,0.0378054,-0.0560003,0,0.0675669,16444.1,-41037.5,0,44209.6,-342706
step02_gravity_refstate-mantle.xmf,658,-1.10874e-06,-3.10427e-06,0,4.49465e-06,-1.1602e+09,-1.16047e+09,-1.16006e+09,600710,0.0461603,-0.0991017,0,0.109325,12477.8,-41883.9,0,43703,-600710
step02_gravity_refstate-mantle.xmf,659,-1.16773e-06,-2.59688e-06,0,3.8568e-06,-1.16594e+09,-1.16613e+09,-1.16578e+09,515461,0.0455705,-0.0836467,0,0.0952546,13669,-42062,0,44227.3,-515461
step02_gravity_refstate-mantle.xmf,660,-1.19533e-06,-2.18564e-06,0,3.3996e-06,-1.1544e+09,-1.15454e+09,-1.15424e+09,454357,0.043053,-0.0747644,0,0.0862744,14514,-41706.5,0,44159.8,-454357
step02_gravity_refstate-mantle.xmf,661,-2.72357e-06,1.29807e-06,0,5.77092e-08,-1.29928e+09,-1.29874e+09,-1.29892e+09,7712.83,0.00546472,0.0246918,0,0.0252893,37994.5,-46180.4,0,59801.4,-7712.83
step02_gravity_refstate-mantle.xmf,662,-2.87017e-06,1.40789e-06,0,3.20744e-09,-1.3337e+09,-1.33313e+09,-1.33332e+09,428.674,-5.70566e-19,0.0236235,-0,0.0236235,40000,-47243,0,61902.3,-428.674
step02_gravity_refstate-mantle.xmf,663,-8.27105e-07,-4.16561e-06,0,5.44596e-06,-1.17598e+09,-1.17643e+09,-1.17587e+09,727852,0.0494424,-0.116401,0,0.126466,11107.8,-42370.4,0,43802.2,-727852
step02_gravity_refstate-mantle.xmf,664,2.96035e-07,-6.38612e-06,0,6.39881e-06,-1.23457e+09,-1.23547e+09,-1.23461e+09,855201,0.0545999,-0.127181,0,0.138406,9714.73,-44182.1,0,45237.5,-855201
step02_gravity_refstate-mantle.xmf,665,8.82663e-07,-7.35972e-06,0,6.66668e-06,-1.2496e+09,-1.2507e+09,-1.24972e+09,891002,0.0548021,-0.132713,0,0.143583,9103.17,-44647.8,0,45566.3,-891002
step02_gravity_refstate-mantle.xmf,666,1.63757e-06,-8.51821e-06,0,6.85696e-06,-1.26583e+09,-1.26719e+09,-1.26605e+09,916433,0.0542131,-0.138436,0,0.148673,8413.78,-45151.1,0,45928.4,-916433
step02_gravity_refstate-mantle.xmf,667,2.48376e-06,-9.71436e-06,0,6.86326e-06,-1.28304e+09,-1.28467e+09,-1.28337e+09,917274,0.05277,-0.14286,0,0.152295,7733.55,-45685.4,0,46335.4,-917274
step02_gravity_refstate-mantle.xmf,668,7.08134e-06,-1.42009e-05,0,-1.01521e-06,-1.50205e+09,-1.50489e+09,-1.50299e+09,-135683,-0.0121752,-0.0977072,-0,0.0984629,-1691.43,-52469.7,-0,52497,-135683
step02_gravity_refstate-mantle.xmf,669,3.34689e-06,-1.08685e-05,0,6.70655e-06,-1.29938e+09,-1.30128e+09,-1.29982e+09,896330,0.0505215,-0.14629,0,0.154768,7067.5,-46192.8,0,46730.3,-896330
step02_gravity_refstate-mantle.xmf,670,4.20338e-06,-1.19619e-05,0,6.39881e-06,-1.31501e+09,-1.31717e+09,-1.31557e+09,855201,0.0475036,-0.14887,0,0.156265,6397.13,-46678.8,0,47115.1,-855201
step02_gravity_refstate-mantle.xmf,671,7.82992e-06,-1.57366e-05,0,8.34961e-07,-1.43082e+09,-1.43397e+09,-1.43186e+09,111593,0.00718078,-0.131773,0,0.131969,911.991,-50270.6,0,50278.8,-111593
step02_gravity_refstate-mantle.xmf,672,7.67649e-06,-1.53226e-05,0,1.29276e-07,-1.45476e+09,-1.45783e+09,-1.45579e+09,17277.7,0.00102881,-0.120847,0,0.120851,134.285,-51010.2,0,51010.4,-17277.7
step02_gravity_refstate-mantle.xmf,673,7.42305e-06,-1.48098e-05,0,-5.24732e-07,-1.47831e+09,-1.48128e+09,-1.4793e+09,-70130.5,-0.00570423,-0.109541,-0,0.109689,-767.023,-51737.1,-0,51742.8,-70130.5
step02_gravity_refstate-mantle.xmf,674,5.05756e-06,-1.29714e-05,0,5.85668e-06,-1.33388e+09,-1.33629e+09,-1.33456e+09,782745,0.0435784,-0.149112,0,0.155349,5710.33,-47264.7,0,47608.4,-782745
step02_gravity_refstate-mantle.xmf,675,5.86949e-06,-1.38704e-05,0,5.10139e-06,-1.35491e+09,-1.35755e+09,-1.35569e+09,681800,0.0385819,-0.147485,0,0.152448,4963.1,-47917.4,0,48173.8,-681800
step02_gravity_refstate-mantle.xmf,676,6.55496e-06,-1.45692e-05,0,4.20393e-06,-1.37678e+09,-1.3796e+09,-1.37766e+09,561855,0.0327324,-0.144091,0,0.147762,4171.81,-48595.9,0,48774.6,-561855
step02_gravity_refstate-mantle.xmf,677,7.36038e-06,-1.52283e-05,0,2.3613e-06,-1.41962e+09,-1.42264e+09,-1.42061e+09,315587,0.0201797,-0.132808,0,0.134332,2588.54,-49922.9,0,49990,-315587
step02_gravity_refstate-mantle.xmf,678,7.05204e-06,-1.50128e-05,0,3.26231e-06,-1.39868e+09,-1.40163e+09,-1.39962e+09,436008,0.0264821,-0.138999,0,0.141499,3374.76,-49274.5,0,49389.9,-436008
step02_gravity_refstate-mantle.xmf,679,6.50594e-06,-1.30908e-05,0,-1.02378e-06,-1.56703e+09,-1.56965e+09,-1.5679e+09,-136828,-0.0173669,-0.0688492,-0,0.0710058,-2577.48,-54476.1,-0,54537,-136828
step02_gravity_refstate-mantle.xmf,680,6.12989e-06,-1.25298e-05,0,-1.20157e-06,-1.58609e+09,-1.58858e+09,-1.58691e+09,-160590,-0.0232942,-0.0595289,-0,0.0639242,-3555.44,-55063.7,-0,55178.3,-160590
step02_gravity_refstate-mantle.xmf,681,5.87899e-06,-1.20669e-05,0,-1.03551e-06,-1.6201e+09,-1.6225e+09,-1.62089e+09,-138396,-0.025955,-0.0456837,-0,0.052542,-4073.5,-56113.9,-0,56261.6,-138396
step02_gravity_refstate-mantle.xmf,682,5.57644e-06,-1.15324e-05,0,-7.71188e-07,-1.66059e+09,-1.66288e+09,-1.66134e+09,-103069,-0.0293033,-0.0299826,-0,0.0419242,-4733.68,-57364,-0,57559,-103069
step02_gravity_refstate-mantle.xmf,683,5.25351e-06,-1.09964e-05,0,-4.27989e-07,-1.70256e+09,-1.70473e+09,-1.70327e+09,-57200.8,-0.0330854,-0.014659,-0,0.0361874,-5486.92,-58659.7,-0,58915.7,-57200.8
step02_gravity_refstate-mantle.xmf,684,4.90795e-06,-1.0456e-05,0,-3.8254e-09,-1.74598e+09,-1.74804e+09,-1.74664e+09,-511.265,-0.0370723,2.37147e-19,-0,0.0370723,-6293.86,-60000,-0,60329.2,-511.265
step02_gravity_refstate-mantle.xmf,685,-1.42681e-06,-2.68291e-07,0,1.08398e-06,-1.13869e+09,-1.13854e+09,-1.1385e+09,144873,0.0298614,-0.00719189,0,0.0307152,23237.3,-41224.6,0,47322.7,-144873
step02_gravity_refstate-mantle.xmf,686,-1.13564e-06,-4.20721e-07,0,1.16942e-06,-1.099e+09,-1.09891e+09,-1.09885e+09,156293,0.0268067,-0.0109572,0,0.0289596,22619.3,-40000,0,45952.5,-156293
step02_gravity_refstate-mantle.xmf,687,-1.20898e-06,-1.24374e-06,0,2.20286e-06,-1.13817e+09,-1.13817e+09,-1.13801e+09,294413,0.0370843,-0.0446157,0,0.0580156,17675.6,-41207.3,0,44838.3,-294413
step02_gravity_refstate-mantle.xmf,688,-1.25447e-06,-1.84211e-06,0,2.95536e-06,-1.16003e+09,-1.16011e+09,-1.15986e+09,394984,0.0424224,-0.0625713,0,0.0755965,15631.6,-41880.7,0,44702.8,-394984
step02_gravity_refstate-mantle.xmf,689,-2.2912e-06,9.82398e-07,0,1.54071e-07,-1.20951e+09,-1.20908e+09,-1.20921e+09,20591.6,0.0106742,0.0260922,0,0.0281912,35391.4,-43409.6,0,56008.4,-20591.6
step02_gravity_refstate-mantle.xmf,690,-2.5884e-06,1.17953e-06,0,1.20255e-07,-1.274e+09,-1.2735e+09,-1.27366e+09,16072.1,0.0107125,0.0244105,0,0.0266576,35895.3,-45400.2,0,57876.2,-16072.1
step02_gravity_refstate-mantle.xmf,691,-3.02425e-06,1.49601e-06,0,5.54097e-08,-1.3784e+09,-1.3778e+09,-1.378e+09,7405.51,0.00597697,0.0212899,0,0.0221129,38022.9,-48623,0,61724.7,-7405.51
step02_gravity_refstate-mantle.xmf,692,-5.30918e-07,-4.74478e-06,0,5.60559e-06,-1.20914e+09,-1.2097e+09,-1.20907e+09,749187,0.0527543,-0.113465,0,0.12513,10993.7,-43395.2,0,44766.1,-749187
step02_gravity_refstate-mantle.xmf,693,-9.09394e-07,-3.78705e-06,0,4.99319e-06,-1.18628e+09,-1.18666e+09,-1.18616e+09,667340,0.0499377,-0.104782,0,0.116073,11846.6,-42688.9,0,44302.2,-667340
step02_gravity_refstate-mantle.xmf,694,-8.86452e-08,-5.56546e-06,0,5.92584e-06,-1.23224e+09,-1.23297e+09,-1.23223e+09,791988,0.0545512,-0.117151,0,0.129229,10460.8,-44109.6,0,45333.1,-791988
step02_gravity_refstate-mantle.xmf,695,7.53523e-06,-1.53317e-05,0,1.57895e-06,-1.43584e+09,-1.43889e+09,-1.43685e+09,211027,0.0141723,-0.127563,0,0.128348,1830.75,-50424.7,0,50457.9,-211027
step02_gravity_refstate-mantle.xmf,696,6.85892e-06,-1.3672e-05,0,-7.47151e-07,-1.54253e+09,-1.54527e+09,-1.54344e+09,-99856.7,-0.0109559,-0.0804452,-0,0.0811878,-1577.51,-53720,-0,53743.1,-99856.7
step02_gravity_refstate-mantle.xmf,697,6.29275e-06,-1.26247e-05,0,-7.33679e-07,-1.61706e+09,-1.61958e+09,-1.6179e+09,-98056.2,-0.0176308,-0.0488194,-0,0.0519055,-2701.65,-56021.2,-0,56086.3,-98056.2
step02_gravity_refstate-mantle.xmf,698,-2.19423e-06,8.47565e-07,0,2.47833e-07,-1.20065e+09,-1.20024e+09,-1.20035e+09,33122.9,0.0153899,0.0235227,0,0.0281099,33177.7,-43136,0,54419.4,-33122.9
step02_gravity_refstate-mantle.xmf,699,-1.84085e-06,3.08061e-07,0,6.17393e-07,-1.17464e+09,-1.17435e+09,-1.1744e+09,82514.6,0.0256754,0.0105147,0,0.027745,27484,-42333.7,0,50472.9,-82514.6
step02_gravity_refstate-mantle.xmf,700,-2.06955e-06,6.64372e-07,0,3.70787e-07,-1.19045e+09,-1.19009e+09,-1.19017e+09,49555.7,0.0198662,0.0195128,0,0.0278463,30889.9,-42821.4,0,52800.2,-49555.7
step02_gravity_refstate-mantle.xmf,701,-1.958e-06,4.83426e-07,0,4.97534e-07,-1.18351e+09,-1.18318e+09,-1.18325e+09,66495.4,0.0233071,0.0150011,0,0.0277174,29006.8,-42607.3,0,51543.9,-66495.4
step02_gravity_refstate-mantle.xmf,702,-9.63342e-07,-1.08257e-06,0,1.93504e-06,-1.09902e+09,-1.09903e+09,-1.09889e+09,258619,0.0311766,-0.0403608,0,0.0509998,18347,-40000,0,44007,-258619
step02_gravity_refstate-mantle.xmf,703,-1.83828e-06,1.35753e-07,0,7.84015e-07,-1.18797e+09,-1.18771e+09,-1.18773e+09,104784,0.0296837,0.00436294,0,0.0300027,25786.5,-42745,0,49920.8,-104784
step02_gravity_refstate-mantle.xmf,704,-1.06794e-06,-6.29736e-07,0,1.39164e-06,-1.099e+09,-1.09894e+09,-1.09886e+09,185993,0.0284272,-0.0199896,0,0.0347519,21124.3,-40000,0,45235.3,-185993
step02_gravity_refstate-mantle.xmf,705,-1.39923e-06,-4.796e-07,0,1.30974e-06,-1.14223e+09,-1.14211e+09,-1.14204e+09,175047,0.0322352,-0.0151368,0,0.0356122,21790.1,-41333.5,0,46725.4,-175047
step02_gravity_refstate-mantle.xmf,706,-1.01024e-06,-8.4983e-07,0,1.64635e-06,-1.09901e+09,-1.09899e+09,-1.09887e+09,220035,0.0298736,-0.0297945,0,0.0421917,19701.4,-40000,0,44588.6,-220035
step02_gravity_refstate-mantle.xmf,707,-1.30803e-06,-9.64232e-07,0,1.87339e-06,-1.14392e+09,-1.14387e+09,-1.14374e+09,250379,0.0361221,-0.033674,0,0.0493836,19012.3,-41385,0,45543.2,-250379
step02_gravity_refstate-mantle.xmf,708,-1.38243e-06,-7.02959e-07,0,1.57079e-06,-1.14795e+09,-1.14786e+09,-1.14777e+09,209936,0.0347121,-0.0235914,0,0.04197,20421,-41509.8,0,46261,-209936
step02_gravity_refstate-mantle.xmf,709,-1.67621e-06,-1.58262e-07,0,1.03871e-06,-1.17492e+09,-1.17472e+09,-1.1747e+09,138824,0.0322717,-0.00449168,0,0.0325828,23731.3,-42342.2,0,48539,-138824
step02_gravity_refstate-mantle.xmf,710,-1.36457e-06,-1.49374e-06,0,2.5239e-06,-1.17192e+09,-1.17193e+09,-1.17173e+09,337319,0.0421287,-0.0493034,0,0.064851,16973.7,-42248.1,0,45530.3,-337319
step02_gravity_refstate-mantle.xmf,711,-1.07161e-06,-3.24865e-06,0,4.4238e-06,-1.19463e+09,-1.19492e+09,-1.19448e+09,591240,0.0498273,-0.0906759,0,0.103464,12873.3,-42947.1,0,44835,-591240
step02_gravity_refstate-mantle.xmf,712,-1.25814e-06,-2.24415e-06,0,3.3839e-06,-1.18194e+09,-1.18207e+09,-1.18177e+09,452258,0.0461389,-0.0696209,0,0.0835217,14814.6,-42556.4,0,45061.3,-452258
step02_gravity_refstate-mantle.xmf,713,-2.84507e-06,1.33522e-06,0,1.09522e-07,-1.33605e+09,-1.3355e+09,-1.33567e+09,14637.6,0.0109699,0.0222164,0,0.0247771,36166.9,-47315.6,0,59555.1,-14637.6
step02_gravity_refstate-mantle.xmf,714,-3.1482e-06,1.60141e-06,0,4.04148e-09,-1.4135e+09,-1.41287e+09,-1.41308e+09,540.144,-6.29375e-19,0.0199186,-0,0.0199186,40000,-49706.7,0,63802.5,-540.144
step02_gravity_refstate-mantle.xmf,715,4.80729e-07,-6.42599e-06,0,6.04778e-06,-1.2604e+09,-1.26133e+09,-1.26047e+09,808286,0.0557588,-0.117641,0,0.130186,10036.7,-44981.1,0,46087.3,-808286
step02_gravity_refstate-mantle.xmf,716,1.18483e-06,-7.59607e-06,0,6.38209e-06,-1.27381e+09,-1.27498e+09,-1.27397e+09,852967,0.0553862,-0.125946,0,0.137586,9188.11,-45397,0,46317.5,-852967
step02_gravity_refstate-mantle.xmf,717,2.75124e-06,-9.78727e-06,0,6.35022e-06,-1.3107e+09,-1.31237e+09,-1.31106e+09,848707,0.0526587,-0.133032,0,0.143075,7850.05,-46541.3,0,47198.7,-848707
step02_gravity_refstate-mantle.xmf,718,1.86444e-06,-8.57013e-06,0,6.41827e-06,-1.29193e+09,-1.29333e+09,-1.29218e+09,857802,0.0546022,-0.128979,0,0.140061,8605.24,-45958.9,0,46757.6,-857802
step02_gravity_refstate-mantle.xmf,719,7.15007e-06,-1.42003e-05,0,-3.17435e-07,-1.51669e+09,-1.51954e+09,-1.51764e+09,-42425.2,-0.00416686,-0.0924731,-0,0.0925669,-582.561,-52922.4,-0,52925.6,-42425.2
step02_gravity_refstate-mantle.xmf,720,3.52938e-06,-1.08339e-05,0,6.22692e-06,-1.3225e+09,-1.32442e+09,-1.32297e+09,832227,0.050224,-0.137373,0,0.146267,7163.13,-46908.3,0,47452.1,-832227
step02_gravity_refstate-mantle.xmf,721,4.17661e-06,-1.15775e-05,0,5.82624e-06,-1.34276e+09,-1.34487e+09,-1.34332e+09,778678,0.0476125,-0.135893,0,0.143992,6657.13,-47536.7,0,48000.6,-778678
step02_gravity_refstate-mantle.xmf,722,7.39744e-06,-1.48834e-05,0,1.06443e-06,-1.46611e+09,-1.46909e+09,-1.4671e+09,142262,0.010493,-0.114342,0,0.114823,1398.29,-51360,0,51379,-142262
step02_gravity_refstate-mantle.xmf,723,7.34299e-06,-1.46087e-05,0,2.5427e-07,-1.49215e+09,-1.49509e+09,-1.49314e+09,33983.2,0.00267755,-0.103493,0,0.103528,365.058,-52164.9,0,52166.1,-33983.2
step02_gravity_refstate-mantle.xmf,724,4.98114e-06,-1.24949e-05,0,5.22492e-06,-1.36557e+09,-1.36791e+09,-1.36624e+09,698310,0.0434561,-0.134375,0,0.141227,5942,-48244.3,0,48608.9,-698310
step02_gravity_refstate-mantle.xmf,725,5.71482e-06,-1.32937e-05,0,4.50182e-06,-1.38811e+09,-1.39065e+09,-1.38887e+09,601669,0.0383759,-0.131886,0,0.137356,5164.57,-48943.3,0,49215,-601669
step02_gravity_refstate-mantle.xmf,726,6.31039e-06,-1.38943e-05,0,3.69904e-06,-1.41068e+09,-1.41338e+09,-1.41152e+09,494377,0.0327103,-0.127871,0,0.131989,4369.18,-49643.1,0,49835,-494377
step02_gravity_refstate-mantle.xmf,727,7.09697e-06,-1.45872e-05,0,1.99954e-06,-1.45455e+09,-1.45745e+09,-1.4555e+09,267238,0.0195794,-0.116613,0,0.118245,2621.44,-51001.8,0,51069.2,-267238
step02_gravity_refstate-mantle.xmf,728,6.75861e-06,-1.43029e-05,0,2.86436e-06,-1.43316e+09,-1.43597e+09,-1.43406e+09,382822,0.0265726,-0.122513,0,0.125362,3547.34,-50339.4,0,50464.2,-382822
step02_gravity_refstate-mantle.xmf,729,6.66383e-06,-1.32142e-05,0,-5.44731e-07,-1.58485e+09,-1.58751e+09,-1.58574e+09,-72803.3,-0.0102205,-0.0629339,-0,0.0637585,-1518.06,-55027.4,-0,55048.3,-72803.3
step02_gravity_refstate-mantle.xmf,730,6.06687e-06,-1.21718e-05,0,-5.54794e-07,-1.66184e+09,-1.66427e+09,-1.66265e+09,-74148.3,-0.020597,-0.0311269,-0,0.0373245,-3239.96,-57404,-0,57495.4,-74148.3
step02_gravity_refstate-mantle.xmf,731,5.81181e-06,-1.1725e-05,0,-3.25202e-07,-1.70325e+09,-1.7056e+09,-1.70403e+09,-43463.3,-0.0245465,-0.0153557,-0,0.0289539,-3944.04,-58682.9,-0,58815.3,-43463.3
step02_gravity_refstate-mantle.xmf,732,5.54032e-06,-1.12859e-05,0,-5.27194e-09,-1.74592e+09,-1.74816e+09,-1.74666e+09,-704.595,-0.0288023,2.38979e-19,-0,0.0288023,-4710.75,-60000,-0,60184.6,-704.595
step02_gravity_refstate-mantle.xmf,733,-2.07982e-06,4.05326e-07,0,6.06756e-07,-1.22029e+09,-1.21995e+09,-1.22001e+09,81092.9,0.0282131,0.0103856,0,0.0300639,27601.3,-43742.3,0,51722.5,-81092.9
step02_gravity_refstate-mantle.xmf,734,-1.5948e-06,-3.50574e-07,0,1.21852e-06,-1.17252e+09,-1.17235e+09,-1.17231e+09,162856,0.0340515,-0.0106912,0,0.0356904,22511.3,-42268.1,0,47889,-162856
step02_gravity_refstate-mantle.xmf,735,-1.44553e-06,-1.20398e-06,0,2.16401e-06,-1.18244e+09,-1.18241e+09,-1.18225e+09,289220,0.0415718,-0.0384995,0,0.0566606,18218.9,-42573.4,0,46307.9,-289220
step02_gravity_refstate-mantle.xmf,736,-1.15974e-06,-2.78157e-06,0,3.85728e-06,-1.20476e+09,-1.20498e+09,-1.20461e+09,515525,0.0496643,-0.0769048,0,0.0915472,13976.8,-43260.8,0,45462.6,-515525
step02_gravity_refstate-mantle.xmf,737,-1.35406e-06,-1.87006e-06,0,2.92605e-06,-1.19162e+09,-1.19169e+09,-1.19144e+09,391067,0.0456908,-0.0571709,0,0.0731858,16000.5,-42855.8,0,45745.4,-391067
step02_gravity_refstate-mantle.xmf,738,-2.4841e-06,1.02852e-06,0,2.1039e-07,-1.25982e+09,-1.25935e+09,-1.25949e+09,28118.6,0.0158497,0.0226161,0,0.0276171,33741.4,-44962.3,0,56214.7,-28118.6
step02_gravity_refstate-mantle.xmf,739,-2.73972e-06,1.2059e-06,0,1.77338e-07,-1.32053e+09,-1.32e+09,-1.32016e+09,23701.3,0.0162333,0.0210559,0,0.026587,34177.1,-46836.5,0,57980.4,-23701.3
step02_gravity_refstate-mantle.xmf,740,-3.26999e-06,1.67746e-06,0,4.98497e-08,-1.45943e+09,-1.45877e+09,-1.45899e+09,6662.41,0.00656227,0.0173119,0,0.0185139,37993,-51124.7,0,63696.2,-6662.41
step02_gravity_refstate-mantle.xmf,741,-3.15281e-06,1.53286e-06,0,1.11064e-07,-1.42869e+09,-1.42806e+09,-1.42827e+09,14843.7,0.0129974,0.0179436,0,0.0221564,35902,-50175.5,0,61697.1,-14843.7
step02_gravity_refstate-mantle.xmf,742,-3.36849e-06,1.77797e-06,0,4.13737e-09,-1.49447e+09,-1.49378e+09,-1.49402e+09,552.96,-6.48804e-19,0.0156958,-0,0.0156958,40000,-52206.7,0,65768.8,-552.96
step02_gravity_refstate-mantle.xmf,743,-2.04886e-07,-5.14297e-06,0,5.4345e-06,-1.24923e+09,-1.24989e+09,-1.2492e+09,726321,0.0553984,-0.10479,0,0.118533,11186,-44634.7,0,46015,-726321
step02_gravity_refstate-mantle.xmf,744,-7.34889e-07,-4.0787e-06,0,4.93468e-06,-1.22135e+09,-1.2218e+09,-1.22126e+09,659520,0.053068,-0.097632,0,0.111123,12069,-43772.8,0,45406.2,-659520
step02_gravity_refstate-mantle.xmf,745,6.90176e-06,-1.36437e-05,0,-1.82162e-07,-1.55897e+09,-1.56172e+09,-1.5599e+09,-24346,-0.00308613,-0.0743454,-0,0.0744094,-447.309,-54228.5,-0,54230.3,-24346
step02_gravity_refstate-mantle.xmf,746,6.53246e-06,-1.29084e-05,0,-3.89465e-07,-1.62129e+09,-1.62389e+09,-1.62216e+09,-52052.1,-0.00939905,-0.0483037,-0,0.0492097,-1424.67,-56152.8,-0,56170.9,-52052.1
step02_gravity_refstate-mantle.xmf,747,-2.36627e-06,8.51885e-07,0,3.16482e-07,-1.24753e+09,-1.2471e+09,-1.24721e+09,42297.8,0.0206035,0.0196315,0,0.0284587,31612,-44583.1,0,54653.2,-42297.8
step02_gravity_refstate-mantle.xmf,748,-2.2356e-06,6.43847e-07,0,4.4775e-07,-1.23539e+09,-1.235e+09,-1.23509e+09,59841.8,0.0248008,0.0155304,0,0.0292622,29557.6,-44208.4,0,53179.3,-59841.8
step02_gravity_refstate-mantle.xmf,749,-2.07687e-06,2.0244e-07,0,7.8815e-07,-1.23835e+09,-1.23804e+09,-1.23807e+09,105336,0.0329838,0.00426548,0,0.0332584,25830.3,-44299.7,0,51280.3,-105336
step02_gravity_refstate-mantle.xmf,750,-1.94236e-06,-3.90532e-08,0,9.81783e-07,-1.22496e+09,-1.2247e+09,-1.2247e+09,131215,0.0351586,-0.00180726,0,0.035205,24288.9,-43886.3,0,50159.4,-131215
step02_gravity_refstate-mantle.xmf,751,-1.65261e-06,-5.83062e-07,0,1.48794e-06,-1.19339e+09,-1.19324e+09,-1.19317e+09,198863,0.038176,-0.018153,0,0.0422722,21140.6,-42911.7,0,47836.6,-198863
step02_gravity_refstate-mantle.xmf,752,-1.55645e-06,-8.95098e-07,0,1.82594e-06,-1.18851e+09,-1.18843e+09,-1.18831e+09,244037,0.0401774,-0.0282916,0,0.049139,19579.4,-42761.1,0,47030.4,-244037
step02_gravity_refstate-mantle.xmf,753,-1.80987e-06,-3.12064e-07,0,1.22719e-06,-1.21337e+09,-1.21317e+09,-1.21313e+09,164014,0.0373104,-0.00950946,0,0.0385032,22657.4,-43528.5,0,49072.3,-164014
step02_gravity_refstate-mantle.xmf,754,-1.49285e-06,-1.59075e-06,0,2.56864e-06,-1.21633e+09,-1.21634e+09,-1.21613e+09,343299,0.0465453,-0.0452188,0,0.0648938,17203.8,-43618.8,0,46888.9,-343299
step02_gravity_refstate-mantle.xmf,755,-9.52331e-07,-3.46484e-06,0,4.34532e-06,-1.23055e+09,-1.23088e+09,-1.23042e+09,580751,0.0529108,-0.0835624,0,0.0989051,13160.2,-44056.9,0,45980.5,-580751
step02_gravity_refstate-mantle.xmf,756,-1.27726e-06,-2.34524e-06,0,3.359e-06,-1.21439e+09,-1.21454e+09,-1.21422e+09,448930,0.0492401,-0.0642583,0,0.080955,15114.4,-43558.6,0,46106.4,-448930
step02_gravity_refstate-mantle.xmf,757,-2.95075e-06,1.34752e-06,0,1.57154e-07,-1.37772e+09,-1.37715e+09,-1.37733e+09,21003.7,0.0165764,0.0191154,0,0.0253016,34472,-48602.1,0,59585.9,-21003.7
step02_gravity_refstate-mantle.xmf,758,-3.44728e-06,1.83803e-06,0,3.86523e-08,-1.53851e+09,-1.53781e+09,-1.53805e+09,5165.87,0.00673554,0.0130307,0,0.0146685,38048.4,-53566.8,0,65704.5,-5165.87
step02_gravity_refstate-mantle.xmf,759,-3.52965e-06,1.94077e-06,0,5.80551e-09,-1.57684e+09,-1.57611e+09,-1.57637e+09,775.907,-7.77553e-19,0.0109682,-0,0.0109682,40000,-54750.5,0,67805.7,-775.907
step02_gravity_refstate-mantle.xmf,760,1.13962e-06,-7.27554e-06,0,5.90992e-06,-1.29567e+09,-1.2968e+09,-1.29583e+09,789860,0.0562441,-0.114484,0,0.127554,9695.54,-46072.9,0,47082,-789860
step02_gravity_refstate-mantle.xmf,761,3.68677e-07,-6.01523e-06,0,5.5541e-06,-1.28011e+09,-1.28096e+09,-1.28016e+09,742306,0.0566611,-0.105599,0,0.11984,10690,-45590.1,0,46826.6,-742306
step02_gravity_refstate-mantle.xmf,762,3.1842e-06,-1.0083e-05,0,5.76058e-06,-1.34478e+09,-1.34656e+09,-1.34521e+09,769901,0.0516416,-0.123479,0,0.133843,7767.52,-47596.4,0,48226.1,-769901
step02_gravity_refstate-mantle.xmf,763,2.11663e-06,-8.6503e-06,0,5.9214e-06,-1.32221e+09,-1.32364e+09,-1.32249e+09,791394,0.054745,-0.118834,0,0.130838,8776.82,-46895.5,0,47709.7,-791394
step02_gravity_refstate-mantle.xmf,764,7.05317e-06,-1.39872e-05,0,3.11194e-07,-1.53133e+09,-1.53414e+09,-1.53227e+09,41591.1,0.00392961,-0.0861073,0,0.0861969,556.91,-53374.6,0,53377.5,-41591.1
step02_gravity_refstate-mantle.xmf,765,4.11896e-06,-1.11628e-05,0,5.20576e-06,-1.37482e+09,-1.37687e+09,-1.37537e+09,695750,0.0477594,-0.121598,0,0.130641,6962.67,-48527.8,0,49024.7,-695750
step02_gravity_refstate-mantle.xmf,766,7.08174e-06,-1.41725e-05,0,9.14072e-07,-1.50687e+09,-1.50971e+09,-1.50781e+09,122166,0.0107719,-0.0958872,0,0.0964904,1500.65,-52618.7,0,52640.1,-122166
step02_gravity_refstate-mantle.xmf,767,6.94794e-06,-1.41214e-05,0,1.59115e-06,-1.48791e+09,-1.49073e+09,-1.48884e+09,212657,0.0176618,-0.102331,0,0.103844,2443.39,-52032.4,0,52089.8,-212657
step02_gravity_refstate-mantle.xmf,768,4.89716e-06,-1.20488e-05,0,4.61885e-06,-1.39892e+09,-1.40118e+09,-1.39957e+09,617310,0.0432933,-0.119773,0,0.127357,6169.26,-49275,0,49659.7,-617310
step02_gravity_refstate-mantle.xmf,769,5.5567e-06,-1.27634e-05,0,3.95408e-06,-1.42198e+09,-1.42442e+09,-1.42272e+09,528463,0.0382503,-0.116757,0,0.122863,5371.49,-49989.8,0,50277.6,-528463
step02_gravity_refstate-mantle.xmf,770,6.09666e-06,-1.33068e-05,0,3.22283e-06,-1.44557e+09,-1.44816e+09,-1.44638e+09,430732,0.0326278,-0.112166,0,0.116816,4549.69,-50720.8,0,50924.4,-430732
step02_gravity_refstate-mantle.xmf,771,6.54878e-06,-1.3743e-05,0,2.45108e-06,-1.46818e+09,-1.4709e+09,-1.46906e+09,327587,0.026093,-0.107003,0,0.110139,3624.67,-51421.3,0,51548.9,-327587
step02_gravity_refstate-mantle.xmf,772,6.69932e-06,-1.31949e-05,0,-1.12167e-07,-1.60227e+09,-1.60493e+09,-1.60317e+09,-14991.1,-0.00254459,-0.0564213,-0,0.0564786,-379.751,-55565.7,-0,55567,-14991.1
step02_gravity_refstate-mantle.xmf,773,6.41713e-06,-1.26074e-05,0,-2.75553e-07,-1.66241e+09,-1.66495e+09,-1.66327e+09,-36827.7,-0.0103723,-0.0320125,-0,0.033651,-1602.39,-57423,-0,57445.3,-36827.7
step02_gravity_refstate-mantle.xmf,774,6.21646e-06,-1.22453e-05,0,-1.94538e-07,-1.70477e+09,-1.70723e+09,-1.7056e+09,-26000,-0.0151641,-0.0154526,-0,0.0216503,-2384.63,-58731,-0,58779.4,-26000
step02_gravity_refstate-mantle.xmf,775,6.025e-06,-1.19176e-05,0,-6.52443e-09,-1.74586e+09,-1.74826e+09,-1.74667e+09,-871.989,-0.0197043,2.32541e-19,-0,0.0197043,-3137.45,-60000,-0,60082,-871.989
step02_gravity_refstate-mantle.xmf,776,-2.20299e-06,3.81055e-07,0,6.62884e-07,-1.25595e+09,-1.25561e+09,-1.25566e+09,88594.5,0.0316047,0.00798582,0,0.032598,26972.2,-44843.1,0,52329.8,-88594.5
step02_gravity_refstate-mantle.xmf,777,-1.59315e-06,-1.22217e-06,0,2.13571e-06,-1.22653e+09,-1.22648e+09,-1.22632e+09,285438,0.0453195,-0.0337652,0,0.056515,18629.5,-43934.3,0,47720.9,-285438
step02_gravity_refstate-mantle.xmf,778,-1.09398e-06,-2.95039e-06,0,3.79077e-06,-1.24021e+09,-1.24045e+09,-1.24006e+09,506637,0.052586,-0.0707365,0,0.0881415,14262.4,-44355.7,0,46592.3,-506637
step02_gravity_refstate-mantle.xmf,779,-1.38552e-06,-2.05895e-06,0,3.01742e-06,-1.22751e+09,-1.2276e+09,-1.22732e+09,403278,0.0492751,-0.0547209,0,0.073637,16029.7,-43963.8,0,46794.9,-403278
step02_gravity_refstate-mantle.xmf,780,-2.6345e-06,1.02521e-06,0,2.77762e-07,-1.30755e+09,-1.30706e+09,-1.3072e+09,37122.9,0.0212718,0.0188433,0,0.0284175,32169.2,-46435.9,0,56490.3,-37122.9
step02_gravity_refstate-mantle.xmf,781,-2.86293e-06,1.19937e-06,0,2.33866e-07,-1.36825e+09,-1.3677e+09,-1.36786e+09,31256.2,0.0215198,0.0175252,0,0.0277531,32699.2,-48309.6,0,58335.7,-31256.2
step02_gravity_refstate-mantle.xmf,782,-3.06522e-06,1.36987e-06,0,1.90131e-07,-1.42764e+09,-1.42705e+09,-1.42723e+09,25411,0.0208104,0.0159725,0,0.0262334,33379.9,-50143.4,0,60237.6,-25411
step02_gravity_refstate-mantle.xmf,783,-3.34674e-06,1.69775e-06,0,8.74753e-08,-1.5048e+09,-1.50413e+09,-1.50435e+09,11691.1,0.0129649,0.0142808,0,0.0192881,36152.1,-52525.7,0,63764.6,-11691.1
step02_gravity_refstate-mantle.xmf,784,-3.56658e-06,1.98978e-06,0,2.60977e-08,-1.62007e+09,-1.61932e+09,-1.61959e+09,3487.96,0.00804144,0.0081698,0,0.0114634,37750.4,-56085.6,0,67606.9,-3487.96
step02_gravity_refstate-mantle.xmf,785,-3.62445e-06,2.0887e-06,0,1.96309e-09,-1.66086e+09,-1.6601e+09,-1.66038e+09,262.367,-6.33709e-19,0.00573591,-0,0.00573591,40000,-57345.7,0,69918,-262.367
step02_gravity_refstate-mantle.xmf,786,-5.35983e-07,-4.31569e-06,0,4.76471e-06,-1.25708e+09,-1.25758e+09,-1.257e+09,636803,0.0554138,-0.0896793,0,0.105419,12346,-44877,0,46544.2,-636803
step02_gravity_refstate-mantle.xmf,787,-1.22101e-09,-5.25815e-06,0,5.08438e-06,-1.28408e+09,-1.28478e+09,-1.28408e+09,679527,0.0569567,-0.0945861,0,0.110411,11569.2,-45712.2,0,47153.5,-679527
step02_gravity_refstate-mantle.xmf,788,6.78181e-06,-1.33959e-05,0,2.98855e-07,-1.57856e+09,-1.58126e+09,-1.57947e+09,39941.9,0.00496626,-0.06605,0,0.0662364,731.214,-54833.4,0,54838.3,-39941.9
step02_gravity_refstate-mantle.xmf,789,6.55567e-06,-1.28821e-05,0,-1.35212e-07,-1.63987e+09,-1.64247e+09,-1.64075e+09,-18071.1,-0.00376192,-0.0412441,-0,0.0414153,-573.442,-56727.1,-0,56730,-18071.1
step02_gravity_refstate-mantle.xmf,790,-2.50593e-06,8.1339e-07,0,3.98506e-07,-1.29369e+09,-1.29325e+09,-1.29335e+09,53260.3,0.0259053,0.015604,0,0.0302418,30169,-46007.9,0,55017.2,-53260.3
step02_gravity_refstate-mantle.xmf,791,-2.36481e-06,5.65735e-07,0,5.55659e-07,-1.27976e+09,-1.27937e+09,-1.27945e+09,74263.9,0.0301334,0.0111429,0,0.0321277,28170.3,-45578.1,0,53581,-74263.9
step02_gravity_refstate-mantle.xmf,792,-2.29468e-06,3.11717e-07,0,7.43206e-07,-1.28989e+09,-1.28954e+09,-1.28958e+09,99329.4,0.0350618,0.00538143,0,0.0354724,26272.2,-45890.6,0,52878.9,-99329.4
step02_gravity_refstate-mantle.xmf,793,-2.15083e-06,4.70386e-08,0,9.39642e-07,-1.27481e+09,-1.27452e+09,-1.27453e+09,125583,0.0376615,-0.000123757,0,0.0376617,24701.4,-45425.3,0,51707,-125583
step02_gravity_refstate-mantle.xmf,794,-2.00936e-06,-2.42959e-07,0,1.17983e-06,-1.26172e+09,-1.26148e+09,-1.26145e+09,157684,0.0400979,-0.00691293,0,0.0406894,23107.4,-45021,0,50604.8,-157684
step02_gravity_refstate-mantle.xmf,795,-1.7415e-06,-8.6709e-07,0,1.77812e-06,-1.23624e+09,-1.23612e+09,-1.23601e+09,237645,0.0437724,-0.0237236,0,0.0497879,20075.1,-44234.2,0,48576.4,-237645
step02_gravity_refstate-mantle.xmf,796,-1.86945e-06,-5.49229e-07,0,1.45989e-06,-1.24807e+09,-1.2479e+09,-1.24782e+09,195115,0.0420885,-0.0148485,0,0.0446309,21552.8,-44599.6,0,49534.3,-195115
step02_gravity_refstate-mantle.xmf,797,-1.54253e-06,-1.59326e-06,0,2.44353e-06,-1.2538e+09,-1.2538e+09,-1.25359e+09,326578,0.0490687,-0.0391477,0,0.0627717,17739.2,-44775.9,0,48161.8,-326578
step02_gravity_refstate-mantle.xmf,798,-7.93514e-07,-3.67375e-06,0,4.20591e-06,-1.26631e+09,-1.26669e+09,-1.2662e+09,562120,0.0552671,-0.0767002,0,0.0945377,13428,-45162.1,0,47116.1,-562120
step02_gravity_refstate-mantle.xmf,799,-1.22305e-06,-2.54948e-06,0,3.34724e-06,-1.25248e+09,-1.25266e+09,-1.25232e+09,447359,0.0523794,-0.0597147,0,0.079432,15288.5,-44735,0,47275.3,-447359
step02_gravity_refstate-mantle.xmf,800,-1.40697e-06,-2.09928e-06,0,2.89348e-06,-1.26404e+09,-1.26414e+09,-1.26386e+09,386714,0.05169,-0.048299,0,0.0707436,16502.1,-45092.1,0,48016.8,-386714
step02_gravity_refstate-mantle.xmf,801,-3.2511e-06,1.52957e-06,0,1.53099e-07,-1.49201e+09,-1.49138e+09,-1.49158e+09,20461.7,0.0198049,0.0136721,0,0.0240658,34031.9,-52131,0,62256,-20461.7
step02_gravity_refstate-mantle.xmf,802,-3.4736e-06,1.84381e-06,0,5.64126e-08,-1.57389e+09,-1.57318e+09,-1.57342e+09,7539.54,0.0126586,0.0105976,0,0.0165091,36385.1,-54659.4,0,65662.2,-7539.54
step02_gravity_refstate-mantle.xmf,803,-3.62607e-06,2.11375e-06,0,8.55294e-09,-1.68856e+09,-1.6878e+09,-1.68808e+09,1143.1,0.00653229,0.00388252,0,0.007599,38202.8,-58201.4,0,69619.4,-1143.1
step02_gravity_refstate-mantle.xmf,804,-3.66039e-06,2.2446e-06,0,1.29856e-09,-1.74679e+09,-1.746e+09,-1.7463e+09,173.552,2.90679e-18,-3.81173e-19,0,2.93168e-18,40000,-60000,0,72111,-173.552
step02_gravity_refstate-mantle.xmf,805,6.68126e-07,-6.31356e-06,0,5.31511e-06,-1.30884e+09,-1.30977e+09,-1.30892e+09,710364,0.0573705,-0.0994962,0,0.114852,10743.9,-46478.7,0,47704.3,-710364
step02_gravity_refstate-mantle.xmf,806,1.4785e-06,-7.50068e-06,0,5.43433e-06,-1.3327e+09,-1.3339e+09,-1.3329e+09,726299,0.056596,-0.104342,0,0.118703,9841.85,-47218.4,0,48233.1,-726299
step02_gravity_refstate-mantle.xmf,807,2.37889e-06,-8.71608e-06,0,5.34299e-06,-1.35822e+09,-1.35971e+09,-1.35854e+09,714090,0.0546165,-0.107387,0,0.120478,8940.75,-48009.7,0,48835.1,-714090
step02_gravity_refstate-mantle.xmf,808,6.7764e-06,-1.35224e-05,0,8.22712e-07,-1.55043e+09,-1.55315e+09,-1.55134e+09,109956,0.0121049,-0.0768958,0,0.0778428,1757.18,-53964.1,0,53992.7,-109956
step02_gravity_refstate-mantle.xmf,809,3.2871e-06,-9.86176e-06,0,5.0422e-06,-1.38436e+09,-1.38612e+09,-1.3848e+09,673889,0.0514934,-0.108471,0,0.120073,8049.7,-48820.2,0,49479.3,-673889
step02_gravity_refstate-mantle.xmf,810,4.1013e-06,-1.08282e-05,0,4.58394e-06,-1.40982e+09,-1.41182e+09,-1.41037e+09,612644,0.0476085,-0.107525,0,0.117593,7212.81,-49609.7,0,50131.3,-612644
step02_gravity_refstate-mantle.xmf,811,6.64805e-06,-1.34976e-05,0,1.43116e-06,-1.52443e+09,-1.52713e+09,-1.52532e+09,191275,0.0189434,-0.0860615,0,0.0881217,2724.95,-53160.2,0,53230,-191275
step02_gravity_refstate-mantle.xmf,812,6.33119e-06,-1.32029e-05,0,2.09061e-06,-1.50424e+09,-1.50685e+09,-1.50508e+09,279410,0.0260589,-0.0914979,0,0.0951364,3758.07,-52534.9,0,52669.1,-279410
step02_gravity_refstate-mantle.xmf,813,4.80322e-06,-1.16337e-05,0,4.05651e-06,-1.43286e+09,-1.43506e+09,-1.4335e+09,542152,0.04318,-0.105641,0,0.114125,6396.94,-50323.9,0,50728.9,-542152
step02_gravity_refstate-mantle.xmf,814,5.40326e-06,-1.22803e-05,0,3.44245e-06,-1.45671e+09,-1.45908e+09,-1.45743e+09,460084,0.0381896,-0.10201,0,0.108925,5579.85,-51063.1,0,51367,-460084
step02_gravity_refstate-mantle.xmf,815,5.90337e-06,-1.2785e-05,0,2.77746e-06,-1.48114e+09,-1.48364e+09,-1.48193e+09,371207,0.0325893,-0.0969489,0,0.10228,4725.25,-51819.8,0,52034.8,-371207
step02_gravity_refstate-mantle.xmf,816,6.59373e-06,-1.2936e-05,0,2.04262e-07,-1.62967e+09,-1.63228e+09,-1.63055e+09,27299.6,0.00493917,-0.0452665,0,0.0455351,749.521,-56412.1,0,56417,-27299.6
step02_gravity_refstate-mantle.xmf,817,6.49847e-06,-1.2698e-05,0,-1.54425e-09,-1.67377e+09,-1.67633e+09,-1.67464e+09,-206.389,-0.000177486,-0.0279149,-0,0.0279155,-27.5261,-57774.2,-0,57774.2,-206.389
step02_gravity_refstate-mantle.xmf,818,6.4276e-06,-1.25152e-05,0,-6.01951e-08,-1.70768e+09,-1.71021e+09,-1.70853e+09,-8045.08,-0.0051974,-0.0146682,-0,0.0155618,-808.409,-58821.6,-0,58827.1,-8045.08
step02_gravity_refstate-mantle.xmf,819,6.33072e-06,-1.23159e-05,0,-6.51725e-09,-1.74583e+09,-1.74832e+09,-1.74668e+09,-871.03,-0.010012,2.13123e-19,-0,0.010012,-1568.5,-60000,-0,60020.5,-871.03
step02_gravity_refstate-mantle.xmf,820,-1.67656e-06,-1.34537e-06,0,2.1586e-06,-1.27693e+09,-1.27689e+09,-1.27671e+09,288496,0.0491826,-0.0307054,0,0.0579806,18782.6,-45490.4,0,49215.5,-288496
step02_gravity_refstate-mantle.xmf,821,-9.86814e-07,-3.15161e-06,0,3.74036e-06,-1.27139e+09,-1.27168e+09,-1.27126e+09,499899,0.0547415,-0.0664991,0,0.0861322,14393.2,-45319.2,0,47549.9,-499899
step02_gravity_refstate-mantle.xmf,822,-1.5042e-06,-1.83399e-06,0,2.55406e-06,-1.28562e+09,-1.28567e+09,-1.28542e+09,341350,0.0518422,-0.0393345,0,0.0650755,17486.7,-45758.6,0,48986.1,-341350
step02_gravity_refstate-mantle.xmf,823,-2.73985e-06,9.73143e-07,0,3.5217e-07,-1.35352e+09,-1.35303e+09,-1.35316e+09,47067.5,0.0266058,0.0150323,0,0.0305588,30729.1,-47855.1,0,56871.7,-47067.5
step02_gravity_refstate-mantle.xmf,824,-2.94014e-06,1.14719e-06,0,2.90512e-07,-1.41471e+09,-1.41416e+09,-1.41431e+09,38826.9,0.026652,0.0140076,0,0.0301088,31337.5,-49744,0,58792.1,-38826.9
step02_gravity_refstate-mantle.xmf,825,-3.11626e-06,1.30927e-06,0,2.33108e-07,-1.47701e+09,-1.47642e+09,-1.4766e+09,31154.8,0.0262364,0.0124154,0,0.0290257,31931.9,-51667.9,0,60739,-31154.8
step02_gravity_refstate-mantle.xmf,826,-3.39545e-06,1.68954e-06,0,1.09621e-07,-1.5586e+09,-1.55792e+09,-1.55814e+09,14650.9,0.0188021,0.0106971,0,0.0216321,34561.5,-54187.2,0,64270.9,-14650.9
step02_gravity_refstate-mantle.xmf,827,-3.5048e-06,1.8656e-06,0,5.72102e-08,-1.62537e+09,-1.62465e+09,-1.6249e+09,7646.14,0.0168141,0.00732605,0,0.0183408,35274.5,-56249.5,0,66395,-7646.14
step02_gravity_refstate-mantle.xmf,828,-3.58302e-06,2.02585e-06,0,2.20375e-08,-1.68512e+09,-1.68437e+09,-1.68464e+09,2945.31,0.0136297,0.0039388,0,0.0141874,36232.6,-58095,0,68467.7,-2945.31
step02_gravity_refstate-mantle.xmf,829,-3.63112e-06,2.18435e-06,0,1.64903e-09,-1.74679e+09,-1.74601e+09,-1.7463e+09,220.393,0.00944618,-3.89294e-19,0,0.00944618,37408.2,-60000,0,70706.3,-220.393
step02_gravity_refstate-mantle.xmf,830,-3.43749e-07,-4.494e-06,0,4.51771e-06,-1.29232e+09,-1.29288e+09,-1.29228e+09,603792,0.0571047,-0.0816351,0,0.0996255,12642.2,-45966.6,0,47673.4,-603792
step02_gravity_refstate-mantle.xmf,831,2.29848e-07,-5.43716e-06,0,4.76985e-06,-1.31814e+09,-1.3189e+09,-1.31817e+09,637490,0.0580413,-0.0863608,0,0.104053,11808,-46765.6,0,48233.3,-637490
step02_gravity_refstate-mantle.xmf,832,6.52805e-06,-1.29751e-05,0,6.63548e-07,-1.59815e+09,-1.60076e+09,-1.59903e+09,88683.2,0.0130993,-0.0571159,0,0.0585988,1969.73,-55437.9,0,55472.9,-88683.2
step02_gravity_refstate-mantle.xmf,833,-2.60614e-06,7.26022e-07,0,4.91152e-07,-1.34154e+09,-1.3411e+09,-1.3412e+09,65642.5,0.0312517,0.011533,0,0.0333118,28823.4,-47485.2,0,55548.5,-65642.5
step02_gravity_refstate-mantle.xmf,834,-2.47735e-06,4.47789e-07,0,6.64689e-07,-1.33661e+09,-1.33622e+09,-1.33628e+09,88835.7,0.0357808,0.00689628,0,0.0364393,26953,-47333,0,54469,-88835.7
step02_gravity_refstate-mantle.xmf,835,-2.32579e-06,1.44068e-07,0,8.70478e-07,-1.3247e+09,-1.32437e+09,-1.32438e+09,116339,0.0393507,0.00161689,0,0.039384,25217.4,-46965.2,0,53307.1,-116339
step02_gravity_refstate-mantle.xmf,836,-2.16885e-06,-1.77533e-07,0,1.11177e-06,-1.31145e+09,-1.31119e+09,-1.31116e+09,148588,0.0422878,-0.00453857,0,0.0425306,23578.2,-46556.4,0,52186.4,-148588
step02_gravity_refstate-mantle.xmf,837,-2.00901e-06,-5.22688e-07,0,1.39693e-06,-1.29811e+09,-1.29791e+09,-1.29784e+09,186700,0.0447895,-0.0118209,0,0.0463231,21980.6,-46144.4,0,51112.2,-186700
step02_gravity_refstate-mantle.xmf,838,-1.85154e-06,-8.93707e-07,0,1.72886e-06,-1.28623e+09,-1.2861e+09,-1.28598e+09,231062,0.0469615,-0.0202232,0,0.0511308,20432.7,-45777.4,0,50130.5,-231062
step02_gravity_refstate-mantle.xmf,839,-6.57722e-07,-3.78768e-06,0,3.9731e-06,-1.30104e+09,-1.30146e+09,-1.30095e+09,531004,0.0569386,-0.0692226,0,0.0896314,13775.8,-46235.6,0,48244.2,-531004
step02_gravity_refstate-mantle.xmf,840,-1.06084e-06,-2.92662e-06,0,3.38895e-06,-1.29691e+09,-1.29716e+09,-1.29677e+09,452933,0.0554905,-0.0566493,0,0.0792991,15211.2,-46107.5,0,48551.9,-452933
step02_gravity_refstate-mantle.xmf,841,-1.28932e-06,-2.37204e-06,0,2.85952e-06,-1.31107e+09,-1.31121e+09,-1.3109e+09,382175,0.0547455,-0.0446112,0,0.0706204,16557.4,-46544.7,0,49402,-382175
step02_gravity_refstate-mantle.xmf,842,-3.26997e-06,1.46153e-06,0,1.80003e-07,-1.54231e+09,-1.54167e+09,-1.54187e+09,24057.4,0.0254336,0.0101816,0,0.0273959,32513.3,-53684.2,0,62762.3,-24057.4
step02_gravity_refstate-mantle.xmf,843,9.30002e-07,-6.48751e-06,0,4.91996e-06,-1.34349e+09,-1.34448e+09,-1.34362e+09,657553,0.0579351,-0.0906509,0,0.107583,10930.8,-47550.6,0,48790.8,-657553
step02_gravity_refstate-mantle.xmf,844,1.71713e-06,-7.5796e-06,0,4.91123e-06,-1.36955e+09,-1.37079e+09,-1.36978e+09,656386,0.0567495,-0.0936085,0,0.109467,10052.1,-48358,0,49391.7,-656386
step02_gravity_refstate-mantle.xmf,845,2.55153e-06,-8.66776e-06,0,4.73462e-06,-1.39605e+09,-1.39755e+09,-1.39639e+09,632783,0.0544596,-0.0951398,0,0.109624,9160.17,-49179.3,0,50025.1,-632783
step02_gravity_refstate-mantle.xmf,846,6.36795e-06,-1.28953e-05,0,1.18339e-06,-1.56951e+09,-1.57209e+09,-1.57036e+09,158160,0.0200856,-0.0670952,0,0.0700371,3005.24,-54552.3,0,54635,-158160
step02_gravity_refstate-mantle.xmf,847,3.35041e-06,-9.65917e-06,0,4.41629e-06,-1.42141e+09,-1.42315e+09,-1.42186e+09,590237,0.0512791,-0.0952237,0,0.108153,8290.74,-49965.7,0,50648.8,-590237
step02_gravity_refstate-mantle.xmf,848,4.07343e-06,-1.05246e-05,0,4.00693e-06,-1.44485e+09,-1.4468e+09,-1.44539e+09,535526,0.0474435,-0.0942141,0,0.105485,7444.78,-50692.2,0,51235.9,-535526
step02_gravity_refstate-mantle.xmf,849,6.08395e-06,-1.26503e-05,0,1.75785e-06,-1.54397e+09,-1.54647e+09,-1.54478e+09,234936,0.0267688,-0.0748422,0,0.0794854,4009.05,-53762,0,53911.3,-234936
step02_gravity_refstate-mantle.xmf,850,5.69016e-06,-1.22638e-05,0,2.36142e-06,-1.51891e+09,-1.52131e+09,-1.51967e+09,315604,0.0330097,-0.0812829,0,0.08773,4972.63,-52986.3,0,53219.1,-315604
step02_gravity_refstate-mantle.xmf,851,4.71807e-06,-1.127e-05,0,3.52791e-06,-1.46723e+09,-1.46937e+09,-1.46786e+09,471505,0.0430431,-0.0921243,0,0.101684,6604.79,-51385.9,0,51808.7,-471505
step02_gravity_refstate-mantle.xmf,852,5.25483e-06,-1.18416e-05,0,2.96594e-06,-1.49175e+09,-1.49403e+09,-1.49245e+09,396398,0.0382366,-0.0878075,0,0.0957716,5791.77,-52145.5,0,52466.1,-396398
step02_gravity_refstate-mantle.xmf,853,6.33153e-06,-1.25491e-05,0,4.93118e-07,-1.64512e+09,-1.64765e+09,-1.64597e+09,65905.2,0.0145435,-0.0383438,0,0.0410093,2245.36,-56888.6,0,56932.9,-65905.2
step02_gravity_refstate-mantle.xmf,854,6.43287e-06,-1.26338e-05,0,2.10475e-07,-1.66827e+09,-1.67082e+09,-1.66913e+09,28130,0.00805217,-0.0298711,0,0.0309373,1244.05,-57604,0,57617.4,-28130
step02_gravity_refstate-mantle.xmf,855,6.42921e-06,-1.25289e-05,0,6.27902e-08,-1.70681e+09,-1.70934e+09,-1.70767e+09,8391.91,0.00469561,-0.0150099,0,0.0157272,730.203,-58794.8,0,58799.3,-8391.91
step02_gravity_refstate-mantle.xmf,856,6.43312e-06,-1.24493e-05,0,-7.00441e-09,-1.74582e+09,-1.74834e+09,-1.74668e+09,-936.139,2.57754e-07,2.10868e-19,0,2.57754e-07,-6.83358e-08,-60000,-0,60000,-936.139
step02_gravity_refstate-mantle.xmf,857,-1.49491e-06,-1.88287e-06,0,2.42338e-06,-1.32226e+09,-1.32231e+09,-1.32206e+09,323885,0.0536049,-0.0346656,0,0.0638372,17852.4,-46890.2,0,50173.7,-323885
step02_gravity_refstate-mantle.xmf,858,-2.79711e-06,8.69309e-07,0,4.29238e-07,-1.39928e+09,-1.39879e+09,-1.3989e+09,57367.7,0.0318052,0.0112761,0,0.0337449,29383.6,-49267.7,0,57364.7,-57367.7
step02_gravity_refstate-mantle.xmf,859,-2.96088e-06,1.03058e-06,0,3.48566e-07,-1.46045e+09,-1.45992e+09,-1.46006e+09,46585.8,0.0319118,0.0104462,0,0.0335781,29944.5,-51156.7,0,59276.3,-46585.8
step02_gravity_refstate-mantle.xmf,860,-3.10605e-06,1.18439e-06,0,2.69226e-07,-1.52382e+09,-1.52325e+09,-1.52341e+09,35982.1,0.0315931,0.00902211,0,0.032856,30489.3,-53113.7,0,61242.6,-35982.1
step02_gravity_refstate-mantle.xmf,861,-3.39294e-06,1.63319e-06,0,1.14392e-07,-1.61356e+09,-1.61289e+09,-1.61311e+09,15288.4,0.0244172,0.00711849,0,0.0254337,33045.1,-55885,0,64923.8,-15288.4
step02_gravity_refstate-mantle.xmf,862,-3.4853e-06,1.83536e-06,0,4.28556e-08,-1.68269e+09,-1.68198e+09,-1.68222e+09,5727.64,0.0219311,0.00371181,0,0.022243,33881.7,-58020.1,0,67188.6,-5727.64
step02_gravity_refstate-mantle.xmf,863,-3.55006e-06,2.02675e-06,0,1.07268e-09,-1.74678e+09,-1.74604e+09,-1.74631e+09,143.364,0.0183749,-3.70237e-19,0,0.0183749,34922.2,-60000,0,69423.1,-143.364
step02_gravity_refstate-mantle.xmf,864,-1.84555e-07,-4.59508e-06,0,4.20311e-06,-1.32769e+09,-1.32828e+09,-1.32767e+09,561745,0.0583323,-0.0732372,0,0.0936288,12987.6,-47059.9,0,48819.1,-561745
step02_gravity_refstate-mantle.xmf,865,4.32056e-07,-5.55076e-06,0,4.38217e-06,-1.35486e+09,-1.35566e+09,-1.35492e+09,585677,0.0588462,-0.0773225,0,0.0971681,12094.4,-47900.9,0,49404.2,-585677
step02_gravity_refstate-mantle.xmf,866,6.14999e-06,-1.24181e-05,0,9.13535e-07,-1.61478e+09,-1.61726e+09,-1.6156e+09,122094,0.0211792,-0.0489512,0,0.0533365,3268.65,-55950.5,0,56045.9,-122094
step02_gravity_refstate-mantle.xmf,867,-2.64214e-06,5.74223e-07,0,5.88981e-07,-1.38691e+09,-1.38648e+09,-1.38656e+09,78717.3,0.0363876,0.00761756,0,0.0371764,27535.3,-48886.1,0,56107.4,-78717.3
step02_gravity_refstate-mantle.xmf,868,-1.71979e-06,-1.36118e-06,0,2.00433e-06,-1.32652e+09,-1.32647e+09,-1.32629e+09,267878,0.051509,-0.0252651,0,0.0573716,19319.4,-47021.6,0,50835.7,-267878
step02_gravity_refstate-mantle.xmf,869,-2.47231e-06,2.44552e-07,0,7.87332e-07,-1.37361e+09,-1.37325e+09,-1.37328e+09,105227,0.0404085,0.00301643,0,0.0405209,25746.8,-48475.5,0,54888.7,-105227
step02_gravity_refstate-mantle.xmf,870,-2.29723e-06,-1.10446e-07,0,1.02227e-06,-1.36178e+09,-1.36149e+09,-1.36147e+09,136626,0.0438937,-0.00248844,0,0.0439641,24052.7,-48110.3,0,53787.8,-136626
step02_gravity_refstate-mantle.xmf,871,-2.11244e-06,-4.90873e-07,0,1.30144e-06,-1.348e+09,-1.34779e+09,-1.34772e+09,173938,0.0467721,-0.00900136,0,0.0476304,22425.8,-47684.9,0,52695,-173938
step02_gravity_refstate-mantle.xmf,872,-1.9249e-06,-8.94602e-07,0,1.62345e-06,-1.33491e+09,-1.33477e+09,-1.33465e+09,216975,0.0491781,-0.0165165,0,0.0518775,20872.1,-47280.8,0,51682.9,-216975
step02_gravity_refstate-mantle.xmf,873,-6.27499e-07,-3.71297e-06,0,3.62603e-06,-1.33472e+09,-1.33513e+09,-1.33464e+09,484619,0.0580187,-0.0599478,0,0.0834261,14373.3,-47276.4,0,49413,-484619
step02_gravity_refstate-mantle.xmf,874,-9.3089e-07,-3.07412e-06,0,3.14328e-06,-1.34315e+09,-1.34344e+09,-1.34303e+09,420099,0.0574294,-0.049332,0,0.0757085,15583.1,-47536.4,0,50025.4,-420099
step02_gravity_refstate-mantle.xmf,875,-1.20802e-06,-2.48304e-06,0,2.67282e-06,-1.35431e+09,-1.35448e+09,-1.35415e+09,357223,0.0565347,-0.0390171,0,0.0686913,16884.9,-47880.9,0,50770.8,-357223
step02_gravity_refstate-mantle.xmf,876,-3.2266e-06,1.32585e-06,0,1.96006e-07,-1.5881e+09,-1.58749e+09,-1.58767e+09,26196.2,0.0309073,0.00703183,0,0.0316971,31005.2,-55098.8,0,63223.4,-26196.2
step02_gravity_refstate-mantle.xmf,877,1.14102e-06,-6.56664e-06,0,4.43924e-06,-1.38172e+09,-1.38275e+09,-1.38188e+09,593304,0.0583188,-0.0804962,0,0.0994018,11188.6,-48732.8,0,50000.7,-593304
step02_gravity_refstate-mantle.xmf,878,1.89898e-06,-7.5868e-06,0,4.35605e-06,-1.40834e+09,-1.4096e+09,-1.40859e+09,582186,0.0567707,-0.082408,0,0.10007,10287.9,-49557.3,0,50613.9,-582186
step02_gravity_refstate-mantle.xmf,879,2.66404e-06,-8.56668e-06,0,4.13982e-06,-1.43438e+09,-1.43588e+09,-1.43474e+09,553288,0.0542841,-0.0830136,0,0.0991868,9393.02,-50364.5,0,51232.9,-553288
step02_gravity_refstate-mantle.xmf,880,5.86575e-06,-1.2162e-05,0,1.40631e-06,-1.58636e+09,-1.58877e+09,-1.58714e+09,187954,0.0275893,-0.0579178,0,0.0641532,4272.41,-55071.2,0,55236.7,-187954
step02_gravity_refstate-mantle.xmf,881,3.3925e-06,-9.46596e-06,0,3.82062e-06,-1.45903e+09,-1.46074e+09,-1.45948e+09,510626,0.0510217,-0.0824876,0,0.0969919,8510.06,-51128.3,0,51831.7,-510626
step02_gravity_refstate-mantle.xmf,882,4.04297e-06,-1.02573e-05,0,3.46691e-06,-1.4797e+09,-1.48161e+09,-1.48024e+09,463353,0.0472882,-0.0816322,0,0.0943398,7658,-51769.3,0,52332.7,-463353
step02_gravity_refstate-mantle.xmf,883,5.48892e-06,-1.17931e-05,0,1.95436e-06,-1.55786e+09,-1.56017e+09,-1.55859e+09,261201,0.0336282,-0.0658477,0,0.0739376,5242.68,-54189.2,0,54442.3,-261201
step02_gravity_refstate-mantle.xmf,884,5.04432e-06,-1.13494e-05,0,2.54249e-06,-1.52766e+09,-1.52985e+09,-1.52834e+09,339804,0.0390223,-0.0733671,0,0.0830991,6133.02,-53254.7,0,53606.7,-339804
step02_gravity_refstate-mantle.xmf,885,4.67912e-06,-1.10186e-05,0,3.05607e-06,-1.49885e+09,-1.50094e+09,-1.49947e+09,408444,0.0427211,-0.0805043,0,0.0911374,6735.07,-52363,0,52794.3,-408444
step02_gravity_refstate-mantle.xmf,886,5.9784e-06,-1.20473e-05,0,6.2131e-07,-1.65964e+09,-1.66205e+09,-1.66044e+09,83038.1,0.0223768,-0.0316716,0,0.038779,3533.06,-57336,0,57444.8,-83038.1
step02_gravity_refstate-mantle.xmf,887,6.22865e-06,-1.22707e-05,0,2.58823e-07,-1.69609e+09,-1.69856e+09,-1.69692e+09,34591.7,0.015184,-0.0187377,0,0.0241175,2383.89,-58462.9,0,58511.5,-34591.7
step02_gravity_refstate-mantle.xmf,888,6.32816e-06,-1.23116e-05,0,-9.60069e-09,-1.74583e+09,-1.74832e+09,-1.74668e+09,-1283.13,0.010014,2.54369e-19,0,0.010014,1568.5,-60000,0,60020.5,-1283.13
step02_gravity_refstate-mantle.xmf,889,-1.47989e-06,-1.911e-06,0,2.23517e-06,-1.36413e+09,-1.36419e+09,-1.36394e+09,298730,0.0551092,-0.0294771,0,0.0624974,18285.3,-48183.9,0,51536.8,-298730
step02_gravity_refstate-mantle.xmf,890,-2.79243e-06,6.99515e-07,0,5.0526e-07,-1.44387e+09,-1.4434e+09,-1.4435e+09,67528,0.0368819,0.0076374,0,0.0376644,28058,-50644.8,0,57897.7,-67528
step02_gravity_refstate-mantle.xmf,891,-2.91834e-06,8.43249e-07,0,4.00165e-07,-1.50535e+09,-1.50485e+09,-1.50496e+09,53482,0.0371067,0.00702293,0,0.0377654,28535.6,-52543.5,0,59792.1,-53482
step02_gravity_refstate-mantle.xmf,892,-3.03692e-06,9.95703e-07,0,2.87483e-07,-1.57117e+09,-1.57064e+09,-1.57077e+09,38422.1,0.0367914,0.0058574,0,0.0372548,29051.5,-54576.3,0,61826.9,-38422.1
step02_gravity_refstate-mantle.xmf,893,-3.31343e-06,1.49334e-06,0,9.12593e-08,-1.67204e+09,-1.6714e+09,-1.6716e+09,12196.8,0.030572,0.00356475,0,0.0307791,31325.9,-57691.4,0,65647.7,-12196.8
step02_gravity_refstate-mantle.xmf,894,-3.41906e-06,1.77581e-06,0,9.41313e-10,-1.74677e+09,-1.74608e+09,-1.74632e+09,125.806,0.0266933,-3.62996e-19,0,0.0266933,32535.6,-60000,0,68253.7,-125.806
step02_gravity_refstate-mantle.xmf,895,-3.53982e-08,-4.66795e-06,0,3.84742e-06,-1.36516e+09,-1.36578e+09,-1.36516e+09,514207,0.0592754,-0.064717,0,0.0877603,13342.2,-48218.2,0,50030.1,-514207
step02_gravity_refstate-mantle.xmf,896,6.16116e-07,-5.63587e-06,0,3.95737e-06,-1.39353e+09,-1.39437e+09,-1.39362e+09,528903,0.0593936,-0.0682262,0,0.0904567,12372.2,-49096.4,0,50631.3,-528903
step02_gravity_refstate-mantle.xmf,897,5.67192e-06,-1.17431e-05,0,1.03215e-06,-1.63081e+09,-1.63314e+09,-1.63157e+09,137947,0.0286382,-0.0409354,0,0.0499585,4560.76,-56444.1,0,56628.1,-137947
step02_gravity_refstate-mantle.xmf,898,-2.60377e-06,3.46563e-07,0,6.90114e-07,-1.42766e+09,-1.42726e+09,-1.42731e+09,92233.7,0.0412342,0.00388918,0,0.0414172,26246.8,-50144.4,0,56598.2,-92233.7
step02_gravity_refstate-mantle.xmf,899,-1.734e-06,-1.381e-06,0,1.83803e-06,-1.37412e+09,-1.37407e+09,-1.37389e+09,245653,0.053219,-0.0208459,0,0.0571561,19755.2,-48491.9,0,52361.5,-245653
step02_gravity_refstate-mantle.xmf,900,-2.40469e-06,-3.7063e-08,0,9.12112e-07,-1.41358e+09,-1.41327e+09,-1.41326e+09,121904,0.0450208,-0.000803672,0,0.045028,24523.4,-49710,0,55429.9,-121904
step02_gravity_refstate-mantle.xmf,901,-2.19315e-06,-4.51994e-07,0,1.17496e-06,-1.40013e+09,-1.3999e+09,-1.39984e+09,157034,0.0482583,-0.00645483,0,0.0486881,22873.1,-49294.9,0,54343,-157034
step02_gravity_refstate-mantle.xmf,902,-1.97094e-06,-8.95136e-07,0,1.48383e-06,-1.38576e+09,-1.38562e+09,-1.3855e+09,198313,0.0509181,-0.013135,0,0.052585,21289.8,-48851.2,0,53288.8,-198313
step02_gravity_refstate-mantle.xmf,903,-4.50982e-07,-3.8805e-06,0,3.3525e-06,-1.37516e+09,-1.37562e+09,-1.3751e+09,448062,0.0592113,-0.053305,0,0.0796706,14609.5,-48526.2,0,50677.7,-448062
step02_gravity_refstate-mantle.xmf,904,-8.06949e-07,-3.18997e-06,0,2.87923e-06,-1.38607e+09,-1.38639e+09,-1.38596e+09,384810,0.0587292,-0.0429461,0,0.0727563,15893,-48862.6,0,51382.3,-384810
step02_gravity_refstate-mantle.xmf,905,-1.13195e-06,-2.55526e-06,0,2.43225e-06,-1.39811e+09,-1.3983e+09,-1.39796e+09,325071,0.0578281,-0.0333847,0,0.066773,17234.3,-49234,0,52163.3,-325071
step02_gravity_refstate-mantle.xmf,906,-3.12617e-06,1.14186e-06,0,1.80775e-07,-1.63282e+09,-1.63225e+09,-1.63241e+09,24160.6,0.0359756,0.00427947,0,0.0362293,29559.6,-56480.4,0,63748,-24160.6
step02_gravity_refstate-mantle.xmf,907,1.31377e-06,-6.60387e-06,0,3.94159e-06,-1.42084e+09,-1.4219e+09,-1.42102e+09,526794,0.0585074,-0.0704649,0,0.0915883,11438.1,-49942.2,0,51235.3,-526794
step02_gravity_refstate-mantle.xmf,908,2.02611e-06,-7.54039e-06,0,3.80094e-06,-1.44763e+09,-1.44891e+09,-1.4479e+09,507996,0.0567269,-0.0713244,0,0.0911324,10533.4,-50772,0,51853.1,-507996
step02_gravity_refstate-mantle.xmf,909,2.74445e-06,-8.44844e-06,0,3.55277e-06,-1.47402e+09,-1.47552e+09,-1.47439e+09,474828,0.0540723,-0.0710211,0,0.0892625,9616.27,-51589.8,0,52478.4,-474828
step02_gravity_refstate-mantle.xmf,910,5.30184e-06,-1.13622e-05,0,1.51156e-06,-1.60088e+09,-1.60311e+09,-1.60159e+09,202020,0.0343821,-0.0496382,0,0.0603828,5530.6,-55518.2,0,55793,-202020
step02_gravity_refstate-mantle.xmf,911,3.45895e-06,-9.32704e-06,0,3.2147e-06,-1.49979e+09,-1.5015e+09,-1.50025e+09,429644,0.0505202,-0.0697295,0,0.0861074,8657.53,-52388.2,0,53098.7,-429644
step02_gravity_refstate-mantle.xmf,912,4.25588e-06,-1.02844e-05,0,2.74675e-06,-1.52761e+09,-1.52956e+09,-1.52818e+09,367103,0.0452574,-0.0674041,0,0.0811883,7471.57,-53250.7,0,53772.3,-367103
step02_gravity_refstate-mantle.xmf,913,4.8503e-06,-1.09003e-05,0,2.08365e-06,-1.56658e+09,-1.56868e+09,-1.56722e+09,278480,0.0398371,-0.0586547,0,0.070904,6478.52,-54456.6,0,54840.6,-278480
step02_gravity_refstate-mantle.xmf,914,5.60069e-06,-1.15436e-05,0,7.0161e-07,-1.6669e+09,-1.66919e+09,-1.66765e+09,93770.1,0.0286559,-0.0278612,0,0.0399676,4627.45,-57559,0,57744.7,-93770.1
step02_gravity_refstate-mantle.xmf,915,5.71531e-06,-1.15929e-05,0,3.63985e-07,-1.7019e+09,-1.70421e+09,-1.70266e+09,48646.5,0.0261578,-0.0156907,0,0.0305029,4223.11,-58640.6,0,58792.5,-48646.5
step02_gravity_refstate-mantle.xmf,916,6.0325e-06,-1.19328e-05,0,-4.65203e-09,-1.74586e+09,-1.74826e+09,-1.74667e+09,-621.744,0.0197016,1.89579e-19,0,0.0197016,3137.45,-60000,0,60082,-621.744
step02_gravity_refstate-mantle.xmf,917,-1.44536e-06,-1.94794e-06,0,2.0182e-06,-1.40948e+09,-1.40954e+09,-1.40928e+09,269733,0.0563862,-0.0246581,0,0.0615421,18665.9,-49584.6,0,52981.6,-269733
step02_gravity_refstate-mantle.xmf,918,-2.7172e-06,4.539e-07,0,5.77662e-07,-1.48508e+09,-1.48465e+09,-1.48471e+09,77204.6,0.0417282,0.00423857,0,0.0419429,26717.6,-51917.5,0,58388.9,-77204.6
step02_gravity_refstate-mantle.xmf,919,-2.81161e-06,5.91042e-07,0,4.29886e-07,-1.5511e+09,-1.55064e+09,-1.55072e+09,57454.2,0.0420259,0.0039372,0,0.0422099,27145.2,-53956.7,0,60400.2,-57454.2
step02_gravity_refstate-mantle.xmf,920,-2.90729e-06,7.30317e-07,0,2.66003e-07,-1.62654e+09,-1.62605e+09,-1.62615e+09,35551.3,0.041822,0.0029588,0,0.0419266,27600.8,-56286.7,0,62689.7,-35551.3
step02_gravity_refstate-mantle.xmf,921,-3.09956e-06,1.11963e-06,0,9.92027e-08,-1.69137e+09,-1.6908e+09,-1.69095e+09,13258.4,0.0380123,0.00197234,0,0.0380635,29035,-58288.9,0,65120.1,-13258.4
step02_gravity_refstate-mantle.xmf,922,-3.23288e-06,1.43126e-06,0,-5.16845e-11,-1.74676e+09,-1.74614e+09,-1.74633e+09,-6.90763,0.0343192,-2.06829e-19,0,0.0343192,30242,-60000,0,67190.6,-6.90763
step02_gravity_refstate-mantle.xmf,923,7.67643e-07,-5.67979e-06,0,3.50877e-06,-1.43307e+09,-1.43393e+09,-1.43317e+09,468947,0.0597389,-0.059237,0,0.0841294,12645.5,-50318.5,0,51883.2,-468947
step02_gravity_refstate-mantle.xmf,924,1.31867e-07,-4.76962e-06,0,3.47489e-06,-1.405e+09,-1.40566e+09,-1.40502e+09,464419,0.0599707,-0.0567469,0,0.0825633,13616.4,-49449.7,0,51290.2,-464419
step02_gravity_refstate-mantle.xmf,925,5.2097e-06,-1.11047e-05,0,1.09829e-06,-1.63997e+09,-1.64215e+09,-1.64067e+09,146786,0.0345048,-0.0357992,0,0.0497209,5658.8,-56725.6,0,57007.2,-146786
step02_gravity_refstate-mantle.xmf,926,-2.49252e-06,3.49734e-08,0,7.82257e-07,-1.46989e+09,-1.46956e+09,-1.46956e+09,104549,0.045925,0.00035491,0,0.0459264,24937.1,-51449,0,57173.9,-104549
step02_gravity_refstate-mantle.xmf,927,-1.73496e-06,-1.391e-06,0,1.64442e-06,-1.42223e+09,-1.42218e+09,-1.422e+09,219777,0.0544864,-0.0168764,0,0.0570401,20153.4,-49978,0,53888.4,-219777
step02_gravity_refstate-mantle.xmf,928,-2.25367e-06,-4.13559e-07,0,1.02659e-06,-1.45477e+09,-1.45452e+09,-1.45447e+09,137203,0.0494088,-0.00439629,0,0.049604,23264.3,-50982.1,0,56039.3,-137203
step02_gravity_refstate-mantle.xmf,929,-1.99869e-06,-8.89666e-07,0,1.31268e-06,-1.43857e+09,-1.43842e+09,-1.4383e+09,175440,0.052231,-0.0101106,0,0.0532006,21675.8,-50482.4,0,54939.1,-175440
step02_gravity_refstate-mantle.xmf,930,-3.02761e-07,-3.98689e-06,0,3.02305e-06,-1.41664e+09,-1.41713e+09,-1.4166e+09,404030,0.0600469,-0.0463399,0,0.0758486,14880,-49808.2,0,51983.4,-404030
step02_gravity_refstate-mantle.xmf,931,-6.99776e-07,-3.26308e-06,0,2.57085e-06,-1.42971e+09,-1.43005e+09,-1.42961e+09,343594,0.0596511,-0.0365944,0,0.0699815,16210,-50211.1,0,52762.8,-343594
step02_gravity_refstate-mantle.xmf,932,-1.07437e-06,-2.5796e-06,0,2.149e-06,-1.44242e+09,-1.44263e+09,-1.44228e+09,287214,0.0587191,-0.0277948,0,0.0649652,17609.2,-50603.2,0,53579.6,-287214
step02_gravity_refstate-mantle.xmf,933,1.43895e-06,-6.58572e-06,0,3.42337e-06,-1.46124e+09,-1.46231e+09,-1.46143e+09,457534,0.0586055,-0.060324,0,0.0841047,11704.8,-51190.9,0,52512,-457534
step02_gravity_refstate-mantle.xmf,934,2.11841e-06,-7.46539e-06,0,3.23958e-06,-1.4885e+09,-1.48978e+09,-1.48878e+09,432969,0.0566379,-0.0602588,0,0.0826981,10774.7,-52035.4,0,53139.2,-432969
step02_gravity_refstate-mantle.xmf,935,2.80441e-06,-8.3233e-06,0,2.962e-06,-1.51583e+09,-1.51732e+09,-1.5162e+09,395871,0.0538281,-0.0589778,0,0.0798488,9821.38,-52882,0,53786.2,-395871
step02_gravity_refstate-mantle.xmf,936,4.71466e-06,-1.05519e-05,0,1.58181e-06,-1.60915e+09,-1.6112e+09,-1.60979e+09,211410,0.0402838,-0.0437595,0,0.0594784,6735.3,-55771.8,0,56177.1,-211410
step02_gravity_refstate-mantle.xmf,937,3.5079e-06,-9.18033e-06,0,2.59337e-06,-1.54389e+09,-1.54559e+09,-1.54436e+09,346603,0.0499994,-0.0564614,0,0.0754177,8785.66,-53751.3,0,54464.5,-346603
step02_gravity_refstate-mantle.xmf,938,4.15466e-06,-9.9259e-06,0,2.10069e-06,-1.5763e+09,-1.57818e+09,-1.57685e+09,280757,0.0454069,-0.0510185,0,0.0682984,7757.93,-54754.7,0,55301.6,-280757
step02_gravity_refstate-mantle.xmf,939,5.19265e-06,-1.09678e-05,0,6.72893e-07,-1.68044e+09,-1.6826e+09,-1.68114e+09,89932.1,0.0340581,-0.0220194,0,0.0405563,5647.75,-57976,0,58250.5,-89932.1
step02_gravity_refstate-mantle.xmf,940,5.54284e-06,-1.1296e-05,0,-2.143e-09,-1.74592e+09,-1.74817e+09,-1.74666e+09,-286.412,0.0288005,1.17447e-19,0,0.0288005,4710.75,-60000,0,60184.6,-286.412
step02_gravity_refstate-mantle.xmf,941,-1.42001e-06,-1.95091e-06,0,1.76996e-06,-1.45497e+09,-1.45504e+09,-1.45478e+09,236555,0.0572606,-0.0200831,0,0.0606803,19048.3,-50990.1,0,54431.9,-236555
step02_gravity_refstate-mantle.xmf,942,-2.56418e-06,1.17836e-07,0,6.29738e-07,-1.52901e+09,-1.52865e+09,-1.52866e+09,84164.5,0.0464813,0.00107166,0,0.0464937,25318.9,-53274.7,0,58985.1,-84164.5
step02_gravity_refstate-mantle.xmf,943,-2.61539e-06,2.2894e-07,0,4.46295e-07,-1.59165e+09,-1.59127e+09,-1.5913e+09,59647.3,0.0468194,0.001275,0,0.0468367,25629.1,-55209.8,0,60868.5,-59647.3
step02_gravity_refstate-mantle.xmf,944,-2.81889e-06,6.26443e-07,0,1.37228e-07,-1.69288e+09,-1.69242e+09,-1.69251e+09,18340.5,0.0444389,0.00109037,0,0.0444522,26865.1,-58336.5,0,64225.2,-18340.5
step02_gravity_refstate-mantle.xmf,945,-2.98455e-06,9.86864e-07,0,-1.21515e-09,-1.74674e+09,-1.74621e+09,-1.74635e+09,-162.405,0.041176,-1.23715e-19,0,0.041176,28035.6,-60000,0,66226.9,-162.405
step02_gravity_refstate-mantle.xmf,946,8.99252e-07,-5.69516e-06,0,3.01382e-06,-1.4764e+09,-1.47728e+09,-1.47652e+09,402797,0.0599462,-0.0498498,0,0.0779651,12917.4,-51657.9,0,53248.5,-402797
step02_gravity_refstate-mantle.xmf,947,2.71689e-07,-4.82699e-06,0,3.05907e-06,-1.4469e+09,-1.44758e+09,-1.44694e+09,408844,0.0604488,-0.048582,0,0.0775517,13900.9,-50744.8,0,52614.3,-408844
step02_gravity_refstate-mantle.xmf,948,4.65613e-06,-1.03361e-05,0,1.0906e-06,-1.65103e+09,-1.65304e+09,-1.65165e+09,145758,0.0402592,-0.0299892,0,0.0502011,6850.75,-57065.6,0,57475.3,-145758
step02_gravity_refstate-mantle.xmf,949,5.22327e-06,-1.09343e-05,0,2.84183e-07,-1.71714e+09,-1.7193e+09,-1.71784e+09,37981,0.0332822,-0.00969558,0,0.0346656,5535.45,-59109.9,0,59368.5,-37981
step02_gravity_refstate-mantle.xmf,950,-2.28714e-06,-3.82914e-07,0,8.53349e-07,-1.51283e+09,-1.51258e+09,-1.51253e+09,114050,0.0503711,-0.00286397,0,0.0504524,23557.6,-52775.7,0,57794.7,-114050
step02_gravity_refstate-mantle.xmf,951,-1.72768e-06,-1.39336e-06,0,1.42049e-06,-1.47263e+09,-1.47258e+09,-1.47239e+09,189849,0.0554398,-0.0132326,0,0.0569972,20516.4,-51534.8,0,55468.5,-189849
step02_gravity_refstate-mantle.xmf,952,-2.00314e-06,-8.9784e-07,0,1.10686e-06,-1.49811e+09,-1.49796e+09,-1.49784e+09,147932,0.0534244,-0.007507,0,0.0539493,21959.5,-52321.3,0,56742.8,-147932
step02_gravity_refstate-mantle.xmf,953,-1.88006e-07,-4.03371e-06,0,2.63872e-06,-1.46045e+09,-1.46097e+09,-1.46043e+09,352665,0.0606322,-0.0390047,0,0.0720946,15189.7,-51162.3,0,53369.5,-352665
step02_gravity_refstate-mantle.xmf,954,-6.27687e-07,-3.27352e-06,0,2.22092e-06,-1.47418e+09,-1.47453e+09,-1.47409e+09,296826,0.0602647,-0.0301826,0,0.0674005,16564.9,-51585.3,0,54179.7,-296826
step02_gravity_refstate-mantle.xmf,955,-1.04622e-06,-2.54738e-06,0,1.83135e-06,-1.48733e+09,-1.48753e+09,-1.48719e+09,244760,0.0592771,-0.022304,0,0.0633343,18020.9,-51990.8,0,55025.4,-244760
step02_gravity_refstate-mantle.xmf,956,-2.64839e-06,3.038e-07,0,2.85731e-07,-1.6476e+09,-1.64721e+09,-1.64725e+09,38188,0.0470031,0.0010471,0,0.0470147,25810.7,-56938,0,62515,-38188
step02_gravity_refstate-mantle.xmf,957,1.53861e-06,-6.54598e-06,0,2.89102e-06,-1.50353e+09,-1.50461e+09,-1.50373e+09,386385,0.0586173,-0.0502398,0,0.0772012,11953.4,-52498,0,53841.6,-386385
step02_gravity_refstate-mantle.xmf,958,2.1732e-06,-7.35978e-06,0,2.68376e-06,-1.53022e+09,-1.5315e+09,-1.53051e+09,358685,0.0565671,-0.0493905,0,0.0750949,11014.3,-53324.8,0,54450.4,-358685
step02_gravity_refstate-mantle.xmf,959,2.80766e-06,-8.14241e-06,0,2.37218e-06,-1.55913e+09,-1.5606e+09,-1.55951e+09,317041,0.0537807,-0.0467748,0,0.0712758,10069.6,-54220.1,0,55147.2,-317041
step02_gravity_refstate-mantle.xmf,960,4.07554e-06,-9.65671e-06,0,1.54088e-06,-1.6204e+09,-1.62224e+09,-1.62095e+09,205939,0.0455837,-0.0369904,0,0.058704,7979.29,-56117.3,0,56681.8,-205939
step02_gravity_refstate-mantle.xmf,961,3.45505e-06,-8.92419e-06,0,1.98463e-06,-1.58926e+09,-1.59092e+09,-1.58972e+09,265245,0.050089,-0.0427264,0,0.0658366,9047.62,-55153.1,0,55890.3,-265245
step02_gravity_refstate-mantle.xmf,962,4.5877e-06,-1.01149e-05,0,5.11077e-07,-1.70152e+09,-1.70348e+09,-1.70213e+09,68305.5,0.0405555,-0.0138411,0,0.0428524,7004.08,-58625.2,0,59042.1,-68305.5
step02_gravity_refstate-mantle.xmf,963,4.90466e-06,-1.0455e-05,0,-2.50251e-09,-1.74598e+09,-1.74804e+09,-1.74664e+09,-334.461,0.0370736,1.70208e-19,0,0.0370736,6293.86,-60000,0,60329.2,-334.461
step02_gravity_refstate-mantle.xmf,964,-1.38524e-06,-1.9538e-06,0,1.53254e-06,-1.49641e+09,-1.49648e+09,-1.49622e+09,204824,0.0578751,-0.016464,0,0.0601713,19322.4,-52270.3,0,55727.3,-204824
step02_gravity_refstate-mantle.xmf,965,-2.31697e-06,-3.2414e-07,0,6.54351e-07,-1.57114e+09,-1.57087e+09,-1.57083e+09,87454,0.0508969,-0.0016103,0,0.0509224,23842.8,-54576.6,0,59557.4,-87454
step02_gravity_refstate-mantle.xmf,966,-2.35152e-06,-2.06473e-07,0,4.26524e-07,-1.63042e+09,-1.63013e+09,-1.6301e+09,57004.9,0.0510303,-0.000662347,0,0.0510346,24131.7,-56407.9,0,61353,-57004.9
step02_gravity_refstate-mantle.xmf,967,-2.42997e-06,-3.92737e-08,0,1.95246e-07,-1.69249e+09,-1.69217e+09,-1.69217e+09,26094.6,0.0504263,-9.39788e-06,0,0.0504263,24584.5,-58325.2,0,63294.8,-26094.6
step02_gravity_refstate-mantle.xmf,968,-2.67068e-06,4.44935e-07,0,-2.19246e-09,-1.74672e+09,-1.7463e+09,-1.74636e+09,-293.023,0.0471819,-2.23721e-20,0,0.0471819,25910.4,-60000,0,65355.6,-293.023
step02_gravity_refstate-mantle.xmf,969,1.02852e-06,-5.71815e-06,0,2.50194e-06,-1.52205e+09,-1.52295e+09,-1.52219e+09,334384,0.0599943,-0.0406925,0,0.0724927,13121.4,-53069,0,54667,-334384
step02_gravity_refstate-mantle.xmf,970,3.88499e-07,-4.85214e-06,0,2.6046e-06,-1.4916e+09,-1.49231e+09,-1.49166e+09,348105,0.0607633,-0.0402805,0,0.072902,14178.2,-52126.4,0,54020.2,-348105
step02_gravity_refstate-mantle.xmf,971,3.99374e-06,-9.41608e-06,0,1.00387e-06,-1.66379e+09,-1.66558e+09,-1.66432e+09,134168,0.04592,-0.0237534,0,0.0516998,8189.06,-57457.6,0,58038.2,-134168
step02_gravity_refstate-mantle.xmf,972,-1.97913e-06,-9.14343e-07,0,8.92056e-07,-1.55372e+09,-1.55358e+09,-1.55346e+09,119223,0.054305,-0.00554031,0,0.0545869,22112.2,-54039.4,0,58388.4,-119223
step02_gravity_refstate-mantle.xmf,973,-1.57654e-06,-1.60592e-06,0,1.21932e-06,-1.53274e+09,-1.53274e+09,-1.53253e+09,162963,0.0571345,-0.0111556,0,0.0582134,20305.4,-53392.1,0,57122.9,-162963
step02_gravity_refstate-mantle.xmf,974,-1.11228e-07,-4.02383e-06,0,2.2168e-06,-1.50613e+09,-1.50666e+09,-1.50612e+09,296275,0.0610254,-0.0315946,0,0.0687191,15522.9,-52573.9,0,54817.7,-296275
step02_gravity_refstate-mantle.xmf,975,-6.08142e-07,-3.20323e-06,0,1.83372e-06,-1.52e+09,-1.52034e+09,-1.51992e+09,245076,0.060628,-0.0236828,0,0.0650894,16990.7,-53000.9,0,55657.8,-245076
step02_gravity_refstate-mantle.xmf,976,-1.09028e-06,-2.40511e-06,0,1.4874e-06,-1.5317e+09,-1.53187e+09,-1.53155e+09,198790,0.0594423,-0.0168122,0,0.0617741,18564.2,-53361.2,0,56498.2,-198790
step02_gravity_refstate-mantle.xmf,977,1.63109e-06,-6.53066e-06,0,2.44675e-06,-1.5399e+09,-1.54099e+09,-1.54012e+09,327008,0.0585221,-0.0421483,0,0.0721201,12100.6,-53622.1,0,54970.5,-327008
step02_gravity_refstate-mantle.xmf,978,2.12975e-06,-7.13447e-06,0,2.11878e-06,-1.57324e+09,-1.57448e+09,-1.57352e+09,283175,0.0568044,-0.0381883,0,0.0684477,11370.4,-54653.9,0,55824.1,-283175
step02_gravity_refstate-mantle.xmf,979,2.72129e-06,-7.86428e-06,0,1.78218e-06,-1.60373e+09,-1.60515e+09,-1.6041e+09,238189,0.0541629,-0.0344053,0,0.0641665,10432,-55597.8,0,56568.1,-238189
step02_gravity_refstate-mantle.xmf,980,3.38782e-06,-8.68819e-06,0,1.42045e-06,-1.6329e+09,-1.63451e+09,-1.63335e+09,189843,0.0503344,-0.0301238,0,0.0586599,9295.11,-56501.1,0,57260.6,-189843
step02_gravity_refstate-mantle.xmf,981,3.75358e-06,-8.99243e-06,0,4.73832e-07,-1.70746e+09,-1.70916e+09,-1.70796e+09,63327.6,0.047609,-0.0106977,0,0.0487961,8701.82,-58806,0,59446.3,-63327.6
step02_gravity_refstate-mantle.xmf,982,4.16322e-06,-9.47249e-06,0,7.98791e-10,-1.74606e+09,-1.74789e+09,-1.74662e+09,106.758,0.0443212,1.19858e-19,0,0.0443212,7892.26,-60000,0,60516.8,-106.758
step02_gravity_refstate-mantle.xmf,983,-1.98277e-06,-8.60201e-07,0,6.32788e-07,-1.61192e+09,-1.61177e+09,-1.61166e+09,84572.1,0.0546952,-0.00347858,0,0.0548057,22345.1,-55837.3,0,60142.4,-84572.1
step02_gravity_refstate-mantle.xmf,984,-2.01793e-06,-7.21133e-07,0,3.62383e-07,-1.66745e+09,-1.66727e+09,-1.66718e+09,48432.5,0.0546158,-0.00172667,0,0.0546431,22637,-57552.6,0,61844.4,-48432.5
step02_gravity_refstate-mantle.xmf,985,-2.28328e-06,-1.98864e-07,0,-1.47279e-09,-1.74669e+09,-1.74641e+09,-1.74639e+09,-196.838,0.0522542,4.30514e-20,0,0.0522542,23860.6,-60000,0,64570.3,-196.838
step02_gravity_refstate-mantle.xmf,986,1.25213e-06,-5.89455e-06,0,1.98845e-06,-1.57045e+09,-1.57141e+09,-1.57062e+09,265757,0.0596576,-0.0323386,0,0.0678588,13043.4,-54565.1,0,56102.4,-265757
step02_gravity_refstate-mantle.xmf,987,4.74056e-07,-4.83928e-06,0,2.12139e-06,-1.53837e+09,-1.53908e+09,-1.53843e+09,283524,0.0609573,-0.0319976,0,0.068845,14445.8,-53571.4,0,55484.9,-283524
step02_gravity_refstate-mantle.xmf,988,3.33891e-06,-8.51303e-06,0,9.1371e-07,-1.67266e+09,-1.67424e+09,-1.6731e+09,122117,0.0505349,-0.0192093,0,0.0540627,9467.8,-57729.4,0,58500.7,-122117
step02_gravity_refstate-mantle.xmf,989,-1.57331e-06,-1.54488e-06,0,8.70677e-07,-1.59475e+09,-1.59474e+09,-1.59454e+09,116366,0.0575161,-0.00726541,0,0.0579732,20645.3,-55307.8,0,59035.4,-116366
step02_gravity_refstate-mantle.xmf,990,-1.11608e-06,-2.29131e-06,0,1.12964e-06,-1.58153e+09,-1.58168e+09,-1.58138e+09,150976,0.0595841,-0.0118837,0,0.0607576,18999.6,-54900.5,0,58095.2,-150976
step02_gravity_refstate-mantle.xmf,991,-7.77553e-08,-3.9554e-06,0,1.7712e-06,-1.55318e+09,-1.55369e+09,-1.55316e+09,236721,0.0612774,-0.0243089,0,0.065923,15878.2,-54027.5,0,56312.4,-236721
step02_gravity_refstate-mantle.xmf,992,-6.10127e-07,-3.10527e-06,0,1.43513e-06,-1.56745e+09,-1.56779e+09,-1.56737e+09,191806,0.0608434,-0.0176162,0,0.0633423,17393.2,-54467.1,0,57176.8,-191806
step02_gravity_refstate-mantle.xmf,993,-2.05815e-06,-6.01809e-07,0,1.39241e-07,-1.71516e+09,-1.71497e+09,-1.71489e+09,18609.5,0.0543591,-0.000577494,0,0.0543622,22870.6,-59026.6,0,63302.5,-18609.5
step02_gravity_refstate-mantle.xmf,994,1.91749e-06,-6.71436e-06,0,1.58657e-06,-1.61334e+09,-1.6145e+09,-1.6136e+09,212045,0.0576643,-0.0275317,0,0.0638996,11982.2,-55892.3,0,57162.3,-212045
step02_gravity_refstate-mantle.xmf,995,2.59789e-06,-7.54515e-06,0,1.12629e-06,-1.65481e+09,-1.65617e+09,-1.65516e+09,150528,0.0547296,-0.0212034,0,0.0586934,10833.2,-57175.7,0,58192.9,-150528
step02_gravity_refstate-mantle.xmf,996,2.9178e-06,-7.86966e-06,0,5.17279e-07,-1.70434e+09,-1.70578e+09,-1.70473e+09,69134.3,0.0530197,-0.01014,0,0.0539806,10319.8,-58706.9,0,59607,-69134.3
step02_gravity_refstate-mantle.xmf,997,3.34653e-06,-8.37787e-06,0,2.10763e-09,-1.74615e+09,-1.74772e+09,-1.7466e+09,281.685,0.0504014,1.08503e-19,0,0.0504014,9511.38,-60000,0,60749.2,-281.685
step02_gravity_refstate-mantle.xmf,998,-1.57251e-06,-1.47524e-06,0,5.54035e-07,-1.65069e+09,-1.65068e+09,-1.65048e+09,74046.7,0.057708,-0.00429658,0,0.0578677,20851.9,-57036.1,0,60728.2,-74046.7
step02_gravity_refstate-mantle.xmf,999,-1.62118e-06,-1.31382e-06,0,2.39914e-07,-1.70353e+09,-1.70349e+09,-1.70331e+09,32064.6,0.0575147,-0.0017349,0,0.0575408,21139.5,-58668.4,0,62360.7,-32064.6
step02_gravity_refstate-mantle.xmf,1000,-1.81303e-06,-9.56507e-07,0,-3.3556e-09,-1.74665e+09,-1.74654e+09,-1.74641e+09,-448.476,0.0563139,1.51183e-19,0,0.0563139,21880.6,-60000,0,63865.2,-448.476
step02_gravity_refstate-mantle.xmf,1001,5.22411e-07,-4.78389e-06,0,1.62448e-06,-1.58636e+09,-1.58707e+09,-1.58643e+09,217112,0.0610803,-0.0238987,0,0.0655893,14703.4,-55054.5,0,56984.1,-217112
step02_gravity_refstate-mantle.xmf,1002,-1.11315e-06,-2.22051e-06,0,7.7576e-07,-1.63317e+09,-1.63332e+09,-1.63303e+09,103680,0.0597342,-0.00772763,0,0.060232,19256.2,-56496.1,0,59687.6,-103680
step02_gravity_refstate-mantle.xmf,1003,-6.26967e-07,-2.99008e-06,0,1.03351e-06,-1.61616e+09,-1.61647e+09,-1.61607e+09,138129,0.0609513,-0.0120915,0,0.0621391,17743.1,-55971.7,0,58716.7,-138129
step02_gravity_refstate-mantle.xmf,1004,-7.63799e-08,-3.84695e-06,0,1.31147e-06,-1.60183e+09,-1.60234e+09,-1.60182e+09,175278,0.0614326,-0.0173393,0,0.0638327,16223.1,-55530.8,0,57852,-175278
step02_gravity_refstate-mantle.xmf,1005,1.13623e-06,-5.59012e-06,0,1.39115e-06,-1.62014e+09,-1.62103e+09,-1.62029e+09,185927,0.0600584,-0.0218114,0,0.0638964,13574.6,-56099.8,0,57718.8,-185927
step02_gravity_refstate-mantle.xmf,1006,1.67226e-06,-6.25433e-06,0,1.02658e-06,-1.65769e+09,-1.65875e+09,-1.65792e+09,137203,0.0585705,-0.0170632,0,0.0610054,12639.5,-57261.8,0,58640.2,-137203
step02_gravity_refstate-mantle.xmf,1007,2.10461e-06,-6.76096e-06,0,5.34672e-07,-1.70138e+09,-1.70256e+09,-1.70166e+09,71458.9,0.0569716,-0.00934584,0,0.057733,11889,-58612.8,0,59806.4,-71458.9
step02_gravity_refstate-mantle.xmf,1008,2.49688e-06,-7.22323e-06,0,3.36953e-09,-1.74624e+09,-1.74754e+09,-1.74657e+09,450.338,0.0552088,1.00861e-19,0,0.0552088,11156.7,-60000,0,61028.4,-450.338
step02_gravity_refstate-mantle.xmf,1009,-1.05208e-06,-2.22861e-06,0,3.84982e-07,-1.69205e+09,-1.69221e+09,-1.69191e+09,51452.9,0.0600503,-0.00372316,0,0.0601656,19216,-58315.3,0,61399.8,-51452.9
step02_gravity_refstate-mantle.xmf,1010,-1.2677e-06,-1.80943e-06,0,-4.65978e-09,-1.7466e+09,-1.74668e+09,-1.74643e+09,-622.78,0.0592727,3.36626e-19,0,0.0592727,19964.7,-60000,0,63234.4,-622.78
step02_gravity_refstate-mantle.xmf,1011,4.80486e-07,-4.60708e-06,0,1.10701e-06,-1.63538e+09,-1.63606e+09,-1.63544e+09,147952,0.0612355,-0.0157869,0,0.0632377,15072.5,-56568.8,0,58542.4,-147952
step02_gravity_refstate-mantle.xmf,1012,-6.52902e-07,-2.87486e-06,0,6.81783e-07,-1.65911e+09,-1.65941e+09,-1.65902e+09,91120.3,0.0609755,-0.00772079,0,0.0614623,18001.1,-57298.6,0,60059.7,-91120.3
step02_gravity_refstate-mantle.xmf,1013,-1.2033e-07,-3.67839e-06,0,8.39922e-07,-1.65219e+09,-1.65267e+09,-1.65218e+09,112256,0.0615111,-0.0106804,0,0.0624315,16584.5,-57086.5,0,59446.7,-112256
step02_gravity_refstate-mantle.xmf,1014,1.00643e-06,-5.29869e-06,0,9.21397e-07,-1.66082e+09,-1.66166e+09,-1.66096e+09,123145,0.0604244,-0.0139553,0,0.062015,14032.9,-57356.5,0,59048.2,-123145
step02_gravity_refstate-mantle.xmf,1015,1.27131e-06,-5.59847e-06,0,5.06534e-07,-1.70054e+09,-1.70146e+09,-1.70071e+09,67698.3,0.0598014,-0.00790025,0,0.060321,13564,-58584.3,0,60134,-67698.3
step02_gravity_refstate-mantle.xmf,1016,1.64778e-06,-6.05054e-06,0,3.84939e-09,-1.74632e+09,-1.74735e+09,-1.74654e+09,514.471,0.0586836,8.16019e-20,0,0.0586836,12833.5,-60000,0,61357.1,-514.471
step02_gravity_refstate-mantle.xmf,1017,-3.18017e-07,-3.30515e-06,0,3.78842e-07,-1.70196e+09,-1.70236e+09,-1.70192e+09,50632.2,0.0614502,-0.00452745,0,0.0616168,17205.5,-58623.5,0,61096.2,-50632.2
step02_gravity_refstate-mantle.xmf,1018,-6.45386e-07,-2.75285e-06,0,-2.98241e-09,-1.74655e+09,-1.74683e+09,-1.74646e+09,-398.599,0.0610494,4.14582e-19,0,0.0610494,18107.5,-60000,0,62672.8,-398.599
step02_gravity_refstate-mantle.xmf,1019,4.67574e-07,-4.45342e-06,0,5.42181e-07,-1.69148e+09,-1.69214e+09,-1.69155e+09,72462.5,0.0613235,-0.00752464,0,0.0617834,15319.1,-58302.2,0,60281.2,-72462.5
step02_gravity_refstate-mantle.xmf,1020,8.28187e-07,-4.89741e-06,0,5.64093e-09,-1.74641e+09,-1.74717e+09,-1.74652e+09,753.91,0.0608026,7.02144e-20,0,0.0608026,14547.3,-60000,0,61738.4,-753.91
step02_gravity_refstate-mantle.xmf,1021,5.87804e-08,-3.78953e-06,0,-5.99304e-09,-1.74648e+09,-1.747e+09,-1.74649e+09,-800.97,0.0615814,6.95219e-19,0,0.0615814,16303.5,-60000,0,62175.6,-800.97
step02_gravity_refstate-intrusion.xmf,0,-1.44535e-05,3.62881e-05,0,-2.33519e-05,-8.241e+08,-8.18481e+08,-8.22499e+08,-2.58608e+06,0.0404512,-0.542697,0,0.544203,-2000,-30000,-0,30066.6,-2.58608e+06
step02_gravity_refstate-intrusion.xmf,1,-1.86465e-05,3.56775e-05,0,-1.42558e-05,-8.24903e+08,-8.18887e+08,-8.22838e+08,-1.57874e+06,0.0327815,-0.572028,0,0.572967,-1499.28,-30000,-0,30037.4,-1.57874e+06
step02_gravity_refstate-intrusion.xmf,2,-1.26366e-05,2.84463e-05,0,-2.56494e-05,-8.38108e+08,-8.33559e+08,-8.36709e+08,-2.84051e+06,0.031548,-0.55905,0,0.55994,-2000,-30501.8,-0,30567.3,-2.84051e+06
step02_gravity_refstate-intrusion.xmf,3,-8.16938e-06,1.67031e-05,0,-2.83696e-05,-8.65604e+08,-8.6285e+08,-8.64699e+08,-3.14176e+06,0.0190906,-0.581486,0,0.581799,-2000,-31502.2,-0,31565.6,-3.14176e+06
step02_gravity_refstate-intrusion.xmf,4,-1.04911e-05,2.25613e-05,0,-2.71855e-05,-8.51866e+08,-8.48205e+08,-8.50704e+08,-3.01063e+06,0.0249104,-0.571752,0,0.572294,-2000,-31001.7,-0,31066.2,-3.01063e+06
step02_gravity_refstate-intrusion.xmf,5,-5.8761e-06,1.11475e-05,0,-2.92795e-05,-8.79316e+08,-8.77431e+08,-8.78665e+08,-3.24253e+06,0.0137356,-0.58839,0,0.58855,-2000,-32002.2,-0,32064.7,-3.24253e+06
step02_gravity_refstate-intrusion.xmf,6,-2.15106e-05,3.83278e-05,0,-9.2324e-06,-8.25235e+08,-8.18609e+08,-8.22853e+08,-1.02243e+06,0.0227376,-0.591263,0,0.5917,-999.317,-30000,-0,30016.6,-1.02243e+06
step02_gravity_refstate-intrusion.xmf,7,-3.63814e-06,5.80697e-06,0,-2.99252e-05,-8.93006e+08,-8.9196e+08,-8.92603e+08,-3.31404e+06,0.00866932,-0.592585,0,0.592648,-2000,-32501.7,-0,32563.2,-3.31404e+06
step02_gravity_refstate-intrusion.xmf,8,-2.30008e-05,3.98481e-05,0,-4.59205e-06,-8.25398e+08,-8.18438e+08,-8.22851e+08,-508542,0.0116168,-0.602533,0,0.602644,-499.831,-30000,-0,30004.2,-508542
step02_gravity_refstate-intrusion.xmf,9,-1.46905e-06,5.5878e-07,0,-3.03904e-05,-9.06693e+08,-9.06469e+08,-9.06531e+08,-3.36555e+06,0.00379049,-0.594158,0,0.59417,-2000,-33000.8,-0,33061.4,-3.36555e+06
step02_gravity_refstate-intrusion.xmf,10,-2.34735e-05,4.03234e-05,0,-6.20109e-08,-8.25451e+08,-8.18385e+08,-8.22851e+08,-6867.33,-5.57161e-07,-0.606263,-0,0.606263,-2.07592e-10,-30000,-0,30000,-6867.33
step02_gravity_refstate-intrusion.xmf,11,6.94005e-07,-4.51424e-06,0,-3.06174e-05,-9.20384e+08,-9.20961e+08,-9.20461e+08,-3.39069e+06,-0.000967413,-0.593164,-0,0.593164,-2000,-33500.5,-0,33560.1,-3.39069e+06
step02_gravity_refstate-intrusion.xmf,12,-2.30054e-05,3.97859e-05,0,4.43527e-06,-8.25404e+08,-8.1845e+08,-8.22856e+08,491179,-0.0116188,-0.602533,-0,0.602645,499.831,-30000,0,30004.2,-491179
step02_gravity_refstate-intrusion.xmf,13,2.80988e-06,-9.60483e-06,0,-3.0719e-05,-9.34102e+08,-9.35477e+08,-9.34413e+08,-3.40194e+06,-0.00564165,-0.589622,-0,0.589649,-2000,-34000.8,-0,34059.6,-3.40194e+06
step02_gravity_refstate-intrusion.xmf,14,-2.10027e-05,3.82159e-05,0,9.16505e-06,-8.25151e+08,-8.18593e+08,-8.22825e+08,1.01497e+06,-0.0227388,-0.591262,-0,0.591699,999.317,-30000,0,30016.6,-1.01497e+06
step02_gravity_refstate-intrusion.xmf,15,4.88935e-06,-1.46839e-05,0,-3.06732e-05,-9.47825e+08,-9.49993e+08,-9.48366e+08,-3.39687e+06,-0.0102519,-0.583547,-0,0.583637,-2000,-34501.1,-0,34559,-3.39687e+06
step02_gravity_refstate-intrusion.xmf,16,-1.88191e-05,3.45091e-05,0,1.28506e-05,-8.25017e+08,-8.19111e+08,-8.22933e+08,1.42312e+06,-0.0327771,-0.572023,-0,0.572962,1499.28,-30000,0,30037.4,-1.42312e+06
step02_gravity_refstate-intrusion.xmf,17,6.96003e-06,-1.97696e-05,0,-3.04671e-05,-9.61533e+08,-9.64493e+08,-9.62304e+08,-3.37405e+06,-0.0148165,-0.574943,-0,0.575133,-2000,-35000.7,-0,35057.8,-3.37405e+06
step02_gravity_refstate-intrusion.xmf,18,-1.44556e-05,3.61008e-05,0,2.36671e-05,-8.24113e+08,-8.18515e+08,-8.22513e+08,2.62099e+06,-0.0403788,-0.542697,-0,0.544197,2000,-30000,0,30066.6,-2.62099e+06
step02_gravity_refstate-intrusion.xmf,19,9.0202e-06,-2.4921e-05,0,-3.01058e-05,-9.75233e+08,-9.78992e+08,-9.76232e+08,-3.33404e+06,-0.0193658,-0.563792,-0,0.564125,-2000,-35499.9,-0,35556.2,-3.33404e+06
step02_gravity_refstate-intrusion.xmf,20,-1.26404e-05,2.84056e-05,0,2.56305e-05,-8.38112e+08,-8.33566e+08,-8.36712e+08,2.83842e+06,-0.0315449,-0.559065,-0,0.559954,2000,-30501.8,0,30567.3,-2.83842e+06
step02_gravity_refstate-intrusion.xmf,21,-1.05032e-05,2.23034e-05,0,2.72483e-05,-8.51886e+08,-8.48253e+08,-8.50723e+08,3.01759e+06,-0.0249082,-0.571757,-0,0.572299,2000,-31001.7,0,31066.2,-3.01759e+06
step02_gravity_refstate-intrusion.xmf,22,1.10788e-05,-3.01979e-05,0,-2.95704e-05,-9.88952e+08,-9.93523e+08,-9.90179e+08,-3.27474e+06,-0.0239557,-0.550031,-0,0.550553,-2000,-35999.3,-0,36054.8,-3.27474e+06
step02_gravity_refstate-intrusion.xmf,23,-8.17209e-06,1.65402e-05,0,2.8434e-05,-8.65616e+08,-8.62879e+08,-8.64711e+08,3.14889e+06,-0.0190883,-0.581486,-0,0.581799,2000,-31502.2,0,31565.6,-3.14889e+06
step02_gravity_refstate-intrusion.xmf,24,-5.89017e-06,1.10501e-05,0,2.93269e-05,-8.79326e+08,-8.77449e+08,-8.78673e+08,3.24778e+06,-0.013734,-0.588389,-0,0.58855,2000,-32002.2,0,32064.7,-3.24778e+06
step02_gravity_refstate-intrusion.xmf,25,1.31274e-05,-3.56599e-05,0,-2.88382e-05,-1.0027e+09,-1.0081e+09,-1.00416e+09,-3.19365e+06,-0.0286747,-0.533573,-0,0.534343,-2000,-36499.4,-0,36554.2,-3.19365e+06
step02_gravity_refstate-intrusion.xmf,26,-3.65618e-06,5.74704e-06,0,2.99506e-05,-8.93014e+08,-8.91972e+08,-8.92609e+08,3.31684e+06,-0.00866889,-0.592585,-0,0.592649,2000,-32501.7,0,32563.2,-3.31684e+06
step02_gravity_refstate-intrusion.xmf,27,-1.46843e-06,5.61974e-07,0,3.0381e-05,-9.06693e+08,-9.06468e+08,-9.0653e+08,3.36451e+06,-0.00378962,-0.594158,-0,0.59417,2000,-33000.8,0,33061.4,-3.36451e+06
step02_gravity_refstate-intrusion.xmf,28,1.51087e-05,-4.13918e-05,0,-2.79141e-05,-1.01649e+09,-1.02275e+09,-1.01817e+09,-3.09131e+06,-0.0336884,-0.514314,-0,0.515417,-2000,-36999.8,-0,37053.8,-3.09131e+06
step02_gravity_refstate-intrusion.xmf,29,2.79055e-06,-9.612e-06,0,3.07304e-05,-9.34106e+08,-9.35479e+08,-9.34415e+08,3.40321e+06,0.00564254,-0.589622,0,0.589649,2000,-34000.8,0,34059.6,-3.40321e+06
step02_gravity_refstate-intrusion.xmf,30,7.20403e-07,-4.54494e-06,0,3.06296e-05,-9.20382e+08,-9.20965e+08,-9.20461e+08,3.39204e+06,0.000968151,-0.593163,0,0.593164,2000,-33500.5,0,33560.1,-3.39204e+06
step02_gravity_refstate-intrusion.xmf,31,4.88749e-06,-1.46871e-05,0,3.06679e-05,-9.47826e+08,-9.49993e+08,-9.48367e+08,3.39628e+06,0.0102518,-0.583547,0,0.583637,2000,-34501.1,0,34559,-3.39628e+06
step02_gravity_refstate-intrusion.xmf,32,1.67266e-05,-4.79207e-05,0,-2.72724e-05,-1.03039e+09,-1.03755e+09,-1.03224e+09,-3.02025e+06,-0.0393743,-0.492127,-0,0.493699,-2000,-37499.7,-0,37553,-3.02025e+06
step02_gravity_refstate-intrusion.xmf,33,6.95377e-06,-1.97632e-05,0,3.04695e-05,-9.61534e+08,-9.64493e+08,-9.62304e+08,3.37431e+06,0.0148154,-0.574941,0,0.575132,2000,-35000.7,0,35057.8,-3.37431e+06
step02_gravity_refstate-intrusion.xmf,34,9.02422e-06,-2.49231e-05,0,3.01022e-05,-9.75233e+08,-9.78992e+08,-9.76232e+08,3.33364e+06,0.0193654,-0.563793,0,0.564126,2000,-35499.9,0,35556.2,-3.33364e+06
step02_gravity_refstate-intrusion.xmf,35,1.4371e-05,-5.02462e-05,0,-2.60202e-05,-1.04472e+09,-1.05188e+09,-1.04632e+09,-2.88158e+06,-0.0474542,-0.46633,-0,0.468738,-2000,-38000,-0,38052.6,-2.88158e+06
step02_gravity_refstate-intrusion.xmf,36,1.1084e-05,-3.01933e-05,0,2.95807e-05,-9.8895e+08,-9.93522e+08,-9.90178e+08,3.27589e+06,0.0239563,-0.550032,0,0.550553,2000,-35999.3,0,36054.8,-3.27589e+06
step02_gravity_refstate-intrusion.xmf,37,2.19743e-05,-5.3128e-05,0,-1.45854e-05,-1.04355e+09,-1.05187e+09,-1.04598e+09,-1.61524e+06,-0.0381229,-0.496547,-0,0.498009,-1499.83,-38000,-0,38029.6,-1.61524e+06
step02_gravity_refstate-intrusion.xmf,38,2.50325e-05,-5.63002e-05,0,-9.29269e-06,-1.04322e+09,-1.05223e+09,-1.04599e+09,-1.02911e+06,-0.0263564,-0.515441,-0,0.516115,-1000,-38000,-0,38013.2,-1.02911e+06
step02_gravity_refstate-intrusion.xmf,39,2.66456e-05,-5.82297e-05,0,-4.57378e-06,-1.04306e+09,-1.05246e+09,-1.04601e+09,-506518,-0.0134457,-0.526368,-0,0.526539,-500.172,-38000,-0,38003.3,-506518
step02_gravity_refstate-intrusion.xmf,40,2.71437e-05,-5.88219e-05,0,-6.78515e-08,-1.04301e+09,-1.05253e+09,-1.04602e+09,-7514.14,-8.57552e-07,-0.529957,-0,0.529957,0,-38000,0,38000,-7514.14
step02_gravity_refstate-intrusion.xmf,41,1.31233e-05,-3.56505e-05,0,2.88617e-05,-1.0027e+09,-1.0081e+09,-1.00416e+09,3.19625e+06,0.0286759,-0.533573,0,0.534343,2000,-36499.4,0,36554.2,-3.19625e+06
step02_gravity_refstate-intrusion.xmf,42,2.66537e-05,-5.81495e-05,0,4.42222e-06,-1.04305e+09,-1.05245e+09,-1.04601e+09,489734,0.01344,-0.526366,0,0.526537,500.172,-38000,0,38003.3,-489734
step02_gravity_refstate-intrusion.xmf,43,1.50946e-05,-4.13832e-05,0,2.79345e-05,-1.01649e+09,-1.02275e+09,-1.01817e+09,3.09358e+06,0.0336889,-0.514315,0,0.515417,2000,-36999.8,0,37053.8,-3.09358e+06
step02_gravity_refstate-intrusion.xmf,44,2.50926e-05,-5.60855e-05,0,8.95796e-06,-1.04319e+09,-1.05218e+09,-1.04597e+09,992039,0.0263623,-0.515441,0,0.516114,1000,-38000,0,38013.2,-992039
step02_gravity_refstate-intrusion.xmf,45,1.67208e-05,-4.79098e-05,0,2.72829e-05,-1.03039e+09,-1.03755e+09,-1.03224e+09,3.02142e+06,0.0393729,-0.492129,0,0.493701,2000,-37499.7,0,37553,-3.02142e+06
step02_gravity_refstate-intrusion.xmf,46,2.28283e-05,-5.16997e-05,0,1.27562e-05,-1.04329e+09,-1.05155e+09,-1.04582e+09,1.41267e+06,0.0381335,-0.496529,0,0.497992,1499.83,-38000,0,38029.6,-1.41267e+06
step02_gravity_refstate-intrusion.xmf,47,1.43804e-05,-5.01548e-05,0,2.62192e-05,-1.04472e+09,-1.05186e+09,-1.04631e+09,2.90362e+06,0.0474389,-0.466302,0,0.468708,2000,-38000,0,38052.6,-2.90362e+06
step02_gravity_refstate-intrusion.xmf,48,-1.39786e-05,2.9955e-05,0,-1.96649e-05,-8.34457e+08,-8.29592e+08,-8.32909e+08,-2.17777e+06,0.0287728,-0.576901,0,0.577618,-1636.38,-30363.9,-0,30408,-2.17777e+06
step02_gravity_refstate-intrusion.xmf,49,-1.59811e-05,3.10294e-05,0,-1.42852e-05,-8.35776e+08,-8.3057e+08,-8.34006e+08,-1.582e+06,0.0224881,-0.596278,0,0.596702,-1249.3,-30401.5,-0,30427.2,-1.582e+06
step02_gravity_refstate-intrusion.xmf,50,-1.27227e-05,2.63803e-05,0,-2.06309e-05,-8.44154e+08,-8.39823e+08,-8.42745e+08,-2.28475e+06,0.0234181,-0.589874,0,0.590339,-1579.07,-30716,-0,30756.6,-2.28475e+06
step02_gravity_refstate-intrusion.xmf,51,-7.64934e-06,1.45023e-05,0,-2.26887e-05,-8.72717e+08,-8.70264e+08,-8.7187e+08,-2.51263e+06,0.0131998,-0.61126,0,0.611402,-1577.41,-31758.9,-0,31798,-2.51263e+06
step02_gravity_refstate-intrusion.xmf,52,-1.05534e-05,2.08326e-05,0,-2.01927e-05,-8.5772e+08,-8.54244e+08,-8.56551e+08,-2.23622e+06,0.0170424,-0.607325,0,0.607564,-1466.13,-31210,-0,31244.4,-2.23622e+06
step02_gravity_refstate-intrusion.xmf,53,-5.11808e-06,8.73233e-06,0,-2.35049e-05,-8.86867e+08,-8.85333e+08,-8.863e+08,-2.60303e+06,0.00894656,-0.616346,0,0.616411,-1593.77,-32275.9,-0,32315.2,-2.60303e+06
step02_gravity_refstate-intrusion.xmf,54,-1.78386e-05,3.2415e-05,0,-8.18872e-06,-8.36612e+08,-8.31046e+08,-8.34636e+08,-906851,0.0136551,-0.613197,0,0.613349,-739.405,-30423.2,-0,30432.2,-906851
step02_gravity_refstate-intrusion.xmf,55,-1.38722e-05,2.64456e-05,0,-1.33346e-05,-8.46698e+08,-8.42233e+08,-8.45162e+08,-1.47672e+06,0.015566,-0.615237,0,0.615434,-1050.12,-30801.3,-0,30819.2,-1.47672e+06
step02_gravity_refstate-intrusion.xmf,56,-2.61861e-06,2.99008e-06,0,-2.38755e-05,-9.01356e+08,-9.00735e+08,-9.01066e+08,-2.64407e+06,0.00467818,-0.619555,0,0.619572,-1591.41,-32805.2,-0,32843.8,-2.64407e+06
step02_gravity_refstate-intrusion.xmf,57,-6.66758e-06,1.17792e-05,0,-1.7347e-05,-8.80315e+08,-8.78272e+08,-8.79576e+08,-1.92107e+06,0.00835658,-0.633179,0,0.633234,-1193.27,-32035,-0,32057.2,-1.92107e+06
step02_gravity_refstate-intrusion.xmf,58,-9.0653e-06,1.70261e-05,0,-1.68664e-05,-8.67685e+08,-8.64795e+08,-8.66681e+08,-1.86785e+06,0.0114452,-0.626533,0,0.626637,-1193.2,-31572.8,-0,31595.4,-1.86785e+06
step02_gravity_refstate-intrusion.xmf,59,-1.8703e-05,3.31613e-05,0,-2.75026e-06,-8.36977e+08,-8.31233e+08,-8.34906e+08,-304574,0.00467444,-0.62116,0,0.621177,-249.916,-30432.7,-0,30433.7,-304574
step02_gravity_refstate-intrusion.xmf,60,-1.51442e-07,-2.77436e-06,0,-2.41999e-05,-9.16107e+08,-9.16398e+08,-9.16091e+08,-2.67999e+06,0.000490932,-0.61943,0,0.61943,-1594.48,-33343.7,-0,33381.8,-2.67999e+06
step02_gravity_refstate-intrusion.xmf,61,-3.95956e-06,5.74156e-06,0,-1.75965e-05,-8.95117e+08,-8.94043e+08,-8.94679e+08,-1.94871e+06,0.00494311,-0.638215,0,0.638234,-1185.71,-32576.2,-0,32597.8,-1.94871e+06
step02_gravity_refstate-intrusion.xmf,62,-1.1254e-05,2.11105e-05,0,-1.20162e-05,-8.59031e+08,-8.55447e+08,-8.57785e+08,-1.33072e+06,0.0103795,-0.631293,0,0.631379,-886.275,-31253.8,-0,31266.4,-1.33072e+06
step02_gravity_refstate-intrusion.xmf,63,-8.39612e-06,1.5128e-05,0,-1.13468e-05,-8.73061e+08,-8.70456e+08,-8.72131e+08,-1.25659e+06,0.00684582,-0.643178,0,0.643214,-796.266,-31768.1,-0,31778.1,-1.25659e+06
step02_gravity_refstate-intrusion.xmf,64,-1.43027e-05,2.60757e-05,0,-5.75918e-06,-8.49478e+08,-8.45006e+08,-8.47894e+08,-637794,0.00654493,-0.632637,0,0.632671,-451.938,-30898.7,-0,30902,-637794
step02_gravity_refstate-intrusion.xmf,65,-1.87562e-05,3.31899e-05,0,2.68058e-06,-8.36725e+08,-8.30972e+08,-8.34647e+08,296858,-0.00486968,-0.620771,-0,0.62079,259.15,-30423.3,0,30424.4,-296858
step02_gravity_refstate-intrusion.xmf,66,-1.12624e-06,-6.58906e-07,0,-1.75901e-05,-9.11121e+08,-9.11069e+08,-9.10996e+08,-1.94799e+06,0.00145181,-0.640352,0,0.640354,-1169.52,-33161.1,-0,33181.8,-1.94799e+06
step02_gravity_refstate-intrusion.xmf,67,-5.53834e-06,8.99559e-06,0,-1.15118e-05,-8.87674e+08,-8.86065e+08,-8.87061e+08,-1.27486e+06,0.00444029,-0.649908,0,0.649924,-785.34,-32303.2,-0,32312.8,-1.27486e+06
step02_gravity_refstate-intrusion.xmf,68,-1.57295e-05,2.82479e-05,0,-8.76748e-08,-8.45906e+08,-8.41035e+08,-8.44164e+08,-9709.46,-1.00845e-06,-0.632334,-0,0.632334,0.0331425,-30764.8,0,30764.8,-9709.46
step02_gravity_refstate-intrusion.xmf,69,2.19761e-06,-8.1825e-06,0,-2.48986e-05,-9.30262e+08,-9.31411e+08,-9.30505e+08,-2.75737e+06,-0.00352939,-0.614395,-0,0.614405,-1633.15,-33860.6,-0,33900,-2.75737e+06
step02_gravity_refstate-intrusion.xmf,70,1.57636e-06,-6.85396e-06,0,-1.77699e-05,-9.26799e+08,-9.27732e+08,-9.26973e+08,-1.9679e+06,-0.0018111,-0.638062,-0,0.638065,-1172.79,-33733.8,-0,33754.2,-1.9679e+06
step02_gravity_refstate-intrusion.xmf,71,-2.6267e-06,2.57463e-06,0,-1.1644e-05,-9.03361e+08,-9.02785e+08,-9.0307e+08,-1.2895e+06,0.00210353,-0.65333,0,0.653333,-780.936,-32877,-0,32886.3,-1.2895e+06
step02_gravity_refstate-intrusion.xmf,72,-1.03924e-05,1.88896e-05,0,-5.17885e-06,-8.65109e+08,-8.61866e+08,-8.63958e+08,-573526,0.00393199,-0.646626,0,0.646638,-375.79,-31475.1,-0,31477.3,-573526
step02_gravity_refstate-intrusion.xmf,73,-7.17236e-06,1.23073e-05,0,-4.83305e-06,-8.8017e+08,-8.78013e+08,-8.79376e+08,-535231,0.00241318,-0.6557,0,0.655705,-334.969,-32027.8,-0,32029.5,-535231
step02_gravity_refstate-intrusion.xmf,74,-1.23369e-05,2.23417e-05,0,8.01326e-07,-8.57623e+08,-8.53782e+08,-8.56256e+08,88742,-0.000784667,-0.643246,-0,0.643247,63.5697,-31198.6,0,31198.6,-88742
step02_gravity_refstate-intrusion.xmf,75,-1.4471e-05,2.63515e-05,0,5.80911e-06,-8.4889e+08,-8.44369e+08,-8.47288e+08,643323,-0.00689606,-0.631769,-0,0.631807,470.944,-30876.9,0,30880.5,-643323
step02_gravity_refstate-intrusion.xmf,76,-1.76696e-05,3.20097e-05,0,8.06753e-06,-8.36867e+08,-8.31365e+08,-8.3491e+08,893430,-0.0137744,-0.613258,-0,0.613413,749.574,-30432.6,0,30441.8,-893430
step02_gravity_refstate-intrusion.xmf,77,4.00537e-06,-1.24659e-05,0,-2.62197e-05,-9.41547e+08,-9.43371e+08,-9.41991e+08,-2.90367e+06,-0.00702513,-0.605204,-0,0.605245,-1716.75,-34272.4,-0,34315.4,-2.90367e+06
step02_gravity_refstate-intrusion.xmf,78,2.3269e-07,-3.83836e-06,0,-1.19205e-05,-9.19298e+08,-9.19749e+08,-9.19324e+08,-1.32012e+06,-0.000157943,-0.652651,-0,0.652651,-791.856,-33459.6,-0,33469,-1.32012e+06
step02_gravity_refstate-intrusion.xmf,79,-4.13485e-06,5.78757e-06,0,-4.88287e-06,-8.95739e+08,-8.9464e+08,-8.95281e+08,-540748,0.0013722,-0.660884,0,0.660886,-330.488,-32597.8,-0,32599.5,-540748
step02_gravity_refstate-intrusion.xmf,80,5.95619e-06,-1.71239e-05,0,-2.50021e-05,-9.53617e+08,-9.56173e+08,-9.54276e+08,-2.76883e+06,-0.0101003,-0.602992,-0,0.603076,-1644.02,-34712.7,-0,34751.6,-2.76883e+06
step02_gravity_refstate-intrusion.xmf,81,4.31512e-06,-1.31849e-05,0,-1.99688e-05,-9.43116e+08,-9.45054e+08,-9.43594e+08,-2.21143e+06,-0.00575978,-0.625861,-0,0.625887,-1315.32,-34329.7,-0,34354.9,-2.21143e+06
step02_gravity_refstate-intrusion.xmf,82,3.02559e-06,-1.02022e-05,0,-1.21794e-05,-9.35291e+08,-9.36756e+08,-9.35626e+08,-1.34879e+06,-0.00244064,-0.648159,-0,0.648164,-805.646,-34044,-0,34053.5,-1.34879e+06
step02_gravity_refstate-intrusion.xmf,83,-1.20337e-06,-6.80159e-07,0,-5.0993e-06,-9.11565e+08,-9.11507e+08,-9.11432e+08,-564717,0.000413515,-0.662229,0,0.662229,-340.732,-33176.7,-0,33178.5,-564717
step02_gravity_refstate-intrusion.xmf,84,-8.82006e-06,1.56721e-05,0,1.90509e-06,-8.72486e+08,-8.69774e+08,-8.7151e+08,210977,-0.00118564,-0.653388,-0,0.653389,134.399,-31745.8,0,31746.1,-210977
step02_gravity_refstate-intrusion.xmf,85,-5.63785e-06,9.0146e-06,0,2.14936e-06,-8.8803e+08,-8.86407e+08,-8.87406e+08,238028,-0.000828453,-0.660324,-0,0.660325,146.848,-32315.6,0,32315.9,-238028
step02_gravity_refstate-intrusion.xmf,86,-1.53056e-05,3.05576e-05,0,1.46639e-05,-8.36347e+08,-8.31268e+08,-8.34652e+08,1.62394e+06,-0.0223315,-0.596667,-0,0.597085,1257.89,-30425.5,0,30451.5,-1.62394e+06
step02_gravity_refstate-intrusion.xmf,87,-1.04518e-05,1.91907e-05,0,8.34327e-06,-8.63866e+08,-8.60584e+08,-8.62709e+08,923966,-0.00644834,-0.641984,-0,0.642016,603.769,-31430.2,0,31436,-923966
step02_gravity_refstate-intrusion.xmf,88,-1.25108e-05,2.39631e-05,0,1.40617e-05,-8.51916e+08,-8.47877e+08,-8.5053e+08,1.55724e+06,-0.0143329,-0.619303,-0,0.619469,1072.35,-30993.8,0,31012.4,-1.55724e+06
step02_gravity_refstate-intrusion.xmf,89,1.64082e-06,-7.06542e-06,0,-5.21314e-06,-9.27409e+08,-9.28373e+08,-9.2759e+08,-577323,-0.000566148,-0.659914,-0,0.659915,-346.141,-33755.9,-0,33757.7,-577323
step02_gravity_refstate-intrusion.xmf,90,-2.63092e-06,2.46844e-06,0,2.08843e-06,-9.03861e+08,-9.03296e+08,-9.0357e+08,231281,-0.000369567,-0.663663,-0,0.663663,140.333,-32894.9,0,32895.2,-231281
step02_gravity_refstate-intrusion.xmf,91,-1.3539e-05,2.89157e-05,0,1.99422e-05,-8.34451e+08,-8.29749e+08,-8.32951e+08,2.20848e+06,-0.0287695,-0.576899,-0,0.577616,1636.38,-30363.9,0,30408,-2.20848e+06
step02_gravity_refstate-intrusion.xmf,92,8.25548e-06,-2.26481e-05,0,-2.42849e-05,-9.68012e+08,-9.71434e+08,-9.68926e+08,-2.6894e+06,-0.0138148,-0.594467,-0,0.594628,-1610.46,-35237.8,-0,35274.5,-2.6894e+06
step02_gravity_refstate-intrusion.xmf,93,7.11977e-06,-1.97564e-05,0,-1.85104e-05,-9.59792e+08,-9.62769e+08,-9.60581e+08,-2.04991e+06,-0.00887815,-0.619814,-0,0.619878,-1226,-34938.4,-0,34959.9,-2.04991e+06
step02_gravity_refstate-intrusion.xmf,94,5.81636e-06,-1.66243e-05,0,-1.21912e-05,-9.51534e+08,-9.54019e+08,-9.52178e+08,-1.3501e+06,-0.00472769,-0.640143,-0,0.640161,-807.698,-34637.2,-0,34646.6,-1.3501e+06
step02_gravity_refstate-intrusion.xmf,95,4.43813e-06,-1.34262e-05,0,-5.24363e-06,-9.43328e+08,-9.45306e+08,-9.43819e+08,-580700,-0.00154367,-0.653934,-0,0.653935,-347.769,-34337.6,-0,34339.4,-580700
step02_gravity_refstate-intrusion.xmf,96,2.35615e-07,-3.90951e-06,0,2.10723e-06,-9.19574e+08,-9.20033e+08,-9.196e+08,233363,3.27948e-05,-0.663239,0,0.663239,140.35,-33469.5,0,33469.8,-233363
step02_gravity_refstate-intrusion.xmf,97,-7.08988e-06,1.22565e-05,0,9.04172e-06,-8.80064e+08,-8.77922e+08,-8.79279e+08,1.00132e+06,-0.00449229,-0.650859,-0,0.650874,625.173,-32024.3,0,32030.4,-1.00132e+06
step02_gravity_refstate-intrusion.xmf,98,-4.00126e-06,5.5656e-06,0,9.11452e-06,-8.96138e+08,-8.95079e+08,-8.95695e+08,1.00938e+06,-0.00249793,-0.656273,-0,0.656278,615.946,-32612.7,0,32618.5,-1.00938e+06
step02_gravity_refstate-intrusion.xmf,99,-1.24512e-05,2.58786e-05,0,2.09483e-05,-8.45423e+08,-8.41178e+08,-8.44044e+08,2.3199e+06,-0.023025,-0.590488,-0,0.590936,1590.46,-30762.8,0,30803.8,-2.3199e+06
step02_gravity_refstate-intrusion.xmf,100,-8.35632e-06,1.54227e-05,0,1.66514e-05,-8.7161e+08,-8.68976e+08,-8.70684e+08,1.84404e+06,-0.0102402,-0.629938,-0,0.630021,1166.49,-31716.3,0,31737.7,-1.84404e+06
step02_gravity_refstate-intrusion.xmf,101,9.66613e-06,-2.58101e-05,0,-1.78526e-05,-9.75206e+08,-9.79135e+08,-9.76277e+08,-1.97707e+06,-0.0117997,-0.608348,-0,0.608462,-1194.16,-35500.9,-0,35520.9,-1.97707e+06
step02_gravity_refstate-intrusion.xmf,102,3.02173e-06,-1.02013e-05,0,2.12429e-06,-9.3523e+08,-9.36694e+08,-9.35564e+08,235253,0.000425597,-0.659196,0,0.659196,140.96,-34041.7,0,34042,-235253
step02_gravity_refstate-intrusion.xmf,103,-1.10053e-06,-8.69773e-07,0,9.3164e-06,-9.11965e+08,-9.11939e+08,-9.11843e+08,1.03173e+06,-0.000702525,-0.657491,-0,0.657491,621.803,-33191.5,0,33197.3,-1.03173e+06
step02_gravity_refstate-intrusion.xmf,104,-1.00056e-05,1.99426e-05,0,2.18522e-05,-8.59856e+08,-8.5654e+08,-8.58748e+08,2.42e+06,-0.0173884,-0.603548,-0,0.603799,1571.04,-31289.1,0,31328.5,-2.42e+06
step02_gravity_refstate-intrusion.xmf,105,1.05586e-05,-2.82929e-05,0,-2.37637e-05,-9.82451e+08,-9.86754e+08,-9.8362e+08,-2.63168e+06,-0.0176113,-0.581802,-0,0.582069,-1597.1,-35764.1,-0,35799.8,-2.63168e+06
step02_gravity_refstate-intrusion.xmf,106,8.53927e-06,-2.29685e-05,0,-1.16524e-05,-9.67439e+08,-9.70929e+08,-9.68385e+08,-1.29043e+06,-0.00668123,-0.629499,-0,0.629534,-777.101,-35218,-0,35226.5,-1.29043e+06
step02_gravity_refstate-intrusion.xmf,107,7.22309e-06,-1.98293e-05,0,-5.05051e-06,-9.5939e+08,-9.62386e+08,-9.6019e+08,-559313,-0.00243129,-0.644315,-0,0.644319,-336.284,-34924.3,-0,34925.9,-559313
step02_gravity_refstate-intrusion.xmf,108,5.80578e-06,-1.65437e-05,0,2.29819e-06,-9.51118e+08,-9.53594e+08,-9.51761e+08,254511,0.000881569,-0.651377,0,0.651378,152.043,-34622.2,0,34622.6,-254511
step02_gravity_refstate-intrusion.xmf,109,1.64915e-06,-7.06615e-06,0,9.47922e-06,-9.27403e+08,-9.28368e+08,-9.27585e+08,1.04977e+06,0.00103005,-0.655092,0,0.655093,628.782,-33755.8,0,33761.6,-1.04977e+06
step02_gravity_refstate-intrusion.xmf,110,-5.3303e-06,8.69992e-06,0,1.56416e-05,-8.88029e+08,-8.86475e+08,-8.87439e+08,1.73221e+06,-0.00589758,-0.64105,-0,0.641077,1065.39,-32316.8,0,32334.3,-1.73221e+06
step02_gravity_refstate-intrusion.xmf,111,-2.311e-06,1.98424e-06,0,1.62086e-05,-9.04591e+08,-9.04116e+08,-9.04335e+08,1.79501e+06,-0.00263981,-0.643573,-0,0.643578,1083.9,-32922.4,0,32940.2,-1.79501e+06
step02_gravity_refstate-intrusion.xmf,112,-7.6317e-06,1.45787e-05,0,2.38879e-05,-8.72312e+08,-8.69853e+08,-8.71467e+08,2.64544e+06,-0.0139615,-0.606432,-0,0.606593,1660.73,-31744.5,0,31787.9,-2.64544e+06
step02_gravity_refstate-intrusion.xmf,113,1.21567e-05,-3.18767e-05,0,-1.73635e-05,-9.90425e+08,-9.95301e+08,-9.91771e+08,-1.9229e+06,-0.0147928,-0.59291,-0,0.593094,-1180.24,-36055.8,-0,36075.1,-1.9229e+06
step02_gravity_refstate-intrusion.xmf,114,1.11775e-05,-2.91872e-05,0,-1.14254e-05,-9.83061e+08,-9.87531e+08,-9.84298e+08,-1.2653e+06,-0.00873588,-0.614776,-0,0.614838,-771.907,-35788.1,-0,35796.4,-1.2653e+06
step02_gravity_refstate-intrusion.xmf,115,4.31736e-06,-1.31568e-05,0,9.56719e-06,-9.4269e+08,-9.44625e+08,-9.43168e+08,1.05951e+06,0.00274032,-0.649336,0,0.649342,633.732,-34314.3,0,34320.1,-1.05951e+06
step02_gravity_refstate-intrusion.xmf,116,3.94212e-07,-4.14109e-06,0,1.66041e-05,-9.19964e+08,-9.20466e+08,-9.20008e+08,1.8388e+06,0.000367284,-0.642334,0,0.642334,1100.13,-33484.2,0,33502.2,-1.8388e+06
step02_gravity_refstate-intrusion.xmf,117,-5.46893e-06,9.47395e-06,0,2.30165e-05,-8.85139e+08,-8.83484e+08,-8.84534e+08,2.54894e+06,-0.00931726,-0.617286,-0,0.617357,1566.11,-32212.6,0,32250.7,-2.54894e+06
step02_gravity_refstate-intrusion.xmf,118,1.28399e-05,-3.40748e-05,0,-2.31814e-05,-9.96991e+08,-1.00219e+09,-9.98413e+08,-2.5672e+06,-0.0215218,-0.565768,-0,0.566177,-1588.31,-36293.7,-0,36328.4,-2.5672e+06
step02_gravity_refstate-intrusion.xmf,119,9.99163e-06,-2.62593e-05,0,-4.75117e-06,-9.75343e+08,-9.79357e+08,-9.76449e+08,-526163,-0.00319421,-0.631094,-0,0.631102,-319.338,-35506.8,-0,35508.3,-526163
step02_gravity_refstate-intrusion.xmf,120,8.59577e-06,-2.29687e-05,0,2.41256e-06,-9.67199e+08,-9.70694e+08,-9.68151e+08,267176,0.00137596,-0.639729,0,0.63973,160.219,-35209.6,0,35209.9,-267176
step02_gravity_refstate-intrusion.xmf,121,7.10468e-06,-1.95454e-05,0,9.95476e-06,-9.58805e+08,-9.61756e+08,-9.59592e+08,1.10243e+06,0.00469838,-0.639115,0,0.639132,660.18,-34902.9,0,34909.2,-1.10243e+06
step02_gravity_refstate-intrusion.xmf,122,2.93406e-06,-9.96554e-06,0,1.67805e-05,-9.34737e+08,-9.36166e+08,-9.35062e+08,1.85834e+06,0.00324856,-0.638227,0,0.638235,1107.8,-34023.8,0,34041.8,-1.85834e+06
step02_gravity_refstate-intrusion.xmf,123,-6.78156e-07,-1.52114e-06,0,2.34653e-05,-9.12963e+08,-9.13056e+08,-9.12888e+08,2.59863e+06,-0.00134662,-0.622041,-0,0.622042,1551.74,-33228.9,0,33265.2,-2.59863e+06
step02_gravity_refstate-intrusion.xmf,124,-3.16351e-06,4.18963e-06,0,2.30775e-05,-8.98405e+08,-8.9759e+08,-8.98054e+08,2.5557e+06,-0.00538582,-0.62174,-0,0.621763,1544.52,-32697.2,0,32733.7,-2.5557e+06
step02_gravity_refstate-intrusion.xmf,125,1.46757e-05,-3.82083e-05,0,-1.66637e-05,-1.00615e+09,-1.01201e+09,-1.00778e+09,-1.8454e+06,-0.0180781,-0.573275,-0,0.57356,-1169.03,-36628.7,-0,36647.4,-1.8454e+06
step02_gravity_refstate-intrusion.xmf,126,1.38863e-05,-3.55592e-05,0,-1.09533e-05,-9.98702e+08,-1.00418e+09,-1.00024e+09,-1.21301e+06,-0.010797,-0.596577,-0,0.596675,-760.955,-36359,-0,36367,-1.21301e+06
step02_gravity_refstate-intrusion.xmf,127,1.27768e-05,-3.26247e-05,0,-4.52019e-06,-9.91065e+08,-9.96093e+08,-9.9248e+08,-500583,-0.00399375,-0.614279,-0,0.614292,-311.318,-36081.2,-0,36082.6,-500583
step02_gravity_refstate-intrusion.xmf,128,5.31595e-06,-1.54946e-05,0,1.67347e-05,-9.4881e+08,-9.51115e+08,-9.49399e+08,1.85327e+06,0.00593787,-0.631764,0,0.631792,1105.9,-34537.7,0,34555.4,-1.85327e+06
step02_gravity_refstate-intrusion.xmf,129,1.71012e-06,-7.06989e-06,0,2.36987e-05,-9.27319e+08,-9.28291e+08,-9.27508e+08,2.62449e+06,0.00256934,-0.619461,0,0.619466,1557.61,-33753.1,0,33789,-2.62449e+06
step02_gravity_refstate-intrusion.xmf,130,1.49493e-05,-3.98815e-05,0,-2.24607e-05,-1.01152e+09,-1.01759e+09,-1.01317e+09,-2.48738e+06,-0.025665,-0.546644,-0,0.547246,-1580.91,-36821.4,-0,36855.4,-2.48738e+06
step02_gravity_refstate-intrusion.xmf,131,1.1411e-05,-2.95095e-05,0,2.52226e-06,-9.83292e+08,-9.87824e+08,-9.84556e+08,279325,0.00195208,-0.624261,0,0.624264,171.004,-35797.2,0,35797.6,-279325
step02_gravity_refstate-intrusion.xmf,132,9.89564e-06,-2.60281e-05,0,9.70717e-06,-9.75065e+08,-9.79043e+08,-9.76161e+08,1.07501e+06,0.00645074,-0.625827,0,0.62586,649.553,-35496.7,0,35502.6,-1.07501e+06
step02_gravity_refstate-intrusion.xmf,133,8.38871e-06,-2.2729e-05,0,1.78653e-05,-9.67249e+08,-9.70695e+08,-9.68178e+08,1.97848e+06,0.0101199,-0.615648,0,0.615731,1187.8,-35210.6,0,35230.7,-1.97848e+06
step02_gravity_refstate-intrusion.xmf,134,4.01576e-06,-1.24869e-05,0,2.37244e-05,-9.41421e+08,-9.43249e+08,-9.41866e+08,2.62734e+06,0.00635263,-0.614418,0,0.614451,1557.81,-34267.8,0,34303.2,-2.62734e+06
step02_gravity_refstate-intrusion.xmf,135,1.71655e-05,-4.42692e-05,0,-1.53969e-05,-1.02121e+09,-1.02801e+09,-1.02311e+09,-1.70511e+06,-0.0218908,-0.550731,-0,0.551166,-1166.06,-37177.8,-0,37196,-1.70511e+06
step02_gravity_refstate-intrusion.xmf,136,1.6968e-05,-4.22957e-05,0,-1.06425e-05,-1.01473e+09,-1.02129e+09,-1.01661e+09,-1.1786e+06,-0.0139987,-0.572796,-0,0.572968,-796.94,-36945.7,-0,36954.3,-1.1786e+06
step02_gravity_refstate-intrusion.xmf,137,1.58142e-05,-3.92644e-05,0,-4.5829e-06,-1.00665e+09,-1.01275e+09,-1.00841e+09,-507529,-0.00532543,-0.593525,-0,0.593548,-334.168,-36651.8,-0,36653.3,-507529
step02_gravity_refstate-intrusion.xmf,138,1.44003e-05,-3.60764e-05,0,2.35312e-06,-9.99203e+08,-1.00479e+09,-1.0008e+09,260594,0.00234212,-0.605234,0,0.605238,162.597,-36379.3,0,36379.7,-260594
step02_gravity_refstate-intrusion.xmf,139,6.33173e-06,-1.79793e-05,0,2.39103e-05,-9.55743e+08,-9.58435e+08,-9.56444e+08,2.64792e+06,0.0102597,-0.60549,0,0.605577,1575.57,-34790.4,0,34826,-2.64792e+06
step02_gravity_refstate-intrusion.xmf,140,1.62044e-05,-4.46504e-05,0,-2.19367e-05,-1.02422e+09,-1.03096e+09,-1.02602e+09,-2.42935e+06,-0.0302286,-0.526131,-0,0.526999,-1601.55,-37280.1,-0,37314.5,-2.42935e+06
step02_gravity_refstate-intrusion.xmf,141,1.27154e-05,-3.2664e-05,0,9.39862e-06,-9.91355e+08,-9.9638e+08,-9.92763e+08,1.04084e+06,0.00827064,-0.608504,0,0.60856,644.486,-36091.3,0,36097,-1.04084e+06
step02_gravity_refstate-intrusion.xmf,142,1.11585e-05,-2.91528e-05,0,1.61767e-05,-9.83419e+08,-9.87883e+08,-9.84655e+08,1.79147e+06,0.0123244,-0.604268,0,0.604394,1088.21,-35801.1,0,35817.6,-1.79147e+06
step02_gravity_refstate-intrusion.xmf,143,8.25251e-06,-2.26667e-05,0,2.50891e-05,-9.68068e+08,-9.71492e+08,-9.68981e+08,2.77846e+06,0.0142563,-0.591471,0,0.591643,1662.31,-35239.7,0,35278.9,-2.77846e+06
step02_gravity_refstate-intrusion.xmf,144,1.88073e-05,-4.87053e-05,0,-1.48629e-05,-1.03277e+09,-1.04025e+09,-1.03485e+09,-1.64597e+06,-0.0277651,-0.527018,-0,0.527749,-1270.26,-37598,-0,37619.4,-1.64597e+06
step02_gravity_refstate-intrusion.xmf,145,2.04873e-05,-4.93309e-05,0,-8.71422e-06,-1.02937e+09,-1.0371e+09,-1.03164e+09,-965047,-0.0164392,-0.549088,-0,0.549334,-760.495,-37483.8,-0,37491.5,-965047
step02_gravity_refstate-intrusion.xmf,146,1.88432e-05,-4.5165e-05,0,-4.94242e-06,-1.01953e+09,-1.02662e+09,-1.02162e+09,-547343,-0.00754926,-0.572771,-0,0.57282,-397.07,-37125.3,-0,37127.4,-547343
step02_gravity_refstate-intrusion.xmf,147,1.83308e-05,-4.38222e-05,0,1.44344e-06,-1.01629e+09,-1.02317e+09,-1.01832e+09,159852,0.00197926,-0.580399,0,0.580402,108.371,-37007.5,0,37007.7,-159852
step02_gravity_refstate-intrusion.xmf,148,1.58289e-05,-3.93702e-05,0,8.65792e-06,-1.00744e+09,-1.01355e+09,-1.00919e+09,958812,0.00996232,-0.587795,0,0.58788,622.003,-36680.1,0,36685.4,-958812
step02_gravity_refstate-intrusion.xmf,149,1.03541e-05,-2.77746e-05,0,2.344e-05,-9.80855e+08,-9.85077e+08,-9.82001e+08,2.59583e+06,0.0169271,-0.584754,0,0.584999,1572.88,-35706,0,35740.6,-2.59583e+06
step02_gravity_refstate-intrusion.xmf,150,1.64332e-05,-4.71168e-05,0,-2.04163e-05,-1.03414e+09,-1.04118e+09,-1.03596e+09,-2.26098e+06,-0.0349908,-0.50777,-0,0.508974,-1636.51,-37636.5,-0,37672,-2.26098e+06
step02_gravity_refstate-intrusion.xmf,151,2.24881e-05,-5.12527e-05,0,-2.14713e-06,-1.03063e+09,-1.03879e+09,-1.03312e+09,-237782,-0.00453839,-0.554749,-0,0.554768,-202.117,-37537.8,-0,37538.3,-237782
step02_gravity_refstate-intrusion.xmf,152,1.39555e-05,-3.60314e-05,0,1.57382e-05,-1.00048e+09,-1.00601e+09,-1.00202e+09,1.74291e+06,0.0157679,-0.583776,0,0.583988,1094.47,-36422.9,0,36439.3,-1.74291e+06
step02_gravity_refstate-intrusion.xmf,153,1.25222e-05,-3.29593e-05,0,2.28827e-05,-9.94092e+08,-9.99129e+08,-9.95479e+08,2.53412e+06,0.0203331,-0.570936,0,0.571297,1557.44,-36188.9,0,36222.4,-2.53412e+06
step02_gravity_refstate-intrusion.xmf,154,1.84752e-05,-4.51632e-05,0,7.5304e-06,-1.02026e+09,-1.02731e+09,-1.02231e+09,833946,0.0113817,-0.568458,0,0.568572,596.058,-37149.6,0,37154.3,-833946
step02_gravity_refstate-intrusion.xmf,155,1.71415e-05,-4.31314e-05,0,1.44703e-05,-1.01762e+09,-1.0243e+09,-1.01952e+09,1.6025e+06,0.0194103,-0.55961,0,0.559947,1077.62,-37049.8,0,37065.5,-1.6025e+06
step02_gravity_refstate-intrusion.xmf,156,2.24045e-05,-5.11795e-05,0,3.29896e-06,-1.03061e+09,-1.03876e+09,-1.0331e+09,365340,0.00673769,-0.554031,0,0.554072,300.542,-37536.9,0,37538.2,-365340
step02_gravity_refstate-intrusion.xmf,157,1.47663e-05,-3.90104e-05,0,2.23148e-05,-1.00898e+09,-1.01493e+09,-1.01061e+09,2.47122e+06,0.0247059,-0.550942,0,0.551496,1567.71,-36730.1,0,36763.5,-2.47122e+06
step02_gravity_refstate-intrusion.xmf,158,2.0975e-05,-5.01745e-05,0,8.87051e-06,-1.03118e+09,-1.03906e+09,-1.0335e+09,982355,0.0175846,-0.544967,0,0.545251,792.955,-37550.7,0,37559.1,-982355
step02_gravity_refstate-intrusion.xmf,159,1.66142e-05,-4.4382e-05,0,2.17635e-05,-1.02313e+09,-1.02989e+09,-1.02497e+09,2.41018e+06,0.0297713,-0.528034,0,0.528873,1596.19,-37243.8,0,37278,-2.41018e+06
step02_gravity_refstate-intrusion.xmf,160,1.94303e-05,-4.8641e-05,0,1.50349e-05,-1.03216e+09,-1.0397e+09,-1.03431e+09,1.66502e+06,0.0275038,-0.528016,0,0.528731,1267.19,-37580.1,0,37601.5,-1.66502e+06
step02_gravity_refstate-intrusion.xmf,161,1.63665e-05,-4.70863e-05,0,2.03598e-05,-1.03415e+09,-1.04118e+09,-1.03597e+09,2.25473e+06,0.0349888,-0.507768,0,0.508972,1636.52,-37636.5,0,37672.1,-2.25473e+06
step02_gravity_refstate-crust.xmf,0,-1.7778e-06,8.08775e-07,0,-1.8693e-07,-1.09888e+09,-1.09871e+09,-1.09876e+09,-12823.4,-0.00417521,0.0308569,-0,0.0311381,-37663.8,-40000,-0,54941.4,-12823.4
step02_gravity_refstate-crust.xmf,1,-1.7954e-06,8.519e-07,0,-2.13087e-09,-1.09888e+09,-1.0987e+09,-1.09876e+09,-146.178,-4.29675e-19,0.0315189,-0,0.0315189,-40000,-40000,-0,56568.5,-146.178
step02_gravity_refstate-crust.xmf,2,-1.73585e-06,7.01035e-07,0,-3.71815e-07,-1.09888e+09,-1.09872e+09,-1.09876e+09,-25506.5,-0.00808184,0.0289773,-0,0.0300832,-35440.8,-40000,-0,53442,-25506.5
step02_gravity_refstate-crust.xmf,3,-1.66981e-06,5.35478e-07,0,-5.66484e-07,-1.09888e+09,-1.09873e+09,-1.09877e+09,-38860.8,-0.0116851,0.0260085,-0,0.0285129,-33325.6,-40000,-0,52063.3,-38860.8
step02_gravity_refstate-crust.xmf,4,-1.5885e-06,3.22063e-07,0,-7.77284e-07,-1.09888e+09,-1.09875e+09,-1.09877e+09,-53321.7,-0.0149658,0.0220418,-0,0.0266423,-31312.8,-40000,-0,50798.5,-53321.7
step02_gravity_refstate-crust.xmf,5,-1.49585e-06,6.77792e-08,0,-1.00891e-06,-1.09888e+09,-1.09878e+09,-1.09878e+09,-69211.2,-0.0179224,0.0171441,-0,0.0248019,-29397.5,-40000,-0,49640.9,-69211.2
step02_gravity_refstate-crust.xmf,6,-1.3988e-06,-2.20112e-07,0,-1.27064e-06,-1.09888e+09,-1.0988e+09,-1.09879e+09,-87166.1,-0.0205622,0.0113643,-0,0.0234937,-27575,-40000,-0,48583.7,-87166.1
step02_gravity_refstate-crust.xmf,7,-1.29992e-06,-5.36969e-07,0,-1.56543e-06,-1.09889e+09,-1.09883e+09,-1.0988e+09,-107389,-0.022906,0.00473718,-0,0.0233907,-25840.6,-40000,-0,47620.8,-107389
step02_gravity_refstate-crust.xmf,8,-1.20683e-06,-8.76663e-07,0,-1.90188e-06,-1.09889e+09,-1.09887e+09,-1.09881e+09,-130469,-0.0249765,-0.00270987,-0,0.0251231,-24190.1,-40000,-0,46745.7,-130469
step02_gravity_refstate-crust.xmf,9,-1.11921e-06,-1.24018e-06,0,-2.28198e-06,-1.0989e+09,-1.09891e+09,-1.09882e+09,-156544,-0.0268074,-0.0109577,-0,0.0289604,-22619.3,-40000,-0,45952.5,-156544
step02_gravity_refstate-crust.xmf,10,-1.04569e-06,-1.62374e-06,0,-2.71722e-06,-1.09891e+09,-1.09894e+09,-1.09883e+09,-186402,-0.0284275,-0.01999,-0,0.0347523,-21124.3,-40000,-0,45235.3,-186402
step02_gravity_refstate-crust.xmf,11,-9.83023e-07,-2.03205e-06,0,-3.21121e-06,-1.09892e+09,-1.09899e+09,-1.09885e+09,-220289,-0.0298736,-0.0297947,-0,0.0421919,-19701.4,-40000,-0,44588.6,-220289
step02_gravity_refstate-crust.xmf,12,-9.36383e-07,-2.46802e-06,0,-3.77259e-06,-1.09893e+09,-1.09903e+09,-1.09886e+09,-258799,-0.0311764,-0.0403609,-0,0.0509997,-18347,-40000,-0,44007,-258799
step02_gravity_refstate-crust.xmf,13,-8.86328e-07,-4.02477e-06,0,-5.9452e-06,-1.09899e+09,-1.0992e+09,-1.09893e+09,-407841,-0.0345105,-0.0765382,-0,0.0839587,-14661.8,-40000,-0,42602.4,-407841
step02_gravity_refstate-crust.xmf,14,-8.94726e-07,-3.41625e-06,0,-5.1036e-06,-1.09896e+09,-1.09914e+09,-1.0989e+09,-350107,-0.0334719,-0.0637415,-0,0.0719955,-15830.4,-40000,-0,43018.6,-350107
step02_gravity_refstate-crust.xmf,15,-9.07371e-07,-2.93739e-06,0,-4.41111e-06,-1.09895e+09,-1.09909e+09,-1.09888e+09,-302602,-0.032366,-0.0516791,-0,0.0609778,-17057.8,-40000,-0,43485.3,-302602
step02_gravity_refstate-crust.xmf,16,-8.88519e-07,-4.66972e-06,0,-6.86428e-06,-1.09902e+09,-1.09928e+09,-1.09896e+09,-470889,-0.0355026,-0.0900602,-0,0.0968053,-13548.9,-40000,-0,42232.4,-470889
step02_gravity_refstate-crust.xmf,17,-8.9934e-07,-5.40935e-06,0,-7.89827e-06,-1.09905e+09,-1.09936e+09,-1.09899e+09,-541821,-0.0364537,-0.104297,-0,0.110484,-12489.1,-40000,-0,41904.4,-541821
step02_gravity_refstate-crust.xmf,18,-9.03006e-07,-6.27088e-06,0,-9.05284e-06,-1.09909e+09,-1.09946e+09,-1.09903e+09,-621025,-0.0373676,-0.119234,-0,0.124953,-11479.4,-40000,-0,41614.6,-621025
step02_gravity_refstate-crust.xmf,19,-6.08011e-08,-1.62163e-05,0,-1.88116e-05,-1.09942e+09,-1.10052e+09,-1.09941e+09,-1.29048e+06,-0.0409162,-0.222048,-0,0.225786,-6341.87,-40000,-0,40499.6,-1.29048e+06
step02_gravity_refstate-crust.xmf,20,-3.99692e-07,-1.3679e-05,0,-1.67749e-05,-1.09935e+09,-1.10026e+09,-1.09932e+09,-1.15076e+06,-0.0407464,-0.203552,-0,0.20759,-7100.11,-40000,-0,40625.3,-1.15076e+06
step02_gravity_refstate-crust.xmf,21,-6.32683e-07,-1.15969e-05,0,-1.49542e-05,-1.09928e+09,-1.10004e+09,-1.09924e+09,-1.02586e+06,-0.0403378,-0.185528,-0,0.189863,-7894.42,-40000,-0,40771.6,-1.02586e+06
step02_gravity_refstate-crust.xmf,22,-7.79849e-07,-9.87052e-06,0,-1.32667e-05,-1.09923e+09,-1.09985e+09,-1.09917e+09,-910097,-0.0397513,-0.16804,-0,0.172678,-8727.16,-40000,-0,40941,-910097
step02_gravity_refstate-crust.xmf,23,-8.59924e-07,-8.43228e-06,0,-1.17078e-05,-1.09917e+09,-1.09969e+09,-1.09912e+09,-803157,-0.0390389,-0.151136,-0,0.156097,-9600.66,-40000,-0,41136,-803157
step02_gravity_refstate-crust.xmf,24,-8.96958e-07,-7.28212e-06,0,-1.03418e-05,-1.09913e+09,-1.09957e+09,-1.09907e+09,-709447,-0.0382337,-0.134857,-0,0.140172,-10517.3,-40000,-0,41359.6,-709447
step02_gravity_refstate-crust.xmf,25,4.43157e-07,-1.92819e-05,0,-2.08039e-05,-1.09949e+09,-1.10084e+09,-1.09952e+09,-1.42715e+06,-0.0407696,-0.240936,-0,0.244361,-5617.28,-40000,-0,40392.5,-1.42715e+06
step02_gravity_refstate-crust.xmf,26,2.1791e-06,-2.74975e-05,0,-2.49201e-05,-1.09965e+09,-1.10168e+09,-1.0998e+09,-1.70952e+06,-0.0390712,-0.279425,-0,0.282144,-4258.41,-40000,-0,40226,-1.70952e+06
step02_gravity_refstate-crust.xmf,27,1.19995e-06,-2.30123e-05,0,-2.28154e-05,-1.09957e+09,-1.10123e+09,-1.09965e+09,-1.56514e+06,-0.0401998,-0.260112,-0,0.2632,-4923.76,-40000,-0,40301.9,-1.56514e+06
step02_gravity_refstate-crust.xmf,28,3.63223e-06,-3.30828e-05,0,-2.65791e-05,-1.09972e+09,-1.10224e+09,-1.09997e+09,-1.82333e+06,-0.0371844,-0.298648,-0,0.300954,-3617.79,-40000,-0,40163.3,-1.82333e+06
step02_gravity_refstate-crust.xmf,29,5.68483e-06,-3.99684e-05,0,-2.73095e-05,-1.09979e+09,-1.10292e+09,-1.10018e+09,-1.87343e+06,-0.03427,-0.31738,-0,0.319225,-2997.53,-40000,-0,40112.2,-1.87343e+06
step02_gravity_refstate-crust.xmf,30,1.10324e-05,-5.5906e-05,0,-2.22271e-05,-1.09987e+09,-1.10446e+09,-1.10063e+09,-1.52478e+06,-0.0242033,-0.350283,-0,0.351118,-1793.25,-40000,-0,40040.2,-1.52478e+06
step02_gravity_refstate-crust.xmf,31,8.37966e-06,-4.86626e-05,0,-2.62309e-05,-1.09986e+09,-1.10377e+09,-1.10043e+09,-1.79944e+06,-0.0300106,-0.334936,-0,0.336278,-2391.83,-40000,-0,40071.4,-1.79944e+06
step02_gravity_refstate-crust.xmf,32,1.31671e-05,-6.22998e-05,0,-1.57993e-05,-1.09991e+09,-1.10508e+09,-1.10081e+09,-1.08384e+06,-0.0169584,-0.362205,-0,0.362602,-1195.5,-40000,-0,40017.9,-1.08384e+06
step02_gravity_refstate-crust.xmf,33,1.44088e-05,-6.61524e-05,0,-8.09706e-06,-1.09993e+09,-1.10546e+09,-1.10092e+09,-555459,-0.00871787,-0.369692,-0,0.369794,-597.755,-40000,-0,40004.5,-555459
step02_gravity_refstate-crust.xmf,34,1.48361e-05,-6.75669e-05,0,2.29042e-07,-1.09994e+09,-1.1056e+09,-1.10096e+09,15712.3,-7.67852e-06,-0.372231,-0,0.372231,0,-40000,0,40000,-15712.3
step02_gravity_refstate-crust.xmf,35,1.43988e-05,-6.62742e-05,0,8.30493e-06,-1.09994e+09,-1.10547e+09,-1.10093e+09,569718,0.00871906,-0.369689,0,0.369792,597.755,-40000,0,40004.5,-569718
step02_gravity_refstate-crust.xmf,36,1.32514e-05,-6.2675e-05,0,1.60114e-05,-1.09991e+09,-1.10512e+09,-1.10082e+09,1.09839e+06,0.0169568,-0.362202,0,0.362599,1195.5,-40000,0,40017.9,-1.09839e+06
step02_gravity_refstate-crust.xmf,37,1.11159e-05,-5.6604e-05,0,2.24044e-05,-1.09989e+09,-1.10454e+09,-1.10065e+09,1.53694e+06,0.0241996,-0.350282,0,0.351117,1793.25,-40000,0,40040.2,-1.53694e+06
step02_gravity_refstate-crust.xmf,38,8.39892e-06,-4.8682e-05,0,2.6226e-05,-1.09986e+09,-1.10377e+09,-1.10043e+09,1.79911e+06,0.0300094,-0.334934,0,0.336276,2391.83,-40000,0,40071.4,-1.79911e+06
step02_gravity_refstate-crust.xmf,39,5.76074e-06,-4.04811e-05,0,2.72872e-05,-1.0998e+09,-1.10297e+09,-1.1002e+09,1.8719e+06,0.0342669,-0.317376,0,0.319221,2997.53,-40000,0,40112.2,-1.8719e+06
step02_gravity_refstate-crust.xmf,40,3.67575e-06,-3.33262e-05,0,2.64816e-05,-1.09973e+09,-1.10227e+09,-1.09998e+09,1.81664e+06,0.0371895,-0.298648,0,0.300954,3617.79,-40000,0,40163.3,-1.81664e+06
step02_gravity_refstate-crust.xmf,41,2.21472e-06,-2.7621e-05,0,2.47886e-05,-1.09965e+09,-1.1017e+09,-1.0998e+09,1.7005e+06,0.0390739,-0.279427,0,0.282146,4258.41,-40000,0,40226,-1.7005e+06
step02_gravity_refstate-crust.xmf,42,1.18985e-06,-2.30029e-05,0,2.28166e-05,-1.09957e+09,-1.10123e+09,-1.09965e+09,1.56522e+06,0.0402001,-0.260113,0,0.263201,4923.76,-40000,0,40301.9,-1.56522e+06
step02_gravity_refstate-crust.xmf,43,4.65825e-07,-1.92968e-05,0,2.07478e-05,-1.09949e+09,-1.10084e+09,-1.09952e+09,1.4233e+06,0.0407692,-0.240937,0,0.244362,5617.28,-40000,0,40392.5,-1.4233e+06
step02_gravity_refstate-crust.xmf,44,-4.6623e-08,-1.62173e-05,0,1.87078e-05,-1.09941e+09,-1.10052e+09,-1.09941e+09,1.28336e+06,0.0409177,-0.222047,0,0.225786,6341.87,-40000,0,40499.6,-1.28336e+06
step02_gravity_refstate-crust.xmf,45,-3.98898e-07,-1.36756e-05,0,1.6775e-05,-1.09935e+09,-1.10026e+09,-1.09932e+09,1.15077e+06,0.0407462,-0.203552,0,0.20759,7100.11,-40000,0,40625.3,-1.15077e+06
step02_gravity_refstate-crust.xmf,46,-6.35826e-07,-1.15991e-05,0,1.4958e-05,-1.09928e+09,-1.10004e+09,-1.09924e+09,1.02612e+06,0.0403374,-0.185528,0,0.189863,7894.42,-40000,0,40771.6,-1.02612e+06
step02_gravity_refstate-crust.xmf,47,-7.78917e-07,-9.8801e-06,0,1.32705e-05,-1.09923e+09,-1.09985e+09,-1.09917e+09,910353,0.0397516,-0.16804,0,0.172678,8727.16,-40000,0,40941,-910353
step02_gravity_refstate-crust.xmf,48,-8.63378e-07,-8.43234e-06,0,1.17037e-05,-1.09917e+09,-1.09969e+09,-1.09912e+09,802871,0.0390401,-0.151136,0,0.156097,9600.66,-40000,0,41136,-802871
step02_gravity_refstate-crust.xmf,49,-8.97242e-07,-7.22194e-06,0,1.02929e-05,-1.09913e+09,-1.09956e+09,-1.09907e+09,706090,0.0382334,-0.134857,0,0.140172,10517.3,-40000,0,41359.6,-706090
step02_gravity_refstate-crust.xmf,50,-9.0925e-07,-6.21537e-06,0,9.01068e-06,-1.09909e+09,-1.09945e+09,-1.09902e+09,618133,0.0373672,-0.119234,0,0.124953,11479.4,-40000,0,41614.6,-618133
step02_gravity_refstate-crust.xmf,51,-9.04752e-07,-5.36181e-06,0,7.86075e-06,-1.09905e+09,-1.09935e+09,-1.09899e+09,539248,0.0364541,-0.104296,0,0.110484,12489.1,-40000,0,41904.4,-539248
step02_gravity_refstate-crust.xmf,52,-8.95555e-07,-4.62731e-06,0,6.83293e-06,-1.09902e+09,-1.09927e+09,-1.09895e+09,468739,0.035502,-0.0900598,0,0.0968047,13548.9,-40000,0,42232.4,-468739
step02_gravity_refstate-crust.xmf,53,-8.90038e-07,-3.98629e-06,0,5.91805e-06,-1.09899e+09,-1.0992e+09,-1.09893e+09,405978,0.0345106,-0.0765379,0,0.0839585,14661.8,-40000,0,42602.4,-405978
step02_gravity_refstate-crust.xmf,54,-1.79571e-06,8.51623e-07,0,2.03479e-09,-1.09888e+09,-1.0987e+09,-1.09876e+09,139.586,1.35423e-19,0.0315192,0,0.0315192,40000,-40000,0,56568.5,-139.586
step02_gravity_refstate-crust.xmf,55,-1.77889e-06,8.08482e-07,0,1.86264e-07,-1.09888e+09,-1.09871e+09,-1.09876e+09,12777.7,0.00417485,0.0308568,0,0.0311379,37663.8,-40000,0,54941.4,-12777.7
step02_gravity_refstate-crust.xmf,56,-8.93785e-07,-3.41834e-06,0,5.10603e-06,-1.09896e+09,-1.09914e+09,-1.0989e+09,350274,0.0334709,-0.0637413,0,0.0719948,15830.4,-40000,0,43018.6,-350274
step02_gravity_refstate-crust.xmf,57,-1.73522e-06,7.00235e-07,0,3.71301e-07,-1.09888e+09,-1.09872e+09,-1.09876e+09,25471.3,0.00808209,0.0289772,0,0.0300832,35440.8,-40000,0,53442,-25471.3
step02_gravity_refstate-crust.xmf,58,-1.67019e-06,5.35227e-07,0,5.66009e-07,-1.09888e+09,-1.09873e+09,-1.09877e+09,38828.2,0.011685,0.0260083,0,0.0285126,33325.6,-40000,0,52063.3,-38828.2
step02_gravity_refstate-crust.xmf,59,-1.58879e-06,3.21633e-07,0,7.76715e-07,-1.09888e+09,-1.09875e+09,-1.09877e+09,53282.6,0.014966,0.0220418,0,0.0266425,31312.8,-40000,0,50798.5,-53282.6
step02_gravity_refstate-crust.xmf,60,-1.49807e-06,7.76231e-08,0,1.00369e-06,-1.09888e+09,-1.09878e+09,-1.09878e+09,68852.8,0.0179221,0.0171443,0,0.0248018,29397.5,-40000,0,49640.9,-68852.8
step02_gravity_refstate-crust.xmf,61,-1.39878e-06,-2.20299e-07,0,1.27097e-06,-1.09888e+09,-1.0988e+09,-1.09879e+09,87188.6,0.0205624,0.0113643,0,0.0234938,27575,-40000,0,48583.7,-87188.6
step02_gravity_refstate-crust.xmf,62,-1.30075e-06,-5.35794e-07,0,1.56685e-06,-1.09889e+09,-1.09883e+09,-1.0988e+09,107486,0.0229053,0.0047374,0,0.0233901,25840.6,-40000,0,47620.8,-107486
step02_gravity_refstate-crust.xmf,63,-1.20659e-06,-8.76875e-07,0,1.90099e-06,-1.09889e+09,-1.09887e+09,-1.09881e+09,130408,0.0249772,-0.00270992,0,0.0251237,24190.1,-40000,0,46745.7,-130408
step02_gravity_refstate-crust.xmf,64,-9.10736e-07,-2.90455e-06,0,4.38511e-06,-1.09894e+09,-1.09908e+09,-1.09888e+09,300818,0.0323672,-0.0516794,0,0.0609786,17057.8,-40000,0,43485.3,-300818
step02_gravity_refstate-crust.xmf,65,-1.12051e-06,-1.2397e-06,0,2.28287e-06,-1.0989e+09,-1.09891e+09,-1.09882e+09,156605,0.0268067,-0.0109572,0,0.0289596,22619.3,-40000,0,45952.5,-156605
step02_gravity_refstate-crust.xmf,66,-9.40747e-07,-2.43862e-06,0,3.75194e-06,-1.09893e+09,-1.09903e+09,-1.09886e+09,257383,0.0311766,-0.0403608,0,0.0509998,18347,-40000,0,44007,-257383
step02_gravity_refstate-crust.xmf,67,-1.04597e-06,-1.62353e-06,0,2.7179e-06,-1.09891e+09,-1.09894e+09,-1.09883e+09,186448,0.0284272,-0.0199896,0,0.0347519,21124.3,-40000,0,45235.3,-186448
step02_gravity_refstate-crust.xmf,68,-9.86983e-07,-2.00687e-06,0,3.19358e-06,-1.09892e+09,-1.09899e+09,-1.09885e+09,219079,0.0298736,-0.0297945,0,0.0421917,19701.4,-40000,0,44588.6,-219079
step02_gravity_refstate-crust.xmf,69,1.0288e-06,-2.8246e-07,0,-9.45574e-07,-4.64235e+07,-4.65135e+07,-4.64941e+07,-64866.4,0.0641267,-0.0655319,0,0.0916879,-20852.4,-1693.82,-0,20921.1,-64866.4
step02_gravity_refstate-crust.xmf,70,1.79609e-06,-6.76899e-07,0,-2.20527e-08,170813,1165.93,47601.2,-1512.82,0.0743072,-0.0579092,0,0.0942074,-21926.5,0,-0,21926.5,-1512.82
step02_gravity_refstate-crust.xmf,71,7.86523e-07,-2.97209e-07,0,-1.05111e-08,74767,422.952,20811.5,-721.062,0.0772454,-0.0756744,0,0.108136,-19656.4,0,-0,19656.4,-721.062
step02_gravity_refstate-crust.xmf,72,1.8544e-06,-5.83051e-07,0,-8.36426e-07,-4.56999e+07,-4.58671e+07,-4.58271e+07,-57378.8,0.060963,-0.0477948,0,0.077465,-23130.1,-1670.35,-0,23190.3,-57378.8
step02_gravity_refstate-crust.xmf,73,5.552e-07,3.38996e-09,0,-1.93889e-06,-9.87847e+07,-9.88225e+07,-9.88228e+07,-133008,0.0545468,-0.0741665,0,0.0920653,-19785,-3598.61,-0,20109.6,-133008
step02_gravity_refstate-crust.xmf,74,1.94876e-07,5.91282e-08,0,-1.08412e-06,-4.77997e+07,-4.7809e+07,-4.7813e+07,-74370.6,0.0651959,-0.0837067,0,0.106101,-18660.6,-1741.07,-0,18741.6,-74370.6
step02_gravity_refstate-crust.xmf,75,-1.23197e-07,2.52655e-07,0,-1.85978e-06,-8.74437e+07,-8.74179e+07,-8.74353e+07,-127581,0.0569969,-0.0909406,0,0.107326,-17848.5,-3183.37,-0,18130.1,-127581
step02_gravity_refstate-crust.xmf,76,-5.73919e-07,4.89309e-07,0,-2.28396e-06,-1.05914e+08,-1.05841e+08,-1.05875e+08,-156679,0.0533022,-0.10369,0,0.116588,-16440.1,-3854.35,-0,16885.9,-156679
step02_gravity_refstate-crust.xmf,77,3.90657e-08,2.6029e-07,0,-2.56726e-06,-1.29974e+08,-1.29959e+08,-1.29977e+08,-176114,0.0501074,-0.0891464,0,0.102264,-18095.4,-4732.4,-0,18704,-176114
step02_gravity_refstate-crust.xmf,78,-3.7954e-07,5.02239e-07,0,-3.07091e-06,-1.55815e+08,-1.55755e+08,-1.55789e+08,-210664,0.0464983,-0.104011,0,0.113932,-16503.7,-5671.85,-0,17451.2,-210664
step02_gravity_refstate-crust.xmf,79,2.67385e-06,-1.01044e-06,0,-2.32858e-08,254174,1431.91,70748.2,-1597.4,0.0691058,-0.0409821,0,0.0803439,-24260.6,0,-0,24260.6,-1597.4
step02_gravity_refstate-crust.xmf,80,1.25812e-06,-3.07332e-07,0,-1.53707e-06,-8.56158e+07,-8.57232e+07,-8.57021e+07,-105443,0.0548797,-0.0559846,0,0.0783968,-21987.8,-3121.54,-0,22208.3,-105443
step02_gravity_refstate-crust.xmf,81,-1.01104e-06,7.45641e-07,0,-2.76985e-06,-1.32616e+08,-1.32496e+08,-1.32547e+08,-190011,0.0481964,-0.118154,0,0.127606,-14902.8,-4825.09,-0,15664.4,-190011
step02_gravity_refstate-crust.xmf,82,-7.24804e-07,4.35551e-07,0,-1.30197e-06,-5.40491e+07,-5.39695e+07,-5.39994e+07,-89315.3,0.0631828,-0.1031,0,0.12092,-16408.3,-1965.45,-0,16525.6,-89315.3
step02_gravity_refstate-crust.xmf,83,-2.87928e-07,1.1061e-07,0,-1.83535e-08,-27293.5,46.1549,-7541.68,-1259.05,0.0778346,-0.0937757,0,0.121869,-17443.5,0,-0,17443.5,-1259.05
step02_gravity_refstate-crust.xmf,84,5.35212e-07,3.93933e-08,0,-2.71272e-06,-1.53372e+08,-1.53406e+08,-1.53409e+08,-186093,0.0464852,-0.0738089,0,0.0872275,-19830.7,-5585.9,-0,20602.4,-186093
step02_gravity_refstate-crust.xmf,85,1.93973e-07,2.431e-07,0,-3.25795e-06,-1.8071e+08,-1.80706e+08,-1.80723e+08,-223496,0.0440036,-0.088508,0,0.0988432,-18216.4,-6580.07,-0,19368.4,-223496
step02_gravity_refstate-crust.xmf,86,-1.48987e-07,4.69748e-07,0,-3.7187e-06,-2.05347e+08,-2.05305e+08,-2.05337e+08,-255103,0.0418274,-0.103828,0,0.111936,-16617,-7475.99,-0,18221.3,-255103
step02_gravity_refstate-crust.xmf,87,-7.37952e-07,7.65778e-07,0,-3.51931e-06,-1.81722e+08,-1.81619e+08,-1.81671e+08,-241424,0.0430103,-0.11899,0,0.126525,-14959.2,-6613.97,-0,16356.1,-241424
step02_gravity_refstate-crust.xmf,88,2.50168e-06,-8.17164e-07,0,-8.07349e-07,-5.22317e+07,-5.24594e+07,-5.24033e+07,-55384.1,0.0545713,-0.0310533,0,0.062788,-25463.4,-1910.4,-0,25535,-55384.1
step02_gravity_refstate-crust.xmf,89,1.9043e-06,-5.41498e-07,0,-1.39954e-06,-9.03553e+07,-9.0523e+07,-9.04859e+07,-96008.3,0.050408,-0.0383166,0,0.0633177,-24289.8,-3296.34,-0,24512.5,-96008.3
step02_gravity_refstate-crust.xmf,90,1.03291e-06,-1.72892e-07,0,-2.28077e-06,-1.35823e+08,-1.35906e+08,-1.35894e+08,-156461,0.047397,-0.058836,0,0.0755523,-21584.5,-4948.69,-0,22144.5,-156461
step02_gravity_refstate-crust.xmf,91,3.43261e-06,-1.29753e-06,0,-2.86217e-08,326287,1799.13,90809.4,-1963.45,0.0617713,-0.0253806,0,0.0667822,-26665.5,0,-0,26665.5,-1963.45
step02_gravity_refstate-crust.xmf,92,-4.75745e-07,7.52049e-07,0,-4.12196e-06,-2.29044e+08,-2.2896e+08,-2.29012e+08,-282766,0.0397564,-0.119508,0,0.125947,-15042,-8337.83,-0,17198.3,-282766
step02_gravity_refstate-crust.xmf,93,-1.07563e-06,1.07221e-06,0,-3.88797e-06,-2.08021e+08,-2.07873e+08,-2.07947e+08,-266715,0.0396967,-0.13425,0,0.139996,-13427.8,-7570.5,-0,15414.9,-266715
step02_gravity_refstate-crust.xmf,94,-1.16916e-06,7.01384e-07,0,-2.00752e-06,-8.88032e+07,-8.86748e+07,-8.8723e+07,-137716,0.054985,-0.115605,0,0.128015,-15059.2,-3229.32,-0,15401.6,-137716
step02_gravity_refstate-crust.xmf,95,-2.35701e-07,7.3003e-07,0,-4.63271e-06,-2.73918e+08,-2.73852e+08,-2.73902e+08,-317804,0.0378776,-0.120781,0,0.126581,-15035.8,-9972.45,-0,18042.3,-317804
step02_gravity_refstate-crust.xmf,96,-7.88338e-07,1.0928e-06,0,-4.48154e-06,-2.55116e+08,-2.54987e+08,-2.55062e+08,-307434,0.0376651,-0.135414,0,0.140555,-13502.3,-9286.25,-0,16387.4,-307434
step02_gravity_refstate-crust.xmf,97,1.44622e-06,-3.4757e-07,0,-1.96729e-06,-1.2563e+08,-1.25753e+08,-1.25729e+08,-134956,0.0469391,-0.0465963,0,0.06614,-23116.2,-4578.99,-0,23565.3,-134956
step02_gravity_refstate-crust.xmf,98,9.86619e-07,-1.52444e-07,0,-2.84296e-06,-1.83105e+08,-1.83183e+08,-1.83173e+08,-195027,0.0418103,-0.0592857,0,0.0725458,-21497.4,-6669.88,-0,22508.4,-195027
step02_gravity_refstate-crust.xmf,99,6.37486e-07,2.74079e-09,0,-3.30353e-06,-2.04799e+08,-2.04843e+08,-2.04843e+08,-226622,0.0410214,-0.0731472,0,0.0838646,-19909.3,-7458.5,-0,21260.5,-226622
step02_gravity_refstate-crust.xmf,100,2.99047e-06,-9.79738e-07,0,-7.77902e-07,-6.48328e+07,-6.51051e+07,-6.50379e+07,-53364.1,0.0450823,-0.0140776,0,0.0472291,-28130.2,-2370.88,-0,28230,-53364.1
step02_gravity_refstate-crust.xmf,101,-1.36793e-06,1.04256e-06,0,-3.20753e-06,-1.58561e+08,-1.58395e+08,-1.58467e+08,-220036,0.0434301,-0.132981,0,0.139893,-13357.8,-5768.64,-0,14550.2,-220036
step02_gravity_refstate-crust.xmf,102,-1.74435e-06,9.97186e-07,0,-2.27655e-06,-1.02064e+08,-1.01876e+08,-1.01945e+08,-156172,0.0502718,-0.131336,0,0.140629,-13307,-3710.24,-0,13814.6,-156172
step02_gravity_refstate-crust.xmf,103,-1.69602e-06,8.02578e-07,0,-1.22432e-06,-4.9363e+07,-4.91916e+07,-4.92467e+07,-83988.4,0.0616138,-0.121641,0,0.136355,-14237.9,-1791.49,-0,14350.2,-83988.4
step02_gravity_refstate-crust.xmf,104,-1.41171e-06,5.38934e-07,0,-2.38944e-08,-133964,-149.875,-37120.7,-1639.16,0.0760339,-0.111696,0,0.135119,-15281,0,-0,15281,-1639.16
step02_gravity_refstate-crust.xmf,105,3.22827e-08,4.42952e-07,0,-4.24942e-06,-2.51654e+08,-2.51626e+08,-2.51656e+08,-291510,0.0389199,-0.105461,0,0.112413,-16527.8,-9162.53,-0,18897.6,-291510
step02_gravity_refstate-crust.xmf,106,-5.04647e-07,1.10264e-06,0,-4.99841e-06,-2.9919e+08,-2.9908e+08,-2.99155e+08,-342891,0.0368229,-0.136402,0,0.141285,-13580.6,-10892,-0,17408.8,-342891
step02_gravity_refstate-crust.xmf,107,4.03243e-07,1.70423e-07,0,-3.85753e-06,-2.35239e+08,-2.35255e+08,-2.35267e+08,-264627,0.0394843,-0.0877052,0,0.0961832,-18345.9,-8566.01,-0,20247.2,-264627
step02_gravity_refstate-crust.xmf,108,4.07189e-06,-1.54972e-06,0,-2.15276e-08,386604,962.161,107273,-1476.79,0.0524846,-0.011583,0,0.0537476,-29148.2,0,-0,29148.2,-1476.79
step02_gravity_refstate-crust.xmf,109,2.26507e-06,-6.64729e-07,0,-1.39263e-06,-1.07615e+08,-1.07816e+08,-1.0777e+08,-95534.2,0.0436214,-0.02403,0,0.0498023,-26295.8,-3925.95,-0,26587.3,-95534.2
step02_gravity_refstate-crust.xmf,110,1.75224e-06,-4.63766e-07,0,-1.95052e-06,-1.42468e+08,-1.4262e+08,-1.42588e+08,-133806,0.0421394,-0.0342123,0,0.054279,-24722.9,-5193.07,-0,25262.5,-133806
step02_gravity_refstate-crust.xmf,111,1.37489e-06,-3.24264e-07,0,-2.41078e-06,-1.68438e+08,-1.68555e+08,-1.68533e+08,-165380,0.0412891,-0.0447111,0,0.0608594,-23290,-6137.22,-0,24085.1,-165380
step02_gravity_refstate-crust.xmf,112,1.05145e-06,-2.0765e-07,0,-3.26734e-06,-2.28911e+08,-2.28998e+08,-2.28984e+08,-224139,0.03756,-0.0579507,0,0.0690582,-21617.8,-8337.68,-0,23170,-224139
step02_gravity_refstate-crust.xmf,113,-1.05001e-06,2.00158e-06,0,-5.53733e-06,-3.46734e+08,-3.46524e+08,-3.46662e+08,-379861,0.0352608,-0.164229,0,0.167972,-11150.4,-12622,-0,16841.8,-379861
step02_gravity_refstate-crust.xmf,114,-7.53124e-07,1.51338e-06,0,-5.29744e-06,-3.23472e+08,-3.23317e+08,-3.23421e+08,-363404,0.0360063,-0.150221,0,0.154476,-12352.2,-11775.6,-0,17065.8,-363404
step02_gravity_refstate-crust.xmf,115,-4.51303e-07,1.47751e-06,0,-5.76739e-06,-3.64319e+08,-3.64187e+08,-3.64288e+08,-395643,0.0366233,-0.151144,0,0.155517,-12473.9,-13263.9,-0,18207.9,-395643
step02_gravity_refstate-crust.xmf,116,-1.05445e-06,1.50479e-06,0,-4.77258e-06,-2.79703e+08,-2.79527e+08,-2.79631e+08,-327399,0.035942,-0.14943,0,0.153692,-12192.5,-10180.9,-0,15884.2,-327399
step02_gravity_refstate-crust.xmf,117,-1.36552e-06,1.4426e-06,0,-4.18548e-06,-2.34049e+08,-2.33857e+08,-2.33956e+08,-287124,0.0367572,-0.148635,0,0.153113,-12018.2,-8517.51,-0,14730.4,-287124
step02_gravity_refstate-crust.xmf,118,-1.69372e-06,1.37484e-06,0,-3.53356e-06,-1.86134e+08,-1.85924e+08,-1.86018e+08,-242402,0.0389001,-0.147555,0,0.152596,-11864.4,-6771.69,-0,13660.9,-242402
step02_gravity_refstate-crust.xmf,119,-2.06318e-07,1.03874e-06,0,-5.43916e-06,-3.4082e+08,-3.40734e+08,-3.40806e+08,-373126,0.0367545,-0.136744,0,0.141598,-13702.6,-12408.7,-0,18486.1,-373126
step02_gravity_refstate-crust.xmf,120,7.80071e-09,6.88913e-07,0,-5.08196e-06,-3.17239e+08,-3.17193e+08,-3.1724e+08,-348622,0.0369785,-0.122405,0,0.127869,-14986.6,-11550.5,-0,18921.2,-348622
step02_gravity_refstate-crust.xmf,121,2.1697e-07,4.02379e-07,0,-4.67931e-06,-2.92856e+08,-2.92844e+08,-2.92871e+08,-321001,0.0373333,-0.107492,0,0.11379,-16388,-10663.2,-0,19551.8,-321001
step02_gravity_refstate-crust.xmf,122,3.57275e-06,-1.22456e-06,0,-5.32133e-07,-5.69025e+07,-5.72316e+07,-5.71476e+07,-36504.3,0.0376145,-0.00111375,0,0.037631,-30736.1,-2084.15,-0,30806.7,-36504.3
step02_gravity_refstate-crust.xmf,123,4.5045e-06,-1.72544e-06,0,-3.14709e-09,427208,-165.959,118199,-215.89,0.0414106,-4.11197e-05,0,0.0414106,-31715.7,0,-0,31715.7,-215.89
step02_gravity_refstate-crust.xmf,124,1.23957e-06,-2.84653e-07,0,-2.84783e-06,-2.05305e+08,-2.0541e+08,-2.0539e+08,-195361,0.0382108,-0.0482959,0,0.0615838,-22792.3,-7478.91,-0,23988,-195361
step02_gravity_refstate-crust.xmf,125,7.91202e-07,-9.06796e-08,0,-3.69858e-06,-2.49611e+08,-2.49672e+08,-2.49665e+08,-253722,0.0374736,-0.0711889,0,0.0804496,-20117,-9090.4,-0,22075.5,-253722
step02_gravity_refstate-crust.xmf,126,2.46845e-06,-7.29004e-07,0,-1.37248e-06,-1.32557e+08,-1.32776e+08,-1.32726e+08,-94152.4,0.0356453,-0.0106627,0,0.037206,-28358.6,-4834.73,-0,28767.8,-94152.4
step02_gravity_refstate-crust.xmf,127,-7.61373e-07,1.99977e-06,0,-6.04219e-06,-3.86286e+08,-3.86097e+08,-3.86234e+08,-414494,0.0364761,-0.165739,0,0.169705,-11280.7,-14063.2,-0,18028.5,-414494
step02_gravity_refstate-crust.xmf,128,-1.32774e-06,1.97681e-06,0,-5.0119e-06,-3.05559e+08,-3.05332e+08,-3.05468e+08,-343817,0.0344611,-0.162866,0,0.166472,-10989,-11121.9,-0,15635,-343817
step02_gravity_refstate-crust.xmf,129,-2.02934e-06,1.30613e-06,0,-2.83257e-06,-1.3865e+08,-1.38421e+08,-1.38511e+08,-194314,0.0426923,-0.146148,0,0.152256,-11758.6,-5041.51,-0,12793.8,-194314
step02_gravity_refstate-crust.xmf,130,-2.57215e-06,1.15275e-06,0,-1.23906e-06,-5.08146e+07,-5.0559e+07,-5.06381e+07,-84999.6,0.0570459,-0.138333,0,0.149634,-12232.3,-1841.33,-0,12370.1,-84999.6
step02_gravity_refstate-crust.xmf,131,-2.55857e-06,9.72443e-07,0,-2.79896e-08,-242979,-751.368,-67461,-1920.09,0.0718684,-0.128918,0,0.147597,-13162.3,0,-0,13162.3,-1920.09
step02_gravity_refstate-crust.xmf,132,-1.29645e-07,1.38747e-06,0,-6.20048e-06,-4.03792e+08,-4.03688e+08,-4.03783e+08,-425353,0.037589,-0.152044,0,0.156622,-12576.4,-14702.1,-0,19347.3,-425353
step02_gravity_refstate-crust.xmf,133,4.18041e-07,1.94957e-07,0,-4.31636e-06,-2.73859e+08,-2.73874e+08,-2.73887e+08,-296102,0.0376213,-0.0941043,0,0.101346,-17709,-9972.09,-0,20323.7,-296102
step02_gravity_refstate-crust.xmf,134,1.07316e-07,9.32262e-07,0,-5.84079e-06,-3.8189e+08,-3.81833e+08,-3.81897e+08,-400678,0.0371512,-0.137283,0,0.142221,-13787.6,-13905,-0,19581.8,-400678
step02_gravity_refstate-crust.xmf,135,2.92553e-06,-9.14416e-07,0,-9.81992e-07,-1.07982e+08,-1.08246e+08,-1.08183e+08,-67364.7,0.0337272,-0.00224209,0,0.0338017,-30076,-3941.63,-0,30333.2,-67364.7
step02_gravity_refstate-crust.xmf,136,3.92478e-06,-1.37667e-06,0,-3.48162e-07,-5.39689e+07,-5.43326e+07,-5.42382e+07,-23883.9,0.0286138,0.00846519,0,0.0298397,-33212,-1978.54,-0,33270.9,-23883.9
step02_gravity_refstate-crust.xmf,137,4.93017e-06,-1.87646e-06,0,-1.48002e-08,468089,1154.55,129880,-1015.3,0.0287897,0.00878182,0,0.0300993,-34375.2,0,-0,34375.2,-1015.3
step02_gravity_refstate-crust.xmf,138,1.99393e-06,-5.57186e-07,0,-1.90005e-06,-1.66078e+08,-1.66253e+08,-1.66215e+08,-130343,0.036016,-0.0209485,0,0.0416653,-26566.3,-6053.44,-0,27247.2,-130343
step02_gravity_refstate-crust.xmf,139,1.58829e-06,-4.23442e-07,0,-2.49202e-06,-2.00172e+08,-2.0031e+08,-2.00281e+08,-170953,0.036031,-0.0336589,0,0.0493068,-24672.6,-7293.22,-0,25727.9,-170953
step02_gravity_refstate-crust.xmf,140,1.37851e-06,-3.77191e-07,0,-2.99601e-06,-2.39382e+08,-2.39503e+08,-2.39477e+08,-205526,0.0344465,-0.0419026,0,0.0542438,-23531.7,-8719.94,-0,25095.4,-205526
step02_gravity_refstate-crust.xmf,141,1.19073e-06,-3.25158e-07,0,-3.54809e-06,-2.74858e+08,-2.74962e+08,-2.7494e+08,-243399,0.0340732,-0.0544943,0,0.0642699,-21965.3,-10010.8,-0,24139,-243399
step02_gravity_refstate-crust.xmf,142,-4.30649e-07,1.94589e-06,0,-6.51977e-06,-4.23754e+08,-4.23591e+08,-4.23724e+08,-447256,0.0379366,-0.166798,0,0.171058,-11423.9,-15428.4,-0,19197.5,-447256
step02_gravity_refstate-crust.xmf,143,-1.14563e-06,2.66948e-06,0,-6.26016e-06,-4.05905e+08,-4.05643e+08,-4.05826e+08,-429447,0.0361506,-0.180321,0,0.183909,-10129.4,-14776.9,-0,17915.4,-429447
step02_gravity_refstate-crust.xmf,144,-1.40959e-06,2.63242e-06,0,-5.72725e-06,-3.69174e+08,-3.68897e+08,-3.69078e+08,-392889,0.0344694,-0.178406,0,0.181706,-9976.42,-13438.5,-0,16736.9,-392889
step02_gravity_refstate-crust.xmf,145,-1.64257e-06,2.51899e-06,0,-5.17678e-06,-3.29932e+08,-3.29646e+08,-3.29819e+08,-355127,0.0331153,-0.17611,0,0.179196,-9836.48,-12008.7,-0,15523.1,-355127
step02_gravity_refstate-crust.xmf,146,-1.64352e-06,1.9076e-06,0,-4.42218e-06,-2.60837e+08,-2.60593e+08,-2.60724e+08,-303361,0.0341631,-0.162325,0,0.165881,-10712.6,-9492.33,-0,14313.1,-303361
step02_gravity_refstate-crust.xmf,147,-1.99205e-06,1.77877e-06,0,-3.74958e-06,-2.12234e+08,-2.11975e+08,-2.12097e+08,-257222,0.0348992,-0.161533,0,0.16526,-10433.1,-7721.28,-0,12979.5,-257222
step02_gravity_refstate-crust.xmf,148,-2.34077e-06,1.64418e-06,0,-3.06968e-06,-1.63801e+08,-1.63527e+08,-1.6364e+08,-210580,0.0372707,-0.159679,0,0.163971,-10292.3,-5956.4,-0,11891.6,-210580
step02_gravity_refstate-crust.xmf,149,-2.41543e-06,1.26852e-06,0,-2.08242e-06,-9.5209e+07,-9.49563e+07,-9.50433e+07,-142854,0.0478405,-0.145038,0,0.152724,-11646.8,-3458.37,-0,12149.4,-142854
step02_gravity_refstate-crust.xmf,150,-8.51086e-07,2.6326e-06,0,-6.73675e-06,-4.37829e+08,-4.3759e+08,-4.3777e+08,-462141,0.0378625,-0.181317,0,0.185228,-10309.4,-15940.2,-0,18983.5,-462141
step02_gravity_refstate-crust.xmf,151,-1.4414e-06,3.56091e-06,0,-6.88466e-06,-4.52469e+08,-4.52126e+08,-4.5237e+08,-472288,0.0372419,-0.19827,0,0.201737,-9039.42,-16472.3,-0,18789.5,-472288
step02_gravity_refstate-crust.xmf,152,-7.15405e-07,2.77422e-06,0,-7.19834e-06,-4.68849e+08,-4.68609e+08,-4.688e+08,-493806,0.0393529,-0.187112,0,0.191205,-10088.8,-17070.3,-0,19828.7,-493806
step02_gravity_refstate-crust.xmf,153,7.47987e-07,-3.80791e-08,0,-4.16041e-06,-2.82633e+08,-2.82687e+08,-2.82684e+08,-285404,0.0364165,-0.0805532,0,0.0884024,-19108.2,-10292.5,-0,21703.9,-285404
step02_gravity_refstate-crust.xmf,154,2.94413e-07,5.8077e-07,0,-5.45965e-06,-3.58812e+08,-3.58792e+08,-3.58832e+08,-374532,0.0367436,-0.122853,0,0.12823,-15034.7,-13065,-0,19918.2,-374532
step02_gravity_refstate-crust.xmf,155,6.22835e-07,9.13231e-08,0,-4.628e-06,-3.11748e+08,-3.11785e+08,-3.11791e+08,-317481,0.0362039,-0.0937613,0,0.100508,-17763.4,-11352.2,-0,21081.1,-317481
step02_gravity_refstate-crust.xmf,156,4.53464e-07,3.10989e-07,0,-5.05425e-06,-3.34714e+08,-3.34724e+08,-3.34745e+08,-346722,0.0364419,-0.108513,0,0.114469,-16341.7,-12187.9,-0,20386.1,-346722
step02_gravity_refstate-crust.xmf,157,4.41342e-07,7.71586e-07,0,-6.19e-06,-4.21338e+08,-4.21316e+08,-4.21369e+08,-424634,0.0378083,-0.137673,0,0.14277,-13859.7,-15342.2,-0,20675.5,-424634
step02_gravity_refstate-crust.xmf,158,3.13752e-06,-9.76515e-07,0,-7.92829e-07,-1.16293e+08,-1.16576e+08,-1.16509e+08,-54388.1,0.0259853,0.0080838,0,0.0272137,-32366.4,-4244.96,-0,32643.6,-54388.1
step02_gravity_refstate-crust.xmf,159,4.20622e-06,-1.46343e-06,0,-2.32436e-07,-5.32305e+07,-5.36195e+07,-5.35191e+07,-15945.1,0.0184849,0.0152472,0,0.0239618,-35704.7,-1952.66,-0,35758,-15945.1
step02_gravity_refstate-crust.xmf,160,5.15046e-06,-1.95896e-06,0,-8.22694e-09,489062,1356.07,135741,-564.368,0.0148796,0.0144196,0,0.0207202,-37134.2,0,-0,37134.2,-564.368
step02_gravity_refstate-crust.xmf,161,1.03617e-06,-2.69965e-07,0,-4.00663e-06,-3.02801e+08,-3.02891e+08,-3.02873e+08,-274855,0.0341991,-0.0668381,0,0.0750794,-20552.5,-11027.6,-0,23324.1,-274855
step02_gravity_refstate-crust.xmf,162,2.54081e-06,-7.63163e-07,0,-1.26015e-06,-1.58253e+08,-1.5848e+08,-1.58427e+08,-86446.1,0.0278671,0.00114727,0,0.0278907,-30457.1,-5770.45,-0,30999,-86446.1
step02_gravity_refstate-crust.xmf,163,2.15965e-06,-6.26803e-07,0,-1.75355e-06,-1.91071e+08,-1.91262e+08,-1.91219e+08,-120294,0.0295188,-0.00792391,0,0.0305638,-28583.7,-6963.9,-0,29419.8,-120294
step02_gravity_refstate-crust.xmf,164,-1.88606e-06,2.4128e-06,0,-4.62569e-06,-2.90072e+08,-2.89777e+08,-2.89943e+08,-317322,0.0321851,-0.174401,0,0.177346,-9636.83,-10556.5,-0,14293.6,-317322
step02_gravity_refstate-crust.xmf,165,-2.74286e-06,1.53865e-06,0,-2.33965e-06,-1.15076e+08,-1.14782e+08,-1.14888e+08,-160500,0.0414701,-0.157742,0,0.163102,-10180.3,-4180.74,-0,11005.3,-160500
step02_gravity_refstate-crust.xmf,166,-3.37893e-06,1.50105e-06,0,-1.30308e-06,-5.71623e+07,-5.68275e+07,-5.69305e+07,-89391.1,0.0495144,-0.15508,0,0.162793,-10108.6,-2069.7,-0,10318.3,-89391.1
step02_gravity_refstate-crust.xmf,167,-3.67487e-06,1.39097e-06,0,-3.69714e-08,-349235,-1717.87,-97138.7,-2536.24,0.0654165,-0.144919,0,0.159,-11080.7,0,-0,11080.7,-2536.24
step02_gravity_refstate-crust.xmf,168,-1.60343e-06,3.43194e-06,0,-6.36586e-06,-4.2081e+08,-4.20465e+08,-4.207e+08,-436698,0.0354477,-0.193861,0,0.197075,-9071.36,-15318.8,-0,17803.3,-436698
step02_gravity_refstate-crust.xmf,169,-1.26691e-06,3.68305e-06,0,-7.42e-06,-4.83246e+08,-4.82906e+08,-4.83159e+08,-509012,0.0391534,-0.203085,0,0.206825,-8981.03,-17593.6,-0,19753.3,-509012
step02_gravity_refstate-crust.xmf,170,2.30744e-07,1.22084e-06,0,-6.58994e-06,-4.41733e+08,-4.41666e+08,-4.41749e+08,-452070,0.0387098,-0.15253,0,0.157365,-12686.5,-16084.6,-0,20485.6,-452070
step02_gravity_refstate-crust.xmf,171,-8.56742e-08,1.86438e-06,0,-7.01302e-06,-4.62685e+08,-4.62552e+08,-4.6268e+08,-481093,0.0395806,-0.169369,0,0.173933,-11434,-16847.1,-0,20360.7,-481093
step02_gravity_refstate-crust.xmf,172,-4.80078e-07,2.81091e-06,0,-7.70152e-06,-5.0028e+08,-5.00054e+08,-5.00247e+08,-528324,0.0411176,-0.19176,0,0.196119,-9979.67,-18215.6,-0,20770.2,-528324
step02_gravity_refstate-crust.xmf,173,6.03795e-07,4.20248e-07,0,-5.782e-06,-3.99887e+08,-3.999e+08,-3.99929e+08,-396645,0.0368919,-0.123074,0,0.128484,-15082.2,-14561.4,-0,20964.4,-396645
step02_gravity_refstate-crust.xmf,174,3.53038e-06,-1.14244e-06,0,-5.05572e-07,-9.82518e+07,-9.85723e+07,-9.84939e+07,-34682.3,0.0206729,0.0140789,0,0.0250117,-34373.9,-3589.47,-0,34560.8,-34682.3
step02_gravity_refstate-crust.xmf,175,4.28129e-06,-1.49893e-06,0,-9.96772e-08,-5.59944e+07,-5.6391e+07,-5.62881e+07,-6837.86,0.00886221,0.0189229,0,0.0208954,-37941.8,-2053.53,-0,37997.4,-6837.86
step02_gravity_refstate-crust.xmf,176,5.17405e-06,-1.96422e-06,0,1.13657e-08,491460,1774.9,136520,779.685,1.82956e-18,0.0164098,0,0.0164098,-40000,0,-0,40000,-779.685
step02_gravity_refstate-crust.xmf,177,1.81936e-06,-5.34905e-07,0,-2.28528e-06,-2.23746e+08,-2.23907e+08,-2.2387e+08,-156770,0.0305936,-0.018845,0,0.035932,-26710.6,-8152.21,-0,27926.9,-156770
step02_gravity_refstate-crust.xmf,178,1.58534e-06,-4.97228e-07,0,-2.7972e-06,-2.59924e+08,-2.60067e+08,-2.60032e+08,-191888,0.0306036,-0.0289969,0,0.0421592,-25166.1,-9468.42,-0,26888.4,-191888
step02_gravity_refstate-crust.xmf,179,1.43553e-06,-4.91288e-07,0,-3.29208e-06,-2.95527e+08,-2.95659e+08,-2.95625e+08,-225837,0.0306358,-0.0396109,0,0.0500757,-23706.7,-10764,-0,26036,-225837
step02_gravity_refstate-crust.xmf,180,1.33207e-06,-4.78327e-07,0,-3.77608e-06,-3.24941e+08,-3.25066e+08,-3.25033e+08,-259039,0.0312811,-0.0519092,0,0.0606059,-22178.2,-11834.5,-0,25138.2,-259039
step02_gravity_refstate-crust.xmf,181,-1.84768e-06,3.36653e-06,0,-5.81463e-06,-3.88384e+08,-3.88026e+08,-3.88257e+08,-398884,0.0334173,-0.192293,0,0.195175,-8843.36,-14137.2,-0,16675.3,-398884
step02_gravity_refstate-crust.xmf,182,-2.04235e-06,3.20831e-06,0,-5.24434e-06,-3.52104e+08,-3.51743e+08,-3.51964e+08,-359762,0.0316092,-0.189641,0,0.192257,-8670.66,-12815.4,-0,15473,-359762
step02_gravity_refstate-crust.xmf,183,-2.21555e-06,2.98907e-06,0,-4.68109e-06,-3.13816e+08,-3.13459e+08,-3.13664e+08,-321123,0.0302023,-0.186792,0,0.189218,-8508.05,-11420.5,-0,14241.3,-321123
step02_gravity_refstate-crust.xmf,184,-2.3167e-06,2.35326e-06,0,-3.88591e-06,-2.42766e+08,-2.42446e+08,-2.42607e+08,-266574,0.0308767,-0.176333,0,0.179016,-8934.81,-8832.41,-0,12563.5,-266574
step02_gravity_refstate-crust.xmf,185,-2.61745e-06,2.05574e-06,0,-3.19378e-06,-1.89574e+08,-1.89253e+08,-1.89394e+08,-219093,0.0321935,-0.172763,0,0.175737,-8848.64,-6894.22,-0,11217.3,-219093
step02_gravity_refstate-crust.xmf,186,-2.99289e-06,1.86809e-06,0,-2.53781e-06,-1.42022e+08,-1.41689e+08,-1.41817e+08,-174094,0.0347262,-0.170273,0,0.173778,-8726.71,-5161.24,-0,10138.7,-174094
step02_gravity_refstate-crust.xmf,187,-2.20397e-06,4.37937e-06,0,-6.3762e-06,-4.36738e+08,-4.36286e+08,-4.36587e+08,-437408,0.034158,-0.209192,0,0.211963,-7893.75,-15897.7,-0,17749.6,-437408
step02_gravity_refstate-crust.xmf,188,-2.09621e-06,4.61342e-06,0,-6.94892e-06,-4.67348e+08,-4.66888e+08,-4.67205e+08,-476696,0.0362102,-0.214238,0,0.217276,-7892.23,-17012.9,-0,18754.4,-476696
step02_gravity_refstate-crust.xmf,189,-9.74858e-07,3.70122e-06,0,-8.0166e-06,-5.14586e+08,-5.14265e+08,-5.14519e+08,-549939,0.0413357,-0.20703,0,0.211116,-9002.1,-18735.8,-0,20786.2,-549939
step02_gravity_refstate-crust.xmf,190,-1.89464e-06,4.74569e-06,0,-7.61287e-06,-4.99201e+08,-4.98746e+08,-4.99071e+08,-522243,0.0386668,-0.219109,0,0.222495,-7939.17,-18173.6,-0,19832.1,-522243
step02_gravity_refstate-crust.xmf,191,-1.12327e-07,2.14712e-06,0,-7.41058e-06,-4.87922e+08,-4.87767e+08,-4.87914e+08,-508366,0.0407049,-0.17867,0,0.183248,-10862.9,-17766.2,-0,20824,-508366
step02_gravity_refstate-crust.xmf,192,9.72887e-07,-1.94481e-07,0,-4.47132e-06,-3.30184e+08,-3.30264e+08,-3.30251e+08,-306733,0.0344937,-0.079359,0,0.0865313,-19210.8,-12024.3,-0,22663.6,-306733
step02_gravity_refstate-crust.xmf,193,7.55349e-07,1.35796e-07,0,-5.36892e-06,-3.79074e+08,-3.79116e+08,-3.79125e+08,-368308,0.0359879,-0.108257,0,0.114082,-16399.7,-13803.8,-0,21435.9,-368308
step02_gravity_refstate-crust.xmf,194,8.79172e-07,-6.70327e-08,0,-4.93645e-06,-3.56588e+08,-3.56653e+08,-3.56649e+08,-338640,0.0351271,-0.0934713,0,0.0998539,-17793.8,-12985.4,-0,22028.2,-338640
step02_gravity_refstate-crust.xmf,195,9.20677e-07,2.23877e-07,0,-6.04777e-06,-4.39064e+08,-4.39112e+08,-4.39127e+08,-414877,0.0372294,-0.123364,0,0.128859,-15096.5,-15988.6,-0,21989.6,-414877
step02_gravity_refstate-crust.xmf,196,8.18383e-07,5.24616e-07,0,-6.47282e-06,-4.59496e+08,-4.59516e+08,-4.59552e+08,-444035,0.0384964,-0.137211,0,0.142509,-13972.4,-16732.5,-0,21799.2,-444035
step02_gravity_refstate-crust.xmf,197,2.58473e-06,-7.73337e-07,0,-1.04375e-06,-1.84555e+08,-1.84785e+08,-1.84732e+08,-71601,0.020126,0.0116071,0,0.0232332,-32726.1,-6728.17,-0,33410.6,-71601
step02_gravity_refstate-crust.xmf,198,3.53466e-06,-1.12023e-06,0,-2.75327e-07,-1.11611e+08,-1.1193e+08,-1.11853e+08,-18887.4,0.00995529,0.0206855,0,0.0229564,-37215.6,-4075.87,-0,37438.1,-18887.4
step02_gravity_refstate-crust.xmf,199,2.99852e-06,-9.01868e-07,0,-6.30719e-07,-1.53954e+08,-1.54222e+08,-1.5416e+08,-43267.3,0.0154139,0.0178734,0,0.0236019,-35011.9,-5615.6,-0,35459.4,-43267.3
step02_gravity_refstate-crust.xmf,200,4.00283e-06,-1.34211e-06,0,6.109e-09,-7.78792e+07,-7.82459e+07,-7.81538e+07,419.077,2.01752e-18,0.0211221,0,0.0211221,-40000,-2849.39,-0,40101.4,-419.077
step02_gravity_refstate-crust.xmf,201,1.23994e-06,-4.52264e-07,0,-4.22786e-06,-3.51881e+08,-3.51997e+08,-3.51966e+08,-290031,0.0321134,-0.0646426,0,0.0721799,-20719.4,-12814.9,-0,24362.1,-290031
step02_gravity_refstate-crust.xmf,202,2.19797e-06,-6.59319e-07,0,-1.53466e-06,-2.18084e+08,-2.1828e+08,-2.18235e+08,-105278,0.0230464,0.00358473,0,0.0233235,-30642.2,-7947.45,-0,31656.1,-105278
step02_gravity_refstate-crust.xmf,203,1.93827e-06,-6.03025e-07,0,-2.03314e-06,-2.509e+08,-2.51074e+08,-2.51033e+08,-139473,0.0249199,-0.00570537,0,0.0255647,-28736.7,-9141.17,-0,30155.5,-139473
step02_gravity_refstate-crust.xmf,204,-2.391e-06,2.79959e-06,0,-4.172e-06,-2.78832e+08,-2.78476e+08,-2.78668e+08,-286199,0.0292771,-0.184793,0,0.187097,-8308.96,-10145.8,-0,13114,-286199
step02_gravity_refstate-crust.xmf,205,-3.52178e-06,1.76745e-06,0,-1.79977e-06,-9.37166e+07,-9.33538e+07,-9.3475e+07,-123464,0.0387735,-0.168399,0,0.172805,-8537.8,-3400.34,-0,9190.01,-123464
step02_gravity_refstate-crust.xmf,206,-4.71788e-06,1.79384e-06,0,-3.13578e-08,-448011,-1307.29,-124365,-2151.14,0.0568532,-0.159195,0,0.169043,-9029.63,0,-0,9029.63,-2151.14
step02_gravity_refstate-crust.xmf,207,-2.36271e-06,4.21803e-06,0,-5.79743e-06,-4.05709e+08,-4.05258e+08,-4.05547e+08,-397703,0.0320093,-0.205802,0,0.208277,-7753.79,-14767.2,-0,16679.1,-397703
step02_gravity_refstate-crust.xmf,208,-1.52805e-06,4.65119e-06,0,-8.31376e-06,-5.29971e+08,-5.29547e+08,-5.29866e+08,-570324,0.0413544,-0.222307,0,0.226121,-8093.08,-19295.1,-0,20923.7,-570324
step02_gravity_refstate-crust.xmf,209,-2.28746e-06,6.74499e-06,0,-9.76415e-06,-5.87748e+08,-5.87129e+08,-5.87591e+08,-669821,0.0438857,-0.255385,0,0.259128,-6726.32,-21398.7,-0,22431,-669821
step02_gravity_refstate-crust.xmf,210,-2.80639e-06,7.02277e-06,0,-8.90578e-06,-5.62468e+08,-5.61793e+08,-5.62275e+08,-610937,0.0408539,-0.252596,0,0.255878,-6503.97,-20476.7,-0,21484.8,-610937
step02_gravity_refstate-crust.xmf,211,-1.6198e-06,5.52561e-06,0,-9.38231e-06,-5.73313e+08,-5.72823e+08,-5.73202e+08,-643626,0.0440145,-0.239784,0,0.243791,-7475.73,-20874.1,-0,22172.3,-643626
step02_gravity_refstate-crust.xmf,212,-5.57815e-07,3.49986e-06,0,-8.56868e-06,-5.43827e+08,-5.43548e+08,-5.43788e+08,-587812,0.0434452,-0.209355,0,0.213815,-9105.12,-19801.7,-0,21794.8,-587812
step02_gravity_refstate-crust.xmf,213,-1.05555e-06,4.45242e-06,0,-8.97134e-06,-5.58201e+08,-5.57823e+08,-5.58129e+08,-615434,0.0438182,-0.224417,0,0.228655,-8265.26,-20324.5,-0,21940.8,-615434
step02_gravity_refstate-crust.xmf,214,-2.1639e-06,5.84267e-06,0,-8.61883e-06,-5.45967e+08,-5.45418e+08,-5.45818e+08,-591251,0.0411312,-0.237825,0,0.241355,-7237.09,-19876.8,-0,21153.3,-591251
step02_gravity_refstate-crust.xmf,215,6.24525e-07,9.54312e-07,0,-6.90061e-06,-4.79347e+08,-4.79325e+08,-4.7939e+08,-473382,0.039819,-0.152363,0,0.157481,-12817.5,-17455.1,-0,21655.7,-473382
step02_gravity_refstate-crust.xmf,216,-1.08733e-07,2.63331e-06,0,-8.15817e-06,-5.29558e+08,-5.2937e+08,-5.29551e+08,-559651,0.0428562,-0.193995,0,0.198672,-10026.8,-19282.7,-0,21733.9,-559651
step02_gravity_refstate-crust.xmf,217,2.58126e-07,1.92542e-06,0,-7.77106e-06,-5.16425e+08,-5.1631e+08,-5.16442e+08,-533094,0.0421022,-0.179548,0,0.184419,-10952.5,-18805,-0,21762,-533094
step02_gravity_refstate-crust.xmf,218,4.82447e-07,1.40106e-06,0,-7.35531e-06,-4.99382e+08,-4.99319e+08,-4.99415e+08,-504575,0.0410442,-0.166076,0,0.171073,-11849,-18184.6,-0,21704.4,-504575
step02_gravity_refstate-crust.xmf,219,1.01079e-06,-3.91872e-08,0,-5.62703e-06,-4.19954e+08,-4.20026e+08,-4.20023e+08,-386014,0.0359907,-0.109578,0,0.115338,-16287.4,-15292.9,-0,22341.7,-386014
step02_gravity_refstate-crust.xmf,220,1.728e-06,-5.88867e-07,0,-2.52713e-06,-2.84342e+08,-2.84501e+08,-2.84461e+08,-173361,0.0260951,-0.0157391,0,0.0304741,-26992.6,-10357.8,-0,28911.7,-173361
step02_gravity_refstate-crust.xmf,221,1.59276e-06,-6.04228e-07,0,-3.00127e-06,-3.16372e+08,-3.16523e+08,-3.16481e+08,-205887,0.0270235,-0.0262704,0,0.0376883,-25382.7,-11523.3,-0,27876,-205887
step02_gravity_refstate-crust.xmf,222,1.51445e-06,-6.31888e-07,0,-3.46621e-06,-3.46378e+08,-3.46526e+08,-3.46482e+08,-237782,0.0280305,-0.0376698,0,0.0469545,-23818.5,-12615.4,-0,26953.1,-237782
step02_gravity_refstate-crust.xmf,223,1.47655e-06,-6.53661e-07,0,-3.92298e-06,-3.73691e+08,-3.73837e+08,-3.73793e+08,-269117,0.029223,-0.0499311,0,0.0578542,-22289.3,-13609.6,-0,26115.8,-269117
step02_gravity_refstate-crust.xmf,224,2.18912e-06,-6.59002e-07,0,-1.26311e-06,-2.46215e+08,-2.4641e+08,-2.46365e+08,-86649.5,0.0169277,0.0131512,0,0.021436,-32712.4,-8971.54,-0,33920.3,-86649.5
step02_gravity_refstate-crust.xmf,225,-2.5175e-06,3.9961e-06,0,-5.1899e-06,-3.71773e+08,-3.71326e+08,-3.716e+08,-356027,0.0297808,-0.202916,0,0.205089,-7525.37,-13530.8,-0,15482.7,-356027
step02_gravity_refstate-crust.xmf,226,-2.6304e-06,3.69717e-06,0,-4.60454e-06,-3.34989e+08,-3.34555e+08,-3.34809e+08,-315871,0.0279498,-0.199295,0,0.201245,-7348.89,-12190.7,-0,14234.4,-315871
step02_gravity_refstate-crust.xmf,227,-2.73047e-06,3.35033e-06,0,-4.05515e-06,-2.96472e+08,-2.96054e+08,-2.96284e+08,-278183,0.026649,-0.195514,0,0.197321,-7203.41,-10787.5,-0,12971.5,-278183
step02_gravity_refstate-crust.xmf,228,-2.83132e-06,2.95518e-06,0,-3.54379e-06,-2.54944e+08,-2.54547e+08,-2.5475e+08,-243104,0.0262157,-0.191078,0,0.192868,-7159.91,-9274.62,-0,11716.8,-243104
step02_gravity_refstate-crust.xmf,229,-2.91439e-06,2.52852e-06,0,-3.13653e-06,-2.12365e+08,-2.11992e+08,-2.12165e+08,-215166,0.0274528,-0.185075,0,0.1871,-7412.41,-7723.49,-0,10705,-215166
step02_gravity_refstate-crust.xmf,230,-3.20573e-06,2.25124e-06,0,-2.58155e-06,-1.6782e+08,-1.67446e+08,-1.67601e+08,-177095,0.0286868,-0.181972,0,0.18422,-7298.42,-6100.19,-0,9512.06,-177095
step02_gravity_refstate-crust.xmf,231,-3.62315e-06,2.05612e-06,0,-1.99314e-06,-1.22579e+08,-1.22189e+08,-1.2233e+08,-136730,0.0310915,-0.179237,0,0.181914,-7171.35,-4451.13,-0,8440.43,-136730
step02_gravity_refstate-crust.xmf,232,-4.39722e-06,1.85344e-06,0,-9.12198e-07,-4.52009e+07,-4.47721e+07,-4.48993e+07,-62576.8,0.0430998,-0.169083,0,0.17449,-7939.86,-1630.66,-0,8105.58,-62576.8
step02_gravity_refstate-crust.xmf,233,-2.85184e-06,5.04363e-06,0,-5.73998e-06,-4.22871e+08,-4.22329e+08,-4.22675e+08,-393763,0.0306192,-0.217799,0,0.219941,-6836.83,-15391.3,-0,16841.4,-393763
step02_gravity_refstate-crust.xmf,234,-2.88119e-06,5.4565e-06,0,-6.26081e-06,-4.51774e+08,-4.51202e+08,-4.51576e+08,-429492,0.0323576,-0.223818,0,0.226145,-6788.29,-16444.1,-0,17790.1,-429492
step02_gravity_refstate-crust.xmf,235,-2.7934e-06,5.75931e-06,0,-6.96661e-06,-4.83835e+08,-4.83248e+08,-4.83643e+08,-477909,0.0349326,-0.229553,0,0.232196,-6861.63,-17612.1,-0,18901.5,-477909
step02_gravity_refstate-crust.xmf,236,-2.57327e-06,5.91202e-06,0,-7.77967e-06,-5.16234e+08,-5.15652e+08,-5.16057e+08,-533685,0.0379689,-0.234715,0,0.237767,-7002.55,-18792.7,-0,20055,-533685
step02_gravity_refstate-crust.xmf,237,-3.5138e-06,8.22432e-06,0,-9.12239e-06,-5.7709e+08,-5.76285e+08,-5.76849e+08,-625796,0.0402042,-0.266879,0,0.269891,-5831.45,-21008.1,-0,21802.4,-625796
step02_gravity_refstate-crust.xmf,238,-3.13607e-06,8.18203e-06,0,-1.00973e-05,-6.02113e+08,-6.01337e+08,-6.01898e+08,-692671,0.0432822,-0.272281,0,0.2757,-5961.69,-21920.5,-0,22716.8,-692671
step02_gravity_refstate-crust.xmf,239,-1.74057e-06,6.46498e-06,0,-1.06262e-05,-6.13792e+08,-6.13229e+08,-6.13673e+08,-728961,0.0466248,-0.259545,0,0.2637,-6845.59,-22348.7,-0,23373.6,-728961
step02_gravity_refstate-crust.xmf,240,-1.03841e-06,5.1202e-06,0,-1.00665e-05,-5.98874e+08,-5.98451e+08,-5.98802e+08,-690565,0.0464365,-0.241719,0,0.24614,-7652.92,-21806.3,-0,23110.2,-690565
step02_gravity_refstate-crust.xmf,241,-4.91297e-08,3.13401e-06,0,-9.04819e-06,-5.71139e+08,-5.7092e+08,-5.71135e+08,-620706,0.0452755,-0.210412,0,0.215228,-9247.11,-20797.5,-0,22760.6,-620706
step02_gravity_refstate-crust.xmf,242,-4.97738e-07,4.05287e-06,0,-9.55182e-06,-5.85001e+08,-5.84688e+08,-5.84966e+08,-655255,0.0459726,-0.225808,0,0.23044,-8433.43,-21301.8,-0,22910.5,-655255
step02_gravity_refstate-crust.xmf,243,1.22271e-06,-3.97705e-07,0,-4.70169e-06,-3.78666e+08,-3.78778e+08,-3.7875e+08,-322536,0.0331195,-0.0780683,0,0.084803,-19288.4,-13790.1,-0,23710.9,-322536
step02_gravity_refstate-crust.xmf,244,1.19754e-06,-3.01803e-07,0,-5.21067e-06,-4.08478e+08,-4.08581e+08,-4.0856e+08,-357452,0.0344231,-0.0933436,0,0.0994886,-17773.2,-14875.4,-0,23176.8,-357452
step02_gravity_refstate-crust.xmf,245,1.19705e-06,2.36923e-07,0,-6.69069e-06,-4.96348e+08,-4.96414e+08,-4.9643e+08,-458981,0.0390919,-0.136946,0,0.142417,-14033.5,-18075.2,-0,22883.5,-458981
step02_gravity_refstate-crust.xmf,246,1.24628e-06,-1.91543e-07,0,-5.83592e-06,-4.54089e+08,-4.54188e+08,-4.54175e+08,-400344,0.0362089,-0.111434,0,0.117169,-16113.6,-16536.3,-0,23088.9,-400344
step02_gravity_refstate-crust.xmf,247,1.31415e-06,-1.29788e-07,0,-6.18507e-06,-4.78161e+08,-4.7826e+08,-4.78251e+08,-424296,0.0372908,-0.120684,0,0.126314,-15326.1,-17413.1,-0,23197,-424296
step02_gravity_refstate-crust.xmf,248,1.07027e-06,5.96238e-07,0,-7.14512e-06,-5.15281e+08,-5.15314e+08,-5.15355e+08,-490155,0.0406702,-0.151417,0,0.156784,-12965,-18764.6,-0,22807.9,-490155
step02_gravity_refstate-crust.xmf,249,2.51158e-06,-7.38504e-07,0,-7.42834e-07,-2.1483e+08,-2.15053e+08,-2.15002e+08,-50958.4,0.0121597,0.0203632,0,0.0237175,-35282.5,-7830.1,-0,36140.9,-50958.4
step02_gravity_refstate-crust.xmf,250,2.79043e-06,-8.14672e-07,0,-3.6388e-07,-1.87934e+08,-1.88182e+08,-1.88126e+08,-24962.2,0.00710686,0.0237279,0,0.0247693,-37476.8,-6851.97,-0,38098,-24962.2
step02_gravity_refstate-crust.xmf,251,3.13175e-06,-9.43063e-07,0,1.69836e-09,-1.5402e+08,-1.543e+08,-1.54235e+08,116.507,1.43596e-18,0.0242825,0,0.0242825,-40000,-5618.47,-0,40392.7,-116.507
step02_gravity_refstate-crust.xmf,252,1.44443e-06,-6.62866e-07,0,-4.36092e-06,-4.00072e+08,-4.00216e+08,-4.00171e+08,-299159,0.0305211,-0.0626636,0,0.0697012,-20825.7,-14569.8,-0,25416.3,-299159
step02_gravity_refstate-crust.xmf,253,1.94253e-06,-6.31171e-07,0,-1.73869e-06,-2.78621e+08,-2.78797e+08,-2.78754e+08,-119274,0.0195793,0.00525212,0,0.0202715,-30693.7,-10150.3,-0,32328.5,-119274
step02_gravity_refstate-crust.xmf,254,1.78984e-06,-6.40655e-07,0,-2.21011e-06,-3.10535e+08,-3.10701e+08,-3.10658e+08,-151614,0.0214698,-0.0037042,0,0.021787,-28850.5,-11311.6,-0,30988.8,-151614
step02_gravity_refstate-crust.xmf,255,-4.13278e-06,1.97822e-06,0,-1.41781e-06,-8.26638e+07,-8.22446e+07,-8.23803e+07,-97261.5,0.0342482,-0.177159,0,0.180439,-7029.21,-2995.8,-0,7640.98,-97261.5
step02_gravity_refstate-crust.xmf,256,-5.62777e-06,2.13419e-06,0,-3.7523e-08,-534654,-2183.47,-148589,-2574.08,0.0463906,-0.171286,0,0.177457,-7002.37,0,-0,7002.37,-2574.08
step02_gravity_refstate-crust.xmf,257,-3.08529e-06,4.98063e-06,0,-5.0359e-06,-3.93676e+08,-3.93122e+08,-3.93464e+08,-345462,0.0275445,-0.216935,0,0.218677,-6352.08,-14327.4,-0,15672.4,-345462
step02_gravity_refstate-crust.xmf,258,-3.39433e-06,7.37645e-06,0,-7.93014e-06,-5.35078e+08,-5.34339e+08,-5.34845e+08,-544007,0.0368668,-0.25164,0,0.254326,-6064.17,-19477.7,-0,20399.9,-544007
step02_gravity_refstate-crust.xmf,259,-3.78323e-06,8.24353e-06,0,-8.32578e-06,-5.56332e+08,-5.55507e+08,-5.56072e+08,-571148,0.0375074,-0.262976,0,0.265637,-5671.89,-20251.3,-0,21030.6,-571148
step02_gravity_refstate-crust.xmf,260,-2.64971e-06,8.03619e-06,0,-1.11202e-05,-6.27425e+08,-6.26692e+08,-6.27243e+08,-762846,0.0462453,-0.278168,0,0.281986,-6052.28,-22843.7,-0,23631.9,-762846
step02_gravity_refstate-crust.xmf,261,-1.85541e-06,8.06076e-06,0,-1.30691e-05,-6.72697e+08,-6.72017e+08,-6.7257e+08,-896542,0.0505314,-0.294574,0,0.298877,-5912.11,-24495.2,-0,25198.5,-896542
step02_gravity_refstate-crust.xmf,262,-3.29307e-06,9.90527e-06,0,-1.25883e-05,-6.61104e+08,-6.60199e+08,-6.60878e+08,-863557,0.047801,-0.304103,0,0.307837,-5326.15,-24070.2,-0,24652.4,-863557
step02_gravity_refstate-crust.xmf,263,-2.10954e-06,7.83709e-06,0,-1.20813e-05,-6.50931e+08,-6.50248e+08,-6.50786e+08,-828778,0.0487518,-0.284378,0,0.288526,-6084.16,-23701.4,-0,24469.8,-828778
step02_gravity_refstate-crust.xmf,264,2.93514e-07,2.37645e-06,0,-8.55528e-06,-5.56748e+08,-5.56605e+08,-5.56768e+08,-586892,0.0443574,-0.195762,0,0.200724,-10073.7,-20273.8,-0,22638.6,-586892
step02_gravity_refstate-crust.xmf,265,6.67354e-07,1.60112e-06,0,-8.06652e-06,-5.44094e+08,-5.4403e+08,-5.44139e+08,-553364,0.043292,-0.179772,0,0.184911,-11059.2,-19813.5,-0,22690.9,-553364
step02_gravity_refstate-crust.xmf,266,9.89477e-07,9.72736e-07,0,-7.6323e-06,-5.34278e+08,-5.34279e+08,-5.34346e+08,-523575,0.0421312,-0.164873,0,0.170171,-12042.9,-19456.4,-0,22882,-523575
step02_gravity_refstate-crust.xmf,267,1.32109e-06,-3.52626e-07,0,-5.53801e-06,-4.43177e+08,-4.43292e+08,-4.43268e+08,-379907,0.03504,-0.100881,0,0.106793,-17046.8,-16139.1,-0,23474.8,-379907
step02_gravity_refstate-crust.xmf,268,1.58678e-06,-9.94757e-08,0,-6.84742e-06,-5.31695e+08,-5.3181e+08,-5.31803e+08,-469733,0.0394519,-0.136615,0,0.142198,-14065.3,-19363.1,-0,23932.5,-469733
step02_gravity_refstate-crust.xmf,269,1.91046e-06,-6.29651e-07,0,-1.41116e-06,-3.06774e+08,-3.06948e+08,-3.06905e+08,-96805.6,0.014607,0.0142777,0,0.0204259,-32635.2,-11175.2,-0,34495.6,-96805.6
step02_gravity_refstate-crust.xmf,270,2.12733e-06,-6.43882e-07,0,-9.8466e-07,-2.7377e+08,-2.7396e+08,-2.73916e+08,-67547.7,0.0118631,0.0199055,0,0.0231724,-34554.5,-9974.49,-0,35965.4,-67547.7
step02_gravity_refstate-crust.xmf,271,1.6776e-06,-6.78849e-07,0,-2.66592e-06,-3.40782e+08,-3.40944e+08,-3.40897e+08,-182882,0.0230157,-0.0135306,0,0.0266983,-27130.6,-12412.2,-0,29835.1,-182882
step02_gravity_refstate-crust.xmf,272,1.61894e-06,-7.3481e-07,0,-3.11331e-06,-3.69541e+08,-3.69702e+08,-3.69652e+08,-213573,0.0244615,-0.0242492,0,0.034444,-25481.5,-13458.9,-0,28817.5,-213573
step02_gravity_refstate-crust.xmf,273,1.60344e-06,-7.94541e-07,0,-3.55361e-06,-3.96164e+08,-3.96329e+08,-3.96274e+08,-243777,0.0259587,-0.0358197,0,0.044237,-23887.4,-14428,-0,27906.5,-243777
step02_gravity_refstate-crust.xmf,274,1.62354e-06,-8.51966e-07,0,-3.98455e-06,-4.22256e+08,-4.22426e+08,-4.22368e+08,-273340,0.027475,-0.0478939,0,0.055215,-22369.4,-15377.9,-0,27145.4,-273340
step02_gravity_refstate-crust.xmf,275,-3.11187e-06,4.51195e-06,0,-4.40336e-06,-3.55556e+08,-3.55033e+08,-3.55343e+08,-302070,0.0253564,-0.211657,0,0.213171,-6193.2,-12938.8,-0,14344.6,-302070
step02_gravity_refstate-crust.xmf,276,-3.14043e-06,4.06216e-06,0,-3.83462e-06,-3.17792e+08,-3.17298e+08,-3.17577e+08,-263055,0.0235981,-0.207107,0,0.208447,-6010.99,-11563.1,-0,13032.2,-263055
step02_gravity_refstate-crust.xmf,277,-3.1722e-06,3.57861e-06,0,-3.33509e-06,-2.7772e+08,-2.77256e+08,-2.77502e+08,-228787,0.0225842,-0.202196,0,0.203453,-5913.19,-10103.4,-0,11706.6,-228787
step02_gravity_refstate-crust.xmf,278,-3.24541e-06,3.1018e-06,0,-2.89206e-06,-2.35753e+08,-2.35318e+08,-2.35531e+08,-198395,0.0224545,-0.197196,0,0.19847,-5899.32,-8574.5,-0,10407.9,-198395
step02_gravity_refstate-crust.xmf,279,-3.42316e-06,2.69663e-06,0,-2.4448e-06,-1.92486e+08,-1.92066e+08,-1.92251e+08,-167714,0.0230287,-0.192848,0,0.194218,-5864.35,-6997.98,-0,9130.3,-167714
step02_gravity_refstate-crust.xmf,280,-3.74565e-06,2.38822e-06,0,-1.95988e-06,-1.47874e+08,-1.47454e+08,-1.47617e+08,-134448,0.0243226,-0.189269,0,0.190826,-5766.03,-5372.06,-0,7880.74,-134448
step02_gravity_refstate-crust.xmf,281,-4.23964e-06,2.19435e-06,0,-1.43819e-06,-1.02035e+08,-1.01593e+08,-1.01744e+08,-98659.7,0.0268216,-0.185898,0,0.187823,-5681.94,-3700.92,-0,6780.95,-98659.7
step02_gravity_refstate-crust.xmf,282,-4.99856e-06,2.12478e-06,0,-8.11911e-07,-4.97963e+07,-4.93077e+07,-4.94534e+07,-55697.1,0.03246,-0.181167,0,0.184052,-5815.08,-1795.95,-0,6086.1,-55697.1
step02_gravity_refstate-crust.xmf,283,-3.49919e-06,5.95094e-06,0,-5.345e-06,-4.30551e+08,-4.29902e+08,-4.30311e+08,-366667,0.0276768,-0.229446,0,0.231109,-5760.67,-15669.7,-0,16695,-366667
step02_gravity_refstate-crust.xmf,284,-3.59538e-06,6.61548e-06,0,-6.09145e-06,-4.68624e+08,-4.67924e+08,-4.68377e+08,-417874,0.0303022,-0.237985,0,0.239906,-5778.41,-17056.4,-0,18008.7,-417874
step02_gravity_refstate-crust.xmf,285,-3.57502e-06,7.03687e-06,0,-6.87556e-06,-4.99864e+08,-4.99137e+08,-4.99619e+08,-471663,0.0331535,-0.244533,0,0.24677,-5891.16,-18194.5,-0,19124.5,-471663
step02_gravity_refstate-crust.xmf,286,-4.58735e-06,9.50168e-06,0,-8.19449e-06,-5.6572e+08,-5.64753e+08,-5.65405e+08,-562142,0.0356307,-0.275276,0,0.277573,-4995.87,-20591.7,-0,21189.1,-562142
step02_gravity_refstate-crust.xmf,287,-2.98145e-06,9.98367e-06,0,-1.35089e-05,-6.78368e+08,-6.77479e+08,-6.78164e+08,-926711,0.0495393,-0.311925,0,0.315834,-5259.36,-24700.1,-0,25253.8,-926711
step02_gravity_refstate-crust.xmf,288,-3.72792e-06,9.98717e-06,0,-1.15456e-05,-6.40379e+08,-6.39438e+08,-6.40123e+08,-792028,0.0453091,-0.297055,0,0.30049,-5302.97,-23314,-0,23909.5,-792028
step02_gravity_refstate-crust.xmf,289,-4.46514e-06,9.8272e-06,0,-9.2147e-06,-5.91134e+08,-5.90153e+08,-5.90828e+08,-632128,0.0387478,-0.282923,0,0.285564,-5087.22,-21518,-0,22111.2,-632128
step02_gravity_refstate-crust.xmf,290,-4.16792e-06,9.95995e-06,0,-1.0386e-05,-6.16797e+08,-6.15828e+08,-6.16512e+08,-712478,0.0421446,-0.290364,0,0.293407,-5200.27,-22453.7,-0,23048,-712478
step02_gravity_refstate-crust.xmf,291,-1.16513e-06,6.16437e-06,0,-1.14779e-05,-6.39295e+08,-6.38792e+08,-6.39215e+08,-787387,0.0489685,-0.264826,0,0.269315,-6875.97,-23279,-0,24273.3,-787387
step02_gravity_refstate-crust.xmf,292,-4.82047e-07,5.79772e-06,0,-1.23894e-05,-6.66408e+08,-6.65977e+08,-6.66375e+08,-849914,0.0510686,-0.271709,0,0.276466,-6831.27,-24268.3,-0,25211.4,-849914
step02_gravity_refstate-crust.xmf,293,-1.75679e-06,8.57956e-06,0,-1.40551e-05,-6.90823e+08,-6.90113e+08,-6.90702e+08,-964177,0.0517176,-0.306711,0,0.31104,-5641.27,-25156.3,-0,25781,-964177
step02_gravity_refstate-crust.xmf,294,-3.42917e-06,1.12697e-05,0,-1.44042e-05,-6.92427e+08,-6.91418e+08,-6.92192e+08,-988129,0.0499424,-0.326436,0,0.330234,-4892.03,-25212.1,-0,25682.3,-988129
step02_gravity_refstate-crust.xmf,295,-1.91613e-06,9.54186e-06,0,-1.523e-05,-7.08892e+08,-7.08106e+08,-7.08761e+08,-1.04478e+06,0.0525885,-0.323257,0,0.327506,-5244.74,-25815,-0,26342.3,-1.04478e+06
step02_gravity_refstate-crust.xmf,296,-4.12334e-07,4.69428e-06,0,-1.07711e-05,-6.25913e+08,-6.25563e+08,-6.25885e+08,-738901,0.0485866,-0.245274,0,0.25004,-7721.9,-22792.6,-0,24065.1,-738901
step02_gravity_refstate-crust.xmf,297,9.04042e-08,3.59929e-06,0,-1.00832e-05,-6.11055e+08,-6.10815e+08,-6.11061e+08,-691709,0.0477392,-0.227645,0,0.232596,-8534.64,-22252,-0,23832.6,-691709
step02_gravity_refstate-crust.xmf,298,7.64324e-07,1.9973e-06,0,-8.88701e-06,-5.82157e+08,-5.82073e+08,-5.8221e+08,-609649,0.0455319,-0.196391,0,0.2016,-10160.4,-21200.2,-0,23509.2,-609649
step02_gravity_refstate-crust.xmf,299,4.80947e-07,2.70648e-06,0,-9.45585e-06,-5.96638e+08,-5.96485e+08,-5.96671e+08,-648672,0.0467062,-0.211342,0,0.216441,-9352.58,-21727.3,-0,23654.8,-648672
step02_gravity_refstate-crust.xmf,300,1.48975e-06,-6.51222e-07,0,-4.81866e-06,-4.26891e+08,-4.27038e+08,-4.26993e+08,-330560,0.0319348,-0.0758408,0,0.0822901,-19417.8,-15546.4,-0,24874.5,-330560
step02_gravity_refstate-crust.xmf,301,1.61299e-06,-3.37555e-07,0,-6.39157e-06,-5.14231e+08,-5.14365e+08,-5.14342e+08,-438462,0.0377274,-0.12307,0,0.128723,-15110.7,-18727.1,-0,24063.2,-438462
step02_gravity_refstate-crust.xmf,302,1.57217e-06,-5.4856e-07,0,-5.69328e-06,-4.78596e+08,-4.78742e+08,-4.78704e+08,-390559,0.0350546,-0.102197,0,0.108042,-16880.5,-17429.3,-0,24263.8,-390559
step02_gravity_refstate-crust.xmf,303,1.54444e-06,-6.38694e-07,0,-5.23852e-06,-4.54769e+08,-4.54919e+08,-4.54875e+08,-359362,0.0333125,-0.0881788,0,0.0942615,-18179.4,-16561.6,-0,24592.2,-359362
step02_gravity_refstate-crust.xmf,304,1.52981e-06,1.86335e-07,0,-7.31997e-06,-5.50482e+08,-5.50574e+08,-5.50587e+08,-502150,0.0411979,-0.150645,0,0.156177,-13056.4,-20047.3,-0,23924.1,-502150
step02_gravity_refstate-crust.xmf,305,1.83509e-06,-6.10991e-07,0,-1.08896e-06,-3.36391e+08,-3.36559e+08,-3.36517e+08,-74702.8,0.0103321,0.020928,0,0.0233396,-34414.7,-12253.1,-0,36531,-74702.8
step02_gravity_refstate-crust.xmf,306,2.2423e-06,-6.50726e-07,0,-4.70042e-07,-2.64706e+08,-2.64904e+08,-2.6486e+08,-32244.9,0.00597801,0.0255912,0,0.0262801,-37347,-9644.94,-0,38572.3,-32244.9
step02_gravity_refstate-crust.xmf,307,2.50309e-06,-7.1693e-07,0,9.12223e-10,-2.28149e+08,-2.2837e+08,-2.28321e+08,62.5785,1.20592e-18,0.0265165,0,0.0265165,-40000,-8315,-0,40855.1,-62.5785
step02_gravity_refstate-crust.xmf,308,1.64712e-06,-8.99394e-07,0,-4.40355e-06,-4.47998e+08,-4.48172e+08,-4.48111e+08,-302084,0.0290759,-0.0604914,0,0.0671164,-20910.8,-16315.1,-0,26522.5,-302084
step02_gravity_refstate-crust.xmf,309,1.76122e-06,-6.56117e-07,0,-1.85925e-06,-3.37696e+08,-3.37862e+08,-3.37817e+08,-127544,0.016971,0.00673174,0,0.0182574,-30713.9,-12300.3,-0,33085.3,-127544
step02_gravity_refstate-crust.xmf,310,1.68863e-06,-7.13155e-07,0,-2.30058e-06,-3.67651e+08,-3.67816e+08,-3.67767e+08,-157820,0.0189094,-0.00202358,0,0.0190174,-28898.7,-13390.4,-0,31850.2,-157820
step02_gravity_refstate-crust.xmf,311,-6.37092e-06,2.42764e-06,0,-2.21544e-08,-604761,-1179.54,-167716,-1519.79,0.0343676,-0.180769,0,0.184007,-4992.34,0,-0,4992.34,-1519.79
step02_gravity_refstate-crust.xmf,312,-3.62906e-06,5.74212e-06,0,-4.58774e-06,-4.02277e+08,-4.01634e+08,-4.02028e+08,-314719,0.0244766,-0.227191,0,0.228506,-5308.61,-14639.5,-0,15572.3,-314719
step02_gravity_refstate-crust.xmf,313,-4.54654e-06,9.01728e-06,0,-7.37152e-06,-5.413e+08,-5.4037e+08,-5.40988e+08,-505686,0.0330862,-0.267456,0,0.269494,-4963.99,-19702.2,-0,20317.9,-505686
step02_gravity_refstate-crust.xmf,314,-3.867e-06,1.24941e-05,0,-1.55382e-05,-7.09314e+08,-7.08191e+08,-7.09048e+08,-1.06592e+06,0.050516,-0.343775,0,0.347466,-4515.23,-25827,-0,26218.7,-1.06592e+06
step02_gravity_refstate-crust.xmf,315,-4.61985e-06,1.23076e-05,0,-1.30453e-05,-6.71886e+08,-6.70725e+08,-6.71569e+08,-894906,0.0463191,-0.324111,0,0.327404,-4620.59,-24461.1,-0,24893.6,-894906
step02_gravity_refstate-crust.xmf,316,-4.5633e-06,1.14883e-05,0,-1.19105e-05,-6.5202e+08,-6.50919e+08,-6.51707e+08,-817057,0.044608,-0.311823,0,0.314998,-4793.22,-23736.8,-0,24215.9,-817057
step02_gravity_refstate-crust.xmf,317,-2.1605e-06,1.05724e-05,0,-1.65009e-05,-7.2642e+08,-7.25546e+08,-7.26272e+08,-1.13196e+06,0.0532848,-0.341036,0,0.345173,-4857.18,-26453.7,-0,26895.9,-1.13196e+06
step02_gravity_refstate-crust.xmf,318,-4.65945e-07,6.3387e-06,0,-1.34495e-05,-6.89114e+08,-6.88648e+08,-6.89082e+08,-922634,0.0523914,-0.287545,0,0.292279,-6378.94,-25095.8,-0,25893.8,-922634
step02_gravity_refstate-crust.xmf,319,-3.71218e-07,6.93782e-06,0,-1.45513e-05,-7.08145e+08,-7.07644e+08,-7.08119e+08,-998222,0.0533781,-0.302656,0,0.307327,-5979.16,-25790,-0,26474,-998222
step02_gravity_refstate-crust.xmf,320,9.26294e-07,1.49893e-06,0,-8.41074e-06,-5.68547e+08,-5.68508e+08,-5.68611e+08,-576977,0.0443952,-0.18407,0,0.189348,-10869.5,-20704.6,-0,23384.3,-576977
step02_gravity_refstate-crust.xmf,321,1.41388e-06,6.83924e-07,0,-7.95617e-06,-5.67906e+08,-5.67956e+08,-5.68003e+08,-545793,0.0431527,-0.167722,0,0.173184,-11919.4,-20682,-0,23870.8,-545793
step02_gravity_refstate-crust.xmf,322,1.67803e-06,-5.61029e-07,0,-6.00136e-06,-5.04353e+08,-5.04506e+08,-5.04468e+08,-411693,0.0361043,-0.110689,0,0.116428,-16119.8,-18367.4,-0,24437.8,-411693
step02_gravity_refstate-crust.xmf,323,1.94801e-06,-6.64763e-07,0,-6.44436e-06,-5.47908e+08,-5.48087e+08,-5.48042e+08,-442083,0.0375618,-0.122283,0,0.127922,-15124,-19954,-0,25037.9,-442083
step02_gravity_refstate-crust.xmf,324,1.98819e-06,-5.02264e-07,0,-6.90489e-06,-5.66001e+08,-5.66171e+08,-5.66137e+08,-473675,0.0393472,-0.135352,0,0.140955,-14129.9,-20613.1,-0,24991,-473675
step02_gravity_refstate-crust.xmf,325,1.70261e-06,-6.43248e-07,0,-1.48868e-06,-3.65354e+08,-3.65515e+08,-3.65471e+08,-102124,0.0127342,0.0154446,0,0.0200173,-32585.6,-13307,-0,35197.9,-102124
step02_gravity_refstate-crust.xmf,326,1.96554e-06,-6.08319e-07,0,-7.36606e-07,-3.12063e+08,-3.12239e+08,-3.12197e+08,-50531.2,0.00768306,0.0245675,0,0.0257409,-36113,-11368,-0,37860,-50531.2
step02_gravity_refstate-crust.xmf,327,1.64888e-06,-7.89264e-07,0,-2.72623e-06,-3.94704e+08,-3.94871e+08,-3.94817e+08,-187019,0.0206798,-0.0117596,0,0.0237896,-27181.3,-14375,-0,30748.4,-187019
step02_gravity_refstate-crust.xmf,328,1.65121e-06,-8.77395e-07,0,-3.14825e-06,-4.20359e+08,-4.20532e+08,-4.20472e+08,-215970,0.0224108,-0.0225085,0,0.0317628,-25515.6,-15308.9,-0,29755.8,-215970
step02_gravity_refstate-crust.xmf,329,1.68891e-06,-9.6982e-07,0,-3.56187e-06,-4.45361e+08,-4.45543e+08,-4.45476e+08,-244344,0.0241159,-0.0339471,0,0.0416411,-23923.5,-16219.1,-0,28903.2,-244344
step02_gravity_refstate-crust.xmf,330,1.75853e-06,-1.06269e-06,0,-3.96363e-06,-4.70479e+08,-4.70672e+08,-4.70599e+08,-271905,0.0257915,-0.0457554,0,0.0525239,-22421.1,-17133.7,-0,28218.3,-271905
step02_gravity_refstate-crust.xmf,331,-3.58017e-06,5.24815e-06,0,-4.06019e-06,-3.70587e+08,-3.69982e+08,-3.70342e+08,-278529,0.022494,-0.221938,0,0.223075,-5158.98,-13485.2,-0,14438.4,-278529
step02_gravity_refstate-crust.xmf,332,-3.61808e-06,4.90648e-06,0,-3.45364e-06,-3.4084e+08,-3.40255e+08,-3.40592e+08,-236920,0.0200388,-0.218988,0,0.219903,-4766.82,-12401.6,-0,13286.1,-236920
step02_gravity_refstate-crust.xmf,333,-3.54794e-06,4.28921e-06,0,-2.98315e-06,-3.01037e+08,-3.00499e+08,-3.00793e+08,-204644,0.0187447,-0.212898,0,0.213721,-4669.55,-10951.8,-0,11905.8,-204644
step02_gravity_refstate-crust.xmf,334,-3.54323e-06,3.7094e-06,0,-2.55178e-06,-2.59654e+08,-2.59156e+08,-2.5941e+08,-175052,0.017938,-0.207403,0,0.208178,-4571.84,-9444.35,-0,10492.7,-175052
step02_gravity_refstate-crust.xmf,335,-3.63303e-06,3.20001e-06,0,-2.15183e-06,-2.17353e+08,-2.16884e+08,-2.17104e+08,-147616,0.017694,-0.202571,0,0.203342,-4474.22,-7903.21,-0,9081.81,-147616
step02_gravity_refstate-crust.xmf,336,-3.8513e-06,2.7761e-06,0,-1.75742e-06,-1.73571e+08,-1.73117e+08,-1.73307e+08,-120559,0.0180626,-0.198303,0,0.199124,-4366.54,-6307.76,-0,7671.67,-120559
step02_gravity_refstate-crust.xmf,337,-4.25159e-06,2.46475e-06,0,-1.33966e-06,-1.27688e+08,-1.27227e+08,-1.27396e+08,-91900.9,0.0191107,-0.194511,0,0.195448,-4228.52,-4635.23,-0,6274.21,-91900.9
step02_gravity_refstate-crust.xmf,338,-4.8561e-06,2.30851e-06,0,-9.02289e-07,-8.21052e+07,-8.16137e+07,-8.17721e+07,-61897,0.0210145,-0.191079,0,0.192231,-4094.19,-2973.05,-0,5059.78,-61897
step02_gravity_refstate-crust.xmf,339,-5.7196e-06,2.33637e-06,0,-4.29636e-07,-3.69517e+07,-3.63991e+07,-3.65594e+07,-29473,0.0241216,-0.187575,0,0.189119,-4007.13,-1325.74,-0,4220.75,-29473
step02_gravity_refstate-crust.xmf,340,-4.44358e-06,8.42006e-06,0,-6.58142e-06,-5.13769e+08,-5.12887e+08,-5.13464e+08,-451486,0.0305301,-0.258979,0,0.260773,-4942.21,-18699.3,-0,19341.4,-451486
step02_gravity_refstate-crust.xmf,341,-4.11771e-06,6.61577e-06,0,-4.37236e-06,-4.21041e+08,-4.20304e+08,-4.20758e+08,-299944,0.0225224,-0.237108,0,0.238175,-4550.96,-15322,-0,15983.6,-299944
step02_gravity_refstate-crust.xmf,342,-4.25499e-06,7.25242e-06,0,-5.03636e-06,-4.53436e+08,-4.52647e+08,-4.53144e+08,-345495,0.0249815,-0.244174,0,0.245448,-4691.1,-16501.8,-0,17155.6,-345495
step02_gravity_refstate-crust.xmf,343,-4.37721e-06,7.85451e-06,0,-5.73547e-06,-4.83446e+08,-4.82607e+08,-4.83145e+08,-393453,0.0275254,-0.251401,0,0.252904,-4804.77,-17594.8,-0,18239,-393453
step02_gravity_refstate-crust.xmf,344,-5.4328e-06,1.42585e-05,0,-1.41675e-05,-6.91892e+08,-6.90542e+08,-6.9152e+08,-971890,0.0466432,-0.344397,0,0.347542,-4164.2,-25189.1,-0,25531,-971890
step02_gravity_refstate-crust.xmf,345,-5.51914e-06,1.0527e-05,0,-6.97343e-06,-5.53435e+08,-5.52334e+08,-5.53056e+08,-478377,0.0301018,-0.281395,0,0.283001,-4143.38,-20142.3,-0,20564.1,-478377
step02_gravity_refstate-crust.xmf,346,-5.59612e-06,1.11027e-05,0,-7.9637e-06,-5.7846e+08,-5.77314e+08,-5.78076e+08,-546310,0.0331709,-0.289923,0,0.291814,-4252.53,-21054,-0,21479.1,-546310
step02_gravity_refstate-crust.xmf,347,-5.16611e-06,1.18701e-05,0,-1.07584e-05,-6.33174e+08,-6.32005e+08,-6.32819e+08,-738026,0.041208,-0.307916,0,0.310661,-4578.03,-23048.8,-0,23499.1,-738026
step02_gravity_refstate-crust.xmf,348,-5.6846e-06,1.18737e-05,0,-9.27006e-06,-6.08899e+08,-6.07695e+08,-6.0851e+08,-635926,0.036674,-0.302301,0,0.304517,-4281.58,-22163,-0,22572.8,-635926
step02_gravity_refstate-crust.xmf,349,-4.33759e-06,1.42496e-05,0,-1.6972e-05,-7.26419e+08,-7.25144e+08,-7.26122e+08,-1.16428e+06,0.051002,-0.362776,0,0.366344,-4148.62,-26450.5,-0,26773.9,-1.16428e+06
step02_gravity_refstate-crust.xmf,350,-3.07263e-07,7.56878e-06,0,-1.57348e-05,-7.26262e+08,-7.25722e+08,-7.26241e+08,-1.07941e+06,0.0541495,-0.318836,0,0.323402,-5583.6,-26450.8,-0,27033.7,-1.07941e+06
step02_gravity_refstate-crust.xmf,351,-2.28457e-06,1.16583e-05,0,-1.79679e-05,-7.4334e+08,-7.42384e+08,-7.43183e+08,-1.2326e+06,0.053789,-0.359484,0,0.363486,-4499.07,-27070.8,-0,27442.2,-1.2326e+06
step02_gravity_refstate-crust.xmf,352,-4.78984e-06,1.59532e-05,0,-1.85508e-05,-7.42806e+08,-7.41383e+08,-7.42477e+08,-1.27259e+06,0.0513332,-0.382507,0,0.385936,-3812.65,-27047.9,-0,27315.3,-1.27259e+06
step02_gravity_refstate-crust.xmf,353,-2.29434e-06,1.29418e-05,0,-1.97364e-05,-7.59851e+08,-7.58805e+08,-7.59693e+08,-1.35392e+06,0.0539755,-0.379534,0,0.383353,-4146.75,-27673.9,-0,27982.8,-1.35392e+06
step02_gravity_refstate-crust.xmf,354,-5.35901e-06,1.76446e-05,0,-2.02471e-05,-7.583e+08,-7.56721e+08,-7.57932e+08,-1.38895e+06,0.0513024,-0.403835,0,0.40708,-3479.72,-27612.3,-0,27830.7,-1.38895e+06
step02_gravity_refstate-crust.xmf,355,2.25008e-07,4.21955e-06,0,-1.14072e-05,-6.51319e+08,-6.51045e+08,-6.51334e+08,-782536,0.0502346,-0.24944,0,0.254448,-7720.59,-23719.4,-0,24944.2,-782536
step02_gravity_refstate-crust.xmf,356,7.50056e-07,4.33018e-06,0,-1.27422e-05,-6.89011e+08,-6.88765e+08,-6.89062e+08,-874115,0.0522621,-0.267675,0,0.272729,-7178.98,-25093.9,-0,26100.6,-874115
step02_gravity_refstate-crust.xmf,357,7.44901e-07,3.05753e-06,0,-1.05868e-05,-6.37999e+08,-6.3784e+08,-6.3805e+08,-726256,0.0491607,-0.230083,0,0.235277,-8578.15,-23234.7,-0,24767.7,-726256
step02_gravity_refstate-crust.xmf,358,1.08451e-06,2.15738e-06,0,-9.802e-06,-6.22784e+08,-6.2271e+08,-6.22858e+08,-672418,0.0477767,-0.211932,0,0.217251,-9448.41,-22680.8,-0,24570.1,-672418
step02_gravity_refstate-crust.xmf,359,1.45519e-06,9.49074e-07,0,-8.51599e-06,-5.9183e+08,-5.91865e+08,-5.9193e+08,-584197,0.044769,-0.180836,0,0.186295,-11134.8,-21553.5,-0,24259.8,-584197
step02_gravity_refstate-crust.xmf,360,1.3131e-06,1.47953e-06,0,-9.13284e-06,-6.08138e+08,-6.08126e+08,-6.08228e+08,-626513,0.0463358,-0.19598,0,0.201383,-10281.2,-22147.5,-0,24417.5,-626513
step02_gravity_refstate-crust.xmf,361,1.7468e-06,-9.3524e-07,0,-4.82757e-06,-4.74136e+08,-4.7432e+08,-4.74256e+08,-331171,0.0306813,-0.0730199,0,0.0792039,-19560.1,-17267,-0,26091.1,-331171
step02_gravity_refstate-crust.xmf,362,1.92519e-06,-8.11604e-07,0,-6.01625e-06,-5.33005e+08,-5.33193e+08,-5.33137e+08,-412715,0.0357708,-0.109618,0,0.115306,-16148.6,-19411.1,-0,25250.1,-412715
step02_gravity_refstate-crust.xmf,363,1.82928e-06,-9.40139e-07,0,-5.24701e-06,-4.9828e+08,-4.9847e+08,-4.98405e+08,-359945,0.0324152,-0.0858853,0,0.0917988,-18274.8,-18146.3,-0,25753.7,-359945
step02_gravity_refstate-crust.xmf,364,1.89534e-06,-9.04273e-07,0,-5.63982e-06,-5.17993e+08,-5.18185e+08,-5.18123e+08,-386892,0.0341342,-0.0981434,0,0.10391,-17139.1,-18864.3,-0,25487.5,-386892
step02_gravity_refstate-crust.xmf,365,1.97363e-06,-2.63852e-07,0,-7.41089e-06,-5.83987e+08,-5.8414e+08,-5.84122e+08,-508387,0.0412537,-0.149723,0,0.155303,-13116.3,-21268.2,-0,24987.5,-508387
step02_gravity_refstate-crust.xmf,366,1.61774e-06,-6.15325e-07,0,-1.12849e-06,-3.9258e+08,-3.92733e+08,-3.92691e+08,-77414.2,0.00905713,0.0219942,0,0.0237861,-34349.9,-14297.8,-0,37206.8,-77414.2
step02_gravity_refstate-crust.xmf,367,1.7069e-06,-5.8429e-07,0,-7.6377e-07,-3.67934e+08,-3.68091e+08,-3.68051e+08,-52394.6,0.00663271,0.0257846,0,0.026624,-36115.4,-13401,-0,38521.5,-52394.6
step02_gravity_refstate-crust.xmf,368,1.84674e-06,-5.80306e-07,0,-4.01553e-07,-3.37928e+08,-3.38094e+08,-3.38055e+08,-27546.6,0.00386004,0.0279275,0,0.028193,-37913.2,-12309.2,-0,39861.4,-27546.6
step02_gravity_refstate-crust.xmf,369,2.04111e-06,-6.0306e-07,0,-8.77775e-10,-3.00481e+08,-3.00662e+08,-3.00621e+08,-60.2154,7.76752e-19,0.0282544,0,0.0282544,-40000,-10946.6,-0,41470.8,-60.2154
step02_gravity_refstate-crust.xmf,370,1.83138e-06,-1.15012e-06,0,-4.35044e-06,-4.95541e+08,-4.95746e+08,-4.95667e+08,-298440,0.0274912,-0.0579011,0,0.064096,-20996,-18046.3,-0,27685.8,-298440
step02_gravity_refstate-crust.xmf,371,1.62346e-06,-7.07049e-07,0,-1.90001e-06,-3.94217e+08,-3.94376e+08,-3.94328e+08,-130341,0.0148572,0.00829528,0,0.0170161,-30747.9,-14357.3,-0,33934.7,-130341
step02_gravity_refstate-crust.xmf,372,1.5327e-06,-6.71773e-07,0,-1.48744e-06,-4.20805e+08,-4.20956e+08,-4.2091e+08,-102039,0.0110156,0.0169939,0,0.0202518,-32644.3,-15325,-0,36062.5,-102039
step02_gravity_refstate-crust.xmf,373,1.60998e-06,-7.99179e-07,0,-2.31479e-06,-4.22161e+08,-4.22326e+08,-4.22271e+08,-158795,0.0168026,-0.000358427,0,0.0168064,-28928.1,-15374.5,-0,32759.8,-158795
step02_gravity_refstate-crust.xmf,374,-3.98848e-06,6.07626e-06,0,-3.90421e-06,-3.93468e+08,-3.92778e+08,-3.93194e+08,-267829,0.0208226,-0.231396,0,0.232331,-4458.53,-14317.9,-0,14996,-267829
step02_gravity_refstate-crust.xmf,375,-6.87195e-06,2.6047e-06,0,-3.16239e-08,-652911,-2812.27,-181495,-2169.4,0.0211151,-0.187309,0,0.188495,-2992.92,0,-0,2992.92,-2169.4
step02_gravity_refstate-crust.xmf,376,-5.35312e-06,9.81788e-06,0,-6.06163e-06,-5.25967e+08,-5.24926e+08,-5.25599e+08,-415828,0.0271496,-0.272308,0,0.273658,-4042.09,-19141.9,-0,19564,-415828
step02_gravity_refstate-crust.xmf,377,-6.18648e-06,1.59532e-05,0,-1.53302e-05,-7.09666e+08,-7.08148e+08,-7.09242e+08,-1.05165e+06,0.0469293,-0.363598,0,0.366614,-3794.71,-25835.8,-0,26113,-1.05165e+06
step02_gravity_refstate-crust.xmf,378,-5.94759e-06,1.34525e-05,0,-1.15e-05,-6.53522e+08,-6.52191e+08,-6.53114e+08,-788901,0.0413985,-0.32531,0,0.327933,-4147.57,-23788.9,-0,24147.7,-788901
step02_gravity_refstate-crust.xmf,379,-6.5385e-06,1.26711e-05,0,-7.80477e-06,-5.931e+08,-5.91783e+08,-5.92652e+08,-535407,0.0310662,-0.303953,0,0.305537,-3653.48,-21585.6,-0,21892.6,-535407
step02_gravity_refstate-crust.xmf,380,-6.98361e-06,1.82846e-05,0,-1.67136e-05,-7.26557e+08,-7.24824e+08,-7.26078e+08,-1.14655e+06,0.047119,-0.383419,0,0.386304,-3461.35,-26451.1,-0,26676.6,-1.14655e+06
step02_gravity_refstate-crust.xmf,381,-7.89346e-06,2.07139e-05,0,-1.82103e-05,-7.42646e+08,-7.40683e+08,-7.42104e+08,-1.24923e+06,0.0470633,-0.404446,0,0.407175,-3144.66,-27036.9,-0,27219.2,-1.24923e+06
step02_gravity_refstate-crust.xmf,382,-2.48642e-07,8.18289e-06,0,-1.69939e-05,-7.43695e+08,-7.43116e+08,-7.43678e+08,-1.16578e+06,0.0546579,-0.335811,0,0.34023,-5206.09,-27086.6,-0,27582.4,-1.16578e+06
step02_gravity_refstate-crust.xmf,383,-2.67901e-06,1.47496e-05,0,-2.1575e-05,-7.73982e+08,-7.72786e+08,-7.73798e+08,-1.48005e+06,0.0535484,-0.402158,0,0.405708,-3758.32,-28189.6,-0,28439,-1.48005e+06
step02_gravity_refstate-crust.xmf,384,6.69305e-07,3.94999e-06,0,-1.19664e-05,-6.72332e+08,-6.72107e+08,-6.72378e+08,-820896,0.0513309,-0.255502,0,0.260608,-7587.7,-24485.8,-0,25634.5,-820896
step02_gravity_refstate-crust.xmf,385,8.22918e-07,4.73621e-06,0,-1.36763e-05,-7.07793e+08,-7.07525e+08,-7.0785e+08,-938197,0.0531849,-0.282236,0,0.287203,-6730.41,-25778.6,-0,26642.7,-938197
step02_gravity_refstate-crust.xmf,386,1.05415e-06,5.06234e-06,0,-1.4683e-05,-7.2612e+08,-7.25845e+08,-7.26192e+08,-1.00725e+06,0.0538689,-0.296678,0,0.301529,-6329.73,-26447.2,-0,27194.1,-1.00725e+06
step02_gravity_refstate-crust.xmf,387,2.19387e-06,-1.13364e-06,0,-5.94418e-06,-5.64811e+08,-5.65039e+08,-5.64961e+08,-407770,0.0349257,-0.107236,0,0.11278,-16248.9,-20569.6,-0,26213.3,-407770
step02_gravity_refstate-crust.xmf,388,2.28823e-06,-1.06626e-06,0,-6.37131e-06,-5.82111e+08,-5.82341e+08,-5.82267e+08,-437072,0.0367248,-0.119736,0,0.125241,-15234.5,-21199.9,-0,26106.1,-437072
step02_gravity_refstate-crust.xmf,389,2.37765e-06,-9.55919e-07,0,-6.8503e-06,-5.99777e+08,-6.00006e+08,-5.9994e+08,-469930,0.0386173,-0.13322,0,0.138704,-14216.9,-21843.6,-0,26062.7,-469930
step02_gravity_refstate-crust.xmf,390,1.62662e-06,-9.07876e-07,0,-2.72539e-06,-4.46803e+08,-4.46976e+08,-4.46914e+08,-186962,0.0187301,-0.0103249,0,0.0213874,-27154.8,-16271.5,-0,31656.6,-186962
step02_gravity_refstate-crust.xmf,391,1.67635e-06,-1.02238e-06,0,-3.12744e-06,-4.69584e+08,-4.69769e+08,-4.69699e+08,-214542,0.0206193,-0.0211749,0,0.0295556,-25465.4,-17100.9,-0,30674.5,-214542
step02_gravity_refstate-crust.xmf,392,1.75493e-06,-1.1451e-06,0,-3.49258e-06,-4.93717e+08,-4.93916e+08,-4.93838e+08,-239591,0.0222474,-0.0318655,0,0.0388633,-23950.8,-17979.6,-0,29948.4,-239591
step02_gravity_refstate-crust.xmf,393,1.86225e-06,-1.27036e-06,0,-3.85812e-06,-5.17754e+08,-5.17969e+08,-5.17882e+08,-264667,0.0239271,-0.0432882,0,0.0494608,-22473.1,-18854.9,-0,29335.1,-264667
step02_gravity_refstate-crust.xmf,394,1.42662e-06,-6.23578e-07,0,-1.08868e-06,-4.45887e+08,-4.46028e+08,-4.45985e+08,-74683.6,0.00764471,0.0236095,0,0.0248163,-34495.8,-16237.8,-0,38126.4,-74683.6
step02_gravity_refstate-crust.xmf,395,-3.94019e-06,5.08174e-06,0,-2.53308e-06,-3.26156e+08,-3.25537e+08,-3.25886e+08,-173769,0.0149146,-0.222931,0,0.22343,-3512.12,-11866,-0,12374.8,-173769
step02_gravity_refstate-crust.xmf,396,-4.09665e-06,5.86441e-06,0,-3.1006e-06,-3.67905e+08,-3.67222e+08,-3.67624e+08,-212701,0.0169759,-0.230057,0,0.230683,-3748.65,-13386.5,-0,13901.4,-212701
step02_gravity_refstate-crust.xmf,397,-3.83819e-06,4.36136e-06,0,-2.09792e-06,-2.84023e+08,-2.8346e+08,-2.83759e+08,-143917,0.0135877,-0.216443,0,0.216869,-3340.05,-10331.4,-0,10857.8,-143917
step02_gravity_refstate-crust.xmf,398,-3.83072e-06,3.73123e-06,0,-1.73369e-06,-2.41697e+08,-2.41178e+08,-2.41434e+08,-118931,0.0127854,-0.210799,0,0.211187,-3187.52,-8789.51,-0,9349.64,-118931
step02_gravity_refstate-crust.xmf,399,-3.94601e-06,3.19802e-06,0,-1.40314e-06,-1.98573e+08,-1.98083e+08,-1.98303e+08,-96255.4,0.0124195,-0.205892,0,0.206266,-3033.68,-7218.25,-0,7829.84,-96255.4
step02_gravity_refstate-crust.xmf,400,-4.22455e-06,2.77225e-06,0,-1.0824e-06,-1.5373e+08,-1.5325e+08,-1.5344e+08,-74252.7,0.0124561,-0.20155,0,0.201934,-2861.71,-5583.88,-0,6274.48,-74252.7
step02_gravity_refstate-crust.xmf,401,-4.7349e-06,2.49304e-06,0,-7.39938e-07,-1.06823e+08,-1.06328e+08,-1.06499e+08,-50759.7,0.0126107,-0.197754,0,0.198156,-2600.71,-3873.72,-0,4665.77,-50759.7
step02_gravity_refstate-crust.xmf,402,-5.70246e-06,2.42778e-06,0,-3.81057e-07,-5.24517e+07,-5.1894e+07,-5.20605e+07,-26140.5,0.0129607,-0.193704,0,0.194137,-2242.55,-1890.25,-0,2932.93,-26140.5
step02_gravity_refstate-crust.xmf,403,-5.17371e-06,9.10101e-06,0,-5.19608e-06,-4.96946e+08,-4.95967e+08,-4.96591e+08,-356451,0.0241287,-0.263751,0,0.264852,-3887.06,-18085,-0,18498,-356451
step02_gravity_refstate-crust.xmf,404,-4.45699e-06,6.83327e-06,0,-3.34916e-06,-4.05503e+08,-4.04728e+08,-4.05197e+08,-229753,0.0173931,-0.239904,0,0.240533,-3524.53,-14755.3,-0,15170.4,-229753
step02_gravity_refstate-crust.xmf,405,-4.74038e-06,7.66989e-06,0,-3.86141e-06,-4.39054e+08,-4.38203e+08,-4.38729e+08,-264893,0.0192042,-0.248323,0,0.249065,-3590.42,-15976.9,-0,16375.4,-264893
step02_gravity_refstate-crust.xmf,406,-4.96069e-06,8.37868e-06,0,-4.47598e-06,-4.67972e+08,-4.67056e+08,-4.67631e+08,-307052,0.0214952,-0.255734,0,0.256636,-3737.7,-17029.9,-0,17435.2,-307052
step02_gravity_refstate-crust.xmf,407,-6.72334e-06,1.53915e-05,0,-1.24263e-05,-6.73571e+08,-6.72053e+08,-6.73109e+08,-852444,0.0418118,-0.343039,0,0.345578,-3788.04,-24518.6,-0,24809.5,-852444
step02_gravity_refstate-crust.xmf,408,-7.71029e-06,1.75655e-05,0,-1.3375e-05,-6.92475e+08,-6.90741e+08,-6.91946e+08,-917522,0.0417865,-0.362405,0,0.364806,-3414.2,-25206.3,-0,25436.4,-917522
step02_gravity_refstate-crust.xmf,409,-6.24884e-06,1.12503e-05,0,-5.49412e-06,-5.39942e+08,-5.38741e+08,-5.39513e+08,-376897,0.0236979,-0.285017,0,0.286,-3253.08,-19649.3,-0,19916.7,-376897
step02_gravity_refstate-crust.xmf,410,-6.65268e-06,1.24131e-05,0,-6.47609e-06,-5.70323e+08,-5.69015e+08,-5.69867e+08,-444260,0.0266143,-0.297461,0,0.298649,-3313.96,-20755.5,-0,21018.4,-444260
step02_gravity_refstate-crust.xmf,411,-6.67752e-06,1.39927e-05,0,-9.89955e-06,-6.33369e+08,-6.31951e+08,-6.32911e+08,-679109,0.0365861,-0.321484,0,0.323559,-3794.46,-23053.1,-0,23363.3,-679109
step02_gravity_refstate-crust.xmf,412,-7.22865e-06,1.40761e-05,0,-8.27099e-06,-6.13742e+08,-6.1228e+08,-6.13246e+08,-567390,0.0313298,-0.317712,0,0.319253,-3370.9,-22336.4,-0,22589.4,-567390
step02_gravity_refstate-crust.xmf,413,-6.04827e-06,1.99239e-05,0,-2.21984e-05,-7.72543e+08,-7.70761e+08,-7.72128e+08,-1.52281e+06,0.0508282,-0.42637,0,0.429389,-3159.04,-28131.6,-0,28308.4,-1.52281e+06
step02_gravity_refstate-crust.xmf,414,-8.93444e-06,2.30803e-05,0,-1.98473e-05,-7.58006e+08,-7.55809e+08,-7.57393e+08,-1.36153e+06,0.0467378,-0.426719,0,0.429271,-2847.77,-27595.5,-0,27742.1,-1.36153e+06
step02_gravity_refstate-crust.xmf,415,1.28097e-06,5.38168e-06,0,-1.57592e-05,-7.43859e+08,-7.43578e+08,-7.43947e+08,-1.08108e+06,0.0542656,-0.312143,0,0.316825,-5933.43,-27094.4,-0,27736.5,-1.08108e+06
step02_gravity_refstate-crust.xmf,416,-5.33065e-08,8.80286e-06,0,-1.84248e-05,-7.61048e+08,-7.60441e+08,-7.61045e+08,-1.26394e+06,0.0548029,-0.354167,0,0.358382,-4836.51,-27720.1,-0,28138.9,-1.26394e+06
step02_gravity_refstate-crust.xmf,417,1.45112e-07,9.75399e-06,0,-2.02997e-05,-7.7921e+08,-7.78551e+08,-7.7922e+08,-1.39256e+06,0.0543273,-0.37727,0,0.381161,-4405.64,-28383.6,-0,28723.5,-1.39256e+06
step02_gravity_refstate-crust.xmf,418,1.48923e-06,2.40725e-06,0,-1.10678e-05,-6.66848e+08,-6.66785e+08,-6.6695e+08,-759249,0.0501387,-0.23364,0,0.23896,-8545.66,-24287,-0,25746.6,-759249
step02_gravity_refstate-crust.xmf,419,1.68139e-06,2.57308e-06,0,-1.18443e-05,-6.89039e+08,-6.88977e+08,-6.89154e+08,-812519,0.0512127,-0.246999,0,0.252252,-8041.33,-25095.9,-0,26352.8,-812519
step02_gravity_refstate-crust.xmf,420,1.87131e-06,2.77649e-06,0,-1.26272e-05,-7.07723e+08,-7.07661e+08,-7.07851e+08,-866227,0.0520263,-0.260131,0,0.265282,-7578.7,-25777.2,-0,26868.2,-866227
step02_gravity_refstate-crust.xmf,421,1.73953e-06,1.52419e-06,0,-1.00991e-05,-6.50428e+08,-6.50443e+08,-6.50547e+08,-692800,0.0483959,-0.213098,0,0.218525,-9484.32,-23688.9,-0,25517,-692800
step02_gravity_refstate-crust.xmf,422,1.89192e-06,8.89522e-07,0,-9.31622e-06,-6.35142e+08,-6.3521e+08,-6.35271e+08,-639092,0.0466918,-0.195775,0,0.201266,-10357.6,-23132,-0,25345,-639092
step02_gravity_refstate-crust.xmf,423,2.00979e-06,3.03851e-08,0,-8.00516e-06,-6.0224e+08,-6.02376e+08,-6.02378e+08,-549154,0.0431245,-0.164505,0,0.170064,-12153.6,-21933.3,-0,25075.5,-549154
step02_gravity_refstate-crust.xmf,424,1.98331e-06,3.98315e-07,0,-8.63119e-06,-6.19758e+08,-6.19867e+08,-6.19894e+08,-592100,0.0449419,-0.1798,0,0.185331,-11237.4,-22571.6,-0,25214.2,-592100
step02_gravity_refstate-crust.xmf,425,1.96877e-06,-1.22054e-06,0,-4.75679e-06,-5.1971e+08,-5.19929e+08,-5.19845e+08,-326316,0.0292792,-0.0704977,0,0.0763361,-19631.1,-18926.6,-0,27268.9,-326316
step02_gravity_refstate-crust.xmf,426,2.09468e-06,-1.15736e-06,0,-5.59265e-06,-5.48744e+08,-5.48967e+08,-5.48887e+08,-383656,0.0334339,-0.0968697,0,0.102477,-17149.1,-19984.2,-0,26333.7,-383656
step02_gravity_refstate-crust.xmf,427,2.09592e-06,-1.2945e-06,0,-5.16797e-06,-5.45872e+08,-5.46105e+08,-5.46016e+08,-354523,0.0311263,-0.0837723,0,0.0893681,-18291.4,-19879.5,-0,27014.2,-354523
step02_gravity_refstate-crust.xmf,428,2.42077e-06,-7.90414e-07,0,-7.36479e-06,-6.16849e+08,-6.17069e+08,-6.17015e+08,-505225,0.0405735,-0.147595,0,0.15307,-13215.1,-22465.6,-0,26064.2,-505225
step02_gravity_refstate-crust.xmf,429,1.5133e-06,-5.86801e-07,0,-8.28514e-07,-4.1662e+08,-4.16764e+08,-4.16724e+08,-56836.1,0.00627313,0.0262072,0,0.0269476,-35817.7,-15172.7,-0,38898.9,-56836.1
step02_gravity_refstate-crust.xmf,430,1.51694e-06,-5.57521e-07,0,-4.31714e-07,-4.12293e+08,-4.12435e+08,-4.12397e+08,-29615.5,0.00332247,0.0293424,0,0.0295299,-37804.3,-15015.2,-0,40677,-29615.5
step02_gravity_refstate-crust.xmf,431,1.68769e-06,-5.56815e-07,0,-1.99618e-09,-3.71215e+08,-3.71369e+08,-3.71331e+08,-136.938,6.70503e-19,0.0297474,0,0.0297474,-40000,-13520.4,-0,42223.2,-136.938
step02_gravity_refstate-crust.xmf,432,1.97352e-06,-1.39174e-06,0,-4.21897e-06,-5.41313e+08,-5.41543e+08,-5.41448e+08,-289422,0.0256566,-0.0552488,0,0.0609155,-21051.7,-19712.9,-0,28840.4,-289422
step02_gravity_refstate-crust.xmf,433,1.49395e-06,-7.61749e-07,0,-1.85994e-06,-4.50392e+08,-4.50547e+08,-4.50495e+08,-127592,0.012828,0.0103159,0,0.0164613,-30859,-16401.8,-0,34947,-127592
step02_gravity_refstate-crust.xmf,434,1.36489e-06,-6.9489e-07,0,-1.41963e-06,-4.75881e+08,-4.76022e+08,-4.75974e+08,-97386.7,0.00926889,0.0189547,0,0.0210996,-32805.6,-17329.4,-0,37101.4,-97386.7
step02_gravity_refstate-crust.xmf,435,1.51288e-06,-8.90524e-07,0,-2.25618e-06,-4.80502e+08,-4.80666e+08,-4.80605e+08,-154774,0.0146296,0.00163969,0,0.0147212,-28965,-17497.9,-0,33840,-154774
step02_gravity_refstate-crust.xmf,436,-7.15333e-06,2.71193e-06,0,-1.50528e-08,-679620,-2863.6,-188902,-1032.62,0.00713653,-0.190653,0,0.190787,-997.56,0,-0,997.56,-1032.62
step02_gravity_refstate-crust.xmf,437,-5.94526e-06,1.03408e-05,0,-4.59699e-06,-5.11539e+08,-5.10422e+08,-5.11131e+08,-315354,0.0206306,-0.2753,0,0.276072,-3078.65,-18615,-0,18867.9,-315354
step02_gravity_refstate-crust.xmf,438,-8.77368e-06,1.96867e-05,0,-1.44007e-05,-7.10301e+08,-7.08349e+08,-7.097e+08,-987887,0.0416515,-0.382352,0,0.384614,-3078.55,-25854.2,-0,26036.9,-987887
step02_gravity_refstate-crust.xmf,439,-7.66959e-06,1.58707e-05,0,-1.05552e-05,-6.55021e+08,-6.53406e+08,-6.54495e+08,-724086,0.0364522,-0.339981,0,0.34193,-3393.56,-23840.2,-0,24080.6,-724086
step02_gravity_refstate-crust.xmf,440,-7.56225e-06,1.40582e-05,0,-6.71012e-06,-5.94747e+08,-5.93264e+08,-5.94228e+08,-460314,0.0260511,-0.31337,0,0.314451,-2919.63,-21643.5,-0,21839.6,-460314
step02_gravity_refstate-crust.xmf,441,-9.99077e-06,2.27348e-05,0,-1.56167e-05,-7.2773e+08,-7.25485e+08,-7.27045e+08,-1.0713e+06,0.0414048,-0.403702,0,0.40582,-2767.98,-26488.5,-0,26632.8,-1.0713e+06
step02_gravity_refstate-crust.xmf,442,-1.0516e-06,1.25266e-05,0,-2.20696e-05,-7.87317e+08,-7.86386e+08,-7.87245e+08,-1.51398e+06,0.0536375,-0.403993,0,0.407538,-3869.04,-28678.2,-0,28938,-1.51398e+06
step02_gravity_refstate-crust.xmf,443,-3.42471e-06,1.69372e-05,0,-2.3422e-05,-7.86457e+08,-7.8506e+08,-7.86222e+08,-1.60675e+06,0.0525856,-0.425973,0,0.429206,-3383.55,-28644.1,-0,28843.3,-1.60675e+06
step02_gravity_refstate-crust.xmf,444,-1.12738e-05,2.56359e-05,0,-1.66846e-05,-7.43108e+08,-7.40576e+08,-7.42335e+08,-1.14457e+06,0.0408555,-0.424808,0,0.426768,-2491.72,-27047.7,-0,27162.2,-1.14457e+06
step02_gravity_refstate-crust.xmf,445,1.56151e-06,5.63268e-06,0,-1.68897e-05,-7.61311e+08,-7.61032e+08,-7.61418e+08,-1.15863e+06,0.0542358,-0.328276,0,0.332726,-5556.8,-27731.3,-0,28282.6,-1.15863e+06
step02_gravity_refstate-crust.xmf,446,2.06967e-06,2.97447e-06,0,-1.34777e-05,-7.26042e+08,-7.2598e+08,-7.26184e+08,-924571,0.0526184,-0.274078,0,0.279083,-7125.59,-26445.2,-0,27388.4,-924571
step02_gravity_refstate-crust.xmf,447,2.34995e-06,3.12511e-06,0,-1.43893e-05,-7.44091e+08,-7.44038e+08,-7.44253e+08,-987105,0.0528811,-0.288647,0,0.293451,-6691.36,-27103.7,-0,27917.5,-987105
step02_gravity_refstate-crust.xmf,448,2.30049e-06,-1.45284e-06,0,-5.39887e-06,-5.78479e+08,-5.78736e+08,-5.78636e+08,-370362,0.0317905,-0.0919979,0,0.0973358,-17439.2,-21067.2,-0,27348.7,-370362
step02_gravity_refstate-crust.xmf,449,2.44841e-06,-1.48715e-06,0,-5.78117e-06,-5.98396e+08,-5.98666e+08,-5.98564e+08,-396589,0.0334632,-0.104059,0,0.109307,-16373,-21792.8,-0,27258.1,-396589
step02_gravity_refstate-crust.xmf,450,2.59179e-06,-1.48024e-06,0,-6.21631e-06,-6.16588e+08,-6.16867e+08,-6.16766e+08,-426439,0.0352983,-0.117117,0,0.122321,-15309.7,-22455.7,-0,27178,-426439
step02_gravity_refstate-crust.xmf,451,2.72777e-06,-1.43301e-06,0,-6.68848e-06,-6.33534e+08,-6.3382e+08,-6.33721e+08,-458830,0.0371687,-0.13068,0,0.135864,-14290.5,-23073.3,-0,27140.2,-458830
step02_gravity_refstate-crust.xmf,452,1.32429e-06,-5.749e-07,0,-7.13719e-07,-4.64404e+08,-4.64534e+08,-4.64495e+08,-48961.1,0.00479477,0.0282181,0,0.0286226,-36323.3,-16911.6,-0,40067.2,-48961.1
step02_gravity_refstate-crust.xmf,453,1.60028e-06,-1.02525e-06,0,-2.71456e-06,-4.95754e+08,-4.95934e+08,-4.95864e+08,-186219,0.0172244,-0.0102037,0,0.0200199,-26908.8,-18053.3,-0,32403.8,-186219
step02_gravity_refstate-crust.xmf,454,1.67864e-06,-1.15799e-06,0,-3.03323e-06,-5.17667e+08,-5.17861e+08,-5.17782e+08,-208079,0.0186892,-0.0193937,0,0.0269333,-25447.9,-18851.2,-0,31669.6,-208079
step02_gravity_refstate-crust.xmf,455,1.78602e-06,-1.30389e-06,0,-3.36133e-06,-5.40248e+08,-5.4046e+08,-5.4037e+08,-230587,0.0202341,-0.029717,0,0.0359516,-23960.1,-19673.5,-0,31002.1,-230587
step02_gravity_refstate-crust.xmf,456,1.92001e-06,-1.45371e-06,0,-3.69946e-06,-5.62203e+08,-5.62435e+08,-5.62335e+08,-253783,0.0218862,-0.0409997,0,0.0464756,-22482.8,-20473.1,-0,30407.6,-253783
step02_gravity_refstate-crust.xmf,457,1.23045e-06,-6.2058e-07,0,-1.0027e-06,-4.99201e+08,-4.99328e+08,-4.99285e+08,-68785.2,0.0061896,0.025473,0,0.0262142,-34741.4,-18177.9,-0,39209.7,-68785.2
step02_gravity_refstate-crust.xmf,458,-4.12594e-06,5.03984e-06,0,-1.5494e-06,-3.0891e+08,-3.08281e+08,-3.08627e+08,-106289,0.009373,-0.224469,0,0.224664,-2209.94,-11237.3,-0,11452.5,-106289
step02_gravity_refstate-crust.xmf,459,-4.34155e-06,5.89626e-06,0,-1.92214e-06,-3.50067e+08,-3.49365e+08,-3.4977e+08,-131859,0.0107211,-0.232103,0,0.232351,-2379.67,-12736.1,-0,12956.5,-131859
step02_gravity_refstate-crust.xmf,460,-4.65529e-06,6.83761e-06,0,-2.25833e-06,-3.88713e+08,-3.87925e+08,-3.88394e+08,-154921,0.0118787,-0.240795,0,0.241088,-2439.88,-14143.2,-0,14352.2,-154921
step02_gravity_refstate-crust.xmf,461,-4.18574e-06,3.10854e-06,0,-6.91825e-07,-1.7947e+08,-1.7897e+08,-1.79183e+08,-47459.2,0.00671428,-0.207091,0,0.2072,-1587.52,-6521.67,-0,6712.1,-47459.2
step02_gravity_refstate-crust.xmf,462,-4.02084e-06,4.28103e-06,0,-1.19164e-06,-2.65932e+08,-2.65362e+08,-2.65656e+08,-81746.7,0.00805062,-0.217828,0,0.217977,-1965.96,-9671.88,-0,9869.66,-81746.7
step02_gravity_refstate-crust.xmf,463,-4.0316e-06,3.64929e-06,0,-9.08889e-07,-2.23704e+08,-2.23177e+08,-2.23427e+08,-62349.8,0.00710938,-0.212232,0,0.212351,-1740.57,-8133.5,-0,8317.65,-62349.8
step02_gravity_refstate-crust.xmf,464,-4.53304e-06,2.70855e-06,0,-4.87556e-07,-1.34196e+08,-1.33699e+08,-1.33885e+08,-33446.3,0.00638392,-0.202604,0,0.202705,-1396.68,-4871.4,-0,5067.67,-33446.3
step02_gravity_refstate-crust.xmf,465,-5.15588e-06,2.49446e-06,0,-2.67989e-07,-8.82394e+07,-8.77146e+07,-8.78858e+07,-18384,0.00515146,-0.198718,0,0.198785,-998.487,-3195.45,-0,3347.81,-18384
step02_gravity_refstate-crust.xmf,466,-5.97795e-06,2.48643e-06,0,-3.25456e-08,-4.62155e+07,-4.56348e+07,-4.58054e+07,-2232.63,0.000212375,-0.195367,0,0.195367,-35.7565,-1662.19,-0,1662.57,-2232.63
step02_gravity_refstate-crust.xmf,467,-5.64144e-06,9.4341e-06,0,-3.72208e-06,-4.80783e+08,-4.79748e+08,-4.80396e+08,-255334,0.0173739,-0.265958,0,0.266525,-2823.75,-17495.2,-0,17721.6,-255334
step02_gravity_refstate-crust.xmf,468,-5.00943e-06,7.77129e-06,0,-2.61556e-06,-4.22757e+08,-4.2188e+08,-4.22413e+08,-179427,0.013131,-0.249603,0,0.249948,-2486.69,-15382.7,-0,15582.4,-179427
step02_gravity_refstate-crust.xmf,469,-5.35537e-06,8.66731e-06,0,-3.10449e-06,-4.53649e+08,-4.52687e+08,-4.53282e+08,-212968,0.0149802,-0.258181,0,0.258615,-2618.58,-16507.3,-0,16713.7,-212968
step02_gravity_refstate-crust.xmf,470,-8.80032e-06,1.8299e-05,0,-1.11365e-05,-6.74138e+08,-6.72279e+08,-6.73535e+08,-763962,0.0358544,-0.358662,0,0.360449,-3012.17,-24535.4,-0,24719.6,-763962
step02_gravity_refstate-crust.xmf,471,-1.00611e-05,2.08807e-05,0,-1.1799e-05,-6.93062e+08,-6.90939e+08,-6.92372e+08,-809414,0.0352437,-0.378539,0,0.380176,-2669.55,-25223.2,-0,25364.1,-809414
step02_gravity_refstate-crust.xmf,472,-6.73427e-06,1.16472e-05,0,-3.85918e-06,-5.26917e+08,-5.25656e+08,-5.26455e+08,-264740,0.0167161,-0.286623,0,0.28711,-2312.99,-19173.7,-0,19312.7,-264740
step02_gravity_refstate-crust.xmf,473,-7.22894e-06,1.28258e-05,0,-4.63583e-06,-5.54547e+08,-5.53171e+08,-5.54051e+08,-318018,0.0192008,-0.298097,0,0.298715,-2427.76,-20179.4,-0,20325,-318018
step02_gravity_refstate-crust.xmf,474,-8.24283e-06,1.61929e-05,0,-8.67903e-06,-6.3586e+08,-6.34184e+08,-6.35295e+08,-595381,0.0308991,-0.335063,0,0.336484,-2993.11,-23140.9,-0,23333.6,-595381
step02_gravity_refstate-crust.xmf,475,-7.69676e-06,1.38806e-05,0,-5.32944e-06,-5.77879e+08,-5.76399e+08,-5.77351e+08,-365599,0.0212015,-0.30906,0,0.309786,-2472.98,-21028.6,-0,21173.5,-365599
step02_gravity_refstate-crust.xmf,476,-8.54975e-06,1.59107e-05,0,-6.87268e-06,-6.16591e+08,-6.14913e+08,-6.16004e+08,-471466,0.0251931,-0.329255,0,0.330217,-2556.29,-22437.7,-0,22582.8,-471466
step02_gravity_refstate-crust.xmf,477,-9.04741e-07,1.32099e-05,0,-2.36099e-05,-7.99655e+08,-7.98687e+08,-7.99593e+08,-1.61964e+06,0.0523348,-0.42168,0,0.424915,-3622.55,-29129,-0,29353.4,-1.61964e+06
step02_gravity_refstate-crust.xmf,478,-7.03935e-06,2.29474e-05,0,-2.44735e-05,-7.85938e+08,-7.83881e+08,-7.85455e+08,-1.67888e+06,0.0497072,-0.451408,0,0.454136,-2831.96,-28619.9,-0,28759.7,-1.67888e+06
step02_gravity_refstate-crust.xmf,479,-1.03873e-05,2.66061e-05,0,-2.16541e-05,-7.72331e+08,-7.69793e+08,-7.71618e+08,-1.48547e+06,0.0457223,-0.451215,0,0.453525,-2541.84,-28116.6,-0,28231.3,-1.48547e+06
step02_gravity_refstate-crust.xmf,480,-1.26291e-05,2.86599e-05,0,-1.82705e-05,-7.59048e+08,-7.56216e+08,-7.58182e+08,-1.25335e+06,0.0404849,-0.447707,0,0.449534,-2256.35,-27627.2,-0,27719.2,-1.25335e+06
step02_gravity_refstate-crust.xmf,481,2.65133e-06,3.19175e-06,0,-1.53016e-05,-7.61671e+08,-7.61634e+08,-7.61853e+08,-1.04969e+06,0.0526673,-0.303431,0,0.307967,-6287.91,-27745.1,-0,28448.7,-1.04969e+06
step02_gravity_refstate-crust.xmf,482,1.91101e-06,5.84585e-06,0,-1.81045e-05,-7.78738e+08,-7.78468e+08,-7.78869e+08,-1.24197e+06,0.053588,-0.345815,0,0.349942,-5181.87,-28367.5,-0,28836.9,-1.24197e+06
step02_gravity_refstate-crust.xmf,483,7.81699e-07,9.23927e-06,0,-2.13774e-05,-7.97814e+08,-7.97233e+08,-7.97867e+08,-1.46649e+06,0.0526188,-0.393338,0,0.396842,-4189.89,-29062.7,-0,29363.1,-1.46649e+06
step02_gravity_refstate-crust.xmf,484,2.42375e-06,7.42736e-07,0,-1.02132e-05,-6.77255e+08,-6.7737e+08,-6.77421e+08,-700626,0.0481718,-0.212785,0,0.21817,-9554.05,-24667.1,-0,26452.7,-700626
step02_gravity_refstate-crust.xmf,485,2.32723e-06,1.25111e-06,0,-1.09615e-05,-6.89612e+08,-6.89685e+08,-6.89771e+08,-751958,0.049588,-0.228397,0,0.233718,-8853.5,-25117.4,-0,26632,-751958
step02_gravity_refstate-crust.xmf,486,2.59049e-06,1.19354e-06,0,-1.14925e-05,-7.0766e+08,-7.07756e+08,-7.07838e+08,-788383,0.0500376,-0.23812,0,0.24332,-8469.41,-25775.4,-0,27131.2,-788383
step02_gravity_refstate-crust.xmf,487,2.81862e-06,1.31005e-06,0,-1.22431e-05,-7.26116e+08,-7.2622e+08,-7.2631e+08,-839878,0.0505694,-0.251725,0,0.256755,-7958.88,-26448.4,-0,27620,-839878
step02_gravity_refstate-crust.xmf,488,2.47345e-06,2.38173e-07,0,-9.40658e-06,-6.62708e+08,-6.62861e+08,-6.62878e+08,-645292,0.0464408,-0.195718,0,0.201152,-10390.7,-24136.9,-0,26278.5,-645292
step02_gravity_refstate-crust.xmf,489,2.51448e-06,-2.09835e-07,0,-8.66172e-06,-6.48346e+08,-6.48533e+08,-6.48518e+08,-594194,0.0445282,-0.178882,0,0.18434,-11295.6,-23613.5,-0,26176.1,-594194
step02_gravity_refstate-crust.xmf,490,2.50278e-06,-5.49395e-07,0,-7.98305e-06,-6.33264e+08,-6.33473e+08,-6.33436e+08,-547637,0.0425312,-0.162685,0,0.168153,-12247.2,-23063.9,-0,26113.9,-547637
step02_gravity_refstate-crust.xmf,491,2.80013e-06,-1.31818e-06,0,-7.19227e-06,-6.47139e+08,-6.47422e+08,-6.47331e+08,-493390,0.0391092,-0.144549,0,0.149746,-13335.9,-23569,-0,27080.4,-493390
step02_gravity_refstate-crust.xmf,492,2.13966e-06,-1.51395e-06,0,-4.55498e-06,-5.65629e+08,-5.65879e+08,-5.65776e+08,-312472,0.0271708,-0.0666122,0,0.0719405,-19785.1,-20598.6,-0,28561.4,-312472
step02_gravity_refstate-crust.xmf,493,2.05464e-06,-1.60418e-06,0,-4.00998e-06,-5.84624e+08,-5.84875e+08,-5.84765e+08,-275085,0.0233781,-0.0521327,0,0.0571345,-21130.5,-21289.7,-0,29995.8,-275085
step02_gravity_refstate-crust.xmf,494,1.39058e-06,-5.37339e-07,0,-2.72808e-09,-4.4054e+08,-4.40672e+08,-4.40635e+08,-187.146,4.38018e-19,0.0311266,0,0.0311266,-40000,-16043.1,-0,43097.3,-187.146
step02_gravity_refstate-crust.xmf,495,1.34613e-06,-7.95532e-07,0,-1.73101e-06,-5.05719e+08,-5.05866e+08,-5.05811e+08,-118747,0.0106267,0.0131635,0,0.0169176,-31144.5,-18415.4,-0,36181.6,-118747
step02_gravity_refstate-crust.xmf,496,1.1771e-06,-6.93508e-07,0,-1.29101e-06,-5.29723e+08,-5.29851e+08,-5.29803e+08,-88563.3,0.00740407,0.0213917,0,0.0226368,-33116.9,-19288.8,-0,38324.8,-88563.3
step02_gravity_refstate-crust.xmf,497,1.48432e-06,-9.95046e-07,0,-2.35311e-06,-5.21415e+08,-5.21585e+08,-5.21517e+08,-161424,0.0142243,-0.00139922,0,0.014293,-28181.4,-18987.1,-0,33980.9,-161424
step02_gravity_refstate-crust.xmf,498,-4.36615e-06,2.94949e-06,0,-7.73354e-08,-1.59433e+08,-1.58931e+08,-1.59133e+08,-5305.21,0.000867268,-0.206127,0,0.206129,-198.385,-5791.22,-0,5794.61,-5305.21
step02_gravity_refstate-crust.xmf,499,-7.14262e-06,2.71011e-06,0,-1.5319e-08,-678508,-2610.35,-188524,-1050.88,-0.00713331,-0.190652,-0,0.190785,997.56,0,0,997.56,-1050.88
step02_gravity_refstate-crust.xmf,500,-6.32581e-06,1.06172e-05,0,-3.06297e-06,-4.99332e+08,-4.9817e+08,-4.98898e+08,-210120,0.0137951,-0.276793,0,0.277137,-2074.86,-18169.5,-0,18287.6,-210120
step02_gravity_refstate-crust.xmf,501,-1.14826e-05,2.35641e-05,0,-1.26201e-05,-7.12136e+08,-7.09731e+08,-7.11348e+08,-865736,0.0345759,-0.400295,0,0.401785,-2354.84,-25916,-0,26022.8,-865736
step02_gravity_refstate-crust.xmf,502,-9.38224e-06,1.82468e-05,0,-8.99669e-06,-6.55954e+08,-6.54059e+08,-6.5531e+08,-617173,0.0300491,-0.352838,0,0.354116,-2629.99,-23871,-0,24015.4,-617173
step02_gravity_refstate-crust.xmf,503,-8.60012e-06,1.54606e-05,0,-5.13873e-06,-5.96596e+08,-5.94945e+08,-5.96006e+08,-352517,0.019453,-0.322295,0,0.322882,-2084.5,-21708.8,-0,21808.7,-352517
step02_gravity_refstate-crust.xmf,504,-1.34293e-05,2.75788e-05,0,-1.34547e-05,-7.32049e+08,-7.29236e+08,-7.31128e+08,-922990,0.0332901,-0.426168,0,0.427466,-2017.99,-26639.3,-0,26715.7,-922990
step02_gravity_refstate-crust.xmf,505,-3.55479e-06,1.87614e-05,0,-2.56319e-05,-7.99421e+08,-7.9789e+08,-7.99177e+08,-1.75835e+06,0.0511489,-0.449623,0,0.452523,-3078.91,-29118.4,-0,29280.7,-1.75835e+06
step02_gravity_refstate-crust.xmf,506,-1.36568e-05,2.91858e-05,0,-1.5535e-05,-7.47591e+08,-7.44652e+08,-7.46654e+08,-1.0657e+06,0.0359956,-0.441564,0,0.443028,-2048.55,-27206.7,-0,27283.7,-1.0657e+06
step02_gravity_refstate-crust.xmf,507,2.98895e-06,3.20192e-06,0,-1.62328e-05,-7.78993e+08,-7.78978e+08,-7.79198e+08,-1.11357e+06,0.0518077,-0.318693,0,0.322877,-5905.52,-28377.1,-0,28985.1,-1.11357e+06
step02_gravity_refstate-crust.xmf,508,2.2218e-06,5.95771e-06,0,-1.92659e-05,-7.95851e+08,-7.95595e+08,-7.96004e+08,-1.32164e+06,0.0519808,-0.363679,0,0.367375,-4836.81,-28992,-0,29392.7,-1.32164e+06
step02_gravity_refstate-crust.xmf,509,7.32144e-07,9.62826e-06,0,-2.2646e-05,-8.1324e+08,-8.1263e+08,-8.1329e+08,-1.55352e+06,0.0497697,-0.413302,0,0.416288,-3895.49,-29624.7,-0,29879.7,-1.55352e+06
step02_gravity_refstate-crust.xmf,510,3.07492e-06,1.38594e-06,0,-1.30392e-05,-7.4443e+08,-7.44546e+08,-7.44641e+08,-894487,0.0507616,-0.266059,0,0.270858,-7464.44,-27116.3,-0,28124.9,-894487
step02_gravity_refstate-crust.xmf,511,3.37178e-06,1.31585e-06,0,-1.37626e-05,-7.6228e+08,-7.62421e+08,-7.62512e+08,-944113,0.0503476,-0.279577,0,0.284074,-7037.27,-27767.3,-0,28645.1,-944113
step02_gravity_refstate-crust.xmf,512,2.9195e-06,-1.80938e-06,0,-6.44077e-06,-6.58783e+08,-6.59108e+08,-6.58983e+08,-441837,0.0353083,-0.127401,0,0.132203,-14411.5,-23992.7,-0,27988.2,-441837
step02_gravity_refstate-crust.xmf,513,2.29168e-06,-1.6646e-06,0,-4.81614e-06,-5.9375e+08,-5.94021e+08,-5.93907e+08,-330387,0.0281833,-0.0766859,0,0.0817009,-18694.8,-21622.8,-0,28583.9,-330387
step02_gravity_refstate-crust.xmf,514,2.47653e-06,-1.76412e-06,0,-5.1662e-06,-6.14593e+08,-6.14884e+08,-6.14763e+08,-354402,0.029727,-0.0885114,0,0.09337,-17554.2,-22382.2,-0,28444.9,-354402
step02_gravity_refstate-crust.xmf,515,2.65651e-06,-1.84479e-06,0,-5.5516e-06,-6.34245e+08,-6.34554e+08,-6.34427e+08,-380840,0.0313884,-0.101221,0,0.105976,-16424.8,-23098.2,-0,28342.6,-380840
step02_gravity_refstate-crust.xmf,516,2.84441e-06,-1.89872e-06,0,-5.99105e-06,-6.52438e+08,-6.52764e+08,-6.52634e+08,-410986,0.0331943,-0.114955,0,0.119651,-15306.9,-23761.2,-0,28264.8,-410986
step02_gravity_refstate-crust.xmf,517,1.92214e-06,-1.61018e-06,0,-3.51264e-06,-6.04435e+08,-6.04677e+08,-6.04567e+08,-240967,0.0196525,-0.0392463,0,0.0438918,-22414.1,-22010.3,-0,31414.1,-240967
step02_gravity_refstate-crust.xmf,518,1.21407e-06,-5.352e-07,0,-3.37107e-07,-4.85775e+08,-4.85895e+08,-4.85858e+08,-23125.5,0.00214978,0.031219,0,0.0312929,-38222,-17689.2,-0,42116.9,-23125.5
step02_gravity_refstate-crust.xmf,519,1.09365e-06,-5.5635e-07,0,-6.40202e-07,-5.22312e+08,-5.22425e+08,-5.22387e+08,-43917.9,0.00370419,0.0297717,0,0.0300013,-36529.6,-19018.8,-0,41184.1,-43917.9
step02_gravity_refstate-crust.xmf,520,1.54865e-06,-1.12116e-06,0,-2.60479e-06,-5.42676e+08,-5.42859e+08,-5.42782e+08,-178689,0.0152919,-0.00860453,0,0.0175465,-26872.7,-19761.2,-0,33356.4,-178689
step02_gravity_refstate-crust.xmf,521,1.64331e-06,-1.27216e-06,0,-2.87903e-06,-5.65277e+08,-5.65477e+08,-5.6539e+08,-197502,0.0164767,-0.017294,0,0.0238865,-25447.1,-20584.2,-0,32730.1,-197502
step02_gravity_refstate-crust.xmf,522,1.77966e-06,-1.43932e-06,0,-3.2014e-06,-5.84385e+08,-5.84606e+08,-5.84507e+08,-219616,0.0181103,-0.0280697,0,0.0334049,-23890.4,-21280.1,-0,31993.7,-219616
step02_gravity_refstate-crust.xmf,523,1.0161e-06,-6.01686e-07,0,-9.1467e-07,-5.53965e+08,-5.54076e+08,-5.54035e+08,-62746.4,0.00485864,0.0270673,0,0.0274999,-34891.8,-20170.8,-0,40302.6,-62746.4
step02_gravity_refstate-crust.xmf,524,1.34874e-06,-9.11453e-07,0,-1.98587e-06,-5.36716e+08,-5.36871e+08,-5.36809e+08,-136231,0.011499,0.00723742,0,0.013587,-29677.2,-19543.7,-0,35534.4,-136231
step02_gravity_refstate-crust.xmf,525,-4.1717e-06,4.8045e-06,0,-6.22588e-07,-2.90499e+08,-2.89883e+08,-2.90213e+08,-42709.5,0.00385627,-0.223669,0,0.223702,-917.916,-10566.5,-0,10606.3,-42709.5
step02_gravity_refstate-crust.xmf,526,-4.41805e-06,5.77187e-06,0,-9.04884e-07,-3.35352e+08,-3.34653e+08,-3.35049e+08,-62075,0.00516203,-0.231945,0,0.232002,-1159.19,-12199.9,-0,12254.8,-62075
step02_gravity_refstate-crust.xmf,527,-4.73383e-06,6.69973e-06,0,-1.10008e-06,-3.72889e+08,-3.72105e+08,-3.72565e+08,-75465.6,0.00588952,-0.240286,0,0.240358,-1232.08,-13566.6,-0,13622.5,-75465.6
step02_gravity_refstate-crust.xmf,528,-5.11614e-06,7.68666e-06,0,-1.35099e-06,-4.08162e+08,-4.07283e+08,-4.07811e+08,-92678,0.00687721,-0.24927,0,0.249365,-1326.75,-14850.7,-0,14909.9,-92678
step02_gravity_refstate-crust.xmf,529,-4.13945e-06,3.48131e-06,0,-1.4744e-07,-2.06489e+08,-2.05966e+08,-2.06205e+08,-10114.4,0.00130292,-0.211561,0,0.211565,-314.674,-7506.08,-0,7512.67,-10114.4
step02_gravity_refstate-crust.xmf,530,-4.11143e-06,4.1279e-06,0,-1.92202e-07,-2.50065e+08,-2.49499e+08,-2.49782e+08,-13185,0.00145432,-0.217539,0,0.217544,-354.04,-9093.61,-0,9100.5,-13185
step02_gravity_refstate-crust.xmf,531,-4.73852e-06,2.63615e-06,0,-3.24667e-08,-1.19628e+08,-1.19122e+08,-1.19303e+08,-2227.22,0.000532769,-0.202107,0,0.202108,-112.32,-4340.1,-0,4341.55,-2227.22
step02_gravity_refstate-crust.xmf,532,-5.16605e-06,2.49209e-06,0,1.89356e-07,-8.83825e+07,-8.78571e+07,-8.80281e+07,12989.8,-0.00423409,-0.198879,-0,0.198924,820.354,-3200.61,0,3304.07,-12989.8
step02_gravity_refstate-crust.xmf,533,-5.83687e-06,2.43394e-06,0,2.58619e-07,-4.75625e+07,-4.69951e+07,-4.71621e+07,17741.3,-0.0116351,-0.19377,-0,0.194119,1973.53,-1711.71,0,2612.43,-17741.3
step02_gravity_refstate-crust.xmf,534,-5.97027e-06,9.7014e-06,0,-2.11406e-06,-4.69721e+08,-4.68646e+08,-4.69311e+08,-145025,0.00994522,-0.267742,0,0.267927,-1624.61,-17091.5,-0,17168.6,-145025
step02_gravity_refstate-crust.xmf,535,-5.53943e-06,8.70577e-06,0,-1.66245e-06,-4.40571e+08,-4.39594e+08,-4.40191e+08,-114044,0.00811436,-0.258604,0,0.258732,-1438.52,-16030.5,-0,16094.9,-114044
step02_gravity_refstate-crust.xmf,536,-1.08241e-05,2.10139e-05,0,-8.98396e-06,-6.74051e+08,-6.71867e+08,-6.73308e+08,-616300,0.0278873,-0.371974,0,0.373018,-2203.5,-24528.2,-0,24627,-616300
step02_gravity_refstate-crust.xmf,537,-1.21387e-05,2.38104e-05,0,-9.6908e-06,-6.95351e+08,-6.92885e+08,-6.94518e+08,-664789,0.0278529,-0.392678,0,0.393665,-1978.02,-25302.7,-0,25379.9,-664789
step02_gravity_refstate-crust.xmf,538,-6.94717e-06,1.17123e-05,0,-2.2433e-06,-5.15008e+08,-5.13728e+08,-5.14531e+08,-153890,0.00979887,-0.286086,0,0.286254,-1379.88,-18739.4,-0,18790.1,-153890
step02_gravity_refstate-crust.xmf,539,-7.57681e-06,1.30675e-05,0,-2.77973e-06,-5.43039e+08,-5.41623e+08,-5.42519e+08,-190689,0.0115982,-0.29822,0,0.298446,-1486.1,-19759.4,-0,19815.3,-190689
step02_gravity_refstate-crust.xmf,540,-8.37947e-06,1.47792e-05,0,-3.43016e-06,-5.73575e+08,-5.71986e+08,-5.73e+08,-235309,0.0135322,-0.313225,0,0.313517,-1554.51,-20870.6,-0,20928.4,-235309
step02_gravity_refstate-crust.xmf,541,-9.66079e-06,1.81113e-05,0,-6.90647e-06,-6.36799e+08,-6.34894e+08,-6.36136e+08,-473784,0.0238747,-0.345691,0,0.346514,-2197.48,-23172.3,-0,23276.2,-473784
step02_gravity_refstate-crust.xmf,542,-9.6761e-06,1.7436e-05,0,-4.94939e-06,-6.18173e+08,-6.16313e+08,-6.17509e+08,-339528,0.0176554,-0.338177,0,0.338638,-1715.11,-22493.1,-0,22558.4,-339528
step02_gravity_refstate-crust.xmf,543,-1.06534e-06,1.41596e-05,0,-2.53049e-05,-8.13837e+08,-8.12793e+08,-8.13764e+08,-1.73591e+06,0.0495041,-0.445153,0,0.447897,-3318.43,-29646.2,-0,29831.3,-1.73591e+06
step02_gravity_refstate-crust.xmf,544,-8.02083e-06,2.62554e-05,0,-2.73612e-05,-7.99001e+08,-7.96649e+08,-7.9845e+08,-1.87698e+06,0.0480639,-0.477857,0,0.480268,-2541.09,-29096.6,-0,29207.4,-1.87698e+06
step02_gravity_refstate-crust.xmf,545,-1.58196e-05,3.34587e-05,0,-1.56642e-05,-7.60523e+08,-7.57143e+08,-7.59438e+08,-1.07456e+06,0.0333993,-0.464497,0,0.465696,-1744.6,-27675.4,-0,27730.3,-1.07456e+06
step02_gravity_refstate-crust.xmf,546,-1.21834e-05,3.09035e-05,0,-2.37929e-05,-7.86406e+08,-7.8345e+08,-7.8557e+08,-1.63219e+06,0.0442972,-0.47759,0,0.47964,-2264.6,-28628.5,-0,28717.9,-1.63219e+06
step02_gravity_refstate-crust.xmf,547,-1.46953e-05,3.32018e-05,0,-1.94733e-05,-7.7372e+08,-7.70434e+08,-7.72712e+08,-1.33587e+06,0.0388718,-0.473428,0,0.475021,-1982.34,-28160,-0,28229.7,-1.33587e+06
step02_gravity_refstate-crust.xmf,548,3.64889e-06,1.19736e-06,0,-1.4468e-05,-7.79617e+08,-7.79785e+08,-7.79867e+08,-992505,0.0492932,-0.293211,0,0.297326,-6638.49,-28399.3,-0,29164.9,-992505
step02_gravity_refstate-crust.xmf,549,3.22818e-06,3.19841e-06,0,-1.71575e-05,-7.95853e+08,-7.95855e+08,-7.96074e+08,-1.177e+06,0.0501361,-0.334855,0,0.338588,-5532.03,-28991.8,-0,29514.9,-1.177e+06
step02_gravity_refstate-crust.xmf,550,2.13211e-06,6.07377e-06,0,-2.03008e-05,-8.12289e+08,-8.12018e+08,-8.12435e+08,-1.39264e+06,0.0491315,-0.382138,0,0.385283,-4511.23,-29590.2,-0,29932.1,-1.39264e+06
step02_gravity_refstate-crust.xmf,551,3.0272e-06,-4.65322e-07,0,-9.37667e-06,-6.89963e+08,-6.90203e+08,-6.90171e+08,-643239,0.0453909,-0.195369,0,0.200573,-10402.6,-25130.3,-0,27198.3,-643239
step02_gravity_refstate-crust.xmf,552,3.0738e-06,-3.46819e-08,0,-1.0304e-05,-7.05475e+08,-7.05689e+08,-7.05686e+08,-706852,0.0472864,-0.214724,0,0.219869,-9481.57,-25695.9,-0,27389.4,-706852
step02_gravity_refstate-crust.xmf,553,3.31051e-06,-3.11272e-08,0,-1.09554e-05,-7.25735e+08,-7.25965e+08,-7.25962e+08,-751543,0.0477284,-0.228292,0,0.233228,-8894,-26434.5,-0,27890.6,-751543
step02_gravity_refstate-crust.xmf,554,3.53418e-06,5.65678e-08,0,-1.17444e-05,-7.4484e+08,-7.45079e+08,-7.45083e+08,-805668,0.0481049,-0.244373,0,0.249062,-8257.25,-27131,-0,28359.8,-805668
step02_gravity_refstate-crust.xmf,555,2.95451e-06,-7.61621e-07,0,-8.63727e-06,-6.75524e+08,-6.75779e+08,-6.75727e+08,-592517,0.0436365,-0.179164,0,0.184402,-11253.7,-24603.9,-0,27055.5,-592517
step02_gravity_refstate-crust.xmf,556,2.95452e-06,-1.1925e-06,0,-7.82408e-06,-6.64766e+08,-6.65051e+08,-6.64969e+08,-536732,0.0410423,-0.160227,0,0.1654,-12334.1,-24211.6,-0,27172.2,-536732
step02_gravity_refstate-crust.xmf,557,3.0797e-06,-1.85737e-06,0,-6.80528e-06,-6.7524e+08,-6.75579e+08,-6.75451e+08,-466842,0.0364,-0.138246,0,0.142958,-13632,-24592.4,-0,28117.9,-466842
step02_gravity_refstate-crust.xmf,558,2.22504e-06,-1.75897e-06,0,-4.28214e-06,-6.0842e+08,-6.08693e+08,-6.08573e+08,-293755,0.0245278,-0.0625103,0,0.0671502,-19935.6,-22156.4,-0,29805,-293755
step02_gravity_refstate-crust.xmf,559,2.05898e-06,-1.77711e-06,0,-3.7336e-06,-6.27135e+08,-6.27398e+08,-6.27276e+08,-256125,0.020501,-0.048525,0,0.052678,-21235.3,-22837,-0,31184.4,-256125
step02_gravity_refstate-crust.xmf,560,1.11127e-06,-5.14871e-07,0,-3.26156e-09,-5.08663e+08,-5.08775e+08,-5.08739e+08,-223.743,3.34627e-19,0.0324297,0,0.0324297,-40000,-18522.1,-0,44080.2,-223.743
step02_gravity_refstate-crust.xmf,561,1.77279e-06,-1.56201e-06,0,-3.13658e-06,-6.18318e+08,-6.18547e+08,-6.1844e+08,-215169,0.0168147,-0.0295583,0,0.0340063,-23473,-22515.2,-0,32525.7,-215169
step02_gravity_refstate-crust.xmf,562,1.1596e-06,-7.97287e-07,0,-1.56522e-06,-5.611e+08,-5.61234e+08,-5.61179e+08,-107374,0.0083827,0.0160301,0,0.0180896,-31443.2,-20430.8,-0,37497.9,-107374
step02_gravity_refstate-crust.xmf,563,9.69635e-07,-6.77255e-07,0,-1.18627e-06,-5.84545e+08,-5.84658e+08,-5.84612e+08,-81378.2,0.00576482,0.0229862,0,0.0236981,-33186.6,-21283.8,-0,39425.3,-81378.2
step02_gravity_refstate-crust.xmf,564,1.37827e-06,-1.039e-06,0,-2.19683e-06,-5.66627e+08,-5.66793e+08,-5.66722e+08,-150703,0.0120928,0.00110259,0,0.012143,-28326.2,-20632.6,-0,35043.9,-150703
step02_gravity_refstate-crust.xmf,565,1.82239e-06,-1.69412e-06,0,-3.18921e-06,-6.45807e+08,-6.46048e+08,-6.45932e+08,-218780,0.0162905,-0.0342483,0,0.0379253,-22706.5,-23516,-0,32689.3,-218780
step02_gravity_refstate-crust.xmf,566,-4.55742e-06,2.71383e-06,0,4.14928e-07,-1.33294e+08,-1.32796e+08,-1.32982e+08,28464.1,-0.00546253,-0.20277,-0,0.202843,1191.9,-4838.48,0,4983.12,-28464.1
step02_gravity_refstate-crust.xmf,567,-4.21801e-06,3.12182e-06,0,5.1173e-07,-1.78526e+08,-1.78023e+08,-1.78237e+08,35104.7,-0.00496936,-0.207564,-0,0.207624,1171.09,-6487.19,0,6592.05,-35104.7
step02_gravity_refstate-crust.xmf,568,-6.86774e-06,2.60807e-06,0,-6.06871e-09,-652299,-2258.09,-181172,-416.314,-0.0211283,-0.18731,-0,0.188498,2992.92,0,0,2992.92,-416.314
step02_gravity_refstate-crust.xmf,569,-6.50625e-06,1.0736e-05,0,-1.7921e-06,-4.92007e+08,-4.90824e+08,-4.9156e+08,-122938,0.00811692,-0.277222,0,0.277341,-1229.27,-17902.3,-0,17944.5,-122938
step02_gravity_refstate-crust.xmf,570,-1.39253e-05,2.70585e-05,0,-9.86592e-06,-7.13967e+08,-7.11155e+08,-7.13011e+08,-676802,0.025956,-0.414985,0,0.415796,-1658.27,-25978.2,-0,26031.1,-676802
step02_gravity_refstate-crust.xmf,571,-1.05657e-05,1.9866e-05,0,-7.16027e-06,-6.54101e+08,-6.52014e+08,-6.53377e+08,-491195,0.0235897,-0.359794,0,0.360567,-2002.23,-23801.2,-0,23885.3,-491195
step02_gravity_refstate-crust.xmf,572,-9.39239e-06,1.65309e-05,0,-3.22683e-06,-5.9828e+08,-5.96502e+08,-5.97636e+08,-221360,0.011966,-0.328886,0,0.329104,-1240.39,-21768.6,-0,21803.9,-221360
step02_gravity_refstate-crust.xmf,573,-1.61379e-05,3.26139e-05,0,-1.24985e-05,-7.46774e+08,-7.4343e+08,-7.45667e+08,-857398,0.0283221,-0.452696,0,0.453581,-1542.14,-27172.3,-0,27216,-857398
step02_gravity_refstate-crust.xmf,574,-2.42919e-07,1.06966e-05,0,-2.41954e-05,-8.28007e+08,-8.27257e+08,-8.27991e+08,-1.65981e+06,0.0451654,-0.436388,0,0.43872,-3578.96,-30160,-0,30371.6,-1.65981e+06
step02_gravity_refstate-crust.xmf,575,-3.32453e-06,2.04823e-05,0,-2.76836e-05,-8.11911e+08,-8.10277e+08,-8.11683e+08,-1.8991e+06,0.0486664,-0.474444,0,0.476934,-2800.59,-29576.7,-0,29709,-1.8991e+06
step02_gravity_refstate-crust.xmf,576,1.53893e-06,6.47076e-06,0,-2.15625e-05,-8.28139e+08,-8.27801e+08,-8.28245e+08,-1.47918e+06,0.0447127,-0.402084,0,0.404563,-4189.43,-30165.5,-0,30455,-1.47918e+06
step02_gravity_refstate-crust.xmf,577,3.8803e-06,1.11093e-06,0,-1.5233e-05,-7.96531e+08,-7.96721e+08,-7.96797e+08,-1.04498e+06,0.0475128,-0.307859,0,0.311504,-6241.09,-29015.9,-0,29679.5,-1.04498e+06
step02_gravity_refstate-crust.xmf,578,3.23441e-06,3.25743e-06,0,-1.81014e-05,-8.12055e+08,-8.12054e+08,-8.12277e+08,-1.24175e+06,0.047448,-0.351888,0,0.355072,-5170.18,-29581.8,-0,30030.2,-1.24175e+06
step02_gravity_refstate-crust.xmf,579,3.01595e-06,-2.20228e-06,0,-5.9201e-06,-6.83758e+08,-6.84116e+08,-6.83965e+08,-406119,0.0317291,-0.1182,0,0.122385,-14914.1,-24901.7,-0,29026.3,-406119
step02_gravity_refstate-crust.xmf,580,3.82571e-06,-3.50172e-08,0,-1.2395e-05,-7.62661e+08,-7.62926e+08,-7.62924e+08,-850298,0.0476504,-0.257596,0,0.261966,-7777.39,-27780.9,-0,28849,-850298
step02_gravity_refstate-crust.xmf,581,4.06678e-06,-3.34205e-07,0,-1.28258e-05,-7.80895e+08,-7.81197e+08,-7.81174e+08,-879851,0.0461224,-0.268674,0,0.272604,-7401.65,-28445.2,-0,29392.4,-879851
step02_gravity_refstate-crust.xmf,582,2.38486e-06,-1.91186e-06,0,-4.56276e-06,-6.31074e+08,-6.31369e+08,-6.31238e+08,-313005,0.0257293,-0.0735585,0,0.0779285,-18757.8,-22981.6,-0,29664.9,-313005
step02_gravity_refstate-crust.xmf,583,2.5799e-06,-2.04743e-06,0,-4.88364e-06,-6.50637e+08,-6.50955e+08,-6.50814e+08,-335018,0.0271082,-0.0853584,0,0.0895595,-17608.9,-23694.4,-0,29521.1,-335018
step02_gravity_refstate-crust.xmf,584,2.79345e-06,-2.22578e-06,0,-5.22668e-06,-6.73948e+08,-6.74293e+08,-6.7414e+08,-358550,0.0283562,-0.0986572,0,0.102651,-16396.6,-24543.6,-0,29516.7,-358550
step02_gravity_refstate-crust.xmf,585,9.58216e-07,-5.0504e-07,0,-3.03341e-07,-5.47291e+08,-5.47391e+08,-5.47357e+08,-20809.2,0.0016284,0.0324387,0,0.0324796,-38288.5,-19927.8,-0,43164,-20809.2
step02_gravity_refstate-crust.xmf,586,8.48961e-07,-5.1894e-07,0,-5.76503e-07,-5.80197e+08,-5.80291e+08,-5.80256e+08,-39548.1,0.00276551,0.0310516,0,0.0311745,-36620.6,-21125.3,-0,42277,-39548.1
step02_gravity_refstate-crust.xmf,587,1.44762e-06,-1.19212e-06,0,-2.43183e-06,-5.92667e+08,-5.92848e+08,-5.92767e+08,-166823,0.0128837,-0.00652673,0,0.0144426,-26868.4,-21580.7,-0,34462.1,-166823
step02_gravity_refstate-crust.xmf,588,1.56999e-06,-1.38532e-06,0,-2.70889e-06,-6.16823e+08,-6.17026e+08,-6.16931e+08,-185830,0.0139898,-0.0163836,0,0.0215438,-25225,-22460.3,-0,33775.2,-185830
step02_gravity_refstate-crust.xmf,589,7.7858e-07,-5.60688e-07,0,-8.31051e-07,-6.09423e+08,-6.09515e+08,-6.09477e+08,-57010.1,0.00357104,0.0283512,0,0.0285752,-34938.7,-22188.9,-0,41389.2,-57010.1
step02_gravity_refstate-crust.xmf,590,1.17198e-06,-9.21633e-07,0,-1.80501e-06,-5.90896e+08,-5.9104e+08,-5.90977e+08,-123824,0.00907169,0.00995233,0,0.0134664,-29862.3,-21515.5,-0,36805.9,-123824
step02_gravity_refstate-crust.xmf,591,1.62472e-06,-1.524e-06,0,-2.81935e-06,-6.43113e+08,-6.43329e+08,-6.43225e+08,-193407,0.0138786,-0.0223203,0,0.0262833,-24223,-23417.4,-0,33691.6,-193407
step02_gravity_refstate-crust.xmf,592,-4.18579e-06,4.69779e-06,0,1.44716e-07,-2.82314e+08,-2.81704e+08,-2.82026e+08,9927.54,-0.000944371,-0.222733,-0,0.222735,226.458,-10268.2,0,10270.7,-9927.54
step02_gravity_refstate-crust.xmf,593,-4.34938e-06,5.39253e-06,0,5.3186e-08,-3.17424e+08,-3.16756e+08,-3.17126e+08,3648.56,-0.000386934,-0.229194,-0,0.229194,88.957,-11546.9,0,11547.2,-3648.56
step02_gravity_refstate-crust.xmf,594,-4.65347e-06,6.36521e-06,0,-1.92989e-08,-3.56583e+08,-3.55827e+08,-3.56264e+08,-1323.91,9.93808e-05,-0.237543,0,0.237543,-21.2392,-12972.8,-0,12972.8,-1323.91
step02_gravity_refstate-crust.xmf,595,-5.04326e-06,7.37651e-06,0,-1.29638e-07,-3.93469e+08,-3.92617e+08,-3.93123e+08,-8893.18,0.000680498,-0.246691,0,0.246692,-135.116,-14315.6,-0,14316.3,-8893.18
step02_gravity_refstate-crust.xmf,596,-5.48324e-06,8.41127e-06,0,-3.67321e-07,-4.26985e+08,-4.26031e+08,-4.26608e+08,-25198.2,0.00180923,-0.25619,0,0.256197,-330.311,-15535.6,-0,15539.1,-25198.2
step02_gravity_refstate-crust.xmf,597,-4.08321e-06,3.63408e-06,0,5.84747e-07,-2.1957e+08,-2.19041e+08,-2.1929e+08,40113.7,-0.00464881,-0.212622,-0,0.212673,1132.56,-7982.78,0,8062.72,-40113.7
step02_gravity_refstate-crust.xmf,598,-4.81131e-06,2.46681e-06,0,7.36188e-07,-1.00638e+08,-1.00139e+08,-1.00308e+08,50502.5,-0.0138164,-0.196683,-0,0.197168,2805.99,-3648.19,0,4602.49,-50502.5
step02_gravity_refstate-crust.xmf,599,-5.5049e-06,2.31489e-06,0,5.49421e-07,-4.86715e+07,-4.8135e+07,-4.82938e+07,37690.3,-0.0228189,-0.18874,-0,0.190114,3959.46,-1753.25,0,4330.27,-37690.3
step02_gravity_refstate-crust.xmf,600,-5.83231e-06,9.18235e-06,0,-7.39806e-07,-4.5057e+08,-4.4954e+08,-4.5017e+08,-50750.7,0.00348247,-0.263493,0,0.263516,-595.742,-16394.1,-0,16404.9,-50750.7
step02_gravity_refstate-crust.xmf,601,-6.31383e-06,1.02311e-05,0,-6.85688e-07,-4.75838e+08,-4.74703e+08,-4.75405e+08,-47038.2,0.00318928,-0.272499,0,0.272517,-504.702,-17313.7,-0,17321,-47038.2
step02_gravity_refstate-crust.xmf,602,-6.88304e-06,1.14208e-05,0,-7.44027e-07,-5.02734e+08,-5.01478e+08,-5.02262e+08,-51040.2,0.00330363,-0.283053,0,0.283073,-479.542,-18292.4,-0,18298.6,-51040.2
step02_gravity_refstate-crust.xmf,603,-1.38293e-05,2.61363e-05,0,-7.02548e-06,-6.97156e+08,-6.94414e+08,-6.96207e+08,-481948,0.0196534,-0.40315,0,0.403629,-1332.57,-25365.2,-0,25400.2,-481948
step02_gravity_refstate-crust.xmf,604,-1.2329e-05,2.33018e-05,0,-7.41416e-06,-6.8128e+08,-6.78836e+08,-6.80434e+08,-508612,0.0221963,-0.385252,0,0.385891,-1644.47,-24788.9,-0,24843.4,-508612
step02_gravity_refstate-crust.xmf,605,-7.55572e-06,1.28014e-05,0,-9.55516e-07,-5.30516e+08,-5.29119e+08,-5.29997e+08,-65548.4,0.00404952,-0.295134,0,0.295162,-535.026,-19303.2,-0,19310.6,-65548.4
step02_gravity_refstate-crust.xmf,606,-8.34162e-06,1.44025e-05,0,-1.26127e-06,-5.58715e+08,-5.57155e+08,-5.58143e+08,-86523.1,0.00507244,-0.308853,0,0.308895,-605.972,-20329.1,-0,20338.2,-86523.1
step02_gravity_refstate-crust.xmf,607,-1.10516e-05,2.00455e-05,0,-4.73687e-06,-6.42397e+08,-6.40264e+08,-6.41639e+08,-324949,0.0157076,-0.357362,0,0.357707,-1363.04,-23373.4,-0,23413.2,-324949
step02_gravity_refstate-crust.xmf,608,-1.18567e-05,2.19994e-05,0,-6.11737e-06,-6.65462e+08,-6.6314e+08,-6.64649e+08,-419652,0.0190736,-0.373732,0,0.374219,-1505.95,-24212.9,-0,24259.7,-419652
step02_gravity_refstate-crust.xmf,609,-9.28046e-06,1.62319e-05,0,-1.24388e-06,-5.86033e+08,-5.84282e+08,-5.85396e+08,-85330.4,0.00477889,-0.324134,0,0.324169,-513.76,-21322.7,-0,21328.9,-85330.4
step02_gravity_refstate-crust.xmf,610,-1.05361e-05,1.86806e-05,0,-2.65686e-06,-6.21249e+08,-6.19245e+08,-6.20526e+08,-182260,0.00929585,-0.34531,0,0.345435,-870.839,-22603.5,-0,22620.3,-182260
step02_gravity_refstate-crust.xmf,611,-1.60593e-05,3.12107e-05,0,-9.35475e-06,-7.31183e+08,-7.2794e+08,-7.30082e+08,-641736,0.0226045,-0.438895,0,0.439477,-1301.4,-26602.8,-0,26634.6,-641736
step02_gravity_refstate-crust.xmf,612,-2.54959e-06,1.68797e-05,0,-2.67837e-05,-8.2728e+08,-8.25947e+08,-8.27105e+08,-1.83736e+06,0.0444785,-0.474293,0,0.476374,-2966.36,-30133.8,-0,30279.4,-1.83736e+06
step02_gravity_refstate-crust.xmf,613,-1.48732e-05,3.70443e-05,0,-2.56441e-05,-7.99474e+08,-7.95912e+08,-7.98453e+08,-1.75918e+06,0.0419299,-0.506063,0,0.507797,-2000.3,-29102.8,-0,29171.5,-1.75918e+06
step02_gravity_refstate-crust.xmf,614,-9.66011e-06,2.97656e-05,0,-3.22754e-05,-8.11071e+08,-8.08366e+08,-8.10408e+08,-2.21409e+06,0.045429,-0.506422,0,0.508456,-2266.96,-29534.9,-0,29621.7,-2.21409e+06
step02_gravity_refstate-crust.xmf,615,-1.86217e-05,3.77073e-05,0,-1.13824e-05,-7.61264e+08,-7.57399e+08,-7.59986e+08,-780833,0.0238568,-0.4785,0,0.479094,-1185.97,-27697.6,-0,27723,-780833
step02_gravity_refstate-crust.xmf,616,-1.83871e-05,3.89954e-05,0,-1.53242e-05,-7.74919e+08,-7.70983e+08,-7.73658e+08,-1.05124e+06,0.0300178,-0.491803,0,0.492719,-1438.86,-28197.7,-0,28234.4,-1.05124e+06
step02_gravity_refstate-crust.xmf,617,-1.73388e-05,3.91756e-05,0,-1.99848e-05,-7.87715e+08,-7.83838e+08,-7.86525e+08,-1.37096e+06,0.0361995,-0.501717,0,0.503021,-1707.47,-28668,-0,28718.9,-1.37096e+06
step02_gravity_refstate-crust.xmf,618,8.94675e-09,7.22606e-06,0,-2.36493e-05,-8.43652e+08,-8.43157e+08,-8.43653e+08,-1.62234e+06,0.0384751,-0.424844,0,0.426583,-3856.65,-30725.2,-0,30966.3,-1.62234e+06
step02_gravity_refstate-crust.xmf,619,4.2142e-06,-4.80321e-07,0,-1.34325e-05,-7.97725e+08,-7.98047e+08,-7.98014e+08,-921471,0.0442914,-0.28221,0,0.285665,-6973.96,-29058.3,-0,29883.4,-921471
step02_gravity_refstate-crust.xmf,620,3.89644e-06,1.04316e-06,0,-1.60015e-05,-8.12797e+08,-8.12993e+08,-8.13065e+08,-1.09771e+06,0.0448343,-0.323151,0,0.326247,-5858.24,-29608.1,-0,30182.1,-1.09771e+06
step02_gravity_refstate-crust.xmf,621,2.76474e-06,3.38812e-06,0,-1.91259e-05,-8.28086e+08,-8.28043e+08,-8.28276e+08,-1.31204e+06,0.0433672,-0.369922,0,0.372456,-4821.13,-30163.7,-0,30546.6,-1.31204e+06
step02_gravity_refstate-crust.xmf,622,-2.4194e-06,1.2082e-05,0,-2.67934e-05,-8.42556e+08,-8.41561e+08,-8.4239e+08,-1.83803e+06,0.0383878,-0.461348,0,0.462943,-3277.79,-30683,-0,30857.6,-1.83803e+06
step02_gravity_refstate-crust.xmf,623,3.3605e-06,-1.37229e-06,0,-8.47633e-06,-7.01688e+08,-7.02012e+08,-7.01918e+08,-581476,0.0418509,-0.178136,0,0.182986,-11254.3,-25557.1,-0,27925.4,-581476
step02_gravity_refstate-crust.xmf,624,3.51125e-06,-1.23052e-06,0,-9.14241e-06,-7.16559e+08,-7.16884e+08,-7.168e+08,-627169,0.0432125,-0.193383,0,0.198152,-10459.2,-26099.4,-0,28117.1,-627169
step02_gravity_refstate-crust.xmf,625,3.66045e-06,-1.07546e-06,0,-9.8547e-06,-7.31151e+08,-7.31475e+08,-7.31402e+08,-676032,0.0443507,-0.208906,0,0.213562,-9717.77,-26631.4,-0,28349,-676032
step02_gravity_refstate-crust.xmf,626,3.84197e-06,-9.76683e-07,0,-1.05974e-05,-7.48094e+08,-7.48425e+08,-7.48358e+08,-726980,0.0449455,-0.225034,0,0.229478,-9010.54,-27249.1,-0,28700.3,-726980
step02_gravity_refstate-crust.xmf,627,3.99356e-06,-8.89372e-07,0,-1.12772e-05,-7.61982e+08,-7.62317e+08,-7.62256e+08,-773619,0.0451556,-0.239071,0,0.243298,-8447,-27755.5,-0,29012.4,-773619
step02_gravity_refstate-crust.xmf,628,3.206e-06,-1.46021e-06,0,-7.9313e-06,-6.87563e+08,-6.87883e+08,-6.87783e+08,-544087,0.0405587,-0.16499,0,0.169902,-12000.2,-25042.1,-0,27768.9,-544087
step02_gravity_refstate-crust.xmf,629,3.23965e-06,-2.33397e-06,0,-6.33125e-06,-7.0479e+08,-7.05173e+08,-7.05013e+08,-434324,0.0327602,-0.131966,0,0.135971,-13887.2,-25668.1,-0,29184,-434324
step02_gravity_refstate-crust.xmf,630,3.26707e-06,-1.91316e-06,0,-7.2066e-06,-6.92962e+08,-6.93317e+08,-6.93186e+08,-494373,0.0373781,-0.149971,0,0.154559,-12841.8,-25238.2,-0,28317.5,-494373
step02_gravity_refstate-crust.xmf,631,2.23004e-06,-1.94924e-06,0,-3.98729e-06,-6.48324e+08,-6.4861e+08,-6.48477e+08,-273528,0.0215405,-0.0590567,0,0.0628624,-20010.1,-23608.9,-0,30948.1,-273528
step02_gravity_refstate-crust.xmf,632,1.98445e-06,-1.89524e-06,0,-3.43513e-06,-6.67382e+08,-6.67648e+08,-6.67518e+08,-235650,0.0172195,-0.0450733,0,0.0482505,-21317.3,-24301.8,-0,32326.5,-235650
step02_gravity_refstate-crust.xmf,633,8.23024e-07,-4.69349e-07,0,-3.36873e-09,-5.7579e+08,-5.75878e+08,-5.75846e+08,-231.095,2.3107e-19,0.0336309,0,0.0336309,-40000,-20964.8,-0,45161.1,-231.095
step02_gravity_refstate-crust.xmf,634,9.51359e-07,-7.77499e-07,0,-1.42084e-06,-6.15057e+08,-6.15176e+08,-6.15122e+08,-97469.6,0.00631286,0.0179414,0,0.0190196,-31534.6,-22394.4,-0,38677.4,-97469.6
step02_gravity_refstate-crust.xmf,635,7.35566e-07,-6.3033e-07,0,-1.06987e-06,-6.38156e+08,-6.3825e+08,-6.38207e+08,-73392.7,0.00404555,0.0244661,0,0.0247984,-33252.3,-23234.7,-0,40565.6,-73392.7
step02_gravity_refstate-crust.xmf,636,1.21374e-06,-1.06625e-06,0,-2.01605e-06,-6.19597e+08,-6.19753e+08,-6.1968e+08,-138301,0.00955366,0.00313127,0,0.0100537,-28326,-22560.3,-0,36212.3,-138301
step02_gravity_refstate-crust.xmf,637,1.58978e-06,-1.61329e-06,0,-2.76903e-06,-6.71875e+08,-6.72095e+08,-6.71984e+08,-189955,0.0125698,-0.0245249,0,0.0275585,-23718.3,-24464.2,-0,34074.2,-189955
step02_gravity_refstate-crust.xmf,638,-6.34355e-06,2.41149e-06,0,3.75841e-09,-602406,-1809.84,-167238,257.827,-0.0343588,-0.180771,-0,0.184007,4992.34,0,0,4992.34,-257.827
step02_gravity_refstate-crust.xmf,639,-4.08863e-06,4.28579e-06,0,6.82797e-07,-2.61381e+08,-2.60806e+08,-2.611e+08,46839.9,-0.00464768,-0.218609,-0,0.218659,1130.55,-9505.92,0,9572.91,-46839.9
step02_gravity_refstate-crust.xmf,640,-4.20801e-06,5.01417e-06,0,8.41329e-07,-3.0078e+08,-3.00147e+08,-3.00491e+08,57715.2,-0.00516471,-0.22511,-0,0.225169,1217.98,-10940.9,0,11008.5,-57715.2
step02_gravity_refstate-crust.xmf,641,-4.24347e-06,2.79994e-06,0,1.00643e-06,-1.54509e+08,-1.54026e+08,-1.54218e+08,69040.8,-0.0115419,-0.202195,-0,0.202524,2649.76,-5612.23,0,6206.32,-69040.8
step02_gravity_refstate-crust.xmf,642,-4.00852e-06,3.25892e-06,0,1.18779e-06,-1.98933e+08,-1.98434e+08,-1.98658e+08,81482.3,-0.0104744,-0.207325,-0,0.207589,2545.92,-7231.18,0,7666.27,-81482.3
step02_gravity_refstate-crust.xmf,643,-1.57089e-05,2.96296e-05,0,-6.32416e-06,-7.15069e+08,-7.11959e+08,-7.13991e+08,-433837,0.0162366,-0.424934,0,0.425244,-995.048,-26015.1,-0,26034.1,-433837
step02_gravity_refstate-crust.xmf,644,-1.33525e-05,2.46053e-05,0,-4.86002e-06,-6.80308e+08,-6.77704e+08,-6.79392e+08,-333398,0.0143923,-0.390385,0,0.39065,-1043.45,-24751.4,-0,24773.3,-333398
step02_gravity_refstate-crust.xmf,645,-1.0063e-05,1.76905e-05,0,-1.03091e-06,-6.05978e+08,-6.04074e+08,-6.05288e+08,-70720.4,0.00382448,-0.33663,0,0.336652,-379.34,-22047.9,-0,22051.2,-70720.4
step02_gravity_refstate-crust.xmf,646,-1.83183e-05,3.58343e-05,0,-8.16429e-06,-7.47227e+08,-7.43512e+08,-7.4597e+08,-560070,0.0182278,-0.46353,0,0.463888,-953.323,-27184.9,-0,27201.6,-560070
step02_gravity_refstate-crust.xmf,647,-4.45968e-06,2.4099e-05,0,-2.84431e-05,-8.20827e+08,-8.18868e+08,-8.20521e+08,-1.9512e+06,0.045053,-0.500927,0,0.502949,-2503.55,-29902.3,-0,30006.9,-1.9512e+06
step02_gravity_refstate-crust.xmf,648,-1.67475e-06,7.75523e-06,0,-2.6992e-05,-8.57878e+08,-8.57231e+08,-8.57763e+08,-1.85165e+06,0.0311249,-0.450873,0,0.451946,-3512.39,-31237.1,-0,31434,-1.85165e+06
step02_gravity_refstate-crust.xmf,649,-4.98427e-06,1.30109e-05,0,-3.16596e-05,-8.55398e+08,-8.54164e+08,-8.55056e+08,-2.17185e+06,0.030572,-0.492905,0,0.493853,-2923.02,-31141.6,-0,31278.5,-2.17185e+06
step02_gravity_refstate-crust.xmf,650,1.85627e-06,3.68379e-06,0,-2.06564e-05,-8.43703e+08,-8.43578e+08,-8.43831e+08,-1.41703e+06,0.0378103,-0.389733,0,0.391563,-4473.13,-30729.1,-0,31052.9,-1.41703e+06
step02_gravity_refstate-crust.xmf,651,4.27084e-06,-5.9833e-07,0,-1.40908e-05,-8.13786e+08,-8.1412e+08,-8.14078e+08,-966626,0.0416949,-0.296153,0,0.299073,-6566.27,-29643,-0,30361.6,-966626
step02_gravity_refstate-crust.xmf,652,3.6139e-06,1.03586e-06,0,-1.68815e-05,-8.28762e+08,-8.28939e+08,-8.2901e+08,-1.15807e+06,0.041009,-0.339303,0,0.341773,-5487.03,-30188.1,-0,30682.8,-1.15807e+06
step02_gravity_refstate-crust.xmf,653,2.9064e-06,-2.45031e-06,0,-5.20919e-06,-7.03525e+08,-7.03892e+08,-7.03724e+08,-357350,0.0269315,-0.103696,0,0.107136,-15828.5,-25620.5,-0,30115.6,-357350
step02_gravity_refstate-crust.xmf,654,3.09213e-06,-2.57594e-06,0,-5.53817e-06,-7.18231e+08,-7.1862e+08,-7.18443e+08,-379918,0.0279279,-0.115342,0,0.118675,-14904.7,-26156.4,-0,30105,-379918
step02_gravity_refstate-crust.xmf,655,4.30125e-06,-1.53114e-06,0,-1.12262e-05,-7.82763e+08,-7.83163e+08,-7.83058e+08,-770120,0.0421993,-0.243469,0,0.247099,-8253.94,-28512.3,-0,29683,-770120
step02_gravity_refstate-crust.xmf,656,4.391e-06,-1.66925e-06,0,-1.1813e-05,-8.0036e+08,-8.00775e+08,-8.00661e+08,-810368,0.0403713,-0.257738,0,0.260881,-7733.9,-29153.1,-0,30161.5,-810368
step02_gravity_refstate-crust.xmf,657,2.39487e-06,-2.11889e-06,0,-4.24955e-06,-6.68041e+08,-6.6835e+08,-6.68205e+08,-291519,0.0226011,-0.0700677,0,0.0736226,-18828.5,-24327.1,-0,30762.3,-291519
step02_gravity_refstate-crust.xmf,658,2.58593e-06,-2.27769e-06,0,-4.54395e-06,-6.84098e+08,-6.84432e+08,-6.84276e+08,-311715,0.023862,-0.0815444,0,0.084964,-17708.8,-24912.2,-0,30565,-311715
step02_gravity_refstate-crust.xmf,659,1.70981e-06,-1.77802e-06,0,-2.95162e-06,-6.88e+08,-6.88239e+08,-6.88117e+08,-202481,0.0131235,-0.0327199,0,0.0352536,-22570.6,-25051.5,-0,33719.5,-202481
step02_gravity_refstate-crust.xmf,660,6.77174e-07,-4.46483e-07,0,-2.63355e-07,-6.1009e+08,-6.10167e+08,-6.10137e+08,-18066.2,0.00109895,0.0335799,0,0.0335979,-38359.1,-22213,-0,44326.5,-18066.2
step02_gravity_refstate-crust.xmf,661,5.75518e-07,-4.49443e-07,0,-5.01497e-07,-6.38777e+08,-6.38847e+08,-6.38816e+08,-34402.7,0.00177434,0.0322646,0,0.0323133,-36740.4,-23256.9,-0,43482.7,-34402.7
step02_gravity_refstate-crust.xmf,662,1.28488e-06,-1.23238e-06,0,-2.22462e-06,-6.45354e+08,-6.45526e+08,-6.45442e+08,-152609,0.0100117,-0.00463303,0,0.0110317,-26799,-23498,-0,35641.9,-152609
step02_gravity_refstate-crust.xmf,663,1.38287e-06,-1.43578e-06,0,-2.43633e-06,-6.72645e+08,-6.72838e+08,-6.7274e+08,-167132,0.0103665,-0.0139463,0,0.0173771,-25164.3,-24491.7,-0,35115.3,-167132
step02_gravity_refstate-crust.xmf,664,5.24542e-07,-4.91276e-07,0,-7.41703e-07,-6.62485e+08,-6.62555e+08,-6.62521e+08,-50880.8,0.0022437,0.0295083,0,0.0295935,-35002,-24119.8,-0,42507.7,-50880.8
step02_gravity_refstate-crust.xmf,665,9.62212e-07,-9.0295e-07,0,-1.6323e-06,-6.44202e+08,-6.4433e+08,-6.44268e+08,-111976,0.00661016,0.0119393,0,0.013647,-29908.7,-23455.3,-0,38008.9,-111976
step02_gravity_refstate-crust.xmf,666,-5.01337e-06,2.11531e-06,0,7.75499e-07,-4.80768e+07,-4.75877e+07,-4.77328e+07,53199.2,-0.0332816,-0.180437,-0,0.183481,5937.98,-1733.27,0,6185.78,-53199.2
step02_gravity_refstate-crust.xmf,667,-4.44547e-06,5.81307e-06,0,9.23073e-07,-3.39011e+08,-3.38307e+08,-3.38706e+08,63322.8,-0.00532087,-0.23267,-0,0.232731,1187.66,-12333,0,12390.1,-63322.8
step02_gravity_refstate-crust.xmf,668,-4.8271e-06,6.88736e-06,0,1.12041e-06,-3.80356e+08,-3.79552e+08,-3.80025e+08,76859.8,-0.00598979,-0.242123,-0,0.242197,1232.92,-13838.4,0,13893.2,-76859.8
step02_gravity_refstate-crust.xmf,669,-5.89524e-06,9.34624e-06,0,5.28191e-07,-4.52854e+08,-4.51809e+08,-4.5245e+08,36233.9,-0.00254036,-0.264431,-0,0.264443,430.859,-16477.2,0,16482.9,-36233.9
step02_gravity_refstate-crust.xmf,670,-5.32786e-06,8.09714e-06,0,8.64165e-07,-4.18617e+08,-4.17696e+08,-4.18251e+08,59281.7,-0.00434467,-0.253198,-0,0.253235,812.098,-15231.1,0,15252.8,-59281.7
step02_gravity_refstate-crust.xmf,671,-3.9356e-06,3.83947e-06,0,1.36627e-06,-2.41851e+08,-2.41318e+08,-2.41581e+08,93726,-0.0100268,-0.213011,-0,0.213247,2477.53,-8794.86,0,9137.16,-93726
step02_gravity_refstate-crust.xmf,672,-4.55041e-06,2.26624e-06,0,1.1788e-06,-9.36984e+07,-9.32308e+07,-9.33862e+07,80865.6,-0.0239615,-0.188878,-0,0.190392,4891.24,-3396.28,0,5954.75,-80865.6
step02_gravity_refstate-crust.xmf,673,-6.56388e-06,1.07681e-05,0,6.32846e-07,-4.88051e+08,-4.86862e+08,-4.87601e+08,43413.2,-0.00286004,-0.27721,-0,0.277225,435.701,-17758.1,0,17763.4,-43413.2
step02_gravity_refstate-crust.xmf,674,-7.25163e-06,1.21784e-05,0,6.79917e-07,-5.17982e+08,-5.16649e+08,-5.17485e+08,46642.3,-0.00294008,-0.289642,-0,0.289657,405.498,-18847.2,0,18851.5,-46642.3
step02_gravity_refstate-crust.xmf,675,-1.49454e-05,2.75967e-05,0,-3.62878e-06,-6.97349e+08,-6.9443e+08,-6.96324e+08,-248934,0.0100592,-0.409136,0,0.40926,-665.007,-25369.9,-0,25378.7,-248934
step02_gravity_refstate-crust.xmf,676,-8.03168e-06,1.37466e-05,0,7.0199e-07,-5.4682e+08,-5.45326e+08,-5.46269e+08,48156.5,-0.00287706,-0.303185,-0,0.303199,358.276,-19896.3,0,19899.5,-48156.5
step02_gravity_refstate-crust.xmf,677,-8.89085e-06,1.54508e-05,0,7.43057e-07,-5.74079e+08,-5.7241e+08,-5.73469e+08,50973.7,-0.00287773,-0.317587,-0,0.3176,323.538,-20887.9,0,20890.4,-50973.7
step02_gravity_refstate-crust.xmf,678,-1.257e-05,2.27538e-05,0,-3.11837e-06,-6.61315e+08,-6.58891e+08,-6.60452e+08,-213920,0.00968004,-0.375841,0,0.375966,-759.972,-24060.2,-0,24072.2,-213920
step02_gravity_refstate-crust.xmf,679,-9.91659e-06,1.73221e-05,0,8.93951e-07,-6.01137e+08,-5.99268e+08,-6.00456e+08,61325,-0.00332936,-0.333612,-0,0.333629,336.577,-21871.7,0,21874.3,-61325
step02_gravity_refstate-crust.xmf,680,-1.08379e-05,1.91333e-05,0,-1.68942e-07,-6.22126e+08,-6.2007e+08,-6.21383e+08,-11589.4,0.000547216,-0.347745,0,0.347745,-50.7789,-22634.9,-0,22635,-11589.4
step02_gravity_refstate-crust.xmf,681,-1.16572e-05,2.07809e-05,0,-1.69361e-06,-6.40541e+08,-6.38316e+08,-6.39742e+08,-116182,0.00555547,-0.360491,0,0.360534,-476.106,-23304.6,-0,23309.4,-116182
step02_gravity_refstate-crust.xmf,682,-1.76182e-05,3.34353e-05,0,-4.85589e-06,-7.31104e+08,-7.27601e+08,-7.29895e+08,-333114,0.0115809,-0.446489,0,0.44664,-647.45,-26597.1,-0,26604.9,-333114
step02_gravity_refstate-crust.xmf,683,-1.98123e-05,4.60034e-05,0,-1.9197e-05,-8.00706e+08,-7.96191e+08,-7.99346e+08,-1.31691e+06,0.0328299,-0.530605,0,0.53162,-1472.68,-29141.6,-0,29178.7,-1.31691e+06
step02_gravity_refstate-crust.xmf,684,-5.31877e-06,1.68433e-05,0,-2.99492e-05,-8.40718e+08,-8.39198e+08,-8.40353e+08,-2.05452e+06,0.0376258,-0.492133,0,0.493569,-2827.71,-30611.7,-0,30742.1,-2.05452e+06
step02_gravity_refstate-crust.xmf,685,-3.11071e-06,7.85109e-06,0,-3.14724e-05,-8.69787e+08,-8.69035e+08,-8.69573e+08,-2.159e+06,0.0240644,-0.479877,0,0.48048,-3160.96,-31665,-0,31822.4,-2.159e+06
step02_gravity_refstate-crust.xmf,686,-5.31511e-06,1.12607e-05,0,-3.58061e-05,-8.67525e+08,-8.66387e+08,-8.6716e+08,-2.4563e+06,0.0234887,-0.51326,0,0.513797,-2739.54,-31579,-0,31697.6,-2.4563e+06
step02_gravity_refstate-crust.xmf,687,-1.82149e-05,4.69645e-05,0,-2.44868e-05,-8.11998e+08,-8.07526e+08,-8.10748e+08,-1.6798e+06,0.0380825,-0.537904,0,0.539251,-1746.63,-29560.6,-0,29612.2,-1.6798e+06
step02_gravity_refstate-crust.xmf,688,-1.22803e-05,3.62881e-05,0,-3.37982e-05,-8.23861e+08,-8.2053e+08,-8.23019e+08,-2.31856e+06,0.0404512,-0.542697,0,0.544203,-2000,-30000,-0,30066.6,-2.31856e+06
step02_gravity_refstate-crust.xmf,689,-8.42993e-06,2.42495e-05,0,-3.11812e-05,-8.3291e+08,-8.30668e+08,-8.32331e+08,-2.13903e+06,0.0392907,-0.514387,0,0.515885,-2458.58,-30326.3,-0,30425.8,-2.13903e+06
step02_gravity_refstate-crust.xmf,690,-2.04391e-05,4.04948e-05,0,-5.77651e-06,-7.6137e+08,-7.5719e+08,-7.59968e+08,-396269,0.0121184,-0.487532,0,0.487683,-584.979,-27698.4,-0,27704.6,-396269
step02_gravity_refstate-crust.xmf,691,-2.09751e-05,4.32501e-05,0,-9.56093e-06,-7.7606e+08,-7.71654e+08,-7.74621e+08,-655880,0.0187977,-0.506226,0,0.506574,-864.196,-28235.3,-0,28248.6,-655880
step02_gravity_refstate-crust.xmf,692,-2.07439e-05,4.49943e-05,0,-1.42264e-05,-7.89043e+08,-7.84533e+08,-7.8762e+08,-975932,0.0261405,-0.520541,0,0.521197,-1173.7,-28711.6,-0,28735.6,-975932
step02_gravity_refstate-crust.xmf,693,4.08751e-07,3.93393e-06,0,-2.31092e-05,-8.59224e+08,-8.58983e+08,-8.59252e+08,-1.58529e+06,0.0307326,-0.41169,0,0.412836,-4126.37,-31288.7,-0,31559.6,-1.58529e+06
step02_gravity_refstate-crust.xmf,694,4.41852e-06,-1.756e-06,0,-1.24311e-05,-8.15154e+08,-8.15577e+08,-8.15457e+08,-852774,0.0382845,-0.271784,0,0.274468,-7265.27,-29691.6,-0,30567.6,-852774
step02_gravity_refstate-crust.xmf,695,4.07184e-06,-7.17603e-07,0,-1.48028e-05,-8.29781e+08,-8.3011e+08,-8.30061e+08,-1.01547e+06,0.0380304,-0.310666,0,0.312985,-6174.41,-30224.4,-0,30848.6,-1.01547e+06
step02_gravity_refstate-crust.xmf,696,2.95002e-06,1.05067e-06,0,-1.80215e-05,-8.44467e+08,-8.44597e+08,-8.4467e+08,-1.23628e+06,0.0358988,-0.35664,0,0.358443,-5123.48,-30757.2,-0,31181,-1.23628e+06
step02_gravity_refstate-crust.xmf,697,2.68196e-06,-2.46404e-06,0,-4.60695e-06,-7.09898e+08,-7.10251e+08,-7.10082e+08,-316036,0.0230339,-0.0884337,0,0.0913842,-16958.6,-25851.6,-0,30917.6,-316036
step02_gravity_refstate-crust.xmf,698,2.83534e-06,-2.66166e-06,0,-4.81108e-06,-7.31795e+08,-7.32172e+08,-7.31989e+08,-330040,0.022984,-0.0991833,0,0.101812,-15968.2,-26649.1,-0,31067,-330040
step02_gravity_refstate-crust.xmf,699,3.48466e-06,-2.0054e-06,0,-7.603e-06,-7.12316e+08,-7.12692e+08,-7.12555e+08,-521566,0.0379128,-0.161574,0,0.165962,-12102.7,-25943.6,-0,28627.7,-521566
step02_gravity_refstate-crust.xmf,700,3.67558e-06,-2.0146e-06,0,-8.12828e-06,-7.28027e+08,-7.28417e+08,-7.28279e+08,-557600,0.0388685,-0.175304,0,0.179561,-11316.3,-26516.3,-0,28830.1,-557600
step02_gravity_refstate-crust.xmf,701,3.85585e-06,-1.97514e-06,0,-8.74371e-06,-7.42451e+08,-7.42851e+08,-7.42716e+08,-599818,0.0398648,-0.190254,0,0.194386,-10535.7,-27042.2,-0,29022.1,-599818
step02_gravity_refstate-crust.xmf,702,4.02839e-06,-1.91459e-06,0,-9.42408e-06,-7.56827e+08,-7.57235e+08,-7.57103e+08,-646492,0.0406444,-0.206074,0,0.210044,-9780.23,-27566.4,-0,29249.9,-646492
step02_gravity_refstate-crust.xmf,703,4.18594e-06,-1.82963e-06,0,-1.01715e-05,-7.70963e+08,-7.71376e+08,-7.7125e+08,-697765,0.0411268,-0.222615,0,0.226382,-9060.43,-28081.8,-0,29507.3,-697765
step02_gravity_refstate-crust.xmf,704,3.27814e-06,-2.73431e-06,0,-5.85845e-06,-7.36464e+08,-7.36877e+08,-7.36689e+08,-401890,0.0283721,-0.12754,0,0.130657,-13982.9,-26820.8,-0,30246.9,-401890
step02_gravity_refstate-crust.xmf,705,3.44263e-06,-2.45309e-06,0,-6.71968e-06,-7.2342e+08,-7.23824e+08,-7.23656e+08,-460970,0.0334389,-0.144683,0,0.148497,-13010.9,-26346.9,-0,29384.4,-460970
step02_gravity_refstate-crust.xmf,706,2.1468e-06,-2.08225e-06,0,-3.66326e-06,-6.86582e+08,-6.86872e+08,-6.86729e+08,-251299,0.0180195,-0.0554905,0,0.058343,-20085.6,-25001.2,-0,32070.1,-251299
step02_gravity_refstate-crust.xmf,707,1.39245e-06,-1.59448e-06,0,-2.50623e-06,-7.07248e+08,-7.07453e+08,-7.07344e+08,-171927,0.00931524,-0.0207517,0,0.0227465,-23944.6,-25751.2,-0,35163.5,-171927
step02_gravity_refstate-crust.xmf,708,1.82694e-06,-1.96348e-06,0,-3.11958e-06,-7.0826e+08,-7.0852e+08,-7.08385e+08,-214003,0.0133547,-0.0417805,0,0.0438629,-21363.7,-25789.3,-0,33488.7,-214003
step02_gravity_refstate-crust.xmf,709,5.12534e-07,-3.89066e-07,0,-2.88326e-09,-6.42122e+08,-6.42184e+08,-6.42157e+08,-197.792,1.16312e-19,0.0346662,0,0.0346662,-40000,-23378.6,-0,46331,-197.792
step02_gravity_refstate-crust.xmf,710,7.11744e-07,-7.24419e-07,0,-1.27389e-06,-6.6755e+08,-6.67649e+08,-6.67599e+08,-87389,0.00414665,0.0196105,0,0.0200441,-31596.3,-24304.6,-0,39862.7,-87389
step02_gravity_refstate-crust.xmf,711,4.73188e-07,-5.51139e-07,0,-9.51648e-07,-6.90878e+08,-6.90948e+08,-6.9091e+08,-65283,0.002231,0.0257863,0,0.0258826,-33315.7,-25153.2,-0,41744.6,-65283
step02_gravity_refstate-crust.xmf,712,9.92149e-07,-1.04552e-06,0,-1.81139e-06,-6.71576e+08,-6.71716e+08,-6.71644e+08,-124261,0.0066686,0.00533016,0,0.00853702,-28363.8,-24451.8,-0,37448.5,-124261
step02_gravity_refstate-crust.xmf,713,-5.60018e-06,2.13298e-06,0,1.2202e-08,-531639,-1143.95,-147467,837.059,-0.0463927,-0.171286,-0,0.177457,7002.37,0,0,7002.37,-837.059
step02_gravity_refstate-crust.xmf,714,-3.99576e-06,4.51408e-06,0,1.54492e-06,-2.82581e+08,-2.81997e+08,-2.82306e+08,105981,-0.00997569,-0.219316,-0,0.219543,2421.93,-10278.5,0,10559.9,-105981
step02_gravity_refstate-crust.xmf,715,-4.16169e-06,5.26915e-06,0,1.72429e-06,-3.21158e+08,-3.20511e+08,-3.20873e+08,118286,-0.0101677,-0.226311,-0,0.22654,2363.71,-11683.4,0,11920.1,-118286
step02_gravity_refstate-crust.xmf,716,-4.16732e-06,2.52159e-06,0,1.39661e-06,-1.36768e+08,-1.36309e+08,-1.36482e+08,95807.2,-0.0186235,-0.195427,-0,0.196312,4203.83,-4966.2,0,6506.56,-95807.2
step02_gravity_refstate-crust.xmf,717,-3.87633e-06,2.88994e-06,0,1.67611e-06,-1.8032e+08,-1.79856e+08,-1.80054e+08,114981,-0.0165305,-0.200443,-0,0.201123,4011.08,-6553.53,0,7683.59,-114981
step02_gravity_refstate-crust.xmf,718,-3.73146e-06,3.37825e-06,0,1.94353e-06,-2.23371e+08,-2.22883e+08,-2.23115e+08,133326,-0.0154995,-0.205796,-0,0.206378,3891.45,-8122.18,0,9006.28,-133326
step02_gravity_refstate-crust.xmf,719,-1.6573e-05,3.07956e-05,0,-2.0426e-06,-7.14295e+08,-7.11045e+08,-7.13158e+08,-140122,0.00519079,-0.428717,0,0.428749,-313.445,-25985.2,-0,25987.1,-140122
step02_gravity_refstate-crust.xmf,720,-1.39446e-05,2.53192e-05,0,-1.60445e-06,-6.79159e+08,-6.76465e+08,-6.78202e+08,-110065,0.00479039,-0.393005,0,0.393034,-343.727,-24708.2,-0,24710.6,-110065
step02_gravity_refstate-crust.xmf,721,-3.96811e-06,7.44537e-06,0,-3.65406e-05,-8.79306e+08,-8.78523e+08,-8.79034e+08,-2.50668e+06,0.0179846,-0.512362,0,0.512677,-2796.57,-32007.5,-0,32129.4,-2.50668e+06
step02_gravity_refstate-crust.xmf,722,-1.94048e-05,3.73738e-05,0,-2.87596e-06,-7.46136e+08,-7.42241e+08,-7.44804e+08,-197291,0.00644084,-0.467841,0,0.467885,-331.657,-27143.2,-0,27145.2,-197291
step02_gravity_refstate-crust.xmf,723,-9.07402e-06,2.09749e-05,0,-3.54936e-05,-8.46616e+08,-8.44555e+08,-8.45994e+08,-2.43486e+06,0.031947,-0.526569,0,0.527537,-2444.21,-30817.7,-0,30914.5,-2.43486e+06
step02_gravity_refstate-crust.xmf,724,-7.92018e-06,1.62503e-05,0,-3.87089e-05,-8.60051e+08,-8.58393e+08,-8.59507e+08,-2.65543e+06,0.0250811,-0.537702,0,0.538287,-2418.95,-31304.1,-0,31397.4,-2.65543e+06
step02_gravity_refstate-crust.xmf,725,-2.20117e-05,5.03683e-05,0,-1.29807e-05,-8.02442e+08,-7.97477e+08,-8.00932e+08,-890473,0.0229828,-0.54849,0,0.548971,-999.336,-29202.7,-0,29219.7,-890473
step02_gravity_refstate-crust.xmf,726,-2.29953e-06,4.59312e-06,0,-3.25169e-05,-8.82071e+08,-8.81598e+08,-8.81913e+08,-2.23066e+06,0.0177978,-0.48077,0,0.4811,-3185.3,-32110.5,-0,32268.1,-2.23066e+06
step02_gravity_refstate-crust.xmf,727,-9.82473e-07,3.74444e-06,0,-2.7359e-05,-8.75345e+08,-8.7502e+08,-8.75277e+08,-1.87683e+06,0.0221407,-0.441762,0,0.442316,-3697.28,-31869.6,-0,32083.4,-1.87683e+06
step02_gravity_refstate-crust.xmf,728,2.02943e-06,1.0189e-06,0,-1.97475e-05,-8.59897e+08,-8.59966e+08,-8.60036e+08,-1.35468e+06,0.0295318,-0.375494,0,0.376654,-4764.62,-31315.2,-0,31675.6,-1.35468e+06
step02_gravity_refstate-crust.xmf,729,4.26894e-06,-1.96369e-06,0,-1.29368e-05,-8.3082e+08,-8.31247e+08,-8.31113e+08,-887467,0.0347293,-0.283876,0,0.285992,-6884.36,-30261.1,-0,31034.3,-887467
step02_gravity_refstate-crust.xmf,730,3.59735e-06,-8.28878e-07,0,-1.57095e-05,-8.45615e+08,-8.45919e+08,-8.45862e+08,-1.07767e+06,0.033201,-0.325899,0,0.327586,-5796.19,-30798.7,-0,31339.4,-1.07767e+06
step02_gravity_refstate-crust.xmf,731,2.99952e-06,-2.84646e-06,0,-5.0717e-06,-7.50059e+08,-7.5046e+08,-7.50264e+08,-347919,0.0231404,-0.110869,0,0.113258,-14996.6,-27314.4,-0,31160.4,-347919
step02_gravity_refstate-crust.xmf,732,4.39496e-06,-2.49233e-06,0,-1.11722e-05,-8.16605e+08,-8.17078e+08,-8.16907e+08,-766415,0.0352658,-0.25276,0,0.255208,-7856.48,-29743.3,-0,30763.4,-766415
step02_gravity_refstate-crust.xmf,733,4.30959e-06,-2.61507e-06,0,-9.65134e-06,-7.94784e+08,-7.9526e+08,-7.9508e+08,-662082,0.0359833,-0.220509,0,0.223426,-9067.5,-28948.3,-0,30335.2,-662082
step02_gravity_refstate-crust.xmf,734,4.35861e-06,-2.67654e-06,0,-1.03214e-05,-8.10481e+08,-8.10963e+08,-8.1078e+08,-708045,0.0346328,-0.236686,0,0.239206,-8418.14,-29519.8,-0,30696.7,-708045
step02_gravity_refstate-crust.xmf,735,4.27716e-06,-2.79625e-06,0,-1.1346e-05,-8.3215e+08,-8.32635e+08,-8.32443e+08,-778334,0.0312952,-0.259856,0,0.261733,-7585.54,-30308.2,-0,31243.1,-778334
step02_gravity_refstate-crust.xmf,736,2.30803e-06,-2.25898e-06,0,-3.90006e-06,-7.02714e+08,-7.03027e+08,-7.02872e+08,-267544,0.0188864,-0.06594,0,0.0685914,-18954.5,-25588.9,-0,31844.3,-267544
step02_gravity_refstate-crust.xmf,737,2.40994e-06,-2.43558e-06,0,-4.02872e-06,-7.24231e+08,-7.24564e+08,-7.24397e+08,-276370,0.0186062,-0.0744793,0,0.0767682,-18020,-26372.4,-0,31940.9,-276370
step02_gravity_refstate-crust.xmf,738,1.48567e-06,-1.77564e-06,0,-2.65239e-06,-7.28858e+08,-7.29081e+08,-7.2896e+08,-181954,0.00912661,-0.0291587,0,0.0305536,-22683.1,-26538.1,-0,34911.2,-181954
step02_gravity_refstate-crust.xmf,739,3.6495e-07,-3.47948e-07,0,-2.04776e-07,-6.73397e+08,-6.73446e+08,-6.73422e+08,-14047.6,0.000516311,0.0346312,0,0.034635,-38558.8,-24516.6,-0,45693,-14047.6
step02_gravity_refstate-crust.xmf,740,2.87402e-07,-3.51121e-07,0,-4.37401e-07,-6.95473e+08,-6.95516e+08,-6.95492e+08,-30005.7,0.000816833,0.0331901,0,0.0332001,-36811.6,-25320,-0,44678.8,-30005.7
step02_gravity_refstate-crust.xmf,741,1.03844e-06,-1.20807e-06,0,-1.97939e-06,-6.98255e+08,-6.98409e+08,-6.98326e+08,-135786,0.00652262,-0.00207844,0,0.00684576,-26833.3,-25423,-0,36964.3,-135786
step02_gravity_refstate-crust.xmf,742,2.53039e-07,-3.91092e-07,0,-6.51446e-07,-7.13862e+08,-7.13906e+08,-7.13879e+08,-44689.2,0.000877491,0.0305647,0,0.0305773,-35112,-25989.3,-0,43684,-44689.2
step02_gravity_refstate-crust.xmf,743,7.10337e-07,-8.43993e-07,0,-1.45687e-06,-6.96269e+08,-6.96375e+08,-6.96317e+08,-99941,0.00395007,0.0137704,0,0.0143258,-29948,-25349.9,-0,39236.5,-99941
step02_gravity_refstate-crust.xmf,744,1.07325e-06,-1.37206e-06,0,-2.11259e-06,-7.25674e+08,-7.25841e+08,-7.25747e+08,-144924,0.00595675,-0.0096081,0,0.0113048,-25407.9,-26421.1,-0,36655.6,-144924
step02_gravity_refstate-crust.xmf,745,-3.97217e-06,2.00427e-06,0,1.59795e-06,-9.62455e+07,-9.58355e+07,-9.5973e+07,109619,-0.0323825,-0.178835,-0,0.181743,6910.96,-3490.95,0,7742.61,-109619
step02_gravity_refstate-crust.xmf,746,-4.37256e-06,1.86176e-06,0,9.63437e-07,-4.75808e+07,-4.71531e+07,-4.72808e+07,66091.8,-0.0426013,-0.16942,-0,0.174694,7912,-1717.42,0,8096.25,-66091.8
step02_gravity_refstate-crust.xmf,747,-4.42167e-06,6.05836e-06,0,1.90025e-06,-3.57658e+08,-3.56939e+08,-3.57355e+08,130357,-0.0105504,-0.233994,-0,0.234232,2306.32,-13012.4,0,13215.2,-130357
step02_gravity_refstate-crust.xmf,748,-5.05459e-06,7.69134e-06,0,2.08849e-06,-4.14716e+08,-4.13842e+08,-4.14369e+08,143271,-0.0105803,-0.249119,-0,0.249344,2027.37,-15089.6,0,15225.2,-143271
step02_gravity_refstate-crust.xmf,749,-5.55075e-06,8.76105e-06,0,1.89623e-06,-4.44235e+08,-4.43253e+08,-4.43854e+08,130081,-0.00923865,-0.259223,-0,0.259388,1625.18,-16163.9,0,16245.4,-130081
step02_gravity_refstate-crust.xmf,750,-3.72362e-06,3.97458e-06,0,2.18882e-06,-2.65015e+08,-2.64487e+08,-2.6476e+08,150153,-0.0150197,-0.211867,-0,0.212399,3761.08,-9639.23,0,10347,-150153
step02_gravity_refstate-crust.xmf,751,-3.95605e-06,2.27889e-06,0,1.71668e-06,-1.26842e+08,-1.26414e+08,-1.2657e+08,117764,-0.0251893,-0.187845,-0,0.189526,5695.21,-4605.32,0,7324.24,-117764
step02_gravity_refstate-crust.xmf,752,-6.10452e-06,9.95928e-06,0,1.89282e-06,-4.74728e+08,-4.73626e+08,-4.74309e+08,129848,-0.00881889,-0.270204,-0,0.270348,1413.81,-17273.7,0,17331.4,-129848
step02_gravity_refstate-crust.xmf,753,-6.7324e-06,1.12814e-05,0,2.12354e-06,-5.05387e+08,-5.04151e+08,-5.04925e+08,145675,-0.00942563,-0.282117,-0,0.282274,1370.31,-18389.3,0,18440.3,-145675
step02_gravity_refstate-crust.xmf,754,-7.44086e-06,1.27451e-05,0,2.4126e-06,-5.35338e+08,-5.33953e+08,-5.34827e+08,165504,-0.0101852,-0.295237,-0,0.295412,1337.09,-19479.1,0,19525,-165504
step02_gravity_refstate-crust.xmf,755,-1.52799e-05,2.79769e-05,0,2.72108e-07,-6.96816e+08,-6.93849e+08,-6.95768e+08,18666.6,-0.000631645,-0.410552,-0,0.410552,41.4687,-25349.8,0,25349.8,-18666.6
step02_gravity_refstate-crust.xmf,756,-8.26527e-06,1.42685e-05,0,2.50981e-06,-5.63074e+08,-5.61528e+08,-5.62507e+08,172173,-0.0102534,-0.309289,-0,0.309459,1215.47,-20487.9,0,20523.9,-172173
step02_gravity_refstate-crust.xmf,757,-9.08278e-06,1.60214e-05,0,2.78864e-06,-5.88121e+08,-5.86399e+08,-5.87498e+08,191301,-0.0105875,-0.323361,-0,0.323535,1139.53,-21399.2,0,21429.5,-191301
step02_gravity_refstate-crust.xmf,758,-1.28323e-05,2.30672e-05,0,-6.82869e-08,-6.60173e+08,-6.57711e+08,-6.59293e+08,-4684.48,0.000170552,-0.376767,0,0.376767,-13.3146,-24018.1,-0,24018.1,-4684.48
step02_gravity_refstate-crust.xmf,759,-1.06757e-05,1.89622e-05,0,2.26908e-06,-6.22701e+08,-6.20668e+08,-6.21969e+08,155659,-0.00793834,-0.346822,-0,0.346913,737.598,-22656.2,0,22668.2,-155659
step02_gravity_refstate-crust.xmf,760,-1.17224e-05,2.0917e-05,0,1.22057e-06,-6.4112e+08,-6.38881e+08,-6.40316e+08,83731.4,-0.00406806,-0.361227,-0,0.36125,347.437,-23325.6,0,23328.2,-83731.4
step02_gravity_refstate-crust.xmf,761,-1.80832e-05,3.40155e-05,0,-3.28827e-08,-7.30245e+08,-7.26671e+08,-7.29004e+08,-2255.75,4.02662e-05,-0.448012,0,0.448012,-2.22766,-26564.8,-0,26564.8,-2255.75
step02_gravity_refstate-crust.xmf,762,-6.32724e-06,1.16674e-05,0,-4.09028e-05,-8.73055e+08,-8.7182e+08,-8.72621e+08,-2.80593e+06,0.0189214,-0.546162,0,0.546489,-2398.19,-31776.9,-0,31867.3,-2.80593e+06
step02_gravity_refstate-crust.xmf,763,-2.0867e-05,4.08808e-05,0,8.04301e-07,-7.59972e+08,-7.55736e+08,-7.58541e+08,55175,-0.00173061,-0.488291,-0,0.488295,83.3307,-27646.4,0,27646.5,-55175
step02_gravity_refstate-crust.xmf,764,-2.09078e-05,5.19355e-05,0,-1.7171e-05,-8.1276e+08,-8.07763e+08,-8.11326e+08,-1.17793e+06,0.0282568,-0.560548,0,0.56126,-1246.59,-29585.2,-0,29611.4,-1.17793e+06
step02_gravity_refstate-crust.xmf,765,-1.86465e-05,5.32582e-05,0,-2.2582e-05,-8.23847e+08,-8.18914e+08,-8.22568e+08,-1.54913e+06,0.0327815,-0.572028,0,0.572967,-1499.28,-30000,-0,30037.4,-1.54913e+06
step02_gravity_refstate-crust.xmf,766,-1.32082e-05,2.84463e-05,0,-4.07921e-05,-8.38083e+08,-8.35225e+08,-8.37177e+08,-2.79834e+06,0.031548,-0.55905,0,0.55994,-2000,-30501.8,-0,30567.3,-2.79834e+06
step02_gravity_refstate-crust.xmf,767,-2.22055e-05,4.5293e-05,0,-2.93172e-06,-7.76318e+08,-7.71688e+08,-7.74795e+08,-201116,0.00583229,-0.513345,0,0.513379,-263.084,-28242.9,-0,28244.2,-201116
step02_gravity_refstate-crust.xmf,768,-2.27946e-05,4.92674e-05,0,-6.98457e-06,-7.91865e+08,-7.86922e+08,-7.90301e+08,-479141,0.0130946,-0.537394,0,0.537553,-568.847,-28812.7,-0,28818.3,-479141
step02_gravity_refstate-crust.xmf,769,-2.31498e-06,2.93055e-06,0,-3.69158e-05,-8.93151e+08,-8.92791e+08,-8.92992e+08,-2.53242e+06,0.0115658,-0.507737,0,0.507868,-2879.59,-32511.2,-0,32638.5,-2.53242e+06
step02_gravity_refstate-crust.xmf,770,9.27121e-07,6.97698e-07,0,-2.23833e-05,-8.75463e+08,-8.75479e+08,-8.75527e+08,-1.53549e+06,0.0219682,-0.396896,0,0.397504,-4395.34,-31876.9,-0,32178.5,-1.53549e+06
step02_gravity_refstate-crust.xmf,771,3.9092e-06,-2.16058e-06,0,-1.3642e-05,-8.46789e+08,-8.47205e+08,-8.47057e+08,-935843,0.0301343,-0.297569,0,0.299091,-6485.48,-30840.7,-0,31515.2,-935843
step02_gravity_refstate-crust.xmf,772,2.89757e-06,-1.02574e-06,0,-1.69568e-05,-8.61098e+08,-8.61367e+08,-8.61297e+08,-1.16324e+06,0.027308,-0.342381,0,0.343468,-5421.9,-31359.3,-0,31824.5,-1.16324e+06
step02_gravity_refstate-crust.xmf,773,2.51159e-06,-2.62237e-06,0,-4.17215e-06,-7.45137e+08,-7.45489e+08,-7.45309e+08,-286210,0.0181943,-0.0838373,0,0.0857888,-17066.8,-27133.6,-0,32054.8,-286210
step02_gravity_refstate-crust.xmf,774,2.62974e-06,-2.82185e-06,0,-4.37218e-06,-7.64258e+08,-7.64632e+08,-7.64439e+08,-299932,0.0179248,-0.094853,0,0.0965318,-16050.5,-27829.9,-0,32126.6,-299932
step02_gravity_refstate-crust.xmf,775,3.64856e-06,-2.55459e-06,0,-7.14543e-06,-7.40258e+08,-7.40683e+08,-7.40508e+08,-490177,0.0339881,-0.157608,0,0.161231,-12192.8,-26960.6,-0,29589.5,-490177
step02_gravity_refstate-crust.xmf,776,3.84099e-06,-2.60794e-06,0,-7.67026e-06,-7.54701e+08,-7.55144e+08,-7.54965e+08,-526180,0.0347704,-0.17203,0,0.175509,-11368.3,-27487.2,-0,29745.3,-526180
step02_gravity_refstate-crust.xmf,777,4.01927e-06,-2.61935e-06,0,-8.27709e-06,-7.678e+08,-7.68255e+08,-7.68075e+08,-567808,0.035567,-0.187474,0,0.190818,-10566.4,-27964.7,-0,29894.4,-567808
step02_gravity_refstate-crust.xmf,778,4.17621e-06,-2.63133e-06,0,-8.91583e-06,-7.81321e+08,-7.81788e+08,-7.81607e+08,-611626,0.0359207,-0.203299,0,0.206448,-9812.16,-28457.6,-0,30101.7,-611626
step02_gravity_refstate-crust.xmf,779,3.14787e-06,-3.03593e-06,0,-5.34829e-06,-7.67973e+08,-7.68398e+08,-7.68189e+08,-366893,0.023015,-0.123041,0,0.125175,-14059,-27966.9,-0,31301.8,-366893
step02_gravity_refstate-crust.xmf,780,3.45499e-06,-2.89047e-06,0,-6.19987e-06,-7.53808e+08,-7.54243e+08,-7.54045e+08,-425311,0.0286048,-0.140104,0,0.142994,-13106.4,-27452.6,-0,30420.8,-425311
step02_gravity_refstate-crust.xmf,781,4.14079e-06,-3.33997e-06,0,-9.81976e-06,-8.31574e+08,-8.32087e+08,-8.31858e+08,-673636,0.0280775,-0.234743,0,0.236417,-8405.8,-30285.9,-0,31430.7,-673636
step02_gravity_refstate-crust.xmf,782,1.96814e-06,-2.15802e-06,0,-3.3203e-06,-7.25812e+08,-7.26095e+08,-7.25947e+08,-227773,0.0137967,-0.051901,0,0.0537035,-20142.8,-26428.5,-0,33229.5,-227773
step02_gravity_refstate-crust.xmf,783,1.11792e-06,-1.5414e-06,0,-2.23813e-06,-7.49259e+08,-7.49442e+08,-7.49336e+08,-153536,0.00534305,-0.0174251,0,0.0182258,-24073,-27279.7,-0,36382.6,-153536
step02_gravity_refstate-crust.xmf,784,1.54679e-06,-1.96617e-06,0,-2.77237e-06,-7.54427e+08,-7.54668e+08,-7.54533e+08,-190184,0.00832466,-0.0381333,0,0.0390314,-21402.5,-27468.9,-0,34822.5,-190184
step02_gravity_refstate-crust.xmf,785,1.74117e-07,-2.69082e-07,0,-2.8856e-09,-7.07863e+08,-7.07893e+08,-7.07875e+08,-197.952,2.40456e-20,0.0354546,0,0.0354546,-40000,-25770.7,-0,47582.9,-197.952
step02_gravity_refstate-crust.xmf,786,4.33823e-07,-6.35651e-07,0,-1.12962e-06,-7.20423e+08,-7.20496e+08,-7.20452e+08,-77492.2,0.00179865,0.0210634,0,0.0211401,-31636.3,-26228.5,-0,41094.8,-77492.2
step02_gravity_refstate-crust.xmf,787,1.84381e-07,-4.4266e-07,0,-8.4215e-07,-7.43635e+08,-7.43678e+08,-7.43648e+08,-57771.5,0.00031581,0.0268272,0,0.0268291,-33347,-27072.9,-0,42953,-57771.5
step02_gravity_refstate-crust.xmf,788,7.16866e-07,-9.782e-07,0,-1.60777e-06,-7.2297e+08,-7.23086e+08,-7.23019e+08,-110293,0.00349135,0.00741947,0,0.00819988,-28402.3,-26321.8,-0,38723.8,-110293
step02_gravity_refstate-crust.xmf,789,-4.67971e-06,1.78687e-06,0,1.81671e-08,-444067,-458.653,-123038,1246.26,-0.0568505,-0.159196,-0,0.169043,9029.63,0,0,9029.63,-1246.26
step02_gravity_refstate-crust.xmf,790,-3.8278e-06,4.65763e-06,0,2.42284e-06,-3.04664e+08,-3.04081e+08,-3.04401e+08,166207,-0.0149453,-0.218646,-0,0.219156,3623.29,-11083.3,0,11660.5,-166207
step02_gravity_refstate-crust.xmf,791,-4.01665e-06,5.40647e-06,0,2.67089e-06,-3.4215e+08,-3.41503e+08,-3.41874e+08,183223,-0.0152535,-0.226002,-0,0.226516,3505.45,-12448.4,0,12932.6,-183223
step02_gravity_refstate-crust.xmf,792,-4.65587e-06,6.80718e-06,0,2.22079e-06,-3.87128e+08,-3.86342e+08,-3.86809e+08,152346,-0.0117005,-0.24051,-0,0.240795,2411.17,-14085.5,0,14290.4,-152346
step02_gravity_refstate-crust.xmf,793,-3.68614e-06,2.53442e-06,0,2.03869e-06,-1.63519e+08,-1.63093e+08,-1.63266e+08,139854,-0.0226701,-0.192027,-0,0.193361,5503.13,-5942.09,0,8098.95,-139854
step02_gravity_refstate-crust.xmf,794,-3.48203e-06,2.9178e-06,0,2.39225e-06,-2.05525e+08,-2.05086e+08,-2.05286e+08,164108,-0.0210017,-0.196915,-0,0.198031,5358.95,-7472.79,0,9195.7,-164108
step02_gravity_refstate-crust.xmf,795,-3.41226e-06,3.43489e-06,0,2.70943e-06,-2.48383e+08,-2.47913e+08,-2.48149e+08,185867,-0.019912,-0.202961,-0,0.203936,5147.27,-9034.14,0,10397.6,-185867
step02_gravity_refstate-crust.xmf,796,-3.47125e-06,2.16748e-06,0,2.21661e-06,-1.43981e+08,-1.43594e+08,-1.43743e+08,152059,-0.028881,-0.182133,-0,0.184409,6966.92,-5231.09,0,8712.19,-152059
step02_gravity_refstate-crust.xmf,797,-1.65002e-05,3.07344e-05,0,2.48621e-06,-7.14077e+08,-7.10837e+08,-7.12945e+08,170554,-0.00636358,-0.428218,-0,0.428265,384.931,-25977.5,0,25980.4,-170554
step02_gravity_refstate-crust.xmf,798,-1.3887e-05,2.51949e-05,0,1.89238e-06,-6.78682e+08,-6.76001e+08,-6.77729e+08,129818,-0.00545455,-0.392431,-0,0.392468,392.49,-24690.9,0,24694,-129818
step02_gravity_refstate-crust.xmf,799,-9.80154e-06,1.74157e-05,0,3.07928e-06,-6.0742e+08,-6.05553e+08,-6.06747e+08,211239,-0.0111644,-0.335162,-0,0.335348,1112.85,-22101,0,22129,-211239
step02_gravity_refstate-crust.xmf,800,-4.45217e-06,6.89754e-06,0,-4.20711e-05,-8.86313e+08,-8.85534e+08,-8.86007e+08,-2.88608e+06,0.0131662,-0.549198,0,0.549356,-2412.95,-32259.8,-0,32349.9,-2.88608e+06
step02_gravity_refstate-crust.xmf,801,-1.92898e-05,3.7059e-05,0,1.72283e-06,-7.43785e+08,-7.3992e+08,-7.42462e+08,118186,-0.00391275,-0.465164,-0,0.465181,203.965,-27057.6,0,27058.3,-118186
step02_gravity_refstate-crust.xmf,802,-9.20875e-06,1.6579e-05,0,-4.59074e-05,-8.6562e+08,-8.63851e+08,-8.64988e+08,-3.14925e+06,0.0190906,-0.581486,0,0.581799,-2000,-31502.2,-0,31565.6,-3.14925e+06
step02_gravity_refstate-crust.xmf,803,-1.12948e-05,2.23228e-05,0,-4.37374e-05,-8.51862e+08,-8.49555e+08,-8.51087e+08,-3.00038e+06,0.0249104,-0.571752,0,0.572294,-2000,-31001.7,-0,31066.2,-3.00038e+06
step02_gravity_refstate-crust.xmf,804,-2.25974e-05,5.49918e-05,0,-1.05607e-05,-8.13636e+08,-8.08314e+08,-8.12086e+08,-724463,0.0178314,-0.575651,0,0.575927,-768.106,-29615,-0,29624.9,-724463
step02_gravity_refstate-crust.xmf,805,-2.30473e-05,5.28008e-05,0,-7.57201e-06,-8.04144e+08,-7.9894e+08,-8.02563e+08,-519440,0.0136157,-0.560151,0,0.560317,-582.626,-29264.2,-0,29270,-519440
step02_gravity_refstate-crust.xmf,806,-9.30349e-07,1.01336e-06,0,-3.06469e-05,-8.92195e+08,-8.92061e+08,-8.92131e+08,-2.10238e+06,0.0129395,-0.4611,0,0.461282,-3452.4,-32479,-0,32662,-2.10238e+06
step02_gravity_refstate-crust.xmf,807,2.10203e-06,-1.39906e-06,0,-1.87746e-05,-8.76221e+08,-8.76461e+08,-8.76365e+08,-1.28794e+06,0.0205148,-0.360369,0,0.360953,-5048.97,-31906,-0,32303.1,-1.28794e+06
step02_gravity_refstate-crust.xmf,808,3.97461e-06,-3.03574e-06,0,-1.18406e-05,-8.47838e+08,-8.48319e+08,-8.4811e+08,-812266,0.0269353,-0.2714,0,0.272733,-7193.56,-30877.8,-0,31704.6,-812266
step02_gravity_refstate-crust.xmf,809,3.3399e-06,-2.39146e-06,0,-1.46245e-05,-8.62436e+08,-8.62829e+08,-8.62665e+08,-1.00324e+06,0.0245743,-0.312279,0,0.313244,-6091.34,-31407.7,-0,31992.9,-1.00324e+06
step02_gravity_refstate-crust.xmf,810,2.9454e-07,-4.73177e-07,0,-2.55709e-05,-8.90776e+08,-8.90829e+08,-8.90796e+08,-1.75416e+06,0.0138335,-0.418835,0,0.419063,-4048.2,-32430,-0,32681.7,-1.75416e+06
step02_gravity_refstate-crust.xmf,811,2.75177e-06,-3.02178e-06,0,-4.59859e-06,-7.8214e+08,-7.82536e+08,-7.82329e+08,-315463,0.0174888,-0.10642,0,0.107847,-15068.1,-28481,-0,32221.4,-315463
step02_gravity_refstate-crust.xmf,812,4.07283e-06,-3.2577e-06,0,-8.30264e-06,-8.06274e+08,-8.06777e+08,-8.06554e+08,-569561,0.0297525,-0.199599,0,0.201804,-9855.38,-29364.7,-0,30974.4,-569561
step02_gravity_refstate-crust.xmf,813,4.12304e-06,-3.33705e-06,0,-8.95584e-06,-8.19992e+08,-8.20504e+08,-8.20275e+08,-614370,0.0288042,-0.216057,0,0.217968,-9133.51,-29864.2,-0,31229.6,-614370
step02_gravity_refstate-crust.xmf,814,3.7927e-06,-3.65935e-06,0,-1.0219e-05,-8.51417e+08,-8.51928e+08,-8.51677e+08,-701023,0.0226607,-0.246609,0,0.247648,-7929.5,-31006.4,-0,32004.2,-701023
step02_gravity_refstate-crust.xmf,815,2.09941e-06,-2.34067e-06,0,-3.51572e-06,-7.41191e+08,-7.41496e+08,-7.41335e+08,-241179,0.0141873,-0.0617861,0,0.063394,-19042.4,-26988.7,-0,33030.3,-241179
step02_gravity_refstate-crust.xmf,816,2.18134e-06,-2.51331e-06,0,-3.6568e-06,-7.58489e+08,-7.58811e+08,-7.58639e+08,-250856,0.0139134,-0.0706323,0,0.0719896,-18087.5,-27618.5,-0,33014.2,-250856
step02_gravity_refstate-crust.xmf,817,1.18842e-06,-1.7141e-06,0,-2.37161e-06,-7.6928e+08,-7.69479e+08,-7.69361e+08,-162692,0.00475811,-0.0255285,0,0.0259682,-22818.5,-28008.6,-0,36127,-162692
step02_gravity_refstate-crust.xmf,818,3.17906e-08,-2.17403e-07,0,-1.86104e-07,-7.36017e+08,-7.36034e+08,-7.36019e+08,-12766.7,3.78005e-05,0.0352454,0,0.0352455,-38504.7,-26795.2,-0,46910.5,-12766.7
step02_gravity_refstate-crust.xmf,819,-1.98753e-09,-2.36535e-07,0,-4.12657e-07,-7.49807e+08,-7.49823e+08,-7.49807e+08,-28308.3,-0.000123788,0.0335309,-0,0.0335311,-36631.2,-27297.1,-0,45683.4,-28308.3
step02_gravity_refstate-crust.xmf,820,7.37626e-07,-1.12644e-06,0,-1.74994e-06,-7.48126e+08,-7.48254e+08,-7.48177e+08,-120046,0.00282204,0.000466301,0,0.00286031,-26907.6,-27237.5,-0,38287.1,-120046
step02_gravity_refstate-crust.xmf,821,1.09747e-08,-2.99147e-07,0,-6.1948e-07,-7.59479e+08,-7.595e+08,-7.5948e+08,-42496.3,-0.000351467,0.0306789,-0,0.0306809,-34886,-27649.2,-0,44514.1,-42496.3
step02_gravity_refstate-crust.xmf,822,4.09724e-07,-7.40786e-07,0,-1.28346e-06,-7.48676e+08,-7.48755e+08,-7.48704e+08,-88045.1,0.00102897,0.0155755,0,0.0156095,-30017,-27256.8,-0,40545.7,-88045.1
step02_gravity_refstate-crust.xmf,823,7.6471e-07,-1.28488e-06,0,-1.88221e-06,-7.70847e+08,-7.70988e+08,-7.709e+08,-129119,0.00202888,-0.00690551,0,0.00719739,-25489.7,-28064.6,-0,37912.4,-129119
step02_gravity_refstate-crust.xmf,824,-3.5836e-06,1.73746e-06,0,1.65883e-06,-8.44628e+07,-8.40978e+07,-8.4217e+07,113796,-0.0404192,-0.16682,-0,0.171647,8682.37,-3063.15,0,9206.87,-113796
step02_gravity_refstate-crust.xmf,825,-3.47813e-06,1.5294e-06,0,1.17786e-06,-5.21739e+07,-5.18303e+07,-5.19353e+07,80801,-0.0502364,-0.155158,-0,0.163088,10060.6,-1887.74,0,10236.1,-80801
step02_gravity_refstate-crust.xmf,826,-3.21483e-06,1.8398e-06,0,2.24416e-06,-1.23661e+08,-1.23314e+08,-1.2344e+08,153949,-0.0355374,-0.170672,-0,0.174333,8494.05,-4491.84,0,9608.62,-153949
step02_gravity_refstate-crust.xmf,827,-5.67422e-06,9.21647e-06,0,2.83582e-06,-4.65871e+08,-4.6485e+08,-4.65482e+08,194538,-0.013529,-0.263856,-0,0.264203,2263.59,-16951.8,0,17102.3,-194538
step02_gravity_refstate-crust.xmf,828,-4.26614e-06,6.15696e-06,0,2.95185e-06,-3.77385e+08,-3.7667e+08,-3.77092e+08,202497,-0.016014,-0.233695,-0,0.234243,3444.02,-13731.3,0,14156.7,-202497
step02_gravity_refstate-crust.xmf,829,-4.61904e-06,7.1187e-06,0,3.31363e-06,-4.14593e+08,-4.13787e+08,-4.14276e+08,227315,-0.0170196,-0.243111,-0,0.243706,3360.51,-15086,0,15455.7,-227315
step02_gravity_refstate-crust.xmf,830,-5.19167e-06,8.28697e-06,0,3.05022e-06,-4.43635e+08,-4.4271e+08,-4.43278e+08,209245,-0.0149957,-0.254693,-0,0.255134,2700.1,-16142.8,0,16367,-209245
step02_gravity_refstate-crust.xmf,831,-3.45378e-06,4.03409e-06,0,3.00255e-06,-2.88976e+08,-2.88462e+08,-2.88739e+08,205975,-0.0194986,-0.209582,-0,0.210487,4939.91,-10512.7,0,11615.5,-205975
step02_gravity_refstate-crust.xmf,832,-6.0803e-06,1.02074e-05,0,3.28355e-06,-4.92388e+08,-4.91271e+08,-4.91971e+08,225251,-0.0150005,-0.272928,-0,0.27334,2320.14,-17917.1,0,18066.7,-225251
step02_gravity_refstate-crust.xmf,833,-7.4094e-06,1.30471e-05,0,4.08539e-06,-5.52831e+08,-5.51427e+08,-5.52322e+08,280258,-0.0168749,-0.299396,-0,0.299872,2124.37,-20116.6,0,20228.4,-280258
step02_gravity_refstate-crust.xmf,834,-6.6704e-06,1.15181e-05,0,3.76696e-06,-5.23286e+08,-5.22038e+08,-5.22828e+08,258414,-0.0164145,-0.285191,-0,0.285663,2298.03,-19041.6,0,19179.8,-258414
step02_gravity_refstate-crust.xmf,835,-1.47593e-05,2.72156e-05,0,4.14598e-06,-6.96244e+08,-6.93364e+08,-6.95231e+08,284414,-0.0113446,-0.407467,-0,0.407625,755.742,-25329.9,0,25341.2,-284414
step02_gravity_refstate-crust.xmf,836,-8.21034e-06,1.4591e-05,0,4.46937e-06,-5.80086e+08,-5.78522e+08,-5.79523e+08,306599,-0.017702,-0.313809,-0,0.314308,2012.53,-21108,0,21203.7,-306599
step02_gravity_refstate-crust.xmf,837,-9.03864e-06,1.63115e-05,0,4.71851e-06,-6.02411e+08,-6.00672e+08,-6.01791e+08,323690,-0.0175412,-0.327723,-0,0.328192,1820.24,-21920.1,0,21995.5,-323690
step02_gravity_refstate-crust.xmf,838,-1.25118e-05,2.26746e-05,0,3.07048e-06,-6.60178e+08,-6.57764e+08,-6.5932e+08,210635,-0.00963154,-0.374908,-0,0.375031,759.99,-24018.9,0,24030.9,-210635
step02_gravity_refstate-crust.xmf,839,-1.0035e-05,1.81669e-05,0,4.58137e-06,-6.22712e+08,-6.20778e+08,-6.22024e+08,314282,-0.0161504,-0.342514,-0,0.342895,1530.29,-22658,0,22709.6,-314282
step02_gravity_refstate-crust.xmf,840,-1.12044e-05,2.02639e-05,0,3.94584e-06,-6.41089e+08,-6.38931e+08,-6.40321e+08,270685,-0.0131661,-0.357933,-0,0.358175,1141.14,-23325.5,0,23353.4,-270685
step02_gravity_refstate-crust.xmf,841,-1.76064e-05,3.37709e-05,0,5.3677e-06,-7.32017e+08,-7.28493e+08,-7.30809e+08,368224,-0.012754,-0.447078,-0,0.44726,711.281,-26630.9,0,26640.4,-368224
step02_gravity_refstate-crust.xmf,842,-2.64725e-06,2.21263e-06,0,-4.31628e-05,-8.99723e+08,-8.9939e+08,-8.99542e+08,-2.96097e+06,0.00745426,-0.551964,0,0.552014,-2407.2,-32748,-0,32836.4,-2.96097e+06
step02_gravity_refstate-crust.xmf,843,-6.71202e-06,1.10516e-05,0,-4.72692e-05,-8.79313e+08,-8.78095e+08,-8.78853e+08,-3.24266e+06,0.0137356,-0.58839,0,0.58855,-2000,-32002.2,-0,32064.7,-3.24266e+06
step02_gravity_refstate-crust.xmf,844,-1.93741e-05,3.80815e-05,0,5.9259e-06,-7.51521e+08,-7.4758e+08,-7.50192e+08,406517,-0.012877,-0.472872,-0,0.473047,651.623,-27340.5,0,27348.2,-406517
step02_gravity_refstate-crust.xmf,845,-2.2139e-05,4.52513e-05,0,3.78835e-06,-7.76515e+08,-7.71892e+08,-7.74996e+08,259881,-0.00744779,-0.513236,-0,0.51329,336.256,-28250.3,0,28252.3,-259881
step02_gravity_refstate-crust.xmf,846,-2.15106e-05,5.71269e-05,0,-1.47526e-05,-8.24001e+08,-8.18606e+08,-8.22525e+08,-1.01203e+06,0.0227376,-0.591263,0,0.5917,-999.317,-30000,-0,30016.6,-1.01203e+06
step02_gravity_refstate-crust.xmf,847,-2.32038e-05,4.95315e-05,0,8.46348e-07,-7.90073e+08,-7.85084e+08,-7.88482e+08,58059.5,-0.0015679,-0.537816,-0,0.537818,67.8573,-28746.2,0,28746.3,-58059.5
step02_gravity_refstate-crust.xmf,848,-2.35759e-05,5.34227e-05,0,-2.13107e-06,-8.03166e+08,-7.97884e+08,-8.01549e+08,-146191,0.00386915,-0.562221,0,0.562234,-164.566,-29227.4,-0,29227.9,-146191
step02_gravity_refstate-crust.xmf,849,-2.34605e-05,5.65967e-05,0,-3.93502e-06,-8.14255e+08,-8.08763e+08,-8.12645e+08,-269943,0.00672725,-0.583932,0,0.58397,-286.313,-29636.5,-0,29637.9,-269943
step02_gravity_refstate-crust.xmf,850,-5.18964e-07,-1.5338e-06,0,-3.43848e-05,-9.05866e+08,-9.05936e+08,-9.0583e+08,-2.3588e+06,0.00572414,-0.482979,0,0.483013,-3175.31,-32974.5,-0,33127,-2.3588e+06
step02_gravity_refstate-crust.xmf,851,1.35112e-06,-2.20268e-06,0,-2.12272e-05,-8.91401e+08,-8.91645e+08,-8.91494e+08,-1.45619e+06,0.0128945,-0.379576,0,0.379795,-4682.73,-32454.4,-0,32790.5,-1.45619e+06
step02_gravity_refstate-crust.xmf,852,3.49925e-06,-3.33884e-06,0,-1.26038e-05,-8.64266e+08,-8.64735e+08,-8.64506e+08,-864621,0.0214038,-0.284829,0,0.285632,-6772.26,-31473.5,-0,32193.8,-864621
step02_gravity_refstate-crust.xmf,853,2.67469e-06,-2.82702e-06,0,-1.59403e-05,-8.77894e+08,-8.78271e+08,-8.78077e+08,-1.09351e+06,0.0180689,-0.328119,0,0.328616,-5701.45,-31967,-0,32471.5,-1.09351e+06
step02_gravity_refstate-crust.xmf,854,2.23762e-06,-2.69526e-06,0,-3.78686e-06,-7.77852e+08,-7.7819e+08,-7.78005e+08,-259779,0.0131169,-0.0799234,0,0.0809926,-17128.8,-28323.4,-0,33100,-259779
step02_gravity_refstate-crust.xmf,855,2.28808e-06,-2.89375e-06,0,-3.95582e-06,-7.96856e+08,-7.97212e+08,-7.97013e+08,-271370,0.012174,-0.0906266,0,0.0914406,-16114.7,-29015.1,-0,33189.8,-271370
step02_gravity_refstate-crust.xmf,856,3.63523e-06,-3.02538e-06,0,-6.61468e-06,-7.69244e+08,-7.69701e+08,-7.69494e+08,-453767,0.0288606,-0.153532,0,0.156221,-12254.3,-28015.1,-0,30578,-453767
step02_gravity_refstate-crust.xmf,857,3.84267e-06,-3.09811e-06,0,-7.1976e-06,-7.8083e+08,-7.81307e+08,-7.81094e+08,-493755,0.0298493,-0.169434,0,0.172043,-11362.8,-28437.7,-0,30623.7,-493755
step02_gravity_refstate-crust.xmf,858,3.9712e-06,-3.16344e-06,0,-7.74336e-06,-7.9282e+08,-7.9331e+08,-7.93093e+08,-531195,0.0301906,-0.184409,0,0.186864,-10586.4,-28874.6,-0,30754.1,-531195
step02_gravity_refstate-crust.xmf,859,2.82892e-06,-3.22521e-06,0,-4.83225e-06,-7.99955e+08,-8.00371e+08,-8.00149e+08,-331492,0.0166201,-0.118361,0,0.119522,-14126,-29129.6,-0,32374,-331492
step02_gravity_refstate-crust.xmf,860,3.2789e-06,-3.22844e-06,0,-5.64789e-06,-7.85352e+08,-7.85798e+08,-7.85577e+08,-387445,0.0225917,-0.135827,0,0.137693,-13151.6,-28599.8,-0,31478.8,-387445
step02_gravity_refstate-crust.xmf,861,3.75485e-06,-3.78974e-06,0,-9.19e-06,-8.47255e+08,-8.47773e+08,-8.47513e+08,-630434,0.0218821,-0.228233,0,0.22928,-8561.28,-30854.5,-0,32020.2,-630434
step02_gravity_refstate-crust.xmf,862,1.72133e-06,-2.18837e-06,0,-3.03169e-06,-7.64539e+08,-7.64807e+08,-7.64657e+08,-207974,0.00929417,-0.0497766,0,0.0506369,-20045.8,-27837.4,-0,34303.9,-207974
step02_gravity_refstate-crust.xmf,863,7.79818e-07,-1.43783e-06,0,-1.99718e-06,-7.91904e+08,-7.92056e+08,-7.91957e+08,-137006,0.00103971,-0.0141664,0,0.0142045,-24209.8,-28831,-0,37647.6,-137006
step02_gravity_refstate-crust.xmf,864,1.115e-06,-1.81836e-06,0,-2.39636e-06,-7.95608e+08,-7.95809e+08,-7.95685e+08,-164390,0.00278801,-0.0310084,0,0.0311335,-21912.2,-28966.6,-0,36320.9,-164390
step02_gravity_refstate-crust.xmf,865,-1.87359e-07,-1.12972e-07,0,-4.30078e-09,-7.73211e+08,-7.73206e+08,-7.73199e+08,-295.033,-1.11754e-19,0.035912,-0,0.035912,-40000,-28148.6,-0,48911.6,-295.033
step02_gravity_refstate-crust.xmf,866,1.13013e-07,-5.04322e-07,0,-9.87568e-07,-7.74172e+08,-7.74215e+08,-7.7418e+08,-67747.2,-0.000745749,0.0225316,-0,0.0225439,-31739.8,-28184.2,-0,42447.2,-67747.2
step02_gravity_refstate-crust.xmf,867,-1.64805e-07,-2.74014e-07,0,-7.03336e-07,-7.99586e+08,-7.99593e+08,-7.99575e+08,-48248.9,-0.0017545,0.0284552,-0,0.0285093,-33698.3,-29108.6,-0,44529.7,-48248.9
step02_gravity_refstate-crust.xmf,868,3.88081e-07,-8.65488e-07,0,-1.41914e-06,-7.75235e+08,-7.75321e+08,-7.75262e+08,-97353.3,-3.15151e-06,0.00933414,-0,0.00933414,-28435.3,-28223.4,-0,40064,-97353.3
step02_gravity_refstate-crust.xmf,869,-3.64168e-06,1.39379e-06,0,2.22822e-08,-345426,7.37236,-95606.9,1528.56,-0.0654175,-0.144919,-0,0.159,11080.7,0,0,11080.7,-1528.56
step02_gravity_refstate-crust.xmf,870,-2.92429e-06,1.54726e-06,0,2.09993e-06,-1.02654e+08,-1.02347e+08,-1.02453e+08,144055,-0.0425258,-0.15816,-0,0.163777,10034.3,-3727.79,0,10704.4,-144055
step02_gravity_refstate-crust.xmf,871,-3.58214e-06,4.69351e-06,0,3.28597e-06,-3.26881e+08,-3.26314e+08,-3.26636e+08,225417,-0.0195576,-0.216709,-0,0.217589,4740.51,-11893.2,0,12803.2,-225417
step02_gravity_refstate-crust.xmf,872,-3.76604e-06,5.4057e-06,0,3.61585e-06,-3.63321e+08,-3.62691e+08,-3.63062e+08,248047,-0.0201589,-0.224231,-0,0.225135,4598.27,-13220.2,0,13997,-248047
step02_gravity_refstate-crust.xmf,873,-3.19965e-06,2.47057e-06,0,2.68983e-06,-1.87449e+08,-1.8706e+08,-1.87229e+08,184522,-0.0264694,-0.186472,-0,0.188341,6857.19,-6815.14,0,9667.84,-184522
step02_gravity_refstate-crust.xmf,874,-3.05241e-06,2.8959e-06,0,3.12319e-06,-2.32569e+08,-2.32161e+08,-2.3236e+08,214251,-0.0248361,-0.192191,-0,0.193789,6647.03,-8459.06,0,10758.2,-214251
step02_gravity_refstate-crust.xmf,875,-3.05925e-06,3.43745e-06,0,3.45821e-06,-2.74843e+08,-2.74397e+08,-2.74633e+08,237234,-0.0237168,-0.199408,-0,0.200814,6285.21,-9998.87,0,11810.2,-237234
step02_gravity_refstate-crust.xmf,876,-2.8881e-06,2.04001e-06,0,2.82763e-06,-1.68621e+08,-1.68283e+08,-1.68423e+08,193975,-0.0319169,-0.17473,-0,0.177621,8369.4,-6130.29,0,10374.4,-193975
step02_gravity_refstate-crust.xmf,877,-1.53601e-05,2.92243e-05,0,6.87084e-06,-7.13375e+08,-7.10316e+08,-7.12321e+08,471339,-0.0178051,-0.421952,-0,0.422327,1105.57,-25954.2,0,25977.8,-471339
step02_gravity_refstate-crust.xmf,878,-1.31159e-05,2.41332e-05,0,5.21486e-06,-6.78322e+08,-6.75767e+08,-6.77423e+08,357739,-0.0153926,-0.38793,-0,0.388235,1129.54,-24679.3,0,24705.1,-357739
step02_gravity_refstate-crust.xmf,879,-7.32573e-06,1.32194e-05,0,5.40628e-06,-5.69531e+08,-5.68122e+08,-5.69029e+08,370871,-0.0220515,-0.303243,-0,0.304043,2670.33,-20725.2,0,20896.5,-370871
step02_gravity_refstate-crust.xmf,880,-1.23162e-06,-6.23796e-07,0,-3.92548e-05,-9.05925e+08,-9.05883e+08,-9.05841e+08,-2.69288e+06,0.00535776,-0.520179,0,0.520207,-2745.84,-32975.2,-0,33089.3,-2.69288e+06
step02_gravity_refstate-crust.xmf,881,-4.41827e-06,5.74047e-06,0,-4.83178e-05,-8.93003e+08,-8.92306e+08,-8.927e+08,-3.3146e+06,0.00866932,-0.592585,0,0.592648,-2000,-32501.7,-0,32563.2,-3.3146e+06
step02_gravity_refstate-crust.xmf,882,-2.06643e-05,4.14184e-05,0,6.29719e-06,-7.65078e+08,-7.60819e+08,-7.6366e+08,431987,-0.0128793,-0.492787,-0,0.492955,612.222,-27833.9,0,27840.7,-431987
step02_gravity_refstate-crust.xmf,883,-2.30008e-05,5.92422e-05,0,-7.30913e-06,-8.24076e+08,-8.18435e+08,-8.22499e+08,-501406,0.0116168,-0.602533,0,0.602644,-499.831,-30000,-0,30004.2,-501406
step02_gravity_refstate-crust.xmf,884,3.62774e-07,-2.81263e-06,0,-2.88332e-05,-9.05965e+08,-9.06183e+08,-9.0599e+08,-1.97796e+06,0.00568305,-0.440381,0,0.440418,-3725.78,-32979.7,-0,33189.5,-1.97796e+06
step02_gravity_refstate-crust.xmf,885,2.02424e-06,-3.45177e-06,0,-1.77967e-05,-8.92538e+08,-8.92914e+08,-8.92677e+08,-1.22086e+06,0.0111734,-0.345663,0,0.345843,-5306.58,-32496.6,-0,32927,-1.22086e+06
step02_gravity_refstate-crust.xmf,886,3.50824e-06,-3.74042e-06,0,-1.11363e-05,-8.63514e+08,-8.64012e+08,-8.63755e+08,-763950,0.0196304,-0.263079,0,0.26381,-7378.25,-31445.5,-0,32299.5,-763950
step02_gravity_refstate-crust.xmf,887,2.91576e-06,-3.6658e-06,0,-1.3623e-05,-8.78995e+08,-8.79447e+08,-8.79195e+08,-934540,0.0156316,-0.298803,0,0.299212,-6370.75,-32006.8,-0,32634.7,-934540
step02_gravity_refstate-crust.xmf,888,1.05214e-06,-3.76202e-06,0,-2.41009e-05,-9.06267e+08,-9.06597e+08,-9.06339e+08,-1.65332e+06,0.00506361,-0.399962,0,0.399994,-4320.49,-32992,-0,33273.7,-1.65332e+06
step02_gravity_refstate-crust.xmf,889,2.3441e-06,-3.09361e-06,0,-4.15783e-06,-8.14466e+08,-8.14839e+08,-8.14626e+08,-285227,0.0110495,-0.101967,0,0.102564,-15129,-29656.1,-0,33292.2,-285227
step02_gravity_refstate-crust.xmf,890,3.68513e-06,-3.59767e-06,0,-7.1496e-06,-8.17703e+08,-8.18202e+08,-8.17956e+08,-490463,0.0236177,-0.180256,0,0.181797,-10636.2,-29778.6,-0,31621.1,-490463
step02_gravity_refstate-crust.xmf,891,3.6927e-06,-3.75059e-06,0,-7.66117e-06,-8.31528e+08,-8.32039e+08,-8.31782e+08,-525556,0.0222281,-0.195132,0,0.196394,-9907.64,-30281.8,-0,31861.4,-525556
step02_gravity_refstate-crust.xmf,892,3.63299e-06,-3.8993e-06,0,-8.33452e-06,-8.45351e+08,-8.45867e+08,-8.456e+08,-571748,0.0204161,-0.212382,0,0.213361,-9146.61,-30784.5,-0,32114.6,-571748
step02_gravity_refstate-crust.xmf,893,3.30517e-06,-4.14288e-06,0,-8.91846e-06,-8.63159e+08,-8.6367e+08,-8.63386e+08,-611807,0.015882,-0.227136,0,0.22769,-8519.92,-31431.1,-0,32565.4,-611807
step02_gravity_refstate-crust.xmf,894,1.88368e-06,-2.37085e-06,0,-3.25756e-06,-7.71371e+08,-7.71663e+08,-7.715e+08,-223468,0.010244,-0.0596047,0,0.0604786,-19003.9,-28086.5,-0,33911.6,-223468
step02_gravity_refstate-crust.xmf,895,1.85038e-06,-2.50548e-06,0,-3.30192e-06,-7.90745e+08,-7.91044e+08,-7.90872e+08,-226511,0.00883659,-0.0661421,0,0.0667297,-18227.4,-28791.5,-0,34076.2,-226511
step02_gravity_refstate-crust.xmf,896,1.38294e-06,-2.03682e-06,0,-2.68621e-06,-7.87149e+08,-7.87384e+08,-7.87244e+08,-184274,0.0052581,-0.0413272,0,0.0416604,-20770.2,-28659.4,-0,35394.4,-184274
step02_gravity_refstate-crust.xmf,897,7.77958e-07,-1.57736e-06,0,-2.09853e-06,-8.13599e+08,-8.13761e+08,-8.13653e+08,-143959,-0.000361931,-0.0212194,-0,0.0212225,-23038.8,-29620.6,-0,37525.5,-143959
step02_gravity_refstate-crust.xmf,898,-3.29914e-07,-5.92187e-08,0,-2.26317e-07,-8.01836e+08,-8.01817e+08,-8.01813e+08,-15525.3,-0.000696744,0.0352062,-0,0.0352131,-37959.7,-29190.2,-0,47885.3,-15525.3
step02_gravity_refstate-crust.xmf,899,-2.46412e-07,-1.49865e-07,0,-4.70475e-07,-7.97454e+08,-7.97448e+08,-7.97437e+08,-32274.6,-0.00125832,0.0325811,-0,0.0326054,-35760.2,-29030.9,-0,46060.7,-32274.6
step02_gravity_refstate-crust.xmf,900,4.15611e-07,-1.01816e-06,0,-1.57036e-06,-7.95393e+08,-7.95492e+08,-7.95422e+08,-107727,-0.000883736,0.00231923,-0,0.0024819,-26909.1,-28957.2,-0,39529.9,-107727
step02_gravity_refstate-crust.xmf,901,6.49324e-08,-5.99758e-07,0,-1.13081e-06,-8.02985e+08,-8.03031e+08,-8.0299e+08,-77573.9,-0.00214247,0.0170891,-0,0.0172229,-30064,-29232.8,-0,41933.3,-77573.9
step02_gravity_refstate-crust.xmf,902,4.32713e-07,-1.16404e-06,0,-1.69722e-06,-8.13319e+08,-8.13428e+08,-8.13349e+08,-116429,-0.00185554,-0.00441184,-0,0.00478616,-25589.2,-29609.6,-0,39134.8,-116429
step02_gravity_refstate-crust.xmf,903,-2.61574e-06,1.16115e-06,0,1.15691e-06,-4.69124e+07,-4.66533e+07,-4.6733e+07,79364.1,-0.0577731,-0.138428,-0,0.15,12200.2,-1699.11,0,12318,-79364.1
step02_gravity_refstate-crust.xmf,904,-2.55721e-06,1.66307e-06,0,2.80574e-06,-1.48335e+08,-1.48045e+08,-1.48159e+08,192474,-0.0375726,-0.161633,-0,0.165943,9930.02,-5392.51,0,11299.8,-192474
step02_gravity_refstate-crust.xmf,905,-5.30978e-06,8.94153e-06,0,4.10171e-06,-4.74353e+08,-4.73376e+08,-4.73989e+08,281377,-0.0194069,-0.261069,-0,0.261789,3258.72,-17261.7,0,17566.6,-281377
step02_gravity_refstate-crust.xmf,906,-4.01221e-06,6.14803e-06,0,3.98784e-06,-3.98969e+08,-3.98272e+08,-3.98694e+08,273566,-0.021198,-0.2324,-0,0.233365,4491.43,-14518.1,0,15197,-273566
step02_gravity_refstate-crust.xmf,907,-4.80557e-06,7.86988e-06,0,4.04868e-06,-4.48067e+08,-4.47197e+08,-4.47737e+08,277739,-0.0199619,-0.250454,-0,0.251249,3653.19,-16305.1,0,16709.3,-277739
step02_gravity_refstate-crust.xmf,908,-3.14672e-06,4.0075e-06,0,3.74456e-06,-3.12226e+08,-3.11735e+08,-3.1201e+08,256877,-0.0233349,-0.206577,-0,0.207891,5969.28,-11360.4,0,12833.2,-256877
step02_gravity_refstate-crust.xmf,909,-5.78584e-06,1.01284e-05,0,4.78379e-06,-5.0979e+08,-5.08698e+08,-5.09393e+08,328168,-0.0215766,-0.273288,-0,0.274139,3259.51,-18551.7,0,18835.9,-328168
step02_gravity_refstate-crust.xmf,910,-6.38484e-06,1.15195e-05,0,5.56184e-06,-5.45028e+08,-5.438e+08,-5.4459e+08,381542,-0.0236935,-0.287676,-0,0.28865,3190.07,-19834.3,0,20089.2,-381542
step02_gravity_refstate-crust.xmf,911,-1.34795e-05,2.54855e-05,0,7.65741e-06,-6.96194e+08,-6.93521e+08,-6.95269e+08,525299,-0.0214559,-0.400591,-0,0.401165,1471.47,-25330.6,0,25373.3,-525299
step02_gravity_refstate-crust.xmf,912,-7.80368e-06,1.44825e-05,0,6.41625e-06,-5.9513e+08,-5.93601e+08,-5.94595e+08,440155,-0.0248138,-0.315318,-0,0.316293,2753.59,-21657.2,0,21831.5,-440155
step02_gravity_refstate-crust.xmf,913,-8.92296e-06,1.66632e-05,0,6.62363e-06,-6.20819e+08,-6.19063e+08,-6.20207e+08,454381,-0.0239258,-0.333827,-0,0.334683,2365.26,-22591.2,0,22714.7,-454381
step02_gravity_refstate-crust.xmf,914,-1.15748e-05,2.14365e-05,0,5.94126e-06,-6.59802e+08,-6.57537e+08,-6.59008e+08,407570,-0.0188935,-0.369037,-0,0.36952,1530.53,-24007.1,0,24055.8,-407570
step02_gravity_refstate-crust.xmf,915,-1.01416e-05,1.88725e-05,0,6.46688e-06,-6.40786e+08,-6.38796e+08,-6.4009e+08,443628,-0.0219655,-0.350832,-0,0.351519,1966.87,-23316.6,0,23399.5,-443628
step02_gravity_refstate-crust.xmf,916,-7.85155e-07,-2.37349e-06,0,-4.37569e-05,-9.13037e+08,-9.13146e+08,-9.12984e+08,-3.00172e+06,0.00195777,-0.551732,0,0.551735,-2409.15,-33233.2,-0,33320.4,-3.00172e+06
step02_gravity_refstate-crust.xmf,917,-1.53182e-05,3.03491e-05,0,1.02848e-05,-7.2925e+08,-7.26117e+08,-7.28199e+08,705539,-0.0252546,-0.43377,-0,0.434505,1484.83,-26534.1,0,26575.6,-705539
step02_gravity_refstate-crust.xmf,918,-2.17534e-06,5.5878e-07,0,-4.90217e-05,-9.06684e+08,-9.06497e+08,-9.06535e+08,-3.36289e+06,0.00379049,-0.594158,0,0.59417,-2000,-33000.8,-0,33061.4,-3.36289e+06
step02_gravity_refstate-crust.xmf,919,-1.72843e-05,3.45955e-05,0,1.03055e-05,-7.46351e+08,-7.42792e+08,-7.45165e+08,706954,-0.0231943,-0.458037,-0,0.458624,1237.57,-27155.3,0,27183.5,-706954
step02_gravity_refstate-crust.xmf,920,-1.90824e-05,3.88121e-05,0,1.05308e-05,-7.62167e+08,-7.58195e+08,-7.60858e+08,722415,-0.0219228,-0.481802,-0,0.482301,1078.08,-27730.3,0,27751.3,-722415
step02_gravity_refstate-crust.xmf,921,-2.08775e-05,4.3293e-05,0,9.8641e-06,-7.76038e+08,-7.71636e+08,-7.74606e+08,676677,-0.019325,-0.505773,-0,0.506142,889.444,-28235,0,28249,-676677
step02_gravity_refstate-crust.xmf,922,-2.24387e-05,4.80208e-05,0,7.96023e-06,-7.89028e+08,-7.84195e+08,-7.87489e+08,546071,-0.0149393,-0.531161,-0,0.531371,654.628,-28708.9,0,28716.4,-546071
step02_gravity_refstate-crust.xmf,923,-2.33392e-05,5.25313e-05,0,5.25446e-06,-8.01607e+08,-7.96402e+08,-8.00006e+08,360456,-0.00951984,-0.557441,-0,0.557522,406.414,-29170.2,0,29173,-360456
step02_gravity_refstate-crust.xmf,924,-2.34735e-05,5.99266e-05,0,2.50432e-08,-8.241e+08,-8.18379e+08,-8.2249e+08,1717.96,-5.57161e-07,-0.606263,-0,0.606263,-2.07592e-10,-30000,-0,30000,-1717.96
step02_gravity_refstate-crust.xmf,925,-2.35551e-05,5.64969e-05,0,2.69185e-06,-8.13549e+08,-8.08058e+08,-8.11934e+08,184661,-0.00464919,-0.583046,-0,0.583065,197.502,-29610.3,0,29610.9,-184661
step02_gravity_refstate-crust.xmf,926,2.71607e-07,-4.49889e-06,0,-3.83668e-05,-9.17836e+08,-9.18163e+08,-9.17854e+08,-2.63196e+06,-5.85131e-05,-0.508951,-0,0.508951,-2857.95,-33408.9,-0,33530.9,-2.63196e+06
step02_gravity_refstate-crust.xmf,927,8.82976e-07,-5.57814e-06,0,-3.25353e-05,-9.20007e+08,-9.2045e+08,-9.20067e+08,-2.23192e+06,-0.00146138,-0.463299,-0,0.463301,-3396.14,-33488.7,-0,33660.5,-2.23192e+06
step02_gravity_refstate-crust.xmf,928,1.54312e-06,-4.56732e-06,0,-2.01677e-05,-9.0691e+08,-9.07329e+08,-9.07016e+08,-1.3835e+06,0.00389461,-0.364367,0,0.364387,-4917.02,-33016.1,-0,33380.3,-1.3835e+06
step02_gravity_refstate-crust.xmf,929,3.08677e-06,-4.27114e-06,0,-9.87877e-06,-8.73894e+08,-8.74399e+08,-8.74106e+08,-677684,0.0134137,-0.244839,0,0.245206,-7883.38,-31820.9,-0,32782.8,-677684
step02_gravity_refstate-crust.xmf,930,2.86269e-06,-4.31707e-06,0,-1.13877e-05,-8.82372e+08,-8.82864e+08,-8.82568e+08,-781194,0.0117405,-0.268615,0,0.268872,-7142.83,-32128.5,-0,32912.9,-781194
step02_gravity_refstate-crust.xmf,931,2.22603e-06,-4.38962e-06,0,-1.50396e-05,-8.96472e+08,-8.96926e+08,-8.96625e+08,-1.03171e+06,0.00764358,-0.314069,0,0.314162,-5956.22,-32639.2,-0,33178.2,-1.03171e+06
step02_gravity_refstate-crust.xmf,932,1.84827e-06,-2.68593e-06,0,-3.43146e-06,-8.10548e+08,-8.10859e+08,-8.10675e+08,-235398,0.0074561,-0.0757112,0,0.0760774,-17214.4,-29512.1,-0,34165.8,-235398
step02_gravity_refstate-crust.xmf,933,1.82142e-06,-2.8764e-06,0,-3.5955e-06,-8.29386e+08,-8.29709e+08,-8.29511e+08,-246651,0.00587002,-0.0863542,0,0.0865534,-16182.1,-30197.6,-0,34260.1,-246651
step02_gravity_refstate-crust.xmf,934,3.43545e-06,-3.44362e-06,0,-6.08609e-06,-8.03105e+08,-8.03577e+08,-8.0334e+08,-417506,0.0220392,-0.15163,0,0.153223,-12142.4,-29246.4,-0,31666.8,-417506
step02_gravity_refstate-crust.xmf,935,3.65888e-06,-3.45104e-06,0,-6.80765e-06,-8.04413e+08,-8.04901e+08,-8.04664e+08,-467005,0.0248627,-0.168947,0,0.170766,-11249.1,-29294.9,-0,31380.5,-467005
step02_gravity_refstate-crust.xmf,936,2.33939e-06,-3.29896e-06,0,-4.38701e-06,-8.3175e+08,-8.32137e+08,-8.31911e+08,-300949,0.00952701,-0.114041,0,0.114438,-14162,-30285.1,-0,33432.7,-300949
step02_gravity_refstate-crust.xmf,937,2.87443e-06,-3.44146e-06,0,-5.10576e-06,-8.17814e+08,-8.18247e+08,-8.18011e+08,-350255,0.0153111,-0.131359,0,0.132248,-13183.3,-29779.6,-0,32567.3,-350255
step02_gravity_refstate-crust.xmf,938,1.50844e-06,-2.25067e-06,0,-2.88491e-06,-7.99666e+08,-7.99924e+08,-7.99769e+08,-197905,0.00532269,-0.0519115,0,0.0521837,-19532.4,-29115.2,-0,35060.1,-197905
step02_gravity_refstate-crust.xmf,939,4.11476e-07,-1.29976e-06,0,-1.80737e-06,-8.3361e+08,-8.33727e+08,-8.33638e+08,-123985,-0.00329011,-0.0111595,-0,0.0116344,-24350.7,-30348,-0,38909.6,-123985
step02_gravity_refstate-crust.xmf,940,1.08369e-06,-1.98054e-06,0,-2.49609e-06,-8.18916e+08,-8.19126e+08,-8.1899e+08,-171232,0.00109105,-0.0393571,0,0.0393722,-20730.5,-29814.8,-0,36313.5,-171232
step02_gravity_refstate-crust.xmf,941,7.28055e-07,-1.71395e-06,0,-2.19467e-06,-8.35667e+08,-8.35835e+08,-8.35717e+08,-150554,-0.00214828,-0.0284673,-0,0.0285482,-21908.1,-30423.6,-0,37490.8,-150554
step02_gravity_refstate-crust.xmf,942,-5.57947e-07,6.99958e-08,0,-2.72023e-09,-8.38368e+08,-8.38325e+08,-8.3833e+08,-186.608,-2.34154e-19,0.0359622,-0,0.0359622,-40000,-30519.5,-0,50313.4,-186.608
step02_gravity_refstate-crust.xmf,943,-4.45383e-07,-8.33014e-08,0,-5.19242e-07,-8.36607e+08,-8.36583e+08,-8.36577e+08,-35620,-0.00258365,0.0313587,-0,0.031465,-34955.2,-30455.6,-0,46361.7,-35620
step02_gravity_refstate-crust.xmf,944,-2.33831e-07,-3.47528e-07,0,-8.72819e-07,-8.29515e+08,-8.29523e+08,-8.29499e+08,-59875.4,-0.00341408,0.0235258,-0,0.0237722,-31782.6,-30197.9,-0,43841.2,-59875.4
step02_gravity_refstate-crust.xmf,945,1.04226e-08,-7.20582e-07,0,-1.27526e-06,-8.33258e+08,-8.33308e+08,-8.33258e+08,-87483.2,-0.00406226,0.0104403,-0,0.0112028,-28311.7,-30334.5,-0,41493.8,-87483.2
step02_gravity_refstate-crust.xmf,946,-2.5847e-06,1.30427e-06,0,1.91228e-06,-8.56029e+07,-8.53361e+07,-8.54256e+07,131182,-0.0486567,-0.146621,-0,0.154484,11395.9,-3108.02,0,11812.2,-131182
step02_gravity_refstate-crust.xmf,947,-2.52155e-06,9.69469e-07,0,2.32033e-08,-238992,492.305,-66013.3,1591.74,-0.071868,-0.128918,-0,0.147597,13162.3,0,0,13162.3,-1591.74
step02_gravity_refstate-crust.xmf,948,-2.20072e-06,1.33426e-06,0,2.64073e-06,-1.28267e+08,-1.28025e+08,-1.28116e+08,181154,-0.0433005,-0.147669,-0,0.153886,11518.2,-4662.86,0,12426.2,-181154
step02_gravity_refstate-crust.xmf,949,-3.25691e-06,4.60002e-06,0,4.10378e-06,-3.48167e+08,-3.47628e+08,-3.47944e+08,281519,-0.0238082,-0.213436,-0,0.214759,5791.72,-12669.3,0,13930.4,-281519
step02_gravity_refstate-crust.xmf,950,-3.41313e-06,5.25788e-06,0,4.51447e-06,-3.84153e+08,-3.83558e+08,-3.83919e+08,309693,-0.0247343,-0.221068,-0,0.222448,5630.95,-13979.8,0,15071.2,-309693
step02_gravity_refstate-crust.xmf,951,-4.24856e-06,6.91305e-06,0,4.47507e-06,-4.32698e+08,-4.31932e+08,-4.32406e+08,306990,-0.0227777,-0.24063,-0,0.241706,4461.87,-15746.3,0,16366.3,-306990
step02_gravity_refstate-crust.xmf,952,-2.77299e-06,3.42085e-06,0,4.03291e-06,-2.994e+08,-2.98975e+08,-2.9921e+08,276657,-0.0262757,-0.197047,-0,0.198792,7049.16,-10894,0,12975.8,-276657
step02_gravity_refstate-crust.xmf,953,-2.67648e-06,2.36569e-06,0,3.36375e-06,-2.14968e+08,-2.14622e+08,-2.14785e+08,230753,-0.0295488,-0.179789,-0,0.182201,8183.67,-7818.97,0,11318.5,-230753
step02_gravity_refstate-crust.xmf,954,-2.56651e-06,2.82622e-06,0,3.90861e-06,-2.65879e+08,-2.65509e+08,-2.65703e+08,268130,-0.0281826,-0.18682,-0,0.188933,7887.42,-9673.59,0,12481.6,-268130
step02_gravity_refstate-crust.xmf,955,-2.30366e-06,1.8702e-06,0,3.41619e-06,-1.94657e+08,-1.94371e+08,-1.94499e+08,234351,-0.0341746,-0.166083,-0,0.169563,9745.96,-7080.27,0,12046.3,-234351
step02_gravity_refstate-crust.xmf,956,-1.34543e-05,2.65911e-05,0,1.03839e-05,-7.13006e+08,-7.10259e+08,-7.12083e+08,712336,-0.0277001,-0.411791,-0,0.412721,1794.35,-25944.4,0,26006.4,-712336
step02_gravity_refstate-crust.xmf,957,-6.57067e-06,1.23323e-05,0,6.80654e-06,-5.74396e+08,-5.731e+08,-5.73946e+08,466928,-0.0279095,-0.297791,-0,0.299096,3453.9,-20904,0,21187.4,-466928
step02_gravity_refstate-crust.xmf,958,-1.1796e-05,2.23501e-05,0,8.12661e-06,-6.78527e+08,-6.76185e+08,-6.77718e+08,557486,-0.024465,-0.380305,-0,0.381091,1855.94,-24689.3,0,24759,-557486
step02_gravity_refstate-crust.xmf,959,1.28621e-06,-6.22068e-06,0,-2.69976e-05,-9.2071e+08,-9.21225e+08,-9.20798e+08,-1.85203e+06,-0.00248965,-0.420055,-0,0.420063,-3979.04,-33514.9,-0,33750.3,-1.85203e+06
step02_gravity_refstate-crust.xmf,960,1.79752e-06,-4.9764e-06,0,-1.73658e-05,-9.07198e+08,-9.07663e+08,-9.07322e+08,-1.19129e+06,0.00285196,-0.3369,0,0.336912,-5436.12,-33027,-0,33471.4,-1.19129e+06
step02_gravity_refstate-crust.xmf,961,2.4749e-06,-4.60352e-06,0,-1.27836e-05,-8.93288e+08,-8.93773e+08,-8.93457e+08,-876956,0.00774538,-0.286659,0,0.286764,-6618.78,-32523.9,-0,33190.6,-876956
step02_gravity_refstate-crust.xmf,962,1.48016e-06,-6.53654e-06,0,-2.24768e-05,-9.22085e+08,-9.22635e+08,-9.22187e+08,-1.54191e+06,-0.00409704,-0.380682,-0,0.380704,-4583.95,-33565.3,-0,33876.9,-1.54191e+06
step02_gravity_refstate-crust.xmf,963,1.12671e-06,-7.0721e-06,0,-4.35329e-05,-9.26774e+08,-9.27336e+08,-9.26851e+08,-2.98635e+06,-0.00364599,-0.545385,-0,0.545397,-2449.59,-33733.7,-0,33822.6,-2.98635e+06
step02_gravity_refstate-crust.xmf,964,1.79816e-06,-3.06832e-06,0,-3.79868e-06,-8.46808e+08,-8.47142e+08,-8.46931e+08,-260589,0.00405578,-0.0976157,0,0.0976999,-15181.8,-30831.4,-0,34366.6,-260589
step02_gravity_refstate-crust.xmf,965,3.24026e-06,-3.70318e-06,0,-6.19348e-06,-8.27349e+08,-8.27825e+08,-8.27571e+08,-424873,0.0181607,-0.16212,0,0.163134,-11438.7,-30127.8,-0,32226.2,-424873
step02_gravity_refstate-crust.xmf,966,3.16872e-06,-3.89938e-06,0,-6.56973e-06,-8.42845e+08,-8.4333e+08,-8.43062e+08,-450683,0.0159471,-0.17529,0,0.176013,-10706.8,-30691.4,-0,32505.3,-450683
step02_gravity_refstate-crust.xmf,967,3.05626e-06,-4.09684e-06,0,-7.08891e-06,-8.569e+08,-8.57391e+08,-8.5711e+08,-486300,0.0136483,-0.190369,0,0.190857,-9955.79,-31202.3,-0,32752.2,-486300
step02_gravity_refstate-crust.xmf,968,2.88544e-06,-4.31416e-06,0,-7.71881e-06,-8.71103e+08,-8.71597e+08,-8.71301e+08,-529510,0.0105461,-0.206199,0,0.206469,-9235.71,-31718.4,-0,33035.6,-529510
step02_gravity_refstate-crust.xmf,969,2.53366e-06,-4.5637e-06,0,-8.53e-06,-8.84555e+08,-8.85042e+08,-8.84729e+08,-585158,0.00694237,-0.223082,0,0.22319,-8543.37,-32206.3,-0,33320.2,-585158
step02_gravity_refstate-crust.xmf,970,1.42945e-06,-2.43293e-06,0,-2.99713e-06,-8.24084e+08,-8.24349e+08,-8.24183e+08,-205603,0.00327673,-0.0617183,0,0.0618052,-18360.9,-30003.6,-0,35175.8,-205603
step02_gravity_refstate-crust.xmf,971,3.83363e-07,-1.43716e-06,0,-1.92756e-06,-8.54319e+08,-8.54444e+08,-8.54346e+08,-132231,-0.00504554,-0.0183044,-0,0.0189871,-23134.1,-31101.7,-0,38762.1,-132231
step02_gravity_refstate-crust.xmf,972,-5.56215e-07,2.39188e-08,0,-3.54857e-07,-8.46744e+08,-8.46704e+08,-8.46705e+08,-24343.2,-0.0020682,0.0337273,-0,0.0337907,-36479.7,-30824.3,-0,47758.8,-24343.2
step02_gravity_refstate-crust.xmf,973,-7.34565e-07,1.53563e-07,0,-1.72523e-07,-8.71697e+08,-8.71636e+08,-8.71647e+08,-11835.1,-0.0013218,0.0352657,-0,0.0352905,-38216,-31732.3,-0,49672.9,-11835.1
step02_gravity_refstate-crust.xmf,974,1.3517e-07,-9.16128e-07,0,-1.45889e-06,-8.35362e+08,-8.35434e+08,-8.35372e+08,-100080,-0.00412392,0.00334894,-0,0.00531245,-26837.9,-30411.3,-0,40560.1,-100080
step02_gravity_refstate-crust.xmf,975,-5.05658e-07,-1.19896e-07,0,-6.51492e-07,-8.5788e+08,-8.57854e+08,-8.57845e+08,-44692.4,-0.00400979,0.028305,-0,0.0285876,-33459.5,-31229.8,-0,45769.4,-44692.4
step02_gravity_refstate-crust.xmf,976,-3.01048e-07,-4.32621e-07,0,-1.01247e-06,-8.57551e+08,-8.5756e+08,-8.57531e+08,-69455.4,-0.00537316,0.0183012,-0,0.0190737,-30113.5,-31218.1,-0,43375,-69455.4
step02_gravity_refstate-crust.xmf,977,9.95708e-08,-1.02223e-06,0,-1.55556e-06,-8.52796e+08,-8.52873e+08,-8.52802e+08,-106711,-0.00550502,-0.00198538,-0,0.00585209,-25737.7,-31045.7,-0,40327,-106711
step02_gravity_refstate-crust.xmf,978,-1.83529e-06,1.02642e-06,0,2.192e-06,-9.80182e+07,-9.78219e+07,-9.78923e+07,150371,-0.0506379,-0.132401,-0,0.141754,13166.4,-3562.61,0,13639.9,-150371
step02_gravity_refstate-crust.xmf,979,-1.7031e-06,8.01391e-07,0,1.17882e-06,-4.71937e+07,-4.70219e+07,-4.70769e+07,80867.3,-0.0621126,-0.121504,-0,0.13646,14246.6,-1712.48,0,14349.2,-80867.3
step02_gravity_refstate-crust.xmf,980,-1.91372e-06,1.4586e-06,0,3.34894e-06,-1.75457e+08,-1.75226e+08,-1.75326e+08,229738,-0.0386977,-0.151482,-0,0.156347,11351.3,-6382.22,0,13022.5,-229738
step02_gravity_refstate-crust.xmf,981,-4.54387e-06,7.80522e-06,0,4.97867e-06,-4.64975e+08,-4.64128e+08,-4.64663e+08,341537,-0.0242414,-0.250087,-0,0.251259,4355.07,-16921.6,0,17473,-341537
step02_gravity_refstate-crust.xmf,982,-4.87418e-06,8.70852e-06,0,5.53843e-06,-4.95725e+08,-4.94793e+08,-4.9539e+08,379937,-0.0259037,-0.260128,-0,0.261414,4257.67,-18041.1,0,18536.7,-379937
step02_gravity_refstate-crust.xmf,983,-3.59662e-06,5.89604e-06,0,4.96408e-06,-4.18146e+08,-4.17494e+08,-4.17899e+08,340536,-0.0261023,-0.228831,-0,0.230315,5522.49,-15217.6,0,16188.7,-340536
step02_gravity_refstate-crust.xmf,984,-2.77795e-06,3.84234e-06,0,4.42539e-06,-3.32441e+08,-3.31987e+08,-3.3225e+08,303582,-0.0268585,-0.202005,-0,0.203783,6974.17,-12097.6,0,13963.9,-303582
step02_gravity_refstate-crust.xmf,985,-5.2024e-06,9.66003e-06,0,6.30118e-06,-5.27771e+08,-5.26751e+08,-5.27414e+08,432261,-0.0282347,-0.271173,-0,0.272639,4219.18,-19207.9,0,19665.9,-432261
step02_gravity_refstate-crust.xmf,986,-1.16708e-05,2.31636e-05,0,1.07004e-05,-6.98292e+08,-6.95902e+08,-6.97491e+08,734045,-0.0306799,-0.391744,-0,0.392943,2183.61,-25410.7,0,25504.3,-734045
step02_gravity_refstate-crust.xmf,987,-5.49204e-06,1.05819e-05,0,7.19177e-06,-5.57797e+08,-5.56694e+08,-5.5742e+08,493356,-0.0308564,-0.282347,-0,0.284028,4206.12,-20301.3,0,20732.5,-493356
step02_gravity_refstate-crust.xmf,988,-6.51074e-06,1.28301e-05,0,8.10228e-06,-5.98075e+08,-5.96749e+08,-5.97629e+08,555816,-0.0320286,-0.305399,-0,0.307074,3720.61,-21767.1,0,22082.8,-555816
step02_gravity_refstate-crust.xmf,989,-7.54515e-06,1.4788e-05,0,8.316e-06,-6.19554e+08,-6.18022e+08,-6.19036e+08,570478,-0.0309593,-0.322609,-0,0.324091,3233.72,-22547.8,0,22778.5,-570478
step02_gravity_refstate-crust.xmf,990,-8.70734e-06,1.69745e-05,0,8.5328e-06,-6.40544e+08,-6.38783e+08,-6.39947e+08,585350,-0.0297477,-0.340653,-0,0.341949,2793.98,-23310.7,0,23477.6,-585350
step02_gravity_refstate-crust.xmf,991,-1.01057e-05,1.95241e-05,0,8.51978e-06,-6.59998e+08,-6.57965e+08,-6.59305e+08,584457,-0.0277021,-0.359724,-0,0.360789,2340.6,-24017.2,0,24131,-584457
step02_gravity_refstate-crust.xmf,992,3.2582e-08,-4.55178e-06,0,-4.94407e-05,-9.20382e+08,-9.20696e+08,-9.20384e+08,-3.39163e+06,-0.000967413,-0.593164,-0,0.593164,-2000,-33500.5,-0,33560.1,-3.39163e+06
step02_gravity_refstate-crust.xmf,993,-1.27666e-05,2.66644e-05,0,1.34508e-05,-7.28035e+08,-7.2533e+08,-7.27159e+08,922728,-0.0342151,-0.419626,-0,0.421018,2133.51,-26494.5,0,26580.2,-922728
step02_gravity_refstate-crust.xmf,994,-1.44228e-05,3.02933e-05,0,1.41869e-05,-7.43961e+08,-7.40893e+08,-7.42971e+08,973224,-0.0330934,-0.441901,-0,0.443139,1879.65,-27073.2,0,27138.4,-973224
step02_gravity_refstate-crust.xmf,995,-1.63321e-05,3.46002e-05,0,1.48923e-05,-7.59918e+08,-7.56424e+08,-7.58798e+08,1.02161e+06,-0.0317122,-0.466405,-0,0.467482,1644.3,-27653.1,0,27701.9,-1.02161e+06
step02_gravity_refstate-crust.xmf,996,-1.84222e-05,3.94363e-05,0,1.51436e-05,-7.74501e+08,-7.70532e+08,-7.73238e+08,1.03885e+06,-0.0297019,-0.491637,-0,0.492533,1423.96,-28183,0,28219,-1.03885e+06
step02_gravity_refstate-crust.xmf,997,-2.05556e-05,4.47914e-05,0,1.442e-05,-7.88071e+08,-7.83588e+08,-7.86661e+08,989215,-0.0265657,-0.518349,-0,0.519029,1197.56,-28676.7,0,28701.7,-989215
step02_gravity_refstate-crust.xmf,998,-2.21226e-05,5.0166e-05,0,1.24157e-05,-8.0083e+08,-7.95871e+08,-7.99312e+08,851719,-0.0220534,-0.546524,-0,0.546969,958.501,-29143.2,0,29158.9,-851719
step02_gravity_refstate-crust.xmf,999,-2.2746e-05,5.49046e-05,0,9.87314e-06,-8.1284e+08,-8.07513e+08,-8.1128e+08,677298,-0.0168559,-0.574923,-0,0.57517,724.561,-29585.2,0,29594.1,-677298
step02_gravity_refstate-crust.xmf,1000,-2.30054e-05,5.92638e-05,0,7.35997e-06,-8.24076e+08,-8.18432e+08,-8.22498e+08,504894,-0.0116188,-0.602533,-0,0.602645,499.831,-30000,0,30004.2,-504894
step02_gravity_refstate-crust.xmf,1001,2.12614e-06,-9.38213e-06,0,-3.70553e-05,-9.3421e+08,-9.34999e+08,-9.34356e+08,-2.542e+06,-0.0078132,-0.492978,-0,0.49304,-2992.06,-34004.9,-0,34136.3,-2.542e+06
step02_gravity_refstate-crust.xmf,1002,1.98675e-06,-9.22054e-06,0,-3.02477e-05,-9.34751e+08,-9.3552e+08,-9.34887e+08,-2.075e+06,-0.00940346,-0.440564,-0,0.440665,-3640.11,-34024.3,-0,34218.5,-2.075e+06
step02_gravity_refstate-crust.xmf,1003,1.517e-06,-6.40754e-06,0,-1.88245e-05,-9.21411e+08,-9.21955e+08,-9.21515e+08,-1.29136e+06,-0.00461572,-0.347547,-0,0.347578,-5172.78,-33541.1,-0,33937.6,-1.29136e+06
step02_gravity_refstate-crust.xmf,1004,2.23103e-06,-4.85068e-06,0,-9.64753e-06,-8.95806e+08,-8.96292e+08,-8.95959e+08,-661821,0.00360558,-0.242322,0,0.242349,-7848.96,-32614.2,-0,33545.4,-661821
step02_gravity_refstate-crust.xmf,1005,1.89822e-06,-5.30019e-06,0,-1.12557e-05,-9.07477e+08,-9.07971e+08,-9.07607e+08,-772141,-0.000493121,-0.265254,-0,0.265255,-7115.21,-33037.1,-0,33794.6,-772141
step02_gravity_refstate-crust.xmf,1006,1.60161e-06,-6.14546e-06,0,-1.55387e-05,-9.18671e+08,-9.19203e+08,-9.18781e+08,-1.06595e+06,-0.0041312,-0.315722,-0,0.315749,-5827.98,-33442.1,-0,33946.1,-1.06595e+06
step02_gravity_refstate-crust.xmf,1007,1.94981e-06,-5.30138e-06,0,-1.32412e-05,-9.07225e+08,-9.07722e+08,-9.07359e+08,-908348,0.000910237,-0.291095,0,0.291096,-6447.01,-33028.1,-0,33651.4,-908348
step02_gravity_refstate-crust.xmf,1008,1.35726e-06,-2.61052e-06,0,-3.14578e-06,-8.44371e+08,-8.44643e+08,-8.44464e+08,-215800,0.00127916,-0.0717854,0,0.0717968,-17272.4,-30741.6,-0,35261.6,-215800
step02_gravity_refstate-crust.xmf,1009,1.24959e-06,-2.78669e-06,0,-3.32979e-06,-8.62633e+08,-8.6291e+08,-8.62718e+08,-228423,-0.000885687,-0.0822928,-0,0.0822975,-16233.4,-31405.7,-0,35353.1,-228423
step02_gravity_refstate-crust.xmf,1010,1.68005e-06,-3.2615e-06,0,-4.03514e-06,-8.64055e+08,-8.64394e+08,-8.6417e+08,-276811,0.00172173,-0.109405,0,0.109419,-14214.4,-31458.5,-0,34520.9,-276811
step02_gravity_refstate-crust.xmf,1011,2.24362e-06,-3.49942e-06,0,-4.62644e-06,-8.49594e+08,-8.49988e+08,-8.49748e+08,-317374,0.00719541,-0.126059,0,0.126264,-13261.2,-30934,-0,33656.7,-317374
step02_gravity_refstate-crust.xmf,1012,2.80174e-06,-3.64904e-06,0,-5.35191e-06,-8.36443e+08,-8.36885e+08,-8.36635e+08,-367141,0.0129267,-0.143451,0,0.144033,-12353,-30457.2,-0,32867,-367141
step02_gravity_refstate-crust.xmf,1013,1.05251e-06,-2.15398e-06,0,-2.63182e-06,-8.39184e+08,-8.39404e+08,-8.39257e+08,-180543,-0.000574754,-0.048627,-0,0.0486304,-19544.8,-30552.3,-0,36269,-180543
step02_gravity_refstate-crust.xmf,1014,4.62672e-08,-1.14482e-06,0,-1.67358e-06,-8.73178e+08,-8.7326e+08,-8.73182e+08,-114807,-0.00735847,-0.00832031,-0,0.0111074,-24522.6,-31787.3,-0,40147.1,-114807
step02_gravity_refstate-crust.xmf,1015,6.69574e-07,-1.86564e-06,0,-2.3213e-06,-8.56119e+08,-8.56293e+08,-8.56165e+08,-159241,-0.00404624,-0.0366768,-0,0.0368994,-20739.5,-31167.7,-0,37437.3,-159241
step02_gravity_refstate-crust.xmf,1016,3.12623e-07,-1.57615e-06,0,-2.05792e-06,-8.74857e+08,-8.74987e+08,-8.74879e+08,-141174,-0.00709475,-0.0258017,-0,0.0267593,-21949.7,-31848.9,-0,38680,-141174
step02_gravity_refstate-crust.xmf,1017,-9.2433e-07,2.71711e-07,0,-2.85662e-09,-9.03494e+08,-9.03412e+08,-9.03431e+08,-195.964,-3.58275e-19,0.035558,-0,0.035558,-40000,-32889.3,-0,51785.2,-195.964
step02_gravity_refstate-crust.xmf,1018,-7.24008e-07,6.5274e-08,0,-4.68542e-07,-8.83444e+08,-8.8339e+08,-8.83394e+08,-32142,-0.00386558,0.0315468,-0,0.0317828,-35052.8,-32159.8,-0,47570.5,-32142
step02_gravity_refstate-crust.xmf,1019,-5.81503e-07,-1.79327e-07,0,-7.95285e-07,-8.84714e+08,-8.84686e+08,-8.84674e+08,-54556.5,-0.00607921,0.0240109,-0,0.0247685,-31767.7,-32206.3,-0,45237.5,-54556.5
step02_gravity_refstate-crust.xmf,1020,-1.57615e-07,-7.56421e-07,0,-1.33297e-06,-8.69644e+08,-8.69685e+08,-8.69633e+08,-91441.9,-0.00689142,0.00621452,-0,0.00927965,-27201.3,-31658.5,-0,41739.3,-91441.9
step02_gravity_refstate-crust.xmf,1021,-3.89336e-07,-5.12325e-07,0,-1.13173e-06,-8.85682e+08,-8.8569e+08,-8.85655e+08,-77636.5,-0.00765634,0.0131923,-0,0.0152531,-28675.6,-32241.8,-0,43148.8,-77636.5
step02_gravity_refstate-crust.xmf,1022,-1.37911e-06,5.35939e-07,0,2.55694e-08,-130469,903.696,-35861.7,1754.06,-0.0760344,-0.111696,-0,0.13512,15281,0,0,15281,-1754.06
step02_gravity_refstate-crust.xmf,1023,-1.51991e-06,1.09574e-06,0,3.12494e-06,-1.54675e+08,-1.54496e+08,-1.54571e+08,214371,-0.0432851,-0.136058,-0,0.142777,12997.8,-5626.66,0,14163.4,-214371
step02_gravity_refstate-crust.xmf,1024,-2.83538e-06,4.36388e-06,0,4.87909e-06,-3.69049e+08,-3.68555e+08,-3.68855e+08,334705,-0.0278093,-0.208626,-0,0.210471,6833.28,-13430.9,0,15069.3,-334705
step02_gravity_refstate-crust.xmf,1025,-2.93614e-06,4.92416e-06,0,5.34795e-06,-4.03983e+08,-4.03444e+08,-4.03782e+08,366869,-0.0290292,-0.216014,-0,0.217955,6664.01,-14703.2,0,16142.9,-366869
step02_gravity_refstate-crust.xmf,1026,-3.80545e-06,6.6095e-06,0,5.47856e-06,-4.51214e+08,-4.505e+08,-4.50953e+08,375829,-0.0276817,-0.237441,-0,0.239049,5398.88,-16421.7,0,17286.5,-375829
step02_gravity_refstate-crust.xmf,1027,-2.36294e-06,3.13015e-06,0,4.54385e-06,-3.11612e+08,-3.11236e+08,-3.1145e+08,311708,-0.0292902,-0.189816,-0,0.192062,8129.74,-11339.8,0,13953,-311708
step02_gravity_refstate-crust.xmf,1028,-2.1327e-06,2.17817e-06,0,3.99074e-06,-2.42309e+08,-2.42014e+08,-2.42163e+08,273765,-0.0321461,-0.171603,-0,0.174588,9501.94,-8816.26,0,12962,-273765
step02_gravity_refstate-crust.xmf,1029,-1.72522e-06,1.66422e-06,0,3.96763e-06,-2.23433e+08,-2.232e+08,-2.23314e+08,272179,-0.0356416,-0.156789,-0,0.160789,11057.2,-8129.88,0,13724.3,-272179
step02_gravity_refstate-crust.xmf,1030,-1.16105e-05,2.40599e-05,0,1.27304e-05,-7.1434e+08,-7.11893e+08,-7.13544e+08,873309,-0.03476,-0.402457,-0,0.403956,2343.18,-25996.6,0,26101.9,-873309
step02_gravity_refstate-crust.xmf,1031,-5.69452e-06,1.13219e-05,0,7.97461e-06,-5.80395e+08,-5.79227e+08,-5.80004e+08,547058,-0.0330092,-0.291543,-0,0.293406,4188.83,-21124.3,0,21535.7,-547058
step02_gravity_refstate-crust.xmf,1032,-9.49984e-06,1.93815e-05,0,1.11209e-05,-6.81312e+08,-6.79331e+08,-6.80661e+08,762894,-0.0346259,-0.367986,-0,0.369611,2772.04,-24795.4,0,24949.9,-762894
step02_gravity_refstate-crust.xmf,1033,1.80559e-06,-9.04815e-06,0,-2.50019e-05,-9.35804e+08,-9.36548e+08,-9.35928e+08,-1.71513e+06,-0.0110818,-0.399071,-0,0.399224,-4229.77,-34062.2,-0,34323.8,-1.71513e+06
step02_gravity_refstate-crust.xmf,1034,1.55934e-06,-8.86627e-06,0,-2.06229e-05,-9.39059e+08,-9.39774e+08,-9.39166e+08,-1.41473e+06,-0.0139102,-0.36017,-0,0.360439,-4853.77,-34180,-0,34522.9,-1.41473e+06
step02_gravity_refstate-crust.xmf,1035,2.20782e-06,-9.62574e-06,0,-4.96093e-05,-9.34098e+08,-9.34909e+08,-9.34249e+08,-3.4032e+06,-0.00564165,-0.589622,-0,0.589649,-2000,-34000.8,-0,34059.6,-3.4032e+06
step02_gravity_refstate-crust.xmf,1036,3.02644e-06,-1.18483e-05,0,-4.36765e-05,-9.40965e+08,-9.41986e+08,-9.41173e+08,-2.99621e+06,-0.00933544,-0.541445,-0,0.541525,-2439.94,-34250.7,-0,34337.5,-2.99621e+06
step02_gravity_refstate-crust.xmf,1037,1.13924e-06,-2.96499e-06,0,-3.56048e-06,-8.79731e+08,-8.80013e+08,-8.7981e+08,-244249,-0.00334543,-0.0933435,-0,0.0934035,-15230.9,-32027.5,-0,35464.7,-244249
step02_gravity_refstate-crust.xmf,1038,2.61987e-06,-3.86414e-06,0,-5.67672e-06,-8.537e+08,-8.54145e+08,-8.5388e+08,-389423,0.0102258,-0.156728,0,0.157061,-11527.7,-31084.4,-0,33153.1,-389423
step02_gravity_refstate-crust.xmf,1039,2.44524e-06,-4.07403e-06,0,-6.10079e-06,-8.6851e+08,-8.68957e+08,-8.68678e+08,-418514,0.00746023,-0.1705,0,0.170663,-10756.5,-31622.6,-0,33401.9,-418514
step02_gravity_refstate-crust.xmf,1040,2.23606e-06,-4.30881e-06,0,-6.66882e-06,-8.81657e+08,-8.82106e+08,-8.8181e+08,-457481,0.00461494,-0.185666,0,0.185723,-9994.95,-32100,-0,33620,-457481
step02_gravity_refstate-crust.xmf,1041,1.99029e-06,-4.58753e-06,0,-7.37329e-06,-8.94729e+08,-8.9518e+08,-8.94865e+08,-505807,0.00109527,-0.201646,0,0.201649,-9264.18,-32574.5,-0,33866.2,-505807
step02_gravity_refstate-crust.xmf,1042,1.58019e-06,-4.94471e-06,0,-8.27986e-06,-9.07238e+08,-9.07686e+08,-9.07346e+08,-567998,-0.00289256,-0.218823,-0,0.218842,-8555.63,-33027.6,-0,34117.8,-567998
step02_gravity_refstate-crust.xmf,1043,9.30173e-07,-2.31934e-06,0,-2.77844e-06,-8.59894e+08,-8.60117e+08,-8.59958e+08,-190601,-0.0027674,-0.0581417,-0,0.0582075,-18407.3,-31305.5,-0,36316.1,-190601
step02_gravity_refstate-crust.xmf,1044,-8.31841e-09,-1.27869e-06,0,-1.81558e-06,-8.93578e+08,-8.93665e+08,-8.93577e+08,-124549,-0.00947938,-0.0153115,-0,0.0180084,-23288.3,-32529.6,-0,40006.5,-124549
step02_gravity_refstate-crust.xmf,1045,-8.98576e-07,2.12618e-07,0,-3.09273e-07,-9.06175e+08,-9.06098e+08,-9.06113e+08,-21216.1,-0.0031297,0.0336265,-0,0.0337719,-36608.4,-32986.9,-0,49277.9,-21216.1
step02_gravity_refstate-crust.xmf,1046,-1.08505e-06,3.53626e-07,0,-1.55941e-07,-9.35725e+08,-9.35627e+08,-9.35651e+08,-10697.6,-0.00195131,0.0346716,-0,0.0347265,-38210.6,-34062.2,-0,51188.7,-10697.6
step02_gravity_refstate-crust.xmf,1047,-8.37198e-07,5.57847e-08,0,-5.94684e-07,-9.13271e+08,-9.1321e+08,-9.13213e+08,-40795.3,-0.00602715,0.0284752,-0,0.0291061,-33506.2,-33245.2,-0,47200.7,-40795.3
step02_gravity_refstate-crust.xmf,1048,-6.48714e-07,-2.56737e-07,0,-9.29526e-07,-9.09328e+08,-9.09301e+08,-9.09284e+08,-63765.5,-0.00829348,0.019397,-0,0.0210957,-30239.9,-33102,-0,44835.2,-63765.5
step02_gravity_refstate-crust.xmf,1049,-2.36451e-07,-8.63202e-07,0,-1.44932e-06,-8.91971e+08,-8.92014e+08,-8.91955e+08,-99423.7,-0.00899143,0.000535256,-0,0.00900735,-25953.2,-32470.8,-0,41568.3,-99423.7
step02_gravity_refstate-crust.xmf,1050,-7.62552e-07,4.35532e-07,0,1.16634e-06,-4.80142e+07,-4.7932e+07,-4.79619e+07,80011,-0.064523,-0.10333,-0,0.121821,16370.6,-1745.59,0,16463.4,-80011
step02_gravity_refstate-crust.xmf,1051,-1.06094e-06,6.65226e-07,0,2.04021e-06,-8.98438e+07,-8.97254e+07,-8.97711e+07,139958,-0.0550688,-0.113513,-0,0.126165,15299.2,-3267.59,0,15644.2,-139958
step02_gravity_refstate-crust.xmf,1052,-1.22415e-06,1.19888e-06,0,3.88865e-06,-2.07547e+08,-2.07381e+08,-2.07463e+08,266761,-0.0391642,-0.138769,-0,0.14419,12942.1,-7552.86,0,14984.8,-266761
step02_gravity_refstate-crust.xmf,1053,-4.0113e-06,7.38218e-06,0,6.08819e-06,-4.83214e+08,-4.82432e+08,-4.82939e+08,417650,-0.0294933,-0.246736,-0,0.248492,5278.16,-17587.1,0,18362,-417650
step02_gravity_refstate-crust.xmf,1054,-4.20191e-06,8.10645e-06,0,6.78858e-06,-5.14038e+08,-5.13194e+08,-5.1375e+08,465696,-0.0316878,-0.256186,-0,0.258138,5204.45,-18709.6,0,19420,-465696
step02_gravity_refstate-crust.xmf,1055,-3.07063e-06,5.48606e-06,0,5.83922e-06,-4.37289e+08,-4.36702e+08,-4.37078e+08,400570,-0.0305312,-0.223868,-0,0.22594,6501.19,-15916,0,17192.6,-400570
step02_gravity_refstate-crust.xmf,1056,-2.30731e-06,3.54753e-06,0,5.09109e-06,-3.53668e+08,-3.53267e+08,-3.5351e+08,349249,-0.0303019,-0.195684,-0,0.198016,8044,-12871.8,0,15178.6,-349249
step02_gravity_refstate-crust.xmf,1057,-1.99032e-06,2.4934e-06,0,4.54511e-06,-2.88249e+08,-2.87941e+08,-2.88112e+08,311795,-0.0316119,-0.176831,-0,0.179635,9347.71,-10489.8,0,14050.5,-311795
step02_gravity_refstate-crust.xmf,1058,-4.3689e-06,8.83355e-06,0,7.60596e-06,-5.44361e+08,-5.43455e+08,-5.44061e+08,521769,-0.0341489,-0.266322,-0,0.268503,5136.68,-19814,0,20469,-521769
step02_gravity_refstate-crust.xmf,1059,-9.5041e-06,2.07726e-05,0,1.35905e-05,-7.06249e+08,-7.04172e+08,-7.05597e+08,932306,-0.0392239,-0.384049,-0,0.386047,2880.19,-25705.4,0,25866.3,-932306
step02_gravity_refstate-crust.xmf,1060,-4.5376e-06,9.63797e-06,0,8.5714e-06,-5.74845e+08,-5.73872e+08,-5.74533e+08,587998,-0.0368372,-0.277661,-0,0.280094,5052.84,-20924.4,0,21525.8,-587998
step02_gravity_refstate-crust.xmf,1061,-5.20524e-06,1.10959e-05,0,9.13387e-06,-5.98977e+08,-5.97858e+08,-5.9862e+08,626583,-0.0371711,-0.29362,-0,0.295963,4580.16,-21802.5,0,22278.4,-626583
step02_gravity_refstate-crust.xmf,1062,-6.02395e-06,1.2738e-05,0,9.61843e-06,-6.19986e+08,-6.18699e+08,-6.19573e+08,659825,-0.0369889,-0.309886,-0,0.312086,4113.45,-22566.6,0,22938.4,-659825
step02_gravity_refstate-crust.xmf,1063,-6.98309e-06,1.46396e-05,0,1.01161e-05,-6.40508e+08,-6.39024e+08,-6.40029e+08,693964,-0.0365469,-0.327415,-0,0.329448,3659.14,-23312.7,0,23598.2,-693964
step02_gravity_refstate-crust.xmf,1064,-8.1663e-06,1.69053e-05,0,1.05196e-05,-6.59791e+08,-6.58071e+08,-6.59231e+08,721647,-0.0355035,-0.346265,-0,0.34808,3195.41,-24013.5,0,24225.2,-721647
step02_gravity_refstate-crust.xmf,1065,-1.01728e-05,2.28552e-05,0,1.52877e-05,-7.26078e+08,-7.23812e+08,-7.2538e+08,1.04874e+06,-0.0407017,-0.403488,-0,0.405536,2724.23,-26427.8,0,26567.8,-1.04874e+06
step02_gravity_refstate-crust.xmf,1066,-1.12927e-05,2.56767e-05,0,1.66825e-05,-7.42558e+08,-7.40022e+08,-7.41783e+08,1.14442e+06,-0.0407335,-0.42438,-0,0.42633,2488.65,-27027.6,0,27142,-1.14442e+06
step02_gravity_refstate-crust.xmf,1067,-1.28034e-05,2.93216e-05,0,1.80822e-05,-7.58372e+08,-7.55482e+08,-7.57494e+08,1.24044e+06,-0.0400524,-0.447844,-0,0.449631,2230.01,-27602.9,0,27692.8,-1.24044e+06
step02_gravity_refstate-crust.xmf,1068,-1.46742e-05,3.37841e-05,0,1.94068e-05,-7.73252e+08,-7.69928e+08,-7.72245e+08,1.33131e+06,-0.0388034,-0.472918,-0,0.474507,1981.58,-28143.9,0,28213.6,-1.33131e+06
step02_gravity_refstate-crust.xmf,1069,-1.70268e-05,3.93345e-05,0,2.02798e-05,-7.87224e+08,-7.83358e+08,-7.86056e+08,1.39119e+06,-0.0367071,-0.499886,-0,0.501231,1739.77,-28651.7,0,28704.5,-1.39119e+06
step02_gravity_refstate-crust.xmf,1070,-1.97268e-05,4.59089e-05,0,1.95291e-05,-8.00129e+08,-7.95626e+08,-7.98776e+08,1.3397e+06,-0.0331045,-0.529088,-0,0.530122,1487.76,-29120.8,0,29158.7,-1.3397e+06
step02_gravity_refstate-crust.xmf,1071,-2.09865e-05,5.17049e-05,0,1.70511e-05,-8.12408e+08,-8.07422e+08,-8.10969e+08,1.16971e+06,-0.0282879,-0.559813,-0,0.560527,1247.62,-29571.7,0,29598,-1.16971e+06
step02_gravity_refstate-crust.xmf,1072,-2.15248e-05,5.72403e-05,0,1.47908e-05,-8.23998e+08,-8.18594e+08,-8.22521e+08,1.01465e+06,-0.0227388,-0.591262,-0,0.591699,999.317,-30000,0,30016.6,-1.01465e+06
step02_gravity_refstate-crust.xmf,1073,3.14705e-06,-1.29519e-05,0,-3.31919e-05,-9.48355e+08,-9.49459e+08,-9.48571e+08,-2.27696e+06,-0.015466,-0.459235,-0,0.459495,-3327.76,-34518.5,-0,34678.5,-2.27696e+06
step02_gravity_refstate-crust.xmf,1074,2.56861e-06,-1.20492e-05,0,-2.78198e-05,-9.48876e+08,-9.49879e+08,-9.49052e+08,-1.90844e+06,-0.0172988,-0.417574,-0,0.417932,-3882.42,-34536.5,-0,34754.1,-1.90844e+06
step02_gravity_refstate-crust.xmf,1075,1.30319e-06,-7.68244e-06,0,-1.7419e-05,-9.339e+08,-9.34517e+08,-9.3399e+08,-1.19494e+06,-0.0118918,-0.331066,-0,0.331279,-5430.72,-33993,-0,34424,-1.19494e+06
step02_gravity_refstate-crust.xmf,1076,1.21284e-06,-5.43878e-06,0,-9.47994e-06,-9.18888e+08,-9.19345e+08,-9.18972e+08,-650324,-0.00714497,-0.23791,-0,0.238017,-7852.55,-33449.5,-0,34358.9,-650324
step02_gravity_refstate-crust.xmf,1077,1.27645e-06,-6.29825e-06,0,-1.29951e-05,-9.24794e+08,-9.25313e+08,-9.24881e+08,-891465,-0.00837753,-0.284889,-0,0.285012,-6508.98,-33663.4,-0,34286.9,-891465
step02_gravity_refstate-crust.xmf,1078,3.59001e-06,-1.36326e-05,0,-3.8695e-05,-9.47865e+08,-9.49046e+08,-9.48111e+08,-2.65448e+06,-0.0135743,-0.501181,-0,0.501365,-2834.42,-34501.4,-0,34617.6,-2.65448e+06
step02_gravity_refstate-crust.xmf,1079,7.92743e-07,-2.48286e-06,0,-2.96312e-06,-8.7906e+08,-8.79285e+08,-8.79115e+08,-203270,-0.00520437,-0.0680544,-0,0.0682531,-17318.6,-32002.4,-0,36388,-203270
step02_gravity_refstate-crust.xmf,1080,6.22145e-07,-2.65266e-06,0,-3.19844e-06,-8.96199e+08,-8.96423e+08,-8.96242e+08,-219413,-0.00775396,-0.0785866,-0,0.0789682,-16265.3,-32625.4,-0,36455.2,-219413
step02_gravity_refstate-crust.xmf,1081,9.08925e-07,-3.14453e-06,0,-3.84033e-06,-8.96899e+08,-8.97177e+08,-8.96961e+08,-263447,-0.00639847,-0.104764,-0,0.104959,-14270.5,-32651.3,-0,35633.6,-263447
step02_gravity_refstate-crust.xmf,1082,1.46401e-06,-3.44946e-06,0,-4.30791e-06,-8.81463e+08,-8.818e+08,-8.81563e+08,-295523,-0.00134469,-0.121191,-0,0.121198,-13313.3,-32091.1,-0,34743.1,-295523
step02_gravity_refstate-crust.xmf,1083,2.06813e-06,-3.69924e-06,0,-4.91126e-06,-8.66609e+08,-8.67005e+08,-8.66751e+08,-336913,0.00434817,-0.138374,0,0.138443,-12411.4,-31552.4,-0,33905.7,-336913
step02_gravity_refstate-crust.xmf,1084,1.31041e-06,-4.44705e-06,0,-6.46327e-06,-9.06077e+08,-9.06472e+08,-9.06166e+08,-443381,-0.00452368,-0.181845,-0,0.181901,-9992.66,-32985,-0,34465.4,-443381
step02_gravity_refstate-crust.xmf,1085,5.68697e-07,-2.0192e-06,0,-2.47481e-06,-8.76629e+08,-8.76806e+08,-8.76668e+08,-169772,-0.00632909,-0.0454879,-0,0.0459261,-19576.6,-31913.7,-0,37439.7,-169772
step02_gravity_refstate-crust.xmf,1086,-3.06834e-07,-9.87836e-07,0,-1.59273e-06,-9.12654e+08,-9.12701e+08,-9.12633e+08,-109261,-0.0112061,-0.00575673,-0,0.0125982,-24695.6,-33223.3,-0,41396.4,-109261
step02_gravity_refstate-crust.xmf,1087,2.11235e-07,-1.7201e-06,0,-2.21671e-06,-8.94955e+08,-8.95087e+08,-8.94969e+08,-152066,-0.00941891,-0.0338303,-0,0.035117,-20777.2,-32579.9,-0,38641.2,-152066
step02_gravity_refstate-crust.xmf,1088,-1.02704e-07,-1.42693e-06,0,-1.98996e-06,-9.14007e+08,-9.14098e+08,-9.14e+08,-136512,-0.0118943,-0.0230647,-0,0.025951,-22030.3,-33272.7,-0,39905,-136512
step02_gravity_refstate-crust.xmf,1089,-1.26598e-06,4.76414e-07,0,-3.8124e-09,-9.68617e+08,-9.68498e+08,-9.6853e+08,-261.531,-5.72378e-19,0.0346732,-0,0.0346732,-40000,-35259.1,-0,53321.7,-261.531
step02_gravity_refstate-crust.xmf,1090,-1.03716e-06,2.40028e-07,0,-4.3302e-07,-9.38853e+08,-9.38765e+08,-9.38781e+08,-29705.2,-0.00533412,0.0312902,-0,0.0317416,-35083.8,-34176,-0,48978.3,-29705.2
step02_gravity_refstate-crust.xmf,1091,-9.05835e-07,-8.88099e-09,0,-7.41398e-07,-9.38188e+08,-9.38126e+08,-9.38126e+08,-50859.9,-0.0084949,0.024343,-0,0.0257826,-31820.8,-34152,-0,46678.9,-50859.9
step02_gravity_refstate-crust.xmf,1092,-4.84885e-07,-5.97524e-07,0,-1.25021e-06,-9.12375e+08,-9.12383e+08,-9.12342e+08,-85764.4,-0.0101265,0.00809236,-0,0.0129627,-27376.8,-33213,-0,43041.8,-85764.4
step02_gravity_refstate-crust.xmf,1093,-7.19841e-07,-3.45333e-07,0,-1.06302e-06,-9.33367e+08,-9.33342e+08,-9.33318e+08,-72923.2,-0.0106746,0.0145945,-0,0.0180816,-28840.6,-33976.7,-0,44566.7,-72923.2
step02_gravity_refstate-crust.xmf,1094,-1.1454e-06,8.23319e-07,0,2.79382e-06,-1.32368e+08,-1.32233e+08,-1.32289e+08,191656,-0.047782,-0.121877,-0,0.130909,14490.1,-4815.63,0,15269.4,-191656
step02_gravity_refstate-crust.xmf,1095,-2.55134e-07,1.08185e-07,0,2.63571e-08,-23752.2,1171.49,-6250.03,1808.1,-0.0778331,-0.0937743,-0,0.121867,17443.5,0,0,17443.5,-1808.1
step02_gravity_refstate-crust.xmf,1096,-8.7211e-07,8.05871e-07,0,3.4313e-06,-1.75826e+08,-1.7571e+08,-1.75766e+08,235387,-0.0432875,-0.121602,-0,0.129077,14661.5,-6398.83,0,15997,-235387
step02_gravity_refstate-crust.xmf,1097,-2.32244e-06,3.9858e-06,0,5.57344e-06,-3.89585e+08,-3.89152e+08,-3.89426e+08,382338,-0.0314416,-0.202263,-0,0.204692,7868.38,-14180,0,16216.8,-382338
step02_gravity_refstate-crust.xmf,1098,-2.38369e-06,4.47176e-06,0,6.06664e-06,-4.23904e+08,-4.23434e+08,-4.23741e+08,416171,-0.0327702,-0.209901,-0,0.212444,7634.41,-15429.9,0,17215.3,-416171
step02_gravity_refstate-crust.xmf,1099,-3.19997e-06,6.08778e-06,0,6.41379e-06,-4.69849e+08,-4.69212e+08,-4.6963e+08,439986,-0.0323194,-0.232329,-0,0.234567,6346.42,-17101.8,0,18241.4,-439986
step02_gravity_refstate-crust.xmf,1100,-1.85039e-06,2.80084e-06,0,5.1182e-06,-3.3327e+08,-3.32951e+08,-3.33143e+08,351108,-0.0322162,-0.181823,-0,0.184655,9276.12,-12129.9,0,15270.2,-351108
step02_gravity_refstate-crust.xmf,1101,-1.57581e-06,1.92359e-06,0,4.54473e-06,-2.7075e+08,-2.7051e+08,-2.70642e+08,311768,-0.0341502,-0.162507,-0,0.166057,10767.8,-9853.54,0,14595.8,-311768
step02_gravity_refstate-crust.xmf,1102,-1.19475e-06,1.46447e-06,0,4.47964e-06,-2.56731e+08,-2.56549e+08,-2.56649e+08,307303,-0.0362851,-0.148562,-0,0.152929,12153.9,-9343.98,0,15330.6,-307303
step02_gravity_refstate-crust.xmf,1103,-7.89107e-06,1.75945e-05,0,1.31704e-05,-6.91496e+08,-6.89748e+08,-6.90955e+08,903489,-0.0411914,-0.363064,-0,0.365394,3356.74,-25169.9,0,25392.8,-903489
step02_gravity_refstate-crust.xmf,1104,2.03812e-06,-1.1142e-05,0,-2.37542e-05,-9.49235e+08,-9.50139e+08,-9.49375e+08,-1.62954e+06,-0.0186098,-0.384568,-0,0.385018,-4380.52,-34548.8,-0,34825.4,-1.62954e+06
step02_gravity_refstate-crust.xmf,1105,9.80593e-07,-7.61886e-06,0,-1.50174e-05,-9.38326e+08,-9.38916e+08,-9.38393e+08,-1.0302e+06,-0.0148586,-0.305554,-0,0.305915,-5944.02,-34152.9,-0,34666.2,-1.0302e+06
step02_gravity_refstate-crust.xmf,1106,8.13727e-07,-6.20748e-06,0,-1.09898e-05,-9.31972e+08,-9.32454e+08,-9.32028e+08,-753903,-0.0127064,-0.257465,-0,0.257778,-7190.05,-33923.1,-0,34676.7,-753903
step02_gravity_refstate-crust.xmf,1107,1.01504e-06,-9.31851e-06,0,-1.7404e-05,-9.49553e+08,-9.50262e+08,-9.49622e+08,-1.19391e+06,-0.0202792,-0.327714,-0,0.328341,-5401.37,-34559.1,-0,34978.7,-1.19391e+06
step02_gravity_refstate-crust.xmf,1108,4.33751e-06,-1.46839e-05,0,-4.95358e-05,-9.47818e+08,-9.49123e+08,-9.48115e+08,-3.39815e+06,-0.0102519,-0.583547,-0,0.583637,-2000,-34501.1,-0,34559,-3.39815e+06
step02_gravity_refstate-crust.xmf,1109,4.85127e-06,-1.65286e-05,0,-4.35046e-05,-9.54702e+08,-9.56168e+08,-9.55034e+08,-2.98442e+06,-0.0147491,-0.535088,-0,0.535291,-2432.41,-34750.9,-0,34835.9,-2.98442e+06
step02_gravity_refstate-crust.xmf,1110,4.39628e-07,-2.82843e-06,0,-3.49131e-06,-9.12618e+08,-9.12842e+08,-9.12648e+08,-239504,-0.0106552,-0.0895775,-0,0.090209,-15254,-33222.2,-0,36556.8,-239504
step02_gravity_refstate-crust.xmf,1111,1.8286e-06,-3.9089e-06,0,-5.29793e-06,-8.80305e+08,-8.80699e+08,-8.80431e+08,-363438,0.00181238,-0.15175,0,0.15176,-11590.2,-32049.7,-0,34081.1,-363438
step02_gravity_refstate-crust.xmf,1112,1.56206e-06,-4.16645e-06,0,-5.85309e-06,-8.95022e+08,-8.95415e+08,-8.95129e+08,-401522,-0.00161198,-0.166917,-0,0.166925,-10738.6,-32584,-0,34308,-401522
step02_gravity_refstate-crust.xmf,1113,9.87637e-07,-4.79267e-06,0,-7.20902e-06,-9.18414e+08,-9.1881e+08,-9.18481e+08,-494539,-0.00851657,-0.196919,-0,0.197103,-9291.44,-33432.3,-0,34699.5,-494539
step02_gravity_refstate-crust.xmf,1114,5.19881e-07,-5.27975e-06,0,-8.18613e-06,-9.30545e+08,-9.30943e+08,-9.30581e+08,-561569,-0.0129852,-0.213821,-0,0.214215,-8579.81,-33871.4,-0,34941.1,-561569
step02_gravity_refstate-crust.xmf,1115,3.96147e-07,-2.17742e-06,0,-2.66902e-06,-8.95981e+08,-8.96158e+08,-8.96008e+08,-183095,-0.00885622,-0.0549069,-0,0.0556165,-18435.5,-32617.3,-0,37466.7,-183095
step02_gravity_refstate-crust.xmf,1116,-3.72156e-07,-1.14354e-06,0,-1.78178e-06,-9.33114e+08,-9.33167e+08,-9.33089e+08,-122230,-0.0136836,-0.0132238,-0,0.0190292,-23341.2,-33967.7,-0,41214.3,-122230
step02_gravity_refstate-crust.xmf,1117,-1.19268e-06,3.85182e-07,0,-2.89728e-07,-9.60581e+08,-9.60473e+08,-9.60499e+08,-19875.3,-0.00410364,0.0330376,-0,0.0332914,-36607.6,-34966.7,-0,50623.9,-19875.3
step02_gravity_refstate-crust.xmf,1118,-1.40633e-06,5.53855e-07,0,-1.7464e-07,-1.00142e+09,-1.00129e+09,-1.00133e+09,-11980.3,-0.00305982,0.0333682,-0,0.0335082,-37833.5,-36453,-0,52537.5,-11980.3
step02_gravity_refstate-crust.xmf,1119,-1.13128e-06,2.14342e-07,0,-5.73948e-07,-9.66918e+08,-9.66826e+08,-9.66841e+08,-39372.9,-0.00795831,0.0280479,-0,0.0291551,-33428.4,-35197.4,-0,48541.9,-39372.9
step02_gravity_refstate-crust.xmf,1120,-9.47191e-07,-1.03703e-07,0,-8.89621e-07,-9.58009e+08,-9.57951e+08,-9.57944e+08,-61028,-0.0108452,0.0199205,-0,0.0226814,-30301.7,-34873.3,-0,46198.9,-61028
step02_gravity_refstate-crust.xmf,1121,-5.64302e-07,-7.15863e-07,0,-1.39602e-06,-9.33986e+08,-9.33997e+08,-9.33948e+08,-95767.3,-0.0124921,0.0023313,-0,0.0127078,-26067.1,-33999.3,-0,42842.1,-95767.3
step02_gravity_refstate-crust.xmf,1122,-4.84531e-07,5.15869e-07,0,2.86542e-06,-1.42222e+08,-1.42153e+08,-1.42189e+08,196568,-0.0480777,-0.104825,-0,0.115325,16388,-5176.57,0,17186.2,-196568
step02_gravity_refstate-crust.xmf,1123,1.51252e-07,8.02681e-08,0,1.11543e-06,-4.90729e+07,-4.90778e+07,-4.90833e+07,76518.4,-0.0649228,-0.0845998,-0,0.10664,18555.6,-1787.29,0,18641.5,-76518.4
step02_gravity_refstate-crust.xmf,1124,-2.54457e-07,3.29722e-07,0,2.01608e-06,-9.37299e+07,-9.36899e+07,-9.37125e+07,138303,-0.0557878,-0.0945693,-0,0.109798,17444.3,-3411.81,0,17774.8,-138303
step02_gravity_refstate-crust.xmf,1125,-5.91238e-07,8.05633e-07,0,4.03336e-06,-2.2073e+08,-2.20634e+08,-2.2069e+08,276689,-0.0400895,-0.121686,-0,0.12812,14792.5,-8034.76,0,16833.7,-276689
step02_gravity_refstate-crust.xmf,1126,-3.28053e-06,6.67898e-06,0,7.09257e-06,-5.01326e+08,-5.00642e+08,-5.01101e+08,486551,-0.0344215,-0.241007,-0,0.243452,6225.76,-18248.3,0,19281.1,-486551
step02_gravity_refstate-crust.xmf,1127,-3.35411e-06,7.24915e-06,0,7.83761e-06,-5.31824e+08,-5.31097e+08,-5.31594e+08,537660,-0.0367172,-0.250184,-0,0.252864,6109.24,-19359.3,0,20300.3,-537660
step02_gravity_refstate-crust.xmf,1128,-2.44707e-06,4.93273e-06,0,6.59568e-06,-4.56631e+08,-4.56125e+08,-4.56463e+08,452463,-0.0344312,-0.217601,-0,0.220308,7440.96,-16621.9,0,18211.4,-452463
step02_gravity_refstate-crust.xmf,1129,-1.77434e-06,3.1442e-06,0,5.65669e-06,-3.74316e+08,-3.73978e+08,-3.74194e+08,388049,-0.0332764,-0.187956,-0,0.190879,9103.61,-13625,0,16386.5,-388049
step02_gravity_refstate-crust.xmf,1130,-1.42248e-06,2.15406e-06,0,5.08697e-06,-3.15117e+08,-3.14872e+08,-3.1502e+08,348966,-0.034006,-0.167505,-0,0.170922,10588.8,-11469.7,0,15610.2,-348966
step02_gravity_refstate-crust.xmf,1131,-7.96597e-07,1.06795e-06,0,4.37486e-06,-2.46442e+08,-2.46314e+08,-2.46387e+08,300115,-0.0380558,-0.133882,-0,0.139186,13623.9,-8970.39,0,16311.9,-300115
step02_gravity_refstate-crust.xmf,1132,-3.43343e-06,7.83754e-06,0,8.62204e-06,-5.60139e+08,-5.59366e+08,-5.59903e+08,591472,-0.0389226,-0.260015,-0,0.262912,5959.37,-20390.7,0,21243.7,-591472
step02_gravity_refstate-crust.xmf,1133,-7.5127e-06,1.8839e-05,0,1.61919e-05,-7.22926e+08,-7.21118e+08,-7.2241e+08,1.11077e+06,-0.0458001,-0.384081,-0,0.386802,3352.78,-26317.6,0,26530.3,-1.11077e+06
step02_gravity_refstate-crust.xmf,1134,-3.9433e-06,9.36851e-06,0,9.79325e-06,-6.00023e+08,-5.9911e+08,-5.99753e+08,671817,-0.041111,-0.280838,-0,0.283831,5413.87,-21843,0,22503.9,-671817
step02_gravity_refstate-crust.xmf,1135,-6.75419e-06,1.68329e-05,0,1.49158e-05,-7.06433e+08,-7.04815e+08,-7.0597e+08,1.02322e+06,-0.0455333,-0.365428,-0,0.368254,3650.72,-25717.2,0,25975,-1.02322e+06
step02_gravity_refstate-crust.xmf,1136,-7.16503e-06,1.58868e-05,0,1.23001e-05,-6.75232e+08,-6.73651e+08,-6.74741e+08,843788,-0.0408206,-0.347622,-0,0.350011,3612.52,-24578.1,0,24842.2,-843788
step02_gravity_refstate-crust.xmf,1137,-4.49341e-06,1.06259e-05,0,1.0434e-05,-6.20407e+08,-6.1937e+08,-6.20099e+08,715775,-0.0416332,-0.295489,-0,0.298407,4985.01,-22584.8,0,23128.4,-715775
step02_gravity_refstate-crust.xmf,1138,-5.19518e-06,1.21597e-05,0,1.11316e-05,-6.4058e+08,-6.39389e+08,-6.40223e+08,763630,-0.041904,-0.311935,-0,0.314737,4534.96,-23318.8,0,23755.6,-763630
step02_gravity_refstate-crust.xmf,1139,-6.08444e-06,1.39767e-05,0,1.17495e-05,-6.58475e+08,-6.57099e+08,-6.58058e+08,806018,-0.0415974,-0.329262,-0,0.331879,4072.08,-23969.5,0,24312.9,-806018
step02_gravity_refstate-crust.xmf,1140,-8.21693e-06,2.10427e-05,0,1.79035e-05,-7.40939e+08,-7.38932e+08,-7.40376e+08,1.22818e+06,-0.04636,-0.404932,-0,0.407577,3088.52,-26974,0,27150.2,-1.22818e+06
step02_gravity_refstate-crust.xmf,1141,-9.10183e-06,2.37162e-05,0,1.97758e-05,-7.57543e+08,-7.55291e+08,-7.56918e+08,1.35662e+06,-0.0464299,-0.427284,-0,0.429799,2820.88,-27579,0,27722.9,-1.35662e+06
step02_gravity_refstate-crust.xmf,1142,-1.03057e-05,2.71151e-05,0,2.17369e-05,-7.72403e+08,-7.69836e+08,-7.71696e+08,1.49115e+06,-0.0458007,-0.451067,-0,0.453387,2548.13,-28120.4,0,28235.6,-1.49115e+06
step02_gravity_refstate-crust.xmf,1143,-1.19165e-05,3.15501e-05,0,2.39312e-05,-7.86372e+08,-7.8339e+08,-7.85554e+08,1.64168e+06,-0.0445446,-0.476724,-0,0.478801,2284.93,-28629.3,0,28720.3,-1.64168e+06
step02_gravity_refstate-crust.xmf,1144,-1.45266e-05,3.83301e-05,0,2.61825e-05,-7.99582e+08,-7.95956e+08,-7.98585e+08,1.79612e+06,-0.0421468,-0.505652,-0,0.507406,2014.42,-29110.2,0,29179.8,-1.79612e+06
step02_gravity_refstate-crust.xmf,1145,-1.84377e-05,4.78603e-05,0,2.61202e-05,-8.12072e+08,-8.07524e+08,-8.10808e+08,1.79185e+06,-0.0382483,-0.537592,-0,0.538951,1755.64,-29563.8,0,29615.9,-1.79185e+06
step02_gravity_refstate-crust.xmf,1146,-1.88191e-05,5.43907e-05,0,2.18238e-05,-8.23818e+08,-8.18796e+08,-8.22527e+08,1.49712e+06,-0.0327771,-0.572023,-0,0.572962,1499.28,-30000,0,30037.4,-1.49712e+06
step02_gravity_refstate-crust.xmf,1147,4.96159e-06,-1.76525e-05,0,-3.69674e-05,-9.62006e+08,-9.63557e+08,-9.62346e+08,-2.53596e+06,-0.0203574,-0.483487,-0,0.483916,-2944.1,-35015.5,-0,35139.1,-2.53596e+06
step02_gravity_refstate-crust.xmf,1148,3.78783e-06,-1.59953e-05,0,-3.0305e-05,-9.62801e+08,-9.64158e+08,-9.63061e+08,-2.07892e+06,-0.0233759,-0.433704,-0,0.434333,-3560.74,-35042.3,-0,35222.7,-2.07892e+06
step02_gravity_refstate-crust.xmf,1149,2.59297e-06,-1.39602e-05,0,-2.51747e-05,-9.62285e+08,-9.63421e+08,-9.62463e+08,-1.72698e+06,-0.0249354,-0.393453,-0,0.394242,-4146.83,-35021.8,-0,35266.5,-1.72698e+06
step02_gravity_refstate-crust.xmf,1150,1.56136e-06,-1.18766e-05,0,-2.07504e-05,-9.60167e+08,-9.61088e+08,-9.60274e+08,-1.42348e+06,-0.0251178,-0.355864,-0,0.356749,-4789.81,-34943.8,-0,35270.5,-1.42348e+06
step02_gravity_refstate-crust.xmf,1151,1.33082e-07,-5.9646e-06,0,-9.43417e-06,-9.41922e+08,-9.42341e+08,-9.41931e+08,-647184,-0.0176731,-0.23221,-0,0.232882,-7882.54,-34282.9,-0,35177.5,-647184
step02_gravity_refstate-crust.xmf,1152,4.54021e-07,-7.35841e-06,0,-1.27767e-05,-9.45116e+08,-9.45652e+08,-9.45147e+08,-876481,-0.0187973,-0.277472,-0,0.278108,-6569.12,-34398.3,-0,35020,-876481
step02_gravity_refstate-crust.xmf,1153,2.18324e-07,-2.34418e-06,0,-2.91682e-06,-9.13567e+08,-9.13743e+08,-9.13582e+08,-200094,-0.0115198,-0.0649876,-0,0.0660007,-17322.1,-33256.6,-0,37497.4,-200094
step02_gravity_refstate-crust.xmf,1154,1.11618e-08,-2.52834e-06,0,-3.23315e-06,-9.29197e+08,-9.29371e+08,-9.29198e+08,-221794,-0.0142537,-0.0758905,-0,0.0772175,-16230.5,-33824.5,-0,37517,-221794
step02_gravity_refstate-crust.xmf,1155,1.14849e-07,-3.00834e-06,0,-3.85704e-06,-9.29957e+08,-9.30171e+08,-9.29965e+08,-264593,-0.014283,-0.100608,-0,0.101617,-14302.9,-33851.8,-0,36749.4,-264593
step02_gravity_refstate-crust.xmf,1156,5.89763e-07,-3.33554e-06,0,-4.20017e-06,-9.13928e+08,-9.14197e+08,-9.13968e+08,-288132,-0.0100378,-0.116654,-0,0.117085,-13347.1,-33269.7,-0,35847.1,-288132
step02_gravity_refstate-crust.xmf,1157,1.17754e-06,-3.66e-06,0,-4.67081e-06,-8.98174e+08,-8.98505e+08,-8.98254e+08,-320417,-0.00488823,-0.133955,-0,0.134044,-12422.9,-32698,-0,34978.4,-320417
step02_gravity_refstate-crust.xmf,1158,8.13131e-07,-4.2569e-06,0,-5.88339e-06,-9.17121e+08,-9.17468e+08,-9.17176e+08,-403601,-0.00917808,-0.166372,-0,0.166625,-10606.5,-33385.4,-0,35029.7,-403601
step02_gravity_refstate-crust.xmf,1159,3.51419e-07,-4.51916e-06,0,-6.40384e-06,-9.2958e+08,-9.29914e+08,-9.29604e+08,-439304,-0.0132742,-0.177162,-0,0.177659,-10030,-33836.7,-0,35292,-439304
step02_gravity_refstate-crust.xmf,1160,7.49375e-08,-1.87698e-06,0,-2.4232e-06,-9.14493e+08,-9.14627e+08,-9.14499e+08,-166232,-0.0120147,-0.0426996,-0,0.0443577,-19588.3,-33290.4,-0,38625.8,-166232
step02_gravity_refstate-crust.xmf,1161,-6.28295e-07,-8.6834e-07,0,-1.58565e-06,-9.53744e+08,-9.5376e+08,-9.537e+08,-108776,-0.0149622,-0.00439643,-0,0.0155947,-24690.6,-34718.1,-0,42602.5,-108776
step02_gravity_refstate-crust.xmf,1162,-2.29366e-07,-1.58644e-06,0,-2.20959e-06,-9.33994e+08,-9.34087e+08,-9.33978e+08,-151578,-0.0145618,-0.0313794,-0,0.0345936,-20790,-33999.6,-0,39852.2,-151578
step02_gravity_refstate-crust.xmf,1163,-4.8102e-07,-1.31092e-06,0,-2.01176e-06,-9.5354e+08,-9.53597e+08,-9.53507e+08,-138006,-0.0163996,-0.021059,-0,0.0266913,-22035.6,-34710.6,-0,41114.4,-138006
step02_gravity_refstate-crust.xmf,1164,-1.55962e-06,6.68044e-07,0,-8.32768e-10,-1.03374e+09,-1.03358e+09,-1.03363e+09,-57.1279,-5.18745e-19,0.0333142,-0,0.0333142,-40000,-37628.9,-0,54917.5,-57.1279
step02_gravity_refstate-crust.xmf,1165,-1.35742e-06,4.38578e-07,0,-3.92442e-07,-9.99426e+08,-9.99302e+08,-9.99333e+08,-26921.5,-0.00651396,0.0308717,-0,0.0315514,-35303.5,-36380.3,-0,50693.8,-26921.5
step02_gravity_refstate-crust.xmf,1166,-1.22484e-06,1.48062e-07,0,-7.36369e-07,-9.96882e+08,-9.96788e+08,-9.96798e+08,-50514.9,-0.0110917,0.0238293,-0,0.0262842,-31680.7,-36287.8,-0,48171.2,-50514.9
step02_gravity_refstate-crust.xmf,1167,-9.97986e-07,-2.07757e-07,0,-1.03797e-06,-9.78514e+08,-9.78459e+08,-9.78445e+08,-71204.5,-0.013268,0.0153959,-0,0.0203242,-28933.5,-35619.4,-0,45890,-71204.5
step02_gravity_refstate-crust.xmf,1168,-7.89736e-07,-4.50003e-07,0,-1.2071e-06,-9.56292e+08,-9.56268e+08,-9.56237e+08,-82806.7,-0.0131685,0.00954312,-0,0.0162629,-27515.7,-34810.9,-0,44372.4,-82806.7
step02_gravity_refstate-crust.xmf,1169,8.12793e-07,-3.00823e-07,0,2.29857e-08,77532.7,1138.6,21775.1,1576.82,-0.0772456,-0.075674,-0,0.108136,19656.4,0,0,19656.4,-1576.82
step02_gravity_refstate-crust.xmf,1170,-2.68944e-07,5.08709e-07,0,3.62811e-06,-1.97406e+08,-1.97353e+08,-1.97388e+08,248889,-0.0424017,-0.106142,-0,0.114298,16358.5,-7186.47,0,17867.5,-248889
step02_gravity_refstate-crust.xmf,1171,-1.77112e-06,3.53479e-06,0,6.15055e-06,-4.10475e+08,-4.10111e+08,-4.10353e+08,421928,-0.0344711,-0.195309,-0,0.198328,8821.12,-14942,0,17351.6,-421928
step02_gravity_refstate-crust.xmf,1172,-1.76908e-06,3.90337e-06,0,6.64899e-06,-4.43316e+08,-4.42927e+08,-4.43195e+08,456120,-0.0359153,-0.202577,-0,0.205736,8568.7,-16138.2,0,18272,-456120
step02_gravity_refstate-crust.xmf,1173,-2.47191e-06,5.3851e-06,0,7.20546e-06,-4.88431e+08,-4.87892e+08,-4.88261e+08,494295,-0.0363784,-0.225532,-0,0.228447,7274.64,-17780.2,0,19210.8,-494295
step02_gravity_refstate-crust.xmf,1174,-1.2803e-06,2.40103e-06,0,5.63772e-06,-3.59086e+08,-3.58833e+08,-3.58998e+08,386748,-0.0347074,-0.173063,-0,0.176509,10399.4,-13071.4,0,16703.5,-386748
step02_gravity_refstate-crust.xmf,1175,-1.01945e-06,1.59947e-06,0,4.99048e-06,-2.98991e+08,-2.98811e+08,-2.98921e+08,342347,-0.0356052,-0.152617,-0,0.156715,11980.7,-10883.4,0,16186,-342347
step02_gravity_refstate-crust.xmf,1176,-6.59534e-07,1.15037e-06,0,4.81967e-06,-2.83274e+08,-2.83149e+08,-2.83228e+08,330629,-0.036917,-0.13777,-0,0.142631,13381.7,-10312,0,16894,-330629
step02_gravity_refstate-crust.xmf,1177,-3.42467e-07,7.78369e-07,0,4.53556e-06,-2.63927e+08,-2.6385e+08,-2.63904e+08,311139,-0.0381432,-0.122375,-0,0.128182,14849.4,-9608.36,0,17686.9,-311139
step02_gravity_refstate-crust.xmf,1178,-3.46828e-06,8.30718e-06,0,9.31732e-06,-5.82281e+08,-5.81474e+08,-5.82044e+08,639168,-0.0407895,-0.268235,-0,0.271319,5844.74,-21197.4,0,21988.4,-639168
step02_gravity_refstate-crust.xmf,1179,-5.90331e-06,1.47136e-05,0,1.38978e-05,-6.90617e+08,-6.89203e+08,-6.90212e+08,953386,-0.045586,-0.347462,-0,0.35044,4009.33,-25141.5,0,25459.2,-953386
step02_gravity_refstate-crust.xmf,1180,3.11737e-07,-8.917e-06,0,-1.47311e-05,-9.56989e+08,-9.57622e+08,-9.57011e+08,-1.01056e+06,-0.0245019,-0.297774,-0,0.298781,-5993.99,-34827.6,-0,35339.6,-1.01056e+06
step02_gravity_refstate-crust.xmf,1181,-1.87577e-07,-6.94697e-06,0,-1.09592e-05,-9.53886e+08,-9.54349e+08,-9.53873e+08,-751799,-0.0230553,-0.250928,-0,0.251985,-7227.83,-34715.6,-0,35460.1,-751799
step02_gravity_refstate-crust.xmf,1182,5.19872e-07,-1.10377e-05,0,-1.70688e-05,-9.67789e+08,-9.68582e+08,-9.67825e+08,-1.17092e+06,-0.0296329,-0.320052,-0,0.321421,-5420.98,-35218.3,-0,35633.1,-1.17092e+06
step02_gravity_refstate-crust.xmf,1183,6.43898e-06,-1.97696e-05,0,-4.92208e-05,-9.61525e+08,-9.63323e+08,-9.61967e+08,-3.37655e+06,-0.0148165,-0.574943,-0,0.575133,-2000,-35000.7,-0,35057.8,-3.37655e+06
step02_gravity_refstate-crust.xmf,1184,6.60909e-06,-2.11959e-05,0,-4.2943e-05,-9.68422e+08,-9.7033e+08,-9.68876e+08,-2.94589e+06,-0.0201333,-0.525681,-0,0.526066,-2432.25,-35250.3,-0,35334.1,-2.94589e+06
step02_gravity_refstate-crust.xmf,1185,-1.93645e-07,-2.72277e-06,0,-3.60376e-06,-9.43408e+08,-9.43582e+08,-9.43395e+08,-247218,-0.0171201,-0.0868734,-0,0.0885443,-15222.8,-34340.7,-0,37563.5,-247218
step02_gravity_refstate-crust.xmf,1186,6.53967e-07,-3.92731e-06,0,-5.19668e-06,-9.16287e+08,-9.16601e+08,-9.16332e+08,-356492,-0.00954734,-0.148796,-0,0.149102,-11478.2,-33354.9,-0,35274.6,-356492
step02_gravity_refstate-crust.xmf,1187,-3.7871e-08,-4.96053e-06,0,-7.25767e-06,-9.41925e+08,-9.42263e+08,-9.41922e+08,-497876,-0.0177429,-0.192261,-0,0.193078,-9311.35,-34283.9,-0,35525.9,-497876
step02_gravity_refstate-crust.xmf,1188,-5.67554e-07,-5.59468e-06,0,-8.31857e-06,-9.54314e+08,-9.54659e+08,-9.54275e+08,-570654,-0.0227198,-0.208836,-0,0.210068,-8590.75,-34731.8,-0,35778.5,-570654
step02_gravity_refstate-crust.xmf,1189,-1.23965e-07,-2.04767e-06,0,-2.68517e-06,-9.32043e+08,-9.32175e+08,-9.32034e+08,-184202,-0.0146793,-0.0523662,-0,0.0543848,-18411.8,-33928.3,-0,38602.1,-184202
step02_gravity_refstate-crust.xmf,1190,-6.78993e-07,-1.04919e-06,0,-1.81547e-06,-9.71402e+08,-9.71428e+08,-9.71356e+08,-124541,-0.0174335,-0.0118037,-0,0.0210536,-23324.1,-35360.5,-0,42360.1,-124541
step02_gravity_refstate-crust.xmf,1191,-1.62624e-06,7.07123e-07,0,-1.31638e-07,-1.05319e+09,-1.05303e+09,-1.05307e+09,-9030.38,-0.00272458,0.0324538,-0,0.032568,-38330.1,-38336.8,-0,54211.7,-9030.38
step02_gravity_refstate-crust.xmf,1192,-1.36497e-06,3.39169e-07,0,-5.7616e-07,-1.015e+09,-1.01488e+09,-1.0149e+09,-39524.5,-0.00966799,0.0272462,-0,0.0289107,-33269.1,-36946.9,-0,49718.3,-39524.5
step02_gravity_refstate-crust.xmf,1193,-1.15676e-06,-1.5334e-08,0,-8.98833e-07,-9.98274e+08,-9.98196e+08,-9.98195e+08,-61660,-0.0129613,0.0195443,-0,0.0234516,-30153.6,-36338.5,-0,47219.9,-61660
step02_gravity_refstate-crust.xmf,1194,-8.63309e-07,-5.95874e-07,0,-1.39773e-06,-9.78061e+08,-9.78043e+08,-9.78002e+08,-95884.4,-0.0158722,0.00344868,-0,0.0162425,-26080,-35602.9,-0,44133.1,-95884.4
step02_gravity_refstate-crust.xmf,1195,1.23939e-07,2.1467e-07,0,2.56062e-06,-1.31754e+08,-1.31748e+08,-1.31762e+08,175658,-0.0498385,-0.0866688,-0,0.0999767,18373.6,-4797.47,0,18989.6,-175658
step02_gravity_refstate-crust.xmf,1196,1.01821e-06,-2.65746e-07,0,9.61105e-07,-4.64075e+07,-4.64956e+07,-4.64773e+07,65931.8,-0.0642264,-0.0662871,-0,0.0922984,20759.2,-1693.22,0,20828.2,-65931.8
step02_gravity_refstate-crust.xmf,1197,5.21652e-07,9.19426e-10,0,1.90508e-06,-9.7745e+07,-9.77807e+07,-9.77808e+07,130689,-0.0547493,-0.0745337,-0,0.0924811,19742.1,-3560.62,0,20060.6,-130689
step02_gravity_refstate-crust.xmf,1198,-4.47464e-08,4.82678e-07,0,4.18298e-06,-2.43612e+08,-2.43576e+08,-2.43609e+08,286952,-0.0393279,-0.106952,-0,0.113953,16362.1,-8869.5,0,18611.4,-286952
step02_gravity_refstate-crust.xmf,1199,-2.42591e-06,5.784e-06,0,7.90838e-06,-5.19569e+08,-5.19005e+08,-5.19402e+08,542515,-0.0386083,-0.233554,-0,0.236723,7143.4,-18914.6,0,20218.5,-542515
step02_gravity_refstate-crust.xmf,1200,-2.40393e-06,6.2495e-06,0,8.67666e-06,-5.50407e+08,-5.49814e+08,-5.50243e+08,595219,-0.0408797,-0.243006,-0,0.246421,6951.92,-20038.1,0,21209.8,-595219
step02_gravity_refstate-crust.xmf,1201,-1.74656e-06,4.24388e-06,0,7.19397e-06,-4.75329e+08,-4.74918e+08,-4.75209e+08,493506,-0.0376699,-0.209854,-0,0.213208,8358.09,-17304.3,0,19217.1,-493506
step02_gravity_refstate-crust.xmf,1202,-1.22602e-06,2.71807e-06,0,6.13858e-06,-3.97743e+08,-3.97472e+08,-3.97659e+08,421106,-0.0356914,-0.180439,-0,0.183935,10047,-14479.5,0,17623.8,-421106
step02_gravity_refstate-crust.xmf,1203,-8.33736e-07,1.7359e-06,0,5.51003e-06,-3.42529e+08,-3.42353e+08,-3.42472e+08,377988,-0.0357887,-0.15716,-0,0.161184,11796.2,-12469.4,0,17165,-377988
step02_gravity_refstate-crust.xmf,1204,-2.4921e-06,6.83973e-06,0,9.39996e-06,-5.76839e+08,-5.76199e+08,-5.76668e+08,644837,-0.0426527,-0.253854,-0,0.257412,6655.53,-21000.9,0,22030.3,-644837
step02_gravity_refstate-crust.xmf,1205,-5.34031e-06,1.65917e-05,0,1.82539e-05,-7.40076e+08,-7.38571e+08,-7.39709e+08,1.25222e+06,-0.0505206,-0.384096,-0,0.387405,3716.33,-26947.3,0,27202.3,-1.25222e+06
step02_gravity_refstate-crust.xmf,1206,-2.68522e-06,7.57e-06,0,1.01027e-05,-5.99722e+08,-5.99019e+08,-5.99538e+08,693049,-0.0440151,-0.265776,-0,0.269396,6298.96,-21834.3,0,22724.8,-693049
step02_gravity_refstate-crust.xmf,1207,-4.96374e-06,1.49973e-05,0,1.66386e-05,-7.22784e+08,-7.21415e+08,-7.22444e+08,1.14141e+06,-0.0499317,-0.364854,-0,0.368255,4015.07,-26316.8,0,26621.3,-1.14141e+06
step02_gravity_refstate-crust.xmf,1208,-3.02771e-06,8.54022e-06,0,1.08321e-05,-6.20784e+08,-6.1999e+08,-6.20576e+08,743085,-0.0450091,-0.279629,-0,0.283229,5869,-22601.2,0,23350.8,-743085
step02_gravity_refstate-crust.xmf,1209,-4.51025e-06,1.3463e-05,0,1.53035e-05,-7.05982e+08,-7.04749e+08,-7.05673e+08,1.04982e+06,-0.049382,-0.346917,-0,0.350414,4342.64,-25704.6,0,26068.8,-1.04982e+06
step02_gravity_refstate-crust.xmf,1210,-4.90387e-06,1.26518e-05,0,1.30912e-05,-6.74298e+08,-6.73094e+08,-6.73962e+08,898059,-0.0459875,-0.328229,-0,0.331435,4486.08,-24548.2,0,24954.8,-898059
step02_gravity_refstate-crust.xmf,1211,-3.47625e-06,9.71552e-06,0,1.16429e-05,-6.41284e+08,-6.40379e+08,-6.41045e+08,798702,-0.0458327,-0.295081,-0,0.29862,5418.59,-23347.6,0,23968.1,-798702
step02_gravity_refstate-crust.xmf,1212,-4.03789e-06,1.11039e-05,0,1.2535e-05,-6.60902e+08,-6.59864e+08,-6.60625e+08,859902,-0.0464465,-0.311886,-0,0.315325,4965.05,-24061.7,0,24568.6,-859902
step02_gravity_refstate-crust.xmf,1213,1.79532e-06,-6.74769e-07,0,2.08169e-08,170818,1370.23,47659.4,1428.04,-0.0743071,-0.0579087,-0,0.094207,21926.5,0,0,21926.5,-1428.04
step02_gravity_refstate-crust.xmf,1214,-5.73223e-06,1.83807e-05,0,2.00782e-05,-7.56448e+08,-7.54794e+08,-7.56055e+08,1.37737e+06,-0.0508161,-0.404524,-0,0.407703,3428.27,-27544.5,0,27757.1,-1.37737e+06
step02_gravity_refstate-crust.xmf,1215,-6.2049e-06,2.0531e-05,0,2.21809e-05,-7.7211e+08,-7.70276e+08,-7.71685e+08,1.52161e+06,-0.0506498,-0.426999,-0,0.429993,3136.36,-28116.1,0,28290.5,-1.52161e+06
step02_gravity_refstate-crust.xmf,1216,-6.76144e-06,2.30508e-05,0,2.45049e-05,-7.86141e+08,-7.84095e+08,-7.85677e+08,1.68103e+06,-0.0499074,-0.450371,-0,0.453128,2858.32,-28628.6,0,28770.9,-1.68103e+06
step02_gravity_refstate-crust.xmf,1217,-7.46709e-06,2.62856e-05,0,2.73173e-05,-7.99519e+08,-7.97203e+08,-7.99006e+08,1.87397e+06,-0.0483397,-0.476629,-0,0.479074,2574.37,-29117.8,0,29231.3,-1.87397e+06
step02_gravity_refstate-crust.xmf,1218,-8.29182e-06,3.05685e-05,0,3.09835e-05,-8.1213e+08,-8.09465e+08,-8.11562e+08,2.12547e+06,-0.0454797,-0.507081,-0,0.509116,2279.62,-29580.2,0,29667.9,-2.12547e+06
step02_gravity_refstate-crust.xmf,1219,-1.17022e-05,3.61008e-05,0,3.34636e-05,-8.23805e+08,-8.20526e+08,-8.23002e+08,2.29561e+06,-0.0403788,-0.542697,-0,0.544197,2000,-30000,0,30066.6,-2.29561e+06
step02_gravity_refstate-crust.xmf,1220,5.34637e-06,-2.06605e-05,0,-3.27767e-05,-9.76615e+08,-9.78399e+08,-9.76982e+08,-2.24848e+06,-0.0285591,-0.44926,-0,0.450167,-3236.48,-35544.3,-0,35691.3,-2.24848e+06
step02_gravity_refstate-crust.xmf,1221,3.67327e-06,-1.83165e-05,0,-2.67146e-05,-9.78718e+08,-9.80226e+08,-9.7897e+08,-1.83262e+06,-0.0322359,-0.404092,-0,0.405376,-3839.82,-35617.7,-0,35824.1,-1.83262e+06
step02_gravity_refstate-crust.xmf,1222,2.10373e-06,-1.4999e-05,0,-2.26882e-05,-9.74057e+08,-9.7523e+08,-9.74201e+08,-1.55641e+06,-0.0315319,-0.370951,-0,0.372288,-4410.72,-35446.8,-0,35720.2,-1.55641e+06
step02_gravity_refstate-crust.xmf,1223,-9.47562e-07,-6.45342e-06,0,-9.63275e-06,-9.65166e+08,-9.65543e+08,-9.65101e+08,-660806,-0.0274919,-0.226571,-0,0.228233,-7895.89,-35124,-0,36000.6,-660806
step02_gravity_refstate-crust.xmf,1224,-4.14839e-07,-8.28224e-06,0,-1.2673e-05,-9.65156e+08,-9.65696e+08,-9.65128e+08,-869368,-0.0283696,-0.270024,-0,0.27151,-6615.12,-35123,-0,35740.5,-869368
step02_gravity_refstate-crust.xmf,1225,1.07126e-06,-1.37645e-05,0,-1.96255e-05,-9.78442e+08,-9.7946e+08,-9.78516e+08,-1.34631e+06,-0.0344219,-0.341989,-0,0.343717,-4889.42,-35604.2,-0,35938.4,-1.34631e+06
step02_gravity_refstate-crust.xmf,1226,6.55088e-06,-2.22556e-05,0,-3.80321e-05,-9.75361e+08,-9.77337e+08,-9.7581e+08,-2.609e+06,-0.025318,-0.487693,-0,0.48835,-2784.64,-35501,-0,35610.1,-2.609e+06
step02_gravity_refstate-crust.xmf,1227,-3.39603e-07,-2.24152e-06,0,-3.03795e-06,-9.49277e+08,-9.49407e+08,-9.49253e+08,-208403,-0.0176689,-0.0630478,-0,0.0654769,-17224.6,-34554.5,-0,38609.6,-208403
step02_gravity_refstate-crust.xmf,1228,-5.13609e-07,-2.47912e-06,0,-3.44602e-06,-9.60137e+08,-9.60272e+08,-9.60101e+08,-236397,-0.0199582,-0.0751907,-0,0.0777944,-16049.5,-34948.8,-0,38457.8,-236397
step02_gravity_refstate-crust.xmf,1229,-5.45696e-07,-2.92558e-06,0,-4.06202e-06,-9.59925e+08,-9.60088e+08,-9.59887e+08,-278655,-0.020811,-0.0972847,-0,0.0994857,-14309.8,-34940.3,-0,37757,-278655
step02_gravity_refstate-crust.xmf,1230,-2.73438e-07,-3.21933e-06,0,-4.33093e-06,-9.46465e+08,-9.46667e+08,-9.46446e+08,-297102,-0.0182334,-0.112223,-0,0.113694,-13383.3,-34450.9,-0,36959.2,-297102
step02_gravity_refstate-crust.xmf,1231,1.71326e-07,-3.55367e-06,0,-4.67102e-06,-9.30846e+08,-9.31102e+08,-9.30858e+08,-320432,-0.0142853,-0.128972,-0,0.129761,-12463.8,-33883.6,-0,36103.2,-320432
step02_gravity_refstate-crust.xmf,1232,-1.51536e-08,-4.18378e-06,0,-5.79423e-06,-9.38659e+08,-9.38945e+08,-9.38658e+08,-397484,-0.0165242,-0.159159,-0,0.160014,-10793,-34166.3,-0,35830.5,-397484
step02_gravity_refstate-crust.xmf,1233,-5.89879e-07,-4.57346e-06,0,-6.54818e-06,-9.53031e+08,-9.53304e+08,-9.52991e+08,-449205,-0.0214578,-0.172439,-0,0.173769,-10068,-34686.6,-0,36118.2,-449205
step02_gravity_refstate-crust.xmf,1234,-3.90579e-07,-1.7556e-06,0,-2.48168e-06,-9.53501e+08,-9.53595e+08,-9.53475e+08,-170243,-0.0174594,-0.0400089,-0,0.0436525,-19601.4,-34708.9,-0,39861.3,-170243
step02_gravity_refstate-crust.xmf,1235,-8.83736e-07,-8.13059e-07,0,-1.65322e-06,-9.9337e+08,-9.93365e+08,-9.9331e+08,-113411,-0.0183885,-0.00429021,-0,0.0188824,-24489.4,-36159.8,-0,43672.2,-113411
step02_gravity_refstate-crust.xmf,1236,-6.08968e-07,-1.48272e-06,0,-2.27853e-06,-9.72661e+08,-9.72721e+08,-9.72619e+08,-156307,-0.0191466,-0.0287591,-0,0.0345496,-20849.6,-35405.9,-0,41088.7,-156307
step02_gravity_refstate-crust.xmf,1237,-7.79e-07,-1.22543e-06,0,-2.07311e-06,-9.90915e+08,-9.90945e+08,-9.90861e+08,-142215,-0.0201165,-0.0186921,-0,0.0274603,-22129.4,-36070.2,-0,42317.5,-142215
step02_gravity_refstate-crust.xmf,1238,-1.58674e-06,6.38437e-07,0,-2.81172e-07,-1.0492e+09,-1.04905e+09,-1.0491e+09,-19288.4,-0.00564387,0.0312758,-0,0.0317809,-36488.7,-38191.9,-0,52820.9,-19288.4
step02_gravity_refstate-crust.xmf,1239,-1.55644e-06,5.18479e-07,0,-4.72903e-07,-1.05249e+09,-1.05235e+09,-1.05239e+09,-32441.2,-0.00907638,0.0285341,-0,0.0299429,-34335.9,-38311.6,-0,51446.4,-32441.2
step02_gravity_refstate-crust.xmf,1240,-1.49184e-06,3.43422e-07,0,-6.72128e-07,-1.05342e+09,-1.0533e+09,-1.05332e+09,-46108,-0.0122393,0.0246956,-0,0.0275622,-32262.6,-38345.4,-0,50112.4,-46108
step02_gravity_refstate-crust.xmf,1241,-1.3738e-06,1.24145e-07,0,-8.71458e-07,-1.04551e+09,-1.04541e+09,-1.04542e+09,-59782,-0.0146911,0.0200592,-0,0.0248636,-30359.2,-38057.5,-0,48683.2,-59782
step02_gravity_refstate-crust.xmf,1242,-1.20266e-06,-8.99239e-08,0,-1.01376e-06,-1.01749e+09,-1.01741e+09,-1.0174e+09,-69543.9,-0.0150897,0.0162515,-0,0.0221767,-29117.4,-37037.6,-0,47112.6,-69543.9
step02_gravity_refstate-crust.xmf,1243,-1.1124e-06,-3.07677e-07,0,-1.20746e-06,-1.01005e+09,-1.01e+09,-1.00997e+09,-82832.1,-0.0164259,0.0106996,-0,0.0196034,-27616.3,-36766.9,-0,45983.3,-82832.1
step02_gravity_refstate-crust.xmf,1244,1.21258e-07,2.55449e-07,0,3.17535e-06,-1.74706e+08,-1.74697e+08,-1.74715e+08,217829,-0.0446377,-0.0896839,-0,0.100178,18082.9,-6361.25,0,19169.2,-217829
step02_gravity_refstate-crust.xmf,1245,2.48488e-07,2.33753e-07,0,3.75975e-06,-2.22613e+08,-2.22614e+08,-2.2263e+08,257919,-0.0404792,-0.0913606,-0,0.0999266,17950.8,-8105.81,0,19696,-257919
step02_gravity_refstate-crust.xmf,1246,-1.2004e-06,3.01774e-06,0,6.59434e-06,-4.30843e+08,-4.30553e+08,-4.3076e+08,452372,-0.0368822,-0.187739,-0,0.191328,9708.51,-15685.1,0,18446.6,-452372
step02_gravity_refstate-crust.xmf,1247,-1.12895e-06,3.26138e-06,0,7.077e-06,-4.62009e+08,-4.61708e+08,-4.61931e+08,485483,-0.038369,-0.194315,-0,0.198067,9459.37,-16820.4,0,19297.8,-485483
step02_gravity_refstate-crust.xmf,1248,-1.62533e-06,4.49585e-06,0,7.81864e-06,-5.0676e+08,-5.0634e+08,-5.06648e+08,536359,-0.0397523,-0.216589,-0,0.220206,8224.88,-18449.5,0,20199.8,-536359
step02_gravity_refstate-crust.xmf,1249,-6.48115e-07,1.93383e-06,0,6.10416e-06,-3.90463e+08,-3.90286e+08,-3.90419e+08,418745,-0.036762,-0.163668,-0,0.167746,11491.9,-14215.6,0,18279.7,-418745
step02_gravity_refstate-crust.xmf,1250,-4.53284e-07,1.19915e-06,0,5.30844e-06,-3.26636e+08,-3.26523e+08,-3.26605e+08,364159,-0.0365424,-0.141372,-0,0.146019,13212.9,-11891.5,0,17776.1,-364159
step02_gravity_refstate-crust.xmf,1251,-1.25803e-07,7.77798e-07,0,5.02436e-06,-3.08501e+08,-3.08439e+08,-3.08493e+08,344671,-0.0370692,-0.125253,-0,0.130623,14691.1,-11232,0,18492.9,-344671
step02_gravity_refstate-crust.xmf,1252,1.53177e-07,4.45558e-07,0,4.6633e-06,-2.88799e+08,-2.88779e+08,-2.8881e+08,319902,-0.0374854,-0.109212,-0,0.115466,16212.1,-10515.3,0,19323.7,-319902
step02_gravity_refstate-crust.xmf,1253,-4.11741e-06,1.21924e-05,0,1.42821e-05,-6.91749e+08,-6.9063e+08,-6.91466e+08,979749,-0.0489194,-0.332427,-0,0.336007,4643.69,-25186,0,25610.5,-979749
step02_gravity_refstate-crust.xmf,1254,1.78893e-06,-5.56007e-07,0,8.68806e-07,-4.69378e+07,-4.70986e+07,-4.70605e+07,59600.1,-0.061044,-0.0492038,-0,0.0784053,22939.2,-1715.19,0,23003.2,-59600.1
step02_gravity_refstate-crust.xmf,1255,-4.50083e-07,-1.00837e-05,0,-1.45692e-05,-9.75744e+08,-9.76405e+08,-9.75714e+08,-999450,-0.0334154,-0.290238,-0,0.292155,-6019.74,-35505.5,-0,36012.2,-999450
step02_gravity_refstate-crust.xmf,1256,-1.13868e-06,-7.58708e-06,0,-1.11202e-05,-9.74767e+08,-9.75209e+08,-9.74689e+08,-762846,-0.0319774,-0.244642,-0,0.246723,-7251.3,-35471,-0,36204.6,-762846
step02_gravity_refstate-crust.xmf,1257,-1.67395e-07,-1.24172e-05,0,-1.67003e-05,-9.85711e+08,-9.86552e+08,-9.857e+08,-1.14564e+06,-0.0380092,-0.311086,-0,0.313399,-5450.29,-35865.9,-0,36277.7,-1.14564e+06
step02_gravity_refstate-crust.xmf,1258,8.51001e-06,-2.4921e-05,0,-4.86562e-05,-9.75224e+08,-9.77518e+08,-9.75808e+08,-3.33782e+06,-0.0193658,-0.563792,-0,0.564125,-2000,-35499.9,-0,35556.2,-3.33782e+06
step02_gravity_refstate-crust.xmf,1259,8.33248e-06,-2.59697e-05,0,-4.22273e-05,-9.82012e+08,-9.84365e+08,-9.82584e+08,-2.89679e+06,-0.0253576,-0.515156,-0,0.51578,-2420.46,-35744.6,-0,35826.5,-2.89679e+06
step02_gravity_refstate-crust.xmf,1260,-6.747e-07,-2.69557e-06,0,-3.8444e-06,-9.68179e+08,-9.68318e+08,-9.68133e+08,-263726,-0.021914,-0.0858384,-0,0.0885915,-15112.1,-35240.6,-0,38344.2,-263726
step02_gravity_refstate-crust.xmf,1261,-4.09755e-07,-3.82256e-06,0,-5.27121e-06,-9.48058e+08,-9.48292e+08,-9.48029e+08,-361605,-0.0192162,-0.141425,-0,0.142724,-11632,-34507.4,-0,36415.2,-361605
step02_gravity_refstate-crust.xmf,1262,-1.01474e-06,-5.13316e-06,0,-7.554e-06,-9.65142e+08,-9.65424e+08,-9.65072e+08,-518204,-0.0261112,-0.187947,-0,0.189752,-9314.05,-35124.9,-0,36338.8,-518204
step02_gravity_refstate-crust.xmf,1263,-1.64257e-06,-6.01642e-06,0,-8.83108e-06,-9.80971e+08,-9.81271e+08,-9.80858e+08,-605812,-0.032367,-0.203935,-0,0.206487,-8565.23,-35697.3,-0,36710.5,-605812
step02_gravity_refstate-crust.xmf,1264,-6.49002e-07,-1.97349e-06,0,-2.88977e-06,-9.75344e+08,-9.75435e+08,-9.75299e+08,-198238,-0.0210315,-0.0503898,-0,0.0546027,-18287.7,-35502.7,-0,39936,-198238
step02_gravity_refstate-crust.xmf,1265,-8.9414e-07,-1.01179e-06,0,-1.89221e-06,-1.00325e+09,-1.00326e+09,-1.00319e+09,-129806,-0.0202675,-0.011101,-0,0.0231085,-23243,-36519.3,-0,43288.5,-129806
step02_gravity_refstate-crust.xmf,1266,-1.08213e-06,-5.82219e-07,0,-1.50166e-06,-1.02203e+09,-1.022e+09,-1.02196e+09,-103014,-0.0192584,0.00239514,-0,0.0194067,-25660.1,-37202.9,-0,45194,-103014
step02_gravity_refstate-crust.xmf,1267,5.59745e-07,3.9334e-08,0,2.69819e-06,-1.51742e+08,-1.51778e+08,-1.51781e+08,185096,-0.0467068,-0.0740977,-0,0.0875899,19797.8,-5526.65,0,20554.7,-185096
step02_gravity_refstate-crust.xmf,1268,1.18668e-06,-2.76568e-07,0,1.53251e-06,-8.35726e+07,-8.3673e+07,-8.3654e+07,105130,-0.0556365,-0.058549,-0,0.0807675,21670.9,-3046.92,0,21884.1,-105130
step02_gravity_refstate-crust.xmf,1269,4.15204e-07,1.92043e-07,0,4.26127e-06,-2.69122e+08,-2.69137e+08,-2.69151e+08,292323,-0.0378084,-0.093374,-0,0.100738,17780.1,-9799.64,0,20301.9,-292323
step02_gravity_refstate-crust.xmf,1270,-1.32553e-06,4.5987e-06,0,8.57959e-06,-5.40967e+08,-5.40561e+08,-5.40876e+08,588560,-0.0423657,-0.222781,-0,0.226774,8187.3,-19696.2,0,21330.1,-588560
step02_gravity_refstate-crust.xmf,1271,-1.43432e-06,5.22455e-06,0,9.32355e-06,-5.71274e+08,-5.70817e+08,-5.71175e+08,639596,-0.0441459,-0.23614,-0,0.240231,7675.42,-20800.1,0,22171,-639596
step02_gravity_refstate-crust.xmf,1272,-1.00684e-06,3.44866e-06,0,7.59719e-06,-4.92527e+08,-4.92221e+08,-4.92458e+08,521167,-0.0401018,-0.200497,-0,0.204468,9269.68,-17932.2,0,20186.4,-521167
step02_gravity_refstate-crust.xmf,1273,-7.5037e-07,2.32923e-06,0,6.48999e-06,-4.20856e+08,-4.20644e+08,-4.20804e+08,445213,-0.0374144,-0.174531,-0,0.178496,10751.6,-15322.2,0,18718.1,-445213
step02_gravity_refstate-crust.xmf,1274,-2.64841e-07,1.28655e-06,0,5.80367e-06,-3.70338e+08,-3.70232e+08,-3.7032e+08,398132,-0.0368924,-0.146634,-0,0.151204,12910,-13483.5,0,18667.4,-398132
step02_gravity_refstate-crust.xmf,1275,-1.55201e-06,5.86245e-06,0,1.00715e-05,-5.97233e+08,-5.96724e+08,-5.97126e+08,690907,-0.0457298,-0.249049,-0,0.253212,7220.78,-21745.7,0,22913.2,-690907
step02_gravity_refstate-crust.xmf,1276,-2.92514e-06,1.37237e-05,0,1.95388e-05,-7.561e+08,-7.54958e+08,-7.559e+08,1.34036e+06,-0.0535141,-0.381103,-0,0.384842,4056.01,-27536,0,27833.1,-1.34036e+06
step02_gravity_refstate-crust.xmf,1277,-2.848e-06,1.25632e-05,0,1.7891e-05,-7.39545e+08,-7.38487e+08,-7.39349e+08,1.22732e+06,-0.0531715,-0.362013,-0,0.365897,4373.94,-26931.8,0,27284.7,-1.22732e+06
step02_gravity_refstate-crust.xmf,1278,-1.69692e-06,6.56842e-06,0,1.08613e-05,-6.20573e+08,-6.20006e+08,-6.20457e+08,745085,-0.047142,-0.262414,-0,0.266615,6778.54,-22595.9,0,23590.7,-745085
step02_gravity_refstate-crust.xmf,1279,-2.69607e-06,1.143e-05,0,1.64324e-05,-7.22585e+08,-7.21616e+08,-7.224e+08,1.12726e+06,-0.0525902,-0.343932,-0,0.347929,4711.42,-26313.2,0,26731.7,-1.12726e+06
step02_gravity_refstate-crust.xmf,1280,-1.92666e-06,7.42756e-06,0,1.17126e-05,-6.41997e+08,-6.41355e+08,-6.41865e+08,803485,-0.0483401,-0.277039,-0,0.281225,6315.24,-23376.3,0,24214.3,-803485
step02_gravity_refstate-crust.xmf,1281,-2.52432e-06,1.03461e-05,0,1.51115e-05,-7.04734e+08,-7.03851e+08,-7.04561e+08,1.03665e+06,-0.0518042,-0.326556,-0,0.33064,5070.89,-25662.3,0,26158.6,-1.03665e+06
step02_gravity_refstate-crust.xmf,1282,-2.7003e-06,9.84087e-06,0,1.38241e-05,-6.83105e+08,-6.82244e+08,-6.8292e+08,948336,-0.0502035,-0.312432,-0,0.31644,5309.52,-24873.4,0,25433.8,-948336
step02_gravity_refstate-crust.xmf,1283,-2.23317e-06,8.46079e-06,0,1.26655e-05,-6.62398e+08,-6.61665e+08,-6.62245e+08,868855,-0.0493765,-0.293084,-0,0.297214,5842.1,-24119.3,0,24816.8,-868855
step02_gravity_refstate-crust.xmf,1284,2.6718e-06,-1.00507e-06,0,2.59732e-08,254175,1941.37,70889.3,1781.76,-0.0691018,-0.040981,-0,0.08034,24260.6,0,0,24260.6,-1781.76
step02_gravity_refstate-crust.xmf,1285,-2.98012e-06,1.49908e-05,0,2.13624e-05,-7.71759e+08,-7.70526e+08,-7.71554e+08,1.46546e+06,-0.0534304,-0.401517,-0,0.405056,3744.48,-28107.8,0,28356.1,-1.46546e+06
step02_gravity_refstate-crust.xmf,1286,-2.98657e-06,1.62819e-05,0,2.32983e-05,-7.86207e+08,-7.84885e+08,-7.86002e+08,1.59826e+06,-0.0528106,-0.42262,-0,0.425907,3452.41,-28635.8,0,28843.1,-1.59826e+06
step02_gravity_refstate-crust.xmf,1287,-2.9885e-06,1.76465e-05,0,2.53462e-05,-7.99919e+08,-7.98503e+08,-7.99714e+08,1.73875e+06,-0.051403,-0.445465,-0,0.448421,3164.12,-29137.1,0,29308.4,-1.73875e+06
step02_gravity_refstate-crust.xmf,1288,-3.22248e-06,1.91826e-05,0,2.73428e-05,-8.13388e+08,-8.11851e+08,-8.13167e+08,1.87572e+06,-0.0486261,-0.471386,-0,0.473887,2868.56,-29628.9,0,29767.4,-1.87572e+06
step02_gravity_refstate-crust.xmf,1289,-6.00309e-06,2.22761e-05,0,2.98138e-05,-8.2843e+08,-8.2649e+08,-8.28019e+08,2.04523e+06,-0.0420427,-0.505241,-0,0.506987,2530.81,-30170,0,30276,-2.04523e+06
step02_gravity_refstate-crust.xmf,1290,-1.39593e-05,2.99595e-05,0,4.0544e-05,-8.38102e+08,-8.35089e+08,-8.37144e+08,2.78132e+06,-0.0315449,-0.559065,-0,0.559954,2000,-30501.8,0,30567.3,-2.78132e+06
step02_gravity_refstate-crust.xmf,1291,7.42344e-06,-2.57037e-05,0,-3.61073e-05,-9.87629e+08,-9.89901e+08,-9.88138e+08,-2.47696e+06,-0.0311075,-0.47104,-0,0.472066,-2854.17,-35945.8,-0,36059,-2.47696e+06
step02_gravity_refstate-crust.xmf,1292,5.71159e-06,-2.38361e-05,0,-3.0432e-05,-9.91422e+08,-9.93449e+08,-9.91814e+08,-2.08764e+06,-0.0359255,-0.430109,-0,0.431607,-3331.74,-36079.9,-0,36233.4,-2.08764e+06
step02_gravity_refstate-crust.xmf,1293,2.04502e-06,-1.71546e-05,0,-2.22292e-05,-9.87871e+08,-9.89188e+08,-9.88012e+08,-1.52492e+06,-0.0380963,-0.365329,-0,0.36731,-4369.5,-35946.2,-0,36210.8,-1.52492e+06
step02_gravity_refstate-crust.xmf,1294,-1.71994e-06,-6.94773e-06,0,-1.01099e-05,-9.84767e+08,-9.85125e+08,-9.84649e+08,-693536,-0.034815,-0.223066,-0,0.225766,-7854.27,-35833.7,-0,36684.4,-693536
step02_gravity_refstate-crust.xmf,1295,-1.29001e-06,-9.06902e-06,0,-1.27352e-05,-9.84913e+08,-9.85446e+08,-9.84824e+08,-873637,-0.0367256,-0.262562,-0,0.265118,-6649.06,-35837.5,-0,36449.1,-873637
step02_gravity_refstate-crust.xmf,1296,4.92316e-07,-1.53825e-05,0,-1.90513e-05,-9.95337e+08,-9.96426e+08,-9.95371e+08,-1.30692e+06,-0.042075,-0.332311,-0,0.334964,-4904.72,-36214.4,-0,36545.1,-1.30692e+06
step02_gravity_refstate-crust.xmf,1297,-7.79933e-07,-2.27305e-06,0,-3.35925e-06,-9.82215e+08,-9.82317e+08,-9.82161e+08,-230445,-0.0229566,-0.0642746,-0,0.0682512,-16855,-35751.8,-0,39525.7,-230445
step02_gravity_refstate-crust.xmf,1298,-9.40433e-07,-2.5579e-06,0,-3.84267e-06,-9.88532e+08,-9.88643e+08,-9.88468e+08,-263607,-0.0248747,-0.0772683,-0,0.0811735,-15651.9,-35980.7,-0,39237.7,-263607
step02_gravity_refstate-crust.xmf,1299,-1.04108e-06,-2.87228e-06,0,-4.34592e-06,-9.89727e+08,-9.89853e+08,-9.89656e+08,-298130,-0.0262325,-0.0922923,-0,0.095948,-14446.4,-36023.3,-0,38812.1,-298130
step02_gravity_refstate-crust.xmf,1300,-9.22634e-07,-3.16906e-06,0,-4.62895e-06,-9.75285e+08,-9.75439e+08,-9.75221e+08,-317546,-0.0245932,-0.108248,-0,0.111006,-13425.2,-35497.6,-0,37951.5,-317546
step02_gravity_refstate-crust.xmf,1301,-6.97321e-07,-3.47605e-06,0,-4.91286e-06,-9.61584e+08,-9.61774e+08,-9.61536e+08,-337022,-0.0222982,-0.124128,-0,0.126115,-12518.7,-34999.2,-0,37170.7,-337022
step02_gravity_refstate-crust.xmf,1302,-9.04613e-07,-4.17938e-06,0,-6.03643e-06,-9.64242e+08,-9.64467e+08,-9.6418e+08,-414099,-0.0243373,-0.153982,-0,0.155893,-10856.8,-35094.1,-0,36735.1,-414099
step02_gravity_refstate-crust.xmf,1303,-1.44846e-06,-4.66105e-06,0,-6.92465e-06,-9.76881e+08,-9.77101e+08,-9.76782e+08,-475031,-0.0288156,-0.167931,-0,0.170385,-10091.1,-35551.2,-0,36955.7,-475031
step02_gravity_refstate-crust.xmf,1304,-7.66156e-07,-1.6841e-06,0,-2.62317e-06,-9.92551e+08,-9.92614e+08,-9.92498e+08,-179950,-0.0221584,-0.0369896,-0,0.0431188,-19669.7,-36129.1,-0,41136.5,-179950
step02_gravity_refstate-crust.xmf,1305,-1.05221e-06,-8.74436e-07,0,-1.82174e-06,-1.03056e+09,-1.03054e+09,-1.03048e+09,-124971,-0.0216552,-0.00632328,-0,0.0225595,-23909.2,-37512.8,-0,44484.4,-124971
step02_gravity_refstate-crust.xmf,1306,-8.86831e-07,-1.43147e-06,0,-2.39377e-06,-1.01053e+09,-1.01057e+09,-1.01047e+09,-164212,-0.0229026,-0.0259679,-0,0.0346246,-20954.7,-36783.6,-0,42333.6,-164212
step02_gravity_refstate-crust.xmf,1307,-9.9487e-07,-1.15606e-06,0,-2.13275e-06,-1.03002e+09,-1.03003e+09,-1.02995e+09,-146307,-0.0231846,-0.0154712,-0,0.0278726,-22362.8,-37493,-0,43655.7,-146307
step02_gravity_refstate-crust.xmf,1308,-1.32657e-06,-1.01554e-07,0,-1.10417e-06,-1.05543e+09,-1.05534e+09,-1.05534e+09,-75745.8,-0.0176045,0.014296,-0,0.0226781,-28497.7,-38418.4,-0,47834,-75745.8
step02_gravity_refstate-crust.xmf,1309,5.82015e-07,2.91293e-08,0,3.29363e-06,-2.00858e+08,-2.00896e+08,-2.00898e+08,225943,-0.0415383,-0.0755665,-0,0.0862306,19641.4,-7314.84,0,20959.2,-225943
step02_gravity_refstate-crust.xmf,1310,1.01646e-06,-1.81595e-07,0,2.15907e-06,-1.27572e+08,-1.27655e+08,-1.27642e+08,148112,-0.0486069,-0.0592815,-0,0.0766612,21537.3,-4648.23,0,22033.2,-148112
step02_gravity_refstate-crust.xmf,1311,1.6178e-06,-4.24546e-07,0,1.5997e-06,-9.9199e+07,-9.93391e+07,-9.93099e+07,109740,-0.050559,-0.0449582,-0,0.0676568,23376.9,-3617.33,0,23655.2,-109740
step02_gravity_refstate-crust.xmf,1312,6.65946e-07,-1.1292e-08,0,3.80096e-06,-2.48415e+08,-2.48461e+08,-2.4846e+08,260746,-0.0380639,-0.0776268,-0,0.0864568,19420.6,-9046.46,0,21424.3,-260746
step02_gravity_refstate-crust.xmf,1313,-6.0322e-07,2.4255e-06,0,6.90987e-06,-4.50946e+08,-4.50738e+08,-4.50904e+08,474017,-0.0387279,-0.179128,-0,0.183267,10587.2,-16418.4,0,19536,-474017
step02_gravity_refstate-crust.xmf,1314,-4.74375e-07,2.58011e-06,0,7.37586e-06,-4.81596e+08,-4.81387e+08,-4.81564e+08,505984,-0.0402057,-0.185386,-0,0.189696,10317.1,-17535.1,0,20345.1,-505984
step02_gravity_refstate-crust.xmf,1315,-7.40298e-07,3.46448e-06,0,8.14848e-06,-5.21911e+08,-5.21623e+08,-5.2186e+08,558986,-0.0420247,-0.204957,-0,0.209221,9215.11,-19003.1,0,21119.5,-558986
step02_gravity_refstate-crust.xmf,1316,-1.49822e-07,1.68559e-06,0,6.63354e-06,-4.35657e+08,-4.35531e+08,-4.35647e+08,455061,-0.0385265,-0.162495,-0,0.167,11846.2,-15862.5,0,19797.8,-455061
step02_gravity_refstate-crust.xmf,1317,-8.22866e-08,1.33726e-06,0,6.21149e-06,-4.06642e+08,-4.06545e+08,-4.06637e+08,426109,-0.0376758,-0.151046,-0,0.155674,12674.2,-14806,0,19489.8,-426109
step02_gravity_refstate-crust.xmf,1318,1.50839e-07,7.37179e-07,0,5.5087e-06,-3.56843e+08,-3.56803e+08,-3.56853e+08,377897,-0.0368423,-0.128026,-0,0.133222,14555.5,-12993,0,19511,-377897
step02_gravity_refstate-crust.xmf,1319,3.69455e-07,3.82887e-07,0,5.08103e-06,-3.32801e+08,-3.328e+08,-3.32827e+08,348559,-0.0365884,-0.111611,-0,0.117455,16044.1,-12118,0,20106.2,-348559
step02_gravity_refstate-crust.xmf,1320,6.08117e-07,1.06029e-07,0,4.68215e-06,-3.15375e+08,-3.1541e+08,-3.15417e+08,321195,-0.0362009,-0.0954495,-0,0.102084,17597.1,-11484.2,0,21013,-321195
step02_gravity_refstate-crust.xmf,1321,2.384e-06,-7.70736e-07,0,9.03031e-07,-5.92632e+07,-5.94796e+07,-5.94268e+07,61947.9,-0.0535951,-0.0317472,-0,0.0622922,25330.1,-2165.99,0,25422.5,-61947.9
step02_gravity_refstate-crust.xmf,1322,-1.13032e-05,2.23034e-05,0,4.37618e-05,-8.51863e+08,-8.49558e+08,-8.51088e+08,3.00206e+06,-0.0249082,-0.571757,-0,0.572299,2000,-31001.7,0,31066.2,-3.00206e+06
step02_gravity_refstate-crust.xmf,1323,-8.87275e-06,2.07905e-05,0,3.47755e-05,-8.44715e+08,-8.4268e+08,-8.44106e+08,2.3856e+06,-0.0330208,-0.524265,-0,0.525304,2454.28,-30749,0,30846.8,-2.3856e+06
step02_gravity_refstate-crust.xmf,1324,3.58975e-06,-2.14944e-05,0,-2.52043e-05,-9.97068e+08,-9.98789e+08,-9.97314e+08,-1.72901e+06,-0.0408822,-0.390073,-0,0.39221,-3852.52,-36280.5,-0,36484.5,-1.72901e+06
step02_gravity_refstate-crust.xmf,1325,-1.27175e-06,-1.10655e-05,0,-1.4607e-05,-9.943e+08,-9.94972e+08,-9.94213e+08,-1.00204e+06,-0.0411221,-0.282781,-0,0.285756,-6028.48,-36176.2,-0,36675.1,-1.00204e+06
step02_gravity_refstate-crust.xmf,1326,-1.96029e-06,-7.99447e-06,0,-1.13335e-05,-9.93511e+08,-9.93924e+08,-9.93376e+08,-777479,-0.038713,-0.236975,-0,0.240117,-7324.26,-36149.4,-0,36884,-777479
step02_gravity_refstate-crust.xmf,1327,-9.30375e-07,-1.35764e-05,0,-1.6573e-05,-1.00309e+09,-1.00396e+09,-1.00302e+09,-1.13691e+06,-0.0449808,-0.302668,-0,0.305992,-5456.17,-36493.7,-0,36899.3,-1.13691e+06
step02_gravity_refstate-crust.xmf,1328,1.05574e-05,-3.01979e-05,0,-4.78221e-05,-9.88941e+08,-9.91736e+08,-9.89665e+08,-3.2806e+06,-0.0239557,-0.550031,-0,0.550553,-2000,-35999.3,-0,36054.8,-3.2806e+06
step02_gravity_refstate-crust.xmf,1329,9.86674e-06,-3.06831e-05,0,-4.08025e-05,-9.95491e+08,-9.98272e+08,-9.96168e+08,-2.79905e+06,-0.0307596,-0.500257,-0,0.501202,-2431.47,-36234.2,-0,36315.7,-2.79905e+06
step02_gravity_refstate-crust.xmf,1330,-1.22188e-06,-3.817e-06,0,-5.64856e-06,-9.76687e+08,-9.76865e+08,-9.76603e+08,-387491,-0.0267252,-0.136548,-0,0.139139,-11681.8,-35546.4,-0,37416.7,-387491
step02_gravity_refstate-crust.xmf,1331,-2.4402e-06,-6.95645e-06,0,-1.01713e-05,-1.00236e+09,-1.00267e+09,-1.00219e+09,-697750,-0.039684,-0.211971,-0,0.215654,-8086.46,-36471.2,-0,37356.9,-697750
step02_gravity_refstate-crust.xmf,1332,-1.77826e-06,-5.24186e-06,0,-7.88332e-06,-9.85123e+08,-9.85361e+08,-9.85001e+08,-540796,-0.0322364,-0.182175,-0,0.185005,-9397.54,-35849.1,-0,37060.4,-540796
step02_gravity_refstate-crust.xmf,1333,-9.7709e-07,-2.13451e-06,0,-3.34195e-06,-1.00821e+09,-1.00829e+09,-1.00814e+09,-229258,-0.0256807,-0.0547617,-0,0.0604842,-17579.8,-36697.5,-0,40691,-229258
step02_gravity_refstate-crust.xmf,1334,-1.26871e-06,-3.70398e-07,0,-1.36851e-06,-1.05773e+09,-1.05767e+09,-1.05765e+09,-93880,-0.0199493,0.00785346,-0,0.0214395,-26761.6,-38502.1,-0,46889.2,-93880
step02_gravity_refstate-crust.xmf,1335,-1.20039e-06,-6.81308e-07,0,-1.68446e-06,-1.06211e+09,-1.06208e+09,-1.06203e+09,-115554,-0.0223709,-4.90724e-05,-0,0.022371,-24953.8,-38661.3,-0,46015.1,-115554
step02_gravity_refstate-crust.xmf,1336,9.63355e-07,-1.41568e-07,0,2.80485e-06,-1.77919e+08,-1.77995e+08,-1.77985e+08,192412,-0.0424714,-0.0603121,-0,0.0737656,21380.4,-6481.01,0,22341.1,-192412
step02_gravity_refstate-crust.xmf,1337,8.03372e-07,-7.71509e-08,0,4.24015e-06,-2.94782e+08,-2.94842e+08,-2.94837e+08,290874,-0.0358331,-0.0799928,-0,0.0876519,19163.7,-10735,0,21965.6,-290874
step02_gravity_refstate-crust.xmf,1338,-4.5726e-07,3.71887e-06,0,9.10887e-06,-5.68426e+08,-5.68139e+08,-5.68395e+08,624869,-0.0449749,-0.217675,-0,0.222273,8781.25,-20698,0,22483.7,-624869
step02_gravity_refstate-crust.xmf,1339,-5.19507e-07,4.23436e-06,0,9.78593e-06,-5.93359e+08,-5.93033e+08,-5.93323e+08,671315,-0.0464811,-0.230237,-0,0.234882,8250.07,-21606.3,0,23127.8,-671315
step02_gravity_refstate-crust.xmf,1340,-3.40647e-07,2.7075e-06,0,7.82118e-06,-5.08756e+08,-5.08547e+08,-5.08733e+08,536533,-0.0416529,-0.191392,-0,0.195872,10067.5,-18524.6,0,21083.5,-536533
step02_gravity_refstate-crust.xmf,1341,-3.42733e-07,3.19785e-06,0,8.56584e-06,-5.47279e+08,-5.47036e+08,-5.47255e+08,587617,-0.0437834,-0.20613,-0,0.210728,9343.34,-19927.8,0,22009.4,-587617
step02_gravity_refstate-crust.xmf,1342,2.66874e-07,8.49133e-07,0,6.00083e-06,-4.00418e+08,-4.00378e+08,-4.00436e+08,411657,-0.0374275,-0.137087,-0,0.142104,13857.4,-14580,0,20114.8,-411657
step02_gravity_refstate-crust.xmf,1343,-5.5626e-07,4.80449e-06,0,1.06229e-05,-6.20371e+08,-6.20003e+08,-6.20333e+08,728729,-0.0481705,-0.24469,-0,0.249386,7702.51,-22590.4,0,23867.4,-728729
step02_gravity_refstate-crust.xmf,1344,-5.92817e-07,1.05732e-05,0,1.99694e-05,-7.71594e+08,-7.70828e+08,-7.71553e+08,1.3699e+06,-0.0545563,-0.375685,-0,0.379626,4374.85,-28104.6,0,28443.1,-1.3699e+06
step02_gravity_refstate-crust.xmf,1345,-7.35194e-07,9.84401e-06,0,1.8458e-05,-7.55777e+08,-7.55052e+08,-7.55727e+08,1.26622e+06,-0.054699,-0.357037,-0,0.361202,4708.75,-27527.1,0,27926.9,-1.26622e+06
step02_gravity_refstate-crust.xmf,1346,-8.1106e-07,9.08963e-06,0,1.70513e-05,-7.39447e+08,-7.38768e+08,-7.39391e+08,1.16972e+06,-0.0544274,-0.339294,-0,0.343632,5059.94,-26931.1,0,27402.3,-1.16972e+06
step02_gravity_refstate-crust.xmf,1347,-6.16258e-07,5.39672e-06,0,1.14444e-05,-6.42553e+08,-6.4214e+08,-6.42511e+08,785087,-0.049544,-0.258424,-0,0.263131,7219.35,-23398.6,0,24487.1,-785087
step02_gravity_refstate-crust.xmf,1348,-7.51792e-07,8.13639e-06,0,1.57345e-05,-7.23003e+08,-7.22393e+08,-7.22951e+08,1.07939e+06,-0.0539094,-0.32181,-0,0.326294,5453.23,-26331.2,0,26890,-1.07939e+06
step02_gravity_refstate-crust.xmf,1349,-6.82329e-07,6.04546e-06,0,1.23495e-05,-6.63581e+08,-6.6312e+08,-6.63534e+08,847179,-0.050814,-0.272921,-0,0.277611,6750.97,-24164.9,0,25090.2,-847179
step02_gravity_refstate-crust.xmf,1350,-7.25716e-07,7.42501e-06,0,1.45248e-05,-7.04385e+08,-7.03826e+08,-7.04336e+08,996401,-0.0530854,-0.304566,-0,0.309158,5873.2,-25652.4,0,26316.2,-996401
step02_gravity_refstate-crust.xmf,1351,-7.63725e-07,6.78628e-06,0,1.33752e-05,-6.83936e+08,-6.83418e+08,-6.83883e+08,917536,-0.0519745,-0.288719,-0,0.29336,6281.83,-24906.8,0,25686.8,-917536
step02_gravity_refstate-crust.xmf,1352,3.4359e-06,-1.30035e-06,0,1.87456e-08,326532,1624.98,90829.1,1285.95,-0.0617786,-0.0253827,-0,0.0667898,26665.5,0,0,26665.5,-1285.95
step02_gravity_refstate-crust.xmf,1353,-4.24505e-07,1.12686e-05,0,2.15159e-05,-7.86504e+08,-7.85702e+08,-7.86475e+08,1.47599e+06,-0.0538343,-0.395,-0,0.398652,4060.36,-28649.2,0,28935.5,-1.47599e+06
step02_gravity_refstate-crust.xmf,1354,-3.36039e-07,1.1973e-05,0,2.30249e-05,-8.00436e+08,-7.99592e+08,-8.00413e+08,1.57951e+06,-0.0523284,-0.415062,-0,0.418348,3761.85,-29157.9,0,29399.5,-1.57951e+06
step02_gravity_refstate-crust.xmf,1355,-5.88199e-07,1.28328e-05,0,2.44623e-05,-8.13978e+08,-8.13058e+08,-8.13938e+08,1.67811e+06,-0.0496106,-0.436678,-0,0.439487,3469.6,-29651.2,0,29853.5,-1.67811e+06
step02_gravity_refstate-crust.xmf,1356,-1.85217e-06,1.41963e-05,0,2.60155e-05,-8.27437e+08,-8.26336e+08,-8.2731e+08,1.78466e+06,-0.0449764,-0.460143,-0,0.462336,3186.29,-30138.2,0,30306.1,-1.78466e+06
step02_gravity_refstate-crust.xmf,1357,-7.99292e-06,1.67434e-05,0,3.85106e-05,-8.5825e+08,-8.56554e+08,-8.57702e+08,2.64183e+06,-0.0258821,-0.537263,-0,0.537886,2412.02,-31239.1,0,31332,-2.64183e+06
step02_gravity_refstate-crust.xmf,1358,-4.46906e-06,1.55927e-05,0,2.91338e-05,-8.40705e+08,-8.39328e+08,-8.40398e+08,1.99858e+06,-0.0381457,-0.484322,-0,0.485822,2934.89,-30612.8,0,30753.1,-1.99858e+06
step02_gravity_refstate-crust.xmf,1359,-9.1311e-06,1.6757e-05,0,4.57748e-05,-8.65604e+08,-8.63828e+08,-8.64977e+08,3.14015e+06,-0.0190883,-0.581486,-0,0.581799,2000,-31502.2,0,31565.6,-3.14015e+06
step02_gravity_refstate-crust.xmf,1360,8.21899e-06,-2.95809e-05,0,-3.41494e-05,-1.00133e+09,-1.00393e+09,-1.0019e+09,-2.34265e+06,-0.0372595,-0.455183,-0,0.456705,-2880.23,-36442,-0,36555.6,-2.34265e+06
step02_gravity_refstate-crust.xmf,1361,5.70169e-06,-2.6927e-05,0,-2.8355e-05,-1.00692e+09,-1.00916e+09,-1.00731e+09,-1.94515e+06,-0.0430077,-0.413805,-0,0.416034,-3361.35,-36639.2,-0,36793.1,-1.94515e+06
step02_gravity_refstate-crust.xmf,1362,1.44705e-06,-1.91168e-05,0,-2.136e-05,-1.00443e+09,-1.00584e+09,-1.00453e+09,-1.46529e+06,-0.0453215,-0.354508,-0,0.357393,-4369.29,-36543.4,-0,36803.7,-1.46529e+06
step02_gravity_refstate-crust.xmf,1363,-2.24641e-06,-9.80071e-06,0,-1.3139e-05,-1.00595e+09,-1.00647e+09,-1.0058e+09,-901333,-0.0439846,-0.255155,-0,0.258918,-6654.93,-36598.5,-0,37198.6,-901333
step02_gravity_refstate-crust.xmf,1364,-3.09849e-07,-1.66564e-05,0,-1.86787e-05,-1.01234e+09,-1.01346e+09,-1.01232e+09,-1.28136e+06,-0.0485471,-0.322066,-0,0.325704,-4913.24,-36828.1,-0,37154.4,-1.28136e+06
step02_gravity_refstate-crust.xmf,1365,-1.11055e-06,-2.44308e-06,0,-3.85356e-06,-1.01288e+09,-1.01297e+09,-1.0128e+09,-264354,-0.0274789,-0.067408,-0,0.0727937,-16322.1,-36866.5,-0,40318.1,-264354
step02_gravity_refstate-crust.xmf,1366,-1.27384e-06,-2.77042e-06,0,-4.4189e-06,-1.0158e+09,-1.0159e+09,-1.01571e+09,-303136,-0.0291915,-0.0809437,-0,0.0860467,-15126.6,-36971.6,-0,39946.4,-303136
step02_gravity_refstate-crust.xmf,1367,-1.39082e-06,-3.25194e-06,0,-5.11013e-06,-1.00354e+09,-1.00367e+09,-1.00344e+09,-350555,-0.0297406,-0.105349,-0,0.109466,-13398.1,-36524.2,-0,38904,-350555
step02_gravity_refstate-crust.xmf,1368,-1.33672e-06,-3.50617e-06,0,-5.36004e-06,-9.90196e+08,-9.90345e+08,-9.90104e+08,-367699,-0.0285685,-0.120187,-0,0.123536,-12537.8,-36038.2,-0,38156.9,-367699
step02_gravity_refstate-crust.xmf,1369,-1.6461e-06,-4.28213e-06,0,-6.55204e-06,-9.90395e+08,-9.90576e+08,-9.90282e+08,-449470,-0.0310988,-0.149828,-0,0.153021,-10863.8,-36043,-0,37644.7,-449470
step02_gravity_refstate-crust.xmf,1370,-2.28263e-06,-5.85866e-06,0,-8.82202e-06,-1.00207e+09,-1.00232e+09,-1.00192e+09,-605190,-0.0374776,-0.188075,-0,0.191773,-9009.4,-36463.2,-0,37559.7,-605190
step02_gravity_refstate-crust.xmf,1371,-2.15896e-06,-5.00572e-06,0,-7.7692e-06,-1.00337e+09,-1.00356e+09,-1.00322e+09,-532967,-0.0357063,-0.166368,-0,0.170156,-9948.46,-36512.1,-0,37843.1,-532967
step02_gravity_refstate-crust.xmf,1372,-9.23853e-07,-1.88953e-06,0,-2.99194e-06,-1.00955e+09,-1.00962e+09,-1.00949e+09,-205247,-0.0248032,-0.0442692,-0,0.050744,-18692.4,-36747,-0,41228,-205247
step02_gravity_refstate-crust.xmf,1373,-1.02425e-06,-1.7174e-06,0,-2.85207e-06,-1.03367e+09,-1.03371e+09,-1.0336e+09,-195652,-0.0261034,-0.0342722,-0,0.043081,-19691.3,-37624.9,-0,42466.2,-195652
step02_gravity_refstate-crust.xmf,1374,-1.14315e-06,-9.92154e-07,0,-2.01698e-06,-1.06455e+09,-1.06454e+09,-1.06447e+09,-138365,-0.0243397,-0.00819417,-0,0.0256821,-23361.2,-38749.9,-0,45247.1,-138365
step02_gravity_refstate-crust.xmf,1375,-1.03573e-06,-1.43749e-06,0,-2.50435e-06,-1.04298e+09,-1.04301e+09,-1.04291e+09,-171798,-0.025432,-0.0234435,-0,0.0345888,-21070.5,-37964.4,-0,43419.6,-171798
step02_gravity_refstate-crust.xmf,1376,9.59089e-07,-1.76722e-07,0,3.3287e-06,-2.28913e+08,-2.2899e+08,-2.28978e+08,228349,-0.0380075,-0.0618245,-0,0.072573,21172.7,-8337.4,0,22755.1,-228349
step02_gravity_refstate-crust.xmf,1377,1.38211e-06,-3.30377e-07,0,2.25306e-06,-1.53007e+08,-1.53125e+08,-1.53102e+08,154560,-0.0431606,-0.045285,-0,0.0625586,23240.3,-5575.47,0,23899.7,-154560
step02_gravity_refstate-crust.xmf,1378,1.92653e-06,-5.37579e-07,0,1.70624e-06,-1.27531e+08,-1.277e+08,-1.27663e+08,117048,-0.0428111,-0.0296717,-0,0.0520884,25397.6,-4649.85,0,25819.7,-117048
step02_gravity_refstate-crust.xmf,1379,9.91999e-07,-2.16518e-07,0,3.75186e-06,-2.72382e+08,-2.72465e+08,-2.7245e+08,257378,-0.0354749,-0.0647698,-0,0.0738485,20808.1,-9920.01,0,23051.7,-257378
step02_gravity_refstate-crust.xmf,1380,2.54988e-08,1.79385e-06,0,7.13879e-06,-4.74076e+08,-4.73955e+08,-4.74078e+08,489721,-0.0400816,-0.169913,-0,0.174577,11450.4,-17262.1,0,20714.5,-489721
step02_gravity_refstate-crust.xmf,1381,1.89771e-07,1.9032e-06,0,7.61286e-06,-5.0669e+08,-5.06572e+08,-5.06703e+08,522242,-0.0416159,-0.177341,-0,0.182158,11061.5,-18450.3,0,21512,-522242
step02_gravity_refstate-crust.xmf,1382,1.72034e-07,2.28651e-06,0,8.1769e-06,-5.35632e+08,-5.35487e+08,-5.35644e+08,560935,-0.043186,-0.189798,-0,0.194649,10347.5,-19504.5,0,22079.3,-560935
step02_gravity_refstate-crust.xmf,1383,3.7985e-07,9.59017e-07,0,6.42639e-06,-4.36335e+08,-4.36295e+08,-4.36361e+08,440851,-0.0383853,-0.145253,-0,0.15024,13265.3,-15888.2,0,20698,-440851
step02_gravity_refstate-crust.xmf,1384,6.46252e-07,3.5415e-07,0,5.72654e-06,-3.98817e+08,-3.98837e+08,-3.98862e+08,392840,-0.0367528,-0.120611,-0,0.126086,15298.7,-14522.5,0,21093.9,-392840
step02_gravity_refstate-crust.xmf,1385,5.83906e-07,2.77651e-07,0,5.36308e-06,-3.68758e+08,-3.68779e+08,-3.68798e+08,367907,-0.0363044,-0.112579,-0,0.118288,15994,-13427.8,0,20883.3,-367907
step02_gravity_refstate-crust.xmf,1386,7.96752e-07,1.02236e-08,0,5.05026e-06,-3.60056e+08,-3.6011e+08,-3.60111e+08,346448,-0.0354832,-0.0986278,-0,0.104816,17297.9,-13111.5,0,21705.5,-346448
step02_gravity_refstate-crust.xmf,1387,1.01841e-06,-2.4407e-07,0,4.58729e-06,-3.46697e+08,-3.46784e+08,-3.46767e+08,314688,-0.0341344,-0.0804669,-0,0.0874075,19084.7,-12625.6,0,22883,-314688
step02_gravity_refstate-crust.xmf,1388,2.40511e-06,-7.4192e-07,0,1.17034e-06,-9.17618e+07,-9.19777e+07,-9.19268e+07,80285.2,-0.0452676,-0.0226838,-0,0.0506331,26566,-3349.26,0,26776.3,-80285.2
step02_gravity_refstate-crust.xmf,1389,3.03498e-06,-1.02177e-06,0,7.23232e-07,-5.63692e+07,-5.66475e+07,-5.65774e+07,49613.7,-0.0472952,-0.01609,-0,0.0499573,27833.7,-2062.88,0,27910,-49613.7
step02_gravity_refstate-crust.xmf,1390,-6.09427e-06,1.55023e-05,0,3.28039e-05,-8.51756e+08,-8.50274e+08,-8.51338e+08,2.25035e+06,-0.0315912,-0.503529,-0,0.504519,2764.29,-31008.4,0,31131.3,-2.25035e+06
step02_gravity_refstate-crust.xmf,1391,-6.2481e-06,1.17827e-05,0,4.02946e-05,-8.72363e+08,-8.71126e+08,-8.71934e+08,2.76421e+06,-0.0194417,-0.542629,-0,0.542977,2432.8,-31752.2,0,31845.3,-2.76421e+06
step02_gravity_refstate-crust.xmf,1392,-6.7834e-06,1.11724e-05,0,4.72284e-05,-8.79316e+08,-8.78084e+08,-8.78851e+08,3.23987e+06,-0.013734,-0.588389,-0,0.58855,2000,-32002.2,0,32064.7,-3.23987e+06
step02_gravity_refstate-crust.xmf,1393,2.87168e-06,-2.37181e-05,0,-2.38112e-05,-1.01333e+09,-1.01515e+09,-1.01353e+09,-1.63345e+06,-0.0477331,-0.376691,-0,0.379704,-3854.84,-36866.1,-0,37067.1,-1.63345e+06
step02_gravity_refstate-crust.xmf,1394,-1.82897e-06,-1.20484e-05,0,-1.50937e-05,-1.01011e+09,-1.01081e+09,-1.00998e+09,-1.03543e+06,-0.046608,-0.278728,-0,0.282598,-5963.11,-36748,-0,37228.6,-1.03543e+06
step02_gravity_refstate-crust.xmf,1395,-2.61013e-06,-8.30961e-06,0,-1.16784e-05,-1.0108e+09,-1.01119e+09,-1.01062e+09,-801136,-0.0435022,-0.229182,-0,0.233275,-7410.86,-36775.7,-0,37514.9,-801136
step02_gravity_refstate-crust.xmf,1396,-1.79139e-06,-1.43601e-05,0,-1.65876e-05,-1.02026e+09,-1.02112e+09,-1.02013e+09,-1.13791e+06,-0.0502687,-0.292634,-0,0.29692,-5488.79,-37114,-0,37517.7,-1.13791e+06
step02_gravity_refstate-crust.xmf,1397,1.25643e-05,-3.56599e-05,0,-4.66908e-05,-1.00269e+09,-1.00599e+09,-1.00355e+09,-3.20299e+06,-0.0286747,-0.533573,-0,0.534343,-2000,-36499.4,-0,36554.2,-3.20299e+06
step02_gravity_refstate-crust.xmf,1398,1.12324e-05,-3.56392e-05,0,-3.88179e-05,-1.00933e+09,-1.01254e+09,-1.0101e+09,-2.6629e+06,-0.0364113,-0.482958,-0,0.484329,-2438.88,-36735.9,-0,36816.7,-2.6629e+06
step02_gravity_refstate-crust.xmf,1399,-1.39366e-06,-3.0801e-06,0,-4.93582e-06,-1.01688e+09,-1.017e+09,-1.01679e+09,-338597,-0.0305702,-0.0930426,-0,0.097936,-14169.6,-37010.3,-0,39630,-338597
step02_gravity_refstate-crust.xmf,1400,-1.77301e-06,-3.94413e-06,0,-6.22267e-06,-1.00348e+09,-1.00362e+09,-1.00335e+09,-426875,-0.0323804,-0.132695,-0,0.136588,-11686.1,-36519.3,-0,38343.5,-426875
step02_gravity_refstate-crust.xmf,1401,-2.81907e-06,-6.65522e-06,0,-1.00641e-05,-1.0211e+09,-1.02136e+09,-1.0209e+09,-690396,-0.0423997,-0.193508,-0,0.198099,-8613.15,-37152.3,-0,38137.6,-690396
step02_gravity_refstate-crust.xmf,1402,-1.08061e-06,-2.05773e-06,0,-3.34833e-06,-1.03788e+09,-1.03795e+09,-1.0378e+09,-229696,-0.0278921,-0.0459625,-0,0.0537636,-18274.8,-37777.5,-0,41965.5,-229696
step02_gravity_refstate-crust.xmf,1403,-1.16406e-06,-2.39423e-06,0,-3.8704e-06,-1.04001e+09,-1.04009e+09,-1.03993e+09,-265509,-0.0294465,-0.0578652,-0,0.0649267,-17003.6,-37854.1,-0,41497.7,-265509
step02_gravity_refstate-crust.xmf,1404,-1.08111e-06,-1.30846e-06,0,-2.37842e-06,-1.06684e+09,-1.06686e+09,-1.06677e+09,-163160,-0.0261273,-0.0170133,-0,0.0311783,-21856.5,-38833.1,-0,44561.4,-163160
step02_gravity_refstate-crust.xmf,1405,1.26892e-06,-2.9782e-07,0,2.86075e-06,-2.08567e+08,-2.08675e+08,-2.08655e+08,196248,-0.0377739,-0.0473198,-0,0.0605478,22907.7,-7597.78,0,24134.8,-196248
step02_gravity_refstate-crust.xmf,1406,1.06787e-06,-2.89332e-07,0,4.13262e-06,-3.16704e+08,-3.16797e+08,-3.16777e+08,283497,-0.0338187,-0.0685477,-0,0.0764362,20353.1,-11533.8,0,23394,-283497
step02_gravity_refstate-crust.xmf,1407,3.31553e-07,2.43572e-06,0,8.72877e-06,-5.64944e+08,-5.648e+08,-5.64967e+08,598794,-0.0448285,-0.198709,-0,0.203703,9932.52,-20572.5,0,22844.7,-598794
step02_gravity_refstate-crust.xmf,1408,3.79692e-07,2.78938e-06,0,9.37661e-06,-5.91582e+08,-5.91417e+08,-5.91608e+08,643235,-0.0464468,-0.211069,-0,0.216119,9339.31,-21543,0,23480.3,-643235
step02_gravity_refstate-crust.xmf,1409,3.86099e-07,3.24134e-06,0,1.01292e-05,-6.17983e+08,-6.17787e+08,-6.18009e+08,694866,-0.0481028,-0.225394,-0,0.23047,8702.12,-22504.9,0,24128.7,-694866
step02_gravity_refstate-crust.xmf,1410,5.08083e-07,1.06039e-06,0,6.8549e-06,-4.7019e+08,-4.70152e+08,-4.70225e+08,470246,-0.0395991,-0.153414,-0,0.158442,12710.2,-17121.4,0,21323.5,-470246
step02_gravity_refstate-crust.xmf,1411,7.63566e-07,4.10669e-07,0,6.13462e-06,-4.3487e+08,-4.34894e+08,-4.34923e+08,420835,-0.0375911,-0.129128,-0,0.134489,14605.5,-15835.6,0,21542.7,-420835
step02_gravity_refstate-crust.xmf,1412,4.50064e-07,3.63681e-06,0,1.09194e-05,-6.42215e+08,-6.41997e+08,-6.42246e+08,749072,-0.0496031,-0.238991,-0,0.244084,8160.91,-23387.9,0,24770.9,-749072
step02_gravity_refstate-crust.xmf,1413,1.36851e-06,7.4146e-06,0,1.95783e-05,-7.8699e+08,-7.86575e+08,-7.87084e+08,1.34307e+06,-0.0534861,-0.367499,-0,0.371371,4696.29,-28668.2,0,29050.3,-1.34307e+06
step02_gravity_refstate-crust.xmf,1414,1.15563e-06,7.05379e-06,0,1.83371e-05,-7.71683e+08,-7.71279e+08,-7.71763e+08,1.25793e+06,-0.0543658,-0.349793,-0,0.353993,5035.3,-28109.5,0,28556.9,-1.25793e+06
step02_gravity_refstate-crust.xmf,1415,6.68244e-07,6.3494e-06,0,1.60083e-05,-7.39992e+08,-7.39603e+08,-7.40038e+08,1.09817e+06,-0.0544881,-0.318083,-0,0.322717,5720.84,-26952.7,0,27553.1,-1.09817e+06
step02_gravity_refstate-crust.xmf,1416,9.33077e-07,6.65178e-06,0,1.7105e-05,-7.55823e+08,-7.55431e+08,-7.55887e+08,1.17341e+06,-0.0546317,-0.332813,-0,0.337267,5391.46,-27530.6,0,28053.5,-1.17341e+06
step02_gravity_refstate-crust.xmf,1417,5.23301e-07,4.04678e-06,0,1.17583e-05,-6.64397e+08,-6.64155e+08,-6.64433e+08,806620,-0.0509406,-0.252854,-0,0.257935,7654.13,-24196.4,0,25378.2,-806620
step02_gravity_refstate-crust.xmf,1418,9.80957e-07,5.1887e-06,0,1.47648e-05,-7.2589e+08,-7.25602e+08,-7.25958e+08,1.01287e+06,-0.0539151,-0.29807,-0,0.302907,6280.48,-26438.8,0,27174.5,-1.01287e+06
step02_gravity_refstate-crust.xmf,1419,6.14193e-07,4.46494e-06,0,1.26578e-05,-6.85101e+08,-6.84837e+08,-6.85143e+08,868322,-0.0521133,-0.267087,-0,0.272123,7177.37,-24951.2,0,25963,-868322
step02_gravity_refstate-crust.xmf,1420,7.50967e-07,4.87038e-06,0,1.36499e-05,-7.05319e+08,-7.05037e+08,-7.05371e+08,936385,-0.0531254,-0.282067,-0,0.287027,6720.41,-25688.4,0,26553,-936385
step02_gravity_refstate-crust.xmf,1421,2.39893e-06,-7.16855e-07,0,1.3926e-06,-1.25801e+08,-1.26015e+08,-1.25966e+08,95532.7,-0.0379316,-0.0145129,-0,0.0406132,27733.8,-4588.51,0,28110.8,-95532.7
step02_gravity_refstate-crust.xmf,1422,4.06738e-06,-1.54506e-06,0,2.10768e-08,386301,1287.91,107279,1445.87,-0.0524785,-0.0115786,-0,0.0537407,29148.2,0,0,29148.2,-1445.87
step02_gravity_refstate-crust.xmf,1423,1.43192e-06,7.85877e-06,0,2.08059e-05,-8.01164e+08,-8.00724e+08,-8.01263e+08,1.42728e+06,-0.0518692,-0.385947,-0,0.389417,4370.52,-29185.2,0,29510.6,-1.42728e+06
step02_gravity_refstate-crust.xmf,1424,1.20161e-06,8.40129e-06,0,2.19979e-05,-8.14613e+08,-8.14119e+08,-8.14695e+08,1.50906e+06,-0.0492512,-0.40499,-0,0.407974,4064.07,-29674.7,0,29951.7,-1.50906e+06
step02_gravity_refstate-crust.xmf,1425,3.83586e-07,9.1527e-06,0,2.33355e-05,-8.28031e+08,-8.27429e+08,-8.28057e+08,1.60081e+06,-0.0451515,-0.425091,-0,0.427482,3773.17,-30161,0,30396.1,-1.60081e+06
step02_gravity_refstate-crust.xmf,1426,-1.30554e-06,1.01817e-05,0,2.5539e-05,-8.41519e+08,-8.40731e+08,-8.4143e+08,1.75198e+06,-0.039256,-0.447649,-0,0.449367,3479.67,-30646.8,0,30843.7,-1.75198e+06
step02_gravity_refstate-crust.xmf,1427,-5.09205e-06,1.17687e-05,0,3.41357e-05,-8.63566e+08,-8.62409e+08,-8.63217e+08,2.34171e+06,-0.0259227,-0.504224,-0,0.50489,2827.8,-31436.6,0,31563.5,-2.34171e+06
step02_gravity_refstate-crust.xmf,1428,-3.31976e-06,1.09887e-05,0,2.91547e-05,-8.54086e+08,-8.53105e+08,-8.53858e+08,2.00001e+06,-0.032287,-0.472797,-0,0.473898,3183.05,-31097.4,0,31259.9,-2.00001e+06
step02_gravity_refstate-crust.xmf,1429,-4.47529e-06,5.76627e-06,0,4.82897e-05,-8.93008e+08,-8.92306e+08,-8.92701e+08,3.31267e+06,-0.00866889,-0.592585,-0,0.592649,2000,-32501.7,0,32563.2,-3.31267e+06
step02_gravity_refstate-crust.xmf,1430,-3.93235e-06,5.82481e-06,0,4.07387e-05,-8.87666e+08,-8.86997e+08,-8.87396e+08,2.79468e+06,-0.0130221,-0.539216,-0,0.539374,2521.37,-32309.5,0,32407.7,-2.79468e+06
step02_gravity_refstate-crust.xmf,1431,8.46343e-06,-3.33259e-05,0,-3.16369e-05,-1.0157e+09,-1.01856e+09,-1.01628e+09,-2.17029e+06,-0.0435636,-0.437812,-0,0.439974,-2894.01,-36960.1,-0,37073.3,-2.17029e+06
step02_gravity_refstate-crust.xmf,1432,4.94055e-06,-2.92774e-05,0,-2.63885e-05,-1.02204e+09,-1.02439e+09,-1.02238e+09,-1.81025e+06,-0.0492159,-0.398115,-0,0.401146,-3367.35,-37183.2,-0,37335.4,-1.81025e+06
step02_gravity_refstate-crust.xmf,1433,4.36423e-07,-2.05152e-05,0,-2.07197e-05,-1.021e+09,-1.02244e+09,-1.02103e+09,-1.42137e+06,-0.0512826,-0.34254,-0,0.346358,-4371.75,-37140.5,-0,37396.9,-1.42137e+06
step02_gravity_refstate-crust.xmf,1434,-2.9609e-06,-7.88489e-06,0,-1.13983e-05,-1.02322e+09,-1.02355e+09,-1.02301e+09,-781926,-0.0449565,-0.213492,-0,0.218174,-7828.06,-37227,-0,38041.1,-781926
step02_gravity_refstate-crust.xmf,1435,-2.96732e-06,-9.54256e-06,0,-1.29701e-05,-1.02542e+09,-1.02587e+09,-1.02522e+09,-889746,-0.0475965,-0.235757,-0,0.240513,-7039.78,-37304.7,-0,37963.1,-889746
step02_gravity_refstate-crust.xmf,1436,-2.72844e-06,-1.19361e-05,0,-1.48794e-05,-1.02708e+09,-1.02771e+09,-1.02689e+09,-1.02072e+06,-0.050188,-0.262536,-0,0.26729,-6203.45,-37362.3,-0,37873.8,-1.02072e+06
step02_gravity_refstate-crust.xmf,1437,-1.20489e-06,-1.76588e-05,0,-1.87229e-05,-1.02948e+09,-1.03061e+09,-1.0294e+09,-1.28439e+06,-0.0532694,-0.311413,-0,0.315936,-4913.82,-37447.2,-0,37768.2,-1.28439e+06
step02_gravity_refstate-crust.xmf,1438,-1.28838e-06,-2.77111e-06,0,-4.48824e-06,-1.0425e+09,-1.0426e+09,-1.04241e+09,-307893,-0.0311344,-0.0709744,-0,0.077503,-15747.4,-37943.8,-0,41081.7,-307893
step02_gravity_refstate-crust.xmf,1439,-1.42558e-06,-3.19996e-06,0,-5.22573e-06,-1.04412e+09,-1.04424e+09,-1.04402e+09,-358485,-0.0329822,-0.0862837,-0,0.0923727,-14449.2,-38001.3,-0,40655.7,-358485
step02_gravity_refstate-crust.xmf,1440,-1.60859e-06,-3.46036e-06,0,-5.64951e-06,-1.03123e+09,-1.03135e+09,-1.03112e+09,-387557,-0.033337,-0.101548,-0,0.10688,-13427.5,-37531,-0,39860.6,-387557
step02_gravity_refstate-crust.xmf,1441,-1.71355e-06,-3.68027e-06,0,-5.9428e-06,-1.01763e+09,-1.01776e+09,-1.01751e+09,-407676,-0.0331587,-0.116563,-0,0.121187,-12540.5,-37035.1,-0,39100.7,-407676
step02_gravity_refstate-crust.xmf,1442,-2.14586e-06,-4.54433e-06,0,-7.29392e-06,-1.01634e+09,-1.0165e+09,-1.01619e+09,-500363,-0.0361981,-0.146064,-0,0.150483,-10843.2,-36985.1,-0,38541.8,-500363
step02_gravity_refstate-crust.xmf,1443,-2.60462e-06,-5.76293e-06,0,-8.96902e-06,-1.01959e+09,-1.0198e+09,-1.01941e+09,-615275,-0.0401426,-0.175848,-0,0.180372,-9373.73,-37099.6,-0,38265.5,-615275
step02_gravity_refstate-crust.xmf,1444,-1.07645e-06,-1.66485e-06,0,-2.82052e-06,-1.0684e+09,-1.06844e+09,-1.06832e+09,-193488,-0.0277645,-0.0267452,-0,0.0385509,-20402.1,-38889.2,-0,43916,-193488
step02_gravity_refstate-crust.xmf,1445,1.27903e-06,-3.63934e-07,0,3.31531e-06,-2.63634e+08,-2.63747e+08,-2.63722e+08,227430,-0.0338316,-0.0481521,-0,0.0588489,22727.2,-9602.48,0,24672.5,-227430
step02_gravity_refstate-crust.xmf,1446,1.59128e-06,-4.29083e-07,0,2.39222e-06,-1.90434e+08,-1.90573e+08,-1.90544e+08,164106,-0.0368725,-0.0334653,-0,0.0497947,24718.8,-6938.73,0,25674.3,-164106
step02_gravity_refstate-crust.xmf,1447,1.21515e-06,-3.91896e-07,0,3.80882e-06,-3.08571e+08,-3.08681e+08,-3.08654e+08,261285,-0.0326951,-0.056866,-0,0.065595,21644.9,-11238.1,0,24388.5,-261285
step02_gravity_refstate-crust.xmf,1448,1.27688e-06,-4.7814e-07,0,4.19053e-06,-3.53314e+08,-3.53434e+08,-3.53401e+08,287471,-0.0318394,-0.062945,-0,0.0705395,20898.6,-12867.2,0,24542.1,-287471
step02_gravity_refstate-crust.xmf,1449,6.8663e-07,1.10653e-06,0,7.28072e-06,-5.03382e+08,-5.03354e+08,-5.03429e+08,499457,-0.0409597,-0.160826,-0,0.16596,12248.2,-18330.6,0,22046.1,-499457
step02_gravity_refstate-crust.xmf,1450,8.38375e-07,1.20359e-06,0,7.73502e-06,-5.33685e+08,-5.33659e+08,-5.33742e+08,530622,-0.0424077,-0.169608,-0,0.174829,11713.3,-19434.6,0,22691.5,-530622
step02_gravity_refstate-crust.xmf,1451,9.69593e-07,1.36754e-06,0,8.27274e-06,-5.63557e+08,-5.6353e+08,-5.63623e+08,567510,-0.0440257,-0.180573,-0,0.185863,11076.1,-20522.9,0,23321,-567510
step02_gravity_refstate-crust.xmf,1452,9.17612e-07,4.4011e-07,0,6.53084e-06,-4.69911e+08,-4.69943e+08,-4.69974e+08,448015,-0.0386786,-0.137135,-0,0.142485,13993.2,-17112,0,22104.9,-448015
step02_gravity_refstate-crust.xmf,1453,9.44716e-07,-3.59376e-08,0,5.40139e-06,-3.97988e+08,-3.98055e+08,-3.98053e+08,370536,-0.0355972,-0.104484,-0,0.110382,16749.3,-14492.9,0,22149.1,-370536
step02_gravity_refstate-crust.xmf,1454,1.07792e-06,-4.48046e-08,0,5.77448e-06,-4.34033e+08,-4.3411e+08,-4.34107e+08,396129,-0.0362725,-0.112477,-0,0.118181,16030.7,-15805.7,0,22512.3,-396129
step02_gravity_refstate-crust.xmf,1455,1.17424e-06,-3.39827e-07,0,4.99567e-06,-3.94924e+08,-3.95028e+08,-3.95004e+08,342703,-0.0339376,-0.0875251,-0,0.0938744,18339.7,-14381.8,0,23306.3,-342703
step02_gravity_refstate-crust.xmf,1456,1.61891e-06,4.56891e-06,0,1.51738e-05,-7.41618e+08,-7.41415e+08,-7.41729e+08,1.04092e+06,-0.0538754,-0.302208,-0,0.306973,6236.58,-27013,0,27723.5,-1.04092e+06
step02_gravity_refstate-crust.xmf,1457,1.93346e-06,-5.55736e-07,0,1.97778e-06,-1.80312e+08,-1.80482e+08,-1.80444e+08,135676,-0.0342402,-0.0194453,-0,0.0393766,26750.5,-6571.39,0,27545.9,-135676
step02_gravity_refstate-crust.xmf,1458,3.54495e-06,-1.21064e-06,0,5.50982e-07,-5.88113e+07,-5.91375e+07,-5.90545e+07,37797.3,-0.0375858,-0.0012956,-0,0.0376081,30677.2,-2153.55,0,30752.7,-37797.3
step02_gravity_refstate-crust.xmf,1459,2.77106e-06,-8.52537e-07,0,1.10103e-06,-1.23723e+08,-1.23971e+08,-1.23913e+08,75530.7,-0.0322883,-0.00210484,-0,0.0323568,30001,-4514.15,0,30338.7,-75530.7
step02_gravity_refstate-crust.xmf,1460,4.56747e-06,-1.73832e-06,0,1.8391e-08,433657,1080.03,120329,1261.62,-0.0414105,-4.12167e-05,-0,0.0414105,31715.7,0,0,31715.7,-1261.62
step02_gravity_refstate-crust.xmf,1461,-2.6016e-06,2.07731e-06,0,4.38189e-05,-9.00385e+08,-9.00064e+08,-9.00206e+08,3.00597e+06,-0.00704579,-0.557053,-0,0.557098,2355.97,-32772.1,0,32856.7,-3.00597e+06
step02_gravity_refstate-crust.xmf,1462,-2.20789e-06,5.83403e-07,0,4.90054e-05,-9.06687e+08,-9.06495e+08,-9.06535e+08,3.36177e+06,-0.00378962,-0.594158,-0,0.59417,2000,-33000.8,0,33061.4,-3.36177e+06
step02_gravity_refstate-crust.xmf,1463,-3.94268e-06,7.90235e-06,0,3.5261e-05,-8.75796e+08,-8.74984e+08,-8.75526e+08,2.41891e+06,-0.0200136,-0.504897,-0,0.505293,2872.46,-31880.5,0,32009.7,-2.41891e+06
step02_gravity_refstate-crust.xmf,1464,1.54929e-06,-2.50946e-05,0,-2.28411e-05,-1.0292e+09,-1.03102e+09,-1.0293e+09,-1.5669e+06,-0.0531256,-0.362513,-0,0.366385,-3859.32,-37436.4,-0,37634.8,-1.5669e+06
step02_gravity_refstate-crust.xmf,1465,-2.45327e-06,-1.51122e-05,0,-1.71136e-05,-1.03833e+09,-1.0392e+09,-1.03817e+09,-1.174e+06,-0.0535571,-0.281891,-0,0.286934,-5517.21,-37768.3,-0,38169.1,-1.174e+06
step02_gravity_refstate-crust.xmf,1466,1.44931e-05,-4.13918e-05,0,-4.52793e-05,-1.01646e+09,-1.02029e+09,-1.01746e+09,-3.10616e+06,-0.0336884,-0.514314,-0,0.515417,-2000,-36999.8,-0,37053.8,-3.10616e+06
step02_gravity_refstate-crust.xmf,1467,1.22443e-05,-4.08013e-05,0,-3.57839e-05,-1.02329e+09,-1.02693e+09,-1.02413e+09,-2.45477e+06,-0.042326,-0.46354,-0,0.465469,-2440.81,-37240.1,-0,37320,-2.45477e+06
step02_gravity_refstate-crust.xmf,1468,-3.04573e-06,-7.71651e-06,0,-1.14699e-05,-1.04074e+09,-1.04106e+09,-1.04054e+09,-786839,-0.0458096,-0.197059,-0,0.202313,-8264.44,-37865.1,-0,38756.5,-786839
step02_gravity_refstate-crust.xmf,1469,-2.05378e-06,-4.24744e-06,0,-6.94972e-06,-1.02946e+09,-1.02961e+09,-1.02932e+09,-476751,-0.0363182,-0.129527,-0,0.134522,-11645.2,-37463.7,-0,39231.8,-476751
step02_gravity_refstate-crust.xmf,1470,-2.57511e-06,-5.42669e-06,0,-8.7065e-06,-1.03307e+09,-1.03326e+09,-1.03289e+09,-597266,-0.0403135,-0.158987,-0,0.164018,-10032,-37591.1,-0,38906.7,-597266
step02_gravity_refstate-crust.xmf,1471,-2.83955e-06,-6.5091e-06,0,-1.01115e-05,-1.03868e+09,-1.03893e+09,-1.03849e+09,-693647,-0.0432779,-0.177757,-0,0.18295,-9099.97,-37792.6,-0,38872.8,-693647
step02_gravity_refstate-crust.xmf,1472,-1.07943e-06,-2.01826e-06,0,-3.29804e-06,-1.06779e+09,-1.06785e+09,-1.06772e+09,-226246,-0.0291864,-0.0373983,-0,0.0474393,-19015.6,-38866.5,-0,43268.9,-226246
step02_gravity_refstate-crust.xmf,1473,-1.10791e-06,-2.40179e-06,0,-3.85057e-06,-1.06885e+09,-1.06894e+09,-1.06878e+09,-264149,-0.0306511,-0.0487834,-0,0.0576135,-17686.9,-38904.5,-0,42736.3,-264149
step02_gravity_refstate-crust.xmf,1474,-1.16164e-06,-2.81778e-06,0,-4.48078e-06,-1.07014e+09,-1.07026e+09,-1.07006e+09,-307381,-0.0320997,-0.0609083,-0,0.0688492,-16422.3,-38950.6,-0,42271,-307381
step02_gravity_refstate-crust.xmf,1475,1.45216e-06,-4.16238e-07,0,2.85872e-06,-2.38672e+08,-2.388e+08,-2.38772e+08,196108,-0.033601,-0.0368946,-0,0.0499023,24169,-8694.33,0,25685.3,-196108
step02_gravity_refstate-crust.xmf,1476,1.35289e-06,-5.5509e-07,0,4.55764e-06,-3.9236e+08,-3.92491e+08,-3.92452e+08,312654,-0.0318749,-0.070722,-0,0.0775733,20007,-14288.9,0,24585.6,-312654
step02_gravity_refstate-crust.xmf,1477,1.19089e-06,1.44611e-06,0,8.88767e-06,-5.95971e+08,-5.95954e+08,-5.96053e+08,609694,-0.0457414,-0.191992,-0,0.197366,10475.4,-21704,0,24099.7,-609694
step02_gravity_refstate-crust.xmf,1478,1.11706e-06,1.99625e-06,0,9.5952e-06,-6.17711e+08,-6.17651e+08,-6.17788e+08,658230,-0.0473805,-0.207742,-0,0.213077,9655.35,-22496,0,24480.5,-658230
step02_gravity_refstate-crust.xmf,1479,1.28133e-06,2.18381e-06,0,1.0281e-05,-6.42668e+08,-6.42606e+08,-6.42756e+08,705276,-0.0488065,-0.220089,-0,0.225435,9104.59,-23405.5,0,25114,-705276
step02_gravity_refstate-crust.xmf,1480,1.08957e-06,4.47099e-07,0,6.90297e-06,-5.01786e+08,-5.0183e+08,-5.0186e+08,473544,-0.039842,-0.14454,-0,0.149931,13458,-18273.1,0,22694.1,-473544
step02_gravity_refstate-crust.xmf,1481,1.23502e-06,-6.362e-08,0,6.13959e-06,-4.69187e+08,-4.69276e+08,-4.69272e+08,421176,-0.0372214,-0.120552,-0,0.126167,15339.4,-17086.1,0,22961.5,-421176
step02_gravity_refstate-crust.xmf,1482,1.45762e-06,2.37921e-06,0,1.09985e-05,-6.65319e+08,-6.65256e+08,-6.65419e+08,754496,-0.0500513,-0.232655,-0,0.237978,8585.34,-24231.2,0,25707.2,-754496
step02_gravity_refstate-crust.xmf,1483,2.69891e-06,4.61081e-06,0,1.86287e-05,-8.02212e+08,-8.02081e+08,-8.02397e+08,1.27793e+06,-0.0503178,-0.357076,-0,0.360604,5018.17,-29223.4,0,29651.1,-1.27793e+06
step02_gravity_refstate-crust.xmf,1484,2.21318e-06,3.98573e-06,0,1.55378e-05,-7.55514e+08,-7.55392e+08,-7.55666e+08,1.06589e+06,-0.0534413,-0.306951,-0,0.311569,6156.01,-27520.4,0,28200.5,-1.06589e+06
step02_gravity_refstate-crust.xmf,1485,2.6184e-06,4.42433e-06,0,1.7649e-05,-7.87685e+08,-7.87561e+08,-7.87864e+08,1.21072e+06,-0.0520703,-0.340567,-0,0.344525,5358.91,-28693.9,0,29190,-1.21072e+06
step02_gravity_refstate-crust.xmf,1486,2.41483e-06,4.24627e-06,0,1.66179e-05,-7.72006e+08,-7.71881e+08,-7.72172e+08,1.13999e+06,-0.0530906,-0.323927,-0,0.328248,5733.88,-28122,0,28700.6,-1.13999e+06
step02_gravity_refstate-crust.xmf,1487,1.63793e-06,2.59428e-06,0,1.17668e-05,-6.86256e+08,-6.8619e+08,-6.86368e+08,807203,-0.0511253,-0.245782,-0,0.251043,8082.15,-24994.5,0,26268.7,-807203
step02_gravity_refstate-crust.xmf,1488,2.52177e-06,2.81824e-06,0,1.42457e-05,-7.45585e+08,-7.45564e+08,-7.45758e+08,977256,-0.0525509,-0.285759,-0,0.290551,6792.72,-27158.3,0,27994.9,-977256
step02_gravity_refstate-crust.xmf,1489,2.15149e-06,2.89506e-06,0,1.34855e-05,-7.27072e+08,-7.27021e+08,-7.2722e+08,925108,-0.0525608,-0.273795,-0,0.278794,7139.89,-26483,0,27428.6,-925108
step02_gravity_refstate-crust.xmf,1490,1.84587e-06,2.80544e-06,0,1.26082e-05,-7.0654e+08,-7.06474e+08,-7.06666e+08,864924,-0.0520172,-0.259775,-0,0.264932,7587.97,-25734.1,0,26829.5,-864924
step02_gravity_refstate-crust.xmf,1491,2.26101e-06,-6.65588e-07,0,1.61216e-06,-1.77752e+08,-1.77953e+08,-1.77907e+08,110594,-0.0298618,-0.00623473,-0,0.0305057,28938,-6479.37,0,29654.5,-110594
step02_gravity_refstate-crust.xmf,1492,3.90856e-06,-1.34695e-06,0,3.92697e-07,-5.78281e+07,-5.81886e+07,-5.80962e+07,26939,-0.0283459,0.00856891,-0,0.0296127,33185.6,-2119.02,0,33253.2,-26939
step02_gravity_refstate-crust.xmf,1493,4.92984e-06,-1.87463e-06,0,1.64841e-08,468131,1344.08,129944,1130.81,-0.0287893,0.00878243,-0,0.0300991,34375.2,0,0,34375.2,-1130.81
step02_gravity_refstate-crust.xmf,1494,2.44799e-06,5.13707e-06,0,1.97998e-05,-8.15463e+08,-8.15279e+08,-8.15631e+08,1.35827e+06,-0.0479288,-0.375914,-0,0.378957,4655.23,-29705.6,0,30068.2,-1.35827e+06
step02_gravity_refstate-crust.xmf,1495,1.90161e-06,5.51317e-06,0,2.09244e-05,-8.28734e+08,-8.28486e+08,-8.28865e+08,1.43541e+06,-0.0442145,-0.393514,-0,0.39599,4354.05,-30187.1,0,30499.5,-1.43541e+06
step02_gravity_refstate-crust.xmf,1496,8.45655e-07,5.94922e-06,0,2.25008e-05,-8.42443e+08,-8.42092e+08,-8.42501e+08,1.54355e+06,-0.0389285,-0.41227,-0,0.414104,4064.96,-30682.6,0,30950.7,-1.54355e+06
step02_gravity_refstate-crust.xmf,1497,1.18804e-06,-7.15827e-06,0,4.53058e-05,-9.27297e+08,-9.27869e+08,-9.27378e+08,3.10797e+06,0.00369117,-0.559049,0,0.559062,2311.25,-33752.9,0,33831.9,-3.10797e+06
step02_gravity_refstate-crust.xmf,1498,2.16378e-06,-9.60079e-06,0,4.95846e-05,-9.34101e+08,-9.34909e+08,-9.3425e+08,3.40151e+06,0.00564254,-0.589622,0,0.589649,2000,-34000.8,0,34059.6,-3.40151e+06
step02_gravity_refstate-crust.xmf,1499,-7.18188e-09,-4.54977e-06,0,4.94262e-05,-9.20386e+08,-9.20697e+08,-9.20385e+08,3.39063e+06,0.000968151,-0.593163,0,0.593164,2000,-33500.5,0,33560.1,-3.39063e+06
step02_gravity_refstate-crust.xmf,1500,-5.17188e-07,-2.95767e-06,0,4.31143e-05,-9.14241e+08,-9.14408e+08,-9.14206e+08,2.95764e+06,-0.00149046,-0.546993,-0,0.546995,2456.24,-33277.2,0,33367.7,-2.95764e+06
step02_gravity_refstate-crust.xmf,1501,-6.8509e-07,6.36243e-06,0,2.52495e-05,-8.56604e+08,-8.56121e+08,-8.56557e+08,1.73212e+06,-0.0320522,-0.435349,-0,0.436527,3740.48,-31192.6,0,31416.1,-1.73212e+06
step02_gravity_refstate-crust.xmf,1502,-2.23118e-06,6.27645e-06,0,2.97764e-05,-8.70757e+08,-8.70174e+08,-8.70604e+08,2.04266e+06,-0.0240471,-0.466101,-0,0.466721,3346.17,-31701.5,0,31877.6,-2.04266e+06
step02_gravity_refstate-crust.xmf,1503,-1.59815e-06,4.85008e-07,0,3.8318e-05,-9.01559e+08,-9.01416e+08,-9.01449e+08,2.62862e+06,-0.00743481,-0.515609,-0,0.515663,2796.49,-32816.4,0,32935.4,-2.62862e+06
step02_gravity_refstate-crust.xmf,1504,-2.20619e-06,3.54432e-06,0,3.37569e-05,-8.87263e+08,-8.86868e+08,-8.87111e+08,2.31573e+06,-0.0149787,-0.487672,-0,0.487902,3109.37,-32298.2,0,32447.6,-2.31573e+06
step02_gravity_refstate-crust.xmf,1505,7.51824e-06,-3.60972e-05,0,-2.8786e-05,-1.03005e+09,-1.03304e+09,-1.03056e+09,-1.97472e+06,-0.0494715,-0.419737,-0,0.422643,-2896.88,-37474.5,-0,37586.3,-1.97472e+06
step02_gravity_refstate-crust.xmf,1506,3.16692e-06,-3.04994e-05,0,-2.5076e-05,-1.03718e+09,-1.03949e+09,-1.03739e+09,-1.72021e+06,-0.0541009,-0.381621,-0,0.385436,-3372.08,-37725,-0,37875.4,-1.72021e+06
step02_gravity_refstate-crust.xmf,1507,-6.47941e-07,-2.15771e-05,0,-2.0721e-05,-1.03741e+09,-1.03884e+09,-1.03736e+09,-1.42146e+06,-0.0552255,-0.330682,-0,0.335262,-4359.34,-37731.8,-0,37982.8,-1.42146e+06
step02_gravity_refstate-crust.xmf,1508,-3.16776e-06,-9.22434e-06,0,-1.29503e-05,-1.04233e+09,-1.04275e+09,-1.04211e+09,-888388,-0.0483035,-0.217542,-0,0.222841,-7466.09,-37920,-0,38648,-888388
step02_gravity_refstate-crust.xmf,1509,-3.15684e-06,-1.11392e-05,0,-1.457e-05,-1.0433e+09,-1.04385e+09,-1.04308e+09,-999501,-0.0507135,-0.23979,-0,0.245094,-6690.11,-37952.4,-0,38537.5,-999501
step02_gravity_refstate-crust.xmf,1510,-1.87066e-06,-1.86037e-05,0,-1.93151e-05,-1.04735e+09,-1.0485e+09,-1.04722e+09,-1.32502e+06,-0.0555126,-0.299791,-0,0.304887,-4911.33,-38093.4,-0,38408.7,-1.32502e+06
step02_gravity_refstate-crust.xmf,1511,-1.19505e-06,-3.26287e-06,0,-5.17612e-06,-1.07155e+09,-1.07169e+09,-1.07147e+09,-355082,-0.0335639,-0.0738927,-0,0.0811583,-15208,-39000.9,-0,41861.1,-355082
step02_gravity_refstate-crust.xmf,1512,-1.5711e-06,-3.73339e-06,0,-6.07294e-06,-1.05505e+09,-1.0552e+09,-1.05494e+09,-416604,-0.0350833,-0.0970595,-0,0.103206,-13525.4,-38398,-0,40710.4,-416604
step02_gravity_refstate-crust.xmf,1513,-1.7735e-06,-4.06754e-06,0,-6.68205e-06,-1.04779e+09,-1.04795e+09,-1.04767e+09,-458389,-0.0363212,-0.112818,-0,0.118521,-12506.8,-38132.3,-0,40131,-458389
step02_gravity_refstate-crust.xmf,1514,-2.28365e-06,-4.88101e-06,0,-7.94804e-06,-1.03824e+09,-1.03842e+09,-1.03809e+09,-545235,-0.0388209,-0.141552,-0,0.146779,-10883.3,-37781.5,-0,39317.8,-545235
step02_gravity_refstate-crust.xmf,1515,1.37521e-06,-4.92644e-07,0,3.46205e-06,-3.06342e+08,-3.0647e+08,-3.06436e+08,237497,-0.0308964,-0.0442455,-0,0.0539652,23116.5,-11157.5,0,25668.3,-237497
step02_gravity_refstate-crust.xmf,1516,1.67726e-06,-5.06055e-07,0,2.50811e-06,-2.34509e+08,-2.34659e+08,-2.34624e+08,172056,-0.0312799,-0.0245451,-0,0.0397605,25847.9,-8543.54,0,27223.3,-172056
step02_gravity_refstate-crust.xmf,1517,1.51592e-06,-5.2047e-07,0,3.02026e-06,-2.84181e+08,-2.84321e+08,-2.84285e+08,207190,-0.0298375,-0.032151,-0,0.043863,24685.5,-10351.2,0,26767.9,-207190
step02_gravity_refstate-crust.xmf,1518,1.40706e-06,-5.79433e-07,0,3.78495e-06,-3.47977e+08,-3.48113e+08,-3.48073e+08,259647,-0.0298978,-0.0487538,-0,0.057191,22490.3,-12673.2,0,25815.2,-259647
step02_gravity_refstate-crust.xmf,1519,1.48618e-06,-6.99003e-07,0,4.1078e-06,-3.92288e+08,-3.92438e+08,-3.9239e+08,281795,-0.0294468,-0.0546085,-0,0.062042,21714.6,-14286.6,0,25992.9,-281795
step02_gravity_refstate-crust.xmf,1520,1.28004e-06,4.43735e-07,0,7.28696e-06,-5.32606e+08,-5.32663e+08,-5.32694e+08,499885,-0.0410948,-0.152311,-0,0.157757,12924.1,-19395.9,0,23307.4,-499885
step02_gravity_refstate-crust.xmf,1521,1.46149e-06,4.75068e-07,0,7.7167e-06,-5.61773e+08,-5.61841e+08,-5.61873e+08,529365,-0.0424648,-0.161524,-0,0.167013,12321.1,-20458.6,0,23882.3,-529365
step02_gravity_refstate-crust.xmf,1522,1.67204e-06,4.90391e-07,0,8.19563e-06,-5.91062e+08,-5.91143e+08,-5.91176e+08,562220,-0.043879,-0.171627,-0,0.177147,11702,-21525.7,0,24500.9,-562220
step02_gravity_refstate-crust.xmf,1523,1.41074e-06,-1.0153e-07,0,6.47465e-06,-5.01498e+08,-5.01602e+08,-5.01595e+08,444161,-0.0382451,-0.127992,-0,0.133584,14732.2,-18263.1,0,23464.4,-444161
step02_gravity_refstate-crust.xmf,1524,1.31918e-06,-4.02722e-07,0,5.3504e-06,-4.32983e+08,-4.33101e+08,-4.33074e+08,367038,-0.0344333,-0.0952507,-0,0.101284,17567.9,-15767.9,0,23606.3,-367038
step02_gravity_refstate-crust.xmf,1525,1.47759e-06,-4.67965e-07,0,5.68744e-06,-4.68982e+08,-4.69116e+08,-4.69084e+08,390158,-0.0352363,-0.103273,-0,0.109119,16802.6,-17079,0,23958.7,-390158
step02_gravity_refstate-crust.xmf,1526,1.48837e-06,-6.63708e-07,0,4.88866e-06,-4.33125e+08,-4.33272e+08,-4.33227e+08,335362,-0.0321598,-0.0780953,-0,0.0844578,19182.8,-15773.3,0,24835,-335362
step02_gravity_refstate-crust.xmf,1527,1.9003e-06,-5.82983e-07,0,2.09589e-06,-2.30981e+08,-2.31151e+08,-2.31111e+08,143778,-0.0278539,-0.0111271,-0,0.0299942,27896,-8415.88,0,29137.8,-143778
step02_gravity_refstate-crust.xmf,1528,3.10644e-06,-9.73223e-07,0,8.10912e-07,-1.18427e+08,-1.18707e+08,-1.1864e+08,55628.6,-0.0260654,0.00784061,-0,0.0272191,32283.4,-4322.53,0,32571.5,-55628.6
step02_gravity_refstate-crust.xmf,1529,2.51972e-06,-7.48873e-07,0,1.25549e-06,-1.75747e+08,-1.75971e+08,-1.7592e+08,86126.3,-0.0246534,0.00500719,-0,0.0251568,31182,-6407.27,0,31833.4,-86126.3
step02_gravity_refstate-crust.xmf,1530,4.12155e-06,-1.42199e-06,0,2.49087e-07,-5.94456e+07,-5.98259e+07,-5.97283e+07,17087.3,-0.0177655,0.0157495,-0,0.0237416,35787.5,-2178.65,0,35853.7,-17087.3
step02_gravity_refstate-crust.xmf,1531,5.15251e-06,-1.95996e-06,0,5.89391e-09,489248,1332.22,135786,404.322,-0.0148825,0.0144197,-0,0.0207223,37134.2,0,0,37134.2,-404.322
step02_gravity_refstate-crust.xmf,1532,2.8515e-06,-1.12382e-05,0,4.37256e-05,-9.39348e+08,-9.40315e+08,-9.39544e+08,2.99958e+06,0.00867751,-0.542781,0,0.54285,2433.25,-34192,0,34278.5,-2.99958e+06
step02_gravity_refstate-crust.xmf,1533,4.30163e-06,-1.47011e-05,0,4.94843e-05,-9.47823e+08,-9.49126e+08,-9.48118e+08,3.39462e+06,0.0102518,-0.583547,0,0.583637,2000,-34501.1,0,34559,-3.39462e+06
step02_gravity_refstate-crust.xmf,1534,2.71413e-07,-2.61608e-05,0,-2.28886e-05,-1.04503e+09,-1.04685e+09,-1.04505e+09,-1.57016e+06,-0.0562682,-0.348632,-0,0.353143,-3845.08,-38006.1,-0,38200.1,-1.57016e+06
step02_gravity_refstate-crust.xmf,1535,-2.92327e-06,-1.32722e-05,0,-1.62036e-05,-1.04612e+09,-1.04683e+09,-1.04592e+09,-1.11157e+06,-0.0526679,-0.258518,-0,0.263829,-6065.39,-38052.8,-0,38533.2,-1.11157e+06
step02_gravity_refstate-crust.xmf,1536,-2.66518e-06,-1.62004e-05,0,-1.83874e-05,-1.0596e+09,-1.06053e+09,-1.05942e+09,-1.26137e+06,-0.0537124,-0.26967,-0,0.274967,-5520.48,-38540.1,-0,38933.4,-1.26137e+06
step02_gravity_refstate-crust.xmf,1537,1.70455e-05,-4.79207e-05,0,-4.41028e-05,-1.03019e+09,-1.03464e+09,-1.03136e+09,-3.02545e+06,-0.0393743,-0.492127,-0,0.493699,-2000,-37499.7,-0,37553,-3.02545e+06
step02_gravity_refstate-crust.xmf,1538,1.19347e-05,-4.46236e-05,0,-2.99397e-05,-1.03735e+09,-1.04123e+09,-1.03817e+09,-2.05386e+06,-0.048597,-0.441669,-0,0.444334,-2443.22,-37744.9,-0,37823.9,-2.05386e+06
step02_gravity_refstate-crust.xmf,1539,-2.86411e-06,-9.20008e-06,0,-1.31413e-05,-1.06055e+09,-1.06098e+09,-1.06035e+09,-901495,-0.0471632,-0.200498,-0,0.20597,-7882.11,-38584.5,-0,39381.3,-901495
step02_gravity_refstate-crust.xmf,1540,-1.27549e-06,-3.7839e-06,0,-5.98335e-06,-1.07422e+09,-1.07439e+09,-1.07413e+09,-410458,-0.0350161,-0.0868883,-0,0.0936787,-14097.9,-39097,-0,41561.2,-410458
step02_gravity_refstate-crust.xmf,1541,-2.70873e-06,-7.75929e-06,0,-1.16444e-05,-1.05947e+09,-1.05981e+09,-1.05928e+09,-798806,-0.0449895,-0.181151,-0,0.186654,-8711.04,-38548,-0,39520,-798806
step02_gravity_refstate-crust.xmf,1542,-2.06281e-06,-4.90561e-06,0,-7.96667e-06,-1.05446e+09,-1.05466e+09,-1.05432e+09,-546514,-0.0388191,-0.130078,-0,0.135747,-11368.3,-38372.8,-0,40021.3,-546514
step02_gravity_refstate-crust.xmf,1543,-2.27251e-06,-5.68126e-06,0,-9.0654e-06,-1.05697e+09,-1.05721e+09,-1.05682e+09,-621886,-0.0407817,-0.145704,-0,0.151303,-10464.5,-38462.2,-0,39860.3,-621886
step02_gravity_refstate-crust.xmf,1544,-2.51584e-06,-6.56861e-06,0,-1.02438e-05,-1.0576e+09,-1.05787e+09,-1.05742e+09,-702722,-0.0428166,-0.162779,-0,0.168316,-9585.65,-38482.5,-0,39658.4,-702722
step02_gravity_refstate-crust.xmf,1545,-1.44862e-06,-4.37875e-06,0,-6.90561e-06,-1.07509e+09,-1.07529e+09,-1.07499e+09,-473725,-0.0364541,-0.101017,-0,0.107393,-13025.2,-39127.1,-0,41238.1,-473725
step02_gravity_refstate-crust.xmf,1546,1.51087e-06,-6.3022e-07,0,3.36308e-06,-3.39939e+08,-3.40086e+08,-3.40043e+08,230707,-0.0278419,-0.0353193,-0,0.0449736,24130.3,-12381,0,27121.2,-230707
step02_gravity_refstate-crust.xmf,1547,1.59328e-06,-8.23425e-07,0,4.41362e-06,-4.32709e+08,-4.32875e+08,-4.32818e+08,302775,-0.029606,-0.0616174,-0,0.0683609,20843.1,-15758.4,0,26129.7,-302775
step02_gravity_refstate-crust.xmf,1548,1.68848e-06,1.01081e-06,0,9.16023e-06,-6.24691e+08,-6.24738e+08,-6.24807e+08,628392,-0.0464433,-0.193935,-0,0.199418,10439,-22750.9,0,25031.5,-628392
step02_gravity_refstate-crust.xmf,1549,1.90379e-06,1.01241e-06,0,9.59461e-06,-6.44165e+08,-6.44226e+08,-6.44296e+08,658190,-0.0473461,-0.202062,-0,0.207535,10038.2,-23460.7,0,25518.1,-658190
step02_gravity_refstate-crust.xmf,1550,2.14482e-06,1.03134e-06,0,1.01577e-05,-6.66586e+08,-6.66662e+08,-6.66733e+08,696819,-0.0483434,-0.212759,-0,0.218182,9538.62,-24278,0,26084.6,-696819
step02_gravity_refstate-crust.xmf,1551,1.98776e-06,3.36478e-07,0,8.59414e-06,-6.20257e+08,-6.20371e+08,-6.20394e+08,589558,-0.044878,-0.179246,-0,0.184779,11270.1,-22589.7,0,25244.9,-589558
step02_gravity_refstate-crust.xmf,1552,1.60393e-06,-1.52483e-07,0,6.80816e-06,-5.32323e+08,-5.32444e+08,-5.32433e+08,467040,-0.0393336,-0.135568,-0,0.141159,14142.9,-19386,0,23996.6,-467040
step02_gravity_refstate-crust.xmf,1553,1.64439e-06,-5.31644e-07,0,6.00754e-06,-5.01804e+08,-5.01953e+08,-5.01916e+08,412118,-0.0362054,-0.111371,-0,0.117108,16067.7,-18274.5,0,24333.7,-412118
step02_gravity_refstate-crust.xmf,1554,2.37808e-06,1.09523e-06,0,1.07956e-05,-6.87906e+08,-6.87994e+08,-6.88069e+08,740577,-0.0492567,-0.224873,-0,0.230205,9008.42,-25055.2,0,26625.5,-740577
step02_gravity_refstate-crust.xmf,1555,3.43312e-06,2.19056e-06,0,1.74605e-05,-8.18936e+08,-8.19021e+08,-8.19172e+08,1.19779e+06,-0.0448413,-0.344905,-0,0.347807,5345.61,-29831.5,0,30306.6,-1.19779e+06
step02_gravity_refstate-crust.xmf,1556,3.53179e-06,2.16756e-06,0,1.66079e-05,-8.03048e+08,-8.03142e+08,-8.03291e+08,1.13931e+06,-0.0480324,-0.329284,-0,0.332768,5689.95,-29253.4,0,29801.7,-1.13931e+06
step02_gravity_refstate-crust.xmf,1557,3.10581e-06,1.99142e-06,0,1.42562e-05,-7.60455e+08,-7.60532e+08,-7.60668e+08,977972,-0.0513372,-0.287039,-0,0.291594,6793.56,-27700.8,0,28521.7,-977972
step02_gravity_refstate-crust.xmf,1558,3.46117e-06,2.10786e-06,0,1.57776e-05,-7.88463e+08,-7.88556e+08,-7.887e+08,1.08235e+06,-0.0498201,-0.314153,-0,0.318079,6055.83,-28722,0,29353.5,-1.08235e+06
step02_gravity_refstate-crust.xmf,1559,3.25901e-06,2.11063e-06,0,1.49906e-05,-7.72918e+08,-7.72996e+08,-7.73141e+08,1.02835e+06,-0.0510168,-0.299862,-0,0.30417,6428.15,-28155.3,0,28879.8,-1.02835e+06
step02_gravity_refstate-crust.xmf,1560,2.62237e-06,1.1615e-06,0,1.14913e-05,-7.08297e+08,-7.08397e+08,-7.08477e+08,788305,-0.0499883,-0.237903,-0,0.243098,8479.68,-25798.7,0,27156.5,-788305
step02_gravity_refstate-crust.xmf,1561,3.32874e-06,9.51996e-07,0,1.29541e-05,-7.51447e+08,-7.5161e+08,-7.51675e+08,888653,-0.0500173,-0.265484,-0,0.270154,7495.44,-27372.1,0,28379.8,-888653
step02_gravity_refstate-crust.xmf,1562,2.92815e-06,1.13544e-06,0,1.22014e-05,-7.28754e+08,-7.28877e+08,-7.28955e+08,837017,-0.0503288,-0.25106,-0,0.256054,7989.06,-26544.6,0,27720.8,-837017
step02_gravity_refstate-crust.xmf,1563,2.11832e-06,-6.42329e-07,0,1.69153e-06,-2.29346e+08,-2.29535e+08,-2.29491e+08,116039,-0.0236125,0.000934431,-0,0.023631,30052.3,-8357.13,0,31192.6,-116039
step02_gravity_refstate-crust.xmf,1564,3.34721e-06,-1.05861e-06,0,5.4482e-07,-1.16865e+08,-1.17167e+08,-1.17095e+08,37374.6,-0.0184033,0.0157098,-0,0.0241967,34693.1,-4266.5,0,34954.4,-37374.6
step02_gravity_refstate-crust.xmf,1565,4.28413e-06,-1.49857e-06,0,1.03339e-07,-5.58653e+07,-5.6262e+07,-5.61592e+07,7089.03,-0.00890061,0.0189066,-0,0.0208969,37933.9,-2048.84,0,37989.2,-7089.03
step02_gravity_refstate-crust.xmf,1566,5.17452e-06,-1.96411e-06,0,-1.17599e-08,491517,1806.8,136545,-806.732,-6.58706e-19,0.01641,-0,0.01641,40000,0,0,40000,-806.732
step02_gravity_refstate-crust.xmf,1567,2.84587e-06,3.10611e-06,0,1.89709e-05,-8.29203e+08,-8.29185e+08,-8.29398e+08,1.3014e+06,-0.0427859,-0.367051,-0,0.369536,4883.43,-30204.3,0,30596.5,-1.3014e+06
step02_gravity_refstate-crust.xmf,1568,2.32062e-06,2.78928e-06,0,1.97188e-05,-8.42681e+08,-8.42649e+08,-8.4284e+08,1.35271e+06,-0.0378197,-0.378228,-0,0.380114,4688.79,-30692.3,0,31048.4,-1.35271e+06
step02_gravity_refstate-crust.xmf,1569,1.22859e-06,2.92426e-06,0,2.16868e-05,-8.57276e+08,-8.5716e+08,-8.5736e+08,1.48772e+06,-0.0315078,-0.397873,-0,0.399119,4357.03,-31219.5,0,31522.1,-1.48772e+06
step02_gravity_refstate-crust.xmf,1570,6.39294e-06,-1.98557e-05,0,4.91465e-05,-9.61534e+08,-9.63335e+08,-9.61973e+08,3.37145e+06,0.0148154,-0.574941,0,0.575132,2000,-35000.7,0,35057.8,-3.37145e+06
step02_gravity_refstate-crust.xmf,1571,4.92496e-06,-1.68848e-05,0,4.188e-05,-9.55932e+08,-9.57428e+08,-9.5627e+08,2.87297e+06,0.0158206,-0.522883,0,0.523122,2551.21,-34795.4,0,34888.8,-2.87297e+06
step02_gravity_refstate-crust.xmf,1572,1.43705e-06,-7.5037e-06,0,3.97509e-05,-9.28235e+08,-9.28849e+08,-9.28334e+08,2.72691e+06,0.00466587,-0.516495,0,0.516516,2749.49,-33787.5,0,33899.2,-2.72691e+06
step02_gravity_refstate-crust.xmf,1573,1.10194e-07,2.59942e-06,0,2.45519e-05,-8.71926e+08,-8.71755e+08,-8.71933e+08,1.68426e+06,-0.0240854,-0.41992,-0,0.42061,4019.23,-31747.8,0,32001.2,-1.68426e+06
step02_gravity_refstate-crust.xmf,1574,2.31531e-07,-4.10954e-06,0,3.62008e-05,-9.15419e+08,-9.15717e+08,-9.15435e+08,2.48338e+06,-0.00103065,-0.494075,-0,0.494076,3032.15,-33321.3,0,33459,-2.48338e+06
step02_gravity_refstate-crust.xmf,1575,-4.71379e-07,-1.05312e-06,0,3.20486e-05,-9.01731e+08,-9.01771e+08,-9.01699e+08,2.19853e+06,-0.0079112,-0.467688,-0,0.467755,3367.76,-32824.9,0,32997.2,-2.19853e+06
step02_gravity_refstate-crust.xmf,1576,-5.9831e-07,1.4693e-06,0,2.81938e-05,-8.86295e+08,-8.86154e+08,-8.86254e+08,1.93409e+06,-0.0162417,-0.44415,-0,0.444447,3678.54,-32266.3,0,32475.3,-1.93409e+06
step02_gravity_refstate-crust.xmf,1577,4.14378e-06,-3.70041e-05,0,-2.77291e-05,-1.04508e+09,-1.0479e+09,-1.04536e+09,-1.90222e+06,-0.0541434,-0.400108,-0,0.403754,-2899.21,-38006.6,-0,38117,-1.90222e+06
step02_gravity_refstate-crust.xmf,1578,1.35012e-06,-3.14439e-05,0,-2.54077e-05,-1.05281e+09,-1.05506e+09,-1.05291e+09,-1.74297e+06,-0.0562916,-0.363857,-0,0.368186,-3379.48,-38285.6,-0,38434.4,-1.74297e+06
step02_gravity_refstate-crust.xmf,1579,-1.19331e-06,-2.30419e-05,0,-2.16545e-05,-1.05451e+09,-1.05601e+09,-1.05443e+09,-1.4855e+06,-0.0563954,-0.319732,-0,0.324668,-4294.7,-38349.9,-0,38589.6,-1.4855e+06
step02_gravity_refstate-crust.xmf,1580,-2.94235e-06,-1.09702e-05,0,-1.47442e-05,-1.06132e+09,-1.06187e+09,-1.06112e+09,-1.01145e+06,-0.0492942,-0.220772,-0,0.226208,-7095.1,-38609.5,-0,39256,-1.01145e+06
step02_gravity_refstate-crust.xmf,1581,-2.89975e-06,-1.3217e-05,0,-1.65055e-05,-1.06196e+09,-1.06266e+09,-1.06176e+09,-1.13227e+06,-0.0513588,-0.242568,-0,0.247946,-6327.12,-38629.4,-0,39144.1,-1.13227e+06
step02_gravity_refstate-crust.xmf,1582,-1.58722e-06,-2.10062e-05,0,-2.10801e-05,-1.06602e+09,-1.06735e+09,-1.06591e+09,-1.44609e+06,-0.0544126,-0.293702,-0,0.298699,-4720.18,-38770.5,-0,39056.8,-1.44609e+06
step02_gravity_refstate-crust.xmf,1583,-1.53291e-06,-5.02583e-06,0,-7.89328e-06,-1.07545e+09,-1.07569e+09,-1.07535e+09,-541479,-0.0379928,-0.11643,-0,0.122472,-11973.3,-39138.9,-0,40929.4,-541479
step02_gravity_refstate-crust.xmf,1584,1.70951e-06,-5.88422e-07,0,2.54185e-06,-2.82316e+08,-2.82474e+08,-2.82434e+08,174371,-0.026421,-0.0165982,-0,0.0312021,26869.4,-10284,0,28770.2,-174371
step02_gravity_refstate-crust.xmf,1585,1.55979e-06,-7.63619e-07,0,3.65919e-06,-3.89161e+08,-3.89321e+08,-3.89268e+08,251020,-0.0269731,-0.0399588,-0,0.0482105,23407.6,-14172.9,0,27364,-251020
step02_gravity_refstate-crust.xmf,1586,1.64267e-06,-9.05225e-07,0,3.93585e-06,-4.3199e+08,-4.32164e+08,-4.32102e+08,269999,-0.0268858,-0.0461131,-0,0.0533784,22536.4,-15732.3,0,27484.4,-269999
step02_gravity_refstate-crust.xmf,1587,2.31825e-06,1.37375e-07,0,8.94204e-06,-6.46192e+08,-6.46342e+08,-6.46351e+08,613424,-0.0455051,-0.185947,-0,0.191434,10904.9,-23534.9,0,25938.5,-613424
step02_gravity_refstate-crust.xmf,1588,1.81118e-06,-2.11024e-07,0,7.15135e-06,-5.61698e+08,-5.61836e+08,-5.61822e+08,490582,-0.0404476,-0.143544,-0,0.149134,13553.2,-20456.2,0,24538.6,-490582
step02_gravity_refstate-crust.xmf,1589,2.03121e-06,-2.68113e-07,0,7.53008e-06,-5.90187e+08,-5.90345e+08,-5.90326e+08,516563,-0.0416103,-0.152532,-0,0.158106,12925.8,-21494.2,0,25081.4,-516563
step02_gravity_refstate-crust.xmf,1590,2.30113e-06,-3.99128e-07,0,7.88325e-06,-6.18763e+08,-6.18948e+08,-6.18921e+08,540791,-0.0425165,-0.160819,-0,0.166344,12376,-22535.4,0,25710.1,-540791
step02_gravity_refstate-crust.xmf,1591,1.82756e-06,-6.12622e-07,0,6.30322e-06,-5.32394e+08,-5.32561e+08,-5.32519e+08,432401,-0.0371703,-0.119018,-0,0.124687,15403.6,-19388.8,0,24762.8,-432401
step02_gravity_refstate-crust.xmf,1592,1.80465e-06,-8.52554e-07,0,5.5224e-06,-5.0347e+08,-5.03652e+08,-5.03593e+08,378837,-0.0337965,-0.0949334,-0,0.10077,17455.6,-18335.3,0,25315.6,-378837
step02_gravity_refstate-crust.xmf,1593,1.64566e-06,-7.68563e-07,0,5.19791e-06,-4.70044e+08,-4.7021e+08,-4.70157e+08,356577,-0.0327946,-0.0858542,-0,0.0919045,18357.7,-17117.9,0,25100.4,-356577
step02_gravity_refstate-crust.xmf,1594,1.73761e-06,-9.66756e-07,0,4.68709e-06,-4.71916e+08,-4.72102e+08,-4.72036e+08,321534,-0.0300019,-0.0687714,-0,0.0750308,19984.9,-17186.1,0,26358.3,-321534
step02_gravity_refstate-crust.xmf,1595,3.80441e-06,4.989e-07,0,1.3431e-05,-7.72952e+08,-7.73179e+08,-7.73213e+08,921364,-0.0484107,-0.27589,-0,0.280105,7168.06,-28156.3,0,29054.4,-921364
step02_gravity_refstate-crust.xmf,1596,1.8463e-06,-6.20542e-07,0,2.09752e-06,-2.80929e+08,-2.81098e+08,-2.81056e+08,143890,-0.0227722,-0.00377341,-0,0.0230827,28958,-10234,0,30713.2,-143890
step02_gravity_refstate-crust.xmf,1597,2.73088e-06,-8.12252e-07,0,8.95558e-07,-1.73948e+08,-1.74191e+08,-1.74136e+08,61435.3,-0.0184641,0.0143094,-0,0.0233598,33581.3,-6342.55,0,34175.1,-61435.3
step02_gravity_refstate-crust.xmf,1598,2.28563e-06,-6.81364e-07,0,1.2742e-06,-2.28972e+08,-2.29175e+08,-2.29128e+08,87409.8,-0.0184926,0.0114726,-0,0.0217623,32387.1,-8344.13,0,33444.7,-87409.8
step02_gravity_refstate-crust.xmf,1599,3.46439e-06,-1.08629e-06,0,2.58404e-07,-1.1904e+08,-1.19352e+08,-1.19278e+08,17726.5,-0.00865888,0.0213987,-0,0.0230842,37521.8,-4346.1,0,37772.7,-17726.5
step02_gravity_refstate-crust.xmf,1600,3.9954e-06,-1.33752e-06,0,-6.39641e-09,-7.78799e+07,-7.82457e+07,-7.8154e+07,-438.794,-6.22973e-19,0.0211247,-0,0.0211247,40000,-2849.39,0,40101.4,-438.794
step02_gravity_refstate-crust.xmf,1601,8.45851e-06,-2.50077e-05,0,4.85965e-05,-9.75234e+08,-9.7753e+08,-9.75814e+08,3.33372e+06,0.0193654,-0.563793,0,0.564126,2000,-35499.9,0,35556.2,-3.33372e+06
step02_gravity_refstate-crust.xmf,1602,6.84497e-06,-2.16535e-05,0,4.35342e-05,-9.6929e+08,-9.71245e+08,-9.6976e+08,2.98645e+06,0.0201593,-0.529572,0,0.529956,2385.17,-35282.1,0,35362.7,-2.98645e+06
step02_gravity_refstate-crust.xmf,1603,3.00608e-06,-1.18396e-05,0,3.71497e-05,-9.4285e+08,-9.43869e+08,-9.43057e+08,2.54847e+06,0.0117477,-0.491798,0,0.491939,2967.04,-34319.2,0,34447.3,-2.54847e+06
step02_gravity_refstate-crust.xmf,1604,-1.52091e-07,-2.73314e-05,0,-2.37556e-05,-1.0595e+09,-1.06137e+09,-1.05949e+09,-1.62963e+06,-0.0562598,-0.335657,-0,0.340339,-3822.64,-38529.3,-0,38718.5,-1.62963e+06
step02_gravity_refstate-crust.xmf,1605,-1.53227e-06,-1.91008e-05,0,-2.03829e-05,-1.07616e+09,-1.07737e+09,-1.07606e+09,-1.39827e+06,-0.0510599,-0.269786,-0,0.274575,-5197.01,-39142.9,-0,39486.4,-1.39827e+06
step02_gravity_refstate-crust.xmf,1606,1.57296e-05,-6.96412e-05,0,-4.06552e-05,-1.045e+09,-1.05085e+09,-1.04608e+09,-2.78895e+06,-0.0474542,-0.46633,-0,0.468738,-2000,-38000,-0,38052.6,-2.78895e+06
step02_gravity_refstate-crust.xmf,1607,5.8244e-06,-4.75034e-05,0,-3.33829e-05,-1.05298e+09,-1.05664e+09,-1.05338e+09,-2.29007e+06,-0.0526995,-0.417536,-0,0.420849,-2437.11,-38284.8,-0,38362.3,-2.29007e+06
step02_gravity_refstate-crust.xmf,1608,-2.09649e-06,-1.11557e-05,0,-1.49677e-05,-1.08007e+09,-1.0807e+09,-1.07993e+09,-1.02678e+06,-0.0456929,-0.202796,-0,0.20788,-7495.82,-39295.4,-0,40004,-1.02678e+06
step02_gravity_refstate-crust.xmf,1609,-2.05957e-06,-9.43468e-06,0,-1.33112e-05,-1.07966e+09,-1.08017e+09,-1.07952e+09,-913150,-0.0441679,-0.183879,-0,0.189109,-8309.34,-39283.1,-0,40152.3,-913150
step02_gravity_refstate-crust.xmf,1610,-1.97594e-06,-8.02264e-06,0,-1.17816e-05,-1.07901e+09,-1.07943e+09,-1.07888e+09,-808217,-0.0426249,-0.165875,-0,0.171264,-9157.96,-39262.1,-0,40316,-808217
step02_gravity_refstate-crust.xmf,1611,-1.72831e-06,-5.89491e-06,0,-9.11832e-06,-1.07722e+09,-1.07751e+09,-1.0771e+09,-625516,-0.0395416,-0.132369,-0,0.138149,-10971.3,-39201.1,-0,40707.5,-625516
step02_gravity_refstate-crust.xmf,1612,-1.85926e-06,-6.85384e-06,0,-1.03771e-05,-1.0782e+09,-1.07854e+09,-1.07807e+09,-711871,-0.0410672,-0.148619,-0,0.154189,-10049.6,-39234.6,-0,40501.2,-711871
step02_gravity_refstate-crust.xmf,1613,1.61662e-06,-6.54169e-07,0,2.91236e-06,-3.3164e+08,-3.31796e+08,-3.31751e+08,199788,-0.0253649,-0.0217732,-0,0.0334283,25956.3,-12079.2,0,28629.3,-199788
step02_gravity_refstate-crust.xmf,1614,1.60467e-06,-7.69355e-07,0,3.21225e-06,-3.81217e+08,-3.8138e+08,-3.81327e+08,220361,-0.0245475,-0.0265247,-0,0.0361406,25132.2,-13883.9,0,28712.2,-220361
step02_gravity_refstate-crust.xmf,1615,1.75924e-06,-1.05773e-06,0,4.17565e-06,-4.71977e+08,-4.7217e+08,-4.72097e+08,286450,-0.0270458,-0.052445,-0,0.059008,21675.4,-17188.3,0,27663.3,-286450
step02_gravity_refstate-crust.xmf,1616,2.62244e-06,-9.6325e-09,0,9.33363e-06,-6.69253e+08,-6.69434e+08,-6.69433e+08,640287,-0.0460799,-0.194247,-0,0.199637,10468,-24375.4,0,26528.1,-640287
step02_gravity_refstate-crust.xmf,1617,2.88854e-06,-9.05134e-08,0,9.78862e-06,-6.90056e+08,-6.90261e+08,-6.90255e+08,671500,-0.0466184,-0.203985,-0,0.209244,9982.76,-25133.7,0,27043.7,-671500
step02_gravity_refstate-crust.xmf,1618,2.60797e-06,-6.0083e-07,0,8.19617e-06,-6.46309e+08,-6.46529e+08,-6.46488e+08,562257,-0.0430666,-0.168419,-0,0.173839,11892.5,-23539.1,0,26372.7,-562257
step02_gravity_refstate-crust.xmf,1619,2.03503e-06,-7.17811e-07,0,6.58815e-06,-5.62144e+08,-5.62333e+08,-5.62283e+08,451947,-0.0380869,-0.126515,-0,0.132124,14779.4,-20472.5,0,25249.9,-451947
step02_gravity_refstate-crust.xmf,1620,1.95981e-06,-9.41485e-07,0,5.79867e-06,-5.32628e+08,-5.32827e+08,-5.32762e+08,397789,-0.0347471,-0.103102,-0,0.1088,16681.8,-19397.3,0,25583.9,-397789
step02_gravity_refstate-crust.xmf,1621,3.30548e-06,7.15643e-07,0,1.72391e-05,-8.39497e+08,-8.39674e+08,-8.39723e+08,1.18261e+06,-0.03734,-0.346234,-0,0.348242,5340.76,-30577.2,0,31040.1,-1.18261e+06
step02_gravity_refstate-crust.xmf,1622,3.10177e-06,-5.68965e-08,0,1.03994e-05,-7.09757e+08,-7.09973e+08,-7.0997e+08,713399,-0.0473617,-0.217181,-0,0.222285,9371.5,-25851.9,0,27498.1,-713399
step02_gravity_refstate-crust.xmf,1623,3.95832e-06,5.42507e-07,0,1.55928e-05,-8.15377e+08,-8.15611e+08,-8.15648e+08,1.06967e+06,-0.0435597,-0.31795,-0,0.32092,5991.2,-29701.5,0,30299.7,-1.06967e+06
step02_gravity_refstate-crust.xmf,1624,4.06134e-06,3.0575e-07,0,1.4758e-05,-8.05411e+08,-8.05668e+08,-8.05689e+08,1.0124e+06,-0.0448673,-0.303488,-0,0.306786,6366.79,-29338.7,0,30021.6,-1.0124e+06
step02_gravity_refstate-crust.xmf,1625,3.98565e-06,3.48704e-07,0,1.40363e-05,-7.89298e+08,-7.89547e+08,-7.89571e+08,962893,-0.0470038,-0.289091,-0,0.292887,6769.64,-28751.8,0,29538,-962893
step02_gravity_refstate-crust.xmf,1626,3.38869e-06,-1.6117e-07,0,1.09548e-05,-7.29699e+08,-7.29943e+08,-7.29932e+08,751501,-0.0475035,-0.229079,-0,0.233952,8861.04,-26578.9,0,28017.1,-751501
step02_gravity_refstate-crust.xmf,1627,3.71571e-06,-3.75905e-07,0,1.14827e-05,-7.50384e+08,-7.50664e+08,-7.50639e+08,787713,-0.047004,-0.240967,-0,0.245508,8385.24,-27332.9,0,28590.2,-787713
step02_gravity_refstate-crust.xmf,1628,4.03141e-06,-6.85293e-07,0,1.19444e-05,-7.70931e+08,-7.71255e+08,-7.71208e+08,819387,-0.0456887,-0.252537,-0,0.256636,7950.78,-28081.8,0,29185.6,-819387
step02_gravity_refstate-crust.xmf,1629,1.97762e-06,-6.37666e-07,0,1.6516e-06,-2.80177e+08,-2.80357e+08,-2.80313e+08,113300,-0.0185863,0.00747539,-0,0.0200333,31160.8,-10207.1,0,32790,-113300
step02_gravity_refstate-crust.xmf,1630,2.88904e-06,-8.66471e-07,0,5.57318e-07,-1.70485e+08,-1.70743e+08,-1.70683e+08,38232,-0.0122789,0.0203517,-0,0.0237689,35839,-6217.02,0,36374.2,-38232
step02_gravity_refstate-crust.xmf,1631,2.46092e-06,4.32593e-07,0,1.86702e-05,-8.57574e+08,-8.57713e+08,-8.57743e+08,1.28078e+06,-0.0301678,-0.363465,-0,0.364714,4993.92,-31231.5,0,31628.2,-1.28078e+06
step02_gravity_refstate-crust.xmf,1632,1.55923e-06,3.83389e-08,0,2.07154e-05,-8.72943e+08,-8.73047e+08,-8.7305e+08,1.42108e+06,-0.0229821,-0.381903,-0,0.382594,4653.48,-31786.7,0,32125.5,-1.42108e+06
step02_gravity_refstate-crust.xmf,1633,1.04893e-05,-3.03181e-05,0,4.77313e-05,-9.88953e+08,-9.91753e+08,-9.89673e+08,3.27437e+06,0.0239563,-0.550032,0,0.550553,2000,-35999.3,0,36054.8,-3.27437e+06
step02_gravity_refstate-crust.xmf,1634,8.36449e-06,-2.60112e-05,0,4.20978e-05,-9.82147e+08,-9.84505e+08,-9.8272e+08,2.88791e+06,0.0254684,-0.514382,0,0.515012,2427.27,-35749.6,0,35831.9,-2.88791e+06
step02_gravity_refstate-crust.xmf,1635,6.04589e-06,-2.09675e-05,0,3.7232e-05,-9.72107e+08,-9.73961e+08,-9.72522e+08,2.55411e+06,0.0244016,-0.483394,0,0.484009,2863.27,-35382.5,0,35498.2,-2.55411e+06
step02_gravity_refstate-crust.xmf,1636,4.14395e-06,-1.60286e-05,0,3.41987e-05,-9.58213e+08,-9.59597e+08,-9.58497e+08,2.34603e+06,0.0197084,-0.465071,0,0.465488,3191.57,-34876.6,0,35022.4,-2.34603e+06
step02_gravity_refstate-crust.xmf,1637,1.71615e-06,-8.06222e-06,0,3.35066e-05,-9.30226e+08,-9.30897e+08,-9.30344e+08,2.29856e+06,0.00648326,-0.468236,0,0.468281,3302.46,-33860.3,0,34021,-2.29856e+06
step02_gravity_refstate-crust.xmf,1638,8.45388e-07,-8.8311e-07,0,2.34039e-05,-8.87799e+08,-8.87918e+08,-8.87857e+08,1.60551e+06,-0.0153095,-0.402017,-0,0.402308,4311.42,-32323.3,0,32609.5,-1.60551e+06
step02_gravity_refstate-crust.xmf,1639,8.91954e-07,-5.17793e-06,0,3.00413e-05,-9.16957e+08,-9.17373e+08,-9.17018e+08,2.06083e+06,9.74161e-05,-0.44584,0,0.44584,3630.95,-33378.3,0,33575.2,-2.06083e+06
step02_gravity_refstate-crust.xmf,1640,5.80087e-07,-2.63025e-06,0,2.65923e-05,-9.02659e+08,-9.02879e+08,-9.02699e+08,1.82423e+06,-0.00735622,-0.423458,-0,0.423522,3970.26,-32860.5,0,33099.5,-1.82423e+06
step02_gravity_refstate-crust.xmf,1641,3.17071e-06,-3.88295e-05,0,-2.86105e-05,-1.0601e+09,-1.06298e+09,-1.06032e+09,-1.96268e+06,-0.0546676,-0.379729,-0,0.383644,-2896.96,-38546.6,-0,38655.3,-1.96268e+06
step02_gravity_refstate-crust.xmf,1642,1.30361e-06,-3.22751e-05,0,-2.56317e-05,-1.06952e+09,-1.07183e+09,-1.06961e+09,-1.75833e+06,-0.0539816,-0.341296,-0,0.345539,-3447.36,-38892.4,-0,39044.9,-1.75833e+06
step02_gravity_refstate-crust.xmf,1643,-5.33402e-07,-2.58023e-05,0,-2.33527e-05,-1.07147e+09,-1.07321e+09,-1.07144e+09,-1.602e+06,-0.0536988,-0.312024,-0,0.316611,-4112.72,-38966,-0,39182.4,-1.602e+06
step02_gravity_refstate-crust.xmf,1644,-1.76807e-06,-1.6376e-05,0,-1.89512e-05,-1.081e+09,-1.08201e+09,-1.08088e+09,-1.30006e+06,-0.0484924,-0.246376,-0,0.251103,-5854.04,-39322.5,-0,39755.9,-1.30006e+06
step02_gravity_refstate-crust.xmf,1645,-2.04394e-06,-1.33105e-05,0,-1.6776e-05,-1.08039e+09,-1.08116e+09,-1.08025e+09,-1.15083e+06,-0.0471585,-0.222921,-0,0.227855,-6703.74,-39303.8,-0,39871.4,-1.15083e+06
step02_gravity_refstate-crust.xmf,1646,-4.69983e-07,-2.31848e-05,0,-2.27242e-05,-1.08452e+09,-1.08608e+09,-1.08449e+09,-1.55888e+06,-0.0484344,-0.281978,-0,0.286107,-4627.93,-39445.3,-0,39715.9,-1.55888e+06
step02_gravity_refstate-crust.xmf,1647,1.59755e-05,-6.37415e-05,0,-3.08293e-05,-1.05882e+09,-1.06429e+09,-1.05992e+09,-2.11489e+06,-0.0471942,-0.432423,-0,0.434991,-1992.31,-38513.5,-0,38565,-2.11489e+06
step02_gravity_refstate-crust.xmf,1648,2.28249e-05,-8.14236e-05,0,-2.29663e-05,-1.04471e+09,-1.05186e+09,-1.04628e+09,-1.57549e+06,-0.0381229,-0.496547,-0,0.498009,-1499.83,-38000,-0,38029.6,-1.57549e+06
step02_gravity_refstate-crust.xmf,1649,2.40045e-05,-8.00541e-05,0,-1.72737e-05,-1.05517e+09,-1.06231e+09,-1.05682e+09,-1.18497e+06,-0.0308418,-0.477039,-0,0.478035,-1201.14,-38387.7,-0,38406.5,-1.18497e+06
step02_gravity_refstate-crust.xmf,1650,2.51471e-05,-8.57044e-05,0,-1.4937e-05,-1.04463e+09,-1.05224e+09,-1.04636e+09,-1.02468e+06,-0.0263564,-0.515441,-0,0.516115,-1000,-38000,-0,38013.2,-1.02468e+06
step02_gravity_refstate-crust.xmf,1651,2.58655e-05,-8.31559e-05,0,-1.06988e-05,-1.05634e+09,-1.06382e+09,-1.05811e+09,-733940,-0.0195649,-0.485033,-0,0.485428,-750.086,-38432.9,-0,38440.2,-733940
step02_gravity_refstate-crust.xmf,1652,2.67147e-05,-8.83622e-05,0,-7.36674e-06,-1.04457e+09,-1.05247e+09,-1.04641e+09,-505358,-0.0134457,-0.526368,-0,0.526539,-500.172,-38000,-0,38003.3,-505358
step02_gravity_refstate-crust.xmf,1653,2.65984e-05,-8.60025e-05,0,-4.32303e-06,-1.05258e+09,-1.0603e+09,-1.0544e+09,-296560,-0.00823742,-0.50285,-0,0.502918,-309.225,-38294.6,-0,38295.8,-296560
step02_gravity_refstate-crust.xmf,1654,2.7141e-05,-8.91091e-05,0,8.27337e-08,-1.04456e+09,-1.05253e+09,-1.04642e+09,5675.53,-8.57552e-07,-0.529957,-0,0.529957,0,-38000,0,38000,-5675.53
step02_gravity_refstate-crust.xmf,1655,1.70712e-06,-6.69012e-07,0,2.45839e-06,-3.31168e+08,-3.31331e+08,-3.31285e+08,168646,-0.0221006,-0.00866377,-0,0.0237381,27933.1,-12062.4,0,30426.2,-168646
step02_gravity_refstate-crust.xmf,1656,1.65242e-06,-9.24954e-07,0,3.47244e-06,-4.31135e+08,-4.31311e+08,-4.31248e+08,238210,-0.0241046,-0.031885,-0,0.039971,24241.5,-15701.1,0,28882.1,-238210
step02_gravity_refstate-crust.xmf,1657,1.73237e-06,-1.08007e-06,0,3.68408e-06,-4.72104e+08,-4.72297e+08,-4.72223e+08,252728,-0.0240902,-0.0375431,-0,0.0446074,23366.6,-17192.7,0,29010.2,-252728
step02_gravity_refstate-crust.xmf,1658,2.94176e-06,-8.30284e-07,0,8.517e-06,-6.73162e+08,-6.73421e+08,-6.73364e+08,584266,-0.0433198,-0.176448,-0,0.181688,11403.9,-24517.8,0,27040.1,-584266
step02_gravity_refstate-crust.xmf,1659,2.25992e-06,-8.42296e-07,0,6.86778e-06,-5.90675e+08,-5.90887e+08,-5.9083e+08,471130,-0.0389179,-0.134081,-0,0.139615,14177.5,-21511.9,0,25763.6,-471130
step02_gravity_refstate-crust.xmf,1660,2.5026e-06,-9.816e-07,0,7.16727e-06,-6.18595e+08,-6.18834e+08,-6.18766e+08,491675,-0.0397028,-0.142424,-0,0.147854,13549.3,-22529.2,0,26289.7,-491675
step02_gravity_refstate-crust.xmf,1661,2.77046e-06,-1.16476e-06,0,7.45247e-06,-6.46142e+08,-6.46412e+08,-6.46332e+08,511240,-0.0402263,-0.150733,-0,0.156008,12951.7,-23532.9,0,26861.5,-511240
step02_gravity_refstate-crust.xmf,1662,2.15239e-06,-1.07537e-06,0,6.02511e-06,-5.61922e+08,-5.62144e+08,-5.6207e+08,413322,-0.0354359,-0.109902,-0,0.115474,16047.3,-20464.4,0,26005.9,-413322
step02_gravity_refstate-crust.xmf,1663,2.01816e-06,-1.14796e-06,0,5.35988e-06,-5.3322e+08,-5.33437e+08,-5.33358e+08,367688,-0.032475,-0.0896904,-0,0.0953887,17819,-19418.8,0,26355.4,-367688
step02_gravity_refstate-crust.xmf,1664,1.93341e-06,-1.13222e-06,0,4.97636e-06,-5.13202e+08,-5.13412e+08,-5.13334e+08,341378,-0.0306551,-0.0771917,-0,0.083056,19022.7,-18689.7,0,26667.7,-341378
step02_gravity_refstate-crust.xmf,1665,1.90303e-06,-1.22881e-06,0,4.3778e-06,-5.10351e+08,-5.10566e+08,-5.10481e+08,300317,-0.027282,-0.0588099,-0,0.0648299,20835.8,-18585.6,0,27920.6,-300317
step02_gravity_refstate-crust.xmf,1666,3.8308e-06,1.95661e-07,0,1.58476e-05,-8.2802e+08,-8.28269e+08,-8.28283e+08,1.08714e+06,-0.0400731,-0.325295,-0,0.327754,5814.61,-30160.7,0,30716.1,-1.08714e+06
step02_gravity_refstate-crust.xmf,1667,4.32164e-06,-1.01298e-06,0,1.23888e-05,-7.90641e+08,-7.91007e+08,-7.90937e+08,849871,-0.043499,-0.263881,-0,0.267443,7549.51,-28800,0,29773,-849871
step02_gravity_refstate-crust.xmf,1668,1.77043e-06,-6.58156e-07,0,1.99784e-06,-3.3013e+08,-3.30296e+08,-3.30251e+08,137052,-0.0185219,0.00307179,-0,0.0187749,30013,-12024.9,0,32332.3,-137052
step02_gravity_refstate-crust.xmf,1669,2.05246e-06,-6.32924e-07,0,1.19517e-06,-2.8264e+08,-2.82824e+08,-2.82781e+08,81988.6,-0.0138225,0.01674,-0,0.0217092,33472.9,-10297.1,0,35020.9,-81988.6
step02_gravity_refstate-crust.xmf,1670,2.4063e-06,-6.99593e-07,0,8.03488e-07,-2.30834e+08,-2.31047e+08,-2.30999e+08,55119.3,-0.0119418,0.0204394,-0,0.0236723,35145.2,-8412.41,0,36138,-55119.3
step02_gravity_refstate-crust.xmf,1671,2.70384e-06,-7.85451e-07,0,3.18788e-07,-2.00177e+08,-2.00417e+08,-2.00363e+08,21868.9,-0.00580212,0.0245561,-0,0.0252323,37865.5,-7297.38,0,38562.3,-21868.9
step02_gravity_refstate-crust.xmf,1672,3.12061e-06,-9.38051e-07,0,-2.74595e-09,-1.54021e+08,-1.543e+08,-1.54235e+08,-188.372,-4.20108e-19,0.024285,-0,0.024285,40000,-5618.47,0,40392.7,-188.372
step02_gravity_refstate-crust.xmf,1673,1.25441e-05,-3.56505e-05,0,4.66834e-05,-1.00269e+09,-1.00599e+09,-1.00355e+09,3.20248e+06,0.0286759,-0.533573,0,0.534343,2000,-36499.4,0,36554.2,-3.20248e+06
step02_gravity_refstate-crust.xmf,1674,9.98951e-06,-3.08838e-05,0,4.11201e-05,-9.95405e+08,-9.98209e+08,-9.9609e+08,2.82084e+06,0.0304966,-0.502495,0,0.50342,2408.34,-36231.3,0,36311.2,-2.82084e+06
step02_gravity_refstate-crust.xmf,1675,2.729e-06,-1.17072e-05,0,3.09762e-05,-9.45401e+08,-9.46391e+08,-9.45588e+08,2.12497e+06,0.0146198,-0.44401,0,0.444251,3540.43,-34411.2,0,34592.8,-2.12497e+06
step02_gravity_refstate-crust.xmf,1676,-4.95587e-07,-2.00003e-05,0,-2.11789e-05,-1.08964e+09,-1.09097e+09,-1.0896e+09,-1.45287e+06,-0.0457686,-0.258109,-0,0.262135,-5262.43,-39636.3,-0,39984.1,-1.45287e+06
step02_gravity_refstate-crust.xmf,1677,9.68468e-06,-5.1738e-05,0,-2.97878e-05,-1.06975e+09,-1.07397e+09,-1.07042e+09,-2.04344e+06,-0.0488925,-0.389396,-0,0.392454,-2394.76,-38904.5,-0,38978.2,-2.04344e+06
step02_gravity_refstate-crust.xmf,1678,2.1944e-05,-7.42994e-05,0,-2.24182e-05,-1.06013e+09,-1.06673e+09,-1.06163e+09,-1.53789e+06,-0.0378826,-0.450845,-0,0.452434,-1534.35,-38568.8,-0,38599.3,-1.53789e+06
step02_gravity_refstate-crust.xmf,1679,2.63886e-05,-8.46634e-05,0,4.37664e-08,-1.05729e+09,-1.06491e+09,-1.0591e+09,3002.38,-5.2983e-07,-0.489357,-0,0.489357,0,-38467.3,0,38467.3,-3002.38
step02_gravity_refstate-crust.xmf,1680,2.59178e-05,-8.28826e-05,0,-4.7323e-06,-1.06152e+09,-1.06899e+09,-1.0633e+09,-324636,-0.00887908,-0.47491,-0,0.474993,-343.983,-38622.3,-0,38623.9,-324636
step02_gravity_refstate-crust.xmf,1681,1.64321e-06,-7.61857e-07,0,2.75673e-06,-3.79016e+08,-3.79181e+08,-3.79129e+08,189112,-0.0216256,-0.0134862,-0,0.0254861,26985.7,-13803.9,0,30311.3,-189112
step02_gravity_refstate-crust.xmf,1682,1.63841e-06,-8.914e-07,0,3.00539e-06,-4.26467e+08,-4.26641e+08,-4.26579e+08,206170,-0.0212929,-0.0184291,-0,0.0281606,26055.8,-15531.2,0,30333.5,-206170
step02_gravity_refstate-crust.xmf,1683,1.84166e-06,-1.24211e-06,0,3.87032e-06,-5.10587e+08,-5.10798e+08,-5.10713e+08,265504,-0.0241891,-0.0434827,-0,0.049758,22488.1,-18594,0,29179.6,-265504
step02_gravity_refstate-crust.xmf,1684,3.31557e-06,-8.01986e-07,0,9.52625e-06,-7.09356e+08,-7.09638e+08,-7.09583e+08,653501,-0.0449451,-0.200477,-0,0.205454,10135,-25837,0,27753.7,-653501
step02_gravity_refstate-crust.xmf,1685,3.26678e-06,-1.095e-06,0,8.85988e-06,-6.99059e+08,-6.99358e+08,-6.99283e+08,607788,-0.0433891,-0.186111,-0,0.191101,10852.3,-25461.4,0,27677.7,-607788
step02_gravity_refstate-crust.xmf,1686,3.06091e-06,-1.42648e-06,0,7.65809e-06,-6.73409e+08,-6.73717e+08,-6.73619e+08,525345,-0.0401548,-0.15776,-0,0.16279,12454.2,-24526.3,0,27507.2,-525345
step02_gravity_refstate-crust.xmf,1687,2.36549e-06,-1.2304e-06,0,6.24545e-06,-5.9095e+08,-5.91197e+08,-5.91113e+08,428438,-0.0360383,-0.116889,-0,0.122318,15419.4,-21521.8,0,26475.4,-428438
step02_gravity_refstate-crust.xmf,1688,2.18347e-06,-1.29894e-06,0,5.49662e-06,-5.60698e+08,-5.60936e+08,-5.60847e+08,377068,-0.0327284,-0.0943936,-0,0.0999065,17312.4,-20419.6,0,26770.8,-377068
step02_gravity_refstate-crust.xmf,1689,4.18979e-06,-9.19906e-07,0,1.42716e-05,-8.24501e+08,-8.24851e+08,-8.24788e+08,979033,-0.038959,-0.301949,-0,0.304452,6402.96,-30032.3,0,30707.3,-979033
step02_gravity_refstate-crust.xmf,1690,3.80564e-06,-1.14677e-06,0,1.49567e-05,-8.41736e+08,-8.42076e+08,-8.41998e+08,1.02603e+06,-0.0339299,-0.315669,-0,0.317488,6041.28,-30657.9,0,31247.4,-1.02603e+06
step02_gravity_refstate-crust.xmf,1691,3.60477e-06,-1.04449e-06,0,9.85194e-06,-7.29555e+08,-7.29874e+08,-7.29802e+08,675843,-0.044545,-0.209106,-0,0.213798,9711.57,-26573.1,0,28292.2,-675843
step02_gravity_refstate-crust.xmf,1692,4.36484e-06,-1.42912e-06,0,1.28076e-05,-8.11001e+08,-8.11399e+08,-8.11301e+08,878599,-0.0401601,-0.276961,-0,0.279858,7117.41,-29540.8,0,30386.1,-878599
step02_gravity_refstate-crust.xmf,1693,3.8991e-06,-1.31591e-06,0,1.02163e-05,-7.50436e+08,-7.50794e+08,-7.50703e+08,700837,-0.0437394,-0.21927,-0,0.22359,9241.41,-27334.1,0,28854.1,-700837
step02_gravity_refstate-crust.xmf,1694,4.15765e-06,-1.6223e-06,0,1.05623e-05,-7.7087e+08,-7.71267e+08,-7.71155e+08,724577,-0.0423002,-0.229805,-0,0.233666,8781.89,-28078.6,0,29419.9,-724577
step02_gravity_refstate-crust.xmf,1695,4.33968e-06,-1.96662e-06,0,1.08629e-05,-7.90679e+08,-7.91112e+08,-7.90977e+08,745197,-0.0400396,-0.240195,-0,0.24351,8352.74,-28800,0,29986.8,-745197
step02_gravity_refstate-crust.xmf,1696,1.82716e-06,-6.40234e-07,0,1.54474e-06,-3.29991e+08,-3.30161e+08,-3.30117e+08,105969,-0.0146719,0.0129124,-0,0.0195446,32152.7,-12020.1,0,34326,-105969
step02_gravity_refstate-crust.xmf,1697,1.1568e-05,-3.58297e-05,0,3.95706e-05,-1.00907e+09,-1.01232e+09,-1.00986e+09,2.71455e+06,0.0358847,-0.486675,0,0.487996,2400.77,-36727.5,0,36805.9,-2.71455e+06
step02_gravity_refstate-crust.xmf,1698,3.20467e-06,-1.34313e-06,0,1.60692e-05,-8.57659e+08,-8.57971e+08,-8.57879e+08,1.10235e+06,-0.0282393,-0.331528,-0,0.332728,5658.98,-31234.8,0,31743.3,-1.10235e+06
step02_gravity_refstate-crust.xmf,1699,2.45947e-06,-1.78009e-06,0,1.75442e-05,-8.73653e+08,-8.73944e+08,-8.73822e+08,1.20353e+06,-0.0212826,-0.347419,-0,0.34807,5305.94,-31813.4,0,32252.8,-1.20353e+06
step02_gravity_refstate-crust.xmf,1700,1.76734e-06,-2.56696e-06,0,1.95532e-05,-8.89068e+08,-8.89366e+08,-8.8919e+08,1.34135e+06,-0.0137558,-0.364795,-0,0.365055,4949.9,-32370.6,0,32746.9,-1.34135e+06
step02_gravity_refstate-crust.xmf,1701,7.36683e-06,-2.57349e-05,0,3.56456e-05,-9.87535e+08,-9.89806e+08,-9.8804e+08,2.44529e+06,0.0312723,-0.468702,0,0.469744,2883.17,-35942.2,0,36057.6,-2.44529e+06
step02_gravity_refstate-crust.xmf,1702,4.58157e-06,-1.89182e-05,0,3.08628e-05,-9.73087e+08,-9.74699e+08,-9.73401e+08,2.11719e+06,0.0278495,-0.436834,0,0.43772,3431.75,-35415.5,0,35581.3,-2.11719e+06
step02_gravity_refstate-crust.xmf,1703,3.24384e-06,-1.48549e-05,0,2.8574e-05,-9.59963e+08,-9.61205e+08,-9.60186e+08,1.96018e+06,0.0225917,-0.42186,0,0.422464,3745.61,-34938.5,0,35138.7,-1.96018e+06
step02_gravity_refstate-crust.xmf,1704,1.77438e-06,-8.30684e-06,0,2.77446e-05,-9.32085e+08,-9.32777e+08,-9.32207e+08,1.90328e+06,0.00849069,-0.422621,0,0.422706,3899.28,-33927.8,0,34151.1,-1.90328e+06
step02_gravity_refstate-crust.xmf,1705,1.34039e-06,-3.90514e-06,0,2.20076e-05,-9.03927e+08,-9.04286e+08,-9.04019e+08,1.50972e+06,-0.00603252,-0.383261,-0,0.383309,4597.12,-32907.7,0,33227.3,-1.50972e+06
step02_gravity_refstate-crust.xmf,1706,1.33037e-06,-5.92659e-06,0,2.47336e-05,-9.18323e+08,-9.1882e+08,-9.18414e+08,1.69672e+06,0.00153852,-0.402196,0,0.402199,4253.43,-33428.7,0,33698.2,-1.69672e+06
step02_gravity_refstate-crust.xmf,1707,4.69319e-06,-4.02169e-05,0,-2.76372e-05,-1.07385e+09,-1.07693e+09,-1.07417e+09,-1.89591e+06,-0.0509312,-0.358191,-0,0.361794,-2929.76,-39051.3,-0,39161,-1.89591e+06
step02_gravity_refstate-crust.xmf,1708,1.20275e-06,-2.94815e-05,0,-2.50468e-05,-1.0861e+09,-1.0882e+09,-1.08618e+09,-1.71821e+06,-0.047308,-0.306343,-0,0.309974,-3864.88,-39499.6,-0,39688.3,-1.71821e+06
step02_gravity_refstate-crust.xmf,1709,1.78352e-05,-6.57539e-05,0,-2.41795e-05,-1.07208e+09,-1.07782e+09,-1.07331e+09,-1.65872e+06,-0.0389756,-0.412251,-0,0.41409,-1748.38,-39000.5,-0,39039.7,-1.65872e+06
step02_gravity_refstate-crust.xmf,1710,2.27128e-05,-7.48917e-05,0,-1.66416e-05,-1.06934e+09,-1.07604e+09,-1.0709e+09,-1.14162e+06,-0.0284091,-0.437274,-0,0.438196,-1188.38,-38906.4,-0,38924.6,-1.14162e+06
step02_gravity_refstate-crust.xmf,1711,2.65521e-05,-8.59806e-05,0,4.4259e-06,-1.05258e+09,-1.0603e+09,-1.0544e+09,303617,0.00823643,-0.502851,0,0.502918,309.225,-38294.6,0,38295.8,-303617
step02_gravity_refstate-crust.xmf,1712,2.66537e-05,-8.83801e-05,0,7.31234e-06,-1.04458e+09,-1.05247e+09,-1.04641e+09,501627,0.01344,-0.526366,0,0.526537,500.172,-38000,0,38003.3,-501627
step02_gravity_refstate-crust.xmf,1713,2.41819e-05,-7.84138e-05,0,-8.42872e-06,-1.07093e+09,-1.07797e+09,-1.07259e+09,-578210,-0.0147461,-0.444417,-0,0.444662,-610.648,-38964.6,-0,38969.4,-578210
step02_gravity_refstate-crust.xmf,1714,1.66212e-06,-7.33919e-07,0,2.29633e-06,-3.79367e+08,-3.79531e+08,-3.79481e+08,157528,-0.0183676,-0.00143502,-0,0.0184236,28948.3,-13816.8,0,32076.6,-157528
step02_gravity_refstate-crust.xmf,1715,1.67797e-06,-1.04346e-06,0,3.20832e-06,-4.71075e+08,-4.71261e+08,-4.7119e+08,220091,-0.02113,-0.0236358,-0,0.0317037,25125.2,-17155.1,0,30423.2,-220091
step02_gravity_refstate-crust.xmf,1716,1.74494e-06,-1.20492e-06,0,3.36713e-06,-5.11424e+08,-5.11627e+08,-5.11544e+08,230985,-0.0210397,-0.0289012,-0,0.0357484,24227.6,-18624.1,0,30558.7,-230985
step02_gravity_refstate-crust.xmf,1717,3.3646e-06,-1.68815e-06,0,7.87694e-06,-6.99069e+08,-6.99415e+08,-6.99299e+08,540358,-0.0397568,-0.165224,-0,0.16994,11951,-25461.3,0,28126.6,-540358
step02_gravity_refstate-crust.xmf,1718,2.59453e-06,-1.40872e-06,0,6.45871e-06,-6.19462e+08,-6.19737e+08,-6.1964e+08,443067,-0.0364971,-0.124137,-0,0.129391,14794.3,-22560.5,0,26978.6,-443067
step02_gravity_refstate-crust.xmf,1719,2.83577e-06,-1.61418e-06,0,6.66076e-06,-6.47439e+08,-6.47744e+08,-6.47633e+08,456928,-0.0367254,-0.131612,-0,0.13664,14176.2,-23579.6,0,27513,-456928
step02_gravity_refstate-crust.xmf,1720,3.07878e-06,-1.84992e-06,0,6.83131e-06,-6.74653e+08,-6.74991e+08,-6.74864e+08,468628,-0.036569,-0.138916,-0,0.143649,13592.2,-24571,0,28079.9,-468628
step02_gravity_refstate-crust.xmf,1721,2.37899e-06,-1.476e-06,0,5.65603e-06,-5.90539e+08,-5.90803e+08,-5.90702e+08,388004,-0.033033,-0.100451,-0,0.105743,16692.7,-21506.5,0,27224.5,-388004
step02_gravity_refstate-crust.xmf,1722,2.13459e-06,-1.39549e-06,0,5.00581e-06,-5.54584e+08,-5.54826e+08,-5.5473e+08,343399,-0.0301181,-0.079659,-0,0.0851625,18622.3,-20196.7,0,27471.7,-343399
step02_gravity_refstate-crust.xmf,1723,2.06418e-06,-1.42104e-06,0,4.51914e-06,-5.48672e+08,-5.48911e+08,-5.48814e+08,310013,-0.0272942,-0.0644512,-0,0.0699924,20083.5,-19981.1,0,28330,-310013
step02_gravity_refstate-crust.xmf,1724,1.96525e-06,-1.42301e-06,0,4.00534e-06,-5.48225e+08,-5.48457e+08,-5.48359e+08,274766,-0.024152,-0.0491535,-0,0.0547666,21660.1,-19964.4,0,29457.4,-274766
step02_gravity_refstate-crust.xmf,1725,4.45965e-06,-2.26463e-06,0,1.11976e-05,-8.09076e+08,-8.09537e+08,-8.09382e+08,768156,-0.0370457,-0.250362,-0,0.253088,7956.08,-29469.8,0,30524.8,-768156
step02_gravity_refstate-crust.xmf,1726,1.66596e-06,-6.86485e-07,0,1.83486e-06,-3.79112e+08,-3.79273e+08,-3.79226e+08,125872,-0.014937,0.00915262,-0,0.0175181,31013.7,-13807.6,0,33948.5,-125872
step02_gravity_refstate-crust.xmf,1727,1.84628e-06,-6.15328e-07,0,1.10564e-06,-3.33006e+08,-3.33175e+08,-3.33132e+08,75846.7,-0.0105954,0.0205769,-0,0.0231445,34320.8,-12129.9,0,36401.2,-75846.7
step02_gravity_refstate-crust.xmf,1728,2.05238e-06,-6.25215e-07,0,7.97607e-07,-2.92853e+08,-2.93037e+08,-2.92994e+08,54715.9,-0.00899894,0.0231897,-0,0.0248746,35670.9,-10669,0,37232.2,-54715.9
step02_gravity_refstate-crust.xmf,1729,2.2439e-06,-6.50077e-07,0,4.03609e-07,-2.64574e+08,-2.64773e+08,-2.64728e+08,27687.6,-0.0051797,0.0260505,-0,0.0265605,37704.1,-9640.15,0,38917,-27687.6
step02_gravity_refstate-crust.xmf,1730,2.50023e-06,-7.16211e-07,0,-1.179e-09,-2.28149e+08,-2.2837e+08,-2.28321e+08,-80.8793,-3.68201e-19,0.026517,-0,0.026517,40000,-8315,0,40855.1,-80.8793
step02_gravity_refstate-crust.xmf,1731,1.43264e-05,-4.18356e-05,0,4.50196e-05,-1.0165e+09,-1.02035e+09,-1.01748e+09,3.08835e+06,0.0336889,-0.514315,0,0.515417,2000,-36999.8,0,37053.8,-3.08835e+06
step02_gravity_refstate-crust.xmf,1732,9.01533e-06,-3.08702e-05,0,3.57776e-05,-1.00188e+09,-1.00461e+09,-1.0025e+09,2.45435e+06,0.0362646,-0.46632,0,0.467728,2736.54,-36463.1,0,36565.6,-2.45435e+06
step02_gravity_refstate-crust.xmf,1733,2.2326e-06,-1.10586e-05,0,2.58799e-05,-9.4673e+08,-9.47642e+08,-9.46883e+08,1.77536e+06,0.0167021,-0.403222,0,0.403568,4106.2,-34458.6,0,34702.4,-1.77536e+06
step02_gravity_refstate-crust.xmf,1734,3.4342e-06,-3.63223e-05,0,-2.65493e-05,-1.08545e+09,-1.08818e+09,-1.08569e+09,-1.82128e+06,-0.0462497,-0.329203,-0,0.332436,-3248.89,-39474.5,-0,39608,-1.82128e+06
step02_gravity_refstate-crust.xmf,1735,7.14827e-06,-4.49396e-05,0,-2.69928e-05,-1.08594e+09,-1.08951e+09,-1.08643e+09,-1.85171e+06,-0.0429124,-0.349607,-0,0.352231,-2673.12,-39493.9,-0,39584.3,-1.85171e+06
step02_gravity_refstate-crust.xmf,1736,2.58586e-05,-8.31516e-05,0,1.06981e-05,-1.05634e+09,-1.06381e+09,-1.05811e+09,733891,0.0195633,-0.485034,0,0.485428,750.086,-38432.9,0,38440.2,-733891
step02_gravity_refstate-crust.xmf,1737,2.51554e-05,-8.5704e-05,0,1.49547e-05,-1.04463e+09,-1.05224e+09,-1.04636e+09,1.02589e+06,0.0263623,-0.515441,0,0.516114,1000,-38000,0,38013.2,-1.02589e+06
step02_gravity_refstate-crust.xmf,1738,2.47707e-05,-7.99018e-05,0,1.43879e-07,-1.07067e+09,-1.07785e+09,-1.07237e+09,9870.12,-2.08192e-06,-0.449235,-0,0.449235,0,-38955.3,0,38955.3,-9870.12
step02_gravity_refstate-crust.xmf,1739,2.59158e-05,-8.28808e-05,0,4.73305e-06,-1.06152e+09,-1.06899e+09,-1.0633e+09,324687,0.00887768,-0.47491,0,0.474993,343.983,-38622.3,0,38623.9,-324687
step02_gravity_refstate-crust.xmf,1740,1.61214e-06,-8.42358e-07,0,2.53944e-06,-4.26514e+08,-4.26682e+08,-4.26625e+08,174206,-0.0182082,-0.00594772,-0,0.019155,27952.5,-15532.9,0,31978.3,-174206
step02_gravity_refstate-crust.xmf,1741,1.60802e-06,-9.73819e-07,0,2.73982e-06,-4.71003e+08,-4.71181e+08,-4.71114e+08,187952,-0.0181065,-0.0107224,-0,0.0210431,26966.9,-17152.3,0,31959.6,-187952
step02_gravity_refstate-crust.xmf,1742,1.84526e-06,-1.37191e-06,0,3.53651e-06,-5.49012e+08,-5.49233e+08,-5.49138e+08,242604,-0.0211512,-0.0353328,-0,0.0411798,23222.2,-19992.7,0,30642.7,-242604
step02_gravity_refstate-crust.xmf,1743,3.66187e-06,-1.63128e-06,0,8.89515e-06,-7.27943e+08,-7.28306e+08,-7.28194e+08,610208,-0.0416892,-0.190936,-0,0.195435,10548,-26513.8,0,28534.9,-610208
step02_gravity_refstate-crust.xmf,1744,3.30096e-06,-2.08051e-06,0,6.99977e-06,-6.9889e+08,-6.99259e+08,-6.99117e+08,480184,-0.0362055,-0.146448,-0,0.150857,13025.4,-25453.9,0,28593.1,-480184
step02_gravity_refstate-crust.xmf,1745,2.58477e-06,-1.66966e-06,0,5.81088e-06,-6.19809e+08,-6.20101e+08,-6.19986e+08,398626,-0.0332309,-0.107023,-0,0.112064,16049.1,-22572.6,0,27696.5,-398626
step02_gravity_refstate-crust.xmf,1746,2.322e-06,-1.60488e-06,0,5.10318e-06,-5.88895e+08,-5.89165e+08,-5.89054e+08,350078,-0.0299987,-0.0846646,-0,0.0898221,18015.4,-21446.2,0,28008.9,-350078
step02_gravity_refstate-crust.xmf,1747,4.00903e-06,-2.26115e-06,0,1.31461e-05,-8.42663e+08,-8.43093e+08,-8.42938e+08,901821,-0.0310184,-0.290054,-0,0.291707,6691.18,-30690.7,0,31411.7,-901821
step02_gravity_refstate-crust.xmf,1748,3.55642e-06,-2.57553e-06,0,1.38942e-05,-8.58439e+08,-8.5886e+08,-8.58683e+08,953141,-0.0256138,-0.302743,-0,0.303824,6330.37,-31262.7,0,31897.2,-953141
step02_gravity_refstate-crust.xmf,1749,3.92751e-06,-1.96646e-06,0,9.09129e-06,-7.50162e+08,-7.50566e+08,-7.50431e+08,623662,-0.040374,-0.198959,-0,0.203014,10112.5,-27323.2,0,29134.6,-623662
step02_gravity_refstate-crust.xmf,1750,4.25999e-06,-2.18777e-06,0,1.24995e-05,-8.30248e+08,-8.3069e+08,-8.3054e+08,857468,-0.0342005,-0.277749,-0,0.279847,7058.93,-30239.8,0,31052.8,-857468
step02_gravity_refstate-crust.xmf,1751,4.27333e-06,-2.62122e-06,0,9.53659e-06,-7.91682e+08,-7.92155e+08,-7.91975e+08,654210,-0.0362633,-0.217984,-0,0.22098,9176.62,-28835.2,0,30260.2,-654210
step02_gravity_refstate-crust.xmf,1752,4.13974e-06,-2.29108e-06,0,9.31646e-06,-7.71335e+08,-7.71776e+08,-7.71619e+08,639109,-0.038651,-0.208247,-0,0.211804,9641.69,-28094.4,0,29702.8,-639109
step02_gravity_refstate-crust.xmf,1753,4.29067e-06,-2.94757e-06,0,9.71509e-06,-8.10487e+08,-8.10983e+08,-8.10781e+08,666455,-0.0331298,-0.226939,-0,0.229345,8767.51,-29519.4,0,30793.9,-666455
step02_gravity_refstate-crust.xmf,1754,1.66626e-06,-6.39475e-07,0,1.36742e-06,-3.7942e+08,-3.79578e+08,-3.79534e+08,93805.2,-0.011303,0.0179758,-0,0.0212341,33187.6,-13818.9,0,35949.7,-93805.2
step02_gravity_refstate-crust.xmf,1755,1.85151e-06,-5.99251e-07,0,7.92042e-07,-3.35129e+08,-3.35297e+08,-3.35256e+08,54334,-0.00763097,0.024626,-0,0.0257812,35897,-12207.3,0,37915.9,-54334
step02_gravity_refstate-crust.xmf,1756,1.61257e-05,-4.9198e-05,0,4.29471e-05,-1.03034e+09,-1.03482e+09,-1.03145e+09,2.94617e+06,0.0393729,-0.492129,0,0.493701,2000,-37499.7,0,37553,-2.94617e+06
step02_gravity_refstate-crust.xmf,1757,1.22101e-05,-4.07376e-05,0,3.63343e-05,-1.02281e+09,-1.02644e+09,-1.02365e+09,2.49253e+06,0.0418778,-0.465916,0,0.467794,2421.18,-37222.7,0,37301.3,-2.49253e+06
step02_gravity_refstate-crust.xmf,1758,8.91577e-06,-3.37993e-05,0,3.25906e-05,-1.01428e+09,-1.01721e+09,-1.01489e+09,2.23571e+06,0.0423309,-0.445071,0,0.447079,2821.13,-36909.6,0,37017.3,-2.23571e+06
step02_gravity_refstate-crust.xmf,1759,2.95456e-06,-3.02167e-06,0,1.48727e-05,-8.7416e+08,-8.7457e+08,-8.74363e+08,1.02027e+06,-0.0191756,-0.315624,-0,0.316206,5987.59,-31832,0,32390.2,-1.02027e+06
step02_gravity_refstate-crust.xmf,1760,2.29791e-06,-3.69349e-06,0,1.63557e-05,-8.89987e+08,-8.90398e+08,-8.90144e+08,1.122e+06,-0.0118973,-0.330833,-0,0.331047,5614.33,-32404.4,0,32887.2,-1.122e+06
step02_gravity_refstate-crust.xmf,1761,1.78008e-06,-4.75985e-06,0,1.81947e-05,-9.0519e+08,-9.05639e+08,-9.05312e+08,1.24815e+06,-0.00429185,-0.346599,-0,0.346625,5252.61,-32954.2,0,33370.2,-1.24815e+06
step02_gravity_refstate-crust.xmf,1762,6.72712e-06,-2.7861e-05,0,3.05752e-05,-1.00278e+09,-1.00515e+09,-1.00324e+09,2.09746e+06,0.0399852,-0.431854,0,0.433701,3164.69,-36491.2,0,36628.2,-2.09746e+06
step02_gravity_refstate-crust.xmf,1763,5.04962e-06,-2.24723e-05,0,2.90864e-05,-9.88747e+08,-9.90635e+08,-9.89093e+08,1.99533e+06,0.0354624,-0.421686,0,0.423174,3479.22,-35981.9,0,36149.8,-1.99533e+06
step02_gravity_refstate-crust.xmf,1764,3.32105e-06,-1.73812e-05,0,2.61928e-05,-9.75589e+08,-9.77009e+08,-9.75817e+08,1.79682e+06,0.0309868,-0.400476,0,0.401673,3924.4,-35503.8,0,35720.1,-1.79682e+06
step02_gravity_refstate-crust.xmf,1765,2.32412e-06,-1.34246e-05,0,2.41456e-05,-9.60672e+08,-9.61752e+08,-9.60831e+08,1.65639e+06,0.0244022,-0.386198,0,0.386968,4273.48,-34962.8,0,35223,-1.65639e+06
step02_gravity_refstate-crust.xmf,1766,1.62788e-06,-8.5042e-06,0,2.25297e-05,-9.34239e+08,-9.34934e+08,-9.34351e+08,1.54554e+06,0.0107919,-0.37876,0,0.378914,4561.41,-34005.3,0,34309.9,-1.54554e+06
step02_gravity_refstate-crust.xmf,1767,1.52551e-06,-6.26613e-06,0,2.03866e-05,-9.19289e+08,-9.19823e+08,-9.19393e+08,1.39852e+06,0.00299089,-0.363675,0,0.363687,4886.67,-33464.1,0,33819,-1.39852e+06
step02_gravity_refstate-crust.xmf,1768,1.21821e-05,-5.59564e-05,0,-2.52876e-05,-1.08561e+09,-1.09029e+09,-1.08645e+09,-1.73473e+06,-0.0374166,-0.370892,-0,0.372775,-2084.96,-39485.5,-0,39540.5,-1.73473e+06
step02_gravity_refstate-crust.xmf,1769,1.70526e-05,-6.50062e-05,0,-1.95017e-05,-1.08532e+09,-1.09095e+09,-1.08649e+09,-1.33781e+06,-0.0289021,-0.389085,-0,0.390157,-1492.38,-39480.4,-0,39508.6,-1.33781e+06
step02_gravity_refstate-crust.xmf,1770,1.97632e-05,-7.07561e-05,0,-1.25001e-05,-1.08517e+09,-1.09138e+09,-1.08652e+09,-857507,-0.018782,-0.401351,-0,0.40179,-931.641,-39477,-0,39488,-857507
step02_gravity_refstate-crust.xmf,1771,2.40376e-05,-8.00557e-05,0,1.74346e-05,-1.05517e+09,-1.06231e+09,-1.05682e+09,1.19602e+06,0.0308353,-0.477043,0,0.478039,1201.14,-38387.7,0,38406.5,-1.19602e+06
step02_gravity_refstate-crust.xmf,1772,2.24172e-05,-8.11581e-05,0,2.34612e-05,-1.04474e+09,-1.05185e+09,-1.04628e+09,1.60944e+06,0.0381335,-0.496529,0,0.497992,1499.83,-38000,0,38029.6,-1.60944e+06
step02_gravity_refstate-crust.xmf,1773,2.13607e-05,-7.41392e-05,0,-6.05144e-06,-1.08285e+09,-1.0894e+09,-1.08432e+09,-415129,-0.00954168,-0.413434,-0,0.413544,-449.795,-39393.9,-0,39396.4,-415129
step02_gravity_refstate-crust.xmf,1774,1.57076e-06,-7.76057e-07,0,2.07342e-06,-4.28347e+08,-4.28508e+08,-4.28455e+08,142237,-0.0149633,0.00529069,-0,0.0158711,29949.7,-15599.6,0,33768.8,-142237
step02_gravity_refstate-crust.xmf,1775,1.63343e-06,-1.11499e-06,0,2.89652e-06,-5.11476e+08,-5.11665e+08,-5.11588e+08,198702,-0.0180013,-0.0155543,-0,0.0237904,26024.7,-18625.7,0,32003.2,-198702
step02_gravity_refstate-crust.xmf,1776,1.67844e-06,-1.26635e-06,0,2.98216e-06,-5.53502e+08,-5.53704e+08,-5.53617e+08,204576,-0.0174627,-0.0196045,-0,0.0262542,25202,-20155.6,0,32270.6,-204576
step02_gravity_refstate-crust.xmf,1777,3.61641e-06,-2.04034e-06,0,7.99738e-06,-7.2481e+08,-7.25198e+08,-7.25058e+08,548621,-0.0387007,-0.172503,-0,0.176791,11471.9,-26398.9,0,28783.8,-548621
step02_gravity_refstate-crust.xmf,1778,3.53639e-06,-2.34464e-06,0,7.13083e-06,-7.23611e+08,-7.24014e+08,-7.23853e+08,489175,-0.0351915,-0.153563,-0,0.157543,12498.7,-26354.5,0,29168,-489175
step02_gravity_refstate-crust.xmf,1779,3.18533e-06,-2.3093e-06,0,6.2293e-06,-6.99925e+08,-7.00302e+08,-7.00143e+08,427330,-0.0325234,-0.128633,-0,0.13268,14127.4,-25490.8,0,29143.8,-427330
step02_gravity_refstate-crust.xmf,1780,2.79672e-06,-1.88793e-06,0,5.94502e-06,-6.4877e+08,-6.49092e+08,-6.48962e+08,407829,-0.0331616,-0.11376,-0,0.118495,15411,-23627.5,0,28209.2,-407829
step02_gravity_refstate-crust.xmf,1781,2.99962e-06,-2.10907e-06,0,6.07329e-06,-6.75806e+08,-6.76156e+08,-6.76012e+08,416628,-0.0328763,-0.120838,-0,0.12523,14775.4,-24612.3,0,28706.7,-416628
step02_gravity_refstate-crust.xmf,1782,2.50384e-06,-1.80926e-06,0,5.20854e-06,-6.1995e+08,-6.20245e+08,-6.20121e+08,357306,-0.0299112,-0.0906085,-0,0.0954179,17350.9,-22577.2,0,28474.3,-357306
step02_gravity_refstate-crust.xmf,1783,2.21573e-06,-1.6408e-06,0,4.58719e-06,-5.85845e+08,-5.8611e+08,-5.85997e+08,314681,-0.0269977,-0.0694367,-0,0.0745005,19406.1,-21334.7,0,28840.3,-314681
step02_gravity_refstate-crust.xmf,1784,2.09343e-06,-1.61357e-06,0,4.09646e-06,-5.84575e+08,-5.84829e+08,-5.84719e+08,281017,-0.023906,-0.0545792,-0,0.0595851,20876.5,-21288,0,29816.2,-281017
step02_gravity_refstate-crust.xmf,1785,1.93854e-06,-1.54649e-06,0,3.62193e-06,-5.85095e+08,-5.85335e+08,-5.85228e+08,248464,-0.020837,-0.0405437,-0,0.0455848,22392.6,-21306.4,0,30909.5,-248464
step02_gravity_refstate-crust.xmf,1786,3.98709e-06,-3.09745e-06,0,1.14764e-05,-8.45473e+08,-8.45959e+08,-8.45746e+08,787281,-0.0272037,-0.265735,-0,0.267124,7365.84,-30791.6,0,31660.4,-787281
step02_gravity_refstate-crust.xmf,1787,4.27706e-06,-2.77574e-06,0,1.11399e-05,-8.27882e+08,-8.28366e+08,-8.28175e+08,764194,-0.0322182,-0.256032,-0,0.258051,7717.93,-30152.9,0,31124.9,-764194
step02_gravity_refstate-crust.xmf,1788,4.19983e-06,-3.27719e-06,0,9.8833e-06,-8.29728e+08,-8.30241e+08,-8.30016e+08,677994,-0.028709,-0.235033,-0,0.23678,8403.34,-30219,0,31365.7,-677994
step02_gravity_refstate-crust.xmf,1789,1.52437e-06,-6.98527e-07,0,1.61499e-06,-4.30089e+08,-4.30242e+08,-4.30194e+08,110789,-0.0116826,0.0148518,-0,0.018896,32033.8,-15662.9,0,35658,-110789
step02_gravity_refstate-crust.xmf,1790,1.6654e-06,-5.92942e-07,0,8.68177e-07,-3.78943e+08,-3.79098e+08,-3.79057e+08,59556.9,-0.00727563,0.0249525,-0,0.0259916,35614.5,-13801.6,0,38195.2,-59556.9
step02_gravity_refstate-crust.xmf,1791,1.85757e-06,-5.83523e-07,0,4.75103e-07,-3.35583e+08,-3.3575e+08,-3.3571e+08,32592.1,-0.0045931,0.0274263,-0,0.0278083,37531.5,-12223.8,0,39472,-32592.1
step02_gravity_refstate-crust.xmf,1792,2.04279e-06,-6.04387e-07,0,5.61077e-10,-3.00481e+08,-3.00663e+08,-3.00621e+08,38.4899,-3.25335e-19,0.0282532,-0,0.0282532,40000,-10946.6,0,41470.8,-38.4899
step02_gravity_refstate-crust.xmf,1793,1.56868e-05,-7.07663e-05,0,4.03652e-05,-1.04505e+09,-1.05098e+09,-1.04613e+09,2.76906e+06,0.0474389,-0.466302,0,0.468708,2000,-38000,0,38052.6,-2.76906e+06
step02_gravity_refstate-crust.xmf,1794,1.04262e-05,-4.43192e-05,0,3.19649e-05,-1.03737e+09,-1.04113e+09,-1.03809e+09,2.19279e+06,0.0484576,-0.442489,0,0.445135,2435.31,-37740.2,0,37818.7,-2.19279e+06
step02_gravity_refstate-crust.xmf,1795,1.79873e-06,-1.05538e-05,0,2.2274e-05,-9.47383e+08,-9.4823e+08,-9.47506e+08,1.528e+06,0.017984,-0.373037,0,0.37347,4581.79,-34481.4,0,34784.4,-1.528e+06
step02_gravity_refstate-crust.xmf,1796,2.20433e-05,-7.45878e-05,0,2.24557e-05,-1.0598e+09,-1.06643e+09,-1.06131e+09,1.54046e+06,0.0378686,-0.451889,0,0.453473,1530.93,-38556.7,0,38587,-1.54046e+06
step02_gravity_refstate-crust.xmf,1797,2.42077e-05,-7.84197e-05,0,8.42818e-06,-1.07093e+09,-1.07797e+09,-1.07259e+09,578173,0.0147452,-0.444417,0,0.444662,610.658,-38964.7,0,38969.4,-578173
step02_gravity_refstate-crust.xmf,1798,2.27244e-05,-7.49091e-05,0,1.66456e-05,-1.06934e+09,-1.07604e+09,-1.0709e+09,1.14189e+06,0.0284102,-0.437269,0,0.438191,1188.45,-38906.5,0,38924.7,-1.14189e+06
step02_gravity_refstate-crust.xmf,1799,2.06532e-05,-7.39593e-05,0,-7.29863e-08,-1.0849e+09,-1.09139e+09,-1.08631e+09,-5006.86,-8.19608e-06,-0.40997,-0,0.40997,0,-39465.8,0,39465.8,-5006.86
step02_gravity_refstate-crust.xmf,1800,1.80022e-05,-7.0525e-05,0,-3.75704e-06,-1.09238e+09,-1.09845e+09,-1.09362e+09,-257733,-0.0049027,-0.39004,-0,0.390071,-273.339,-39732.9,-0,39733.8,-257733
step02_gravity_refstate-crust.xmf,1801,1.52256e-06,-8.87137e-07,0,2.26999e-06,-4.74404e+08,-4.74569e+08,-4.74508e+08,155722,-0.0149344,0.00114684,-0,0.0149784,28911.4,-17275.9,0,33679.8,-155722
step02_gravity_refstate-crust.xmf,1802,1.51233e-06,-1.01453e-06,0,2.43976e-06,-5.16889e+08,-5.17062e+08,-5.16993e+08,167368,-0.0149123,-0.00355261,-0,0.0153297,27845.1,-18822.4,0,33610,-167368
step02_gravity_refstate-crust.xmf,1803,1.76779e-06,-1.4414e-06,0,3.17236e-06,-5.8673e+08,-5.8695e+08,-5.86851e+08,217624,-0.0178459,-0.027353,-0,0.0326598,23965.6,-21365.4,0,32106.6,-217624
step02_gravity_refstate-crust.xmf,1804,3.84825e-06,-2.39356e-06,0,8.09909e-06,-7.49211e+08,-7.49639e+08,-7.49475e+08,555598,-0.0370343,-0.179775,-0,0.18355,11010.3,-27287.6,0,29425.2,-555598
step02_gravity_refstate-crust.xmf,1805,3.35022e-06,-2.53394e-06,0,6.34874e-06,-7.22476e+08,-7.2288e+08,-7.22706e+08,435523,-0.0317883,-0.136064,-0,0.139728,13534,-26312.1,0,29588.8,-435523
step02_gravity_refstate-crust.xmf,1806,2.6826e-06,-2.02654e-06,0,5.29712e-06,-6.49929e+08,-6.50252e+08,-6.50113e+08,363382,-0.0296006,-0.0968555,-0,0.101278,16680,-23669,0,28955.9,-363382
step02_gravity_refstate-crust.xmf,1807,2.37076e-06,-1.85069e-06,0,4.65253e-06,-6.19645e+08,-6.19934e+08,-6.19808e+08,319163,-0.0266202,-0.0748744,-0,0.0794658,18709.4,-22565.5,0,29312.8,-319163
step02_gravity_refstate-crust.xmf,1808,3.6794e-06,-3.15827e-06,0,1.23402e-05,-8.57619e+08,-8.58088e+08,-8.57872e+08,846537,-0.0238642,-0.280207,-0,0.281221,6917.09,-31232.5,0,31989.3,-846537
step02_gravity_refstate-crust.xmf,1809,3.19186e-06,-3.75952e-06,0,1.26546e-05,-8.7361e+08,-8.74087e+08,-8.73829e+08,868108,-0.0172826,-0.286595,-0,0.287116,6695.21,-31811.7,0,32508.6,-868108
step02_gravity_refstate-crust.xmf,1810,4.01217e-06,-2.72294e-06,0,8.21693e-06,-7.71477e+08,-7.71939e+08,-7.71752e+08,563681,-0.0349916,-0.187824,-0,0.191056,10534.1,-28098.4,0,30008.1,-563681
step02_gravity_refstate-crust.xmf,1811,4.07985e-06,-3.34006e-06,0,8.47769e-06,-8.1189e+08,-8.12399e+08,-8.1217e+08,581569,-0.0292572,-0.205141,-0,0.207217,9600.2,-29569,0,31088.4,-581569
step02_gravity_refstate-crust.xmf,1812,4.09527e-06,-3.03766e-06,0,8.34193e-06,-7.92302e+08,-7.92791e+08,-7.92583e+08,572256,-0.0324257,-0.196349,-0,0.199008,10060.4,-28856.4,0,30559.8,-572256
step02_gravity_refstate-crust.xmf,1813,3.91856e-06,-3.64745e-06,0,8.59447e-06,-8.31461e+08,-8.3198e+08,-8.3173e+08,589581,-0.0250206,-0.213451,-0,0.214913,9177.71,-30280.4,0,31640.7,-589581
step02_gravity_refstate-crust.xmf,1814,1.47864e-06,-6.31681e-07,0,1.16725e-06,-4.31898e+08,-4.32043e+08,-4.32e+08,80073.6,-0.0084639,0.022287,-0,0.02384,34146.1,-15728.7,0,37594.6,-80073.6
step02_gravity_refstate-crust.xmf,1815,1.70426e-05,-6.61995e-05,0,3.09407e-05,-1.05729e+09,-1.063e+09,-1.05846e+09,2.12253e+06,0.0465918,-0.439009,0,0.441474,1939.8,-38458.3,0,38507.2,-2.12253e+06
step02_gravity_refstate-crust.xmf,1816,7.00047e-06,-4.69991e-05,0,3.14835e-05,-1.05211e+09,-1.05581e+09,-1.05259e+09,2.15977e+06,0.052686,-0.418678,0,0.42198,2438.19,-38258.7,0,38336.3,-2.15977e+06
step02_gravity_refstate-crust.xmf,1817,7.69078e-06,-3.60585e-05,0,2.93691e-05,-1.02929e+09,-1.03229e+09,-1.02981e+09,2.01472e+06,0.0489543,-0.422806,0,0.42563,2866.75,-37447.5,0,37557.1,-2.01472e+06
step02_gravity_refstate-crust.xmf,1818,5.12904e-06,-2.92442e-05,0,2.67196e-05,-1.01971e+09,-1.02207e+09,-1.02006e+09,1.83297e+06,0.0481501,-0.402679,0,0.405547,3334.57,-37099,0,37248.6,-1.83297e+06
step02_gravity_refstate-crust.xmf,1819,2.53802e-06,-4.37273e-06,0,1.36433e-05,-8.90536e+08,-8.9101e+08,-8.9071e+08,935931,-0.00987558,-0.298817,-0,0.29898,6330.44,-32424.3,0,33036.5,-935931
step02_gravity_refstate-crust.xmf,1820,1.93974e-06,-5.26654e-06,0,1.5049e-05,-9.06792e+08,-9.07286e+08,-9.06925e+08,1.03236e+06,-0.00212511,-0.312937,-0,0.312944,5941.68,-33012.4,0,33542.8,-1.03236e+06
step02_gravity_refstate-crust.xmf,1821,1.53542e-06,-6.4646e-06,0,1.67645e-05,-9.2146e+08,-9.22009e+08,-9.21566e+08,1.15005e+06,0.00523438,-0.328086,0,0.328127,5554.83,-33542.9,0,33999.7,-1.15005e+06
step02_gravity_refstate-crust.xmf,1822,3.88475e-06,-2.35658e-05,0,2.54992e-05,-1.00406e+09,-1.00594e+09,-1.00432e+09,1.74924e+06,0.0434905,-0.392284,0,0.394688,3728.09,-36532.9,0,36722.6,-1.74924e+06
step02_gravity_refstate-crust.xmf,1823,2.79526e-06,-1.89036e-05,0,2.39245e-05,-9.89477e+08,-9.90966e+08,-9.89669e+08,1.64122e+06,0.0381987,-0.380139,0,0.382053,4101.81,-36004.9,0,36237.8,-1.64122e+06
step02_gravity_refstate-crust.xmf,1824,1.99552e-06,-1.49917e-05,0,2.22564e-05,-9.74408e+08,-9.75574e+08,-9.74545e+08,1.52679e+06,0.0317958,-0.367897,0,0.369269,4459.46,-35459.2,0,35738.5,-1.52679e+06
step02_gravity_refstate-crust.xmf,1825,1.47937e-06,-1.18336e-05,0,2.0406e-05,-9.59949e+08,-9.60862e+08,-9.60051e+08,1.39985e+06,0.0250485,-0.354088,0,0.354973,4823.43,-34935.6,0,35267,-1.39985e+06
step02_gravity_refstate-crust.xmf,1826,1.37278e-06,-9.51714e-06,0,1.92976e-05,-9.4545e+08,-9.46197e+08,-9.45544e+08,1.32381e+06,0.0176707,-0.346976,0,0.347426,5054.96,-34410.9,0,34780.2,-1.32381e+06
step02_gravity_refstate-crust.xmf,1827,1.45381e-06,-7.60686e-06,0,1.88812e-05,-9.31361e+08,-9.31982e+08,-9.3146e+08,1.29525e+06,0.0101236,-0.345715,0,0.345863,5159.84,-33901.2,0,34291.6,-1.29525e+06
step02_gravity_refstate-crust.xmf,1828,2.16938e-05,-7.42899e-05,0,5.95655e-06,-1.08282e+09,-1.0894e+09,-1.08431e+09,408620,0.00955438,-0.41344,0,0.41355,449.795,-39393.9,0,39396.4,-408620
step02_gravity_refstate-crust.xmf,1829,1.42847e-06,-7.88193e-07,0,1.8095e-06,-4.78754e+08,-4.78906e+08,-4.78852e+08,124132,-0.0117939,0.0114714,-0,0.0164526,30937.6,-17434.1,0,35511.7,-124132
step02_gravity_refstate-crust.xmf,1830,1.54247e-06,-1.12963e-06,0,2.60039e-06,-5.4679e+08,-5.46974e+08,-5.46896e+08,178387,-0.0151478,-0.00861658,-0,0.0174271,26844.8,-19910.9,0,33422.9,-178387
step02_gravity_refstate-crust.xmf,1831,1.60872e-06,-1.34252e-06,0,2.80299e-06,-5.92381e+08,-5.92583e+08,-5.92491e+08,192285,-0.0153185,-0.0171979,-0,0.023031,25280.4,-21570.6,0,33232.4,-192285
step02_gravity_refstate-crust.xmf,1832,3.69154e-06,-2.66267e-06,0,7.19508e-06,-7.47839e+08,-7.48275e+08,-7.48093e+08,493582,-0.0336185,-0.160938,-0,0.164412,11975.1,-27236.7,0,29753,-493582
step02_gravity_refstate-crust.xmf,1833,3.50282e-06,-2.78527e-06,0,6.39733e-06,-7.46137e+08,-7.46568e+08,-7.46377e+08,438857,-0.0301574,-0.142414,-0,0.145572,13017.3,-27173.7,0,30130.7,-438857
step02_gravity_refstate-crust.xmf,1834,3.19262e-06,-2.60829e-06,0,5.77757e-06,-7.22385e+08,-7.22783e+08,-7.22604e+08,396341,-0.0289184,-0.122201,-0,0.125576,14417,-26308,0,29999.4,-396341
step02_gravity_refstate-crust.xmf,1835,3.00648e-06,-2.49272e-06,0,5.43998e-06,-7.05787e+08,-7.06164e+08,-7.05993e+08,373182,-0.0281846,-0.110577,-0,0.114112,15316.5,-25703.2,0,29920.7,-373182
step02_gravity_refstate-crust.xmf,1836,2.84827e-06,-2.25483e-06,0,5.36117e-06,-6.78278e+08,-6.78628e+08,-6.78473e+08,367776,-0.0289855,-0.103147,-0,0.107142,16029.1,-24701.4,0,29446.4,-367776
step02_gravity_refstate-crust.xmf,1837,2.51633e-06,-2.06185e-06,0,4.70558e-06,-6.51231e+08,-6.51545e+08,-6.51403e+08,322803,-0.0260673,-0.0807043,-0,0.0848098,18000.1,-23715.7,0,29773.1,-322803
step02_gravity_refstate-crust.xmf,1838,2.20451e-06,-1.81849e-06,0,4.14158e-06,-6.19382e+08,-6.19658e+08,-6.19533e+08,284113,-0.0234156,-0.0599381,-0,0.0643496,20118.1,-22555.3,0,30223.8,-284113
step02_gravity_refstate-crust.xmf,1839,2.02781e-06,-1.72595e-06,0,3.66867e-06,-6.20196e+08,-6.20453e+08,-6.20335e+08,251671,-0.0202405,-0.0456046,-0,0.0498944,21597.3,-22584.4,0,31249,-251671
step02_gravity_refstate-crust.xmf,1840,1.82674e-06,-1.60211e-06,0,3.22579e-06,-6.21788e+08,-6.22024e+08,-6.21914e+08,221289,-0.0172492,-0.0323724,-0,0.0366811,23104,-22641.7,0,32348.7,-221289
step02_gravity_refstate-crust.xmf,1841,3.37282e-06,-4.02059e-06,0,1.07912e-05,-8.67877e+08,-8.68384e+08,-8.68108e+08,740278,-0.0173914,-0.259276,-0,0.259859,7471.85,-31603.3,0,32474.6,-740278
step02_gravity_refstate-crust.xmf,1842,3.81219e-06,-3.69992e-06,0,1.00206e-05,-8.49856e+08,-8.50371e+08,-8.50117e+08,687411,-0.0228728,-0.243508,-0,0.24458,8035.73,-30949.5,0,31975.7,-687411
step02_gravity_refstate-crust.xmf,1843,3.67647e-06,-3.91451e-06,0,8.82413e-06,-8.49736e+08,-8.50257e+08,-8.49989e+08,605335,-0.0201985,-0.222042,-0,0.222959,8768.06,-30944.3,0,32162.5,-605335
step02_gravity_refstate-crust.xmf,1844,1.34583e-06,-6.85864e-07,0,1.36414e-06,-4.81659e+08,-4.81799e+08,-4.81752e+08,93579.9,-0.00878916,0.0199402,-0,0.0217913,33044.8,-17539.7,0,37411.2,-93579.9
step02_gravity_refstate-crust.xmf,1845,1.4354e-06,-5.78079e-07,0,7.71159e-07,-4.35802e+08,-4.3594e+08,-4.359e+08,52901.5,-0.00556105,0.0271635,-0,0.0277269,36085.8,-15870.7,0,39421.6,-52901.5
step02_gravity_refstate-crust.xmf,1846,1.54312e-06,-5.57486e-07,0,4.25676e-07,-4.05877e+08,-4.06022e+08,-4.05983e+08,29201.4,-0.00333591,0.0292456,-0,0.0294353,37834.2,-14781.8,0,40619.3,-29201.4
step02_gravity_refstate-crust.xmf,1847,1.68847e-06,-5.57115e-07,0,1.71579e-09,-3.71215e+08,-3.71369e+08,-3.71331e+08,117.703,-2.35907e-19,0.0297472,-0,0.0297472,40000,-13520.4,0,42223.2,-117.703
step02_gravity_refstate-crust.xmf,1848,4.34589e-06,-3.70277e-05,0,2.77935e-05,-1.04487e+09,-1.0477e+09,-1.04516e+09,1.90663e+06,0.0539966,-0.401845,0,0.405457,2875,-37999.7,0,38108.3,-1.90663e+06
step02_gravity_refstate-crust.xmf,1849,1.772e-05,-6.54165e-05,0,2.45698e-05,-1.07126e+09,-1.07697e+09,-1.07248e+09,1.68549e+06,0.0397839,-0.413077,0,0.414988,1776.84,-38970.8,0,39011.3,-1.68549e+06
step02_gravity_refstate-crust.xmf,1850,1.97876e-05,-7.07641e-05,0,1.2514e-05,-1.08517e+09,-1.09138e+09,-1.08652e+09,858464,0.0187834,-0.401352,0,0.401791,931.641,-39477,0,39488,-858464
step02_gravity_refstate-crust.xmf,1851,1.37007e-06,-8.95301e-07,0,1.97504e-06,-5.24917e+08,-5.25073e+08,-5.25011e+08,135488,-0.0117569,0.00754939,-0,0.013972,29816.7,-19114.3,0,35417.4,-135488
step02_gravity_refstate-crust.xmf,1852,1.49188e-06,-1.20305e-06,0,2.5116e-06,-5.85203e+08,-5.85388e+08,-5.85306e+08,172295,-0.0135891,-0.00824407,-0,0.0158943,26649.5,-21309.1,0,34121.5,-172295
step02_gravity_refstate-crust.xmf,1853,1.35745e-06,-1.02621e-06,0,2.14508e-06,-5.7127e+08,-5.71434e+08,-5.71364e+08,147153,-0.0116373,0.00229251,-0,0.011861,28508.6,-20801.6,0,35290.9,-147153
step02_gravity_refstate-crust.xmf,1854,1.62521e-06,-1.45757e-06,0,2.82077e-06,-6.25094e+08,-6.25305e+08,-6.25205e+08,193505,-0.0144632,-0.0204583,-0,0.0250545,24603,-22761.5,0,33517.1,-193505
step02_gravity_refstate-crust.xmf,1855,3.81028e-06,-2.97296e-06,0,7.25327e-06,-7.71246e+08,-7.71711e+08,-7.71507e+08,497574,-0.0313966,-0.168406,-0,0.171308,11466.4,-28088.8,0,30339.1,-497574
step02_gravity_refstate-crust.xmf,1856,3.25054e-06,-2.83249e-06,0,5.71565e-06,-7.44304e+08,-7.44722e+08,-7.44527e+08,392094,-0.0270771,-0.126169,-0,0.129042,14019.9,-27105.9,0,30517,-392094
step02_gravity_refstate-crust.xmf,1857,2.64112e-06,-2.26424e-06,0,4.74795e-06,-6.7963e+08,-6.79966e+08,-6.79811e+08,325709,-0.0253153,-0.0865883,-0,0.090213,17319.2,-24749.8,0,30207.7,-325709
step02_gravity_refstate-crust.xmf,1858,2.31339e-06,-2.01984e-06,0,4.16211e-06,-6.52823e+08,-6.5312e+08,-6.52982e+08,285520,-0.0225969,-0.0652235,-0,0.0690269,19384.1,-23772.9,0,30674,-285520
step02_gravity_refstate-crust.xmf,1859,2.59144e-06,-4.67502e-06,0,1.14458e-05,-8.90061e+08,-8.9056e+08,-8.90239e+08,785184,-0.00820151,-0.26972,-0,0.269845,7078.21,-32406.8,0,33170.8,-785184
step02_gravity_refstate-crust.xmf,1860,3.84453e-06,-3.27417e-06,0,7.29759e-06,-7.93355e+08,-7.93843e+08,-7.93619e+08,500615,-0.0285483,-0.175955,-0,0.178256,10976.6,-28893.4,0,30908.1,-500615
step02_gravity_refstate-crust.xmf,1861,3.58529e-06,-3.83818e-06,0,7.44098e-06,-8.34899e+08,-8.35408e+08,-8.35145e+08,510451,-0.0207829,-0.192131,-0,0.193252,10014.3,-30403.9,0,32010.7,-510451
step02_gravity_refstate-crust.xmf,1862,3.78997e-06,-3.55336e-06,0,7.38511e-06,-8.13888e+08,-8.14392e+08,-8.14148e+08,506618,-0.0252679,-0.184313,-0,0.186037,10475.4,-29640.3,0,31436.9,-506618
step02_gravity_refstate-crust.xmf,1863,3.29739e-06,-4.07157e-06,0,7.65058e-06,-8.53027e+08,-8.53532e+08,-8.53253e+08,524830,-0.0163316,-0.201119,-0,0.201781,9540.21,-31062.3,0,32494.4,-524830
step02_gravity_refstate-crust.xmf,1864,1.27281e-06,-6.04534e-07,0,9.27958e-07,-4.8355e+08,-4.83679e+08,-4.83638e+08,63657.9,-0.00595012,0.0262225,-0,0.0268891,35183.4,-17608.3,0,39343.7,-63657.9
step02_gravity_refstate-crust.xmf,1865,9.80216e-06,-5.07377e-05,0,2.8822e-05,-1.06968e+09,-1.07383e+09,-1.07035e+09,1.97719e+06,0.0489173,-0.389327,0,0.392388,2397.16,-38903.8,0,38977.6,-1.97719e+06
step02_gravity_refstate-crust.xmf,1866,3.72174e-06,-3.89397e-05,0,2.79333e-05,-1.06005e+09,-1.06298e+09,-1.0603e+09,1.91623e+06,0.0546656,-0.379738,0,0.383653,2896.63,-38546.9,0,38655.6,-1.91623e+06
step02_gravity_refstate-crust.xmf,1867,3.47315e-06,-3.12796e-05,0,2.56763e-05,-1.03708e+09,-1.03947e+09,-1.03732e+09,1.7614e+06,0.0537761,-0.387026,0,0.390744,3280.74,-37721.6,0,37864,-1.7614e+06
step02_gravity_refstate-crust.xmf,1868,2.07553e-06,-2.34547e-05,0,2.28676e-05,-1.01856e+09,-1.02031e+09,-1.0187e+09,1.56872e+06,0.0499323,-0.366472,0,0.369858,3956.16,-37053.7,0,37264.3,-1.56872e+06
step02_gravity_refstate-crust.xmf,1869,1.89836e-06,-5.45446e-06,0,1.24961e-05,-9.08363e+08,-9.08868e+08,-9.08494e+08,857232,9.12928e-05,-0.282171,0,0.282171,6663.6,-33069.1,0,33733.8,-857232
step02_gravity_refstate-crust.xmf,1870,1.34826e-06,-6.50793e-06,0,1.38406e-05,-9.24622e+08,-9.25161e+08,-9.24715e+08,949468,0.00794191,-0.295784,0,0.295891,6247.04,-33657.2,0,34232,-949468
step02_gravity_refstate-crust.xmf,1871,1.00398e-06,-8.15977e-06,0,1.58136e-05,-9.40822e+08,-9.41451e+08,-9.40891e+08,1.08482e+06,0.0159806,-0.314041,0,0.314447,5742.77,-34243,0,34721.2,-1.08482e+06
step02_gravity_refstate-crust.xmf,1872,1.54389e-06,-1.94579e-05,0,2.15433e-05,-1.0048e+09,-1.00624e+09,-1.0049e+09,1.47787e+06,0.0454145,-0.35629,0,0.359173,4331.84,-36556.8,0,36812.6,-1.47787e+06
step02_gravity_refstate-crust.xmf,1873,1.07363e-06,-1.58887e-05,0,2.01033e-05,-9.90296e+08,-9.9146e+08,-9.9037e+08,1.37909e+06,0.0397252,-0.345247,0,0.347525,4707.89,-36032.5,0,36338.7,-1.37909e+06
step02_gravity_refstate-crust.xmf,1874,7.65021e-07,-1.28131e-05,0,1.85318e-05,-9.75307e+08,-9.76238e+08,-9.75359e+08,1.27128e+06,0.0330893,-0.33317,0,0.334809,5089.6,-35490.3,0,35853.4,-1.27128e+06
step02_gravity_refstate-crust.xmf,1875,7.13585e-07,-1.02554e-05,0,1.69901e-05,-9.59295e+08,-9.60047e+08,-9.59343e+08,1.16552e+06,0.0253881,-0.321636,0,0.322636,5455.54,-34911.1,0,35334.8,-1.16552e+06
step02_gravity_refstate-crust.xmf,1876,1.70467e-05,-6.49908e-05,0,1.95099e-05,-1.08533e+09,-1.09096e+09,-1.0865e+09,1.33838e+06,0.0289018,-0.389036,0,0.390108,1492.82,-39480.9,0,39509.1,-1.33838e+06
step02_gravity_refstate-crust.xmf,1877,1.23213e-06,-7.62053e-07,0,1.52104e-06,-5.30745e+08,-5.30881e+08,-5.30829e+08,104343,-0.0088055,0.0171198,-0,0.0192516,31930.2,-19326.1,0,37323.4,-104343
step02_gravity_refstate-crust.xmf,1878,1.42427e-06,-1.29226e-06,0,2.4472e-06,-6.2454e+08,-6.24726e+08,-6.24638e+08,167878,-0.012094,-0.00947087,-0,0.015361,26185.5,-22740.8,0,34681.8,-167878
step02_gravity_refstate-crust.xmf,1879,3.55653e-06,-3.07788e-06,0,6.40351e-06,-7.702e+08,-7.70655e+08,-7.70444e+08,439281,-0.0279182,-0.149539,-0,0.152123,12467.3,-28049.5,0,30695.4,-439281
step02_gravity_refstate-crust.xmf,1880,3.30982e-06,-3.06289e-06,0,5.70064e-06,-7.6871e+08,-7.69147e+08,-7.68937e+08,391064,-0.0246667,-0.131891,-0,0.134178,13501.3,-27994.3,0,31080,-391064
step02_gravity_refstate-crust.xmf,1881,3.01064e-06,-2.77761e-06,0,5.1516e-06,-7.39448e+08,-7.39845e+08,-7.39655e+08,353400,-0.0244738,-0.110647,-0,0.113321,15087,-26928.2,0,30866.6,-353400
step02_gravity_refstate-crust.xmf,1882,2.73091e-06,-2.48173e-06,0,4.71922e-06,-7.07768e+08,-7.08125e+08,-7.07955e+08,323739,-0.0238894,-0.0914358,-0,0.0945051,16734.9,-25774.2,0,30730.6,-323739
step02_gravity_refstate-crust.xmf,1883,2.41184e-06,-2.21611e-06,0,4.18876e-06,-6.83426e+08,-6.83743e+08,-6.83591e+08,287349,-0.0216769,-0.0712403,-0,0.0744652,18612.7,-24887.1,0,31077.3,-287349
step02_gravity_refstate-crust.xmf,1884,2.08919e-06,-1.91492e-06,0,3.67311e-06,-6.54242e+08,-6.54517e+08,-6.54386e+08,251975,-0.0193232,-0.0506609,-0,0.054221,20819.1,-23823.8,0,31638.7,-251975
step02_gravity_refstate-crust.xmf,1885,1.87293e-06,-1.76165e-06,0,3.24223e-06,-6.55676e+08,-6.55926e+08,-6.55805e+08,222417,-0.0162995,-0.0371481,-0,0.0405667,22293.6,-23875.4,0,32665.5,-222417
step02_gravity_refstate-crust.xmf,1886,1.64451e-06,-1.59186e-06,0,2.84587e-06,-6.57428e+08,-6.5765e+08,-6.57541e+08,195227,-0.0135716,-0.024888,-0,0.0283478,23780.4,-23938.5,0,33742.5,-195227
step02_gravity_refstate-crust.xmf,1887,3.16123e-06,-4.29645e-06,0,9.11107e-06,-8.69375e+08,-8.69887e+08,-8.69592e+08,625019,-0.0139638,-0.231847,-0,0.232267,8327.44,-31656.6,0,32733.6,-625019
step02_gravity_refstate-crust.xmf,1888,2.93527e-06,-4.31429e-06,0,7.92058e-06,-8.70411e+08,-8.70909e+08,-8.70613e+08,543352,-0.0111577,-0.209454,-0,0.209751,9116.6,-31693.4,0,32978.5,-543352
step02_gravity_refstate-crust.xmf,1889,1.13128e-06,-6.44479e-07,0,1.10419e-06,-5.33357e+08,-5.33478e+08,-5.33434e+08,75747.7,-0.00623991,0.0243565,-0,0.0251431,34044.6,-19421,0,39194.5,-75747.7
step02_gravity_refstate-crust.xmf,1890,1.24841e-06,-5.4696e-07,0,4.48218e-07,-4.78738e+08,-4.78861e+08,-4.78823e+08,30747.7,-0.00291283,0.030498,-0,0.0306368,37650.7,-17433.1,0,41490.8,-30747.7
step02_gravity_refstate-crust.xmf,1891,1.3896e-06,-5.36675e-07,0,3.3146e-09,-4.4054e+08,-4.40672e+08,-4.40635e+08,227.382,-2.07643e-19,0.0311273,-0,0.0311273,40000,-16043.1,0,43097.3,-227.382
step02_gravity_refstate-crust.xmf,1892,1.5762e-06,-3.15902e-05,0,2.54222e-05,-1.05245e+09,-1.05472e+09,-1.05256e+09,1.74396e+06,0.056225,-0.366252,0,0.370542,3340.53,-38272.9,0,38418.4,-1.74396e+06
step02_gravity_refstate-crust.xmf,1893,2.09824e-06,-2.66012e-05,0,2.34988e-05,-1.03082e+09,-1.03279e+09,-1.03097e+09,1.61202e+06,0.0532887,-0.369097,0,0.372924,3710.55,-37495.4,0,37678.6,-1.61202e+06
step02_gravity_refstate-crust.xmf,1894,1.22704e-05,-5.543e-05,0,2.4872e-05,-1.08567e+09,-1.09032e+09,-1.08652e+09,1.70622e+06,0.0373919,-0.370615,0,0.372497,2087.57,-39488.9,0,39544,-1.70622e+06
step02_gravity_refstate-crust.xmf,1895,1.14561e-06,-8.46756e-07,0,1.64886e-06,-5.77387e+08,-5.77524e+08,-5.77466e+08,113112,-0.00853248,0.0137926,-0,0.0162185,30798.1,-21023.7,0,37289.7,-113112
step02_gravity_refstate-crust.xmf,1896,1.25341e-06,-1.1091e-06,0,2.09645e-06,-6.2286e+08,-6.23022e+08,-6.22946e+08,143816,-0.00992562,0.000807628,-0,0.00995842,27884.4,-22679.2,0,35942.8,-143816
step02_gravity_refstate-crust.xmf,1897,1.40579e-06,-1.39222e-06,0,2.45182e-06,-6.59275e+08,-6.59467e+08,-6.59372e+08,168195,-0.0109255,-0.0127343,-0,0.0167788,25441.8,-24005.1,0,34979,-168195
step02_gravity_refstate-crust.xmf,1898,3.55112e-06,-3.35219e-06,0,6.40508e-06,-7.9355e+08,-7.94024e+08,-7.93794e+08,439388,-0.0249388,-0.156574,-0,0.158548,11942.6,-28899.2,0,31269.6,-439388
step02_gravity_refstate-crust.xmf,1899,3.00343e-06,-3.00476e-06,0,5.06794e-06,-7.66798e+08,-7.6721e+08,-7.67004e+08,347661,-0.0216914,-0.11553,-0,0.117548,14558.9,-27923.5,0,31491,-347661
step02_gravity_refstate-crust.xmf,1900,2.74701e-06,-2.69037e-06,0,4.61261e-06,-7.37438e+08,-7.37811e+08,-7.37626e+08,316425,-0.0215098,-0.0953417,-0,0.0977379,16216.9,-26854.1,0,31370.8,-316425
step02_gravity_refstate-crust.xmf,1901,2.50493e-06,-2.37199e-06,0,4.26864e-06,-7.0657e+08,-7.06904e+08,-7.06742e+08,292829,-0.0210474,-0.0776992,-0,0.0804994,17874.8,-25729.8,0,31329.4,-292829
step02_gravity_refstate-crust.xmf,1902,2.14439e-06,-2.10116e-06,0,3.66228e-06,-6.87756e+08,-6.88047e+08,-6.87903e+08,251232,-0.0180245,-0.0559515,-0,0.0587831,20030.6,-25043.9,0,32069,-251232
step02_gravity_refstate-crust.xmf,1903,2.52316e-06,-4.73252e-06,0,9.64096e-06,-8.8901e+08,-8.89508e+08,-8.89183e+08,661370,-0.00665345,-0.242492,-0,0.242584,7880.19,-32368.2,0,33313.6,-661370
step02_gravity_refstate-crust.xmf,1904,1.78737e-06,-5.33618e-06,0,1.04032e-05,-9.08389e+08,-9.08878e+08,-9.08512e+08,713658,0.00154266,-0.253424,0,0.253429,7445.42,-33069.8,0,33897.6,-713658
step02_gravity_refstate-crust.xmf,1905,3.44449e-06,-3.61752e-06,0,6.42075e-06,-8.16331e+08,-8.16815e+08,-8.16567e+08,440463,-0.0212304,-0.164111,-0,0.165479,11412.2,-29727.7,0,31842.9,-440463
step02_gravity_refstate-crust.xmf,1906,2.79403e-06,-4.09618e-06,0,6.55098e-06,-8.61127e+08,-8.61599e+08,-8.61318e+08,449397,-0.0109326,-0.179759,-0,0.180091,10386,-31355.1,0,33030.5,-449397
step02_gravity_refstate-crust.xmf,1907,3.21297e-06,-3.8598e-06,0,6.45991e-06,-8.38026e+08,-8.38511e+08,-8.38247e+08,443150,-0.0167896,-0.171673,-0,0.172492,10906.1,-30516.2,0,32406.5,-443150
step02_gravity_refstate-crust.xmf,1908,2.64635e-06,-4.25792e-06,0,7.03152e-06,-8.71952e+08,-8.72425e+08,-8.72133e+08,482363,-0.00864995,-0.191555,-0,0.19175,9811.79,-31748.4,0,33230,-482363
step02_gravity_refstate-crust.xmf,1909,1.05037e-06,-5.62525e-07,0,7.07689e-07,-5.3478e+08,-5.3489e+08,-5.34852e+08,48547.5,-0.00395337,0.0292979,-0,0.0295635,36119.3,-19472.6,0,41034,-48547.5
step02_gravity_refstate-crust.xmf,1910,4.30619e-06,-3.95801e-05,0,2.77394e-05,-1.07343e+09,-1.07644e+09,-1.07373e+09,1.90292e+06,0.0511393,-0.358598,0,0.362226,2934.87,-39035.4,0,39145.6,-1.90292e+06
step02_gravity_refstate-crust.xmf,1911,1.60031e-06,-3.30288e-05,0,2.58208e-05,-1.0677e+09,-1.07007e+09,-1.06781e+09,1.77131e+06,0.054393,-0.34645,0,0.350694,3379.34,-38826,0,38972.7,-1.77131e+06
step02_gravity_refstate-crust.xmf,1912,5.80347e-07,-2.64708e-05,0,2.32065e-05,-1.04453e+09,-1.04639e+09,-1.04457e+09,1.59196e+06,0.0561771,-0.352137,0,0.35659,3783.33,-37988.7,0,38176.6,-1.59196e+06
step02_gravity_refstate-crust.xmf,1913,4.76618e-08,-2.25405e-05,0,2.1259e-05,-1.03409e+09,-1.03564e+09,-1.0341e+09,1.45837e+06,0.0546362,-0.340331,0,0.344689,4211.22,-37612.5,0,37847.5,-1.45837e+06
step02_gravity_refstate-crust.xmf,1914,-9.72312e-08,-1.91252e-05,0,1.98401e-05,-1.02073e+09,-1.02203e+09,-1.02072e+09,1.36103e+06,0.0512584,-0.332215,0,0.336146,4585.59,-37130.6,0,37412.7,-1.36103e+06
step02_gravity_refstate-crust.xmf,1915,1.08817e-06,-6.17354e-06,0,1.14291e-05,-9.26475e+08,-9.26973e+08,-9.26549e+08,784033,0.00982738,-0.265146,0,0.265328,7011.38,-33724.1,0,34445.2,-784033
step02_gravity_refstate-crust.xmf,1916,5.10327e-07,-7.34759e-06,0,1.27161e-05,-9.43472e+08,-9.44011e+08,-9.43507e+08,872324,0.0179768,-0.277853,0,0.278434,6570.57,-34338.7,0,34961.7,-872324
step02_gravity_refstate-crust.xmf,1917,-2.28391e-07,-1.60295e-05,0,1.84376e-05,-1.00667e+09,-1.00775e+09,-1.00665e+09,1.26482e+06,0.046549,-0.322865,0,0.326203,4967.43,-36623.1,0,36958.4,-1.26482e+06
step02_gravity_refstate-crust.xmf,1918,-2.93956e-07,-1.3268e-05,0,1.69884e-05,-9.92069e+08,-9.92959e+08,-9.92049e+08,1.1654e+06,0.0407427,-0.312264,0,0.31491,5360.31,-36095.5,0,36491.4,-1.1654e+06
step02_gravity_refstate-crust.xmf,1919,-2.12841e-07,-1.08855e-05,0,1.55204e-05,-9.7668e+08,-9.77412e+08,-9.76665e+08,1.0647e+06,0.0339175,-0.301036,0,0.302941,5759.12,-35539.3,0,36002.9,-1.0647e+06
step02_gravity_refstate-crust.xmf,1920,5.50284e-08,-8.91373e-06,0,1.40955e-05,-9.60389e+08,-9.61004e+08,-9.60393e+08,966953,0.0262067,-0.289756,0,0.290939,6156.73,-34950.3,0,35488.5,-966953
step02_gravity_refstate-crust.xmf,1921,7.05588e-06,-4.46794e-05,0,2.7021e-05,-1.08579e+09,-1.08934e+09,-1.08628e+09,1.85364e+06,0.0431217,-0.349223,0,0.351876,2690.08,-39488.8,0,39580.3,-1.85364e+06
step02_gravity_refstate-crust.xmf,1922,1.06306e-06,-9.20375e-07,0,1.72025e-06,-6.2367e+08,-6.23806e+08,-6.23743e+08,118009,-0.00769918,0.0106912,-0,0.013175,29786.4,-22708.2,0,37455.2,-118009
step02_gravity_refstate-crust.xmf,1923,9.92785e-07,-6.95669e-07,0,1.23643e-06,-5.82285e+08,-5.82401e+08,-5.82353e+08,84818.8,-0.00610808,0.0220202,-0,0.0228516,32907,-21201.6,0,39145.6,-84818.8
step02_gravity_refstate-crust.xmf,1924,1.17878e-06,-1.19823e-06,0,2.09396e-06,-6.61341e+08,-6.61504e+08,-6.61422e+08,143646,-0.00867208,-0.00219622,-0,0.00894586,27086.7,-24079.7,0,36242.5,-143646
step02_gravity_refstate-crust.xmf,1925,3.2412e-06,-3.3205e-06,0,5.64612e-06,-7.93204e+08,-7.93654e+08,-7.93426e+08,387324,-0.0215894,-0.138284,-0,0.13996,12953.5,-28885.3,0,31656.9,-387324
step02_gravity_refstate-crust.xmf,1926,2.96526e-06,-3.20325e-06,0,5.03163e-06,-7.9227e+08,-7.92694e+08,-7.92474e+08,345170,-0.0185808,-0.121327,-0,0.122741,13992.7,-28850.4,0,32064.7,-345170
step02_gravity_refstate-crust.xmf,1927,2.71375e-06,-2.88443e-06,0,4.51941e-06,-7.65598e+08,-7.65982e+08,-7.65784e+08,310032,-0.018721,-0.0998039,-0,0.101545,15670.5,-27878.9,0,31981.2,-310032
step02_gravity_refstate-crust.xmf,1928,2.41529e-06,-2.53635e-06,0,4.00454e-06,-7.38841e+08,-7.39181e+08,-7.39007e+08,274712,-0.0175976,-0.0773189,-0,0.0792962,17661,-26904.1,0,32182.9,-274712
step02_gravity_refstate-crust.xmf,1929,2.21028e-06,-2.29309e-06,0,3.67852e-06,-7.21588e+08,-7.21897e+08,-7.21739e+08,252346,-0.0164386,-0.0628022,-0,0.064918,19102.5,-26275.5,0,32485.5,-252346
step02_gravity_refstate-crust.xmf,1930,1.87413e-06,-1.92359e-06,0,3.20988e-06,-6.8956e+08,-6.8982e+08,-6.89689e+08,220198,-0.0148631,-0.0416988,-0,0.0442685,21519.5,-25108.7,0,33068.7,-220198
step02_gravity_refstate-crust.xmf,1931,1.63084e-06,-1.71779e-06,0,2.82163e-06,-6.90998e+08,-6.91228e+08,-6.9111e+08,193564,-0.0120974,-0.0287705,-0,0.0312103,23031,-25160.4,0,34109.7,-193564
step02_gravity_refstate-crust.xmf,1932,1.38504e-06,-1.50589e-06,0,2.46254e-06,-6.91924e+08,-6.92122e+08,-6.92019e+08,168930,-0.00969533,-0.0169538,-0,0.0195303,24587.3,-25193.4,0,35202.9,-168930
step02_gravity_refstate-crust.xmf,1933,2.32007e-06,-4.6739e-06,0,8.20907e-06,-8.89377e+08,-8.89857e+08,-8.89536e+08,563142,-0.00451259,-0.217789,-0,0.217836,8700.68,-32380.8,0,33529.4,-563142
step02_gravity_refstate-crust.xmf,1934,2.09728e-06,-4.47513e-06,0,7.11806e-06,-8.89817e+08,-8.90268e+08,-8.89961e+08,488299,-0.00250753,-0.195597,-0,0.195614,9533,-32396.2,0,33769.7,-488299
step02_gravity_refstate-crust.xmf,1935,9.04728e-07,-5.81496e-07,0,8.74141e-07,-5.81393e+08,-5.81495e+08,-5.81455e+08,59966.1,-0.00421057,0.0277701,-0,0.0280875,34939.2,-21169,0,40851.8,-59966.1
step02_gravity_refstate-crust.xmf,1936,9.66409e-07,-5.07894e-07,0,3.2443e-07,-5.45763e+08,-5.45864e+08,-5.45829e+08,22255.9,-0.00174491,0.0323181,-0,0.0323652,38178.8,-19872.2,0,43040.9,-22255.9
step02_gravity_refstate-crust.xmf,1937,1.11138e-06,-5.15492e-07,0,2.59875e-09,-5.08663e+08,-5.08775e+08,-5.08739e+08,178.274,-1.25397e-19,0.0324289,-0,0.0324289,40000,-18522.1,0,44080.2,-178.274
step02_gravity_refstate-crust.xmf,1938,-1.01482e-07,-2.70979e-05,0,2.36805e-05,-1.06005e+09,-1.0619e+09,-1.06004e+09,1.62448e+06,0.0561956,-0.334275,0,0.338965,3841.28,-38549.8,0,38740.7,-1.62448e+06
step02_gravity_refstate-crust.xmf,1939,2.86821e-06,-3.49143e-05,0,2.64147e-05,-1.08455e+09,-1.08715e+09,-1.08475e+09,1.81205e+06,0.0471142,-0.326702,0,0.330082,3348.73,-39441.8,0,39583.7,-1.81205e+06
step02_gravity_refstate-crust.xmf,1940,8.83301e-07,-7.50203e-07,0,1.3408e-06,-6.26193e+08,-6.26305e+08,-6.26254e+08,91978.7,-0.00565298,0.0192208,-0,0.0200349,31789.1,-22799.6,0,39119.9,-91978.7
step02_gravity_refstate-crust.xmf,1941,9.33914e-07,-9.75824e-07,0,1.70072e-06,-6.69997e+08,-6.70128e+08,-6.70061e+08,116669,-0.00613699,0.0085477,-0,0.0105226,29009.5,-24394.2,0,37902.9,-116669
step02_gravity_refstate-crust.xmf,1942,1.14169e-06,-1.28459e-06,0,2.11433e-06,-6.94371e+08,-6.94537e+08,-6.94449e+08,145043,-0.0074389,-0.00582655,-0,0.00944912,26241.8,-25281.9,0,36439.1,-145043
step02_gravity_refstate-crust.xmf,1943,3.10309e-06,-3.54924e-06,0,5.62588e-06,-8.16997e+08,-8.17454e+08,-8.1721e+08,385935,-0.0178275,-0.1451,-0,0.146191,12401.7,-29750.7,0,32232,-385935
step02_gravity_refstate-crust.xmf,1944,2.6299e-06,-3.06333e-06,0,4.46353e-06,-7.9164e+08,-7.9203e+08,-7.9182e+08,306198,-0.0157091,-0.105333,-0,0.106497,15071,-28826.3,0,32528.3,-306198
step02_gravity_refstate-crust.xmf,1945,2.40026e-06,-2.72565e-06,0,4.00499e-06,-7.67014e+08,-7.67366e+08,-7.67179e+08,274742,-0.0154786,-0.0843829,-0,0.0857908,16849.7,-27929.4,0,32618.5,-274742
step02_gravity_refstate-crust.xmf,1946,1.8567e-06,-2.07726e-06,0,3.16577e-06,-7.23677e+08,-7.23947e+08,-7.23805e+08,217172,-0.0129223,-0.0465041,-0,0.0482661,20725.3,-26350.5,0,33524.4,-217172
step02_gravity_refstate-crust.xmf,1947,1.60449e-06,-5.11821e-06,0,8.78043e-06,-9.08777e+08,-9.09238e+08,-9.08887e+08,602337,0.0030762,-0.227679,0,0.2277,8244.66,-33083.5,0,34095.3,-602337
step02_gravity_refstate-crust.xmf,1948,8.44288e-07,-5.73548e-06,0,9.57732e-06,-9.27665e+08,-9.28116e+08,-9.27723e+08,657004,0.0111585,-0.238004,0,0.238265,7794.5,-33767.1,0,34655,-657004
step02_gravity_refstate-crust.xmf,1949,2.85344e-06,-3.75535e-06,0,5.6384e-06,-8.39675e+08,-8.40129e+08,-8.39871e+08,386795,-0.0134118,-0.152146,-0,0.152736,11862.9,-30575,0,32795.7,-386795
step02_gravity_refstate-crust.xmf,1950,1.93056e-06,-4.24856e-06,0,6.11261e-06,-8.86945e+08,-8.87368e+08,-8.87077e+08,419325,-0.00167549,-0.173655,-0,0.173663,10485,-32291.3,0,33950.9,-419325
step02_gravity_refstate-crust.xmf,1951,2.46171e-06,-3.95446e-06,0,5.72562e-06,-8.62679e+08,-8.63119e+08,-8.62848e+08,392778,-0.00804359,-0.160162,-0,0.160364,11292.4,-31410.5,0,33378.7,-392778
step02_gravity_refstate-crust.xmf,1952,8.5242e-07,-5.15093e-07,0,5.69256e-07,-5.7926e+08,-5.79354e+08,-5.79318e+08,39051,-0.00272334,0.0311348,-0,0.0312537,36685.6,-21091.2,0,42316.3,-39051
step02_gravity_refstate-crust.xmf,1953,3.57232e-07,-2.83195e-05,0,2.43218e-05,-1.07569e+09,-1.07765e+09,-1.07571e+09,1.66847e+06,0.0522491,-0.316583,0,0.320866,3886.13,-39119.1,0,39311.6,-1.66847e+06
step02_gravity_refstate-crust.xmf,1954,-1.19714e-06,-2.22005e-05,0,2.12541e-05,-1.05217e+09,-1.05361e+09,-1.05208e+09,1.45803e+06,0.0563592,-0.317587,0,0.322549,4390.57,-38265.9,0,38517,-1.45803e+06
step02_gravity_refstate-crust.xmf,1955,-1.51358e-06,-1.57193e-05,0,1.75274e-05,-1.02313e+09,-1.02411e+09,-1.02303e+09,1.20238e+06,0.0514051,-0.301933,0,0.306278,5225.6,-37217.7,0,37582.8,-1.20238e+06
step02_gravity_refstate-crust.xmf,1956,-1.48852e-06,-1.85413e-05,0,1.91477e-05,-1.03723e+09,-1.03839e+09,-1.03712e+09,1.31353e+06,0.0547453,-0.309875,0,0.314674,4831.72,-37726.5,0,38034.6,-1.31353e+06
step02_gravity_refstate-crust.xmf,1957,1.37873e-07,-6.60197e-06,0,1.06146e-05,-9.45534e+08,-9.45996e+08,-9.45543e+08,728159,0.0192239,-0.249128,0,0.249869,7339.62,-34413.4,0,35187.4,-728159
step02_gravity_refstate-crust.xmf,1958,-4.66499e-07,-7.75705e-06,0,1.18099e-05,-9.62479e+08,-9.62979e+08,-9.62447e+08,810156,0.0270365,-0.260242,0,0.261642,6900.02,-35026.1,0,35699.3,-810156
step02_gravity_refstate-crust.xmf,1959,-1.45793e-06,-1.32485e-05,0,1.60081e-05,-1.00915e+09,-1.00996e+09,-1.00905e+09,1.09815e+06,0.0468498,-0.292386,0,0.296116,5630.47,-36712.9,0,37142.1,-1.09815e+06
step02_gravity_refstate-crust.xmf,1960,-1.28307e-06,-1.10925e-05,0,1.45406e-05,-9.94584e+08,-9.95257e+08,-9.94496e+08,997486,0.0412085,-0.281993,0,0.284988,6045.46,-36186.4,0,36688,-997486
step02_gravity_refstate-crust.xmf,1961,-9.45885e-07,-9.24744e-06,0,1.31261e-05,-9.78857e+08,-9.79426e+08,-9.78792e+08,900451,0.034466,-0.271196,0,0.273377,6470.65,-35618.1,0,36201.1,-900451
step02_gravity_refstate-crust.xmf,1962,8.19578e-07,-8.08937e-07,0,1.43732e-06,-6.58955e+08,-6.59067e+08,-6.59011e+08,98600.4,-0.00518292,0.015996,-0,0.0168147,30734.5,-23992,0,38990.1,-98600.4
step02_gravity_refstate-crust.xmf,1963,7.32727e-07,-5.9581e-07,0,9.76319e-07,-6.3028e+08,-6.30371e+08,-6.3033e+08,66975.5,-0.00382818,0.0260959,-0,0.0263752,33876.8,-22948,0,40917.6,-66975.5
step02_gravity_refstate-crust.xmf,1964,9.37368e-07,-1.09043e-06,0,1.82506e-06,-6.97e+08,-6.97139e+08,-6.97065e+08,125199,-0.00569564,0.00308473,-0,0.00647733,27756.9,-25377.1,0,37609.1,-125199
step02_gravity_refstate-crust.xmf,1965,2.7716e-06,-3.41241e-06,0,4.96663e-06,-8.17503e+08,-8.17927e+08,-8.17693e+08,340711,-0.014734,-0.127547,-0,0.128395,13415.6,-29767.9,0,32651.3,-340711
step02_gravity_refstate-crust.xmf,1966,2.48639e-06,-3.21866e-06,0,4.43356e-06,-8.17372e+08,-8.17763e+08,-8.17542e+08,304143,-0.0120202,-0.111183,-0,0.11183,14465.9,-29762.3,0,33091.7,-304143
step02_gravity_refstate-crust.xmf,1967,2.30628e-06,-2.88283e-06,0,3.96312e-06,-7.93753e+08,-7.94109e+08,-7.93912e+08,271870,-0.0125841,-0.0901142,-0,0.0909886,16179.6,-28902.3,0,33122.8,-271870
step02_gravity_refstate-crust.xmf,1968,2.04428e-06,-2.54472e-06,0,3.50759e-06,-7.76115e+08,-7.7643e+08,-7.76255e+08,240621,-0.0114906,-0.0698371,-0,0.0707761,18014,-28259.6,0,33512.8,-240621
step02_gravity_refstate-crust.xmf,1969,2.03446e-06,-2.3949e-06,0,3.4341e-06,-7.55695e+08,-7.55998e+08,-7.55834e+08,235579,-0.0127198,-0.0626944,-0,0.0639717,18838.3,-27516.3,0,33347.1,-235579
step02_gravity_refstate-crust.xmf,1970,1.79375e-06,-2.1945e-06,0,3.09512e-06,-7.57306e+08,-7.5758e+08,-7.57429e+08,212325,-0.0102487,-0.0505417,-0,0.0515704,20026,-27574.4,0,34079.1,-212325
step02_gravity_refstate-crust.xmf,1971,1.57222e-06,-1.84817e-06,0,2.77262e-06,-7.25341e+08,-7.25576e+08,-7.25449e+08,190202,-0.0101592,-0.0330481,-0,0.0345743,22235.9,-26410.3,0,34524.5,-190202
step02_gravity_refstate-crust.xmf,1972,1.32834e-06,-1.61003e-06,0,2.43786e-06,-7.26068e+08,-7.26269e+08,-7.26159e+08,167237,-0.00787758,-0.0209548,-0,0.0223866,23769.2,-26436.1,0,35550.5,-167237
step02_gravity_refstate-crust.xmf,1973,1.07937e-06,-1.37204e-06,0,2.1148e-06,-7.27383e+08,-7.27551e+08,-7.27457e+08,145075,-0.00584882,-0.00971805,-0,0.0113424,25377.9,-26483.3,0,36679.7,-145075
step02_gravity_refstate-crust.xmf,1974,1.37417e-06,-4.83092e-06,0,7.47755e-06,-9.09713e+08,-9.10138e+08,-9.09807e+08,512960,0.00473857,-0.203628,0,0.203683,9091.56,-33117.1,0,34342.4,-512960
step02_gravity_refstate-crust.xmf,1975,1.16512e-06,-4.46512e-06,0,6.46546e-06,-9.10524e+08,-9.10911e+08,-9.10604e+08,443531,0.00619566,-0.181132,0,0.181238,9992.44,-33146.4,0,34619.8,-443531
step02_gravity_refstate-crust.xmf,1976,6.64315e-07,-4.89468e-07,0,6.28847e-07,-6.25754e+08,-6.25833e+08,-6.25799e+08,43138.9,-0.00242778,0.0309278,-0,0.031023,36048.8,-22783.1,0,42644.9,-43138.9
step02_gravity_refstate-crust.xmf,1977,6.87704e-07,-4.4931e-07,0,3.00971e-07,-6.08609e+08,-6.08687e+08,-6.08657e+08,20646.6,-0.0012582,0.0333836,-0,0.0334073,38141.9,-22159.1,0,44111.6,-20646.6
step02_gravity_refstate-crust.xmf,1978,8.22289e-07,-4.68905e-07,0,3.52356e-09,-5.7579e+08,-5.75878e+08,-5.75846e+08,241.716,-9.05514e-20,0.033631,-0,0.033631,40000,-20964.8,0,45161.1,-241.716
step02_gravity_refstate-crust.xmf,1979,-8.73862e-07,-2.41754e-05,0,2.26193e-05,-1.06721e+09,-1.06881e+09,-1.06715e+09,1.55168e+06,0.0547088,-0.309489,0,0.314287,4277.85,-38811.9,0,39046.9,-1.55168e+06
step02_gravity_refstate-crust.xmf,1980,5.76555e-07,-6.18828e-07,0,1.07422e-06,-6.79952e+08,-6.80034e+08,-6.79992e+08,73691.3,-0.00298727,0.0234758,-0,0.0236651,32629.2,-24755.7,0,40957.4,-73691.3
step02_gravity_refstate-crust.xmf,1981,6.1746e-07,-7.60773e-07,0,1.32307e-06,-7.0085e+08,-7.00944e+08,-7.00892e+08,90762.6,-0.00322965,0.0169806,-0,0.017285,30682.5,-25516.4,0,39906.2,-90762.6
step02_gravity_refstate-crust.xmf,1982,8.47186e-07,-1.13849e-06,0,1.81146e-06,-7.29328e+08,-7.29464e+08,-7.29386e+08,124266,-0.00411338,0.000452261,-0,0.00413817,27042.9,-26553.6,0,37900,-124266
step02_gravity_refstate-crust.xmf,1983,6.56355e-07,-9.08199e-07,0,1.5204e-06,-7.25087e+08,-7.25194e+08,-7.25132e+08,104300,-0.00298902,0.0101164,-0,0.0105487,28942.9,-26398.8,0,39173.8,-104300
step02_gravity_refstate-crust.xmf,1984,2.51339e-06,-3.5852e-06,0,4.96703e-06,-8.41046e+08,-8.41464e+08,-8.41218e+08,340739,-0.010418,-0.134218,-0,0.134621,12841.3,-30623.7,0,33207.1,-340739
step02_gravity_refstate-crust.xmf,1985,2.15385e-06,-3.02143e-06,0,3.95211e-06,-8.18513e+08,-8.18868e+08,-8.18661e+08,271115,-0.00936263,-0.0962177,-0,0.0966721,15515.2,-29802.8,0,33599.6,-271115
step02_gravity_refstate-crust.xmf,1986,1.97813e-06,-2.68809e-06,0,3.5243e-06,-7.99406e+08,-7.99726e+08,-7.99541e+08,241767,-0.00929825,-0.0763379,-0,0.0769021,17253.6,-29107,0,33836.4,-241767
step02_gravity_refstate-crust.xmf,1987,1.47758e-06,-1.95772e-06,0,2.71279e-06,-7.59956e+08,-7.60192e+08,-7.60058e+08,186098,-0.00760588,-0.0372751,-0,0.0380432,21456.2,-27669.9,0,35014.2,-186098
step02_gravity_refstate-crust.xmf,1988,6.02242e-07,-5.28027e-06,0,8.13625e-06,-9.29156e+08,-9.29559e+08,-9.29197e+08,558147,0.0124129,-0.213291,0,0.213652,8608.03,-33821.1,0,34899.4,-558147
step02_gravity_refstate-crust.xmf,1989,-1.31349e-07,-5.90994e-06,0,9.02499e-06,-9.47068e+08,-9.47465e+08,-9.47059e+08,619114,0.0199156,-0.223813,0,0.224697,8121.28,-34469.3,0,35413.1,-619114
step02_gravity_refstate-crust.xmf,1990,2.14303e-06,-3.74898e-06,0,5.03867e-06,-8.64056e+08,-8.64461e+08,-8.64203e+08,345653,-0.00543567,-0.141711,-0,0.141815,12245.1,-31459.7,0,33758.8,-345653
step02_gravity_refstate-crust.xmf,1991,1.62532e-06,-3.95675e-06,0,5.28679e-06,-8.8829e+08,-8.88673e+08,-8.88402e+08,362674,0.00060084,-0.152129,0,0.15213,11512.3,-32339.5,0,34327.5,-362674
step02_gravity_refstate-crust.xmf,1992,9.42388e-07,-4.13957e-06,0,5.59501e-06,-9.1143e+08,-9.11779e+08,-9.11495e+08,383818,0.00751412,-0.160164,0,0.16034,10943,-33178.9,0,34937,-383818
step02_gravity_refstate-crust.xmf,1993,1.45091e-06,-2.90499e-05,0,2.51632e-05,-1.08939e+09,-1.09149e+09,-1.08949e+09,1.7262e+06,0.0454641,-0.300272,0,0.303695,3938.1,-39621.4,0,39816.6,-1.7262e+06
step02_gravity_refstate-crust.xmf,1994,-5.06106e-07,-2.31391e-05,0,2.26592e-05,-1.08219e+09,-1.08374e+09,-1.08215e+09,1.55442e+06,0.0494987,-0.285819,0,0.290074,4572.08,-39360.3,0,39624.9,-1.55442e+06
step02_gravity_refstate-crust.xmf,1995,-1.66809e-06,-2.07383e-05,0,2.09226e-05,-1.06522e+09,-1.06653e+09,-1.06511e+09,1.43529e+06,0.0545491,-0.293871,0,0.298891,4731.96,-38741.6,0,39029.6,-1.43529e+06
step02_gravity_refstate-crust.xmf,1996,-2.18203e-06,-1.79838e-05,0,1.91546e-05,-1.05342e+09,-1.0545e+09,-1.05327e+09,1.314e+06,0.0551373,-0.288779,0,0.293996,5092.47,-38314,0,38650.9,-1.314e+06
step02_gravity_refstate-crust.xmf,1997,-2.3808e-06,-1.30303e-05,0,1.56597e-05,-1.02584e+09,-1.02657e+09,-1.02567e+09,1.07426e+06,0.0507274,-0.274392,0,0.279042,5889.02,-37316.8,0,37778.6,-1.07426e+06
step02_gravity_refstate-crust.xmf,1998,-2.40011e-06,-1.52794e-05,0,1.72847e-05,-1.03947e+09,-1.04035e+09,-1.0393e+09,1.18573e+06,0.0537398,-0.28223,0,0.287301,5491.31,-37809.5,0,38206.2,-1.18573e+06
step02_gravity_refstate-crust.xmf,1999,-8.16402e-07,-6.76339e-06,0,1.00798e-05,-9.64345e+08,-9.64753e+08,-9.64289e+08,691476,0.0273606,-0.234132,0,0.235725,7658.1,-35094.2,0,35920,-691476
step02_gravity_refstate-crust.xmf,2000,-1.4187e-06,-7.87223e-06,0,1.12684e-05,-9.80982e+08,-9.81425e+08,-9.80885e+08,773014,0.0344504,-0.244208,0,0.246626,7212.25,-35695.7,0,36417,-773014
step02_gravity_refstate-crust.xmf,2001,-2.26513e-06,-1.10743e-05,0,1.4118e-05,-1.01267e+09,-1.01328e+09,-1.01252e+09,968495,0.046646,-0.264745,0,0.268823,6310.47,-36841.1,0,37377.7,-968495
step02_gravity_refstate-crust.xmf,2002,-1.94146e-06,-9.32512e-06,0,1.2628e-05,-9.98e+08,-9.98507e+08,-9.97867e+08,866280,0.0412653,-0.254032,0,0.257361,6767.19,-36310.9,0,36936.1,-866280
step02_gravity_refstate-crust.xmf,2003,4.43465e-07,-4.58647e-07,0,7.08652e-07,-6.77161e+08,-6.77222e+08,-6.77191e+08,48613.6,-0.00183463,0.029936,-0,0.0299922,35083.1,-24653.8,0,42879.3,-48613.6
step02_gravity_refstate-crust.xmf,2004,2.19863e-06,-3.37258e-06,0,4.40788e-06,-8.42002e+08,-8.42384e+08,-8.42153e+08,302381,-0.0077733,-0.117383,-0,0.11764,13863.6,-30657.6,0,33646.5,-302381
step02_gravity_refstate-crust.xmf,2005,1.94724e-06,-3.1389e-06,0,3.97163e-06,-8.4202e+08,-8.42369e+08,-8.42154e+08,272454,-0.00566267,-0.102265,-0,0.102422,14885.6,-30657.6,0,34080.4,-272454
step02_gravity_refstate-crust.xmf,2006,1.82058e-06,-2.80965e-06,0,3.52683e-06,-8.24212e+08,-8.24529e+08,-8.24337e+08,241941,-0.00623661,-0.082586,-0,0.0828211,16527.4,-30009.3,0,34259.4,-241941
step02_gravity_refstate-crust.xmf,2007,1.63822e-06,-2.31872e-06,0,3.01799e-06,-7.92902e+08,-7.93174e+08,-7.93014e+08,207034,-0.00680202,-0.0556425,-0,0.0560567,19212.3,-28869.4,0,34677.9,-207034
step02_gravity_refstate-crust.xmf,2008,1.71505e-06,-2.48926e-06,0,3.1898e-06,-8.04448e+08,-8.04736e+08,-8.04565e+08,218821,-0.00663007,-0.064617,-0,0.0649563,18253.6,-29289.8,0,34512.1,-218821
step02_gravity_refstate-crust.xmf,2009,1.3406e-06,-2.04322e-06,0,2.66098e-06,-7.94422e+08,-7.94654e+08,-7.94514e+08,182544,-0.00443256,-0.0416031,-0,0.0418386,20679.1,-28924,0,35555.9,-182544
step02_gravity_refstate-crust.xmf,2010,1.20677e-06,-1.70511e-06,0,2.38426e-06,-7.61758e+08,-7.61957e+08,-7.6184e+08,163560,-0.00540272,-0.0249848,-0,0.0255622,22949.7,-27734.8,0,35998.7,-163560
step02_gravity_refstate-crust.xmf,2011,9.62913e-07,-1.44499e-06,0,2.08502e-06,-7.63763e+08,-7.63928e+08,-7.63829e+08,143032,-0.00350495,-0.0135124,-0,0.0139595,24524.3,-27807.2,0,37076.7,-143032
step02_gravity_refstate-crust.xmf,2012,7.1612e-07,-1.19096e-06,0,1.79493e-06,-7.66952e+08,-7.67083e+08,-7.67001e+08,123132,-0.00186311,-0.00299557,-0,0.00352769,26166.2,-27922.7,0,38266.8,-123132
step02_gravity_refstate-crust.xmf,2013,3.51592e-07,-4.82766e-06,0,6.98259e-06,-9.31649e+08,-9.32005e+08,-9.31673e+08,479006,0.0138418,-0.189922,0,0.190426,9478.47,-33911.6,0,35211.3,-479006
step02_gravity_refstate-crust.xmf,2014,1.49481e-07,-4.34543e-06,0,6.09595e-06,-9.34143e+08,-9.34451e+08,-9.34153e+08,418182,0.0149905,-0.167895,0,0.168563,10412.9,-34002.3,0,35561,-418182
step02_gravity_refstate-crust.xmf,2015,3.6063e-07,-3.63272e-07,0,3.40501e-07,-6.76937e+08,-6.76986e+08,-6.76962e+08,23358.4,-0.000832371,0.0338807,-0,0.0338909,37593.8,-24645.5,0,44952.1,-23358.4
step02_gravity_refstate-crust.xmf,2016,5.09476e-07,-3.87585e-07,0,5.75908e-09,-6.42122e+08,-6.42184e+08,-6.42157e+08,395.073,-6.2865e-20,0.0346681,-0,0.0346681,40000,-23378.6,0,46331,-395.073
step02_gravity_refstate-crust.xmf,2017,3.2684e-07,-5.60759e-07,0,1.02232e-06,-7.32227e+08,-7.32288e+08,-7.32249e+08,70130.9,-0.0010703,0.0231388,-0,0.0231635,32175.2,-26657.9,0,41783.8,-70130.9
step02_gravity_refstate-crust.xmf,2018,2.32843e-07,-4.1689e-07,0,7.55883e-07,-7.25876e+08,-7.2592e+08,-7.25892e+08,51853.6,-0.000747171,0.0287541,-0,0.0287638,34212.4,-26426.5,0,43230.2,-51853.6
step02_gravity_refstate-crust.xmf,2019,4.07003e-07,-6.96381e-07,0,1.22602e-06,-7.40463e+08,-7.40539e+08,-7.40491e+08,84105.2,-0.00124767,0.0176678,-0,0.0177118,30591.1,-26957.9,0,40774.3,-84105.2
step02_gravity_refstate-crust.xmf,2020,4.98481e-07,-9.4843e-07,0,1.52451e-06,-7.68799e+08,-7.68898e+08,-7.68833e+08,104581,-0.000688001,0.00647685,-0,0.00651329,27893.1,-27989.4,0,39515,-104581
step02_gravity_refstate-crust.xmf,2021,1.83979e-06,-3.50832e-06,0,4.46968e-06,-8.65781e+08,-8.66148e+08,-8.65908e+08,306620,-0.00299239,-0.124485,-0,0.124521,13232,-31521.6,0,34186.2,-306620
step02_gravity_refstate-crust.xmf,2022,1.7103e-06,-2.92917e-06,0,3.63031e-06,-8.42077e+08,-8.42395e+08,-8.42194e+08,249040,-0.00397246,-0.0897905,-0,0.0898784,15808.7,-30659,0,34494.8,-249040
step02_gravity_refstate-crust.xmf,2023,1.48246e-06,-2.57846e-06,0,3.14977e-06,-8.32477e+08,-8.32755e+08,-8.32578e+08,216074,-0.00298991,-0.0694713,-0,0.0695356,17576.7,-30309.2,0,35036.9,-216074
step02_gravity_refstate-crust.xmf,2024,1.05475e-06,-1.77937e-06,0,2.34101e-06,-7.96468e+08,-7.96663e+08,-7.96541e+08,160593,-0.00243788,-0.0291058,-0,0.0292077,22142.1,-28997.7,0,36484.8,-160593
step02_gravity_refstate-crust.xmf,2025,-3.8656e-07,-5.3019e-06,0,7.80777e-06,-9.49781e+08,-9.50118e+08,-9.49754e+08,535613,0.020822,-0.200842,0,0.201919,8920.63,-34567.9,0,35700.4,-535613
step02_gravity_refstate-crust.xmf,2026,-1.0134e-06,-5.94281e-06,0,8.77008e-06,-9.65835e+08,-9.66173e+08,-9.65766e+08,601628,0.0272595,-0.211238,0,0.21299,8417.62,-35148.9,0,36142.8,-601628
step02_gravity_refstate-crust.xmf,2027,1.34616e-06,-3.64375e-06,0,4.63007e-06,-8.89885e+08,-8.90228e+08,-8.89978e+08,317623,0.00266695,-0.132365,0,0.132392,12577.5,-32397,0,34752.8,-317623
step02_gravity_refstate-crust.xmf,2028,7.36955e-07,-3.78309e-06,0,4.91164e-06,-9.1309e+08,-9.134e+08,-9.1314e+08,336939,0.00890064,-0.14026,0,0.140542,11957.5,-33239.1,0,35324.5,-336939
step02_gravity_refstate-crust.xmf,2029,2.75583e-08,-3.95617e-06,0,5.35072e-06,-9.35905e+08,-9.36178e+08,-9.35907e+08,367060,0.0156567,-0.148066,0,0.148892,11370.7,-34066.5,0,35914.1,-367060
step02_gravity_refstate-crust.xmf,2030,-1.98019e-06,-1.7857e-05,0,1.96726e-05,-1.0709e+09,-1.07199e+09,-1.07076e+09,1.34954e+06,0.0522412,-0.268873,0,0.273901,5333.66,-38951.4,0,39314.9,-1.34954e+06
step02_gravity_refstate-crust.xmf,2031,-2.66134e-06,-1.49791e-05,0,1.7452e-05,-1.05533e+09,-1.05618e+09,-1.05515e+09,1.19721e+06,0.0534222,-0.263971,0,0.269323,5760.71,-38386.5,0,38816.3,-1.19721e+06
step02_gravity_refstate-crust.xmf,2032,-2.86427e-06,-1.10435e-05,0,1.42662e-05,-1.02893e+09,-1.02949e+09,-1.02873e+09,978662,0.0496563,-0.251033,0,0.255898,6519.39,-37430.5,0,37994,-978662
step02_gravity_refstate-crust.xmf,2033,-2.86285e-06,-1.27714e-05,0,1.56916e-05,-1.0416e+09,-1.04228e+09,-1.04141e+09,1.07645e+06,0.052173,-0.257604,0,0.262835,6156.89,-37889.2,0,38386.2,-1.07645e+06
step02_gravity_refstate-crust.xmf,2034,-1.66034e-06,-6.75217e-06,0,9.81485e-06,-9.82646e+08,-9.82996e+08,-9.82532e+08,673299,0.03389,-0.220057,0,0.222651,7974.41,-35757,0,36635.5,-673299
step02_gravity_refstate-crust.xmf,2035,-2.26268e-06,-7.85711e-06,0,1.11e-05,-1.00031e+09,-1.00069e+09,-1.00015e+09,761458,0.0404183,-0.228993,0,0.232533,7518.5,-36395.9,0,37164.4,-761458
step02_gravity_refstate-crust.xmf,2036,-2.76065e-06,-9.36162e-06,0,1.27099e-05,-1.01963e+09,-1.02009e+09,-1.01944e+09,871900,0.0464745,-0.237531,0,0.242035,7046.71,-37095.1,0,37758.5,-871900
step02_gravity_refstate-crust.xmf,2037,1.65552e-07,-3.19769e-07,0,4.99826e-07,-7.21623e+08,-7.21656e+08,-7.21634e+08,34288.1,-0.000472254,0.0325667,-0,0.0325702,36165.7,-26271.6,0,44700.7,-34288.1
step02_gravity_refstate-crust.xmf,2038,3.08213e-07,-7.28211e-07,0,1.27133e-06,-7.70559e+08,-7.70631e+08,-7.70581e+08,87213.4,0.000124891,0.0146313,0,0.0146319,29650.4,-28053.1,0,40818.2,-87213.4
step02_gravity_refstate-crust.xmf,2039,1.33171e-07,-5.25537e-07,0,1.0183e-06,-7.73594e+08,-7.73639e+08,-7.73603e+08,69855.7,0.00068911,0.0217348,0,0.0217457,31504.5,-28163.2,0,42257.5,-69855.7
step02_gravity_refstate-crust.xmf,2040,1.58557e-06,-3.24474e-06,0,3.99064e-06,-8.66198e+08,-8.6653e+08,-8.66307e+08,273758,-0.00108223,-0.10807,-0,0.108075,14287.8,-31536.2,0,34621.9,-273758
step02_gravity_refstate-crust.xmf,2041,1.39447e-06,-2.97944e-06,0,3.60811e-06,-8.65042e+08,-8.65342e+08,-8.65138e+08,247516,0.000246452,-0.0931533,0,0.0931536,15364.4,-31493.8,0,35041.7,-247516
step02_gravity_refstate-crust.xmf,2042,1.27993e-06,-2.71722e-06,0,3.25745e-06,-8.5866e+08,-8.58934e+08,-8.58748e+08,223461,0.000540933,-0.0783741,0,0.0783759,16589.2,-31261.3,0,35390.3,-223461
step02_gravity_refstate-crust.xmf,2043,1.30829e-06,-2.35299e-06,0,2.88424e-06,-8.30628e+08,-8.30879e+08,-8.30718e+08,197859,-0.00178257,-0.057904,-0,0.0579314,18673.4,-30241.5,0,35542.2,-197859
step02_gravity_refstate-crust.xmf,2044,1.10098e-06,-2.10438e-06,0,2.60823e-06,-8.29124e+08,-8.29344e+08,-8.29199e+08,178925,-0.000512129,-0.0457618,-0,0.0457647,19934.1,-30186.3,0,36174.3,-178925
step02_gravity_refstate-crust.xmf,2045,8.57808e-07,-1.83075e-06,0,2.3212e-06,-8.3063e+08,-8.30815e+08,-8.30689e+08,159234,0.00106279,-0.0333181,0,0.0333351,21345.8,-30240.6,0,37015.3,-159234
step02_gravity_refstate-crust.xmf,2046,8.07394e-07,-1.51465e-06,0,2.05833e-06,-7.98266e+08,-7.98425e+08,-7.98321e+08,141201,-0.000825722,-0.0176483,-0,0.0176676,23656.4,-29062.6,0,37473.4,-141201
step02_gravity_refstate-crust.xmf,2047,3.22035e-07,-9.73485e-07,0,1.52204e-06,-8.08638e+08,-8.08727e+08,-8.0866e+08,104412,0.00196941,0.00306984,0,0.00364725,26960,-29439.1,0,39918.7,-104412
step02_gravity_refstate-crust.xmf,2048,5.54654e-07,-1.23522e-06,0,1.78146e-06,-8.04128e+08,-8.04251e+08,-8.04166e+08,122208,0.000852806,-0.00670349,0,0.00675752,25275.2,-29275.4,0,38676.7,-122208
step02_gravity_refstate-crust.xmf,2049,-7.58404e-07,-4.72669e-06,0,6.86328e-06,-9.57348e+08,-9.5762e+08,-9.57296e+08,470821,0.0230495,-0.177204,0,0.178697,9825.64,-34842.8,0,36201.7,-470821
step02_gravity_refstate-crust.xmf,2050,-7.79115e-07,-4.16179e-06,0,5.96687e-06,-9.59031e+08,-9.59263e+08,-9.58977e+08,409327,0.0228179,-0.154579,0,0.156254,10866.5,-34904.9,0,36557.2,-409327
step02_gravity_refstate-crust.xmf,2051,1.73738e-07,-2.70693e-07,0,3.36478e-09,-7.07863e+08,-7.07893e+08,-7.07875e+08,230.824,-4.22272e-21,0.0354533,-0,0.0354533,40000,-25770.7,0,47582.9,-230.824
step02_gravity_refstate-crust.xmf,2052,-6.77947e-07,-1.97363e-05,0,2.10583e-05,-1.08726e+09,-1.08857e+09,-1.08721e+09,1.4446e+06,0.0468398,-0.259788,0,0.263977,5264.09,-39549.5,0,39898.3,-1.4446e+06
step02_gravity_refstate-crust.xmf,2053,-3.07758e-06,-1.05338e-05,0,1.4015e-05,-1.04214e+09,-1.04265e+09,-1.04193e+09,961427,0.0499674,-0.233419,0,0.238707,6915.62,-37911.3,0,38536.9,-961427
step02_gravity_refstate-crust.xmf,2054,9.52695e-09,-3.61203e-07,0,7.76535e-07,-7.72574e+08,-7.72599e+08,-7.72574e+08,53270.3,0.000774412,0.0275032,0,0.0275141,33442.3,-28125.8,0,43697.2,-53270.3
step02_gravity_refstate-crust.xmf,2055,-1.02612e-07,-2.21318e-07,0,4.91325e-07,-7.71719e+08,-7.71727e+08,-7.71712e+08,33704.9,0.00063476,0.0324371,0,0.0324433,35779,-28094.4,0,45491,-33704.9
step02_gravity_refstate-crust.xmf,2056,3.27892e-09,-2.15762e-07,0,2.52979e-07,-7.4237e+08,-7.42385e+08,-7.4237e+08,17354.3,1.35744e-05,0.0348889,0,0.0348889,37936.4,-27026.4,0,46578.9,-17354.3
step02_gravity_refstate-crust.xmf,2057,1.23238e-07,-7.32074e-07,0,1.28026e-06,-8.11617e+08,-8.11676e+08,-8.11625e+08,87826.1,0.00257194,0.011673,0,0.011953,28714.2,-29547.1,0,41201.2,-87826.1
step02_gravity_refstate-crust.xmf,2058,1.12575e-06,-3.34137e-06,0,4.11487e-06,-8.90791e+08,-8.91097e+08,-8.90868e+08,282280,0.00423341,-0.114813,0,0.114891,13645.5,-32429.5,0,35183.4,-282280
step02_gravity_refstate-crust.xmf,2059,9.91185e-07,-2.42247e-06,0,2.89068e-06,-8.6201e+08,-8.62244e+08,-8.62078e+08,198301,0.00264525,-0.0632293,0,0.0632846,17902.8,-31382.6,0,36130,-198301
step02_gravity_refstate-crust.xmf,2060,5.9707e-07,-1.55439e-06,0,2.03963e-06,-8.34546e+08,-8.34693e+08,-8.34587e+08,139918,0.00261961,-0.0215491,0,0.0217078,22830.5,-30382.5,0,38004.3,-139918
step02_gravity_refstate-crust.xmf,2061,-1.16312e-06,-5.33878e-06,0,7.89743e-06,-9.68291e+08,-9.68577e+08,-9.68211e+08,541764,0.0274246,-0.193084,0,0.195022,9083.27,-35238.6,0,36390.5,-541764
step02_gravity_refstate-crust.xmf,2062,-1.6949e-06,-5.84676e-06,0,8.63468e-06,-9.82866e+08,-9.83151e+08,-9.8275e+08,592339,0.0326718,-0.19871,0,0.201378,8748.05,-35766.3,0,36820.6,-592339
step02_gravity_refstate-crust.xmf,2063,5.65273e-07,-3.44587e-06,0,4.36495e-06,-9.14858e+08,-9.15134e+08,-9.14897e+08,299436,0.010088,-0.122115,0,0.122531,12997.8,-33303.3,0,35749.9,-299436
step02_gravity_refstate-crust.xmf,2064,-7.64508e-07,-3.74559e-06,0,5.312e-06,-9.61465e+08,-9.6167e+08,-9.61413e+08,364403,0.0227618,-0.135785,0,0.137679,11841.2,-34994.2,0,36943.3,-364403
step02_gravity_refstate-crust.xmf,2065,-7.6554e-08,-3.57244e-06,0,4.75829e-06,-9.3827e+08,-9.3851e+08,-9.38265e+08,326419,0.0163236,-0.129307,0,0.130333,12387.9,-34152.8,0,36330.1,-326419
step02_gravity_refstate-crust.xmf,2066,-1.37915e-06,-1.65676e-05,0,1.91413e-05,-1.08408e+09,-1.08512e+09,-1.08399e+09,1.31309e+06,0.0474349,-0.243931,0,0.2485,5873.68,-39435.8,0,39870.8,-1.31309e+06
step02_gravity_refstate-crust.xmf,2067,-2.43494e-06,-1.46927e-05,0,1.76342e-05,-1.06873e+09,-1.06957e+09,-1.06856e+09,1.2097e+06,0.0511535,-0.248026,0,0.253246,6032.57,-38875.6,0,39340.9,-1.2097e+06
step02_gravity_refstate-crust.xmf,2068,-2.83683e-06,-1.26669e-05,0,1.5965e-05,-1.05805e+09,-1.05872e+09,-1.05785e+09,1.0952e+06,0.051358,-0.240726,0,0.246144,6449.34,-38488.1,0,39024.7,-1.0952e+06
step02_gravity_refstate-crust.xmf,2069,-2.33965e-06,-6.67806e-06,0,9.80449e-06,-1.00152e+09,-1.00182e+09,-1.00136e+09,672588,0.0389609,-0.206266,0,0.209913,8302.94,-36441.5,0,37375.4,-672588
step02_gravity_refstate-crust.xmf,2070,-2.82369e-06,-7.79359e-06,0,1.12156e-05,-1.02006e+09,-1.0204e+09,-1.01987e+09,769387,0.0443193,-0.213676,0,0.218224,7853.97,-37112.8,0,37934.8,-769387
step02_gravity_refstate-crust.xmf,2071,-3.04531e-06,-8.93766e-06,0,1.25002e-05,-1.03487e+09,-1.03527e+09,-1.03466e+09,857517,0.0475859,-0.219259,0,0.224364,7493,-37649.2,0,38387.6,-857517
step02_gravity_refstate-crust.xmf,2072,-4.40029e-08,-5.14258e-07,0,1.0473e-06,-8.12995e+08,-8.13028e+08,-8.12992e+08,71845.1,0.00272344,0.0191741,0,0.0193665,30563.7,-29596.9,0,42545.5,-71845.1
step02_gravity_refstate-crust.xmf,2073,-1.92541e-07,-3.21738e-07,0,8.16218e-07,-8.15206e+08,-8.15214e+08,-8.15192e+08,55992.6,0.00259901,0.0254683,0,0.0256006,32497.1,-29677.1,0,44009,-55992.6
step02_gravity_refstate-crust.xmf,2074,9.46566e-07,-3.05438e-06,0,3.69376e-06,-8.91183e+08,-8.91457e+08,-8.91247e+08,253392,0.00545004,-0.0989262,0,0.0990762,14728.4,-32443.5,0,35630.1,-253392
step02_gravity_refstate-crust.xmf,2075,8.09293e-07,-2.76645e-06,0,3.3294e-06,-8.90125e+08,-8.9037e+08,-8.90181e+08,228397,0.00622874,-0.0838146,0,0.0840458,15886.5,-32404.9,0,36089.6,-228397
step02_gravity_refstate-crust.xmf,2076,6.54217e-07,-2.48515e-06,0,2.99646e-06,-8.90076e+08,-8.90291e+08,-8.90121e+08,205557,0.00710897,-0.0693989,0,0.0697621,17108.2,-32402.9,0,36642.1,-205557
step02_gravity_refstate-crust.xmf,2077,8.11287e-07,-2.15822e-06,0,2.61677e-06,-8.61911e+08,-8.62115e+08,-8.61967e+08,179511,0.00374317,-0.0506512,0,0.0507893,19145.9,-31378.7,0,36758.5,-179511
step02_gravity_refstate-crust.xmf,2078,5.919e-07,-1.86931e-06,0,2.32957e-06,-8.638e+08,-8.63969e+08,-8.63841e+08,159809,0.00501849,-0.0375551,0,0.0378889,20575.1,-31447,0,37579.9,-159809
step02_gravity_refstate-crust.xmf,2079,3.79762e-07,-1.59098e-06,0,2.07157e-06,-8.67062e+08,-8.67197e+08,-8.67088e+08,142110,0.00614017,-0.0258147,0,0.0265349,22007.2,-31565.3,0,38479.7,-142110
step02_gravity_refstate-crust.xmf,2080,3.38852e-07,-1.26825e-06,0,1.77177e-06,-8.41644e+08,-8.41755e+08,-8.41668e+08,121544,0.00413098,-0.0104743,0,0.0112595,24399.1,-30640.3,0,39168.2,-121544
step02_gravity_refstate-crust.xmf,2081,-8.36119e-08,-7.31321e-07,0,1.29848e-06,-8.52355e+08,-8.52399e+08,-8.52349e+08,89075.5,0.00548635,0.00848021,0,0.0101002,27775.7,-31029.4,0,41645.1,-89075.5
step02_gravity_refstate-crust.xmf,2082,1.1314e-07,-9.87334e-07,0,1.5295e-06,-8.47853e+08,-8.47928e+08,-8.47861e+08,104924,0.00509613,-0.000409969,0,0.0051126,26053.4,-30865.9,0,40391.6,-104924
step02_gravity_refstate-crust.xmf,2083,-1.55231e-06,-5.02741e-06,0,7.50712e-06,-9.78512e+08,-9.7875e+08,-9.78405e+08,514988,0.0300123,-0.178983,0,0.181482,9586.56,-35609.6,0,36877.5,-514988
step02_gravity_refstate-crust.xmf,2084,-1.53733e-06,-4.48444e-06,0,6.75041e-06,-9.81106e+08,-9.81308e+08,-9.81e+08,463078,0.0295204,-0.160479,0,0.163171,10408.3,-35705,0,37191.1,-463078
step02_gravity_refstate-crust.xmf,2085,-1.46029e-06,-3.9956e-06,0,6.05151e-06,-9.83875e+08,-9.84049e+08,-9.83774e+08,415133,0.0288668,-0.141803,0,0.144712,11337.7,-35806.8,0,37558.9,-415133
step02_gravity_refstate-crust.xmf,2086,-1.86822e-07,-1.13979e-07,0,3.22443e-09,-7.73211e+08,-7.73206e+08,-7.73199e+08,221.196,4.54117e-20,0.0359109,0,0.0359109,40000,-28148.6,0,48911.6,-221.196
step02_gravity_refstate-crust.xmf,2087,-3.04467e-06,-9.32605e-06,0,1.31458e-05,-1.04986e+09,-1.05029e+09,-1.04965e+09,901802,0.0482498,-0.211991,0,0.217413,7576.56,-38194.3,0,38938.5,-901802
step02_gravity_refstate-crust.xmf,2088,-3.14092e-07,-1.66483e-07,0,5.93474e-07,-8.17988e+08,-8.17977e+08,-8.17966e+08,40712.3,0.00220508,0.030289,0,0.0303691,34451.3,-29778.1,0,45537.1,-40712.3
step02_gravity_refstate-crust.xmf,2089,-3.36637e-07,-5.78735e-08,0,2.16153e-07,-8.02381e+08,-8.02362e+08,-8.02358e+08,14828.1,0.000695828,0.0352242,0,0.035231,37982.5,-29210,0,47915.5,-14828.1
step02_gravity_refstate-crust.xmf,2090,-2.53226e-07,-4.98147e-07,0,1.07918e-06,-8.55667e+08,-8.55683e+08,-8.55649e+08,74031.7,0.00541125,0.0162012,0,0.017081,29564.5,-31149.6,0,42946,-74031.7
step02_gravity_refstate-crust.xmf,2091,4.30706e-07,-3.12894e-06,0,3.91013e-06,-9.16285e+08,-9.16529e+08,-9.16314e+08,268235,0.0109925,-0.10538,0,0.105952,14075.7,-33355.2,0,36203.5,-268235
step02_gravity_refstate-crust.xmf,2092,4.82765e-07,-2.21046e-06,0,2.69071e-06,-8.91526e+08,-8.9171e+08,-8.91559e+08,184583,0.00808653,-0.0558471,0,0.0564296,18376.8,-32455.4,0,37296.9,-184583
step02_gravity_refstate-crust.xmf,2093,1.4323e-07,-1.31495e-06,0,1.82287e-06,-8.74065e+08,-8.74165e+08,-8.74075e+08,125049,0.0073437,-0.0150633,0,0.0167581,23463.3,-31819.8,0,39535.1,-125049
step02_gravity_refstate-crust.xmf,2094,-2.26124e-06,-5.73304e-06,0,8.67901e-06,-1.00184e+09,-1.00208e+09,-1.00168e+09,595380,0.0371704,-0.185417,0,0.189106,9121.57,-36454.9,0,37578.8,-595380
step02_gravity_refstate-crust.xmf,2095,-1.49158e-07,-3.22295e-06,0,4.26299e-06,-9.40651e+08,-9.40861e+08,-9.4064e+08,292441,0.0168215,-0.111895,0,0.113153,13449.4,-34239.7,0,36786.5,-292441
step02_gravity_refstate-crust.xmf,2096,-1.32245e-06,-3.59937e-06,0,5.45367e-06,-9.87066e+08,-9.87222e+08,-9.86975e+08,374122,0.0282543,-0.124456,0,0.127623,12301.6,-35924.2,0,37972.1,-374122
step02_gravity_refstate-crust.xmf,2097,-7.52892e-07,-3.36173e-06,0,4.76764e-06,-9.64328e+08,-9.64507e+08,-9.64277e+08,327060,0.0226889,-0.118061,0,0.120221,12871.7,-35099.1,0,37384.9,-327060
step02_gravity_refstate-crust.xmf,2098,-1.9729e-06,-1.33762e-05,0,1.6826e-05,-1.07862e+09,-1.0794e+09,-1.07849e+09,1.15426e+06,0.0476948,-0.225263,0,0.230257,6648.45,-39239.6,0,39798.8,-1.15426e+06
step02_gravity_refstate-crust.xmf,2099,-2.75925e-06,-1.08537e-05,0,1.46161e-05,-1.06194e+09,-1.06249e+09,-1.06175e+09,1.00266e+06,0.0490217,-0.21835,0,0.223785,7174.72,-38632.9,0,39293.5,-1.00266e+06
step02_gravity_refstate-crust.xmf,2100,-2.75064e-06,-6.66617e-06,0,1.00564e-05,-1.02222e+09,-1.02249e+09,-1.02203e+09,689872,0.0424872,-0.192318,0,0.196956,8650.15,-37193.4,0,38186.1,-689872
step02_gravity_refstate-crust.xmf,2101,-2.95993e-06,-7.96055e-06,0,1.17266e-05,-1.04215e+09,-1.0425e+09,-1.04195e+09,804443,0.0462158,-0.199283,0,0.204572,8159.65,-37916.3,0,38784.4,-804443
step02_gravity_refstate-crust.xmf,2102,-3.96304e-07,-6.49492e-08,0,4.01278e-07,-8.20336e+08,-8.20313e+08,-8.20308e+08,27527.7,0.00164946,0.0333243,0,0.0333651,36193.5,-29863.4,0,46923.3,-27527.7
step02_gravity_refstate-crust.xmf,2103,-4.02597e-07,-2.87312e-07,0,8.62835e-07,-8.58582e+08,-8.58575e+08,-8.58555e+08,59190.5,0.00495292,0.0228635,0,0.0233938,31459.9,-31255.5,0,44346.7,-59190.5
step02_gravity_refstate-crust.xmf,2104,-5.3282e-07,-1.07051e-07,0,6.51246e-07,-8.62139e+08,-8.6211e+08,-8.62102e+08,44675.4,0.00419227,0.0282291,0,0.0285387,33419.5,-31384.7,0,45846.1,-44675.4
step02_gravity_refstate-crust.xmf,2105,3.22479e-07,-2.82871e-06,0,3.51679e-06,-9.17307e+08,-9.17523e+08,-9.17329e+08,241252,0.0116535,-0.0897335,0,0.090487,15205,-33392.4,0,36691.2,-241252
step02_gravity_refstate-crust.xmf,2106,2.12518e-07,-2.53706e-06,0,3.17778e-06,-9.18619e+08,-9.18807e+08,-9.18633e+08,217996,0.0122395,-0.0751754,0,0.0761652,16374.7,-33440.2,0,37234.1,-217996
step02_gravity_refstate-crust.xmf,2107,1.26269e-07,-2.26457e-06,0,2.86382e-06,-9.19221e+08,-9.19385e+08,-9.19229e+08,196458,0.0125656,-0.0615454,0,0.062815,17601.1,-33462.2,0,37808.9,-196458
step02_gravity_refstate-crust.xmf,2108,2.96383e-07,-1.9152e-06,0,2.4072e-06,-8.95449e+08,-8.95601e+08,-8.95469e+08,165134,0.0092381,-0.0425263,0,0.0435181,19755.4,-32597.9,0,38117,-165134
step02_gravity_refstate-crust.xmf,2109,-4.68707e-07,-4.86322e-07,0,1.12711e-06,-8.97083e+08,-8.97084e+08,-8.97051e+08,77319.5,0.00846525,0.0130271,0,0.015536,28585.1,-32656.6,0,43400,-77319.5
step02_gravity_refstate-crust.xmf,2110,1.00937e-07,-1.61651e-06,0,2.13584e-06,-8.99578e+08,-8.99696e+08,-8.99585e+08,146519,0.0101032,-0.0298479,0,0.0315115,21238.6,-32748,0,39032.1,-146519
step02_gravity_refstate-crust.xmf,2111,-6.71317e-08,-1.35203e-06,0,1.90456e-06,-9.04197e+08,-9.04285e+08,-9.04192e+08,130653,0.0106962,-0.0192316,0,0.022006,22638.6,-32915.8,0,39949.5,-130653
step02_gravity_refstate-crust.xmf,2112,-1.64661e-07,-9.90713e-07,0,1.55886e-06,-8.91006e+08,-8.91062e+08,-8.90994e+08,106938,0.00906298,-0.00411366,0,0.00995288,25115.9,-32435.7,0,41023,-106938
step02_gravity_refstate-crust.xmf,2113,-3.0909e-07,-7.26583e-07,0,1.33454e-06,-8.92147e+08,-8.92176e+08,-8.92126e+08,91549.5,0.00875652,0.00530094,0,0.010236,26888.3,-32477.1,0,42163.3,-91549.5
step02_gravity_refstate-crust.xmf,2114,-2.19108e-06,-4.98405e-06,0,7.75732e-06,-1.00305e+09,-1.00324e+09,-1.0029e+09,532152,0.0356008,-0.166063,0,0.169836,9965.39,-36500.4,0,37836.3,-532152
step02_gravity_refstate-crust.xmf,2115,-2.03513e-06,-4.41732e-06,0,6.99114e-06,-1.0058e+09,-1.00597e+09,-1.00566e+09,479592,0.0343639,-0.147772,0,0.151715,10843.9,-36602.2,0,38174.7,-479592
step02_gravity_refstate-crust.xmf,2116,-1.84868e-06,-3.95004e-06,0,6.31101e-06,-1.00874e+09,-1.00889e+09,-1.00861e+09,432935,0.0331601,-0.130577,0,0.134722,11764.4,-36710.6,0,38549.6,-432935
step02_gravity_refstate-crust.xmf,2117,-5.59354e-07,7.10726e-08,0,4.04331e-09,-8.38368e+08,-8.38325e+08,-8.3833e+08,277.371,1.10633e-19,0.0359636,0,0.0359636,40000,-30519.5,0,50313.4,-277.371
step02_gravity_refstate-crust.xmf,2118,-2.78833e-06,-9.1793e-06,0,1.31333e-05,-1.06245e+09,-1.06289e+09,-1.06226e+09,900942,0.0468883,-0.198312,0,0.20378,7944.5,-38654.1,0,39462.1,-900942
step02_gravity_refstate-crust.xmf,2119,-6.36267e-07,3.20076e-08,0,4.49717e-07,-8.65951e+08,-8.65905e+08,-8.65907e+08,30850.6,0.00317101,0.0321158,0,0.032272,35376.4,-31523.3,0,47383.6,-30850.6
step02_gravity_refstate-crust.xmf,2120,-7.13379e-07,1.35078e-07,0,2.21769e-07,-8.68875e+08,-8.68817e+08,-8.68826e+08,15213.4,0.00165042,0.0349278,0,0.0349667,37715.3,-31629.6,0,49222.7,-15213.4
step02_gravity_refstate-crust.xmf,2121,-6.07593e-07,-2.65446e-07,0,9.22629e-07,-9.00481e+08,-9.00457e+08,-9.00439e+08,63292.3,0.00770297,0.0198463,0,0.0212888,30397.8,-32780,0,44705.2,-63292.3
step02_gravity_refstate-crust.xmf,2122,-1.95974e-07,-2.90363e-06,0,3.83525e-06,-9.42803e+08,-9.42989e+08,-9.42789e+08,263098,0.0171253,-0.0957064,0,0.0972265,14557.3,-34318.4,0,37278.3,-263098
step02_gravity_refstate-crust.xmf,2123,1.72639e-08,-2.01192e-06,0,2.5902e-06,-9.21213e+08,-9.21352e+08,-9.21214e+08,177688,0.0129866,-0.0495662,0,0.0512392,18787.9,-33534.6,0,38439,-177688
step02_gravity_refstate-crust.xmf,2124,-2.29088e-07,-1.12031e-06,0,1.71365e-06,-9.10545e+08,-9.10606e+08,-9.10529e+08,117556,0.0112069,-0.0106803,0,0.0154811,23891.2,-33146.6,0,40859.4,-117556
step02_gravity_refstate-crust.xmf,2125,-2.57802e-06,-5.77874e-06,0,9.03326e-06,-1.02419e+09,-1.02441e+09,-1.02401e+09,619682,0.0405994,-0.172596,0,0.177307,9475.97,-37267.3,0,38453.1,-619682
step02_gravity_refstate-crust.xmf,2126,-7.30826e-07,-3.02968e-06,0,4.309e-06,-9.67531e+08,-9.67688e+08,-9.6748e+08,295598,0.022607,-0.101872,0,0.10435,13923.3,-35216.3,0,37868.8,-295598
step02_gravity_refstate-crust.xmf,2127,-1.61968e-06,-3.57379e-06,0,5.70297e-06,-1.01203e+09,-1.01216e+09,-1.01192e+09,391224,0.0320726,-0.114646,0,0.119048,12710.5,-36831.9,0,38963.4,-391224
step02_gravity_refstate-crust.xmf,2128,-1.22275e-06,-3.23687e-06,0,4.93165e-06,-9.90971e+08,-9.91109e+08,-9.90887e+08,338312,0.0277089,-0.107883,0,0.111385,13326.8,-36067.3,0,38450.7,-338312
step02_gravity_refstate-crust.xmf,2129,-1.92257e-06,-1.11837e-05,0,1.49629e-05,-1.08049e+09,-1.08113e+09,-1.08036e+09,1.02645e+06,0.0455735,-0.202218,0,0.20729,7512.17,-39311.4,0,40022.7,-1.02645e+06
step02_gravity_refstate-crust.xmf,2130,-2.74457e-06,-6.79012e-06,0,1.04301e-05,-1.04308e+09,-1.04336e+09,-1.04289e+09,715502,0.0438455,-0.178681,0,0.183982,9011.83,-37952.8,0,39008.1,-715502
step02_gravity_refstate-crust.xmf,2131,-2.55741e-06,-7.9745e-06,0,1.18657e-05,-1.06179e+09,-1.06216e+09,-1.06161e+09,813987,0.0450697,-0.181834,0,0.187336,8651.27,-38632.7,0,39589.6,-813987
step02_gravity_refstate-crust.xmf,2132,-8.55122e-07,1.00716e-07,0,5.29799e-07,-9.10793e+08,-9.10727e+08,-9.10734e+08,36344.2,0.00534377,0.0299416,0,0.0304147,34216,-33155,0,47644.4,-36344.2
step02_gravity_refstate-crust.xmf,2133,-7.40709e-07,-6.43471e-08,0,7.20441e-07,-9.05391e+08,-9.05345e+08,-9.0534e+08,49422.2,0.00666164,0.025592,0,0.0264448,32306.3,-32958.6,0,46151.5,-49422.2
step02_gravity_refstate-crust.xmf,2134,-2.25462e-07,-2.60854e-06,0,3.45507e-06,-9.44422e+08,-9.44585e+08,-9.44406e+08,237018,0.0172136,-0.0806992,0,0.0825147,15709.8,-34377.7,0,37797.1,-237018
step02_gravity_refstate-crust.xmf,2135,-2.71417e-07,-2.32864e-06,0,3.11945e-06,-9.45962e+08,-9.46103e+08,-9.45943e+08,213994,0.0172099,-0.0669398,0,0.0691167,16889,-34434,0,38352.8,-213994
step02_gravity_refstate-crust.xmf,2136,-3.12891e-07,-2.07323e-06,0,2.8217e-06,-9.47929e+08,-9.4805e+08,-9.47907e+08,193568,0.0172007,-0.0545141,0,0.0571633,18069.9,-34505.8,0,38950.9,-193568
step02_gravity_refstate-crust.xmf,2137,-2.67398e-07,-1.67267e-06,0,2.31548e-06,-9.36968e+08,-9.37064e+08,-9.36949e+08,158842,0.0150714,-0.0355014,0,0.0385681,20258.5,-34107.6,0,39670.3,-158842
step02_gravity_refstate-crust.xmf,2138,-8.06581e-07,-2.54767e-07,0,9.97153e-07,-9.41009e+08,-9.40971e+08,-9.40954e+08,68404.7,0.0107123,0.0167423,0,0.0198761,29395.5,-34254.7,0,45138.5,-68404.7
step02_gravity_refstate-crust.xmf,2139,-6.83728e-07,-4.82876e-07,0,1.20053e-06,-9.3745e+08,-9.37436e+08,-9.37403e+08,82356.1,0.0117725,0.00982306,0,0.0153325,27655.5,-34125.3,0,43924.5,-82356.1
step02_gravity_refstate-crust.xmf,2140,-3.47897e-07,-1.37793e-06,0,2.02224e-06,-9.37705e+08,-9.37776e+08,-9.37681e+08,138726,0.0146964,-0.0229157,0,0.0272234,21883.6,-34134.5,0,40547,-138726
step02_gravity_refstate-crust.xmf,2141,-4.55233e-07,-1.12266e-06,0,1.79024e-06,-9.41183e+08,-9.41229e+08,-9.41152e+08,122810,0.0145112,-0.0130059,0,0.0194866,23323.1,-34261.1,0,41446.2,-122810
step02_gravity_refstate-crust.xmf,2142,-5.71769e-07,-8.58735e-07,0,1.55047e-06,-9.44058e+08,-9.44078e+08,-9.44019e+08,106363,0.0139841,-0.0034542,0,0.0144044,24915.4,-34365.7,0,42447.4,-106363
step02_gravity_refstate-crust.xmf,2143,-5.17424e-07,-7.13404e-07,0,1.37978e-06,-9.27731e+08,-9.27744e+08,-9.27695e+08,94653.2,0.0118969,0.00298776,0,0.0122664,26230.6,-33771.8,0,42761.9,-94653.2
step02_gravity_refstate-crust.xmf,2144,-2.43454e-06,-5.06947e-06,0,8.16037e-06,-1.02713e+09,-1.02731e+09,-1.02697e+09,559802,0.0388832,-0.154021,0,0.158853,10335.7,-37376.1,0,38778.8,-559802
step02_gravity_refstate-crust.xmf,2145,-2.19178e-06,-4.5059e-06,0,7.36036e-06,-1.03008e+09,-1.03024e+09,-1.02993e+09,504920,0.0372425,-0.13668,0,0.141663,11229.8,-37485.4,0,39131.4,-504920
step02_gravity_refstate-crust.xmf,2146,-1.94031e-06,-4.03818e-06,0,6.62281e-06,-1.03204e+09,-1.03219e+09,-1.03191e+09,454325,0.0356519,-0.120992,0,0.126135,12135.5,-37558.5,0,39470.4,-454325
step02_gravity_refstate-crust.xmf,2147,-9.24252e-07,2.70884e-07,0,2.2505e-09,-9.03494e+08,-9.03412e+08,-9.03431e+08,154.385,1.34604e-19,0.035557,0,0.035557,40000,-32889.3,0,51785.2,-154.385
step02_gravity_refstate-crust.xmf,2148,-1.99977e-06,-9.49587e-06,0,1.3354e-05,-1.08063e+09,-1.08115e+09,-1.08049e+09,916082,0.0440175,-0.183557,0,0.188761,8308.63,-39318.7,0,40187,-916082
step02_gravity_refstate-crust.xmf,2149,-9.54845e-07,2.32269e-07,0,3.4434e-07,-9.17729e+08,-9.17647e+08,-9.17663e+08,23621.7,0.0037614,0.0330121,0,0.0332257,36170.5,-33407.3,0,49237.7,-23621.7
step02_gravity_refstate-crust.xmf,2150,-9.1395e-07,-5.3645e-08,0,8.06936e-07,-9.43972e+08,-9.43913e+08,-9.43909e+08,55355.8,0.00935437,0.0225098,0,0.0243761,31165,-34362.5,0,46390.1,-55355.8
step02_gravity_refstate-crust.xmf,2151,-6.90515e-07,-2.72309e-06,0,3.88233e-06,-9.70134e+08,-9.70274e+08,-9.70087e+08,266328,0.022314,-0.0865309,0,0.0893617,15042.4,-35311.7,0,38382.2,-266328
step02_gravity_refstate-crust.xmf,2152,-3.90814e-07,-1.85005e-06,0,2.59488e-06,-9.52273e+08,-9.52373e+08,-9.52246e+08,178009,0.0174799,-0.0443505,0,0.0476709,19116.8,-34664,0,39585.9,-178009
step02_gravity_refstate-crust.xmf,2153,-2.49439e-06,-6.01591e-06,0,9.50641e-06,-1.04682e+09,-1.04707e+09,-1.04665e+09,652140,0.041973,-0.160669,0,0.166061,9809.09,-38091.3,0,39334,-652140
step02_gravity_refstate-crust.xmf,2154,-1.11143e-06,-2.9102e-06,0,4.44436e-06,-9.94629e+08,-9.94753e+08,-9.94553e+08,304883,0.027055,-0.0921124,0,0.0960035,14421.1,-36201.5,0,38968.1,-304883
step02_gravity_refstate-crust.xmf,2155,-1.70034e-06,-3.68565e-06,0,6.03021e-06,-1.03318e+09,-1.03332e+09,-1.03306e+09,413673,0.0343217,-0.108256,0,0.113566,12947.5,-37601.4,0,39768.1,-413673
step02_gravity_refstate-crust.xmf,2156,-1.53284e-06,-3.23011e-06,0,5.23075e-06,-1.02013e+09,-1.02024e+09,-1.02002e+09,358829,0.031585,-0.098503,0,0.103443,13741.2,-37127.6,0,39588.9,-358829
step02_gravity_refstate-crust.xmf,2157,-1.09295e-06,3.57584e-07,0,1.59427e-07,-9.37237e+08,-9.37137e+08,-9.37162e+08,10936.7,0.00200621,0.0346307,0,0.0346888,38173.5,-34117.2,0,51197.6,-10936.7
step02_gravity_refstate-crust.xmf,2158,-2.43996e-06,-7.02884e-06,0,1.07427e-05,-1.06128e+09,-1.06159e+09,-1.06111e+09,736948,0.043411,-0.167283,0,0.172824,9324.81,-38616.1,0,39726,-736948
step02_gravity_refstate-crust.xmf,2159,-1.83077e-06,-8.16595e-06,0,1.18988e-05,-1.08042e+09,-1.08086e+09,-1.0803e+09,816255,0.0425251,-0.166185,0,0.17154,9122.26,-39313.8,0,40358.3,-816255
step02_gravity_refstate-crust.xmf,2160,-1.14949e-06,2.93624e-07,0,4.48653e-07,-9.60454e+08,-9.60355e+08,-9.60375e+08,30777.6,0.00618567,0.0306598,0,0.0312776,34819.2,-34962.1,0,49342.9,-30777.6
step02_gravity_refstate-crust.xmf,2161,-1.04187e-06,1.36936e-07,0,6.22294e-07,-9.53121e+08,-9.5304e+08,-9.5305e+08,42689.4,0.00796356,0.0271761,0,0.0283189,32982.2,-34695.3,0,47870.5,-42689.4
step02_gravity_refstate-crust.xmf,2162,-6.48944e-07,-2.43593e-06,0,3.4866e-06,-9.71927e+08,-9.72049e+08,-9.71882e+08,239181,0.0218406,-0.0722762,0,0.0755041,16210.5,-35377.6,0,38914.7,-239181
step02_gravity_refstate-crust.xmf,2163,-1.07749e-06,-5.30378e-08,0,8.97218e-07,-9.81411e+08,-9.81341e+08,-9.81337e+08,61549.1,0.0121397,0.0195801,0,0.0230381,30172.1,-35724.8,0,46761.3,-61549.1
step02_gravity_refstate-crust.xmf,2164,-6.51172e-07,-2.16172e-06,0,3.13284e-06,-9.74035e+08,-9.74139e+08,-9.73991e+08,214913,0.0214006,-0.0591734,0,0.0629244,17405.9,-35454.7,0,39496.9,-214913
step02_gravity_refstate-crust.xmf,2165,-6.58121e-07,-1.90916e-06,0,2.82146e-06,-9.76928e+08,-9.77014e+08,-9.76883e+08,193552,0.0210415,-0.047344,0,0.0518093,18601.9,-35560.4,0,40132,-193552
step02_gravity_refstate-crust.xmf,2166,-6.49021e-07,-1.41951e-06,0,2.21747e-06,-9.7399e+08,-9.74043e+08,-9.73946e+08,152118,0.0190858,-0.0262027,0,0.0324168,21180.6,-35454.3,0,41299.2,-152118
step02_gravity_refstate-crust.xmf,2167,-6.68254e-07,-1.66228e-06,0,2.52489e-06,-9.78545e+08,-9.78613e+08,-9.78499e+08,173207,0.0204458,-0.0363822,0,0.0417336,19846.5,-35619.6,0,40775.5,-173207
step02_gravity_refstate-crust.xmf,2168,-9.87553e-07,-2.66814e-07,0,1.09687e-06,-9.79751e+08,-9.79702e+08,-9.79684e+08,75245.2,0.0138355,0.0135398,0,0.0193584,28429.3,-35664.4,0,45608.9,-75245.2
step02_gravity_refstate-crust.xmf,2169,-8.67041e-07,-5.32682e-07,0,1.33026e-06,-9.73995e+08,-9.73972e+08,-9.73935e+08,91255.5,0.0151587,0.00570139,0,0.0161954,26578.1,-35454.9,0,44310.8,-91255.5
step02_gravity_refstate-crust.xmf,2170,-6.93173e-07,-1.16822e-06,0,1.95265e-06,-9.75037e+08,-9.7507e+08,-9.7499e+08,133952,0.0182783,-0.0163736,0,0.0245396,22583,-35492.6,0,42068,-133952
step02_gravity_refstate-crust.xmf,2171,-7.71798e-07,-9.18045e-07,0,1.71156e-06,-9.78831e+08,-9.78841e+08,-9.78778e+08,117413,0.017583,-0.00733303,0,0.0190509,24028.6,-35630.8,0,42975.9,-117413
step02_gravity_refstate-crust.xmf,2172,-2.30543e-06,-5.34017e-06,0,8.63653e-06,-1.05148e+09,-1.05169e+09,-1.05133e+09,592466,0.0401432,-0.142833,0,0.148367,10679,-38262.8,0,39725.1,-592466
step02_gravity_refstate-crust.xmf,2173,-2.02441e-06,-4.72288e-06,0,7.69297e-06,-1.05335e+09,-1.05354e+09,-1.05322e+09,527738,0.0382918,-0.126167,0,0.13185,11612.5,-38332.9,0,40053.3,-527738
step02_gravity_refstate-crust.xmf,2174,-1.79193e-06,-4.17942e-06,0,6.82614e-06,-1.05329e+09,-1.05346e+09,-1.05317e+09,468273,0.03658,-0.111402,0,0.117254,12545.3,-38332.4,0,40333.1,-468273
step02_gravity_refstate-crust.xmf,2175,-1.26625e-06,4.76483e-07,0,3.73893e-09,-9.68617e+08,-9.68498e+08,-9.6853e+08,256.49,2.0125e-19,0.0346732,0,0.0346732,40000,-35259.1,0,53321.7,-256.49
step02_gravity_refstate-crust.xmf,2176,-1.21499e-06,3.96633e-07,0,2.90729e-07,-9.6507e+08,-9.64959e+08,-9.64987e+08,19944,0.00423281,0.0329286,0,0.0331995,36564,-35130,0,50705.5,-19944
step02_gravity_refstate-crust.xmf,2177,-1.14428e-06,1.09773e-07,0,7.32405e-07,-9.81468e+08,-9.81382e+08,-9.81389e+08,50243,0.0104296,0.0240063,0,0.026174,31722.5,-35726.8,0,47777.9,-50243
step02_gravity_refstate-crust.xmf,2178,-9.97581e-07,-2.60526e-06,0,3.96753e-06,-9.96292e+08,-9.96402e+08,-9.96223e+08,272173,0.0261064,-0.0776077,0,0.0818811,15562,-36262.9,0,39461.1,-272173
step02_gravity_refstate-crust.xmf,2179,-8.75488e-07,-7.05126e-07,0,1.52879e-06,-9.8672e+08,-9.86708e+08,-9.8666e+08,104875,0.0172167,-0.000426143,0,0.017222,25256,-35917.9,0,43908.5,-104875
step02_gravity_refstate-crust.xmf,2180,-1.91763e-06,-6.7295e-06,0,1.02698e-05,-1.0735e+09,-1.07383e+09,-1.07337e+09,704507,0.0414345,-0.150418,0,0.156021,10015.8,-39063.8,0,40327.4,-704507
step02_gravity_refstate-crust.xmf,2181,-1.2667e-06,-2.8472e-06,0,4.54757e-06,-1.02016e+09,-1.02027e+09,-1.02007e+09,311964,0.0298597,-0.0819418,0,0.0872127,15008.7,-37130.3,0,40049,-311964
step02_gravity_refstate-crust.xmf,2182,-1.5609e-06,-3.67919e-06,0,5.98733e-06,-1.04968e+09,-1.04983e+09,-1.04958e+09,410731,0.0347895,-0.098051,0,0.10404,13506,-38202.8,0,40519.9,-410731
step02_gravity_refstate-crust.xmf,2183,-1.4198e-06,5.55478e-07,0,1.73393e-07,-1.00279e+09,-1.00266e+09,-1.00269e+09,11894.7,0.00296802,0.033387,0,0.0335187,37908.1,-36502.8,0,52625.8,-11894.7
step02_gravity_refstate-crust.xmf,2184,-1.39976e-06,4.7854e-07,0,3.63298e-07,-1.00733e+09,-1.0072e+09,-1.00723e+09,24922.2,0.00621852,0.0311833,0,0.0317973,35638.1,-36668,0,51133.3,-24922.2
step02_gravity_refstate-crust.xmf,2185,-1.34249e-06,3.25889e-07,0,5.75862e-07,-1.00951e+09,-1.0094e+09,-1.00942e+09,39504.2,0.00949216,0.0273294,0,0.0289309,33278.2,-36747.4,0,49576.3,-39504.2
step02_gravity_refstate-crust.xmf,2186,-1.2996e-06,1.36155e-07,0,8.01428e-07,-1.01932e+09,-1.01922e+09,-1.01923e+09,54978,0.0128045,0.0219761,0,0.0254343,31015.2,-37104.2,0,48359.8,-54978
step02_gravity_refstate-crust.xmf,2187,-9.39088e-07,-2.33045e-06,0,3.57551e-06,-1.0004e+09,-1.0005e+09,-1.00034e+09,245280,0.025563,-0.0643676,0,0.0692579,16703.7,-36413.3,0,40061.7,-245280
step02_gravity_refstate-crust.xmf,2188,-1.22978e-06,-6.23975e-08,0,9.9589e-07,-1.01971e+09,-1.01963e+09,-1.01963e+09,68318.1,0.0149576,0.0169109,0,0.0225767,29314.1,-37118.7,0,47298.1,-68318.1
step02_gravity_refstate-crust.xmf,2189,-9.33258e-07,-2.05212e-06,0,3.20565e-06,-1.0049e+09,-1.00498e+09,-1.00484e+09,219908,0.0249947,-0.0517691,0,0.0574872,17914.8,-36577.5,0,40729,-219908
step02_gravity_refstate-crust.xmf,2190,-9.06329e-07,-1.78932e-06,0,2.84962e-06,-1.00824e+09,-1.0083e+09,-1.00818e+09,195484,0.0242439,-0.0402077,0,0.0469513,19168.8,-36699.5,0,41404.1,-195484
step02_gravity_refstate-crust.xmf,2191,-8.92053e-07,-1.26685e-06,0,2.18863e-06,-1.00796e+09,-1.00799e+09,-1.0079e+09,150140,0.0219113,-0.0199878,0,0.0296584,21822.7,-36690.3,0,42689.7,-150140
step02_gravity_refstate-crust.xmf,2192,-8.9496e-07,-1.52557e-06,0,2.50978e-06,-1.00983e+09,-1.00987e+09,-1.00977e+09,172171,0.023256,-0.029564,0,0.0376148,20477.1,-36757.8,0,42076.7,-172171
step02_gravity_refstate-crust.xmf,2193,-1.15187e-06,-2.98225e-07,0,1.21959e-06,-1.01936e+09,-1.0193e+09,-1.01928e+09,83663.7,0.0170028,0.0105957,0,0.0200341,27563.7,-37105.6,0,46223.2,-83663.7
step02_gravity_refstate-crust.xmf,2194,-9.25052e-07,-1.00068e-06,0,1.89207e-06,-1.00856e+09,-1.00857e+09,-1.0085e+09,129796,0.0206488,-0.0106129,0,0.0232165,23292.1,-36712.4,0,43477.8,-129796
step02_gravity_refstate-crust.xmf,2195,-1.00379e-06,-7.44168e-07,0,1.64109e-06,-1.01515e+09,-1.01513e+09,-1.01508e+09,112579,0.0197347,-0.00223521,0,0.0198609,24759.7,-36952.3,0,44480.5,-112579
step02_gravity_refstate-crust.xmf,2196,-1.09255e-06,-5.30385e-07,0,1.45112e-06,-1.02156e+09,-1.02152e+09,-1.02149e+09,99546.5,0.0188669,0.0039601,0,0.019278,25998.2,-37185.7,0,45372.7,-99546.5
step02_gravity_refstate-crust.xmf,2197,-1.4445e-06,-3.2071e-06,0,5.22496e-06,-1.04664e+09,-1.04676e+09,-1.04654e+09,358432,0.0330358,-0.0847329,0,0.0909452,14548.9,-38093.3,0,40777,-358432
step02_gravity_refstate-crust.xmf,2198,-1.7583e-06,-5.78515e-06,0,8.98443e-06,-1.07617e+09,-1.07644e+09,-1.07605e+09,616332,0.0394394,-0.131133,0,0.136935,11057.3,-39162.9,0,40693.9,-616332
step02_gravity_refstate-crust.xmf,2199,-1.583e-06,-5.02501e-06,0,7.88238e-06,-1.0761e+09,-1.07634e+09,-1.07599e+09,540731,0.0378856,-0.115333,0,0.121396,12036.8,-39162.4,0,40970.4,-540731
step02_gravity_refstate-crust.xmf,2200,-1.44372e-06,-4.37834e-06,0,6.90645e-06,-1.07535e+09,-1.07555e+09,-1.07525e+09,473783,0.0364464,-0.100862,0,0.107245,13033.3,-39136.6,0,41249.7,-473783
step02_gravity_refstate-crust.xmf,2201,-1.55976e-06,6.68308e-07,0,9.9583e-10,-1.03374e+09,-1.03358e+09,-1.03363e+09,68.3139,1.8592e-19,0.0333144,0,0.0333144,40000,-37628.9,0,54917.5,-68.3139
step02_gravity_refstate-crust.xmf,2202,-1.15532e-06,-2.54977e-06,0,4.04485e-06,-1.01938e+09,-1.01948e+09,-1.01931e+09,277476,0.028548,-0.0700612,0,0.0756542,16028.7,-37103.1,0,40417.3,-277476
step02_gravity_refstate-crust.xmf,2203,-1.24163e-06,-2.79713e-06,0,4.50713e-06,-1.04387e+09,-1.04397e+09,-1.04378e+09,309189,0.0312413,-0.0708032,0,0.0773893,15750.1,-37993.7,0,41128.9,-309189
step02_gravity_refstate-crust.xmf,2204,-1.28371e-06,-3.81857e-06,0,6.01087e-06,-1.07357e+09,-1.07374e+09,-1.07348e+09,412346,0.0350169,-0.0871414,0,0.0939138,14085.1,-39073.3,0,41534.5,-412346
step02_gravity_refstate-crust.xmf,2205,-1.63927e-06,7.12521e-07,0,1.28529e-07,-1.05417e+09,-1.05401e+09,-1.05406e+09,8817.1,0.00267467,0.0324434,0,0.0325535,38364.5,-38372.7,0,54261.4,-8817.1
step02_gravity_refstate-crust.xmf,2206,-1.60846e-06,6.48567e-07,0,2.78645e-07,-1.05246e+09,-1.0523e+09,-1.05235e+09,19115,0.0055619,0.0312736,0,0.0317644,36567.6,-38310.2,0,52960.9,-19115
step02_gravity_refstate-crust.xmf,2207,-1.56291e-06,5.27032e-07,0,4.66106e-07,-1.05379e+09,-1.05364e+09,-1.05368e+09,31974.9,0.00898526,0.028627,0,0.030004,34412.6,-38358.7,0,51532.6,-31974.9
step02_gravity_refstate-crust.xmf,2208,-1.42896e-06,1.34133e-07,0,8.89718e-07,-1.05881e+09,-1.05871e+09,-1.05872e+09,61034.6,0.015291,0.0197807,0,0.0250018,30280.3,-38541.6,0,49013.8,-61034.6
step02_gravity_refstate-crust.xmf,2209,-1.49896e-06,3.48664e-07,0,6.72259e-07,-1.05574e+09,-1.05561e+09,-1.05564e+09,46116.9,0.0123017,0.0246753,0,0.0275718,32266.6,-38429.7,0,50179.4,-46116.9
step02_gravity_refstate-crust.xmf,2210,-1.16598e-06,-2.36315e-06,0,3.82516e-06,-1.03501e+09,-1.03509e+09,-1.03493e+09,262406,0.0290258,-0.0584154,0,0.0652293,16992.2,-37672,0,41326.9,-262406
step02_gravity_refstate-crust.xmf,2211,-1.34887e-06,-1.13178e-07,0,1.12489e-06,-1.05963e+09,-1.05955e+09,-1.05954e+09,77167.5,0.0178816,0.0140628,0,0.0227489,28424.2,-38571.4,0,47913.3,-77167.5
step02_gravity_refstate-crust.xmf,2212,-1.07361e-06,-2.01846e-06,0,3.28603e-06,-1.03732e+09,-1.03739e+09,-1.03725e+09,225421,0.0276772,-0.0445584,0,0.0524545,18437,-37757.3,0,42018.3,-225421
step02_gravity_refstate-crust.xmf,2213,-1.04125e-06,-1.1275e-06,0,2.11852e-06,-1.03761e+09,-1.03761e+09,-1.03753e+09,145330,0.0235194,-0.0138552,0,0.027297,22571.1,-37769.1,0,43999.6,-145330
step02_gravity_refstate-crust.xmf,2214,-1.03459e-06,-1.711e-06,0,2.85296e-06,-1.03864e+09,-1.03869e+09,-1.03857e+09,195713,0.0264109,-0.0332385,0,0.0424539,19782.5,-37806,0,42669,-195713
step02_gravity_refstate-crust.xmf,2215,-1.02609e-06,-1.41353e-06,0,2.46432e-06,-1.03846e+09,-1.03848e+09,-1.03838e+09,169052,0.0250154,-0.0230782,0,0.0340349,21156.9,-37799.7,0,43317.8,-169052
step02_gravity_refstate-crust.xmf,2216,-1.27266e-06,-3.78966e-07,0,1.37977e-06,-1.06037e+09,-1.06031e+09,-1.06028e+09,94652.4,0.0201547,0.00763151,0,0.0215512,26697.9,-38598.1,0,46931.7,-94652.4
step02_gravity_refstate-crust.xmf,2217,-1.07006e-06,-8.70342e-07,0,1.82776e-06,-1.03654e+09,-1.03652e+09,-1.03646e+09,125384,0.0220215,-0.00597903,0,0.0228187,23937.4,-37730.5,0,44683.2,-125384
step02_gravity_refstate-crust.xmf,2218,-1.17128e-06,-6.69412e-07,0,1.66172e-06,-1.05678e+09,-1.05675e+09,-1.0567e+09,113994,0.0220665,-9.08762e-05,0,0.0220667,24972.8,-38467.5,0,45862.7,-113994
step02_gravity_refstate-crust.xmf,2219,-1.23568e-06,-3.28537e-06,0,5.2063e-06,-1.07212e+09,-1.07227e+09,-1.07204e+09,357152,0.0335747,-0.0737257,0,0.0810108,15216.7,-39021.7,0,41883.6,-357152
step02_gravity_refstate-crust.xmf,2220,-1.11995e-06,-2.84998e-06,0,4.49954e-06,-1.07126e+09,-1.07138e+09,-1.07118e+09,308668,0.0321682,-0.0609353,0,0.068905,16408.4,-38991.4,0,42303.2,-308668
step02_gravity_refstate-crust.xmf,2221,-1.14557e-06,-9.94592e-07,0,2.02145e-06,-1.06614e+09,-1.06613e+09,-1.06606e+09,138672,0.0244312,-0.00816193,0,0.0257585,23356.6,-38807.6,0,45294.2,-138672
step02_gravity_refstate-crust.xmf,2222,-1.10913e-06,-2.38961e-06,0,3.83289e-06,-1.06822e+09,-1.06831e+09,-1.06814e+09,262936,0.030586,-0.0485748,0,0.0574022,17715.9,-38881.4,0,42727.2,-262936
step02_gravity_refstate-crust.xmf,2223,-1.0786e-06,-2.00993e-06,0,3.28443e-06,-1.06846e+09,-1.06853e+09,-1.06839e+09,225312,0.0291754,-0.0369762,0,0.0471003,19061.5,-38890.9,0,43311,-225312
step02_gravity_refstate-crust.xmf,2224,-1.1019e-06,-1.3201e-06,0,2.39427e-06,-1.06798e+09,-1.06799e+09,-1.0679e+09,164247,0.0261853,-0.0169306,0,0.031182,21861,-38874.3,0,44599.5,-164247
step02_gravity_refstate-crust.xmf,2225,-1.07743e-06,-1.65652e-06,0,2.8107e-06,-1.06858e+09,-1.06862e+09,-1.06851e+09,192814,0.0277368,-0.0264693,0,0.03834,20439,-38895.9,0,43939.1,-192814
