Block Name,Point ID,cauchy_strain_0,cauchy_strain_1,cauchy_strain_2,cauchy_strain_3,cauchy_stress_0,cauchy_stress_1,cauchy_stress_2,cauchy_stress_3,displacement_0,displacement_1,displacement_2,displacement_Magnitude,Points_0,Points_1,Points_2,Points_Magnitude,stress_xy
step02_gravity_refstate-mantle.xmf,0,-2.32363e-09,1.84605e-06,0,1.02163e-09,-1.09857e+09,-1.09832e+09,-1.09857e+09,136.54,-6.5093e-21,0.0442428,-0,0.0442428,-40000,-40000,-0,56568.5,136.54
step02_gravity_refstate-mantle.xmf,1,4.36181e-08,1.93934e-06,0,4.25806e-10,-1.17169e+09,-1.17143e+09,-1.17169e+09,56.9089,-3.8183e-21,0.0399647,-0,0.0399647,-40000,-42259.2,-0,58188,56.9089
step02_gravity_refstate-mantle.xmf,2,2.5741e-08,1.91173e-06,0,-6.59334e-09,-1.14804e+09,-1.14779e+09,-1.14805e+09,-881.2,4.13803e-05,0.0413856,0,0.0413857,-38454.4,-41528.6,-0,56598.3,881.2
step02_gravity_refstate-mantle.xmf,3,-7.86996e-09,1.85039e-06,0,-3.29055e-09,-1.09857e+09,-1.09832e+09,-1.09857e+09,-439.782,-1.19234e-05,0.0442866,-0,0.0442866,-37557.3,-40000,-0,54868.5,439.782
step02_gravity_refstate-mantle.xmf,4,6.82355e-08,1.98142e-06,0,-1.31302e-08,-1.20663e+09,-1.20638e+09,-1.20664e+09,-1754.85,0.00012256,0.0378659,0,0.0378661,-38247.3,-43338.9,-0,57802.4,1754.85
step02_gravity_refstate-mantle.xmf,5,3.01285e-08,1.93717e-06,0,-1.85339e-08,-1.16476e+09,-1.1645e+09,-1.16476e+09,-2477.05,0.000126622,0.040456,0,0.0404562,-36467.4,-42045,-0,55656.5,2477.05
step02_gravity_refstate-mantle.xmf,6,1.01388e-07,2.02096e-06,0,2.7545e-10,-1.24417e+09,-1.24391e+09,-1.24418e+09,36.8139,-5.09203e-21,0.03553,-0,0.03553,-40000,-44498.7,-0,59834.2,36.8139
step02_gravity_refstate-mantle.xmf,7,-2.23139e-08,1.86045e-06,0,-6.61105e-09,-1.09857e+09,-1.09832e+09,-1.09857e+09,-883.567,-4.69877e-05,0.0444136,-0,0.0444137,-35229,-40000,-0,53301.8,883.567
step02_gravity_refstate-mantle.xmf,8,1.26411e-07,2.05565e-06,0,-1.76753e-08,-1.27526e+09,-1.275e+09,-1.27528e+09,-2362.3,0.000224175,0.0335856,0,0.0335864,-38243.9,-45459.4,-0,59406.7,2362.3
step02_gravity_refstate-mantle.xmf,9,8.86156e-08,2.02047e-06,0,-2.95604e-08,-1.2377e+09,-1.23744e+09,-1.23771e+09,-3950.75,0.000316386,0.035988,0,0.0359894,-36624.4,-44298.9,-0,57478.2,3950.75
step02_gravity_refstate-mantle.xmf,10,8.67602e-09,1.94259e-06,0,-2.78502e-08,-1.1581e+09,-1.15785e+09,-1.15811e+09,-3722.18,0.000148864,0.0409945,0,0.0409947,-34191.3,-41839.4,-0,54033.1,3722.18
step02_gravity_refstate-mantle.xmf,11,1.64607e-07,2.09622e-06,0,1.67858e-10,-1.31618e+09,-1.31593e+09,-1.31621e+09,22.4342,-6.44227e-21,0.030949,-0,0.030949,-40000,-46723.9,-0,61507.1,22.4342
step02_gravity_refstate-mantle.xmf,12,-4.55343e-08,1.87616e-06,0,-7.48335e-09,-1.09857e+09,-1.09832e+09,-1.09857e+09,-1000.15,-0.000121695,0.0446226,-0,0.0446228,-33009.3,-40000,-0,51861.5,1000.15
step02_gravity_refstate-mantle.xmf,13,5.61305e-08,1.99611e-06,0,-3.68672e-08,-1.20892e+09,-1.20866e+09,-1.20893e+09,-4927.3,0.000330941,0.0378427,0,0.0378441,-35064.8,-43409.6,-0,55802.6,4927.3
step02_gravity_refstate-mantle.xmf,14,1.89611e-07,2.12716e-06,0,-2.0184e-08,-1.34531e+09,-1.34505e+09,-1.34533e+09,-2697.59,0.000330476,0.0290586,0,0.0290605,-38263.7,-47623.8,-0,61091.2,2697.59
step02_gravity_refstate-mantle.xmf,15,2.2885e-07,2.16872e-06,0,7.13837e-11,-1.3879e+09,-1.38764e+09,-1.38793e+09,9.54043,-7.77327e-21,0.0262238,-0,0.0262238,-40000,-48939.8,-0,63206.8,9.54043
step02_gravity_refstate-mantle.xmf,16,-1.42575e-08,1.95789e-06,0,-3.53401e-08,-1.15675e+09,-1.15649e+09,-1.15675e+09,-4723.2,0.000136171,0.0412769,0,0.0412771,-32139.8,-41797.5,-0,52725.7,4723.2
step02_gravity_refstate-mantle.xmf,17,-7.59236e-08,1.89649e-06,0,-5.56326e-09,-1.09858e+09,-1.09832e+09,-1.09857e+09,-743.53,-0.000249509,0.0449172,-0,0.0449179,-30892.4,-40000,-0,50540.5,743.53
step02_gravity_refstate-mantle.xmf,18,1.47797e-07,2.08937e-06,0,-3.67016e-08,-1.30361e+09,-1.30335e+09,-1.30363e+09,-4905.17,0.000513191,0.0318035,0,0.0318077,-36614.9,-46335.4,-0,59056,4905.17
step02_gravity_refstate-mantle.xmf,19,1.07651e-07,2.05882e-06,0,-4.79562e-08,-1.26704e+09,-1.26678e+09,-1.26705e+09,-6409.35,0.000571274,0.0341996,0,0.0342044,-35107.9,-45205.4,-0,57237.1,6409.35
step02_gravity_refstate-mantle.xmf,20,5.10954e-08,2.02168e-06,0,-5.2756e-08,-1.22036e+09,-1.2201e+09,-1.22037e+09,-7050.84,0.000483194,0.0372532,0,0.0372563,-33286.3,-43763.1,-0,54983.5,7050.84
step02_gravity_refstate-mantle.xmf,21,2.5298e-07,2.19846e-06,0,-2.06308e-08,-1.41619e+09,-1.41593e+09,-1.41622e+09,-2757.31,0.000435305,0.0243215,0,0.0243254,-38280.7,-49813.9,-0,62823.8,2757.31
step02_gravity_refstate-mantle.xmf,22,2.89608e-07,2.24214e-06,0,-1.99017e-11,-1.45949e+09,-1.45923e+09,-1.45953e+09,-2.65986,-9.02438e-21,0.0213456,-0,0.0213456,-40000,-51151.8,-0,64934.6,2.65986
step02_gravity_refstate-mantle.xmf,23,-4.45594e-08,1.98732e-06,0,-4.21389e-08,-1.16052e+09,-1.16025e+09,-1.16051e+09,-5631.87,0.000100279,0.041352,0,0.0413521,-29974.1,-41913.8,-0,51528.7,5631.87
step02_gravity_refstate-mantle.xmf,24,-1.12403e-07,1.92004e-06,0,9.0344e-12,-1.09859e+09,-1.09831e+09,-1.09857e+09,1.20745,-0.000439338,0.0453046,-0,0.0453067,-28873.1,-40000,-0,49332.1,1.20745
step02_gravity_refstate-mantle.xmf,25,2.13341e-07,2.15978e-06,0,-4.02561e-08,-1.37402e+09,-1.37376e+09,-1.37404e+09,-5380.23,0.000727191,0.0271811,0,0.0271908,-36625.2,-48510.8,-0,60784.1,5380.23
step02_gravity_refstate-mantle.xmf,26,3.11406e-07,2.27232e-06,0,-1.93443e-08,-1.48729e+09,-1.48703e+09,-1.48733e+09,-2585.36,0.000538206,0.0194102,0,0.0194177,-38270.3,-52010.9,-0,64573.6,2585.36
step02_gravity_refstate-mantle.xmf,27,3.42513e-07,2.31997e-06,0,-9.55287e-11,-1.53107e+09,-1.53081e+09,-1.53112e+09,-12.7674,-1.04958e-20,0.0163009,-0,0.0163009,-40000,-53363.5,-0,66690.8,12.7674
step02_gravity_refstate-mantle.xmf,28,1.60846e-08,2.01927e-06,0,-5.80398e-08,-1.20295e+09,-1.20268e+09,-1.20295e+09,-7757.01,0.000436103,0.0385222,0,0.0385246,-31421.9,-43224.9,-0,53439,7757.01
step02_gravity_refstate-mantle.xmf,29,-9.26726e-08,1.99744e-06,0,-3.26988e-08,-1.14711e+09,-1.14683e+09,-1.14709e+09,-4370.2,-0.000154939,0.0425953,-0,0.0425956,-27866.4,-41499.2,-0,49987.2,4370.2
step02_gravity_refstate-mantle.xmf,30,-1.54508e-07,1.94671e-06,0,1.02282e-08,-1.09859e+09,-1.09831e+09,-1.09857e+09,1367,-0.000695844,0.045794,-0,0.0457993,-26946.1,-40000,-0,48229.6,1367
step02_gravity_refstate-mantle.xmf,31,1.74532e-07,2.12925e-06,0,-5.5719e-08,-1.33712e+09,-1.33686e+09,-1.33714e+09,-7446.84,0.000873769,0.0296631,0,0.0296759,-35162.4,-47370.8,-0,58994.8,7446.84
step02_gravity_refstate-mantle.xmf,32,1.26054e-07,2.10081e-06,0,-7.02286e-08,-1.29713e+09,-1.29686e+09,-1.29714e+09,-9386.05,0.000932752,0.0323578,0,0.0323712,-33374.7,-46135,-0,56941.3,9386.05
step02_gravity_refstate-mantle.xmf,33,2.76505e-07,2.23026e-06,0,-4.004e-08,-1.44427e+09,-1.44401e+09,-1.44431e+09,-5351.35,0.000939008,0.0224162,0,0.0224359,-36608.5,-50681.6,-0,62520.5,5351.35
step02_gravity_refstate-mantle.xmf,34,3.61407e-07,2.35395e-06,0,-1.66236e-08,-1.56015e+09,-1.55989e+09,-1.5602e+09,-2221.74,0.000650864,0.014203,0,0.0142179,-38196,-54262.1,-0,66357.4,2221.74
step02_gravity_refstate-mantle.xmf,35,3.83512e-07,2.4053e-06,0,-1.47599e-10,-1.60266e+09,-1.60239e+09,-1.60271e+09,-19.7265,-1.32399e-20,0.011076,-0,0.011076,-40000,-55575.3,-0,68473.4,19.7265
step02_gravity_refstate-mantle.xmf,36,6.58336e-08,2.06964e-06,0,-7.44706e-08,-1.25167e+09,-1.25141e+09,-1.25168e+09,-9952.99,0.000785163,0.0354153,0,0.035424,-31691.7,-44730.5,-0,54819.5,9952.99
step02_gravity_refstate-mantle.xmf,37,1.92922e-08,2.0607e-06,0,-7.52077e-08,-1.22543e+09,-1.22516e+09,-1.22543e+09,-10051.5,0.000642966,0.0372858,0,0.0372913,-30017.5,-43919.4,-0,53197.4,10051.5
step02_gravity_refstate-mantle.xmf,38,-3.27036e-08,2.05264e-06,0,-6.71436e-08,-1.19889e+09,-1.19861e+09,-1.19889e+09,-8973.74,0.000382717,0.0392305,0,0.0392324,-28446.2,-43099.3,-0,51640.4,8973.74
step02_gravity_refstate-mantle.xmf,39,-1.3463e-07,2.02373e-06,0,-2.47199e-08,-1.14511e+09,-1.14482e+09,-1.14509e+09,-3303.82,-0.000382914,0.0432096,-0,0.0432113,-26034.9,-41437.2,-0,48937.3,3303.82
step02_gravity_refstate-mantle.xmf,40,2.42034e-07,2.19831e-06,0,-5.79818e-08,-1.40755e+09,-1.40729e+09,-1.40758e+09,-7749.26,0.00117626,0.0249532,0,0.024981,-35194.4,-49547,-0,60774.6,7749.26
step02_gravity_refstate-mantle.xmf,41,3.32895e-07,2.30436e-06,0,-3.54246e-08,-1.5146e+09,-1.51434e+09,-1.51465e+09,-4734.5,0.0011223,0.0174888,0,0.0175248,-36615.9,-52854.7,-0,64298.9,4734.5
step02_gravity_refstate-mantle.xmf,42,3.97643e-07,2.44362e-06,0,-1.38616e-08,-1.63197e+09,-1.6317e+09,-1.63203e+09,-1852.6,0.000857643,0.008881,0,0.00892232,-37837.1,-56481.1,-0,67983.5,1852.6
step02_gravity_refstate-mantle.xmf,43,4.09528e-07,2.50067e-06,0,-1.16092e-11,-1.67424e+09,-1.67396e+09,-1.6743e+09,-1.55157,-9.67621e-21,0.00565133,-0,0.00565133,-40000,-57787,-0,70280.4,1.55157
step02_gravity_refstate-mantle.xmf,44,-2.00236e-07,1.97469e-06,0,2.54022e-08,-1.0986e+09,-1.09831e+09,-1.09857e+09,3395.01,-0.0010214,0.0463965,-0,0.0464078,-25106.5,-40000,-0,47226.4,3395.01
step02_gravity_refstate-mantle.xmf,45,-7.96243e-08,2.05492e-06,0,-5.59669e-08,-1.18094e+09,-1.18066e+09,-1.18093e+09,-7479.98,0.000108392,0.0407044,0,0.0407045,-26924.2,-42544.6,-0,50348.4,7479.98
step02_gravity_refstate-mantle.xmf,46,2.02226e-07,2.17307e-06,0,-7.85477e-08,-1.37171e+09,-1.37145e+09,-1.37174e+09,-10497.9,0.0013858,0.0274303,0,0.0274652,-33422.7,-48439.7,-0,58851.3,10497.9
step02_gravity_refstate-mantle.xmf,47,1.50941e-07,2.15236e-06,0,-9.66341e-08,-1.3333e+09,-1.33303e+09,-1.33332e+09,-12915.2,0.00145993,0.0301101,0,0.0301455,-31458.6,-47252.6,-0,56766.7,12915.2
step02_gravity_refstate-mantle.xmf,48,3.04258e-07,2.26827e-06,0,-5.51926e-08,-1.47706e+09,-1.4768e+09,-1.4771e+09,-7376.49,0.00146829,0.0201572,0,0.0202106,-35165.4,-51694.7,-0,62521.6,7376.49
step02_gravity_refstate-mantle.xmf,49,3.74228e-07,2.37565e-06,0,-2.8916e-08,-1.57676e+09,-1.5765e+09,-1.57681e+09,-3864.62,0.00128208,0.0129947,0,0.0130578,-36547.3,-54775.4,-0,65848.7,3864.62
step02_gravity_refstate-mantle.xmf,50,4.14874e-07,2.52981e-06,0,-5.0456e-09,-1.69453e+09,-1.69425e+09,-1.69459e+09,-674.345,0.000675459,0.00407469,0,0.00413029,-38368.2,-58413.8,-0,69887.7,674.345
step02_gravity_refstate-mantle.xmf,51,4.17692e-07,2.60779e-06,0,1.3678e-09,-1.74587e+09,-1.74558e+09,-1.74593e+09,182.807,6.00848e-20,-5.18175e-20,0,7.93425e-20,-40000,-60000,-0,72111,182.807
step02_gravity_refstate-mantle.xmf,52,-1.777e-07,2.0535e-06,0,-1.23558e-08,-1.14504e+09,-1.14474e+09,-1.14502e+09,-1651.35,-0.000656641,0.0438147,-0,0.0438197,-24286.4,-41435,-0,48028,1651.35
step02_gravity_refstate-mantle.xmf,53,-2.48897e-07,2.00331e-06,0,4.71415e-08,-1.09861e+09,-1.09831e+09,-1.09857e+09,6300.46,-0.00141437,0.0471234,-0,0.0471446,-23349.5,-40000,-0,46316.3,6300.46
step02_gravity_refstate-mantle.xmf,54,8.35895e-08,2.12057e-06,0,-9.74139e-08,-1.28402e+09,-1.28374e+09,-1.28403e+09,-13019.4,0.0011847,0.0334947,0,0.0335156,-30066.2,-45729.7,-0,54728.3,13019.4
step02_gravity_refstate-mantle.xmf,55,2.90317e-08,2.11259e-06,0,-9.67546e-08,-1.25454e+09,-1.25426e+09,-1.25455e+09,-12931.3,0.000971224,0.0356408,0,0.035654,-28493.1,-44818.9,-0,53109.3,12931.3
step02_gravity_refstate-mantle.xmf,56,-2.9669e-08,2.10963e-06,0,-8.74565e-08,-1.22739e+09,-1.22711e+09,-1.22739e+09,-11688.6,0.000654701,0.0377226,0,0.0377283,-26896.1,-43979.8,-0,51552.2,11688.6
step02_gravity_refstate-mantle.xmf,57,-1.00404e-07,2.1019e-06,0,-6.26246e-08,-1.19561e+09,-1.19531e+09,-1.19559e+09,-8369.77,0.000143342,0.0402162,0,0.0402165,-25298,-42997.5,-0,49887.6,8369.77
step02_gravity_refstate-mantle.xmf,58,2.72512e-07,2.24082e-06,0,-7.80014e-08,-1.44232e+09,-1.44206e+09,-1.44236e+09,-10424.9,0.00179404,0.0226137,0,0.0226848,-33469.7,-50621.3,-0,60685.6,10424.9
step02_gravity_refstate-mantle.xmf,59,3.57963e-07,2.34274e-06,0,-4.74779e-08,-1.54606e+09,-1.54579e+09,-1.54611e+09,-6345.42,0.00174846,0.0152434,0,0.0153434,-35059.5,-53826.7,-0,64237.6,6345.42
step02_gravity_refstate-mantle.xmf,60,4.00523e-07,2.43433e-06,0,-3.12748e-08,-1.62304e+09,-1.62277e+09,-1.6231e+09,-4179.88,0.00185297,0.00956115,0,0.00973905,-35312,-56205.2,-0,66377.4,4179.88
step02_gravity_refstate-mantle.xmf,61,4.17754e-07,2.51988e-06,0,-1.23275e-08,-1.68712e+09,-1.68684e+09,-1.68717e+09,-1647.57,0.00144182,0.00465454,0,0.00487274,-36518.1,-58184.8,-0,68695.3,1647.57
step02_gravity_refstate-mantle.xmf,62,4.20671e-07,2.6079e-06,0,1.17515e-09,-1.74587e+09,-1.74558e+09,-1.74593e+09,157.058,0.000991695,-5.85138e-20,0,0.000991695,-37633.6,-60000,-0,70825.7,157.058
step02_gravity_refstate-mantle.xmf,63,-2.96048e-07,2.02924e-06,0,7.49364e-08,-1.09862e+09,-1.09831e+09,-1.09858e+09,10015.2,-0.0018698,0.0479859,-0,0.0480223,-21670.5,-40000,-0,45493,10015.2
step02_gravity_refstate-mantle.xmf,64,-2.20043e-07,2.097e-06,0,3.68902e-09,-1.15184e+09,-1.15153e+09,-1.15181e+09,493.037,-0.000924224,0.0441711,-0,0.0441808,-22467.3,-41644.6,-0,47318.6,493.037
step02_gravity_refstate-mantle.xmf,65,-3.39821e-07,2.04893e-06,0,1.08931e-07,-1.09862e+09,-1.0983e+09,-1.09858e+09,14558.7,-0.0023789,0.0489939,-0,0.0490517,-20065.1,-40000,-0,44750.5,14558.7
step02_gravity_refstate-mantle.xmf,66,-2.79171e-07,2.1094e-06,0,4.89821e-08,-1.14029e+09,-1.13997e+09,-1.14025e+09,6546.46,-0.00153187,0.045873,-0,0.0458985,-20742.1,-41287.5,-0,46204.9,6546.46
step02_gravity_refstate-mantle.xmf,67,1.38116e-07,2.17063e-06,0,-1.13135e-07,-1.33334e+09,-1.33307e+09,-1.33336e+09,-15120.5,0.00169144,0.0302461,0,0.0302934,-29871.1,-47253.8,-0,55903.5,15120.5
step02_gravity_refstate-mantle.xmf,68,2.34201e-07,2.22067e-06,0,-1.00663e-07,-1.40838e+09,-1.40812e+09,-1.40842e+09,-13453.6,0.00202006,0.0250221,0,0.0251035,-31690,-49572.8,-0,58836.3,13453.6
step02_gravity_refstate-mantle.xmf,69,3.33007e-07,2.30866e-06,0,-7.10701e-08,-1.50954e+09,-1.50927e+09,-1.50958e+09,-9498.51,0.00216527,0.0178901,0,0.0180206,-33428.6,-52698.3,-0,62406.6,9498.51
step02_gravity_refstate-mantle.xmf,70,-1.48038e-07,2.12116e-06,0,-4.47653e-08,-1.18675e+09,-1.18644e+09,-1.18673e+09,-5982.88,-0.000176511,0.041347,-0,0.0413474,-23714.5,-42723.6,-0,48863.9,5982.88
step02_gravity_refstate-mantle.xmf,71,-3.19759e-07,2.12631e-06,0,8.81799e-08,-1.13849e+09,-1.13816e+09,-1.13845e+09,11785.2,-0.00200135,0.0469883,-0,0.0470309,-19274.3,-41231.8,-0,45514.4,11785.2
step02_gravity_refstate-mantle.xmf,72,-3.76024e-07,2.06422e-06,0,1.5242e-07,-1.09863e+09,-1.0983e+09,-1.09858e+09,20370.9,-0.00292972,0.0501558,-0,0.0502413,-18528.8,-40000,-0,44083.1,20370.9
step02_gravity_refstate-mantle.xmf,73,-4.02901e-07,2.06854e-06,0,2.01805e-07,-1.09864e+09,-1.09831e+09,-1.09858e+09,26971.2,-0.00350601,0.0514768,-0,0.0515961,-17057.5,-40000,-0,43485.2,26971.2
step02_gravity_refstate-mantle.xmf,74,-3.53419e-07,2.1449e-06,0,1.40849e-07,-1.13891e+09,-1.13857e+09,-1.13886e+09,18824.5,-0.00249613,0.0481759,-0,0.0482405,-17785.2,-41244.6,-0,44915.8,18824.5
step02_gravity_refstate-mantle.xmf,75,-4.19925e-07,2.05896e-06,0,2.55433e-07,-1.09864e+09,-1.09831e+09,-1.09858e+09,34138.6,-0.00408824,0.0529581,-0,0.0531157,-15647.1,-40000,-0,42951.5,34138.6
step02_gravity_refstate-mantle.xmf,76,-3.80369e-07,2.14532e-06,0,2.06308e-07,-1.1362e+09,-1.13586e+09,-1.13615e+09,27573.1,-0.003083,0.049765,-0,0.0498604,-16335.6,-41160.6,-0,44283.7,27573.1
step02_gravity_refstate-mantle.xmf,77,9.51172e-08,2.16809e-06,0,-1.19513e-07,-1.31015e+09,-1.30987e+09,-1.31016e+09,-15972.9,0.00160502,0.0319665,0,0.0320067,-28471,-46537.2,-0,54555.5,15972.9
step02_gravity_refstate-mantle.xmf,78,3.6565e-08,2.16606e-06,0,-1.17663e-07,-1.2815e+09,-1.28122e+09,-1.28151e+09,-15725.6,0.00135109,0.0341398,0,0.0341666,-26933.8,-45651.9,-0,53005,15725.6
step02_gravity_refstate-mantle.xmf,79,-2.80008e-08,2.16772e-06,0,-1.05453e-07,-1.25398e+09,-1.25369e+09,-1.25398e+09,-14093.8,0.00097338,0.0363398,0,0.0363528,-25386.4,-44801.3,-0,51494,14093.8
step02_gravity_refstate-mantle.xmf,80,1.98196e-07,2.2142e-06,0,-1.19376e-07,-1.38337e+09,-1.3831e+09,-1.38339e+09,-15954.6,0.00216055,0.026842,0,0.0269288,-30037.5,-48799.7,-0,57303.2,15954.6
step02_gravity_refstate-mantle.xmf,81,3.03531e-07,2.28402e-06,0,-9.63238e-08,-1.47548e+09,-1.47522e+09,-1.47552e+09,-12873.7,0.00251083,0.0203512,0,0.0205055,-31714,-51646,-0,60606,12873.7
step02_gravity_refstate-mantle.xmf,82,3.83294e-07,2.38244e-06,0,-5.76214e-08,-1.57675e+09,-1.57648e+09,-1.5768e+09,-7701.1,0.00249535,0.0130203,0,0.0132573,-33339,-54774.9,-0,64123.2,7701.1
step02_gravity_refstate-mantle.xmf,83,4.27569e-07,2.52364e-06,0,-1.91986e-08,-1.6881e+09,-1.68782e+09,-1.68816e+09,-2565.9,0.00237577,0.00458129,0,0.00516067,-34311.6,-58215.3,-0,67574.5,2565.9
step02_gravity_refstate-mantle.xmf,84,4.28761e-07,2.60914e-06,0,1.02134e-09,-1.74587e+09,-1.74558e+09,-1.74593e+09,136.502,0.00194834,-5.77781e-20,0,0.00194834,-35381,-60000,-0,69655,136.502
step02_gravity_refstate-mantle.xmf,85,-9.19328e-08,2.17286e-06,0,-8.37302e-08,-1.23034e+09,-1.23004e+09,-1.23033e+09,-11190.5,0.000521065,0.0383858,0,0.0383893,-23898.7,-44070.8,-0,50133.6,11190.5
step02_gravity_refstate-mantle.xmf,86,-2.20481e-07,2.17453e-06,0,-6.38955e-09,-1.18572e+09,-1.1854e+09,-1.18569e+09,-853.964,-0.000671126,0.0426501,-0,0.0426554,-21106.9,-42691.5,-0,47624.2,853.964
step02_gravity_refstate-mantle.xmf,87,-1.58866e-07,2.17438e-06,0,-4.91251e-08,-1.20623e+09,-1.20592e+09,-1.20621e+09,-6565.58,-5.69431e-05,0.0405824,-0,0.0405824,-22465.6,-43325.4,-0,48803.6,6565.58
step02_gravity_refstate-mantle.xmf,88,-2.69553e-07,2.17535e-06,0,3.63443e-08,-1.1716e+09,-1.17127e+09,-1.17156e+09,4857.41,-0.00121947,0.044336,-0,0.0443527,-19911.4,-42254.9,-0,46711.2,4857.41
step02_gravity_refstate-mantle.xmf,89,-3.93407e-07,2.13314e-06,0,2.75887e-07,-1.13584e+09,-1.1355e+09,-1.13579e+09,36872.2,-0.00362038,0.0513463,-0,0.0514738,-14970.3,-41149.4,-0,43787.9,36872.2
step02_gravity_refstate-mantle.xmf,90,-4.07728e-07,2.03415e-06,0,3.18058e-07,-1.09864e+09,-1.09831e+09,-1.09859e+09,42508.4,-0.00465343,0.054596,-0,0.054794,-14293.4,-40000,-0,42477.1,42508.4
step02_gravity_refstate-mantle.xmf,91,-3.78283e-07,1.99002e-06,0,3.8238e-07,-1.09864e+09,-1.09832e+09,-1.09859e+09,51105.1,-0.00517451,0.0563814,-0,0.0566184,-12992.6,-40000,-0,42057.2,51105.1
step02_gravity_refstate-mantle.xmf,92,-3.80809e-07,2.11656e-06,0,3.76819e-07,-1.14047e+09,-1.14013e+09,-1.14041e+09,50361.8,-0.00410363,0.0530294,-0,0.0531879,-13476,-41292.4,-0,43435.7,50361.8
step02_gravity_refstate-mantle.xmf,93,1.5803e-07,2.21533e-06,0,-1.3372e-07,-1.36091e+09,-1.36064e+09,-1.36093e+09,-17871.6,0.00220629,0.0285329,0,0.028618,-28436.2,-48105.8,-0,55881.9,17871.6
step02_gravity_refstate-mantle.xmf,94,2.68325e-07,2.269e-06,0,-1.20387e-07,-1.44413e+09,-1.44386e+09,-1.44416e+09,-16089.7,0.00273958,0.0226332,0,0.0227984,-30037.3,-50677.2,-0,58910.2,16089.7
step02_gravity_refstate-mantle.xmf,95,3.61549e-07,2.34824e-06,0,-8.43455e-08,-1.53907e+09,-1.5388e+09,-1.53911e+09,-11272.8,0.0029388,0.015802,0,0.0160729,-31663.5,-53610.7,-0,62263,11272.8
step02_gravity_refstate-mantle.xmf,96,4.19386e-07,2.46047e-06,0,-4.10692e-08,-1.63982e+09,-1.63954e+09,-1.63987e+09,-5488.9,0.00284204,0.00830448,0,0.00877733,-32997.2,-56723.6,-0,65623,5488.9
step02_gravity_refstate-mantle.xmf,97,-2.94478e-07,2.22074e-06,0,6.53102e-08,-1.18294e+09,-1.1826e+09,-1.1829e+09,8728.71,-0.00136317,0.0445022,-0,0.044523,-18623,-42605.2,-0,46497.5,8728.71
step02_gravity_refstate-mantle.xmf,98,-3.38684e-07,2.23924e-06,0,1.39528e-07,-1.18028e+09,-1.17994e+09,-1.18024e+09,18647.9,-0.00195519,0.0461673,-0,0.0462087,-16935.1,-42522.9,-0,45771.1,18647.9
step02_gravity_refstate-mantle.xmf,99,-3.22717e-07,1.92427e-06,0,4.45929e-07,-1.09863e+09,-1.09833e+09,-1.09859e+09,59598.4,-0.00562511,0.0582973,-0,0.0585681,-11740.6,-40000,-0,41687.4,59598.4
step02_gravity_refstate-mantle.xmf,100,-3.43764e-07,2.03856e-06,0,4.58277e-07,-1.1305e+09,-1.13018e+09,-1.13046e+09,61248.8,-0.00478239,0.0556053,-0,0.0558106,-12202.9,-40984.7,-0,42762.8,61248.8
step02_gravity_refstate-mantle.xmf,101,-3.73036e-07,2.21667e-06,0,2.21445e-07,-1.16645e+09,-1.1661e+09,-1.1664e+09,29596.1,-0.00271091,0.0484752,-0,0.0485509,-15655.2,-42095.3,-0,44912.2,29596.1
step02_gravity_refstate-mantle.xmf,102,1.06097e-07,2.21752e-06,0,-1.40525e-07,-1.33499e+09,-1.3347e+09,-1.335e+09,-18781.2,0.00207762,0.03052,0,0.0305907,-26919.4,-47304.6,-0,54427.8,18781.2
step02_gravity_refstate-mantle.xmf,103,4.42994e-08,2.22273e-06,0,-1.37547e-07,-1.3079e+09,-1.30761e+09,-1.30791e+09,-18383.2,0.00179483,0.0326734,0,0.0327226,-25419.9,-46467.7,-0,52966.1,18383.2
step02_gravity_refstate-mantle.xmf,104,-2.22711e-08,2.23089e-06,0,-1.23421e-07,-1.28219e+09,-1.28189e+09,-1.28219e+09,-16495.3,0.00139038,0.0348354,0,0.0348631,-23965.9,-45673,-0,51579,16495.3
step02_gravity_refstate-mantle.xmf,105,2.27186e-07,2.26322e-06,0,-1.40665e-07,-1.41552e+09,-1.41525e+09,-1.41555e+09,-18799.9,0.00284567,0.0247547,0,0.0249178,-28428.4,-49793.3,-0,57337.2,18799.9
step02_gravity_refstate-mantle.xmf,106,3.34834e-07,2.32682e-06,0,-1.11955e-07,-1.50603e+09,-1.50577e+09,-1.50608e+09,-14962.8,0.00329269,0.0182398,0,0.0185346,-29991.5,-52590,-0,60540.9,14962.8
step02_gravity_refstate-mantle.xmf,107,4.08115e-07,2.41838e-06,0,-6.52224e-08,-1.60169e+09,-1.60142e+09,-1.60174e+09,-8716.98,0.00331237,0.011193,0,0.0116728,-31538.2,-55545.5,-0,63874.6,8716.98
step02_gravity_refstate-mantle.xmf,108,4.43163e-07,2.53643e-06,0,-2.36535e-08,-1.69431e+09,-1.69403e+09,-1.69437e+09,-3161.29,0.00329644,0.00410194,0,0.00526236,-32216.6,-58407.1,-0,66703.1,3161.29
step02_gravity_refstate-mantle.xmf,109,4.41283e-07,2.61194e-06,0,8.70324e-10,-1.74587e+09,-1.74558e+09,-1.74593e+09,116.319,0.00288125,-5.23598e-20,0,0.00288125,-33236.8,-60000,-0,68590.7,116.319
step02_gravity_refstate-mantle.xmf,110,-2.27918e-07,2.24228e-06,0,-4.4356e-09,-1.2109e+09,-1.21057e+09,-1.21087e+09,-592.817,-0.000464122,0.0416629,-0,0.0416655,-19896.3,-43469.5,-0,47806.5,592.817
step02_gravity_refstate-mantle.xmf,111,-9.20345e-08,2.23879e-06,0,-9.65267e-08,-1.25731e+09,-1.257e+09,-1.2573e+09,-12900.8,0.000865887,0.0370578,0,0.0370679,-22561.5,-44903.9,-0,50253.2,12900.8
step02_gravity_refstate-mantle.xmf,112,-1.6298e-07,2.24465e-06,0,-5.58628e-08,-1.23351e+09,-1.23319e+09,-1.23349e+09,-7466.06,0.000234675,0.0393534,0,0.0393541,-21168.4,-44168.4,-0,48979.1,7466.06
step02_gravity_refstate-mantle.xmf,113,-2.36657e-07,1.83413e-06,0,5.06751e-07,-1.09862e+09,-1.09834e+09,-1.09859e+09,67727.3,-0.00597429,0.0603194,-0,0.0606145,-10533.4,-40000,-0,41363.7,67727.3
step02_gravity_refstate-mantle.xmf,114,-2.8687e-07,1.96528e-06,0,5.38655e-07,-1.12886e+09,-1.12856e+09,-1.12882e+09,71991.3,-0.00517566,0.0575808,-0,0.0578129,-11085.7,-40934.1,-0,42408.7,71991.3
step02_gravity_refstate-mantle.xmf,115,-3.63514e-07,2.15244e-06,0,4.70807e-07,-1.16363e+09,-1.16329e+09,-1.16358e+09,62923.3,-0.00403346,0.0532411,-0,0.0533937,-12339.2,-42008,-0,43782.7,62923.3
step02_gravity_refstate-mantle.xmf,116,-3.81344e-07,2.25058e-06,0,2.96483e-07,-1.17957e+09,-1.17922e+09,-1.17952e+09,39625,-0.00288566,0.0490719,-0,0.0491566,-14431.1,-42500.6,-0,44883.8,39625
step02_gravity_refstate-mantle.xmf,117,1.78097e-07,2.26473e-06,0,-1.55078e-07,-1.38811e+09,-1.38783e+09,-1.38814e+09,-20726.2,0.00281478,0.0268452,0,0.0269924,-26890.2,-48946.3,-0,55846.4,20726.2
step02_gravity_refstate-mantle.xmf,118,2.98204e-07,2.31366e-06,0,-1.38303e-07,-1.47323e+09,-1.47296e+09,-1.47327e+09,-18484.2,0.00349661,0.0206775,0,0.0209711,-28386.6,-51576.4,-0,58872.1,18484.2
step02_gravity_refstate-mantle.xmf,119,3.90419e-07,2.38694e-06,0,-9.47776e-08,-1.56568e+09,-1.56541e+09,-1.56573e+09,-12667,0.00375741,0.0138982,0,0.0143972,-29931.3,-54432.9,-0,62119.5,12667
step02_gravity_refstate-mantle.xmf,120,4.3776e-07,2.48251e-06,0,-4.57325e-08,-1.65293e+09,-1.65265e+09,-1.65298e+09,-6112.15,0.0036078,0.00731587,0,0.0081571,-31298,-57128.7,-0,65140.2,6112.15
step02_gravity_refstate-mantle.xmf,121,-2.44444e-07,2.30301e-06,0,9.509e-09,-1.22893e+09,-1.22859e+09,-1.2289e+09,1270.88,-0.000349046,0.0411779,-0,0.0411794,-18766.9,-44026.5,-0,47859.4,1270.88
step02_gravity_refstate-mantle.xmf,122,-2.93405e-07,2.29608e-06,0,6.8614e-08,-1.21227e+09,-1.21192e+09,-1.21223e+09,9170.26,-0.000992973,0.0431707,-0,0.0431821,-17755,-43511.5,-0,46994.6,9170.26
step02_gravity_refstate-mantle.xmf,123,-3.56938e-07,2.31141e-06,0,1.91678e-07,-1.20276e+09,-1.2024e+09,-1.20271e+09,25617.8,-0.00189785,0.0459304,-0,0.0459696,-15659,-43217.4,-0,45966.8,25617.8
step02_gravity_refstate-mantle.xmf,124,-1.17528e-07,1.71871e-06,0,5.59605e-07,-1.0986e+09,-1.09836e+09,-1.09859e+09,74791.3,-0.006193,0.0624149,-0,0.0627214,-9366.97,-40000,-0,41082.1,74791.3
step02_gravity_refstate-mantle.xmf,125,-2.04033e-07,1.87444e-06,0,6.22072e-07,-1.12935e+09,-1.12907e+09,-1.12932e+09,83139.9,-0.00544138,0.0595517,-0,0.0597998,-9986.64,-40949.6,-0,42149.8,83139.9
step02_gravity_refstate-mantle.xmf,126,-3.31218e-07,2.07864e-06,0,5.39427e-07,-1.15431e+09,-1.15398e+09,-1.15426e+09,72094.4,-0.00452212,0.0552684,-0,0.0554531,-11499.6,-41720.2,-0,43276,72094.4
step02_gravity_refstate-mantle.xmf,127,-3.84024e-07,2.22895e-06,0,3.95581e-07,-1.17793e+09,-1.17758e+09,-1.17788e+09,52869.5,-0.00338921,0.0508866,-0,0.0509993,-13222.9,-42450,-0,44461.7,52869.5
step02_gravity_refstate-mantle.xmf,128,1.19523e-07,2.27183e-06,0,-1.61173e-07,-1.36082e+09,-1.36053e+09,-1.36083e+09,-21540.8,0.00263298,0.0290015,0,0.0291207,-25407.9,-48102.7,-0,54400.6,21540.8
step02_gravity_refstate-mantle.xmf,129,5.42704e-08,2.2839e-06,0,-1.56781e-07,-1.33486e+09,-1.33457e+09,-1.33487e+09,-20953.8,0.00231942,0.0311564,0,0.0312426,-23981.7,-47300.7,-0,53032.8,20953.8
step02_gravity_refstate-mantle.xmf,130,-1.7901e-08,2.29709e-06,0,-1.39055e-07,-1.30887e+09,-1.30856e+09,-1.30887e+09,-18584.6,0.00185686,0.033423,0,0.0334745,-22616.4,-46497.3,-0,51705.9,18584.6
step02_gravity_refstate-mantle.xmf,131,2.51921e-07,2.31005e-06,0,-1.6024e-07,-1.44204e+09,-1.44176e+09,-1.44207e+09,-21416,0.00355054,0.0230379,0,0.0233098,-26855,-50612.6,-0,57296,21416
step02_gravity_refstate-mantle.xmf,132,3.62849e-07,2.36558e-06,0,-1.25488e-07,-1.5303e+09,-1.53003e+09,-1.53035e+09,-16771.5,0.00408042,0.016554,0,0.0170495,-28339.5,-53340,-0,60401,16771.5
step02_gravity_refstate-mantle.xmf,133,4.37373e-07,2.4598e-06,0,-6.85054e-08,-1.63004e+09,-1.62977e+09,-1.6301e+09,-9155.75,0.00417249,0.00908081,0,0.00999354,-29808.3,-56421.8,-0,63811.8,9155.75
step02_gravity_refstate-mantle.xmf,134,4.60088e-07,2.54005e-06,0,-3.15219e-08,-1.69291e+09,-1.69263e+09,-1.69297e+09,-4212.91,0.00417888,0.00422025,0,0.00593916,-30256.3,-58364.1,-0,65740.5,4212.91
step02_gravity_refstate-mantle.xmf,135,4.57951e-07,2.61619e-06,0,1.08755e-09,-1.74586e+09,-1.74558e+09,-1.74593e+09,145.352,0.00379877,-5.38663e-20,0,0.00379877,-31195.7,-60000,-0,67625.2,145.352
step02_gravity_refstate-mantle.xmf,136,2.25907e-08,1.58342e-06,0,5.99961e-07,-1.09858e+09,-1.09838e+09,-1.09859e+09,80184.8,-0.00625277,0.0645421,-0,0.0648443,-8237.32,-40000,-0,40839.4,80184.8
step02_gravity_refstate-mantle.xmf,137,-9.1005e-08,1.75351e-06,0,7.19853e-07,-1.13295e+09,-1.1327e+09,-1.13294e+09,96208.3,-0.00555128,0.0616497,-0,0.0618991,-8809.16,-41061.2,-0,41995.6,96208.3
step02_gravity_refstate-mantle.xmf,138,-1.71212e-07,2.32416e-06,0,-5.74302e-08,-1.26116e+09,-1.26083e+09,-1.26114e+09,-7675.54,0.00059846,0.0381298,0,0.0381345,-19875.7,-45022.7,-0,49214.7,7675.54
step02_gravity_refstate-mantle.xmf,139,-9.53976e-08,2.30966e-06,0,-1.05823e-07,-1.28303e+09,-1.28271e+09,-1.28302e+09,-14143.2,0.00125521,0.0358214,0,0.0358434,-21264,-45698.7,-0,50403.7,14143.2
step02_gravity_refstate-mantle.xmf,140,-3.16912e-07,2.34279e-06,0,1.06369e-07,-1.22274e+09,-1.22239e+09,-1.2227e+09,14216.2,-0.00106675,0.0433658,-0,0.0433789,-16725.9,-43834.9,-0,46917.5,14216.2
step02_gravity_refstate-mantle.xmf,141,-2.63515e-07,2.36755e-06,0,2.90259e-08,-1.24646e+09,-1.24611e+09,-1.24642e+09,3879.31,-0.00020885,0.0407335,-0,0.040734,-17724.2,-44567.9,-0,47962.9,3879.31
step02_gravity_refstate-mantle.xmf,142,-2.86495e-07,2.04126e-06,0,6.38096e-07,-1.16175e+09,-1.16144e+09,-1.16171e+09,85281.5,-0.00466922,0.0565215,-0,0.0567141,-10551.5,-41950.2,-0,43256.9,85281.5
step02_gravity_refstate-mantle.xmf,143,-3.58654e-07,2.18369e-06,0,5.66681e-07,-1.18215e+09,-1.18181e+09,-1.1821e+09,75737,-0.00396525,0.0535111,-0,0.0536578,-11456.7,-42580.4,-0,44094.7,75737
step02_gravity_refstate-mantle.xmf,144,-3.92583e-07,2.27823e-06,0,4.67259e-07,-1.19635e+09,-1.19599e+09,-1.19629e+09,62449.2,-0.00329417,0.0508636,-0,0.0509702,-12423.6,-43018.9,-0,44776.9,62449.2
step02_gravity_refstate-mantle.xmf,145,-3.80578e-07,2.38635e-06,0,2.48947e-07,-1.2238e+09,-1.22343e+09,-1.22375e+09,33271.8,-0.00179988,0.045725,-0,0.0457604,-14567.9,-43867.3,-0,46223,33271.8
step02_gravity_refstate-mantle.xmf,146,-3.99066e-07,2.34491e-06,0,3.5775e-07,-1.20989e+09,-1.20952e+09,-1.20983e+09,47813.3,-0.00256544,0.0482585,-0,0.0483267,-13471.6,-43437.2,-0,45478.3,47813.3
step02_gravity_refstate-mantle.xmf,147,1.98534e-07,2.31636e-06,0,-1.75285e-07,-1.41401e+09,-1.41373e+09,-1.41404e+09,-23426.9,0.00347861,0.0252322,0,0.0254709,-25395.1,-49746.7,-0,55853.8,23426.9
step02_gravity_refstate-mantle.xmf,148,3.25068e-07,2.35634e-06,0,-1.54589e-07,-1.49728e+09,-1.49701e+09,-1.49733e+09,-20660.8,0.00426588,0.0190602,0,0.0195317,-26794.3,-52319.8,-0,58781.8,20660.8
step02_gravity_refstate-mantle.xmf,149,4.17946e-07,2.42237e-06,0,-1.02698e-07,-1.58709e+09,-1.58682e+09,-1.58714e+09,-13725.5,0.00458292,0.0123565,0,0.013179,-28260.9,-55094.6,-0,61920,13725.5
step02_gravity_refstate-mantle.xmf,150,6.99026e-08,1.58635e-06,0,7.64038e-07,-1.12874e+09,-1.12854e+09,-1.12875e+09,102114,-0.00563897,0.0642201,-0,0.0644672,-7658.35,-40931.9,-0,41642.1,102114
step02_gravity_refstate-mantle.xmf,151,-2.10107e-07,2.37158e-06,0,-2.82294e-08,-1.26479e+09,-1.26445e+09,-1.26476e+09,-3772.86,0.000447902,0.0386805,0,0.0386831,-18639.6,-45134.6,-0,48832.1,3772.86
step02_gravity_refstate-mantle.xmf,152,-3.42949e-07,2.41942e-06,0,1.46733e-07,-1.24251e+09,-1.24214e+09,-1.24246e+09,19610.9,-0.00094051,0.0430426,-0,0.0430529,-15643.6,-44445.5,-0,47118.2,19610.9
step02_gravity_refstate-mantle.xmf,153,-2.05223e-07,1.92476e-06,0,7.19859e-07,-1.15476e+09,-1.15448e+09,-1.15473e+09,96209.1,-0.00504724,0.0588875,-0,0.0591034,-9563.11,-41734.7,-0,42816.3,96209.1
step02_gravity_refstate-mantle.xmf,154,1.35972e-07,2.33021e-06,0,-1.81223e-07,-1.38725e+09,-1.38696e+09,-1.38727e+09,-24220.5,0.00326678,0.0274224,0,0.0276163,-23978.4,-48919.5,-0,54480.1,24220.5
step02_gravity_refstate-mantle.xmf,155,6.34423e-08,2.34909e-06,0,-1.74667e-07,-1.36076e+09,-1.36046e+09,-1.36077e+09,-23344.2,0.00289768,0.0297021,0,0.0298431,-22603.3,-48100.9,-0,53147,23344.2
step02_gravity_refstate-mantle.xmf,156,-1.2403e-08,2.36853e-06,0,-1.54149e-07,-1.33585e+09,-1.33553e+09,-1.33585e+09,-20602,0.00240288,0.0319662,0,0.0320564,-21348.2,-47331,-0,51922.7,20602
step02_gravity_refstate-mantle.xmf,157,2.79328e-07,2.3593e-06,0,-1.78154e-07,-1.46823e+09,-1.46796e+09,-1.46827e+09,-23810.3,0.00431688,0.0213211,0,0.0217537,-25352.4,-51422.2,-0,57332.2,23810.3
step02_gravity_refstate-mantle.xmf,158,3.9286e-07,2.40571e-06,0,-1.36209e-07,-1.55359e+09,-1.55332e+09,-1.55364e+09,-18204.4,0.00490369,0.0149196,0,0.0157048,-26758.9,-54059.7,-0,60319.9,18204.4
step02_gravity_refstate-mantle.xmf,159,4.56649e-07,2.47832e-06,0,-7.69138e-08,-1.63543e+09,-1.63516e+09,-1.6355e+09,-10279.5,0.00498306,0.00870164,0,0.0100274,-28055,-56588.5,-0,63161.2,10279.5
step02_gravity_refstate-mantle.xmf,160,4.80231e-07,2.54916e-06,0,-3.8741e-08,-1.69276e+09,-1.69249e+09,-1.69283e+09,-5177.73,0.00509137,0.00424587,0,0.00662944,-28315.8,-58359.7,-0,64866.4,5177.73
step02_gravity_refstate-mantle.xmf,161,4.77882e-07,2.62289e-06,0,1.1295e-09,-1.74586e+09,-1.74557e+09,-1.74592e+09,150.958,0.00470777,-5.43901e-20,0,0.00470777,-29252.7,-60000,-0,66751.2,150.958
step02_gravity_refstate-mantle.xmf,162,2.02547e-07,1.42421e-06,0,6.21949e-07,-1.09856e+09,-1.09839e+09,-1.09859e+09,83123.4,-0.00613091,0.0666511,-0,0.0669325,-7140.25,-40000,-0,40632.3,83123.4
step02_gravity_refstate-mantle.xmf,163,-4.42602e-08,1.73397e-06,0,8.47152e-07,-1.15402e+09,-1.15379e+09,-1.15402e+09,113222,-0.00525379,0.0620767,-0,0.0622986,-8060.54,-41712.5,-0,42484.1,113222
step02_gravity_refstate-mantle.xmf,164,-1.62845e-07,1.88544e-06,0,8.27264e-07,-1.16669e+09,-1.16642e+09,-1.16667e+09,110564,-0.00498816,0.0597825,-0,0.0599902,-8795.45,-42103.4,-0,43012.2,110564
step02_gravity_refstate-mantle.xmf,165,-8.94899e-08,2.38578e-06,0,-1.19111e-07,-1.31213e+09,-1.3118e+09,-1.31212e+09,-15919.2,0.00180353,0.0342543,0,0.0343017,-20170.7,-46597.7,-0,50776,15919.2
step02_gravity_refstate-mantle.xmf,166,-1.50621e-07,2.42011e-06,0,-8.26573e-08,-1.30156e+09,-1.30122e+09,-1.30154e+09,-11047.1,0.0014023,0.0357477,0,0.0357752,-18948.5,-46270.9,-0,50000.5,11047.1
step02_gravity_refstate-mantle.xmf,167,-2.20037e-07,2.44256e-06,0,-2.50338e-08,-1.28576e+09,-1.28541e+09,-1.28574e+09,-3345.77,0.000782652,0.037773,0,0.0377811,-17771.9,-45782.6,-0,49110.9,3345.77
step02_gravity_refstate-mantle.xmf,168,-2.88182e-07,2.4413e-06,0,5.44753e-08,-1.26453e+09,-1.26416e+09,-1.26449e+09,7280.63,-4.65681e-05,0.0403221,-0,0.0403221,-16679.1,-45126.1,-0,48109.8,7280.63
step02_gravity_refstate-mantle.xmf,169,-2.7336e-07,2.05842e-06,0,7.65717e-07,-1.18307e+09,-1.18276e+09,-1.18303e+09,102338,-0.00452674,0.0569213,-0,0.057101,-9672.83,-42609.1,-0,43693.2,102338
step02_gravity_refstate-mantle.xmf,170,-3.79045e-07,2.50438e-06,0,1.98954e-07,-1.26169e+09,-1.2613e+09,-1.26164e+09,26590.2,-0.000829336,0.0428612,-0,0.0428692,-14569,-45037.9,-0,47335.7,26590.2
step02_gravity_refstate-mantle.xmf,171,-3.58927e-07,2.20989e-06,0,6.73967e-07,-1.19929e+09,-1.19895e+09,-1.19924e+09,90075.7,-0.00393164,0.0539659,-0,0.054109,-10598.5,-43109.9,-0,44393.6,90075.7
step02_gravity_refstate-mantle.xmf,172,-4.09037e-07,2.32844e-06,0,5.618e-07,-1.21473e+09,-1.21436e+09,-1.21467e+09,75084.6,-0.00324539,0.0510844,-0,0.0511874,-11543.1,-43586.7,-0,45089.3,75084.6
step02_gravity_refstate-mantle.xmf,173,-4.26231e-07,2.41437e-06,0,4.39274e-07,-1.22976e+09,-1.22938e+09,-1.2297e+09,58708.9,-0.00248844,0.0482794,-0,0.0483435,-12522.3,-44051,-0,45796.3,58708.9
step02_gravity_refstate-mantle.xmf,174,-4.1428e-07,2.47072e-06,0,3.15327e-07,-1.24504e+09,-1.24465e+09,-1.24499e+09,42143.5,-0.00167645,0.0455378,-0,0.0455686,-13543.7,-44523.4,-0,46537.8,42143.5
step02_gravity_refstate-mantle.xmf,175,2.21509e-07,2.37198e-06,0,-1.94791e-07,-1.43993e+09,-1.43964e+09,-1.43996e+09,-26033.8,0.00421642,0.0236025,0,0.0239762,-23940.7,-50547.4,-0,55930.3,26033.8
step02_gravity_refstate-mantle.xmf,176,3.5704e-07,2.40253e-06,0,-1.67929e-07,-1.52268e+09,-1.52241e+09,-1.52273e+09,-22443.7,0.00510131,0.0173222,0,0.0180578,-25284.6,-53104.7,-0,58816.8,22443.7
step02_gravity_refstate-mantle.xmf,177,4.4734e-07,2.45928e-06,0,-1.08183e-07,-1.60747e+09,-1.6072e+09,-1.60753e+09,-14458.7,0.00542479,0.0108741,0,0.0121521,-26672.5,-55724.5,-0,61779,14458.7
step02_gravity_refstate-mantle.xmf,178,2.40196e-07,1.41703e-06,0,8.01665e-07,-1.12869e+09,-1.12854e+09,-1.12872e+09,107143,-0.00547889,0.0663639,-0,0.0665897,-6622.3,-40931.1,-0,41463.3,107143
step02_gravity_refstate-mantle.xmf,179,7.65784e-08,1.61071e-06,0,9.3501e-07,-1.16038e+09,-1.16018e+09,-1.16039e+09,124964,-0.00515477,0.063832,-0,0.0640398,-7114.32,-41909.4,-0,42509,124964
step02_gravity_refstate-mantle.xmf,180,-1.0638e-07,1.82937e-06,0,9.5719e-07,-1.18135e+09,-1.18109e+09,-1.18134e+09,127928,-0.0048966,0.060875,-0,0.0610716,-7925.4,-42556.5,-0,43288.2,127928
step02_gravity_refstate-mantle.xmf,181,-3.24309e-07,2.52068e-06,0,9.21588e-08,-1.28066e+09,-1.28028e+09,-1.28062e+09,12317,5.32466e-05,0.0401795,0,0.0401795,-15598.7,-45624.4,-0,48217.3,12317
step02_gravity_refstate-mantle.xmf,182,1.51855e-07,2.39242e-06,0,-2.00399e-07,-1.41232e+09,-1.41202e+09,-1.41234e+09,-26783.3,0.00394907,0.0259281,0,0.0262271,-22590.6,-49694.2,-0,54588,26783.3
step02_gravity_refstate-mantle.xmf,183,7.45333e-08,2.41856e-06,0,-1.9237e-07,-1.38665e+09,-1.38633e+09,-1.38666e+09,-25710.2,0.00354455,0.028221,0,0.0284427,-21315.8,-48900.8,-0,53344.6,25710.2
step02_gravity_refstate-mantle.xmf,184,-5.60314e-09,2.44768e-06,0,-1.70358e-07,-1.36367e+09,-1.36334e+09,-1.36367e+09,-22768.4,0.0030439,0.0304301,0,0.030582,-20119.2,-48190.4,-0,52221.7,22768.4
step02_gravity_refstate-mantle.xmf,185,3.08715e-07,2.41229e-06,0,-1.95166e-07,-1.49364e+09,-1.49336e+09,-1.49368e+09,-26084,0.00515438,0.019646,0,0.0203109,-23852.6,-52207.3,-0,57398.1,26084
step02_gravity_refstate-mantle.xmf,186,4.26398e-07,2.44879e-06,0,-1.4398e-07,-1.57689e+09,-1.57662e+09,-1.57695e+09,-19242.9,0.00578083,0.0132641,0,0.0144691,-25215.3,-54779.9,-0,60304.6,19242.9
step02_gravity_refstate-mantle.xmf,187,4.87502e-07,2.52034e-06,0,-7.02322e-08,-1.6613e+09,-1.66103e+09,-1.66136e+09,-9386.54,0.00579213,0.0067344,0,0.00888262,-26626.7,-57387.7,-0,63264,9386.54
step02_gravity_refstate-mantle.xmf,188,5.00287e-07,2.6334e-06,0,5.46655e-10,-1.74585e+09,-1.74557e+09,-1.74592e+09,73.0604,0.00561281,-3.97843e-20,0,0.00561281,-27403,-60000,-0,65961.6,73.0604
step02_gravity_refstate-mantle.xmf,189,4.0441e-07,1.25039e-06,0,6.20741e-07,-1.09853e+09,-1.09842e+09,-1.09858e+09,82962.1,-0.00580852,0.0686832,-0,0.0689284,-6071.51,-40000,-0,40458.2,82962.1
step02_gravity_refstate-mantle.xmf,190,-3.1047e-08,1.74138e-06,0,1.08018e-06,-1.19485e+09,-1.19461e+09,-1.19485e+09,144367,-0.00481308,0.06217,-0,0.062356,-7064.31,-42973.7,-0,43550.5,144367
step02_gravity_refstate-mantle.xmf,191,-2.54608e-07,2.03561e-06,0,9.05028e-07,-1.1984e+09,-1.19809e+09,-1.19836e+09,120957,-0.00451351,0.0578777,-0,0.0580534,-8788.84,-43082.5,-0,43969.8,120957
step02_gravity_refstate-mantle.xmf,192,-2.29791e-07,1.9989e-06,0,1.06518e-06,-1.21642e+09,-1.21612e+09,-1.21639e+09,142362,-0.00449479,0.0589369,-0,0.0591081,-7868.98,-43639.4,-0,44343.2,142362
step02_gravity_refstate-mantle.xmf,193,-8.50477e-08,2.48091e-06,0,-1.35094e-07,-1.34452e+09,-1.34417e+09,-1.34451e+09,-18055.3,0.00250386,0.0324988,0,0.0325951,-18941.8,-47598.4,-0,51228.9,18055.3
step02_gravity_refstate-mantle.xmf,194,-1.64992e-07,2.51691e-06,0,-8.48166e-08,-1.3281e+09,-1.32774e+09,-1.32807e+09,-11335.7,0.00191343,0.0345386,0,0.0345915,-17759.4,-47090.8,-0,50328.3,11335.7
step02_gravity_refstate-mantle.xmf,195,-2.56425e-07,2.54829e-06,0,-3.58479e-09,-1.30921e+09,-1.30884e+09,-1.30918e+09,-479.107,0.00111394,0.0370617,0,0.0370785,-16481.4,-46506.9,-0,49341,479.107
step02_gravity_refstate-mantle.xmf,196,-3.7223e-07,2.61008e-06,0,1.44087e-07,-1.29608e+09,-1.29568e+09,-1.29603e+09,19257.2,0.000112288,0.0402186,0,0.0402187,-14509.2,-46100.6,-0,48329.9,19257.2
step02_gravity_refstate-mantle.xmf,197,-3.62278e-07,2.2265e-06,0,8.00479e-07,-1.21585e+09,-1.21551e+09,-1.21581e+09,106984,-0.00394187,0.0546533,-0,0.0547953,-9719.33,-43621.6,-0,44691.2,106984
step02_gravity_refstate-mantle.xmf,198,-4.24404e-07,2.59846e-06,0,2.57279e-07,-1.28096e+09,-1.28056e+09,-1.28091e+09,34385.3,-0.00070481,0.0427019,-0,0.0427077,-13559.3,-45633.3,-0,47605.2,34385.3
step02_gravity_refstate-mantle.xmf,199,-4.33119e-07,2.37687e-06,0,6.72069e-07,-1.23244e+09,-1.23206e+09,-1.23238e+09,89822.1,-0.00323926,0.0514899,-0,0.0515917,-10662.7,-44133.7,-0,45403.5,89822.1
step02_gravity_refstate-mantle.xmf,200,-4.63447e-07,2.48634e-06,0,5.32616e-07,-1.24862e+09,-1.24822e+09,-1.24855e+09,71184.1,-0.00244604,0.0484466,-0,0.0485083,-11607.4,-44633.5,-0,46118.2,71184.1
step02_gravity_refstate-mantle.xmf,201,-4.57741e-07,2.55545e-06,0,3.92291e-07,-1.26392e+09,-1.26351e+09,-1.26385e+09,52429.6,-0.0016098,0.0455702,-0,0.0455987,-12575.2,-45106.4,-0,46826.5,52429.6
step02_gravity_refstate-mantle.xmf,202,2.42758e-07,2.43102e-06,0,-2.14018e-07,-1.4633e+09,-1.46301e+09,-1.46334e+09,-28603.5,0.00498629,0.0221486,0,0.0227029,-22501.5,-51269.8,-0,55990.3,28603.5
step02_gravity_refstate-mantle.xmf,203,3.92574e-07,2.45227e-06,0,-1.79294e-07,-1.5477e+09,-1.54742e+09,-1.54775e+09,-23962.6,0.00600852,0.0155916,0,0.0167093,-23779.6,-53877.8,-0,58892.2,23962.6
step02_gravity_refstate-mantle.xmf,204,4.82089e-07,2.50154e-06,0,-1.07928e-07,-1.63066e+09,-1.63039e+09,-1.63072e+09,-14424.5,0.00631897,0.00915567,0,0.0111246,-25140.6,-56441.2,-0,61787.2,14424.5
step02_gravity_refstate-mantle.xmf,205,5.07889e-07,2.58265e-06,0,-3.2905e-08,-1.70836e+09,-1.70808e+09,-1.70843e+09,-4397.76,0.00598735,0.00302456,0,0.00670792,-26579,-58841.7,-0,64566.1,4397.76
step02_gravity_refstate-mantle.xmf,206,4.35212e-07,1.22612e-06,0,8.22727e-07,-1.13215e+09,-1.13204e+09,-1.13221e+09,109957,-0.00506739,0.0684415,-0,0.0686289,-5533.43,-41038.7,-0,41410.1,109957
step02_gravity_refstate-mantle.xmf,207,2.4964e-07,1.41146e-06,0,9.40664e-07,-1.15379e+09,-1.15364e+09,-1.15383e+09,125720,-0.00507864,0.0661321,-0,0.0663269,-6215.97,-41706.5,-0,42167.2,125720
step02_gravity_refstate-mantle.xmf,208,1.51915e-07,1.52126e-06,0,1.07841e-06,-1.18123e+09,-1.18105e+09,-1.18125e+09,144130,-0.00486926,0.0647813,-0,0.0649641,-6264.84,-42553.7,-0,43012.4,144130
step02_gravity_refstate-mantle.xmf,209,-1.22473e-07,1.85823e-06,0,1.18372e-06,-1.22014e+09,-1.21988e+09,-1.22013e+09,158204,-0.00461747,0.0610369,-0,0.0612113,-6957.55,-43754.7,-0,44304.5,158204
step02_gravity_refstate-mantle.xmf,210,-3.15228e-07,2.60749e-06,0,5.6695e-08,-1.3104e+09,-1.31001e+09,-1.31036e+09,7577.29,0.00082623,0.0380911,0,0.0381001,-15350,-46543.3,-0,49009.2,7577.29
step02_gravity_refstate-mantle.xmf,211,1.65579e-07,2.45819e-06,0,-2.18446e-07,-1.43515e+09,-1.43484e+09,-1.43517e+09,-29195.3,0.00465109,0.0245857,0,0.0250218,-21254.7,-50399.6,-0,54698.1,29195.3
step02_gravity_refstate-mantle.xmf,212,8.41517e-08,2.49431e-06,0,-2.10209e-07,-1.41157e+09,-1.41124e+09,-1.41158e+09,-28094.4,0.00424226,0.0268021,0,0.0271357,-20049,-49670.8,-0,53564.4,28094.4
step02_gravity_refstate-mantle.xmf,213,-2.10964e-09,2.53408e-06,0,-1.86623e-07,-1.39012e+09,-1.38978e+09,-1.39012e+09,-24942.2,0.0037284,0.0289854,0,0.0292242,-18904.7,-49007.7,-0,52527.5,24942.2
step02_gravity_refstate-mantle.xmf,214,3.43228e-07,2.4729e-06,0,-2.12611e-07,-1.51873e+09,-1.51845e+09,-1.51878e+09,-28415.4,0.00611893,0.0179989,0,0.0190106,-22219.7,-52982.8,-0,57453.4,28415.4
step02_gravity_refstate-mantle.xmf,215,4.64928e-07,2.49574e-06,0,-1.46921e-07,-1.60136e+09,-1.60108e+09,-1.60142e+09,-19636,0.00670959,0.011493,0,0.0133081,-23736.8,-55535.9,-0,60395.9,19636
step02_gravity_refstate-mantle.xmf,216,5.24947e-07,2.57734e-06,0,-5.45813e-08,-1.6932e+09,-1.69293e+09,-1.69327e+09,-7294.79,0.00678083,0.00425403,0,0.00800478,-24954.9,-58373.6,-0,63484.1,7294.79
step02_gravity_refstate-mantle.xmf,217,5.26089e-07,2.64673e-06,0,1.50539e-09,-1.74585e+09,-1.74556e+09,-1.74592e+09,201.195,0.00651583,-5.47666e-20,0,0.00651583,-25642.2,-60000,-0,65249.7,201.195
step02_gravity_refstate-mantle.xmf,218,-2.6329e-07,2.04999e-06,0,1.19624e-06,-1.24137e+09,-1.24106e+09,-1.24133e+09,159877,-0.0043699,0.0588232,-0,0.0589853,-7310.04,-44409.9,-0,45007.5,159877
step02_gravity_refstate-mantle.xmf,219,6.17534e-07,1.07009e-06,0,5.90806e-07,-1.0985e+09,-1.09844e+09,-1.09858e+09,78961.2,-0.00527635,0.0705734,-0,0.0707704,-5026.7,-40000,-0,40314.6,78961.2
step02_gravity_refstate-mantle.xmf,220,4.32429e-08,1.63363e-06,0,1.21155e-06,-1.20997e+09,-1.20976e+09,-1.20998e+09,161924,-0.00470792,0.0634069,-0,0.0635814,-6255.77,-43441,-0,43889.1,161924
step02_gravity_refstate-mantle.xmf,221,-3.68007e-07,2.21432e-06,0,9.53704e-07,-1.23051e+09,-1.23016e+09,-1.23046e+09,127463,-0.0040312,0.0557392,-0,0.0558848,-8802.03,-44074.2,-0,44944.5,127463
step02_gravity_refstate-mantle.xmf,222,-9.1808e-08,2.57931e-06,0,-1.4673e-07,-1.37153e+09,-1.37117e+09,-1.37152e+09,-19610.4,0.00314988,0.0311259,0,0.0312849,-17748.5,-48433,-0,51582.6,19610.4
step02_gravity_refstate-mantle.xmf,223,-1.84324e-07,2.62376e-06,0,-8.73958e-08,-1.35424e+09,-1.35386e+09,-1.35421e+09,-11680.4,0.00247706,0.0333452,0,0.0334371,-16617.5,-47898.4,-0,50699.1,11680.4
step02_gravity_refstate-mantle.xmf,224,-2.74403e-07,2.66902e-06,0,-9.92943e-09,-1.34035e+09,-1.33996e+09,-1.34031e+09,-1327.07,0.00178539,0.0355094,0,0.0355542,-15484.3,-47468.9,-0,49930.6,1327.07
step02_gravity_refstate-mantle.xmf,225,-3.53341e-07,2.70233e-06,0,7.97518e-08,-1.32832e+09,-1.32791e+09,-1.32828e+09,10658.8,0.00108655,0.0376111,0,0.0376268,-14476.8,-47097,-0,49271.7,10658.8
step02_gravity_refstate-mantle.xmf,226,-4.24887e-07,2.71283e-06,0,1.92663e-07,-1.31402e+09,-1.3136e+09,-1.31396e+09,25749.4,0.000260536,0.0400448,0,0.0400457,-13520.3,-46654.6,-0,48574.2,25749.4
step02_gravity_refstate-mantle.xmf,227,-4.62906e-07,2.41969e-06,0,7.98856e-07,-1.24959e+09,-1.2492e+09,-1.24953e+09,106767,-0.00328177,0.0520801,-0,0.0521834,-9788.67,-44663.4,-0,45723.5,106767
step02_gravity_refstate-mantle.xmf,228,-4.80126e-07,2.69495e-06,0,3.26427e-07,-1.29831e+09,-1.29789e+09,-1.29825e+09,43627,-0.000642093,0.0427564,-0,0.0427612,-12589.9,-46169.1,-0,47854.9,43627
step02_gravity_refstate-mantle.xmf,229,-5.09226e-07,2.55695e-06,0,6.38241e-07,-1.26633e+09,-1.26592e+09,-1.26626e+09,85300.9,-0.00245373,0.0487834,-0,0.0488451,-10723.6,-45180.6,-0,46435.8,85300.9
step02_gravity_refstate-mantle.xmf,230,-5.11077e-07,2.64388e-06,0,4.78531e-07,-1.28201e+09,-1.28159e+09,-1.28194e+09,63955.7,-0.00157365,0.0457156,-0,0.0457427,-11653.6,-45665.2,-0,47128.7,63955.7
step02_gravity_refstate-mantle.xmf,231,-4.17707e-07,2.28076e-06,0,1.07924e-06,-1.25405e+09,-1.25369e+09,-1.25399e+09,144240,-0.00392106,0.0556617,-0,0.0557997,-8178.71,-44801.1,-0,45541.5,144240
step02_gravity_refstate-mantle.xmf,232,2.54093e-07,2.49024e-06,0,-2.30532e-07,-1.48006e+09,-1.47976e+09,-1.48009e+09,-30810.6,0.00566926,0.0211793,0,0.0219249,-21150.6,-51787.6,-0,55940.2,30810.6
step02_gravity_refstate-mantle.xmf,233,4.33565e-07,2.50447e-06,0,-1.86046e-07,-1.57308e+09,-1.5728e+09,-1.57313e+09,-24865,0.00696462,0.0137989,0,0.0154569,-22361,-54662.1,-0,59059,24865
step02_gravity_refstate-mantle.xmf,234,5.20889e-07,2.54952e-06,0,-1.01795e-07,-1.65445e+09,-1.65418e+09,-1.65452e+09,-13604.9,0.00727896,0.00736152,0,0.0103525,-23593.4,-57176.6,-0,61853.2,13604.9
step02_gravity_refstate-mantle.xmf,235,-1.08391e-07,1.80772e-06,0,1.32464e-06,-1.23874e+09,-1.23848e+09,-1.23872e+09,177039,-0.00457392,0.0616583,-0,0.0618277,-6338.52,-44329,-0,44779.9,177039
step02_gravity_refstate-mantle.xmf,236,3.48841e-07,1.29381e-06,0,1.01931e-06,-1.16662e+09,-1.1665e+09,-1.16667e+09,136230,-0.00476393,0.0672021,-0,0.0673707,-5486.96,-42103.2,-0,42459.2,136230
step02_gravity_refstate-mantle.xmf,237,6.55856e-07,1.0149e-06,0,7.46902e-07,-1.1268e+09,-1.12675e+09,-1.12688e+09,99823.4,-0.00455203,0.0706202,-0,0.0707668,-4486.18,-40874.3,-0,41119.7,99823.4
step02_gravity_refstate-mantle.xmf,238,2.50945e-07,1.38519e-06,0,1.18476e-06,-1.19639e+09,-1.19624e+09,-1.19642e+09,158343,-0.00464189,0.0660025,-0,0.0661655,-5474.87,-43022.2,-0,43369.2,158343
step02_gravity_refstate-mantle.xmf,239,8.28505e-07,8.93587e-07,0,5.28647e-07,-1.09847e+09,-1.09846e+09,-1.09858e+09,70653.6,-0.00453658,0.0722535,-0,0.0723957,-4001.3,-40000,-0,40199.6,70653.6
step02_gravity_refstate-mantle.xmf,240,-4.23371e-07,2.27318e-06,0,1.22281e-06,-1.27019e+09,-1.26983e+09,-1.27013e+09,163428,-0.00400635,0.0564907,-0,0.0566325,-7457.79,-45299.7,-0,45909.5,163428
step02_gravity_refstate-mantle.xmf,241,1.78123e-07,2.52789e-06,0,-2.36499e-07,-1.4565e+09,-1.45619e+09,-1.45653e+09,-31608.1,0.0053756,0.0233369,0,0.023948,-19987.4,-51059.6,-0,54832.2,31608.1
step02_gravity_refstate-mantle.xmf,242,9.22512e-08,2.57508e-06,0,-2.28372e-07,-1.43498e+09,-1.43465e+09,-1.435e+09,-30522,0.00496956,0.0254766,0,0.0259567,-18834,-50394.4,-0,53798.8,30522
step02_gravity_refstate-mantle.xmf,243,-3.94361e-09,2.62745e-06,0,-2.02428e-07,-1.41429e+09,-1.41393e+09,-1.41428e+09,-27054.5,0.004422,0.0277081,0,0.0280587,-17711.6,-49754.5,-0,52813,27054.5
step02_gravity_refstate-mantle.xmf,244,3.25782e-07,2.52158e-06,0,-2.3309e-07,-1.51714e+09,-1.51685e+09,-1.51718e+09,-31152.5,0.00654322,0.0183732,0,0.0195036,-20861.5,-52933.6,-0,56896.1,31152.5
step02_gravity_refstate-mantle.xmf,245,4.0632e-07,2.53277e-06,0,-2.15823e-07,-1.55585e+09,-1.55557e+09,-1.55591e+09,-28844.8,0.00723822,0.0153169,0,0.016941,-21034.3,-54130,-0,58073.2,28844.8
step02_gravity_refstate-mantle.xmf,246,5.08375e-07,2.54621e-06,0,-1.43493e-07,-1.62584e+09,-1.62556e+09,-1.6259e+09,-19177.9,0.00767549,0.00968559,0,0.0123581,-22313,-56292.5,-0,60553.5,19177.9
step02_gravity_refstate-mantle.xmf,247,5.58837e-07,2.61472e-06,0,-5.30166e-08,-1.70271e+09,-1.70243e+09,-1.70278e+09,-7085.67,0.00781032,0.00352572,0,0.00856924,-23123.5,-58667.6,-0,63060.2,7085.67
step02_gravity_refstate-mantle.xmf,248,5.53083e-07,2.66513e-06,0,1.11253e-09,-1.74584e+09,-1.74556e+09,-1.74591e+09,148.689,0.00742083,-4.65522e-20,0,0.00742083,-23965.9,-60000,-0,64609.3,148.689
step02_gravity_refstate-mantle.xmf,249,-2.89387e-07,2.0473e-06,0,1.33137e-06,-1.25872e+09,-1.25841e+09,-1.25868e+09,177938,-0.00436421,0.0592042,-0,0.0593648,-6782.01,-44945.7,-0,45454.5,177938
step02_gravity_refstate-mantle.xmf,250,5.28963e-07,1.11282e-06,0,9.15029e-07,-1.15139e+09,-1.15131e+09,-1.15146e+09,122294,-0.00455389,0.0692037,-0,0.0693534,-4808.38,-41633.2,-0,41910,122294
step02_gravity_refstate-mantle.xmf,251,1.33558e-07,1.4882e-06,0,1.33204e-06,-1.22441e+09,-1.22423e+09,-1.22443e+09,178027,-0.00460165,0.0647223,-0,0.0648857,-5490.69,-43887.3,-0,44229.5,178027
step02_gravity_refstate-mantle.xmf,252,8.43099e-07,8.37735e-07,0,6.56164e-07,-1.12561e+09,-1.12561e+09,-1.12573e+09,87696.4,-0.00385208,0.0722396,-0,0.0723422,-3538.8,-40838.5,-0,40991.6,87696.4
step02_gravity_refstate-mantle.xmf,253,1.02017e-06,7.34976e-07,0,4.34578e-07,-1.09844e+09,-1.09848e+09,-1.09857e+09,58081.3,-0.00360327,0.0736543,-0,0.0737424,-2990.68,-40000,-0,40111.6,58081.3
step02_gravity_refstate-mantle.xmf,254,-5.13309e-07,2.46318e-06,0,9.37176e-07,-1.26725e+09,-1.26685e+09,-1.26718e+09,125254,-0.00333195,0.0526529,-0,0.0527582,-8979.99,-45208.7,-0,46091.9,125254
step02_gravity_refstate-mantle.xmf,255,-1.07065e-07,2.68215e-06,0,-1.55938e-07,-1.39483e+09,-1.39446e+09,-1.39482e+09,-20841.1,0.00375459,0.0300218,0,0.0302557,-16611,-49153,-0,51883.9,20841.1
step02_gravity_refstate-mantle.xmf,256,-2.12561e-07,2.73695e-06,0,-8.7664e-08,-1.37744e+09,-1.37705e+09,-1.37741e+09,-11716.3,0.00300703,0.032376,0,0.0325154,-15520.6,-48615.2,-0,51032.6,11716.3
step02_gravity_refstate-mantle.xmf,257,-3.1405e-07,2.78498e-06,0,1.56126e-09,-1.36207e+09,-1.36166e+09,-1.36203e+09,208.663,0.00220764,0.0347481,0,0.0348182,-14477.9,-48140,-0,50270,208.663
step02_gravity_refstate-mantle.xmf,258,-4.05981e-07,2.81519e-06,0,1.11125e-07,-1.34702e+09,-1.34659e+09,-1.34696e+09,14851.9,0.0013421,0.0372276,0,0.0372518,-13519.3,-47674.4,-0,49554.2,14851.9
step02_gravity_refstate-mantle.xmf,259,-4.86935e-07,2.82309e-06,0,2.46439e-07,-1.33151e+09,-1.33107e+09,-1.33145e+09,32936.5,0.000393306,0.0399487,0,0.0399507,-12575.6,-47195,-0,48841.7,32936.5
step02_gravity_refstate-mantle.xmf,260,-5.61965e-07,2.62335e-06,0,7.57604e-07,-1.28314e+09,-1.28271e+09,-1.28306e+09,101254,-0.00251623,0.0492961,-0,0.0493603,-9864.52,-45699.7,-0,46752.2,101254
step02_gravity_refstate-mantle.xmf,261,-5.45505e-07,2.79788e-06,0,4.02459e-07,-1.31549e+09,-1.31504e+09,-1.31541e+09,53788.7,-0.000595035,0.0428754,-0,0.0428795,-11668.1,-46699.4,-0,48135,53788.7
step02_gravity_refstate-mantle.xmf,262,-5.73896e-07,2.73403e-06,0,5.7557e-07,-1.29935e+09,-1.29891e+09,-1.29927e+09,76924.9,-0.00158027,0.0459976,-0,0.0460247,-10766.4,-46200.6,-0,47438.5,76924.9
step02_gravity_refstate-mantle.xmf,263,-5.55655e-07,2.49569e-06,0,1.084e-06,-1.28435e+09,-1.28395e+09,-1.28428e+09,144876,-0.00342371,0.0533473,-0,0.053457,-8208.6,-45736.9,-0,46467.7,144876
step02_gravity_refstate-mantle.xmf,264,2.70034e-07,2.55458e-06,0,-2.48202e-07,-1.49849e+09,-1.49819e+09,-1.49853e+09,-33172.2,0.00642114,0.0200702,0,0.0210723,-19885.3,-52357.3,-0,56006.4,33172.2
step02_gravity_refstate-mantle.xmf,265,4.84415e-07,2.56215e-06,0,-1.86167e-07,-1.60149e+09,-1.60121e+09,-1.60156e+09,-24881.2,0.00801283,0.0117267,0,0.0142029,-21002.7,-55540.4,-0,59378.8,24881.2
step02_gravity_refstate-mantle.xmf,266,5.54625e-07,2.59061e-06,0,-9.59004e-08,-1.67091e+09,-1.67064e+09,-1.67099e+09,-12817.1,0.00809682,0.00610843,0,0.0101426,-22297.6,-57685.3,-0,61844.8,12817.1
step02_gravity_refstate-mantle.xmf,267,-2.20954e-07,1.9327e-06,0,1.45893e-06,-1.26641e+09,-1.26613e+09,-1.26638e+09,194986,-0.00448134,0.0606831,-0,0.0608484,-6127.86,-45183.5,-0,45597.1,194986
step02_gravity_refstate-mantle.xmf,268,-4.37924e-07,2.23846e-06,0,1.38902e-06,-1.2846e+09,-1.28424e+09,-1.28454e+09,185643,-0.00413386,0.0575027,-0,0.0576511,-6778.96,-45744.6,-0,46244.2,185643
step02_gravity_refstate-mantle.xmf,269,5.0388e-07,1.10716e-06,0,1.07031e-06,-1.1793e+09,-1.17922e+09,-1.17937e+09,143047,-0.00433072,0.0687492,-0,0.0688855,-4570.25,-42495.3,-0,42740.4,143047
step02_gravity_refstate-mantle.xmf,270,6.8517e-07,9.45672e-07,0,8.68994e-07,-1.1531e+09,-1.15307e+09,-1.15319e+09,116141,-0.00406725,0.0706745,-0,0.0707914,-4020.48,-41686.8,-0,41880.3,116141
step02_gravity_refstate-mantle.xmf,271,3.74317e-07,1.20484e-06,0,1.27193e-06,-1.21135e+09,-1.21124e+09,-1.2114e+09,169993,-0.00439575,0.0673059,-0,0.0674493,-4703.69,-43484.7,-0,43738.3,169993
step02_gravity_refstate-mantle.xmf,272,1.00867e-06,6.80668e-07,0,5.26855e-07,-1.12517e+09,-1.12522e+09,-1.12531e+09,70414.1,-0.00298706,0.0735479,-0,0.0736086,-2600.49,-40825.6,-0,40908.4,70414.1
step02_gravity_refstate-mantle.xmf,273,6.85006e-09,1.60959e-06,0,1.4778e-06,-1.25147e+09,-1.25126e+09,-1.25147e+09,197508,-0.00458767,0.0635081,-0,0.0636736,-5462.45,-44722.7,-0,45055,197508
step02_gravity_refstate-mantle.xmf,274,-5.80943e-07,2.50106e-06,0,1.24263e-06,-1.29988e+09,-1.29947e+09,-1.2998e+09,166078,-0.00358823,0.0543353,-0,0.0544536,-7447.05,-46216.3,-0,46812.4,166078
step02_gravity_refstate-mantle.xmf,275,1.92703e-07,2.60263e-06,0,-2.55246e-07,-1.47763e+09,-1.47731e+09,-1.47766e+09,-34113.6,0.00615026,0.0220868,0,0.0229271,-18777.6,-51712.6,-0,55016.2,34113.6
step02_gravity_refstate-mantle.xmf,276,9.75894e-08,2.66162e-06,0,-2.46765e-07,-1.45653e+09,-1.45619e+09,-1.45654e+09,-32980.2,0.00570887,0.0242836,0,0.0249456,-17658.3,-51060.1,-0,54027.3,32980.2
step02_gravity_refstate-mantle.xmf,277,-1.2188e-08,2.72718e-06,0,-2.1728e-07,-1.43572e+09,-1.43535e+09,-1.43572e+09,-29039.5,0.00509526,0.02664,0,0.0271229,-16558.4,-50416.7,-0,53066.2,29039.5
step02_gravity_refstate-mantle.xmf,278,3.62152e-07,2.57496e-06,0,-2.44147e-07,-1.53974e+09,-1.53945e+09,-1.53979e+09,-32630.2,0.00738488,0.0168169,0,0.0183669,-19819,-53632.2,-0,57176.9,32630.2
step02_gravity_refstate-mantle.xmf,279,4.59696e-07,2.59412e-06,0,-2.18923e-07,-1.58431e+09,-1.58402e+09,-1.58437e+09,-29259,0.00830857,0.013265,0,0.0156522,-19770.6,-55009.5,-0,58454.4,29259
step02_gravity_refstate-mantle.xmf,280,5.63507e-07,2.61034e-06,0,-1.25455e-07,-1.65908e+09,-1.65881e+09,-1.65916e+09,-16767,0.00877307,0.00713224,0,0.0113064,-20912.4,-57320,-0,61015.7,16767
step02_gravity_refstate-mantle.xmf,281,5.89733e-07,2.64737e-06,0,-5.72766e-08,-1.70602e+09,-1.70575e+09,-1.7061e+09,-7655.02,0.0087216,0.00329158,0,0.00932206,-21559.2,-58770.2,-0,62599.8,7655.02
step02_gravity_refstate-mantle.xmf,282,5.82641e-07,2.68915e-06,0,1.43567e-09,-1.74583e+09,-1.74555e+09,-1.74591e+09,191.878,0.00832702,-4.39663e-20,0,0.00832702,-22370,-60000,-0,64034.5,191.878
step02_gravity_refstate-mantle.xmf,283,-1.2282e-07,1.74898e-06,0,1.61827e-06,-1.27665e+09,-1.2764e+09,-1.27663e+09,216282,-0.00458188,0.0624506,-0,0.0626184,-5384.67,-45499.8,-0,45817.3,216282
step02_gravity_refstate-mantle.xmf,284,-3.49379e-07,2.06659e-06,0,1.55499e-06,-1.28908e+09,-1.28876e+09,-1.28903e+09,207824,-0.00438345,0.0595527,-0,0.0597138,-6044.79,-45883.1,-0,46279.6,207824
step02_gravity_refstate-mantle.xmf,285,2.56383e-07,1.28719e-06,0,1.44214e-06,-1.23869e+09,-1.23856e+09,-1.23873e+09,192742,-0.00447181,0.0661724,-0,0.0663234,-4736.19,-44328.8,-0,44581.1,192742
step02_gravity_refstate-mantle.xmf,286,8.63644e-07,7.59503e-07,0,7.41495e-07,-1.15047e+09,-1.15048e+09,-1.15058e+09,99100.8,-0.00339429,0.0722436,-0,0.0723233,-3141.7,-41606.2,-0,41724.6,99100.8
step02_gravity_refstate-mantle.xmf,287,1.17406e-06,6.09042e-07,0,3.11543e-07,-1.09842e+09,-1.09849e+09,-1.09857e+09,41637.7,-0.00250527,0.074712,-0,0.074754,-1990.05,-40000,-0,40049.5,41637.7
step02_gravity_refstate-mantle.xmf,288,-6.31408e-07,2.6833e-06,0,8.96349e-07,-1.29949e+09,-1.29905e+09,-1.29941e+09,119797,-0.00262329,0.0499493,-0,0.0500182,-9036.38,-46204.5,-0,47079.8,119797
step02_gravity_refstate-mantle.xmf,289,-1.29735e-07,2.79237e-06,0,-1.63563e-07,-1.41578e+09,-1.41539e+09,-1.41576e+09,-21860.3,0.0043357,0.0291098,0,0.0294309,-15509.2,-49800.2,-0,52159.4,21860.3
step02_gravity_refstate-mantle.xmf,290,-2.49846e-07,2.85422e-06,0,-8.41661e-08,-1.39743e+09,-1.39702e+09,-1.3974e+09,-11248.8,0.00347577,0.0316598,0,0.0318501,-14484.5,-49232.8,-0,51319.3,11248.8
step02_gravity_refstate-mantle.xmf,291,-3.64149e-07,2.90564e-06,0,1.89304e-08,-1.381e+09,-1.38056e+09,-1.38095e+09,2530.05,0.002562,0.0342378,0,0.0343335,-13508.2,-48724.7,-0,50562.5,2530.05
step02_gravity_refstate-mantle.xmf,292,-4.69502e-07,2.93705e-06,0,1.49029e-07,-1.36476e+09,-1.36431e+09,-1.3647e+09,19917.8,0.00156359,0.0369903,0,0.0370233,-12575.3,-48222.4,-0,49835.1,19917.8
step02_gravity_refstate-mantle.xmf,293,-5.58417e-07,2.94079e-06,0,3.06076e-07,-1.34866e+09,-1.34819e+09,-1.34858e+09,40907.1,0.000507762,0.0399357,0,0.039939,-11667.4,-47724.3,-0,49129.8,40907.1
step02_gravity_refstate-mantle.xmf,294,-6.44965e-07,2.82247e-06,0,6.8637e-07,-1.31586e+09,-1.3154e+09,-1.31577e+09,91733.4,-0.00164161,0.0464522,-0,0.0464812,-9904.8,-46710.3,-0,47748.9,91733.4
step02_gravity_refstate-mantle.xmf,295,-6.20344e-07,2.90494e-06,0,4.875e-07,-1.33217e+09,-1.33169e+09,-1.33208e+09,65154.4,-0.000581089,0.043106,-0,0.04311,-10782.6,-47214.4,-0,48430,65154.4
step02_gravity_refstate-mantle.xmf,296,-6.91115e-07,2.72785e-06,0,1.04789e-06,-1.31469e+09,-1.31423e+09,-1.3146e+09,140051,-0.00279018,0.0508129,-0,0.0508895,-8240.25,-46673.7,-0,47395.5,140051
step02_gravity_refstate-mantle.xmf,297,2.98235e-07,2.62289e-06,0,-2.65158e-07,-1.52014e+09,-1.51983e+09,-1.52018e+09,-35438.4,0.00729199,0.0186781,0,0.020051,-18706.8,-53026.3,-0,56229.2,35438.4
step02_gravity_refstate-mantle.xmf,298,5.41077e-07,2.62371e-06,0,-1.7587e-07,-1.63011e+09,-1.62984e+09,-1.63019e+09,-23505.1,0.00909612,0.00957834,0,0.0132092,-19709.1,-56425.1,-0,59768.2,23505.1
step02_gravity_refstate-mantle.xmf,299,-2.74189e-07,1.89402e-06,0,1.73632e-06,-1.3006e+09,-1.30031e+09,-1.30056e+09,232060,-0.00455347,0.0612797,-0,0.0614487,-5334.72,-46239,-0,46545.7,232060
step02_gravity_refstate-mantle.xmf,300,-5.87509e-07,2.44353e-06,0,1.44891e-06,-1.31288e+09,-1.31248e+09,-1.3128e+09,193647,-0.0038675,0.0559295,-0,0.056063,-6633.97,-46617.7,-0,47087.4,193647
step02_gravity_refstate-mantle.xmf,301,7.32046e-07,8.46904e-07,0,9.51895e-07,-1.17533e+09,-1.17531e+09,-1.17543e+09,127221,-0.0037267,0.0708673,-0,0.0709652,-3588.56,-42373.5,-0,42525.2,127221
step02_gravity_refstate-mantle.xmf,302,6.0742e-07,9.33365e-07,0,1.14885e-06,-1.20056e+09,-1.20052e+09,-1.20064e+09,153544,-0.00398125,0.0695316,-0,0.0696455,-3906.72,-43152.3,-0,43328.7,153544
step02_gravity_refstate-mantle.xmf,303,5.10208e-07,9.88895e-07,0,1.33707e-06,-1.22635e+09,-1.22629e+09,-1.22642e+09,178699,-0.00414255,0.0685196,-0,0.0686447,-4013.51,-43948.5,-0,44131.3,178699
step02_gravity_refstate-mantle.xmf,304,9.92241e-07,6.20667e-07,0,5.96587e-07,-1.14847e+09,-1.14852e+09,-1.14861e+09,79733.9,-0.00270929,0.0733265,-0,0.0733765,-2400.06,-41545.1,-0,41614.4,79733.9
step02_gravity_refstate-mantle.xmf,305,1.13178e-06,5.42261e-07,0,3.62499e-07,-1.12876e+09,-1.12884e+09,-1.12891e+09,48448,-0.00190811,0.0744902,-0,0.0745147,-1605.77,-40936.8,-0,40968.3,48448
step02_gravity_refstate-mantle.xmf,306,1.42754e-07,1.3749e-06,0,1.61084e-06,-1.26405e+09,-1.26389e+09,-1.26407e+09,215288,-0.00455415,0.0652339,-0,0.0653927,-4700.96,-45111.6,-0,45355.9,215288
step02_gravity_refstate-mantle.xmf,307,-7.31836e-07,2.74637e-06,0,1.21386e-06,-1.32836e+09,-1.32789e+09,-1.32826e+09,162232,-0.00302275,0.0519463,-0,0.0520342,-7473.61,-47095.7,-0,47685,162232
step02_gravity_refstate-mantle.xmf,308,2.09722e-07,2.68305e-06,0,-2.74501e-07,-1.49834e+09,-1.49801e+09,-1.49837e+09,-36687.1,0.00697474,0.0208527,0,0.0219883,-17607.2,-52352.6,-0,55234.1,36687.1
step02_gravity_refstate-mantle.xmf,309,1.01088e-07,2.75453e-06,0,-2.65495e-07,-1.47652e+09,-1.47617e+09,-1.47654e+09,-35483.5,0.00646102,0.0232038,0,0.0240866,-16523,-51678.1,-0,54255.3,35483.5
step02_gravity_refstate-mantle.xmf,310,-2.48689e-08,2.83124e-06,0,-2.31168e-07,-1.45467e+09,-1.45429e+09,-1.45467e+09,-30895.6,0.00573955,0.025754,0,0.0263859,-15477.3,-51002.4,-0,53299.1,30895.6
step02_gravity_refstate-mantle.xmf,311,4.03333e-07,2.6383e-06,0,-2.54931e-07,-1.56252e+09,-1.56222e+09,-1.56258e+09,-34071.6,0.00834096,0.0152456,0,0.0173781,-18655.6,-54336.3,-0,57449.6,34071.6
step02_gravity_refstate-mantle.xmf,312,5.10369e-07,2.65422e-06,0,-2.182e-07,-1.60805e+09,-1.60777e+09,-1.60812e+09,-29162.4,0.0093154,0.0115302,0,0.014823,-18604.4,-55743.5,-0,58766.2,29162.4
step02_gravity_refstate-mantle.xmf,313,6.0026e-07,2.65742e-06,0,-1.22849e-07,-1.66974e+09,-1.66947e+09,-1.66982e+09,-16418.8,0.00962207,0.00635104,0,0.0115291,-19628.9,-57649.7,-0,60899.8,16418.8
step02_gravity_refstate-mantle.xmf,314,6.16098e-07,2.67862e-06,0,-6.76498e-08,-1.70459e+09,-1.70432e+09,-1.70468e+09,-9041.4,0.00954881,0.0034492,0,0.0101527,-20176.2,-58726.4,-0,62095.6,9041.4
step02_gravity_refstate-mantle.xmf,315,6.13629e-07,2.71989e-06,0,1.60737e-09,-1.74582e+09,-1.74554e+09,-1.7459e+09,214.825,0.0092356,-4.60488e-20,0,0.0092356,-20850.5,-60000,-0,63519.6,214.825
step02_gravity_refstate-mantle.xmf,316,-3.09785e-09,1.52065e-06,0,1.78376e-06,-1.2888e+09,-1.2886e+09,-1.2888e+09,238400,-0.00464166,0.0641872,-0,0.0643549,-4684.86,-45875.4,-0,46114,238400
step02_gravity_refstate-mantle.xmf,317,-4.7787e-07,2.21425e-06,0,1.64203e-06,-1.31185e+09,-1.31149e+09,-1.31179e+09,219457,-0.00427396,0.0585447,-0,0.0587005,-5900.26,-46586.1,-0,46958.3,219457
step02_gravity_refstate-mantle.xmf,318,4.14997e-07,1.03031e-06,0,1.52235e-06,-1.25158e+09,-1.2515e+09,-1.25164e+09,203462,-0.00429799,0.0676941,-0,0.0678304,-4028.92,-44727.3,-0,44908.4,203462
step02_gravity_refstate-mantle.xmf,319,9.17226e-07,6.27503e-07,0,7.89641e-07,-1.17454e+09,-1.17458e+09,-1.17467e+09,105536,-0.00297065,0.0724472,-0,0.0725081,-2674.89,-42349.9,-0,42434.3,105536
step02_gravity_refstate-mantle.xmf,320,1.2755e-06,5.24025e-07,0,1.607e-07,-1.0984e+09,-1.0985e+09,-1.09857e+09,21477.6,-0.00128642,0.0753723,-0,0.0753832,-994.552,-40000,-0,40012.4,21477.6
step02_gravity_refstate-mantle.xmf,321,1.07354e-06,4.86851e-07,0,5.12401e-07,-1.16171e+09,-1.16179e+09,-1.16185e+09,68482.3,-0.00204054,0.0738214,-0,0.0738496,-1760.92,-41954.1,-0,41991,68482.3
step02_gravity_refstate-mantle.xmf,322,4.36162e-08,1.93934e-06,0,-4.24272e-10,-1.17169e+09,-1.17143e+09,-1.17169e+09,-56.704,1.02163e-20,0.0399647,0,0.0399647,40000,-42259.2,0,58188,56.704
step02_gravity_refstate-mantle.xmf,323,-2.32578e-09,1.84606e-06,0,-1.03097e-09,-1.09857e+09,-1.09832e+09,-1.09857e+09,-137.789,3.95708e-21,0.0442428,0,0.0442428,40000,-40000,0,56568.5,137.789
step02_gravity_refstate-mantle.xmf,324,2.57245e-08,1.91169e-06,0,6.58797e-09,-1.14801e+09,-1.14776e+09,-1.14802e+09,880.482,-4.13107e-05,0.0413874,-0,0.0413874,38455.7,-41527.7,0,56598.5,880.482
step02_gravity_refstate-mantle.xmf,325,-7.82461e-09,1.85035e-06,0,3.34711e-09,-1.09857e+09,-1.09832e+09,-1.09857e+09,447.342,1.19919e-05,0.0442866,0,0.0442866,37557.3,-40000,0,54868.5,447.342
step02_gravity_refstate-mantle.xmf,326,-7.33255e-07,2.90418e-06,0,8.21676e-07,-1.33144e+09,-1.33095e+09,-1.33134e+09,109817,-0.0017719,0.0471383,-0,0.0471716,-9057.67,-47191.3,-0,48052.7,109817
step02_gravity_refstate-mantle.xmf,327,-1.59447e-07,2.90691e-06,0,-1.68386e-07,-1.43393e+09,-1.43352e+09,-1.43391e+09,-22504.7,0.00486412,0.0284205,0,0.0288337,-14473.9,-50360.9,-0,52399.6,22504.7
step02_gravity_refstate-mantle.xmf,328,-2.93229e-07,2.9767e-06,0,-7.83278e-08,-1.41553e+09,-1.41509e+09,-1.41549e+09,-10468.5,0.00391315,0.0311007,0,0.0313459,-13506.9,-49791.7,-0,51591.2,10468.5
step02_gravity_refstate-mantle.xmf,329,-4.22816e-07,3.0331e-06,0,4.13126e-08,-1.39836e+09,-1.3979e+09,-1.39831e+09,5521.42,0.00287693,0.0338958,0,0.0340177,-12571.5,-49260.9,-0,50839.7,5521.42
step02_gravity_refstate-mantle.xmf,330,-5.41086e-07,3.06524e-06,0,1.9229e-07,-1.38158e+09,-1.3811e+09,-1.38151e+09,25699.5,0.00175805,0.036874,0,0.0369159,-11671,-48741.9,-0,50119.7,25699.5
step02_gravity_refstate-mantle.xmf,331,-6.38653e-07,3.06372e-06,0,3.73393e-07,-1.36513e+09,-1.36464e+09,-1.36505e+09,49904,0.000591879,0.0400424,0,0.0400468,-10794.4,-48233.1,-0,49426.2,49904
step02_gravity_refstate-mantle.xmf,332,-7.05525e-07,3.01671e-06,0,5.84196e-07,-1.34872e+09,-1.34822e+09,-1.34862e+09,78077.8,-0.000599812,0.0434603,-0,0.0434645,-9917.08,-47725.5,-0,48744.9,78077.8
step02_gravity_refstate-mantle.xmf,333,-8.06098e-07,2.95776e-06,0,9.7483e-07,-1.34383e+09,-1.34333e+09,-1.34373e+09,130286,-0.00201808,0.0482124,-0,0.0482546,-8255.23,-47573.7,-0,48284.6,130286
step02_gravity_refstate-mantle.xmf,334,3.28093e-07,2.6959e-06,0,-2.81389e-07,-1.54038e+09,-1.54007e+09,-1.54043e+09,-37607.6,0.00818996,0.0173752,0,0.0192087,-17560,-53652,-0,56452.6,37607.6
step02_gravity_refstate-mantle.xmf,335,5.92473e-07,2.68084e-06,0,-1.60374e-07,-1.65398e+09,-1.6537e+09,-1.65406e+09,-21434,0.0100318,0.00773807,0,0.0126694,-18637,-57162.8,-0,60124.2,21434
step02_gravity_refstate-mantle.xmf,336,-1.81584e-07,1.67848e-06,0,1.9375e-06,-1.31297e+09,-1.31273e+09,-1.31295e+09,258946,-0.00469427,0.0630496,-0,0.0632241,-4671.48,-46621.4,-0,46854.9,258946
step02_gravity_refstate-mantle.xmf,337,-4.55994e-07,2.10671e-06,0,1.82619e-06,-1.32376e+09,-1.32341e+09,-1.32369e+09,244071,-0.00445065,0.0598764,-0,0.0600415,-5327.89,-46953.7,-0,47255,244071
step02_gravity_refstate-mantle.xmf,338,-6.55459e-07,2.46665e-06,0,1.63567e-06,-1.3331e+09,-1.33268e+09,-1.33301e+09,218607,-0.00395945,0.0565575,-0,0.0566959,-6024.21,-47241.8,-0,47624.3,218607
step02_gravity_refstate-mantle.xmf,339,-7.85305e-07,2.75529e-06,0,1.3982e-06,-1.3426e+09,-1.34213e+09,-1.34249e+09,186869,-0.00324856,0.0531098,-0,0.0532091,-6760.98,-47535.2,-0,48013.6,186869
step02_gravity_refstate-mantle.xmf,340,7.84625e-07,7.26436e-07,0,1.00452e-06,-1.19401e+09,-1.19402e+09,-1.19411e+09,134254,-0.00348142,0.0711163,-0,0.0712014,-3217.29,-42950.6,-0,43070.9,134254
step02_gravity_refstate-mantle.xmf,341,7.39573e-07,7.21294e-07,0,1.16305e-06,-1.21498e+09,-1.21499e+09,-1.21508e+09,155441,-0.00363214,0.0704913,-0,0.0705848,-3294.26,-43598.1,-0,43722.4,155441
step02_gravity_refstate-mantle.xmf,342,6.82235e-07,7.18851e-07,0,1.35931e-06,-1.23956e+09,-1.23956e+09,-1.23965e+09,181672,-0.00383279,0.0698261,-0,0.0699313,-3345.73,-44357,-0,44483,181672
step02_gravity_refstate-mantle.xmf,343,1.21522e-06,4.91753e-07,0,1.5916e-07,-1.12191e+09,-1.12201e+09,-1.12207e+09,21271.8,-0.00089845,0.0751086,-0,0.075114,-732.999,-40725.7,-0,40732.3,21271.8
step02_gravity_refstate-mantle.xmf,344,1.17548e-06,4.12809e-07,0,2.25672e-07,-1.1506e+09,-1.15071e+09,-1.15076e+09,30161.1,-0.000977866,0.074664,-0,0.0746704,-821.537,-41611.6,-0,41619.7,30161.1
step02_gravity_refstate-mantle.xmf,345,1.29497e-06,5.01912e-07,0,6.64668e-09,-1.0984e+09,-1.0985e+09,-1.09857e+09,888.329,-8.86846e-08,0.0755975,-0,0.0755975,0,-40000,0,40000,888.329
step02_gravity_refstate-mantle.xmf,346,3.04981e-07,1.09466e-06,0,1.72503e-06,-1.27642e+09,-1.27631e+09,-1.27646e+09,230550,-0.00447294,0.0669013,-0,0.0670506,-4021.81,-45493.9,-0,45671.3,230550
step02_gravity_refstate-mantle.xmf,347,6.8203e-08,1.98135e-06,0,1.30922e-08,-1.20657e+09,-1.20632e+09,-1.20658e+09,1749.77,-0.00012221,0.0378694,-0,0.0378696,38251.2,-43337.1,0,57803.7,1749.77
step02_gravity_refstate-mantle.xmf,348,3.00791e-08,1.93706e-06,0,1.84962e-08,-1.16466e+09,-1.16441e+09,-1.16467e+09,2472.01,-0.000126319,0.0404614,-0,0.0404616,36469.7,-42042.1,0,55655.9,2472.01
step02_gravity_refstate-mantle.xmf,349,-8.59464e-07,2.98952e-06,0,1.13531e-06,-1.35519e+09,-1.35468e+09,-1.35508e+09,151734,-0.00228462,0.0493998,-0,0.0494526,-7526.77,-47924.4,-0,48511.8,151734
step02_gravity_refstate-mantle.xmf,350,2.29126e-07,2.77061e-06,0,-2.94079e-07,-1.5184e+09,-1.51806e+09,-1.51843e+09,-39303.7,0.00784685,0.019659,0,0.0211672,-16461.1,-52972.4,-0,55471.1,39303.7
step02_gravity_refstate-mantle.xmf,351,-4.22883e-08,2.94534e-06,0,-2.43884e-07,-1.47218e+09,-1.47178e+09,-1.47218e+09,-32595.1,0.00637802,0.0250159,0,0.0258162,-14409.9,-51543.4,-0,53519.8,32595.1
step02_gravity_refstate-mantle.xmf,352,1.01794e-07,2.85671e-06,0,-2.84066e-07,-1.49509e+09,-1.49472e+09,-1.4951e+09,-37965.4,0.00722568,0.0222501,0,0.023394,-15403.9,-52251.7,-0,54475,37965.4
step02_gravity_refstate-mantle.xmf,353,4.4536e-07,2.70629e-06,0,-2.64386e-07,-1.58314e+09,-1.58283e+09,-1.5832e+09,-35335.1,0.00931305,0.0138211,0,0.016666,-17506.3,-54973.5,-0,57693.6,35335.1
step02_gravity_refstate-mantle.xmf,354,5.68437e-07,2.72672e-06,0,-2.12726e-07,-1.63378e+09,-1.63349e+09,-1.63385e+09,-28430.8,0.0104427,0.00959239,0,0.0141797,-17391.8,-56538.7,-0,59153.2,28430.8
step02_gravity_refstate-mantle.xmf,355,6.43836e-07,2.72041e-06,0,-8.40181e-08,-1.70096e+09,-1.70068e+09,-1.70104e+09,-11229,0.0104518,0.00381233,0,0.0111254,-18709.9,-58614.3,-0,61528,11229
step02_gravity_refstate-mantle.xmf,356,6.45974e-07,2.75799e-06,0,2.1102e-09,-1.74581e+09,-1.74553e+09,-1.7459e+09,282.028,0.0101463,-5.12528e-20,0,0.0101463,-19403.8,-60000,-0,63059.6,282.028
step02_gravity_refstate-mantle.xmf,357,1.60354e-07,1.22247e-06,0,1.94069e-06,-1.30036e+09,-1.30022e+09,-1.30039e+09,259373,-0.00465079,0.0660399,-0,0.0662035,-4025.33,-46233,-0,46407.9,259373
step02_gravity_refstate-mantle.xmf,358,6.14176e-07,7.09512e-07,0,1.57059e-06,-1.2644e+09,-1.26439e+09,-1.26448e+09,209909,-0.00405458,0.0692678,-0,0.0693864,-3349.85,-45123.7,-0,45247.9,209909
step02_gravity_refstate-mantle.xmf,359,9.18489e-07,5.35944e-07,0,9.30237e-07,-1.20202e+09,-1.20207e+09,-1.20214e+09,124326,-0.00299443,0.0720601,-0,0.0721223,-2609.02,-43198.4,-0,43277.1,124326
step02_gravity_refstate-mantle.xmf,360,1.05872e-06,4.08973e-07,0,6.69283e-07,-1.18932e+09,-1.18941e+09,-1.18946e+09,89449.7,-0.00223677,0.0732853,-0,0.0733194,-1898.61,-42806.8,-0,42848.9,89449.7
step02_gravity_refstate-mantle.xmf,361,1.15476e-06,3.3195e-07,0,3.94858e-07,-1.17907e+09,-1.17918e+09,-1.17923e+09,52772.8,-0.0013688,0.0741409,-0,0.0741536,-1141.99,-42490.6,-0,42506,52772.8
step02_gravity_refstate-mantle.xmf,362,1.2147e-06,4.63781e-07,0,6.62012e-09,-1.12969e+09,-1.12979e+09,-1.12985e+09,884.779,-1.00196e-07,0.0751318,-0,0.0751318,0,-40966,0,40966,884.779
step02_gravity_refstate-mantle.xmf,363,1.01392e-07,2.02095e-06,0,-2.81084e-10,-1.24417e+09,-1.24391e+09,-1.24418e+09,-37.5669,2.01799e-20,0.03553,0,0.03553,40000,-44498.7,0,59834.2,37.5669
step02_gravity_refstate-mantle.xmf,364,-2.54407e-08,1.86095e-06,0,7.02351e-09,-1.09857e+09,-1.09832e+09,-1.09857e+09,938.692,4.69156e-05,0.0444137,0,0.0444137,35229,-40000,0,53301.8,938.692
step02_gravity_refstate-mantle.xmf,365,-8.13729e-07,3.1406e-06,0,7.14157e-07,-1.36604e+09,-1.36551e+09,-1.36593e+09,95447,-0.000681698,0.0440808,-0,0.044086,-8992.3,-48260,-0,49090.6,95447
step02_gravity_refstate-mantle.xmf,366,-1.93331e-07,3.02838e-06,0,-1.70819e-07,-1.45067e+09,-1.45024e+09,-1.45064e+09,-22830,0.00537606,0.0278623,0,0.0283762,-13485.6,-50878.1,-0,52635,22830
step02_gravity_refstate-mantle.xmf,367,-3.42007e-07,3.10701e-06,0,-6.93213e-08,-1.43246e+09,-1.432e+09,-1.43241e+09,-9264.8,0.00433448,0.03067,0,0.0309747,-12564,-50314.9,-0,51859.8,9264.8
step02_gravity_refstate-mantle.xmf,368,-4.87897e-07,3.16768e-06,0,6.87419e-08,-1.41474e+09,-1.41425e+09,-1.41467e+09,9187.36,0.00316955,0.0336843,0,0.033833,-11668.6,-49766.6,-0,51116.2,9187.36
step02_gravity_refstate-mantle.xmf,369,-6.20813e-07,3.20033e-06,0,2.43209e-07,-1.39768e+09,-1.39717e+09,-1.3976e+09,32504.9,0.00192621,0.0368911,0,0.0369413,-10794.9,-49239,-0,50408.4,32504.9
step02_gravity_refstate-mantle.xmf,370,-7.27567e-07,3.19564e-06,0,4.4652e-07,-1.3819e+09,-1.38138e+09,-1.38181e+09,59677.4,0.000683578,0.0401937,0,0.0401995,-9953.35,-48750.8,-0,49756.5,59677.4
step02_gravity_refstate-mantle.xmf,371,-8.72532e-07,3.12886e-06,0,9.16894e-07,-1.36661e+09,-1.36608e+09,-1.36649e+09,122543,-0.00136329,0.0463569,-0,0.0463769,-8158,-48277.3,-0,48961.7,122543
step02_gravity_refstate-mantle.xmf,372,3.61013e-07,2.77643e-06,0,-2.96388e-07,-1.55973e+09,-1.55941e+09,-1.55978e+09,-39612.3,0.00913426,0.0161319,0,0.0185384,-16419.8,-54250.1,-0,56680.6,39612.3
step02_gravity_refstate-mantle.xmf,373,6.37726e-07,2.73377e-06,0,-1.36831e-07,-1.67643e+09,-1.67615e+09,-1.67652e+09,-18287.5,0.0108238,0.00594214,0,0.0123476,-17793.8,-57856.8,-0,60531.2,18287.5
step02_gravity_refstate-mantle.xmf,374,-2.38189e-08,1.36136e-06,0,2.13509e-06,-1.32328e+09,-1.3231e+09,-1.32328e+09,285354,-0.00479194,0.0651351,-0,0.0653111,-4024.85,-46940,-0,47112.2,285354
step02_gravity_refstate-mantle.xmf,375,-3.90189e-07,1.90589e-06,0,2.06687e-06,-1.33612e+09,-1.33582e+09,-1.33607e+09,276237,-0.00466495,0.0617664,-0,0.0619424,-4672.56,-47335.6,-0,47565.7,276237
step02_gravity_refstate-mantle.xmf,376,-6.6216e-07,2.37875e-06,0,1.8611e-06,-1.34644e+09,-1.34603e+09,-1.34635e+09,248737,-0.0042004,0.0580984,-0,0.0582501,-5379.98,-47653.8,-0,47956.5,248737
step02_gravity_refstate-mantle.xmf,377,-8.334e-07,2.73734e-06,0,1.61023e-06,-1.35674e+09,-1.35626e+09,-1.35663e+09,215207,-0.00348917,0.0544473,-0,0.0545589,-6079.19,-47971.7,-0,48355.4,215207
step02_gravity_refstate-mantle.xmf,378,-9.32986e-07,3.02844e-06,0,1.31188e-06,-1.36854e+09,-1.36801e+09,-1.36841e+09,175333,-0.00250354,0.0505389,-0,0.0506008,-6832.56,-48336.2,-0,48816.7,175333
step02_gravity_refstate-mantle.xmf,379,9.13684e-07,4.55834e-07,0,1.1122e-06,-1.22749e+09,-1.22755e+09,-1.22761e+09,148646,-0.00317485,0.0716117,-0,0.071682,-2639.41,-43984.8,-0,44064,148646
step02_gravity_refstate-mantle.xmf,380,9.00547e-07,3.7956e-07,0,1.32518e-06,-1.25257e+09,-1.25264e+09,-1.25269e+09,177111,-0.00341626,0.0712234,-0,0.0713053,-2667.52,-44759.4,-0,44838.8,177111
step02_gravity_refstate-mantle.xmf,381,1.20351e-06,2.96759e-07,0,1.71715e-07,-1.17363e+09,-1.17375e+09,-1.17379e+09,22949.7,-0.000615474,0.0745263,-0,0.0745288,-509.078,-42322.8,-0,42325.9,22949.7
step02_gravity_refstate-mantle.xmf,382,1.27468e-06,5.17548e-07,0,-1.54167e-07,-1.0984e+09,-1.0985e+09,-1.09857e+09,-20604.4,0.00128643,0.0753724,0,0.0753834,994.552,-40000,0,40012.4,20604.4
step02_gravity_refstate-mantle.xmf,383,1.21838e-06,4.93012e-07,0,-1.45755e-07,-1.12115e+09,-1.12124e+09,-1.12131e+09,-19480.2,0.000866584,0.0751301,0,0.0751351,705.685,-40702.2,0,40708.3,19480.2
step02_gravity_refstate-mantle.xmf,384,5.20172e-07,7.31932e-07,0,1.81376e-06,-1.28862e+09,-1.28859e+09,-1.28869e+09,242408,-0.00431414,0.0686954,-0,0.0688307,-3360.96,-45871.4,-0,45994.4,242408
step02_gravity_refstate-mantle.xmf,385,1.26565e-07,2.05585e-06,0,1.77875e-08,-1.27544e+09,-1.27518e+09,-1.27546e+09,2377.3,-0.000225699,0.0335743,-0,0.0335751,38234.1,-45464.9,0,59404.6,2377.3
step02_gravity_refstate-mantle.xmf,386,-4.81556e-08,1.87651e-06,0,7.7742e-09,-1.09857e+09,-1.09832e+09,-1.09857e+09,1039.02,0.000121719,0.0446226,0,0.0446228,33009.3,-40000,0,51861.5,1039.02
step02_gravity_refstate-mantle.xmf,387,7.17685e-09,1.94258e-06,0,2.83066e-08,-1.15817e+09,-1.15791e+09,-1.15817e+09,3783.17,-0.000149108,0.0409905,-0,0.0409907,34194,-41841.4,0,54036.3,3783.17
step02_gravity_refstate-mantle.xmf,388,8.85271e-08,2.02038e-06,0,2.95601e-08,-1.23761e+09,-1.23735e+09,-1.23762e+09,3950.7,-0.000316292,0.0359939,-0,0.0359953,36622.5,-44296,0,57474.7,3950.7
step02_gravity_refstate-mantle.xmf,389,1.64608e-07,2.09622e-06,0,-1.68026e-10,-1.31618e+09,-1.31593e+09,-1.31621e+09,-22.4566,3.0521e-20,0.030949,0,0.030949,40000,-46723.9,0,61507.1,22.4566
step02_gravity_refstate-mantle.xmf,390,-9.46956e-07,3.21104e-06,0,1.01952e-06,-1.37964e+09,-1.37909e+09,-1.37952e+09,136259,-0.00139355,0.0468097,-0,0.0468304,-7603.36,-48679.6,-0,49269.8,136259
step02_gravity_refstate-mantle.xmf,391,-7.09776e-08,3.06109e-06,0,-2.47348e-07,-1.48515e+09,-1.48473e+09,-1.48514e+09,-33058,0.00686992,0.0246714,0,0.0256101,-13429.5,-51944.2,-0,53652.1,33058
step02_gravity_refstate-mantle.xmf,392,2.48821e-07,2.86619e-06,0,-3.12672e-07,-1.53703e+09,-1.53668e+09,-1.53707e+09,-41788.7,0.00874015,0.0185728,0,0.0205266,-15344.6,-53548.5,-0,55703.6,41788.7
step02_gravity_refstate-mantle.xmf,393,9.66439e-08,2.98206e-06,0,-3.01155e-07,-1.51358e+09,-1.51319e+09,-1.51359e+09,-40249.3,0.00806317,0.0213912,0,0.0228604,-14189.1,-52823.3,-0,54695.8,40249.3
step02_gravity_refstate-mantle.xmf,394,4.87673e-07,2.78369e-06,0,-2.70364e-07,-1.60142e+09,-1.60112e+09,-1.60149e+09,-36134.1,0.0103078,0.0125742,0,0.0162592,-16338.6,-55538.9,-0,57892.3,36134.1
step02_gravity_refstate-mantle.xmf,395,6.53381e-07,2.78851e-06,0,-1.55366e-07,-1.67478e+09,-1.6745e+09,-1.67487e+09,-20764.6,0.0115252,0.00619902,0,0.0130866,-16677.3,-57806,-0,60163.7,20764.6
step02_gravity_refstate-mantle.xmf,396,6.82276e-07,2.78779e-06,0,-7.62113e-08,-1.71051e+09,-1.71023e+09,-1.7106e+09,-10185.6,0.0114238,0.00306671,0,0.0118282,-17336.2,-58909.8,-0,61407.7,10185.6
step02_gravity_refstate-mantle.xmf,397,6.77964e-07,2.80664e-06,0,1.44073e-09,-1.7458e+09,-1.74552e+09,-1.74589e+09,192.554,0.0110586,-4.2175e-20,0,0.0110586,-18026.3,-60000,-0,62649.4,192.554
step02_gravity_refstate-mantle.xmf,398,3.84109e-07,8.30643e-07,0,2.08372e-06,-1.3118e+09,-1.31174e+09,-1.31185e+09,278490,-0.00458329,0.0680575,-0,0.0682117,-3385.51,-46586.8,-0,46709.7,278490
step02_gravity_refstate-mantle.xmf,399,-2.13972e-07,1.53753e-06,0,2.31802e-06,-1.34458e+09,-1.34434e+09,-1.34455e+09,309803,-0.00486632,0.0643638,-0,0.0645475,-3983.36,-47597,-0,47763.4,309803
step02_gravity_refstate-mantle.xmf,400,8.6491e-07,3.11799e-07,0,1.56848e-06,-1.2771e+09,-1.27718e+09,-1.27722e+09,209628,-0.00370566,0.0709078,-0,0.0710046,-2688.04,-45516.8,-0,45596.1,209628
step02_gravity_refstate-mantle.xmf,401,1.07738e-06,2.89996e-07,0,8.22695e-07,-1.21597e+09,-1.21608e+09,-1.21612e+09,109953,-0.00240285,0.0729359,-0,0.0729755,-1944.31,-43629.8,-0,43673.1,109953
step02_gravity_refstate-mantle.xmf,402,1.18889e-06,1.89767e-07,0,5.22392e-07,-1.2064e+09,-1.20654e+09,-1.20656e+09,69817.7,-0.00155765,0.0738362,-0,0.0738526,-1243.14,-43334.8,-0,43352.6,69817.7
step02_gravity_refstate-mantle.xmf,403,1.24054e-06,1.61291e-07,0,2.35831e-07,-1.19836e+09,-1.19851e+09,-1.19853e+09,31518.8,-0.000716987,0.074324,-0,0.0743275,-571.37,-43086.7,-0,43090.5,31518.8
step02_gravity_refstate-mantle.xmf,404,1.20176e-06,3.49101e-07,0,-2.79152e-10,-1.15947e+09,-1.15958e+09,-1.15963e+09,-37.3086,-4.97261e-08,0.0747522,-0,0.0747522,0,-41885.4,0,41885.4,37.3086
step02_gravity_refstate-mantle.xmf,405,1.12302e-06,5.55929e-07,0,-3.60617e-07,-1.12871e+09,-1.12878e+09,-1.12886e+09,-48196.4,0.00195193,0.0744597,0,0.0744853,1644.56,-40935.3,0,40968.3,48196.4
step02_gravity_refstate-mantle.xmf,406,1.16359e-06,4.28389e-07,0,-2.41857e-07,-1.15054e+09,-1.15064e+09,-1.15069e+09,-32324.2,0.00105701,0.0746322,0,0.0746397,889.314,-41609.6,0,41619.1,32324.2
step02_gravity_refstate-mantle.xmf,407,-7.8528e-08,1.897e-06,0,5.66787e-09,-1.09858e+09,-1.09832e+09,-1.09857e+09,757.511,0.000249473,0.0449172,0,0.0449179,30892.4,-40000,0,50540.5,757.511
step02_gravity_refstate-mantle.xmf,408,-1.61657e-08,1.95837e-06,0,3.56315e-08,-1.15693e+09,-1.15666e+09,-1.15692e+09,4762.15,-0.000137232,0.0412659,-0,0.0412661,32143.2,-41802.9,0,52732.1,4762.15
step02_gravity_refstate-mantle.xmf,409,5.61279e-08,1.99611e-06,0,3.68688e-08,-1.20892e+09,-1.20866e+09,-1.20893e+09,4927.52,-0.00033094,0.0378427,-0,0.0378441,35064.8,-43409.6,0,55802.6,4927.52
step02_gravity_refstate-mantle.xmf,410,1.89622e-07,2.12719e-06,0,2.02699e-08,-1.34532e+09,-1.34506e+09,-1.34535e+09,2709.07,-0.000331823,0.0290577,-0,0.0290596,38256.7,-47624.2,0,61087.2,2709.07
step02_gravity_refstate-mantle.xmf,411,2.28851e-07,2.16872e-06,0,-7.07024e-11,-1.3879e+09,-1.38764e+09,-1.38793e+09,-9.44937,4.06838e-20,0.0262238,0,0.0262238,40000,-48939.8,0,63206.8,9.44937
step02_gravity_refstate-mantle.xmf,412,-8.96636e-07,3.29463e-06,0,7.51392e-07,-1.38834e+09,-1.38778e+09,-1.38822e+09,100424,-0.000297498,0.0434564,-0,0.0434574,-8412.34,-48948.9,-0,49666.5,100424
step02_gravity_refstate-mantle.xmf,413,-2.32472e-07,3.15748e-06,0,-1.68595e-07,-1.46585e+09,-1.4654e+09,-1.46582e+09,-22532.7,0.00585597,0.0274716,0,0.0280888,-12535.7,-51347.1,-0,52855.2,22532.7
step02_gravity_refstate-mantle.xmf,414,-4.01274e-07,3.24239e-06,0,-4.94426e-08,-1.44671e+09,-1.44622e+09,-1.44666e+09,-6608,0.00466167,0.0305342,0,0.030888,-11656.9,-50755,-0,52076.4,6608
step02_gravity_refstate-mantle.xmf,415,-5.6231e-07,3.30896e-06,0,1.07607e-07,-1.42957e+09,-1.42905e+09,-1.4295e+09,14381.6,0.00340422,0.0336968,0,0.0338683,-10787.5,-50224.7,-0,51370.1,14381.6
step02_gravity_refstate-mantle.xmf,416,-7.00841e-07,3.34193e-06,0,2.93911e-07,-1.41414e+09,-1.4136e+09,-1.41404e+09,39281.2,0.00214325,0.0368789,0,0.0369411,-9979.87,-49747.1,-0,50738.3,39281.2
step02_gravity_refstate-mantle.xmf,417,-8.15201e-07,3.34651e-06,0,5.06365e-07,-1.40154e+09,-1.40098e+09,-1.40143e+09,67675.7,0.000941554,0.0400445,0,0.0400556,-9178.38,-49357.1,-0,50203.2,67675.7
step02_gravity_refstate-mantle.xmf,418,3.95903e-07,2.8655e-06,0,-3.08453e-07,-1.57774e+09,-1.57741e+09,-1.5778e+09,-41224.8,0.0101043,0.0149838,0,0.0180724,-15304.6,-54807,-0,56903.7,41224.8
step02_gravity_refstate-mantle.xmf,419,5.90331e-07,2.80368e-06,0,-2.26609e-07,-1.6399e+09,-1.63961e+09,-1.63998e+09,-30286.3,0.0112876,0.00929851,0,0.0146244,-16136.6,-56728.2,-0,58978.6,30286.3
step02_gravity_refstate-mantle.xmf,420,1.90287e-07,9.83477e-07,0,2.34108e-06,-1.33382e+09,-1.33371e+09,-1.33385e+09,312885,-0.00481696,0.0673555,-0,0.0675275,-3410.85,-47266,-0,47388.9,312885
step02_gravity_refstate-mantle.xmf,421,-6.5925e-07,2.24443e-06,0,2.14732e-06,-1.36087e+09,-1.36048e+09,-1.36078e+09,286989,-0.00444947,0.0599497,-0,0.0601146,-4725.44,-48099.1,-0,48330.7,286989
step02_gravity_refstate-mantle.xmf,422,-8.55674e-07,2.66205e-06,0,1.83944e-06,-1.36664e+09,-1.36617e+09,-1.36653e+09,245841,-0.00379256,0.056165,-0,0.0562929,-5465.55,-48277.1,-0,48585.5,245841
step02_gravity_refstate-mantle.xmf,423,-1.01083e-06,3.02453e-06,0,1.58426e-06,-1.38231e+09,-1.38178e+09,-1.38218e+09,211736,-0.00287562,0.0524805,-0,0.0525592,-6004.73,-48761.2,-0,49129.5,211736
step02_gravity_refstate-mantle.xmf,424,-1.03386e-06,3.30124e-06,0,1.15327e-06,-1.3948e+09,-1.39422e+09,-1.39466e+09,154135,-0.00141989,0.047451,-0,0.0474722,-6975.49,-49147.3,-0,49639.8,154135
step02_gravity_refstate-mantle.xmf,425,1.11695e-06,1.40413e-07,0,1.00188e-06,-1.24117e+09,-1.2413e+09,-1.24132e+09,133901,-0.0026161,0.0727072,-0,0.0727542,-1979.82,-44408.1,-0,44452.2,133901
step02_gravity_refstate-mantle.xmf,426,1.15664e-06,-2.025e-08,0,1.21929e-06,-1.26585e+09,-1.266e+09,-1.266e+09,162958,-0.00288063,0.0725999,-0,0.072657,-2006.99,-45170.2,-0,45214.8,162958
step02_gravity_refstate-mantle.xmf,427,1.17411e-06,5.9719e-07,0,-3.0472e-07,-1.09842e+09,-1.09849e+09,-1.09857e+09,-40725.8,0.00250535,0.074712,0,0.074754,1990.05,-40000,0,40049.5,40725.8
step02_gravity_refstate-mantle.xmf,428,1.23529e-06,1.99778e-07,0,-4.53002e-10,-1.1878e+09,-1.18793e+09,-1.18796e+09,-60.5437,7.87709e-08,0.0744988,0,0.0744988,0,-42760.3,0,42760.3,60.5437
step02_gravity_refstate-mantle.xmf,429,8.07969e-07,2.60591e-07,0,1.85747e-06,-1.30098e+09,-1.30105e+09,-1.30108e+09,248250,-0.00403538,0.0706438,-0,0.070759,-2705.8,-46253.7,-0,46332.8,248250
step02_gravity_refstate-mantle.xmf,430,-1.15325e-07,1.92126e-06,0,1.08483e-10,-1.09859e+09,-1.09831e+09,-1.09857e+09,14.4988,0.000439344,0.0453046,0,0.0453068,28873.1,-40000,0,49332.1,14.4988
step02_gravity_refstate-mantle.xmf,431,-4.38009e-08,1.9877e-06,0,4.23896e-08,-1.16102e+09,-1.16075e+09,-1.16101e+09,5665.37,-0.000104915,0.0413182,-0,0.0413184,29992.7,-41929.2,0,51552.1,5665.37
step02_gravity_refstate-mantle.xmf,432,1.47193e-07,2.08882e-06,0,3.67876e-08,-1.30302e+09,-1.30276e+09,-1.30304e+09,4916.67,-0.000513311,0.031842,-0,0.0318462,36601.9,-46317.1,0,59033.6,4916.67
step02_gravity_refstate-mantle.xmf,433,5.11465e-08,2.02175e-06,0,5.2718e-08,-1.22044e+09,-1.22018e+09,-1.22045e+09,7045.76,-0.000483448,0.0372481,-0,0.0372513,33289.8,-43765.4,0,54987.5,7045.76
step02_gravity_refstate-mantle.xmf,434,1.0767e-07,2.0588e-06,0,4.79161e-08,-1.26704e+09,-1.26678e+09,-1.26706e+09,6403.99,-0.000570723,0.0341993,-0,0.034204,35113,-45205.4,0,57240.3,6403.99
step02_gravity_refstate-mantle.xmf,435,2.52982e-07,2.19847e-06,0,2.06335e-08,-1.41619e+09,-1.41593e+09,-1.41623e+09,2757.67,-0.000435291,0.0243212,-0,0.024325,38280.8,-49814,0,62824,2757.67
step02_gravity_refstate-mantle.xmf,436,2.89608e-07,2.24214e-06,0,1.98212e-11,-1.45949e+09,-1.45923e+09,-1.45953e+09,2.6491,5.09024e-20,0.0213456,0,0.0213456,40000,-51151.8,0,64934.6,2.6491
step02_gravity_refstate-mantle.xmf,437,-9.918e-07,3.41686e-06,0,8.65427e-07,-1.40452e+09,-1.40393e+09,-1.40439e+09,115664,-0.000259407,0.0439548,-0,0.0439556,-7698.24,-49448.2,-0,50043.8,115664
step02_gravity_refstate-mantle.xmf,438,2.00647e-08,3.0999e-06,0,-2.87319e-07,-1.51157e+09,-1.51116e+09,-1.51157e+09,-38400.2,0.0080399,0.0223929,0,0.0237925,-13166.3,-52760.9,-0,54378.9,38400.2
step02_gravity_refstate-mantle.xmf,439,-1.12522e-07,3.18303e-06,0,-2.43773e-07,-1.49536e+09,-1.49492e+09,-1.49534e+09,-32580.3,0.00725641,0.0246023,0,0.0256501,-12514.8,-52259.6,-0,53737.2,32580.3
step02_gravity_refstate-mantle.xmf,440,2.8052e-07,2.96902e-06,0,-3.27821e-07,-1.55672e+09,-1.55637e+09,-1.55676e+09,-43813.2,0.00973792,0.0173674,0,0.0199111,-14273.7,-54157.2,-0,56006.6,43813.2
step02_gravity_refstate-mantle.xmf,441,5.22702e-07,2.87044e-06,0,-2.76554e-07,-1.61569e+09,-1.61538e+09,-1.61576e+09,-36961.4,0.0112457,0.0116516,0,0.0161934,-15212.1,-55980.1,-0,58010.2,36961.4
step02_gravity_refstate-mantle.xmf,442,6.8735e-07,2.86805e-06,0,-1.56383e-07,-1.68197e+09,-1.68168e+09,-1.68206e+09,-20900.5,0.0124284,0.00572158,0,0.0136822,-15474.1,-58028.4,-0,60056.2,20900.5
step02_gravity_refstate-mantle.xmf,443,7.12863e-07,2.85666e-06,0,-8.0847e-08,-1.71251e+09,-1.71223e+09,-1.71261e+09,-10805.2,0.0123133,0.00296078,0,0.0126642,-16080,-58972.1,-0,61125,10805.2
step02_gravity_refstate-mantle.xmf,444,7.11088e-07,2.86628e-06,0,1.88088e-09,-1.74579e+09,-1.7455e+09,-1.74588e+09,251.38,0.0119695,-4.11321e-20,0,0.0119695,-16714.6,-60000,-0,62284.6,251.38
step02_gravity_refstate-mantle.xmf,445,6.67683e-07,3.53242e-07,0,2.20106e-06,-1.32326e+09,-1.3233e+09,-1.32334e+09,294172,-0.00442024,0.0701502,-0,0.0702894,-2788.02,-46941.3,-0,47024,294172
step02_gravity_refstate-mantle.xmf,446,-3.67845e-08,1.15256e-06,0,2.57275e-06,-1.35507e+09,-1.35491e+09,-1.35506e+09,343849,-0.00497311,0.0666563,-0,0.0668416,-3412.99,-47921.2,-0,48042.6,343849
step02_gravity_refstate-mantle.xmf,447,-4.78433e-07,1.82649e-06,0,2.46979e-06,-1.3671e+09,-1.36679e+09,-1.36703e+09,330088,-0.00481192,0.0631574,-0,0.0633405,-3990.97,-48291.6,-0,48456.2,330088
step02_gravity_refstate-mantle.xmf,448,4.37415e-07,5.19081e-07,0,2.54207e-06,-1.34532e+09,-1.34531e+09,-1.34538e+09,339748,-0.00477777,0.0695233,-0,0.0696873,-2871.5,-47621.6,-0,47708.1,339748
step02_gravity_refstate-mantle.xmf,449,1.17533e-06,-1.73776e-07,0,1.49085e-06,-1.29021e+09,-1.29039e+09,-1.29036e+09,199252,-0.00321244,0.0725982,-0,0.0726693,-2037.14,-45922.5,-0,45967.6,199252
step02_gravity_refstate-mantle.xmf,450,1.24936e-06,1.51908e-08,0,6.56134e-07,-1.23155e+09,-1.23172e+09,-1.23172e+09,87692.3,-0.00174113,0.0736976,-0,0.0737182,-1300.19,-44111.5,-0,44130.7,87692.3
step02_gravity_refstate-mantle.xmf,451,1.00447e-06,6.71735e-07,0,-5.23654e-07,-1.12518e+09,-1.12523e+09,-1.12532e+09,-69986.4,0.0029983,0.0735341,0,0.0735952,2611.72,-40825.9,0,40909.4,69986.4
step02_gravity_refstate-mantle.xmf,452,1.32366e-06,-4.45255e-08,0,3.06512e-07,-1.2243e+09,-1.22449e+09,-1.22448e+09,40965.4,-0.000818762,0.0742572,-0,0.0742617,-610.034,-43888,-0,43892.2,40965.4
step02_gravity_refstate-mantle.xmf,453,1.31558e-06,1.00112e-08,0,5.53255e-09,-1.21475e+09,-1.21492e+09,-1.21493e+09,739.426,7.72691e-08,0.0744047,0,0.0744047,0,-43593,0,43593,739.426
step02_gravity_refstate-mantle.xmf,454,1.1999e-06,2.757e-07,0,-2.27597e-07,-1.17942e+09,-1.17955e+09,-1.17958e+09,-30418.4,0.000795591,0.0744194,0,0.0744236,655.527,-42501.7,0,42506.7,30418.4
step02_gravity_refstate-mantle.xmf,455,1.06926e-06,5.04938e-07,0,-5.24991e-07,-1.16035e+09,-1.16043e+09,-1.16049e+09,-70165,0.00213213,0.0737539,0,0.0737847,1846.99,-41912.2,0,41952.9,70165
step02_gravity_refstate-mantle.xmf,456,-1.54556e-07,1.94675e-06,0,-1.01949e-08,-1.09859e+09,-1.09831e+09,-1.09857e+09,-1362.55,0.000695823,0.0457941,0,0.0457993,26946.1,-40000,0,48229.6,1362.55
step02_gravity_refstate-mantle.xmf,457,-9.3844e-08,1.99858e-06,0,3.31621e-08,-1.1474e+09,-1.14712e+09,-1.14738e+09,4432.12,0.000151418,0.0425753,0,0.0425756,27875.7,-41508.1,0,49999.7,4432.12
step02_gravity_refstate-mantle.xmf,458,1.67217e-08,2.02001e-06,0,5.83377e-08,-1.20361e+09,-1.20335e+09,-1.20362e+09,7796.83,-0.000440847,0.0384803,-0,0.0384828,31424.5,-43245.4,0,53457.1,7796.83
step02_gravity_refstate-mantle.xmf,459,2.12793e-07,2.15928e-06,0,4.0486e-08,-1.37346e+09,-1.3732e+09,-1.37349e+09,5410.95,-0.000729979,0.0272187,-0,0.0272285,36604.2,-48493.6,0,60757.7,5410.95
step02_gravity_refstate-mantle.xmf,460,3.11415e-07,2.27234e-06,0,1.93609e-08,-1.48731e+09,-1.48704e+09,-1.48735e+09,2587.58,-0.000538621,0.0194093,-0,0.0194167,38269,-52011.3,0,64573.2,2587.58
step02_gravity_refstate-mantle.xmf,461,3.42512e-07,2.31997e-06,0,9.62463e-11,-1.53107e+09,-1.53081e+09,-1.53112e+09,12.8633,6.22605e-20,0.0163009,0,0.0163009,40000,-53363.5,0,66690.8,12.8633
step02_gravity_refstate-mantle.xmf,462,-9.05738e-07,3.4763e-06,0,5.98003e-07,-1.41616e+09,-1.41557e+09,-1.41604e+09,79923.2,0.00100521,0.0404765,0,0.040489,-8436.85,-49808.5,-0,50518,79923.2
step02_gravity_refstate-mantle.xmf,463,-2.8366e-07,3.29079e-06,0,-1.55099e-07,-1.47787e+09,-1.47739e+09,-1.47783e+09,-20729,0.00621654,0.0274066,0,0.0281028,-11643.2,-51718.3,-0,53012.7,20729
step02_gravity_refstate-mantle.xmf,464,-4.62456e-07,3.3853e-06,0,-2.36483e-08,-1.4606e+09,-1.46008e+09,-1.46054e+09,-3160.59,0.00499657,0.0304785,0,0.0308854,-10791.7,-51184,-0,52309.3,3160.59
step02_gravity_refstate-mantle.xmf,465,-6.33549e-07,3.45401e-06,0,1.48862e-07,-1.44437e+09,-1.44382e+09,-1.44429e+09,19895.4,0.00367903,0.0337162,0,0.0339164,-9973.58,-50681.7,-0,51653.8,19895.4
step02_gravity_refstate-mantle.xmf,466,-7.83693e-07,3.48789e-06,0,3.56302e-07,-1.42976e+09,-1.42919e+09,-1.42965e+09,47619.8,0.00234512,0.0370308,0,0.037105,-9191.55,-50229.5,-0,51063.5,47619.8
step02_gravity_refstate-mantle.xmf,467,1.51936e-07,3.08677e-06,0,-3.24505e-07,-1.53941e+09,-1.53902e+09,-1.53943e+09,-43370,0.00925918,0.0196303,0,0.0217044,-13286.6,-53621.8,-0,55243.3,43370
step02_gravity_refstate-mantle.xmf,468,4.34468e-07,2.96211e-06,0,-3.16258e-07,-1.5949e+09,-1.59456e+09,-1.59496e+09,-42267.9,0.0110937,0.0138777,0,0.0177668,-14252.3,-55337.4,-0,57143.3,42267.9
step02_gravity_refstate-mantle.xmf,469,6.22898e-07,2.88548e-06,0,-2.27432e-07,-1.64916e+09,-1.64886e+09,-1.64924e+09,-30396.3,0.012142,0.00871805,0,0.0149477,-15041.5,-57014.7,-0,58965.4,30396.3
step02_gravity_refstate-mantle.xmf,470,-9.55507e-07,2.76473e-06,0,1.96246e-06,-1.3852e+09,-1.3847e+09,-1.38507e+09,262283,-0.00365782,0.0561739,-0,0.0562929,-5124.18,-48850,-0,49118,262283
step02_gravity_refstate-mantle.xmf,471,-1.08494e-06,3.52353e-06,0,1.01428e-06,-1.41882e+09,-1.41821e+09,-1.41868e+09,135559,-0.000299229,0.0448516,-0,0.0448526,-6993.52,-49889.7,-0,50377.5,135559
step02_gravity_refstate-mantle.xmf,472,-1.12088e-06,3.36113e-06,0,1.3538e-06,-1.40803e+09,-1.40743e+09,-1.40788e+09,180935,-0.00161208,0.0488254,-0,0.048852,-6272.99,-49555.5,-0,49951,180935
step02_gravity_refstate-mantle.xmf,473,-7.77838e-07,2.34415e-06,0,2.29273e-06,-1.37938e+09,-1.37896e+09,-1.37927e+09,306424,-0.00436923,0.0599564,-0,0.0601154,-4457.71,-48670.2,-0,48873.9,306424
step02_gravity_refstate-mantle.xmf,474,1.73975e-07,6.95472e-07,0,2.84116e-06,-1.36597e+09,-1.3659e+09,-1.36599e+09,379721,-0.00501389,0.0690034,-0,0.0691853,-2900.56,-48258.3,-0,48345.3,379721
step02_gravity_refstate-mantle.xmf,475,1.3364e-06,-2.09391e-07,0,8.14794e-07,-1.25535e+09,-1.25555e+09,-1.25552e+09,108897,-0.00195469,0.0737055,-0,0.0737315,-1344.54,-44846.5,-0,44866.7,108897
step02_gravity_refstate-mantle.xmf,476,1.43503e-06,-4.59189e-07,0,1.0171e-06,-1.27896e+09,-1.27921e+09,-1.27915e+09,135935,-0.00220951,0.073881,-0,0.073914,-1378.07,-45575.9,-0,45596.7,135935
step02_gravity_refstate-mantle.xmf,477,1.01019e-06,7.3135e-07,0,-4.28195e-07,-1.09844e+09,-1.09848e+09,-1.09858e+09,-57228.3,0.00360343,0.0736543,0,0.0737424,2990.68,-40000,0,40111.6,57228.3
step02_gravity_refstate-mantle.xmf,478,9.81416e-07,6.30556e-07,0,-6.15884e-07,-1.14917e+09,-1.14921e+09,-1.1493e+09,-82312.9,0.00277833,0.0732234,0,0.0732761,2471.11,-41566.5,0,41639.9,82312.9
step02_gravity_refstate-mantle.xmf,479,1.25466e-06,1.33641e-07,0,-2.04383e-07,-1.20139e+09,-1.20153e+09,-1.20155e+09,-27315.8,0.000630968,0.074339,0,0.0743417,498.595,-43180.1,0,43182.9,27315.8
step02_gravity_refstate-mantle.xmf,480,1.13884e-06,3.69603e-07,0,-4.33079e-07,-1.17588e+09,-1.17598e+09,-1.17603e+09,-57881,0.00156478,0.0740392,0,0.0740557,1317.39,-42391.9,0,42412.4,57881
step02_gravity_refstate-mantle.xmf,481,1.18007e-06,-3.26141e-07,0,1.87253e-06,-1.3162e+09,-1.3164e+09,-1.31636e+09,250264,-0.0036251,0.0727594,-0,0.0728497,-2055.46,-46724.9,-0,46770.1,250264
step02_gravity_refstate-mantle.xmf,482,-1.33489e-07,2.02478e-06,0,2.55396e-08,-1.14605e+09,-1.14576e+09,-1.14603e+09,3413.37,0.00037139,0.043148,0,0.0431496,26044.6,-41466.2,0,48967,3413.37
step02_gravity_refstate-mantle.xmf,483,-3.19753e-08,2.05294e-06,0,6.73795e-08,-1.19934e+09,-1.19906e+09,-1.19933e+09,9005.28,-0.000387664,0.0391994,-0,0.0392013,28461,-43113.1,0,51660.1,9005.28
step02_gravity_refstate-mantle.xmf,484,-2.00291e-07,1.97471e-06,0,-2.53464e-08,-1.0986e+09,-1.09831e+09,-1.09857e+09,-3387.55,0.00102137,0.0463965,0,0.0464078,25106.5,-40000,0,47226.4,3387.55
step02_gravity_refstate-mantle.xmf,485,1.96738e-08,2.06087e-06,0,7.52505e-08,-1.22567e+09,-1.2254e+09,-1.22568e+09,10057.2,-0.000644998,0.0372689,-0,0.0372745,30026.1,-43927,0,53208.6,10057.2
step02_gravity_refstate-mantle.xmf,486,1.74663e-07,2.12917e-06,0,5.54349e-08,-1.33716e+09,-1.3369e+09,-1.33718e+09,7408.88,-0.000869409,0.0296594,-0,0.0296722,35188.3,-47372.1,0,59011.3,7408.88
step02_gravity_refstate-mantle.xmf,487,6.81433e-08,2.07221e-06,0,7.53583e-08,-1.25401e+09,-1.25374e+09,-1.25402e+09,10071.6,-0.00080426,0.0352679,-0,0.0352771,31670.6,-44802.6,0,54866.2,10071.6
step02_gravity_refstate-mantle.xmf,488,1.26136e-07,2.1008e-06,0,7.01617e-08,-1.29717e+09,-1.29691e+09,-1.29719e+09,9377.11,-0.000932302,0.0323546,-0,0.032368,33380.5,-46136.3,0,56945.8,9377.11
step02_gravity_refstate-mantle.xmf,489,2.76508e-07,2.23026e-06,0,4.00405e-08,-1.44428e+09,-1.44402e+09,-1.44431e+09,5351.42,-0.000939071,0.0224158,-0,0.0224354,36608.4,-50681.8,0,62520.5,5351.42
step02_gravity_refstate-mantle.xmf,490,3.61445e-07,2.35401e-06,0,1.66836e-08,-1.5602e+09,-1.55994e+09,-1.56025e+09,2229.77,-0.000653446,0.0141994,-0,0.0142144,38189,-54263.7,0,66354.7,2229.77
step02_gravity_refstate-mantle.xmf,491,3.83522e-07,2.40529e-06,0,1.45226e-10,-1.60266e+09,-1.60239e+09,-1.60271e+09,19.4095,8.25138e-20,0.011076,0,0.011076,40000,-55575.3,0,68473.4,19.4095
step02_gravity_refstate-mantle.xmf,492,-9.98852e-07,3.60364e-06,0,7.15648e-07,-1.42983e+09,-1.42921e+09,-1.42969e+09,95646.4,0.00102429,0.0411904,0,0.0412031,-7704.09,-50230.4,-0,50817.8,95646.4
step02_gravity_refstate-mantle.xmf,493,1.87466e-08,3.20162e-06,0,-2.9552e-07,-1.52467e+09,-1.52424e+09,-1.52467e+09,-39496.3,0.00866375,0.021813,0,0.0234706,-12411,-53165.9,-0,54595.2,39496.3
step02_gravity_refstate-mantle.xmf,494,-1.4596e-07,3.32108e-06,0,-2.39356e-07,-1.50821e+09,-1.50774e+09,-1.50819e+09,-31989.9,0.00778508,0.0243585,0,0.0255724,-11601.5,-52656.5,-0,53919.4,31989.9
step02_gravity_refstate-mantle.xmf,495,3.14616e-07,3.07609e-06,0,-3.37983e-07,-1.57435e+09,-1.57399e+09,-1.5744e+09,-45171.5,0.0107104,0.0162922,0,0.0194974,-13298.5,-54702.3,-0,56295.6,45171.5
step02_gravity_refstate-mantle.xmf,496,5.70527e-07,2.96392e-06,0,-2.72515e-07,-1.63263e+09,-1.63231e+09,-1.63271e+09,-36421.7,0.0122609,0.0104485,0,0.0161091,-14182.1,-56503.9,-0,58256.5,36421.7
step02_gravity_refstate-mantle.xmf,497,6.90983e-07,2.96551e-06,0,-1.88688e-07,-1.67565e+09,-1.67535e+09,-1.67575e+09,-25218.1,0.0131859,0.00649261,0,0.0146977,-14233.9,-57833.7,-0,59559.5,25218.1
step02_gravity_refstate-mantle.xmf,498,7.40757e-07,2.94182e-06,0,-9.08816e-08,-1.7124e+09,-1.71211e+09,-1.7125e+09,-12146.3,0.0132173,0.00305714,0,0.0135662,-14835,-58969,-0,60806.4,12146.3
step02_gravity_refstate-mantle.xmf,499,7.42614e-07,2.93983e-06,0,2.35845e-09,-1.74578e+09,-1.74548e+09,-1.74587e+09,315.207,0.0128772,-4.31143e-20,0,0.0128772,-15465.3,-60000,-0,61961.1,315.207
step02_gravity_refstate-mantle.xmf,500,9.5372e-07,-1.6776e-07,0,2.34521e-06,-1.33782e+09,-1.33797e+09,-1.33794e+09,313437,-0.00427133,0.0720403,-0,0.0721668,-2306.6,-47391.6,-0,47447.7,313437
step02_gravity_refstate-mantle.xmf,501,-1.10089e-06,3.14876e-06,0,1.67453e-06,-1.40089e+09,-1.40033e+09,-1.40075e+09,223800,-0.00261458,0.0523232,-0,0.0523885,-5637.34,-49334.8,-0,49655.9,223800
step02_gravity_refstate-mantle.xmf,502,-3.11797e-07,1.43219e-06,0,2.77499e-06,-1.37583e+09,-1.37559e+09,-1.37578e+09,370877,-0.00500256,0.0658197,-0,0.0660096,-3414.78,-48561.4,-0,48681.3,370877
step02_gravity_refstate-mantle.xmf,503,-7.0662e-07,2.10704e-06,0,2.56579e-06,-1.38689e+09,-1.38651e+09,-1.38679e+09,342918,-0.00461997,0.062163,-0,0.0623344,-3952.84,-48902.1,-0,49061.6,342918
step02_gravity_refstate-mantle.xmf,504,7.19915e-07,-2.06627e-08,0,2.75531e-06,-1.35746e+09,-1.35756e+09,-1.35755e+09,368248,-0.00468398,0.0717184,-0,0.0718712,-2395.96,-47997.1,-0,48056.9,368248
step02_gravity_refstate-mantle.xmf,505,8.2513e-07,8.8434e-07,0,-5.27231e-07,-1.09847e+09,-1.09846e+09,-1.09858e+09,-70464.4,0.00453666,0.0722534,0,0.0723957,4001.3,-40000,0,40199.6,70464.4
step02_gravity_refstate-mantle.xmf,506,8.38472e-07,8.3229e-07,0,-6.50037e-07,-1.1257e+09,-1.1257e+09,-1.12581e+09,-86877.4,0.00385524,0.0722305,0,0.0723334,3543.28,-40841.1,0,40994.5,86877.4
step02_gravity_refstate-mantle.xmf,507,1.53714e-06,-7.26413e-07,0,1.27255e-06,-1.3021e+09,-1.3024e+09,-1.30231e+09,170076,-0.0025016,0.0742593,-0,0.0743014,-1396.71,-46290.8,-0,46311.9,170076
step02_gravity_refstate-mantle.xmf,508,1.41615e-06,-2.54864e-07,0,4.09335e-07,-1.24612e+09,-1.24634e+09,-1.24631e+09,54707.6,-0.000982143,0.0743159,-0,0.0743224,-679.283,-44562,-0,44567.2,54707.6
step02_gravity_refstate-mantle.xmf,509,8.61033e-07,7.49233e-07,0,-7.45203e-07,-1.15057e+09,-1.15058e+09,-1.15069e+09,-99596.3,0.00340673,0.0722184,0,0.0722987,3156.37,-41609.3,0,41728.9,99596.3
step02_gravity_refstate-mantle.xmf,510,1.43495e-06,-2.43855e-07,0,5.66421e-09,-1.2404e+09,-1.24062e+09,-1.24059e+09,757.022,-2.33334e-08,0.0744951,-0,0.0744951,0,-44385.5,0,44385.5,757.022
step02_gravity_refstate-mantle.xmf,511,1.32435e-06,-2.93328e-08,0,-2.94077e-07,-1.22296e+09,-1.22314e+09,-1.22313e+09,-39303.4,0.000822571,0.0742526,0,0.0742572,615.412,-43846.4,0,43850.7,39303.4
step02_gravity_refstate-mantle.xmf,512,1.19612e-06,2.11748e-07,0,-4.7765e-07,-1.20194e+09,-1.20207e+09,-1.2021e+09,-63837.9,0.00148207,0.0739089,0,0.0739237,1192.28,-43196.9,0,43213.3,63837.9
step02_gravity_refstate-mantle.xmf,513,9.17173e-07,6.30265e-07,0,-7.83438e-07,-1.1743e+09,-1.17434e+09,-1.17442e+09,-104706,0.00298501,0.0724276,0,0.0724891,2690.89,-42342.3,0,42427.7,104706
step02_gravity_refstate-mantle.xmf,514,1.05851e-06,4.24723e-07,0,-6.6933e-07,-1.18806e+09,-1.18815e+09,-1.1882e+09,-89456,0.00228111,0.073245,0,0.0732805,1944.05,-42767.9,0,42812.1,89456
step02_gravity_refstate-mantle.xmf,515,-7.95688e-08,2.05455e-06,0,5.58794e-08,-1.18079e+09,-1.1805e+09,-1.18078e+09,7468.28,-0.000107652,0.0407111,-0,0.0407112,26936.6,-42539.8,0,50351,7468.28
step02_gravity_refstate-mantle.xmf,516,-1.76568e-07,2.05375e-06,0,1.30577e-08,-1.14558e+09,-1.14528e+09,-1.14556e+09,1745.16,0.000646101,0.0437724,0,0.0437771,24307.5,-41451.6,0,48053,1745.16
step02_gravity_refstate-mantle.xmf,517,-2.48928e-07,2.00333e-06,0,-4.7163e-08,-1.09861e+09,-1.09831e+09,-1.09857e+09,-6303.33,0.00141433,0.0471234,0,0.0471446,23349.5,-40000,0,46316.3,6303.33
step02_gravity_refstate-mantle.xmf,518,2.42038e-07,2.19831e-06,0,5.79847e-08,-1.40755e+09,-1.40729e+09,-1.40759e+09,7749.65,-0.00117626,0.0249531,-0,0.0249808,35194.5,-49547.1,0,60774.7,7749.65
step02_gravity_refstate-mantle.xmf,519,3.32938e-07,2.30443e-06,0,3.54428e-08,-1.51466e+09,-1.5144e+09,-1.51471e+09,4736.92,-0.00112305,0.0174846,-0,0.0175207,36614.1,-52856.6,0,64299.4,4736.92
step02_gravity_refstate-mantle.xmf,520,3.97775e-07,2.44401e-06,0,1.389e-08,-1.63228e+09,-1.63201e+09,-1.63233e+09,1856.4,-0.00085966,0.00885789,-0,0.0088995,37832.6,-56490.6,0,67988.9,1856.4
step02_gravity_refstate-mantle.xmf,521,4.09529e-07,2.50067e-06,0,9.10029e-12,-1.67424e+09,-1.67396e+09,-1.6743e+09,1.21625,6.54725e-20,0.00565133,0,0.00565133,40000,-57787,0,70280.4,1.21625
step02_gravity_refstate-mantle.xmf,522,-8.68764e-07,3.63353e-06,0,4.39221e-07,-1.44391e+09,-1.44331e+09,-1.4438e+09,58702,0.00249857,0.0374465,0,0.0375298,-8429.52,-50666.5,-0,51362.9,58702
step02_gravity_refstate-mantle.xmf,523,-3.34071e-07,3.43947e-06,0,-1.35954e-07,-1.49093e+09,-1.49043e+09,-1.49089e+09,-18170.3,0.00664634,0.0273305,0,0.028127,-10759.1,-52121.9,-0,53220.8,18170.3
step02_gravity_refstate-mantle.xmf,524,-5.25284e-07,3.5389e-06,0,1.1737e-08,-1.47435e+09,-1.47381e+09,-1.47428e+09,1568.65,0.0053508,0.0305177,0,0.0309832,-9951.86,-51608.8,-0,52559.6,1568.65
step02_gravity_refstate-mantle.xmf,525,-7.06781e-07,3.60784e-06,0,2.02901e-07,-1.45881e+09,-1.45823e+09,-1.45871e+09,27117.7,0.00396078,0.0338768,0,0.0341075,-9177.79,-51127.6,-0,51944.8,27117.7
step02_gravity_refstate-mantle.xmf,526,1.71423e-07,3.20532e-06,0,-3.33698e-07,-1.55579e+09,-1.55538e+09,-1.55581e+09,-44598.7,0.0101401,0.0187546,0,0.0213203,-12381.6,-54128.2,-0,55526.2,44598.7
step02_gravity_refstate-mantle.xmf,527,4.72729e-07,3.06672e-06,0,-3.18743e-07,-1.6103e+09,-1.60995e+09,-1.61036e+09,-42600,0.0120581,0.0128925,0,0.0176526,-13272.8,-55813.6,-0,57370,42600
step02_gravity_refstate-mantle.xmf,528,-9.70331e-07,2.65413e-06,0,2.2599e-06,-1.39746e+09,-1.39697e+09,-1.39733e+09,302035,-0.00391168,0.0582666,-0,0.0583977,-4513.42,-49228.3,-0,49434.8,302035
step02_gravity_refstate-mantle.xmf,529,-1.08488e-06,3.72886e-06,0,8.53751e-07,-1.44339e+09,-1.44274e+09,-1.44324e+09,114104,0.00107768,0.0420494,0,0.0420632,-7006.78,-50649,-0,51131.4,114104
step02_gravity_refstate-mantle.xmf,530,-1.1677e-06,3.6092e-06,0,1.19141e-06,-1.43142e+09,-1.43078e+09,-1.43126e+09,159232,-0.000376284,0.0460561,-0,0.0460576,-6332.91,-50278.5,-0,50675.8,159232
step02_gravity_refstate-mantle.xmf,531,-1.1261e-06,3.0846e-06,0,1.91057e-06,-1.40863e+09,-1.40807e+09,-1.40848e+09,255348,-0.00292053,0.0542043,-0,0.0542829,-5094.65,-49573.4,-0,49834.5,255348
step02_gravity_refstate-mantle.xmf,532,-1.18765e-06,3.4015e-06,0,1.55039e-06,-1.42029e+09,-1.41967e+09,-1.42013e+09,207209,-0.00171498,0.0501161,-0,0.0501454,-5690.18,-49934,-0,50257.1,207209
step02_gravity_refstate-mantle.xmf,533,-1.25373e-07,9.73705e-07,0,3.11048e-06,-1.38593e+09,-1.38578e+09,-1.38591e+09,415716,-0.00510315,0.0685082,-0,0.068698,-2897.61,-48873.4,-0,48959.2,415716
step02_gravity_refstate-mantle.xmf,534,4.66799e-07,8.06101e-08,0,3.13626e-06,-1.37691e+09,-1.37697e+09,-1.37698e+09,419161,-0.00496833,0.0716905,-0,0.0718625,-2400.46,-48596.7,-0,48656,419161
step02_gravity_refstate-mantle.xmf,535,6.5336e-07,1.00466e-06,0,-7.4902e-07,-1.12693e+09,-1.12688e+09,-1.12702e+09,-100106,0.00455196,0.0706128,0,0.0707594,4488.01,-40878.4,0,41124,100106
step02_gravity_refstate-mantle.xmf,536,6.13818e-07,1.06054e-06,0,-5.91615e-07,-1.0985e+09,-1.09844e+09,-1.09858e+09,-79069.4,0.00527645,0.0705731,0,0.0707701,5026.7,-40000,0,40314.6,79069.4
step02_gravity_refstate-mantle.xmf,537,1.55333e-06,-5.61719e-07,0,5.25128e-07,-1.26878e+09,-1.26907e+09,-1.26899e+09,70183.4,-0.00115648,0.074552,-0,0.074561,-727.775,-45262.2,-0,45268.1,70183.4
step02_gravity_refstate-mantle.xmf,538,1.71736e-06,-8.71178e-07,0,6.70105e-07,-1.29174e+09,-1.29209e+09,-1.29197e+09,89559.6,-0.00137518,0.0750021,-0,0.0750147,-774.03,-45971.7,-0,45978.2,89559.6
step02_gravity_refstate-mantle.xmf,539,1.66615e-06,-1.06932e-06,0,1.57069e-06,-1.32424e+09,-1.3246e+09,-1.32446e+09,209923,-0.00279349,0.0749118,-0,0.0749638,-1380.64,-46974.7,-0,46994.9,209923
step02_gravity_refstate-mantle.xmf,540,1.86368e-06,-1.23895e-06,0,9.76674e-07,-1.31365e+09,-1.31407e+09,-1.3139e+09,130533,-0.00176985,0.0755641,-0,0.0755848,-886.02,-46648.5,-0,46656.9,130533
step02_gravity_refstate-mantle.xmf,541,2.94234e-08,2.11268e-06,0,9.6807e-08,-1.25476e+09,-1.25448e+09,-1.25476e+09,12938.3,-0.000973373,0.0356251,-0,0.0356384,28501.7,-44825.7,0,53119.6,12938.3
step02_gravity_refstate-mantle.xmf,542,-9.99117e-08,2.10296e-06,0,6.31005e-08,-1.19628e+09,-1.19599e+09,-1.19627e+09,8433.38,-0.000151143,0.0401762,-0,0.0401765,25285.3,-43018.4,0,49899.2,8433.38
step02_gravity_refstate-mantle.xmf,543,-2.88381e-08,2.10958e-06,0,8.76425e-08,-1.2277e+09,-1.22742e+09,-1.2277e+09,11713.4,-0.000659205,0.0376971,-0,0.0377029,26918.7,-43989.5,0,51572.2,11713.4
step02_gravity_refstate-mantle.xmf,544,-2.96056e-07,2.02921e-06,0,-7.49331e-08,-1.09862e+09,-1.09831e+09,-1.09858e+09,-10014.8,0.0018698,0.0479859,0,0.0480223,21670.5,-40000,0,45493,10014.8
step02_gravity_refstate-mantle.xmf,545,-2.1973e-07,2.09725e-06,0,-3.37958e-09,-1.15207e+09,-1.15176e+09,-1.15204e+09,-451.681,0.000920044,0.0441545,0,0.044164,22470.7,-41651.8,0,47326.6,451.681
step02_gravity_refstate-mantle.xmf,546,-3.39816e-07,2.04894e-06,0,-1.08983e-07,-1.09862e+09,-1.0983e+09,-1.09858e+09,-14565.5,0.00237889,0.0489939,0,0.0490516,20065.1,-40000,0,44750.5,14565.5
step02_gravity_refstate-mantle.xmf,547,-2.7946e-07,2.10855e-06,0,-4.91821e-08,-1.13982e+09,-1.1395e+09,-1.13978e+09,-6573.18,0.00153684,0.0458978,0,0.0459236,20751.2,-41273.1,0,46196.1,6573.18
step02_gravity_refstate-mantle.xmf,548,8.36758e-08,2.12062e-06,0,9.74349e-08,-1.28408e+09,-1.28381e+09,-1.28409e+09,13022.2,-0.00118514,0.0334903,-0,0.0335113,30068.1,-45731.7,0,54731,13022.2
step02_gravity_refstate-mantle.xmf,549,2.02226e-07,2.17307e-06,0,7.85491e-08,-1.37172e+09,-1.37145e+09,-1.37174e+09,10498.1,-0.0013858,0.0274302,-0,0.0274652,33422.7,-48439.7,0,58851.4,10498.1
step02_gravity_refstate-mantle.xmf,550,1.50964e-07,2.15237e-06,0,9.66347e-08,-1.33331e+09,-1.33304e+09,-1.33333e+09,12915.2,-0.00145989,0.0301092,-0,0.0301446,31459.5,-47253,0,56767.5,12915.2
step02_gravity_refstate-mantle.xmf,551,3.04269e-07,2.26829e-06,0,5.51959e-08,-1.47708e+09,-1.47681e+09,-1.47712e+09,7376.93,-0.00146838,0.0201561,-0,0.0202095,35165.3,-51695.2,0,62521.9,7376.93
step02_gravity_refstate-mantle.xmf,552,3.74375e-07,2.37593e-06,0,2.89035e-08,-1.577e+09,-1.57673e+09,-1.57705e+09,3862.95,-0.0012834,0.0129775,-0,0.0130408,36545,-54782.6,0,65853.4,3862.95
step02_gravity_refstate-mantle.xmf,553,4.14804e-07,2.52965e-06,0,5.07907e-09,-1.69442e+09,-1.69413e+09,-1.69447e+09,678.818,-0.000676767,0.00408346,-0,0.00413917,38364.9,-58410.3,0,69883,678.818
step02_gravity_refstate-mantle.xmf,554,4.17686e-07,2.60779e-06,0,-1.37357e-09,-1.74587e+09,-1.74558e+09,-1.74593e+09,-183.578,-3.05348e-19,-3.97975e-19,-0,5.01619e-19,40000,-60000,0,72111,183.578
step02_gravity_refstate-mantle.xmf,555,-9.52587e-07,3.77828e-06,0,5.48428e-07,-1.45698e+09,-1.45635e+09,-1.45686e+09,73297.4,0.00262115,0.0381248,0,0.0382148,-7693.48,-51070,-0,51646.3,73297.4
step02_gravity_refstate-mantle.xmf,556,1.55223e-08,3.33157e-06,0,-2.97811e-07,-1.53875e+09,-1.53831e+09,-1.53876e+09,-39802.5,0.00938277,0.0212706,0,0.0232481,-11552.5,-53601.2,-0,54832,39802.5
step02_gravity_refstate-mantle.xmf,557,-1.73528e-07,3.47096e-06,0,-2.28656e-07,-1.52165e+09,-1.52117e+09,-1.52163e+09,-30559.9,0.0083852,0.0240921,0,0.0255096,-10728.7,-53072.1,-0,54145.7,30559.9
step02_gravity_refstate-mantle.xmf,558,3.40263e-07,3.19677e-06,0,-3.40263e-07,-1.5889e+09,-1.58852e+09,-1.58895e+09,-45476.1,0.0116167,0.0154946,0,0.0193657,-12357.8,-55152.1,-0,56519.7,45476.1
step02_gravity_refstate-mantle.xmf,559,6.27772e-07,3.07346e-06,0,-2.58635e-07,-1.65069e+09,-1.65036e+09,-1.65077e+09,-34566.6,0.0133781,0.00911713,0,0.0161894,-13121.5,-57062.4,-0,58551.6,34566.6
step02_gravity_refstate-mantle.xmf,560,7.65557e-07,3.04426e-06,0,-9.17702e-08,-1.71497e+09,-1.71466e+09,-1.71507e+09,-12265.1,0.014087,0.00291712,0,0.0143859,-13708.9,-59048.8,-0,60619.3,12265.1
step02_gravity_refstate-mantle.xmf,561,7.70617e-07,3.03186e-06,0,1.99885e-09,-1.74576e+09,-1.74546e+09,-1.74586e+09,267.146,0.0137774,-4.15162e-20,0,0.0137774,-14275.5,-60000,-0,61674.9,267.146
step02_gravity_refstate-mantle.xmf,562,1.3883e-06,-7.94293e-07,0,2.05261e-06,-1.33503e+09,-1.33533e+09,-1.33522e+09,274331,-0.00361535,0.073975,-0,0.0740633,-1789.99,-47307,-0,47340.8,274331
step02_gravity_refstate-mantle.xmf,563,1.29478e-06,-8.07761e-07,0,2.48905e-06,-1.35182e+09,-1.3521e+09,-1.352e+09,332662,-0.00405754,0.0740652,-0,0.0741763,-1875.08,-47824.9,-0,47861.7,332662
step02_gravity_refstate-mantle.xmf,564,-5.99592e-07,1.77641e-06,0,2.90809e-06,-1.3961e+09,-1.39578e+09,-1.39602e+09,388666,-0.00483515,0.0648385,-0,0.0650185,-3411.27,-49186.5,-0,49304.7,388666
step02_gravity_refstate-mantle.xmf,565,-9.37302e-07,2.4549e-06,0,2.58761e-06,-1.40717e+09,-1.40671e+09,-1.40704e+09,345834,-0.00417178,0.060748,-0,0.060891,-3950.72,-49527.9,-0,49685.2,345834
step02_gravity_refstate-mantle.xmf,566,1.15175e-06,-8.18057e-07,0,2.9646e-06,-1.36966e+09,-1.36992e+09,-1.36981e+09,396219,-0.00444635,0.0744225,-0,0.0745552,-1897.79,-48374.8,-0,48412,396219
step02_gravity_refstate-mantle.xmf,567,6.84155e-07,9.38886e-07,0,-8.6441e-07,-1.1533e+09,-1.15327e+09,-1.15339e+09,-115528,0.00407009,0.070659,0,0.0707761,4025.72,-41693,0,41886.9,115528
step02_gravity_refstate-mantle.xmf,568,4.3433e-07,1.21734e-06,0,-8.25707e-07,-1.13226e+09,-1.13216e+09,-1.13232e+09,-110356,0.0050653,0.068441,0,0.0686282,5531.57,-41042.2,0,41413.3,110356
step02_gravity_refstate-mantle.xmf,569,1.5933e-06,-5.57987e-07,0,5.3404e-09,-1.26481e+09,-1.26509e+09,-1.26502e+09,713.744,5.62141e-09,0.0747938,0,0.0747938,0,-45139.6,0,45139.6,713.744
step02_gravity_refstate-mantle.xmf,570,7.28593e-07,8.34821e-07,0,-9.54051e-07,-1.17535e+09,-1.17534e+09,-1.17545e+09,-127509,0.00373176,0.0708537,0,0.0709519,3595.49,-42374.2,0,42526.5,127509
step02_gravity_refstate-mantle.xmf,571,1.42753e-06,-2.5642e-07,0,-3.90232e-07,-1.24641e+09,-1.24664e+09,-1.2466e+09,-52154.5,0.000978023,0.0743208,0,0.0743272,675.578,-44571.1,0,44576.2,52154.5
step02_gravity_refstate-mantle.xmf,572,1.2578e-06,2.50798e-08,0,-6.40246e-07,-1.23041e+09,-1.23057e+09,-1.23058e+09,-85568.9,0.00173182,0.0737007,0,0.073721,1297.88,-44076.3,0,44095.4,85568.9
step02_gravity_refstate-mantle.xmf,573,9.25758e-07,5.36079e-07,0,-9.27408e-07,-1.20203e+09,-1.20208e+09,-1.20215e+09,-123948,0.00299519,0.0720586,0,0.0721209,2609.7,-43198.8,0,43277.6,123948
step02_gravity_refstate-mantle.xmf,574,1.08579e-06,2.97182e-07,0,-8.12578e-07,-1.21505e+09,-1.21515e+09,-1.21519e+09,-108601,0.00240217,0.0729386,0,0.0729781,1948.32,-43601.4,0,43644.9,108601
step02_gravity_refstate-mantle.xmf,575,1.91459e-06,-1.22196e-06,0,4.54372e-07,-1.3043e+09,-1.30472e+09,-1.30456e+09,60726.8,-0.000842403,0.0757239,-0,0.0757285,-434.994,-46360.2,-0,46362.2,60726.8
step02_gravity_refstate-mantle.xmf,576,-1.48545e-07,2.12198e-06,0,4.46681e-08,-1.18696e+09,-1.18666e+09,-1.18694e+09,5969.89,0.000177229,0.0413434,0,0.0413437,23688.1,-42730.2,0,48856.9,5969.89
step02_gravity_refstate-mantle.xmf,577,-3.20756e-07,2.12506e-06,0,-8.92044e-08,-1.13774e+09,-1.13741e+09,-1.13769e+09,-11922.2,0.00201736,0.0470445,0,0.0470878,19265.4,-41208.5,0,45489.5,11922.2
step02_gravity_refstate-mantle.xmf,578,-3.76002e-07,2.06417e-06,0,-1.52402e-07,-1.09863e+09,-1.0983e+09,-1.09858e+09,-20368.6,0.00292971,0.0501558,0,0.0502413,18528.8,-40000,0,44083.1,20368.6
step02_gravity_refstate-mantle.xmf,579,-4.02912e-07,2.0685e-06,0,-2.01809e-07,-1.09864e+09,-1.09831e+09,-1.09858e+09,-26971.8,0.00350599,0.0514768,0,0.051596,17057.5,-40000,0,43485.2,26971.8
step02_gravity_refstate-mantle.xmf,580,-4.15049e-07,2.0596e-06,0,-2.57457e-07,-1.09864e+09,-1.09831e+09,-1.09858e+09,-34409.1,0.00408824,0.0529581,0,0.0531157,15647.1,-40000,0,42951.5,34409.1
step02_gravity_refstate-mantle.xmf,581,-3.80418e-07,2.14459e-06,0,-2.05643e-07,-1.13586e+09,-1.13553e+09,-1.13581e+09,-27484.1,0.00308359,0.0497704,0,0.0498658,16351.4,-41150.3,0,44280,27484.1
step02_gravity_refstate-mantle.xmf,582,-3.53847e-07,2.14434e-06,0,-1.41418e-07,-1.13861e+09,-1.13828e+09,-1.13857e+09,-18900.5,0.0025051,0.0482041,0,0.0482691,17775.5,-41235.4,0,44903.5,18900.5
step02_gravity_refstate-mantle.xmf,583,-4.07742e-07,2.03415e-06,0,-3.18051e-07,-1.09864e+09,-1.09831e+09,-1.09859e+09,-42507.5,0.00465344,0.054596,0,0.054794,14293.4,-40000,0,42477.1,42507.5
step02_gravity_refstate-mantle.xmf,584,-3.90915e-07,2.13549e-06,0,-2.79282e-07,-1.13584e+09,-1.1355e+09,-1.13579e+09,-37326,0.00362038,0.0513463,0,0.0514738,14970.3,-41149.4,0,43787.9,37326
step02_gravity_refstate-mantle.xmf,585,-3.78316e-07,1.99009e-06,0,-3.82351e-07,-1.09864e+09,-1.09832e+09,-1.09859e+09,-51101.2,0.00517454,0.0563814,0,0.0566184,12992.6,-40000,0,42057.2,51101.2
step02_gravity_refstate-mantle.xmf,586,-3.80874e-07,2.11656e-06,0,-3.76584e-07,-1.14044e+09,-1.1401e+09,-1.14039e+09,-50330.5,0.00410309,0.0530269,0,0.0531854,13479,-41291.5,0,43435.8,50330.5
step02_gravity_refstate-mantle.xmf,587,4.08378e-07,1.24582e-06,0,-6.1803e-07,-1.09853e+09,-1.09842e+09,-1.09858e+09,-82599.7,0.00580846,0.0686829,0,0.0689281,6071.51,-40000,0,40458.2,82599.7
step02_gravity_refstate-mantle.xmf,588,-3.22715e-07,1.92428e-06,0,-4.45943e-07,-1.09863e+09,-1.09833e+09,-1.09859e+09,-59600.3,0.0056251,0.0582973,0,0.0585681,11740.6,-40000,0,41687.4,59600.3
step02_gravity_refstate-mantle.xmf,589,-3.43823e-07,2.03859e-06,0,-4.58308e-07,-1.1305e+09,-1.13018e+09,-1.13046e+09,-61252.9,0.00478239,0.0556053,0,0.0558106,12202.9,-40984.7,0,42762.8,61252.9
step02_gravity_refstate-mantle.xmf,590,2.72514e-07,2.24083e-06,0,7.80019e-08,-1.44232e+09,-1.44206e+09,-1.44236e+09,10424.9,-0.00179406,0.0226135,-0,0.0226846,33469.7,-50621.4,0,60685.7,10424.9
step02_gravity_refstate-mantle.xmf,591,3.58039e-07,2.34287e-06,0,4.75004e-08,-1.54617e+09,-1.54591e+09,-1.54622e+09,6348.42,-0.00174989,0.0152352,-0,0.0153354,35056.5,-53830.2,0,64238.9,6348.42
step02_gravity_refstate-mantle.xmf,592,4.00703e-07,2.43466e-06,0,3.13455e-08,-1.62331e+09,-1.62304e+09,-1.62337e+09,4189.32,-0.00185939,0.00954078,-0,0.00972028,35297.4,-56213.6,0,66376.7,4189.32
step02_gravity_refstate-mantle.xmf,593,4.18084e-07,2.52187e-06,0,1.21148e-08,-1.68848e+09,-1.6882e+09,-1.68853e+09,1619.15,-0.00145054,0.00454874,-0,0.00477443,36499.6,-58226.8,0,68721,1619.15
step02_gravity_refstate-mantle.xmf,594,4.2065e-07,2.60792e-06,0,-1.14796e-09,-1.74587e+09,-1.74558e+09,-1.74593e+09,-153.425,-0.000991716,-4.43443e-19,-0,0.000991716,37633.6,-60000,0,70825.7,153.425
step02_gravity_refstate-mantle.xmf,595,-7.80016e-07,3.77085e-06,0,2.78509e-07,-1.47286e+09,-1.47226e+09,-1.47276e+09,37222.7,0.00424766,0.0342372,0,0.0344997,-8390.52,-51561.7,-0,52239.9,37222.7
step02_gravity_refstate-mantle.xmf,596,-3.76522e-07,3.59928e-06,0,-1.10258e-07,-1.5048e+09,-1.50427e+09,-1.50475e+09,-14735.9,0.00716533,0.0272146,0,0.0281421,-9920.53,-52550.4,-0,53478.6,14735.9
step02_gravity_refstate-mantle.xmf,597,-5.83705e-07,3.70633e-06,0,5.77422e-08,-1.48876e+09,-1.48818e+09,-1.48868e+09,7717.24,0.00578287,0.0305839,0,0.0311258,-9135.99,-52053.8,-0,52849.5,7717.24
step02_gravity_refstate-mantle.xmf,598,1.85775e-07,3.33727e-06,0,-3.33657e-07,-1.57008e+09,-1.56966e+09,-1.57011e+09,-44593.3,0.0109821,0.0180825,0,0.0211562,-11508.3,-54570.1,-0,55770.4,44593.3
step02_gravity_refstate-mantle.xmf,599,4.97306e-07,3.18863e-06,0,-3.13714e-07,-1.62183e+09,-1.62147e+09,-1.62189e+09,-41927.9,0.0129248,0.0122619,0,0.0178159,-12328.4,-56170.2,-0,57507.2,41927.9
step02_gravity_refstate-mantle.xmf,600,7.30048e-07,3.07783e-06,0,-1.70989e-07,-1.68764e+09,-1.68732e+09,-1.68774e+09,-22852.7,0.0141398,0.00558307,0,0.0152022,-13180.3,-58204.4,-0,59678.1,22852.7
step02_gravity_refstate-mantle.xmf,601,-1.14081e-06,2.98766e-06,0,2.20788e-06,-1.41856e+09,-1.41801e+09,-1.41841e+09,295084,-0.00318184,0.0564487,-0,0.0565383,-4509.8,-49879.9,-0,50083.4,295084
step02_gravity_refstate-mantle.xmf,602,-1.0321e-06,3.91787e-06,0,6.92298e-07,-1.4688e+09,-1.46813e+09,-1.46866e+09,92525.6,0.00270631,0.0391081,0,0.0392016,-6989.49,-51434.7,-0,51907.5,92525.6
step02_gravity_refstate-mantle.xmf,603,-1.16271e-06,3.83969e-06,0,1.03359e-06,-1.45559e+09,-1.45493e+09,-1.45544e+09,138139,0.00108658,0.0432877,0,0.0433013,-6329.2,-51025.9,-0,51416.9,138139
step02_gravity_refstate-mantle.xmf,604,-1.23504e-06,3.66922e-06,0,1.41233e-06,-1.44308e+09,-1.44243e+09,-1.44292e+09,188758,-0.000473797,0.0476254,-0,0.0476277,-5690.05,-50638.5,-0,50957.2,188758
step02_gravity_refstate-mantle.xmf,605,-1.23371e-06,3.38842e-06,0,1.81e-06,-1.43062e+09,-1.43e+09,-1.43045e+09,241907,-0.00192547,0.0520464,-0,0.052082,-5086.81,-50252.7,-0,50509.5,241907
step02_gravity_refstate-mantle.xmf,606,-4.33751e-07,1.3233e-06,0,3.29982e-06,-1.40523e+09,-1.405e+09,-1.40517e+09,441021,-0.00497781,0.0679113,-0,0.0680935,-2884.68,-49468.6,-0,49552.6,441021
step02_gravity_refstate-mantle.xmf,607,1.51908e-07,3.35796e-07,0,3.49503e-06,-1.3958e+09,-1.39578e+09,-1.39582e+09,467111,-0.0051091,0.071637,-0,0.071819,-2390.08,-49178.8,-0,49236.8,467111
step02_gravity_refstate-mantle.xmf,608,9.22027e-07,-8.18397e-07,0,3.45125e-06,-1.38761e+09,-1.38784e+09,-1.38773e+09,461260,-0.00477092,0.0749148,-0,0.0750666,-1893.18,-48927.9,-0,48964.5,461260
step02_gravity_refstate-mantle.xmf,609,5.26404e-07,1.11172e-06,0,-9.12569e-07,-1.15162e+09,-1.15154e+09,-1.15169e+09,-121965,0.00455392,0.0691903,0,0.06934,4811.06,-41640.4,0,41917.4,121965
step02_gravity_refstate-mantle.xmf,610,1.7981e-06,-9.82069e-07,0,-1.8103e-08,-1.28803e+09,-1.28841e+09,-1.28827e+09,-2419.46,-1.38246e-09,0.0753297,-0,0.0753297,0,-45857.4,0,45857.4,2419.46
step02_gravity_refstate-mantle.xmf,611,7.84516e-07,7.26787e-07,0,-1.00495e-06,-1.19376e+09,-1.19377e+09,-1.19387e+09,-134311,0.00348199,0.0711183,0,0.0712035,3219.06,-42943,0,43063.5,134311
step02_gravity_refstate-mantle.xmf,612,1.77298e-06,-1.43305e-06,0,1.98151e-06,-1.34527e+09,-1.3457e+09,-1.34551e+09,264829,-0.00317157,0.0757096,-0,0.075776,-1385.68,-47624,-0,47644.2,264829
step02_gravity_refstate-mantle.xmf,613,2.06764e-06,-1.69789e-06,0,1.27823e-06,-1.33465e+09,-1.33515e+09,-1.33493e+09,170836,-0.00207732,0.0764651,-0,0.0764933,-913.69,-47297.4,-0,47306.2,170836
step02_gravity_refstate-mantle.xmf,614,2.1355e-06,-1.65805e-06,0,5.81747e-07,-1.32286e+09,-1.32337e+09,-1.32315e+09,77750.5,-0.000973053,0.076539,-0,0.0765452,-447.965,-46933.8,-0,46936,77750.5
step02_gravity_refstate-mantle.xmf,615,9.51806e-08,2.1681e-06,0,1.19513e-07,-1.31019e+09,-1.30991e+09,-1.3102e+09,15972.9,-0.00160534,0.0319637,-0,0.032004,28472.4,-46538.4,0,54557.3,15972.9
step02_gravity_refstate-mantle.xmf,616,3.68386e-08,2.16612e-06,0,1.17728e-07,-1.28165e+09,-1.28137e+09,-1.28166e+09,15734.3,-0.00135289,0.034129,-0,0.0341558,26938.5,-45656.5,0,53011.3,15734.3
step02_gravity_refstate-mantle.xmf,617,-2.82444e-08,2.16801e-06,0,1.0546e-07,-1.25401e+09,-1.25372e+09,-1.25401e+09,14094.8,-0.000973505,0.0363409,-0,0.0363539,25374.6,-44802.3,0,51489,14094.8
step02_gravity_refstate-mantle.xmf,618,-2.20497e-07,2.1784e-06,0,6.64474e-09,-1.18732e+09,-1.187e+09,-1.18729e+09,888.069,0.000656834,0.0425791,0,0.0425841,21042.1,-42741,0,47639.9,888.069
step02_gravity_refstate-mantle.xmf,619,-9.12917e-08,2.17379e-06,0,8.42027e-08,-1.23099e+09,-1.23069e+09,-1.23098e+09,11253.7,-0.000530827,0.0383448,-0,0.0383485,23892,-44090.7,0,50147.9,11253.7
step02_gravity_refstate-mantle.xmf,620,-1.56439e-07,2.17672e-06,0,5.09483e-08,-1.20806e+09,-1.20774e+09,-1.20804e+09,6809.24,2.49763e-05,0.0404573,0,0.0404573,22470.4,-43381.9,0,48856,6809.24
step02_gravity_refstate-mantle.xmf,621,-2.71049e-07,2.17366e-06,0,-3.77567e-08,-1.17049e+09,-1.17016e+09,-1.17045e+09,-5046.18,0.00124325,0.0444189,0,0.0444363,19898.8,-42220.6,0,46674.9,5046.18
step02_gravity_refstate-mantle.xmf,622,2.09951e-07,1.42034e-06,0,-6.20859e-07,-1.09856e+09,-1.0984e+09,-1.09858e+09,-82977.9,0.00613076,0.066651,0,0.0669323,7140.25,-40000,0,40632.3,82977.9
step02_gravity_refstate-mantle.xmf,623,2.46336e-07,1.41218e-06,0,-7.98844e-07,-1.12872e+09,-1.12856e+09,-1.12875e+09,-106766,0.00547837,0.0663634,0,0.0665892,6621.94,-40931.9,0,41464.1,106766
step02_gravity_refstate-mantle.xmf,624,-2.36612e-07,1.834e-06,0,-5.06812e-07,-1.09862e+09,-1.09834e+09,-1.09859e+09,-67735.5,0.00597423,0.0603193,0,0.0606145,10533.4,-40000,0,41363.7,67735.5
step02_gravity_refstate-mantle.xmf,625,-2.86996e-07,1.96532e-06,0,-5.38579e-07,-1.12885e+09,-1.12855e+09,-1.12881e+09,-71981.1,0.00517572,0.0575803,0,0.0578124,11086.5,-40933.7,0,42408.5,71981.1
step02_gravity_refstate-mantle.xmf,626,-3.63566e-07,2.15249e-06,0,-4.70653e-07,-1.16361e+09,-1.16328e+09,-1.16357e+09,-62902.7,0.00403298,0.0532387,0,0.0533913,12341.1,-42007.7,0,43783,62902.7
step02_gravity_refstate-mantle.xmf,627,1.38121e-07,2.17062e-06,0,1.13129e-07,-1.33334e+09,-1.33307e+09,-1.33336e+09,15119.8,-0.00169146,0.0302459,-0,0.0302932,29871.2,-47253.9,0,55903.6,15119.8
step02_gravity_refstate-mantle.xmf,628,2.34205e-07,2.22067e-06,0,1.00661e-07,-1.40839e+09,-1.40812e+09,-1.40842e+09,13453.4,-0.00202005,0.0250219,-0,0.0251033,31690.1,-49572.8,0,58836.5,13453.4
step02_gravity_refstate-mantle.xmf,629,3.33023e-07,2.30868e-06,0,7.10698e-08,-1.50956e+09,-1.50929e+09,-1.5096e+09,9498.48,-0.00216536,0.0178887,-0,0.0180193,33428.6,-52698.9,0,62407.1,9498.48
step02_gravity_refstate-mantle.xmf,630,-8.58142e-07,3.92629e-06,0,3.95808e-07,-1.48365e+09,-1.48301e+09,-1.48354e+09,52899.7,0.00437183,0.0350855,0,0.0353568,-7648.98,-51894.8,-0,52455.5,52899.7
step02_gravity_refstate-mantle.xmf,631,1.12604e-08,3.48273e-06,0,-2.89004e-07,-1.55259e+09,-1.55213e+09,-1.55259e+09,-38625.4,0.0101419,0.0208216,0,0.0231602,-10684.2,-54029,-0,55075.2,38625.4
step02_gravity_refstate-mantle.xmf,632,-1.93448e-07,3.63615e-06,0,-2.07277e-07,-1.53571e+09,-1.53519e+09,-1.53568e+09,-27702.6,0.00907279,0.0238042,0,0.0254746,-9891.78,-53506.5,-0,54413.1,27702.6
step02_gravity_refstate-mantle.xmf,633,3.61156e-07,3.33124e-06,0,-3.33997e-07,-1.60176e+09,-1.60137e+09,-1.60181e+09,-44638.6,0.0124858,0.0148428,0,0.0193959,-11475.9,-55550,-0,56723,44638.6
step02_gravity_refstate-mantle.xmf,634,6.09265e-07,3.21033e-06,0,-2.68878e-07,-1.64948e+09,-1.64913e+09,-1.64956e+09,-35935.6,0.013938,0.0096092,0,0.0169294,-12161.4,-57025.2,-0,58307.6,35935.6
step02_gravity_refstate-mantle.xmf,635,7.18698e-07,3.20151e-06,0,-1.93147e-07,-1.68146e+09,-1.68113e+09,-1.68155e+09,-25814.1,0.0147307,0.00642317,0,0.0160702,-12202.6,-58013.7,-0,59283.2,25814.1
step02_gravity_refstate-mantle.xmf,636,7.81454e-07,3.19225e-06,0,-1.02052e-07,-1.71351e+09,-1.71319e+09,-1.71362e+09,-13639.3,0.0150467,0.00320026,0,0.0153832,-12450.7,-59004.3,-0,60303.6,13639.3
step02_gravity_refstate-mantle.xmf,637,7.94431e-07,3.14407e-06,0,3.15602e-09,-1.74575e+09,-1.74543e+09,-1.74585e+09,421.802,0.0146634,-4.77283e-20,0,0.0146634,-13142.2,-60000,-0,61422.4,421.802
step02_gravity_refstate-mantle.xmf,638,1.83079e-06,-1.74652e-06,0,2.49724e-06,-1.36377e+09,-1.36425e+09,-1.36402e+09,333756,-0.00358379,0.0765515,-0,0.0766353,-1402.25,-48195.3,-0,48215.7,333756
step02_gravity_refstate-mantle.xmf,639,-8.49169e-07,2.14757e-06,0,2.97235e-06,-1.41618e+09,-1.41578e+09,-1.41606e+09,397254,-0.00440111,0.06373,-0,0.0638818,-3395.05,-49806.1,-0,49921.6,397254
step02_gravity_refstate-mantle.xmf,640,-1.11515e-06,2.81737e-06,0,2.56719e-06,-1.42848e+09,-1.42796e+09,-1.42833e+09,343104,-0.00340938,0.0591689,-0,0.0592671,-3926.08,-50186.1,-0,50339.4,343104
step02_gravity_refstate-mantle.xmf,641,1.78467e-06,-1.9253e-06,0,3.07039e-06,-1.38053e+09,-1.38102e+09,-1.38077e+09,410358,-0.00398136,0.077456,-0,0.0775582,-1412.56,-48712,-0,48732.5,410358
step02_gravity_refstate-mantle.xmf,642,5.03897e-07,1.09373e-06,0,-1.07259e-06,-1.17943e+09,-1.17935e+09,-1.17949e+09,-143352,0.00433196,0.0687388,0,0.0688752,4573.07,-42499.2,0,42744.5,143352
step02_gravity_refstate-mantle.xmf,643,3.47025e-07,1.29561e-06,0,-1.02117e-06,-1.16695e+09,-1.16683e+09,-1.167e+09,-136479,0.00476336,0.0671806,0,0.0673493,5490.67,-42113.4,0,42469.8,136479
step02_gravity_refstate-mantle.xmf,644,2.02369e-06,-1.40212e-06,0,1.99832e-08,-1.31013e+09,-1.31059e+09,-1.3104e+09,2670.76,-5.6371e-09,0.0761273,-0,0.0761273,0,-46540.5,0,46540.5,2670.76
step02_gravity_refstate-mantle.xmf,645,1.5561e-06,-5.24951e-07,0,-5.0871e-07,-1.26878e+09,-1.26906e+09,-1.26899e+09,-67989.1,0.00115649,0.074552,0,0.074561,727.775,-45262.2,0,45268.1,67989.1
step02_gravity_refstate-mantle.xmf,646,6.04789e-07,9.27654e-07,0,-1.14911e-06,-1.20057e+09,-1.20053e+09,-1.20065e+09,-153578,0.00398237,0.0695272,0,0.0696412,3908.55,-43152.6,0,43329.2,153578
step02_gravity_refstate-mantle.xmf,647,1.3419e-06,-1.87044e-07,0,-8.03708e-07,-1.25525e+09,-1.25545e+09,-1.25543e+09,-107416,0.00195392,0.0737049,0,0.0737308,1344.58,-44843.6,0,44863.7,107416
step02_gravity_refstate-mantle.xmf,648,7.39608e-07,7.24242e-07,0,-1.16095e-06,-1.21497e+09,-1.21497e+09,-1.21507e+09,-155161,0.00363397,0.0704861,0,0.0705797,3296.85,-43597.7,0,43722.2,155161
step02_gravity_refstate-mantle.xmf,649,1.12153e-06,1.53774e-07,0,-9.93452e-07,-1.24099e+09,-1.24112e+09,-1.24114e+09,-132775,0.00261649,0.0727052,0,0.0727523,1981.43,-44402.7,0,44446.9,132775
step02_gravity_refstate-mantle.xmf,650,9.17105e-07,4.62115e-07,0,-1.10797e-06,-1.22754e+09,-1.2276e+09,-1.22766e+09,-148080,0.0031764,0.0716085,0,0.0716789,2640.64,-43986.4,0,44065.6,148080
step02_gravity_refstate-mantle.xmf,651,-3.74715e-07,2.21471e-06,0,-2.25025e-07,-1.16568e+09,-1.16533e+09,-1.16563e+09,-30074.6,0.002735,0.0485509,0,0.0486279,15635.3,-42071.4,0,44882.8,30074.6
step02_gravity_refstate-mantle.xmf,652,-2.98444e-07,2.21652e-06,0,-7.00587e-08,-1.18023e+09,-1.1799e+09,-1.18019e+09,-9363.35,0.00143253,0.0447269,0,0.0447498,18573.1,-42521.7,0,46401,9363.35
step02_gravity_refstate-mantle.xmf,653,-3.41746e-07,2.23619e-06,0,-1.42536e-07,-1.1787e+09,-1.17835e+09,-1.17865e+09,-19050,0.00198628,0.0462687,0,0.0463113,16943.6,-42474,0,45728.8,19050
step02_gravity_refstate-mantle.xmf,654,-3.81332e-07,2.25022e-06,0,-2.964e-07,-1.17943e+09,-1.17908e+09,-1.17938e+09,-39613.8,0.002888,0.0490789,0,0.0491638,14433.2,-42496.2,0,44880.4,39613.8
step02_gravity_refstate-mantle.xmf,655,3.37849e-08,1.57923e-06,0,-5.99963e-07,-1.09858e+09,-1.09838e+09,-1.09859e+09,-80185,0.00625287,0.0645421,0,0.0648443,8237.32,-40000,0,40839.4,80185
step02_gravity_refstate-mantle.xmf,656,7.50606e-08,1.58409e-06,0,-7.63458e-07,-1.12874e+09,-1.12854e+09,-1.12875e+09,-102036,0.00563888,0.0642198,0,0.0644669,7658.36,-40932,0,41642.3,102036
step02_gravity_refstate-mantle.xmf,657,2.45794e-07,1.41086e-06,0,-9.45778e-07,-1.1538e+09,-1.15364e+09,-1.15383e+09,-126403,0.00507861,0.0661321,0,0.0663269,6215.97,-41706.5,0,42167.2,126403
step02_gravity_refstate-mantle.xmf,658,-1.17555e-07,1.71871e-06,0,-5.59533e-07,-1.0986e+09,-1.09836e+09,-1.09859e+09,-74781.5,0.0061931,0.0624149,0,0.0627214,9366.97,-40000,0,41082.1,74781.5
step02_gravity_refstate-mantle.xmf,659,-9.10811e-08,1.75358e-06,0,-7.19939e-07,-1.13297e+09,-1.13272e+09,-1.13296e+09,-96219.8,0.0055509,0.0616483,0,0.0618977,8809.3,-41061.9,0,41996.2,96219.8
step02_gravity_refstate-mantle.xmf,660,-2.04106e-07,1.8745e-06,0,-6.22072e-07,-1.12936e+09,-1.12908e+09,-1.12933e+09,-83139.9,0.0054412,0.0595508,0,0.0597989,9986.89,-40949.8,0,42150,83139.9
step02_gravity_refstate-mantle.xmf,661,-3.31345e-07,2.07821e-06,0,-5.38348e-07,-1.15405e+09,-1.15373e+09,-1.154e+09,-71950.2,0.00452443,0.0552693,0,0.0554542,11508.5,-41712.2,0,43270.7,71950.2
step02_gravity_refstate-mantle.xmf,662,-3.84016e-07,2.22894e-06,0,-3.95327e-07,-1.17791e+09,-1.17756e+09,-1.17786e+09,-52835.5,0.00338848,0.0508834,0,0.0509961,13225.9,-42449.4,0,44462,52835.5
step02_gravity_refstate-mantle.xmf,663,1.98197e-07,2.2142e-06,0,1.19376e-07,-1.38337e+09,-1.3831e+09,-1.38339e+09,15954.6,-0.00216055,0.026842,-0,0.0269288,30037.5,-48799.7,0,57303.2,15954.6
step02_gravity_refstate-mantle.xmf,664,1.58062e-07,2.21533e-06,0,1.33716e-07,-1.36093e+09,-1.36066e+09,-1.36095e+09,17871.2,-0.00220643,0.0285314,-0,0.0286166,28436.9,-48106.4,0,55882.8,17871.2
step02_gravity_refstate-mantle.xmf,665,3.03532e-07,2.28402e-06,0,9.63228e-08,-1.47548e+09,-1.47522e+09,-1.47552e+09,12873.5,-0.00251083,0.0203512,-0,0.0205055,31714.1,-51646,0,60606,12873.5
step02_gravity_refstate-mantle.xmf,666,3.83367e-07,2.38257e-06,0,5.76012e-08,-1.57686e+09,-1.5766e+09,-1.57691e+09,7698.4,-0.0024959,0.0130119,-0,0.0132491,33338.7,-54778.5,0,64126,7698.4
step02_gravity_refstate-mantle.xmf,667,4.28167e-07,2.52611e-06,0,1.8744e-08,-1.68978e+09,-1.6895e+09,-1.68984e+09,2505.13,-0.00239136,0.00445061,-0,0.00505238,34279.8,-58267.1,0,67603,2505.13
step02_gravity_refstate-mantle.xmf,668,4.28765e-07,2.60917e-06,0,-1.0255e-09,-1.74587e+09,-1.74558e+09,-1.74593e+09,-137.058,-0.00194835,-4.33793e-19,-0,0.00194835,35381,-60000,0,69655,137.058
step02_gravity_refstate-mantle.xmf,669,-6.42571e-07,3.91243e-06,0,1.38994e-07,-1.50506e+09,-1.50445e+09,-1.50497e+09,18576.6,0.00635037,0.0307612,0,0.0314099,-8257.38,-52557.4,-0,53202.2,18576.6
step02_gravity_refstate-mantle.xmf,670,-4.15133e-07,3.77528e-06,0,-6.86993e-08,-1.51877e+09,-1.51821e+09,-1.51872e+09,-9181.67,0.00774515,0.0271614,0,0.0282441,-9112.2,-52982.2,-0,53760.1,9181.67
step02_gravity_refstate-mantle.xmf,671,1.95277e-07,3.49177e-06,0,-3.20676e-07,-1.58334e+09,-1.5829e+09,-1.58336e+09,-42858.3,0.0118264,0.0175513,0,0.0211639,-10642,-54980,-0,56000.5,42858.3
step02_gravity_refstate-mantle.xmf,672,5.154e-07,3.32843e-06,0,-3.03679e-07,-1.63227e+09,-1.63189e+09,-1.63233e+09,-40586.7,0.013762,0.0117275,0,0.0180812,-11439.6,-56493.1,-0,57639.7,40586.7
step02_gravity_refstate-mantle.xmf,673,-9.343e-07,4.08203e-06,0,5.46999e-07,-1.49342e+09,-1.49275e+09,-1.49329e+09,73106.4,0.00447071,0.0361743,0,0.0364495,-6958.06,-52196.4,-0,52658.1,73106.4
step02_gravity_refstate-mantle.xmf,674,-1.25002e-06,3.32118e-06,0,2.13121e-06,-1.44013e+09,-1.43952e+09,-1.43996e+09,284836,-0.00215217,0.0544812,-0,0.0545237,-4487.36,-50546.2,-0,50745,284836
step02_gravity_refstate-mantle.xmf,675,-1.10138e-06,4.05737e-06,0,8.78818e-07,-1.48039e+09,-1.4797e+09,-1.48024e+09,117454,0.00281695,0.0403543,0,0.0404525,-6306.65,-51792.7,-0,52175.3,117454
step02_gravity_refstate-mantle.xmf,676,-1.22817e-06,3.93051e-06,0,1.27851e-06,-1.46679e+09,-1.4661e+09,-1.46663e+09,170873,0.00104416,0.0450474,0,0.0450595,-5647.15,-51371.6,-0,51681.1,170873
step02_gravity_refstate-mantle.xmf,677,-1.27596e-06,3.67407e-06,0,1.70929e-06,-1.45274e+09,-1.45208e+09,-1.45257e+09,228446,-0.000674415,0.0498394,-0,0.049844,-5048.27,-50936.4,-0,51186,228446
step02_gravity_refstate-mantle.xmf,678,-6.78672e-07,1.74144e-06,0,3.42463e-06,-1.42342e+09,-1.42309e+09,-1.42333e+09,457702,-0.00458485,0.0672603,-0,0.0674164,-2858.91,-50029.8,-0,50111.4,457702
step02_gravity_refstate-mantle.xmf,679,-1.90448e-07,7.13525e-07,0,3.74519e-06,-1.41417e+09,-1.41405e+09,-1.41415e+09,500544,-0.00500613,0.071387,-0,0.0715623,-2383.83,-49744.8,-0,49801.9,500544
step02_gravity_refstate-mantle.xmf,680,5.62956e-07,-5.61464e-07,0,3.91166e-06,-1.40492e+09,-1.40507e+09,-1.405e+09,522793,-0.00496863,0.0752174,-0,0.0753813,-1902.76,-49460.9,-0,49497.5,522793
step02_gravity_refstate-mantle.xmf,681,1.54405e-06,-1.98671e-06,0,3.71093e-06,-1.39679e+09,-1.39726e+09,-1.397e+09,495965,-0.00438697,0.0782604,-0,0.0783833,-1443.82,-49212.7,-0,49233.8,495965
step02_gravity_refstate-mantle.xmf,682,1.91191e-06,-1.23708e-06,0,-4.39742e-07,-1.3043e+09,-1.30472e+09,-1.30456e+09,-58771.5,0.000842435,0.0757238,0,0.0757284,435.017,-46360.1,0,46362.1,58771.5
step02_gravity_refstate-mantle.xmf,683,2.31523e-06,-2.27366e-06,0,1.69656e-06,-1.35573e+09,-1.35634e+09,-1.35604e+09,226745,-0.00241743,0.0777431,-0,0.0777807,-920.066,-47948.6,-0,47957.5,226745
step02_gravity_refstate-mantle.xmf,684,2.44822e-06,-2.27838e-06,0,7.69954e-07,-1.34331e+09,-1.34394e+09,-1.34364e+09,102904,-0.00113385,0.0777768,-0,0.0777851,-453.086,-47565.9,-0,47568.1,102904
step02_gravity_refstate-mantle.xmf,685,2.33281e-06,-1.98556e-06,0,2.89286e-08,-1.33116e+09,-1.33174e+09,-1.33147e+09,3866.31,-6.2842e-09,0.0772282,-0,0.0772282,0,-47190.6,0,47190.6,3866.31
step02_gravity_refstate-mantle.xmf,686,2.14598e-06,-1.6552e-06,0,-5.44979e-07,-1.32279e+09,-1.3233e+09,-1.32308e+09,-72836.4,0.000975914,0.0765341,0,0.0765403,449.494,-46931.7,0,46933.9,72836.4
step02_gravity_refstate-mantle.xmf,687,1.06221e-07,2.21755e-06,0,1.40533e-07,-1.33506e+09,-1.33477e+09,-1.33507e+09,18782.3,-0.00207837,0.0305149,-0,0.0305856,26921.3,-47306.8,0,54430.6,18782.3
step02_gravity_refstate-mantle.xmf,688,4.45499e-08,2.2228e-06,0,1.37604e-07,-1.30804e+09,-1.30775e+09,-1.30805e+09,18390.8,-0.0017969,0.0326631,-0,0.0327125,25422.7,-46472,0,52971.3,18390.8
step02_gravity_refstate-mantle.xmf,689,-2.15373e-08,2.23138e-06,0,1.23767e-07,-1.28268e+09,-1.28238e+09,-1.28268e+09,16541.5,-0.00139885,0.0348013,-0,0.0348294,23966.9,-45688.2,0,51592.8,16541.5
step02_gravity_refstate-mantle.xmf,690,-2.30255e-07,2.24024e-06,0,2.23201e-09,-1.20937e+09,-1.20904e+09,-1.20934e+09,298.308,0.000500153,0.0417835,0,0.0417865,19873.8,-43422.2,0,47754.1,298.308
step02_gravity_refstate-mantle.xmf,691,-1.63221e-07,2.24432e-06,0,5.57359e-08,-1.23326e+09,-1.23294e+09,-1.23324e+09,7449.1,-0.000229693,0.0393711,-0,0.0393718,21167.8,-44160.7,0,48971.8,7449.1
step02_gravity_refstate-mantle.xmf,692,-9.16227e-08,2.23904e-06,0,9.67651e-08,-1.25756e+09,-1.25725e+09,-1.25754e+09,12932.7,-0.000870647,0.0370399,-0,0.0370502,22563.4,-44911.6,0,50260.9,12932.7
step02_gravity_refstate-mantle.xmf,693,7.56543e-08,1.60265e-06,0,-9.41253e-07,-1.16043e+09,-1.16023e+09,-1.16044e+09,-125798,0.00515422,0.0638304,0,0.0640382,7114,-41910.8,0,42510.3,125798
step02_gravity_refstate-mantle.xmf,694,1.49075e-07,1.51536e-06,0,-1.08162e-06,-1.18124e+09,-1.18106e+09,-1.18126e+09,-144559,0.00486924,0.0647799,0,0.0649626,6265.25,-42554,0,43012.8,144559
step02_gravity_refstate-mantle.xmf,695,-2.86622e-07,2.04124e-06,0,-6.3765e-07,-1.16167e+09,-1.16136e+09,-1.16163e+09,-85221.9,0.00466992,0.0565213,0,0.0567138,10554.1,-41947.9,0,43255.2,85221.9
step02_gravity_refstate-mantle.xmf,696,-3.58883e-07,2.18379e-06,0,-5.65908e-07,-1.18209e+09,-1.18175e+09,-1.18204e+09,-75633.7,0.00396394,0.0535023,0,0.0536489,11464,-42578.3,0,44094.7,75633.7
step02_gravity_refstate-mantle.xmf,697,-3.92582e-07,2.27812e-06,0,-4.66858e-07,-1.19629e+09,-1.19593e+09,-1.19624e+09,-62395.6,0.00329382,0.050861,0,0.0509675,12427.6,-43017.2,0,44776.3,62395.6
step02_gravity_refstate-mantle.xmf,698,2.68326e-07,2.269e-06,0,1.20387e-07,-1.44413e+09,-1.44386e+09,-1.44416e+09,16089.7,-0.00273958,0.0226331,-0,0.0227983,30037.3,-50677.2,0,58910.3,16089.7
step02_gravity_refstate-mantle.xmf,699,3.6153e-07,2.34821e-06,0,8.43429e-08,-1.53904e+09,-1.53878e+09,-1.53909e+09,11272.4,-0.00293852,0.0158037,-0,0.0160746,31663.9,-53610,0,62262.6,11272.4
step02_gravity_refstate-mantle.xmf,700,4.19458e-07,2.46063e-06,0,4.10197e-08,-1.63994e+09,-1.63966e+09,-1.63999e+09,5482.28,-0.00284393,0.00829539,-0,0.00876935,32993.4,-56727.3,0,65624.3,5482.28
step02_gravity_refstate-mantle.xmf,701,-7.68954e-07,4.0644e-06,0,3.14247e-07,-1.50623e+09,-1.50559e+09,-1.50613e+09,41999.2,0.00589724,0.0327955,0,0.0333215,-7486.93,-52593.3,-0,53123.6,41999.2
step02_gravity_refstate-mantle.xmf,702,1.33898e-08,3.65285e-06,0,-2.66319e-07,-1.56681e+09,-1.56633e+09,-1.56682e+09,-35593.6,0.0109788,0.020354,0,0.0231262,-9852.26,-54468.8,-0,55352.7,35593.6
step02_gravity_refstate-mantle.xmf,703,-1.99141e-07,3.81793e-06,0,-1.71606e-07,-1.55069e+09,-1.55016e+09,-1.55067e+09,-22935.2,0.00988794,0.0234226,0,0.0254242,-9106.4,-53969.9,-0,54732.7,22935.2
step02_gravity_refstate-mantle.xmf,704,3.76136e-07,3.48946e-06,0,-3.15705e-07,-1.61372e+09,-1.6133e+09,-1.61377e+09,-42194,0.0133496,0.014295,0,0.0195592,-10617.3,-55919.7,-0,56918.7,42194
step02_gravity_refstate-mantle.xmf,705,6.4675e-07,3.33546e-06,0,-2.4365e-07,-1.66316e+09,-1.6628e+09,-1.66324e+09,-32563.8,0.0148321,0.00857388,0,0.0171319,-11386,-57448.3,-0,58565.7,32563.8
step02_gravity_refstate-mantle.xmf,706,7.53096e-07,3.33048e-06,0,-1.58003e-07,-1.69587e+09,-1.69553e+09,-1.69597e+09,-21117.1,0.0155887,0.00518614,0,0.0164287,-11417.7,-58459.5,-0,59564.1,21117.1
step02_gravity_refstate-mantle.xmf,707,8.06631e-07,3.28759e-06,0,1.37303e-09,-1.74573e+09,-1.7454e+09,-1.74584e+09,183.505,0.0155275,-3.44782e-20,0,0.0155275,-12062.5,-60000,-0,61200.5,183.505
step02_gravity_refstate-mantle.xmf,708,2.64765e-06,-3.1592e-06,0,2.12908e-06,-1.37526e+09,-1.37604e+09,-1.37562e+09,284551,-0.00264543,0.0795237,-0,0.0795676,-863.777,-48552,-0,48559.7,284551
step02_gravity_refstate-mantle.xmf,709,-1.00426e-06,2.51158e-06,0,3.02354e-06,-1.43687e+09,-1.4364e+09,-1.43674e+09,404097,-0.00363337,0.0626012,-0,0.0627066,-3345.28,-50445.2,-0,50556,404097
step02_gravity_refstate-mantle.xmf,710,-1.21351e-06,3.20095e-06,0,2.54322e-06,-1.4516e+09,-1.45101e+09,-1.45143e+09,339902,-0.00222124,0.0573677,-0,0.0574107,-3875.27,-50900.4,-0,51047.7,339902
step02_gravity_refstate-mantle.xmf,711,2.44247e-06,-3.07624e-06,0,3.04013e-06,-1.38926e+09,-1.38999e+09,-1.38958e+09,406314,-0.00343652,0.0800369,-0,0.0801106,-1051.57,-48983.1,-0,48994.4,406314
step02_gravity_refstate-mantle.xmf,712,2.50182e-07,1.37846e-06,0,-1.18228e-06,-1.19641e+09,-1.19626e+09,-1.19644e+09,-158011,0.00464196,0.0660004,0,0.0661634,5475.37,-43022.9,0,43369.9,158011
step02_gravity_refstate-mantle.xmf,713,1.71721e-06,-9.02922e-07,0,-6.90076e-07,-1.29174e+09,-1.29209e+09,-1.29197e+09,-92228.7,0.00137518,0.0750021,0,0.0750147,774.03,-45971.7,0,45978.2,92228.7
step02_gravity_refstate-mantle.xmf,714,1.44344e-06,-4.34061e-07,0,-1.00391e-06,-1.27894e+09,-1.27919e+09,-1.27913e+09,-134172,0.00220966,0.0738805,0,0.0739135,1378.27,-45575.6,0,45596.4,134172
step02_gravity_refstate-mantle.xmf,715,3.7358e-07,1.19596e-06,0,-1.27285e-06,-1.21136e+09,-1.21125e+09,-1.21141e+09,-170116,0.0043961,0.0673032,0,0.0674466,4704.58,-43485.1,0,43738.8,170116
step02_gravity_refstate-mantle.xmf,716,5.10423e-07,9.84248e-07,0,-1.33601e-06,-1.22635e+09,-1.22629e+09,-1.22642e+09,-178557,0.00414275,0.0685186,0,0.0686437,4013.92,-43948.4,0,44131.3,178557
step02_gravity_refstate-mantle.xmf,717,1.16276e-06,-6.45338e-09,0,-1.21113e-06,-1.26586e+09,-1.26601e+09,-1.26601e+09,-161867,0.00288172,0.0725981,0,0.0726553,2007.84,-45170.6,0,45215.2,161867
step02_gravity_refstate-mantle.xmf,718,6.84419e-07,7.18847e-07,0,-1.3558e-06,-1.23956e+09,-1.23956e+09,-1.23965e+09,-181203,0.00383279,0.0698261,0,0.0699313,3345.73,-44357,0,44483,181203
step02_gravity_refstate-mantle.xmf,719,9.04617e-07,3.84819e-07,0,-1.3202e-06,-1.2526e+09,-1.25266e+09,-1.25272e+09,-176445,0.00341699,0.0712219,0,0.0713038,2668.05,-44760.2,0,44839.7,176445
step02_gravity_refstate-mantle.xmf,720,1.87294e-06,-1.26561e-06,0,-9.73504e-07,-1.31365e+09,-1.31407e+09,-1.3139e+09,-130109,0.00176994,0.0755638,0,0.0755845,886.099,-46648.4,0,46656.8,130109
step02_gravity_refstate-mantle.xmf,721,-3.60383e-07,2.31069e-06,0,-1.90647e-07,-1.20263e+09,-1.20227e+09,-1.20258e+09,-25480,0.00189134,0.0459096,0,0.0459486,15686,-43213.1,0,45972,25480
step02_gravity_refstate-mantle.xmf,722,-2.47401e-07,2.29923e-06,0,-1.27482e-08,-1.22663e+09,-1.22629e+09,-1.2266e+09,-1703.79,0.000404473,0.041355,0,0.041357,18748.5,-43955.4,0,47786.9,1703.79
step02_gravity_refstate-mantle.xmf,723,-2.95573e-07,2.29148e-06,0,-7.17221e-08,-1.20995e+09,-1.20961e+09,-1.20991e+09,-9585.66,0.00104816,0.0433451,0,0.0433578,17743.3,-43439.8,0,46923.8,9585.66
step02_gravity_refstate-mantle.xmf,724,-3.9909e-07,2.34492e-06,0,-3.5776e-07,-1.20989e+09,-1.20952e+09,-1.20983e+09,-47814.6,0.00256544,0.0482585,0,0.0483267,13471.6,-43437.2,0,45478.3,47814.6
step02_gravity_refstate-mantle.xmf,725,-4.51417e-08,1.73496e-06,0,-8.47506e-07,-1.15416e+09,-1.15392e+09,-1.15416e+09,-113269,0.00525162,0.0620613,0,0.0622831,8064.23,-41716.7,0,42489,113269
step02_gravity_refstate-mantle.xmf,726,-2.0527e-07,1.92489e-06,0,-7.19873e-07,-1.15478e+09,-1.1545e+09,-1.15476e+09,-96211.1,0.00504672,0.0588849,0,0.0591008,9563.76,-41735.4,0,42817.1,96211.1
step02_gravity_refstate-mantle.xmf,727,2.27189e-07,2.26322e-06,0,1.40665e-07,-1.41552e+09,-1.41525e+09,-1.41556e+09,18799.8,-0.00284567,0.0247546,-0,0.0249176,28428.5,-49793.4,0,57337.2,18799.8
step02_gravity_refstate-mantle.xmf,728,1.78108e-07,2.26473e-06,0,1.55076e-07,-1.38812e+09,-1.38784e+09,-1.38814e+09,20725.9,-0.00281484,0.0268447,-0,0.0269919,26890.3,-48946.5,0,55846.7,20725.9
step02_gravity_refstate-mantle.xmf,729,3.34833e-07,2.32682e-06,0,1.11955e-07,-1.50603e+09,-1.50576e+09,-1.50607e+09,14962.7,-0.00329267,0.0182399,-0,0.0185347,29991.6,-52590,0,60540.9,14962.7
step02_gravity_refstate-mantle.xmf,730,4.08026e-07,2.41822e-06,0,6.52523e-08,-1.60157e+09,-1.6013e+09,-1.60162e+09,8720.97,-0.00331101,0.011202,-0,0.0116811,31540.2,-55541.8,0,63872.4,8720.97
step02_gravity_refstate-mantle.xmf,731,4.43194e-07,2.53662e-06,0,2.36105e-08,-1.69443e+09,-1.69415e+09,-1.69449e+09,3155.54,-0.00329699,0.00409246,-0,0.00525532,32215.8,-58410.9,0,66706,3155.54
step02_gravity_refstate-mantle.xmf,732,4.41314e-07,2.61193e-06,0,-9.00833e-10,-1.74587e+09,-1.74558e+09,-1.74593e+09,-120.396,-0.00288122,-3.98722e-19,-0,0.00288122,33236.8,-60000,0,68590.7,120.396
step02_gravity_refstate-mantle.xmf,733,-4.18932e-07,3.95698e-06,0,-2.46497e-08,-1.53492e+09,-1.53434e+09,-1.53487e+09,-3294.43,0.00857937,0.0267527,0,0.0280947,-8409.22,-53481.7,-0,54138.7,3294.43
step02_gravity_refstate-mantle.xmf,734,-5.82973e-07,4.13313e-06,0,1.55016e-07,-1.53071e+09,-1.53008e+09,-1.53063e+09,20717.9,0.00787176,0.0292974,0,0.0303365,-7619.58,-53350.8,-0,53892.2,20717.9
step02_gravity_refstate-mantle.xmf,735,-7.92116e-07,4.23307e-06,0,4.10337e-07,-1.51862e+09,-1.51794e+09,-1.51851e+09,54841.6,0.0064408,0.0330115,0,0.0336339,-6935.44,-52976.1,-0,53428.1,54841.6
step02_gravity_refstate-mantle.xmf,736,2.08605e-07,3.6673e-06,0,-2.9223e-07,-1.59685e+09,-1.59639e+09,-1.59688e+09,-39056.5,0.0127243,0.0169864,0,0.0212237,-9824.68,-55398.1,-0,56262.5,39056.5
step02_gravity_refstate-mantle.xmf,737,5.33083e-07,3.49243e-06,0,-2.81624e-07,-1.64347e+09,-1.64307e+09,-1.64354e+09,-37639.1,0.0146433,0.0111123,0,0.0183823,-10579.8,-56839.8,-0,57816,37639.1
step02_gravity_refstate-mantle.xmf,738,7.97022e-07,3.34829e-06,0,-7.53e-08,-1.72358e+09,-1.72324e+09,-1.72368e+09,-10063.8,0.0158916,0.00230471,0,0.0160579,-11498.9,-59315.7,-0,60420,10063.8
step02_gravity_refstate-mantle.xmf,739,-9.90761e-07,4.26079e-06,0,7.33607e-07,-1.50523e+09,-1.50453e+09,-1.5051e+09,98046.6,0.00476225,0.0372491,0,0.0375523,-6284.52,-52561.4,-0,52935.8,98046.6
step02_gravity_refstate-mantle.xmf,740,-1.28335e-06,3.61843e-06,0,2.05871e-06,-1.45875e+09,-1.4581e+09,-1.45858e+09,275147,-0.000987825,0.0524741,-0,0.0524834,-4489.11,-51122,-0,51318.8,275147
step02_gravity_refstate-mantle.xmf,741,-1.15774e-06,4.19947e-06,0,1.13877e-06,-1.4918e+09,-1.49108e+09,-1.49164e+09,152196,0.002942,0.0420256,0,0.0421284,-5622.07,-52145.1,-0,52447.3,152196
step02_gravity_refstate-mantle.xmf,742,-1.27183e-06,3.98502e-06,0,1.67228e-06,-1.47699e+09,-1.47629e+09,-1.47682e+09,223500,0.000864639,0.0478671,0,0.0478749,-4891.08,-51686.6,-0,51917.5,223500
step02_gravity_refstate-mantle.xmf,743,-8.16518e-07,2.05567e-06,0,3.4541e-06,-1.43865e+09,-1.43827e+09,-1.43854e+09,461640,-0.00397052,0.0662278,-0,0.0663467,-2877.84,-50500.3,-0,50582.2,461640
step02_gravity_refstate-mantle.xmf,744,-4.55899e-07,1.27489e-06,0,3.92148e-06,-1.43367e+09,-1.43344e+09,-1.43361e+09,524106,-0.00449457,0.070851,-0,0.0709934,-2379.86,-50347,-0,50403.2,524106
step02_gravity_refstate-mantle.xmf,745,1.7645e-07,-1.50032e-07,0,4.24528e-06,-1.42243e+09,-1.42248e+09,-1.42246e+09,567381,-0.00487578,0.0754194,-0,0.0755769,-1901.62,-50000.2,-0,50036.4,567381
step02_gravity_refstate-mantle.xmf,746,1.15847e-06,-1.8564e-06,0,4.37925e-06,-1.41384e+09,-1.41424e+09,-1.41399e+09,585287,-0.00461646,0.0792697,-0,0.079404,-1444.41,-49737,-0,49758,585287
step02_gravity_refstate-mantle.xmf,747,2.58979e-06,-3.69233e-06,0,3.73295e-06,-1.40381e+09,-1.40465e+09,-1.40416e+09,498908,-0.00363948,0.0818785,-0,0.0819593,-998.057,-49432.2,-0,49442.2,498908
step02_gravity_refstate-mantle.xmf,748,4.2913e-08,1.6341e-06,0,-1.2113e-06,-1.20995e+09,-1.20974e+09,-1.20996e+09,-161890,0.00470808,0.0634015,0,0.063576,6258.17,-43440.5,0,43888.9,161890
step02_gravity_refstate-mantle.xmf,749,2.85598e-06,-3.08166e-06,0,1.00572e-06,-1.36324e+09,-1.36403e+09,-1.36362e+09,134415,-0.00127897,0.079452,-0,0.0794622,-437.529,-48182.3,-0,48184.2,134415
step02_gravity_refstate-mantle.xmf,750,2.71462e-06,-2.71726e-06,0,3.93942e-08,-1.35117e+09,-1.3519e+09,-1.35153e+09,5265.03,3.11888e-08,0.0786821,0,0.0786821,0,-47809.3,0,47809.3,5265.03
step02_gravity_refstate-mantle.xmf,751,2.46073e-06,-2.26812e-06,0,-7.21025e-07,-1.34303e+09,-1.34366e+09,-1.34336e+09,-96365,0.00114937,0.0777485,0,0.077757,460.301,-47557.3,0,47559.5,96365
step02_gravity_refstate-mantle.xmf,752,2.09279e-06,-1.69291e-06,0,-1.24827e-06,-1.33452e+09,-1.33502e+09,-1.3348e+09,-166832,0.00207941,0.0764546,0,0.0764829,915.549,-47293.4,0,47302.3,166832
step02_gravity_refstate-mantle.xmf,753,1.19689e-07,2.27184e-06,0,1.61185e-07,-1.36089e+09,-1.36061e+09,-1.36091e+09,21542.4,-0.00263393,0.0289954,-0,0.0291147,25410.5,-48105.2,0,54404.1,21542.4
step02_gravity_refstate-mantle.xmf,754,-3.80583e-07,2.38636e-06,0,-2.48946e-07,-1.2238e+09,-1.22343e+09,-1.22375e+09,-33271.7,0.00179989,0.045725,0,0.0457604,14567.9,-43867.3,0,46223,33271.7
step02_gravity_refstate-mantle.xmf,755,5.44293e-08,2.28413e-06,0,1.56872e-07,-1.33501e+09,-1.33472e+09,-1.33502e+09,20965.9,-0.0023223,0.0311469,-0,0.0312333,23978,-47305.3,0,53035.2,20965.9
step02_gravity_refstate-mantle.xmf,756,-3.196e-07,2.34258e-06,0,-1.06313e-07,-1.22273e+09,-1.22238e+09,-1.22269e+09,-14208.7,0.00106486,0.04336,0,0.0433731,16732.6,-43834.6,0,46919.6,14208.7
step02_gravity_refstate-mantle.xmf,757,-1.772e-08,2.29718e-06,0,1.39138e-07,-1.30897e+09,-1.30866e+09,-1.30897e+09,18595.9,-0.0018588,0.0334158,-0,0.0334675,22616.9,-46500.4,0,51708.9,18595.9
step02_gravity_refstate-mantle.xmf,758,-1.76167e-07,2.3221e-06,0,5.35291e-08,-1.25871e+09,-1.25837e+09,-1.25868e+09,7154.16,-0.000535162,0.0383369,-0,0.0383406,19825.2,-44946.7,0,49124.8,7154.16
step02_gravity_refstate-mantle.xmf,759,-9.52906e-08,2.30966e-06,0,1.05923e-07,-1.28304e+09,-1.28272e+09,-1.28303e+09,14156.6,-0.00125548,0.0358203,-0,0.0358423,21264.8,-45699,0,50404.3,14156.6
step02_gravity_refstate-mantle.xmf,760,-2.65709e-07,2.36443e-06,0,-3.18428e-08,-1.2447e+09,-1.24435e+09,-1.24467e+09,-4255.8,0.000254707,0.0408736,0,0.0408744,17710,-44513.7,0,47907.3,4255.8
step02_gravity_refstate-mantle.xmf,761,-1.63123e-07,1.88584e-06,0,-8.2748e-07,-1.16678e+09,-1.16651e+09,-1.16676e+09,-110593,0.00498664,0.0597759,0,0.0599835,8796.07,-42106.2,0,43015.1,110593
step02_gravity_refstate-mantle.xmf,762,-1.10218e-07,1.83494e-06,0,-9.56771e-07,-1.18188e+09,-1.18162e+09,-1.18186e+09,-127872,0.00488824,0.0608037,0,0.0609999,7943.41,-42572.7,0,43307.4,127872
step02_gravity_refstate-mantle.xmf,763,-3.45821e-08,1.74324e-06,0,-1.08558e-06,-1.19514e+09,-1.1949e+09,-1.19513e+09,-145088,0.00481067,0.0621609,0,0.0623468,7061.7,-42982.6,0,43558.8,145088
step02_gravity_refstate-mantle.xmf,764,-2.73427e-07,2.05872e-06,0,-7.65861e-07,-1.18314e+09,-1.18283e+09,-1.1831e+09,-102357,0.00452567,0.0569179,0,0.0570975,9672.45,-42611.1,0,43695.1,102357
step02_gravity_refstate-mantle.xmf,765,-3.57985e-07,2.20783e-06,0,-6.72386e-07,-1.19873e+09,-1.19839e+09,-1.19868e+09,-89864.4,0.00393901,0.053985,0,0.0541285,10608.2,-43092.6,0,44379.1,89864.4
step02_gravity_refstate-mantle.xmf,766,-4.08837e-07,2.3279e-06,0,-5.60954e-07,-1.21455e+09,-1.21419e+09,-1.2145e+09,-74971.5,0.00324612,0.0510835,0,0.0511865,11550.5,-43581.3,0,45085.9,74971.5
step02_gravity_refstate-mantle.xmf,767,-4.26108e-07,2.41412e-06,0,-4.38819e-07,-1.22968e+09,-1.22931e+09,-1.22963e+09,-58648.1,0.0024881,0.0482769,0,0.0483409,12527,-44048.8,0,45795.5,58648.1
step02_gravity_refstate-mantle.xmf,768,2.98205e-07,2.31366e-06,0,1.38303e-07,-1.47323e+09,-1.47296e+09,-1.47327e+09,18484.2,-0.00349661,0.0206775,-0,0.0209711,28386.6,-51576.4,0,58872.1,18484.2
step02_gravity_refstate-mantle.xmf,769,3.90394e-07,2.38691e-06,0,9.47858e-08,-1.56565e+09,-1.56538e+09,-1.5657e+09,12668.1,-0.0037571,0.0139001,-0,0.0143989,29931.7,-54432.1,0,62118.9,12668.1
step02_gravity_refstate-mantle.xmf,770,4.37804e-07,2.48255e-06,0,4.57436e-08,-1.65295e+09,-1.65268e+09,-1.65301e+09,6113.64,-0.00360966,0.00731408,-0,0.00815631,31293.9,-57129.4,0,65138.9,6113.64
step02_gravity_refstate-mantle.xmf,771,1.95863e-08,3.84933e-06,0,-2.24008e-07,-1.58136e+09,-1.58085e+09,-1.58136e+09,-29938.6,0.011892,0.0198708,0,0.0231575,-9054.8,-54918.7,-0,55660.1,29938.6
step02_gravity_refstate-mantle.xmf,772,-1.95583e-07,4.03199e-06,0,-1.115e-07,-1.56644e+09,-1.56588e+09,-1.56642e+09,-14902,0.0108256,0.0230052,0,0.0254251,-8341.14,-54456.9,-0,55092,14902
step02_gravity_refstate-mantle.xmf,773,3.90722e-07,3.66904e-06,0,-2.81145e-07,-1.62577e+09,-1.62533e+09,-1.62582e+09,-37575,0.0142283,0.0137105,0,0.0197591,-9820.04,-56292.5,-0,57142.6,37575
step02_gravity_refstate-mantle.xmf,774,6.71756e-07,3.5263e-06,0,-2.10082e-07,-1.67666e+09,-1.67628e+09,-1.67675e+09,-28077.4,0.0158684,0.00761076,0,0.0175991,-10402.1,-57866.2,-0,58793.7,28077.4
step02_gravity_refstate-mantle.xmf,775,7.76843e-07,3.53545e-06,0,-9.47086e-08,-1.7168e+09,-1.71643e+09,-1.7169e+09,-12657.8,0.0165886,0.00317844,0,0.0168903,-10526.8,-59106.7,-0,60036.8,12657.8
step02_gravity_refstate-mantle.xmf,776,8.06849e-07,3.46552e-06,0,2.65149e-09,-1.74572e+09,-1.74536e+09,-1.74583e+09,354.371,0.0163568,-4.76472e-20,0,0.0163568,-11033.6,-60000,-0,61006.1,354.371
step02_gravity_refstate-mantle.xmf,777,3.31795e-06,-4.31362e-06,0,2.00581e-06,-1.38963e+09,-1.39065e+09,-1.39008e+09,268076,-0.00207001,0.0821442,-0,0.0821703,-576.437,-48997.5,-0,49000.9,268076
step02_gravity_refstate-mantle.xmf,778,-1.26311e-06,3.71914e-06,0,2.27226e-06,-1.47229e+09,-1.47163e+09,-1.47212e+09,303688,-0.000446716,0.053245,-0,0.0532468,-4143.55,-51540.7,-0,51707,303688
step02_gravity_refstate-mantle.xmf,779,-1.01255e-06,2.72071e-06,0,3.20008e-06,-1.45589e+09,-1.45539e+09,-1.45575e+09,427691,-0.0027567,0.0626376,-0,0.0626982,-3149.71,-51033.1,-0,51130.2,427691
step02_gravity_refstate-mantle.xmf,780,-6.92917e-07,1.93709e-06,0,3.78821e-06,-1.45044e+09,-1.45009e+09,-1.45035e+09,506295,-0.00356076,0.068043,-0,0.0681361,-2594.28,-50865,-0,50931.1,506295
step02_gravity_refstate-mantle.xmf,781,1.33209e-07,1.48857e-06,0,-1.33235e-06,-1.22447e+09,-1.22429e+09,-1.22449e+09,-178069,0.00460165,0.0647185,0,0.0648819,5491.06,-43889.2,0,44231.4,178069
step02_gravity_refstate-mantle.xmf,782,1.54956e-06,-7.51523e-07,0,-1.27593e-06,-1.30211e+09,-1.30241e+09,-1.30231e+09,-170529,0.00250187,0.0742591,0,0.0743013,1396.84,-46291,0,46312.1,170529
step02_gravity_refstate-mantle.xmf,783,1.19348e-06,-1.73494e-07,0,-1.48727e-06,-1.29021e+09,-1.29039e+09,-1.29037e+09,-198774,0.00321272,0.0725977,0,0.0726687,2037.35,-45922.5,0,45967.7,198774
step02_gravity_refstate-mantle.xmf,784,2.58383e-07,1.28767e-06,0,-1.44745e-06,-1.23869e+09,-1.23856e+09,-1.23873e+09,-193451,0.00447181,0.0661723,0,0.0663233,4736.23,-44328.8,0,44581.1,193451
step02_gravity_refstate-mantle.xmf,785,4.20035e-07,1.03041e-06,0,-1.52764e-06,-1.25158e+09,-1.2515e+09,-1.25164e+09,-204169,0.00429799,0.067694,0,0.0678303,4028.92,-44727.3,0,44908.4,204169
step02_gravity_refstate-mantle.xmf,786,8.77929e-07,3.11819e-07,0,-1.57138e-06,-1.27711e+09,-1.27718e+09,-1.27722e+09,-210015,0.00370597,0.070907,0,0.0710038,2688.31,-45517,0,45596.4,210015
step02_gravity_refstate-mantle.xmf,787,6.22799e-07,7.09366e-07,0,-1.57558e-06,-1.2644e+09,-1.26439e+09,-1.26448e+09,-210576,0.0040546,0.0692677,0,0.0693863,3349.87,-45123.8,0,45247.9,210576
step02_gravity_refstate-mantle.xmf,788,1.67649e-06,-1.10107e-06,0,-1.58256e-06,-1.32424e+09,-1.32461e+09,-1.32446e+09,-211510,0.00279353,0.0749117,0,0.0749638,1380.67,-46974.7,0,46995,211510
step02_gravity_refstate-mantle.xmf,789,-3.46539e-07,2.41915e-06,0,-1.46873e-07,-1.24247e+09,-1.2421e+09,-1.24243e+09,-19629.5,0.000939369,0.0430387,0,0.0430489,15649.4,-44444.4,0,47119.1,19629.5
step02_gravity_refstate-mantle.xmf,790,-2.14485e-07,2.36872e-06,0,2.38413e-08,-1.26237e+09,-1.26203e+09,-1.26234e+09,3186.39,-0.000381587,0.0388869,-0,0.0388888,18599.3,-45059.8,0,48747.5,3186.39
step02_gravity_refstate-mantle.xmf,791,-4.14197e-07,2.47047e-06,0,-3.15176e-07,-1.24498e+09,-1.24459e+09,-1.24492e+09,-42123.3,0.00167711,0.0455393,0,0.0455702,13545.9,-44521.5,0,46536.6,42123.3
step02_gravity_refstate-mantle.xmf,792,-1.21039e-07,1.8504e-06,0,-1.18664e-06,-1.22059e+09,-1.22032e+09,-1.22057e+09,-158595,0.00461407,0.0610105,0,0.0611848,6957.97,-43768.4,0,44318,158595
step02_gravity_refstate-mantle.xmf,793,-1.08001e-07,1.81065e-06,0,-1.329e-06,-1.23901e+09,-1.23875e+09,-1.23899e+09,-177621,0.00457264,0.0616429,0,0.0618123,6338.6,-44337.4,0,44788.2,177621
step02_gravity_refstate-mantle.xmf,794,2.51921e-07,2.31005e-06,0,1.6024e-07,-1.44204e+09,-1.44176e+09,-1.44207e+09,21416,-0.00355054,0.0230379,-0,0.0233098,26855,-50612.6,0,57296,21416
step02_gravity_refstate-mantle.xmf,795,1.98539e-07,2.31636e-06,0,1.75286e-07,-1.41402e+09,-1.41373e+09,-1.41404e+09,23427,-0.00347864,0.0252321,-0,0.0254708,25395.1,-49746.7,0,55853.8,23427
step02_gravity_refstate-mantle.xmf,796,3.62844e-07,2.36558e-06,0,1.25489e-07,-1.5303e+09,-1.53003e+09,-1.53034e+09,16771.6,-0.00408036,0.0165543,-0,0.0170498,28339.6,-53339.8,0,60400.9,16771.6
step02_gravity_refstate-mantle.xmf,797,4.37376e-07,2.4598e-06,0,6.85109e-08,-1.63004e+09,-1.62977e+09,-1.6301e+09,9156.49,-0.00417269,0.00908101,-0,0.0099938,29807.8,-56421.7,0,63811.5,9156.49
step02_gravity_refstate-mantle.xmf,798,4.6013e-07,2.54013e-06,0,3.15048e-08,-1.69296e+09,-1.69268e+09,-1.69302e+09,4210.61,-0.00418018,0.00421678,-0,0.0059376,30253.7,-58365.5,0,65740.5,4210.61
step02_gravity_refstate-mantle.xmf,799,4.5795e-07,2.61619e-06,0,-1.09058e-09,-1.74586e+09,-1.74558e+09,-1.74593e+09,-145.756,-0.00379878,-4.10795e-19,-0,0.00379878,31195.7,-60000,0,67625.2,145.756
step02_gravity_refstate-mantle.xmf,800,-4.04037e-07,4.21521e-06,0,5.90911e-08,-1.55518e+09,-1.55456e+09,-1.55512e+09,7897.53,0.0097708,0.0261645,0,0.0279293,-7609.33,-54108,-0,54640.5,7897.53
step02_gravity_refstate-mantle.xmf,801,-6.24578e-07,4.36443e-06,0,2.94021e-07,-1.54315e+09,-1.54249e+09,-1.54307e+09,39295.9,0.00845026,0.0297994,0,0.0309744,-6919.73,-53735.5,-0,54179.2,39295.9
step02_gravity_refstate-mantle.xmf,802,-8.45506e-07,4.45681e-06,0,6.05456e-07,-1.53026e+09,-1.52955e+09,-1.53014e+09,80919.2,0.00686395,0.0339912,0,0.0346773,-6255.5,-53335.9,-0,53701.5,80919.2
step02_gravity_refstate-mantle.xmf,803,2.19313e-07,3.87626e-06,0,-2.44744e-07,-1.61061e+09,-1.61013e+09,-1.61064e+09,-32710,0.0136708,0.0163983,0,0.0213494,-9037.04,-55823.8,-0,56550.5,32710
step02_gravity_refstate-mantle.xmf,804,5.26234e-07,3.66034e-06,0,-2.55045e-07,-1.64992e+09,-1.6495e+09,-1.64999e+09,-34086.8,0.0152883,0.0109487,0,0.0188044,-9843.53,-57039.5,-0,57882.7,34086.8
step02_gravity_refstate-mantle.xmf,805,-1.04521e-06,4.45855e-06,0,1.00176e-06,-1.51642e+09,-1.51568e+09,-1.51628e+09,133885,0.00503571,0.0387789,0,0.0391045,-5611.25,-52907.2,-0,53203.9,133885
step02_gravity_refstate-mantle.xmf,806,3.29811e-06,-4.07449e-06,0,9.53527e-07,-1.37816e+09,-1.37914e+09,-1.3786e+09,127439,-0.00113881,0.0812437,-0,0.0812517,-340.232,-48643.5,-0,48644.7,127439
step02_gravity_refstate-mantle.xmf,807,-1.19179e-06,4.35633e-06,0,1.48857e-06,-1.50355e+09,-1.50281e+09,-1.50339e+09,198947,0.00316232,0.0440438,0,0.0441572,-4958.47,-52508.4,-0,52742,198947
step02_gravity_refstate-mantle.xmf,808,-1.17571e-06,3.35614e-06,0,2.78835e-06,-1.46825e+09,-1.46764e+09,-1.46809e+09,372663,-0.00142581,0.0578504,-0,0.057868,-3587.85,-51415.4,-0,51540.4,372663
step02_gravity_refstate-mantle.xmf,809,-3.36481e-07,1.16265e-06,0,4.28142e-06,-1.44793e+09,-1.44773e+09,-1.44788e+09,572212,-0.00390967,0.0723091,-0,0.0724147,-2176.85,-50787.7,-0,50834.3,572212
step02_gravity_refstate-mantle.xmf,810,6.60694e-08,3.06813e-07,0,4.59449e-06,-1.43928e+09,-1.43925e+09,-1.43929e+09,614053,-0.00436495,0.0759134,-0,0.0760388,-1850.57,-50521.2,-0,50555,614053
step02_gravity_refstate-mantle.xmf,811,7.68724e-07,-1.44115e-06,0,4.85033e-06,-1.43054e+09,-1.43083e+09,-1.43064e+09,648246,-0.00447602,0.0801955,-0,0.0803203,-1435.61,-50251.3,-0,50271.8,648246
step02_gravity_refstate-mantle.xmf,812,4.12216e-06,-5.83161e-06,0,2.4459e-06,-1.40597e+09,-1.4073e+09,-1.40652e+09,326895,-0.00204213,0.0849839,-0,0.0850085,-496.382,-49503.5,-0,49506,326895
step02_gravity_refstate-mantle.xmf,813,3.09632e-06,-5.1675e-06,0,5.21159e-06,-1.42221e+09,-1.42331e+09,-1.42262e+09,696530,-0.00388876,0.0841024,-0,0.0841922,-1000,-50000,-0,50010,696530
step02_gravity_refstate-mantle.xmf,814,3.19055e-06,-3.64868e-06,0,4.94181e-08,-1.37021e+09,-1.37112e+09,-1.37063e+09,6604.72,-8.80013e-07,0.0805563,-0,0.0805563,0,-48398.2,0,48398.2,6604.72
step02_gravity_refstate-mantle.xmf,815,2.83126e-06,-3.02373e-06,0,-9.78149e-07,-1.36224e+09,-1.36302e+09,-1.36262e+09,-130730,0.00135568,0.0793066,0,0.0793182,468.111,-48151.3,0,48153.6,130730
step02_gravity_refstate-mantle.xmf,816,2.32274e-06,-2.25536e-06,0,-1.66457e-06,-1.35522e+09,-1.35583e+09,-1.35553e+09,-222470,0.00243269,0.0776786,0,0.0777167,930.608,-47932.9,0,47941.9,222470
step02_gravity_refstate-mantle.xmf,817,1.79366e-06,-1.43375e-06,0,-1.97926e-06,-1.34526e+09,-1.3457e+09,-1.3455e+09,-264529,0.00317144,0.0757095,0,0.0757759,1385.68,-47624.1,0,47644.2,264529
step02_gravity_refstate-mantle.xmf,818,1.35975e-07,2.33021e-06,0,1.81224e-07,-1.38725e+09,-1.38696e+09,-1.38727e+09,24220.6,-0.0032668,0.0274223,-0,0.0276162,23978.5,-48919.6,0,54480.2,24220.6
step02_gravity_refstate-mantle.xmf,819,-3.79025e-07,2.50419e-06,0,-1.9896e-07,-1.26164e+09,-1.26125e+09,-1.26159e+09,-26591,0.000830419,0.0428642,0,0.0428722,14569.8,-45036.3,0,47334.5,26591
step02_gravity_refstate-mantle.xmf,820,6.34451e-08,2.34909e-06,0,1.74669e-07,-1.36076e+09,-1.36046e+09,-1.36077e+09,23344.5,-0.00289767,0.0297021,-0,0.0298431,22603.3,-48100.9,0,53147,23344.5
step02_gravity_refstate-mantle.xmf,821,-2.91729e-07,2.43998e-06,0,-5.60362e-08,-1.26378e+09,-1.26342e+09,-1.26374e+09,-7489.24,6.82121e-05,0.0403861,0,0.0403861,16670.9,-45103,0,48085.4,7489.24
step02_gravity_refstate-mantle.xmf,822,-1.26028e-08,2.36846e-06,0,1.5407e-07,-1.33574e+09,-1.33543e+09,-1.33574e+09,20591.4,-0.00240049,0.0319745,-0,0.0320644,21347.2,-47327.7,0,51919.3,20591.4
step02_gravity_refstate-mantle.xmf,823,-9.06374e-08,2.38544e-06,0,1.18463e-07,-1.31158e+09,-1.31125e+09,-1.31157e+09,15832.6,-0.00178986,0.0342992,-0,0.0343459,20162.5,-46580.6,0,50757.1,15832.6
step02_gravity_refstate-mantle.xmf,824,-1.57086e-07,2.41818e-06,0,7.7644e-08,-1.29876e+09,-1.29842e+09,-1.29874e+09,10377.1,-0.00132434,0.0359914,-0,0.0360158,18895.5,-46184.4,0,49900.2,10377.1
step02_gravity_refstate-mantle.xmf,825,-2.22343e-07,2.44083e-06,0,2.26034e-08,-1.28447e+09,-1.28411e+09,-1.28444e+09,3020.94,-0.000745841,0.0378827,-0,0.03789,17756.7,-45742.5,0,49068.1,3020.94
step02_gravity_refstate-mantle.xmf,826,-2.56287e-07,2.03846e-06,0,-9.05596e-07,-1.19887e+09,-1.19856e+09,-1.19883e+09,-121033,0.00450609,0.0578435,0,0.0580187,8790.8,-43097.1,0,43984.5,121033
step02_gravity_refstate-mantle.xmf,827,-2.30605e-07,2.00041e-06,0,-1.06793e-06,-1.21701e+09,-1.21671e+09,-1.21698e+09,-142728,0.0044909,0.0589315,0,0.0591023,7856.57,-43657.5,0,44358.8,142728
step02_gravity_refstate-mantle.xmf,828,-2.75316e-07,2.0504e-06,0,-1.20713e-06,-1.2421e+09,-1.24179e+09,-1.24206e+09,-161333,0.00436526,0.0588009,0,0.0589627,7301.33,-44432.3,0,45028.2,161333
step02_gravity_refstate-mantle.xmf,829,-3.62326e-07,2.22667e-06,0,-8.00063e-07,-1.21584e+09,-1.2155e+09,-1.21579e+09,-106928,0.00394114,0.0546486,0,0.0547905,9721.93,-43621.2,0,44691.4,106928
step02_gravity_refstate-mantle.xmf,830,-4.32677e-07,2.37602e-06,0,-6.71326e-07,-1.23222e+09,-1.23184e+09,-1.23216e+09,-89722.7,0.00324146,0.0514948,0,0.0515967,10668.1,-44127,0,45398.2,89722.7
step02_gravity_refstate-mantle.xmf,831,-4.62963e-07,2.48543e-06,0,-5.31684e-07,-1.2484e+09,-1.24801e+09,-1.24834e+09,-71059.6,0.00244704,0.0484468,0,0.0485085,11616.2,-44627,0,46114,71059.6
step02_gravity_refstate-mantle.xmf,832,-4.57524e-07,2.55505e-06,0,-3.91979e-07,-1.26383e+09,-1.26343e+09,-1.26377e+09,-52388,0.00161021,0.0455705,0,0.0455989,12579,-45103.8,0,46825,52388
step02_gravity_refstate-mantle.xmf,833,3.25068e-07,2.35634e-06,0,1.54589e-07,-1.49728e+09,-1.49701e+09,-1.49733e+09,20660.8,-0.00426588,0.0190602,-0,0.0195317,26794.3,-52319.8,0,58781.8,20660.8
step02_gravity_refstate-mantle.xmf,834,4.17942e-07,2.42237e-06,0,1.02701e-07,-1.58708e+09,-1.58681e+09,-1.58714e+09,13726,-0.00458289,0.012357,-0,0.0131794,28260.9,-55094.4,0,61919.9,13726
step02_gravity_refstate-mantle.xmf,835,1.59563e-08,4.08332e-06,0,-1.54628e-07,-1.59512e+09,-1.59458e+09,-1.59512e+09,-20666,0.0128014,0.0195089,0,0.0233339,-8285.95,-55344.4,-0,55961.2,20666
step02_gravity_refstate-mantle.xmf,836,-2.05748e-07,4.29731e-06,0,-1.14606e-08,-1.58138e+09,-1.58077e+09,-1.58135e+09,-1531.71,0.011764,0.022784,0,0.0256418,-7581.13,-54918.8,-0,55439.6,1531.71
step02_gravity_refstate-mantle.xmf,837,4.16216e-07,3.88123e-06,0,-2.32832e-07,-1.64127e+09,-1.64081e+09,-1.64133e+09,-31117.9,0.0152814,0.0126982,0,0.0198687,-9051.91,-56772.2,-0,57489.3,31117.9
step02_gravity_refstate-mantle.xmf,838,5.89315e-07,3.78565e-06,0,-2.02404e-07,-1.66984e+09,-1.66941e+09,-1.66992e+09,-27051.3,0.0162791,0.00898267,0,0.0185929,-9409.07,-57655.5,-0,58418.2,27051.3
step02_gravity_refstate-mantle.xmf,839,7.09393e-07,3.73397e-06,0,-1.36377e-07,-1.69969e+09,-1.69928e+09,-1.69978e+09,-18226.8,0.0169655,0.00537089,0,0.0177954,-9639.32,-58578.1,-0,59365.9,18226.8
step02_gravity_refstate-mantle.xmf,840,7.84603e-07,3.68848e-06,0,1.22288e-09,-1.7457e+09,-1.74532e+09,-1.74581e+09,163.438,0.0171372,-3.66653e-20,0,0.0171372,-10053,-60000,-0,60836.4,163.438
step02_gravity_refstate-mantle.xmf,841,3.74949e-06,-5.0845e-06,0,-9.0596e-09,-1.38835e+09,-1.38953e+09,-1.38885e+09,-1210.82,1.29863e-06,0.0829371,0,0.0829371,0,-48958.6,0,48958.6,1210.82
step02_gravity_refstate-mantle.xmf,842,-1.25131e-06,4.12493e-06,0,2.02554e-06,-1.49247e+09,-1.49175e+09,-1.4923e+09,270714,0.00143646,0.0494411,0,0.0494619,-4338.59,-52165.1,-0,52345.2,270714
step02_gravity_refstate-mantle.xmf,843,-1.20176e-06,3.78515e-06,0,2.67745e-06,-1.48574e+09,-1.48508e+09,-1.48558e+09,357842,6.24942e-05,0.0551337,0,0.0551338,-3685.66,-51956.7,-0,52087.3,357842
step02_gravity_refstate-mantle.xmf,844,-1.04196e-06,3.25154e-06,0,3.30787e-06,-1.4781e+09,-1.47752e+09,-1.47796e+09,442096,-0.00118133,0.0607509,-0,0.0607624,-3131.19,-51720.3,-0,51814.9,442096
step02_gravity_refstate-mantle.xmf,845,-7.53085e-07,2.48213e-06,0,3.91789e-06,-1.46907e+09,-1.46864e+09,-1.46897e+09,523626,-0.00231968,0.0664646,-0,0.0665051,-2625.21,-51441.5,-0,51508.4,523626
step02_gravity_refstate-mantle.xmf,846,-3.7587e-07,1.61581e-06,0,4.46449e-06,-1.46198e+09,-1.46172e+09,-1.46193e+09,596679,-0.00305335,0.07149,-0,0.0715552,-2196.73,-51222.7,-0,51269.8,596679
step02_gravity_refstate-mantle.xmf,847,1.27626e-07,5.33881e-07,0,4.98701e-06,-1.45489e+09,-1.45483e+09,-1.4549e+09,666514,-0.00354972,0.0763186,-0,0.0764011,-1799.61,-51004.2,-0,51035.9,666514
step02_gravity_refstate-mantle.xmf,848,6.21629e-09,1.61027e-06,0,-1.47823e-06,-1.25156e+09,-1.25134e+09,-1.25156e+09,-197565,0.00458765,0.063502,0,0.0636675,5463.07,-44725.3,0,45057.7,197565
step02_gravity_refstate-mantle.xmf,849,1.20018e-06,-3.86173e-07,0,-1.87799e-06,-1.31621e+09,-1.31643e+09,-1.31637e+09,-250993,0.00362658,0.0727563,0,0.0728466,2056.5,-46725.4,0,46770.7,250993
step02_gravity_refstate-mantle.xmf,850,8.19301e-07,2.56958e-07,0,-1.87186e-06,-1.30097e+09,-1.30105e+09,-1.30108e+09,-250174,0.00403536,0.0706438,0,0.070759,2705.79,-46253.7,0,46332.8,250174
step02_gravity_refstate-mantle.xmf,851,1.43613e-07,1.37525e-06,0,-1.61881e-06,-1.26406e+09,-1.26389e+09,-1.26407e+09,-216354,0.00455416,0.0652337,0,0.0653924,4701,-45111.7,0,45356,216354
step02_gravity_refstate-mantle.xmf,852,3.08508e-07,1.09458e-06,0,-1.73386e-06,-1.27642e+09,-1.27631e+09,-1.27646e+09,-231730,0.00447293,0.0669013,0,0.0670506,4021.81,-45493.9,0,45671.3,231730
step02_gravity_refstate-mantle.xmf,853,5.27719e-07,7.31255e-07,0,-1.82354e-06,-1.28862e+09,-1.28859e+09,-1.28869e+09,-243717,0.00431414,0.0686953,0,0.0688307,3360.96,-45871.5,0,45994.4,243717
step02_gravity_refstate-mantle.xmf,854,1.3915e-06,-8.00714e-07,0,-2.07181e-06,-1.33504e+09,-1.33533e+09,-1.33523e+09,-276898,0.00361551,0.0739748,0,0.0740631,1790.08,-47307.2,0,47341,276898
step02_gravity_refstate-mantle.xmf,855,-3.283e-07,2.52155e-06,0,-9.3291e-08,-1.28066e+09,-1.28028e+09,-1.28061e+09,-12468.3,-5.32167e-05,0.0401796,-0,0.0401796,15598.9,-45624.3,0,48217.2,12468.3
step02_gravity_refstate-mantle.xmf,856,-4.24283e-07,2.5976e-06,0,-2.57533e-07,-1.28073e+09,-1.28033e+09,-1.28068e+09,-34419.3,0.000710586,0.0427179,0,0.0427239,13561.1,-45626.2,0,47598.9,34419.3
step02_gravity_refstate-mantle.xmf,857,-2.94809e-07,2.05499e-06,0,-1.33201e-06,-1.25954e+09,-1.25923e+09,-1.2595e+09,-178023,0.00435544,0.0591289,0,0.0592891,6790.02,-44971,0,45480.7,178023
step02_gravity_refstate-mantle.xmf,858,2.79328e-07,2.3593e-06,0,1.78154e-07,-1.46823e+09,-1.46796e+09,-1.46827e+09,23810.3,-0.00431688,0.0213211,-0,0.0217537,25352.4,-51422.2,0,57332.2,23810.3
step02_gravity_refstate-mantle.xmf,859,2.2151e-07,2.37198e-06,0,1.9479e-07,-1.43993e+09,-1.43964e+09,-1.43996e+09,26033.7,-0.00421642,0.0236025,-0,0.0239761,23940.7,-50547.4,0,55930.3,26033.7
step02_gravity_refstate-mantle.xmf,860,3.92859e-07,2.40571e-06,0,1.3621e-07,-1.55359e+09,-1.55332e+09,-1.55364e+09,18204.4,-0.00490368,0.0149197,-0,0.0157049,26758.9,-54059.7,0,60319.9,18204.4
step02_gravity_refstate-mantle.xmf,861,4.56649e-07,2.47832e-06,0,7.69143e-08,-1.63543e+09,-1.63516e+09,-1.63549e+09,10279.6,-0.00498307,0.00870166,-0,0.0100275,28055,-56588.5,0,63161.2,10279.6
step02_gravity_refstate-mantle.xmf,862,4.80233e-07,2.54916e-06,0,3.87403e-08,-1.69277e+09,-1.69249e+09,-1.69283e+09,5177.64,-0.00509144,0.00424569,-0,0.00662938,28315.7,-58359.8,0,64866.4,5177.64
step02_gravity_refstate-mantle.xmf,863,4.77882e-07,2.62289e-06,0,-1.13062e-09,-1.74586e+09,-1.74557e+09,-1.74592e+09,-151.107,-0.00470777,-4.13505e-19,-0,0.00470777,29252.7,-60000,0,66751.2,151.107
step02_gravity_refstate-mantle.xmf,864,-4.39051e-07,4.4923e-06,0,2.02935e-07,-1.56837e+09,-1.56771e+09,-1.56831e+09,27122.3,0.0105225,0.0264354,0,0.0284526,-6890.46,-54516.1,-0,54949.8,27122.3
step02_gravity_refstate-mantle.xmf,865,-6.8226e-07,4.65278e-06,0,5.02814e-07,-1.55534e+09,-1.55462e+09,-1.55524e+09,67201.1,0.00903063,0.0306364,0,0.0319397,-6209.58,-54112.2,-0,54467.3,67201.1
step02_gravity_refstate-mantle.xmf,866,-9.14628e-07,4.72899e-06,0,8.96054e-07,-1.5414e+09,-1.54065e+09,-1.54128e+09,119758,0.00725016,0.0354808,0,0.036214,-5558.4,-53680.4,-0,53967.4,119758
step02_gravity_refstate-mantle.xmf,867,2.05423e-07,4.14e-06,0,-1.70736e-07,-1.62312e+09,-1.62259e+09,-1.62314e+09,-22818.9,0.0145693,0.0160218,0,0.0216555,-8240.21,-56210.5,-0,56811.3,22818.9
step02_gravity_refstate-mantle.xmf,868,7.52635e-07,3.78701e-06,0,-6.58195e-08,-1.72534e+09,-1.72493e+09,-1.72544e+09,-8796.78,0.0174003,0.00239694,0,0.0175646,-9585.67,-59370.9,-0,60139.7,8796.78
step02_gravity_refstate-mantle.xmf,869,-1.10078e-06,4.69448e-06,0,1.37895e-06,-1.52744e+09,-1.52666e+09,-1.52729e+09,184296,0.00532491,0.0407812,0,0.0411273,-4943.98,-53247.7,-0,53476.7,184296
step02_gravity_refstate-mantle.xmf,870,4.28901e-06,-6.35537e-06,0,4.60317e-08,-1.4056e+09,-1.40703e+09,-1.40618e+09,6152.13,-7.12613e-07,0.0859401,-0,0.0859401,0,-49492,0,49492,6152.13
step02_gravity_refstate-mantle.xmf,871,-1.20789e-06,4.55646e-06,0,1.9483e-06,-1.51606e+09,-1.51529e+09,-1.5159e+09,260391,0.00354932,0.0462975,0,0.0464333,-4334.65,-52895.2,-0,53072.6,260391
step02_gravity_refstate-mantle.xmf,872,8.15017e-07,-8.06545e-07,0,5.49199e-06,-1.44676e+09,-1.44698e+09,-1.44687e+09,734004,-0.00381879,0.0810398,-0,0.0811297,-1414.06,-50754.3,-0,50774,734004
step02_gravity_refstate-mantle.xmf,873,1.97895e-06,-3.2471e-06,0,6.18463e-06,-1.43847e+09,-1.43917e+09,-1.43873e+09,826576,-0.00362911,0.0859909,-0,0.0860675,-1000,-50499.8,-0,50509.7,826576
step02_gravity_refstate-mantle.xmf,874,3.99113e-06,-7.22081e-06,0,2.58236e-06,-1.42218e+09,-1.42368e+09,-1.42272e+09,345132,-0.00210856,0.0882064,-0,0.0882316,-500,-50000,-0,50002.5,345132
step02_gravity_refstate-mantle.xmf,875,4.3556e-06,-8.1109e-06,0,7.97193e-09,-1.42218e+09,-1.42385e+09,-1.42276e+09,1065.45,4.67808e-06,0.0895961,0,0.0895961,0,-50000,0,50000,1065.45
step02_gravity_refstate-mantle.xmf,876,-2.25979e-07,1.92783e-06,0,-1.46465e-06,-1.2668e+09,-1.26651e+09,-1.26677e+09,-195750,0.00447839,0.0606442,0,0.0608093,6133.14,-45195.3,0,45609.6,195750
step02_gravity_refstate-mantle.xmf,877,3.25313e-06,-3.94363e-06,0,-1.33752e-06,-1.38018e+09,-1.38114e+09,-1.38061e+09,-178760,0.00158618,0.0812293,0,0.0812448,471.142,-48705.8,0,48708.1,178760
step02_gravity_refstate-mantle.xmf,878,2.51372e-06,-2.78783e-06,0,-2.1502e-06,-1.3722e+09,-1.3729e+09,-1.37253e+09,-287375,0.00278456,0.0789627,0,0.0790118,942.386,-48457.3,0,48466.5,287375
step02_gravity_refstate-mantle.xmf,879,1.28606e-06,-8.25592e-07,0,-2.48966e-06,-1.35173e+09,-1.35201e+09,-1.3519e+09,-332743,0.0040588,0.0740519,0,0.074163,1877.59,-47821.8,0,47858.7,332743
step02_gravity_refstate-mantle.xmf,880,1.81454e-06,-1.69397e-06,0,-2.46395e-06,-1.36276e+09,-1.36323e+09,-1.363e+09,-329306,0.0035824,0.0764486,0,0.0765324,1413.87,-48163.9,0,48184.7,329306
step02_gravity_refstate-mantle.xmf,881,1.51856e-07,2.39242e-06,0,2.00398e-07,-1.41232e+09,-1.41202e+09,-1.41234e+09,26783.2,-0.00394905,0.0259281,-0,0.0262271,22590.7,-49694.2,0,54588.1,26783.2
step02_gravity_refstate-mantle.xmf,882,-3.72217e-07,2.60988e-06,0,-1.44149e-07,-1.29602e+09,-1.29562e+09,-1.29597e+09,-19265.6,-0.000110842,0.0402224,-0,0.0402226,14509.9,-46098.8,0,48328.4,19265.6
step02_gravity_refstate-mantle.xmf,883,7.4543e-08,2.41855e-06,0,1.92371e-07,-1.38665e+09,-1.38633e+09,-1.38666e+09,25710.4,-0.0035445,0.0282209,-0,0.0284426,21316.1,-48900.7,0,53344.7,25710.4
step02_gravity_refstate-mantle.xmf,884,-2.56749e-07,2.5475e-06,0,3.07516e-09,-1.30888e+09,-1.3085e+09,-1.30884e+09,410.996,-0.0011048,0.0370866,-0,0.037103,16483.2,-46496.5,0,49331.8,410.996
step02_gravity_refstate-mantle.xmf,885,-5.95553e-09,2.44746e-06,0,1.70188e-07,-1.36347e+09,-1.36314e+09,-1.36347e+09,22745.7,-0.00303899,0.030445,-0,0.0305963,20119.6,-48184.3,0,52216.1,22745.7
step02_gravity_refstate-mantle.xmf,886,-8.66426e-08,2.48008e-06,0,1.34021e-07,-1.34371e+09,-1.34337e+09,-1.3437e+09,17911.9,-0.0024825,0.032562,-0,0.0326565,18939,-47573.6,0,51204.8,17911.9
step02_gravity_refstate-mantle.xmf,887,-1.64695e-07,2.51402e-06,0,8.46067e-08,-1.3273e+09,-1.32694e+09,-1.32727e+09,11307.7,-0.0018964,0.0345783,-0,0.0346303,17790.3,-47066,0,50316.1,11307.7
step02_gravity_refstate-mantle.xmf,888,-3.6833e-07,2.21471e-06,0,-9.54078e-07,-1.23061e+09,-1.23027e+09,-1.23056e+09,-127513,0.00402995,0.0557346,0,0.0558801,8801.02,-44077.3,0,44947.4,127513
step02_gravity_refstate-mantle.xmf,889,-4.35736e-07,2.27576e-06,0,-1.23261e-06,-1.27072e+09,-1.27036e+09,-1.27066e+09,-164739,0.00400331,0.0564771,0,0.0566188,7449.56,-45316,0,45924.2,164739
step02_gravity_refstate-mantle.xmf,890,-4.14234e-07,2.27411e-06,0,-1.0829e-06,-1.25353e+09,-1.25317e+09,-1.25348e+09,-144730,0.00393734,0.0557549,0,0.0558937,8156.9,-44785.2,0,45522,144730
step02_gravity_refstate-mantle.xmf,891,-4.62642e-07,2.41937e-06,0,-7.98621e-07,-1.24951e+09,-1.24913e+09,-1.24945e+09,-106736,0.00328246,0.0520818,0,0.0521852,9790.43,-44661.1,0,45721.6,106736
step02_gravity_refstate-mantle.xmf,892,-5.08441e-07,2.55551e-06,0,-6.37976e-07,-1.26604e+09,-1.26563e+09,-1.26597e+09,-85265.5,0.00245852,0.0487978,0,0.0488597,10727.7,-45171.7,0,46428.1,85265.5
step02_gravity_refstate-mantle.xmf,893,-4.8002e-07,2.69466e-06,0,-3.26422e-07,-1.29825e+09,-1.29783e+09,-1.29819e+09,-43626.2,0.00064328,0.0427594,0,0.0427643,12591.1,-46167.2,0,47853.4,43626.2
step02_gravity_refstate-mantle.xmf,894,-5.10836e-07,2.64344e-06,0,-4.78401e-07,-1.28193e+09,-1.2815e+09,-1.28186e+09,-63938.3,0.00157481,0.0457185,0,0.0457456,11655.8,-45662.6,0,47126.7,63938.3
step02_gravity_refstate-mantle.xmf,895,3.5704e-07,2.40253e-06,0,1.67929e-07,-1.52268e+09,-1.52241e+09,-1.52273e+09,22443.7,-0.00510131,0.0173222,-0,0.0180577,25284.6,-53104.7,0,58816.8,22443.7
step02_gravity_refstate-mantle.xmf,896,4.4734e-07,2.45928e-06,0,1.08184e-07,-1.60747e+09,-1.6072e+09,-1.60753e+09,14458.7,-0.00542478,0.0108742,-0,0.0121522,26672.5,-55724.5,0,61779,14458.7
step02_gravity_refstate-mantle.xmf,897,-1.52779e-08,4.37322e-06,0,-4.9003e-08,-1.60736e+09,-1.60678e+09,-1.60736e+09,-6549.25,0.0136306,0.0194069,0,0.0237154,-7531.27,-55723.1,-0,56229.7,6549.25
step02_gravity_refstate-mantle.xmf,898,-2.49261e-07,4.6154e-06,0,1.35939e-07,-1.59392e+09,-1.59327e+09,-1.59388e+09,18168.3,0.0125559,0.0229331,0,0.0261454,-6856.59,-55306.8,-0,55730.2,18168.3
step02_gravity_refstate-mantle.xmf,899,3.52208e-07,4.27127e-06,0,-1.27042e-07,-1.65165e+09,-1.65113e+09,-1.6517e+09,-16979.2,0.0161844,0.0126437,0,0.0205377,-8010.38,-57093.3,-0,57652.5,16979.2
step02_gravity_refstate-mantle.xmf,900,5.06582e-07,4.01116e-06,0,-1.74785e-07,-1.66508e+09,-1.66461e+09,-1.66515e+09,-23360,0.0164879,0.0101431,0,0.019358,-8700.83,-57508.5,-0,58163,23360
step02_gravity_refstate-mantle.xmf,901,6.07398e-07,4.00226e-06,0,-1.39067e-07,-1.68802e+09,-1.68757e+09,-1.6881e+09,-18586.3,0.0172353,0.0072246,0,0.0186882,-8784.03,-58217.8,-0,58876.8,18586.3
step02_gravity_refstate-mantle.xmf,902,6.81934e-07,4.06594e-06,0,-6.90614e-08,-1.71844e+09,-1.71799e+09,-1.71853e+09,-9230.05,0.0179305,0.00344715,0,0.0182589,-8731.16,-59158.2,-0,59799,9230.05
step02_gravity_refstate-mantle.xmf,903,7.34282e-07,3.97e-06,0,1.68921e-09,-1.74569e+09,-1.74526e+09,-1.74579e+09,225.762,0.0178472,-5.18021e-20,0,0.0178472,-9118.31,-60000,-0,60688.9,225.762
step02_gravity_refstate-mantle.xmf,904,3.74772e-06,-5.33771e-06,0,-1.96062e-06,-1.39843e+09,-1.39964e+09,-1.39893e+09,-262037,0.00182203,0.0838174,0,0.0838372,464.672,-49269.3,0,49271.5,262037
step02_gravity_refstate-mantle.xmf,905,-1.21669e-06,4.28926e-06,0,2.62123e-06,-1.50684e+09,-1.5061e+09,-1.50668e+09,350327,0.00195063,0.0521827,0,0.0522192,-3724.36,-52609.7,-0,52741.3,350327
step02_gravity_refstate-mantle.xmf,906,-1.10314e-06,3.82344e-06,0,3.3398e-06,-1.49761e+09,-1.49696e+09,-1.49747e+09,446364,0.000470064,0.0583215,0,0.0583234,-3162.57,-52324.2,-0,52419.7,446364
step02_gravity_refstate-mantle.xmf,907,-8.48764e-07,3.13122e-06,0,4.06624e-06,-1.48807e+09,-1.48754e+09,-1.48796e+09,543454,-0.000838714,0.0645564,-0,0.0645618,-2649.86,-52029.4,-0,52096.8,543454
step02_gravity_refstate-mantle.xmf,908,-4.66243e-07,2.25736e-06,0,4.75567e-06,-1.47906e+09,-1.4787e+09,-1.479e+09,635596,-0.00184313,0.0704464,-0,0.0704705,-2198.43,-51751.4,-0,51798.1,635596
step02_gravity_refstate-mantle.xmf,909,5.16353e-08,1.20213e-06,0,5.44335e-06,-1.47087e+09,-1.47072e+09,-1.47088e+09,727504,-0.00252002,0.0760647,-0,0.0761065,-1785.58,-51499.2,-0,51530.2,727504
step02_gravity_refstate-mantle.xmf,910,4.2565e-06,-6.84694e-06,0,-1.52825e-06,-1.41214e+09,-1.41362e+09,-1.4127e+09,-204250,0.00130403,0.0868529,0,0.0868627,301.5,-49692.3,0,49693.2,204250
step02_gravity_refstate-mantle.xmf,911,7.26188e-07,-9.56102e-08,0,6.13481e-06,-1.4628e+09,-1.46291e+09,-1.4629e+09,819917,-0.00290391,0.0813975,-0,0.0814493,-1406.51,-51251,-0,51270.3,819917
step02_gravity_refstate-mantle.xmf,912,-1.22196e-07,1.7341e-06,0,-1.61517e-06,-1.27668e+09,-1.27643e+09,-1.27666e+09,-215868,0.00458179,0.0624475,0,0.0626154,5385.15,-45500.7,0,45818.2,215868
step02_gravity_refstate-mantle.xmf,913,9.4631e-07,-2.07502e-07,0,-2.35305e-06,-1.33782e+09,-1.33798e+09,-1.33795e+09,-314485,0.00427128,0.0720405,0,0.072167,2306.57,-47391.7,0,47447.8,314485
step02_gravity_refstate-mantle.xmf,914,6.71261e-07,3.10755e-07,0,-2.20419e-06,-1.32326e+09,-1.32331e+09,-1.32335e+09,-294590,0.00442021,0.0701504,0,0.0702895,2787.98,-46941.3,0,47024,294590
step02_gravity_refstate-mantle.xmf,915,3.8338e-07,8.08559e-07,0,-2.08794e-06,-1.31181e+09,-1.31175e+09,-1.31186e+09,-279053,0.00458327,0.0680576,0,0.0682118,3385.48,-46586.8,0,46709.7,279053
step02_gravity_refstate-mantle.xmf,916,-4.98956e-09,1.50441e-06,0,-1.7889e-06,-1.2888e+09,-1.2886e+09,-1.2888e+09,-239086,0.00464165,0.0641872,0,0.0643548,4684.86,-45875.4,0,46114,239086
step02_gravity_refstate-mantle.xmf,917,1.58815e-07,1.20427e-06,0,-1.94572e-06,-1.30037e+09,-1.30023e+09,-1.30039e+09,-260046,0.00465078,0.0660399,0,0.0662035,4025.32,-46233,0,46407.9,260046
step02_gravity_refstate-mantle.xmf,918,-4.42622e-07,2.24517e-06,0,-1.38962e-06,-1.28536e+09,-1.285e+09,-1.2853e+09,-185722,0.00412513,0.057444,0,0.0575919,6780.98,-45768,0,46267.6,185722
step02_gravity_refstate-mantle.xmf,919,-3.1523e-07,2.60749e-06,0,-5.66863e-08,-1.3104e+09,-1.31001e+09,-1.31036e+09,-7576.13,-0.000826231,0.0380911,-0,0.0381001,15350,-46543.3,0,49009.2,7576.13
step02_gravity_refstate-mantle.xmf,920,-4.24856e-07,2.71262e-06,0,-1.92718e-07,-1.31397e+09,-1.31355e+09,-1.31391e+09,-25756.8,-0.000259203,0.0400482,-0,0.0400491,13521,-46653,0,48572.8,25756.8
step02_gravity_refstate-mantle.xmf,921,3.08716e-07,2.41229e-06,0,1.95166e-07,-1.49364e+09,-1.49336e+09,-1.49368e+09,26083.9,-0.00515438,0.019646,-0,0.0203109,23852.6,-52207.3,0,57398.1,26083.9
step02_gravity_refstate-mantle.xmf,922,2.42758e-07,2.43102e-06,0,2.14016e-07,-1.4633e+09,-1.46301e+09,-1.46334e+09,28603.3,-0.00498626,0.0221486,-0,0.0227029,22501.6,-51269.8,0,55990.3,28603.3
step02_gravity_refstate-mantle.xmf,923,4.26398e-07,2.44879e-06,0,1.4398e-07,-1.57689e+09,-1.57662e+09,-1.57695e+09,19242.9,-0.00578083,0.0132641,-0,0.0144691,25215.3,-54779.9,0,60304.6,19242.9
step02_gravity_refstate-mantle.xmf,924,4.87503e-07,2.52034e-06,0,7.02321e-08,-1.6613e+09,-1.66103e+09,-1.66136e+09,9386.52,-0.00579215,0.00673435,-0,0.00888259,26626.7,-57387.7,0,63264,9386.52
step02_gravity_refstate-mantle.xmf,925,5.00287e-07,2.6334e-06,0,-5.46759e-10,-1.74585e+09,-1.74557e+09,-1.74592e+09,-73.0743,-0.00561281,-2.94239e-19,-0,0.00561281,27403,-60000,0,65961.6,73.0743
step02_gravity_refstate-mantle.xmf,926,-5.00213e-07,4.83945e-06,0,4.08112e-07,-1.58094e+09,-1.58023e+09,-1.58088e+09,54544.1,0.0112452,0.0269633,0,0.0292142,-6185.64,-54904.9,-0,55252.2,54544.1
step02_gravity_refstate-mantle.xmf,927,-7.73271e-07,5.04186e-06,0,8.26075e-07,-1.56882e+09,-1.56804e+09,-1.56871e+09,110405,0.00968824,0.0318875,0,0.0333267,-5439.56,-54528.9,-0,54799.6,110405
step02_gravity_refstate-mantle.xmf,928,-1.0152e-06,5.04445e-06,0,1.31105e-06,-1.5505e+09,-1.54969e+09,-1.55037e+09,175222,0.00744493,0.037712,0,0.0384399,-4872.8,-53961.7,-0,54181.3,175222
step02_gravity_refstate-mantle.xmf,929,1.40439e-07,4.47193e-06,0,-5.57953e-08,-1.63217e+09,-1.63159e+09,-1.63218e+09,-7457.05,0.01525,0.0161874,0,0.0222395,-7441.02,-56490.5,-0,56978.5,7457.05
step02_gravity_refstate-mantle.xmf,930,4.83265e-07,4.2622e-06,0,-1.17992e-07,-1.67705e+09,-1.67654e+09,-1.67711e+09,-15769.7,0.0172572,0.0092077,0,0.0195599,-8075.48,-57878.6,-0,58439.3,15769.7
step02_gravity_refstate-mantle.xmf,931,-1.17904e-06,5.00706e-06,0,1.89044e-06,-1.53806e+09,-1.53723e+09,-1.5379e+09,252658,0.00560394,0.0432982,0,0.0436594,-4298.27,-53576,-0,53748.1,252658
step02_gravity_refstate-mantle.xmf,932,-1.24602e-06,4.83327e-06,0,2.60601e-06,-1.52799e+09,-1.52718e+09,-1.52782e+09,348293,0.00390899,0.049331,0,0.0494856,-3708.28,-53264.2,-0,53393.1,348293
step02_gravity_refstate-mantle.xmf,933,3.83679e-06,-6.0751e-06,0,-2.91582e-06,-1.41009e+09,-1.41142e+09,-1.4106e+09,-389699,0.00251951,0.0851644,0,0.0852016,611.829,-49628.4,0,49632.1,389699
step02_gravity_refstate-mantle.xmf,934,1.63214e-06,-1.8654e-06,0,7.10299e-06,-1.45462e+09,-1.45508e+09,-1.45483e+09,949315,-0.00288948,0.0872754,-0,0.0873233,-1000,-50999.8,-0,51009.6,949315
step02_gravity_refstate-mantle.xmf,935,4.0456e-06,-7.29568e-06,0,-2.62801e-06,-1.42218e+09,-1.42369e+09,-1.42272e+09,-351234,0.00211141,0.0882002,0,0.0882254,500,-50000,0,50002.5,351234
step02_gravity_refstate-mantle.xmf,936,-3.49284e-07,2.06657e-06,0,-1.55516e-06,-1.28908e+09,-1.28876e+09,-1.28903e+09,-207847,0.00438341,0.0595527,0,0.0597138,6044.79,-45883.1,0,46279.6,207847
step02_gravity_refstate-mantle.xmf,937,2.66076e-06,-3.37561e-06,0,-2.8284e-06,-1.38892e+09,-1.38973e+09,-1.38927e+09,-378015,0.00317527,0.0805145,0,0.0805771,951.144,-48973.4,0,48982.6,378015
step02_gravity_refstate-mantle.xmf,938,1.76927e-06,-1.94292e-06,0,-3.0628e-06,-1.38016e+09,-1.38066e+09,-1.3804e+09,-409343,0.00398453,0.0774014,0,0.0775039,1418.83,-48700.5,0,48721.2,409343
step02_gravity_refstate-mantle.xmf,939,7.13225e-07,-6.46172e-08,0,-2.76396e-06,-1.35747e+09,-1.35757e+09,-1.35757e+09,-369404,0.00468475,0.0717139,0,0.0718667,2396.87,-47997.4,0,48057.2,369404
step02_gravity_refstate-mantle.xmf,940,1.14054e-06,-8.52355e-07,0,-2.96687e-06,-1.36944e+09,-1.36971e+09,-1.36959e+09,-396522,0.00444803,0.0743885,0,0.0745213,1903.21,-48367.9,0,48405.4,396522
step02_gravity_refstate-mantle.xmf,941,1.65585e-07,2.45817e-06,0,2.18442e-07,-1.43515e+09,-1.43484e+09,-1.43517e+09,29194.8,-0.00465101,0.0245857,-0,0.0250217,21255,-50399.6,0,54698.2,29194.8
step02_gravity_refstate-mantle.xmf,942,-3.53332e-07,2.7022e-06,0,-7.97809e-08,-1.32829e+09,-1.32788e+09,-1.32824e+09,-10662.7,-0.00108571,0.0376132,-0,0.0376288,14477.5,-47095.9,0,49270.9,10662.7
step02_gravity_refstate-mantle.xmf,943,8.41899e-08,2.49423e-06,0,2.10204e-07,-1.41156e+09,-1.41124e+09,-1.41157e+09,28093.7,-0.00424199,0.0268019,-0,0.0271355,20050.5,-49670.6,0,53564.8,28093.7
step02_gravity_refstate-mantle.xmf,944,-2.74424e-07,2.66875e-06,0,9.83695e-09,-1.34027e+09,-1.33987e+09,-1.34023e+09,1314.71,-0.0017832,0.0355147,-0,0.0355594,15485.8,-47466.4,0,49928.6,1314.71
step02_gravity_refstate-mantle.xmf,945,-2.38403e-09,2.53371e-06,0,1.8644e-07,-1.38992e+09,-1.38958e+09,-1.38992e+09,24917.7,-0.00372311,0.0289987,-0,0.0292367,18908.3,-49001.7,0,52523.2,24917.7
step02_gravity_refstate-mantle.xmf,946,-9.18725e-08,2.57842e-06,0,1.46544e-07,-1.37126e+09,-1.3709e+09,-1.37125e+09,19585.6,-0.00314284,0.0311413,-0,0.0312995,17757.6,-48424.7,0,51577.9,19585.6
step02_gravity_refstate-mantle.xmf,947,-1.8428e-07,2.6233e-06,0,8.73488e-08,-1.35412e+09,-1.35374e+09,-1.35409e+09,11674.2,-0.00247421,0.0333513,-0,0.033443,16621.9,-47894.7,0,50697,11674.2
step02_gravity_refstate-mantle.xmf,948,-5.13799e-07,2.46384e-06,0,-9.36909e-07,-1.26733e+09,-1.26694e+09,-1.26727e+09,-125218,0.00332914,0.0526407,0,0.0527459,8982.25,-45211.4,0,46095,125218
step02_gravity_refstate-mantle.xmf,949,-5.92831e-07,2.50148e-06,0,-1.25113e-06,-1.29991e+09,-1.2995e+09,-1.29983e+09,-167213,0.00358508,0.0543191,0,0.0544373,7451.68,-46217.2,0,46814,167213
step02_gravity_refstate-mantle.xmf,950,-5.57565e-07,2.49823e-06,0,-1.0848e-06,-1.28475e+09,-1.28435e+09,-1.28468e+09,-144983,0.00341869,0.0533267,0,0.0534362,8204.84,-45749.2,0,46479.2,144983
step02_gravity_refstate-mantle.xmf,951,-5.62257e-07,2.6246e-06,0,-7.56536e-07,-1.28331e+09,-1.28289e+09,-1.28324e+09,-101111,0.00250925,0.0492705,0,0.0493343,9869.59,-45705,0,46758.5,101111
step02_gravity_refstate-mantle.xmf,952,-4.86918e-07,2.82307e-06,0,-2.46413e-07,-1.33151e+09,-1.33107e+09,-1.33145e+09,-32933.2,-0.00039339,0.0399484,-0,0.0399503,12576,-47194.9,0,48841.7,32933.2
step02_gravity_refstate-mantle.xmf,953,-5.73942e-07,2.73461e-06,0,-5.7508e-07,-1.29945e+09,-1.29901e+09,-1.29937e+09,-76859.4,0.00157637,0.0459851,0,0.0460121,10768.3,-46203.7,0,47441.9,76859.4
step02_gravity_refstate-mantle.xmf,954,-5.45669e-07,2.7981e-06,0,-4.02669e-07,-1.31551e+09,-1.31506e+09,-1.31544e+09,-53816.7,0.00059532,0.0428767,0,0.0428809,11666.2,-46700.1,0,48135.3,53816.7
step02_gravity_refstate-mantle.xmf,955,3.92574e-07,2.45227e-06,0,1.79294e-07,-1.5477e+09,-1.54742e+09,-1.54775e+09,23962.6,-0.00600852,0.0155916,-0,0.0167093,23779.6,-53877.8,0,58892.2,23962.6
step02_gravity_refstate-mantle.xmf,956,4.82089e-07,2.50154e-06,0,1.07927e-07,-1.63066e+09,-1.63039e+09,-1.63072e+09,14424.5,-0.00631897,0.00915567,-0,0.0111246,25140.6,-56441.2,0,61787.2,14424.5
step02_gravity_refstate-mantle.xmf,957,5.07889e-07,2.58265e-06,0,3.29047e-08,-1.70836e+09,-1.70808e+09,-1.70843e+09,4397.71,-0.00598736,0.00302452,-0,0.00670792,26578.9,-58841.7,0,64566.1,4397.71
step02_gravity_refstate-mantle.xmf,958,-8.65283e-08,4.72815e-06,0,9.96599e-08,-1.61782e+09,-1.61717e+09,-1.6178e+09,13319.6,0.0143225,0.0196251,0,0.0242957,-6799.25,-56046.4,-0,56457.3,13319.6
step02_gravity_refstate-mantle.xmf,959,-3.29349e-07,5.00517e-06,0,3.33127e-07,-1.60542e+09,-1.6047e+09,-1.60537e+09,44522.4,0.013259,0.0233044,0,0.0268122,-6165,-55662.4,-0,56002.8,44522.4
step02_gravity_refstate-mantle.xmf,960,2.11113e-07,4.63453e-06,0,-1.82383e-08,-1.65114e+09,-1.65055e+09,-1.65117e+09,-2437.54,0.0163779,0.013896,0,0.0214786,-7225.69,-57077.6,-0,57533.2,2437.54
step02_gravity_refstate-mantle.xmf,961,3.40005e-08,4.86345e-06,0,9.12312e-08,-1.63994e+09,-1.6393e+09,-1.63995e+09,12193.1,0.0157914,0.0165509,0,0.0228757,-6706.56,-56731,-0,57126,12193.1
step02_gravity_refstate-mantle.xmf,962,5.53222e-07,4.3419e-06,0,-8.13154e-08,-1.70102e+09,-1.70052e+09,-1.7011e+09,-10867.8,0.0180289,0.00604999,0,0.0190169,-8024.78,-58620,-0,59166.7,10867.8
step02_gravity_refstate-mantle.xmf,963,6.46043e-07,4.31673e-06,0,8.15564e-10,-1.74568e+09,-1.74519e+09,-1.74577e+09,109,0.0184617,-5.00977e-20,0,0.0184617,-8227.38,-60000,-0,60561.5,109
step02_gravity_refstate-mantle.xmf,964,-1.19701e-06,4.47283e-06,0,3.37457e-06,-1.51787e+09,-1.51711e+09,-1.51771e+09,451011,0.0022916,0.0556436,0,0.0556907,-3170.71,-52951,-0,53045.8,451011
step02_gravity_refstate-mantle.xmf,965,-1.00264e-06,3.87809e-06,0,4.23354e-06,-1.50762e+09,-1.50696e+09,-1.50748e+09,565812,0.000788419,0.0625153,0,0.0625202,-2642.91,-52634,-0,52700.3,565812
step02_gravity_refstate-mantle.xmf,966,-6.52335e-07,3.03346e-06,0,5.04528e-06,-1.49689e+09,-1.49639e+09,-1.4968e+09,674301,-0.000481016,0.0691325,-0,0.0691342,-2186.51,-52302.7,-0,52348.4,674301
step02_gravity_refstate-mantle.xmf,967,-1.79059e-07,2.06609e-06,0,5.83378e-06,-1.48732e+09,-1.48702e+09,-1.4873e+09,779684,-0.00137306,0.0752789,-0,0.0752914,-1782.26,-52008,-0,52038.5,779684
step02_gravity_refstate-mantle.xmf,968,4.05012e-07,9.61842e-07,0,6.63736e-06,-1.479e+09,-1.47892e+09,-1.47905e+09,887083,-0.00190117,0.081056,-0,0.0810783,-1414.79,-51751.9,-0,51771.3,887083
step02_gravity_refstate-mantle.xmf,969,2.57042e-06,-3.70136e-06,0,-3.78223e-06,-1.40511e+09,-1.40595e+09,-1.40545e+09,-505495,0.0036236,0.0821275,0,0.0822074,983.677,-49472.1,0,49481.9,505495
step02_gravity_refstate-mantle.xmf,970,1.15487e-06,-4.75551e-07,0,7.76456e-06,-1.47081e+09,-1.47103e+09,-1.47096e+09,1.03773e+06,-0.00205558,0.0878637,-0,0.0878877,-1000,-51500.3,-0,51510,1.03773e+06
step02_gravity_refstate-mantle.xmf,971,2.309e-06,-4.3591e-06,0,-5.2641e-06,-1.42231e+09,-1.4232e+09,-1.42262e+09,-703546,0.00388715,0.0840934,0,0.0841832,1000,-50000,0,50010,703546
step02_gravity_refstate-mantle.xmf,972,-2.74281e-07,1.89415e-06,0,-1.73634e-06,-1.30061e+09,-1.30032e+09,-1.30057e+09,-232061,0.00455341,0.0612787,0,0.0614477,5334.85,-46239.3,0,46546,232061
step02_gravity_refstate-mantle.xmf,973,4.32027e-07,4.81084e-07,0,-2.55176e-06,-1.34535e+09,-1.34534e+09,-1.3454e+09,-341043,0.00477848,0.0695188,0,0.0696828,2872.4,-47622.4,0,47708.9,341043
step02_gravity_refstate-mantle.xmf,974,1.88402e-07,9.51678e-07,0,-2.34883e-06,-1.33382e+09,-1.33372e+09,-1.33385e+09,-313921,0.00481692,0.0673559,0,0.0675279,3410.76,-47266.1,0,47389,313921
step02_gravity_refstate-mantle.xmf,975,-2.77826e-08,1.36325e-06,0,-2.14999e-06,-1.32328e+09,-1.3231e+09,-1.32328e+09,-287346,0.00479194,0.0651351,0,0.0653111,4024.84,-46940,0,47112.2,287346
step02_gravity_refstate-mantle.xmf,976,-1.87411e-07,1.67844e-06,0,-1.94974e-06,-1.31298e+09,-1.31273e+09,-1.31295e+09,-260583,0.00469427,0.0630496,0,0.0632241,4671.48,-46621.4,0,46854.9,260583
step02_gravity_refstate-mantle.xmf,977,-5.88532e-07,2.44513e-06,0,-1.44863e-06,-1.313e+09,-1.3126e+09,-1.31293e+09,-193609,0.00386483,0.0559149,0,0.0560483,6635.53,-46621.6,0,47091.4,193609
step02_gravity_refstate-mantle.xmf,978,-4.05948e-07,2.81515e-06,0,-1.1109e-07,-1.34702e+09,-1.34659e+09,-1.34696e+09,-14847.2,-0.00134223,0.0372271,-0,0.0372513,13519.8,-47674.3,0,49554.3,14847.2
step02_gravity_refstate-mantle.xmf,979,2.54093e-07,2.49024e-06,0,2.30532e-07,-1.48006e+09,-1.47976e+09,-1.48009e+09,30810.7,-0.00566926,0.0211793,-0,0.0219249,21150.6,-51787.6,0,55940.2,30810.7
step02_gravity_refstate-mantle.xmf,980,3.43228e-07,2.4729e-06,0,2.12611e-07,-1.51873e+09,-1.51845e+09,-1.51878e+09,28415.5,-0.00611893,0.0179989,-0,0.0190106,22219.7,-52982.8,0,57453.4,28415.5
step02_gravity_refstate-mantle.xmf,981,4.64929e-07,2.49575e-06,0,1.46922e-07,-1.60136e+09,-1.60108e+09,-1.60142e+09,19636.1,-0.00670961,0.0114929,-0,0.0133081,23736.8,-55535.9,0,60396,19636.1
step02_gravity_refstate-mantle.xmf,982,5.24946e-07,2.57734e-06,0,5.45798e-08,-1.6932e+09,-1.69293e+09,-1.69327e+09,7294.59,-0.00678085,0.00425391,-0,0.00800473,24954.9,-58373.7,0,63484.1,7294.59
step02_gravity_refstate-mantle.xmf,983,5.26088e-07,2.64673e-06,0,-1.5052e-09,-1.74585e+09,-1.74556e+09,-1.74592e+09,-201.17,-0.00651583,-4.14093e-19,-0,0.00651583,25642.2,-60000,0,65249.7,201.17
step02_gravity_refstate-mantle.xmf,984,-1.1564e-06,5.43748e-06,0,1.85461e-06,-1.55862e+09,-1.55773e+09,-1.55846e+09,247868,0.00753112,0.0404652,0,0.0411601,-4227.88,-54212.4,-0,54377,247868
step02_gravity_refstate-mantle.xmf,985,-5.8669e-07,5.26682e-06,0,6.58418e-07,-1.59406e+09,-1.59328e+09,-1.59398e+09,87997.5,0.0120271,0.0274039,0,0.029927,-5539.93,-55310.7,-0,55587.4,87997.5
step02_gravity_refstate-mantle.xmf,986,-9.77115e-07,5.45372e-06,0,1.34552e-06,-1.57219e+09,-1.57133e+09,-1.57205e+09,179829,0.00934036,0.035281,0,0.0364964,-4682.89,-54632.7,-0,54833.1,179829
step02_gravity_refstate-mantle.xmf,987,3.32626e-07,4.64366e-06,0,-3.20105e-08,-1.67204e+09,-1.67146e+09,-1.67208e+09,-4278.21,0.0173652,0.01076,0,0.0204286,-7317.64,-57723.8,-0,58185.8,4278.21
step02_gravity_refstate-mantle.xmf,988,1.28851e-07,4.99529e-06,0,8.78681e-08,-1.66064e+09,-1.65999e+09,-1.66065e+09,11743.6,0.0169779,0.0135109,0,0.0216978,-6647.12,-57371.2,-0,57755,11743.6
step02_gravity_refstate-mantle.xmf,989,5.53351e-07,4.53141e-06,0,-3.01781e-08,-1.72416e+09,-1.72362e+09,-1.72423e+09,-4033.3,0.0186321,0.00302962,0,0.0188769,-7720.61,-59335,-0,59835.2,4033.3
step02_gravity_refstate-mantle.xmf,990,4.17229e-07,4.71785e-06,0,-2.23995e-08,-1.69709e+09,-1.69651e+09,-1.69714e+09,-2993.7,0.0182808,0.0071695,0,0.0196365,-7285.18,-58498.3,-0,58950.2,2993.7
step02_gravity_refstate-mantle.xmf,991,-1.29344e-06,5.37558e-06,0,2.51503e-06,-1.54784e+09,-1.54695e+09,-1.54767e+09,336133,0.0058355,0.0461697,0,0.046537,-3711.6,-53878.4,-0,54006.1,336133
step02_gravity_refstate-mantle.xmf,992,-1.32435e-06,5.16726e-06,0,3.35481e-06,-1.5379e+09,-1.53703e+09,-1.53772e+09,448370,0.00416193,0.0526443,0,0.0528085,-3172.08,-53570.5,-0,53664.3,448370
step02_gravity_refstate-mantle.xmf,993,-4.78397e-07,2.21505e-06,0,-1.64198e-06,-1.31191e+09,-1.31155e+09,-1.31184e+09,-219451,0.00427309,0.058538,0,0.0586938,5901.04,-46587.9,0,46960.1,219451
step02_gravity_refstate-mantle.xmf,994,1.54604e-06,-2.02012e-06,0,-3.77418e-06,-1.39707e+09,-1.39754e+09,-1.39727e+09,-504419,0.00437777,0.07834,0,0.0784622,1434.64,-49221.1,0,49242,504419
step02_gravity_refstate-mantle.xmf,995,8.92619e-07,-7.92968e-07,0,-3.49655e-06,-1.38757e+09,-1.38779e+09,-1.38769e+09,-467314,0.00478007,0.0748458,0,0.0749983,1903.83,-48926.4,0,48963.4,467314
step02_gravity_refstate-mantle.xmf,996,1.60339e-07,6.95514e-07,0,-2.86957e-06,-1.366e+09,-1.36593e+09,-1.36603e+09,-383518,0.00501407,0.0690046,0,0.0691865,2900.2,-48259.2,0,48346.3,383518
step02_gravity_refstate-mantle.xmf,997,4.50157e-07,8.54045e-08,0,-3.17567e-06,-1.3771e+09,-1.37715e+09,-1.37716e+09,-424428,0.00497088,0.0716856,0,0.0718577,2401.22,-48602.3,0,48661.6,424428
step02_gravity_refstate-mantle.xmf,998,1.78133e-07,2.52786e-06,0,2.36492e-07,-1.4565e+09,-1.45619e+09,-1.45653e+09,31607.2,-0.00537548,0.0233369,-0,0.023948,19987.9,-51059.5,0,54832.4,31607.2
step02_gravity_refstate-mantle.xmf,999,-3.14026e-07,2.78494e-06,0,-1.54915e-09,-1.36207e+09,-1.36165e+09,-1.36203e+09,-207.044,-0.00220761,0.0347481,-0,0.0348181,14478.4,-48139.9,0,50270,207.044
step02_gravity_refstate-mantle.xmf,1000,9.23151e-08,2.57495e-06,0,2.28361e-07,-1.43498e+09,-1.43464e+09,-1.43499e+09,30520.5,-0.00496912,0.0254762,-0,0.0259563,18836.2,-50394.1,0,53799.3,30520.5
step02_gravity_refstate-mantle.xmf,1001,-2.12466e-07,2.73675e-06,0,8.76996e-08,-1.37741e+09,-1.37702e+09,-1.37738e+09,11721,-0.00300654,0.0323764,-0,0.0325157,15522.8,-48614.4,0,51032.5,11721
step02_gravity_refstate-mantle.xmf,1002,-3.805e-09,2.62699e-06,0,2.02413e-07,-1.41422e+09,-1.41387e+09,-1.41422e+09,27052.5,-0.00441996,0.02771,-0,0.0280603,17717.8,-49752.4,0,52813.1,27052.5
step02_gravity_refstate-mantle.xmf,1003,-1.06941e-07,2.68165e-06,0,1.55923e-07,-1.39474e+09,-1.39437e+09,-1.39473e+09,20839.1,-0.00375227,0.0300252,-0,0.0302588,16616.5,-49150.2,0,51883.1,20839.1
step02_gravity_refstate-mantle.xmf,1004,-7.46706e-07,2.74934e-06,0,-1.21959e-06,-1.32873e+09,-1.32826e+09,-1.32863e+09,-162998,0.00301228,0.0519056,0,0.0519929,7476.69,-47107,0,47696.6,162998
step02_gravity_refstate-mantle.xmf,1005,-6.33728e-07,2.68813e-06,0,-8.93596e-07,-1.30013e+09,-1.29968e+09,-1.30004e+09,-119429,0.00260211,0.0498713,0,0.0499391,9046.4,-46224,0,47101,119429
step02_gravity_refstate-mantle.xmf,1006,-6.94963e-07,2.73265e-06,0,-1.04903e-06,-1.31539e+09,-1.31493e+09,-1.3153e+09,-140203,0.00277968,0.0507771,0,0.0508532,8232.06,-46695.3,0,47415.4,140203
step02_gravity_refstate-mantle.xmf,1007,-6.45915e-07,2.82657e-06,0,-6.82921e-07,-1.31651e+09,-1.31604e+09,-1.31642e+09,-91272.4,0.00161685,0.0463734,0,0.0464016,9914.49,-46730.3,0,47770.5,91272.4
step02_gravity_refstate-mantle.xmf,1008,-4.69375e-07,2.9371e-06,0,-1.48791e-07,-1.3648e+09,-1.36435e+09,-1.36474e+09,-19885.9,-0.0015657,0.0369847,-0,0.0370178,12576.5,-48223.7,0,49836.7,19885.9
step02_gravity_refstate-mantle.xmf,1009,-5.58277e-07,2.94099e-06,0,-3.05579e-07,-1.34873e+09,-1.34826e+09,-1.34865e+09,-40840.6,-0.000511487,0.0399255,-0,0.0399288,11669.5,-47726.5,0,49132.5,40840.6
step02_gravity_refstate-mantle.xmf,1010,-6.2065e-07,2.90651e-06,0,-4.86474e-07,-1.33247e+09,-1.33199e+09,-1.33238e+09,-65017.2,0.000570681,0.0430771,0,0.0430809,10783.6,-47223.7,0,48439.3,65017.2
step02_gravity_refstate-mantle.xmf,1011,4.33564e-07,2.50447e-06,0,1.86047e-07,-1.57308e+09,-1.5728e+09,-1.57313e+09,24865.2,-0.00696462,0.0137989,-0,0.0154569,22361,-54662.1,0,59059,24865.2
step02_gravity_refstate-mantle.xmf,1012,5.209e-07,2.54954e-06,0,1.01786e-07,-1.65447e+09,-1.65419e+09,-1.65454e+09,13603.6,-0.00727913,0.00736058,-0,0.010352,23593.3,-57177,0,61853.4,13603.6
step02_gravity_refstate-mantle.xmf,1013,-8.0515e-07,5.49891e-06,0,1.01364e-06,-1.58699e+09,-1.58614e+09,-1.58688e+09,135473,0.0110231,0.0310141,0,0.0329147,-5006.77,-55091.2,-0,55318.2,135473
step02_gravity_refstate-mantle.xmf,1014,-1.96019e-07,5.16063e-06,0,2.88304e-07,-1.62809e+09,-1.62738e+09,-1.62807e+09,38531.9,0.014953,0.0199058,0,0.0248965,-6107.99,-56364.2,-0,56694.2,38531.9
step02_gravity_refstate-mantle.xmf,1015,-4.54655e-07,5.48909e-06,0,5.78078e-07,-1.61673e+09,-1.61594e+09,-1.61667e+09,77260.1,0.0139007,0.0237575,0,0.0275254,-5507.44,-56012.4,-0,56282.5,77260.1
step02_gravity_refstate-mantle.xmf,1016,-9.51935e-08,5.3239e-06,0,2.56168e-07,-1.6498e+09,-1.64907e+09,-1.64978e+09,34236.9,0.0163758,0.0165317,0,0.0232694,-6049.3,-57035.7,-0,57355.6,34236.9
step02_gravity_refstate-mantle.xmf,1017,5.02399e-07,4.75632e-06,0,3.45423e-10,-1.74568e+09,-1.74511e+09,-1.74574e+09,46.1658,0.0189486,-5.32573e-20,0,0.0189486,-7377.92,-60000,-0,60451.9,46.1658
step02_gravity_refstate-mantle.xmf,1018,-1.32547e-06,5.89718e-06,0,2.41912e-06,-1.56686e+09,-1.5659e+09,-1.56668e+09,323316,0.00767918,0.0429664,0,0.0436472,-3697.61,-54467.1,-0,54592.5,323316
step02_gravity_refstate-mantle.xmf,1019,-1.22304e-06,4.74276e-06,0,4.31254e-06,-1.52773e+09,-1.52693e+09,-1.52756e+09,576371,0.00254549,0.0597896,0,0.0598437,-2646.88,-53255.9,-0,53321.6,576371
step02_gravity_refstate-mantle.xmf,1020,-9.43742e-07,3.96231e-06,0,5.49355e-06,-1.51665e+09,-1.51599e+09,-1.51652e+09,734212,0.000987449,0.0684306,0,0.0684377,-2076.94,-52913.7,-0,52954.4,734212
step02_gravity_refstate-mantle.xmf,1021,-4.76164e-07,2.92982e-06,0,6.14313e-06,-1.50259e+09,-1.50213e+09,-1.50253e+09,821029,-0.000289693,0.0742902,-0,0.0742907,-1768.68,-52479.8,-0,52509.6,821029
step02_gravity_refstate-mantle.xmf,1022,-1.51383e-08,2.08976e-06,0,7.06126e-06,-1.49543e+09,-1.49515e+09,-1.49543e+09,943738,-0.000865225,0.0804295,-0,0.0804341,-1405.37,-52259.6,-0,52278.5,943738
step02_gravity_refstate-mantle.xmf,1023,5.89476e-07,9.21479e-07,0,8.2191e-06,-1.48701e+09,-1.48697e+09,-1.48709e+09,1.09848e+06,-0.00122981,0.0877523,-0,0.0877609,-1000,-52000.6,-0,52010.2,1.09848e+06
step02_gravity_refstate-mantle.xmf,1024,1.19491e-06,-1.7051e-06,0,-4.42163e-06,-1.4137e+09,-1.41409e+09,-1.41386e+09,-590951,0.0046142,0.0792742,0,0.0794084,1443.1,-49733.5,0,49754.4,590951
step02_gravity_refstate-mantle.xmf,1025,-4.56469e-07,2.10744e-06,0,-1.8261e-06,-1.32379e+09,-1.32345e+09,-1.32373e+09,-244058,0.00445008,0.0598713,0,0.0600364,5328.63,-46954.7,0,47256.1,244058
step02_gravity_refstate-mantle.xmf,1026,-5.66232e-08,1.16233e-06,0,-2.59522e-06,-1.35521e+09,-1.35505e+09,-1.3552e+09,-346851,0.00497351,0.0666122,0,0.0667976,3420.82,-47925.6,0,48047.5,346851
step02_gravity_refstate-mantle.xmf,1027,-2.28955e-07,1.53681e-06,0,-2.34338e-06,-1.34458e+09,-1.34435e+09,-1.34455e+09,-313192,0.00486631,0.0643638,0,0.0645475,3983.36,-47597,0,47763.4,313192
step02_gravity_refstate-mantle.xmf,1028,-4.01395e-07,1.90383e-06,0,-2.08286e-06,-1.33613e+09,-1.33582e+09,-1.33607e+09,-278374,0.00466492,0.061766,0,0.0619419,4672.62,-47335.7,0,47565.8,278374
step02_gravity_refstate-mantle.xmf,1029,-6.57026e-07,2.46926e-06,0,-1.63466e-06,-1.33324e+09,-1.33282e+09,-1.33315e+09,-218472,0.00395508,0.0565336,0,0.0566718,6027.74,-47246.1,0,47629.1,218472
step02_gravity_refstate-mantle.xmf,1030,-3.6412e-07,2.90564e-06,0,-1.8892e-08,-1.38101e+09,-1.38057e+09,-1.38096e+09,-2524.91,-0.00256238,0.0342368,-0,0.0343325,13508.5,-48724.9,0,50562.8,2524.91
step02_gravity_refstate-mantle.xmf,1031,-7.86812e-07,2.75832e-06,0,-1.39635e-06,-1.34281e+09,-1.34233e+09,-1.3427e+09,-186623,0.00324019,0.0530753,0,0.0531742,6765.76,-47541.6,0,48020.6,186623
step02_gravity_refstate-mantle.xmf,1032,2.70059e-07,2.55457e-06,0,2.48173e-07,-1.49849e+09,-1.49819e+09,-1.49853e+09,33168.3,-0.00642109,0.0200702,-0,0.0210723,19885.5,-52357.3,0,56006.4,33168.3
step02_gravity_refstate-mantle.xmf,1033,3.25787e-07,2.52158e-06,0,2.33098e-07,-1.51714e+09,-1.51685e+09,-1.51718e+09,31153.5,-0.00654322,0.0183732,-0,0.0195036,20861.5,-52933.6,0,56896.1,31153.5
step02_gravity_refstate-mantle.xmf,1034,4.06317e-07,2.5328e-06,0,2.15808e-07,-1.55585e+09,-1.55557e+09,-1.55591e+09,28842.8,-0.00723822,0.0153169,-0,0.016941,21034.3,-54130,0,58073.2,28842.8
step02_gravity_refstate-mantle.xmf,1035,5.08408e-07,2.54623e-06,0,1.43477e-07,-1.62586e+09,-1.62559e+09,-1.62593e+09,19175.7,-0.00767588,0.00968388,-0,0.0123571,22312.8,-56293.2,0,60554,19175.7
step02_gravity_refstate-mantle.xmf,1036,5.58859e-07,2.61479e-06,0,5.29659e-08,-1.70275e+09,-1.70248e+09,-1.70283e+09,7078.9,-0.00781081,0.00352221,-0,0.00856824,23122.9,-58669,0,63061.2,7078.9
step02_gravity_refstate-mantle.xmf,1037,5.53082e-07,2.66513e-06,0,-1.11136e-09,-1.74584e+09,-1.74556e+09,-1.74591e+09,-148.533,-0.00742083,-3.42462e-19,-0,0.00742083,23965.9,-60000,0,64609.3,148.533
step02_gravity_refstate-mantle.xmf,1038,-1.15738e-06,5.83073e-06,0,1.82669e-06,-1.57531e+09,-1.57437e+09,-1.57515e+09,244137,0.00907493,0.0380578,0,0.0391248,-4154.27,-54729,-0,54886.4,244137
step02_gravity_refstate-mantle.xmf,1039,-7.33102e-07,5.78963e-06,0,9.67596e-07,-1.60552e+09,-1.60465e+09,-1.60542e+09,129319,0.0126171,0.0281843,0,0.0308795,-4922.86,-55665,-0,55882.2,129319
step02_gravity_refstate-mantle.xmf,1040,-1.01477e-06,6.00476e-06,0,1.47165e-06,-1.59256e+09,-1.59162e+09,-1.59242e+09,196686,0.0109662,0.0334613,0,0.0352124,-4378.83,-55263.2,-0,55436.4,196686
step02_gravity_refstate-mantle.xmf,1041,2.09719e-07,5.10493e-06,0,7.47201e-08,-1.68312e+09,-1.68246e+09,-1.68314e+09,9986.35,0.0180118,0.0100572,0,0.0206294,-6612.18,-58066.4,-0,58441.7,9986.35
step02_gravity_refstate-mantle.xmf,1042,-2.38481e-08,5.51e-06,0,2.30421e-07,-1.67156e+09,-1.67082e+09,-1.67155e+09,30795.8,0.01756,0.0130076,0,0.021853,-5992.34,-57708.8,-0,58019.1,30795.8
step02_gravity_refstate-mantle.xmf,1043,3.95465e-07,4.96976e-06,0,4.29072e-09,-1.72419e+09,-1.72358e+09,-1.72424e+09,573.455,0.0189847,0.00331753,0,0.0192723,-6977.14,-59336.2,-0,59745,573.455
step02_gravity_refstate-mantle.xmf,1044,-1.47331e-06,5.86005e-06,0,3.24184e-06,-1.55738e+09,-1.5564e+09,-1.55718e+09,433272,0.00602262,0.0492801,0,0.0496468,-3176.29,-54173.1,-0,54266.2,433272
step02_gravity_refstate-mantle.xmf,1045,-1.49146e-06,5.65548e-06,0,4.27454e-06,-1.54787e+09,-1.54692e+09,-1.54767e+09,571293,0.00434968,0.0564952,0,0.0566624,-2651.89,-53878.8,-0,53944,571293
step02_gravity_refstate-mantle.xmf,1046,8.34917e-07,-1.42947e-06,0,-4.98612e-06,-1.43053e+09,-1.43083e+09,-1.43064e+09,-666395,0.0044756,0.0801983,0,0.0803231,1435.35,-50251.4,0,50271.9,666395
step02_gravity_refstate-mantle.xmf,1047,1.9796e-06,-3.24991e-06,0,-6.18793e-06,-1.43847e+09,-1.43917e+09,-1.43873e+09,-827017,0.00362872,0.0859906,0,0.0860671,1000,-50499.8,0,50509.7,827017
step02_gravity_refstate-mantle.xmf,1048,5.36696e-07,-5.64455e-07,0,-3.98079e-06,-1.4049e+09,-1.40505e+09,-1.40497e+09,-532032,0.00496809,0.0752255,0,0.0753894,1901.64,-49460,0,49496.6,532032
step02_gravity_refstate-mantle.xmf,1049,-3.31295e-07,1.43473e-06,0,-2.79914e-06,-1.37591e+09,-1.37568e+09,-1.37587e+09,-374105,0.0050021,0.0658121,0,0.0660019,3415.49,-48563.9,0,48683.9,374105
step02_gravity_refstate-mantle.xmf,1050,1.27465e-07,3.34125e-07,0,-3.53865e-06,-1.39586e+09,-1.39583e+09,-1.39588e+09,-472940,0.005109,0.071652,0,0.071834,2387.86,-49180.3,0,49238.2,472940
step02_gravity_refstate-mantle.xmf,1051,-1.4622e-07,9.73375e-07,0,-3.14371e-06,-1.38599e+09,-1.38584e+09,-1.38597e+09,-420157,0.00510342,0.0685189,0,0.0687087,2895.6,-48875.3,0,48961,420157
step02_gravity_refstate-mantle.xmf,1052,1.92712e-07,2.6026e-06,0,2.5524e-07,-1.47763e+09,-1.47731e+09,-1.47766e+09,34112.8,-0.00615012,0.0220867,-0,0.022927,18778.1,-51712.5,0,55016.4,34112.8
step02_gravity_refstate-mantle.xmf,1053,-2.49837e-07,2.85422e-06,0,8.41742e-08,-1.39743e+09,-1.39702e+09,-1.3974e+09,11249.9,-0.00347587,0.0316596,-0,0.0318498,14484.6,-49232.9,0,51319.4,11249.9
step02_gravity_refstate-mantle.xmf,1054,9.76722e-08,2.66143e-06,0,2.46748e-07,-1.45652e+09,-1.45617e+09,-1.45653e+09,32977.8,-0.00570826,0.0242833,-0,0.0249452,17660.9,-51059.8,0,54027.9,32977.8
step02_gravity_refstate-mantle.xmf,1055,-1.29663e-07,2.79226e-06,0,1.63585e-07,-1.41577e+09,-1.41538e+09,-1.41576e+09,21863.2,-0.00433564,0.0291093,-0,0.0294304,15510.4,-49800,0,52159.5,21863.2
step02_gravity_refstate-mantle.xmf,1056,-1.17435e-08,2.72638e-06,0,2.17344e-07,-1.43567e+09,-1.4353e+09,-1.43567e+09,29048,-0.0050937,0.0266379,-0,0.0271205,16568.3,-50415.2,0,53067.9,29048
step02_gravity_refstate-mantle.xmf,1057,-8.68153e-07,2.99075e-06,0,-1.13776e-06,-1.35538e+09,-1.35487e+09,-1.35527e+09,-152062,0.00227643,0.0493727,0,0.0494251,7529.8,-47930.2,0,48518,152062
step02_gravity_refstate-mantle.xmf,1058,-8.07992e-07,2.96426e-06,0,-9.69201e-07,-1.34458e+09,-1.34408e+09,-1.34447e+09,-129534,0.00198612,0.0481083,0,0.0481493,8267.51,-47596.9,0,48309.5,129534
step02_gravity_refstate-mantle.xmf,1059,-7.36597e-07,2.91873e-06,0,-8.08904e-07,-1.33347e+09,-1.33298e+09,-1.33337e+09,-108110,0.0016898,0.0468772,0,0.0469077,9088.1,-47254,0,48120,108110
step02_gravity_refstate-mantle.xmf,1060,-4.22664e-07,3.0331e-06,0,-4.11188e-08,-1.3984e+09,-1.39794e+09,-1.39834e+09,-5495.53,-0.00287883,0.0338911,-0,0.0340131,12572.4,-49262,0,50841.1,5495.53
step02_gravity_refstate-mantle.xmf,1061,-7.05716e-07,3.02065e-06,0,-5.79464e-07,-1.34946e+09,-1.34896e+09,-1.34936e+09,-77445.4,0.000566568,0.0433666,0,0.0433703,9928.04,-47748.2,0,48769.5,77445.4
step02_gravity_refstate-mantle.xmf,1062,-5.40672e-07,3.0655e-06,0,-1.9143e-07,-1.38173e+09,-1.38124e+09,-1.38165e+09,-25584.6,-0.00176547,0.0368552,-0,0.0368975,11674.1,-48746.3,0,50124.7,25584.6
step02_gravity_refstate-mantle.xmf,1063,-6.38188e-07,3.06482e-06,0,-3.71333e-07,-1.36544e+09,-1.36495e+09,-1.36536e+09,-49628.7,-0.000607475,0.0400014,-0,0.040006,10800.2,-48242.7,0,49436.8,49628.7
step02_gravity_refstate-mantle.xmf,1064,4.8439e-07,2.56215e-06,0,1.86187e-07,-1.60149e+09,-1.60121e+09,-1.60156e+09,24883.9,-0.00801283,0.0117267,-0,0.0142029,21002.7,-55540.4,0,59378.8,24883.9
step02_gravity_refstate-mantle.xmf,1065,5.54662e-07,2.59066e-06,0,9.58708e-08,-1.67095e+09,-1.67068e+09,-1.67103e+09,12813.1,-0.00809742,0.00610508,-0,0.010141,22297.1,-57686.6,0,61845.8,12813.1
step02_gravity_refstate-mantle.xmf,1066,-3.56494e-07,5.69439e-06,0,5.13648e-07,-1.63859e+09,-1.63778e+09,-1.63854e+09,68649,0.0155102,0.0201554,0,0.0254324,-5454.37,-56688.7,-0,56950.5,68649
step02_gravity_refstate-mantle.xmf,1067,-6.48399e-07,6.08652e-06,0,8.75969e-07,-1.62708e+09,-1.62618e+09,-1.627e+09,117073,0.0143674,0.0244364,0,0.0283471,-4875.2,-56332.4,-0,56542.9,117073
step02_gravity_refstate-mantle.xmf,1068,-2.92408e-07,5.91055e-06,0,4.54862e-07,-1.65997e+09,-1.65914e+09,-1.65993e+09,60792.3,0.0168513,0.0164669,0,0.0235611,-5400.38,-57350.2,-0,57603.9,60792.3
step02_gravity_refstate-mantle.xmf,1069,2.41018e-07,5.25422e-06,0,6.24006e-08,-1.70669e+09,-1.70602e+09,-1.70672e+09,8339.84,0.0187928,0.00639404,0,0.0198508,-6517.52,-58795.2,-0,59155.3,8339.84
step02_gravity_refstate-mantle.xmf,1070,2.85089e-07,5.30844e-06,0,-2.76549e-10,-1.74568e+09,-1.74501e+09,-1.74572e+09,-36.9608,0.0192701,-4.18318e-20,0,0.0192701,-6567.63,-60000,-0,60358.4,36.9608
step02_gravity_refstate-mantle.xmf,1071,-1.33217e-06,6.36541e-06,0,2.22594e-06,-1.58538e+09,-1.58435e+09,-1.5852e+09,297497,0.00951121,0.0392394,0,0.0403757,-3724.83,-55040.2,-0,55166,297497
step02_gravity_refstate-mantle.xmf,1072,-1.58147e-06,6.53169e-06,0,3.08259e-06,-1.57646e+09,-1.57537e+09,-1.57624e+09,411989,0.00784976,0.0456024,0,0.046273,-3178.44,-54763.4,-0,54855.5,411989
step02_gravity_refstate-mantle.xmf,1073,-1.37595e-06,5.23501e-06,0,5.38206e-06,-1.53845e+09,-1.53757e+09,-1.53827e+09,719313,0.0028315,0.0641076,0,0.0641701,-2166.73,-53587.5,-0,53631.3,719313
step02_gravity_refstate-mantle.xmf,1074,-5.79573e-07,3.39174e-06,0,7.13875e-06,-1.5135e+09,-1.51297e+09,-1.51342e+09,954094,0.000289968,0.0778965,0,0.0778971,-1466.48,-52817.2,-0,52837.6,954094
step02_gravity_refstate-mantle.xmf,1075,-1.21963e-08,2.28317e-06,0,8.52005e-06,-1.5032e+09,-1.50289e+09,-1.5032e+09,1.13871e+06,-0.000432227,0.0869523,-0,0.0869534,-1000,-52500.2,-0,52509.7,1.13871e+06
step02_gravity_refstate-mantle.xmf,1076,1.84519e-07,-5.30792e-08,0,-4.27983e-06,-1.42255e+09,-1.42258e+09,-1.42258e+09,-572000,0.00487274,0.0754422,0,0.0755994,1899.18,-50004.3,0,50040.3,572000
step02_gravity_refstate-mantle.xmf,1077,8.34741e-07,-9.38511e-07,0,-5.52995e-06,-1.44678e+09,-1.44701e+09,-1.44689e+09,-739078,0.0038188,0.0810352,0,0.0811251,1414.41,-50754.6,0,50774.3,739078
step02_gravity_refstate-mantle.xmf,1078,-6.63512e-07,2.3811e-06,0,-1.85988e-06,-1.34651e+09,-1.34611e+09,-1.34642e+09,-248572,0.00419698,0.0580776,0,0.0582291,5383.72,-47656,0,47959.1,248572
step02_gravity_refstate-mantle.xmf,1079,-4.88188e-07,1.82984e-06,0,-2.48099e-06,-1.36715e+09,-1.36684e+09,-1.36709e+09,-331584,0.00481102,0.0631483,0,0.0633313,3992.14,-48293.3,0,48458.1,331584
step02_gravity_refstate-mantle.xmf,1080,-6.59382e-07,2.24469e-06,0,-2.1472e-06,-1.36088e+09,-1.3605e+09,-1.3608e+09,-286974,0.00444914,0.0599477,0,0.0601126,4725.66,-48099.5,0,48331.1,286974
step02_gravity_refstate-mantle.xmf,1081,-8.34326e-07,2.7392e-06,0,-1.60896e-06,-1.35684e+09,-1.35636e+09,-1.35672e+09,-215038,0.00348453,0.0544272,0,0.0545386,6082.26,-47974.6,0,48358.6,215038
step02_gravity_refstate-mantle.xmf,1082,-9.335e-07,3.03013e-06,0,-1.31006e-06,-1.36865e+09,-1.36812e+09,-1.36853e+09,-175090,0.00249625,0.0505135,0,0.0505751,6836.67,-48339.7,0,48820.7,175090
step02_gravity_refstate-mantle.xmf,1083,3.61705e-07,2.57444e-06,0,2.44035e-07,-1.53948e+09,-1.53919e+09,-1.53953e+09,32615.3,-0.00737586,0.0168355,-0,0.0183803,19828.2,-53624.1,0,57172.6,32615.3
step02_gravity_refstate-mantle.xmf,1084,-2.93183e-07,2.97669e-06,0,7.83676e-08,-1.41553e+09,-1.4151e+09,-1.4155e+09,10473.8,-0.00391363,0.0310995,-0,0.0313448,13507.2,-49792,0,51591.6,10473.8
step02_gravity_refstate-mantle.xmf,1085,2.98242e-07,2.62288e-06,0,2.65153e-07,-1.52014e+09,-1.51983e+09,-1.52018e+09,35437.7,-0.00729199,0.0186781,-0,0.020051,18706.8,-53026.3,0,56229.2,35437.7
step02_gravity_refstate-mantle.xmf,1086,4.58408e-07,2.59302e-06,0,2.19114e-07,-1.58364e+09,-1.58336e+09,-1.5837e+09,29284.6,-0.0082878,0.0133152,-0,0.0156839,19789,-54988.9,0,58441.3,29284.6
step02_gravity_refstate-mantle.xmf,1087,5.63747e-07,2.61061e-06,0,1.2522e-07,-1.65929e+09,-1.65902e+09,-1.65937e+09,16735.6,-0.00877666,0.00711544,-0,0.0112986,20909.6,-57326.6,0,61020.9,16735.6
step02_gravity_refstate-mantle.xmf,1088,5.89892e-07,2.6477e-06,0,5.69952e-08,-1.70623e+09,-1.70595e+09,-1.70631e+09,7617.41,-0.00872406,0.00327478,-0,0.00931845,21556.5,-58776.6,0,62604.9,7617.41
step02_gravity_refstate-mantle.xmf,1089,5.82638e-07,2.68916e-06,0,-1.4298e-09,-1.74583e+09,-1.74555e+09,-1.74591e+09,-191.093,-0.00832702,-3.18178e-19,-0,0.00832702,22370,-60000,0,64034.5,191.093
step02_gravity_refstate-mantle.xmf,1090,-9.66156e-07,6.44502e-06,0,1.35266e-06,-1.61554e+09,-1.61455e+09,-1.61541e+09,180783,0.0129638,0.0294048,0,0.0321357,-4313.67,-55974.6,-0,56140.6,180783
step02_gravity_refstate-mantle.xmf,1091,1.43243e-08,5.68433e-06,0,1.88696e-07,-1.69461e+09,-1.69385e+09,-1.69461e+09,25219.3,0.0185083,0.00912852,0,0.020637,-5929.03,-58421.6,-0,58721.7,25219.3
step02_gravity_refstate-mantle.xmf,1092,-2.62843e-07,6.15523e-06,0,3.90992e-07,-1.68184e+09,-1.68098e+09,-1.6818e+09,52256,0.0179385,0.0125132,0,0.0218717,-5346.64,-58026.5,-0,58272.3,52256
step02_gravity_refstate-mantle.xmf,1093,2.31611e-07,5.37735e-06,0,3.35491e-08,-1.72759e+09,-1.7269e+09,-1.72762e+09,4483.84,0.0192037,0.00303056,0,0.0194413,-6404.44,-59441,-0,59785.1,4483.84
step02_gravity_refstate-mantle.xmf,1094,-1.75776e-06,6.51919e-06,0,4.10069e-06,-1.56711e+09,-1.56601e+09,-1.56688e+09,548057,0.00610683,0.0527497,0,0.053102,-2662.9,-54473.5,-0,54538.6,548057
step02_gravity_refstate-mantle.xmf,1095,-1.15058e-06,4.61556e-06,0,6.5708e-06,-1.52972e+09,-1.52895e+09,-1.52956e+09,878188,0.00157761,0.0721228,0,0.0721401,-1702.61,-53317.6,-0,53344.8,878188
step02_gravity_refstate-mantle.xmf,1096,-1.768e-06,6.3108e-06,0,5.21179e-06,-1.55797e+09,-1.55689e+09,-1.55773e+09,696555,0.00449434,0.0601167,0,0.0602845,-2205.25,-54190.6,-0,54235.4,696555
step02_gravity_refstate-mantle.xmf,1097,8.78469e-08,2.47091e-07,0,-4.59022e-06,-1.43931e+09,-1.43929e+09,-1.43932e+09,-613483,0.00436358,0.0759296,0,0.0760549,1849.02,-50522,0,50555.9,613483
step02_gravity_refstate-mantle.xmf,1098,1.63899e-06,-1.88458e-06,0,-7.09997e-06,-1.45462e+09,-1.45509e+09,-1.45484e+09,-948911,0.00288948,0.0872741,0,0.0873219,1000,-50999.8,0,51009.6,948911
step02_gravity_refstate-mantle.xmf,1099,-7.2238e-07,2.10752e-06,0,-2.58581e-06,-1.38697e+09,-1.38659e+09,-1.38687e+09,-345594,0.00461963,0.0621652,0,0.0623366,3951.51,-48904.6,0,49064,345594
step02_gravity_refstate-mantle.xmf,1100,-2.04865e-07,7.10442e-07,0,-3.78816e-06,-1.41429e+09,-1.41417e+09,-1.41427e+09,-506288,0.005005,0.071412,0,0.0715872,2380.37,-49748.5,0,49805.4,506288
step02_gravity_refstate-mantle.xmf,1101,-6.18544e-07,1.77486e-06,0,-2.9364e-06,-1.39624e+09,-1.39592e+09,-1.39615e+09,-392450,0.00483621,0.0648631,0,0.0650431,3406.2,-49190.7,0,49308.4,392450
step02_gravity_refstate-mantle.xmf,1102,-4.54685e-07,1.32477e-06,0,-3.33397e-06,-1.40536e+09,-1.40512e+09,-1.4053e+09,-445585,0.00497735,0.0679272,0,0.0681093,2881.72,-49472.4,0,49556.3,445585
step02_gravity_refstate-mantle.xmf,1103,-9.51351e-07,3.21209e-06,0,-1.01986e-06,-1.3798e+09,-1.37924e+09,-1.37967e+09,-136305,0.00138493,0.0467847,0,0.0468052,7606.29,-48684.4,0,49275,136305
step02_gravity_refstate-mantle.xmf,1104,2.09732e-07,2.68303e-06,0,2.74493e-07,-1.49834e+09,-1.49801e+09,-1.49837e+09,36686,-0.00697462,0.0208527,-0,0.0219882,17607.6,-52352.5,0,55234.2,36686
step02_gravity_refstate-mantle.xmf,1105,-1.59435e-07,2.90691e-06,0,1.68393e-07,-1.43393e+09,-1.43352e+09,-1.43391e+09,22505.8,-0.00486423,0.0284202,-0,0.0288334,14474,-50361,0,52399.7,22505.8
step02_gravity_refstate-mantle.xmf,1106,1.01149e-07,2.75439e-06,0,2.65492e-07,-1.47652e+09,-1.47616e+09,-1.47653e+09,35482.9,-0.00646057,0.0232036,-0,0.0240862,16524.7,-51677.8,0,54255.5,35482.9
step02_gravity_refstate-mantle.xmf,1107,-2.48558e-08,2.83123e-06,0,2.31175e-07,-1.45467e+09,-1.45429e+09,-1.45467e+09,30896.5,-0.00573955,0.0257539,-0,0.0263857,15477.5,-51002.4,0,53299.1,30896.5
step02_gravity_refstate-mantle.xmf,1108,-8.72952e-07,3.13486e-06,0,-9.09841e-07,-1.36699e+09,-1.36646e+09,-1.36688e+09,-121600,0.00134415,0.0463008,0,0.0463203,8164.39,-48289.2,0,48974.5,121600
step02_gravity_refstate-mantle.xmf,1109,-8.13568e-07,3.14452e-06,0,-7.08977e-07,-1.36668e+09,-1.36615e+09,-1.36657e+09,-94754.8,0.000649459,0.0439913,0,0.0439961,9002.58,-48280,0,49112.1,94754.8
step02_gravity_refstate-mantle.xmf,1110,-3.41894e-07,3.10698e-06,0,6.94133e-08,-1.43248e+09,-1.43202e+09,-1.43243e+09,9277.09,-0.00433549,0.0306675,-0,0.0309724,12564.5,-50315.4,0,51860.5,9277.09
step02_gravity_refstate-mantle.xmf,1111,-4.87468e-07,3.16759e-06,0,-6.82619e-08,-1.4148e+09,-1.41432e+09,-1.41474e+09,-9123.2,-0.00317374,0.0336739,-0,0.0338231,11670.9,-49768.7,0,51118.8,9123.2
step02_gravity_refstate-mantle.xmf,1112,-7.26732e-07,3.19741e-06,0,-4.4341e-07,-1.38235e+09,-1.38183e+09,-1.38226e+09,-59261.7,-0.000706746,0.0401353,-0,0.0401416,9959.55,-48764.7,0,49771.4,59261.7
step02_gravity_refstate-mantle.xmf,1113,-6.18612e-07,3.20034e-06,0,-2.39773e-07,-1.39805e+09,-1.39754e+09,-1.39797e+09,-32045.7,-0.00195042,0.0368298,-0,0.0368814,10808.1,-49250.3,0,50422.3,32045.7
step02_gravity_refstate-mantle.xmf,1114,5.39843e-07,2.62232e-06,0,1.76071e-07,-1.62962e+09,-1.62934e+09,-1.62969e+09,23531.9,-0.00907222,0.00961514,-0,0.0132195,19740.1,-56409.7,0,59764,23531.9
step02_gravity_refstate-mantle.xmf,1115,-1.31221e-06,6.81371e-06,0,1.99403e-06,-1.60507e+09,-1.60398e+09,-1.60489e+09,266502,0.0113854,0.0350624,0,0.0368646,-3746.95,-55649.7,-0,55775.7,266502
step02_gravity_refstate-mantle.xmf,1116,-5.89209e-07,6.34274e-06,0,7.76933e-07,-1.64838e+09,-1.64745e+09,-1.6483e+09,103837,0.0158806,0.020509,0,0.0259386,-4831.16,-56991.3,-0,57195.7,103837
step02_gravity_refstate-mantle.xmf,1117,-9.24123e-07,6.82319e-06,0,1.22305e-06,-1.63696e+09,-1.63592e+09,-1.63683e+09,163461,0.0146439,0.0252465,0,0.0291861,-4267.52,-56637.4,-0,56797.9,163461
step02_gravity_refstate-mantle.xmf,1118,-5.72936e-07,6.6197e-06,0,6.77055e-07,-1.66956e+09,-1.66859e+09,-1.66948e+09,90488.4,0.0171107,0.0164107,0,0.0237084,-4782.84,-57646.2,-0,57844.3,90488.4
step02_gravity_refstate-mantle.xmf,1119,1.2371e-08,5.84467e-06,0,1.14924e-07,-1.7183e+09,-1.71752e+09,-1.7183e+09,15359.6,0.0191275,0.00497503,0,0.0197639,-5871.67,-59153.9,-0,59444.6,15359.6
step02_gravity_refstate-mantle.xmf,1120,-7.87228e-09,5.96917e-06,0,-4.64923e-09,-1.74569e+09,-1.74489e+09,-1.74569e+09,-621.37,0.019378,-6.05014e-20,0,0.019378,-5794.24,-60000,-0,60279.1,621.37
step02_gravity_refstate-mantle.xmf,1121,-1.66893e-06,7.16673e-06,0,2.84076e-06,-1.59575e+09,-1.59457e+09,-1.59553e+09,379668,0.00967494,0.0414817,0,0.042595,-3181.83,-55360.5,-0,55451.9,379668
step02_gravity_refstate-mantle.xmf,1122,-1.97902e-06,7.38975e-06,0,3.89348e-06,-1.58638e+09,-1.58513e+09,-1.58612e+09,520364,0.0078323,0.0487355,0,0.0493609,-2650.98,-55069.5,-0,55133.2,520364
step02_gravity_refstate-mantle.xmf,1123,-1.66249e-06,5.91847e-06,0,6.39588e-06,-1.54927e+09,-1.54825e+09,-1.54904e+09,854810,0.00305992,0.0678953,0,0.0679643,-1770.68,-53921.4,-0,53950.4,854810
step02_gravity_refstate-mantle.xmf,1124,-9.93688e-07,4.35904e-06,0,7.73826e-06,-1.52749e+09,-1.52678e+09,-1.52736e+09,1.03422e+06,0.00101705,0.0788345,0,0.0788411,-1311.4,-53249.3,-0,53265.5,1.03422e+06
step02_gravity_refstate-mantle.xmf,1125,-6.22085e-07,3.60543e-06,0,8.70542e-06,-1.51939e+09,-1.51882e+09,-1.5193e+09,1.16348e+06,0.000338918,0.0854818,0,0.0854825,-1000,-52999.4,-0,53008.9,1.16348e+06
step02_gravity_refstate-mantle.xmf,1126,-4.36557e-07,1.18936e-06,0,-3.92964e-06,-1.43389e+09,-1.43367e+09,-1.43383e+09,-525197,0.00448863,0.0708907,0,0.0710327,2374.66,-50353.5,0,50409.4,525197
step02_gravity_refstate-mantle.xmf,1127,1.31217e-07,5.42248e-07,0,-5.02564e-06,-1.45495e+09,-1.45489e+09,-1.45497e+09,-671676,0.00354623,0.0762988,0,0.0763812,1801.17,-51006.1,0,51037.9,671676
step02_gravity_refstate-mantle.xmf,1128,6.80883e-07,-8.5951e-08,0,-6.1365e-06,-1.4628e+09,-1.4629e+09,-1.46289e+09,-820143,0.00290768,0.0813283,0,0.0813803,1411.35,-51250.8,0,51270.2,820143
step02_gravity_refstate-mantle.xmf,1129,-8.55926e-07,2.6628e-06,0,-1.83885e-06,-1.36667e+09,-1.3662e+09,-1.36656e+09,-245763,0.00379094,0.0561576,0,0.0562854,5466.68,-48278.1,0,48586.6,245763
step02_gravity_refstate-mantle.xmf,1130,-7.82123e-07,2.34162e-06,0,-2.30591e-06,-1.3794e+09,-1.37898e+09,-1.3793e+09,-308185,0.00436926,0.0599576,0,0.0601166,4457.16,-48671,0,48874.6,308185
step02_gravity_refstate-mantle.xmf,1131,-1.01082e-06,3.02455e-06,0,-1.58421e-06,-1.38231e+09,-1.38178e+09,-1.38218e+09,-211730,0.00287562,0.0524805,0,0.0525592,6004.73,-48761.2,0,49129.5,211730
step02_gravity_refstate-mantle.xmf,1132,-1.0339e-06,3.30135e-06,0,-1.15323e-06,-1.3948e+09,-1.39422e+09,-1.39466e+09,-154129,0.0014197,0.0474504,0,0.0474716,6975.54,-49147.4,0,49640,154129
step02_gravity_refstate-mantle.xmf,1133,4.03196e-07,2.63821e-06,0,2.54964e-07,-1.56245e+09,-1.56215e+09,-1.5625e+09,34076,-0.00833882,0.0152513,-0,0.0173821,18656.8,-54334,0,57447.9,34076
step02_gravity_refstate-mantle.xmf,1134,-1.93302e-07,3.02836e-06,0,1.70837e-07,-1.45067e+09,-1.45024e+09,-1.45065e+09,22832.3,-0.0053763,0.0278617,-0,0.0283756,13485.7,-50878.3,0,52635.2,22832.3
step02_gravity_refstate-mantle.xmf,1135,3.28138e-07,2.69589e-06,0,2.81332e-07,-1.54038e+09,-1.54007e+09,-1.54043e+09,37600,-0.00818994,0.0173752,-0,0.0192087,17560,-53652,0,56452.6,37600
step02_gravity_refstate-mantle.xmf,1136,5.09918e-07,2.65422e-06,0,2.18254e-07,-1.60791e+09,-1.60762e+09,-1.60798e+09,29169.7,-0.00931296,0.0115423,-0,0.0148309,18603.8,-55739,0,58761.7,29169.7
step02_gravity_refstate-mantle.xmf,1137,6.00409e-07,2.65783e-06,0,1.22696e-07,-1.66988e+09,-1.6696e+09,-1.66996e+09,16398.4,-0.00962804,0.00634059,-0,0.0115283,19621.2,-57653.9,0,60901.2,16398.4
step02_gravity_refstate-mantle.xmf,1138,6.16239e-07,2.6788e-06,0,6.75185e-08,-1.70469e+09,-1.70442e+09,-1.70477e+09,9023.85,-0.00955098,0.00344126,-0,0.010152,20173.4,-58729.4,0,62097.6,9023.85
step02_gravity_refstate-mantle.xmf,1139,6.13632e-07,2.7199e-06,0,-1.61583e-09,-1.74582e+09,-1.74554e+09,-1.7459e+09,-215.956,-0.0092356,-3.34263e-19,-0,0.0092356,20850.5,-60000,0,63519.6,215.956
step02_gravity_refstate-mantle.xmf,1140,-1.30497e-06,7.29508e-06,0,1.80521e-06,-1.6259e+09,-1.62475e+09,-1.62573e+09,241267,0.0131499,0.0307484,0,0.0334422,-3711.38,-56294.5,-0,56416.7,241267
step02_gravity_refstate-mantle.xmf,1141,-3.00614e-07,6.42011e-06,0,2.82292e-07,-1.70684e+09,-1.70594e+09,-1.7068e+09,37728.3,0.0187769,0.00784592,0,0.0203502,-5235.21,-58799.3,-0,59031.9,37728.3
step02_gravity_refstate-mantle.xmf,1142,-5.975e-07,6.91976e-06,0,5.62526e-07,-1.69048e+09,-1.68948e+09,-1.6904e+09,75181.6,0.0180211,0.0121594,0,0.0217396,-4731.38,-58293.3,-0,58485,75181.6
step02_gravity_refstate-mantle.xmf,1143,-2.14239e-06,7.33596e-06,0,4.96129e-06,-1.57684e+09,-1.57557e+09,-1.57655e+09,663077,0.00609825,0.0559582,0,0.0562895,-2219.26,-54773.6,-0,54818.5,663077
step02_gravity_refstate-mantle.xmf,1144,-1.50021e-06,5.46421e-06,0,7.60832e-06,-1.54231e+09,-1.54138e+09,-1.54211e+09,1.01685e+06,0.00194916,0.0757122,0,0.0757373,-1362.17,-53706.3,-0,53723.6,1.01685e+06
step02_gravity_refstate-mantle.xmf,1145,-2.15e-06,7.10721e-06,0,6.18157e-06,-1.56771e+09,-1.56647e+09,-1.56742e+09,826167,0.00446147,0.0637716,0,0.0639275,-1798.44,-54490.9,-0,54520.6,826167
step02_gravity_refstate-mantle.xmf,1146,-3.00205e-07,1.14553e-06,0,-4.32911e-06,-1.44815e+09,-1.44796e+09,-1.44811e+09,-578585,0.00390051,0.072412,0,0.072517,2166.14,-50794.8,0,50841,578585
step02_gravity_refstate-mantle.xmf,1147,1.15401e-06,-4.74495e-07,0,-7.76012e-06,-1.47081e+09,-1.47103e+09,-1.47096e+09,-1.03714e+06,0.00205665,0.0878638,0,0.0878879,1000,-51500.3,0,51510,1.03714e+06
step02_gravity_refstate-mantle.xmf,1148,-8.99465e-07,3.29567e-06,0,-7.52659e-07,-1.38852e+09,-1.38796e+09,-1.3884e+09,-100593,0.000286867,0.0434282,0,0.0434292,8415.77,-48954.4,0,49672.6,100593
step02_gravity_refstate-mantle.xmf,1149,-9.68241e-07,2.76408e-06,0,-1.97943e-06,-1.38517e+09,-1.38467e+09,-1.38504e+09,-264550,0.00366207,0.0561938,0,0.056313,5120.56,-48849.1,0,49116.7,264550
step02_gravity_refstate-mantle.xmf,1150,-9.84237e-07,2.65473e-06,0,-2.27548e-06,-1.39753e+09,-1.39704e+09,-1.3974e+09,-304118,0.00391086,0.058267,0,0.0583981,4512.34,-49230.4,0,49436.7,304118
step02_gravity_refstate-mantle.xmf,1151,-9.52026e-07,2.45704e-06,0,-2.60859e-06,-1.40732e+09,-1.40686e+09,-1.40719e+09,-348639,0.00416991,0.0607528,0,0.0608957,3948.11,-49532.5,0,49689.6,348639
step02_gravity_refstate-mantle.xmf,1152,-6.85647e-07,1.68881e-06,0,-3.44421e-06,-1.42367e+09,-1.42335e+09,-1.42358e+09,-460319,0.00457899,0.067271,0,0.0674267,2855.9,-50037.5,0,50118.9,460319
step02_gravity_refstate-mantle.xmf,1153,-8.63585e-07,2.15238e-06,0,-2.9991e-06,-1.4164e+09,-1.41599e+09,-1.41628e+09,-400829,0.00439735,0.0637389,0,0.0638904,3391.71,-49812.7,0,49928.1,400829
step02_gravity_refstate-mantle.xmf,1154,-9.95306e-07,3.4174e-06,0,-8.68403e-07,-1.4046e+09,-1.40401e+09,-1.40446e+09,-116062,0.00025476,0.0439431,0,0.0439439,7699.3,-49450.6,0,50046.4,116062
step02_gravity_refstate-mantle.xmf,1155,2.29134e-07,2.77061e-06,0,2.94066e-07,-1.5184e+09,-1.51806e+09,-1.51843e+09,39301.9,-0.00784685,0.019659,-0,0.0211672,16461.1,-52972.4,0,55471.1,39301.9
step02_gravity_refstate-mantle.xmf,1156,-4.22794e-08,2.94533e-06,0,2.43886e-07,-1.47218e+09,-1.47178e+09,-1.47218e+09,32595.4,-0.00637802,0.0250158,-0,0.0258161,14410,-51543.4,0,53519.8,32595.4
step02_gravity_refstate-mantle.xmf,1157,1.01809e-07,2.85668e-06,0,2.84065e-07,-1.49508e+09,-1.49472e+09,-1.4951e+09,37965.3,-0.00722556,0.0222501,-0,0.0233939,15404.2,-52251.6,0,54475,37965.3
step02_gravity_refstate-mantle.xmf,1158,-2.32458e-07,3.15747e-06,0,1.68603e-07,-1.46585e+09,-1.4654e+09,-1.46582e+09,22533.8,-0.0058561,0.0274712,-0,0.0280885,12535.8,-51347.2,0,52855.2,22533.8
step02_gravity_refstate-mantle.xmf,1159,-4.01161e-07,3.24235e-06,0,4.95368e-08,-1.44672e+09,-1.44624e+09,-1.44667e+09,6620.6,-0.00466259,0.030532,-0,0.0308859,11657.4,-50755.4,0,52076.9,6620.6
step02_gravity_refstate-mantle.xmf,1160,-8.15253e-07,3.34657e-06,0,-5.06351e-07,-1.40154e+09,-1.40098e+09,-1.40143e+09,-67673.8,-0.00094154,0.0400445,-0,0.0400556,9178.38,-49357.1,0,50203.2,67673.8
step02_gravity_refstate-mantle.xmf,1161,-5.62328e-07,3.30895e-06,0,-1.07629e-07,-1.42957e+09,-1.42905e+09,-1.4295e+09,-14384.6,-0.00340421,0.0336968,-0,0.0338683,10787.5,-50224.7,0,51370.1,14384.6
step02_gravity_refstate-mantle.xmf,1162,-7.0035e-07,3.3422e-06,0,-2.92993e-07,-1.41426e+09,-1.41372e+09,-1.41416e+09,-39158.5,-0.00215029,0.0368624,-0,0.0369251,9981.88,-49750.8,0,50742.3,39158.5
step02_gravity_refstate-mantle.xmf,1163,5.90441e-07,2.6806e-06,0,1.62758e-07,-1.65262e+09,-1.65234e+09,-1.6527e+09,21752.6,-0.010024,0.00785273,-0,0.0127337,18619.6,-57120.8,0,60078.8,21752.6
step02_gravity_refstate-mantle.xmf,1164,-1.72107e-06,7.76358e-06,0,2.56655e-06,-1.6155e+09,-1.61423e+09,-1.61527e+09,343019,0.0114422,0.0370068,0,0.0387354,-3171.36,-55971.5,-0,56061.3,343019
step02_gravity_refstate-mantle.xmf,1165,-9.18428e-07,7.1502e-06,0,1.08069e-06,-1.65809e+09,-1.65701e+09,-1.65796e+09,144434,0.0160395,0.0208718,0,0.0263229,-4222.69,-57291,-0,57446.4,144434
step02_gravity_refstate-mantle.xmf,1166,-1.30755e-06,7.74465e-06,0,1.61936e-06,-1.64672e+09,-1.64551e+09,-1.64654e+09,216428,0.014683,0.0261313,0,0.0299739,-3672.81,-56938.6,-0,57056.9,216428
step02_gravity_refstate-mantle.xmf,1167,-9.58059e-07,7.4779e-06,0,9.15293e-07,-1.6789e+09,-1.67778e+09,-1.67878e+09,122329,0.0171167,0.0162544,0,0.0236048,-4192.86,-57934.6,-0,58086.1,122329
step02_gravity_refstate-mantle.xmf,1168,-2.5039e-07,6.41304e-06,0,1.13369e-07,-1.72856e+09,-1.72767e+09,-1.72852e+09,15151.8,0.01922,0.00341404,0,0.0195208,-5347.73,-59470.4,-0,59710.3,15151.8
step02_gravity_refstate-mantle.xmf,1169,-2.16023e-06,8.20531e-06,0,3.56927e-06,-1.60587e+09,-1.60448e+09,-1.60558e+09,477034,0.00955446,0.0441433,0,0.0451655,-2640.59,-55672.3,-0,55734.9,477034
step02_gravity_refstate-mantle.xmf,1170,-2.4754e-06,8.38331e-06,0,4.7097e-06,-1.59582e+09,-1.59437e+09,-1.59549e+09,629451,0.0076298,0.0517033,0,0.0522632,-2190.69,-55360.2,-0,55403.5,629451
step02_gravity_refstate-mantle.xmf,1171,-2.05472e-06,6.73124e-06,0,7.47162e-06,-1.55945e+09,-1.55827e+09,-1.55917e+09,998582,0.0030295,0.0720302,0,0.0720938,-1388.9,-54235.3,-0,54253.1,998582
step02_gravity_refstate-mantle.xmf,1172,-1.24189e-06,4.91683e-06,0,8.78842e-06,-1.53559e+09,-1.53477e+09,-1.53543e+09,1.17457e+06,0.00109538,0.0833504,0,0.0833576,-1000,-53499.2,-0,53508.6,1.17457e+06
step02_gravity_refstate-mantle.xmf,1173,-3.70777e-07,1.61241e-06,0,-4.50506e-06,-1.46214e+09,-1.46187e+09,-1.46209e+09,-602101,0.00304475,0.0715385,0,0.0716033,2191.66,-51227.6,0,51274.5,602101
step02_gravity_refstate-mantle.xmf,1174,-6.73744e-07,1.9337e-06,0,-3.82934e-06,-1.4509e+09,-1.45055e+09,-1.45081e+09,-511792,0.0035398,0.0680951,0,0.068187,2585.93,-50879.2,0,50944.8,511792
step02_gravity_refstate-mantle.xmf,1175,2.97544e-08,1.20259e-06,0,-5.46141e-06,-1.4709e+09,-1.47074e+09,-1.4709e+09,-729917,0.00251874,0.0760674,0,0.0761091,1785.32,-51499.8,0,51530.7,729917
step02_gravity_refstate-mantle.xmf,1176,3.62867e-07,9.61837e-07,0,-6.64417e-06,-1.47901e+09,-1.47893e+09,-1.47905e+09,-887993,0.00190102,0.0810562,0,0.0810785,1414.78,-51751.9,0,51771.2,887993
step02_gravity_refstate-mantle.xmf,1177,-1.12098e-06,3.36131e-06,0,-1.35383e-06,-1.40805e+09,-1.40745e+09,-1.4079e+09,-180939,0.00161154,0.0488247,0,0.0488513,6272.59,-49556.2,0,49951.6,180939
step02_gravity_refstate-mantle.xmf,1178,-1.08435e-06,3.52284e-06,0,-1.01298e-06,-1.41873e+09,-1.41812e+09,-1.41859e+09,-135385,0.000298575,0.0448438,0,0.0448448,6998.28,-49887,0,50375.4,135385
step02_gravity_refstate-mantle.xmf,1179,4.4427e-07,2.70578e-06,0,2.64537e-07,-1.5827e+09,-1.58239e+09,-1.58275e+09,35355.3,-0.00929953,0.0138563,-0,0.0166876,17513,-54959.9,0,57682.7,35355.3
step02_gravity_refstate-mantle.xmf,1180,-7.09763e-08,3.06109e-06,0,2.47349e-07,-1.48515e+09,-1.48473e+09,-1.48514e+09,33058.2,-0.00686994,0.0246714,-0,0.02561,13429.5,-51944.2,0,53652.1,33058.2
step02_gravity_refstate-mantle.xmf,1181,3.60989e-07,2.77627e-06,0,2.96271e-07,-1.55969e+09,-1.55937e+09,-1.55974e+09,39596.7,-0.00913222,0.0161346,-0,0.0185398,16422.1,-54248.8,0,56680,39596.7
step02_gravity_refstate-mantle.xmf,1182,5.66992e-07,2.72627e-06,0,2.14451e-07,-1.63264e+09,-1.63236e+09,-1.63272e+09,28661.4,-0.010432,0.00969099,-0,0.0142388,17374.4,-56503.7,0,59114.6,28661.4
step02_gravity_refstate-mantle.xmf,1183,6.43832e-07,2.72048e-06,0,8.48974e-08,-1.70053e+09,-1.70026e+09,-1.70062e+09,11346.5,-0.0104591,0.00384864,-0,0.0111448,18694.2,-58601.2,0,61510.8,11346.5
step02_gravity_refstate-mantle.xmf,1184,6.46027e-07,2.75792e-06,0,-2.19138e-09,-1.74581e+09,-1.74553e+09,-1.7459e+09,-292.878,-0.0101462,-3.73592e-19,-0,0.0101462,19403.8,-60000,0,63059.6,292.878
step02_gravity_refstate-mantle.xmf,1185,-1.76361e-06,8.33105e-06,0,2.3187e-06,-1.63513e+09,-1.63378e+09,-1.63489e+09,309894,0.0129956,0.0324191,0,0.0349268,-3131.36,-56579.1,-0,56665.6,309894
step02_gravity_refstate-mantle.xmf,1186,-1.05388e-06,7.85444e-06,0,7.24705e-07,-1.69992e+09,-1.69873e+09,-1.69978e+09,96856.9,0.0178524,0.0113982,0,0.0211808,-4145.62,-58584.2,-0,58730.7,96856.9
step02_gravity_refstate-mantle.xmf,1187,-6.98809e-07,7.21937e-06,0,4.39117e-07,-1.70871e+09,-1.70765e+09,-1.70861e+09,58688,0.0185136,0.00839153,0,0.0203267,-4623.73,-58856.3,-0,59037.6,58688
step02_gravity_refstate-mantle.xmf,1188,-6.07178e-07,7.09625e-06,0,2.0862e-07,-1.72626e+09,-1.72523e+09,-1.72618e+09,27882,0.0189488,0.00430336,0,0.0194313,-4782.15,-59398.8,-0,59591,27882
step02_gravity_refstate-mantle.xmf,1189,-4.26025e-07,6.81367e-06,0,-3.93605e-09,-1.74571e+09,-1.74474e+09,-1.74565e+09,-526.053,0.0192186,-6.72108e-20,0,0.0192186,-5055.41,-60000,-0,60212.6,526.053
step02_gravity_refstate-mantle.xmf,1190,-2.62385e-06,8.28641e-06,0,5.86762e-06,-1.58595e+09,-1.58449e+09,-1.5856e+09,784208,0.00585769,0.0592706,0,0.0595594,-1810.11,-55054.1,-0,55083.9,784208
step02_gravity_refstate-mantle.xmf,1191,-8.0383e-07,2.06261e-06,0,-3.44929e-06,-1.43889e+09,-1.43851e+09,-1.43878e+09,-460997,0.00396517,0.0662775,0,0.066396,2870.16,-50507.8,0,50589.2,460997
step02_gravity_refstate-mantle.xmf,1192,-1.87583e-06,6.23503e-06,0,8.78706e-06,-1.55182e+09,-1.55074e+09,-1.55157e+09,1.17439e+06,0.00184922,0.0805604,0,0.0805816,-1000,-53999.7,-0,54008.9,1.17439e+06
step02_gravity_refstate-mantle.xmf,1193,-2.61882e-06,7.99783e-06,0,7.25618e-06,-1.57656e+09,-1.57514e+09,-1.57621e+09,969788,0.00411912,0.0679466,0,0.0680713,-1400.51,-54763.4,-0,54781.3,969788
step02_gravity_refstate-mantle.xmf,1194,5.88236e-07,9.23176e-07,0,-8.21995e-06,-1.48701e+09,-1.48697e+09,-1.48709e+09,-1.0986e+06,0.00122979,0.0877522,0,0.0877608,1000,-52000.6,0,52010.2,1.0986e+06
step02_gravity_refstate-mantle.xmf,1195,-9.07907e-07,3.47669e-06,0,-5.99587e-07,-1.41622e+09,-1.41564e+09,-1.4161e+09,-80134.8,-0.00100909,0.0404675,-0,0.0404801,8437.63,-49810.4,0,50520,80134.8
step02_gravity_refstate-mantle.xmf,1196,-1.10091e-06,3.14861e-06,0,-1.67498e-06,-1.4009e+09,-1.40033e+09,-1.40075e+09,-223861,0.00261533,0.0523268,0,0.0523922,5636.41,-49335,0,49656,223861
step02_gravity_refstate-mantle.xmf,1197,-1.13543e-06,3.08494e-06,0,-1.92269e-06,-1.40863e+09,-1.40807e+09,-1.40848e+09,-256967,0.0029205,0.0542041,0,0.0542827,5094.71,-49573.4,0,49834.5,256967
step02_gravity_refstate-mantle.xmf,1198,-1.15016e-06,2.9912e-06,0,-2.22393e-06,-1.41874e+09,-1.41818e+09,-1.41858e+09,-297229,0.00317547,0.0564372,0,0.0565264,4509.02,-49885.3,0,50088.7,297229
step02_gravity_refstate-mantle.xmf,1199,-1.12046e-06,2.82316e-06,0,-2.58937e-06,-1.42874e+09,-1.42821e+09,-1.42859e+09,-346070,0.00340088,0.0591649,0,0.0592625,3923.34,-50194,0,50347.1,346070
step02_gravity_refstate-mantle.xmf,1200,-1.01353e-06,2.52547e-06,0,-3.04126e-06,-1.43725e+09,-1.43677e+09,-1.43711e+09,-406464,0.00361931,0.0626039,0,0.0627084,3341.11,-50456.8,0,50567.3,406464
step02_gravity_refstate-mantle.xmf,1201,-1.00028e-06,3.60475e-06,0,-7.17393e-07,-1.42999e+09,-1.42938e+09,-1.42986e+09,-95879.6,-0.00103459,0.041168,-0,0.041181,7705.3,-50235.5,0,50823,95879.6
step02_gravity_refstate-mantle.xmf,1202,2.4881e-07,2.86615e-06,0,3.1267e-07,-1.53703e+09,-1.53668e+09,-1.53706e+09,41788.3,-0.00873982,0.0185732,-0,0.0205268,15344.9,-53548.3,0,55703.5,41788.3
step02_gravity_refstate-mantle.xmf,1203,9.66154e-08,2.98208e-06,0,3.01152e-07,-1.51357e+09,-1.51319e+09,-1.51359e+09,40249,-0.00806294,0.0213918,-0,0.0228609,14189,-52823.1,0,54695.6,40249
step02_gravity_refstate-mantle.xmf,1204,-1.12529e-07,3.18304e-06,0,2.43771e-07,-1.49536e+09,-1.49492e+09,-1.49535e+09,32580,-0.00725644,0.0246022,-0,0.02565,12514.8,-52259.6,0,53737.2,32580
step02_gravity_refstate-mantle.xmf,1205,-2.8362e-07,3.29077e-06,0,1.55122e-07,-1.47787e+09,-1.47739e+09,-1.47783e+09,20732.1,-0.00621685,0.0274059,-0,0.0281021,11643.4,-51718.5,0,53012.9,20732.1
step02_gravity_refstate-mantle.xmf,1206,-4.62381e-07,3.38528e-06,0,2.37153e-08,-1.46061e+09,-1.46009e+09,-1.46055e+09,3169.56,-0.00499725,0.030477,-0,0.030884,10791.9,-51184.3,0,52309.6,3169.56
step02_gravity_refstate-mantle.xmf,1207,-7.83229e-07,3.48807e-06,0,-3.55485e-07,-1.42984e+09,-1.42927e+09,-1.42974e+09,-47510.5,-0.00235099,0.0370174,-0,0.0370919,9193.32,-50232.1,0,51066.4,47510.5
step02_gravity_refstate-mantle.xmf,1208,-6.3331e-07,3.45401e-06,0,-1.48575e-07,-1.44441e+09,-1.44386e+09,-1.44432e+09,-19857,-0.00368152,0.0337107,-0,0.0339111,9974.39,-50682.9,0,51655,19857
step02_gravity_refstate-mantle.xmf,1209,6.36183e-07,2.73633e-06,0,1.41867e-07,-1.67424e+09,-1.67396e+09,-1.67432e+09,18960.5,-0.0108588,0.00613652,-0,0.0124728,17699.5,-57788.9,0,60438.7,18960.5
step02_gravity_refstate-mantle.xmf,1210,-2.28451e-06,8.93907e-06,0,3.23134e-06,-1.62465e+09,-1.62315e+09,-1.62434e+09,431869,0.0110926,0.0394585,0,0.0409881,-2609.39,-56253.5,-0,56314,431869
step02_gravity_refstate-mantle.xmf,1211,-1.359e-06,8.12304e-06,0,1.41837e-06,-1.66722e+09,-1.66596e+09,-1.66704e+09,189565,0.0158935,0.0212601,0,0.0265442,-3638.01,-57572.8,-0,57687.6,189565
step02_gravity_refstate-mantle.xmf,1212,-1.83158e-06,8.88016e-06,0,2.09308e-06,-1.65483e+09,-1.6534e+09,-1.65459e+09,279741,0.014283,0.0275214,0,0.031007,-3078.88,-57188.8,-0,57271.6,279741
step02_gravity_refstate-mantle.xmf,1213,-1.46202e-06,8.48166e-06,0,1.14184e-06,-1.68798e+09,-1.68665e+09,-1.68778e+09,152606,0.0168239,0.0158824,0,0.0231364,-3644.47,-58214.1,-0,58328.1,152606
step02_gravity_refstate-mantle.xmf,1214,-2.77417e-06,9.39702e-06,0,4.34765e-06,-1.61472e+09,-1.61309e+09,-1.61435e+09,581064,0.00909317,0.0470059,0,0.0478774,-2148.35,-55944.6,-0,55985.8,581064
step02_gravity_refstate-mantle.xmf,1215,-3.0559e-06,9.47274e-06,0,5.52903e-06,-1.60452e+09,-1.60285e+09,-1.60412e+09,738955,0.0072033,0.0545388,0,0.0550124,-1783.95,-55628.1,-0,55656.7,738955
step02_gravity_refstate-mantle.xmf,1216,-9.98354e-07,2.72699e-06,0,-3.23748e-06,-1.45616e+09,-1.45566e+09,-1.45603e+09,-432689,0.00274103,0.0626312,0,0.0626911,3147.74,-51041.6,0,51138.6,432689
step02_gravity_refstate-mantle.xmf,1217,-2.51567e-06,7.56393e-06,0,8.70249e-06,-1.56805e+09,-1.5667e+09,-1.56771e+09,1.16309e+06,0.00261319,0.0771096,0,0.0771539,-1000,-54500.1,-0,54509.3,1.16309e+06
step02_gravity_refstate-mantle.xmf,1218,-4.80179e-07,2.25826e-06,0,-4.78302e-06,-1.47912e+09,-1.47875e+09,-1.47905e+09,-639251,0.00183998,0.0704652,0,0.0704892,2196.55,-51753.1,0,51799.7,639251
step02_gravity_refstate-mantle.xmf,1219,-7.53078e-07,2.47568e-06,0,-3.95359e-06,-1.46926e+09,-1.46882e+09,-1.46916e+09,-528397,0.00231307,0.0665409,0,0.0665811,2616.38,-51447.1,0,51513.6,528397
step02_gravity_refstate-mantle.xmf,1220,-2.05801e-07,2.06686e-06,0,-5.84581e-06,-1.48733e+09,-1.48703e+09,-1.4873e+09,-781293,0.00137289,0.075279,0,0.0752915,1782.24,-52008.1,0,52038.6,781293
step02_gravity_refstate-mantle.xmf,1221,-5.05549e-08,2.09191e-06,0,-7.05399e-06,-1.49544e+09,-1.49515e+09,-1.49543e+09,-942766,0.000865255,0.0804295,0,0.0804341,1405.36,-52259.6,0,52278.5,942766
step02_gravity_refstate-mantle.xmf,1222,-1.18778e-06,3.40179e-06,0,-1.55049e-06,-1.42033e+09,-1.41972e+09,-1.42017e+09,-207224,0.00171374,0.0501149,0,0.0501442,5689.46,-49935.3,0,50258.4,207224
step02_gravity_refstate-mantle.xmf,1223,-1.168e-06,3.60989e-06,0,-1.19152e-06,-1.43151e+09,-1.43087e+09,-1.43135e+09,-159247,0.000373468,0.0460535,0,0.046055,6331.2,-50281.2,0,50678.2,159247
step02_gravity_refstate-mantle.xmf,1224,-1.08503e-06,3.72933e-06,0,-8.53689e-07,-1.44344e+09,-1.4428e+09,-1.4433e+09,-114096,-0.00108,0.0420465,-0,0.0420604,7005.76,-50650.8,0,51133,114096
step02_gravity_refstate-mantle.xmf,1225,4.86818e-07,2.78228e-06,0,2.69909e-07,-1.60104e+09,-1.60074e+09,-1.60111e+09,36073.4,-0.0102876,0.0126011,-0,0.0162672,16360.5,-55527.1,0,57887.2,36073.4
step02_gravity_refstate-mantle.xmf,1226,1.71214e-08,3.10283e-06,0,2.89294e-07,-1.51157e+09,-1.51116e+09,-1.51157e+09,38664.1,-0.00804003,0.0223927,-0,0.0237923,13166.3,-52761,0,54379,38664.1
step02_gravity_refstate-mantle.xmf,1227,3.95958e-07,2.86519e-06,0,3.08532e-07,-1.57776e+09,-1.57743e+09,-1.57781e+09,41235.3,-0.0101033,0.0149815,-0,0.0180699,15307.8,-54807.4,0,56905,41235.3
step02_gravity_refstate-mantle.xmf,1228,6.52868e-07,2.79959e-06,0,1.62942e-07,-1.67198e+09,-1.67169e+09,-1.67206e+09,21777.2,-0.0116345,0.00646886,-0,0.0133119,16452.7,-57719.4,0,60018.5,21777.2
step02_gravity_refstate-mantle.xmf,1229,6.83263e-07,2.78891e-06,0,7.60562e-08,-1.7107e+09,-1.71042e+09,-1.71079e+09,10164.9,-0.0114389,0.00305133,-0,0.0118389,17315.6,-58915.7,0,61407.6,10164.9
step02_gravity_refstate-mantle.xmf,1230,6.77964e-07,2.80658e-06,0,-1.49024e-09,-1.7458e+09,-1.74552e+09,-1.74589e+09,-199.171,-0.0110586,-2.95797e-19,-0,0.0110586,18026.3,-60000,0,62649.4,199.171
step02_gravity_refstate-mantle.xmf,1231,-2.40113e-06,9.65207e-06,0,2.94037e-06,-1.64307e+09,-1.64146e+09,-1.64275e+09,392981,0.0123579,0.0347409,0,0.0368734,-2542.12,-56823.6,-0,56880.4,392981
step02_gravity_refstate-mantle.xmf,1232,-1.66312e-06,8.9578e-06,0,8.73119e-07,-1.70764e+09,-1.70622e+09,-1.70742e+09,116692,0.0172685,0.0107846,0,0.0203595,-3573.59,-58821.3,-0,58929.7,116692
step02_gravity_refstate-mantle.xmf,1233,-1.19003e-06,8.17708e-06,0,4.06159e-07,-1.72332e+09,-1.72207e+09,-1.72316e+09,54283.1,0.0182682,0.00572349,0,0.0191438,-4074.75,-59306.9,-0,59446.7,54283.1
step02_gravity_refstate-mantle.xmf,1234,-9.80156e-07,7.83731e-06,0,-8.27313e-09,-1.74574e+09,-1.74456e+09,-1.74561e+09,-1105.7,0.0187267,-8.99956e-20,0,0.0187267,-4348.74,-60000,-0,60157.4,1105.7
step02_gravity_refstate-mantle.xmf,1235,-3.19315e-06,9.32742e-06,0,6.97491e-06,-1.59368e+09,-1.59201e+09,-1.59325e+09,932197,0.00519216,0.0635128,0,0.0637246,-1392.2,-55291.8,-0,55309.4,932197
step02_gravity_refstate-mantle.xmf,1236,-3.16506e-06,8.92148e-06,0,8.53242e-06,-1.58426e+09,-1.58264e+09,-1.58383e+09,1.14036e+06,0.00339992,0.0729913,0,0.0730704,-1000,-54999.9,-0,55009,1.14036e+06
step02_gravity_refstate-mantle.xmf,1237,4.52211e-09,2.26919e-06,0,-8.513e-06,-1.5032e+09,-1.5029e+09,-1.5032e+09,-1.13776e+06,0.000432104,0.0869521,0,0.0869532,1000,-52500.2,0,52509.7,1.13776e+06
step02_gravity_refstate-mantle.xmf,1238,-8.68442e-07,3.63383e-06,0,-4.40806e-07,-1.44394e+09,-1.44334e+09,-1.44383e+09,-58913.8,-0.00250045,0.0374427,-0,0.0375261,8429.63,-50667.5,0,51363.9,58913.8
step02_gravity_refstate-mantle.xmf,1239,-1.23899e-06,3.39013e-06,0,-1.82302e-06,-1.43064e+09,-1.43002e+09,-1.43047e+09,-243646,0.00192469,0.0520452,0,0.0520808,5086.68,-50253.2,0,50510,243646
step02_gravity_refstate-mantle.xmf,1240,-1.24992e-06,3.32019e-06,0,-2.15207e-06,-1.44016e+09,-1.43955e+09,-1.43999e+09,-287624,0.00215628,0.0545075,0,0.0545501,4482.48,-50547.2,0,50745.6,287624
step02_gravity_refstate-mantle.xmf,1241,-1.20729e-06,3.21741e-06,0,-2.55831e-06,-1.45158e+09,-1.45099e+09,-1.45142e+09,-341919,0.00222853,0.0574073,0,0.0574505,3869.95,-50899.9,0,51046.8,341919
step02_gravity_refstate-mantle.xmf,1242,-9.5257e-07,3.77878e-06,0,-5.51914e-07,-1.457e+09,-1.45637e+09,-1.45687e+09,-73763.4,-0.00262165,0.0381245,-0,0.0382146,7693.01,-51070.5,0,51646.7,73763.4
step02_gravity_refstate-mantle.xmf,1243,2.80537e-07,2.96901e-06,0,3.27883e-07,-1.55672e+09,-1.55637e+09,-1.55676e+09,43821.6,-0.00973792,0.0173674,-0,0.0199111,14273.7,-54157.2,0,56006.6,43821.6
step02_gravity_refstate-mantle.xmf,1244,1.51676e-07,3.08696e-06,0,3.2442e-07,-1.53937e+09,-1.53898e+09,-1.53939e+09,43358.7,-0.00925788,0.019635,-0,0.0217081,13285,-53620.6,0,55241.9,43358.7
step02_gravity_refstate-mantle.xmf,1245,1.56503e-08,3.20504e-06,0,2.97828e-07,-1.52467e+09,-1.52425e+09,-1.52468e+09,39804.7,-0.00866396,0.0218111,-0,0.0234688,12412.4,-53166,0,54595.7,39804.7
step02_gravity_refstate-mantle.xmf,1246,-1.45882e-07,3.32099e-06,0,2.39386e-07,-1.50821e+09,-1.50774e+09,-1.50819e+09,31993.9,-0.00778528,0.0243576,-0,0.0255715,11602.1,-52656.6,0,53919.6,31993.9
step02_gravity_refstate-mantle.xmf,1247,-3.34056e-07,3.43946e-06,0,1.35964e-07,-1.49093e+09,-1.49043e+09,-1.49089e+09,18171.5,-0.00664647,0.0273302,-0,0.0281267,10759.1,-52122,0,53220.9,18171.5
step02_gravity_refstate-mantle.xmf,1248,-5.25211e-07,3.53888e-06,0,-1.16737e-08,-1.47436e+09,-1.47382e+09,-1.47429e+09,-1560.19,-0.00535145,0.0305163,-0,0.0309819,9952.05,-51609.1,0,52559.9,1560.19
step02_gravity_refstate-mantle.xmf,1249,-7.06653e-07,3.60786e-06,0,-2.02744e-07,-1.45883e+09,-1.45825e+09,-1.45873e+09,-27096.7,-0.00396216,0.0338738,-0,0.0341048,9178.09,-51128.2,0,51945.5,27096.7
step02_gravity_refstate-mantle.xmf,1250,5.83232e-07,2.80067e-06,0,2.28468e-07,-1.63596e+09,-1.63566e+09,-1.63604e+09,30534.8,-0.0112035,0.00963899,-0,0.0147793,16143.7,-56606.3,0,58863.4,30534.8
step02_gravity_refstate-mantle.xmf,1251,-3.06673e-06,1.04293e-05,0,4.03788e-06,-1.63257e+09,-1.63077e+09,-1.63216e+09,539662,0.0102209,0.0426339,0,0.0438419,-2047.92,-56496.8,-0,56533.9,539662
step02_gravity_refstate-mantle.xmf,1252,-1.99569e-06,9.44156e-06,0,1.80776e-06,-1.67722e+09,-1.67569e+09,-1.67696e+09,241607,0.0153449,0.0214304,0,0.0263577,-3032.53,-57880.7,-0,57960.1,241607
step02_gravity_refstate-mantle.xmf,1253,-2.52877e-06,1.02908e-05,0,2.68598e-06,-1.66088e+09,-1.65916e+09,-1.66054e+09,358981,0.0133159,0.0297494,0,0.0325935,-2476.55,-57374.4,-0,57427.8,358981
step02_gravity_refstate-mantle.xmf,1254,-2.00996e-06,9.50701e-06,0,1.3189e-06,-1.69601e+09,-1.69447e+09,-1.69574e+09,176271,0.0163181,0.0151824,0,0.0222887,-3207.75,-58461,-0,58549,176271
step02_gravity_refstate-mantle.xmf,1255,-3.54816e-06,1.07622e-05,0,5.26547e-06,-1.62231e+09,-1.6204e+09,-1.62184e+09,703730,0.00820295,0.0503765,0,0.0510399,-1678.38,-56177.5,-0,56202.6,703730
step02_gravity_refstate-mantle.xmf,1256,-3.73137e-06,1.06144e-05,0,6.65494e-06,-1.61035e+09,-1.60843e+09,-1.60985e+09,889433,0.00617261,0.058919,0,0.0592414,-1358.64,-55806.3,-0,55822.9,889433
step02_gravity_refstate-mantle.xmf,1257,-1.04349e-06,3.24957e-06,0,-3.32488e-06,-1.4781e+09,-1.47752e+09,-1.47796e+09,-444370,0.00118137,0.0607509,0,0.0607624,3131.19,-51720.3,0,51814.9,444370
step02_gravity_refstate-mantle.xmf,1258,-6.68981e-07,3.04297e-06,0,-5.07026e-06,-1.4969e+09,-1.49641e+09,-1.49681e+09,-677640,0.000480228,0.0691356,0,0.0691373,2186.17,-52303.1,0,52348.8,677640
step02_gravity_refstate-mantle.xmf,1259,-8.62913e-07,3.13243e-06,0,-4.08854e-06,-1.4881e+09,-1.48756e+09,-1.48798e+09,-546433,0.000837195,0.064556,0,0.0645614,2649.71,-52030,0,52097.5,546433
step02_gravity_refstate-mantle.xmf,1260,-6.10696e-07,3.61042e-06,0,-8.69647e-06,-1.51938e+09,-1.51882e+09,-1.5193e+09,-1.16228e+06,-0.000338975,0.0854818,-0,0.0854825,1000,-52999.4,0,53008.9,1.16228e+06
step02_gravity_refstate-mantle.xmf,1261,-6.14354e-07,3.45881e-06,0,-7.1255e-06,-1.5135e+09,-1.51295e+09,-1.51342e+09,-952323,-0.000289921,0.0778965,-0,0.077897,1466.48,-52817.2,0,52837.6,952323
step02_gravity_refstate-mantle.xmf,1262,-4.82461e-07,2.94961e-06,0,-6.15139e-06,-1.50259e+09,-1.50213e+09,-1.50253e+09,-822133,0.000289689,0.0742902,0,0.0742907,1768.67,-52479.8,0,52509.6,822133
step02_gravity_refstate-mantle.xmf,1263,-1.23567e-06,3.67113e-06,0,-1.41276e-06,-1.44328e+09,-1.44263e+09,-1.44312e+09,-188816,0.000466256,0.0476205,0,0.0476228,5686.32,-50644.7,0,50962.9,188816
step02_gravity_refstate-mantle.xmf,1264,-1.03232e-06,3.91818e-06,0,-6.92638e-07,-1.46882e+09,-1.46816e+09,-1.46868e+09,-92571.1,-0.00270634,0.0391107,-0,0.0392042,6988.04,-51435.4,0,51907.9,92571.1
step02_gravity_refstate-mantle.xmf,1265,-1.16287e-06,3.84185e-06,0,-1.03383e-06,-1.45583e+09,-1.45517e+09,-1.45568e+09,-138171,-0.00109762,0.0432766,-0,0.0432905,6325.09,-51033.3,0,51423.8,138171
step02_gravity_refstate-mantle.xmf,1266,5.26119e-07,2.86973e-06,0,2.75124e-07,-1.61666e+09,-1.61635e+09,-1.61673e+09,36770.4,-0.0112639,0.0115615,-0,0.0161414,15225.7,-56010.1,0,58042.7,36770.4
step02_gravity_refstate-mantle.xmf,1267,4.34546e-07,2.96402e-06,0,3.16231e-07,-1.59493e+09,-1.59459e+09,-1.59498e+09,42264.3,-0.0111032,0.0138838,-0,0.0177775,14232.7,-55338.3,0,57139.3,42264.3
step02_gravity_refstate-mantle.xmf,1268,6.29763e-07,2.86799e-06,0,2.16477e-07,-1.6523e+09,-1.652e+09,-1.65238e+09,28932.1,-0.0120783,0.00839385,-0,0.0147086,15246.2,-57111.5,0,59111.5,28932.1
step02_gravity_refstate-mantle.xmf,1269,7.13463e-07,2.85923e-06,0,8.15948e-08,-1.71225e+09,-1.71196e+09,-1.71234e+09,10905.1,-0.0123426,0.00298676,-0,0.0126988,16036.5,-58963.9,0,61105.8,10905.1
step02_gravity_refstate-mantle.xmf,1270,7.11261e-07,2.86598e-06,0,-2.06816e-09,-1.74579e+09,-1.7455e+09,-1.74588e+09,-276.409,-0.0119695,-2.89248e-19,-0,0.0119695,16714.6,-60000,0,62284.6,276.409
step02_gravity_refstate-mantle.xmf,1271,-3.20412e-06,1.12569e-05,0,3.62069e-06,-1.64985e+09,-1.64792e+09,-1.64942e+09,483906,0.0112657,0.0374075,0,0.0390671,-1989.89,-57031.8,-0,57066.5,483906
step02_gravity_refstate-mantle.xmf,1272,-2.41147e-06,1.01804e-05,0,1.07601e-06,-1.71133e+09,-1.70965e+09,-1.71101e+09,143809,0.016211,0.0110889,0,0.0196408,-3023.39,-58933.6,-0,59011.1,143809
step02_gravity_refstate-mantle.xmf,1273,-2.07729e-06,9.66008e-06,0,5.18336e-07,-1.72719e+09,-1.72562e+09,-1.72691e+09,69275.6,0.0171075,0.00560443,0,0.0180021,-3340.21,-59424.1,-0,59517.9,69275.6
step02_gravity_refstate-mantle.xmf,1274,-1.69218e-06,9.05715e-06,0,-8.20157e-09,-1.7458e+09,-1.74436e+09,-1.74557e+09,-1096.14,0.0178221,-9.57865e-20,0,0.0178221,-3671.61,-60000,-0,60112.2,1096.14
step02_gravity_refstate-mantle.xmf,1275,-3.81676e-06,1.03297e-05,0,8.24566e-06,-1.60044e+09,-1.59855e+09,-1.59993e+09,1.10203e+06,0.00422195,0.0681827,0,0.0683133,-1000,-55499.2,-0,55508.2,1.10203e+06
step02_gravity_refstate-mantle.xmf,1276,-1.16583e-06,3.35823e-06,0,-2.79337e-06,-1.46843e+09,-1.46783e+09,-1.46828e+09,-373334,0.00140917,0.0578111,0,0.0578282,3590.35,-51421.2,0,51546.4,373334
step02_gravity_refstate-mantle.xmf,1277,-1.24264e-06,4.91784e-06,0,-8.78994e-06,-1.53559e+09,-1.53477e+09,-1.53543e+09,-1.17478e+06,-0.00109556,0.0833504,-0,0.0833576,1000,-53499.2,0,53508.6,1.17478e+06
step02_gravity_refstate-mantle.xmf,1278,-9.92043e-07,4.36228e-06,0,-7.73135e-06,-1.52749e+09,-1.52678e+09,-1.52736e+09,-1.03329e+06,-0.00101708,0.0788345,-0,0.0788411,1311.4,-53249.3,0,53265.5,1.03329e+06
step02_gravity_refstate-mantle.xmf,1279,-7.77146e-07,3.7715e-06,0,-2.80897e-07,-1.47287e+09,-1.47227e+09,-1.47277e+09,-37541.9,-0.00424838,0.034236,-0,0.0344986,8390.5,-51562.1,0,52240.3,37541.9
step02_gravity_refstate-mantle.xmf,1280,-1.28057e-06,3.68285e-06,0,-1.72423e-06,-1.45313e+09,-1.45247e+09,-1.45296e+09,-230444,0.000658828,0.0498386,0,0.049843,5040.38,-50948.6,0,51197.3,230444
step02_gravity_refstate-mantle.xmf,1281,-1.28296e-06,3.59832e-06,0,-2.08028e-06,-1.458e+09,-1.45735e+09,-1.45783e+09,-278029,0.00106955,0.0527097,0,0.0527206,4465.15,-51098.8,0,51293.5,278029
step02_gravity_refstate-mantle.xmf,1282,-8.60484e-07,3.92915e-06,0,-4.01753e-07,-1.48365e+09,-1.48301e+09,-1.48353e+09,-53694.2,-0.00437156,0.0350861,-0,0.0353574,7648.86,-51894.7,0,52455.4,53694.2
step02_gravity_refstate-mantle.xmf,1283,3.13305e-07,3.07732e-06,0,3.37791e-07,-1.57412e+09,-1.57375e+09,-1.57416e+09,45145.8,-0.0107042,0.01632,-0,0.0195172,13289.2,-54695.1,0,56286.4,45145.8
step02_gravity_refstate-mantle.xmf,1284,1.72578e-07,3.20378e-06,0,3.33774e-07,-1.55585e+09,-1.55544e+09,-1.55587e+09,44608.9,-0.010141,0.0187399,-0,0.0213078,12392.2,-54130,0,55530.4,44608.9
step02_gravity_refstate-mantle.xmf,1285,1.21465e-08,3.33529e-06,0,3.00479e-07,-1.53875e+09,-1.53831e+09,-1.53875e+09,40159,-0.00938269,0.0212686,-0,0.0232462,11554.4,-53601.2,0,54832.4,40159
step02_gravity_refstate-mantle.xmf,1286,-1.7352e-07,3.47097e-06,0,2.28659e-07,-1.52165e+09,-1.52117e+09,-1.52163e+09,30560.2,-0.00838528,0.0240919,-0,0.0255095,10728.7,-53072.1,0,54145.7,30560.2
step02_gravity_refstate-mantle.xmf,1287,-3.76501e-07,3.59927e-06,0,1.1027e-07,-1.5048e+09,-1.50427e+09,-1.50475e+09,14737.6,-0.00716549,0.0272142,-0,0.0281418,9920.57,-52550.5,0,53478.7,14737.6
step02_gravity_refstate-mantle.xmf,1288,-5.83662e-07,3.70633e-06,0,-5.77061e-08,-1.48876e+09,-1.48819e+09,-1.48868e+09,-7712.42,-0.00578325,0.0305832,-0,0.0311252,9136.07,-52054,0,52849.6,7712.42
step02_gravity_refstate-mantle.xmf,1289,6.94264e-07,2.88023e-06,0,1.53216e-07,-1.68414e+09,-1.68385e+09,-1.68423e+09,20477.4,-0.0125604,0.00554843,-0,0.0137313,15325.4,-58095.5,0,60082.9,20477.4
step02_gravity_refstate-mantle.xmf,1290,-4.19945e-06,1.23216e-05,0,5.15158e-06,-1.63866e+09,-1.63645e+09,-1.6381e+09,688509,0.00859905,0.0471373,0,0.0479153,-1476.4,-56682.1,-0,56701.3,688509
step02_gravity_refstate-mantle.xmf,1291,-2.60769e-06,1.05604e-05,0,1.71501e-06,-1.69531e+09,-1.69355e+09,-1.69496e+09,229211,0.0152169,0.0171769,0,0.0229478,-2738.99,-58438.2,-0,58502.3,229211
step02_gravity_refstate-mantle.xmf,1292,-2.85975e-06,1.10755e-05,0,2.45299e-06,-1.67975e+09,-1.67789e+09,-1.67937e+09,327843,0.0138378,0.024156,0,0.0278388,-2379.01,-57957.1,-0,58005.9,327843
step02_gravity_refstate-mantle.xmf,1293,-3.35419e-06,1.19839e-05,0,3.28802e-06,-1.66716e+09,-1.66511e+09,-1.66672e+09,439443,0.0120022,0.0316802,0,0.0338776,-1932.12,-57567.4,-0,57599.8,439443
step02_gravity_refstate-mantle.xmf,1294,-4.2624e-06,1.1905e-05,0,6.44317e-06,-1.62457e+09,-1.62241e+09,-1.624e+09,861130,0.00681871,0.0551064,0,0.0555267,-1284.61,-56245.3,-0,56260,861130
step02_gravity_refstate-mantle.xmf,1295,-4.45659e-06,1.18008e-05,0,7.82078e-06,-1.61664e+09,-1.61446e+09,-1.61604e+09,1.04525e+06,0.00509129,0.0626502,0,0.0628567,-1000,-55998.8,-0,56007.7,1.04525e+06
step02_gravity_refstate-mantle.xmf,1296,-1.2605e-06,3.71953e-06,0,-2.2715e-06,-1.47227e+09,-1.4716e+09,-1.4721e+09,-303586,0.000453606,0.0532763,0,0.0532782,4139.47,-51539.9,0,51705.9,303586
step02_gravity_refstate-mantle.xmf,1297,-1.20461e-06,3.78374e-06,0,-2.68894e-06,-1.48574e+09,-1.48508e+09,-1.48558e+09,-359377,-6.25031e-05,0.0551337,-0,0.0551337,3685.66,-51956.7,0,52087.3,359377
step02_gravity_refstate-mantle.xmf,1298,-1.11612e-06,3.82303e-06,0,-3.35578e-06,-1.49762e+09,-1.49696e+09,-1.49747e+09,-448499,-0.000470076,0.0583215,-0,0.0583234,3162.56,-52324.2,0,52419.7,448499
step02_gravity_refstate-mantle.xmf,1299,-1.50748e-06,5.46925e-06,0,-7.61841e-06,-1.54231e+09,-1.54138e+09,-1.54211e+09,-1.0182e+06,-0.00194912,0.0757123,-0,0.0757374,1362.17,-53706.4,0,53723.6,1.0182e+06
step02_gravity_refstate-mantle.xmf,1300,-9.66619e-07,4.00859e-06,0,-5.51594e-06,-1.51665e+09,-1.51599e+09,-1.51652e+09,-737205,-0.000987456,0.0684305,-0,0.0684377,2076.93,-52913.7,0,52954.4,737205
step02_gravity_refstate-mantle.xmf,1301,-1.02462e-06,3.87786e-06,0,-4.25292e-06,-1.50762e+09,-1.50697e+09,-1.50748e+09,-568403,-0.000788442,0.0625153,-0,0.0625202,2642.91,-52634,0,52700.3,568403
step02_gravity_refstate-mantle.xmf,1302,-1.16059e-06,4.64266e-06,0,-6.58266e-06,-1.52972e+09,-1.52894e+09,-1.52956e+09,-879773,-0.00157761,0.0721228,-0,0.07214,1702.61,-53317.6,0,53344.8,879773
step02_gravity_refstate-mantle.xmf,1303,-1.22788e-06,3.93377e-06,0,-1.27744e-06,-1.46707e+09,-1.46638e+09,-1.4669e+09,-170730,-0.00106241,0.0450197,-0,0.0450323,5646.03,-51380,0,51689.3,170730
step02_gravity_refstate-mantle.xmf,1304,-9.34518e-07,4.08196e-06,0,-5.47293e-07,-1.49339e+09,-1.49272e+09,-1.49327e+09,-73145.7,-0.00446842,0.036179,-0,0.0364539,6957.59,-52195.6,0,52657.3,73145.7
step02_gravity_refstate-mantle.xmf,1305,-1.10158e-06,4.05913e-06,0,-8.79816e-07,-1.48054e+09,-1.47985e+09,-1.48039e+09,-117587,-0.00282399,0.0403521,-0,0.0404508,6302.65,-51797.4,0,52179.5,117587
step02_gravity_refstate-mantle.xmf,1306,5.66048e-07,2.96195e-06,0,2.75395e-07,-1.63116e+09,-1.63084e+09,-1.63124e+09,36806.5,-0.0122131,0.0105782,-0,0.0161573,14196.8,-56458.5,0,58216,36806.5
step02_gravity_refstate-mantle.xmf,1307,4.65807e-07,3.07123e-06,0,3.18922e-07,-1.60873e+09,-1.60838e+09,-1.60879e+09,42623.9,-0.0120185,0.0130557,-0,0.0177454,13242.4,-55765.2,0,57316,42623.9
step02_gravity_refstate-mantle.xmf,1308,6.8416e-07,2.97843e-06,0,1.9948e-07,-1.67151e+09,-1.6712e+09,-1.6716e+09,26660.5,-0.0132207,0.00690611,-0,0.0149158,14074.1,-57705.6,0,59397.1,26660.5
step02_gravity_refstate-mantle.xmf,1309,7.41895e-07,2.94335e-06,0,9.05852e-08,-1.71266e+09,-1.71237e+09,-1.71276e+09,12106.7,-0.013232,0.00303476,-0,0.0135756,14817.6,-58977.1,0,60810.1,12106.7
step02_gravity_refstate-mantle.xmf,1310,7.42654e-07,2.93968e-06,0,-2.42821e-09,-1.74578e+09,-1.74548e+09,-1.74587e+09,-324.531,-0.0128772,-2.93573e-19,-0,0.0128772,15465.3,-60000,0,61961.1,324.531
step02_gravity_refstate-mantle.xmf,1311,-4.30506e-06,1.34038e-05,0,4.35343e-06,-1.65687e+09,-1.6545e+09,-1.65629e+09,581835,0.00971088,0.0399924,0,0.0411545,-1464.2,-57246.7,-0,57265.4,581835
step02_gravity_refstate-mantle.xmf,1312,-3.15167e-06,1.13878e-05,0,1.42561e-06,-1.70972e+09,-1.70778e+09,-1.7093e+09,190533,0.0148548,0.0130065,0,0.0197442,-2543.69,-58881.8,-0,58936.8,190533
step02_gravity_refstate-mantle.xmf,1313,-3.18494e-06,1.14032e-05,0,7.3698e-07,-1.72729e+09,-1.72534e+09,-1.72687e+09,98497.4,0.0152703,0.006596,0,0.016634,-2640.94,-59424.4,-0,59483.1,98497.4
step02_gravity_refstate-mantle.xmf,1314,-2.60915e-06,1.0512e-05,0,-1.40074e-08,-1.74587e+09,-1.74412e+09,-1.74553e+09,-1872.09,0.0164229,-1.1974e-19,0,0.0164229,-3021.02,-60000,-0,60076,1872.09
step02_gravity_refstate-mantle.xmf,1315,-1.87477e-06,6.22992e-06,0,-8.78896e-06,-1.55182e+09,-1.55074e+09,-1.55157e+09,-1.17465e+06,-0.00184951,0.0805602,-0,0.0805814,1000,-53999.7,0,54008.9,1.17465e+06
step02_gravity_refstate-mantle.xmf,1316,-6.42579e-07,3.91244e-06,0,-1.39004e-07,-1.50506e+09,-1.50445e+09,-1.50497e+09,-18577.8,-0.00635032,0.0307614,-0,0.03141,8257.35,-52557.4,0,53202.1,18577.8
step02_gravity_refstate-mantle.xmf,1317,-1.26999e-06,3.98649e-06,0,-1.68268e-06,-1.47722e+09,-1.47652e+09,-1.47705e+09,-224890,-0.000877543,0.047862,-0,0.04787,4887.17,-51693.6,0,51924.1,224890
step02_gravity_refstate-mantle.xmf,1318,-7.69023e-07,4.06439e-06,0,-3.14327e-07,-1.50623e+09,-1.50558e+09,-1.50612e+09,-42009.8,-0.00589658,0.0327969,-0,0.0333228,7486.77,-52593.1,0,53123.3,42009.8
step02_gravity_refstate-mantle.xmf,1319,3.37989e-07,3.19593e-06,0,3.40475e-07,-1.58838e+09,-1.588e+09,-1.58842e+09,45504.4,-0.0115918,0.0155409,-0,0.0193879,12365.7,-55135.9,0,56505.6,45504.4
step02_gravity_refstate-mantle.xmf,1320,1.85324e-07,3.33738e-06,0,3.33605e-07,-1.57001e+09,-1.56958e+09,-1.57003e+09,44586.3,-0.0109785,0.0180906,-0,0.0211612,11507.9,-54567.8,0,55768,44586.3
step02_gravity_refstate-mantle.xmf,1321,7.20946e-09,3.48712e-06,0,2.91686e-07,-1.55259e+09,-1.55213e+09,-1.55259e+09,38983.9,-0.010142,0.0208214,-0,0.0231601,10684.1,-54029,0,55075.3,38983.9
step02_gravity_refstate-mantle.xmf,1322,-1.93448e-07,3.63615e-06,0,2.07275e-07,-1.53571e+09,-1.53519e+09,-1.53568e+09,27702.4,-0.00907279,0.0238042,-0,0.0254746,9891.77,-53506.5,0,54413.1,27702.4
step02_gravity_refstate-mantle.xmf,1323,-4.15129e-07,3.77528e-06,0,6.87006e-08,-1.51877e+09,-1.51821e+09,-1.51872e+09,9181.83,-0.00774517,0.0271614,-0,0.0282441,9112.21,-52982.2,0,53760.1,9181.83
step02_gravity_refstate-mantle.xmf,1324,-5.07054e-06,1.33667e-05,0,7.18072e-06,-1.63283e+09,-1.63037e+09,-1.63215e+09,959703,0.00601054,0.0563539,0,0.0566735,-1000,-56499,-0,56507.8,959703
step02_gravity_refstate-mantle.xmf,1325,-5.61607e-06,1.49744e-05,0,6.29284e-06,-1.64902e+09,-1.64627e+09,-1.64827e+09,841038,0.00694413,0.0492669,0,0.0497539,-1000,-56999.5,-0,57008.3,841038
step02_gravity_refstate-mantle.xmf,1326,-3.44948e-06,1.19971e-05,0,2.10236e-06,-1.69774e+09,-1.69567e+09,-1.69727e+09,280981,0.013753,0.0184533,0,0.0230145,-2245.57,-58511.2,-0,58554.3,280981
step02_gravity_refstate-mantle.xmf,1327,-3.76447e-06,1.27928e-05,0,3.02168e-06,-1.68359e+09,-1.68138e+09,-1.68309e+09,403847,0.0122221,0.0258449,0,0.0285892,-1871.05,-58074.3,-0,58104.4,403847
step02_gravity_refstate-mantle.xmf,1328,-4.12709e-06,1.41074e-05,0,4.07241e-06,-1.6731e+09,-1.67066e+09,-1.67254e+09,544277,0.0102697,0.0332895,0,0.0348376,-1439.64,-57750.9,-0,57768.9,544277
step02_gravity_refstate-mantle.xmf,1329,-1.25314e-06,4.12559e-06,0,-2.04352e-06,-1.49249e+09,-1.49177e+09,-1.49232e+09,-273117,-0.00143791,0.0494411,-0,0.049462,4338.16,-52165.8,0,52345.9,273117
step02_gravity_refstate-mantle.xmf,1330,-1.22848e-06,4.28979e-06,0,-2.63168e-06,-1.50684e+09,-1.50611e+09,-1.50668e+09,-351724,-0.0019507,0.0521827,-0,0.0522192,3724.34,-52609.7,0,52741.4,351724
step02_gravity_refstate-mantle.xmf,1331,-1.21825e-06,4.47281e-06,0,-3.38358e-06,-1.51787e+09,-1.51711e+09,-1.51771e+09,-452216,-0.00229161,0.0556437,-0,0.0556908,3170.69,-52951,0,53045.8,452216
step02_gravity_refstate-mantle.xmf,1332,-2.08227e-06,6.73089e-06,0,-7.47686e-06,-1.55945e+09,-1.55828e+09,-1.55917e+09,-999283,-0.00302945,0.0720305,-0,0.0720942,1388.88,-54235.3,0,54253.1,999283
step02_gravity_refstate-mantle.xmf,1333,-1.69503e-06,5.91886e-06,0,-6.394e-06,-1.54927e+09,-1.54826e+09,-1.54905e+09,-854558,-0.00305997,0.0678952,-0,0.0679641,1770.68,-53921.4,0,53950.5,854558
step02_gravity_refstate-mantle.xmf,1334,-1.25696e-06,4.74276e-06,0,-4.31556e-06,-1.52773e+09,-1.52693e+09,-1.52757e+09,-576775,-0.00254552,0.0597899,-0,0.0598441,2646.83,-53255.9,0,53321.7,576775
step02_gravity_refstate-mantle.xmf,1335,-1.41316e-06,5.23566e-06,0,-5.37871e-06,-1.53846e+09,-1.53757e+09,-1.53827e+09,-718864,-0.0028315,0.0641081,-0,0.0641706,2166.68,-53587.5,0,53631.3,718864
step02_gravity_refstate-mantle.xmf,1336,-1.15354e-06,4.20428e-06,0,-1.12824e-06,-1.49236e+09,-1.49165e+09,-1.49221e+09,-150789,-0.00300271,0.0418903,-0,0.0419978,5634.58,-52162.6,0,52466,150789
step02_gravity_refstate-mantle.xmf,1337,-7.92178e-07,4.23305e-06,0,-4.10441e-07,-1.51861e+09,-1.51794e+09,-1.5185e+09,-54855.4,-0.00643996,0.0330132,-0,0.0336354,6935.27,-52975.8,0,53427.8,54855.4
step02_gravity_refstate-mantle.xmf,1338,-9.90917e-07,4.26154e-06,0,-7.34115e-07,-1.50528e+09,-1.50458e+09,-1.50515e+09,-98114.4,-0.0047646,0.0372497,-0,0.0375532,6282.83,-52562.9,0,52937.1,98114.4
step02_gravity_refstate-mantle.xmf,1339,5.9438e-07,3.07234e-06,0,2.72511e-07,-1.64172e+09,-1.64138e+09,-1.64179e+09,36421.1,-0.0130984,0.00995104,-0,0.0164496,13177.3,-56784.9,0,58293.8,36421.1
step02_gravity_refstate-mantle.xmf,1340,4.9099e-07,3.19056e-06,0,3.15772e-07,-1.62052e+09,-1.62016e+09,-1.62059e+09,42203,-0.0128813,0.012395,-0,0.0178764,12320.1,-56129.9,0,57466.1,42203
step02_gravity_refstate-mantle.xmf,1341,7.66207e-07,3.04837e-06,0,8.99244e-08,-1.71554e+09,-1.71523e+09,-1.71564e+09,12018.4,-0.0141147,0.00286633,-0,0.0144028,13679.1,-59066.4,0,60629.7,12018.4
step02_gravity_refstate-mantle.xmf,1342,7.70787e-07,3.03165e-06,0,-2.0331e-09,-1.74576e+09,-1.74546e+09,-1.74586e+09,-271.724,-0.0137774,-2.76957e-19,-0,0.0137774,14275.5,-60000,0,61674.9,271.724
step02_gravity_refstate-mantle.xmf,1343,-5.81572e-06,1.65466e-05,0,4.93012e-06,-1.66512e+09,-1.66213e+09,-1.66434e+09,658910,0.00776549,0.0413905,0,0.0421127,-1000,-57499.6,-0,57508.3,658910
step02_gravity_refstate-mantle.xmf,1344,-4.08261e-06,1.27748e-05,0,1.36793e-06,-1.71694e+09,-1.71468e+09,-1.71639e+09,182824,0.0133419,0.011588,0,0.0176716,-2117.92,-59102.1,-0,59140,182824
step02_gravity_refstate-mantle.xmf,1345,-3.7239e-06,1.21758e-05,0,-5.80607e-09,-1.74598e+09,-1.74385e+09,-1.74548e+09,-775.981,0.0144322,-9.13307e-20,0,0.0144322,-2393.33,-60000,-0,60047.7,775.981
step02_gravity_refstate-mantle.xmf,1346,-2.51429e-06,7.55864e-06,0,-8.70316e-06,-1.56805e+09,-1.5667e+09,-1.56771e+09,-1.16318e+06,-0.00261327,0.0771094,-0,0.0771537,1000,-54500.1,0,54509.3,1.16318e+06
step02_gravity_refstate-mantle.xmf,1347,-5.82973e-07,4.13313e-06,0,-1.5502e-07,-1.53071e+09,-1.53008e+09,-1.53063e+09,-20718.4,-0.00787172,0.0292975,-0,0.0303366,7619.57,-53350.8,0,53892.2,20718.4
step02_gravity_refstate-mantle.xmf,1348,-1.19212e-06,4.35935e-06,0,-1.49655e-06,-1.50374e+09,-1.503e+09,-1.50358e+09,-200014,-0.00318064,0.0440106,-0,0.0441254,4959.77,-52514.3,0,52748,200014
step02_gravity_refstate-mantle.xmf,1349,3.58953e-07,3.33276e-06,0,3.34134e-07,-1.60145e+09,-1.60105e+09,-1.6015e+09,44657,-0.0124744,0.0148813,-0,0.0194182,11468.2,-55540.2,0,56711.8,44657
step02_gravity_refstate-mantle.xmf,1350,1.95265e-07,3.49178e-06,0,3.20745e-07,-1.58334e+09,-1.5829e+09,-1.58336e+09,42867.5,-0.0118264,0.0175512,-0,0.0211639,10642,-54980,0,56000.5,42867.5
step02_gravity_refstate-mantle.xmf,1351,9.12667e-09,3.65771e-06,0,2.68739e-07,-1.56682e+09,-1.56633e+09,-1.56682e+09,35917,-0.0109789,0.0203538,-0,0.0231261,9852.23,-54468.9,0,55352.7,35917
step02_gravity_refstate-mantle.xmf,1352,-4.18931e-07,3.95698e-06,0,2.46482e-08,-1.53492e+09,-1.53434e+09,-1.53487e+09,3294.23,-0.00857935,0.0267527,-0,0.0280947,8409.23,-53481.6,0,54138.7,3294.23
step02_gravity_refstate-mantle.xmf,1353,-1.99137e-07,3.81793e-06,0,1.71608e-07,-1.55069e+09,-1.55016e+09,-1.55067e+09,22935.4,-0.00988798,0.0234225,-0,0.0254241,9106.4,-53969.9,0,54732.8,22935.4
step02_gravity_refstate-mantle.xmf,1354,6.79743e-07,3.09578e-06,0,2.20573e-07,-1.66747e+09,-1.66715e+09,-1.66757e+09,29479.6,-0.0138855,0.00756064,-0,0.0158105,12976.4,-57581.3,0,59025.3,29479.6
step02_gravity_refstate-mantle.xmf,1355,7.41469e-07,3.08994e-06,0,1.57941e-07,-1.69231e+09,-1.692e+09,-1.69241e+09,21108.7,-0.0142687,0.00515121,-0,0.0151701,13107.6,-58348.9,0,59803.1,21108.7
step02_gravity_refstate-mantle.xmf,1356,-4.67024e-06,1.38042e-05,0,2.21914e-06,-1.70304e+09,-1.70058e+09,-1.70242e+09,296588,0.0117174,0.0185872,0,0.0219723,-1741.88,-58671.6,-0,58697.5,296588
step02_gravity_refstate-mantle.xmf,1357,-5.33356e-06,1.50358e-05,0,3.1097e-06,-1.69e+09,-1.68728e+09,-1.68929e+09,415612,0.0100737,0.026117,0,0.0279924,-1393.13,-58267.6,-0,58284.2,415612
step02_gravity_refstate-mantle.xmf,1358,-6.89697e-06,1.70339e-05,0,3.82831e-06,-1.68152e+09,-1.67832e+09,-1.68059e+09,511654,0.00794803,0.032758,0,0.0337084,-1000,-58000,-0,58008.6,511654
step02_gravity_refstate-mantle.xmf,1359,-4.38099e-06,1.31306e-05,0,6.14064e-07,-1.73328e+09,-1.73094e+09,-1.7327e+09,82069.7,0.0130695,0.00518184,0,0.0140593,-2057.08,-59606,-0,59641.5,82069.7
step02_gravity_refstate-mantle.xmf,1360,-1.2158e-06,4.55777e-06,0,-1.95923e-06,-1.51607e+09,-1.5153e+09,-1.51591e+09,-261851,-0.00354991,0.0462978,-0,0.0464337,4334.4,-52895.5,0,53072.8,261851
step02_gravity_refstate-mantle.xmf,1361,-1.26228e-06,4.83322e-06,0,-2.60848e-06,-1.52799e+09,-1.52718e+09,-1.52783e+09,-348623,-0.00390899,0.0493311,-0,0.0494857,3708.27,-53264.2,0,53393.1,348623
step02_gravity_refstate-mantle.xmf,1362,-1.34865e-06,5.1673e-06,0,-3.35685e-06,-1.5379e+09,-1.53703e+09,-1.53772e+09,-448643,-0.00416198,0.0526447,-0,0.052809,3172.01,-53570.5,0,53664.4,448643
step02_gravity_refstate-mantle.xmf,1363,-2.64996e-06,7.9987e-06,0,-7.26921e-06,-1.57657e+09,-1.57514e+09,-1.57621e+09,-971530,-0.00411911,0.067947,-0,0.0680718,1400.46,-54763.4,0,54781.3,971530
step02_gravity_refstate-mantle.xmf,1364,-2.18187e-06,7.10696e-06,0,-6.18265e-06,-1.56772e+09,-1.56648e+09,-1.56743e+09,-826311,-0.00446219,0.0637669,-0,0.0639228,1798.75,-54490.9,0,54520.6,826311
step02_gravity_refstate-mantle.xmf,1365,-1.80049e-06,6.31161e-06,0,-5.2093e-06,-1.55798e+09,-1.5569e+09,-1.55774e+09,-696223,-0.0044943,0.060119,-0,0.0602868,2204.98,-54190.7,0,54235.6,696223
step02_gravity_refstate-mantle.xmf,1366,-1.52245e-06,5.65577e-06,0,-4.27008e-06,-1.54788e+09,-1.54692e+09,-1.54768e+09,-570696,-0.0043497,0.0564962,-0,0.0566634,2651.76,-53878.9,0,53944.1,570696
step02_gravity_refstate-mantle.xmf,1367,-1.04356e-06,4.46151e-06,0,-1.00014e-06,-1.51672e+09,-1.51598e+09,-1.51658e+09,-133668,-0.00506251,0.0387364,-0,0.0390658,5611.46,-52916.4,0,53213.1,133668
step02_gravity_refstate-mantle.xmf,1368,-6.24658e-07,4.36444e-06,0,-2.94107e-07,-1.54315e+09,-1.54248e+09,-1.54306e+09,-39307.5,-0.00844951,0.0298009,-0,0.0309756,6919.61,-53735.3,0,54179,39307.5
step02_gravity_refstate-mantle.xmf,1369,-8.45843e-07,4.45671e-06,0,-6.05924e-07,-1.53022e+09,-1.52951e+09,-1.53011e+09,-80981.7,-0.00686033,0.0339986,-0,0.0346838,6254.9,-53334.8,0,53700.3,80981.7
step02_gravity_refstate-mantle.xmf,1370,6.164e-07,3.19536e-06,0,2.65961e-07,-1.6509e+09,-1.65056e+09,-1.65098e+09,35545.7,-0.0139234,0.00942836,-0,0.0168153,12254.1,-57069.2,0,58370,35545.7
step02_gravity_refstate-mantle.xmf,1371,5.14086e-07,3.33025e-06,0,3.03581e-07,-1.63206e+09,-1.63169e+09,-1.63213e+09,40573.6,-0.0137605,0.0117554,-0,0.0180981,11427.9,-56486.9,0,57631.3,40573.6
step02_gravity_refstate-mantle.xmf,1372,7.18436e-07,3.1885e-06,0,1.93584e-07,-1.68104e+09,-1.68071e+09,-1.68113e+09,25872.5,-0.014664,0.00644136,-0,0.0160163,12283.4,-58000.7,0,59287.2,25872.5
step02_gravity_refstate-mantle.xmf,1373,7.83055e-07,3.19502e-06,0,9.88687e-08,-1.7146e+09,-1.71428e+09,-1.71471e+09,13213.8,-0.0150669,0.00309397,-0,0.0153813,12439,-59038,0,60334.2,13213.8
step02_gravity_refstate-mantle.xmf,1374,7.9438e-07,3.14411e-06,0,-3.10393e-09,-1.74575e+09,-1.74543e+09,-1.74585e+09,-414.841,-0.0146634,-2.98147e-19,-0,0.0146634,13142.2,-60000,0,61422.4,414.841
step02_gravity_refstate-mantle.xmf,1375,-5.23695e-06,1.43869e-05,0,1.31202e-06,-1.72033e+09,-1.71771e+09,-1.71963e+09,175352,0.011025,0.0114923,0,0.0159255,-1622.49,-59203.3,-0,59225.6,175352
step02_gravity_refstate-mantle.xmf,1376,-5.00399e-06,1.3988e-05,0,-6.40166e-11,-1.7461e+09,-1.74357e+09,-1.74544e+09,-8.55582,0.0117745,-8.41093e-20,0,0.0117745,-1783.82,-60000,-0,60026.5,8.55582
step02_gravity_refstate-mantle.xmf,1377,-3.16299e-06,8.92051e-06,0,-8.52744e-06,-1.58426e+09,-1.58264e+09,-1.58383e+09,-1.13969e+06,-0.00339957,0.0729905,-0,0.0730696,1000,-54999.9,0,55009,1.13969e+06
step02_gravity_refstate-mantle.xmf,1378,-4.04035e-07,4.21519e-06,0,-5.90912e-08,-1.55518e+09,-1.55456e+09,-1.55512e+09,-7897.54,-0.00977067,0.0261645,-0,0.0279294,7609.4,-54108,0,54640.4,7897.54
step02_gravity_refstate-mantle.xmf,1379,-1.10411e-06,4.69909e-06,0,-1.38925e-06,-1.52759e+09,-1.52682e+09,-1.52745e+09,-185673,-0.00533718,0.0407707,-0,0.0411185,4941.9,-53252.5,0,53481.3,185673
step02_gravity_refstate-mantle.xmf,1380,3.75727e-07,3.49089e-06,0,3.15541e-07,-1.61373e+09,-1.61331e+09,-1.61378e+09,42172,-0.0133527,0.0143,-0,0.0195649,10610.4,-55920.1,0,56917.8,42172
step02_gravity_refstate-mantle.xmf,1381,2.08638e-07,3.66733e-06,0,2.92254e-07,-1.59686e+09,-1.5964e+09,-1.59689e+09,39059.8,-0.0127247,0.0169857,-0,0.0212234,9824.59,-55398.3,0,56262.8,39059.8
step02_gravity_refstate-mantle.xmf,1382,1.57154e-08,3.85503e-06,0,2.25945e-07,-1.58136e+09,-1.58085e+09,-1.58137e+09,30197.6,-0.0118922,0.0198705,-0,0.0231573,9054.68,-54918.8,0,55660.2,30197.6
step02_gravity_refstate-mantle.xmf,1383,-1.95579e-07,4.03197e-06,0,1.11511e-07,-1.56644e+09,-1.56588e+09,-1.56641e+09,14903.5,-0.0108255,0.0230052,-0,0.025425,8341.22,-54456.9,0,55092,14903.5
step02_gravity_refstate-mantle.xmf,1384,-6.11874e-06,1.57462e-05,0,1.93383e-06,-1.70777e+09,-1.70485e+09,-1.70696e+09,258456,0.00879855,0.0185863,0,0.0205637,-1207.37,-58813,-0,58825.4,258456
step02_gravity_refstate-mantle.xmf,1385,-7.10634e-06,1.74163e-05,0,2.38222e-06,-1.69513e+09,-1.69185e+09,-1.69418e+09,318384,0.00647573,0.0265322,0,0.027311,-823.469,-58420,-0,58425.8,318384
step02_gravity_refstate-mantle.xmf,1386,-5.58124e-06,1.47977e-05,0,5.64345e-07,-1.73492e+09,-1.7322e+09,-1.73418e+09,75424.7,0.010334,0.00513321,0,0.0115387,-1507.9,-59652.9,-0,59671.9,75424.7
step02_gravity_refstate-mantle.xmf,1387,-1.18445e-06,4.99438e-06,0,-1.90079e-06,-1.53805e+09,-1.53722e+09,-1.53789e+09,-254040,-0.00560181,0.0433064,-0,0.0436672,4297.31,-53575.7,0,53747.8,254040
step02_gravity_refstate-mantle.xmf,1388,-1.30158e-06,5.37034e-06,0,-2.52378e-06,-1.54784e+09,-1.54695e+09,-1.54767e+09,-337304,-0.00583559,0.04617,-0,0.0465373,3711.51,-53878.5,0,54006.2,337304
step02_gravity_refstate-mantle.xmf,1389,-1.48324e-06,5.8621e-06,0,-3.24988e-06,-1.55739e+09,-1.55641e+09,-1.55719e+09,-434346,-0.00602283,0.0492813,-0,0.049648,3176.06,-54173.3,0,54266.3,434346
step02_gravity_refstate-mantle.xmf,1390,-3.20533e-06,9.28107e-06,0,-6.98347e-06,-1.59357e+09,-1.5919e+09,-1.59314e+09,-933341,-0.00520251,0.0634558,-0,0.0636687,1397.9,-55288.1,0,55305.8,933341
step02_gravity_refstate-mantle.xmf,1391,-2.63949e-06,8.27234e-06,0,-5.88638e-06,-1.58596e+09,-1.5845e+09,-1.58561e+09,-786714,-0.00585749,0.0592723,-0,0.059561,1809.92,-55054.3,0,55084,786714
step02_gravity_refstate-mantle.xmf,1392,-2.15485e-06,7.33444e-06,0,-4.96569e-06,-1.57683e+09,-1.57557e+09,-1.57655e+09,-663664,-0.00610266,0.0559293,-0,0.0562612,2221.7,-54773.3,0,54818.3,663664
step02_gravity_refstate-mantle.xmf,1393,-1.77083e-06,6.52673e-06,0,-4.10686e-06,-1.56713e+09,-1.56602e+09,-1.56689e+09,-548881,-0.00610688,0.052754,-0,0.0531063,2662.3,-54473.9,0,54538.9,548881
step02_gravity_refstate-mantle.xmf,1394,-9.14671e-07,4.72901e-06,0,-8.96263e-07,-1.5414e+09,-1.54064e+09,-1.54127e+09,-119786,-0.00724946,0.0354827,-0,0.0362157,5558.14,-53680.3,0,53967.2,119786
step02_gravity_refstate-mantle.xmf,1395,-4.39091e-07,4.49195e-06,0,-2.0281e-07,-1.56835e+09,-1.56769e+09,-1.56829e+09,-27105.5,-0.0105207,0.0264367,-0,0.0284532,6891.16,-54515.3,0,54949.1,27105.5
step02_gravity_refstate-mantle.xmf,1396,-6.82341e-07,4.6528e-06,0,-5.02939e-07,-1.55533e+09,-1.55461e+09,-1.55524e+09,-67217.8,-0.00902981,0.0306381,-0,0.0319411,6209.45,-54111.9,0,54467,67217.8
step02_gravity_refstate-mantle.xmf,1397,6.47089e-07,3.33423e-06,0,2.4337e-07,-1.66321e+09,-1.66286e+09,-1.6633e+09,32526.4,-0.0148293,0.00856469,-0,0.0171249,11393.1,-57450.1,0,58568.9,32526.4
step02_gravity_refstate-mantle.xmf,1398,5.32716e-07,3.4931e-06,0,2.8153e-07,-1.64344e+09,-1.64305e+09,-1.64351e+09,37626.5,-0.0146439,0.0111173,-0,0.0183858,10576.7,-56838.9,0,57814.6,37626.5
step02_gravity_refstate-mantle.xmf,1399,7.53499e-07,3.32947e-06,0,1.57527e-07,-1.69603e+09,-1.69568e+09,-1.69613e+09,21053.4,-0.0155872,0.00516872,-0,0.0164219,11423.4,-58464.3,0,59569.8,21053.4
step02_gravity_refstate-mantle.xmf,1400,8.06778e-07,3.28748e-06,0,-1.42152e-09,-1.74573e+09,-1.7454e+09,-1.74584e+09,-189.986,-0.0155274,-2.19375e-19,-0,0.0155274,12062.5,-60000,0,61200.5,189.986
step02_gravity_refstate-mantle.xmf,1401,-8.16702e-06,1.95366e-05,0,2.16647e-06,-1.68158e+09,-1.67788e+09,-1.68049e+09,289549,0.00417786,0.0356225,0,0.0358666,-499.828,-58000,-0,58002.2,289549
step02_gravity_refstate-mantle.xmf,1402,-6.33436e-06,1.58271e-05,0,9.36506e-07,-1.72609e+09,-1.72312e+09,-1.72524e+09,125164,0.00820535,0.00984243,0,0.0128141,-1141.22,-59377.4,-0,59388.4,125164
step02_gravity_refstate-mantle.xmf,1403,-6.28754e-06,1.5758e-05,0,2.26554e-08,-1.74624e+09,-1.74329e+09,-1.7454e+09,3027.9,0.00841189,-1.20167e-19,0,0.00841189,-1186.26,-60000,-0,60011.7,3027.9
step02_gravity_refstate-mantle.xmf,1404,-3.79379e-06,1.03742e-05,0,-8.21283e-06,-1.60044e+09,-1.59854e+09,-1.59993e+09,-1.09764e+06,-0.00422151,0.0681832,-0,0.0683138,1000,-55499.2,0,55508.2,1.09764e+06
step02_gravity_refstate-mantle.xmf,1405,-2.05707e-07,4.29704e-06,0,1.15901e-08,-1.58136e+09,-1.58076e+09,-1.58134e+09,1549.01,-0.0117633,0.0227837,-0,0.0256412,7581.89,-54918.5,0,55439.4,1549.01
step02_gravity_refstate-mantle.xmf,1406,-1.02236e-06,5.05314e-06,0,-1.32536e-06,-1.55051e+09,-1.54969e+09,-1.55037e+09,-177134,-0.00744494,0.0377121,-0,0.03844,4872.77,-53961.7,0,54181.3,177134
step02_gravity_refstate-mantle.xmf,1407,3.90708e-07,3.66932e-06,0,2.81112e-07,-1.62579e+09,-1.62535e+09,-1.62584e+09,37570.6,-0.0142297,0.0137092,-0,0.0197592,9818.96,-56293.1,0,57143,37570.6
step02_gravity_refstate-mantle.xmf,1408,2.19419e-07,3.87642e-06,0,2.44722e-07,-1.61064e+09,-1.61015e+09,-1.61067e+09,32707.1,-0.0136723,0.016396,-0,0.0213486,9036.55,-55824.5,0,56551.2,32707.1
step02_gravity_refstate-mantle.xmf,1409,1.29007e-08,4.09032e-06,0,1.55876e-07,-1.59512e+09,-1.59458e+09,-1.59512e+09,20832.8,-0.0128014,0.0195093,-0,0.0233343,8285.72,-55344.4,0,55961.2,20832.8
step02_gravity_refstate-mantle.xmf,1410,7.97292e-07,3.34907e-06,0,7.44584e-08,-1.72383e+09,-1.72349e+09,-1.72394e+09,9951.36,-0.0158959,0.00227863,-0,0.0160583,11496.1,-59323.5,0,60427.2,9951.36
step02_gravity_refstate-mantle.xmf,1411,-8.23849e-06,1.89561e-05,0,8.42947e-07,-1.6965e+09,-1.69287e+09,-1.6954e+09,112660,0.00210663,0.0274822,0,0.0275628,-255.724,-58458.8,-0,58459.4,112660
step02_gravity_refstate-mantle.xmf,1412,-7.38791e-06,1.74679e-05,0,1.05803e-06,-1.7145e+09,-1.71118e+09,-1.71352e+09,141406,0.00480132,0.0167502,0,0.0174247,-626.422,-59016.8,-0,59020.2,141406
step02_gravity_refstate-mantle.xmf,1413,-1.16672e-06,5.4389e-06,0,-1.85881e-06,-1.55862e+09,-1.55774e+09,-1.55846e+09,-248430,-0.0075311,0.0404653,-0,0.0411602,4227.87,-54212.4,0,54377,248430
step02_gravity_refstate-mantle.xmf,1414,-1.33919e-06,5.89805e-06,0,-2.41267e-06,-1.56687e+09,-1.5659e+09,-1.56669e+09,-322453,-0.00767962,0.0429661,-0,0.043647,3697.51,-54467.3,0,54592.6,322453
step02_gravity_refstate-mantle.xmf,1415,-4.43368e-06,1.18452e-05,0,-7.78671e-06,-1.61663e+09,-1.61445e+09,-1.61603e+09,-1.04069e+06,-0.0050912,0.0626505,-0,0.062857,1000,-55998.8,0,56007.7,1.04069e+06
step02_gravity_refstate-mantle.xmf,1416,-3.73673e-06,1.06369e-05,0,-6.64602e-06,-1.6101e+09,-1.60818e+09,-1.6096e+09,-888240,-0.00617385,0.0589269,-0,0.0592495,1363.25,-55798.8,0,55815.5,888240
step02_gravity_refstate-mantle.xmf,1417,-1.59934e-06,6.53277e-06,0,-3.07081e-06,-1.57647e+09,-1.57539e+09,-1.57626e+09,-410414,-0.00785053,0.0456034,-0,0.0462742,3177.99,-54763.8,0,54856,410414
step02_gravity_refstate-mantle.xmf,1418,-3.07733e-06,9.43535e-06,0,-5.58032e-06,-1.6036e+09,-1.60193e+09,-1.60319e+09,-745810,-0.00711472,0.0548863,-0,0.0553455,1778.33,-55599.4,0,55627.9,745810
step02_gravity_refstate-mantle.xmf,1419,-2.48247e-06,8.35102e-06,0,-4.66364e-06,-1.5957e+09,-1.59425e+09,-1.59537e+09,-623296,-0.00766416,0.0515165,-0,0.0520835,2208.75,-55356.4,0,55400.4,623296
step02_gravity_refstate-mantle.xmf,1420,-2.00168e-06,7.39451e-06,0,-3.88141e-06,-1.58643e+09,-1.58517e+09,-1.58616e+09,-518750,-0.00783177,0.0487498,-0,0.0493749,2648.7,-55070.8,0,55134.5,518750
step02_gravity_refstate-mantle.xmf,1421,-2.49369e-07,4.61449e-06,0,-1.35628e-07,-1.59386e+09,-1.59321e+09,-1.59383e+09,-18126.7,-0.0125519,0.0229365,-0,0.0261464,6858.36,-55305,0,55728.6,18126.7
step02_gravity_refstate-mantle.xmf,1422,-7.80908e-07,5.07065e-06,0,-8.41994e-07,-1.5688e+09,-1.56802e+09,-1.56869e+09,-112532,-0.00968696,0.031889,-0,0.0333278,5439.76,-54528.5,0,54799.1,112532
step02_gravity_refstate-mantle.xmf,1423,-5.00568e-07,4.83883e-06,0,-4.08147e-07,-1.58088e+09,-1.58016e+09,-1.58081e+09,-54548.8,-0.01124,0.0269705,-0,0.0292189,6186.29,-54902.9,0,55250.3,54548.8
step02_gravity_refstate-mantle.xmf,1424,6.71706e-07,3.52634e-06,0,2.1007e-07,-1.67666e+09,-1.67628e+09,-1.67675e+09,28075.8,-0.0158684,0.00761076,-0,0.0175991,10402.1,-57866.2,0,58793.7,28075.8
step02_gravity_refstate-mantle.xmf,1425,5.28157e-07,3.65987e-06,0,2.54413e-07,-1.65028e+09,-1.64986e+09,-1.65035e+09,34002.3,-0.0153017,0.0109066,-0,0.0187908,9845.43,-57050.6,0,57893.9,34002.3
step02_gravity_refstate-mantle.xmf,1426,7.76853e-07,3.53552e-06,0,9.46591e-08,-1.71682e+09,-1.71645e+09,-1.71692e+09,12651.2,-0.0165889,0.0031767,-0,0.0168903,10526.6,-59107.2,0,60037.2,12651.2
step02_gravity_refstate-mantle.xmf,1427,8.06857e-07,3.46551e-06,0,-2.65926e-09,-1.74572e+09,-1.74536e+09,-1.74583e+09,-355.41,-0.0163568,-3.05495e-19,-0,0.0163568,11033.6,-60000,0,61006.1,355.41
step02_gravity_refstate-mantle.xmf,1428,-8.59341e-06,2.02836e-05,0,6.15707e-09,-1.68161e+09,-1.67775e+09,-1.68047e+09,822.893,7.00972e-07,0.0366795,0,0.0366795,-1.02887e-10,-58000,-0,58000,822.893
step02_gravity_refstate-mantle.xmf,1429,-7.02341e-06,1.67642e-05,0,4.91556e-07,-1.73282e+09,-1.72964e+09,-1.73188e+09,65696.4,0.00547766,0.00696895,0,0.00886403,-739.969,-59583.1,-0,59587.7,65696.4
step02_gravity_refstate-mantle.xmf,1430,-5.07028e-06,1.3371e-05,0,-7.17516e-06,-1.63283e+09,-1.63037e+09,-1.63215e+09,-958960,-0.00600999,0.0563538,-0,0.0566734,1000,-56499,0,56507.8,958960
step02_gravity_refstate-mantle.xmf,1431,-4.25447e-06,1.1911e-05,0,-6.3716e-06,-1.62439e+09,-1.62223e+09,-1.62382e+09,-851565,-0.00684827,0.0550258,-0,0.0554503,1294.21,-56240,0,56254.9,851565
step02_gravity_refstate-mantle.xmf,1432,-1.67856e-08,4.37974e-06,0,4.96348e-08,-1.60734e+09,-1.60676e+09,-1.60734e+09,6633.69,-0.0136293,0.0194049,-0,0.0237131,7533.37,-55722.5,0,56229.4,6633.69
step02_gravity_refstate-mantle.xmf,1433,-9.78202e-07,5.46282e-06,0,-1.35478e-06,-1.57218e+09,-1.57132e+09,-1.57205e+09,-181067,-0.00934001,0.0352814,-0,0.0364968,4682.93,-54632.6,0,54832.9,181067
step02_gravity_refstate-mantle.xmf,1434,4.16926e-07,3.88092e-06,0,2.32814e-07,-1.64138e+09,-1.64091e+09,-1.64143e+09,31115.6,-0.0152857,0.0126848,-0,0.0198635,9053.06,-56775.3,0,57492.6,31115.6
step02_gravity_refstate-mantle.xmf,1435,2.04979e-07,4.14156e-06,0,1.70171e-07,-1.62314e+09,-1.62262e+09,-1.62317e+09,22743.4,-0.0145717,0.0160241,-0,0.0216589,8236.43,-56211.4,0,56811.6,22743.4
step02_gravity_refstate-mantle.xmf,1436,-8.16886e-06,1.93774e-05,0,-2.27748e-06,-1.6816e+09,-1.67792e+09,-1.68051e+09,-304385,-0.00417918,0.0356277,-0,0.035872,499.828,-58000,0,58002.2,304385
step02_gravity_refstate-mantle.xmf,1437,-8.14807e-06,1.89288e-05,0,-8.23855e-07,-1.69663e+09,-1.69301e+09,-1.69554e+09,-110108,-0.00203235,0.027409,-0,0.0274842,247.134,-58463.3,0,58463.9,110108
step02_gravity_refstate-mantle.xmf,1438,-7.95989e-06,1.81701e-05,0,-7.82947e-08,-1.71269e+09,-1.7092e+09,-1.71163e+09,-10464.1,-0.000155179,0.0183899,-0,0.0183906,19.6298,-58958.8,0,58958.8,10464.1
step02_gravity_refstate-mantle.xmf,1439,-7.59449e-06,1.75043e-05,0,1.98594e-07,-1.73028e+09,-1.72692e+09,-1.72926e+09,26542.1,0.00196509,0.00864673,0,0.00886722,-258.913,-59502.8,-0,59503.4,26542.1
step02_gravity_refstate-mantle.xmf,1440,-7.25361e-06,1.70166e-05,0,3.24006e-08,-1.74634e+09,-1.7431e+09,-1.74537e+09,4330.35,0.00440677,-1.3106e-19,0,0.00440677,-593.045,-60000,-0,60002.9,4330.35
step02_gravity_refstate-mantle.xmf,1441,-1.15736e-06,5.83073e-06,0,-1.82667e-06,-1.57531e+09,-1.57438e+09,-1.57515e+09,-244135,-0.00907505,0.0380575,-0,0.0391245,4154.28,-54729,0,54886.4,244135
step02_gravity_refstate-mantle.xmf,1442,-1.34003e-06,6.36715e-06,0,-2.20478e-06,-1.58539e+09,-1.58436e+09,-1.58521e+09,-294669,-0.00951262,0.0392357,-0,0.0403724,3725.02,-55040.5,0,55166.4,294669
step02_gravity_refstate-mantle.xmf,1443,-4.14838e-06,1.23479e-05,0,-5.12532e-06,-1.63847e+09,-1.63627e+09,-1.63792e+09,-684999,-0.00860431,0.0471487,-0,0.0479274,1480.66,-56676.8,0,56696.1,684999
step02_gravity_refstate-mantle.xmf,1444,-3.50325e-06,1.07137e-05,0,-5.21056e-06,-1.62169e+09,-1.61979e+09,-1.62122e+09,-696392,-0.00825665,0.0502113,-0,0.0508856,1706.88,-56158.5,0,56184.5,696392
step02_gravity_refstate-mantle.xmf,1445,-1.6807e-06,7.16716e-06,0,-2.82147e-06,-1.59579e+09,-1.5946e+09,-1.59556e+09,-377089,-0.00967841,0.0414713,-0,0.0425857,3182.27,-55361.4,0,55452.8,377089
step02_gravity_refstate-mantle.xmf,1446,-2.74496e-06,9.32755e-06,0,-4.26438e-06,-1.61458e+09,-1.61297e+09,-1.61421e+09,-569934,-0.00917898,0.0466495,-0,0.047544,2183.28,-55940.4,0,55983,569934
step02_gravity_refstate-mantle.xmf,1447,-2.17259e-06,8.21024e-06,0,-3.54591e-06,-1.60589e+09,-1.60451e+09,-1.6056e+09,-473910,-0.00955686,0.0441354,-0,0.0451582,2640.76,-55673,0,55735.6,473910
step02_gravity_refstate-mantle.xmf,1448,-8.55296e-08,4.73576e-06,0,-9.94018e-08,-1.6179e+09,-1.61726e+09,-1.61789e+09,-13285.1,-0.0143291,0.0195983,-0,0.0242779,6804.98,-56049,0,56460.6,13285.1
step02_gravity_refstate-mantle.xmf,1449,-3.28221e-07,5.00299e-06,0,-3.31406e-07,-1.60542e+09,-1.60471e+09,-1.60538e+09,-44292.4,-0.0132611,0.0232889,-0,0.0267998,6169.38,-55662.7,0,56003.5,44292.4
step02_gravity_refstate-mantle.xmf,1450,-5.86513e-07,5.26598e-06,0,-6.57964e-07,-1.59404e+09,-1.59326e+09,-1.59396e+09,-87936.8,-0.0120256,0.0274032,-0,0.0299258,5541.06,-55309.9,0,55586.8,87936.8
step02_gravity_refstate-mantle.xmf,1451,5.89463e-07,3.78553e-06,0,2.02331e-07,-1.66987e+09,-1.66945e+09,-1.66995e+09,27041.5,-0.01628,0.00897835,-0,0.0185916,9409.61,-57656.6,0,58419.3,27041.5
step02_gravity_refstate-mantle.xmf,1452,7.09396e-07,3.73397e-06,0,1.3638e-07,-1.69969e+09,-1.69928e+09,-1.69978e+09,18227.2,-0.0169655,0.00537089,-0,0.0177954,9639.32,-58578.1,0,59365.9,18227.2
step02_gravity_refstate-mantle.xmf,1453,7.84601e-07,3.68848e-06,0,-1.22434e-09,-1.7457e+09,-1.74532e+09,-1.74581e+09,-163.633,-0.0171371,-2.3004e-19,-0,0.0171371,10053,-60000,0,60836.4,163.633
step02_gravity_refstate-mantle.xmf,1454,-7.44041e-06,1.79276e-05,0,-2.15316e-06,-1.69391e+09,-1.69052e+09,-1.69291e+09,-287770,-0.00541295,0.0278004,-0,0.0283225,674.557,-58381.4,0,58385.3,287770
step02_gravity_refstate-mantle.xmf,1455,-5.61261e-06,1.4977e-05,0,-6.29529e-06,-1.64902e+09,-1.64627e+09,-1.64827e+09,-841366,-0.00694323,0.0492676,-0,0.0497544,1000,-56999.5,0,57008.3,841366
step02_gravity_refstate-mantle.xmf,1456,1.40746e-07,4.47315e-06,0,5.74203e-08,-1.63216e+09,-1.63158e+09,-1.63218e+09,7674.23,-0.0152491,0.0161769,-0,0.0222312,7446.84,-56490.4,0,56979.2,7674.23
step02_gravity_refstate-mantle.xmf,1457,-8.05161e-07,5.49878e-06,0,-1.01363e-06,-1.58698e+09,-1.58614e+09,-1.58687e+09,-135472,-0.0110224,0.0310148,-0,0.0329153,5006.87,-55091,0,55318,135472
step02_gravity_refstate-mantle.xmf,1458,-1.01987e-06,6.00348e-06,0,-1.46467e-06,-1.59255e+09,-1.59162e+09,-1.59242e+09,-195753,-0.0109659,0.0334616,-0,0.0352126,4378.88,-55263.1,0,55436.3,195753
step02_gravity_refstate-mantle.xmf,1459,3.5274e-07,4.27098e-06,0,1.27136e-07,-1.65173e+09,-1.6512e+09,-1.65177e+09,16991.8,-0.0161877,0.0126323,-0,0.0205333,8011.49,-57095.6,0,57655,16991.8
step02_gravity_refstate-mantle.xmf,1460,5.07075e-07,4.01067e-06,0,1.74756e-07,-1.66516e+09,-1.66469e+09,-1.66522e+09,23356.2,-0.0164901,0.0101326,-0,0.0193544,8702.32,-57510.8,0,58165.5,23356.2
step02_gravity_refstate-mantle.xmf,1461,7.52632e-07,3.78702e-06,0,6.58207e-08,-1.72534e+09,-1.72493e+09,-1.72544e+09,8796.94,-0.0174003,0.00239694,-0,0.0175646,9585.67,-59370.9,0,60139.7,8796.94
step02_gravity_refstate-mantle.xmf,1462,-6.28173e-06,1.68037e-05,0,-3.6373e-06,-1.6814e+09,-1.67832e+09,-1.68056e+09,-486125,-0.00794826,0.0327617,-0,0.033712,1000,-58000,0,58008.6,486125
step02_gravity_refstate-mantle.xmf,1463,-7.37601e-06,1.73626e-05,0,-1.2397e-06,-1.71118e+09,-1.70787e+09,-1.71019e+09,-165686,-0.00477159,0.0185548,-0,0.0191585,617.674,-58913.9,0,58917.1,165686
step02_gravity_refstate-mantle.xmf,1464,-7.58342e-06,1.74535e-05,0,-3.17036e-07,-1.72945e+09,-1.72611e+09,-1.72844e+09,-42371.8,-0.00236952,0.00907124,-0,0.00937561,311.939,-59477.2,0,59478.1,42371.8
step02_gravity_refstate-mantle.xmf,1465,-7.61811e-06,1.74889e-05,0,2.58095e-08,-1.74638e+09,-1.74302e+09,-1.74536e+09,3449.43,-5.9286e-08,-1.24136e-19,-0,5.9286e-08,-4.92291e-08,-60000,-0,60000,3449.43
step02_gravity_refstate-mantle.xmf,1466,-4.31668e-06,1.34498e-05,0,-4.31695e-06,-1.65614e+09,-1.65376e+09,-1.65556e+09,-576961,-0.00959914,0.0404633,-0,0.0415863,1448.28,-57224.1,0,57242.4,576961
step02_gravity_refstate-mantle.xmf,1467,-1.3167e-06,6.81175e-06,0,-1.97853e-06,-1.6051e+09,-1.60401e+09,-1.60492e+09,-264431,-0.0113895,0.0350483,-0,0.0368525,3748.14,-55650.6,0,55776.7,264431
step02_gravity_refstate-mantle.xmf,1468,-2.96756e-06,1.04032e-05,0,-3.79223e-06,-1.6351e+09,-1.63331e+09,-1.6347e+09,-506831,-0.0106217,0.0411068,-0,0.042457,2116.55,-56575.5,0,56615.1,506831
step02_gravity_refstate-mantle.xmf,1469,-1.72155e-06,7.75912e-06,0,-2.53807e-06,-1.61557e+09,-1.6143e+09,-1.61534e+09,-339213,-0.0114585,0.0369429,-0,0.0386791,3177.19,-55973.8,0,56063.9,339213
step02_gravity_refstate-mantle.xmf,1470,-2.23895e-06,8.88459e-06,0,-3.12142e-06,-1.62522e+09,-1.62374e+09,-1.62493e+09,-417178,-0.0112396,0.0389014,-0,0.0404926,2653.21,-56271.5,0,56334,417178
step02_gravity_refstate-mantle.xmf,1471,3.33173e-08,4.87885e-06,0,-9.42188e-08,-1.64008e+09,-1.63944e+09,-1.64009e+09,-12592.3,-0.0158002,0.0165354,-0,0.0228706,6703.87,-56735.4,0,57130.1,12592.3
step02_gravity_refstate-mantle.xmf,1472,-1.90466e-07,5.17203e-06,0,-2.86991e-07,-1.62854e+09,-1.62783e+09,-1.62852e+09,-38356.4,-0.0149868,0.0198051,-0,0.0248364,6118.04,-56378.1,0,56709.1,38356.4
step02_gravity_refstate-mantle.xmf,1473,-7.33057e-07,5.78923e-06,0,-9.67473e-07,-1.60551e+09,-1.60463e+09,-1.60541e+09,-129303,-0.012616,0.0281853,-0,0.03088,4923.23,-55664.5,0,55881.8,129303
step02_gravity_refstate-mantle.xmf,1474,-4.53843e-07,5.48696e-06,0,-5.76804e-07,-1.61671e+09,-1.61591e+09,-1.61665e+09,-77089.8,-0.0139,0.0237512,-0,0.0275196,5510.26,-56011.6,0,56282,77089.8
step02_gravity_refstate-mantle.xmf,1475,6.07465e-07,4.00218e-06,0,1.39049e-07,-1.68803e+09,-1.68758e+09,-1.68812e+09,18583.9,-0.0172355,0.00722299,-0,0.0186878,8784.27,-58218.2,0,58877.2,18583.9
step02_gravity_refstate-mantle.xmf,1476,6.81933e-07,4.06594e-06,0,6.90605e-08,-1.71844e+09,-1.71799e+09,-1.71853e+09,9229.93,-0.0179305,0.00344715,-0,0.0182589,8731.16,-59158.2,0,59799,9229.93
step02_gravity_refstate-mantle.xmf,1477,7.34279e-07,3.97e-06,0,-1.68882e-09,-1.74569e+09,-1.74526e+09,-1.74579e+09,-225.711,-0.0178472,-3.30651e-19,-0,0.0178472,9118.31,-60000,0,60688.9,225.711
step02_gravity_refstate-mantle.xmf,1478,-6.32616e-06,1.62165e-05,0,-2.40035e-06,-1.69908e+09,-1.69607e+09,-1.69824e+09,-320807,-0.00810681,0.0233811,-0,0.0247466,1076.18,-58544.4,0,58554.3,320807
step02_gravity_refstate-mantle.xmf,1479,-5.87278e-06,1.61974e-05,0,-5.0718e-06,-1.66516e+09,-1.66221e+09,-1.66438e+09,-677846,-0.00776588,0.0413902,-0,0.0421125,1000,-57499.6,0,57508.3,677846
step02_gravity_refstate-mantle.xmf,1480,-3.47295e-06,1.1704e-05,0,-3.86325e-06,-1.64927e+09,-1.64724e+09,-1.6488e+09,-516324,-0.010723,0.0390629,-0,0.0405079,1840.15,-57013,0,57042.7,516324
step02_gravity_refstate-mantle.xmf,1481,2.13382e-07,4.63411e-06,0,1.85814e-08,-1.65144e+09,-1.65085e+09,-1.65147e+09,2483.4,-0.0163933,0.0138496,-0,0.0214605,7227.92,-57086.8,0,57542.5,2483.4
step02_gravity_refstate-mantle.xmf,1482,4.83394e-07,4.26204e-06,0,1.18012e-07,-1.67706e+09,-1.67656e+09,-1.67713e+09,15772.2,-0.0172575,0.00920528,-0,0.0195591,8075.86,-57879.1,0,58439.8,15772.2
step02_gravity_refstate-mantle.xmf,1483,-4.37807e-06,1.38562e-05,0,-3.7808e-06,-1.67275e+09,-1.67032e+09,-1.67217e+09,-505304,-0.0103178,0.0333624,-0,0.0349215,1452.61,-57738,0,57756.3,505304
step02_gravity_refstate-mantle.xmf,1484,-4.99086e-06,1.44312e-05,0,-3.1001e-06,-1.68932e+09,-1.68673e+09,-1.68865e+09,-414328,-0.0104845,0.0259562,-0,0.0279937,1471.84,-58247.2,0,58265.8,414328
step02_gravity_refstate-mantle.xmf,1485,-6.10552e-06,1.56189e-05,0,-1.55012e-06,-1.7151e+09,-1.71219e+09,-1.71428e+09,-207173,-0.00876809,0.0150108,-0,0.017384,1215.74,-59039,0,59051.5,207173
step02_gravity_refstate-mantle.xmf,1486,-6.81928e-06,1.64504e-05,0,-6.71591e-07,-1.73009e+09,-1.72698e+09,-1.72917e+09,-89758.1,-0.00653387,0.00821685,-0,0.010498,890.897,-59499.4,0,59506,89758.1
step02_gravity_refstate-mantle.xmf,1487,-7.23994e-06,1.70061e-05,0,5.95356e-09,-1.74634e+09,-1.7431e+09,-1.74537e+09,795.693,-0.00440462,-1.00434e-19,-0,0.00440462,593.045,-60000,0,60002.9,795.693
step02_gravity_refstate-mantle.xmf,1488,-3.42152e-06,1.20093e-05,0,-3.38802e-06,-1.66348e+09,-1.66142e+09,-1.66302e+09,-452808,-0.0116973,0.033391,-0,0.0353805,1889.87,-57453.3,0,57484.4,452808
step02_gravity_refstate-mantle.xmf,1489,-9.68554e-07,6.44292e-06,0,-1.33933e-06,-1.61554e+09,-1.61455e+09,-1.61541e+09,-179001,-0.0129642,0.0294028,-0,0.032134,4313.97,-55974.7,0,56140.7,179001
step02_gravity_refstate-mantle.xmf,1490,-1.30609e-06,7.29528e-06,0,-1.78686e-06,-1.62596e+09,-1.62481e+09,-1.62579e+09,-238814,-0.0131558,0.0307308,-0,0.0334284,3711.93,-56296.5,0,56418.7,238814
step02_gravity_refstate-mantle.xmf,1491,-2.7894e-06,1.06128e-05,0,-3.10006e-06,-1.65317e+09,-1.65138e+09,-1.6528e+09,-414324,-0.0123082,0.0338597,-0,0.0360274,2265.4,-57135.6,0,57180.5,414324
step02_gravity_refstate-mantle.xmf,1492,-1.73337e-06,8.28364e-06,0,-2.25677e-06,-1.63537e+09,-1.63403e+09,-1.63514e+09,-301617,-0.0130738,0.0321179,-0,0.0346769,3164.87,-56586.7,0,56675.2,301617
step02_gravity_refstate-mantle.xmf,1493,-2.24899e-06,9.40958e-06,0,-2.73447e-06,-1.6437e+09,-1.64215e+09,-1.6434e+09,-365461,-0.0127004,0.0335369,-0,0.0358611,2669.03,-56843.5,0,56906.2,365461
step02_gravity_refstate-mantle.xmf,1494,3.32636e-07,4.64372e-06,0,3.18814e-08,-1.67204e+09,-1.67146e+09,-1.67208e+09,4260.95,-0.0173652,0.01076,-0,0.0204286,7317.64,-57723.8,0,58185.8,4260.95
step02_gravity_refstate-mantle.xmf,1495,1.30252e-07,5.00095e-06,0,-8.82666e-08,-1.66129e+09,-1.66064e+09,-1.6613e+09,-11796.8,-0.0170122,0.0134189,-0,0.0216676,6642.43,-57391.3,0,57774.4,11796.8
step02_gravity_refstate-mantle.xmf,1496,-9.07811e-08,5.33869e-06,0,-2.5845e-07,-1.65004e+09,-1.64932e+09,-1.65003e+09,-34541.9,-0.0163916,0.0164713,-0,0.0232376,6057.14,-57043.4,0,57364.1,34541.9
step02_gravity_refstate-mantle.xmf,1497,-3.53182e-07,5.70981e-06,0,-5.16759e-07,-1.63864e+09,-1.63783e+09,-1.63859e+09,-69064.9,-0.0155157,0.0201286,-0,0.0254145,5459.79,-56690.3,0,56952.6,69064.9
step02_gravity_refstate-mantle.xmf,1498,-6.47743e-07,6.08573e-06,0,-8.75163e-07,-1.6271e+09,-1.6262e+09,-1.62702e+09,-116965,-0.0143697,0.0244277,-0,0.0283408,4876.38,-56333,0,56543.6,116965
step02_gravity_refstate-mantle.xmf,1499,5.53218e-07,4.34191e-06,0,8.13024e-08,-1.70102e+09,-1.70052e+09,-1.7011e+09,10866.1,-0.0180288,0.00604999,-0,0.0190169,8024.78,-58620,0,59166.7,10866.1
step02_gravity_refstate-mantle.xmf,1500,6.46039e-07,4.31673e-06,0,-8.16165e-10,-1.74568e+09,-1.74519e+09,-1.74577e+09,-109.08,-0.0184616,-2.88965e-19,-0,0.0184616,8227.38,-60000,0,60561.5,109.08
step02_gravity_refstate-mantle.xmf,1501,-5.30404e-06,1.46511e-05,0,-2.24945e-06,-1.70347e+09,-1.70081e+09,-1.70276e+09,-300639,-0.0104383,0.0195051,-0,0.0221226,1485.71,-58682.8,0,58701.6,300639
step02_gravity_refstate-mantle.xmf,1502,5.53342e-07,4.53142e-06,0,3.01754e-08,-1.72416e+09,-1.72362e+09,-1.72423e+09,4032.94,-0.0186321,0.00302962,-0,0.0188768,7720.61,-59335,0,59835.2,4032.94
step02_gravity_refstate-mantle.xmf,1503,4.17272e-07,4.71745e-06,0,2.24139e-08,-1.69709e+09,-1.69652e+09,-1.69715e+09,2995.62,-0.0182807,0.0071682,-0,0.0196359,7285.84,-58498.5,0,58950.5,2995.62
step02_gravity_refstate-mantle.xmf,1504,-3.62107e-06,1.23521e-05,0,-2.92483e-06,-1.68045e+09,-1.67831e+09,-1.67996e+09,-390904,-0.0123932,0.0266896,-0,0.0294266,1930.53,-57977,0,58009.1,390904
step02_gravity_refstate-mantle.xmf,1505,-4.11387e-06,1.29265e-05,0,-2.31041e-06,-1.69796e+09,-1.69568e+09,-1.69741e+09,-308786,-0.01254,0.0198484,-0,0.0234779,1926.48,-58516.1,0,58547.8,308786
step02_gravity_refstate-mantle.xmf,1506,-4.81172e-06,1.38062e-05,0,-1.57098e-06,-1.71499e+09,-1.7125e+09,-1.71434e+09,-209962,-0.0117977,0.0134062,-0,0.0178581,1770.19,-59039.6,0,59066.1,209962
step02_gravity_refstate-mantle.xmf,1507,-5.59264e-06,1.48123e-05,0,-7.7421e-07,-1.73071e+09,-1.72798e+09,-1.72996e+09,-103473,-0.0102474,0.00708203,-0,0.0124565,1489.51,-59522.6,0,59541.2,103473
step02_gravity_refstate-mantle.xmf,1508,-6.25885e-06,1.57141e-05,0,-6.59079e-09,-1.74623e+09,-1.7433e+09,-1.7454e+09,-880.86,-0.0084095,-7.7667e-20,-0,0.0084095,1186.26,-60000,0,60011.7,880.86
step02_gravity_refstate-mantle.xmf,1509,-2.7594e-06,1.08094e-05,0,-2.61672e-06,-1.67023e+09,-1.66842e+09,-1.66987e+09,-349724,-0.013498,0.0273787,-0,0.0305252,2377.59,-57663.3,0,57712.3,349724
step02_gravity_refstate-mantle.xmf,1510,-9.27975e-07,6.82537e-06,0,-1.20893e-06,-1.63703e+09,-1.63599e+09,-1.6369e+09,-161574,-0.0146473,0.025241,-0,0.029183,4265.69,-56639.5,0,56799.9,161574
step02_gravity_refstate-mantle.xmf,1511,-1.29966e-06,7.71871e-06,0,-1.59139e-06,-1.64654e+09,-1.64534e+09,-1.64637e+09,-212689,-0.014691,0.0260896,-0,0.0299415,3687.95,-56933.3,0,57052.6,212689
step02_gravity_refstate-mantle.xmf,1512,-2.27688e-06,9.75769e-06,0,-2.46491e-06,-1.65917e+09,-1.65756e+09,-1.65887e+09,-329435,-0.0137369,0.0288001,-0,0.0319084,2689.52,-57322.1,0,57385.1,329435
step02_gravity_refstate-mantle.xmf,1513,-1.7693e-06,8.75228e-06,0,-2.01794e-06,-1.65452e+09,-1.65311e+09,-1.65428e+09,-269698,-0.0143776,0.0272227,-0,0.0307862,3141.68,-57179.1,0,57265.3,269698
step02_gravity_refstate-mantle.xmf,1514,2.12487e-07,5.10091e-06,0,-7.14948e-08,-1.68358e+09,-1.68293e+09,-1.68361e+09,-9555.28,-0.0180285,0.00997155,-0,0.0206024,6620.72,-58080.9,0,58457,9555.28
step02_gravity_refstate-mantle.xmf,1515,-1.94679e-08,5.50126e-06,0,-2.27128e-07,-1.67166e+09,-1.67092e+09,-1.67166e+09,-30355.6,-0.0175652,0.0129674,-0,0.0218332,6003.7,-57712,0,58023.4,30355.6
step02_gravity_refstate-mantle.xmf,1516,-2.83119e-07,5.92103e-06,0,-4.56743e-07,-1.66007e+09,-1.65924e+09,-1.66003e+09,-61043.7,-0.0168613,0.016408,-0,0.0235271,5415.04,-57353.3,0,57608.4,61043.7
step02_gravity_refstate-mantle.xmf,1517,-5.86121e-07,6.36811e-06,0,-7.83346e-07,-1.64852e+09,-1.64759e+09,-1.64844e+09,-104694,-0.0158911,0.0204744,-0,0.0259177,4832.96,-56995.7,0,57200.2,104694
step02_gravity_refstate-mantle.xmf,1518,5.024e-07,4.7563e-06,0,-3.53034e-10,-1.74568e+09,-1.74511e+09,-1.74574e+09,-47.183,-0.0189486,-3.16435e-19,-0,0.0189486,7377.92,-60000,0,60451.9,47.183
step02_gravity_refstate-mantle.xmf,1519,3.95408e-07,4.96972e-06,0,-4.22396e-09,-1.72419e+09,-1.72358e+09,-1.72425e+09,-564.532,-0.0189846,0.00331739,-0,0.0192723,6977.22,-59336.2,0,59745,564.532
step02_gravity_refstate-mantle.xmf,1520,2.40154e-07,5.2541e-06,0,-6.16638e-08,-1.70669e+09,-1.70602e+09,-1.70672e+09,-8241.37,-0.0187929,0.006394,-0,0.0198509,6517.52,-58795.2,0,59155.3,8241.37
step02_gravity_refstate-mantle.xmf,1521,-2.89128e-06,1.10134e-05,0,-2.11026e-06,-1.68845e+09,-1.68659e+09,-1.68806e+09,-282037,-0.0143275,0.0206887,-0,0.0251655,2470.54,-58225.5,0,58277.9,282037
step02_gravity_refstate-mantle.xmf,1522,-3.38556e-06,1.1751e-05,0,-1.44303e-06,-1.71079e+09,-1.70877e+09,-1.71034e+09,-192861,-0.0144709,0.0130032,-0,0.0194548,2424.19,-58914.2,0,58964.1,192861
step02_gravity_refstate-mantle.xmf,1523,-4.29873e-06,1.29981e-05,0,-6.63008e-07,-1.73171e+09,-1.7294e+09,-1.73114e+09,-88611,-0.0132137,0.00576989,-0,0.0144185,2090.15,-59557.7,0,59594.3,88611
step02_gravity_refstate-mantle.xmf,1524,-4.99573e-06,1.39917e-05,0,-1.30906e-08,-1.7461e+09,-1.74356e+09,-1.74543e+09,-1749.55,-0.0117742,-5.91813e-20,-0,0.0117742,1783.82,-60000,0,60026.5,1749.55
step02_gravity_refstate-mantle.xmf,1525,-2.05384e-06,9.5216e-06,0,-1.86213e-06,-1.6752e+09,-1.67365e+09,-1.67492e+09,-248873,-0.0151764,0.0222341,-0,0.0269199,2990.94,-57818,0,57895.3,248873
step02_gravity_refstate-mantle.xmf,1526,-9.17962e-07,7.17382e-06,0,-1.06748e-06,-1.65833e+09,-1.65725e+09,-1.65821e+09,-142668,-0.0160634,0.0207776,-0,0.0262629,4232.07,-57298.7,0,57454.8,142668
step02_gravity_refstate-mantle.xmf,1527,-1.36322e-06,8.15344e-06,0,-1.403e-06,-1.66735e+09,-1.66608e+09,-1.66717e+09,-187511,-0.0159131,0.0211864,-0,0.026497,3647.16,-57576.7,0,57692.1,187511
step02_gravity_refstate-mantle.xmf,1528,2.05447e-08,5.65639e-06,0,-1.81524e-07,-1.69377e+09,-1.69301e+09,-1.69377e+09,-24260.7,-0.0184794,0.0092356,-0,0.0206588,5957,-58395.6,0,58698.6,24260.7
step02_gravity_refstate-mantle.xmf,1529,-2.50772e-07,6.13005e-06,0,-3.85438e-07,-1.68166e+09,-1.6808e+09,-1.68162e+09,-51513.8,-0.0179364,0.0124977,-0,0.0218611,5369.64,-58020.9,0,58268.8,51513.8
step02_gravity_refstate-mantle.xmf,1530,-5.71203e-07,6.65919e-06,0,-6.90048e-07,-1.66996e+09,-1.66899e+09,-1.66988e+09,-92224.9,-0.0171289,0.0163428,-0,0.0236746,4777.81,-57658.7,0,57856.3,92224.9
step02_gravity_refstate-mantle.xmf,1531,2.8516e-07,5.3084e-06,0,2.90236e-10,-1.74568e+09,-1.74501e+09,-1.74572e+09,38.79,-0.0192701,-2.90551e-19,-0,0.0192701,6567.63,-60000,0,60358.4,38.79
step02_gravity_refstate-mantle.xmf,1532,2.31906e-07,5.3781e-06,0,-3.39911e-08,-1.72759e+09,-1.7269e+09,-1.72762e+09,-4542.91,-0.0192037,0.00303051,-0,0.0194413,6404.44,-59441,0,59785.1,4542.91
step02_gravity_refstate-mantle.xmf,1533,1.55158e-08,5.83364e-06,0,-1.21407e-07,-1.7169e+09,-1.71612e+09,-1.7169e+09,-16226,-0.0191013,0.00522389,-0,0.0198028,5876.03,-59110.5,0,59401.8,16226
step02_gravity_refstate-mantle.xmf,1534,-2.27379e-06,9.93451e-06,0,-1.42755e-06,-1.6973e+09,-1.69567e+09,-1.697e+09,-190793,-0.0159178,0.0155074,-0,0.0222229,3007.59,-58500.4,0,58577.7,190793
step02_gravity_refstate-mantle.xmf,1535,-3.07734e-06,1.1219e-05,0,-5.97166e-07,-1.72979e+09,-1.72788e+09,-1.72938e+09,-79811.3,-0.0154996,0.0056194,-0,0.0164868,2710.5,-59501.9,0,59563.6,79811.3
step02_gravity_refstate-mantle.xmf,1536,-3.72904e-06,1.21872e-05,0,-1.59921e-08,-1.74598e+09,-1.74385e+09,-1.74548e+09,-2137.34,-0.0144334,-5.50997e-20,-0,0.0144334,2393.33,-60000,0,60047.7,2137.34
step02_gravity_refstate-mantle.xmf,1537,-9.60494e-07,7.51481e-06,0,-8.88521e-07,-1.68043e+09,-1.6793e+09,-1.6803e+09,-118751,-0.0171994,0.0158505,-0,0.0233893,4207.62,-57981.9,0,58134.3,118751
step02_gravity_refstate-mantle.xmf,1538,-1.52192e-06,8.61287e-06,0,-1.14499e-06,-1.68955e+09,-1.68819e+09,-1.68934e+09,-153027,-0.0168215,0.0156004,-0,0.022942,3605.9,-58262.5,0,58373.9,153027
step02_gravity_refstate-mantle.xmf,1539,-2.52236e-07,6.31183e-06,0,-2.82226e-07,-1.70304e+09,-1.70217e+09,-1.70301e+09,-37719.5,-0.0187012,0.00844808,-0,0.0205208,5335.57,-58682,0,58924.1,37719.5
step02_gravity_refstate-mantle.xmf,1540,-5.79312e-07,6.89582e-06,0,-5.48961e-07,-1.69157e+09,-1.69058e+09,-1.6915e+09,-73368.6,-0.0180778,0.0118638,-0,0.021623,4758.5,-58327,0,58520.8,73368.6
step02_gravity_refstate-mantle.xmf,1541,-3.7148e-09,5.96341e-06,0,5.67932e-09,-1.74569e+09,-1.74489e+09,-1.74569e+09,759.041,-0.0193779,-4.05152e-19,-0,0.0193779,5794.24,-60000,0,60279.1,759.041
step02_gravity_refstate-mantle.xmf,1542,-2.49962e-06,1.03121e-05,0,-9.70858e-07,-1.71546e+09,-1.71375e+09,-1.71513e+09,-129755,-0.0161997,0.00984755,-0,0.018958,2997.71,-59060.8,0,59136.9,129755
step02_gravity_refstate-mantle.xmf,1543,-3.04552e-07,6.52652e-06,0,-1.60028e-07,-1.72452e+09,-1.72361e+09,-1.72448e+09,-21387.8,-0.0191377,0.00429458,-0,0.0196137,5242.06,-59345.5,0,59576.6,21387.8
step02_gravity_refstate-mantle.xmf,1544,-1.75279e-06,9.08457e-06,0,-8.21304e-07,-1.7108e+09,-1.70935e+09,-1.71056e+09,-109767,-0.017237,0.0100324,-0,0.019944,3519.58,-58918.5,0,59023.6,109767
step02_gravity_refstate-mantle.xmf,1545,-2.13489e-06,9.73922e-06,0,-4.54542e-07,-1.72916e+09,-1.72757e+09,-1.72887e+09,-60749.6,-0.0170627,0.00504882,-0,0.017794,3311.99,-59484.9,0,59577,60749.6
step02_gravity_refstate-mantle.xmf,1546,-2.61046e-06,1.05115e-05,0,-1.09859e-08,-1.74587e+09,-1.74412e+09,-1.74553e+09,-1468.26,-0.0164229,-5.25835e-20,-0,0.0164229,3021.02,-60000,0,60076,1468.26
step02_gravity_refstate-mantle.xmf,1547,-1.02786e-06,7.78808e-06,0,-6.04106e-07,-1.70611e+09,-1.70494e+09,-1.70598e+09,-80738.8,-0.0181027,0.00973301,-0,0.0205533,4223.02,-58775.4,0,58926.9,80738.8
step02_gravity_refstate-mantle.xmf,1548,-5.94696e-07,7.00444e-06,0,-3.69414e-07,-1.70929e+09,-1.70827e+09,-1.70921e+09,-49372.2,-0.0186364,0.00800406,-0,0.0202826,4787.02,-58874.3,0,59068.6,49372.2
step02_gravity_refstate-mantle.xmf,1549,-7.42915e-07,7.36936e-06,0,-2.39642e-07,-1.72652e+09,-1.72543e+09,-1.72642e+09,-32028.1,-0.0188301,0.00439952,-0,0.0193372,4604.11,-59406.5,0,59584.6,32028.1
step02_gravity_refstate-mantle.xmf,1550,-4.16051e-07,6.79938e-06,0,6.18878e-09,-1.74571e+09,-1.74474e+09,-1.74565e+09,827.13,-0.0192175,-4.15566e-19,-0,0.0192175,5055.41,-60000,0,60212.6,827.13
step02_gravity_refstate-mantle.xmf,1551,-1.34906e-06,8.43738e-06,0,-3.41884e-07,-1.72736e+09,-1.72605e+09,-1.72718e+09,-45692.8,-0.0181536,0.00483232,-0,0.0187857,3948.45,-59431.2,0,59562.2,45692.8
step02_gravity_refstate-mantle.xmf,1552,-1.69766e-06,9.05763e-06,0,-8.40478e-09,-1.7458e+09,-1.74436e+09,-1.74557e+09,-1123.3,-0.0178219,-5.24292e-20,-0,0.0178219,3671.61,-60000,0,60112.2,1123.3
step02_gravity_refstate-mantle.xmf,1553,-9.94534e-07,7.82649e-06,0,4.85293e-09,-1.74575e+09,-1.74457e+09,-1.74561e+09,648.594,-0.0187247,2.20493e-19,-0,0.0187247,4348.74,-60000,0,60157.4,648.594
step02_gravity_refstate-intrusion.xmf,0,3.09632e-06,-5.63568e-06,0,5.82052e-06,-1.42229e+09,-1.42325e+09,-1.42263e+09,644587,-0.00388876,0.0841024,-0,0.0841922,-1000,-50000,-0,50010,644587
step02_gravity_refstate-intrusion.xmf,1,2.27041e-06,-3.2471e-06,0,7.50481e-06,-1.43845e+09,-1.43906e+09,-1.4387e+09,831112,-0.00362911,0.0859909,-0,0.0860675,-1000,-50499.8,-0,50509.7,831112
step02_gravity_refstate-intrusion.xmf,2,3.99113e-06,-8.5053e-06,0,3.00692e-06,-1.42233e+09,-1.42371e+09,-1.42277e+09,332998,-0.00210856,0.0882064,-0,0.0882316,-500,-50000,-0,50002.5,332998
step02_gravity_refstate-intrusion.xmf,3,4.3556e-06,-9.31033e-06,0,-5.59349e-08,-1.42232e+09,-1.42383e+09,-1.4228e+09,-6194.45,4.67808e-06,0.0895961,0,0.0895961,0,-50000,0,50000,6194.45
step02_gravity_refstate-intrusion.xmf,4,1.89062e-06,-1.96482e-06,0,8.55411e-06,-1.45461e+09,-1.45504e+09,-1.45482e+09,947316,-0.00288948,0.0872754,-0,0.0873233,-1000,-50999.8,-0,51009.6,947316
step02_gravity_refstate-intrusion.xmf,5,4.0456e-06,-8.54839e-06,0,-3.20038e-06,-1.42232e+09,-1.42371e+09,-1.42277e+09,-354423,0.00211141,0.0882002,0,0.0882254,500,-50000,0,50002.5,354423
step02_gravity_refstate-intrusion.xmf,6,1.40286e-06,-4.75551e-07,0,9.38843e-06,-1.4708e+09,-1.47101e+09,-1.47095e+09,1.03971e+06,-0.00205558,0.0878637,-0,0.0878877,-1000,-51500.3,-0,51510,1.03971e+06
step02_gravity_refstate-intrusion.xmf,7,2.40838e-06,-4.3591e-06,0,-6.15455e-06,-1.42232e+09,-1.42307e+09,-1.42259e+09,-681579,0.00388715,0.0840934,0,0.0841832,1000,-50000,0,50010,681579
step02_gravity_refstate-intrusion.xmf,8,8.22455e-07,9.21479e-07,0,9.93888e-06,-1.487e+09,-1.48699e+09,-1.48709e+09,1.10067e+06,-0.00122981,0.0877523,-0,0.0877609,-1000,-52000.6,-0,52010.2,1.10067e+06
step02_gravity_refstate-intrusion.xmf,9,2.27564e-06,-3.24991e-06,0,-7.50956e-06,-1.43845e+09,-1.43906e+09,-1.4387e+09,-831638,0.00362872,0.0859906,0,0.0860671,1000,-50499.8,0,50509.7,831638
step02_gravity_refstate-intrusion.xmf,10,1.81098e-07,2.28317e-06,0,1.02984e-05,-1.50319e+09,-1.50296e+09,-1.50321e+09,1.14049e+06,-0.000432227,0.0869523,-0,0.0869534,-1000,-52500.2,-0,52509.7,1.14049e+06
step02_gravity_refstate-intrusion.xmf,11,1.93728e-06,-1.88458e-06,0,-8.60641e-06,-1.4546e+09,-1.45502e+09,-1.45481e+09,-953108,0.00288948,0.0872741,0,0.0873219,1000,-50999.8,0,51009.6,953108
step02_gravity_refstate-intrusion.xmf,12,-4.68815e-07,3.60543e-06,0,1.05103e-05,-1.51938e+09,-1.51893e+09,-1.51933e+09,1.16396e+06,0.000338918,0.0854818,0,0.0854825,-1000,-52999.4,-0,53008.9,1.16396e+06
step02_gravity_refstate-intrusion.xmf,13,1.42245e-06,-4.74495e-07,0,-9.39247e-06,-1.4708e+09,-1.47101e+09,-1.47095e+09,-1.04016e+06,0.00205665,0.0878638,0,0.0878879,1000,-51500.3,0,51510,1.04016e+06
step02_gravity_refstate-intrusion.xmf,14,-1.13819e-06,4.9133e-06,0,1.05952e-05,-1.53559e+09,-1.53492e+09,-1.53546e+09,1.17335e+06,0.00109538,0.0833504,0,0.0833576,-1000,-53499.2,-0,53508.6,1.17335e+06
step02_gravity_refstate-intrusion.xmf,15,-1.80464e-06,6.23121e-06,0,1.05921e-05,-1.55182e+09,-1.55093e+09,-1.55162e+09,1.17301e+06,0.00184922,0.0805604,0,0.0805816,-1000,-53999.7,-0,54008.9,1.17301e+06
step02_gravity_refstate-intrusion.xmf,16,8.16492e-07,9.23176e-07,0,-9.93877e-06,-1.487e+09,-1.48699e+09,-1.48709e+09,-1.10066e+06,0.00122979,0.0877522,0,0.0877608,1000,-52000.6,0,52010.2,1.10066e+06
step02_gravity_refstate-intrusion.xmf,17,-2.46412e-06,7.56393e-06,0,1.04895e-05,-1.56804e+09,-1.56693e+09,-1.56777e+09,1.16165e+06,0.00261319,0.0771096,0,0.0771539,-1000,-54500.1,-0,54509.3,1.16165e+06
step02_gravity_refstate-intrusion.xmf,18,-3.14096e-06,8.92148e-06,0,1.02574e-05,-1.58425e+09,-1.58292e+09,-1.5839e+09,1.13594e+06,0.00339992,0.0729913,0,0.0730704,-1000,-54999.9,-0,55009,1.13594e+06
step02_gravity_refstate-intrusion.xmf,19,1.80459e-07,2.28229e-06,0,-1.0298e-05,-1.50319e+09,-1.50296e+09,-1.50321e+09,-1.14044e+06,0.000432104,0.0869521,0,0.0869532,1000,-52500.2,0,52509.7,1.14044e+06
step02_gravity_refstate-intrusion.xmf,20,-4.67877e-07,3.60555e-06,0,-1.05109e-05,-1.51938e+09,-1.51893e+09,-1.51933e+09,-1.16402e+06,-0.000338975,0.0854818,-0,0.0854825,1000,-52999.4,0,53008.9,1.16402e+06
step02_gravity_refstate-intrusion.xmf,21,-3.83692e-06,1.03971e-05,0,9.90927e-06,-1.60044e+09,-1.59886e+09,-1.60001e+09,1.09739e+06,0.00422195,0.0681827,0,0.0683133,-1000,-55499.2,-0,55508.2,1.09739e+06
step02_gravity_refstate-intrusion.xmf,22,-1.12662e-06,4.91784e-06,0,-1.06069e-05,-1.53559e+09,-1.53492e+09,-1.53546e+09,-1.17465e+06,-0.00109556,0.0833504,-0,0.0833576,1000,-53499.2,0,53508.6,1.17465e+06
step02_gravity_refstate-intrusion.xmf,23,-4.47606e-06,1.18008e-05,0,9.39131e-06,-1.61663e+09,-1.61482e+09,-1.61613e+09,1.04003e+06,0.00509129,0.0626502,0,0.0628567,-1000,-55998.8,-0,56007.7,1.04003e+06
step02_gravity_refstate-intrusion.xmf,24,-1.79068e-06,6.22992e-06,0,-1.05966e-05,-1.55182e+09,-1.55093e+09,-1.55162e+09,-1.17351e+06,-0.00184951,0.0805602,-0,0.0805814,1000,-53999.7,0,54008.9,1.17351e+06
step02_gravity_refstate-intrusion.xmf,25,-5.16467e-06,1.34778e-05,0,8.64124e-06,-1.63283e+09,-1.63076e+09,-1.63225e+09,956965,0.00601054,0.0563539,0,0.0566735,-1000,-56499,-0,56507.8,956965
step02_gravity_refstate-intrusion.xmf,26,-5.72314e-06,1.51125e-05,0,7.6012e-06,-1.64902e+09,-1.64671e+09,-1.64838e+09,841787,0.00694413,0.0492669,0,0.0497539,-1000,-56999.5,-0,57008.3,841787
step02_gravity_refstate-intrusion.xmf,27,-6.12024e-06,1.65466e-05,0,6.09002e-06,-1.66518e+09,-1.66267e+09,-1.6645e+09,674433,0.00776549,0.0413905,0,0.0421127,-1000,-57499.6,-0,57508.3,674433
step02_gravity_refstate-intrusion.xmf,28,-2.46009e-06,7.55864e-06,0,-1.0484e-05,-1.56804e+09,-1.56693e+09,-1.56777e+09,-1.16104e+06,-0.00261327,0.0771094,-0,0.0771537,1000,-54500.1,0,54509.3,1.16104e+06
step02_gravity_refstate-intrusion.xmf,29,-6.89697e-06,1.94816e-05,0,4.22592e-06,-1.68131e+09,-1.67839e+09,-1.68055e+09,467995,0.00794803,0.032758,0,0.0337084,-1000,-58000,-0,58008.6,467995
step02_gravity_refstate-intrusion.xmf,30,-3.13372e-06,8.92051e-06,0,-1.02628e-05,-1.58425e+09,-1.58292e+09,-1.5839e+09,-1.13654e+06,-0.00339957,0.0729905,-0,0.0730696,1000,-54999.9,0,55009,1.13654e+06
step02_gravity_refstate-intrusion.xmf,31,-8.16702e-06,2.2811e-05,0,2.44463e-06,-1.68131e+09,-1.67787e+09,-1.6804e+09,270728,0.00417786,0.0356225,0,0.0358666,-499.828,-58000,-0,58002.2,270728
step02_gravity_refstate-intrusion.xmf,32,-3.81102e-06,1.03318e-05,0,-9.91081e-06,-1.60044e+09,-1.59887e+09,-1.60001e+09,-1.09756e+06,-0.00422151,0.0681832,-0,0.0683138,1000,-55499.2,0,55508.2,1.09756e+06
step02_gravity_refstate-intrusion.xmf,33,-4.47479e-06,1.18035e-05,0,-9.39218e-06,-1.61663e+09,-1.61482e+09,-1.61613e+09,-1.04013e+06,-0.0050912,0.0626505,-0,0.062857,1000,-55998.8,0,56007.7,1.04013e+06
step02_gravity_refstate-intrusion.xmf,34,-8.54178e-06,2.36943e-05,0,-7.50942e-08,-1.68131e+09,-1.67774e+09,-1.68036e+09,-8316.22,7.00972e-07,0.0366795,0,0.0366795,-1.02887e-10,-58000,-0,58000,8316.22
step02_gravity_refstate-intrusion.xmf,35,-5.10738e-06,1.3371e-05,0,-8.66475e-06,-1.63282e+09,-1.63078e+09,-1.63226e+09,-959568,-0.00600999,0.0563538,-0,0.0566734,1000,-56499,0,56507.8,959568
step02_gravity_refstate-intrusion.xmf,36,-8.16886e-06,2.29777e-05,0,-2.70803e-06,-1.68129e+09,-1.67784e+09,-1.68039e+09,-299898,-0.00417918,0.0356277,-0,0.035872,499.828,-58000,0,58002.2,299898
step02_gravity_refstate-intrusion.xmf,37,-5.66594e-06,1.4977e-05,0,-7.61796e-06,-1.64902e+09,-1.64673e+09,-1.64839e+09,-843643,-0.00694323,0.0492676,-0,0.0497544,1000,-56999.5,0,57008.3,843643
step02_gravity_refstate-intrusion.xmf,38,-6.19174e-06,1.79214e-05,0,-4.64513e-06,-1.68129e+09,-1.67862e+09,-1.68061e+09,-514420,-0.00794826,0.0327617,-0,0.033712,1000,-58000,0,58008.6,514420
step02_gravity_refstate-intrusion.xmf,39,-6.1262e-06,1.65632e-05,0,-6.11754e-06,-1.66518e+09,-1.66266e+09,-1.6645e+09,-677480,-0.00776588,0.0413902,-0,0.0421125,1000,-57499.6,0,57508.3,677480
step02_gravity_refstate-intrusion.xmf,40,3.65531e-06,-5.99952e-06,0,4.16345e-06,-1.43397e+09,-1.43504e+09,-1.43438e+09,461076,-0.00266117,0.089855,-0,0.0898944,-636.59,-50363.3,-0,50367.4,461076
step02_gravity_refstate-intrusion.xmf,41,3.30304e-06,-4.5064e-06,0,4.42451e-06,-1.44687e+09,-1.44773e+09,-1.44723e+09,489988,-0.0021935,0.0922816,-0,0.0923077,-598.146,-50763,-0,50766.5,489988
step02_gravity_refstate-intrusion.xmf,42,4.32742e-06,-7.10464e-06,0,1.80904e-06,-1.43478e+09,-1.43605e+09,-1.43526e+09,200340,-0.0012252,0.0922869,-0,0.092295,-280.8,-50389.7,-0,50390.5,200340
step02_gravity_refstate-intrusion.xmf,43,4.37318e-06,-6.85516e-06,0,-1.2746e-06,-1.43682e+09,-1.43806e+09,-1.4373e+09,-141154,0.000919447,0.092968,0,0.0929726,212.705,-50453.3,0,50453.8,141154
step02_gravity_refstate-intrusion.xmf,44,2.2686e-06,-2.15171e-06,0,6.03865e-06,-1.46235e+09,-1.46284e+09,-1.4626e+09,668743,-0.00190998,0.0925554,-0,0.0925751,-703.672,-51240.4,-0,51245.2,668743
step02_gravity_refstate-intrusion.xmf,45,3.90071e-06,-5.36111e-06,0,1.19641e-06,-1.44667e+09,-1.4477e+09,-1.44711e+09,132495,-0.000637208,0.0949687,-0,0.0949709,-162.769,-50758.4,-0,50758.7,132495
step02_gravity_refstate-intrusion.xmf,46,3.79017e-06,-6.02151e-06,0,-4.03896e-06,-1.43395e+09,-1.43504e+09,-1.43437e+09,-447290,0.00266123,0.0898592,0,0.0898986,636.493,-50363.4,0,50367.5,447290
step02_gravity_refstate-intrusion.xmf,47,1.82006e-06,-9.43961e-07,0,4.80598e-06,-1.47704e+09,-1.47735e+09,-1.47724e+09,532233,-0.00101917,0.0954397,-0,0.0954451,-520.485,-51694.5,-0,51697.1,532233
step02_gravity_refstate-intrusion.xmf,48,3.03106e-06,-3.38182e-06,0,2.35498e-06,-1.46014e+09,-1.46085e+09,-1.46047e+09,260800,-0.000884106,0.0962409,-0,0.096245,-289.596,-51173.8,-0,51174.6,260800
step02_gravity_refstate-intrusion.xmf,49,3.41483e-06,-4.13491e-06,0,-1.22785e-06,-1.45453e+09,-1.45536e+09,-1.4549e+09,-135977,0.000568992,0.0961077,0,0.0961094,166.585,-51000.9,0,51001.2,135977
step02_gravity_refstate-intrusion.xmf,50,3.20338e-06,-4.29842e-06,0,-4.36154e-06,-1.4469e+09,-1.44773e+09,-1.44726e+09,-483014,0.00218672,0.0923049,0,0.0923308,596.265,-50763.9,0,50767.4,483014
step02_gravity_refstate-intrusion.xmf,51,8.20197e-07,1.17404e-06,0,5.79172e-06,-1.49535e+09,-1.49531e+09,-1.49544e+09,641398,-0.000543199,0.0946329,-0,0.0946344,-580.523,-52258.9,-0,52262.1,641398
step02_gravity_refstate-intrusion.xmf,52,2.30023e-06,-1.62009e-06,0,-7.59946e-07,-1.47331e+09,-1.47375e+09,-1.47357e+09,-84159.4,0.000201317,0.0979487,0,0.0979489,88.6637,-51580.5,0,51580.6,84159.4
step02_gravity_refstate-intrusion.xmf,53,2.43726e-06,-2.3227e-06,0,-4.81053e-06,-1.4631e+09,-1.46363e+09,-1.46337e+09,-532737,0.00156596,0.0942489,0,0.0942619,568.378,-51264.3,0,51267.5,532737
step02_gravity_refstate-intrusion.xmf,54,1.29877e-06,2.78913e-07,0,1.33602e-06,-1.48988e+09,-1.48999e+09,-1.49002e+09,147956,-0.000175142,0.0981622,-0,0.0981624,-136.384,-52090.6,-0,52090.8,147956
step02_gravity_refstate-intrusion.xmf,55,1.66288e-08,2.73583e-06,0,6.21198e-06,-1.51174e+09,-1.51144e+09,-1.51174e+09,687939,-5.33938e-05,0.0933534,-0,0.0933534,-603.06,-52764.3,-0,52767.7,687939
step02_gravity_refstate-intrusion.xmf,56,4.09799e-07,2.02923e-06,0,2.06053e-06,-1.5061e+09,-1.50592e+09,-1.50615e+09,228192,-8.38376e-05,0.0973306,-0,0.0973306,-202.103,-52590.7,-0,52591,228192
step02_gravity_refstate-intrusion.xmf,57,1.42551e-06,2.70986e-08,0,-2.6289e-06,-1.48729e+09,-1.48744e+09,-1.48745e+09,-291134,0.000391042,0.0975798,0,0.0975806,274.592,-52010.9,0,52011.6,291134
step02_gravity_refstate-intrusion.xmf,58,1.61696e-06,-5.09456e-07,0,-5.28997e-06,-1.47886e+09,-1.4791e+09,-1.47904e+09,-585832,0.00104404,0.0949585,0,0.0949642,567.152,-51750.4,0,51753.6,585832
step02_gravity_refstate-intrusion.xmf,59,6.66671e-07,1.51088e-06,0,-2.1501e-06,-1.5013e+09,-1.50121e+09,-1.50137e+09,-238110,0.000144502,0.0975333,0,0.0975334,215.611,-52442.7,0,52443.2,238110
step02_gravity_refstate-intrusion.xmf,60,-7.09005e-07,4.13304e-06,0,6.17106e-06,-1.52737e+09,-1.52684e+09,-1.52729e+09,683407,0.000402071,0.0918779,0,0.0918788,-589.66,-53246.1,-0,53249.4,683407
step02_gravity_refstate-intrusion.xmf,61,-2.79569e-07,3.32757e-06,0,2.863e-06,-1.51938e+09,-1.51898e+09,-1.51935e+09,317059,7.46422e-05,0.0958346,0,0.0958347,-277.129,-52999.8,-0,53000.5,317059
step02_gravity_refstate-intrusion.xmf,62,-2.53594e-07,3.28976e-06,0,-1.56891e-06,-1.51904e+09,-1.51865e+09,-1.51901e+09,-173747,-3.75711e-05,0.0964645,-0,0.0964645,152.905,-52989.4,0,52989.6,173747
step02_gravity_refstate-intrusion.xmf,63,8.27152e-07,1.08433e-06,0,-5.99833e-06,-1.49476e+09,-1.49473e+09,-1.49485e+09,-664278,0.00058117,0.0943387,0,0.0943405,605.053,-52240.6,0,52244.1,664278
step02_gravity_refstate-intrusion.xmf,64,5.84998e-08,2.6169e-06,0,-6.08395e-06,-1.51084e+09,-1.51056e+09,-1.51085e+09,-673760,8.04073e-05,0.0935556,0,0.0935556,593.413,-52736.5,0,52739.8,673760
step02_gravity_refstate-intrusion.xmf,65,-1.55663e-06,5.73019e-06,0,5.56239e-06,-1.54557e+09,-1.54476e+09,-1.54539e+09,616001,0.00082819,0.0898635,0,0.0898673,-530.003,-53806.9,-0,53809.5,616001
step02_gravity_refstate-intrusion.xmf,66,-9.22764e-07,4.55327e-06,0,1.50123e-06,-1.53265e+09,-1.53204e+09,-1.53254e+09,166252,0.000132835,0.0948513,0,0.0948514,-143.725,-53408.7,-0,53408.9,166252
step02_gravity_refstate-intrusion.xmf,67,-7.31311e-07,4.14272e-06,0,-6.23711e-06,-1.52742e+09,-1.52688e+09,-1.52734e+09,-690722,-0.000407555,0.0917847,-0,0.0917856,596.267,-53247.4,0,53250.7,690722
step02_gravity_refstate-intrusion.xmf,68,-2.20295e-06,6.97849e-06,0,7.55069e-06,-1.55994e+09,-1.55892e+09,-1.55969e+09,836192,0.0016235,0.0843485,0,0.0843641,-720.738,-54249.9,-0,54254.7,836192
step02_gravity_refstate-intrusion.xmf,69,-1.05179e-06,4.77879e-06,0,-2.80225e-06,-1.53498e+09,-1.53434e+09,-1.53487e+09,-310332,-0.000279293,0.0939419,-0,0.0939423,267.673,-53480.7,0,53481.3,310332
step02_gravity_refstate-intrusion.xmf,70,-2.89466e-06,8.29531e-06,0,6.92644e-06,-1.57463e+09,-1.5734e+09,-1.57431e+09,767061,0.00200249,0.081649,0,0.0816735,-671.934,-54702.8,-0,54707,767061
step02_gravity_refstate-intrusion.xmf,71,-2.39105e-06,7.28931e-06,0,3.49063e-06,-1.56246e+09,-1.56139e+09,-1.56219e+09,386566,0.000806612,0.0883645,0,0.0883682,-336.33,-54327.4,-0,54328.4,386566
step02_gravity_refstate-intrusion.xmf,72,-1.75291e-06,6.08505e-06,0,-8.65165e-07,-1.54924e+09,-1.54838e+09,-1.54905e+09,-95811.8,-0.000143588,0.0922863,-0,0.0922864,82.1887,-53920.1,0,53920.2,95811.8
step02_gravity_refstate-intrusion.xmf,73,-1.48462e-06,5.57694e-06,0,-5.96487e-06,-1.54371e+09,-1.54292e+09,-1.54354e+09,-660573,-0.000834842,0.0897303,-0,0.0897341,566.976,-53749.4,0,53752.4,660573
step02_gravity_refstate-intrusion.xmf,74,-3.78458e-06,9.98684e-06,0,5.11785e-06,-1.59083e+09,-1.58931e+09,-1.59041e+09,566771,0.0019794,0.0791556,0,0.0791804,-514.683,-55201.8,-0,55204.2,566771
step02_gravity_refstate-intrusion.xmf,75,-3.12003e-06,8.68375e-06,0,2.73673e-06,-1.57667e+09,-1.57536e+09,-1.57632e+09,303077,0.000835967,0.0853366,0,0.0853407,-267.375,-54765.3,-0,54766,303077
step02_gravity_refstate-intrusion.xmf,76,-2.6962e-06,7.84446e-06,0,-1.1987e-06,-1.56808e+09,-1.56691e+09,-1.56778e+09,-132749,-0.000308825,0.0881722,-0,0.0881727,114.996,-54500.4,0,54500.5,132749
step02_gravity_refstate-intrusion.xmf,77,-2.22811e-06,6.98234e-06,0,-5.81432e-06,-1.55951e+09,-1.55849e+09,-1.55927e+09,-643900,-0.00124491,0.0868195,-0,0.0868284,555.258,-54236.6,0,54239.5,643900
step02_gravity_refstate-intrusion.xmf,78,-4.65614e-06,1.17914e-05,0,5.50857e-06,-1.60874e+09,-1.60692e+09,-1.60823e+09,610041,0.0028189,0.072362,0,0.0724169,-583.835,-55754.2,-0,55757.3,610041
step02_gravity_refstate-intrusion.xmf,79,-3.69886e-06,9.77226e-06,0,-8.07416e-07,-1.58702e+09,-1.58552e+09,-1.58661e+09,-89416.4,-0.000302747,0.0831214,-0,0.0831219,82.3661,-55084,0,55084.1,89416.4
step02_gravity_refstate-intrusion.xmf,80,-5.48916e-06,1.34794e-05,0,5.18446e-06,-1.62439e+09,-1.62229e+09,-1.62379e+09,574147,0.00344795,0.0661148,0,0.0662047,-597.896,-56236.7,-0,56239.8,574147
step02_gravity_refstate-intrusion.xmf,81,-4.60983e-06,1.15179e-05,0,1.30217e-06,-1.60342e+09,-1.60163e+09,-1.60291e+09,144208,0.000631545,0.0776406,0,0.0776431,-137.361,-55589.4,-0,55589.6,144208
step02_gravity_refstate-intrusion.xmf,82,-3.04842e-06,8.53971e-06,0,-5.69276e-06,-1.57653e+09,-1.57524e+09,-1.57619e+09,-630438,-0.00171095,0.0827749,-0,0.0827925,553.316,-54761,0,54763.8,630438
step02_gravity_refstate-intrusion.xmf,83,-5.34981e-06,1.298e-05,0,2.36138e-06,-1.61679e+09,-1.61476e+09,-1.6162e+09,261509,0.00142911,0.072074,0,0.0720881,-265.274,-56001.4,-0,56002.1,261509
step02_gravity_refstate-intrusion.xmf,84,-4.43165e-06,1.11931e-05,0,-2.64968e-06,-1.6009e+09,-1.59917e+09,-1.6004e+09,-293436,-0.0012157,0.0779273,-0,0.0779368,274.062,-55511.8,0,55512.4,293436
step02_gravity_refstate-intrusion.xmf,85,-6.47178e-06,1.57793e-05,0,4.46731e-06,-1.64045e+09,-1.63799e+09,-1.63974e+09,494728,0.00399243,0.0590575,0,0.0591923,-585.884,-56732.2,-0,56735.3,494728
step02_gravity_refstate-intrusion.xmf,86,-7.3968e-06,1.82026e-05,0,3.77809e-06,-1.65699e+09,-1.65415e+09,-1.65617e+09,418400,0.00471675,0.0503702,0,0.0505906,-600.238,-57243.1,-0,57246.2,418400
step02_gravity_refstate-intrusion.xmf,87,-6.30685e-06,1.48065e-05,0,1.54344e-06,-1.63047e+09,-1.62814e+09,-1.62978e+09,170927,0.00123318,0.0665246,0,0.066536,-195.948,-56422.8,-0,56423.2,170927
step02_gravity_refstate-intrusion.xmf,88,-5.44909e-06,1.30527e-05,0,-1.51846e-06,-1.61701e+09,-1.61496e+09,-1.6164e+09,-168161,-0.00089085,0.0724244,-0,0.0724298,164.263,-56007.8,0,56008,168161
step02_gravity_refstate-intrusion.xmf,89,-3.81906e-06,1.01081e-05,0,-5.63123e-06,-1.59237e+09,-1.59083e+09,-1.59195e+09,-623625,-0.00222372,0.0780589,-0,0.0780906,567.431,-55249.5,0,55252.4,623625
step02_gravity_refstate-intrusion.xmf,90,-7.80061e-06,2.00051e-05,0,3.33982e-06,-1.66967e+09,-1.66659e+09,-1.6688e+09,369864,0.0053368,0.0426289,0,0.0429616,-636.534,-57636.5,-0,57640,369864
step02_gravity_refstate-intrusion.xmf,91,-4.63255e-06,1.17622e-05,0,-5.68615e-06,-1.60865e+09,-1.60683e+09,-1.60814e+09,-629707,-0.0029012,0.072173,-0,0.0722313,601.975,-55751.4,0,55754.6,629707
step02_gravity_refstate-intrusion.xmf,92,-7.70555e-06,1.80115e-05,0,8.89205e-07,-1.64917e+09,-1.64632e+09,-1.64832e+09,98474,0.00101146,0.0573113,0,0.0573202,-132.961,-56999.5,-0,56999.6,98474
step02_gravity_refstate-intrusion.xmf,93,-8.54271e-06,2.11187e-05,0,1.50438e-06,-1.66762e+09,-1.66433e+09,-1.66667e+09,166601,0.00228632,0.0458752,0,0.0459321,-267.111,-57571.3,-0,57572,166601
step02_gravity_refstate-intrusion.xmf,94,-6.63731e-06,1.55381e-05,0,-1.82225e-06,-1.63549e+09,-1.63304e+09,-1.63476e+09,-201804,-0.00152547,0.0640386,-0,0.0640567,229.829,-56577.6,0,56578.1,201804
step02_gravity_refstate-intrusion.xmf,95,-5.5675e-06,1.35716e-05,0,-5.27681e-06,-1.62526e+09,-1.62314e+09,-1.62464e+09,-584374,-0.00351077,0.0656916,-0,0.0657854,603.337,-56263.1,0,56266.3,584374
step02_gravity_refstate-intrusion.xmf,96,-8.55048e-06,2.08967e-05,0,-1.22864e-06,-1.66534e+09,-1.66208e+09,-1.6644e+09,-136065,-0.00196966,0.0474464,-0,0.0474872,231.667,-57500.7,0,57501.1,136065
step02_gravity_refstate-intrusion.xmf,97,-7.50526e-06,1.77797e-05,0,-2.13046e-06,-1.64957e+09,-1.64677e+09,-1.64874e+09,-235936,-0.00239305,0.0564405,-0,0.0564912,316.359,-57012.4,0,57013.2,235936
step02_gravity_refstate-intrusion.xmf,98,-6.44311e-06,1.55687e-05,0,-4.80612e-06,-1.64137e+09,-1.63893e+09,-1.64065e+09,-532248,-0.0042692,0.0582164,-0,0.0583727,623.926,-56760.2,0,56763.6,532248
step02_gravity_refstate-intrusion.xmf,99,-7.23637e-06,1.79121e-05,0,-3.9806e-06,-1.65664e+09,-1.65385e+09,-1.65584e+09,-440827,-0.0049497,0.0502579,-0,0.0505011,634.022,-57232.6,0,57236.1,440827
step02_gravity_refstate-intrusion.xmf,100,-8.0174e-06,2.04689e-05,0,-3.31596e-06,-1.66991e+09,-1.66675e+09,-1.66902e+09,-367223,-0.00554556,0.0422938,-0,0.0426558,662.605,-57643.6,0,57647.4,367223
step02_gravity_refstate-crust.xmf,0,-2.32363e-09,3.59587e-06,0,-1.21882e-09,-1.09857e+09,-1.09832e+09,-1.09857e+09,-83.6111,-9.06914e-21,0.0442428,-0,0.0442428,-40000,-40000,-0,56568.5,83.6111
step02_gravity_refstate-crust.xmf,1,-7.86996e-09,3.60227e-06,0,-9.07143e-09,-1.09857e+09,-1.09832e+09,-1.09857e+09,-622.3,-1.19234e-05,0.0442866,-0,0.0442866,-37557.3,-40000,-0,54868.5,622.3
step02_gravity_refstate-crust.xmf,2,-2.23139e-08,3.61678e-06,0,-1.41046e-08,-1.09857e+09,-1.09832e+09,-1.09857e+09,-967.578,-4.69877e-05,0.0444136,-0,0.0444137,-35229,-40000,-0,53301.8,967.578
step02_gravity_refstate-crust.xmf,3,-4.55343e-08,3.63946e-06,0,-1.56862e-08,-1.09857e+09,-1.09832e+09,-1.09857e+09,-1076.07,-0.000121695,0.0446226,-0,0.0446228,-33009.3,-40000,-0,51861.5,1076.07
step02_gravity_refstate-crust.xmf,4,-7.59236e-08,3.6685e-06,0,-1.17516e-08,-1.09857e+09,-1.09832e+09,-1.09857e+09,-806.156,-0.000249509,0.0449172,-0,0.0449179,-30892.4,-40000,-0,50540.5,806.156
step02_gravity_refstate-crust.xmf,5,-1.12403e-07,3.70244e-06,0,-5.64897e-10,-1.09858e+09,-1.09831e+09,-1.09857e+09,-38.752,-0.000439338,0.0453046,-0,0.0453067,-28873.1,-40000,-0,49332.1,38.752
step02_gravity_refstate-crust.xmf,6,-1.54508e-07,3.73967e-06,0,1.9293e-08,-1.09858e+09,-1.09831e+09,-1.09857e+09,1323.5,-0.000695844,0.045794,-0,0.0457993,-26946.1,-40000,-0,48229.6,1323.5
step02_gravity_refstate-crust.xmf,7,-2.00236e-07,3.77815e-06,0,4.93079e-08,-1.09858e+09,-1.09831e+09,-1.09857e+09,3382.52,-0.0010214,0.0463965,-0,0.0464078,-25106.5,-40000,-0,47226.4,3382.52
step02_gravity_refstate-crust.xmf,8,-2.47826e-07,3.81505e-06,0,9.10228e-08,-1.09859e+09,-1.09831e+09,-1.09857e+09,6244.17,-0.00141437,0.0471234,-0,0.0471446,-23349.5,-40000,-0,46316.3,6244.17
step02_gravity_refstate-crust.xmf,9,-2.9524e-07,3.84787e-06,0,1.45681e-07,-1.09859e+09,-1.0983e+09,-1.09857e+09,9993.73,-0.0018698,0.0479859,-0,0.0480223,-21670.5,-40000,-0,45493,9993.73
step02_gravity_refstate-crust.xmf,10,-3.39821e-07,3.87342e-06,0,2.13955e-07,-1.09859e+09,-1.0983e+09,-1.09857e+09,14677.3,-0.0023789,0.0489939,-0,0.0490517,-20065.1,-40000,-0,44750.5,14677.3
step02_gravity_refstate-crust.xmf,11,-3.77933e-07,3.88752e-06,0,2.96571e-07,-1.0986e+09,-1.0983e+09,-1.09857e+09,20344.7,-0.00292972,0.0501558,-0,0.0502413,-18528.8,-40000,-0,44083.1,20344.7
step02_gravity_refstate-crust.xmf,12,-4.06114e-07,3.88606e-06,0,3.92902e-07,-1.0986e+09,-1.09831e+09,-1.09857e+09,26953.1,-0.00350601,0.0514768,-0,0.0515961,-17057.5,-40000,-0,43485.2,26953.1
step02_gravity_refstate-crust.xmf,13,-4.19925e-07,3.86425e-06,0,5.01787e-07,-1.0986e+09,-1.09831e+09,-1.09857e+09,34422.6,-0.00408824,0.0529581,-0,0.0531157,-15647.1,-40000,-0,42951.5,34422.6
step02_gravity_refstate-crust.xmf,14,-4.14819e-07,3.81729e-06,0,6.21179e-07,-1.0986e+09,-1.09831e+09,-1.09858e+09,42612.9,-0.00465343,0.054596,-0,0.054794,-14293.4,-40000,-0,42477.1,42612.9
step02_gravity_refstate-crust.xmf,15,-3.88108e-07,3.74161e-06,0,7.45087e-07,-1.0986e+09,-1.09832e+09,-1.09858e+09,51113,-0.00517451,0.0563814,-0,0.0566184,-12992.6,-40000,-0,42057.2,51113
step02_gravity_refstate-crust.xmf,16,-3.31869e-07,3.63169e-06,0,8.70374e-07,-1.0986e+09,-1.09833e+09,-1.09858e+09,59707.6,-0.00562511,0.0582973,-0,0.0585681,-11740.6,-40000,-0,41687.4,59707.6
step02_gravity_refstate-crust.xmf,17,-2.45566e-07,3.48577e-06,0,9.89089e-07,-1.0986e+09,-1.09834e+09,-1.09858e+09,67851.5,-0.00597429,0.0603194,-0,0.0606145,-10533.4,-40000,-0,41363.7,67851.5
step02_gravity_refstate-crust.xmf,18,-1.26928e-07,3.30267e-06,0,1.09285e-06,-1.09859e+09,-1.09836e+09,-1.09858e+09,74969.7,-0.006193,0.0624149,-0,0.0627214,-9366.97,-40000,-0,41082.1,74969.7
step02_gravity_refstate-crust.xmf,19,2.25907e-08,3.08504e-06,0,1.17024e-06,-1.09859e+09,-1.09838e+09,-1.09859e+09,80278.2,-0.00625277,0.0645421,-0,0.0648443,-8237.32,-40000,-0,40839.4,80278.2
step02_gravity_refstate-crust.xmf,20,2.02547e-07,2.83623e-06,0,1.21186e-06,-1.09858e+09,-1.0984e+09,-1.09859e+09,83133.3,-0.00613091,0.0666511,-0,0.0669325,-7140.25,-40000,-0,40632.3,83133.3
step02_gravity_refstate-crust.xmf,21,4.0441e-07,2.56563e-06,0,1.20647e-06,-1.09857e+09,-1.09842e+09,-1.09859e+09,82763.8,-0.00580852,0.0686832,-0,0.0689284,-6071.51,-40000,-0,40458.2,82763.8
step02_gravity_refstate-crust.xmf,22,6.17534e-07,2.28851e-06,0,1.1441e-06,-1.09855e+09,-1.09844e+09,-1.0986e+09,78485.4,-0.00527635,0.0705734,-0,0.0707704,-5026.7,-40000,-0,40314.6,78485.4
step02_gravity_refstate-crust.xmf,23,8.28505e-07,2.02185e-06,0,1.02001e-06,-1.09854e+09,-1.09846e+09,-1.0986e+09,69972.7,-0.00453658,0.0722535,-0,0.0723957,-4001.3,-40000,-0,40199.6,69972.7
step02_gravity_refstate-crust.xmf,24,1.02017e-06,1.78506e-06,0,8.33924e-07,-1.09853e+09,-1.09848e+09,-1.0986e+09,57207.2,-0.00360327,0.0736543,-0,0.0737424,-2990.68,-40000,-0,40111.6,57207.2
step02_gravity_refstate-crust.xmf,25,1.17406e-06,1.59536e-06,0,5.91281e-07,-1.09852e+09,-1.09849e+09,-1.0986e+09,40561.9,-0.00250527,0.074712,-0,0.074754,-1990.05,-40000,-0,40049.5,40561.9
step02_gravity_refstate-crust.xmf,26,1.2755e-06,1.47306e-06,0,3.06512e-07,-1.09852e+09,-1.0985e+09,-1.0986e+09,21026.7,-0.00128642,0.0753723,-0,0.0753832,-994.552,-40000,-0,40012.4,21026.7
step02_gravity_refstate-crust.xmf,27,-2.32578e-09,3.5959e-06,0,1.20481e-09,-1.09857e+09,-1.09832e+09,-1.09857e+09,82.65,2.74704e-21,0.0442428,0,0.0442428,40000,-40000,0,56568.5,82.65
step02_gravity_refstate-crust.xmf,28,-7.82461e-09,3.60214e-06,0,8.96255e-09,-1.09857e+09,-1.09832e+09,-1.09857e+09,614.831,1.19919e-05,0.0442866,0,0.0442866,37557.3,-40000,0,54868.5,614.831
step02_gravity_refstate-crust.xmf,29,1.31155e-06,1.43207e-06,0,-3.46627e-09,-1.09851e+09,-1.09851e+09,-1.0986e+09,-237.786,-8.86846e-08,0.0755975,-0,0.0755975,0,-40000,0,40000,237.786
step02_gravity_refstate-crust.xmf,30,-2.24004e-08,3.61689e-06,0,1.41816e-08,-1.09857e+09,-1.09832e+09,-1.09857e+09,972.855,4.69156e-05,0.0444137,0,0.0444137,35229,-40000,0,53301.8,972.855
step02_gravity_refstate-crust.xmf,31,1.27468e-06,1.4792e-06,0,-3.13651e-07,-1.09852e+09,-1.0985e+09,-1.0986e+09,-21516.4,0.00128643,0.0753724,0,0.0753834,994.552,-40000,0,40012.4,21516.4
step02_gravity_refstate-crust.xmf,32,-4.55104e-08,3.63942e-06,0,1.5661e-08,-1.09857e+09,-1.09832e+09,-1.09857e+09,1074.34,0.000121719,0.0446226,0,0.0446228,33009.3,-40000,0,51861.5,1074.34
step02_gravity_refstate-crust.xmf,33,-7.59699e-08,3.66851e-06,0,1.17471e-08,-1.09857e+09,-1.09832e+09,-1.09857e+09,805.852,0.000249473,0.0449172,0,0.0449179,30892.4,-40000,0,50540.5,805.852
step02_gravity_refstate-crust.xmf,34,1.17411e-06,1.60546e-06,0,-5.97171e-07,-1.09852e+09,-1.09849e+09,-1.0986e+09,-40965.9,0.00250535,0.074712,0,0.074754,1990.05,-40000,0,40049.5,40965.9
step02_gravity_refstate-crust.xmf,35,-1.12409e-07,3.70235e-06,0,4.76426e-10,-1.09858e+09,-1.09831e+09,-1.09857e+09,32.6828,0.000439344,0.0453046,0,0.0453068,28873.1,-40000,0,49332.1,32.6828
step02_gravity_refstate-crust.xmf,36,-1.54556e-07,3.7396e-06,0,-1.93509e-08,-1.09858e+09,-1.09831e+09,-1.09857e+09,-1327.47,0.000695823,0.0457941,0,0.0457993,26946.1,-40000,0,48229.6,1327.47
step02_gravity_refstate-crust.xmf,37,1.01765e-06,1.79927e-06,0,-8.37825e-07,-1.09853e+09,-1.09848e+09,-1.0986e+09,-57474.8,0.00360343,0.0736543,0,0.0737424,2990.68,-40000,0,40111.6,57474.8
step02_gravity_refstate-crust.xmf,38,-2.00291e-07,3.77812e-06,0,-4.93267e-08,-1.09858e+09,-1.09831e+09,-1.09857e+09,-3383.81,0.00102137,0.0463965,0,0.0464078,25106.5,-40000,0,47226.4,3383.81
step02_gravity_refstate-crust.xmf,39,8.2513e-07,2.04043e-06,0,-1.02125e-06,-1.09854e+09,-1.09846e+09,-1.0986e+09,-70057.6,0.00453666,0.0722534,0,0.0723957,4001.3,-40000,0,40199.6,70057.6
step02_gravity_refstate-crust.xmf,40,-2.48005e-07,3.81544e-06,0,-9.09255e-08,-1.09859e+09,-1.09831e+09,-1.09857e+09,-6237.49,0.00141433,0.0471234,0,0.0471446,23349.5,-40000,0,46316.3,6237.49
step02_gravity_refstate-crust.xmf,41,6.13818e-07,2.31011e-06,0,-1.14219e-06,-1.09855e+09,-1.09844e+09,-1.0986e+09,-78354.2,0.00527645,0.0705731,0,0.0707701,5026.7,-40000,0,40314.6,78354.2
step02_gravity_refstate-crust.xmf,42,-2.95293e-07,3.84828e-06,0,-1.45723e-07,-1.09859e+09,-1.0983e+09,-1.09857e+09,-9996.63,0.0018698,0.0479859,0,0.0480223,21670.5,-40000,0,45493,9996.63
step02_gravity_refstate-crust.xmf,43,-3.39816e-07,3.87372e-06,0,-2.1393e-07,-1.09859e+09,-1.0983e+09,-1.09857e+09,-14675.6,0.00237889,0.0489939,0,0.0490516,20065.1,-40000,0,44750.5,14675.6
step02_gravity_refstate-crust.xmf,44,-3.77953e-07,3.88786e-06,0,-2.96498e-07,-1.0986e+09,-1.0983e+09,-1.09857e+09,-20339.8,0.00292971,0.0501558,0,0.0502413,18528.8,-40000,0,44083.1,20339.8
step02_gravity_refstate-crust.xmf,45,-4.05416e-07,3.88183e-06,0,-3.91889e-07,-1.0986e+09,-1.09831e+09,-1.09857e+09,-26883.6,0.00350599,0.0514768,0,0.051596,17057.5,-40000,0,43485.2,26883.6
step02_gravity_refstate-crust.xmf,46,-4.19896e-07,3.86465e-06,0,-5.01648e-07,-1.0986e+09,-1.09831e+09,-1.09857e+09,-34413.1,0.00408824,0.0529581,0,0.0531157,15647.1,-40000,0,42951.5,34413.1
step02_gravity_refstate-crust.xmf,47,-4.1475e-07,3.81724e-06,0,-6.21106e-07,-1.0986e+09,-1.09831e+09,-1.09858e+09,-42607.8,0.00465344,0.054596,0,0.054794,14293.4,-40000,0,42477.1,42607.8
step02_gravity_refstate-crust.xmf,48,-3.88087e-07,3.74157e-06,0,-7.45171e-07,-1.0986e+09,-1.09832e+09,-1.09858e+09,-51118.8,0.00517454,0.0563814,0,0.0566184,12992.6,-40000,0,42057.2,51118.8
step02_gravity_refstate-crust.xmf,49,4.01112e-07,2.58337e-06,0,-1.20168e-06,-1.09857e+09,-1.09842e+09,-1.09859e+09,-82435.4,0.00580846,0.0686829,0,0.0689281,6071.51,-40000,0,40458.2,82435.4
step02_gravity_refstate-crust.xmf,50,-3.31943e-07,3.63186e-06,0,-8.70693e-07,-1.0986e+09,-1.09833e+09,-1.09858e+09,-59729.6,0.0056251,0.0582973,0,0.0585681,11740.6,-40000,0,41687.4,59729.6
step02_gravity_refstate-crust.xmf,51,1.99516e-07,2.84939e-06,0,-1.20624e-06,-1.09858e+09,-1.09839e+09,-1.09859e+09,-82747.9,0.00613076,0.066651,0,0.0669323,7140.25,-40000,0,40632.3,82747.9
step02_gravity_refstate-crust.xmf,52,-2.45639e-07,3.48671e-06,0,-9.88595e-07,-1.0986e+09,-1.09834e+09,-1.09858e+09,-67817.6,0.00597423,0.0603193,0,0.0606145,10533.4,-40000,0,41363.7,67817.6
step02_gravity_refstate-crust.xmf,53,2.07702e-08,3.09544e-06,0,-1.16483e-06,-1.09859e+09,-1.09838e+09,-1.09859e+09,-79907.1,0.00625287,0.0645421,0,0.0648443,8237.32,-40000,0,40839.4,79907.1
step02_gravity_refstate-crust.xmf,54,-1.29659e-07,3.31075e-06,0,-1.08761e-06,-1.09859e+09,-1.09836e+09,-1.09858e+09,-74609.7,0.0061931,0.0624149,0,0.0627214,9366.97,-40000,0,41082.1,74609.7
step02_gravity_refstate-crust.xmf,55,-1.63747e-07,2.58698e-07,0,6.31664e-09,-6.32303e+07,-6.32013e+07,-6.32191e+07,433.321,-0.000380098,0.117741,-0,0.117742,-37697.7,-2301.7,-0,37767.9,433.321
step02_gravity_refstate-crust.xmf,56,-1.99688e-07,7.51764e-08,0,-8.95429e-10,-18994.3,-138.614,-5295.72,-61.4265,-7.87305e-20,0.118074,-0,0.118074,-40000,0,-0,40000,61.4265
step02_gravity_refstate-crust.xmf,57,-1.96296e-07,7.4347e-08,0,-8.20157e-10,-18652.7,-86.5527,-5186.76,-56.2628,-0.000722033,0.118196,-0,0.118198,-36401.3,0,-0,36401.3,56.2628
step02_gravity_refstate-crust.xmf,58,-1.50444e-07,3.54633e-07,0,-4.68517e-10,-9.53187e+07,-9.52841e+07,-9.53084e+07,-32.1402,-7.38919e-20,0.117328,-0,0.117328,-40000,-3470.11,-0,40150.2,32.1402
step02_gravity_refstate-crust.xmf,59,-1.45219e-07,3.03246e-07,0,1.98669e-08,-7.9413e+07,-7.93822e+07,-7.9403e+07,1362.87,-0.000790889,0.11778,-0,0.117783,-34881.7,-2890.99,-0,35001.3,1362.87
step02_gravity_refstate-crust.xmf,60,-1.32656e-07,4.90428e-07,0,1.67568e-08,-1.39938e+08,-1.39895e+08,-1.39929e+08,1149.51,-0.000365947,0.116716,-0,0.116717,-37285.5,-5094.79,-0,37632,1149.51
step02_gravity_refstate-crust.xmf,61,-1.75968e-07,6.63162e-08,0,-6.7914e-11,-16735.1,-114.427,-4663.72,-4.6589,-0.00137559,0.11854,-0,0.118548,-32904.6,0,-0,32904.6,4.6589
step02_gravity_refstate-crust.xmf,62,-1.23385e-07,6.39668e-07,0,-2.9394e-10,-1.8717e+08,-1.87118e+08,-1.87162e+08,-20.1643,-6.37078e-20,0.115666,-0,0.115666,-40000,-6814.61,-0,40576.3,20.1643
step02_gravity_refstate-crust.xmf,63,-1.24054e-07,3.21986e-07,0,3.46682e-08,-8.80095e+07,-8.79789e+07,-8.8001e+07,2378.24,-0.00125272,0.118158,-0,0.118165,-31298.7,-3204.07,-0,31462.3,2378.24
step02_gravity_refstate-crust.xmf,64,-1.13847e-07,6.14227e-07,0,4.61312e-08,-1.80965e+08,-1.80915e+08,-1.80957e+08,3164.6,-0.00072812,0.116184,-0,0.116186,-33999.5,-6588.7,-0,34632,3164.6
step02_gravity_refstate-crust.xmf,65,-1.13073e-07,7.82747e-07,0,2.51596e-08,-2.32258e+08,-2.32196e+08,-2.3225e+08,1725.95,-0.000321055,0.11458,-0,0.11458,-37224.2,-8456.34,-0,38172.6,1725.95
step02_gravity_refstate-crust.xmf,66,-9.91167e-08,6.04814e-07,0,6.73678e-08,-1.79871e+08,-1.79823e+08,-1.79865e+08,4621.43,-0.00106939,0.116697,-0,0.116702,-30808.6,-6548.93,-0,31497,4621.43
step02_gravity_refstate-crust.xmf,67,-9.71828e-08,8.49713e-07,0,7.43216e-08,-2.55143e+08,-2.55078e+08,-2.55136e+08,5098.46,-0.000862151,0.114492,-0,0.114495,-32036.9,-9289.64,-0,33356.6,5098.46
step02_gravity_refstate-crust.xmf,68,-1.45317e-07,5.50236e-08,0,5.74735e-10,-13809.1,-65.7386,-3840.36,39.4268,-0.0019235,0.119071,-0,0.119086,-29500.3,0,-0,29500.3,39.4268
step02_gravity_refstate-crust.xmf,69,-1.11881e-07,9.25805e-07,0,-2.19263e-10,-2.75802e+08,-2.7573e+08,-2.75794e+08,-15.0414,-5.75482e-20,0.11314,-0,0.11314,-40000,-10041.8,-0,41241.2,15.0414
step02_gravity_refstate-crust.xmf,70,-1.05061e-07,9.6248e-07,0,5.45937e-08,-2.88146e+08,-2.88072e+08,-2.88138e+08,3745.13,-0.000574898,0.11302,-0,0.113021,-34741.3,-10491.3,-0,36290.8,3745.13
step02_gravity_refstate-crust.xmf,71,-8.35352e-08,8.19157e-07,0,9.65138e-08,-2.48184e+08,-2.48123e+08,-2.48179e+08,6620.85,-0.0011227,0.115247,-0,0.115252,-29210,-9036.33,-0,30575.8,6620.85
step02_gravity_refstate-crust.xmf,72,-9.79262e-08,4.38084e-07,0,5.99787e-08,-1.28382e+08,-1.28345e+08,-1.28375e+08,4114.54,-0.00134483,0.117971,-0,0.117979,-29268.6,-4674.16,-0,29639.4,4114.54
step02_gravity_refstate-crust.xmf,73,-1.0067e-07,2.5769e-07,0,3.84834e-08,-7.05689e+07,-7.05443e+07,-7.0562e+07,2639.96,-0.0017137,0.118998,-0,0.11901,-27856.4,-2569.12,-0,27974.6,2639.96
step02_gravity_refstate-crust.xmf,74,-1.08392e-07,1.07573e-06,0,2.97073e-08,-3.21529e+08,-3.21447e+08,-3.21521e+08,2037.92,-0.000294878,0.111554,-0,0.111554,-37318.8,-11706.8,-0,39111.9,2037.92
step02_gravity_refstate-crust.xmf,75,-9.82709e-08,1.04867e-06,0,7.76254e-08,-3.15394e+08,-3.15315e+08,-3.15387e+08,5325.1,-0.00076662,0.112285,-0,0.112287,-32809.6,-11483.5,-0,34761.2,5325.1
step02_gravity_refstate-crust.xmf,76,-8.91106e-08,1.06081e-06,0,1.03039e-07,-3.20923e+08,-3.20844e+08,-3.20916e+08,7068.51,-0.000996979,0.112518,-0,0.112522,-30354.9,-11684.8,-0,32526.2,7068.51
step02_gravity_refstate-crust.xmf,77,-7.86511e-08,6.05865e-07,0,8.71511e-08,-1.83466e+08,-1.83419e+08,-1.8346e+08,5978.57,-0.00132915,0.117238,-0,0.117246,-27807.8,-6679.87,-0,28598.8,5978.57
step02_gravity_refstate-crust.xmf,78,-1.04329e-07,3.97115e-08,0,5.3064e-10,-9905.32,-24.1129,-2748.32,36.4019,-0.00234018,0.119744,-0,0.119767,-26179,0,-0,26179,36.4019
step02_gravity_refstate-crust.xmf,79,-1.10585e-07,1.20996e-06,0,-1.84355e-10,-3.61435e+08,-3.61344e+08,-3.61427e+08,-12.6468,-5.65039e-20,0.10981,-0,0.10981,-40000,-13159.8,-0,42109.2,12.6468
step02_gravity_refstate-crust.xmf,80,-1.04181e-07,1.2283e-06,0,6.45189e-08,-3.68282e+08,-3.68191e+08,-3.68275e+08,4426,-0.000592621,0.109846,-0,0.109847,-34561.4,-13409.2,-0,37071.5,4426
step02_gravity_refstate-crust.xmf,81,-9.85088e-08,1.22195e-06,0,9.11267e-08,-3.67877e+08,-3.67786e+08,-3.6787e+08,6251.3,-0.000827536,0.110207,-0,0.11021,-32254.8,-13394.4,-0,34925.4,6251.3
step02_gravity_refstate-crust.xmf,82,-7.32715e-08,1.01315e-06,0,1.26839e-07,-3.09845e+08,-3.0977e+08,-3.0984e+08,8701.12,-0.00123227,0.113602,-0,0.113609,-27459.2,-11281.5,-0,29686.4,8701.12
step02_gravity_refstate-crust.xmf,83,-6.39659e-08,7.97411e-07,0,1.16786e-07,-2.45031e+08,-2.44972e+08,-2.45026e+08,8011.52,-0.0013447,0.116049,-0,0.116057,-26240.4,-8921.56,-0,27715.5,8011.52
step02_gravity_refstate-crust.xmf,84,-7.30327e-08,4.17037e-07,0,7.1325e-08,-1.25116e+08,-1.25083e+08,-1.25111e+08,4892.89,-0.00161621,0.1187,-0,0.118711,-26222.4,-4555.33,-0,26615.1,4892.89
step02_gravity_refstate-crust.xmf,85,-6.65703e-08,2.28173e-07,0,4.33768e-08,-6.54113e+07,-6.53911e+07,-6.54067e+07,2975.65,-0.00201301,0.119798,-0,0.119814,-24613.3,-2381.45,-0,24728.2,2975.65
step02_gravity_refstate-crust.xmf,86,-1.11017e-07,1.35698e-06,0,3.27048e-08,-4.0543e+08,-4.05329e+08,-4.05423e+08,2243.55,-0.000292572,0.107833,-0,0.107834,-37391.8,-14761.7,-0,40200.2,2243.55
step02_gravity_refstate-crust.xmf,87,-9.2127e-08,1.26169e-06,0,1.1411e-07,-3.81533e+08,-3.8144e+08,-3.81527e+08,7827.91,-0.00101595,0.109959,-0,0.109963,-30344.2,-13891.7,-0,33372.9,7827.91
step02_gravity_refstate-crust.xmf,88,-8.22638e-08,1.21059e-06,0,1.32307e-07,-3.68466e+08,-3.68377e+08,-3.6846e+08,9076.25,-0.0011802,0.111,-0,0.111007,-28378.9,-13415.9,-0,31390.3,9076.25
step02_gravity_refstate-crust.xmf,89,-5.36396e-08,5.9289e-07,0,1.02684e-07,-1.83349e+08,-1.83305e+08,-1.83345e+08,7044.13,-0.00153271,0.118007,-0,0.118017,-24736.8,-6675.71,-0,25621.7,7044.13
step02_gravity_refstate-crust.xmf,90,-5.67434e-08,2.17602e-08,0,7.31688e-10,-5380.5,4.84528,-1487.9,50.1938,-0.00260403,0.120514,-0,0.120543,-22931.2,0,-0,22931.2,50.1938
step02_gravity_refstate-crust.xmf,91,-1.15142e-07,1.48976e-06,0,-1.45715e-10,-4.44286e+08,-4.44176e+08,-4.44278e+08,-9.99607,-5.8239e-20,0.105738,-0,0.105738,-40000,-16176.5,-0,43147.2,9.99607
step02_gravity_refstate-crust.xmf,92,-1.03459e-07,1.43611e-06,0,9.83054e-08,-4.31386e+08,-4.31281e+08,-4.31379e+08,6743.75,-0.000856501,0.107131,-0,0.107135,-32272.1,-15706.9,-0,35891.4,6743.75
step02_gravity_refstate-crust.xmf,93,-9.41296e-08,1.43833e-06,0,1.31648e-07,-4.34925e+08,-4.34819e+08,-4.34918e+08,9031.09,-0.00113177,0.107517,-0,0.107523,-29532.9,-15835.7,-0,33510.6,9031.09
step02_gravity_refstate-crust.xmf,94,-6.75649e-08,1.2006e-06,0,1.55807e-07,-3.69258e+08,-3.69171e+08,-3.69253e+08,10688.4,-0.0013682,0.111637,-0,0.111645,-25877,-13444.8,-0,29161.3,10688.4
step02_gravity_refstate-crust.xmf,95,-5.42244e-08,9.90655e-07,0,1.47023e-07,-3.07207e+08,-3.07136e+08,-3.07204e+08,10085.8,-0.00140846,0.114452,-0,0.114461,-24694.1,-11185.5,-0,27109.3,10085.8
step02_gravity_refstate-crust.xmf,96,-4.10354e-08,7.80746e-07,0,1.32613e-07,-2.44199e+08,-2.44143e+08,-2.44196e+08,9097.25,-0.00149637,0.116867,-0,0.116876,-23368.2,-8891.36,-0,25002.5,9097.25
step02_gravity_refstate-crust.xmf,97,-4.07272e-08,3.91732e-07,0,7.92863e-08,-1.21495e+08,-1.21465e+08,-1.21492e+08,5439.04,-0.00181329,0.119581,-0,0.119595,-23016.1,-4423.57,-0,23437.4,5439.04
step02_gravity_refstate-crust.xmf,98,-2.59989e-08,2.03553e-07,0,4.68483e-08,-6.26014e+07,-6.25856e+07,-6.25996e+07,3213.79,-0.00217972,0.12066,-0,0.120679,-21394.2,-2279.28,-0,21515.3,3213.79
step02_gravity_refstate-crust.xmf,99,-1.17695e-07,1.63183e-06,0,3.44558e-08,-4.86298e+08,-4.86178e+08,-4.8629e+08,2363.67,-0.000302836,0.10343,-0,0.10343,-37441.9,-17706.2,-0,41417.4,2363.67
step02_gravity_refstate-crust.xmf,100,-1.11368e-07,1.50901e-06,0,6.58968e-08,-4.51153e+08,-4.51042e+08,-4.51146e+08,4520.52,-0.000576583,0.105667,-0,0.105669,-34960.2,-16426.6,-0,38627.1,4520.52
step02_gravity_refstate-crust.xmf,101,-8.21127e-08,1.41295e-06,0,1.59602e-07,-4.31304e+08,-4.31201e+08,-4.31298e+08,10948.7,-0.00134957,0.108358,-0,0.108366,-27025,-15703.9,-0,31256.4,10948.7
step02_gravity_refstate-crust.xmf,102,-2.56038e-08,5.79597e-07,0,1.13163e-07,-1.83664e+08,-1.83622e+08,-1.83662e+08,7762.95,-0.00164989,0.118832,-0,0.118843,-21766,-6687.25,-0,22770.2,7762.95
step02_gravity_refstate-crust.xmf,103,-4.83819e-09,2.14092e-09,0,1.07492e-09,-446.62,32.1469,-114.72,73.7392,-0.00270466,0.121332,-0,0.121362,-19747.8,0,-0,19747.8,73.7392
step02_gravity_refstate-crust.xmf,104,-1.22255e-07,1.7636e-06,0,-1.07708e-10,-5.24567e+08,-5.24438e+08,-5.24559e+08,-7.38879,-6.59849e-20,0.100984,-0,0.100984,-40000,-19099.6,-0,44326,7.38879
step02_gravity_refstate-crust.xmf,105,-1.12667e-07,1.64353e-06,0,9.29611e-08,-4.91695e+08,-4.91575e+08,-4.91688e+08,6377.13,-0.000808573,0.103608,-0,0.103611,-33092.9,-17902.8,-0,37625.1,6377.13
step02_gravity_refstate-crust.xmf,106,-9.73941e-08,1.63626e-06,0,1.55736e-07,-4.94959e+08,-4.9484e+08,-4.94952e+08,10683.5,-0.00132512,0.104481,-0,0.10449,-28258,-18021.6,-0,33515.6,10683.5
step02_gravity_refstate-crust.xmf,107,-1.07376e-07,1.65259e-06,0,1.2358e-07,-4.96365e+08,-4.96244e+08,-4.96357e+08,8477.61,-0.00106514,0.103771,-0,0.103776,-30800.6,-18072.8,-0,35711.4,8477.61
step02_gravity_refstate-crust.xmf,108,-8.35297e-08,1.60226e-06,0,1.86154e-07,-4.90011e+08,-4.89895e+08,-4.90005e+08,12770.2,-0.00155178,0.105541,-0,0.105552,-25674.5,-17841.5,-0,31265,12770.2
step02_gravity_refstate-crust.xmf,109,-6.53817e-08,1.39156e-06,0,1.84495e-07,-4.30109e+08,-4.30009e+08,-4.30105e+08,12656.4,-0.00153647,0.109195,-0,0.109206,-24466.3,-15660.4,-0,29049.1,12656.4
step02_gravity_refstate-crust.xmf,110,-4.81468e-08,1.18133e-06,0,1.7596e-07,-3.68599e+08,-3.68515e+08,-3.68596e+08,12070.8,-0.00151969,0.112467,-0,0.112478,-23247.6,-13420.9,-0,26843.4,12070.8
step02_gravity_refstate-crust.xmf,111,-3.23333e-08,9.70939e-07,0,1.61937e-07,-3.06202e+08,-3.06133e+08,-3.06199e+08,11108.9,-0.00152403,0.1153,-0,0.11531,-22019,-11149,-0,24680.7,11108.9
step02_gravity_refstate-crust.xmf,112,-1.59844e-08,7.67587e-07,0,1.43206e-07,-2.45061e+08,-2.45007e+08,-2.4506e+08,9823.96,-0.00157432,0.117673,-0,0.117684,-20607.5,-8922.8,-0,22456.3,9823.96
step02_gravity_refstate-crust.xmf,113,-5.51054e-09,3.8411e-07,0,8.58599e-08,-1.23983e+08,-1.23957e+08,-1.23983e+08,5889.99,-0.00187505,0.120414,-0,0.120429,-19918.4,-4514.31,-0,20423.6,5889.99
step02_gravity_refstate-crust.xmf,114,1.69952e-08,2.01248e-07,0,5.23933e-08,-6.73149e+07,-6.73023e+07,-6.73161e+07,3594.18,-0.00216363,0.121497,-0,0.121516,-18217.9,-2451.05,-0,18382.1,3594.18
step02_gravity_refstate-crust.xmf,115,-1.25828e-07,1.91597e-06,0,3.79912e-08,-5.69367e+08,-5.69227e+08,-5.69358e+08,2606.2,-0.000343206,0.0980757,-0,0.0980763,-37278.2,-20730.8,-0,42654.8,2606.2
step02_gravity_refstate-crust.xmf,116,-1.19192e-07,1.75365e-06,0,6.86414e-08,-5.22766e+08,-5.22637e+08,-5.22758e+08,4708.8,-0.000606124,0.10141,-0,0.101411,-34995.9,-19034,-0,39837.3,4708.8
step02_gravity_refstate-crust.xmf,117,-1.01199e-07,1.81896e-06,0,1.81381e-07,-5.50677e+08,-5.50546e+08,-5.50671e+08,12442.7,-0.00155355,0.101388,-0,0.1014,-26854.6,-20050.4,-0,33514,12442.7
step02_gravity_refstate-crust.xmf,118,-8.58713e-08,1.78194e-06,0,2.12135e-07,-5.456e+08,-5.45472e+08,-5.45594e+08,14552.4,-0.00177869,0.102567,-0,0.102583,-24347.5,-19865.5,-0,31423.5,14552.4
step02_gravity_refstate-crust.xmf,119,-6.4148e-08,1.57073e-06,0,2.11975e-07,-4.87301e+08,-4.87189e+08,-4.87297e+08,14541.5,-0.00173671,0.106576,-0,0.10659,-23095.4,-17742.9,-0,29124,14541.5
step02_gravity_refstate-crust.xmf,120,2.85606e-09,5.83416e-07,0,1.20542e-07,-1.89667e+08,-1.89627e+08,-1.89667e+08,8269.16,-0.00166818,0.119541,-0,0.119552,-18946.6,-6905.93,-0,20165.9,8269.16
step02_gravity_refstate-crust.xmf,121,4.81301e-08,-1.79295e-08,0,1.41761e-09,4586.22,54.5319,1284.49,97.2482,-0.00263972,0.122148,-0,0.122177,-16619.6,0,-0,16619.6,97.2482
step02_gravity_refstate-crust.xmf,122,-1.29118e-07,2.03002e-06,0,8.14448e-12,-6.02486e+08,-6.02338e+08,-6.02477e+08,0.558711,-5.0738e-20,0.0956021,-0,0.0956021,-40000,-21936.7,-0,45620.4,0.558711
step02_gravity_refstate-crust.xmf,123,-1.19831e-07,1.86525e-06,0,1.05398e-07,-5.56807e+08,-5.56671e+08,-5.56799e+08,7230.3,-0.000934571,0.0995658,-0,0.0995702,-32435.8,-20273.5,-0,38250.5,7230.3
step02_gravity_refstate-crust.xmf,124,-1.12976e-07,1.85701e-06,0,1.46675e-07,-5.57433e+08,-5.57298e+08,-5.57425e+08,10061.9,-0.00128125,0.100185,-0,0.100193,-29476.3,-20296.3,-0,35788.2,10061.9
step02_gravity_refstate-crust.xmf,125,-1.05905e-07,1.99013e-06,0,2.06916e-07,-6.03051e+08,-6.02907e+08,-6.03043e+08,14194.5,-0.00179565,0.0982116,-0,0.098228,-25495.3,-21957.3,-0,33647.2,14194.5
step02_gravity_refstate-crust.xmf,126,-6.41047e-08,1.74319e-06,0,2.38609e-07,-5.42247e+08,-5.42123e+08,-5.42242e+08,16368.6,-0.00195841,0.103736,-0,0.103755,-21838.6,-19743.5,-0,29440.3,16368.6
step02_gravity_refstate-crust.xmf,127,-4.35055e-08,1.36277e-06,0,2.04529e-07,-4.28259e+08,-4.28163e+08,-4.28256e+08,14030.7,-0.00167615,0.110176,-0,0.110189,-21842.4,-15593.1,-0,26837.2,14030.7
step02_gravity_refstate-crust.xmf,128,-2.49724e-08,1.15715e-06,0,1.90175e-07,-3.67627e+08,-3.67546e+08,-3.67625e+08,13046,-0.00161438,0.113379,-0,0.113391,-20625.9,-13385.5,-0,24588.6,13046
step02_gravity_refstate-crust.xmf,129,-7.77154e-09,9.52606e-07,0,1.71096e-07,-3.06479e+08,-3.06413e+08,-3.06478e+08,11737.2,-0.00157728,0.116147,-0,0.116157,-19365.9,-11159.1,-0,22350.9,11737.2
step02_gravity_refstate-crust.xmf,130,9.30271e-09,7.67887e-07,0,1.49433e-07,-2.50591e+08,-2.50539e+08,-2.50591e+08,10251.1,-0.00157889,0.118336,-0,0.118346,-17991.7,-9124.23,-0,20173.1,10251.1
step02_gravity_refstate-crust.xmf,131,3.05334e-08,4.2088e-07,0,9.61356e-08,-1.4089e+08,-1.40864e+08,-1.40893e+08,6594.9,-0.00176862,0.121101,-0,0.121114,-16671.2,-5130.03,-0,17442.6,6594.9
step02_gravity_refstate-crust.xmf,132,5.7793e-08,1.91018e-07,0,5.25145e-08,-6.93154e+07,-6.93062e+07,-6.93193e+07,3602.49,-0.00203675,0.122314,-0,0.122331,-15157.6,-2524.02,-0,15366.3,3602.49
step02_gravity_refstate-crust.xmf,133,-1.31288e-07,2.13902e-06,0,2.77301e-08,-6.34525e+08,-6.34369e+08,-6.34516e+08,1902.29,-0.000262705,0.0932221,-0,0.0932225,-37998.3,-23103.3,-0,44470.6,1902.29
step02_gravity_refstate-crust.xmf,134,-1.25799e-07,1.95602e-06,0,7.35744e-08,-5.81874e+08,-5.81732e+08,-5.81866e+08,5047.2,-0.000668355,0.0974518,-0,0.097454,-34730.9,-21186.2,-0,40682.8,5047.2
step02_gravity_refstate-crust.xmf,135,-1.18353e-07,2.03209e-06,0,1.71832e-07,-6.10115e+08,-6.09967e+08,-6.10107e+08,11787.7,-0.0015283,0.0968759,-0,0.0968879,-27974.2,-22214.5,-0,35721.7,11787.7
step02_gravity_refstate-crust.xmf,136,-8.9391e-08,1.95164e-06,0,2.38619e-07,-5.98707e+08,-5.98567e+08,-5.98701e+08,16369.3,-0.00202018,0.099434,-0,0.0994546,-23101.4,-21799.2,-0,31762.9,16369.3
step02_gravity_refstate-crust.xmf,137,-1.3401e-07,2.28821e-06,0,2.10107e-10,-6.78247e+08,-6.78081e+08,-6.78238e+08,14.4134,-4.79636e-20,0.0896464,-0,0.0896464,-40000,-24695.3,-0,47009.1,14.4134
step02_gravity_refstate-crust.xmf,138,-4.14222e-08,1.54441e-06,0,2.31614e-07,-4.87402e+08,-4.87294e+08,-4.874e+08,15888.8,-0.00186532,0.107478,-0,0.107494,-20667.8,-17746.6,-0,27241.5,15888.8
step02_gravity_refstate-crust.xmf,139,2.46798e-08,6.20503e-07,0,1.28343e-07,-2.05568e+08,-2.05527e+08,-2.0557e+08,8804.3,-0.00160703,0.119857,-0,0.119867,-16739.6,-7484.97,-0,18336.8,8804.3
step02_gravity_refstate-crust.xmf,140,9.89929e-08,-3.71829e-08,0,1.54158e-09,9419.81,78.1537,2628.9,105.752,-0.00241565,0.122916,-0,0.122939,-13537.5,0,-0,13537.5,105.752
step02_gravity_refstate-crust.xmf,141,-1.31315e-07,2.1343e-06,0,5.91629e-08,-6.33515e+08,-6.3336e+08,-6.33506e+08,4058.57,-0.000558347,0.0934827,-0,0.0934843,-35745.1,-23066.5,-0,42541.5,4058.57
step02_gravity_refstate-crust.xmf,142,-1.30674e-07,2.11858e-06,0,9.5114e-08,-6.29805e+08,-6.29651e+08,-6.29796e+08,6524.82,-0.000887088,0.0941288,-0,0.094133,-33222.8,-22931.4,-0,40368.3,6524.82
step02_gravity_refstate-crust.xmf,143,-1.26396e-07,2.07776e-06,0,1.32978e-07,-6.19886e+08,-6.19735e+08,-6.19877e+08,9122.28,-0.00121282,0.0954229,-0,0.0954306,-30634.4,-22570.3,-0,38051.1,9122.28
step02_gravity_refstate-crust.xmf,144,-1.2476e-07,2.19566e-06,0,1.96954e-07,-6.59411e+08,-6.59252e+08,-6.59402e+08,13511.1,-0.00178305,0.0935579,-0,0.0935749,-26512.6,-24009.4,-0,35768.2,13511.1
step02_gravity_refstate-crust.xmf,145,-1.11735e-07,2.15403e-06,0,2.33091e-07,-6.53299e+08,-6.53144e+08,-6.53292e+08,15990.1,-0.00204954,0.0949222,-0,0.0949443,-24174.5,-23786.9,-0,33914.9,15990.1
step02_gravity_refstate-crust.xmf,146,-1.3423e-07,2.32314e-06,0,4.11462e-08,-6.88763e+08,-6.88594e+08,-6.88754e+08,2822.63,-0.000407915,0.0888847,-0,0.0888857,-36951.4,-25078.2,-0,44657.8,2822.63
step02_gravity_refstate-crust.xmf,147,-6.69263e-08,1.91363e-06,0,2.65339e-07,-5.96516e+08,-5.96381e+08,-5.96512e+08,18202.3,-0.00219276,0.100555,-0,0.100578,-20810.2,-21719.5,-0,30079.9,18202.3
step02_gravity_refstate-crust.xmf,148,-4.09036e-08,1.7178e-06,0,2.57823e-07,-5.43544e+08,-5.43423e+08,-5.43541e+08,17686.7,-0.00207721,0.104554,-0,0.104574,-19653.4,-19790.7,-0,27891.4,17686.7
step02_gravity_refstate-crust.xmf,149,-1.8606e-08,1.34358e-06,0,2.18687e-07,-4.30575e+08,-4.30481e+08,-4.30573e+08,15001.9,-0.00176029,0.110982,-0,0.110996,-19308.5,-15677.5,-0,24871.7,15001.9
step02_gravity_refstate-crust.xmf,150,8.67604e-10,1.13826e-06,0,1.98126e-07,-3.69307e+08,-3.69229e+08,-3.69307e+08,13591.4,-0.00164811,0.114208,-0,0.11422,-18035.1,-13446.8,-0,22496.2,13591.4
step02_gravity_refstate-crust.xmf,151,1.82704e-08,9.36007e-07,0,1.73509e-07,-3.0793e+08,-3.07867e+08,-3.07931e+08,11902.7,-0.00156437,0.116951,-0,0.116961,-16768.4,-11212,-0,20171.5,11902.7
step02_gravity_refstate-crust.xmf,152,3.41127e-08,7.5493e-07,0,1.4781e-07,-2.5195e+08,-2.51901e+08,-2.51953e+08,10139.7,-0.00152473,0.119061,-0,0.11907,-15536.7,-9173.82,-0,18042.9,10139.7
step02_gravity_refstate-crust.xmf,153,4.84078e-08,5.74234e-07,0,1.19685e-07,-1.94742e+08,-1.94706e+08,-1.94745e+08,8210.42,-0.0015451,0.120733,-0,0.120743,-14551.8,-7090.87,-0,16187.5,8210.42
step02_gravity_refstate-crust.xmf,154,6.75507e-08,3.75718e-07,0,8.578e-08,-1.31756e+08,-1.31735e+08,-1.31761e+08,5884.51,-0.00164263,0.122119,-0,0.12213,-13460.4,-4797.56,-0,14289.8,5884.51
step02_gravity_refstate-crust.xmf,155,9.80693e-08,1.65933e-07,0,4.61975e-08,-6.63954e+07,-6.63908e+07,-6.64022e+07,3169.15,-0.00181008,0.123115,-0,0.123128,-12040.9,-2417.85,-0,12281.2,3169.15
step02_gravity_refstate-crust.xmf,156,-1.32764e-07,2.24432e-06,0,1.59751e-07,-6.69564e+08,-6.69401e+08,-6.69555e+08,10958.9,-0.00149154,0.0919822,-0,0.0919943,-28868.9,-24379.1,-0,37785.7,10958.9
step02_gravity_refstate-crust.xmf,157,-9.47946e-08,2.11874e-06,0,2.65676e-07,-6.50828e+08,-6.50676e+08,-6.50821e+08,18225.4,-0.0022731,0.0960605,-0,0.0960874,-21955.9,-23696.9,-0,32304.9,18225.4
step02_gravity_refstate-crust.xmf,158,-1.33757e-07,2.48279e-06,0,2.36132e-08,-7.36104e+08,-7.35925e+08,-7.36095e+08,1619.87,-0.00024657,0.0846654,-0,0.0846658,-38154.7,-26801.9,-0,46627.5,1619.87
step02_gravity_refstate-crust.xmf,159,-1.33303e-07,2.53637e-06,0,2.43064e-10,-7.52051e+08,-7.51867e+08,-7.52041e+08,16.6742,-5.38084e-20,0.0831644,-0,0.0831644,-40000,-27382.5,-0,48474.8,16.6742
step02_gravity_refstate-crust.xmf,160,-1.59279e-08,1.52858e-06,0,2.45322e-07,-4.9187e+08,-4.91764e+08,-4.91869e+08,16829.1,-0.00194495,0.108141,-0,0.108158,-18361.7,-17909.3,-0,25649.5,16829.1
step02_gravity_refstate-crust.xmf,161,1.44592e-07,-5.44361e-08,0,1.54194e-09,13753.6,100.211,3834.53,105.777,-0.00204704,0.12359,-0,0.123607,-10492.7,0,-0,10492.7,105.777
step02_gravity_refstate-crust.xmf,162,-1.36232e-07,2.33753e-06,0,7.7331e-08,-6.93326e+08,-6.93156e+08,-6.93316e+08,5304.91,-0.000766201,0.0887995,-0,0.0888029,-34307.3,-25244.3,-0,42594.2,5304.91
step02_gravity_refstate-crust.xmf,163,-1.38895e-07,2.33422e-06,0,1.20478e-07,-6.93283e+08,-6.93113e+08,-6.93274e+08,8264.82,-0.00116684,0.0893519,-0,0.0893595,-31386.7,-25242.7,-0,40278.1,8264.82
step02_gravity_refstate-crust.xmf,164,-1.40363e-07,2.39354e-06,0,1.82534e-07,-7.13845e+08,-7.13671e+08,-7.13835e+08,12521.8,-0.00173554,0.0887013,-0,0.0887183,-27412.1,-25991.4,-0,37775.3,12521.8
step02_gravity_refstate-crust.xmf,165,-1.33536e-07,2.35855e-06,0,2.20091e-07,-7.07985e+08,-7.07814e+08,-7.07976e+08,15098.3,-0.00202647,0.0900042,-0,0.0900271,-25240.4,-25778,-0,36077.5,15098.3
step02_gravity_refstate-crust.xmf,166,-1.21121e-07,2.32654e-06,0,2.58401e-07,-7.05328e+08,-7.0516e+08,-7.0532e+08,17726.3,-0.00230412,0.0911659,-0,0.091195,-23033,-25681.3,-0,34497.1,17726.3
step02_gravity_refstate-crust.xmf,167,-1.36113e-07,2.55709e-06,0,5.3858e-08,-7.58132e+08,-7.57947e+08,-7.58123e+08,3694.66,-0.000575064,0.0828407,-0,0.0828427,-35701.3,-27604,-0,45128.3,3694.66
step02_gravity_refstate-crust.xmf,168,-1.31018e-07,2.67046e-06,0,2.45492e-08,-7.92362e+08,-7.9217e+08,-7.92353e+08,1684.07,-0.000274442,0.079401,-0,0.0794015,-37892,-28850.3,-0,47625,1684.07
step02_gravity_refstate-crust.xmf,169,-7.00797e-08,2.07443e-06,0,2.93637e-07,-6.48108e+08,-6.47961e+08,-6.48103e+08,20143.5,-0.00244262,0.0972817,-0,0.0973124,-19789.4,-23597.9,-0,30797.5,20143.5
step02_gravity_refstate-crust.xmf,170,-4.01923e-08,1.87659e-06,0,2.85365e-07,-5.96083e+08,-5.95951e+08,-5.9608e+08,19576,-0.00230573,0.101551,-0,0.101578,-18672.7,-21703.7,-0,28630.8,19576
step02_gravity_refstate-crust.xmf,171,-1.49298e-08,1.692e-06,0,2.70657e-07,-5.45727e+08,-5.4561e+08,-5.45726e+08,18567.1,-0.00214162,0.105296,-0,0.105317,-17618.1,-19870.3,-0,26556.1,18567.1
step02_gravity_refstate-crust.xmf,172,1.04474e-08,1.3439e-06,0,2.27859e-07,-4.40147e+08,-4.40056e+08,-4.40148e+08,15631.1,-0.00179606,0.111494,-0,0.111509,-16700.9,-16026.1,-0,23146.4,15631.1
step02_gravity_refstate-crust.xmf,173,1.31421e-07,1.48998e-07,0,3.82418e-08,-6.5208e+07,-6.52068e+07,-6.52171e+07,2623.39,-0.00147635,0.123757,-0,0.123766,-9082.28,-2374.73,-0,9387.61,2623.39
step02_gravity_refstate-crust.xmf,174,2.86771e-08,1.1131e-06,0,1.97143e-07,-3.69755e+08,-3.69681e+08,-3.69757e+08,13524,-0.00161131,0.115072,-0,0.115083,-15498.4,-13463.2,-0,20529.4,13524
step02_gravity_refstate-crust.xmf,175,4.46474e-08,9.15656e-07,0,1.67831e-07,-3.08476e+08,-3.08417e+08,-3.08479e+08,11513.2,-0.00148515,0.117744,-0,0.117753,-14239.1,-11232,-0,18135.8,11513.2
step02_gravity_refstate-crust.xmf,176,5.90594e-08,7.32814e-07,0,1.38627e-07,-2.50459e+08,-2.50413e+08,-2.50463e+08,9509.81,-0.00141017,0.119831,-0,0.11984,-13066.3,-9119.58,-0,15934.1,9509.81
step02_gravity_refstate-crust.xmf,177,7.56555e-08,5.47026e-07,0,1.07467e-07,-1.90941e+08,-1.90908e+08,-1.90946e+08,7372.23,-0.00138375,0.121543,-0,0.121551,-11851.3,-6952.54,-0,13740.1,7372.23
step02_gravity_refstate-crust.xmf,178,9.78892e-08,3.52869e-07,0,7.39906e-08,-1.28919e+08,-1.28901e+08,-1.28926e+08,5075.76,-0.00141267,0.122865,-0,0.122873,-10572.4,-4694.37,-0,11567.7,5075.76
step02_gravity_refstate-crust.xmf,179,1.7671e-07,-6.77731e-08,0,7.05289e-10,16755.6,-15.9308,4633.3,48.3828,-0.00155624,0.124133,-0,0.124143,-7476.13,0,-0,7476.13,48.3828
step02_gravity_refstate-crust.xmf,180,1.5269e-07,1.41716e-07,0,2.72437e-08,-6.63171e+07,-6.63179e+07,-6.63276e+07,1868.92,-0.00105199,0.124237,-0,0.124241,-6161.36,-2415.18,-0,6617.81,1868.92
step02_gravity_refstate-crust.xmf,181,2.02115e-07,-7.75188e-08,0,5.85098e-10,19164.4,-18.4585,5299.33,40.1377,-0.000972569,0.124514,-0,0.124517,-4478.91,0,-0,4478.91,40.1377
step02_gravity_refstate-crust.xmf,182,1.6681e-07,1.45797e-07,0,1.55581e-08,-6.96574e+07,-6.96589e+07,-6.96689e+07,1067.29,-0.000557625,0.124537,-0,0.124539,-3193.99,-2536.85,-0,4078.87,1067.29
step02_gravity_refstate-crust.xmf,183,2.15238e-07,-8.25458e-08,0,2.64011e-10,20409,-18.9587,5643.68,18.1112,-0.000330833,0.12471,-0,0.12471,-1492.16,0,-0,1492.16,18.1112
step02_gravity_refstate-crust.xmf,184,1.71692e-07,1.49528e-07,0,6.59685e-10,-7.16386e+07,-7.16402e+07,-7.16504e+07,45.2544,-2.99509e-05,0.124647,-0,0.124647,-169.637,-2609,-0,2614.51,45.2544
step02_gravity_refstate-crust.xmf,185,2.21412e-07,-8.34293e-08,0,6.0574e-10,21057.6,145.451,5868.7,41.5538,0.000331053,0.12471,0,0.12471,1492.16,0,0,1492.16,41.5538
step02_gravity_refstate-crust.xmf,186,-1.43066e-07,2.42519e-06,0,1.50787e-07,-7.20785e+08,-7.20609e+08,-7.20775e+08,10344,-0.00147441,0.0875059,-0,0.0875183,-29292.7,-26244.1,-0,39329.6,10344
step02_gravity_refstate-crust.xmf,187,-1.00026e-07,2.27957e-06,0,2.94403e-07,-7.01243e+08,-7.0108e+08,-7.01236e+08,20196,-0.00253762,0.0925519,-0,0.0925867,-20843.3,-25532.6,-0,32959.9,20196
step02_gravity_refstate-crust.xmf,188,-1.26016e-07,2.7737e-06,0,4.75124e-10,-8.24094e+08,-8.23896e+08,-8.24086e+08,32.5935,-5.89412e-20,0.0761997,-0,0.0761997,-40000,-30005.8,-0,50003.5,32.5935
step02_gravity_refstate-crust.xmf,189,4.65182e-09,1.53868e-06,0,2.54554e-07,-5.02802e+08,-5.02696e+08,-5.02802e+08,17462.4,-0.00199053,0.108228,-0,0.108246,-16653.8,-18307.4,-0,24748.9,17462.4
step02_gravity_refstate-crust.xmf,190,1.70934e-07,1.57627e-07,0,-1.36009e-08,-7.36277e+07,-7.36286e+07,-7.36394e+07,-933.019,0.000493401,0.12454,0,0.124541,2851.05,-2681.43,0,3913.89,933.019
step02_gravity_refstate-crust.xmf,191,-1.41554e-07,2.55232e-06,0,9.28732e-08,-7.56455e+08,-7.56271e+08,-7.56446e+08,6371.1,-0.000973016,0.0834281,-0,0.0834338,-32836.5,-27542.9,-0,42858.4,6371.1
step02_gravity_refstate-crust.xmf,192,-1.47722e-07,2.57302e-06,0,1.27577e-07,-7.6257e+08,-7.62383e+08,-7.62559e+08,8751.78,-0.00131426,0.0833846,-0,0.0833949,-30467.7,-27765.5,-0,41221.4,8751.78
step02_gravity_refstate-crust.xmf,193,-1.51331e-07,2.5769e-06,0,1.62576e-07,-7.64664e+08,-7.64477e+08,-7.64654e+08,11152.7,-0.00163349,0.0838021,-0,0.083818,-28328,-27841.7,-0,39719.5,11152.7
step02_gravity_refstate-crust.xmf,194,-1.50732e-07,2.54998e-06,0,2.01799e-07,-7.59474e+08,-7.59288e+08,-7.59463e+08,13843.4,-0.00195394,0.0850343,-0,0.0850567,-26190.3,-27652.7,-0,38086.8,13843.4
step02_gravity_refstate-crust.xmf,195,-1.4626e-07,2.53133e-06,0,2.4173e-07,-7.58503e+08,-7.58319e+08,-7.58493e+08,16582.7,-0.00226102,0.0859778,-0,0.0860075,-24118.5,-27617.4,-0,36666.3,16582.7
step02_gravity_refstate-crust.xmf,196,-1.34628e-07,2.51309e-06,0,2.85654e-07,-7.61017e+08,-7.60835e+08,-7.61008e+08,19595.8,-0.00257926,0.0868023,-0,0.0868406,-21900,-27708.9,-0,35318.5,19595.8
step02_gravity_refstate-crust.xmf,197,-1.3227e-07,2.77289e-06,0,4.37701e-08,-8.22949e+08,-8.2275e+08,-8.2294e+08,3002.63,-0.00051414,0.0765213,-0,0.0765231,-35973.5,-29964,-0,46818.1,3002.63
step02_gravity_refstate-crust.xmf,198,-1.19227e-07,2.91592e-06,0,2.35464e-08,-8.6807e+08,-8.67861e+08,-8.68061e+08,1615.29,-0.000296265,0.0717228,-0,0.0717235,-37491.4,-31607,-0,49036.8,1615.29
step02_gravity_refstate-crust.xmf,199,-1.38348e-07,2.76232e-06,0,7.05638e-08,-8.18917e+08,-8.18718e+08,-8.18908e+08,4840.68,-0.000810549,0.077215,-0,0.0772192,-33792.4,-29817.2,-0,45066.5,4840.68
step02_gravity_refstate-crust.xmf,200,-7.21084e-08,2.22149e-06,0,3.24906e-07,-6.96367e+08,-6.9621e+08,-6.96362e+08,22288.6,-0.00270569,0.0940626,-0,0.0941015,-18706.7,-25355.1,-0,31509,22288.6
step02_gravity_refstate-crust.xmf,201,-1.05855e-07,2.41933e-06,0,3.25905e-07,-7.4581e+08,-7.45637e+08,-7.45803e+08,22357.1,-0.00280669,0.0893572,-0,0.0894013,-19675,-27155.3,-0,33533.8,22357.1
step02_gravity_refstate-crust.xmf,202,2.06966e-07,-7.79411e-08,0,3.83544e-10,19685.5,140.912,5487.67,26.3111,0.000973352,0.124514,0,0.124518,4478.91,0,0,4478.91,26.3111
step02_gravity_refstate-crust.xmf,203,-3.86298e-08,2.02391e-06,0,3.14877e-07,-6.45806e+08,-6.45665e+08,-6.45803e+08,21600.6,-0.00254805,0.0985045,-0,0.0985375,-17680.9,-23514.2,-0,29419.9,21600.6
step02_gravity_refstate-crust.xmf,204,-9.28878e-09,1.83376e-06,0,2.97501e-07,-5.9518e+08,-5.95054e+08,-5.9518e+08,20408.5,-0.00235201,0.102563,-0,0.10259,-16653.5,-21670.9,-0,27330.7,20408.5
step02_gravity_refstate-crust.xmf,205,1.37244e-08,1.65409e-06,0,2.75031e-07,-5.44756e+08,-5.44643e+08,-5.44757e+08,18867.1,-0.00213894,0.106187,-0,0.106209,-15721.1,-19835,-0,25309.7,18867.1
step02_gravity_refstate-crust.xmf,206,2.9834e-08,1.47054e-06,0,2.48202e-07,-4.89668e+08,-4.89569e+08,-4.8967e+08,17026.7,-0.00191587,0.10963,-0,0.109647,-14973.6,-17829.2,-0,23282.9,17026.7
step02_gravity_refstate-crust.xmf,207,4.29979e-08,1.27502e-06,0,2.1803e-07,-4.28927e+08,-4.28842e+08,-4.2893e+08,14956.8,-0.00169767,0.112972,-0,0.112985,-14157.6,-15617.7,-0,21079.6,14956.8
step02_gravity_refstate-crust.xmf,208,1.22216e-07,3.42941e-07,0,5.93609e-08,-1.29493e+08,-1.29478e+08,-1.29501e+08,4072.16,-0.00110189,0.123427,-0,0.123432,-7760.56,-4715.34,-0,9080.79,4072.16
step02_gravity_refstate-crust.xmf,209,5.66892e-08,1.07868e-06,0,1.86174e-07,-3.67329e+08,-3.67258e+08,-3.67332e+08,12771.5,-0.00150182,0.115989,-0,0.115999,-13035.5,-13374.9,-0,18676.5,12771.5
step02_gravity_refstate-crust.xmf,210,7.00219e-08,8.93951e-07,0,1.54221e-07,-3.08456e+08,-3.084e+08,-3.08461e+08,10579.5,-0.00134342,0.118484,-0,0.118491,-11766.8,-11231.3,-0,16266.6,10579.5
step02_gravity_refstate-crust.xmf,211,8.34261e-08,7.11018e-07,0,1.22139e-07,-2.49036e+08,-2.48993e+08,-2.49042e+08,8378.72,-0.00122677,0.120557,-0,0.120563,-10487,-9067.86,-0,13863.8,8378.72
step02_gravity_refstate-crust.xmf,212,9.94156e-08,5.29476e-07,0,9.07936e-08,-1.89747e+08,-1.89718e+08,-1.89754e+08,6228.44,-0.00115353,0.12219,-0,0.122195,-9201.12,-6909.17,-0,11506.4,6228.44
step02_gravity_refstate-crust.xmf,213,1.36397e-07,3.45982e-07,0,3.99734e-08,-1.33664e+08,-1.3365e+08,-1.33674e+08,2742.18,-0.000727613,0.123794,-0,0.123796,-4952.27,-4867.27,-0,6943.73,2742.18
step02_gravity_refstate-crust.xmf,214,1.43505e-07,3.83933e-07,0,1.82947e-08,-1.47918e+08,-1.47902e+08,-1.47928e+08,1255.02,-0.000282326,0.12386,-0,0.12386,-1924.68,-5386.29,-0,5719.84,1255.02
step02_gravity_refstate-crust.xmf,215,1.46003e-07,3.63381e-07,0,-1.03744e-08,-1.4151e+08,-1.41496e+08,-1.4152e+08,-711.686,0.000175672,0.123976,0,0.123976,1180.67,-5152.98,0,5286.51,711.686
step02_gravity_refstate-crust.xmf,216,-1.10413e-07,2.99778e-06,0,1.58467e-10,-8.94575e+08,-8.94362e+08,-8.94567e+08,10.8709,-5.01182e-20,0.0687926,-0,0.0687926,-40000,-32572.1,-0,51584.3,10.8709
step02_gravity_refstate-crust.xmf,217,-1.28697e-07,2.93629e-06,0,4.80178e-08,-8.72425e+08,-8.72215e+08,-8.72416e+08,3294.02,-0.000610796,0.0715018,-0,0.0715044,-34906.8,-31765.5,-0,47196.8,3294.02
step02_gravity_refstate-crust.xmf,218,-7.21279e-08,2.35224e-06,0,3.599e-07,-7.41034e+08,-7.40868e+08,-7.41029e+08,24689.1,-0.00297654,0.0909879,-0,0.0910365,-17572.8,-26981.4,-0,32199.4,24689.1
step02_gravity_refstate-crust.xmf,219,-1.09435e-07,2.53499e-06,0,3.61703e-07,-7.84409e+08,-7.84227e+08,-7.84401e+08,24812.9,-0.00307046,0.0865603,-0,0.0866147,-18510.4,-28560.7,-0,34034.5,24812.9
step02_gravity_refstate-crust.xmf,220,1.44586e-07,2.04898e-07,0,-3.31821e-08,-8.6171e+07,-8.61669e+07,-8.61809e+07,-2276.29,0.000985085,0.124122,0,0.124126,6092.94,-3138.04,0,6853.56,2276.29
step02_gravity_refstate-crust.xmf,221,1.40472e-07,3.77522e-07,0,-3.44726e-08,-1.44914e+08,-1.44898e+08,-1.44924e+08,-2364.82,0.000574076,0.123754,0,0.123755,3950,-5276.9,0,6591.52,2364.82
step02_gravity_refstate-crust.xmf,222,-1.46886e-07,2.75297e-06,0,1.01636e-07,-8.15158e+08,-8.14959e+08,-8.15148e+08,6972.21,-0.00113142,0.0780214,-0,0.0780296,-31561.9,-29680.3,-0,43325.2,6972.21
step02_gravity_refstate-crust.xmf,223,-1.56227e-07,2.75226e-06,0,1.36653e-07,-8.1423e+08,-8.14031e+08,-8.1422e+08,9374.41,-0.00146724,0.078683,-0,0.0786967,-29346.1,-29646.5,-0,41714.6,9374.41
step02_gravity_refstate-crust.xmf,224,-1.62608e-07,2.74139e-06,0,1.75368e-07,-8.11715e+08,-8.11516e+08,-8.11704e+08,12030.3,-0.00180921,0.0796272,-0,0.0796478,-27203.2,-29554.9,-0,40168.5,12030.3
step02_gravity_refstate-crust.xmf,225,-1.64996e-07,2.72465e-06,0,2.15953e-07,-8.09165e+08,-8.08967e+08,-8.09154e+08,14814.4,-0.00213822,0.080664,-0,0.0806923,-25193.8,-29462,-0,38765.2,14814.4
step02_gravity_refstate-crust.xmf,226,-1.62674e-07,2.70654e-06,0,2.57955e-07,-8.08213e+08,-8.08016e+08,-8.08202e+08,17695.7,-0.00245096,0.0816266,-0,0.0816634,-23282.7,-29427.3,-0,37524,17695.7
step02_gravity_refstate-crust.xmf,227,-1.35392e-07,2.58679e-06,0,3.19553e-07,-7.8682e+08,-7.86634e+08,-7.86811e+08,21921.4,-0.0028381,0.0851796,-0,0.0852269,-20459.3,-28648.4,-0,35203.9,21921.4
step02_gravity_refstate-crust.xmf,228,-8.55196e-08,3.21194e-06,0,5.02306e-10,-9.63686e+08,-9.63459e+08,-9.6368e+08,34.4582,-2.66353e-20,0.0609776,-0,0.0609776,-40000,-35088.6,-0,53209.1,34.4582
step02_gravity_refstate-crust.xmf,229,-9.8525e-08,3.13252e-06,0,1.27859e-08,-9.37316e+08,-9.37095e+08,-9.3731e+08,877.113,-0.000197625,0.0640694,-0,0.0640697,-37955.6,-34128.4,-0,51042.9,877.113
step02_gravity_refstate-crust.xmf,230,-1.39062e-07,2.9369e-06,0,7.48143e-08,-8.70658e+08,-8.70447e+08,-8.70648e+08,5132.26,-0.000921763,0.0720577,-0,0.0720636,-32586.5,-31701.2,-0,45462.5,5132.26
step02_gravity_refstate-crust.xmf,231,-3.51764e-08,2.1604e-06,0,3.47873e-07,-6.93464e+08,-6.93314e+08,-6.93462e+08,23864.1,-0.00280396,0.0954346,-0,0.0954758,-16638,-25249.5,-0,30238.4,23864.1
step02_gravity_refstate-crust.xmf,232,-7.85124e-08,2.50983e-06,0,4.01725e-07,-7.91991e+08,-7.91813e+08,-7.91985e+08,27558.3,-0.00328577,0.0871148,-0,0.0871768,-16573.2,-28836.8,-0,33260.1,27558.3
step02_gravity_refstate-crust.xmf,233,1.81109e-07,-6.86392e-08,0,-3.71936e-10,17207.6,74.9008,4783.55,-25.5148,0.00155564,0.124133,0,0.124143,7476.13,0,0,7476.13,25.5148
step02_gravity_refstate-crust.xmf,234,-1.55516e-09,1.96775e-06,0,3.27194e-07,-6.43591e+08,-6.43456e+08,-6.43591e+08,22445.5,-0.00257875,0.0997129,-0,0.0997463,-15650.6,-23433.6,-0,28179.3,22445.5
step02_gravity_refstate-crust.xmf,235,2.56717e-08,1.78166e-06,0,3.00275e-07,-5.92582e+08,-5.92461e+08,-5.92584e+08,20598.9,-0.00232439,0.103668,-0,0.103694,-14687.8,-21576.4,-0,26101.2,20598.9
step02_gravity_refstate-crust.xmf,236,6.13071e-08,1.41164e-06,0,2.35741e-07,-4.82037e+08,-4.81945e+08,-4.82041e+08,16171.8,-0.00179187,0.110865,-0,0.11088,-12826.6,-17551.5,-0,21738.8,16171.8
step02_gravity_refstate-crust.xmf,237,4.59592e-08,1.5958e-06,0,2.68773e-07,-5.3831e+08,-5.38204e+08,-5.38313e+08,18437.8,-0.00205482,0.107409,-0,0.107428,-13778,-19600.4,-0,23958.5,18437.8
step02_gravity_refstate-crust.xmf,238,7.27161e-08,1.22447e-06,0,2.00792e-07,-4.22634e+08,-4.22555e+08,-4.22639e+08,13774.3,-0.001545,0.114071,-0,0.114081,-11808.5,-15388.6,-0,19397.2,13774.3
step02_gravity_refstate-crust.xmf,239,1.179e-07,5.27844e-07,0,7.04971e-08,-1.931e+08,-1.93072e+08,-1.93108e+08,4836.1,-0.000866945,0.122618,-0,0.122621,-6593.96,-7031.3,-0,9639.48,4836.1
step02_gravity_refstate-crust.xmf,240,8.3259e-08,1.04486e-06,0,1.66478e-07,-3.6469e+08,-3.64624e+08,-3.64695e+08,11420.4,-0.00132808,0.116826,-0,0.116834,-10617.4,-13278.8,-0,17001.7,11420.4
step02_gravity_refstate-crust.xmf,241,9.3512e-08,8.71222e-07,0,1.326e-07,-3.07617e+08,-3.07564e+08,-3.07624e+08,9096.38,-0.00114042,0.119163,-0,0.119168,-9291.21,-11200.8,-0,14552.9,9096.38
step02_gravity_refstate-crust.xmf,242,1.03999e-07,6.99897e-07,0,1.00685e-07,-2.50436e+08,-2.50395e+08,-2.50443e+08,6907.01,-0.000991812,0.121086,-0,0.12109,-7980.32,-9118.88,-0,12117.7,6907.01
step02_gravity_refstate-crust.xmf,243,1.27864e-07,5.37612e-07,0,4.56731e-08,-1.99393e+08,-1.99365e+08,-1.99402e+08,3133.17,-0.000552226,0.122833,-0,0.122834,-4085.99,-7260.45,-0,8331.23,3133.17
step02_gravity_refstate-crust.xmf,244,1.35516e-07,5.47614e-07,0,1.92756e-09,-2.04869e+08,-2.04841e+08,-2.04878e+08,132.231,-1.91516e-05,0.122942,-0,0.122942,-140.166,-7459.85,-0,7461.17,132.231
step02_gravity_refstate-crust.xmf,245,1.32206e-07,5.53517e-07,0,-2.9387e-08,-2.06231e+08,-2.06203e+08,-2.06241e+08,-2015.95,0.000340177,0.122833,0,0.122833,2499.11,-7509.45,0,7914.38,2015.95
step02_gravity_refstate-crust.xmf,246,-1.61144e-07,2.72894e-06,0,2.96424e-07,-8.19679e+08,-8.19481e+08,-8.19668e+08,20334.7,-0.0027424,0.0813764,-0,0.0814226,-21574.2,-29844.8,-0,36826.1,20334.7
step02_gravity_refstate-crust.xmf,247,-1.50785e-07,2.72692e-06,0,3.41449e-07,-8.26877e+08,-8.26679e+08,-8.26867e+08,23423.4,-0.00303228,0.0816866,-0,0.0817428,-19813.4,-30106.9,-0,36041.6,23423.4
step02_gravity_refstate-crust.xmf,248,-1.33086e-07,2.70373e-06,0,3.80325e-07,-8.30175e+08,-8.2998e+08,-8.30165e+08,26090.3,-0.00325904,0.0823358,-0,0.0824002,-18293.3,-30227,-0,35331.5,26090.3
step02_gravity_refstate-crust.xmf,249,-7.03193e-08,3.31997e-06,0,5.6677e-09,-9.99477e+08,-9.99244e+08,-9.99472e+08,388.804,-0.000125692,0.0567569,-0,0.056757,-38163.4,-36391.8,-0,52733.4,388.804
step02_gravity_refstate-crust.xmf,250,-1.08858e-07,3.10887e-06,0,2.91464e-08,-9.27773e+08,-9.27552e+08,-9.27765e+08,1999.44,-0.000428078,0.0653053,-0,0.0653067,-35832.6,-33780.9,-0,49245.5,1999.44
step02_gravity_refstate-crust.xmf,251,-1.23768e-07,3.12032e-06,0,4.82759e-08,-9.28094e+08,-9.27872e+08,-9.28086e+08,3311.73,-0.000686269,0.0655498,-0,0.0655534,-33587.3,-33792.5,-0,47645,3311.73
step02_gravity_refstate-crust.xmf,252,-4.93617e-08,3.411e-06,0,2.84176e-10,-1.03162e+09,-1.03138e+09,-1.03162e+09,19.4945,-1.48037e-20,0.0527857,-0,0.0527857,-40000,-37562.2,-0,54871.9,19.4945
step02_gravity_refstate-crust.xmf,253,-3.05325e-08,2.28573e-06,0,3.84311e-07,-7.38682e+08,-7.38523e+08,-7.38679e+08,26363.7,-0.0030654,0.0923801,-0,0.092431,-15618,-26895.9,-0,31101.6,26363.7
step02_gravity_refstate-crust.xmf,254,1.25883e-07,1.77366e-07,0,-4.10852e-08,-7.43492e+07,-7.43456e+07,-7.43578e+07,-2818.44,0.0014639,0.123663,0,0.123671,9288.59,-2707.54,0,9675.16,2818.44
step02_gravity_refstate-crust.xmf,255,1.23406e-07,4.31956e-07,0,-5.68991e-08,-1.61082e+08,-1.61061e+08,-1.6109e+08,-3903.28,0.000853361,0.123239,0,0.123242,6194.47,-5865.51,0,8530.86,3903.28
step02_gravity_refstate-crust.xmf,256,1.32457e-07,5.83162e-07,0,2.58977e-08,-2.16738e+08,-2.16707e+08,-2.16747e+08,1776.58,-0.000285756,0.122639,-0,0.12264,-2109.28,-7892.01,-0,8169.02,1776.58
step02_gravity_refstate-crust.xmf,257,1.24869e-07,5.71965e-07,0,-5.78407e-08,-2.10708e+08,-2.10677e+08,-2.10716e+08,-3967.87,0.00066184,0.122499,0,0.1225,4992.83,-7672.41,0,9153.92,3967.87
step02_gravity_refstate-crust.xmf,258,-1.5283e-07,2.93273e-06,0,1.06319e-07,-8.67283e+08,-8.67072e+08,-8.67273e+08,7293.5,-0.00125253,0.072915,-0,0.0729258,-30354.8,-31578.2,-0,43801.8,7293.5
step02_gravity_refstate-crust.xmf,259,-1.66637e-07,2.92527e-06,0,1.43675e-07,-8.63415e+08,-8.63203e+08,-8.63403e+08,9856.08,-0.00160277,0.0739546,-0,0.073972,-28194.2,-31437.3,-0,42228.2,9856.08
step02_gravity_refstate-crust.xmf,260,-1.76688e-07,2.91466e-06,0,1.84282e-07,-8.60325e+08,-8.60113e+08,-8.60313e+08,12641.7,-0.00195448,0.0750144,-0,0.0750398,-26162.7,-31324.8,-0,40813.4,12641.7
step02_gravity_refstate-crust.xmf,261,-1.82354e-07,2.90145e-06,0,2.26823e-07,-8.5826e+08,-8.58049e+08,-8.58248e+08,15560.1,-0.00229208,0.0760373,-0,0.0760719,-24289.5,-31249.6,-0,39579.2,15560.1
step02_gravity_refstate-crust.xmf,262,-1.8539e-07,2.90587e-06,0,2.70653e-07,-8.6279e+08,-8.62578e+08,-8.62778e+08,18566.8,-0.00262144,0.0764528,-0,0.0764977,-22496.3,-31414.5,-0,38638.8,18566.8
step02_gravity_refstate-crust.xmf,263,-1.07866e-07,2.68695e-06,0,4.25629e-07,-8.39351e+08,-8.39159e+08,-8.39344e+08,29198.1,-0.00350142,0.082617,-0,0.0826912,-16602.4,-30561.1,-0,34779.6,29198.1
step02_gravity_refstate-crust.xmf,264,-8.676e-08,3.25782e-06,0,1.52875e-08,-9.76973e+08,-9.76743e+08,-9.76967e+08,1048.72,-0.000282258,0.059541,-0,0.0595416,-36539.2,-35572.4,-0,50995.2,1048.72
step02_gravity_refstate-crust.xmf,265,-1.40434e-07,3.11348e-06,0,7.41772e-08,-9.22583e+08,-9.2236e+08,-9.22574e+08,5088.55,-0.000994519,0.0665926,-0,0.0666,-31334,-33591.8,-0,45937.2,5088.55
step02_gravity_refstate-crust.xmf,266,-3.97621e-08,3.46716e-06,0,-4.87682e-10,-1.05073e+09,-1.05048e+09,-1.05072e+09,-33.455,-6.63802e-05,0.050421,-0,0.0504211,-38256.5,-38257.9,-0,54103.9,33.455
step02_gravity_refstate-crust.xmf,267,8.66414e-09,2.09378e-06,0,3.60832e-07,-6.91183e+08,-6.9104e+08,-6.91184e+08,24753.1,-0.00281913,0.0967509,-0,0.096792,-14631.8,-25166.5,-0,29110.9,24753.1
step02_gravity_refstate-crust.xmf,268,-2.17345e-08,2.39491e-06,0,4.24613e-07,-7.80836e+08,-7.80671e+08,-7.80835e+08,29128.5,-0.00332771,0.0894767,-0,0.0895385,-14569.4,-28430.8,-0,31946.4,29128.5
step02_gravity_refstate-crust.xmf,269,-6.13939e-08,2.58887e-06,0,4.56836e-07,-8.30591e+08,-8.30409e+08,-8.30587e+08,31338.9,-0.00360083,0.0847073,-0,0.0847838,-14928.1,-30242.2,-0,33726,31338.9
step02_gravity_refstate-crust.xmf,270,1.39598e-07,-5.35946e-08,0,-1.22309e-09,13234.3,-18.6956,3657.89,-83.9039,0.00204679,0.12359,0,0.123607,10492.7,0,0,10492.7,83.9039
step02_gravity_refstate-crust.xmf,271,1.09118e-07,4.10465e-07,0,-7.0565e-08,-1.51085e+08,-1.51064e+08,-1.51092e+08,-4840.76,0.00114506,0.122989,0,0.122995,8523.87,-5501.48,0,10145.1,4840.76
step02_gravity_refstate-crust.xmf,272,9.14224e-08,1.71016e-07,0,-4.68998e-08,-6.76732e+07,-6.76678e+07,-6.76795e+07,-3217.33,0.00183178,0.123036,0,0.12305,12340.1,-2464.35,0,12583.7,3217.33
step02_gravity_refstate-crust.xmf,273,9.57498e-08,-3.67662e-08,0,-1.03407e-09,9077.13,-13.4697,2508.69,-70.9369,0.00241555,0.122916,0,0.12294,13537.5,0,0,13537.5,70.9369
step02_gravity_refstate-crust.xmf,274,5.82733e-08,1.58332e-07,0,-4.51902e-08,-5.90625e+07,-5.90557e+07,-5.90665e+07,-3100.05,0.00209912,0.122381,0,0.122399,15150.8,-2150.71,0,15302.6,3100.05
step02_gravity_refstate-crust.xmf,275,4.66734e-08,-1.78678e-08,0,-7.10693e-10,4426.96,-0.568555,1225.16,-48.7535,0.00263976,0.122148,0,0.122177,16619.6,0,0,16619.6,48.7535
step02_gravity_refstate-crust.xmf,276,1.76465e-08,1.75077e-07,0,-4.63522e-08,-5.91296e+07,-5.91188e+07,-5.91308e+07,-3179.76,0.00221635,0.121562,0,0.121582,18183.7,-2153.01,0,18310.7,3179.76
step02_gravity_refstate-crust.xmf,277,-4.81997e-09,1.84388e-09,0,-8.11785e-10,-457.229,-0.0890008,-126.579,-55.6884,0.00270459,0.121332,0,0.121362,19747.8,0,0,19747.8,55.6884
step02_gravity_refstate-crust.xmf,278,9.57684e-08,1.36034e-06,0,2.11692e-07,-4.78409e+08,-4.78322e+08,-4.78415e+08,14522.1,-0.00158624,0.111923,-0,0.111935,-10373,-17419.4,-0,20274,14522.1
step02_gravity_refstate-crust.xmf,279,4.11924e-08,1.90558e-06,0,3.28953e-07,-6.41307e+08,-6.41179e+08,-6.4131e+08,22566.2,-0.0025271,0.100925,-0,0.100956,-13622.4,-23350.5,-0,27033.6,22566.2
step02_gravity_refstate-crust.xmf,280,6.44906e-08,1.72233e-06,0,2.9232e-07,-5.88888e+08,-5.88774e+08,-5.88892e+08,20053.1,-0.00221698,0.104835,-0,0.104858,-12684.7,-21442,-0,24913,20053.1
step02_gravity_refstate-crust.xmf,281,7.96071e-08,1.53664e-06,0,2.52879e-07,-5.31931e+08,-5.31831e+08,-5.31936e+08,17347.5,-0.00190311,0.108595,-0,0.108611,-11774.1,-19368.2,-0,22666.2,17347.5
step02_gravity_refstate-crust.xmf,282,9.94695e-08,1.17704e-06,0,1.7556e-07,-4.16247e+08,-4.16173e+08,-4.16254e+08,12043.4,-0.00133802,0.115037,-0,0.115045,-9580.63,-15156.1,-0,17930.3,12043.4
step02_gravity_refstate-crust.xmf,283,1.19754e-07,7.03251e-07,0,7.51362e-08,-2.55896e+08,-2.55856e+08,-2.55904e+08,5154.35,-0.000719566,0.121374,-0,0.121376,-5545.71,-9317.71,-0,10843.2,5154.35
step02_gravity_refstate-crust.xmf,284,1.07268e-07,1.0147e-06,0,1.38447e-07,-3.62361e+08,-3.62298e+08,-3.62368e+08,9497.43,-0.00109328,0.117547,-0,0.117552,-8189.12,-13194.1,-0,15528.9,9497.43
step02_gravity_refstate-crust.xmf,285,1.13814e-07,8.61855e-07,0,1.04462e-07,-3.10638e+08,-3.10587e+08,-3.10646e+08,7166.06,-0.000883039,0.119608,-0,0.119611,-6784.85,-11310.9,-0,13189.8,7166.06
step02_gravity_refstate-crust.xmf,286,1.28132e-07,7.163e-07,0,4.62054e-08,-2.63649e+08,-2.63609e+08,-2.63658e+08,3169.69,-0.000436575,0.121445,-0,0.121446,-3273.7,-9600.04,-0,10142.9,3169.69
step02_gravity_refstate-crust.xmf,287,1.33164e-07,7.23808e-07,0,1.63899e-08,-2.67861e+08,-2.6782e+08,-2.6787e+08,1124.35,-0.000151534,0.121466,-0,0.121466,-1121.88,-9753.41,-0,9817.72,1124.35
step02_gravity_refstate-crust.xmf,288,1.33058e-07,7.20731e-07,0,-1.70988e-08,-2.66758e+08,-2.66717e+08,-2.66767e+08,-1172.98,0.000160086,0.121493,0,0.121493,1185.15,-9713.24,0,9785.27,1172.98
step02_gravity_refstate-crust.xmf,289,1.2666e-07,7.30378e-07,0,-5.30122e-08,-2.68365e+08,-2.68323e+08,-2.68373e+08,-3636.64,0.000493576,0.121278,0,0.121279,3712.79,-9771.73,0,10453.3,3636.64
step02_gravity_refstate-crust.xmf,290,-1.8481e-07,2.90881e-06,0,3.15208e-07,-8.68855e+08,-8.68642e+08,-8.68842e+08,21623.2,-0.00293548,0.0767654,-0,0.0768215,-20818.6,-31635.3,-0,37870.9,21623.2
step02_gravity_refstate-crust.xmf,291,-1.72577e-07,2.88716e-06,0,3.65349e-07,-8.71141e+08,-8.70931e+08,-8.71129e+08,25063,-0.00324066,0.0776,-0,0.0776676,-19136,-31718.5,-0,37043.9,25063
step02_gravity_refstate-crust.xmf,292,-1.50496e-07,2.84917e-06,0,4.16537e-07,-8.72844e+08,-8.72638e+08,-8.72834e+08,28574.5,-0.00352091,0.0786194,-0,0.0786982,-17446.9,-31780.6,-0,36254.6,28574.5
step02_gravity_refstate-crust.xmf,293,-5.62629e-08,3.4335e-06,0,4.0061e-09,-1.03625e+09,-1.03602e+09,-1.03625e+09,274.818,-0.000185047,0.0523347,-0,0.052335,-36306.2,-37731,-0,52361.9,274.818
step02_gravity_refstate-crust.xmf,294,-9.53233e-08,3.28731e-06,0,2.40094e-08,-9.83473e+08,-9.83241e+08,-9.83467e+08,1647.05,-0.00044582,0.0589524,-0,0.0589541,-34592.1,-35809,-0,49788.6,1647.05
step02_gravity_refstate-crust.xmf,295,-1.13191e-07,3.31973e-06,0,3.76743e-08,-9.88639e+08,-9.88404e+08,-9.88631e+08,2584.46,-0.000663968,0.0586559,-0,0.0586596,-32343.9,-35997.1,-0,48393.4,2584.46
step02_gravity_refstate-crust.xmf,296,1.76452e-08,2.20684e-06,0,3.96561e-07,-7.35598e+08,-7.35448e+08,-7.356e+08,27204.1,-0.00306002,0.0937777,-0,0.0938276,-13788.9,-26783.7,-0,30124.7,27204.1
step02_gravity_refstate-crust.xmf,297,-1.14755e-07,2.78877e-06,0,4.64621e-07,-8.72714e+08,-8.72515e+08,-8.72706e+08,31873,-0.00374448,0.0799165,-0,0.0800042,-15785.3,-31775.9,-0,35480.8,31873
step02_gravity_refstate-crust.xmf,298,8.382e-08,4.17291e-07,0,-8.68172e-08,-1.48859e+08,-1.48836e+08,-1.48865e+08,-5955.66,0.00144441,0.122362,0,0.12237,11527.4,-5420.35,0,12738.2,5955.66
step02_gravity_refstate-crust.xmf,299,-2.37099e-08,2.11933e-07,0,-4.87792e-08,-6.56631e+07,-6.56469e+07,-6.56614e+07,-3346.25,0.00216223,0.120659,0,0.120679,21310.4,-2390.76,0,21444.1,3346.25
step02_gravity_refstate-crust.xmf,300,-5.52949e-08,2.11958e-08,0,-8.82399e-10,-5243.53,3.72852,-1450.3,-60.5326,0.002604,0.120514,0,0.120543,22931.2,0,0,22931.2,60.5326
step02_gravity_refstate-crust.xmf,301,-6.2343e-08,2.37296e-07,0,-4.60604e-08,-6.87907e+07,-6.87702e+07,-6.87865e+07,-3159.75,0.00200134,0.119801,0,0.119817,24487,-2504.51,0,24614.8,3159.75
step02_gravity_refstate-crust.xmf,302,-1.01739e-07,3.88761e-08,0,-8.69017e-10,-9653.01,-6.79693,-2673.7,-59.6145,0.00234,0.119744,0,0.119767,26179,0,0,26179,59.6145
step02_gravity_refstate-crust.xmf,303,-1.01192e-07,2.72559e-07,0,-4.19126e-08,-7.55992e+07,-7.55736e+07,-7.55923e+07,-2875.2,0.00166786,0.118903,0,0.118915,28071.3,-2752.28,0,28205.9,2875.2
step02_gravity_refstate-crust.xmf,304,-1.42908e-07,5.46685e-08,0,-9.53324e-11,-13556.5,-2.73262,-3752.99,-6.5398,0.00192459,0.119071,0,0.119087,29500.3,0,0,29500.3,6.5398
step02_gravity_refstate-crust.xmf,305,-1.37114e-07,2.14404e-07,0,-2.36712e-08,-5.24143e+07,-5.23901e+07,-5.24049e+07,-1623.85,0.00140237,0.118522,0,0.11853,31202.5,-1907.97,0,31260.8,1623.85
step02_gravity_refstate-crust.xmf,306,-1.7685e-07,6.664e-08,0,-1.53761e-09,-16819.4,-115.954,-4687.46,-105.48,0.00137461,0.11854,0,0.118548,32904.6,0,0,32904.6,105.48
step02_gravity_refstate-crust.xmf,307,1.08531e-07,5.87091e-07,0,-8.24929e-08,-2.1253e+08,-2.12497e+08,-2.12537e+08,-5659.01,0.000945308,0.122083,0,0.122086,7412.7,-7738.72,0,10716.1,5659.01
step02_gravity_refstate-crust.xmf,308,1.16317e-07,7.46072e-07,0,-8.50937e-08,-2.70713e+08,-2.7067e+08,-2.70721e+08,-5837.42,0.000791397,0.12089,0,0.120892,6141.89,-9857.21,0,11614.1,5837.42
step02_gravity_refstate-crust.xmf,309,-1.60399e-07,3.1037e-06,0,1.07424e-07,-9.16112e+08,-9.15888e+08,-9.16101e+08,7369.3,-0.0013387,0.0678739,-0,0.0678871,-29155.4,-33356.1,-0,44302,7369.3
step02_gravity_refstate-crust.xmf,310,-1.7955e-07,3.09782e-06,0,1.47275e-07,-9.11498e+08,-9.11273e+08,-9.11485e+08,10103.1,-0.00170525,0.0690713,-0,0.0690923,-27063.6,-33188.1,-0,42823.9,10103.1
step02_gravity_refstate-crust.xmf,311,-1.94154e-07,3.09324e-06,0,1.89995e-07,-9.09208e+08,-9.08983e+08,-9.09195e+08,13033.7,-0.00206936,0.0700946,-0,0.0701251,-25137.9,-33104.6,-0,41567.2,13033.7
step02_gravity_refstate-crust.xmf,312,-2.04677e-07,3.09113e-06,0,2.35854e-07,-9.09419e+08,-9.09193e+08,-9.09405e+08,16179.6,-0.00242943,0.0709252,-0,0.0709668,-23330,-33112.3,-0,40505.7,16179.6
step02_gravity_refstate-crust.xmf,313,-2.10732e-07,3.09088e-06,0,2.83997e-07,-9.12077e+08,-9.11851e+08,-9.12063e+08,19482.2,-0.00277826,0.0715536,-0,0.0716075,-21640,-33209,-0,39637.4,19482.2
step02_gravity_refstate-crust.xmf,314,-1.4414e-07,3.27549e-06,0,7.01195e-08,-9.69307e+08,-9.69073e+08,-9.69297e+08,4810.2,-0.00102727,0.0614487,-0,0.0614573,-30072,-35293.1,-0,46367.3,4810.2
step02_gravity_refstate-crust.xmf,315,6.37819e-08,2.02813e-06,0,3.64314e-07,-6.93496e+08,-6.93362e+08,-6.93501e+08,24991.9,-0.0027547,0.097816,-0,0.0978548,-12458.1,-25250.8,-0,28156.9,24991.9
step02_gravity_refstate-crust.xmf,316,2.77114e-08,2.30421e-06,0,4.30895e-07,-7.73297e+08,-7.73141e+08,-7.73299e+08,29559.4,-0.00327713,0.091164,-0,0.0912229,-13051.3,-28156.3,-0,31034.1,29559.4
step02_gravity_refstate-crust.xmf,317,3.77037e-10,2.44895e-06,0,4.63574e-07,-8.11318e+08,-8.1115e+08,-8.11318e+08,31801.2,-0.00352984,0.0876383,-0,0.0877094,-13385.3,-29540.6,-0,32431.7,31801.2
step02_gravity_refstate-crust.xmf,318,-7.13343e-08,2.72323e-06,0,5.07134e-07,-8.74176e+08,-8.73984e+08,-8.74171e+08,34789.4,-0.00390111,0.0810796,-0,0.0811734,-14199.3,-31829.2,-0,34852.8,34789.4
step02_gravity_refstate-crust.xmf,319,8.96409e-08,6.07037e-07,0,-1.03885e-07,-2.15127e+08,-2.15092e+08,-2.15133e+08,-7126.53,0.00119151,0.121515,0,0.121521,9880.04,-7833.22,0,12608.5,7126.53
step02_gravity_refstate-crust.xmf,320,5.70803e-08,3.63752e-07,0,-8.44094e-08,-1.26609e+08,-1.26587e+08,-1.26612e+08,-5790.49,0.00172124,0.121931,0,0.121944,14423.9,-4610.1,0,15142.7,5790.49
step02_gravity_refstate-crust.xmf,321,-1.4447e-07,2.90968e-07,0,-2.16676e-08,-7.57995e+07,-7.57697e+07,-7.57896e+07,-1486.39,0.000882363,0.117879,0,0.117882,34312.9,-2759.42,0,34423.6,1486.39
step02_gravity_refstate-crust.xmf,322,2.73698e-08,3.8072e-07,0,-8.84735e-08,-1.27546e+08,-1.27522e+08,-1.27548e+08,-6069.29,0.00182879,0.121193,0,0.121206,17030.6,-4644.15,0,17652.5,6069.29
step02_gravity_refstate-crust.xmf,323,-4.55862e-09,4.04535e-07,0,-8.92917e-08,-1.30458e+08,-1.3043e+08,-1.30458e+08,-6125.41,0.00184887,0.120345,0,0.120359,19835.2,-4750.06,0,20396,6125.41
step02_gravity_refstate-crust.xmf,324,1.21769e-07,1.25708e-06,0,1.70205e-07,-4.52633e+08,-4.52555e+08,-4.52641e+08,11676.1,-0.00126704,0.113828,-0,0.113835,-8131.6,-16481,-0,18377.9,11676.1
step02_gravity_refstate-crust.xmf,325,1.1507e-07,1.52606e-06,0,2.36473e-07,-5.42999e+08,-5.42902e+08,-5.43007e+08,16222,-0.00175144,0.108742,-0,0.108756,-9766.42,-19771.2,-0,22051.9,16222
step02_gravity_refstate-crust.xmf,326,8.88116e-08,1.83682e-06,0,3.17106e-07,-6.38574e+08,-6.38454e+08,-6.3858e+08,21753.4,-0.00237873,0.102147,-0,0.102175,-11558.8,-23251.1,-0,25965.8,21753.4
step02_gravity_refstate-crust.xmf,327,1.0436e-07,1.67129e-06,0,2.74842e-07,-5.88386e+08,-5.88278e+08,-5.88393e+08,18854.1,-0.00204655,0.105741,-0,0.10576,-10692.1,-21423.8,-0,23943.7,18854.1
step02_gravity_refstate-crust.xmf,328,1.24321e-07,1.12966e-06,0,1.37898e-07,-4.08987e+08,-4.08918e+08,-4.08996e+08,9459.82,-0.00104428,0.11598,-0,0.115985,-7089.28,-14891.8,-0,16493.2,9459.82
step02_gravity_refstate-crust.xmf,329,1.28387e-07,8.70262e-07,0,7.46443e-08,-3.1833e+08,-3.18279e+08,-3.18339e+08,5120.6,-0.000615321,0.119727,-0,0.119729,-4531.44,-11591,-0,12445.3,5120.6
step02_gravity_refstate-crust.xmf,330,1.27582e-07,1.00512e-06,0,1.0472e-07,-3.66152e+08,-3.66092e+08,-3.66161e+08,7183.8,-0.000815824,0.117905,-0,0.117907,-5779.58,-13332.2,-0,14531,7183.8
step02_gravity_refstate-crust.xmf,331,1.36562e-07,8.80268e-07,0,3.77872e-08,-3.25448e+08,-3.25397e+08,-3.25457e+08,2592.2,-0.000311211,0.119731,-0,0.119731,-2225.58,-11850.2,-0,12057.4,2592.2
step02_gravity_refstate-crust.xmf,332,1.39648e-07,8.80017e-07,0,-1.70227e-09,-3.26427e+08,-3.26376e+08,-3.26436e+08,-116.776,1.4265e-05,0.119774,0,0.119774,101.076,-11885.8,0,11886.2,116.776
step02_gravity_refstate-crust.xmf,333,1.36167e-07,8.83938e-07,0,-4.16231e-08,-3.26662e+08,-3.26611e+08,-3.26671e+08,-2855.34,0.000342312,0.119676,0,0.119676,2448.64,-11894.4,0,12143.8,2855.34
step02_gravity_refstate-crust.xmf,334,1.26103e-07,8.98072e-07,0,-8.09356e-08,-3.28335e+08,-3.28282e+08,-3.28344e+08,-5552.18,0.000666395,0.119357,0,0.119359,4881.38,-11955.3,0,12913.4,5552.18
step02_gravity_refstate-crust.xmf,335,-1.96998e-07,7.42966e-08,0,-5.68003e-10,-18732.8,-121.979,-5218.72,-38.965,0.000721699,0.118196,0,0.118198,36401.3,0,0,36401.3,38.965
step02_gravity_refstate-crust.xmf,336,-2.10407e-07,3.07278e-06,0,3.37268e-07,-9.1277e+08,-9.12545e+08,-9.12755e+08,23136.6,-0.00313023,0.072523,-0,0.0725906,-19970,-33234.2,-0,38772.6,23136.6
step02_gravity_refstate-crust.xmf,337,-1.95597e-07,3.03539e-06,0,3.96849e-07,-9.12077e+08,-9.11855e+08,-9.12063e+08,27223.8,-0.00347347,0.0737929,-0,0.0738746,-18283.6,-33209,-0,37909.4,27223.8
step02_gravity_refstate-crust.xmf,338,-1.68405e-07,2.98094e-06,0,4.58517e-07,-9.11797e+08,-9.1158e+08,-9.11785e+08,31454.3,-0.00379046,0.0751806,-0,0.0752761,-16560.6,-33198.8,-0,37100.1,31454.3
step02_gravity_refstate-crust.xmf,339,-6.6575e-08,3.48283e-06,0,4.97336e-09,-1.04811e+09,-1.04787e+09,-1.04811e+09,341.173,-0.00028705,0.0510435,-0,0.0510444,-34073.8,-38162.6,-0,51160.6,341.173
step02_gravity_refstate-crust.xmf,340,-1.21878e-07,3.41685e-06,0,3.89238e-08,-1.01527e+09,-1.01503e+09,-1.01526e+09,2670.17,-0.000742813,0.055697,-0,0.055702,-30733.6,-36966.7,-0,48073.8,2670.17
step02_gravity_refstate-crust.xmf,341,5.99575e-08,2.14714e-06,0,3.9686e-07,-7.33661e+08,-7.33517e+08,-7.33665e+08,27224.6,-0.00299157,0.0948324,-0,0.0948796,-12345,-26713.2,-0,29427.8,27224.6
step02_gravity_refstate-crust.xmf,342,-2.22578e-08,2.57576e-06,0,4.96417e-07,-8.45888e+08,-8.4571e+08,-8.45887e+08,34054.2,-0.00375689,0.0844412,-0,0.0845247,-13433,-30799.3,-0,33601.2,34054.2
step02_gravity_refstate-crust.xmf,343,-1.25563e-07,2.90294e-06,0,5.13547e-07,-9.09854e+08,-9.09647e+08,-9.09846e+08,35229.3,-0.0040255,0.0767868,-0,0.0768922,-14935.4,-33128.1,-0,36339.2,35229.3
step02_gravity_refstate-crust.xmf,344,6.65177e-08,6.52686e-07,0,-1.24932e-07,-2.25592e+08,-2.25552e+08,-2.25596e+08,-8570.33,0.00138599,0.120626,0,0.120634,12459.8,-8214.18,0,14923.8,8570.33
step02_gravity_refstate-crust.xmf,345,-3.63995e-08,4.27075e-07,0,-8.5222e-08,-1.33003e+08,-1.32971e+08,-1.33001e+08,-5846.23,0.00177619,0.119474,0,0.119488,22778.2,-4842.63,0,23287.3,5846.23
step02_gravity_refstate-crust.xmf,346,-6.51816e-08,4.54072e-07,0,-7.76165e-08,-1.37452e+08,-1.37416e+08,-1.37447e+08,-5324.49,0.00160469,0.11862,0,0.118631,25751.8,-5004.51,0,26233.6,5324.49
step02_gravity_refstate-crust.xmf,347,-1.09904e-07,4.32647e-07,0,-4.82811e-08,-1.2468e+08,-1.24643e+08,-1.24673e+08,-3312.08,0.00115104,0.117669,0,0.117675,31211.3,-4539.34,0,31539.7,3312.08
step02_gravity_refstate-crust.xmf,348,9.767e-08,7.67978e-07,0,-1.1274e-07,-2.73375e+08,-2.73329e+08,-2.73382e+08,-7733.99,0.00105361,0.120349,0,0.120354,8572.17,-9954.07,0,13136.4,7733.99
step02_gravity_refstate-crust.xmf,349,1.25388e-07,1.39553e-06,0,1.98497e-07,-5.02317e+08,-5.0223e+08,-5.02326e+08,13616.9,-0.00146581,0.111296,-0,0.111306,-8596.36,-18290,-0,20209.5,13616.9
step02_gravity_refstate-crust.xmf,350,1.11704e-07,9.19425e-07,0,-1.1612e-07,-3.30966e+08,-3.30911e+08,-3.30974e+08,-7965.85,0.000955702,0.118852,0,0.118856,7279.48,-12051,0,14079,7965.85
step02_gravity_refstate-crust.xmf,351,-1.61016e-07,2.72315e-07,0,-8.24802e-09,-6.77114e+07,-6.76816e+07,-6.77003e+07,-565.814,0.000407467,0.117707,0,0.117708,37496.9,-2464.87,0,37577.8,565.814
step02_gravity_refstate-crust.xmf,352,-1.99323e-07,7.49829e-08,0,9.07356e-10,-18962,-144.593,-5288.42,62.2446,3.04e-20,0.118074,0,0.118074,40000,0,0,40000,62.2446
step02_gravity_refstate-crust.xmf,353,-1.70086e-07,3.26963e-06,0,1.04616e-07,-9.62488e+08,-9.62252e+08,-9.62477e+08,7176.66,-0.00138275,0.0628486,-0,0.0628638,-27975.3,-35044.7,-0,44841.4,7176.66
step02_gravity_refstate-crust.xmf,354,-1.95879e-07,3.27459e-06,0,1.46723e-07,-9.59473e+08,-9.59235e+08,-9.5946e+08,10065.2,-0.0017654,0.0639317,-0,0.063956,-25942.4,-34934.9,-0,43513.8,10065.2
step02_gravity_refstate-crust.xmf,355,-2.16246e-07,3.27509e-06,0,1.94345e-07,-9.57368e+08,-9.57129e+08,-9.57354e+08,13332,-0.00216481,0.0650168,-0,0.0650528,-24036.5,-34858.1,-0,42342,13332
step02_gravity_refstate-crust.xmf,356,-2.29924e-07,3.26093e-06,0,2.47425e-07,-9.53754e+08,-9.53514e+08,-9.53738e+08,16973.4,-0.0025637,0.0663533,-0,0.0664028,-22300.1,-34726.5,-0,41270.1,16973.4
step02_gravity_refstate-crust.xmf,357,-2.37947e-07,3.24914e-06,0,3.0393e-07,-9.53234e+08,-9.52994e+08,-9.53217e+08,20849.6,-0.00295298,0.0674194,-0,0.067484,-20646.8,-34707.5,-0,40384.4,20849.6
step02_gravity_refstate-crust.xmf,358,-8.91605e-08,3.50743e-06,0,1.25804e-08,-1.04939e+09,-1.04914e+09,-1.04938e+09,863.016,-0.000447595,0.05117,-0,0.0511719,-31950.8,-38209,-0,49807.4,863.016
step02_gravity_refstate-crust.xmf,359,-1.49136e-07,3.42143e-06,0,6.22981e-08,-1.01047e+09,-1.01023e+09,-1.01046e+09,4273.65,-0.0010148,0.056729,-0,0.0567381,-28901,-36792,-0,46785.8,4273.65
step02_gravity_refstate-crust.xmf,360,1.20019e-07,1.92467e-06,0,3.39437e-07,-6.82755e+08,-6.82632e+08,-6.82764e+08,23285.4,-0.00250499,0.0996957,-0,0.0997272,-10419.6,-24859.9,-0,26955.2,23285.4
step02_gravity_refstate-crust.xmf,361,7.61464e-08,2.2225e-06,0,4.27178e-07,-7.67518e+08,-7.67371e+08,-7.67524e+08,29304.4,-0.00316689,0.0925791,-0,0.0926333,-11661.7,-27946,-0,30281.6,29304.4
step02_gravity_refstate-crust.xmf,362,1.02939e-07,2.07051e-06,0,3.83865e-07,-7.26233e+08,-7.26098e+08,-7.2624e+08,26333.1,-0.0028358,0.0962089,-0,0.0962507,-11012.8,-26442.9,-0,28644.5,26333.1
step02_gravity_refstate-crust.xmf,363,4.72076e-08,2.34631e-06,0,4.58288e-07,-7.98254e+08,-7.98096e+08,-7.98257e+08,31438.5,-0.00341414,0.0896315,-0,0.0896965,-12226.7,-29065.1,-0,31532.1,31438.5
step02_gravity_refstate-crust.xmf,364,3.87228e-08,2.46014e-06,0,4.99766e-07,-8.34782e+08,-8.34616e+08,-8.34784e+08,34284,-0.00366682,0.0865897,-0,0.0866673,-12026.3,-30395,-0,32687.8,34284
step02_gravity_refstate-crust.xmf,365,-1.03225e-08,2.6349e-06,0,5.38303e-07,-8.73996e+08,-8.73814e+08,-8.73995e+08,36927.6,-0.00396398,0.0824456,-0,0.0825409,-12639,-31822.7,-0,34240.8,36927.6
step02_gravity_refstate-crust.xmf,366,-6.90533e-08,2.80504e-06,0,5.57844e-07,-9.06238e+08,-9.0604e+08,-9.06233e+08,38268.1,-0.00415911,0.0785907,-0,0.0787006,-13373.7,-32996.6,-0,35603.8,38268.1
step02_gravity_refstate-crust.xmf,367,5.61503e-08,5.32893e-07,0,-1.11709e-07,-1.82909e+08,-1.82877e+08,-1.82913e+08,-7663.24,0.00153309,0.121154,0,0.121164,13901,-6660.05,0,15414.1,7663.24
step02_gravity_refstate-crust.xmf,368,7.66114e-08,7.96669e-07,0,-1.35818e-07,-2.77459e+08,-2.7741e+08,-2.77464e+08,-9317.14,0.00127138,0.119639,0,0.119646,11026.7,-10102.7,0,14955.1,9317.14
step02_gravity_refstate-crust.xmf,369,3.35513e-08,5.69295e-07,0,-1.1991e-07,-1.90582e+08,-1.90546e+08,-1.90585e+08,-8225.82,0.00161234,0.1204,0,0.120411,16002.4,-6939.36,0,17442.2,8225.82
step02_gravity_refstate-crust.xmf,370,-8.5419e-08,4.94016e-07,0,-7.02586e-08,-1.47267e+08,-1.47228e+08,-1.47261e+08,-4819.74,0.00137911,0.117856,0,0.117864,28285.9,-5361.83,0,28789.6,4819.74
step02_gravity_refstate-crust.xmf,371,-1.19868e-07,5.07629e-07,0,-3.76994e-08,-1.46724e+08,-1.46681e+08,-1.46716e+08,-2586.18,0.000768421,0.116875,0,0.116878,34071.1,-5341.94,0,34487.3,2586.18
step02_gravity_refstate-crust.xmf,372,6.9556e-09,5.93383e-07,0,-1.22604e-07,-1.93509e+08,-1.93468e+08,-1.93509e+08,-8410.65,0.00165812,0.119576,0,0.119587,18556,-7045.82,0,19848.7,8410.65
step02_gravity_refstate-crust.xmf,373,-2.03303e-08,6.19004e-07,0,-1.1989e-07,-1.96831e+08,-1.96787e+08,-1.96829e+08,-8224.43,0.00163189,0.118688,0,0.118699,21277,-7166.69,0,22451.6,8224.43
step02_gravity_refstate-crust.xmf,374,1.4372e-07,1.22362e-06,0,1.31837e-07,-4.4954e+08,-4.49466e+08,-4.4955e+08,9044.01,-0.000974656,0.114482,-0,0.114486,-5982.38,-16368.4,-0,17427.4,9044.01
step02_gravity_refstate-crust.xmf,375,1.46301e-07,1.34951e-06,0,1.65567e-07,-4.94559e+08,-4.94477e+08,-4.94569e+08,11357.9,-0.0012126,0.112162,-0,0.112169,-6901.48,-18007.6,-0,19284.8,11357.9
step02_gravity_refstate-crust.xmf,376,1.47378e-07,1.48744e-06,0,2.04424e-07,-5.42985e+08,-5.42894e+08,-5.42996e+08,14023.5,-0.00149446,0.109407,-0,0.109417,-7809.29,-19770.8,-0,21257.2,14023.5
step02_gravity_refstate-crust.xmf,377,1.43336e-07,1.6261e-06,0,2.46986e-07,-5.89357e+08,-5.89255e+08,-5.89367e+08,16943.2,-0.00180915,0.106462,-0,0.106478,-8739.79,-21459.2,-0,23170.7,16943.2
step02_gravity_refstate-crust.xmf,378,1.34787e-07,1.77067e-06,0,2.91848e-07,-6.35773e+08,-6.35661e+08,-6.35783e+08,20020.8,-0.00214543,0.103245,-0,0.103267,-9600.38,-23149.3,-0,25061,20020.8
step02_gravity_refstate-crust.xmf,379,1.41278e-07,1.11281e-06,0,1.01815e-07,-4.09834e+08,-4.09767e+08,-4.09844e+08,6984.51,-0.000769805,0.116351,-0,0.116354,-5013.46,-14922.7,-0,15742.4,6984.51
step02_gravity_refstate-crust.xmf,380,1.43283e-07,1.03949e-06,0,6.88331e-08,-3.84803e+08,-3.84741e+08,-3.84812e+08,4721.95,-0.000523532,0.117543,-0,0.117545,-3489.54,-14011.3,-0,14439.3,4721.95
step02_gravity_refstate-crust.xmf,381,1.50632e-07,1.02737e-06,0,2.0035e-08,-3.8334e+08,-3.8328e+08,-3.8335e+08,1374.4,-0.00015313,0.117781,-0,0.117781,-1005.48,-13958.1,-0,13994.2,1374.4
step02_gravity_refstate-crust.xmf,382,1.50281e-07,1.02904e-06,0,-2.56894e-08,-3.83798e+08,-3.83738e+08,-3.83809e+08,-1762.29,0.00019734,0.117752,0,0.117753,1296.33,-13974.8,0,14034.8,1762.29
step02_gravity_refstate-crust.xmf,383,1.42565e-07,1.03932e-06,0,-7.09575e-08,-3.8459e+08,-3.84528e+08,-3.84599e+08,-4867.68,0.000545531,0.117534,0,0.117535,3643.76,-14003.6,0,14469.8,4867.68
step02_gravity_refstate-crust.xmf,384,1.2787e-07,1.06034e-06,0,-1.13116e-07,-3.86623e+08,-3.86559e+08,-3.86632e+08,-7759.78,0.000872989,0.117091,0,0.117094,6021.55,-14077.6,0,15311.3,7759.78
step02_gravity_refstate-crust.xmf,385,-1.31869e-07,4.93463e-07,0,-2.02169e-08,-1.41083e+08,-1.41041e+08,-1.41074e+08,-1386.88,0.000418696,0.11672,0,0.11672,36881.2,-5136.51,0,37237.2,1386.88
step02_gravity_refstate-crust.xmf,386,-1.50416e-07,3.54606e-07,0,4.5063e-10,-9.53187e+07,-9.52841e+07,-9.53084e+07,30.9132,2.99843e-20,0.117328,0,0.117328,40000,-3470.11,0,40150.2,30.9132
step02_gravity_refstate-crust.xmf,387,-2.37741e-07,3.22044e-06,0,3.6715e-07,-9.51943e+08,-9.51706e+08,-9.51927e+08,25186.5,-0.00335015,0.0687287,-0,0.0688103,-18986.1,-34660.5,-0,39519.9,25186.5
step02_gravity_refstate-crust.xmf,388,-2.22979e-07,3.18225e-06,0,4.37024e-07,-9.52021e+08,-9.51788e+08,-9.52006e+08,29979.8,-0.00373237,0.0700239,-0,0.0701233,-17334.5,-34663.3,-0,38756,29979.8
step02_gravity_refstate-crust.xmf,389,-1.90863e-07,3.11958e-06,0,5.20039e-07,-9.53651e+08,-9.53424e+08,-9.53638e+08,35674.7,-0.00412551,0.0714906,-0,0.0716095,-15475.8,-34722.7,-0,38015.3,35674.7
step02_gravity_refstate-crust.xmf,390,-1.17523e-07,3.5486e-06,0,2.39965e-08,-1.05432e+09,-1.05406e+09,-1.05431e+09,1646.16,-0.000635123,0.0509274,-0,0.0509313,-29872,-38388.4,-0,48641.6,1646.16
step02_gravity_refstate-crust.xmf,391,-1.27219e-07,2.97967e-06,0,5.70653e-07,-9.40206e+08,-9.39993e+08,-9.40197e+08,39146.8,-0.00431177,0.0744708,-0,0.0745956,-13940.7,-34233.2,-0,36962.9,39146.8
step02_gravity_refstate-crust.xmf,392,5.30367e-08,8.31081e-07,0,-1.53675e-07,-2.82782e+08,-2.82729e+08,-2.82786e+08,-10542.1,0.00143445,0.118787,0,0.118796,13493.7,-10296.5,0,16973.4,10542.1
step02_gravity_refstate-crust.xmf,393,3.91565e-08,7.30412e-07,0,-1.43805e-07,-2.45518e+08,-2.4547e+08,-2.4552e+08,-9865.01,0.00151087,0.119375,0,0.119385,15073.1,-8939.6,0,17524.7,9865.01
step02_gravity_refstate-crust.xmf,394,-4.60278e-08,6.396e-07,0,-1.11144e-07,-1.98892e+08,-1.98845e+08,-1.98889e+08,-7624.49,0.00153285,0.117841,0,0.117851,24062,-7241.68,0,25128.1,7624.49
step02_gravity_refstate-crust.xmf,395,-6.86205e-08,6.61532e-07,0,-9.81824e-08,-2.01987e+08,-2.01937e+08,-2.01982e+08,-6735.32,0.0013632,0.117036,0,0.117044,26857.8,-7354.28,0,27846.4,6735.32
step02_gravity_refstate-crust.xmf,396,-8.78625e-08,6.6709e-07,0,-8.00603e-08,-2.0059e+08,-2.00538e+08,-2.00584e+08,-5492.13,0.00113959,0.116433,0,0.116439,29688,-7303.34,0,30573.2,5492.13
step02_gravity_refstate-crust.xmf,397,-1.03335e-07,6.73631e-07,0,-5.87974e-08,-2.00233e+08,-2.00179e+08,-2.00225e+08,-4033.5,0.000854626,0.115921,0,0.115924,32622.1,-7290.29,0,33426.8,4033.5
step02_gravity_refstate-crust.xmf,398,9.01728e-08,9.45164e-07,0,-1.4412e-07,-3.33068e+08,-3.3301e+08,-3.33074e+08,-9886.66,0.00119906,0.118231,0,0.118237,9656.53,-12127.5,0,15502.4,9886.66
step02_gravity_refstate-crust.xmf,399,6.77639e-08,9.69459e-07,0,-1.64499e-07,-3.34267e+08,-3.34205e+08,-3.34271e+08,-11284.6,0.00138244,0.117559,0,0.117567,11938.8,-12171.1,0,17049,11284.6
step02_gravity_refstate-crust.xmf,400,1.08668e-07,1.08579e-06,0,-1.49154e-07,-3.88525e+08,-3.88458e+08,-3.88533e+08,-10232,0.00115401,0.116506,0,0.116511,8357.54,-14146.8,0,16431.1,10232
step02_gravity_refstate-crust.xmf,401,-1.81556e-07,3.43572e-06,0,9.63498e-08,-1.00778e+09,-1.00753e+09,-1.00776e+09,6609.6,-0.00136844,0.057692,-0,0.0577082,-26848.8,-36693.7,-0,45467.5,6609.6
step02_gravity_refstate-crust.xmf,402,-2.1885e-07,3.46695e-06,0,1.41568e-07,-1.00993e+09,-1.00968e+09,-1.00992e+09,9711.58,-0.0017768,0.0582428,-0,0.0582699,-24736.3,-36772.1,-0,44317.8,9711.58
step02_gravity_refstate-crust.xmf,403,-2.42675e-07,3.42762e-06,0,2.03225e-07,-9.9628e+08,-9.96029e+08,-9.96264e+08,13941.3,-0.00227829,0.0608651,-0,0.0609077,-22861.8,-36274.9,-0,42878.1,13941.3
step02_gravity_refstate-crust.xmf,404,-2.59254e-07,3.41587e-06,0,2.61934e-07,-9.92595e+08,-9.92343e+08,-9.92578e+08,17968.7,-0.00269724,0.0622546,-0,0.062313,-21255.4,-36140.7,-0,41927.8,17968.7
step02_gravity_refstate-crust.xmf,405,-2.69245e-07,3.39769e-06,0,3.27764e-07,-9.9047e+08,-9.90218e+08,-9.90451e+08,22484.6,-0.00312978,0.0636006,-0,0.0636776,-19648.5,-36063.2,-0,41068.4,22484.6
step02_gravity_refstate-crust.xmf,406,-1.53138e-07,3.575e-06,0,4.67356e-08,-1.05338e+09,-1.05313e+09,-1.05337e+09,3206.06,-0.000912447,0.0515476,-0,0.0515557,-27866.9,-38354.3,-0,47409,3206.06
step02_gravity_refstate-crust.xmf,407,1.70511e-07,1.85128e-06,0,3.06789e-07,-6.79576e+08,-6.7946e+08,-6.79587e+08,21045.7,-0.00221605,0.100832,-0,0.100856,-8552.6,-24744.2,-0,26180.6,21045.7
step02_gravity_refstate-crust.xmf,408,1.56429e-07,1.99225e-06,0,3.59868e-07,-7.2288e+08,-7.22754e+08,-7.22891e+08,24687,-0.00259716,0.0974128,-0,0.0974474,-9335.03,-26320.9,-0,27927.3,24687
step02_gravity_refstate-crust.xmf,409,9.52997e-08,2.28942e-06,0,4.61411e-07,-8.00612e+08,-8.00461e+08,-8.00618e+08,31652.8,-0.00334075,0.090348,-0,0.0904097,-10958.9,-29151,-0,31142.9,31652.8
step02_gravity_refstate-crust.xmf,410,1.31684e-07,2.13877e-06,0,4.12827e-07,-7.63528e+08,-7.63391e+08,-7.63537e+08,28319.9,-0.00298099,0.0938895,-0,0.0939368,-10135.2,-27800.9,-0,29590.7,28319.9
step02_gravity_refstate-crust.xmf,411,6.03236e-08,2.53114e-06,0,5.52287e-07,-8.71955e+08,-8.71786e+08,-8.7196e+08,37886.9,-0.00391116,0.0839508,-0,0.0840419,-11145.6,-31748.6,-0,33648.1,37886.9
step02_gravity_refstate-crust.xmf,412,-6.21506e-08,2.85991e-06,0,6.07791e-07,-9.32356e+08,-9.32155e+08,-9.32352e+08,41694.4,-0.00438729,0.0766262,-0,0.0767517,-12626.8,-33947.5,-0,36219.8,41694.4
step02_gravity_refstate-crust.xmf,413,1.81315e-10,2.70448e-06,0,5.91753e-07,-9.06326e+08,-9.0614e+08,-9.06326e+08,40594.2,-0.00421247,0.0800183,-0,0.0801291,-11863,-32999.9,-0,35067.4,40594.2
step02_gravity_refstate-crust.xmf,414,1.55248e-08,7.77076e-07,0,-1.50674e-07,-2.55268e+08,-2.55215e+08,-2.55269e+08,-10336.2,0.00156854,0.118402,0,0.118412,17361.9,-9294.54,0,19693.2,10336.2
step02_gravity_refstate-crust.xmf,415,-1.14403e-07,6.71281e-07,0,-3.96822e-08,-1.97976e+08,-1.97922e+08,-1.97968e+08,-2722.2,0.000589125,0.115665,0,0.115667,35062.4,-7208.08,0,35795.6,2722.2
step02_gravity_refstate-crust.xmf,416,-9.52838e-09,8.0392e-07,0,-1.49708e-07,-2.58295e+08,-2.5824e+08,-2.58295e+08,-10270,0.00157399,0.117512,0,0.117523,19909.7,-9404.71,0,22019.2,10270
step02_gravity_refstate-crust.xmf,417,-3.38161e-08,8.26644e-07,0,-1.41911e-07,-2.60259e+08,-2.602e+08,-2.60257e+08,-9735.07,0.00151355,0.116633,0,0.116643,22569,-9476.14,0,24477.7,9735.07
step02_gravity_refstate-crust.xmf,418,4.67363e-08,9.94923e-07,0,-1.77042e-07,-3.36297e+08,-3.36232e+08,-3.36301e+08,-12145,0.00150073,0.116868,0,0.116878,13948.6,-12245,0,18560.8,12145
step02_gravity_refstate-crust.xmf,419,1.58757e-07,1.19594e-06,0,8.98508e-08,-4.4577e+08,-4.45698e+08,-4.45781e+08,6163.77,-0.000660018,0.115004,-0,0.115006,-3947.46,-16231.2,-0,16704.3,6163.77
step02_gravity_refstate-crust.xmf,420,1.67469e-07,1.32108e-06,0,1.23405e-07,-4.93205e+08,-4.93126e+08,-4.93216e+08,8465.59,-0.00089606,0.112674,-0,0.112678,-4904.9,-17958.3,-0,18616.1,8465.59
step02_gravity_refstate-crust.xmf,421,1.74787e-07,1.45048e-06,0,1.62707e-07,-5.41502e+08,-5.41414e+08,-5.41514e+08,11161.7,-0.00117645,0.110031,-0,0.110037,-5864.03,-19716.9,-0,20570.4,11161.7
step02_gravity_refstate-crust.xmf,422,1.78596e-07,1.58218e-06,0,2.07377e-07,-5.89077e+08,-5.88981e+08,-5.89089e+08,14226.1,-0.00149801,0.107142,-0,0.107153,-6813.37,-21449.1,-0,22505.3,14226.1
step02_gravity_refstate-crust.xmf,423,1.77328e-07,1.71605e-06,0,2.56148e-07,-6.35243e+08,-6.35137e+08,-6.35255e+08,17571.8,-0.00185048,0.104057,-0,0.104073,-7725.73,-23130,-0,24386.2,17571.8
step02_gravity_refstate-crust.xmf,424,1.65745e-07,1.17161e-06,0,4.41635e-08,-4.40529e+08,-4.4046e+08,-4.40541e+08,3029.62,-0.000326268,0.115443,-0,0.115443,-1933.53,-16040.4,-0,16156.5,3029.62
step02_gravity_refstate-crust.xmf,425,1.68176e-07,1.16402e-06,0,-4.90271e-09,-4.38818e+08,-4.38749e+08,-4.38829e+08,-336.326,3.65267e-05,0.115583,0,0.115583,215.938,-15978.1,0,15979.5,336.326
step02_gravity_refstate-crust.xmf,426,1.63593e-07,1.17312e-06,0,-5.57714e-08,-4.40268e+08,-4.40199e+08,-4.4028e+08,-3825.92,0.000413729,0.115412,0,0.115413,2462.26,-16030.9,0,16218.9,3825.92
step02_gravity_refstate-crust.xmf,427,1.50336e-07,1.19188e-06,0,-1.05622e-07,-4.41649e+08,-4.41578e+08,-4.41659e+08,-7245.64,0.000785737,0.115052,0,0.115055,4797.92,-16081.1,0,16781.6,7245.64
step02_gravity_refstate-crust.xmf,428,1.29715e-07,1.21665e-06,0,-1.488e-07,-4.42254e+08,-4.42179e+08,-4.42262e+08,-10207.7,0.00111535,0.114552,0,0.114557,7121.77,-16103.1,0,17607.6,10207.7
step02_gravity_refstate-crust.xmf,429,-1.23319e-07,6.39572e-07,0,1.89568e-10,-1.8717e+08,-1.87118e+08,-1.87162e+08,13.0044,2.21055e-20,0.115666,0,0.115666,40000,-6814.61,0,40576.3,13.0044
step02_gravity_refstate-crust.xmf,430,-1.74895e-07,3.13544e-06,0,5.90319e-07,-9.72569e+08,-9.72342e+08,-9.72557e+08,40495.9,-0.00445291,0.0706885,-0,0.0708287,-14116.8,-35411.5,-0,38121.6,40495.9
step02_gravity_refstate-crust.xmf,431,-2.71656e-07,3.37279e-06,0,3.98685e-07,-9.90454e+08,-9.90204e+08,-9.90435e+08,27349.8,-0.00355903,0.0648298,-0,0.0649275,-18063.9,-36062.6,-0,40333.8,27349.8
step02_gravity_refstate-crust.xmf,432,-2.58852e-07,3.3379e-06,0,4.79629e-07,-9.91877e+08,-9.9163e+08,-9.91859e+08,32902.5,-0.00398052,0.066052,-0,0.0661718,-16479.7,-36114.4,-0,39696.7,32902.5
step02_gravity_refstate-crust.xmf,433,-1.06101e-07,3.01293e-06,0,6.4676e-07,-9.66566e+08,-9.66352e+08,-9.66558e+08,44367.7,-0.00462171,0.0728947,-0,0.0730411,-12697.1,-35193,-0,37413.4,44367.7
step02_gravity_refstate-crust.xmf,434,1.15427e-07,2.36066e-06,0,5.0255e-07,-8.36326e+08,-8.36172e+08,-8.36334e+08,34475,-0.00354644,0.0878155,-0,0.0878871,-10307.4,-30451.4,-0,32148.6,34475
step02_gravity_refstate-crust.xmf,435,2.7473e-08,9.45553e-07,0,-1.75107e-07,-3.1444e+08,-3.14377e+08,-3.14442e+08,-12012.4,0.00154817,0.117027,0,0.117037,15850.8,-11449.1,0,19553.3,12012.4
step02_gravity_refstate-crust.xmf,436,-5.59159e-08,8.49582e-07,0,-1.28502e-07,-2.62855e+08,-2.62793e+08,-2.62852e+08,-8815.25,0.00138694,0.115767,0,0.115776,25295.6,-9570.6,0,27045.6,8815.25
step02_gravity_refstate-crust.xmf,437,-1.14404e-07,7.7833e-07,0,-2.47271e-08,-2.30789e+08,-2.30728e+08,-2.30781e+08,-1696.28,0.000312879,0.114617,0,0.114617,37302.3,-8402.85,0,38237,1696.28
step02_gravity_refstate-crust.xmf,438,-7.53369e-08,8.71441e-07,0,-1.09549e-07,-2.65759e+08,-2.65694e+08,-2.65754e+08,-7515.05,0.00119424,0.114946,0,0.114952,28148.5,-9676.26,0,29765.2,7515.05
step02_gravity_refstate-crust.xmf,439,-9.12127e-08,8.89735e-07,0,-8.54185e-08,-2.68311e+08,-2.68244e+08,-2.68305e+08,-5859.71,0.000939655,0.114233,0,0.114237,31134.7,-9769.15,0,32631.4,5859.71
step02_gravity_refstate-crust.xmf,440,-1.03345e-07,9.05798e-07,0,-5.49798e-08,-2.71049e+08,-2.7098e+08,-2.71042e+08,-3771.62,0.00061185,0.113638,0,0.113639,34435.1,-9868.79,0,35821.4,3771.62
step02_gravity_refstate-crust.xmf,441,8.39723e-08,1.11184e-06,0,-1.74843e-07,-3.88688e+08,-3.88617e+08,-3.88693e+08,-11994.2,0.00137355,0.115882,0,0.11589,10626.3,-14152.6,0,17697.9,11994.2
step02_gravity_refstate-crust.xmf,442,5.8788e-08,1.13377e-06,0,-1.92158e-07,-3.87302e+08,-3.87229e+08,-3.87307e+08,-13182,0.00152954,0.115249,0,0.115259,12839.1,-14102.1,0,19071.2,13182
step02_gravity_refstate-crust.xmf,443,1.04963e-07,1.24913e-06,0,-1.84284e-07,-4.44107e+08,-4.44028e+08,-4.44114e+08,-12641.9,0.00138721,0.113862,0,0.11387,9389.64,-16170.5,0,18698.9,12641.9
step02_gravity_refstate-crust.xmf,444,-1.89212e-07,3.61166e-06,0,7.44062e-08,-1.05581e+09,-1.05555e+09,-1.0558e+09,5104.27,-0.00120979,0.0518157,-0,0.0518299,-26026.3,-38442.6,-0,46424.2,5104.27
step02_gravity_refstate-crust.xmf,445,-2.46576e-07,3.56544e-06,0,1.62865e-07,-1.03228e+09,-1.03202e+09,-1.03227e+09,11172.5,-0.00197886,0.0560678,-0,0.0561027,-23273.4,-37585.8,-0,44207.9,11172.5
step02_gravity_refstate-crust.xmf,446,-2.70329e-07,3.56389e-06,0,2.12685e-07,-1.02939e+09,-1.02913e+09,-1.02937e+09,14590.2,-0.00236892,0.0572291,-0,0.0572781,-21830,-37480.4,-0,43374.3,14590.2
step02_gravity_refstate-crust.xmf,447,-2.92107e-07,3.5628e-06,0,2.76408e-07,-1.02772e+09,-1.02746e+09,-1.0277e+09,18961.6,-0.00280911,0.0584214,-0,0.0584889,-20297.5,-37419.7,-0,42570.2,18961.6
step02_gravity_refstate-crust.xmf,448,-2.3636e-07,3.2988e-06,0,5.61994e-07,-9.96895e+08,-9.96652e+08,-9.96879e+08,38552.8,-0.00436887,0.0669531,-0,0.0670955,-14959.7,-36297.1,-0,39259,38552.8
step02_gravity_refstate-crust.xmf,449,-3.06881e-07,3.55225e-06,0,3.50751e-07,-1.02716e+09,-1.0269e+09,-1.02714e+09,24061.5,-0.00328128,0.0596571,-0,0.0597473,-18731.9,-37399.2,-0,41828,24061.5
step02_gravity_refstate-crust.xmf,450,2.16888e-07,1.79195e-06,0,2.6289e-07,-6.79197e+08,-6.79089e+08,-6.79212e+08,18034.2,-0.00186497,0.10163,-0,0.101647,-6749.45,-24730.5,-0,25635,18034.2
step02_gravity_refstate-crust.xmf,451,2.11094e-07,1.92019e-06,0,3.21855e-07,-7.21966e+08,-7.21848e+08,-7.2198e+08,22079.2,-0.00227261,0.0983738,-0,0.0984,-7597.85,-26287.7,-0,27363.7,22079.2
step02_gravity_refstate-crust.xmf,452,1.96056e-07,2.05434e-06,0,3.83388e-07,-7.63051e+08,-7.62924e+08,-7.63065e+08,26300.4,-0.00269416,0.094979,-0,0.0950172,-8403.74,-27783.6,-0,29026.8,26300.4
step02_gravity_refstate-crust.xmf,453,1.66634e-07,2.19035e-06,0,4.42525e-07,-7.98886e+08,-7.98747e+08,-7.98897e+08,30357.2,-0.00310559,0.091677,-0,0.0917296,-9259.74,-29088.3,-0,30526.6,30357.2
step02_gravity_refstate-crust.xmf,454,-6.34406e-10,2.79989e-06,0,6.5733e-07,-9.42444e+08,-9.42251e+08,-9.42443e+08,45092.9,-0.00451134,0.0770178,-0,0.0771498,-11259.6,-34314.9,-0,36115,45092.9
step02_gravity_refstate-crust.xmf,455,1.40709e-07,2.42409e-06,0,5.52041e-07,-8.72321e+08,-8.72165e+08,-8.72331e+08,37870,-0.0037624,0.0852359,-0,0.0853188,-9632.94,-31762.1,-0,33190.7,37870
step02_gravity_refstate-crust.xmf,456,8.11305e-08,2.59359e-06,0,6.09729e-07,-9.06452e+08,-9.0628e+08,-9.06457e+08,41827.4,-0.00415386,0.0814278,-0,0.0815337,-10394.7,-33004.6,-0,34602.8,41827.4
step02_gravity_refstate-crust.xmf,457,-2.29429e-10,9.82391e-07,0,-1.7636e-07,-3.18397e+08,-3.18329e+08,-3.18397e+08,-12098.3,0.00158767,0.115992,0,0.116003,18563,-11593.1,0,21885.7,12098.3
step02_gravity_refstate-crust.xmf,458,-2.48755e-08,1.01083e-06,0,-1.70491e-07,-3.20954e+08,-3.20883e+08,-3.20952e+08,-11695.7,0.00155576,0.115051,0,0.115062,21133.8,-11686.1,0,24149.6,11695.7
step02_gravity_refstate-crust.xmf,459,-4.70563e-08,1.03689e-06,0,-1.58058e-07,-3.23495e+08,-3.23421e+08,-3.23492e+08,-10842.8,0.00146199,0.114139,0,0.114148,23726.5,-11778.6,0,26489.3,10842.8
step02_gravity_refstate-crust.xmf,460,3.36762e-08,1.14603e-06,0,-2.00276e-07,-3.82815e+08,-3.82738e+08,-3.82817e+08,-13738.9,0.00162131,0.114699,0,0.114711,15021.8,-13938.7,0,20492.4,13738.9
step02_gravity_refstate-crust.xmf,461,1.82485e-07,1.30091e-06,0,7.52702e-08,-4.92295e+08,-4.92218e+08,-4.92307e+08,5163.54,-0.000542633,0.113025,-0,0.113026,-2894.1,-17925.2,-0,18157.4,5163.54
step02_gravity_refstate-crust.xmf,462,1.96638e-07,1.423e-06,0,1.12451e-07,-5.41035e+08,-5.40951e+08,-5.41048e+08,7714.17,-0.000805625,0.11047,-0,0.110473,-3873.56,-19699.9,-0,20077.1,7714.17
step02_gravity_refstate-crust.xmf,463,2.08128e-07,1.54418e-06,0,1.56932e-07,-5.88362e+08,-5.88271e+08,-5.88377e+08,10765.5,-0.00112058,0.107715,-0,0.10772,-4873.16,-21423.2,-0,21970.4,10765.5
step02_gravity_refstate-crust.xmf,464,2.15424e-07,1.66735e-06,0,2.0768e-07,-6.34702e+08,-6.34602e+08,-6.34717e+08,14246.9,-0.0014785,0.104746,-0,0.104756,-5842.47,-23110.4,-0,23837.5,14246.9
step02_gravity_refstate-crust.xmf,465,1.88077e-07,1.28798e-06,0,2.19325e-08,-4.90773e+08,-4.90698e+08,-4.90786e+08,1504.57,-0.000159542,0.11325,-0,0.11325,-842.26,-17869.8,-0,17889.7,1504.57
step02_gravity_refstate-crust.xmf,466,1.87717e-07,1.29147e-06,0,-3.35435e-08,-4.91861e+08,-4.91785e+08,-4.91874e+08,-2301.09,0.000243001,0.11318,0,0.11318,1281.69,-17909.4,0,17955.2,2301.09
step02_gravity_refstate-crust.xmf,467,1.80904e-07,1.32848e-06,0,-9.32265e-08,-5.01559e+08,-5.0148e+08,-5.01572e+08,-6395.34,0.000684269,0.11249,0,0.112492,3601.6,-18262.6,0,18614.3,6395.34
step02_gravity_refstate-crust.xmf,468,1.56758e-07,1.33565e-06,0,-1.44823e-07,-4.94601e+08,-4.9452e+08,-4.94611e+08,-9934.86,0.00106648,0.112392,0,0.112397,5936.56,-18009.1,0,18962.4,9934.86
step02_gravity_refstate-crust.xmf,469,1.29396e-07,1.37002e-06,0,-1.87574e-07,-4.95553e+08,-4.95468e+08,-4.95562e+08,-12867.6,0.00139194,0.111762,0,0.11177,8180.68,-18043.7,0,19811.6,12867.6
step02_gravity_refstate-crust.xmf,470,-1.11985e-07,9.2589e-07,0,2.15973e-10,-2.75802e+08,-2.7573e+08,-2.75794e+08,14.8157,2.05808e-20,0.11314,0,0.11314,40000,-10041.8,0,41241.2,14.8157
step02_gravity_refstate-crust.xmf,471,-2.30444e-07,3.65122e-06,0,1.13059e-07,-1.05851e+09,-1.05824e+09,-1.05849e+09,7755.86,-0.00157109,0.0521854,-0,0.0522091,-24197.3,-38540.7,-0,45507.1,7755.86
step02_gravity_refstate-crust.xmf,472,-2.68166e-07,3.69411e-06,0,1.57277e-07,-1.06341e+09,-1.06314e+09,-1.0634e+09,10789.2,-0.00194585,0.0523418,-0,0.052378,-22525.3,-38719.3,-0,44794.8,10789.2
step02_gravity_refstate-crust.xmf,473,-1.92908e-07,3.22968e-06,0,6.46396e-07,-1.00071e+09,-1.00047e+09,-1.0007e+09,44342.8,-0.00470989,0.0681505,-0,0.068313,-13461.8,-36436.1,-0,38843.4,44342.8
step02_gravity_refstate-crust.xmf,474,-1.27227e-07,3.12773e-06,0,7.18584e-07,-1.00187e+09,-1.00164e+09,-1.00186e+09,49294.9,-0.00494174,0.069662,-0,0.0698371,-12087.6,-36478.3,-0,38428.9,49294.9
step02_gravity_refstate-crust.xmf,475,-4.99173e-08,2.95077e-06,0,7.08772e-07,-9.76116e+08,-9.7591e+08,-9.76113e+08,48621.8,-0.00479781,0.0733311,-0,0.0734879,-11408.2,-35540.8,-0,37326.9,48621.8
step02_gravity_refstate-crust.xmf,476,-3.12929e-07,3.53067e-06,0,4.32026e-07,-1.02807e+09,-1.02781e+09,-1.02805e+09,29637,-0.00375494,0.0608587,-0,0.0609744,-17197,-37432.2,-0,41193.6,29637
step02_gravity_refstate-crust.xmf,477,-3.02493e-07,3.49685e-06,0,5.23116e-07,-1.02985e+09,-1.02959e+09,-1.02983e+09,35885.8,-0.00421144,0.0620883,-0,0.062231,-15712.6,-37496.8,-0,40655.8,35885.8
step02_gravity_refstate-crust.xmf,478,1.87857e-07,2.26674e-06,0,4.86216e-07,-8.37169e+08,-8.37027e+08,-8.37182e+08,33354.4,-0.0033259,0.0888916,-0,0.0889538,-8811.47,-30482.3,-0,31730.3,33354.4
step02_gravity_refstate-crust.xmf,479,-6.73524e-08,1.06907e-06,0,-1.39452e-07,-3.28505e+08,-3.28427e+08,-3.285e+08,-9566.4,0.00130071,0.113139,0,0.113146,26527.6,-11960.9,0,29099.4,9566.4
step02_gravity_refstate-crust.xmf,480,-1.08788e-07,1.06252e-06,0,-2.97944e-08,-3.17538e+08,-3.17458e+08,-3.17531e+08,-2043.9,0.000294213,0.111708,0,0.111709,37326.1,-11561.5,0,39075.6,2043.9
step02_gravity_refstate-crust.xmf,481,-8.46765e-08,1.10083e-06,0,-1.13932e-07,-3.34121e+08,-3.3404e+08,-3.34115e+08,-7815.74,0.00107129,0.112178,0,0.112183,29518.9,-12165.4,0,31927.4,7815.74
step02_gravity_refstate-crust.xmf,482,-9.69523e-08,1.12602e-06,0,-8.4838e-08,-3.38974e+08,-3.3889e+08,-3.38967e+08,-5819.88,0.000802481,0.11141,0,0.111413,32447.9,-12342,0,34715.9,5819.88
step02_gravity_refstate-crust.xmf,483,7.76501e-09,1.15989e-06,0,-2.02799e-07,-3.79359e+08,-3.7928e+08,-3.7936e+08,-13912,0.00166234,0.114039,0,0.114051,17320.6,-13812.8,0,22154,13912
step02_gravity_refstate-crust.xmf,484,7.62056e-08,1.27841e-06,0,-2.06871e-07,-4.42979e+08,-4.42897e+08,-4.42985e+08,-14191.4,0.001585,0.113212,0,0.113223,11604,-16129.4,0,19869.8,14191.4
step02_gravity_refstate-crust.xmf,485,4.66989e-08,1.30296e-06,0,-2.2064e-07,-4.40185e+08,-4.40099e+08,-4.40188e+08,-15135.9,0.00171534,0.112554,0,0.112567,13852.9,-16027.6,0,21184.6,15135.9
step02_gravity_refstate-crust.xmf,486,9.87176e-08,1.40799e-06,0,-2.20455e-07,-4.9659e+08,-4.965e+08,-4.96596e+08,-15123.2,0.00164651,0.111006,0,0.111018,10375.6,-18081.4,0,20846.8,15123.2
step02_gravity_refstate-crust.xmf,487,-3.01764e-07,3.71016e-06,0,2.15313e-07,-1.06346e+09,-1.06319e+09,-1.06344e+09,14770.5,-0.00239533,0.0532598,-0,0.0533136,-20942.8,-38720.9,-0,44021.7,14770.5
step02_gravity_refstate-crust.xmf,488,-3.31546e-07,3.71846e-06,0,2.89535e-07,-1.06299e+09,-1.06271e+09,-1.06296e+09,19862.1,-0.00289359,0.054411,-0,0.0544879,-19379.7,-38703.5,-0,43284.3,19862.1
step02_gravity_refstate-crust.xmf,489,-3.98518e-08,2.98941e-06,0,7.72315e-07,-9.99257e+08,-9.9905e+08,-9.99255e+08,52980.8,-0.00503385,0.0716342,-0,0.0718108,-10756,-36383.4,-0,37940,52980.8
step02_gravity_refstate-crust.xmf,490,-2.76679e-07,3.44229e-06,0,6.1831e-07,-1.03249e+09,-1.03223e+09,-1.03247e+09,42416.1,-0.00463967,0.063365,-0,0.0635346,-14257.5,-37593,-0,40205.8,42416.1
step02_gravity_refstate-crust.xmf,491,-3.52096e-07,3.71471e-06,0,3.7296e-07,-1.06338e+09,-1.0631e+09,-1.06336e+09,25585.1,-0.00340733,0.0555921,-0,0.0556965,-17871.1,-38717.7,-0,42643.1,25585.1
step02_gravity_refstate-crust.xmf,492,2.56936e-07,1.74105e-06,0,2.05427e-07,-6.78851e+08,-6.78749e+08,-6.78868e+08,14092.3,-0.00143645,0.102282,-0,0.102292,-4946.51,-24718,-0,25208.1,14092.3
step02_gravity_refstate-crust.xmf,493,2.62287e-07,1.85633e-06,0,2.6826e-07,-7.22232e+08,-7.22122e+08,-7.2225e+08,18402.7,-0.00185889,0.0991306,-0,0.099148,-5843.01,-26297.5,-0,26938.8,18402.7
step02_gravity_refstate-crust.xmf,494,2.5793e-07,1.97473e-06,0,3.35674e-07,-7.62692e+08,-7.62574e+08,-7.62709e+08,23027.2,-0.0023053,0.0959289,-0,0.0959566,-6700.07,-27770.7,-0,28567.5,23027.2
step02_gravity_refstate-crust.xmf,495,2.45738e-07,2.11087e-06,0,4.1445e-07,-8.06798e+08,-8.06671e+08,-8.06815e+08,28431.3,-0.00280359,0.0922031,-0,0.0922457,-7503.26,-29376.6,-0,30319.7,28431.3
step02_gravity_refstate-crust.xmf,496,3.74263e-08,2.81389e-06,0,7.29314e-07,-9.70444e+08,-9.70254e+08,-9.70447e+08,50030.9,-0.00475295,0.075308,-0,0.0754578,-10240.5,-35334.5,-0,36788.5,50030.9
step02_gravity_refstate-crust.xmf,497,2.25052e-07,2.31512e-06,0,5.31737e-07,-8.73098e+08,-8.72955e+08,-8.73114e+08,36477.2,-0.00350154,0.0863969,-0,0.0864678,-8169.33,-31790.5,-0,32823.4,36477.2
step02_gravity_refstate-crust.xmf,498,1.7602e-07,2.46502e-06,0,6.04456e-07,-9.05862e+08,-9.05705e+08,-9.05874e+08,41465.7,-0.00395665,0.0829099,-0,0.0830042,-8902.18,-32983.3,-0,34163.6,41465.7
step02_gravity_refstate-crust.xmf,499,1.09554e-07,2.63726e-06,0,6.71822e-07,-9.38619e+08,-9.38445e+08,-9.38626e+08,46087,-0.00438807,0.0791341,-0,0.0792556,-9640.72,-34175.9,-0,35509.6,46087
step02_gravity_refstate-crust.xmf,500,-1.72439e-08,1.18881e-06,0,-1.97374e-07,-3.80359e+08,-3.80277e+08,-3.80358e+08,-13539.9,0.00165187,0.113136,0,0.113148,19758.6,-13849.1,0,24128.9,13539.9
step02_gravity_refstate-crust.xmf,501,-1.0457e-07,1.16223e-06,0,-5.81008e-08,-3.48313e+08,-3.48226e+08,-3.48306e+08,-3985.72,0.000547875,0.110667,0,0.110668,34962.1,-12682.1,0,37191.2,3985.72
step02_gravity_refstate-crust.xmf,502,-4.00504e-08,1.21536e-06,0,-1.86256e-07,-3.81856e+08,-3.81769e+08,-3.81853e+08,-12777.2,0.0015824,0.112231,0,0.112242,22204.4,-13903.6,0,26198.2,12777.2
step02_gravity_refstate-crust.xmf,503,-5.93971e-08,1.2424e-06,0,-1.705e-07,-3.84564e+08,-3.84475e+08,-3.8456e+08,-11696.3,0.00146652,0.111347,0,0.111356,24571,-14002.1,0,28280.6,11696.3
step02_gravity_refstate-crust.xmf,504,1.78261e-08,1.32643e-06,0,-2.25428e-07,-4.37387e+08,-4.37298e+08,-4.37389e+08,-15464.4,0.00178063,0.111841,0,0.111855,16138.3,-15925.6,0,22673.1,15464.4
step02_gravity_refstate-crust.xmf,505,2.10186e-07,1.40443e-06,0,5.59357e-08,-5.40259e+08,-5.40178e+08,-5.40274e+08,3837.19,-0.000397376,0.110764,-0,0.110765,-1872.33,-19671.7,-0,19760.6,3837.19
step02_gravity_refstate-crust.xmf,506,2.30351e-07,1.51939e-06,0,9.75873e-08,-5.89175e+08,-5.89087e+08,-5.89191e+08,6694.49,-0.000689313,0.108045,-0,0.108047,-2898.22,-21452.8,-0,21647.7,6694.49
step02_gravity_refstate-crust.xmf,507,2.46355e-07,1.62961e-06,0,1.48349e-07,-6.34735e+08,-6.3464e+08,-6.34752e+08,10176.7,-0.00104201,0.105245,-0,0.10525,-3950.36,-23111.7,-0,23446.9,10176.7
step02_gravity_refstate-crust.xmf,508,2.12772e-07,1.39922e-06,0,-4.68631e-09,-5.4037e+08,-5.40289e+08,-5.40385e+08,-321.481,3.32057e-05,0.110836,0,0.110836,155.334,-19675.8,0,19676.4,321.481
step02_gravity_refstate-crust.xmf,509,2.07547e-07,1.40857e-06,0,-6.49269e-08,-5.41397e+08,-5.41314e+08,-5.41411e+08,-4453.98,0.000464067,0.110677,0,0.110678,2186,-19713.1,0,19833.9,4453.98
step02_gravity_refstate-crust.xmf,510,1.85366e-07,1.45428e-06,0,-1.46138e-07,-5.47891e+08,-5.47804e+08,-5.47904e+08,-10025.1,0.0010636,0.109863,0,0.109868,5140.5,-19949.5,0,20601.2,10025.1
step02_gravity_refstate-crust.xmf,511,1.59173e-07,1.47978e-06,0,-1.89338e-07,-5.45893e+08,-5.45802e+08,-5.45904e+08,-12988.6,0.00138845,0.109477,0,0.109486,7053.06,-19876.7,0,21091,12988.6
step02_gravity_refstate-crust.xmf,512,1.25496e-07,1.52284e-06,0,-2.28693e-07,-5.46854e+08,-5.46758e+08,-5.46862e+08,-15688.3,0.00169648,0.108737,0,0.10875,9184.59,-19911.6,0,21927.8,15688.3
step02_gravity_refstate-crust.xmf,513,-1.10719e-07,1.21004e-06,0,2.43821e-10,-3.61435e+08,-3.61344e+08,-3.61427e+08,16.7261,2.38544e-20,0.109811,0,0.109811,40000,-13159.8,0,42109.2,16.7261
step02_gravity_refstate-crust.xmf,514,-1.45181e-07,3.22429e-06,0,8.10732e-07,-1.03528e+09,-1.03505e+09,-1.03527e+09,55616.2,-0.00529402,0.0667325,-0,0.0669422,-11376.3,-37694.9,-0,39374.2,55616.2
step02_gravity_refstate-crust.xmf,515,-2.26609e-07,3.35411e-06,0,7.1417e-07,-1.03396e+09,-1.03371e+09,-1.03394e+09,48992,-0.00500674,0.064926,-0,0.0651188,-12840.2,-37646.5,-0,39775.9,48992
step02_gravity_refstate-crust.xmf,516,-3.62733e-07,3.69519e-06,0,4.6557e-07,-1.06454e+09,-1.06427e+09,-1.06452e+09,31938.1,-0.0039298,0.0568373,-0,0.056973,-16396.8,-38760,-0,42085.6,31938.1
step02_gravity_refstate-crust.xmf,517,-3.52925e-07,3.65492e-06,0,5.70072e-07,-1.06521e+09,-1.06493e+09,-1.06518e+09,39106.9,-0.0044354,0.0582886,-0,0.0584571,-14984.9,-38784.2,-0,41578.4,39106.9
step02_gravity_refstate-crust.xmf,518,6.5325e-08,2.83865e-06,0,8.05416e-07,-9.97989e+08,-9.97799e+08,-9.97994e+08,55251.6,-0.00500493,0.0734084,-0,0.0735788,-9489.37,-36337.5,-0,37556.1,55251.6
step02_gravity_refstate-crust.xmf,519,2.58197e-07,2.19898e-06,0,4.68113e-07,-8.45774e+08,-8.45641e+08,-8.45792e+08,32112.6,-0.00309818,0.0891651,-0,0.0892189,-7476.99,-30795.7,-0,31690.4,32112.6
step02_gravity_refstate-crust.xmf,520,-8.2494e-08,1.31487e-06,0,-1.42899e-07,-4.00526e+08,-4.0043e+08,-4.0052e+08,-9802.9,0.00123834,0.109631,0,0.109638,27968.7,-14583.2,0,31542.3,9802.9
step02_gravity_refstate-crust.xmf,521,-1.10387e-07,1.35915e-06,0,-3.8361e-08,-4.06141e+08,-4.0604e+08,-4.06133e+08,-2631.57,0.000343437,0.107829,0,0.107829,36935.2,-14787.6,0,39785.5,2631.57
step02_gravity_refstate-crust.xmf,522,-1.04985e-07,1.36587e-06,0,-7.92968e-08,-4.0961e+08,-4.09509e+08,-4.09602e+08,-5439.76,0.000700237,0.108016,0,0.108018,33657.4,-14913.9,0,36813.7,5439.76
step02_gravity_refstate-crust.xmf,523,-9.61852e-08,1.33233e-06,0,-1.10217e-07,-4.01864e+08,-4.01766e+08,-4.01857e+08,-7560.91,0.000967894,0.108867,0,0.108871,30976.7,-14631.9,0,34258.6,7560.91
step02_gravity_refstate-crust.xmf,524,-1.03595e-08,1.3544e-06,0,-2.23894e-07,-4.37045e+08,-4.36952e+08,-4.37045e+08,-15359.2,0.00178799,0.110977,0,0.110992,18469.9,-15913.1,0,24379.6,15359.2
step02_gravity_refstate-crust.xmf,525,6.48982e-08,1.44839e-06,0,-2.39946e-07,-4.96461e+08,-4.96366e+08,-4.96465e+08,-16460.3,0.00182851,0.110198,0,0.110213,12608.3,-18076.7,0,22039.4,16460.3
step02_gravity_refstate-crust.xmf,526,3.04849e-08,1.47671e-06,0,-2.48174e-07,-4.9229e+08,-4.9219e+08,-4.92292e+08,-17024.7,0.00192376,0.109506,0,0.109523,14934,-17924.7,0,23330.6,17024.7
step02_gravity_refstate-crust.xmf,527,2.04774e-07,1.45202e-06,0,-1.07533e-07,-5.55364e+08,-5.55278e+08,-5.55378e+08,-7376.77,0.000774383,0.109769,0,0.109772,3578.87,-20221.7,0,20535.9,7376.77
step02_gravity_refstate-crust.xmf,528,8.85461e-08,1.57204e-06,0,-2.58461e-07,-5.488e+08,-5.48698e+08,-5.48806e+08,-17730.4,0.00193417,0.107818,0,0.107835,11326,-19982.4,0,22969,17730.4
step02_gravity_refstate-crust.xmf,529,-2.52597e-08,3.02834e-06,0,8.56932e-07,-1.02626e+09,-1.02605e+09,-1.02626e+09,58785.5,-0.00532769,0.0696577,-0,0.0698611,-10031.5,-37366.6,-0,38689.7,58785.5
step02_gravity_refstate-crust.xmf,530,-3.25836e-07,3.59005e-06,0,6.77705e-07,-1.06637e+09,-1.0661e+09,-1.06635e+09,46490.5,-0.00490227,0.0598141,-0,0.0600147,-13622.5,-38826.5,-0,41146.9,46490.5
step02_gravity_refstate-crust.xmf,531,2.87261e-07,1.70716e-06,0,1.39353e-07,-6.80291e+08,-6.80194e+08,-6.80311e+08,9559.61,-0.000967029,0.102637,-0,0.102641,-3204.08,-24770.5,-0,24976.8,9559.61
step02_gravity_refstate-crust.xmf,532,3.04022e-07,1.80311e-06,0,1.99574e-07,-7.21965e+08,-7.21863e+08,-7.21986e+08,13690.8,-0.00136403,0.0997536,-0,0.099763,-4099.64,-26287.9,-0,26605.6,13690.8
step02_gravity_refstate-crust.xmf,533,3.11993e-07,1.90586e-06,0,2.71321e-07,-7.62533e+08,-7.62424e+08,-7.62554e+08,18612.6,-0.0018297,0.0966949,-0,0.0967122,-5032.95,-27765,-0,28217.5,18612.6
step02_gravity_refstate-crust.xmf,534,3.15565e-07,2.00801e-06,0,3.43407e-07,-8.01499e+08,-8.01383e+08,-8.01521e+08,23557.7,-0.00227779,0.0935928,-0,0.0936205,-5757.37,-29183.8,-0,29746.2,23557.7
step02_gravity_refstate-crust.xmf,535,1.45899e-07,2.66091e-06,0,7.39651e-07,-9.6871e+08,-9.68537e+08,-9.6872e+08,50740.1,-0.00461202,0.0770639,-0,0.0772018,-8897.82,-35271.6,-0,36376.6,50740.1
step02_gravity_refstate-crust.xmf,536,3.22647e-07,2.10033e-06,0,4.09897e-07,-8.39296e+08,-8.39174e+08,-8.39318e+08,28118.9,-0.0026627,0.090547,-0,0.0905861,-6153.68,-30560,-0,31173.4,28118.9
step02_gravity_refstate-crust.xmf,537,3.09074e-07,2.20551e-06,0,4.87114e-07,-8.72509e+08,-8.72379e+08,-8.7253e+08,33416,-0.00311632,0.0875494,-0,0.0876048,-6747.18,-31769.2,-0,32477.8,33416
step02_gravity_refstate-crust.xmf,538,2.74252e-07,2.33431e-06,0,5.72941e-07,-9.04884e+08,-9.04743e+08,-9.04903e+08,39303.8,-0.00362205,0.084309,-0,0.0843868,-7457.68,-32947.9,-0,33781.4,39303.8
step02_gravity_refstate-crust.xmf,539,2.19025e-07,2.48774e-06,0,6.60746e-07,-9.37375e+08,-9.37219e+08,-9.3739e+08,45327.2,-0.0041377,0.0807668,-0,0.0808727,-8192.71,-34130.8,-0,35100.3,45327.2
step02_gravity_refstate-crust.xmf,540,-3.49255e-08,1.38741e-06,0,-2.12979e-07,-4.38562e+08,-4.38465e+08,-4.3856e+08,-14610.4,0.00173677,0.110015,0,0.110029,20853.1,-15968.3,0,26264.7,14610.4
step02_gravity_refstate-crust.xmf,541,-5.6882e-08,1.42174e-06,0,-1.97228e-07,-4.41959e+08,-4.41858e+08,-4.41955e+08,-13529.9,0.00163226,0.108995,0,0.109007,23242.5,-16091.9,0,28269.5,13529.9
step02_gravity_refstate-crust.xmf,542,-7.6342e-08,1.46611e-06,0,-1.75534e-07,-4.49368e+08,-4.49263e+08,-4.49363e+08,-12041.6,0.00147484,0.107782,0,0.107792,25770,-16361.7,0,30525.4,12041.6
step02_gravity_refstate-crust.xmf,543,-1.3519e-09,1.51282e-06,0,-2.47924e-07,-4.91865e+08,-4.91761e+08,-4.91865e+08,-17007.6,0.00195471,0.108587,0,0.108605,17260.4,-17909.2,0,24872.9,17007.6
step02_gravity_refstate-crust.xmf,544,2.41651e-07,1.5037e-06,0,3.07388e-08,-5.8866e+08,-5.88574e+08,-5.88677e+08,2108.68,-0.000215308,0.108264,-0,0.108265,-891.768,-21434.1,-0,21452.6,2108.68
step02_gravity_refstate-crust.xmf,545,2.73672e-07,1.61747e-06,0,7.65813e-08,-6.43156e+08,-6.43064e+08,-6.43175e+08,5253.48,-0.000529978,0.105087,-0,0.105088,-1912.3,-23418.3,-0,23496.3,5253.48
step02_gravity_refstate-crust.xmf,546,2.39113e-07,1.50466e-06,0,-3.66169e-08,-5.88789e+08,-5.88702e+08,-5.88806e+08,-2511.92,0.000260002,0.108248,0,0.108248,1077.72,-21438.8,0,21465.8,2511.92
step02_gravity_refstate-crust.xmf,547,2.31194e-07,1.52516e-06,0,-9.53906e-08,-5.92538e+08,-5.92449e+08,-5.92554e+08,-6543.79,0.000680808,0.107868,0,0.10787,2835.45,-21575.2,0,21760.7,6543.79
step02_gravity_refstate-crust.xmf,548,2.15083e-07,1.55077e-06,0,-1.46669e-07,-5.94549e+08,-5.94457e+08,-5.94564e+08,-10061.5,0.0010542,0.107456,0,0.107461,4478.52,-21648.4,0,22106.8,10061.5
step02_gravity_refstate-crust.xmf,549,1.89535e-07,1.5811e-06,0,-1.94248e-07,-5.94182e+08,-5.94086e+08,-5.94195e+08,-13325.4,0.0014086,0.107026,0,0.107035,6227.52,-21635,0,22513.4,13325.4
step02_gravity_refstate-crust.xmf,550,1.56063e-07,1.62263e-06,0,-2.36818e-07,-5.94352e+08,-5.94251e+08,-5.94362e+08,-16245.7,0.00173753,0.106395,0,0.106409,8119.96,-21641.1,0,23114.3,16245.7
step02_gravity_refstate-crust.xmf,551,1.17592e-07,1.6765e-06,0,-2.70941e-07,-5.96571e+08,-5.96464e+08,-5.96579e+08,-18586.6,0.00201712,0.105496,0,0.105515,10086.5,-21721.8,0,23949.4,18586.6
step02_gravity_refstate-crust.xmf,552,-1.15048e-07,1.48967e-06,0,7.53705e-11,-4.44286e+08,-4.44176e+08,-4.44278e+08,5.17042,1.93865e-20,0.105738,0,0.105738,40000,-16176.5,0,43147.2,5.17042
step02_gravity_refstate-crust.xmf,553,-1.10333e-07,3.20351e-06,0,8.91104e-07,-1.05135e+09,-1.05112e+09,-1.05134e+09,61129.7,-0.00555495,0.0661749,-0,0.0664076,-10466.3,-38280,-0,39685,61129.7
step02_gravity_refstate-crust.xmf,554,-2.81729e-07,3.51184e-06,0,7.82033e-07,-1.06935e+09,-1.06909e+09,-1.06933e+09,53647.5,-0.00529791,0.0611487,-0,0.0613778,-12366.6,-38935.1,-0,40851.9,53647.5
step02_gravity_refstate-crust.xmf,555,-8.58782e-09,3.05287e-06,0,9.47096e-07,-1.05047e+09,-1.05026e+09,-1.05046e+09,64970.8,-0.00561158,0.0679509,-0,0.0681822,-9380.12,-38247.9,-0,39381.4,64970.8
step02_gravity_refstate-crust.xmf,556,1.85107e-07,2.67618e-06,0,8.16866e-07,-9.98045e+08,-9.97874e+08,-9.98058e+08,56037,-0.00484873,0.0750322,-0,0.0751887,-8233.01,-36339.7,-0,37260.7,56037
step02_gravity_refstate-crust.xmf,557,9.35712e-08,2.85977e-06,0,8.92033e-07,-1.02536e+09,-1.02517e+09,-1.02537e+09,61193.5,-0.00527646,0.0714813,-0,0.0716757,-8824.21,-37334,-0,38362.7,61193.5
step02_gravity_refstate-crust.xmf,558,-9.89346e-08,1.5196e-06,0,-1.30401e-07,-4.58376e+08,-4.58265e+08,-4.58369e+08,-8945.5,0.00111639,0.106161,0,0.106167,29930,-16689.6,0,34268.7,8945.5
step02_gravity_refstate-crust.xmf,559,-1.13978e-07,1.58925e-06,0,-6.71365e-08,-4.74614e+08,-4.74497e+08,-4.74606e+08,-4605.57,0.000586314,0.104344,0,0.104345,34965.8,-17280.8,0,39003,4605.57
step02_gravity_refstate-crust.xmf,560,-1.07857e-07,1.56083e-06,0,-1.00283e-07,-4.67987e+08,-4.67873e+08,-4.6798e+08,-6879.38,0.000867739,0.105111,0,0.105114,32402.7,-17039.5,0,36609.8,6879.38
step02_gravity_refstate-crust.xmf,561,-9.08325e-08,1.53463e-06,0,-1.55988e-07,-4.65811e+08,-4.657e+08,-4.65805e+08,-10700.8,0.00132242,0.106272,0,0.106281,27861.5,-16960.3,0,32617.7,10700.8
step02_gravity_refstate-crust.xmf,562,-3.05592e-08,1.54996e-06,0,-2.40753e-07,-4.93432e+08,-4.93323e+08,-4.9343e+08,-16515.6,0.00192216,0.107574,0,0.107591,19556.9,-17966.2,0,26556.7,16515.6
step02_gravity_refstate-crust.xmf,563,4.74287e-08,1.64331e-06,0,-2.77455e-07,-5.55253e+08,-5.55144e+08,-5.55257e+08,-19033.4,0.00212191,0.106446,0,0.106467,13694.2,-20217.3,0,24418.6,19033.4
step02_gravity_refstate-crust.xmf,564,8.26025e-09,1.66253e-06,0,-2.74041e-07,-5.45385e+08,-5.45272e+08,-5.45386e+08,-18799.2,0.00214587,0.105974,0,0.105996,16119.8,-19857.9,0,25577,18799.2
step02_gravity_refstate-crust.xmf,565,3.09462e-07,1.70589e-06,0,8.88614e-08,-6.9027e+08,-6.90175e+08,-6.90292e+08,6095.89,-0.000611876,0.10223,-0,0.102232,-1941.68,-25133.9,-0,25208.8,6095.89
step02_gravity_refstate-crust.xmf,566,7.71173e-08,1.73489e-06,0,-2.94486e-07,-5.9961e+08,-5.99496e+08,-5.99615e+08,-20201.7,0.00222396,0.104443,0,0.104467,12061.7,-21832.4,0,24942.7,20201.7
step02_gravity_refstate-crust.xmf,567,-1.18316e-07,1.63804e-06,0,-3.21032e-08,-4.88065e+08,-4.87945e+08,-4.88057e+08,-2202.28,0.00028105,0.103313,0,0.103314,37630.6,-17770.6,0,41615.5,2202.28
step02_gravity_refstate-crust.xmf,568,-2.08738e-07,3.39247e-06,0,8.83751e-07,-1.07064e+09,-1.07039e+09,-1.07063e+09,60625.4,-0.00561508,0.0628388,-0,0.0630892,-11129.5,-38982.1,-0,40539.8,60625.4
step02_gravity_refstate-crust.xmf,569,3.33108e-07,1.77197e-06,0,1.27686e-07,-7.23996e+08,-7.23897e+08,-7.24018e+08,8759.24,-0.000864354,0.100005,-0,0.100009,-2512.11,-26361.9,-0,26481.3,8759.24
step02_gravity_refstate-crust.xmf,570,3.53942e-07,1.85461e-06,0,1.95817e-07,-7.63163e+08,-7.6306e+08,-7.63187e+08,13433,-0.00130244,0.0972024,-0,0.0972112,-3439.94,-27788,-0,28000.1,13433
step02_gravity_refstate-crust.xmf,571,-1.14394e-07,3.25374e-06,0,9.77877e-07,-1.07382e+09,-1.07359e+09,-1.07382e+09,67082.3,-0.00584387,0.0643746,-0,0.0646393,-9936.61,-39098.2,-0,40341.1,67082.3
step02_gravity_refstate-crust.xmf,572,3.70538e-07,1.93492e-06,0,2.63901e-07,-8.00228e+08,-8.00121e+08,-8.00254e+08,18103.6,-0.00172143,0.0944062,-0,0.0944219,-4155.89,-29137.6,-0,29432.5,18103.6
step02_gravity_refstate-crust.xmf,573,3.85963e-07,2.01563e-06,0,3.35779e-07,-8.37622e+08,-8.3751e+08,-8.37649e+08,23034.4,-0.00214157,0.0914725,-0,0.0914976,-4715.51,-30499.2,-0,30861.5,23034.4
step02_gravity_refstate-crust.xmf,574,2.6271e-07,2.50669e-06,0,7.26587e-07,-9.69088e+08,-9.68934e+08,-9.69106e+08,49843.9,-0.0043503,0.0785313,-0,0.0786517,-7591.66,-35285.6,-0,36093,49843.9
step02_gravity_refstate-crust.xmf,575,3.86809e-07,2.10456e-06,0,4.2021e-07,-8.71711e+08,-8.71594e+08,-8.71738e+08,28826.4,-0.00262499,0.0885624,-0,0.0886013,-5353.8,-31740.3,-0,32188.7,28826.4
step02_gravity_refstate-crust.xmf,576,3.71238e-07,2.20889e-06,0,5.15077e-07,-9.0454e+08,-9.04414e+08,-9.04565e+08,35334.3,-0.00315689,0.0855206,-0,0.0855788,-6026.68,-32935.6,-0,33482.5,35334.3
step02_gravity_refstate-crust.xmf,577,3.35741e-07,2.32851e-06,0,6.13388e-07,-9.35032e+08,-9.34895e+08,-9.35055e+08,42078.4,-0.00370334,0.08242,-0,0.0825031,-6716.66,-34045.7,-0,34701.9,42078.4
step02_gravity_refstate-crust.xmf,578,-5.43019e-08,1.59033e-06,0,-2.24377e-07,-4.96722e+08,-4.9661e+08,-4.96719e+08,-15392.3,0.00183143,0.10648,0,0.106495,21886,-18085.9,0,28391.8,15392.3
step02_gravity_refstate-crust.xmf,579,-7.53761e-08,1.62909e-06,0,-2.02447e-07,-5.01034e+08,-5.00917e+08,-5.01028e+08,-13887.8,0.00168234,0.105348,0,0.105361,24308.6,-18242.8,0,30392.6,13887.8
step02_gravity_refstate-crust.xmf,580,-1.03677e-07,1.70693e-06,0,-1.49663e-07,-5.1457e+08,-5.14446e+08,-5.14563e+08,-10266.8,0.00128304,0.103105,0,0.103113,28940.8,-18735.7,0,34476,10266.8
step02_gravity_refstate-crust.xmf,581,-9.18634e-08,1.66996e-06,0,-1.76789e-07,-5.07606e+08,-5.07486e+08,-5.076e+08,-12127.7,0.00149394,0.104174,0,0.104185,26690,-18482.1,0,32464.6,12127.7
step02_gravity_refstate-crust.xmf,582,-2.424e-08,1.70435e-06,0,-2.66379e-07,-5.4587e+08,-5.45751e+08,-5.45868e+08,-18273.6,0.00212745,0.104959,0,0.104981,18368.9,-19875.5,0,27063.9,18273.6
step02_gravity_refstate-crust.xmf,583,2.75286e-07,1.59596e-06,0,-3.25038e-09,-6.36026e+08,-6.35936e+08,-6.36045e+08,-222.976,2.62841e-05,0.10561,0,0.10561,96.0569,-23158.8,0,23159,222.976
step02_gravity_refstate-crust.xmf,584,3.12018e-07,1.68324e-06,0,2.7439e-08,-6.83292e+08,-6.83198e+08,-6.83313e+08,1882.32,-0.000185293,0.102775,-0,0.102775,-594.597,-24879.8,-0,24886.9,1882.32
step02_gravity_refstate-crust.xmf,585,2.65981e-07,1.60469e-06,0,-7.53115e-08,-6.3576e+08,-6.35668e+08,-6.35778e+08,-5166.37,0.000530983,0.105516,0,0.105518,1955.16,-23149,0,23231.4,5166.37
step02_gravity_refstate-crust.xmf,586,2.50007e-07,1.62979e-06,0,-1.38393e-07,-6.37611e+08,-6.37516e+08,-6.37628e+08,-9493.79,0.000981344,0.105133,0,0.105138,3675.11,-23216.4,0,23505.5,9493.79
step02_gravity_refstate-crust.xmf,587,2.2425e-07,1.6647e-06,0,-1.95104e-07,-6.38629e+08,-6.38531e+08,-6.38645e+08,-13384.1,0.00139574,0.104641,0,0.10465,5399.67,-23253.4,0,23872.1,13384.1
step02_gravity_refstate-crust.xmf,588,1.90293e-07,1.71164e-06,0,-2.44873e-07,-6.40251e+08,-6.40146e+08,-6.40264e+08,-16798.3,0.00177196,0.103952,0,0.103967,7175.49,-23312.4,0,24391.7,16798.3
step02_gravity_refstate-crust.xmf,589,1.49059e-07,1.76537e-06,0,-2.84382e-07,-6.4098e+08,-6.40869e+08,-6.4099e+08,-19508.6,0.00208996,0.103162,0,0.103183,9024.53,-23338.8,0,25022.9,19508.6
step02_gravity_refstate-crust.xmf,590,1.05303e-07,1.82766e-06,0,-3.12553e-07,-6.43378e+08,-6.4326e+08,-6.43385e+08,-21441.2,0.00233849,0.102155,0,0.102181,10881,-23426.1,0,25829.8,21441.2
step02_gravity_refstate-crust.xmf,591,-1.22215e-07,1.76357e-06,0,6.45507e-11,-5.24567e+08,-5.24438e+08,-5.24559e+08,4.42818,1.86882e-20,0.100984,0,0.100984,40000,-19099.6,0,44326,4.42818
step02_gravity_refstate-crust.xmf,592,4.97467e-09,3.07945e-06,0,1.04977e-06,-1.07497e+09,-1.07476e+09,-1.07498e+09,72014.3,-0.00592335,0.0661744,-0,0.066439,-8797.91,-39140.3,-0,40116.9,72014.3
step02_gravity_refstate-crust.xmf,593,1.24471e-07,2.86999e-06,0,9.86887e-07,-1.05102e+09,-1.05083e+09,-1.05103e+09,67700.5,-0.00555234,0.0697121,-0,0.0699329,-8224.21,-38268.5,-0,39142.2,67700.5
step02_gravity_refstate-crust.xmf,594,3.1427e-07,2.50512e-06,0,7.96495e-07,-9.97686e+08,-9.97536e+08,-9.97708e+08,54639.6,-0.00453985,0.0766052,-0,0.0767396,-7012.79,-36326.9,-0,36997.6,54639.6
step02_gravity_refstate-crust.xmf,595,2.29168e-07,2.67677e-06,0,8.99876e-07,-1.02513e+09,-1.02496e+09,-1.02515e+09,61731.5,-0.00508137,0.0732074,-0,0.0733835,-7631.24,-37326,-0,38098.1,61731.5
step02_gravity_refstate-crust.xmf,596,-1.20859e-07,1.77349e-06,0,-5.52468e-08,-5.28144e+08,-5.28014e+08,-5.28136e+08,-3789.93,0.000489579,0.100954,0,0.100955,35985.8,-19229.9,0,40801.6,3789.93
step02_gravity_refstate-crust.xmf,597,-1.2536e-07,1.88347e-06,0,-3.00967e-08,-5.59788e+08,-5.5965e+08,-5.5978e+08,-2064.64,0.000270284,0.0987034,0,0.0987038,37842.7,-20382.1,0,42982.5,2064.64
step02_gravity_refstate-crust.xmf,598,-1.12588e-07,1.74636e-06,0,-1.19172e-07,-5.23211e+08,-5.23083e+08,-5.23203e+08,-8175.21,0.00103731,0.102003,0,0.102008,31295.4,-19050.3,0,36637.6,8175.21
step02_gravity_refstate-crust.xmf,599,-1.19415e-07,1.81345e-06,0,-8.81543e-08,-5.40949e+08,-5.40816e+08,-5.40941e+08,-6047.39,0.000779309,0.10042,0,0.100423,33634.3,-19696.1,0,38977,6047.39
step02_gravity_refstate-crust.xmf,600,-5.29822e-08,1.74743e-06,0,-2.53072e-07,-5.48855e+08,-5.48732e+08,-5.48852e+08,-17360.7,0.0020505,0.103822,0,0.103842,20596.9,-19984.1,0,28698.4,17360.7
step02_gravity_refstate-crust.xmf,601,1.57809e-08,1.80583e-06,0,-3.01229e-07,-5.96582e+08,-5.96459e+08,-5.96583e+08,-20664.3,0.00235408,0.103145,0,0.103171,15240.4,-21722,0,26535.2,20664.3
step02_gravity_refstate-crust.xmf,602,-1.83993e-08,1.84898e-06,0,-2.94176e-07,-5.96265e+08,-5.96137e+08,-5.96264e+08,-20180.5,0.00234813,0.102199,0,0.102226,17265.7,-21710.4,0,27738.9,20180.5
step02_gravity_refstate-crust.xmf,603,4.36389e-08,1.80115e-06,0,-3.06716e-07,-6.07319e+08,-6.07198e+08,-6.07322e+08,-21040.7,0.00235984,0.103177,0,0.103204,13703.3,-22113,0,26014.7,21040.7
step02_gravity_refstate-crust.xmf,604,3.48618e-07,1.75658e-06,0,6.06805e-08,-7.25704e+08,-7.25607e+08,-7.25728e+08,4162.68,-0.000407149,0.100082,-0,0.100083,-1162.28,-26424.1,-0,26449.7,4162.68
step02_gravity_refstate-crust.xmf,605,6.19815e-08,1.88819e-06,0,-3.29266e-07,-6.45676e+08,-6.4555e+08,-6.4568e+08,-22587.6,0.0025021,0.101098,0,0.101129,12694.2,-23509.6,0,26717.9,22587.6
step02_gravity_refstate-crust.xmf,606,3.81151e-07,1.82056e-06,0,1.11092e-07,-7.63323e+08,-7.63224e+08,-7.63349e+08,7620.93,-0.000731627,0.0975426,-0,0.0975453,-1885.52,-27793.9,-0,27857.8,7620.93
step02_gravity_refstate-crust.xmf,607,4.10163e-07,1.88515e-06,0,1.765e-07,-8.00301e+08,-8.002e+08,-8.00329e+08,12107.9,-0.00113617,0.0948883,-0,0.0948951,-2655.35,-29140.3,-0,29261.1,12107.9
step02_gravity_refstate-crust.xmf,608,4.35335e-07,1.94998e-06,0,2.4939e-07,-8.36253e+08,-8.36149e+08,-8.36283e+08,17108.2,-0.00156698,0.092169,-0,0.0921823,-3334.2,-30449.4,-0,30631.4,17108.2
step02_gravity_refstate-crust.xmf,609,4.54814e-07,2.01741e-06,0,3.3204e-07,-8.71282e+08,-8.71175e+08,-8.71313e+08,22777.9,-0.00203366,0.0893771,-0,0.0894003,-3955.48,-31724.9,-0,31970.5,22777.9
step02_gravity_refstate-crust.xmf,610,3.76907e-07,2.35628e-06,0,6.82617e-07,-9.68743e+08,-9.68607e+08,-9.68769e+08,46827.5,-0.00395217,0.0798989,-0,0.0799966,-6360.63,-35273.2,-0,35842.1,46827.5
step02_gravity_refstate-crust.xmf,611,4.61908e-07,2.09402e-06,0,4.28957e-07,-9.04645e+08,-9.04533e+08,-9.04677e+08,29426.5,-0.00256227,0.0865245,-0,0.0865624,-4596.75,-32939.6,-0,33258.8,29426.5
step02_gravity_refstate-crust.xmf,612,4.58521e-07,2.189e-06,0,5.53052e-07,-9.42153e+08,-9.42035e+08,-9.42185e+08,37939.4,-0.00319242,0.0831356,-0,0.0831969,-5241.36,-34305.3,-0,34703.4,37939.4
step02_gravity_refstate-crust.xmf,613,-1.26712e-07,1.97196e-06,0,-5.96282e-08,-5.86152e+08,-5.86008e+08,-5.86144e+08,-4090.5,0.000544664,0.0970255,0,0.097027,35724.7,-21342,0,41614.1,4090.5
step02_gravity_refstate-crust.xmf,614,-7.6697e-08,1.8065e-06,0,-2.30426e-07,-5.5716e+08,-5.57031e+08,-5.57155e+08,-15807.2,0.00192028,0.102331,0,0.102349,22961.7,-20286.5,0,30639.6,15807.2
step02_gravity_refstate-crust.xmf,615,-1.1724e-07,1.90695e-06,0,-1.38894e-07,-5.71133e+08,-5.70994e+08,-5.71125e+08,-9528.11,0.00122625,0.0990894,0,0.099097,30098.2,-20795.1,0,36583.3,9528.11
step02_gravity_refstate-crust.xmf,616,-9.50415e-08,1.84028e-06,0,-2.0193e-07,-5.60114e+08,-5.59981e+08,-5.60107e+08,-13852.4,0.00171738,0.101246,0,0.101261,25378.9,-20394,0,32557.6,13852.4
step02_gravity_refstate-crust.xmf,617,-1.08251e-07,1.87433e-06,0,-1.71125e-07,-5.65063e+08,-5.64927e+08,-5.65056e+08,-11739.2,0.00148362,0.100146,0,0.100157,27751.3,-20574.2,0,34546.1,11739.2
step02_gravity_refstate-crust.xmf,618,-5.01103e-08,1.89975e-06,0,-2.79624e-07,-5.99326e+08,-5.99193e+08,-5.99323e+08,-19182.2,0.0022854,0.100994,0,0.10102,19398.5,-21821.8,0,29197.5,19182.2
step02_gravity_refstate-crust.xmf,619,3.07487e-07,1.67871e-06,0,-4.709e-08,-6.79642e+08,-6.79547e+08,-6.79663e+08,-3230.37,0.000327855,0.102973,0,0.102974,1064.39,-24746.9,0,24769.8,3230.37
step02_gravity_refstate-crust.xmf,620,3.49806e-07,1.74749e-06,0,-1.66893e-08,-7.23104e+08,-7.23008e+08,-7.23128e+08,-1144.88,0.000115506,0.100295,0,0.100295,330.912,-26329.5,0,26331.5,1144.88
step02_gravity_refstate-crust.xmf,621,2.90729e-07,1.69882e-06,0,-1.22356e-07,-6.80062e+08,-6.79965e+08,-6.80082e+08,-8393.6,0.000852602,0.102727,0,0.102731,2810.92,-24762.1,0,24921.2,8393.6
step02_gravity_refstate-crust.xmf,622,2.64896e-07,1.73576e-06,0,-1.91343e-07,-6.81724e+08,-6.81623e+08,-6.81742e+08,-13126.1,0.00134387,0.102216,0,0.102225,4550.67,-24822.6,0,25236.3,13126.1
step02_gravity_refstate-crust.xmf,623,2.29021e-07,1.78517e-06,0,-2.5049e-07,-6.83259e+08,-6.83153e+08,-6.83275e+08,-17183.6,0.00178039,0.101544,0,0.10156,6284.04,-24878.4,0,25659.8,17183.6
step02_gravity_refstate-crust.xmf,624,1.85128e-07,1.84461e-06,0,-2.9829e-07,-6.84639e+08,-6.84525e+08,-6.84651e+08,-20462.7,0.00215381,0.100722,0,0.100745,8048.53,-24928.6,0,26195.6,20462.7
step02_gravity_refstate-crust.xmf,625,1.36483e-07,1.91169e-06,0,-3.33107e-07,-6.86368e+08,-6.86246e+08,-6.86377e+08,-22851.1,0.00245167,0.0997409,0,0.099771,9840.41,-24991.4,0,26859,22851.1
step02_gravity_refstate-crust.xmf,626,8.63285e-08,1.9822e-06,0,-3.54044e-07,-6.88331e+08,-6.88201e+08,-6.88337e+08,-24287.4,0.00266422,0.098641,0,0.098677,11653.1,-25062.8,0,27639.4,24287.4
step02_gravity_refstate-crust.xmf,627,-1.29055e-07,2.02999e-06,0,1.46412e-11,-6.02486e+08,-6.02338e+08,-6.02477e+08,1.00438,2.0351e-20,0.0956021,0,0.0956021,40000,-21936.7,0,45620.4,1.00438
step02_gravity_refstate-crust.xmf,628,1.59836e-07,2.86673e-06,0,1.09016e-06,-1.07508e+09,-1.07489e+09,-1.07509e+09,74784.8,-0.00583244,0.0681232,-0,0.0683725,-7670.26,-39144.3,-0,39888.7,74784.8
step02_gravity_refstate-crust.xmf,629,2.8147e-07,2.6582e-06,0,9.88296e-07,-1.05013e+09,-1.04997e+09,-1.05015e+09,67797.1,-0.00530401,0.0716214,-0,0.0718176,-7063.4,-38236.3,-0,38883.3,67797.1
step02_gravity_refstate-crust.xmf,630,4.47471e-07,2.3337e-06,0,7.43869e-07,-9.98124e+08,-9.97994e+08,-9.98154e+08,51029.4,-0.00408519,0.0779956,-0,0.0781025,-5803.85,-36343.1,-0,36803.6,51029.4
step02_gravity_refstate-crust.xmf,631,3.79307e-07,2.47894e-06,0,8.70057e-07,-1.02462e+09,-1.02447e+09,-1.02464e+09,59685.9,-0.00470903,0.0749118,-0,0.0750597,-6429.87,-37307.5,-0,37857.6,59685.9
step02_gravity_refstate-crust.xmf,632,-1.31435e-07,2.11778e-06,0,-3.11796e-08,-6.28301e+08,-6.28146e+08,-6.28292e+08,-2138.92,0.00029353,0.0937177,0,0.0937181,37756.3,-22876.7,0,44146.1,2138.92
step02_gravity_refstate-crust.xmf,633,-1.22328e-07,1.9321e-06,0,-1.13128e-07,-5.76585e+08,-5.76444e+08,-5.76577e+08,-7760.57,0.00101138,0.0982958,0,0.098301,31938.3,-20993.7,0,38220.3,7760.57
step02_gravity_refstate-crust.xmf,634,-8.09591e-08,2.00428e-06,0,-2.6321e-07,-6.19726e+08,-6.19583e+08,-6.19721e+08,-18056.2,0.00220862,0.0985494,0,0.0985741,21607,-22564.5,0,31241.3,18056.2
step02_gravity_refstate-crust.xmf,635,2.39299e-08,1.94103e-06,0,-3.30893e-07,-6.46041e+08,-6.4591e+08,-6.46043e+08,-22699.2,0.0025776,0.100175,0,0.100208,14430,-23522.9,0,27596.2,22699.2
step02_gravity_refstate-crust.xmf,636,-1.25156e-08,1.98719e-06,0,-3.2405e-07,-6.45224e+08,-6.45087e+08,-6.45223e+08,-22229.8,0.00258213,0.0992762,0,0.0993097,16265.1,-23493.1,0,28574.1,22229.8
step02_gravity_refstate-crust.xmf,637,-4.55293e-08,2.03195e-06,0,-3.09142e-07,-6.45204e+08,-6.45061e+08,-6.45201e+08,-21207.1,0.00252358,0.098285,0,0.0983174,18201.7,-23492.3,0,29718.5,21207.1
step02_gravity_refstate-crust.xmf,638,3.9322e-07,1.80577e-06,0,2.46314e-08,-7.63742e+08,-7.63645e+08,-7.63769e+08,1689.71,-0.000159403,0.0976616,-0,0.0976617,-406.313,-27809.2,-0,27812.2,1689.71
step02_gravity_refstate-crust.xmf,639,3.8201e-08,2.04589e-06,0,-3.62441e-07,-6.89375e+08,-6.89237e+08,-6.89377e+08,-24863.5,0.00278068,0.0975682,0,0.0976078,13436.1,-25100.7,0,28470.6,24863.5
step02_gravity_refstate-crust.xmf,640,4.33622e-07,1.85532e-06,0,7.87875e-08,-8.00326e+08,-8.00229e+08,-8.00356e+08,5404.82,-0.000502046,0.0951677,-0,0.095169,-1152.02,-29141.3,-0,29164.1,5404.82
step02_gravity_refstate-crust.xmf,641,4.72816e-07,1.9033e-06,0,1.46088e-07,-8.36574e+08,-8.36475e+08,-8.36606e+08,10021.7,-0.000906946,0.0925699,-0,0.0925743,-1877.72,-30461.2,-0,30519,10021.7
step02_gravity_refstate-crust.xmf,642,5.07811e-07,1.95043e-06,0,2.24552e-07,-8.71312e+08,-8.71213e+08,-8.71347e+08,15404.3,-0.00135473,0.0899544,-0,0.0899646,-2544.45,-31726.1,-0,31827.9,15404.3
step02_gravity_refstate-crust.xmf,643,5.33913e-07,2.00175e-06,0,3.1973e-07,-9.0427e+08,-9.04169e+08,-9.04307e+08,21933.5,-0.00187285,0.0873186,-0,0.0873387,-3216.55,-32926.1,-0,33082.9,21933.5
step02_gravity_refstate-crust.xmf,644,4.88883e-07,2.22619e-06,0,6.32341e-07,-9.7467e+08,-9.74551e+08,-9.74703e+08,43378.6,-0.00352468,0.080546,-0,0.080623,-5216.97,-35489.2,-0,35870.7,43378.6
step02_gravity_refstate-crust.xmf,645,5.57337e-07,2.05316e-06,0,4.21359e-07,-9.3714e+08,-9.37038e+08,-9.37179e+08,28905.2,-0.00238865,0.0846067,-0,0.0846404,-3746.94,-34123,-0,34328.1,28905.2
step02_gravity_refstate-crust.xmf,646,-1.29976e-07,2.08862e-06,0,-9.09275e-08,-6.20947e+08,-6.20795e+08,-6.20939e+08,-6237.63,0.000841644,0.0947541,0,0.0947578,33534.5,-22608.9,0,40444.1,6237.63
step02_gravity_refstate-crust.xmf,647,-1.31884e-07,2.15918e-06,0,-6.01713e-08,-6.40816e+08,-6.40659e+08,-6.40807e+08,-4127.75,0.000572268,0.0929219,0,0.0929237,35656.1,-23332.4,0,42611.7,4127.75
step02_gravity_refstate-crust.xmf,648,-1.01485e-07,2.03225e-06,0,-2.29018e-07,-6.18863e+08,-6.18717e+08,-6.18856e+08,-15710.6,0.00197625,0.0975752,0,0.0975952,24101.2,-22533.1,0,32994.1,15710.6
step02_gravity_refstate-crust.xmf,649,-1.28558e-07,2.10289e-06,0,-1.25787e-07,-6.26685e+08,-6.26532e+08,-6.26677e+08,-8628.96,0.001156,0.0947899,0,0.0947969,31129,-22817.8,0,38596.2,8628.96
step02_gravity_refstate-crust.xmf,650,-1.23699e-07,2.08215e-06,0,-1.59778e-07,-6.23203e+08,-6.23052e+08,-6.23195e+08,-10960.8,0.00144178,0.0956423,0,0.0956532,28836.9,-22691.1,0,36694,10960.8
step02_gravity_refstate-crust.xmf,651,-1.1487e-07,2.05559e-06,0,-1.9478e-07,-6.19611e+08,-6.19463e+08,-6.19604e+08,-13361.9,0.00171956,0.0966517,0,0.096667,26471.9,-22560.3,0,34781.1,13361.9
step02_gravity_refstate-crust.xmf,652,-7.0138e-08,2.06279e-06,0,-2.89446e-07,-6.44084e+08,-6.43938e+08,-6.4408e+08,-19856,0.00241435,0.0974901,0,0.09752,19985.2,-23451.4,0,30812,19856
step02_gravity_refstate-crust.xmf,653,3.38309e-07,1.75673e-06,0,-9.79706e-08,-7.21429e+08,-7.21332e+08,-7.21452e+08,-6720.78,0.000667044,0.100265,0,0.100267,1939.5,-26268.4,0,26339.9,6720.78
step02_gravity_refstate-crust.xmf,654,3.87407e-07,1.80738e-06,0,-6.62961e-08,-7.61833e+08,-7.61736e+08,-7.6186e+08,-4547.92,0.000441372,0.0977385,0,0.0977395,1134.82,-27739.7,0,27762.9,4547.92
step02_gravity_refstate-crust.xmf,655,3.11477e-07,1.79096e-06,0,-1.78862e-07,-7.22299e+08,-7.22197e+08,-7.2232e+08,-12269.9,0.00122896,0.0998556,0,0.0998632,3656.99,-26300,0,26553.1,12269.9
step02_gravity_refstate-crust.xmf,656,2.7419e-07,1.84249e-06,0,-2.50816e-07,-7.23931e+08,-7.23824e+08,-7.2395e+08,-17206,0.00174298,0.0991948,0,0.0992102,5380.23,-26359.4,0,26902.9,17206
step02_gravity_refstate-crust.xmf,657,2.26625e-07,1.90723e-06,0,-3.09788e-07,-7.25444e+08,-7.25329e+08,-7.2546e+08,-21251.5,0.00218749,0.0983592,0,0.0983835,7117.61,-26414.4,0,27356.5,21251.5
step02_gravity_refstate-crust.xmf,658,1.71848e-07,1.98335e-06,0,-3.54358e-07,-7.27506e+08,-7.27381e+08,-7.27518e+08,-24309,0.002553,0.0973199,0,0.0973534,8889.43,-26489.3,0,27941.1,24309
step02_gravity_refstate-crust.xmf,659,1.14524e-07,2.06443e-06,0,-3.82428e-07,-7.29821e+08,-7.29687e+08,-7.29829e+08,-26234.5,0.00282135,0.0961428,0,0.0961842,10667.6,-26573.5,0,28634.8,26234.5
step02_gravity_refstate-crust.xmf,660,5.92849e-08,2.14197e-06,0,-3.93704e-07,-7.31459e+08,-7.31316e+08,-7.31463e+08,-27008.1,0.00298274,0.0949551,0,0.095002,12424.6,-26633.1,0,29388.6,27008.1
step02_gravity_refstate-crust.xmf,661,-1.33276e-07,2.28788e-06,0,-8.44008e-11,-6.78247e+08,-6.78081e+08,-6.78238e+08,-5.78989,2.41624e-20,0.0896463,0,0.0896463,40000,-24695.3,0,47009.1,5.78989
step02_gravity_refstate-crust.xmf,662,3.40779e-07,2.62469e-06,0,1.08784e-06,-1.07455e+09,-1.0744e+09,-1.07458e+09,74626.2,-0.00554106,0.0701268,-0,0.0703454,-6537.5,-39125.7,-0,39668.1,74626.2
step02_gravity_refstate-crust.xmf,663,5.8563e-07,2.09484e-06,0,5.22985e-07,-9.70186e+08,-9.70082e+08,-9.70226e+08,35876.8,-0.00285844,0.0818921,-0,0.081942,-4066.28,-35326.2,-0,35559.4,35876.8
step02_gravity_refstate-crust.xmf,664,4.55708e-07,2.42965e-06,0,9.4542e-07,-1.0493e+09,-1.04917e+09,-1.04933e+09,64855.8,-0.00485487,0.0734747,-0,0.0736349,-5878.62,-38206.5,-0,38656.2,64855.8
step02_gravity_refstate-crust.xmf,665,5.77223e-07,2.16946e-06,0,6.53618e-07,-9.98497e+08,-9.98388e+08,-9.98536e+08,44838.2,-0.0034772,0.0792271,-0,0.0793034,-4608.17,-36357,-0,36647.8,44838.2
step02_gravity_refstate-crust.xmf,666,5.35526e-07,2.27688e-06,0,7.9418e-07,-1.02383e+09,-1.02371e+09,-1.02386e+09,54480.7,-0.00414086,0.076529,-0,0.0766409,-5211.8,-37279.1,-0,37641.7,54480.7
step02_gravity_refstate-crust.xmf,667,-1.35233e-07,2.37605e-06,0,-3.46643e-08,-7.0423e+08,-7.04058e+08,-7.04221e+08,-2377.97,0.000349368,0.087529,0,0.0875297,37393.4,-25641.3,0,45340.4,2377.97
step02_gravity_refstate-crust.xmf,668,-9.50838e-08,2.2138e-06,0,-2.86637e-07,-6.81925e+08,-6.81766e+08,-6.81918e+08,-19663.3,0.00245678,0.0940377,0,0.0940698,21034.9,-24829.2,0,32541.6,19663.3
step02_gravity_refstate-crust.xmf,669,-4.25465e-09,2.11284e-06,0,-3.568e-07,-6.91728e+08,-6.91583e+08,-6.91728e+08,-24476.5,0.00282309,0.0963557,0,0.096397,15251.3,-25186.3,0,29444.1,24476.5
step02_gravity_refstate-crust.xmf,670,-4.37422e-08,2.17283e-06,0,-3.41679e-07,-6.93418e+08,-6.93266e+08,-6.93415e+08,-23439.2,0.00278263,0.0951404,0,0.0951811,17170,-25247.8,0,30532.9,23439.2
step02_gravity_refstate-crust.xmf,671,-7.40016e-08,2.20677e-06,0,-3.16947e-07,-6.90173e+08,-6.90017e+08,-6.90168e+08,-21742.6,0.00265263,0.0943548,0,0.0943921,19095.6,-25129.6,0,31561.6,21742.6
step02_gravity_refstate-crust.xmf,672,4.38089e-07,1.84806e-06,0,-2.3177e-08,-7.99894e+08,-7.99797e+08,-7.99924e+08,-1589.94,0.000153182,0.0952567,0,0.0952568,350.497,-29125.6,0,29127.7,1589.94
step02_gravity_refstate-crust.xmf,673,7.24864e-09,2.2139e-06,0,-3.92716e-07,-7.33023e+08,-7.32872e+08,-7.33024e+08,-26940.3,0.00305015,0.0937367,0,0.0937863,14185.9,-26689.9,0,30225.7,26940.3
step02_gravity_refstate-crust.xmf,674,4.89044e-07,1.88117e-06,0,3.42457e-08,-8.36008e+08,-8.35913e+08,-8.36042e+08,2349.25,-0.000207539,0.0927996,-0,0.0927998,-425.479,-30440.6,-0,30443.6,2349.25
step02_gravity_refstate-crust.xmf,675,5.38546e-07,1.9101e-06,0,1.04893e-07,-8.70743e+08,-8.70649e+08,-8.7078e+08,7195.68,-0.00062481,0.0903302,-0,0.0903323,-1152.69,-31705.4,-0,31726.3,7195.68
step02_gravity_refstate-crust.xmf,676,5.84508e-07,1.9374e-06,0,1.90587e-07,-9.04118e+08,-9.04025e+08,-9.04158e+08,13074.3,-0.00110051,0.0878475,-0,0.0878544,-1836.36,-32920.7,-0,32971.8,13074.3
step02_gravity_refstate-crust.xmf,677,6.2775e-07,1.96322e-06,0,2.86732e-07,-9.36803e+08,-9.36712e+08,-9.36846e+08,19669.8,-0.00159924,0.0853258,-0,0.0853408,-2417.96,-34110.8,-0,34196.4,19669.8
step02_gravity_refstate-crust.xmf,678,6.7166e-07,1.98438e-06,0,3.89822e-07,-9.69409e+08,-9.69319e+08,-9.69455e+08,26741.8,-0.00209335,0.0827657,-0,0.0827922,-2860.25,-35298.1,-0,35413.8,26741.8
step02_gravity_refstate-crust.xmf,679,-1.11259e-07,2.22338e-06,0,-2.54554e-07,-6.76536e+08,-6.76376e+08,-6.76528e+08,-17462.4,0.00223383,0.0935526,0,0.0935792,23028.3,-24633,0,33720.7,17462.4
step02_gravity_refstate-crust.xmf,680,-1.36133e-07,2.33785e-06,0,-7.11887e-08,-6.93322e+08,-6.93153e+08,-6.93313e+08,-4883.54,0.000706732,0.0887371,0,0.08874,34743.9,-25244.2,0,42946.5,4883.54
step02_gravity_refstate-crust.xmf,681,-1.2413e-07,2.24297e-06,0,-2.18247e-07,-6.75532e+08,-6.7537e+08,-6.75524e+08,-14971.7,0.00196766,0.0927161,0,0.0927369,25256.6,-24596.4,0,35254.5,14971.7
step02_gravity_refstate-crust.xmf,682,-1.37012e-07,2.30482e-06,0,-1.06895e-07,-6.84296e+08,-6.84128e+08,-6.84286e+08,-7332.97,0.00103643,0.0899135,0,0.0899195,32307.7,-24915.5,0,40799.1,7332.97
step02_gravity_refstate-crust.xmf,683,-1.36209e-07,2.28756e-06,0,-1.43087e-07,-6.80848e+08,-6.80682e+08,-6.80839e+08,-9815.78,0.0013586,0.0907557,0,0.0907658,29932.4,-24789.9,0,38865,9815.78
step02_gravity_refstate-crust.xmf,684,-1.32158e-07,2.26413e-06,0,-1.81076e-07,-6.77023e+08,-6.76859e+08,-6.77014e+08,-12421.8,0.0016756,0.091779,0,0.0917943,27544.9,-24650.7,0,36964.5,12421.8
step02_gravity_refstate-crust.xmf,685,3.66865e-07,1.83476e-06,0,-1.60283e-07,-7.62806e+08,-7.62705e+08,-7.62831e+08,-10995.4,0.00106707,0.0973971,0,0.0974029,2788.06,-27775,0,27914.6,10995.4
step02_gravity_refstate-crust.xmf,686,4.24792e-07,1.86627e-06,0,-1.26574e-07,-8.00429e+08,-8.0033e+08,-8.00458e+08,-8682.98,0.00082053,0.0950485,0,0.095052,1895.76,-29145,0,29206.6,8682.98
step02_gravity_refstate-crust.xmf,687,3.26652e-07,1.88815e-06,0,-2.46939e-07,-7.64264e+08,-7.64157e+08,-7.64287e+08,-16940,0.00166882,0.0967789,0,0.0967933,4502.99,-27828.1,0,28190,16940
step02_gravity_refstate-crust.xmf,688,2.74222e-07,1.95618e-06,0,-3.1926e-07,-7.64842e+08,-7.64727e+08,-7.64861e+08,-21901.3,0.00219338,0.096005,0,0.09603,6230.51,-27849,0,28537.4,21901.3
step02_gravity_refstate-crust.xmf,689,2.13151e-07,2.04168e-06,0,-3.7609e-07,-7.67368e+08,-7.67242e+08,-7.67382e+08,-25799.8,0.00263728,0.0948987,0,0.0949354,7983.56,-27940.8,0,29059,25799.8
step02_gravity_refstate-crust.xmf,690,1.45596e-07,2.13539e-06,0,-4.12837e-07,-7.69251e+08,-7.69115e+08,-7.69261e+08,-28320.6,0.00297291,0.0936642,0,0.0937114,9788.47,-28009.2,0,29670.4,28320.6
step02_gravity_refstate-crust.xmf,691,8.17708e-08,2.22313e-06,0,-4.28482e-07,-7.70434e+08,-7.70287e+08,-7.70439e+08,-29393.9,0.00317568,0.0924375,0,0.0924921,11520.4,-28052.2,0,30325.6,29393.9
step02_gravity_refstate-crust.xmf,692,2.64876e-08,2.29738e-06,0,-4.27003e-07,-7.70383e+08,-7.70227e+08,-7.70385e+08,-29292.4,0.00326104,0.09134,0,0.0913982,13150.8,-28050.2,0,30980,29292.4
step02_gravity_refstate-crust.xmf,693,-1.32992e-07,2.53624e-06,0,-1.59719e-10,-7.5205e+08,-7.51867e+08,-7.52041e+08,-10.9567,1.9236e-20,0.0831643,0,0.0831643,40000,-27382.5,0,48474.8,10.9567
step02_gravity_refstate-crust.xmf,694,5.36532e-07,2.36781e-06,0,1.02993e-06,-1.07367e+09,-1.07354e+09,-1.07371e+09,70652.9,-0.00502863,0.0720666,-0,0.0722418,-5402.89,-39093.8,-0,39465.4,70652.9
step02_gravity_refstate-crust.xmf,695,6.8864e-07,2.02613e-06,0,5.2257e-07,-9.9719e+08,-9.97098e+08,-9.97237e+08,35848.3,-0.00271675,0.0803607,-0,0.0804066,-3429.09,-36309.6,-0,36471.2,35848.3
step02_gravity_refstate-crust.xmf,696,6.41259e-07,2.18723e-06,0,8.39571e-07,-1.04813e+09,-1.04803e+09,-1.04818e+09,57594.6,-0.00414608,0.0752831,-0,0.0753972,-4619.01,-38164.3,-0,38442.8,57594.6
step02_gravity_refstate-crust.xmf,697,6.83871e-07,2.08975e-06,0,6.76668e-07,-1.02438e+09,-1.02429e+09,-1.02443e+09,46419.4,-0.00341286,0.0778192,-0,0.077894,-4005.57,-37299.7,-0,37514.1,46419.4
step02_gravity_refstate-crust.xmf,698,-1.36471e-07,2.56232e-06,0,-5.43042e-08,-7.59638e+08,-7.59453e+08,-7.59628e+08,-3725.27,0.000582788,0.0827071,0,0.0827091,35642.1,-27658.8,0,45115.1,3725.27
step02_gravity_refstate-crust.xmf,699,-1.24052e-07,2.41021e-06,0,-2.7926e-07,-7.32015e+08,-7.31841e+08,-7.32007e+08,-19157.2,0.00248794,0.089319,0,0.0893536,22066.3,-26653,0,34602.1,19157.2
step02_gravity_refstate-crust.xmf,700,-1.05934e-07,2.38984e-06,0,-3.15937e-07,-7.3556e+08,-7.35389e+08,-7.35553e+08,-21673.3,0.00272791,0.090027,0,0.0900683,20089.3,-26782.1,0,33479.3,21673.3
step02_gravity_refstate-crust.xmf,701,-4.01671e-08,2.31517e-06,0,-3.83389e-07,-7.44042e+08,-7.43881e+08,-7.4404e+08,-26300.5,0.00307958,0.0916857,0,0.0917375,16012.2,-27091,0,31469.3,26300.5
step02_gravity_refstate-crust.xmf,702,-7.93452e-08,2.36206e-06,0,-3.51337e-07,-7.40235e+08,-7.40067e+08,-7.40229e+08,-24101.7,0.00293343,0.0907476,0,0.090795,18094.5,-26952.3,0,32462.9,24101.7
step02_gravity_refstate-crust.xmf,703,4.8258e-07,1.88727e-06,0,-8.10822e-08,-8.36992e+08,-8.36895e+08,-8.37025e+08,-5562.24,0.000505014,0.092681,0,0.0926824,1035.16,-30476.4,0,30494,5562.24
step02_gravity_refstate-crust.xmf,704,-1.47949e-08,2.35176e-06,0,-4.15928e-07,-7.69475e+08,-7.69312e+08,-7.69474e+08,-28532.7,0.00326179,0.0904739,0,0.0905327,14545.2,-28017.1,0,31567.7,28532.7
step02_gravity_refstate-crust.xmf,705,-1.31841e-07,2.65119e-06,0,-2.49008e-08,-7.86497e+08,-7.86306e+08,-7.86488e+08,-1708.2,0.000277304,0.0799699,0,0.0799704,37879.6,-28636.8,0,47486.1,1708.2
step02_gravity_refstate-crust.xmf,706,5.47678e-07,1.89974e-06,0,-2.13051e-08,-8.71382e+08,-8.71289e+08,-8.7142e+08,-1461.53,0.000133231,0.0903699,0,0.09037,244.078,-31728.7,0,31729.6,1461.53
step02_gravity_refstate-crust.xmf,707,6.09152e-07,1.90668e-06,0,5.21442e-08,-9.04428e+08,-9.04339e+08,-9.0447e+08,3577.09,-0.000294991,0.088065,-0,0.0880655,-485.228,-32932,-0,32935.6,3577.09
step02_gravity_refstate-crust.xmf,708,6.69076e-07,1.91007e-06,0,1.39001e-07,-9.36328e+08,-9.36243e+08,-9.36374e+08,9535.44,-0.000764731,0.0857598,-0,0.0857632,-1133.69,-34093.6,-0,34112.5,9535.44
step02_gravity_refstate-crust.xmf,709,7.25842e-07,1.91156e-06,0,2.41061e-07,-9.67107e+08,-9.67026e+08,-9.67157e+08,16536.8,-0.00127833,0.08346,-0,0.0834698,-1713.68,-35214.4,-0,35256.1,16536.8
step02_gravity_refstate-crust.xmf,710,7.11712e-07,2.1449e-06,0,9.37993e-07,-1.0747e+09,-1.0746e+09,-1.07475e+09,64346.3,-0.00441587,0.0734919,-0,0.0736244,-4393.33,-39131.8,-0,39377.7,64346.3
step02_gravity_refstate-crust.xmf,711,7.75211e-07,1.91572e-06,0,3.64059e-07,-9.9653e+08,-9.96451e+08,-9.96583e+08,24974.5,-0.00185904,0.0811702,-0,0.0811914,-2264.74,-36285.8,-0,36356.4,24974.5
step02_gravity_refstate-crust.xmf,712,-1.35983e-07,2.42741e-06,0,-2.41023e-07,-7.29936e+08,-7.2976e+08,-7.29926e+08,-16534.2,0.00221459,0.0885549,0,0.0885825,24121.3,-26577.2,0,35891.3,16534.2
step02_gravity_refstate-crust.xmf,713,-1.40446e-07,2.52054e-06,0,-8.66267e-08,-7.47092e+08,-7.4691e+08,-7.47083e+08,-5942.59,0.000903178,0.0842009,0,0.0842058,33340.5,-27202,0,43029.5,5942.59
step02_gravity_refstate-crust.xmf,714,-1.42966e-07,2.44787e-06,0,-2.00996e-07,-7.30793e+08,-7.30616e+08,-7.30783e+08,-13788.3,0.00190755,0.0875938,0,0.0876145,26322.1,-26608.5,0,37428.1,13788.3
step02_gravity_refstate-crust.xmf,715,-1.44228e-07,2.49474e-06,0,-1.22215e-07,-7.39778e+08,-7.39597e+08,-7.39768e+08,-8383.95,0.00123591,0.0853553,0,0.0853643,30999.1,-26935.6,0,41066.7,8383.95
step02_gravity_refstate-crust.xmf,716,-1.45529e-07,2.47258e-06,0,-1.6072e-07,-7.34809e+08,-7.3463e+08,-7.34799e+08,-11025.4,0.00157655,0.0864504,0,0.0864648,28634.7,-26754.7,0,39188.8,11025.4
step02_gravity_refstate-crust.xmf,717,3.92241e-07,1.9265e-06,0,-2.39411e-07,-8.07695e+08,-8.0759e+08,-8.07722e+08,-16423.6,0.00156497,0.0940697,0,0.0940827,3651.19,-29409.5,0,29635.3,16423.6
step02_gravity_refstate-crust.xmf,718,4.65559e-07,1.92106e-06,0,-1.89209e-07,-8.40176e+08,-8.40076e+08,-8.40208e+08,-12979.8,0.00118539,0.0921787,0,0.0921863,2448.52,-30592.3,0,30690.1,12979.8
step02_gravity_refstate-crust.xmf,719,5.31184e-07,1.92017e-06,0,-1.44655e-07,-8.73183e+08,-8.73088e+08,-8.73219e+08,-9923.35,0.000872448,0.0900776,0,0.0900819,1604.74,-31794.2,0,31834.7,9923.35
step02_gravity_refstate-crust.xmf,720,3.30643e-07,1.99004e-06,0,-3.25233e-07,-8.03242e+08,-8.03128e+08,-8.03264e+08,-22311,0.00216295,0.0936599,0,0.0936848,5367.78,-29247.2,0,29735.7,22311
step02_gravity_refstate-crust.xmf,721,2.64007e-07,2.0786e-06,0,-3.93389e-07,-8.04806e+08,-8.04681e+08,-8.04824e+08,-26986.5,0.00266913,0.0926425,0,0.092681,7030.89,-29304,0,30135.7,26986.5
step02_gravity_refstate-crust.xmf,722,1.84682e-07,2.20588e-06,0,-4.54131e-07,-8.12859e+08,-8.12721e+08,-8.12872e+08,-31153.4,0.00315208,0.0907934,0,0.0908481,8917.67,-29597.1,0,30911.4,31153.4
step02_gravity_refstate-crust.xmf,723,1.03731e-07,2.30143e-06,0,-4.68219e-07,-8.08746e+08,-8.08595e+08,-8.08753e+08,-32119.8,0.00338187,0.0898115,0,0.0898751,10761.7,-29447.2,0,31352,32119.8
step02_gravity_refstate-crust.xmf,724,3.89441e-08,2.38528e-06,0,-4.66602e-07,-8.0753e+08,-8.07369e+08,-8.07533e+08,-32008.9,0.00348553,0.0887129,0,0.0887813,12389.8,-29402.8,0,31906.6,32008.9
step02_gravity_refstate-crust.xmf,725,-1.32481e-08,2.44767e-06,0,-4.50158e-07,-8.03906e+08,-8.03737e+08,-8.03905e+08,-30880.8,0.00347838,0.0878858,0,0.0879546,13944.8,-29270.7,0,32422.7,30880.8
step02_gravity_refstate-crust.xmf,726,-1.25936e-07,2.77363e-06,0,-3.25553e-10,-8.24094e+08,-8.23896e+08,-8.24086e+08,-22.3329,1.79934e-20,0.0761997,0,0.0761997,40000,-30005.8,0,50003.5,22.3329
step02_gravity_refstate-crust.xmf,727,-1.31944e-07,2.75766e-06,0,-4.1221e-08,-8.18444e+08,-8.18246e+08,-8.18435e+08,-2827.76,0.000481535,0.0769483,0,0.0769498,36240.6,-29800,0,46919.3,2827.76
step02_gravity_refstate-crust.xmf,728,8.10313e-07,1.93096e-06,0,5.13651e-07,-1.0246e+09,-1.02452e+09,-1.02466e+09,35236.5,-0.00252564,0.0788565,-0,0.0788969,-2814.29,-37307.9,-0,37413.9,35236.5
step02_gravity_refstate-crust.xmf,729,8.22217e-07,1.96966e-06,0,7.11457e-07,-1.0538e+09,-1.05372e+09,-1.05386e+09,48805.9,-0.00335272,0.0762423,-0,0.076316,-3421.65,-38371.1,-0,38523.3,48805.9
step02_gravity_refstate-crust.xmf,730,-1.37545e-07,2.72601e-06,0,-6.63914e-08,-8.0824e+08,-8.08044e+08,-8.08231e+08,-4554.45,0.000754004,0.0782101,0,0.0782137,34254.8,-29428.5,0,45160,4554.45
step02_gravity_refstate-crust.xmf,731,-1.50545e-07,2.60561e-06,0,-2.62815e-07,-7.81628e+08,-7.81439e+08,-7.81618e+08,-18029.1,0.00245047,0.0842996,0,0.0843353,23071.7,-28459.4,0,36636.6,18029.1
step02_gravity_refstate-crust.xmf,732,-1.38345e-07,2.58203e-06,0,-3.05574e-07,-7.82631e+08,-7.82444e+08,-7.82621e+08,-20962.4,0.00274151,0.0852263,0,0.0852704,21085,-28495.9,0,35448.4,20962.4
step02_gravity_refstate-crust.xmf,733,-1.18401e-07,2.5528e-06,0,-3.4721e-07,-7.8491e+08,-7.84727e+08,-7.84902e+08,-23818.6,0.00299725,0.0861143,0,0.0861664,19164.9,-28578.9,0,34410,23818.6
step02_gravity_refstate-crust.xmf,734,-8.92417e-08,2.51273e-06,0,-3.85734e-07,-7.87318e+08,-7.87139e+08,-7.87312e+08,-26461.4,0.00320277,0.0870576,0,0.0871165,17305.4,-28666.6,0,33485.1,26461.4
step02_gravity_refstate-crust.xmf,735,-5.40065e-08,2.48383e-06,0,-4.22295e-07,-7.95895e+08,-7.95721e+08,-7.95891e+08,-28969.4,0.00337583,0.0874817,0,0.0875468,15518.7,-28979,0,32872.6,28969.4
step02_gravity_refstate-crust.xmf,736,5.01011e-07,1.96452e-06,0,-2.55927e-07,-8.74705e+08,-8.74604e+08,-8.74739e+08,-17556.6,0.00155117,0.0895857,0,0.0895992,2904.42,-31849.6,0,31981.7,17556.6
step02_gravity_refstate-crust.xmf,737,-1.22405e-07,2.89281e-06,0,-2.09518e-08,-8.6062e+08,-8.60414e+08,-8.60612e+08,-1437.29,0.000257617,0.0724904,0,0.0724909,37844,-31335.7,0,49133.4,1437.29
step02_gravity_refstate-crust.xmf,738,6.0638e-07,1.91069e-06,0,-8.97206e-08,-9.05036e+08,-9.04946e+08,-9.05078e+08,-6154.84,0.000523298,0.0879838,0,0.0879854,860.918,-32954.1,0,32965.4,6154.84
step02_gravity_refstate-crust.xmf,739,6.82463e-07,1.89376e-06,0,-1.86453e-08,-9.3687e+08,-9.36786e+08,-9.36916e+08,-1279.07,0.000109966,0.0858347,0,0.0858348,161.708,-34113.4,0,34113.8,1279.07
step02_gravity_refstate-crust.xmf,740,7.57617e-07,1.87125e-06,0,7.18892e-08,-9.67057e+08,-9.66981e+08,-9.67109e+08,4931.6,-0.000373881,0.0837416,-0,0.0837424,-494.282,-35212.6,-0,35216.1,4931.6
step02_gravity_refstate-crust.xmf,741,8.30753e-07,1.84546e-06,0,1.8529e-07,-9.96516e+08,-9.96446e+08,-9.96573e+08,12710.9,-0.000932873,0.0816353,-0,0.0816406,-1111.14,-36285.4,-0,36302.4,12710.9
step02_gravity_refstate-crust.xmf,742,8.77185e-07,1.94363e-06,0,8.33824e-07,-1.08007e+09,-1.07999e+09,-1.08013e+09,57200.3,-0.00377292,0.0743107,-0,0.0744064,-3476.14,-39327.5,-0,39480.8,57200.3
step02_gravity_refstate-crust.xmf,743,8.95082e-07,1.82134e-06,0,3.16033e-07,-1.02359e+09,-1.02353e+09,-1.02365e+09,21679.9,-0.00153003,0.0796318,-0,0.0796465,-1655.79,-37271.2,-0,37308,21679.9
step02_gravity_refstate-crust.xmf,744,-1.28733e-07,2.9156e-06,0,-4.58116e-08,-8.66252e+08,-8.66043e+08,-8.66243e+08,-3142.67,0.000578235,0.0721214,0,0.0721237,35216.1,-31540.8,0,47275.7,3142.67
step02_gravity_refstate-crust.xmf,745,-1.56071e-07,2.62538e-06,0,-2.20354e-07,-7.82101e+08,-7.8191e+08,-7.8209e+08,-15116.3,0.0021346,0.0833282,0,0.0833555,25125.8,-28476.6,0,37976.6,15116.3
step02_gravity_refstate-crust.xmf,746,-1.45188e-07,2.69983e-06,0,-9.81658e-08,-7.99662e+08,-7.99467e+08,-7.99652e+08,-6734.18,0.00107658,0.0794626,0,0.0794699,32008.2,-29116.1,0,43269.8,6734.18
step02_gravity_refstate-crust.xmf,747,-1.56601e-07,2.65144e-06,0,-1.77274e-07,-7.86413e+08,-7.8622e+08,-7.86402e+08,-12161,0.00178936,0.0820631,0,0.0820826,27338.2,-28633.6,0,39588.7,12161
step02_gravity_refstate-crust.xmf,748,-1.52888e-07,2.68338e-06,0,-1.35006e-07,-7.94418e+08,-7.94224e+08,-7.94408e+08,-9261.41,0.00142425,0.0805455,0,0.0805581,29689.5,-28925.1,0,41450.3,9261.41
step02_gravity_refstate-crust.xmf,749,4.37953e-07,1.96991e-06,0,-2.77857e-07,-8.46534e+08,-8.46429e+08,-8.46564e+08,-19061,0.00173724,0.0913295,0,0.091346,3608.2,-30823.7,0,31034.2,19061
step02_gravity_refstate-crust.xmf,750,5.7487e-07,1.94928e-06,0,-2.2331e-07,-9.06537e+08,-9.06443e+08,-9.06577e+08,-15319.1,0.0013039,0.0875748,0,0.0875845,2170.87,-33008.7,0,33080,15319.1
step02_gravity_refstate-crust.xmf,751,3.8708e-07,2.01402e-06,0,-3.31806e-07,-8.38682e+08,-8.3857e+08,-8.38708e+08,-22761.9,0.00213593,0.0914111,0,0.0914361,4683.21,-30537.7,0,30894.8,22761.9
step02_gravity_refstate-crust.xmf,752,3.22302e-07,2.09761e-06,0,-4.06933e-07,-8.39435e+08,-8.39314e+08,-8.39458e+08,-27915.6,0.002663,0.0905381,0,0.0905772,6151.15,-30565,0,31177.8,27915.6
step02_gravity_refstate-crust.xmf,753,2.48401e-07,2.20057e-06,0,-4.66369e-07,-8.42595e+08,-8.42461e+08,-8.42612e+08,-31992.9,0.00312052,0.0892853,0,0.0893398,7665.94,-30679.9,0,31623.2,31992.9
step02_gravity_refstate-crust.xmf,754,1.17559e-07,2.38549e-06,0,-5.1504e-07,-8.46418e+08,-8.46263e+08,-8.46427e+08,-35331.8,0.00362027,0.0869987,0,0.087074,10238.7,-30818.9,0,32475.1,35331.8
step02_gravity_refstate-crust.xmf,755,4.8748e-08,2.47558e-06,0,-5.12863e-07,-8.45261e+08,-8.45094e+08,-8.45264e+08,-35182.4,0.0037323,0.0858885,0,0.0859695,11729.1,-30776.6,0,32935.9,35182.4
step02_gravity_refstate-crust.xmf,756,-1.08931e-08,2.55119e-06,0,-4.94809e-07,-8.42425e+08,-8.42249e+08,-8.42424e+08,-33943.9,0.00373722,0.084922,0,0.0850042,13238,-30673.2,0,33407.9,33943.9
step02_gravity_refstate-crust.xmf,757,-6.09197e-08,2.61093e-06,0,-4.63938e-07,-8.37727e+08,-8.37543e+08,-8.37722e+08,-31826.2,0.00364735,0.08411,0,0.084189,14826.3,-30502.1,0,33914.5,31826.2
step02_gravity_refstate-crust.xmf,758,-1.10796e-07,2.9992e-06,0,-2.23047e-10,-8.94575e+08,-8.94362e+08,-8.94567e+08,-15.301,1.1598e-20,0.0687925,0,0.0687925,40000,-32572.1,0,51584.3,15.301
step02_gravity_refstate-crust.xmf,759,9.55116e-07,1.79736e-06,0,4.5857e-07,-1.04978e+09,-1.04972e+09,-1.04984e+09,31457.9,-0.00213014,0.0776598,-0,0.077689,-2097.53,-38224.9,-0,38282.4,31457.9
step02_gravity_refstate-crust.xmf,760,9.98595e-07,1.7881e-06,0,6.44693e-07,-1.07559e+09,-1.07554e+09,-1.07566e+09,44226,-0.00286959,0.0755915,-0,0.075646,-2579.83,-39164.7,-0,39249.6,44226
step02_gravity_refstate-crust.xmf,761,-1.38263e-07,2.90117e-06,0,-7.25847e-08,-8.60211e+08,-8.60003e+08,-8.60202e+08,-4979.31,0.000882914,0.073097,0,0.0731024,32970.6,-31320.8,0,45475.9,4979.31
step02_gravity_refstate-crust.xmf,762,-1.72327e-07,2.79853e-06,0,-2.39056e-07,-8.31211e+08,-8.31007e+08,-8.31199e+08,-16399.2,0.00235047,0.0789926,0,0.0790275,23971.1,-30264.7,0,38607.9,16399.2
step02_gravity_refstate-crust.xmf,763,-1.67905e-07,2.776e-06,0,-2.85965e-07,-8.30253e+08,-8.30051e+08,-8.30241e+08,-19617.2,0.00268433,0.080077,0,0.080122,22014.4,-30229.8,0,37396.2,19617.2
step02_gravity_refstate-crust.xmf,764,-1.55026e-07,2.74447e-06,0,-3.34085e-07,-8.29858e+08,-8.29659e+08,-8.29847e+08,-22918.2,0.00299411,0.0812104,0,0.0812655,20106.9,-30215.4,0,36294.1,22918.2
step02_gravity_refstate-crust.xmf,765,-1.32861e-07,2.70536e-06,0,-3.81119e-07,-8.30679e+08,-8.30484e+08,-8.30669e+08,-26144.8,0.00326456,0.0823048,0,0.0823695,18265.6,-30245.3,0,35332.9,26144.8
step02_gravity_refstate-crust.xmf,766,-1.00916e-07,2.65807e-06,0,-4.24823e-07,-8.32644e+08,-8.32455e+08,-8.32637e+08,-29142.8,0.00348241,0.0833457,0,0.0834185,16498.3,-30316.9,0,34515.4,29142.8
step02_gravity_refstate-crust.xmf,767,4.507e-07,2.026e-06,0,-3.48135e-07,-8.74815e+08,-8.74707e+08,-8.74846e+08,-23882.1,0.00213461,0.0890299,0,0.0890554,4129.2,-31853.5,0,32120,23882.1
step02_gravity_refstate-crust.xmf,768,5.26963e-07,2.01213e-06,0,-3.42756e-07,-9.07225e+08,-9.07123e+08,-9.07261e+08,-23513,0.00201417,0.0869892,0,0.0870125,3449.18,-33033.7,0,33213.2,23513
step02_gravity_refstate-crust.xmf,769,1.82945e-07,2.31081e-06,0,-5.09559e-07,-8.51435e+08,-8.5129e+08,-8.51448e+08,-34955.7,0.00346789,0.0876075,0,0.0876761,8936.4,-31001.7,0,32264,34955.7
step02_gravity_refstate-crust.xmf,770,-1.00578e-07,3.10611e-06,0,-1.12136e-08,-9.28687e+08,-9.28467e+08,-9.28681e+08,-769.251,0.000164076,0.065033,0,0.0650332,38349,-33814.2,0,51127.8,769.251
step02_gravity_refstate-crust.xmf,771,-1.09473e-07,3.11656e-06,0,-2.66069e-08,-9.30169e+08,-9.29947e+08,-9.30161e+08,-1825.24,0.000402153,0.0650143,0,0.0650155,36042,-33868.1,0,49457.8,1825.24
step02_gravity_refstate-crust.xmf,772,-8.50543e-08,3.21158e-06,0,-6.20798e-10,-9.63686e+08,-9.63459e+08,-9.6368e+08,-42.5867,1.08696e-20,0.0609773,0,0.0609773,40000,-35088.6,0,53209.1,42.5867
step02_gravity_refstate-crust.xmf,773,6.64152e-07,1.91698e-06,0,-1.78034e-07,-9.37818e+08,-9.37732e+08,-9.37864e+08,-12213.1,0.000992155,0.0855782,0,0.085584,1469.34,-34147.9,0,34179.5,12213.1
step02_gravity_refstate-crust.xmf,774,7.56741e-07,1.8739e-06,0,-1.10409e-07,-9.6835e+08,-9.68274e+08,-9.68402e+08,-7574.05,0.000591287,0.0836156,0,0.0836177,779.293,-35259.7,0,35268.3,7574.05
step02_gravity_refstate-crust.xmf,775,8.48679e-07,1.82294e-06,0,-7.33197e-09,-9.96169e+08,-9.96103e+08,-9.96228e+08,-502.973,4.46295e-05,0.0818076,0,0.0818077,52.9468,-36272.8,0,36272.8,502.973
step02_gravity_refstate-crust.xmf,776,9.35652e-07,1.76657e-06,0,1.12034e-07,-1.02299e+09,-1.02293e+09,-1.02305e+09,7685.55,-0.000536802,0.0800092,-0,0.080011,-573.201,-37249.4,-0,37253.8,7685.55
step02_gravity_refstate-crust.xmf,777,1.02384e-06,1.7086e-06,0,2.36416e-07,-1.04888e+09,-1.04883e+09,-1.04895e+09,16218.1,-0.00108341,0.0782516,-0,0.0782591,-1045.8,-38192.1,-0,38206.4,16218.1
step02_gravity_refstate-crust.xmf,778,-1.23311e-07,3.09652e-06,0,-4.72501e-08,-9.21016e+08,-9.20795e+08,-9.21008e+08,-3241.36,0.000665085,0.0663067,0,0.0663101,33879.5,-33534.8,0,47669.7,3241.36
step02_gravity_refstate-crust.xmf,779,-1.70214e-07,2.81655e-06,0,-1.94478e-07,-8.33395e+08,-8.3319e+08,-8.33383e+08,-13341.2,0.00200393,0.0778939,0,0.0779197,25986.6,-30344.3,0,39950.9,13341.2
step02_gravity_refstate-crust.xmf,780,-1.51224e-07,2.88855e-06,0,-1.05504e-07,-8.54543e+08,-8.54335e+08,-8.54533e+08,-7237.56,0.00122568,0.0741902,0,0.0742004,30653.7,-31114.4,0,43677.8,7237.56
step02_gravity_refstate-crust.xmf,781,-1.66602e-07,2.88519e-06,0,-1.48753e-07,-8.5205e+08,-8.5184e+08,-8.52038e+08,-10204.5,0.00162828,0.075178,0,0.0751956,28129.1,-31023.5,0,41877.3,10204.5
step02_gravity_refstate-crust.xmf,782,6.1055e-07,1.98216e-06,0,-3.23588e-07,-9.38466e+08,-9.38372e+08,-9.38508e+08,-22198.1,0.00182668,0.0850483,0,0.0850679,2770.05,-34171.3,0,34283.4,22198.1
step02_gravity_refstate-crust.xmf,783,3.8359e-07,2.10871e-06,0,-4.23361e-07,-8.73388e+08,-8.7327e+08,-8.73414e+08,-29042.6,0.00266459,0.0883904,0,0.0884306,5422.83,-31801.4,0,32260.4,29042.6
step02_gravity_refstate-crust.xmf,784,3.0516e-07,2.212e-06,0,-4.9064e-07,-8.74427e+08,-8.74296e+08,-8.74448e+08,-33657.9,0.00315871,0.0873332,0,0.0873903,6830.98,-31839,0,32563.6,33657.9
step02_gravity_refstate-crust.xmf,785,2.22151e-07,2.32788e-06,0,-5.38386e-07,-8.7733e+08,-8.77185e+08,-8.77345e+08,-36933.3,0.00355569,0.085981,0,0.0860545,8240.55,-31944.6,0,32990.3,36933.3
step02_gravity_refstate-crust.xmf,786,1.4157e-07,2.43698e-06,0,-5.59248e-07,-8.77975e+08,-8.77817e+08,-8.77984e+08,-38364.4,0.00381046,0.0847477,0,0.0848334,9619.18,-31967.9,0,33383.8,38364.4
step02_gravity_refstate-crust.xmf,787,-1.13652e-07,2.79186e-06,0,-4.68373e-07,-8.74467e+08,-8.74268e+08,-8.74459e+08,-32130.4,0.0037634,0.0798137,0,0.0799024,15691.6,-31839.7,0,35496.4,32130.4
step02_gravity_refstate-crust.xmf,788,6.40371e-08,2.54395e-06,0,-5.60926e-07,-8.78533e+08,-8.78363e+08,-8.78538e+08,-38479.5,0.00395895,0.0834339,0,0.0835278,11043.5,-31988.1,0,33840.8,38479.5
step02_gravity_refstate-crust.xmf,789,-6.75337e-09,2.64154e-06,0,-5.43632e-07,-8.77984e+08,-8.77802e+08,-8.77983e+08,-37293.1,0.00399376,0.0821517,0,0.0822487,12538.2,-31967.9,0,34338.8,37293.1
step02_gravity_refstate-crust.xmf,790,-6.63887e-08,2.72349e-06,0,-5.10739e-07,-8.76138e+08,-8.75947e+08,-8.76133e+08,-35036.7,0.0039204,0.0809756,0,0.0810704,14093.2,-31900.6,0,34875,35036.7
step02_gravity_refstate-crust.xmf,791,-7.53493e-08,3.30319e-06,0,-7.65264e-09,-9.93502e+08,-9.9327e+08,-9.93497e+08,-524.971,0.000154666,0.0574902,0,0.0574904,37845.9,-36174.2,0,52353.5,524.971
step02_gravity_refstate-crust.xmf,792,1.10559e-06,1.65256e-06,0,4.00808e-07,-1.0742e+09,-1.07417e+09,-1.07428e+09,27495.4,-0.00175588,0.0764787,-0,0.0764989,-1534.48,-39114.5,-0,39144.6,27495.4
step02_gravity_refstate-crust.xmf,793,-1.3932e-07,3.08036e-06,0,-7.34917e-08,-9.13051e+08,-9.12831e+08,-9.13042e+08,-5041.53,0.000969102,0.0675941,0,0.0676011,31678.2,-33244.8,0,45920.8,5041.53
step02_gravity_refstate-crust.xmf,794,-1.87129e-07,2.97292e-06,0,-2.11225e-07,-8.7693e+08,-8.76713e+08,-8.76917e+08,-14490,0.0022001,0.0738471,0,0.0738799,24713.5,-31929.4,0,40376.2,14490
step02_gravity_refstate-crust.xmf,795,-1.91924e-07,2.96495e-06,0,-2.57745e-07,-8.77278e+08,-8.77062e+08,-8.77265e+08,-17681.3,0.00255187,0.0747121,0,0.0747557,22859.6,-31942,0,39279.2,17681.3
step02_gravity_refstate-crust.xmf,796,-1.88464e-07,2.93853e-06,0,-3.10566e-07,-8.75608e+08,-8.75394e+08,-8.75596e+08,-21304.8,0.00291081,0.0759489,0,0.0760046,20980.5,-31881.2,0,38165.3,21304.8
step02_gravity_refstate-crust.xmf,797,-1.75233e-07,2.90304e-06,0,-3.65853e-07,-8.75065e+08,-8.74854e+08,-8.75053e+08,-25097.5,0.0032493,0.0771899,0,0.0772583,19130.9,-31861.4,0,37163.7,25097.5
step02_gravity_refstate-crust.xmf,798,-1.49808e-07,2.84991e-06,0,-4.18637e-07,-8.73501e+08,-8.73295e+08,-8.7349e+08,-28718.5,0.00353253,0.0785978,0,0.0786771,17384.4,-31804.5,0,36245.6,28718.5
step02_gravity_refstate-crust.xmf,799,4.55011e-07,2.09955e-06,0,-4.41445e-07,-9.06433e+08,-9.0632e+08,-9.06464e+08,-30283.2,0.00264225,0.0862951,0,0.0863355,4740.33,-33004.7,0,33343.4,30283.2
step02_gravity_refstate-crust.xmf,800,5.3729e-07,2.07415e-06,0,-4.52316e-07,-9.38561e+08,-9.38456e+08,-9.38598e+08,-31028.9,0.00258166,0.0842849,0,0.0843244,4079.82,-34174.6,0,34417.3,31028.9
step02_gravity_refstate-crust.xmf,801,-9.37214e-08,3.30128e-06,0,-2.06508e-08,-9.88553e+08,-9.8832e+08,-9.88547e+08,-1416.64,0.000413017,0.0583185,0,0.05832,34806.7,-35994,0,50070.7,1416.64
step02_gravity_refstate-crust.xmf,802,-4.93628e-08,3.4111e-06,0,-1.67348e-10,-1.03162e+09,-1.03138e+09,-1.03162e+09,-11.4801,4.24719e-21,0.0527858,0,0.0527858,40000,-37562.2,0,54871.9,11.4801
step02_gravity_refstate-crust.xmf,803,8.39446e-07,1.83627e-06,0,-2.27272e-07,-1.00181e+09,-1.00174e+09,-1.00187e+09,-15590.9,0.00114878,0.0812089,0,0.0812171,1345.57,-36478.1,0,36503,15590.9
step02_gravity_refstate-crust.xmf,804,7.14593e-07,1.92424e-06,0,-2.92291e-07,-9.69045e+08,-9.68962e+08,-9.69094e+08,-20051.2,0.00155947,0.0831773,0,0.0831919,2091.97,-35284.9,0,35346.9,20051.2
step02_gravity_refstate-crust.xmf,805,9.26492e-07,1.77248e-06,0,-7.24469e-08,-1.02034e+09,-1.02028e+09,-1.0204e+09,-4969.86,0.000353253,0.0802057,0,0.0802064,381.636,-37152.9,0,37154.8,4969.86
step02_gravity_refstate-crust.xmf,806,1.04063e-06,1.68761e-06,0,-2.41141e-08,-1.04738e+09,-1.04733e+09,-1.04745e+09,-1654.23,0.000120828,0.0785211,0,0.0785212,116.523,-38137.6,0,38137.8,1654.23
step02_gravity_refstate-crust.xmf,807,1.16308e-06,1.58014e-06,0,1.35417e-07,-1.07395e+09,-1.07392e+09,-1.07403e+09,9289.64,-0.000580252,0.0768964,-0,0.0768985,-499.132,-39105.4,-0,39108.6,9289.64
step02_gravity_refstate-crust.xmf,808,-1.19744e-07,3.25094e-06,0,-4.53584e-08,-9.67262e+08,-9.67031e+08,-9.67254e+08,-3111.58,0.000716263,0.0611857,0,0.0611899,32499.1,-35218.7,0,47922.3,3111.58
step02_gravity_refstate-crust.xmf,809,-1.79225e-07,2.9731e-06,0,-1.74138e-07,-8.76408e+08,-8.76192e+08,-8.76396e+08,-11945.9,0.00189528,0.0732037,0,0.0732283,26385,-31910.4,0,41405.8,11945.9
step02_gravity_refstate-crust.xmf,810,-1.57508e-07,3.08266e-06,0,-1.04424e-07,-9.10457e+08,-9.10235e+08,-9.10447e+08,-7163.52,0.00129699,0.0684114,0,0.0684237,29508.1,-33150.2,0,44380.9,7163.52
step02_gravity_refstate-crust.xmf,811,-1.68845e-07,2.98683e-06,0,-4.62057e-07,-9.13815e+08,-9.13598e+08,-9.13803e+08,-31697.1,0.00380955,0.0750225,0,0.0751192,16487,-33272.3,0,37133.1,31697.1
step02_gravity_refstate-crust.xmf,812,6.30845e-07,2.0275e-06,0,-4.47161e-07,-9.68707e+08,-9.68611e+08,-9.6875e+08,-30675.2,0.00244438,0.0824779,0,0.0825141,3407.82,-35272.4,0,35436.7,30675.2
step02_gravity_refstate-crust.xmf,813,3.6779e-07,2.21505e-06,0,-5.2008e-07,-9.07046e+08,-9.06919e+08,-9.07071e+08,-35677.5,0.00320757,0.0852608,0,0.0853212,6100.98,-33026.8,0,33585.6,35677.5
step02_gravity_refstate-crust.xmf,814,2.74025e-07,2.34056e-06,0,-5.77813e-07,-9.08458e+08,-9.08317e+08,-9.08477e+08,-39638,0.00366349,0.0839845,0,0.0840644,7481,-33078.1,0,33913.5,39638
step02_gravity_refstate-crust.xmf,815,1.77555e-07,2.4714e-06,0,-6.09101e-07,-9.0969e+08,-9.09533e+08,-9.09702e+08,-41784.3,0.00399206,0.0825759,0,0.0826724,8891.74,-33122.7,0,34295.4,41784.3
step02_gravity_refstate-crust.xmf,816,8.52055e-08,2.59941e-06,0,-6.15247e-07,-9.10825e+08,-9.10653e+08,-9.10831e+08,-42206,0.00418802,0.0810808,0,0.0811889,10326.9,-33163.9,0,34734.5,42206
step02_gravity_refstate-crust.xmf,817,-1.26222e-07,2.91272e-06,0,-5.18301e-07,-9.12978e+08,-9.1277e+08,-9.1297e+08,-35555.4,0.00405072,0.0765231,0,0.0766302,14860.5,-33241.9,0,36412.3,35555.4
step02_gravity_refstate-crust.xmf,818,1.76117e-09,2.71837e-06,0,-5.99408e-07,-9.11789e+08,-9.11602e+08,-9.11789e+08,-41119.4,0.00425581,0.0795468,0,0.0796606,11793.4,-33198.8,0,35231.3,41119.4
step02_gravity_refstate-crust.xmf,819,-6.95161e-08,2.8242e-06,0,-5.65635e-07,-9.12601e+08,-9.12402e+08,-9.12596e+08,-38802.6,0.00420582,0.0780053,0,0.0781186,13303.2,-33228.2,0,35792.3,38802.6
step02_gravity_refstate-crust.xmf,820,-3.91757e-08,3.46913e-06,0,2.78362e-10,-1.05141e+09,-1.05117e+09,-1.05141e+09,19.0957,6.4466e-05,0.050334,0,0.050334,38282.6,-38282.8,0,54139.9,19.0957
step02_gravity_refstate-crust.xmf,821,-1.42766e-07,3.24644e-06,0,-7.09106e-08,-9.61093e+08,-9.6086e+08,-9.61083e+08,-4864.47,0.00102176,0.0623642,0,0.0623725,30321.1,-34994,0,46302.8,4864.47
step02_gravity_refstate-crust.xmf,822,-1.77489e-07,3.10265e-06,0,-1.41299e-07,-9.1321e+08,-9.12985e+08,-9.13198e+08,-9693.13,0.00165407,0.0687838,0,0.0688037,27328.1,-33250.4,0,43039.7,9693.13
step02_gravity_refstate-crust.xmf,823,-1.94126e-07,3.12943e-06,0,-1.7794e-07,-9.19132e+08,-9.18904e+08,-9.19119e+08,-12206.7,0.00198426,0.0688314,0,0.06886,25462.6,-33466,0,42051.4,12206.7
step02_gravity_refstate-crust.xmf,824,-2.07777e-07,3.13676e-06,0,-2.23124e-07,-9.21068e+08,-9.20839e+08,-9.21054e+08,-15306.3,0.00234835,0.0694547,0,0.0694944,23626.6,-33536.4,0,41023.3,15306.3
step02_gravity_refstate-crust.xmf,825,-2.1544e-07,3.12695e-06,0,-2.76753e-07,-9.2074e+08,-9.20511e+08,-9.20726e+08,-18985.3,0.00273785,0.0704842,0,0.0705374,21791.8,-33524.4,0,39984.6,18985.3
step02_gravity_refstate-crust.xmf,826,-2.12908e-07,3.09653e-06,0,-3.37693e-07,-9.18493e+08,-9.18266e+08,-9.18479e+08,-23165.7,0.00313418,0.0718889,0,0.0719572,19957.1,-33442.6,0,38944.8,23165.7
step02_gravity_refstate-crust.xmf,827,-1.97466e-07,3.04759e-06,0,-4.00843e-07,-9.15563e+08,-9.1534e+08,-9.15549e+08,-27497.8,0.00349912,0.0734825,0,0.0735658,18183,-33335.9,0,37972.4,27497.8
step02_gravity_refstate-crust.xmf,828,5.30751e-07,2.15447e-06,0,-5.78447e-07,-9.69597e+08,-9.69486e+08,-9.69634e+08,-39681.5,0.00321061,0.0814113,0,0.0814746,4708.53,-35304.6,0,35617.2,39681.5
step02_gravity_refstate-crust.xmf,829,4.41672e-07,2.19572e-06,0,-5.5401e-07,-9.39054e+08,-9.38934e+08,-9.39084e+08,-38005.1,0.00323605,0.0832464,0,0.0833093,5407.14,-34192.4,0,34617.3,38005.1
step02_gravity_refstate-crust.xmf,830,-9.74507e-08,3.393e-06,0,-2.30008e-08,-1.01422e+09,-1.01398e+09,-1.01421e+09,-1577.86,0.000506647,0.055433,0,0.0554353,32951.1,-36928.5,0,49492.3,1577.86
step02_gravity_refstate-crust.xmf,831,-5.25894e-08,3.46239e-06,0,-1.36367e-09,-1.04633e+09,-1.04609e+09,-1.04633e+09,-93.5477,0.000161583,0.0510694,0,0.0510696,36309.9,-38097.8,0,52629.4,93.5477
step02_gravity_refstate-crust.xmf,832,9.56247e-07,1.76218e-06,0,-2.25559e-07,-1.0338e+09,-1.03374e+09,-1.03386e+09,-15473.3,0.00109276,0.0791784,0,0.0791859,1123.9,-37643.1,0,37659.8,15473.3
step02_gravity_refstate-crust.xmf,833,7.4572e-07,1.94694e-06,0,-4.37776e-07,-9.98518e+08,-9.98436e+08,-9.98569e+08,-30031.4,0.00225347,0.0807354,0,0.0807668,2764.78,-36358.1,0,36463.1,30031.4
step02_gravity_refstate-crust.xmf,834,1.17363e-06,1.56688e-06,0,-1.30388e-07,-1.0758e+09,-1.07578e+09,-1.07588e+09,-8944.62,0.00057313,0.0767923,0,0.0767944,489.202,-39172.8,0,39175.9,8944.62
step02_gravity_refstate-crust.xmf,835,-1.20721e-07,3.39609e-06,0,-3.92721e-08,-1.00955e+09,-1.00931e+09,-1.00954e+09,-2694.06,0.000726457,0.0563337,0,0.0563384,31087,-36758.5,0,48141.4,2694.06
step02_gravity_refstate-crust.xmf,836,-1.66643e-07,3.25554e-06,0,-1.0188e-07,-9.5902e+08,-9.58785e+08,-9.59009e+08,-6988.97,0.00134889,0.0631731,0,0.0631875,28255.9,-34918.4,0,44918.8,6988.97
step02_gravity_refstate-crust.xmf,837,-2.23859e-07,3.18983e-06,0,-4.41745e-07,-9.54473e+08,-9.54239e+08,-9.54458e+08,-30303.7,0.00375965,0.0698295,0,0.0699306,17227.4,-34752.6,0,38788.2,30303.7
step02_gravity_refstate-crust.xmf,838,-1.90693e-07,3.11807e-06,0,-5.12765e-07,-9.52092e+08,-9.51865e+08,-9.52079e+08,-35175.7,0.00409914,0.0715647,0,0.071682,15585.6,-34665.9,0,38008.4,35175.7
step02_gravity_refstate-crust.xmf,839,6.32542e-07,2.09083e-06,0,-5.89823e-07,-9.98053e+08,-9.97953e+08,-9.98097e+08,-40461.9,0.00312375,0.0797973,0,0.0798584,4031.76,-36340.9,0,36563.9,40461.9
step02_gravity_refstate-crust.xmf,840,3.34736e-07,2.34087e-06,0,-6.24015e-07,-9.405e+08,-9.40362e+08,-9.40523e+08,-42807.4,0.00377564,0.0819157,0,0.0820027,6759.07,-34244.8,0,34905.5,42807.4
step02_gravity_refstate-crust.xmf,841,2.2255e-07,2.49306e-06,0,-6.67889e-07,-9.42244e+08,-9.42089e+08,-9.4226e+08,-45817.2,0.00418131,0.0803667,0,0.0804754,8152.87,-34308.1,0,35263.5,45817.2
step02_gravity_refstate-crust.xmf,842,1.13484e-07,2.64423e-06,0,-6.80486e-07,-9.4386e+08,-9.43686e+08,-9.43867e+08,-46681.3,0.00443345,0.078703,0,0.0788277,9573.12,-34366.7,0,35675.1,46681.3
step02_gravity_refstate-crust.xmf,843,1.38276e-08,2.78707e-06,0,-6.65963e-07,-9.45596e+08,-9.45406e+08,-9.45597e+08,-45685.1,0.00453755,0.0769515,0,0.0770852,11024.4,-34429.7,0,36151.7,45685.1
step02_gravity_refstate-crust.xmf,844,-1.39907e-07,3.02672e-06,0,-5.77001e-07,-9.49849e+08,-9.49632e+08,-9.49839e+08,-39582.3,0.00435415,0.0733405,0,0.0734696,14016.5,-34584.3,0,37316.7,39582.3
step02_gravity_refstate-crust.xmf,845,-7.15904e-08,2.91574e-06,0,-6.29531e-07,-9.47574e+08,-9.47369e+08,-9.47569e+08,-43185.8,0.00450541,0.0751536,0,0.0752885,12503.7,-34501.6,0,36697.4,43185.8
step02_gravity_refstate-crust.xmf,846,-6.89437e-08,3.48088e-06,0,-4.88544e-09,-1.04738e+09,-1.04713e+09,-1.04737e+09,-335.141,0.000286943,0.0511317,0,0.0511325,34119.1,-38135.9,0,51170.9,335.141
step02_gravity_refstate-crust.xmf,847,8.66258e-07,1.85358e-06,0,-4.2346e-07,-1.02722e+09,-1.02716e+09,-1.02728e+09,-29049.4,0.00206264,0.0790762,0,0.0791031,2232.28,-37403.5,0,37470.1,29049.4
step02_gravity_refstate-crust.xmf,848,1.05939e-06,1.67286e-06,0,-2.36743e-07,-1.05718e+09,-1.05714e+09,-1.05725e+09,-16240.6,0.00107139,0.0777568,0,0.0777642,997.489,-38494.5,0,38507.4,16240.6
step02_gravity_refstate-crust.xmf,849,-1.47239e-07,3.40942e-06,0,-6.20261e-08,-1.00741e+09,-1.00717e+09,-1.0074e+09,-4254.99,0.00100416,0.0570628,0,0.0570716,29078.6,-36680.5,0,46808.3,4254.99
step02_gravity_refstate-crust.xmf,850,-9.05504e-08,3.51496e-06,0,-1.15034e-08,-1.05161e+09,-1.05136e+09,-1.0516e+09,-789.133,0.000434978,0.0508834,0,0.0508852,31965.4,-38289.9,0,49878.9,789.133
step02_gravity_refstate-crust.xmf,851,-1.91877e-07,3.28246e-06,0,-1.37394e-07,-9.62314e+08,-9.62076e+08,-9.62301e+08,-9425.25,0.00168641,0.0634553,0,0.0634777,26295.3,-35038.3,0,43807.8,9425.25
step02_gravity_refstate-crust.xmf,852,-2.14538e-07,3.30199e-06,0,-1.79829e-07,-9.6486e+08,-9.64619e+08,-9.64846e+08,-12336.3,0.00205419,0.0639359,0,0.0639689,24427.2,-35130.9,0,42788.7,12336.3
step02_gravity_refstate-crust.xmf,853,-2.34201e-07,3.3112e-06,0,-2.32852e-07,-9.66292e+08,-9.66048e+08,-9.66276e+08,-15973.7,0.00246826,0.0647104,0,0.0647575,22556.1,-35183,0,41792.6,15973.7
step02_gravity_refstate-crust.xmf,854,-2.44018e-07,3.29059e-06,0,-2.97027e-07,-9.62997e+08,-9.62754e+08,-9.6298e+08,-20376,0.00291481,0.0662028,0,0.066267,20730.4,-35063,0,40732.8,20376
step02_gravity_refstate-crust.xmf,855,-2.40701e-07,3.24447e-06,0,-3.68919e-07,-9.57532e+08,-9.57293e+08,-9.57516e+08,-25307.9,0.00335948,0.0681064,0,0.0681892,18938.5,-34864,0,39675.7,25307.9
step02_gravity_refstate-crust.xmf,856,5.09501e-07,2.24943e-06,0,-7.09464e-07,-9.99376e+08,-9.99257e+08,-9.99411e+08,-48669.2,0.0038364,0.0785004,0,0.0785941,5249.32,-36388.8,0,36765.5,48669.2
step02_gravity_refstate-crust.xmf,857,4.11744e-07,2.31063e-06,0,-6.75838e-07,-9.71688e+08,-9.71558e+08,-9.71716e+08,-46362.5,0.0038528,0.0799987,0,0.0800914,6020.85,-35380.5,0,35889.2,46362.5
step02_gravity_refstate-crust.xmf,858,9.89523e-07,1.75523e-06,0,-4.12846e-07,-1.0543e+09,-1.05425e+09,-1.05437e+09,-28321.3,0.00192014,0.0775311,0,0.0775548,1842.08,-38389.6,0,38433.8,28321.3
step02_gravity_refstate-crust.xmf,859,7.48377e-07,1.9979e-06,0,-6.04722e-07,-1.02521e+09,-1.02513e+09,-1.02526e+09,-41484,0.00301602,0.0782985,0,0.0783566,3436.47,-37330,0,37487.9,41484
step02_gravity_refstate-crust.xmf,860,1.12317e-06,1.62508e-06,0,-3.88525e-07,-1.07699e+09,-1.07695e+09,-1.07706e+09,-26652.8,0.00170214,0.0763514,0,0.0763703,1466.97,-39215.8,0,39243.2,26652.8
step02_gravity_refstate-crust.xmf,861,-1.18869e-07,3.5455e-06,0,-2.43297e-08,-1.05327e+09,-1.05301e+09,-1.05326e+09,-1669.02,0.000632249,0.051046,0,0.0510499,29951,-38350.2,0,48660,1669.02
step02_gravity_refstate-crust.xmf,862,-1.76702e-07,3.43097e-06,0,-9.12957e-08,-1.00741e+09,-1.00717e+09,-1.0074e+09,-6262.88,0.00131631,0.0576349,0,0.0576499,27151.1,-36680.5,0,45636,6262.88
step02_gravity_refstate-crust.xmf,863,-2.14548e-07,3.24047e-06,0,-5.71789e-07,-9.87688e+08,-9.87451e+08,-9.87673e+08,-39224.7,0.00440097,0.0683282,0,0.0684698,14693.3,-35961.9,0,38847.8,39224.7
step02_gravity_refstate-crust.xmf,864,-2.73599e-07,3.38889e-06,0,-4.04734e-07,-9.94248e+08,-9.93997e+08,-9.9423e+08,-27764.7,0.00358827,0.0644644,0,0.0645642,17941.9,-36200.7,0,40403,27764.7
step02_gravity_refstate-crust.xmf,865,-2.55741e-07,3.33169e-06,0,-4.89873e-07,-9.92057e+08,-9.91811e+08,-9.92039e+08,-33605.3,0.00403364,0.066223,0,0.0663457,16275.1,-36120.9,0,39618.2,33605.3
step02_gravity_refstate-crust.xmf,866,6.18192e-07,2.16457e-06,0,-7.29489e-07,-1.02397e+09,-1.02387e+09,-1.02402e+09,-50043,0.00376006,0.0772802,0,0.0773717,4547.5,-37284.6,0,37560.9,50043
step02_gravity_refstate-crust.xmf,867,2.81827e-07,2.49042e-06,0,-7.32388e-07,-9.73954e+08,-9.73803e+08,-9.73974e+08,-50241.8,0.00435294,0.0783191,0,0.07844,7387.96,-35462.8,0,36224.2,50241.8
step02_gravity_refstate-crust.xmf,868,1.50288e-07,2.67153e-06,0,-7.5486e-07,-9.75884e+08,-9.75711e+08,-9.75894e+08,-51783.4,0.00468137,0.0764614,0,0.0766046,8818.77,-35532.8,0,36610.8,51783.4
step02_gravity_refstate-crust.xmf,869,3.0571e-08,2.8423e-06,0,-7.43269e-07,-9.7827e+08,-9.78077e+08,-9.78272e+08,-50988.3,0.00483132,0.0744925,0,0.074649,10249.2,-35619.4,0,37064.7,50988.3
step02_gravity_refstate-crust.xmf,870,-7.34496e-08,2.99975e-06,0,-7.0427e-07,-9.81462e+08,-9.81251e+08,-9.81457e+08,-48312.9,0.00482302,0.0723868,0,0.0725473,11717.2,-35735.4,0,37607.4,48312.9
step02_gravity_refstate-crust.xmf,871,-1.5296e-07,3.12648e-06,0,-6.44188e-07,-9.83489e+08,-9.83264e+08,-9.83478e+08,-44191.3,0.00466648,0.0704698,0,0.0706241,13175.1,-35809.1,0,38156,44191.3
step02_gravity_refstate-crust.xmf,872,8.74623e-07,1.88837e-06,0,-6.14923e-07,-1.05143e+09,-1.05137e+09,-1.05149e+09,-42183.7,0.00289894,0.0768993,0,0.0769539,2919.8,-38285,0,38396.2,42183.7
step02_gravity_refstate-crust.xmf,873,-1.51151e-07,3.57074e-06,0,-4.56143e-08,-1.05268e+09,-1.05243e+09,-1.05267e+09,-3129.14,0.000899253,0.0516053,0,0.0516131,27985.3,-38328.9,0,47458.2,3129.14
step02_gravity_refstate-crust.xmf,874,-2.09309e-07,3.45891e-06,0,-1.29535e-07,-1.00908e+09,-1.00883e+09,-1.00906e+09,-8886.09,0.00167094,0.0581294,0,0.0581534,25257.9,-36741,0,44585.4,8886.09
step02_gravity_refstate-crust.xmf,875,-2.4072e-07,3.48293e-06,0,-1.78298e-07,-1.01097e+09,-1.01071e+09,-1.01095e+09,-12231.2,0.00208242,0.0587538,0,0.0587907,23368.7,-36809.8,0,43601.1,12231.2
step02_gravity_refstate-crust.xmf,876,-2.67591e-07,3.49872e-06,0,-2.42615e-07,-1.01318e+09,-1.01292e+09,-1.01316e+09,-16643.4,0.00257872,0.0595902,0,0.059646,21373,-36890.1,0,42634.3,16643.4
step02_gravity_refstate-crust.xmf,877,-2.76569e-07,3.4365e-06,0,-3.25274e-07,-9.99416e+08,-9.99162e+08,-9.99397e+08,-22313.8,0.00312123,0.0625294,0,0.0626073,19591.3,-36389,0,41327.7,22313.8
step02_gravity_refstate-crust.xmf,878,4.9821e-07,2.31769e-06,0,-8.08745e-07,-1.02282e+09,-1.0227e+09,-1.02286e+09,-55479.9,0.00428188,0.0762467,0,0.0763668,5513.03,-37242.5,0,37648.4,55479.9
step02_gravity_refstate-crust.xmf,879,3.66112e-07,2.44446e-06,0,-8.12601e-07,-1.00681e+09,-1.00667e+09,-1.00684e+09,-55744.4,0.00449769,0.0763772,0,0.0765095,6531.58,-36659.2,0,37236.6,55744.4
step02_gravity_refstate-crust.xmf,880,-2.35402e-07,3.33706e-06,0,-6.3833e-07,-1.01741e+09,-1.01717e+09,-1.0174e+09,-43789.4,0.00470997,0.0657577,0,0.0659261,13802.8,-37044.2,0,39532.1,43789.4
step02_gravity_refstate-crust.xmf,881,1.01043e-06,1.7632e-06,0,-6.10628e-07,-1.07581e+09,-1.07576e+09,-1.07588e+09,-41889.1,0.00274375,0.0756962,0,0.0757459,2451.76,-39172.7,0,39249.3,41889.1
step02_gravity_refstate-crust.xmf,882,7.29759e-07,2.06606e-06,0,-7.70994e-07,-1.04918e+09,-1.04909e+09,-1.04923e+09,-52890.2,0.00374106,0.0759411,0,0.0760332,4005.79,-38202.5,0,38411.9,52890.2
step02_gravity_refstate-crust.xmf,883,-1.87721e-07,3.60195e-06,0,-7.44888e-08,-1.05345e+09,-1.05319e+09,-1.05344e+09,-5109.93,0.00120991,0.052093,0,0.0521071,26119.3,-38356.7,0,46405.3,5109.93
step02_gravity_refstate-crust.xmf,884,-3.12508e-07,3.57282e-06,0,-3.54053e-07,-1.03185e+09,-1.03159e+09,-1.03183e+09,-24288,0.00330286,0.0591507,0,0.0592428,18605.9,-37569.9,0,41924.7,24288
step02_gravity_refstate-crust.xmf,885,-2.97946e-07,3.48071e-06,0,-5.50063e-07,-1.02999e+09,-1.02973e+09,-1.02997e+09,-37734.3,0.00432918,0.062485,0,0.0626347,15320.9,-37502.1,0,40511,37734.3
step02_gravity_refstate-crust.xmf,886,-3.13556e-07,3.53606e-06,0,-4.43573e-07,-1.02963e+09,-1.02936e+09,-1.0296e+09,-30429.1,0.00380761,0.0608242,0,0.0609433,17019.1,-37488.8,0,41171,30429.1
step02_gravity_refstate-crust.xmf,887,5.73755e-07,2.26793e-06,0,-8.69107e-07,-1.04613e+09,-1.04602e+09,-1.04617e+09,-59620.7,0.00439516,0.0748493,0,0.0749783,5081.06,-38091.4,0,38428.8,59620.7
step02_gravity_refstate-crust.xmf,888,2.01224e-07,2.67305e-06,0,-8.38691e-07,-1.0066e+09,-1.00643e+09,-1.00661e+09,-57534.2,0.00492126,0.0744454,0,0.0746079,8044.63,-36651.2,0,37523.7,57534.2
step02_gravity_refstate-crust.xmf,889,5.7625e-08,2.8747e-06,0,-8.31231e-07,-1.00898e+09,-1.00879e+09,-1.00899e+09,-57022.4,0.00512704,0.0723096,0,0.0724912,9456.25,-36737.7,0,37935.2,57022.4
step02_gravity_refstate-crust.xmf,890,-6.59389e-08,3.05634e-06,0,-7.88048e-07,-1.01125e+09,-1.01104e+09,-1.01125e+09,-54060.1,0.00513826,0.0701311,0,0.070319,10897.3,-36820.1,0,38398.8,54060.1
step02_gravity_refstate-crust.xmf,891,-1.63825e-07,3.21109e-06,0,-7.20721e-07,-1.01411e+09,-1.01388e+09,-1.0141e+09,-49441.5,0.00498752,0.06792,0,0.0681029,12351.5,-36924,0,38935.1,49441.5
step02_gravity_refstate-crust.xmf,892,8.62144e-07,1.94306e-06,0,-8.11226e-07,-1.07479e+09,-1.07471e+09,-1.07485e+09,-55650.1,0.00370952,0.0746615,0,0.0747536,3495.03,-39135.2,0,39291,55650.1
step02_gravity_refstate-crust.xmf,893,-2.29192e-07,3.63534e-06,0,-1.1553e-07,-1.05436e+09,-1.0541e+09,-1.05435e+09,-7925.35,0.00158671,0.0527036,0,0.0527275,24269.1,-38389.8,0,45417.7,7925.35
step02_gravity_refstate-crust.xmf,894,-2.67065e-07,3.66026e-06,0,-1.67131e-07,-1.05476e+09,-1.05449e+09,-1.05474e+09,-11465.2,0.0020147,0.0535048,0,0.0535427,22517.7,-38404,0,44518.8,11465.2
step02_gravity_refstate-crust.xmf,895,-3.02097e-07,3.5921e-06,0,-2.85549e-07,-1.03454e+09,-1.03428e+09,-1.03452e+09,-19588.7,0.00287362,0.0577665,0,0.0578379,19964.7,-37667.9,0,42631.6,19588.7
step02_gravity_refstate-crust.xmf,896,-3.03143e-07,3.51488e-06,0,-6.19483e-07,-1.04586e+09,-1.0456e+09,-1.04584e+09,-42496.5,0.00465878,0.0616399,0,0.0618157,14284.5,-38079.8,0,40670.9,42496.5
step02_gravity_refstate-crust.xmf,897,4.16399e-07,2.45612e-06,0,-9.05917e-07,-1.03783e+09,-1.03769e+09,-1.03786e+09,-62145.9,0.00479648,0.0741011,0,0.0742562,6155.67,-37788.6,0,38286.7,62145.9
step02_gravity_refstate-crust.xmf,898,-2.53081e-07,3.41686e-06,0,-7.10963e-07,-1.04334e+09,-1.04308e+09,-1.04332e+09,-48772.1,0.00501411,0.0635739,0,0.0637713,12991.6,-37988,0,40148.1,48772.1
step02_gravity_refstate-crust.xmf,899,6.82033e-07,2.16735e-06,0,-9.52399e-07,-1.07305e+09,-1.07295e+09,-1.0731e+09,-65334.5,0.00450428,0.0733844,0,0.0735225,4560.46,-39071.5,0,39336.8,65334.5
step02_gravity_refstate-crust.xmf,900,-3.01675e-07,3.70214e-06,0,-2.20598e-07,-1.06148e+09,-1.06121e+09,-1.06146e+09,-15133,0.00243276,0.0535749,0,0.0536301,20867.8,-38648.8,0,43922.6,15133
step02_gravity_refstate-crust.xmf,901,-3.34566e-07,3.72802e-06,0,-2.90847e-07,-1.06511e+09,-1.06483e+09,-1.06508e+09,-19952.1,0.00290291,0.0541761,0,0.0542538,19310.1,-38780.7,0,43322.4,19952.1
step02_gravity_refstate-crust.xmf,902,-3.5476e-07,3.72065e-06,0,-3.76734e-07,-1.06474e+09,-1.06446e+09,-1.06472e+09,-25843.9,0.00342875,0.0554791,0,0.0555849,17790.9,-38767.3,0,42654.6,25843.9
step02_gravity_refstate-crust.xmf,903,-3.62194e-07,3.69705e-06,0,-4.73308e-07,-1.06498e+09,-1.0647e+09,-1.06496e+09,-32468.9,0.00395808,0.0568628,0,0.0570004,16314.5,-38776,0,42068.3,32468.9
step02_gravity_refstate-crust.xmf,904,-3.56524e-07,3.66499e-06,0,-5.70661e-07,-1.06723e+09,-1.06695e+09,-1.0672e+09,-39147.3,0.00443871,0.0580364,0,0.0582059,14970.3,-38857.7,0,41641.7,39147.3
step02_gravity_refstate-crust.xmf,905,2.54628e-07,2.65269e-06,0,-9.353e-07,-1.03505e+09,-1.03489e+09,-1.03507e+09,-64161.6,0.00515481,0.0726486,0,0.0728312,7350.59,-37687.2,0,38397.4,64161.6
step02_gravity_refstate-crust.xmf,906,4.75575e-07,2.43287e-06,0,-1.02372e-06,-1.06915e+09,-1.06902e+09,-1.06919e+09,-70227.3,0.00512854,0.0719023,0,0.072085,5757.39,-38929.3,0,39352.7,70227.3
step02_gravity_refstate-crust.xmf,907,8.83692e-08,2.89044e-06,0,-9.30611e-07,-1.03855e+09,-1.03836e+09,-1.03856e+09,-63839.9,0.00543412,0.0702831,0,0.0704929,8700.85,-37814.5,0,38802.6,63839.9
step02_gravity_refstate-crust.xmf,908,-5.6042e-08,3.10776e-06,0,-9.02544e-07,-1.04386e+09,-1.04364e+09,-1.04385e+09,-61914.5,0.00551524,0.0676915,0,0.0679158,10032.9,-38007.2,0,39309.1,61914.5
step02_gravity_refstate-crust.xmf,909,-1.70586e-07,3.27689e-06,0,-8.04122e-07,-1.04082e+09,-1.04058e+09,-1.04081e+09,-55162.8,0.00530487,0.0657969,0,0.0660104,11576.8,-37896.5,0,39625.3,55162.8
step02_gravity_refstate-crust.xmf,910,-3.32026e-07,3.60585e-06,0,-6.76263e-07,-1.06885e+09,-1.06858e+09,-1.06883e+09,-46391.6,0.00489959,0.0594612,0,0.0596627,13643.9,-38916.8,0,41239.2,46391.6
step02_gravity_refstate-crust.xmf,911,3.23745e-07,2.6072e-06,0,-1.00192e-06,-1.05514e+09,-1.05498e+09,-1.05516e+09,-68732,0.00528752,0.0716339,0,0.0718288,6746.96,-38418.6,0,39006.6,68732
step02_gravity_refstate-crust.xmf,912,-2.81915e-07,3.51326e-06,0,-7.8627e-07,-1.07013e+09,-1.06987e+09,-1.07011e+09,-53938.1,0.00531365,0.0611105,0,0.0613411,12324.4,-38963.3,0,40866,53938.1
step02_gravity_refstate-crust.xmf,913,1.79044e-07,2.82917e-06,0,-1.05339e-06,-1.06726e+09,-1.06708e+09,-1.06727e+09,-72262.4,0.0057105,0.0689276,0,0.0691637,7673.26,-38859.8,0,39610.1,72262.4
step02_gravity_refstate-crust.xmf,914,3.18992e-07,2.65472e-06,0,-1.09792e-06,-1.07672e+09,-1.07656e+09,-1.07674e+09,-75317.6,0.00562252,0.0696881,0,0.0699146,6672.77,-39204.4,0,39768.2,75317.6
step02_gravity_refstate-crust.xmf,915,1.66733e-08,3.05731e-06,0,-1.02884e-06,-1.07016e+09,-1.06995e+09,-1.07016e+09,-70578.5,0.00585939,0.0666321,0,0.0668893,8844.2,-38965.1,0,39956.2,70578.5
step02_gravity_refstate-crust.xmf,916,-2.01109e-07,3.37987e-06,0,-8.92794e-07,-1.07052e+09,-1.07027e+09,-1.0705e+09,-61245.6,0.00563677,0.0630231,0,0.0632747,11021.3,-38977.7,0,40505.9,61245.6
step02_gravity_refstate-crust.xmf,917,-1.22769e-07,3.26947e-06,0,-9.82919e-07,-1.07635e+09,-1.07611e+09,-1.07634e+09,-67428.3,0.00586748,0.0640361,0,0.0643043,9959.76,-39190,0,40435.8,67428.3
