Block Name,Point ID,cauchy_strain_0,cauchy_strain_1,cauchy_strain_2,cauchy_strain_3,cauchy_stress_0,cauchy_stress_1,cauchy_stress_2,cauchy_stress_3,displacement_0,displacement_1,displacement_2,displacement_Magnitude,Points_0,Points_1,Points_2,Points_Magnitude,stress_xy
step02_gravity_refstate-mantle.xmf,0,-4.80206e-07,1.47554e-06,0,7.14052e-10,-1.0987e+09,-1.09844e+09,-1.09864e+09,95.4331,-8.44231e-20,0.0412689,-0,0.0412689,40000,-40000,0,56568.5,95.4331
step02_gravity_refstate-mantle.xmf,1,-4.76229e-07,1.47012e-06,0,2.61163e-08,-1.0987e+09,-1.09844e+09,-1.09864e+09,3490.44,0.00113333,0.0410876,0,0.0411032,37630.7,-40000,0,54918.8,3490.44
step02_gravity_refstate-mantle.xmf,2,-5.47988e-07,1.57334e-06,0,1.56687e-08,-1.15208e+09,-1.1518e+09,-1.15201e+09,2094.13,0.000905363,0.0386705,0,0.0386811,38351.6,-41648.7,0,56616.7,2094.13
step02_gravity_refstate-mantle.xmf,3,-5.8198e-07,1.62284e-06,0,6.60489e-10,-1.17649e+09,-1.1762e+09,-1.17641e+09,88.2744,-1.1436e-19,0.0375473,-0,0.0375473,40000,-42402.6,0,58292.2,88.2744
step02_gravity_refstate-mantle.xmf,4,-4.6423e-07,1.45275e-06,0,5.20472e-08,-1.0987e+09,-1.09844e+09,-1.09864e+09,6956.11,0.0021942,0.0405727,0,0.040632,35375.6,-40000,0,53398.8,6956.11
step02_gravity_refstate-mantle.xmf,5,-5.56762e-07,1.5838e-06,0,3.53651e-08,-1.1642e+09,-1.16392e+09,-1.16413e+09,4726.54,0.00211397,0.0377318,0,0.037791,36241.6,-42023.2,0,55492.3,4726.54
step02_gravity_refstate-mantle.xmf,6,-6.28097e-07,1.69162e-06,0,1.6583e-08,-1.21512e+09,-1.21481e+09,-1.21503e+09,2216.32,0.0012097,0.0354631,0,0.0354838,38076.2,-43595.7,0,57882.4,2216.32
step02_gravity_refstate-mantle.xmf,7,-6.77918e-07,1.77052e-06,0,6.28818e-10,-1.25473e+09,-1.2544e+09,-1.25464e+09,84.0415,-1.35422e-19,0.0334473,-0,0.0334473,40000,-44819.1,0,60072.9,84.0415
step02_gravity_refstate-mantle.xmf,8,-4.46405e-07,1.42687e-06,0,7.86613e-08,-1.0987e+09,-1.09845e+09,-1.09864e+09,10513.1,0.00317247,0.0397589,0,0.0398852,33229,-40000,0,52001.6,10513.1
step02_gravity_refstate-mantle.xmf,9,-5.12823e-07,1.51805e-06,0,5.89084e-08,-1.13991e+09,-1.13964e+09,-1.13984e+09,7873.11,0.00298986,0.0383325,0,0.0384489,34324.9,-41272.7,0,53680.9,7873.11
step02_gravity_refstate-mantle.xmf,10,-7.16944e-07,1.83378e-06,0,1.53335e-08,-1.29151e+09,-1.29117e+09,-1.29141e+09,2049.32,0.00142309,0.0312978,0,0.0313301,38017.1,-45955.1,0,59642,2049.32
step02_gravity_refstate-mantle.xmf,11,-5.10315e-07,1.50908e-06,0,7.92648e-08,-1.1485e+09,-1.14823e+09,-1.14843e+09,10593.7,0.0039739,0.0371829,0,0.0373946,32548.1,-41538,0,52771.1,10593.7
step02_gravity_refstate-mantle.xmf,12,-5.82464e-07,1.61646e-06,0,5.3251e-08,-1.19236e+09,-1.19206e+09,-1.19228e+09,7117,0.00339543,0.0357827,0,0.0359435,34291.5,-42892.6,0,54915.3,7117
step02_gravity_refstate-mantle.xmf,13,-6.64116e-07,1.74517e-06,0,3.39732e-08,-1.25169e+09,-1.25137e+09,-1.2516e+09,4540.52,0.0027831,0.0331458,0,0.0332624,35846.8,-44725.4,0,57318,4540.52
step02_gravity_refstate-mantle.xmf,14,-7.63956e-07,1.91657e-06,0,8.90744e-10,-1.33363e+09,-1.33327e+09,-1.33352e+09,119.048,-1.66942e-19,0.0289549,-0,0.0289549,40000,-47256,0,61912.3,119.048
step02_gravity_refstate-mantle.xmf,15,-4.25942e-07,1.39281e-06,0,1.08815e-07,-1.0987e+09,-1.09845e+09,-1.09864e+09,14543.1,0.00406295,0.0386704,0,0.0388833,31185.8,-40000,0,50720.4,14543.1
step02_gravity_refstate-mantle.xmf,16,-7.42918e-07,1.87415e-06,0,2.7725e-08,-1.32014e+09,-1.31979e+09,-1.32004e+09,3705.45,0.002707,0.0294287,0,0.0295529,36372.5,-46839.5,0,59303.4,3705.45
step02_gravity_refstate-mantle.xmf,17,-7.99714e-07,1.98154e-06,0,1.63333e-08,-1.37343e+09,-1.37305e+09,-1.37332e+09,2182.94,0.00174656,0.026451,0,0.0265086,37816,-48485.4,0,61488.9,2182.94
step02_gravity_refstate-mantle.xmf,18,-4.01803e-07,1.35266e-06,0,1.41748e-07,-1.09869e+09,-1.09846e+09,-1.09864e+09,18944.6,0.00486503,0.0373253,0,0.0376411,29241,-40000,0,49548.3,18944.6
step02_gravity_refstate-mantle.xmf,19,-4.93523e-07,1.46988e-06,0,1.14041e-07,-1.15152e+09,-1.15126e+09,-1.15145e+09,15241.6,0.00517847,0.0357188,0,0.0360922,30213.4,-41631.4,0,51439.5,15241.6
step02_gravity_refstate-mantle.xmf,20,-5.84311e-07,1.60726e-06,0,8.10013e-08,-1.20754e+09,-1.20725e+09,-1.20746e+09,10825.8,0.00487025,0.0340707,0,0.034417,31988.2,-43361.6,0,53883.9,10825.8
step02_gravity_refstate-mantle.xmf,21,-6.58166e-07,1.72582e-06,0,5.94294e-08,-1.25923e+09,-1.25891e+09,-1.25915e+09,7942.74,0.00443399,0.032023,0,0.0323285,33420.9,-44958.3,0,56019.6,7942.74
step02_gravity_refstate-mantle.xmf,22,-7.27478e-07,1.84507e-06,0,4.43679e-08,-1.31603e+09,-1.31568e+09,-1.31593e+09,5929.77,0.00400072,0.029264,0,0.0295362,34584.9,-46712.4,0,58122,5929.77
step02_gravity_refstate-mantle.xmf,23,-8.36869e-07,2.05959e-06,0,9.24549e-10,-1.41341e+09,-1.41303e+09,-1.4133e+09,123.566,-1.65384e-19,0.0240553,-0,0.0240553,40000,-49720.5,0,63813.3,123.566
step02_gravity_refstate-mantle.xmf,24,-3.47166e-07,1.25911e-06,0,2.19011e-07,-1.09869e+09,-1.09848e+09,-1.09864e+09,29270.8,0.00621713,0.0339111,0,0.0344763,25627.4,-40000,0,47505.4,29270.8
step02_gravity_refstate-mantle.xmf,25,-4.42434e-07,1.36817e-06,0,1.92767e-07,-1.14887e+09,-1.14863e+09,-1.14881e+09,25763.3,0.00689008,0.0327594,0,0.0334761,26460,-41549.8,0,49259.7,25763.3
step02_gravity_refstate-mantle.xmf,26,-4.08603e-07,1.30461e-06,0,2.39787e-07,-1.14143e+09,-1.1412e+09,-1.14138e+09,32047.5,0.00746379,0.0312155,0,0.0320954,24758.1,-41320,0,48169.6,32047.5
step02_gravity_refstate-mantle.xmf,27,-3.75752e-07,1.30723e-06,0,1.78868e-07,-1.09869e+09,-1.09847e+09,-1.09864e+09,23905.7,0.00558143,0.0357358,0,0.036169,27389.7,-40000,0,48478.8,23905.7
step02_gravity_refstate-mantle.xmf,28,-4.75488e-07,1.42985e-06,0,1.52184e-07,-1.15564e+09,-1.15539e+09,-1.15558e+09,20339.4,0.006206,0.0340539,0,0.0346148,28208.9,-41758.9,0,50393.9,20339.4
step02_gravity_refstate-mantle.xmf,29,-7.92089e-07,1.96392e-06,0,3.14842e-08,-1.37372e+09,-1.37335e+09,-1.37361e+09,4207.86,0.00327653,0.0261666,0,0.0263709,35890.2,-48494.4,0,60330.9,4207.86
step02_gravity_refstate-mantle.xmf,30,-8.6617e-07,2.12714e-06,0,1.37266e-08,-1.45598e+09,-1.45558e+09,-1.45586e+09,1834.57,0.00172329,0.0212293,0,0.0212991,38011.5,-51035.3,0,63635.5,1834.57
step02_gravity_refstate-mantle.xmf,31,-3.22214e-07,1.20686e-06,0,2.66358e-07,-1.09869e+09,-1.09849e+09,-1.09865e+09,35598.8,0.00677935,0.0318576,0,0.032571,23949.7,-40000,0,46621.8,35598.8
step02_gravity_refstate-mantle.xmf,32,-4.72601e-07,1.3837e-06,0,2.19196e-07,-1.17679e+09,-1.17654e+09,-1.17672e+09,29295.6,0.00785818,0.0305906,0,0.0315838,25506.3,-42411.8,0,49490.8,29295.6
step02_gravity_refstate-mantle.xmf,33,-5.28194e-07,1.50674e-06,0,1.29801e-07,-1.18497e+09,-1.1847e+09,-1.1849e+09,17347.9,0.00613248,0.0335102,0,0.0340667,29233,-42664.7,0,51718.9,17347.9
step02_gravity_refstate-mantle.xmf,34,-5.78074e-07,1.58084e-06,0,1.1021e-07,-1.21453e+09,-1.21424e+09,-1.21445e+09,14729.6,0.00599589,0.0327307,0,0.0332754,30181.4,-43577.5,0,53008.6,14729.6
step02_gravity_refstate-mantle.xmf,35,-6.49162e-07,1.69813e-06,0,8.76884e-08,-1.26709e+09,-1.26678e+09,-1.267e+09,11719.6,0.00588193,0.0306981,0,0.0312565,31310.7,-45201,0,54986.3,11719.6
step02_gravity_refstate-mantle.xmf,36,-7.16121e-07,1.81565e-06,0,6.85108e-08,-1.32069e+09,-1.32036e+09,-1.3206e+09,9156.47,0.00553425,0.0283172,0,0.028853,32503.1,-46856.6,0,57026.3,9156.47
step02_gravity_refstate-mantle.xmf,37,-7.77503e-07,1.9345e-06,0,5.16707e-08,-1.3766e+09,-1.37624e+09,-1.3765e+09,6905.79,0.0050241,0.025476,0,0.0259667,33678.5,-48583.5,0,59115.1,6905.79
step02_gravity_refstate-mantle.xmf,38,-8.35363e-07,2.05938e-06,0,2.40721e-08,-1.42522e+09,-1.42483e+09,-1.42511e+09,3217.24,0.00300887,0.0230527,0,0.0232482,36424.7,-50085.2,0,61929.7,3217.24
step02_gravity_refstate-mantle.xmf,39,-8.94735e-07,2.19983e-06,0,1.23809e-09,-1.49433e+09,-1.49391e+09,-1.49421e+09,165.471,-1.88996e-19,0.0187327,-0,0.0187327,40000,-52219.9,0,65779.3,165.471
step02_gravity_refstate-mantle.xmf,40,-3.83784e-07,1.24387e-06,0,2.9404e-07,-1.139e+09,-1.13878e+09,-1.13895e+09,39298.4,0.00805091,0.0292311,0,0.0303196,23134.6,-41244.9,0,47290,39298.4
step02_gravity_refstate-mantle.xmf,41,-4.51206e-07,1.32847e-06,0,2.69479e-07,-1.17679e+09,-1.17656e+09,-1.17673e+09,36015.9,0.00859194,0.0287579,0,0.030014,23916,-42412.1,0,48690.5,36015.9
step02_gravity_refstate-mantle.xmf,42,-5.21779e-07,1.45701e-06,0,1.93573e-07,-1.20392e+09,-1.20366e+09,-1.20385e+09,25871,0.00788783,0.0303444,0,0.0313528,26447,-43250,0,50695.2,25871
step02_gravity_refstate-mantle.xmf,43,-5.62974e-07,1.5389e-06,0,1.46654e-07,-1.2182e+09,-1.21792e+09,-1.21813e+09,19600.3,0.00709705,0.0312821,0,0.0320771,28328.4,-43690.9,0,52071.1,19600.3
step02_gravity_refstate-mantle.xmf,44,-8.31694e-07,2.04763e-06,0,3.95859e-08,-1.43313e+09,-1.43274e+09,-1.43302e+09,5290.66,0.00448746,0.0222486,0,0.0226966,34681.7,-50329.5,0,61121.8,5290.66
step02_gravity_refstate-mantle.xmf,45,-8.80372e-07,2.16675e-06,0,2.84571e-08,-1.4943e+09,-1.49389e+09,-1.49418e+09,3803.29,0.00381003,0.018444,0,0.0188334,35708.3,-52219.1,0,63260.7,3803.29
step02_gravity_refstate-mantle.xmf,46,-9.13782e-07,2.25966e-06,0,1.22796e-08,-1.53486e+09,-1.53443e+09,-1.53473e+09,1641.17,0.00196094,0.0158748,0,0.0159954,37855.3,-53471.9,0,65515.4,1641.17
step02_gravity_refstate-mantle.xmf,47,-9.36681e-07,2.33764e-06,0,1.23012e-09,-1.5766e+09,-1.57616e+09,-1.57647e+09,164.405,-1.91768e-19,0.0129666,-0,0.0129666,40000,-54761.4,0,67814.5,164.405
step02_gravity_refstate-mantle.xmf,48,-2.9962e-07,1.15187e-06,0,3.20362e-07,-1.09869e+09,-1.0985e+09,-1.09865e+09,42816.4,0.00727667,0.0295802,0,0.030462,22352.7,-40000,0,45821.8,42816.4
step02_gravity_refstate-mantle.xmf,49,-5.07183e-07,1.40519e-06,0,2.45459e-07,-1.20969e+09,-1.20943e+09,-1.20962e+09,32805.7,0.00886195,0.02835,0,0.0297028,24748.8,-43427.9,0,49984.9,32805.7
step02_gravity_refstate-mantle.xmf,50,-6.35383e-07,1.65386e-06,0,1.23874e-07,-1.27154e+09,-1.27123e+09,-1.27145e+09,16555.7,0.00719239,0.0293588,0,0.030227,29342.2,-45338.3,0,54004.9,16555.7
step02_gravity_refstate-mantle.xmf,51,-6.98888e-07,1.77232e-06,0,9.93853e-08,-1.32503e+09,-1.3247e+09,-1.32494e+09,13282.8,0.00702022,0.0271643,0,0.0280568,30455.3,-46990.6,0,55996.8,13282.8
step02_gravity_refstate-mantle.xmf,52,-7.59032e-07,1.89142e-06,0,7.80933e-08,-1.38004e+09,-1.37969e+09,-1.37994e+09,10437.2,0.00665003,0.0245654,0,0.0254496,31590.9,-48689.7,0,58040.3,10437.2
step02_gravity_refstate-mantle.xmf,53,-8.11443e-07,2.00701e-06,0,5.91893e-08,-1.43432e+09,-1.43394e+09,-1.43421e+09,7910.65,0.00612167,0.0216786,0,0.0225264,32697.4,-50366.2,0,60049,7910.65
step02_gravity_refstate-mantle.xmf,54,-9.47328e-07,2.39524e-06,0,8.52019e-09,-1.61671e+09,-1.61627e+09,-1.61659e+09,1138.72,0.00198287,0.00999277,0,0.0101876,37907.9,-56000.6,0,67624.5,1138.72
step02_gravity_refstate-mantle.xmf,55,-9.61563e-07,2.47401e-06,0,6.35104e-10,-1.66047e+09,-1.66001e+09,-1.66034e+09,84.8817,-1.78342e-19,0.00673252,-0,0.00673252,40000,-57352.3,0,69923.4,84.8817
step02_gravity_refstate-mantle.xmf,56,-3.65595e-07,1.18316e-06,0,3.57722e-07,-1.13921e+09,-1.13901e+09,-1.13916e+09,47809.6,0.0086425,0.0268967,0,0.0282511,21569.7,-41251.4,0,46550.3,47809.6
step02_gravity_refstate-mantle.xmf,57,-4.34359e-07,1.26796e-06,0,3.31917e-07,-1.17876e+09,-1.17853e+09,-1.1787e+09,44360.8,0.00932762,0.0265928,0,0.0281813,22355,-42472.8,0,47996.7,44360.8
step02_gravity_refstate-mantle.xmf,58,-4.91555e-07,1.34996e-06,0,3.04485e-07,-1.21692e+09,-1.21668e+09,-1.21686e+09,40694.4,0.00979442,0.0261537,0,0.0279275,23165.9,-43651.5,0,49417.7,40694.4
step02_gravity_refstate-mantle.xmf,59,-5.56521e-07,1.48371e-06,0,2.22145e-07,-1.24612e+09,-1.24585e+09,-1.24605e+09,29689.7,0.00912007,0.0275048,0,0.0289774,25492.5,-44553.3,0,51331,29689.7
step02_gravity_refstate-mantle.xmf,60,-6.04498e-07,1.58045e-06,0,1.75499e-07,-1.27089e+09,-1.2706e+09,-1.27081e+09,23455.4,0.00858975,0.027752,0,0.0290509,27068.7,-45318.3,0,52786.9,23455.4
step02_gravity_refstate-mantle.xmf,61,-8.51894e-07,2.10589e-06,0,4.52647e-08,-1.4819e+09,-1.48151e+09,-1.48179e+09,6049.63,0.00552259,0.0189066,0,0.0196967,33682.4,-51836.2,0,61818.2,6049.63
step02_gravity_refstate-mantle.xmf,62,-9.21091e-07,2.30874e-06,0,1.96422e-08,-1.58011e+09,-1.57967e+09,-1.57998e+09,2625.19,0.00387384,0.0125273,0,0.0131126,35837.7,-54869.7,0,65536.5,2625.19
step02_gravity_refstate-mantle.xmf,63,-9.61109e-07,2.50633e-06,0,2.29986e-09,-1.68456e+09,-1.6841e+09,-1.68443e+09,307.377,0.00183808,0.00486193,0,0.00519778,38092.5,-58096.6,0,69471.2,307.377
step02_gravity_refstate-mantle.xmf,64,-9.71151e-07,2.61491e-06,0,3.80369e-10,-1.74617e+09,-1.74569e+09,-1.74604e+09,50.8363,7.86274e-19,-4.74947e-19,0,9.18587e-19,40000,-60000,0,72111,50.8363
step02_gravity_refstate-mantle.xmf,65,-2.53519e-07,7.41487e-07,0,8.54763e-07,-1.09871e+09,-1.09858e+09,-1.09868e+09,114239,0.00940135,0.0113624,0,0.0147475,14255.3,-40000,0,42464.3,114239
step02_gravity_refstate-mantle.xmf,66,-2.57496e-07,6.47727e-07,0,9.9064e-07,-1.09872e+09,-1.0986e+09,-1.09869e+09,132399,0.00968227,0.00758654,0,0.0123005,13122.5,-40000,0,42097.5,132399
step02_gravity_refstate-mantle.xmf,67,-3.01657e-07,6.87803e-07,0,9.75588e-07,-1.12893e+09,-1.12879e+09,-1.12889e+09,130387,0.0108581,0.00877039,0,0.0139577,13656.1,-40932.8,0,43150.7,130387
step02_gravity_refstate-mantle.xmf,68,-2.51855e-07,8.2439e-07,0,7.35132e-07,-1.09871e+09,-1.09856e+09,-1.09867e+09,98250.4,0.009109,0.0149304,0,0.0174897,15444.9,-40000,0,42878.2,98250.4
step02_gravity_refstate-mantle.xmf,69,-3.08693e-07,7.92602e-07,0,8.37401e-07,-1.13073e+09,-1.13058e+09,-1.13069e+09,111919,0.0105732,0.0124196,0,0.0163107,14851.5,-40988.8,0,43596.4,111919
step02_gravity_refstate-mantle.xmf,70,-2.53654e-07,8.9909e-07,0,6.29753e-07,-1.0987e+09,-1.09855e+09,-1.09867e+09,84166.5,0.00880104,0.0182883,0,0.0202958,16694.2,-40000,0,43343.9,84166.5
step02_gravity_refstate-mantle.xmf,71,-3.15446e-07,8.84878e-07,0,7.15609e-07,-1.13224e+09,-1.13208e+09,-1.1322e+09,95641.2,0.0102561,0.0157683,0,0.0188102,16075.5,-41035.6,0,44072,95641.2
step02_gravity_refstate-mantle.xmf,72,-2.59661e-07,9.67579e-07,0,5.3744e-07,-1.0987e+09,-1.09853e+09,-1.09866e+09,71828.9,0.00847179,0.021434,0,0.0230475,18006.4,-40000,0,43866,71828.9
step02_gravity_refstate-mantle.xmf,73,-3.21102e-07,9.65902e-07,0,6.0802e-07,-1.13304e+09,-1.13286e+09,-1.13299e+09,81261.9,0.0098827,0.0189207,0,0.0213462,17359,-41060.3,0,44579,81261.9
step02_gravity_refstate-mantle.xmf,74,-2.85194e-07,1.09253e-06,0,3.85053e-07,-1.09869e+09,-1.09851e+09,-1.09865e+09,51462.4,0.00771819,0.0270821,0,0.0281605,20832.2,-40000,0,45099.7,51462.4
step02_gravity_refstate-mantle.xmf,75,-2.70329e-07,1.03169e-06,0,4.56302e-07,-1.09869e+09,-1.09852e+09,-1.09866e+09,60984.8,0.00811359,0.024366,0,0.0256814,19384.6,-40000,0,44449.6,60984.8
step02_gravity_refstate-mantle.xmf,76,-3.54218e-07,1.11434e-06,0,4.36148e-07,-1.13898e+09,-1.13878e+09,-1.13893e+09,58291.1,0.00917491,0.0243256,0,0.0259984,20060.5,-41244.1,0,45864,58291.1
step02_gravity_refstate-mantle.xmf,77,-3.35298e-07,1.04213e-06,0,5.16571e-07,-1.13642e+09,-1.13624e+09,-1.13638e+09,69039.7,0.00956154,0.0217547,0,0.0237632,18695.5,-41165,0,45211.5,69039.7
step02_gravity_refstate-mantle.xmf,78,-5.43929e-07,1.43292e-06,0,2.74875e-07,-1.25421e+09,-1.25395e+09,-1.25414e+09,36737,0.0100477,0.0256253,0,0.0275248,24057.7,-44803.2,0,50853.7,36737
step02_gravity_refstate-mantle.xmf,79,-6.76721e-07,1.711e-06,0,1.42154e-07,-1.32866e+09,-1.32834e+09,-1.32857e+09,18998.9,0.00846873,0.0257885,0,0.0271434,28400.9,-47102.8,0,55002.6,18998.9
step02_gravity_refstate-mantle.xmf,80,-7.33832e-07,1.83354e-06,0,1.11774e-07,-1.38316e+09,-1.38282e+09,-1.38307e+09,14938.7,0.00818459,0.0234784,0,0.0248641,29568.4,-48786.2,0,57047.2,14938.7
step02_gravity_refstate-mantle.xmf,81,-7.86983e-07,1.95496e-06,0,8.59129e-08,-1.43895e+09,-1.43858e+09,-1.43885e+09,11482.3,0.00776071,0.0207127,0,0.0221189,30681.3,-50509.5,0,59097.8,11482.3
step02_gravity_refstate-mantle.xmf,82,-8.35892e-07,2.07938e-06,0,6.13201e-08,-1.49519e+09,-1.4948e+09,-1.49508e+09,8195.43,0.00710416,0.0176036,0,0.018983,31876.1,-52246.7,0,61203,8195.43
step02_gravity_refstate-mantle.xmf,83,-8.83763e-07,2.21163e-06,0,3.73078e-08,-1.54917e+09,-1.54875e+09,-1.54905e+09,4986.19,0.00592401,0.0143849,0,0.015557,33486.5,-53914.1,0,63467.1,4986.19
step02_gravity_refstate-mantle.xmf,84,-9.45578e-07,2.45188e-06,0,9.12708e-09,-1.66731e+09,-1.66685e+09,-1.66718e+09,1219.83,0.00389177,0.00612269,0,0.00725487,35929.2,-57563.6,0,67856.3,1219.83
step02_gravity_refstate-mantle.xmf,85,-9.63227e-07,2.59829e-06,0,7.70001e-10,-1.74617e+09,-1.7457e+09,-1.74604e+09,102.911,0.00257348,-5.99861e-19,0,0.00257348,37337.5,-60000,0,70668.9,102.911
step02_gravity_refstate-mantle.xmf,86,-2.61169e-07,5.37581e-07,0,1.14339e-06,-1.09873e+09,-1.09863e+09,-1.0987e+09,152814,0.00995283,0.00360525,0,0.0105857,12043.8,-40000,0,41773.8,152814
step02_gravity_refstate-mantle.xmf,87,-2.95111e-07,5.63551e-07,0,1.13677e-06,-1.12723e+09,-1.12711e+09,-1.12719e+09,151929,0.011129,0.00477135,0,0.0121087,12483.2,-40880,0,42743.5,151929
step02_gravity_refstate-mantle.xmf,88,-2.59988e-07,4.06475e-07,0,1.31567e-06,-1.09874e+09,-1.09865e+09,-1.09871e+09,175840,0.0102139,-0.000577606,0,0.0102302,11016.2,-40000,0,41489.2,175840
step02_gravity_refstate-mantle.xmf,89,-2.84307e-07,4.21047e-07,0,1.31405e-06,-1.12461e+09,-1.12451e+09,-1.12457e+09,175623,0.0113269,0.000609647,0,0.0113433,11382.2,-40798.8,0,42356.8,175623
step02_gravity_refstate-mantle.xmf,90,-4.17673e-07,1.19642e-06,0,4.10195e-07,-1.18084e+09,-1.18063e+09,-1.18079e+09,54822.5,0.0100561,0.0240614,0,0.0260783,20765,-42537,0,47334.8,54822.5
step02_gravity_refstate-mantle.xmf,91,-4.71246e-07,1.27585e-06,0,3.7958e-07,-1.21978e+09,-1.21955e+09,-1.21972e+09,50730.8,0.0106196,0.0238527,0,0.0261099,21578.6,-43739.7,0,48772.9,50730.8
step02_gravity_refstate-mantle.xmf,92,-5.1915e-07,1.35957e-06,0,3.43734e-07,-1.25955e+09,-1.2593e+09,-1.25948e+09,45940.1,0.0109977,0.0234503,0,0.025901,22451.9,-44968,0,50261.4,45940.1
step02_gravity_refstate-mantle.xmf,93,-5.93576e-07,1.52816e-06,0,2.36076e-07,-1.2919e+09,-1.29162e+09,-1.29182e+09,31551.5,0.0100526,0.0250326,0,0.0269756,25140.4,-45967.2,0,52393,31551.5
step02_gravity_refstate-mantle.xmf,94,-6.46163e-07,1.63927e-06,0,1.93265e-07,-1.33493e+09,-1.33462e+09,-1.33484e+09,25829.9,0.00987416,0.0240198,0,0.0259702,26384.8,-47296.4,0,54158.1,25829.9
step02_gravity_refstate-mantle.xmf,95,-9.14339e-07,2.33598e-06,0,2.21889e-08,-1.61849e+09,-1.61806e+09,-1.61837e+09,2965.55,0.00548362,0.00960921,0,0.0110638,34154.8,-56055.7,0,65641.4,2965.55
step02_gravity_refstate-mantle.xmf,96,-2.5507e-07,2.52071e-07,0,1.50546e-06,-1.09875e+09,-1.09869e+09,-1.09872e+09,201205,0.0104599,-0.00495629,0,0.0115747,10037.4,-40000,0,41240.1,201205
step02_gravity_refstate-mantle.xmf,97,-2.61316e-07,2.87472e-07,0,1.46358e-06,-1.11913e+09,-1.11906e+09,-1.1191e+09,195608,0.0113198,-0.0029765,0,0.0117046,10512.1,-40629.5,0,41967.4,195608
step02_gravity_refstate-mantle.xmf,98,-3.08457e-07,5.87938e-07,0,1.11486e-06,-1.15689e+09,-1.15677e+09,-1.15685e+09,149001,0.0121249,0.00593903,0,0.0135013,12967.9,-41796.4,0,43761.9,149001
step02_gravity_refstate-mantle.xmf,99,-3.28332e-07,7.26545e-07,0,9.48526e-07,-1.16063e+09,-1.16049e+09,-1.16058e+09,126770,0.0118572,0.00989596,0,0.0154442,14237,-41912,0,44264.1,126770
step02_gravity_refstate-mantle.xmf,100,-3.58114e-07,9.44246e-07,0,6.83521e-07,-1.16465e+09,-1.16447e+09,-1.1646e+09,91352.6,0.011127,0.0166193,0,0.0200003,16780.3,-42036.6,0,45262,91352.6
step02_gravity_refstate-mantle.xmf,101,-3.46081e-07,8.32747e-07,0,8.25744e-07,-1.16901e+09,-1.16885e+09,-1.16896e+09,110361,0.0117574,0.0129252,0,0.0174728,15373,-42171,0,44885.7,110361
step02_gravity_refstate-mantle.xmf,102,-3.62811e-07,1.02086e-06,0,5.81657e-07,-1.16035e+09,-1.16016e+09,-1.1603e+09,77738.4,0.0105666,0.0194563,0,0.0221405,17969.7,-41903.9,0,45594.3,77738.4
step02_gravity_refstate-mantle.xmf,103,-4.02087e-07,1.10457e-06,0,5.13817e-07,-1.18001e+09,-1.17981e+09,-1.17996e+09,68671.6,0.0107054,0.0211493,0,0.0237044,19116.2,-42511.3,0,46611.6,68671.6
step02_gravity_refstate-mantle.xmf,104,-5.66837e-07,1.45149e-06,0,3.02725e-07,-1.30003e+09,-1.29976e+09,-1.29996e+09,40459.2,0.0111577,0.0229011,0,0.0254746,23449.3,-46218.5,0,51826.8,40459.2
step02_gravity_refstate-mantle.xmf,105,-7.02202e-07,1.75729e-06,0,1.56926e-07,-1.38581e+09,-1.38548e+09,-1.38571e+09,20973.1,0.00963535,0.0222029,0,0.0242035,27579.7,-48867.9,0,56113.4,20973.1
step02_gravity_refstate-mantle.xmf,106,-7.5192e-07,1.88122e-06,0,1.21205e-07,-1.44145e+09,-1.4411e+09,-1.44135e+09,16199.1,0.00932741,0.0196878,0,0.0217855,28667.9,-50586.6,0,58145.1,16199.1
step02_gravity_refstate-mantle.xmf,107,-8.00159e-07,2.00864e-06,0,8.88372e-08,-1.49823e+09,-1.49785e+09,-1.49812e+09,11873.1,0.00882486,0.0167546,0,0.0189366,29791.4,-52340.5,0,60225.1,11873.1
step02_gravity_refstate-mantle.xmf,108,-8.45922e-07,2.14239e-06,0,5.89076e-08,-1.55631e+09,-1.55591e+09,-1.5562e+09,7873.01,0.00809262,0.0133956,0,0.0156503,31006.4,-54134.7,0,62385.6,7873.01
step02_gravity_refstate-mantle.xmf,109,-8.8475e-07,2.27722e-06,0,3.39453e-08,-1.61752e+09,-1.6171e+09,-1.6174e+09,4536.79,0.00726587,0.00944018,0,0.0119126,32171.7,-56025.6,0,64605.6,4536.79
step02_gravity_refstate-mantle.xmf,110,-9.17082e-07,2.41328e-06,0,1.39743e-08,-1.67959e+09,-1.67915e+09,-1.67947e+09,1867.66,0.00624116,0.00506827,0,0.00803986,33418.1,-57943.1,0,66889.3,1867.66
step02_gravity_refstate-mantle.xmf,111,-9.40515e-07,2.55455e-06,0,3.53482e-10,-1.74617e+09,-1.7457e+09,-1.74605e+09,47.2428,0.00500194,-4.97246e-19,0,0.00500194,34785.7,-60000,0,69354.5,47.2428
step02_gravity_refstate-mantle.xmf,112,-2.13562e-07,-1.65797e-07,0,1.95525e-06,-1.09878e+09,-1.09877e+09,-1.09875e+09,261319,0.0108791,-0.0142698,0,0.0179439,8215.82,-40000,0,40835,261319
step02_gravity_refstate-mantle.xmf,113,-1.5462e-07,-4.48809e-07,0,2.20713e-06,-1.09879e+09,-1.09883e+09,-1.09877e+09,294983,0.0110285,-0.0191811,0,0.0221256,7368.31,-40000,0,40673,294983
step02_gravity_refstate-mantle.xmf,114,-1.27198e-07,-4.43185e-07,0,2.16783e-06,-1.11958e+09,-1.11962e+09,-1.11956e+09,289731,0.0119234,-0.0170822,0,0.0208319,7678.96,-40642.2,0,41361.3,289731
step02_gravity_refstate-mantle.xmf,115,-2.43771e-07,6.56275e-08,0,1.71887e-06,-1.09877e+09,-1.09873e+09,-1.09873e+09,229727,0.0106849,-0.00952375,0,0.0143133,9104.73,-40000,0,41023.1,229727
step02_gravity_refstate-mantle.xmf,116,-1.74974e-07,-1.74502e-07,0,1.91922e-06,-1.12788e+09,-1.12788e+09,-1.12785e+09,256504,0.0121194,-0.0119983,0,0.017054,8612.19,-40899,0,41795.9,256504
step02_gravity_refstate-mantle.xmf,117,-2.38371e-07,1.07304e-07,0,1.65746e-06,-1.12428e+09,-1.12423e+09,-1.12425e+09,221519,0.0117578,-0.00689756,0,0.0136316,9653.8,-40788.1,0,41915,221519
step02_gravity_refstate-mantle.xmf,118,-2.80081e-07,4.15505e-07,0,1.30964e-06,-1.15511e+09,-1.15501e+09,-1.15507e+09,175034,0.0124217,0.00154358,0,0.0125173,11723.6,-41741,0,43356.1,175034
step02_gravity_refstate-mantle.xmf,119,-2.45249e-07,2.14486e-07,0,1.52905e-06,-1.14841e+09,-1.14834e+09,-1.14837e+09,204357,0.0124989,-0.00326299,0,0.0129178,10498.1,-41533.7,0,42839.9,204357
step02_gravity_refstate-mantle.xmf,120,-3.94355e-07,1.01767e-06,0,6.28928e-07,-1.19427e+09,-1.19408e+09,-1.19422e+09,84056.3,0.011666,0.0177613,0,0.0212499,17678.5,-42951.4,0,46447.3,84056.3
step02_gravity_refstate-mantle.xmf,121,-4.49499e-07,1.19037e-06,0,4.69586e-07,-1.22304e+09,-1.22283e+09,-1.22298e+09,62760.1,0.0114041,0.0212856,0,0.0241481,20034.7,-43840.4,0,48201.4,62760.1
step02_gravity_refstate-mantle.xmf,122,-4.90502e-07,1.26978e-06,0,4.28023e-07,-1.26307e+09,-1.26283e+09,-1.263e+09,57205.2,0.0118558,0.0211236,0,0.0242233,20885.8,-45076.7,0,49680.2,57205.2
step02_gravity_refstate-mantle.xmf,123,-5.29387e-07,1.35694e-06,0,3.80694e-07,-1.30473e+09,-1.30448e+09,-1.30466e+09,50879.8,0.0121392,0.0207034,0,0.0239998,21794.6,-46363.5,0,51230.7,50879.8
step02_gravity_refstate-mantle.xmf,124,-6.12349e-07,1.55238e-06,0,2.57827e-07,-1.34223e+09,-1.34194e+09,-1.34214e+09,34458.5,0.0111499,0.0220323,0,0.0246929,24504.4,-47521.7,0,53467.6,34458.5
step02_gravity_refstate-mantle.xmf,125,-6.59253e-07,1.66678e-06,0,2.10312e-07,-1.39009e+09,-1.38978e+09,-1.39e+09,28108.2,0.0110152,0.0206046,0,0.0233641,25614.8,-49000.1,0,55291.3,28108.2
step02_gravity_refstate-mantle.xmf,126,-6.21781e-08,-7.94289e-07,0,2.47109e-06,-1.0988e+09,-1.0989e+09,-1.09879e+09,330262,0.011114,-0.0242394,0,0.0266659,6559.91,-40000,0,40534.3,330262
step02_gravity_refstate-mantle.xmf,127,-5.4536e-08,-7.07505e-07,0,2.37536e-06,-1.11479e+09,-1.11488e+09,-1.11479e+09,317467,0.0117905,-0.0212572,0,0.0243081,6976.96,-40494.3,0,41091,317467
step02_gravity_refstate-mantle.xmf,128,-3.09545e-07,6.1136e-07,0,1.08268e-06,-1.18631e+09,-1.18618e+09,-1.18627e+09,144700,0.012925,0.00695365,0,0.0146768,13449.1,-42705.1,0,44772.8,144700
step02_gravity_refstate-mantle.xmf,129,-2.72405e-07,4.46227e-07,0,1.25794e-06,-1.18315e+09,-1.18306e+09,-1.18312e+09,168123,0.0131743,0.00309895,0,0.0135338,12258.5,-42607.5,0,44335.9,168123
step02_gravity_refstate-mantle.xmf,130,-3.31323e-07,7.24995e-07,0,9.56004e-07,-1.18808e+09,-1.18794e+09,-1.18804e+09,127770,0.0126708,0.00979681,0,0.0160165,14413,-42760.1,0,45123.8,127770
step02_gravity_refstate-mantle.xmf,131,-3.74541e-07,9.09532e-07,0,7.56469e-07,-1.20131e+09,-1.20114e+09,-1.20126e+09,101102,0.0123765,0.0144773,0,0.0190465,16324.2,-43168.9,0,46152.3,101102
step02_gravity_refstate-mantle.xmf,132,-5.68807e-07,1.45017e-06,0,3.31603e-07,-1.34758e+09,-1.34731e+09,-1.3475e+09,44318.8,0.0122578,0.0199896,0,0.0234486,22747,-47687,0,52834.4,44318.8
step02_gravity_refstate-mantle.xmf,133,-7.07334e-07,1.78591e-06,0,1.68133e-07,-1.44335e+09,-1.44302e+09,-1.44325e+09,22471,0.0107869,0.0185016,0,0.0214165,26686.9,-50645.4,0,57246.4,22471
step02_gravity_refstate-mantle.xmf,134,-7.51851e-07,1.91415e-06,0,1.24852e-07,-1.49993e+09,-1.49957e+09,-1.49983e+09,16686.5,0.010435,0.0158198,0,0.0189514,27729.3,-52393.2,0,59278.7,16686.5
step02_gravity_refstate-mantle.xmf,135,-7.96343e-07,2.04939e-06,0,8.541e-08,-1.55857e+09,-1.55819e+09,-1.55846e+09,11415.1,0.00989613,0.0126489,0,0.0160601,28821.1,-54204.6,0,61390.5,11415.1
step02_gravity_refstate-mantle.xmf,136,-8.38144e-07,2.19149e-06,0,5.02482e-08,-1.61948e+09,-1.61907e+09,-1.61936e+09,6715.67,0.00918031,0.00894327,0,0.0128164,29954.9,-56086.1,0,63584.2,6715.67
step02_gravity_refstate-mantle.xmf,137,-8.74726e-07,2.33704e-06,0,2.13676e-08,-1.68188e+09,-1.68145e+09,-1.68176e+09,2855.77,0.00829402,0.00473706,0,0.00955146,31129.5,-58013.9,0,65838.1,2855.77
step02_gravity_refstate-mantle.xmf,138,-9.03047e-07,2.4835e-06,0,1.48716e-10,-1.74617e+09,-1.74572e+09,-1.74605e+09,19.8759,0.00725799,-4.65589e-19,0,0.00725799,32337.8,-60000,0,68159.6,19.8759
step02_gravity_refstate-mantle.xmf,139,7.92482e-08,-1.07991e-06,0,2.6069e-06,-1.1188e+09,-1.11895e+09,-1.11881e+09,348412,0.0119306,-0.0253946,0,0.0280576,6289.1,-40617.9,0,41101.9,348412
step02_gravity_refstate-mantle.xmf,140,5.94408e-08,-8.41103e-07,0,2.39114e-06,-1.13799e+09,-1.13811e+09,-1.138e+09,319576,0.0125814,-0.0206326,0,0.024166,6988.54,-41211.4,0,41799.7,319576
step02_gravity_refstate-mantle.xmf,141,-4.80012e-08,-4.99104e-07,0,2.14086e-06,-1.14249e+09,-1.14255e+09,-1.14249e+09,286125,0.0127192,-0.0157279,0,0.0202273,7866.07,-41350.6,0,42092.1,286125
step02_gravity_refstate-mantle.xmf,142,-1.62505e-07,-7.1129e-08,0,1.78226e-06,-1.15363e+09,-1.15362e+09,-1.15361e+09,238199,0.0129079,-0.00832914,0,0.0153619,9348.83,-41694.9,0,42730.1,238199
step02_gravity_refstate-mantle.xmf,143,-2.20289e-07,2.37624e-07,0,1.46634e-06,-1.17802e+09,-1.17796e+09,-1.17799e+09,195976,0.013326,-0.00135601,0,0.0133948,11022.2,-42448.6,0,43856.3,195976
step02_gravity_refstate-mantle.xmf,144,-3.46308e-07,7.86481e-07,0,8.92184e-07,-1.20803e+09,-1.20788e+09,-1.20798e+09,119240,0.0129966,0.0112151,0,0.0171666,15097.5,-43376.3,0,45928.6,119240
step02_gravity_refstate-mantle.xmf,145,-3.06286e-07,6.43298e-07,0,1.03697e-06,-1.21405e+09,-1.21393e+09,-1.21401e+09,138592,0.0135231,0.00792424,0,0.0156738,13952.1,-43562.3,0,45742,138592
step02_gravity_refstate-mantle.xmf,146,-4.2929e-07,1.09301e-06,0,5.75583e-07,-1.22806e+09,-1.22786e+09,-1.228e+09,76926.6,0.0121566,0.0184976,0,0.0221347,18583.5,-43995.2,0,47759,76926.6
step02_gravity_refstate-mantle.xmf,147,-3.98507e-07,9.79179e-07,0,6.95438e-07,-1.23383e+09,-1.23365e+09,-1.23378e+09,92945.2,0.0128723,0.0154543,0,0.020113,17172.1,-44173.5,0,47393.9,92945.2
step02_gravity_refstate-mantle.xmf,148,-4.57073e-07,1.16704e-06,0,5.24865e-07,-1.26619e+09,-1.26597e+09,-1.26613e+09,70148.2,0.0126237,0.0186326,0,0.0225063,19395,-45173.1,0,49160.7,70148.2
step02_gravity_refstate-mantle.xmf,149,-4.86403e-07,1.24621e-06,0,4.71988e-07,-1.30761e+09,-1.30738e+09,-1.30755e+09,63081.2,0.0129816,0.0184175,0,0.0225328,20228.9,-46452.6,0,50666.1,63081.2
step02_gravity_refstate-mantle.xmf,150,-5.15209e-07,1.33179e-06,0,4.15493e-07,-1.35069e+09,-1.35044e+09,-1.35062e+09,55530.7,0.0132057,0.0178718,0,0.0222214,21074.8,-47783.3,0,52224.4,55530.7
step02_gravity_refstate-mantle.xmf,151,-6.09749e-07,1.55649e-06,0,2.77699e-07,-1.3926e+09,-1.39231e+09,-1.39252e+09,37114.5,0.0122087,0.0189359,0,0.0225304,23775,-49077.9,0,54533.3,37114.5
step02_gravity_refstate-mantle.xmf,152,-6.49929e-07,1.67435e-06,0,2.22141e-07,-1.44576e+09,-1.44545e+09,-1.44568e+09,29689.2,0.0121136,0.0170944,0,0.0209513,24760.5,-50720.1,0,56441.2,29689.2
step02_gravity_refstate-mantle.xmf,153,1.31528e-06,-4.10928e-06,0,3.79329e-06,-1.09878e+09,-1.0995e+09,-1.09895e+09,506973,0.00958783,-0.0505253,0,0.051427,3021.01,-40000,0,40113.9,506973
step02_gravity_refstate-mantle.xmf,154,1.98643e-06,-5.30956e-06,0,3.83083e-06,-1.09873e+09,-1.0997e+09,-1.099e+09,511991,0.00856259,-0.055511,0,0.0561675,2394.25,-40000,0,40071.6,511991
step02_gravity_refstate-mantle.xmf,155,1.86836e-06,-4.71345e-06,0,3.5506e-06,-1.11554e+09,-1.11642e+09,-1.11579e+09,474537,0.00923562,-0.0503672,0,0.0512069,2736.82,-40520,0,40612.3,474537
step02_gravity_refstate-mantle.xmf,156,1.29435e-06,-3.71847e-06,0,3.52856e-06,-1.11581e+09,-1.11648e+09,-1.11598e+09,471593,0.010224,-0.0458126,0,0.0469396,3366.33,-40526.9,0,40666.5,471593
step02_gravity_refstate-mantle.xmf,157,8.45572e-07,-3.15617e-06,0,3.59725e-06,-1.0988e+09,-1.09933e+09,-1.09891e+09,480772,0.0102882,-0.0453143,0,0.0464675,3670.37,-40000,0,40168,480772
step02_gravity_refstate-mantle.xmf,158,6.16238e-08,-1.22055e-06,0,2.75839e-06,-1.09881e+09,-1.09898e+09,-1.09882e+09,368659,0.0111149,-0.0294199,0,0.0314495,5788.3,-40000,0,40416.6,368659
step02_gravity_refstate-mantle.xmf,159,-6.00793e-08,-3.68697e-07,0,2.01019e-06,-1.15669e+09,-1.15673e+09,-1.15668e+09,268662,0.0131033,-0.0127575,0,0.018288,8412.05,-41789.3,0,42627.6,268662
step02_gravity_refstate-mantle.xmf,160,-1.43788e-07,-6.02095e-10,0,1.67182e-06,-1.1786e+09,-1.17858e+09,-1.17858e+09,223438,0.0135312,-0.00558116,0,0.014637,9969.35,-42466.6,0,43621.1,223438
step02_gravity_refstate-mantle.xmf,161,-2.58073e-07,4.75076e-07,0,1.201e-06,-1.2128e+09,-1.2127e+09,-1.21276e+09,160513,0.0138198,0.00440282,0,0.0145042,12779.2,-43523.4,0,45360.7,160513
step02_gravity_refstate-mantle.xmf,162,-1.95329e-07,2.72949e-07,0,1.38574e-06,-1.20944e+09,-1.20938e+09,-1.20941e+09,185205,0.014003,0.000539315,0,0.0140134,11605.9,-43419.5,0,44943.9,185205
step02_gravity_refstate-mantle.xmf,163,-3.58959e-07,8.48886e-07,0,8.25622e-07,-1.23849e+09,-1.23833e+09,-1.23844e+09,110344,0.013473,0.0123608,0,0.0182841,15860.7,-44317.3,0,47070,110344
step02_gravity_refstate-mantle.xmf,164,-5.48067e-07,1.42894e-06,0,3.55062e-07,-1.39583e+09,-1.39556e+09,-1.39576e+09,47454,0.0132724,0.0170294,0,0.0215907,21997.2,-49177.7,0,53873.2,47454
step02_gravity_refstate-mantle.xmf,165,-6.91399e-07,1.7978e-06,0,1.70739e-07,-1.50196e+09,-1.50163e+09,-1.50187e+09,22819.3,0.0118836,0.0147088,0,0.0189095,25739.5,-52456.2,0,58430.9,22819.3
step02_gravity_refstate-mantle.xmf,166,-7.33267e-07,1.93357e-06,0,1.18558e-07,-1.55988e+09,-1.55953e+09,-1.55979e+09,15845.3,0.0114953,0.0118417,0,0.0165036,26737.7,-54245.4,0,60477,15845.3
step02_gravity_refstate-mantle.xmf,167,-7.75846e-07,2.07957e-06,0,7.1328e-08,-1.62092e+09,-1.62054e+09,-1.62081e+09,9532.99,0.0109322,0.00839012,0,0.0137807,27789,-56130.8,0,62633,9532.99
step02_gravity_refstate-mantle.xmf,168,-8.15882e-07,2.23145e-06,0,3.12965e-08,-1.68288e+09,-1.68247e+09,-1.68277e+09,4182.78,0.0101994,0.00445327,0,0.0111292,28876.9,-58045,0,64831.3,4182.78
step02_gravity_refstate-mantle.xmf,169,-8.49831e-07,2.38569e-06,0,-7.40323e-11,-1.74617e+09,-1.74573e+09,-1.74605e+09,-9.89442,0.00931809,-4.38684e-19,0,0.00931809,29987.4,-60000,0,67076.4,9.89442
step02_gravity_refstate-mantle.xmf,170,2.81483e-06,-6.70057e-06,0,3.59183e-06,-1.09867e+09,-1.09994e+09,-1.09904e+09,480048,0.00712024,-0.0600644,0,0.060485,1785.26,-40000,0,40039.8,480048
step02_gravity_refstate-mantle.xmf,171,2.58088e-06,-5.8763e-06,0,3.35612e-06,-1.11553e+09,-1.11666e+09,-1.11587e+09,448546,0.00783204,-0.0546852,0,0.0552432,2099.13,-40521.4,0,40575.8,448546
step02_gravity_refstate-mantle.xmf,172,1.72891e-06,-4.16641e-06,0,3.30167e-06,-1.13242e+09,-1.1332e+09,-1.13265e+09,441269,0.0098515,-0.0455209,0,0.0465747,3112,-41041.8,0,41159.6,441269
step02_gravity_refstate-mantle.xmf,173,8.85971e-07,-2.91185e-06,0,3.36467e-06,-1.11785e+09,-1.11836e+09,-1.11797e+09,449688,0.0109563,-0.0408794,0,0.0423222,4019.51,-40589.5,0,40788.1,449688
step02_gravity_refstate-mantle.xmf,174,4.97924e-07,-2.37848e-06,0,3.33589e-06,-1.09881e+09,-1.09919e+09,-1.09888e+09,445842,0.010741,-0.0400079,0,0.0414246,4346.07,-40000,0,40235.4,445842
step02_gravity_refstate-mantle.xmf,175,2.43406e-07,-1.74041e-06,0,3.04911e-06,-1.09881e+09,-1.09908e+09,-1.09884e+09,407514,0.0110014,-0.0346903,0,0.0363929,5051.17,-40000,0,40317.7,407514
step02_gravity_refstate-mantle.xmf,176,2.84708e-07,-1.57548e-06,0,2.86556e-06,-1.12046e+09,-1.12071e+09,-1.1205e+09,382982,0.0118438,-0.0303234,0,0.0325544,5517.15,-40669.5,0,41042,382982
step02_gravity_refstate-mantle.xmf,177,5.56478e-07,-2.19333e-06,0,3.12686e-06,-1.12026e+09,-1.12063e+09,-1.12034e+09,417904,0.0115198,-0.0355614,0,0.0373807,4746.45,-40663.6,0,40939.7,417904
step02_gravity_refstate-mantle.xmf,178,3.10103e-07,-1.41277e-06,0,2.67622e-06,-1.14281e+09,-1.14304e+09,-1.14285e+09,357677,0.0125229,-0.0261287,0,0.0289747,6019.62,-41360.4,0,41796.2,357677
step02_gravity_refstate-mantle.xmf,179,1.04024e-07,-7.50161e-07,0,2.24116e-06,-1.16203e+09,-1.16214e+09,-1.16204e+09,299531,0.0132179,-0.0172805,0,0.0217561,7496.73,-41954.4,0,42618.9,299531
step02_gravity_refstate-mantle.xmf,180,-2.72503e-08,-2.97605e-07,0,1.88565e-06,-1.18157e+09,-1.1816e+09,-1.18156e+09,252018,0.0136891,-0.00991949,0,0.0169053,8962.67,-42558.2,0,43491.7,252018
step02_gravity_refstate-mantle.xmf,181,-1.13765e-07,4.15367e-08,0,1.57804e-06,-1.20559e+09,-1.20557e+09,-1.20558e+09,210905,0.0140881,-0.0034891,0,0.0145138,10497,-43300.6,0,44554.8,210905
step02_gravity_refstate-mantle.xmf,182,-3.06351e-07,6.95435e-07,0,9.68323e-07,-1.24325e+09,-1.24312e+09,-1.24321e+09,129416,0.0139932,0.00911207,0,0.0166985,14604.1,-44464.3,0,46801.2,129416
step02_gravity_refstate-mantle.xmf,183,-2.38116e-07,5.13196e-07,0,1.12571e-06,-1.24585e+09,-1.24575e+09,-1.24582e+09,150452,0.0143812,0.005682,0,0.015463,13369.8,-44544.6,0,46507.8,150452
step02_gravity_refstate-mantle.xmf,184,-4.19046e-07,1.04678e-06,0,6.37673e-07,-1.27026e+09,-1.27006e+09,-1.2702e+09,85225.1,0.0133295,0.0159174,0,0.0207615,17963,-45298.7,0,48730.3,85225.1
step02_gravity_refstate-mantle.xmf,185,-3.6964e-07,9.11483e-07,0,7.59073e-07,-1.27299e+09,-1.27282e+09,-1.27294e+09,101450,0.0139127,0.0131104,0,0.0191166,16609.9,-45383,0,48327,101450
step02_gravity_refstate-mantle.xmf,186,-4.3698e-07,1.12141e-06,0,5.74601e-07,-1.30827e+09,-1.30807e+09,-1.30822e+09,76795.4,0.0136747,0.0160581,0,0.0210917,18749.6,-46473.1,0,50112.8,76795.4
step02_gravity_refstate-mantle.xmf,187,-4.52524e-07,1.1935e-06,0,5.13445e-07,-1.35272e+09,-1.3525e+09,-1.35266e+09,68622,0.0140075,0.0156098,0,0.0209732,19473.8,-47846.2,0,51657.4,68622
step02_gravity_refstate-mantle.xmf,188,-4.7474e-07,1.28328e-06,0,4.4235e-07,-1.39757e+09,-1.39734e+09,-1.39751e+09,59120.1,0.0141592,0.0150079,0,0.020633,20299.3,-49231.6,0,53252.4,59120.1
step02_gravity_refstate-mantle.xmf,189,-5.82033e-07,1.53965e-06,0,2.90126e-07,-1.44733e+09,-1.44705e+09,-1.44725e+09,38775.3,0.0132588,0.0155614,0,0.0204439,22922.6,-50768.5,0,55703.6,38775.3
step02_gravity_refstate-mantle.xmf,190,-6.16832e-07,1.6619e-06,0,2.23234e-07,-1.50296e+09,-1.50266e+09,-1.50288e+09,29835.2,0.0131459,0.0134954,0,0.0188398,23819.5,-52487.2,0,57639.2,29835.2
step02_gravity_refstate-mantle.xmf,191,3.7085e-06,-8.23124e-06,0,2.96021e-06,-1.0986e+09,-1.10019e+09,-1.09909e+09,395632,0.00518182,-0.0638519,0,0.0640618,1187.64,-40000,0,40017.6,395632
step02_gravity_refstate-mantle.xmf,192,3.34763e-06,-7.06706e-06,0,2.8323e-06,-1.11531e+09,-1.1167e+09,-1.11575e+09,378538,0.00602327,-0.0583419,0,0.058652,1484.58,-40516.7,0,40543.9,378538
step02_gravity_refstate-mantle.xmf,193,2.31657e-06,-5.16253e-06,0,3.19116e-06,-1.13276e+09,-1.13376e+09,-1.13307e+09,426498,0.00854771,-0.0494953,0,0.0502279,2466.16,-41053.7,0,41127.7,426498
step02_gravity_refstate-mantle.xmf,194,1.28228e-06,-3.42838e-06,0,3.29893e-06,-1.13149e+09,-1.13212e+09,-1.13166e+09,440902,0.0106919,-0.0419372,0,0.0432787,3673.39,-41012,0,41176.2,440902
step02_gravity_refstate-mantle.xmf,195,3.11503e-07,-1.20141e-06,0,2.46963e-06,-1.16337e+09,-1.16358e+09,-1.16342e+09,330065,0.0130596,-0.0220542,0,0.0256309,6588.93,-41996.2,0,42509.9,330065
step02_gravity_refstate-mantle.xmf,196,1.28585e-07,-6.4562e-07,0,2.09247e-06,-1.18463e+09,-1.18473e+09,-1.18465e+09,279659,0.0137037,-0.0142,0,0.019734,8021.41,-42652.9,0,43400.6,279659
step02_gravity_refstate-mantle.xmf,197,-3.40348e-09,-2.21023e-07,0,1.76121e-06,-1.20591e+09,-1.20594e+09,-1.20591e+09,235386,0.014152,-0.0073521,0,0.0159478,9517.79,-43310.4,0,44343.9,235386
step02_gravity_refstate-mantle.xmf,198,-1.38875e-07,2.7207e-07,0,1.31298e-06,-1.24702e+09,-1.24697e+09,-1.24701e+09,175480,0.0146557,0.00165428,0,0.0147488,12036.2,-44580.9,0,46177.1,175480
step02_gravity_refstate-mantle.xmf,199,-6.74265e-08,4.73399e-08,0,1.50552e-06,-1.23467e+09,-1.23465e+09,-1.23466e+09,201213,0.0145772,-0.00217224,0,0.0147382,10867.2,-44199,0,45515.4,201213
step02_gravity_refstate-mantle.xmf,200,-3.09428e-07,7.57901e-07,0,8.8986e-07,-1.27495e+09,-1.2748e+09,-1.27491e+09,118930,0.0143838,0.0101838,0,0.0176239,15322.5,-45443.5,0,47957.2,118930
step02_gravity_refstate-mantle.xmf,201,-5.01724e-07,1.38399e-06,0,3.69527e-07,-1.44431e+09,-1.44406e+09,-1.44425e+09,49387.2,0.0141865,0.0140526,0,0.0199682,21162,-50675.6,0,54916.7,49387.2
step02_gravity_refstate-mantle.xmf,202,-6.52972e-07,1.78903e-06,0,1.61664e-07,-1.55989e+09,-1.55956e+09,-1.5598e+09,21606.4,0.0129065,0.010966,0,0.0169361,24702.9,-54245.6,0,59605.5,21606.4
step02_gravity_refstate-mantle.xmf,203,-6.96142e-07,1.94064e-06,0,9.76859e-08,-1.62192e+09,-1.62156e+09,-1.62182e+09,13055.7,0.0124864,0.00777093,0,0.014707,25681.4,-56161.8,0,61755,13055.7
step02_gravity_refstate-mantle.xmf,204,-7.38978e-07,2.09788e-06,0,4.37551e-08,-1.68407e+09,-1.68369e+09,-1.68397e+09,5847.87,0.011908,0.00410959,0,0.0125972,26681.3,-58081.9,0,63917.1,5847.87
step02_gravity_refstate-mantle.xmf,205,-7.7947e-07,2.26073e-06,0,-3.07206e-10,-1.74616e+09,-1.74576e+09,-1.74606e+09,-41.058,0.011159,-4.05966e-19,0,0.011159,27728.1,-60000,0,66097.3,41.058
step02_gravity_refstate-mantle.xmf,206,4.05684e-06,-8.16037e-06,0,1.90498e-06,-1.11553e+09,-1.11716e+09,-1.11607e+09,254601,0.00372288,-0.0610044,0,0.0611179,863.087,-40525.5,0,40534.7,254601
step02_gravity_refstate-mantle.xmf,207,3.00628e-06,-6.15715e-06,0,2.74338e-06,-1.1328e+09,-1.13402e+09,-1.1332e+09,366652,0.00680754,-0.0530993,0,0.0535339,1811.49,-41057,0,41097,366652
step02_gravity_refstate-mantle.xmf,208,2.09849e-06,-4.47429e-06,0,2.96904e-06,-1.15015e+09,-1.15103e+09,-1.15043e+09,396812,0.00922986,-0.0446117,0,0.0455565,2867.46,-41591.3,0,41690.1,396812
step02_gravity_refstate-mantle.xmf,209,1.55719e-06,-3.62848e-06,0,3.08701e-06,-1.14889e+09,-1.14958e+09,-1.1491e+09,412579,0.0104931,-0.0407689,0,0.0420976,3557.54,-41550.9,0,41703,412579
step02_gravity_refstate-mantle.xmf,210,1.01804e-06,-2.78209e-06,0,3.09229e-06,-1.14246e+09,-1.14297e+09,-1.14259e+09,413285,0.0114543,-0.0367387,0,0.0384829,4311.56,-41350.8,0,41574.9,413285
step02_gravity_refstate-mantle.xmf,211,5.98985e-07,-1.9869e-06,0,2.89516e-06,-1.14315e+09,-1.1435e+09,-1.14323e+09,386938,0.0121616,-0.0311036,0,0.0333967,5200.55,-41371.4,0,41696.9,386938
step02_gravity_refstate-mantle.xmf,212,2.6868e-06,-5.40506e-06,0,2.68602e-06,-1.15041e+09,-1.15149e+09,-1.15077e+09,358987,0.00758674,-0.0481578,0,0.0487518,2180.29,-41600.7,0,41657.8,358987
step02_gravity_refstate-mantle.xmf,213,5.88587e-07,-1.7639e-06,0,2.67834e-06,-1.16593e+09,-1.16625e+09,-1.16601e+09,357960,0.0126983,-0.0267786,0,0.0296368,5711.43,-42075.7,0,42461.5,357960
step02_gravity_refstate-mantle.xmf,214,3.34509e-07,-1.06118e-06,0,2.28907e-06,-1.18698e+09,-1.18717e+09,-1.18703e+09,305934,0.0135295,-0.0185664,0,0.022973,7103.38,-42726,0,43312.5,305934
step02_gravity_refstate-mantle.xmf,215,1.50904e-07,-5.42859e-07,0,1.94222e-06,-1.20899e+09,-1.20908e+09,-1.20901e+09,259578,0.0141319,-0.011289,0,0.0180874,8568.62,-43405.8,0,44243.4,259578
step02_gravity_refstate-mantle.xmf,216,1.14178e-08,-1.56476e-07,0,1.65692e-06,-1.22783e+09,-1.22785e+09,-1.22783e+09,221448,0.0144975,-0.00530166,0,0.0154365,10008.4,-43987.9,0,45112.1,221448
step02_gravity_refstate-mantle.xmf,217,-2.32756e-07,5.76843e-07,0,1.03333e-06,-1.27727e+09,-1.27716e+09,-1.27724e+09,138104,0.0147645,0.00703228,0,0.0163537,14060.5,-45515.3,0,47637.6,138104
step02_gravity_refstate-mantle.xmf,218,-1.35128e-07,3.64083e-07,0,1.18548e-06,-1.27978e+09,-1.27972e+09,-1.27976e+09,158440,0.0150281,0.00369997,0,0.0154769,12832.3,-45593,0,47364.5,158440
step02_gravity_refstate-mantle.xmf,219,-3.75369e-07,9.68663e-07,0,6.96512e-07,-1.31221e+09,-1.31203e+09,-1.31216e+09,93088.9,0.0143365,0.0132932,0,0.0195511,17268.1,-46594.5,0,49691.4,93088.9
step02_gravity_refstate-mantle.xmf,220,-3.10433e-07,8.17283e-07,0,8.13053e-07,-1.31057e+09,-1.31042e+09,-1.31053e+09,108665,0.0147415,0.010838,0,0.0182968,16008.3,-46544.1,0,49220.1,108665
step02_gravity_refstate-mantle.xmf,221,-3.7581e-07,1.03193e-06,0,6.24359e-07,-1.35563e+09,-1.35544e+09,-1.35558e+09,83445.5,0.0146911,0.0130921,0,0.0196782,17912.5,-47935.9,0,51173.3,83445.5
step02_gravity_refstate-mantle.xmf,222,-3.87284e-07,1.11326e-06,0,5.42458e-07,-1.39986e+09,-1.39966e+09,-1.39981e+09,72499.5,0.0148893,0.0127693,0,0.019615,18660.5,-49302.4,0,52715.6,72499.5
step02_gravity_refstate-mantle.xmf,223,-4.11273e-07,1.21542e-06,0,4.55224e-07,-1.44273e+09,-1.44251e+09,-1.44268e+09,60840.7,0.0149298,0.0123137,0,0.0193527,19505.2,-50626.9,0,54254.3,60840.7
step02_gravity_refstate-mantle.xmf,224,-5.30208e-07,1.50378e-06,0,2.86792e-07,-1.5033e+09,-1.50303e+09,-1.50323e+09,38329.8,0.0141814,0.0121881,0,0.0186992,22017,-52497.7,0,56927.6,38329.8
step02_gravity_refstate-mantle.xmf,225,-5.60234e-07,1.62754e-06,0,2.09347e-07,-1.55902e+09,-1.55873e+09,-1.55895e+09,27979.2,0.0140609,0.0100183,0,0.0172649,22794.1,-54219.1,0,58815.7,27979.2
step02_gravity_refstate-mantle.xmf,226,4.48318e-06,-9.35084e-06,0,1.66411e-06,-1.09852e+09,-1.10037e+09,-1.09912e+09,222408,0.00274918,-0.0664259,0,0.0664828,593.771,-40000,0,40004.4,222408
step02_gravity_refstate-mantle.xmf,227,3.64228e-06,-7.09473e-06,0,2.00372e-06,-1.13284e+09,-1.13428e+09,-1.13333e+09,267797,0.00464312,-0.0559122,0,0.0561047,1160.73,-41060.2,0,41076.6,267797
step02_gravity_refstate-mantle.xmf,228,2.40423e-06,-4.68789e-06,0,2.57005e-06,-1.16806e+09,-1.16901e+09,-1.16838e+09,343487,0.00835804,-0.0434767,0,0.0442728,2591.2,-42146,0,42225.6,343487
step02_gravity_refstate-mantle.xmf,229,6.01526e-07,-1.55427e-06,0,2.45896e-06,-1.18887e+09,-1.18915e+09,-1.18895e+09,328641,0.0131328,-0.0229711,0,0.0264602,6206.83,-42784.7,0,43232.5,328641
step02_gravity_refstate-mantle.xmf,230,3.50636e-07,-9.27658e-07,0,2.11599e-06,-1.21123e+09,-1.2114e+09,-1.21128e+09,282802,0.0139232,-0.0153841,0,0.0207491,7622.64,-43475.4,0,44138.6,282802
step02_gravity_refstate-mantle.xmf,231,1.59655e-07,-4.30408e-07,0,1.79267e-06,-1.23327e+09,-1.23335e+09,-1.23329e+09,239590,0.0144913,-0.00854308,0,0.016822,9150.2,-44156.1,0,45094.2,239590
step02_gravity_refstate-mantle.xmf,232,-3.50932e-09,2.69365e-08,0,1.44254e-06,-1.2627e+09,-1.26269e+09,-1.2627e+09,192795,0.0149438,-0.00149474,0,0.0150184,11076.9,-45065.3,0,46406.7,192795
step02_gravity_refstate-mantle.xmf,233,1.19978e-07,-2.44473e-07,0,1.61795e-06,-1.25687e+09,-1.25692e+09,-1.25689e+09,216239,0.0148239,-0.00521425,0,0.0157142,9982.57,-44885.5,0,45982.2,216239
step02_gravity_refstate-mantle.xmf,234,-1.37344e-08,1.26015e-07,0,1.32877e-06,-1.28441e+09,-1.2844e+09,-1.28441e+09,177589,0.0151676,0.000421724,0,0.0151735,11708.8,-45736.3,0,47211.3,177589
step02_gravity_refstate-mantle.xmf,235,-2.30029e-07,6.41642e-07,0,9.42696e-07,-1.30907e+09,-1.30895e+09,-1.30904e+09,125991,0.0150663,0.00805928,0,0.0170864,14726.6,-46497.8,0,48774.2,125991
step02_gravity_refstate-mantle.xmf,236,-4.37667e-07,1.32472e-06,0,3.68039e-07,-1.49104e+09,-1.4908e+09,-1.49098e+09,49188.4,0.0149153,0.0112972,0,0.0187107,20341.1,-52119.2,0,55947.9,49188.4
step02_gravity_refstate-mantle.xmf,237,-5.9897e-07,1.77231e-06,0,1.33084e-07,-1.61914e+09,-1.61883e+09,-1.61906e+09,17786.7,0.01377,0.00728009,0,0.015576,23688.4,-56076.4,0,60874.5,17786.7
step02_gravity_refstate-mantle.xmf,238,-6.38815e-07,1.93647e-06,0,5.47155e-08,-1.68844e+09,-1.68809e+09,-1.68835e+09,7312.73,0.0134137,0.00352443,0,0.013869,24506.1,-58217,0,63164.6,7312.73
step02_gravity_refstate-mantle.xmf,239,-6.90363e-07,2.10816e-06,0,-4.66708e-10,-1.74615e+09,-1.74578e+09,-1.74606e+09,-62.3755,0.0127572,-3.49493e-19,0,0.0127572,25553.8,-60000,0,65215,62.3755
step02_gravity_refstate-mantle.xmf,240,4.47153e-06,-8.76612e-06,0,5.74436e-07,-1.11511e+09,-1.11688e+09,-1.11571e+09,76773.3,0.00110909,-0.0624901,0,0.0624999,248.679,-40513.9,0,40514.6,76773.3
step02_gravity_refstate-mantle.xmf,241,4.74507e-06,-9.71589e-06,0,-3.6117e-09,-1.0985e+09,-1.10043e+09,-1.09913e+09,-482.704,2.16363e-06,-0.0673435,0,0.0673435,0,-40000,0,40000,482.704
step02_gravity_refstate-mantle.xmf,242,4.11457e-06,-7.77982e-06,0,9.56248e-07,-1.13286e+09,-1.13444e+09,-1.13341e+09,127803,0.00209094,-0.0576491,0,0.057687,503.128,-41062,0,41065.1,127803
step02_gravity_refstate-mantle.xmf,243,3.26687e-06,-6.2124e-06,0,2.09097e-06,-1.15044e+09,-1.15171e+09,-1.15088e+09,279458,0.00557761,-0.051046,0,0.0513498,1505.79,-41603.6,0,41630.8,279458
step02_gravity_refstate-mantle.xmf,244,2.93836e-06,-5.49592e-06,0,2.14859e-06,-1.16809e+09,-1.16922e+09,-1.16848e+09,287158,0.00644693,-0.0464955,0,0.0469404,1874.81,-42148.4,0,42190,287158
step02_gravity_refstate-mantle.xmf,245,1.86789e-06,-3.86438e-06,0,2.79419e-06,-1.16861e+09,-1.16938e+09,-1.16886e+09,373443,0.00991855,-0.0397599,0,0.0409784,3328.07,-42161.6,0,42292.8,373443
step02_gravity_refstate-mantle.xmf,246,1.41097e-06,-3.1223e-06,0,2.84735e-06,-1.1694e+09,-1.17e+09,-1.16958e+09,380548,0.0111123,-0.0357208,0,0.0374093,4066.36,-42184.6,0,42380.1,380548
step02_gravity_refstate-mantle.xmf,247,9.59303e-07,-2.38868e-06,0,2.80798e-06,-1.1672e+09,-1.16765e+09,-1.16733e+09,375286,0.0120648,-0.0313869,0,0.0336259,4877.18,-42115.7,0,42397.1,375286
step02_gravity_refstate-mantle.xmf,248,9.24568e-07,-2.14591e-06,0,2.59375e-06,-1.19064e+09,-1.19105e+09,-1.19076e+09,346655,0.0124701,-0.0273312,0,0.0300416,5329.14,-42839.9,0,43170.1,346655
step02_gravity_refstate-mantle.xmf,249,6.02826e-07,-1.38019e-06,0,2.26586e-06,-1.21275e+09,-1.21301e+09,-1.21283e+09,302832,0.0134939,-0.0195579,0,0.0237613,6690.23,-43522.8,0,44034,302832
step02_gravity_refstate-mantle.xmf,250,3.55844e-07,-7.89652e-07,0,1.94558e-06,-1.23651e+09,-1.23666e+09,-1.23655e+09,260027,0.0142698,-0.0123606,0,0.0188789,8175.49,-44256.5,0,45005.3,260027
step02_gravity_refstate-mantle.xmf,251,1.33544e-07,-1.59003e-07,0,1.47983e-06,-1.28711e+09,-1.28715e+09,-1.28713e+09,197780,0.0151233,-0.00307307,0,0.0154323,10568.6,-45819.9,0,47023,197780
step02_gravity_refstate-mantle.xmf,252,-1.27539e-07,4.33172e-07,0,1.08074e-06,-1.31104e+09,-1.31096e+09,-1.31102e+09,144441,0.0153153,0.00501292,0,0.0161148,13472.9,-46558.8,0,48468.9,144441
step02_gravity_refstate-mantle.xmf,253,-6.51297e-09,2.03418e-07,0,1.21308e-06,-1.31393e+09,-1.3139e+09,-1.31393e+09,162129,0.0154219,0.00197396,0,0.0155478,12311,-46648.2,0,48245.4,162129
step02_gravity_refstate-mantle.xmf,254,-2.3288e-07,7.09115e-07,0,8.56774e-07,-1.33807e+09,-1.33794e+09,-1.33804e+09,114508,0.0152676,0.00884252,0,0.0176434,15361.2,-47393.7,0,49821,114508
step02_gravity_refstate-mantle.xmf,255,-2.80113e-07,8.31641e-07,0,7.56824e-07,-1.35721e+09,-1.35706e+09,-1.35717e+09,101150,0.0152334,0.0102443,0,0.0183576,16308.4,-47984.9,0,50680.5,101150
step02_gravity_refstate-mantle.xmf,256,-2.86125e-07,9.22578e-07,0,6.50786e-07,-1.40141e+09,-1.40124e+09,-1.40137e+09,86977.5,0.0154264,0.0104165,0,0.0186139,17107.6,-49350.4,0,52231.5,86977.5
step02_gravity_refstate-mantle.xmf,257,-3.05774e-07,1.02499e-06,0,5.49494e-07,-1.44291e+09,-1.44273e+09,-1.44287e+09,73439.8,0.015501,0.0103358,0,0.0186309,17915.6,-50632.6,0,53708.7,73439.8
step02_gravity_refstate-mantle.xmf,258,-3.32146e-07,1.13503e-06,0,4.52627e-07,-1.48446e+09,-1.48427e+09,-1.48442e+09,60493.6,0.0155002,0.00991726,0,0.0184013,18720.9,-51916.2,0,55188.5,60493.6
step02_gravity_refstate-mantle.xmf,259,-4.39965e-07,1.41081e-06,0,2.8231e-07,-1.55183e+09,-1.55158e+09,-1.55177e+09,37730.7,0.0150519,0.00906322,0,0.0175699,20747.8,-53997.2,0,57846.1,37730.7
step02_gravity_refstate-mantle.xmf,260,-4.88638e-07,1.57943e-06,0,1.78414e-07,-1.6121e+09,-1.61182e+09,-1.61204e+09,23845,0.0147892,0.00687392,0,0.0163086,21779.5,-55859.1,0,59954.8,23845
step02_gravity_refstate-mantle.xmf,261,4.45614e-06,-9.27455e-06,0,-1.63129e-06,-1.09852e+09,-1.10036e+09,-1.09912e+09,-218023,-0.00274904,-0.0664237,-0,0.0664806,-593.771,-40000,-0,40004.4,218023
step02_gravity_refstate-mantle.xmf,262,4.49811e-06,-8.85587e-06,0,-7.52582e-07,-1.11133e+09,-1.11312e+09,-1.11193e+09,-100583,-0.00130884,-0.0634693,-0,0.0634828,-290.495,-40397,-0,40398,100583
step02_gravity_refstate-mantle.xmf,263,3.72838e-06,-6.86836e-06,0,1.23065e-06,-1.15075e+09,-1.15217e+09,-1.15125e+09,164477,0.00313869,-0.0530335,0,0.0531263,811.727,-41614.6,0,41622.6,164477
step02_gravity_refstate-mantle.xmf,264,2.64719e-06,-4.84599e-06,0,2.15087e-06,-1.1837e+09,-1.1847e+09,-1.18405e+09,287464,0.00728107,-0.0425505,0,0.0431689,2262.83,-42630.3,0,42690.3,287464
step02_gravity_refstate-mantle.xmf,265,2.18826e-06,-4.19968e-06,0,2.50301e-06,-1.18174e+09,-1.18259e+09,-1.18203e+09,334527,0.00897043,-0.0399607,0,0.0409552,2948.96,-42568.4,0,42670.4,334527
step02_gravity_refstate-mantle.xmf,266,9.14887e-07,-1.8975e-06,0,2.36227e-06,-1.21494e+09,-1.21531e+09,-1.21506e+09,315718,0.0128169,-0.0235968,0,0.026853,5788.5,-43591.2,0,43973.9,315718
step02_gravity_refstate-mantle.xmf,267,5.92529e-07,-1.20082e-06,0,2.07544e-06,-1.23828e+09,-1.23852e+09,-1.23836e+09,277382,0.0138285,-0.0162274,0,0.0213203,7219.99,-44312,0,44896.4,277382
step02_gravity_refstate-mantle.xmf,268,3.56425e-07,-6.55307e-07,0,1.7791e-06,-1.26336e+09,-1.2635e+09,-1.26341e+09,237777,0.0145772,-0.00954856,0,0.0174262,8750.46,-45086.4,0,45927.8,237777
step02_gravity_refstate-mantle.xmf,269,1.34118e-07,-5.25165e-08,0,1.34228e-06,-1.31526e+09,-1.31529e+09,-1.31528e+09,179396,0.0153616,-0.00111859,0,0.0154022,11190.9,-46689.7,0,48012.2,179396
step02_gravity_refstate-mantle.xmf,270,-1.24384e-07,5.02025e-07,0,9.82731e-07,-1.34101e+09,-1.34093e+09,-1.341e+09,131342,0.0155299,0.00600458,0,0.0166503,14072.3,-47484.9,0,49526.2,131342
step02_gravity_refstate-mantle.xmf,271,-3.53862e-07,1.22899e-06,0,3.71814e-07,-1.52314e+09,-1.52293e+09,-1.52309e+09,49692.9,0.015474,0.00913858,0,0.017971,19363.8,-53111.1,0,56530.9,49692.9
step02_gravity_refstate-mantle.xmf,272,-5.3574e-07,1.738e-06,0,9.5463e-08,-1.66826e+09,-1.66796e+09,-1.66819e+09,12758.6,0.0144525,0.00431199,0,0.015082,22687.8,-57593.9,0,61901.5,12758.6
step02_gravity_refstate-mantle.xmf,273,-5.81562e-07,1.93092e-06,0,-2.00152e-09,-1.74615e+09,-1.74581e+09,-1.74607e+09,-267.503,0.0140891,-2.21175e-19,0,0.0140891,23458.4,-60000,0,64422.8,267.503
step02_gravity_refstate-mantle.xmf,274,3.73266e-06,-8.14736e-06,0,-2.88109e-06,-1.09859e+09,-1.10017e+09,-1.09909e+09,-385058,-0.00518106,-0.0638528,-0,0.0640626,-1187.64,-40000,-0,40017.6,385058
step02_gravity_refstate-mantle.xmf,275,4.095e-06,-8.16044e-06,0,-1.82591e-06,-1.11471e+09,-1.11634e+09,-1.11525e+09,-244032,-0.00365046,-0.0612805,-0,0.0613891,-842.54,-40500.3,-0,40509.1,244032
step02_gravity_refstate-mantle.xmf,276,2.78919e-06,-6.64578e-06,0,-3.63515e-06,-1.09867e+09,-1.09993e+09,-1.09904e+09,-485838,-0.00712036,-0.0600648,-0,0.0604854,-1785.26,-40000,-0,40039.8,485838
step02_gravity_refstate-mantle.xmf,277,3.40615e-06,-7.11686e-06,0,-2.77618e-06,-1.11562e+09,-1.11703e+09,-1.11608e+09,-371037,-0.00591168,-0.0584392,-0,0.0587374,-1452.53,-40526.7,-0,40552.8,371037
step02_gravity_refstate-mantle.xmf,278,4.24101e-06,-7.9474e-06,0,-5.55678e-07,-1.12989e+09,-1.13152e+09,-1.13045e+09,-74266.3,-0.00111977,-0.0586757,-0,0.0586864,-264.845,-40970.8,-0,40971.6,74266.3
step02_gravity_refstate-mantle.xmf,279,3.97097e-06,-7.18679e-06,0,1.7114e-07,-1.15018e+09,-1.15167e+09,-1.15071e+09,22872.8,0.000462753,-0.054028,0,0.0540299,117.385,-41597.7,0,41597.8,22872.8
step02_gravity_refstate-mantle.xmf,280,3.40153e-06,-6.123e-06,0,1.42166e-06,-1.16835e+09,-1.16962e+09,-1.1688e+09,190005,0.00409491,-0.0487648,0,0.0489364,1135.27,-42157.8,0,42173.1,190005
step02_gravity_refstate-mantle.xmf,281,3.11192e-06,-5.50189e-06,0,1.58165e-06,-1.18506e+09,-1.18621e+09,-1.18548e+09,211387,0.00504191,-0.0448518,0,0.0451343,1492.56,-42673.8,0,42699.9,211387
step02_gravity_refstate-mantle.xmf,282,1.87482e-06,-3.60262e-06,0,2.50555e-06,-1.1926e+09,-1.19333e+09,-1.19285e+09,334867,0.00998194,-0.0360245,0,0.0373818,3525.89,-42903.1,0,43047.8,334867
step02_gravity_refstate-mantle.xmf,283,1.34887e-06,-2.78695e-06,0,2.60966e-06,-1.1922e+09,-1.19276e+09,-1.19238e+09,348781,0.011491,-0.031539,0,0.0335672,4469.31,-42889.6,0,43121.8,348781
step02_gravity_refstate-mantle.xmf,284,2.38128e-06,-4.28596e-06,0,2.15088e-06,-1.19966e+09,-1.20055e+09,-1.19998e+09,287465,0.00810705,-0.038674,0,0.0395145,2692.53,-43122.9,0,43206.9,287465
step02_gravity_refstate-mantle.xmf,285,1.28061e-06,-2.51045e-06,0,2.40543e-06,-1.21648e+09,-1.21699e+09,-1.21665e+09,321486,0.0118133,-0.0276327,0,0.030052,4878.46,-43639.8,0,43911.6,321486
step02_gravity_refstate-mantle.xmf,286,8.80566e-07,-1.67264e-06,0,2.16426e-06,-1.23978e+09,-1.24012e+09,-1.2399e+09,289253,0.0131373,-0.0200998,0,0.0240123,6274.51,-44358.9,0,44800.4,289253
step02_gravity_refstate-mantle.xmf,287,5.7452e-07,-1.02604e-06,0,1.89428e-06,-1.26482e+09,-1.26503e+09,-1.26489e+09,253171,0.0141318,-0.0131201,0,0.0192833,7776.43,-45132,0,45797,253171
step02_gravity_refstate-mantle.xmf,288,3.21624e-07,-4.8094e-07,0,1.61296e-06,-1.28897e+09,-1.28908e+09,-1.28902e+09,215572,0.0148805,-0.00665339,0,0.0163002,9454.29,-45877.9,0,46841.9,215572
step02_gravity_refstate-mantle.xmf,289,3.03424e-07,-3.54303e-07,0,1.46805e-06,-1.31682e+09,-1.31691e+09,-1.31686e+09,196204,0.0151226,-0.00437124,0,0.0157417,10068.4,-46738.3,0,47810.4,196204
step02_gravity_refstate-mantle.xmf,290,7.24599e-09,2.66791e-07,0,1.10534e-06,-1.34516e+09,-1.34513e+09,-1.34516e+09,147729,0.0156363,0.00307755,0,0.0159363,12834.8,-47613.4,0,49312.9,147729
step02_gravity_refstate-mantle.xmf,291,1.52486e-07,9.37906e-09,0,1.22698e-06,-1.346e+09,-1.34602e+09,-1.34602e+09,163986,0.0155476,0.000131527,0,0.0155481,11646.9,-47639.5,0,49042.6,163986
step02_gravity_refstate-mantle.xmf,292,-1.41882e-07,6.01071e-07,0,8.74206e-07,-1.37023e+09,-1.37013e+09,-1.37021e+09,116838,0.0156682,0.00709182,0,0.0171984,14820,-48387.6,0,50606.3,116838
step02_gravity_refstate-mantle.xmf,293,-1.65064e-07,7.06204e-07,0,7.62388e-07,-1.40449e+09,-1.40438e+09,-1.40447e+09,101893,0.0157863,0.0078707,0,0.0176396,15610.4,-49446,0,51851.7,101893
step02_gravity_refstate-mantle.xmf,294,-1.81296e-07,8.10372e-07,0,6.48134e-07,-1.44434e+09,-1.4442e+09,-1.44431e+09,86623.1,0.0158854,0.00815273,0,0.0178554,16372.3,-50677,0,53256.1,86623.1
step02_gravity_refstate-mantle.xmf,295,-2.08884e-07,9.27457e-07,0,5.36019e-07,-1.48475e+09,-1.4846e+09,-1.48473e+09,71639,0.0159206,0.0081353,0,0.0178787,17172.1,-51925.5,0,54691.3,71639
step02_gravity_refstate-mantle.xmf,296,-2.45501e-07,1.05311e-06,0,4.30174e-07,-1.52478e+09,-1.52461e+09,-1.52475e+09,57492.7,0.0158922,0.00780319,0,0.0177045,17990.5,-53162,0,56123.6,57492.7
step02_gravity_refstate-mantle.xmf,297,-3.06811e-07,1.21218e-06,0,3.26354e-07,-1.56359e+09,-1.56339e+09,-1.56355e+09,43617.2,0.0157398,0.00733054,0,0.0173632,19018.4,-54360.9,0,57591.7,43617.2
step02_gravity_refstate-mantle.xmf,298,-3.58398e-07,1.36391e-06,0,2.27835e-07,-1.60885e+09,-1.60862e+09,-1.6088e+09,30450.2,0.0155642,0.00611491,0,0.0167224,19929.1,-55759,0,59213.5,30450.2
step02_gravity_refstate-mantle.xmf,299,-4.15684e-07,1.52978e-06,0,1.34007e-07,-1.65814e+09,-1.65788e+09,-1.65808e+09,17910,0.015301,0.00431449,0,0.0158977,20872.7,-57281.5,0,60965.9,17910
step02_gravity_refstate-mantle.xmf,300,2.58891e-06,-5.87974e-06,0,-3.36413e-06,-1.116e+09,-1.11713e+09,-1.11634e+09,-449616,-0.00776268,-0.0547619,-0,0.0553093,-2073.9,-40535.9,-0,40589,449616
step02_gravity_refstate-mantle.xmf,301,3.67872e-06,-6.51347e-06,0,5.43268e-07,-1.16807e+09,-1.16944e+09,-1.16856e+09,72607.8,0.00153194,-0.0500588,0,0.0500823,413.544,-42150.2,0,42152.3,72607.8
step02_gravity_refstate-mantle.xmf,302,2.81285e-06,-4.87955e-06,0,1.68199e-06,-1.20174e+09,-1.20277e+09,-1.20212e+09,224798,0.00602095,-0.0410379,0,0.0414772,1902.64,-43188.7,0,43230.6,224798
step02_gravity_refstate-mantle.xmf,303,1.2134e-06,-2.19247e-06,0,2.18717e-06,-1.24112e+09,-1.24157e+09,-1.24128e+09,292315,0.0121708,-0.0238295,0,0.0267577,5351.87,-44401.2,0,44722.6,292315
step02_gravity_refstate-mantle.xmf,304,8.37887e-07,-1.45237e-06,0,1.97683e-06,-1.26572e+09,-1.26603e+09,-1.26584e+09,264204,0.0134469,-0.0167666,0,0.0214928,6799.29,-45160.6,0,45669.6,264204
step02_gravity_refstate-mantle.xmf,305,5.44851e-07,-8.49882e-07,0,1.72292e-06,-1.29165e+09,-1.29184e+09,-1.29173e+09,230269,0.0144195,-0.0102177,0,0.0176727,8373.02,-45961.2,0,46717.6,230269
step02_gravity_refstate-mantle.xmf,306,2.85343e-07,-2.29717e-07,0,1.33269e-06,-1.34329e+09,-1.34336e+09,-1.34333e+09,178114,0.0153269,-0.00245267,0,0.0155219,10663.3,-47556.1,0,48737,178114
step02_gravity_refstate-mantle.xmf,307,8.81153e-09,3.48332e-07,0,9.89796e-07,-1.37771e+09,-1.37766e+09,-1.37771e+09,132286,0.0158117,0.00410848,0,0.0163368,13426.4,-48618.8,0,50438.6,132286
step02_gravity_refstate-mantle.xmf,308,-4.67883e-07,1.68361e-06,0,5.85572e-08,-1.70465e+09,-1.70436e+09,-1.70459e+09,7826.17,0.0149915,0.00219765,0,0.0151517,21705.5,-58718.3,0,62601.6,7826.17
step02_gravity_refstate-mantle.xmf,309,1.99058e-06,-5.31166e-06,0,-3.83168e-06,-1.09873e+09,-1.09971e+09,-1.099e+09,-512103,-0.00856224,-0.0555115,-0,0.056168,-2394.25,-40000,-0,40071.6,512103
step02_gravity_refstate-mantle.xmf,310,3.17605e-06,-6.35591e-06,0,-2.54784e-06,-1.1348e+09,-1.13607e+09,-1.13522e+09,-340519,-0.00629169,-0.0534721,-0,0.053841,-1653.65,-41119.4,-0,41152.6,340519
step02_gravity_refstate-mantle.xmf,311,3.76358e-06,-7.23309e-06,0,-1.75985e-06,-1.13369e+09,-1.13516e+09,-1.13419e+09,-235204,-0.00406922,-0.0562334,-0,0.0563805,-1008.32,-41086.9,-0,41099.2,235204
step02_gravity_refstate-mantle.xmf,312,3.84953e-06,-6.97793e-06,0,-9.04456e-07,-1.15099e+09,-1.15244e+09,-1.1515e+09,-120881,-0.0022074,-0.0534329,-0,0.0534785,-566.15,-41622.5,-0,41626.3,120881
step02_gravity_refstate-mantle.xmf,313,3.75042e-06,-6.62608e-06,0,-2.61717e-07,-1.16589e+09,-1.16728e+09,-1.16639e+09,-34978.4,-0.000676043,-0.0506605,-0,0.050665,-181.029,-42083.1,-0,42083.5,34978.4
step02_gravity_refstate-mantle.xmf,314,3.41517e-06,-5.90414e-06,0,7.87356e-07,-1.18605e+09,-1.18729e+09,-1.1865e+09,105230,0.00244955,-0.0462869,0,0.0463517,703.781,-42705.2,0,42711,105230
step02_gravity_refstate-mantle.xmf,315,3.17464e-06,-5.3797e-06,0,1.06141e-06,-1.20153e+09,-1.20267e+09,-1.20196e+09,141858,0.00362463,-0.0429684,0,0.043121,1101.88,-43183.3,0,43197.4,141858
step02_gravity_refstate-mantle.xmf,316,1.70473e-06,-3.11565e-06,0,2.30655e-06,-1.21752e+09,-1.21816e+09,-1.21775e+09,308271,0.0105151,-0.0313045,0,0.0330234,4013.71,-43673.2,0,43857.2,308271
step02_gravity_refstate-mantle.xmf,317,2.1408e-06,-3.74633e-06,0,2.08797e-06,-1.21905e+09,-1.21984e+09,-1.21934e+09,279058,0.00886353,-0.0345148,0,0.0356347,3162.3,-43721.8,0,43836,279058
step02_gravity_refstate-mantle.xmf,318,2.54873e-06,-4.32308e-06,0,1.72837e-06,-1.21999e+09,-1.22091e+09,-1.22033e+09,230996,0.00691843,-0.0371674,0,0.0378058,2337.65,-43752,0,43814.4,230996
step02_gravity_refstate-mantle.xmf,319,1.57584e-06,-2.76254e-06,0,2.13805e-06,-1.24247e+09,-1.24305e+09,-1.24268e+09,285751,0.010902,-0.0273023,0,0.0293985,4449.69,-44443.9,0,44666.1,285751
step02_gravity_refstate-mantle.xmf,320,1.15061e-06,-1.93331e-06,0,2.0028e-06,-1.26669e+09,-1.2671e+09,-1.26685e+09,267674,0.0124778,-0.0203824,0,0.0238985,5820.79,-45191.4,0,45564.7,267674
step02_gravity_refstate-mantle.xmf,321,7.95622e-07,-1.24641e-06,0,1.79592e-06,-1.29346e+09,-1.29373e+09,-1.29357e+09,240025,0.0137297,-0.013659,0,0.0193668,7343.71,-46017.6,0,46599.9,240025
step02_gravity_refstate-mantle.xmf,322,5.0697e-07,-6.72876e-07,0,1.55765e-06,-1.31946e+09,-1.31961e+09,-1.31952e+09,208179,0.014698,-0.00749679,0,0.0164995,9016.68,-46820.2,0,47680.5,208179
step02_gravity_refstate-mantle.xmf,323,4.58921e-07,-5.05131e-07,0,1.40741e-06,-1.34765e+09,-1.34778e+09,-1.34771e+09,188101,0.0149631,-0.00503159,0,0.0157864,9693.97,-47691.2,0,48666.5,188101
step02_gravity_refstate-mantle.xmf,324,1.81489e-07,6.36556e-08,0,1.10453e-06,-1.38106e+09,-1.38108e+09,-1.38109e+09,147621,0.0156978,0.00108672,0,0.0157354,12060.1,-48722.9,0,50193.3,147621
step02_gravity_refstate-mantle.xmf,325,3.67759e-07,-2.56074e-07,0,1.23384e-06,-1.37527e+09,-1.37535e+09,-1.37532e+09,164902,0.0153262,-0.0021481,0,0.015476,10688,-48544.3,0,49707,164902
step02_gravity_refstate-mantle.xmf,326,-1.51161e-08,4.61814e-07,0,8.69684e-07,-1.40888e+09,-1.40882e+09,-1.40888e+09,116233,0.0159416,0.00518712,0,0.0167643,14161.9,-49582,0,51564.8,116233
step02_gravity_refstate-mantle.xmf,327,-3.9451e-08,5.74606e-07,0,7.46601e-07,-1.44579e+09,-1.44571e+09,-1.44579e+09,99783.3,0.0160539,0.00587214,0,0.0170941,14899.6,-50722.3,0,52865.4,99783.3
step02_gravity_refstate-mantle.xmf,328,-6.30677e-08,6.91313e-07,0,6.22705e-07,-1.48575e+09,-1.48565e+09,-1.48574e+09,83224.5,0.016134,0.00615467,0,0.017268,15628.4,-51956.6,0,54256.2,83224.5
step02_gravity_refstate-mantle.xmf,329,-9.95734e-08,8.23023e-07,0,5.01414e-07,-1.52635e+09,-1.52623e+09,-1.52634e+09,67014,0.0161692,0.00614328,0,0.0172969,16411.4,-53210.9,0,55684.2,67014
step02_gravity_refstate-mantle.xmf,330,-1.50586e-07,9.72565e-07,0,3.84588e-07,-1.56728e+09,-1.56713e+09,-1.56726e+09,51400.1,0.0161481,0.00582673,0,0.0171672,17273.5,-54475.2,0,57148.2,51400.1
step02_gravity_refstate-mantle.xmf,331,-2.09313e-07,1.13269e-06,0,2.73861e-07,-1.60982e+09,-1.60964e+09,-1.60979e+09,36601.5,0.0160657,0.00508259,0,0.0168505,18169.3,-55789.3,0,58673.4,36601.5
step02_gravity_refstate-mantle.xmf,332,-2.77219e-07,1.30976e-06,0,1.67452e-07,-1.65564e+09,-1.65543e+09,-1.6556e+09,22379.9,0.0159009,0.00382083,0,0.0163535,19131.2,-57204.8,0,60319.1,22379.9
step02_gravity_refstate-mantle.xmf,333,-3.53991e-07,1.49982e-06,0,7.42745e-08,-1.70186e+09,-1.70162e+09,-1.70182e+09,9926.78,0.0156237,0.00209403,0,0.0157634,20162.2,-58632.5,0,62002.3,9926.78
step02_gravity_refstate-mantle.xmf,334,-4.50191e-07,1.71931e-06,0,-1.28053e-09,-1.74614e+09,-1.74585e+09,-1.74607e+09,-171.143,0.0151301,-2.11061e-19,0,0.0151301,21436.1,-60000,0,63714.3,171.143
step02_gravity_refstate-mantle.xmf,335,1.31926e-06,-4.11327e-06,0,-3.79619e-06,-1.09878e+09,-1.0995e+09,-1.09895e+09,-507361,-0.00958749,-0.0505257,-0,0.0514273,-3021.01,-40000,-0,40113.9,507361
step02_gravity_refstate-mantle.xmf,336,1.92794e-06,-4.77926e-06,0,-3.52771e-06,-1.11665e+09,-1.11755e+09,-1.11691e+09,-471479,-0.00916418,-0.0504606,-0,0.0512861,-2700.11,-40554.6,-0,40644.4,471479
step02_gravity_refstate-mantle.xmf,337,2.44309e-06,-5.24475e-06,0,-3.07577e-06,-1.13524e+09,-1.13627e+09,-1.13557e+09,-411077,-0.00825026,-0.0497472,-0,0.0504267,-2353.97,-41131.1,-0,41198.4,411077
step02_gravity_refstate-mantle.xmf,338,3.5269e-06,-6.07552e-06,0,-6.67925e-08,-1.18458e+09,-1.18587e+09,-1.18505e+09,-8926.81,-0.000201073,-0.047031,-0,0.0470314,-57.0591,-42660.3,-0,42660.4,8926.81
step02_gravity_refstate-mantle.xmf,339,2.88685e-06,-4.79136e-06,0,1.22038e-06,-1.22096e+09,-1.22199e+09,-1.22135e+09,163104,0.00467672,-0.0391157,0,0.0393943,1519.2,-43783.1,0,43809.5,163104
step02_gravity_refstate-mantle.xmf,340,1.46518e-06,-2.41153e-06,0,1.95957e-06,-1.26704e+09,-1.26755e+09,-1.26723e+09,261897,0.0112808,-0.0236758,0,0.026226,4904.42,-45202.9,0,45468.2,261897
step02_gravity_refstate-mantle.xmf,341,1.0948e-06,-1.69771e-06,0,1.81452e-06,-1.29566e+09,-1.29603e+09,-1.29581e+09,242511,0.0127188,-0.0171312,0,0.0213365,6284.57,-46086.4,0,46513,242511
step02_gravity_refstate-mantle.xmf,342,7.4256e-07,-1.04102e-06,0,1.62778e-06,-1.32128e+09,-1.32151e+09,-1.32138e+09,217552,0.0140243,-0.0107491,0,0.0176699,7939.62,-46877,0,47544.7,217552
step02_gravity_refstate-mantle.xmf,343,1.52339e-07,1.92501e-07,0,9.71464e-07,-1.41236e+09,-1.41236e+09,-1.41238e+09,129836,0.0158607,0.00247665,0,0.0160529,12773.7,-49689.9,0,51305.5,129836
step02_gravity_refstate-mantle.xmf,344,1.32002e-06,-3.74668e-06,0,-3.51923e-06,-1.11695e+09,-1.11762e+09,-1.11712e+09,-470346,-0.0102109,-0.0457945,-0,0.0469191,-3350.59,-40562.2,-0,40700.4,470346
step02_gravity_refstate-mantle.xmf,345,2.86564e-06,-5.55563e-06,0,-2.43945e-06,-1.15458e+09,-1.15571e+09,-1.15496e+09,-326032,-0.00698962,-0.0483332,-0,0.048836,-1988.53,-41730.5,-0,41777.9,326032
step02_gravity_refstate-mantle.xmf,346,3.43143e-06,-6.38267e-06,0,-1.76663e-06,-1.15379e+09,-1.1551e+09,-1.15425e+09,-236110,-0.00473395,-0.0512058,-0,0.0514242,-1267.63,-41707.7,-0,41726.9,236110
step02_gravity_refstate-mantle.xmf,347,3.5144e-06,-6.13474e-06,0,-9.86202e-07,-1.17528e+09,-1.17657e+09,-1.17575e+09,-131806,-0.002819,-0.0481655,-0,0.048248,-786.153,-42372.6,-0,42379.9,131806
step02_gravity_refstate-mantle.xmf,348,3.32912e-06,-5.59133e-06,0,2.99348e-07,-1.20265e+09,-1.20384e+09,-1.2031e+09,40007.9,0.00100903,-0.0437062,0,0.0437179,302.081,-43218.4,0,43219.5,40007.9
step02_gravity_refstate-mantle.xmf,349,3.12292e-06,-5.09865e-06,0,6.00657e-07,-1.22117e+09,-1.22227e+09,-1.22159e+09,80277.8,0.00224295,-0.0403405,0,0.0404028,711.142,-43790.3,0,43796,80277.8
step02_gravity_refstate-mantle.xmf,350,1.96553e-06,-3.29991e-06,0,1.95602e-06,-1.24271e+09,-1.24341e+09,-1.24297e+09,261422,0.00935581,-0.0304672,0,0.0318713,3576.72,-44452.4,0,44596.1,261422
step02_gravity_refstate-mantle.xmf,351,2.33762e-06,-3.83307e-06,0,1.67613e-06,-1.24225e+09,-1.24308e+09,-1.24257e+09,224015,0.00752911,-0.033237,0,0.0340791,2722.42,-44439.6,0,44522.9,224015
step02_gravity_refstate-mantle.xmf,352,2.64898e-06,-4.27578e-06,0,1.28815e-06,-1.24181e+09,-1.24273e+09,-1.24216e+09,172161,0.00551279,-0.0353652,0,0.0357923,1911.32,-44426.7,0,44467.8,172161
step02_gravity_refstate-mantle.xmf,353,1.82401e-06,-2.9157e-06,0,1.80564e-06,-1.26976e+09,-1.2704e+09,-1.27001e+09,241324,0.00971815,-0.0265613,0,0.0282833,3974.98,-45288.3,0,45462.4,241324
step02_gravity_refstate-mantle.xmf,354,1.46685e-06,-2.24664e-06,0,1.74446e-06,-1.29969e+09,-1.30018e+09,-1.29988e+09,233147,0.0111738,-0.020661,0,0.023489,5108.36,-46212,0,46493.4,233147
step02_gravity_refstate-mantle.xmf,355,1.01167e-06,-1.44439e-06,0,1.65169e-06,-1.32331e+09,-1.32364e+09,-1.32344e+09,220749,0.013074,-0.0139491,0,0.0191182,6865.8,-46940.6,0,47440,220749
step02_gravity_refstate-mantle.xmf,356,6.87342e-07,-8.4122e-07,0,1.46365e-06,-1.35075e+09,-1.35095e+09,-1.35084e+09,195616,0.014315,-0.00803278,0,0.0164148,8578.77,-47787.5,0,48551.5,195616
step02_gravity_refstate-mantle.xmf,357,6.28061e-07,-6.5494e-07,0,1.30913e-06,-1.38194e+09,-1.38211e+09,-1.38202e+09,174966,0.0145939,-0.00557448,0,0.0156223,9248.6,-48751.1,0,49620.6,174966
step02_gravity_refstate-mantle.xmf,358,3.39679e-07,-1.04482e-07,0,1.06809e-06,-1.41302e+09,-1.41308e+09,-1.41307e+09,142750,0.0155323,-0.000295246,0,0.0155351,11415.4,-49710.8,0,51004.7,142750
step02_gravity_refstate-mantle.xmf,359,1.26233e-07,3.1511e-07,0,8.40121e-07,-1.44682e+09,-1.4468e+09,-1.44684e+09,112282,0.0159966,0.00349339,0,0.0163736,13470,-50754.5,0,52511.6,112282
step02_gravity_refstate-mantle.xmf,360,1.01971e-07,4.32149e-07,0,7.06922e-07,-1.48655e+09,-1.48651e+09,-1.48656e+09,94480.1,0.0161065,0.00407438,0,0.0166138,14131.3,-51981.8,0,53868.4,94480.1
step02_gravity_refstate-mantle.xmf,361,6.80143e-08,5.65081e-07,0,5.7351e-07,-1.52731e+09,-1.52724e+09,-1.52732e+09,76649.7,0.0161955,0.00437044,0,0.0167748,14843.9,-53241,0,55271.6,76649.7
step02_gravity_refstate-mantle.xmf,362,1.94185e-08,7.15588e-07,0,4.43028e-07,-1.56893e+09,-1.56883e+09,-1.56893e+09,59210.7,0.0162583,0.00435646,0,0.0168318,15627.8,-54526.6,0,56722,59210.7
step02_gravity_refstate-mantle.xmf,363,-3.80146e-08,8.76625e-07,0,3.17841e-07,-1.61192e+09,-1.6118e+09,-1.61192e+09,42479.4,0.0162821,0.00393325,0,0.0167504,16442,-55854.7,0,58224.5,42479.4
step02_gravity_refstate-mantle.xmf,364,-1.13601e-07,1.06122e-06,0,2.00629e-07,-1.65524e+09,-1.65508e+09,-1.65523e+09,26814.1,0.0162439,0.00313733,0,0.0165441,17374.5,-57192.9,0,59773.7,26814.1
step02_gravity_refstate-mantle.xmf,365,-1.96741e-07,1.25792e-06,0,9.3254e-08,-1.70031e+09,-1.70011e+09,-1.70028e+09,12463.4,0.0161212,0.00182559,0,0.0162243,18353,-58584.9,0,61392.4,12463.4
step02_gravity_refstate-mantle.xmf,366,-2.95444e-07,1.47997e-06,0,-1.35598e-09,-1.74612e+09,-1.74588e+09,-1.74608e+09,-181.226,0.015858,-1.85551e-19,0,0.015858,19481,-60000,0,63083.3,181.226
step02_gravity_refstate-mantle.xmf,367,8.54773e-07,-3.16616e-06,0,-3.59333e-06,-1.0988e+09,-1.09933e+09,-1.09891e+09,-480248,-0.0102884,-0.0453148,-0,0.046468,-3670.37,-40000,-0,40168,480248
step02_gravity_refstate-mantle.xmf,368,1.84553e-06,-4.29425e-06,0,-3.24451e-06,-1.13553e+09,-1.13635e+09,-1.13577e+09,-433629,-0.00967458,-0.0456829,-0,0.0466961,-3022.51,-41138.3,-0,41249.2,433629
step02_gravity_refstate-mantle.xmf,369,2.26414e-06,-4.65353e-06,0,-2.84967e-06,-1.15455e+09,-1.15547e+09,-1.15485e+09,-380858,-0.00877656,-0.0449692,-0,0.0458177,-2685.62,-41727.7,-0,41814.1,380858
step02_gravity_refstate-mantle.xmf,370,3.33056e-06,-5.62643e-06,0,-5.14018e-07,-1.19956e+09,-1.20075e+09,-1.2e+09,-68698.5,-0.00171827,-0.0440985,-0,0.0441319,-510.901,-43122.7,-0,43125.7,68698.5
step02_gravity_refstate-mantle.xmf,371,2.87177e-06,-4.58528e-06,0,8.15308e-07,-1.24209e+09,-1.24309e+09,-1.24248e+09,108966,0.00337588,-0.0367047,0,0.0368597,1140.08,-44436.2,0,44450.8,108966
step02_gravity_refstate-mantle.xmf,372,1.64736e-06,-2.57946e-06,0,1.77415e-06,-1.28424e+09,-1.2848e+09,-1.28446e+09,237115,0.0104243,-0.0236977,0,0.0258891,4497.27,-45735,0,45955.6,237115
step02_gravity_refstate-mantle.xmf,373,1.31588e-06,-1.88548e-06,0,1.61067e-06,-1.32533e+09,-1.32576e+09,-1.32551e+09,215266,0.0117752,-0.017097,0,0.0207596,5762.54,-47004.1,0,47356,215266
step02_gravity_refstate-mantle.xmf,374,9.33589e-07,-1.20907e-06,0,1.49379e-06,-1.35234e+09,-1.35262e+09,-1.35246e+09,199644,0.0134144,-0.011017,0,0.0173585,7473.64,-47837.4,0,48417.7,199644
step02_gravity_refstate-mantle.xmf,375,5.53787e-07,-4.3248e-07,0,1.14446e-06,-1.41376e+09,-1.41389e+09,-1.41384e+09,152957,0.0149374,-0.00314104,0,0.0152641,10075.2,-49734.2,0,50744.5,152957
step02_gravity_refstate-mantle.xmf,376,3.04962e-07,3.76172e-08,0,9.24152e-07,-1.44763e+09,-1.44766e+09,-1.44767e+09,123513,0.0157085,0.0010915,0,0.0157463,12109,-50779.9,0,52203.7,123513
step02_gravity_refstate-mantle.xmf,377,4.99967e-07,-2.37977e-06,0,-3.33502e-06,-1.09881e+09,-1.09919e+09,-1.09888e+09,-445725,-0.0107406,-0.0400081,-0,0.0414247,-4346.07,-40000,-0,40235.4,445725
step02_gravity_refstate-mantle.xmf,378,8.86988e-07,-2.91066e-06,0,-3.36504e-06,-1.11709e+09,-1.1176e+09,-1.11721e+09,-449738,-0.0109445,-0.0409572,-0,0.0423943,-4018.23,-40566,-0,40764.6,449738
step02_gravity_refstate-mantle.xmf,379,1.30561e-06,-3.40386e-06,0,-3.25529e-06,-1.13582e+09,-1.13645e+09,-1.13599e+09,-435070,-0.0107261,-0.0413346,-0,0.0427036,-3695.32,-41146,-0,41311.6,435070
step02_gravity_refstate-mantle.xmf,380,2.5853e-06,-4.8725e-06,0,-2.34788e-06,-1.17434e+09,-1.17533e+09,-1.17468e+09,-313794,-0.0076849,-0.0435663,-0,0.0442389,-2360.69,-42340.6,-0,42406.3,313794
step02_gravity_refstate-mantle.xmf,381,3.06211e-06,-5.54357e-06,0,-1.81203e-06,-1.17567e+09,-1.17682e+09,-1.17608e+09,-242178,-0.00561866,-0.0460257,-0,0.0463674,-1637.07,-42383.2,-0,42414.8,242178
step02_gravity_refstate-mantle.xmf,382,3.12218e-06,-5.30594e-06,0,-1.26389e-06,-1.19872e+09,-1.19985e+09,-1.19914e+09,-168919,-0.0042278,-0.0430735,-0,0.0432804,-1284.91,-43096.4,-0,43115.6,168919
step02_gravity_refstate-mantle.xmf,383,3.17037e-06,-5.17885e-06,0,-7.91566e-08,-1.22151e+09,-1.22263e+09,-1.22194e+09,-10579.3,-0.000298184,-0.0406417,-0,0.0406428,-93.8587,-43801.1,-0,43801.2,10579.3
step02_gravity_refstate-mantle.xmf,384,2.99797e-06,-4.72827e-06,0,2.4849e-07,-1.24318e+09,-1.24422e+09,-1.24359e+09,33210.6,0.00103631,-0.0372602,0,0.0372746,346.107,-44470.5,0,44471.8,33210.6
step02_gravity_refstate-mantle.xmf,385,2.17548e-06,-3.43984e-06,0,1.5891e-06,-1.26536e+09,-1.26611e+09,-1.26565e+09,212383,0.00793693,-0.029724,0,0.0307654,3050.61,-45153.3,0,45256.2,212383
step02_gravity_refstate-mantle.xmf,386,2.4724e-06,-3.85958e-06,0,1.26274e-06,-1.26396e+09,-1.2648e+09,-1.26429e+09,168766,0.00599881,-0.0319461,0,0.0325044,2207.39,-45110.8,0,45164.8,168766
step02_gravity_refstate-mantle.xmf,387,2.68496e-06,-4.18322e-06,0,9.5678e-07,-1.25947e+09,-1.26039e+09,-1.25983e+09,127874,0.00428408,-0.033786,0,0.0340565,1523.04,-44972.9,0,44998.7,127874
step02_gravity_refstate-mantle.xmf,388,1.83017e-06,-2.75521e-06,0,1.57129e-06,-1.30046e+09,-1.30107e+09,-1.3007e+09,210004,0.00934486,-0.023804,0,0.0255725,4001.3,-46236.9,0,46409.7,210004
step02_gravity_refstate-mantle.xmf,389,1.64542e-06,-2.36076e-06,0,1.48603e-06,-1.32785e+09,-1.32839e+09,-1.32807e+09,198608,0.0100408,-0.0200624,0,0.0224348,4609.67,-47082.8,0,47307.9,198608
step02_gravity_refstate-mantle.xmf,390,1.20541e-06,-1.60217e-06,0,1.47099e-06,-1.3541e+09,-1.35447e+09,-1.35426e+09,196598,0.0122108,-0.0139215,0,0.0185179,6358.95,-47892.5,0,48312.8,196598
step02_gravity_refstate-mantle.xmf,391,8.57685e-07,-9.85105e-07,0,1.33844e-06,-1.38308e+09,-1.38333e+09,-1.3832e+09,178882,0.0137516,-0.00830666,0,0.0160657,8121.02,-48787.1,0,49458.4,178882
step02_gravity_refstate-mantle.xmf,392,7.80616e-07,-7.7834e-07,0,1.19162e-06,-1.41538e+09,-1.41558e+09,-1.41548e+09,159260,0.014081,-0.00587159,0,0.0152562,8799.66,-49784.7,0,50556.4,159260
step02_gravity_refstate-mantle.xmf,393,5.02299e-07,-2.6057e-07,0,9.9259e-07,-1.44822e+09,-1.44832e+09,-1.44829e+09,132660,0.0151774,-0.00134827,0,0.0152372,10783.1,-50798.7,0,51930.6,132660
step02_gravity_refstate-mantle.xmf,394,2.77181e-07,1.68346e-07,0,7.81329e-07,-1.48583e+09,-1.48584e+09,-1.48587e+09,104425,0.0158481,0.0020424,0,0.0159791,12753.3,-51960,0,53502.2,104425
step02_gravity_refstate-mantle.xmf,395,2.511e-07,2.89445e-07,0,6.40265e-07,-1.52759e+09,-1.52758e+09,-1.52762e+09,85571.4,0.0159552,0.00255153,0,0.0161579,13335.8,-53250.1,0,54894.6,85571.4
step02_gravity_refstate-mantle.xmf,396,2.06673e-07,4.37411e-07,0,4.99652e-07,-1.56937e+09,-1.56934e+09,-1.56939e+09,66778.5,0.0160775,0.00284483,0,0.0163273,14026.3,-54540.7,0,56315.5,66778.5
step02_gravity_refstate-mantle.xmf,397,1.45846e-07,6.05323e-07,0,3.62138e-07,-1.61216e+09,-1.6121e+09,-1.61218e+09,48399.7,0.016194,0.00280682,0,0.0164354,14802.4,-55862.6,0,57790.5,48399.7
step02_gravity_refstate-mantle.xmf,398,7.05133e-08,7.90749e-07,0,2.31101e-07,-1.65585e+09,-1.65575e+09,-1.65585e+09,30886.6,0.0162815,0.00236114,0,0.0164518,15653,-57212.1,0,59314.7,30886.6
step02_gravity_refstate-mantle.xmf,399,-1.93389e-08,9.95802e-07,0,1.08839e-07,-1.70071e+09,-1.70057e+09,-1.70071e+09,14546.3,0.0163119,0.00144058,0,0.0163754,16590.1,-58597.9,0,60901.1,14546.3
step02_gravity_refstate-mantle.xmf,400,-1.189e-07,1.21496e-06,0,-1.24289e-09,-1.74611e+09,-1.74593e+09,-1.74609e+09,-166.112,0.0162498,-1.4822e-19,0,0.0162498,17587.3,-60000,0,62524.5,166.112
step02_gravity_refstate-mantle.xmf,401,2.44918e-07,-1.7385e-06,0,-3.05168e-06,-1.09881e+09,-1.09908e+09,-1.09884e+09,-407857,-0.0110014,-0.0346903,-0,0.0363929,-5051.17,-40000,-0,40317.7,407857
step02_gravity_refstate-mantle.xmf,402,5.47673e-07,-2.21193e-06,0,-3.15247e-06,-1.1173e+09,-1.11767e+09,-1.11737e+09,-421328,-0.0114291,-0.0360984,-0,0.0378645,-4698.43,-40571.8,-0,40843,421328
step02_gravity_refstate-mantle.xmf,403,1.74672e-06,-3.84945e-06,0,-2.99679e-06,-1.15455e+09,-1.1553e+09,-1.15479e+09,-400521,-0.0101375,-0.0412286,-0,0.0424566,-3366.89,-41726.5,-0,41862.1,400521
step02_gravity_refstate-mantle.xmf,404,2.09594e-06,-4.14694e-06,0,-2.65435e-06,-1.17379e+09,-1.17463e+09,-1.17407e+09,-354753,-0.00926813,-0.0405917,-0,0.0416363,-3033.99,-42322.4,-0,42431,354753
step02_gravity_refstate-mantle.xmf,405,3.06753e-06,-5.03612e-06,0,-7.49959e-07,-1.22144e+09,-1.22252e+09,-1.22185e+09,-100232,-0.00282148,-0.0400839,-0,0.0401831,-898.969,-43798.5,-0,43807.7,100232
step02_gravity_refstate-mantle.xmf,406,2.79015e-06,-4.30478e-06,0,5.30456e-07,-1.26399e+09,-1.26494e+09,-1.26437e+09,70895.5,0.00237896,-0.0340343,0,0.0341173,840.567,-45112.9,0,45120.7,70895.5
step02_gravity_refstate-mantle.xmf,407,2.0392e-06,-3.13433e-06,0,1.52796e-06,-1.28625e+09,-1.28694e+09,-1.28652e+09,204212,0.00830639,-0.0267764,0,0.0280352,3363.51,-45798.3,0,45921.6,204212
step02_gravity_refstate-mantle.xmf,408,1.49262e-06,-2.00768e-06,0,1.381e-06,-1.35562e+09,-1.35609e+09,-1.35582e+09,184570,0.0106742,-0.0166672,0,0.0197923,5229.98,-47940.4,0,48224.8,184570
step02_gravity_refstate-mantle.xmf,409,1.10752e-06,-1.34565e-06,0,1.3303e-06,-1.38446e+09,-1.38478e+09,-1.3846e+09,177795,0.0126174,-0.0110163,0,0.0167499,6973.74,-48830.3,0,49325.8,177795
step02_gravity_refstate-mantle.xmf,410,7.18919e-07,-5.79015e-07,0,1.03698e-06,-1.44898e+09,-1.44916e+09,-1.44908e+09,138592,0.0143812,-0.0038023,0,0.0148753,9475.68,-50823,0,51698.8,138592
step02_gravity_refstate-mantle.xmf,411,4.69953e-07,-1.19671e-07,0,8.44521e-07,-1.48568e+09,-1.48576e+09,-1.48575e+09,112870,0.0153418,-9.38502e-05,0,0.0153421,11381.9,-51956.1,0,53188.2,112870
step02_gravity_refstate-mantle.xmf,412,2.80359e-07,-1.60825e-06,0,-2.89855e-06,-1.11743e+09,-1.11769e+09,-1.11747e+09,-387391,-0.011734,-0.0310287,-0,0.0331733,-5433.94,-40575.9,-0,40938.1,387391
step02_gravity_refstate-mantle.xmf,413,9.07115e-07,-2.6693e-06,0,-3.13632e-06,-1.1361e+09,-1.13658e+09,-1.13622e+09,-419170,-0.0114792,-0.0368424,-0,0.0385894,-4378.88,-41154,-0,41386.3,419170
step02_gravity_refstate-mantle.xmf,414,1.28062e-06,-3.09721e-06,0,-3.01436e-06,-1.15501e+09,-1.15559e+09,-1.15518e+09,-402869,-0.0111514,-0.0372458,-0,0.0388794,-4042.11,-41739.3,-0,41934.6,402869
step02_gravity_refstate-mantle.xmf,415,2.33444e-06,-4.32072e-06,0,-2.31428e-06,-1.18967e+09,-1.19056e+09,-1.18998e+09,-309303,-0.0084045,-0.0397645,-0,0.040643,-2752.79,-42814,-0,42902.4,309303
step02_gravity_refstate-mantle.xmf,416,2.67031e-06,-4.6944e-06,0,-1.9044e-06,-1.19868e+09,-1.19966e+09,-1.19903e+09,-254523,-0.00679343,-0.0406729,-0,0.0412364,-2167.42,-43093.5,-0,43148,254523
step02_gravity_refstate-mantle.xmf,417,2.81839e-06,-4.65803e-06,0,-1.35806e-06,-1.22178e+09,-1.22277e+09,-1.22215e+09,-181505,-0.00520697,-0.0385826,-0,0.0389324,-1708.94,-43808.1,-0,43841.4,181505
step02_gravity_refstate-mantle.xmf,418,2.96519e-06,-4.69747e-06,0,-3.49577e-07,-1.24409e+09,-1.24511e+09,-1.24448e+09,-46721,-0.00144448,-0.0370598,-0,0.0370879,-484.007,-44498.2,-0,44500.8,46721
step02_gravity_refstate-mantle.xmf,419,2.84693e-06,-4.34086e-06,0,-2.1918e-08,-1.26638e+09,-1.26734e+09,-1.26676e+09,-2929.34,-6.0766e-05,-0.0340832,-0,0.0340833,-21.44,-45186.9,-0,45186.9,2929.34
step02_gravity_refstate-mantle.xmf,420,2.5775e-06,-3.89354e-06,0,8.12933e-07,-1.28181e+09,-1.28267e+09,-1.28215e+09,108649,0.00403004,-0.0310331,0,0.0312937,1502.3,-45662.8,0,45687.5,108649
step02_gravity_refstate-mantle.xmf,421,2.32016e-06,-3.50798e-06,0,1.20614e-06,-1.28696e+09,-1.28773e+09,-1.28727e+09,161201,0.00630333,-0.0288251,0,0.0295063,2450.09,-45821.1,0,45886.6,161201
step02_gravity_refstate-mantle.xmf,422,2.13426e-06,-3.14403e-06,0,1.25981e-06,-1.3067e+09,-1.3074e+09,-1.30698e+09,168373,0.00721852,-0.0257286,0,0.0267221,2968.43,-46430.7,0,46525.5,168373
step02_gravity_refstate-mantle.xmf,423,1.94826e-06,-2.76821e-06,0,1.26071e-06,-1.32979e+09,-1.33042e+09,-1.33005e+09,168494,0.00805712,-0.0224669,0,0.0238679,3518.75,-47143.6,0,47274.8,168494
step02_gravity_refstate-mantle.xmf,424,1.77367e-06,-2.4028e-06,0,1.22055e-06,-1.357e+09,-1.35756e+09,-1.35724e+09,163126,0.00882344,-0.0190805,0,0.0210219,4105.97,-47984.1,0,48159.4,163126
step02_gravity_refstate-mantle.xmf,425,1.3662e-06,-1.71297e-06,0,1.27149e-06,-1.38501e+09,-1.38542e+09,-1.3852e+09,169935,0.0112046,-0.0135979,0,0.0176195,5833.22,-48848.3,0,49195.4,169935
step02_gravity_refstate-mantle.xmf,426,1.01875e-06,-1.11025e-06,0,1.18935e-06,-1.41639e+09,-1.41668e+09,-1.41653e+09,158957,0.013002,-0.00839509,0,0.0154767,7606.55,-49816.9,0,50394.3,158957
step02_gravity_refstate-mantle.xmf,427,9.33152e-07,-8.98314e-07,0,1.05627e-06,-1.44929e+09,-1.44953e+09,-1.44941e+09,141170,0.0133734,-0.00609213,0,0.0146956,8255.16,-50832.9,0,51498.9,141170
step02_gravity_refstate-mantle.xmf,428,6.69179e-07,-4.12624e-07,0,8.90233e-07,-1.48478e+09,-1.48492e+09,-1.48487e+09,118980,0.014611,-0.00218897,0,0.014774,10083,-51928.7,0,52898.6,118980
step02_gravity_refstate-mantle.xmf,429,4.47343e-07,5.9566e-09,0,6.95247e-07,-1.52672e+09,-1.52678e+09,-1.52678e+09,92919.8,0.015459,0.000728742,0,0.0154761,11901.6,-53223.9,0,54538.3,92919.8
step02_gravity_refstate-mantle.xmf,430,4.07531e-07,1.4471e-07,0,5.48726e-07,-1.56922e+09,-1.56925e+09,-1.56927e+09,73337.2,0.0156026,0.0012984,0,0.0156565,12477.8,-54536.8,0,55946,73337.2
step02_gravity_refstate-mantle.xmf,431,3.44958e-07,3.16266e-07,0,4.03502e-07,-1.61148e+09,-1.61149e+09,-1.61153e+09,53928.1,0.0158014,0.00163757,0,0.0158861,13199.3,-55842.3,0,57381,53928.1
step02_gravity_refstate-mantle.xmf,432,2.68046e-07,5.05811e-07,0,2.60153e-07,-1.65563e+09,-1.6556e+09,-1.65567e+09,34769.4,0.0160014,0.00157426,0,0.0160786,13996.6,-57206.1,0,58893.5,34769.4
step02_gravity_refstate-mantle.xmf,433,1.81751e-07,7.05243e-07,0,1.24694e-07,-1.70068e+09,-1.70061e+09,-1.7007e+09,16665.4,0.0161688,0.0010342,0,0.0162018,14823.3,-58597.4,0,60443.2,16665.4
step02_gravity_refstate-mantle.xmf,434,7.81382e-08,9.27191e-07,0,-1.15588e-09,-1.74609e+09,-1.74597e+09,-1.7461e+09,-154.484,0.0162873,-1.0898e-19,0,0.0162873,15749.5,-60000,0,62032.6,154.484
step02_gravity_refstate-mantle.xmf,435,6.35662e-08,-1.21971e-06,0,-2.76027e-06,-1.09881e+09,-1.09898e+09,-1.09882e+09,-368910,-0.0111144,-0.0294196,-0,0.0314491,-5788.3,-40000,-0,40416.6,368910
step02_gravity_refstate-mantle.xmf,436,5.75346e-07,-2.02561e-06,0,-2.95718e-06,-1.13614e+09,-1.13649e+09,-1.13622e+09,-395226,-0.0119986,-0.0322386,-0,0.034399,-5089.65,-41154.5,-0,41468,395226
step02_gravity_refstate-mantle.xmf,437,1.68206e-06,-3.49576e-06,0,-2.76074e-06,-1.1748e+09,-1.17549e+09,-1.17503e+09,-368973,-0.0104724,-0.0372262,-0,0.0386712,-3680.24,-42352.4,-0,42512,368973
step02_gravity_refstate-mantle.xmf,438,2.00609e-06,-3.79473e-06,0,-2.44805e-06,-1.19393e+09,-1.19471e+09,-1.1942e+09,-327182,-0.00951116,-0.0369199,-0,0.0381253,-3292.9,-42944.9,-0,43070.9,327182
step02_gravity_refstate-mantle.xmf,439,2.82102e-06,-4.49482e-06,0,-8.99612e-07,-1.24455e+09,-1.24552e+09,-1.24492e+09,-120233,-0.00378394,-0.0361437,-0,0.0363412,-1290.96,-44511.9,-0,44530.6,120233
step02_gravity_refstate-mantle.xmf,440,2.69283e-06,-4.02549e-06,0,2.89697e-07,-1.28594e+09,-1.28683e+09,-1.2863e+09,38718,0.00141744,-0.0314276,0,0.0314595,523.776,-45790.8,0,45793.8,38718
step02_gravity_refstate-mantle.xmf,441,1.62076e-06,-2.0658e-06,0,1.14795e-06,-1.38602e+09,-1.38651e+09,-1.38624e+09,153423,0.00950732,-0.0158908,0,0.0185178,4703.38,-48880.3,0,49106,153423
step02_gravity_refstate-mantle.xmf,442,1.25878e-06,-1.44847e-06,0,1.14853e-06,-1.41722e+09,-1.41759e+09,-1.41739e+09,153501,0.011664,-0.0107683,0,0.0158747,6435.17,-49843.3,0,50257,153501
step02_gravity_refstate-mantle.xmf,443,8.85294e-07,-7.264e-07,0,9.13722e-07,-1.48329e+09,-1.48351e+09,-1.48341e+09,122119,0.0135972,-0.00436062,0,0.0142793,8761.85,-51883.4,0,52618.1,122119
step02_gravity_refstate-mantle.xmf,444,6.54497e-07,-2.94854e-07,0,7.38313e-07,-1.52533e+09,-1.52546e+09,-1.52542e+09,98675.6,0.0146885,-0.00115313,0,0.0147337,10483.8,-53181.6,0,54205.1,98675.6
step02_gravity_refstate-mantle.xmf,445,9.63709e-08,-1.12918e-06,0,-2.63735e-06,-1.11765e+09,-1.11782e+09,-1.11767e+09,-352482,-0.0118815,-0.02611,-0,0.0286863,-6182.49,-40582.6,-0,41050.9,352482
step02_gravity_refstate-mantle.xmf,446,3.0854e-07,-1.4696e-06,0,-2.7378e-06,-1.1358e+09,-1.13604e+09,-1.13584e+09,-365907,-0.0123195,-0.0275463,-0,0.0301756,-5837.77,-41143.8,-0,41555.9,365907
step02_gravity_refstate-mantle.xmf,447,9.14045e-07,-2.43945e-06,0,-2.9178e-06,-1.15556e+09,-1.156e+09,-1.15568e+09,-389964,-0.0119241,-0.0329919,-0,0.0350807,-4750.23,-41755.5,-0,42024.8,389964
step02_gravity_refstate-mantle.xmf,448,1.27057e-06,-2.83618e-06,0,-2.77795e-06,-1.1763e+09,-1.17685e+09,-1.17647e+09,-371273,-0.0114824,-0.0334087,-0,0.0353269,-4375.67,-42397.7,-0,42622.9,371273
step02_gravity_refstate-mantle.xmf,449,2.27852e-06,-4.0633e-06,0,-2.13985e-06,-1.20676e+09,-1.20761e+09,-1.20706e+09,-285991,-0.00842483,-0.0370607,-0,0.0380063,-2876.77,-43342.1,-0,43437.5,285991
step02_gravity_refstate-mantle.xmf,450,2.57894e-06,-4.14166e-06,0,-1.37381e-06,-1.24449e+09,-1.24539e+09,-1.24484e+09,-183610,-0.00593294,-0.0346238,-0,0.0351285,-2085.15,-44509.6,-0,44558.4,183610
step02_gravity_refstate-mantle.xmf,451,2.4469e-06,-4.1308e-06,0,-1.7934e-06,-1.22403e+09,-1.22491e+09,-1.22436e+09,-239688,-0.00732488,-0.0360713,-0,0.0368075,-2524.41,-43876.8,-0,43949.3,239688
step02_gravity_refstate-mantle.xmf,452,2.72731e-06,-4.15548e-06,0,-6.00643e-07,-1.27072e+09,-1.27164e+09,-1.27108e+09,-80276,-0.00273467,-0.0330226,-0,0.0331356,-983.529,-45320.5,-0,45331.2,80276
step02_gravity_refstate-mantle.xmf,453,2.68987e-06,-3.98288e-06,0,-2.17798e-07,-1.28899e+09,-1.28988e+09,-1.28935e+09,-29108.7,-0.00104247,-0.0311063,-0,0.0311238,-387.754,-45885.2,-0,45886.8,29108.7
step02_gravity_refstate-mantle.xmf,454,2.54001e-06,-3.69315e-06,0,4.71092e-07,-1.30649e+09,-1.30732e+09,-1.30683e+09,62961.5,0.00254393,-0.0286885,0,0.0288011,987.101,-46425.5,0,46436,62961.5
step02_gravity_refstate-mantle.xmf,455,2.37546e-06,-3.47492e-06,0,9.06593e-07,-1.30587e+09,-1.30665e+09,-1.30618e+09,121166,0.0050056,-0.0276078,0,0.0280579,1984.14,-46405.7,0,46448.1,121166
step02_gravity_refstate-mantle.xmf,456,2.61397e-06,-3.79959e-06,0,7.25382e-08,-1.30367e+09,-1.30453e+09,-1.30402e+09,9694.72,0.000400377,-0.0293961,0,0.0293988,153.171,-46338.7,0,46339,9694.72
step02_gravity_refstate-mantle.xmf,457,2.1933e-06,-3.09474e-06,0,9.65871e-07,-1.33089e+09,-1.3316e+09,-1.33118e+09,129089,0.00592098,-0.0242843,0,0.0249957,2492.78,-47178.4,0,47244.2,129089
step02_gravity_refstate-mantle.xmf,458,2.01513e-06,-2.72444e-06,0,9.81365e-07,-1.35816e+09,-1.3588e+09,-1.35843e+09,131159,0.00678035,-0.0209706,0,0.0220395,3034.04,-48020.7,0,48116.4,131159
step02_gravity_refstate-mantle.xmf,459,1.85135e-06,-2.38171e-06,0,9.68278e-07,-1.38711e+09,-1.38768e+09,-1.38736e+09,129410,0.00759219,-0.0177715,0,0.0193253,3606.94,-48914.8,0,49047.6,129410
step02_gravity_refstate-mantle.xmf,460,1.49167e-06,-1.7733e-06,0,1.06162e-06,-1.41721e+09,-1.41764e+09,-1.41741e+09,141885,0.0100962,-0.0129392,0,0.016412,5293.69,-49843.5,0,50123.8,141885
step02_gravity_refstate-mantle.xmf,461,1.16385e-06,-1.21176e-06,0,1.02483e-06,-1.45013e+09,-1.45045e+09,-1.45029e+09,136969,0.0120937,-0.00828204,0,0.0146578,7039.79,-50859.8,0,51344.7,136969
step02_gravity_refstate-mantle.xmf,462,1.08542e-06,-1.01609e-06,0,9.06956e-07,-1.48313e+09,-1.48342e+09,-1.48328e+09,121215,0.012445,-0.00623339,0,0.0139188,7589.81,-51879.2,0,52431.4,121215
step02_gravity_refstate-mantle.xmf,463,8.61995e-07,-5.98294e-07,0,7.69341e-07,-1.52107e+09,-1.52127e+09,-1.52119e+09,102822,0.0136866,-0.00304366,0,0.0140209,9127.85,-53050.7,0,53830.2,102822
step02_gravity_refstate-mantle.xmf,464,6.24269e-07,-1.58879e-07,0,5.83058e-07,-1.56835e+09,-1.56846e+09,-1.56843e+09,77925.8,0.0148212,-0.000290207,0,0.014824,10953.3,-54510.6,0,55600.2,77925.8
step02_gravity_refstate-mantle.xmf,465,5.52209e-07,2.17169e-08,0,4.34603e-07,-1.61096e+09,-1.61103e+09,-1.61103e+09,58084.7,0.0151122,0.000448674,0,0.0151188,11659.9,-55826.8,0,57031.5,58084.7
step02_gravity_refstate-mantle.xmf,466,4.75959e-07,2.09053e-07,0,2.88039e-07,-1.65402e+09,-1.65405e+09,-1.65408e+09,38496.4,0.0154051,0.000770452,0,0.0154244,12388.4,-57156.8,0,58484,38496.4
step02_gravity_refstate-mantle.xmf,467,3.92421e-07,4.05221e-07,0,1.41345e-07,-1.69951e+09,-1.69951e+09,-1.69957e+09,18890.8,0.0156853,0.000631321,0,0.015698,13136.4,-58562.2,0,60017.4,18890.8
step02_gravity_refstate-mantle.xmf,468,2.92333e-07,6.2179e-07,0,-9.57435e-10,-1.74607e+09,-1.74602e+09,-1.7461e+09,-127.961,0.0159565,-6.99452e-20,0,0.0159565,13961.9,-60000,0,61603,127.961
step02_gravity_refstate-mantle.xmf,469,-6.43966e-08,-7.96206e-07,0,-2.47721e-06,-1.0988e+09,-1.0989e+09,-1.09879e+09,-331078,-0.0111144,-0.0242393,-0,0.026666,-6559.91,-40000,-0,40534.3,331078
step02_gravity_refstate-mantle.xmf,470,5.90862e-07,-1.84073e-06,0,-2.76392e-06,-1.15542e+09,-1.15575e+09,-1.1555e+09,-369398,-0.0124791,-0.0285679,-0,0.0311746,-5500.76,-41750.8,-0,42111.6,369398
step02_gravity_refstate-mantle.xmf,471,1.65694e-06,-3.21931e-06,0,-2.52273e-06,-1.19726e+09,-1.19791e+09,-1.19748e+09,-337163,-0.0106625,-0.0335799,-0,0.035232,-3948.09,-43046.7,-0,43227.4,337163
step02_gravity_refstate-mantle.xmf,472,2.62322e-06,-4.07594e-06,0,-1.02384e-06,-1.26261e+09,-1.26351e+09,-1.26297e+09,-136836,-0.00473355,-0.0330852,-0,0.0334221,-1704.29,-45069.8,-0,45102,136836
step02_gravity_refstate-mantle.xmf,473,2.04008e-06,-3.58778e-06,0,-2.13584e-06,-1.22005e+09,-1.2208e+09,-1.22032e+09,-285456,-0.00927177,-0.0336398,-0,0.0348942,-3365.58,-43752.3,-0,43881.6,285456
step02_gravity_refstate-mantle.xmf,474,2.56559e-06,-3.70185e-06,0,-2.2758e-07,-1.3099e+09,-1.31074e+09,-1.31024e+09,-30416.1,-0.00125232,-0.0285889,-0,0.0286163,-486.417,-46531,-0,46533.6,30416.1
step02_gravity_refstate-mantle.xmf,475,1.70635e-06,-2.06843e-06,0,9.23361e-07,-1.41726e+09,-1.41777e+09,-1.41749e+09,123407,0.00831865,-0.0148003,0,0.0169779,4182.53,-49845.9,0,50021,123407
step02_gravity_refstate-mantle.xmf,476,1.38518e-06,-1.51762e-06,0,9.58248e-07,-1.45059e+09,-1.45098e+09,-1.45078e+09,128070,0.0105836,-0.0102819,0,0.0147557,5856.2,-50874.7,0,51210.7,128070
step02_gravity_refstate-mantle.xmf,477,1.02865e-06,-8.56052e-07,0,7.97447e-07,-1.51249e+09,-1.51274e+09,-1.51263e+09,106579,0.012712,-0.00472651,0,0.0135623,8039.57,-52786.1,0,53394.8,106579
step02_gravity_refstate-mantle.xmf,478,8.43885e-07,-4.72407e-07,0,6.07922e-07,-1.56538e+09,-1.56556e+09,-1.56549e+09,81248.8,0.013738,-0.00191394,0,0.0138707,9455.44,-54419.6,0,55234.9,81248.8
step02_gravity_refstate-mantle.xmf,479,-2.25706e-08,-7.51537e-07,0,-2.38457e-06,-1.12094e+09,-1.12103e+09,-1.12093e+09,-318698,-0.0120265,-0.021196,-0,0.0243702,-6964.11,-40684.2,-0,41275.9,318698
step02_gravity_refstate-mantle.xmf,480,1.32917e-07,-1.05622e-06,0,-2.52688e-06,-1.13421e+09,-1.13437e+09,-1.13423e+09,-337717,-0.0124307,-0.0234493,-0,0.0265404,-6523.48,-41094.5,-0,41609.1,337717
step02_gravity_refstate-mantle.xmf,481,3.1374e-07,-1.30215e-06,0,-2.56923e-06,-1.15393e+09,-1.15415e+09,-1.15398e+09,-343378,-0.0128153,-0.024048,-0,0.0272495,-6296.29,-41704.3,-0,42176.9,343378
step02_gravity_refstate-mantle.xmf,482,9.17712e-07,-2.22577e-06,0,-2.70459e-06,-1.17653e+09,-1.17695e+09,-1.17665e+09,-361468,-0.0123035,-0.0293211,-0,0.0317978,-5130.95,-42403.9,-0,42713.2,361468
step02_gravity_refstate-mantle.xmf,483,1.25877e-06,-2.60092e-06,0,-2.55602e-06,-1.19865e+09,-1.19916e+09,-1.19881e+09,-341612,-0.0117425,-0.0298607,-0,0.0320866,-4702.39,-43088.4,-0,43344.3,341612
step02_gravity_refstate-mantle.xmf,484,2.40305e-06,-3.7405e-06,0,-1.33303e-06,-1.26688e+09,-1.2677e+09,-1.2672e+09,-178159,-0.00638523,-0.031222,-0,0.0318682,-2381.27,-45200.9,-0,45263.6,178159
step02_gravity_refstate-mantle.xmf,485,2.25113e-06,-3.67505e-06,0,-1.7238e-06,-1.24612e+09,-1.24691e+09,-1.24642e+09,-230386,-0.00788328,-0.0322638,-0,0.0332129,-2901.68,-44558.8,-0,44653.2,230386
step02_gravity_refstate-mantle.xmf,486,2.50148e-06,-3.76125e-06,0,-9.35428e-07,-1.28519e+09,-1.28602e+09,-1.28552e+09,-125020,-0.00473164,-0.0302122,-0,0.0305805,-1790.55,-45767.1,-0,45802.1,125020
step02_gravity_refstate-mantle.xmf,487,2.53333e-06,-3.68203e-06,0,-5.84206e-07,-1.30358e+09,-1.30441e+09,-1.30392e+09,-78079.1,-0.00307117,-0.0288446,-0,0.0290076,-1188.95,-46335.6,-0,46350.9,78079.1
step02_gravity_refstate-mantle.xmf,488,2.47755e-06,-3.491e-06,0,1.26018e-07,-1.32873e+09,-1.32953e+09,-1.32906e+09,16842.3,0.000717546,-0.0265567,0,0.0265664,289.086,-47112.6,0,47113.5,16842.3
step02_gravity_refstate-mantle.xmf,489,2.36981e-06,-3.33586e-06,0,5.95608e-07,-1.33064e+09,-1.3314e+09,-1.33096e+09,79603,0.003562,-0.025652,0,0.0258981,1459.86,-47171.3,0,47193.9,79603
step02_gravity_refstate-mantle.xmf,490,2.20032e-06,-2.96625e-06,0,6.83441e-07,-1.35916e+09,-1.35985e+09,-1.35945e+09,91341.9,0.00458263,-0.0223178,0,0.0227834,1995.36,-48052,0,48093.4,91341.9
step02_gravity_refstate-mantle.xmf,491,2.03874e-06,-2.62781e-06,0,7.27329e-07,-1.38791e+09,-1.38853e+09,-1.38818e+09,97207.5,0.00550635,-0.0192128,0,0.0199863,2538.17,-48939.9,0,49005.7,97207.5
step02_gravity_refstate-mantle.xmf,492,1.89062e-06,-2.31679e-06,0,7.39566e-07,-1.41774e+09,-1.4183e+09,-1.41799e+09,98843.1,0.00636801,-0.016265,0,0.0174672,3100.65,-49861.1,0,49957.4,98843.1
step02_gravity_refstate-mantle.xmf,493,1.58759e-06,-1.80097e-06,0,8.63728e-07,-1.44767e+09,-1.44812e+09,-1.44788e+09,115437,0.00895752,-0.01215,0,0.015095,4742.5,-50785.1,0,51006.1,115437
step02_gravity_refstate-mantle.xmf,494,1.28916e-06,-1.28636e-06,0,8.50506e-07,-1.48479e+09,-1.48514e+09,-1.48496e+09,113670,0.0110471,-0.00793313,0,0.0136005,6423.22,-51931.1,0,52326.8,113670
step02_gravity_refstate-mantle.xmf,495,1.20026e-06,-1.07868e-06,0,7.4795e-07,-1.51884e+09,-1.51915e+09,-1.51901e+09,99963.5,0.0115219,-0.00589824,0,0.0129438,7010.47,-52982.9,0,53444.7,99963.5
step02_gravity_refstate-mantle.xmf,496,1.069e-06,-8.10825e-07,0,6.36443e-07,-1.55531e+09,-1.55557e+09,-1.55546e+09,85060.6,0.0123391,-0.00375479,0,0.0128978,7935.28,-54109.2,0,54688,85060.6
step02_gravity_refstate-mantle.xmf,497,7.66781e-07,-2.74126e-07,0,4.53094e-07,-1.6093e+09,-1.60944e+09,-1.60941e+09,60556.1,0.0141282,-0.000753125,0,0.0141482,10157.6,-55776.3,0,56693.7,60556.1
step02_gravity_refstate-mantle.xmf,498,6.90539e-07,-8.91058e-08,0,3.03049e-07,-1.65378e+09,-1.65389e+09,-1.65388e+09,40502.5,0.0144925,-6.19833e-05,0,0.0144926,10822.4,-57150.3,0,58166,40502.5
step02_gravity_refstate-mantle.xmf,499,6.11754e-07,1.0088e-07,0,1.50305e-07,-1.69959e+09,-1.69966e+09,-1.69967e+09,20088.2,0.0148595,0.000195607,0,0.0148608,11491.4,-58565.2,0,59681.9,20088.2
step02_gravity_refstate-mantle.xmf,500,5.18427e-07,3.0621e-07,0,-5.98237e-10,-1.74604e+09,-1.74607e+09,-1.74611e+09,-79.9543,0.0152502,-2.72314e-20,0,0.0152502,12218.8,-60000,0,61231.5,79.9543
step02_gravity_refstate-mantle.xmf,501,-1.49065e-07,-4.51214e-07,0,-2.20588e-06,-1.09879e+09,-1.09883e+09,-1.09877e+09,-294816,-0.0110281,-0.0191815,-0,0.0221258,-7368.31,-40000,-0,40673,294816
step02_gravity_refstate-mantle.xmf,502,6.04899e-07,-1.6689e-06,0,-2.57348e-06,-1.17617e+09,-1.17648e+09,-1.17626e+09,-343945,-0.0128966,-0.0250778,-0,0.0281996,-5923.39,-42392.3,-0,42804.2,343945
step02_gravity_refstate-mantle.xmf,503,1.62098e-06,-2.95263e-06,0,-2.29214e-06,-1.22179e+09,-1.2224e+09,-1.22201e+09,-306345,-0.0108004,-0.0300431,-0,0.0319255,-4219.35,-43805,-0,44007.7,306345
step02_gravity_refstate-mantle.xmf,504,2.28718e-06,-3.45485e-06,0,-1.2408e-06,-1.28812e+09,-1.28889e+09,-1.28843e+09,-165833,-0.00655066,-0.0284658,-0,0.0292098,-2563.55,-45857.1,-0,45928.7,165833
step02_gravity_refstate-mantle.xmf,505,2.43607e-06,-3.41471e-06,0,-3.08495e-07,-1.33246e+09,-1.33324e+09,-1.33278e+09,-41230.4,-0.00184184,-0.0259943,-0,0.0260595,-749.489,-47227.6,-0,47233.6,41230.4
step02_gravity_refstate-mantle.xmf,506,1.75918e-06,-2.03114e-06,0,7.165e-07,-1.44843e+09,-1.44894e+09,-1.44867e+09,95760.2,0.0071167,-0.0135523,0,0.0153072,3646.55,-50809.2,0,50939.9,95760.2
step02_gravity_refstate-mantle.xmf,507,1.49596e-06,-1.56647e-06,0,7.58398e-07,-1.48549e+09,-1.4859e+09,-1.48569e+09,101360,0.00928452,-0.00961718,0,0.0133676,5162.06,-51953.4,0,52209.2,101360
step02_gravity_refstate-mantle.xmf,508,9.77312e-07,-5.70967e-07,0,4.63224e-07,-1.60584e+09,-1.60605e+09,-1.60597e+09,61909.9,0.012854,-0.00198313,0,0.0130061,8679.22,-55670.1,0,56342.6,61909.9
step02_gravity_refstate-mantle.xmf,509,6.45793e-08,-7.86337e-07,0,-2.32324e-06,-1.1467e+09,-1.14682e+09,-1.14671e+09,-310500,-0.012833,-0.0191368,-0,0.0230413,-7216.75,-41480.6,-0,42103.8,310500
step02_gravity_refstate-mantle.xmf,510,-1.19199e-07,-4.18399e-07,0,-2.13282e-06,-1.12273e+09,-1.12277e+09,-1.12271e+09,-285052,-0.0120344,-0.0163537,-0,0.0203044,-7802.08,-40739.7,-0,41480,285052
step02_gravity_refstate-mantle.xmf,511,3.21359e-07,-1.14134e-06,0,-2.38784e-06,-1.17461e+09,-1.17481e+09,-1.17465e+09,-319135,-0.013288,-0.0204614,-0,0.0243975,-6812.06,-42343.5,-0,42887.9,319135
step02_gravity_refstate-mantle.xmf,512,9.26312e-07,-2.03857e-06,0,-2.49747e-06,-1.19925e+09,-1.19964e+09,-1.19937e+09,-333787,-0.0126097,-0.0259068,-0,0.0288126,-5503.13,-43106.3,-0,43456.1,333787
step02_gravity_refstate-mantle.xmf,513,1.23566e-06,-2.36341e-06,0,-2.33996e-06,-1.22295e+09,-1.22343e+09,-1.22311e+09,-312736,-0.0119793,-0.0263563,-0,0.028951,-5056.96,-43839.7,-0,44130.4,312736
step02_gravity_refstate-mantle.xmf,514,1.89597e-06,-3.17246e-06,0,-1.96038e-06,-1.24637e+09,-1.24705e+09,-1.24662e+09,-262005,-0.00963306,-0.0295074,-0,0.03104,-3748.56,-44565.4,-0,44722.8,262005
step02_gravity_refstate-mantle.xmf,515,2.09826e-06,-3.2629e-06,0,-1.58059e-06,-1.27452e+09,-1.27523e+09,-1.2748e+09,-211246,-0.00819011,-0.0282904,-0,0.0294521,-3229.33,-45436,-0,45550.6,211246
step02_gravity_refstate-mantle.xmf,516,2.33322e-06,-3.41308e-06,0,-9.71892e-07,-1.30656e+09,-1.30733e+09,-1.30688e+09,-129893,-0.00541099,-0.027259,-0,0.0277909,-2159.04,-46427.2,-0,46477.3,129893
step02_gravity_refstate-mantle.xmf,517,2.3353e-06,-3.2621e-06,0,-6.86475e-07,-1.33252e+09,-1.33326e+09,-1.33283e+09,-91747.4,-0.00410494,-0.0252114,-0,0.0255434,-1696.42,-47229.2,-0,47259.7,91747.4
step02_gravity_refstate-mantle.xmf,518,2.31267e-06,-3.12105e-06,0,3.23023e-07,-1.35954e+09,-1.36027e+09,-1.35985e+09,43172.1,0.00212872,-0.0231828,0,0.0232803,911.113,-48064.2,0,48072.8,43172.1
step02_gravity_refstate-mantle.xmf,519,2.34203e-06,-3.15716e-06,0,-5.60303e-08,-1.36014e+09,-1.36088e+09,-1.36046e+09,-7488.45,-0.000375257,-0.0233581,-0,0.0233611,-160.157,-48082.9,-0,48083.2,7488.45
step02_gravity_refstate-mantle.xmf,520,2.17022e-06,-2.7961e-06,0,4.39721e-07,-1.3889e+09,-1.38956e+09,-1.38919e+09,58768.7,0.00326662,-0.0201498,0,0.0204128,1476.88,-48970.9,0,48993.1,58768.7
step02_gravity_refstate-mantle.xmf,521,2.02852e-06,-2.4934e-06,0,5.08646e-07,-1.41885e+09,-1.41946e+09,-1.41913e+09,67980.6,0.0042788,-0.0172715,0,0.0177937,2038.53,-49896.1,0,49937.7,67980.6
step02_gravity_refstate-mantle.xmf,522,1.90215e-06,-2.22533e-06,0,5.45058e-07,-1.44749e+09,-1.44804e+09,-1.44775e+09,72847,0.0052051,-0.0147046,0,0.0155987,2599.53,-50780.5,0,50847,72847
step02_gravity_refstate-mantle.xmf,523,1.70364e-06,-1.84148e-06,0,6.03915e-07,-1.48747e+09,-1.48795e+09,-1.4877e+09,80713.2,0.0069991,-0.0111175,0,0.0131372,3743.34,-52015.3,0,52149.8,80713.2
step02_gravity_refstate-mantle.xmf,524,1.39253e-06,-1.33149e-06,0,6.73698e-07,-1.52082e+09,-1.52118e+09,-1.521e+09,90039.7,0.00989584,-0.00731484,0,0.0123059,5767.48,-53044.5,0,53357.1,90039.7
step02_gravity_refstate-mantle.xmf,525,1.28911e-06,-1.10499e-06,0,5.85558e-07,-1.55693e+09,-1.55725e+09,-1.55711e+09,78259.8,0.0105901,-0.00523354,0,0.0118127,6459.27,-54160,0,54543.8,78259.8
step02_gravity_refstate-mantle.xmf,526,1.18205e-06,-8.47443e-07,0,4.42657e-07,-1.60546e+09,-1.60573e+09,-1.60562e+09,59161.1,0.0112982,-0.00310809,0,0.0117179,7236.13,-55658.9,0,56127.3,59161.1
step02_gravity_refstate-mantle.xmf,527,9.00441e-07,-3.73972e-07,0,3.07962e-07,-1.65243e+09,-1.6526e+09,-1.65255e+09,41159.1,0.0133115,-0.00087046,0,0.01334,9332.08,-57109.1,0,57866.6,41159.1
step02_gravity_refstate-mantle.xmf,528,8.34644e-07,-2.06034e-07,0,1.58512e-07,-1.69816e+09,-1.6983e+09,-1.69827e+09,21185.1,0.0136874,-0.000246743,0,0.0136896,9867.87,-58521.8,0,59347.9,21185.1
step02_gravity_refstate-mantle.xmf,529,7.49455e-07,-1.03047e-08,0,-2.64674e-10,-1.74602e+09,-1.74612e+09,-1.74612e+09,-35.3737,0.0141701,1.59925e-20,0,0.0141701,10514.7,-60000,0,60914.4,35.3737
step02_gravity_refstate-mantle.xmf,530,-2.03864e-07,-1.68823e-07,0,-1.95276e-06,-1.09878e+09,-1.09877e+09,-1.09875e+09,-260986,-0.0108793,-0.0142701,-0,0.0179442,-8215.82,-40000,-0,40835,260986
step02_gravity_refstate-mantle.xmf,531,6.17283e-07,-1.50383e-06,0,-2.38161e-06,-1.19921e+09,-1.1995e+09,-1.1993e+09,-318302,-0.0132679,-0.0216807,-0,0.0254183,-6368.39,-43104.5,-0,43572.4,318302
step02_gravity_refstate-mantle.xmf,532,1.5352e-06,-2.6404e-06,0,-2.09543e-06,-1.24708e+09,-1.24764e+09,-1.24728e+09,-280054,-0.0110757,-0.0263479,-0,0.0285811,-4599.47,-44586.3,-0,44822.9,280054
step02_gravity_refstate-mantle.xmf,533,2.1043e-06,-3.10403e-06,0,-1.30616e-06,-1.30414e+09,-1.30484e+09,-1.30443e+09,-174568,-0.00746972,-0.0257509,-0,0.0268124,-3072.24,-46351.7,-0,46453.4,174568
step02_gravity_refstate-mantle.xmf,534,2.28237e-06,-3.07272e-06,0,-4.19937e-07,-1.361e+09,-1.36172e+09,-1.3613e+09,-56124.6,-0.00279899,-0.0228637,-0,0.0230344,-1205.14,-48109.2,-0,48124.3,56124.6
step02_gravity_refstate-mantle.xmf,535,1.80825e-06,-2.04105e-06,0,5.73625e-07,-1.4669e+09,-1.46742e+09,-1.46714e+09,76665,0.00600194,-0.0129717,0,0.0142929,3096.27,-51380,0,51473.2,76665
step02_gravity_refstate-mantle.xmf,536,1.57749e-06,-1.57843e-06,0,5.67205e-07,-1.52174e+09,-1.52216e+09,-1.52195e+09,75806.9,0.00791694,-0.00864452,0,0.011722,4441.06,-53073.6,0,53259.1,75806.9
step02_gravity_refstate-mantle.xmf,537,1.05859e-06,-6.07151e-07,0,3.33987e-07,-1.64262e+09,-1.64284e+09,-1.64276e+09,44637.4,0.0121988,-0.00166284,0,0.0123116,8166.01,-56806.5,0,57390.4,44637.4
step02_gravity_refstate-mantle.xmf,538,-1.90955e-07,-1.25617e-07,0,-1.88093e-06,-1.12382e+09,-1.12381e+09,-1.1238e+09,-251387,-0.0119348,-0.0114127,-0,0.0165133,-8730.65,-40773.9,-0,41698.1,251387
step02_gravity_refstate-mantle.xmf,539,-8.54108e-08,-3.60323e-07,0,-2.02709e-06,-1.14731e+09,-1.14734e+09,-1.1473e+09,-270921,-0.0128372,-0.0133378,-0,0.018512,-8316.85,-41499.4,-0,42324.6,270921
step02_gravity_refstate-mantle.xmf,540,1.05904e-07,-6.85791e-07,0,-2.16139e-06,-1.17297e+09,-1.17308e+09,-1.17298e+09,-288870,-0.0134685,-0.0156009,-0,0.0206104,-7780.98,-42292.5,-0,43002.3,288870
step02_gravity_refstate-mantle.xmf,541,3.48578e-07,-1.01718e-06,0,-2.21454e-06,-1.19883e+09,-1.19901e+09,-1.19888e+09,-295973,-0.0137124,-0.0172204,-0,0.0220131,-7303.67,-43092.1,-0,43706.7,295973
step02_gravity_refstate-mantle.xmf,542,9.17957e-07,-1.84047e-06,0,-2.29353e-06,-1.22374e+09,-1.22411e+09,-1.22386e+09,-306530,-0.0128956,-0.0225087,-0,0.025941,-5916.75,-43863.4,-0,44260.6,306530
step02_gravity_refstate-mantle.xmf,543,1.18926e-06,-2.11382e-06,0,-2.1403e-06,-1.24824e+09,-1.24869e+09,-1.2484e+09,-286051,-0.0122421,-0.0228884,-0,0.0259567,-5467.86,-44621.4,-0,44955.1,286051
step02_gravity_refstate-mantle.xmf,544,1.75202e-06,-2.78889e-06,0,-1.8031e-06,-1.27366e+09,-1.27427e+09,-1.27389e+09,-240984,-0.0100181,-0.0255915,-0,0.0274825,-4173.37,-45408.4,-0,45599.8,240984
step02_gravity_refstate-mantle.xmf,545,2.15219e-06,-3.03643e-06,0,-1.0086e-06,-1.33115e+09,-1.33185e+09,-1.33144e+09,-134800,-0.00625579,-0.0240035,-0,0.0248053,-2648.37,-47186.5,-0,47260.8,134800
step02_gravity_refstate-mantle.xmf,546,1.89265e-06,-2.83655e-06,0,-1.53336e-06,-1.29888e+09,-1.29952e+09,-1.29914e+09,-204934,-0.00896015,-0.0245187,-0,0.0261046,-3783.38,-46188.4,-0,46343.1,204934
step02_gravity_refstate-mantle.xmf,547,2.15393e-06,-2.88665e-06,0,-7.58113e-07,-1.36079e+09,-1.36147e+09,-1.36108e+09,-101322,-0.00511986,-0.0218709,-0,0.0224622,-2248.46,-48102.5,-0,48155,101322
step02_gravity_refstate-mantle.xmf,548,2.22562e-06,-2.87498e-06,0,1.23023e-07,-1.38969e+09,-1.39037e+09,-1.38998e+09,16442.1,0.000905199,-0.020575,0,0.0205949,405.649,-48995.5,0,48997.1,16442.1
step02_gravity_refstate-mantle.xmf,549,2.21395e-06,-2.85641e-06,0,-2.01409e-07,-1.39037e+09,-1.39105e+09,-1.39067e+09,-26918.3,-0.00149027,-0.0204445,-0,0.0204988,-669.58,-49016.6,-0,49021.2,26918.3
step02_gravity_refstate-mantle.xmf,550,2.11323e-06,-2.5988e-06,0,2.44614e-07,-1.42015e+09,-1.42078e+09,-1.42043e+09,32692.7,0.00204249,-0.0178342,0,0.0179508,961.289,-49936.3,0,49945.6,32692.7
step02_gravity_refstate-mantle.xmf,551,1.99128e-06,-2.32722e-06,0,3.32397e-07,-1.45204e+09,-1.45262e+09,-1.45231e+09,44424.9,0.00316138,-0.0151269,0,0.0154537,1561.63,-50921.4,0,50945.4,44424.9
step02_gravity_refstate-mantle.xmf,552,1.85978e-06,-2.05422e-06,0,4.18071e-07,-1.48421e+09,-1.48473e+09,-1.48445e+09,55875.2,0.00461936,-0.0124424,0,0.0132722,2395.66,-51914.8,0,51970,55875.2
step02_gravity_refstate-mantle.xmf,553,1.73652e-06,-1.78848e-06,0,4.25974e-07,-1.52162e+09,-1.5221e+09,-1.52186e+09,56931.4,0.00567105,-0.00975566,0,0.0112842,3086.55,-53070.5,0,53160.2,56931.4
step02_gravity_refstate-mantle.xmf,554,1.47001e-06,-1.34404e-06,0,5.08171e-07,-1.55753e+09,-1.55791e+09,-1.55773e+09,67917.1,0.00873993,-0.00642873,0,0.0108497,5121.56,-54179.1,0,54420.6,67917.1
step02_gravity_refstate-mantle.xmf,555,1.37054e-06,-1.12887e-06,0,4.3276e-07,-1.59453e+09,-1.59486e+09,-1.59471e+09,57838.3,0.00954925,-0.00447452,0,0.0105456,5825.94,-55321.8,0,55627.7,57838.3
step02_gravity_refstate-mantle.xmf,556,1.20972e-06,-7.84845e-07,0,2.78082e-07,-1.65526e+09,-1.65553e+09,-1.65543e+09,37165.7,0.0108944,-0.00196622,0,0.0110704,7048.8,-57197.7,0,57630.4,37165.7
step02_gravity_refstate-mantle.xmf,557,1.06303e-06,-5.23222e-07,0,1.74555e-07,-1.69154e+09,-1.69175e+09,-1.69168e+09,23329.2,0.0121077,-0.000800217,0,0.0121341,8191.01,-58318,0,58890.4,23329.2
step02_gravity_refstate-mantle.xmf,558,9.76679e-07,-3.16509e-07,0,1.95972e-10,-1.74599e+09,-1.74617e+09,-1.74613e+09,26.1916,0.0127277,6.88248e-20,0,0.0127277,8844,-60000,0,60648.3,26.1916
step02_gravity_refstate-mantle.xmf,559,-2.35333e-07,6.11575e-08,0,-1.71879e-06,-1.09877e+09,-1.09873e+09,-1.09873e+09,-229716,-0.0106852,-0.00952384,-0,0.0143135,-9104.73,-40000,-0,41023.1,229716
step02_gravity_refstate-mantle.xmf,560,6.28917e-07,-1.3515e-06,0,-2.19431e-06,-1.2241e+09,-1.22437e+09,-1.22419e+09,-293270,-0.0135838,-0.0185014,-0,0.0229526,-6818.55,-43873.9,-0,44400.5,293270
step02_gravity_refstate-mantle.xmf,561,1.43541e-06,-2.32349e-06,0,-1.91426e-06,-1.27412e+09,-1.27463e+09,-1.27431e+09,-255841,-0.0114051,-0.0226503,-0,0.0253597,-5050,-45421.8,-0,45701.7,255841
step02_gravity_refstate-mantle.xmf,562,1.99242e-06,-2.83417e-06,0,-1.24007e-06,-1.32636e+09,-1.327e+09,-1.32662e+09,-165736,-0.00778108,-0.0231013,-0,0.0243766,-3357.83,-47037.8,-0,47157.5,165736
step02_gravity_refstate-mantle.xmf,563,2.13031e-06,-2.74254e-06,0,-5.08096e-07,-1.39076e+09,-1.39141e+09,-1.39104e+09,-67907.1,-0.0038233,-0.0197863,-0,0.0201523,-1740.69,-49028.2,-0,49059.1,67907.1
step02_gravity_refstate-mantle.xmf,564,1.62678e-06,-1.55322e-06,0,4.04543e-07,-1.55751e+09,-1.55794e+09,-1.55773e+09,54067.2,0.0066363,-0.00744942,0,0.00997669,3765.4,-54179,0,54309.7,54067.2
step02_gravity_refstate-mantle.xmf,565,1.31827e-06,-9.83281e-07,0,3.39887e-07,-1.62911e+09,-1.62942e+09,-1.62929e+09,45425.9,0.00989155,-0.00312089,0,0.0103722,6187.47,-56390,0,56728.4,45425.9
step02_gravity_refstate-mantle.xmf,566,-2.35169e-07,1.00676e-07,0,-1.66189e-06,-1.12227e+09,-1.12222e+09,-1.12223e+09,-222112,-0.0116805,-0.00707258,-0,0.0136549,-9615.19,-40726,-0,41845.7,222112
step02_gravity_refstate-mantle.xmf,567,-1.69522e-07,-8.62872e-08,0,-1.80768e-06,-1.14651e+09,-1.1465e+09,-1.14649e+09,-241597,-0.0126992,-0.00903731,-0,0.0155866,-9200.35,-41475,-0,42483.2,241597
step02_gravity_refstate-mantle.xmf,568,-4.26773e-08,-3.22774e-07,0,-1.93089e-06,-1.17199e+09,-1.17203e+09,-1.17199e+09,-258063,-0.0134784,-0.0109226,-0,0.0173485,-8762.46,-42262.2,-0,43161.1,258063
step02_gravity_refstate-mantle.xmf,569,1.46944e-07,-6.08305e-07,0,-2.01891e-06,-1.19836e+09,-1.19846e+09,-1.19838e+09,-269828,-0.0139471,-0.0127706,-0,0.0189106,-8274.07,-43077.2,-0,43864.7,269828
step02_gravity_refstate-mantle.xmf,570,3.79593e-07,-9.13644e-07,0,-2.05161e-06,-1.22432e+09,-1.22449e+09,-1.22437e+09,-274197,-0.0140568,-0.0143929,-0,0.0201184,-7763.99,-43879.9,-0,44561.4,274197
step02_gravity_refstate-mantle.xmf,571,8.93698e-07,-1.63805e-06,0,-2.10043e-06,-1.24922e+09,-1.24956e+09,-1.24934e+09,-280722,-0.0131691,-0.0192331,-0,0.0233096,-6368.19,-44650.6,-0,45102.5,280722
step02_gravity_refstate-mantle.xmf,572,1.12867e-06,-1.86296e-06,0,-1.95591e-06,-1.27422e+09,-1.27462e+09,-1.27437e+09,-261408,-0.0125251,-0.0195557,-0,0.0232229,-5925.82,-45423.9,-0,45808.8,261408
step02_gravity_refstate-mantle.xmf,573,1.62527e-06,-2.44952e-06,0,-1.66306e-06,-1.30099e+09,-1.30153e+09,-1.3012e+09,-222268,-0.0104185,-0.0219994,-0,0.0243417,-4629.46,-46252.6,-0,46483.7,222268
step02_gravity_refstate-mantle.xmf,574,1.94275e-06,-2.62258e-06,0,-1.08317e-06,-1.35527e+09,-1.35588e+09,-1.35553e+09,-144766,-0.00749427,-0.0206171,-0,0.0219369,-3379.79,-47931.1,-0,48050.1,144766
step02_gravity_refstate-mantle.xmf,575,1.78025e-06,-2.52408e-06,0,-1.39649e-06,-1.32893e+09,-1.32951e+09,-1.32917e+09,-186641,-0.00919503,-0.021177,-0,0.0230871,-4123.73,-47116.8,-0,47296.9,186641
step02_gravity_refstate-mantle.xmf,576,1.9878e-06,-2.53752e-06,0,-7.90033e-07,-1.39039e+09,-1.391e+09,-1.39066e+09,-105588,-0.00605787,-0.0186608,-0,0.0196194,-2822.86,-49016.5,-0,49097.7,105588
step02_gravity_refstate-mantle.xmf,577,2.12863e-06,-2.62633e-06,0,-3.51867e-08,-1.4208e+09,-1.42143e+09,-1.42108e+09,-4702.7,-0.000292166,-0.0179703,-0,0.0179727,-137.103,-49956.4,-0,49956.6,4702.7
step02_gravity_refstate-mantle.xmf,578,2.08907e-06,-2.57316e-06,0,-3.08344e-07,-1.42079e+09,-1.42141e+09,-1.42107e+09,-41210.2,-0.00257814,-0.0176676,-0,0.0178547,-1217.47,-49956.1,-0,49971,41210.2
step02_gravity_refstate-mantle.xmf,579,2.04161e-06,-2.3896e-06,0,9.0072e-08,-1.45315e+09,-1.45375e+09,-1.45343e+09,12038.1,0.000867159,-0.0154378,0,0.0154622,425.228,-50956,0,50957.8,12038.1
step02_gravity_refstate-mantle.xmf,580,1.94362e-06,-2.15646e-06,0,1.89447e-07,-1.48663e+09,-1.48717e+09,-1.48689e+09,25319.6,0.00208229,-0.0129424,0,0.0131088,1065.95,-51989.9,0,52000.8,25319.6
step02_gravity_refstate-mantle.xmf,581,1.84366e-06,-1.92726e-06,0,2.52533e-07,-1.52149e+09,-1.522e+09,-1.52174e+09,33751,0.00328278,-0.0105001,0,0.0110013,1751.95,-53066.9,0,53095.8,33751
step02_gravity_refstate-mantle.xmf,582,1.74841e-06,-1.71039e-06,0,2.75835e-07,-1.55746e+09,-1.55792e+09,-1.55769e+09,36865.4,0.00436913,-0.00819671,0,0.00928845,2423.33,-54177.7,0,54231.9,36865.4
step02_gravity_refstate-mantle.xmf,583,1.53638e-06,-1.34881e-06,0,3.59016e-07,-1.59326e+09,-1.59365e+09,-1.59347e+09,47982.4,0.0074834,-0.00545292,0,0.00925935,4401.73,-55283.3,0,55458.2,47982.4
step02_gravity_refstate-mantle.xmf,584,1.46383e-06,-1.17741e-06,0,2.95291e-07,-1.62887e+09,-1.62922e+09,-1.62906e+09,39465.7,0.00817383,-0.00377397,0,0.00900302,4951.97,-56383,0,56600,39465.7
step02_gravity_refstate-mantle.xmf,585,1.37962e-06,-9.95382e-07,0,2.22855e-07,-1.66369e+09,-1.664e+09,-1.66387e+09,29784.6,0.00905403,-0.002317,0,0.0093458,5644.14,-57458.5,0,57735,29784.6
step02_gravity_refstate-mantle.xmf,586,1.28615e-06,-8.04125e-07,0,1.32214e-07,-1.70011e+09,-1.70039e+09,-1.70028e+09,17670.4,0.0100204,-0.00107931,0,0.0100783,6424.48,-58583.4,0,58934.6,17670.4
step02_gravity_refstate-mantle.xmf,587,1.19054e-06,-6.01027e-07,0,6.41867e-10,-1.74597e+09,-1.74621e+09,-1.74613e+09,85.7856,0.0109472,9.76519e-20,0,0.0109472,7201.04,-60000,0,60430.6,85.7856
step02_gravity_refstate-mantle.xmf,588,-2.49832e-07,2.49133e-07,0,-1.50613e-06,-1.09875e+09,-1.09869e+09,-1.09872e+09,-201295,-0.0104599,-0.00495621,-0,0.0115747,-10037.4,-40000,-0,41240.1,201295
step02_gravity_refstate-mantle.xmf,589,6.29136e-07,-1.20213e-06,0,-2.01965e-06,-1.2492e+09,-1.24944e+09,-1.24928e+09,-269926,-0.0138556,-0.0155834,-0,0.0208523,-7278.5,-44649.3,-0,45238.7,269926
step02_gravity_refstate-mantle.xmf,590,1.32859e-06,-2.00988e-06,0,-1.74376e-06,-1.30312e+09,-1.30356e+09,-1.3033e+09,-233054,-0.0117852,-0.0189882,-0,0.0223482,-5576.74,-46317.6,-0,46652.1,233054
step02_gravity_refstate-mantle.xmf,591,1.99346e-06,-2.44767e-06,0,-5.60456e-07,-1.41995e+09,-1.42054e+09,-1.42021e+09,-74904.9,-0.00476731,-0.0169729,-0,0.0176297,-2285.05,-49929.7,-0,49982,74904.9
step02_gravity_refstate-mantle.xmf,592,1.66142e-06,-1.5177e-06,0,2.69374e-07,-1.59177e+09,-1.5922e+09,-1.592e+09,36001.8,0.00534739,-0.00620589,0,0.00819193,3064.58,-55237.7,0,55322.6,36001.8
step02_gravity_refstate-mantle.xmf,593,-2.59187e-07,2.75716e-07,0,-1.47356e-06,-1.12462e+09,-1.12455e+09,-1.12459e+09,-196941,-0.011558,-0.00297874,-0,0.0119356,-10522.6,-40799.1,-0,42134.2,196941
step02_gravity_refstate-mantle.xmf,594,-2.19211e-07,1.09473e-07,0,-1.62934e-06,-1.14448e+09,-1.14443e+09,-1.14445e+09,-217761,-0.0124797,-0.00554414,-0,0.0136557,-9965.18,-41412.2,-0,42594.3,217761
step02_gravity_refstate-mantle.xmf,595,-1.49152e-07,-3.04696e-08,0,-1.71438e-06,-1.16959e+09,-1.16957e+09,-1.16957e+09,-229127,-0.0133233,-0.00659752,-0,0.0148674,-9731.48,-42188,-0,43295.8,229127
step02_gravity_refstate-mantle.xmf,596,-3.13104e-09,-2.7446e-07,0,-1.82118e-06,-1.19739e+09,-1.19742e+09,-1.19739e+09,-243401,-0.0140008,-0.00856938,-0,0.0164151,-9240.62,-43047.1,-0,44027.8,243401
step02_gravity_refstate-mantle.xmf,597,1.894e-07,-5.45838e-07,0,-1.88602e-06,-1.22443e+09,-1.22453e+09,-1.22446e+09,-252067,-0.0143296,-0.0103913,-0,0.0177007,-8720.71,-43883.1,-0,44741.2,252067
step02_gravity_refstate-mantle.xmf,598,4.08599e-07,-8.26439e-07,0,-1.90341e-06,-1.24958e+09,-1.24974e+09,-1.24963e+09,-254391,-0.0143205,-0.0120132,-0,0.0186921,-8180.51,-44660.6,-0,45403.6,254391
step02_gravity_refstate-mantle.xmf,599,8.59889e-07,-1.44279e-06,0,-1.91954e-06,-1.27533e+09,-1.27563e+09,-1.27544e+09,-256546,-0.0134298,-0.0161619,-0,0.0210135,-6846.34,-45457.4,-0,45970.1,256546
step02_gravity_refstate-mantle.xmf,600,1.01224e-06,-1.52917e-06,0,-1.76392e-06,-1.30488e+09,-1.30522e+09,-1.30502e+09,-235747,-0.0130158,-0.0154836,-0,0.0202275,-6646.7,-46371.3,-0,46845.2,235747
step02_gravity_refstate-mantle.xmf,601,1.51106e-06,-2.13932e-06,0,-1.51833e-06,-1.3309e+09,-1.33139e+09,-1.33111e+09,-202925,-0.0107758,-0.0185754,-0,0.0214748,-5100.38,-47176.8,-0,47451.7,202925
step02_gravity_refstate-mantle.xmf,602,1.66778e-06,-2.22789e-06,0,-1.27423e-06,-1.35973e+09,-1.36025e+09,-1.35995e+09,-170301,-0.00951113,-0.0180036,-0,0.0203615,-4524.29,-48068,-0,48280.5,170301
step02_gravity_refstate-mantle.xmf,603,1.78311e-06,-2.26335e-06,0,-1.01609e-06,-1.38987e+09,-1.39041e+09,-1.3901e+09,-135801,-0.00814705,-0.0170444,-0,0.0188915,-3928.23,-48999.6,-0,49156.8,135801
step02_gravity_refstate-mantle.xmf,604,1.84492e-06,-2.2363e-06,0,-7.8306e-07,-1.42018e+09,-1.42072e+09,-1.42042e+09,-104656,-0.0068397,-0.0157638,-0,0.0171837,-3364.42,-49936.4,-0,50049.6,104656
step02_gravity_refstate-mantle.xmf,605,2.02694e-06,-2.38027e-06,0,-1.541e-07,-1.45293e+09,-1.45352e+09,-1.4532e+09,-20595.5,-0.00145057,-0.0153976,-0,0.0154658,-712.028,-50949,-0,50953.9,20595.5
step02_gravity_refstate-mantle.xmf,606,1.97647e-06,-2.32221e-06,0,-3.79846e-07,-1.44965e+09,-1.45022e+09,-1.44991e+09,-50766.5,-0.00355095,-0.0151887,-0,0.0155983,-1753.28,-50847.4,-0,50877.7,50766.5
step02_gravity_refstate-mantle.xmf,607,1.96447e-06,-2.18244e-06,0,-3.42614e-08,-1.48696e+09,-1.48751e+09,-1.48722e+09,-4579.04,-0.000347489,-0.0130798,-0,0.0130844,-177.29,-52000.2,-0,52000.5,4579.04
step02_gravity_refstate-mantle.xmf,608,1.89216e-06,-1.98825e-06,0,6.25609e-08,-1.52191e+09,-1.52243e+09,-1.52216e+09,8361.27,0.000828546,-0.0108126,0,0.0108443,438.491,-53079.9,0,53081.7,8361.27
step02_gravity_refstate-mantle.xmf,609,1.81859e-06,-1.80028e-06,0,1.27764e-07,-1.55737e+09,-1.55786e+09,-1.55762e+09,17075.7,0.00200595,-0.00863564,0,0.00886556,1098.27,-54175.3,0,54186.5,17075.7
step02_gravity_refstate-mantle.xmf,610,1.74758e-06,-1.62651e-06,0,1.62494e-07,-1.59145e+09,-1.5919e+09,-1.59169e+09,21717.4,0.00316278,-0.00667103,0,0.00738281,1783.79,-55228,0,55256.8,21717.4
step02_gravity_refstate-mantle.xmf,611,1.59734e-06,-1.35633e-06,0,2.30509e-07,-1.6265e+09,-1.62689e+09,-1.62671e+09,30807.5,0.00605261,-0.0044652,0,0.00752145,3561.92,-56310.2,0,56422.8,30807.5
step02_gravity_refstate-mantle.xmf,612,1.53644e-06,-1.19863e-06,0,1.71512e-07,-1.66612e+09,-1.66648e+09,-1.66632e+09,22922.6,0.00678363,-0.00273424,0,0.00731394,4090.62,-57534.1,0,57679.3,22922.6
step02_gravity_refstate-mantle.xmf,613,1.45985e-06,-1.02548e-06,0,9.88832e-08,-1.70442e+09,-1.70475e+09,-1.70461e+09,13215.7,0.00781372,-0.00126328,0,0.00791518,4821.08,-58717,0,58914.6,13215.7
step02_gravity_refstate-mantle.xmf,614,1.37948e-06,-8.49908e-07,0,1.08763e-09,-1.74595e+09,-1.74625e+09,-1.74614e+09,145.361,0.00886446,1.17329e-19,0,0.00886446,5580.2,-60000,0,60258.9,145.361
step02_gravity_refstate-mantle.xmf,615,-2.5468e-07,4.04541e-07,0,-1.31447e-06,-1.09874e+09,-1.09865e+09,-1.09871e+09,-175679,-0.0102137,-0.000577508,-0,0.01023,-11016.2,-40000,-0,41489.2,175679
step02_gravity_refstate-mantle.xmf,616,6.16168e-07,-1.07106e-06,0,-1.87436e-06,-1.27144e+09,-1.27167e+09,-1.27152e+09,-250509,-0.0140744,-0.0131844,-0,0.0192851,-7701.03,-45336.7,-0,45986.1,250509
step02_gravity_refstate-mantle.xmf,617,1.22425e-06,-1.72087e-06,0,-1.58888e-06,-1.33211e+09,-1.3325e+09,-1.33227e+09,-212353,-0.0121794,-0.0156431,-0,0.0198254,-6140.83,-47213.1,-0,47610.8,212353
step02_gravity_refstate-mantle.xmf,618,1.8799e-06,-2.20495e-06,0,-6.0056e-07,-1.44441e+09,-1.44496e+09,-1.44466e+09,-80264.9,-0.00564894,-0.0147063,-0,0.0157539,-2824.05,-50685.4,-0,50764,80264.9
step02_gravity_refstate-mantle.xmf,619,1.68624e-06,-1.48544e-06,0,1.73421e-07,-1.61894e+09,-1.61936e+09,-1.61916e+09,23177.7,0.00419089,-0.00517678,0,0.00666053,2417.31,-56077,0,56129.1,23177.7
step02_gravity_refstate-mantle.xmf,620,-2.35072e-07,2.3124e-07,0,-1.49307e-06,-1.15939e+09,-1.15933e+09,-1.15936e+09,-199549,-0.0128148,-0.00227197,-0,0.0130146,-10756.3,-41873.1,-0,43232.5,199549
step02_gravity_refstate-mantle.xmf,621,-2.77118e-07,4.30554e-07,0,-1.29378e-06,-1.12826e+09,-1.12816e+09,-1.12822e+09,-172913,-0.0114441,0.00111255,-0,0.011498,-11520.5,-40911.7,-0,42502.8,172913
step02_gravity_refstate-mantle.xmf,622,-1.21675e-07,1.36307e-08,0,-1.62069e-06,-1.19485e+09,-1.19483e+09,-1.19483e+09,-216605,-0.0138857,-0.00442973,-0,0.0145751,-10252.9,-42968.6,-0,44174.9,216605
step02_gravity_refstate-mantle.xmf,623,4.16095e-08,-2.33756e-07,0,-1.71e-06,-1.2251e+09,-1.22514e+09,-1.2251e+09,-228542,-0.0144504,-0.00648468,-0,0.0158387,-9702.14,-43903.5,-0,44962.8,228542
step02_gravity_refstate-mantle.xmf,624,2.30068e-07,-4.89059e-07,0,-1.75673e-06,-1.25115e+09,-1.25124e+09,-1.25118e+09,-234787,-0.0146343,-0.00831428,-0,0.0168312,-9143.34,-44708.8,-0,45634.1,234787
step02_gravity_refstate-mantle.xmf,625,4.50483e-07,-7.75214e-07,0,-1.77669e-06,-1.27487e+09,-1.27503e+09,-1.27493e+09,-237454,-0.0144895,-0.0102483,-0,0.0177475,-8485.93,-45442.3,-0,46227.8,237454
step02_gravity_refstate-mantle.xmf,626,7.11789e-07,-1.09363e-06,0,-1.74757e-06,-1.29914e+09,-1.29938e+09,-1.29924e+09,-233562,-0.0139866,-0.0121693,-0,0.0185396,-7725.04,-46193,-0,46834.5,233562
step02_gravity_refstate-mantle.xmf,627,9.36279e-07,-1.29726e-06,0,-1.60791e-06,-1.33144e+09,-1.33174e+09,-1.33156e+09,-214897,-0.0133529,-0.0125358,-0,0.0183152,-7224.05,-47191.6,-0,47741.4,214897
step02_gravity_refstate-mantle.xmf,628,1.40266e-06,-1.85555e-06,0,-1.3846e-06,-1.36116e+09,-1.3616e+09,-1.36135e+09,-185051,-0.0111543,-0.015434,-0,0.0190427,-5606.37,-48111.4,-0,48436.9,185051
step02_gravity_refstate-mantle.xmf,629,1.54616e-06,-1.93557e-06,0,-1.16963e-06,-1.39115e+09,-1.39162e+09,-1.39136e+09,-156320,-0.00997394,-0.014925,-0,0.0179509,-5033.53,-49038.5,-0,49296.2,156320
step02_gravity_refstate-mantle.xmf,630,1.65345e-06,-1.97193e-06,0,-9.47403e-07,-1.42189e+09,-1.42238e+09,-1.42211e+09,-126620,-0.00872267,-0.0140948,-0,0.0165756,-4449.66,-49988.7,-0,50186.4,126620
step02_gravity_refstate-mantle.xmf,631,1.72488e-06,-1.97082e-06,0,-7.44926e-07,-1.45154e+09,-1.45204e+09,-1.45177e+09,-99559.3,-0.00745737,-0.0131082,-0,0.015081,-3856.07,-50905.2,-0,51051,99559.3
step02_gravity_refstate-mantle.xmf,632,1.91949e-06,-2.13471e-06,0,-2.52275e-07,-1.48623e+09,-1.48677e+09,-1.48649e+09,-33716.5,-0.00275198,-0.0128448,-0,0.0131363,-1412.25,-51977.6,-0,51996.8,33716.5
step02_gravity_refstate-mantle.xmf,633,1.81508e-06,-2.01235e-06,0,-4.93836e-07,-1.48038e+09,-1.48089e+09,-1.48063e+09,-66001.2,-0.00544744,-0.0123552,-0,0.0135028,-2835.87,-51796.5,-0,51874.1,66001.2
step02_gravity_refstate-mantle.xmf,634,1.88219e-06,-1.97347e-06,0,-1.28659e-07,-1.52211e+09,-1.52263e+09,-1.52236e+09,-17195.2,-0.00161267,-0.0107367,-0,0.0108571,-855.013,-53086.1,-0,53093,17195.2
step02_gravity_refstate-mantle.xmf,635,1.83496e-06,-1.81883e-06,0,-3.11099e-08,-1.55801e+09,-1.55849e+09,-1.55825e+09,-4157.84,-0.000443988,-0.0087087,-0,0.00872001,-242.368,-54194.9,-0,54195.5,4157.84
step02_gravity_refstate-mantle.xmf,636,1.78694e-06,-1.67256e-06,0,4.16932e-08,-1.59308e+09,-1.59355e+09,-1.59332e+09,5572.3,0.00084254,-0.00680631,0,0.00685826,472.1,-55278.6,0,55280.6,5572.3
step02_gravity_refstate-mantle.xmf,637,1.73514e-06,-1.53116e-06,0,8.71249e-08,-1.62633e+09,-1.62677e+09,-1.62656e+09,11644.2,0.00222492,-0.00507246,0,0.00553896,1275.12,-56305.5,0,56320,11644.2
step02_gravity_refstate-mantle.xmf,638,1.66565e-06,-1.37516e-06,0,1.15047e-07,-1.65864e+09,-1.65905e+09,-1.65886e+09,15376,0.00409279,-0.00342939,0,0.00533963,2401.14,-57303.6,0,57353.9,15376
step02_gravity_refstate-mantle.xmf,639,1.59609e-06,-1.20276e-06,0,6.93217e-08,-1.70451e+09,-1.70489e+09,-1.70473e+09,9264.85,0.00533337,-0.00148519,0,0.00553631,3198.25,-58720.5,0,58807.5,9264.85
step02_gravity_refstate-mantle.xmf,640,1.53269e-06,-1.05005e-06,0,1.76386e-09,-1.74594e+09,-1.74628e+09,-1.74614e+09,235.74,0.00652815,1.40071e-19,0,0.00652815,3975.83,-60000,0,60131.6,235.74
step02_gravity_refstate-mantle.xmf,641,-2.54403e-07,5.34468e-07,0,-1.14284e-06,-1.09873e+09,-1.09863e+09,-1.0987e+09,-152740,-0.00995342,0.0036051,-0,0.0105862,-12043.8,-40000,-0,41773.8,152740
step02_gravity_refstate-mantle.xmf,642,1.13473e-06,-1.46959e-06,0,-1.44213e-06,-1.36149e+09,-1.36184e+09,-1.36164e+09,-192741,-0.0125335,-0.0126885,-0,0.017835,-6699.91,-48120.7,-0,48584.9,192741
step02_gravity_refstate-mantle.xmf,643,-2.88969e-07,5.67318e-07,0,-1.12653e-06,-1.12916e+09,-1.12905e+09,-1.12912e+09,-150561,-0.011186,0.00503405,-0,0.0122666,-12565.4,-40939.9,-0,42824.8,150561
step02_gravity_refstate-mantle.xmf,644,-2.78689e-07,4.40973e-07,0,-1.27498e-06,-1.1605e+09,-1.16041e+09,-1.16047e+09,-170401,-0.0125392,0.00239711,-0,0.0127662,-11973.6,-41907.7,-0,43584.7,170401
step02_gravity_refstate-mantle.xmf,645,-2.07951e-07,2.58673e-07,0,-1.42023e-06,-1.19274e+09,-1.19267e+09,-1.19271e+09,-189814,-0.0136564,-0.000286255,-0,0.0136594,-11336.9,-42903.4,-0,44376,189814
step02_gravity_refstate-mantle.xmf,646,-8.13046e-08,4.35475e-08,0,-1.52834e-06,-1.22467e+09,-1.22465e+09,-1.22466e+09,-204263,-0.0144232,-0.00260297,-0,0.0146562,-10742.3,-43890.2,-0,45185.7,204263
step02_gravity_refstate-mantle.xmf,647,1.09788e-07,-2.13785e-07,0,-1.59122e-06,-1.25882e+09,-1.25886e+09,-1.25883e+09,-212666,-0.0148566,-0.00472127,-0,0.0155887,-10119.9,-44945.6,-0,46070.8,212666
step02_gravity_refstate-mantle.xmf,648,3.03753e-07,-5.0535e-07,0,-1.67059e-06,-1.27604e+09,-1.27614e+09,-1.27608e+09,-223274,-0.0147955,-0.00738889,-0,0.0165379,-9294.96,-45478,-0,46418.2,223274
step02_gravity_refstate-mantle.xmf,649,4.66528e-07,-6.87658e-07,0,-1.64278e-06,-1.30048e+09,-1.30063e+09,-1.30054e+09,-219558,-0.0146573,-0.00836273,-0,0.0168752,-8869,-46233.7,-0,47076.7,219558
step02_gravity_refstate-mantle.xmf,650,6.75222e-07,-9.04686e-07,0,-1.56994e-06,-1.32982e+09,-1.33003e+09,-1.32991e+09,-209822,-0.0142535,-0.00931772,-0,0.0170289,-8327.91,-47141,-0,47870.9,209822
step02_gravity_refstate-mantle.xmf,651,8.70082e-07,-1.08267e-06,0,-1.44968e-06,-1.36102e+09,-1.36128e+09,-1.36113e+09,-193750,-0.0136564,-0.00978261,-0,0.0167987,-7818.5,-48105.4,-0,48736.7,193750
step02_gravity_refstate-mantle.xmf,652,1.30343e-06,-1.5993e-06,0,-1.25755e-06,-1.39176e+09,-1.39215e+09,-1.39193e+09,-168072,-0.0115338,-0.0125943,-0,0.0170777,-6133.66,-49056.5,-0,49438.5,168072
step02_gravity_refstate-mantle.xmf,653,1.43637e-06,-1.67319e-06,0,-1.06793e-06,-1.42254e+09,-1.42296e+09,-1.42273e+09,-142729,-0.0104374,-0.012168,-0,0.0160312,-5563.4,-50008.1,-0,50316.6,142729
step02_gravity_refstate-mantle.xmf,654,1.53873e-06,-1.71116e-06,0,-8.72509e-07,-1.45411e+09,-1.45454e+09,-1.45431e+09,-116611,-0.00928106,-0.0114465,-0,0.0147363,-4986.53,-50983.8,-0,51227,116611
step02_gravity_refstate-mantle.xmf,655,1.63043e-06,-1.73408e-06,0,-6.68083e-07,-1.48737e+09,-1.48782e+09,-1.48759e+09,-89289.3,-0.0078723,-0.0105778,-0,0.0131857,-4267.61,-52012,-0,52186.7,89289.3
step02_gravity_refstate-mantle.xmf,656,1.80903e-06,-1.88854e-06,0,-3.11734e-07,-1.52146e+09,-1.52195e+09,-1.5217e+09,-41663.2,-0.00407,-0.0103059,-0,0.0110805,-2183.17,-53065.6,-0,53110.4,41663.2
step02_gravity_refstate-mantle.xmf,657,1.79866e-06,-1.76972e-06,0,-1.84242e-07,-1.55826e+09,-1.55874e+09,-1.5585e+09,-24623.9,-0.00283432,-0.00847198,-0,0.00893352,-1558.07,-54202.8,-0,54225.2,24623.9
step02_gravity_refstate-mantle.xmf,658,1.77746e-06,-1.65665e-06,0,-8.41696e-08,-1.59447e+09,-1.59493e+09,-1.59471e+09,-11249.3,-0.00159072,-0.00669255,-0,0.006879,-893.33,-55321.5,-0,55328.7,11249.3
step02_gravity_refstate-mantle.xmf,659,1.75336e-06,-1.549e-06,0,-1.20962e-08,-1.6294e+09,-1.62984e+09,-1.62963e+09,-1616.66,-0.000254128,-0.00501522,-0,0.00502165,-145.269,-56400.4,-0,56400.6,1616.66
step02_gravity_refstate-mantle.xmf,660,1.7224e-06,-1.43668e-06,0,3.12921e-08,-1.66513e+09,-1.66555e+09,-1.66536e+09,4182.19,0.00122704,-0.00334843,0,0.00356618,712.789,-57504.1,0,57508.5,4182.19
step02_gravity_refstate-mantle.xmf,661,1.68305e-06,-1.31545e-06,0,3.56598e-08,-1.70346e+09,-1.70386e+09,-1.70368e+09,4765.93,0.00269824,-0.00166802,0,0.00317219,1590.12,-58688.1,0,58709.7,4765.93
step02_gravity_refstate-mantle.xmf,662,1.64116e-06,-1.19099e-06,0,2.0681e-09,-1.74592e+09,-1.7463e+09,-1.74614e+09,276.402,0.00399911,1.59179e-19,0,0.00399911,2382.28,-60000,0,60047.3,276.402
step02_gravity_refstate-mantle.xmf,663,-2.50375e-07,6.43917e-07,0,-9.89639e-07,-1.09872e+09,-1.0986e+09,-1.09869e+09,-132265,-0.00968215,0.00758626,-0,0.0123002,-13122.5,-40000,-0,42097.5,132265
step02_gravity_refstate-mantle.xmf,664,1.05543e-06,-1.2432e-06,0,-1.29804e-06,-1.39225e+09,-1.39255e+09,-1.39239e+09,-173483,-0.0128575,-0.01003,-0,0.016307,-7263.05,-49070.9,-0,49605.5,173483
step02_gravity_refstate-mantle.xmf,665,1.68271e-06,-1.71884e-06,0,-4.76851e-07,-1.52202e+09,-1.52247e+09,-1.52224e+09,-63731.1,-0.00646851,-0.00939049,-0,0.0114028,-3554.65,-53082.5,-0,53201.4,63731.1
step02_gravity_refstate-mantle.xmf,666,-2.95047e-07,6.85157e-07,0,-9.73518e-07,-1.12904e+09,-1.1289e+09,-1.129e+09,-130111,-0.01086,0.00879644,-0,0.0139756,-13664.8,-40936.2,-0,43156.7,130111
step02_gravity_refstate-mantle.xmf,667,-3.04785e-07,5.94228e-07,0,-1.10271e-06,-1.1601e+09,-1.15998e+09,-1.16006e+09,-147377,-0.0122041,0.00623724,-0,0.0137056,-13074.7,-41895.5,-0,43888.2,147377
step02_gravity_refstate-mantle.xmf,668,-2.6681e-07,4.603e-07,0,-1.23136e-06,-1.19215e+09,-1.19205e+09,-1.19211e+09,-164572,-0.0133711,0.00370344,-0,0.0138745,-12473.2,-42885.3,-0,44662.4,164572
step02_gravity_refstate-mantle.xmf,669,-1.77484e-07,2.84925e-07,0,-1.34486e-06,-1.22423e+09,-1.22417e+09,-1.22421e+09,-179740,-0.0142713,0.00125877,-0,0.0143267,-11854.1,-43876.6,-0,45449.7,179740
step02_gravity_refstate-mantle.xmf,670,-4.7736e-08,9.07465e-08,0,-1.41999e-06,-1.25591e+09,-1.25589e+09,-1.25591e+09,-189782,-0.0148567,-0.000811693,-0,0.0148789,-11282.9,-44855.6,-0,46252.8,189782
step02_gravity_refstate-mantle.xmf,671,2.73791e-07,-3.73007e-07,0,-1.5479e-06,-1.29486e+09,-1.29495e+09,-1.2949e+09,-206876,-0.0150147,-0.00526989,-0,0.0159126,-9856.67,-46059.7,-0,47102.6,206876
step02_gravity_refstate-mantle.xmf,672,4.44422e-07,-5.42643e-07,0,-1.49109e-06,-1.32776e+09,-1.32789e+09,-1.32782e+09,-199284,-0.0148907,-0.00603302,-0,0.0160665,-9454.2,-47076.6,-0,48016.5,199284
step02_gravity_refstate-mantle.xmf,673,6.29713e-07,-7.23222e-07,0,-1.40964e-06,-1.3596e+09,-1.35978e+09,-1.35969e+09,-188398,-0.0145165,-0.00680384,-0,0.0160319,-8953.41,-48061,-0,48887.8,188398
step02_gravity_refstate-mantle.xmf,674,8.10432e-07,-8.86515e-07,0,-1.2959e-06,-1.39202e+09,-1.39225e+09,-1.39213e+09,-173197,-0.0139356,-0.00733198,-0,0.0157467,-8419.09,-49063.3,-0,49780.4,173197
step02_gravity_refstate-mantle.xmf,675,1.20394e-06,-1.35417e-06,0,-1.13615e-06,-1.42288e+09,-1.42322e+09,-1.42304e+09,-151847,-0.0119595,-0.0099609,-0,0.0155644,-6719.28,-50017.9,-0,50467.2,151847
step02_gravity_refstate-mantle.xmf,676,1.32408e-06,-1.41835e-06,0,-9.70039e-07,-1.45417e+09,-1.45454e+09,-1.45435e+09,-129646,-0.0109893,-0.00958954,-0,0.0145851,-6179.9,-50985.2,-0,51358.4,129646
step02_gravity_refstate-mantle.xmf,677,1.42717e-06,-1.46079e-06,0,-7.91122e-07,-1.48767e+09,-1.48806e+09,-1.48786e+09,-105733,-0.00989707,-0.00895866,-0,0.0133495,-5593.06,-52020.4,-0,52320.2,105733
step02_gravity_refstate-mantle.xmf,678,1.5142e-06,-1.48424e-06,0,-6.13354e-07,-1.52216e+09,-1.52256e+09,-1.52236e+09,-81974.8,-0.00867026,-0.00814976,-0,0.0118992,-4930.37,-53086.4,-0,53314.9,81974.8
step02_gravity_refstate-mantle.xmf,679,1.70591e-06,-1.65684e-06,0,-3.22358e-07,-1.55838e+09,-1.55883e+09,-1.55861e+09,-43083.2,-0.00518413,-0.00791949,-0,0.00946539,-2897.4,-54206.1,-0,54283.5,43083.2
step02_gravity_refstate-mantle.xmf,680,1.7186e-06,-1.57733e-06,0,-2.00444e-07,-1.59584e+09,-1.59628e+09,-1.59607e+09,-26789.3,-0.00395667,-0.00631894,-0,0.00745548,-2248.29,-55363.3,-0,55409,26789.3
step02_gravity_refstate-mantle.xmf,681,1.72102e-06,-1.50506e-06,0,-1.07834e-07,-1.63064e+09,-1.63107e+09,-1.63087e+09,-14412,-0.00274182,-0.00482305,-0,0.00554792,-1577.77,-56438.7,-0,56460.8,14412
step02_gravity_refstate-mantle.xmf,682,1.71869e-06,-1.42886e-06,0,-3.9459e-08,-1.66711e+09,-1.66753e+09,-1.66734e+09,-5273.7,-0.00141783,-0.00325454,-0,0.00354997,-824.529,-57565.4,-0,57571.3,5273.7
step02_gravity_refstate-mantle.xmf,683,1.71057e-06,-1.34828e-06,0,-2.4944e-09,-1.70531e+09,-1.70572e+09,-1.70554e+09,-333.377,-3.5101e-05,-0.00163896,-0,0.00163933,-20.6075,-58745.4,-0,58745.4,333.377
step02_gravity_refstate-mantle.xmf,684,1.69776e-06,-1.26448e-06,0,1.9812e-09,-1.74592e+09,-1.74631e+09,-1.74614e+09,264.787,0.00134771,1.58125e-19,0,0.00134771,793.86,-60000,0,60005.2,264.787
step02_gravity_refstate-mantle.xmf,685,-2.47129e-07,7.38409e-07,0,-8.54266e-07,-1.09871e+09,-1.09858e+09,-1.09868e+09,-114173,-0.00940138,0.0113623,-0,0.0147474,-14255.3,-40000,-0,42464.3,114173
step02_gravity_refstate-mantle.xmf,686,1.00156e-07,-8.83839e-08,0,-1.44333e-06,-1.28629e+09,-1.28632e+09,-1.28631e+09,-192901,-0.0151481,-0.00226374,-0,0.0153164,-10827.8,-45794.6,-0,47057.3,192901
step02_gravity_refstate-mantle.xmf,687,9.75083e-07,-1.03027e-06,0,-1.16615e-06,-1.42218e+09,-1.42245e+09,-1.42231e+09,-155855,-0.0132079,-0.0076706,-0,0.0152737,-7861.65,-49995.5,-0,50609.8,155855
step02_gravity_refstate-mantle.xmf,688,1.5738e-06,-1.4827e-06,0,-4.44776e-07,-1.55783e+09,-1.55824e+09,-1.55804e+09,-59444.4,-0.0074138,-0.00709706,-0,0.0102632,-4252.05,-54188.7,-0,54355.3,59444.4
step02_gravity_refstate-mantle.xmf,689,-3.00188e-07,7.8848e-07,0,-8.35802e-07,-1.12961e+09,-1.12947e+09,-1.12957e+09,-111705,-0.0105342,0.0124034,-0,0.0162732,-14836.7,-40954.3,-0,43559,111705
step02_gravity_refstate-mantle.xmf,690,-3.23257e-07,7.24572e-07,0,-9.47465e-07,-1.1604e+09,-1.16026e+09,-1.16036e+09,-126629,-0.0118503,0.00989265,-0,0.0154367,-14234.1,-41904.9,-0,44256.5,126629
step02_gravity_refstate-mantle.xmf,691,-3.08029e-07,6.23782e-07,0,-1.06413e-06,-1.19174e+09,-1.19162e+09,-1.1917e+09,-142220,-0.0130318,0.00735878,-0,0.0149659,-13614.1,-42872.9,-0,44982.6,142220
step02_gravity_refstate-mantle.xmf,692,-2.49436e-07,4.86518e-07,0,-1.17283e-06,-1.22395e+09,-1.22385e+09,-1.22391e+09,-156748,-0.0140221,0.00490466,-0,0.0148551,-12993.5,-43867.9,-0,45751.7,156748
step02_gravity_refstate-mantle.xmf,693,-1.49835e-07,3.21137e-07,0,-1.2586e-06,-1.25595e+09,-1.25589e+09,-1.25593e+09,-168212,-0.0147482,0.00265555,-0,0.0149854,-12386.9,-44856.7,-0,46535.5,168212
step02_gravity_refstate-mantle.xmf,694,-2.50042e-08,1.4897e-07,0,-1.30937e-06,-1.28604e+09,-1.28601e+09,-1.28603e+09,-174997,-0.0151816,0.000788041,-0,0.0152021,-11834.9,-45786.4,-0,47291.2,174997
step02_gravity_refstate-mantle.xmf,695,2.51545e-07,-2.39123e-07,0,-1.4049e-06,-1.32088e+09,-1.32095e+09,-1.32092e+09,-187765,-0.0152507,-0.00306033,-0,0.0155547,-10503.5,-46863.7,-0,48026.4,187765
step02_gravity_refstate-mantle.xmf,696,4.09533e-07,-3.85591e-07,0,-1.33863e-06,-1.35675e+09,-1.35686e+09,-1.35681e+09,-178908,-0.0151306,-0.00377258,-0,0.0155938,-10117.7,-47972.4,-0,49027.7,178908
step02_gravity_refstate-mantle.xmf,697,5.87469e-07,-5.53607e-07,0,-1.25124e-06,-1.39171e+09,-1.39186e+09,-1.39179e+09,-167228,-0.0147561,-0.00457062,-0,0.0154477,-9590.66,-49052.9,-0,49981.7,167228
step02_gravity_refstate-mantle.xmf,698,7.61565e-07,-7.20282e-07,0,-1.15435e-06,-1.4226e+09,-1.4228e+09,-1.4227e+09,-154279,-0.014167,-0.00533812,-0,0.0151393,-8971.52,-50008,-0,50806.3,154279
step02_gravity_refstate-mantle.xmf,699,1.09684e-06,-1.11298e-06,0,-1.02585e-06,-1.45261e+09,-1.4529e+09,-1.45276e+09,-137104,-0.012477,-0.0075554,-0,0.0145863,-7397.73,-50936.1,-0,51470.5,137104
step02_gravity_refstate-mantle.xmf,700,1.20466e-06,-1.16167e-06,0,-8.72089e-07,-1.4864e+09,-1.48671e+09,-1.48656e+09,-116555,-0.0116428,-0.00715799,-0,0.0136672,-6911.25,-51980.3,-0,52437.8,116555
step02_gravity_refstate-mantle.xmf,701,1.31511e-06,-1.21815e-06,0,-7.0442e-07,-1.52181e+09,-1.52215e+09,-1.52199e+09,-94145.7,-0.0105862,-0.00668231,-0,0.0125188,-6282.71,-53075,-0,53445.5,94145.7
step02_gravity_refstate-mantle.xmf,702,1.4052e-06,-1.25125e-06,0,-5.43045e-07,-1.55753e+09,-1.55789e+09,-1.55772e+09,-72578,-0.00946615,-0.00599079,-0,0.0112026,-5627.03,-54178.9,-0,54470.3,72578
step02_gravity_refstate-mantle.xmf,703,1.61063e-06,-1.44677e-06,0,-3.07225e-07,-1.59413e+09,-1.59453e+09,-1.59434e+09,-41060.6,-0.00626522,-0.00583403,-0,0.0085609,-3630.29,-55310.1,-0,55429.1,41060.6
step02_gravity_refstate-mantle.xmf,704,1.64084e-06,-1.40313e-06,0,-1.97387e-07,-1.6298e+09,-1.63021e+09,-1.63002e+09,-26380.8,-0.00515367,-0.00451375,-0,0.00685086,-3011.57,-56412.4,-0,56492.8,26380.8
step02_gravity_refstate-mantle.xmf,705,1.66216e-06,-1.35587e-06,0,-1.04762e-07,-1.66728e+09,-1.66769e+09,-1.66751e+09,-14001.5,-0.00397459,-0.00307687,-0,0.00502638,-2336.96,-57570.6,-0,57618,14001.5
step02_gravity_refstate-mantle.xmf,706,1.68168e-06,-1.31072e-06,0,-3.78369e-08,-1.70561e+09,-1.70601e+09,-1.70583e+09,-5056.9,-0.00268317,-0.00158114,-0,0.00311438,-1581.87,-58754.6,-0,58775.9,5056.9
step02_gravity_refstate-mantle.xmf,707,1.69747e-06,-1.26434e-06,0,1.89081e-09,-1.74592e+09,-1.74631e+09,-1.74614e+09,252.707,-0.00134753,1.54092e-19,-0,0.00134753,-793.86,-60000,-0,60005.2,252.707
step02_gravity_refstate-mantle.xmf,708,-2.46061e-07,8.21622e-07,0,-7.34748e-07,-1.09871e+09,-1.09856e+09,-1.09867e+09,-98199.1,-0.009109,0.0149303,-0,0.0174897,-15444.9,-40000,-0,42878.2,98199.1
step02_gravity_refstate-mantle.xmf,709,1.01954e-07,-6.51364e-09,0,-1.32628e-06,-1.31228e+09,-1.31229e+09,-1.31229e+09,-177257,-0.0153675,-0.000611657,-0,0.0153796,-11370.6,-46597.5,-0,47964.8,177257
step02_gravity_refstate-mantle.xmf,710,9.05302e-07,-8.59149e-07,0,-1.06325e-06,-1.44668e+09,-1.44691e+09,-1.4468e+09,-142103,-0.0135194,-0.00590285,-0,0.0147519,-8393.45,-50752.2,-0,51441.6,142103
step02_gravity_refstate-mantle.xmf,711,1.47226e-06,-1.2669e-06,0,-3.96358e-07,-1.59234e+09,-1.5927e+09,-1.59253e+09,-52973.3,-0.00835631,-0.00513294,-0,0.00980689,-4979.44,-55254.4,-0,55478.3,52973.3
step02_gravity_refstate-mantle.xmf,712,-3.05587e-07,8.79774e-07,0,-7.13243e-07,-1.13012e+09,-1.12996e+09,-1.13008e+09,-95324.9,-0.0101793,0.0158158,-0,0.0188084,-16071.6,-40970.1,-0,44009.6,95324.9
step02_gravity_refstate-mantle.xmf,713,-3.36995e-07,8.34885e-07,0,-8.1093e-07,-1.16024e+09,-1.16008e+09,-1.16019e+09,-108381,-0.0114531,0.0132803,-0,0.0175368,-15421,-41900.2,-0,44647.8,108381
step02_gravity_refstate-mantle.xmf,714,-3.39198e-07,7.63911e-07,0,-9.11646e-07,-1.19165e+09,-1.1915e+09,-1.19161e+09,-121841,-0.0126418,0.0108346,-0,0.0166495,-14811.3,-42870.3,-0,45356.8,121841
step02_gravity_refstate-mantle.xmf,715,-3.04556e-07,6.58214e-07,0,-1.01288e-06,-1.22393e+09,-1.2238e+09,-1.22389e+09,-135372,-0.0136936,0.00836363,-0,0.0160457,-14177.4,-43867.4,-0,46101.5,135372
step02_gravity_refstate-mantle.xmf,716,-2.3125e-07,5.21812e-07,0,-1.10095e-06,-1.25687e+09,-1.25677e+09,-1.25684e+09,-147143,-0.0145427,0.00600143,-0,0.0157324,-13545.4,-44884.9,-0,46884.3,147143
step02_gravity_refstate-mantle.xmf,717,-1.25294e-07,3.63821e-07,0,-1.16622e-06,-1.28858e+09,-1.28852e+09,-1.28857e+09,-155865,-0.0151281,0.00384831,-0,0.0156099,-12921.9,-45864.9,-0,47650.5,155865
step02_gravity_refstate-mantle.xmf,718,7.13915e-09,1.87692e-07,0,-1.20785e-06,-1.31869e+09,-1.31867e+09,-1.31869e+09,-161429,-0.0154577,0.00186924,-0,0.0155704,-12282.4,-46795.5,-0,48380.5,161429
step02_gravity_refstate-mantle.xmf,719,1.9237e-07,-5.15489e-08,0,-1.24175e-06,-1.34949e+09,-1.34952e+09,-1.34952e+09,-165960,-0.015515,-0.000485486,-0,0.0155225,-11404.3,-47747.5,-0,49090.5,165960
step02_gravity_refstate-mantle.xmf,720,3.85135e-07,-2.40549e-07,0,-1.17603e-06,-1.3917e+09,-1.39178e+09,-1.39175e+09,-157176,-0.01534,-0.00177438,-0,0.0154423,-10792.5,-49052.1,-0,50225.3,157176
step02_gravity_refstate-mantle.xmf,721,5.65801e-07,-4.233e-07,0,-1.10409e-06,-1.42522e+09,-1.42535e+09,-1.4253e+09,-147562,-0.0149086,-0.0029164,-0,0.0151911,-10109.7,-50088.3,-0,51098.4,147562
step02_gravity_refstate-mantle.xmf,722,7.41502e-07,-6.00431e-07,0,-1.02039e-06,-1.45458e+09,-1.45476e+09,-1.45468e+09,-136375,-0.0142708,-0.00389997,-0,0.0147941,-9368.86,-50995.9,-0,51849.4,136375
step02_gravity_refstate-mantle.xmf,723,9.46526e-07,-8.18682e-07,0,-9.23843e-07,-1.48142e+09,-1.48165e+09,-1.48155e+09,-123472,-0.0132487,-0.00504393,-0,0.0141764,-8367.47,-51825.8,-0,52496.9,123472
step02_gravity_refstate-mantle.xmf,724,1.09291e-06,-9.18289e-07,0,-7.5885e-07,-1.52093e+09,-1.5212e+09,-1.52107e+09,-101420,-0.0122729,-0.00497808,-0,0.0132441,-7678.31,-53046.9,-0,53599.7,101420
step02_gravity_refstate-mantle.xmf,725,1.20836e-06,-9.87408e-07,0,-6.03979e-07,-1.55761e+09,-1.5579e+09,-1.55777e+09,-80721.9,-0.0112699,-0.004666,-0,0.0121977,-7007.41,-54180.6,-0,54631.9,80721.9
step02_gravity_refstate-mantle.xmf,726,1.30994e-06,-1.04469e-06,0,-4.58384e-07,-1.59273e+09,-1.59304e+09,-1.5929e+09,-61263.1,-0.0101777,-0.00419391,-0,0.0110079,-6288.96,-55266,-0,55622.7,61263.1
step02_gravity_refstate-mantle.xmf,727,1.51407e-06,-1.24794e-06,0,-2.78053e-07,-1.62687e+09,-1.62724e+09,-1.62707e+09,-37161.8,-0.00743355,-0.00408256,-0,0.00848086,-4450.17,-56321.4,-0,56496.9,37161.8
step02_gravity_refstate-mantle.xmf,728,1.55493e-06,-1.22088e-06,0,-1.67225e-07,-1.66522e+09,-1.66559e+09,-1.66543e+09,-22349.7,-0.00645892,-0.00282538,-0,0.00704986,-3878.94,-57506.5,-0,57637.2,22349.7
step02_gravity_refstate-mantle.xmf,729,1.59943e-06,-1.20477e-06,0,-7.0638e-08,-1.70533e+09,-1.7057e+09,-1.70554e+09,-9440.77,-0.00525143,-0.00146067,-0,0.00545078,-3147.08,-58745.6,-0,58829.9,9440.77
step02_gravity_refstate-mantle.xmf,730,1.64099e-06,-1.1913e-06,0,1.59722e-09,-1.74592e+09,-1.7463e+09,-1.74614e+09,213.468,-0.00399927,1.43819e-19,-0,0.00399927,-2382.28,-60000,-0,60047.3,213.468
step02_gravity_refstate-mantle.xmf,731,-2.48413e-07,8.96579e-07,0,-6.29557e-07,-1.0987e+09,-1.09855e+09,-1.09867e+09,-84140.3,-0.0088011,0.0182882,-0,0.0202958,-16694.2,-40000,-0,43343.9,84140.3
step02_gravity_refstate-mantle.xmf,732,1.38978e-06,-1.09504e-06,0,-3.48786e-07,-1.61977e+09,-1.6201e+09,-1.61995e+09,-46615.2,-0.00915161,-0.00374524,-0,0.00988832,-5615.05,-56101.6,-0,56381.9,46615.2
step02_gravity_refstate-mantle.xmf,733,-3.18269e-07,9.63179e-07,0,-6.0922e-07,-1.13359e+09,-1.13342e+09,-1.13355e+09,-81422.3,-0.00990551,0.0188781,-0,0.021319,-17347.9,-41077.6,-0,44590.6,81422.3
step02_gravity_refstate-mantle.xmf,734,-3.48893e-07,9.34422e-07,0,-6.85894e-07,-1.15984e+09,-1.15967e+09,-1.1598e+09,-91669.7,-0.0110004,0.016573,-0,0.0198915,-16703,-41888.1,-0,45095.5,91669.7
step02_gravity_refstate-mantle.xmf,735,-3.62912e-07,8.84762e-07,0,-7.7386e-07,-1.18975e+09,-1.18958e+09,-1.1897e+09,-103426,-0.0121499,0.0141416,-0,0.0186441,-16055.4,-42811.6,-0,45723.2,103426
step02_gravity_refstate-mantle.xmf,736,-3.48167e-07,8.06851e-07,0,-8.65673e-07,-1.22401e+09,-1.22385e+09,-1.22396e+09,-115697,-0.0132905,0.0116473,-0,0.0176719,-15417.7,-43869.8,-0,46500.2,115697
step02_gravity_refstate-mantle.xmf,737,-2.97879e-07,6.98562e-07,0,-9.50711e-07,-1.25795e+09,-1.25781e+09,-1.25791e+09,-127063,-0.0142393,0.00921403,-0,0.0169604,-14766.9,-44918.3,-0,47283.3,127063
step02_gravity_refstate-mantle.xmf,738,-2.1528e-07,5.65044e-07,0,-1.02104e-06,-1.29048e+09,-1.29038e+09,-1.29045e+09,-136462,-0.0149512,0.00691904,-0,0.0164746,-14107.6,-45923.5,-0,48041.6,136462
step02_gravity_refstate-mantle.xmf,739,-1.0395e-07,4.11522e-07,0,-1.07042e-06,-1.32254e+09,-1.32247e+09,-1.32252e+09,-143062,-0.0154334,0.00479514,-0,0.0161611,-13445.4,-46914,-0,48802.7,143062
step02_gravity_refstate-mantle.xmf,740,3.88535e-08,2.31612e-07,0,-1.09846e-06,-1.35514e+09,-1.35512e+09,-1.35515e+09,-146809,-0.0156875,0.0027267,-0,0.0159227,-12719.4,-47921.7,-0,49580.9,146809
step02_gravity_refstate-mantle.xmf,741,1.96621e-07,6.47125e-08,0,-1.07205e-06,-1.39294e+09,-1.39296e+09,-1.39297e+09,-143280,-0.0157215,0.00116234,-0,0.0157644,-12104.5,-49089.9,-0,50560.2,143280
step02_gravity_refstate-mantle.xmf,742,3.82355e-07,-1.17147e-07,0,-1.00431e-06,-1.4342e+09,-1.43427e+09,-1.43425e+09,-134226,-0.0154915,-0.000240826,-0,0.0154934,-11406.5,-50365.3,-0,51640.8,134226
step02_gravity_refstate-mantle.xmf,743,5.62294e-07,-3.29964e-07,0,-9.76758e-07,-1.45672e+09,-1.45684e+09,-1.45679e+09,-130544,-0.014988,-0.00181696,-0,0.0150978,-10486.9,-51061.4,-0,52127.2,130544
step02_gravity_refstate-mantle.xmf,744,7.08935e-07,-4.59999e-07,0,-8.7962e-07,-1.4897e+09,-1.48986e+09,-1.4898e+09,-117561,-0.0144233,-0.00250245,-0,0.0146388,-9846.08,-52081,-0,53003.6,117561
step02_gravity_refstate-mantle.xmf,745,8.61383e-07,-5.97129e-07,0,-7.69136e-07,-1.52175e+09,-1.52194e+09,-1.52186e+09,-102795,-0.0136689,-0.00305289,-0,0.0140057,-9111.62,-53071.6,-0,53848.1,102795
step02_gravity_refstate-mantle.xmf,746,9.97358e-07,-6.99913e-07,0,-6.31749e-07,-1.55819e+09,-1.55842e+09,-1.55832e+09,-84433.3,-0.0128067,-0.00317956,-0,0.0131955,-8403.54,-54197.9,-0,54845.6,84433.3
step02_gravity_refstate-mantle.xmf,747,1.12283e-06,-7.89014e-07,0,-4.89075e-07,-1.59505e+09,-1.59531e+09,-1.5952e+09,-65364.9,-0.0118116,-0.00305409,-0,0.0122001,-7641.01,-55337.2,-0,55862.3,65364.9
step02_gravity_refstate-mantle.xmf,748,1.24418e-06,-8.81551e-07,0,-3.58463e-07,-1.62862e+09,-1.6289e+09,-1.62878e+09,-47908.5,-0.0106415,-0.00279902,-0,0.0110035,-6771.36,-56374.6,-0,56779.8,47908.5
step02_gravity_refstate-mantle.xmf,749,1.38647e-06,-1.01025e-06,0,-2.38811e-07,-1.65828e+09,-1.6586e+09,-1.65847e+09,-31917.2,-0.00898663,-0.00250648,-0,0.00932963,-5585.33,-57291.5,-0,57563.1,31917.2
step02_gravity_refstate-mantle.xmf,750,1.46536e-06,-1.03199e-06,0,-1.02222e-07,-1.70382e+09,-1.70415e+09,-1.70401e+09,-13661.9,-0.00772873,-0.00129201,-0,0.00783598,-4762.31,-58698.5,-0,58891.4,13661.9
step02_gravity_refstate-mantle.xmf,751,1.53256e-06,-1.05049e-06,0,1.25574e-09,-1.74594e+09,-1.74628e+09,-1.74614e+09,167.829,-0.00652835,1.28887e-19,-0,0.00652835,-3975.83,-60000,-0,60131.6,167.829
step02_gravity_refstate-mantle.xmf,752,-2.5493e-07,9.65495e-07,0,-5.36954e-07,-1.0987e+09,-1.09853e+09,-1.09866e+09,-71763.9,-0.00847175,0.0214341,-0,0.0230475,-18006.4,-40000,-0,43866,71763.9
step02_gravity_refstate-mantle.xmf,753,-3.30869e-07,1.03903e-06,0,-5.16729e-07,-1.13555e+09,-1.13537e+09,-1.13551e+09,-69060.8,-0.00954387,0.021719,-0,0.0237234,-18664.8,-41138.1,-0,45174.3,69060.8
step02_gravity_refstate-mantle.xmf,754,-3.62428e-07,1.02162e-06,0,-5.79738e-07,-1.15934e+09,-1.15915e+09,-1.15929e+09,-77482,-0.0105275,0.0195344,-0,0.0221906,-17991.1,-41872.6,-0,45574,77482
step02_gravity_refstate-mantle.xmf,755,-3.80857e-07,9.90858e-07,0,-6.48463e-07,-1.18652e+09,-1.18634e+09,-1.18647e+09,-86667.1,-0.0115636,0.017352,-0,0.0208521,-17381.1,-42712.1,-0,46113.2,86667.1
step02_gravity_refstate-mantle.xmf,756,-3.83603e-07,9.36134e-07,0,-7.32644e-07,-1.22384e+09,-1.22366e+09,-1.22378e+09,-97917.9,-0.012813,0.0147358,-0,0.0195274,-16711.1,-43864.6,-0,46940,97917.9
step02_gravity_refstate-mantle.xmf,757,-3.51963e-07,8.52073e-07,0,-8.12945e-07,-1.25965e+09,-1.25949e+09,-1.2596e+09,-108650,-0.0138612,0.0122055,-0,0.0184691,-16032.9,-44971,-0,47743.5,108650
step02_gravity_refstate-mantle.xmf,758,-2.91284e-07,7.44153e-07,0,-8.82258e-07,-1.29199e+09,-1.29185e+09,-1.29195e+09,-117914,-0.0146586,0.0098544,-0,0.0176631,-15351,-45970.1,-0,48465.5,117914
step02_gravity_refstate-mantle.xmf,759,-2.08099e-07,6.23353e-07,0,-9.33711e-07,-1.32326e+09,-1.32314e+09,-1.32323e+09,-124790,-0.0152438,0.00774204,-0,0.0170971,-14708.8,-46936.1,-0,49186.9,124790
step02_gravity_refstate-mantle.xmf,760,-9.77762e-08,4.84616e-07,0,-9.6172e-07,-1.35712e+09,-1.35705e+09,-1.35711e+09,-128534,-0.0156599,0.00574961,-0,0.0166821,-14067.8,-47982.7,-0,50002.4,128534
step02_gravity_refstate-mantle.xmf,761,3.58631e-08,3.32722e-07,0,-9.6191e-07,-1.39285e+09,-1.39281e+09,-1.39286e+09,-128559,-0.0158732,0.00391795,-0,0.0163496,-13411.1,-49086.8,-0,50885.9,128559
step02_gravity_refstate-mantle.xmf,762,1.84702e-07,1.76536e-07,0,-9.32239e-07,-1.42928e+09,-1.42928e+09,-1.4293e+09,-124594,-0.0158692,0.00230841,-0,0.0160362,-12735.9,-50212.6,-0,51802.6,124594
step02_gravity_refstate-mantle.xmf,763,4.69949e-07,-1.32638e-07,0,-8.58571e-07,-1.48221e+09,-1.4823e+09,-1.48228e+09,-114748,-0.0153221,-0.000211821,-0,0.0153235,-11316.6,-51848.9,-0,53069.6,114748
step02_gravity_refstate-mantle.xmf,764,6.35583e-07,-2.78868e-07,0,-7.501e-07,-1.52175e+09,-1.52187e+09,-1.52184e+09,-100251,-0.01475,-0.00108756,-0,0.01479,-10555.9,-53071,-0,54110.6,100251
step02_gravity_refstate-mantle.xmf,765,7.81623e-07,-4.02233e-07,0,-6.32429e-07,-1.5585e+09,-1.55866e+09,-1.55861e+09,-84524.1,-0.014064,-0.00161049,-0,0.0141559,-9818.45,-54206.9,-0,55088.9,84524.1
step02_gravity_refstate-mantle.xmf,766,9.1736e-07,-5.08388e-07,0,-5.00921e-07,-1.59624e+09,-1.59643e+09,-1.59636e+09,-66948.1,-0.0132542,-0.00182693,-0,0.0133795,-9060.08,-55373.3,-0,56109.6,66948.1
step02_gravity_refstate-mantle.xmf,767,1.0505e-06,-6.15082e-07,0,-3.69999e-07,-1.63249e+09,-1.63271e+09,-1.63263e+09,-49450.3,-0.0122778,-0.00182827,-0,0.0124131,-8209.19,-56493.6,-0,57086.9,49450.3
step02_gravity_refstate-mantle.xmf,768,1.17995e-06,-7.18047e-07,0,-2.38931e-07,-1.66904e+09,-1.66929e+09,-1.66919e+09,-31933.2,-0.0111297,-0.00154855,-0,0.0112369,-7276.42,-57623.1,-0,58080.7,31933.2
step02_gravity_refstate-mantle.xmf,769,1.28814e-06,-7.98175e-07,0,-1.20709e-07,-1.70446e+09,-1.70474e+09,-1.70463e+09,-16132.8,-0.00998483,-0.000976617,-0,0.0100325,-6401.66,-58717.9,-0,59065.8,16132.8
step02_gravity_refstate-mantle.xmf,770,1.37942e-06,-8.50697e-07,0,5.64161e-10,-1.74595e+09,-1.74625e+09,-1.74614e+09,75.4001,-0.00886438,9.94669e-20,-0,0.00886438,-5580.2,-60000,-0,60258.9,75.4001
step02_gravity_refstate-mantle.xmf,771,-2.65942e-07,1.0299e-06,0,-4.559e-07,-1.09869e+09,-1.09852e+09,-1.09866e+09,-60931,-0.00811359,0.024366,-0,0.0256814,-19384.6,-40000,-0,44449.6,60931
step02_gravity_refstate-mantle.xmf,772,2.99571e-07,7.31857e-08,0,-8.7474e-07,-1.46105e+09,-1.46108e+09,-1.46109e+09,-116909,-0.0157453,0.00138614,-0,0.0158062,-12289.7,-51194.7,-0,52649.1,116909
step02_gravity_refstate-mantle.xmf,773,-3.4869e-07,1.11272e-06,0,-4.33618e-07,-1.13877e+09,-1.13857e+09,-1.13872e+09,-57953.1,-0.00916614,0.0243462,-0,0.0260145,-20067.7,-41237.5,-0,45861.2,57953.1
step02_gravity_refstate-mantle.xmf,774,-3.9308e-07,1.08261e-06,0,-5.34194e-07,-1.18014e+09,-1.17995e+09,-1.18009e+09,-71395,-0.0108309,0.0205446,-0,0.0232248,-18807.6,-42515.3,-0,46489.5,71395
step02_gravity_refstate-mantle.xmf,775,-4.13401e-07,1.0493e-06,0,-6.13772e-07,-1.22328e+09,-1.22308e+09,-1.22323e+09,-82030.6,-0.0122622,0.0176284,-0,0.0214737,-18059.7,-43847.6,-0,47421.1,82030.6
step02_gravity_refstate-mantle.xmf,776,-3.97448e-07,9.86072e-07,0,-6.8901e-07,-1.26196e+09,-1.26178e+09,-1.26191e+09,-92086.1,-0.0134198,0.0149401,-0,0.0200823,-17334.5,-45042.4,-0,48262.8,92086.1
step02_gravity_refstate-mantle.xmf,777,-3.51001e-07,8.98804e-07,0,-7.54534e-07,-1.29841e+09,-1.29824e+09,-1.29836e+09,-100843,-0.0143501,0.0124412,-0,0.0189924,-16629.8,-46168.3,-0,49072.1,100843
step02_gravity_refstate-mantle.xmf,778,-2.865e-07,7.90846e-07,0,-8.18907e-07,-1.32203e+09,-1.32189e+09,-1.322e+09,-109447,-0.0149428,0.0102514,-0,0.0181212,-15863,-46898.2,-0,49508.4,109447
step02_gravity_refstate-mantle.xmf,779,-2.15807e-07,7.05325e-07,0,-8.35834e-07,-1.35536e+09,-1.35524e+09,-1.35533e+09,-111709,-0.015433,0.0085813,-0,0.0176583,-15418.3,-47928,-0,50347,111709
step02_gravity_refstate-mantle.xmf,780,-1.04289e-07,5.76814e-07,0,-8.44629e-07,-1.39337e+09,-1.39328e+09,-1.39336e+09,-112885,-0.0158288,0.00658575,-0,0.0171442,-14775.6,-49102.6,-0,51277.6,112885
step02_gravity_refstate-mantle.xmf,781,2.68092e-08,4.34476e-07,0,-8.32783e-07,-1.43072e+09,-1.43067e+09,-1.43073e+09,-111301,-0.0160131,0.00472843,-0,0.0166967,-14075.1,-50256.9,-0,52190.6,111301
step02_gravity_refstate-mantle.xmf,782,1.69876e-07,2.89287e-07,0,-7.93399e-07,-1.46843e+09,-1.46841e+09,-1.46845e+09,-106038,-0.0159933,0.00311972,-0,0.0162948,-13365.5,-51422.1,-0,53130.6,106038
step02_gravity_refstate-mantle.xmf,783,3.00783e-07,1.42317e-07,0,-7.72473e-07,-1.49115e+09,-1.49117e+09,-1.49119e+09,-103241,-0.0158042,0.00182123,-0,0.0159088,-12623.8,-52124.4,-0,53631.3,103241
step02_gravity_refstate-mantle.xmf,784,5.69464e-07,-1.0553e-07,0,-6.11738e-07,-1.5583e+09,-1.55839e+09,-1.55837e+09,-81758.8,-0.0150315,-1.02254e-05,-0,0.0150315,-11249.2,-54199.8,-0,55354.9,81758.8
step02_gravity_refstate-mantle.xmf,785,4.22382e-07,2.58284e-08,0,-7.10633e-07,-1.52086e+09,-1.52091e+09,-1.52092e+09,-94976.1,-0.0155164,0.000858347,-0,0.0155401,-11997.9,-53042.7,-0,54382.7,94976.1
step02_gravity_refstate-mantle.xmf,786,7.13203e-07,-2.28333e-07,0,-4.96403e-07,-1.59628e+09,-1.59641e+09,-1.59638e+09,-66344.2,-0.0143946,-0.000600963,-0,0.0144071,-10458.9,-55373.8,-0,56352.9,66344.2
step02_gravity_refstate-mantle.xmf,787,8.43443e-07,-3.34128e-07,0,-3.74835e-07,-1.63303e+09,-1.63319e+09,-1.63315e+09,-50096.7,-0.0136686,-0.000876614,-0,0.0136967,-9679.59,-56509.7,-0,57332.7,50096.7
step02_gravity_refstate-mantle.xmf,788,9.6689e-07,-4.31515e-07,0,-2.49074e-07,-1.67011e+09,-1.6703e+09,-1.67024e+09,-33288.7,-0.0128367,-0.000871963,-0,0.0128662,-8868.8,-57655.6,-0,58333.8,33288.7
step02_gravity_refstate-mantle.xmf,789,1.08351e-06,-5.29805e-07,0,-1.37243e-07,-1.70304e+09,-1.70326e+09,-1.70319e+09,-18342.5,-0.0119174,-0.000656077,-0,0.0119354,-8029.48,-58673.4,-0,59220.3,18342.5
step02_gravity_refstate-mantle.xmf,790,1.19049e-06,-6.01891e-07,0,7.47009e-11,-1.74597e+09,-1.74621e+09,-1.74613e+09,9.98377,-0.0109472,6.93195e-20,-0,0.0109472,-7201.04,-60000,-0,60430.6,9.98377
step02_gravity_refstate-mantle.xmf,791,-2.81356e-07,1.09088e-06,0,-3.84878e-07,-1.09869e+09,-1.09851e+09,-1.09865e+09,-51439,-0.00771828,0.0270821,-0,0.0281605,-20832.2,-40000,-0,45099.7,51439
step02_gravity_refstate-mantle.xmf,792,-3.78017e-07,1.19223e-06,0,-3.55919e-07,-1.14444e+09,-1.14423e+09,-1.14439e+09,-47568.6,-0.00874621,0.0268603,-0,0.0282484,-21667.5,-41412.9,-0,46738.7,47568.6
step02_gravity_refstate-mantle.xmf,793,-3.03781e-07,1.15058e-06,0,-3.22279e-07,-1.09869e+09,-1.0985e+09,-1.09865e+09,-43072.6,-0.00727649,0.0295802,-0,0.030462,-22352.7,-40000,-0,45821.8,43072.6
step02_gravity_refstate-mantle.xmf,794,-4.15815e-07,1.17566e-06,0,-4.33855e-07,-1.18323e+09,-1.18302e+09,-1.18318e+09,-57984.7,-0.0102655,0.0233777,-0,0.0255322,-20410.1,-42610.9,-0,47246.8,57984.7
step02_gravity_refstate-mantle.xmf,795,-3.23092e-07,1.20422e-06,0,-2.67993e-07,-1.09869e+09,-1.09849e+09,-1.09865e+09,-35817.3,-0.00677941,0.0318576,-0,0.032571,-23949.7,-40000,-0,46621.8,35817.3
step02_gravity_refstate-mantle.xmf,796,-3.72631e-07,1.23085e-06,0,-2.94365e-07,-1.13194e+09,-1.13172e+09,-1.13189e+09,-39341.9,-0.00787229,0.0295214,-0,0.030553,-23149.6,-41026.7,-0,47107.3,39341.9
step02_gravity_refstate-mantle.xmf,797,-4.40272e-07,1.15165e-06,0,-5.06921e-07,-1.22342e+09,-1.2232e+09,-1.22336e+09,-67750.1,-0.0116513,0.0203431,-0,0.0234434,-19498.3,-43851.9,-0,47991.4,67750.1
step02_gravity_refstate-mantle.xmf,798,-4.38048e-07,1.10723e-06,0,-5.76326e-07,-1.26395e+09,-1.26374e+09,-1.26389e+09,-77025.9,-0.0128872,0.0175041,-0,0.0217365,-18705.1,-45103.8,-0,48828.6,77025.9
step02_gravity_refstate-mantle.xmf,799,-4.04139e-07,1.03403e-06,0,-6.41849e-07,-1.30379e+09,-1.30359e+09,-1.30373e+09,-85783.1,-0.0139565,0.014728,-0,0.0202903,-17902.8,-46334.5,-0,49672.9,85783.1
step02_gravity_refstate-mantle.xmf,800,-3.27912e-07,9.10505e-07,0,-7.13401e-07,-1.34364e+09,-1.34348e+09,-1.3436e+09,-95346.1,-0.0149006,0.0116907,-0,0.0189394,-16896.4,-47565.7,-0,50477.6,95346.1
step02_gravity_refstate-mantle.xmf,801,-2.28024e-07,7.97998e-07,0,-7.28499e-07,-1.39257e+09,-1.39243e+09,-1.39254e+09,-97363.9,-0.015586,0.00916423,-0,0.0180806,-16201.1,-49077.5,-0,51682.5,97363.9
step02_gravity_refstate-mantle.xmf,802,-1.13203e-07,6.71129e-07,0,-7.28693e-07,-1.43225e+09,-1.43215e+09,-1.43224e+09,-97389.8,-0.0159586,0.00703633,-0,0.0174409,-15463.8,-50303.7,-0,52626.9,97389.8
step02_gravity_refstate-mantle.xmf,803,1.23976e-08,5.38039e-07,0,-7.08805e-07,-1.46916e+09,-1.46909e+09,-1.46916e+09,-94731.7,-0.016117,0.00519955,-0,0.016935,-14723.4,-51444.3,-0,53509.8,94731.7
step02_gravity_refstate-mantle.xmf,804,2.09963e-07,3.22801e-07,0,-6.68516e-07,-1.51335e+09,-1.51333e+09,-1.51338e+09,-89347.1,-0.0160094,0.00291725,-0,0.016273,-13516.6,-52810,-0,54512.4,89347.1
step02_gravity_refstate-mantle.xmf,805,5.17547e-07,5.07098e-08,0,-4.65646e-07,-1.59957e+09,-1.59963e+09,-1.59964e+09,-62233.6,-0.0152435,0.000621205,-0,0.0152561,-11854.3,-55474.8,-0,56727.2,62233.6
step02_gravity_refstate-mantle.xmf,806,3.60919e-07,1.9097e-07,0,-5.73738e-07,-1.55747e+09,-1.5575e+09,-1.55752e+09,-76680,-0.015727,0.0016363,-0,0.0158119,-12740.1,-54173.8,-0,55651.7,76680
step02_gravity_refstate-mantle.xmf,807,6.64126e-07,-9.48506e-08,0,-3.79735e-07,-1.62981e+09,-1.62991e+09,-1.62989e+09,-50751.6,-0.0146277,-5.76349e-05,-0,0.0146279,-10940.4,-56409.4,-0,57460.5,50751.6
step02_gravity_refstate-mantle.xmf,808,7.38851e-07,-1.25065e-07,0,-2.54308e-07,-1.66863e+09,-1.66874e+09,-1.66873e+09,-33988.3,-0.0142401,-0.000166449,-0,0.0142411,-10510.4,-57609.1,-0,58560,33988.3
step02_gravity_refstate-mantle.xmf,809,8.58961e-07,-2.29127e-07,0,-1.41919e-07,-1.70283e+09,-1.70298e+09,-1.70295e+09,-18967.5,-0.013533,-0.000261173,-0,0.0135355,-9692.25,-58666.2,-0,59461.5,18967.5
step02_gravity_refstate-mantle.xmf,810,9.76864e-07,-3.17518e-07,0,-4.50092e-10,-1.74599e+09,-1.74617e+09,-1.74613e+09,-60.1548,-0.0127278,3.15934e-20,-0,0.0127278,-8844,-60000,-0,60648.3,60.1548
step02_gravity_refstate-mantle.xmf,811,-4.07182e-07,1.29542e-06,0,-2.47522e-07,-1.14213e+09,-1.14191e+09,-1.14208e+09,-33081.3,-0.00757491,0.030906,-0,0.0318208,-24522.8,-41341.6,-0,48067.7,33081.3
step02_gravity_refstate-mantle.xmf,812,-3.48003e-07,1.25698e-06,0,-2.19955e-07,-1.09869e+09,-1.09848e+09,-1.09864e+09,-29397,-0.00621716,0.0339111,-0,0.0344763,-25627.4,-40000,-0,47505.4,29397
step02_gravity_refstate-mantle.xmf,813,-4.42108e-07,1.2512e-06,0,-3.65228e-07,-1.19082e+09,-1.19059e+09,-1.19076e+09,-48812.7,-0.0098743,0.0252503,-0,0.0271123,-21758.8,-42845.2,-0,48053.6,48812.7
step02_gravity_refstate-mantle.xmf,814,-4.47644e-07,1.3017e-06,0,-2.97902e-07,-1.17777e+09,-1.17753e+09,-1.17771e+09,-39814.6,-0.00891848,0.0278443,-0,0.0292377,-23234.3,-42442.1,-0,48385.6,39814.6
step02_gravity_refstate-mantle.xmf,815,-4.66597e-07,1.24423e-06,0,-4.14623e-07,-1.22527e+09,-1.22504e+09,-1.22521e+09,-55414.4,-0.0110148,0.0227555,-0,0.0252812,-20994.2,-43909.1,-0,48670,55414.4
step02_gravity_refstate-mantle.xmf,816,-4.59544e-07,1.38269e-06,0,-1.96911e-07,-1.1597e+09,-1.15945e+09,-1.15964e+09,-26317.1,-0.00716318,0.0321434,-0,0.0329318,-26303.3,-41884.2,-0,49458.5,26317.1
step02_gravity_refstate-mantle.xmf,817,-4.75141e-07,1.21827e-06,0,-4.74269e-07,-1.26545e+09,-1.26522e+09,-1.26538e+09,-63386,-0.0122504,0.0199226,-0,0.0233877,-20164.8,-45150.2,-0,49448.5,63386
step02_gravity_refstate-mantle.xmf,818,-4.57878e-07,1.16988e-06,0,-5.31057e-07,-1.3065e+09,-1.30628e+09,-1.30644e+09,-70975.8,-0.013372,0.0171248,-0,0.0217271,-19362.2,-46418.3,-0,50294.6,70975.8
step02_gravity_refstate-mantle.xmf,819,-4.09076e-07,1.09023e-06,0,-5.8472e-07,-1.34826e+09,-1.34806e+09,-1.3482e+09,-78147.9,-0.0143721,0.0142666,-0,0.0202508,-18489,-47708.2,-0,51165.6,78147.9
step02_gravity_refstate-mantle.xmf,820,-3.33476e-07,9.9375e-07,0,-6.17791e-07,-1.39119e+09,-1.39102e+09,-1.39115e+09,-82567.7,-0.015161,0.0115979,-0,0.0190884,-17672.3,-49034.8,-0,52122.2,82567.7
step02_gravity_refstate-mantle.xmf,821,-2.36403e-07,8.85881e-07,0,-6.26009e-07,-1.43375e+09,-1.4336e+09,-1.43372e+09,-83666.2,-0.0157162,0.00919491,-0,0.0182084,-16896.8,-50349.8,-0,53109.4,83666.2
step02_gravity_refstate-mantle.xmf,822,-1.22213e-07,7.64366e-07,0,-6.15528e-07,-1.47374e+09,-1.47363e+09,-1.47373e+09,-82265.4,-0.0160545,0.00704806,-0,0.0175335,-16094.7,-51585.6,-0,54038.1,82265.4
step02_gravity_refstate-mantle.xmf,823,1.66711e-08,6.206e-07,0,-5.83363e-07,-1.51504e+09,-1.51496e+09,-1.51504e+09,-77966.5,-0.0161992,0.0049956,-0,0.016952,-15181.9,-52861.8,-0,54998.8,77966.5
step02_gravity_refstate-mantle.xmf,824,1.63823e-07,4.79385e-07,0,-5.19043e-07,-1.55764e+09,-1.5576e+09,-1.55766e+09,-69370,-0.0161324,0.00326966,-0,0.0164604,-14285.2,-54178.4,-0,56030,69370
step02_gravity_refstate-mantle.xmf,825,4.99548e-07,1.73406e-07,0,-2.96017e-07,-1.65151e+09,-1.65156e+09,-1.65158e+09,-39562.6,-0.0153161,0.000683883,-0,0.0153314,-12198.7,-57079.6,-0,58368.5,39562.6
step02_gravity_refstate-mantle.xmf,826,3.13503e-07,3.45209e-07,0,-4.2405e-07,-1.60225e+09,-1.60225e+09,-1.60229e+09,-56674.3,-0.0158767,0.00188061,-0,0.0159877,-13389.4,-55557,-0,57147.7,56674.3
step02_gravity_refstate-mantle.xmf,827,6.27942e-07,8.45117e-08,0,-1.40497e-07,-1.70221e+09,-1.70229e+09,-1.7023e+09,-18777.4,-0.0147852,0.000157989,-0,0.014786,-11375.7,-58646.3,-0,59739.4,18777.4
step02_gravity_refstate-mantle.xmf,828,7.49355e-07,-1.06366e-08,0,-8.84248e-10,-1.74602e+09,-1.74612e+09,-1.74612e+09,-118.18,-0.01417,-8.78081e-21,-0,0.01417,-10514.7,-60000,-0,60914.4,118.18
step02_gravity_refstate-mantle.xmf,829,-3.74116e-07,1.30656e-06,0,-1.78053e-07,-1.09869e+09,-1.09847e+09,-1.09864e+09,-23796.8,-0.00558136,0.0357359,-0,0.0361691,-27389.7,-40000,-0,48478.8,23796.8
step02_gravity_refstate-mantle.xmf,830,-4.77329e-07,1.37456e-06,0,-2.39872e-07,-1.18563e+09,-1.18538e+09,-1.18556e+09,-32059,-0.00834062,0.0294995,-0,0.0306559,-24853.9,-42684.9,-0,49393.5,32059
step02_gravity_refstate-mantle.xmf,831,-4.76297e-07,1.4307e-06,0,-1.52363e-07,-1.1573e+09,-1.15704e+09,-1.15723e+09,-20363.3,-0.00624382,0.0339614,-0,0.0345306,-28185.3,-41809.9,-0,50423,20363.3
step02_gravity_refstate-mantle.xmf,832,-4.26193e-07,1.39288e-06,0,-1.08908e-07,-1.0987e+09,-1.09845e+09,-1.09864e+09,-14555.6,-0.0040629,0.0386706,-0,0.0388834,-31185.8,-40000,-0,50720.4,14555.6
step02_gravity_refstate-mantle.xmf,833,-4.47441e-07,1.42672e-06,0,-7.9318e-08,-1.0987e+09,-1.09845e+09,-1.09864e+09,-10600.9,-0.00317238,0.0397589,-0,0.0398853,-33229,-40000,-0,52001.6,10600.9
step02_gravity_refstate-mantle.xmf,834,-5.1958e-07,1.51685e-06,0,-8.47969e-08,-1.15634e+09,-1.15607e+09,-1.15627e+09,-11333.1,-0.00425614,0.0366215,-0,0.036868,-32153.4,-41780.4,-0,52720.4,11333.1
step02_gravity_refstate-mantle.xmf,835,-4.0191e-07,1.35265e-06,0,-1.41779e-07,-1.09869e+09,-1.09846e+09,-1.09864e+09,-18948.8,-0.00486501,0.0373253,-0,0.0376411,-29241,-40000,-0,49548.3,18948.8
step02_gravity_refstate-mantle.xmf,836,-5.03788e-07,1.48199e-06,0,-1.16103e-07,-1.15908e+09,-1.15881e+09,-1.15901e+09,-15517.1,-0.00532692,0.0353093,-0,0.0357088,-30114.4,-41864.9,-0,51570.8,15517.1
step02_gravity_refstate-mantle.xmf,837,-4.64613e-07,1.45298e-06,0,-5.20144e-08,-1.0987e+09,-1.09844e+09,-1.09864e+09,-6951.73,-0.00219423,0.0405727,-0,0.040632,-35375.6,-40000,-0,53398.8,6951.73
step02_gravity_refstate-mantle.xmf,838,-5.34265e-07,1.5457e-06,0,-5.86985e-08,-1.15518e+09,-1.1549e+09,-1.1551e+09,-7845.05,-0.00316664,0.0375676,-0,0.0377008,-34207.2,-41744.3,-0,53969.6,7845.05
step02_gravity_refstate-mantle.xmf,839,-4.7605e-07,1.47e-06,0,-2.60622e-08,-1.0987e+09,-1.09844e+09,-1.09864e+09,-3483.21,-0.00113333,0.0410876,-0,0.0411032,-37630.7,-40000,-0,54918.8,3483.21
step02_gravity_refstate-mantle.xmf,840,-5.4774e-07,1.57004e-06,0,-3.44089e-08,-1.15575e+09,-1.15547e+09,-1.15568e+09,-4598.75,-0.00197648,0.0381827,-0,0.0382338,-36417.9,-41762.1,-0,55410.6,4598.75
step02_gravity_refstate-mantle.xmf,841,-4.80204e-07,1.47555e-06,0,-7.28592e-10,-1.0987e+09,-1.09844e+09,-1.09864e+09,-97.3763,1.91535e-20,0.041269,0,0.041269,-40000,-40000,-0,56568.5,97.3763
step02_gravity_refstate-mantle.xmf,842,-5.48997e-07,1.57405e-06,0,-1.52261e-08,-1.15235e+09,-1.15206e+09,-1.15227e+09,-2034.97,-0.000914058,0.0386561,-0,0.0386669,-38336.8,-41656.9,-0,56612.8,2034.97
step02_gravity_refstate-mantle.xmf,843,-4.90531e-07,1.3249e-06,0,-3.36321e-07,-1.22492e+09,-1.22468e+09,-1.22485e+09,-44949.2,-0.0102754,0.0249801,-0,0.0270109,-22523.5,-43898.4,-0,49339.4,44949.2
step02_gravity_refstate-mantle.xmf,844,-5.08771e-07,1.31802e-06,0,-3.84484e-07,-1.26612e+09,-1.26588e+09,-1.26605e+09,-51386.3,-0.0115098,0.022166,-0,0.0249761,-21696.4,-45171,-0,50111.4,51386.3
step02_gravity_refstate-mantle.xmf,845,-5.15969e-07,1.39958e-06,0,-2.69246e-07,-1.22416e+09,-1.2239e+09,-1.22409e+09,-35984.7,-0.00945247,0.0270251,-0,0.0286305,-24132.8,-43874.9,-0,50073.9,35984.7
step02_gravity_refstate-mantle.xmf,846,-5.31796e-07,1.45813e-06,0,-2.11415e-07,-1.21895e+09,-1.21868e+09,-1.21887e+09,-28255.6,-0.00848295,0.0290519,-0,0.030265,-25808.7,-43713.9,-0,50764.1,28255.6
step02_gravity_refstate-mantle.xmf,847,-5.05073e-07,1.29035e-06,0,-4.33562e-07,-1.30776e+09,-1.30752e+09,-1.30769e+09,-57945.6,-0.0126655,0.0193382,-0,0.0231166,-20872.3,-46457,-0,50930.4,57945.6
step02_gravity_refstate-mantle.xmf,848,-4.76506e-07,1.24066e-06,0,-4.77586e-07,-1.35009e+09,-1.34986e+09,-1.35003e+09,-63829.4,-0.013706,0.0165268,-0,0.0214707,-20048.1,-47764.9,-0,51801.7,63829.4
step02_gravity_refstate-mantle.xmf,849,-4.20701e-07,1.16698e-06,0,-5.12241e-07,-1.39319e+09,-1.39298e+09,-1.39314e+09,-68461,-0.0146079,0.0137379,-0,0.020053,-19191.8,-49096.4,-0,52714.2,68461
step02_gravity_refstate-mantle.xmf,850,-3.44687e-07,1.08185e-06,0,-5.26316e-07,-1.43585e+09,-1.43566e+09,-1.4358e+09,-70342.2,-0.0152948,0.0111939,-0,0.0189535,-18396.5,-50414.3,-0,53665.9,70342.2
step02_gravity_refstate-mantle.xmf,851,-2.50814e-07,9.82174e-07,0,-5.2368e-07,-1.47637e+09,-1.4762e+09,-1.47633e+09,-69989.9,-0.0157877,0.00888164,-0,0.0181145,-17585.1,-51666.3,-0,54576.9,69989.9
step02_gravity_refstate-mantle.xmf,852,-1.41422e-07,8.72148e-07,0,-5.01134e-07,-1.51677e+09,-1.51663e+09,-1.51675e+09,-66976.6,-0.0161046,0.00676553,-0,0.017468,-16754.6,-52914.7,-0,55503.9,66976.6
step02_gravity_refstate-mantle.xmf,853,-1.82209e-08,7.53603e-07,0,-4.55043e-07,-1.55815e+09,-1.55805e+09,-1.55815e+09,-60816.5,-0.0162498,0.00484549,-0,0.0169568,-15892.2,-54193.6,-0,56475.7,60816.5
step02_gravity_refstate-mantle.xmf,854,1.13717e-07,6.36046e-07,0,-3.78316e-07,-1.60272e+09,-1.60265e+09,-1.60274e+09,-50562,-0.0162246,0.00314635,-0,0.0165269,-15019,-55570.9,-0,57564.7,50562
step02_gravity_refstate-mantle.xmf,855,2.55539e-07,5.14734e-07,0,-2.72042e-07,-1.65022e+09,-1.65019e+09,-1.65026e+09,-36358.4,-0.0160253,0.00169815,-0,0.016115,-14072.5,-57039,-0,58749.3,36358.4
step02_gravity_refstate-mantle.xmf,856,3.95487e-07,4.00333e-07,0,-1.41362e-07,-1.69881e+09,-1.69881e+09,-1.69886e+09,-18893.1,-0.0156747,0.000632937,-0,0.0156875,-13108.8,-58540.3,-0,59990.1,18893.1
step02_gravity_refstate-mantle.xmf,857,5.18192e-07,3.06146e-07,0,-1.28801e-09,-1.74604e+09,-1.74607e+09,-1.74611e+09,-172.142,-0.0152502,-5.44163e-20,-0,0.0152502,-12218.8,-60000,-0,61231.5,172.142
step02_gravity_refstate-mantle.xmf,858,-5.28156e-07,1.48014e-06,0,-1.71443e-07,-1.20249e+09,-1.20222e+09,-1.20242e+09,-22913.4,-0.00744893,0.0311273,-0,0.0320062,-27239.6,-43205.8,-0,51075.7,22913.4
step02_gravity_refstate-mantle.xmf,859,-5.82019e-07,1.62289e-06,0,-7.41031e-10,-1.17649e+09,-1.1762e+09,-1.17641e+09,-99.0388,2.2972e-20,0.0375474,0,0.0375474,-40000,-42402.6,-0,58292.2,99.0388
step02_gravity_refstate-mantle.xmf,860,-6.05362e-07,1.64098e-06,0,-6.72823e-08,-1.21578e+09,-1.21548e+09,-1.2157e+09,-8992.28,-0.00430234,0.0341457,-0,0.0344157,-33073.8,-43616.1,-0,54737.9,8992.28
step02_gravity_refstate-mantle.xmf,861,-5.77322e-07,1.56432e-06,0,-1.35747e-07,-1.22511e+09,-1.22482e+09,-1.22503e+09,-18142.5,-0.00691322,0.0313161,-0,0.0320701,-28824,-43904.3,-0,52520.6,18142.5
step02_gravity_refstate-mantle.xmf,862,-5.91274e-07,1.60638e-06,0,-9.62492e-08,-1.21839e+09,-1.21809e+09,-1.21831e+09,-12863.7,-0.00555516,0.0330269,-0,0.0334908,-31015.4,-43696.6,-0,53585,12863.7
step02_gravity_refstate-mantle.xmf,863,-6.29374e-07,1.69213e-06,0,-1.81994e-08,-1.21561e+09,-1.2153e+09,-1.21553e+09,-2432.35,-0.00131313,0.0354189,-0,0.0354433,-37913.3,-43610.8,-0,57786.9,2432.35
step02_gravity_refstate-mantle.xmf,864,-6.16151e-07,1.6658e-06,0,-4.45615e-08,-1.21398e+09,-1.21368e+09,-1.2139e+09,-5955.64,-0.00308961,0.0349243,-0,0.0350607,-35043.9,-43560.6,-0,55907.1,5955.64
step02_gravity_refstate-mantle.xmf,865,-5.38958e-07,1.40634e-06,0,-3.07228e-07,-1.26611e+09,-1.26585e+09,-1.26604e+09,-41061,-0.0106772,0.0242084,-0,0.0264584,-23285,-45170.6,-0,50819,41061
step02_gravity_refstate-mantle.xmf,866,-5.46499e-07,1.39742e-06,0,-3.4819e-07,-1.3072e+09,-1.30694e+09,-1.30713e+09,-46535.7,-0.0118231,0.021429,-0,0.0244743,-22457.3,-46439.9,-0,51584.9,46535.7
step02_gravity_refstate-mantle.xmf,867,-5.80552e-07,1.54176e-06,0,-1.81303e-07,-1.24977e+09,-1.24949e+09,-1.24969e+09,-24231.1,-0.00838757,0.0286165,-0,0.0298204,-26885.8,-44666,-0,52133.4,24231.1
step02_gravity_refstate-mantle.xmf,868,-5.73686e-07,1.49843e-06,0,-2.36945e-07,-1.27058e+09,-1.27031e+09,-1.27051e+09,-31667.8,-0.00975019,0.0259777,-0,0.0277472,-25088.8,-45308.8,-0,51791.3,31667.8
step02_gravity_refstate-mantle.xmf,869,-5.34288e-07,1.37166e-06,0,-3.85031e-07,-1.35044e+09,-1.35019e+09,-1.35037e+09,-51459.4,-0.012903,0.0185917,-0,0.0226305,-21646,-47775.6,-0,52450.5,51459.4
step02_gravity_refstate-mantle.xmf,870,-4.97261e-07,1.32272e-06,0,-4.16772e-07,-1.39462e+09,-1.39437e+09,-1.39455e+09,-55701.6,-0.0138926,0.0157122,-0,0.0209732,-20783,-49140.3,-0,53354.5,55701.6
step02_gravity_refstate-mantle.xmf,871,-4.38227e-07,1.25903e-06,0,-4.32364e-07,-1.44007e+09,-1.43984e+09,-1.44001e+09,-57785.4,-0.0147182,0.0129309,-0,0.0195917,-19953.7,-50544.6,-0,54340.7,57785.4
step02_gravity_refstate-mantle.xmf,872,-3.61988e-07,1.17918e-06,0,-4.34839e-07,-1.48092e+09,-1.48071e+09,-1.48087e+09,-58116.2,-0.0153433,0.0104676,-0,0.0185739,-19115.8,-51806.6,-0,55220.8,58116.2
step02_gravity_refstate-mantle.xmf,873,-2.74025e-07,1.08889e-06,0,-4.25809e-07,-1.51823e+09,-1.51805e+09,-1.5182e+09,-56909.3,-0.0157932,0.00830087,-0,0.0178418,-18278.2,-52959.7,-0,56025.2,56909.3
step02_gravity_refstate-mantle.xmf,874,-1.77403e-07,1.00157e-06,0,-3.88727e-07,-1.55942e+09,-1.55927e+09,-1.5594e+09,-51953.3,-0.0160943,0.00625942,-0,0.0172687,-17503.6,-54232.5,-0,56987.2,51953.3
step02_gravity_refstate-mantle.xmf,875,-6.77638e-08,9.06557e-07,0,-3.28454e-07,-1.60313e+09,-1.603e+09,-1.60312e+09,-43897.9,-0.016263,0.00433208,-0,0.0168301,-16675.1,-55583,-0,58030.4,43897.9
step02_gravity_refstate-mantle.xmf,876,5.01115e-08,8.11279e-07,0,-2.40122e-07,-1.65015e+09,-1.65004e+09,-1.65015e+09,-32092.3,-0.0162909,0.00257615,-0,0.0164934,-15809.7,-57035.9,-0,59186.5,32092.3
step02_gravity_refstate-mantle.xmf,877,1.72266e-07,7.142e-07,0,-1.29534e-07,-1.69784e+09,-1.69777e+09,-1.69786e+09,-17312.2,-0.016182,0.0011139,-0,0.0162203,-14894.2,-58509.8,-0,60375.8,17312.2
step02_gravity_refstate-mantle.xmf,878,2.91958e-07,6.21951e-07,0,-1.38497e-09,-1.74607e+09,-1.74602e+09,-1.7461e+09,-185.101,-0.0159565,-1.01163e-19,-0,0.0159565,-13961.9,-60000,-0,61603,185.101
step02_gravity_refstate-mantle.xmf,879,-6.7803e-07,1.77053e-06,0,-5.38293e-10,-1.25473e+09,-1.2544e+09,-1.25464e+09,-71.9428,2.17614e-20,0.0334472,0,0.0334472,-40000,-44819.1,-0,60072.9,71.9428
step02_gravity_refstate-mantle.xmf,880,-6.81919e-07,1.76281e-06,0,-5.29201e-08,-1.27479e+09,-1.27446e+09,-1.2747e+09,-7072.77,-0.00413376,0.0313972,-0,0.0316681,-34035.8,-45438.8,-0,56772.5,7072.77
step02_gravity_refstate-mantle.xmf,881,-6.6745e-07,1.72739e-06,0,-7.89389e-08,-1.276e+09,-1.27567e+09,-1.27591e+09,-10550.2,-0.00552129,0.0305464,-0,0.0310414,-31987,-45476,-0,55598.8,10550.2
step02_gravity_refstate-mantle.xmf,882,-6.34622e-07,1.63626e-06,0,-1.53363e-07,-1.28742e+09,-1.28712e+09,-1.28734e+09,-20497,-0.00823962,0.0276434,-0,0.0288453,-27997.1,-45828.9,-0,53704.1,20497
step02_gravity_refstate-mantle.xmf,883,-6.50057e-07,1.68243e-06,0,-1.12547e-07,-1.27888e+09,-1.27857e+09,-1.27879e+09,-15041.8,-0.00689881,0.0293395,-0,0.0301397,-29932.6,-45565,-0,54517.3,15041.8
step02_gravity_refstate-mantle.xmf,884,-6.95043e-07,1.79252e-06,0,-3.13367e-08,-1.27624e+09,-1.2759e+09,-1.27614e+09,-4188.15,-0.00266073,0.0318797,-0,0.0319905,-36192.1,-45483.4,-0,58125.8,4188.15
step02_gravity_refstate-mantle.xmf,885,-7.21463e-07,1.84152e-06,0,-1.38701e-08,-1.29518e+09,-1.29483e+09,-1.29508e+09,-1853.73,-0.00129075,0.0311082,-0,0.0311349,-38211.8,-46068.4,-0,59853.4,1853.73
step02_gravity_refstate-mantle.xmf,886,-5.79276e-07,1.48338e-06,0,-2.81035e-07,-1.30529e+09,-1.30502e+09,-1.30521e+09,-37560.3,-0.0109526,0.0232093,-0,0.0256638,-23951.7,-46380.9,-0,52200.3,37560.3
step02_gravity_refstate-mantle.xmf,887,-5.82852e-07,1.48386e-06,0,-3.06074e-07,-1.3475e+09,-1.34722e+09,-1.34742e+09,-40906.8,-0.0119432,0.0205795,-0,0.023794,-23292.4,-47684.6,-0,53069.3,40906.8
step02_gravity_refstate-mantle.xmf,888,-6.18068e-07,1.58745e-06,0,-1.9599e-07,-1.29504e+09,-1.29474e+09,-1.29495e+09,-26194.1,-0.00932858,0.0260307,-0,0.0276518,-26415.2,-46064.1,-0,53100.5,26194.1
step02_gravity_refstate-mantle.xmf,889,-5.64136e-07,1.46158e-06,0,-3.32414e-07,-1.39509e+09,-1.39482e+09,-1.39502e+09,-44427.1,-0.0130132,0.0175356,-0,0.0218367,-22449.4,-49154.8,-0,54038.6,44427.1
step02_gravity_refstate-mantle.xmf,890,-5.21085e-07,1.41936e-06,0,-3.48591e-07,-1.44451e+09,-1.44425e+09,-1.44444e+09,-46589.2,-0.0139834,0.014443,-0,0.0201032,-21563,-50681.5,-0,55077.9,46589.2
step02_gravity_refstate-mantle.xmf,891,-4.56031e-07,1.36829e-06,0,-3.40775e-07,-1.49972e+09,-1.49948e+09,-1.49966e+09,-45544.6,-0.014806,0.0112645,-0,0.0186039,-20704.6,-52387.4,-0,56330.4,45544.6
step02_gravity_refstate-mantle.xmf,892,-3.73509e-07,1.25537e-06,0,-3.67854e-07,-1.51739e+09,-1.51717e+09,-1.51734e+09,-49163.6,-0.0153595,0.00957336,-0,0.0180987,-19604.5,-52933.3,-0,56447.1,49163.6
step02_gravity_refstate-mantle.xmf,893,-3.15839e-07,1.22038e-06,0,-3.29714e-07,-1.55853e+09,-1.55832e+09,-1.55849e+09,-44066.2,-0.0156968,0.00758679,-0,0.0174341,-19105.7,-54204.5,-0,57473.1,44066.2
step02_gravity_refstate-mantle.xmf,894,-2.28429e-07,1.15248e-06,0,-2.78474e-07,-1.60348e+09,-1.60329e+09,-1.60344e+09,-37218,-0.0160159,0.00541473,-0,0.0169065,-18347.6,-55593.3,-0,58542.7,37218
step02_gravity_refstate-mantle.xmf,895,-1.31769e-07,1.07998e-06,0,-2.06895e-07,-1.64978e+09,-1.64962e+09,-1.64976e+09,-27651.5,-0.0162204,0.00338745,-0,0.0165704,-17535.7,-57024,-0,59659.3,27651.5
step02_gravity_refstate-mantle.xmf,896,-2.79385e-08,1.00284e-06,0,-1.14155e-07,-1.69718e+09,-1.69704e+09,-1.69718e+09,-15256.8,-0.0163098,0.00156578,-0,0.0163848,-16661.5,-58488.8,-0,60815.7,15256.8
step02_gravity_refstate-mantle.xmf,897,7.79322e-08,9.2716e-07,0,-1.329e-09,-1.74609e+09,-1.74597e+09,-1.7461e+09,-177.621,-0.0162874,-1.45667e-19,-0,0.0162874,-15749.5,-60000,-0,62032.6,177.621
step02_gravity_refstate-mantle.xmf,898,-7.6372e-07,1.91646e-06,0,-7.32814e-10,-1.33363e+09,-1.33327e+09,-1.33352e+09,-97.9406,2.45358e-20,0.0289549,0,0.0289549,-40000,-47256,-0,61912.3,97.9406
step02_gravity_refstate-mantle.xmf,899,-6.23434e-07,1.57736e-06,0,-2.3649e-07,-1.33404e+09,-1.33375e+09,-1.33396e+09,-31606.9,-0.0106524,0.02301,-0,0.0253561,-25136.8,-47268.9,-0,53537,31606.9
step02_gravity_refstate-mantle.xmf,900,-6.63213e-07,1.67281e-06,0,-1.75619e-07,-1.33918e+09,-1.33887e+09,-1.3391e+09,-23471.5,-0.00948434,0.024317,-0,0.0261012,-27060.8,-47427.8,-0,54604.8,23471.5
step02_gravity_refstate-mantle.xmf,901,-7.48796e-07,1.88021e-06,0,-4.09662e-08,-1.33298e+09,-1.33263e+09,-1.33288e+09,-5475.14,-0.00380221,0.0283901,-0,0.0286436,-34976,-47236.1,-0,58775.6,5475.14
step02_gravity_refstate-mantle.xmf,902,-7.35081e-07,1.84717e-06,0,-6.35363e-08,-1.33417e+09,-1.33382e+09,-1.33407e+09,-8491.63,-0.00530371,0.0277225,-0,0.0282253,-32956.7,-47272.8,-0,57626.9,8491.63
step02_gravity_refstate-mantle.xmf,903,-7.1533e-07,1.79976e-06,0,-9.33082e-08,-1.33535e+09,-1.33501e+09,-1.33525e+09,-12470.6,-0.00680846,0.0268079,-0,0.0276589,-30888.9,-47309.3,-0,56500.4,12470.6
step02_gravity_refstate-mantle.xmf,904,-6.91037e-07,1.74089e-06,0,-1.306e-07,-1.33678e+09,-1.33646e+09,-1.33669e+09,-17454.6,-0.00820627,0.0256754,-0,0.0269549,-28914.9,-47353.5,-0,55483.6,17454.6
step02_gravity_refstate-mantle.xmf,905,-7.54248e-07,1.89593e-06,0,-2.42145e-08,-1.33016e+09,-1.32981e+09,-1.33006e+09,-3236.27,-0.00244788,0.0289108,-0,0.0290142,-36766.3,-47149,-0,59789.5,3236.27
step02_gravity_refstate-mantle.xmf,906,-7.95583e-07,1.9765e-06,0,-1.39719e-08,-1.36998e+09,-1.3696e+09,-1.36987e+09,-1867.34,-0.00155562,0.0266829,-0,0.0267282,-38047.6,-48378.8,-0,61547.8,1867.34
step02_gravity_refstate-mantle.xmf,907,-6.21034e-07,1.581e-06,0,-2.60377e-07,-1.39252e+09,-1.39222e+09,-1.39243e+09,-34799.4,-0.011955,0.0193087,-0,0.0227101,-24186.8,-49075.3,-0,54711.8,34799.4
step02_gravity_refstate-mantle.xmf,908,-5.94414e-07,1.56059e-06,0,-2.77042e-07,-1.44473e+09,-1.44444e+09,-1.44465e+09,-37026.6,-0.0130474,0.015959,-0,0.0206137,-23244.1,-50688.3,-0,55763.7,37026.6
step02_gravity_refstate-mantle.xmf,909,-5.41008e-07,1.5145e-06,0,-2.82656e-07,-1.49734e+09,-1.49707e+09,-1.49727e+09,-37776.9,-0.0140434,0.0126112,-0,0.0188748,-22204.1,-52313.6,-0,56830.7,37776.9
step02_gravity_refstate-mantle.xmf,910,-4.50638e-07,1.42269e-06,0,-2.80376e-07,-1.54744e+09,-1.54719e+09,-1.54738e+09,-37472.3,-0.0149687,0.00935683,-0,0.0176526,-20892.9,-53861.7,-0,57771.9,37472.3
step02_gravity_refstate-mantle.xmf,911,-3.73485e-07,1.37729e-06,0,-2.32475e-07,-1.60162e+09,-1.60138e+09,-1.60157e+09,-31070.3,-0.0154861,0.00651024,-0,0.0167989,-20093.6,-55535.4,-0,59058.8,31070.3
step02_gravity_refstate-mantle.xmf,912,-2.93343e-07,1.32459e-06,0,-1.74256e-07,-1.64899e+09,-1.64877e+09,-1.64895e+09,-23289.4,-0.0158466,0.00415314,-0,0.0163818,-19291.8,-56999.2,-0,60175.4,23289.4
step02_gravity_refstate-mantle.xmf,913,-2.10516e-07,1.27459e-06,0,-9.55535e-08,-1.69745e+09,-1.69725e+09,-1.69742e+09,-12770.7,-0.0160917,0.00196591,-0,0.0162113,-18492.4,-58496.6,-0,61350,12770.7
step02_gravity_refstate-mantle.xmf,914,-1.18797e-07,1.21453e-06,0,-1.18145e-09,-1.74611e+09,-1.74593e+09,-1.74609e+09,-157.9,-0.01625,-1.85305e-19,-0,0.01625,-17587.3,-60000,-0,62524.5,157.9
step02_gravity_refstate-mantle.xmf,915,-8.36828e-07,2.05974e-06,0,-1.2587e-09,-1.41341e+09,-1.41303e+09,-1.4133e+09,-168.226,3.23377e-20,0.0240556,0,0.0240556,-40000,-49720.5,-0,63813.3,168.226
step02_gravity_refstate-mantle.xmf,916,-6.7085e-07,1.68774e-06,0,-1.99632e-07,-1.39092e+09,-1.39061e+09,-1.39083e+09,-26680.8,-0.0107556,0.0208653,-0,0.0234743,-26019.6,-49026,-0,55502.8,26680.8
step02_gravity_refstate-mantle.xmf,917,-7.11452e-07,1.77791e-06,0,-1.4874e-07,-1.39131e+09,-1.39098e+09,-1.39122e+09,-19879.1,-0.00947007,0.022094,-0,0.024038,-27889.8,-49037.9,-0,56414.2,19879.1
step02_gravity_refstate-mantle.xmf,918,-8.07021e-07,1.99375e-06,0,-2.92763e-08,-1.38983e+09,-1.38946e+09,-1.38972e+09,-3912.77,-0.00326219,0.0251983,-0,0.0254086,-35981,-48992.1,-0,60785.3,3912.77
step02_gravity_refstate-mantle.xmf,919,-7.9503e-07,1.96638e-06,0,-4.89506e-08,-1.39282e+09,-1.39245e+09,-1.39271e+09,-6542.25,-0.0048973,0.0245745,-0,0.0250577,-33950.8,-49084.4,-0,59682,6542.25
step02_gravity_refstate-mantle.xmf,920,-7.74055e-07,1.91875e-06,0,-7.40192e-08,-1.39221e+09,-1.39185e+09,-1.39211e+09,-9892.67,-0.00648659,0.0239729,-0,0.0248349,-31915.7,-49065.6,-0,58532.4,9892.67
step02_gravity_refstate-mantle.xmf,921,-7.46091e-07,1.85556e-06,0,-1.07053e-07,-1.39187e+09,-1.39152e+09,-1.39177e+09,-14307.7,-0.00803941,0.0231288,-0,0.0244862,-29864.5,-49055.1,-0,57430.8,14307.7
step02_gravity_refstate-mantle.xmf,922,-8.63189e-07,2.1186e-06,0,-1.65481e-08,-1.45272e+09,-1.45233e+09,-1.45261e+09,-2211.65,-0.00210893,0.0214065,-0,0.0215101,-37558.6,-50934.8,-0,63285.1,2211.65
step02_gravity_refstate-mantle.xmf,923,-6.58193e-07,1.68694e-06,0,-2.14284e-07,-1.44459e+09,-1.44428e+09,-1.4445e+09,-28639,-0.0119276,0.0173486,-0,0.0210533,-25029.9,-50683.9,-0,56527.5,28639
step02_gravity_refstate-mantle.xmf,924,-6.2414e-07,1.66623e-06,0,-2.21161e-07,-1.4975e+09,-1.4972e+09,-1.49742e+09,-29558.2,-0.0130025,0.0138901,-0,0.0190263,-23992.3,-52318.5,-0,57557.4,29558.2
step02_gravity_refstate-mantle.xmf,925,-5.63309e-07,1.61883e-06,0,-2.15854e-07,-1.55111e+09,-1.55082e+09,-1.55103e+09,-28848.9,-0.014011,0.010428,-0,0.0174658,-22817,-53974.6,-0,58599.3,28848.9
step02_gravity_refstate-mantle.xmf,926,-4.99993e-07,1.57702e-06,0,-1.90425e-07,-1.59871e+09,-1.59843e+09,-1.59864e+09,-25450.4,-0.0146886,0.00758319,-0,0.0165306,-21900.8,-55445.2,-0,59613.9,25450.4
step02_gravity_refstate-mantle.xmf,927,-4.40637e-07,1.55288e-06,0,-1.43586e-07,-1.64671e+09,-1.64645e+09,-1.64665e+09,-19190.3,-0.0151501,0.00496036,-0,0.0159415,-21179,-56928.5,-0,60740.5,19190.3
step02_gravity_refstate-mantle.xmf,928,-3.74025e-07,1.52303e-06,0,-7.93475e-08,-1.69652e+09,-1.69626e+09,-1.69647e+09,-10604.8,-0.0155343,0.00238553,-0,0.0157164,-20397.3,-58467.3,-0,61923.2,10604.8
step02_gravity_refstate-mantle.xmf,929,-2.94997e-07,1.4789e-06,0,-1.09143e-09,-1.74612e+09,-1.74588e+09,-1.74608e+09,-145.87,-0.0158581,-2.26734e-19,-0,0.0158581,-19481,-60000,-0,63083.3,145.87
step02_gravity_refstate-mantle.xmf,930,-8.94634e-07,2.19957e-06,0,-9.39791e-10,-1.49433e+09,-1.49391e+09,-1.49421e+09,-125.603,2.76862e-20,0.0187323,0,0.0187323,-40000,-52219.9,-0,65779.3,125.603
step02_gravity_refstate-mantle.xmf,931,-7.13191e-07,1.79829e-06,0,-1.62731e-07,-1.44481e+09,-1.44447e+09,-1.44471e+09,-21749,-0.0106558,0.018541,-0,0.021385,-26888.9,-50690.5,-0,57380.7,21749
step02_gravity_refstate-mantle.xmf,932,-7.58998e-07,1.89424e-06,0,-1.18595e-07,-1.44681e+09,-1.44645e+09,-1.44671e+09,-15850.2,-0.00924595,0.0194527,-0,0.0215383,-28828.7,-50752.2,-0,58368.5,15850.2
step02_gravity_refstate-mantle.xmf,933,-8.49268e-07,2.08877e-06,0,-3.35882e-08,-1.45277e+09,-1.45238e+09,-1.45266e+09,-4489.06,-0.00417267,0.0210835,-0,0.0214925,-35143.8,-50936.3,-0,61883.7,4489.06
step02_gravity_refstate-mantle.xmf,934,-8.27001e-07,2.03913e-06,0,-5.55231e-08,-1.45e+09,-1.44961e+09,-1.44989e+09,-7420.66,-0.00597324,0.0207778,-0,0.0216194,-32977.1,-50850.6,-0,60607.6,7420.66
step02_gravity_refstate-mantle.xmf,935,-7.97005e-07,1.97532e-06,0,-8.32079e-08,-1.44905e+09,-1.44868e+09,-1.44895e+09,-11120.7,-0.00768675,0.0201655,-0,0.0215809,-30856,-50821.5,-0,59455.2,11120.7
step02_gravity_refstate-mantle.xmf,936,-9.13597e-07,2.26287e-06,0,-1.06299e-08,-1.53647e+09,-1.53604e+09,-1.53635e+09,-1420.69,-0.00184853,0.0157691,-0,0.0158771,-37980.7,-53521.7,-0,65628.5,1420.69
step02_gravity_refstate-mantle.xmf,937,-6.94318e-07,1.79914e-06,0,-1.68147e-07,-1.49841e+09,-1.49808e+09,-1.49832e+09,-22472.8,-0.0117825,0.014968,-0,0.0190491,-25852,-52346.5,-0,58382.2,22472.8
step02_gravity_refstate-mantle.xmf,938,-6.05011e-07,1.75564e-06,0,-1.46777e-07,-1.6014e+09,-1.60109e+09,-1.60132e+09,-19616.8,-0.0136789,0.00826831,-0,0.0159837,-23744.7,-55528.3,-0,60392.1,19616.8
step02_gravity_refstate-mantle.xmf,939,-6.57064e-07,1.78366e-06,0,-1.64386e-07,-1.55118e+09,-1.55085e+09,-1.55109e+09,-21970.2,-0.0128129,0.0114844,-0,0.0172065,-24781.2,-53976.5,-0,59393.4,21970.2
step02_gravity_refstate-mantle.xmf,940,-5.47035e-07,1.71447e-06,0,-1.23515e-07,-1.64056e+09,-1.64026e+09,-1.64048e+09,-16507.7,-0.0143357,0.00582193,-0,0.0154728,-22801.5,-56738.1,-0,61148.3,16507.7
step02_gravity_refstate-mantle.xmf,941,-5.31178e-07,1.76366e-06,0,-6.50055e-08,-1.6929e+09,-1.69259e+09,-1.69283e+09,-8687.98,-0.0145243,0.00296452,-0,0.0148237,-22618,-58355.2,-0,62585.1,8687.98
step02_gravity_refstate-mantle.xmf,942,-4.4944e-07,1.71781e-06,0,-9.90576e-10,-1.74613e+09,-1.74585e+09,-1.74607e+09,-132.39,-0.0151305,-2.82713e-19,-0,0.0151305,-21436.1,-60000,-0,63714.3,132.39
step02_gravity_refstate-mantle.xmf,943,-8.8744e-07,2.19132e-06,0,-2.27354e-08,-1.5048e+09,-1.50439e+09,-1.50468e+09,-3038.58,-0.00337699,0.0178028,-0,0.0181203,-36227.6,-52543.4,-0,63822,3038.58
step02_gravity_refstate-mantle.xmf,944,-9.3673e-07,2.33783e-06,0,-1.56605e-09,-1.5766e+09,-1.57616e+09,-1.57647e+09,-209.303,3.28988e-20,0.012967,0,0.012967,-40000,-54761.4,-0,67814.5,209.303
step02_gravity_refstate-mantle.xmf,945,-7.54127e-07,1.91692e-06,0,-1.24908e-07,-1.50106e+09,-1.5007e+09,-1.50096e+09,-16694,-0.0104024,0.0157765,-0,0.0188973,-27781.9,-52428.2,-0,59334.2,16694
step02_gravity_refstate-mantle.xmf,946,-8.03643e-07,2.01667e-06,0,-8.84628e-08,-1.50396e+09,-1.50358e+09,-1.50385e+09,-11823.1,-0.00884154,0.0164049,-0,0.0186358,-29809.5,-52517.6,-0,60387.9,11823.1
step02_gravity_refstate-mantle.xmf,947,-8.80831e-07,2.18335e-06,0,-3.60593e-08,-1.52103e+09,-1.52062e+09,-1.52091e+09,-4819.32,-0.00513332,0.0164301,-0,0.0172134,-34288.2,-53044.9,-0,63162,4819.32
step02_gravity_refstate-mantle.xmf,948,-8.44022e-07,2.10063e-06,0,-5.96397e-08,-1.50788e+09,-1.50749e+09,-1.50777e+09,-7970.85,-0.00710891,0.0168016,-0,0.0182437,-31938.6,-52638.7,-0,61570.4,7970.85
step02_gravity_refstate-mantle.xmf,949,-9.15158e-07,2.27939e-06,0,-1.91579e-08,-1.55798e+09,-1.55755e+09,-1.55786e+09,-2560.45,-0.0035435,0.0141242,-0,0.0145619,-36157.7,-54186.2,-0,65142.4,2560.45
step02_gravity_refstate-mantle.xmf,950,-9.44253e-07,2.39157e-06,0,-7.78156e-09,-1.61477e+09,-1.61433e+09,-1.61465e+09,-1040.01,-0.00229995,0.010123,-0,0.010381,-37570.7,-55940.7,-0,67386.3,1040.01
step02_gravity_refstate-mantle.xmf,951,-9.61535e-07,2.4738e-06,0,-3.57782e-10,-1.66047e+09,-1.66001e+09,-1.66034e+09,-47.8176,2.55295e-20,0.00673226,0,0.00673226,-40000,-57352.3,-0,69923.4,47.8176
step02_gravity_refstate-mantle.xmf,952,-7.32052e-07,1.92371e-06,0,-1.21192e-07,-1.55479e+09,-1.55444e+09,-1.55469e+09,-16197.4,-0.0114764,0.0121423,-0,0.0167076,-26730.8,-54088,-0,60332.8,16197.4
step02_gravity_refstate-mantle.xmf,953,-6.46679e-07,1.9107e-06,0,-7.79214e-08,-1.66108e+09,-1.66074e+09,-1.66099e+09,-10414.2,-0.0132933,0.00516993,-0,0.0142633,-24623.1,-57371.9,-0,62432.6,10414.2
step02_gravity_refstate-mantle.xmf,954,-6.9511e-07,1.91676e-06,0,-1.08745e-07,-1.60612e+09,-1.60577e+09,-1.60603e+09,-14533.7,-0.0124476,0.00870611,-0,0.0151901,-25664.3,-55673.8,-0,61304.4,14533.7
step02_gravity_refstate-mantle.xmf,955,-5.81455e-07,1.92921e-06,0,-4.11145e-10,-1.74615e+09,-1.74581e+09,-1.74607e+09,-54.9495,-0.0140896,-2.05285e-19,-0,0.0140896,-23458.4,-60000,-0,64422.8,54.9495
step02_gravity_refstate-mantle.xmf,956,-9.60929e-07,2.50608e-06,0,-2.75838e-09,-1.6846e+09,-1.68413e+09,-1.68447e+09,-368.658,-0.0018372,0.00485936,-0,0.00519506,-38093.5,-58097.7,-0,69472.7,368.658
step02_gravity_refstate-mantle.xmf,957,-9.71171e-07,2.61492e-06,0,-3.57896e-10,-1.74617e+09,-1.74569e+09,-1.74604e+09,-47.8328,-1.54511e-19,-5.91293e-20,-0,1.65439e-19,-40000,-60000,-0,72111,47.8328
step02_gravity_refstate-mantle.xmf,958,-7.93635e-07,2.04309e-06,0,-8.78975e-08,-1.55891e+09,-1.55853e+09,-1.55881e+09,-11747.5,-0.00998813,0.0125914,-0,0.0160719,-28707,-54215.2,-0,61346.4,11747.5
step02_gravity_refstate-mantle.xmf,959,-8.45564e-07,2.14473e-06,0,-5.9722e-08,-1.56179e+09,-1.56139e+09,-1.56168e+09,-7981.84,-0.0082222,0.0130017,-0,0.0153833,-30877,-54304.2,-0,62468.6,7981.84
step02_gravity_refstate-mantle.xmf,960,-6.41274e-07,1.97511e-06,0,-3.36319e-08,-1.71145e+09,-1.7111e+09,-1.71136e+09,-4494.9,-0.0133956,0.002143,-0,0.0135659,-24572.4,-58927.9,-0,63846,4494.9
step02_gravity_refstate-mantle.xmf,961,-8.79156e-07,2.21066e-06,0,-4.03735e-08,-1.56146e+09,-1.56104e+09,-1.56134e+09,-5395.92,-0.00654422,0.0134298,-0,0.0149394,-32823.6,-54293.7,-0,63444.4,5395.92
step02_gravity_refstate-mantle.xmf,962,-9.19127e-07,2.33164e-06,0,-2.1383e-08,-1.60679e+09,-1.60636e+09,-1.60667e+09,-2857.84,-0.00496093,0.0105075,-0,0.0116197,-34703.4,-55694.1,-0,65621.3,2857.84
step02_gravity_refstate-mantle.xmf,963,-9.48071e-07,2.47062e-06,0,-7.38246e-09,-1.67749e+09,-1.67703e+09,-1.67736e+09,-986.666,-0.00378404,0.00535387,-0,0.00655613,-36050.5,-57878.2,-0,68187.4,986.666
step02_gravity_refstate-mantle.xmf,964,-9.6295e-07,2.59794e-06,0,-5.30306e-10,-1.74617e+09,-1.7457e+09,-1.74604e+09,-70.8754,-0.00257362,-6.34808e-20,-0,0.00257362,-37337.5,-60000,-0,70668.9,70.8754
step02_gravity_refstate-mantle.xmf,965,-7.69618e-07,2.05655e-06,0,-7.69833e-08,-1.61245e+09,-1.61207e+09,-1.61235e+09,-10288.8,-0.011019,0.00889484,-0,0.0141611,-27643.2,-55869.3,-0,62334,10288.8
step02_gravity_refstate-mantle.xmf,966,-7.32382e-07,2.04399e-06,0,-6.37748e-08,-1.65355e+09,-1.65318e+09,-1.65345e+09,-8523.51,-0.0119471,0.00604005,-0,0.0133871,-26553.1,-57139,-0,63007.4,8523.51
step02_gravity_refstate-mantle.xmf,967,-7.26893e-07,2.109e-06,0,-3.11333e-08,-1.70441e+09,-1.70403e+09,-1.70431e+09,-4160.97,-0.0121459,0.00275594,-0,0.0124546,-26389.5,-58710.3,-0,64368.5,4160.97
step02_gravity_refstate-mantle.xmf,968,-6.89848e-07,2.10813e-06,0,-4.09818e-10,-1.74615e+09,-1.74578e+09,-1.74606e+09,-54.7722,-0.012757,-2.65564e-19,-0,0.012757,-25553.8,-60000,-0,65215,54.7722
step02_gravity_refstate-mantle.xmf,969,-8.33941e-07,2.18289e-06,0,-5.22788e-08,-1.61981e+09,-1.61941e+09,-1.6197e+09,-6987.07,-0.00933978,0.00888465,-0,0.0128906,-29764.8,-56096.5,-0,63504,6987.07
step02_gravity_refstate-mantle.xmf,970,-8.8498e-07,2.27724e-06,0,-3.40877e-08,-1.61871e+09,-1.61829e+09,-1.6186e+09,-4555.82,-0.00731315,0.00934906,-0,0.0118696,-32121.1,-56062.5,-0,64612.4,4555.82
step02_gravity_refstate-mantle.xmf,971,-9.19594e-07,2.41756e-06,0,-1.3694e-08,-1.67932e+09,-1.67887e+09,-1.6792e+09,-1830.2,-0.00610799,0.00509728,-0,0.00795549,-33563,-57934.8,-0,66954.5,1830.2
step02_gravity_refstate-mantle.xmf,972,-9.40268e-07,2.55403e-06,0,-3.21343e-10,-1.74617e+09,-1.7457e+09,-1.74605e+09,-42.9475,-0.00500202,-5.92162e-20,-0,0.00500202,-34785.7,-60000,-0,69354.5,42.9475
step02_gravity_refstate-mantle.xmf,973,-8.02983e-07,2.20624e-06,0,-3.37318e-08,-1.68153e+09,-1.68112e+09,-1.68142e+09,-4508.25,-0.0105508,0.00449758,-0,0.0114694,-28439.3,-58003.1,-0,64600,4508.25
step02_gravity_refstate-mantle.xmf,974,-7.78652e-07,2.25988e-06,0,-3.71651e-10,-1.74616e+09,-1.74576e+09,-1.74606e+09,-49.6711,-0.0111584,-4.35468e-19,-0,0.0111584,-27728.1,-60000,-0,66097.3,49.6711
step02_gravity_refstate-mantle.xmf,975,-8.74662e-07,2.33591e-06,0,-2.18039e-08,-1.68185e+09,-1.68142e+09,-1.68173e+09,-2914.09,-0.00831872,0.0047369,-0,0.00957284,-31101.1,-58013,-0,65823.9,2914.09
step02_gravity_refstate-mantle.xmf,976,-9.03074e-07,2.48345e-06,0,-1.09062e-10,-1.74617e+09,-1.74572e+09,-1.74605e+09,-14.5761,-0.00725805,-5.33433e-20,-0,0.00725805,-32337.8,-60000,-0,68159.6,14.5761
step02_gravity_refstate-mantle.xmf,977,-8.49671e-07,2.38562e-06,0,7.58739e-11,-1.74617e+09,-1.74573e+09,-1.74605e+09,10.1405,-0.00931788,-4.58884e-19,-0,0.00931788,-29987.4,-60000,-0,67076.4,10.1405
step02_gravity_refstate-intrusion.xmf,0,-7.2073e-06,1.77783e-05,0,8.91357e-06,-8.24125e+08,-8.21742e+08,-8.23438e+08,849998,-0.00895192,-0.11147,-0,0.111829,1000,-30000,0,30016.7,849998
step02_gravity_refstate-intrusion.xmf,1,-9.45224e-06,1.92661e-05,0,3.78604e-06,-8.24382e+08,-8.21644e+08,-8.23481e+08,361037,-0.00489085,-0.119933,-0,0.120033,499.828,-30000,0,30004.2,361037
step02_gravity_refstate-intrusion.xmf,2,-6.07001e-06,1.4413e-05,0,1.04347e-05,-8.37889e+08,-8.35936e+08,-8.3731e+08,995055,-0.00688809,-0.11955,-0,0.119748,1000,-30500.4,0,30516.8,995055
step02_gravity_refstate-intrusion.xmf,3,-2.88399e-06,7.12595e-06,0,1.22784e-05,-8.79043e+08,-8.78089e+08,-8.78768e+08,1.17087e+06,-0.00316151,-0.135482,-0,0.135519,1000,-32001.2,0,32016.9,1.17087e+06
step02_gravity_refstate-intrusion.xmf,4,-1.93555e-06,4.99339e-06,0,1.2557e-05,-8.92743e+08,-8.92082e+08,-8.92559e+08,1.19744e+06,-0.00212368,-0.138491,-0,0.138507,1000,-32500.8,0,32516.2,1.19744e+06
step02_gravity_refstate-intrusion.xmf,5,-4.94836e-06,1.1889e-05,0,1.12561e-05,-8.51597e+08,-8.49991e+08,-8.51125e+08,1.07338e+06,-0.00547649,-0.126094,-0,0.126213,1000,-31000.5,0,31016.6,1.07338e+06
step02_gravity_refstate-intrusion.xmf,6,-3.87378e-06,9.4083e-06,0,1.18433e-05,-8.65324e+08,-8.64057e+08,-8.64955e+08,1.12938e+06,-0.00426637,-0.131376,-0,0.131446,1000,-31501,0,31516.9,1.12938e+06
step02_gravity_refstate-intrusion.xmf,7,-1.02188e-06,2.89104e-06,0,1.27607e-05,-9.06438e+08,-9.06065e+08,-9.0634e+08,1.21686e+06,-0.00112984,-0.14045,-0,0.140454,1000,-33000.1,0,33015.2,1.21686e+06
step02_gravity_refstate-intrusion.xmf,8,-1.16953e-07,8.85043e-07,0,1.28495e-05,-9.20143e+08,-9.20047e+08,-9.20132e+08,1.22533e+06,-0.000164926,-0.141392,-0,0.141392,1000,-33499.9,0,33514.8,1.22533e+06
step02_gravity_refstate-intrusion.xmf,9,-9.83372e-06,1.99359e-05,0,8.8569e-10,-8.24402e+08,-8.21563e+08,-8.23464e+08,84.4594,1.341e-06,-0.12257,0,0.12257,-1.02887e-10,-30000,-0,30000,84.4594
step02_gravity_refstate-intrusion.xmf,10,7.68624e-07,-1.12657e-06,0,1.28726e-05,-9.33869e+08,-9.34049e+08,-9.33942e+08,1.22753e+06,0.000782953,-0.141331,0,0.141333,1000,-34000.3,0,34015,1.22753e+06
step02_gravity_refstate-intrusion.xmf,11,1.64657e-06,-3.13861e-06,0,1.28233e-05,-9.47595e+08,-9.48051e+08,-9.47752e+08,1.22283e+06,0.00172292,-0.140269,0,0.14028,1000,-34500.8,0,34515.3,1.22283e+06
step02_gravity_refstate-intrusion.xmf,12,2.52101e-06,-5.16935e-06,0,1.26974e-05,-9.61306e+08,-9.6204e+08,-9.61547e+08,1.21082e+06,0.00266359,-0.138205,0,0.13823,1000,-35000.6,0,35014.9,1.21082e+06
step02_gravity_refstate-intrusion.xmf,13,3.39954e-06,-7.24538e-06,0,1.24908e-05,-9.75005e+08,-9.7602e+08,-9.75329e+08,1.19112e+06,0.00361474,-0.135124,0,0.135172,1000,-35499.8,0,35513.9,1.19112e+06
step02_gravity_refstate-intrusion.xmf,14,4.2754e-06,-9.34134e-06,0,1.21775e-05,-9.88714e+08,-9.90012e+08,-9.89121e+08,1.16124e+06,0.00458891,-0.130992,0,0.131073,1000,-35999.4,0,36013.3,1.16124e+06
step02_gravity_refstate-intrusion.xmf,15,-9.52095e-06,1.8866e-05,0,-3.28943e-06,-8.24415e+08,-8.21708e+08,-8.23507e+08,-313680,0.00489204,-0.119936,0,0.120036,-499.828,-30000,-0,30004.2,313680
step02_gravity_refstate-intrusion.xmf,16,5.17875e-06,-1.15926e-05,0,1.17491e-05,-1.00244e+09,-1.00404e+09,-1.00294e+09,1.12039e+06,0.00560256,-0.125759,0,0.125884,1000,-36499.7,0,36513.4,1.12039e+06
step02_gravity_refstate-intrusion.xmf,17,-7.18548e-06,1.77231e-05,0,-8.86979e-06,-8.24125e+08,-8.21749e+08,-8.2344e+08,-845823,0.00895358,-0.111488,0,0.111847,-1000,-30000,-0,30016.7,845823
step02_gravity_refstate-intrusion.xmf,18,-6.07708e-06,1.44235e-05,0,-1.0443e-05,-8.3789e+08,-8.35935e+08,-8.3731e+08,-995841,0.00688837,-0.119548,0,0.119746,-1000,-30500.4,-0,30516.8,995841
step02_gravity_refstate-intrusion.xmf,19,6.09328e-06,-1.40114e-05,0,1.11635e-05,-1.01619e+09,-1.01811e+09,-1.01677e+09,1.06455e+06,0.00668814,-0.119355,0,0.119542,1000,-37000.2,0,37013.7,1.06455e+06
step02_gravity_refstate-intrusion.xmf,20,-4.96847e-06,1.17596e-05,0,-1.13087e-05,-8.51607e+08,-8.50012e+08,-8.51133e+08,-1.0784e+06,0.00547572,-0.126094,0,0.126213,-1000,-31000.5,-0,31016.6,1.0784e+06
step02_gravity_refstate-intrusion.xmf,21,-3.90238e-06,9.33721e-06,0,-1.1889e-05,-8.65332e+08,-8.6407e+08,-8.6496e+08,-1.13374e+06,0.00426662,-0.131374,0,0.131444,-1000,-31501,-0,31516.9,1.13374e+06
step02_gravity_refstate-intrusion.xmf,22,6.95933e-06,-1.67219e-05,0,1.04677e-05,-1.02995e+09,-1.03221e+09,-1.03061e+09,998204,0.0079395,-0.111691,0,0.111972,1000,-37500.2,0,37513.6,998204
step02_gravity_refstate-intrusion.xmf,23,-2.89657e-06,7.08542e-06,0,-1.22941e-05,-8.79047e+08,-8.78096e+08,-8.78771e+08,-1.17237e+06,0.00316204,-0.135483,0,0.135519,-1000,-32001.2,-0,32016.9,1.17237e+06
step02_gravity_refstate-intrusion.xmf,24,-1.94117e-06,4.9494e-06,0,-1.25768e-05,-8.92747e+08,-8.9209e+08,-8.92561e+08,-1.19932e+06,0.00212353,-0.138491,0,0.138507,-1000,-32500.8,-0,32516.2,1.19932e+06
step02_gravity_refstate-intrusion.xmf,25,-1.02282e-06,2.89282e-06,0,-1.27601e-05,-9.06438e+08,-9.06064e+08,-9.0634e+08,-1.2168e+06,0.00112988,-0.140449,0,0.140454,-1000,-33000.1,-0,33015.2,1.2168e+06
step02_gravity_refstate-intrusion.xmf,26,7.55042e-06,-1.92669e-05,0,8.89768e-06,-1.04373e+09,-1.04629e+09,-1.04445e+09,848483,0.00982794,-0.102533,0,0.103003,1000,-38000,0,38013.2,848483
step02_gravity_refstate-intrusion.xmf,27,-1.26453e-07,8.77374e-07,0,-1.28582e-05,-9.20145e+08,-9.20049e+08,-9.20133e+08,-1.22616e+06,0.000165024,-0.141392,0,0.141392,-1000,-33499.9,-0,33514.8,1.22616e+06
step02_gravity_refstate-intrusion.xmf,28,2.52214e-06,-5.13959e-06,0,-1.27118e-05,-9.61304e+08,-9.62035e+08,-9.61545e+08,-1.2122e+06,-0.00266377,-0.138204,-0,0.13823,-1000,-35000.6,-0,35014.9,1.2122e+06
step02_gravity_refstate-intrusion.xmf,29,3.38579e-06,-7.20302e-06,0,-1.2487e-05,-9.75004e+08,-9.76014e+08,-9.75327e+08,-1.19076e+06,-0.00361482,-0.135124,-0,0.135172,-1000,-35499.8,-0,35513.9,1.19076e+06
step02_gravity_refstate-intrusion.xmf,30,7.6022e-07,-1.12546e-06,0,-1.28826e-05,-9.3387e+08,-9.3405e+08,-9.33942e+08,-1.22848e+06,-0.000782667,-0.141331,-0,0.141333,-1000,-34000.3,-0,34015,1.22848e+06
step02_gravity_refstate-intrusion.xmf,31,1.63733e-06,-3.12402e-06,0,-1.28326e-05,-9.47596e+08,-9.4805e+08,-9.47752e+08,-1.22371e+06,-0.00172306,-0.140269,-0,0.14028,-1000,-34500.8,-0,34515.3,1.22371e+06
step02_gravity_refstate-intrusion.xmf,32,4.27113e-06,-9.33631e-06,0,-1.21729e-05,-9.88714e+08,-9.90012e+08,-9.89121e+08,-1.16081e+06,-0.00458873,-0.130992,-0,0.131072,-1000,-35999.4,-0,36013.3,1.16081e+06
step02_gravity_refstate-intrusion.xmf,33,5.16125e-06,-1.15883e-05,0,-1.17616e-05,-1.00245e+09,-1.00404e+09,-1.00294e+09,-1.12158e+06,-0.00560179,-0.125757,-0,0.125882,-1000,-36499.7,-0,36513.4,1.12158e+06
step02_gravity_refstate-intrusion.xmf,34,1.10391e-05,-2.2251e-05,0,8.73807e-08,-1.04337e+09,-1.04654e+09,-1.04442e+09,8332.63,3.32124e-06,-0.113315,0,0.113315,0,-38000,0,38000,8332.63
step02_gravity_refstate-intrusion.xmf,35,1.04142e-05,-2.10468e-05,0,3.17426e-06,-1.0434e+09,-1.0464e+09,-1.04439e+09,302697,0.00533679,-0.110776,0,0.110904,500,-38000,0,38003.3,302697
step02_gravity_refstate-intrusion.xmf,36,6.09777e-06,-1.40239e-05,0,-1.11539e-05,-1.01619e+09,-1.01811e+09,-1.01677e+09,-1.06364e+06,-0.00668808,-0.119357,-0,0.119544,-1000,-37000.2,-0,37013.7,1.06364e+06
step02_gravity_refstate-intrusion.xmf,37,6.95855e-06,-1.67216e-05,0,-1.04658e-05,-1.02995e+09,-1.03221e+09,-1.03061e+09,-998021,-0.00793937,-0.11169,-0,0.111972,-1000,-37500.2,-0,37513.6,998021
step02_gravity_refstate-intrusion.xmf,38,7.53692e-06,-1.92585e-05,0,-8.90091e-06,-1.04373e+09,-1.04629e+09,-1.04445e+09,-848790,-0.00982775,-0.10253,-0,0.103,-1000,-38000,-0,38013.2,848790
step02_gravity_refstate-intrusion.xmf,39,1.0421e-05,-2.10637e-05,0,-3.14578e-06,-1.0434e+09,-1.0464e+09,-1.04439e+09,-299982,-0.00533827,-0.110774,-0,0.110902,-500,-38000,-0,38003.3,299982
step02_gravity_refstate-intrusion.xmf,40,-7.13018e-06,1.59587e-05,0,6.19223e-06,-8.34207e+08,-8.32006e+08,-8.33527e+08,590491,-0.00489891,-0.124546,-0,0.124642,636.359,-30363.7,0,30370.4,590491
step02_gravity_refstate-intrusion.xmf,41,-7.76949e-06,1.6419e-05,0,2.42177e-06,-8.35432e+08,-8.33125e+08,-8.34691e+08,230940,-0.00192947,-0.129228,-0,0.129243,248.265,-30405.7,0,30406.7,230940
step02_gravity_refstate-intrusion.xmf,42,-6.16606e-06,1.38028e-05,0,6.50653e-06,-8.44806e+08,-8.42902e+08,-8.44218e+08,620462,-0.00381604,-0.130846,-0,0.130901,599.393,-30750.4,0,30756.3,620462
step02_gravity_refstate-intrusion.xmf,43,-3.61713e-06,8.512e-06,0,8.36674e-06,-8.7236e+08,-8.71204e+08,-8.72015e+08,797852,-0.00263125,-0.140394,-0,0.140418,696.88,-31756.7,0,31764.4,797852
step02_gravity_refstate-intrusion.xmf,44,-2.75881e-06,6.59235e-06,0,6.44892e-06,-8.84801e+08,-8.83909e+08,-8.84538e+08,614969,-0.00147157,-0.146619,-0,0.146626,523.602,-32210.4,0,32214.7,614969
step02_gravity_refstate-intrusion.xmf,45,-1.60672e-06,4.1118e-06,0,7.26406e-06,-8.9984e+08,-8.99294e+08,-8.99686e+08,692701,-0.000956197,-0.148734,-0,0.148737,577.107,-32759.2,0,32764.3,692701
step02_gravity_refstate-intrusion.xmf,46,-4.76644e-06,1.0924e-05,0,5.96711e-06,-8.6041e+08,-8.58914e+08,-8.59955e+08,569024,-0.00251366,-0.138998,-0,0.139021,518.079,-31320.3,0,31324.6,569024
step02_gravity_refstate-intrusion.xmf,47,-7.58272e-06,1.64306e-05,0,-2.29937e-06,-8.35435e+08,-8.33145e+08,-8.34712e+08,-219268,0.00187418,-0.129287,0,0.1293,-241.269,-30406.9,-0,30407.8,219268
step02_gravity_refstate-intrusion.xmf,48,-6.24993e-07,1.93908e-06,0,7.72616e-06,-9.13562e+08,-9.13317e+08,-9.13502e+08,736766,-0.000394861,-0.149777,-0,0.149777,605.739,-33259.7,0,33265.2,736766
step02_gravity_refstate-intrusion.xmf,49,3.09811e-07,-1.07747e-07,0,7.2583e-06,-9.27007e+08,-9.27047e+08,-9.27037e+08,692151,0.000172927,-0.150853,0,0.150853,566.971,-33750.1,0,33754.9,692151
step02_gravity_refstate-intrusion.xmf,50,-5.99786e-06,1.32379e-05,0,5.88727e-09,-8.49282e+08,-8.47448e+08,-8.4871e+08,561.41,2.87962e-05,-0.137484,0,0.137484,-4.72083,-30913.2,-0,30913.2,561.41
step02_gravity_refstate-intrusion.xmf,51,-7.00957e-06,1.59389e-05,0,-6.27395e-06,-8.34185e+08,-8.31997e+08,-8.33517e+08,-598284,0.00490034,-0.12454,0,0.124636,-636.534,-30363.5,-0,30370.2,598284
step02_gravity_refstate-intrusion.xmf,52,-3.79107e-06,8.73917e-06,0,3.83361e-06,-8.72912e+08,-8.71717e+08,-8.72551e+08,365573,-0.00121756,-0.145598,-0,0.145603,319.98,-31776.3,0,31778,365573
step02_gravity_refstate-intrusion.xmf,53,1.2332e-06,-2.14955e-06,0,7.09896e-06,-9.40361e+08,-9.40683e+08,-9.40478e+08,676957,0.000690757,-0.15049,0,0.150491,555.112,-34237.1,0,34241.6,676957
step02_gravity_refstate-intrusion.xmf,54,3.14459e-06,-6.45128e-06,0,7.11262e-06,-9.68141e+08,-9.69056e+08,-9.68441e+08,678260,0.00181647,-0.14597,0,0.145982,567.625,-35250.2,0,35254.8,678260
step02_gravity_refstate-intrusion.xmf,55,2.22328e-06,-4.36487e-06,0,7.0216e-06,-9.5474e+08,-9.55368e+08,-9.54952e+08,669580,0.00124673,-0.148821,0,0.148826,553.232,-34761.5,0,34765.9,669580
step02_gravity_refstate-intrusion.xmf,56,4.09168e-06,-8.61424e-06,0,7.315e-06,-9.8184e+08,-9.83052e+08,-9.82231e+08,697558,0.00249942,-0.141749,0,0.141771,597.413,-35749.7,0,35754.7,697558
step02_gravity_refstate-intrusion.xmf,57,-2.03006e-06,4.94761e-06,0,1.56864e-06,-8.95239e+08,-8.94574e+08,-8.95045e+08,149586,-0.000253277,-0.152285,-0,0.152285,125.082,-32591.1,0,32591.3,149586
step02_gravity_refstate-intrusion.xmf,58,-1.04443e-06,2.83073e-06,0,2.66951e-06,-9.08337e+08,-9.07967e+08,-9.08237e+08,254564,-0.000220625,-0.153744,-0,0.153744,210.733,-33069,0,33069.7,254564
step02_gravity_refstate-intrusion.xmf,59,-6.12489e-06,1.38577e-05,0,-6.06806e-06,-8.44797e+08,-8.42891e+08,-8.44212e+08,-578650,0.00361839,-0.131309,0,0.131359,-566.968,-30750.4,-0,30755.7,578650
step02_gravity_refstate-intrusion.xmf,60,-3.13563e-06,7.32771e-06,0,-8.97087e-07,-8.81336e+08,-8.80338e+08,-8.81037e+08,-85546.2,0.000228398,-0.149332,0,0.149332,-73.2794,-32083.7,-0,32083.8,85546.2
step02_gravity_refstate-intrusion.xmf,61,-4.45562e-06,1.01521e-05,0,-7.68964e-07,-8.65631e+08,-8.64238e+08,-8.65206e+08,-73328.4,0.000289243,-0.14439,0,0.14439,-65.3811,-31510.5,-0,31510.6,73328.4
step02_gravity_refstate-intrusion.xmf,62,5.0736e-06,-1.08719e-05,0,6.68395e-06,-9.95056e+08,-9.96577e+08,-9.9554e+08,637382,0.0029135,-0.137581,0,0.137612,562.968,-36231.6,0,36236,637382
step02_gravity_refstate-intrusion.xmf,63,-2.00908e-07,1.00057e-06,0,3.55166e-06,-9.19924e+08,-9.19809e+08,-9.19905e+08,338686,-5.68383e-05,-0.154096,-0,0.154096,278.44,-33491.7,0,33492.9,338686
step02_gravity_refstate-intrusion.xmf,64,6.32793e-07,-8.2258e-07,0,1.10834e-06,-9.31647e+08,-9.31786e+08,-9.31708e+08,105691,5.48221e-05,-0.155098,0,0.155098,86.5352,-33919.4,0,33919.5,105691
step02_gravity_refstate-intrusion.xmf,65,-4.897e-06,1.1183e-05,0,-6.04305e-06,-8.58367e+08,-8.56833e+08,-8.579e+08,-576265,0.0026626,-0.138035,0,0.138061,-528.694,-31245.7,-0,31250.2,576265
step02_gravity_refstate-intrusion.xmf,66,-2.1824e-06,5.27891e-06,0,-3.41246e-06,-8.93156e+08,-8.92445e+08,-8.92948e+08,-325412,0.00059806,-0.151094,0,0.151095,-274.09,-32515.1,-0,32516.2,325412
step02_gravity_refstate-intrusion.xmf,67,1.76515e-06,-3.29005e-06,0,1.45338e-06,-9.47579e+08,-9.48061e+08,-9.47748e+08,138594,0.000202006,-0.153827,0,0.153827,114.685,-34500.5,0,34500.7,138594
step02_gravity_refstate-intrusion.xmf,68,3.73006e-06,-7.7045e-06,0,3.34948e-06,-9.7532e+08,-9.7641e+08,-9.75676e+08,319407,0.00101359,-0.147467,0,0.147471,270.874,-35512.2,0,35513.2,319407
step02_gravity_refstate-intrusion.xmf,69,2.91063e-06,-5.81054e-06,0,1.02191e-06,-9.63463e+08,-9.64295e+08,-9.6374e+08,97449.2,0.000237093,-0.151282,0,0.151282,81.9725,-35079.9,0,35080,97449.2
step02_gravity_refstate-intrusion.xmf,70,4.57675e-06,-9.58718e-06,0,2.27424e-06,-9.86531e+08,-9.87882e+08,-9.86968e+08,216872,0.000861987,-0.144434,0,0.144436,188.514,-35921.2,0,35921.6,216872
step02_gravity_refstate-intrusion.xmf,71,-1.33424e-06,3.44985e-06,0,-2.59438e-06,-9.04457e+08,-9.04e+08,-9.04329e+08,-247400,0.000274755,-0.15333,0,0.15333,-205.771,-32927.4,-0,32928.1,247400
step02_gravity_refstate-intrusion.xmf,72,-3.6205e-07,1.34226e-06,0,-1.51425e-06,-9.17776e+08,-9.17613e+08,-9.17741e+08,-144399,4.32092e-05,-0.154875,0,0.154875,-119.039,-33413.3,-0,33413.5,144399
step02_gravity_refstate-intrusion.xmf,73,-3.70532e-06,8.68144e-06,0,-6.46554e-06,-8.72598e+08,-8.71417e+08,-8.72245e+08,-616554,0.00204598,-0.143025,0,0.14304,-539.487,-31765.3,-0,31769.8,616554
step02_gravity_refstate-intrusion.xmf,74,-2.64726e-06,6.37817e-06,0,-7.00252e-06,-8.85911e+08,-8.85051e+08,-8.85659e+08,-667760,0.00154216,-0.146238,0,0.146247,-567.527,-32251,-0,32256,667760
step02_gravity_refstate-intrusion.xmf,75,3.91722e-06,-8.10921e-06,0,-1.66213e-06,-9.77452e+08,-9.78598e+08,-9.77825e+08,-158501,-0.000526802,-0.14759,-0,0.147591,-134.91,-35590,-0,35590.3,158501
step02_gravity_refstate-intrusion.xmf,76,5.65511e-06,-1.21092e-05,0,5.27629e-07,-1.00061e+09,-1.00231e+09,-1.00115e+09,50314.7,0.000268187,-0.139299,0,0.139299,47.2935,-36434.5,0,36434.6,50314.7
step02_gravity_refstate-intrusion.xmf,77,6.10508e-06,-1.33611e-05,0,6.39101e-06,-1.0089e+09,-1.01076e+09,-1.00949e+09,609447,0.003515,-0.131497,0,0.131544,560.705,-36736.3,0,36740.6,609447
step02_gravity_refstate-intrusion.xmf,78,1.24515e-06,-2.15633e-06,0,-3.40399e-06,-9.40345e+08,-9.4067e+08,-9.40464e+08,-324604,-0.000333421,-0.153749,-0,0.15375,-266.742,-34236.6,-0,34237.7,324604
step02_gravity_refstate-intrusion.xmf,79,-1.62769e-06,4.15553e-06,0,-7.59926e-06,-8.99487e+08,-8.98935e+08,-8.99332e+08,-724665,0.00101434,-0.148253,0,0.148256,-603.706,-32746.3,-0,32751.9,724665
step02_gravity_refstate-intrusion.xmf,80,2.09032e-06,-4.02244e-06,0,-4.23463e-06,-9.52372e+08,-9.52955e+08,-9.52571e+08,-403814,-0.000699685,-0.151845,-0,0.151847,-333.393,-34675.3,-0,34676.9,403814
step02_gravity_refstate-intrusion.xmf,81,4.76675e-06,-1.00586e-05,0,-2.60175e-06,-9.88996e+08,-9.9041e+08,-9.89451e+08,-248102,-0.00102881,-0.143404,-0,0.143408,-216.337,-36011,-0,36011.6,248102
step02_gravity_refstate-intrusion.xmf,82,7.28716e-06,-1.59829e-05,0,6.4138e-06,-1.02261e+09,-1.02482e+09,-1.0233e+09,611620,0.00444833,-0.123673,0,0.123753,594.986,-37236.2,0,37241,611620
step02_gravity_refstate-intrusion.xmf,83,-6.64708e-07,2.03833e-06,0,-7.31762e-06,-9.13063e+08,-9.12805e+08,-9.12999e+08,-697808,0.000396094,-0.150242,0,0.150243,-574.791,-33241.5,-0,33246.5,697808
step02_gravity_refstate-intrusion.xmf,84,4.0709e-07,-3.12116e-07,0,-6.52657e-06,-9.284e+08,-9.28468e+08,-9.28439e+08,-622373,-0.000205682,-0.15168,-0,0.15168,-510.512,-33800.9,-0,33804.8,622373
step02_gravity_refstate-intrusion.xmf,85,1.33749e-06,-2.38078e-06,0,-8.58719e-06,-9.42063e+08,-9.42417e+08,-9.4219e+08,-818875,-0.000911967,-0.148399,-0,0.148401,-670.749,-34299.2,-0,34305.8,818875
step02_gravity_refstate-intrusion.xmf,86,3.0553e-06,-6.24969e-06,0,-6.60897e-06,-9.6662e+08,-9.67508e+08,-9.66912e+08,-630232,-0.00163221,-0.146919,-0,0.146928,-527.222,-35194.8,-0,35198.7,630232
step02_gravity_refstate-intrusion.xmf,87,4.14894e-06,-8.77298e-06,0,-7.03285e-06,-9.82376e+08,-9.83608e+08,-9.82771e+08,-670653,-0.00242687,-0.14194,-0,0.141961,-574.269,-35769.2,-0,35773.8,670653
step02_gravity_refstate-intrusion.xmf,88,5.31595e-06,-1.1379e-05,0,-6.37872e-06,-9.9768e+08,-9.99273e+08,-9.98187e+08,-608275,-0.00289598,-0.136867,-0,0.136897,-538.219,-36327.4,-0,36331.4,608275
step02_gravity_refstate-intrusion.xmf,89,6.91476e-06,-1.50284e-05,0,1.74525e-06,-1.01605e+09,-1.01814e+09,-1.01671e+09,166427,0.00111485,-0.131375,0,0.13138,160.012,-36997.4,0,36997.7,166427
step02_gravity_refstate-intrusion.xmf,90,2.16739e-06,-4.25628e-06,0,-9.17823e-06,-9.54444e+08,-9.55056e+08,-9.5465e+08,-875236,-0.00159976,-0.145943,-0,0.145952,-720.99,-34750.7,-0,34758.2,875236
step02_gravity_refstate-intrusion.xmf,91,6.50491e-06,-1.41044e-05,0,-3.42064e-06,-1.01153e+09,-1.0135e+09,-1.01215e+09,-326192,-0.00197144,-0.132971,-0,0.132986,-301.044,-36832.7,-0,36833.9,326192
step02_gravity_refstate-intrusion.xmf,92,8.67397e-06,-1.83464e-05,0,1.94315e-06,-1.03106e+09,-1.03363e+09,-1.03188e+09,185299,0.00183832,-0.121984,0,0.121998,212.705,-37546.7,0,37547.3,185299
step02_gravity_refstate-intrusion.xmf,93,7.84935e-06,-1.80548e-05,0,6.04803e-06,-1.03363e+09,-1.0361e+09,-1.03438e+09,576741,0.00554455,-0.116233,0,0.116365,636.493,-37636.6,0,37641.9,576741
step02_gravity_refstate-intrusion.xmf,94,6.06517e-06,-1.33909e-05,0,-8.05738e-06,-1.00963e+09,-1.01148e+09,-1.01021e+09,-768352,-0.00443288,-0.128845,-0,0.128922,-705.85,-36762.4,-0,36769.2,768352
step02_gravity_refstate-intrusion.xmf,95,7.61457e-06,-1.64488e-05,0,-1.76085e-06,-1.02277e+09,-1.02506e+09,-1.02349e+09,-167915,-0.00126037,-0.127486,-0,0.127492,-164.496,-37243,-0,37243.4,167915
step02_gravity_refstate-intrusion.xmf,96,7.09535e-06,-1.60034e-05,0,-6.40689e-06,-1.02267e+09,-1.02487e+09,-1.02334e+09,-610961,-0.00447481,-0.123604,-0,0.123685,-598.574,-37237.4,-0,37242.2,610961
step02_gravity_refstate-intrusion.xmf,97,8.81558e-06,-1.87673e-05,0,-2.63502e-06,-1.03282e+09,-1.03545e+09,-1.03366e+09,-251275,-0.00249667,-0.120409,-0,0.120435,-281.159,-37610.6,-0,37611.7,251275
step02_gravity_refstate-intrusion.xmf,98,7.86117e-06,-1.80479e-05,0,-6.06395e-06,-1.03363e+09,-1.03611e+09,-1.03438e+09,-578258,-0.00554605,-0.11623,-0,0.116362,-636.59,-37636.7,-0,37642,578258
step02_gravity_refstate-crust.xmf,0,-4.80755e-07,2.7036e-06,0,5.9654e-10,-1.09866e+09,-1.09844e+09,-1.09863e+09,40.9227,3.7685e-20,0.0412689,0,0.0412689,40000,-40000,0,56568.5,40.9227
step02_gravity_refstate-crust.xmf,1,-4.76319e-07,2.69192e-06,0,5.11618e-08,-1.09866e+09,-1.09844e+09,-1.09863e+09,3509.7,0.00113333,0.0410876,0,0.0411032,37630.7,-40000,0,54918.8,3509.7
step02_gravity_refstate-crust.xmf,2,-4.64351e-07,2.66219e-06,0,1.01846e-07,-1.09866e+09,-1.09844e+09,-1.09863e+09,6986.64,0.0021942,0.0405727,0,0.040632,35375.6,-40000,0,53398.8,6986.64
step02_gravity_refstate-crust.xmf,3,-4.46405e-07,2.61673e-06,0,1.55171e-07,-1.09866e+09,-1.09845e+09,-1.09863e+09,10644.8,0.00317247,0.0397589,0,0.0398852,33229,-40000,0,52001.6,10644.8
step02_gravity_refstate-crust.xmf,4,-4.2455e-07,2.55822e-06,0,2.13052e-07,-1.09866e+09,-1.09845e+09,-1.09863e+09,14615.4,0.00406295,0.0386704,0,0.0388833,31185.8,-40000,0,50720.4,14615.4
step02_gravity_refstate-crust.xmf,5,-3.99694e-07,2.48843e-06,0,2.77256e-07,-1.09866e+09,-1.09846e+09,-1.09863e+09,19019.8,0.00486503,0.0373253,0,0.0376411,29241,-40000,0,49548.3,19019.8
step02_gravity_refstate-crust.xmf,6,-3.47166e-07,2.32251e-06,0,4.31072e-07,-1.09866e+09,-1.09848e+09,-1.09864e+09,29571.6,0.00621713,0.0339111,0,0.0344763,25627.4,-40000,0,47505.4,29571.6
step02_gravity_refstate-crust.xmf,7,-3.73403e-07,2.40939e-06,0,3.49306e-07,-1.09866e+09,-1.09847e+09,-1.09863e+09,23962.4,0.00558143,0.0357358,0,0.036169,27389.7,-40000,0,48478.8,23962.4
step02_gravity_refstate-crust.xmf,8,-3.22214e-07,2.22887e-06,0,5.23868e-07,-1.09866e+09,-1.09849e+09,-1.09864e+09,35937.3,0.00677935,0.0318576,0,0.032571,23949.7,-40000,0,46621.8,35937.3
step02_gravity_refstate-crust.xmf,9,-2.9962e-07,2.12899e-06,0,6.29942e-07,-1.09866e+09,-1.0985e+09,-1.09864e+09,43214,0.00727667,0.0295802,0,0.030462,22352.7,-40000,0,45821.8,43214
step02_gravity_refstate-crust.xmf,10,-2.46861e-07,1.36146e-06,0,1.65798e-06,-1.09869e+09,-1.09858e+09,-1.09867e+09,113737,0.00940135,0.0113624,0,0.0147475,14255.3,-40000,0,42464.3,113737
step02_gravity_refstate-crust.xmf,11,-2.49548e-07,1.16393e-06,0,1.92898e-06,-1.0987e+09,-1.0986e+09,-1.09868e+09,132328,0.00968227,0.00758654,0,0.0123005,13122.5,-40000,0,42097.5,132328
step02_gravity_refstate-crust.xmf,12,-2.45907e-07,1.52211e-06,0,1.42604e-06,-1.09868e+09,-1.09856e+09,-1.09867e+09,97826.5,0.009109,0.0149304,0,0.0174897,15444.9,-40000,0,42878.2,97826.5
step02_gravity_refstate-crust.xmf,13,-2.48235e-07,1.66542e-06,0,1.22207e-06,-1.09868e+09,-1.09855e+09,-1.09866e+09,83833.9,0.00880104,0.0182883,0,0.0202958,16694.2,-40000,0,43343.9,83833.9
step02_gravity_refstate-crust.xmf,14,-2.55022e-07,1.79656e-06,0,1.0423e-06,-1.09867e+09,-1.09853e+09,-1.09865e+09,71501.5,0.00847179,0.021434,0,0.0230475,18006.4,-40000,0,43866,71501.5
step02_gravity_refstate-crust.xmf,15,-2.80305e-07,2.02288e-06,0,7.5141e-07,-1.09867e+09,-1.09851e+09,-1.09865e+09,51546.7,0.00771819,0.0270821,0,0.0281605,20832.2,-40000,0,45099.7,51546.7
step02_gravity_refstate-crust.xmf,16,-2.64764e-07,1.90974e-06,0,8.90009e-07,-1.09867e+09,-1.09852e+09,-1.09865e+09,61054.6,0.00811359,0.024366,0,0.0256814,19384.6,-40000,0,44449.6,61054.6
step02_gravity_refstate-crust.xmf,17,-2.52771e-07,9.50127e-07,0,2.23034e-06,-1.09871e+09,-1.09863e+09,-1.09869e+09,153001,0.00995283,0.00360525,0,0.0105857,12043.8,-40000,0,41773.8,153001
step02_gravity_refstate-crust.xmf,18,-2.52169e-07,6.96255e-07,0,2.56275e-06,-1.09872e+09,-1.09865e+09,-1.0987e+09,175804,0.0102139,-0.000577606,0,0.0102302,11016.2,-40000,0,41489.2,175804
step02_gravity_refstate-crust.xmf,19,-2.4808e-07,3.95963e-07,0,2.93649e-06,-1.09873e+09,-1.09869e+09,-1.09871e+09,201443,0.0104599,-0.00495629,0,0.0115747,10037.4,-40000,0,41240.1,201443
step02_gravity_refstate-crust.xmf,20,-2.0236e-07,-3.82828e-07,0,3.78932e-06,-1.09876e+09,-1.09877e+09,-1.09874e+09,259947,0.0108791,-0.0142698,0,0.0179439,8215.82,-40000,0,40835,259947
step02_gravity_refstate-crust.xmf,21,-1.47818e-07,-9.28942e-07,0,4.29745e-06,-1.09878e+09,-1.09883e+09,-1.09877e+09,294805,0.0110285,-0.0191811,0,0.0221256,7368.31,-40000,0,40673,294805
step02_gravity_refstate-crust.xmf,22,-2.34425e-07,5.16923e-08,0,3.33709e-06,-1.09874e+09,-1.09872e+09,-1.09873e+09,228925,0.0106849,-0.00952375,0,0.0143133,9104.73,-40000,0,41023.1,228925
step02_gravity_refstate-crust.xmf,23,-6.21781e-08,-1.57051e-06,0,4.8303e-06,-1.09879e+09,-1.0989e+09,-1.09879e+09,331358,0.011114,-0.0242394,0,0.0266659,6559.91,-40000,0,40534.3,331358
step02_gravity_refstate-crust.xmf,24,1.31528e-06,-7.5589e-06,0,7.36498e-06,-1.0989e+09,-1.0995e+09,-1.09899e+09,505238,0.00958783,-0.0505253,0,0.051427,3021.01,-40000,0,40113.9,505238
step02_gravity_refstate-crust.xmf,25,1.94683e-06,-9.54911e-06,0,7.49824e-06,-1.09891e+09,-1.0997e+09,-1.09904e+09,514379,0.00856259,-0.055511,0,0.0561675,2394.25,-40000,0,40071.6,514379
step02_gravity_refstate-crust.xmf,26,8.45572e-07,-5.84942e-06,0,6.98726e-06,-1.09887e+09,-1.09933e+09,-1.09893e+09,479326,0.0102882,-0.0453143,0,0.0464675,3670.37,-40000,0,40168,479326
step02_gravity_refstate-crust.xmf,27,6.43007e-08,-2.34607e-06,0,5.38374e-06,-1.09881e+09,-1.09898e+09,-1.09882e+09,369325,0.0111149,-0.0294199,0,0.0314495,5788.3,-40000,0,40416.6,369325
step02_gravity_refstate-crust.xmf,28,2.7771e-06,-1.19151e-05,0,7.05677e-06,-1.09892e+09,-1.09993e+09,-1.09911e+09,484094,0.00712024,-0.0600644,0,0.060485,1785.26,-40000,0,40039.8,484094
step02_gravity_refstate-crust.xmf,29,4.9776e-07,-4.44977e-06,0,6.47933e-06,-1.09885e+09,-1.09919e+09,-1.09889e+09,444482,0.010741,-0.0400079,0,0.0414246,4346.07,-40000,0,40235.4,444482
step02_gravity_refstate-crust.xmf,30,2.40841e-07,-3.27887e-06,0,5.95712e-06,-1.09883e+09,-1.09907e+09,-1.09885e+09,408658,0.0110014,-0.0346903,0,0.0363929,5051.17,-40000,0,40317.7,408658
step02_gravity_refstate-crust.xmf,31,3.7085e-06,-1.44097e-05,0,5.67876e-06,-1.09892e+09,-1.10016e+09,-1.09918e+09,389563,0.00518182,-0.0638519,0,0.0640618,1187.64,-40000,0,40017.6,389563
step02_gravity_refstate-crust.xmf,32,4.48318e-06,-1.6444e-05,0,3.20367e-06,-1.09892e+09,-1.10036e+09,-1.09923e+09,219772,0.00274918,-0.0664259,0,0.0664828,593.771,-40000,0,40004.4,219772
step02_gravity_refstate-crust.xmf,33,4.80008e-06,-1.7422e-05,0,-6.53583e-08,-1.09893e+09,-1.10045e+09,-1.09926e+09,-4483.58,2.16363e-06,-0.0673435,0,0.0673435,0,-40000,0,40000,4483.58
step02_gravity_refstate-crust.xmf,34,4.48481e-06,-1.66204e-05,0,-3.27418e-06,-1.09893e+09,-1.10038e+09,-1.09924e+09,-224609,-0.00274904,-0.0664237,-0,0.0664806,-593.771,-40000,-0,40004.4,224609
step02_gravity_refstate-crust.xmf,35,3.71859e-06,-1.46874e-05,0,-5.73875e-06,-1.09893e+09,-1.10019e+09,-1.09919e+09,-393678,-0.00518106,-0.0638528,-0,0.0640626,-1187.64,-40000,-0,40017.6,393678
step02_gravity_refstate-crust.xmf,36,2.78919e-06,-1.21445e-05,0,-7.06593e-06,-1.09893e+09,-1.09995e+09,-1.09912e+09,-484723,-0.00712036,-0.0600648,-0,0.0604854,-1785.26,-40000,-0,40039.8,484723
step02_gravity_refstate-crust.xmf,37,1.95966e-06,-9.67291e-06,0,-7.48195e-06,-1.09891e+09,-1.09971e+09,-1.09905e+09,-513262,-0.00856224,-0.0555115,-0,0.056168,-2394.25,-40000,-0,40071.6,513262
step02_gravity_refstate-crust.xmf,38,1.31926e-06,-7.57308e-06,0,-7.36638e-06,-1.0989e+09,-1.09951e+09,-1.09899e+09,-505334,-0.00958749,-0.0505257,-0,0.0514273,-3021.01,-40000,-0,40113.9,505334
step02_gravity_refstate-crust.xmf,39,8.45169e-07,-5.85156e-06,0,-6.98461e-06,-1.09887e+09,-1.09933e+09,-1.09893e+09,-479144,-0.0102884,-0.0453148,-0,0.046468,-3670.37,-40000,-0,40168,479144
step02_gravity_refstate-crust.xmf,40,4.97974e-07,-4.44403e-06,0,-6.48098e-06,-1.09885e+09,-1.09919e+09,-1.09889e+09,-444595,-0.0107406,-0.0400081,-0,0.0414247,-4346.07,-40000,-0,40235.4,444595
step02_gravity_refstate-crust.xmf,41,2.44918e-07,-3.29028e-06,0,-5.92772e-06,-1.09883e+09,-1.09908e+09,-1.09885e+09,-406642,-0.0110014,-0.0346903,-0,0.0363929,-5051.17,-40000,-0,40317.7,406642
step02_gravity_refstate-crust.xmf,42,6.35662e-08,-2.34176e-06,0,-5.36314e-06,-1.09881e+09,-1.09898e+09,-1.09882e+09,-367911,-0.0111144,-0.0294196,-0,0.0314491,-5788.3,-40000,-0,40416.6,367911
step02_gravity_refstate-crust.xmf,43,-6.43966e-08,-1.55705e-06,0,-4.80724e-06,-1.09879e+09,-1.0989e+09,-1.09879e+09,-329776,-0.0111144,-0.0242393,-0,0.026666,-6559.91,-40000,-0,40534.3,329776
step02_gravity_refstate-crust.xmf,44,-1.49065e-07,-9.11366e-07,0,-4.2823e-06,-1.09878e+09,-1.09883e+09,-1.09877e+09,-293766,-0.0110281,-0.0191815,-0,0.0221258,-7368.31,-40000,-0,40673,293766
step02_gravity_refstate-crust.xmf,45,-2.03864e-07,-3.82556e-07,0,-3.78936e-06,-1.09876e+09,-1.09877e+09,-1.09874e+09,-259950,-0.0108793,-0.0142701,-0,0.0179442,-8215.82,-40000,-0,40835,259950
step02_gravity_refstate-crust.xmf,46,-2.35333e-07,5.31275e-08,0,-3.3361e-06,-1.09874e+09,-1.09872e+09,-1.09873e+09,-228857,-0.0106852,-0.00952384,-0,0.0143135,-9104.73,-40000,-0,41023.1,228857
step02_gravity_refstate-crust.xmf,47,-2.49832e-07,4.11609e-07,0,-2.92447e-06,-1.09873e+09,-1.09868e+09,-1.09871e+09,-200619,-0.0104599,-0.00495621,-0,0.0115747,-10037.4,-40000,-0,41240.1,200619
step02_gravity_refstate-crust.xmf,48,-2.5468e-07,7.11905e-07,0,-2.55093e-06,-1.09872e+09,-1.09865e+09,-1.0987e+09,-174994,-0.0102137,-0.000577508,-0,0.01023,-11016.2,-40000,-0,41489.2,174994
step02_gravity_refstate-crust.xmf,49,-2.54403e-07,9.64697e-07,0,-2.21686e-06,-1.09871e+09,-1.09862e+09,-1.09869e+09,-152077,-0.00995342,0.0036051,-0,0.0105862,-12043.8,-40000,-0,41773.8,152077
step02_gravity_refstate-crust.xmf,50,-2.50375e-07,1.17805e-06,0,-1.92144e-06,-1.0987e+09,-1.0986e+09,-1.09868e+09,-131811,-0.00968215,0.00758626,-0,0.0123002,-13122.5,-40000,-0,42097.5,131811
step02_gravity_refstate-crust.xmf,51,-2.47129e-07,1.36169e-06,0,-1.65848e-06,-1.09869e+09,-1.09858e+09,-1.09867e+09,-113772,-0.00940138,0.0113623,-0,0.0147474,-14255.3,-40000,-0,42464.3,113772
step02_gravity_refstate-crust.xmf,52,-2.46061e-07,1.52247e-06,0,-1.42645e-06,-1.09868e+09,-1.09856e+09,-1.09867e+09,-97854.6,-0.009109,0.0149303,-0,0.0174897,-15444.9,-40000,-0,42878.2,97854.6
step02_gravity_refstate-crust.xmf,53,-2.48413e-07,1.66606e-06,0,-1.22207e-06,-1.09868e+09,-1.09855e+09,-1.09866e+09,-83834,-0.0088011,0.0182882,-0,0.0202958,-16694.2,-40000,-0,43343.9,83834
step02_gravity_refstate-crust.xmf,54,-2.5493e-07,1.79667e-06,0,-1.04236e-06,-1.09867e+09,-1.09853e+09,-1.09865e+09,-71505.7,-0.00847175,0.0214341,-0,0.0230475,-18006.4,-40000,-0,43866,71505.7
step02_gravity_refstate-crust.xmf,55,-2.65942e-07,1.91694e-06,0,-8.85118e-07,-1.09867e+09,-1.09852e+09,-1.09865e+09,-60719.1,-0.00811359,0.024366,-0,0.0256814,-19384.6,-40000,-0,44449.6,60719.1
step02_gravity_refstate-crust.xmf,56,-2.81356e-07,2.02904e-06,0,-7.47281e-07,-1.09866e+09,-1.09851e+09,-1.09865e+09,-51263.5,-0.00771828,0.0270821,-0,0.0281605,-20832.2,-40000,-0,45099.7,51263.5
step02_gravity_refstate-crust.xmf,57,-3.00364e-07,2.13402e-06,0,-6.2701e-07,-1.09866e+09,-1.0985e+09,-1.09864e+09,-43012.9,-0.00727649,0.0295802,-0,0.030462,-22352.7,-40000,-0,45821.8,43012.9
step02_gravity_refstate-crust.xmf,58,-3.23092e-07,2.23329e-06,0,-5.2115e-07,-1.09866e+09,-1.09849e+09,-1.09864e+09,-35750.9,-0.00677941,0.0318576,-0,0.032571,-23949.7,-40000,-0,46621.8,35750.9
step02_gravity_refstate-crust.xmf,59,-3.48003e-07,2.32621e-06,0,-4.28407e-07,-1.09866e+09,-1.09848e+09,-1.09864e+09,-29388.8,-0.00621716,0.0339111,-0,0.0344763,-25627.4,-40000,-0,47505.4,29388.8
step02_gravity_refstate-crust.xmf,60,-3.74116e-07,2.41261e-06,0,-3.46791e-07,-1.09866e+09,-1.09847e+09,-1.09863e+09,-23789.8,-0.00558136,0.0357359,-0,0.0361691,-27389.7,-40000,-0,48478.8,23789.8
step02_gravity_refstate-crust.xmf,61,-4.24617e-07,2.55827e-06,0,-2.13237e-07,-1.09866e+09,-1.09845e+09,-1.09863e+09,-14628.1,-0.0040629,0.0386706,-0,0.0388834,-31185.8,-40000,-0,50720.4,14628.1
step02_gravity_refstate-crust.xmf,62,-4.46986e-07,2.61854e-06,0,-1.53848e-07,-1.09866e+09,-1.09845e+09,-1.09863e+09,-10554,-0.00317238,0.0397589,-0,0.0398853,-33229,-40000,-0,52001.6,10554
step02_gravity_refstate-crust.xmf,63,-3.9976e-07,2.48862e-06,0,-2.77562e-07,-1.09866e+09,-1.09846e+09,-1.09863e+09,-19040.8,-0.00486501,0.0373253,-0,0.0376411,-29241,-40000,-0,49548.3,19040.8
step02_gravity_refstate-crust.xmf,64,-4.64601e-07,2.66339e-06,0,-1.00561e-07,-1.09866e+09,-1.09844e+09,-1.09863e+09,-6898.51,-0.00219423,0.0405727,-0,0.040632,-35375.6,-40000,-0,53398.8,6898.51
step02_gravity_refstate-crust.xmf,65,-4.75934e-07,2.69174e-06,0,-5.03415e-08,-1.09866e+09,-1.09844e+09,-1.09863e+09,-3453.43,-0.00113333,0.0410876,-0,0.0411032,-37630.7,-40000,-0,54918.8,3453.43
step02_gravity_refstate-crust.xmf,66,-4.80751e-07,2.70349e-06,0,-5.68839e-10,-1.09866e+09,-1.09844e+09,-1.09863e+09,-39.0223,-1.12582e-19,0.041269,-0,0.041269,-40000,-40000,-0,56568.5,39.0223
step02_gravity_refstate-crust.xmf,67,1.15256e-06,-2.75304e-07,0,2.87788e-08,-5.56725e+07,-5.57704e+07,-5.57515e+07,1974.23,-0.00235348,0.0873113,-0,0.087343,37970.9,-2031.05,0,38025.2,1974.23
step02_gravity_refstate-crust.xmf,68,1.07585e-06,-1.85519e-07,0,-1.56663e-09,-7.77263e+07,-7.78128e+07,-7.78001e+07,-107.471,-1.50831e-19,0.0877785,-0,0.0877785,40000,-2833.77,0,40100.3,107.471
step02_gravity_refstate-crust.xmf,69,9.37779e-07,-3.11012e-08,0,6.09531e-08,-1.17563e+08,-1.17629e+08,-1.17627e+08,4181.38,-0.00210244,0.0876027,-0,0.0876279,37775.2,-4283.74,0,38017.3,4181.38
step02_gravity_refstate-crust.xmf,70,1.40664e-06,-5.37914e-07,0,-6.06574e-09,133445,47.914,36948.8,-416.11,-3.74662e-19,0.0867646,-0,0.0867646,40000,0,0,40000,416.11
step02_gravity_refstate-crust.xmf,71,8.42597e-07,9.14695e-08,0,-8.30944e-10,-1.53455e+08,-1.53507e+08,-1.53513e+08,-57.0028,-1.18748e-19,0.0879082,-0,0.0879082,40000,-5590.24,0,40388.7,57.0028
step02_gravity_refstate-crust.xmf,72,8.15571e-07,9.82515e-08,0,1.47773e-07,-1.52769e+08,-1.52818e+08,-1.52825e+08,10137.2,-0.00368847,0.0865684,-0,0.086647,35593.6,-5565.16,0,36026,10137.2
step02_gravity_refstate-crust.xmf,73,1.06425e-06,-1.95609e-07,0,8.09239e-08,-7.20146e+07,-7.2101e+07,-7.20876e+07,5551.38,-0.00473858,0.086459,-0,0.0865888,35642.4,-2625.77,0,35739,5551.38
step02_gravity_refstate-crust.xmf,74,1.38358e-06,-5.2651e-07,0,-4.34752e-09,131367,334.501,36453.1,-298.24,-0.00401682,0.0862267,-0,0.0863202,37123.5,0,0,37123.5,298.24
step02_gravity_refstate-crust.xmf,75,7.42728e-07,2.1718e-07,0,8.71007e-08,-1.92295e+08,-1.92332e+08,-1.92346e+08,5975.11,-0.00165956,0.0873506,-0,0.0873664,37780,-7004.05,0,38423.8,5975.11
step02_gravity_refstate-crust.xmf,76,7.09871e-07,1.99517e-07,0,2.70554e-07,-1.82124e+08,-1.82159e+08,-1.82173e+08,18560,-0.00523417,0.0844032,-0,0.0845654,33033.7,-6633.6,0,33693.2,18560
step02_gravity_refstate-crust.xmf,77,6.39056e-07,3.48222e-07,0,2.02652e-07,-2.37349e+08,-2.37369e+08,-2.37393e+08,13901.9,-0.00293537,0.0858059,-0,0.0858561,35481.5,-8644.07,0,36519.3,13901.9
step02_gravity_refstate-crust.xmf,78,6.05151e-07,3.18337e-07,0,3.77099e-07,-2.21919e+08,-2.21939e+08,-2.21961e+08,25869,-0.00566699,0.0822869,-0,0.0824818,31412.9,-8082.13,0,32435.9,25869
step02_gravity_refstate-crust.xmf,79,5.8557e-07,3.89253e-07,0,3.26416e-07,-2.51088e+08,-2.51101e+08,-2.51128e+08,22392.1,-0.00431024,0.0836415,-0,0.0837525,33012.2,-9144.06,0,34255.2,22392.1
step02_gravity_refstate-crust.xmf,80,8.82007e-07,-1.76869e-08,0,1.68404e-07,-1.15483e+08,-1.15544e+08,-1.15543e+08,11552.5,-0.00575946,0.0853296,-0,0.0855237,33814,-4207.8,0,34074.8,11552.5
step02_gravity_refstate-crust.xmf,81,5.42635e-07,4.28913e-07,0,4.26025e-07,-2.66473e+08,-2.66481e+08,-2.6651e+08,29225.3,-0.00512837,0.0814633,-0,0.0816245,31230.1,-9704.08,0,32703.1,29225.3
step02_gravity_refstate-crust.xmf,82,4.91902e-07,5.16672e-07,0,5.15726e-07,-3.06255e+08,-3.06254e+08,-3.06289e+08,35378.8,-0.00520554,0.0793186,-0,0.0794892,30100.5,-11152.3,0,32100.1,35378.8
step02_gravity_refstate-crust.xmf,83,5.38434e-07,3.81053e-07,0,5.00845e-07,-2.44278e+08,-2.44289e+08,-2.44315e+08,34358,-0.00645219,0.07935,-0,0.0796119,29403.8,-8895.95,0,30720.1,34358
step02_gravity_refstate-crust.xmf,84,6.73306e-07,3.18941e-07,0,-1.96651e-10,-2.2726e+08,-2.27284e+08,-2.27306e+08,-13.4902,-9.01949e-20,0.0873568,-0,0.0873568,40000,-8276.85,0,40847.4,13.4902
step02_gravity_refstate-crust.xmf,85,6.50404e-07,2.0825e-07,0,3.80887e-07,-1.77049e+08,-1.7708e+08,-1.77094e+08,26128.9,-0.00729194,0.0811071,-0,0.0814343,30141.3,-6448.61,0,30823.5,26128.9
step02_gravity_refstate-crust.xmf,86,8.10288e-07,2.34114e-08,0,2.42106e-07,-1.21695e+08,-1.21749e+08,-1.21751e+08,16608.5,-0.00745545,0.0832069,-0,0.0835403,31653.2,-4433.74,0,31962.2,16608.5
step02_gravity_refstate-crust.xmf,87,1.03397e-06,-2.1598e-07,0,1.12067e-07,-6.07537e+07,-6.08394e+07,-6.08246e+07,7687.79,-0.00780173,0.0843258,-0,0.084686,32947.2,-2215.65,0,33021.6,7687.79
step02_gravity_refstate-crust.xmf,88,1.32493e-06,-5.03666e-07,0,-1.36751e-09,125820,378.467,34929.9,-93.8114,-0.00776533,0.0847024,-0,0.0850576,34354.5,0,0,34354.5,93.8114
step02_gravity_refstate-crust.xmf,89,5.06252e-07,5.28827e-07,0,4.03547e-07,-3.10445e+08,-3.10444e+08,-3.1048e+08,27683.3,-0.00411931,0.0817776,-0,0.0818813,32167.3,-11304.9,0,34095.9,27683.3
step02_gravity_refstate-crust.xmf,90,4.67996e-07,5.09478e-07,0,6.36217e-07,-3.01931e+08,-3.01928e+08,-3.01963e+08,43644.5,-0.0063018,0.0761524,-0,0.0764127,27950.2,-10994.8,0,30034.9,43644.5
step02_gravity_refstate-crust.xmf,91,5.26562e-07,5.18481e-07,0,2.85613e-07,-3.043e+08,-3.043e+08,-3.04336e+08,19593,-0.00304335,0.0839411,-0,0.0839963,34348.5,-11081.3,0,36091.7,19593
step02_gravity_refstate-crust.xmf,92,6.05309e-07,4.18123e-07,0,9.78943e-08,-2.63258e+08,-2.63271e+08,-2.633e+08,6715.55,-0.00126978,0.0865701,-0,0.0865794,37911.7,-9587.28,0,39105.2,6715.55
step02_gravity_refstate-crust.xmf,93,4.74804e-07,4.16908e-07,0,6.4333e-07,-2.52954e+08,-2.52958e+08,-2.52986e+08,44132.4,-0.00756819,0.0751896,-0,0.0755695,26905.1,-9211.61,0,28438.4,44132.4
step02_gravity_refstate-crust.xmf,94,4.35229e-07,5.15896e-07,0,7.6359e-07,-2.9991e+08,-2.99904e+08,-2.9994e+08,52382.3,-0.00731505,0.0723082,-0,0.0726772,25778.5,-10921.1,0,27996.5,52382.3
step02_gravity_refstate-crust.xmf,95,4.58865e-07,6.30655e-07,0,4.86856e-07,-3.60187e+08,-3.60175e+08,-3.60219e+08,33398.3,-0.00418355,0.0793672,-0,0.0794774,31000.5,-13115.8,0,33660.9,33398.3
step02_gravity_refstate-crust.xmf,96,4.54093e-07,6.12593e-07,0,6.12269e-07,-3.55825e+08,-3.55814e+08,-3.55857e+08,42001.7,-0.00520619,0.0765148,-0,0.0766917,28869.9,-12957,0,31644.2,42001.7
step02_gravity_refstate-crust.xmf,97,4.41855e-07,5.99695e-07,0,7.38069e-07,-3.50823e+08,-3.50812e+08,-3.50853e+08,50631.5,-0.00619507,0.0731819,-0,0.0734437,26802.3,-12774.8,0,29691,50631.5
step02_gravity_refstate-crust.xmf,98,5.43291e-07,5.1055e-07,0,1.82216e-07,-3.00112e+08,-3.00114e+08,-3.00149e+08,12500,-0.00201004,0.0853085,-0,0.0853322,36329.1,-10928.9,0,37937.4,12500
step02_gravity_refstate-crust.xmf,99,5.49328e-07,5.12009e-07,0,5.31445e-11,-2.99344e+08,-2.99347e+08,-2.99382e+08,3.64571,-6.85639e-20,0.0862662,-0,0.0862662,40000,-10900.9,0,41458.8,3.64571
step02_gravity_refstate-crust.xmf,100,5.35209e-07,2.9863e-07,0,5.26148e-07,-2.03608e+08,-2.03624e+08,-2.03645e+08,36093.7,-0.00813247,0.0772577,-0,0.0776846,27735.3,-7415.19,0,28709.4,36093.7
step02_gravity_refstate-crust.xmf,101,7.34464e-07,4.10583e-08,0,3.08424e-07,-1.17972e+08,-1.1802e+08,-1.18023e+08,21157.9,-0.00939258,0.0801677,-0,0.080716,29269.5,-4297.94,0,29583.4,21157.9
step02_gravity_refstate-crust.xmf,102,9.44301e-07,-1.88026e-07,0,1.50905e-07,-5.88278e+07,-5.89055e+07,-5.88926e+07,10352.1,-0.0103578,0.0815537,-0,0.0822088,30421.6,-2145.21,0,30497.2,10352.1
step02_gravity_refstate-crust.xmf,103,1.22507e-06,-4.65459e-07,0,-1.25489e-09,116348,377.396,32307.9,-86.0851,-0.0111711,0.0823169,-0,0.0830714,31685.6,0,0,31685.6,86.0851
step02_gravity_refstate-crust.xmf,104,4.20738e-07,5.95885e-07,0,8.6746e-07,-3.44786e+08,-3.44774e+08,-3.44815e+08,59507.8,-0.00716441,0.069306,-0,0.0696753,24728,-12554.9,0,27732.6,59507.8
step02_gravity_refstate-crust.xmf,105,3.86839e-07,5.28392e-07,0,8.79026e-07,-2.95212e+08,-2.95203e+08,-2.95239e+08,60301.2,-0.00821685,0.0682585,-0,0.0687513,23751.3,-10749.9,0,26070.8,60301.2
step02_gravity_refstate-crust.xmf,106,4.14629e-07,4.34851e-07,0,7.54697e-07,-2.4974e+08,-2.49738e+08,-2.49768e+08,51772.2,-0.0085694,0.0712209,-0,0.0717346,24787.9,-9094.37,0,26403.5,51772.2
step02_gravity_refstate-crust.xmf,107,3.80588e-07,6.09305e-07,0,9.95568e-07,-3.39259e+08,-3.39243e+08,-3.39285e+08,68296,-0.00805099,0.0649528,-0,0.0654499,22677.4,-12353.6,0,25823.9,68296
step02_gravity_refstate-crust.xmf,108,4.19829e-07,6.59637e-07,0,9.67808e-07,-3.84869e+08,-3.84853e+08,-3.84898e+08,66391.7,-0.00720994,0.0658849,-0,0.0662782,23556.9,-14014.3,0,27410.4,66391.7
step02_gravity_refstate-crust.xmf,109,3.90386e-07,6.76834e-07,0,1.09673e-06,-3.80762e+08,-3.80742e+08,-3.80788e+08,75235.4,-0.00801806,0.0615911,-0,0.0621108,21668.3,-13864.6,0,25724.4,75235.4
step02_gravity_refstate-crust.xmf,110,4.60907e-07,6.4503e-07,0,3.59217e-07,-3.61433e+08,-3.6142e+08,-3.61464e+08,24642.3,-0.00313068,0.0817898,-0,0.0818497,33256.4,-13161.2,0,35766,24642.3
step02_gravity_refstate-crust.xmf,111,4.61537e-07,6.63234e-07,0,2.18454e-07,-3.6461e+08,-3.64596e+08,-3.64642e+08,14986,-0.00191638,0.0836628,-0,0.0836847,35841.1,-13276.9,0,38221.2,14986
step02_gravity_refstate-crust.xmf,112,5.00358e-07,5.95759e-07,0,9.90865e-08,-3.33606e+08,-3.336e+08,-3.33641e+08,6797.34,-0.000969351,0.0853147,-0,0.0853202,38065.8,-12148.2,0,39957.3,6797.34
step02_gravity_refstate-crust.xmf,113,3.29509e-07,6.41918e-07,0,1.10954e-06,-3.36666e+08,-3.36645e+08,-3.36689e+08,76114.5,-0.00872939,0.0606202,-0,0.0612455,20844.9,-12259,0,24182.5,76114.5
step02_gravity_refstate-crust.xmf,114,6.10239e-07,1.59755e-07,0,4.18259e-07,-1.50836e+08,-1.50867e+08,-1.50878e+08,28692.6,-0.00934322,0.0779971,-0,0.0785547,27917.6,-5494.05,0,28453,28692.6
step02_gravity_refstate-crust.xmf,115,4.67029e-07,3.48046e-07,0,6.36716e-07,-2.15582e+08,-2.1559e+08,-2.15614e+08,43678.7,-0.00878313,0.0738836,-0,0.0744039,25904.1,-7850.89,0,27067.7,43678.7
step02_gravity_refstate-crust.xmf,116,3.25291e-07,5.5847e-07,0,9.89446e-07,-2.92971e+08,-2.92955e+08,-2.92994e+08,67876,-0.00893956,0.0639192,-0,0.0645413,21811.9,-10668.1,0,24281,67876
step02_gravity_refstate-crust.xmf,117,4.38761e-07,6.74132e-07,0,8.23444e-07,-3.97544e+08,-3.97528e+08,-3.97574e+08,56488.2,-0.00613406,0.0701198,-0,0.0703876,25744.2,-14475.8,0,29534.9,56488.2
step02_gravity_refstate-crust.xmf,118,3.49922e-07,7.15999e-07,0,1.21758e-06,-3.78714e+08,-3.78689e+08,-3.78738e+08,83525.9,-0.00868552,0.0572001,-0,0.0578558,19913.8,-13790,0,24222.4,83525.9
step02_gravity_refstate-crust.xmf,119,4.18533e-07,7.36104e-07,0,1.18688e-06,-4.2096e+08,-4.20938e+08,-4.20989e+08,81420.1,-0.00807129,0.0582036,-0,0.0587606,20729.3,-15328.3,0,25781,81420.1
step02_gravity_refstate-crust.xmf,120,4.37007e-07,7.15275e-07,0,1.05585e-06,-4.23793e+08,-4.23774e+08,-4.23823e+08,72431.2,-0.00729328,0.0624742,-0,0.0628985,22491.5,-15431.5,0,27276.3,72431.2
step02_gravity_refstate-crust.xmf,121,3.82659e-07,7.82371e-07,0,1.31537e-06,-4.19205e+08,-4.19178e+08,-4.19231e+08,90234.5,-0.00876527,0.053698,-0,0.0544087,19024,-15264.3,0,24390.9,90234.5
step02_gravity_refstate-crust.xmf,122,4.56505e-07,7.87471e-07,0,1.26511e-06,-4.60567e+08,-4.60545e+08,-4.60599e+08,86786.8,-0.00817783,0.0547818,-0,0.0553888,19850.9,-16770.5,0,25986.7,86786.8
step02_gravity_refstate-crust.xmf,123,4.21167e-07,7.42706e-07,0,4.36263e-07,-4.11711e+08,-4.11689e+08,-4.1174e+08,29927.7,-0.00329797,0.079202,-0,0.0792707,31960.1,-14991.6,0,35301.5,29927.7
step02_gravity_refstate-crust.xmf,124,4.31281e-07,7.17062e-07,0,5.64222e-07,-4.08333e+08,-4.08313e+08,-4.08362e+08,38705.6,-0.00424891,0.076607,-0,0.0767247,29802.6,-14868.6,0,33305.7,38705.6
step02_gravity_refstate-crust.xmf,125,4.37588e-07,6.93181e-07,0,6.93947e-07,-4.04026e+08,-4.04009e+08,-4.04056e+08,47604.8,-0.00519672,0.0735337,-0,0.0737171,27724.9,-14711.8,0,31386.4,47604.8
step02_gravity_refstate-crust.xmf,126,4.5326e-07,6.84318e-07,0,3.08246e-10,-3.69909e+08,-3.69894e+08,-3.6994e+08,21.1457,-4.96614e-20,0.0847293,-0,0.0847293,40000,-13469.8,0,42207.1,21.1457
step02_gravity_refstate-crust.xmf,127,4.26054e-07,8.39583e-07,0,1.40311e-06,-4.58342e+08,-4.58314e+08,-4.58371e+08,96253.7,-0.0089274,0.050142,-0,0.0509305,18179.5,-16689.4,0,24678.5,96253.7
step02_gravity_refstate-crust.xmf,128,5.1322e-07,2.30936e-07,0,5.24857e-07,-1.6782e+08,-1.6784e+08,-1.67855e+08,36005.2,-0.00984257,0.0749016,-0,0.0755455,26181.2,-6112.09,0,26885.2,36005.2
step02_gravity_refstate-crust.xmf,129,6.25234e-07,6.66456e-08,0,3.68455e-07,-1.1303e+08,-1.13068e+08,-1.13073e+08,25276,-0.011207,0.0763677,-0,0.0771856,26841.7,-4117.6,0,27155.7,25276
step02_gravity_refstate-crust.xmf,130,8.21992e-07,-1.51122e-07,0,1.84478e-07,-5.55616e+07,-5.56284e+07,-5.5618e+07,12655.2,-0.0127246,0.0779857,-0,0.079017,27887.4,-2025.87,0,27960.9,12655.2
step02_gravity_refstate-crust.xmf,131,1.09009e-06,-4.14049e-07,0,-4.62003e-10,103534,349.79,28753.5,-31.6934,-0.0141565,0.0791963,-0,0.0804516,29109.7,0,0,29109.7,31.6934
step02_gravity_refstate-crust.xmf,132,3.42024e-07,4.58888e-07,0,8.50331e-07,-2.45514e+08,-2.45506e+08,-2.45537e+08,58332.7,-0.00939333,0.0671157,-0,0.0677699,22823.2,-8940.27,0,24511.8,58332.7
step02_gravity_refstate-crust.xmf,133,3.99728e-07,3.32367e-07,0,6.83434e-07,-1.94648e+08,-1.94652e+08,-1.94675e+08,46883.5,-0.0100833,0.0705066,-0,0.071224,24061.4,-7088.47,0,25083.8,46883.5
step02_gravity_refstate-crust.xmf,134,5.04172e-07,8.3228e-07,0,1.33668e-06,-4.99392e+08,-4.9937e+08,-4.99427e+08,91696.2,-0.00832454,0.0512442,-0,0.0519159,18993.2,-18184.2,0,26294.6,91696.2
step02_gravity_refstate-crust.xmf,135,4.43793e-07,7.13487e-07,0,9.24731e-07,-4.27746e+08,-4.27727e+08,-4.27776e+08,63436.6,-0.00645509,0.066434,-0,0.0667469,24304.8,-15575.4,0,28867.2,63436.6
step02_gravity_refstate-crust.xmf,136,4.6792e-07,7.63274e-07,0,1.12892e-06,-4.63087e+08,-4.63067e+08,-4.63119e+08,77443.9,-0.00738108,0.0590903,-0,0.0595495,21533.2,-16862.2,0,27349.8,77443.9
step02_gravity_refstate-crust.xmf,137,4.08392e-07,7.70806e-07,0,3.11453e-07,-4.16572e+08,-4.16547e+08,-4.166e+08,21365.6,-0.0023445,0.0811578,-0,0.0811917,34169.7,-15168.6,0,37385.2,21365.6
step02_gravity_refstate-crust.xmf,138,4.13614e-07,7.62751e-07,0,8.90103e-08,-4.04037e+08,-4.04013e+08,-4.04065e+08,6106.1,-0.000702403,0.0836318,-0,0.0836348,38300.4,-14712.2,0,41028.9,6106.1
step02_gravity_refstate-crust.xmf,139,3.30715e-07,8.52675e-07,0,1.43287e-06,-4.18437e+08,-4.18402e+08,-4.1846e+08,98294.8,-0.00933671,0.0491789,-0,0.0500573,17429.2,-15236.3,0,23150,98294.8
step02_gravity_refstate-crust.xmf,140,2.53213e-07,6.07937e-07,0,1.09377e-06,-2.93424e+08,-2.93399e+08,-2.93441e+08,75032.9,-0.00946663,0.0594101,-0,0.0601596,19970.7,-10684.3,0,22649.2,75032.9
step02_gravity_refstate-crust.xmf,141,2.66864e-07,6.97766e-07,0,1.21933e-06,-3.37434e+08,-3.37404e+08,-3.37452e+08,83645.9,-0.00925296,0.0560247,-0,0.0567836,19066.3,-12286.8,0,22682.3,83645.9
step02_gravity_refstate-crust.xmf,142,2.91901e-07,7.7801e-07,0,1.32936e-06,-3.78092e+08,-3.78059e+08,-3.78112e+08,91194.2,-0.00923217,0.0526419,-0,0.0534453,18223.1,-13767.2,0,22838.9,91194.2
step02_gravity_refstate-crust.xmf,143,2.62589e-07,5.05549e-07,0,9.49883e-07,-2.47816e+08,-2.47799e+08,-2.47834e+08,65162,-0.00990736,0.0628124,-0,0.0635889,20978.7,-9023.83,0,22837.2,65162
step02_gravity_refstate-crust.xmf,144,4.79159e-07,8.91425e-07,0,1.49217e-06,-4.97822e+08,-4.97794e+08,-4.97855e+08,102363,-0.00917519,0.0461888,-0,0.0470913,17279.9,-18127,0,25043.6,102363
step02_gravity_refstate-crust.xmf,145,5.07055e-07,8.04752e-07,0,1.18849e-06,-5.0242e+08,-5.024e+08,-5.02455e+08,81530.4,-0.00746449,0.0556921,-0,0.0561901,20646,-18294.4,0,27585.2,81530.4
step02_gravity_refstate-crust.xmf,146,4.4189e-07,7.6489e-07,0,7.79238e-07,-4.54278e+08,-4.54256e+08,-4.54308e+08,53455.7,-0.00526595,0.0698146,-0,0.070013,26368.7,-16541.4,0,31127.6,53455.7
step02_gravity_refstate-crust.xmf,147,4.65756e-07,7.62296e-07,0,9.97581e-07,-4.67013e+08,-4.66993e+08,-4.67045e+08,68434.1,-0.00655378,0.0630124,-0,0.0633523,23227.1,-17005.2,0,28786.7,68434.1
step02_gravity_refstate-crust.xmf,148,3.86294e-07,8.21393e-07,0,1.91029e-07,-4.32838e+08,-4.32808e+08,-4.32865e+08,13104.6,-0.00138847,0.0820971,-0,0.0821089,36363.1,-15760.7,0,39631.7,13104.6
step02_gravity_refstate-crust.xmf,149,3.7667e-07,8.5699e-07,0,3.77388e-07,-4.61865e+08,-4.61832e+08,-4.61891e+08,25888.8,-0.00254204,0.0786861,-0,0.0787272,32880.2,-16817.5,0,36931.5,25888.8
step02_gravity_refstate-crust.xmf,150,3.96981e-07,8.25519e-07,0,4.98272e-07,-4.58744e+08,-4.58715e+08,-4.58771e+08,34181.5,-0.00337547,0.0764874,-0,0.0765618,30787.1,-16703.9,0,35026.6,34181.5
step02_gravity_refstate-crust.xmf,151,4.19523e-07,7.92425e-07,0,6.30692e-07,-4.55823e+08,-4.55798e+08,-4.55852e+08,43265.5,-0.00428225,0.0735812,-0,0.0737057,28627.6,-16597.6,0,33091.1,43265.5
step02_gravity_refstate-crust.xmf,152,3.72124e-07,8.46395e-07,0,7.61615e-10,-4.39154e+08,-4.39121e+08,-4.39179e+08,52.2468,-4.7222e-20,0.0827999,-0,0.0827999,40000,-15990.7,0,43077.8,52.2468
step02_gravity_refstate-crust.xmf,153,3.69469e-07,9.20421e-07,0,1.53287e-06,-4.54832e+08,-4.54795e+08,-4.54858e+08,105155,-0.00957348,0.045436,-0,0.0464337,16575.8,-16561.5,0,23431.7,105155
step02_gravity_refstate-crust.xmf,154,4.77524e-07,1.57007e-07,0,4.83198e-07,-1.28571e+08,-1.28593e+08,-1.28604e+08,33147.4,-0.0118667,0.0722627,-0,0.0732306,24637.5,-4682.95,0,25078.6,33147.4
step02_gravity_refstate-crust.xmf,155,6.38382e-07,-6.67802e-08,0,2.47757e-07,-5.99925e+07,-6.00409e+07,-6.00363e+07,16996.1,-0.0144832,0.0734368,-0,0.0748514,25192.9,-2186.57,0,25287.6,16996.1
step02_gravity_refstate-crust.xmf,156,9.18112e-07,-3.48231e-07,0,-6.85443e-10,87220.6,349.491,24238.2,-47.0214,-0.0166636,0.0754651,-0,0.077283,26619.5,0,0,26619.5,47.0214
step02_gravity_refstate-crust.xmf,157,2.86468e-07,3.86681e-07,0,7.86131e-07,-1.97188e+08,-1.97181e+08,-1.97208e+08,53928.6,-0.0107801,0.0656555,-0,0.0665347,21843.7,-7180.59,0,22993.7,53928.6
step02_gravity_refstate-crust.xmf,158,5.55027e-07,9.16004e-07,0,1.52321e-06,-5.39657e+08,-5.39633e+08,-5.39695e+08,104492,-0.00913765,0.0437384,-0,0.0446827,16942.1,-19650.4,0,25945.6,104492
step02_gravity_refstate-crust.xmf,159,5.58179e-07,8.64405e-07,0,1.38636e-06,-5.37568e+08,-5.37547e+08,-5.37606e+08,95104,-0.008413,0.0479458,-0,0.0486783,18272.2,-19574.3,0,26777.4,95104
step02_gravity_refstate-crust.xmf,160,5.52561e-07,8.39183e-07,0,1.2385e-06,-5.39439e+08,-5.3942e+08,-5.39477e+08,84961.2,-0.00753924,0.0523393,-0,0.0528795,19814.8,-19642.4,0,27900.7,84961.2
step02_gravity_refstate-crust.xmf,161,4.5719e-07,7.78985e-07,0,8.81832e-07,-4.74091e+08,-4.74069e+08,-4.74122e+08,60493.7,-0.00577642,0.0661191,-0,0.0663709,24757.3,-17262.8,0,30181.6,60493.7
step02_gravity_refstate-crust.xmf,162,4.94816e-07,8.01738e-07,0,1.05062e-06,-5.04716e+08,-5.04695e+08,-5.0475e+08,72072.6,-0.00661267,0.0597802,-0,0.0601448,22301.2,-18377.9,0,28898,72072.6
step02_gravity_refstate-crust.xmf,163,3.60614e-07,8.84057e-07,0,2.77376e-07,-4.65937e+08,-4.65901e+08,-4.65961e+08,19028,-0.00185249,0.0800571,-0,0.0800785,34683.1,-16965.7,0,38610.3,19028
step02_gravity_refstate-crust.xmf,164,3.35391e-07,9.26186e-07,0,1.01495e-07,-4.74819e+08,-4.74779e+08,-4.74842e+08,6962.53,-0.000664727,0.081383,-0,0.0813857,38007.4,-17289.1,0,41754.9,6962.53
step02_gravity_refstate-crust.xmf,165,4.88065e-07,9.59861e-07,0,1.60065e-06,-5.14809e+08,-5.14776e+08,-5.14842e+08,109804,-0.00962195,0.0422808,-0,0.0433618,16232.5,-18745.6,0,24797,109804
step02_gravity_refstate-crust.xmf,166,5.33121e-07,1.00026e-06,0,1.67829e-06,-5.42104e+08,-5.42072e+08,-5.4214e+08,115131,-0.00989707,0.0389265,-0,0.0401649,15524.1,-19739.5,0,25112.7,115131
step02_gravity_refstate-crust.xmf,167,6.55857e-07,1.06456e-06,0,1.83789e-06,-6.01161e+08,-6.01133e+08,-6.01206e+08,126080,-0.0104068,0.0316489,-0,0.033316,14143.5,-21890.2,0,26061.8,126080
step02_gravity_refstate-crust.xmf,168,6.0168e-07,1.21923e-06,0,2.04325e-06,-6.01676e+08,-6.01633e+08,-6.01717e+08,140167,-0.0112661,0.0261156,-0,0.028442,12774.1,-21908.9,0,25361,140167
step02_gravity_refstate-crust.xmf,169,5.40027e-07,1.16835e-06,0,1.92467e-06,-5.71418e+08,-5.71375e+08,-5.71455e+08,132033,-0.0108782,0.0306093,-0,0.0324849,13563.5,-20807,0,24837.5,132033
step02_gravity_refstate-crust.xmf,170,2.32365e-07,8.58052e-07,0,1.42598e-06,-3.81338e+08,-3.81295e+08,-3.81354e+08,97822,-0.00960323,0.0483927,-0,0.0493364,16763.3,-13885.3,0,21767.2,97822
step02_gravity_refstate-crust.xmf,171,2.58269e-07,9.52036e-07,0,1.54015e-06,-4.17913e+08,-4.17866e+08,-4.17931e+08,105654,-0.0097899,0.0445898,-0,0.0456518,15890.5,-15217.1,0,22001.5,105654
step02_gravity_refstate-crust.xmf,172,3.98905e-07,9.94846e-07,0,1.63692e-06,-4.85385e+08,-4.85344e+08,-4.85413e+08,112293,-0.00991201,0.0414572,-0,0.0426256,15660.3,-17674.1,0,23613.9,112293
step02_gravity_refstate-crust.xmf,173,1.5911e-07,5.65126e-07,0,1.03927e-06,-2.47332e+08,-2.47304e+08,-2.47343e+08,71293.7,-0.0103325,0.0579699,-0,0.0588835,19012.9,-9005.89,0,21038,71293.7
step02_gravity_refstate-crust.xmf,174,1.69981e-07,6.83627e-07,0,1.19903e-06,-2.98322e+08,-2.98287e+08,-2.98334e+08,82253.4,-0.00980621,0.0544643,-0,0.0553401,18109.7,-10862.5,0,21117.6,82253.4
step02_gravity_refstate-crust.xmf,175,1.89635e-07,7.74859e-07,0,1.31799e-06,-3.39445e+08,-3.39405e+08,-3.39458e+08,90414,-0.00963481,0.0512674,-0,0.0521649,17336.3,-12359.8,0,21291.1,90414
step02_gravity_refstate-crust.xmf,176,3.3692e-07,2.52745e-07,0,6.0867e-07,-1.45269e+08,-1.45275e+08,-1.45292e+08,41754.7,-0.0121214,0.0678584,-0,0.0689325,22562.6,-5290.41,0,23174.5,41754.7
step02_gravity_refstate-crust.xmf,177,2.07876e-07,4.52181e-07,0,8.85653e-07,-2.08745e+08,-2.08729e+08,-2.0876e+08,60755.8,-0.0108725,0.0618965,-0,0.0628442,20313.1,-7601.13,0,21688.7,60755.8
step02_gravity_refstate-crust.xmf,178,7.16503e-07,1.19348e-06,0,2.09613e-06,-6.36703e+08,-6.3667e+08,-6.36752e+08,143794,-0.0112889,0.0231061,-0,0.0257163,12434.9,-23184.6,0,26308.8,143794
step02_gravity_refstate-crust.xmf,179,7.21169e-07,1.08855e-06,0,1.92663e-06,-6.27969e+08,-6.27944e+08,-6.28018e+08,132167,-0.0106505,0.0277798,-0,0.0297515,13441.5,-22866.4,0,26524.5,132167
step02_gravity_refstate-crust.xmf,180,7.95174e-07,1.19718e-06,0,2.17574e-06,-6.61895e+08,-6.61867e+08,-6.61949e+08,149256,-0.0114134,0.019575,-0,0.0226594,11903.9,-24102,0,26881.4,149256
step02_gravity_refstate-crust.xmf,181,6.65323e-07,1.36273e-06,0,2.29646e-06,-6.38809e+08,-6.38761e+08,-6.38854e+08,157537,-0.0119953,0.0182352,-0,0.0218268,11392,-23261.3,0,25901,157537
step02_gravity_refstate-crust.xmf,182,6.15432e-07,9.44092e-07,0,1.58777e-06,-5.72451e+08,-5.72428e+08,-5.72493e+08,108921,-0.00932788,0.0401853,-0,0.0412537,16204.9,-20844.6,0,26402.6,108921
step02_gravity_refstate-crust.xmf,183,6.17302e-07,8.9008e-07,0,1.42902e-06,-5.73675e+08,-5.73656e+08,-5.73717e+08,98031.1,-0.00846714,0.0446667,-0,0.0454621,17583.6,-20889.1,0,27304.5,98031.1
step02_gravity_refstate-crust.xmf,184,5.29814e-07,8.3624e-07,0,1.09438e-06,-5.42038e+08,-5.42017e+08,-5.42075e+08,75074.6,-0.00665236,0.0564521,-0,0.0568427,21400.8,-19736.9,0,29112.5,75074.6
step02_gravity_refstate-crust.xmf,185,4.4465e-07,8.50026e-07,0,7.91059e-07,-5.13694e+08,-5.13666e+08,-5.13724e+08,54266.6,-0.0048946,0.0668849,-0,0.0670637,25737.4,-18704.7,0,31816.4,54266.6
step02_gravity_refstate-crust.xmf,186,4.74496e-07,8.199e-07,0,9.20915e-07,-5.09563e+08,-5.09539e+08,-5.09595e+08,63174.8,-0.00575569,0.0634102,-0,0.0636709,23961.3,-18554.3,0,30305.2,63174.8
step02_gravity_refstate-crust.xmf,187,5.91465e-07,1.03477e-06,0,1.75528e-06,-5.71875e+08,-5.71845e+08,-5.71916e+08,120412,-0.0101531,0.0354073,-0,0.0368343,14843.8,-20823.7,0,25572.7,120412
step02_gravity_refstate-crust.xmf,188,7.44742e-07,1.37753e-06,0,2.40351e-06,-6.62998e+08,-6.62955e+08,-6.63049e+08,164881,-0.0121908,0.0145167,-0,0.0189565,10878.5,-24142.2,0,26480,164881
step02_gravity_refstate-crust.xmf,189,8.80701e-07,1.18782e-06,0,2.25725e-06,-6.8737e+08,-6.87349e+08,-6.87431e+08,154848,-0.011455,0.015827,-0,0.0195375,11363.9,-25029.8,0,27488.7,154848
step02_gravity_refstate-crust.xmf,190,8.1379e-07,1.06713e-06,0,1.96118e-06,-6.61033e+08,-6.61016e+08,-6.61089e+08,134537,-0.0105655,0.0244791,-0,0.0266619,12973.7,-24070.5,0,27344.3,134537
step02_gravity_refstate-crust.xmf,191,4.14389e-07,8.68148e-07,0,6.72378e-07,-5.05925e+08,-5.05893e+08,-5.05953e+08,46125.2,-0.00417514,0.0704759,-0,0.0705995,27627.2,-18421.7,0,33205.7,46125.2
step02_gravity_refstate-crust.xmf,192,3.08958e-07,9.91878e-07,0,1.96122e-07,-5.07663e+08,-5.07616e+08,-5.07684e+08,13454,-0.00117438,0.079489,-0,0.0794976,36086.7,-18484.8,0,40545.5,13454
step02_gravity_refstate-crust.xmf,193,3.24297e-07,9.75296e-07,0,3.08218e-07,-5.1008e+08,-5.10036e+08,-5.10103e+08,21143.7,-0.00184592,0.0779837,-0,0.0780056,33914.5,-18572.8,0,38667.1,21143.7
step02_gravity_refstate-crust.xmf,194,3.50686e-07,9.41149e-07,0,4.25234e-07,-5.08099e+08,-5.08059e+08,-5.08123e+08,29171,-0.00258242,0.0760378,-0,0.0760817,31766.8,-18500.7,0,36761.5,29171
step02_gravity_refstate-crust.xmf,195,3.81763e-07,9.02793e-07,0,5.46968e-07,-5.06009e+08,-5.05973e+08,-5.06035e+08,37522,-0.00336794,0.0735365,-0,0.0736136,29664.2,-18424.7,0,34920.4,37522
step02_gravity_refstate-crust.xmf,196,2.95588e-07,1.00663e-06,0,1.34667e-09,-5.07275e+08,-5.07226e+08,-5.07295e+08,92.3818,-4.42091e-20,0.0805026,-0,0.0805026,40000,-18470.6,0,44058.6,92.3818
step02_gravity_refstate-crust.xmf,197,4.78352e-07,1.12285e-06,0,1.83255e-06,-5.42157e+08,-5.42113e+08,-5.4219e+08,125713,-0.0105838,0.0341008,-0,0.0357055,14166.2,-19741.5,0,24298.3,125713
step02_gravity_refstate-crust.xmf,198,4.2496e-07,1.07605e-06,0,1.74547e-06,-5.12367e+08,-5.12322e+08,-5.12396e+08,119739,-0.0102882,0.037479,-0,0.0388654,14780.2,-18656.6,0,23801.8,119739
step02_gravity_refstate-crust.xmf,199,4.41715e-07,1.34899e-06,0,2.08047e-06,-5.67363e+08,-5.67301e+08,-5.67393e+08,142720,-0.011462,0.0260323,-0,0.028444,12362.5,-20659.3,0,24075.7,142720
step02_gravity_refstate-crust.xmf,200,2.82155e-07,1.03954e-06,0,1.64959e-06,-4.51218e+08,-4.51166e+08,-4.51238e+08,113162,-0.010079,0.040635,-0,0.0418663,15015.6,-16429.8,0,22257.7,113162
step02_gravity_refstate-crust.xmf,201,1.35319e-07,8.65474e-07,0,1.40678e-06,-3.50865e+08,-3.50815e+08,-3.50875e+08,96505.4,-0.00980233,0.0472403,-0,0.0482466,16033,-12775.5,0,20500.5,96505.4
step02_gravity_refstate-crust.xmf,202,4.13553e-07,8.73913e-08,0,3.98102e-07,-8.90636e+07,-8.9086e+07,-8.9092e+07,27309.8,-0.0142455,0.0690646,-0,0.0705184,22964.8,-3244.26,0,23192.8,27309.8
step02_gravity_refstate-crust.xmf,203,7.16615e-07,-2.73555e-07,0,1.62879e-09,68004,78.3992,18844.2,111.735,-0.0186347,0.0712483,-0,0.0736449,24208.2,0,0,24208.2,111.735
step02_gravity_refstate-crust.xmf,204,1.97295e-07,3.42617e-07,0,7.26459e-07,-1.56656e+08,-1.56646e+08,-1.56669e+08,49835.1,-0.0123107,0.0628592,-0,0.0640533,20401.1,-5704.54,0,21183.6,49835.1
step02_gravity_refstate-crust.xmf,205,1.05448e-07,4.74371e-07,0,8.99357e-07,-1.93897e+08,-1.93871e+08,-1.93904e+08,61695.9,-0.0114617,0.0585165,-0,0.0596284,18827.3,-7060.16,0,20107.5,61695.9
step02_gravity_refstate-crust.xmf,206,5.96936e-07,1.34859e-06,0,2.20862e-06,-6.1658e+08,-6.16528e+08,-6.16621e+08,151512,-0.0117928,0.0213571,-0,0.0243966,11832.7,-22451.7,0,25379,151512
step02_gravity_refstate-crust.xmf,207,8.38777e-07,1.3743e-06,0,2.51363e-06,-6.87937e+08,-6.87901e+08,-6.87995e+08,172435,-0.0123031,0.0105776,-0,0.0162251,10366,-25050.6,0,27110.6,172435
step02_gravity_refstate-crust.xmf,208,9.36128e-07,1.35904e-06,0,2.62698e-06,-7.12026e+08,-7.11997e+08,-7.1209e+08,180211,-0.0123327,0.00639656,-0,0.0138929,9838.49,-25927.9,0,27731.8,180211
step02_gravity_refstate-crust.xmf,209,7.51378e-07,1.6299e-06,0,2.78687e-06,-6.88159e+08,-6.88098e+08,-6.8821e+08,191179,-0.013071,0.00511864,-0,0.0140375,9396.8,-25058.7,0,26762.6,191179
step02_gravity_refstate-crust.xmf,210,8.55353e-07,1.64099e-06,0,2.95356e-06,-7.11817e+08,-7.11763e+08,-7.11875e+08,202614,-0.0132055,0.000493072,-0,0.0132147,8867.12,-25920.4,0,27395.1,202614
step02_gravity_refstate-crust.xmf,211,1.04889e-06,1.33015e-06,0,2.74927e-06,-7.36617e+08,-7.36598e+08,-7.36689e+08,188600,-0.0122104,0.00191574,-0,0.0123597,9302.89,-26823.6,0,28391,188600
step02_gravity_refstate-crust.xmf,212,9.70221e-07,1.16273e-06,0,2.33301e-06,-7.12671e+08,-7.12657e+08,-7.12737e+08,160045,-0.0113704,0.0119566,-0,0.0164999,10831.6,-25951.2,0,28121,160045
step02_gravity_refstate-crust.xmf,213,5.98952e-07,8.6378e-07,0,1.27458e-06,-5.75424e+08,-5.75406e+08,-5.75465e+08,87436.1,-0.00757354,0.0489649,-0,0.0495472,19019.7,-20952.6,0,28297.7,87436.1
step02_gravity_refstate-crust.xmf,214,5.70187e-07,8.65924e-07,0,1.13009e-06,-5.78071e+08,-5.7805e+08,-5.7811e+08,77524.1,-0.00665461,0.0530852,-0,0.0535007,20532.1,-21048.9,0,29404.4,77524.1
step02_gravity_refstate-crust.xmf,215,4.98601e-07,8.57286e-07,0,9.56617e-07,-5.47763e+08,-5.47738e+08,-5.47797e+08,65624,-0.00574144,0.0601847,-0,0.060458,23032.1,-19945.2,0,30467.9,65624
step02_gravity_refstate-crust.xmf,216,6.77779e-07,9.63325e-07,0,1.64926e-06,-6.03123e+08,-6.03104e+08,-6.0317e+08,113140,-0.00950214,0.0365513,-0,0.0377662,15472.8,-21961.5,0,26864.8,113140
step02_gravity_refstate-crust.xmf,217,8.91692e-07,1.05286e-06,0,2.01428e-06,-6.87753e+08,-6.87741e+08,-6.87814e+08,138180,-0.0105074,0.0209534,-0,0.0234404,12424,-25043.6,0,27955.9,138180
step02_gravity_refstate-crust.xmf,218,7.42245e-07,9.76667e-07,0,1.71234e-06,-6.31808e+08,-6.31792e+08,-6.31859e+08,117466,-0.00964689,0.0328393,-0,0.0342269,14748.3,-23006.1,0,27327.5,117466
step02_gravity_refstate-crust.xmf,219,8.08417e-07,9.7621e-07,0,1.7548e-06,-6.60507e+08,-6.60496e+08,-6.60563e+08,120379,-0.00963006,0.029409,-0,0.0309455,14138.3,-24051.2,0,27898.9,120379
step02_gravity_refstate-crust.xmf,220,2.56383e-07,1.09675e-06,0,1.16709e-07,-5.47395e+08,-5.47338e+08,-5.47413e+08,8006.25,-0.000611925,0.078587,-0,0.0785894,37574.2,-19931.2,0,42533.2,8006.25
step02_gravity_refstate-crust.xmf,221,4.73591e-07,1.43461e-06,0,2.21381e-06,-5.92153e+08,-5.92087e+08,-5.92185e+08,151867,-0.0118847,0.021679,-0,0.024723,11624.1,-21562,0,24495.7,151867
step02_gravity_refstate-crust.xmf,222,4.21732e-07,1.26165e-06,0,1.96747e-06,-5.46227e+08,-5.4617e+08,-5.46256e+08,134968,-0.0110879,0.0297821,-0,0.0317792,13059.4,-19889.6,0,23793.8,134968
step02_gravity_refstate-crust.xmf,223,1.45183e-07,9.63962e-07,0,1.50881e-06,-3.80979e+08,-3.80923e+08,-3.80989e+08,103505,-0.00988391,0.0440174,-0,0.0451134,15275.5,-13872,0,20634.3,103505
step02_gravity_refstate-crust.xmf,224,1.5734e-07,1.07747e-06,0,1.62476e-06,-4.14795e+08,-4.14732e+08,-4.14806e+08,111459,-0.0100891,0.0401317,-0,0.0413805,14415.4,-15103.3,0,20878.5,111459
step02_gravity_refstate-crust.xmf,225,3.02862e-07,1.14041e-06,0,1.76712e-06,-4.82107e+08,-4.82049e+08,-4.82127e+08,121224,-0.0104447,0.0364464,-0,0.0379134,14124,-17554.6,0,22531.1,121224
step02_gravity_refstate-crust.xmf,226,5.64601e-08,6.78119e-07,0,1.1603e-06,-2.622e+08,-2.62157e+08,-2.62204e+08,79596.3,-0.0103337,0.0523573,-0,0.0533673,16981.8,-9546.93,0,19481.4,79596.3
step02_gravity_refstate-crust.xmf,227,5.74661e-08,8.16789e-07,0,1.31872e-06,-3.08696e+08,-3.08644e+08,-3.087e+08,90464.2,-0.00997641,0.0481986,-0,0.0492203,15914.7,-11239.9,0,19483.7,90464.2
step02_gravity_refstate-crust.xmf,228,5.03684e-07,-7.84278e-08,0,1.86178e-07,-3.83517e+07,-3.83916e+07,-3.83863e+07,12771.8,-0.0168897,0.0692445,-0,0.0712746,23048.2,-1398.15,0,23090.5,12771.8
step02_gravity_refstate-crust.xmf,229,2.7033e-07,1.99439e-07,0,5.28148e-07,-1.09576e+08,-1.09581e+08,-1.09594e+08,36230.9,-0.0138937,0.0653632,-0,0.0668235,21294.4,-3990.61,0,21665.1,36230.9
step02_gravity_refstate-crust.xmf,230,4.85404e-08,5.76025e-07,0,1.02467e-06,-2.22149e+08,-2.22113e+08,-2.22153e+08,70292.1,-0.0109295,0.0549429,-0,0.0560194,17623.3,-8088.66,0,19390.9,70292.1
step02_gravity_refstate-crust.xmf,231,5.06148e-07,1.53675e-06,0,2.36633e-06,-6.15319e+08,-6.15249e+08,-6.15354e+08,162331,-0.0122957,0.017266,-0,0.0211966,10921.1,-22405.7,0,24925.6,162331
step02_gravity_refstate-crust.xmf,232,5.75903e-07,1.57839e-06,0,2.49654e-06,-6.3979e+08,-6.39721e+08,-6.39829e+08,171263,-0.0126011,0.013426,-0,0.0184132,10412.6,-23297,0,25518,171263
step02_gravity_refstate-crust.xmf,233,6.60895e-07,1.60563e-06,0,2.63415e-06,-6.64385e+08,-6.6432e+08,-6.6443e+08,180703,-0.0128572,0.00943368,-0,0.0159468,9917.55,-24192.7,0,26146.6,180703
step02_gravity_refstate-crust.xmf,234,6.04658e-07,1.96912e-06,0,3.0666e-06,-6.87669e+08,-6.87575e+08,-6.8771e+08,210369,-0.0137045,-0.000432312,-0,0.0137113,8465.23,-25040.8,0,26432.9,210369
step02_gravity_refstate-crust.xmf,235,9.55833e-07,1.68011e-06,0,3.17618e-06,-7.3426e+08,-7.3421e+08,-7.34325e+08,217886,-0.0133383,-0.0050683,-0,0.0142688,8234.56,-26737.9,0,27977.2,217886
step02_gravity_refstate-crust.xmf,236,1.05745e-06,1.12537e-06,0,2.40614e-06,-7.37301e+08,-7.37296e+08,-7.37374e+08,165061,-0.0111482,0.00790202,-0,0.0136647,10292.9,-26848.2,0,28753.6,165061
step02_gravity_refstate-crust.xmf,237,6.75331e-07,9.07332e-07,0,1.47335e-06,-6.06106e+08,-6.0609e+08,-6.06152e+08,101072,-0.00854094,0.0411899,-0,0.0420661,16839.8,-22070,0,27760.9,101072
step02_gravity_refstate-crust.xmf,238,6.51438e-07,8.84505e-07,0,1.31029e-06,-6.09539e+08,-6.09523e+08,-6.09583e+08,89886.1,-0.00757749,0.0454844,-0,0.0461113,18218.6,-22194.9,0,28714.6,89886.1
step02_gravity_refstate-crust.xmf,239,5.27065e-07,8.87693e-07,0,9.90459e-07,-5.81941e+08,-5.81917e+08,-5.81977e+08,67945.5,-0.00573568,0.0569335,-0,0.0572217,22105.6,-21189.7,0,30621.2,67945.5
step02_gravity_refstate-crust.xmf,240,4.14185e-07,9.35551e-07,0,6.97009e-07,-5.53805e+08,-5.53769e+08,-5.53833e+08,47814.8,-0.00400219,0.0672979,-0,0.0674168,26679.4,-20164.9,0,33442.7,47814.8
step02_gravity_refstate-crust.xmf,241,4.59397e-07,8.95162e-07,0,8.23626e-07,-5.53179e+08,-5.5315e+08,-5.53211e+08,56500.7,-0.00483036,0.0637748,-0,0.0639575,24789.6,-20142.3,0,31941.2,56500.7
step02_gravity_refstate-crust.xmf,242,9.67301e-07,1.03008e-06,0,2.0663e-06,-7.13524e+08,-7.1352e+08,-7.1359e+08,141748,-0.010353,0.0172362,-0,0.0201065,11856.5,-25982.1,0,28559.5,141748
step02_gravity_refstate-crust.xmf,243,8.74676e-07,9.65393e-07,0,1.79051e-06,-6.88325e+08,-6.88319e+08,-6.88385e+08,122829,-0.00950976,0.0259142,-0,0.027604,13537.6,-25064.2,0,28486.5,122829
step02_gravity_refstate-crust.xmf,244,3.713e-07,9.76502e-07,0,5.79681e-07,-5.53238e+08,-5.53196e+08,-5.53263e+08,39766.1,-0.00325795,0.0704158,-0,0.0704911,28606.1,-20144.2,0,34987.1,39766.1
step02_gravity_refstate-crust.xmf,245,2.67949e-07,1.09161e-06,0,2.38416e-07,-5.54406e+08,-5.5435e+08,-5.54425e+08,16355.3,-0.00124993,0.077098,-0,0.0771081,35007.7,-20186.5,0,40410.8,16355.3
step02_gravity_refstate-crust.xmf,246,2.91932e-07,1.06718e-06,0,3.47451e-07,-5.57405e+08,-5.57352e+08,-5.57425e+08,23835.1,-0.00184138,0.075274,-0,0.0752965,32805.8,-20295.7,0,38576.4,23835.1
step02_gravity_refstate-crust.xmf,247,3.29722e-07,1.02188e-06,0,4.63325e-07,-5.54707e+08,-5.54659e+08,-5.54729e+08,31784.1,-0.00253325,0.073088,-0,0.0731319,30643,-20197.6,0,36700.6,31784.1
step02_gravity_refstate-crust.xmf,248,2.18111e-07,1.17004e-06,0,9.5289e-10,-5.74468e+08,-5.74403e+08,-5.74483e+08,65.3682,-2.60572e-20,0.0778396,-0,0.0778396,40000,-20916.8,0,45138.8,65.3682
step02_gravity_refstate-crust.xmf,249,3.33756e-07,1.25859e-06,0,1.90407e-06,-5.14862e+08,-5.14799e+08,-5.14885e+08,130619,-0.0108825,0.0318739,-0,0.0336805,13234,-18747.4,0,22947.8,130619
step02_gravity_refstate-crust.xmf,250,3.09781e-07,1.57189e-06,0,2.21959e-06,-5.64599e+08,-5.64512e+08,-5.6462e+08,152264,-0.0118749,0.0214572,-0,0.0245239,11217.9,-20558.5,0,23419.9,152264
step02_gravity_refstate-crust.xmf,251,2.9063e-07,1.44977e-06,0,2.0761e-06,-5.38143e+08,-5.38063e+08,-5.38163e+08,142420,-0.0114352,0.0258921,-0,0.0283048,11953.8,-19595.1,0,22953.4,142420
step02_gravity_refstate-crust.xmf,252,1.68082e-07,1.19039e-06,0,1.74239e-06,-4.47723e+08,-4.47653e+08,-4.47735e+08,119528,-0.0103928,0.0359965,-0,0.0374668,13553.9,-16302.3,0,21200.8,119528
step02_gravity_refstate-crust.xmf,253,3.5241e-08,9.46376e-07,0,1.44286e-06,-3.43217e+08,-3.43155e+08,-3.4322e+08,98979.9,-0.00992393,0.0437528,-0,0.0448641,14738,-12496.8,0,19323,98979.9
step02_gravity_refstate-crust.xmf,254,2.93316e-07,5.02978e-08,0,3.01182e-07,-5.50136e+07,-5.50302e+07,-5.50337e+07,20661.1,-0.0167177,0.0649829,-0,0.0670989,21009.4,-2004.09,0,21104.7,20661.1
step02_gravity_refstate-crust.xmf,255,4.73556e-07,-1.80167e-07,0,1.53156e-09,44964.4,118.997,12478.4,105.065,-0.0200358,0.0666731,-0,0.0696185,21869,0,0,21869,105.065
step02_gravity_refstate-crust.xmf,256,1.28544e-07,2.39367e-07,0,5.40682e-07,-1.01876e+08,-1.01868e+08,-1.01885e+08,37090.8,-0.0145839,0.0614147,-0,0.0631225,19534.4,-3709.78,0,19883.6,37090.8
step02_gravity_refstate-crust.xmf,257,4.1693e-08,3.83806e-07,0,7.40209e-07,-1.44185e+08,-1.44162e+08,-1.44188e+08,50778.3,-0.0129719,0.0582176,-0,0.0596453,18389.9,-5249.97,0,19124.6,50778.3
step02_gravity_refstate-crust.xmf,258,-2.34522e-08,5.19788e-07,0,9.17694e-07,-1.84207e+08,-1.8417e+08,-1.84206e+08,62953.8,-0.0117742,0.0544902,-0,0.0557477,17149,-6706.96,0,18413.9,62953.8
step02_gravity_refstate-crust.xmf,259,6.88315e-07,2.02984e-06,0,3.27781e-06,-7.08822e+08,-7.0873e+08,-7.08869e+08,224858,-0.0139397,-0.00525779,-0,0.0148983,7955.49,-25811.3,0,27009.5,224858
step02_gravity_refstate-crust.xmf,260,5.29237e-07,1.90421e-06,0,2.87295e-06,-6.6553e+08,-6.65436e+08,-6.65567e+08,197085,-0.0134155,0.00415992,-0,0.0140456,8976.79,-24234.4,0,25843.5,197085
step02_gravity_refstate-crust.xmf,261,8.62703e-07,1.99025e-06,0,3.54999e-06,-7.40751e+08,-7.40674e+08,-7.4081e+08,243529,-0.0140014,-0.0120045,-0,0.0184431,7343.45,-26974.4,0,27956.1,243529
step02_gravity_refstate-crust.xmf,262,1.09248e-06,1.55833e-06,0,3.25148e-06,-7.59728e+08,-7.59696e+08,-7.59803e+08,223051,-0.01292,-0.00910565,-0,0.0158063,7886.74,-27665.5,0,28767.7,223051
step02_gravity_refstate-crust.xmf,263,1.15502e-06,1.27202e-06,0,2.84892e-06,-7.60995e+08,-7.60987e+08,-7.61074e+08,195436,-0.0118449,-0.00256926,-0,0.0121203,8800.99,-27711.4,0,29075.4,195436
step02_gravity_refstate-crust.xmf,264,1.14768e-06,1.08145e-06,0,2.48178e-06,-7.61498e+08,-7.61503e+08,-7.61577e+08,170250,-0.0107327,0.00368866,-0,0.0113489,9756.75,-27729.4,0,29395.8,170250
step02_gravity_refstate-crust.xmf,265,1.03692e-06,9.982e-07,0,2.11392e-06,-7.38301e+08,-7.38304e+08,-7.38372e+08,145015,-0.0100651,0.0134083,-0,0.0167657,11291.2,-26884.3,0,29159.2,145015
step02_gravity_refstate-crust.xmf,266,6.07447e-07,8.86157e-07,0,1.15482e-06,-6.12329e+08,-6.1231e+08,-6.12371e+08,79220.9,-0.00661396,0.0496638,-0,0.0501023,19677.8,-22296.3,0,29737.9,79220.9
step02_gravity_refstate-crust.xmf,267,5.61577e-07,9.1142e-07,0,1.01989e-06,-6.15583e+08,-6.15559e+08,-6.15622e+08,69964.1,-0.00569892,0.0534714,-0,0.0537742,21148.8,-22414.6,0,30817,69964.1
step02_gravity_refstate-crust.xmf,268,4.7758e-07,9.36323e-07,0,8.50817e-07,-5.95706e+08,-5.95675e+08,-5.95739e+08,58366,-0.00473592,0.0600214,-0,0.060208,23667.2,-21690.7,0,32103.3,58366
step02_gravity_refstate-crust.xmf,269,7.296e-07,9.13696e-07,0,1.50647e-06,-6.36264e+08,-6.36251e+08,-6.36314e+08,103344,-0.00854891,0.0377952,-0,0.03875,16141,-23168.2,0,28236.4,103344
step02_gravity_refstate-crust.xmf,270,9.36517e-07,9.46906e-07,0,1.82221e-06,-7.1487e+08,-7.14869e+08,-7.14934e+08,125004,-0.00928258,0.0223249,-0,0.0241778,12936.3,-26030.8,0,29068,125004
step02_gravity_refstate-crust.xmf,271,7.8446e-07,9.17613e-07,0,1.54267e-06,-6.6435e+08,-6.64341e+08,-6.64404e+08,105827,-0.00851629,0.0343018,-0,0.0353431,15434.1,-24190.9,0,28695.2,105827
step02_gravity_refstate-crust.xmf,272,8.37896e-07,9.16711e-07,0,1.58748e-06,-6.89563e+08,-6.89557e+08,-6.8962e+08,108901,-0.0084867,0.030626,-0,0.0317801,14694.2,-25109,0,29092.6,108901
step02_gravity_refstate-crust.xmf,273,2.09097e-07,1.20199e-06,0,1.69766e-07,-5.94201e+08,-5.94133e+08,-5.94215e+08,11646,-0.000752744,0.0761048,-0,0.0761085,36223.8,-21635.2,0,42193,11646
step02_gravity_refstate-crust.xmf,274,1.76043e-07,1.26107e-06,0,8.95568e-08,-6.12266e+08,-6.12192e+08,-6.12278e+08,6143.6,-0.000354444,0.0759084,-0,0.0759092,37950.3,-22292.8,0,44013.6,6143.6
step02_gravity_refstate-crust.xmf,275,3.31842e-07,1.68474e-06,0,2.37119e-06,-5.90056e+08,-5.89963e+08,-5.90078e+08,162663,-0.012314,0.0169511,-0,0.0209517,10528.2,-21485.5,0,23926.3,162663
step02_gravity_refstate-crust.xmf,276,3.13063e-08,1.08929e-06,0,1.56319e-06,-3.77285e+08,-3.77213e+08,-3.77287e+08,107235,-0.0100037,0.0397891,-0,0.0410274,13824.5,-13737.3,0,19489.2,107235
step02_gravity_refstate-crust.xmf,277,2.92687e-08,1.23234e-06,0,1.68316e-06,-4.11107e+08,-4.11025e+08,-4.11109e+08,115465,-0.0102039,0.0357244,-0,0.0371531,12970.2,-14968.8,0,19806.3,115465
step02_gravity_refstate-crust.xmf,278,1.75734e-07,1.31784e-06,0,1.86739e-06,-4.78389e+08,-4.78311e+08,-4.78402e+08,128103,-0.0107585,0.0317314,-0,0.0335057,12714.3,-17419,0,21565.6,128103
step02_gravity_refstate-crust.xmf,279,-5.20835e-08,6.45238e-07,0,1.07122e-06,-2.23111e+08,-2.23063e+08,-2.23107e+08,73486,-0.0109094,0.0510963,-0,0.0522479,16145.3,-8123.37,0,18073.8,73486
step02_gravity_refstate-crust.xmf,280,-6.30851e-08,7.80108e-07,0,1.21857e-06,-2.64123e+08,-2.64065e+08,-2.64119e+08,83594.2,-0.0103062,0.0474984,-0,0.0486037,15186.6,-9616.62,0,17975.3,83594.2
step02_gravity_refstate-crust.xmf,281,-7.69784e-08,9.26459e-07,0,1.35213e-06,-3.02964e+08,-3.02896e+08,-3.02959e+08,92755.8,-0.00998461,0.0435274,-0,0.0446579,14174.7,-11030.8,0,17961.1,92755.8
step02_gravity_refstate-crust.xmf,282,1.02307e-06,1.9204e-06,0,3.71149e-06,-7.6302e+08,-7.62959e+08,-7.6309e+08,254608,-0.0137396,-0.0163907,-0,0.0213877,6995.05,-27785.6,0,28652.6,254608
step02_gravity_refstate-crust.xmf,283,6.92049e-07,2.15715e-06,0,3.4847e-06,-7.21871e+08,-7.21771e+08,-7.21919e+08,239050,-0.0141851,-0.00977838,-0,0.0172288,7449.72,-26286.6,0,27321.8,239050
step02_gravity_refstate-crust.xmf,284,3.70502e-07,1.79769e-06,0,2.54056e-06,-6.1531e+08,-6.15212e+08,-6.15335e+08,174282,-0.0127339,0.0125172,-0,0.0178559,9922.57,-22405.2,0,24504.1,174282
step02_gravity_refstate-crust.xmf,285,4.56099e-07,1.8404e-06,0,2.69823e-06,-6.41898e+08,-6.41803e+08,-6.41929e+08,185098,-0.0130896,0.00849284,-0,0.0156034,9474.66,-23373.6,0,25220.9,185098
step02_gravity_refstate-crust.xmf,286,3.23668e-07,2.29789e-06,0,3.10525e-06,-6.65162e+08,-6.65026e+08,-6.65184e+08,213020,-0.0138103,-0.00123403,-0,0.0138653,8044.39,-24220.7,0,25521.7,213020
step02_gravity_refstate-crust.xmf,287,3.70541e-07,2.42215e-06,0,3.34028e-06,-6.85986e+08,-6.85846e+08,-6.86012e+08,229143,-0.0141489,-0.00613319,-0,0.015421,7542.65,-24979.3,0,26093.2,229143
step02_gravity_refstate-crust.xmf,288,9.89433e-07,2.1631e-06,0,4.06404e-06,-7.73628e+08,-7.73548e+08,-7.73696e+08,278793,-0.0140003,-0.0227266,-0,0.0266928,6359.35,-28172.1,0,28880.9,278793
step02_gravity_refstate-crust.xmf,289,1.20178e-06,1.66509e-06,0,3.6984e-06,-7.88253e+08,-7.88222e+08,-7.88336e+08,253710,-0.0127755,-0.0192767,-0,0.0231258,6853.12,-28704.6,0,29511.3,253710
step02_gravity_refstate-crust.xmf,290,1.17993e-06,1.51708e-06,0,3.37611e-06,-7.78356e+08,-7.78333e+08,-7.78437e+08,231601,-0.012533,-0.0131603,-0,0.0181733,7503.34,-28344,0,29320.3,231601
step02_gravity_refstate-crust.xmf,291,1.09447e-06,9.57446e-07,0,2.15316e-06,-7.62228e+08,-7.62237e+08,-7.62303e+08,147707,-0.00959886,0.00953166,-0,0.0135274,10741.8,-27755.6,0,29761.7,147707
step02_gravity_refstate-crust.xmf,292,6.98523e-07,8.9635e-07,0,1.33123e-06,-6.41027e+08,-6.41013e+08,-6.41075e+08,91322.4,-0.0074868,0.0422202,-0,0.0428789,17504.5,-23341.4,0,29175.9,91322.4
step02_gravity_refstate-crust.xmf,293,6.49322e-07,9.0536e-07,0,1.1737e-06,-6.45675e+08,-6.45657e+08,-6.45719e+08,80516,-0.00647615,0.0462585,-0,0.0467096,18869,-23510.5,0,30146,80516
step02_gravity_refstate-crust.xmf,294,5.18308e-07,9.35924e-07,0,9.25623e-07,-6.14131e+08,-6.14102e+08,-6.14166e+08,63497.7,-0.00507955,0.0564441,-0,0.0566722,22350.6,-22361.6,0,31616.3,63497.7
step02_gravity_refstate-crust.xmf,295,3.61699e-07,1.0471e-06,0,5.97086e-07,-5.99399e+08,-5.99352e+08,-5.99424e+08,40960.1,-0.00303719,0.0671939,-0,0.0672625,27608.9,-21824.8,0,35193.4,40960.1
step02_gravity_refstate-crust.xmf,296,4.1859e-07,9.93291e-07,0,7.1582e-07,-5.98549e+08,-5.98509e+08,-5.98577e+08,49105.2,-0.00380247,0.063896,-0,0.064009,25660.3,-21794,0,33666.4,49105.2
step02_gravity_refstate-crust.xmf,297,9.89748e-07,9.22348e-07,0,1.85031e-06,-7.40018e+08,-7.40023e+08,-7.40086e+08,126931,-0.00893326,0.0186641,-0,0.0206918,12340.2,-26946.5,0,29637.8,126931
step02_gravity_refstate-crust.xmf,298,8.84532e-07,9.0611e-07,0,1.60479e-06,-7.1632e+08,-7.16319e+08,-7.16381e+08,110088,-0.00820577,0.0271875,-0,0.0283988,14065.3,-26083.3,0,29634,110088
step02_gravity_refstate-crust.xmf,299,3.10977e-07,1.10001e-06,0,4.89222e-07,-6.01074e+08,-6.0102e+08,-6.01096e+08,33560.6,-0.00237277,0.0699065,-0,0.0699467,29537.1,-21885.7,0,36761.7,33560.6
step02_gravity_refstate-crust.xmf,300,2.13883e-07,1.21791e-06,0,2.64592e-07,-6.12327e+08,-6.12258e+08,-6.12342e+08,18151,-0.00111171,0.0739724,-0,0.0739808,33998.4,-22295.1,0,40656.7,18151
step02_gravity_refstate-crust.xmf,301,2.64281e-07,1.15404e-06,0,3.85293e-07,-6.04721e+08,-6.0466e+08,-6.04739e+08,26431.1,-0.00176546,0.0720994,-0,0.072121,31523.4,-22018.3,0,38451.6,26431.1
step02_gravity_refstate-crust.xmf,302,1.34003e-07,1.34185e-06,0,1.00775e-09,-6.40906e+08,-6.40823e+08,-6.40915e+08,69.1318,-1.38494e-20,0.0748019,-0,0.0748019,40000,-23335.4,0,46309.2,69.1318
step02_gravity_refstate-crust.xmf,303,1.37241e-07,1.852e-06,0,2.34281e-06,-5.63163e+08,-5.63045e+08,-5.63172e+08,160717,-0.0121143,0.0166898,-0,0.020623,10074.9,-20505.9,0,22847.2,160717
step02_gravity_refstate-crust.xmf,304,1.38206e-07,1.68999e-06,0,2.1813e-06,-5.36286e+08,-5.3618e+08,-5.36296e+08,149637,-0.0116662,0.0213791,-0,0.024355,10789.1,-19527.2,0,22309.6,149637
step02_gravity_refstate-crust.xmf,305,1.6925e-07,1.47527e-06,0,2.00085e-06,-5.05344e+08,-5.05254e+08,-5.05355e+08,137258,-0.0111519,0.0272981,-0,0.0294881,11865,-18400.5,0,21894.2,137258
step02_gravity_refstate-crust.xmf,306,2.37e-08,1.37424e-06,0,1.80447e-06,-4.43756e+08,-4.43663e+08,-4.43757e+08,123786,-0.0104965,0.0314909,-0,0.0331942,12144.1,-16157.6,0,20212.6,123786
step02_gravity_refstate-crust.xmf,307,-9.46214e-08,1.07015e-06,0,1.46987e-06,-3.38511e+08,-3.38431e+08,-3.38505e+08,100833,-0.00987563,0.0394908,-0,0.0407069,13205.8,-12325.1,0,18063.9,100833
step02_gravity_refstate-crust.xmf,308,2.08495e-07,-7.806e-08,0,3.96355e-09,19850.5,192.762,5547.68,271.899,-0.0208194,0.0618758,-0,0.0652844,19595.1,0,0,19595.1,271.899
step02_gravity_refstate-crust.xmf,309,4.59657e-08,1.35643e-07,0,3.12418e-07,-5.10974e+07,-5.10912e+07,-5.11005e+07,21431.9,-0.0173661,0.0595182,-0,0.062,18564.3,-1860.65,0,18657.3,21431.9
step02_gravity_refstate-crust.xmf,310,-6.27914e-08,3.05634e-07,0,5.59033e-07,-9.70034e+07,-9.69781e+07,-9.69991e+07,38349.6,-0.014877,0.0565721,-0,0.0584955,17462.9,-3531.73,0,17816.5,38349.6
step02_gravity_refstate-crust.xmf,311,-1.27585e-07,4.52379e-07,0,7.64949e-07,-1.39844e+08,-1.39804e+08,-1.39835e+08,52475.5,-0.0130374,0.0534072,-0,0.0549755,16401.9,-5091.33,0,17173.9,52475.5
step02_gravity_refstate-crust.xmf,312,-1.62172e-07,5.90572e-07,0,9.41767e-07,-1.81272e+08,-1.8122e+08,-1.81261e+08,64605.2,-0.0116857,0.0501587,-0,0.051502,15415.3,-6599.65,0,16768.7,64605.2
step02_gravity_refstate-crust.xmf,313,7.47436e-07,2.55116e-06,0,4.18184e-06,-7.56343e+08,-7.56219e+08,-7.56394e+08,286874,-0.0146385,-0.0228917,-0,0.027172,6176.31,-27542.4,0,28226.4,286874
step02_gravity_refstate-crust.xmf,314,1.09135e-06,2.11184e-06,0,4.22774e-06,-7.89212e+08,-7.89142e+08,-7.89287e+08,290023,-0.0136338,-0.026869,-0,0.0301301,6050.94,-28739.7,0,29369.8,290023
step02_gravity_refstate-crust.xmf,315,7.90939e-07,2.67552e-06,0,4.48483e-06,-7.71319e+08,-7.7119e+08,-7.71374e+08,307659,-0.0146422,-0.0285348,-0,0.0320722,5721.35,-28088,0,28664.8,307659
step02_gravity_refstate-crust.xmf,316,7.37874e-07,2.39721e-06,0,3.91969e-06,-7.44283e+08,-7.44169e+08,-7.44333e+08,268891,-0.0145049,-0.0179137,-0,0.0230498,6632.84,-27103,0,27902.9,268891
step02_gravity_refstate-crust.xmf,317,4.10103e-07,2.56445e-06,0,3.60081e-06,-7.05048e+08,-7.049e+08,-7.05076e+08,247015,-0.0144481,-0.0112791,-0,0.0183293,7036.88,-25673.6,0,26620.5,247015
step02_gravity_refstate-crust.xmf,318,4.89662e-07,2.69104e-06,0,3.9063e-06,-7.25588e+08,-7.25437e+08,-7.25621e+08,267972,-0.0146995,-0.0169286,-0,0.0224199,6539.59,-26421.9,0,27219.2,267972
step02_gravity_refstate-crust.xmf,319,2.73237e-07,2.18063e-06,0,2.89048e-06,-6.42474e+08,-6.42343e+08,-6.42493e+08,198287,-0.0134337,0.00344013,-0,0.0138672,8539.7,-23394.4,0,24904.3,198287
step02_gravity_refstate-crust.xmf,320,1.13511e-06,2.08648e-06,0,4.44688e-06,-8.06685e+08,-8.0662e+08,-8.06763e+08,305056,-0.0130265,-0.0323325,-0,0.034858,5652.23,-29376,0,29914.8,305056
step02_gravity_refstate-crust.xmf,321,8.72009e-07,2.72849e-06,0,4.78701e-06,-7.88231e+08,-7.88103e+08,-7.8829e+08,328389,-0.0143996,-0.0343749,-0,0.0372691,5312.33,-28704.1,0,29191.5,328389
step02_gravity_refstate-crust.xmf,322,1.24317e-06,1.20898e-06,0,2.96145e-06,-7.85549e+08,-7.85551e+08,-7.85634e+08,203155,-0.0112343,-0.00765358,-0,0.0135936,8250.88,-28605.6,0,29771.8,203155
step02_gravity_refstate-crust.xmf,323,1.25777e-06,1.31208e-06,0,3.25575e-06,-7.94847e+08,-7.94843e+08,-7.94933e+08,223344,-0.0115436,-0.0137683,-0,0.0179672,7533.23,-28944.3,0,29908.6,223344
step02_gravity_refstate-crust.xmf,324,1.20845e-06,1.02039e-06,0,2.53524e-06,-7.8469e+08,-7.84703e+08,-7.84773e+08,173918,-0.0100716,-0.000469988,-0,0.0100825,9253.71,-28573.9,0,30035,173918
step02_gravity_refstate-crust.xmf,325,1.14473e-06,9.16672e-07,0,2.19287e-06,-7.85263e+08,-7.85278e+08,-7.85341e+08,150431,-0.00891891,0.00565188,-0,0.0105589,10215.3,-28594.3,0,30364.3,150431
step02_gravity_refstate-crust.xmf,326,1.02952e-06,8.93315e-07,0,1.87438e-06,-7.63856e+08,-7.63865e+08,-7.63926e+08,128582,-0.00843895,0.0149615,-0,0.0171774,11757.3,-27814.5,0,30197.3,128582
step02_gravity_refstate-crust.xmf,327,5.83421e-07,9.33306e-07,0,1.02564e-06,-6.48837e+08,-6.48813e+08,-6.48877e+08,70359.2,-0.0055022,0.0502656,-0,0.0505659,20343.8,-23625.4,0,31177.3,70359.2
step02_gravity_refstate-crust.xmf,328,5.16232e-07,9.78498e-07,0,8.93297e-07,-6.50149e+08,-6.50117e+08,-6.50184e+08,61280.2,-0.00458696,0.0542675,-0,0.054461,21959.3,-23672.9,0,32289.6,61280.2
step02_gravity_refstate-crust.xmf,329,4.74991e-07,9.89772e-07,0,8.29556e-07,-6.33134e+08,-6.33098e+08,-6.33166e+08,56907.5,-0.00429595,0.0577627,-0,0.0579222,23229.9,-23053.3,0,32727.4,56907.5
step02_gravity_refstate-crust.xmf,330,7.35108e-07,9.0095e-07,0,1.33595e-06,-6.71403e+08,-6.71391e+08,-6.71453e+08,91646.5,-0.00727734,0.0390446,-0,0.039717,16842.2,-24447.5,0,29687.3,91646.5
step02_gravity_refstate-crust.xmf,331,9.22765e-07,8.89681e-07,0,1.61684e-06,-7.42308e+08,-7.4231e+08,-7.42372e+08,110915,-0.00778787,0.0236519,-0,0.0249011,13438.5,-27029.6,0,30185.9,110915
step02_gravity_refstate-crust.xmf,332,7.79093e-07,9.01989e-07,0,1.37311e-06,-6.96261e+08,-6.96253e+08,-6.96314e+08,94195.3,-0.00721903,0.0353893,-0,0.0361181,16023.8,-25352.6,0,29992,94195.3
step02_gravity_refstate-crust.xmf,333,8.18198e-07,8.98513e-07,0,1.40681e-06,-7.19756e+08,-7.1975e+08,-7.19812e+08,96507.3,-0.00708185,0.031754,-0,0.0325342,15245.2,-26208.1,0,30319.7,96507.3
step02_gravity_refstate-crust.xmf,334,1.50384e-07,1.3257e-06,0,1.65349e-07,-6.43471e+08,-6.43391e+08,-6.43482e+08,11342.9,-0.000552283,0.0737234,-0,0.0737254,35981,-23428.9,0,42936.6,11342.9
step02_gravity_refstate-crust.xmf,335,9.56652e-08,1.4226e-06,0,7.79958e-08,-6.73016e+08,-6.72925e+08,-6.73023e+08,5350.51,-0.00018611,0.0729501,-0,0.0729503,37989.1,-24504.4,0,45206.6,5350.51
step02_gravity_refstate-crust.xmf,336,1.43169e-07,1.99552e-06,0,2.51229e-06,-5.89003e+08,-5.88875e+08,-5.89012e+08,172343,-0.012562,0.0120241,-0,0.0173891,9434.56,-21446.9,0,23430.3,172343
step02_gravity_refstate-crust.xmf,337,-1.08012e-07,1.24311e-06,0,1.58984e-06,-3.73623e+08,-3.7353e+08,-3.73615e+08,109063,-0.00992903,0.0354814,-0,0.0368445,12344.7,-13603.6,0,18369.8,109063
step02_gravity_refstate-crust.xmf,338,-1.23222e-07,1.41619e-06,0,1.70957e-06,-4.07921e+08,-4.07815e+08,-4.07912e+08,117277,-0.0101104,0.0313811,-0,0.0329696,11546.7,-14852.5,0,18812.8,117277
step02_gravity_refstate-crust.xmf,339,8.76667e-09,1.54047e-06,0,1.93436e-06,-4.74137e+08,-4.74032e+08,-4.74138e+08,132697,-0.0108434,0.0270559,-0,0.0291479,11323.1,-17263.9,0,20645.9,132697
step02_gravity_refstate-crust.xmf,340,-1.82707e-07,7.34381e-07,0,1.09835e-06,-2.22354e+08,-2.22291e+08,-2.22341e+08,75347,-0.0107208,0.0466614,-0,0.0478772,14436,-8095.4,0,16551,75347
step02_gravity_refstate-crust.xmf,341,-1.98336e-07,8.86242e-07,0,1.23488e-06,-2.61778e+08,-2.61703e+08,-2.61764e+08,84712.4,-0.0101037,0.0430072,-0,0.0441781,13486.1,-9530.85,0,16514,84712.4
step02_gravity_refstate-crust.xmf,342,-2.16345e-07,1.04943e-06,0,1.35587e-06,-2.99167e+08,-2.9908e+08,-2.99152e+08,93012.6,-0.00975685,0.0392163,-0,0.0404118,12566.2,-10892.2,0,16629.8,93012.6
step02_gravity_refstate-crust.xmf,343,3.57918e-07,3.09843e-06,0,4.27749e-06,-7.37154e+08,-7.36966e+08,-7.37179e+08,293436,-0.0149777,-0.0236588,-0,0.0280012,5861.04,-26843.1,0,27475.5,293436
step02_gravity_refstate-crust.xmf,344,1.59619e-07,2.18027e-06,0,2.73073e-06,-6.16133e+08,-6.15994e+08,-6.16144e+08,187328,-0.0130435,0.00686028,-0,0.0147376,8792.51,-22435,0,24096.4,187328
step02_gravity_refstate-crust.xmf,345,3.83302e-08,3.00037e-06,0,3.58413e-06,-6.84325e+08,-6.84122e+08,-6.84327e+08,245871,-0.0143157,-0.0120089,-0,0.0186856,6625.82,-24918.3,0,25784.2,245871
step02_gravity_refstate-crust.xmf,346,3.25714e-08,2.61359e-06,0,3.07773e-06,-6.44342e+08,-6.44164e+08,-6.44344e+08,211132,-0.0136038,-0.00194284,-0,0.0137418,7601.4,-23462.1,0,24662.7,211132
step02_gravity_refstate-crust.xmf,347,3.74539e-08,2.79439e-06,0,3.31277e-06,-6.64542e+08,-6.64353e+08,-6.64545e+08,227256,-0.0139682,-0.00675865,-0,0.0155174,7120.62,-24197.8,0,25223.7,227256
step02_gravity_refstate-crust.xmf,348,9.06755e-07,2.825e-06,0,5.13782e-06,-8.06655e+08,-8.06524e+08,-8.06717e+08,352455,-0.01384,-0.0413621,-0,0.0436162,4861.08,-29375.1,0,29774.6,352455
step02_gravity_refstate-crust.xmf,349,1.25805e-06,1.62854e-06,0,3.8939e-06,-8.0753e+08,-8.07504e+08,-8.07616e+08,267121,-0.0120866,-0.0247624,-0,0.0275547,6391.67,-29406.5,0,30093.2,267121
step02_gravity_refstate-crust.xmf,350,1.15256e-06,2.05377e-06,0,4.68271e-06,-8.24241e+08,-8.24179e+08,-8.2432e+08,321234,-0.0120208,-0.0377369,-0,0.0396052,5293.34,-30015.2,0,30478.3,321234
step02_gravity_refstate-crust.xmf,351,1.29322e-06,1.3016e-06,0,3.39859e-06,-8.08888e+08,-8.08888e+08,-8.08977e+08,233144,-0.0110462,-0.0178703,-0,0.0210087,7135.38,-29455.6,0,30307.6,233144
step02_gravity_refstate-crust.xmf,352,1.05058e-06,8.60653e-07,0,1.89318e-06,-7.86922e+08,-7.86935e+08,-7.86994e+08,129872,-0.0077551,0.0112058,-0,0.0136276,11189.4,-28654.3,0,30761.5,129872
step02_gravity_refstate-crust.xmf,353,6.80915e-07,9.18841e-07,0,1.17742e-06,-6.77317e+08,-6.77301e+08,-6.77364e+08,80770.9,-0.00621428,0.043002,-0,0.0434487,18134.6,-24662.6,0,30612.2,80770.9
step02_gravity_refstate-crust.xmf,354,6.12349e-07,9.56061e-07,0,1.03351e-06,-6.82937e+08,-6.82914e+08,-6.82979e+08,70898.8,-0.00521053,0.0467172,-0,0.0470069,19470.7,-24867,0,31582.8,70898.8
step02_gravity_refstate-crust.xmf,355,4.20632e-07,1.05203e-06,0,7.22824e-07,-6.44921e+08,-6.44878e+08,-6.4495e+08,49585.7,-0.00347233,0.0601146,-0,0.0602148,24580.5,-23482.3,0,33994.4,49585.7
step02_gravity_refstate-crust.xmf,356,2.92089e-07,1.17446e-06,0,5.03337e-07,-6.45665e+08,-6.45604e+08,-6.45685e+08,34528.9,-0.00209514,0.0666158,-0,0.0666487,28475.6,-23509.1,0,36926.1,34528.9
step02_gravity_refstate-crust.xmf,357,3.5092e-07,1.11484e-06,0,6.04416e-07,-6.44395e+08,-6.44343e+08,-6.44419e+08,41462.9,-0.00271068,0.0637916,-0,0.0638491,26601.8,-23463,0,35470.7,41462.9
step02_gravity_refstate-crust.xmf,358,9.4676e-07,8.6995e-07,0,1.62538e-06,-7.66873e+08,-7.66878e+08,-7.66937e+08,111501,-0.0072326,0.0200802,-0,0.0213431,12824,-27923.9,0,30727.8,111501
step02_gravity_refstate-crust.xmf,359,8.44038e-07,8.91807e-07,0,1.41696e-06,-7.44918e+08,-7.44915e+08,-7.44976e+08,97203.1,-0.00668241,0.0282881,-0,0.0290667,14565.6,-27124.3,0,30787.7,97203.1
step02_gravity_refstate-crust.xmf,360,2.40638e-07,1.23176e-06,0,4.12502e-07,-6.48739e+08,-6.48671e+08,-6.48756e+08,28297.6,-0.00157722,0.068806,-0,0.068824,30279.6,-23620.9,0,38403.2,28297.6
step02_gravity_refstate-crust.xmf,361,1.87047e-07,1.30155e-06,0,3.20207e-07,-6.58874e+08,-6.58797e+08,-6.58887e+08,21966.2,-0.0010622,0.0703052,-0,0.0703132,32156.5,-23989.7,0,40119.2,21966.2
step02_gravity_refstate-crust.xmf,362,1.28683e-07,1.38785e-06,0,2.24601e-07,-6.76135e+08,-6.76048e+08,-6.76144e+08,15407.6,-0.000579718,0.071105,-0,0.0711073,34225.1,-24618,0,42159.2,15407.6
step02_gravity_refstate-crust.xmf,363,4.29744e-08,1.5225e-06,0,8.45336e-10,-7.06771e+08,-7.0667e+08,-7.06774e+08,57.99,-1.22409e-21,0.071368,-0,0.071368,40000,-25733.2,0,47562.6,57.99
step02_gravity_refstate-crust.xmf,364,-8.25196e-08,2.18511e-06,0,2.42849e-06,-5.6133e+08,-5.61175e+08,-5.61325e+08,166595,-0.0121151,0.0120166,-0,0.0170638,8962.04,-20438.8,0,22317.4,166595
step02_gravity_refstate-crust.xmf,365,-6.00395e-08,1.98811e-06,0,2.26029e-06,-5.34928e+08,-5.34788e+08,-5.34924e+08,155056,-0.0116932,0.0166854,-0,0.0203748,9600.99,-19477.4,0,21715.2,155056
step02_gravity_refstate-crust.xmf,366,-2.1549e-08,1.75747e-06,0,2.08606e-06,-5.04158e+08,-5.04036e+08,-5.04157e+08,143103,-0.0112413,0.0220917,-0,0.0247873,10453.8,-18357,0,21124.9,143103
step02_gravity_refstate-crust.xmf,367,-1.45437e-07,1.58986e-06,0,1.83219e-06,-4.4084e+08,-4.40721e+08,-4.4083e+08,125689,-0.0103804,0.0270993,-0,0.0290194,10776.2,-16051.1,0,19333,125689
step02_gravity_refstate-crust.xmf,368,-3.08764e-07,6.67933e-07,0,9.4962e-07,-1.80038e+08,-1.79971e+08,-1.80016e+08,65143.9,-0.0113035,0.0458017,-0,0.0471759,13672.6,-6554.23,0,15162.3,65143.9
step02_gravity_refstate-crust.xmf,369,-2.39998e-07,1.21586e-06,0,1.46703e-06,-3.35079e+08,-3.34979e+08,-3.35062e+08,100638,-0.00961091,0.0352912,-0,0.0365765,11684.2,-12199.8,0,16892.5,100638
step02_gravity_refstate-crust.xmf,370,-8.13019e-08,3.17448e-08,0,4.85953e-09,-7685.07,69.9324,-2107.76,333.364,-0.0209698,0.0569898,-0,0.0607254,17380,0,0,17380,333.364
step02_gravity_refstate-crust.xmf,371,-1.98067e-07,2.25261e-07,0,3.21936e-07,-4.92141e+07,-4.91851e+07,-4.92005e+07,22084.8,-0.017318,0.0545191,-0,0.0572035,16398.7,-1791.24,0,16496.2,22084.8
step02_gravity_refstate-crust.xmf,372,-2.71935e-07,3.90062e-07,0,5.76123e-07,-9.53812e+07,-9.53358e+07,-9.53625e+07,39522,-0.0146026,0.0515686,-0,0.0535962,15366.9,-3471.95,0,15754.2,39522
step02_gravity_refstate-crust.xmf,373,-2.95054e-07,5.24058e-07,0,7.6898e-07,-1.36755e+08,-1.36699e+08,-1.36735e+08,52752,-0.0127535,0.0489381,-0,0.0505726,14562.8,-4978.33,0,15390.2,52752
step02_gravity_refstate-crust.xmf,374,3.85937e-07,3.28702e-06,0,4.61826e-06,-7.52942e+08,-7.52743e+08,-7.52968e+08,316813,-0.0151107,-0.0294905,-0,0.0331365,5411.63,-27418.2,0,27947.2,316813
step02_gravity_refstate-crust.xmf,375,4.43393e-07,3.44992e-06,0,4.98879e-06,-7.69328e+08,-7.69122e+08,-7.69358e+08,342231,-0.015131,-0.0356001,-0,0.0386822,4994.03,-28015.3,0,28456.9,342231
step02_gravity_refstate-crust.xmf,376,1.58301e-08,3.25782e-06,0,3.89113e-06,-7.02534e+08,-7.02312e+08,-7.02536e+08,266932,-0.014618,-0.017713,-0,0.022966,6105.86,-25581.6,0,26300.2,266932
step02_gravity_refstate-crust.xmf,377,4.083e-08,2.46294e-06,0,2.90704e-06,-6.28051e+08,-6.27885e+08,-6.28054e+08,199423,-0.0133066,0.00190284,-0,0.013442,8028.77,-22868.8,0,24237.2,199423
step02_gravity_refstate-crust.xmf,378,-1.09501e-07,2.37497e-06,0,2.61058e-06,-5.86638e+08,-5.86467e+08,-5.8663e+08,179086,-0.0125397,0.00715523,-0,0.0144375,8348.11,-21360.4,0,22933.7,179086
step02_gravity_refstate-crust.xmf,379,5.21607e-07,3.59215e-06,0,5.39321e-06,-7.86385e+08,-7.86175e+08,-7.86421e+08,369974,-0.0149651,-0.0422254,-0,0.0447988,4587.71,-28636.8,0,29002,369974
step02_gravity_refstate-crust.xmf,380,9.53093e-07,2.65528e-06,0,5.30331e-06,-8.24472e+08,-8.24355e+08,-8.24537e+08,363807,-0.0126685,-0.0457582,-0,0.0474795,4652.54,-30023.7,0,30382,363807
step02_gravity_refstate-crust.xmf,381,1.24255e-06,1.56825e-06,0,4.0559e-06,-8.25092e+08,-8.2507e+08,-8.25178e+08,278235,-0.0110996,-0.0297965,-0,0.0317967,6001.57,-30045.8,0,30639.3,278235
step02_gravity_refstate-crust.xmf,382,1.26343e-06,1.07936e-06,0,2.93902e-06,-8.07659e+08,-8.07672e+08,-8.07746e+08,201617,-0.0100984,-0.0108751,-0,0.0148407,7956.29,-29410.4,0,30467.6,201617
step02_gravity_refstate-crust.xmf,383,1.231e-06,9.52692e-07,0,2.57198e-06,-8.07129e+08,-8.07148e+08,-8.07214e+08,176438,-0.00910581,-0.00451639,-0,0.0101643,8789.63,-29390.8,0,30677,176438
step02_gravity_refstate-crust.xmf,384,1.15303e-06,8.66558e-07,0,2.21747e-06,-8.07611e+08,-8.0763e+08,-8.0769e+08,152119,-0.00798852,0.00174927,-0,0.0081778,9708.63,-29407.9,0,30969,152119
step02_gravity_refstate-crust.xmf,385,1.05761e-06,8.3191e-07,0,1.91842e-06,-8.08964e+08,-8.08979e+08,-8.09036e+08,131604,-0.00686677,0.0074553,-0,0.0101358,10645.7,-29456.7,0,31321.4,131604
step02_gravity_refstate-crust.xmf,386,9.56882e-07,8.49598e-07,0,1.64306e-06,-7.88937e+08,-7.88944e+08,-7.89002e+08,112714,-0.00661805,0.0164015,-0,0.0176863,12201.6,-28727.2,0,31211.1,112714
step02_gravity_refstate-crust.xmf,387,5.30265e-07,1.00653e-06,0,8.98042e-07,-6.85869e+08,-6.85837e+08,-6.85906e+08,61605.7,-0.00427509,0.0506012,-0,0.0507814,20983.1,-24973.5,0,32618.5,61605.7
step02_gravity_refstate-crust.xmf,388,4.54923e-07,1.04347e-06,0,7.8153e-07,-6.63374e+08,-6.63334e+08,-6.63405e+08,53613,-0.0036935,0.0566417,-0,0.056762,23229.4,-24154.3,0,33511.7,53613
step02_gravity_refstate-crust.xmf,389,6.98507e-07,9.28049e-07,0,1.17339e-06,-7.06568e+08,-7.06553e+08,-7.06616e+08,80494.3,-0.00587116,0.0397761,-0,0.0402071,17420.9,-25727.6,0,31070.8,80494.3
step02_gravity_refstate-crust.xmf,390,8.53603e-07,8.82446e-07,0,1.41481e-06,-7.7051e+08,-7.70508e+08,-7.70568e+08,97056.2,-0.00606581,0.0247993,-0,0.0255304,13917.3,-28056,0,31318.2,97056.2
step02_gravity_refstate-crust.xmf,391,7.59108e-07,9.19352e-07,0,1.24293e-06,-7.50024e+08,-7.50013e+08,-7.50076e+08,85264.8,-0.00557175,0.0323825,-0,0.0328583,15685.1,-27309.9,0,31493.7,85264.8
step02_gravity_refstate-crust.xmf,392,7.37471e-07,9.23303e-07,0,1.22004e-06,-7.27291e+08,-7.27278e+08,-7.27341e+08,83694.8,-0.00584372,0.0360006,-0,0.0364718,16493.7,-26482.2,0,31198.5,83694.8
step02_gravity_refstate-crust.xmf,393,7.02605e-08,1.48361e-06,0,1.40129e-07,-7.00818e+08,-7.00721e+08,-7.00823e+08,9612.88,-0.000222263,0.0708759,-0,0.0708763,36168.5,-25516.6,0,44263.4,9612.88
step02_gravity_refstate-crust.xmf,394,9.00167e-09,1.59276e-06,0,6.7215e-08,-7.33609e+08,-7.335e+08,-7.33609e+08,4610.95,-1.18023e-05,0.0696304,-0,0.0696304,38016.6,-26710.3,0,46461.8,4610.95
step02_gravity_refstate-crust.xmf,395,-2.66564e-07,1.42428e-06,0,1.58406e-06,-3.7135e+08,-3.71234e+08,-3.71332e+08,108667,-0.00963574,0.0312072,-0,0.0326609,10866.5,-13520.5,0,17346,108667
step02_gravity_refstate-crust.xmf,396,-2.90066e-07,1.62354e-06,0,1.702e-06,-4.06851e+08,-4.0672e+08,-4.06832e+08,116757,-0.00981644,0.0271915,-0,0.0289091,10178.7,-14813.2,0,17973.2,116757
step02_gravity_refstate-crust.xmf,397,-1.83762e-07,1.79818e-06,0,1.96397e-06,-4.71702e+08,-4.71566e+08,-4.71689e+08,134728,-0.0106926,0.0225205,-0,0.02493,9990.24,-17174.8,0,19869,134728
step02_gravity_refstate-crust.xmf,398,-3.21143e-07,8.28951e-07,0,1.09444e-06,-2.20413e+08,-2.20334e+08,-2.20391e+08,75078.9,-0.0103297,0.0424573,-0,0.0436958,12778,-8024.32,0,15088.6,75078.9
step02_gravity_refstate-crust.xmf,399,-3.38325e-07,9.99322e-07,0,1.21867e-06,-2.59309e+08,-2.59217e+08,-2.59286e+08,83600.5,-0.0096871,0.0388696,-0,0.0400586,11876.4,-9440.59,0,15171.4,83600.5
step02_gravity_refstate-crust.xmf,400,-3.63104e-07,1.18317e-06,0,1.32543e-06,-2.95878e+08,-2.95772e+08,-2.95853e+08,90924.8,-0.00930723,0.0351863,-0,0.0363964,11013.7,-10772.1,0,15405.8,90924.8
step02_gravity_refstate-crust.xmf,401,-4.16542e-07,6.06203e-07,0,7.98302e-07,-1.42683e+08,-1.42612e+08,-1.42654e+08,54763.5,-0.0120521,0.0453101,-0,0.0468856,13115,-5193.75,0,14106,54763.5
step02_gravity_refstate-crust.xmf,402,-4.4e-07,7.50111e-07,0,9.39814e-07,-1.80019e+08,-1.79938e+08,-1.79989e+08,64471.2,-0.0107316,0.0420593,-0,0.0434068,12144.6,-6553.16,0,13799.8,64471.2
step02_gravity_refstate-crust.xmf,403,-1.09477e-07,3.66236e-06,0,4.2377e-06,-7.17402e+08,-7.17143e+08,-7.17395e+08,290706,-0.0148322,-0.0241297,-0,0.0283238,5509.57,-26123,0,26697.7,290706
step02_gravity_refstate-crust.xmf,404,-3.92455e-07,3.69588e-06,0,3.76188e-06,-6.8298e+08,-6.827e+08,-6.82953e+08,258065,-0.0141288,-0.0178388,-0,0.0227562,5737.29,-24868.7,0,25521.9,258065
step02_gravity_refstate-crust.xmf,405,-1.15506e-07,3.93205e-06,0,4.61057e-06,-7.34384e+08,-7.34106e+08,-7.34376e+08,316285,-0.0150506,-0.0300999,-0,0.033653,5075.41,-26741.6,0,27219,316285
step02_gravity_refstate-crust.xmf,406,-1.68756e-07,2.64139e-06,0,2.80747e-06,-6.07732e+08,-6.0754e+08,-6.07721e+08,192592,-0.0128882,0.00222026,-0,0.0130781,7725.27,-22128.5,0,23438.2,192592
step02_gravity_refstate-crust.xmf,407,-3.31633e-07,3.39062e-06,0,3.4671e-06,-6.64013e+08,-6.63758e+08,-6.63991e+08,237843,-0.0138237,-0.0122753,-0,0.0184873,6218.9,-24178,0,24965,237843
step02_gravity_refstate-crust.xmf,408,-2.34534e-07,2.8872e-06,0,2.99616e-06,-6.25668e+08,-6.25454e+08,-6.25652e+08,205536,-0.0131751,-0.00240528,-0,0.0133928,7177.41,-22781.6,0,23885.5,205536
step02_gravity_refstate-crust.xmf,409,-2.94888e-07,3.14104e-06,0,3.21172e-06,-6.44338e+08,-6.44103e+08,-6.44318e+08,220324,-0.0134822,-0.00723587,-0,0.0153013,6672.67,-23461.4,0,24391.9,220324
step02_gravity_refstate-crust.xmf,410,-3.43559e-07,2.54426e-06,0,2.4603e-06,-5.59931e+08,-5.59733e+08,-5.59907e+08,168777,-0.0118549,0.00746278,-0,0.0140083,7878.86,-20387.4,0,21856.9,168777
step02_gravity_refstate-crust.xmf,411,4.73224e-07,3.87053e-06,0,5.83755e-06,-7.99934e+08,-7.99701e+08,-7.99967e+08,400456,-0.0146981,-0.0494389,-0,0.0515775,4147.11,-29130.3,0,29424,400456
step02_gravity_refstate-crust.xmf,412,7.24306e-07,3.32268e-06,0,5.71119e-06,-8.14556e+08,-8.14378e+08,-8.14606e+08,391788,-0.0137772,-0.0494711,-0,0.0513537,4291.18,-29662.8,0,29971.6,391788
step02_gravity_refstate-crust.xmf,413,1.29052e-06,1.24117e-06,0,3.52055e-06,-8.26322e+08,-8.26325e+08,-8.2641e+08,241510,-0.0100524,-0.0223397,-0,0.0244972,6741.09,-30090.2,0,30836.1,241510
step02_gravity_refstate-crust.xmf,414,1.06276e-06,2.01509e-06,0,4.94976e-06,-8.40967e+08,-8.40902e+08,-8.4104e+08,339553,-0.0106707,-0.0432846,-0,0.0445805,4948.13,-30623.7,0,31020.8,339553
step02_gravity_refstate-crust.xmf,415,1.18833e-06,1.52763e-06,0,4.2857e-06,-8.42129e+08,-8.42106e+08,-8.4221e+08,293999,-0.00978958,-0.0350507,-0,0.0363921,5619.28,-30665.7,0,31176.3,293999
step02_gravity_refstate-crust.xmf,416,1.26814e-06,1.01798e-06,0,3.03268e-06,-8.2734e+08,-8.27357e+08,-8.27427e+08,208042,-0.00896758,-0.015236,-0,0.0176792,7523.65,-30126.9,0,31052.1,208042
step02_gravity_refstate-crust.xmf,417,9.35208e-07,8.32306e-07,0,1.6544e-06,-8.12401e+08,-8.12408e+08,-8.12466e+08,113492,-0.00567944,0.0126044,-0,0.0138248,11597.3,-29581.4,0,31773.5,113492
step02_gravity_refstate-crust.xmf,418,6.22927e-07,9.77071e-07,0,1.023e-06,-7.15478e+08,-7.15454e+08,-7.15521e+08,70178.1,-0.00474393,0.0434062,-0,0.0436647,18710.2,-26051.7,0,32074.3,70178.1
step02_gravity_refstate-crust.xmf,419,5.38724e-07,1.03748e-06,0,8.93484e-07,-7.19749e+08,-7.19715e+08,-7.19786e+08,61293,-0.00379842,0.0471536,-0,0.0473063,20127.1,-26207,0,33044,61293
step02_gravity_refstate-crust.xmf,420,4.58959e-07,1.06568e-06,0,7.8706e-07,-6.89482e+08,-6.8944e+08,-6.89514e+08,53992.3,-0.00346815,0.0538961,-0,0.0540076,22434.3,-25104.8,0,33668.2,53992.3
step02_gravity_refstate-crust.xmf,421,2.13381e-07,1.30902e-06,0,4.23227e-07,-6.90758e+08,-6.90683e+08,-6.90773e+08,29033.4,-0.00123222,0.0655869,-0,0.0655985,29231.3,-25150.6,0,38561.9,29033.4
step02_gravity_refstate-crust.xmf,422,3.94052e-07,1.12759e-06,0,6.88795e-07,-6.90209e+08,-6.90159e+08,-6.90236e+08,47251.3,-0.00278345,0.0571898,-0,0.0572575,24008.7,-25131.1,0,34756.2,47251.3
step02_gravity_refstate-crust.xmf,423,2.68025e-07,1.24973e-06,0,5.06141e-07,-6.89464e+08,-6.89397e+08,-6.89482e+08,34721.2,-0.00167267,0.0632199,-0,0.063242,27467.6,-25103.6,0,37211,34721.2
step02_gravity_refstate-crust.xmf,424,3.31401e-07,1.18502e-06,0,5.98307e-07,-6.88481e+08,-6.88423e+08,-6.88504e+08,41043.9,-0.00222298,0.0603595,-0,0.0604004,25671,-25068,0,35880.5,41043.9
step02_gravity_refstate-crust.xmf,425,8.40409e-07,8.73667e-07,0,1.40788e-06,-7.95612e+08,-7.9561e+08,-7.9567e+08,96580.8,-0.00524661,0.0212773,-0,0.0219146,13289,-28969.8,0,31872.3,96580.8
step02_gravity_refstate-crust.xmf,426,7.61011e-07,9.19356e-07,0,1.24586e-06,-7.73844e+08,-7.73833e+08,-7.73896e+08,85465.7,-0.00502972,0.0290214,-0,0.029454,14997.7,-28177.1,0,31919.9,85465.7
step02_gravity_refstate-crust.xmf,427,1.72829e-07,1.35291e-06,0,3.56143e-07,-6.90779e+08,-6.90698e+08,-6.90791e+08,24431.4,-0.000935495,0.0673874,-0,0.0673939,30778.7,-25151.3,0,39748.2,24431.4
step02_gravity_refstate-crust.xmf,428,4.02254e-08,1.55686e-06,0,1.87381e-07,-7.35167e+08,-7.35063e+08,-7.35169e+08,12854.3,-7.96438e-05,0.068117,-0,0.068117,34503.4,-26767,0,43668.8,12854.3
step02_gravity_refstate-crust.xmf,429,9.72572e-08,1.4757e-06,0,2.78158e-07,-7.22989e+08,-7.22895e+08,-7.22996e+08,19081.6,-0.000354723,0.067073,-0,0.067074,32164.8,-26323.8,0,41563.4,19081.6
step02_gravity_refstate-crust.xmf,430,-5.40606e-08,1.71208e-06,0,1.11677e-09,-7.72257e+08,-7.72135e+08,-7.72253e+08,76.6103,1.4452e-20,0.0675133,0,0.0675133,40000,-28117.2,0,48893.5,76.6103
step02_gravity_refstate-crust.xmf,431,-2.96698e-07,2.31999e-06,0,2.28412e-06,-5.32408e+08,-5.32228e+08,-5.32388e+08,156690,-0.0114443,0.0123379,-0,0.0168285,8469.62,-19385.2,0,21154.7,156690
step02_gravity_refstate-crust.xmf,432,-2.41612e-07,2.06532e-06,0,2.11785e-06,-5.02363e+08,-5.02205e+08,-5.02347e+08,145285,-0.0110428,0.0174252,-0,0.0206296,9172.51,-18291.3,0,20462.3,145285
step02_gravity_refstate-crust.xmf,433,-3.27519e-07,1.82056e-06,0,1.81946e-06,-4.38596e+08,-4.38449e+08,-4.38574e+08,124815,-0.0100458,0.0230732,-0,0.0251653,9499.2,-15969,0,18580.8,124815
step02_gravity_refstate-crust.xmf,434,-3.98417e-07,1.3791e-06,0,1.42687e-06,-3.3241e+08,-3.32288e+08,-3.32383e+08,97883.2,-0.00911232,0.0312381,-0,0.03254,10165.9,-12102.3,0,15805.4,97883.2
step02_gravity_refstate-crust.xmf,435,-3.85789e-07,1.46986e-07,0,6.0366e-09,-36621.9,-73.5697,-10156.8,414.111,-0.0204746,0.0521563,-0,0.0560311,15217,0,0,15217,414.111
step02_gravity_refstate-crust.xmf,436,-4.54954e-07,3.24994e-07,0,3.29222e-07,-4.88581e+07,-4.88046e+07,-4.88269e+07,22584.6,-0.0166336,0.0495124,-0,0.0522318,14232.7,-1777.39,0,14343.2,22584.6
step02_gravity_refstate-crust.xmf,437,-4.86807e-07,5.01841e-07,0,6.09494e-07,-1.00612e+08,-1.00544e+08,-1.00579e+08,41811.3,-0.0135314,0.046221,-0,0.048161,13142.2,-3661.7,0,13642.8,41811.3
step02_gravity_refstate-crust.xmf,438,-5.64356e-07,6.7071e-07,0,7.6224e-07,-1.38051e+08,-1.37966e+08,-1.38012e+08,52289.6,-0.0114401,0.0418687,-0,0.0434035,11597.9,-5024.63,0,12639.6,52289.6
step02_gravity_refstate-crust.xmf,439,-1.08539e-07,4.20817e-06,0,5.0246e-06,-7.50974e+08,-7.50677e+08,-7.50966e+08,344688,-0.015208,-0.036348,-0,0.0394013,4664.56,-27346,0,27741,344688
step02_gravity_refstate-crust.xmf,440,-7.5911e-08,4.47696e-06,0,5.48291e-06,-7.67456e+08,-7.67144e+08,-7.67451e+08,376127,-0.0152718,-0.0429649,-0,0.0455984,4273.6,-27946.6,0,28271.5,376127
step02_gravity_refstate-crust.xmf,441,-4.96022e-07,4.06968e-06,0,4.07992e-06,-6.99873e+08,-6.99559e+08,-6.99839e+08,279883,-0.014353,-0.0237109,-0,0.0277167,5243.04,-25483.9,0,26017.6,279883
step02_gravity_refstate-crust.xmf,442,-4.15123e-07,2.8124e-06,0,2.64576e-06,-5.84107e+08,-5.83885e+08,-5.84078e+08,181499,-0.0122059,0.0024823,-0,0.0124558,7289.96,-21267.7,0,22482.4,181499
step02_gravity_refstate-crust.xmf,443,-6.78329e-08,4.79331e-06,0,5.97935e-06,-7.82833e+08,-7.82499e+08,-7.82828e+08,410184,-0.0151896,-0.0500663,-0,0.0523197,3880.8,-28507,0,28769.9,410184
step02_gravity_refstate-crust.xmf,444,3.74141e-07,4.20785e-06,0,6.30828e-06,-8.12201e+08,-8.11938e+08,-8.12226e+08,432748,-0.0142283,-0.0565977,-0,0.0583587,3752.59,-29577,0,29814.1,432748
step02_gravity_refstate-crust.xmf,445,6.50441e-07,3.43419e-06,0,6.03053e-06,-8.26122e+08,-8.25931e+08,-8.26167e+08,413694,-0.0130337,-0.0548211,-0,0.0563492,4009.96,-30083.8,0,30349.8,413694
step02_gravity_refstate-crust.xmf,446,8.24136e-07,2.68956e-06,0,5.67331e-06,-8.40236e+08,-8.40108e+08,-8.40293e+08,389189,-0.0113535,-0.0520256,-0,0.0532501,4309.58,-30597.1,0,30899.1,389189
step02_gravity_refstate-crust.xmf,447,1.21563e-06,1.17183e-06,0,3.67081e-06,-8.437e+08,-8.43703e+08,-8.43783e+08,251817,-0.00875883,-0.0272268,-0,0.028601,6331.79,-30722.5,0,31368.2,251817
step02_gravity_refstate-crust.xmf,448,1.19199e-06,8.75183e-07,0,2.59627e-06,-8.28138e+08,-8.2816e+08,-8.2822e+08,178104,-0.00788514,-0.00851473,-0,0.011605,8349.14,-30155.4,0,31289.8,178104
step02_gravity_refstate-crust.xmf,449,1.12012e-06,8.16327e-07,0,2.24384e-06,-8.29146e+08,-8.29167e+08,-8.29223e+08,153928,-0.0067953,-0.00218706,-0,0.00713858,9219.16,-30191.7,0,31567.9,153928
step02_gravity_refstate-crust.xmf,450,1.01651e-06,7.98075e-07,0,1.93482e-06,-8.30473e+08,-8.30488e+08,-8.30543e+08,132729,-0.00572592,0.00369534,-0,0.00681481,10125.4,-30239.5,0,31889.7,132729
step02_gravity_refstate-crust.xmf,451,9.08471e-07,8.14498e-07,0,1.68291e-06,-8.32218e+08,-8.32225e+08,-8.32281e+08,115448,-0.00471666,0.00898493,-0,0.0101477,11037.1,-30302.7,0,32250.1,115448
step02_gravity_refstate-crust.xmf,452,7.98887e-07,8.74812e-07,0,1.40553e-06,-8.22543e+08,-8.22538e+08,-8.22598e+08,96419.2,-0.00408986,0.0173774,-0,0.0178522,12622.8,-29950.1,0,32501.4,96419.2
step02_gravity_refstate-crust.xmf,453,4.5128e-07,1.1042e-06,0,7.77415e-07,-7.2345e+08,-7.23405e+08,-7.23481e+08,53330.7,-0.00296509,0.0506499,-0,0.0507366,21602,-26341.4,0,34066.4,53330.7
step02_gravity_refstate-crust.xmf,454,6.34818e-07,9.90365e-07,0,1.02791e-06,-7.46796e+08,-7.46772e+08,-7.4684e+08,70514.3,-0.00426765,0.0394209,-0,0.0396512,17754.1,-27192,0,32474.8,70514.3
step02_gravity_refstate-crust.xmf,455,7.34949e-07,9.23289e-07,0,1.22874e-06,-7.99674e+08,-7.99661e+08,-7.99725e+08,84291.8,-0.00415113,0.0257613,-0,0.0260936,14386.1,-29117.3,0,32477.4,84291.8
step02_gravity_refstate-crust.xmf,456,6.68146e-07,9.70432e-07,0,1.09734e-06,-7.79078e+08,-7.79057e+08,-7.79124e+08,75277.9,-0.00401702,0.0327451,-0,0.0329905,16068.2,-28367.3,0,32602,75277.9
step02_gravity_refstate-crust.xmf,457,6.84846e-07,9.62055e-07,0,1.10806e-06,-7.57133e+08,-7.57114e+08,-7.5718e+08,76013,-0.00457769,0.0355342,-0,0.0358278,16658.8,-27568.4,0,32210.8,76013
step02_gravity_refstate-crust.xmf,458,3.04248e-09,1.61456e-06,0,1.2414e-07,-7.46435e+08,-7.46325e+08,-7.46435e+08,8515.98,3.30156e-05,0.0683291,0,0.0683291,36230,-27177.2,0,45290.3,8515.98
step02_gravity_refstate-crust.xmf,459,-8.57025e-08,1.7796e-06,0,7.01254e-08,-7.97802e+08,-7.97674e+08,-7.97796e+08,4810.61,0.000211873,0.0656053,0,0.0656056,37640.3,-29047.2,0,47545,4810.61
step02_gravity_refstate-crust.xmf,460,-5.4302e-07,2.6814e-06,0,2.28005e-06,-5.34384e+08,-5.34163e+08,-5.34347e+08,156412,-0.0110351,0.00790998,-0,0.0135772,7392.09,-19456.7,0,20813.6,156412
step02_gravity_refstate-crust.xmf,461,-6.39225e-07,2.95843e-06,0,2.43749e-06,-5.59083e+08,-5.58836e+08,-5.59039e+08,167212,-0.0113165,0.00309993,-0,0.0117334,6825.98,-20356,0,21470,167212
step02_gravity_refstate-crust.xmf,462,-4.51873e-07,1.63767e-06,0,1.53928e-06,-3.71995e+08,-3.71852e+08,-3.71964e+08,105595,-0.00907858,0.0266811,-0,0.0281834,9292.46,-13543.6,0,16424.9,105595
step02_gravity_refstate-crust.xmf,463,-4.33466e-07,1.81257e-06,0,1.67768e-06,-4.0954e+08,-4.09386e+08,-4.0951e+08,115089,-0.00945727,0.0237319,-0,0.0255469,9087.68,-14910.8,0,17461.9,115089
step02_gravity_refstate-crust.xmf,464,-4.02082e-07,2.07774e-06,0,1.93977e-06,-4.6871e+08,-4.6854e+08,-4.68682e+08,133068,-0.0102653,0.0183252,-0,0.0210045,8707.11,-17065.4,0,19158.4,133068
step02_gravity_refstate-crust.xmf,465,-4.57675e-07,9.26922e-07,0,1.06368e-06,-2.18691e+08,-2.18596e+08,-2.1866e+08,72968.7,-0.0097401,0.0386377,-0,0.0398464,11212.7,-7961.26,0,13751.6,72968.7
step02_gravity_refstate-crust.xmf,466,-4.80431e-07,1.11548e-06,0,1.1684e-06,-2.5654e+08,-2.56431e+08,-2.56507e+08,80152.1,-0.00906548,0.0351026,-0,0.0362543,10328.9,-9339.39,0,13925.2,80152.1
step02_gravity_refstate-crust.xmf,467,-5.14501e-07,1.32235e-06,0,1.25658e-06,-2.92673e+08,-2.92547e+08,-2.92637e+08,86201.6,-0.00863397,0.0314721,-0,0.0326349,9491.55,-10655,0,14269.5,86201.6
step02_gravity_refstate-crust.xmf,468,-5.82372e-07,8.32867e-07,0,8.95724e-07,-1.77549e+08,-1.77452e+08,-1.7751e+08,61446.7,-0.00996255,0.0384201,-0,0.0396907,10552.4,-6462.8,0,12374.2,61446.7
step02_gravity_refstate-crust.xmf,469,-7.66562e-07,4.02203e-06,0,3.53174e-06,-6.63813e+08,-6.63484e+08,-6.6376e+08,242277,-0.0133488,-0.0175301,-0,0.0220339,5367.63,-24169.9,0,24758.7,242277
step02_gravity_refstate-crust.xmf,470,-6.1917e-07,4.50048e-06,0,4.44664e-06,-7.16432e+08,-7.16081e+08,-7.1639e+08,305040,-0.0145354,-0.0300373,-0,0.0333694,4756.19,-26086.9,0,26516.9,305040
step02_gravity_refstate-crust.xmf,471,-9.10514e-07,4.47522e-06,0,3.82433e-06,-6.81296e+08,-6.80926e+08,-6.81233e+08,262349,-0.0135334,-0.0232165,-0,0.026873,4902.64,-24806.5,0,25286.3,262349
step02_gravity_refstate-crust.xmf,472,-7.02604e-07,4.91421e-06,0,4.86788e-06,-7.33222e+08,-7.32836e+08,-7.33174e+08,333937,-0.0147229,-0.0364672,-0,0.0393271,4335.98,-26698.4,0,27048.2,333937
step02_gravity_refstate-crust.xmf,473,-5.09772e-07,3.14183e-06,0,2.84644e-06,-6.05712e+08,-6.05461e+08,-6.05677e+08,195266,-0.0124951,-0.00261273,-0,0.0127654,6711.11,-22054.3,0,23052.8,195266
step02_gravity_refstate-crust.xmf,474,-6.96973e-07,3.75175e-06,0,3.27461e-06,-6.44856e+08,-6.44551e+08,-6.44808e+08,224638,-0.0130424,-0.01255,-0,0.0180999,5754.99,-23479.6,0,24174.6,224638
step02_gravity_refstate-crust.xmf,475,-6.29811e-07,3.46988e-06,0,3.03728e-06,-6.24179e+08,-6.23898e+08,-6.24136e+08,208358,-0.0127003,-0.00759388,-0,0.0147975,6166.25,-22726.7,0,23548.4,208358
step02_gravity_refstate-crust.xmf,476,-9.16194e-08,5.09354e-06,0,6.47583e-06,-7.97001e+08,-7.96646e+08,-7.96995e+08,444242,-0.0149174,-0.0574057,-0,0.0593123,3509.29,-29023.1,0,29234.5,444242
step02_gravity_refstate-crust.xmf,477,5.93417e-07,2.77946e-06,0,6.17921e-06,-8.53933e+08,-8.53783e+08,-8.53974e+08,423894,-0.00987637,-0.0586258,-0,0.0594518,3967.41,-31095,0,31347.1,423894
step02_gravity_refstate-crust.xmf,478,8.7796e-07,1.99712e-06,0,5.3283e-06,-8.56311e+08,-8.56234e+08,-8.56371e+08,365522,-0.00908747,-0.0492269,-0,0.0500587,4597.11,-31181.5,0,31518.6,365522
step02_gravity_refstate-crust.xmf,479,1.20756e-06,9.56462e-07,0,3.15278e-06,-8.45408e+08,-8.45425e+08,-8.45491e+08,216280,-0.00765921,-0.0198283,-0,0.0212562,7085.58,-30784.3,0,31589.2,216280
step02_gravity_refstate-crust.xmf,480,1.03698e-06,1.48125e-06,0,4.6157e-06,-8.58915e+08,-8.58885e+08,-8.58986e+08,316637,-0.00815042,-0.0410345,-0,0.0418361,5208.68,-31276.2,0,31706.9,316637
step02_gravity_refstate-crust.xmf,481,1.10355e-06,1.113e-06,0,3.91985e-06,-8.60828e+08,-8.60827e+08,-8.60903e+08,268902,-0.00714431,-0.0325157,-0,0.0332914,5915.14,-31345.5,0,31898.7,268902
step02_gravity_refstate-crust.xmf,482,1.14092e-06,8.22863e-07,0,2.68517e-06,-8.47478e+08,-8.475e+08,-8.47556e+08,184203,-0.00650307,-0.0128125,-0,0.0143684,7888.7,-30859.2,0,31851.5,184203
step02_gravity_refstate-crust.xmf,483,8.08015e-07,8.49376e-07,0,1.49711e-06,-8.3464e+08,-8.34637e+08,-8.34695e+08,102702,-0.00383814,0.0132226,-0,0.0137684,11849.3,-30390.5,0,32618.8,102702
step02_gravity_refstate-crust.xmf,484,1.29416e-07,1.44673e-06,0,3.51847e-07,-7.32535e+08,-7.32445e+08,-7.32544e+08,24136.7,-0.000462465,0.064477,-0,0.0644786,30061.2,-26671.4,0,40187.6,24136.7
step02_gravity_refstate-crust.xmf,485,5.30201e-07,1.06684e-06,0,8.82369e-07,-7.52539e+08,-7.52502e+08,-7.52575e+08,60530.5,-0.00318247,0.043633,-0,0.0437489,19279.5,-27400.7,0,33503.7,60530.5
step02_gravity_refstate-crust.xmf,486,4.39448e-07,1.14467e-06,0,7.69504e-07,-7.56934e+08,-7.56886e+08,-7.56964e+08,52788,-0.00233497,0.0472215,-0,0.0472792,20739.3,-27560.5,0,34492,52788
step02_gravity_refstate-crust.xmf,487,3.74444e-07,1.17565e-06,0,6.77356e-07,-7.26139e+08,-7.26084e+08,-7.26165e+08,46466.6,-0.00225235,0.053946,-0,0.053993,23152.5,-26439.1,0,35143.5,46466.6
step02_gravity_refstate-crust.xmf,488,1.77014e-07,1.3931e-06,0,4.23652e-07,-7.3376e+08,-7.33676e+08,-7.33772e+08,29062.5,-0.000715129,0.0622008,-0,0.0622049,28253.1,-26716.1,0,38884.3,29062.5
step02_gravity_refstate-crust.xmf,489,3.05733e-07,1.25075e-06,0,5.87939e-07,-7.2891e+08,-7.28845e+08,-7.28931e+08,40332.6,-0.00163423,0.0569798,-0,0.0570032,24779.3,-26539.9,0,36309.5,40332.6
step02_gravity_refstate-crust.xmf,490,2.37719e-07,1.32415e-06,0,5.02689e-07,-7.31523e+08,-7.31448e+08,-7.31539e+08,34484.4,-0.00111862,0.059749,-0,0.0597595,26488.6,-26634.8,0,37564.1,34484.4
step02_gravity_refstate-crust.xmf,491,6.77948e-07,9.34637e-07,0,1.21178e-06,-8.24812e+08,-8.24795e+08,-8.24859e+08,83127.8,-0.00307867,0.0224919,-0,0.0227016,13794.8,-30032.3,0,33049,83127.8
step02_gravity_refstate-crust.xmf,492,6.60351e-07,9.75116e-07,0,1.11626e-06,-7.99386e+08,-7.99364e+08,-7.99431e+08,76575.2,-0.00349712,0.0294466,-0,0.0296536,15346.3,-29106.6,0,32904.5,76575.2
step02_gravity_refstate-crust.xmf,493,-5.09755e-08,1.72468e-06,0,1.45262e-07,-7.88512e+08,-7.88391e+08,-7.88509e+08,9964.96,0.000331376,0.0653056,0,0.0653065,35189.9,-28709,0,45415.1,9964.96
step02_gravity_refstate-crust.xmf,494,-5.89489e-09,1.65662e-06,0,2.1812e-07,-7.79108e+08,-7.78994e+08,-7.79108e+08,14963,0.000311473,0.0645445,0,0.0645452,32999,-28366.7,0,43515.6,14963
step02_gravity_refstate-crust.xmf,495,-1.53085e-07,1.90804e-06,0,5.53683e-10,-8.37555e+08,-8.37414e+08,-8.37545e+08,37.9827,2.6022e-20,0.06321,0,0.06321,40000,-30494.4,0,50298.2,37.9827
step02_gravity_refstate-crust.xmf,496,-5.2067e-07,2.44267e-06,0,2.08855e-06,-5.01512e+08,-5.01309e+08,-5.01476e+08,143274,-0.0105112,0.0125272,-0,0.0163528,7811.24,-18259.7,0,19860.3,143274
step02_gravity_refstate-crust.xmf,497,-8.22824e-07,3.07276e-06,0,2.21011e-06,-5.35197e+08,-5.3493e+08,-5.3514e+08,151614,-0.0103398,0.00384453,-0,0.0110314,6345.45,-19485.8,0,20493,151614
step02_gravity_refstate-crust.xmf,498,-5.31611e-07,2.07041e-06,0,1.74338e-06,-4.32801e+08,-4.32623e+08,-4.32765e+08,119596,-0.00940484,0.0195307,-0,0.0216772,8230.92,-15757.6,0,17777.8,119596
step02_gravity_refstate-crust.xmf,499,-5.652e-07,1.54423e-06,0,1.33568e-06,-3.28147e+08,-3.28003e+08,-3.28109e+08,91627.9,-0.00836347,0.0276098,-0,0.0288487,8670.87,-11946.6,0,14761.6,91627.9
step02_gravity_refstate-crust.xmf,500,-6.94768e-07,2.64024e-07,0,7.1907e-09,-65981.5,-208.357,-18320.4,493.282,-0.0193407,0.0475171,-0,0.0513024,13099.6,0,0,13099.6,493.282
step02_gravity_refstate-crust.xmf,501,-7.14647e-07,4.25709e-07,0,3.21928e-07,-4.8373e+07,-4.82948e+07,-4.8324e+07,22084.3,-0.0153946,0.0446781,-0,0.0472559,12064.5,-1758.84,0,12192,22084.3
step02_gravity_refstate-crust.xmf,502,-7.26993e-07,7.48733e-07,0,7.06336e-07,-1.35228e+08,-1.35127e+08,-1.35178e+08,48454.7,-0.0103881,0.0381259,-0,0.0395158,9853.35,-4921.33,0,11014,48454.7
step02_gravity_refstate-crust.xmf,503,-7.24857e-07,5.83298e-07,0,5.47787e-07,-9.32528e+07,-9.3163e+07,-9.32031e+07,37578.2,-0.0124882,0.0414346,-0,0.0432757,10939.7,-3392.93,0,11453.8,37578.2
step02_gravity_refstate-crust.xmf,504,-7.65677e-07,5.34279e-06,0,5.35043e-06,-7.49689e+08,-7.4927e+08,-7.49637e+08,367040,-0.0148693,-0.0432005,-0,0.0456879,3945.76,-27298.4,0,27582,367040
step02_gravity_refstate-crust.xmf,505,-8.23082e-07,5.81025e-06,0,5.89876e-06,-7.65552e+08,-7.65097e+08,-7.65496e+08,404655,-0.0149306,-0.0503712,-0,0.0525374,3568.71,-27876.4,0,28103.9,404655
step02_gravity_refstate-crust.xmf,506,-1.07785e-06,4.95634e-06,0,4.15317e-06,-6.98598e+08,-6.98184e+08,-6.98524e+08,284907,-0.0136854,-0.0293453,-0,0.0323796,4446.67,-25436.5,0,25822.2,284907
step02_gravity_refstate-crust.xmf,507,-1.06738e-06,4.31447e-06,0,3.29208e-06,-6.48152e+08,-6.47783e+08,-6.48079e+08,225836,-0.012493,-0.017241,-0,0.0212914,5011.57,-23599,0,24125.2,225836
step02_gravity_refstate-crust.xmf,508,-1.26404e-06,4.72907e-06,0,3.48467e-06,-6.62809e+08,-6.62398e+08,-6.62722e+08,239048,-0.0124967,-0.022244,-0,0.025514,4563.45,-24132.4,0,24560.1,239048
step02_gravity_refstate-crust.xmf,509,-7.61352e-07,3.29547e-06,0,2.61056e-06,-5.8262e+08,-5.82342e+08,-5.82568e+08,179085,-0.0115564,-0.00204556,-0,0.011736,6252.3,-21212.9,0,22115.1,179085
step02_gravity_refstate-crust.xmf,510,-8.85333e-07,6.31852e-06,0,6.50195e-06,-7.8065e+08,-7.80156e+08,-7.8059e+08,446034,-0.0148606,-0.0580274,-0,0.0599001,3202.23,-28426.6,0,28606.4,446034
step02_gravity_refstate-crust.xmf,511,-2.31353e-07,5.58892e-06,0,7.0494e-06,-8.10082e+08,-8.09683e+08,-8.10066e+08,483589,-0.0143869,-0.0655373,-0,0.0670978,3124.25,-29499.6,0,29664.5,483589
step02_gravity_refstate-crust.xmf,512,1.95673e-07,4.53121e-06,0,6.80149e-06,-8.25159e+08,-8.24861e+08,-8.25172e+08,466582,-0.0133765,-0.0640041,-0,0.0653869,3399.32,-30048.5,0,30240.2,466582
step02_gravity_refstate-crust.xmf,513,4.34488e-07,3.61912e-06,0,6.51138e-06,-8.39724e+08,-8.39506e+08,-8.39754e+08,446681,-0.0118121,-0.0617122,-0,0.0628325,3675.32,-30578.4,0,30798.4,446681
step02_gravity_refstate-crust.xmf,514,3.2788e-07,2.80119e-06,0,6.82704e-06,-8.66945e+08,-8.66776e+08,-8.66968e+08,468335,-0.00815342,-0.0652717,-0,0.065779,3653.35,-31567.7,0,31778.4,468335
step02_gravity_refstate-crust.xmf,515,6.70216e-07,2.06253e-06,0,5.87215e-06,-8.66854e+08,-8.66759e+08,-8.669e+08,402830,-0.00786923,-0.0553723,-0,0.0559287,4241.75,-31564.6,0,31848.3,402830
step02_gravity_refstate-crust.xmf,516,1.08321e-06,8.78119e-07,0,3.31174e-06,-8.62767e+08,-8.62781e+08,-8.62841e+08,227185,-0.00609624,-0.0246907,-0,0.0254321,6646.85,-31415.6,0,32111.1,227185
step02_gravity_refstate-crust.xmf,517,1.02768e-06,7.58785e-07,0,2.27754e-06,-8.49625e+08,-8.49644e+08,-8.49696e+08,156239,-0.00536892,-0.00624821,-0,0.00823805,8733.92,-30936.8,0,32146,156239
step02_gravity_refstate-crust.xmf,518,9.34183e-07,7.65171e-07,0,1.96296e-06,-8.51317e+08,-8.51328e+08,-8.51381e+08,134659,-0.00433866,-0.000126326,-0,0.0043405,9619.2,-30998,0,32456.2,134659
step02_gravity_refstate-crust.xmf,519,8.23872e-07,7.98408e-07,0,1.69679e-06,-8.52766e+08,-8.52767e+08,-8.52822e+08,116400,-0.00340855,0.00552752,-0,0.00649397,10537.1,-31050.4,0,32789.5,116400
step02_gravity_refstate-crust.xmf,520,7.21814e-07,8.51e-07,0,1.48575e-06,-8.53837e+08,-8.53828e+08,-8.53886e+08,101922,-0.00260805,0.0106415,-0,0.0109564,11464.6,-31089,0,33135.5,101922
step02_gravity_refstate-crust.xmf,521,6.53482e-07,9.06116e-07,0,1.32575e-06,-8.50952e+08,-8.50935e+08,-8.50997e+08,90946.6,-0.00218612,0.0154991,-0,0.0156525,12419.8,-30983.8,0,33380.4,90946.6
step02_gravity_refstate-crust.xmf,522,3.5127e-07,1.22353e-06,0,6.69069e-07,-7.60821e+08,-7.60761e+08,-7.60845e+08,45898.1,-0.00161954,0.0505261,-0,0.0505521,22252.3,-27701.8,0,35532.4,45898.1
step02_gravity_refstate-crust.xmf,523,6.03358e-07,9.54879e-07,0,1.21054e-06,-8.46252e+08,-8.46228e+08,-8.46294e+08,83042.9,-0.00198533,0.0195733,-0,0.0196737,13282.8,-30812.6,0,33553.6,83042.9
step02_gravity_refstate-crust.xmf,524,5.85728e-07,1.03388e-06,0,9.752e-07,-7.83852e+08,-7.83822e+08,-7.83892e+08,66898.7,-0.00310235,0.0362924,-0,0.0364247,17190,-28540.9,0,33317.8,66898.7
step02_gravity_refstate-crust.xmf,525,5.71336e-07,1.01372e-06,0,1.0633e-06,-8.28754e+08,-8.28724e+08,-8.28794e+08,72942.3,-0.00211331,0.0269423,-0,0.0270251,14956.9,-30175.5,0,33678.9,72942.3
step02_gravity_refstate-crust.xmf,526,5.29777e-07,1.05885e-06,0,9.61377e-07,-8.15583e+08,-8.15547e+08,-8.15619e+08,65950.4,-0.00207909,0.0322636,-0,0.0323305,16322.8,-29695.9,0,33886.3,65950.4
step02_gravity_refstate-crust.xmf,527,3.65755e-08,1.59931e-06,0,2.86714e-07,-7.76567e+08,-7.76459e+08,-7.76569e+08,19668.6,0.000251676,0.0629829,0,0.0629834,30974.5,-28274.3,0,41938.7,19668.6
step02_gravity_refstate-crust.xmf,528,-1.92712e-07,1.99118e-06,0,5.12111e-08,-8.66622e+08,-8.66472e+08,-8.66609e+08,3513.08,0.000386258,0.0609623,0,0.0609635,38020.7,-31552.6,0,49407.9,3513.08
step02_gravity_refstate-crust.xmf,529,-7.22393e-07,2.79708e-06,0,2.10514e-06,-5.1464e+08,-5.14398e+08,-5.1459e+08,144413,-0.0101997,0.00776731,-0,0.0128205,6824.01,-18737.4,0,19941.3,144413
step02_gravity_refstate-crust.xmf,530,-9.62395e-07,3.39354e-06,0,2.33236e-06,-5.57658e+08,-5.57359e+08,-5.57592e+08,160000,-0.0104546,-0.000871243,-0,0.0104908,5798.31,-20303.4,0,21115.2,160000
step02_gravity_refstate-crust.xmf,531,-5.75395e-07,1.92144e-06,0,1.57089e-06,-3.9591e+08,-3.95739e+08,-3.95871e+08,107763,-0.00881173,0.0220804,-0,0.0237737,8186.38,-14414.2,0,16576.6,107763
step02_gravity_refstate-crust.xmf,532,-6.41284e-07,2.37423e-06,0,1.84897e-06,-4.64788e+08,-4.64581e+08,-4.64744e+08,126839,-0.00953021,0.0145166,-0,0.0173654,7441.66,-16922.2,0,18486.2,126839
step02_gravity_refstate-crust.xmf,533,-5.97769e-07,1.02744e-06,0,9.99454e-07,-2.16344e+08,-2.16232e+08,-2.16303e+08,68562.5,-0.00892994,0.0350534,-0,0.036173,9634.71,-7875.38,0,12443.8,68562.5
step02_gravity_refstate-crust.xmf,534,-6.22233e-07,1.23405e-06,0,1.0835e-06,-2.54051e+08,-2.53923e+08,-2.54008e+08,74327.8,-0.00822657,0.0316458,-0,0.0326976,8795.1,-9248.36,0,12762.7,74327.8
step02_gravity_refstate-crust.xmf,535,-6.60905e-07,1.46093e-06,0,1.15265e-06,-2.90314e+08,-2.90168e+08,-2.90268e+08,79072.1,-0.00776199,0.0281625,-0,0.0292126,8019.22,-10568.7,0,13266.7,79072.1
step02_gravity_refstate-crust.xmf,536,-6.43882e-07,1.80159e-06,0,1.39176e-06,-3.59822e+08,-3.59654e+08,-3.59778e+08,95474.8,-0.0081402,0.0235788,-0,0.0249444,7822.05,-13099.9,0,15257.5,95474.8
step02_gravity_refstate-crust.xmf,537,-7.2481e-07,9.19921e-07,0,8.24017e-07,-1.75651e+08,-1.75538e+08,-1.75601e+08,56527.6,-0.00891821,0.0349515,-0,0.0360714,8908.53,-6393.23,0,10965.2,56527.6
step02_gravity_refstate-crust.xmf,538,-1.25723e-06,5.49035e-06,0,4.5367e-06,-7.15686e+08,-7.15223e+08,-7.156e+08,311217,-0.0138168,-0.0358409,-0,0.0384119,4017.34,-26058.7,0,26366.5,311217
step02_gravity_refstate-crust.xmf,539,-1.49873e-06,5.32792e-06,0,3.75396e-06,-6.80296e+08,-6.79828e+08,-6.80193e+08,257521,-0.0125273,-0.0282966,-0,0.0309457,4098.54,-24769.1,0,25105.9,257521
step02_gravity_refstate-crust.xmf,540,-1.43581e-06,6.07223e-06,0,4.9894e-06,-7.32497e+08,-7.31982e+08,-7.32399e+08,342273,-0.0139334,-0.0426732,-0,0.0448903,3621.56,-26670.9,0,26915.6,342273
step02_gravity_refstate-crust.xmf,541,-9.11608e-07,3.70424e-06,0,2.78674e-06,-6.03448e+08,-6.03131e+08,-6.03385e+08,191170,-0.0117054,-0.00724768,-0,0.0137675,5692.61,-21971.2,0,22696.7,191170
step02_gravity_refstate-crust.xmf,542,-1.11214e-06,4.1849e-06,0,3.00645e-06,-6.26508e+08,-6.26145e+08,-6.26432e+08,206242,-0.0118542,-0.0134089,-0,0.0178975,5103.38,-22810.6,0,23374.6,206242
step02_gravity_refstate-crust.xmf,543,-1.51743e-06,4.90332e-06,0,3.09546e-06,-6.42774e+08,-6.42334e+08,-6.4267e+08,212348,-0.0113375,-0.0203476,-0,0.023293,4268.4,-23402.3,0,23788.4,212348
step02_gravity_refstate-crust.xmf,544,-9.7018e-07,6.816e-06,0,7.13462e-06,-7.94983e+08,-7.94449e+08,-7.94916e+08,489435,-0.0145928,-0.066264,-0,0.0678518,2844.25,-28948.8,0,29088.2,489435
step02_gravity_refstate-crust.xmf,545,9.00196e-08,3.81541e-06,0,7.19417e-06,-8.5333e+08,-8.53075e+08,-8.53337e+08,493520,-0.0101755,-0.0692601,-0,0.0700035,3343.16,-31072.6,0,31251.9,493520
step02_gravity_refstate-crust.xmf,546,4.87343e-07,1.87838e-06,0,6.39541e-06,-8.80002e+08,-8.79906e+08,-8.80035e+08,438725,-0.00599314,-0.0605036,-0,0.0607997,3987.76,-32042.2,0,32289.4,438725
step02_gravity_refstate-crust.xmf,547,7.9429e-07,1.44926e-06,0,5.24296e-06,-8.75502e+08,-8.75457e+08,-8.75557e+08,359667,-0.00622897,-0.0489776,-0,0.0493721,4697.19,-31879,0,32223.2,359667
step02_gravity_refstate-crust.xmf,548,1.04104e-06,7.64798e-07,0,2.82103e-06,-8.64765e+08,-8.64784e+08,-8.64836e+08,193523,-0.00504323,-0.017451,-0,0.0181651,7410.7,-31488,0,32348.3,193523
step02_gravity_refstate-crust.xmf,549,9.21095e-07,1.01064e-06,0,4.28254e-06,-8.77775e+08,-8.77769e+08,-8.77838e+08,293782,-0.00521329,-0.0384757,-0,0.0388273,5475.24,-31961.6,0,32427.2,293782
step02_gravity_refstate-crust.xmf,550,9.30805e-07,7.92095e-07,0,3.58e-06,-8.79848e+08,-8.79858e+08,-8.79912e+08,245588,-0.00423837,-0.0299151,-0,0.0302139,6204.04,-32036.7,0,32631.9,245588
step02_gravity_refstate-crust.xmf,551,9.6321e-08,2.61677e-06,0,7.6887e-06,-8.80821e+08,-8.80648e+08,-8.80827e+08,527445,-0.00605737,-0.0723783,-0,0.0726313,3347.99,-32071.6,0,32245.9,527445
step02_gravity_refstate-crust.xmf,552,9.17834e-07,7.12345e-07,0,2.3673e-06,-8.69401e+08,-8.69415e+08,-8.69464e+08,162397,-0.00367814,-0.0104299,-0,0.0110595,8257.41,-31656.2,0,32715.5,162397
step02_gravity_refstate-crust.xmf,553,4.99264e-07,1.10326e-06,0,8.65233e-07,-7.85405e+08,-7.85364e+08,-7.8544e+08,59355,-0.00234898,0.0400882,-0,0.040157,18474.4,-28597.2,0,34045.6,59355
step02_gravity_refstate-crust.xmf,554,8.15358e-08,1.54268e-06,0,3.5433e-07,-7.77071e+08,-7.76971e+08,-7.77077e+08,24307,0.00014886,0.0608797,0,0.0608799,29040.3,-28292.8,0,40544.1,24307
step02_gravity_refstate-crust.xmf,555,4.08559e-07,1.18494e-06,0,7.59515e-07,-7.89326e+08,-7.89272e+08,-7.89354e+08,52102.7,-0.00156863,0.0437014,-0,0.0437295,19876.8,-28739.7,0,34943.6,52102.7
step02_gravity_refstate-crust.xmf,556,3.24537e-07,1.26952e-06,0,6.66931e-07,-7.93325e+08,-7.9326e+08,-7.93347e+08,45751.5,-0.000898448,0.0470282,-0,0.0470368,21337.7,-28885.1,0,35911.6,45751.5
step02_gravity_refstate-crust.xmf,557,2.71428e-07,1.30905e-06,0,5.78205e-07,-7.65994e+08,-7.65923e+08,-7.66013e+08,39664.9,-0.000976282,0.0535214,-0,0.0535303,23847.9,-27889.9,0,36695.7,39664.9
step02_gravity_refstate-crust.xmf,558,1.36207e-07,1.47432e-06,0,4.23361e-07,-7.75056e+08,-7.74964e+08,-7.75065e+08,29042.6,-8.05563e-05,0.0586645,-0,0.0586645,27248,-28219.5,0,39227.5,29042.6
step02_gravity_refstate-crust.xmf,559,2.00481e-07,1.39681e-06,0,4.97732e-07,-7.71556e+08,-7.71474e+08,-7.7157e+08,34144.4,-0.000444006,0.0562058,-0,0.0562075,25518.9,-28092.2,0,37952.5,34144.4
step02_gravity_refstate-crust.xmf,560,4.83626e-07,1.03751e-06,0,1.07012e-06,-8.55217e+08,-8.55179e+08,-8.5525e+08,73410.1,-0.000867274,0.0231462,-0,0.0231624,14225,-31138.6,0,34234,73410.1
step02_gravity_refstate-crust.xmf,561,-1.44579e-07,1.90058e-06,0,1.08789e-07,-8.43117e+08,-8.42977e+08,-8.43107e+08,7462.91,0.000625159,0.0620481,0,0.0620513,35974.7,-30696.9,0,47291.4,7462.91
step02_gravity_refstate-crust.xmf,562,-1.0296e-07,1.83049e-06,0,1.71305e-07,-8.31232e+08,-8.31099e+08,-8.31225e+08,11751.5,0.000797002,0.0618006,0,0.0618058,33841.9,-30264.2,0,45400.4,11751.5
step02_gravity_refstate-crust.xmf,563,-6.11986e-08,1.76589e-06,0,2.35721e-07,-8.25481e+08,-8.25355e+08,-8.25477e+08,16170.5,0.000907152,0.0606611,0,0.0606679,31726.8,-30054.9,0,43702.2,16170.5
step02_gravity_refstate-crust.xmf,564,-2.50666e-07,2.10886e-06,0,6.92463e-10,-9.02824e+08,-9.02662e+08,-9.02807e+08,47.503,3.92391e-20,0.0584377,0,0.0584377,40000,-32870.5,0,51773.2,47.503
step02_gravity_refstate-crust.xmf,565,-7.87635e-07,2.73878e-06,0,1.9277e-06,-4.90505e+08,-4.90263e+08,-4.90451e+08,132240,-0.00950808,0.0095945,-0,0.0135077,6646.39,-17858.4,0,19055.1,132240
step02_gravity_refstate-crust.xmf,566,-9.54635e-07,3.09557e-06,0,1.97705e-06,-5.11776e+08,-5.11498e+08,-5.1171e+08,135626,-0.0093613,0.00494192,-0,0.0105857,5906.61,-18632.6,0,19546.4,135626
step02_gravity_refstate-crust.xmf,567,-1.11587e-06,3.45683e-06,0,2.04638e-06,-5.33391e+08,-5.33077e+08,-5.33314e+08,140382,-0.00929952,0.000431937,-0,0.00930954,5320.74,-19419.5,0,20135.2,140382
step02_gravity_refstate-crust.xmf,568,-6.75778e-07,2.14391e-06,0,1.58452e-06,-4.13237e+08,-4.13044e+08,-4.13191e+08,108698,-0.0085907,0.0186987,-0,0.0205777,7418.04,-15044.9,0,16774.3,108698
step02_gravity_refstate-crust.xmf,569,-7.57797e-07,2.38142e-06,0,1.64012e-06,-4.36239e+08,-4.36024e+08,-4.36187e+08,112513,-0.00858803,0.0153068,-0,0.0175514,6871.68,-15882.3,0,17305.2,112513
step02_gravity_refstate-crust.xmf,570,-7.23613e-07,1.69498e-06,0,1.19986e-06,-3.23203e+08,-3.23037e+08,-3.23153e+08,82310.4,-0.00740091,0.0245503,-0,0.0256416,7233.66,-11766.2,0,13811.9,82310.4
step02_gravity_refstate-crust.xmf,571,-9.96379e-07,3.78381e-07,0,7.96441e-09,-94636.3,-327.738,-26284.7,546.358,-0.0175932,0.0432125,-0,0.0466566,11021.2,0,0,11021.2,546.358
step02_gravity_refstate-crust.xmf,572,-9.60789e-07,5.16796e-07,0,2.9081e-07,-4.65376e+07,-4.64363e+07,-4.64717e+07,19949.6,-0.0137538,0.0404169,-0,0.042693,9988.27,-1691.16,0,10130.4,19949.6
step02_gravity_refstate-crust.xmf,573,-8.88204e-07,8.25952e-07,0,6.19312e-07,-1.32315e+08,-1.32198e+08,-1.32254e+08,42484.8,-0.00897673,0.0346257,-0,0.0357704,8022.21,-4814.75,0,9356.16,42484.8
step02_gravity_refstate-crust.xmf,574,-9.19313e-07,6.62049e-07,0,4.89157e-07,-9.07166e+07,-9.06081e+07,-9.06536e+07,33556.2,-0.0109787,0.0375492,-0,0.0391212,8991.89,-3299.94,0,9578.29,33556.2
step02_gravity_refstate-crust.xmf,575,-1.62958e-06,6.73321e-06,0,5.51517e-06,-7.48517e+08,-7.47943e+08,-7.48405e+08,378341,-0.0139879,-0.0498904,-0,0.0518143,3244.2,-27254.3,0,27446.8,378341
step02_gravity_refstate-crust.xmf,576,-1.86138e-06,7.52646e-06,0,6.14401e-06,-7.64037e+08,-7.63393e+08,-7.63909e+08,421479,-0.0139443,-0.0577844,-0,0.0594431,2869.24,-27819.6,0,27967.2,421479
step02_gravity_refstate-crust.xmf,577,-1.74328e-06,5.93127e-06,0,4.07428e-06,-6.98045e+08,-6.97518e+08,-6.97925e+08,279496,-0.012584,-0.0346777,-0,0.0368904,3681.59,-25415.2,0,25680.4,279496
step02_gravity_refstate-crust.xmf,578,-1.83162e-06,5.50993e-06,0,3.27603e-06,-6.61421e+08,-6.60917e+08,-6.61295e+08,224736,-0.011164,-0.0266901,-0,0.0289309,3737.33,-24080.8,0,24369.1,224736
step02_gravity_refstate-crust.xmf,579,-1.1365e-06,3.79606e-06,0,2.46918e-06,-5.80262e+08,-5.79924e+08,-5.80184e+08,169385,-0.010526,-0.00606596,-0,0.0121487,5239.33,-21126.3,0,21766.3,169385
step02_gravity_refstate-crust.xmf,580,-2.0321e-06,8.15944e-06,0,6.81653e-06,-7.79601e+08,-7.78902e+08,-7.79462e+08,467614,-0.0138756,-0.0660909,-0,0.0675317,2542.56,-28386.6,0,28500.2,467614
step02_gravity_refstate-crust.xmf,581,-1.08658e-06,7.41368e-06,0,7.83485e-06,-8.08926e+08,-8.08343e+08,-8.08851e+08,537471,-0.0140215,-0.0750563,-0,0.0763548,2508.7,-29456.8,0,29563.5,537471
step02_gravity_refstate-crust.xmf,582,-4.86184e-07,6.06708e-06,0,7.63998e-06,-8.23804e+08,-8.23354e+08,-8.2377e+08,524103,-0.0133988,-0.0739752,-0,0.0751788,2787.93,-29998.8,0,30128.1,524103
step02_gravity_refstate-crust.xmf,583,-1.65759e-07,4.90933e-06,0,7.43446e-06,-8.38755e+08,-8.38407e+08,-8.38744e+08,510004,-0.0120089,-0.0721032,-0,0.0730964,3060.41,-30542.7,0,30695.6,510004
step02_gravity_refstate-crust.xmf,584,-2.72536e-07,3.86602e-06,0,8.13143e-06,-8.66756e+08,-8.66472e+08,-8.66738e+08,557816,-0.00820501,-0.0771387,-0,0.0775739,3032.02,-31560,0,31705.3,557816
step02_gravity_refstate-crust.xmf,585,8.68867e-07,6.82455e-07,0,3.00049e-06,-8.82014e+08,-8.82027e+08,-8.82074e+08,205834,-0.00327074,-0.0222741,-0,0.0225129,6944.8,-32115.2,0,32857.5,205834
step02_gravity_refstate-crust.xmf,586,3.53825e-07,1.46189e-06,0,7.18506e-06,-8.95056e+08,-8.9498e+08,-8.95081e+08,492895,-0.00367576,-0.0673865,-0,0.0674866,3658.72,-32589.1,0,32793.9,492895
step02_gravity_refstate-crust.xmf,587,7.91009e-07,7.21081e-07,0,2.00823e-06,-8.71956e+08,-8.71961e+08,-8.7201e+08,137765,-0.00267472,-0.00418011,-0,0.0049626,9105.18,-31748.8,0,33028.6,137765
step02_gravity_refstate-crust.xmf,588,6.94182e-07,7.81967e-07,0,1.73111e-06,-8.73735e+08,-8.73729e+08,-8.73783e+08,118754,-0.00180986,0.00185381,-0,0.0025908,10027.9,-31813.2,0,33356.2,118754
step02_gravity_refstate-crust.xmf,589,5.97647e-07,8.51508e-07,0,1.50549e-06,-8.74791e+08,-8.74774e+08,-8.74832e+08,103277,-0.00111007,0.00732915,-0,0.00741274,10970,-31851.4,0,33687.6,103277
step02_gravity_refstate-crust.xmf,590,5.17428e-07,9.28005e-07,0,1.32309e-06,-8.74731e+08,-8.74702e+08,-8.74766e+08,90764.3,-0.000570049,0.0124924,-0,0.0125054,11961.4,-31849,0,34021,90764.3
step02_gravity_refstate-crust.xmf,591,4.48708e-07,1.01258e-06,0,1.15603e-06,-8.73203e+08,-8.73164e+08,-8.73234e+08,79303.3,-0.000127294,0.0179974,-0,0.0179979,13141.8,-31793.2,0,34402.3,79303.3
step02_gravity_refstate-crust.xmf,592,2.3969e-07,1.35794e-06,0,5.80593e-07,-7.98771e+08,-7.98694e+08,-7.98787e+08,39828.7,-0.000298352,0.0499957,-0,0.0499966,22855.1,-29083.1,0,36988.9,39828.7
step02_gravity_refstate-crust.xmf,593,4.38657e-07,1.14924e-06,0,8.4475e-07,-8.18456e+08,-8.18407e+08,-8.18486e+08,57949.8,-0.00126038,0.0365844,-0,0.0366061,17734.4,-29800.2,0,34678,57949.8
step02_gravity_refstate-crust.xmf,594,4.48867e-07,1.08469e-06,0,9.91461e-07,-8.52112e+08,-8.52069e+08,-8.52143e+08,68014.2,-0.00066761,0.0264699,-0,0.0264783,15070.6,-31025.5,0,34492.1,68014.2
step02_gravity_refstate-crust.xmf,595,4.20292e-07,1.12701e-06,0,9.25082e-07,-8.48509e+08,-8.48461e+08,-8.48538e+08,63460.6,-0.000518264,0.0295325,-0,0.029537,15900.7,-30894.3,0,34746,63460.6
step02_gravity_refstate-crust.xmf,596,-1.86417e-08,1.70347e-06,0,2.95574e-07,-8.22215e+08,-8.22097e+08,-8.22213e+08,20276.4,0.000935406,0.0591191,0,0.0591265,29854.9,-29936.1,0,42278.7,20276.4
step02_gravity_refstate-crust.xmf,597,-2.2435e-07,2.0574e-06,0,8.63442e-08,-8.92129e+08,-8.91973e+08,-8.92114e+08,5923.21,0.000809201,0.0586988,0,0.0587044,36489.4,-32481.1,0,48851.8,5923.21
step02_gravity_refstate-crust.xmf,598,-2.82249e-07,2.17935e-06,0,4.7204e-08,-9.27645e+08,-9.27476e+08,-9.27626e+08,3238.2,0.000569274,0.056326,0,0.0563289,37997,-33774.1,0,50837.6,3238.2
step02_gravity_refstate-crust.xmf,599,-1.29779e-06,3.83295e-06,0,2.13181e-06,-5.55961e+08,-5.55609e+08,-5.55872e+08,146242,-0.00925393,-0.00441746,-0,0.0102542,4777.79,-20241,0,20797.2,146242
step02_gravity_refstate-crust.xmf,600,-7.41592e-07,2.08186e-06,0,1.42737e-06,-3.87317e+08,-3.87123e+08,-3.87266e+08,97917.3,-0.00792306,0.0196451,-0,0.0211827,7016.09,-14100.9,0,15749.9,97917.3
step02_gravity_refstate-crust.xmf,601,-8.90195e-07,2.68277e-06,0,1.69042e-06,-4.61929e+08,-4.61683e+08,-4.61867e+08,115963,-0.00849213,0.0109502,-0,0.0138573,6160.25,-16817.5,0,17910.3,115963
step02_gravity_refstate-crust.xmf,602,-8.53026e-07,2.34947e-06,0,1.43653e-06,-4.10085e+08,-4.09866e+08,-4.10027e+08,98546,-0.00765733,0.015965,-0,0.0177064,6261.66,-14929.8,0,16189.7,98546
step02_gravity_refstate-crust.xmf,603,-7.36203e-07,1.13325e-06,0,9.02745e-07,-2.14907e+08,-2.14779e+08,-2.14856e+08,61928.3,-0.00786093,0.0316939,-0,0.0326542,8014.74,-7822.67,0,11199.6,61928.3
step02_gravity_refstate-crust.xmf,604,-7.53394e-07,1.35668e-06,0,9.705e-07,-2.5389e+08,-2.53745e+08,-2.53839e+08,66576.3,-0.00719386,0.0285181,-0,0.0294115,7293.02,-9242.18,0,11773.1,66576.3
step02_gravity_refstate-crust.xmf,605,-7.94024e-07,1.59134e-06,0,1.01897e-06,-2.89105e+08,-2.88942e+08,-2.89051e+08,69901.1,-0.00673503,0.02532,-0,0.0262004,6613.5,-10524.4,0,12429.9,69901.1
step02_gravity_refstate-crust.xmf,606,-8.11693e-07,1.96668e-06,0,1.22525e-06,-3.5398e+08,-3.53789e+08,-3.53924e+08,84052.4,-0.00706516,0.0207533,-0,0.0219229,6431.01,-12886.8,0,14402.3,84052.4
step02_gravity_refstate-crust.xmf,607,-8.65015e-07,1.00865e-06,0,7.15676e-07,-1.74084e+08,-1.73956e+08,-1.74025e+08,49095.4,-0.00753856,0.0316785,-0,0.0325631,7148.22,-6335.77,0,9551.91,49095.4
step02_gravity_refstate-crust.xmf,608,-2.01312e-06,6.61029e-06,0,4.44854e-06,-7.15291e+08,-7.147e+08,-7.15153e+08,305170,-0.0126165,-0.041392,-0,0.0432721,3294.03,-26043,0,26250.5,305170
step02_gravity_refstate-crust.xmf,609,-2.13203e-06,6.21957e-06,0,3.51967e-06,-6.79973e+08,-6.794e+08,-6.79827e+08,241449,-0.0111012,-0.0329866,-0,0.0348045,3320.53,-24756.1,0,24977.8,241449
step02_gravity_refstate-crust.xmf,610,-2.33639e-06,7.40849e-06,0,4.87065e-06,-7.31623e+08,-7.30954e+08,-7.31462e+08,334126,-0.0125654,-0.0485106,-0,0.0501116,2917.76,-26637.5,0,26796.8,334126
step02_gravity_refstate-crust.xmf,611,-1.34737e-06,4.29346e-06,0,2.61041e-06,-6.01731e+08,-6.01344e+08,-6.01639e+08,179074,-0.0105185,-0.0115262,-0,0.0156042,4690.03,-21907.8,0,22404.2,179074
step02_gravity_refstate-crust.xmf,612,-2.00114e-06,5.55948e-06,0,2.80651e-06,-6.41261e+08,-6.40743e+08,-6.41124e+08,192527,-0.00987301,-0.023964,-0,0.0259181,3467.68,-23346.3,0,23602.4,192527
step02_gravity_refstate-crust.xmf,613,-1.61713e-06,4.82989e-06,0,2.71262e-06,-6.20314e+08,-6.19872e+08,-6.20203e+08,186086,-0.0103004,-0.0170874,-0,0.0199519,4119.84,-22584.1,0,22956.8,186086
step02_gravity_refstate-crust.xmf,614,-3.39962e-08,2.19804e-06,0,8.84047e-06,-8.94685e+08,-8.94531e+08,-8.94682e+08,606456,-0.00384265,-0.0806496,-0,0.0807411,3010.95,-32575.2,0,32714,606456
step02_gravity_refstate-crust.xmf,615,-2.18457e-06,9.18461e-06,0,7.73747e-06,-7.94133e+08,-7.93353e+08,-7.93983e+08,530790,-0.013607,-0.0749897,-0,0.0762142,2225.82,-28916.6,0,29002.1,530790
step02_gravity_refstate-crust.xmf,616,-6.81642e-07,5.25432e-06,0,8.37253e-06,-8.52364e+08,-8.51957e+08,-8.52318e+08,574356,-0.0101378,-0.0807727,-0,0.0814064,2741.53,-31036.6,0,31157.4,574356
step02_gravity_refstate-crust.xmf,617,-5.43031e-07,3.63517e-06,0,9.42685e-06,-8.80462e+08,-8.80175e+08,-8.80424e+08,646682,-0.00597783,-0.0860983,-0,0.0863056,2705.97,-32057.5,0,32171.5,646682
step02_gravity_refstate-crust.xmf,618,5.82879e-07,1.09875e-06,0,5.87337e-06,-8.9459e+08,-8.94555e+08,-8.9463e+08,402913,-0.00343082,-0.0555123,-0,0.0556182,4332.96,-32572.5,0,32859.4,402913
step02_gravity_refstate-crust.xmf,619,7.21573e-07,6.40499e-07,0,2.51219e-06,-8.90107e+08,-8.90113e+08,-8.90157e+08,172336,-0.00157697,-0.015281,-0,0.0153621,7730.82,-32409.2,0,33318.4,172336
step02_gravity_refstate-crust.xmf,620,7.19124e-07,8.12225e-07,0,4.78225e-06,-8.94681e+08,-8.94675e+08,-8.94731e+08,328062,-0.0029448,-0.0447703,-0,0.0448671,5045.05,-32575.9,0,32964.3,328062
step02_gravity_refstate-crust.xmf,621,7.43055e-07,6.3354e-07,0,3.93103e-06,-8.96482e+08,-8.9649e+08,-8.96533e+08,269668,-0.00212877,-0.0353945,-0,0.0354585,5768.96,-32641.3,0,33147.2,269668
step02_gravity_refstate-crust.xmf,622,7.10814e-07,5.71777e-07,0,3.2838e-06,-8.97822e+08,-8.97832e+08,-8.97871e+08,225269,-0.00140888,-0.0273279,-0,0.0273642,6483.69,-32689.9,0,33326.7,225269
step02_gravity_refstate-crust.xmf,623,6.1418e-07,6.89533e-07,0,2.08919e-06,-8.9249e+08,-8.92485e+08,-8.92532e+08,143318,-0.000659613,-0.00781382,-0,0.00784161,8675.13,-32495.6,0,33633.6,143318
step02_gravity_refstate-crust.xmf,624,3.56435e-07,1.23097e-06,0,7.51227e-07,-8.21437e+08,-8.21377e+08,-8.21461e+08,51534.2,-0.000617387,0.0401153,-0,0.04012,19040.1,-29908.6,0,35454.9,51534.2
step02_gravity_refstate-crust.xmf,625,3.04712e-08,1.63388e-06,0,3.58618e-07,-8.19506e+08,-8.19396e+08,-8.19508e+08,24601.2,0.000877781,0.057147,0,0.0571537,27994.3,-29837.6,0,40914.1,24601.2
step02_gravity_refstate-crust.xmf,626,2.77303e-07,1.31739e-06,0,6.65056e-07,-8.25058e+08,-8.24987e+08,-8.25078e+08,45622.8,-3.2686e-05,0.0434821,-0,0.0434821,20450.4,-30040.2,0,36340.6,45622.8
step02_gravity_refstate-crust.xmf,627,2.05116e-07,1.40315e-06,0,5.88261e-07,-8.28898e+08,-8.28816e+08,-8.28912e+08,40354.7,0.00045067,0.0465399,0,0.0465421,21907.2,-30179.9,0,37292.8,40354.7
step02_gravity_refstate-crust.xmf,628,1.45196e-07,1.47763e-06,0,4.9211e-07,-8.14131e+08,-8.1404e+08,-8.14141e+08,33758.8,0.000453077,0.0522167,0,0.0522187,24475,-29642.1,0,38440.6,33758.8
step02_gravity_refstate-crust.xmf,629,8.73624e-08,1.55531e-06,0,4.2294e-07,-8.14794e+08,-8.14693e+08,-8.148e+08,29013.7,0.000678351,0.0550743,0,0.0550785,26280.6,-29666.2,0,39632.7,29013.7
step02_gravity_refstate-crust.xmf,630,3.2835e-07,1.10991e-06,0,1.03279e-06,-8.81978e+08,-8.81925e+08,-8.82001e+08,70849.7,0.000859619,0.0216455,0,0.0216625,14109.4,-32112.3,0,35075.3,70849.7
step02_gravity_refstate-crust.xmf,631,3.10831e-07,1.16579e-06,0,9.3547e-07,-8.75602e+08,-8.75543e+08,-8.75623e+08,64173.2,0.000802729,0.0259794,0,0.0259918,15201.9,-31880.2,0,35319.2,64173.2
step02_gravity_refstate-crust.xmf,632,3.47057e-07,1.20035e-06,0,8.3127e-07,-8.49577e+08,-8.49518e+08,-8.49601e+08,57025.1,-2.23368e-05,0.0331929,-0,0.0331929,17050.2,-30933,0,35320.8,57025.1
step02_gravity_refstate-crust.xmf,633,-1.96678e-07,2.00695e-06,0,1.34136e-07,-8.83827e+08,-8.83676e+08,-8.83814e+08,9201.76,0.00113088,0.0585936,0,0.0586046,34696,-32178.9,0,47321.2,9201.76
step02_gravity_refstate-crust.xmf,634,-1.56461e-07,1.93571e-06,0,1.91588e-07,-8.73768e+08,-8.73625e+08,-8.73758e+08,13142.9,0.00139806,0.0580987,0,0.0581155,32632.6,-31812.8,0,45573.4,13142.9
step02_gravity_refstate-crust.xmf,635,-1.17535e-07,1.87034e-06,0,2.49377e-07,-8.69063e+08,-8.68927e+08,-8.69055e+08,17107.3,0.00160997,0.0568322,0,0.056855,30637.3,-31641.5,0,44043.5,17107.3
step02_gravity_refstate-crust.xmf,636,-3.41284e-07,2.31022e-06,0,8.13476e-10,-9.68092e+08,-9.67911e+08,-9.68069e+08,55.8044,5.6053e-20,0.0531874,0,0.0531874,40000,-35246.6,0,53313.4,55.8044
step02_gravity_refstate-crust.xmf,637,-1.05029e-06,3.05622e-06,0,1.72348e-06,-4.85886e+08,-4.85604e+08,-4.85814e+08,118231,-0.00831013,0.00645129,-0,0.0105203,5453.32,-17689.6,0,18511.1,118231
step02_gravity_refstate-crust.xmf,638,-1.22938e-06,3.43694e-06,0,1.74591e-06,-5.08388e+08,-5.08068e+08,-5.08304e+08,119770,-0.00807021,0.00194173,-0,0.00830052,4797.71,-18508.7,0,19120.4,119770
step02_gravity_refstate-crust.xmf,639,-1.41524e-06,3.83904e-06,0,1.78241e-06,-5.3134e+08,-5.30979e+08,-5.31243e+08,122273,-0.00789501,-0.00264755,-0,0.00832711,4251.5,-19344.2,0,19805.9,122273
step02_gravity_refstate-crust.xmf,640,-9.72796e-07,2.63972e-06,0,1.45184e-06,-4.33848e+08,-4.33601e+08,-4.33782e+08,99596.1,-0.00744434,0.0122049,-0,0.0142961,5598.79,-15794.8,0,16757.8,99596.1
step02_gravity_refstate-crust.xmf,641,-8.67024e-07,1.83857e-06,0,1.03045e-06,-3.20187e+08,-3.20001e+08,-3.20128e+08,70689,-0.00625951,0.0218938,-0,0.022771,5826.77,-11656.1,0,13031.3,70689
step02_gravity_refstate-crust.xmf,642,-1.27715e-06,4.84704e-07,0,8.36611e-09,-121317,-453.649,-33704.3,573.915,-0.0152766,0.039377,-0,0.0422365,8975.48,0,0,8975.48,573.915
step02_gravity_refstate-crust.xmf,643,-1.17838e-06,5.99745e-07,0,2.51276e-07,-4.56347e+07,-4.55127e+07,-4.55539e+07,17237.5,-0.0116451,0.0367635,-0,0.0385638,7976.38,-1657.54,0,8146.79,17237.5
step02_gravity_refstate-crust.xmf,644,-1.03564e-06,8.93782e-07,0,4.99797e-07,-1.2925e+08,-1.29118e+08,-1.29179e+08,34286.1,-0.00721844,0.0316104,-0,0.0324241,6133.09,-4702.67,0,7728.51,34286.1
step02_gravity_refstate-crust.xmf,645,-1.09638e-06,7.33018e-07,0,4.07529e-07,-8.82126e+07,-8.80871e+07,-8.81374e+07,27956.5,-0.00909108,0.0342062,-0,0.0353937,7041.11,-3208.17,0,7737.54,27956.5
step02_gravity_refstate-crust.xmf,646,-2.75698e-06,8.40597e-06,0,5.34049e-06,-7.47068e+08,-7.46302e+08,-7.46879e+08,366358,-0.0123626,-0.0562454,-0,0.057588,2535.43,-27199.6,0,27317.5,366358
step02_gravity_refstate-crust.xmf,647,-3.44597e-06,9.84187e-06,0,5.90218e-06,-7.62809e+08,-7.61897e+08,-7.62572e+08,404890,-0.0118988,-0.0654842,-0,0.0665565,2110.91,-27772.1,0,27852.2,404890
step02_gravity_refstate-crust.xmf,648,-2.47358e-06,6.96919e-06,0,3.79623e-06,-6.98109e+08,-6.97461e+08,-6.97939e+08,260421,-0.0110158,-0.0396318,-0,0.0411343,2936.31,-25416.1,0,25585.2,260421
step02_gravity_refstate-crust.xmf,649,-3.49877e-06,1.04563e-05,0,6.83604e-06,-7.79606e+08,-7.78649e+08,-7.79366e+08,468952,-0.0121609,-0.073738,-0,0.0747341,1926.74,-28384.4,0,28449.7,468952
step02_gravity_refstate-crust.xmf,650,-2.38685e-06,6.25928e-06,0,2.92708e-06,-6.61155e+08,-6.60562e+08,-6.60991e+08,200798,-0.00951111,-0.0306095,-0,0.0320532,2958.69,-24070,0,24251.2,200798
step02_gravity_refstate-crust.xmf,651,-1.51566e-06,4.29164e-06,0,2.21969e-06,-5.78253e+08,-5.77854e+08,-5.78149e+08,152271,-0.00914327,-0.00962002,-0,0.0132719,4242.09,-21052.4,0,21475.5,152271
step02_gravity_refstate-crust.xmf,652,3.11022e-07,9.01575e-07,0,8.24477e-06,-9.09758e+08,-9.09717e+08,-9.09779e+08,565591,-0.00135124,-0.0750217,-0,0.0750339,3309.7,-33123.3,0,33288.2,565591
step02_gravity_refstate-crust.xmf,653,-2.33791e-06,1.01244e-05,0,8.58474e-06,-8.08008e+08,-8.07153e+08,-8.07848e+08,588913,-0.0129656,-0.0851102,-0,0.0860922,1896.69,-29422.6,0,29483.6,588913
step02_gravity_refstate-crust.xmf,654,-1.47654e-06,8.21598e-06,0,8.53807e-06,-8.22525e+08,-8.2186e+08,-8.22424e+08,585711,-0.0128961,-0.0847597,-0,0.0857352,2181.31,-29951.6,0,30030.9,585711
step02_gravity_refstate-crust.xmf,655,-1.07029e-06,6.74431e-06,0,8.42686e-06,-8.37405e+08,-8.36869e+08,-8.37331e+08,578083,-0.0117991,-0.0833014,-0,0.0841329,2460.09,-30492.7,0,30591.8,578083
step02_gravity_refstate-crust.xmf,656,-1.13432e-06,5.27217e-06,0,9.73043e-06,-8.66055e+08,-8.65615e+08,-8.65977e+08,667507,-0.00789954,-0.0900683,-0,0.090414,2438.53,-31533.2,0,31627.3,667507
step02_gravity_refstate-crust.xmf,657,6.55808e-07,5.7505e-07,0,2.81603e-06,-8.98752e+08,-8.98758e+08,-8.98797e+08,193180,-0.000825671,-0.0207171,-0,0.0207335,7147.3,-32723.5,0,33495,193180
step02_gravity_refstate-crust.xmf,658,4.94227e-07,5.58767e-07,0,6.60855e-06,-9.10798e+08,-9.10793e+08,-9.10831e+08,453346,-0.000904311,-0.0622503,-0,0.0622569,3969.1,-33161.4,0,33398.1,453346
step02_gravity_refstate-crust.xmf,659,5.05815e-07,7.53404e-07,0,1.79162e-06,-8.94805e+08,-8.94788e+08,-8.94839e+08,122905,6.70784e-05,-0.00201867,0,0.00201978,9514.18,-32579.5,0,33940.3,122905
step02_gravity_refstate-crust.xmf,660,4.23216e-07,8.50752e-07,0,1.5611e-06,-8.96804e+08,-8.96775e+08,-8.96833e+08,107091,0.00069812,0.00362357,0,0.0036902,10436.2,-32652.1,0,34279.3,107091
step02_gravity_refstate-crust.xmf,661,3.44077e-07,9.45807e-07,0,1.3671e-06,-8.98518e+08,-8.98477e+08,-8.98542e+08,93783.2,0.0012245,0.00889605,0,0.00897993,11408.6,-32714.3,0,34646.6,93783.2
step02_gravity_refstate-crust.xmf,662,2.76153e-07,1.04241e-06,0,1.20657e-06,-9.00111e+08,-9.00059e+08,-9.0013e+08,82770.7,0.00167539,0.0139023,0,0.0140029,12449.4,-32772.2,0,35057.1,82770.7
step02_gravity_refstate-crust.xmf,663,2.10683e-07,1.1375e-06,0,1.07882e-06,-9.02864e+08,-9.028e+08,-9.02878e+08,74007.3,0.00213332,0.0183482,0,0.0184718,13499.7,-32872.3,0,35536.3,74007.3
step02_gravity_refstate-crust.xmf,664,1.43414e-07,1.48016e-06,0,5.26064e-07,-8.33217e+08,-8.33125e+08,-8.33227e+08,36088,0.000817259,0.0489484,0,0.0489553,23232.7,-30337,0,38211.1,36088
step02_gravity_refstate-crust.xmf,665,2.76745e-07,1.28785e-06,0,7.4592e-07,-8.53097e+08,-8.53027e+08,-8.53116e+08,51170.1,0.000540896,0.0367162,0,0.0367202,18318.8,-31061,0,36060.5,51170.1
step02_gravity_refstate-crust.xmf,666,2.42433e-07,1.25927e-06,0,8.39917e-07,-8.79098e+08,-8.79028e+08,-8.79114e+08,57618.3,0.00133973,0.029923,0,0.029953,16424.9,-32007.4,0,35975.7,57618.3
step02_gravity_refstate-crust.xmf,667,-7.49478e-08,1.80078e-06,0,3.06053e-07,-8.64798e+08,-8.6467e+08,-8.64793e+08,20995.2,0.00171695,0.055271,0,0.0552977,28800.9,-31486.3,0,42671.8,20995.2
step02_gravity_refstate-crust.xmf,668,-2.88789e-07,2.19694e-06,0,1.00432e-07,-9.40674e+08,-9.40503e+08,-9.40654e+08,6889.66,0.00128226,0.0546723,0,0.0546873,35703.4,-34248.4,0,49474.1,6889.66
step02_gravity_refstate-crust.xmf,669,-3.74957e-07,2.38981e-06,0,4.86548e-08,-9.96394e+08,-9.96204e+08,-9.96368e+08,3337.72,0.000816965,0.0505783,0,0.0505849,37818.8,-36276.9,0,52404.9,3337.72
step02_gravity_refstate-crust.xmf,670,-1.61714e-06,4.24472e-06,0,1.83514e-06,-5.54408e+08,-5.54006e+08,-5.54297e+08,125891,-0.00774812,-0.00743189,-0,0.0107362,3773.15,-20183.8,0,20533.5,125891
step02_gravity_refstate-crust.xmf,671,-9.23117e-07,2.26974e-06,0,1.22352e-06,-3.81543e+08,-3.81324e+08,-3.8148e+08,83933.7,-0.00669431,0.0169322,-0,0.0182075,5630.53,-13890.2,0,14988,83933.7
step02_gravity_refstate-crust.xmf,672,-1.12081e-06,2.963e-06,0,1.46505e-06,-4.5914e+08,-4.5886e+08,-4.59063e+08,100502,-0.00720276,0.00801787,-0,0.010778,4931.58,-16715.5,0,17427.8,100502
step02_gravity_refstate-crust.xmf,673,-1.03743e-06,2.56481e-06,0,1.22039e-06,-4.07738e+08,-4.07491e+08,-4.07667e+08,83718.9,-0.00640171,0.0132687,-0,0.0147323,4969.72,-14843.9,0,15653.7,83718.9
step02_gravity_refstate-crust.xmf,674,-8.74294e-07,1.26336e-06,0,7.6674e-07,-2.18616e+08,-2.18469e+08,-2.18556e+08,52598.4,-0.00633929,0.0281555,-0,0.0288603,6149.17,-7957.35,0,10056.4,52598.4
step02_gravity_refstate-crust.xmf,675,-8.52239e-07,1.47729e-06,0,8.65893e-07,-2.59266e+08,-2.59106e+08,-2.59207e+08,59400.2,-0.00618958,0.0259477,-0,0.0266757,6040.92,-9437.66,0,11205.5,59400.2
step02_gravity_refstate-crust.xmf,676,-9.10629e-07,1.69244e-06,0,8.49974e-07,-2.85908e+08,-2.8573e+08,-2.85846e+08,58308.2,-0.00556891,0.0231245,-0,0.0237856,5260.19,-10407.7,0,11661.5,58308.2
step02_gravity_refstate-crust.xmf,677,-9.66299e-07,2.12801e-06,0,1.01417e-06,-3.50391e+08,-3.50179e+08,-3.50325e+08,69571.9,-0.00576489,0.0182307,-0,0.0191205,5009.22,-12755.7,0,13704,69571.9
step02_gravity_refstate-crust.xmf,678,-9.93723e-07,1.08376e-06,0,5.63905e-07,-1.70839e+08,-1.70697e+08,-1.70771e+08,38683.9,-0.00588738,0.0289882,-0,0.02958,5335.96,-6217.23,0,8193.07,38683.9
step02_gravity_refstate-crust.xmf,679,-2.86839e-06,7.81797e-06,0,4.08712e-06,-7.14841e+08,-7.14108e+08,-7.14644e+08,280376,-0.0108407,-0.0464511,-0,0.0476993,2575.45,-26025,0,26152.1,280376
step02_gravity_refstate-crust.xmf,680,-2.808e-06,7.15226e-06,0,3.06901e-06,-6.80336e+08,-6.79653e+08,-6.80144e+08,210534,-0.00915872,-0.0373704,-0,0.0384763,2527.44,-24768,0,24896.7,210534
step02_gravity_refstate-crust.xmf,681,-3.36068e-06,8.83847e-06,0,4.38918e-06,-7.30716e+08,-7.29879e+08,-7.30485e+08,301098,-0.0105292,-0.0537185,-0,0.0547407,2219.23,-26602.5,0,26694.9,301098
step02_gravity_refstate-crust.xmf,682,-4.61697e-06,1.1772e-05,0,5.70985e-06,-7.69332e+08,-7.68208e+08,-7.69015e+08,391696,-0.0101973,-0.0731709,-0,0.0738781,1591.95,-28007.9,0,28053.1,391696
step02_gravity_refstate-crust.xmf,683,-1.78409e-06,4.8605e-06,0,2.28267e-06,-5.99312e+08,-5.98856e+08,-5.99189e+08,156591,-0.00887903,-0.0151285,-0,0.0175416,3692.23,-21818.8,0,22129,156591
step02_gravity_refstate-crust.xmf,684,-2.50543e-06,6.23422e-06,0,2.34184e-06,-6.41077e+08,-6.40477e+08,-6.40905e+08,160650,-0.00792455,-0.0275294,-0,0.0286473,2605.87,-23338.6,0,23483.6,160650
step02_gravity_refstate-crust.xmf,685,-2.11762e-06,5.50089e-06,0,2.32101e-06,-6.20303e+08,-6.1978e+08,-6.20158e+08,159222,-0.00845291,-0.0211524,-0,0.0227788,3130.37,-22582.7,0,22798.6,159222
step02_gravity_refstate-crust.xmf,686,-5.93001e-07,3.05999e-06,0,1.09175e-05,-8.93549e+08,-8.93298e+08,-8.93508e+08,748938,-0.00382771,-0.0956389,-0,0.0957155,2381.02,-32532.9,0,32619.9,748938
step02_gravity_refstate-crust.xmf,687,3.49922e-08,1.45847e-06,0,1.01925e-05,-9.08395e+08,-9.08298e+08,-9.08398e+08,699206,-0.00168891,-0.0898161,-0,0.0898319,2657.56,-33073.4,0,33180,699206
step02_gravity_refstate-crust.xmf,688,-4.01752e-06,1.23309e-05,0,7.87163e-06,-7.93646e+08,-7.92524e+08,-7.9337e+08,539994,-0.0117405,-0.0833708,-0,0.0841934,1632.76,-28896.3,0,28942.4,539994
step02_gravity_refstate-crust.xmf,689,-1.79098e-06,7.1131e-06,0,9.81658e-06,-8.51559e+08,-8.50948e+08,-8.51436e+08,673417,-0.00956397,-0.0929777,-0,0.0934683,2178.99,-31005.6,0,31082.1,673417
step02_gravity_refstate-crust.xmf,690,-1.30407e-06,4.66941e-06,0,1.13686e-05,-8.79383e+08,-8.78973e+08,-8.79294e+08,779888,-0.00562706,-0.0997463,-0,0.0999049,2149.24,-32016.8,0,32088.8,779888
step02_gravity_refstate-crust.xmf,691,5.59734e-07,4.35517e-07,0,5.38244e-06,-9.11666e+08,-9.11674e+08,-9.11704e+08,369236,-0.000397089,-0.0510048,-0,0.0510063,4647.28,-33193,0,33516.8,369236
step02_gravity_refstate-crust.xmf,692,3.64616e-07,6.41456e-07,0,2.1685e-06,-9.13542e+08,-9.13523e+08,-9.13567e+08,148759,0.00171195,-0.0108328,0,0.0109673,8343.45,-33260.9,0,34291.4,148759
step02_gravity_refstate-crust.xmf,693,5.63362e-07,3.65806e-07,0,4.37916e-06,-9.12948e+08,-9.12962e+08,-9.12987e+08,300410,0.000212825,-0.041007,0,0.0410076,5349.94,-33239.6,0,33667.4,300410
step02_gravity_refstate-crust.xmf,694,5.18094e-07,3.75697e-07,0,3.60627e-06,-9.14344e+08,-9.14354e+08,-9.1438e+08,247390,0.000819685,-0.0322507,0,0.0322611,6063.25,-33290.3,0,33837.9,247390
step02_gravity_refstate-crust.xmf,695,4.61746e-07,4.43512e-07,0,3.01135e-06,-9.14841e+08,-9.14842e+08,-9.14872e+08,206579,0.00124816,-0.0244897,0,0.0245215,6789.64,-33308.2,0,33993.2,206579
step02_gravity_refstate-crust.xmf,696,4.27397e-07,5.41383e-07,0,2.54952e-06,-9.13261e+08,-9.13253e+08,-9.1329e+08,174897,0.00135786,-0.0174777,0,0.0175303,7535.3,-33250.7,0,34093.9,174897
step02_gravity_refstate-crust.xmf,697,4.9101e-07,-4.65039e-08,0,9.33296e-06,-9.23977e+08,-9.24014e+08,-9.24011e+08,640241,0.000813984,-0.0830864,0,0.0830904,2955.23,-33640.2,0,33769.8,640241
step02_gravity_refstate-crust.xmf,698,5.28714e-07,-1.2758e-07,0,7.55054e-06,-9.25897e+08,-9.25942e+08,-9.25933e+08,517967,0.00145804,-0.06937,0,0.0693854,3598.23,-33710.1,0,33901.6,517967
step02_gravity_refstate-crust.xmf,699,2.93702e-07,7.38314e-07,0,1.88885e-06,-9.15039e+08,-9.15008e+08,-9.15059e+08,129575,0.00213769,-0.00527824,0,0.0056947,9111.57,-33315.2,0,34538.8,129575
step02_gravity_refstate-crust.xmf,700,1.5954e-07,1.22522e-06,0,9.67141e-07,-9.04929e+08,-9.04856e+08,-9.0494e+08,66345.9,0.00247544,0.0225742,0,0.0227096,14612,-32947.4,0,36042.2,66345.9
step02_gravity_refstate-crust.xmf,701,2.0832e-07,1.37331e-06,0,6.67726e-07,-8.56734e+08,-8.56654e+08,-8.56748e+08,45806,0.00101387,0.03997,0,0.0399829,19637.3,-31193.2,0,36859.8,45806
step02_gravity_refstate-crust.xmf,702,-2.58887e-08,1.72272e-06,0,3.63581e-07,-8.59129e+08,-8.59009e+08,-8.59127e+08,24941.7,0.00169205,0.0535533,0,0.05358,27083.8,-31280,0,41376,24941.7
step02_gravity_refstate-crust.xmf,703,1.45437e-07,1.45876e-06,0,5.95055e-07,-8.60053e+08,-8.59963e+08,-8.60063e+08,40820.8,0.00139012,0.0430979,0,0.0431203,21058.3,-31314,0,37736.1,40820.8
step02_gravity_refstate-crust.xmf,704,8.95643e-08,1.53967e-06,0,5.29587e-07,-8.62966e+08,-8.62866e+08,-8.62972e+08,36329.6,0.00165836,0.0459313,0,0.0459612,22509.1,-31419.9,0,38650.6,36329.6
step02_gravity_refstate-crust.xmf,705,4.35526e-08,1.61164e-06,0,4.66974e-07,-8.62689e+08,-8.62582e+08,-8.62692e+08,32034.4,0.0017557,0.0488484,0,0.0488799,24102.9,-31409.7,0,39591.9,32034.4
step02_gravity_refstate-crust.xmf,706,2.96948e-08,1.63734e-06,0,4.22005e-07,-8.51895e+08,-8.51785e+08,-8.51897e+08,28949.6,0.00152165,0.0517236,0,0.051746,25486.9,-31016.8,0,40145,28949.6
step02_gravity_refstate-crust.xmf,707,1.82181e-07,1.3406e-06,0,7.57437e-07,-8.81953e+08,-8.81873e+08,-8.81965e+08,51960.2,0.00173682,0.0333572,0,0.0334024,17612.2,-32111.2,0,36624,51960.2
step02_gravity_refstate-crust.xmf,708,-2.43749e-07,2.10391e-06,0,1.57013e-07,-9.22183e+08,-9.22022e+08,-9.22167e+08,10771.1,0.00172047,0.0551054,0,0.0551322,33527.5,-33575.3,0,47448.9,10771.1
step02_gravity_refstate-crust.xmf,709,-2.10266e-07,2.03889e-06,0,2.12324e-07,-9.16418e+08,-9.16264e+08,-9.16404e+08,14565.4,0.00212364,0.054157,0,0.0541986,31465.4,-33365.4,0,45862,14565.4
step02_gravity_refstate-crust.xmf,710,-1.73599e-07,1.96935e-06,0,2.67237e-07,-9.11512e+08,-9.11365e+08,-9.115e+08,18332.5,0.00241865,0.0528498,0,0.0529051,29554.4,-33186.9,0,44439.1,18332.5
step02_gravity_refstate-crust.xmf,711,-4.18965e-07,2.50807e-06,0,1.76537e-10,-1.03336e+09,-1.03316e+09,-1.03333e+09,12.1104,5.13992e-20,0.047462,0,0.047462,40000,-37622.7,0,54913.3,12.1104
step02_gravity_refstate-crust.xmf,712,-1.29666e-06,3.35425e-06,0,1.44949e-06,-4.82901e+08,-4.82582e+08,-4.82812e+08,99435.2,-0.00684957,0.00369183,-0,0.00778114,4260.84,-17580.4,0,18089.4,99435.2
step02_gravity_refstate-crust.xmf,713,-1.67346e-06,4.17266e-06,0,1.4563e-06,-5.30682e+08,-5.30281e+08,-5.30568e+08,99902.3,-0.00631826,-0.00520067,-0,0.00818336,3239.76,-19319.7,0,19589.5,99902.3
step02_gravity_refstate-crust.xmf,714,-1.49628e-06,3.759e-06,0,1.40239e-06,-5.04781e+08,-5.0442e+08,-5.04678e+08,96203.9,-0.00634334,-0.000679337,-0,0.00637961,3588.25,-18376.8,0,18723.9,96203.9
step02_gravity_refstate-crust.xmf,715,-1.16328e-06,2.86568e-06,0,1.21085e-06,-4.32084e+08,-4.31807e+08,-4.32004e+08,83064.3,-0.00610651,0.00966441,-0,0.011432,4373.23,-15730.2,0,16326.8,83064.3
step02_gravity_refstate-crust.xmf,716,-9.89812e-07,1.95404e-06,0,8.21185e-07,-3.16375e+08,-3.16173e+08,-3.16307e+08,56333.3,-0.00494054,0.0198381,-0,0.0204441,4433.95,-11517,0,12341,56333.3
step02_gravity_refstate-crust.xmf,717,-1.52322e-06,5.78118e-07,0,8.09061e-09,-144690,-538.299,-40197.2,555.016,-0.0124565,0.0361354,-0,0.0382221,6955.89,0,0,6955.89,555.016
step02_gravity_refstate-crust.xmf,718,-1.36924e-06,6.68768e-07,0,1.94423e-07,-4.37587e+07,-4.36189e+07,-4.36647e+07,13337.4,-0.00917468,0.0337894,-0,0.0350128,5979.13,-1588.57,0,6186.56,13337.4
step02_gravity_refstate-crust.xmf,719,-1.15109e-06,9.45945e-07,0,3.61647e-07,-1.26712e+08,-1.26568e+08,-1.26633e+08,24809,-0.00523885,0.0293502,-0,0.0298141,4288.28,-4609.89,0,6296.06,24809
step02_gravity_refstate-crust.xmf,720,-1.26182e-06,7.87412e-07,0,2.92623e-07,-8.3341e+07,-8.32004e+07,-8.32544e+07,20074,-0.00676127,0.0314689,-0,0.032187,4962.75,-3030.23,0,5814.74,20074
step02_gravity_refstate-crust.xmf,721,-4.03797e-06,1.01417e-05,0,4.61099e-06,-7.44909e+08,-7.43936e+08,-7.44632e+08,316314,-0.00988605,-0.0613961,-0,0.0621869,1839.89,-27118.5,0,27180.9,316314
step02_gravity_refstate-crust.xmf,722,-3.22874e-06,8.00673e-06,0,3.23777e-06,-6.98249e+08,-6.97478e+08,-6.98027e+08,222111,-0.00890366,-0.0439829,-0,0.044875,2192.95,-25419.8,0,25514.2,222111
step02_gravity_refstate-crust.xmf,723,-5.33352e-06,1.30784e-05,0,6.16626e-06,-7.80385e+08,-7.79121e+08,-7.80019e+08,423006,-0.00965667,-0.0805987,-0,0.0811752,1351.78,-28409.4,0,28441.5,423006
step02_gravity_refstate-crust.xmf,724,-4.88753e-06,1.16751e-05,0,4.60712e-06,-7.56087e+08,-7.5495e+08,-7.55751e+08,316049,-0.00880703,-0.068689,-0,0.0692513,1457.82,-27524.4,0,27563,316049
step02_gravity_refstate-crust.xmf,725,-2.96416e-06,7.03998e-06,0,2.34744e-06,-6.61891e+08,-6.61205e+08,-6.61688e+08,161035,-0.00728165,-0.034386,-0,0.0351486,2115.75,-24095.7,0,24188.4,161035
step02_gravity_refstate-crust.xmf,726,-1.87013e-06,4.74907e-06,0,1.85838e-06,-5.7667e+08,-5.76216e+08,-5.76542e+08,127485,-0.00742947,-0.0126128,-0,0.0146383,3256.16,-20994,0,21245,127485
step02_gravity_refstate-crust.xmf,727,-1.88777e-06,4.59179e-06,0,1.46376e-06,-5.53285e+08,-5.52841e+08,-5.53156e+08,100414,-0.00604126,-0.00978906,-0,0.0115032,2814.38,-20142.4,0,20338,100414
step02_gravity_refstate-crust.xmf,728,3.54598e-07,3.31719e-07,0,1.1574e-05,-9.21962e+08,-9.21964e+08,-9.21986e+08,793978,0.000248185,-0.0986908,0,0.0986911,2330.77,-33566.9,0,33647.7,793978
step02_gravity_refstate-crust.xmf,729,-5.27625e-06,1.45159e-05,0,9.8094e-06,-8.08833e+08,-8.07475e+08,-8.08471e+08,672925,-0.0105395,-0.0968966,-0,0.0974681,1242.75,-29447.5,0,29473.7,672925
step02_gravity_refstate-crust.xmf,730,-2.67106e-06,1.13141e-05,0,9.33267e-06,-8.20192e+08,-8.19233e+08,-8.20009e+08,640221,-0.0117408,-0.0957847,-0,0.0965016,1588.79,-29866.6,0,29908.9,640221
step02_gravity_refstate-crust.xmf,731,-2.65911e-06,9.3308e-06,0,9.76635e-06,-8.37081e+08,-8.36258e+08,-8.36898e+08,669972,-0.0107175,-0.0965425,-0,0.0971355,1843.08,-30478.4,0,30534.1,669972
step02_gravity_refstate-crust.xmf,732,-2.30588e-06,6.90853e-06,0,1.18621e-05,-8.65483e+08,-8.6485e+08,-8.65324e+08,813743,-0.00699067,-0.104777,-0,0.10501,1855.15,-31510.1,0,31564.7,813743
step02_gravity_refstate-crust.xmf,733,8.51903e-07,-1.22109e-06,0,1.05068e-05,-9.37445e+08,-9.37587e+08,-9.37503e+08,720767,0.00265308,-0.0912016,0,0.0912402,2607.71,-34130.2,0,34229.6,720767
step02_gravity_refstate-crust.xmf,734,5.06515e-07,-1.8416e-07,0,6.04284e-06,-9.27853e+08,-9.27901e+08,-9.27888e+08,414539,0.00213058,-0.0574006,0,0.0574401,4255.84,-33781.2,0,34048.2,414539
step02_gravity_refstate-crust.xmf,735,2.08543e-07,8.38185e-07,0,1.64582e-06,-9.17899e+08,-9.17856e+08,-9.17913e+08,112903,0.00265259,4.39889e-05,0,0.00265295,9945.25,-33419.2,0,34867.6,112903
step02_gravity_refstate-crust.xmf,736,1.4372e-07,9.53522e-07,0,1.45999e-06,-9.21039e+08,-9.20984e+08,-9.21049e+08,100156,0.00311304,0.00510743,0,0.00598137,10840.8,-33533.4,0,35242.2,100156
step02_gravity_refstate-crust.xmf,737,8.31492e-08,1.06648e-06,0,1.29408e-06,-9.24231e+08,-9.24163e+08,-9.24236e+08,88774,0.00349989,0.0101053,0,0.0106942,11839,-33649.5,0,35671.5,88774
step02_gravity_refstate-crust.xmf,738,4.12588e-08,1.16996e-06,0,1.15816e-06,-9.27126e+08,-9.27049e+08,-9.27129e+08,79449.7,0.00378602,0.0147174,0,0.0151965,12877.4,-33754.9,0,36127.9,79449.7
step02_gravity_refstate-crust.xmf,739,5.88115e-09,1.26834e-06,0,1.0433e-06,-9.30346e+08,-9.3026e+08,-9.30347e+08,71570.6,0.00403087,0.0190089,0,0.0194316,13969.2,-33872.2,0,36639.6,71570.6
step02_gravity_refstate-crust.xmf,740,1.21573e-07,1.30804e-06,0,8.73504e-07,-9.06078e+08,-9.05997e+08,-9.06087e+08,59922.4,0.00270553,0.026512,0,0.0266496,15759.3,-32989.2,0,36560.1,59922.4
step02_gravity_refstate-crust.xmf,741,1.24739e-07,1.42981e-06,0,6.8443e-07,-8.867e+08,-8.8661e+08,-8.86708e+08,46951.9,0.00214723,0.0365266,0,0.0365897,18873.8,-32283.9,0,37396.1,46951.9
step02_gravity_refstate-crust.xmf,742,7.86188e-08,1.3944e-06,0,7.92988e-07,-9.09268e+08,-9.09178e+08,-9.09274e+08,54399,0.00299331,0.0300472,0,0.0301959,16940.9,-33105.3,0,37188.1,54399
step02_gravity_refstate-crust.xmf,743,-1.31742e-07,1.89303e-06,0,3.20515e-07,-9.05248e+08,-9.05109e+08,-9.05239e+08,21987.3,0.00257313,0.0514312,0,0.0514956,27817.4,-32958.9,0,43128.8,21987.3
step02_gravity_refstate-crust.xmf,744,-3.12182e-07,2.24781e-06,0,1.38925e-07,-9.66164e+08,-9.65989e+08,-9.66143e+08,9530.27,0.00196809,0.051879,0,0.0519163,34008.1,-35176.4,0,48927.8,9530.27
step02_gravity_refstate-crust.xmf,745,-3.64627e-07,2.37317e-06,0,1.05426e-07,-1.0003e+09,-1.00011e+09,-1.00027e+09,7232.2,0.00177494,0.0495527,0,0.0495845,35267,-36419.1,0,50696.2,7232.2
step02_gravity_refstate-crust.xmf,746,-4.38445e-07,2.56096e-06,0,3.57119e-08,-1.05224e+09,-1.05204e+09,-1.05221e+09,2449.84,0.000737839,0.0456181,0,0.0456241,38312.5,-38310.1,0,54180.4,2449.84
step02_gravity_refstate-crust.xmf,747,-1.10019e-06,2.47301e-06,0,9.53672e-07,-3.79761e+08,-3.79516e+08,-3.79686e+08,65421.9,-0.00511069,0.0142204,-0,0.0151109,4086.41,-13825,0,14416.3,65421.9
step02_gravity_refstate-crust.xmf,748,-1.32227e-06,3.20537e-06,0,1.17684e-06,-4.56756e+08,-4.56446e+08,-4.56665e+08,80731.3,-0.00568292,0.00566631,-0,0.00802512,3721.28,-16628.3,0,17039.6,80731.3
step02_gravity_refstate-crust.xmf,749,-1.18037e-06,2.74274e-06,0,1.00619e-06,-4.09103e+08,-4.08834e+08,-4.09022e+08,69024.8,-0.00519754,0.0110816,-0,0.01224,3867.69,-14893.3,0,15387.3,69024.8
step02_gravity_refstate-crust.xmf,750,-9.45297e-07,1.50758e-06,0,7.00356e-07,-2.49266e+08,-2.49098e+08,-2.49201e+08,48044.5,-0.00509502,0.0246182,-0,0.0251399,4830.71,-9073.29,0,10279.1,48044.5
step02_gravity_refstate-crust.xmf,751,-1.00015e-06,1.30147e-06,0,5.52393e-07,-2.07189e+08,-2.07031e+08,-2.07121e+08,37894.1,-0.00468779,0.026146,-0,0.0265629,4344.89,-7540.9,0,8703.06,37894.1
step02_gravity_refstate-crust.xmf,752,-1.00808e-06,1.76253e-06,0,6.46324e-07,-2.80823e+08,-2.80633e+08,-2.80754e+08,44337.8,-0.00423188,0.0215109,-0,0.0219232,3884.18,-10222.3,0,10935.4,44337.8
step02_gravity_refstate-crust.xmf,753,-1.08997e-06,2.2457e-06,0,7.59158e-07,-3.45504e+08,-3.45275e+08,-3.45429e+08,52078.3,-0.00428764,0.0164688,-0,0.0170178,3611.99,-12577.5,0,13085.9,52078.3
step02_gravity_refstate-crust.xmf,754,-1.09512e-06,1.13157e-06,0,3.83308e-07,-1.66537e+08,-1.66384e+08,-1.66462e+08,26294.9,-0.00401382,0.027072,-0,0.027368,3511.96,-6060.27,0,7004.34,26294.9
step02_gravity_refstate-crust.xmf,755,-3.70218e-06,8.94366e-06,0,3.41702e-06,-7.1465e+08,-7.13782e+08,-7.14396e+08,234408,-0.00857559,-0.0506414,-0,0.0513623,1889.28,-26016.4,0,26084.9,234408
step02_gravity_refstate-crust.xmf,756,-3.53385e-06,8.12124e-06,0,2.29991e-06,-6.8264e+08,-6.8184e+08,-6.82397e+08,157774,-0.00643529,-0.0418507,-0,0.0423426,1640.38,-24850.5,0,24904.5,157774
step02_gravity_refstate-crust.xmf,757,-4.36732e-06,1.01676e-05,0,3.44272e-06,-7.29626e+08,-7.28629e+08,-7.29326e+08,236171,-0.00779984,-0.0578282,-0,0.0583518,1526.45,-26560.8,0,26604.7,236171
step02_gravity_refstate-crust.xmf,758,-5.89992e-06,1.35456e-05,0,4.48633e-06,-7.68242e+08,-7.66908e+08,-7.67838e+08,307763,-0.00757286,-0.0768569,-0,0.0772291,1104.84,-27965.7,0,27987.5,307763
step02_gravity_refstate-crust.xmf,759,-2.94407e-06,6.80864e-06,0,1.70786e-06,-6.41519e+08,-6.4085e+08,-6.41317e+08,117159,-0.00560576,-0.0304156,-0,0.0309278,1750.05,-23353.8,0,23419.3,117159
step02_gravity_refstate-crust.xmf,760,-2.18192e-06,5.37625e-06,0,1.83461e-06,-5.98598e+08,-5.9808e+08,-5.98449e+08,125854,-0.00692024,-0.0182437,-0,0.0195121,2714.86,-21792.1,0,21960.5,125854
step02_gravity_refstate-crust.xmf,761,-2.53801e-06,6.05171e-06,0,1.79014e-06,-6.20329e+08,-6.1974e+08,-6.20155e+08,122803,-0.00631744,-0.0241923,-0,0.0250035,2212.68,-22582.8,0,22690.9,122803
step02_gravity_refstate-crust.xmf,762,-1.88438e-06,4.45691e-06,0,1.13249e-06,-5.34429e+08,-5.33994e+08,-5.343e+08,77688.7,-0.00480163,-0.0076365,-0,0.00902063,2348.21,-19455.7,0,19596.9,77688.7
step02_gravity_refstate-crust.xmf,763,-1.99956e-06,5.71697e-06,0,1.32432e-05,-8.78971e+08,-8.78442e+08,-8.78834e+08,908485,-0.00496912,-0.111897,-0,0.112007,1715.15,-32000.6,0,32046.5,908485
step02_gravity_refstate-crust.xmf,764,-1.30094e-06,4.07165e-06,0,1.31697e-05,-8.90842e+08,-8.90474e+08,-8.90753e+08,903444,-0.00368716,-0.110615,-0,0.110676,1829.03,-32433,0,32484.6,903444
step02_gravity_refstate-crust.xmf,765,-4.17861e-07,2.08982e-06,0,1.28434e-05,-9.06748e+08,-9.06576e+08,-9.06719e+08,881060,-0.00179768,-0.108116,-0,0.108131,1973.8,-33012.6,0,33071.6,881060
step02_gravity_refstate-crust.xmf,766,-6.72222e-06,1.62577e-05,0,6.56357e-06,-7.93824e+08,-7.92248e+08,-7.93363e+08,450261,-0.00856826,-0.091144,-0,0.0915459,1037.45,-28897.9,0,28916.6,450261
step02_gravity_refstate-crust.xmf,767,-6.72356e-06,1.77783e-05,0,1.13251e-05,-8.24031e+08,-8.2235e+08,-8.2357e+08,776901,-0.00895192,-0.11147,-0,0.111829,1000,-30000,0,30016.7,776901
step02_gravity_refstate-crust.xmf,768,-3.018e-06,8.82137e-06,0,1.14674e-05,-8.51244e+08,-8.50432e+08,-8.51037e+08,786663,-0.00854287,-0.103992,-0,0.104342,1733.57,-30991.9,0,31040.3,786663
step02_gravity_refstate-crust.xmf,769,8.82264e-07,-1.13186e-06,0,1.30999e-05,-9.35104e+08,-9.35242e+08,-9.35165e+08,898654,0.00177322,-0.108934,0,0.108948,1963.18,-34045.2,0,34101.8,898654
step02_gravity_refstate-crust.xmf,770,1.39072e-06,-2.64587e-06,0,1.15692e-05,-9.50506e+08,-9.50782e+08,-9.50601e+08,793649,0.0041657,-0.0984586,0,0.0985467,2295.45,-34605.6,0,34681.7,793649
step02_gravity_refstate-crust.xmf,771,5.53997e-08,6.91213e-07,0,2.03025e-06,-9.34523e+08,-9.34479e+08,-9.34526e+08,139275,0.00427266,-0.00862924,0,0.00962909,8707.1,-34023.5,0,35120,139275
step02_gravity_refstate-crust.xmf,772,4.33062e-07,-6.63399e-08,0,4.91476e-06,-9.29481e+08,-9.29516e+08,-9.29511e+08,337152,0.00272595,-0.0467244,0,0.0468038,4942.65,-33840.3,0,34199.4,337152
step02_gravity_refstate-crust.xmf,773,1.1392e-07,5.49454e-07,0,2.3474e-06,-9.33184e+08,-9.33154e+08,-9.33192e+08,161032,0.00404656,-0.0146145,0,0.0151644,7920.11,-33974.8,0,34885.8,161032
step02_gravity_refstate-crust.xmf,774,3.4064e-07,6.42358e-08,0,4.0109e-06,-9.3102e+08,-9.31039e+08,-9.31043e+08,275148,0.00324573,-0.0373523,0,0.0374931,5646.32,-33896.2,0,34363.2,275148
step02_gravity_refstate-crust.xmf,775,2.50604e-07,2.24515e-07,0,3.30786e-06,-9.32107e+08,-9.32109e+08,-9.32124e+08,226919,0.00362671,-0.0289466,0,0.0291729,6379.04,-33935.6,0,34530,226919
step02_gravity_refstate-crust.xmf,776,1.7452e-07,3.90015e-07,0,2.7708e-06,-9.32761e+08,-9.32746e+08,-9.32773e+08,190077,0.0038777,-0.0214819,0,0.0218291,7129.29,-33959.4,0,34699.7,190077
step02_gravity_refstate-crust.xmf,777,7.44879e-07,-1.14646e-06,0,8.46198e-06,-9.40015e+08,-9.40144e+08,-9.40066e+08,580492,0.00354826,-0.0766248,0,0.0767069,3230.66,-34223.4,0,34375.6,580492
step02_gravity_refstate-crust.xmf,778,1.11647e-06,-2.3346e-06,0,9.42104e-06,-9.53016e+08,-9.53252e+08,-9.53092e+08,646284,0.00526005,-0.0836587,0,0.0838239,2879.27,-34696.4,0,34815.6,646284
step02_gravity_refstate-crust.xmf,779,5.84965e-07,-9.32245e-07,0,6.84737e-06,-9.42702e+08,-9.42806e+08,-9.42742e+08,469729,0.00441363,-0.0638192,0,0.0639717,3873.55,-34320.9,0,34538.8,469729
step02_gravity_refstate-crust.xmf,780,-4.10118e-09,8.13254e-07,0,1.78467e-06,-9.36977e+08,-9.36921e+08,-9.36977e+08,122429,0.00455929,-0.00342049,0,0.00569972,9484.3,-34112.8,0,35406.7,122429
step02_gravity_refstate-crust.xmf,781,-1.41299e-08,1.356e-06,0,9.40647e-07,-9.32717e+08,-9.32623e+08,-9.32716e+08,64528.4,0.00416942,0.0230413,0,0.0234155,15111.5,-33958.5,0,37169.1,64528.4
step02_gravity_refstate-crust.xmf,782,6.9409e-08,1.51789e-06,0,6.14865e-07,-8.91654e+08,-8.91554e+08,-8.91658e+08,42179.7,0.00247739,0.0394947,0,0.0395723,20211.7,-32464.2,0,38241.8,42179.7
step02_gravity_refstate-crust.xmf,783,-9.11125e-08,1.8164e-06,0,3.73516e-07,-8.99499e+08,-8.99368e+08,-8.99493e+08,25623.2,0.00262808,0.0498236,0,0.0498928,26241.5,-32749.6,0,41966.1,25623.2
step02_gravity_refstate-crust.xmf,784,2.20857e-08,1.60195e-06,0,5.47572e-07,-8.94991e+08,-8.94883e+08,-8.94993e+08,37563.5,0.00266384,0.04244,0,0.0425236,21670.6,-32585.6,0,39133.6,37563.5
step02_gravity_refstate-crust.xmf,785,-2.105e-08,1.682e-06,0,4.8435e-07,-8.97666e+08,-8.97549e+08,-8.97664e+08,33226.4,0.00274975,0.0451698,0,0.0452534,23193.8,-32682.9,0,40076.5,33226.4
step02_gravity_refstate-crust.xmf,786,-5.47345e-08,1.74807e-06,0,4.27237e-07,-8.97547e+08,-8.97423e+08,-8.97543e+08,29308.5,0.00269071,0.0477098,0,0.0477856,24710.6,-32678.6,0,40969.5,29308.5
step02_gravity_refstate-crust.xmf,787,3.5955e-08,1.47775e-06,0,7.19136e-07,-9.13628e+08,-9.13529e+08,-9.13631e+08,49332.7,0.00326816,0.0331935,0,0.033354,18142.4,-33264,0,37889.8,49332.7
step02_gravity_refstate-crust.xmf,788,-2.9025e-07,2.19939e-06,0,1.82618e-07,-9.62082e+08,-9.61911e+08,-9.62062e+08,12527.6,0.00243774,0.0512397,0,0.0512977,32315.8,-35027.8,0,47657.7,12527.6
step02_gravity_refstate-crust.xmf,789,-2.62094e-07,2.13679e-06,0,2.36959e-07,-9.58618e+08,-9.58453e+08,-9.586e+08,16255.4,0.00293821,0.0500429,0,0.050129,30341.1,-34901.7,0,46246.2,16255.4
step02_gravity_refstate-crust.xmf,790,-2.23498e-07,2.0551e-06,0,2.90482e-07,-9.5036e+08,-9.50204e+08,-9.50345e+08,19927.1,0.00324706,0.0489996,0,0.0491071,28552.7,-34601.1,0,44860.8,19927.1
step02_gravity_refstate-crust.xmf,791,-1.8712e-07,1.97867e-06,0,3.40938e-07,-9.43469e+08,-9.43321e+08,-9.43456e+08,23388.3,0.00345158,0.0477027,0,0.0478274,26950.2,-34350.2,0,43660.7,23388.3
step02_gravity_refstate-crust.xmf,792,-4.27074e-07,2.53012e-06,0,7.84747e-08,-1.04761e+09,-1.04741e+09,-1.04758e+09,5383.36,0.00154276,0.04569,0,0.0457161,36413,-38141.6,0,52732.2,5383.36
step02_gravity_refstate-crust.xmf,793,-1.51104e-06,3.61273e-06,0,1.09861e-06,-4.80999e+08,-4.80648e+08,-4.80896e+08,75364.8,-0.00511111,0.00141811,-0,0.00530419,3046.32,-17510.7,0,17773.7,75364.8
step02_gravity_refstate-crust.xmf,794,-1.75002e-06,4.09797e-06,0,1.00156e-06,-5.08699e+08,-5.08298e+08,-5.08579e+08,68706.8,-0.0044405,-0.00359407,-0,0.00571273,2372.1,-18519,0,18670.3,68706.8
step02_gravity_refstate-crust.xmf,795,-1.31341e-06,3.02747e-06,0,9.19973e-07,-4.28615e+08,-4.28318e+08,-4.28525e+08,63110.2,-0.00459753,0.00796172,-0,0.00919381,3193.15,-15603.5,0,15926.9,63110.2
step02_gravity_refstate-crust.xmf,796,-1.08497e-06,2.03872e-06,0,5.80708e-07,-3.12777e+08,-3.12563e+08,-3.12703e+08,39836.6,-0.00347088,0.0183499,-0,0.0186753,3035.92,-11385.7,0,11783.5,39836.6
step02_gravity_refstate-crust.xmf,797,-1.72123e-06,6.53244e-07,0,7.81626e-09,-163500,-611.248,-45423.8,536.195,-0.00921753,0.0335969,-0,0.0348384,4955.97,0,0,4955.97,536.195
step02_gravity_refstate-crust.xmf,798,-1.51151e-06,7.23622e-07,0,1.33502e-07,-4.34123e+07,-4.3259e+07,-4.33086e+07,9158.23,-0.00629362,0.031529,-0,0.032151,3971.78,-1575.47,0,4272.84,9158.23
step02_gravity_refstate-crust.xmf,799,-1.22082e-06,9.87581e-07,0,2.19597e-07,-1.2667e+08,-1.26519e+08,-1.26587e+08,15064.4,-0.0031594,0.0278434,-0,0.028022,2535.32,-4608.15,0,5259.55,15064.4
step02_gravity_refstate-crust.xmf,800,-1.3644e-06,8.28798e-07,0,1.81655e-07,-8.19614e+07,-8.18109e+07,-8.18678e+07,12461.6,-0.00422682,0.0296483,-0,0.0299481,3015.32,-2979.65,0,4239.16,12461.6
step02_gravity_refstate-crust.xmf,801,-5.17608e-06,1.16301e-05,0,3.29445e-06,-7.43369e+08,-7.42216e+08,-7.43014e+08,225999,-0.00667876,-0.0652357,-0,0.0655767,1159.55,-27060.1,0,27085,225999
step02_gravity_refstate-crust.xmf,802,-3.40677e-06,7.62685e-06,0,1.54923e-06,-6.61176e+08,-6.60419e+08,-6.60942e+08,106277,-0.00467398,-0.0367181,-0,0.0370144,1302.97,-24068.8,0,24104,106277
step02_gravity_refstate-crust.xmf,803,-3.84196e-06,8.8281e-06,0,2.61327e-06,-7.01297e+08,-7.00428e+08,-7.01034e+08,179271,-0.00682929,-0.0478607,-0,0.0483454,1572.59,-25529.6,0,25577.9,179271
step02_gravity_refstate-crust.xmf,804,-7.12243e-06,1.56998e-05,0,4.27822e-06,-7.80656e+08,-7.79091e+08,-7.80168e+08,293486,-0.0061992,-0.0856802,-0,0.0859041,795.261,-28416.1,0,28427.2,293486
step02_gravity_refstate-crust.xmf,805,-6.08643e-06,1.32948e-05,0,2.91239e-06,-7.55666e+08,-7.54336e+08,-7.55248e+08,199790,-0.00522782,-0.0725124,-0,0.0727006,808.848,-27506.7,0,27518.6,199790
step02_gravity_refstate-crust.xmf,806,-2.16953e-06,5.13315e-06,0,1.38917e-06,-5.75481e+08,-5.7498e+08,-5.75333e+08,95297.3,-0.00542309,-0.0149358,-0,0.0158899,2277.08,-20950.1,0,21073.5,95297.3
step02_gravity_refstate-crust.xmf,807,-2.1035e-06,4.86989e-06,0,1.00876e-06,-5.52499e+08,-5.52021e+08,-5.52355e+08,69200.6,-0.00409148,-0.0115566,-0,0.0122595,1845.3,-20113.3,0,20197.8,69200.6
step02_gravity_refstate-crust.xmf,808,-2.08175e-06,5.47013e-06,0,1.51537e-05,-8.8579e+08,-8.85272e+08,-8.85647e+08,1.03954e+06,-0.00352334,-0.123731,-0,0.123782,1383.35,-32248.1,0,32277.8,1.03954e+06
step02_gravity_refstate-crust.xmf,809,1.57667e-07,6.25643e-07,0,1.37132e-05,-9.20127e+08,-9.20095e+08,-9.20138e+08,940729,-0.000121037,-0.113184,-0,0.113184,1827.14,-33499.7,0,33549.5,940729
step02_gravity_refstate-crust.xmf,810,-8.46979e-06,1.98185e-05,0,6.32938e-06,-8.04955e+08,-8.03014e+08,-8.04374e+08,434196,-0.00707802,-0.101406,-0,0.101653,761.83,-29301.6,0,29311.5,434196
step02_gravity_refstate-crust.xmf,811,-8.75211e-06,2.18386e-05,0,7.06914e-06,-8.14957e+08,-8.12858e+08,-8.14356e+08,484943,-0.00732597,-0.108879,-0,0.109125,763.737,-29667.7,0,29677.5,484943
step02_gravity_refstate-crust.xmf,812,-4.73671e-06,1.28868e-05,0,1.10798e-05,-8.32619e+08,-8.3141e+08,-8.32294e+08,760077,-0.00958702,-0.106407,-0,0.106838,1365.35,-30313.1,0,30343.9,760077
step02_gravity_refstate-crust.xmf,813,-4.4726e-06,1.1498e-05,0,1.23518e-05,-8.44034e+08,-8.42939e+08,-8.43728e+08,847334,-0.00823616,-0.110667,-0,0.110973,1393.49,-30727.6,0,30759.2,847334
step02_gravity_refstate-crust.xmf,814,-3.73625e-06,9.36783e-06,0,1.36573e-05,-8.58334e+08,-8.57435e+08,-8.58078e+08,936889,-0.00652133,-0.115967,-0,0.11615,1395.87,-31247.9,0,31279.1,936889
step02_gravity_refstate-crust.xmf,815,-2.91762e-06,7.37177e-06,0,1.45425e-05,-8.72257e+08,-8.71552e+08,-8.72057e+08,997617,-0.00495627,-0.120354,-0,0.120456,1390.4,-31755,0,31785.4,997617
step02_gravity_refstate-crust.xmf,816,1.54121e-06,-2.69778e-06,0,1.37092e-05,-9.47986e+08,-9.48277e+08,-9.48092e+08,940450,0.00314316,-0.112534,0,0.112578,1814.37,-34514.4,0,34562.1,940450
step02_gravity_refstate-crust.xmf,817,2.17192e-06,-4.32522e-06,0,1.29277e-05,-9.63069e+08,-9.63514e+08,-9.63218e+08,886843,0.00515494,-0.107002,0,0.107126,1934.89,-35063.6,0,35116.9,886843
step02_gravity_refstate-crust.xmf,818,1.63996e-06,-3.73812e-06,0,1.03687e-05,-9.65145e+08,-9.65514e+08,-9.65258e+08,711293,0.00657505,-0.0904361,0,0.0906748,2540.92,-35137.9,0,35229.7,711293
step02_gravity_refstate-crust.xmf,819,3.90595e-07,-7.1645e-07,0,5.47579e-06,-9.45205e+08,-9.45281e+08,-9.45232e+08,375639,0.00514931,-0.052522,0,0.0527738,4541.09,-34411.6,0,34710,375639
step02_gravity_refstate-crust.xmf,820,-7.50817e-08,9.38635e-07,0,1.59464e-06,-9.41819e+08,-9.41749e+08,-9.41814e+08,109392,0.00500101,0.00130775,0,0.00516917,10289.3,-34289,0,35799.5,109392
step02_gravity_refstate-crust.xmf,821,-1.3459e-07,1.07702e-06,0,1.43611e-06,-9.48521e+08,-9.48438e+08,-9.48512e+08,98517.1,0.0054758,0.00625786,0,0.00831536,11252.8,-34533,0,36320.1,98517.1
step02_gravity_refstate-crust.xmf,822,-1.43413e-07,1.18646e-06,0,1.28778e-06,-9.50372e+08,-9.50281e+08,-9.50362e+08,88341.7,0.00548015,0.0108885,0,0.0121898,12235.3,-34600.5,0,36700.1,88341.7
step02_gravity_refstate-crust.xmf,823,-1.61139e-07,1.29328e-06,0,1.16769e-06,-9.55039e+08,-9.54939e+08,-9.55028e+08,80103.5,0.00563372,0.0151637,0,0.0161764,13284.5,-34770.5,0,37221.8,80103.5
step02_gravity_refstate-crust.xmf,824,-1.66087e-07,1.39306e-06,0,1.05268e-06,-9.58956e+08,-9.58849e+08,-9.58945e+08,72214,0.00567761,0.0193711,0,0.020186,14439.8,-34913.2,0,37781.5,72214
step02_gravity_refstate-crust.xmf,825,-3.60312e-08,1.44053e-06,0,8.54323e-07,-9.35843e+08,-9.35742e+08,-9.35841e+08,58606.6,0.00430653,0.0266353,0,0.0269812,16265.2,-34072.4,0,37755.6,58606.6
step02_gravity_refstate-crust.xmf,826,-8.71898e-09,1.56818e-06,0,6.5102e-07,-9.19695e+08,-9.19587e+08,-9.19694e+08,44660,0.00353925,0.0360977,0,0.0362708,19429.5,-33484.8,0,38713.5,44660
step02_gravity_refstate-crust.xmf,827,-6.10747e-08,1.52475e-06,0,7.75545e-07,-9.39501e+08,-9.39392e+08,-9.39497e+08,53202.4,0.00442159,0.0299616,0,0.0302861,17472.1,-34205.6,0,38409.6,53202.4
step02_gravity_refstate-crust.xmf,828,-2.5744e-07,2.10917e-06,0,3.19673e-07,-9.79943e+08,-9.79781e+08,-9.79925e+08,21929.6,0.0039659,0.0457378,0,0.0459094,27596,-35678,0,45105,21929.6
step02_gravity_refstate-crust.xmf,829,-3.57187e-07,2.35074e-06,0,1.56022e-07,-1.00558e+09,-1.0054e+09,-1.00556e+09,10703.1,0.0025453,0.0481773,0,0.0482445,33227,-36611.4,0,49441.1,10703.1
step02_gravity_refstate-crust.xmf,830,-4.12911e-07,2.50321e-06,0,1.27082e-07,-1.04975e+09,-1.04955e+09,-1.04972e+09,8717.8,0.00244192,0.0447808,0,0.0448473,34289.5,-38219.2,0,51346.7,8717.8
step02_gravity_refstate-crust.xmf,831,-1.27435e-06,2.78611e-06,0,6.91884e-07,-3.96435e+08,-3.96156e+08,-3.96347e+08,47463.3,-0.00359976,0.0106716,-0,0.0112624,2674.97,-14431.8,0,14677.6,47463.3
step02_gravity_refstate-crust.xmf,832,-1.18494e-06,2.49049e-06,0,6.58543e-07,-3.66412e+08,-3.6616e+08,-3.66331e+08,45176.1,-0.00357014,0.0137374,-0,0.0141937,2844.28,-13338.7,0,13638.5,45176.1
step02_gravity_refstate-crust.xmf,833,-1.47803e-06,3.38522e-06,0,8.28339e-07,-4.53857e+08,-4.53523e+08,-4.53756e+08,56824,-0.00395125,0.00405094,-0,0.00565884,2513.1,-16522.4,0,16712.4,56824
step02_gravity_refstate-crust.xmf,834,-1.03373e-06,1.55494e-06,0,4.89405e-07,-2.43232e+08,-2.43055e+08,-2.43161e+08,33573.2,-0.00358934,0.0231538,-0,0.0234304,3310.28,-8853.34,0,9451.96,33573.2
step02_gravity_refstate-crust.xmf,835,-1.07995e-06,1.34404e-06,0,3.4387e-07,-2.03148e+08,-2.02982e+08,-2.03074e+08,23589.5,-0.00292401,0.0246953,-0,0.0248678,2638.94,-7393.51,0,7850.35,23589.5
step02_gravity_refstate-crust.xmf,836,-1.0818e-06,1.81712e-06,0,4.13017e-07,-2.77379e+08,-2.7718e+08,-2.77305e+08,28333,-0.00270819,0.0202934,-0,0.0204733,2434.03,-10096.7,0,10385.9,28333
step02_gravity_refstate-crust.xmf,837,-1.17309e-06,2.31727e-06,0,4.86492e-07,-3.41652e+08,-3.41413e+08,-3.41572e+08,33373.3,-0.00272892,0.0153308,-0,0.0155718,2255.41,-12437,0,12639.9,33373.3
step02_gravity_refstate-crust.xmf,838,-1.15353e-06,1.16325e-06,0,2.03817e-07,-1.64632e+08,-1.64473e+08,-1.64552e+08,13981.9,-0.00212674,0.0259558,-0,0.0260427,1825.64,-5990.71,0,6262.71,13981.9
step02_gravity_refstate-crust.xmf,839,-3.23858e-06,7.17665e-06,0,9.65167e-07,-6.41763e+08,-6.41049e+08,-6.41541e+08,66210.5,-0.00312482,-0.032193,-0,0.0323443,945.302,-23362.1,0,23381.2,66210.5
step02_gravity_refstate-crust.xmf,840,-4.42416e-06,9.8596e-06,0,2.37574e-06,-7.1391e+08,-7.1293e+08,-7.13606e+08,162976,-0.00575014,-0.0536258,-0,0.0539332,1202.02,-25988,0,26015.8,162976
step02_gravity_refstate-crust.xmf,841,-4.23383e-06,9.26374e-06,0,1.60574e-06,-6.97027e+08,-6.96101e+08,-6.96736e+08,110154,-0.00412967,-0.0485832,-0,0.0487584,938.317,-25373.2,0,25390.5,110154
step02_gravity_refstate-crust.xmf,842,-5.14899e-06,1.1163e-05,0,2.05785e-06,-7.28985e+08,-7.27866e+08,-7.28632e+08,141168,-0.00450464,-0.0606605,-0,0.0608275,838.998,-26535.9,0,26549.2,141168
step02_gravity_refstate-crust.xmf,843,-6.96648e-06,1.50133e-05,0,2.74889e-06,-7.68804e+08,-7.67296e+08,-7.68326e+08,188574,-0.00446735,-0.0800962,-0,0.0802207,616.334,-27984.1,0,27990.9,188574
step02_gravity_refstate-crust.xmf,844,-1.99298e-06,4.55407e-06,0,7.25335e-07,-5.28729e+08,-5.2828e+08,-5.28592e+08,49758,-0.00305427,-0.00796277,-0,0.00852844,1488.72,-19247.9,0,19305.4,49758
step02_gravity_refstate-crust.xmf,845,-2.84883e-06,6.46447e-06,0,1.16062e-06,-6.21067e+08,-6.20429e+08,-6.20872e+08,79618.8,-0.00401215,-0.0263877,-0,0.0266909,1350.61,-22609.1,0,22649.4,79618.8
step02_gravity_refstate-crust.xmf,846,-2.49529e-06,5.77861e-06,0,1.2762e-06,-5.98294e+08,-5.97726e+08,-5.98123e+08,87547.1,-0.00470454,-0.0205251,-0,0.0210573,1770.48,-21780.3,0,21852.2,87547.1
step02_gravity_refstate-crust.xmf,847,-1.22463e-06,3.52428e-06,0,1.53621e-05,-8.99391e+08,-8.99065e+08,-8.99307e+08,1.05384e+06,-0.00220896,-0.124693,-0,0.124713,1421.18,-32743.7,0,32774.6,1.05384e+06
step02_gravity_refstate-crust.xmf,848,-3.54449e-07,1.66571e-06,0,1.54721e-05,-9.1329e+08,-9.13151e+08,-9.13266e+08,1.06139e+06,-0.000838097,-0.125306,-0,0.125309,1441.99,-33250.4,0,33281.6,1.06139e+06
step02_gravity_refstate-crust.xmf,849,-8.83217e-06,1.95371e-05,0,3.22755e-06,-7.95236e+08,-7.9329e+08,-7.9463e+08,221410,-0.00399932,-0.0971945,-0,0.0972768,442.924,-28945.9,0,28949.3,221410
step02_gravity_refstate-crust.xmf,850,-9.89969e-06,2.31062e-05,0,2.93472e-06,-8.11475e+08,-8.09211e+08,-8.10796e+08,201322,-0.00321624,-0.110284,-0,0.110331,324.398,-29538.3,0,29540.1,201322
step02_gravity_refstate-crust.xmf,851,-9.45224e-06,2.50607e-05,0,5.13355e-06,-8.24025e+08,-8.21657e+08,-8.23376e+08,352162,-0.00489085,-0.119933,-0,0.120033,499.828,-30000,0,30004.2,352162
step02_gravity_refstate-crust.xmf,852,-6.26331e-06,1.4413e-05,0,1.43393e-05,-8.37869e+08,-8.3645e+08,-8.37439e+08,983676,-0.00688809,-0.11955,-0,0.119748,1000,-30500.4,0,30516.8,983676
step02_gravity_refstate-crust.xmf,853,4.85116e-07,-1.99418e-07,0,1.55557e-05,-9.27273e+08,-9.2732e+08,-9.27306e+08,1.06712e+06,0.000537981,-0.125541,0,0.125542,1446.03,-33760,0,33790.9,1.06712e+06
step02_gravity_refstate-crust.xmf,854,1.30157e-06,-2.03462e-06,0,1.55405e-05,-9.4111e+08,-9.41339e+08,-9.41199e+08,1.06608e+06,0.00187946,-0.125055,0,0.125069,1443.85,-34264.2,0,34294.6,1.06608e+06
step02_gravity_refstate-crust.xmf,855,2.10835e-06,-3.87314e-06,0,1.54169e-05,-9.54872e+08,-9.55283e+08,-9.55017e+08,1.0576e+06,0.00319463,-0.123793,0,0.123834,1437.61,-34765.6,0,34795.3,1.0576e+06
step02_gravity_refstate-crust.xmf,856,-2.20552e-07,7.70166e-07,0,1.96784e-06,-9.54965e+08,-9.54897e+08,-9.5495e+08,134994,0.00643088,-0.00667159,0,0.00926641,9067.33,-34766.8,0,35929.7,134994
step02_gravity_refstate-crust.xmf,857,-1.86003e-07,6.06286e-07,0,2.23371e-06,-9.53273e+08,-9.53218e+08,-9.5326e+08,153232,0.00640628,-0.0121275,0,0.0137156,8291.6,-34705,0,35681.8,153232
step02_gravity_refstate-crust.xmf,858,2.15821e-07,-3.90347e-07,0,4.4841e-06,-9.47301e+08,-9.47343e+08,-9.47316e+08,307610,0.00569319,-0.0425419,0,0.0429212,5234.2,-34487.7,0,34882.7,307610
step02_gravity_refstate-crust.xmf,859,-1.32008e-07,4.03579e-07,0,2.59612e-06,-9.51835e+08,-9.51798e+08,-9.51826e+08,178094,0.00636394,-0.0185395,0,0.0196014,7489.1,-34652.6,0,35452.6,178094
step02_gravity_refstate-crust.xmf,860,6.65117e-08,-1.01488e-07,0,3.68825e-06,-9.48932e+08,-9.48944e+08,-9.48937e+08,253014,0.00603846,-0.0337053,0,0.034242,5951.88,-34546.9,0,35055.9,253014
step02_gravity_refstate-crust.xmf,861,-4.92888e-08,1.63892e-07,0,3.07409e-06,-9.50487e+08,-9.50473e+08,-9.50484e+08,210883,0.0062618,-0.0257706,0,0.0265204,6700.63,-34603.5,0,35246.3,210883
step02_gravity_refstate-crust.xmf,862,2.35522e-06,-5.42798e-06,0,1.10321e-05,-9.78889e+08,-9.79423e+08,-9.79051e+08,756804,0.0079043,-0.0951152,0,0.0954431,2265.27,-35638.6,0,35710.5,756804
step02_gravity_refstate-crust.xmf,863,8.06891e-07,-1.99118e-06,0,7.6067e-06,-9.56655e+08,-9.56847e+08,-9.5671e+08,521820,0.00641015,-0.0704305,0,0.0707216,3486.71,-34828.2,0,35002.3,521820
step02_gravity_refstate-crust.xmf,864,1.17234e-06,-3.09847e-06,0,8.47654e-06,-9.67729e+08,-9.68022e+08,-9.6781e+08,581491,0.00775071,-0.0771407,0,0.0775291,3108.7,-35231.1,0,35368,581491
step02_gravity_refstate-crust.xmf,865,4.77453e-07,-1.51943e-06,0,6.17793e-06,-9.60536e+08,-9.60673e+08,-9.60569e+08,423806,0.00743481,-0.0584699,0,0.0589407,4134.09,-34968.8,0,35212.4,423806
step02_gravity_refstate-crust.xmf,866,-2.36121e-07,8.97247e-07,0,1.77418e-06,-9.56068e+08,-9.55991e+08,-9.56052e+08,121709,0.00638365,-0.0022687,0,0.00677481,9763.82,-34807.1,0,36150.6,121709
step02_gravity_refstate-crust.xmf,867,-1.5782e-07,1.47934e-06,0,9.50625e-07,-9.62255e+08,-9.62143e+08,-9.62244e+08,65212.8,0.00565925,0.0231695,0,0.0238506,15609.6,-35033.5,0,38353.7,65212.8
step02_gravity_refstate-crust.xmf,868,-5.14897e-08,1.65932e-06,0,5.83062e-07,-9.26047e+08,-9.2593e+08,-9.26044e+08,39998,0.00373064,0.0388558,0,0.0390345,20826.8,-33716,0,39629.9,39998
step02_gravity_refstate-crust.xmf,869,-1.58235e-07,1.90666e-06,0,3.95896e-07,-9.39705e+08,-9.39564e+08,-9.39695e+08,27158.5,0.00363802,0.0459313,0,0.0460751,25399.9,-34213.2,0,42611,27158.5
step02_gravity_refstate-crust.xmf,870,-9.15514e-08,1.74894e-06,0,5.17224e-07,-9.32038e+08,-9.31912e+08,-9.32032e+08,35481.5,0.00381789,0.0414202,0,0.0415957,22310.6,-33934.1,0,40611.4,35481.5
step02_gravity_refstate-crust.xmf,871,-1.26271e-07,1.83095e-06,0,4.54621e-07,-9.36374e+08,-9.3624e+08,-9.36365e+08,31187,0.00377524,0.0437935,0,0.0439559,23840,-34092,0,41600.5,31187
step02_gravity_refstate-crust.xmf,872,-8.42909e-08,1.60641e-06,0,7.03745e-07,-9.44561e+08,-9.44445e+08,-9.44555e+08,48276.9,0.0045451,0.0328719,0,0.0331846,18693,-34389.8,0,39141.9,48276.9
step02_gravity_refstate-crust.xmf,873,-2.42614e-07,2.06533e-06,0,3.69467e-07,-9.8286e+08,-9.82702e+08,-9.82843e+08,25345.4,0.00437204,0.04384,0,0.0440575,26170.3,-35784.2,0,44332.8,25345.4
step02_gravity_refstate-crust.xmf,874,-3.37723e-07,2.30112e-06,0,2.10809e-07,-1.00603e+09,-1.00585e+09,-1.00601e+09,14461.5,0.00325687,0.0468621,0,0.0469751,31175.8,-36627.7,0,48099.1,14461.5
step02_gravity_refstate-crust.xmf,875,-3.10943e-07,2.2282e-06,0,2.73589e-07,-1.00307e+09,-1.0029e+09,-1.00305e+09,18768.2,0.00389682,0.0453948,0,0.0455617,29070.2,-36520.1,0,46677.5,18768.2
step02_gravity_refstate-crust.xmf,876,-1.66712e-06,3.79238e-06,0,6.84226e-07,-4.79159e+08,-4.78785e+08,-4.79045e+08,46937.9,-0.00315734,-8.2701e-05,-0,0.00315842,1831.02,-17443.4,0,17539.2,46937.9
step02_gravity_refstate-crust.xmf,877,-1.42291e-06,3.14137e-06,0,5.75505e-07,-4.24971e+08,-4.24657e+08,-4.24873e+08,39479.6,-0.00286032,0.00684415,-0,0.00741781,1949.07,-15470.6,0,15592.9,39479.6
step02_gravity_refstate-crust.xmf,878,-1.14746e-06,2.09661e-06,0,3.17676e-07,-3.10765e+08,-3.10542e+08,-3.10686e+08,21792.5,-0.00188599,0.0173739,-0,0.0174759,1622.68,-11312.3,0,11428.1,21792.5
step02_gravity_refstate-crust.xmf,879,-1.86025e-06,7.06128e-07,0,7.149e-09,-176700,-646.625,-49087,490.421,-0.00566328,0.0318506,-0,0.0323502,2969.28,0,0,2969.28,490.421
step02_gravity_refstate-crust.xmf,880,-1.59953e-06,7.57022e-07,0,6.37994e-08,-4.31896e+07,-4.3028e+07,-4.30799e+07,4376.64,-0.00320372,0.030145,-0,0.0303148,1983.78,-1567.06,0,2528.06,4376.64
step02_gravity_refstate-crust.xmf,881,-1.23722e-06,1.03045e-06,0,9.46656e-08,-1.32768e+08,-1.32612e+08,-1.32683e+08,6494.06,-0.00127595,0.0269264,-0,0.0269566,1028.77,-4830.14,0,4938.48,6494.06
step02_gravity_refstate-crust.xmf,882,-1.38392e-06,8.78903e-07,0,7.36729e-08,-8.99041e+07,-8.97489e+07,-8.98092e+07,5053.96,-0.00137755,0.028402,-0,0.0284354,994.051,-3268.81,0,3416.61,5053.96
step02_gravity_refstate-crust.xmf,883,-5.96937e-06,1.26509e-05,0,1.45895e-06,-7.43593e+08,-7.42316e+08,-7.43184e+08,100084,-0.00289082,-0.0679873,-0,0.0680487,479.103,-27066.7,0,27070.9,100084
step02_gravity_refstate-crust.xmf,884,-3.91247e-06,8.54315e-06,0,1.19906e-06,-6.78421e+08,-6.77567e+08,-6.78153e+08,82255.8,-0.00330365,-0.0428058,-0,0.0429331,827.863,-24696,0,24709.9,82255.8
step02_gravity_refstate-crust.xmf,885,-3.63944e-06,7.9233e-06,0,6.06326e-07,-6.59792e+08,-6.58999e+08,-6.59543e+08,41594,-0.0017882,-0.0377039,-0,0.0377463,490.224,-24017.9,0,24022.9,41594
step02_gravity_refstate-crust.xmf,886,-8.05032e-06,1.71065e-05,0,1.22758e-06,-7.78888e+08,-7.77162e+08,-7.78336e+08,84212.1,-0.00182949,-0.0872493,-0,0.0872685,227.527,-28350.1,0,28351,84212.1
step02_gravity_refstate-crust.xmf,887,-7.017e-06,1.47434e-05,0,6.18277e-07,-7.60524e+08,-7.59031e+08,-7.60043e+08,42413.8,-0.0010073,-0.0769033,-0,0.0769099,145.197,-27682.1,0,27682.5,42413.8
step02_gravity_refstate-crust.xmf,888,-1.86478e-06,4.20196e-06,0,4.85638e-07,-5.03014e+08,-5.02598e+08,-5.02886e+08,33314.7,-0.00215524,-0.00419797,-0,0.0047189,1141.89,-18311.7,0,18347.3,33314.7
step02_gravity_refstate-crust.xmf,889,-3.02667e-06,6.69993e-06,0,5.89031e-07,-6.23449e+08,-6.22782e+08,-6.23242e+08,40407.5,-0.00202351,-0.027917,-0,0.0279902,662.366,-22695.4,0,22705.1,40407.5
step02_gravity_refstate-crust.xmf,890,-2.37974e-06,5.40086e-06,0,8.29642e-07,-5.7438e+08,-5.73846e+08,-5.74217e+08,56913.4,-0.00318654,-0.0164316,-0,0.0167377,1302.7,-20909.6,0,20950.2,56913.4
step02_gravity_refstate-crust.xmf,891,-2.2205e-06,5.00152e-06,0,4.8413e-07,-5.49578e+08,-5.49082e+08,-5.49425e+08,33211.3,-0.00194874,-0.0121761,-0,0.0123311,870.122,-20006.7,0,20025.6,33211.3
step02_gravity_refstate-crust.xmf,892,-3.00066e-06,7.0923e-06,0,1.70624e-05,-8.79042e+08,-8.78349e+08,-8.78836e+08,1.17048e+06,-0.00316151,-0.135482,-0,0.135519,1000,-32001.2,0,32016.9,1.17048e+06
step02_gravity_refstate-crust.xmf,893,-1.98144e-06,4.95237e-06,0,1.74629e-05,-8.92742e+08,-8.92267e+08,-8.92607e+08,1.19796e+06,-0.00212368,-0.138491,-0,0.138507,1000,-32500.8,0,32516.2,1.19796e+06
step02_gravity_refstate-crust.xmf,894,-5.16921e-06,1.17642e-05,0,1.56277e-05,-8.51595e+08,-8.50433e+08,-8.5124e+08,1.07206e+06,-0.00547649,-0.126094,-0,0.126213,1000,-31000.5,0,31016.6,1.07206e+06
step02_gravity_refstate-crust.xmf,895,-4.14525e-06,9.34207e-06,0,1.65415e-05,-8.65333e+08,-8.64408e+08,-8.65049e+08,1.13474e+06,-0.00426637,-0.131376,-0,0.131446,1000,-31501,0,31516.9,1.13474e+06
step02_gravity_refstate-crust.xmf,896,2.87203e-06,-5.6636e-06,0,1.51671e-05,-9.68174e+08,-9.6876e+08,-9.68371e+08,1.04046e+06,0.0044611,-0.121663,0,0.121745,1432.57,-35250.2,0,35279.3,1.04046e+06
step02_gravity_refstate-crust.xmf,897,2.86026e-06,-6.07319e-06,0,1.32681e-05,-9.75973e+08,-9.76586e+08,-9.7617e+08,910192,0.0062731,-0.109258,0,0.109438,1775.26,-35533.5,0,35577.8,910192
step02_gravity_refstate-crust.xmf,898,1.60608e-06,-4.21314e-06,0,9.28626e-06,-9.76582e+08,-9.76981e+08,-9.76692e+08,637038,0.0085934,-0.0831237,0,0.0835667,2780.94,-35553.4,0,35662,637038
step02_gravity_refstate-crust.xmf,899,1.55322e-07,-1.05669e-06,0,4.97003e-06,-9.6338e+08,-9.63463e+08,-9.63391e+08,340944,0.00808527,-0.0478154,0,0.0484941,4819.94,-35071.8,0,35401.5,340944
step02_gravity_refstate-crust.xmf,900,-4.4266e-07,8.70854e-07,0,1.94894e-06,-9.75182e+08,-9.75092e+08,-9.75151e+08,133697,0.00813371,-0.00448839,0,0.00928993,9500.9,-35502,0,36751.3,133697
step02_gravity_refstate-crust.xmf,901,-3.65068e-07,1.0251e-06,0,1.68277e-06,-9.70126e+08,-9.70031e+08,-9.70101e+08,115438,0.00736647,0.00117751,0,0.00745998,10446.1,-35318.5,0,36830.9,115438
step02_gravity_refstate-crust.xmf,902,-3.58069e-07,1.16815e-06,0,1.50863e-06,-9.7512e+08,-9.75015e+08,-9.75095e+08,103492,0.00736073,0.00630914,0,0.00969461,11482.5,-35500.6,0,37311.4,103492
step02_gravity_refstate-crust.xmf,903,-3.3252e-07,1.28348e-06,0,1.3562e-06,-9.78073e+08,-9.77962e+08,-9.78051e+08,93035.2,0.00719893,0.0108687,0,0.0130366,12512.6,-35608.4,0,37742.8,93035.2
step02_gravity_refstate-crust.xmf,904,-3.12028e-07,1.40097e-06,0,1.21953e-06,-9.84586e+08,-9.84469e+08,-9.84565e+08,83659.7,0.00716366,0.0154505,0,0.0170304,13728.8,-35845.8,0,38384.9,83659.7
step02_gravity_refstate-crust.xmf,905,-2.85572e-07,1.49717e-06,0,1.09403e-06,-9.88369e+08,-9.88247e+08,-9.88349e+08,75050.2,0.0069922,0.019469,0,0.0206865,14913.3,-35983.7,0,38951.7,75050.2
step02_gravity_refstate-crust.xmf,906,-1.56932e-07,1.5613e-06,0,8.59054e-07,-9.65382e+08,-9.65265e+08,-9.65372e+08,58931.1,0.00561081,0.0266325,0,0.0272171,16806.7,-35147.5,0,38959.1,58931.1
step02_gravity_refstate-crust.xmf,907,-1.19858e-07,1.70015e-06,0,6.39009e-07,-9.53844e+08,-9.53719e+08,-9.53835e+08,43836,0.00475317,0.0352918,0,0.0356105,19963.6,-34727.8,0,40057,43836
step02_gravity_refstate-crust.xmf,908,-1.66158e-07,1.64168e-06,0,7.75338e-07,-9.68849e+08,-9.68725e+08,-9.68838e+08,53188.2,0.0055542,0.0297604,0,0.0302742,18029.9,-35273.8,0,39614.6,53188.2
step02_gravity_refstate-crust.xmf,909,-3.06694e-07,2.20385e-06,0,3.31176e-07,-1.01573e+09,-1.01555e+09,-1.0157e+09,22718.7,0.00457733,0.0427407,0,0.0429851,27422.1,-36980.7,0,46038.5,22718.7
step02_gravity_refstate-crust.xmf,910,-3.99009e-07,2.45937e-06,0,1.82421e-07,-1.05133e+09,-1.05113e+09,-1.0513e+09,12514.1,0.00329449,0.0436043,0,0.0437286,32208.3,-38276.9,0,50024.9,12514.1
step02_gravity_refstate-crust.xmf,911,-1.26547e-06,2.60249e-06,0,3.90265e-07,-3.69123e+08,-3.68857e+08,-3.69036e+08,26772.2,-0.00209931,0.0124079,-0,0.0125842,1631.23,-13437.2,0,13535.8,26772.2
step02_gravity_refstate-crust.xmf,912,-1.57535e-06,3.49407e-06,0,4.40537e-07,-4.51363e+08,-4.51015e+08,-4.51255e+08,30220.8,-0.00208682,0.00313176,-0,0.00376335,1306.45,-16431.3,0,16483.2,30220.8
step02_gravity_refstate-crust.xmf,913,-1.36947e-06,2.91146e-06,0,3.25749e-07,-3.98236e+08,-3.97942e+08,-3.98142e+08,22346.4,-0.00168524,0.00924588,-0,0.00939821,1218.57,-14497.2,0,14548.3,22346.4
step02_gravity_refstate-crust.xmf,914,-1.09189e-06,1.5866e-06,0,2.59477e-07,-2.39672e+08,-2.39488e+08,-2.39597e+08,17800.1,-0.00192549,0.0221837,-0,0.0222671,1744.8,-8723.54,0,8896.31,17800.1
step02_gravity_refstate-crust.xmf,915,-1.18001e-06,1.16064e-06,0,2.55326e-08,-1.6078e+08,-1.6062e+08,-1.60699e+08,1751.53,-0.000248924,0.0256771,-0,0.0256783,211.295,-5850.39,0,5854.21,1751.53
step02_gravity_refstate-crust.xmf,916,-1.12293e-06,1.3579e-06,0,1.22808e-07,-1.99475e+08,-1.99304e+08,-1.99398e+08,8424.65,-0.00104483,0.024019,-0,0.0240417,929.143,-7259.63,0,7318.85,8424.65
step02_gravity_refstate-crust.xmf,917,-1.12391e-06,1.85328e-06,0,1.71658e-07,-2.76441e+08,-2.76237e+08,-2.76364e+08,11775.8,-0.00113913,0.0195718,-0,0.019605,1011.7,-10062.4,0,10113.2,11775.8
step02_gravity_refstate-crust.xmf,918,-1.22346e-06,2.37357e-06,0,1.90409e-07,-3.41149e+08,-3.40902e+08,-3.41065e+08,13062.1,-0.00105679,0.0145643,-0,0.0146026,862.096,-12418.6,0,12448.5,13062.1
step02_gravity_refstate-crust.xmf,919,-3.30223e-06,7.23397e-06,0,1.07928e-07,-6.38112e+08,-6.3739e+08,-6.37886e+08,7403.85,-0.000383006,-0.0319442,-0,0.0319465,116.475,-23229,0,23229.3,7403.85
step02_gravity_refstate-crust.xmf,920,-4.8691e-06,1.04011e-05,0,1.08938e-06,-7.13091e+08,-7.12044e+08,-7.12757e+08,74731.3,-0.00260685,-0.0552043,-0,0.0552659,530.195,-25957.2,0,25962.6,74731.3
step02_gravity_refstate-crust.xmf,921,-4.46368e-06,9.55322e-06,0,4.98051e-07,-6.95765e+08,-6.94804e+08,-6.95459e+08,34166.3,-0.00125126,-0.0492365,-0,0.0492524,280.972,-25326.8,0,25328.3,34166.3
step02_gravity_refstate-crust.xmf,922,-5.52358e-06,1.16109e-05,0,3.66229e-07,-7.288e+08,-7.27624e+08,-7.28421e+08,25123.3,-0.000840122,-0.0619436,-0,0.0619492,153.097,-26528.3,0,26528.8,25123.3
step02_gravity_refstate-crust.xmf,923,-2.05626e-06,4.61164e-06,0,2.29095e-07,-5.25339e+08,-5.24881e+08,-5.25198e+08,15715.9,-0.000958345,-0.00816285,-0,0.00821891,466.185,-19124.3,0,19130,15715.9
step02_gravity_refstate-crust.xmf,924,-2.72986e-06,6.07361e-06,0,5.71143e-07,-5.999e+08,-5.99296e+08,-5.99713e+08,39180.4,-0.00210169,-0.0223544,-0,0.022453,764.941,-21838.3,0,21851.7,39180.4
step02_gravity_refstate-crust.xmf,925,-9.909e-07,2.89104e-06,0,1.7726e-05,-9.06434e+08,-9.06168e+08,-9.06366e+08,1.21601e+06,-0.00112984,-0.14045,-0,0.140454,1000,-33000.1,0,33015.2,1.21601e+06
step02_gravity_refstate-crust.xmf,926,-2.54557e-08,8.75506e-07,0,1.78707e-05,-9.20141e+08,-9.20079e+08,-9.20139e+08,1.22593e+06,-0.000164926,-0.141392,-0,0.141392,1000,-33499.9,0,33514.8,1.22593e+06
step02_gravity_refstate-crust.xmf,927,-1.00969e-05,2.6127e-05,0,1.23098e-08,-8.24051e+08,-8.21566e+08,-8.23358e+08,844.454,1.341e-06,-0.12257,0,0.12257,-1.02887e-10,-30000,-0,30000,844.454
step02_gravity_refstate-crust.xmf,928,-9.66648e-06,2.1279e-05,0,-1.97356e-07,-8.02471e+08,-8.00349e+08,-8.01808e+08,-13538.6,0.000120048,-0.103859,0,0.103859,-11.8801,-29208.6,-0,29208.6,13538.6
step02_gravity_refstate-crust.xmf,929,-8.84518e-06,1.90556e-05,0,-9.88522e-07,-7.89844e+08,-7.8793e+08,-7.89238e+08,-67812.6,0.00124686,-0.0945097,0,0.0945179,-141.344,-28748.8,-0,28749.1,67812.6
step02_gravity_refstate-crust.xmf,930,9.27324e-07,-1.12281e-06,0,1.79094e-05,-9.33866e+08,-9.34007e+08,-9.3393e+08,1.22858e+06,0.000782953,-0.141331,0,0.141333,1000,-34000.3,0,34015,1.22858e+06
step02_gravity_refstate-crust.xmf,931,1.86828e-06,-3.12167e-06,0,1.78444e-05,-9.47592e+08,-9.47935e+08,-9.4772e+08,1.22412e+06,0.00172292,-0.140269,0,0.14028,1000,-34500.8,0,34515.3,1.22412e+06
step02_gravity_refstate-crust.xmf,932,2.76551e-06,-5.13921e-06,0,1.76558e-05,-9.61307e+08,-9.61849e+08,-9.61497e+08,1.21118e+06,0.00266359,-0.138205,0,0.13823,1000,-35000.6,0,35014.9,1.21118e+06
step02_gravity_refstate-crust.xmf,933,3.64081e-06,-7.53043e-06,0,1.48551e-05,-9.81856e+08,-9.82622e+08,-9.82105e+08,1.01906e+06,0.00571356,-0.119049,0,0.119186,1412.29,-35748.5,0,35776.4,1.01906e+06
step02_gravity_refstate-crust.xmf,934,3.73951e-06,-7.20301e-06,0,1.7389e-05,-9.75e+08,-9.75751e+08,-9.75257e+08,1.19289e+06,0.00361474,-0.135124,0,0.135172,1000,-35499.8,0,35513.9,1.19289e+06
step02_gravity_refstate-crust.xmf,935,3.25033e-06,-7.33016e-06,0,1.25205e-05,-9.87642e+08,-9.88367e+08,-9.87865e+08,858908,0.00779787,-0.10471,0,0.105,1834.1,-35957.9,0,36004.6,858908
step02_gravity_refstate-crust.xmf,936,-4.46754e-07,6.84977e-07,0,2.20303e-06,-9.73765e+08,-9.73688e+08,-9.73735e+08,151128,0.00837594,-0.00997025,0,0.0130216,8656.27,-35450.2,0,36491.7,151128
step02_gravity_refstate-crust.xmf,937,-4.22823e-07,4.57044e-07,0,2.51865e-06,-9.71909e+08,-9.71849e+08,-9.7188e+08,172779,0.00854465,-0.0160047,0,0.0181428,7835.07,-35382.3,0,36239.4,172779
step02_gravity_refstate-crust.xmf,938,-6.86338e-08,-5.54866e-07,0,4.1189e-06,-9.6526e+08,-9.65293e+08,-9.65255e+08,282556,0.00838731,-0.038447,0,0.0393512,5532.38,-35140.1,0,35572.9,282556
step02_gravity_refstate-crust.xmf,939,-3.57718e-07,1.73106e-07,0,2.9279e-06,-9.69831e+08,-9.69795e+08,-9.69806e+08,200854,0.00862846,-0.0228039,0,0.0243817,7026.66,-35306.5,0,35998.9,200854
step02_gravity_refstate-crust.xmf,940,-2.35745e-07,-1.58458e-07,0,3.44672e-06,-9.67114e+08,-9.67109e+08,-9.67098e+08,236445,0.00852289,-0.0302378,0,0.031416,6261.11,-35207.6,0,35759.9,236445
step02_gravity_refstate-crust.xmf,941,1.76531e-06,-5.31981e-06,0,8.83886e-06,-9.9083e+08,-9.91316e+08,-9.90951e+08,606346,0.0105268,-0.0810546,0,0.0817353,2763.44,-36071.1,0,36176.8,606346
step02_gravity_refstate-crust.xmf,942,1.16352e-06,-3.67435e-06,0,7.90506e-06,-9.80315e+08,-9.80647e+08,-9.80395e+08,542287,0.00973335,-0.0731908,0,0.0738352,3226.39,-35688.4,0,35833.9,542287
step02_gravity_refstate-crust.xmf,943,7.22471e-07,-2.66646e-06,0,6.9074e-06,-9.75924e+08,-9.76157e+08,-9.75974e+08,473848,0.00952324,-0.0649064,0,0.0656013,3693.99,-35528.3,0,35719.8,473848
step02_gravity_refstate-crust.xmf,944,2.15877e-07,-1.83233e-06,0,5.54842e-06,-9.78597e+08,-9.78738e+08,-9.78612e+08,380622,0.0102248,-0.0529556,0,0.0539337,4412.94,-35624.8,0,35897.1,380622
step02_gravity_refstate-crust.xmf,945,-2.55058e-07,1.58151e-06,0,9.82703e-07,-9.92006e+08,-9.9188e+08,-9.91989e+08,67413.4,0.00682311,0.023027,0,0.0240166,16098,-36116.4,0,39541.6,67413.4
step02_gravity_refstate-crust.xmf,946,-1.56824e-07,1.79722e-06,0,5.72916e-07,-9.63353e+08,-9.63219e+08,-9.63342e+08,39302.1,0.00486083,0.0376006,0,0.0379135,21364.8,-35074,0,41068.7,39302.1
step02_gravity_refstate-crust.xmf,947,-2.19298e-07,1.98334e-06,0,4.35657e-07,-9.78542e+08,-9.78391e+08,-9.78527e+08,29886.1,0.00466366,0.0419082,0,0.0421669,24514.6,-35627,0,43246.4,29886.1
step02_gravity_refstate-crust.xmf,948,-1.88919e-07,1.89335e-06,0,5.02638e-07,-9.71688e+08,-9.71545e+08,-9.71675e+08,34481,0.00482275,0.0398769,0,0.0401675,22922.1,-35377.4,0,42154.3,34481
step02_gravity_refstate-crust.xmf,949,-1.70927e-07,1.70875e-06,0,7.06211e-07,-9.71848e+08,-9.71719e+08,-9.71836e+08,48446.1,0.00548264,0.0322563,0,0.032719,19120.3,-35383.1,0,40218.7,48446.1
step02_gravity_refstate-crust.xmf,950,-2.84038e-07,2.12738e-06,0,4.18048e-07,-1.02056e+09,-1.02039e+09,-1.02054e+09,28678.1,0.00529929,0.0397484,0,0.0401001,25222.1,-37156.5,0,44908.4,28678.1
step02_gravity_refstate-crust.xmf,951,-3.78725e-07,2.40249e-06,0,2.41569e-07,-1.05228e+09,-1.05209e+09,-1.05225e+09,16571.7,0.00408009,0.0421824,0,0.0423792,30192.5,-38311.5,0,48778.6,16571.7
step02_gravity_refstate-crust.xmf,952,-3.59314e-07,2.343e-06,0,3.05432e-07,-1.05507e+09,-1.05488e+09,-1.05505e+09,20952.6,0.00479478,0.0403756,0,0.0406593,28317,-38413,0,47722.3,20952.6
step02_gravity_refstate-crust.xmf,953,-1.734e-06,3.85381e-06,0,2.44988e-07,-4.76106e+08,-4.75722e+08,-4.75987e+08,16806.2,-0.00113963,-0.000535985,-0,0.00125938,656.542,-17332.1,0,17344.5,16806.2
step02_gravity_refstate-crust.xmf,954,-1.48563e-06,3.21432e-06,0,2.20436e-07,-4.24735e+08,-4.24412e+08,-4.24633e+08,15121.9,-0.00109926,0.00608082,-0,0.00617938,738.588,-15461.9,0,15479.5,15121.9
step02_gravity_refstate-crust.xmf,955,-1.27606e-06,9.85155e-07,0,-4.30693e-08,-1.21855e+08,-1.217e+08,-1.21768e+08,-2954.56,0.000538019,0.027215,0,0.0272203,-422.446,-4432.62,-0,4452.71,2954.56
step02_gravity_refstate-crust.xmf,956,-1.17049e-06,2.11051e-06,0,4.20828e-08,-3.086e+08,-3.08374e+08,-3.08519e+08,2886.88,-0.000241444,0.0170915,-0,0.0170932,206.775,-11233.4,0,11235.3,2886.88
step02_gravity_refstate-crust.xmf,957,-1.93105e-06,7.33304e-07,0,6.224e-09,-183413,-638,-50942.7,426.967,-0.00191064,0.0309601,-0,0.031019,989.347,0,0,989.347,426.967
step02_gravity_refstate-crust.xmf,958,-1.62272e-06,7.70903e-07,0,-8.599e-09,-4.4567e+07,-4.44028e+07,-4.44557e+07,-589.891,5.04403e-05,0.0296365,0,0.0296365,-31.596,-1617.14,-0,1617.44,589.891
step02_gravity_refstate-crust.xmf,959,-6.14378e-06,1.28216e-05,0,-6.82585e-07,-7.43956e+08,-7.42655e+08,-7.43534e+08,-46825.3,0.00123507,-0.0686241,0,0.0686352,-202.618,-27079.5,-0,27080.2,46825.3
step02_gravity_refstate-crust.xmf,960,-4.06012e-06,8.7435e-06,0,3.58271e-09,-6.78102e+08,-6.77224e+08,-6.77824e+08,245.774,4.38434e-06,-0.0434825,0,0.0434825,-1.1466,-24684.1,-0,24684.1,245.774
step02_gravity_refstate-crust.xmf,961,-3.66606e-06,7.97231e-06,0,-3.85431e-07,-6.59799e+08,-6.59e+08,-6.59547e+08,-26440.5,0.0011577,-0.0378394,0,0.0378571,-316.809,-24018.1,-0,24020.2,26440.5
step02_gravity_refstate-crust.xmf,962,-7.64293e-06,1.63119e-05,0,-1.72488e-06,-7.74181e+08,-7.72538e+08,-7.73657e+08,-118327,0.00255641,-0.0841695,0,0.0842083,-332.13,-28179.2,-0,28181.1,118327
step02_gravity_refstate-crust.xmf,963,-1.89088e-06,4.21276e-06,0,1.11633e-08,-5.00047e+08,-4.99629e+08,-4.99918e+08,765.8,-6.93338e-05,-0.00418459,-0,0.00418516,36.7686,-18203.6,0,18203.6,765.8
step02_gravity_refstate-crust.xmf,964,-2.95922e-06,6.52006e-06,0,6.50994e-08,-6.15029e+08,-6.14378e+08,-6.14826e+08,4465.82,-0.000252368,-0.0261846,-0,0.0261859,85.6578,-22388.9,0,22389,4465.82
step02_gravity_refstate-crust.xmf,965,-2.46556e-06,5.50078e-06,0,2.041e-07,-5.72073e+08,-5.71526e+08,-5.71904e+08,14001.3,-0.000782339,-0.0167703,-0,0.0167885,317.906,-20825.4,0,20827.9,14001.3
step02_gravity_refstate-crust.xmf,966,-2.24123e-06,5.01506e-06,0,-6.56982e-08,-5.47334e+08,-5.46836e+08,-5.4718e+08,-4506.9,0.00027325,-0.0120891,0,0.0120922,-122.367,-19924.9,-0,19925.3,4506.9
step02_gravity_refstate-crust.xmf,967,-9.99494e-06,2.33759e-05,0,-2.18109e-06,-8.12629e+08,-8.1034e+08,-8.11943e+08,-149623,0.00237014,-0.111681,0,0.111706,-237.741,-29580.3,-0,29581.3,149623
step02_gravity_refstate-crust.xmf,968,4.68561e-06,-9.34134e-06,0,1.69746e-05,-9.88709e+08,-9.89672e+08,-9.89031e+08,1.16446e+06,0.00458891,-0.130992,0,0.131073,1000,-35999.4,0,36013.3,1.16446e+06
step02_gravity_refstate-crust.xmf,969,2.68444e-06,-6.76931e-06,0,1.06166e-05,-9.92637e+08,-9.93286e+08,-9.92821e+08,728302,0.00959401,-0.0928571,0,0.0933514,2233.95,-36138.3,0,36207.3,728302
step02_gravity_refstate-crust.xmf,970,-1.53643e-07,-1.18351e-06,0,4.5591e-06,-9.81116e+08,-9.81186e+08,-9.81105e+08,312754,0.0105781,-0.04323,0,0.0445054,5108.27,-35716,0,36079.5,312754
step02_gravity_refstate-crust.xmf,971,-6.39959e-07,7.6432e-07,0,2.23763e-06,-9.94759e+08,-9.94663e+08,-9.94715e+08,153502,0.00987489,-0.00798148,0,0.0126971,9037.22,-36213.8,0,37324.4,153502
step02_gravity_refstate-crust.xmf,972,-5.96865e-07,9.57544e-07,0,1.98782e-06,-9.96425e+08,-9.96319e+08,-9.96384e+08,136364,0.00944201,-0.00259705,0,0.00979266,9939.79,-36274.9,0,37612.1,136364
step02_gravity_refstate-crust.xmf,973,-5.40034e-07,1.1163e-06,0,1.76703e-06,-9.97737e+08,-9.97624e+08,-9.977e+08,121218,0.00899355,0.00245902,0,0.00932367,10893.2,-36323.2,0,37921.4,121218
step02_gravity_refstate-crust.xmf,974,-4.8825e-07,1.24793e-06,0,1.59135e-06,-1.0015e+09,-1.00138e+09,-1.00147e+09,109167,0.00868922,0.00707839,0,0.0112074,11896.1,-36460.7,0,38352.3,109167
step02_gravity_refstate-crust.xmf,975,-4.38122e-07,1.36404e-06,0,1.43496e-06,-1.00628e+09,-1.00615e+09,-1.00625e+09,98438.1,0.00842294,0.0113946,0,0.0141698,12966.4,-36634.9,0,38861.8,98438.1
step02_gravity_refstate-crust.xmf,976,-3.91191e-07,1.47284e-06,0,1.29148e-06,-1.01281e+09,-1.01268e+09,-1.01278e+09,88595.7,0.00820185,0.0154806,0,0.0175191,14140.2,-36873.1,0,39491.4,88595.7
step02_gravity_refstate-crust.xmf,977,-3.48984e-07,1.56806e-06,0,1.1551e-06,-1.01751e+09,-1.01738e+09,-1.01749e+09,79239.8,0.00793674,0.0191562,0,0.0207353,15316.2,-37044.6,0,40086,79239.8
step02_gravity_refstate-crust.xmf,978,-2.40731e-07,1.66732e-06,0,8.78542e-07,-9.96081e+08,-9.9595e+08,-9.96065e+08,60268,0.00665427,0.0263694,0,0.027196,17362.7,-36264.9,0,40207.1,60268
step02_gravity_refstate-crust.xmf,979,-2.23002e-07,1.82067e-06,0,6.65165e-07,-9.93663e+08,-9.93523e+08,-9.93648e+08,45630.3,0.00594216,0.0332735,0,0.0337999,20211.1,-36177.2,0,41440.1,45630.3
step02_gravity_refstate-crust.xmf,980,-2.42484e-07,1.7542e-06,0,7.78773e-07,-9.99685e+08,-9.99548e+08,-9.99668e+08,53423.8,0.0064518,0.029506,0,0.0302031,18696.8,-36396.3,0,40917.7,53423.8
step02_gravity_refstate-crust.xmf,981,-3.39439e-07,2.27305e-06,0,3.80446e-07,-1.0581e+09,-1.05792e+09,-1.05808e+09,26098.6,0.00547934,0.0382167,0,0.0386075,26440.3,-38523.4,0,46724.1,26098.6
step02_gravity_refstate-crust.xmf,982,-1.31546e-06,2.6897e-06,0,4.05642e-08,-3.73243e+08,-3.72968e+08,-3.73153e+08,2782.71,-0.000202532,0.0114736,-0,0.0114754,154.459,-13587.1,0,13588,2782.71
step02_gravity_refstate-crust.xmf,983,-1.60421e-06,3.51822e-06,0,5.08965e-08,-4.49033e+08,-4.48681e+08,-4.48923e+08,3491.5,-0.000236312,0.00297459,-0,0.00298396,147.674,-16346.4,0,16347.1,3491.5
step02_gravity_refstate-crust.xmf,984,-1.40709e-06,2.98039e-06,0,4.8358e-08,-4.02458e+08,-4.02157e+08,-4.02361e+08,3317.36,-0.000251555,0.00846779,-0,0.00847153,178.933,-14650.8,0,14651.9,3317.36
step02_gravity_refstate-crust.xmf,985,-1.11424e-06,1.58442e-06,0,1.74303e-08,-2.36156e+08,-2.35971e+08,-2.3608e+08,1195.72,-0.000157805,0.0219343,-0,0.0219349,142.121,-8595.45,0,8596.63,1195.72
step02_gravity_refstate-crust.xmf,986,-1.18038e-06,1.12196e-06,0,-1.49947e-07,-1.54169e+08,-1.54011e+08,-1.54088e+08,-10286.4,0.00172388,0.0262276,0,0.0262842,-1451.94,-5609.64,-0,5794.5,10286.4
step02_gravity_refstate-crust.xmf,987,-1.12888e-06,1.33791e-06,0,-8.91643e-08,-1.95287e+08,-1.95118e+08,-1.9521e+08,-6116.67,0.000810633,0.0241753,0,0.0241889,-717.693,-7107.12,-0,7143.27,6116.67
step02_gravity_refstate-crust.xmf,988,-1.12751e-06,1.83996e-06,0,-8.41986e-08,-2.73478e+08,-2.73274e+08,-2.734e+08,-5776.02,0.000528358,0.0196422,0,0.0196493,-469.562,-9954.51,-0,9965.58,5776.02
step02_gravity_refstate-crust.xmf,989,-1.22465e-06,2.36612e-06,0,-1.23816e-07,-3.39156e+08,-3.38909e+08,-3.39072e+08,-8493.78,0.000701154,0.0146583,0,0.0146751,-573.271,-12346,-0,12359.3,8493.78
step02_gravity_refstate-crust.xmf,990,-1.42064e-06,8.49841e-07,0,-6.85334e-08,-8.07088e+07,-8.05531e+07,-8.06114e+07,-4701.39,0.0016684,0.0287391,0,0.0287875,-1171.27,-2933.85,-0,3159.01,4701.39
step02_gravity_refstate-crust.xmf,991,-6.55026e-06,1.40836e-05,0,-2.25363e-06,-7.58966e+08,-7.57551e+08,-7.58517e+08,-154599,0.00386909,-0.075108,0,0.0752075,-574.988,-27626.2,-0,27632.2,154599
step02_gravity_refstate-crust.xmf,992,-3.27426e-06,7.20314e-06,0,-7.52066e-07,-6.40866e+08,-6.40148e+08,-6.40642e+08,-51591.8,0.00237255,-0.0322651,0,0.0323522,-717.1,-23329.3,-0,23340.3,51591.8
step02_gravity_refstate-crust.xmf,993,-4.96273e-06,1.04915e-05,0,-3.52666e-07,-7.12608e+08,-7.11548e+08,-7.12267e+08,-24192.9,0.000779673,-0.0554431,0,0.0554485,-157.875,-25939.4,-0,25939.8,24192.9
step02_gravity_refstate-crust.xmf,994,-4.41203e-06,9.49714e-06,0,-7.75789e-07,-6.95321e+08,-6.94367e+08,-6.95018e+08,-53219.1,0.00199933,-0.0489141,0,0.0489549,-451.522,-25310.7,-0,25314.7,53219.1
step02_gravity_refstate-crust.xmf,995,-5.35925e-06,1.13583e-05,0,-1.3544e-06,-7.28374e+08,-7.27227e+08,-7.28007e+08,-92911.8,0.0028599,-0.0612526,0,0.0613193,-527.149,-26513.1,-0,26518.3,92911.8
step02_gravity_refstate-crust.xmf,996,-2.03561e-06,4.57185e-06,0,-2.67354e-07,-5.23097e+08,-5.22644e+08,-5.22957e+08,-18340.5,0.00114026,-0.00775246,0,0.00783587,-559.595,-19042.7,-0,19050.9,18340.5
step02_gravity_refstate-crust.xmf,997,-3.07422e-06,6.77447e-06,0,-4.0746e-07,-6.24841e+08,-6.24165e+08,-6.2463e+08,-27951.7,0.00133362,-0.0284374,0,0.0284687,-432.328,-22746,-0,22750.1,27951.7
step02_gravity_refstate-crust.xmf,998,-2.69156e-06,5.96864e-06,0,-1.60088e-07,-5.93151e+08,-5.92557e+08,-5.92966e+08,-10982,0.000570988,-0.0211903,0,0.021198,-212.57,-21592.6,-0,21593.7,10982
step02_gravity_refstate-crust.xmf,999,-9.52095e-06,2.55101e-05,0,-4.8211e-06,-8.24013e+08,-8.2161e+08,-8.2336e+08,-330727,0.00489204,-0.119936,0,0.120036,-499.828,-30000,-0,30004.2,330727
step02_gravity_refstate-crust.xmf,1000,-9.11127e-06,2.00212e-05,0,-3.91206e-06,-8.00876e+08,-7.98877e+08,-8.00251e+08,-268367,0.00441326,-0.101046,0,0.101142,-471.398,-29150.8,-0,29154.6,268367
step02_gravity_refstate-crust.xmf,1001,-7.69429e-06,1.72761e-05,0,-4.35347e-06,-7.87377e+08,-7.85664e+08,-7.86849e+08,-298648,0.00577744,-0.0903948,0,0.0905792,-695.576,-28660.9,-0,28669.3,298648
step02_gravity_refstate-crust.xmf,1002,4.31699e-06,-9.3381e-06,0,1.41607e-05,-9.95202e+08,-9.96139e+08,-9.95498e+08,971427,0.00709334,-0.114377,0,0.114597,1430.4,-36234.3,0,36262.6,971427
step02_gravity_refstate-crust.xmf,1003,3.57676e-06,-8.69003e-06,0,1.15662e-05,-1.00129e+09,-1.00213e+09,-1.00154e+09,793444,0.00957754,-0.0992742,0,0.0997351,1887.46,-36454.1,0,36502.9,793444
step02_gravity_refstate-crust.xmf,1004,2.45112e-06,-7.13464e-06,0,9.40949e-06,-1.00452e+09,-1.00518e+09,-1.00469e+09,645491,0.0115592,-0.085475,0,0.086253,2420.54,-36569.4,0,36649.4,645491
step02_gravity_refstate-crust.xmf,1005,-6.55839e-07,5.25445e-07,0,2.52649e-06,-9.92481e+08,-9.924e+08,-9.92436e+08,173317,0.010246,-0.0137448,0,0.0171435,8182.2,-36130.4,0,37045.3,173317
step02_gravity_refstate-crust.xmf,1006,-6.34349e-07,2.23761e-07,0,2.88111e-06,-9.90235e+08,-9.90176e+08,-9.90191e+08,197644,0.0105756,-0.0200664,0,0.0226827,7359.92,-36048.3,0,36791.9,197644
step02_gravity_refstate-crust.xmf,1007,-3.84995e-07,-6.01708e-07,0,3.86711e-06,-9.83885e+08,-9.839e+08,-9.83859e+08,265284,0.0107246,-0.0346388,0,0.0362611,5828.5,-35816.8,0,36288,265284
step02_gravity_refstate-crust.xmf,1008,-5.46113e-07,-1.48704e-07,0,3.31568e-06,-9.87051e+08,-9.87024e+08,-9.87014e+08,227456,0.010726,-0.0270107,0,0.0290624,6573.59,-35932.2,0,36528.5,227456
step02_gravity_refstate-crust.xmf,1009,9.05852e-07,-3.97554e-06,0,7.16497e-06,-9.93106e+08,-9.93441e+08,-9.93168e+08,491517,0.0116802,-0.0680213,0,0.0690168,3406.51,-36152.5,0,36312.7,491517
step02_gravity_refstate-crust.xmf,1010,3.27247e-07,-2.81449e-06,0,6.04404e-06,-9.93958e+08,-9.94174e+08,-9.93981e+08,414621,0.0121638,-0.0575698,0,0.0588408,4025.34,-36183,0,36406.2,414621
step02_gravity_refstate-crust.xmf,1011,-1.40938e-07,-1.90093e-06,0,5.07631e-06,-9.96162e+08,-9.96282e+08,-9.96152e+08,348235,0.0124742,-0.0478036,0,0.0494044,4693.14,-36262.7,0,36565.2,348235
step02_gravity_refstate-crust.xmf,1012,-3.07535e-07,1.65384e-06,0,1.03204e-06,-1.02219e+09,-1.02206e+09,-1.02217e+09,70797.8,0.00769638,0.0223841,0,0.0236703,16487.9,-37215.2,0,40704.1,70797.8
step02_gravity_refstate-crust.xmf,1013,-2.37341e-07,1.92789e-06,0,5.71257e-07,-1.00244e+09,-1.00229e+09,-1.00243e+09,39188.2,0.00577886,0.0360357,0,0.0364961,21945.3,-36496.9,0,42586.6,39188.2
step02_gravity_refstate-crust.xmf,1014,-2.65804e-07,2.04318e-06,0,4.96652e-07,-1.01757e+09,-1.01741e+09,-1.01755e+09,34070.3,0.00570764,0.0375772,0,0.0380082,23533.2,-37047.7,0,43890.1,34070.3
step02_gravity_refstate-crust.xmf,1015,-3.15735e-07,2.19405e-06,0,4.62123e-07,-1.0594e+09,-1.05923e+09,-1.05938e+09,31701.6,0.00607677,0.0359524,0,0.0364623,24656.7,-38570.8,0,45778.4,31701.6
step02_gravity_refstate-crust.xmf,1016,-1.72746e-06,3.82877e-06,0,-1.78415e-07,-4.739e+08,-4.73519e+08,-4.73782e+08,-12239.2,0.000799094,-0.000292605,0,0.000850981,-463.106,-17251.8,-0,17258,12239.2
step02_gravity_refstate-crust.xmf,1017,-1.48738e-06,3.20396e-06,0,-1.16134e-07,-4.2333e+08,-4.23008e+08,-4.23228e+08,-7966.81,0.000556287,0.00614593,0,0.00617105,-374.592,-15410.7,-0,15415.2,7966.81
step02_gravity_refstate-crust.xmf,1018,-1.27393e-06,9.4114e-07,0,-1.81256e-07,-1.13832e+08,-1.13681e+08,-1.13745e+08,-12434.2,0.0027807,0.0280694,0,0.0282068,-2157.24,-4140.49,-0,4668.76,12434.2
step02_gravity_refstate-crust.xmf,1019,-1.15314e-06,2.07986e-06,0,-2.3236e-07,-3.06447e+08,-3.06225e+08,-3.06368e+08,-15939.9,0.00140531,0.0175014,0,0.0175577,-1212.07,-11155.1,-0,11220.7,15939.9
step02_gravity_refstate-crust.xmf,1020,-1.93076e-06,7.34232e-07,0,3.90359e-09,-183341,-522.383,-50890.7,267.786,0.00191042,0.0309599,0,0.0310188,-989.347,0,-0,989.347,267.786
step02_gravity_refstate-crust.xmf,1021,-1.59616e-06,7.56116e-07,0,-7.94498e-08,-4.34416e+07,-4.32802e+07,-4.33321e+07,-5450.26,0.00323671,0.0301495,0,0.0303227,-2006.21,-1576.25,-0,2551.36,5450.26
step02_gravity_refstate-crust.xmf,1022,-5.56064e-06,1.20242e-05,0,-2.63662e-06,-7.43587e+08,-7.4238e+08,-7.43205e+08,-180872,0.00517749,-0.0666711,0,0.0668718,-877.178,-27067.1,-0,27081.3,180872
step02_gravity_refstate-crust.xmf,1023,-3.90642e-06,8.55183e-06,0,-1.10259e-06,-6.77708e+08,-6.76853e+08,-6.7744e+08,-75637.9,0.00308682,-0.0426808,0,0.0427923,-775.429,-24670.1,-0,24682.3,75637.9
step02_gravity_refstate-crust.xmf,1024,-3.44746e-06,7.69444e-06,0,-1.32014e-06,-6.59283e+08,-6.58519e+08,-6.59047e+08,-90561.4,0.00399831,-0.0366109,0,0.0368286,-1117.01,-23999.8,-0,24025.8,90561.4
step02_gravity_refstate-crust.xmf,1025,-6.44779e-06,1.46319e-05,0,-4.32129e-06,-7.72936e+08,-7.7149e+08,-7.72493e+08,-296441,0.00677123,-0.080463,0,0.0807474,-935.317,-28136.1,-0,28151.6,296441
step02_gravity_refstate-crust.xmf,1026,-1.8386e-06,4.13014e-06,0,-4.43363e-07,-4.97909e+08,-4.97499e+08,-4.97783e+08,-30414.7,0.00194546,-0.00349325,0,0.00399845,-1047.44,-18125.8,-0,18156.1,30414.7
step02_gravity_refstate-crust.xmf,1027,-2.86234e-06,6.36361e-06,0,-4.57348e-07,-6.0967e+08,-6.09037e+08,-6.09473e+08,-31374.1,0.00161272,-0.0247274,0,0.0247799,-561.22,-22193.9,-0,22201,31374.1
step02_gravity_refstate-crust.xmf,1028,-2.41868e-06,5.42498e-06,0,-4.19093e-07,-5.69768e+08,-5.6923e+08,-5.69602e+08,-28749.8,0.00163041,-0.0161398,0,0.016222,-671.11,-20741.6,-0,20752.4,28749.8
step02_gravity_refstate-crust.xmf,1029,-2.16475e-06,4.91047e-06,0,-5.98597e-07,-5.45755e+08,-5.4527e+08,-5.45606e+08,-41063.7,0.00244654,-0.0112818,0,0.0115441,-1112.45,-19867.6,-0,19898.7,41063.7
step02_gravity_refstate-crust.xmf,1030,-8.78645e-06,2.06074e-05,0,-7.29189e-06,-8.12112e+08,-8.10096e+08,-8.11509e+08,-500224,0.00719012,-0.1068,0,0.107042,-751.233,-29562.1,-0,29571.7,500224
step02_gravity_refstate-crust.xmf,1031,5.66128e-06,-1.15926e-05,0,1.63968e-05,-1.00244e+09,-1.00362e+09,-1.00283e+09,1.12482e+06,0.00560256,-0.125759,0,0.125884,1000,-36499.7,0,36513.4,1.12482e+06
step02_gravity_refstate-crust.xmf,1032,1.28943e-06,-5.47034e-06,0,7.63507e-06,-1.00678e+09,-1.00724e+09,-1.00686e+09,523766,0.0129491,-0.072653,0,0.0737979,3027.82,-36649.4,0,36774.3,523766
step02_gravity_refstate-crust.xmf,1033,-4.73293e-07,-1.18959e-06,0,4.30586e-06,-9.99137e+08,-9.99186e+08,-9.99104e+08,295382,0.0125771,-0.0391227,0,0.0410946,5384.57,-36370.8,0,36767.2,295382
step02_gravity_refstate-crust.xmf,1034,-8.00596e-07,5.77511e-07,0,2.60922e-06,-1.01401e+09,-1.01391e+09,-1.01395e+09,178992,0.0114115,-0.0117418,0,0.0163735,8532.62,-36913.6,0,37886.9,178992
step02_gravity_refstate-crust.xmf,1035,-7.24144e-07,8.06916e-07,0,2.33007e-06,-1.01688e+09,-1.01677e+09,-1.01683e+09,159843,0.0108913,-0.00632682,0,0.0125956,9409.4,-37018.8,0,38195.9,159843
step02_gravity_refstate-crust.xmf,1036,-6.76964e-07,1.00366e-06,0,2.09739e-06,-1.02056e+09,-1.02044e+09,-1.02051e+09,143881,0.0104041,-0.00128162,0,0.0104827,10338.1,-37153.3,0,38564.8,143881
step02_gravity_refstate-crust.xmf,1037,-6.02235e-07,1.16043e-06,0,1.87652e-06,-1.0236e+09,-1.02348e+09,-1.02356e+09,128729,0.00991665,0.00338955,0,0.0104799,11303.9,-37264.6,0,38941.3,128729
step02_gravity_refstate-crust.xmf,1038,-5.22692e-07,1.28388e-06,0,1.69994e-06,-1.02925e+09,-1.02912e+09,-1.02921e+09,116616,0.00954493,0.0075989,0,0.0122004,12310.4,-37470.6,0,39441,116616
step02_gravity_refstate-crust.xmf,1039,-4.59966e-07,1.39748e-06,0,1.54482e-06,-1.03703e+09,-1.0369e+09,-1.037e+09,105975,0.00924021,0.0114239,0,0.0146931,13373.5,-37754.4,0,40053.1,105975
step02_gravity_refstate-crust.xmf,1040,-4.0615e-07,1.50824e-06,0,1.37885e-06,-1.04312e+09,-1.04299e+09,-1.04309e+09,94589,0.00889784,0.0151397,0,0.0175608,14519.4,-37976.6,0,40657.5,94589
step02_gravity_refstate-crust.xmf,1041,-3.5923e-07,1.60433e-06,0,1.21868e-06,-1.04513e+09,-1.04499e+09,-1.0451e+09,83601.4,0.00853026,0.0185435,0,0.0204115,15635.1,-38049.9,0,41136.9,83601.4
step02_gravity_refstate-crust.xmf,1042,-3.02606e-07,1.75978e-06,0,9.26824e-07,-1.03383e+09,-1.03369e+09,-1.03381e+09,63580.1,0.00758818,0.0252172,0,0.0263341,17829.2,-37639.1,0,41648.3,63580.1
step02_gravity_refstate-crust.xmf,1043,-2.76444e-07,1.9421e-06,0,6.64613e-07,-1.03253e+09,-1.03238e+09,-1.03252e+09,45592.5,0.00669525,0.0320891,0,0.0327801,20952.8,-37592.4,0,43037.2,45592.5
step02_gravity_refstate-crust.xmf,1044,-2.81987e-07,1.85461e-06,0,7.78035e-07,-1.03193e+09,-1.03178e+09,-1.03191e+09,53373.2,0.00709398,0.0290603,0,0.0299136,19434.5,-37570.2,0,42299.2,53373.2
step02_gravity_refstate-crust.xmf,1045,-1.37817e-06,2.91249e-06,0,-2.20681e-07,-3.97017e+08,-3.96722e+08,-3.96922e+08,-15138.7,0.00113768,0.00919584,0,0.00926594,-822.391,-14452.7,-0,14476.1,15138.7
step02_gravity_refstate-crust.xmf,1046,-1.27464e-06,2.60625e-06,0,-3.22951e-07,-3.67923e+08,-3.67656e+08,-3.67835e+08,-22154.4,0.00173934,0.0123523,0,0.0124742,-1350.7,-13393.5,-0,13461.4,22154.4
step02_gravity_refstate-crust.xmf,1047,-1.56978e-06,3.46299e-06,0,-3.29147e-07,-4.46698e+08,-4.46352e+08,-4.4659e+08,-22579.5,0.00157596,0.00353094,0,0.00386668,-996.89,-16261.5,-0,16292,22579.5
step02_gravity_refstate-crust.xmf,1048,-1.09065e-06,1.57924e-06,0,-2.51713e-07,-2.37375e+08,-2.37192e+08,-2.37301e+08,-17267.5,0.00186555,0.0222878,0,0.0223657,-1689.84,-8639.92,-0,8803.62,17267.5
step02_gravity_refstate-crust.xmf,1049,-1.1439e-06,1.0683e-06,0,-3.12106e-07,-1.4904e+08,-1.48888e+08,-1.48961e+08,-21410.5,0.00372473,0.0274584,0,0.0277099,-3150.63,-5422.97,-0,6271.77,21410.5
step02_gravity_refstate-crust.xmf,1050,-1.10014e-06,1.28435e-06,0,-2.97066e-07,-1.90024e+08,-1.89861e+08,-1.89949e+08,-20378.8,0.00272916,0.0251763,0,0.0253238,-2430.87,-6915.56,-0,7330.35,20378.8
step02_gravity_refstate-crust.xmf,1051,-1.10271e-06,1.84321e-06,0,-3.16982e-07,-2.77299e+08,-2.77097e+08,-2.77223e+08,-21745,0.00205172,0.0198885,0,0.019994,-1832.59,-10093.7,-0,10258.7,21745
step02_gravity_refstate-crust.xmf,1052,-1.17578e-06,2.2964e-06,0,-4.2354e-07,-3.3662e+08,-3.36382e+08,-3.36539e+08,-29054.9,0.00241018,0.0155544,0,0.01574,-2002.32,-12253.8,-0,12416.3,29054.9
step02_gravity_refstate-crust.xmf,1053,-1.38574e-06,8.21907e-07,0,-1.64839e-07,-7.80711e+07,-7.79197e+07,-7.79761e+07,-11308,0.00397753,0.0296109,0,0.0298768,-2798.11,-2837.92,-0,3985.38,11308
step02_gravity_refstate-crust.xmf,1054,-2.90734e-06,6.50964e-06,0,-9.55302e-07,-6.20585e+08,-6.19939e+08,-6.20385e+08,-65533.7,0.00324697,-0.0267113,0,0.026908,-1087.19,-22591.3,-0,22617.5,65533.7
step02_gravity_refstate-crust.xmf,1055,-5.4088e-06,1.25237e-05,0,-4.20652e-06,-7.58282e+08,-7.57052e+08,-7.57911e+08,-288567,0.00767504,-0.0713969,0,0.0718082,-1214.98,-27603.5,-0,27630.2,288567
step02_gravity_refstate-crust.xmf,1056,-3.01005e-06,6.82954e-06,0,-1.47786e-06,-6.3881e+08,-6.38135e+08,-6.38604e+08,-101381,0.00481235,-0.0303596,0,0.0307387,-1504.46,-23254.9,-0,23303.5,101381
step02_gravity_refstate-crust.xmf,1057,-4.6573e-06,1.00737e-05,0,-1.74586e-06,-7.12197e+08,-7.11186e+08,-7.11877e+08,-119766,0.00413146,-0.0541384,0,0.0542958,-855.454,-25925,-0,25939.1,119766
step02_gravity_refstate-crust.xmf,1058,-4.04943e-06,9.0352e-06,0,-1.9457e-06,-6.95214e+08,-6.94316e+08,-6.94936e+08,-133475,0.00510226,-0.0472898,0,0.0475643,-1184.85,-25307.6,-0,25335.3,133475
step02_gravity_refstate-crust.xmf,1059,-4.7352e-06,1.05198e-05,0,-2.8185e-06,-7.27985e+08,-7.26938e+08,-7.2766e+08,-193349,0.00625358,-0.0588481,0,0.0591795,-1201.11,-26500.1,-0,26527.3,193349
step02_gravity_refstate-crust.xmf,1060,-1.93243e-06,4.43169e-06,0,-7.41317e-07,-5.21501e+08,-5.21064e+08,-5.21368e+08,-50854.4,0.00317893,-0.00666225,0,0.00738181,-1593.09,-18984.8,-0,19051.5,50854.4
step02_gravity_refstate-crust.xmf,1061,-2.60913e-06,5.87108e-06,0,-8.74438e-07,-5.9565e+08,-5.95068e+08,-5.95471e+08,-59986.4,0.00316883,-0.0209528,0,0.0211911,-1184.43,-21683.8,-0,21716.1,59986.4
step02_gravity_refstate-crust.xmf,1062,-5.62855e-06,1.66503e-05,0,-1.14855e-05,-8.23957e+08,-8.22429e+08,-8.23571e+08,-787905,0.00895358,-0.111488,0,0.111847,-1000,-30000,-0,30016.7,787905
step02_gravity_refstate-crust.xmf,1063,-6.92425e-06,1.66025e-05,0,-7.1286e-06,-7.99627e+08,-7.98013e+08,-7.99152e+08,-489022,0.00859833,-0.0950944,0,0.0954823,-996.784,-29108.9,-0,29126,489022
step02_gravity_refstate-crust.xmf,1064,-5.66868e-06,1.43225e-05,0,-6.52777e-06,-7.86318e+08,-7.84947e+08,-7.85929e+08,-447805,0.00948784,-0.0845847,0,0.0851152,-1256.9,-28625.9,-0,28653.5,447805
step02_gravity_refstate-crust.xmf,1065,4.92855e-06,-1.12287e-05,0,1.31553e-05,-1.00926e+09,-1.01037e+09,-1.0096e+09,902452,0.00861142,-0.108541,0,0.108882,1449.57,-36745.7,0,36774.3,902452
step02_gravity_refstate-crust.xmf,1066,3.6029e-06,-9.74629e-06,0,1.01616e-05,-1.01684e+09,-1.01775e+09,-1.01708e+09,697089,0.0116814,-0.0919306,0,0.0926697,1972.3,-37018.5,0,37071,697089
step02_gravity_refstate-crust.xmf,1067,1.77275e-06,-6.91774e-06,0,8.1023e-06,-1.01828e+09,-1.01888e+09,-1.01841e+09,555818,0.0136301,-0.0769883,0,0.0781856,2660.03,-37068.1,0,37163.5,555818
step02_gravity_refstate-crust.xmf,1068,-8.25184e-07,2.75909e-07,0,2.93034e-06,-1.01112e+09,-1.01104e+09,-1.01106e+09,201022,0.0119176,-0.0176534,0,0.0212996,7689.66,-36807.8,0,37602.5,201022
step02_gravity_refstate-crust.xmf,1069,-8.00033e-07,-1.06912e-07,0,3.31113e-06,-1.00794e+09,-1.00789e+09,-1.00789e+09,227144,0.0123517,-0.0241372,0,0.027114,6880.71,-36691.7,0,37331.3,227144
step02_gravity_refstate-crust.xmf,1070,-6.76306e-07,-5.90635e-07,0,3.76234e-06,-1.00362e+09,-1.00362e+09,-1.00358e+09,258096,0.0125772,-0.0312672,0,0.033702,6111.1,-36534.3,0,37041.9,258096
step02_gravity_refstate-crust.xmf,1071,6.71369e-07,-5.33452e-06,0,6.82795e-06,-1.02467e+09,-1.02508e+09,-1.02471e+09,468398,0.0149296,-0.0650787,0,0.0667693,3264.26,-37298.5,0,37441.1,468398
step02_gravity_refstate-crust.xmf,1072,4.52752e-07,-3.97418e-06,0,6.41213e-06,-1.00908e+09,-1.00938e+09,-1.00911e+09,439872,0.0137552,-0.0613961,0,0.0629181,3662.85,-36732.1,0,36914.3,439872
step02_gravity_refstate-crust.xmf,1073,-9.44052e-08,-2.76357e-06,0,5.53117e-06,-1.01082e+09,-1.011e+09,-1.01081e+09,379439,0.014038,-0.0518202,0,0.053688,4302.44,-36795.1,0,37045.8,379439
step02_gravity_refstate-crust.xmf,1074,-4.84507e-07,-1.8414e-06,0,4.80224e-06,-1.01357e+09,-1.01366e+09,-1.01354e+09,329434,0.014076,-0.0431806,0,0.0454169,4967.29,-36895.3,0,37228.1,329434
step02_gravity_refstate-crust.xmf,1075,-3.2536e-07,1.68931e-06,0,1.09083e-06,-1.04889e+09,-1.04875e+09,-1.04887e+09,74830.7,0.00825133,0.0213428,0,0.0228823,16698.5,-38187.2,0,41678.6,74830.7
step02_gravity_refstate-crust.xmf,1076,-2.81573e-07,2.02207e-06,0,5.8014e-07,-1.03596e+09,-1.0358e+09,-1.03594e+09,39797.6,0.00639296,0.0342466,0,0.0348382,22303.2,-37717.1,0,43818,39797.6
step02_gravity_refstate-crust.xmf,1077,-3.01978e-07,2.12099e-06,0,5.46966e-07,-1.06158e+09,-1.06142e+09,-1.06156e+09,37521.8,0.00657324,0.0336633,0,0.034299,23151.2,-38650.1,0,45053.4,37521.8
step02_gravity_refstate-crust.xmf,1078,-1.65318e-06,3.72098e-06,0,-5.81679e-07,-4.7196e+08,-4.71592e+08,-4.71847e+08,-39903.2,0.00267236,0.000646387,0,0.00274942,-1577.79,-17181.3,-0,17253.6,39903.2
step02_gravity_refstate-crust.xmf,1079,-1.43599e-06,3.12386e-06,0,-4.40215e-07,-4.20788e+08,-4.20475e+08,-4.20689e+08,-30198.7,0.00217693,0.00694158,0,0.00727493,-1489.8,-15318.2,-0,15390.5,30198.7
step02_gravity_refstate-crust.xmf,1080,-1.23443e-06,8.83261e-07,0,-2.96351e-07,-1.06788e+08,-1.06643e+08,-1.06703e+08,-20329.7,0.00496714,0.0295668,0,0.0299812,-3843.36,-3884.09,-0,5464.21,20329.7
step02_gravity_refstate-crust.xmf,1081,-1.09565e-06,1.9989e-06,0,-4.86072e-07,-3.03129e+08,-3.02917e+08,-3.03054e+08,-33344.6,0.0029741,0.0186569,0,0.0188924,-2614.53,-11034.4,-0,11339.9,33344.6
step02_gravity_refstate-crust.xmf,1082,-1.85487e-06,7.04664e-07,0,3.29301e-09,-176165,-580.789,-48920.7,225.9,0.00566508,0.0318505,0,0.0323504,-2969.28,0,-0,2969.28,225.9
step02_gravity_refstate-crust.xmf,1083,-1.46239e-06,7.40006e-07,0,-1.55204e-07,-5.18797e+07,-5.17286e+07,-5.17794e+07,-10647,0.00616907,0.0313467,0,0.031948,-4018.37,-1883.96,-0,4438.09,10647
step02_gravity_refstate-crust.xmf,1084,-4.56707e-06,1.06866e-05,0,-4.02635e-06,-7.43232e+08,-7.42185e+08,-7.42918e+08,-276207,0.00842419,-0.0630267,0,0.0635872,-1520.4,-27056.2,-0,27098.8,276207
step02_gravity_refstate-crust.xmf,1085,-3.5232e-06,8.05359e-06,0,-2.04669e-06,-6.77313e+08,-6.76519e+08,-6.77071e+08,-140403,0.00586796,-0.0406811,0,0.0411021,-1526.17,-24656.5,-0,24703.7,140403
step02_gravity_refstate-crust.xmf,1086,-3.05745e-06,7.18736e-06,0,-2.10842e-06,-6.58966e+08,-6.58263e+08,-6.58757e+08,-144638,0.00655303,-0.0343784,0,0.0349974,-1904.12,-23989.1,-0,24064.5,144638
step02_gravity_refstate-crust.xmf,1087,-4.75451e-06,1.22082e-05,0,-5.87904e-06,-7.72428e+08,-7.71265e+08,-7.72102e+08,-403302,0.0101254,-0.0750529,0,0.0757328,-1537.33,-28120.7,-0,28162.7,403302
step02_gravity_refstate-crust.xmf,1088,-1.71347e-06,3.96131e-06,0,-8.7371e-07,-4.96594e+08,-4.96205e+08,-4.96476e+08,-59936.5,0.00390032,-0.00214266,0,0.00445011,-2154.96,-18078.2,-0,18206.2,59936.5
step02_gravity_refstate-crust.xmf,1089,-2.26446e-06,5.22848e-06,0,-1.00751e-06,-5.68727e+08,-5.68213e+08,-5.68572e+08,-69115.2,0.00394751,-0.0148166,0,0.0153334,-1665.64,-20704,-0,20770.9,69115.2
step02_gravity_refstate-crust.xmf,1090,-1.99531e-06,4.68555e-06,0,-1.0898e-06,-5.44253e+08,-5.43795e+08,-5.44116e+08,-74760.5,0.00451634,-0.009675,0,0.0106772,-2116.68,-19813.3,-0,19926,74760.5
step02_gravity_refstate-crust.xmf,1091,-4.80888e-06,1.46354e-05,0,-9.53301e-06,-8.11655e+08,-8.10321e+08,-8.11325e+08,-653964,0.0107026,-0.0981341,0,0.098716,-1262.2,-29552.3,-0,29579.2,653964
step02_gravity_refstate-crust.xmf,1092,-4.80703e-06,1.30571e-05,0,-1.13211e-05,-8.33229e+08,-8.32003e+08,-8.32899e+08,-776625,0.00936093,-0.107492,0,0.107899,-1334.68,-30335.3,-0,30364.6,776625
step02_gravity_refstate-crust.xmf,1093,-6.27301e-06,1.44235e-05,0,-1.43403e-05,-8.3787e+08,-8.3645e+08,-8.37439e+08,-983743,0.00688837,-0.119548,0,0.119746,-1000,-30500.4,-0,30516.8,983743
step02_gravity_refstate-crust.xmf,1094,6.67892e-06,-1.40114e-05,0,1.55929e-05,-1.01618e+09,-1.0176e+09,-1.01663e+09,1.06967e+06,0.00668814,-0.119355,0,0.119542,1000,-37000.2,0,37013.7,1.06967e+06
step02_gravity_refstate-crust.xmf,1095,1.25522e-06,-7.0115e-06,0,7.49732e-06,-1.0317e+09,-1.03227e+09,-1.03179e+09,514316,0.014952,-0.0712981,0,0.072849,2786.16,-37554.3,0,37657.5,514316
step02_gravity_refstate-crust.xmf,1096,-7.35777e-07,-1.14218e-06,0,4.21491e-06,-1.01731e+09,-1.01734e+09,-1.01726e+09,289143,0.013936,-0.0355599,0,0.0381932,5642.48,-37031.5,0,37458.9,289143
step02_gravity_refstate-crust.xmf,1097,-8.2988e-07,5.8309e-07,0,2.74542e-06,-1.03638e+09,-1.03628e+09,-1.03632e+09,188336,0.0119722,-0.010058,0,0.0156364,8870.5,-37727.8,0,38756.6,188336
step02_gravity_refstate-crust.xmf,1098,-8.93266e-07,2.9146e-07,0,3.05693e-06,-1.03302e+09,-1.03294e+09,-1.03296e+09,209705,0.0125993,-0.0155078,0,0.0199808,8019.38,-37604.9,0,38450.5,209705
step02_gravity_refstate-crust.xmf,1099,-7.18251e-07,8.04236e-07,0,2.46202e-06,-1.0399e+09,-1.0398e+09,-1.03985e+09,168895,0.0113719,-0.00503179,0,0.0124354,9757.09,-37857,0,39094.2,168895
step02_gravity_refstate-crust.xmf,1100,-5.46968e-07,1.16071e-06,0,1.95877e-06,-1.04622e+09,-1.0461e+09,-1.04618e+09,134371,0.0102603,0.00419917,0,0.0110863,11693.4,-38088.3,0,39842.9,134371
step02_gravity_refstate-crust.xmf,1101,-6.3933e-07,9.91979e-07,0,2.24473e-06,-1.04857e+09,-1.04846e+09,-1.04853e+09,153989,0.0108474,-0.000256136,0,0.0108504,10743.4,-38173.2,0,39656.2,153989
step02_gravity_refstate-crust.xmf,1102,-4.8302e-07,1.25533e-06,0,1.83729e-06,-1.05636e+09,-1.05624e+09,-1.05633e+09,126038,0.00996815,0.00724912,0,0.0123253,12532.1,-38457.9,0,40448.3,126038
step02_gravity_refstate-crust.xmf,1103,-3.90738e-07,1.36432e-06,0,1.67876e-06,-1.07121e+09,-1.07109e+09,-1.07118e+09,115163,0.00960913,0.0107204,0,0.0143966,13654.4,-38998.9,0,41320.2,115163
step02_gravity_refstate-crust.xmf,1104,-3.46412e-07,1.50735e-06,0,1.44282e-06,-1.07265e+09,-1.07252e+09,-1.07263e+09,98977.7,0.00917979,0.0147333,0,0.0173591,14897,-39051.8,0,41796.7,98977.7
step02_gravity_refstate-crust.xmf,1105,-3.21756e-07,1.63209e-06,0,1.2433e-06,-1.07144e+09,-1.07131e+09,-1.07142e+09,85290.2,0.00878019,0.0183469,0,0.0203397,16103.5,-39008.2,0,42201.4,85290.2
step02_gravity_refstate-crust.xmf,1106,-2.98682e-07,2.03817e-06,0,6.54398e-07,-1.06549e+09,-1.06533e+09,-1.06547e+09,44891.7,0.00708352,0.0309192,0,0.0317202,21627.6,-38792.3,0,44413.9,44891.7
step02_gravity_refstate-crust.xmf,1107,-3.06154e-07,1.74196e-06,0,1.07131e-06,-1.06963e+09,-1.06948e+09,-1.0696e+09,73491.8,0.00838552,0.0217021,0,0.0232658,17334.2,-38942.2,0,42625.9,73491.8
step02_gravity_refstate-crust.xmf,1108,-2.94488e-07,1.94533e-06,0,7.70888e-07,-1.06548e+09,-1.06533e+09,-1.06546e+09,52882.9,0.00750985,0.0282202,0,0.0292024,20153.8,-38791.8,0,43714.7,52882.9
step02_gravity_refstate-crust.xmf,1109,-2.97654e-07,1.84453e-06,0,9.11831e-07,-1.06637e+09,-1.06622e+09,-1.06635e+09,62551.6,0.00794738,0.0250801,0,0.0263092,18677.6,-38823.9,0,43083.1,62551.6
step02_gravity_refstate-crust.xmf,1110,-1.31488e-06,2.81587e-06,0,-5.35887e-07,-3.94358e+08,-3.94075e+08,-3.94268e+08,-36761.9,0.00278112,0.0102485,0,0.0106192,-2052.65,-14356,-0,14502,36761.9
step02_gravity_refstate-crust.xmf,1111,-1.19206e-06,2.50979e-06,0,-6.52895e-07,-3.67892e+08,-3.67638e+08,-3.6781e+08,-44788.6,0.00353368,0.0135574,0,0.0140103,-2804.34,-13392.5,-0,13683,44788.6
step02_gravity_refstate-crust.xmf,1112,-1.48144e-06,3.34454e-06,0,-6.87595e-07,-4.4493e+08,-4.44599e+08,-4.44828e+08,-47169,0.00331228,0.00469224,0,0.00574354,-2143.44,-16197.3,-0,16338.5,47169
step02_gravity_refstate-crust.xmf,1113,-1.04057e-06,1.70999e-06,0,-5.13092e-07,-2.66064e+08,-2.65875e+08,-2.65992e+08,-35198.1,0.00347398,0.021669,0,0.0219457,-3176.93,-9684.76,-0,10192.5,35198.1
step02_gravity_refstate-crust.xmf,1114,-1.03539e-06,1.44716e-06,0,-4.65342e-07,-2.24525e+08,-2.24354e+08,-2.24454e+08,-31922.5,0.00367196,0.0242431,0,0.0245196,-3381.64,-8172.1,-0,8844.13,31922.5
step02_gravity_refstate-crust.xmf,1115,-1.07294e-06,1.00173e-06,0,-4.53616e-07,-1.45127e+08,-1.44985e+08,-1.45053e+08,-31118.1,0.00565249,0.0293475,0,0.0298869,-4856.72,-5280.7,-0,7174.51,31118.1
step02_gravity_refstate-crust.xmf,1116,-1.03587e-06,1.20947e-06,0,-4.79104e-07,-1.85768e+08,-1.85614e+08,-1.85697e+08,-32866.5,0.00456386,0.0268811,0,0.0272658,-4132.35,-6760.74,-0,7923.63,32866.5
step02_gravity_refstate-crust.xmf,1117,-1.08598e-06,2.18018e-06,0,-6.95886e-07,-3.34086e+08,-3.33862e+08,-3.34012e+08,-47737.8,0.00401149,0.0171568,0,0.0176196,-3429.52,-12161.7,-0,12636,47737.8
step02_gravity_refstate-crust.xmf,1118,-2.63065e-06,6.09552e-06,0,-1.51334e-06,-6.16141e+08,-6.15542e+08,-6.1596e+08,-103815,0.00530585,-0.0241862,0,0.0247613,-1860.08,-22430,-0,22507,103815
step02_gravity_refstate-crust.xmf,1119,-4.04331e-06,1.05924e-05,0,-5.32717e-06,-7.57954e+08,-7.5695e+08,-7.57677e+08,-365444,0.0105835,-0.0663429,0,0.0671818,-1832.7,-27594.1,-0,27654.9,365444
step02_gravity_refstate-crust.xmf,1120,-2.61116e-06,6.2808e-06,0,-2.10237e-06,-6.36588e+08,-6.35978e+08,-6.36409e+08,-144223,0.00709815,-0.0274567,0,0.0283594,-2337.93,-23174.8,-0,23292.4,144223
step02_gravity_refstate-crust.xmf,1121,-4.04666e-06,9.25712e-06,0,-2.87922e-06,-7.11802e+08,-7.1089e+08,-7.11525e+08,-197515,0.00711517,-0.051453,0,0.0519426,-1543.28,-25911.8,-0,25957.8,197515
step02_gravity_refstate-crust.xmf,1122,-3.46487e-06,8.26358e-06,0,-2.86836e-06,-6.94913e+08,-6.94109e+08,-6.94675e+08,-196770,0.00781417,-0.0443996,0,0.045082,-1908.63,-25297.8,-0,25369.7,196770
step02_gravity_refstate-crust.xmf,1123,-3.85968e-06,9.34283e-06,0,-3.8617e-06,-7.27727e+08,-7.26822e+08,-7.27463e+08,-264913,0.00909137,-0.0551478,0,0.0558921,-1863.14,-26492.5,-0,26557.9,264913
step02_gravity_refstate-crust.xmf,1124,-1.75458e-06,4.19692e-06,0,-1.16992e-06,-5.20302e+08,-5.19894e+08,-5.20182e+08,-80256.5,0.00509603,-0.00487537,0,0.00705257,-2642.01,-18941.5,-0,19124.9,80256.5
step02_gravity_refstate-crust.xmf,1125,-3.33649e-06,1.19655e-05,0,-9.69557e-06,-8.23465e+08,-8.22415e+08,-8.23236e+08,-665116,0.0112333,-0.098921,0,0.0995567,-1506.7,-29984.1,-0,30021.9,665116
step02_gravity_refstate-crust.xmf,1126,-4.11886e-06,1.24834e-05,0,-8.23183e-06,-7.99266e+08,-7.98127e+08,-7.98983e+08,-564704,0.0116316,-0.0871768,0,0.0879493,-1546.32,-29100.7,-0,29141.8,564704
step02_gravity_refstate-crust.xmf,1127,-3.58649e-06,1.10759e-05,0,-7.2658e-06,-7.86036e+08,-7.8503e+08,-7.85789e+08,-498434,0.0121832,-0.0773441,0,0.0782977,-1841.24,-28619,-0,28678.2,498434
step02_gravity_refstate-crust.xmf,1128,-4.35634e-06,1.12675e-05,0,-1.25088e-05,-8.44674e+08,-8.43602e+08,-8.44375e+08,-858102,0.00812019,-0.111137,0,0.111434,-1386.3,-30751,-0,30782.3,858102
step02_gravity_refstate-crust.xmf,1129,-5.16456e-06,1.17596e-05,0,-1.56337e-05,-8.51594e+08,-8.50433e+08,-8.5124e+08,-1.07247e+06,0.00547572,-0.126094,0,0.126213,-1000,-31000.5,-0,31016.6,1.07247e+06
step02_gravity_refstate-crust.xmf,1130,2.24592e-06,-8.8502e-06,0,8.3669e-06,-1.03089e+09,-1.03165e+09,-1.03104e+09,573970,0.0140617,-0.0800157,0,0.0812419,2310.05,-37525.8,0,37596.9,573970
step02_gravity_refstate-crust.xmf,1131,5.48925e-06,-1.31994e-05,0,1.20381e-05,-1.02284e+09,-1.02412e+09,-1.02321e+09,825816,0.00989277,-0.103353,0,0.103826,1419.81,-37239.2,0,37266.2,825816
step02_gravity_refstate-crust.xmf,1132,5.78463e-07,-6.13319e-06,0,6.91869e-06,-1.04137e+09,-1.04183e+09,-1.0414e+09,474622,0.0156825,-0.0639093,0,0.0658054,3111.55,-37904.8,0,38032.3,474622
step02_gravity_refstate-crust.xmf,1133,-9.25071e-07,-7.53907e-08,0,3.39724e-06,-1.02907e+09,-1.02901e+09,-1.029e+09,233050,0.0132008,-0.0214567,0,0.0251923,7200.26,-37460.3,0,38146,233050
step02_gravity_refstate-crust.xmf,1134,-9.0868e-07,-5.94647e-07,0,3.83398e-06,-1.02642e+09,-1.0264e+09,-1.02636e+09,263011,0.0138413,-0.0283991,0,0.0315926,6364.71,-37363.3,0,37901.6,263011
step02_gravity_refstate-crust.xmf,1135,-2.92932e-08,-3.7447e-06,0,5.92069e-06,-1.02558e+09,-1.02584e+09,-1.02558e+09,406160,0.015211,-0.0550159,0,0.05708,3940.21,-37331.4,0,37538.8,406160
step02_gravity_refstate-crust.xmf,1136,-4.58668e-07,-2.60419e-06,0,5.26311e-06,-1.02751e+09,-1.02766e+09,-1.02748e+09,361050,0.0151681,-0.0466825,0,0.0490849,4577.03,-37401.7,0,37680.7,361050
step02_gravity_refstate-crust.xmf,1137,-7.20025e-07,-1.77416e-06,0,4.72883e-06,-1.03047e+09,-1.03054e+09,-1.03042e+09,324398,0.0149372,-0.0394265,0,0.0421612,5204.07,-37509.7,0,37869,324398
step02_gravity_refstate-crust.xmf,1138,-7.29218e-07,5.33604e-07,0,2.88188e-06,-1.05804e+09,-1.05795e+09,-1.05799e+09,197697,0.0119156,-0.00860983,0,0.0147007,9191.92,-38516.8,0,39598.4,197697
step02_gravity_refstate-crust.xmf,1139,-4.75774e-07,1.02327e-06,0,2.20965e-06,-1.07333e+09,-1.07322e+09,-1.07329e+09,151582,0.010465,0.00261821,0,0.0107876,11577,-39075.2,0,40754.1,151582
step02_gravity_refstate-crust.xmf,1140,-1.5112e-06,3.53433e-06,0,-9.69551e-07,-4.70744e+08,-4.70398e+08,-4.7064e+08,-66511.2,0.00453526,0.00228186,0,0.00507696,-2762.89,-17137.3,-0,17358.6,66511.2
step02_gravity_refstate-crust.xmf,1141,-1.3561e-06,3.03397e-06,0,-7.27659e-07,-4.20578e+08,-4.20277e+08,-4.20485e+08,-49917.4,0.00364843,0.00797431,0,0.0087693,-2546.05,-15310.8,-0,15521,49917.4
step02_gravity_refstate-crust.xmf,1142,-1.15396e-06,8.13297e-07,0,-3.92507e-07,-1.01613e+08,-1.01478e+08,-1.01534e+08,-26926,0.00716133,0.0317416,0,0.0325394,-5609.71,-3695.93,-0,6717.79,26926
step02_gravity_refstate-crust.xmf,1143,-1.00607e-06,1.87803e-06,0,-7.14829e-07,-2.99148e+08,-2.9895e+08,-2.99079e+08,-49037.3,0.00446285,0.0205019,0,0.0209821,-4045.77,-10889.6,-0,11616.9,49037.3
step02_gravity_refstate-crust.xmf,1144,-1.71606e-06,6.52711e-07,0,-8.33912e-11,-162948,-450.245,-45226.2,-5.72063,0.0092169,0.0335966,0,0.0348379,-4955.97,0,-0,4955.97,5.72063
step02_gravity_refstate-crust.xmf,1145,-3.44179e-06,9.14306e-06,0,-4.86035e-06,-7.43073e+08,-7.4221e+08,-7.42837e+08,-333420,0.0109778,-0.0582271,0,0.0592529,-2159.03,-27052.5,-0,27138.6,333420
step02_gravity_refstate-crust.xmf,1146,-2.9734e-06,7.32864e-06,0,-2.80346e-06,-6.77166e+08,-6.76459e+08,-6.76962e+08,-192317,0.00834713,-0.0376633,0,0.0385772,-2290.11,-24652.2,-0,24758.4,192317
step02_gravity_refstate-crust.xmf,1147,-2.53409e-06,6.46942e-06,0,-2.69679e-06,-6.57331e+08,-6.56714e+08,-6.57157e+08,-185000,0.00876779,-0.0308312,0,0.0320536,-2715.19,-23930.6,-0,24084.1,185000
step02_gravity_refstate-crust.xmf,1148,-3.14612e-06,9.77805e-06,0,-6.4546e-06,-7.72194e+08,-7.71307e+08,-7.71978e+08,-442785,0.0124882,-0.0685406,0,0.069669,-2136.81,-28114.9,-0,28196,442785
step02_gravity_refstate-crust.xmf,1149,-1.52376e-06,3.72376e-06,0,-1.26807e-06,-4.97141e+08,-4.96781e+08,-4.97037e+08,-86989.7,0.00577491,-0.000243226,0,0.00578003,-3306.54,-18098.5,-0,18398.1,86989.7
step02_gravity_refstate-crust.xmf,1150,-2.29697e-06,5.43229e-06,0,-1.50577e-06,-5.91556e+08,-5.91025e+08,-5.91398e+08,-103296,0.00567399,-0.0181282,0,0.0189955,-2234.91,-21535.3,-0,21650.9,103296
step02_gravity_refstate-crust.xmf,1151,-2.00547e-06,4.87871e-06,0,-1.49977e-06,-5.66634e+08,-5.66162e+08,-5.66497e+08,-102884,0.00602052,-0.0124617,0,0.0138398,-2654.77,-20628.3,-0,20798.5,102884
step02_gravity_refstate-crust.xmf,1152,-1.7542e-06,4.36339e-06,0,-1.50437e-06,-5.42623e+08,-5.42204e+08,-5.42503e+08,-103200,0.00637132,-0.00732478,0,0.00970805,-3122.51,-19754.4,-0,19999.7,103200
step02_gravity_refstate-crust.xmf,1153,-2.59855e-06,1.06072e-05,0,-8.95323e-06,-8.11855e+08,-8.10949e+08,-8.11676e+08,-614192,0.0126067,-0.08873,0,0.0896211,-1775.95,-29562.3,-0,29615.6,614192
step02_gravity_refstate-crust.xmf,1154,-3.07309e-06,1.02079e-05,0,-1.01306e-05,-8.35695e+08,-8.34784e+08,-8.35484e+08,-694956,0.010507,-0.09918,0,0.099735,-1709.94,-30427.7,-0,30475.7,694956
step02_gravity_refstate-crust.xmf,1155,-3.67003e-06,9.28458e-06,0,-1.36672e-05,-8.58372e+08,-8.57483e+08,-8.5812e+08,-937570,0.00652848,-0.115887,0,0.116071,-1398.93,-31249.4,-0,31280.7,937570
step02_gravity_refstate-crust.xmf,1156,-4.05963e-06,9.33721e-06,0,-1.64749e-05,-8.65324e+08,-8.64405e+08,-8.65046e+08,-1.13018e+06,0.00426662,-0.131374,0,0.131444,-1000,-31501,-0,31516.9,1.13018e+06
step02_gravity_refstate-crust.xmf,1157,1.29527e-06,-8.00049e-06,0,7.60749e-06,-1.04327e+09,-1.04391e+09,-1.04336e+09,521874,0.0152159,-0.0714317,0,0.0730343,2584.89,-37974.2,0,38062.1,521874
step02_gravity_refstate-crust.xmf,1158,3.79373e-06,-1.1645e-05,0,9.56214e-06,-1.03171e+09,-1.03277e+09,-1.03197e+09,655963,0.0125786,-0.0902559,0,0.0911282,1791.18,-37557.8,0,37600.5,655963
step02_gravity_refstate-crust.xmf,1159,7.81015e-06,-1.67219e-05,0,1.45264e-05,-1.0299e+09,-1.03158e+09,-1.03044e+09,996508,0.0079395,-0.111691,0,0.111972,1000,-37500.2,0,37513.6,996508
step02_gravity_refstate-crust.xmf,1160,7.41265e-08,-4.6989e-06,0,6.28909e-06,-1.03976e+09,-1.04009e+09,-1.03977e+09,431432,0.0158232,-0.0570079,0,0.0591631,3631.17,-37846.6,0,38020.4,431432
step02_gravity_refstate-crust.xmf,1161,-8.54707e-07,-1.19049e-06,0,4.33448e-06,-1.03339e+09,-1.03342e+09,-1.03333e+09,297345,0.0146037,-0.0336548,0,0.0366867,5766.19,-37616.4,0,38055.8,297345
step02_gravity_refstate-crust.xmf,1162,-8.0446e-07,2.27617e-07,0,3.24289e-06,-1.0571e+09,-1.05703e+09,-1.05705e+09,222462,0.0125537,-0.0136831,0,0.0185694,8332.6,-38481.9,0,39373.7,222462
step02_gravity_refstate-crust.xmf,1163,-8.92075e-07,-1.10108e-07,0,3.56034e-06,-1.05043e+09,-1.05037e+09,-1.05037e+09,244239,0.013281,-0.0192375,0,0.0233766,7490.65,-38238.1,0,38964.8,244239
step02_gravity_refstate-crust.xmf,1164,-6.43613e-07,7.54272e-07,0,2.59321e-06,-1.06018e+09,-1.06008e+09,-1.06013e+09,177894,0.0113647,-0.00426995,0,0.0121404,10009.8,-38595.4,0,39872.3,177894
step02_gravity_refstate-crust.xmf,1165,-3.80905e-07,1.16746e-06,0,1.97467e-06,-1.08075e+09,-1.08064e+09,-1.08072e+09,135462,0.0100107,0.00638475,0,0.0118735,12585.9,-39346.1,0,41310,135462
step02_gravity_refstate-crust.xmf,1166,-1.06381e-06,2.34883e-06,0,-9.31457e-07,-3.65803e+08,-3.65569e+08,-3.6573e+08,-63898,0.00512038,0.0156644,0,0.0164801,-4226.72,-13316.8,-0,13971.5,63898
step02_gravity_refstate-crust.xmf,1167,-1.20032e-06,2.73527e-06,0,-9.15714e-07,-4.01793e+08,-4.01523e+08,-4.01711e+08,-62818,0.00473904,0.0113093,0,0.0122621,-3553.93,-14627.1,-0,15052.6,62818
step02_gravity_refstate-crust.xmf,1168,-1.30976e-06,3.10708e-06,0,-1.05126e-06,-4.4102e+08,-4.40717e+08,-4.4093e+08,-72116.1,0.005147,0.00705676,0,0.00873438,-3490.43,-16055.3,-0,16430.3,72116.1
step02_gravity_refstate-crust.xmf,1169,-9.54608e-07,1.60253e-06,0,-7.09456e-07,-2.62524e+08,-2.62349e+08,-2.62458e+08,-48668.7,0.00492285,0.0235978,0,0.0241058,-4634.41,-9556.07,-0,10620.6,48668.7
step02_gravity_refstate-crust.xmf,1170,-9.77363e-07,9.19642e-07,0,-5.6443e-07,-1.40669e+08,-1.40539e+08,-1.40602e+08,-38719.9,0.0074497,0.0318662,0,0.0327254,-6549.93,-5118.68,-0,8312.79,38719.9
step02_gravity_refstate-crust.xmf,1171,-9.39278e-07,1.34809e-06,0,-6.70476e-07,-2.22362e+08,-2.22205e+08,-2.22297e+08,-45994.7,0.00541572,0.0264496,0,0.0269983,-5142.96,-8093.58,-0,9589.38,45994.7
step02_gravity_refstate-crust.xmf,1172,-9.42325e-07,1.1214e-06,0,-6.33542e-07,-1.82712e+08,-1.8257e+08,-1.82647e+08,-43461,0.00626232,0.0292128,0,0.0298764,-5828.4,-6649.73,-0,8842.46,43461
step02_gravity_refstate-crust.xmf,1173,-9.64632e-07,2.02649e-06,0,-9.27782e-07,-3.31335e+08,-3.3113e+08,-3.31269e+08,-63645.9,0.0054525,0.0194062,0,0.0201576,-4853.35,-12061.8,-0,13001.6,63645.9
step02_gravity_refstate-crust.xmf,1174,-1.32428e-06,6.77053e-07,0,-2.254e-07,-5.02585e+07,-5.01212e+07,-5.01676e+07,-15462.4,0.00917219,0.0338493,0,0.03507,-6141.07,-1825.4,-0,6406.62,15462.4
step02_gravity_refstate-crust.xmf,1175,-2.24685e-06,5.56526e-06,0,-2.04003e-06,-6.13224e+08,-6.12688e+08,-6.1307e+08,-139946,0.00743988,-0.020999,0,0.022278,-2765.81,-22324.6,-0,22495.2,139946
step02_gravity_refstate-crust.xmf,1176,-2.75655e-06,8.69006e-06,0,-5.7969e-06,-7.57849e+08,-7.57064e+08,-7.5766e+08,-397668,0.0126812,-0.0604035,0,0.0617203,-2449.84,-27592.5,-0,27701.1,397668
step02_gravity_refstate-crust.xmf,1177,-2.08816e-06,5.61837e-06,0,-2.6412e-06,-6.35926e+08,-6.35397e+08,-6.35783e+08,-181186,0.00930461,-0.0236934,0,0.0254549,-3283.93,-23151.8,-0,23383.5,181186
step02_gravity_refstate-crust.xmf,1178,-3.24024e-06,8.1771e-06,0,-3.72794e-06,-7.11938e+08,-7.11155e+08,-7.11716e+08,-255736,0.00972663,-0.0476548,0,0.0486373,-2256.81,-25918.4,-0,26016.4,255736
step02_gravity_refstate-crust.xmf,1179,-2.74121e-06,7.29112e-06,0,-3.54402e-06,-6.94944e+08,-6.94256e+08,-6.94756e+08,-243119,0.0101595,-0.0404634,0,0.0417193,-2663.27,-25300.3,-0,25440.1,243119
step02_gravity_refstate-crust.xmf,1180,-2.93588e-06,8.08601e-06,0,-4.50206e-06,-7.28272e+08,-7.27516e+08,-7.2807e+08,-308841,0.0113195,-0.0508044,0,0.0520502,-2509.99,-26514.1,-0,26632.6,308841
step02_gravity_refstate-crust.xmf,1181,-1.53196e-06,3.90145e-06,0,-1.50986e-06,-5.18883e+08,-5.1851e+08,-5.18777e+08,-103577,0.00671135,-0.00251575,0,0.00716737,-3641.6,-18890.3,-0,19238.1,103577
step02_gravity_refstate-crust.xmf,1182,-1.98977e-06,9.15484e-06,0,-8.90967e-06,-8.24432e+08,-8.23667e+08,-8.24295e+08,-611203,0.0123722,-0.0895238,0,0.0903747,-1969.87,-30020.4,-0,30085,611203
step02_gravity_refstate-crust.xmf,1183,-2.12225e-06,9.13373e-06,0,-7.96394e-06,-8.00163e+08,-7.99391e+08,-8.00017e+08,-546326,0.0135408,-0.0781098,0,0.0792748,-2153.11,-29136.3,-0,29215.7,546326
step02_gravity_refstate-crust.xmf,1184,-2.06154e-06,8.52797e-06,0,-7.14631e-06,-7.85682e+08,-7.84956e+08,-7.85541e+08,-490237,0.0138248,-0.069474,0,0.0708361,-2425.53,-28608.4,-0,28711.1,490237
step02_gravity_refstate-crust.xmf,1185,-2.59188e-06,8.16433e-06,0,-1.08958e-05,-8.51156e+08,-8.50418e+08,-8.50978e+08,-747449,0.00893101,-0.100525,0,0.100921,-1865.95,-30989.3,-0,31045.4,747449
step02_gravity_refstate-crust.xmf,1186,-2.85224e-06,7.28366e-06,0,-1.44311e-05,-8.72144e+08,-8.71449e+08,-8.71948e+08,-989972,0.0050259,-0.119677,0,0.119782,-1410.62,-31751,-0,31782.3,989972
step02_gravity_refstate-crust.xmf,1187,2.38299e-06,-1.03182e-05,0,8.33464e-06,-1.0437e+09,-1.04457e+09,-1.04386e+09,571756,0.0142539,-0.080071,0,0.0813299,2063.69,-37990.5,0,38046.5,571756
step02_gravity_refstate-crust.xmf,1188,6.1242e-06,-1.52047e-05,0,1.09511e-05,-1.0342e+09,-1.03567e+09,-1.03462e+09,751247,0.010784,-0.0992079,0,0.0997923,1355.16,-37652.4,0,37676.8,751247
step02_gravity_refstate-crust.xmf,1189,7.39449e-07,-7.19263e-06,0,7.1963e-06,-1.05594e+09,-1.05649e+09,-1.05599e+09,493666,0.0154503,-0.0637035,0,0.0655504,2873.37,-38434.4,0,38541.7,493666
step02_gravity_refstate-crust.xmf,1190,2.62861e-07,-5.71091e-06,0,6.66222e-06,-1.05224e+09,-1.05265e+09,-1.05226e+09,457028,0.0157971,-0.0585483,0,0.060642,3332.77,-38300.1,0,38444.8,457028
step02_gravity_refstate-crust.xmf,1191,-9.19759e-07,-5.4143e-07,0,3.92168e-06,-1.04701e+09,-1.04698e+09,-1.04695e+09,269027,0.013947,-0.0248869,0,0.0285285,6734.79,-38112.9,0,38703.3,269027
step02_gravity_refstate-crust.xmf,1192,-3.55436e-07,-3.50177e-06,0,5.71804e-06,-1.04206e+09,-1.04228e+09,-1.04204e+09,392258,0.0157837,-0.0495036,0,0.0519589,4203.75,-37930.4,0,38162.6,392258
step02_gravity_refstate-crust.xmf,1193,-6.65561e-07,-2.47367e-06,0,5.21293e-06,-1.04461e+09,-1.04474e+09,-1.04457e+09,357607,0.0154897,-0.0422658,0,0.0450148,4829.99,-38023.7,0,38329.2,357607
step02_gravity_refstate-crust.xmf,1194,-8.2159e-07,-1.71781e-06,0,4.77629e-06,-1.04739e+09,-1.04745e+09,-1.04734e+09,327653,0.015051,-0.0360017,0,0.0390212,5439.37,-38125.4,0,38511.4,327653
step02_gravity_refstate-crust.xmf,1195,-9.01651e-07,-1.05562e-06,0,4.32153e-06,-1.04704e+09,-1.04705e+09,-1.04698e+09,296457,0.0145168,-0.030205,0,0.0335124,6086.32,-38113.2,0,38596.1,296457
step02_gravity_refstate-crust.xmf,1196,-5.6855e-07,1.29238e-07,0,3.35117e-06,-1.07864e+09,-1.07859e+09,-1.0786e+09,229890,0.0118159,-0.0117657,0,0.0166748,8677.94,-39266.8,0,40214.3,229890
step02_gravity_refstate-crust.xmf,1197,-5.30596e-07,4.74397e-07,0,2.94554e-06,-1.07843e+09,-1.07836e+09,-1.07839e+09,202064,0.0113465,-0.00684536,0,0.0132515,9588.02,-39259.8,0,40413.6,202064
step02_gravity_refstate-crust.xmf,1198,-5.07887e-07,7.70021e-07,0,2.56919e-06,-1.07618e+09,-1.07609e+09,-1.07614e+09,176246,0.0109285,-0.00217204,0,0.0111423,10526.8,-39178.4,0,40568,176246
step02_gravity_refstate-crust.xmf,1199,-1.34022e-06,3.33851e-06,0,-1.30324e-06,-4.73407e+08,-4.73086e+08,-4.73315e+08,-89402.4,0.00619446,0.00403537,0,0.00739293,-3897.32,-17234.6,-0,17669.8,89402.4
step02_gravity_refstate-crust.xmf,1200,-1.05468e-06,7.37375e-07,0,-4.51871e-07,-9.51467e+07,-9.50238e+07,-9.50744e+07,-30998.3,0.00914579,0.0343885,0,0.0355839,-7270.22,-3460.79,-0,8051.91,30998.3
step02_gravity_refstate-crust.xmf,1201,-8.92704e-07,1.73724e-06,0,-9.09173e-07,-2.95843e+08,-2.95663e+08,-2.95782e+08,-62369.3,0.00581181,0.0228698,0,0.0235967,-5482.4,-10769.5,-0,12084.7,62369.3
step02_gravity_refstate-crust.xmf,1202,-1.51591e-06,5.77562e-07,0,-2.6471e-09,-143902,-289.195,-39910,-181.591,0.0124559,0.0361352,0,0.0382218,-6955.89,0,-0,6955.89,181.591
step02_gravity_refstate-crust.xmf,1203,-2.40866e-06,7.68633e-06,0,-5.23849e-06,-7.43386e+08,-7.42693e+08,-7.43221e+08,-359361,0.0128077,-0.0529557,0,0.0544825,-2778.11,-27065.9,-0,27208.1,359361
step02_gravity_refstate-crust.xmf,1204,-2.34581e-06,6.47142e-06,0,-3.31791e-06,-6.76631e+08,-6.76026e+08,-6.7647e+08,-227608,0.0103783,-0.0336778,0,0.0352406,-3061.21,-24634,-0,24823.4,227608
step02_gravity_refstate-crust.xmf,1205,-2.04639e-06,5.81964e-06,0,-3.11052e-06,-6.58518e+08,-6.57979e+08,-6.58378e+08,-213382,0.0104682,-0.0276673,0,0.0295815,-3438.15,-23974.8,-0,24220,213382
step02_gravity_refstate-crust.xmf,1206,-1.84716e-06,7.71205e-06,0,-6.46477e-06,-7.72464e+08,-7.71808e+08,-7.72337e+08,-443483,0.0140369,-0.0614697,0,0.063052,-2750.79,-28126.8,-0,28261,443483
step02_gravity_refstate-crust.xmf,1207,-1.33799e-06,3.47988e-06,0,-1.50273e-06,-4.94616e+08,-4.94285e+08,-4.94524e+08,-103087,0.00699783,0.00208337,0,0.00730138,-4196.12,-18006.9,-0,18489.4,103087
step02_gravity_refstate-crust.xmf,1208,-1.94795e-06,4.95642e-06,0,-1.95769e-06,-5.89056e+08,-5.88582e+08,-5.88922e+08,-134297,0.00763168,-0.0150198,0,0.0168474,-3186.35,-21445,-0,21680.4,134297
step02_gravity_refstate-crust.xmf,1209,-1.69335e-06,4.45634e-06,0,-1.88602e-06,-5.64818e+08,-5.64396e+08,-5.64702e+08,-129381,0.00779112,-0.00949031,0,0.0122787,-3635.62,-20562.8,-0,20881.7,129381
step02_gravity_refstate-crust.xmf,1210,-1.47147e-06,3.97919e-06,0,-1.82177e-06,-5.40427e+08,-5.40053e+08,-5.40326e+08,-124973,0.0079299,-0.00431697,0,0.00902882,-4120.53,-19675,-0,20101.9,124973
step02_gravity_refstate-crust.xmf,1211,-1.57151e-06,8.47053e-06,0,-8.29788e-06,-8.13493e+08,-8.12805e+08,-8.13386e+08,-569235,0.013443,-0.0816899,0,0.0827886,-2197.84,-29622.8,-0,29704.2,569235
step02_gravity_refstate-crust.xmf,1212,-1.63426e-06,7.6812e-06,0,-9.00235e-06,-8.37149e+08,-8.3651e+08,-8.37037e+08,-617561,0.0114634,-0.0887454,0,0.0894828,-2194.64,-30482.5,-0,30561.4,617561
step02_gravity_refstate-crust.xmf,1213,-3.02207e-06,7.13702e-06,0,-1.70499e-05,-8.79042e+08,-8.78345e+08,-8.78835e+08,-1.16962e+06,0.00316204,-0.135483,0,0.135519,-1000,-32001.2,-0,32016.9,1.16962e+06
step02_gravity_refstate-crust.xmf,1214,-2.59297e-06,7.29079e-06,0,-1.24561e-05,-8.6525e+08,-8.64572e+08,-8.65072e+08,-854492,0.00670713,-0.108328,0,0.108536,-1725.83,-31501.1,-0,31548.3,854492
step02_gravity_refstate-crust.xmf,1215,-1.99387e-06,5.3551e-06,0,-1.47842e-05,-8.85868e+08,-8.85364e+08,-8.85731e+08,-1.0142e+06,0.00365319,-0.121503,0,0.121558,-1451.74,-32251.1,-0,32283.8,1.0142e+06
step02_gravity_refstate-crust.xmf,1216,-2.00027e-06,4.9849e-06,0,-1.74507e-05,-8.92743e+08,-8.92264e+08,-8.92606e+08,-1.19712e+06,0.00212353,-0.138491,0,0.138507,-1000,-32500.8,-0,32516.2,1.19712e+06
step02_gravity_refstate-crust.xmf,1217,-1.16297e-06,3.45541e-06,0,-1.51693e-05,-8.99687e+08,-8.9937e+08,-8.99607e+08,-1.04061e+06,0.00221846,-0.12363,0,0.12365,-1454.22,-32754.6,-0,32786.9,1.04061e+06
step02_gravity_refstate-crust.xmf,1218,-1.0115e-06,2.91057e-06,0,-1.77138e-05,-9.06435e+08,-9.06166e+08,-9.06366e+08,-1.21517e+06,0.00112988,-0.140449,0,0.140454,-1000,-33000.1,-0,33015.2,1.21517e+06
step02_gravity_refstate-crust.xmf,1219,1.61022e-06,-9.3957e-06,0,7.8751e-06,-1.05634e+09,-1.0571e+09,-1.05645e+09,540232,0.0147806,-0.0712079,0,0.0727257,2329.83,-38449.1,0,38519.6,540232
step02_gravity_refstate-crust.xmf,1220,3.5642e-06,-1.36386e-05,0,9.42953e-06,-1.04428e+09,-1.04546e+09,-1.04453e+09,646866,0.0126297,-0.0897855,0,0.0906694,1541.19,-38011.4,0,38042.6,646866
step02_gravity_refstate-crust.xmf,1221,7.87241e-06,-2.3142e-05,0,1.04431e-05,-1.04389e+09,-1.04602e+09,-1.04443e+09,716398,0.00982794,-0.102533,0,0.103003,1000,-38000,0,38013.2,716398
step02_gravity_refstate-crust.xmf,1222,-1.25754e-07,-4.58736e-06,0,6.23546e-06,-1.05601e+09,-1.05632e+09,-1.056e+09,427753,0.0157198,-0.0521383,0,0.0544565,3803,-38437.6,0,38625.3,427753
step02_gravity_refstate-crust.xmf,1223,-6.32218e-07,-3.10734e-07,0,3.81988e-06,-1.07644e+09,-1.07642e+09,-1.07639e+09,262043,0.0124575,-0.0175667,0,0.0215355,7710.33,-39185.7,0,39937.1,262043
step02_gravity_refstate-crust.xmf,1224,-7.47467e-07,-6.78795e-07,0,4.1332e-06,-1.06735e+09,-1.06734e+09,-1.06729e+09,283537,0.0133795,-0.0230113,0,0.0266182,6924.68,-38853.7,0,39466,283537
step02_gravity_refstate-crust.xmf,1225,-9.05906e-07,2.14531e-06,0,-1.15391e-06,-3.63077e+08,-3.62868e+08,-3.63015e+08,-79158.5,0.00648864,0.0184386,0,0.019547,-5644.28,-13217.8,-0,14372.5,79158.5
step02_gravity_refstate-crust.xmf,1226,-1.00728e-06,2.4657e-06,0,-1.19477e-06,-3.96635e+08,-3.96397e+08,-3.96566e+08,-81961.3,0.00635588,0.0144958,0,0.015828,-5074.88,-14439.6,-0,15305.5,81961.3
step02_gravity_refstate-crust.xmf,1227,-1.10947e-06,2.78753e-06,0,-1.26488e-06,-4.29312e+08,-4.29045e+08,-4.29236e+08,-86770.6,0.00641458,0.010579,0,0.0123718,-4681.66,-15629.4,-0,16315.5,86770.6
step02_gravity_refstate-crust.xmf,1228,-8.57545e-07,8.32079e-07,0,-6.48738e-07,-1.37137e+08,-1.37021e+08,-1.37078e+08,-44503.4,0.00907877,0.0349088,0,0.0360701,-8255.03,-4990.43,-0,9646.24,44503.4
step02_gravity_refstate-crust.xmf,1229,-8.47659e-07,1.47514e-06,0,-8.7345e-07,-2.58703e+08,-2.58544e+08,-2.58645e+08,-59918.7,0.00624743,0.0260953,0,0.0268327,-6109.21,-9417.2,-0,11225.2,59918.7
step02_gravity_refstate-crust.xmf,1230,-8.27956e-07,1.02463e-06,0,-7.54685e-07,-1.80205e+08,-1.80078e+08,-1.80148e+08,-51771.4,0.00777003,0.0320836,0,0.0330111,-7504.17,-6558.79,-0,9966.46,51771.4
step02_gravity_refstate-crust.xmf,1231,-8.27254e-07,1.23734e-06,0,-8.22748e-07,-2.19939e+08,-2.19797e+08,-2.19882e+08,-56440.5,0.00686298,0.0291499,0,0.0299469,-6771.76,-8005.67,-0,10485.6,56440.5
step02_gravity_refstate-crust.xmf,1232,-8.22517e-07,1.85134e-06,0,-1.1152e-06,-3.28934e+08,-3.28751e+08,-3.28878e+08,-76503,0.00670941,0.022182,0,0.0231745,-6280.64,-11974.7,-0,13521.8,76503
step02_gravity_refstate-crust.xmf,1233,-1.16053e-06,6.05032e-07,0,-2.67688e-07,-4.86835e+07,-4.85624e+07,-4.86039e+07,-18363.4,0.0115782,0.0367879,0,0.0385669,-8030.42,-1768.61,-0,8222.87,18363.4
step02_gravity_refstate-crust.xmf,1234,-1.80979e-06,4.96447e-06,0,-2.42423e-06,-6.10496e+08,-6.10032e+08,-6.10372e+08,-166302,0.00922739,-0.0171451,0,0.0194704,-3687.78,-22226.1,-0,22530,166302
step02_gravity_refstate-crust.xmf,1235,-1.67145e-06,6.99983e-06,0,-5.8354e-06,-7.57939e+08,-7.57344e+08,-7.57824e+08,-400309,0.0140882,-0.0538809,0,0.0556922,-3082.58,-27597.6,-0,27769.2,400309
step02_gravity_refstate-crust.xmf,1236,-1.75529e-06,5.27062e-06,0,-3.03349e-06,-6.4577e+08,-6.45288e+08,-6.45649e+08,-208098,0.0107998,-0.0229166,0,0.0253339,-3871.77,-23510.9,-0,23827.6,208098
step02_gravity_refstate-crust.xmf,1237,-2.28039e-06,6.94558e-06,0,-4.33312e-06,-7.13769e+08,-7.13136e+08,-7.13613e+08,-297252,0.0120435,-0.0427458,0,0.04441,-3061.23,-25987,-0,26166.7,297252
step02_gravity_refstate-crust.xmf,1238,-1.97538e-06,6.21566e-06,0,-3.92588e-06,-6.94717e+08,-6.94155e+08,-6.94582e+08,-269316,0.0120013,-0.0355286,0,0.0375008,-3447.06,-25293.5,-0,25527.3,269316
step02_gravity_refstate-crust.xmf,1239,-2.13759e-06,7.05527e-06,0,-4.88002e-06,-7.312e+08,-7.30569e+08,-7.31053e+08,-334769,0.0129096,-0.0470317,0,0.0487713,-3081.04,-26622.3,-0,26800,334769
step02_gravity_refstate-crust.xmf,1240,-1.28327e-06,3.55076e-06,0,-1.74749e-06,-5.14594e+08,-5.14262e+08,-5.14506e+08,-119878,0.00798026,0.000625624,0,0.00800474,-4611.46,-18734.6,-0,19293.8,119878
step02_gravity_refstate-crust.xmf,1241,-1.02093e-06,7.18194e-06,0,-8.12729e-06,-8.23459e+08,-8.22896e+08,-8.23389e+08,-557532,0.0131603,-0.0801195,0,0.0811932,-2441.66,-29985.8,-0,30085.1,557532
step02_gravity_refstate-crust.xmf,1242,-9.04758e-07,7.00523e-06,0,-7.65611e-06,-8.10003e+08,-8.0946e+08,-8.09941e+08,-525209,0.0140956,-0.0735811,0,0.0749191,-2615.84,-29496.2,-0,29611.9,525209
step02_gravity_refstate-crust.xmf,1243,-1.24668e-06,7.36503e-06,0,-7.35732e-06,-7.96347e+08,-7.95756e+08,-7.96262e+08,-504712,0.0143663,-0.0694627,0,0.0709328,-2648.06,-28998.2,-0,29118.8,504712
step02_gravity_refstate-crust.xmf,1244,-9.57101e-07,6.60884e-06,0,-6.78154e-06,-7.86929e+08,-7.8641e+08,-7.86863e+08,-465214,0.0147499,-0.061817,0,0.0635524,-3023.19,-28655.3,-0,28814.3,465214
step02_gravity_refstate-crust.xmf,1245,-3.53802e-07,1.66493e-06,0,-1.55151e-05,-9.1328e+08,-9.13141e+08,-9.13255e+08,-1.06434e+06,0.000835728,-0.125622,0,0.125625,-1432.61,-33250,-0,33280.9,1.06434e+06
step02_gravity_refstate-crust.xmf,1246,-4.28623e-08,8.81863e-07,0,-1.78574e-05,-9.20143e+08,-9.20079e+08,-9.2014e+08,-1.22502e+06,0.000165024,-0.141392,0,0.141392,-1000,-33499.9,-0,33514.8,1.22502e+06
step02_gravity_refstate-crust.xmf,1247,-1.19123e-06,6.05441e-06,0,-9.08398e-06,-8.51303e+08,-8.50806e+08,-8.51221e+08,-623161,0.0100053,-0.0868015,0,0.0873763,-2448.19,-30997.1,-0,31093.6,623161
step02_gravity_refstate-crust.xmf,1248,-1.65612e-06,5.95878e-06,0,-1.06571e-05,-8.65159e+08,-8.64636e+08,-8.65045e+08,-731079,0.00764467,-0.0965538,0,0.096856,-2164.86,-31499.5,-0,31573.8,731079
step02_gravity_refstate-crust.xmf,1249,-1.84512e-06,5.59424e-06,0,-1.24948e-05,-8.77013e+08,-8.76503e+08,-8.76887e+08,-857141,0.00548145,-0.107432,0,0.107571,-1854.28,-31929.7,-0,31983.5,857141
step02_gravity_refstate-crust.xmf,1250,3.05103e-06,-6.00759e-06,0,-1.53949e-05,-9.70608e+08,-9.7123e+08,-9.70818e+08,-1.05609e+06,-0.00452743,-0.123016,-0,0.123099,-1376.2,-35339,-0,35365.8,1.05609e+06
step02_gravity_refstate-crust.xmf,1251,2.78836e-06,-5.11892e-06,0,-1.76287e-05,-9.61304e+08,-9.61846e+08,-9.61495e+08,-1.20933e+06,-0.00266377,-0.138204,-0,0.13823,-1000,-35000.6,-0,35014.9,1.20933e+06
step02_gravity_refstate-crust.xmf,1252,3.71486e-06,-7.25073e-06,0,-1.73584e-05,-9.75005e+08,-9.75757e+08,-9.7526e+08,-1.19079e+06,-0.00361482,-0.135124,-0,0.135172,-1000,-35499.8,-0,35513.9,1.19079e+06
step02_gravity_refstate-crust.xmf,1253,2.87548e-06,-1.23887e-05,0,8.72828e-06,-1.05607e+09,-1.05711e+09,-1.05626e+09,598760,0.0135662,-0.0796492,0,0.0807962,1789.82,-38439.6,0,38481.2,598760
step02_gravity_refstate-crust.xmf,1254,3.96035e-07,-6.27974e-06,0,6.88218e-06,-1.0681e+09,-1.06856e+09,-1.06813e+09,472118,0.0148873,-0.0561488,0,0.0580889,3244.74,-38877.1,0,39012.3,472118
step02_gravity_refstate-crust.xmf,1255,1.31714e-06,-8.69184e-06,0,7.52043e-06,-1.07004e+09,-1.07073e+09,-1.07013e+09,515902,0.0141215,-0.0635749,0,0.0651243,2563.31,-38947.8,0,39032.1,515902
step02_gravity_refstate-crust.xmf,1256,-7.56154e-07,-1.13833e-06,0,4.46058e-06,-1.06293e+09,-1.06295e+09,-1.06287e+09,305996,0.0140465,-0.0280938,0,0.0314096,6265.93,-38692,0,39196.1,305996
step02_gravity_refstate-crust.xmf,1257,-4.34079e-07,-3.42703e-06,0,5.76869e-06,-1.05965e+09,-1.05986e+09,-1.05962e+09,395732,0.0153965,-0.0450496,0,0.047608,4406.97,-38570.7,0,38821.7,395732
step02_gravity_refstate-crust.xmf,1258,-6.54119e-07,-2.44341e-06,0,5.31992e-06,-1.06329e+09,-1.06342e+09,-1.06325e+09,364947,0.0148706,-0.0383059,0,0.0410911,5062.07,-38703.8,0,39033.5,364947
step02_gravity_refstate-crust.xmf,1259,-7.19159e-07,-1.71839e-06,0,4.88513e-06,-1.06549e+09,-1.06556e+09,-1.06544e+09,335120,0.0143467,-0.0326046,0,0.0356215,5693.73,-38784.5,0,39200.2,335120
step02_gravity_refstate-crust.xmf,1260,-1.15177e-06,3.16179e-06,0,-1.61856e-06,-4.8433e+08,-4.84035e+08,-4.84251e+08,-111034,0.00773735,0.00528156,0,0.00936811,-4963.11,-17632.8,-0,18317.9,111034
step02_gravity_refstate-crust.xmf,1261,-1.17801e-06,3.02655e-06,0,-1.36718e-06,-4.55329e+08,-4.55041e+08,-4.55248e+08,-93788.5,0.00670972,0.0075754,0,0.0101196,-4562.46,-16576.6,-0,17193,93788.5
step02_gravity_refstate-crust.xmf,1262,-9.10766e-07,6.59488e-07,0,-5.04566e-07,-9.25213e+07,-9.24136e+07,-9.24588e+07,-34613.2,0.0109579,0.0375879,0,0.0391526,-9035.17,-3365.67,-0,9641.69,34613.2
step02_gravity_refstate-crust.xmf,1263,-7.61501e-07,1.58379e-06,0,-1.0676e-06,-2.93387e+08,-2.93226e+08,-2.93335e+08,-73237.2,0.00700818,0.0257193,0,0.026657,-6941.9,-10680.4,-0,12738.2,73237.2
step02_gravity_refstate-crust.xmf,1264,-1.2686e-06,4.84199e-07,0,-4.62801e-09,-120388,-145.956,-33362,-317.482,0.0152765,0.0393767,0,0.0422362,-8975.48,0,-0,8975.48,317.482
step02_gravity_refstate-crust.xmf,1265,-1.58791e-06,4.87898e-06,0,-2.85523e-06,-6.29449e+08,-6.29006e+08,-6.2934e+08,-195869,0.0106871,-0.0185086,0,0.0213725,-4160.84,-22916.9,-0,23291.5,195869
step02_gravity_refstate-crust.xmf,1266,-1.53066e-06,6.37911e-06,0,-5.28562e-06,-7.43187e+08,-7.42644e+08,-7.43082e+08,-362593,0.0140214,-0.0471318,0,0.0491733,-3398.47,-27060.1,-0,27272.7,362593
step02_gravity_refstate-crust.xmf,1267,-1.4985e-06,5.06637e-06,0,-3.37818e-06,-6.59755e+08,-6.59304e+08,-6.59652e+08,-231743,0.0119205,-0.0236267,0,0.0264635,-4231.01,-24020.8,-0,24390.6,231743
step02_gravity_refstate-crust.xmf,1268,-1.72231e-06,5.60607e-06,0,-3.62852e-06,-6.77151e+08,-6.76649e+08,-6.77033e+08,-248916,0.0119624,-0.0293568,0,0.0317005,-3828.11,-24654.1,-0,24949.5,248916
step02_gravity_refstate-crust.xmf,1269,-8.50844e-07,6.01668e-06,0,-6.1604e-06,-7.73179e+08,-7.72708e+08,-7.7312e+08,-422604,0.0149219,-0.0540284,0,0.0560512,-3392.76,-28154.2,-0,28357.9,422604
step02_gravity_refstate-crust.xmf,1270,-1.57103e-06,4.4422e-06,0,-2.28485e-06,-5.87232e+08,-5.86819e+08,-5.87124e+08,-156740,0.00924075,-0.0114614,0,0.0147226,-4130.36,-21379.3,-0,21774.6,156740
step02_gravity_refstate-crust.xmf,1271,-1.35224e-06,3.98939e-06,0,-2.16793e-06,-5.63115e+08,-5.62749e+08,-5.63022e+08,-148720,0.00926002,-0.00595328,0,0.0110086,-4630.4,-20501.5,-0,21017.9,148720
step02_gravity_refstate-crust.xmf,1272,-1.17005e-06,3.56332e-06,0,-2.04999e-06,-5.3799e+08,-5.37666e+08,-5.3791e+08,-140629,0.00920867,-0.000774551,0,0.00924119,-5135.98,-19586.9,-0,20249,140629
step02_gravity_refstate-crust.xmf,1273,4.66363e-07,-1.71404e-07,0,-1.56179e-05,-9.27004e+08,-9.27048e+08,-9.27036e+08,-1.07138e+06,-0.000505109,-0.125983,-0,0.125984,-1433.03,-33750.1,-0,33780.5,1.07138e+06
step02_gravity_refstate-crust.xmf,1274,9.09917e-07,-1.12756e-06,0,-1.78938e-05,-9.33868e+08,-9.34008e+08,-9.33931e+08,-1.22751e+06,-0.000782667,-0.141331,-0,0.141333,-1000,-34000.3,-0,34015,1.22751e+06
step02_gravity_refstate-crust.xmf,1275,1.2679e-06,-1.94444e-06,0,-1.56643e-05,-9.40373e+08,-9.40593e+08,-9.4046e+08,-1.07457e+06,-0.00177859,-0.125898,-0,0.125911,-1420.54,-34237.3,-0,34266.8,1.07457e+06
step02_gravity_refstate-crust.xmf,1276,1.8466e-06,-3.12088e-06,0,-1.78237e-05,-9.47595e+08,-9.47935e+08,-9.47721e+08,-1.22271e+06,-0.00172306,-0.140269,-0,0.14028,-1000,-34500.8,-0,34515.3,1.22271e+06
step02_gravity_refstate-crust.xmf,1277,-5.98016e-07,5.79053e-06,0,-7.95294e-06,-8.36954e+08,-8.36516e+08,-8.36913e+08,-545571,0.0120867,-0.0777617,0,0.0786954,-2736.98,-30476.7,-0,30599.4,545571
step02_gravity_refstate-crust.xmf,1278,-9.74727e-07,3.47272e-06,0,-1.24637e-05,-8.93373e+08,-8.93067e+08,-8.93306e+08,-855013,0.00354925,-0.106153,0,0.106212,-1994.12,-32525.6,-0,32586.6,855013
step02_gravity_refstate-crust.xmf,1279,-5.12056e-07,2.2157e-06,0,-1.34227e-05,-9.06412e+08,-9.06225e+08,-9.06377e+08,-920795,0.00178099,-0.111868,0,0.111882,-1846.86,-33000.2,-0,33051.8,920795
step02_gravity_refstate-crust.xmf,1280,1.9572e-06,-3.50576e-06,0,-1.57143e-05,-9.51695e+08,-9.5207e+08,-9.51829e+08,-1.078e+06,-0.00279062,-0.125913,-0,0.125944,-1387.34,-34649.9,-0,34677.7,1.078e+06
step02_gravity_refstate-crust.xmf,1281,3.63257e-06,-7.50306e-06,0,-1.47376e-05,-9.81887e+08,-9.8265e+08,-9.82136e+08,-1.011e+06,-0.00579078,-0.118389,-0,0.11853,-1432.52,-35749.6,-0,35778.3,1.011e+06
step02_gravity_refstate-crust.xmf,1282,4.65153e-06,-9.39049e-06,0,-1.69335e-05,-9.88715e+08,-9.89678e+08,-9.89034e+08,-1.16164e+06,-0.00458873,-0.130992,-0,0.131072,-1000,-35999.4,-0,36013.3,1.16164e+06
step02_gravity_refstate-crust.xmf,1283,2.32374e-06,-4.44847e-06,0,-1.43467e-05,-9.61318e+08,-9.61783e+08,-9.61477e+08,-984181,-0.00426878,-0.116637,-0,0.116715,-1627.05,-35000.3,-0,35038.1,984181
step02_gravity_refstate-crust.xmf,1284,4.49352e-06,-9.63201e-06,0,-1.44774e-05,-9.95613e+08,-9.96582e+08,-9.95921e+08,-993152,-0.00682711,-0.116413,-0,0.116613,-1360.96,-36249.6,-0,36275.1,993152
step02_gravity_refstate-crust.xmf,1285,5.64609e-06,-1.15883e-05,0,-1.63917e-05,-1.00244e+09,-1.00362e+09,-1.00283e+09,-1.12447e+06,-0.00560179,-0.125757,-0,0.125882,-1000,-36499.7,-0,36513.4,1.12447e+06
step02_gravity_refstate-crust.xmf,1286,2.45334e-06,-1.12367e-05,0,7.99434e-06,-1.06876e+09,-1.0697e+09,-1.06893e+09,548412,0.013289,-0.07056,0,0.0718005,2039.15,-38901.9,0,38955.3,548412
step02_gravity_refstate-crust.xmf,1287,1.05575e-05,-2.65447e-05,0,3.09837e-06,-1.05266e+09,-1.05521e+09,-1.05339e+09,212548,0.00354421,-0.103257,0,0.103318,330.672,-38324.8,0,38326.2,212548
step02_gravity_refstate-crust.xmf,1288,1.10145e-05,-2.90427e-05,0,-1.06894e-07,-1.0438e+09,-1.04654e+09,-1.04455e+09,-7332.92,3.32124e-06,-0.113315,0,0.113315,0,-38000,0,38000,7332.92
step02_gravity_refstate-crust.xmf,1289,1.04244e-05,-2.80758e-05,0,5.0273e-06,-1.04382e+09,-1.04646e+09,-1.04453e+09,344872,0.00533679,-0.110776,0,0.110904,500,-38000,0,38003.3,344872
step02_gravity_refstate-crust.xmf,1290,5.66776e-06,-1.73358e-05,0,9.3174e-06,-1.05588e+09,-1.05746e+09,-1.05627e+09,639174,0.0113772,-0.0888164,0,0.0895422,1248.3,-38436.6,0,38456.9,639174
step02_gravity_refstate-crust.xmf,1291,9.46264e-06,-2.41199e-05,0,6.62058e-06,-1.05483e+09,-1.05713e+09,-1.05548e+09,454172,0.00756111,-0.0975666,0,0.0978592,735.242,-38403.1,0,38410.1,454172
step02_gravity_refstate-crust.xmf,1292,-5.61023e-08,-4.64881e-06,0,6.36088e-06,-1.07244e+09,-1.07276e+09,-1.07244e+09,436357,0.0145821,-0.0481328,0,0.0502932,3918.86,-39036,0,39232.2,436357
step02_gravity_refstate-crust.xmf,1293,-4.45881e-07,-9.30127e-07,0,4.3514e-06,-1.08476e+09,-1.08479e+09,-1.08473e+09,298506,0.0123401,-0.0222266,0,0.0254225,6963.42,-39488.4,0,40097.7,298506
step02_gravity_refstate-crust.xmf,1294,-5.38265e-07,-1.4561e-06,0,4.78096e-06,-1.08007e+09,-1.08013e+09,-1.08003e+09,327974,0.0130524,-0.0275707,0,0.0305043,6227.97,-39316.6,0,39806.9,327974
step02_gravity_refstate-crust.xmf,1295,-1.01295e-06,2.82346e-06,0,-1.54916e-06,-4.55594e+08,-4.55331e+08,-4.55524e+08,-106273,0.00772496,0.00976572,0,0.0124517,-5484.63,-16586.6,-0,17469.9,106273
step02_gravity_refstate-crust.xmf,1296,-7.39774e-07,1.93386e-06,0,-1.31794e-06,-3.60599e+08,-3.60415e+08,-3.60548e+08,-90411,0.00759707,0.0216112,0,0.0229076,-7024.39,-13128,-0,14889.1,90411
step02_gravity_refstate-crust.xmf,1297,-8.21475e-07,2.21917e-06,0,-1.38486e-06,-3.93611e+08,-3.93402e+08,-3.93555e+08,-95001.5,0.0075497,0.0177237,0,0.0192647,-6425.53,-14329.9,-0,15704.6,95001.5
step02_gravity_refstate-crust.xmf,1298,-9.14689e-07,2.52095e-06,0,-1.46098e-06,-4.25681e+08,-4.25445e+08,-4.25618e+08,-100223,0.00759495,0.0137167,0,0.015679,-5905.39,-15497.5,-0,16584.6,100223
step02_gravity_refstate-crust.xmf,1299,-7.18723e-07,7.42289e-07,0,-7.06544e-07,-1.34587e+08,-1.34487e+08,-1.34538e+08,-48468.9,0.0104848,0.0383774,0,0.0397839,-9965.27,-4898.02,-0,11103.9,48468.9
step02_gravity_refstate-crust.xmf,1300,-6.93891e-07,9.21691e-07,0,-8.45373e-07,-1.78389e+08,-1.78278e+08,-1.78342e+08,-57992.6,0.00910103,0.0355071,0,0.0366549,-9222.82,-6493.06,-0,11279.2,57992.6
step02_gravity_refstate-crust.xmf,1301,-7.21503e-07,1.34142e-06,0,-1.01007e-06,-2.56527e+08,-2.56386e+08,-2.56478e+08,-69290.7,0.00744764,0.0290776,0,0.0300163,-7639.12,-9338.28,-0,12064.8,69290.7
step02_gravity_refstate-crust.xmf,1302,-6.95597e-07,1.12193e-06,0,-9.44837e-07,-2.19039e+08,-2.18914e+08,-2.18991e+08,-64815.8,0.00813313,0.0323691,0,0.0333752,-8433.1,-7973.25,-0,11605.6,64815.8
step02_gravity_refstate-crust.xmf,1303,-6.75727e-07,1.66924e-06,0,-1.24893e-06,-3.25981e+08,-3.2582e+08,-3.25934e+08,-85676.5,0.00772215,0.0253407,0,0.0264912,-7663.22,-11867.5,-0,14126.7,85676.5
step02_gravity_refstate-crust.xmf,1304,-9.65395e-07,5.20205e-07,0,-2.9168e-07,-4.6715e+07,-4.66131e+07,-4.66488e+07,-20009.2,0.0137053,0.0403329,0,0.0425979,-9947.09,-1697.61,-0,10090.9,20009.2
step02_gravity_refstate-crust.xmf,1305,-1.38905e-06,4.38432e-06,0,-2.67563e-06,-6.09252e+08,-6.08856e+08,-6.09157e+08,-183548,0.0106183,-0.0131847,0,0.0169288,-4581.99,-22181.6,-0,22649.9,183548
step02_gravity_refstate-crust.xmf,1306,-8.1816e-07,5.58162e-06,0,-5.60853e-06,-7.57954e+08,-7.57515e+08,-7.57897e+08,-384745,0.0149023,-0.046986,0,0.0492926,-3735.99,-27599.4,-0,27851.1,384745
step02_gravity_refstate-crust.xmf,1307,-1.35139e-06,4.67604e-06,0,-3.16609e-06,-6.44497e+08,-6.44084e+08,-6.44404e+08,-217194,0.0117936,-0.01922,0,0.0225499,-4541.01,-23465.3,-0,23900.7,217194
step02_gravity_refstate-crust.xmf,1308,-1.29026e-06,5.21177e-06,0,-4.06076e-06,-6.94463e+08,-6.94017e+08,-6.94375e+08,-278568,0.0132665,-0.0301574,0,0.0329464,-4225.97,-25285.5,-0,25636.2,278568
step02_gravity_refstate-crust.xmf,1309,-1.47157e-06,6.00232e-06,0,-4.83953e-06,-7.27388e+08,-7.26875e+08,-7.27287e+08,-331992,0.0137814,-0.0412433,0,0.0434849,-3657.42,-26484.6,-0,26736,331992
step02_gravity_refstate-crust.xmf,1310,-1.44051e-06,5.65961e-06,0,-4.39673e-06,-7.1014e+08,-7.09653e+08,-7.10041e+08,-301615,0.0134195,-0.0357406,0,0.0381768,-3885.92,-25856.3,-0,26146.7,301615
step02_gravity_refstate-crust.xmf,1311,-1.02284e-06,3.18484e-06,0,-1.92671e-06,-5.10973e+08,-5.10685e+08,-5.10903e+08,-132172,0.00906418,0.00412675,0,0.00995939,-5625.69,-18603.3,-0,19435.3,132172
step02_gravity_refstate-crust.xmf,1312,-2.23222e-07,5.48946e-06,0,-7.28316e-06,-8.22278e+08,-8.21886e+08,-8.22263e+08,-499625,0.0136036,-0.0698084,0,0.0711216,-3012.42,-29943.5,-0,30094.6,499625
step02_gravity_refstate-crust.xmf,1313,-2.03113e-07,5.46298e-06,0,-6.83948e-06,-8.04612e+08,-8.04223e+08,-8.04598e+08,-469188,0.0146404,-0.0627147,0,0.0644009,-3238.21,-29300.3,-0,29478.7,469188
step02_gravity_refstate-crust.xmf,1314,-1.05722e-07,4.97391e-06,0,-6.20365e-06,-7.89188e+08,-7.88839e+08,-7.89181e+08,-425570,0.0150936,-0.0536019,0,0.0556865,-3688.01,-28738.4,-0,28974.1,425570
step02_gravity_refstate-crust.xmf,1315,2.31413e-07,4.33406e-07,0,-1.30805e-05,-9.20882e+08,-9.20868e+08,-9.20897e+08,-897324,2.92991e-06,-0.109084,0,0.109084,-1963.54,-33527.2,-0,33584.7,897324
step02_gravity_refstate-crust.xmf,1316,-2.70078e-07,4.50574e-06,0,-7.78705e-06,-8.513e+08,-8.50973e+08,-8.51282e+08,-534192,0.0104191,-0.0750293,0,0.0757493,-3019.55,-30998.3,-0,31145,534192
step02_gravity_refstate-crust.xmf,1317,-6.95694e-07,4.49053e-06,0,-8.95405e-06,-8.65798e+08,-8.65442e+08,-8.6575e+08,-614248,0.00819105,-0.0837984,0,0.0841978,-2711.64,-31524.4,-0,31640.8,614248
step02_gravity_refstate-crust.xmf,1318,-9.51855e-07,4.12424e-06,0,-1.05227e-05,-8.80285e+08,-8.79937e+08,-8.80219e+08,-721859,0.00576009,-0.0939658,0,0.0941422,-2378.54,-32050.2,-0,32138.3,721859
step02_gravity_refstate-crust.xmf,1319,2.71283e-06,-5.64827e-06,0,-1.30859e-05,-9.73535e+08,-9.74109e+08,-9.73721e+08,-897691,-0.00612216,-0.108417,-0,0.108589,-1821.44,-35444.8,-0,35491.5,897691
step02_gravity_refstate-crust.xmf,1320,5.30125e-06,-1.16664e-05,0,-1.37024e-05,-1.00935e+09,-1.01052e+09,-1.00972e+09,-939984,-0.00812953,-0.111374,-0,0.111671,-1352.57,-36749.9,-0,36774.8,939984
step02_gravity_refstate-crust.xmf,1321,6.59261e-06,-1.41379e-05,0,-1.55004e-05,-1.01619e+09,-1.01761e+09,-1.01664e+09,-1.06333e+06,-0.00668808,-0.119357,-0,0.119544,-1000,-37000.2,-0,37013.7,1.06333e+06
step02_gravity_refstate-crust.xmf,1322,5.47203e-06,-1.32258e-05,0,-1.19613e-05,-1.02314e+09,-1.02443e+09,-1.02352e+09,-820547,-0.00999859,-0.102855,-0,0.10334,-1432.91,-37250.2,-0,37277.8,820547
step02_gravity_refstate-crust.xmf,1323,7.79913e-06,-1.67216e-05,0,-1.45177e-05,-1.0299e+09,-1.03158e+09,-1.03044e+09,-995917,-0.00793937,-0.11169,-0,0.111972,-1000,-37500.2,-0,37513.6,995917
step02_gravity_refstate-crust.xmf,1324,4.2124e-06,-1.51162e-05,0,8.48175e-06,-1.0672e+09,-1.06853e+09,-1.06749e+09,581848,0.0116749,-0.0783943,0,0.0792589,1501.2,-38846.2,0,38875.2,581848
step02_gravity_refstate-crust.xmf,1325,1.07514e-05,-2.61878e-05,0,-1.40378e-07,-1.05652e+09,-1.05906e+09,-1.05726e+09,-9629.9,4.67316e-07,-0.100439,0,0.100439,0,-38466.7,0,38466.7,9629.9
step02_gravity_refstate-crust.xmf,1326,1.18335e-06,-8.05803e-06,0,7.33084e-06,-1.08441e+09,-1.08504e+09,-1.08449e+09,502896,0.0123573,-0.0567144,0,0.058045,2789.64,-39471.3,0,39569.7,502896
step02_gravity_refstate-crust.xmf,1327,2.43907e-06,-1.10202e-05,0,7.40708e-06,-1.08457e+09,-1.08549e+09,-1.08473e+09,508126,0.0110932,-0.0635592,0,0.06452,2089.75,-39477.5,0,39532.8,508126
step02_gravity_refstate-crust.xmf,1328,5.55006e-07,-6.11137e-06,0,6.95963e-06,-1.08543e+09,-1.08589e+09,-1.08547e+09,477431,0.0127315,-0.0503297,0,0.051915,3429.73,-39509,0,39657.6,477431
step02_gravity_refstate-crust.xmf,1329,-2.46521e-07,-3.49365e-06,0,5.96569e-06,-1.08024e+09,-1.08047e+09,-1.08023e+09,409246,0.0136403,-0.0405962,0,0.0428265,4602.52,-39320.9,0,39589.4,409246
step02_gravity_refstate-crust.xmf,1330,-4.03346e-07,-2.35589e-06,0,5.37624e-06,-1.08171e+09,-1.08185e+09,-1.08168e+09,368810,0.0132498,-0.0336307,0,0.0361467,5419.73,-39375.5,0,39746.7,368810
step02_gravity_refstate-crust.xmf,1331,-7.39747e-07,5.72933e-07,0,-5.33235e-07,-8.99477e+07,-8.98576e+07,-8.98969e+07,-36579.9,0.012571,0.0413737,0,0.0432413,-10878.4,-3272.53,-0,11359.9,36579.9
step02_gravity_refstate-crust.xmf,1332,-6.24364e-07,1.43003e-06,0,-1.18379e-06,-2.91673e+08,-2.91532e+08,-2.9163e+08,-81208,0.0079966,0.0288934,0,0.0299796,-8377.37,-10618.3,-0,13525.1,81208
step02_gravity_refstate-crust.xmf,1333,-9.87141e-07,3.77827e-07,0,-5.59284e-09,-93633.2,3.64349,-25915.3,-383.669,0.0175934,0.0432125,0,0.0466567,-11021.2,0,-0,11021.2,383.669
step02_gravity_refstate-crust.xmf,1334,-1.16265e-06,4.29133e-06,0,-3.04182e-06,-6.30872e+08,-6.30498e+08,-6.30792e+08,-208669,0.0118439,-0.0147905,0,0.0189482,-4963.64,-22969.5,-0,23499.7,208669
step02_gravity_refstate-crust.xmf,1335,-8.0759e-07,5.20517e-06,0,-5.11259e-06,-7.42037e+08,-7.41624e+08,-7.41981e+08,-350724,0.0147546,-0.0406443,0,0.0432395,-4057.81,-27019.4,-0,27322.4,350724
step02_gravity_refstate-crust.xmf,1336,-9.94895e-07,4.29861e-06,0,-3.40475e-06,-6.54756e+08,-6.54392e+08,-6.54687e+08,-233566,0.0127855,-0.0179265,0,0.0220188,-5072.65,-23839.7,-0,24373.4,233566
step02_gravity_refstate-crust.xmf,1337,-1.13354e-06,4.75478e-06,0,-3.74982e-06,-6.77256e+08,-6.76852e+08,-6.77179e+08,-257237,0.0130991,-0.0243932,0,0.0276878,-4620.29,-24659,-0,25088.1,257237
step02_gravity_refstate-crust.xmf,1338,-1.22918e-07,4.66654e-06,0,-5.69313e-06,-7.73685e+08,-7.73357e+08,-7.73677e+08,-390549,0.0152529,-0.0463149,0,0.0487619,-4065.49,-28173.5,-0,28465.3,390549
step02_gravity_refstate-crust.xmf,1339,-9.00911e-07,2.82805e-06,0,-1.81142e-06,-4.83114e+08,-4.82859e+08,-4.83053e+08,-124263,0.00889943,0.00870032,0,0.0124457,-6119.94,-17589,-0,18623.3,124263
step02_gravity_refstate-crust.xmf,1340,-1.19807e-06,3.93177e-06,0,-2.50692e-06,-5.86648e+08,-5.86296e+08,-5.86566e+08,-171975,0.0105117,-0.00770732,0,0.0130345,-5059.99,-21358.7,-0,21949.9,171975
step02_gravity_refstate-crust.xmf,1341,-1.00153e-06,3.51038e-06,0,-2.36138e-06,-5.62379e+08,-5.62069e+08,-5.6231e+08,-161991,0.0104543,-0.00199243,0,0.0106424,-5663,-20475.3,-0,21244,161991
step02_gravity_refstate-crust.xmf,1342,-8.6405e-07,3.13754e-06,0,-2.20137e-06,-5.36139e+08,-5.35864e+08,-5.3608e+08,-151014,0.0102353,0.00317614,0,0.0107168,-6192.85,-19520,-0,20478.8,151014
step02_gravity_refstate-crust.xmf,1343,8.47294e-07,-1.03952e-06,0,-1.38192e-05,-9.34053e+08,-9.34183e+08,-9.34111e+08,-948000,-0.00151257,-0.113684,-0,0.113694,-1807.67,-34007,-0,34055,948000
step02_gravity_refstate-crust.xmf,1344,1.50061e-06,-2.57197e-06,0,-1.33347e-05,-9.4788e+08,-9.48159e+08,-9.47983e+08,-914762,-0.00324302,-0.110279,-0,0.110327,-1889.11,-34510.6,-0,34562.3,914762
step02_gravity_refstate-crust.xmf,1345,1.46292e-07,4.30321e-06,0,-6.97613e-06,-8.36843e+08,-8.36558e+08,-8.36853e+08,-478563,0.0122314,-0.0668819,0,0.0679911,-3339.51,-30473.4,-0,30655.8,478563
step02_gravity_refstate-crust.xmf,1346,-1.54596e-07,1.63038e-06,0,-1.13688e-05,-9.07775e+08,-9.07653e+08,-9.07765e+08,-779903,0.00176149,-0.0979254,0,0.0979413,-2340.28,-33050.4,-0,33133.1,779903
step02_gravity_refstate-crust.xmf,1347,3.10781e-06,-7.26981e-06,0,-1.19023e-05,-9.88896e+08,-9.89608e+08,-9.89109e+08,-816498,-0.0082999,-0.101283,-0,0.101623,-1945.83,-36003.1,-0,36055.6,816498
step02_gravity_refstate-crust.xmf,1348,1.89914e-06,-3.85633e-06,0,-1.18916e-05,-9.62194e+08,-9.62589e+08,-9.62324e+08,-815766,-0.0055107,-0.100604,-0,0.100755,-2165.9,-35031.3,-0,35098.2,815766
step02_gravity_refstate-crust.xmf,1349,3.87076e-06,-9.24181e-06,0,-1.19048e-05,-1.00262e+09,-1.00352e+09,-1.00289e+09,-816670,-0.00932106,-0.101779,-0,0.102205,-1777.41,-36502.8,-0,36546.1,816670
step02_gravity_refstate-crust.xmf,1350,5.82018e-06,-1.52352e-05,0,-1.07846e-05,-1.03406e+09,-1.03551e+09,-1.03446e+09,-739824,-0.0107974,-0.0991572,-0,0.0997434,-1360.92,-37646.1,-0,37670.7,739824
step02_gravity_refstate-crust.xmf,1351,7.82105e-06,-2.31135e-05,0,-1.04638e-05,-1.0439e+09,-1.04602e+09,-1.04443e+09,-717816,-0.00982775,-0.10253,-0,0.103,-1000,-38000,-0,38013.2,717816
step02_gravity_refstate-crust.xmf,1352,1.0421e-05,-2.85409e-05,0,-4.66648e-06,-1.04384e+09,-1.04651e+09,-1.04455e+09,-320120,-0.00533827,-0.110774,-0,0.110902,-500,-38000,-0,38003.3,320120
step02_gravity_refstate-crust.xmf,1353,1.05478e-05,-2.65448e-05,0,-3.11671e-06,-1.05263e+09,-1.05517e+09,-1.05335e+09,-213807,-0.00358146,-0.103271,-0,0.103333,-334.148,-38323.5,-0,38324.9,213807
step02_gravity_refstate-crust.xmf,1354,3.36451e-06,-1.31653e-05,0,7.74354e-06,-1.07707e+09,-1.07821e+09,-1.0773e+09,531207,0.0113536,-0.070423,0,0.0713323,1745.12,-39205.2,0,39244,531207
step02_gravity_refstate-crust.xmf,1355,9.89254e-06,-2.39316e-05,0,3.57943e-06,-1.06318e+09,-1.0655e+09,-1.06386e+09,245549,0.00403271,-0.0931317,0,0.093219,403.805,-38709,0,38711.1,245549
step02_gravity_refstate-crust.xmf,1356,7.4876e-06,-1.98039e-05,0,6.44918e-06,-1.06867e+09,-1.07054e+09,-1.06918e+09,442414,0.00812798,-0.0844801,0,0.0848702,921.526,-38905.6,0,38916.5,442414
step02_gravity_refstate-crust.xmf,1357,2.33178e-07,-4.81422e-06,0,6.56182e-06,-1.08742e+09,-1.08777e+09,-1.08744e+09,450141,0.0126346,-0.0447955,0,0.0465432,3999,-39582.2,0,39783.7,450141
step02_gravity_refstate-crust.xmf,1358,-5.77266e-07,1.72641e-06,0,-1.4266e-06,-3.57874e+08,-3.57716e+08,-3.57834e+08,-97864.8,0.00844932,0.0250675,0,0.0264531,-8363.18,-13029.1,-0,15482.2,97864.8
step02_gravity_refstate-crust.xmf,1359,-7.98192e-07,2.53673e-06,0,-1.70701e-06,-4.5376e+08,-4.53532e+08,-4.53706e+08,-117101,0.00872727,0.0130618,0,0.0157091,-6629.9,-16520.3,-0,17801,117101
step02_gravity_refstate-crust.xmf,1360,-6.3599e-07,1.978e-06,0,-1.51705e-06,-3.91384e+08,-3.91205e+08,-3.91341e+08,-104069,0.00848647,0.0212327,0,0.0228658,-7753.48,-14249.2,-0,16222.1,104069
step02_gravity_refstate-crust.xmf,1361,-7.09587e-07,2.24796e-06,0,-1.60982e-06,-4.23323e+08,-4.2312e+08,-4.23274e+08,-110433,0.00858755,0.0172316,0,0.0192529,-7175.84,-15412.1,-0,17000.8,110433
step02_gravity_refstate-crust.xmf,1362,-5.73669e-07,6.4379e-07,0,-7.26396e-07,-1.29362e+08,-1.29279e+08,-1.29323e+08,-49830.8,0.0117358,0.0422559,0,0.0438554,-11677.2,-4708.24,-0,12590.6,49830.8
step02_gravity_refstate-crust.xmf,1363,-5.57936e-07,8.1095e-07,0,-8.90072e-07,-1.74331e+08,-1.74237e+08,-1.74293e+08,-61059,0.0102176,0.0393042,0,0.0406106,-10900,-6345.69,-0,12612.6,61059
step02_gravity_refstate-crust.xmf,1364,-5.28402e-07,9.99303e-07,0,-1.05057e-06,-2.22416e+08,-2.22311e+08,-2.2238e+08,-72069.1,0.00926471,0.0363953,0,0.037556,-10321.7,-8096.69,-0,13118.4,72069.1
step02_gravity_refstate-crust.xmf,1365,-5.8008e-07,1.2213e-06,0,-1.12518e-06,-2.59398e+08,-2.59274e+08,-2.59358e+08,-77187.4,0.00845273,0.0322876,0,0.0333757,-9186.19,-9443.17,-0,13174.2,77187.4
step02_gravity_refstate-crust.xmf,1366,-5.33216e-07,1.49469e-06,0,-1.33741e-06,-3.23179e+08,-3.2304e+08,-3.23142e+08,-91746.2,0.00851289,0.0287117,0,0.0299471,-9004.04,-11765.8,-0,14815.8,91746.2
step02_gravity_refstate-crust.xmf,1367,-7.38167e-07,4.2733e-07,0,-3.06737e-07,-4.58453e+07,-4.57654e+07,-4.57947e+07,-21042.1,0.0154315,0.0444061,0,0.047011,-11920.2,-1666.72,-0,12036.2,21042.1
step02_gravity_refstate-crust.xmf,1368,-9.94187e-07,3.84879e-06,0,-2.83793e-06,-6.10995e+08,-6.10662e+08,-6.10926e+08,-194682,0.0117091,-0.00944328,0,0.0150426,-5448.44,-22245.8,-0,22903.3,194682
step02_gravity_refstate-crust.xmf,1369,-1.77633e-07,4.4259e-06,0,-5.23251e-06,-7.57625e+08,-7.5731e+08,-7.57613e+08,-358950,0.0152341,-0.0398721,0,0.0426832,-4415.71,-27588.2,-0,27939.4,358950
step02_gravity_refstate-crust.xmf,1370,-6.95825e-07,4.31623e-06,0,-4.04364e-06,-6.95415e+08,-6.95071e+08,-6.95367e+08,-277394,0.014087,-0.0246709,0,0.0284094,-5018.24,-25321.1,-0,25813.6,277394
step02_gravity_refstate-crust.xmf,1371,-8.44278e-07,4.71181e-06,0,-4.31703e-06,-7.08376e+08,-7.07995e+08,-7.08318e+08,-296148,0.0141761,-0.0299028,0,0.0330929,-4602.12,-25793,-0,26200.4,296148
step02_gravity_refstate-crust.xmf,1372,-7.16554e-07,4.74463e-06,0,-4.66243e-06,-7.25463e+08,-7.25088e+08,-7.25414e+08,-319842,0.0145991,-0.0339376,0,0.0369445,-4469.25,-26415.6,-0,26791.1,319842
step02_gravity_refstate-crust.xmf,1373,-7.53409e-07,2.81328e-06,0,-2.05974e-06,-5.09403e+08,-5.09159e+08,-5.09352e+08,-141298,0.00999604,0.00792392,0,0.0127558,-6716.4,-18546.6,-0,19725.3,141298
step02_gravity_refstate-crust.xmf,1374,3.92057e-07,4.10073e-06,0,-6.43176e-06,-8.21805e+08,-8.2155e+08,-8.21831e+08,-441219,0.0135817,-0.0593721,0,0.0609058,-3663.31,-29926.6,-0,30149.9,441219
step02_gravity_refstate-crust.xmf,1375,4.55969e-07,3.76258e-06,0,-5.55946e-06,-7.89973e+08,-7.89746e+08,-7.90004e+08,-381379,0.0149508,-0.0449905,0,0.0474096,-4393.36,-28767.4,-0,29101,381379
step02_gravity_refstate-crust.xmf,1376,4.6811e-07,3.94026e-06,0,-5.98906e-06,-8.05737e+08,-8.05499e+08,-8.05769e+08,-410850,0.0144867,-0.0520702,0,0.0540478,-4010.04,-29341.7,-0,29614.4,410850
step02_gravity_refstate-crust.xmf,1377,8.46542e-07,-1.12152e-06,0,-1.17496e-05,-9.3549e+08,-9.35625e+08,-9.35548e+08,-806024,-0.00210132,-0.0997332,-0,0.0997553,-2285.39,-34059.1,-0,34135.7,806024
step02_gravity_refstate-crust.xmf,1378,3.7032e-07,3.2772e-06,0,-6.67736e-06,-8.51843e+08,-8.51644e+08,-8.51869e+08,-458067,0.0103114,-0.0638016,0,0.0646295,-3641.7,-31018.8,-0,31231.8,458067
step02_gravity_refstate-crust.xmf,1379,2.79351e-08,3.29593e-06,0,-7.53447e-06,-8.66135e+08,-8.65911e+08,-8.66137e+08,-516864,0.00833478,-0.0716687,0,0.0721517,-3303.46,-31537.7,-0,31710.3,516864
step02_gravity_refstate-crust.xmf,1380,-3.28696e-07,2.52823e-06,0,-1.0014e-05,-8.94308e+08,-8.94112e+08,-8.94285e+08,-686959,0.00383474,-0.0891492,0,0.0892317,-2643.05,-32560.8,-0,32667.9,686959
step02_gravity_refstate-crust.xmf,1381,-2.41923e-07,3.06583e-06,0,-8.65785e-06,-8.80463e+08,-8.80236e+08,-8.80447e+08,-593928,0.00608537,-0.0800461,0,0.0802771,-2976.36,-32057.9,-0,32195.8,593928
step02_gravity_refstate-crust.xmf,1382,3.99946e-07,1.60269e-07,0,-1.0603e-05,-9.22165e+08,-9.22181e+08,-9.22192e+08,-727367,-0.000370332,-0.0920712,-0,0.0920719,-2583.71,-33574.2,-0,33673.5,727367
step02_gravity_refstate-crust.xmf,1383,2.10413e-06,-4.89321e-06,0,-1.06882e-05,-9.76282e+08,-9.76762e+08,-9.76426e+08,-733207,-0.00780115,-0.0927896,-0,0.093117,-2376.23,-35543.5,-0,35622.8,733207
step02_gravity_refstate-crust.xmf,1384,3.73125e-06,-9.91831e-06,0,-1.03318e-05,-1.0163e+09,-1.01724e+09,-1.01656e+09,-708762,-0.011469,-0.0931219,-0,0.0938255,-1930.03,-36999.2,-0,37049.5,708762
step02_gravity_refstate-crust.xmf,1385,3.7846e-06,-1.16696e-05,0,-9.52199e-06,-1.03158e+09,-1.03264e+09,-1.03184e+09,-653209,-0.0125817,-0.0902195,-0,0.0910925,-1795.57,-37552.8,-0,37595.7,653209
step02_gravity_refstate-crust.xmf,1386,3.92021e-06,-1.37356e-05,0,-9.39588e-06,-1.04418e+09,-1.0454e+09,-1.04445e+09,-644558,-0.0126513,-0.0896873,-0,0.0905752,-1547.5,-38009.2,-0,38040.7,644558
step02_gravity_refstate-crust.xmf,1387,9.46854e-06,-2.35972e-05,0,-7.41895e-06,-1.0544e+09,-1.05667e+09,-1.05505e+09,-508940,-0.00768064,-0.0977811,-0,0.0980823,-746.247,-38388.3,-0,38395.5,508940
step02_gravity_refstate-crust.xmf,1388,5.42532e-06,-1.64833e-05,0,6.87836e-06,-1.07645e+09,-1.07795e+09,-1.07682e+09,471855,0.0092938,-0.0760354,0,0.0766013,1250.64,-39185.7,0,39205.6,471855
step02_gravity_refstate-crust.xmf,1389,9.90004e-06,-2.3913e-05,0,-3.74697e-06,-1.06302e+09,-1.06534e+09,-1.0637e+09,-257042,-0.00419058,-0.0931789,-0,0.0932731,-419.545,-38703.4,-0,38705.6,257042
step02_gravity_refstate-crust.xmf,1390,9.52153e-06,-2.31599e-05,0,-1.12158e-07,-1.06993e+09,-1.07218e+09,-1.07059e+09,-7694.07,2.54141e-07,-0.0883973,0,0.0883973,0,-38954.7,0,38954.7,7694.07
step02_gravity_refstate-crust.xmf,1391,3.97902e-06,-1.43496e-05,0,6.88804e-06,-1.08683e+09,-1.08809e+09,-1.0871e+09,472520,0.0087761,-0.0680591,0,0.0686226,1492.2,-39561.1,0,39589.2,472520
step02_gravity_refstate-crust.xmf,1392,-5.48604e-07,4.91294e-07,0,-5.54949e-07,-9.06549e+07,-9.05835e+07,-9.06172e+07,-38069.5,0.0137316,0.0454409,0,0.0474703,-12725.3,-3298.92,-0,13145.9,38069.5
step02_gravity_refstate-crust.xmf,1393,-5.02179e-07,1.29554e-06,0,-1.25385e-06,-2.90621e+08,-2.90498e+08,-2.90587e+08,-86014.4,0.00871146,0.031965,0,0.0331308,-9652.92,-10580.3,-0,14322.1,86014.4
step02_gravity_refstate-crust.xmf,1394,-6.85315e-07,2.63657e-07,0,-6.4108e-09,-64946.6,152.911,-17934,-439.781,0.0193412,0.0475177,0,0.0513031,-13099.6,0,-0,13099.6,439.781
step02_gravity_refstate-crust.xmf,1395,-7.8006e-07,3.78026e-06,0,-3.15308e-06,-6.34931e+08,-6.34619e+08,-6.34878e+08,-216301,0.0126969,-0.0114748,0,0.0171137,-5703.93,-23118,-0,23811.3,216301
step02_gravity_refstate-crust.xmf,1396,-2.83202e-07,4.31691e-06,0,-4.87978e-06,-7.42169e+08,-7.41854e+08,-7.4215e+08,-334753,0.0150863,-0.0350764,0,0.0381831,-4653.97,-27024.9,-0,27422.8,334753
step02_gravity_refstate-crust.xmf,1397,-6.126e-07,3.95795e-06,0,-3.70485e-06,-6.76234e+08,-6.75921e+08,-6.76192e+08,-254153,0.013797,-0.0187727,0,0.0232975,-5456.78,-24622.6,-0,25220,254153
step02_gravity_refstate-crust.xmf,1398,3.79841e-07,3.63333e-06,0,-5.16603e-06,-7.73499e+08,-7.73276e+08,-7.73525e+08,-354390,0.0151635,-0.0385683,0,0.0414421,-4763.27,-28167.2,-0,28567.1,354390
step02_gravity_refstate-crust.xmf,1399,-6.53892e-07,2.49279e-06,0,-1.93326e-06,-4.8168e+08,-4.81464e+08,-4.81635e+08,-132622,0.00977567,0.012512,0,0.0158781,-7285.35,-17537.2,-0,18990.3,132622
step02_gravity_refstate-crust.xmf,1400,-7.56292e-07,3.36487e-06,0,-2.6816e-06,-5.89732e+08,-5.89449e+08,-5.8968e+08,-183958,0.0117189,-0.00315357,0,0.0121358,-6197.96,-21471.9,-0,22348.6,183958
step02_gravity_refstate-crust.xmf,1401,-6.59809e-07,3.02466e-06,0,-2.45197e-06,-5.61149e+08,-5.60897e+08,-5.61104e+08,-168205,0.0113125,0.00250239,0,0.011586,-6736.33,-20431.2,-0,21513.1,168205
step02_gravity_refstate-crust.xmf,1402,-5.7983e-07,2.73426e-06,0,-2.27622e-06,-5.34721e+08,-5.34493e+08,-5.34681e+08,-156149,0.0109642,0.00733023,0,0.0131889,-7251.27,-19468.9,-0,20775.5,156149
step02_gravity_refstate-crust.xmf,1403,6.49469e-07,3.17352e-06,0,-6.07928e-06,-8.37185e+08,-8.37012e+08,-8.3723e+08,-417039,0.0119351,-0.056557,0,0.0578026,-3983.23,-30486.1,-0,30745.2,417039
step02_gravity_refstate-crust.xmf,1404,1.56994e-07,1.1581e-06,0,-9.3746e-06,-9.0865e+08,-9.08581e+08,-9.08661e+08,-643098,0.00162653,-0.0837665,0,0.0837823,-2911.16,-33082.7,-0,33210.6,643098
step02_gravity_refstate-crust.xmf,1405,1.25114e-06,-2.28198e-06,0,-1.07784e-05,-9.49774e+08,-9.50017e+08,-9.4986e+08,-739398,-0.00434051,-0.0929947,-0,0.093096,-2506.2,-34579,-0,34669.7,739398
step02_gravity_refstate-crust.xmf,1406,2.70867e-06,-7.54464e-06,0,-9.90078e-06,-1.00252e+09,-1.00323e+09,-1.00271e+09,-679193,-0.0109483,-0.0892554,-0,0.0899244,-2277.47,-36497.1,-0,36568.1,679193
step02_gravity_refstate-crust.xmf,1407,2.07807e-06,-5.72313e-06,0,-9.5626e-06,-9.89574e+08,-9.90109e+08,-9.89717e+08,-655995,-0.00996054,-0.0859046,-0,0.0864801,-2555.93,-36026,-0,36116.5,655995
step02_gravity_refstate-crust.xmf,1408,1.42341e-06,-3.25087e-06,0,-9.66909e-06,-9.64139e+08,-9.6446e+08,-9.64237e+08,-663300,-0.00675339,-0.0855157,-0,0.085782,-2750.91,-35101.2,-0,35208.8,663300
step02_gravity_refstate-crust.xmf,1409,5.55772e-06,-1.71601e-05,0,-9.26065e-06,-1.05599e+09,-1.05755e+09,-1.05637e+09,-635280,-0.0114424,-0.0885221,-0,0.0892585,-1261.59,-38440.2,-0,38460.9,635280
step02_gravity_refstate-crust.xmf,1410,8.15232e-06,-2.1001e-05,0,3.05315e-06,-1.07672e+09,-1.07872e+09,-1.07727e+09,209446,0.00365446,-0.0819524,0,0.0820338,435.392,-39199.4,0,39201.8,209446
step02_gravity_refstate-crust.xmf,1411,6.08775e-06,-1.78541e-05,0,5.04483e-06,-1.08502e+09,-1.08666e+09,-1.08544e+09,346075,0.00611263,-0.0736329,0,0.0738862,894.786,-39498.1,0,39508.3,346075
step02_gravity_refstate-crust.xmf,1412,-4.26013e-07,1.53158e-06,0,-1.48846e-06,-3.5454e+08,-3.54405e+08,-3.5451e+08,-102108,0.00907142,0.0287182,0,0.0301169,-9667.39,-12908,-0,16126.9,102108
step02_gravity_refstate-crust.xmf,1413,-4.56782e-07,1.74435e-06,0,-1.59741e-06,-3.89086e+08,-3.88935e+08,-3.89055e+08,-109582,0.0091856,0.0250578,0,0.0266884,-9088.66,-14165.9,-0,16830.8,109582
step02_gravity_refstate-crust.xmf,1414,-5.68604e-07,2.23167e-06,0,-1.82062e-06,-4.52683e+08,-4.5249e+08,-4.52644e+08,-124895,0.00957103,0.016947,0,0.0194629,-7893.97,-16481.5,-0,18274.4,124895
step02_gravity_refstate-crust.xmf,1415,-5.04386e-07,1.97786e-06,0,-1.7075e-06,-4.21857e+08,-4.21687e+08,-4.21823e+08,-117134,0.00936157,0.0211094,0,0.0230921,-8489.87,-15359.2,-0,17549.4,117134
step02_gravity_refstate-crust.xmf,1416,-3.96146e-07,5.75498e-07,0,-7.72989e-07,-1.36082e+08,-1.36015e+08,-1.36055e+08,-53027.1,0.0123878,0.0462444,0,0.0478748,-13445.6,-4953.49,-0,14329,53027.1
step02_gravity_refstate-crust.xmf,1417,-4.38779e-07,7.03787e-07,0,-8.88815e-07,-1.66545e+08,-1.66467e+08,-1.66515e+08,-60972.7,0.0111217,0.0430038,0,0.0444187,-12389.2,-6062.56,-0,13793,60972.7
step02_gravity_refstate-crust.xmf,1418,-4.04756e-07,8.32741e-07,0,-1.033e-06,-2.05807e+08,-2.05722e+08,-2.05779e+08,-70863.7,0.0102701,0.0411395,0,0.042402,-12072.3,-7492.26,-0,14208.2,70863.7
step02_gravity_refstate-crust.xmf,1419,-4.17517e-07,1.14421e-06,0,-1.24835e-06,-2.75371e+08,-2.75264e+08,-2.75343e+08,-85636.6,0.00920356,0.035337,0,0.0365159,-10735.7,-10025.2,-0,14688.8,85636.6
step02_gravity_refstate-crust.xmf,1420,-4.02942e-07,1.32882e-06,0,-1.38159e-06,-3.18386e+08,-3.18267e+08,-3.18358e+08,-94777.2,0.00909313,0.0322873,0,0.0335433,-10300.2,-11591.6,-0,15506.7,94777.2
step02_gravity_refstate-crust.xmf,1421,-4.87868e-07,3.35679e-07,0,-3.25872e-07,-4.79039e+07,-4.78474e+07,-4.78704e+07,-22354.8,0.0165595,0.0488902,0,0.0516184,-13954.9,-1742.54,-0,14063.2,22354.8
step02_gravity_refstate-crust.xmf,1422,-6.75845e-07,3.44058e-06,0,-2.9253e-06,-6.14527e+08,-6.14245e+08,-6.14481e+08,-200675,0.0124288,-0.00629583,0,0.0139324,-6183.12,-22375.1,-0,23213.7,200675
step02_gravity_refstate-crust.xmf,1423,2.51855e-07,3.51568e-06,0,-4.73627e-06,-7.52763e+08,-7.52539e+08,-7.5278e+08,-324908,0.0151847,-0.0317438,0,0.0351887,-5169.78,-27411.6,-0,27894.8,324908
step02_gravity_refstate-crust.xmf,1424,-5.08473e-07,3.58399e-06,0,-3.40176e-06,-6.55926e+08,-6.55645e+08,-6.55891e+08,-233360,0.013505,-0.0127176,0,0.0185505,-5978.78,-23883.1,-0,24620.1,233360
step02_gravity_refstate-crust.xmf,1425,-2.40949e-07,3.57654e-06,0,-3.88679e-06,-6.94977e+08,-6.94715e+08,-6.9496e+08,-266633,0.0144345,-0.0191013,0,0.0239419,-5783.99,-25305.9,-0,25958.5,266633
step02_gravity_refstate-crust.xmf,1426,-2.53261e-07,3.8609e-06,0,-4.27801e-06,-7.15488e+08,-7.15206e+08,-7.15471e+08,-293471,0.0147552,-0.0254987,0,0.0294602,-5304.55,-26053,-0,26587.6,293471
step02_gravity_refstate-crust.xmf,1427,-1.06007e-07,3.87302e-06,0,-4.56714e-06,-7.33768e+08,-7.33495e+08,-7.3376e+08,-313306,0.0150462,-0.0295733,0,0.0331808,-5125.56,-26719.1,-0,27206.3,313306
step02_gravity_refstate-crust.xmf,1428,-4.99962e-07,2.46073e-06,0,-2.12855e-06,-5.08789e+08,-5.08586e+08,-5.08755e+08,-146018,0.0106731,0.0119031,0,0.0159875,-7817.68,-18524.8,-0,20106.8,146018
step02_gravity_refstate-crust.xmf,1429,8.06901e-07,3.06388e-06,0,-5.64134e-06,-8.21938e+08,-8.21783e+08,-8.21993e+08,-386996,0.0131627,-0.0496692,0,0.0513837,-4340.32,-29931.5,-0,30244.5,386996
step02_gravity_refstate-crust.xmf,1430,8.21466e-07,2.8731e-06,0,-4.93625e-06,-7.9044e+08,-7.90299e+08,-7.90496e+08,-338627,0.0144737,-0.0367796,0,0.039525,-5112.12,-28784.5,-0,29235,338627
step02_gravity_refstate-crust.xmf,1431,8.55774e-07,2.95265e-06,0,-5.26907e-06,-8.06513e+08,-8.06369e+08,-8.06572e+08,-361458,0.0139682,-0.0430096,0,0.0452209,-4724.16,-29370,-0,29747.5,361458
step02_gravity_refstate-crust.xmf,1432,7.82177e-07,-1.07347e-06,0,-9.71149e-06,-9.36853e+08,-9.3698e+08,-9.36906e+08,-666208,-0.00274965,-0.0856139,-0,0.0856581,-2837.4,-34108.6,-0,34226.4,666208
step02_gravity_refstate-crust.xmf,1433,7.70452e-07,2.4044e-06,0,-5.74083e-06,-8.52173e+08,-8.5206e+08,-8.52225e+08,-393821,0.00990571,-0.0536638,0,0.0545703,-4274.22,-31031,-0,31324,393821
step02_gravity_refstate-crust.xmf,1434,5.20138e-07,2.37637e-06,0,-6.34827e-06,-8.66694e+08,-8.66566e+08,-8.66729e+08,-435491,0.00807638,-0.0604221,0,0.0609595,-3931.47,-31558.6,-0,31802.6,435491
step02_gravity_refstate-crust.xmf,1435,2.72765e-07,2.21999e-06,0,-7.18011e-06,-8.80985e+08,-8.80851e+08,-8.81003e+08,-492555,0.00598987,-0.06779,0,0.0680541,-3586.23,-32077.7,-0,32277.5,492555
step02_gravity_refstate-crust.xmf,1436,1.23902e-07,1.84019e-06,0,-8.21751e-06,-8.94941e+08,-8.94823e+08,-8.94949e+08,-563721,0.00379264,-0.0756849,0,0.0757799,-3242.25,-32584.6,-0,32745.5,563721
step02_gravity_refstate-crust.xmf,1437,4.87284e-07,1.17413e-08,0,-8.70081e-06,-9.23149e+08,-9.23182e+08,-9.23182e+08,-596876,-0.000780941,-0.0784308,-0,0.0784347,-3162.16,-33610.2,-0,33758.6,596876
step02_gravity_refstate-crust.xmf,1438,1.54769e-06,-4.09885e-06,0,-9.11043e-06,-9.76195e+08,-9.76582e+08,-9.76301e+08,-624975,-0.00862881,-0.0818427,-0,0.0822963,-2841,-35539.3,-0,35652.6,624975
step02_gravity_refstate-crust.xmf,1439,1.97267e-06,-7.22869e-06,0,-8.37981e-06,-1.0156e+09,-1.01623e+09,-1.01573e+09,-574855,-0.0132047,-0.0791552,-0,0.080249,-2584.3,-36970.7,-0,37060.9,574855
step02_gravity_refstate-crust.xmf,1440,2.23745e-06,-8.74687e-06,0,-8.38988e-06,-1.02969e+09,-1.03044e+09,-1.02984e+09,-575546,-0.0140054,-0.080042,-0,0.0812581,-2328.91,-37482.2,-0,37554.5,575546
step02_gravity_refstate-crust.xmf,1441,2.39664e-06,-1.03759e-05,0,-8.39268e-06,-1.04349e+09,-1.04437e+09,-1.04366e+09,-575738,-0.0142643,-0.0800125,-0,0.0812741,-2071.31,-37983,-0,38039.4,575738
step02_gravity_refstate-crust.xmf,1442,2.8898e-06,-1.23392e-05,0,-8.6425e-06,-1.05628e+09,-1.05732e+09,-1.05648e+09,-592875,-0.0135857,-0.0794022,-0,0.080556,-1799.07,-38447.4,-0,38489.5,592875
step02_gravity_refstate-crust.xmf,1443,7.01054e-06,-1.93115e-05,0,-6.64085e-06,-1.0693e+09,-1.07111e+09,-1.06978e+09,-455562,-0.00842754,-0.0835257,-0,0.0839498,-971.346,-38927.4,-0,38939.6,455562
step02_gravity_refstate-crust.xmf,1444,8.21079e-06,-2.1108e-05,0,-3.3093e-06,-1.07562e+09,-1.07763e+09,-1.07619e+09,-227018,-0.00397062,-0.0826521,-0,0.0827474,-465.529,-39159.6,-0,39162.4,227018
step02_gravity_refstate-crust.xmf,1445,7.50537e-06,-2.01491e-05,0,-1.72236e-08,-1.08406e+09,-1.08596e+09,-1.08457e+09,-1181.54,1.2796e-06,-0.077326,0,0.077326,0,-39465.5,0,39465.5,1181.54
step02_gravity_refstate-crust.xmf,1446,-3.37181e-07,4.20578e-07,0,-5.86779e-07,-9.7333e+07,-9.7281e+07,-9.73098e+07,-40253.1,0.0143061,0.0499022,0,0.0519123,-14681.2,-3542.79,-0,15102.6,40253.1
step02_gravity_refstate-crust.xmf,1447,-3.7415e-07,9.64018e-07,0,-1.16248e-06,-2.43702e+08,-2.43611e+08,-2.43677e+08,-79745.9,0.0097395,0.0391023,0,0.040297,-11749.5,-8872.21,-0,14723,79745.9
step02_gravity_refstate-crust.xmf,1448,-3.76251e-07,1.46889e-07,0,-7.91132e-09,-35566,321.41,-9755.2,-542.717,0.0204748,0.0521575,0,0.0560323,-15217,0,-0,15217,542.717
step02_gravity_refstate-crust.xmf,1449,-4.43713e-07,3.27225e-06,0,-3.12411e-06,-6.33859e+08,-6.33604e+08,-6.33829e+08,-214314,0.0131415,-0.0070814,0,0.014928,-6482.45,-23079.5,-0,23972.6,214314
step02_gravity_refstate-crust.xmf,1450,-2.05744e-07,3.29388e-06,0,-3.5854e-06,-6.76881e+08,-6.76641e+08,-6.76867e+08,-245959,0.0141365,-0.0136987,0,0.0196849,-6241.73,-24646.8,-0,25424.9,245959
step02_gravity_refstate-crust.xmf,1451,7.15046e-07,2.85322e-06,0,-4.62907e-06,-7.71966e+08,-7.71819e+08,-7.72015e+08,-317555,0.0147911,-0.0307924,0,0.0341606,-5498.13,-28111.5,-0,28644.1,317555
step02_gravity_refstate-crust.xmf,1452,-3.87369e-07,2.1496e-06,0,-2.0133e-06,-4.8304e+08,-4.82866e+08,-4.83014e+08,-138113,0.0105044,0.0169539,0,0.0199443,-8629.85,-17587.3,-0,19590.5,138113
step02_gravity_refstate-crust.xmf,1453,-4.20325e-07,3.02848e-06,0,-2.86882e-06,-6.09167e+08,-6.08931e+08,-6.09138e+08,-196801,0.0126834,-0.00196824,0,0.0128352,-6918.85,-22180.3,-0,23234.4,196801
step02_gravity_refstate-crust.xmf,1454,-4.06292e-07,2.82312e-06,0,-2.65217e-06,-5.84565e+08,-5.84344e+08,-5.84538e+08,-181939,0.0122254,0.00252263,0,0.0124829,-7308.96,-21284.4,-0,22504.4,181939
step02_gravity_refstate-crust.xmf,1455,-3.74137e-07,2.60038e-06,0,-2.45904e-06,-5.5922e+08,-5.59016e+08,-5.59194e+08,-168690,0.0117995,0.0070664,0,0.0137536,-7770.55,-20361.5,-0,21793.8,168690
step02_gravity_refstate-crust.xmf,1456,-3.36833e-07,2.37876e-06,0,-2.28807e-06,-5.33289e+08,-5.33103e+08,-5.33266e+08,-156961,0.0114007,0.0114891,0,0.0161856,-8275.06,-19417.2,-0,21107,156961
step02_gravity_refstate-crust.xmf,1457,9.53442e-07,2.39649e-06,0,-5.31676e-06,-8.37233e+08,-8.37134e+08,-8.37298e+08,-364729,0.0114242,-0.0474524,0,0.0488082,-4614.04,-30487.9,-0,30835,364729
step02_gravity_refstate-crust.xmf,1458,3.68849e-07,8.43376e-07,0,-7.76105e-06,-9.08955e+08,-9.08922e+08,-9.0898e+08,-532408,0.0014266,-0.0715259,0,0.0715401,-3478.51,-33094.2,-0,33276.5,532408
step02_gravity_refstate-crust.xmf,1459,9.74156e-07,-1.92958e-06,0,-8.78197e-06,-9.51642e+08,-9.51842e+08,-9.51709e+08,-602443,-0.00526919,-0.079005,-0,0.0791805,-3090.94,-34646.4,-0,34784.1,602443
step02_gravity_refstate-crust.xmf,1460,1.59704e-06,-5.66854e-06,0,-8.20683e-06,-1.00174e+09,-1.00223e+09,-1.00185e+09,-562988,-0.0121057,-0.0768194,-0,0.0777674,-2863.8,-36466.9,-0,36579.2,562988
step02_gravity_refstate-crust.xmf,1461,1.25184e-06,-4.22384e-06,0,-7.95981e-06,-9.86871e+08,-9.87247e+08,-9.86957e+08,-546043,-0.0105454,-0.0740798,-0,0.0748266,-3134.5,-35926.6,-0,36063,546043
step02_gravity_refstate-crust.xmf,1462,9.81557e-07,-2.8953e-06,0,-7.831e-06,-9.69153e+08,-9.69419e+08,-9.69221e+08,-537207,-0.00819954,-0.0724999,-0,0.0729621,-3327.42,-35282.5,-0,35439,537207
step02_gravity_refstate-crust.xmf,1463,1.18423e-06,-6.63564e-06,0,-7.42178e-06,-1.02866e+09,-1.02919e+09,-1.02874e+09,-509134,-0.0148471,-0.0706609,-0,0.0722039,-2868.88,-37443.8,-0,37553.6,509134
step02_gravity_refstate-crust.xmf,1464,4.27489e-06,-1.47218e-05,0,-7.97915e-06,-1.06872e+09,-1.07002e+09,-1.06901e+09,-547370,-0.011618,-0.0772183,-0,0.0780874,-1527.61,-38902.3,-0,38932.3,547370
step02_gravity_refstate-crust.xmf,1465,6.60138e-06,-1.89138e-05,0,2.21733e-06,-1.08866e+09,-1.09042e+09,-1.08912e+09,152109,0.00254159,-0.0735367,0,0.0735806,383.391,-39631.4,0,39633.2,152109
step02_gravity_refstate-crust.xmf,1466,-2.74444e-07,1.34198e-06,0,-1.51792e-06,-3.51926e+08,-3.51815e+08,-3.51907e+08,-104129,0.0095445,0.0327859,0,0.0341469,-11076.2,-12813.2,-0,16936.9,104129
step02_gravity_refstate-crust.xmf,1467,-2.88422e-07,1.52704e-06,0,-1.63483e-06,-3.87406e+08,-3.87282e+08,-3.87387e+08,-112149,0.00967159,0.0291054,0,0.0306702,-10444.7,-14105.1,-0,17551.2,112149
step02_gravity_refstate-crust.xmf,1468,-3.09022e-07,1.72216e-06,0,-1.75632e-06,-4.21312e+08,-4.21172e+08,-4.21291e+08,-120484,0.00990389,0.025277,0,0.027148,-9843.03,-15339.7,-0,18226.1,120484
step02_gravity_refstate-crust.xmf,1469,-3.41449e-07,1.92891e-06,0,-1.87856e-06,-4.52617e+08,-4.52461e+08,-4.52593e+08,-128869,0.010181,0.02125,0,0.023563,-9232.95,-16479.6,-0,18889.8,128869
step02_gravity_refstate-crust.xmf,1470,-2.25411e-07,5.20239e-07,0,-8.08547e-07,-1.46419e+08,-1.46367e+08,-1.46403e+08,-55466.3,0.0126037,0.0502814,0,0.051837,-15183.8,-5330.41,-0,16092.2,55466.3
step02_gravity_refstate-crust.xmf,1471,-2.78549e-07,6.85052e-07,0,-9.81959e-07,-1.8828e+08,-1.88214e+08,-1.88261e+08,-67362.4,0.01119,0.046109,0,0.0474474,-13876.6,-6854.45,-0,15477.2,67362.4
step02_gravity_refstate-crust.xmf,1472,-2.59059e-07,8.46229e-07,0,-1.15563e-06,-2.37719e+08,-2.37643e+08,-2.37701e+08,-79276.1,0.0102537,0.0430309,0,0.0442357,-13207.3,-8654.66,-0,15790.4,79276.1
step02_gravity_refstate-crust.xmf,1473,-2.62115e-07,1.00059e-06,0,-1.28166e-06,-2.7646e+08,-2.76374e+08,-2.76442e+08,-87921.8,0.00978414,0.0397569,0,0.0409431,-12453.4,-10065.3,-0,16012.4,87921.8
step02_gravity_refstate-crust.xmf,1474,-2.69945e-07,1.16784e-06,0,-1.39937e-06,-3.14221e+08,-3.14123e+08,-3.14203e+08,-95997,0.00955438,0.0362682,0,0.0375056,-11709.7,-11440.3,-0,16370.6,95997
step02_gravity_refstate-crust.xmf,1475,-2.26157e-07,2.50066e-07,0,-3.52771e-07,-5.34887e+07,-5.34561e+07,-5.34732e+07,-24200.1,0.0169896,0.0537537,0,0.0563747,-16085.9,-1946.78,-0,16203.3,24200.1
step02_gravity_refstate-crust.xmf,1476,-1.41549e-07,3.72925e-07,0,-6.28951e-07,-1.10343e+08,-1.10308e+08,-1.10333e+08,-43146,0.0141897,0.0542249,0,0.0560508,-16555.7,-4017.16,-0,17036.1,43146
step02_gravity_refstate-crust.xmf,1477,3.3284e-07,3.07769e-06,0,-4.24962e-06,-7.35597e+08,-7.35409e+08,-7.3562e+08,-291524,0.014975,-0.0234938,0,0.0278605,-5859.77,-26786.2,-0,27419.7,291524
step02_gravity_refstate-crust.xmf,1478,-8.5368e-08,2.92866e-06,0,-3.30538e-06,-6.58903e+08,-6.58697e+08,-6.58897e+08,-226749,0.0138564,-0.00742067,0,0.0157183,-6915.12,-23992.2,-0,24968.9,226749
step02_gravity_refstate-crust.xmf,1479,5.66895e-08,3.0523e-06,0,-3.69778e-06,-6.93336e+08,-6.9313e+08,-6.9334e+08,-253668,0.0144668,-0.0141926,0,0.0202662,-6451.38,-25246.5,-0,26057.8,253668
step02_gravity_refstate-crust.xmf,1480,1.84411e-07,3.04425e-06,0,-3.9203e-06,-7.12263e+08,-7.12066e+08,-7.12275e+08,-268933,0.014737,-0.0179388,0,0.023216,-6226.08,-25936.1,-0,26672.9,268933
step02_gravity_refstate-crust.xmf,1481,6.07953e-07,2.81473e-06,0,-4.34355e-06,-7.54914e+08,-7.54763e+08,-7.54956e+08,-297967,0.0148728,-0.0255751,0,0.0295852,-5861,-27490.2,-0,28108.1,297967
step02_gravity_refstate-crust.xmf,1482,-3.06348e-07,2.18839e-06,0,-2.15031e-06,-5.09743e+08,-5.09572e+08,-5.09722e+08,-147511,0.0110669,0.0152675,0,0.0188566,-8747.12,-18559.8,-0,20517.8,147511
step02_gravity_refstate-crust.xmf,1483,1.04179e-06,2.22932e-06,0,-4.35175e-06,-7.8956e+08,-7.89479e+08,-7.89632e+08,-298530,0.0138152,-0.0287779,0,0.0319222,-5862.2,-28752.4,-0,29343.9,298530
step02_gravity_refstate-crust.xmf,1484,1.06447e-06,2.31805e-06,0,-4.94418e-06,-8.22645e+08,-8.22559e+08,-8.22718e+08,-339171,0.0124658,-0.0409396,0,0.0427954,-5018.43,-29957.1,-0,30374.5,339171
step02_gravity_refstate-crust.xmf,1485,1.10501e-06,2.20108e-06,0,-4.58253e-06,-8.0794e+08,-8.07865e+08,-8.08016e+08,-314361,0.0131324,-0.0343401,0,0.0367655,-5478.17,-29421.8,-0,29927.4,314361
step02_gravity_refstate-crust.xmf,1486,6.61279e-07,-8.84857e-07,0,-7.94402e-06,-9.37334e+08,-9.3744e+08,-9.3738e+08,-544960,-0.00324689,-0.0727029,-0,0.0727753,-3422.5,-34125.9,-0,34297.1,544960
step02_gravity_refstate-crust.xmf,1487,1.00845e-06,1.81165e-06,0,-4.95232e-06,-8.51562e+08,-8.51507e+08,-8.51632e+08,-339729,0.00942024,-0.0445282,0,0.0455138,-4910.59,-31008.9,-0,31395.3,339729
step02_gravity_refstate-crust.xmf,1488,8.21693e-07,1.72288e-06,0,-5.36045e-06,-8.66977e+08,-8.66915e+08,-8.67033e+08,-367727,0.00759863,-0.0502048,0,0.0507766,-4580.11,-31569.1,-0,31899.7,367727
step02_gravity_refstate-crust.xmf,1489,6.07606e-07,1.58567e-06,0,-5.97693e-06,-8.81734e+08,-8.81667e+08,-8.81775e+08,-410017,0.00559127,-0.0568043,0,0.0570788,-4214.95,-32105.3,-0,32380.8,410017
step02_gravity_refstate-crust.xmf,1490,4.31921e-07,1.33488e-06,0,-6.79335e-06,-8.95608e+08,-8.95546e+08,-8.95637e+08,-466024,0.00351242,-0.0639891,0,0.0640854,-3843.1,-32609.3,-0,32835,466024
step02_gravity_refstate-crust.xmf,1491,5.13053e-07,2.42737e-08,0,-7.18342e-06,-9.2253e+08,-9.22564e+08,-9.22566e+08,-492783,-0.000961373,-0.0667989,-0,0.0668058,-3731.18,-33587.8,-0,33794.4,492783
step02_gravity_refstate-crust.xmf,1492,9.6806e-07,-5.34885e-06,0,-7.15685e-06,-1.01486e+09,-1.01529e+09,-1.01493e+09,-490960,-0.0139875,-0.0685393,-0,0.069952,-3169.6,-36942.7,-0,37078.4,490960
step02_gravity_refstate-crust.xmf,1493,1.25511e-06,-7.88369e-06,0,-7.57945e-06,-1.04289e+09,-1.04351e+09,-1.04297e+09,-519951,-0.0152434,-0.0711001,-0,0.0727158,-2612.73,-37960.2,-0,38050,519951
step02_gravity_refstate-crust.xmf,1494,1.63538e-06,-9.4087e-06,0,-7.85535e-06,-1.05638e+09,-1.05713e+09,-1.05649e+09,-538877,-0.0147827,-0.0711702,-0,0.0726892,-2331.54,-38450.5,-0,38521.1,538877
step02_gravity_refstate-crust.xmf,1495,2.3788e-06,-1.1172e-05,0,-7.91613e-06,-1.06884e+09,-1.06977e+09,-1.06901e+09,-543046,-0.013313,-0.070366,-0,0.0716143,-2051.81,-38904.6,-0,38958.7,543046
step02_gravity_refstate-crust.xmf,1496,6.08364e-06,-1.77994e-05,0,-4.81535e-06,-1.08535e+09,-1.08699e+09,-1.08577e+09,-330333,-0.00590913,-0.0735944,-0,0.0738313,-867.607,-39510.3,-0,39519.8,330333
step02_gravity_refstate-crust.xmf,1497,6.85128e-06,-1.91122e-05,0,-2.48372e-06,-1.08697e+09,-1.08875e+09,-1.08744e+09,-170383,-0.00296693,-0.0745563,-0,0.0746153,-430.872,-39570.2,-0,39572.6,170383
step02_gravity_refstate-crust.xmf,1498,-7.28337e-08,3.2969e-08,0,-1.11888e-08,-6691.92,566.147,-1695.53,-767.549,0.0209677,0.0569911,0,0.0607259,-17380,0,-0,17380,767.549
step02_gravity_refstate-crust.xmf,1499,-9.10312e-08,4.7399e-07,0,-8.17135e-07,-1.55188e+08,-1.55149e+08,-1.55182e+08,-56055.5,0.0125654,0.0538396,0,0.0552864,-16680.3,-5650.14,-0,17611.3,56055.5
step02_gravity_refstate-crust.xmf,1500,-1.10672e-07,2.7384e-06,0,-3.01457e-06,-6.32184e+08,-6.31989e+08,-6.32177e+08,-206800,0.0133621,-0.00175289,0,0.0134766,-7422.16,-23019.1,-0,24186.1,206800
step02_gravity_refstate-crust.xmf,1501,9.58638e-08,2.84259e-06,0,-3.47805e-06,-6.80714e+08,-6.80526e+08,-6.80721e+08,-238594,0.0142418,-0.00984628,0,0.0173141,-6894.78,-24786.9,-0,25727.9,238594
step02_gravity_refstate-crust.xmf,1502,9.26726e-07,2.28229e-06,0,-4.14516e-06,-7.70636e+08,-7.70543e+08,-7.707e+08,-284358,0.0142366,-0.0237571,0,0.0276962,-6220.39,-28063.1,-0,28744.2,284358
step02_gravity_refstate-crust.xmf,1503,-1.76128e-07,1.95297e-06,0,-2.09917e-06,-5.00838e+08,-5.00692e+08,-5.00826e+08,-144003,0.0111001,0.019032,0,0.0220324,-9575.33,-18235.8,-0,20596.9,144003
step02_gravity_refstate-crust.xmf,1504,-1.3149e-07,2.57149e-06,0,-2.78549e-06,-6.06958e+08,-6.06772e+08,-6.06949e+08,-191085,0.0128934,0.00300048,0,0.013238,-7866.77,-22100.4,-0,23458.7,191085
step02_gravity_refstate-crust.xmf,1505,-1.36256e-07,2.40285e-06,0,-2.59006e-06,-5.82524e+08,-5.8235e+08,-5.82515e+08,-177678,0.012454,0.00739003,0,0.0144816,-8321.42,-21210.5,-0,22784.5,177678
step02_gravity_refstate-crust.xmf,1506,-1.35114e-07,2.23118e-06,0,-2.41127e-06,-5.5697e+08,-5.56807e+08,-5.5696e+08,-165413,0.0120146,0.0116895,0,0.0167629,-8804.77,-20279.9,-0,22108.8,165413
step02_gravity_refstate-crust.xmf,1507,-1.41924e-07,2.07466e-06,0,-2.24991e-06,-5.30294e+08,-5.30142e+08,-5.30284e+08,-154344,0.0115757,0.0156547,0,0.0194696,-9258.96,-19308.5,-0,21413.7,154344
step02_gravity_refstate-crust.xmf,1508,1.12307e-06,1.87754e-06,0,-4.72363e-06,-8.37698e+08,-8.37646e+08,-8.37775e+08,-324041,0.0107938,-0.0401369,0,0.0415629,-5176.24,-30504.7,-0,30940.7,324041
step02_gravity_refstate-crust.xmf,1509,5.0152e-07,6.61883e-07,0,-6.5909e-06,-9.08832e+08,-9.08821e+08,-9.08867e+08,-452136,0.00123016,-0.0619227,0,0.0619349,-3984.87,-33090,-0,33329.1,452136
step02_gravity_refstate-crust.xmf,1510,6.72587e-07,-1.4725e-06,0,-7.13353e-06,-9.5251e+08,-9.52657e+08,-9.52556e+08,-489360,-0.00590823,-0.0665211,-0,0.0667829,-3703.93,-34677.5,-0,34874.8,489360
step02_gravity_refstate-crust.xmf,1511,7.81703e-07,-4.1567e-06,0,-6.9023e-06,-1.00098e+09,-1.00132e+09,-1.00103e+09,-473498,-0.0127169,-0.0659084,-0,0.0671241,-3461,-36438.3,-0,36602.3,473498
step02_gravity_refstate-crust.xmf,1512,6.20447e-07,-2.98773e-06,0,-6.63806e-06,-9.84303e+08,-9.8455e+08,-9.84345e+08,-455371,-0.0107512,-0.0632487,-0,0.064156,-3739.71,-35832.4,-0,36027,455371
step02_gravity_refstate-crust.xmf,1513,5.22034e-07,-5.1531e-06,0,-6.71354e-06,-1.02808e+09,-1.02847e+09,-1.02812e+09,-460549,-0.01522,-0.0631663,-0,0.0649741,-3345.43,-37422.6,-0,37571.8,460549
step02_gravity_refstate-crust.xmf,1514,5.31445e-07,-6.02515e-06,0,-6.87922e-06,-1.04121e+09,-1.04166e+09,-1.04124e+09,-471914,-0.0156981,-0.0634829,-0,0.065395,-3143.42,-37899,-0,38029.1,471914
step02_gravity_refstate-crust.xmf,1515,3.26308e-06,-1.27607e-05,0,-7.61649e-06,-1.07697e+09,-1.07807e+09,-1.0772e+09,-522491,-0.0114986,-0.070023,-0,0.0709608,-1785.33,-39201.7,-0,39242.3,522491
step02_gravity_refstate-crust.xmf,1516,4.01612e-06,-1.41928e-05,0,-6.87465e-06,-1.08487e+09,-1.08612e+09,-1.08514e+09,-471601,-0.00906059,-0.0692073,-0,0.0697979,-1477.13,-39490,-0,39517.6,471601
step02_gravity_refstate-crust.xmf,1517,-1.97982e-07,1.8391e-06,0,-1.97471e-06,-4.74595e+08,-4.74455e+08,-4.74581e+08,-135465,0.0107131,0.0218529,0,0.0243376,-9854.31,-17280.1,-0,19892.5,135465
step02_gravity_refstate-crust.xmf,1518,-1.3363e-07,1.17001e-06,0,-1.51342e-06,-3.49955e+08,-3.49866e+08,-3.49946e+08,-103821,0.00983175,0.0370808,0,0.0383621,-12535.2,-12741.7,-0,17874.1,103821
step02_gravity_refstate-crust.xmf,1519,-1.33054e-07,1.32717e-06,0,-1.63379e-06,-3.86124e+08,-3.86024e+08,-3.86115e+08,-112078,0.00995731,0.0334228,0,0.0348745,-11856.2,-14058.8,-0,18390.7,112078
step02_gravity_refstate-crust.xmf,1520,-1.33441e-07,1.48735e-06,0,-1.75584e-06,-4.20509e+08,-4.20398e+08,-4.205e+08,-120450,0.0101998,0.0296968,0,0.0313997,-11224.5,-15310.8,-0,18984.5,120450
step02_gravity_refstate-crust.xmf,1521,-1.29278e-07,1.65413e-06,0,-1.89577e-06,-4.56365e+08,-4.56242e+08,-4.56356e+08,-130050,0.0105662,0.0256562,0,0.0277468,-10620,-16616.4,-0,19720.3,130050
step02_gravity_refstate-crust.xmf,1522,-1.18572e-07,5.93285e-07,0,-9.69917e-07,-1.91102e+08,-1.91053e+08,-1.91094e+08,-66536.3,0.0115132,0.0509588,0,0.0522432,-15812.9,-6957.71,-0,17275.9,66536.3
step02_gravity_refstate-crust.xmf,1523,-1.29533e-07,7.31918e-07,0,-1.12867e-06,-2.33455e+08,-2.33396e+08,-2.33446e+08,-77426.8,0.0106367,0.0476135,0,0.0487872,-14913.5,-8499.78,-0,17165.6,77426.8
step02_gravity_refstate-crust.xmf,1524,-1.3001e-07,8.74343e-07,0,-1.27082e-06,-2.75072e+08,-2.75003e+08,-2.75063e+08,-87178.2,0.01011,0.0441777,0,0.0453198,-14079.6,-10015.1,-0,17278.2,87178.2
step02_gravity_refstate-crust.xmf,1525,-1.33557e-07,1.02017e-06,0,-1.39473e-06,-3.1302e+08,-3.12941e+08,-3.13011e+08,-95678.5,0.0098674,0.0406265,0,0.0418076,-13263.5,-11396.8,-0,17487.4,95678.5
step02_gravity_refstate-crust.xmf,1526,1.62863e-08,1.97239e-07,0,-4.12525e-07,-6.97945e+07,-6.9782e+07,-6.97956e+07,-28299.2,0.0162852,0.0589277,0,0.0611365,-18357,-2541.31,-0,18532.1,28299.2
step02_gravity_refstate-crust.xmf,1527,1.27685e-08,3.83382e-07,0,-7.27781e-07,-1.40282e+08,-1.40256e+08,-1.40283e+08,-49925.7,0.0131189,0.057552,0,0.0590283,-18093.5,-5107.75,-0,18800.6,49925.7
step02_gravity_refstate-crust.xmf,1528,7.6097e-07,2.38516e-06,0,-3.97584e-06,-7.50102e+08,-7.49991e+08,-7.50155e+08,-272742,0.0145065,-0.0194954,0,0.0243003,-6503.97,-27315,-0,28078.7,272742
step02_gravity_refstate-crust.xmf,1529,2.15285e-07,2.3852e-06,0,-3.06767e-06,-6.54516e+08,-6.54367e+08,-6.54531e+08,-210442,0.0137154,-0.000812746,0,0.0137395,-7961.13,-23832.9,-0,25127.4,210442
step02_gravity_refstate-crust.xmf,1530,3.96381e-07,2.53082e-06,0,-3.55114e-06,-7.01849e+08,-7.01703e+08,-7.01877e+08,-243608,0.0144041,-0.0104673,0,0.0178057,-7110.33,-25557.1,-0,26527.7,243608
step02_gravity_refstate-crust.xmf,1531,3.07395e-07,2.44634e-06,0,-3.28671e-06,-6.78494e+08,-6.78347e+08,-6.78515e+08,-225469,0.0140766,-0.00524063,0,0.0150205,-7578.23,-24706.3,-0,25842.4,225469
step02_gravity_refstate-crust.xmf,1532,6.09574e-07,2.43492e-06,0,-3.77743e-06,-7.298e+08,-7.29675e+08,-7.29842e+08,-259132,0.0145381,-0.0152184,0,0.0210465,-6810.6,-26575.3,-0,27434.2,259132
step02_gravity_refstate-crust.xmf,1533,1.16444e-06,1.7682e-06,0,-3.83366e-06,-7.88393e+08,-7.88352e+08,-7.88473e+08,-262989,0.0130403,-0.0213944,0,0.0250554,-6620.26,-28709.7,-0,29463.1,262989
step02_gravity_refstate-crust.xmf,1534,1.2316e-06,1.68285e-06,0,-3.97996e-06,-8.08002e+08,-8.07971e+08,-8.08086e+08,-273025,0.0122323,-0.026246,0,0.0289565,-6245.03,-29423.7,-0,30079.1,273025
step02_gravity_refstate-crust.xmf,1535,1.22523e-06,1.62433e-06,0,-4.21081e-06,-8.28248e+08,-8.2822e+08,-8.28332e+08,-288861,0.01107,-0.0324078,0,0.0342463,-5779.66,-30160.7,-0,30709.4,288861
step02_gravity_refstate-crust.xmf,1536,1.14288e-06,1.42225e-06,0,-4.28327e-06,-8.49131e+08,-8.49112e+08,-8.4921e+08,-293832,0.00902339,-0.0360733,0,0.0371847,-5565.13,-30920.3,-0,31417.1,293832
step02_gravity_refstate-crust.xmf,1537,5.31372e-07,-6.15299e-07,0,-6.48964e-06,-9.36651e+08,-9.36729e+08,-9.36687e+08,-445189,-0.00349307,-0.0612002,-0,0.0612998,-4028.71,-34100.9,-0,34338,445189
step02_gravity_refstate-crust.xmf,1538,9.90595e-07,1.28929e-06,0,-4.53023e-06,-8.66337e+08,-8.66316e+08,-8.66405e+08,-310774,0.00707822,-0.0407862,0,0.0413959,-5257.14,-31545.9,-0,31980.9,310774
step02_gravity_refstate-crust.xmf,1539,8.01658e-07,1.10712e-06,0,-4.93316e-06,-8.83002e+08,-8.82981e+08,-8.83057e+08,-338414,0.00490338,-0.046289,0,0.046548,-4907.78,-32151.5,-0,32524,338414
step02_gravity_refstate-crust.xmf,1540,6.07346e-07,7.65742e-07,0,-5.57339e-06,-9.00838e+08,-9.00827e+08,-9.0088e+08,-382334,0.00229614,-0.0530789,0,0.0531285,-4498.28,-32799.6,-0,33106.6,382334
step02_gravity_refstate-crust.xmf,1541,5.18516e-07,1.18416e-07,0,-5.94438e-06,-9.20263e+08,-9.2029e+08,-9.20298e+08,-407784,-0.000873451,-0.0564859,-0,0.0564927,-4310.33,-33505.4,-0,33781.5,407784
step02_gravity_refstate-crust.xmf,1542,4.87597e-07,-1.95971e-06,0,-6.26639e-06,-9.68224e+08,-9.68392e+08,-9.68258e+08,-429874,-0.00857236,-0.0597158,-0,0.0603279,-4030.99,-35248.1,-0,35477.8,429874
step02_gravity_refstate-crust.xmf,1543,2.10049e-07,-3.88733e-06,0,-6.16155e-06,-1.01828e+09,-1.01856e+09,-1.0183e+09,-422682,-0.0146614,-0.0582612,-0,0.0600776,-3782.33,-37066.4,-0,37258.9,422682
step02_gravity_refstate-crust.xmf,1544,1.34958e-08,-4.37815e-06,0,-6.18549e-06,-1.0375e+09,-1.03781e+09,-1.03751e+09,-424325,-0.0157692,-0.0559037,-0,0.0580852,-3742.8,-37764.7,-0,37949.7,424325
step02_gravity_refstate-crust.xmf,1545,7.48996e-07,-7.22924e-06,0,-7.2136e-06,-1.05604e+09,-1.05659e+09,-1.0561e+09,-494853,-0.0154404,-0.0637767,-0,0.0656192,-2865.82,-38438.2,-0,38544.9,494853
step02_gravity_refstate-crust.xmf,1546,1.27464e-06,-8.62356e-06,0,-7.47833e-06,-1.07035e+09,-1.07103e+09,-1.07044e+09,-513013,-0.0141217,-0.0631642,-0,0.0647236,-2589.35,-38959.1,-0,39045,513013
step02_gravity_refstate-crust.xmf,1547,2.44465e-06,-1.1019e-05,0,-7.4134e-06,-1.08457e+09,-1.08549e+09,-1.08473e+09,-508559,-0.0110941,-0.0635586,-0,0.0645196,-2089.75,-39477.5,-0,39532.8,508559
step02_gravity_refstate-crust.xmf,1548,-4.13392e-08,1.709e-06,0,-2.03018e-06,-4.92227e+08,-4.92107e+08,-4.92225e+08,-139270,0.0110719,0.0233171,0,0.0258123,-10581.2,-17922.5,-0,20812.9,139270
step02_gravity_refstate-crust.xmf,1549,5.69075e-09,5.13952e-07,0,-9.22259e-07,-1.8899e+08,-1.88955e+08,-1.8899e+08,-63266.9,0.0116574,0.0552949,0,0.0565103,-17503.5,-6881.18,-0,18807.5,63266.9
step02_gravity_refstate-crust.xmf,1550,2.17272e-07,-7.9714e-08,0,-8.91093e-09,20755.5,382.227,5850.61,-611.29,0.0208209,0.0618756,0,0.0652848,-19595.1,0,-0,19595.1,611.29
step02_gravity_refstate-crust.xmf,1551,1.53024e-07,2.28626e-06,0,-2.85371e-06,-6.29892e+08,-6.29746e+08,-6.29903e+08,-195764,0.0133007,0.00372401,0,0.0138122,-8401.92,-22936,-0,24426.5,195764
step02_gravity_refstate-crust.xmf,1552,1.05363e-06,1.85524e-06,0,-3.69416e-06,-7.68183e+08,-7.68128e+08,-7.68255e+08,-253419,0.0135707,-0.0168722,0,0.0216526,-6980.37,-27973.6,-0,28831.4,253419
step02_gravity_refstate-crust.xmf,1553,2.25207e-08,1.79554e-06,0,-2.17097e-06,-5.24747e+08,-5.24626e+08,-5.24749e+08,-148929,0.0115453,0.0202078,0,0.0232734,-10309.6,-19106.8,-0,21710.8,148929
step02_gravity_refstate-crust.xmf,1554,1.09225e-07,2.17648e-06,0,-2.66526e-06,-6.05673e+08,-6.05531e+08,-6.0568e+08,-182837,0.0128811,0.00795395,0,0.015139,-8845.89,-22053.9,-0,23761.9,182837
step02_gravity_refstate-crust.xmf,1555,8.69304e-08,2.04496e-06,0,-2.49128e-06,-5.81241e+08,-5.81106e+08,-5.81247e+08,-170902,0.0124566,0.0121811,0,0.0174226,-9344.11,-21164.2,-0,23135.1,170902
step02_gravity_refstate-crust.xmf,1556,6.40351e-08,1.91233e-06,0,-2.32778e-06,-5.54917e+08,-5.5479e+08,-5.54921e+08,-159685,0.0120161,0.0163372,0,0.0202803,-9859.73,-20205.5,-0,22482.8,159685
step02_gravity_refstate-crust.xmf,1557,4.14129e-07,-9.73829e-07,0,-5.81447e-06,-9.51769e+08,-9.51864e+08,-9.51797e+08,-398872,-0.00613087,-0.0555803,-0,0.0559174,-4334.94,-34650.3,-0,34920.4,398872
step02_gravity_refstate-crust.xmf,1558,1.96411e-07,-2.88072e-06,0,-5.88486e-06,-1.00008e+09,-1.0003e+09,-1.0001e+09,-403701,-0.0129093,-0.0562348,-0,0.0576975,-4071.03,-36405.4,-0,36632.3,403701
step02_gravity_refstate-crust.xmf,1559,1.59072e-07,-2.06182e-06,0,-5.52583e-06,-9.84247e+08,-9.84399e+08,-9.84258e+08,-379072,-0.0109905,-0.053113,-0,0.0542382,-4375.62,-35829.9,-0,36096.1,379072
step02_gravity_refstate-crust.xmf,1560,1.31011e-07,-5.45586e-06,0,-6.60239e-06,-1.05409e+09,-1.05447e+09,-1.0541e+09,-452924,-0.0157727,-0.056965,-0,0.0591083,-3428.59,-38367.3,-0,38520.2,452924
step02_gravity_refstate-crust.xmf,1561,-1.25111e-08,1.02163e-06,0,-1.47687e-06,-3.47451e+08,-3.4738e+08,-3.4745e+08,-101313,0.00993262,0.0414633,0,0.0426364,-14003,-12650.8,-0,18871.3,101313
step02_gravity_refstate-crust.xmf,1562,-4.31694e-10,1.1497e-06,0,-1.59428e-06,-3.83335e+08,-3.83256e+08,-3.83335e+08,-109368,0.010036,0.0379742,0,0.039278,-13307.5,-13957.5,-0,19284.7,109368
step02_gravity_refstate-crust.xmf,1563,1.32264e-08,1.28715e-06,0,-1.71809e-06,-4.19339e+08,-4.19252e+08,-4.1934e+08,-117861,0.0102719,0.0341964,0,0.0357058,-12608.9,-15268.5,-0,19801.8,117861
step02_gravity_refstate-crust.xmf,1564,2.87905e-08,1.41773e-06,0,-1.83967e-06,-4.52347e+08,-4.52252e+08,-4.52349e+08,-126202,0.0105865,0.0305245,0,0.0323082,-11986.8,-16470.5,-0,20370.6,126202
step02_gravity_refstate-crust.xmf,1565,-3.36816e-09,6.36753e-07,0,-1.0837e-06,-2.32036e+08,-2.31993e+08,-2.32036e+08,-74342,0.0107748,0.0522835,0,0.0533822,-16680.1,-8448.49,-0,18697.7,74342
step02_gravity_refstate-crust.xmf,1566,-3.2407e-09,7.63544e-07,0,-1.23278e-06,-2.74786e+08,-2.74733e+08,-2.74786e+08,-84568.7,0.0102271,0.0488891,0,0.0499473,-15811.7,-10005,-0,18711.3,84568.7
step02_gravity_refstate-crust.xmf,1567,-8.43192e-09,8.94589e-07,0,-1.36437e-06,-3.13201e+08,-3.13139e+08,-3.132e+08,-93596,0.0099804,0.045057,0,0.0461492,-14841.9,-11403.7,-0,18717,93596
step02_gravity_refstate-crust.xmf,1568,2.60448e-07,7.80749e-08,0,-3.32662e-07,-6.13082e+07,-6.13207e+07,-6.13261e+07,-22820.6,0.0164203,0.0644591,0,0.0665177,-20776.9,-2233.16,-0,20896.6,22820.6
step02_gravity_refstate-crust.xmf,1569,1.53939e-07,2.77886e-07,0,-6.15054e-07,-1.22865e+08,-1.22857e+08,-1.22876e+08,-42192.7,0.0136265,0.0621206,0,0.0635976,-19922,-4474.08,-0,20418.2,42192.7
step02_gravity_refstate-crust.xmf,1570,1.19735e-07,4.3174e-07,0,-8.40568e-07,-1.80526e+08,-1.80505e+08,-1.80534e+08,-57663,0.0117705,0.0597071,0,0.0608563,-19222.4,-6573.38,-0,20315.3,57663
step02_gravity_refstate-crust.xmf,1571,4.82313e-07,-1.81155e-07,0,-7.15945e-09,45895.5,381.603,12808.8,-491.138,0.0200354,0.066674,0,0.0696193,-21869,0,-0,21869,491.138
step02_gravity_refstate-crust.xmf,1572,9.17456e-07,1.93819e-06,0,-3.55216e-06,-7.47009e+08,-7.46939e+08,-7.47072e+08,-243678,0.0138797,-0.0125863,0,0.0187366,-7326.9,-27202.3,-0,28171.8,243678
step02_gravity_refstate-crust.xmf,1573,4.28277e-07,1.97951e-06,0,-2.84256e-06,-6.52515e+08,-6.52409e+08,-6.52544e+08,-194999,0.0133817,0.00487163,0,0.0142409,-8939.11,-23760.3,-0,25386.2,194999
step02_gravity_refstate-crust.xmf,1574,5.22097e-07,2.01663e-06,0,-3.02167e-06,-6.76512e+08,-6.7641e+08,-6.76548e+08,-207286,0.0136786,0.000657305,0,0.0136944,-8510.89,-24634.3,-0,26063.1,207286
step02_gravity_refstate-crust.xmf,1575,6.34394e-07,2.03045e-06,0,-3.20953e-06,-7.00374e+08,-7.00279e+08,-7.00418e+08,-220173,0.0139004,-0.0037679,0,0.014402,-8085.82,-25503.5,-0,26754.6,220173
step02_gravity_refstate-crust.xmf,1576,7.67436e-07,2.00753e-06,0,-3.39384e-06,-7.24054e+08,-7.23969e+08,-7.24107e+08,-232817,0.0139908,-0.00826264,0,0.0162485,-7684.04,-26366.1,-0,27463,232817
step02_gravity_refstate-crust.xmf,1577,1.22047e-06,1.43077e-06,0,-3.3596e-06,-7.86936e+08,-7.86922e+08,-7.8702e+08,-230468,0.0121601,-0.0142487,0,0.0187322,-7427.46,-28656.3,-0,29603.3,230468
step02_gravity_refstate-crust.xmf,1578,1.27487e-06,1.33899e-06,0,-3.44895e-06,-8.07033e+08,-8.07028e+08,-8.0712e+08,-236598,0.0112941,-0.0185272,0,0.0216982,-7051.98,-29388.1,-0,30222.3,236598
step02_gravity_refstate-crust.xmf,1579,1.27451e-06,1.2448e-06,0,-3.54594e-06,-8.26681e+08,-8.26683e+08,-8.26769e+08,-243252,0.0100968,-0.0229546,0,0.0250771,-6679.35,-30103.2,-0,30835.4,243252
step02_gravity_refstate-crust.xmf,1580,1.20439e-06,1.14558e-06,0,-3.67518e-06,-8.46067e+08,-8.46071e+08,-8.46149e+08,-252118,0.00852046,-0.0276124,0,0.0288971,-6304.81,-30808.5,-0,31447.1,252118
step02_gravity_refstate-crust.xmf,1581,1.06939e-06,1.01641e-06,0,-3.82785e-06,-8.64675e+08,-8.64679e+08,-8.64748e+08,-262590,0.00656245,-0.0319133,0,0.032581,-5981.17,-31485.3,-0,32048.3,262590
step02_gravity_refstate-crust.xmf,1582,4.23485e-07,-3.47924e-07,0,-5.28315e-06,-9.35356e+08,-9.35409e+08,-9.35386e+08,-362424,-0.00358401,-0.0506275,-0,0.0507542,-4675.8,-34053.8,-0,34373.3,362424
step02_gravity_refstate-crust.xmf,1583,8.90898e-07,8.56291e-07,0,-4.08188e-06,-8.82299e+08,-8.82301e+08,-8.8236e+08,-280017,0.00439478,-0.0366145,0,0.0368773,-5636.92,-32125.9,-0,32616.7,280017
step02_gravity_refstate-crust.xmf,1584,6.98259e-07,6.08882e-07,0,-4.44659e-06,-8.99681e+08,-8.99687e+08,-8.99729e+08,-305036,0.00197265,-0.0416376,0,0.0416843,-5284.02,-32757.5,-0,33181,305036
step02_gravity_refstate-crust.xmf,1585,5.28375e-07,2.19848e-07,0,-4.86561e-06,-9.1735e+08,-9.17371e+08,-9.17386e+08,-333781,-0.000724237,-0.0464245,-0,0.0464301,-4960.33,-33399.5,-0,33765.8,333781
step02_gravity_refstate-crust.xmf,1586,1.67898e-07,-1.27675e-06,0,-5.1721e-06,-9.67638e+08,-9.67737e+08,-9.67649e+08,-354806,-0.00869668,-0.0496279,-0,0.0503841,-4680.92,-35226.5,-0,35536.2,354806
step02_gravity_refstate-crust.xmf,1587,-1.80461e-07,-2.79994e-06,0,-5.45023e-06,-1.01461e+09,-1.01479e+09,-1.0146e+09,-373886,-0.0143682,-0.0510235,-0,0.0530079,-4333.05,-36933,-0,37186.3,373886
step02_gravity_refstate-crust.xmf,1588,-3.60114e-07,-3.16832e-06,0,-5.55006e-06,-1.03336e+09,-1.03356e+09,-1.03334e+09,-380734,-0.0155326,-0.0493661,-0,0.0517521,-4303.28,-37614.3,-0,37859.6,380734
step02_gravity_refstate-crust.xmf,1589,-2.60784e-07,-4.04416e-06,0,-6.01861e-06,-1.05178e+09,-1.05204e+09,-1.05176e+09,-412877,-0.0158036,-0.0504499,-0,0.0528673,-4007.85,-38283.8,-0,38493,412877
step02_gravity_refstate-crust.xmf,1590,5.35883e-07,-6.69361e-06,0,-7.03032e-06,-1.06964e+09,-1.07014e+09,-1.06968e+09,-482280,-0.0146749,-0.0572669,-0,0.0591173,-3113.52,-38933.2,-0,39057.5,482280
step02_gravity_refstate-crust.xmf,1591,1.24658e-06,-8.223e-06,0,-7.37124e-06,-1.08502e+09,-1.08567e+09,-1.0851e+09,-505667,-0.0121866,-0.0570221,-0,0.0583098,-2739.67,-39493.5,-0,39588.4,505667
step02_gravity_refstate-crust.xmf,1592,5.36462e-08,1.51887e-06,0,-1.949e-06,-4.8083e+08,-4.80729e+08,-4.80833e+08,-133701,0.0109171,0.0274506,0,0.0295418,-11540,-17507.7,-0,20968.8,133701
step02_gravity_refstate-crust.xmf,1593,1.72424e-07,1.52442e-06,0,-2.05191e-06,-5.1599e+08,-5.15898e+08,-5.16002e+08,-140761,0.0113087,0.0256786,0,0.0280585,-11588,-18788.2,-0,22074.4,140761
step02_gravity_refstate-crust.xmf,1594,7.88135e-08,9.10169e-07,0,-1.4257e-06,-3.45842e+08,-3.45785e+08,-3.45847e+08,-97802.9,0.00989051,0.0452747,0,0.0463424,-15294.8,-12592.4,-0,19811.6,97802.9
step02_gravity_refstate-crust.xmf,1595,1.08563e-07,5.53113e-07,0,-1.01219e-06,-2.28329e+08,-2.28299e+08,-2.28337e+08,-69436.6,0.0107456,0.0569566,0,0.0579614,-18461.2,-8313.85,-0,20246.9,69436.6
step02_gravity_refstate-crust.xmf,1596,4.69842e-07,-1.3604e-08,0,-2.74262e-07,-5.6973e+07,-5.70062e+07,-5.70053e+07,-18814.4,0.0158406,0.0692217,0,0.071011,-23020.5,-2076.04,-0,23113.9,18814.4
step02_gravity_refstate-crust.xmf,1597,7.18808e-07,-2.7115e-07,0,-6.46837e-09,68350.1,438.888,19039.8,-443.731,0.0186377,0.0712485,0,0.0736459,-24208.2,0,-0,24208.2,443.731
step02_gravity_refstate-crust.xmf,1598,3.49845e-07,1.93237e-06,0,-2.68109e-06,-6.28672e+08,-6.28564e+08,-6.28696e+08,-183923,0.0130483,0.00875553,0,0.0157136,-9349.63,-22891.9,-0,24727.6,183923
step02_gravity_refstate-crust.xmf,1599,1.1278e-06,1.51836e-06,0,-3.2652e-06,-7.66064e+08,-7.66037e+08,-7.66141e+08,-223993,0.0127546,-0.0100749,0,0.0162537,-7806.73,-27896.2,-0,28968,223993
step02_gravity_refstate-crust.xmf,1600,2.34584e-07,1.62408e-06,0,-2.20842e-06,-5.52668e+08,-5.52572e+08,-5.52684e+08,-151497,0.0118127,0.0213381,0,0.0243897,-11022.2,-20123.9,-0,22944.7,151497
step02_gravity_refstate-crust.xmf,1601,2.96489e-07,1.86127e-06,0,-2.52958e-06,-6.04677e+08,-6.04569e+08,-6.04697e+08,-173529,0.0126782,0.0126227,0,0.0178905,-9797.26,-22017.9,-0,24099.3,173529
step02_gravity_refstate-crust.xmf,1602,2.81705e-07,1.72612e-06,0,-2.36261e-06,-5.81762e+08,-5.81663e+08,-5.81782e+08,-162075,0.0122585,0.0171277,0,0.0210625,-10452.2,-21183.5,-0,23621.7,162075
step02_gravity_refstate-crust.xmf,1603,1.84994e-07,-5.64193e-07,0,-4.62427e-06,-9.52242e+08,-9.52294e+08,-9.52255e+08,-317225,-0.00643446,-0.0442863,-0,0.0447513,-5097.74,-34667.2,-0,35040,317225
step02_gravity_refstate-crust.xmf,1604,-1.94917e-07,-2.02448e-06,0,-5.10299e-06,-1.00134e+09,-1.00147e+09,-1.00133e+09,-350065,-0.0130493,-0.0479911,-0,0.0497336,-4650.69,-36450.9,-0,36746.4,350065
step02_gravity_refstate-crust.xmf,1605,-1.90518e-07,-1.2458e-06,0,-4.61554e-06,-9.85342e+08,-9.85414e+08,-9.85328e+08,-316626,-0.0111213,-0.0435206,-0,0.0449191,-5070.67,-35869.6,-0,36226.3,316626
step02_gravity_refstate-crust.xmf,1606,-4.33001e-09,-5.0497e-06,0,-6.50466e-06,-1.06831e+09,-1.06866e+09,-1.06831e+09,-446220,-0.0149708,-0.0511395,-0,0.0532858,-3698.15,-38885.1,-0,39060.6,446220
step02_gravity_refstate-crust.xmf,1607,1.06295e-07,9.98303e-07,0,-1.52455e-06,-3.78776e+08,-3.78715e+08,-3.78783e+08,-104584,0.00994249,0.0426238,0,0.0437681,-14784,-13791.7,-0,20218.3,104584
step02_gravity_refstate-crust.xmf,1608,1.36949e-07,1.11118e-06,0,-1.64639e-06,-4.17188e+08,-4.17122e+08,-4.17198e+08,-112942,0.0101474,0.0389857,0,0.0402846,-14081.7,-15190.4,-0,20713.3,112942
step02_gravity_refstate-crust.xmf,1609,1.65308e-07,1.22885e-06,0,-1.77153e-06,-4.53727e+08,-4.53654e+08,-4.53738e+08,-121527,0.0104669,0.0350208,0,0.0365515,-13340.4,-16521,-0,21234.6,121527
step02_gravity_refstate-crust.xmf,1610,1.92347e-07,1.34166e-06,0,-1.89542e-06,-4.86438e+08,-4.8636e+08,-4.86452e+08,-130026,0.0108382,0.0310919,0,0.0329268,-12644,-17712.1,-0,21762.1,130026
step02_gravity_refstate-crust.xmf,1611,1.10171e-07,6.67649e-07,0,-1.16475e-06,-2.73774e+08,-2.73736e+08,-2.73781e+08,-79901.8,0.0101408,0.0537517,0,0.0547,-17614.2,-9968.49,-0,20239.4,79901.8
step02_gravity_refstate-crust.xmf,1612,1.22006e-07,7.89581e-07,0,-1.31732e-06,-3.21284e+08,-3.21239e+08,-3.21293e+08,-90368.1,0.00984289,0.0498247,0,0.0507876,-16631.3,-11698.4,-0,20333.5,90368.1
step02_gravity_refstate-crust.xmf,1613,3.14123e-07,1.91803e-07,0,-5.26023e-07,-1.14596e+08,-1.14604e+08,-1.14618e+08,-36085.2,0.0134873,0.066779,0,0.0681274,-21952.7,-4173.55,-0,22346,36085.2
step02_gravity_refstate-crust.xmf,1614,2.38093e-07,3.51711e-07,0,-7.42235e-07,-1.70254e+08,-1.70246e+08,-1.7027e+08,-50917.3,0.0117359,0.0642472,0,0.0653103,-21071.7,-6199.77,-0,21964.8,50917.3
step02_gravity_refstate-crust.xmf,1615,2.09511e-07,4.79324e-07,0,-9.20514e-07,-2.22035e+08,-2.22017e+08,-2.2205e+08,-63147.2,0.010583,0.0615766,0,0.0624794,-20274.1,-8085.01,-0,21826.7,63147.2
step02_gravity_refstate-crust.xmf,1616,6.56272e-07,-8.55205e-08,0,-2.30237e-07,-5.6706e+07,-5.67569e+07,-5.6751e+07,-15794.3,0.0145441,0.0737174,0,0.0751385,-25351.9,-2066.96,-0,25436,15794.3
step02_gravity_refstate-crust.xmf,1617,1.01376e-06,1.59425e-06,0,-3.15993e-06,-7.44386e+08,-7.44346e+08,-7.44455e+08,-216772,0.0131159,-0.0059892,0,0.0144187,-8190.15,-27106.7,-0,28317,216772
step02_gravity_refstate-crust.xmf,1618,5.73322e-07,1.67288e-06,0,-2.62389e-06,-6.50876e+08,-6.508e+08,-6.50915e+08,-179999,0.012905,0.0100511,0,0.0163574,-9881.3,-23700.7,-0,25678.1,179999
step02_gravity_refstate-crust.xmf,1619,6.75766e-07,1.67329e-06,0,-2.75319e-06,-6.75409e+08,-6.7534e+08,-6.75455e+08,-188869,0.0130995,0.0063635,0,0.0145634,-9479.68,-24594.2,-0,26357.9,188869
step02_gravity_refstate-crust.xmf,1620,7.81528e-07,1.67057e-06,0,-2.89676e-06,-6.99157e+08,-6.99096e+08,-6.99211e+08,-198718,0.0132405,0.00227413,0,0.0134344,-9030.44,-25459.3,-0,27013.4,198718
step02_gravity_refstate-crust.xmf,1621,8.96037e-07,1.64401e-06,0,-3.03382e-06,-7.22188e+08,-7.22137e+08,-7.2225e+08,-208120,0.0132571,-0.00184981,0,0.0133856,-8600.98,-26298.2,-0,27668.9,208120
step02_gravity_refstate-crust.xmf,1622,1.22898e-06,1.18966e-06,0,-2.93962e-06,-7.86043e+08,-7.86046e+08,-7.86127e+08,-201658,0.011194,-0.00760925,0,0.0135354,-8259.66,-28623.5,-0,29791.4,201658
step02_gravity_refstate-crust.xmf,1623,1.26682e-06,1.10657e-06,0,-2.99179e-06,-8.06472e+08,-8.06483e+08,-8.06559e+08,-205237,0.010297,-0.0115186,0,0.0154501,-7870.42,-29367.3,-0,30403.6,205237
step02_gravity_refstate-crust.xmf,1624,1.25824e-06,1.0274e-06,0,-3.05501e-06,-8.26018e+08,-8.26034e+08,-8.26104e+08,-209574,0.00914752,-0.0155775,0,0.0180647,-7478.47,-30078.7,-0,30994.4,209574
step02_gravity_refstate-crust.xmf,1625,1.19743e-06,9.54544e-07,0,-3.14859e-06,-8.44685e+08,-8.44702e+08,-8.44767e+08,-215993,0.00774427,-0.0198443,0,0.0213019,-7081.15,-30757.9,-0,31562.5,215993
step02_gravity_refstate-crust.xmf,1626,1.07873e-06,8.53071e-07,0,-3.2575e-06,-8.63361e+08,-8.63376e+08,-8.63435e+08,-223464,0.00593856,-0.0239398,0,0.0246653,-6723.19,-31437.2,-0,32148.1,223464
step02_gravity_refstate-crust.xmf,1627,9.04516e-07,7.17863e-07,0,-3.39853e-06,-8.81671e+08,-8.81683e+08,-8.81733e+08,-233139,0.00380513,-0.0278692,0,0.0281277,-6396.54,-32102.9,-0,32733.9,233139
step02_gravity_refstate-crust.xmf,1628,3.3165e-07,-8.14897e-08,0,-4.29667e-06,-9.33849e+08,-9.33878e+08,-9.33872e+08,-294752,-0.00360395,-0.0407903,-0,0.0409492,-5375.43,-33998.9,-0,34421.2,294752
step02_gravity_refstate-crust.xmf,1629,7.06969e-07,5.38406e-07,0,-3.63376e-06,-8.99388e+08,-8.994e+08,-8.99437e+08,-249276,0.00148531,-0.0322156,0,0.0322498,-6043.76,-32746.8,-0,33299.9,249276
step02_gravity_refstate-crust.xmf,1630,5.05062e-07,2.78389e-07,0,-3.92577e-06,-9.16885e+08,-9.16901e+08,-9.1692e+08,-269308,-0.00103856,-0.0364237,-0,0.0364385,-5713.72,-33382.6,-0,33868,269308
step02_gravity_refstate-crust.xmf,1631,-3.18524e-08,-8.16631e-07,0,-4.45423e-06,-9.68553e+08,-9.68607e+08,-9.68551e+08,-305560,-0.00886651,-0.0421304,-0,0.0430533,-5229.73,-35259.7,-0,35645.5,305560
step02_gravity_refstate-crust.xmf,1632,-4.98888e-07,-2.11346e-06,0,-4.94075e-06,-1.02023e+09,-1.02035e+09,-1.0202e+09,-338936,-0.0146163,-0.0441079,-0,0.0464666,-4847.5,-37137.4,-0,37452.4,338936
step02_gravity_refstate-crust.xmf,1633,-5.64065e-07,-2.88785e-06,0,-5.45819e-06,-1.05081e+09,-1.05097e+09,-1.05077e+09,-374432,-0.0155669,-0.0437869,-0,0.0464717,-4626.87,-38248.9,-0,38527.7,374432
step02_gravity_refstate-crust.xmf,1634,-3.18298e-07,-3.73124e-06,0,-5.98336e-06,-1.06705e+09,-1.06728e+09,-1.06702e+09,-410459,-0.0149851,-0.0450886,-0,0.0475135,-4307.28,-38839.8,-0,39077.9,410459
step02_gravity_refstate-crust.xmf,1635,5.43273e-07,-6.25479e-06,0,-6.97373e-06,-1.08407e+09,-1.08453e+09,-1.0841e+09,-478398,-0.0129184,-0.051264,-0,0.0528666,-3363.23,-39459,-0,39602.1,478398
step02_gravity_refstate-crust.xmf,1636,3.70976e-07,1.38511e-06,0,-2.07042e-06,-5.5186e+08,-5.5179e+08,-5.51885e+08,-142031,0.0114398,0.0262867,0,0.0286681,-12233.4,-20094.7,-0,23525.5,142031
step02_gravity_refstate-crust.xmf,1637,1.74803e-07,8.71139e-07,0,-1.42537e-06,-3.65724e+08,-3.65676e+08,-3.65736e+08,-97780.6,0.00973647,0.0474146,0,0.0484039,-16256.7,-13316.6,-0,21014.6,97780.6
step02_gravity_refstate-crust.xmf,1638,2.05383e-07,5.89166e-07,0,-1.07376e-06,-2.70501e+08,-2.70474e+08,-2.70515e+08,-73660.2,0.00989416,0.0585756,0,0.0594053,-19443.8,-9849.58,-0,21796.2,73660.2
step02_gravity_refstate-crust.xmf,1639,4.60057e-07,1.21244e-07,0,-4.46712e-07,-1.09337e+08,-1.0936e+08,-1.09369e+08,-30644.5,0.0129226,0.0710262,0,0.0721922,-23964.4,-3982.57,-0,24293.1,30644.5
step02_gravity_refstate-crust.xmf,1640,9.21656e-07,-3.47134e-07,0,-7.72177e-09,87661.2,622.145,24435.6,-529.713,0.0166603,0.0754652,0,0.0772823,-26619.5,0,-0,26619.5,529.713
step02_gravity_refstate-crust.xmf,1641,4.88254e-07,1.66874e-06,0,-2.51973e-06,-6.29075e+08,-6.28994e+08,-6.29109e+08,-172854,0.0127022,0.0129364,0,0.01813,-10186,-22906.7,-0,25069.3,172854
step02_gravity_refstate-crust.xmf,1642,1.15768e-06,1.26351e-06,0,-2.87244e-06,-7.65062e+08,-7.65054e+08,-7.65141e+08,-197049,0.0118079,-0.00364308,0,0.0123572,-8673.91,-27859.5,-0,29178.5,197049
step02_gravity_refstate-crust.xmf,1643,4.39075e-07,1.4448e-06,0,-2.19572e-06,-5.8286e+08,-5.82791e+08,-5.8289e+08,-150626,0.0118287,0.0223578,0,0.025294,-11668,-21223.6,-0,24219.5,150626
step02_gravity_refstate-crust.xmf,1644,5.17451e-07,1.4989e-06,0,-2.34185e-06,-6.14079e+08,-6.14012e+08,-6.14114e+08,-160651,0.0122282,0.0179228,0,0.0216969,-11047.9,-22360.6,-0,24941,160651
step02_gravity_refstate-crust.xmf,1645,-6.84254e-08,-4.13587e-07,0,-3.91189e-06,-9.62354e+08,-9.62378e+08,-9.62349e+08,-268356,-0.00796595,-0.0363303,-0,0.0371934,-5714.45,-35034.5,-0,35497.5,268356
step02_gravity_refstate-crust.xmf,1646,-4.48571e-07,-1.44218e-06,0,-4.53875e-06,-1.0038e+09,-1.00387e+09,-1.00377e+09,-311358,-0.0131208,-0.0411362,-0,0.043178,-5191.24,-36540.2,-0,36907.2,311358
step02_gravity_refstate-crust.xmf,1647,-2.43067e-07,-7.13044e-07,0,-4.04636e-06,-9.77289e+08,-9.77321e+08,-9.77272e+08,-277580,-0.00999236,-0.0375373,-0,0.0388445,-5585.75,-35577.1,-0,36012.9,277580
step02_gravity_refstate-crust.xmf,1648,-6.78396e-07,-2.09154e-06,0,-4.93367e-06,-1.03557e+09,-1.03566e+09,-1.03552e+09,-338450,-0.0152337,-0.0410556,-0,0.0437908,-5016.09,-37694.8,-0,38027.1,338450
step02_gravity_refstate-crust.xmf,1649,9.30216e-08,-4.70864e-06,0,-6.4932e-06,-1.0832e+09,-1.08353e+09,-1.08321e+09,-445434,-0.0132736,-0.0455697,-0,0.0474636,-3994.71,-39428.1,-0,39630,445434
step02_gravity_refstate-crust.xmf,1650,3.1527e-07,1.32047e-06,0,-1.95802e-06,-5.21553e+08,-5.21484e+08,-5.21575e+08,-134320,0.0110728,0.0298212,0,0.0318105,-12762.8,-18991,-0,22881.1,134320
step02_gravity_refstate-crust.xmf,1651,2.41241e-07,9.513e-07,0,-1.53405e-06,-4.10822e+08,-4.10773e+08,-4.10839e+08,-105236,0.00980129,0.0446401,0,0.0457035,-15826.6,-14958.8,-0,21777.2,105236
step02_gravity_refstate-crust.xmf,1652,2.73698e-07,1.06226e-06,0,-1.66683e-06,-4.52182e+08,-4.52128e+08,-4.52201e+08,-114344,0.0101323,0.0400039,0,0.0412671,-14831.8,-16464.9,-0,22160.2,114344
step02_gravity_refstate-crust.xmf,1653,3.25741e-07,1.15425e-06,0,-1.79464e-06,-4.9302e+08,-4.92963e+08,-4.93043e+08,-123112,0.0105235,0.0356219,0,0.0371439,-14017.7,-17952,-0,22776.5,123112
step02_gravity_refstate-crust.xmf,1654,2.17761e-07,6.85101e-07,0,-1.20554e-06,-3.1497e+08,-3.14937e+08,-3.14984e+08,-82700.2,0.00954989,0.0554183,0,0.0562351,-18624.6,-11468.7,-0,21872.5,82700.2
step02_gravity_refstate-crust.xmf,1655,2.47704e-07,7.69764e-07,0,-1.31829e-06,-3.57965e+08,-3.57929e+08,-3.57982e+08,-90434.8,0.00940782,0.0524094,0,0.0532471,-17935.2,-13034.3,-0,22171.2,90434.8
step02_gravity_refstate-crust.xmf,1656,3.5495e-07,2.86678e-07,0,-6.48531e-07,-1.63957e+08,-1.63962e+08,-1.63982e+08,-44489.2,0.0113586,0.068594,0,0.0695281,-22989.2,-5970.91,-0,23751.9,44489.2
step02_gravity_refstate-crust.xmf,1657,3.04889e-07,4.17433e-07,0,-8.20201e-07,-2.15861e+08,-2.15854e+08,-2.15882e+08,-56265.8,0.0102378,0.0660623,0,0.0668509,-22143.5,-7860.53,-0,23497.3,56265.8
step02_gravity_refstate-crust.xmf,1658,2.85816e-07,5.25578e-07,0,-9.68586e-07,-2.6472e+08,-2.64704e+08,-2.6474e+08,-66445,0.0095314,0.0632173,0,0.0639318,-21281.1,-9639.38,-0,23362.4,66445
step02_gravity_refstate-crust.xmf,1659,5.71574e-07,6.70568e-08,0,-3.79521e-07,-1.05095e+08,-1.0513e+08,-1.05134e+08,-26035.1,0.0122192,0.0742821,0,0.0752804,-25652.9,-3828.51,-0,25937,26035.1
step02_gravity_refstate-crust.xmf,1660,7.58034e-07,-8.19233e-08,0,-2.43027e-07,-7.31068e+07,-7.31644e+07,-7.31588e+07,-16671.7,0.0122016,0.077632,0,0.0785851,-27614,-2664.47,-0,27742.2,16671.7
step02_gravity_refstate-crust.xmf,1661,6.60655e-07,1.43917e-06,0,-2.40563e-06,-6.47074e+08,-6.47021e+08,-6.47119e+08,-165026,0.012313,0.0152141,0,0.0195724,-10853.7,-23562.3,-0,25941.9,165026
step02_gravity_refstate-crust.xmf,1662,1.06877e-06,1.32513e-06,0,-2.79493e-06,-7.43756e+08,-7.43739e+08,-7.4383e+08,-191732,0.0121949,0.000219497,0,0.0121968,-9093.75,-27083.6,-0,28569.5,191732
step02_gravity_refstate-crust.xmf,1663,7.66994e-07,1.41828e-06,0,-2.49566e-06,-6.73266e+08,-6.73221e+08,-6.73318e+08,-171202,0.0124019,0.0118766,0,0.0171715,-10468.5,-24516.2,-0,26657.7,171202
step02_gravity_refstate-crust.xmf,1664,8.72436e-07,1.39548e-06,0,-2.59665e-06,-6.9857e+08,-6.98534e+08,-6.9863e+08,-178130,0.0124359,0.0080805,0,0.0148306,-10012.8,-25437.8,-0,27337.5,178130
step02_gravity_refstate-crust.xmf,1665,9.73394e-07,1.36708e-06,0,-2.70046e-06,-7.21986e+08,-7.21959e+08,-7.22053e+08,-185251,0.012382,0.00412489,0,0.013051,-9541.57,-26290.7,-0,27968.6,185251
step02_gravity_refstate-crust.xmf,1666,1.19957e-06,1.02453e-06,0,-2.56213e-06,-7.85443e+08,-7.85455e+08,-7.85525e+08,-175762,0.0101563,-0.0012372,0,0.0102314,-9144.6,-28601.3,-0,30027.6,175762
step02_gravity_refstate-crust.xmf,1667,1.18239e-07,-1.38486e-07,0,-3.90259e-06,-9.46803e+08,-9.4682e+08,-9.46811e+08,-267718,-0.00570132,-0.0363815,-0,0.0368255,-5723.62,-34469.6,-0,34941.5,267718
step02_gravity_refstate-crust.xmf,1668,1.22144e-06,9.54969e-07,0,-2.59177e-06,-8.06423e+08,-8.06441e+08,-8.06507e+08,-177795,0.0092386,-0.0049633,0,0.0104874,-8724.56,-29365.1,-0,30633.7,177795
step02_gravity_refstate-crust.xmf,1669,1.20042e-06,8.84701e-07,0,-2.62097e-06,-8.26942e+08,-8.26964e+08,-8.27025e+08,-179799,0.0080381,-0.00876158,0,0.0118902,-8312.25,-30111.9,-0,31238.1,179799
step02_gravity_refstate-crust.xmf,1670,1.13966e-06,8.34067e-07,0,-2.68618e-06,-8.44712e+08,-8.44733e+08,-8.4479e+08,-184272,0.00678423,-0.0126396,0,0.0143452,-7899.34,-30758.5,-0,31756.6,184272
step02_gravity_refstate-crust.xmf,1671,1.0502e-06,7.97053e-07,0,-2.84955e-06,-8.61457e+08,-8.61474e+08,-8.61529e+08,-195479,0.00544568,-0.017391,0,0.0182237,-7406.9,-31367.7,-0,32230.3,195479
step02_gravity_refstate-crust.xmf,1672,8.72327e-07,6.57737e-07,0,-2.88016e-06,-8.81707e+08,-8.81722e+08,-8.81767e+08,-197579,0.00314626,-0.0204293,0,0.0206701,-7136.31,-32104,-0,32887.6,197579
step02_gravity_refstate-crust.xmf,1673,6.7453e-07,5.40857e-07,0,-2.98119e-06,-8.98869e+08,-8.98878e+08,-8.98915e+08,-204510,0.000996913,-0.0234568,0,0.023478,-6863.83,-32727.8,-0,33439.8,204510
step02_gravity_refstate-crust.xmf,1674,2.40287e-07,1.16675e-07,0,-3.49018e-06,-9.34316e+08,-9.34325e+08,-9.34333e+08,-239426,-0.003895,-0.0316478,-0,0.0318866,-6132.98,-34015.9,-0,34564.3,239426
step02_gravity_refstate-crust.xmf,1675,4.49066e-07,3.65162e-07,0,-3.19471e-06,-9.17115e+08,-9.17121e+08,-9.17146e+08,-219157,-0.00145283,-0.0274053,-0,0.0274438,-6508.48,-33390.9,-0,34019.3,219157
step02_gravity_refstate-crust.xmf,1676,-6.82617e-07,-1.36376e-06,0,-4.40026e-06,-1.01847e+09,-1.01852e+09,-1.01843e+09,-301858,-0.0141507,-0.0376124,-0,0.0401863,-5440.56,-37073.7,-0,37470.8,301858
step02_gravity_refstate-crust.xmf,1677,-5.42085e-07,-8.45069e-07,0,-3.99094e-06,-9.97618e+08,-9.97639e+08,-9.97581e+08,-273779,-0.0122523,-0.0353163,-0,0.0373813,-5732.96,-36315.8,-0,36765.5,273779
step02_gravity_refstate-crust.xmf,1678,-7.52848e-07,-1.91874e-06,0,-4.91875e-06,-1.05173e+09,-1.05181e+09,-1.05168e+09,-337426,-0.0150864,-0.0367257,-0,0.0397036,-5331.56,-38283.4,-0,38652.9,337426
step02_gravity_refstate-crust.xmf,1679,-5.43623e-07,-2.63018e-06,0,-5.44437e-06,-1.06687e+09,-1.06701e+09,-1.06683e+09,-373484,-0.0147049,-0.0386973,-0,0.041397,-4982.72,-38834,-0,39152.4,373484
step02_gravity_refstate-crust.xmf,1680,-1.46574e-07,-3.44804e-06,0,-5.9766e-06,-1.08286e+09,-1.08308e+09,-1.08285e+09,-409994,-0.0133128,-0.0396755,-0,0.0418495,-4670.48,-39416.5,-0,39692.3,409994
step02_gravity_refstate-crust.xmf,1681,4.69529e-07,1.20167e-06,0,-1.92679e-06,-5.52679e+08,-5.52629e+08,-5.52711e+08,-132178,0.0109375,0.0309332,0,0.0328099,-13436.8,-20124.6,-0,24198.1,132178
step02_gravity_refstate-crust.xmf,1682,5.37923e-07,1.23609e-06,0,-2.01681e-06,-5.82024e+08,-5.81976e+08,-5.82061e+08,-138353,0.011218,0.0275771,0,0.0297714,-12914.7,-21193.3,-0,24818.2,138353
step02_gravity_refstate-crust.xmf,1683,2.68524e-07,8.401e-07,0,-1.41113e-06,-3.89085e+08,-3.89045e+08,-3.89103e+08,-96803.7,0.00947161,0.0494713,0,0.0503698,-17218.8,-14167.4,-0,22298,96803.7
step02_gravity_refstate-crust.xmf,1684,2.91124e-07,6.1741e-07,0,-1.09571e-06,-3.11283e+08,-3.11261e+08,-3.11303e+08,-75166,0.00911811,0.0602615,0,0.0609474,-20468,-11334.7,-0,23396.9,75166
step02_gravity_refstate-crust.xmf,1685,4.66755e-07,2.23814e-07,0,-5.48518e-07,-1.55929e+08,-1.55946e+08,-1.55961e+08,-37628.3,0.0108045,0.0726652,0,0.0734641,-24941.4,-5678.99,-0,25579.8,37628.3
step02_gravity_refstate-crust.xmf,1686,1.09367e-06,-4.13442e-07,0,-5.0757e-09,103958,569.557,28931.7,-348.193,0.0141574,0.0791967,0,0.0804522,-29109.7,0,-0,29109.7,348.193
step02_gravity_refstate-crust.xmf,1687,1.14885e-06,1.08771e-06,0,-2.52693e-06,-7.64651e+08,-7.64655e+08,-7.64729e+08,-173347,0.0108042,0.00232615,0,0.0110518,-9561.32,-27844.2,-0,29440.1,173347
step02_gravity_refstate-crust.xmf,1688,6.2101e-07,1.25619e-06,0,-2.1104e-06,-6.1254e+08,-6.12496e+08,-6.12582e+08,-144773,0.0114687,0.0239675,0,0.0265701,-12384,-22304.6,-0,25511.9,144773
step02_gravity_refstate-crust.xmf,1689,-1.13425e-07,-9.41612e-09,0,-3.25816e-06,-9.56592e+08,-9.56584e+08,-9.56584e+08,-223510,-0.00710601,-0.0285357,-0,0.0294072,-6427.95,-34825.2,-0,35413.5,223510
step02_gravity_refstate-crust.xmf,1690,-3.97e-07,-3.56643e-07,0,-3.55856e-06,-9.80041e+08,-9.80038e+08,-9.80014e+08,-244117,-0.0101476,-0.0312099,-0,0.0328182,-6156.38,-35677.2,-0,36204.5,244117
step02_gravity_refstate-crust.xmf,1691,-8.36562e-07,-1.27759e-06,0,-4.39725e-06,-1.03589e+09,-1.03592e+09,-1.03583e+09,-301652,-0.0147114,-0.0340076,-0,0.0370532,-5717.07,-37707.1,-0,38138,301652
step02_gravity_refstate-crust.xmf,1692,4.21951e-07,1.15446e-06,0,-1.84012e-06,-5.27727e+08,-5.27677e+08,-5.27756e+08,-126232,0.0106546,0.0339837,0,0.0356147,-13968.9,-19215.9,-0,23756.7,126232
step02_gravity_refstate-crust.xmf,1693,3.59668e-07,9.3724e-07,0,-1.54878e-06,-4.53609e+08,-4.53569e+08,-4.53633e+08,-106246,0.0096433,0.0448904,0,0.0459145,-16386.3,-16517,-0,23266.3,106246
step02_gravity_refstate-crust.xmf,1694,4.00449e-07,1.00841e-06,0,-1.65361e-06,-4.88319e+08,-4.88277e+08,-4.88346e+08,-113438,0.00996453,0.040922,0,0.0421177,-15529.9,-17780.9,-0,23608,113438
step02_gravity_refstate-crust.xmf,1695,3.42094e-07,8.5839e-07,0,-1.43896e-06,-4.24205e+08,-4.24169e+08,-4.24228e+08,-98712.8,0.00932358,0.0489929,0,0.0498721,-17426.9,-15446.3,-0,23287,98712.8
step02_gravity_refstate-crust.xmf,1696,3.11449e-07,6.97164e-07,0,-1.20734e-06,-3.55011e+08,-3.54985e+08,-3.55033e+08,-82823.3,0.00894554,0.0571316,0,0.0578277,-19655.1,-12926.9,-0,23525,82823.3
step02_gravity_refstate-crust.xmf,1697,3.41555e-07,7.71055e-07,0,-1.31561e-06,-3.97271e+08,-3.97242e+08,-3.97294e+08,-90250.9,0.0089719,0.053577,0,0.054323,-18755.5,-14465.6,-0,23685.9,90250.9
step02_gravity_refstate-crust.xmf,1698,3.94595e-07,3.67892e-07,0,-7.1607e-07,-2.11425e+08,-2.11427e+08,-2.11452e+08,-49122.4,0.00965412,0.0703773,0,0.0710364,-24102.3,-7699.32,-0,25302.2,49122.4
step02_gravity_refstate-crust.xmf,1699,3.60417e-07,4.78996e-07,0,-8.57892e-07,-2.61404e+08,-2.61396e+08,-2.61429e+08,-58851.4,0.00896106,0.0677208,0,0.0683111,-23219.5,-9518.89,-0,25095,58851.4
step02_gravity_refstate-crust.xmf,1700,3.52406e-07,5.71392e-07,0,-9.81009e-07,-3.09146e+08,-3.09131e+08,-3.0917e+08,-67297.2,0.00854011,0.0648322,0,0.0653923,-22344.6,-11257.1,-0,25020,67297.2
step02_gravity_refstate-crust.xmf,1701,5.78408e-07,1.57788e-07,0,-4.44012e-07,-1.44951e+08,-1.44979e+08,-1.4499e+08,-30459.2,0.010078,0.0764631,0,0.0771244,-26972.9,-5279.65,-0,27484.8,30459.2
step02_gravity_refstate-crust.xmf,1702,9.04681e-07,-1.4444e-07,0,-1.76513e-07,-7.01259e+07,-7.01979e+07,-7.0188e+07,-12108.8,0.0100121,0.0815668,0,0.082179,-30377.4,-2556.44,-0,30484.8,12108.8
step02_gravity_refstate-crust.xmf,1703,1.20419e-06,-4.61667e-07,0,-1.10904e-09,114188,-89.415,31580.9,-76.0804,0.0111724,0.0823171,0,0.0830719,-31685.6,0,-0,31685.6,76.0804
step02_gravity_refstate-crust.xmf,1704,1.01208e-06,-2.07677e-07,0,-1.11313e-07,-6.33173e+07,-6.34009e+07,-6.33867e+07,-7636.05,0.00766935,0.0844054,0,0.0847531,-33011.1,-2308.9,-0,33091.8,7636.05
step02_gravity_refstate-crust.xmf,1705,1.3247e-06,-5.02956e-07,0,-4.27695e-09,125825,447.745,34950.5,-293.399,0.00776627,0.0847025,0,0.0850578,-34354.5,0,-0,34354.5,293.399
step02_gravity_refstate-crust.xmf,1706,7.25193e-07,1.23853e-06,0,-2.17553e-06,-6.44114e+08,-6.44079e+08,-6.44164e+08,-149241,0.0115493,0.0207304,0,0.0237305,-11981.5,-23454.5,-0,26337.6,149241
step02_gravity_refstate-crust.xmf,1707,8.20917e-07,1.22149e-06,0,-2.24742e-06,-6.7174e+08,-6.71713e+08,-6.71796e+08,-154173,0.0115891,0.0172714,0,0.0207992,-11515.5,-24460.6,-0,27035.6,154173
step02_gravity_refstate-crust.xmf,1708,1.08284e-06,1.13325e-06,0,-2.46665e-06,-7.44523e+08,-7.4452e+08,-7.44598e+08,-169212,0.0111734,0.00597064,0,0.0126686,-10016.5,-27111.3,-0,28902.4,169212
step02_gravity_refstate-crust.xmf,1709,9.15711e-07,1.19511e-06,0,-2.31713e-06,-6.98046e+08,-6.98027e+08,-6.98109e+08,-158955,0.0115355,0.0136506,0,0.0178719,-11031.1,-25418.6,-0,27709,158955
step02_gravity_refstate-crust.xmf,1710,1.00609e-06,1.16346e-06,0,-2.38925e-06,-7.22864e+08,-7.22853e+08,-7.22933e+08,-163902,0.0113861,0.00982235,0,0.0150374,-10523,-26322.4,-0,28347.9,163902
step02_gravity_refstate-crust.xmf,1711,1.14627e-06,9.26047e-07,0,-2.24376e-06,-7.84435e+08,-7.8445e+08,-7.84513e+08,-153922,0.00916383,0.00463466,0,0.0102692,-10044.3,-28564.2,-0,30278.7,153922
step02_gravity_refstate-crust.xmf,1712,1.15232e-06,8.70978e-07,0,-2.25363e-06,-8.06052e+08,-8.06071e+08,-8.06131e+08,-154599,0.00822363,0.00111685,0,0.00829912,-9603.79,-29351.1,-0,30882.4,154599
step02_gravity_refstate-crust.xmf,1713,1.11644e-06,8.13797e-07,0,-2.2573e-06,-8.27826e+08,-8.27847e+08,-8.27903e+08,-154851,0.00695865,-0.00244294,0,0.007375,-9176.49,-30143.6,-0,31509.4,154851
step02_gravity_refstate-crust.xmf,1714,8.94368e-07,6.87414e-07,0,-2.40318e-06,-8.71673e+08,-8.71687e+08,-8.71734e+08,-164858,0.00354598,-0.0116749,0,0.0122016,-8109.23,-31738.8,-0,32758.4,164858
step02_gravity_refstate-crust.xmf,1715,1.02601e-06,7.5417e-07,0,-2.27659e-06,-8.50215e+08,-8.50234e+08,-8.50285e+08,-156174,0.00531872,-0.00633656,0,0.00827289,-8724.2,-30958.2,-0,32164,156174
step02_gravity_refstate-crust.xmf,1716,6.37295e-07,5.97396e-07,0,-2.47148e-06,-8.96485e+08,-8.96488e+08,-8.96529e+08,-169544,0.000748295,-0.015363,0,0.0153812,-7738.33,-32641,-0,33545.7,169544
step02_gravity_refstate-crust.xmf,1717,3.8795e-07,4.83195e-07,0,-2.62496e-06,-9.16854e+08,-9.16847e+08,-9.1688e+08,-180072,-0.00177127,-0.0191113,-0,0.0191932,-7359.55,-33381.3,-0,34182.9,180072
step02_gravity_refstate-crust.xmf,1718,1.33958e-07,3.02052e-07,0,-2.87044e-06,-9.36502e+08,-9.36491e+08,-9.36511e+08,-196912,-0.0043612,-0.0233118,-0,0.0237163,-6940.54,-34095.3,-0,34794.6,196912
step02_gravity_refstate-crust.xmf,1719,-8.0512e-07,-7.18269e-07,0,-3.8831e-06,-1.0179e+09,-1.01789e+09,-1.01784e+09,-266381,-0.0136082,-0.0308128,-0,0.033684,-6122.88,-37053.3,-0,37555.8,266381
step02_gravity_refstate-crust.xmf,1720,-6.79627e-07,-2.70735e-07,0,-3.42118e-06,-9.99196e+08,-9.99168e+08,-9.9915e+08,-234693,-0.0119111,-0.0272867,-0,0.0297731,-6534.3,-36373.6,-0,36955.8,234693
step02_gravity_refstate-crust.xmf,1721,-8.29143e-07,-1.1936e-06,0,-4.45525e-06,-1.05413e+09,-1.05415e+09,-1.05407e+09,-305630,-0.0144724,-0.0302162,-0,0.0335033,-6050.62,-38371.3,-0,38845.5,305630
step02_gravity_refstate-crust.xmf,1722,-6.64853e-07,-1.76238e-06,0,-4.93372e-06,-1.06712e+09,-1.0672e+09,-1.06708e+09,-338453,-0.0142644,-0.0325828,-0,0.0355684,-5683.71,-38844.3,-0,39257.9,338453
step02_gravity_refstate-crust.xmf,1723,-3.26364e-07,-2.44324e-06,0,-5.43707e-06,-1.0826e+09,-1.08275e+09,-1.08258e+09,-372983,-0.0131735,-0.0339449,-0,0.0364115,-5370.2,-39408.1,-0,39772.4,372983
step02_gravity_refstate-crust.xmf,1724,4.60975e-07,1.04646e-06,0,-1.72387e-06,-5.21196e+08,-5.21156e+08,-5.21228e+08,-118257,0.0101731,0.0380569,0,0.0393931,-15046.1,-18978.2,-0,24218.9,118257
step02_gravity_refstate-crust.xmf,1725,5.29403e-07,1.06778e-06,0,-1.78132e-06,-5.52381e+08,-5.52344e+08,-5.52417e+08,-122199,0.0103393,0.0353956,0,0.0368748,-14634.5,-20113.8,-0,24874.3,122199
step02_gravity_refstate-crust.xmf,1726,5.94627e-07,1.08836e-06,0,-1.84449e-06,-5.80786e+08,-5.80752e+08,-5.80826e+08,-126532,0.0105224,0.0324696,0,0.0341321,-14148.2,-21148.2,-0,25444.4,126532
step02_gravity_refstate-crust.xmf,1727,6.70801e-07,1.09895e-06,0,-1.90767e-06,-6.10917e+08,-6.10888e+08,-6.10963e+08,-130866,0.0106694,0.0292531,0,0.0311381,-13635,-22245.5,-0,26091.6,130866
step02_gravity_refstate-crust.xmf,1728,3.61133e-07,6.47746e-07,0,-1.08717e-06,-3.53254e+08,-3.53234e+08,-3.53279e+08,-74579.9,0.00835071,0.0617611,0,0.0623231,-21465.6,-12863,-0,25024.6,74579.9
step02_gravity_refstate-crust.xmf,1729,4.81356e-07,3.16082e-07,0,-6.01418e-07,-2.02504e+08,-2.02516e+08,-2.02537e+08,-41257.3,0.00897175,0.0744737,0,0.0750122,-26136.7,-7374.8,-0,27157.3,41257.3
step02_gravity_refstate-crust.xmf,1730,6.92254e-07,9.58793e-08,0,-3.44543e-07,-1.35489e+08,-1.3553e+08,-1.35537e+08,-23635.6,0.0089193,0.0800622,0,0.0805575,-29226.2,-4935.58,-0,29640,23635.6
step02_gravity_refstate-crust.xmf,1731,1.07702e-06,-2.16022e-07,0,-7.32518e-08,-6.77366e+07,-6.78253e+07,-6.78105e+07,-5025.08,0.0047018,0.0864833,0,0.0866111,-35740.4,-2470.04,-0,35825.6,5025.08
step02_gravity_refstate-crust.xmf,1732,1.11755e-06,9.8528e-07,0,-2.25097e-06,-7.64659e+08,-7.64668e+08,-7.64735e+08,-154417,0.00985272,0.0074826,0,0.012372,-10402,-27844.2,-0,29723.7,154417
step02_gravity_refstate-crust.xmf,1733,7.54505e-07,1.09579e-06,0,-1.96492e-06,-6.41241e+08,-6.41218e+08,-6.41293e+08,-134793,0.0107362,0.025902,0,0.0280389,-13121.1,-23349.8,-0,26783.9,134793
step02_gravity_refstate-crust.xmf,1734,-4.75332e-07,7.57439e-08,0,-3.01367e-06,-9.79141e+08,-9.79103e+08,-9.79108e+08,-206738,-0.00970421,-0.0235937,-0,0.0255115,-6943.96,-35644.8,-0,36314.9,206738
step02_gravity_refstate-crust.xmf,1735,-9.03967e-07,-6.33194e-07,0,-3.92233e-06,-1.03726e+09,-1.03724e+09,-1.0372e+09,-269072,-0.0140854,-0.0272403,-0,0.0306665,-6470.72,-37757.8,-0,38308.3,269072
step02_gravity_refstate-crust.xmf,1736,4.25246e-07,8.62408e-07,0,-1.44107e-06,-4.63053e+08,-4.63023e+08,-4.63083e+08,-98857.4,0.00908419,0.0487803,0,0.0496189,-17766.7,-16861,-0,24493.8,98857.4
step02_gravity_refstate-crust.xmf,1737,4.57316e-07,9.13159e-07,0,-1.52444e-06,-4.91201e+08,-4.9117e+08,-4.91233e+08,-104576,0.00935611,0.0453537,0,0.0463087,-16941.3,-17885.9,-0,24635.6,104576
step02_gravity_refstate-crust.xmf,1738,5.07202e-07,9.51511e-07,0,-1.59333e-06,-5.22148e+08,-5.22117e+08,-5.22182e+08,-109302,0.00956269,0.0422595,0,0.043328,-16304,-19012.8,-0,25046.1,109302
step02_gravity_refstate-crust.xmf,1739,4.02659e-07,8.13074e-07,0,-1.35788e-06,-4.39596e+08,-4.39567e+08,-4.39623e+08,-93150.9,0.00882911,0.0519502,0,0.0526951,-18611.5,-16006.8,-0,24548,93150.9
step02_gravity_refstate-crust.xmf,1740,3.86275e-07,7.11976e-07,0,-1.17957e-06,-3.9471e+08,-3.94687e+08,-3.94736e+08,-80918.7,0.00830541,0.0586439,0,0.0592291,-20630.6,-14372.5,-0,25143.4,80918.7
step02_gravity_refstate-crust.xmf,1741,4.25959e-07,4.45427e-07,0,-7.42263e-07,-2.59004e+08,-2.59002e+08,-2.59033e+08,-50919.3,0.00820626,0.0719859,0,0.0724522,-25245.4,-9431.7,-0,26949.7,50919.3
step02_gravity_refstate-crust.xmf,1742,4.03748e-07,5.43422e-07,0,-8.62312e-07,-3.08914e+08,-3.08905e+08,-3.08942e+08,-59154.6,0.00780408,0.0691581,0,0.0695971,-24299.3,-11248.8,-0,26776.7,59154.6
step02_gravity_refstate-crust.xmf,1743,4.01838e-07,6.21893e-07,0,-9.70156e-07,-3.54322e+08,-3.54307e+08,-3.5435e+08,-66552.7,0.00765237,0.065951,0,0.0663934,-23266.1,-12902,-0,26604,66552.7
step02_gravity_refstate-crust.xmf,1744,4.132e-07,6.82301e-07,0,-1.05713e-06,-3.93731e+08,-3.93712e+08,-3.93759e+08,-72519,0.00762962,0.0628866,0,0.0633477,-22341.8,-14336.9,-0,26546.2,72519
step02_gravity_refstate-crust.xmf,1745,5.60494e-07,2.78658e-07,0,-4.9395e-07,-1.97574e+08,-1.97593e+08,-1.97612e+08,-33885,0.00797383,0.0781806,0,0.0785861,-28266.2,-7195.57,-0,29167.7,33885
step02_gravity_refstate-crust.xmf,1746,7.81682e-07,5.77788e-08,0,-2.56557e-07,-1.325e+08,-1.32549e+08,-1.32553e+08,-17599.8,0.00718894,0.0832129,0,0.0835229,-31672.5,-4827.04,-0,32038.2,17599.8
step02_gravity_refstate-crust.xmf,1747,8.60657e-07,8.20153e-09,0,-1.66056e-07,-1.24273e+08,-1.24332e+08,-1.24332e+08,-11391.5,0.00531518,0.0856006,0,0.0857655,-34142.6,-4527.79,-0,34441.5,11391.5
step02_gravity_refstate-crust.xmf,1748,1.38633e-06,-5.27697e-07,0,-8.62594e-10,131621,319.128,36519.2,-59.174,0.00401669,0.0862268,0,0.0863203,-37123.5,0,-0,37123.5,59.174
step02_gravity_refstate-crust.xmf,1749,8.41417e-07,1.07744e-06,0,-2.0109e-06,-6.70803e+08,-6.70787e+08,-6.70861e+08,-137948,0.010683,0.0225357,0,0.0249396,-12624,-24426.3,-0,27495.7,137948
step02_gravity_refstate-crust.xmf,1750,9.24003e-07,1.05154e-06,0,-2.05454e-06,-6.98377e+08,-6.98369e+08,-6.98441e+08,-140941,0.0105382,0.0190394,0,0.0217612,-12106.7,-25430.5,-0,28165.3,140941
step02_gravity_refstate-crust.xmf,1751,1.06801e-06,9.93531e-07,0,-2.15454e-06,-7.49233e+08,-7.49238e+08,-7.49306e+08,-147801,0.00994467,0.0113149,0,0.0150639,-10977.7,-27282.4,-0,29408.2,147801
step02_gravity_refstate-crust.xmf,1752,1.00155e-06,1.01982e-06,0,-2.09773e-06,-7.24852e+08,-7.24851e+08,-7.24921e+08,-143904,0.0102814,0.0153108,0,0.0184426,-11560,-26394.6,-0,28815.1,143904
step02_gravity_refstate-crust.xmf,1753,1.07498e-06,8.85377e-07,0,-1.97766e-06,-7.77991e+08,-7.78004e+08,-7.78065e+08,-135667,0.00840978,0.0108183,0,0.0137026,-11066.8,-28329.3,-0,30414.2,135667
step02_gravity_refstate-crust.xmf,1754,1.06806e-06,8.35801e-07,0,-1.9619e-06,-8.04519e+08,-8.04535e+08,-8.04592e+08,-134586,0.00727911,0.00705975,0,0.0101403,-10554.7,-29294.9,-0,31138.3,134586
step02_gravity_refstate-crust.xmf,1755,1.02451e-06,7.95934e-07,0,-1.95781e-06,-8.27531e+08,-8.27547e+08,-8.27601e+08,-134306,0.00602038,0.00348237,0,0.00695499,-10077.1,-30132.5,-0,31772.8,134306
step02_gravity_refstate-crust.xmf,1756,-2.10173e-07,3.38864e-07,0,-2.6538e-06,-9.57717e+08,-9.57679e+08,-9.57702e+08,-182051,-0.00709527,-0.0194856,-0,0.0207372,-7388.62,-34866.3,-0,35640.6,182051
step02_gravity_refstate-crust.xmf,1757,9.31365e-07,7.59445e-07,0,-1.95974e-06,-8.49961e+08,-8.49972e+08,-8.50024e+08,-134438,0.00446454,-5.92432e-05,0,0.00446494,-9623.61,-30948.6,-0,32410.3,134438
step02_gravity_refstate-crust.xmf,1758,7.79716e-07,7.22336e-07,0,-1.98557e-06,-8.72662e+08,-8.72666e+08,-8.72716e+08,-136210,0.00254947,-0.00376122,0,0.00454385,-9167.93,-31774.4,-0,33070.6,136210
step02_gravity_refstate-crust.xmf,1759,5.79468e-07,6.77345e-07,0,-2.06414e-06,-8.94519e+08,-8.94513e+08,-8.94559e+08,-141600,0.000412081,-0.00774868,0,0.00775963,-8690.77,-32569.3,-0,33708.9,141600
step02_gravity_refstate-crust.xmf,1760,3.31694e-07,6.1388e-07,0,-2.1871e-06,-9.16114e+08,-9.16095e+08,-9.16137e+08,-150035,-0.00199916,-0.0115404,-0,0.0117123,-8259.92,-33354.3,-0,34361.9,150035
step02_gravity_refstate-crust.xmf,1761,6.83576e-08,5.11879e-07,0,-2.37621e-06,-9.36607e+08,-9.36577e+08,-9.36612e+08,-163008,-0.00446594,-0.0153793,-0,0.0160146,-7834.74,-34099.2,-0,34987.7,163008
step02_gravity_refstate-crust.xmf,1762,-8.61571e-07,-1.81218e-07,0,-3.41708e-06,-1.01914e+09,-1.01909e+09,-1.01908e+09,-234412,-0.0130263,-0.0238666,-0,0.0271901,-6905.58,-37098.9,-0,37736.2,234412
step02_gravity_refstate-crust.xmf,1763,-7.26514e-07,1.64756e-07,0,-2.96825e-06,-1.00034e+09,-1.00027e+09,-1.00029e+09,-203622,-0.0114314,-0.0202033,-0,0.0232131,-7351.83,-36415.5,-0,37150.2,203622
step02_gravity_refstate-crust.xmf,1764,-8.31512e-07,-6.18094e-07,0,-4.0255e-06,-1.05679e+09,-1.05678e+09,-1.05674e+09,-276149,-0.0137872,-0.0240943,-0,0.0277601,-6811.06,-38469.3,-0,39067.6,276149
step02_gravity_refstate-crust.xmf,1765,-7.31844e-07,-1.08752e-06,0,-4.44792e-06,-1.06715e+09,-1.06718e+09,-1.0671e+09,-305127,-0.0137768,-0.0269921,-0,0.0303046,-6385.95,-38846.1,-0,39367.5,305127
step02_gravity_refstate-crust.xmf,1766,-4.46991e-07,-1.60304e-06,0,-4.88931e-06,-1.08197e+09,-1.08204e+09,-1.08193e+09,-335407,-0.0129447,-0.0282803,-0,0.0311021,-6116.81,-39385.7,-0,39857.9,335407
step02_gravity_refstate-crust.xmf,1767,5.65382e-07,9.75094e-07,0,-1.64429e-06,-5.52592e+08,-5.52564e+08,-5.52631e+08,-112798,0.00969707,0.0395188,0,0.0406912,-15806.4,-20121.5,-0,25587.4,112798
step02_gravity_refstate-crust.xmf,1768,6.21969e-07,9.85489e-07,0,-1.67979e-06,-5.79513e+08,-5.79488e+08,-5.79556e+08,-115233,0.00976562,0.0371476,0,0.0384098,-15404.4,-21101.8,-0,26126.2,115233
step02_gravity_refstate-crust.xmf,1769,6.88655e-07,9.9393e-07,0,-1.72333e-06,-6.09411e+08,-6.0939e+08,-6.09458e+08,-118221,0.00983743,0.0341443,0,0.0355332,-14879.2,-22190.5,-0,26717.2,118221
step02_gravity_refstate-crust.xmf,1770,7.59919e-07,9.94101e-07,0,-1.76419e-06,-6.39626e+08,-6.3961e+08,-6.39678e+08,-121024,0.00984624,0.0309129,0,0.0324431,-14325.6,-23290.8,-0,27343.9,121024
step02_gravity_refstate-crust.xmf,1771,4.2411e-07,7.65369e-07,0,-1.25064e-06,-4.35455e+08,-4.35432e+08,-4.35485e+08,-85793.8,0.00829416,0.0557872,0,0.0564004,-19959.7,-15856.1,-0,25491.3,85793.8
step02_gravity_refstate-crust.xmf,1772,4.27842e-07,6.69863e-07,0,-9.52056e-07,-3.93991e+08,-3.93974e+08,-3.9402e+08,-65311,0.00700794,0.066231,0,0.0666007,-23815.1,-14346.4,-0,27802.4,65311
step02_gravity_refstate-crust.xmf,1773,4.83643e-07,4.18453e-07,0,-6.22555e-07,-2.55386e+08,-2.55391e+08,-2.55419e+08,-42707.3,0.00731433,0.0759206,0,0.0762722,-27345.5,-9300.19,-0,28883.7,42707.3
step02_gravity_refstate-crust.xmf,1774,6.24043e-07,2.57657e-07,0,-3.93666e-07,-1.96981e+08,-1.97007e+08,-1.97024e+08,-27005.5,0.00668111,0.0813718,0,0.0816456,-30468.5,-7174.23,-0,31301.8,27005.5
step02_gravity_refstate-crust.xmf,1775,9.12692e-07,-2.19726e-08,0,-1.1376e-07,-1.18924e+08,-1.18988e+08,-1.18987e+08,-7803.92,0.00392447,0.0867336,0,0.0868223,-35794.5,-4333.21,-0,36055.9,7803.92
step02_gravity_refstate-crust.xmf,1776,1.16812e-06,-2.94075e-07,0,-2.41268e-08,-5.20711e+07,-5.21714e+07,-5.21513e+07,-1655.1,0.00223048,0.0873083,0,0.0873368,-38100.9,-1899.97,-0,38148.2,1655.1
step02_gravity_refstate-crust.xmf,1777,1.39238e-06,-5.28721e-07,0,3.07602e-09,132250,462.733,36733,211.015,4.5887e-19,0.0867645,0,0.0867645,-40000,0,-0,40000,211.015
step02_gravity_refstate-crust.xmf,1778,8.32171e-07,9.83347e-07,0,-1.79593e-06,-6.69451e+08,-6.69441e+08,-6.69508e+08,-123201,0.00974501,0.0276005,0,0.0292704,-13776.6,-24376.9,-0,28000.5,123201
step02_gravity_refstate-crust.xmf,1779,-5.13583e-07,4.16871e-07,0,-2.5764e-06,-9.79917e+08,-9.79854e+08,-9.79882e+08,-176741,-0.00936009,-0.0163875,-0,0.0188723,-7802.55,-35673.4,-0,36516.8,176741
step02_gravity_refstate-crust.xmf,1780,-9.03767e-07,-1.5133e-07,0,-3.52117e-06,-1.03913e+09,-1.03908e+09,-1.03907e+09,-241552,-0.0134334,-0.0211824,-0,0.0250829,-7230.49,-37826.8,-0,38511.6,241552
step02_gravity_refstate-crust.xmf,1781,4.87903e-07,8.59894e-07,0,-1.41935e-06,-4.95601e+08,-4.95576e+08,-4.95635e+08,-97367.7,0.00880882,0.0486397,0,0.0494309,-18062.6,-18046.2,-0,25532.7,97367.7
step02_gravity_refstate-crust.xmf,1782,4.75545e-07,8.18519e-07,0,-1.32771e-06,-4.77994e+08,-4.7797e+08,-4.78026e+08,-91080.6,0.00839,0.0523305,0,0.0529988,-19148.8,-17405,-0,25876.9,91080.6
step02_gravity_refstate-crust.xmf,1783,5.36386e-07,8.87531e-07,0,-1.46387e-06,-5.26442e+08,-5.26417e+08,-5.26478e+08,-100422,0.00889059,0.0460991,0,0.0469486,-17551.5,-19169.2,-0,25990.6,100422
step02_gravity_refstate-crust.xmf,1784,5.91943e-07,9.11513e-07,0,-1.50677e-06,-5.58693e+08,-5.58671e+08,-5.58733e+08,-103364,0.00896786,0.0432726,0,0.0441921,-16994.3,-20343.6,-0,26507.9,103364
step02_gravity_refstate-crust.xmf,1785,4.40804e-07,7.34179e-07,0,-1.12315e-06,-4.34225e+08,-4.34205e+08,-4.34255e+08,-77047.9,0.00759231,0.0600537,0,0.0605317,-21603.4,-15811.3,-0,26771.3,77047.9
step02_gravity_refstate-crust.xmf,1786,4.47123e-07,7.20899e-07,0,-1.00134e-06,-4.31879e+08,-4.3186e+08,-4.3191e+08,-68691.6,0.00688518,0.0640052,0,0.0643745,-23246,-15725.9,-0,28065.7,68691.6
step02_gravity_refstate-crust.xmf,1787,4.43407e-07,5.3269e-07,0,-7.36942e-07,-3.12068e+08,-3.12062e+08,-3.12099e+08,-50554.2,0.0068768,0.0732184,0,0.0735406,-26384.1,-11363.8,-0,28727.3,50554.2
step02_gravity_refstate-crust.xmf,1788,4.30659e-07,6.2524e-07,0,-8.41436e-07,-3.666e+08,-3.66587e+08,-3.6663e+08,-57722.5,0.00666576,0.0699839,0,0.0703006,-25302.1,-13349.2,-0,28607.6,57722.5
step02_gravity_refstate-crust.xmf,1789,5.3297e-07,3.99875e-07,0,-5.04902e-07,-2.52469e+08,-2.52478e+08,-2.52505e+08,-34636.3,0.00626577,0.0793766,0,0.0796236,-29503,-9194.16,-0,30902.4,34636.3
step02_gravity_refstate-crust.xmf,1790,6.88838e-07,2.34683e-07,0,-2.70728e-07,-1.94153e+08,-1.94184e+08,-1.942e+08,-18571.9,0.00490294,0.084512,0,0.0846541,-33248.7,-7071.49,-0,33992.4,18571.9
step02_gravity_refstate-crust.xmf,1791,9.36123e-07,-2.93102e-08,0,-6.4714e-08,-1.17793e+08,-1.17859e+08,-1.17857e+08,-4439.38,0.00223857,0.087557,0,0.0875857,-37628.9,-4292.12,-0,37872.9,4439.38
step02_gravity_refstate-crust.xmf,1792,7.78284e-07,1.49234e-07,0,-1.56888e-07,-1.6946e+08,-1.69503e+08,-1.69514e+08,-10762.5,0.00345739,0.0865285,0,0.0865976,-35650.7,-6172.75,-0,36181.2,10762.5
step02_gravity_refstate-crust.xmf,1793,1.07628e-06,-1.85851e-07,0,1.72445e-09,-7.77263e+07,-7.78129e+07,-7.78001e+07,118.297,4.55629e-19,0.0877781,0,0.0877781,-40000,-2833.77,-0,40100.3,118.297
step02_gravity_refstate-crust.xmf,1794,9.00602e-07,9.62957e-07,0,-1.81845e-06,-6.98245e+08,-6.98241e+08,-6.98307e+08,-124746,0.00951536,0.024232,0,0.0260332,-13231.7,-25425.4,-0,28662.3,124746
step02_gravity_refstate-crust.xmf,1795,9.61633e-07,9.32982e-07,0,-1.82894e-06,-7.26987e+08,-7.26988e+08,-7.27052e+08,-125466,0.00910374,0.0207365,0,0.0226469,-12682.7,-26472,-0,29353.3,125466
step02_gravity_refstate-crust.xmf,1796,1.01304e-06,8.95008e-07,0,-1.83923e-06,-7.57086e+08,-7.57094e+08,-7.57155e+08,-126171,0.0084852,0.0165958,0,0.0186392,-12035.7,-27568,-0,30080.7,126171
step02_gravity_refstate-crust.xmf,1797,9.76305e-07,8.31672e-07,0,-1.71836e-06,-8.04856e+08,-8.04866e+08,-8.04923e+08,-117880,0.00629952,0.0122706,0,0.0137932,-11490.3,-29306.8,-0,31478.8,117880
step02_gravity_refstate-crust.xmf,1798,9.25359e-07,8.09892e-07,0,-1.7028e-06,-8.27127e+08,-8.27135e+08,-8.27191e+08,-116812,0.00512404,0.0090963,0,0.0104402,-11029.8,-30117.4,-0,32073.6,116812
step02_gravity_refstate-crust.xmf,1799,8.36256e-07,7.93484e-07,0,-1.70753e-06,-8.49644e+08,-8.49647e+08,-8.49701e+08,-117136,0.00369602,0.0055527,0,0.0066703,-10525.8,-30936.7,-0,32678.4,117136
step02_gravity_refstate-crust.xmf,1800,-2.53947e-07,5.83837e-07,0,-2.25925e-06,-9.58688e+08,-9.5863e+08,-9.5867e+08,-154984,-0.00700564,-0.0125076,-0,0.014336,-8256.65,-34901.9,-0,35865.2,154984
step02_gravity_refstate-crust.xmf,1801,6.99423e-07,7.77985e-07,0,-1.72167e-06,-8.7182e+08,-8.71815e+08,-8.71868e+08,-118107,0.00196735,0.00219509,0,0.00294769,-10074.2,-31743.5,-0,33303.8,118107
step02_gravity_refstate-crust.xmf,1802,5.11448e-07,7.62783e-07,0,-1.76153e-06,-8.93703e+08,-8.93685e+08,-8.93738e+08,-120841,-1.15253e-05,-0.0011875,-0,0.00118755,-9636.93,-32539.4,-0,33936.4,120841
step02_gravity_refstate-crust.xmf,1803,2.80078e-07,7.36566e-07,0,-1.85908e-06,-9.15588e+08,-9.15557e+08,-9.15608e+08,-127533,-0.00221735,-0.00485584,-0,0.00533815,-9175.49,-33335.2,-0,34574.9,127533
step02_gravity_refstate-crust.xmf,1804,1.94603e-08,6.84332e-07,0,-2.02021e-06,-9.37189e+08,-9.37143e+08,-9.3719e+08,-138586,-0.00457428,-0.00860685,-0,0.0097469,-8719.56,-34120.4,-0,35217,138586
step02_gravity_refstate-crust.xmf,1805,-8.55015e-07,2.33721e-07,0,-3.01731e-06,-1.02068e+09,-1.0206e+09,-1.02062e+09,-206988,-0.0123959,-0.0174462,-0,0.0214015,-7729.32,-37155.7,-0,37951.1,206988
step02_gravity_refstate-crust.xmf,1806,-7.20451e-07,4.99201e-07,0,-2.60023e-06,-1.00171e+09,-1.00163e+09,-1.00166e+09,-178376,-0.0109162,-0.0137593,-0,0.0175637,-8204.04,-36466.1,-0,37377.5,178376
step02_gravity_refstate-crust.xmf,1807,-5.72396e-07,-8.37415e-07,0,-4.28663e-06,-1.07758e+09,-1.0776e+09,-1.07754e+09,-294063,-0.0128486,-0.0226442,-0,0.0260355,-6936.34,-39226.8,-0,39835.4,294063
step02_gravity_refstate-crust.xmf,1808,-7.8818e-07,-2.23246e-07,0,-3.6967e-06,-1.06038e+09,-1.06035e+09,-1.06033e+09,-253593,-0.0131516,-0.0190844,-0,0.0231772,-7503.67,-38600.8,-0,39323.4,253593
step02_gravity_refstate-crust.xmf,1809,6.35381e-07,9.29492e-07,0,-1.55077e-06,-5.81627e+08,-5.81607e+08,-5.81671e+08,-106383,0.00908738,0.0407186,0,0.0417203,-16454.9,-21178.7,-0,26819.8,106383
step02_gravity_refstate-crust.xmf,1810,6.83443e-07,9.27574e-07,0,-1.55354e-06,-6.07619e+08,-6.07603e+08,-6.07666e+08,-106573,0.00898698,0.0387946,0,0.039822,-16150.5,-22125.2,-0,27392.8,106573
step02_gravity_refstate-crust.xmf,1811,7.4337e-07,9.31101e-07,0,-1.58012e-06,-6.38177e+08,-6.38164e+08,-6.38228e+08,-108396,0.00893255,0.0356981,0,0.0367987,-15572.8,-23237.9,-0,27973.4,108396
step02_gravity_refstate-crust.xmf,1812,8.02718e-07,9.27222e-07,0,-1.60043e-06,-6.68338e+08,-6.6833e+08,-6.68393e+08,-109789,0.00878713,0.0324476,0,0.0336163,-14978.2,-24336.2,-0,28576.2,109789
step02_gravity_refstate-crust.xmf,1813,5.36904e-07,8.46363e-07,0,-1.34321e-06,-5.23559e+08,-5.23537e+08,-5.23596e+08,-92144.1,0.00824714,0.0499176,0,0.0505942,-18790.4,-19064.2,-0,26767.9,92144.1
step02_gravity_refstate-crust.xmf,1814,4.79233e-07,7.80722e-07,0,-1.17964e-06,-4.75949e+08,-4.75928e+08,-4.75981e+08,-80923.1,0.00758765,0.0570299,0,0.0575325,-20864.9,-17330.5,-0,27123.6,80923.1
step02_gravity_refstate-crust.xmf,1815,4.42063e-07,7.08234e-07,0,-8.79832e-07,-4.23423e+08,-4.23404e+08,-4.23453e+08,-60356.5,0.00622692,0.0678262,0,0.0681115,-24919.3,-15418,-0,29303.3,60356.5
step02_gravity_refstate-crust.xmf,1816,4.76034e-07,5.1917e-07,0,-6.05868e-07,-3.0773e+08,-3.07727e+08,-3.07763e+08,-41562.5,0.00594209,0.0770007,0,0.0772297,-28543.8,-11205.9,-0,30664.7,41562.5
step02_gravity_refstate-crust.xmf,1817,5.73247e-07,3.87609e-07,0,-3.91665e-07,-2.50244e+08,-2.50256e+08,-2.50283e+08,-26868.2,0.00508401,0.0822572,0,0.0824142,-31698.6,-9113.29,-0,32982.6,26868.2
step02_gravity_refstate-crust.xmf,1818,9.92043e-07,8.53981e-07,0,-1.72486e-06,-7.85016e+08,-7.85026e+08,-7.85084e+08,-118325,0.00711198,0.0151745,0,0.0167585,-11931.8,-28584.6,-0,30975,118325
step02_gravity_refstate-crust.xmf,1819,8.56447e-07,9.16537e-07,0,-1.61179e-06,-6.97338e+08,-6.97333e+08,-6.97396e+08,-110569,0.00851956,0.0291714,0,0.03039,-14394.8,-25392.2,-0,29188.5,110569
step02_gravity_refstate-crust.xmf,1820,-5.13462e-07,6.75192e-07,0,-2.24348e-06,-9.8083e+08,-9.80748e+08,-9.80794e+08,-153903,-0.00900153,-0.0100844,-0,0.0135175,-8665,-35707.1,-0,36743.4,153903
step02_gravity_refstate-crust.xmf,1821,-8.65172e-07,2.16159e-07,0,-3.16442e-06,-1.03987e+09,-1.03979e+09,-1.03981e+09,-217079,-0.0127859,-0.0158657,-0,0.0203764,-7975.95,-37854.2,-0,38685.3,217079
step02_gravity_refstate-crust.xmf,1822,6.53366e-07,8.90957e-07,0,-1.41685e-06,-5.9802e+08,-5.98003e+08,-5.98064e+08,-97195.8,0.00828526,0.0432772,0,0.0440632,-17396.5,-21775.5,-0,27871.3,97195.8
step02_gravity_refstate-crust.xmf,1823,5.95164e-07,8.71826e-07,0,-1.37148e-06,-5.6299e+08,-5.62971e+08,-5.63031e+08,-94083.7,0.00821021,0.0469251,0,0.047638,-18201.5,-20500,-0,27414.3,94083.7
step02_gravity_refstate-crust.xmf,1824,5.28138e-07,8.22448e-07,0,-1.22072e-06,-5.18248e+08,-5.18228e+08,-5.18284e+08,-83741.3,0.00754685,0.0540281,0,0.0545526,-20197.8,-18870.7,-0,27641.5,83741.3
step02_gravity_refstate-crust.xmf,1825,4.72978e-07,7.68431e-07,0,-1.04714e-06,-4.7371e+08,-4.7369e+08,-4.73743e+08,-71833.8,0.006815,0.0612128,0,0.061591,-22529.9,-17249,-0,28374.7,71833.8
step02_gravity_refstate-crust.xmf,1826,4.61117e-07,7.69515e-07,0,-9.22387e-07,-4.69446e+08,-4.69425e+08,-4.69477e+08,-63275.8,0.00606279,0.0651614,0,0.0654429,-24236.5,-17093.7,-0,29658.1,63275.8
step02_gravity_refstate-crust.xmf,1827,4.47138e-07,6.17481e-07,0,-6.91612e-07,-3.61116e+08,-3.61104e+08,-3.61146e+08,-47444.6,0.00571735,0.0743557,0,0.0745752,-27604.3,-13149.5,-0,30576.3,47444.6
step02_gravity_refstate-crust.xmf,1828,4.38171e-07,6.99922e-07,0,-7.52884e-07,-4.12153e+08,-4.12135e+08,-4.12183e+08,-51647.9,0.00551359,0.0717349,0,0.0719465,-26806.1,-15007.7,-0,30721.3,51647.9
step02_gravity_refstate-crust.xmf,1829,5.02571e-07,5.12817e-07,0,-4.79861e-07,-3.04612e+08,-3.04611e+08,-3.04646e+08,-32918.4,0.00491233,0.0801807,0,0.080331,-30727.7,-11092.5,-0,32668.6,32918.4
step02_gravity_refstate-crust.xmf,1830,5.93554e-07,3.9246e-07,0,-2.90101e-07,-2.53806e+08,-2.5382e+08,-2.53847e+08,-19900.9,0.00383465,0.0842966,0,0.0843837,-33766.3,-9243.07,-0,35008.6,19900.9
step02_gravity_refstate-crust.xmf,1831,6.53175e-07,3.25739e-07,0,-1.92295e-07,-2.28847e+08,-2.2887e+08,-2.28892e+08,-13191.4,0.00292594,0.0859878,0,0.0860376,-35606.3,-8334.55,-0,36568.8,13191.4
step02_gravity_refstate-crust.xmf,1832,7.40761e-07,2.19742e-07,0,-8.68604e-08,-1.93278e+08,-1.93314e+08,-1.93329e+08,-5958.63,0.0016556,0.0873427,0,0.0873584,-37779.7,-7039.83,-0,38430,5958.63
step02_gravity_refstate-crust.xmf,1833,8.41988e-07,9.18612e-08,0,6.30879e-10,-1.53455e+08,-1.53507e+08,-1.53513e+08,43.2783,3.35742e-19,0.0879085,0,0.0879085,-40000,-5590.24,-0,40388.7,43.2783
step02_gravity_refstate-crust.xmf,1834,9.00363e-07,8.99668e-07,0,-1.61105e-06,-7.25939e+08,-7.25939e+08,-7.26001e+08,-110518,0.00807867,0.0258601,0,0.0270926,-13825.2,-26433.6,-0,29830.7,110518
step02_gravity_refstate-crust.xmf,1835,9.28648e-07,8.79047e-07,0,-1.60153e-06,-7.54141e+08,-7.54144e+08,-7.54205e+08,-109865,0.00744567,0.0224251,0,0.0236289,-13248.5,-27460.4,-0,30489.2,109865
step02_gravity_refstate-crust.xmf,1836,9.2246e-07,8.60795e-07,0,-1.5604e-06,-7.81808e+08,-7.81812e+08,-7.81871e+08,-107043,0.00646925,0.0194698,0,0.0205165,-12794.7,-28467.6,-0,31210.7,107043
step02_gravity_refstate-crust.xmf,1837,8.84466e-07,8.48885e-07,0,-1.51762e-06,-8.06984e+08,-8.06987e+08,-8.07045e+08,-104109,0.00533297,0.0167033,0,0.017534,-12378.6,-29384,-0,31884.9,104109
step02_gravity_refstate-crust.xmf,1838,8.14356e-07,8.44939e-07,0,-1.48602e-06,-8.30531e+08,-8.30529e+08,-8.30587e+08,-101941,0.00406816,0.0138356,0,0.0144213,-11945.4,-30240.9,-0,32514.7,101941
step02_gravity_refstate-crust.xmf,1839,7.21681e-07,8.46686e-07,0,-1.48177e-06,-8.52078e+08,-8.52069e+08,-8.52127e+08,-101649,0.0027505,0.0107222,0,0.0110693,-11469.5,-31025,-0,33077.2,101649
step02_gravity_refstate-crust.xmf,1840,6.39161e-07,8.3916e-07,0,-1.54676e-06,-8.69893e+08,-8.69879e+08,-8.69937e+08,-106108,0.00162483,0.00685455,0,0.0070445,-10857.4,-31673.2,-0,33482.5,106108
step02_gravity_refstate-crust.xmf,1841,-2.66883e-07,7.80908e-07,0,-1.95688e-06,-9.59338e+08,-9.59266e+08,-9.5932e+08,-134242,-0.00684197,-0.00628941,-0,0.00929351,-9143.51,-34925.8,-0,36102.8,134242
step02_gravity_refstate-crust.xmf,1842,4.59844e-07,8.48642e-07,0,-1.53298e-06,-8.9196e+08,-8.91933e+08,-8.91992e+08,-105162,-0.000296896,0.00467403,-0,0.00468345,-10592.2,-32475.9,-0,34159.6,105162
step02_gravity_refstate-crust.xmf,1843,2.36152e-07,8.51962e-07,0,-1.60413e-06,-9.15023e+08,-9.14981e+08,-9.15039e+08,-110043,-0.00240329,0.00124446,-0,0.00270637,-10129,-33314.6,-0,34820.4,110043
step02_gravity_refstate-crust.xmf,1844,-6.42076e-09,8.32893e-07,0,-1.74443e-06,-9.37116e+08,-9.37058e+08,-9.37116e+08,-119668,-0.00457311,-0.00249485,-0,0.00520938,-9630.73,-34117.9,-0,35451.1,119668
step02_gravity_refstate-crust.xmf,1845,-8.12615e-07,5.57193e-07,0,-2.68261e-06,-1.02382e+09,-1.02372e+09,-1.02376e+09,-184027,-0.011796,-0.0114307,-0,0.0164258,-8610.85,-37270.7,-0,38252.4,184027
step02_gravity_refstate-crust.xmf,1846,-6.84964e-07,7.54759e-07,0,-2.30326e-06,-1.00361e+09,-1.00351e+09,-1.00356e+09,-158004,-0.0104266,-0.00796823,-0,0.0131227,-9077.75,-36535.9,-0,37646.7,158004
step02_gravity_refstate-crust.xmf,1847,-7.54365e-07,1.72724e-07,0,-3.29177e-06,-1.05936e+09,-1.0593e+09,-1.05931e+09,-225815,-0.0125649,-0.0139971,-0,0.0188095,-8284.74,-38564.4,-0,39444.2,225815
step02_gravity_refstate-crust.xmf,1848,-5.49747e-07,-3.08627e-07,0,-3.8009e-06,-1.07931e+09,-1.07929e+09,-1.07927e+09,-260742,-0.0122573,-0.0168824,-0,0.0208628,-7814.23,-39290.5,-0,40060.1,260742
step02_gravity_refstate-crust.xmf,1849,7.98163e-07,9.00401e-07,0,-1.42355e-06,-6.9694e+08,-6.96933e+08,-6.96995e+08,-97655.2,0.00750688,0.0339518,0,0.0347718,-15632.9,-25377.4,-0,29806.1,97655.2
step02_gravity_refstate-crust.xmf,1850,7.09637e-07,8.98804e-07,0,-1.41413e-06,-6.35917e+08,-6.35904e+08,-6.35966e+08,-97009.6,0.00803663,0.0402822,0,0.041076,-16862.7,-23155.5,-0,28644.8,97009.6
step02_gravity_refstate-crust.xmf,1851,7.58385e-07,9.01766e-07,0,-1.42183e-06,-6.6786e+08,-6.6785e+08,-6.67912e+08,-97537.8,0.00781648,0.037079,0,0.0378939,-16236.2,-24318.6,-0,29240.5,97537.8
step02_gravity_refstate-crust.xmf,1852,5.74451e-07,8.51576e-07,0,-1.23817e-06,-5.60377e+08,-5.60358e+08,-5.60417e+08,-84938.6,0.00743829,0.0510168,0,0.0515562,-19572.4,-20404.7,-0,28274.2,84938.6
step02_gravity_refstate-crust.xmf,1853,5.06901e-07,8.10923e-07,0,-1.08449e-06,-5.15313e+08,-5.15292e+08,-5.15347e+08,-74395.9,0.00675796,0.058213,0,0.058604,-21784.5,-18763.8,-0,28751.4,74395.9
step02_gravity_refstate-crust.xmf,1854,4.41265e-07,7.75065e-07,0,-7.96177e-07,-4.63967e+08,-4.63944e+08,-4.63997e+08,-54617.7,0.0053135,0.0689105,0,0.069115,-26029.3,-16894.2,-0,31031.2,54617.7
step02_gravity_refstate-crust.xmf,1855,4.58269e-07,6.18622e-07,0,-5.59742e-07,-3.57568e+08,-3.57557e+08,-3.57599e+08,-38398.3,0.00478759,0.0777604,0,0.0779076,-29744,-13020.4,-0,32469,38398.3
step02_gravity_refstate-crust.xmf,1856,5.23657e-07,5.10709e-07,0,-3.54937e-07,-3.02271e+08,-3.02272e+08,-3.02307e+08,-24348.7,0.003768,0.0827973,0,0.082883,-33006.6,-11007.4,-0,34793.7,24348.7
step02_gravity_refstate-crust.xmf,1857,8.29592e-07,8.95334e-07,0,-1.42055e-06,-7.25424e+08,-7.25419e+08,-7.25481e+08,-97449.7,0.00707331,0.0306671,0,0.0314723,-15009.3,-26414.5,-0,30381,97449.7
step02_gravity_refstate-crust.xmf,1858,-4.85721e-07,8.748e-07,0,-1.97902e-06,-9.81242e+08,-9.81148e+08,-9.81208e+08,-135760,-0.00860222,-0.00447726,-0,0.00969763,-9534.06,-35722.5,-0,36972.9,135760
step02_gravity_refstate-crust.xmf,1859,-8.15724e-07,4.62966e-07,0,-2.91362e-06,-1.04233e+09,-1.04224e+09,-1.04228e+09,-199874,-0.0122715,-0.0116251,-0,0.0169036,-8634.1,-37944.6,-0,38914.5,199874
step02_gravity_refstate-crust.xmf,1860,6.23533e-07,8.75108e-07,0,-1.25291e-06,-6.00127e+08,-6.0011e+08,-6.0017e+08,-85949.4,0.00730705,0.0477706,0,0.0483263,-18879.9,-21852.1,-0,28878.5,85949.4
step02_gravity_refstate-crust.xmf,1861,5.47919e-07,8.49094e-07,0,-1.11392e-06,-5.55805e+08,-5.55785e+08,-5.55843e+08,-76414.8,0.00667927,0.055087,0,0.0554904,-21031.3,-20238.2,-0,29187.4,76414.8
step02_gravity_refstate-crust.xmf,1862,4.81507e-07,8.18302e-07,0,-9.53035e-07,-5.13306e+08,-5.13283e+08,-5.13339e+08,-65378.2,0.00594701,0.0622241,0,0.0625076,-23470.4,-18690.6,-0,30003.3,65378.2
step02_gravity_refstate-crust.xmf,1863,4.54582e-07,8.3712e-07,0,-8.29609e-07,-5.10393e+08,-5.10367e+08,-5.10424e+08,-56911.1,0.00516218,0.0659917,0,0.0661933,-25224.2,-18584.5,-0,31331.2,56911.1
step02_gravity_refstate-crust.xmf,1864,4.34079e-07,7.09106e-07,0,-6.24974e-07,-4.09027e+08,-4.09008e+08,-4.09057e+08,-42873.2,0.00467523,0.0751285,0,0.0752738,-28801.7,-14893.9,-0,32424.7,42873.2
step02_gravity_refstate-crust.xmf,1865,4.23357e-07,7.88239e-07,0,-6.72617e-07,-4.58743e+08,-4.58718e+08,-4.58772e+08,-46141.5,0.00454707,0.0723915,0,0.0725341,-27927.7,-16703.9,-0,32542,46141.5
step02_gravity_refstate-crust.xmf,1866,4.66711e-07,6.22941e-07,0,-4.32489e-07,-3.54587e+08,-3.54576e+08,-3.54619e+08,-29668.8,0.00381011,0.0805798,0,0.0806699,-31921,-12911.9,-0,34433.6,29668.8
step02_gravity_refstate-crust.xmf,1867,5.45023e-07,5.02208e-07,0,-2.27374e-07,-2.97106e+08,-2.97109e+08,-2.97143e+08,-15597.9,0.00251789,0.0848452,0,0.0848826,-35428,-10819.4,-0,37043.3,15597.9
step02_gravity_refstate-crust.xmf,1868,6.05737e-07,4.16598e-07,0,-1.03944e-07,-2.62752e+08,-2.62765e+08,-2.62794e+08,-7130.54,0.00135109,0.086538,0,0.0865485,-37780.4,-9568.86,-0,38973.3,7130.54
step02_gravity_refstate-crust.xmf,1869,6.73593e-07,3.18772e-07,0,2.69061e-10,-2.2726e+08,-2.27284e+08,-2.27306e+08,18.4576,2.72324e-19,0.0873567,0,0.0873567,-40000,-8276.85,-0,40847.4,18.4576
step02_gravity_refstate-crust.xmf,1870,8.44242e-07,8.88667e-07,0,-1.40524e-06,-7.53527e+08,-7.53524e+08,-7.53585e+08,-96399.6,0.00643791,0.0274092,0,0.0281551,-14416.7,-27437.7,-0,30994.6,96399.6
step02_gravity_refstate-crust.xmf,1871,8.3506e-07,8.84419e-07,0,-1.38042e-06,-7.80719e+08,-7.80715e+08,-7.80776e+08,-94696.6,0.00559163,0.0242301,0,0.0248669,-13860.6,-28427.6,-0,31626.7,94696.6
step02_gravity_refstate-crust.xmf,1872,7.91355e-07,8.87543e-07,0,-1.34455e-06,-8.07711e+08,-8.07704e+08,-8.07765e+08,-92235.9,0.00446432,0.0212024,0,0.0216673,-13360.5,-29410.1,-0,32302.6,92235.9
step02_gravity_refstate-crust.xmf,1873,7.00218e-07,9.02347e-07,0,-1.30618e-06,-8.36259e+08,-8.36245e+08,-8.36307e+08,-89603.9,0.0029588,0.0180449,0,0.0182859,-12863.3,-30449.1,-0,33054.7,89603.9
step02_gravity_refstate-crust.xmf,1874,5.83698e-07,9.19412e-07,0,-1.29677e-06,-8.61323e+08,-8.613e+08,-8.61363e+08,-88958.4,0.00143429,0.0147999,0,0.0148693,-12345.3,-31361.1,-0,33703.5,88958.4
step02_gravity_refstate-crust.xmf,1875,4.56057e-07,9.19765e-07,0,-1.34745e-06,-8.83967e+08,-8.83935e+08,-8.83998e+08,-92435.1,-4.40958e-05,0.0105015,-0,0.0105016,-11625.4,-32185,-0,34220.2,92435.1
step02_gravity_refstate-crust.xmf,1876,-2.63746e-07,9.39568e-07,0,-1.71703e-06,-9.59862e+08,-9.5978e+08,-9.59844e+08,-117788,-0.00665315,-0.000737866,-0,0.00669394,-10042.5,-34945.1,-0,36359.5,117788
step02_gravity_refstate-crust.xmf,1877,2.04391e-07,9.57996e-07,0,-1.40191e-06,-9.13936e+08,-9.13884e+08,-9.1395e+08,-96170.8,-0.00251947,0.0068925,-0,0.00733855,-11127.6,-33275.1,-0,35086.4,96170.8
step02_gravity_refstate-crust.xmf,1878,-2.92132e-08,9.67298e-07,0,-1.52239e-06,-9.37837e+08,-9.37768e+08,-9.37835e+08,-104436,-0.00462456,0.00325931,-0,0.0056577,-10611.2,-34144.3,-0,35755.1,104436
step02_gravity_refstate-crust.xmf,1879,-6.25808e-07,9.66307e-07,0,-2.02162e-06,-1.00373e+09,-1.00362e+09,-1.00369e+09,-138683,-0.00982429,-0.0024401,-0,0.0101228,-10012.8,-36540.8,-0,37887.8,138683
step02_gravity_refstate-crust.xmf,1880,-7.57668e-07,7.74028e-07,0,-2.47465e-06,-1.03049e+09,-1.03039e+09,-1.03044e+09,-169761,-0.0113785,-0.00655078,-0,0.0131295,-9437.98,-37514.2,-0,38683.2,169761
step02_gravity_refstate-crust.xmf,1881,-7.16524e-07,5.1776e-07,0,-2.89353e-06,-1.05687e+09,-1.05679e+09,-1.05682e+09,-198496,-0.0119639,-0.00893208,-0,0.0149304,-9130.93,-38474.4,-0,39543.1,198496
step02_gravity_refstate-crust.xmf,1882,-5.4309e-07,1.30328e-07,0,-3.34291e-06,-1.0783e+09,-1.07826e+09,-1.07827e+09,-229324,-0.0118218,-0.011695,-0,0.0166291,-8690.1,-39254.7,-0,40205.1,229324
step02_gravity_refstate-crust.xmf,1883,6.65018e-07,8.90778e-07,0,-1.26049e-06,-6.34169e+08,-6.34154e+08,-6.34215e+08,-86469.8,0.00713175,0.0447135,0,0.0452787,-18227.8,-23091.6,-0,29419,86469.8
step02_gravity_refstate-crust.xmf,1884,7.50296e-07,9.14439e-07,0,-1.24761e-06,-7.26024e+08,-7.26013e+08,-7.26075e+08,-85586.1,0.00605452,0.0352742,0,0.0357901,-16271.2,-26436.1,-0,31042.2,85586.1
step02_gravity_refstate-crust.xmf,1885,7.29194e-07,9.10288e-07,0,-1.25046e-06,-6.97972e+08,-6.97959e+08,-6.98022e+08,-85781.9,0.00646991,0.0385256,0,0.0390651,-16950.1,-25414.7,-0,30548.5,85781.9
step02_gravity_refstate-crust.xmf,1886,7.01254e-07,9.02225e-07,0,-1.25721e-06,-6.67377e+08,-6.67363e+08,-6.67425e+08,-86244.4,0.00684043,0.0416266,0,0.0421849,-17589.6,-24300.8,-0,29998.7,86244.4
step02_gravity_refstate-crust.xmf,1887,5.80283e-07,8.7745e-07,0,-1.11921e-06,-5.95474e+08,-5.95454e+08,-5.95514e+08,-76777.5,0.00649715,0.0520395,0,0.0524435,-20347.7,-21682.5,-0,29734.8,76777.5
step02_gravity_refstate-crust.xmf,1888,5.07114e-07,8.60252e-07,0,-9.76034e-07,-5.54272e+08,-5.54248e+08,-5.54307e+08,-66955.9,0.00582871,0.0591887,0,0.059475,-22687.4,-20182.2,-0,30365.1,66955.9
step02_gravity_refstate-crust.xmf,1889,4.20914e-07,8.5935e-07,0,-7.06018e-07,-5.07192e+08,-5.07162e+08,-5.07221e+08,-48432.8,0.00439781,0.0694812,0,0.0696202,-27059.6,-18467.9,-0,32761,48432.8
step02_gravity_refstate-crust.xmf,1890,4.28961e-07,7.21661e-07,0,-4.97462e-07,-4.06174e+08,-4.06154e+08,-4.06203e+08,-34125.9,0.00379555,0.0781131,0,0.0782053,-30903.1,-14790,-0,34260,34125.9
step02_gravity_refstate-crust.xmf,1891,4.72398e-07,6.28631e-07,0,-3.12806e-07,-3.52548e+08,-3.52538e+08,-3.52581e+08,-21458.5,0.00281739,0.0827089,0,0.0827569,-34069.9,-12837.8,-0,36408.3,21458.5
step02_gravity_refstate-crust.xmf,1892,7.56974e-07,9.1877e-07,0,-1.23661e-06,-7.53593e+08,-7.53582e+08,-7.53645e+08,-84831.6,0.00547137,0.0320257,0,0.0324897,-15620,-27439.8,-0,31574.2,84831.6
step02_gravity_refstate-crust.xmf,1893,-4.36981e-07,1.00973e-06,0,-1.7812e-06,-9.79621e+08,-9.79521e+08,-9.79591e+08,-122190,-0.00813825,-9.08258e-05,-0,0.00813875,-10279.5,-35663.9,-0,37115.7,122190
step02_gravity_refstate-crust.xmf,1894,6.1204e-07,9.03051e-07,0,-1.11711e-06,-6.32928e+08,-6.32908e+08,-6.3297e+08,-76633.8,0.00623241,0.0489817,0,0.0493766,-19674.8,-23046.3,-0,30302.3,76633.8
step02_gravity_refstate-crust.xmf,1895,5.36483e-07,8.98937e-07,0,-9.90809e-07,-5.93451e+08,-5.93426e+08,-5.93488e+08,-67969.5,0.00565589,0.0561055,0,0.0563899,-21917.5,-21608.8,-0,30778.5,67969.5
step02_gravity_refstate-crust.xmf,1896,4.65981e-07,8.87276e-07,0,-8.48478e-07,-5.53751e+08,-5.53722e+08,-5.53783e+08,-58205.6,0.00500266,0.0629606,0,0.063159,-24399.4,-20163.1,-0,31652.5,58205.6
step02_gravity_refstate-crust.xmf,1897,4.26184e-07,9.23858e-07,0,-7.29314e-07,-5.53117e+08,-5.53083e+08,-5.53146e+08,-50030.9,0.00421551,0.0664505,0,0.066584,-26189.1,-20139.9,-0,33037.7,50030.9
step02_gravity_refstate-crust.xmf,1898,4.0536e-07,8.08925e-07,0,-5.49508e-07,-4.56275e+08,-4.56247e+08,-4.56303e+08,-37696.2,0.00374585,0.075435,0,0.075528,-29919.5,-16614,-0,34222.9,37696.2
step02_gravity_refstate-crust.xmf,1899,3.90808e-07,8.87999e-07,0,-5.87376e-07,-5.04945e+08,-5.04911e+08,-5.04972e+08,-40294,0.0036455,0.0725942,0,0.0726857,-28972.5,-18386,-0,34314,40294
step02_gravity_refstate-crust.xmf,1900,4.23613e-07,7.35839e-07,0,-3.72121e-07,-4.04346e+08,-4.04325e+08,-4.04375e+08,-25527.5,0.00288467,0.0805399,0,0.0805915,-33074.8,-14723.5,-0,36203.9,25527.5
step02_gravity_refstate-crust.xmf,1901,4.76505e-07,6.31731e-07,0,-2.09568e-07,-3.50705e+08,-3.50694e+08,-3.50737e+08,-14376.4,0.00192398,0.0840668,0,0.0840889,-35975.9,-12770.7,-0,38175.3,14376.4
step02_gravity_refstate-crust.xmf,1902,5.03951e-07,5.88231e-07,0,-1.08735e-07,-3.30605e+08,-3.306e+08,-3.3064e+08,-7459.23,0.0010766,0.0853236,0,0.0853304,-37869,-12039,-0,39736.6,7459.23
step02_gravity_refstate-crust.xmf,1903,5.4954e-07,5.11899e-07,0,-1.25868e-10,-2.99344e+08,-2.99347e+08,-2.99382e+08,-8.63455,2.15954e-19,0.0862662,0,0.0862662,-40000,-10900.9,-0,41458.8,8.63455
step02_gravity_refstate-crust.xmf,1904,7.4223e-07,9.25987e-07,0,-1.21578e-06,-7.80174e+08,-7.80161e+08,-7.80225e+08,-83402.6,0.00469233,0.0289547,0,0.0293324,-15036.2,-28407.4,-0,32141.4,83402.6
step02_gravity_refstate-crust.xmf,1905,7.02931e-07,9.37631e-07,0,-1.19291e-06,-8.06666e+08,-8.0665e+08,-8.06714e+08,-81833.5,0.00370829,0.0257994,0,0.0260646,-14455.5,-29371.8,-0,32736.3,81833.5
step02_gravity_refstate-crust.xmf,1906,6.28821e-07,9.57945e-07,0,-1.17019e-06,-8.33497e+08,-8.33474e+08,-8.3354e+08,-80275.2,0.00246167,0.0225945,0,0.0227282,-13892,-30348.3,-0,33376.8,80275.2
step02_gravity_refstate-crust.xmf,1907,5.16396e-07,9.87507e-07,0,-1.15902e-06,-8.60102e+08,-8.60069e+08,-8.60137e+08,-79509.1,0.000976019,0.0193519,0,0.0193765,-13345.1,-31316.5,-0,34041.3,79509.1
step02_gravity_refstate-crust.xmf,1908,3.6636e-07,1.02144e-06,0,-1.17695e-06,-8.86402e+08,-8.86357e+08,-8.86427e+08,-80739.1,-0.000712577,0.0158724,-0,0.0158884,-12770.5,-32273.4,-0,34708.2,80739.1
step02_gravity_refstate-crust.xmf,1909,1.81545e-07,1.05632e-06,0,-1.23294e-06,-9.12074e+08,-9.12014e+08,-9.12086e+08,-84579.4,-0.00256902,0.0123071,-0,0.0125724,-12203.6,-33207.3,-0,35378.7,84579.4
step02_gravity_refstate-crust.xmf,1910,-2.76771e-07,1.09061e-06,0,-1.5308e-06,-9.64277e+08,-9.64184e+08,-9.64258e+08,-105013,-0.0067318,0.00467439,-0,0.00819555,-11063.9,-35106.1,-0,36808.2,105013
step02_gravity_refstate-crust.xmf,1911,-2.72336e-08,1.08321e-06,0,-1.3378e-06,-9.36854e+08,-9.36778e+08,-9.36852e+08,-91773,-0.00451171,0.00872077,-0,0.00981873,-11655.5,-34108.7,-0,36045.2,91773
step02_gravity_refstate-crust.xmf,1912,-5.04281e-07,1.10847e-06,0,-1.74633e-06,-9.93814e+08,-9.93704e+08,-9.9378e+08,-119798,-0.00878259,0.00251611,-0,0.0091359,-10873.3,-36180.5,-0,37779,119798
step02_gravity_refstate-crust.xmf,1913,-6.82886e-07,9.64715e-07,0,-2.17268e-06,-1.02617e+09,-1.02606e+09,-1.02613e+09,-149046,-0.0106768,-0.00205229,-0,0.0108722,-10229.8,-37357.6,-0,38732.9,149046
step02_gravity_refstate-crust.xmf,1914,-6.57671e-07,8.28079e-07,0,-2.47392e-06,-1.05143e+09,-1.05132e+09,-1.05138e+09,-169711,-0.0112822,-0.00352728,-0,0.0118207,-10105.6,-38276.8,-0,39588.4,169711
step02_gravity_refstate-crust.xmf,1915,-5.24301e-07,4.84582e-07,0,-2.93042e-06,-1.0768e+09,-1.07673e+09,-1.07677e+09,-201027,-0.0113867,-0.00679427,-0,0.0132597,-9592.56,-39200.7,-0,40357.3,201027
step02_gravity_refstate-crust.xmf,1916,6.36701e-07,9.24336e-07,0,-1.10768e-06,-6.67861e+08,-6.67842e+08,-6.67905e+08,-75986.8,0.00588121,0.045915,0,0.0462902,-19005.7,-24318.2,-0,30864.1,75986.8
step02_gravity_refstate-crust.xmf,1917,6.63156e-07,9.68838e-07,0,-1.08109e-06,-7.55986e+08,-7.55965e+08,-7.56032e+08,-74163.1,0.00445595,0.0364054,0,0.0366771,-16909.4,-27526.6,-0,32305.4,74163.1
step02_gravity_refstate-crust.xmf,1918,6.6145e-07,9.57787e-07,0,-1.08532e-06,-7.29566e+08,-7.29546e+08,-7.29611e+08,-74452.7,0.00497084,0.0396408,0,0.0399512,-17627.8,-26564.7,-0,31881.4,74452.7
step02_gravity_refstate-crust.xmf,1919,6.52743e-07,9.42577e-07,0,-1.0941e-06,-7.00221e+08,-7.00201e+08,-7.00266e+08,-75055.3,0.0054461,0.0428313,0,0.0431762,-18334.8,-25496.3,-0,31404.3,75055.3
step02_gravity_refstate-crust.xmf,1920,5.54698e-07,9.29524e-07,0,-9.88595e-07,-6.31048e+08,-6.31022e+08,-6.31086e+08,-67817.6,0.00539607,0.05301,0,0.053284,-21171.9,-22977.6,-0,31244.5,67817.6
step02_gravity_refstate-crust.xmf,1921,4.80919e-07,9.31575e-07,0,-8.61136e-07,-5.93813e+08,-5.93783e+08,-5.93846e+08,-59073.9,0.00481278,0.059875,0,0.0600682,-23569.3,-21621.8,-0,31984.5,59073.9
step02_gravity_refstate-crust.xmf,1922,3.80461e-07,9.62396e-07,0,-6.10496e-07,-5.52636e+08,-5.52596e+08,-5.52662e+08,-41880.1,0.00346875,0.0696148,0,0.0697012,-28062.8,-20122.3,-0,34531.5,41880.1
step02_gravity_refstate-crust.xmf,1923,3.87656e-07,8.33311e-07,0,-4.26349e-07,-4.55467e+08,-4.55436e+08,-4.55493e+08,-29247.5,0.00291895,0.0780137,0,0.0780683,-32022.2,-16584.6,-0,36062,29247.5
step02_gravity_refstate-crust.xmf,1924,4.19779e-07,7.47117e-07,0,-2.49332e-07,-4.02556e+08,-4.02534e+08,-4.02585e+08,-17104.2,0.00195811,0.0823577,0,0.082381,-35299,-14658.3,-0,38221.5,17104.2
step02_gravity_refstate-crust.xmf,1925,6.50517e-07,9.81092e-07,0,-1.0747e-06,-7.80973e+08,-7.8095e+08,-7.81017e+08,-73724.3,0.0038196,0.0332493,0,0.033468,-16233.8,-28436.2,-0,32743.8,73724.3
step02_gravity_refstate-crust.xmf,1926,-6.0939e-07,1.06891e-06,0,-1.95e-06,-1.01418e+09,-1.01406e+09,-1.01413e+09,-133770,-0.00992804,0.000716874,-0,0.00995389,-10678.5,-36921.3,-0,38434.5,133770
step02_gravity_refstate-crust.xmf,1927,5.69709e-07,9.61566e-07,0,-9.76969e-07,-6.68374e+08,-6.68347e+08,-6.68413e+08,-67020.1,0.00499993,0.0498589,0,0.050109,-20446.3,-24336.6,-0,31785.5,67020.1
step02_gravity_refstate-crust.xmf,1928,4.98391e-07,9.71198e-07,0,-8.69078e-07,-6.30688e+08,-6.30655e+08,-6.30722e+08,-59618.8,0.00457307,0.0567941,0,0.056978,-22753.5,-22964.3,-0,32327.8,59618.8
step02_gravity_refstate-crust.xmf,1929,4.26661e-07,9.78595e-07,0,-7.38747e-07,-5.96357e+08,-5.96319e+08,-5.96386e+08,-50678,0.00398647,0.0633048,0,0.0634302,-25302.6,-21714.2,-0,33342.6,50678
step02_gravity_refstate-crust.xmf,1930,3.74714e-07,1.03374e-06,0,-6.23617e-07,-5.98645e+08,-5.98599e+08,-5.9867e+08,-42780.1,0.00320954,0.066512,0,0.0665894,-27165.8,-21797.4,-0,34829.7,42780.1
step02_gravity_refstate-crust.xmf,1931,3.61938e-07,9.1987e-07,0,-4.67643e-07,-5.03839e+08,-5.03801e+08,-5.03864e+08,-32080.3,0.00288458,0.0753392,0,0.0753944,-31022.3,-18345.7,-0,36040.9,32080.3
step02_gravity_refstate-crust.xmf,1932,3.4145e-07,1.00172e-06,0,-4.98281e-07,-5.51525e+08,-5.5148e+08,-5.51548e+08,-34182.1,0.00277556,0.0724268,0,0.0724799,-30017.3,-20081.7,-0,36115.3,34182.1
step02_gravity_refstate-crust.xmf,1933,3.73616e-07,8.53056e-07,0,-3.03358e-07,-4.53746e+08,-4.53713e+08,-4.53772e+08,-20810.3,0.00208865,0.0801103,0,0.0801375,-34235.2,-16521.9,-0,38013.5,20810.3
step02_gravity_refstate-crust.xmf,1934,4.1737e-07,7.54909e-07,0,-1.15389e-07,-4.01377e+08,-4.01354e+08,-4.01406e+08,-7915.67,0.000916117,0.0835718,0,0.0835769,-37800.5,-14615.4,-0,40527.6,7915.67
step02_gravity_refstate-crust.xmf,1935,4.53397e-07,6.84247e-07,0,-4.00979e-10,-3.69909e+08,-3.69894e+08,-3.6994e+08,-27.5072,1.83846e-19,0.0847293,0,0.0847293,-40000,-13469.8,-0,42207.1,27.5072
step02_gravity_refstate-crust.xmf,1936,6.16231e-07,9.98338e-07,0,-1.05995e-06,-8.0545e+08,-8.05424e+08,-8.05493e+08,-72712.8,0.00299036,0.0303079,0,0.0304551,-15645.1,-29327.3,-0,33239.4,72712.8
step02_gravity_refstate-crust.xmf,1937,5.48968e-07,1.02606e-06,0,-1.04089e-06,-8.31808e+08,-8.31775e+08,-8.31846e+08,-71405.4,0.00187259,0.0272459,0,0.0273102,-15069.2,-30286.6,-0,33828.4,71405.4
step02_gravity_refstate-crust.xmf,1938,4.49742e-07,1.06093e-06,0,-1.03501e-06,-8.58654e+08,-8.58612e+08,-8.58685e+08,-71001.5,0.000534278,0.0239396,0,0.0239455,-14462.8,-31263.6,-0,34446.9,71001.5
step02_gravity_refstate-crust.xmf,1939,3.13686e-07,1.10437e-06,0,-1.05e-06,-8.85719e+08,-8.85665e+08,-8.85741e+08,-72029.8,-0.00103671,0.0205495,-0,0.0205756,-13870.5,-32248.5,-0,35104.9,72029.8
step02_gravity_refstate-crust.xmf,1940,1.53485e-07,1.14873e-06,0,-1.09654e-06,-9.11333e+08,-9.11265e+08,-9.11344e+08,-75222.9,-0.00269903,0.017233,-0,0.0174431,-13314.9,-33180.4,-0,35752.3,75222.9
step02_gravity_refstate-crust.xmf,1941,-2.42308e-08,1.18723e-06,0,-1.18298e-06,-9.35943e+08,-9.3586e+08,-9.35941e+08,-81152.6,-0.00441422,0.0139127,-0,0.0145962,-12778.4,-34075.7,-0,36392.8,81152.6
step02_gravity_refstate-crust.xmf,1942,-2.19295e-07,1.21267e-06,0,-1.32499e-06,-9.61183e+08,-9.61084e+08,-9.61168e+08,-90894.5,-0.00622268,0.0104401,-0,0.0121539,-12240.5,-34993.8,-0,37072.9,90894.5
step02_gravity_refstate-crust.xmf,1943,-4.06045e-07,1.21942e-06,0,-1.5194e-06,-9.87048e+08,-9.86937e+08,-9.87021e+08,-104231,-0.00797152,0.0072999,-0,0.010809,-11802.4,-35934.7,-0,37823.3,104231
step02_gravity_refstate-crust.xmf,1944,-5.5229e-07,1.18127e-06,0,-1.78184e-06,-1.01436e+09,-1.01424e+09,-1.01433e+09,-122234,-0.00951081,0.00428793,-0,0.0104327,-11411.9,-36928.5,-0,38651.6,122234
step02_gravity_refstate-crust.xmf,1945,-6.2483e-07,1.05622e-06,0,-2.08894e-06,-1.03598e+09,-1.03587e+09,-1.03594e+09,-143301,-0.0105387,0.000836602,-0,0.0105718,-10872.9,-37715,-0,39251,143301
step02_gravity_refstate-crust.xmf,1946,-4.80076e-07,7.49146e-07,0,-2.58055e-06,-1.0766e+09,-1.07652e+09,-1.07657e+09,-177026,-0.0109335,-0.00230788,-0,0.0111744,-10500.5,-39193.9,-0,40576.2,177026
step02_gravity_refstate-crust.xmf,1947,5.58995e-07,1.04791e-06,0,-9.48867e-07,-7.84677e+08,-7.84643e+08,-7.84715e+08,-65092.3,0.00292664,0.0370286,0,0.037144,-17435.1,-28570.8,-0,33470.5,65092.3
step02_gravity_refstate-crust.xmf,1948,5.72722e-07,9.93015e-07,0,-9.55873e-07,-7.03256e+08,-7.03227e+08,-7.03295e+08,-65572.9,0.00447493,0.046832,0,0.0470453,-19775.9,-25606.6,-0,32354,65572.9
step02_gravity_refstate-crust.xmf,1949,5.6806e-07,1.03583e-06,0,-9.45278e-07,-7.60901e+08,-7.60868e+08,-7.60939e+08,-64846,0.00345421,0.0403047,0,0.0404524,-18219.8,-27705.2,-0,33159.4,64846
step02_gravity_refstate-crust.xmf,1950,5.64563e-07,1.02442e-06,0,-9.3363e-07,-7.36296e+08,-7.36264e+08,-7.36335e+08,-64047,0.00384847,0.0437057,0,0.0438748,-19081.6,-26809.5,-0,32906.7,64047
step02_gravity_refstate-crust.xmf,1951,5.02207e-07,1.00681e-06,0,-8.60907e-07,-6.67005e+08,-6.66971e+08,-6.6704e+08,-59058.2,0.00421577,0.0536785,0,0.0538438,-21968.6,-24286.6,-0,32748.4,59058.2
step02_gravity_refstate-crust.xmf,1952,4.33707e-07,1.0205e-06,0,-7.52575e-07,-6.32409e+08,-6.32369e+08,-6.32439e+08,-51626.7,0.00378758,0.060184,0,0.0603031,-24376.8,-23026.8,-0,33533,51626.7
step02_gravity_refstate-crust.xmf,1953,3.21153e-07,1.08308e-06,0,-5.14124e-07,-5.99019e+08,-5.98967e+08,-5.99041e+08,-35268.9,0.00254585,0.069359,0,0.0694057,-29068.6,-21810.9,-0,36341.4,35268.9
step02_gravity_refstate-crust.xmf,1954,3.36376e-07,9.51012e-07,0,-3.49738e-07,-5.03757e+08,-5.03715e+08,-5.0378e+08,-23992,0.00214086,0.0775607,0,0.0775903,-33153.4,-18342.6,-0,37889.3,23992
step02_gravity_refstate-crust.xmf,1955,3.68167e-07,8.60386e-07,0,-1.98246e-07,-4.50273e+08,-4.50239e+08,-4.50298e+08,-13599.7,0.00137736,0.0814827,0,0.0814943,-36202.3,-16395.5,-0,39741.9,13599.7
step02_gravity_refstate-crust.xmf,1956,5.44859e-07,1.05848e-06,0,-9.61004e-07,-8.03985e+08,-8.0395e+08,-8.04023e+08,-65924.9,0.00242215,0.03412,0,0.0342059,-16751.1,-29273.7,-0,33727.6,65924.9
step02_gravity_refstate-crust.xmf,1957,-5.75317e-07,9.89892e-07,0,-2.25338e-06,-1.05692e+09,-1.05681e+09,-1.05688e+09,-154582,-0.0107839,0.000517284,-0,0.0107963,-10969.9,-38477.4,-0,40010.6,154582
step02_gravity_refstate-crust.xmf,1958,4.96602e-07,1.04972e-06,0,-8.40316e-07,-7.04211e+08,-7.04173e+08,-7.04245e+08,-57645.7,0.0036614,0.0505642,0,0.0506966,-21248,-25641.1,-0,33300.8,57645.7
step02_gravity_refstate-crust.xmf,1959,4.41367e-07,1.05947e-06,0,-7.58253e-07,-6.66402e+08,-6.6636e+08,-6.66432e+08,-52016.2,0.00350143,0.0571353,0,0.0572425,-23517.2,-24264.5,-0,33790.9,52016.2
step02_gravity_refstate-crust.xmf,1960,3.641e-07,1.10402e-06,0,-6.26589e-07,-6.46138e+08,-6.46088e+08,-6.46163e+08,-42984,0.00284127,0.062955,0,0.0630191,-26150,-23526.5,-0,35175.5,42984
step02_gravity_refstate-crust.xmf,1961,3.00784e-07,1.16469e-06,0,-5.17222e-07,-6.44603e+08,-6.44543e+08,-6.44623e+08,-35481.4,0.00218535,0.066299,0,0.066335,-28221.7,-23470.4,-0,36705.9,35481.4
step02_gravity_refstate-crust.xmf,1962,3.06236e-07,1.04022e-06,0,-3.85435e-07,-5.50961e+08,-5.50911e+08,-5.50982e+08,-26440.8,0.00210284,0.0748519,0,0.0748815,-32110.8,-20061.1,-0,37862.3,26440.8
step02_gravity_refstate-crust.xmf,1963,2.78245e-07,1.12747e-06,0,-4.11152e-07,-5.97881e+08,-5.97823e+08,-5.979e+08,-28205,0.00196121,0.0718848,0,0.0719116,-31062.4,-21769.3,-0,37931.2,28205
step02_gravity_refstate-crust.xmf,1964,3.13781e-07,9.81558e-07,0,-2.14562e-07,-5.04963e+08,-5.04918e+08,-5.04985e+08,-14718.9,0.00129985,0.0793911,0,0.0794017,-35722.2,-18386.5,-0,40176.3,14718.9
step02_gravity_refstate-crust.xmf,1965,3.25641e-07,9.4639e-07,0,-9.63744e-08,-4.83234e+08,-4.83192e+08,-4.83256e+08,-6611.29,0.000617175,0.0811193,0,0.0811216,-38096.4,-17595.4,-0,41963.5,6611.29
step02_gravity_refstate-crust.xmf,1966,3.71952e-07,8.4641e-07,0,-7.95069e-10,-4.39154e+08,-4.39121e+08,-4.39179e+08,-54.5417,1.25694e-19,0.0827998,0,0.0827998,-40000,-15990.7,-0,43077.8,54.5417
step02_gravity_refstate-crust.xmf,1967,4.80633e-07,1.093e-06,0,-9.34076e-07,-8.29088e+08,-8.29046e+08,-8.2912e+08,-64077.6,0.00139733,0.0316159,0,0.0316467,-16287.5,-30187.4,-0,34301.1,64077.6
step02_gravity_refstate-crust.xmf,1968,3.84633e-07,1.13867e-06,0,-9.24067e-07,-8.57377e+08,-8.57325e+08,-8.57403e+08,-63391,0.000101787,0.0284362,0,0.0284364,-15686.7,-31217,-0,34936.7,63391
step02_gravity_refstate-crust.xmf,1969,2.61893e-07,1.18887e-06,0,-9.37277e-07,-8.85329e+08,-8.85265e+08,-8.85347e+08,-64297.2,-0.00135546,0.0250797,-0,0.0251163,-15066.3,-32234.2,-0,35581.4,64297.2
step02_gravity_refstate-crust.xmf,1970,1.27778e-07,1.23379e-06,0,-9.81178e-07,-9.10522e+08,-9.10446e+08,-9.10531e+08,-67308.8,-0.00280637,0.0217704,-0,0.0219505,-14462,-33150.9,-0,36168.1,67308.8
step02_gravity_refstate-crust.xmf,1971,-1.5801e-08,1.27539e-06,0,-1.05375e-06,-9.34148e+08,-9.34059e+08,-9.34147e+08,-72287.5,-0.00427153,0.0186678,-0,0.0191503,-13926.2,-34010.5,-0,36751.2,72287.5
step02_gravity_refstate-crust.xmf,1972,4.35533e-07,1.14457e-06,0,-8.47675e-07,-8.1958e+08,-8.19532e+08,-8.1961e+08,-58150.5,0.00125677,0.036206,0,0.0362278,-17622.8,-29841.2,-0,34656.3,58150.5
step02_gravity_refstate-crust.xmf,1973,-1.78747e-07,1.31331e-06,0,-1.16457e-06,-9.59239e+08,-9.59137e+08,-9.59227e+08,-79889.6,-0.00586467,0.0155319,-0,0.0166023,-13426.2,-34923.4,-0,37415.3,79889.6
step02_gravity_refstate-crust.xmf,1974,-3.38816e-07,1.32973e-06,0,-1.33071e-06,-9.84988e+08,-9.84873e+08,-9.84965e+08,-91286.6,-0.00744286,0.0122567,-0,0.0143395,-12921.6,-35860.2,-0,38117.2,91286.6
step02_gravity_refstate-crust.xmf,1975,-4.73008e-07,1.3066e-06,0,-1.5652e-06,-1.01251e+09,-1.01239e+09,-1.01248e+09,-107373,-0.00891508,0.00888448,-0,0.0125862,-12428.5,-36861.7,-0,38900.5,107373
step02_gravity_refstate-crust.xmf,1976,-5.44075e-07,1.18897e-06,0,-1.91452e-06,-1.04346e+09,-1.04334e+09,-1.04342e+09,-131336,-0.0101378,0.00491516,-0,0.0112665,-11830.6,-37987.8,-0,39787.3,131336
step02_gravity_refstate-crust.xmf,1977,-4.49743e-07,9.9909e-07,0,-2.23313e-06,-1.07486e+09,-1.07476e+09,-1.07483e+09,-153193,-0.0104766,0.0023621,-0,0.0107396,-11530,-39131.2,-0,40794.5,153193
step02_gravity_refstate-crust.xmf,1978,4.82418e-07,1.11309e-06,0,-8.54693e-07,-7.89832e+08,-7.89789e+08,-7.89865e+08,-58631.9,0.00216881,0.0399053,0,0.0399642,-18473.1,-28758.3,-0,34180.3,58631.9
step02_gravity_refstate-crust.xmf,1979,4.76626e-07,1.09641e-06,0,-8.14094e-07,-7.41455e+08,-7.41412e+08,-7.41488e+08,-55846.8,0.00293614,0.0472886,0,0.0473797,-20510.2,-26997,-0,33904.4,55846.8
step02_gravity_refstate-crust.xmf,1980,4.50701e-07,1.13593e-06,0,-8.00235e-07,-7.76603e+08,-7.76556e+08,-7.76634e+08,-54896.2,0.00216155,0.0435079,0,0.0435615,-19593.6,-28276.6,-0,34401.7,54896.2
step02_gravity_refstate-crust.xmf,1981,4.25395e-07,1.10874e-06,0,-7.39226e-07,-7.03656e+08,-7.03609e+08,-7.03685e+08,-50710.9,0.00297094,0.054088,0,0.0541695,-22777,-25620.7,-0,34281.4,50710.9
step02_gravity_refstate-crust.xmf,1982,3.85559e-07,1.11067e-06,0,-6.72708e-07,-6.69085e+08,-6.69035e+08,-6.69111e+08,-46147.8,0.00290493,0.0596569,0,0.0597275,-24837.6,-24362,-0,34791,46147.8
step02_gravity_refstate-crust.xmf,1983,2.48014e-07,1.21443e-06,0,-4.21353e-07,-6.43281e+08,-6.43215e+08,-6.43298e+08,-28904.8,0.0016781,0.0688945,0,0.0689149,-30148.9,-23422.2,-0,38177.9,28904.8
step02_gravity_refstate-crust.xmf,1984,2.76856e-07,1.07551e-06,0,-2.74771e-07,-5.51761e+08,-5.51706e+08,-5.5178e+08,-18849.3,0.00146549,0.0767036,0,0.0767176,-34275.9,-20090.2,-0,39729.7,18849.3
step02_gravity_refstate-crust.xmf,1985,4.00321e-07,1.16401e-06,0,-7.16726e-07,-7.41242e+08,-7.41189e+08,-7.41269e+08,-49167.4,0.00227603,0.0508916,0,0.0509425,-22030.6,-26989.1,-0,34839,49167.4
step02_gravity_refstate-crust.xmf,1986,3.65059e-07,1.16739e-06,0,-6.52817e-07,-7.02734e+08,-7.02679e+08,-7.02759e+08,-44783.2,0.0023945,0.0572313,0,0.0572814,-24297.7,-25587,-0,35285.6,44783.2
step02_gravity_refstate-crust.xmf,1987,3.12002e-07,1.21351e-06,0,-5.76344e-07,-6.9774e+08,-6.97678e+08,-6.97761e+08,-39537.2,0.00198229,0.0602572,0,0.0602898,-25846.4,-25405.1,-0,36241.6,39537.2
step02_gravity_refstate-crust.xmf,1988,2.63644e-07,1.25626e-06,0,-5.01571e-07,-6.91384e+08,-6.91315e+08,-6.91402e+08,-34407.7,0.00162791,0.0631952,0,0.0632162,-27509.7,-25173.5,-0,37289.3,34407.7
step02_gravity_refstate-crust.xmf,1989,2.12833e-07,1.30769e-06,0,-4.19851e-07,-6.88895e+08,-6.8882e+08,-6.8891e+08,-28801.8,0.00123771,0.0658092,0,0.0658208,-29337.6,-25082.8,-0,38598.4,28801.8
step02_gravity_refstate-crust.xmf,1990,2.41863e-07,1.16731e-06,0,-3.08678e-07,-5.9729e+08,-5.97227e+08,-5.97307e+08,-21175.3,0.00142063,0.0739657,0,0.0739793,-33161.8,-21747.7,-0,39656.9,21175.3
step02_gravity_refstate-crust.xmf,1991,2.06344e-07,1.25866e-06,0,-3.28952e-07,-6.41774e+08,-6.41702e+08,-6.41788e+08,-22566.1,0.00123611,0.0711142,0,0.071125,-32169.1,-23367.2,-0,39760.3,22566.1
step02_gravity_refstate-crust.xmf,1992,2.5666e-07,1.10346e-06,0,-1.81596e-07,-5.54021e+08,-5.53963e+08,-5.54038e+08,-12457.5,0.000946571,0.0777657,0,0.0777715,-36174.1,-20172.4,-0,41418.5,12457.5
step02_gravity_refstate-crust.xmf,1993,2.65036e-07,1.07615e-06,0,-9.82248e-08,-5.38236e+08,-5.38181e+08,-5.38254e+08,-6738.22,0.00053852,0.0790557,0,0.0790575,-37946.3,-19597.8,-0,42708.3,6738.22
step02_gravity_refstate-crust.xmf,1994,2.96026e-07,1.00646e-06,0,-8.61787e-10,-5.07275e+08,-5.07226e+08,-5.07295e+08,-59.1186,1.09737e-19,0.0805024,0,0.0805024,-40000,-18470.6,-0,44058.6,59.1186
step02_gravity_refstate-crust.xmf,1995,3.28189e-07,1.21322e-06,0,-8.27929e-07,-8.55047e+08,-8.54986e+08,-8.5507e+08,-56795.9,-0.000234109,0.0327533,-0,0.0327541,-16985.4,-31132,-0,35464.2,56795.9
step02_gravity_refstate-crust.xmf,1996,2.10394e-07,1.27415e-06,0,-8.39127e-07,-8.8581e+08,-8.85737e+08,-8.85824e+08,-57564.1,-0.00168068,0.0292986,-0,0.0293468,-16325.7,-32251.6,-0,36148.2,57564.1
step02_gravity_refstate-crust.xmf,1997,7.9742e-08,1.32779e-06,0,-8.83096e-07,-9.14265e+08,-9.14179e+08,-9.1427e+08,-60580.4,-0.00315134,0.0257039,-0,0.0258963,-15633.7,-33287.1,-0,36775.6,60580.4
step02_gravity_refstate-crust.xmf,1998,-1.44414e-08,1.34576e-06,0,-9.53562e-07,-9.31986e+08,-9.31893e+08,-9.31985e+08,-65414.4,-0.00412948,0.0225411,-0,0.0229163,-14956.5,-33931.9,-0,37081.9,65414.4
step02_gravity_refstate-crust.xmf,1999,-1.40806e-07,1.39282e-06,0,-1.03147e-06,-9.56095e+08,-9.5599e+08,-9.56085e+08,-70759.1,-0.00549957,0.02008,-0,0.0208195,-14597.9,-34809.2,-0,37746.2,70759.1
step02_gravity_refstate-crust.xmf,2000,3.68333e-07,1.21499e-06,0,-7.57426e-07,-8.16577e+08,-8.16519e+08,-8.16603e+08,-51959.5,0.000820941,0.0403265,0,0.0403348,-19038.1,-29731.7,-0,35304.7,51959.5
step02_gravity_refstate-crust.xmf,2001,-2.82057e-07,1.4235e-06,0,-1.16869e-06,-9.82853e+08,-9.82736e+08,-9.82833e+08,-80172.3,-0.0069732,0.0168936,-0,0.0182762,-14093.7,-35782.8,-0,38458.3,80172.3
step02_gravity_refstate-crust.xmf,2002,-3.99079e-07,1.41757e-06,0,-1.36264e-06,-1.0099e+09,-1.00977e+09,-1.00987e+09,-93477,-0.00832104,0.0135178,-0,0.0158736,-13560.7,-36766.9,-0,39187.9,93477
step02_gravity_refstate-crust.xmf,2003,-4.6399e-07,1.35291e-06,0,-1.62846e-06,-1.04035e+09,-1.04023e+09,-1.04032e+09,-111712,-0.00946624,0.0100005,-0,0.0137703,-13041.8,-37875.3,-0,40057.8,111712
step02_gravity_refstate-crust.xmf,2004,-4.27652e-07,1.20945e-06,0,-1.91636e-06,-1.06887e+09,-1.06876e+09,-1.06884e+09,-131462,-0.01004,0.0067839,-0,0.012117,-12556.3,-38913.4,-0,40889,131462
step02_gravity_refstate-crust.xmf,2005,3.61545e-07,1.2218e-06,0,-6.95529e-07,-7.78134e+08,-7.78075e+08,-7.78159e+08,-47713.3,0.00143673,0.0475093,0,0.047531,-21246.4,-28332.1,-0,35413.5,47713.3
step02_gravity_refstate-crust.xmf,2006,3.30881e-07,1.23044e-06,0,-6.30035e-07,-7.4043e+08,-7.40369e+08,-7.40453e+08,-43220.4,0.00172568,0.0542184,0,0.0542459,-23597.1,-26959.3,-0,35827.8,43220.4
step02_gravity_refstate-crust.xmf,2007,1.66292e-07,1.3538e-06,0,-3.36546e-07,-6.86226e+08,-6.86145e+08,-6.86237e+08,-23087.1,0.000905528,0.0681466,0,0.0681527,-31293.5,-24985.5,-0,40044.5,23087.1
step02_gravity_refstate-crust.xmf,2008,2.11155e-07,1.20555e-06,0,-2.06939e-07,-5.99574e+08,-5.99506e+08,-5.99589e+08,-14196,0.000912792,0.0754065,0,0.075412,-35332.9,-21830.8,-0,41533.1,14196
step02_gravity_refstate-crust.xmf,2009,2.73403e-07,1.2877e-06,0,-7.42063e-07,-8.52797e+08,-8.52727e+08,-8.52816e+08,-50905.5,-0.000537413,0.0368332,-0,0.0368371,-18356.3,-31050,-0,36070.2,50905.5
step02_gravity_refstate-crust.xmf,2010,3.01556e-07,1.28805e-06,0,-6.75675e-07,-8.1494e+08,-8.14872e+08,-8.14961e+08,-46351.3,0.000398587,0.0440582,0,0.04406,-20490.9,-29671.9,-0,36059.6,46351.3
step02_gravity_refstate-crust.xmf,2011,2.88992e-07,1.29752e-06,0,-6.11355e-07,-7.78487e+08,-7.78418e+08,-7.78507e+08,-41938.9,0.000915267,0.0508972,0,0.0509054,-22815.7,-28344.8,-0,36386.6,41938.9
step02_gravity_refstate-crust.xmf,2012,2.71136e-07,1.29494e-06,0,-5.52704e-07,-7.39189e+08,-7.39119e+08,-7.39208e+08,-37915.5,0.00127449,0.0572608,0,0.057275,-25205.5,-26914,-0,36873.9,37915.5
step02_gravity_refstate-crust.xmf,2013,2.15171e-07,1.35306e-06,0,-4.79211e-07,-7.3693e+08,-7.36852e+08,-7.36945e+08,-32873.9,0.000923266,0.0600725,0,0.0600796,-26869.4,-26831.6,-0,37972.4,32873.9
step02_gravity_refstate-crust.xmf,2014,1.6499e-07,1.40661e-06,0,-4.07519e-07,-7.33996e+08,-7.33911e+08,-7.34008e+08,-27955.8,0.000646607,0.0626877,0,0.0626911,-28633.4,-26724.7,-0,39167.3,27955.8
step02_gravity_refstate-crust.xmf,2015,1.22822e-07,1.45161e-06,0,-3.37502e-07,-7.29903e+08,-7.29812e+08,-7.29912e+08,-23152.6,0.000448643,0.0650704,0,0.065072,-30478.3,-26575.6,-0,40437.5,23152.6
step02_gravity_refstate-crust.xmf,2016,1.28161e-07,1.39723e-06,0,-2.56416e-07,-6.86024e+08,-6.85937e+08,-6.86033e+08,-17590.1,0.000618644,0.0699031,0,0.0699059,-33252.7,-24978.1,-0,41589,17590.1
step02_gravity_refstate-crust.xmf,2017,1.68165e-07,1.30574e-06,0,-2.34629e-07,-6.44579e+08,-6.44501e+08,-6.4459e+08,-16095.6,0.00081404,0.0726968,0,0.0727014,-34291.3,-23469.2,-0,41553.6,16095.6
step02_gravity_refstate-crust.xmf,2018,1.87323e-07,1.23847e-06,0,-1.00551e-07,-6.04359e+08,-6.04287e+08,-6.04372e+08,-6897.78,0.000426966,0.0761943,0,0.0761955,-37672.2,-22005,-0,43628.1,6897.78
step02_gravity_refstate-crust.xmf,2019,2.17508e-07,1.17058e-06,0,-1.15933e-09,-5.74468e+08,-5.74403e+08,-5.74483e+08,-79.5297,8.89637e-20,0.0778402,0,0.0778402,-40000,-20916.8,-0,45138.8,79.5297
step02_gravity_refstate-crust.xmf,2020,1.61934e-07,1.35872e-06,0,-7.51567e-07,-8.8649e+08,-8.86408e+08,-8.86501e+08,-51557.5,-0.00196475,0.033284,-0,0.033342,-17664.9,-32276.3,-0,36794.2,51557.5
step02_gravity_refstate-crust.xmf,2021,4.09048e-08,1.4184e-06,0,-7.96473e-07,-9.17783e+08,-9.17688e+08,-9.17786e+08,-54638,-0.00341266,0.0294682,-0,0.0296651,-16892.5,-33415.2,-0,37442.3,54638
step02_gravity_refstate-crust.xmf,2022,-9.22448e-08,1.45275e-06,0,-9.02036e-07,-9.48179e+08,-9.48073e+08,-9.48173e+08,-61879.7,-0.00494523,0.024715,-0,0.0252049,-15858.6,-34521.3,-0,37989.7,61879.7
step02_gravity_refstate-crust.xmf,2023,-2.35712e-07,1.50535e-06,0,-1.02681e-06,-9.80376e+08,-9.80256e+08,-9.8036e+08,-70438.9,-0.00654371,0.0212459,-0,0.0222308,-15319,-35692.9,-0,38841.4,70438.9
step02_gravity_refstate-crust.xmf,2024,2.18174e-07,1.36342e-06,0,-6.64264e-07,-8.5157e+08,-8.51492e+08,-8.51585e+08,-45568.5,-0.000834501,0.0405764,-0,0.040585,-19779.7,-31005.3,-0,36777.2,45568.5
step02_gravity_refstate-crust.xmf,2025,-3.42877e-07,1.51446e-06,0,-1.19587e-06,-1.00947e+09,-1.00935e+09,-1.00945e+09,-82036.7,-0.00786588,0.0177536,-0,0.0194181,-14746.9,-36751.9,-0,39600.1,82036.7
step02_gravity_refstate-crust.xmf,2026,-4.01059e-07,1.47611e-06,0,-1.4112e-06,-1.03938e+09,-1.03925e+09,-1.03935e+09,-96808.4,-0.00893828,0.0143068,-0,0.0168694,-14212.9,-37840.4,-0,40421.5,96808.4
step02_gravity_refstate-crust.xmf,2027,-3.80466e-07,1.36635e-06,0,-1.66191e-06,-1.06877e+09,-1.06865e+09,-1.06875e+09,-114007,-0.00958874,0.0108966,-0,0.0145148,-13670.3,-38910.4,-0,41241.9,114007
step02_gravity_refstate-crust.xmf,2028,2.33016e-07,1.36788e-06,0,-5.97124e-07,-8.15625e+08,-8.15548e+08,-8.15641e+08,-40962.7,-3.65943e-05,0.0474656,-0,0.0474656,-22029,-29696.7,-0,36975.3,40962.7
step02_gravity_refstate-crust.xmf,2029,2.22861e-07,1.37106e-06,0,-5.34557e-07,-7.78594e+08,-7.78515e+08,-7.78609e+08,-36670.6,0.00049543,0.0540063,0,0.0540086,-24444.8,-28348.5,-0,37432.4,36670.6
step02_gravity_refstate-crust.xmf,2030,8.44426e-08,1.49321e-06,0,-2.66724e-07,-7.27479e+08,-7.27382e+08,-7.27484e+08,-18297.3,0.000284575,0.0670105,0,0.0670111,-32374.3,-26487.2,-0,41829.1,18297.3
step02_gravity_refstate-crust.xmf,2031,1.45655e-07,1.3338e-06,0,-1.53676e-07,-6.45151e+08,-6.45069e+08,-6.45161e+08,-10542.1,0.000506601,0.0737556,0,0.0737574,-36227.7,-23490,-0,43176.7,10542.1
step02_gravity_refstate-crust.xmf,2032,1.18301e-07,1.43966e-06,0,-6.72795e-07,-8.86678e+08,-8.86587e+08,-8.86686e+08,-46153.7,-0.0021701,0.0370258,-0,0.0370894,-19070.1,-32283.1,-0,37494.9,46153.7
step02_gravity_refstate-crust.xmf,2033,1.62811e-07,1.4406e-06,0,-5.92096e-07,-8.51389e+08,-8.51301e+08,-8.514e+08,-40617.8,-0.0011101,0.0439997,-0,0.0440137,-21262.3,-30998.5,-0,37589.8,40617.8
step02_gravity_refstate-crust.xmf,2034,1.68212e-07,1.44795e-06,0,-5.233e-07,-8.16533e+08,-8.16445e+08,-8.16545e+08,-35898.4,-0.000391986,0.050635,-0,0.0506365,-23660.8,-29729.6,-0,37995.9,35898.4
step02_gravity_refstate-crust.xmf,2035,1.65525e-07,1.44111e-06,0,-4.64948e-07,-7.78615e+08,-7.78528e+08,-7.78627e+08,-31895.4,0.000173129,0.0567888,0,0.0567891,-26110.8,-28349.2,-0,38541.5,31895.4
step02_gravity_refstate-crust.xmf,2036,1.13324e-07,1.50307e-06,0,-3.98015e-07,-7.77392e+08,-7.77296e+08,-7.774e+08,-27303.8,-4.02197e-05,0.0593615,-0,0.0593615,-27848.4,-28304.5,-0,39707.4,27303.8
step02_gravity_refstate-crust.xmf,2037,6.90426e-08,1.55592e-06,0,-3.32832e-07,-7.74527e+08,-7.74425e+08,-7.74531e+08,-22832.3,-0.000154376,0.0617684,-0,0.0617686,-29688.8,-28200.1,-0,40947.2,22832.3
step02_gravity_refstate-crust.xmf,2038,3.24041e-08,1.59945e-06,0,-2.6822e-07,-7.7082e+08,-7.70713e+08,-7.70822e+08,-18399.9,-0.000195764,0.0639106,-0,0.0639109,-31614.5,-28065.1,-0,42274.4,18399.9
step02_gravity_refstate-crust.xmf,2039,5.6448e-08,1.52805e-06,0,-2.04275e-07,-7.26625e+08,-7.26524e+08,-7.26629e+08,-14013.2,0.00016938,0.0683599,0,0.0683601,-34122.4,-26456.1,-0,43177.2,14013.2
step02_gravity_refstate-crust.xmf,2040,7.96787e-08,1.46758e-06,0,-1.59884e-07,-6.9786e+08,-6.97765e+08,-6.97866e+08,-10968,0.000282552,0.0707705,0,0.070771,-35596.1,-25408.9,-0,43734.4,10968
step02_gravity_refstate-crust.xmf,2041,9.23163e-08,1.4287e-06,0,-7.67051e-08,-6.75232e+08,-6.7514e+08,-6.75238e+08,-5261.97,0.000182197,0.0728295,0,0.0728297,-37963.9,-24585.1,-0,45229.2,5261.97
step02_gravity_refstate-crust.xmf,2042,1.339e-07,1.34168e-06,0,-9.61711e-10,-6.40906e+08,-6.40823e+08,-6.40915e+08,-65.9734,4.17308e-20,0.0748017,0,0.0748017,-40000,-23335.4,-0,46309.2,65.9734
step02_gravity_refstate-crust.xmf,2043,4.96894e-09,1.51199e-06,0,-7.10317e-07,-9.20968e+08,-9.20865e+08,-9.20969e+08,-48727.8,-0.00359271,0.0332763,-0,0.0334697,-18325.5,-33531.1,-0,38212,48727.8
step02_gravity_refstate-crust.xmf,2044,-1.03183e-07,1.56278e-06,0,-7.81542e-07,-9.50977e+08,-9.50862e+08,-9.5097e+08,-53613.8,-0.00491009,0.0295065,-0,0.0299123,-17541.2,-34623.3,-0,38813.2,53613.8
step02_gravity_refstate-crust.xmf,2045,-2.05024e-07,1.58551e-06,0,-9.01839e-07,-9.78942e+08,-9.78819e+08,-9.78928e+08,-61866.2,-0.00619478,0.0253619,-0,0.0261075,-16635.3,-35641,-0,39332.1,61866.2
step02_gravity_refstate-crust.xmf,2046,-2.97598e-07,1.602e-06,0,-1.04515e-06,-1.00842e+09,-1.00829e+09,-1.0084e+09,-71697,-0.0074308,0.0217669,-0,0.0230003,-15995,-36714,-0,40046.9,71697
step02_gravity_refstate-crust.xmf,2047,7.74933e-08,1.5166e-06,0,-6.01242e-07,-8.86588e+08,-8.86489e+08,-8.86593e+08,-41245.2,-0.00230864,0.0404752,-0,0.040541,-20522,-32279.8,-0,38251,41245.2
step02_gravity_refstate-crust.xmf,2048,-3.52293e-07,1.58247e-06,0,-1.22579e-06,-1.03877e+09,-1.03864e+09,-1.03875e+09,-84088.9,-0.00847047,0.018256,-0,0.0201254,-15418.7,-37818.6,-0,40840.9,84088.9
step02_gravity_refstate-crust.xmf,2049,-3.42722e-07,1.50395e-06,0,-1.43725e-06,-1.0688e+09,-1.06868e+09,-1.06878e+09,-98595.4,-0.00916407,0.0147801,-0,0.0173906,-14844.4,-38911.8,-0,41647.1,98595.4
step02_gravity_refstate-crust.xmf,2050,1.05914e-07,1.52182e-06,0,-5.2251e-07,-8.52631e+08,-8.52534e+08,-8.52638e+08,-35844.2,-0.00136389,0.0471452,-0,0.047165,-22840.6,-31043.7,-0,38540.9,35844.2
step02_gravity_refstate-crust.xmf,2051,1.08984e-07,1.52502e-06,0,-4.55666e-07,-8.18077e+08,-8.1798e+08,-8.18085e+08,-31258.7,-0.000662244,0.0533917,-0,0.0533958,-25309.5,-29785.7,-0,39086.6,31258.7
step02_gravity_refstate-crust.xmf,2052,-1.48817e-10,1.63875e-06,0,-2.03617e-07,-7.69123e+08,-7.6901e+08,-7.69123e+08,-13968.1,-0.000206668,0.0655405,-0,0.0655409,-33562,-28003.2,-0,43710.3,13968.1
step02_gravity_refstate-crust.xmf,2053,-2.1196e-08,1.5931e-06,0,-6.33418e-07,-9.22145e+08,-9.22034e+08,-9.22144e+08,-43452.5,-0.0036283,0.0367558,-0,0.0369344,-19770.4,-33574,-0,38962.6,43452.5
step02_gravity_refstate-crust.xmf,2054,3.42398e-08,1.5954e-06,0,-5.3335e-07,-8.8743e+08,-8.87322e+08,-8.87432e+08,-36587.8,-0.00242385,0.0436446,-0,0.0437119,-22053.7,-32310.4,-0,39119.4,36587.8
step02_gravity_refstate-crust.xmf,2055,4.73985e-08,1.60812e-06,0,-4.54475e-07,-8.55785e+08,-8.55678e+08,-8.55788e+08,-31177,-0.00158505,0.0499623,-0,0.0499875,-24525.2,-31158.4,-0,39652.6,31177
step02_gravity_refstate-crust.xmf,2056,5.71027e-08,1.59688e-06,0,-3.92979e-07,-8.192e+08,-8.19094e+08,-8.19204e+08,-26958.4,-0.000828896,0.0558632,-0,0.0558693,-27008.4,-29826.5,-0,40237.7,26958.4
step02_gravity_refstate-crust.xmf,2057,1.12313e-08,1.65933e-06,0,-3.31163e-07,-8.18447e+08,-8.18334e+08,-8.18448e+08,-22717.8,-0.000874772,0.0582186,-0,0.0582252,-28827,-29799,-0,41460.5,22717.8
step02_gravity_refstate-crust.xmf,2058,-2.82282e-08,1.7136e-06,0,-2.70375e-07,-8.16995e+08,-8.16875e+08,-8.16993e+08,-18547.7,-0.000833688,0.0603192,-0,0.060325,-30736.7,-29746,-0,42773.5,18547.7
step02_gravity_refstate-crust.xmf,2059,-6.08804e-08,1.75876e-06,0,-2.1088e-07,-8.15538e+08,-8.15413e+08,-8.15534e+08,-14466.3,-0.00072675,0.0620537,-0,0.062058,-32690.4,-29693,-0,44162.6,14466.3
step02_gravity_refstate-crust.xmf,2060,-2.5779e-08,1.66905e-06,0,-1.32865e-07,-7.67373e+08,-7.67257e+08,-7.67371e+08,-9114.53,-0.0001646,0.0668728,-0,0.066873,-35746.8,-27939.5,-0,45370.1,9114.53
step02_gravity_refstate-crust.xmf,2061,1.29966e-10,1.60939e-06,0,-6.74204e-08,-7.39514e+08,-7.39403e+08,-7.39514e+08,-4625.04,-5.12639e-06,0.0692691,-0,0.0692691,-37938.4,-26925.2,-0,46521.9,4625.04
step02_gravity_refstate-crust.xmf,2062,4.29531e-08,1.52247e-06,0,-1.08842e-09,-7.06771e+08,-7.0667e+08,-7.06774e+08,-74.6658,5.67079e-21,0.071368,0,0.071368,-40000,-25733.2,-0,47562.6,74.6658
step02_gravity_refstate-crust.xmf,2063,-1.96226e-07,1.65681e-06,0,-8.13314e-07,-9.80542e+08,-9.80415e+08,-9.80529e+08,-55793.3,-0.00602291,0.0284446,-0,0.0290752,-17792.8,-35699.4,-0,39887.7,55793.3
step02_gravity_refstate-crust.xmf,2064,-1.47505e-07,1.6713e-06,0,-7.06261e-07,-9.61623e+08,-9.61499e+08,-9.61613e+08,-48449.5,-0.00515758,0.032415,-0,0.0328227,-18922.3,-35010.8,-0,39797.2,48449.5
step02_gravity_refstate-crust.xmf,2065,-2.66021e-07,1.68213e-06,0,-9.15228e-07,-1.00767e+09,-1.00753e+09,-1.00765e+09,-62784.7,-0.00704697,0.0254193,-0,0.026378,-17271.5,-36686.6,-0,40548.9,62784.7
step02_gravity_refstate-crust.xmf,2066,-3.15902e-07,1.67761e-06,0,-1.0633e-06,-1.03773e+09,-1.03759e+09,-1.0377e+09,-72942.6,-0.00803147,0.0219268,-0,0.0233514,-16661.9,-37780.8,-0,41291.7,72942.6
step02_gravity_refstate-crust.xmf,2067,-4.44235e-08,1.66537e-06,0,-5.62663e-07,-9.21575e+08,-9.21458e+08,-9.21572e+08,-38598.7,-0.0035596,0.0400028,-0,0.0401609,-21249.1,-33553.3,-0,39715.8,38598.7
step02_gravity_refstate-crust.xmf,2068,-3.15324e-07,1.62632e-06,0,-1.23999e-06,-1.06851e+09,-1.06838e+09,-1.06849e+09,-85063.1,-0.00875947,0.0184106,-0,0.0203882,-16064.2,-38901.6,-0,42087.9,85063.1
step02_gravity_refstate-crust.xmf,2069,-1.40255e-08,1.68047e-06,0,-4.66868e-07,-8.90385e+08,-8.90268e+08,-8.90384e+08,-32027.2,-0.00253102,0.0464836,-0,0.0465525,-23690.6,-32417.9,-0,40151.8,32027.2
step02_gravity_refstate-crust.xmf,2070,-7.14328e-09,1.69173e-06,0,-3.91532e-07,-8.60108e+08,-8.59991e+08,-8.60107e+08,-26859.1,-0.0017279,0.0522987,-0,0.0523273,-26213.1,-31315.7,-0,40838.7,26859.1
step02_gravity_refstate-crust.xmf,2071,-8.91113e-08,1.79838e-06,0,-1.52584e-07,-8.16121e+08,-8.15991e+08,-8.16114e+08,-10467.2,-0.000586552,0.0632491,-0,0.0632518,-34632.4,-29714.1,-0,45632.5,10467.2
step02_gravity_refstate-crust.xmf,2072,-1.33703e-07,1.73955e-06,0,-6.12617e-07,-9.57833e+08,-9.57704e+08,-9.57824e+08,-42025.5,-0.00481202,0.0362694,-0,0.0365872,-20532.4,-34873,-0,40468.6,42025.5
step02_gravity_refstate-crust.xmf,2073,-7.38565e-08,1.74022e-06,0,-4.96245e-07,-9.22375e+08,-9.2225e+08,-9.2237e+08,-34042.4,-0.00349397,0.0429018,-0,0.0430439,-22786,-33582.4,-0,40583,34042.4
step02_gravity_refstate-crust.xmf,2074,-7.04395e-08,1.77922e-06,0,-3.98957e-07,-8.973e+08,-8.97173e+08,-8.97295e+08,-27368.5,-0.00263614,0.0489172,-0,0.0489882,-25498.2,-32669.6,-0,41442.3,27368.5
step02_gravity_refstate-crust.xmf,2075,-5.52234e-08,1.76803e-06,0,-3.32738e-07,-8.63412e+08,-8.63287e+08,-8.63408e+08,-22825.8,-0.00174484,0.0543902,-0,0.0544182,-27962.5,-31435.9,-0,42072.7,22825.8
step02_gravity_refstate-crust.xmf,2076,-1.25856e-07,1.88133e-06,0,-2.20064e-07,-8.63147e+08,-8.63009e+08,-8.63138e+08,-15096.4,-0.00139634,0.0581631,-0,0.0581798,-31728.5,-31426.1,-0,44657.6,15096.4
step02_gravity_refstate-crust.xmf,2077,-9.31085e-08,1.82892e-06,0,-2.76004e-07,-8.63586e+08,-8.63454e+08,-8.63579e+08,-18933.9,-0.0016127,0.0564054,-0,0.0564284,-29801.1,-31442.2,-0,43321.1,18933.9
step02_gravity_refstate-crust.xmf,2078,-1.52946e-07,1.92482e-06,0,-1.65807e-07,-8.63069e+08,-8.62926e+08,-8.63058e+08,-11374.4,-0.00112426,0.0595283,-0,0.059539,-33681,-31423.2,-0,46063.3,11374.4
step02_gravity_refstate-crust.xmf,2079,-1.16587e-07,1.8447e-06,0,-1.02581e-07,-8.22811e+08,-8.22677e+08,-8.22803e+08,-7037.09,-0.000456954,0.0635718,-0,0.0635735,-36352,-29957.7,-0,47105.5,7037.09
step02_gravity_refstate-crust.xmf,2080,-9.1999e-08,1.789e-06,0,-5.74134e-08,-8.0028e+08,-8.00151e+08,-8.00274e+08,-3938.56,-0.000188991,0.0655215,-0,0.0655218,-37993,-29137.4,-0,47879.6,3938.56
step02_gravity_refstate-crust.xmf,2081,-5.37065e-08,1.7118e-06,0,-8.25916e-10,-7.72257e+08,-7.72135e+08,-7.72253e+08,-56.6578,-3.0567e-20,0.0675129,-0,0.0675129,-40000,-28117.2,-0,48893.5,56.6578
step02_gravity_refstate-crust.xmf,2082,-2.44243e-07,1.7548e-06,0,-7.97283e-07,-1.00463e+09,-1.00449e+09,-1.00461e+09,-54693.6,-0.00662325,0.0289269,-0,0.0296754,-18586.1,-36576.4,-0,41027.7,54693.6
step02_gravity_refstate-crust.xmf,2083,-2.90779e-07,1.7669e-06,0,-9.17705e-07,-1.03626e+09,-1.03612e+09,-1.03624e+09,-62954.5,-0.00759996,0.0254249,-0,0.0265364,-17976.8,-37727.5,-0,41791.5,62954.5
step02_gravity_refstate-crust.xmf,2084,-2.97385e-07,1.73817e-06,0,-1.06605e-06,-1.06814e+09,-1.068e+09,-1.06812e+09,-73131,-0.00836292,0.0218188,-0,0.0233666,-17343.3,-38888.1,-0,42580.2,73131
step02_gravity_refstate-crust.xmf,2085,-2.24556e-07,1.80573e-06,0,-6.85821e-07,-9.9425e+08,-9.94111e+08,-9.94235e+08,-47047.3,-0.00602503,0.03258,-0,0.0331324,-19902.5,-36198.6,-0,41309.2,47047.3
step02_gravity_refstate-crust.xmf,2086,-1.45707e-07,1.81049e-06,0,-5.36701e-07,-9.5711e+08,-9.56975e+08,-9.571e+08,-36817.7,-0.00457882,0.0393062,-0,0.039572,-22046.3,-34846.7,-0,41235.1,36817.7
step02_gravity_refstate-crust.xmf,2087,-1.13181e-07,1.82666e-06,0,-4.31703e-07,-9.26787e+08,-9.26654e+08,-9.2678e+08,-29614.8,-0.00345943,0.0453848,-0,0.0455165,-24439.7,-33743,-0,41664,29614.8
step02_gravity_refstate-crust.xmf,2088,-1.29059e-07,1.88014e-06,0,-3.4199e-07,-9.09654e+08,-9.09516e+08,-9.09645e+08,-23460.5,-0.00275304,0.0502579,-0,0.0503332,-27097.1,-33119.3,-0,42791.8,23460.5
step02_gravity_refstate-crust.xmf,2089,-1.73774e-07,1.95908e-06,0,-1.14002e-07,-8.63867e+08,-8.6372e+08,-8.63855e+08,-7820.54,-0.000817436,0.0604418,-0,0.0604473,-35601.7,-31452.3,-0,47505,7820.54
step02_gravity_refstate-crust.xmf,2090,-2.1522e-07,1.8766e-06,0,-5.95735e-07,-9.93389e+08,-9.93246e+08,-9.93375e+08,-40867.4,-0.00568267,0.035631,-0,0.0360813,-21385.2,-36167.4,-0,42016.7,40867.4
step02_gravity_refstate-crust.xmf,2091,-1.66218e-07,1.88367e-06,0,-4.6894e-07,-9.5833e+08,-9.58189e+08,-9.58318e+08,-32169.3,-0.00437231,0.0418858,-0,0.0421134,-23579.1,-34891.2,-0,42111.4,32169.3
step02_gravity_refstate-crust.xmf,2092,-1.48201e-07,1.89951e-06,0,-3.79511e-07,-9.30941e+08,-9.30801e+08,-9.30931e+08,-26034.4,-0.00336959,0.0472139,-0,0.047334,-25886.8,-33894.2,-0,42649.1,26034.4
step02_gravity_refstate-crust.xmf,2093,-1.60288e-07,1.94362e-06,0,-2.86888e-07,-9.10042e+08,-9.09897e+08,-9.10031e+08,-19680.5,-0.00250362,0.0522895,-0,0.0523494,-28895,-33133.3,-0,43962.9,19680.5
step02_gravity_refstate-crust.xmf,2094,-2.17281e-07,2.05066e-06,0,-1.79988e-07,-9.10484e+08,-9.10329e+08,-9.1047e+08,-12347.2,-0.0017905,0.0554866,-0,0.0555154,-32707.8,-33149.4,-0,46569.1,12347.2
step02_gravity_refstate-crust.xmf,2095,-1.92827e-07,2.00444e-06,0,-2.33376e-07,-9.11542e+08,-9.11391e+08,-9.11528e+08,-16009.6,-0.00220521,0.0539208,-0,0.0539659,-30732.2,-33187.9,-0,45231.7,16009.6
step02_gravity_refstate-crust.xmf,2096,-2.36922e-07,2.08664e-06,0,-1.2901e-07,-9.09608e+08,-9.09448e+08,-9.09592e+08,-8850.1,-0.0013343,0.0566722,-0,0.0566879,-34693.2,-33117.5,-0,47962.3,8850.1
step02_gravity_refstate-crust.xmf,2097,-1.92613e-07,1.98901e-06,0,-5.56896e-08,-8.66416e+08,-8.66267e+08,-8.66403e+08,-3820.31,-0.000430503,0.0609318,-0,0.0609333,-37786.3,-31545.1,-0,49222.9,3820.31
step02_gravity_refstate-crust.xmf,2098,-1.5332e-07,1.90839e-06,0,-9.79289e-10,-8.37555e+08,-8.37414e+08,-8.37545e+08,-67.1792,-7.6845e-20,0.0632104,-0,0.0632104,-40000,-30494.4,-0,50298.2,67.1792
step02_gravity_refstate-crust.xmf,2099,-2.74572e-07,1.84797e-06,0,-7.87832e-07,-1.03287e+09,-1.03272e+09,-1.03285e+09,-54045.3,-0.00714029,0.0287948,-0,0.0296669,-19341.1,-37604.4,-0,42286.8,54045.3
step02_gravity_refstate-crust.xmf,2100,-2.88376e-07,1.84191e-06,0,-9.10377e-07,-1.06655e+09,-1.0664e+09,-1.06653e+09,-62451.9,-0.00794634,0.0250962,-0,0.0263242,-18690.2,-38830.5,-0,43094.5,62451.9
step02_gravity_refstate-crust.xmf,2101,-2.74892e-07,1.92945e-06,0,-6.73168e-07,-1.03029e+09,-1.03014e+09,-1.03027e+09,-46179.4,-0.00669206,0.031941,-0,0.0326345,-20792.2,-37510.7,-0,42887.9,46179.4
step02_gravity_refstate-crust.xmf,2102,-2.25208e-07,1.95165e-06,0,-5.15416e-07,-9.93979e+08,-9.9383e+08,-9.93964e+08,-35357.5,-0.00536032,0.0383021,-0,0.0386754,-22913.3,-36188.9,-0,42832.9,35357.5
step02_gravity_refstate-crust.xmf,2103,-1.93663e-07,1.96234e-06,0,-4.05096e-07,-9.61658e+08,-9.6151e+08,-9.61645e+08,-27789.6,-0.0041582,0.0441022,-0,0.0442978,-25198.6,-35012.4,-0,43137.4,27789.6
step02_gravity_refstate-crust.xmf,2104,-2.12481e-07,2.016e-06,0,-3.4644e-07,-9.57884e+08,-9.57731e+08,-9.5787e+08,-23765.8,-0.00375611,0.0464886,-0,0.0466401,-26813.4,-34875,-0,43991.2,23765.8
step02_gravity_refstate-crust.xmf,2105,-2.44283e-07,2.09894e-06,0,-8.56071e-08,-9.05901e+08,-9.05741e+08,-9.05885e+08,-5872.65,-0.000893482,0.0576399,-0,0.0576468,-36434,-32982.5,-0,49145.5,5872.65
step02_gravity_refstate-crust.xmf,2106,-2.69761e-07,2.00238e-06,0,-5.79026e-07,-1.02934e+09,-1.02919e+09,-1.02933e+09,-39721.2,-0.00628414,0.0346237,-0,0.0351894,-22239.6,-37476.3,-0,43578.4,39721.2
step02_gravity_refstate-crust.xmf,2107,-2.41094e-07,2.02467e-06,0,-4.43961e-07,-9.95094e+08,-9.94939e+08,-9.95078e+08,-30455.7,-0.00502345,0.0406228,-0,0.0409322,-24461,-36229.6,-0,43714.1,30455.7
step02_gravity_refstate-crust.xmf,2108,-2.13548e-07,2.0339e-06,0,-3.00881e-07,-9.47437e+08,-9.47283e+08,-9.47422e+08,-20640.4,-0.00327714,0.0488316,-0,0.0489415,-28187.2,-34494.7,-0,44546.6,20640.4
step02_gravity_refstate-crust.xmf,2109,-2.59051e-07,2.13209e-06,0,-2.57367e-07,-9.64619e+08,-9.64455e+08,-9.64601e+08,-17655.4,-0.00321602,0.0489197,-0,0.0490253,-29590,-35120.2,-0,45923.8,17655.4
step02_gravity_refstate-crust.xmf,2110,-2.98348e-07,2.21647e-06,0,-1.44765e-07,-9.57097e+08,-9.56924e+08,-9.57077e+08,-9930.91,-0.00195484,0.0525135,-0,0.0525499,-33807.6,-34846.3,-0,48551.2,9930.91
step02_gravity_refstate-crust.xmf,2111,-2.81254e-07,2.17862e-06,0,-1.97242e-07,-9.59738e+08,-9.5957e+08,-9.59719e+08,-13530.8,-0.00257124,0.0510466,-0,0.0511114,-31755.2,-34942.5,-0,47216.2,13530.8
step02_gravity_refstate-crust.xmf,2112,-3.14953e-07,2.25129e-06,0,-9.08009e-08,-9.57102e+08,-9.56926e+08,-9.57081e+08,-6228.94,-0.00128419,0.0534473,-0,0.0534628,-36005.4,-34846.5,-0,50106.5,6228.94
step02_gravity_refstate-crust.xmf,2113,-2.90637e-07,2.19493e-06,0,-4.4311e-08,-9.32505e+08,-9.32334e+08,-9.32485e+08,-3039.73,-0.000566887,0.0559484,-0,0.0559513,-38052.7,-33951,-0,50996.9,3039.73
step02_gravity_refstate-crust.xmf,2114,-2.50735e-07,2.10881e-06,0,-6.20777e-10,-9.02824e+08,-9.02662e+08,-9.02807e+08,-42.5853,-1.04413e-19,0.0584375,-0,0.0584375,-40000,-32870.5,-0,51773.2,42.5853
step02_gravity_refstate-crust.xmf,2115,-2.86522e-07,1.93854e-06,0,-7.75092e-07,-1.06524e+09,-1.06508e+09,-1.06522e+09,-53171.3,-0.007522,0.02813,-0,0.0291184,-20098.9,-38782.8,-0,43681.5,53171.3
step02_gravity_refstate-crust.xmf,2116,-2.97917e-07,2.03207e-06,0,-6.58148e-07,-1.06425e+09,-1.06409e+09,-1.06423e+09,-45149,-0.00708491,0.0308946,-0,0.0316966,-21559.9,-38746.9,-0,44341.3,45149
step02_gravity_refstate-crust.xmf,2117,-2.80957e-07,2.08152e-06,0,-4.93133e-07,-1.02991e+09,-1.02975e+09,-1.02989e+09,-33828.9,-0.00586593,0.037047,-0,0.0375086,-23796.3,-37496.9,-0,44410.4,33828.9
step02_gravity_refstate-crust.xmf,2118,-2.58513e-07,2.09188e-06,0,-3.76642e-07,-9.94542e+08,-9.94381e+08,-9.94524e+08,-25837.6,-0.00460531,0.0428593,-0,0.043106,-26092.5,-36209.5,-0,44631.2,25837.6
step02_gravity_refstate-crust.xmf,2119,-2.81508e-07,2.15931e-06,0,-3.12633e-07,-9.94088e+08,-9.93921e+08,-9.94069e+08,-21446.6,-0.00412375,0.0449167,-0,0.0451056,-27854.2,-36193,-0,45670.4,21446.6
step02_gravity_refstate-crust.xmf,2120,-3.02704e-07,2.11766e-06,0,-5.56521e-07,-1.06456e+09,-1.0644e+09,-1.06454e+09,-38177.4,-0.00663741,0.0333287,-0,0.0339832,-23081.7,-38758.6,-0,45110.9,38177.4
step02_gravity_refstate-crust.xmf,2121,-2.96179e-07,2.15427e-06,0,-4.18148e-07,-1.02981e+09,-1.02964e+09,-1.02979e+09,-28685,-0.00541205,0.0392113,-0,0.039583,-25363.9,-37493.4,-0,45266.8,28685
step02_gravity_refstate-crust.xmf,2122,-3.38636e-07,2.30302e-06,0,-2.17023e-07,-1.00886e+09,-1.00868e+09,-1.00884e+09,-14887.8,-0.00336167,0.0464643,-0,0.0465857,-30953.2,-36730.8,-0,48033.9,14887.8
step02_gravity_refstate-crust.xmf,2123,-3.64521e-07,2.36806e-06,0,-1.16746e-07,-1.00121e+09,-1.00102e+09,-1.00118e+09,-8008.8,-0.00194875,0.0492944,-0,0.0493329,-34803.6,-36452.2,-0,50398.9,8008.8
step02_gravity_refstate-crust.xmf,2124,-3.53675e-07,2.34195e-06,0,-1.63432e-07,-1.00484e+09,-1.00466e+09,-1.00482e+09,-11211.4,-0.0026436,0.0480786,-0,0.0481512,-32931.1,-36584.4,-0,49222.7,11211.4
step02_gravity_refstate-crust.xmf,2125,-3.75058e-07,2.39228e-06,0,-4.61901e-08,-9.97329e+08,-9.97139e+08,-9.97303e+08,-3168.64,-0.000799936,0.0505058,-0,0.0505121,-37871.2,-36310.9,-0,52466.3,3168.64
step02_gravity_refstate-crust.xmf,2126,-3.41338e-07,2.31029e-06,0,-8.48823e-10,-9.68092e+08,-9.67911e+08,-9.68069e+08,-58.2292,-1.50045e-19,0.0531875,-0,0.0531875,-40000,-35246.6,-0,53313.4,58.2292
step02_gravity_refstate-crust.xmf,2127,-3.20116e-07,2.2055e-06,0,-4.65138e-07,-1.06536e+09,-1.06519e+09,-1.06534e+09,-31908.5,-0.00614224,0.0355417,-0,0.0360686,-24707.2,-38787.6,-0,45988.3,31908.5
step02_gravity_refstate-crust.xmf,2128,-3.28589e-07,2.27416e-06,0,-2.68138e-07,-1.01684e+09,-1.01667e+09,-1.01682e+09,-18394.3,-0.00400454,0.0444656,-0,0.0446455,-29292,-37021.4,-0,47208.1,18394.3
step02_gravity_refstate-crust.xmf,2129,-3.10778e-07,2.21022e-06,0,-3.54194e-07,-1.02668e+09,-1.02651e+09,-1.02666e+09,-24297.7,-0.00491502,0.0412331,-0,0.041525,-26847.1,-37379.5,-0,46021.6,24297.7
step02_gravity_refstate-crust.xmf,2130,-3.68769e-07,2.38233e-06,0,-8.34292e-08,-9.99407e+08,-9.99218e+08,-9.99382e+08,-5723.24,-0.00140466,0.0499593,-0,0.049979,-36264.1,-36386.6,-0,51371.8,5723.24
step02_gravity_refstate-crust.xmf,2131,-3.38484e-07,2.28e-06,0,-3.85353e-07,-1.06308e+09,-1.0629e+09,-1.06306e+09,-26435.2,-0.00556857,0.0377161,-0,0.038125,-26360.9,-38704.7,-0,46829,26435.2
step02_gravity_refstate-crust.xmf,2132,-3.80203e-07,2.40763e-06,0,-2.43933e-07,-1.05504e+09,-1.05485e+09,-1.05502e+09,-16733.8,-0.00413433,0.0418857,-0,0.0420893,-30119.7,-38412.1,-0,48812.8,16733.8
step02_gravity_refstate-crust.xmf,2133,-3.53889e-07,2.32576e-06,0,-3.10501e-07,-1.05061e+09,-1.05043e+09,-1.05058e+09,-21300.4,-0.00479945,0.0406055,-0,0.0408882,-28157.3,-38250.6,-0,47496.8,21300.4
step02_gravity_refstate-crust.xmf,2134,-3.98732e-07,2.45928e-06,0,-1.85761e-07,-1.05248e+09,-1.05229e+09,-1.05246e+09,-12743.2,-0.00335343,0.0434275,-0,0.0435568,-32082.2,-38318.9,-0,49976.1,12743.2
step02_gravity_refstate-crust.xmf,2135,-4.21568e-07,2.5131e-06,0,-7.933e-08,-1.04199e+09,-1.04179e+09,-1.04196e+09,-5442.03,-0.00153728,0.0461964,-0,0.046222,-36376.1,-37936.8,-0,52558.7,5442.03
step02_gravity_refstate-crust.xmf,2136,-4.14763e-07,2.50021e-06,0,-1.30932e-07,-1.04965e+09,-1.04945e+09,-1.04962e+09,-8981.93,-0.00248458,0.0447452,-0,0.0448141,-34184.6,-38215.9,-0,51274.1,8981.93
step02_gravity_refstate-crust.xmf,2137,-4.18995e-07,2.50813e-06,0,-2.17352e-10,-1.03336e+09,-1.03316e+09,-1.03333e+09,-14.9104,-1.3716e-19,0.047462,-0,0.047462,-40000,-37622.7,-0,54913.3,14.9104
step02_gravity_refstate-crust.xmf,2138,-4.3975e-07,2.56501e-06,0,-3.47557e-08,-1.0535e+09,-1.05329e+09,-1.05347e+09,-2384.24,-0.000720252,0.0455065,-0,0.0455122,-38357.6,-38355.8,-0,54244.5,2384.24
