Block Name,Point ID,cauchy_strain_0,cauchy_strain_1,cauchy_strain_2,cauchy_strain_3,cauchy_stress_0,cauchy_stress_1,cauchy_stress_2,cauchy_stress_3,displacement_0,displacement_1,displacement_2,displacement_Magnitude,Points_0,Points_1,Points_2,Points_Magnitude,stress_xy
step02_gravity_refstate-mantle.xmf,0,1.79998e-06,4.34978e-06,0,-4.05071e-08,-1.09797e+09,-1.09763e+09,-1.09821e+09,-5413.77,0.0040574,0.0451308,0,0.0453128,-37792.8,-40000,-0,55030,5413.77
step02_gravity_refstate-mantle.xmf,1,1.84233e-06,4.3107e-06,0,1.24412e-08,-1.09796e+09,-1.09763e+09,-1.09821e+09,1662.77,-1.36087e-19,0.0440371,-0,0.0440371,-40000,-40000,-0,56568.5,1662.77
step02_gravity_refstate-mantle.xmf,2,2.66107e-06,4.04498e-06,0,-1.01464e-07,-1.14953e+09,-1.14934e+09,-1.14988e+09,-13560.7,0.00429591,0.0379135,0,0.0381561,-38398.1,-41597.6,-0,56610.7,13560.7
step02_gravity_refstate-mantle.xmf,3,3.01681e-06,3.8986e-06,0,6.04289e-09,-1.16868e+09,-1.16856e+09,-1.16908e+09,807.633,-1.29007e-19,0.0350434,-0,0.0350434,-40000,-42191.3,-0,58138.7,807.633
step02_gravity_refstate-mantle.xmf,4,2.62828e-06,4.11134e-06,0,-2.15262e-07,-1.15261e+09,-1.15241e+09,-1.15296e+09,-28769.8,0.00849112,0.0390341,0,0.039947,-36858.6,-41692.7,-0,55649.2,28769.8
step02_gravity_refstate-mantle.xmf,5,3.53507e-06,3.71549e-06,0,-1.79816e-07,-1.19962e+09,-1.1996e+09,-1.2001e+09,-24032.4,0.00629876,0.0320017,0,0.0326157,-38228.4,-43150,-0,57648.4,24032.4
step02_gravity_refstate-mantle.xmf,6,1.56618e-06,4.52295e-06,0,-8.23825e-08,-1.09801e+09,-1.09761e+09,-1.09822e+09,-11010.4,0.00763122,0.0482597,0,0.0488593,-35691.6,-40000,-0,53608.7,11010.4
step02_gravity_refstate-mantle.xmf,7,4.2914e-06,3.37843e-06,0,6.13705e-09,-1.23939e+09,-1.23951e+09,-1.23996e+09,820.217,-1.95733e-19,0.0270647,-0,0.0270647,-40000,-44382.5,-0,59747.9,820.217
step02_gravity_refstate-mantle.xmf,8,8.38135e-07,5.11656e-06,0,-8.33926e-08,-1.09811e+09,-1.09754e+09,-1.09823e+09,-11145.4,0.0125655,0.0600514,0,0.0613519,-31786.7,-40000,-0,51092,11145.4
step02_gravity_refstate-mantle.xmf,9,1.24766e-06,4.78241e-06,0,-9.80255e-08,-1.09805e+09,-1.09758e+09,-1.09822e+09,-13101.1,0.010513,0.0532608,0,0.0542884,-33691.1,-40000,-0,52298.1,13101.1
step02_gravity_refstate-mantle.xmf,10,1.98607e-06,4.6553e-06,0,-4.40221e-07,-1.14914e+09,-1.14878e+09,-1.1494e+09,-58835.6,0.0180895,0.0491369,0,0.0523609,-32639,-41582.6,-0,52862.2,58835.6
step02_gravity_refstate-mantle.xmf,11,2.46914e-06,4.30028e-06,0,-3.72696e-07,-1.15806e+09,-1.15781e+09,-1.15839e+09,-49810.9,0.0144847,0.0422101,0,0.0446262,-34677.9,-41860.5,-0,54358.6,49810.9
step02_gravity_refstate-mantle.xmf,12,3.65552e-06,3.73549e-06,0,-3.93463e-07,-1.21145e+09,-1.21144e+09,-1.21194e+09,-52586.3,0.0135104,0.0325069,0,0.0352027,-36383.6,-43516.3,-0,56722.4,52586.3
step02_gravity_refstate-mantle.xmf,13,4.82679e-06,3.1705e-06,0,-2.87859e-07,-1.27018e+09,-1.2704e+09,-1.27083e+09,-38472.4,0.0103988,0.0247142,0,0.0268128,-37851.9,-45336.8,-0,59060.9,38472.4
step02_gravity_refstate-mantle.xmf,14,3.6474e-07,5.51279e-06,0,-3.83641e-08,-1.09818e+09,-1.0975e+09,-1.09823e+09,-5127.36,0.0136929,0.0685996,0,0.0699529,-29973.6,-40000,-0,49984.2,5127.36
step02_gravity_refstate-mantle.xmf,15,1.56314e-06,5.01539e-06,0,-4.61652e-07,-1.14499e+09,-1.14453e+09,-1.1452e+09,-61699.8,0.0206133,0.0565248,0,0.0601661,-30884.3,-41452.7,-0,51693,61699.8
step02_gravity_refstate-mantle.xmf,16,5.58581e-06,2.81267e-06,0,2.6778e-09,-1.31009e+09,-1.31046e+09,-1.31084e+09,357.888,-2.11905e-19,0.0202825,-0,0.0202825,-40000,-46573.9,-0,61393.2,357.888
step02_gravity_refstate-mantle.xmf,17,1.22175e-06,5.37646e-06,0,-5.2598e-07,-1.14874e+09,-1.14819e+09,-1.14891e+09,-70297.3,0.0235505,0.0638878,0,0.0680902,-29262.3,-41567.2,-0,50834.2,70297.3
step02_gravity_refstate-mantle.xmf,18,2.53409e-06,4.57393e-06,0,-6.70663e-07,-1.18354e+09,-1.18327e+09,-1.18388e+09,-89634.2,0.025086,0.0474387,0,0.0536632,-31717.4,-42648.8,-0,53150,89634.2
step02_gravity_refstate-mantle.xmf,19,2.13919e-06,4.94736e-06,0,-7.42384e-07,-1.18124e+09,-1.18086e+09,-1.18153e+09,-99219.6,0.028615,0.054759,0,0.0617848,-30038.2,-42576,-0,52105.7,99219.6
step02_gravity_refstate-mantle.xmf,20,3.32318e-06,4.15781e-06,0,-7.45447e-07,-1.21392e+09,-1.21381e+09,-1.21436e+09,-99629,0.0265142,0.0399341,0,0.0479347,-32746.4,-43591.4,-0,54521,99629
step02_gravity_refstate-mantle.xmf,21,3.74924e-06,3.81303e-06,0,-5.95584e-07,-1.22424e+09,-1.22423e+09,-1.22474e+09,-79599.9,0.0210331,0.0339706,0,0.0399549,-34638.8,-43912,-0,55929.6,79599.9
step02_gravity_refstate-mantle.xmf,22,6.19003e-06,2.56572e-06,0,-2.65161e-07,-1.34489e+09,-1.34537e+09,-1.34572e+09,-35438.8,0.0113844,0.017867,0,0.0211857,-38162.8,-47652.1,-0,61050.2,35438.8
step02_gravity_refstate-mantle.xmf,23,4.68583e-06,3.34514e-06,0,-5.72155e-07,-1.26829e+09,-1.26847e+09,-1.26892e+09,-76468.6,0.0207335,0.0272964,0,0.0342779,-35654.9,-45278,-0,57631.3,76468.6
step02_gravity_refstate-mantle.xmf,24,-2.50117e-07,5.98614e-06,0,3.93635e-08,-1.09828e+09,-1.09744e+09,-1.09824e+09,5260.93,0.0138374,0.0789087,0,0.0801128,-28247.5,-40000,-0,48968.6,5260.93
step02_gravity_refstate-mantle.xmf,25,3.04743e-06,4.52079e-06,0,-9.03186e-07,-1.21564e+09,-1.21545e+09,-1.21605e+09,-120711,0.033253,0.0467494,0,0.0573696,-30717.4,-43643.7,-0,53369.8,120711
step02_gravity_refstate-mantle.xmf,26,6.82949e-06,2.24908e-06,0,3.05102e-09,-1.3809e+09,-1.38151e+09,-1.38181e+09,407.768,-2.38422e-19,0.0147284,-0,0.0147284,-40000,-48768,-0,63073.9,407.768
step02_gravity_refstate-mantle.xmf,27,5.63015e-06,2.88453e-06,0,-4.88523e-07,-1.31644e+09,-1.31681e+09,-1.31719e+09,-65291.1,0.0194852,0.0214981,0,0.0290145,-36565.6,-46770.4,-0,59367.6,65291.1
step02_gravity_refstate-mantle.xmf,28,-1.55126e-06,6.99875e-06,0,3.4536e-07,-1.09848e+09,-1.09733e+09,-1.09827e+09,46157.4,0.0111434,0.104906,0,0.105496,-25039.7,-40000,-0,47191,46157.4
step02_gravity_refstate-mantle.xmf,29,-8.63385e-07,6.46694e-06,0,1.7475e-07,-1.09837e+09,-1.09739e+09,-1.09826e+09,23355.4,0.0129894,0.0909984,0,0.0919208,-26604.2,-40000,-0,48039.4,23355.4
step02_gravity_refstate-mantle.xmf,30,-1.49099e-07,6.47761e-06,0,-3.08365e-07,-1.1393e+09,-1.13842e+09,-1.13928e+09,-41212.9,0.0232758,0.0900205,0,0.0929809,-25733.8,-41269.2,-0,48635.1,41212.9
step02_gravity_refstate-mantle.xmf,31,-2.28523e-06,7.55247e-06,0,5.66898e-07,-1.09859e+09,-1.09727e+09,-1.09828e+09,75766,0.0083282,0.120673,0,0.12096,-23550.3,-40000,-0,46417.8,75766
step02_gravity_refstate-mantle.xmf,32,-7.75471e-07,7.01528e-06,0,-1.68719e-07,-1.13856e+09,-1.13752e+09,-1.13846e+09,-22549.3,0.0223337,0.104526,0,0.106886,-24203.1,-41243.4,-0,47820.6,22549.3
step02_gravity_refstate-mantle.xmf,33,-3.05629e-06,8.12156e-06,0,8.43582e-07,-1.09871e+09,-1.09721e+09,-1.0983e+09,112745,0.00458322,0.138344,0,0.13842,-22132.3,-40000,-0,45714.8,112745
step02_gravity_refstate-mantle.xmf,34,-1.3832e-06,7.5555e-06,0,1.10776e-08,-1.13905e+09,-1.13785e+09,-1.13886e+09,1480.52,0.0209444,0.12039,0,0.122198,-22768,-41255.9,-0,47121.4,1480.52
step02_gravity_refstate-mantle.xmf,35,1.80048e-07,6.11665e-06,0,-3.16487e-07,-1.13412e+09,-1.13333e+09,-1.13414e+09,-42298.5,0.021892,0.0812303,0,0.0841286,-26961.7,-41110.3,-0,49162.9,42298.5
step02_gravity_refstate-mantle.xmf,36,2.4716e-06,5.00874e-06,0,-9.51608e-07,-1.20562e+09,-1.20528e+09,-1.20595e+09,-127182,0.0361807,0.0564921,0,0.067085,-28928.9,-43331.4,-0,52100.8,127182
step02_gravity_refstate-mantle.xmf,37,1.12164e-06,5.65588e-06,0,-6.35879e-07,-1.16143e+09,-1.16082e+09,-1.16158e+09,-84985.2,0.027972,0.0700417,0,0.0754207,-27858.2,-41959,-0,50365,84985.2
step02_gravity_refstate-mantle.xmf,38,4.56908e-06,3.55975e-06,0,-7.96583e-07,-1.26947e+09,-1.2696e+09,-1.27008e+09,-106463,0.0297464,0.0307356,0,0.0427729,-33731.5,-45314,-0,56490.5,106463
step02_gravity_refstate-mantle.xmf,39,7.37974e-06,2.0295e-06,0,-2.58053e-07,-1.41529e+09,-1.41601e+09,-1.41628e+09,-34488.8,0.0136641,0.0128616,0,0.0187651,-38148.3,-49833.4,-0,62758.7,34488.8
step02_gravity_refstate-mantle.xmf,40,6.70908e-06,2.41517e-06,0,-5.14487e-07,-1.37681e+09,-1.37738e+09,-1.37771e+09,-68761.2,0.0241393,0.0166885,0,0.0293464,-36417,-48641.2,-0,60763.2,68761.2
step02_gravity_refstate-mantle.xmf,41,5.85078e-06,2.92094e-06,0,-7.40177e-07,-1.33241e+09,-1.3328e+09,-1.33319e+09,-98924.7,0.0312557,0.0224869,0,0.0385042,-34735.2,-47265.2,-0,58656.1,98924.7
step02_gravity_refstate-mantle.xmf,42,7.95177e-06,1.7409e-06,0,2.79633e-09,-1.45202e+09,-1.45285e+09,-1.45308e+09,373.73,-2.61871e-19,0.0103335,-0,0.0103335,-40000,-50971,-0,64792.3,373.73
step02_gravity_refstate-mantle.xmf,43,-3.85498e-06,8.6973e-06,0,1.1798e-06,-1.09883e+09,-1.09716e+09,-1.09832e+09,157680,-4.23236e-05,0.157964,-0,0.157964,-20782.4,-40000,-0,45076.7,157680
step02_gravity_refstate-mantle.xmf,44,-2.10281e-06,8.12334e-06,0,2.87003e-07,-1.13678e+09,-1.13542e+09,-1.1365e+09,38358,0.017678,0.138609,0,0.139732,-21415.7,-41182.5,-0,46417.9,38358
step02_gravity_refstate-mantle.xmf,45,4.33935e-06,3.88477e-06,0,-9.99258e-07,-1.2678e+09,-1.26786e+09,-1.26838e+09,-133551,0.03825,0.0361909,0,0.0526579,-31766.8,-45261.8,-0,55297,133551
step02_gravity_refstate-mantle.xmf,46,4.11139e-06,4.30425e-06,0,-1.17682e-06,-1.2691e+09,-1.26907e+09,-1.26965e+09,-157282,0.0473056,0.0437734,0,0.0644509,-29670.7,-45301.5,-0,54153.3,157282
step02_gravity_refstate-mantle.xmf,47,8.41735e-06,1.56911e-06,0,-2.28791e-07,-1.48587e+09,-1.48679e+09,-1.487e+09,-30577.9,0.0158894,0.00894303,0,0.0182332,-38110.8,-52019.4,-0,64486.1,30577.9
step02_gravity_refstate-mantle.xmf,48,8.89579e-06,1.32609e-06,0,2.73177e-09,-1.52366e+09,-1.52468e+09,-1.52485e+09,365.101,-2.79402e-19,0.00693278,-0,0.00693278,-40000,-53189.4,-0,66551.6,365.101
step02_gravity_refstate-mantle.xmf,49,-4.67452e-06,9.2714e-06,0,1.58002e-06,-1.09896e+09,-1.0971e+09,-1.09834e+09,211170,-0.00548878,0.179575,-0,0.179659,-19497.2,-40000,-0,44498.8,211170
step02_gravity_refstate-mantle.xmf,50,-2.877e-06,8.69601e-06,0,6.49288e-07,-1.13333e+09,-1.13178e+09,-1.13294e+09,86777.3,0.0129527,0.158924,0,0.159451,-20138.8,-41072,-0,45743.6,86777.3
step02_gravity_refstate-mantle.xmf,51,-5.51615e-06,9.83969e-06,0,2.04375e-06,-1.0991e+09,-1.09705e+09,-1.09836e+09,273148,-0.0116961,0.20322,-0,0.203556,-18273.7,-40000,-0,43976.5,273148
step02_gravity_refstate-mantle.xmf,52,-3.57132e-06,9.24891e-06,0,1.03768e-06,-1.13235e+09,-1.13063e+09,-1.13187e+09,138686,0.00847189,0.180755,0,0.180953,-18910.3,-41038.5,-0,45185.8,138686
step02_gravity_refstate-mantle.xmf,53,9.93587e-07,6.00633e-06,0,-7.07666e-07,-1.17323e+09,-1.17256e+09,-1.17336e+09,-94579.5,0.0325838,0.0783528,0,0.0848579,-26364.6,-42323.5,-0,49863.5,94579.5
step02_gravity_refstate-mantle.xmf,54,6.42075e-07,6.45536e-06,0,-6.78256e-07,-1.17733e+09,-1.17655e+09,-1.17741e+09,-90648.8,0.0350043,0.0898212,0,0.096401,-24887.3,-42449,-0,49206.7,90648.8
step02_gravity_refstate-mantle.xmf,55,1.72332e-07,6.9847e-06,0,-5.60563e-07,-1.17846e+09,-1.17755e+09,-1.17849e+09,-74919.2,0.0359878,0.104565,0,0.110585,-23372.9,-42482.3,-0,48487.5,74919.2
step02_gravity_refstate-mantle.xmf,56,-2.88903e-07,7.51233e-06,0,-3.77814e-07,-1.17961e+09,-1.17857e+09,-1.17958e+09,-50494.8,0.0363339,0.120665,0,0.126017,-21977.4,-42516.1,-0,47860.5,50494.8
step02_gravity_refstate-mantle.xmf,57,2.2038e-06,5.44621e-06,0,-1.01956e-06,-1.21113e+09,-1.21069e+09,-1.21142e+09,-136264,0.0416748,0.0660746,0,0.0781194,-27147.5,-43500.9,-0,51276.8,136264
step02_gravity_refstate-mantle.xmf,58,3.43434e-06,4.86879e-06,0,-1.20554e-06,-1.25314e+09,-1.25295e+09,-1.2536e+09,-161120,0.0502545,0.0546005,0,0.0742073,-27928.9,-44805.4,-0,52797.2,161120
step02_gravity_refstate-mantle.xmf,59,5.51681e-06,3.27963e-06,0,-9.67723e-07,-1.32057e+09,-1.32087e+09,-1.3213e+09,-129336,0.0410222,0.0275302,0,0.0494038,-32777.1,-46898.1,-0,57216.8,129336
step02_gravity_refstate-mantle.xmf,60,7.85421e-06,1.92148e-06,0,-4.89287e-07,-1.44744e+09,-1.44823e+09,-1.44849e+09,-65393.2,0.0294611,0.0120881,0,0.0318446,-36254.7,-50829.4,-0,62434.3,65393.2
step02_gravity_refstate-mantle.xmf,61,7.14374e-06,2.37093e-06,0,-7.36785e-07,-1.40515e+09,-1.40579e+09,-1.40611e+09,-98471.3,0.0386027,0.0166661,0,0.0420467,-34635.1,-49519.5,-0,60429.9,98471.3
step02_gravity_refstate-mantle.xmf,62,9.2671e-06,1.21143e-06,0,-1.76232e-07,-1.55816e+09,-1.55924e+09,-1.5594e+09,-23553.4,0.017727,0.00584118,0,0.0186645,-38084.7,-54257.2,-0,66289.4,23553.4
step02_gravity_refstate-mantle.xmf,63,-6.38194e-06,1.03978e-05,0,2.5784e-06,-1.09924e+09,-1.097e+09,-1.09839e+09,344603,-0.0185987,0.228938,-0,0.229692,-17108.9,-40000,-0,43505.3,344603
step02_gravity_refstate-mantle.xmf,64,-4.21672e-06,9.78861e-06,0,1.46818e-06,-1.13274e+09,-1.13087e+09,-1.13218e+09,196223,0.00400533,0.204527,0,0.204566,-17723.3,-41047.9,-0,44710.6,196223
step02_gravity_refstate-mantle.xmf,65,-7.24235e-06,1.09237e-05,0,3.19175e-06,-1.09938e+09,-1.09696e+09,-1.09841e+09,426577,-0.026135,0.256773,-0,0.258099,-15999.9,-40000,-0,43081.3,426577
step02_gravity_refstate-mantle.xmf,66,-4.74179e-06,1.03374e-05,0,1.96791e-06,-1.13599e+09,-1.13397e+09,-1.13535e+09,263011,0.000316406,0.232274,0,0.232274,-16478.2,-41145.9,-0,44322.9,263011
step02_gravity_refstate-mantle.xmf,67,-1.12238e-06,8.11146e-06,0,-4.49871e-08,-1.17051e+09,-1.16927e+09,-1.17036e+09,-6012.53,0.0314251,0.14026,0,0.143737,-20712.3,-42230.8,-0,47036.6,6012.53
step02_gravity_refstate-mantle.xmf,68,4.44468e-06,4.42345e-06,0,-1.27449e-06,-1.29152e+09,-1.29152e+09,-1.29211e+09,-170336,0.0574652,0.0464201,0,0.073872,-28432.3,-45996.6,-0,54074.8,170336
step02_gravity_refstate-mantle.xmf,69,5.41319e-06,3.59347e-06,0,-1.15355e-06,-1.32248e+09,-1.32272e+09,-1.3232e+09,-154172,0.0513626,0.0325053,0,0.0607841,-30932.8,-46957.2,-0,56230.1,154172
step02_gravity_refstate-mantle.xmf,70,6.49549e-06,2.7933e-06,0,-9.11601e-07,-1.37078e+09,-1.37127e+09,-1.37165e+09,-121835,0.0438062,0.0215298,0,0.0488111,-33360.6,-48454.4,-0,58828.2,121835
step02_gravity_refstate-mantle.xmf,71,8.79404e-06,1.52352e-06,0,-4.15401e-07,-1.51627e+09,-1.51724e+09,-1.51744e+09,-55518.3,0.033334,0.00845025,0,0.0343884,-36209,-52960.7,-0,64155.4,55518.3
step02_gravity_refstate-mantle.xmf,72,9.61361e-06,1.03675e-06,0,2.89557e-09,-1.59605e+09,-1.5972e+09,-1.59733e+09,386.993,-2.75196e-19,0.00428815,-0,0.00428815,-40000,-55429.4,-0,68355.1,386.993
step02_gravity_refstate-mantle.xmf,73,-1.17906e-05,1.31194e-05,0,7.82757e-06,-1.10019e+09,-1.09686e+09,-1.09861e+09,1.04615e+06,-0.0711825,0.429437,-0,0.435296,-11203.7,-40000,-0,41539.4,1.04615e+06
step02_gravity_refstate-mantle.xmf,74,-1.08766e-05,1.2784e-05,0,6.64743e-06,-1.10002e+09,-1.09685e+09,-1.09856e+09,888429,-0.0613832,0.390224,-0,0.395023,-12071.1,-40000,-0,41781.7,888429
step02_gravity_refstate-mantle.xmf,75,-9.10049e-06,1.27223e-05,0,6.41766e-06,-1.12229e+09,-1.11937e+09,-1.12107e+09,857720,-0.0445808,0.402391,-0,0.404853,-11591,-40699.8,-0,42318.1,857720
step02_gravity_refstate-mantle.xmf,76,-1.26829e-05,1.33677e-05,0,9.18134e-06,-1.10036e+09,-1.09688e+09,-1.09866e+09,1.22709e+06,-0.0812553,0.471168,-0,0.478123,-10377.9,-40000,-0,41324.3,1.22709e+06
step02_gravity_refstate-mantle.xmf,77,-9.81476e-06,1.30546e-05,0,7.67972e-06,-1.12211e+09,-1.11905e+09,-1.12079e+09,1.02639e+06,-0.0530198,0.443691,-0,0.446848,-10730.8,-40690.1,-0,42081.3,1.02639e+06
step02_gravity_refstate-mantle.xmf,78,-1.35062e-05,1.34872e-05,0,1.07493e-05,-1.10053e+09,-1.09692e+09,-1.09872e+09,1.43665e+06,-0.0915281,0.515538,-0,0.5236,-9591.69,-40000,-0,41133.9,1.43665e+06
step02_gravity_refstate-mantle.xmf,79,-1.06403e-05,1.32829e-05,0,9.13162e-06,-1.11984e+09,-1.11664e+09,-1.11842e+09,1.22044e+06,-0.0635103,0.485344,-0,0.489481,-9970.29,-40615.2,-0,41821.1,1.22044e+06
step02_gravity_refstate-mantle.xmf,80,-1.42331e-05,1.3434e-05,0,1.25627e-05,-1.10069e+09,-1.09699e+09,-1.09879e+09,1.679e+06,-0.101907,0.562695,-0,0.571848,-8843.14,-40000,-0,40965.9,1.679e+06
step02_gravity_refstate-mantle.xmf,81,-1.12957e-05,1.33849e-05,0,1.0748e-05,-1.11839e+09,-1.11509e+09,-1.11688e+09,1.43647e+06,-0.0732018,0.528042,-0,0.533092,-9262.34,-40566.4,-0,41610.3,1.43647e+06
step02_gravity_refstate-mantle.xmf,82,-1.4776e-05,1.31253e-05,0,1.46635e-05,-1.10083e+09,-1.0971e+09,-1.09886e+09,1.95978e+06,-0.112265,0.612806,-0,0.623004,-8130.43,-40000,-0,40817.9,1.95978e+06
step02_gravity_refstate-mantle.xmf,83,-1.18186e-05,1.33289e-05,0,1.27654e-05,-1.1176e+09,-1.11424e+09,-1.11602e+09,1.70609e+06,-0.0828828,0.576838,-0,0.582762,-8530.33,-40538.4,-0,41426.2,1.70609e+06
step02_gravity_refstate-mantle.xmf,84,-9.97276e-06,1.23883e-05,0,5.60978e-06,-1.09985e+09,-1.09686e+09,-1.09852e+09,749747,-0.0519211,0.353428,-0,0.357221,-12982.1,-40000,-0,42054,749747
step02_gravity_refstate-mantle.xmf,85,-8.4301e-06,1.23543e-05,0,5.35406e-06,-1.12234e+09,-1.11956e+09,-1.12121e+09,715570,-0.0366737,0.364565,-0,0.366405,-12475.7,-40704.9,-0,42573.8,715570
step02_gravity_refstate-mantle.xmf,86,-1.77205e-06,8.64089e-06,0,3.11762e-07,-1.16548e+09,-1.16409e+09,-1.16525e+09,41666.9,0.0273135,0.159747,0,0.162066,-19568.1,-42072.6,-0,46400.6,41666.9
step02_gravity_refstate-mantle.xmf,87,-5.96417e-06,1.09518e-05,0,2.81706e-06,-1.12828e+09,-1.12602e+09,-1.12748e+09,376501,-0.011242,0.265768,-0,0.266006,-15315.5,-40901.3,-0,43674.7,376501
step02_gravity_refstate-mantle.xmf,88,-2.2343e-06,9.1411e-06,0,6.73004e-07,-1.16563e+09,-1.16411e+09,-1.16533e+09,89947,0.0250476,0.180509,0,0.182239,-18423.1,-42075.3,-0,45931.9,89947
step02_gravity_refstate-mantle.xmf,89,-8.17004e-06,1.14579e-05,0,3.89753e-06,-1.09954e+09,-1.09692e+09,-1.09845e+09,520905,-0.0342396,0.286764,-0,0.288801,-14944.2,-40000,-0,42700.4,520905
step02_gravity_refstate-mantle.xmf,90,-9.07031e-06,1.19431e-05,0,4.69721e-06,-1.09969e+09,-1.09689e+09,-1.09848e+09,627782,-0.0428543,0.318964,-0,0.32183,-13939,-40000,-0,42359.1,627782
step02_gravity_refstate-mantle.xmf,91,-7.64512e-06,1.1946e-05,0,4.39671e-06,-1.12454e+09,-1.12193e+09,-1.12352e+09,587620,-0.0276732,0.330528,-0,0.331684,-13344.2,-40777.2,-0,42905.1,587620
step02_gravity_refstate-mantle.xmf,92,-6.77785e-06,1.14798e-05,0,3.55701e-06,-1.12706e+09,-1.12462e+09,-1.12615e+09,475394,-0.0187821,0.297433,-0,0.298025,-14285.7,-40859.4,-0,43284.8,475394
step02_gravity_refstate-mantle.xmf,93,1.95895e-06,5.88876e-06,0,-1.01651e-06,-1.21553e+09,-1.215e+09,-1.21579e+09,-135857,0.0461345,0.0764472,0,0.0892892,-25601.9,-43636.3,-0,50592.3,135857
step02_gravity_refstate-mantle.xmf,94,1.61826e-06,6.38834e-06,0,-9.42423e-07,-1.21703e+09,-1.2164e+09,-1.21725e+09,-125955,0.049311,0.0893154,0,0.102024,-24086.1,-43681.9,-0,49882.3,125955
step02_gravity_refstate-mantle.xmf,95,1.26336e-06,6.92038e-06,0,-7.89131e-07,-1.21795e+09,-1.21719e+09,-1.21811e+09,-105467,0.0517277,0.104357,0,0.116474,-22619.2,-43709,-0,49214.9,105467
step02_gravity_refstate-mantle.xmf,96,7.76042e-07,7.53679e-06,0,-5.16909e-07,-1.21518e+09,-1.21427e+09,-1.21528e+09,-69084.8,0.0520276,0.123688,0,0.134185,-21112.6,-43621.9,-0,48462.5,69084.8
step02_gravity_refstate-mantle.xmf,97,3.16803e-06,5.30718e-06,0,-1.23701e-06,-1.25398e+09,-1.25369e+09,-1.2544e+09,-165327,0.0555779,0.0640172,0,0.0847768,-26382.5,-44830.7,-0,52017.6,165327
step02_gravity_refstate-mantle.xmf,98,4.10977e-06,4.82653e-06,0,-1.30894e-06,-1.28595e+09,-1.28585e+09,-1.2865e+09,-174940,0.0614857,0.0540007,0,0.0818326,-27170.3,-45823.4,-0,53272.9,174940
step02_gravity_refstate-mantle.xmf,99,5.34701e-06,3.95333e-06,0,-1.28189e-06,-1.3272e+09,-1.32739e+09,-1.32792e+09,-171325,0.0617744,0.0384973,0,0.0727882,-29156.9,-47103.6,-0,55397.5,171325
step02_gravity_refstate-mantle.xmf,100,6.47843e-06,3.02691e-06,0,-1.06423e-06,-1.3727e+09,-1.37316e+09,-1.37356e+09,-142234,0.0538837,0.0247326,0,0.0592887,-31843,-48514.2,-0,58031.1,142234
step02_gravity_refstate-mantle.xmf,101,7.39117e-06,2.49412e-06,0,-9.23733e-07,-1.42308e+09,-1.42373e+09,-1.42407e+09,-123457,0.0536706,0.0182832,0,0.0566993,-32812.4,-50075.2,-0,59868,123457
step02_gravity_refstate-mantle.xmf,102,8.25345e-06,1.94538e-06,0,-6.99037e-07,-1.47676e+09,-1.47761e+09,-1.47787e+09,-93426.4,0.0481105,0.0124484,0,0.0496949,-34187.8,-51737.9,-0,62013.1,93426.4
step02_gravity_refstate-mantle.xmf,103,9.872e-06,9.88761e-07,0,-1.04337e-07,-1.63041e+09,-1.63159e+09,-1.63173e+09,-13944.6,0.0183079,0.00336664,0,0.0186149,-38140.5,-56492.3,-0,68162.2,13944.6
step02_gravity_refstate-mantle.xmf,104,9.59291e-06,1.23682e-06,0,-3.0357e-07,-1.5908e+09,-1.59192e+09,-1.59208e+09,-40572.1,0.0383126,0.00538666,0,0.0386894,-35990.9,-55267.7,-0,65953.6,40572.1
step02_gravity_refstate-mantle.xmf,105,1.00571e-05,9.03902e-07,0,1.72157e-09,-1.66939e+09,-1.67061e+09,-1.67073e+09,230.088,-2.36074e-19,0.00209861,-0,0.00209861,-40000,-57697.5,-0,70206.8,230.088
step02_gravity_refstate-mantle.xmf,106,-1.39961e-05,9.19979e-06,0,2.30974e-05,-1.10099e+09,-1.09789e+09,-1.09912e+09,3.08697e+06,-0.141018,0.782717,-0,0.795319,-6190.26,-40000,-0,40476.2,3.08697e+06
step02_gravity_refstate-mantle.xmf,107,-1.4764e-05,1.12688e-05,0,1.99733e-05,-1.10098e+09,-1.0975e+09,-1.09901e+09,2.66943e+06,-0.132125,0.722636,-0,0.734616,-6805.63,-40000,-0,40574.8,2.66943e+06
step02_gravity_refstate-mantle.xmf,108,-1.15014e-05,1.11725e-05,0,2.19501e-05,-1.11639e+09,-1.11336e+09,-1.11485e+09,2.93363e+06,-0.109348,0.746302,-0,0.754271,-6500.25,-40497.5,-0,41015.9,2.93363e+06
step02_gravity_refstate-mantle.xmf,109,-1.50006e-05,1.2448e-05,0,1.71113e-05,-1.10094e+09,-1.09727e+09,-1.09893e+09,2.28693e+06,-0.122424,0.666057,-0,0.677214,-7451.82,-40000,-0,40688.2,2.28693e+06
step02_gravity_refstate-mantle.xmf,110,-1.18712e-05,1.30483e-05,0,1.51569e-05,-1.11856e+09,-1.11523e+09,-1.11698e+09,2.02572e+06,-0.0898708,0.628058,-0,0.634456,-7833.29,-40567,-0,41316.4,2.02572e+06
step02_gravity_refstate-mantle.xmf,111,-1.14634e-05,1.2511e-05,0,1.80934e-05,-1.12033e+09,-1.11713e+09,-1.1188e+09,2.41818e+06,-0.0948489,0.682049,-0,0.688613,-7173.49,-40622.9,-0,41251.5,2.41818e+06
step02_gravity_refstate-mantle.xmf,112,-1.02774e-05,8.97107e-06,0,2.63312e-05,-1.11608e+09,-1.11351e+09,-1.1147e+09,3.51916e+06,-0.116482,0.810756,-0,0.819081,-5886.47,-40490.4,-0,40916.1,3.51916e+06
step02_gravity_refstate-mantle.xmf,113,-1.12959e-05,6.19939e-06,0,2.70692e-05,-1.10065e+09,-1.09831e+09,-1.09914e+09,3.6178e+06,-0.148586,0.846425,-0,0.859368,-5604.1,-40000,-0,40390.7,3.6178e+06
step02_gravity_refstate-mantle.xmf,114,-6.52895e-06,1.22723e-05,0,5.39414e-06,-1.14488e+09,-1.14237e+09,-1.14401e+09,720927,-0.0185294,0.375632,-0,0.376088,-11997.7,-41413.6,-0,43116.4,720927
step02_gravity_refstate-mantle.xmf,115,-4.16848e-06,1.05302e-05,0,2.1472e-06,-1.15295e+09,-1.15099e+09,-1.1524e+09,286973,0.00810899,0.247897,0,0.24803,-15660.3,-41674.4,-0,44519.6,286973
step02_gravity_refstate-mantle.xmf,116,-2.59058e-06,9.631e-06,0,1.10093e-06,-1.16775e+09,-1.16611e+09,-1.1674e+09,147140,0.0234716,0.203576,0,0.204925,-17280.2,-42139.6,-0,45545,147140
step02_gravity_refstate-mantle.xmf,117,-4.60553e-06,1.09875e-05,0,2.81035e-06,-1.15437e+09,-1.15229e+09,-1.15376e+09,375603,0.0042531,0.279251,0,0.279284,-14557,-41716.4,-0,44183.3,375603
step02_gravity_refstate-mantle.xmf,118,-3.66959e-07,8.14697e-06,0,-1.33207e-07,-1.19471e+09,-1.19357e+09,-1.19466e+09,-17803.1,0.0425235,0.143855,0,0.150008,-20073.6,-42983.5,-0,47439.8,17803.1
step02_gravity_refstate-mantle.xmf,119,5.20418e-06,4.42692e-06,0,-1.34329e-06,-1.32909e+09,-1.32919e+09,-1.32978e+09,-179531,0.0716976,0.0468088,0,0.0856248,-27347.9,-47162.2,-0,54517.7,179531
step02_gravity_refstate-mantle.xmf,120,6.41059e-06,3.36938e-06,0,-1.20402e-06,-1.37476e+09,-1.37516e+09,-1.37561e+09,-160917,0.0653484,0.0295506,0,0.0717193,-30108.5,-48578.2,-0,57152.1,160917
step02_gravity_refstate-mantle.xmf,121,9.00293e-06,1.61043e-06,0,-5.39626e-07,-1.53539e+09,-1.53637e+09,-1.53659e+09,-72121.1,0.0491353,0.00881378,0,0.0499195,-34548.1,-53552.9,-0,63729.8,72121.1
step02_gravity_refstate-mantle.xmf,122,1.0129e-05,9.20209e-07,0,-5.55213e-08,-1.69056e+09,-1.69179e+09,-1.69191e+09,-7420.43,0.0167061,0.00155543,0,0.0167783,-38350,-58351.8,-0,69825.9,7420.43
step02_gravity_refstate-mantle.xmf,123,1.02062e-05,9.19361e-07,0,1.91701e-08,-1.74389e+09,-1.74514e+09,-1.74526e+09,2562.09,1.44089e-18,-2.2878e-20,0,1.44108e-18,-40000,-60000,-0,72111,2562.09
step02_gravity_refstate-mantle.xmf,124,-6.53732e-06,1.26205e-05,0,6.69562e-06,-1.14829e+09,-1.14573e+09,-1.14742e+09,894870,-0.0214997,0.419086,-0,0.419637,-11012,-41519.8,-0,42955.4,894870
step02_gravity_refstate-mantle.xmf,125,-7.94692e-06,1.30246e-05,0,8.20508e-06,-1.14006e+09,-1.13726e+09,-1.139e+09,1.09661e+06,-0.0369807,0.46434,-0,0.46581,-10196.9,-41257.2,-0,42498.7,1.09661e+06
step02_gravity_refstate-mantle.xmf,126,-8.83494e-06,1.32281e-05,0,9.48611e-06,-1.13496e+09,-1.13201e+09,-1.13378e+09,1.26782e+06,-0.0482563,0.499869,-0,0.502193,-9609.37,-41094.3,-0,42202.8,1.26782e+06
step02_gravity_refstate-mantle.xmf,127,-8.85789e-06,1.33471e-05,0,1.09345e-05,-1.1359e+09,-1.13293e+09,-1.13471e+09,1.4614e+06,-0.0521423,0.535051,-0,0.537585,-9035.11,-41123.3,-0,42104.2,1.4614e+06
step02_gravity_refstate-mantle.xmf,128,-9.01221e-06,1.33711e-05,0,1.28102e-05,-1.13636e+09,-1.13337e+09,-1.13516e+09,1.71208e+06,-0.0573027,0.578543,-0,0.581374,-8393.17,-41136.7,-0,41984.2,1.71208e+06
step02_gravity_refstate-mantle.xmf,129,-8.85777e-06,1.18284e-05,0,2.4794e-05,-1.1309e+09,-1.12813e+09,-1.12971e+09,3.31372e+06,-0.0863371,0.77179,-0,0.776604,-6199.22,-40965,-0,41431.4,3.31372e+06
step02_gravity_refstate-mantle.xmf,130,-6.90918e-06,1.52691e-06,0,3.14497e-05,-1.10009e+09,-1.09896e+09,-1.09917e+09,4.20325e+06,-0.154085,0.91378,-0,0.92668,-5045.52,-40000,-0,40317,4.20325e+06
step02_gravity_refstate-mantle.xmf,131,-7.69373e-06,6.32451e-06,0,3.22677e-05,-1.11586e+09,-1.11399e+09,-1.11484e+09,4.31258e+06,-0.121481,0.878372,-0,0.886733,-5311.57,-40494.3,-0,40841.2,4.31258e+06
step02_gravity_refstate-mantle.xmf,132,4.81393e-08,-5.84125e-06,0,3.6308e-05,-1.09919e+09,-1.09998e+09,-1.0992e+09,4.85257e+06,-0.156359,0.984615,-0,0.996953,-4512.49,-40000,-0,40253.7,4.85257e+06
step02_gravity_refstate-mantle.xmf,133,-4.29568e-06,2.04269e-06,0,3.87474e-05,-1.11406e+09,-1.11321e+09,-1.11349e+09,5.1786e+06,-0.127417,0.948859,-0,0.957376,-4775.68,-40450.3,-0,40731.3,5.1786e+06
step02_gravity_refstate-mantle.xmf,134,-6.36264e-06,1.19466e-05,0,4.54952e-06,-1.1424e+09,-1.13996e+09,-1.14155e+09,608043,-0.0156929,0.344416,-0,0.344774,-12792,-41337.4,-0,43271.5,608043
step02_gravity_refstate-mantle.xmf,135,-5.5968e-07,8.55209e-06,0,1.47877e-07,-1.19667e+09,-1.19545e+09,-1.19659e+09,19763.8,0.0430498,0.159586,0,0.165291,-19093,-43043.8,-0,47088.3,19763.8
step02_gravity_refstate-mantle.xmf,136,-2.7789e-06,1.0061e-05,0,1.56963e-06,-1.17152e+09,-1.16981e+09,-1.17115e+09,209780,0.0230941,0.226551,0,0.227725,-16252.5,-42256.1,-0,45273.8,209780
step02_gravity_refstate-mantle.xmf,137,-7.89216e-07,9.02952e-06,0,5.52411e-07,-1.1988e+09,-1.19749e+09,-1.19869e+09,73829.8,0.0434266,0.180153,0,0.185313,-17963.5,-43109.3,-0,46702.3,73829.8
step02_gravity_refstate-mantle.xmf,138,-4.97559e-06,1.15095e-05,0,3.73085e-06,-1.15511e+09,-1.15291e+09,-1.15445e+09,498629,-0.000576957,0.31596,-0,0.315961,-13436.3,-41738.2,-0,43847.6,498629
step02_gravity_refstate-mantle.xmf,139,-2.86907e-06,1.05123e-05,0,2.20409e-06,-1.17597e+09,-1.17418e+09,-1.17559e+09,294576,0.0230621,0.254473,0,0.255516,-15148.6,-42393.9,-0,45019.2,294576
step02_gravity_refstate-mantle.xmf,140,8.22502e-07,7.95453e-06,0,-2.68008e-07,-1.22571e+09,-1.22476e+09,-1.22582e+09,-35819.2,0.0579855,0.139064,0,0.150669,-19881.9,-43948.6,-0,48236.6,35819.2
step02_gravity_refstate-mantle.xmf,141,2.98563e-06,5.77913e-06,0,-1.18227e-06,-1.25711e+09,-1.25674e+09,-1.25751e+09,-158011,0.061188,0.0748437,0,0.0966724,-24865.2,-44927.5,-0,51349.3,158011
step02_gravity_refstate-mantle.xmf,142,2.70517e-06,6.31319e-06,0,-1.0517e-06,-1.2575e+09,-1.25702e+09,-1.25786e+09,-140560,0.065547,0.0883049,0,0.109973,-23365.9,-44938.9,-0,50650.5,140560
step02_gravity_refstate-mantle.xmf,143,2.4361e-06,6.86668e-06,0,-8.30482e-07,-1.25756e+09,-1.25697e+09,-1.25788e+09,-110994,0.0691678,0.103606,0,0.124573,-21948.3,-44940.4,-0,50013.7,110994
step02_gravity_refstate-mantle.xmf,144,4.32107e-06,5.10888e-06,0,-1.32616e-06,-1.30202e+09,-1.30191e+09,-1.3026e+09,-177242,0.0719073,0.06049,0,0.0939665,-25759.8,-46321.8,-0,53002.7,177242
step02_gravity_refstate-mantle.xmf,145,6.32352e-06,3.79854e-06,0,-1.28222e-06,-1.37673e+09,-1.37707e+09,-1.37757e+09,-171369,0.0767154,0.0358185,0,0.0846653,-28376.1,-48639.7,-0,56311.9,171369
step02_gravity_refstate-mantle.xmf,146,7.38556e-06,2.82454e-06,0,-1.06394e-06,-1.42502e+09,-1.42563e+09,-1.42601e+09,-142196,0.0671505,0.0220695,0,0.0706841,-31018.8,-50136,-0,58955.8,142196
step02_gravity_refstate-mantle.xmf,147,8.21241e-06,2.30522e-06,0,-8.92735e-07,-1.47701e+09,-1.4778e+09,-1.47811e+09,-119314,0.0661391,0.0157752,0,0.0679944,-32000.6,-51746.2,-0,60841.7,119314
step02_gravity_refstate-mantle.xmf,148,8.93128e-06,1.88308e-06,0,-6.87179e-07,-1.53063e+09,-1.53157e+09,-1.53182e+09,-91841.5,0.0636995,0.0108909,0,0.0646238,-32886.5,-53406.2,-0,62719.6,91841.5
step02_gravity_refstate-mantle.xmf,149,9.50845e-06,1.52094e-06,0,-4.72107e-07,-1.58556e+09,-1.58663e+09,-1.58683e+09,-63097.1,0.0582859,0.00695669,0,0.0586996,-33871.7,-55106,-0,64683.5,63097.1
step02_gravity_refstate-mantle.xmf,150,1.00791e-05,1.04897e-06,0,-1.40414e-07,-1.67489e+09,-1.6761e+09,-1.67624e+09,-18766.3,0.0365866,0.00228727,0,0.036658,-36367.9,-57868,-0,68347.1,18766.3
step02_gravity_refstate-mantle.xmf,151,1.02131e-05,9.84447e-07,0,2.22147e-08,-1.74389e+09,-1.74512e+09,-1.74525e+09,2969,0.0239029,-4.01691e-20,0,0.0239029,-37657.4,-60000,-0,70838.4,2969
step02_gravity_refstate-mantle.xmf,152,-9.64605e-06,1.25598e-05,0,2.05841e-05,-1.12996e+09,-1.12699e+09,-1.12867e+09,2.75106e+06,-0.0828639,0.715507,-0,0.720289,-6764.57,-40932.6,-0,41487.8,2.75106e+06
step02_gravity_refstate-mantle.xmf,153,-8.68972e-06,1.34364e-05,0,1.52321e-05,-1.13817e+09,-1.13521e+09,-1.137e+09,2.03577e+06,-0.0599787,0.623702,-0,0.626579,-7783.07,-41194.8,-0,41923.6,2.03577e+06
step02_gravity_refstate-mantle.xmf,154,-7.61738e-06,1.04253e-05,0,3.04638e-05,-1.13207e+09,-1.12966e+09,-1.13106e+09,4.07149e+06,-0.088956,0.839216,-0,0.843918,-5596.23,-41006,-0,41386.1,4.07149e+06
step02_gravity_refstate-mantle.xmf,155,-1.95139e-07,-3.70704e-06,0,4.4201e-05,-1.11052e+09,-1.11099e+09,-1.1105e+09,5.90746e+06,-0.134146,1.00899,-0,1.01787,-4354.02,-40353.8,-0,40588,5.90746e+06
step02_gravity_refstate-mantle.xmf,156,9.60646e-06,-1.29421e-05,0,4.61994e-05,-1.09771e+09,-1.10073e+09,-1.099e+09,6.17455e+06,-0.152253,1.05787,-0,1.06877,-4000,-40000,-0,40199.5,6.17455e+06
step02_gravity_refstate-mantle.xmf,157,-4.50803e-06,1.18228e-05,0,4.61565e-06,-1.16427e+09,-1.16209e+09,-1.16367e+09,616881,0.00323878,0.34764,0,0.347655,-12499.7,-42025.1,-0,43844.6,616881
step02_gravity_refstate-mantle.xmf,158,-4.18298e-06,1.21746e-05,0,5.753e-06,-1.16959e+09,-1.1674e+09,-1.16903e+09,768888,0.00454568,0.383354,0,0.383381,-11601.4,-42192.3,-0,43758.2,768888
step02_gravity_refstate-mantle.xmf,159,-9.57554e-07,9.50968e-06,0,1.0654e-06,-1.20107e+09,-1.19967e+09,-1.20094e+09,142391,0.0437903,0.203233,0,0.207898,-16851.8,-43179.5,-0,46351.4,142391
step02_gravity_refstate-mantle.xmf,160,-2.92982e-06,1.09434e-05,0,2.98344e-06,-1.18048e+09,-1.17863e+09,-1.18009e+09,398736,0.0233529,0.286354,0,0.287305,-14047.1,-42534,-0,44793.5,398736
step02_gravity_refstate-mantle.xmf,161,2.21486e-06,7.43079e-06,0,-5.08599e-07,-1.25824e+09,-1.25754e+09,-1.25853e+09,-67974.2,0.072551,0.120681,0,0.140811,-20601.2,-44961.3,-0,49456.3,67974.2
step02_gravity_refstate-mantle.xmf,162,5.43175e-06,4.76265e-06,0,-1.30973e-06,-1.34719e+09,-1.34728e+09,-1.34791e+09,-175046,0.0841556,0.0526743,0,0.0992811,-25891.4,-47723.6,-0,54294.6,175046
step02_gravity_refstate-mantle.xmf,163,6.26746e-06,4.28599e-06,0,-1.2706e-06,-1.38076e+09,-1.38103e+09,-1.3816e+09,-169815,0.0879838,0.0431351,0,0.0979887,-26724.4,-48765.1,-0,55607.8,169815
step02_gravity_refstate-mantle.xmf,164,7.28131e-06,3.25577e-06,0,-1.16047e-06,-1.42426e+09,-1.4248e+09,-1.42523e+09,-155097,0.079836,0.0272593,0,0.0843614,-29265.8,-50112.9,-0,58032.6,155097
step02_gravity_refstate-mantle.xmf,165,9.87932e-06,1.29443e-06,0,-2.95673e-07,-1.63498e+09,-1.63612e+09,-1.6363e+09,-39516.7,0.0524465,0.00427952,0,0.0526208,-34689.5,-56634.3,-0,66413.9,39516.7
step02_gravity_refstate-mantle.xmf,166,-5.42706e-06,1.27882e-05,0,7.90589e-06,-1.16006e+09,-1.15762e+09,-1.15933e+09,1.05662e+06,-0.012407,0.4512,-0,0.451371,-10288.5,-41891.1,-0,43136.1,1.05662e+06
step02_gravity_refstate-mantle.xmf,167,-6.15227e-06,1.31545e-05,0,9.4578e-06,-1.15472e+09,-1.15214e+09,-1.1539e+09,1.26403e+06,-0.0231611,0.493786,-0,0.494328,-9572.18,-41722.3,-0,42806.3,1.26403e+06
step02_gravity_refstate-mantle.xmf,168,-6.44087e-06,1.34863e-05,0,1.14175e-05,-1.15345e+09,-1.15078e+09,-1.15259e+09,1.52594e+06,-0.0294626,0.540144,-0,0.540947,-8843.27,-41681.9,-0,42609.7,1.52594e+06
step02_gravity_refstate-mantle.xmf,169,-3.65837e-06,1.25438e-05,0,7.17928e-06,-1.17514e+09,-1.17298e+09,-1.17466e+09,959511,0.0071158,0.421776,0,0.421836,-10740.3,-42368.4,-0,43708.5,959511
step02_gravity_refstate-mantle.xmf,170,-6.34013e-06,1.36801e-05,0,1.36161e-05,-1.15423e+09,-1.15155e+09,-1.15338e+09,1.81979e+06,-0.0325603,0.586361,-0,0.587265,-8179.33,-41707.3,-0,42501.8,1.81979e+06
step02_gravity_refstate-mantle.xmf,171,-8.07515e-06,1.34733e-05,0,1.84212e-05,-1.14131e+09,-1.13843e+09,-1.14023e+09,2.46199e+06,-0.0602474,0.675499,-0,0.67818,-7148.71,-41296,-0,41910.2,2.46199e+06
step02_gravity_refstate-mantle.xmf,172,-7.27636e-06,1.36316e-05,0,2.25397e-05,-1.14499e+09,-1.1422e+09,-1.14402e+09,3.01243e+06,-0.058626,0.731506,-0,0.733851,-6535.21,-41415.5,-0,41928,3.01243e+06
step02_gravity_refstate-mantle.xmf,173,-6.62219e-06,1.36956e-05,0,2.78554e-05,-1.14703e+09,-1.14431e+09,-1.14614e+09,3.72287e+06,-0.0590647,0.794366,-0,0.796559,-5932.13,-41483.1,-0,41905.1,3.72287e+06
step02_gravity_refstate-mantle.xmf,174,-5.61561e-06,8.09419e-06,0,3.84416e-05,-1.13226e+09,-1.13042e+09,-1.13151e+09,5.13771e+06,-0.0924076,0.920349,-0,0.924977,-4961.42,-41019.1,-0,41318,5.13771e+06
step02_gravity_refstate-mantle.xmf,175,-2.60469e-06,1.69947e-06,0,4.54596e-05,-1.12411e+09,-1.12353e+09,-1.12376e+09,6.07568e+06,-0.109419,0.999096,-0,1.00507,-4423.11,-40771.2,-0,41010.4,6.07568e+06
step02_gravity_refstate-mantle.xmf,176,3.38113e-06,-9.62463e-06,0,5.03215e-05,-1.11504e+09,-1.11678e+09,-1.1155e+09,6.72547e+06,-0.125041,1.06353,-0,1.07085,-4000,-40502.2,-0,40699.2,6.72547e+06
step02_gravity_refstate-mantle.xmf,177,7.34139e-07,8.48433e-06,0,1.76032e-07,-1.22893e+09,-1.2279e+09,-1.22903e+09,23526.7,0.0606023,0.1588,0,0.169971,-18654.8,-44048.9,-0,47836.2,23526.7
step02_gravity_refstate-mantle.xmf,178,-1.03648e-06,9.98917e-06,0,1.70883e-06,-1.20365e+09,-1.20218e+09,-1.20352e+09,228385,0.0443789,0.228925,0,0.233186,-15763,-43260,-0,46042.4,228385
step02_gravity_refstate-mantle.xmf,179,6.34863e-07,9.00391e-06,0,7.11783e-07,-1.23117e+09,-1.23005e+09,-1.23125e+09,95129.8,0.0626284,0.18067,0,0.191217,-17490.2,-44118.6,-0,47459.1,95129.8
step02_gravity_refstate-mantle.xmf,180,-9.93265e-07,1.04745e-05,0,2.5284e-06,-1.20672e+09,-1.20518e+09,-1.20658e+09,337920,0.0454637,0.257908,0,0.261884,-14681.1,-43356.2,-0,45774.4,337920
step02_gravity_refstate-mantle.xmf,181,2.03785e-06,7.96295e-06,0,-1.16398e-07,-1.26003e+09,-1.25924e+09,-1.2603e+09,-15556.7,0.0760516,0.138977,0,0.158425,-19349.7,-45016.8,-0,48999.2,15556.7
step02_gravity_refstate-mantle.xmf,182,4.01905e-06,5.73429e-06,0,-1.18853e-06,-1.29872e+09,-1.2985e+09,-1.29926e+09,-158847,0.0777194,0.0737228,0,0.107123,-24110.7,-46219.7,-0,52130.5,158847
step02_gravity_refstate-mantle.xmf,183,3.78273e-06,6.31438e-06,0,-9.77294e-07,-1.29774e+09,-1.2974e+09,-1.29825e+09,-130615,0.0829862,0.0875316,0,0.120617,-22659.7,-46189.2,-0,51448.1,130615
step02_gravity_refstate-mantle.xmf,184,3.53543e-06,6.92299e-06,0,-6.68214e-07,-1.29651e+09,-1.29605e+09,-1.29698e+09,-89306.8,0.0874361,0.103009,0,0.135114,-21302.6,-46151,-0,50830.3,89306.8
step02_gravity_refstate-mantle.xmf,185,5.15777e-06,5.27514e-06,0,-1.22466e-06,-1.34199e+09,-1.34197e+09,-1.34267e+09,-163676,0.0896922,0.0627015,0,0.109436,-24558.7,-47562.4,-0,53528.6,163676
step02_gravity_refstate-mantle.xmf,186,6.15088e-06,4.81621e-06,0,-1.192e-06,-1.38326e+09,-1.38344e+09,-1.38408e+09,-159311,0.098042,0.0516761,0,0.110827,-25204.6,-48842.8,-0,54962.6,159311
step02_gravity_refstate-mantle.xmf,187,7.16629e-06,3.76915e-06,0,-1.18078e-06,-1.42399e+09,-1.42444e+09,-1.42494e+09,-157811,0.0919704,0.033686,0,0.0979454,-27573.1,-50105,-0,57190.8,157811
step02_gravity_refstate-mantle.xmf,188,8.16159e-06,2.746e-06,0,-9.88075e-07,-1.4754e+09,-1.47612e+09,-1.47649e+09,-132056,0.0812262,0.0199696,0,0.083645,-30129.2,-51697.3,-0,59836.2,132056
step02_gravity_refstate-mantle.xmf,189,8.88378e-06,2.28357e-06,0,-8.04779e-07,-1.52994e+09,-1.53083e+09,-1.53113e+09,-107559,0.0806339,0.0138684,0,0.0818179,-30978.4,-53385.8,-0,61722.8,107559
step02_gravity_refstate-mantle.xmf,190,9.46754e-06,1.88064e-06,0,-5.78845e-07,-1.58364e+09,-1.58466e+09,-1.58491e+09,-77362.7,0.076156,0.00891317,0,0.0766759,-31975.8,-55047.4,-0,63660.6,77362.7
step02_gravity_refstate-mantle.xmf,191,9.87906e-06,1.56093e-06,0,-3.63062e-07,-1.63638e+09,-1.63749e+09,-1.6377e+09,-48523.3,0.0691299,0.00516242,0,0.0693224,-33006.2,-56678.3,-0,65588.4,48523.3
step02_gravity_refstate-mantle.xmf,192,1.0123e-05,1.31064e-06,0,-1.72194e-07,-1.68728e+09,-1.68845e+09,-1.68863e+09,-23013.7,0.0585828,0.0023436,0,0.0586297,-34210.5,-58251.5,-0,67554.4,23013.7
step02_gravity_refstate-mantle.xmf,193,1.02127e-05,1.18536e-06,0,1.21039e-08,-1.74387e+09,-1.74508e+09,-1.74524e+09,1617.69,0.046772,-4.51665e-20,0,0.046772,-35418.4,-60000,-0,69674,1617.69
step02_gravity_refstate-mantle.xmf,194,-3.23278e-06,1.2921e-05,0,8.81135e-06,-1.17921e+09,-1.17705e+09,-1.17877e+09,1.17764e+06,0.00904808,0.462801,0,0.46289,-9933.3,-42497.7,-0,43643.1,1.17764e+06
step02_gravity_refstate-mantle.xmf,195,-4.34176e-06,1.38202e-05,0,1.27025e-05,-1.16864e+09,-1.16621e+09,-1.16806e+09,1.69769e+06,-0.0100071,0.557291,-0,0.557381,-8495.09,-42166.2,-0,43013.4,1.69769e+06
step02_gravity_refstate-mantle.xmf,196,-5.81515e-06,1.41431e-05,0,1.65319e-05,-1.15681e+09,-1.15414e+09,-1.15603e+09,2.20949e+06,-0.03238,0.634679,-0,0.635505,-7545.58,-41791.7,-0,42467.4,2.20949e+06
step02_gravity_refstate-mantle.xmf,197,-5.92833e-06,1.33189e-05,0,3.42695e-05,-1.14844e+09,-1.14587e+09,-1.14765e+09,4.58012e+06,-0.0599609,0.862831,-0,0.864912,-5353.93,-41530.3,-0,41874,4.58012e+06
step02_gravity_refstate-mantle.xmf,198,-2.65694e-06,1.13824e-05,0,3.9895e-06,-1.18501e+09,-1.18314e+09,-1.18466e+09,533197,0.0244673,0.318853,0,0.319791,-13056.8,-42676.9,-0,44629.6,533197
step02_gravity_refstate-mantle.xmf,199,-1.76323e-06,1.22467e-05,0,6.59194e-06,-1.19499e+09,-1.19312e+09,-1.19476e+09,881012,0.0299592,0.389773,0,0.390923,-11244.4,-42993.4,-0,44439.5,881012
step02_gravity_refstate-mantle.xmf,200,-2.2706e-06,1.17941e-05,0,5.16325e-06,-1.19017e+09,-1.18829e+09,-1.18987e+09,690068,0.0269246,0.353186,0,0.354211,-12124.2,-42840,-0,44522.6,690068
step02_gravity_refstate-mantle.xmf,201,5.88828e-07,9.53506e-06,0,1.38909e-06,-1.23296e+09,-1.23176e+09,-1.23304e+09,185652,0.0643832,0.205174,0,0.215039,-16360.2,-44174.9,-0,47107.1,185652
step02_gravity_refstate-mantle.xmf,202,-9.59847e-07,1.09357e-05,0,3.47861e-06,-1.20939e+09,-1.2078e+09,-1.20926e+09,464916,0.0465554,0.289844,0,0.293559,-13640,-43440.2,-0,45531.4,464916
step02_gravity_refstate-mantle.xmf,203,3.30382e-06,7.53779e-06,0,-2.46435e-07,-1.29367e+09,-1.2931e+09,-1.29411e+09,-32936,0.0906207,0.120937,0,0.151122,-19999.6,-46063.3,-0,50217.6,32936
step02_gravity_refstate-mantle.xmf,204,7.04323e-06,4.35417e-06,0,-1.10959e-06,-1.42412e+09,-1.42448e+09,-1.42506e+09,-148297,0.103308,0.0412992,0,0.111257,-25976.3,-50109.9,-0,56442.6,148297
step02_gravity_refstate-mantle.xmf,205,7.97731e-06,3.29645e-06,0,-1.03991e-06,-1.47021e+09,-1.47083e+09,-1.47127e+09,-138983,0.0945534,0.0255829,0,0.0979532,-28373.4,-51537,-0,58831.2,138983
step02_gravity_refstate-mantle.xmf,206,-3.07426e-06,1.35254e-05,0,1.10777e-05,-1.17803e+09,-1.17581e+09,-1.17762e+09,1.48053e+06,0.00496558,0.51393,0,0.513954,-9083.76,-42463.9,-0,43424.6,1.48053e+06
step02_gravity_refstate-mantle.xmf,207,-1.19478e-06,1.2791e-05,0,8.3475e-06,-1.19893e+09,-1.19706e+09,-1.19877e+09,1.11564e+06,0.0329369,0.430059,0,0.431318,-10391,-43120.3,-0,44354.7,1.11564e+06
step02_gravity_refstate-mantle.xmf,208,-3.7967e-06,1.43141e-05,0,1.49209e-05,-1.1719e+09,-1.16948e+09,-1.17139e+09,1.99418e+06,-0.00745492,0.596414,-0,0.59646,-7940.46,-42271.7,-0,43011.1,1.99418e+06
step02_gravity_refstate-mantle.xmf,209,-5.33791e-06,1.4765e-05,0,2.03226e-05,-1.15955e+09,-1.15686e+09,-1.15883e+09,2.71612e+06,-0.0315069,0.690262,-0,0.69098,-6895.09,-41881,-0,42444.8,2.71612e+06
step02_gravity_refstate-mantle.xmf,210,-5.02271e-06,1.55899e-05,0,2.50746e-05,-1.16161e+09,-1.15886e+09,-1.16094e+09,3.35122e+06,-0.0311168,0.750467,-0,0.751112,-6273.39,-41949,-0,42415.5,3.35122e+06
step02_gravity_refstate-mantle.xmf,211,-4.83509e-06,1.65835e-05,0,3.10615e-05,-1.16334e+09,-1.16048e+09,-1.1627e+09,4.15137e+06,-0.0308877,0.81611,-0,0.816695,-5675.45,-42006.3,-0,42387.9,4.15137e+06
step02_gravity_refstate-mantle.xmf,212,-3.19402e-06,7.3818e-06,0,4.78032e-05,-1.14021e+09,-1.1388e+09,-1.13979e+09,6.3889e+06,-0.079325,0.994824,-0,0.997981,-4435.76,-41279.2,-0,41516.9,6.3889e+06
step02_gravity_refstate-mantle.xmf,213,-4.83984e-06,1.30174e-05,0,4.196e-05,-1.15075e+09,-1.14837e+09,-1.15011e+09,5.60796e+06,-0.0582023,0.932225,-0,0.93404,-4831.77,-41608.2,-0,41887.9,5.60796e+06
step02_gravity_refstate-mantle.xmf,214,8.2392e-07,-1.7669e-06,0,5.54094e-05,-1.1311e+09,-1.13145e+09,-1.13121e+09,7.40547e+06,-0.0962546,1.06638,-0,1.07071,-4000,-41001.3,-0,41196,7.40547e+06
step02_gravity_refstate-mantle.xmf,215,1.98805e-06,8.55486e-06,0,4.64533e-07,-1.26139e+09,-1.26052e+09,-1.26166e+09,62084.8,0.0791927,0.159615,0,0.178181,-18140.3,-45060.1,-0,48574.5,62084.8
step02_gravity_refstate-mantle.xmf,216,6.1617e-07,1.00759e-05,0,2.22527e-06,-1.23457e+09,-1.23331e+09,-1.23465e+09,297407,0.0660805,0.232249,0,0.241467,-15271.6,-44226.3,-0,46788.8,297407
step02_gravity_refstate-mantle.xmf,217,1.97853e-06,9.14766e-06,0,1.17206e-06,-1.26328e+09,-1.26232e+09,-1.26354e+09,156646,0.082546,0.182528,0,0.200326,-16971.3,-45119.9,-0,48206.1,156646
step02_gravity_refstate-mantle.xmf,218,7.42191e-07,1.06381e-05,0,3.25618e-06,-1.23632e+09,-1.235e+09,-1.23642e+09,435189,0.0680306,0.262162,0,0.270845,-14216.4,-44282.6,-0,46508.6,435189
step02_gravity_refstate-mantle.xmf,219,3.11638e-06,8.13312e-06,0,2.59093e-07,-1.29267e+09,-1.292e+09,-1.29309e+09,34627.8,0.0940385,0.140104,0,0.168737,-18782.6,-46032.8,-0,49717.3,34627.8
step02_gravity_refstate-mantle.xmf,220,4.15056e-06,7.16693e-06,0,-3.71005e-07,-1.32001e+09,-1.31961e+09,-1.32056e+09,-49584.8,0.100084,0.106717,0,0.146306,-20599,-46881.7,-0,51207.6,49584.8
step02_gravity_refstate-mantle.xmf,221,5.00299e-06,5.93967e-06,0,-9.64288e-07,-1.34138e+09,-1.34126e+09,-1.34205e+09,-128877,0.0972767,0.0756783,0,0.123248,-23022.5,-47544.6,-0,52825.4,128877
step02_gravity_refstate-mantle.xmf,222,4.79116e-06,6.64736e-06,0,-5.93711e-07,-1.3392e+09,-1.33896e+09,-1.33984e+09,-79349.5,0.103708,0.0912918,0,0.138165,-21534.4,-47477.6,-0,52133,79349.5
step02_gravity_refstate-mantle.xmf,223,5.98393e-06,5.46832e-06,0,-9.86505e-07,-1.38274e+09,-1.38281e+09,-1.38354e+09,-131846,0.107083,0.0626057,0,0.124041,-23690.6,-48827.3,-0,54271,131846
step02_gravity_refstate-mantle.xmf,224,6.86453e-06,5.01176e-06,0,-9.55387e-07,-1.42389e+09,-1.42414e+09,-1.42481e+09,-127688,0.113931,0.0504659,0,0.124608,-24438,-50103.3,-0,55745.4,127688
step02_gravity_refstate-mantle.xmf,225,7.80218e-06,3.88349e-06,0,-1.01761e-06,-1.46571e+09,-1.46623e+09,-1.46675e+09,-136004,0.106239,0.0321048,0,0.110984,-26785.1,-51398.4,-0,57958.9,136004
step02_gravity_refstate-mantle.xmf,226,8.79108e-06,2.89724e-06,0,-8.50094e-07,-1.52899e+09,-1.52977e+09,-1.53016e+09,-113615,0.0990505,0.0184399,0,0.100752,-28882,-53357.1,-0,60672.5,113615
step02_gravity_refstate-mantle.xmf,227,9.41985e-06,2.38684e-06,0,-6.34489e-07,-1.58451e+09,-1.58545e+09,-1.58577e+09,-84799.4,0.0946234,0.0115321,0,0.0953235,-30027.9,-55075.2,-0,62729.2,84799.4
step02_gravity_refstate-mantle.xmf,228,9.84941e-06,1.99638e-06,0,-4.15285e-07,-1.63717e+09,-1.63822e+09,-1.63848e+09,-55502.8,0.0880144,0.00661133,0,0.0882624,-31095.8,-56703.6,-0,64670.3,55502.8
step02_gravity_refstate-mantle.xmf,229,1.01124e-05,1.70236e-06,0,-2.04043e-07,-1.6896e+09,-1.69073e+09,-1.69095e+09,-27270.3,0.0792887,0.00291024,0,0.0793421,-32168.9,-58324.3,-0,66607.5,27270.3
step02_gravity_refstate-mantle.xmf,230,1.02105e-05,1.51357e-06,0,1.20534e-08,-1.74384e+09,-1.74501e+09,-1.74521e+09,1610.93,0.0686326,-5.78755e-20,0,0.0686326,-33277.3,-60000,-0,68610.3,1610.93
step02_gravity_refstate-mantle.xmf,231,-2.02764e-06,1.43351e-05,0,1.37439e-05,-1.18624e+09,-1.18405e+09,-1.18597e+09,1.83687e+06,0.0141753,0.559878,0,0.560058,-8346.17,-42726.6,-0,43534.2,1.83687e+06
step02_gravity_refstate-mantle.xmf,232,-8.63848e-07,1.33926e-05,0,1.03024e-05,-1.20075e+09,-1.19884e+09,-1.20063e+09,1.37692e+06,0.0342338,0.474041,0,0.475275,-9579.09,-43180.1,-0,44229.8,1.37692e+06
step02_gravity_refstate-mantle.xmf,233,-3.19611e-06,1.53683e-05,0,1.84817e-05,-1.17502e+09,-1.17254e+09,-1.17459e+09,2.47008e+06,-0.00490846,0.649856,-0,0.649874,-7263.47,-42374.9,-0,42992.9,2.47008e+06
step02_gravity_refstate-mantle.xmf,234,-4.69485e-06,1.71508e-05,0,3.78496e-05,-1.16426e+09,-1.16134e+09,-1.16363e+09,5.05859e+06,-0.0316982,0.88296,-0,0.883529,-5139.83,-42036.9,-0,42349.9,5.05859e+06
step02_gravity_refstate-mantle.xmf,235,-5.26332e-07,1.14657e-05,0,4.75111e-06,-1.21321e+09,-1.21161e+09,-1.21314e+09,634986,0.0491511,0.323147,0,0.326864,-12670.4,-43562.4,-0,45367.7,634986
step02_gravity_refstate-mantle.xmf,236,4.04399e-07,1.26601e-05,0,7.97309e-06,-1.21961e+09,-1.21797e+09,-1.21966e+09,1.0656e+06,0.0550709,0.397902,0,0.401695,-10867.8,-43769.4,-0,45098.4,1.0656e+06
step02_gravity_refstate-mantle.xmf,237,-1.02215e-07,1.20195e-05,0,6.2252e-06,-1.21656e+09,-1.21494e+09,-1.21655e+09,831998,0.0519332,0.359394,0,0.363127,-11741.5,-43670.2,-0,45221.1,831998
step02_gravity_refstate-mantle.xmf,238,2.0059e-06,9.75958e-06,0,2.03415e-06,-1.26433e+09,-1.26329e+09,-1.26459e+09,271864,0.0853606,0.207813,0,0.224662,-15860.5,-45154,-0,47858.5,271864
step02_gravity_refstate-mantle.xmf,239,8.70645e-07,1.11917e-05,0,4.43605e-06,-1.23818e+09,-1.2368e+09,-1.23829e+09,592879,0.0703023,0.294614,0,0.302886,-13209.4,-44342.2,-0,46267.9,592879
step02_gravity_refstate-mantle.xmf,240,4.1261e-06,7.79366e-06,0,1.54248e-07,-1.32289e+09,-1.3224e+09,-1.32344e+09,20615.2,0.106169,0.122343,0,0.161987,-19429.5,-46972.2,-0,50832,20615.2
step02_gravity_refstate-mantle.xmf,241,7.66707e-06,4.54639e-06,0,-8.83246e-07,-1.46569e+09,-1.4661e+09,-1.46671e+09,-118046,0.117938,0.0393316,0,0.124324,-25267.8,-51398.5,-0,57273.6,118046
step02_gravity_refstate-mantle.xmf,242,8.37474e-06,3.50125e-06,0,-9.19119e-07,-1.50376e+09,-1.50441e+09,-1.50488e+09,-122840,0.107515,0.0251243,0,0.110411,-27467.9,-52576.5,-0,59319.3,122840
step02_gravity_refstate-mantle.xmf,243,-1.56774e-07,1.43287e-05,0,1.28919e-05,-1.20302e+09,-1.20109e+09,-1.203e+09,1.723e+06,0.0367858,0.52106,0,0.522357,-8802.3,-43257.6,-0,44144.1,1.723e+06
step02_gravity_refstate-mantle.xmf,244,9.35065e-07,1.34407e-05,0,1.00421e-05,-1.2218e+09,-1.22013e+09,-1.22193e+09,1.34213e+06,0.0579553,0.439792,0,0.443594,-10029.1,-43842.7,-0,44975.2,1.34213e+06
step02_gravity_refstate-mantle.xmf,245,-1.37394e-06,1.54344e-05,0,1.68297e-05,-1.19007e+09,-1.18782e+09,-1.18989e+09,2.24928e+06,0.0186082,0.609232,0,0.609516,-7665.01,-42852.1,-0,43532.2,2.24928e+06
step02_gravity_refstate-mantle.xmf,246,-2.98175e-06,1.66884e-05,0,2.26952e-05,-1.17705e+09,-1.17442e+09,-1.17665e+09,3.03322e+06,-0.00352998,0.707464,-0,0.707473,-6620.75,-42442.4,-0,42955.7,3.03322e+06
step02_gravity_refstate-mantle.xmf,247,-3.06138e-06,1.84145e-05,0,2.78709e-05,-1.17864e+09,-1.17577e+09,-1.17823e+09,3.72494e+06,-0.00260602,0.769115,-0,0.76912,-6012.46,-42495.3,-0,42918.5,3.72494e+06
step02_gravity_refstate-mantle.xmf,248,-3.47559e-06,2.04665e-05,0,3.4309e-05,-1.17958e+09,-1.17638e+09,-1.17912e+09,4.5854e+06,-0.00277332,0.835573,-0,0.835577,-5435.49,-42526.9,-0,42872.9,4.5854e+06
step02_gravity_refstate-mantle.xmf,249,-3.54451e-06,1.35663e-05,0,5.04569e-05,-1.15579e+09,-1.15351e+09,-1.15532e+09,6.74356e+06,-0.0502872,0.995527,-0,0.996796,-4398.27,-41774.1,-0,42005,6.74356e+06
step02_gravity_refstate-mantle.xmf,250,-1.18073e-06,6.81209e-06,0,5.87453e-05,-1.14702e+09,-1.14595e+09,-1.14686e+09,7.85131e+06,-0.0671917,1.06512,-0,1.06724,-4000,-41501.5,-0,41693.8,7.85131e+06
step02_gravity_refstate-mantle.xmf,251,-4.41409e-06,1.72614e-05,0,4.48254e-05,-1.1633e+09,-1.1604e+09,-1.16271e+09,5.99092e+06,-0.0352076,0.942614,-0,0.943271,-4718.6,-42009.6,-0,42273.7,5.99092e+06
step02_gravity_refstate-mantle.xmf,252,3.13261e-06,8.82044e-06,0,1.01199e-06,-1.29396e+09,-1.2932e+09,-1.29438e+09,135252,0.0984442,0.161367,0,0.189025,-17585.8,-46074.5,-0,49316.5,135252
step02_gravity_refstate-mantle.xmf,253,2.0741e-06,1.04094e-05,0,3.08561e-06,-1.26478e+09,-1.26366e+09,-1.26505e+09,412392,0.0878158,0.236041,0,0.251847,-14784.7,-45170,-0,47528.1,412392
step02_gravity_refstate-mantle.xmf,254,3.14552e-06,9.51954e-06,0,1.89642e-06,-1.29495e+09,-1.2941e+09,-1.29537e+09,253456,0.102533,0.184826,0,0.211362,-16446.9,-46107,-0,48952.6,253456
step02_gravity_refstate-mantle.xmf,255,2.20071e-06,1.11018e-05,0,4.34302e-06,-1.26476e+09,-1.26357e+09,-1.26505e+09,580444,0.0899966,0.267271,0,0.282016,-13747.4,-45172.1,-0,47217.7,580444
step02_gravity_refstate-mantle.xmf,256,4.03493e-06,8.48867e-06,0,8.18522e-07,-1.32451e+09,-1.32392e+09,-1.32505e+09,109395,0.111841,0.14138,0,0.180269,-18224.4,-47023.4,-0,50431.4,109395
step02_gravity_refstate-mantle.xmf,257,4.93318e-06,7.41686e-06,0,8.73148e-09,-1.35155e+09,-1.35122e+09,-1.35221e+09,1166.96,0.115484,0.10593,0,0.156709,-20113,-47862,-0,51916.3,1166.96
step02_gravity_refstate-mantle.xmf,258,5.86199e-06,6.22501e-06,0,-6.10229e-07,-1.38273e+09,-1.38268e+09,-1.38351e+09,-81557.2,0.115738,0.0753889,0,0.138126,-22225.6,-48828.1,-0,53648.5,81557.2
step02_gravity_refstate-mantle.xmf,259,6.6944e-06,5.78198e-06,0,-6.51125e-07,-1.42396e+09,-1.42408e+09,-1.42485e+09,-87022.8,0.12404,0.0612961,0,0.138358,-22950.6,-50106.2,-0,55112.2,87022.8
step02_gravity_refstate-mantle.xmf,260,7.46031e-06,5.33679e-06,0,-6.49914e-07,-1.46592e+09,-1.46621e+09,-1.46692e+09,-86861,0.129557,0.048302,0,0.138268,-23736.9,-51406.5,-0,56622.1,86861
step02_gravity_refstate-mantle.xmf,261,8.31883e-06,4.0728e-06,0,-8.14335e-07,-1.50653e+09,-1.50709e+09,-1.50764e+09,-108836,0.119281,0.0298959,0,0.122971,-26113.6,-52663.2,-0,58782,108836
step02_gravity_refstate-mantle.xmf,262,8.857e-06,3.52951e-06,0,-7.46099e-07,-1.54574e+09,-1.54646e+09,-1.54693e+09,-99716.1,0.116685,0.0216009,0,0.118667,-27139.8,-53876.8,-0,60326.4,99716.1
step02_gravity_refstate-mantle.xmf,263,9.35066e-06,3.04827e-06,0,-6.09456e-07,-1.58905e+09,-1.58989e+09,-1.5903e+09,-81453.8,0.112788,0.0146187,0,0.113731,-28139,-55216.7,-0,61973.2,81453.8
step02_gravity_refstate-mantle.xmf,264,9.77842e-06,2.60075e-06,0,-4.23844e-07,-1.63918e+09,-1.64014e+09,-1.64048e+09,-56646.8,0.106954,0.00850881,0,0.107292,-29178,-56766.7,-0,63826.4,56646.8
step02_gravity_refstate-mantle.xmf,265,1.00576e-05,2.24256e-06,0,-2.18348e-07,-1.69069e+09,-1.69174e+09,-1.69203e+09,-29182.1,0.0991438,0.0037456,0,0.0992145,-30203.1,-58358.9,-0,65711.4,29182.1
step02_gravity_refstate-mantle.xmf,266,1.01751e-05,1.98722e-06,0,1.02416e-08,-1.74381e+09,-1.74491e+09,-1.74517e+09,1368.79,0.0895108,-7.44297e-20,0,0.0895108,-31228.8,-60000,-0,67640.5,1368.79
step02_gravity_refstate-mantle.xmf,267,2.80405e-07,1.54474e-05,0,1.57059e-05,-1.20588e+09,-1.20385e+09,-1.20591e+09,2.0991e+06,0.0406041,0.569797,0,0.571242,-8079.5,-43351.5,-0,44097.9,2.0991e+06
step02_gravity_refstate-mantle.xmf,268,1.28492e-06,1.43377e-05,0,1.23238e-05,-1.22316e+09,-1.22142e+09,-1.22333e+09,1.64707e+06,0.0604102,0.484481,0,0.488233,-9237.86,-43889.3,-0,44851,1.64707e+06
step02_gravity_refstate-mantle.xmf,269,-9.17635e-07,1.71166e-05,0,2.07437e-05,-1.19261e+09,-1.1902e+09,-1.19249e+09,2.7724e+06,0.0218227,0.664284,0,0.664642,-6994.51,-42938,-0,43504,2.7724e+06
step02_gravity_refstate-mantle.xmf,270,-4.01591e-06,2.22925e-05,0,4.2609e-05,-1.17921e+09,-1.1757e+09,-1.17868e+09,5.6947e+06,-0.00553823,0.912156,-0,0.912172,-4858.97,-42516.7,-0,42793.4,5.6947e+06
step02_gravity_refstate-mantle.xmf,271,-4.17513e-06,2.03985e-05,0,5.15667e-05,-1.17105e+09,-1.16777e+09,-1.17049e+09,6.89189e+06,-0.022207,0.98767,-0,0.987919,-4395.92,-42258.6,-0,42486.6,6.89189e+06
step02_gravity_refstate-mantle.xmf,272,1.30049e-06,1.18864e-05,0,5.99244e-06,-1.24005e+09,-1.23864e+09,-1.24023e+09,800890,0.0729745,0.329603,0,0.337585,-12250.7,-44404.9,-0,46063.8,800890
step02_gravity_refstate-mantle.xmf,273,2.15541e-06,1.35398e-05,0,9.83262e-06,-1.24342e+09,-1.2419e+09,-1.24371e+09,1.31413e+06,0.0791177,0.407516,0,0.415125,-10472.9,-44518.8,-0,45734.1,1.31413e+06
step02_gravity_refstate-mantle.xmf,274,1.70931e-06,1.26403e-05,0,7.75989e-06,-1.24195e+09,-1.24049e+09,-1.24218e+09,1.03711e+06,0.0760365,0.367092,0,0.374884,-11340.9,-44468.2,-0,45891.6,1.03711e+06
step02_gravity_refstate-mantle.xmf,275,3.18222e-06,1.02687e-05,0,2.97662e-06,-1.29499e+09,-1.29404e+09,-1.29541e+09,397825,0.106011,0.21133,0,0.236428,-15340.6,-46110.2,-0,48595.1,397825
step02_gravity_refstate-mantle.xmf,276,2.32689e-06,1.18115e-05,0,5.77309e-06,-1.2652e+09,-1.26393e+09,-1.26551e+09,771574,0.0925877,0.301034,0,0.314951,-12756.7,-45188.4,-0,46954.5,771574
step02_gravity_refstate-mantle.xmf,277,4.88331e-06,8.23252e-06,0,7.12168e-07,-1.35499e+09,-1.35454e+09,-1.35564e+09,95181.2,0.123059,0.123038,0,0.174017,-18858.4,-47969.8,-0,51543.6,95181.2
step02_gravity_refstate-mantle.xmf,278,5.72214e-06,7.03019e-06,0,-1.11324e-07,-1.38407e+09,-1.3839e+09,-1.38484e+09,-14878.5,0.124158,0.0895945,0,0.153109,-20845.6,-48870.7,-0,53130.8,14878.5
step02_gravity_refstate-mantle.xmf,279,8.15162e-06,4.88002e-06,0,-6.11533e-07,-1.50799e+09,-1.50842e+09,-1.50908e+09,-81731.4,0.132243,0.0367878,0,0.137264,-24569.3,-52709.2,-0,58154.2,81731.4
step02_gravity_refstate-mantle.xmf,280,1.95344e-06,1.56784e-05,0,1.52404e-05,-1.22466e+09,-1.22283e+09,-1.22492e+09,2.03688e+06,0.0635514,0.532096,0,0.535878,-8482.58,-43943.6,-0,44754.8,2.03688e+06
step02_gravity_refstate-mantle.xmf,281,2.61083e-06,1.46388e-05,0,1.22106e-05,-1.24469e+09,-1.24308e+09,-1.24504e+09,1.63195e+06,0.082348,0.45005,0,0.457522,-9659.56,-44563.9,-0,45598.8,1.63195e+06
step02_gravity_refstate-mantle.xmf,282,7.75247e-07,1.71956e-05,0,1.93129e-05,-1.20881e+09,-1.20661e+09,-1.20891e+09,2.58117e+06,0.0451685,0.62362,0,0.625253,-7365.93,-43449.8,-0,44069.7,2.58117e+06
step02_gravity_refstate-mantle.xmf,283,-9.62362e-07,1.92953e-05,0,2.5338e-05,-1.19437e+09,-1.19166e+09,-1.19424e+09,3.38642e+06,0.0240763,0.723909,0,0.724309,-6352.9,-42997.6,-0,43464.4,3.38642e+06
step02_gravity_refstate-mantle.xmf,284,-1.50745e-06,2.21431e-05,0,3.08854e-05,-1.19563e+09,-1.19247e+09,-1.19543e+09,4.12783e+06,0.0254576,0.786997,0,0.787409,-5752.65,-43040.1,-0,43422.8,4.12783e+06
step02_gravity_refstate-mantle.xmf,285,-2.64254e-06,2.56938e-05,0,3.78716e-05,-1.19633e+09,-1.19254e+09,-1.19598e+09,5.06154e+06,0.0254737,0.855169,0,0.855548,-5182.23,-43063.2,-0,43373.9,5.06154e+06
step02_gravity_refstate-mantle.xmf,286,-3.0901e-06,1.57981e-05,0,6.07499e-05,-1.16284e+09,-1.16032e+09,-1.16243e+09,8.11923e+06,-0.0384619,1.05949,-0,1.06019,-4000,-42000.5,-0,42190.6,8.11923e+06
step02_gravity_refstate-mantle.xmf,287,4.06303e-06,9.32466e-06,0,1.76049e-06,-1.32594e+09,-1.32524e+09,-1.32648e+09,235290,0.117355,0.163153,0,0.200976,-17039.4,-47069.8,-0,50059,235290
step02_gravity_refstate-mantle.xmf,288,3.15086e-06,1.10774e-05,0,4.21809e-06,-1.29276e+09,-1.2917e+09,-1.29318e+09,563748,0.107926,0.241052,0,0.26411,-14285.5,-46043.4,-0,48208.6,563748
step02_gravity_refstate-mantle.xmf,289,4.04494e-06,1.02076e-05,0,2.85872e-06,-1.32644e+09,-1.32562e+09,-1.32698e+09,382068,0.122205,0.18762,0,0.223909,-15900.6,-47087.5,-0,49699.7,382068
step02_gravity_refstate-mantle.xmf,290,3.2413e-06,1.1921e-05,0,5.69637e-06,-1.29074e+09,-1.28958e+09,-1.29117e+09,761319,0.109871,0.274207,0,0.2954,-13252.3,-45983.6,-0,47855.1,761319
step02_gravity_refstate-mantle.xmf,291,4.75767e-06,9.089e-06,0,1.53892e-06,-1.35663e+09,-1.35605e+09,-1.35727e+09,205677,0.129553,0.142512,0,0.192597,-17661.9,-48022,-0,51166.9,205677
step02_gravity_refstate-mantle.xmf,292,5.58931e-06,7.92719e-06,0,5.51283e-07,-1.38627e+09,-1.38595e+09,-1.38701e+09,73678.9,0.132391,0.105483,0,0.169276,-19528.6,-48940,-0,52692.4,73678.9
step02_gravity_refstate-mantle.xmf,293,6.5315e-06,6.67831e-06,0,-1.65245e-07,-1.42346e+09,-1.42344e+09,-1.42433e+09,-22084.9,0.133305,0.0740301,0,0.152482,-21523.3,-50091.9,-0,54520.2,22084.9
step02_gravity_refstate-mantle.xmf,294,7.22858e-06,6.28438e-06,0,-2.53089e-07,-1.46624e+09,-1.46637e+09,-1.46721e+09,-33825.4,0.140634,0.0590572,0,0.152531,-22240.4,-51417.2,-0,56021.1,33825.4
step02_gravity_refstate-mantle.xmf,295,7.87998e-06,5.83328e-06,0,-3.12942e-07,-1.50865e+09,-1.50893e+09,-1.5097e+09,-41824.8,0.144518,0.045267,0,0.151441,-23053.1,-52730.4,-0,57549.4,41824.8
step02_gravity_refstate-mantle.xmf,296,8.73164e-06,4.38101e-06,0,-5.73863e-07,-1.55013e+09,-1.55071e+09,-1.5513e+09,-76696.8,0.132203,0.0268331,0,0.134899,-25446.6,-54013.7,-0,59707.7,76696.8
step02_gravity_refstate-mantle.xmf,297,9.2167e-06,3.86787e-06,0,-5.0894e-07,-1.59442e+09,-1.59514e+09,-1.59566e+09,-68019.8,0.129795,0.0182007,0,0.131065,-26369.3,-55383.8,-0,61340.9,68019.8
step02_gravity_refstate-mantle.xmf,298,9.63794e-06,3.38531e-06,0,-3.79748e-07,-1.64185e+09,-1.64268e+09,-1.64313e+09,-50753.4,0.125097,0.0108477,0,0.125566,-27328,-56850.2,-0,63077.5,50753.4
step02_gravity_refstate-mantle.xmf,299,9.93908e-06,2.9614e-06,0,-2.06085e-07,-1.69241e+09,-1.69335e+09,-1.69374e+09,-27543.3,0.118256,0.00477324,0,0.118353,-28297,-58413.2,-0,64906.2,27543.3
step02_gravity_refstate-mantle.xmf,300,1.00853e-05,2.62533e-06,0,8.04132e-09,-1.74378e+09,-1.74478e+09,-1.74513e+09,1074.72,0.109378,-9.43909e-20,0,0.109378,-29267.4,-60000,-0,66757.6,1074.72
step02_gravity_refstate-mantle.xmf,301,2.20189e-06,1.73302e-05,0,1.8422e-05,-1.22643e+09,-1.22441e+09,-1.22672e+09,2.4621e+06,0.0672884,0.58291,0,0.58678,-7759.42,-44004,-0,44682.9,2.4621e+06
step02_gravity_refstate-mantle.xmf,302,2.85062e-06,1.59534e-05,0,1.48568e-05,-1.24531e+09,-1.24355e+09,-1.24569e+09,1.98562e+06,0.0852127,0.496286,0,0.503549,-8874.42,-44587.9,-0,45462.5,1.98562e+06
step02_gravity_refstate-mantle.xmf,303,1.02452e-06,1.9589e-05,0,2.35125e-05,-1.21052e+09,-1.20804e+09,-1.21066e+09,3.14244e+06,0.0484081,0.680002,0,0.681723,-6705.25,-43510.5,-0,44024.1,3.14244e+06
step02_gravity_refstate-mantle.xmf,304,-4.01969e-06,2.79814e-05,0,4.48977e-05,-1.1937e+09,-1.18942e+09,-1.19316e+09,6.00058e+06,0.0194679,0.917434,0,0.91764,-4740.49,-42978.7,-0,43239.3,6.00058e+06
step02_gravity_refstate-mantle.xmf,305,-4.78295e-06,2.73725e-05,0,5.1792e-05,-1.18652e+09,-1.18222e+09,-1.18588e+09,6.922e+06,0.005463,0.975324,0,0.975339,-4399.66,-42750.3,-0,42976.1,6.922e+06
step02_gravity_refstate-mantle.xmf,306,-4.97536e-06,2.49917e-05,0,6.16533e-05,-1.17868e+09,-1.17467e+09,-1.17801e+09,8.23996e+06,-0.0103353,1.0493,-0,1.04935,-4000,-42500.6,-0,42688.4,8.23996e+06
step02_gravity_refstate-mantle.xmf,307,2.71214e-06,1.27341e-05,0,7.61666e-06,-1.26584e+09,-1.2645e+09,-1.26621e+09,1.01797e+06,0.0955339,0.337168,0,0.350441,-11817.5,-45213.2,-0,46732,1.01797e+06
step02_gravity_refstate-mantle.xmf,308,3.33986e-06,1.49892e-05,0,1.20359e-05,-1.26684e+09,-1.26528e+09,-1.26728e+09,1.6086e+06,0.101686,0.417186,0,0.4294,-10078.3,-45253.8,-0,46362.5,1.6086e+06
step02_gravity_refstate-mantle.xmf,309,3.0225e-06,1.37462e-05,0,9.66101e-06,-1.26618e+09,-1.26475e+09,-1.26658e+09,1.29119e+06,0.0983897,0.375991,0,0.388651,-10925.2,-45228.2,-0,46529,1.29119e+06
step02_gravity_refstate-mantle.xmf,310,3.98253e-06,1.12726e-05,0,4.32421e-06,-1.32591e+09,-1.32493e+09,-1.32644e+09,577930,0.126878,0.218977,0,0.253079,-14658.5,-47073.3,-0,49302.8,577930
step02_gravity_refstate-mantle.xmf,311,3.35829e-06,1.28924e-05,0,7.44602e-06,-1.29157e+09,-1.2903e+09,-1.29202e+09,995161,0.113708,0.308681,0,0.328958,-12277.1,-46012.7,-0,47622.4,995161
step02_gravity_refstate-mantle.xmf,312,5.42918e-06,8.92209e-06,0,1.39047e-06,-1.38766e+09,-1.38719e+09,-1.38838e+09,185836,0.139827,0.123491,0,0.186552,-18273.6,-48984.4,-0,52281.9,185836
step02_gravity_refstate-mantle.xmf,313,6.2425e-06,7.64756e-06,0,4.23779e-07,-1.42033e+09,-1.42014e+09,-1.42116e+09,56638.1,0.140842,0.0890658,0,0.166641,-20178.8,-49995.9,-0,53914.5,56638.1
step02_gravity_refstate-mantle.xmf,314,8.47012e-06,5.37134e-06,0,-3.28294e-07,-1.55109e+09,-1.5515e+09,-1.55222e+09,-43876.5,0.145875,0.0333837,0,0.149646,-23871.2,-54044,-0,59081.2,43876.5
step02_gravity_refstate-mantle.xmf,315,3.39204e-06,1.7806e-05,0,1.81182e-05,-1.24656e+09,-1.24463e+09,-1.24701e+09,2.42149e+06,0.0889777,0.543923,0,0.551153,-8142.38,-44634.9,-0,45371.5,2.42149e+06
step02_gravity_refstate-mantle.xmf,316,3.59925e-06,1.65037e-05,0,1.46929e-05,-1.26759e+09,-1.26587e+09,-1.26807e+09,1.9637e+06,0.105127,0.459758,0,0.471624,-9292.8,-45282.8,-0,46226.5,1.9637e+06
step02_gravity_refstate-mantle.xmf,317,2.36016e-06,1.962e-05,0,2.21927e-05,-1.22727e+09,-1.22497e+09,-1.22759e+09,2.96605e+06,0.0701626,0.637628,0,0.641477,-7067.76,-44037.1,-0,44600.6,2.96605e+06
step02_gravity_refstate-mantle.xmf,318,6.35105e-07,2.27175e-05,0,2.82977e-05,-1.21179e+09,-1.20884e+09,-1.21187e+09,3.78199e+06,0.0508992,0.73988,0,0.741629,-6081.04,-43555.1,-0,43977.5,3.78199e+06
step02_gravity_refstate-mantle.xmf,319,-5.35041e-07,2.70208e-05,0,3.41569e-05,-1.21276e+09,-1.20907e+09,-1.21269e+09,4.56507e+06,0.0524644,0.804641,0,0.806349,-5481.66,-43588.2,-0,43931.5,4.56507e+06
step02_gravity_refstate-mantle.xmf,320,-2.93907e-06,3.26949e-05,0,4.21884e-05,-1.21185e+09,-1.20708e+09,-1.21145e+09,5.63848e+06,0.0499571,0.881481,0,0.882896,-4871.7,-43558.5,-0,43830.1,5.63848e+06
step02_gravity_refstate-mantle.xmf,321,-5.51687e-06,3.46562e-05,0,5.12918e-05,-1.2027e+09,-1.19733e+09,-1.20196e+09,6.85514e+06,0.032963,0.959606,0,0.960172,-4398.23,-43263.7,-0,43486.7,6.85514e+06
step02_gravity_refstate-mantle.xmf,322,4.7144e-06,1.01129e-05,0,2.64989e-06,-1.35773e+09,-1.35701e+09,-1.35836e+09,354158,0.135547,0.164461,0,0.213121,-16505.4,-48058.2,-0,50813.6,354158
step02_gravity_refstate-mantle.xmf,323,3.66394e-06,1.19251e-05,0,5.39364e-06,-1.31149e+09,-1.31039e+09,-1.31198e+09,720859,0.121809,0.250893,0,0.278899,-13736.9,-46627.6,-0,48609,720859
step02_gravity_refstate-mantle.xmf,324,4.60066e-06,1.12117e-05,0,3.92812e-06,-1.3581e+09,-1.35722e+09,-1.35871e+09,524994,0.140875,0.188995,0,0.235722,-15394.1,-48071.7,-0,50476.4,524994
step02_gravity_refstate-mantle.xmf,325,3.92643e-06,1.32137e-05,0,7.26847e-06,-1.31879e+09,-1.31755e+09,-1.31932e+09,971431,0.130007,0.278943,0,0.307751,-12791.4,-46858.1,-0,48572.7,971431
step02_gravity_refstate-mantle.xmf,326,5.21162e-06,9.98538e-06,0,2.36861e-06,-1.38898e+09,-1.38835e+09,-1.38968e+09,316564,0.146645,0.143209,0,0.204972,-17094,-49026.7,-0,51921.3,316564
step02_gravity_refstate-mantle.xmf,327,5.97878e-06,8.65615e-06,0,1.14792e-06,-1.41874e+09,-1.41838e+09,-1.41954e+09,153419,0.147865,0.105225,0,0.181483,-18935.7,-49947.4,-0,53416.4,153419
step02_gravity_refstate-mantle.xmf,328,6.90601e-06,7.53486e-06,0,4.03619e-07,-1.46586e+09,-1.46578e+09,-1.46679e+09,53943.7,0.151898,0.073447,0,0.168723,-20631.7,-51406.5,-0,55392.2,53943.7
step02_gravity_refstate-mantle.xmf,329,7.54268e-06,7.01371e-06,0,1.67757e-07,-1.50964e+09,-1.50971e+09,-1.51065e+09,22420.7,0.156355,0.055523,0,0.165921,-21546.9,-52761.8,-0,56991.9,22420.7
step02_gravity_refstate-mantle.xmf,330,8.08555e-06,6.5214e-06,0,9.20359e-09,-1.55084e+09,-1.55105e+09,-1.55192e+09,1230.06,0.15835,0.0413917,0,0.16367,-22357.4,-54036.8,-0,58479.3,1230.06
step02_gravity_refstate-mantle.xmf,331,8.98335e-06,4.87549e-06,0,-3.23422e-07,-1.59629e+09,-1.59684e+09,-1.59749e+09,-43225.4,0.14516,0.0228664,0,0.14695,-24703.2,-55442.5,-0,60697,43225.4
step02_gravity_refstate-mantle.xmf,332,9.39575e-06,4.36288e-06,0,-2.8249e-07,-1.64382e+09,-1.64449e+09,-1.64507e+09,-37754.8,0.142002,0.0137652,0,0.142667,-25567.6,-56912,-0,62391.3,37754.8
step02_gravity_refstate-mantle.xmf,333,9.72414e-06,3.87634e-06,0,-1.69863e-07,-1.69306e+09,-1.69384e+09,-1.69436e+09,-22702.2,0.136211,0.00615792,0,0.13635,-26473.2,-58433.9,-0,64151,22702.2
step02_gravity_refstate-mantle.xmf,334,9.91356e-06,3.45355e-06,0,5.98091e-09,-1.74375e+09,-1.74461e+09,-1.74507e+09,799.348,0.128168,-1.1996e-19,0,0.128168,-27388.2,-60000,-0,65955.4,799.348
step02_gravity_refstate-mantle.xmf,335,3.30304e-06,2.0048e-05,0,2.15584e-05,-1.24706e+09,-1.24482e+09,-1.2475e+09,2.88128e+06,0.091963,0.595282,0,0.602344,-7438.28,-44655.5,-0,45270.8,2.88128e+06
step02_gravity_refstate-mantle.xmf,336,3.61201e-06,1.8358e-05,0,1.76595e-05,-1.26798e+09,-1.26601e+09,-1.26846e+09,2.36019e+06,0.108319,0.506083,0,0.517545,-8527.28,-45299.6,-0,46095.2,2.36019e+06
step02_gravity_refstate-mantle.xmf,337,2.40566e-06,2.2841e-05,0,2.663e-05,-1.2286e+09,-1.22587e+09,-1.22892e+09,3.55909e+06,0.0736461,0.694376,0,0.698271,-6419.48,-44086.6,-0,44551.5,3.55909e+06
step02_gravity_refstate-mantle.xmf,338,-6.784e-06,3.42024e-05,0,6.15688e-05,-1.19447e+09,-1.189e+09,-1.19357e+09,8.22867e+06,0.0166806,1.03452,0,1.03466,-4000,-43000,-0,43185.6,8.22867e+06
step02_gravity_refstate-mantle.xmf,339,-6.08792e-06,4.21888e-05,0,5.05352e-05,-1.21939e+09,-1.21294e+09,-1.21858e+09,6.75403e+06,0.0591776,0.942594,0,0.94445,-4375.76,-43794.8,-0,44012.9,6.75403e+06
step02_gravity_refstate-mantle.xmf,340,3.60194e-06,1.40748e-05,0,9.52222e-06,-1.29016e+09,-1.28876e+09,-1.29064e+09,1.27264e+06,0.115925,0.346114,0,0.365012,-11362.2,-45973.8,-0,47357,1.27264e+06
step02_gravity_refstate-mantle.xmf,341,3.79752e-06,1.70674e-05,0,1.4363e-05,-1.29021e+09,-1.28843e+09,-1.29071e+09,1.91961e+06,0.122168,0.425258,0,0.442458,-9702.34,-45984.1,-0,46996.5,1.91961e+06
step02_gravity_refstate-mantle.xmf,342,3.7447e-06,1.54516e-05,0,1.1829e-05,-1.29039e+09,-1.28882e+09,-1.29089e+09,1.58094e+06,0.119255,0.384814,0,0.402869,-10503.7,-45985.1,-0,47169.5,1.58094e+06
step02_gravity_refstate-mantle.xmf,343,4.13692e-06,1.2733e-05,0,6.17202e-06,-1.33735e+09,-1.3362e+09,-1.3379e+09,824890,0.137664,0.244755,0,0.280813,-13613.8,-47431.4,-0,49346.5,824890
step02_gravity_refstate-mantle.xmf,344,4.43187e-06,1.24609e-05,0,5.40421e-06,-1.36029e+09,-1.35922e+09,-1.36089e+09,722272,0.146737,0.214966,0,0.260273,-14337.8,-48141.5,-0,50231.2,722272
step02_gravity_refstate-mantle.xmf,345,3.83379e-06,1.45293e-05,0,9.3995e-06,-1.31579e+09,-1.31436e+09,-1.3163e+09,1.25624e+06,0.132231,0.319406,0,0.345695,-11733.3,-46768.1,-0,48217.4,1.25624e+06
step02_gravity_refstate-mantle.xmf,346,5.71308e-06,9.83732e-06,0,2.08584e-06,-1.42021e+09,-1.41966e+09,-1.42098e+09,278772,0.155437,0.122697,0,0.198028,-17728.8,-49994.3,-0,53044.7,278772
step02_gravity_refstate-mantle.xmf,347,6.40064e-06,8.42329e-06,0,9.32316e-07,-1.44694e+09,-1.44667e+09,-1.44779e+09,124604,0.153823,0.0905365,0,0.178489,-19496.4,-50820.8,-0,54432.2,124604
step02_gravity_refstate-mantle.xmf,348,8.59483e-06,6.04691e-06,0,-7.02445e-08,-1.59485e+09,-1.59519e+09,-1.596e+09,-9388.18,0.158671,0.0288974,0,0.161281,-23142.1,-55398.5,-0,60037.9,9388.18
step02_gravity_refstate-mantle.xmf,349,3.62287e-06,2.13355e-05,0,2.15804e-05,-1.27111e+09,-1.26874e+09,-1.27159e+09,2.88421e+06,0.114031,0.555979,0,0.567553,-7758.16,-45403.9,-0,46061.9,2.88421e+06
step02_gravity_refstate-mantle.xmf,350,3.71778e-06,1.90516e-05,0,1.72084e-05,-1.29009e+09,-1.28804e+09,-1.29058e+09,2.2999e+06,0.124992,0.468015,0,0.484418,-8937.29,-45984.9,-0,46845.4,2.2999e+06
step02_gravity_refstate-mantle.xmf,351,3.14456e-06,2.29839e-05,0,2.55083e-05,-1.24633e+09,-1.24367e+09,-1.24675e+09,3.40919e+06,0.0935837,0.650844,0,0.657538,-6761.87,-44639.4,-0,45148.6,3.40919e+06
step02_gravity_refstate-mantle.xmf,352,1.63644e-06,2.70661e-05,0,3.15288e-05,-1.22927e+09,-1.22587e+09,-1.22949e+09,4.21383e+06,0.0758651,0.755006,0,0.758808,-5802.07,-44112.9,-0,44492.8,4.21383e+06
step02_gravity_refstate-mantle.xmf,353,-1.54265e-07,3.28684e-05,0,3.72124e-05,-1.22985e+09,-1.22544e+09,-1.22983e+09,4.97344e+06,0.0770857,0.818315,0,0.821938,-5224.34,-44133.7,-0,44441.8,4.97344e+06
step02_gravity_refstate-mantle.xmf,354,-3.28609e-06,4.09617e-05,0,4.39377e-05,-1.23196e+09,-1.22605e+09,-1.23152e+09,5.87227e+06,0.0788921,0.880601,0,0.884128,-4699.71,-44198.7,-0,44447.9,5.87227e+06
step02_gravity_refstate-mantle.xmf,355,-8.54748e-06,4.33609e-05,0,6.05763e-05,-1.21026e+09,-1.20333e+09,-1.20912e+09,8.09602e+06,0.0421494,1.01515,0,1.01602,-4000,-43499.4,-0,43682.9,8.09602e+06
step02_gravity_refstate-mantle.xmf,356,5.02545e-06,1.1222e-05,0,3.61062e-06,-1.38913e+09,-1.3883e+09,-1.3898e+09,482559,0.152457,0.165255,0,0.224839,-15970.7,-49033.1,-0,51568.4,482559
step02_gravity_refstate-mantle.xmf,357,4.74488e-06,1.25561e-05,0,5.00343e-06,-1.38871e+09,-1.38767e+09,-1.38935e+09,668708,0.157484,0.189554,0,0.246439,-14899.9,-49021.7,-0,51236.1,668708
step02_gravity_refstate-mantle.xmf,358,4.00475e-06,1.51509e-05,0,9.31137e-06,-1.34108e+09,-1.33959e+09,-1.34161e+09,1.24446e+06,0.146008,0.293964,0,0.328228,-12094.3,-47551.9,-0,49065.8,1.24446e+06
step02_gravity_refstate-mantle.xmf,359,5.34695e-06,1.11556e-05,0,3.20132e-06,-1.42063e+09,-1.41986e+09,-1.42135e+09,427856,0.162129,0.142919,0,0.216129,-16545.9,-50008.2,-0,52674.3,427856
step02_gravity_refstate-mantle.xmf,360,6.14977e-06,9.51086e-06,0,1.68615e-06,-1.45037e+09,-1.44992e+09,-1.45119e+09,225354,0.16157,0.103186,0,0.191709,-18435.4,-50927.8,-0,54161.8,225354
step02_gravity_refstate-mantle.xmf,361,6.63337e-06,8.91563e-06,0,1.18142e-06,-1.4794e+09,-1.47909e+09,-1.48029e+09,157896,0.164678,0.084088,0,0.184905,-19300.7,-51826.4,-0,55303.6,157896
step02_gravity_refstate-mantle.xmf,362,7.12484e-06,8.40893e-06,0,8.0881e-07,-1.51387e+09,-1.51369e+09,-1.51482e+09,108097,0.167838,0.0665124,0,0.180537,-20113.1,-52893,-0,56588,108097
step02_gravity_refstate-mantle.xmf,363,7.61241e-06,7.90539e-06,0,5.04752e-07,-1.55208e+09,-1.55204e+09,-1.5531e+09,67460.1,0.170047,0.0504981,0,0.177387,-20896.1,-54075.5,-0,57972.5,67460.1
step02_gravity_refstate-mantle.xmf,364,8.07426e-06,7.39488e-06,0,2.66997e-07,-1.59258e+09,-1.59267e+09,-1.59366e+09,35684.2,0.170811,0.0362975,0,0.174625,-21646.8,-55328.2,-0,59412.1,35684.2
step02_gravity_refstate-mantle.xmf,365,9.04023e-06,5.56806e-06,0,-1.05343e-07,-1.6449e+09,-1.64537e+09,-1.64611e+09,-14079.1,0.157525,0.0173907,0,0.158482,-23891.8,-56946.2,-0,61755.1,14079.1
step02_gravity_refstate-mantle.xmf,366,9.37704e-06,5.03753e-06,0,-1.01714e-07,-1.69316e+09,-1.69374e+09,-1.69441e+09,-13594.1,0.153196,0.00797846,0,0.153404,-24695.3,-58437.7,-0,63441.5,13594.1
step02_gravity_refstate-mantle.xmf,367,9.62896e-06,4.50104e-06,0,3.51183e-09,-1.74372e+09,-1.74441e+09,-1.74501e+09,469.356,0.145776,-1.54829e-19,0,0.145776,-25586.2,-60000,-0,65227.7,469.356
step02_gravity_refstate-mantle.xmf,368,3.29414e-06,2.35566e-05,0,2.47855e-05,-1.26529e+09,-1.26258e+09,-1.26573e+09,3.31258e+06,0.111238,0.609229,0,0.619301,-7099.83,-45227.6,-0,45781.5,3.31258e+06
step02_gravity_refstate-mantle.xmf,369,3.33117e-06,2.17041e-05,0,2.04659e-05,-1.2916e+09,-1.28915e+09,-1.29205e+09,2.73527e+06,0.128805,0.512666,0,0.528599,-8195.89,-46036,-0,46759.9,2.73527e+06
step02_gravity_refstate-mantle.xmf,370,2.86453e-06,2.69477e-05,0,2.9984e-05,-1.24666e+09,-1.24344e+09,-1.24705e+09,4.00736e+06,0.0960216,0.706511,0,0.713006,-6140.32,-44658.1,-0,45078.2,4.00736e+06
step02_gravity_refstate-mantle.xmf,371,-7.45253e-06,5.00445e-05,0,5.10144e-05,-1.23374e+09,-1.22605e+09,-1.23274e+09,6.81808e+06,0.0787775,0.934951,0,0.938264,-4284.95,-44249,-0,44456,6.81808e+06
step02_gravity_refstate-mantle.xmf,372,-1.02029e-05,5.23236e-05,0,5.8688e-05,-1.22607e+09,-1.21771e+09,-1.2247e+09,7.84366e+06,0.0655248,0.991201,0,0.993364,-4000,-43999.5,-0,44180.9,7.84366e+06
step02_gravity_refstate-mantle.xmf,373,3.49011e-06,1.96356e-05,0,1.65341e-05,-1.31188e+09,-1.30973e+09,-1.31235e+09,2.20978e+06,0.13879,0.432419,0,0.454146,-9337.79,-46658.2,-0,47583.4,2.20978e+06
step02_gravity_refstate-mantle.xmf,374,3.89422e-06,1.61029e-05,0,1.1696e-05,-1.31547e+09,-1.31384e+09,-1.31599e+09,1.56317e+06,0.13539,0.355435,0,0.380348,-10874.9,-46762.8,-0,48010.6,1.56317e+06
step02_gravity_refstate-mantle.xmf,375,3.74132e-06,1.77699e-05,0,1.40312e-05,-1.31403e+09,-1.31215e+09,-1.31453e+09,1.87526e+06,0.137464,0.392842,0,0.416199,-10085.7,-46721.4,-0,47797.6,1.87526e+06
step02_gravity_refstate-mantle.xmf,376,4.12302e-06,1.40581e-05,0,7.73778e-06,-1.34512e+09,-1.34379e+09,-1.34567e+09,1.03415e+06,0.145107,0.265356,0,0.30244,-12863.6,-47674.8,-0,49379.8,1.03415e+06
step02_gravity_refstate-mantle.xmf,377,4.24375e-06,1.39595e-05,0,7.12424e-06,-1.36387e+09,-1.36257e+09,-1.36443e+09,952154,0.152806,0.241572,0,0.285844,-13356.8,-48254.5,-0,50068.9,952154
step02_gravity_refstate-mantle.xmf,378,4.36907e-06,1.40285e-05,0,6.54893e-06,-1.38884e+09,-1.38755e+09,-1.38942e+09,875264,0.162167,0.215549,0,0.26974,-13883.8,-49026.9,-0,50954.9,875264
step02_gravity_refstate-mantle.xmf,379,3.71649e-06,1.67816e-05,0,1.1445e-05,-1.34048e+09,-1.33874e+09,-1.34098e+09,1.52963e+06,0.149163,0.328999,0,0.361234,-11196.4,-47535.8,-0,48836.6,1.52963e+06
step02_gravity_refstate-mantle.xmf,380,5.7174e-06,1.09911e-05,0,2.75218e-06,-1.45235e+09,-1.45165e+09,-1.45312e+09,367829,0.169561,0.120844,0,0.208217,-17195.1,-50990.1,-0,53811.3,367829
step02_gravity_refstate-mantle.xmf,381,8.50171e-06,6.9043e-06,0,1.20799e-07,-1.63511e+09,-1.63532e+09,-1.63625e+09,16144.8,0.169982,0.0237871,0,0.171638,-22366.7,-56643.6,-0,60899.6,16144.8
step02_gravity_refstate-mantle.xmf,382,2.82063e-06,2.50185e-05,0,2.48471e-05,-1.28259e+09,-1.27962e+09,-1.28297e+09,3.32082e+06,0.125085,0.584098,0,0.597341,-7257.58,-45762.6,-0,46334.5,3.32082e+06
step02_gravity_refstate-mantle.xmf,383,3.0069e-06,2.2108e-05,0,1.94461e-05,-1.31117e+09,-1.30862e+09,-1.31158e+09,2.59897e+06,0.140778,0.474748,0,0.495181,-8594.94,-46639.4,-0,47424.7,2.59897e+06
step02_gravity_refstate-mantle.xmf,384,2.70389e-06,2.72271e-05,0,2.88352e-05,-1.26464e+09,-1.26136e+09,-1.265e+09,3.85382e+06,0.11271,0.661999,0,0.671525,-6465.27,-45212.9,-0,45672.8,3.85382e+06
step02_gravity_refstate-mantle.xmf,385,1.76907e-06,3.22988e-05,0,3.48154e-05,-1.24718e+09,-1.2431e+09,-1.24741e+09,4.65308e+06,0.0980143,0.765636,0,0.771884,-5539.17,-44680.4,-0,45022.4,4.65308e+06
step02_gravity_refstate-mantle.xmf,386,-6.19354e-07,3.99244e-05,0,4.00543e-05,-1.24768e+09,-1.24226e+09,-1.24759e+09,5.35326e+06,0.098819,0.827481,0,0.83336,-4967.49,-44699.3,-0,44974.5,5.35326e+06
step02_gravity_refstate-mantle.xmf,387,-5.734e-06,5.17638e-05,0,4.62692e-05,-1.24886e+09,-1.24118e+09,-1.2481e+09,6.18387e+06,0.0981378,0.891491,0,0.896877,-4423.68,-44732,-0,44950.2,6.18387e+06
step02_gravity_refstate-mantle.xmf,388,-1.17403e-05,6.10656e-05,0,5.55208e-05,-1.24183e+09,-1.2321e+09,-1.24026e+09,7.42036e+06,0.0859877,0.962891,0,0.966723,-4000,-44498.5,-0,44677.9,7.42036e+06
step02_gravity_refstate-mantle.xmf,389,4.97431e-06,1.26503e-05,0,4.55942e-06,-1.41987e+09,-1.41884e+09,-1.42053e+09,609366,0.16757,0.165252,0,0.235346,-15434.7,-49986,-0,52314.7,609366
step02_gravity_refstate-mantle.xmf,390,4.4935e-06,1.41905e-05,0,6.04304e-06,-1.41597e+09,-1.41467e+09,-1.41657e+09,807653,0.17106,0.190897,0,0.256326,-14379.2,-49866.1,-0,51897.9,807653
step02_gravity_refstate-mantle.xmf,391,3.99483e-06,1.55442e-05,0,8.96249e-06,-1.36456e+09,-1.36302e+09,-1.36509e+09,1.19784e+06,0.156853,0.269876,0,0.312147,-12461.6,-48278.3,-0,49860.6,1.19784e+06
step02_gravity_refstate-mantle.xmf,392,3.61124e-06,1.73167e-05,0,1.10029e-05,-1.36385e+09,-1.36202e+09,-1.36433e+09,1.47053e+06,0.159873,0.301745,0,0.341481,-11576.1,-48258.3,-0,49627.3,1.47053e+06
step02_gravity_refstate-mantle.xmf,393,5.15681e-06,1.263e-05,0,3.97281e-06,-1.4532e+09,-1.4522e+09,-1.45389e+09,530967,0.176275,0.140798,0,0.225604,-16009.7,-51016.7,-0,53469.8,530967
step02_gravity_refstate-mantle.xmf,394,6.11266e-06,1.05872e-05,0,2.1835e-06,-1.48435e+09,-1.48375e+09,-1.48516e+09,291825,0.174701,0.0992522,0,0.200926,-17942.7,-51980,-0,54989.6,291825
step02_gravity_refstate-mantle.xmf,395,6.55045e-06,1.00525e-05,0,1.6157e-06,-1.51759e+09,-1.51712e+09,-1.51847e+09,215938,0.178163,0.0791697,0,0.194961,-18729.3,-53008.4,-0,56219.9,215938
step02_gravity_refstate-mantle.xmf,396,6.99621e-06,9.52577e-06,0,1.14065e-06,-1.5537e+09,-1.55336e+09,-1.55464e+09,152448,0.180614,0.0609027,0,0.190606,-19490.8,-54125.5,-0,57527.9,152448
step02_gravity_refstate-mantle.xmf,397,7.4338e-06,8.98558e-06,0,7.44438e-07,-1.59153e+09,-1.59133e+09,-1.59253e+09,99494.1,0.181733,0.0446975,0,0.187149,-20218.6,-55295.7,-0,58876.2,99494.1
step02_gravity_refstate-mantle.xmf,398,7.86572e-06,8.38977e-06,0,4.25146e-07,-1.62987e+09,-1.6298e+09,-1.63092e+09,56820.8,0.181085,0.0305314,0,0.183641,-20943.2,-56481.2,-0,60239,56820.8
step02_gravity_refstate-mantle.xmf,399,8.80382e-06,6.63531e-06,0,3.65855e-08,-1.68966e+09,-1.68995e+09,-1.69083e+09,4889.65,0.170049,0.0111993,0,0.170417,-22824.2,-58329.9,-0,62636.4,4889.65
step02_gravity_refstate-mantle.xmf,400,9.20172e-06,5.79399e-06,0,1.44129e-09,-1.74371e+09,-1.74416e+09,-1.74494e+09,192.629,0.162057,-2.34535e-19,0,0.162057,-23856.4,-60000,-0,64568.8,192.629
step02_gravity_refstate-mantle.xmf,401,2.60096e-06,2.48916e-05,0,2.34959e-05,-1.29708e+09,-1.2941e+09,-1.29743e+09,3.14022e+06,0.134398,0.546613,0,0.562893,-7626.02,-46208.4,-0,46833.5,3.14022e+06
step02_gravity_refstate-mantle.xmf,402,2.1588e-06,2.78855e-05,0,2.78282e-05,-1.28199e+09,-1.27855e+09,-1.28228e+09,3.71924e+06,0.125948,0.622681,0,0.635291,-6761.14,-45747.1,-0,46244,3.71924e+06
step02_gravity_refstate-mantle.xmf,403,2.15957e-06,2.51769e-05,0,2.24873e-05,-1.31226e+09,-1.30919e+09,-1.31255e+09,3.00543e+06,0.143236,0.516011,0,0.535522,-7910.82,-46675.2,-0,47340.8,3.00543e+06
step02_gravity_refstate-mantle.xmf,404,1.79184e-06,3.21818e-05,0,3.34498e-05,-1.26453e+09,-1.26047e+09,-1.26477e+09,4.47056e+06,0.114114,0.71709,0,0.726113,-5854.04,-45216.3,-0,45593.7,4.47056e+06
step02_gravity_refstate-mantle.xmf,405,2.5818e-06,2.25171e-05,0,1.84405e-05,-1.33084e+09,-1.32817e+09,-1.33118e+09,2.46457e+06,0.151158,0.440078,0,0.465314,-8967.81,-47245,-0,48088.6,2.46457e+06
step02_gravity_refstate-mantle.xmf,406,3.13114e-06,2.02881e-05,0,1.58381e-05,-1.33446e+09,-1.33217e+09,-1.33488e+09,2.11676e+06,0.150981,0.398823,0,0.426444,-9719.21,-47354.9,-0,48342,2.11676e+06
step02_gravity_refstate-mantle.xmf,407,3.39202e-06,1.88891e-05,0,1.38843e-05,-1.34162e+09,-1.33955e+09,-1.34207e+09,1.85564e+06,0.152743,0.363697,0,0.39447,-10372.7,-47574.2,-0,48691.9,1.85564e+06
step02_gravity_refstate-mantle.xmf,408,3.94509e-06,1.57166e-05,0,8.30907e-06,-1.3889e+09,-1.38732e+09,-1.38942e+09,1.11051e+06,0.1662,0.24322,0,0.294582,-12924.2,-49030.2,-0,50704.9,1.11051e+06
step02_gravity_refstate-mantle.xmf,409,3.93485e-06,1.58374e-05,0,7.58702e-06,-1.41456e+09,-1.41297e+09,-1.41509e+09,1.01401e+06,0.174538,0.216172,0,0.277838,-13425.1,-49823.2,-0,51600.2,1.01401e+06
step02_gravity_refstate-mantle.xmf,410,2.99717e-06,1.94762e-05,0,1.33031e-05,-1.36382e+09,-1.36162e+09,-1.36422e+09,1.77796e+06,0.162804,0.336915,0,0.374188,-10686.8,-48258.9,-0,49428,1.77796e+06
step02_gravity_refstate-mantle.xmf,411,5.45543e-06,1.23797e-05,0,3.29753e-06,-1.48681e+09,-1.48588e+09,-1.48754e+09,440715,0.18256,0.116129,0,0.216365,-16700.2,-52056.2,-0,54669.5,440715
step02_gravity_refstate-mantle.xmf,412,8.19762e-06,7.9138e-06,0,2.26554e-07,-1.66489e+09,-1.66493e+09,-1.66599e+09,30279,0.179535,0.0195943,0,0.180601,-21531.1,-57564.1,-0,61459.1,30279
step02_gravity_refstate-mantle.xmf,413,1.58191e-06,2.82726e-05,0,2.66298e-05,-1.29759e+09,-1.29402e+09,-1.2978e+09,3.55908e+06,0.135981,0.58764,0,0.603167,-7042.73,-46225.9,-0,46759.3,3.55908e+06
step02_gravity_refstate-mantle.xmf,414,1.67436e-06,2.54507e-05,0,2.12485e-05,-1.33035e+09,-1.32718e+09,-1.33058e+09,2.83987e+06,0.152421,0.480274,0,0.503881,-8262.84,-47231.5,-0,47948.8,2.83987e+06
step02_gravity_refstate-mantle.xmf,415,8.19365e-07,3.24597e-05,0,3.18072e-05,-1.28213e+09,-1.2779e+09,-1.28224e+09,4.25104e+06,0.12699,0.671186,0,0.683094,-6170.93,-45754.1,-0,46168.4,4.25104e+06
step02_gravity_refstate-mantle.xmf,416,1.07383e-07,3.88396e-05,0,3.82933e-05,-1.26528e+09,-1.26011e+09,-1.2653e+09,5.11789e+06,0.115252,0.774103,0,0.782635,-5262,-45245.3,-0,45550.2,5.11789e+06
step02_gravity_refstate-mantle.xmf,417,-2.14831e-06,4.75065e-05,0,4.27984e-05,-1.26455e+09,-1.25791e+09,-1.26426e+09,5.72001e+06,0.113949,0.832289,0,0.840053,-4716.44,-45229.7,-0,45475,5.72001e+06
step02_gravity_refstate-mantle.xmf,418,-1.34453e-05,6.90527e-05,0,5.14593e-05,-1.25773e+09,-1.2467e+09,-1.25593e+09,6.87754e+06,0.102527,0.930356,0,0.935988,-4000,-44998.7,-0,45176.1,6.87754e+06
step02_gravity_refstate-mantle.xmf,419,4.49601e-06,1.45864e-05,0,5.54201e-06,-1.45167e+09,-1.45032e+09,-1.45227e+09,740689,0.18159,0.165316,0,0.24557,-14802.7,-50969.9,-0,53075.9,740689
step02_gravity_refstate-mantle.xmf,420,3.93466e-06,1.59111e-05,0,6.89899e-06,-1.43867e+09,-1.43707e+09,-1.4392e+09,922049,0.181226,0.192418,0,0.264325,-13885.1,-50568.1,-0,52439.8,922049
step02_gravity_refstate-mantle.xmf,421,3.41697e-06,1.76927e-05,0,1.03465e-05,-1.38802e+09,-1.38611e+09,-1.38847e+09,1.38282e+06,0.169312,0.274184,0,0.322247,-11979.9,-49004.5,-0,50447.6,1.38282e+06
step02_gravity_refstate-mantle.xmf,422,2.70127e-06,1.99106e-05,0,1.2473e-05,-1.38786e+09,-1.38556e+09,-1.38822e+09,1.66701e+06,0.171935,0.30591,0,0.350916,-11099.1,-49000.6,-0,50241.9,1.66701e+06
step02_gravity_refstate-mantle.xmf,423,4.63687e-06,1.44178e-05,0,4.57187e-06,-1.48907e+09,-1.48776e+09,-1.48969e+09,611031,0.189196,0.13489,0,0.232358,-15503.6,-52125.7,-0,54382.4,611031
step02_gravity_refstate-mantle.xmf,424,5.79586e-06,1.19622e-05,0,2.60242e-06,-1.52014e+09,-1.51932e+09,-1.52092e+09,347814,0.186934,0.0937406,0,0.209121,-17404,-53087,-0,55867.1,347814
step02_gravity_refstate-mantle.xmf,425,6.21239e-06,1.13947e-05,0,1.91926e-06,-1.55504e+09,-1.55435e+09,-1.55587e+09,256509,0.18976,0.0727958,0,0.203244,-18143.5,-54166.5,-0,57124.4,256509
step02_gravity_refstate-mantle.xmf,426,6.63038e-06,1.0826e-05,0,1.3404e-06,-1.59161e+09,-1.59105e+09,-1.5925e+09,179144,0.191376,0.0540711,0,0.198868,-18848.6,-55297.4,-0,58421.6,179144
step02_gravity_refstate-mantle.xmf,427,7.08947e-06,1.01456e-05,0,8.35175e-07,-1.62925e+09,-1.62884e+09,-1.6302e+09,111621,0.191223,0.0372176,0,0.194811,-19578.3,-56461.5,-0,59759.6,111621
step02_gravity_refstate-mantle.xmf,428,7.56713e-06,9.36963e-06,0,4.38906e-07,-1.66622e+09,-1.66598e+09,-1.66723e+09,58659.8,0.189072,0.0228645,0,0.19045,-20333.4,-57604.7,-0,61088,58659.8
step02_gravity_refstate-mantle.xmf,429,8.10136e-06,8.38472e-06,0,1.53402e-07,-1.70221e+09,-1.70217e+09,-1.70329e+09,20502.2,0.184035,0.0108429,0,0.184355,-21234.1,-58717.4,-0,62438.9,20502.2
step02_gravity_refstate-mantle.xmf,430,8.59034e-06,7.37024e-06,0,-2.66202e-09,-1.74371e+09,-1.74387e+09,-1.74486e+09,-355.778,0.17683,-2.22317e-19,0,0.17683,-22194.3,-60000,-0,63973.3,355.778
step02_gravity_refstate-mantle.xmf,431,9.23274e-07,2.89041e-05,0,2.56291e-05,-1.31355e+09,-1.30981e+09,-1.31368e+09,3.42532e+06,0.144953,0.556977,0,0.57553,-7276.25,-46716.3,-0,47279.6,3.42532e+06
step02_gravity_refstate-mantle.xmf,432,1.34241e-07,3.24613e-05,0,2.99463e-05,-1.29814e+09,-1.29382e+09,-1.29816e+09,4.00232e+06,0.136813,0.629253,0,0.643954,-6488.13,-46244.1,-0,46697,4.00232e+06
step02_gravity_refstate-mantle.xmf,433,2.80391e-07,2.92557e-05,0,2.4347e-05,-1.33041e+09,-1.32654e+09,-1.33045e+09,3.25398e+06,0.153157,0.524176,0,0.546093,-7544.64,-47233.6,-0,47832.4,3.25398e+06
step02_gravity_refstate-mantle.xmf,434,1.24015e-06,2.55649e-05,0,1.99437e-05,-1.34845e+09,-1.3452e+09,-1.34862e+09,2.66548e+06,0.160422,0.445665,0,0.473658,-8624.14,-47787.9,-0,48559.8,2.66548e+06
step02_gravity_refstate-mantle.xmf,435,-1.54873e-06,3.86104e-05,0,3.62292e-05,-1.28251e+09,-1.27714e+09,-1.2823e+09,4.84203e+06,0.127063,0.723258,0,0.734335,-5579.21,-45765.6,-0,46104.4,4.84203e+06
step02_gravity_refstate-mantle.xmf,436,-7.3549e-06,5.9202e-05,0,4.60446e-05,-1.26507e+09,-1.25618e+09,-1.26409e+09,6.15387e+06,0.11192,0.878074,0,0.885178,-4300.15,-45241,-0,45444.9,6.15387e+06
step02_gravity_refstate-mantle.xmf,437,2.11551e-06,2.29722e-05,0,1.75922e-05,-1.34881e+09,-1.34602e+09,-1.34909e+09,2.3512e+06,0.159487,0.411777,0,0.441584,-9267.96,-47798.1,-0,48688.3,2.3512e+06
step02_gravity_refstate-mantle.xmf,438,2.3031e-06,2.19946e-05,0,1.59321e-05,-1.36133e+09,-1.3587e+09,-1.36164e+09,2.12932e+06,0.163997,0.376815,0,0.410956,-9812.58,-48183.7,-0,49172.7,2.12932e+06
step02_gravity_refstate-mantle.xmf,439,3.25271e-06,1.78378e-05,0,9.38444e-06,-1.41468e+09,-1.41273e+09,-1.41512e+09,1.25423e+06,0.177966,0.24322,0,0.301377,-12485.2,-49827.4,-0,51367.8,1.25423e+06
step02_gravity_refstate-mantle.xmf,440,3.21256e-06,1.77888e-05,0,8.34614e-06,-1.44087e+09,-1.43892e+09,-1.4413e+09,1.11546e+06,0.184974,0.213089,0,0.282174,-13034,-50636,-0,52286.7,1.11546e+06
step02_gravity_refstate-mantle.xmf,441,1.78315e-06,2.24167e-05,0,1.47539e-05,-1.3866e+09,-1.38385e+09,-1.38684e+09,1.97186e+06,0.173375,0.34077,0,0.382339,-10239.7,-48962,-0,50021.3,1.97186e+06
step02_gravity_refstate-mantle.xmf,442,4.8851e-06,1.4053e-05,0,3.6985e-06,-1.5221e+09,-1.52088e+09,-1.52276e+09,494304,0.193962,0.109612,0,0.222792,-16171.7,-53147,-0,55552.9,494304
step02_gravity_refstate-mantle.xmf,443,-1.9056e-07,3.20805e-05,0,2.82983e-05,-1.31078e+09,-1.30647e+09,-1.31076e+09,3.78207e+06,0.143672,0.595263,0,0.612356,-6771.99,-46631.4,-0,47120.6,3.78207e+06
step02_gravity_refstate-mantle.xmf,444,-2.46301e-07,2.92695e-05,0,2.276e-05,-1.34881e+09,-1.34486e+09,-1.34878e+09,3.04187e+06,0.160948,0.486578,0,0.512506,-7890.38,-47798.5,-0,48445.4,3.04187e+06
step02_gravity_refstate-mantle.xmf,445,-2.21985e-06,3.8064e-05,0,3.3504e-05,-1.29924e+09,-1.29386e+09,-1.29894e+09,4.47781e+06,0.136787,0.674193,0,0.687929,-5917.06,-46276.6,-0,46653.4,4.47781e+06
step02_gravity_refstate-mantle.xmf,446,-5.17547e-06,4.86045e-05,0,4.18615e-05,-1.28388e+09,-1.27669e+09,-1.28318e+09,5.5948e+06,0.12562,0.781535,0,0.791567,-4941.25,-45809.3,-0,46075,5.5948e+06
step02_gravity_refstate-mantle.xmf,447,-4.43203e-06,5.65311e-05,0,4.69116e-05,-1.27772e+09,-1.26957e+09,-1.27712e+09,6.26974e+06,0.119666,0.843014,0,0.851465,-4407.33,-45644.2,-0,45856.5,6.26974e+06
step02_gravity_refstate-mantle.xmf,448,-1.42772e-05,7.60889e-05,0,4.35465e-05,-1.27349e+09,-1.26141e+09,-1.27158e+09,5.81999e+06,0.113379,0.894026,0,0.901187,-4000,-45497.8,-0,45673.3,5.81999e+06
step02_gravity_refstate-mantle.xmf,449,3.44986e-06,1.71654e-05,0,7.04134e-06,-1.46599e+09,-1.46415e+09,-1.46645e+09,941076,0.189978,0.181496,0,0.26274,-13757,-51411.8,-0,53220.6,941076
step02_gravity_refstate-mantle.xmf,450,2.37776e-06,2.02449e-05,0,1.14777e-05,-1.41406e+09,-1.41167e+09,-1.41437e+09,1.534e+06,0.180426,0.274179,0,0.328219,-11532,-49808.4,-0,51126,1.534e+06
step02_gravity_refstate-mantle.xmf,451,1.39298e-06,2.27399e-05,0,1.36274e-05,-1.4109e+09,-1.40805e+09,-1.41109e+09,1.8213e+06,0.181049,0.307818,0,0.357115,-10645.8,-49710.7,-0,50837.9,1.8213e+06
step02_gravity_refstate-mantle.xmf,452,3.55043e-06,1.69017e-05,0,5.97187e-06,-1.49552e+09,-1.49374e+09,-1.496e+09,798141,0.195497,0.153135,0,0.248333,-14356,-52324.2,-0,54257.9,798141
step02_gravity_refstate-mantle.xmf,453,3.77492e-06,1.64546e-05,0,4.9139e-06,-1.52515e+09,-1.52346e+09,-1.52566e+09,656743,0.19976,0.126567,0,0.236481,-14981.2,-53239.9,-0,55307.5,656743
step02_gravity_refstate-mantle.xmf,454,5.22102e-06,1.35491e-05,0,2.84669e-06,-1.5564e+09,-1.55529e+09,-1.5571e+09,380461,0.197401,0.0861194,0,0.215369,-16851.5,-54207.5,-0,56766.4,380461
step02_gravity_refstate-mantle.xmf,455,5.64584e-06,1.29152e-05,0,2.04736e-06,-1.59204e+09,-1.59106e+09,-1.59279e+09,273630,0.199455,0.06452,0,0.209631,-17541.4,-55309.3,-0,58024.3,273630
step02_gravity_refstate-mantle.xmf,456,6.11519e-06,1.21823e-05,0,1.34207e-06,-1.62904e+09,-1.62823e+09,-1.62986e+09,179368,0.199986,0.044869,0,0.204957,-18246.9,-56453.7,-0,59329.3,179368
step02_gravity_refstate-mantle.xmf,457,6.6317e-06,1.13372e-05,0,7.54256e-07,-1.66656e+09,-1.66594e+09,-1.66745e+09,100806,0.198766,0.0275818,0,0.200671,-18971.1,-57614,-0,60657.1,100806
step02_gravity_refstate-mantle.xmf,458,7.1849e-06,1.0371e-05,0,3.01681e-07,-1.70459e+09,-1.70416e+09,-1.70555e+09,40319.7,0.195521,0.0126473,0,0.19593,-19742.8,-58789.8,-0,62016.3,40319.7
step02_gravity_refstate-mantle.xmf,459,7.75157e-06,9.27882e-06,0,-6.67951e-09,-1.74373e+09,-1.74353e+09,-1.74477e+09,-892.716,0.189888,-2.45783e-19,0,0.189888,-20595.2,-60000,-0,63436.3,892.716
step02_gravity_refstate-mantle.xmf,460,8.92192e-07,2.55022e-05,0,1.85477e-05,-1.36691e+09,-1.36362e+09,-1.36703e+09,2.4789e+06,0.167579,0.41081,0,0.443675,-9016.96,-48355.6,-0,49189.1,2.4789e+06
step02_gravity_refstate-mantle.xmf,461,-1.77643e-06,3.43967e-05,0,2.79092e-05,-1.3291e+09,-1.32427e+09,-1.32887e+09,3.73006e+06,0.152,0.575885,0,0.595607,-6782.16,-47192.7,-0,47677.6,3.73006e+06
step02_gravity_refstate-mantle.xmf,462,-2.52886e-06,3.70388e-05,0,3.08161e-05,-1.31563e+09,-1.31034e+09,-1.31529e+09,4.11858e+06,0.145239,0.627444,0,0.644035,-6270.67,-46778.1,-0,47196.6,4.11858e+06
step02_gravity_refstate-mantle.xmf,463,-2.23669e-06,3.38834e-05,0,2.57217e-05,-1.34863e+09,-1.34381e+09,-1.34833e+09,3.4377e+06,0.159963,0.531224,0,0.554785,-7152.83,-47791.6,-0,48323.9,3.4377e+06
step02_gravity_refstate-mantle.xmf,464,-6.45857e-07,2.91052e-05,0,2.11242e-05,-1.36774e+09,-1.36376e+09,-1.36765e+09,2.82325e+06,0.16798,0.448772,0,0.47918,-8264.45,-48380.1,-0,49080.9,2.82325e+06
step02_gravity_refstate-mantle.xmf,465,-6.26443e-06,4.53142e-05,0,3.66744e-05,-1.29978e+09,-1.29288e+09,-1.29894e+09,4.90153e+06,0.134528,0.723893,0,0.736287,-5328.16,-46284.8,-0,46590.4,4.90153e+06
step02_gravity_refstate-mantle.xmf,466,2.14182e-06,2.03399e-05,0,1.02591e-05,-1.44184e+09,-1.43941e+09,-1.44213e+09,1.37113e+06,0.187941,0.24085,0,0.305501,-12032.5,-50665.4,-0,52074.6,1.37113e+06
step02_gravity_refstate-mantle.xmf,467,2.1546e-06,2.00255e-05,0,8.86945e-06,-1.46958e+09,-1.46719e+09,-1.46987e+09,1.1854e+06,0.194038,0.206691,0,0.283499,-12640,-51521.6,-0,53049.4,1.1854e+06
step02_gravity_refstate-mantle.xmf,468,5.78132e-07,2.5444e-05,0,1.7146e-05,-1.38692e+09,-1.3836e+09,-1.387e+09,2.29156e+06,0.174445,0.375833,0,0.414345,-9424.48,-48971.6,-0,49870.2,2.29156e+06
step02_gravity_refstate-mantle.xmf,469,2.23794e-07,2.54588e-05,0,1.57688e-05,-1.4084e+09,-1.40502e+09,-1.40843e+09,2.1075e+06,0.180937,0.341694,0,0.386643,-9827.45,-49632.5,-0,50596.1,2.1075e+06
step02_gravity_refstate-mantle.xmf,470,4.0352e-06,1.59588e-05,0,3.88113e-06,-1.55775e+09,-1.55615e+09,-1.55829e+09,518713,0.203366,0.1008,0,0.226976,-15617,-54247.1,-0,56450.4,518713
step02_gravity_refstate-mantle.xmf,471,-2.60975e-06,3.32952e-05,0,2.36712e-05,-1.36783e+09,-1.36303e+09,-1.36748e+09,3.16366e+06,0.166819,0.489107,0,0.516773,-7529.07,-48380.7,-0,48963,3.16366e+06
step02_gravity_refstate-mantle.xmf,472,-5.79603e-06,4.34243e-05,0,3.34901e-05,-1.31723e+09,-1.31065e+09,-1.31646e+09,4.47596e+06,0.143335,0.671298,0,0.68643,-5677.74,-46822.2,-0,47165.2,4.47596e+06
step02_gravity_refstate-mantle.xmf,473,-1.52208e-05,6.26497e-05,0,4.37833e-05,-1.29335e+09,-1.28295e+09,-1.29132e+09,5.85164e+06,0.124183,0.810421,0,0.81988,-4487.34,-46070.8,-0,46288.8,5.85164e+06
step02_gravity_refstate-mantle.xmf,474,-1.18019e-05,5.43782e-05,0,3.77296e-05,-1.30468e+09,-1.29583e+09,-1.3031e+09,5.04256e+06,0.131571,0.762161,0,0.773434,-4807.95,-46422.3,-0,46670.6,5.04256e+06
step02_gravity_refstate-mantle.xmf,475,-2.63395e-05,6.14231e-05,0,3.9211e-05,-1.29357e+09,-1.28184e+09,-1.29005e+09,5.24055e+06,0.114019,0.855707,0,0.86327,-4000,-46000,-0,46173.6,5.24055e+06
step02_gravity_refstate-mantle.xmf,476,2.26194e-06,1.95972e-05,0,7.52442e-06,-1.49773e+09,-1.49541e+09,-1.49803e+09,1.00564e+06,0.199193,0.174907,0,0.265086,-13250.2,-52390.6,-0,54040.2,1.00564e+06
step02_gravity_refstate-mantle.xmf,477,-8.73324e-08,2.54732e-05,0,1.4537e-05,-1.42803e+09,-1.42461e+09,-1.42802e+09,1.94286e+06,0.186194,0.312518,0,0.363779,-10180.5,-50237,-0,51258.1,1.94286e+06
step02_gravity_refstate-mantle.xmf,478,7.26546e-07,2.35845e-05,0,1.25979e-05,-1.44112e+09,-1.43807e+09,-1.44122e+09,1.68371e+06,0.189275,0.275493,0,0.334248,-10949.6,-50642,-0,51812.2,1.68371e+06
step02_gravity_refstate-mantle.xmf,479,2.41017e-06,1.91731e-05,0,6.24566e-06,-1.52774e+09,-1.5255e+09,-1.52806e+09,834732,0.203777,0.145041,0,0.250124,-13838.9,-53317.7,-0,55084.4,834732
step02_gravity_refstate-mantle.xmf,480,2.64532e-06,1.86639e-05,0,5.0174e-06,-1.5591e+09,-1.55696e+09,-1.55945e+09,670575,0.207566,0.116905,0,0.238223,-14425.5,-54286.6,-0,56170.5,670575
step02_gravity_refstate-mantle.xmf,481,4.39986e-06,1.5344e-05,0,2.89082e-06,-1.59228e+09,-1.59082e+09,-1.59287e+09,386358,0.20594,0.0765673,0,0.219713,-16258.9,-55314.8,-0,57654.8,386358
step02_gravity_refstate-mantle.xmf,482,4.90408e-06,1.45483e-05,0,1.9587e-06,-1.62867e+09,-1.62738e+09,-1.62933e+09,261780,0.207167,0.0538372,0,0.214048,-16935.2,-56440.3,-0,58926.3,261780
step02_gravity_refstate-mantle.xmf,483,5.46339e-06,1.36241e-05,0,1.15768e-06,-1.66571e+09,-1.66462e+09,-1.66644e+09,154724,0.206798,0.0335612,0,0.209503,-17631.7,-57585.8,-0,60224.6,154724
step02_gravity_refstate-mantle.xmf,484,6.03027e-06,1.26682e-05,0,4.92181e-07,-1.70497e+09,-1.70408e+09,-1.70577e+09,65780,0.205004,0.0153189,0,0.205575,-18309.4,-58799.7,-0,61584.4,65780
step02_gravity_refstate-mantle.xmf,485,6.65739e-06,1.15381e-05,0,-9.51232e-09,-1.74378e+09,-1.74313e+09,-1.74467e+09,-1271.32,0.200986,-2.81084e-19,0,0.200986,-19054.5,-60000,-0,62952.9,1271.32
step02_gravity_refstate-mantle.xmf,486,-1.02822e-06,2.89615e-05,0,1.95243e-05,-1.38768e+09,-1.38367e+09,-1.38754e+09,2.60942e+06,0.174497,0.411718,0,0.447169,-8643.82,-48993.1,-0,49749.8,2.60942e+06
step02_gravity_refstate-mantle.xmf,487,-5.55654e-06,4.15601e-05,0,3.07112e-05,-1.33446e+09,-1.32816e+09,-1.33372e+09,4.10455e+06,0.151089,0.622323,0,0.640402,-6033.9,-47351.1,-0,47734,4.10455e+06
step02_gravity_refstate-mantle.xmf,488,-5.05087e-06,3.94697e-05,0,2.82558e-05,-1.35045e+09,-1.3445e+09,-1.34977e+09,3.77639e+06,0.157889,0.57436,0,0.595666,-6446.33,-47843.1,-0,48275.5,3.77639e+06
step02_gravity_refstate-mantle.xmf,489,-5.06778e-06,3.82766e-05,0,2.60469e-05,-1.36861e+09,-1.36281e+09,-1.36793e+09,3.48116e+06,0.16427,0.529689,0,0.554576,-6816.79,-48400.9,-0,48878.6,3.48116e+06
step02_gravity_refstate-mantle.xmf,490,-2.9296e-06,3.28665e-05,0,2.18006e-05,-1.38782e+09,-1.38304e+09,-1.38743e+09,2.91365e+06,0.173072,0.448587,0,0.480816,-7903.4,-48995,-0,49628.3,2.91365e+06
step02_gravity_refstate-mantle.xmf,491,-1.00838e-05,5.0564e-05,0,3.47912e-05,-1.319e+09,-1.3109e+09,-1.31766e+09,4.64985e+06,0.13919,0.715145,0,0.728565,-5096.68,-46866.6,-0,47142.9,4.64985e+06
step02_gravity_refstate-mantle.xmf,492,-1.64594e-05,5.97348e-05,0,3.47275e-05,-1.30653e+09,-1.29635e+09,-1.30433e+09,4.64132e+06,0.124184,0.80569,0,0.815204,-4265.77,-46462.2,-0,46657.6,4.64132e+06
step02_gravity_refstate-mantle.xmf,493,6.90094e-07,2.26741e-05,0,9.16954e-06,-1.49984e+09,-1.49691e+09,-1.49994e+09,1.22551e+06,0.201184,0.19846,0,0.282598,-12173.4,-52453.4,-0,53847.4,1.22551e+06
step02_gravity_refstate-mantle.xmf,494,6.43795e-07,2.31323e-05,0,1.07381e-05,-1.4718e+09,-1.46879e+09,-1.47189e+09,1.43514e+06,0.195986,0.233391,0,0.304765,-11599.1,-51587.9,-0,52875.9,1.43514e+06
step02_gravity_refstate-mantle.xmf,495,-1.42437e-06,2.89382e-05,0,1.7972e-05,-1.40936e+09,-1.40531e+09,-1.40917e+09,2.40196e+06,0.180691,0.375245,0,0.416483,-9016.28,-49660.3,-0,50472.2,2.40196e+06
step02_gravity_refstate-mantle.xmf,496,-1.64528e-06,2.86565e-05,0,1.63563e-05,-1.43082e+09,-1.42677e+09,-1.4306e+09,2.18602e+06,0.186178,0.338973,0,0.386737,-9431.27,-50320.9,-0,51197.1,2.18602e+06
step02_gravity_refstate-mantle.xmf,497,2.95305e-06,1.80375e-05,0,3.82117e-06,-1.59253e+09,-1.59051e+09,-1.59292e+09,510699,0.210509,0.0898557,0,0.228885,-15032.1,-55319.7,-0,57325.7,510699
step02_gravity_refstate-mantle.xmf,498,-5.25338e-06,3.73348e-05,0,2.39345e-05,-1.3877e+09,-1.382e+09,-1.38699e+09,3.19885e+06,0.170083,0.487055,0,0.515898,-7178.78,-48986.9,-0,49510.1,3.19885e+06
step02_gravity_refstate-mantle.xmf,499,-9.11529e-06,4.79839e-05,0,3.24596e-05,-1.33549e+09,-1.32786e+09,-1.33428e+09,4.33822e+06,0.146807,0.665511,0,0.681511,-5419.94,-47375.8,-0,47684.8,4.33822e+06
step02_gravity_refstate-mantle.xmf,500,-1.42322e-05,5.73193e-05,0,3.47731e-05,-1.32071e+09,-1.31114e+09,-1.3188e+09,4.64743e+06,0.132858,0.756579,0,0.768155,-4545.15,-46908.7,-0,47128.3,4.64743e+06
step02_gravity_refstate-mantle.xmf,501,8.16435e-07,2.21731e-05,0,7.67414e-06,-1.52897e+09,-1.52612e+09,-1.52908e+09,1.02565e+06,0.205744,0.165662,0,0.264149,-12738.1,-53352.8,-0,54852.3,1.02565e+06
step02_gravity_refstate-mantle.xmf,502,-1.48684e-06,2.76249e-05,0,1.44966e-05,-1.45047e+09,-1.44658e+09,-1.45027e+09,1.93747e+06,0.190987,0.301341,0,0.356767,-9983.75,-50926.3,-0,51895.7,1.93747e+06
step02_gravity_refstate-mantle.xmf,503,9.9838e-07,2.16613e-05,0,6.23706e-06,-1.55996e+09,-1.5572e+09,-1.56009e+09,833584,0.20975,0.1345,0,0.249169,-13285.4,-54309.8,-0,55911.1,833584
step02_gravity_refstate-mantle.xmf,504,1.30438e-06,2.10175e-05,0,4.84515e-06,-1.59223e+09,-1.5896e+09,-1.59241e+09,647555,0.213012,0.104846,0,0.237417,-13843.6,-55307.1,-0,57013.3,647555
step02_gravity_refstate-mantle.xmf,505,3.3864e-06,1.72877e-05,0,2.66624e-06,-1.62888e+09,-1.62702e+09,-1.62933e+09,356344,0.212536,0.0638344,0,0.221916,-15647.8,-56443.4,-0,58572.2,356344
step02_gravity_refstate-mantle.xmf,506,3.96583e-06,1.63719e-05,0,1.61563e-06,-1.66664e+09,-1.66498e+09,-1.66717e+09,215929,0.213255,0.0398748,0,0.216951,-16273.9,-57611.4,-0,59865.8,215929
step02_gravity_refstate-mantle.xmf,507,4.57653e-06,1.53625e-05,0,7.02e-07,-1.70619e+09,-1.70474e+09,-1.7068e+09,93822.4,0.212524,0.018028,0,0.213287,-16898.9,-58834.5,-0,61213.4,93822.4
step02_gravity_refstate-mantle.xmf,508,5.27748e-06,1.41688e-05,0,-1.14435e-08,-1.74386e+09,-1.74267e+09,-1.74457e+09,-1529.43,0.209861,-3.1729e-19,0,0.209861,-17567.7,-60000,-0,62519,1529.43
step02_gravity_refstate-mantle.xmf,509,-3.30453e-06,3.26154e-05,0,2.00264e-05,-1.40945e+09,-1.40465e+09,-1.409e+09,2.67653e+06,0.178921,0.408974,0,0.446399,-8268.56,-49659.7,-0,50343.4,2.67653e+06
step02_gravity_refstate-mantle.xmf,510,-8.51243e-06,4.57523e-05,0,3.01544e-05,-1.35234e+09,-1.34508e+09,-1.3512e+09,4.03013e+06,0.153672,0.617108,0,0.635954,-5766.2,-47894.3,-0,48240.2,4.03013e+06
step02_gravity_refstate-mantle.xmf,511,-8.09775e-06,4.38458e-05,0,2.79476e-05,-1.36945e+09,-1.36251e+09,-1.36837e+09,3.73519e+06,0.159859,0.570461,0,0.592436,-6127.4,-48421,-0,48807.1,3.73519e+06
step02_gravity_refstate-mantle.xmf,512,-7.98125e-06,4.24372e-05,0,2.57823e-05,-1.38811e+09,-1.38137e+09,-1.38704e+09,3.4458e+06,0.165504,0.525249,0,0.550707,-6478.2,-48994.4,-0,49420.9,3.4458e+06
step02_gravity_refstate-mantle.xmf,513,-5.41397e-06,3.66691e-05,0,2.20296e-05,-1.4077e+09,-1.40207e+09,-1.40697e+09,2.94426e+06,0.175399,0.445996,0,0.479247,-7534.35,-49602,-0,50170.9,2.94426e+06
step02_gravity_refstate-mantle.xmf,514,-1.92479e-05,6.73728e-05,0,3.90368e-05,-1.30616e+09,-1.29458e+09,-1.30359e+09,5.21727e+06,0.115008,0.850355,0,0.858097,-3748.01,-46451.5,-0,46602.5,5.21727e+06
step02_gravity_refstate-mantle.xmf,515,-1.28349e-05,5.45027e-05,0,3.32671e-05,-1.33628e+09,-1.32728e+09,-1.33456e+09,4.44615e+06,0.140475,0.707603,0,0.721412,-4833.68,-47391.7,-0,47637.6,4.44615e+06
step02_gravity_refstate-mantle.xmf,516,-1.71851e-05,6.37245e-05,0,3.57719e-05,-1.32103e+09,-1.31022e+09,-1.31873e+09,4.78091e+06,0.124346,0.799092,0,0.808708,-4000.58,-46915.3,-0,47085.6,4.78091e+06
step02_gravity_refstate-mantle.xmf,517,-2.5534e-05,7.73586e-05,0,3.85644e-05,-1.29208e+09,-1.27832e+09,-1.28866e+09,5.15413e+06,0.100782,0.906861,0,0.912444,-3497.18,-46000,-0,46132.7,5.15413e+06
step02_gravity_refstate-mantle.xmf,518,-1.22854e-06,2.67286e-05,0,1.26443e-05,-1.47427e+09,-1.47054e+09,-1.47411e+09,1.68991e+06,0.196135,0.261746,0,0.327078,-10578.8,-51661,-0,52733,1.68991e+06
step02_gravity_refstate-mantle.xmf,519,-1.0243e-06,2.54785e-05,0,9.15328e-06,-1.52958e+09,-1.52604e+09,-1.52944e+09,1.22334e+06,0.2057,0.188056,0,0.278706,-11676.4,-53367.5,-0,54629.9,1.22334e+06
step02_gravity_refstate-mantle.xmf,520,-1.15893e-06,2.60959e-05,0,1.08482e-05,-1.50146e+09,-1.49782e+09,-1.50131e+09,1.44986e+06,0.201188,0.223635,0,0.300814,-11136.4,-52499.8,-0,53667.9,1.44986e+06
step02_gravity_refstate-mantle.xmf,521,-4.12325e-06,3.3173e-05,0,1.8396e-05,-1.43481e+09,-1.42982e+09,-1.43426e+09,2.45863e+06,0.184257,0.372255,0,0.41536,-8520.5,-50439.1,-0,51153.7,2.45863e+06
step02_gravity_refstate-mantle.xmf,522,-3.7556e-06,3.18676e-05,0,1.64017e-05,-1.45489e+09,-1.45013e+09,-1.45438e+09,2.19208e+06,0.189302,0.330919,0,0.381238,-9059.39,-51058.4,-0,51855.9,2.19208e+06
step02_gravity_refstate-mantle.xmf,523,1.67973e-06,2.02665e-05,0,3.47566e-06,-1.62731e+09,-1.62483e+09,-1.62754e+09,464522,0.215552,0.0759025,0,0.228525,-14416.4,-56391.4,-0,58205,464522
step02_gravity_refstate-mantle.xmf,524,-7.9552e-06,4.12206e-05,0,2.3781e-05,-1.40598e+09,-1.39941e+09,-1.40492e+09,3.17834e+06,0.170349,0.484403,0,0.513483,-6812.92,-49543.7,-0,50009.9,3.17834e+06
step02_gravity_refstate-mantle.xmf,525,-1.20757e-05,5.2048e-05,0,3.13267e-05,-1.35299e+09,-1.34442e+09,-1.35138e+09,4.18682e+06,0.147316,0.658516,0,0.674792,-5141.58,-47906.9,-0,48182,4.18682e+06
step02_gravity_refstate-mantle.xmf,526,-1.64311e-05,6.11158e-05,0,3.38073e-05,-1.33656e+09,-1.3262e+09,-1.33437e+09,4.51834e+06,0.132177,0.748982,0,0.760556,-4267.07,-47393.5,-0,47585.2,4.51834e+06
step02_gravity_refstate-mantle.xmf,527,-2.64999e-05,8.12772e-05,0,3.68478e-05,-1.30609e+09,-1.29169e+09,-1.30255e+09,4.92471e+06,0.102731,0.89916,0,0.90501,-3218.79,-46436.5,-0,46547.9,4.92471e+06
step02_gravity_refstate-mantle.xmf,528,-2.7702e-05,8.8364e-05,0,3.2503e-05,-1.29163e+09,-1.27612e+09,-1.28793e+09,4.34403e+06,0.0875808,0.956069,0,0.960072,-2997.53,-46000,-0,46097.6,4.34403e+06
step02_gravity_refstate-mantle.xmf,529,-2.82623e-05,9.58413e-05,0,2.70041e-05,-1.29114e+09,-1.27455e+09,-1.28736e+09,3.6091e+06,0.0737398,0.998447,0,1.00117,-2497.35,-46000,-0,46067.7,3.6091e+06
step02_gravity_refstate-mantle.xmf,530,-2.96461e-05,9.09342e-05,0,3.06583e-05,-1.30481e+09,-1.2887e+09,-1.30085e+09,4.09748e+06,0.0874079,0.945874,0,0.949904,-2693.41,-46400.6,-0,46478.7,4.09748e+06
step02_gravity_refstate-mantle.xmf,531,-8.64172e-07,2.49093e-05,0,7.52049e-06,-1.5597e+09,-1.55626e+09,-1.55958e+09,1.00511e+06,0.209776,0.154059,0,0.260269,-12191.7,-54297.6,-0,55649.5,1.00511e+06
step02_gravity_refstate-mantle.xmf,532,-3.53985e-06,3.0702e-05,0,1.43648e-05,-1.47745e+09,-1.47287e+09,-1.47698e+09,1.91985e+06,0.194301,0.289896,0,0.348988,-9610.52,-51753.9,-0,52638.6,1.91985e+06
step02_gravity_refstate-mantle.xmf,533,-6.15321e-07,2.42853e-05,0,5.93041e-06,-1.59158e+09,-1.58825e+09,-1.59149e+09,792599,0.213327,0.12136,0,0.245432,-12700.4,-55282.3,-0,56722.4,792599
step02_gravity_refstate-mantle.xmf,534,-2.20966e-07,2.35034e-05,0,4.35808e-06,-1.62548e+09,-1.62231e+09,-1.62545e+09,582457,0.216289,0.0894805,0,0.234068,-13229.9,-56330.4,-0,57863.2,582457
step02_gravity_refstate-mantle.xmf,535,2.16948e-06,1.94414e-05,0,2.16499e-06,-1.66584e+09,-1.66353e+09,-1.66613e+09,289350,0.21722,0.0478557,0,0.22243,-14970.1,-57582.6,-0,59496.7,289350
step02_gravity_refstate-mantle.xmf,536,2.8296e-06,1.84083e-05,0,9.56799e-07,-1.70623e+09,-1.70415e+09,-1.70661e+09,127876,0.217577,0.0216489,0,0.218651,-15534,-58832,-0,60848.3,127876
step02_gravity_refstate-mantle.xmf,537,3.58403e-06,1.71901e-05,0,-1.38184e-08,-1.74398e+09,-1.74216e+09,-1.74446e+09,-1846.84,0.216239,-3.65514e-19,0,0.216239,-16130.3,-60000,-0,62130.4,1846.84
step02_gravity_refstate-mantle.xmf,538,-6.89307e-06,3.81637e-05,0,2.04585e-05,-1.43438e+09,-1.42835e+09,-1.43345e+09,2.73428e+06,0.179138,0.412231,0,0.449472,-7602.48,-50420,-0,50989.9,2.73428e+06
step02_gravity_refstate-mantle.xmf,539,-1.15085e-05,4.98209e-05,0,2.92341e-05,-1.37036e+09,-1.36217e+09,-1.36883e+09,3.90713e+06,0.153506,0.610096,0,0.629112,-5469.56,-48441.6,-0,48749.4,3.90713e+06
step02_gravity_refstate-mantle.xmf,540,-1.11181e-05,4.79292e-05,0,2.71492e-05,-1.38813e+09,-1.38024e+09,-1.38664e+09,3.62849e+06,0.159006,0.563797,0,0.585791,-5800.07,-48988.1,-0,49330.2,3.62849e+06
step02_gravity_refstate-mantle.xmf,541,-1.08386e-05,4.63372e-05,0,2.51557e-05,-1.40587e+09,-1.39823e+09,-1.40442e+09,3.36205e+06,0.163866,0.520443,0,0.545631,-6124.19,-49534,-0,49911.2,3.36205e+06
step02_gravity_refstate-mantle.xmf,542,-7.84058e-06,4.0327e-05,0,2.21688e-05,-1.42203e+09,-1.4156e+09,-1.42099e+09,2.96286e+06,0.174391,0.449219,0,0.481882,-7119.01,-50037.9,-0,50541.8,2.96286e+06
step02_gravity_refstate-mantle.xmf,543,-2.25297e-05,7.36745e-05,0,3.63252e-05,-1.32091e+09,-1.30805e+09,-1.3179e+09,4.85486e+06,0.113557,0.843246,0,0.850858,-3460.56,-46901.4,-0,47028.9,4.85486e+06
step02_gravity_refstate-mantle.xmf,544,-1.57516e-05,5.84209e-05,0,3.18681e-05,-1.35305e+09,-1.34313e+09,-1.35094e+09,4.25917e+06,0.139002,0.699159,0,0.712843,-4545.47,-47900.3,-0,48115.5,4.25917e+06
step02_gravity_refstate-mantle.xmf,545,-2.05762e-05,6.88619e-05,0,3.41731e-05,-1.33635e+09,-1.3244e+09,-1.3336e+09,4.56724e+06,0.121873,0.790246,0,0.799589,-3713.55,-47379.2,-0,47524.5,4.56724e+06
step02_gravity_refstate-mantle.xmf,546,-3.07618e-05,9.70231e-05,0,2.52194e-05,-1.30193e+09,-1.28485e+09,-1.29782e+09,3.37057e+06,0.0727482,0.985185,0,0.987867,-2252.36,-46319.7,-0,46374.5,3.37057e+06
step02_gravity_refstate-mantle.xmf,547,-2.90558e-05,0.000101024,0,2.13551e-05,-1.29088e+09,-1.27349e+09,-1.28699e+09,2.85411e+06,0.059406,1.0332,0,1.0349,-1997.54,-46000,-0,46043.4,2.85411e+06
step02_gravity_refstate-mantle.xmf,548,-3.34063e-06,2.99163e-05,0,1.24632e-05,-1.50341e+09,-1.49897e+09,-1.50296e+09,1.6657e+06,0.199157,0.249663,0,0.319367,-10132,-52555.1,-0,53522.8,1.6657e+06
step02_gravity_refstate-mantle.xmf,549,-2.93716e-06,2.83955e-05,0,8.79794e-06,-1.55917e+09,-1.55498e+09,-1.55877e+09,1.17584e+06,0.207724,0.174851,0,0.271518,-11147.8,-54276.2,-0,55409.2,1.17584e+06
step02_gravity_refstate-mantle.xmf,550,-3.16513e-06,2.91439e-05,0,1.05878e-05,-1.53075e+09,-1.52643e+09,-1.53033e+09,1.41506e+06,0.203656,0.211202,0,0.293398,-10647.4,-53398.9,-0,54450,1.41506e+06
step02_gravity_refstate-mantle.xmf,551,-6.51336e-06,3.66085e-05,0,1.81402e-05,-1.4575e+09,-1.45174e+09,-1.45663e+09,2.42444e+06,0.184807,0.363737,0,0.407993,-8131.44,-51132.8,-0,51775.3,2.42444e+06
step02_gravity_refstate-mantle.xmf,552,-6.14624e-06,3.52526e-05,0,1.60143e-05,-1.4804e+09,-1.47487e+09,-1.47958e+09,2.14031e+06,0.189951,0.319458,0,0.371665,-8648.19,-51839.3,-0,52555.7,2.14031e+06
step02_gravity_refstate-mantle.xmf,553,3.55924e-07,2.2484e-05,0,2.90202e-06,-1.65948e+09,-1.65652e+09,-1.65953e+09,387855,0.218371,0.0600098,0,0.226467,-13802.1,-57381.8,-0,59018.3,387855
step02_gravity_refstate-mantle.xmf,554,-1.06739e-05,4.49411e-05,0,2.32423e-05,-1.42316e+09,-1.41573e+09,-1.42174e+09,3.10634e+06,0.168137,0.480658,0,0.509217,-6434.63,-50065.7,-0,50477.5,3.10634e+06
step02_gravity_refstate-mantle.xmf,555,-1.51408e-05,5.60847e-05,0,2.99514e-05,-1.37053e+09,-1.36101e+09,-1.3685e+09,4.00301e+06,0.145043,0.649669,0,0.665663,-4834.96,-48438.4,-0,48679.1,4.00301e+06
step02_gravity_refstate-mantle.xmf,556,-1.963e-05,6.54598e-05,0,3.20822e-05,-1.35276e+09,-1.34139e+09,-1.35014e+09,4.28779e+06,0.128757,0.738839,0,0.749974,-3968.48,-47883.6,-0,48047.8,4.28779e+06
step02_gravity_refstate-mantle.xmf,557,-2.85486e-05,8.49498e-05,0,3.27674e-05,-1.32019e+09,-1.30502e+09,-1.31638e+09,4.37936e+06,0.0987149,0.89013,0,0.895587,-2889.28,-46867.7,-0,46956.7,4.37936e+06
step02_gravity_refstate-mantle.xmf,558,-3.22576e-05,9.42508e-05,0,2.61393e-05,-1.31763e+09,-1.30073e+09,-1.31332e+09,3.49351e+06,0.0789667,0.939668,0,0.94298,-2264.64,-46787.7,-0,46842.5,3.49351e+06
step02_gravity_refstate-mantle.xmf,559,-3.22328e-05,0.00010091,0,2.01668e-05,-1.30465e+09,-1.28685e+09,-1.30034e+09,2.69529e+06,0.0597474,1.00359,0,1.00537,-1802.53,-46403.7,-0,46438.7,2.69529e+06
step02_gravity_refstate-mantle.xmf,560,-2.95526e-05,0.000104646,0,1.58219e-05,-1.29069e+09,-1.27275e+09,-1.28674e+09,2.1146e+06,0.0447637,1.06015,0,1.0611,-1498.34,-46000,-0,46024.4,2.1146e+06
step02_gravity_refstate-mantle.xmf,561,-2.73512e-06,2.77768e-05,0,7.07481e-06,-1.5896e+09,-1.58552e+09,-1.58923e+09,945549,0.211318,0.140149,0,0.253569,-11601.8,-55216,-0,56421.7,945549
step02_gravity_refstate-mantle.xmf,562,-5.90856e-06,3.40702e-05,0,1.3897e-05,-1.5051e+09,-1.49976e+09,-1.50431e+09,1.85733e+06,0.194802,0.276748,0,0.338434,-9155.64,-52600.8,-0,53391.6,1.85733e+06
step02_gravity_refstate-mantle.xmf,563,-2.46143e-06,2.71309e-05,0,5.36943e-06,-1.62225e+09,-1.6183e+09,-1.62192e+09,717624,0.214488,0.106078,0,0.239286,-12042.6,-56224.9,-0,57500.1,717624
step02_gravity_refstate-mantle.xmf,564,-1.87548e-06,2.61142e-05,0,3.73744e-06,-1.65468e+09,-1.65094e+09,-1.65443e+09,499509,0.217211,0.0738624,0,0.229426,-12558.6,-57228,-0,58589.7,499509
step02_gravity_refstate-mantle.xmf,565,5.03937e-07,2.23095e-05,0,1.43917e-06,-1.70186e+09,-1.69895e+09,-1.70193e+09,192344,0.219954,0.0293519,0,0.221904,-14035.4,-58691.5,-0,60346.4,192344
step02_gravity_refstate-mantle.xmf,566,1.56536e-06,2.06016e-05,0,-2.18147e-08,-1.74413e+09,-1.74159e+09,-1.74434e+09,-2915.54,0.219835,-5.21417e-19,0,0.219835,-14737.8,-60000,-0,61783.5,2915.54
step02_gravity_refstate-mantle.xmf,567,-1.00607e-05,4.33247e-05,0,2.16061e-05,-1.43857e+09,-1.43143e+09,-1.43722e+09,2.88766e+06,0.172673,0.442476,0,0.474975,-6807.19,-50541.5,-0,50997.9,2.88766e+06
step02_gravity_refstate-mantle.xmf,568,-1.4597e-05,5.3796e-05,0,2.79032e-05,-1.38857e+09,-1.37943e+09,-1.38662e+09,3.72926e+06,0.150586,0.600884,0,0.619465,-5144.17,-48993.4,-0,49262.8,3.72926e+06
step02_gravity_refstate-mantle.xmf,569,-1.41021e-05,5.17458e-05,0,2.59122e-05,-1.40652e+09,-1.39772e+09,-1.40463e+09,3.46317e+06,0.155588,0.554627,0,0.576037,-5459.04,-49546,-0,49845.8,3.46317e+06
step02_gravity_refstate-mantle.xmf,570,-1.36659e-05,4.99943e-05,0,2.40857e-05,-1.42358e+09,-1.41507e+09,-1.42175e+09,3.21905e+06,0.159982,0.512723,0,0.537103,-5762.74,-50071.4,-0,50402,3.21905e+06
step02_gravity_refstate-mantle.xmf,571,-2.59342e-05,7.82253e-05,0,3.26133e-05,-1.33602e+09,-1.3221e+09,-1.33255e+09,4.35877e+06,0.108589,0.832218,0,0.839272,-3145.59,-47356.9,-0,47461.3,4.35877e+06
step02_gravity_refstate-mantle.xmf,572,-1.8995e-05,6.24384e-05,0,2.99511e-05,-1.37012e+09,-1.35923e+09,-1.36758e+09,4.00296e+06,0.134704,0.688221,0,0.70128,-4229.87,-48416.2,-0,48600.6,4.00296e+06
step02_gravity_refstate-mantle.xmf,573,-2.41217e-05,7.31908e-05,0,3.11799e-05,-1.3523e+09,-1.3393e+09,-1.34908e+09,4.16719e+06,0.116276,0.77759,0,0.786236,-3399.8,-47859.1,-0,47979.7,4.16719e+06
step02_gravity_refstate-mantle.xmf,574,-3.27178e-05,0.000104588,0,1.38952e-05,-1.30325e+09,-1.2849e+09,-1.29888e+09,1.85709e+06,0.0417138,1.03168,0,1.03252,-1260.22,-46366.9,-0,46384.1,1.85709e+06
step02_gravity_refstate-mantle.xmf,575,1.60561e-05,-1.61101e-05,0,-4.46938e-05,-1.09658e+09,-1.10088e+09,-1.09872e+09,-5.97332e+06,0.152219,1.05789,0,1.06879,4000,-40000,0,40199.5,5.97332e+06
step02_gravity_refstate-mantle.xmf,576,3.37966e-06,-9.58141e-06,0,-5.02795e-05,-1.11504e+09,-1.11677e+09,-1.11549e+09,-6.71985e+06,0.125041,1.06353,0,1.07085,4000,-40502.2,0,40699.2,6.71985e+06
step02_gravity_refstate-mantle.xmf,577,6.7444e-08,-3.88436e-06,0,-4.43748e-05,-1.11031e+09,-1.11084e+09,-1.11032e+09,-5.93069e+06,0.134448,1.0097,0,1.01861,4349.11,-40348.6,0,40582.3,5.93069e+06
step02_gravity_refstate-mantle.xmf,578,-7.05405e-07,-5.10247e-06,0,-3.66215e-05,-1.0993e+09,-1.09988e+09,-1.0992e+09,-4.89446e+06,0.156359,0.984614,0,0.996952,4512.49,-40000,0,40253.7,4.89446e+06
step02_gravity_refstate-mantle.xmf,579,-9.58755e-06,4.16812e-05,0,1.95411e-05,-1.45896e+09,-1.45211e+09,-1.45768e+09,2.61166e+06,0.177704,0.397533,0,0.435444,-7239.94,-51170.4,-0,51680,2.61166e+06
step02_gravity_refstate-mantle.xmf,580,-5.57755e-06,3.31154e-05,0,1.19313e-05,-1.53157e+09,-1.5264e+09,-1.53082e+09,1.59462e+06,0.199343,0.235533,0,0.308567,-9649.84,-53418.1,-0,54282.7,1.59462e+06
step02_gravity_refstate-mantle.xmf,581,-5.00881e-06,3.14249e-05,0,8.18692e-06,-1.58739e+09,-1.58252e+09,-1.58672e+09,1.09418e+06,0.207169,0.160038,0,0.261784,-10565.2,-55141.9,-0,56144.9,1.09418e+06
step02_gravity_refstate-mantle.xmf,582,-5.28463e-06,3.22067e-05,0,1.00179e-05,-1.55887e+09,-1.55385e+09,-1.55816e+09,1.33889e+06,0.203489,0.196732,0,0.283039,-10126,-54261,-0,55197.7,1.33889e+06
step02_gravity_refstate-mantle.xmf,583,-9.13625e-06,4.01207e-05,0,1.73655e-05,-1.48206e+09,-1.47548e+09,-1.48084e+09,2.3209e+06,0.182866,0.350641,0,0.395461,-7711.05,-51883,-0,52452.9,2.3209e+06
step02_gravity_refstate-mantle.xmf,584,-8.66455e-06,3.86381e-05,0,1.51921e-05,-1.50655e+09,-1.50023e+09,-1.50539e+09,2.03043e+06,0.187956,0.304499,0,0.357837,-8204.05,-52638.8,-0,53274.3,2.03043e+06
step02_gravity_refstate-mantle.xmf,585,-1.03307e-06,2.47423e-05,0,2.42074e-06,-1.68194e+09,-1.67849e+09,-1.6818e+09,323531,0.219103,0.0481891,0,0.22434,-13133.5,-58072,-0,59538.6,323531
step02_gravity_refstate-mantle.xmf,586,-1.32353e-05,4.82025e-05,0,2.21942e-05,-1.44105e+09,-1.43284e+09,-1.43928e+09,2.96626e+06,0.164355,0.471306,0,0.499141,-6088.22,-50609.4,-0,50974.3,2.96626e+06
step02_gravity_refstate-mantle.xmf,587,-1.83271e-05,5.99803e-05,0,2.80445e-05,-1.38849e+09,-1.37802e+09,-1.38604e+09,3.74815e+06,0.140029,0.637722,0,0.652915,-4502.9,-48981.9,-0,49188.5,3.74815e+06
step02_gravity_refstate-mantle.xmf,588,-2.28913e-05,6.9284e-05,0,2.94665e-05,-1.36889e+09,-1.35657e+09,-1.36583e+09,3.9382e+06,0.122622,0.725855,0,0.736139,-3653.27,-48369.8,-0,48507.5,3.9382e+06
step02_gravity_refstate-mantle.xmf,589,-3.09142e-05,8.73398e-05,0,2.82833e-05,-1.33525e+09,-1.31945e+09,-1.33112e+09,3.78007e+06,0.0916003,0.873589,0,0.878378,-2552.67,-47323.2,-0,47392,3.78007e+06
step02_gravity_refstate-mantle.xmf,590,-3.01003e-05,0.000107012,0,1.04093e-05,-1.29061e+09,-1.27228e+09,-1.28658e+09,1.39121e+06,0.0299471,1.07935,0,1.07976,-999.46,-46000,-0,46010.9,1.39121e+06
step02_gravity_refstate-mantle.xmf,591,-3.02473e-05,0.000108355,0,5.17732e-06,-1.29053e+09,-1.272e+09,-1.28649e+09,691948,0.0150056,1.09086,0,1.09096,-500.036,-46000,-0,46002.7,691948
step02_gravity_refstate-mantle.xmf,592,-3.3609e-05,0.000106476,0,8.34184e-06,-1.30432e+09,-1.28559e+09,-1.29982e+09,1.11489e+06,0.0255069,1.0431,0,1.04341,-762.442,-46398.6,-0,46404.9,1.11489e+06
step02_gravity_refstate-mantle.xmf,593,-3.47005e-05,9.95318e-05,0,1.89917e-05,-1.321e+09,-1.30306e+09,-1.31636e+09,2.53825e+06,0.0592442,0.962376,0,0.964198,-1650.6,-46888.8,-0,46917.9,2.53825e+06
step02_gravity_refstate-mantle.xmf,594,-2.62102e-06,1.5399e-06,0,-4.59508e-05,-1.12377e+09,-1.12321e+09,-1.12342e+09,-6.14133e+06,0.110073,0.999416,0,1.00546,4421.11,-40760.1,0,40999.2,6.14133e+06
step02_gravity_refstate-mantle.xmf,595,-4.27919e-06,1.76238e-06,0,-3.87453e-05,-1.11337e+09,-1.11256e+09,-1.1128e+09,-5.17831e+06,0.128785,0.950007,0,0.958696,4767.65,-40428.3,0,40708.5,5.17831e+06
step02_gravity_refstate-mantle.xmf,596,9.38151e-07,-9.12972e-07,0,-5.50557e-05,-1.13101e+09,-1.13126e+09,-1.13113e+09,-7.35819e+06,0.0962516,1.06638,0,1.07071,4000,-41001.3,0,41196,7.35819e+06
step02_gravity_refstate-mantle.xmf,597,-4.74501e-06,3.07396e-05,0,6.40675e-06,-1.61753e+09,-1.61279e+09,-1.6169e+09,856262,0.210374,0.124756,0,0.244584,-10963.2,-56073,-0,57134.7,856262
step02_gravity_refstate-mantle.xmf,598,-8.27861e-06,3.72913e-05,0,1.30515e-05,-1.53201e+09,-1.52591e+09,-1.5309e+09,1.74433e+06,0.192711,0.260677,0,0.324176,-8687.61,-53424.2,-0,54126,1.74433e+06
step02_gravity_refstate-mantle.xmf,599,-4.80907e-06,3.06939e-05,0,4.49779e-06,-1.65457e+09,-1.64982e+09,-1.65393e+09,601130,0.212658,0.0868383,0,0.229705,-11196.7,-57216.6,-0,58301.8,601130
step02_gravity_refstate-mantle.xmf,600,-3.446e-06,2.8518e-05,0,2.85907e-06,-1.68224e+09,-1.67796e+09,-1.68178e+09,382115,0.216447,0.0554097,0,0.223427,-11945.2,-58074.7,-0,59290.5,382115
step02_gravity_refstate-mantle.xmf,601,-2.08408e-06,2.63956e-05,0,1.39478e-06,-1.71117e+09,-1.70737e+09,-1.71089e+09,186412,0.219073,0.0272233,0,0.220758,-12683.7,-58972.3,-0,60320.8,186412
step02_gravity_refstate-mantle.xmf,602,-7.69978e-07,2.43691e-05,0,-1.33417e-08,-1.74433e+09,-1.74097e+09,-1.74422e+09,-1783.12,0.220363,-4.85043e-19,0,0.220363,-13386.3,-60000,-0,61475.1,1783.12
step02_gravity_refstate-mantle.xmf,603,-1.28583e-05,4.68519e-05,0,2.03978e-05,-1.46019e+09,-1.45221e+09,-1.45848e+09,2.72617e+06,0.168402,0.42969,0,0.461512,-6409.34,-51199.9,-0,51599.5,2.72617e+06
step02_gravity_refstate-mantle.xmf,604,-1.76103e-05,5.73874e-05,0,2.60427e-05,-1.40738e+09,-1.39736e+09,-1.40503e+09,3.48061e+06,0.145327,0.587164,0,0.604881,-4811.89,-49563.6,-0,49796.7,3.48061e+06
step02_gravity_refstate-mantle.xmf,605,-1.6992e-05,5.51858e-05,0,2.41627e-05,-1.42562e+09,-1.41597e+09,-1.42335e+09,3.22934e+06,0.149968,0.540936,0,0.56134,-5111.21,-50125.5,-0,50385.4,3.22934e+06
step02_gravity_refstate-mantle.xmf,606,-1.647e-05,5.3322e-05,0,2.23983e-05,-1.44337e+09,-1.43404e+09,-1.44117e+09,2.99353e+06,0.15405,0.498441,0,0.521704,-5396.54,-50672.5,-0,50959.1,2.99353e+06
step02_gravity_refstate-mantle.xmf,607,-2.88405e-05,8.12026e-05,0,2.85087e-05,-1.35167e+09,-1.33697e+09,-1.34782e+09,3.81018e+06,0.101077,0.814901,0,0.821145,-2827.09,-47828.7,-0,47912.2,3.81018e+06
step02_gravity_refstate-mantle.xmf,608,-2.23469e-05,6.63517e-05,0,2.73545e-05,-1.38736e+09,-1.37551e+09,-1.38438e+09,3.65593e+06,0.127162,0.675446,0,0.687312,-3867.55,-48936.6,-0,49089.2,3.65593e+06
step02_gravity_refstate-mantle.xmf,609,-2.7062e-05,7.61648e-05,0,2.76816e-05,-1.36818e+09,-1.35438e+09,-1.36456e+09,3.69964e+06,0.108633,0.760081,0,0.767805,-3092.77,-48337.4,-0,48436.3,3.69964e+06
step02_gravity_refstate-mantle.xmf,610,-3.4396e-05,9.43796e-05,0,2.20707e-05,-1.3351e+09,-1.31789e+09,-1.3305e+09,2.94975e+06,0.0716099,0.907766,0,0.910586,-1941.69,-47313.3,-0,47353.2,2.94975e+06
step02_gravity_refstate-mantle.xmf,611,-3.0055e-05,0.000108839,0,1.24825e-07,-1.29045e+09,-1.27188e+09,-1.28643e+09,16682.9,3.82997e-06,1.09469,0,1.09469,4.01542e-10,-46000,0,46000,16682.9
step02_gravity_refstate-mantle.xmf,612,-3.37992e-05,0.00010737,0,2.7522e-06,-1.30463e+09,-1.28576e+09,-1.30011e+09,367832,0.00850302,1.04951,0,1.04954,-253.157,-46409.4,-0,46410.1,367832
step02_gravity_refstate-mantle.xmf,613,-3.56447e-05,0.000103376,0,1.19307e-05,-1.31929e+09,-1.30071e+09,-1.31452e+09,1.59454e+06,0.0375594,0.9897,0,0.990413,-1042.14,-46839.5,-0,46851.1,1.59454e+06
step02_gravity_refstate-mantle.xmf,614,-1.15672e-06,6.77238e-06,0,-5.87376e-05,-1.14702e+09,-1.14596e+09,-1.14686e+09,-7.85028e+06,0.0671915,1.06512,0,1.06724,4000,-41501.5,0,41693.8,7.85028e+06
step02_gravity_refstate-mantle.xmf,615,-3.34209e-06,7.73488e-06,0,-4.7859e-05,-1.13943e+09,-1.13795e+09,-1.13899e+09,-6.39636e+06,0.0807771,0.995893,0,0.999164,4430.02,-41255,0,41492.2,6.39636e+06
step02_gravity_refstate-mantle.xmf,616,-7.85111e-06,1.79222e-06,0,-3.14633e-05,-1.10027e+09,-1.09898e+09,-1.09922e+09,-4.20506e+06,0.154087,0.913778,0,0.926678,5045.52,-40000,0,40317,4.20506e+06
step02_gravity_refstate-mantle.xmf,617,-1.24327e-05,4.53012e-05,0,1.83059e-05,-1.48322e+09,-1.4755e+09,-1.48155e+09,2.44659e+06,0.173039,0.38219,0,0.419537,-6798.63,-51909.9,-0,52353.2,2.44659e+06
step02_gravity_refstate-mantle.xmf,618,-7.86132e-06,3.62618e-05,0,1.11053e-05,-1.55846e+09,-1.55257e+09,-1.55741e+09,1.48423e+06,0.196952,0.219495,0,0.294904,-9134.89,-54241.7,-0,55005.6,1.48423e+06
step02_gravity_refstate-mantle.xmf,619,-7.07622e-06,3.43737e-05,0,7.38249e-06,-1.61314e+09,-1.6076e+09,-1.6122e+09,986669,0.204372,0.143948,0,0.249978,-9969.42,-55931.2,-0,56812.7,986669
step02_gravity_refstate-mantle.xmf,620,-7.5437e-06,3.53776e-05,0,9.2089e-06,-1.58573e+09,-1.58e+09,-1.58473e+09,1.23077e+06,0.200687,0.180825,0,0.270135,-9541.77,-55083.9,-0,55904.3,1.23077e+06
step02_gravity_refstate-mantle.xmf,621,-1.17485e-05,4.34399e-05,0,1.61041e-05,-1.50763e+09,-1.50026e+09,-1.50606e+09,2.15232e+06,0.178496,0.332649,0,0.377513,-7276.56,-52663.9,-0,53164.3,2.15232e+06
step02_gravity_refstate-mantle.xmf,622,-1.11209e-05,4.18014e-05,0,1.39801e-05,-1.53268e+09,-1.52561e+09,-1.53119e+09,1.86844e+06,0.183634,0.285755,0,0.339672,-7748.86,-53437.6,-0,53996.5,1.86844e+06
step02_gravity_refstate-mantle.xmf,623,-1.56161e-05,5.11521e-05,0,2.08743e-05,-1.45873e+09,-1.4498e+09,-1.45664e+09,2.78985e+06,0.158899,0.459355,0,0.486061,-5739.08,-51147.1,-0,51468,2.78985e+06
step02_gravity_refstate-mantle.xmf,624,-2.14994e-05,6.3618e-05,0,2.55924e-05,-1.40662e+09,-1.39525e+09,-1.40375e+09,3.42042e+06,0.132116,0.62328,0,0.637128,-4133.38,-49530.2,-0,49702.4,3.42042e+06
step02_gravity_refstate-mantle.xmf,625,-2.5504e-05,7.19486e-05,0,2.67196e-05,-1.3827e+09,-1.36967e+09,-1.37929e+09,3.57108e+06,0.115241,0.71266,0,0.721918,-3361.17,-48785.7,-0,48901.3,3.57108e+06
step02_gravity_refstate-mantle.xmf,626,-3.30344e-05,8.85299e-05,0,2.38052e-05,-1.35129e+09,-1.33504e+09,-1.34688e+09,3.18157e+06,0.0824382,0.848936,0,0.852929,-2225.3,-47807.6,-0,47859.3,3.18157e+06
step02_gravity_refstate-mantle.xmf,627,-3.43614e-05,0.000106952,0,-3.25539e-06,-1.30766e+09,-1.28877e+09,-1.30307e+09,-435083,-0.0100511,1.03968,-0,1.03973,293.655,-46498.1,0,46499,435083
step02_gravity_refstate-mantle.xmf,628,-3.62255e-05,0.000105189,0,5.64931e-06,-1.31863e+09,-1.29973e+09,-1.31379e+09,755030,0.0181058,1.00321,0,1.00337,-501.369,-46820.1,-0,46822.8,755030
step02_gravity_refstate-mantle.xmf,629,-3.64759e-05,9.91613e-05,0,1.53534e-05,-1.33469e+09,-1.31656e+09,-1.32981e+09,2.05198e+06,0.0501975,0.933899,0,0.935247,-1338.82,-47299,-0,47317.9,2.05198e+06
step02_gravity_refstate-mantle.xmf,630,-3.68792e-06,1.3437e-05,0,-5.06339e-05,-1.15556e+09,-1.15327e+09,-1.15507e+09,-6.76722e+06,0.0508025,0.996364,0,0.997658,4393.76,-41765.5,0,41996,6.76722e+06
step02_gravity_refstate-mantle.xmf,631,-3.09795e-06,1.58251e-05,0,-6.07298e-05,-1.16284e+09,-1.16031e+09,-1.16243e+09,-8.11653e+06,0.038466,1.05949,0,1.06019,4000,-42000.5,0,42190.6,8.11653e+06
step02_gravity_refstate-mantle.xmf,632,-8.05857e-06,6.4611e-06,0,-3.18735e-05,-1.11512e+09,-1.11318e+09,-1.11404e+09,-4.2599e+06,0.122886,0.876882,0,0.885451,5324.81,-40469.2,0,40818,4.2599e+06
step02_gravity_refstate-mantle.xmf,633,-5.67187e-06,8.43948e-06,0,-3.85735e-05,-1.13137e+09,-1.12948e+09,-1.13061e+09,-5.15535e+06,0.0940599,0.921739,0,0.926526,4952.88,-40992.1,0,41290.2,5.15535e+06
step02_gravity_refstate-mantle.xmf,634,-2.99952e-05,0.000108414,0,-5.06324e-06,-1.29047e+09,-1.27197e+09,-1.28646e+09,-676702,-0.0150073,1.09086,-0,1.09096,500.036,-46000,0,46002.7,676702
step02_gravity_refstate-mantle.xmf,635,-1.13248e-05,6.21401e-06,0,-2.70732e-05,-1.10066e+09,-1.09831e+09,-1.09914e+09,-3.61834e+06,0.148585,0.846426,0,0.859368,5604.1,-40000,0,40390.7,3.61834e+06
step02_gravity_refstate-mantle.xmf,636,-1.39487e-05,9.4376e-06,0,-2.32338e-05,-1.10096e+09,-1.09783e+09,-1.09909e+09,-3.1052e+06,0.141018,0.782717,0,0.795319,6190.26,-40000,0,40476.2,3.1052e+06
step02_gravity_refstate-mantle.xmf,637,-1.01222e-05,9.18454e-06,0,-2.65543e-05,-1.11592e+09,-1.11334e+09,-1.11457e+09,-3.54898e+06,0.116665,0.810655,0,0.819006,5887.65,-40487.1,0,40912.9,3.54898e+06
step02_gravity_refstate-mantle.xmf,638,-6.73509e-06,3.36593e-05,0,5.79897e-06,-1.63875e+09,-1.63335e+09,-1.63785e+09,775032,0.207144,0.112482,0,0.235714,-10301.5,-56722.6,-0,57650.5,775032
step02_gravity_refstate-mantle.xmf,639,-1.05799e-05,4.03365e-05,0,1.1943e-05,-1.55761e+09,-1.55081e+09,-1.5562e+09,1.59618e+06,0.188324,0.242643,0,0.307151,-8198.33,-54207.6,-0,54824,1.59618e+06
step02_gravity_refstate-mantle.xmf,640,-6.00843e-06,3.23258e-05,0,3.1217e-06,-1.68449e+09,-1.67937e+09,-1.68369e+09,417216,0.211326,0.0606789,0,0.219865,-10851,-58136.9,-0,59140.9,417216
step02_gravity_refstate-mantle.xmf,641,-4.85077e-06,3.06081e-05,0,1.58236e-06,-1.71266e+09,-1.70792e+09,-1.71201e+09,211483,0.214678,0.0303801,0,0.216817,-11411.3,-59010.3,-0,60103.5,211483
step02_gravity_refstate-mantle.xmf,642,-3.44383e-06,2.85049e-05,0,-1.74489e-08,-1.74456e+09,-1.74029e+09,-1.7441e+09,-2332.05,0.217594,-5.26555e-19,0,0.217594,-12072.3,-60000,-0,61202.5,2332.05
step02_gravity_refstate-mantle.xmf,643,-1.6263e-05,5.1186e-05,0,1.88207e-05,-1.48247e+09,-1.47346e+09,-1.4803e+09,2.51539e+06,0.159133,0.418807,0,0.44802,-5825.1,-51876.3,-0,52202.3,2.51539e+06
step02_gravity_refstate-mantle.xmf,644,-2.04765e-05,6.05779e-05,0,2.37079e-05,-1.42657e+09,-1.41574e+09,-1.42384e+09,3.16856e+06,0.137676,0.56997,0,0.586362,-4456.73,-50145.5,-0,50343.1,3.16856e+06
step02_gravity_refstate-mantle.xmf,645,-1.961e-05,5.79894e-05,0,2.18674e-05,-1.44656e+09,-1.43619e+09,-1.44394e+09,2.92257e+06,0.142668,0.51978,0,0.539004,-4774.9,-50762.1,-0,50986.2,2.92257e+06
step02_gravity_refstate-mantle.xmf,646,-1.86084e-05,5.53989e-05,0,2.01425e-05,-1.46635e+09,-1.45645e+09,-1.46386e+09,2.69204e+06,0.14821,0.470802,0,0.493579,-5138.95,-51373.3,-0,51629.7,2.69204e+06
step02_gravity_refstate-mantle.xmf,647,-3.1184e-05,8.28608e-05,0,2.42407e-05,-1.36837e+09,-1.35312e+09,-1.3642e+09,3.23977e+06,0.0916546,0.790365,0,0.795662,-2509.52,-48332.9,-0,48398,3.23977e+06
step02_gravity_refstate-mantle.xmf,648,-2.60825e-05,7.1031e-05,0,2.41859e-05,-1.40292e+09,-1.38994e+09,-1.39943e+09,3.23245e+06,0.114162,0.668313,0,0.677993,-3365.62,-49404,-0,49518.5,3.23245e+06
step02_gravity_refstate-mantle.xmf,649,-2.93093e-05,7.7697e-05,0,2.3938e-05,-1.38561e+09,-1.37131e+09,-1.38169e+09,3.19931e+06,0.0998314,0.734015,0,0.740773,-2803.97,-48864.9,-0,48945.3,3.19931e+06
step02_gravity_refstate-mantle.xmf,650,-3.60273e-05,9.42433e-05,0,1.78933e-05,-1.35037e+09,-1.33296e+09,-1.34556e+09,2.39143e+06,0.0614302,0.878127,0,0.880273,-1618.14,-47773.8,-0,47801.1,2.39143e+06
step02_gravity_refstate-mantle.xmf,651,-3.61096e-05,0.000105782,0,4.03977e-07,-1.31762e+09,-1.29866e+09,-1.3128e+09,53991.6,0.00148653,1.00971,0,1.00971,-41.295,-46791.2,-0,46791.2,53991.6
step02_gravity_refstate-mantle.xmf,652,-3.75581e-05,0.00010212,0,8.55209e-06,-1.3338e+09,-1.31513e+09,-1.32878e+09,1.14299e+06,0.0280305,0.952454,0,0.952867,-741.715,-47271.8,-0,47277.6,1.14299e+06
step02_gravity_refstate-mantle.xmf,653,-4.86527e-06,1.33881e-05,0,-4.19261e-05,-1.15029e+09,-1.14785e+09,-1.14964e+09,-5.60342e+06,0.059015,0.932627,0,0.934492,4830.22,-41594.6,0,41874.1,5.60342e+06
step02_gravity_refstate-mantle.xmf,654,-4.34866e-06,2.04107e-05,0,-5.16159e-05,-1.1711e+09,-1.1678e+09,-1.17052e+09,-6.89846e+06,0.0221839,0.987875,0,0.988124,4394.58,-42259.1,0,42487,6.89846e+06
step02_gravity_refstate-mantle.xmf,655,-3.36134e-05,0.000106218,0,-8.62349e-06,-1.30567e+09,-1.28698e+09,-1.30118e+09,-1.15253e+06,-0.0267656,1.03803,-0,1.03838,793.082,-46439.7,0,46446.5,1.15253e+06
step02_gravity_refstate-mantle.xmf,656,-2.9828e-05,0.000107066,0,-1.02929e-05,-1.29054e+09,-1.27225e+09,-1.28656e+09,-1.37565e+06,-0.0299497,1.07935,-0,1.07977,999.46,-46000,0,46010.9,1.37565e+06
step02_gravity_refstate-mantle.xmf,657,-1.16226e-05,1.13078e-05,0,-2.18602e-05,-1.11646e+09,-1.11339e+09,-1.1149e+09,-2.92161e+06,0.10922,0.745917,0,0.753871,6503.98,-40499.1,0,41018,2.92161e+06
step02_gravity_refstate-mantle.xmf,658,3.01699e-06,3.89844e-06,0,-5.76803e-09,-1.16868e+09,-1.16856e+09,-1.16908e+09,-770.897,5.64101e-19,0.0350434,0,0.0350434,40000,-42191.3,0,58138.7,770.897
step02_gravity_refstate-mantle.xmf,659,1.87639e-06,4.28142e-06,0,-1.45971e-08,-1.09796e+09,-1.09764e+09,-1.09821e+09,-1950.91,-1.50535e-19,0.0440372,-0,0.0440372,40000,-40000,0,56568.5,1950.91
step02_gravity_refstate-mantle.xmf,660,2.64772e-06,4.04927e-06,0,9.86061e-08,-1.14867e+09,-1.14848e+09,-1.14902e+09,13178.7,-0.00420277,0.0380038,-0,0.0382354,38424.5,-41571,0,56609.1,13178.7
step02_gravity_refstate-mantle.xmf,661,1.8005e-06,4.34956e-06,0,4.06439e-08,-1.09797e+09,-1.09763e+09,-1.09821e+09,5432.06,-0.00405719,0.0451305,-0,0.0453125,37792.8,-40000,0,55030,5432.06
step02_gravity_refstate-mantle.xmf,662,-1.51132e-05,4.85291e-05,0,1.65582e-05,-1.50849e+09,-1.49998e+09,-1.50647e+09,2.213e+06,0.166056,0.361129,0,0.397478,-6351.55,-52680.9,-0,53062.4,2.213e+06
step02_gravity_refstate-mantle.xmf,663,-7.91311e-06,3.5249e-05,0,4.30749e-06,-1.66881e+09,-1.66304e+09,-1.66775e+09,575696,0.205259,0.0837702,0,0.221695,-9999.4,-57647.4,-0,58508.2,575696
step02_gravity_refstate-mantle.xmf,664,-9.12082e-06,3.72189e-05,0,6.24251e-06,-1.6397e+09,-1.6335e+09,-1.63848e+09,834311,0.199835,0.123041,0,0.234677,-9378.78,-56745,-0,57514.9,834311
step02_gravity_refstate-mantle.xmf,665,-1.02671e-05,3.94905e-05,0,1.00408e-05,-1.58438e+09,-1.57773e+09,-1.583e+09,1.34195e+06,0.191834,0.202023,0,0.278592,-8548.55,-55034.3,-0,55694.3,1.34195e+06
step02_gravity_refstate-mantle.xmf,666,-9.92976e-06,3.86561e-05,0,8.12659e-06,-1.61234e+09,-1.60585e+09,-1.61101e+09,1.08612e+06,0.195248,0.162026,0,0.253721,-8896.62,-55898.2,-0,56601.8,1.08612e+06
step02_gravity_refstate-mantle.xmf,667,-1.42276e-05,4.64579e-05,0,1.44693e-05,-1.53357e+09,-1.52546e+09,-1.53166e+09,1.93383e+06,0.171941,0.310365,0,0.35481,-6827.43,-53456.1,-0,53890.4,1.93383e+06
step02_gravity_refstate-mantle.xmf,668,-1.33817e-05,4.46091e-05,0,1.24922e-05,-1.55823e+09,-1.55048e+09,-1.55644e+09,1.66959e+06,0.177541,0.263627,0,0.317836,-7297.36,-54218.9,-0,54707.7,1.66959e+06
step02_gravity_refstate-mantle.xmf,669,-2.4325e-05,6.65194e-05,0,2.25118e-05,-1.42607e+09,-1.41393e+09,-1.42282e+09,3.0087e+06,0.121874,0.602545,0,0.614747,-3748.27,-50119.3,-0,50259.3,3.0087e+06
step02_gravity_refstate-mantle.xmf,670,-3.46844e-05,8.87041e-05,0,1.94041e-05,-1.36815e+09,-1.35165e+09,-1.36351e+09,2.59335e+06,0.0717374,0.81771,0,0.820851,-1904.37,-48317.6,-0,48355.1,2.59335e+06
step02_gravity_refstate-mantle.xmf,671,-3.709e-05,0.000104365,0,-3.59696e-06,-1.32542e+09,-1.30652e+09,-1.32046e+09,-480733,-0.0114822,0.984198,-0,0.984265,309.864,-47021.9,0,47022.9,480733
step02_gravity_refstate-mantle.xmf,672,-3.79382e-05,0.000103545,0,1.84377e-06,-1.33177e+09,-1.31286e+09,-1.3267e+09,246419,0.00632361,0.965534,0,0.965555,-167.468,-47210.2,-0,47210.5,246419
step02_gravity_refstate-mantle.xmf,673,-3.79012e-05,9.80095e-05,0,1.13421e-05,-1.35008e+09,-1.33191e+09,-1.34501e+09,1.51587e+06,0.0389244,0.897759,0,0.898603,-1009.54,-47761.8,-0,47772.4,1.51587e+06
step02_gravity_refstate-mantle.xmf,674,-4.43406e-06,1.75142e-05,0,-4.46615e-05,-1.16371e+09,-1.16078e+09,-1.16312e+09,-5.96901e+06,0.0344444,0.942441,0,0.94307,4718.24,-42022.7,0,42286.7,5.96901e+06
step02_gravity_refstate-mantle.xmf,675,-4.9613e-06,2.49581e-05,0,-6.16522e-05,-1.17868e+09,-1.17468e+09,-1.17801e+09,-8.23982e+06,0.0103357,1.0493,0,1.04935,4000,-42500.6,0,42688.4,8.23982e+06
step02_gravity_refstate-mantle.xmf,676,-7.69921e-06,1.07726e-05,0,-3.03886e-05,-1.13126e+09,-1.12879e+09,-1.13023e+09,-4.06144e+06,0.0903362,0.838395,0,0.843248,5605.3,-40981.2,0,41362.8,4.06144e+06
step02_gravity_refstate-mantle.xmf,677,-5.92412e-06,1.36416e-05,0,-3.42666e-05,-1.14768e+09,-1.14506e+09,-1.14689e+09,-4.57974e+06,0.061296,0.863457,0,0.86563,5351.4,-41507.7,0,41851.2,4.57974e+06
step02_gravity_refstate-mantle.xmf,678,-3.57978e-05,0.000104889,0,-7.26833e-06,-1.31778e+09,-1.29898e+09,-1.313e+09,-971412,-0.0232352,1.00345,-0,1.00372,646.191,-46795.9,0,46800.4,971412
step02_gravity_refstate-mantle.xmf,679,-3.32034e-05,0.000104339,0,-1.38202e-05,-1.30563e+09,-1.28724e+09,-1.30119e+09,-1.84707e+06,-0.0421553,1.02464,-0,1.02551,1254.4,-46436.3,0,46453.3,1.84707e+06
step02_gravity_refstate-mantle.xmf,680,-2.96101e-05,0.000104728,0,-1.56145e-05,-1.29069e+09,-1.27274e+09,-1.28673e+09,-2.08688e+06,-0.0447626,1.06016,-0,1.0611,1498.34,-46000,0,46024.4,2.08688e+06
step02_gravity_refstate-mantle.xmf,681,-1.4893e-05,1.13789e-05,0,-1.99193e-05,-1.101e+09,-1.09749e+09,-1.09901e+09,-2.66221e+06,0.132125,0.722637,0,0.734616,6805.63,-40000,0,40574.8,2.66221e+06
step02_gravity_refstate-mantle.xmf,682,-8.85894e-06,1.18384e-05,0,-2.47546e-05,-1.13091e+09,-1.12814e+09,-1.12972e+09,-3.30845e+06,0.0862798,0.771332,0,0.776142,6203.51,-40965.3,0,41432.3,3.30845e+06
step02_gravity_refstate-mantle.xmf,683,3.51323e-06,3.72378e-06,0,1.75558e-07,-1.19836e+09,-1.19833e+09,-1.19883e+09,23463.3,-0.00615767,0.0321285,-0,0.0327133,38257.1,-43110.8,0,57638.1,23463.3
step02_gravity_refstate-mantle.xmf,684,2.62029e-06,4.11375e-06,0,2.12852e-07,-1.15208e+09,-1.15189e+09,-1.15243e+09,28447.7,-0.00842589,0.0390822,-0,0.0399802,36872.8,-41676.5,0,55646.5,28447.7
step02_gravity_refstate-mantle.xmf,685,-1.25461e-05,4.29484e-05,0,1.086e-05,-1.57891e+09,-1.57149e+09,-1.57723e+09,1.45144e+06,0.182631,0.225842,0,0.290445,-7734.69,-54859.1,-0,55401.6,1.45144e+06
step02_gravity_refstate-mantle.xmf,686,-7.94199e-06,3.52087e-05,0,2.05078e-06,-1.70866e+09,-1.70289e+09,-1.7076e+09,274087,0.206428,0.039594,0,0.210191,-10124.3,-58878,-0,59742.1,274087
step02_gravity_refstate-mantle.xmf,687,-6.39149e-06,3.29258e-05,0,-2.02868e-08,-1.74484e+09,-1.73958e+09,-1.74398e+09,-2711.33,0.2113,-6.79997e-19,0,0.2113,-10791.4,-60000,-0,60962.7,2711.33
step02_gravity_refstate-mantle.xmf,688,-1.85791e-05,5.36131e-05,0,1.63783e-05,-1.50974e+09,-1.50009e+09,-1.50726e+09,2.18896e+06,0.150954,0.387285,0,0.415664,-5458.27,-52709.4,-0,52991.2,2.18896e+06
step02_gravity_refstate-mantle.xmf,689,-2.30003e-05,6.31021e-05,0,2.09362e-05,-1.44691e+09,-1.4354e+09,-1.44383e+09,2.79813e+06,0.12818,0.546971,0,0.56179,-4094.87,-50763.2,-0,50928.1,2.79813e+06
step02_gravity_refstate-mantle.xmf,690,-2.17355e-05,6.00194e-05,0,1.93558e-05,-1.468e+09,-1.45707e+09,-1.46509e+09,2.5869e+06,0.134472,0.493248,0,0.51125,-4463.36,-51415.2,-0,51608.6,2.5869e+06
step02_gravity_refstate-mantle.xmf,691,-2.00482e-05,5.65842e-05,0,1.7957e-05,-1.4884e+09,-1.47816e+09,-1.48572e+09,2.39995e+06,0.143118,0.439275,0,0.462002,-4963.79,-52047.9,-0,52284.1,2.39995e+06
step02_gravity_refstate-mantle.xmf,692,-3.29447e-05,8.34732e-05,0,2.00591e-05,-1.38553e+09,-1.36997e+09,-1.38112e+09,2.6809e+06,0.0808585,0.760697,0,0.764982,-2193.65,-48852.8,-0,48902,2.6809e+06
step02_gravity_refstate-mantle.xmf,693,-3.04252e-05,7.73974e-05,0,2.05331e-05,-1.40595e+09,-1.39154e+09,-1.40188e+09,2.74425e+06,0.0930626,0.693493,0,0.69971,-2625.56,-49484.9,-0,49554.5,2.74425e+06
step02_gravity_refstate-mantle.xmf,694,-2.83236e-05,7.25261e-05,0,2.01013e-05,-1.42576e+09,-1.41228e+09,-1.42198e+09,2.68654e+06,0.10247,0.633264,0,0.641501,-3008.6,-50098.5,-0,50188.8,2.68654e+06
step02_gravity_refstate-mantle.xmf,695,-3.72334e-05,9.31424e-05,0,1.35369e-05,-1.36779e+09,-1.35037e+09,-1.36282e+09,1.80921e+06,0.0494826,0.839349,0,0.840806,-1285.15,-48301.1,-0,48318.2,1.80921e+06
step02_gravity_refstate-mantle.xmf,696,-3.88299e-05,0.000100219,0,4.27729e-06,-1.34897e+09,-1.33038e+09,-1.34378e+09,571660,0.0145199,0.911557,0,0.911673,-373.914,-47727,-0,47728.4,571660
step02_gravity_refstate-mantle.xmf,697,-4.73965e-06,1.76166e-05,0,-3.78233e-05,-1.16382e+09,-1.16084e+09,-1.16319e+09,-5.05509e+06,0.0324366,0.883821,0,0.884416,5135,-42024.4,0,42337,5.05509e+06
step02_gravity_refstate-mantle.xmf,698,-4.96758e-06,2.73831e-05,0,-5.17812e-05,-1.18656e+09,-1.18224e+09,-1.1859e+09,-6.92056e+06,-0.00546385,0.975323,-0,0.975338,4399.66,-42750.3,0,42976.1,6.92056e+06
step02_gravity_refstate-mantle.xmf,699,-4.20197e-06,2.24437e-05,0,-4.29434e-05,-1.17919e+09,-1.17563e+09,-1.17863e+09,-5.73938e+06,0.00564122,0.912638,0,0.912655,4855.83,-42515.1,0,42791.5,5.73938e+06
step02_gravity_refstate-mantle.xmf,700,-6.68816e-06,3.41933e-05,0,-6.14718e-05,-1.19445e+09,-1.18899e+09,-1.19356e+09,-8.21571e+06,-0.0166775,1.03452,-0,1.03465,4000,-43000,0,43185.6,8.21571e+06
step02_gravity_refstate-mantle.xmf,701,-3.5557e-05,0.000103407,0,-1.1891e-05,-1.31881e+09,-1.30023e+09,-1.31405e+09,-1.58923e+06,-0.0378512,0.990872,-0,0.991595,1052.38,-46825.3,0,46837.1,1.58923e+06
step02_gravity_refstate-mantle.xmf,702,-3.72488e-05,0.000102307,0,-8.94867e-06,-1.33121e+09,-1.31256e+09,-1.32624e+09,-1.19599e+06,-0.0293599,0.959561,-0,0.96001,781.977,-47194.5,0,47201,1.19599e+06
step02_gravity_refstate-mantle.xmf,703,-3.27315e-05,0.000101209,0,-1.93325e-05,-1.30662e+09,-1.28871e+09,-1.30224e+09,-2.58379e+06,-0.0579761,1.00159,-0,1.00326,1726.57,-46462,0,46494.1,2.58379e+06
step02_gravity_refstate-mantle.xmf,704,-1.15523e-05,1.26888e-05,0,-1.80546e-05,-1.12039e+09,-1.11715e+09,-1.11884e+09,-2.413e+06,0.0947498,0.681871,0,0.688423,7175.31,-40624.5,0,41253.3,2.413e+06
step02_gravity_refstate-mantle.xmf,705,-9.6129e-06,1.25747e-05,0,-2.0591e-05,-1.13017e+09,-1.12721e+09,-1.12889e+09,-2.75198e+06,0.0825036,0.71548,0,0.720221,6763.95,-40939.4,0,41494.4,2.75198e+06
step02_gravity_refstate-mantle.xmf,706,4.29149e-06,3.37833e-06,0,-6.19347e-09,-1.23939e+09,-1.23951e+09,-1.23996e+09,-827.757,9.63815e-19,0.0270646,0,0.0270646,40000,-44382.5,0,59747.9,827.757
step02_gravity_refstate-mantle.xmf,707,1.59617e-06,4.51972e-06,0,7.79715e-08,-1.098e+09,-1.09761e+09,-1.09821e+09,10420.9,-0.00763071,0.0482602,-0,0.0488597,35691.6,-40000,0,53608.7,10420.9
step02_gravity_refstate-mantle.xmf,708,-1.74448e-05,5.11717e-05,0,1.44961e-05,-1.53431e+09,-1.52514e+09,-1.53198e+09,1.9374e+06,0.157601,0.334302,0,0.369589,-5923.29,-53469.8,-0,53796.8,1.9374e+06
step02_gravity_refstate-mantle.xmf,709,-1.09992e-05,3.97813e-05,0,4.89196e-06,-1.66583e+09,-1.65904e+09,-1.66436e+09,653810,0.194125,0.0983309,0,0.217608,-8821.29,-57546.2,-0,58218.4,653810
step02_gravity_refstate-mantle.xmf,710,-1.21501e-05,4.16427e-05,0,6.72864e-06,-1.63922e+09,-1.63203e+09,-1.63759e+09,899283,0.188136,0.137959,0,0.233298,-8277.93,-56721.3,-0,57322.1,899283
step02_gravity_refstate-mantle.xmf,711,-1.32285e-05,4.35613e-05,0,8.97877e-06,-1.60755e+09,-1.59996e+09,-1.60579e+09,1.20001e+06,0.181718,0.187994,0,0.261463,-7720.26,-55740.9,-0,56273,1.20001e+06
step02_gravity_refstate-mantle.xmf,712,-1.63946e-05,4.89914e-05,0,1.2601e-05,-1.55945e+09,-1.55072e+09,-1.55726e+09,1.68413e+06,0.164048,0.283634,0,0.327658,-6393.76,-54247.8,-0,54623.3,1.68413e+06
step02_gravity_refstate-mantle.xmf,713,-1.52319e-05,4.67978e-05,0,1.07524e-05,-1.5844e+09,-1.57611e+09,-1.58236e+09,1.43706e+06,0.171084,0.235374,0,0.290982,-6916.01,-55020.5,-0,55453.4,1.43706e+06
step02_gravity_refstate-mantle.xmf,714,-9.89209e-06,3.80719e-05,0,3.31933e-06,-1.68967e+09,-1.68326e+09,-1.68835e+09,443628,0.19927,0.0655418,0,0.209772,-9323.64,-58285.8,-0,59026.8,443628
step02_gravity_refstate-mantle.xmf,715,-2.65576e-05,6.83882e-05,0,1.91424e-05,-1.4468e+09,-1.43411e+09,-1.44325e+09,2.55838e+06,0.110392,0.574404,0,0.584915,-3375.1,-50749.6,-0,50861.7,2.55838e+06
step02_gravity_refstate-mantle.xmf,716,-3.58245e-05,8.80027e-05,0,1.50807e-05,-1.38622e+09,-1.36967e+09,-1.38143e+09,2.01553e+06,0.0597315,0.780085,0,0.782369,-1579.72,-48866.4,-0,48892,2.01553e+06
step02_gravity_refstate-mantle.xmf,717,-3.88583e-05,0.000100995,0,-3.6336e-06,-1.34507e+09,-1.32638e+09,-1.33988e+09,-485631,-0.0123305,0.923925,-0,0.924007,318.83,-47608.4,0,47609.5,485631
step02_gravity_refstate-mantle.xmf,718,-3.87668e-05,9.60066e-05,0,6.9571e-06,-1.367e+09,-1.34899e+09,-1.36182e+09,929817,0.0252409,0.854882,0,0.855254,-647.003,-48273.7,-0,48278.1,929817
step02_gravity_refstate-mantle.xmf,719,-8.43604e-06,4.333e-05,0,-6.04951e-05,-1.21024e+09,-1.20332e+09,-1.20912e+09,-8.08517e+06,-0.0421486,1.01515,-0,1.01602,4000,-43499.4,0,43682.9,8.08517e+06
step02_gravity_refstate-mantle.xmf,720,-5.40008e-06,3.44197e-05,0,-5.10809e-05,-1.20277e+09,-1.19745e+09,-1.20205e+09,-6.82697e+06,-0.0331451,0.957851,-0,0.958424,4409.06,-43266,0,43490.1,6.82697e+06
step02_gravity_refstate-mantle.xmf,721,-6.66069e-06,1.38751e-05,0,-2.77244e-05,-1.14667e+09,-1.14392e+09,-1.14578e+09,-3.70537e+06,0.0597117,0.794948,0,0.797188,5928.29,-41472.1,0,41893.7,3.70537e+06
step02_gravity_refstate-mantle.xmf,722,-4.85844e-06,1.67963e-05,0,-3.08633e-05,-1.16305e+09,-1.16016e+09,-1.1624e+09,-4.12488e+06,0.0313764,0.816289,0,0.816892,5675.15,-41997.6,0,42379.3,4.12488e+06
step02_gravity_refstate-mantle.xmf,723,-2.9574e-05,0.000101123,0,-2.12448e-05,-1.29098e+09,-1.27351e+09,-1.28703e+09,-2.83937e+06,-0.0594021,1.0332,-0,1.03491,1997.54,-46000,0,46043.4,2.83937e+06
step02_gravity_refstate-mantle.xmf,724,-3.49488e-05,0.000101185,0,-1.67434e-05,-1.3186e+09,-1.30041e+09,-1.31393e+09,-2.23775e+06,-0.0520728,0.977694,-0,0.97908,1457.9,-46817.4,0,46840.1,2.23775e+06
step02_gravity_refstate-mantle.xmf,725,-1.50953e-05,1.25632e-05,0,-1.70593e-05,-1.10095e+09,-1.09725e+09,-1.09893e+09,-2.27998e+06,0.122424,0.666057,0,0.677215,7451.82,-40000,0,40688.2,2.27998e+06
step02_gravity_refstate-mantle.xmf,726,-7.28682e-06,1.3625e-05,0,-2.25624e-05,-1.14491e+09,-1.14212e+09,-1.14394e+09,-3.01547e+06,0.0587888,0.731869,0,0.734226,6531.92,-41413,0,41924.9,3.01547e+06
step02_gravity_refstate-mantle.xmf,727,4.81893e-06,3.18249e-06,0,2.83241e-07,-1.27e+09,-1.27022e+09,-1.27064e+09,37855.2,-0.010371,0.0247289,-0,0.0268156,37856.2,-45331.2,0,59059.4,37855.2
step02_gravity_refstate-mantle.xmf,728,3.65345e-06,3.736e-06,0,3.92596e-07,-1.21132e+09,-1.21131e+09,-1.21181e+09,52470.5,-0.0134815,0.0325141,-0,0.0351983,36389.2,-43512.3,0,56723,52470.5
step02_gravity_refstate-mantle.xmf,729,2.47054e-06,4.29916e-06,0,3.72227e-07,-1.15807e+09,-1.15783e+09,-1.1584e+09,49748.1,-0.014468,0.0421913,-0,0.0446031,34685.2,-41861,0,54363.6,49748.1
step02_gravity_refstate-mantle.xmf,730,-1.11965e-05,3.98882e-05,0,1.69728e-06,-1.71769e+09,-1.71086e+09,-1.71619e+09,226841,0.194696,0.0340547,0,0.197652,-8898.6,-59147.1,-0,59812.8,226841
step02_gravity_refstate-mantle.xmf,731,-9.54518e-06,3.75261e-05,0,-8.4934e-09,-1.74514e+09,-1.73885e+09,-1.74386e+09,-1135.14,0.201315,-5.73428e-19,0,0.201315,-9538.96,-60000,-0,60753.5,1135.14
step02_gravity_refstate-mantle.xmf,732,-2.06764e-05,5.58051e-05,0,1.39648e-05,-1.5351e+09,-1.52488e+09,-1.53234e+09,1.8664e+06,0.140603,0.356692,0,0.383403,-5033.17,-53484.3,-0,53720.6,1.8664e+06
step02_gravity_refstate-mantle.xmf,733,-2.20342e-05,5.85435e-05,0,1.54461e-05,-1.51177e+09,-1.501e+09,-1.50882e+09,2.06437e+06,0.133,0.409893,0,0.430931,-4580.87,-52761.5,-0,52960,2.06437e+06
step02_gravity_refstate-mantle.xmf,734,-2.50291e-05,6.48675e-05,0,1.79821e-05,-1.46799e+09,-1.45597e+09,-1.46464e+09,2.40331e+06,0.117542,0.518641,0,0.531794,-3737.78,-51405.2,-0,51540.9,2.40331e+06
step02_gravity_refstate-mantle.xmf,735,-2.35104e-05,6.15845e-05,0,1.6765e-05,-1.48956e+09,-1.47819e+09,-1.48642e+09,2.24064e+06,0.125156,0.463824,0,0.480413,-4142.29,-52073.5,-0,52238,2.24064e+06
step02_gravity_refstate-mantle.xmf,736,-3.39407e-05,8.27771e-05,0,1.60869e-05,-1.40562e+09,-1.39002e+09,-1.40108e+09,2.15001e+06,0.0702464,0.719328,0,0.72275,-1914.73,-49464.9,-0,49501.9,2.15001e+06
step02_gravity_refstate-mantle.xmf,737,-3.1862e-05,7.77663e-05,0,1.65346e-05,-1.42579e+09,-1.41114e+09,-1.42153e+09,2.20985e+06,0.0806488,0.658374,0,0.663295,-2282.29,-50089,-0,50141,2.20985e+06
step02_gravity_refstate-mantle.xmf,738,-2.99682e-05,7.34068e-05,0,1.63763e-05,-1.44615e+09,-1.43233e+09,-1.44214e+09,2.18869e+06,0.0896302,0.600325,0,0.606979,-2636.83,-50719.4,-0,50787.9,2.18869e+06
step02_gravity_refstate-mantle.xmf,739,-3.78868e-05,9.14347e-05,0,9.17836e-06,-1.38555e+09,-1.36826e+09,-1.38048e+09,1.22669e+06,0.0358453,0.797383,0,0.798188,-930.717,-48840.8,-0,48849.6,1.22669e+06
step02_gravity_refstate-mantle.xmf,740,-3.92756e-05,9.72198e-05,0,-3.79535e-08,-1.3654e+09,-1.34715e+09,-1.36015e+09,-5072.49,-0.000211301,0.864183,-0,0.864183,5.40554,-48223.8,0,48223.8,5072.49
step02_gravity_refstate-mantle.xmf,741,-1.01106e-05,5.22876e-05,0,-5.86535e-05,-1.22605e+09,-1.21771e+09,-1.2247e+09,-7.83904e+06,-0.0655274,0.991199,-0,0.993362,4000,-43999.5,0,44180.9,7.83904e+06
step02_gravity_refstate-mantle.xmf,742,-6.08118e-06,4.18471e-05,0,-5.05158e-05,-1.21861e+09,-1.2122e+09,-1.2178e+09,-6.75144e+06,-0.0580378,0.942575,-0,0.94436,4382.94,-43769.8,0,43988.7,6.75144e+06
step02_gravity_refstate-mantle.xmf,743,-3.48548e-06,2.07532e-05,0,-3.41416e-05,-1.17944e+09,-1.1762e+09,-1.17898e+09,-4.56302e+06,0.00298536,0.836311,0,0.836316,5430.11,-42523.4,0,42868.7,4.56302e+06
step02_gravity_refstate-mantle.xmf,744,-4.0431e-06,2.82904e-05,0,-4.46194e-05,-1.19368e+09,-1.18936e+09,-1.19314e+09,-5.96338e+06,-0.0194684,0.917434,-0,0.917641,4740.49,-42978.7,0,43239.3,5.96338e+06
step02_gravity_refstate-mantle.xmf,745,-3.624e-05,9.94713e-05,0,-1.54056e-05,-1.3322e+09,-1.31406e+09,-1.32736e+09,-2.05896e+06,-0.0504173,0.940824,-0,0.942174,1352.14,-47224.5,0,47243.8,2.05896e+06
step02_gravity_refstate-mantle.xmf,746,-3.78606e-05,9.85758e-05,0,-1.11302e-05,-1.34714e+09,-1.32891e+09,-1.34208e+09,-1.48755e+06,-0.0380721,0.906945,-0,0.907744,989.803,-47672.9,0,47683.2,1.48755e+06
step02_gravity_refstate-mantle.xmf,747,-2.83933e-05,9.59523e-05,0,-2.67586e-05,-1.29115e+09,-1.27454e+09,-1.28736e+09,-3.57628e+06,-0.0737352,0.998455,-0,1.00117,2497.35,-46000,0,46067.7,3.57628e+06
step02_gravity_refstate-mantle.xmf,748,-3.19507e-05,9.64937e-05,0,-2.5307e-05,-1.308e+09,-1.29083e+09,-1.30373e+09,-3.38228e+06,-0.0744247,0.969825,-0,0.972677,2223.6,-46497.8,0,46551,3.38228e+06
step02_gravity_refstate-mantle.xmf,749,-3.44162e-05,9.65135e-05,0,-2.16693e-05,-1.3263e+09,-1.3088e+09,-1.3217e+09,-2.8961e+06,-0.0682788,0.935974,-0,0.938461,1883.58,-47046.9,0,47084.6,2.8961e+06
step02_gravity_refstate-mantle.xmf,750,-8.0614e-06,1.34749e-05,0,-1.84651e-05,-1.14139e+09,-1.13851e+09,-1.14031e+09,-2.46786e+06,0.0601784,0.676151,0,0.678824,7140.97,-41298.5,0,41911.4,2.46786e+06
step02_gravity_refstate-mantle.xmf,751,-1.19515e-05,1.31819e-05,0,-1.5127e-05,-1.11857e+09,-1.11522e+09,-1.11698e+09,-2.02173e+06,0.0898618,0.628041,0,0.634437,7833.48,-40567.1,0,41316.5,2.02173e+06
step02_gravity_refstate-mantle.xmf,752,5.58581e-06,2.81267e-06,0,-2.68663e-09,-1.31009e+09,-1.31046e+09,-1.31084e+09,-359.068,1.06751e-18,0.0202825,0,0.0202825,40000,-46573.9,0,61393.2,359.068
step02_gravity_refstate-mantle.xmf,753,1.24808e-06,4.78229e-06,0,9.82504e-08,-1.09805e+09,-1.09758e+09,-1.09822e+09,13131.2,-0.0105137,0.0532607,-0,0.0542885,33691.1,-40000,0,52298.1,13131.2
step02_gravity_refstate-mantle.xmf,754,-1.27349e-05,4.21328e-05,0,3.32586e-06,-1.69276e+09,-1.68543e+09,-1.69106e+09,444501,0.187478,0.0687449,0,0.199685,-8282.89,-58372.6,-0,58957.3,444501
step02_gravity_refstate-mantle.xmf,755,-1.95108e-05,5.34455e-05,0,1.23019e-05,-1.56002e+09,-1.55027e+09,-1.55741e+09,1.64414e+06,0.147491,0.304248,0,0.338113,-5472.31,-54255.8,-0,54531.1,1.64414e+06
step02_gravity_refstate-mantle.xmf,756,-1.40449e-05,4.41198e-05,0,5.02414e-06,-1.66747e+09,-1.65969e+09,-1.66559e+09,671476,0.180504,0.106867,0,0.209767,-7734.99,-57587.6,-0,58104.7,671476
step02_gravity_refstate-mantle.xmf,757,-1.53635e-05,4.62159e-05,0,6.89726e-06,-1.63995e+09,-1.63172e+09,-1.6379e+09,921819,0.172854,0.151644,0,0.229944,-7167.8,-56734.2,-0,57185.2,921819
step02_gravity_refstate-mantle.xmf,758,-1.82384e-05,5.10626e-05,0,1.0557e-05,-1.58611e+09,-1.57685e+09,-1.58367e+09,1.41094e+06,0.155308,0.251657,0,0.295723,-5977.54,-55064.1,-0,55387.6,1.41094e+06
step02_gravity_refstate-mantle.xmf,759,-1.70057e-05,4.88501e-05,0,8.68868e-06,-1.61369e+09,-1.60488e+09,-1.61141e+09,1.16124e+06,0.163067,0.1999,0,0.257975,-6500.23,-55918.6,-0,56295.1,1.16124e+06
step02_gravity_refstate-mantle.xmf,760,-2.82377e-05,6.95269e-05,0,1.57866e-05,-1.46762e+09,-1.45456e+09,-1.46385e+09,2.10987e+06,0.0977718,0.542688,0,0.551425,-2992.73,-51384.5,-0,51471.6,2.10987e+06
step02_gravity_refstate-mantle.xmf,761,-3.64481e-05,8.66971e-05,0,1.08777e-05,-1.40483e+09,-1.38838e+09,-1.39996e+09,1.45381e+06,0.04637,0.738939,0,0.740393,-1234.44,-49434,-0,49449.4,1.45381e+06
step02_gravity_refstate-mantle.xmf,762,-3.89047e-05,9.32685e-05,0,2.77947e-06,-1.38437e+09,-1.3667e+09,-1.37917e+09,371477,0.010747,0.808412,0,0.808484,-276.432,-48802.2,-0,48802.9,371477
step02_gravity_refstate-mantle.xmf,763,-1.16911e-05,6.09818e-05,0,-5.54051e-05,-1.24183e+09,-1.23211e+09,-1.24026e+09,-7.40489e+06,-0.0859941,0.96288,-0,0.966712,4000,-44498.5,0,44677.9,7.40489e+06
step02_gravity_refstate-mantle.xmf,764,-7.55618e-06,5.0274e-05,0,-5.07061e-05,-1.23374e+09,-1.22601e+09,-1.23273e+09,-6.77687e+06,-0.0787745,0.934955,-0,0.938267,4284.95,-44249,0,44456,6.77687e+06
step02_gravity_refstate-mantle.xmf,765,-2.65219e-06,2.56248e-05,0,-3.78567e-05,-1.1961e+09,-1.19232e+09,-1.19575e+09,-5.05955e+06,-0.0250945,0.855251,-0,0.85562,5183.04,-43056,0,43366.8,5.05955e+06
step02_gravity_refstate-mantle.xmf,766,-2.94437e-06,3.30322e-05,0,-4.19021e-05,-1.21153e+09,-1.20673e+09,-1.21114e+09,-5.60021e+06,-0.0495176,0.881951,-0,0.88334,4870.36,-43549.7,0,43821.2,5.60021e+06
step02_gravity_refstate-mantle.xmf,767,-5.06081e-06,1.57771e-05,0,-2.49631e-05,-1.16143e+09,-1.15865e+09,-1.16076e+09,-3.33632e+06,0.0314235,0.750925,0,0.751582,6269.8,-41943.7,0,42409.8,3.33632e+06
step02_gravity_refstate-mantle.xmf,768,-3.088e-06,1.86561e-05,0,-2.78233e-05,-1.17857e+09,-1.17566e+09,-1.17816e+09,-3.71858e+06,0.00272908,0.770389,0,0.770394,6001.1,-42493.6,0,42915.3,3.71858e+06
step02_gravity_refstate-mantle.xmf,769,-3.88023e-05,9.65296e-05,0,-7.13775e-06,-1.36388e+09,-1.3458e+09,-1.3587e+09,-953960,-0.0256559,0.863888,-0,0.864269,657.755,-48178.5,0,48183,953960
step02_gravity_refstate-mantle.xmf,770,-2.95328e-05,8.95081e-05,0,-3.1603e-05,-1.3073e+09,-1.29139e+09,-1.30335e+09,-4.22374e+06,-0.0900558,0.935237,-0,0.939562,2744.83,-46474.5,0,46555.5,4.22374e+06
step02_gravity_refstate-mantle.xmf,771,-2.73445e-05,8.83892e-05,0,-3.25177e-05,-1.29155e+09,-1.27609e+09,-1.2879e+09,-4.34599e+06,-0.0875784,0.956072,-0,0.960075,2997.53,-46000,0,46097.6,4.34599e+06
step02_gravity_refstate-mantle.xmf,772,-1.47772e-05,1.31282e-05,0,-1.46635e-05,-1.10083e+09,-1.0971e+09,-1.09886e+09,-1.95978e+06,0.112265,0.612806,0,0.623005,8130.43,-40000,0,40817.9,1.95978e+06
step02_gravity_refstate-mantle.xmf,773,-1.42201e-05,1.34983e-05,0,-1.25135e-05,-1.10068e+09,-1.09698e+09,-1.09878e+09,-1.67243e+06,0.101908,0.562695,0,0.571849,8843.14,-40000,0,40965.9,1.67243e+06
step02_gravity_refstate-mantle.xmf,774,-1.17942e-05,1.33326e-05,0,-1.27378e-05,-1.11776e+09,-1.1144e+09,-1.11618e+09,-1.70241e+06,0.0825718,0.576217,0,0.582103,8538.28,-40543.3,0,41432.6,1.70241e+06
step02_gravity_refstate-mantle.xmf,775,-8.76311e-06,1.35508e-05,0,-1.51866e-05,-1.13817e+09,-1.13519e+09,-1.137e+09,-2.02969e+06,0.0599762,0.623696,0,0.626573,7783.14,-41194.8,0,41923.6,2.02969e+06
step02_gravity_refstate-mantle.xmf,776,-5.35248e-06,1.4757e-05,0,-2.03267e-05,-1.15944e+09,-1.15675e+09,-1.15872e+09,-2.71666e+06,0.0316903,0.690405,0,0.691132,6894.09,-41877.6,0,42441.3,2.71666e+06
step02_gravity_refstate-mantle.xmf,777,4.68563e-06,3.34517e-06,0,5.72166e-07,-1.26828e+09,-1.26846e+09,-1.26891e+09,76469.9,-0.0207323,0.0272973,-0,0.0342779,35655,-45277.7,0,57631.1,76469.9
step02_gravity_refstate-mantle.xmf,778,6.18929e-06,2.5661e-06,0,2.65363e-07,-1.34485e+09,-1.34533e+09,-1.34567e+09,35465.8,-0.0113927,0.0178712,-0,0.0211937,38161.2,-47650.8,0,61048.2,35465.8
step02_gravity_refstate-mantle.xmf,779,8.66179e-07,5.11018e-06,0,7.95666e-08,-1.09811e+09,-1.09754e+09,-1.09822e+09,10634.1,-0.0125662,0.0600511,-0,0.0613518,31786.7,-40000,0,51092,10634.1
step02_gravity_refstate-mantle.xmf,780,2.01376e-06,4.63629e-06,0,4.39032e-07,-1.14962e+09,-1.14927e+09,-1.14989e+09,58676.6,-0.0179506,0.0487362,-0,0.0519369,32738.9,-41597.7,0,52935.8,58676.6
step02_gravity_refstate-mantle.xmf,781,3.75517e-06,3.80488e-06,0,5.99492e-07,-1.22422e+09,-1.22421e+09,-1.22472e+09,80122.2,-0.0210228,0.033968,-0,0.0399472,34641.2,-43911.5,0,55930.6,80122.2
step02_gravity_refstate-mantle.xmf,782,-1.44387e-05,4.44628e-05,0,1.5961e-06,-1.72075e+09,-1.71287e+09,-1.71882e+09,213319,0.179531,0.034178,0,0.182755,-7716.43,-59231.6,-0,59732.1,213319
step02_gravity_refstate-mantle.xmf,783,-1.28467e-05,4.22246e-05,0,-6.40432e-09,-1.74546e+09,-1.7381e+09,-1.74375e+09,-855.937,0.187562,-5.56969e-19,0,0.187562,-8310.4,-60000,-0,60572.8,855.937
step02_gravity_refstate-mantle.xmf,784,-2.25167e-05,5.76772e-05,0,1.15055e-05,-1.56035e+09,-1.54963e+09,-1.55734e+09,1.53772e+06,0.128452,0.323502,0,0.348071,-4566.29,-54256.8,-0,54448.6,1.53772e+06
step02_gravity_refstate-mantle.xmf,785,-2.38123e-05,6.02305e-05,0,1.28308e-05,-1.53559e+09,-1.52436e+09,-1.53241e+09,1.71483e+06,0.120835,0.377662,0,0.396522,-4144.99,-53489.9,-0,53650.3,1.71483e+06
step02_gravity_refstate-mantle.xmf,786,-2.51882e-05,6.3023e-05,0,1.39824e-05,-1.51215e+09,-1.50036e+09,-1.50878e+09,1.86875e+06,0.113208,0.431835,0,0.446427,-3742.7,-52763.7,-0,52896.2,1.86875e+06
step02_gravity_refstate-mantle.xmf,787,-2.66687e-05,6.61182e-05,0,1.49647e-05,-1.48953e+09,-1.47713e+09,-1.48597e+09,2.00003e+06,0.105474,0.486857,0,0.498151,-3356.25,-52063,-0,52171.1,2.00003e+06
step02_gravity_refstate-mantle.xmf,788,-3.10563e-05,7.35979e-05,0,1.28284e-05,-1.46679e+09,-1.4528e+09,-1.46264e+09,1.71452e+06,0.0759852,0.563949,0,0.569045,-2254.11,-51350.2,-0,51399.7,1.71452e+06
step02_gravity_refstate-mantle.xmf,789,-3.46921e-05,8.20111e-05,0,1.20418e-05,-1.42492e+09,-1.40932e+09,-1.42028e+09,1.60939e+06,0.0567723,0.67989,0,0.682256,-1561.92,-50054.1,-0,50078.4,1.60939e+06
step02_gravity_refstate-mantle.xmf,790,-3.28509e-05,7.76235e-05,0,1.26838e-05,-1.4454e+09,-1.43064e+09,-1.44101e+09,1.69519e+06,0.0667158,0.621815,0,0.625383,-1904.21,-50688,-0,50723.8,1.69519e+06
step02_gravity_refstate-mantle.xmf,791,-3.79382e-05,8.91179e-05,0,5.0589e-06,-1.40366e+09,-1.38668e+09,-1.39859e+09,676123,0.0212453,0.752451,0,0.752751,-557.623,-49393.9,-0,49397.1,676123
step02_gravity_refstate-mantle.xmf,792,-3.88602e-05,9.33984e-05,0,-3.81547e-06,-1.38281e+09,-1.36513e+09,-1.37761e+09,-509938,-0.0146871,0.812214,-0,0.812347,377.669,-48754.5,0,48756,509938
step02_gravity_refstate-mantle.xmf,793,-4.98206e-06,5.02444e-05,0,-4.51836e-05,-1.2482e+09,-1.24082e+09,-1.24753e+09,-6.03879e+06,-0.0978098,0.88496,-0,0.890348,4483.27,-44712.6,0,44936.8,6.03879e+06
step02_gravity_refstate-mantle.xmf,794,-3.5757e-06,4.10713e-05,0,-4.41739e-05,-1.23004e+09,-1.22407e+09,-1.22956e+09,-5.90385e+06,-0.0761943,0.886534,-0,0.889802,4673.58,-44137.7,0,44384.4,5.90385e+06
step02_gravity_refstate-mantle.xmf,795,-1.53339e-06,2.23783e-05,0,-3.07352e-05,-1.19563e+09,-1.19243e+09,-1.19542e+09,-4.10776e+06,-0.0254793,0.787166,-0,0.787578,5751.07,-43040.5,0,43423.1,4.10776e+06
step02_gravity_refstate-mantle.xmf,796,-3.59534e-05,9.50872e-05,0,-1.80555e-05,-1.34541e+09,-1.3279e+09,-1.34061e+09,-2.41312e+06,-0.0610421,0.892492,-0,0.894577,1614.44,-47623.2,0,47650.6,2.41312e+06
step02_gravity_refstate-mantle.xmf,797,-3.71645e-05,9.37715e-05,0,-1.40711e-05,-1.36292e+09,-1.34542e+09,-1.35795e+09,-1.88061e+06,-0.0505545,0.852433,-0,0.853931,1313.69,-48152.5,0,48170.4,1.88061e+06
step02_gravity_refstate-mantle.xmf,798,-3.13524e-05,9.01163e-05,0,-2.82429e-05,-1.32455e+09,-1.30832e+09,-1.32036e+09,-3.77467e+06,-0.0873862,0.907232,-0,0.911431,2475.64,-46996.9,0,47062.1,3.77467e+06
step02_gravity_refstate-mantle.xmf,799,-2.5938e-05,7.89542e-05,0,-3.78434e-05,-1.30696e+09,-1.29294e+09,-1.30349e+09,-5.05777e+06,-0.103809,0.894741,-0,0.900743,3246.54,-46461.1,0,46574.4,5.05777e+06
step02_gravity_refstate-mantle.xmf,800,-1.12659e-05,1.34356e-05,0,-1.06917e-05,-1.11863e+09,-1.11533e+09,-1.11712e+09,-1.42895e+06,0.0728496,0.527728,0,0.532733,9265.73,-40574,0,41618.6,1.42895e+06
step02_gravity_refstate-mantle.xmf,801,-1.34687e-05,1.35325e-05,0,-1.0702e-05,-1.10051e+09,-1.09691e+09,-1.09871e+09,-1.43032e+06,0.091528,0.515539,0,0.5236,9591.69,-40000,0,41133.9,1.43032e+06
step02_gravity_refstate-mantle.xmf,802,-5.8177e-06,1.41416e-05,0,-1.65327e-05,-1.15679e+09,-1.15412e+09,-1.15601e+09,-2.20959e+06,0.032413,0.634706,0,0.635533,7545.37,-41791,0,42466.7,2.20959e+06
step02_gravity_refstate-mantle.xmf,803,-9.00429e-06,1.3508e-05,0,-1.2847e-05,-1.13636e+09,-1.13335e+09,-1.13516e+09,-1.71701e+06,0.0572842,0.578511,0,0.581341,8393.55,-41137,0,41984.6,1.71701e+06
step02_gravity_refstate-mantle.xmf,804,6.82945e-06,2.2491e-06,0,-3.06125e-09,-1.3809e+09,-1.38151e+09,-1.38181e+09,-409.136,1.29533e-18,0.0147284,0,0.0147284,40000,-48768,0,63073.9,409.136
step02_gravity_refstate-mantle.xmf,805,5.63017e-06,2.88454e-06,0,4.8866e-07,-1.31644e+09,-1.31681e+09,-1.3172e+09,65309.5,-0.0194884,0.0214983,-0,0.0290168,36565,-46770.5,0,59367.3,65309.5
step02_gravity_refstate-mantle.xmf,806,1.56542e-06,5.01399e-06,0,4.61825e-07,-1.14506e+09,-1.1446e+09,-1.14527e+09,61723,-0.0206191,0.056498,-0,0.0601429,30887.9,-41454.8,0,51696.8,61723
step02_gravity_refstate-mantle.xmf,807,3.32543e-06,4.15309e-06,0,7.48999e-07,-1.21392e+09,-1.21381e+09,-1.21436e+09,100104,-0.0265141,0.0399341,-0,0.0479347,32746.4,-43591.4,0,54521,100104
step02_gravity_refstate-mantle.xmf,808,-1.5752e-05,4.6361e-05,0,3.26092e-06,-1.69516e+09,-1.68685e+09,-1.69305e+09,435821,0.172063,0.0725297,0,0.186725,-7202.4,-58437.2,-0,58879.4,435821
step02_gravity_refstate-mantle.xmf,809,-2.11976e-05,5.52173e-05,0,1.00513e-05,-1.58629e+09,-1.57608e+09,-1.58346e+09,1.34336e+06,0.136753,0.269268,0,0.302004,-5036.06,-55060.6,-0,55290.5,1.34336e+06
step02_gravity_refstate-mantle.xmf,810,-1.7109e-05,4.83886e-05,0,4.91461e-06,-1.66975e+09,-1.66099e+09,-1.66746e+09,656838,0.163676,0.113921,0,0.199419,-6657.82,-57648.4,-0,58031.6,656838
step02_gravity_refstate-mantle.xmf,811,-1.85193e-05,5.06138e-05,0,6.70087e-06,-1.64182e+09,-1.63258e+09,-1.63934e+09,895571,0.15452,0.162714,0,0.224393,-6088.69,-56781.9,-0,57107.4,895571
step02_gravity_refstate-mantle.xmf,812,-1.98595e-05,5.2869e-05,0,8.49733e-06,-1.61276e+09,-1.60304e+09,-1.61011e+09,1.13567e+06,0.145562,0.216594,0,0.260962,-5546.91,-55881.2,-0,56155.8,1.13567e+06
step02_gravity_refstate-mantle.xmf,813,-2.94211e-05,7.00568e-05,0,1.25631e-05,-1.48869e+09,-1.47539e+09,-1.48476e+09,1.67906e+06,0.0843422,0.507638,0,0.514597,-2598.75,-52028.7,-0,52093.5,1.67906e+06
step02_gravity_refstate-mantle.xmf,814,-3.65605e-05,8.48635e-05,0,6.89723e-06,-1.42385e+09,-1.40762e+09,-1.41896e+09,921814,0.0318246,0.695134,0,0.695862,-859.703,-50015.8,-0,50023.2,921814
step02_gravity_refstate-mantle.xmf,815,-3.83661e-05,8.99566e-05,0,-9.6831e-07,-1.40202e+09,-1.38487e+09,-1.39689e+09,-129415,-0.0039927,0.75957,-0,0.759581,104.281,-49342.6,0,49342.7,129415
step02_gravity_refstate-mantle.xmf,816,-1.32705e-05,6.81346e-05,0,-5.16147e-05,-1.25777e+09,-1.24689e+09,-1.256e+09,-6.8983e+06,-0.10252,0.93036,-0,0.935991,4000,-44998.7,0,45176.1,6.8983e+06
step02_gravity_refstate-mantle.xmf,817,-6.06164e-07,2.68948e-05,0,-3.4142e-05,-1.21206e+09,-1.20838e+09,-1.21198e+09,-4.56307e+06,-0.0513924,0.80512,-0,0.806759,5482.74,-43565.9,0,43909.5,4.56307e+06
step02_gravity_refstate-mantle.xmf,818,-4.21132e-07,3.29651e-05,0,-3.7155e-05,-1.22827e+09,-1.2238e+09,-1.22821e+09,-4.96576e+06,-0.0749176,0.821337,-0,0.824747,5212.77,-44083.2,0,44390.4,4.96576e+06
step02_gravity_refstate-mantle.xmf,819,-3.02817e-06,1.6849e-05,0,-2.26022e-05,-1.17701e+09,-1.17436e+09,-1.17661e+09,-3.02078e+06,0.00358553,0.707481,0,0.70749,6620.77,-42441.3,0,42954.6,3.02078e+06
step02_gravity_refstate-mantle.xmf,820,-1.02662e-06,1.94614e-05,0,-2.5245e-05,-1.19437e+09,-1.19163e+09,-1.19423e+09,-3.37399e+06,-0.0240685,0.723978,-0,0.724378,6352.24,-42997.5,0,43464.2,3.37399e+06
step02_gravity_refstate-mantle.xmf,821,-3.77426e-05,9.17792e-05,0,-1.02973e-05,-1.38117e+09,-1.36386e+09,-1.37613e+09,-1.37623e+06,-0.0396321,0.807771,-0,0.808743,1028.18,-48707.4,0,48718.3,1.37623e+06
step02_gravity_refstate-mantle.xmf,822,-2.6362e-05,7.48675e-05,0,-4.04812e-05,-1.29246e+09,-1.27893e+09,-1.28894e+09,-5.41032e+06,-0.100772,0.90687,-0,0.912452,3497.18,-46000,0,46132.7,5.41032e+06
step02_gravity_refstate-mantle.xmf,823,-2.7426e-05,8.18773e-05,0,-3.36889e-05,-1.32229e+09,-1.30768e+09,-1.31862e+09,-4.50252e+06,-0.102206,0.876861,-0,0.882797,2996.02,-46932.2,0,47027.7,4.50252e+06
step02_gravity_refstate-mantle.xmf,824,-3.30874e-05,9.00652e-05,0,-2.43297e-05,-1.34266e+09,-1.3262e+09,-1.33823e+09,-3.25166e+06,-0.0813609,0.873243,-0,0.877026,2208.15,-47544.4,0,47595.6,3.25166e+06
step02_gravity_refstate-mantle.xmf,825,-8.78699e-06,1.33494e-05,0,-1.09247e-05,-1.13642e+09,-1.13346e+09,-1.13524e+09,-1.46009e+06,0.0514192,0.53471,0,0.537176,9036.97,-41139.9,0,42120.7,1.46009e+06
step02_gravity_refstate-mantle.xmf,826,-1.04403e-05,1.32851e-05,0,-8.97514e-06,-1.12071e+09,-1.11753e+09,-1.11931e+09,-1.19953e+06,0.0620588,0.482919,0,0.486891,10006.8,-40643.3,0,41857.1,1.19953e+06
step02_gravity_refstate-mantle.xmf,827,-6.32632e-06,1.3826e-05,0,-1.36646e-05,-1.15421e+09,-1.15152e+09,-1.15337e+09,-1.82627e+06,0.0325654,0.586366,0,0.587269,8179.3,-41707.2,0,42501.6,1.82627e+06
step02_gravity_refstate-mantle.xmf,828,-3.1981e-06,1.53676e-05,0,-1.84825e-05,-1.175e+09,-1.17252e+09,-1.17458e+09,-2.47019e+06,0.00493329,0.649883,0,0.649902,7263.24,-42374.4,0,42992.3,2.47019e+06
step02_gravity_refstate-mantle.xmf,829,4.56526e-06,3.55513e-06,0,8.01908e-07,-1.26951e+09,-1.26964e+09,-1.27012e+09,107175,-0.0297573,0.0307347,-0,0.0427799,33730,-45315.2,0,56490.5,107175
step02_gravity_refstate-mantle.xmf,830,7.37792e-06,2.03048e-06,0,2.58736e-07,-1.41516e+09,-1.41588e+09,-1.41615e+09,34580,-0.0137013,0.012872,-0,0.0187993,38142.8,-49829.4,0,62752.2,34580
step02_gravity_refstate-mantle.xmf,831,5.85329e-06,2.92017e-06,0,7.40871e-07,-1.33255e+09,-1.33295e+09,-1.33334e+09,99017.4,-0.0312935,0.0224802,-0,0.038531,34731.1,-47269.8,0,58657.3,99017.4
step02_gravity_refstate-mantle.xmf,832,6.71169e-06,2.41448e-06,0,5.15885e-07,-1.37698e+09,-1.37756e+09,-1.37788e+09,68948,-0.0242085,0.0166839,-0,0.0294007,36408.3,-48646.6,0,60762.2,68948
step02_gravity_refstate-mantle.xmf,833,7.95282e-06,1.72786e-06,0,-2.67516e-10,-1.45202e+09,-1.45285e+09,-1.45308e+09,-35.7535,-7.06691e-19,0.0103335,-0,0.0103335,40000,-50971,0,64792.3,35.7535
step02_gravity_refstate-mantle.xmf,834,3.65826e-07,5.51263e-06,0,3.87411e-08,-1.09818e+09,-1.0975e+09,-1.09823e+09,5177.75,-0.0136922,0.0685997,-0,0.0699528,29973.6,-40000,0,49984.2,5177.75
step02_gravity_refstate-mantle.xmf,835,2.53659e-06,4.56589e-06,0,6.73298e-07,-1.18354e+09,-1.18327e+09,-1.18388e+09,89986.3,-0.0250862,0.0474387,-0,0.0536633,31717.4,-42648.8,0,53150,89986.3
step02_gravity_refstate-mantle.xmf,836,-1.76794e-05,4.8964e-05,0,1.44414e-06,-1.72343e+09,-1.71453e+09,-1.72107e+09,193010,0.160569,0.0340428,0,0.164138,-6536.7,-59304.5,-0,59663.6,193010
step02_gravity_refstate-mantle.xmf,837,-1.61653e-05,4.68618e-05,0,-1.56167e-09,-1.7458e+09,-1.73737e+09,-1.74364e+09,-208.717,0.17002,-5.40263e-19,0,0.17002,-7101,-60000,-0,60418.7,208.717
step02_gravity_refstate-mantle.xmf,838,-2.39715e-05,5.90645e-05,0,9.09603e-06,-1.58619e+09,-1.57509e+09,-1.58299e+09,1.21568e+06,0.11567,0.285699,0,0.308226,-4101.26,-55048.8,-0,55201.3,1.21568e+06
step02_gravity_refstate-mantle.xmf,839,-2.5286e-05,6.15376e-05,0,1.0202e-05,-1.56035e+09,-1.54874e+09,-1.55697e+09,1.36349e+06,0.107118,0.341069,0,0.357494,-3672.58,-54248,-0,54372.2,1.36349e+06
step02_gravity_refstate-mantle.xmf,840,-2.65939e-05,6.4148e-05,0,1.11978e-05,-1.53505e+09,-1.52292e+09,-1.53149e+09,1.49658e+06,0.0994611,0.397226,0,0.409489,-3293.7,-53464.5,-0,53565.9,1.49658e+06
step02_gravity_refstate-mantle.xmf,841,-2.79752e-05,6.69847e-05,0,1.19675e-05,-1.51138e+09,-1.49869e+09,-1.50764e+09,1.59945e+06,0.0917732,0.452461,0,0.461674,-2932.41,-52731.3,-0,52812.8,1.59945e+06
step02_gravity_refstate-mantle.xmf,842,-3.16702e-05,7.32508e-05,0,9.55552e-06,-1.48763e+09,-1.4736e+09,-1.48339e+09,1.2771e+06,0.0617704,0.524875,0,0.528497,-1856.22,-51989,-0,52022.1,1.2771e+06
step02_gravity_refstate-mantle.xmf,843,-3.32811e-05,7.68001e-05,0,9.17292e-06,-1.46582e+09,-1.45111e+09,-1.46137e+09,1.22596e+06,0.0525549,0.580901,0,0.583273,-1522.74,-51313.7,-0,51336.3,1.22596e+06
step02_gravity_refstate-mantle.xmf,844,-3.49673e-05,8.07285e-05,0,8.24636e-06,-1.44457e+09,-1.42911e+09,-1.4399e+09,1.10213e+06,0.0422071,0.637886,0,0.639281,-1179.27,-50656,-0,50669.8,1.10213e+06
step02_gravity_refstate-mantle.xmf,845,-3.74198e-05,8.62831e-05,0,1.45117e-06,-1.42224e+09,-1.40571e+09,-1.41724e+09,193949,0.00663365,0.704719,0,0.704751,-177.553,-49964.2,-0,49964.5,193949
step02_gravity_refstate-mantle.xmf,846,-3.77488e-05,8.91633e-05,0,-6.97543e-06,-1.4003e+09,-1.38334e+09,-1.39525e+09,-932266,-0.0288596,0.759361,-0,0.759909,756.878,-49291.5,0,49297.3,932266
step02_gravity_refstate-mantle.xmf,847,-1.41628e-05,7.60386e-05,0,-4.34832e-05,-1.27347e+09,-1.26141e+09,-1.27157e+09,-5.81152e+06,-0.113377,0.894021,-0,0.901182,4000,-45497.8,0,45673.3,5.81152e+06
step02_gravity_refstate-mantle.xmf,848,-7.69299e-06,5.90071e-05,0,-4.51465e-05,-1.26493e+09,-1.25601e+09,-1.2639e+09,-6.03383e+06,-0.111878,0.876648,-0,0.883758,4316.33,-45233.8,0,45439.2,6.03383e+06
step02_gravity_refstate-mantle.xmf,849,-1.18694e-06,3.90186e-05,0,-3.99944e-05,-1.2405e+09,-1.23513e+09,-1.24035e+09,-5.34525e+06,-0.0905116,0.838565,-0,0.843435,4949.69,-44471.6,0,44746.2,5.34525e+06
step02_gravity_refstate-mantle.xmf,850,5.34403e-07,2.28689e-05,0,-2.82107e-05,-1.21178e+09,-1.20879e+09,-1.21185e+09,-3.77036e+06,-0.0508728,0.739907,-0,0.741654,6080.9,-43554.5,0,43976.9,3.77036e+06
step02_gravity_refstate-mantle.xmf,851,-3.45525e-05,8.94122e-05,0,-2.0359e-05,-1.36096e+09,-1.34439e+09,-1.35634e+09,-2.72098e+06,-0.0729876,0.835856,-0,0.839036,1939.26,-48098.2,0,48137.3,2.72098e+06
step02_gravity_refstate-mantle.xmf,852,-3.55854e-05,8.84079e-05,0,-1.64252e-05,-1.37919e+09,-1.36261e+09,-1.37443e+09,-2.19523e+06,-0.0632267,0.796285,-0,0.798791,1669.98,-48651.9,0,48680.5,2.19523e+06
step02_gravity_refstate-mantle.xmf,853,-1.84648e-05,6.57853e-05,0,-3.82752e-05,-1.30612e+09,-1.29486e+09,-1.30365e+09,-5.11548e+06,-0.115074,0.850046,-0,0.857799,3751.64,-46451.3,0,46602.6,5.11548e+06
step02_gravity_refstate-mantle.xmf,854,-2.91038e-05,8.31888e-05,0,-2.96049e-05,-1.33975e+09,-1.32474e+09,-1.33586e+09,-3.95669e+06,-0.0988578,0.847793,-0,0.853538,2777.67,-47463.7,0,47544.9,3.95669e+06
step02_gravity_refstate-mantle.xmf,855,-2.20749e-05,7.2129e-05,0,-3.62587e-05,-1.32119e+09,-1.3086e+09,-1.31824e+09,-4.84597e+06,-0.114261,0.840378,-0,0.848111,3489.59,-46909,0,47038.6,4.84597e+06
step02_gravity_refstate-mantle.xmf,856,-8.69806e-06,1.32058e-05,0,-9.48898e-06,-1.13565e+09,-1.13272e+09,-1.13449e+09,-1.2682e+06,0.047222,0.498612,0,0.500843,9625.63,-41116.5,0,42228.1,1.2682e+06
step02_gravity_refstate-mantle.xmf,857,-1.26273e-05,1.34075e-05,0,-9.13312e-06,-1.10034e+09,-1.09686e+09,-1.09866e+09,-1.22064e+06,0.0812563,0.471168,0,0.478123,10377.9,-40000,0,41324.3,1.22064e+06
step02_gravity_refstate-mantle.xmf,858,-3.71369e-06,1.44037e-05,0,-1.5035e-05,-1.17187e+09,-1.16945e+09,-1.17138e+09,-2.00942e+06,0.00745371,0.596418,0,0.596465,7940.4,-42271.8,0,43011.1,2.00942e+06
step02_gravity_refstate-mantle.xmf,859,-6.36785e-06,1.35278e-05,0,-1.13997e-05,-1.15386e+09,-1.1512e+09,-1.15301e+09,-1.52357e+06,0.0289662,0.54082,0,0.541595,8830.42,-41695.2,0,42620.1,1.52357e+06
step02_gravity_refstate-mantle.xmf,860,8.89746e-06,1.31306e-06,0,-6.07242e-10,-1.52367e+09,-1.52468e+09,-1.52485e+09,-81.1579,-5.09523e-18,0.00693276,-0,0.00693276,40000,-53189.4,0,66551.6,81.1579
step02_gravity_refstate-mantle.xmf,861,8.4196e-06,1.55709e-06,0,2.28622e-07,-1.48566e+09,-1.48657e+09,-1.48678e+09,30555.4,-0.0159584,0.00895667,-0,0.0183001,38102,-52012.7,0,64475.5,30555.4
step02_gravity_refstate-mantle.xmf,862,1.22221e-06,5.37623e-06,0,5.26126e-07,-1.14876e+09,-1.1482e+09,-1.14892e+09,70316.7,-0.023552,0.0638826,-0,0.0680859,29262.9,-41567.6,0,50834.8,70316.7
step02_gravity_refstate-mantle.xmf,863,2.13947e-06,4.94717e-06,0,7.42468e-07,-1.18125e+09,-1.18087e+09,-1.18153e+09,99230.8,-0.0286157,0.0547558,-0,0.0617824,30038.6,-42576.2,0,52106.2,99230.8
step02_gravity_refstate-mantle.xmf,864,3.05212e-06,4.51351e-06,0,9.07498e-07,-1.21565e+09,-1.21545e+09,-1.21606e+09,121287,-0.0332538,0.0467482,-0,0.0573691,30717.5,-43643.9,0,53370,121287
step02_gravity_refstate-mantle.xmf,865,4.32985e-06,3.87896e-06,0,1.00743e-06,-1.26788e+09,-1.26794e+09,-1.26845e+09,134644,-0.0382599,0.0361809,-0,0.0526581,31767.2,-45264.1,0,55299.1,134644
step02_gravity_refstate-mantle.xmf,866,-1.83401e-05,4.99363e-05,0,3.19943e-06,-1.69543e+09,-1.68631e+09,-1.69298e+09,427604,0.156081,0.0780172,0,0.174493,-6264.45,-58437.6,-0,58772.4,427604
step02_gravity_refstate-mantle.xmf,867,-2.26253e-05,5.66942e-05,0,7.8537e-06,-1.61279e+09,-1.60219e+09,-1.60977e+09,1.04965e+06,0.125128,0.230925,0,0.262647,-4584.13,-55873.5,-0,56061.2,1.04965e+06
step02_gravity_refstate-mantle.xmf,868,-2.02557e-05,5.27303e-05,0,4.37905e-06,-1.67519e+09,-1.66543e+09,-1.67248e+09,585260,0.142269,0.115382,0,0.183176,-5520.69,-57806.6,-0,58069.6,585260
step02_gravity_refstate-mantle.xmf,869,-2.14127e-05,5.46301e-05,0,6.32783e-06,-1.64147e+09,-1.63131e+09,-1.63861e+09,845714,0.133843,0.175757,0,0.220917,-5051.38,-56762.2,-0,56986.5,845714
step02_gravity_refstate-mantle.xmf,870,-3.02241e-05,7.01824e-05,0,9.53249e-06,-1.50946e+09,-1.49604e+09,-1.50542e+09,1.27402e+06,0.0698413,0.471227,0,0.476374,-2172.45,-52665.3,-0,52710.1,1.27402e+06
step02_gravity_refstate-mantle.xmf,871,-3.61827e-05,8.25878e-05,0,3.38662e-06,-1.4431e+09,-1.42722e+09,-1.43826e+09,452622,0.0170404,0.64923,0,0.649453,-470.07,-50607.1,-0,50609.3,452622
step02_gravity_refstate-mantle.xmf,872,-3.73016e-05,8.63242e-05,0,-4.07386e-06,-1.41979e+09,-1.40327e+09,-1.41481e+09,-544472,-0.0182862,0.709619,-0,0.709854,488.957,-49889.4,0,49891.8,544472
step02_gravity_refstate-mantle.xmf,873,-9.16122e-06,5.72066e-05,0,-4.55856e-05,-1.27906e+09,-1.27019e+09,-1.27783e+09,-6.09252e+06,-0.119839,0.841875,-0,0.850362,4412.05,-45655.8,0,45868.4,6.09252e+06
step02_gravity_refstate-mantle.xmf,874,-3.17059e-06,4.7565e-05,0,-4.28787e-05,-1.26589e+09,-1.2591e+09,-1.26546e+09,-5.73073e+06,-0.114798,0.82947,-0,0.837377,4727.1,-45264.3,0,45510.4,5.73073e+06
step02_gravity_refstate-mantle.xmf,875,-9.43102e-07,4.08734e-05,0,-4.03111e-05,-1.25325e+09,-1.24766e+09,-1.25313e+09,-5.38757e+06,-0.104506,0.820307,-0,0.826938,4968.95,-44871.8,0,45146.1,5.38757e+06
step02_gravity_refstate-mantle.xmf,876,1.61858e-06,2.70768e-05,0,-3.15961e-05,-1.22922e+09,-1.22582e+09,-1.22943e+09,-4.22282e+06,-0.0757987,0.755449,-0,0.759242,5798.3,-44111.2,0,44490.7,4.22282e+06
step02_gravity_refstate-mantle.xmf,877,1.19129e-06,3.32373e-05,0,-3.55923e-05,-1.24665e+09,-1.24236e+09,-1.24681e+09,-4.75691e+06,-0.0975038,0.775926,-0,0.782029,5446.97,-44662.5,0,44993.4,4.75691e+06
step02_gravity_refstate-mantle.xmf,878,-1.00975e-06,1.72463e-05,0,-2.06876e-05,-1.19261e+09,-1.19017e+09,-1.19248e+09,-2.7649e+06,-0.021805,0.664307,-0,0.664664,6994.33,-42937.7,0,43503.6,2.7649e+06
step02_gravity_refstate-mantle.xmf,879,8.96665e-07,1.97113e-05,0,-2.34666e-05,-1.21052e+09,-1.20801e+09,-1.21064e+09,-3.13631e+06,-0.048386,0.680023,-0,0.681742,6705.13,-43510,0,44023.6,3.13631e+06
step02_gravity_refstate-mantle.xmf,880,-3.6098e-05,8.68734e-05,0,-1.26327e-05,-1.39836e+09,-1.38193e+09,-1.39354e+09,-1.68836e+06,-0.0526749,0.75243,-0,0.754271,1399.51,-49236.9,0,49256.7,1.68836e+06
step02_gravity_refstate-mantle.xmf,881,-2.415e-05,6.51981e-05,0,-3.25897e-05,-1.29278e+09,-1.28084e+09,-1.28956e+09,-4.35561e+06,-0.114018,0.855707,-0,0.863269,4000,-46000,0,46173.6,4.35561e+06
step02_gravity_refstate-mantle.xmf,882,-2.50066e-05,7.64024e-05,0,-3.32592e-05,-1.33443e+09,-1.32088e+09,-1.33109e+09,-4.44509e+06,-0.110746,0.829392,-0,0.836753,3238.67,-47309.4,0,47420.1,4.44509e+06
step02_gravity_refstate-mantle.xmf,883,-3.08361e-05,8.35983e-05,0,-2.57022e-05,-1.35805e+09,-1.34276e+09,-1.35393e+09,-3.4351e+06,-0.0931246,0.81423,-0,0.819538,2555.05,-48018.4,0,48086.3,3.4351e+06
step02_gravity_refstate-mantle.xmf,884,-5.89953e-06,1.31602e-05,0,-9.50517e-06,-1.15673e+09,-1.15418e+09,-1.15594e+09,-1.27037e+06,0.0206632,0.493805,0,0.494237,9557.71,-41786.2,0,42865.3,1.27037e+06
step02_gravity_refstate-mantle.xmf,885,-7.57253e-06,1.29881e-05,0,-8.16422e-06,-1.1426e+09,-1.13985e+09,-1.14159e+09,-1.09115e+06,0.0337416,0.462067,0,0.463297,10219.4,-41338.1,0,42582.5,1.09115e+06
step02_gravity_refstate-mantle.xmf,886,-9.17192e-06,1.29408e-05,0,-7.29238e-06,-1.12549e+09,-1.12253e+09,-1.12426e+09,-974627,0.0477073,0.434312,0,0.436924,10889.7,-40798.6,0,42226.9,974627
step02_gravity_refstate-mantle.xmf,887,-1.17441e-05,1.31015e-05,0,-7.82482e-06,-1.10018e+09,-1.09686e+09,-1.09861e+09,-1.04579e+06,0.0711813,0.429436,0,0.435295,11203.7,-40000,0,41539.4,1.04579e+06
step02_gravity_refstate-mantle.xmf,888,-4.23591e-06,1.3845e-05,0,-1.27749e-05,-1.16874e+09,-1.16633e+09,-1.16818e+09,-1.70736e+06,0.00986852,0.557849,0,0.557936,8486.34,-42170.1,0,43015.6,1.70736e+06
step02_gravity_refstate-mantle.xmf,889,-1.26674e-06,1.55193e-05,0,-1.69417e-05,-1.19004e+09,-1.18779e+09,-1.18987e+09,-2.26426e+06,-0.0186049,0.60924,-0,0.609524,7664.92,-42852,0,43532.1,2.26426e+06
step02_gravity_refstate-mantle.xmf,890,5.51039e-06,3.27185e-06,0,9.77362e-07,-1.32086e+09,-1.32116e+09,-1.3216e+09,130624,-0.0410916,0.0275134,-0,0.0494521,32771.6,-46907.2,0,57221.2,130624
step02_gravity_refstate-mantle.xmf,891,9.61507e-06,1.02372e-06,0,-2.38899e-10,-1.59605e+09,-1.5972e+09,-1.59734e+09,-31.9288,-9.87516e-19,0.00428805,-0,0.00428805,40000,-55429.4,0,68355.1,31.9288
step02_gravity_refstate-mantle.xmf,892,9.27504e-06,1.19628e-06,0,1.76815e-07,-1.55847e+09,-1.55955e+09,-1.55971e+09,23631.4,-0.017944,0.00583546,-0,0.018869,38061.9,-54266.8,0,66284.2,23631.4
step02_gravity_refstate-mantle.xmf,893,1.00627e-05,8.87631e-07,0,-4.91978e-09,-1.66939e+09,-1.67061e+09,-1.67073e+09,-657.528,-1.04659e-18,0.00209853,-0,0.00209853,40000,-57697.5,0,70206.8,657.528
step02_gravity_refstate-mantle.xmf,894,9.86793e-06,9.7388e-07,0,1.13317e-07,-1.63062e+09,-1.6318e+09,-1.63193e+09,15144.8,-0.0183023,0.00336013,-0,0.0186082,38141.3,-56498.7,0,68167.9,15144.8
step02_gravity_refstate-mantle.xmf,895,7.86447e-06,1.91964e-06,0,4.92366e-07,-1.44816e+09,-1.44896e+09,-1.44921e+09,65804.8,-0.0297499,0.0120712,-0,0.0321056,36223.1,-50851.8,0,62434.1,65804.8
step02_gravity_refstate-mantle.xmf,896,7.14915e-06,2.36964e-06,0,7.37564e-07,-1.40548e+09,-1.40612e+09,-1.40644e+09,98575.5,-0.0387009,0.0166548,-0,0.0421325,34625.5,-49529.8,0,60432.8,98575.5
step02_gravity_refstate-mantle.xmf,897,-2.49959e-07,5.98602e-06,0,-3.94898e-08,-1.09828e+09,-1.09744e+09,-1.09824e+09,-5277.82,-0.0138374,0.0789085,-0,0.0801126,28247.5,-40000,0,48968.6,5277.82
step02_gravity_refstate-mantle.xmf,898,-2.06617e-05,5.30395e-05,0,1.96219e-06,-1.7136e+09,-1.70375e+09,-1.71084e+09,262247,0.139002,0.0534593,0,0.148928,-5404.62,-58991.2,-0,59238.2,262247
step02_gravity_refstate-mantle.xmf,899,-1.93718e-05,5.12659e-05,0,5.76194e-09,-1.74613e+09,-1.73669e+09,-1.74354e+09,770.083,0.148783,-8.18432e-19,0,0.148783,-5906.01,-60000,-0,60290,770.083
step02_gravity_refstate-mantle.xmf,900,1.02061e-05,9.19574e-07,0,-1.89779e-08,-1.74389e+09,-1.74514e+09,-1.74526e+09,-2536.4,-7.33421e-18,-1.48192e-19,-0,7.33571e-18,40000,-60000,0,72111,2536.4
step02_gravity_refstate-mantle.xmf,901,1.01305e-05,9.1999e-07,0,5.5057e-08,-1.69098e+09,-1.69221e+09,-1.69233e+09,7358.37,-0.0166566,0.00154296,-0,0.0167279,38355.1,-58364.9,0,69839.6,7358.37
step02_gravity_refstate-mantle.xmf,902,-2.51224e-05,6.01027e-05,0,6.81638e-06,-1.61268e+09,-1.60129e+09,-1.60932e+09,911009,0.102194,0.24384,0,0.264389,-3622.6,-55862,-0,55979.4,911009
step02_gravity_refstate-mantle.xmf,903,-2.6421e-05,6.24332e-05,0,7.6966e-06,-1.58562e+09,-1.57374e+09,-1.58209e+09,1.02865e+06,0.092401,0.300709,0,0.314585,-3175.41,-55023.4,-0,55114.9,1.02865e+06
step02_gravity_refstate-mantle.xmf,904,-2.77827e-05,6.50132e-05,0,8.35518e-06,-1.55937e+09,-1.54697e+09,-1.55566e+09,1.11667e+06,0.0828385,0.35821,0,0.367664,-2753.83,-54210.1,-0,54280,1.11667e+06
step02_gravity_refstate-mantle.xmf,905,-2.90103e-05,6.76021e-05,0,9.04367e-06,-1.53274e+09,-1.51982e+09,-1.52886e+09,1.20869e+06,0.0761091,0.41733,0,0.424213,-2445.81,-53385.8,-0,53441.8,1.20869e+06
step02_gravity_refstate-mantle.xmf,906,-3.18711e-05,7.24601e-05,0,6.69365e-06,-1.50851e+09,-1.49457e+09,-1.50425e+09,894607,0.047681,0.483749,0,0.486093,-1456.37,-52630.8,-0,52650.9,894607
step02_gravity_refstate-mantle.xmf,907,-3.32866e-05,7.55588e-05,0,6.12046e-06,-1.48632e+09,-1.47178e+09,-1.48187e+09,817999,0.0385298,0.538055,0,0.539433,-1137.69,-51943.8,-0,51956.3,817999
step02_gravity_refstate-mantle.xmf,908,-3.47763e-05,7.89851e-05,0,4.9272e-06,-1.46449e+09,-1.44929e+09,-1.45985e+09,658520,0.0275979,0.593561,0,0.594202,-787.064,-51268.3,-0,51274.4,658520
step02_gravity_refstate-mantle.xmf,909,-3.64641e-05,8.31822e-05,0,-1.68946e-06,-1.44081e+09,-1.42482e+09,-1.43594e+09,-225796,-0.00833454,0.656182,-0,0.656235,228.84,-50536.3,0,50536.8,225796
step02_gravity_refstate-mantle.xmf,910,-3.61971e-05,8.48514e-05,0,-9.42843e-06,-1.41753e+09,-1.40135e+09,-1.41269e+09,-1.26011e+06,-0.0423824,0.707305,-0,0.708574,1142.36,-49823.2,0,49836.3,1.26011e+06
step02_gravity_refstate-mantle.xmf,911,2.2099e-06,2.29448e-05,0,-2.65978e-05,-1.22854e+09,-1.22577e+09,-1.22883e+09,-3.5548e+06,-0.0735241,0.6945,-0,0.698381,6418.9,-44083.6,0,44548.4,3.5548e+06
step02_gravity_refstate-mantle.xmf,912,-3.24722e-05,8.35398e-05,0,-2.16979e-05,-1.37713e+09,-1.36163e+09,-1.37279e+09,-2.89993e+06,-0.0844738,0.778142,-0,0.782714,2292.03,-48596.7,0,48650.8,2.89993e+06
step02_gravity_refstate-mantle.xmf,913,-3.36914e-05,8.32692e-05,0,-1.77456e-05,-1.39572e+09,-1.38009e+09,-1.39121e+09,-2.37169e+06,-0.0743003,0.741305,-0,0.745019,2014.84,-49162,0,49203.3,2.37169e+06
step02_gravity_refstate-mantle.xmf,914,-1.69789e-05,6.1317e-05,0,-3.61793e-05,-1.30656e+09,-1.2961e+09,-1.30429e+09,-4.83537e+06,-0.124232,0.805435,-0,0.814959,4267.8,-46463.6,0,46659.2,4.83537e+06
step02_gravity_refstate-mantle.xmf,915,-1.72493e-05,6.37052e-05,0,-3.5418e-05,-1.32114e+09,-1.31032e+09,-1.31883e+09,-4.73362e+06,-0.124378,0.798868,-0,0.808492,4001.1,-46918.2,0,47088.5,4.73362e+06
step02_gravity_refstate-mantle.xmf,916,-2.55107e-05,7.50426e-05,0,-3.05156e-05,-1.35273e+09,-1.33929e+09,-1.34932e+09,-4.07841e+06,-0.111983,0.787836,-0,0.795755,3226.41,-47867.9,0,47976.5,4.07841e+06
step02_gravity_refstate-mantle.xmf,917,-2.06275e-05,6.86485e-05,0,-3.40533e-05,-1.33622e+09,-1.32429e+09,-1.33347e+09,-4.55123e+06,-0.121646,0.791308,-0,0.800604,3703.66,-47374.2,0,47518.8,4.55123e+06
step02_gravity_refstate-mantle.xmf,918,-5.16454e-06,1.28652e-05,0,-7.98206e-06,-1.16262e+09,-1.16021e+09,-1.16193e+09,-1.0668e+06,0.00941337,0.450755,0,0.450853,10277.3,-41972.4,0,43212.3,1.0668e+06
step02_gravity_refstate-mantle.xmf,919,-1.08311e-05,1.2814e-05,0,-6.61015e-06,-1.1e+09,-1.09684e+09,-1.09856e+09,-883447,0.0613846,0.390225,0,0.395023,12071.1,-40000,0,41781.7,883447
step02_gravity_refstate-mantle.xmf,920,-9.43421e-06,1.27511e-05,0,-6.43602e-06,-1.11814e+09,-1.11517e+09,-1.11687e+09,-860174,0.0482581,0.401578,0,0.404467,11646,-40569.3,0,42207.8,860174
step02_gravity_refstate-mantle.xmf,921,-1.9009e-06,1.43897e-05,0,-1.38344e-05,-1.18622e+09,-1.18404e+09,-1.18597e+09,-1.84897e+06,-0.0141935,0.559875,-0,0.560055,8346.14,-42727,0,43534.6,1.84897e+06
step02_gravity_refstate-mantle.xmf,922,-3.06712e-06,1.35255e-05,0,-1.10788e-05,-1.17809e+09,-1.17587e+09,-1.17768e+09,-1.48068e+06,-0.00504688,0.513913,-0,0.513938,9083.6,-42465.9,0,43426.5,1.48068e+06
step02_gravity_refstate-mantle.xmf,923,6.49997e-06,2.79177e-06,0,9.11581e-07,-1.37103e+09,-1.37152e+09,-1.37189e+09,121833,-0.0438474,0.0215119,-0,0.0488401,33358.7,-48462.1,0,58833.5,121833
step02_gravity_refstate-mantle.xmf,924,8.80621e-06,1.50891e-06,0,4.09721e-07,-1.5165e+09,-1.51747e+09,-1.51768e+09,54759.2,-0.0335624,0.0084553,-0,0.0346111,36184.2,-52967.9,0,64147.5,54759.2
step02_gravity_refstate-mantle.xmf,925,5.39592e-06,3.58366e-06,0,1.1652e-06,-1.32262e+09,-1.32287e+09,-1.32334e+09,155729,-0.0513448,0.0324642,-0,0.0607471,30940.6,-46961.6,0,56238,155729
step02_gravity_refstate-mantle.xmf,926,2.47203e-06,5.00854e-06,0,9.51735e-07,-1.20563e+09,-1.20529e+09,-1.20596e+09,127199,-0.0361839,0.0564881,-0,0.0670834,28929.2,-43331.9,0,52101.4,127199
step02_gravity_refstate-mantle.xmf,927,1.12152e-06,5.65592e-06,0,6.35971e-07,-1.16143e+09,-1.16082e+09,-1.16158e+09,84997.5,-0.027972,0.0700417,-0,0.0754207,27858.2,-41959,0,50365,84997.5
step02_gravity_refstate-mantle.xmf,928,4.09402e-06,4.29301e-06,0,1.16437e-06,-1.26914e+09,-1.26911e+09,-1.26969e+09,155618,-0.0473076,0.0437636,-0,0.0644458,29671.9,-45302.6,0,54154.8,155618
step02_gravity_refstate-mantle.xmf,929,-8.63253e-07,6.4664e-06,0,-1.75017e-07,-1.09837e+09,-1.09739e+09,-1.09826e+09,-23391.1,-0.0129898,0.090998,-0,0.0919204,26604.2,-40000,0,48039.4,23391.1
step02_gravity_refstate-mantle.xmf,930,1.70265e-07,6.11729e-06,0,3.18988e-07,-1.13419e+09,-1.1334e+09,-1.13421e+09,42632.8,-0.0219095,0.0812163,-0,0.0841196,26961.7,-41112.5,0,49164.8,42632.8
step02_gravity_refstate-mantle.xmf,931,-1.5514e-06,6.99872e-06,0,-3.45014e-07,-1.09848e+09,-1.09733e+09,-1.09827e+09,-46111.1,-0.0111431,0.104906,-0,0.105496,25039.7,-40000,0,47191,46111.1
step02_gravity_refstate-mantle.xmf,932,-1.43006e-07,6.47582e-06,0,3.10967e-07,-1.13952e+09,-1.13863e+09,-1.1395e+09,41560.7,-0.0233364,0.0899749,-0,0.092952,25734.1,-41275.8,0,48640.9,41560.7
step02_gravity_refstate-mantle.xmf,933,-2.3899e-05,5.80399e-05,0,5.77248e-06,-1.63918e+09,-1.62823e+09,-1.63598e+09,771493,0.112007,0.19041,0,0.22091,-4082.15,-56683.4,-0,56830.2,771493
step02_gravity_refstate-mantle.xmf,934,-2.3026e-05,5.65824e-05,0,4.43282e-06,-1.66649e+09,-1.65585e+09,-1.66342e+09,592446,0.118888,0.13898,0,0.182893,-4426.02,-57529.4,-0,57699.4,592446
step02_gravity_refstate-mantle.xmf,935,1.02131e-05,9.84553e-07,0,-2.21631e-08,-1.74389e+09,-1.74512e+09,-1.74525e+09,-2962.09,-0.0239029,-2.14794e-19,-0,0.0239029,37657.4,-60000,0,70838.4,2962.09
step02_gravity_refstate-mantle.xmf,936,-3.06529e-05,6.99252e-05,0,7.01689e-06,-1.52752e+09,-1.51408e+09,-1.52342e+09,937807,0.0561706,0.438209,0,0.441795,-1765.02,-53219.6,-0,53248.8,937807
step02_gravity_refstate-mantle.xmf,937,-3.53963e-05,7.99483e-05,0,3.43485e-07,-1.46279e+09,-1.44738e+09,-1.45806e+09,45906.7,0.00198593,0.601278,0,0.601281,-56.2381,-51214.1,-0,51214.1,45906.7
step02_gravity_refstate-mantle.xmf,938,-3.59403e-05,8.27652e-05,0,-6.5954e-06,-1.43628e+09,-1.42042e+09,-1.43148e+09,-881476,-0.032138,0.662804,-0,0.663583,882.952,-50398.8,0,50406.5,881476
step02_gravity_refstate-mantle.xmf,939,-1.39012e-05,5.86088e-05,0,-4.14899e-05,-1.29389e+09,-1.2842e+09,-1.29204e+09,-5.54513e+06,-0.124369,0.809084,-0,0.818587,4492.11,-46085.9,0,46304.4,5.54513e+06
step02_gravity_refstate-mantle.xmf,940,-4.73536e-07,3.92559e-05,0,-3.8521e-05,-1.26619e+09,-1.26088e+09,-1.26613e+09,-5.14833e+06,-0.115883,0.774478,-0,0.7831,5248.56,-45270.6,0,45573.8,5.14833e+06
step02_gravity_refstate-mantle.xmf,941,-5.70216e-06,4.7921e-05,0,-4.09629e-05,-1.28481e+09,-1.27765e+09,-1.28405e+09,-5.47469e+06,-0.125962,0.780326,-0,0.790427,4941.96,-45832.9,0,46098.6,5.47469e+06
step02_gravity_refstate-mantle.xmf,942,2.84748e-06,2.70763e-05,0,-3.01204e-05,-1.24655e+09,-1.24331e+09,-1.24693e+09,-4.02559e+06,-0.0959626,0.70854,-0,0.715009,6119.88,-44654.9,0,45072.3,4.02559e+06
step02_gravity_refstate-mantle.xmf,943,7.8199e-07,1.73846e-05,0,-1.9404e-05,-1.20879e+09,-1.20657e+09,-1.20889e+09,-2.59335e+06,-0.0451672,0.623622,-0,0.625256,7365.91,-43449.7,0,44069.7,2.59335e+06
step02_gravity_refstate-mantle.xmf,944,2.3594e-06,1.981e-05,0,-2.22926e-05,-1.22726e+09,-1.22493e+09,-1.22757e+09,-2.9794e+06,-0.0701628,0.637628,-0,0.641477,7067.76,-44037.1,0,44600.6,2.9794e+06
step02_gravity_refstate-mantle.xmf,945,-3.41402e-05,8.20388e-05,0,-1.43186e-05,-1.41541e+09,-1.39988e+09,-1.41084e+09,-1.91368e+06,-0.0652346,0.69823,-0,0.70127,1788.36,-49764.1,0,49796.2,1.91368e+06
step02_gravity_refstate-mantle.xmf,946,-2.85041e-05,7.7652e-05,0,-2.58485e-05,-1.37416e+09,-1.35997e+09,-1.37035e+09,-3.45466e+06,-0.103413,0.755964,-0,0.763004,2909.93,-48516.4,0,48603.6,3.45466e+06
step02_gravity_refstate-mantle.xmf,947,-3.10515e-06,1.29884e-05,0,-8.90884e-06,-1.17959e+09,-1.17744e+09,-1.17917e+09,-1.19067e+06,-0.00952659,0.462823,-0,0.462921,9929.95,-42510.5,0,43654.9,1.19067e+06
step02_gravity_refstate-mantle.xmf,948,-6.06467e-06,1.26521e-05,0,-6.87068e-06,-1.15366e+09,-1.15116e+09,-1.15285e+09,-918266,0.0162545,0.42244,0,0.422752,10899.5,-41689,0,43090.3,918266
step02_gravity_refstate-mantle.xmf,949,-8.02235e-06,1.22858e-05,0,-5.15835e-06,-1.12521e+09,-1.12249e+09,-1.12414e+09,-689413,0.0335229,0.361203,0,0.362755,12531.4,-40796,0,42677.3,689413
step02_gravity_refstate-mantle.xmf,950,-6.90905e-06,1.24322e-05,0,-5.84163e-06,-1.14217e+09,-1.13958e+09,-1.14124e+09,-780733,0.0236163,0.39158,0,0.392291,11655.8,-41327.7,0,42939.9,780733
step02_gravity_refstate-mantle.xmf,951,-9.94319e-06,1.23776e-05,0,-5.6151e-06,-1.09985e+09,-1.09686e+09,-1.09852e+09,-750458,0.0519212,0.353428,0,0.357221,12982.1,-40000,0,42054,750458
step02_gravity_refstate-mantle.xmf,952,-9.06318e-06,1.19423e-05,0,-4.70037e-06,-1.09969e+09,-1.09689e+09,-1.09848e+09,-628205,0.0428546,0.318964,0,0.32183,13939,-40000,0,42359.1,628205
step02_gravity_refstate-mantle.xmf,953,-7.81834e-06,1.19436e-05,0,-4.40022e-06,-1.1204e+09,-1.11776e+09,-1.11936e+09,-588089,0.0303619,0.328333,0,0.329734,13448.1,-40648.1,0,42814.9,588089
step02_gravity_refstate-mantle.xmf,954,-8.16865e-06,1.14581e-05,0,-3.89892e-06,-1.09954e+09,-1.09692e+09,-1.09845e+09,-521090,0.034239,0.286764,0,0.288801,14944.2,-40000,0,42700.4,521090
step02_gravity_refstate-mantle.xmf,955,-6.81805e-06,1.14792e-05,0,-3.56371e-06,-1.12633e+09,-1.12388e+09,-1.12542e+09,-476289,0.019207,0.29701,0,0.29763,14307,-40836.6,0,43270.3,476289
step02_gravity_refstate-mantle.xmf,956,4.32204e-07,1.55261e-05,0,-1.58234e-05,-1.20584e+09,-1.20382e+09,-1.2059e+09,-2.11479e+06,-0.0406049,0.569796,-0,0.571241,8079.51,-43351.5,0,44098,2.11479e+06
step02_gravity_refstate-mantle.xmf,957,6.4568e-06,3.02005e-06,0,1.07566e-06,-1.3729e+09,-1.37336e+09,-1.37377e+09,143761,-0.0539091,0.0247127,-0,0.0593036,31843.5,-48520.4,0,58036.5,143761
step02_gravity_refstate-mantle.xmf,958,9.56595e-06,1.23348e-06,0,3.19393e-07,-1.59143e+09,-1.59254e+09,-1.5927e+09,42686.8,-0.0384369,0.00536781,-0,0.03881,35980.1,-55286.8,0,65963.6,42686.8
step02_gravity_refstate-mantle.xmf,959,1.00797e-05,1.04856e-06,0,1.40035e-07,-1.67504e+09,-1.67624e+09,-1.67638e+09,18715.7,-0.0365497,0.00228173,-0,0.0366209,36371.8,-57872.5,0,68353,18715.7
step02_gravity_refstate-mantle.xmf,960,7.39616e-06,2.49082e-06,0,9.22275e-07,-1.42335e+09,-1.424e+09,-1.42434e+09,123262,-0.0536335,0.018245,-0,0.0566519,32821.6,-50083.5,0,59880.1,123262
step02_gravity_refstate-mantle.xmf,961,8.25901e-06,1.94363e-06,0,6.9837e-07,-1.47715e+09,-1.478e+09,-1.47826e+09,93337.1,-0.0481564,0.012427,-0,0.049734,34186.1,-51750,0,62022.2,93337.1
step02_gravity_refstate-mantle.xmf,962,-2.28537e-06,7.55235e-06,0,-5.66788e-07,-1.09859e+09,-1.09727e+09,-1.09828e+09,-75751.2,-0.00832834,0.120673,-0,0.12096,23550.3,-40000,0,46417.8,75751.2
step02_gravity_refstate-mantle.xmf,963,-7.64563e-07,7.01219e-06,0,1.73532e-07,-1.13891e+09,-1.13787e+09,-1.1388e+09,23192.5,-0.022448,0.10444,-0,0.106825,24204.2,-41254.2,0,47830.4,23192.5
step02_gravity_refstate-mantle.xmf,964,-2.23697e-05,5.54701e-05,0,2.98002e-06,-1.69415e+09,-1.68374e+09,-1.69116e+09,398280,0.124159,0.0893686,0,0.152978,-4696.12,-58385.1,-0,58573.6,398280
step02_gravity_refstate-mantle.xmf,965,-2.23273e-05,5.5271e-05,0,1.20777e-08,-1.74643e+09,-1.73606e+09,-1.74345e+09,1614.19,0.124068,-7.83813e-19,0,0.124068,-4720.6,-60000,-0,60185.4,1614.19
step02_gravity_refstate-mantle.xmf,966,-2.59688e-05,6.08265e-05,0,4.87781e-06,-1.638e+09,-1.6264e+09,-1.63453e+09,651919,0.0891493,0.20139,0,0.220239,-3162.96,-56640.3,-0,56728.5,651919
step02_gravity_refstate-mantle.xmf,967,-2.7183e-05,6.29044e-05,0,5.48255e-06,-1.61151e+09,-1.59947e+09,-1.60788e+09,732743,0.0778931,0.256298,0,0.267873,-2690.54,-55819.3,-0,55884.1,732743
step02_gravity_refstate-mantle.xmf,968,-2.84909e-05,6.52632e-05,0,5.80825e-06,-1.58415e+09,-1.57162e+09,-1.58034e+09,776273,0.0663851,0.315048,0,0.321966,-2224.27,-54971.3,-0,55016.3,776273
step02_gravity_refstate-mantle.xmf,969,-3.00655e-05,6.81755e-05,0,5.77005e-06,-1.55418e+09,-1.54105e+09,-1.55017e+09,771167,0.0536907,0.38176,0,0.385517,-1733.71,-54042.7,-0,54070.5,771167
step02_gravity_refstate-mantle.xmf,970,-3.16474e-05,7.1126e-05,0,4.35196e-06,-1.53174e+09,-1.518e+09,-1.52751e+09,581639,0.0349255,0.43585,0,0.437247,-1089.85,-53346.3,-0,53357.4,581639
step02_gravity_refstate-mantle.xmf,971,-3.29363e-05,7.39239e-05,0,3.35321e-06,-1.50858e+09,-1.4943e+09,-1.50418e+09,448156,0.0235722,0.490302,0,0.490869,-712.272,-52629.4,-0,52634.2,448156
step02_gravity_refstate-mantle.xmf,972,-3.41855e-05,7.68436e-05,0,2.11478e-06,-1.48554e+09,-1.4707e+09,-1.48097e+09,282641,0.0131898,0.545513,0,0.545672,-385.7,-51916.8,-0,51918.2,282641
step02_gravity_refstate-mantle.xmf,973,-3.50514e-05,7.94911e-05,0,-4.60907e-06,-1.46075e+09,-1.44544e+09,-1.45606e+09,-616002,-0.0248091,0.603466,-0,0.603976,703.091,-51152.1,0,51156.9,616002
step02_gravity_refstate-mantle.xmf,974,-3.44341e-05,8.07701e-05,0,-1.13487e-05,-1.43336e+09,-1.41797e+09,-1.42876e+09,-1.51675e+06,-0.0555405,0.659189,-0,0.661524,1543.37,-50313.5,0,50337.2,1.51675e+06
step02_gravity_refstate-mantle.xmf,975,1.52222e-06,3.24376e-05,0,-3.35578e-05,-1.265e+09,-1.26087e+09,-1.2652e+09,-4.485e+06,-0.11449,0.717752,-0,0.726826,5842.49,-45229.5,0,45605.3,4.485e+06
step02_gravity_refstate-mantle.xmf,976,3.13236e-06,2.31667e-05,0,-2.56063e-05,-1.24637e+09,-1.24369e+09,-1.24679e+09,-3.42228e+06,-0.0936404,0.650653,-0,0.657357,6763.61,-44641.2,0,45150.7,3.42228e+06
step02_gravity_refstate-mantle.xmf,977,-3.00885e-05,7.79156e-05,0,-2.22003e-05,-1.39415e+09,-1.37972e+09,-1.39013e+09,-2.96707e+06,-0.0954681,0.719485,-0,0.725792,2675.29,-49124.2,0,49197,2.96707e+06
step02_gravity_refstate-mantle.xmf,978,-3.22035e-05,7.95541e-05,0,-1.79696e-05,-1.40983e+09,-1.3949e+09,-1.40553e+09,-2.40164e+06,-0.0814342,0.697491,-0,0.702229,2263.89,-49598.5,0,49650.2,2.40164e+06
step02_gravity_refstate-mantle.xmf,979,-1.17417e-05,5.36803e-05,0,-3.77717e-05,-1.30472e+09,-1.29598e+09,-1.30315e+09,-5.04818e+06,-0.131574,0.762163,-0,0.773437,4807.95,-46422.3,0,46670.6,5.04818e+06
step02_gravity_refstate-mantle.xmf,980,-1.42784e-05,5.74389e-05,0,-3.51097e-05,-1.32075e+09,-1.31116e+09,-1.31884e+09,-4.69241e+06,-0.132857,0.756573,-0,0.76815,4544.24,-46910,0,47129.6,4.69241e+06
step02_gravity_refstate-mantle.xmf,981,-1.66195e-05,6.1314e-05,0,-3.3747e-05,-1.33707e+09,-1.32666e+09,-1.33485e+09,-4.51028e+06,-0.131888,0.749712,-0,0.761224,4244.58,-47408.4,0,47598.1,4.51028e+06
step02_gravity_refstate-mantle.xmf,982,-2.03831e-05,6.63157e-05,0,-3.174e-05,-1.3544e+09,-1.34281e+09,-1.35167e+09,-4.24205e+06,-0.126991,0.741862,-0,0.752653,3874.86,-47931.3,0,48087.6,4.24205e+06
step02_gravity_refstate-mantle.xmf,983,-2.38808e-05,7.02916e-05,0,-2.87965e-05,-1.37152e+09,-1.35893e+09,-1.36833e+09,-3.84865e+06,-0.119843,0.727318,-0,0.737125,3535.04,-48446.9,0,48575.7,3.84865e+06
step02_gravity_refstate-mantle.xmf,984,-3.45218e-06,1.25977e-05,0,-7.2628e-06,-1.17805e+09,-1.1759e+09,-1.17759e+09,-970674,-0.0102844,0.421621,-0,0.421746,10720.5,-42459.6,0,43792.1,970674
step02_gravity_refstate-mantle.xmf,985,-7.28587e-06,1.09468e-05,0,-3.18907e-06,-1.09939e+09,-1.09695e+09,-1.09842e+09,-426219,0.0261354,0.256773,0,0.2581,15999.9,-40000,0,43081.3,426219
step02_gravity_refstate-mantle.xmf,986,-5.99376e-06,1.09643e-05,0,-2.81096e-06,-1.12805e+09,-1.12578e+09,-1.12725e+09,-375684,0.0113126,0.265389,0,0.26563,15331.7,-40893.9,0,43673.5,375684
step02_gravity_refstate-mantle.xmf,987,-1.55459e-07,1.43289e-05,0,-1.28922e-05,-1.20304e+09,-1.2011e+09,-1.20302e+09,-1.72304e+06,-0.036803,0.521048,-0,0.522347,8802.38,-43258,0,44144.5,1.72304e+06
step02_gravity_refstate-mantle.xmf,988,-3.05592e-06,8.12098e-06,0,-8.43236e-07,-1.09871e+09,-1.09721e+09,-1.0983e+09,-112698,-0.00458312,0.138344,-0,0.13842,22132.3,-40000,0,45714.8,112698
step02_gravity_refstate-mantle.xmf,989,-1.37344e-06,7.55164e-06,0,-6.65344e-09,-1.13927e+09,-1.13808e+09,-1.13909e+09,-889.233,-0.0210355,0.120274,-0,0.122099,22773.3,-41262.8,0,47130.1,889.233
step02_gravity_refstate-mantle.xmf,990,9.03609e-06,1.59268e-06,0,5.30778e-07,-1.53812e+09,-1.53911e+09,-1.53932e+09,70938.5,-0.0489383,0.00864113,-0,0.0496954,34588.2,-53637.5,0,63822.6,70938.5
step02_gravity_refstate-mantle.xmf,991,6.38568e-06,3.35966e-06,0,1.21916e-06,-1.37484e+09,-1.37525e+09,-1.3757e+09,162941,-0.0653491,0.0295353,-0,0.0717136,30110.6,-48580.7,0,57155.3,162941
step02_gravity_refstate-mantle.xmf,992,5.32136e-06,3.9442e-06,0,1.29737e-06,-1.32722e+09,-1.3274e+09,-1.32793e+09,173394,-0.0617763,0.0384948,-0,0.0727885,29157.1,-47104.1,0,55397.9,173394
step02_gravity_refstate-mantle.xmf,993,9.92909e-07,5.99789e-06,0,7.16478e-07,-1.17336e+09,-1.17269e+09,-1.1735e+09,95757.3,-0.0326216,0.0783264,-0,0.0848481,26364.8,-42327.7,0,49867.2,95757.3
step02_gravity_refstate-mantle.xmf,994,2.20527e-06,5.44567e-06,0,1.01998e-06,-1.21119e+09,-1.21075e+09,-1.21148e+09,136321,-0.04169,0.0660635,-0,0.0781181,27147.6,-43502.7,0,51278.5,136321
step02_gravity_refstate-mantle.xmf,995,3.43452e-06,4.86866e-06,0,1.20559e-06,-1.25315e+09,-1.25296e+09,-1.25361e+09,161127,-0.0502586,0.0546015,-0,0.0742108,27928.4,-44805.7,0,52797.2,161127
step02_gravity_refstate-mantle.xmf,996,6.50871e-07,6.45277e-06,0,6.81059e-07,-1.17761e+09,-1.17684e+09,-1.1777e+09,91023.5,-0.0350961,0.0897592,-0,0.0963766,24887.8,-42457.9,0,49214.6,91023.5
step02_gravity_refstate-mantle.xmf,997,-2.3623e-05,5.70376e-05,0,1.50636e-06,-1.7175e+09,-1.70672e+09,-1.71434e+09,201325,0.111227,0.0511563,0,0.122427,-4152.36,-59102,-0,59247.7,201325
step02_gravity_refstate-mantle.xmf,998,-2.48989e-05,5.90951e-05,0,4.18336e-06,-1.66024e+09,-1.64902e+09,-1.65691e+09,559107,0.0994567,0.156618,0,0.185528,-3605.14,-57330.1,-0,57443.3,559107
step02_gravity_refstate-mantle.xmf,999,-2.49055e-05,5.88968e-05,0,2.83881e-06,-1.688e+09,-1.6768e+09,-1.68467e+09,379407,0.0977597,0.106292,0,0.144412,-3572.12,-58187,-0,58296.6,379407
step02_gravity_refstate-mantle.xmf,1000,1.02129e-05,1.18509e-06,0,-1.22531e-08,-1.74387e+09,-1.74508e+09,-1.74524e+09,-1637.62,-0.046772,-2.16465e-19,-0,0.046772,35418.4,-60000,0,69674,1637.62
step02_gravity_refstate-mantle.xmf,1001,-3.43128e-05,7.70545e-05,0,-1.83444e-06,-1.48375e+09,-1.46887e+09,-1.47917e+09,-245173,-0.0109765,0.549997,-0,0.550106,320.124,-51861.4,0,51862.4,245173
step02_gravity_refstate-mantle.xmf,1002,-3.45262e-05,7.95596e-05,0,-8.51903e-06,-1.4499e+09,-1.43465e+09,-1.44528e+09,-1.13857e+06,-0.0445093,0.623606,-0,0.625192,1254.45,-50820.5,0,50836,1.13857e+06
step02_gravity_refstate-mantle.xmf,1003,-1.4448e-06,3.8688e-05,0,-3.61939e-05,-1.28284e+09,-1.27748e+09,-1.28265e+09,-4.83732e+06,-0.127278,0.723029,-0,0.734146,5576.96,-45776.8,0,46115.3,4.83732e+06
step02_gravity_refstate-mantle.xmf,1004,2.84971e-06,2.73234e-05,0,-2.89679e-05,-1.26462e+09,-1.26134e+09,-1.265e+09,-3.87156e+06,-0.11273,0.662118,-0,0.671646,6463.72,-45213.5,0,45673.2,3.87156e+06
step02_gravity_refstate-mantle.xmf,1005,3.29957e-06,2.02319e-05,0,-2.16572e-05,-1.24704e+09,-1.24478e+09,-1.24748e+09,-2.89448e+06,-0.0919634,0.595281,-0,0.602343,7438.3,-44655.5,0,45270.8,2.89448e+06
step02_gravity_refstate-mantle.xmf,1006,2.2009e-06,1.75074e-05,0,-1.85233e-05,-1.22642e+09,-1.22437e+09,-1.22671e+09,-2.47563e+06,-0.0672894,0.582907,-0,0.586778,7759.44,-44004.1,0,44683,2.47563e+06
step02_gravity_refstate-mantle.xmf,1007,-3.16679e-05,7.71241e-05,0,-1.65997e-05,-1.42717e+09,-1.41263e+09,-1.42294e+09,-2.21855e+06,-0.0814428,0.654223,-0,0.659273,2311.16,-50131.5,0,50184.7,2.21855e+06
step02_gravity_refstate-mantle.xmf,1008,-2.6346e-05,7.2749e-05,0,-2.58127e-05,-1.387e+09,-1.37376e+09,-1.38348e+09,-3.44987e+06,-0.112408,0.708458,-0,0.717321,3259.65,-48915.1,0,49023.6,3.44987e+06
step02_gravity_refstate-mantle.xmf,1009,-3.85385e-06,8.69585e-06,0,-1.17977e-06,-1.09883e+09,-1.09716e+09,-1.09832e+09,-157677,4.17677e-05,0.157963,0,0.157963,20782.4,-40000,0,45076.7,157677
step02_gravity_refstate-mantle.xmf,1010,-2.08578e-06,8.11636e-06,0,-2.79814e-07,-1.13708e+09,-1.13572e+09,-1.1368e+09,-37397.2,-0.0178245,0.1384,-0,0.139543,21425.1,-41191.9,0,46430.6,37397.2
step02_gravity_refstate-mantle.xmf,1011,-7.26558e-07,1.34525e-05,0,-1.03969e-05,-1.20072e+09,-1.19882e+09,-1.20062e+09,-1.38955e+06,-0.0342414,0.474029,-0,0.475264,9579.26,-43180.3,0,44230.1,1.38955e+06
step02_gravity_refstate-mantle.xmf,1012,-4.67347e-06,9.27046e-06,0,-1.57874e-06,-1.09896e+09,-1.0971e+09,-1.09834e+09,-210998,0.00548911,0.179575,0,0.179659,19497.2,-40000,0,44498.8,210998
step02_gravity_refstate-mantle.xmf,1013,-2.83124e-06,8.67931e-06,0,-6.2845e-07,-1.13418e+09,-1.13264e+09,-1.1338e+09,-83992.3,-0.0134134,0.158332,-0,0.158899,20161,-41098.5,0,45777.2,83992.3
step02_gravity_refstate-mantle.xmf,1014,-1.14123e-06,1.27999e-05,0,-8.37609e-06,-1.19952e+09,-1.19766e+09,-1.19937e+09,-1.11946e+06,-0.0335869,0.430098,-0,0.431408,10385.7,-43139,0,44371.5,1.11946e+06
step02_gravity_refstate-mantle.xmf,1015,-4.23839e-06,1.2256e-05,0,-5.90638e-06,-1.17006e+09,-1.16785e+09,-1.16949e+09,-789387,-0.0046242,0.387344,-0,0.387372,11508.4,-42206.6,0,43747.4,789387
step02_gravity_refstate-mantle.xmf,1016,-5.51394e-06,9.83888e-06,0,-2.04284e-06,-1.0991e+09,-1.09705e+09,-1.09836e+09,-273026,0.0116959,0.203219,0,0.203556,18273.7,-40000,0,43976.5,273026
step02_gravity_refstate-mantle.xmf,1017,-3.53759e-06,9.23166e-06,0,-1.01935e-06,-1.13274e+09,-1.13104e+09,-1.13227e+09,-136236,-0.00879038,0.180053,-0,0.180267,18941.6,-41051,0,45210.2,136236
step02_gravity_refstate-mantle.xmf,1018,-6.38168e-06,1.03979e-05,0,-2.57763e-06,-1.09924e+09,-1.097e+09,-1.09839e+09,-344500,0.0185987,0.228938,0,0.229692,17108.9,-40000,0,43505.3,344500
step02_gravity_refstate-mantle.xmf,1019,-4.16236e-06,9.76805e-06,0,-1.44243e-06,-1.13353e+09,-1.13167e+09,-1.13297e+09,-192781,-0.00457892,0.203674,-0,0.203725,17751.9,-41072.4,0,44744.5,192781
step02_gravity_refstate-mantle.xmf,1020,-4.72818e-06,1.03325e-05,0,-1.96123e-06,-1.13618e+09,-1.13417e+09,-1.13555e+09,-262119,-0.000471424,0.232069,-0,0.23207,16483.9,-41152.1,0,44330.7,262119
step02_gravity_refstate-mantle.xmf,1021,-4.86986e-06,1.19066e-05,0,-4.74207e-06,-1.16028e+09,-1.15804e+09,-1.15963e+09,-633778,0.00105052,0.353062,0,0.353064,12401.2,-41899.6,0,43696.3,633778
step02_gravity_refstate-mantle.xmf,1022,-5.29146e-06,1.15458e-05,0,-3.73131e-06,-1.15096e+09,-1.1487e+09,-1.15025e+09,-498689,0.00396267,0.315904,0,0.315929,13480.7,-41607.7,0,43737.1,498689
step02_gravity_refstate-mantle.xmf,1023,-4.63013e-06,1.10063e-05,0,-2.82561e-06,-1.1534e+09,-1.15131e+09,-1.15278e+09,-377643,-0.00368297,0.278371,-0,0.278396,14596.5,-41686.2,0,44167.9,377643
step02_gravity_refstate-mantle.xmf,1024,1.95371e-06,1.56783e-05,0,-1.52402e-05,-1.22467e+09,-1.22283e+09,-1.22493e+09,-2.03685e+06,-0.0635545,0.532088,-0,0.53587,8482.67,-43943.7,0,44754.9,2.03685e+06
step02_gravity_refstate-mantle.xmf,1025,7.35269e-06,2.81748e-06,0,1.0791e-06,-1.42484e+09,-1.42544e+09,-1.42582e+09,144222,-0.0670865,0.0220737,-0,0.0706246,31023.7,-50130.1,0,58953.4,144222
step02_gravity_refstate-mantle.xmf,1026,9.88058e-06,1.29549e-06,0,2.76257e-07,-1.63511e+09,-1.63626e+09,-1.63643e+09,36921.8,-0.0526235,0.00428225,-0,0.0527974,34672,-56638.4,0,66408.3,36921.8
step02_gravity_refstate-mantle.xmf,1027,9.51048e-06,1.52281e-06,0,4.72556e-07,-1.58577e+09,-1.58684e+09,-1.58704e+09,63157.1,-0.0584697,0.0069612,-0,0.0588826,33853.5,-55112.5,0,64679.6,63157.1
step02_gravity_refstate-mantle.xmf,1028,8.21247e-06,2.3055e-06,0,8.90898e-07,-1.47702e+09,-1.47781e+09,-1.47812e+09,119069,-0.0660792,0.0157607,-0,0.0679328,32008.1,-51746.5,0,60845.9,119069
step02_gravity_refstate-mantle.xmf,1029,8.93116e-06,1.8829e-06,0,6.86809e-07,-1.53054e+09,-1.53148e+09,-1.53173e+09,91792,-0.0636624,0.0108921,-0,0.0645875,32889.8,-53403.3,0,62718.8,91792
step02_gravity_refstate-mantle.xmf,1030,1.88489e-07,6.98081e-06,0,5.65304e-07,-1.17897e+09,-1.17806e+09,-1.17899e+09,75552.8,-0.0361749,0.104476,-0,0.110561,23371,-42498,0,48500.4,75552.8
step02_gravity_refstate-mantle.xmf,1031,4.43538e-06,4.41394e-06,0,1.28399e-06,-1.29152e+09,-1.29152e+09,-1.29211e+09,171605,-0.0574652,0.04642,-0,0.073872,28432.3,-45996.6,0,54074.8,171605
step02_gravity_refstate-mantle.xmf,1032,-2.64929e-05,6.11964e-05,0,3.28437e-06,-1.66383e+09,-1.65211e+09,-1.66029e+09,438956,0.0781453,0.155521,0,0.17405,-2780.45,-57435.6,-0,57502.9,438956
step02_gravity_refstate-mantle.xmf,1033,-2.48599e-05,5.86725e-05,0,1.91553e-08,-1.7467e+09,-1.73554e+09,-1.74338e+09,2560.11,0.096212,-7.81656e-19,0,0.096212,-3539.92,-60000,-0,60104.3,2560.11
step02_gravity_refstate-mantle.xmf,1034,-2.766e-05,6.30856e-05,0,3.63168e-06,-1.63799e+09,-1.62586e+09,-1.63429e+09,485374,0.0639023,0.208574,0,0.218143,-2221.27,-56634.4,-0,56678,485374
step02_gravity_refstate-mantle.xmf,1035,1.0125e-05,1.31422e-06,0,1.71189e-07,-1.68779e+09,-1.68897e+09,-1.68915e+09,22879.4,-0.0588099,0.00232838,-0,0.0588559,34189,-58267.5,0,67557.3,22879.4
step02_gravity_refstate-mantle.xmf,1036,-2.87714e-05,6.5031e-05,0,3.73277e-06,-1.61106e+09,-1.59852e+09,-1.60721e+09,498884,0.0512629,0.264998,0,0.269911,-1737.73,-55800.1,-0,55827.1,498884
step02_gravity_refstate-mantle.xmf,1037,-2.99641e-05,6.722e-05,0,3.42401e-06,-1.58366e+09,-1.57067e+09,-1.57966e+09,457619,0.0381048,0.32399,0,0.326223,-1255.46,-54951.5,-0,54965.9,457619
step02_gravity_refstate-mantle.xmf,1038,-3.11641e-05,6.95475e-05,0,2.44491e-06,-1.55806e+09,-1.5446e+09,-1.5539e+09,326762,0.0228844,0.380793,0,0.38148,-731.948,-54158.7,-0,54163.7,326762
step02_gravity_refstate-mantle.xmf,1039,-3.22886e-05,7.19967e-05,0,9.22534e-07,-1.53238e+09,-1.51844e+09,-1.52806e+09,123297,0.00741328,0.438471,0,0.438534,-229.938,-53364,-0,53364.5,123297
step02_gravity_refstate-mantle.xmf,1040,-3.33158e-05,7.45348e-05,0,-3.35945e-07,-1.50743e+09,-1.49302e+09,-1.50298e+09,-44899.1,-0.0021698,0.495049,-0,0.495054,65.3204,-52593.1,0,52593.1,44899.1
step02_gravity_refstate-mantle.xmf,1041,-3.35118e-05,7.57423e-05,0,-5.49928e-06,-1.48616e+09,-1.47156e+09,-1.48168e+09,-734979,-0.0340783,0.539861,-0,0.540936,1003.92,-51937.7,0,51947.4,734979
step02_gravity_refstate-mantle.xmf,1042,-3.33095e-05,7.65888e-05,0,-8.95768e-06,-1.46707e+09,-1.45238e+09,-1.46262e+09,-1.19719e+06,-0.0513035,0.578553,-0,0.580824,1487.5,-51351.6,0,51373.1,1.19719e+06
step02_gravity_refstate-mantle.xmf,1043,-3.25998e-05,7.68458e-05,0,-1.27315e-05,-1.44838e+09,-1.43376e+09,-1.44403e+09,-1.70157e+06,-0.067833,0.613796,-0,0.617533,1945.99,-50779.7,0,50817,1.70157e+06
step02_gravity_refstate-mantle.xmf,1044,-5.86497e-06,4.50589e-05,0,-3.66932e-05,-1.29985e+09,-1.29305e+09,-1.29907e+09,-4.90405e+06,-0.134605,0.723416,-0,0.735832,5331.41,-46289.1,0,46595.1,4.90405e+06
step02_gravity_refstate-mantle.xmf,1045,7.87501e-07,3.25647e-05,0,-3.18082e-05,-1.28248e+09,-1.27824e+09,-1.28259e+09,-4.25117e+06,-0.12723,0.670758,-0,0.682718,6171.77,-45765,0,46179.3,4.25117e+06
step02_gravity_refstate-mantle.xmf,1046,3.24844e-06,2.38152e-05,0,-2.4888e-05,-1.26561e+09,-1.26286e+09,-1.26604e+09,-3.32628e+06,-0.111548,0.609341,-0,0.619467,7095.36,-45237.8,0,45790.9,3.32628e+06
step02_gravity_refstate-mantle.xmf,1047,-2.97502e-05,7.55763e-05,0,-2.02081e-05,-1.41299e+09,-1.39891e+09,-1.40901e+09,-2.70082e+06,-0.0955012,0.673052,-0,0.679794,2726.8,-49702.2,0,49777,2.70082e+06
step02_gravity_refstate-mantle.xmf,1048,-1.01086e-05,5.03938e-05,0,-3.49392e-05,-1.31912e+09,-1.31103e+09,-1.31776e+09,-4.66963e+06,-0.139202,0.715123,-0,0.728545,5095.17,-46869.4,0,47145.5,4.66963e+06
step02_gravity_refstate-mantle.xmf,1049,-1.28905e-05,5.44072e-05,0,-3.33569e-05,-1.33639e+09,-1.32739e+09,-1.33466e+09,-4.45815e+06,-0.140496,0.707439,-0,0.721255,4833.84,-47394.5,0,47640.4,4.45815e+06
step02_gravity_refstate-mantle.xmf,1050,-1.59294e-05,5.86522e-05,0,-3.18779e-05,-1.3537e+09,-1.34373e+09,-1.35157e+09,-4.26049e+06,-0.138648,0.699816,-0,0.713418,4518.68,-47919.8,0,48132.4,4.26049e+06
step02_gravity_refstate-mantle.xmf,1051,-1.92387e-05,6.27677e-05,0,-2.98997e-05,-1.37102e+09,-1.36006e+09,-1.36845e+09,-3.9961e+06,-0.133968,0.688925,-0,0.701829,4190.1,-48443.4,0,48624.3,3.9961e+06
step02_gravity_refstate-mantle.xmf,1052,-2.25591e-05,6.65382e-05,0,-2.72272e-05,-1.38881e+09,-1.3769e+09,-1.38579e+09,-3.63892e+06,-0.126352,0.674351,-0,0.686086,3833.71,-48980.2,0,49130,3.63892e+06
step02_gravity_refstate-mantle.xmf,1053,-2.61951e-05,7.06164e-05,0,-2.36824e-05,-1.40633e+09,-1.39339e+09,-1.40283e+09,-3.16515e+06,-0.113348,0.661932,-0,0.671566,3344.29,-49507.7,0,49620.6,3.16515e+06
step02_gravity_refstate-mantle.xmf,1054,-1.79112e-06,1.23117e-05,0,-6.65013e-06,-1.19583e+09,-1.19394e+09,-1.19559e+09,-888791,-0.0307743,0.390438,-0,0.391649,11223.2,-43019.2,0,44459.1,888791
step02_gravity_refstate-mantle.xmf,1055,-4.14721e-06,1.0525e-05,0,-2.143e-06,-1.15331e+09,-1.15135e+09,-1.15276e+09,-286412,-0.00836483,0.247759,-0,0.247901,15661,-41685.5,0,44530.3,286412
step02_gravity_refstate-mantle.xmf,1056,1.4387e-06,1.44051e-05,0,-1.24279e-05,-1.22313e+09,-1.2214e+09,-1.22333e+09,-1.66099e+06,-0.0604196,0.484454,-0,0.488207,9238.24,-43889.6,0,44851.3,1.66099e+06
step02_gravity_refstate-mantle.xmf,1057,-2.72303e-07,7.50453e-06,0,3.83563e-07,-1.17995e+09,-1.17892e+09,-1.17992e+09,51263.3,-0.0364791,0.120435,-0,0.125838,21989.3,-42526.7,0,47875.4,51263.3
step02_gravity_refstate-mantle.xmf,1058,7.25727e-06,3.23995e-06,0,1.17814e-06,-1.4244e+09,-1.42493e+09,-1.42537e+09,157458,-0.0797562,0.0271988,-0,0.0842665,29279.9,-50116.9,0,58043.3,157458
step02_gravity_refstate-mantle.xmf,1059,6.29553e-06,3.78719e-06,0,1.30019e-06,-1.37678e+09,-1.37711e+09,-1.37762e+09,173771,-0.0767201,0.0358107,-0,0.0846662,28376.8,-48641,0,56313.3,173771
step02_gravity_refstate-mantle.xmf,1060,5.18277e-06,4.41885e-06,0,1.33833e-06,-1.32912e+09,-1.32922e+09,-1.32981e+09,178868,-0.0717029,0.0468049,-0,0.0856271,27348,-47162.9,0,54518.4,178868
step02_gravity_refstate-mantle.xmf,1061,4.11609e-06,4.82797e-06,0,1.29861e-06,-1.28597e+09,-1.28588e+09,-1.28652e+09,173559,-0.0615451,0.0540718,-0,0.0819241,27157.5,-45824.1,0,53267.1,173559
step02_gravity_refstate-mantle.xmf,1062,1.95322e-06,5.87768e-06,0,1.02903e-06,-1.21572e+09,-1.2152e+09,-1.21598e+09,137530,-0.0461948,0.076415,-0,0.0892928,25601.5,-43642.3,0,50597.3,137530
step02_gravity_refstate-mantle.xmf,1063,3.16947e-06,5.30636e-06,0,1.23734e-06,-1.25403e+09,-1.25374e+09,-1.25445e+09,165370,-0.0555894,0.0640031,-0,0.0847737,26383.4,-44832.3,0,52019.4,165370
step02_gravity_refstate-mantle.xmf,1064,1.63e-06,6.3841e-06,0,9.44786e-07,-1.21739e+09,-1.21676e+09,-1.21761e+09,126271,-0.0494311,0.0892105,-0,0.10199,24089.7,-43693,0,49893.8,126271
step02_gravity_refstate-mantle.xmf,1065,-2.59331e-05,6.0126e-05,0,1.12837e-06,-1.71871e+09,-1.70721e+09,-1.71525e+09,150806,0.0817623,0.0521072,0,0.0969548,-2963.52,-59132,-0,59206.2,150806
step02_gravity_refstate-mantle.xmf,1066,9.87293e-06,1.57543e-06,0,3.46859e-07,-1.63556e+09,-1.63667e+09,-1.63688e+09,46357.8,-0.0694979,0.00522909,-0,0.0696944,32965.5,-56653,0,65546.1,46357.8
step02_gravity_refstate-mantle.xmf,1067,1.02107e-05,1.51331e-06,0,-1.2426e-08,-1.74384e+09,-1.74501e+09,-1.74521e+09,-1660.73,-0.0686323,-2.72085e-19,-0,0.0686323,33277.3,-60000,0,68610.3,1660.73
step02_gravity_refstate-mantle.xmf,1068,-3.30714e-05,7.42255e-05,0,-3.41289e-06,-1.50492e+09,-1.49058e+09,-1.5005e+09,-456133,-0.0230979,0.498785,-0,0.499319,694.644,-52516.3,0,52520.9,456133
step02_gravity_refstate-mantle.xmf,1069,-2.26537e-06,3.79473e-05,0,-3.33003e-05,-1.29975e+09,-1.29438e+09,-1.29945e+09,-4.45058e+06,-0.137041,0.673386,-0,0.687189,5919.79,-46291.9,0,46668.9,4.45058e+06
step02_gravity_refstate-mantle.xmf,1070,2.18511e-06,2.79142e-05,0,-2.77747e-05,-1.2829e+09,-1.27946e+09,-1.28319e+09,-3.71209e+06,-0.126567,0.619979,-0,0.632766,6785.27,-45775.3,0,46275.5,3.71209e+06
step02_gravity_refstate-mantle.xmf,1071,3.56273e-06,2.13853e-05,0,-2.15754e-05,-1.27128e+09,-1.2689e+09,-1.27176e+09,-2.88356e+06,-0.11417,0.555749,-0,0.567355,7759.84,-45409.1,0,46067.3,2.88356e+06
step02_gravity_refstate-mantle.xmf,1072,3.17213e-06,1.79145e-05,0,-1.80877e-05,-1.2466e+09,-1.24463e+09,-1.24702e+09,-2.41742e+06,-0.0889792,0.543919,-0,0.551149,8142.43,-44634.9,0,45371.5,2.41742e+06
step02_gravity_refstate-mantle.xmf,1073,-2.81458e-05,7.1846e-05,0,-2.00513e-05,-1.42743e+09,-1.41406e+09,-1.42366e+09,-2.67986e+06,-0.103181,0.628465,-0,0.636878,3039.36,-50149.3,0,50241.4,2.67986e+06
step02_gravity_refstate-mantle.xmf,1074,-1.06284e-06,8.08828e-06,0,6.55466e-08,-1.17172e+09,-1.1705e+09,-1.17158e+09,8760.3,-0.0320216,0.139494,-0,0.143122,20743.3,-42268.7,0,47084.3,8760.3
step02_gravity_refstate-mantle.xmf,1075,9.3479e-07,1.34404e-05,0,-1.00396e-05,-1.22182e+09,-1.22014e+09,-1.22194e+09,-1.3418e+06,-0.0579672,0.439733,-0,0.443538,10030.1,-43843.1,0,44975.8,1.3418e+06
step02_gravity_refstate-mantle.xmf,1076,-1.74277e-06,8.63072e-06,0,-3.02087e-07,-1.16607e+09,-1.16468e+09,-1.16583e+09,-40373.9,-0.0276271,0.159427,-0,0.161803,19577.7,-42090.8,0,46421.1,40373.9
step02_gravity_refstate-mantle.xmf,1077,4.40649e-07,1.26704e-05,0,-8.00001e-06,-1.22011e+09,-1.21847e+09,-1.22017e+09,-1.0692e+06,-0.0555778,0.397963,-0,0.401825,10862.4,-43785,0,45112.3,1.0692e+06
step02_gravity_refstate-mantle.xmf,1078,-2.37329e-06,1.18522e-05,0,-5.20164e-06,-1.19012e+09,-1.18822e+09,-1.18981e+09,-695200,-0.0268112,0.354101,-0,0.355115,12102.7,-42838,0,44514.8,695200
step02_gravity_refstate-mantle.xmf,1079,-2.21398e-06,9.13211e-06,0,-6.64508e-07,-1.16596e+09,-1.16444e+09,-1.16566e+09,-88811.5,-0.0252616,0.180159,-0,0.181922,18436.3,-42085.5,0,45946.6,88811.5
step02_gravity_refstate-mantle.xmf,1080,-2.57609e-06,9.62568e-06,0,-1.09591e-06,-1.16799e+09,-1.16636e+09,-1.16764e+09,-146469,-0.023638,0.203368,-0,0.204737,17286.4,-42147.1,0,45554.3,146469
step02_gravity_refstate-mantle.xmf,1081,-2.77957e-06,1.00606e-05,0,-1.57024e-06,-1.17152e+09,-1.16981e+09,-1.17115e+09,-209862,-0.0230943,0.226551,-0,0.227725,16252.5,-42256.1,0,45273.8,209862
step02_gravity_refstate-mantle.xmf,1082,-2.94086e-06,1.05191e-05,0,-2.20438e-06,-1.1748e+09,-1.173e+09,-1.17441e+09,-294615,-0.022217,0.254604,-0,0.255571,15157.6,-42357.4,0,44987.8,294615
step02_gravity_refstate-mantle.xmf,1083,-2.7294e-06,1.13852e-05,0,-3.97292e-06,-1.18405e+09,-1.18216e+09,-1.18368e+09,-530980,-0.0236361,0.318786,-0,0.319661,13068.1,-42646.7,0,44604,530980
step02_gravity_refstate-mantle.xmf,1084,-2.87831e-06,1.09477e-05,0,-2.97979e-06,-1.17983e+09,-1.17799e+09,-1.17945e+09,-398249,-0.0230115,0.284666,-0,0.285594,14106.1,-42514.4,0,44793.5,398249
step02_gravity_refstate-mantle.xmf,1085,3.0164e-06,1.60211e-05,0,-1.49663e-05,-1.24527e+09,-1.24353e+09,-1.24567e+09,-2.00024e+06,-0.085218,0.496274,-0,0.503538,8874.56,-44588.1,0,45462.7,2.00024e+06
step02_gravity_refstate-mantle.xmf,1086,8.12481e-06,2.73425e-06,0,1.00623e-06,-1.47522e+09,-1.47594e+09,-1.4763e+09,134483,-0.0809446,0.0199072,-0,0.0833567,30160.7,-51691.3,0,59847,134483
step02_gravity_refstate-mantle.xmf,1087,9.46988e-06,1.8821e-06,0,5.79418e-07,-1.5836e+09,-1.58461e+09,-1.58486e+09,77439.2,-0.0763006,0.00893375,-0,0.0768218,31960.2,-55046,0,63651.5,77439.2
step02_gravity_refstate-mantle.xmf,1088,8.87116e-06,2.27468e-06,0,8.00372e-07,-1.52859e+09,-1.52947e+09,-1.52978e+09,106970,-0.0798333,0.0138308,-0,0.0810225,31052.8,-53343.8,0,61723.9,106970
step02_gravity_refstate-mantle.xmf,1089,1.27422e-06,6.91607e-06,0,7.91406e-07,-1.21825e+09,-1.21749e+09,-1.21842e+09,105771,-0.0518417,0.104237,-0,0.116417,22624.1,-43718.4,0,49225.5,105771
step02_gravity_refstate-mantle.xmf,1090,-2.69778e-05,6.16066e-05,0,1.91301e-06,-1.6915e+09,-1.67966e+09,-1.68789e+09,255674,0.0662875,0.104995,0,0.124169,-2361.82,-58288.2,-0,58336,255674
step02_gravity_refstate-mantle.xmf,1091,-2.79153e-05,6.30961e-05,0,2.22611e-06,-1.66452e+09,-1.65236e+09,-1.66079e+09,297519,0.0518617,0.15899,0,0.167235,-1814.57,-57452.4,-0,57481,297519
step02_gravity_refstate-mantle.xmf,1092,-2.68105e-05,6.12717e-05,0,2.36502e-08,-1.74691e+09,-1.73514e+09,-1.74332e+09,3160.85,0.0657238,-7.97237e-19,0,0.0657238,-2359.95,-60000,-0,60046.4,3160.85
step02_gravity_refstate-mantle.xmf,1093,-2.88339e-05,6.46439e-05,0,2.14377e-06,-1.63805e+09,-1.62555e+09,-1.63419e+09,286515,0.0369956,0.213365,0,0.216548,-1268.63,-56632.4,-0,56646.6,286515
step02_gravity_refstate-mantle.xmf,1094,1.01118e-05,1.70082e-06,0,2.06506e-07,-1.68903e+09,-1.69016e+09,-1.69038e+09,27599.5,-0.0792292,0.00293899,-0,0.0792837,32173.4,-58306.7,0,66594.3,27599.5
step02_gravity_refstate-mantle.xmf,1095,-2.97323e-05,6.62983e-05,0,1.67989e-06,-1.61089e+09,-1.59805e+09,-1.60691e+09,224517,0.0228528,0.270027,0,0.270992,-766.236,-55791.6,-0,55796.9,224517
step02_gravity_refstate-mantle.xmf,1096,-3.06091e-05,6.80515e-05,0,6.90795e-07,-1.58427e+09,-1.57109e+09,-1.58018e+09,92324.7,0.00792285,0.326372,0,0.326469,-259.283,-54968.2,-0,54968.8,92324.7
step02_gravity_refstate-mantle.xmf,1097,-3.1403e-05,6.9844e-05,0,-8.58583e-07,-1.55798e+09,-1.54445e+09,-1.55378e+09,-114750,-0.00752768,0.382403,-0,0.382478,240.074,-54155.2,0,54155.7,114750
step02_gravity_refstate-mantle.xmf,1098,-3.21572e-05,7.18192e-05,0,-2.96364e-06,-1.52959e+09,-1.51569e+09,-1.52529e+09,-396091,-0.0227227,0.443109,-0,0.443691,704.271,-53278.2,0,53282.8,396091
step02_gravity_refstate-mantle.xmf,1099,-3.21099e-05,7.25454e-05,0,-5.91134e-06,-1.51093e+09,-1.49694e+09,-1.50664e+09,-790051,-0.0419569,0.480332,-0,0.482161,1281.03,-52704,0,52719.6,790051
step02_gravity_refstate-mantle.xmf,1100,-3.18265e-05,7.32223e-05,0,-9.19425e-06,-1.48886e+09,-1.47482e+09,-1.48461e+09,-1.22881e+06,-0.0593356,0.52336,-0,0.526712,1782.19,-52026.1,0,52056.6,1.22881e+06
step02_gravity_refstate-mantle.xmf,1101,-2.98549e-05,7.28994e-05,0,-1.63525e-05,-1.4475e+09,-1.43377e+09,-1.44351e+09,-2.18551e+06,-0.0900983,0.596716,-0,0.603479,2657,-50760.7,0,50830.2,2.18551e+06
step02_gravity_refstate-mantle.xmf,1102,-3.10514e-05,7.32977e-05,0,-1.27088e-05,-1.46815e+09,-1.4542e+09,-1.464e+09,-1.69853e+06,-0.0755565,0.561139,-0,0.566203,2244.17,-51391.5,0,51440.5,1.69853e+06
step02_gravity_refstate-mantle.xmf,1103,-5.79612e-06,4.30974e-05,0,-3.33181e-05,-1.31736e+09,-1.31082e+09,-1.31658e+09,-4.45296e+06,-0.143379,0.671063,-0,0.68621,5679.04,-46825.2,0,47168.4,4.45296e+06
step02_gravity_refstate-mantle.xmf,1104,5.00725e-08,3.24617e-05,0,-2.97e-05,-1.29974e+09,-1.29541e+09,-1.29974e+09,-3.9694e+06,-0.137715,0.62546,-0,0.640442,6516.39,-46292.8,0,46749.2,3.9694e+06
step02_gravity_refstate-mantle.xmf,1105,2.78986e-06,2.50618e-05,0,-2.47716e-05,-1.28383e+09,-1.28085e+09,-1.2842e+09,-3.31073e+06,-0.125935,0.580839,-0,0.594335,7288.58,-45800.8,0,46377.2,3.31073e+06
step02_gravity_refstate-mantle.xmf,1106,-9.1256e-06,4.77695e-05,0,-3.24595e-05,-1.33548e+09,-1.32787e+09,-1.33426e+09,-4.33822e+06,-0.146776,0.665747,-0,0.681734,5417.46,-47374.7,0,47683.4,4.33822e+06
step02_gravity_refstate-mantle.xmf,1107,-1.21044e-05,5.19235e-05,0,-3.13342e-05,-1.35305e+09,-1.3445e+09,-1.35144e+09,-4.18782e+06,-0.147264,0.658767,-0,0.675027,5136.8,-47908.3,0,48182.9,4.18782e+06
step02_gravity_refstate-mantle.xmf,1108,-1.51796e-05,5.59609e-05,0,-2.99192e-05,-1.37064e+09,-1.36114e+09,-1.36862e+09,-3.9987e+06,-0.144946,0.64992,-0,0.665887,4828.14,-48441.5,0,48681.5,3.9987e+06
step02_gravity_refstate-mantle.xmf,1109,-1.83827e-05,5.9817e-05,0,-2.795e-05,-1.38896e+09,-1.37851e+09,-1.3865e+09,-3.73552e+06,-0.139887,0.637326,-0,0.652497,4495.25,-48995.6,0,49201.4,3.73552e+06
step02_gravity_refstate-mantle.xmf,1110,-2.15582e-05,6.3384e-05,0,-2.54133e-05,-1.40749e+09,-1.39614e+09,-1.40461e+09,-3.39649e+06,-0.13186,0.622118,-0,0.635939,4123.74,-49555.9,0,49727.2,3.39649e+06
step02_gravity_refstate-mantle.xmf,1111,-1.8475e-07,1.20756e-05,0,-6.23738e-06,-1.21692e+09,-1.21528e+09,-1.2169e+09,-833626,-0.0522582,0.359328,-0,0.363108,11740,-43680.9,0,45231,833626
step02_gravity_refstate-mantle.xmf,1112,2.61159e-06,1.46385e-05,0,-1.2209e-05,-1.24471e+09,-1.24311e+09,-1.24506e+09,-1.63174e+06,-0.082372,0.449985,-0,0.457463,9660.49,-44564.7,0,45599.8,1.63174e+06
step02_gravity_refstate-mantle.xmf,1113,7.33974e-07,7.525e-06,0,5.38491e-07,-1.21547e+09,-1.21456e+09,-1.21557e+09,71969.3,-0.0521493,0.123512,-0,0.13407,21120.7,-43630.6,0,48473.9,71969.3
step02_gravity_refstate-mantle.xmf,1114,7.97946e-06,3.24829e-06,0,1.06161e-06,-1.47104e+09,-1.47167e+09,-1.47211e+09,141885,-0.0941503,0.0252722,-0,0.0974831,28441.2,-51562.6,0,58886.4,141885
step02_gravity_refstate-mantle.xmf,1115,7.14e-06,3.74928e-06,0,1.20112e-06,-1.42388e+09,-1.42434e+09,-1.42484e+09,160530,-0.0918345,0.0336309,-0,0.0977988,27589.1,-50101.7,0,57195.6,160530
step02_gravity_refstate-mantle.xmf,1116,6.23783e-06,4.27504e-06,0,1.28946e-06,-1.38077e+09,-1.38103e+09,-1.3816e+09,172337,-0.08801,0.043157,-0,0.0980218,26720.2,-48765.1,0,55605.8,172337
step02_gravity_refstate-mantle.xmf,1117,4.32217e-06,5.10977e-06,0,1.32625e-06,-1.30209e+09,-1.30199e+09,-1.30267e+09,177254,-0.0719462,0.0605036,-0,0.0940051,25756.1,-46324.2,0,53002.9,177254
step02_gravity_refstate-mantle.xmf,1118,2.96163e-06,5.77078e-06,0,1.19879e-06,-1.25715e+09,-1.25678e+09,-1.25755e+09,160219,-0.061231,0.0749252,-0,0.0967627,24854.5,-44928.5,0,51345.1,160219
step02_gravity_refstate-mantle.xmf,1119,2.71598e-06,6.3092e-06,0,1.05278e-06,-1.25784e+09,-1.25736e+09,-1.2582e+09,140704,-0.0656626,0.0881962,-0,0.109955,23370.1,-44949.5,0,50661.9,140704
step02_gravity_refstate-mantle.xmf,1120,-2.7537e-05,6.22732e-05,0,7.34596e-07,-1.71851e+09,-1.70651e+09,-1.71483e+09,98178.7,0.050852,0.0546596,0,0.0746565,-1807.25,-59120.5,-0,59148.2,98178.7
step02_gravity_refstate-mantle.xmf,1121,9.82609e-06,2.04802e-06,0,4.10874e-07,-1.63438e+09,-1.63542e+09,-1.63569e+09,54913.3,-0.0891811,0.00691242,-0,0.0894486,30961.8,-56617.4,0,64530.4,54913.3
step02_gravity_refstate-mantle.xmf,1122,1.01745e-05,1.98764e-06,0,-1.02973e-08,-1.74381e+09,-1.74491e+09,-1.74517e+09,-1376.23,-0.0895108,-3.49382e-19,-0,0.0895108,31228.8,-60000,0,67640.5,1376.23
step02_gravity_refstate-mantle.xmf,1123,-2.58534e-06,3.6908e-05,0,-3.06398e-05,-1.31626e+09,-1.31098e+09,-1.31592e+09,-4.095e+06,-0.145503,0.62668,-0,0.64335,6271.53,-46797.1,0,47215.4,4.095e+06
step02_gravity_refstate-mantle.xmf,1124,1.42078e-06,2.8205e-05,0,-2.59664e-05,-1.30241e+09,-1.29883e+09,-1.3026e+09,-3.47041e+06,-0.138733,0.573764,-0,0.590299,7176.39,-46373.6,0,46925.6,3.47041e+06
step02_gravity_refstate-mantle.xmf,1125,2.57096e-06,2.49382e-05,0,-2.3475e-05,-1.29708e+09,-1.29409e+09,-1.29743e+09,-3.13743e+06,-0.134399,0.546611,-0,0.562891,7626.02,-46208.4,0,46833.5,3.13743e+06
step02_gravity_refstate-mantle.xmf,1126,3.6124e-06,1.85057e-05,0,-1.77398e-05,-1.26797e+09,-1.26598e+09,-1.26845e+09,-2.37092e+06,-0.108321,0.506077,-0,0.51754,8527.35,-45299.7,0,46095.3,2.37092e+06
step02_gravity_refstate-mantle.xmf,1127,-2.43356e-05,6.61797e-05,0,-2.23947e-05,-1.42683e+09,-1.41473e+09,-1.42358e+09,-2.99306e+06,-0.12183,0.601015,-0,0.613239,3749.12,-50141.9,0,50281.9,2.99306e+06
step02_gravity_refstate-mantle.xmf,1128,-2.64949e-05,6.80205e-05,0,-1.91539e-05,-1.44696e+09,-1.43433e+09,-1.44342e+09,-2.55991e+06,-0.110673,0.573703,-0,0.58428,3386.29,-50754.1,0,50867,2.55991e+06
step02_gravity_refstate-mantle.xmf,1129,-3.45573e-07,8.13853e-06,0,1.39138e-07,-1.19515e+09,-1.19401e+09,-1.1951e+09,18595.8,-0.0427426,0.143578,-0,0.149805,20084.3,-42997.1,0,47456.6,18595.8
step02_gravity_refstate-mantle.xmf,1130,2.15879e-06,1.35394e-05,0,-9.83142e-06,-1.24349e+09,-1.24197e+09,-1.24378e+09,-1.31397e+06,-0.0791833,0.407413,-0,0.415037,10474.3,-44521.1,0,45736.6,1.31397e+06
step02_gravity_refstate-mantle.xmf,1131,-5.54278e-07,8.54957e-06,0,-1.45842e-07,-1.19678e+09,-1.19556e+09,-1.1967e+09,-19491.8,-0.0431099,0.159489,-0,0.165213,19096.9,-43047.2,0,47093,19491.8
step02_gravity_refstate-mantle.xmf,1132,1.70565e-06,1.26329e-05,0,-7.74491e-06,-1.24191e+09,-1.24045e+09,-1.24214e+09,-1.03511e+06,-0.0759871,0.366818,-0,0.374606,11347.4,-44466.8,0,45891.9,1.03511e+06
step02_gravity_refstate-mantle.xmf,1133,-6.46864e-07,1.15076e-05,0,-4.7418e-06,-1.21291e+09,-1.21129e+09,-1.21283e+09,-633742,-0.0488746,0.323079,-0,0.326755,12675.2,-43552.6,0,45359.6,633742
step02_gravity_refstate-mantle.xmf,1134,-7.78942e-07,9.027e-06,0,-5.5101e-07,-1.19901e+09,-1.1977e+09,-1.19891e+09,-73642.5,-0.0435534,0.180067,-0,0.185259,17964.8,-43116,0,46708.9,73642.5
step02_gravity_refstate-mantle.xmf,1135,-9.59434e-07,9.50918e-06,0,-1.06476e-06,-1.20103e+09,-1.19963e+09,-1.2009e+09,-142305,-0.0437646,0.203215,-0,0.207874,16853.1,-43178.2,0,46350.7,142305
step02_gravity_refstate-mantle.xmf,1136,-1.05593e-06,9.99003e-06,0,-1.70653e-06,-1.20329e+09,-1.20181e+09,-1.20315e+09,-228078,-0.0441235,0.228973,-0,0.233186,15765.5,-43248.6,0,46032.5,228078
step02_gravity_refstate-mantle.xmf,1137,-1.02555e-06,1.04698e-05,0,-2.51197e-06,-1.20615e+09,-1.20462e+09,-1.20601e+09,-335725,-0.0450485,0.257617,-0,0.261526,14697.2,-43338.5,0,45762.8,335725
step02_gravity_refstate-mantle.xmf,1138,-9.0584e-07,1.09584e-05,0,-3.50284e-06,-1.20866e+09,-1.20707e+09,-1.20854e+09,-468154,-0.0459889,0.289274,-0,0.292907,13664.3,-43418,0,45517.4,468154
step02_gravity_refstate-mantle.xmf,1139,3.59928e-06,1.65029e-05,0,-1.46908e-05,-1.26761e+09,-1.26588e+09,-1.26809e+09,-1.96342e+06,-0.105136,0.459707,-0,0.471576,9293.57,-45283.2,0,46227.1,1.96342e+06
step02_gravity_refstate-mantle.xmf,1140,8.74985e-06,2.77439e-06,0,8.64434e-07,-1.5242e+09,-1.525e+09,-1.52537e+09,115532,-0.0945031,0.0177624,-0,0.0961579,29330.5,-53208.6,0,60757.2,115532
step02_gravity_refstate-mantle.xmf,1141,9.38298e-06,2.35114e-06,0,6.52669e-07,-1.57868e+09,-1.57962e+09,-1.57993e+09,87229.2,-0.0929285,0.0117616,-0,0.0936699,30153.1,-54894.6,0,62630.8,87229.2
step02_gravity_refstate-mantle.xmf,1142,2.43409e-06,6.86775e-06,0,8.30135e-07,-1.25751e+09,-1.25692e+09,-1.25783e+09,110948,-0.0691514,0.103641,-0,0.124593,21946.3,-44938.8,0,50011.3,110948
step02_gravity_refstate-mantle.xmf,1143,5.43006e-06,4.76511e-06,0,1.30949e-06,-1.34715e+09,-1.34723e+09,-1.34787e+09,175013,-0.0841795,0.0527209,-0,0.0993262,25884.9,-47722.4,0,54290.5,175013
step02_gravity_refstate-mantle.xmf,1144,-2.81804e-05,6.32103e-05,0,1.11716e-06,-1.69075e+09,-1.67853e+09,-1.68698e+09,149309,0.0369337,0.109363,0,0.115431,-1296.9,-58261,-0,58275.4,149309
step02_gravity_refstate-mantle.xmf,1145,-2.87943e-05,6.42358e-05,0,9.67085e-07,-1.66516e+09,-1.65273e+09,-1.66131e+09,129251,0.0227512,0.160715,0,0.162318,-788.065,-57469.1,-0,57474.5,129251
step02_gravity_refstate-mantle.xmf,1146,-2.80371e-05,6.28968e-05,0,2.42757e-08,-1.74704e+09,-1.73489e+09,-1.74329e+09,3244.44,0.0333499,-8.32243e-19,0,0.0333499,-1179.97,-60000,-0,60011.6,3244.44
step02_gravity_refstate-mantle.xmf,1147,-2.93722e-05,6.53563e-05,0,4.5906e-07,-1.63864e+09,-1.62598e+09,-1.63471e+09,61353.4,0.00817384,0.214489,0,0.214645,-278.643,-56648.8,-0,56649.5,61353.4
step02_gravity_refstate-mantle.xmf,1148,1.00588e-05,2.22926e-06,0,2.20902e-07,-1.68998e+09,-1.69103e+09,-1.69133e+09,29523.6,-0.0986692,0.00377187,-0,0.0987412,30248.1,-58337,0,65712.6,29523.6
step02_gravity_refstate-mantle.xmf,1149,-2.99469e-05,6.65676e-05,0,-4.89076e-07,-1.61102e+09,-1.59812e+09,-1.60702e+09,-65365,-0.00619061,0.270813,-0,0.270884,207.114,-55795.1,0,55795.5,65365
step02_gravity_refstate-mantle.xmf,1150,-3.03883e-05,6.77211e-05,0,-2.02386e-06,-1.58472e+09,-1.57161e+09,-1.58066e+09,-270489,-0.0219535,0.324331,-0,0.325073,720.29,-54982.8,0,54987.5,270489
step02_gravity_refstate-mantle.xmf,1151,-3.06836e-05,6.88173e-05,0,-4.01464e-06,-1.55873e+09,-1.54543e+09,-1.55463e+09,-536556,-0.0373172,0.376735,-0,0.378579,1200.34,-54180.5,0,54193.8,536556
step02_gravity_refstate-mantle.xmf,1152,-3.06589e-05,6.95921e-05,0,-6.48455e-06,-1.53449e+09,-1.52109e+09,-1.53039e+09,-866660,-0.0531105,0.424234,-0,0.427545,1678.43,-53434.1,0,53460.4,866660
step02_gravity_refstate-mantle.xmf,1153,-3.02572e-05,6.99369e-05,0,-9.32635e-06,-1.51184e+09,-1.49844e+09,-1.50779e+09,-1.24647e+06,-0.068799,0.466612,-0,0.471657,2143.99,-52737.8,0,52781.3,1.24647e+06
step02_gravity_refstate-mantle.xmf,1154,-2.94568e-05,6.9853e-05,0,-1.24834e-05,-1.48946e+09,-1.47619e+09,-1.48553e+09,-1.6684e+06,-0.0838468,0.506336,-0,0.513231,2584.29,-52051.8,0,52115.9,1.6684e+06
step02_gravity_refstate-mantle.xmf,1155,-2.81828e-05,6.92053e-05,0,-1.58273e-05,-1.46779e+09,-1.45477e+09,-1.46402e+09,-2.11532e+06,-0.0980786,0.542043,-0,0.550845,3004.15,-51389.2,0,51476.9,2.11532e+06
step02_gravity_refstate-mantle.xmf,1156,-5.46999e-06,4.12143e-05,0,-3.06619e-05,-1.33394e+09,-1.3277e+09,-1.33321e+09,-4.09796e+06,-0.150955,0.622618,-0,0.640656,6039.13,-47335,0,47718.6,4.09796e+06
step02_gravity_refstate-mantle.xmf,1157,-5.68206e-07,3.24074e-05,0,-2.79513e-05,-1.3152e+09,-1.3108e+09,-1.31513e+09,-3.73569e+06,-0.145879,0.588475,-0,0.606286,6805.72,-46766.3,0,47258.9,3.73569e+06
step02_gravity_refstate-mantle.xmf,1158,3.33067e-06,2.18102e-05,0,-2.05126e-05,-1.29161e+09,-1.28914e+09,-1.29206e+09,-2.74151e+06,-0.128846,0.513239,-0,0.529165,8186.84,-46036.5,0,46758.8,2.74151e+06
step02_gravity_refstate-mantle.xmf,1159,-8.53513e-06,4.56126e-05,0,-3.0154e-05,-1.35223e+09,-1.345e+09,-1.35109e+09,-4.03008e+06,-0.153583,0.617774,-0,0.636579,5758.73,-47890.7,0,48235.7,4.03008e+06
step02_gravity_refstate-mantle.xmf,1160,-1.15326e-05,4.96898e-05,0,-2.92137e-05,-1.37042e+09,-1.36224e+09,-1.36888e+09,-3.90441e+06,-0.153454,0.610336,-0,0.629332,5464.75,-48442.8,0,48750,3.90441e+06
step02_gravity_refstate-mantle.xmf,1161,-1.45829e-05,5.35751e-05,0,-2.78383e-05,-1.38881e+09,-1.3797e+09,-1.38686e+09,-3.72059e+06,-0.150647,0.600305,-0,0.618919,5147.78,-49000.4,0,49270,3.72059e+06
step02_gravity_refstate-mantle.xmf,1162,-2.04208e-05,6.02466e-05,0,-2.36494e-05,-1.42678e+09,-1.41599e+09,-1.42405e+09,-3.16075e+06,-0.137865,0.569177,-0,0.585636,4466.63,-50151.3,0,50349.8,3.16075e+06
step02_gravity_refstate-mantle.xmf,1163,-1.75902e-05,5.71317e-05,0,-2.59711e-05,-1.40761e+09,-1.39763e+09,-1.40526e+09,-3.47104e+06,-0.145385,0.586601,-0,0.604349,4815.48,-49570.2,0,49803.6,3.47104e+06
step02_gravity_refstate-mantle.xmf,1164,1.18104e-06,1.19283e-05,0,-5.96716e-06,-1.23987e+09,-1.23843e+09,-1.24003e+09,-797511,-0.0727864,0.329348,-0,0.337295,12259.1,-44398.5,0,46059.9,797511
step02_gravity_refstate-mantle.xmf,1165,3.34012e-06,1.49861e-05,0,-1.20292e-05,-1.26687e+09,-1.26532e+09,-1.26732e+09,-1.60771e+06,-0.101709,0.417027,-0,0.429251,10081,-45255,0,46364.2,1.60771e+06
step02_gravity_refstate-mantle.xmf,1166,8.22174e-07,7.95427e-06,0,2.68255e-07,-1.2257e+09,-1.22475e+09,-1.22581e+09,35852.2,-0.0579786,0.139055,-0,0.150658,19882.7,-43948.2,0,48236.6,35852.2
step02_gravity_refstate-mantle.xmf,1167,2.17559e-06,7.41268e-06,0,5.35835e-07,-1.25826e+09,-1.25756e+09,-1.25855e+09,71614.3,-0.0725535,0.120657,-0,0.140791,20602.7,-44961.7,0,49457.3,71614.3
step02_gravity_refstate-mantle.xmf,1168,8.63466e-06,3.38394e-06,0,8.5155e-07,-1.52278e+09,-1.52348e+09,-1.52393e+09,113810,-0.109572,0.0227359,-0,0.111906,27574.3,-53165.5,0,59890.8,113810
step02_gravity_refstate-mantle.xmf,1169,7.79027e-06,3.86278e-06,0,1.0335e-06,-1.46632e+09,-1.46685e+09,-1.46736e+09,138127,-0.106407,0.0320587,-0,0.111132,26778.7,-51417.2,0,57972.7,138127
step02_gravity_refstate-mantle.xmf,1170,7.00931e-06,4.34246e-06,0,1.13164e-06,-1.42377e+09,-1.42413e+09,-1.42471e+09,151243,-0.103329,0.0414264,-0,0.111324,25961.5,-50098.9,0,56426,151243
step02_gravity_refstate-mantle.xmf,1171,6.15233e-06,4.81837e-06,0,1.19106e-06,-1.38336e+09,-1.38354e+09,-1.38418e+09,159185,-0.0981313,0.0517251,-0,0.110929,25194.6,-48846,0,54960.9,159185
step02_gravity_refstate-mantle.xmf,1172,5.16388e-06,5.27001e-06,0,1.22539e-06,-1.34219e+09,-1.34218e+09,-1.34288e+09,163773,-0.0897098,0.0625985,-0,0.109391,24567.8,-47568.9,0,53538.5,163773
step02_gravity_refstate-mantle.xmf,1173,4.00943e-06,5.70679e-06,0,1.21255e-06,-1.29925e+09,-1.29902e+09,-1.29978e+09,162057,-0.0778935,0.073628,-0,0.107184,24111,-46235.8,0,52144.9,162057
step02_gravity_refstate-mantle.xmf,1174,3.78438e-06,6.3137e-06,0,9.77568e-07,-1.29779e+09,-1.29745e+09,-1.2983e+09,130652,-0.0830036,0.0875167,-0,0.120618,22660.2,-46190.8,0,51449.7,130652
step02_gravity_refstate-mantle.xmf,1175,-2.83916e-05,6.34357e-05,0,3.05972e-07,-1.71704e+09,-1.70477e+09,-1.71325e+09,40893.1,0.01964,0.0586784,0,0.061878,-690.829,-59072.5,-0,59076.5,40893.1
step02_gravity_refstate-mantle.xmf,1176,9.72917e-06,2.72982e-06,0,4.29852e-07,-1.63329e+09,-1.63422e+09,-1.63459e+09,57449.8,-0.109891,0.00943905,-0,0.110295,28836.8,-56584.9,0,63509.1,57449.8
step02_gravity_refstate-mantle.xmf,1177,1.00784e-05,2.6345e-06,0,-2.37405e-09,-1.74378e+09,-1.74477e+09,-1.74513e+09,-317.292,-0.10938,-3.63446e-19,-0,0.10938,29267.4,-60000,0,66757.6,317.292
step02_gravity_refstate-mantle.xmf,1178,-2.41458e-06,3.53028e-05,0,-2.8145e-05,-1.33175e+09,-1.32671e+09,-1.33143e+09,-3.76157e+06,-0.152801,0.579838,-0,0.599634,6684.07,-47272.4,0,47742.6,3.76157e+06
step02_gravity_refstate-mantle.xmf,1179,2.01146e-06,2.5735e-05,0,-2.29217e-05,-1.31243e+09,-1.30926e+09,-1.3127e+09,-3.06349e+06,-0.143532,0.52193,-0,0.541306,7816.65,-46680.8,0,47330.7,3.06349e+06
step02_gravity_refstate-mantle.xmf,1180,1.97422e-07,2.9782e-05,0,-2.50588e-05,-1.32628e+09,-1.32233e+09,-1.32631e+09,-3.3491e+06,-0.151278,0.538271,-0,0.559125,7384.03,-47107,0,47682.2,3.3491e+06
step02_gravity_refstate-mantle.xmf,1181,3.63444e-06,1.91122e-05,0,-1.71813e-05,-1.2901e+09,-1.28803e+09,-1.29059e+09,-2.29628e+06,-0.124994,0.467996,-0,0.4844,8937.59,-45985,0,46845.5,2.29628e+06
step02_gravity_refstate-mantle.xmf,1182,-2.28556e-05,6.26713e-05,0,-2.09897e-05,-1.44655e+09,-1.43512e+09,-1.4435e+09,-2.80528e+06,-0.128815,0.546654,-0,0.561626,4121.13,-50752,0,50919.1,2.80528e+06
step02_gravity_refstate-mantle.xmf,1183,-2.48076e-05,6.43443e-05,0,-1.81208e-05,-1.46754e+09,-1.45563e+09,-1.46423e+09,-2.42185e+06,-0.11874,0.51801,-0,0.531445,3784.01,-51391.6,0,51530.8,2.42185e+06
step02_gravity_refstate-mantle.xmf,1184,3.02339e-06,1.37393e-05,0,-9.64348e-06,-1.26629e+09,-1.26486e+09,-1.2667e+09,-1.28885e+06,-0.0984598,0.375529,-0,0.388223,10934.1,-45231.7,0,46534.5,1.28885e+06
step02_gravity_refstate-mantle.xmf,1185,7.34298e-07,8.48405e-06,0,-1.75839e-07,-1.22893e+09,-1.2279e+09,-1.22903e+09,-23500.9,-0.0606021,0.158791,-0,0.169962,18655.3,-44048.9,0,47836.5,23500.9
step02_gravity_refstate-mantle.xmf,1186,2.71132e-06,1.27293e-05,0,-7.6061e-06,-1.26586e+09,-1.26453e+09,-1.26623e+09,-1.01656e+06,-0.095536,0.336933,-0,0.350215,11823,-45213.8,0,46734,1.01656e+06
step02_gravity_refstate-mantle.xmf,1187,8.59603e-07,1.1269e-05,0,-4.48234e-06,-1.23789e+09,-1.2365e+09,-1.23801e+09,-599065,-0.07007,0.294443,-0,0.302665,13217.1,-44333.6,0,46261.8,599065
step02_gravity_refstate-mantle.xmf,1188,6.34865e-07,9.00368e-06,0,-7.1153e-07,-1.23117e+09,-1.23005e+09,-1.23125e+09,-95095.9,-0.062627,0.180661,-0,0.191208,17490.7,-44118.6,0,47459.2,95095.9
step02_gravity_refstate-mantle.xmf,1189,5.89003e-07,9.5349e-06,0,-1.38904e-06,-1.23296e+09,-1.23176e+09,-1.23304e+09,-185645,-0.0643838,0.205173,-0,0.215038,16360.2,-44175,0,47107.2,185645
step02_gravity_refstate-mantle.xmf,1190,6.1143e-07,1.00742e-05,0,-2.22086e-06,-1.23448e+09,-1.23321e+09,-1.23456e+09,-296818,-0.0660117,0.23217,-0,0.241372,15275.6,-44223.4,0,46787.3,296818
step02_gravity_refstate-mantle.xmf,1191,7.36911e-07,1.06376e-05,0,-3.25436e-06,-1.23621e+09,-1.23488e+09,-1.2363e+09,-434945,-0.0679452,0.262197,-0,0.270858,14216.5,-44279.1,0,46505.3,434945
step02_gravity_refstate-mantle.xmf,1192,3.79752e-06,1.70652e-05,0,-1.43585e-05,-1.29023e+09,-1.28846e+09,-1.29074e+09,-1.91901e+06,-0.122181,0.425159,-0,0.442366,9703.96,-45984.9,0,46997.6,1.91901e+06
step02_gravity_refstate-mantle.xmf,1193,9.20282e-06,2.86137e-06,0,6.88475e-07,-1.56806e+09,-1.56891e+09,-1.56929e+09,92014.7,-0.104664,0.0151958,-0,0.105761,28776.5,-54566.8,0,61689.7,92014.7
step02_gravity_refstate-mantle.xmf,1194,3.5353e-06,6.923e-06,0,6.68394e-07,-1.29651e+09,-1.29605e+09,-1.29698e+09,89330.9,-0.0874361,0.103009,-0,0.135115,21302.6,-46151,0,50830.3,89330.9
step02_gravity_refstate-mantle.xmf,1195,-2.86844e-05,6.39759e-05,0,3.03507e-07,-1.68972e+09,-1.67733e+09,-1.68588e+09,40563.7,0.0105111,0.112586,0,0.113075,-366.555,-58227.7,-0,58228.9,40563.7
step02_gravity_refstate-mantle.xmf,1196,-2.88762e-05,6.42767e-05,0,-4.46463e-07,-1.66921e+09,-1.65676e+09,-1.66535e+09,-59669.8,-0.00900275,0.153237,-0,0.153501,311.718,-57593.8,0,57594.7,59669.8
step02_gravity_refstate-mantle.xmf,1197,-2.84541e-05,6.3437e-05,0,3.54214e-08,-1.74708e+09,-1.7348e+09,-1.74328e+09,4734.08,-1.01255e-05,-1.03191e-18,-0,1.01255e-05,-6.65677e-08,-60000,-0,60000,4734.08
step02_gravity_refstate-mantle.xmf,1198,-2.92862e-05,6.52616e-05,0,-1.16495e-06,-1.6372e+09,-1.62457e+09,-1.63329e+09,-155696,-0.0192066,0.216851,-0,0.2177,655.228,-56604.9,0,56608.7,155696
step02_gravity_refstate-mantle.xmf,1199,1.00008e-05,2.76901e-06,0,1.80535e-07,-1.69938e+09,-1.70035e+09,-1.70072e+09,24128.5,-0.114156,0.00387624,-0,0.114221,28730.2,-58628.4,0,65289.5,24128.5
step02_gravity_refstate-mantle.xmf,1200,-2.94197e-05,6.58389e-05,0,-2.58956e-06,-1.6112e+09,-1.59847e+09,-1.60727e+09,-346094,-0.0345584,0.267911,-0,0.270131,1162.96,-55802.1,0,55814.3,346094
step02_gravity_refstate-mantle.xmf,1201,-2.93967e-05,6.63587e-05,0,-4.46543e-06,-1.58526e+09,-1.57246e+09,-1.58133e+09,-596805,-0.0500006,0.317911,-0,0.321819,1659.17,-55002.4,0,55027.4,596805
step02_gravity_refstate-mantle.xmf,1202,-2.9157e-05,6.67076e-05,0,-6.73317e-06,-1.55983e+09,-1.54701e+09,-1.55593e+09,-899888,-0.0650657,0.365639,-0,0.371383,2129.74,-54219.3,0,54261.1,899888
step02_gravity_refstate-mantle.xmf,1203,-2.86298e-05,6.67733e-05,0,-9.31687e-06,-1.53535e+09,-1.5226e+09,-1.53152e+09,-1.2452e+06,-0.079616,0.40984,-0,0.417502,2574.88,-53466.9,0,53528.9,1.2452e+06
step02_gravity_refstate-mantle.xmf,1204,-2.77968e-05,6.65078e-05,0,-1.20937e-05,-1.51193e+09,-1.49933e+09,-1.50822e+09,-1.61633e+06,-0.0932181,0.450189,-0,0.459738,2986.19,-52748.4,0,52832.9,1.61633e+06
step02_gravity_refstate-mantle.xmf,1205,-2.65049e-05,6.56709e-05,0,-1.5104e-05,-1.48948e+09,-1.47717e+09,-1.48594e+09,-2.01865e+06,-0.106579,0.485852,-0,0.497404,3397.74,-52061.5,0,52172.3,2.01865e+06
step02_gravity_refstate-mantle.xmf,1206,-5.18183e-06,3.95133e-05,0,-2.82559e-05,-1.35069e+09,-1.34471e+09,-1.34999e+09,-3.7764e+06,-0.157832,0.575562,-0,0.596811,6423.92,-47849.7,0,48279,3.7764e+06
step02_gravity_refstate-mantle.xmf,1207,2.96544e-06,2.21913e-05,0,-1.94544e-05,-1.31116e+09,-1.30859e+09,-1.31156e+09,-2.60008e+06,-0.140794,0.475277,-0,0.495692,8586.21,-46638.9,0,47422.6,2.60008e+06
step02_gravity_refstate-mantle.xmf,1208,-8.1012e-06,4.36885e-05,0,-2.78996e-05,-1.36953e+09,-1.36261e+09,-1.36845e+09,-3.72878e+06,-0.159876,0.570331,-0,0.592316,6128.07,-48423,0,48809.2,3.72878e+06
step02_gravity_refstate-mantle.xmf,1209,-1.1116e-05,4.77421e-05,0,-2.70716e-05,-1.38849e+09,-1.38062e+09,-1.387e+09,-3.61812e+06,-0.159085,0.563036,-0,0.585079,5804.49,-48998.7,0,49341.3,3.61812e+06
step02_gravity_refstate-mantle.xmf,1210,-1.93329e-05,5.74506e-05,0,-2.19728e-05,-1.44552e+09,-1.43526e+09,-1.44294e+09,-2.93667e+06,-0.143677,0.519614,-0,0.539112,4823.05,-50730.5,0,50959.2,2.93667e+06
step02_gravity_refstate-mantle.xmf,1211,-1.39898e-05,5.13203e-05,0,-2.5743e-05,-1.40757e+09,-1.39885e+09,-1.4057e+09,-3.44055e+06,-0.156079,0.551213,-0,0.572885,5492.66,-49578.3,0,49881.6,3.44055e+06
step02_gravity_refstate-mantle.xmf,1212,-1.67901e-05,5.46269e-05,0,-2.40211e-05,-1.4266e+09,-1.41705e+09,-1.42435e+09,-3.21042e+06,-0.150736,0.537055,-0,0.557808,5158.67,-50155.6,0,50420.2,3.21042e+06
step02_gravity_refstate-mantle.xmf,1213,2.32382e-06,1.19112e-05,0,-5.82806e-06,-1.26519e+09,-1.26391e+09,-1.2655e+09,-778920,-0.0925802,0.300898,-0,0.314819,12760.4,-45188.4,0,46955.5,778920
step02_gravity_refstate-mantle.xmf,1214,3.74498e-06,1.54468e-05,0,-1.18188e-05,-1.29044e+09,-1.28888e+09,-1.29094e+09,-1.57958e+06,-0.119282,0.384581,-0,0.402654,10508,-45986.9,0,47172.1,1.57958e+06
step02_gravity_refstate-mantle.xmf,1215,2.03829e-06,7.96274e-06,0,1.16538e-07,-1.26004e+09,-1.25925e+09,-1.26031e+09,15575.2,-0.0760565,0.138969,-0,0.15842,19350.1,-45017.1,0,48999.7,15575.2
step02_gravity_refstate-mantle.xmf,1216,3.27709e-06,7.51609e-06,0,2.72256e-07,-1.29367e+09,-1.29311e+09,-1.29411e+09,36387,-0.0906207,0.120937,-0,0.151122,19999.6,-46063.3,0,50217.6,36387
step02_gravity_refstate-mantle.xmf,1217,9.20967e-06,3.38401e-06,0,6.1619e-07,-1.58012e+09,-1.5809e+09,-1.58135e+09,82353.8,-0.118756,0.0172075,-0,0.119996,27392.1,-54940.7,0,61390.6,82353.8
step02_gravity_refstate-mantle.xmf,1218,8.24771e-06,4.18036e-06,0,8.12547e-07,-1.50474e+09,-1.50529e+09,-1.50585e+09,108597,-0.121019,0.0311729,-0,0.12497,25864.6,-52607.9,0,58622.3,108597
step02_gravity_refstate-mantle.xmf,1219,7.60569e-06,4.58725e-06,0,8.95299e-07,-1.46416e+09,-1.46457e+09,-1.46518e+09,119657,-0.11851,0.0401843,-0,0.125137,25148.7,-51351.2,0,57178.7,119657
step02_gravity_refstate-mantle.xmf,1220,6.8555e-06,5.03172e-06,0,9.49206e-07,-1.42365e+09,-1.4239e+09,-1.42457e+09,126861,-0.11418,0.0508039,-0,0.124972,24392.5,-50095.8,0,55718.8,126861
step02_gravity_refstate-mantle.xmf,1221,5.98569e-06,5.46907e-06,0,9.85491e-07,-1.38284e+09,-1.38291e+09,-1.38364e+09,131711,-0.107138,0.0626197,-0,0.124096,23686.6,-48830.4,0,54272.1,131711
step02_gravity_refstate-mantle.xmf,1222,4.96965e-06,5.91363e-06,0,9.96015e-07,-1.3415e+09,-1.34137e+09,-1.34216e+09,133117,-0.0973173,0.0756688,-0,0.123274,23021.4,-47547.7,0,52827.8,133117
step02_gravity_refstate-mantle.xmf,1223,4.74432e-06,6.6241e-06,0,6.29992e-07,-1.33947e+09,-1.33922e+09,-1.34011e+09,84198.4,-0.10383,0.0912922,-0,0.138257,21529.6,-47485.5,0,52138.3,84198.4
step02_gravity_refstate-mantle.xmf,1224,-2.85225e-05,6.3678e-05,0,-2.66666e-07,-1.70926e+09,-1.69694e+09,-1.70545e+09,-35639.9,-0.0142764,0.0740532,-0,0.0754168,501.138,-58831.7,0,58833.9,35639.9
step02_gravity_refstate-mantle.xmf,1225,9.81471e-06,3.40908e-06,0,2.15607e-07,-1.68137e+09,-1.68222e+09,-1.68268e+09,28815.9,-0.127009,0.00663578,-0,0.127182,27366.9,-58072.2,0,64197.6,28815.9
step02_gravity_refstate-mantle.xmf,1226,9.91542e-06,3.44447e-06,0,-2.13465e-09,-1.74375e+09,-1.74461e+09,-1.74507e+09,-285.296,-0.128169,-4.10614e-19,-0,0.128169,27388.2,-60000,0,65955.4,285.296
step02_gravity_refstate-mantle.xmf,1227,-2.3395e-06,3.39962e-05,0,-2.5763e-05,-1.34853e+09,-1.34367e+09,-1.34822e+09,-3.44323e+06,-0.159849,0.533243,-0,0.556686,7122.39,-47788,0,48315.8,3.44323e+06
step02_gravity_refstate-mantle.xmf,1228,1.65001e-06,2.56311e-05,0,-2.14446e-05,-1.32913e+09,-1.32592e+09,-1.32935e+09,-2.86607e+06,-0.151896,0.484629,-0,0.507876,8205.41,-47194,0,47902,2.86607e+06
step02_gravity_refstate-mantle.xmf,1229,3.42093e-06,1.96855e-05,0,-1.65086e-05,-1.31188e+09,-1.30971e+09,-1.31234e+09,-2.20637e+06,-0.138783,0.432446,-0,0.45417,9337.43,-46657.8,0,47583,2.20637e+06
step02_gravity_refstate-mantle.xmf,1230,-2.13982e-05,5.94621e-05,0,-1.96142e-05,-1.46572e+09,-1.45491e+09,-1.46286e+09,-2.62144e+06,-0.136037,0.495131,-0,0.513479,4526.56,-51345.6,0,51544.8,2.62144e+06
step02_gravity_refstate-mantle.xmf,1231,-2.29959e-05,6.06927e-05,0,-1.69668e-05,-1.4897e+09,-1.47852e+09,-1.48663e+09,-2.26762e+06,-0.128036,0.459695,-0,0.477193,4267.01,-52079,0,52253.5,2.26762e+06
step02_gravity_refstate-mantle.xmf,1232,3.60228e-06,1.40671e-05,0,-9.50632e-06,-1.29024e+09,-1.28884e+09,-1.29072e+09,-1.27052e+06,-0.115953,0.345752,-0,0.364677,11369.9,-45976.1,0,47361.1,1.27052e+06
step02_gravity_refstate-mantle.xmf,1233,1.98906e-06,8.55454e-06,0,-4.64399e-07,-1.26142e+09,-1.26054e+09,-1.26168e+09,-62067,-0.0792045,0.1596,-0,0.178173,18140.7,-45060.9,0,48575.4,62067
step02_gravity_refstate-mantle.xmf,1234,3.44807e-06,1.29512e-05,0,-7.51371e-06,-1.29156e+09,-1.29029e+09,-1.29202e+09,-1.00421e+06,-0.1137,0.308497,-0,0.328783,12281.8,-46013.1,0,47624,1.00421e+06
step02_gravity_refstate-mantle.xmf,1235,2.1142e-06,1.11435e-05,0,-4.33599e-06,-1.26476e+09,-1.26355e+09,-1.26504e+09,-579506,-0.0899846,0.26729,-0,0.282031,13747,-45171.6,0,47217.1,579506
step02_gravity_refstate-mantle.xmf,1236,1.97887e-06,9.14753e-06,0,-1.17197e-06,-1.26329e+09,-1.26233e+09,-1.26355e+09,-156634,-0.0825497,0.182522,-0,0.200322,16971.5,-45120.1,0,48206.4,156634
step02_gravity_refstate-mantle.xmf,1237,2.00617e-06,9.75952e-06,0,-2.03407e-06,-1.26433e+09,-1.26329e+09,-1.2646e+09,-271853,-0.0853637,0.207809,-0,0.224659,15860.6,-45154.1,0,47858.7,271853
step02_gravity_refstate-mantle.xmf,1238,2.07349e-06,1.0409e-05,0,-3.08467e-06,-1.26476e+09,-1.26365e+09,-1.26504e+09,-412267,-0.0878047,0.236026,-0,0.251829,14785.4,-45169.6,0,47527.9,412267
step02_gravity_refstate-mantle.xmf,1239,3.74155e-06,1.77673e-05,0,-1.40264e-05,-1.31405e+09,-1.31218e+09,-1.31455e+09,-1.87463e+06,-0.137473,0.392743,-0,0.416108,10087.4,-46722.1,0,47798.7,1.87463e+06
step02_gravity_refstate-mantle.xmf,1240,4.12486e-06,7.15139e-06,0,3.93351e-07,-1.32002e+09,-1.31961e+09,-1.32057e+09,52571.4,-0.100084,0.106717,-0,0.146306,20599,-46881.7,0,51207.6,52571.4
step02_gravity_refstate-mantle.xmf,1241,8.77477e-06,3.86536e-06,0,7.0117e-07,-1.54501e+09,-1.54567e+09,-1.54619e+09,93711.4,-0.122777,0.0239381,-0,0.125089,26436.8,-53854.6,0,59993.5,93711.4
step02_gravity_refstate-mantle.xmf,1242,-2.85752e-05,6.40912e-05,0,-1.6357e-06,-1.65821e+09,-1.64582e+09,-1.65439e+09,-218612,-0.0341975,0.173564,-0,0.176901,1184.27,-57255.5,0,57267.7,218612
step02_gravity_refstate-mantle.xmf,1243,-2.80674e-05,6.29297e-05,0,1.80424e-08,-1.74704e+09,-1.73488e+09,-1.74329e+09,2411.37,-0.0333464,-7.91937e-19,-0,0.0333464,1179.97,-60000,0,60011.6,2411.37
step02_gravity_refstate-mantle.xmf,1244,-2.84865e-05,6.41621e-05,0,-2.79347e-06,-1.63689e+09,-1.6245e+09,-1.63308e+09,-373347,-0.0470715,0.214156,-0,0.219268,1619.76,-56597.6,0,56620.8,373347
step02_gravity_refstate-mantle.xmf,1245,9.51004e-06,3.67378e-06,0,3.87362e-07,-1.63065e+09,-1.63143e+09,-1.63192e+09,51770.9,-0.129488,0.0130308,-0,0.130142,26778.7,-56504.1,0,62528.5,51770.9
step02_gravity_refstate-mantle.xmf,1246,-2.81987e-05,6.41775e-05,0,-4.4782e-06,-1.61198e+09,-1.59963e+09,-1.60821e+09,-598511,-0.0619899,0.260439,-0,0.267715,2116.2,-55830.2,0,55870.3,598511
step02_gravity_refstate-mantle.xmf,1247,-2.77325e-05,6.40939e-05,0,-6.60147e-06,-1.58552e+09,-1.57325e+09,-1.58181e+09,-882286,-0.0767667,0.30825,-0,0.317665,2596.89,-55015.7,0,55077,882286
step02_gravity_refstate-mantle.xmf,1248,-2.7025e-05,6.37922e-05,0,-9.01803e-06,-1.55969e+09,-1.54755e+09,-1.55608e+09,-1.20526e+06,-0.090883,0.353065,-0,0.364574,3048.86,-54221.9,0,54307.6,1.20526e+06
step02_gravity_refstate-mantle.xmf,1249,-2.60528e-05,6.32477e-05,0,-1.1644e-05,-1.53436e+09,-1.52243e+09,-1.53088e+09,-1.55622e+06,-0.104011,0.395092,-0,0.408553,3464.53,-53444.7,0,53556.9,1.55622e+06
step02_gravity_refstate-mantle.xmf,1250,-2.50784e-05,6.27363e-05,0,-1.40523e-05,-1.51168e+09,-1.49995e+09,-1.50833e+09,-1.87809e+06,-0.114102,0.431885,-0,0.446704,3776.67,-52749.3,0,52884.3,1.87809e+06
step02_gravity_refstate-mantle.xmf,1251,-5.03283e-06,3.81099e-05,0,-2.59946e-05,-1.36832e+09,-1.36255e+09,-1.36765e+09,-3.47418e+06,-0.164225,0.529767,-0,0.554638,6821.35,-48391.8,0,48870.2,3.47418e+06
step02_gravity_refstate-mantle.xmf,1252,-2.35446e-07,2.93866e-05,0,-2.29011e-05,-1.34784e+09,-1.34388e+09,-1.34781e+09,-3.06073e+06,-0.160562,0.489696,-0,0.515346,7851.81,-47769,0,48410,3.06073e+06
step02_gravity_refstate-mantle.xmf,1253,2.5548e-06,2.25515e-05,0,-1.84031e-05,-1.33073e+09,-1.32806e+09,-1.33107e+09,-2.45958e+06,-0.151099,0.440124,-0,0.465338,8968.35,-47241.7,0,48085.4,2.45958e+06
step02_gravity_refstate-mantle.xmf,1254,-7.90747e-06,4.21877e-05,0,-2.57229e-05,-1.38791e+09,-1.38121e+09,-1.38685e+09,-3.43787e+06,-0.165581,0.524792,-0,0.550294,6491.2,-48988.1,0,49416.3,3.43787e+06
step02_gravity_refstate-mantle.xmf,1255,-1.06522e-05,4.58001e-05,0,-2.49132e-05,-1.40719e+09,-1.39964e+09,-1.40577e+09,-3.32965e+06,-0.164589,0.515489,-0,0.541127,6183.5,-49574.6,0,49958.7,3.32965e+06
step02_gravity_refstate-mantle.xmf,1256,-1.84962e-05,5.53929e-05,0,-2.04982e-05,-1.46203e+09,-1.45215e+09,-1.45955e+09,-2.73959e+06,-0.148455,0.478252,-0,0.500764,5136.13,-51240.6,0,51497.4,2.73959e+06
step02_gravity_refstate-mantle.xmf,1257,-1.59848e-05,5.23383e-05,0,-2.2142e-05,-1.4455e+09,-1.43637e+09,-1.44336e+09,-2.95927e+06,-0.155983,0.489555,-0,0.513804,5521.08,-50739.1,0,51038.6,2.95927e+06
step02_gravity_refstate-mantle.xmf,1258,-1.33811e-05,4.91925e-05,0,-2.36641e-05,-1.42687e+09,-1.41851e+09,-1.42509e+09,-3.1627e+06,-0.161367,0.502849,-0,0.528106,5863.97,-50173.1,0,50514.6,3.1627e+06
step02_gravity_refstate-mantle.xmf,1259,3.16484e-06,1.19756e-05,0,-5.6877e-06,-1.29077e+09,-1.28959e+09,-1.29119e+09,-760161,-0.109881,0.274171,-0,0.29537,13253.2,-45984.2,0,47855.9,760161
step02_gravity_refstate-mantle.xmf,1260,3.89468e-06,1.60989e-05,0,-1.16875e-05,-1.31553e+09,-1.3139e+09,-1.31605e+09,-1.56203e+06,-0.135413,0.35524,-0,0.380174,10878.7,-46764.6,0,48013.2,1.56203e+06
step02_gravity_refstate-mantle.xmf,1261,3.11826e-06,8.13255e-06,0,-2.5892e-07,-1.29273e+09,-1.29206e+09,-1.29314e+09,-34604.6,-0.0940626,0.140075,-0,0.168727,18783.5,-46034.5,0,49719.2,34604.6
step02_gravity_refstate-mantle.xmf,1262,4.09284e-06,7.76747e-06,0,-1.21386e-07,-1.32306e+09,-1.32257e+09,-1.32361e+09,-16223.3,-0.106234,0.122269,-0,0.161974,19431.8,-46977.2,0,50837.5,16223.3
step02_gravity_refstate-mantle.xmf,1263,9.07247e-06,4.14561e-06,0,5.05008e-07,-1.58473e+09,-1.58539e+09,-1.58594e+09,67494.4,-0.133371,0.0208623,-0,0.134993,25853,-55084.1,0,60849.3,67494.4
step02_gravity_refstate-mantle.xmf,1264,8.57824e-06,4.56547e-06,0,5.77322e-07,-1.54212e+09,-1.54266e+09,-1.54327e+09,77159.1,-0.133939,0.0293304,-0,0.137113,25098.9,-53765.7,0,59335.5,77159.1
step02_gravity_refstate-mantle.xmf,1265,8.04156e-06,4.98912e-06,0,6.12955e-07,-1.50343e+09,-1.50384e+09,-1.5045e+09,81921.4,-0.133122,0.0386436,-0,0.138617,24348,-52568,0,57932.9,81921.4
step02_gravity_refstate-mantle.xmf,1266,7.42023e-06,5.3989e-06,0,6.32212e-07,-1.4642e+09,-1.46447e+09,-1.46519e+09,84495.1,-0.129966,0.0493245,-0,0.139011,23625.6,-51352.9,0,56526.9,84495.1
step02_gravity_refstate-mantle.xmf,1267,6.68808e-06,5.79867e-06,0,6.42875e-07,-1.42385e+09,-1.42397e+09,-1.42475e+09,85920.2,-0.124205,0.0615501,-0,0.138619,22921.4,-50103,0,55097.2,85920.2
step02_gravity_refstate-mantle.xmf,1268,5.8238e-06,6.19886e-06,0,6.44365e-07,-1.3829e+09,-1.38285e+09,-1.38368e+09,86119.4,-0.11578,0.0753354,-0,0.138132,22227.9,-48833.2,0,53654.1,86119.4
step02_gravity_refstate-mantle.xmf,1269,4.90095e-06,7.3919e-06,0,2.39801e-08,-1.35191e+09,-1.35157e+09,-1.35256e+09,3204.93,-0.115595,0.10577,-0,0.156683,20119.1,-47872.7,0,51928.5,3204.93
step02_gravity_refstate-mantle.xmf,1270,-2.82465e-05,6.32865e-05,0,-1.23863e-06,-1.68556e+09,-1.67333e+09,-1.68179e+09,-165543,-0.0366717,0.119518,-0,0.125018,1285.25,-58100.7,0,58114.9,165543
step02_gravity_refstate-mantle.xmf,1271,-2.7547e-05,6.2322e-05,0,-8.05578e-07,-1.71592e+09,-1.70391e+09,-1.71224e+09,-107665,-0.0511532,0.0596175,-0,0.078555,1817.52,-59040.6,0,59068.6,107665
step02_gravity_refstate-mantle.xmf,1272,9.59094e-06,4.09491e-06,0,2.14699e-07,-1.66982e+09,-1.67055e+09,-1.6711e+09,28694.5,-0.13919,0.0095216,-0,0.139516,26050.2,-57715.9,0,63322.4,28694.5
step02_gravity_refstate-mantle.xmf,1273,9.72092e-06,4.01459e-06,0,1.19518e-07,-1.70821e+09,-1.70897e+09,-1.70951e+09,15973.6,-0.138594,0.00445412,-0,0.138665,26278.6,-58902.3,0,64498.4,15973.6
step02_gravity_refstate-mantle.xmf,1274,-2.28733e-05,5.9738e-05,0,-1.52928e-05,-1.50938e+09,-1.49834e+09,-1.50633e+09,-2.04388e+06,-0.128008,0.420822,-0,0.43986,4348.3,-52685.3,0,52864.4,2.04388e+06
step02_gravity_refstate-mantle.xmf,1275,-2.54088e-06,3.32515e-05,0,-2.36726e-05,-1.36756e+09,-1.36278e+09,-1.36722e+09,-3.16384e+06,-0.166745,0.489353,-0,0.516982,7529.49,-48372.6,0,48955.1,3.16384e+06
step02_gravity_refstate-mantle.xmf,1276,1.21847e-06,2.56694e-05,0,-2.00004e-05,-1.34844e+09,-1.34518e+09,-1.34861e+09,-2.67305e+06,-0.160446,0.446768,-0,0.474705,8603.8,-47787.8,0,48556.2,2.67305e+06
step02_gravity_refstate-mantle.xmf,1277,3.05724e-06,2.02994e-05,0,-1.57924e-05,-1.33448e+09,-1.33217e+09,-1.33489e+09,-2.11065e+06,-0.150981,0.398823,-0,0.426444,9719.21,-47354.9,0,48342,2.11065e+06
step02_gravity_refstate-mantle.xmf,1278,-1.97878e-05,5.6319e-05,0,-1.84758e-05,-1.48288e+09,-1.47271e+09,-1.48024e+09,-2.46929e+06,-0.144137,0.447863,-0,0.470486,4992.47,-51878.5,0,52118.2,2.46929e+06
step02_gravity_refstate-mantle.xmf,1279,3.92369e-06,1.45919e-05,0,-9.46687e-06,-1.31588e+09,-1.31446e+09,-1.31641e+09,-1.26525e+06,-0.132283,0.319095,-0,0.345428,11739.7,-46771.8,0,48222.6,1.26525e+06
step02_gravity_refstate-mantle.xmf,1280,3.13402e-06,8.82002e-06,0,-1.01182e-06,-1.294e+09,-1.29324e+09,-1.29442e+09,-135230,-0.0984617,0.161341,-0,0.189012,17586.6,-46075.7,0,49317.9,135230
step02_gravity_refstate-mantle.xmf,1281,3.86925e-06,1.32162e-05,0,-7.23906e-06,-1.31882e+09,-1.31757e+09,-1.31934e+09,-967500,-0.130009,0.278862,-0,0.307679,12793.6,-46858.6,0,48573.7,967500
step02_gravity_refstate-mantle.xmf,1282,3.10139e-06,1.10959e-05,0,-4.20152e-06,-1.29277e+09,-1.2917e+09,-1.29319e+09,-561534,-0.107926,0.241052,-0,0.26411,14285.5,-46043.4,0,48208.6,561534
step02_gravity_refstate-mantle.xmf,1283,3.14628e-06,9.51937e-06,0,-1.89633e-06,-1.29497e+09,-1.29412e+09,-1.29539e+09,-253444,-0.102543,0.184812,-0,0.211354,16447.3,-46107.6,0,48953.3,253444
step02_gravity_refstate-mantle.xmf,1284,3.18255e-06,1.02687e-05,0,-2.97664e-06,-1.29499e+09,-1.29405e+09,-1.29542e+09,-397828,-0.106015,0.211324,-0,0.236425,15340.7,-46110.5,0,48595.4,397828
step02_gravity_refstate-mantle.xmf,1285,3.39244e-06,1.88883e-05,0,-1.38836e-05,-1.34162e+09,-1.33955e+09,-1.34207e+09,-1.85554e+06,-0.152741,0.36368,-0,0.394453,10373.1,-47574.2,0,48691.9,1.85554e+06
step02_gravity_refstate-mantle.xmf,1286,5.69539e-06,6.99888e-06,0,1.48341e-07,-1.38474e+09,-1.38456e+09,-1.3855e+09,19825.7,-0.124323,0.0893048,-0,0.153074,20858.4,-48891.1,0,53154.6,19825.7
step02_gravity_refstate-mantle.xmf,1287,-2.76255e-05,6.27797e-05,0,-2.57277e-06,-1.66216e+09,-1.65007e+09,-1.65846e+09,-343850,-0.0584297,0.162568,-0,0.17275,2049.39,-57380.4,0,57417,343850
step02_gravity_refstate-mantle.xmf,1288,-2.68249e-05,6.13002e-05,0,1.83217e-08,-1.74691e+09,-1.73513e+09,-1.74332e+09,2448.7,-0.0657217,-6.95154e-19,-0,0.0657217,2359.95,-60000,0,60046.4,2448.7
step02_gravity_refstate-mantle.xmf,1289,-2.70784e-05,6.22482e-05,0,-4.1673e-06,-1.63815e+09,-1.62621e+09,-1.63453e+09,-556960,-0.0736872,0.205794,-0,0.218589,2579.5,-56641.3,0,56700,556960
step02_gravity_refstate-mantle.xmf,1290,9.23474e-06,4.69684e-06,0,2.64215e-07,-1.63244e+09,-1.63305e+09,-1.63367e+09,35312.3,-0.146351,0.0166374,-0,0.147293,24996.1,-56560.3,0,61837.5,35312.3
step02_gravity_refstate-mantle.xmf,1291,9.41109e-06,4.97341e-06,0,9.75967e-08,-1.69491e+09,-1.69551e+09,-1.69617e+09,13043.8,-0.15242,0.00760152,-0,0.152609,24785.6,-58492.1,0,63526.8,13043.8
step02_gravity_refstate-mantle.xmf,1292,9.62832e-06,4.50247e-06,0,-3.65225e-09,-1.74372e+09,-1.74441e+09,-1.74501e+09,-488.123,-0.145776,-7.08019e-19,-0,0.145776,25586.2,-60000,0,65227.7,488.123
step02_gravity_refstate-mantle.xmf,1293,-2.63795e-05,6.17174e-05,0,-6.10542e-06,-1.61208e+09,-1.60031e+09,-1.60856e+09,-815989,-0.0882353,0.251234,-0,0.266278,3078.42,-55839.3,0,55924.1,815989
step02_gravity_refstate-mantle.xmf,1294,-2.54914e-05,6.10429e-05,0,-8.37417e-06,-1.58516e+09,-1.57359e+09,-1.58175e+09,-1.11921e+06,-0.102022,0.296325,-0,0.313396,3545.49,-55011.7,0,55125.8,1.11921e+06
step02_gravity_refstate-mantle.xmf,1295,-2.43403e-05,6.01205e-05,0,-1.09086e-05,-1.55798e+09,-1.54669e+09,-1.55473e+09,-1.45793e+06,-0.115149,0.339537,-0,0.358531,3989,-54177.7,0,54324.3,1.45793e+06
step02_gravity_refstate-mantle.xmf,1296,-2.28271e-05,5.88576e-05,0,-1.37299e-05,-1.52947e+09,-1.51856e+09,-1.52642e+09,-1.835e+06,-0.127596,0.382465,-0,0.403188,4411.59,-53303.9,0,53486.1,1.835e+06
step02_gravity_refstate-mantle.xmf,1297,-2.052e-05,5.64002e-05,0,-1.62592e-05,-1.50668e+09,-1.4964e+09,-1.50393e+09,-2.17304e+06,-0.141043,0.408401,-0,0.43207,4937.93,-52608.9,0,52840.1,2.17304e+06
step02_gravity_refstate-mantle.xmf,1298,-5.13186e-06,3.71941e-05,0,-2.39521e-05,-1.38707e+09,-1.38141e+09,-1.38638e+09,-3.2012e+06,-0.170002,0.487405,-0,0.516201,7185.43,-48967.9,0,49492.3,3.2012e+06
step02_gravity_refstate-mantle.xmf,1299,-5.80071e-07,2.90539e-05,0,-2.11129e-05,-1.36723e+09,-1.36327e+09,-1.36715e+09,-2.82174e+06,-0.167813,0.449148,-0,0.479474,8265.78,-48364.8,0,49066,2.82174e+06
step02_gravity_refstate-mantle.xmf,1300,2.11781e-06,2.29685e-05,0,-1.75938e-05,-1.34874e+09,-1.34595e+09,-1.34902e+09,-2.35141e+06,-0.159455,0.41186,-0,0.44165,9267.31,-47795.9,0,48686.1,2.35141e+06
step02_gravity_refstate-mantle.xmf,1301,-1.60725e-05,5.12825e-05,0,-1.98877e-05,-1.46986e+09,-1.46086e+09,-1.46771e+09,-2.65799e+06,-0.158468,0.441686,-0,0.469253,5743.5,-51488.3,0,51807.7,2.65799e+06
step02_gravity_refstate-mantle.xmf,1302,-7.5698e-06,4.05456e-05,0,-2.35825e-05,-1.40604e+09,-1.39961e+09,-1.40503e+09,-3.15179e+06,-0.171038,0.479848,-0,0.509419,6900.07,-49546.3,0,50024.5,3.15179e+06
step02_gravity_refstate-mantle.xmf,1303,-1.01049e-05,4.38382e-05,0,-2.27564e-05,-1.42663e+09,-1.41942e+09,-1.42527e+09,-3.0414e+06,-0.170113,0.467609,-0,0.497591,6608.32,-50173.6,0,50606.9,3.0414e+06
step02_gravity_refstate-mantle.xmf,1304,-1.29804e-05,4.74949e-05,0,-2.15629e-05,-1.44778e+09,-1.4397e+09,-1.44605e+09,-2.88188e+06,-0.166047,0.45563,-0,0.484944,6219.58,-50817.3,0,51196.5,2.88188e+06
step02_gravity_refstate-mantle.xmf,1305,3.68385e-06,1.19281e-05,0,-5.40502e-06,-1.31149e+09,-1.31039e+09,-1.31198e+09,-722381,-0.12181,0.250887,-0,0.278894,13737.1,-46627.7,0,48609.1,722381
step02_gravity_refstate-mantle.xmf,1306,3.77605e-06,1.68461e-05,0,-1.15112e-05,-1.34046e+09,-1.33872e+09,-1.34097e+09,-1.53848e+06,-0.149163,0.32899,-0,0.361226,11196.6,-47535.9,0,48836.7,1.53848e+06
step02_gravity_refstate-mantle.xmf,1307,4.03905e-06,8.488e-06,0,-8.18702e-07,-1.32465e+09,-1.32406e+09,-1.32519e+09,-109420,-0.111904,0.141313,-0,0.180255,18226,-47027.8,0,50436.2,109420
step02_gravity_refstate-mantle.xmf,1308,4.85209e-06,8.20231e-06,0,-6.76522e-07,-1.35544e+09,-1.35499e+09,-1.35609e+09,-90417.1,-0.123226,0.122848,-0,0.174001,18863.4,-47983.5,0,51558.1,90417.1
step02_gravity_refstate-mantle.xmf,1309,8.78008e-06,5.09101e-06,0,3.30796e-07,-1.58123e+09,-1.58173e+09,-1.58241e+09,44210.9,-0.146501,0.0265216,-0,0.148883,24331.1,-54976.6,0,60120.1,44210.9
step02_gravity_refstate-mantle.xmf,1310,8.31554e-06,5.55395e-06,0,3.13138e-07,-1.54304e+09,-1.54341e+09,-1.54415e+09,41850.8,-0.147076,0.0362697,-0,0.151482,23562.7,-53794.9,0,58728.9,41850.8
step02_gravity_refstate-mantle.xmf,1311,7.78811e-06,5.94708e-06,0,2.84257e-07,-1.50349e+09,-1.50374e+09,-1.50453e+09,37990.9,-0.144868,0.0474107,-0,0.152428,22866.3,-52570.7,0,57328.4,37990.9
step02_gravity_refstate-mantle.xmf,1312,7.18698e-06,6.31119e-06,0,2.43131e-07,-1.46368e+09,-1.4638e+09,-1.46464e+09,32494.4,-0.140328,0.0599667,-0,0.152604,22189.6,-51337.9,0,55928.2,32494.4
step02_gravity_refstate-mantle.xmf,1313,6.49467e-06,6.64785e-06,0,2.0357e-07,-1.42377e+09,-1.42375e+09,-1.42464e+09,27207.2,-0.133315,0.0738397,-0,0.152398,21536.5,-50101.2,0,54534,27207.2
step02_gravity_refstate-mantle.xmf,1314,5.59415e-06,7.89418e-06,0,-5.16134e-07,-1.38822e+09,-1.38791e+09,-1.38897e+09,-68981.4,-0.133025,0.104734,-0,0.169308,19548.7,-49000.3,0,52755.8,68981.4
step02_gravity_refstate-mantle.xmf,1315,-2.66916e-05,6.12239e-05,0,-2.11206e-06,-1.68943e+09,-1.67768e+09,-1.68586e+09,-282276,-0.0715002,0.108214,-0,0.129701,2554.89,-58225.3,0,58281.3,282276
step02_gravity_refstate-mantle.xmf,1316,-2.58289e-05,6.00171e-05,0,-1.2125e-06,-1.71722e+09,-1.70574e+09,-1.71376e+09,-162050,-0.0833373,0.054736,-0,0.0997053,3023.9,-59086.2,0,59163.5,162050
step02_gravity_refstate-mantle.xmf,1317,-2.81055e-06,3.27496e-05,0,-2.18262e-05,-1.38667e+09,-1.38192e+09,-1.3863e+09,-2.91707e+06,-0.172802,0.449626,-0,0.481689,7905.63,-48959.8,0,49594,2.91707e+06
step02_gravity_refstate-mantle.xmf,1318,9.26173e-07,2.54796e-05,0,-1.8537e-05,-1.36669e+09,-1.3634e+09,-1.36681e+09,-2.47747e+06,-0.167494,0.410941,-0,0.443764,9017.77,-48348.8,0,49182.6,2.47747e+06
step02_gravity_refstate-mantle.xmf,1319,2.28463e-06,2.20116e-05,0,-1.59451e-05,-1.36134e+09,-1.35871e+09,-1.36165e+09,-2.13106e+06,-0.164001,0.376762,-0,0.410908,9813.55,-48184.1,0,49173.3,2.13106e+06
step02_gravity_refstate-mantle.xmf,1320,-1.75213e-05,5.27367e-05,0,-1.822e-05,-1.48864e+09,-1.47925e+09,-1.4863e+09,-2.4351e+06,-0.154444,0.418091,-0,0.445706,5569.12,-52062.6,0,52359.6,2.4351e+06
step02_gravity_refstate-mantle.xmf,1321,4.00431e-06,1.51462e-05,0,-9.30565e-06,-1.34104e+09,-1.33955e+09,-1.34157e+09,-1.2437e+06,-0.145981,0.293915,-0,0.328171,12096.1,-47550.8,0,49065.2,1.2437e+06
step02_gravity_refstate-mantle.xmf,1322,4.06444e-06,9.32469e-06,0,-1.76075e-06,-1.32598e+09,-1.32528e+09,-1.32653e+09,-235324,-0.117376,0.163133,-0,0.200971,17039.7,-47071.2,0,50060.5,235324
step02_gravity_refstate-mantle.xmf,1323,4.14875e-06,1.27367e-05,0,-6.18067e-06,-1.3373e+09,-1.33616e+09,-1.33786e+09,-826046,-0.137639,0.244748,-0,0.280795,13614.6,-47430.2,0,49345.5,826046
step02_gravity_refstate-mantle.xmf,1324,4.02954e-06,1.12927e-05,0,-4.36451e-06,-1.32592e+09,-1.32495e+09,-1.32646e+09,-583316,-0.12689,0.218951,-0,0.253063,14659.1,-47074.1,0,49303.8,583316
step02_gravity_refstate-mantle.xmf,1325,4.04643e-06,1.02077e-05,0,-2.85896e-06,-1.32649e+09,-1.32566e+09,-1.32703e+09,-382100,-0.122226,0.187596,-0,0.223901,15901,-47088.9,0,49701.1,382100
step02_gravity_refstate-mantle.xmf,1326,3.02672e-06,1.95317e-05,0,-1.33576e-05,-1.36385e+09,-1.36164e+09,-1.36425e+09,-1.78524e+06,-0.162827,0.336957,-0,0.374236,10685.2,-48260.1,0,49428.8,1.78524e+06
step02_gravity_refstate-mantle.xmf,1327,6.26757e-06,7.57762e-06,0,-3.67205e-07,-1.42314e+09,-1.42297e+09,-1.42398e+09,-49076.9,-0.141272,0.0874681,-0,0.166158,20259.8,-50082.6,0,54025.3,49076.9
step02_gravity_refstate-mantle.xmf,1328,-2.59731e-05,6.05348e-05,0,-3.58094e-06,-1.66348e+09,-1.65192e+09,-1.66001e+09,-478592,-0.0858075,0.154371,-0,0.176616,3072.51,-57426.6,0,57508.7,478592
step02_gravity_refstate-mantle.xmf,1329,-2.48637e-05,5.86893e-05,0,1.24279e-08,-1.7467e+09,-1.73553e+09,-1.74338e+09,1660.98,-0.0962111,-6.55857e-19,-0,0.0962111,3539.92,-60000,0,60104.3,1660.98
step02_gravity_refstate-mantle.xmf,1330,-2.51122e-05,5.95897e-05,0,-5.34808e-06,-1.63841e+09,-1.62709e+09,-1.63505e+09,-714771,-0.0994445,0.196952,-0,0.220634,3567.36,-56655.6,0,56767.8,714771
step02_gravity_refstate-mantle.xmf,1331,8.92852e-06,5.948e-06,0,5.39735e-08,-1.65516e+09,-1.65555e+09,-1.65635e+09,7213.56,-0.162415,0.0166787,-0,0.163269,23439.8,-57263.2,0,61874.9,7213.56
step02_gravity_refstate-mantle.xmf,1332,9.19689e-06,5.79927e-06,0,-2.47879e-10,-1.74371e+09,-1.74416e+09,-1.74494e+09,-33.129,-0.162058,-8.14091e-19,-0,0.162058,23856.4,-60000,0,64568.8,33.129
step02_gravity_refstate-mantle.xmf,1333,-2.40665e-05,5.85842e-05,0,-7.40675e-06,-1.61154e+09,-1.60049e+09,-1.60832e+09,-989912,-0.112654,0.24057,-0,0.265641,4045.68,-55829.9,0,55976.2,989912
step02_gravity_refstate-mantle.xmf,1334,-2.2792e-05,5.73563e-05,0,-9.73849e-06,-1.58382e+09,-1.57311e+09,-1.58077e+09,-1.30155e+06,-0.125316,0.283084,-0,0.309581,4507.16,-54979.1,0,55163.5,1.30155e+06
step02_gravity_refstate-mantle.xmf,1335,-2.1115e-05,5.56817e-05,0,-1.22755e-05,-1.55577e+09,-1.54551e+09,-1.55295e+09,-1.64061e+06,-0.137801,0.322579,-0,0.350779,4978.59,-54119.6,0,54348.1,1.64061e+06
step02_gravity_refstate-mantle.xmf,1336,-1.93013e-05,5.37976e-05,0,-1.45313e-05,-1.53109e+09,-1.52132e+09,-1.52851e+09,-1.9421e+06,-0.14808,0.354002,-0,0.383725,5391.57,-53364.4,0,53636,1.9421e+06
step02_gravity_refstate-mantle.xmf,1337,-5.0386e-06,3.62118e-05,0,-2.22065e-05,-1.40237e+09,-1.39686e+09,-1.4017e+09,-2.9679e+06,-0.17459,0.451466,-0,0.484048,7543.92,-49438.9,0,50011.1,2.9679e+06
step02_gravity_refstate-mantle.xmf,1338,-9.02837e-07,2.88135e-05,0,-1.95116e-05,-1.38639e+09,-1.38242e+09,-1.38627e+09,-2.60773e+06,-0.174136,0.412486,-0,0.447737,8651.39,-48953.9,0,49712.5,2.60773e+06
step02_gravity_refstate-mantle.xmf,1339,-1.77457e-05,5.2328e-05,0,-1.64925e-05,-1.50856e+09,-1.4992e+09,-1.50619e+09,-2.20422e+06,-0.15481,0.382753,-0,0.412875,5666.15,-52675.2,0,52979.1,2.20422e+06
step02_gravity_refstate-mantle.xmf,1340,-1.52469e-05,4.91731e-05,0,-1.79102e-05,-1.49198e+09,-1.48338e+09,-1.48995e+09,-2.3937e+06,-0.16395,0.392207,-0,0.425095,6161.96,-52171.8,0,52534.5,2.3937e+06
step02_gravity_refstate-mantle.xmf,1341,-6.66072e-06,3.81251e-05,0,-2.1249e-05,-1.42416e+09,-1.41817e+09,-1.42327e+09,-2.83993e+06,-0.177248,0.429674,-0,0.464797,7481.09,-50105.8,0,50661.2,2.83993e+06
step02_gravity_refstate-mantle.xmf,1342,-9.7756e-06,4.23208e-05,0,-2.0578e-05,-1.44785e+09,-1.44088e+09,-1.44654e+09,-2.75025e+06,-0.175156,0.421013,-0,0.455995,7019.61,-50827.5,0,51309.9,2.75025e+06
step02_gravity_refstate-mantle.xmf,1343,-1.25883e-05,4.59041e-05,0,-1.9425e-05,-1.47013e+09,-1.46231e+09,-1.46845e+09,-2.59615e+06,-0.170664,0.408144,-0,0.442389,6595.64,-51506.2,0,51926.8,2.59615e+06
step02_gravity_refstate-mantle.xmf,1344,4.12103e-06,1.40468e-05,0,-7.7331e-06,-1.34476e+09,-1.34344e+09,-1.34531e+09,-1.03353e+06,-0.144917,0.265559,-0,0.302527,12862.2,-47663.7,0,49368.7,1.03353e+06
step02_gravity_refstate-mantle.xmf,1345,3.61278e-06,1.73109e-05,0,-1.10054e-05,-1.36365e+09,-1.36182e+09,-1.36413e+09,-1.47087e+06,-0.159788,0.301964,-0,0.341635,11573.1,-48252.2,0,49620.7,1.47087e+06
step02_gravity_refstate-mantle.xmf,1346,4.76085e-06,9.08936e-06,0,-1.53967e-06,-1.35678e+09,-1.3562e+09,-1.35742e+09,-205777,-0.12962,0.142461,-0,0.192605,17662.3,-48026.7,0,51171.5,205777
step02_gravity_refstate-mantle.xmf,1347,8.78416e-06,5.78525e-06,0,1.12422e-07,-1.61395e+09,-1.61435e+09,-1.61512e+09,15025.1,-0.157611,0.0238995,-0,0.159413,23536.2,-55988.9,0,60734.7,15025.1
step02_gravity_refstate-mantle.xmf,1348,5.39511e-06,8.89028e-06,0,-1.3564e-06,-1.38778e+09,-1.38731e+09,-1.3885e+09,-181283,-0.139874,0.123462,-0,0.186568,18273.4,-48987.9,0,52285.1,181283
step02_gravity_refstate-mantle.xmf,1349,8.4047e-06,6.28534e-06,0,3.95614e-08,-1.58179e+09,-1.58208e+09,-1.58292e+09,5287.38,-0.159842,0.0329611,-0,0.163205,22788.4,-54994.4,0,59528.9,5287.38
step02_gravity_refstate-mantle.xmf,1350,7.95188e-06,6.72109e-06,0,-7.1532e-08,-1.5432e+09,-1.54336e+09,-1.54426e+09,-9560.25,-0.159158,0.0446354,-0,0.165299,22081.3,-53800.3,0,58155.4,9560.25
step02_gravity_refstate-mantle.xmf,1351,7.4476e-06,7.10268e-06,0,-2.00232e-07,-1.50346e+09,-1.50351e+09,-1.50446e+09,-26761,-0.156105,0.0581067,-0,0.166569,21390.5,-52570.4,0,56755.6,26761
step02_gravity_refstate-mantle.xmf,1352,6.90163e-06,7.33729e-06,0,-2.94774e-07,-1.46245e+09,-1.46239e+09,-1.46337e+09,-39396.5,-0.149577,0.0723085,-0,0.166138,20828.6,-51300.5,0,55367.6,39396.5
step02_gravity_refstate-mantle.xmf,1353,6.09601e-06,8.71513e-06,0,-1.17466e-06,-1.42761e+09,-1.42726e+09,-1.42842e+09,-156993,-0.150729,0.102305,-0,0.182169,18974.6,-50222.3,0,53687.2,156993
step02_gravity_refstate-mantle.xmf,1354,-2.45863e-05,5.84406e-05,0,-2.81378e-06,-1.68915e+09,-1.67806e+09,-1.68587e+09,-376061,-0.101111,0.103497,-0,0.14469,3708.89,-58223.6,0,58341.6,376061
step02_gravity_refstate-mantle.xmf,1355,-2.35252e-05,5.69242e-05,0,-1.60634e-06,-1.71604e+09,-1.70529e+09,-1.7129e+09,-214688,-0.112242,0.053587,-0,0.124378,4194.57,-59057.3,0,59206.1,214688
step02_gravity_refstate-mantle.xmf,1356,8.89421e-06,6.45302e-06,0,-9.38911e-09,-1.70035e+09,-1.70068e+09,-1.70154e+09,-1254.85,-0.168715,0.00873954,-0,0.168941,23027.8,-58660.3,0,63018.3,1254.85
step02_gravity_refstate-mantle.xmf,1357,-3.29842e-06,3.26405e-05,0,-2.0064e-05,-1.40798e+09,-1.40318e+09,-1.40754e+09,-2.68156e+06,-0.178559,0.411432,-0,0.448508,8247.4,-49614.5,0,50295.3,2.68156e+06
step02_gravity_refstate-mantle.xmf,1358,5.94765e-07,2.5425e-05,0,-1.71161e-05,-1.38644e+09,-1.38313e+09,-1.38652e+09,-2.28757e+06,-0.174281,0.375969,-0,0.414399,9429.77,-48956.8,0,49856.7,2.28757e+06
step02_gravity_refstate-mantle.xmf,1359,3.99642e-06,1.55217e-05,0,-8.94332e-06,-1.3643e+09,-1.36276e+09,-1.36483e+09,-1.19527e+06,-0.1567,0.269798,-0,0.312003,12467.6,-48270.1,0,49854.3,1.19527e+06
step02_gravity_refstate-mantle.xmf,1360,4.2741e-06,1.3977e-05,0,-7.15003e-06,-1.36362e+09,-1.36232e+09,-1.36419e+09,-955601,-0.152671,0.241574,-0,0.285773,13360.2,-48247,0,50062.6,955601
step02_gravity_refstate-mantle.xmf,1361,4.71655e-06,1.01145e-05,0,-2.65195e-06,-1.35781e+09,-1.35709e+09,-1.35844e+09,-354433,-0.135591,0.164452,-0,0.213141,16504.6,-48060.8,0,50815.8,354433
step02_gravity_refstate-mantle.xmf,1362,4.47441e-06,1.24928e-05,0,-5.44704e-06,-1.36029e+09,-1.35922e+09,-1.36089e+09,-727997,-0.146741,0.214975,-0,0.260283,14337.3,-48141.7,0,50231.3,727997
step02_gravity_refstate-mantle.xmf,1363,4.60583e-06,1.12104e-05,0,-3.92665e-06,-1.35825e+09,-1.35737e+09,-1.35887e+09,-524797,-0.140936,0.188861,-0,0.235651,15397.5,-48076.4,0,50481.9,524797
step02_gravity_refstate-mantle.xmf,1364,1.77241e-06,2.24975e-05,0,-1.47984e-05,-1.38722e+09,-1.38445e+09,-1.38746e+09,-1.9778e+06,-0.173613,0.34054,-0,0.382241,10234.8,-48981.2,0,50039.1,1.9778e+06
step02_gravity_refstate-mantle.xmf,1365,2.69877e-06,1.99427e-05,0,-1.25381e-05,-1.38728e+09,-1.38497e+09,-1.38764e+09,-1.67571e+06,-0.171774,0.307247,-0,0.352004,11073.2,-48982.6,0,50218.7,1.67571e+06
step02_gravity_refstate-mantle.xmf,1366,6.58098e-06,8.20407e-06,0,-8.03094e-07,-1.4549e+09,-1.45468e+09,-1.45578e+09,-107334,-0.15417,0.0847043,-0,0.175907,19820.5,-51067.4,0,54778.9,107334
step02_gravity_refstate-mantle.xmf,1367,-2.40977e-05,5.80241e-05,0,-4.34744e-06,-1.66305e+09,-1.65207e+09,-1.65983e+09,-581035,-0.108491,0.148652,-0,0.184032,3978.83,-57419.4,0,57557.1,581035
step02_gravity_refstate-mantle.xmf,1368,-2.23309e-05,5.52921e-05,0,2.74765e-09,-1.74643e+09,-1.73606e+09,-1.74345e+09,367.223,-0.124066,-5.87273e-19,-0,0.124066,4720.6,-60000,0,60185.4,367.223
step02_gravity_refstate-mantle.xmf,1369,-2.24798e-05,5.60707e-05,0,-6.07253e-06,-1.64207e+09,-1.63157e+09,-1.63906e+09,-811594,-0.124999,0.17927,-0,0.218546,4649.2,-56777.1,0,56967.1,811594
step02_gravity_refstate-mantle.xmf,1370,8.371e-06,7.05306e-06,0,-1.53283e-07,-1.62425e+09,-1.62443e+09,-1.62537e+09,-20486.3,-0.171075,0.0271106,-0,0.17321,22101.4,-56307.8,0,60490,20486.3
step02_gravity_refstate-mantle.xmf,1371,8.47088e-06,7.26347e-06,0,-1.07828e-07,-1.66796e+09,-1.66813e+09,-1.6691e+09,-14411.2,-0.174936,0.017345,-0,0.175793,22109.2,-57659.2,0,61752.7,14411.2
step02_gravity_refstate-mantle.xmf,1372,8.5819e-06,7.38428e-06,0,3.46137e-09,-1.74371e+09,-1.74387e+09,-1.74486e+09,462.612,-0.176832,-9.90545e-19,-0,0.176832,22194.3,-60000,0,63973.3,462.612
step02_gravity_refstate-mantle.xmf,1373,-2.14453e-05,5.50343e-05,0,-8.43414e-06,-1.60896e+09,-1.59874e+09,-1.60609e+09,-1.12722e+06,-0.134504,0.231406,-0,0.267656,4999.77,-55758.6,0,55982.3,1.12722e+06
step02_gravity_refstate-mantle.xmf,1374,-1.98729e-05,5.33085e-05,0,-1.05796e-05,-1.58262e+09,-1.57284e+09,-1.57996e+09,-1.41396e+06,-0.145575,0.267518,-0,0.304562,5454.31,-54951.2,0,55221.2,1.41396e+06
step02_gravity_refstate-mantle.xmf,1375,-1.74108e-05,5.06013e-05,0,-1.33733e-05,-1.54863e+09,-1.53954e+09,-1.54631e+09,-1.78734e+06,-0.158441,0.309278,-0,0.3475,6024,-53910.9,0,54246.4,1.78734e+06
step02_gravity_refstate-mantle.xmf,1376,-1.54204e-05,4.84571e-05,0,-1.55755e-05,-1.52037e+09,-1.51184e+09,-1.51831e+09,-2.08166e+06,-0.165766,0.342853,-0,0.380823,6370.58,-53045.8,0,53426.9,2.08166e+06
step02_gravity_refstate-mantle.xmf,1377,-1.0731e-06,2.84279e-05,0,-1.80942e-05,-1.40239e+09,-1.39845e+09,-1.40225e+09,-2.41829e+06,-0.178932,0.381489,-0,0.421368,9014.07,-49446,0,50260.9,2.41829e+06
step02_gravity_refstate-mantle.xmf,1378,-1.21495e-05,4.43544e-05,0,-1.72432e-05,-1.49446e+09,-1.48691e+09,-1.49284e+09,-2.30456e+06,-0.175444,0.359369,-0,0.399908,7006.94,-52256.7,0,52724.4,2.30456e+06
step02_gravity_refstate-mantle.xmf,1379,-6.85595e-06,3.74543e-05,0,-1.91592e-05,-1.44771e+09,-1.44179e+09,-1.44679e+09,-2.56063e+06,-0.182067,0.386229,-0,0.426991,7849.28,-50830.3,0,51432.7,2.56063e+06
step02_gravity_refstate-mantle.xmf,1380,-9.47374e-06,4.09437e-05,0,-1.84334e-05,-1.47051e+09,-1.46377e+09,-1.46924e+09,-2.46362e+06,-0.180013,0.374961,-0,0.415933,7442.42,-51526,0,52060.7,2.46362e+06
step02_gravity_refstate-mantle.xmf,1381,3.4393e-06,1.7635e-05,0,-1.03276e-05,-1.38713e+09,-1.38523e+09,-1.38759e+09,-1.38028e+06,-0.168926,0.274522,-0,0.322333,11984.2,-48977.1,0,50422,1.38028e+06
step02_gravity_refstate-mantle.xmf,1382,5.21301e-06,9.98716e-06,0,-2.37251e-06,-1.3891e+09,-1.38846e+09,-1.38979e+09,-317086,-0.146708,0.143232,-0,0.205034,17090.8,-49030.2,0,51923.5,317086
step02_gravity_refstate-mantle.xmf,1383,5.68444e-06,9.87145e-06,0,-2.10355e-06,-1.42127e+09,-1.42071e+09,-1.42203e+09,-281139,-0.156092,0.12314,-0,0.198817,17681,-50026.7,0,53059.3,281139
step02_gravity_refstate-mantle.xmf,1384,7.91316e-06,7.64336e-06,0,-3.56735e-07,-1.58202e+09,-1.58206e+09,-1.58308e+09,-47677.6,-0.171682,0.040422,-0,0.176376,21341.7,-55001.7,0,58997.1,47677.6
step02_gravity_refstate-mantle.xmf,1385,7.45969e-06,8.12637e-06,0,-6.09987e-07,-1.5431e+09,-1.54301e+09,-1.5441e+09,-81524.7,-0.170436,0.0547926,-0,0.179027,20615.8,-53797.6,0,57612.5,81524.7
step02_gravity_refstate-mantle.xmf,1386,6.97355e-06,8.45653e-06,0,-8.8634e-07,-1.49772e+09,-1.49753e+09,-1.49866e+09,-118459,-0.165374,0.0726738,-0,0.180638,19910.3,-52393.5,0,56049.1,118459
step02_gravity_refstate-mantle.xmf,1387,6.46125e-06,9.188e-06,0,-1.38142e-06,-1.47006e+09,-1.4697e+09,-1.47092e+09,-184627,-0.164296,0.0907762,-0,0.187706,18954.5,-51537.4,0,54912.4,184627
step02_gravity_refstate-mantle.xmf,1388,-2.21446e-05,5.52829e-05,0,-3.75519e-06,-1.68149e+09,-1.67114e+09,-1.67853e+09,-501882,-0.126649,0.110374,-0,0.167995,4792.56,-57995.2,0,58192.9,501882
step02_gravity_refstate-mantle.xmf,1389,-2.06421e-05,5.30514e-05,0,-1.87497e-06,-1.71534e+09,-1.70549e+09,-1.71258e+09,-250590,-0.139024,0.0506019,-0,0.147947,5407.09,-59044.9,0,59292,250590
step02_gravity_refstate-mantle.xmf,1390,8.1743e-06,8.2036e-06,0,-1.40013e-07,-1.70223e+09,-1.70222e+09,-1.70332e+09,-18712.8,-0.182879,0.0106168,-0,0.183187,21376.7,-58717.9,0,62488.1,18712.8
step02_gravity_refstate-mantle.xmf,1391,-4.64644e-06,3.42319e-05,0,-1.92367e-05,-1.43006e+09,-1.42487e+09,-1.42944e+09,-2.57099e+06,-0.182293,0.389278,-0,0.429847,8236.02,-50291.7,0,50961.6,2.57099e+06
step02_gravity_refstate-mantle.xmf,1392,-2.43529e-06,3.03433e-05,0,-1.77916e-05,-1.42282e+09,-1.41844e+09,-1.4225e+09,-2.37785e+06,-0.183497,0.366743,-0,0.410087,8929.46,-50072.9,0,50862.9,2.37785e+06
step02_gravity_refstate-mantle.xmf,1393,-2.01369e-07,2.62138e-05,0,-1.60661e-05,-1.4114e+09,-1.40787e+09,-1.41137e+09,-2.14724e+06,-0.181771,0.344849,-0,0.389822,9692.26,-49724.3,0,50660.1,2.14724e+06
step02_gravity_refstate-mantle.xmf,1394,3.99313e-06,1.56852e-05,0,-8.31495e-06,-1.3879e+09,-1.38634e+09,-1.38844e+09,-1.11129e+06,-0.165724,0.243296,-0,0.294376,12937.4,-48999.7,0,50678.9,1.11129e+06
step02_gravity_refstate-mantle.xmf,1395,4.41288e-06,1.40482e-05,0,-6.59262e-06,-1.3884e+09,-1.38711e+09,-1.38899e+09,-881104,-0.161982,0.215753,-0,0.269792,13883.2,-49013.6,0,50941.9,881104
step02_gravity_refstate-mantle.xmf,1396,5.02888e-06,1.12347e-05,0,-3.62272e-06,-1.3894e+09,-1.38857e+09,-1.39007e+09,-484176,-0.152605,0.165299,-0,0.224971,15964.2,-49041.4,0,51574.3,484176
step02_gravity_refstate-mantle.xmf,1397,4.7524e-06,1.25875e-05,0,-5.03188e-06,-1.38931e+09,-1.38827e+09,-1.38995e+09,-672511,-0.157811,0.189648,-0,0.246719,14886.3,-49040.4,0,51250,672511
step02_gravity_refstate-mantle.xmf,1398,1.28398e-06,2.29781e-05,0,-1.38046e-05,-1.41099e+09,-1.40809e+09,-1.41116e+09,-1.84498e+06,-0.181168,0.310384,-0,0.359388,10575.8,-49713.4,0,50825.9,1.84498e+06
step02_gravity_refstate-mantle.xmf,1399,2.37246e-06,2.03165e-05,0,-1.17242e-05,-1.41023e+09,-1.40784e+09,-1.41055e+09,-1.56694e+06,-0.179376,0.280197,-0,0.332695,11426,-49690.5,0,50987.3,1.56694e+06
step02_gravity_refstate-mantle.xmf,1400,6.0302e-06,9.87253e-06,0,-1.91987e-06,-1.45105e+09,-1.45054e+09,-1.45186e+09,-256591,-0.163762,0.107494,-0,0.19589,18111.4,-50949.2,0,54072.6,256591
step02_gravity_refstate-mantle.xmf,1401,-1.93786e-05,5.12894e-05,0,-5.02746e-09,-1.74613e+09,-1.73668e+09,-1.74354e+09,-671.92,-0.148783,-4.83965e-19,-0,0.148783,5906.01,-60000,0,60290,671.92
step02_gravity_refstate-mantle.xmf,1402,-2.00758e-05,5.29146e-05,0,-7.31607e-06,-1.62999e+09,-1.62023e+09,-1.62731e+09,-977793,-0.14394,0.189044,-0,0.237605,5511.55,-56412.1,0,56680.7,977793
step02_gravity_refstate-mantle.xmf,1403,7.72305e-06,8.94167e-06,0,-4.01665e-07,-1.65787e+09,-1.6577e+09,-1.6589e+09,-53682.6,-0.186393,0.0243448,-0,0.187976,20600.4,-57346.6,0,60934.4,53682.6
step02_gravity_refstate-mantle.xmf,1404,7.74614e-06,9.28825e-06,0,6.00266e-09,-1.74373e+09,-1.74353e+09,-1.74477e+09,802.255,-0.189889,-1.2403e-18,-0,0.189889,20595.2,-60000,0,63436.3,802.255
step02_gravity_refstate-mantle.xmf,1405,-1.84889e-05,5.10009e-05,0,-9.25021e-06,-1.60404e+09,-1.59475e+09,-1.60157e+09,-1.23629e+06,-0.154196,0.22358,-0,0.271597,5972.53,-55616.2,0,55936,1.23629e+06
step02_gravity_refstate-mantle.xmf,1406,-1.66011e-05,4.88163e-05,0,-1.13227e-05,-1.57631e+09,-1.56757e+09,-1.57409e+09,-1.51328e+06,-0.163855,0.257307,-0,0.30505,6437.11,-54766.7,0,55143.7,1.51328e+06
step02_gravity_refstate-mantle.xmf,1407,-1.42637e-05,4.60571e-05,0,-1.33867e-05,-1.54729e+09,-1.53923e+09,-1.54539e+09,-1.78913e+06,-0.172939,0.287938,-0,0.335881,6936.03,-53878.9,0,54323.6,1.78913e+06
step02_gravity_refstate-mantle.xmf,1408,-1.17981e-05,4.30359e-05,0,-1.50396e-05,-1.52058e+09,-1.51325e+09,-1.519e+09,-2.01004e+06,-0.179862,0.311413,-0,0.359623,7407.37,-53062.5,0,53577,2.01004e+06
step02_gravity_refstate-mantle.xmf,1409,-9.13162e-06,3.96126e-05,0,-1.62707e-05,-1.49475e+09,-1.48824e+09,-1.49353e+09,-2.17458e+06,-0.184872,0.328819,-0,0.377227,7892.54,-52273.7,0,52866.2,2.17458e+06
step02_gravity_refstate-mantle.xmf,1410,-4.32358e-06,3.30638e-05,0,-1.75361e-05,-1.44614e+09,-1.44115e+09,-1.44557e+09,-2.3437e+06,-0.186523,0.354493,-0,0.40057,8673.71,-50787.6,0,51523,2.3437e+06
step02_gravity_refstate-mantle.xmf,1411,-6.58575e-06,3.62139e-05,0,-1.70878e-05,-1.46979e+09,-1.46407e+09,-1.46891e+09,-2.28379e+06,-0.187043,0.342809,-0,0.390517,8320.92,-51511,0,52178.7,2.28379e+06
step02_gravity_refstate-mantle.xmf,1412,3.30082e-06,1.77895e-05,0,-9.4744e-06,-1.41138e+09,-1.40944e+09,-1.41182e+09,-1.26625e+06,-0.176886,0.246113,-0,0.303084,12450,-49725.7,0,51260.6,1.26625e+06
step02_gravity_refstate-mantle.xmf,1413,5.34156e-06,1.11948e-05,0,-3.23225e-06,-1.42128e+09,-1.4205e+09,-1.422e+09,-431990,-0.162509,0.143167,-0,0.216578,16520.3,-50028.3,0,52685.4,431990
step02_gravity_refstate-mantle.xmf,1414,7.68779e-06,8.65337e-06,0,-5.5047e-07,-1.61509e+09,-1.61496e+09,-1.61612e+09,-73570.4,-0.181647,0.035799,-0,0.185141,20651.7,-56024.3,0,59709.4,73570.4
step02_gravity_refstate-mantle.xmf,1415,5.65846e-06,1.11187e-05,0,-2.83216e-06,-1.45289e+09,-1.45216e+09,-1.45365e+09,-378518,-0.170373,0.122466,-0,0.209821,17082.3,-51006.6,0,53791.1,378518
step02_gravity_refstate-mantle.xmf,1416,7.24387e-06,9.34672e-06,0,-9.01434e-07,-1.58377e+09,-1.58349e+09,-1.58474e+09,-120477,-0.183023,0.0491134,-0,0.189498,19881.8,-55055.6,0,58535.5,120477
step02_gravity_refstate-mantle.xmf,1417,6.83428e-06,9.81031e-06,0,-1.31313e-06,-1.54579e+09,-1.54539e+09,-1.54671e+09,-175500,-0.181126,0.0658639,-0,0.192729,19194.5,-53880.8,0,57197.7,175500
step02_gravity_refstate-mantle.xmf,1418,6.42249e-06,1.02723e-05,0,-1.78822e-06,-1.51053e+09,-1.51001e+09,-1.51139e+09,-238995,-0.178128,0.0842041,-0,0.197027,18476,-52789.9,0,55929.8,238995
step02_gravity_refstate-mantle.xmf,1419,6.00614e-06,1.07977e-05,0,-2.33509e-06,-1.48131e+09,-1.48067e+09,-1.48212e+09,-312085,-0.175169,0.103194,-0,0.203305,17725.5,-51886.1,0,54830.3,312085
step02_gravity_refstate-mantle.xmf,1420,-1.96734e-05,5.20651e-05,0,-5.52006e-06,-1.65818e+09,-1.64859e+09,-1.65555e+09,-737756,-0.146614,0.141127,-0,0.203501,5708.53,-57283.4,0,57567.1,737756
step02_gravity_refstate-mantle.xmf,1421,-1.74758e-05,4.86983e-05,0,-1.86805e-06,-1.71683e+09,-1.70799e+09,-1.7145e+09,-249664,-0.161829,0.0437552,-0,0.16764,6604.72,-59101.3,0,59469.2,249664
step02_gravity_refstate-mantle.xmf,1422,-1.84421e-05,5.01352e-05,0,-3.63814e-06,-1.6888e+09,-1.67963e+09,-1.68633e+09,-486237,-0.155281,0.0885794,-0,0.178769,6212.94,-58232.5,0,58563,486237
step02_gravity_refstate-mantle.xmf,1423,7.24033e-06,1.02342e-05,0,-3.02886e-07,-1.70221e+09,-1.70181e+09,-1.70318e+09,-40480.8,-0.19485,0.0132596,-0,0.195301,19823.6,-58716.3,0,61972.4,40480.8
step02_gravity_refstate-mantle.xmf,1424,-2.0426e-06,2.90054e-05,0,-1.59203e-05,-1.43976e+09,-1.43561e+09,-1.43949e+09,-2.12775e+06,-0.188057,0.329006,-0,0.37896,9484.31,-50595.3,0,51476.6,2.12775e+06
step02_gravity_refstate-mantle.xmf,1425,-2.48147e-07,2.57311e-05,0,-1.4514e-05,-1.43116e+09,-1.42769e+09,-1.43113e+09,-1.93979e+06,-0.186965,0.310472,-0,0.362421,10169.1,-50333.2,0,51350.2,1.93979e+06
step02_gravity_refstate-mantle.xmf,1426,3.92787e-06,1.5979e-05,0,-7.70214e-06,-1.41514e+09,-1.41353e+09,-1.41567e+09,-1.02939e+06,-0.174911,0.216939,-0,0.278669,13386.5,-49841.4,0,51607.8,1.02939e+06
step02_gravity_refstate-mantle.xmf,1427,4.46658e-06,1.43641e-05,0,-6.14198e-06,-1.41907e+09,-1.41774e+09,-1.41966e+09,-820876,-0.172449,0.190728,-0,0.25713,14329.8,-49962.2,0,51976.5,820876
step02_gravity_refstate-mantle.xmf,1428,4.95955e-06,1.27194e-05,0,-4.60575e-06,-1.42077e+09,-1.41973e+09,-1.42143e+09,-615559,-0.168054,0.165525,-0,0.235883,15405.2,-50013.8,0,52332.6,615559
step02_gravity_refstate-mantle.xmf,1429,5.21162e-07,2.38853e-05,0,-1.27843e-05,-1.43987e+09,-1.43675e+09,-1.43994e+09,-1.70863e+06,-0.189018,0.280083,-0,0.337897,10840.4,-50602.8,0,51750.9,1.70863e+06
step02_gravity_refstate-mantle.xmf,1430,2.21431e-06,2.02443e-05,0,-1.05042e-05,-1.43485e+09,-1.43244e+09,-1.43514e+09,-1.40388e+06,-0.186096,0.248018,-0,0.310072,11940.5,-50449.5,0,51843.3,1.40388e+06
step02_gravity_refstate-mantle.xmf,1431,-1.61638e-05,4.68688e-05,0,-1.1732e-08,-1.7458e+09,-1.73737e+09,-1.74364e+09,-1567.98,-0.170019,-4.52874e-19,-0,0.170019,7101,-60000,0,60418.7,1567.98
step02_gravity_refstate-mantle.xmf,1432,-1.76496e-05,4.95406e-05,0,-7.51126e-06,-1.63061e+09,-1.62163e+09,-1.62825e+09,-1.00388e+06,-0.1597,0.176553,-0,0.238065,6349.11,-56438.8,0,56794.8,1.00388e+06
step02_gravity_refstate-mantle.xmf,1433,6.92899e-06,1.04487e-05,0,-9.27171e-07,-1.62759e+09,-1.62712e+09,-1.62851e+09,-123916,-0.192752,0.0390591,-0,0.19667,19333.1,-56409.7,0,59630.8,123916
step02_gravity_refstate-mantle.xmf,1434,6.93298e-06,1.06946e-05,0,-6.32298e-07,-1.66824e+09,-1.66774e+09,-1.66917e+09,-84506.6,-0.196135,0.025499,-0,0.197785,19377.5,-57666.3,0,60834.9,84506.6
step02_gravity_refstate-mantle.xmf,1435,6.65375e-06,1.15475e-05,0,1.1399e-08,-1.74378e+09,-1.74313e+09,-1.74467e+09,1523.47,-0.200989,-1.74286e-18,-0,0.200989,19054.5,-60000,0,62952.9,1523.47
step02_gravity_refstate-mantle.xmf,1436,-1.57271e-05,4.71309e-05,0,-9.47795e-06,-1.6022e+09,-1.5938e+09,-1.6001e+09,-1.26673e+06,-0.169471,0.210711,-0,0.270406,6860.84,-55567.8,0,55989.8,1.26673e+06
step02_gravity_refstate-mantle.xmf,1437,-1.36056e-05,4.45513e-05,0,-1.13651e-05,-1.57364e+09,-1.56587e+09,-1.57182e+09,-1.51895e+06,-0.17777,0.241248,-0,0.299671,7351.4,-54693.3,0,55185.1,1.51895e+06
step02_gravity_refstate-mantle.xmf,1438,-1.12285e-05,4.15587e-05,0,-1.29088e-05,-1.54684e+09,-1.53979e+09,-1.54534e+09,-1.72526e+06,-0.184779,0.26452,-0,0.322667,7864.4,-53873.8,0,54444.7,1.72526e+06
step02_gravity_refstate-mantle.xmf,1439,-8.74689e-06,3.8338e-05,0,-1.41268e-05,-1.5203e+09,-1.51401e+09,-1.51913e+09,-1.88804e+06,-0.189655,0.283497,-0,0.341086,8360.64,-53062.3,0,53717,1.88804e+06
step02_gravity_refstate-mantle.xmf,1440,-6.27346e-06,3.50138e-05,0,-1.49993e-05,-1.49366e+09,-1.48814e+09,-1.49282e+09,-2.00466e+06,-0.191987,0.299352,-0,0.355628,8821.44,-52247.4,0,52986.8,2.00466e+06
step02_gravity_refstate-mantle.xmf,1441,-3.94085e-06,3.17501e-05,0,-1.55405e-05,-1.46679e+09,-1.46202e+09,-1.46627e+09,-2.07699e+06,-0.191504,0.313372,-0,0.367255,9222.28,-51424.7,0,52245.1,2.07699e+06
step02_gravity_refstate-mantle.xmf,1442,3.17175e-06,1.79072e-05,0,-8.71105e-06,-1.43318e+09,-1.43121e+09,-1.43361e+09,-1.16423e+06,-0.183137,0.222546,-0,0.288211,12843.5,-50398.6,0,52009.4,1.16423e+06
step02_gravity_refstate-mantle.xmf,1443,5.11439e-06,1.27444e-05,0,-4.06134e-06,-1.45342e+09,-1.4524e+09,-1.45411e+09,-542798,-0.176746,0.142147,-0,0.226815,15931.7,-51023.6,0,53453,542798
step02_gravity_refstate-mantle.xmf,1444,5.34371e-06,1.26162e-05,0,-3.46367e-06,-1.4854e+09,-1.48442e+09,-1.48611e+09,-462919,-0.183203,0.119655,-0,0.218816,16509,-52012.4,0,54569.6,462919
step02_gravity_refstate-mantle.xmf,1445,6.42909e-06,1.12145e-05,0,-1.52688e-06,-1.58606e+09,-1.58542e+09,-1.58692e+09,-204068,-0.192572,0.0583946,-0,0.201231,18535.9,-55125.5,0,58158.5,204068
step02_gravity_refstate-mantle.xmf,1446,5.99759e-06,1.18335e-05,0,-2.15184e-06,-1.55131e+09,-1.55053e+09,-1.55211e+09,-287593,-0.191045,0.0774842,-0,0.20616,17816.1,-54051,0,56911.5,287593
step02_gravity_refstate-mantle.xmf,1447,5.64887e-06,1.22698e-05,0,-2.80578e-06,-1.51692e+09,-1.51604e+09,-1.51768e+09,-374992,-0.18764,0.0982102,-0,0.211788,17150.2,-52987.5,0,55693.8,374992
step02_gravity_refstate-mantle.xmf,1448,-1.67313e-05,4.79695e-05,0,-5.66743e-06,-1.6586e+09,-1.64996e+09,-1.65637e+09,-757452,-0.165724,0.129445,-0,0.210286,6759.54,-57305.7,0,57703,757452
step02_gravity_refstate-mantle.xmf,1449,-1.42618e-05,4.42339e-05,0,-1.97039e-06,-1.71501e+09,-1.70719e+09,-1.7131e+09,-263343,-0.180368,0.0418255,-0,0.185154,7771.85,-59054.9,0,59564.1,263343
step02_gravity_refstate-mantle.xmf,1450,-1.55253e-05,4.60987e-05,0,-3.84048e-06,-1.6864e+09,-1.67817e+09,-1.68433e+09,-513281,-0.173154,0.0845902,-0,0.192712,7262.48,-58167.7,0,58619.3,513281
step02_gravity_refstate-mantle.xmf,1451,6.07123e-06,1.25538e-05,0,-5.62754e-07,-1.69648e+09,-1.69561e+09,-1.69729e+09,-75212.1,-0.20452,0.0185761,-0,0.205362,18334.4,-58537.4,0,61341.5,75212.1
step02_gravity_refstate-mantle.xmf,1452,-1.58531e-06,2.7542e-05,0,-1.37593e-05,-1.46198e+09,-1.45809e+09,-1.46177e+09,-1.83893e+06,-0.193414,0.284842,-0,0.344302,10179.6,-51281.1,0,52281.7,1.83893e+06
step02_gravity_refstate-mantle.xmf,1453,3.60398e-06,1.6821e-05,0,-7.36814e-06,-1.44867e+09,-1.4469e+09,-1.44915e+09,-984752,-0.185422,0.193969,-0,0.268338,13615.7,-50877,0,52667.4,984752
step02_gravity_refstate-mantle.xmf,1454,4.46176e-06,1.46289e-05,0,-5.55142e-06,-1.45222e+09,-1.45086e+09,-1.45281e+09,-741947,-0.181766,0.165096,-0,0.245552,14801.6,-50986.8,0,53091.8,741947
step02_gravity_refstate-mantle.xmf,1455,2.25473e-06,1.98719e-05,0,-9.24515e-06,-1.45775e+09,-1.45539e+09,-1.45805e+09,-1.23561e+06,-0.191312,0.217744,-0,0.28985,12497.8,-51156.2,0,52660.7,1.23561e+06
step02_gravity_refstate-mantle.xmf,1456,8.34958e-07,2.28687e-05,0,-1.11087e-05,-1.46072e+09,-1.45777e+09,-1.46083e+09,-1.48468e+06,-0.193594,0.244093,-0,0.311544,11501.4,-51246.2,0,52521,1.48468e+06
step02_gravity_refstate-mantle.xmf,1457,-1.28438e-05,4.22302e-05,0,-1.73257e-08,-1.74546e+09,-1.7381e+09,-1.74374e+09,-2315.59,-0.187561,-4.2146e-19,-0,0.187561,8310.4,-60000,0,60572.8,2315.59
step02_gravity_refstate-mantle.xmf,1458,-1.48353e-05,4.55852e-05,0,-7.57992e-06,-1.62967e+09,-1.6216e+09,-1.62769e+09,-1.01306e+06,-0.175163,0.164356,-0,0.240198,7299.34,-56418.5,0,56888.7,1.01306e+06
step02_gravity_refstate-mantle.xmf,1459,6.20276e-06,1.213e-05,0,-1.01145e-06,-1.65488e+09,-1.65409e+09,-1.65571e+09,-135181,-0.20125,0.0340836,-0,0.204116,18442.3,-57252.2,0,60149.3,135181
step02_gravity_refstate-mantle.xmf,1460,5.28685e-06,1.41615e-05,0,1.31225e-08,-1.74386e+09,-1.74268e+09,-1.74457e+09,1753.83,-0.20986,-1.9388e-18,-0,0.20986,17567.7,-60000,0,62519,1753.83
step02_gravity_refstate-mantle.xmf,1461,-1.27999e-05,4.29409e-05,0,-9.32086e-06,-1.60123e+09,-1.59378e+09,-1.59952e+09,-1.24573e+06,-0.183157,0.194666,-0,0.267286,7818.61,-55546.9,0,56094.5,1.24573e+06
step02_gravity_refstate-mantle.xmf,1462,-1.06353e-05,4.01715e-05,0,-1.08187e-05,-1.57404e+09,-1.56725e+09,-1.57262e+09,-1.44592e+06,-0.189564,0.219365,-0,0.289924,8325.52,-54714.4,0,55344.2,1.44592e+06
step02_gravity_refstate-mantle.xmf,1463,-8.3379e-06,3.71486e-05,0,-1.20182e-05,-1.54722e+09,-1.54114e+09,-1.54611e+09,-1.60624e+06,-0.194265,0.239435,-0,0.308331,8833.69,-53893.5,0,54612.7,1.60624e+06
step02_gravity_refstate-mantle.xmf,1464,-2.77728e-07,2.50897e-05,0,-1.23832e-05,-1.46174e+09,-1.45835e+09,-1.46171e+09,-1.65501e+06,-0.193992,0.263186,-0,0.326956,10853,-51276.1,0,52412.1,1.65501e+06
step02_gravity_refstate-mantle.xmf,1465,-5.95989e-06,3.39176e-05,0,-1.29177e-05,-1.5196e+09,-1.51427e+09,-1.5188e+09,-1.72645e+06,-0.19678,0.256438,-0,0.323238,9332.3,-53047.8,0,53862.4,1.72645e+06
step02_gravity_refstate-mantle.xmf,1466,-3.60625e-06,3.05826e-05,0,-1.34937e-05,-1.49077e+09,-1.4862e+09,-1.49029e+09,-1.80343e+06,-0.196575,0.271286,-0,0.335019,9799.96,-52164.6,0,53077.2,1.80343e+06
step02_gravity_refstate-mantle.xmf,1467,4.52794e-06,1.46199e-05,0,-4.76398e-06,-1.48602e+09,-1.48467e+09,-1.48662e+09,-636706,-0.18914,0.139196,-0,0.234839,15339.3,-52031.3,0,54245.3,636706
step02_gravity_refstate-mantle.xmf,1468,5.7792e-06,1.28151e-05,0,-1.6052e-06,-1.62186e+09,-1.62092e+09,-1.62264e+09,-214534,-0.201654,0.0503619,-0,0.207848,17831.3,-56231.3,0,58990.8,214534
step02_gravity_refstate-mantle.xmf,1469,4.70293e-06,1.44335e-05,0,-3.96103e-06,-1.51893e+09,-1.51763e+09,-1.51955e+09,-529392,-0.194514,0.114903,-0,0.225917,15909.1,-53048.5,0,55382.7,529392
step02_gravity_refstate-mantle.xmf,1470,5.3547e-06,1.34683e-05,0,-2.34204e-06,-1.58556e+09,-1.58448e+09,-1.58628e+09,-313014,-0.200533,0.0705538,-0,0.212582,17171,-55108.8,0,57722,313014
step02_gravity_refstate-mantle.xmf,1471,5.00191e-06,1.39941e-05,0,-3.12136e-06,-1.55185e+09,-1.55064e+09,-1.55251e+09,-417170,-0.19814,0.0917333,-0,0.218345,16542.7,-54066.3,0,56540.5,417170
step02_gravity_refstate-mantle.xmf,1472,-1.35832e-05,4.35626e-05,0,-5.76828e-06,-1.65588e+09,-1.64824e+09,-1.65406e+09,-770931,-0.182325,0.121316,-0,0.218998,7850.24,-57231.2,0,57767.1,770931
step02_gravity_refstate-mantle.xmf,1473,-1.10034e-05,3.96275e-05,0,-1.99501e-06,-1.71288e+09,-1.70611e+09,-1.71141e+09,-266633,-0.195406,0.0397136,-0,0.199401,8961.23,-58999.1,0,59675.8,266633
step02_gravity_refstate-mantle.xmf,1474,-1.23089e-05,4.1583e-05,0,-3.92289e-06,-1.68317e+09,-1.67596e+09,-1.68152e+09,-524294,-0.189131,0.08023,-0,0.205444,8407.01,-58077.7,0,58683,524294
step02_gravity_refstate-mantle.xmf,1475,5.15329e-06,1.41988e-05,0,-1.31791e-06,-1.66009e+09,-1.65888e+09,-1.66078e+09,-176138,-0.208087,0.0375413,-0,0.211447,17310.5,-57411.5,0,59964.5,176138
step02_gravity_refstate-mantle.xmf,1476,4.41598e-06,1.56575e-05,0,-7.86802e-07,-1.70146e+09,-1.69996e+09,-1.70205e+09,-105156,-0.213046,0.0206966,-0,0.214049,16745.9,-58688.3,0,61030.7,105156
step02_gravity_refstate-mantle.xmf,1477,-1.07239e-06,2.61213e-05,0,-1.17639e-05,-1.48444e+09,-1.4808e+09,-1.48429e+09,-1.57225e+06,-0.198223,0.244166,-0,0.314499,10890.4,-51974.4,0,53103.1,1.57225e+06
step02_gravity_refstate-mantle.xmf,1478,3.54221e-06,1.69124e-05,0,-6.30297e-06,-1.48487e+09,-1.48308e+09,-1.48534e+09,-842392,-0.193457,0.161952,-0,0.252297,14195.2,-51995.1,0,53898,842392
step02_gravity_refstate-mantle.xmf,1479,2.29704e-06,1.95699e-05,0,-7.97847e-06,-1.48523e+09,-1.48293e+09,-1.48554e+09,-1.06632e+06,-0.196818,0.18648,-0,0.271131,13073.3,-52004.9,0,53622.9,1.06632e+06
step02_gravity_refstate-mantle.xmf,1480,7.29682e-07,2.26861e-05,0,-9.7634e-06,-1.4868e+09,-1.48387e+09,-1.4869e+09,-1.30488e+06,-0.198822,0.212489,-0,0.291001,11978.5,-52050.8,0,53411.3,1.30488e+06
step02_gravity_refstate-mantle.xmf,1481,-9.54837e-06,3.75357e-05,0,-2.05809e-08,-1.74514e+09,-1.73884e+09,-1.74386e+09,-2750.64,-0.201318,-3.8735e-19,-0,0.201318,9538.96,-60000,0,60753.5,2750.64
step02_gravity_refstate-mantle.xmf,1482,-1.18125e-05,4.12596e-05,0,-7.46358e-06,-1.62711e+09,-1.62002e+09,-1.62553e+09,-997508,-0.188915,0.152722,-0,0.242926,8327.24,-56348.6,0,56960.6,997508
step02_gravity_refstate-mantle.xmf,1483,3.54075e-06,1.71813e-05,0,9.49443e-09,-1.74399e+09,-1.74217e+09,-1.74446e+09,1268.93,-0.216235,7.21442e-18,-0,0.216235,16130.3,-60000,0,62130.4,1268.93
step02_gravity_refstate-mantle.xmf,1484,-1.00012e-05,3.88532e-05,0,-8.84776e-06,-1.60103e+09,-1.5945e+09,-1.59969e+09,-1.1825e+06,-0.19412,0.177529,-0,0.263057,8780.12,-55548.8,0,56238.4,1.1825e+06
step02_gravity_refstate-mantle.xmf,1485,-7.90797e-06,3.60478e-05,0,-9.97841e-06,-1.57511e+09,-1.56924e+09,-1.57406e+09,-1.33361e+06,-0.198584,0.197402,-0,0.280005,9297.46,-54755.1,0,55538.9,1.33361e+06
step02_gravity_refstate-mantle.xmf,1486,-5.67598e-06,3.2973e-05,0,-1.08855e-05,-1.54753e+09,-1.54236e+09,-1.54677e+09,-1.45485e+06,-0.201237,0.214939,-0,0.29444,9825.99,-53910.1,0,54798.3,1.45485e+06
step02_gravity_refstate-mantle.xmf,1487,-3.40698e-06,2.97267e-05,0,-1.1478e-05,-1.51842e+09,-1.514e+09,-1.51797e+09,-1.53403e+06,-0.201468,0.229897,-0,0.305683,10350.4,-53017.9,0,54018.8,1.53403e+06
step02_gravity_refstate-mantle.xmf,1488,3.59983e-06,1.67808e-05,0,-5.25482e-06,-1.51882e+09,-1.51706e+09,-1.5193e+09,-702307,-0.199332,0.133883,-0,0.240121,14740.8,-53043.8,0,55053.9,702307
step02_gravity_refstate-mantle.xmf,1489,4.54324e-06,1.52086e-05,0,-2.25315e-06,-1.6222e+09,-1.62077e+09,-1.6228e+09,-301134,-0.208239,0.0596761,-0,0.216622,16561.1,-56239.5,0,58627.2,301134
step02_gravity_refstate-mantle.xmf,1490,3.77898e-06,1.64724e-05,0,-4.2376e-06,-1.55225e+09,-1.55055e+09,-1.55276e+09,-566356,-0.203648,0.107853,-0,0.230445,15302.7,-54077,0,56200.5,566356
step02_gravity_refstate-mantle.xmf,1491,4.09835e-06,1.59377e-05,0,-3.23089e-06,-1.58615e+09,-1.58457e+09,-1.5867e+09,-431809,-0.206582,0.0832577,-0,0.222728,15907.4,-55125,0,57374.3,431809
step02_gravity_refstate-mantle.xmf,1492,-1.01754e-05,3.86859e-05,0,-5.75498e-06,-1.6503e+09,-1.64377e+09,-1.64894e+09,-769153,-0.196603,0.114707,-0,0.227619,9045.86,-57069.2,0,57781.7,769153
step02_gravity_refstate-mantle.xmf,1493,-7.83094e-06,3.50443e-05,0,-1.9262e-06,-1.71082e+09,-1.70509e+09,-1.70978e+09,-257437,-0.206802,0.0370495,-0,0.210094,10171,-58945.1,0,59816.2,257437
step02_gravity_refstate-mantle.xmf,1494,-9.14485e-06,3.70457e-05,0,-3.90793e-06,-1.67871e+09,-1.67253e+09,-1.67748e+09,-522295,-0.201565,0.0764564,-0,0.215579,9563.75,-57949.4,0,58733.3,522295
step02_gravity_refstate-mantle.xmf,1495,1.52886e-06,2.05944e-05,0,3.19862e-09,-1.74414e+09,-1.74159e+09,-1.74435e+09,427.495,-0.219825,1.47895e-18,-0,0.219825,14737.8,-60000,0,61783.5,427.495
step02_gravity_refstate-mantle.xmf,1496,2.26209e-06,1.94031e-05,0,-1.11178e-06,-1.70193e+09,-1.69963e+09,-1.70223e+09,-148590,-0.218438,0.0253826,-0,0.219907,15141.4,-58697.8,0,60619.2,148590
step02_gravity_refstate-mantle.xmf,1497,3.58776e-06,1.70697e-05,0,-1.83619e-06,-1.66065e+09,-1.65885e+09,-1.66113e+09,-245407,-0.214096,0.0448389,-0,0.218741,15943,-57425.7,0,59597.8,245407
step02_gravity_refstate-mantle.xmf,1498,-7.86751e-07,2.43828e-05,0,2.56059e-08,-1.74433e+09,-1.74097e+09,-1.74422e+09,3422.23,-0.220372,-2.79685e-18,-0,0.220372,13386.3,-60000,0,61475.1,3422.23
step02_gravity_refstate-mantle.xmf,1499,3.7598e-07,2.25143e-05,0,-8.11635e-07,-1.71898e+09,-1.71602e+09,-1.71903e+09,-108475,-0.220324,0.0176016,-0,0.221026,14006.8,-59220,0,60853.9,108475
step02_gravity_refstate-mantle.xmf,1500,-1.20297e-06,2.58589e-05,0,-9.9161e-06,-1.51737e+09,-1.51376e+09,-1.51721e+09,-1.32529e+06,-0.203785,0.203919,-0,0.28829,11411.4,-52990.3,0,54205.1,1.32529e+06
step02_gravity_refstate-mantle.xmf,1501,2.25537e-06,1.94731e-05,0,-6.72203e-06,-1.51834e+09,-1.51604e+09,-1.51864e+09,-898399,-0.202575,0.155191,-0,0.255188,13600.3,-53027,0,54743.3,898399
step02_gravity_refstate-mantle.xmf,1502,6.67802e-07,2.24824e-05,0,-8.28293e-06,-1.51792e+09,-1.51501e+09,-1.51801e+09,-1.10701e+06,-0.204134,0.178521,-0,0.271183,12491.2,-53011.1,0,54462.9,1.10701e+06
step02_gravity_refstate-mantle.xmf,1503,-6.45124e-06,3.29242e-05,0,-2.86464e-09,-1.74485e+09,-1.73959e+09,-1.74399e+09,-382.859,-0.211297,1.74486e-18,-0,0.211297,10791.4,-60000,0,60962.7,382.859
step02_gravity_refstate-mantle.xmf,1504,-9.3948e-06,3.76996e-05,0,-7.20263e-06,-1.62453e+09,-1.61823e+09,-1.62327e+09,-962632,-0.198001,0.143252,-0,0.244388,9182.58,-56275.8,0,57020,962632
step02_gravity_refstate-mantle.xmf,1505,-2.03006e-06,2.62284e-05,0,-1.47003e-06,-1.70807e+09,-1.70429e+09,-1.7078e+09,-196469,-0.21912,0.0295921,-0,0.221109,12729.3,-58876.4,0,60236.7,196469
step02_gravity_refstate-mantle.xmf,1506,-3.50777e-06,2.85094e-05,0,-1.61006e-09,-1.74458e+09,-1.7403e+09,-1.74411e+09,-215.185,-0.217594,1.50889e-18,-0,0.217594,12072.3,-60000,0,61202.5,215.185
step02_gravity_refstate-mantle.xmf,1507,-4.84237e-06,3.05081e-05,0,-1.73579e-06,-1.70915e+09,-1.70442e+09,-1.7085e+09,-231989,-0.21475,0.0336197,-0,0.217366,11433,-58901.7,0,60001,231989
step02_gravity_refstate-mantle.xmf,1508,-7.49898e-06,3.5086e-05,0,-8.00978e-06,-1.60413e+09,-1.59844e+09,-1.60313e+09,-1.07051e+06,-0.202448,0.157483,-0,0.256488,9729.32,-55651.7,0,56495.8,1.07051e+06
step02_gravity_refstate-mantle.xmf,1509,-5.37021e-06,3.2105e-05,0,-8.92876e-06,-1.57674e+09,-1.57173e+09,-1.57602e+09,-1.19333e+06,-0.205297,0.175444,-0,0.270051,10299.5,-54812.2,0,55771.5,1.19333e+06
step02_gravity_refstate-mantle.xmf,1510,-3.25712e-06,2.90549e-05,0,-9.5853e-06,-1.54792e+09,-1.5436e+09,-1.54748e+09,-1.28107e+06,-0.20586,0.191075,-0,0.28087,10851.9,-53928.4,0,55009.4,1.28107e+06
step02_gravity_refstate-mantle.xmf,1511,2.38449e-06,1.91468e-05,0,-5.47023e-06,-1.55125e+09,-1.54901e+09,-1.55157e+09,-731096,-0.207064,0.125991,-0,0.242383,14136.1,-54043.5,0,55861.7,731096
step02_gravity_refstate-mantle.xmf,1512,3.01913e-06,1.79787e-05,0,-3.03389e-06,-1.62152e+09,-1.61952e+09,-1.62192e+09,-405479,-0.212976,0.0710361,-0,0.22451,15287.2,-56215.3,0,58256.9,405479
step02_gravity_refstate-mantle.xmf,1513,2.62781e-06,1.86647e-05,0,-4.24521e-06,-1.58527e+09,-1.58313e+09,-1.58562e+09,-567372,-0.210536,0.0981006,-0,0.23227,14692.8,-55094.9,0,57020.4,567372
step02_gravity_refstate-mantle.xmf,1514,-7.36054e-06,3.46022e-05,0,-5.88821e-06,-1.6399e+09,-1.63429e+09,-1.63891e+09,-786959,-0.205382,0.11438,-0,0.235084,10050.2,-56756.2,0,57639.2,786959
step02_gravity_refstate-mantle.xmf,1515,-6.06862e-06,3.25241e-05,0,-3.68327e-06,-1.6749e+09,-1.66974e+09,-1.67409e+09,-492268,-0.210688,0.0708918,-0,0.222295,10765.3,-57840.9,0,58834.2,492268
step02_gravity_refstate-mantle.xmf,1516,9.95579e-08,2.29303e-05,0,-2.01252e-06,-1.68623e+09,-1.68318e+09,-1.68625e+09,-268973,-0.21955,0.0414607,-0,0.22343,13769.5,-58207.6,0,59814,268973
step02_gravity_refstate-mantle.xmf,1517,1.74248e-06,2.02515e-05,0,-2.54269e-06,-1.65678e+09,-1.65431e+09,-1.65701e+09,-339831,-0.217373,0.0558043,-0,0.224422,14611.8,-57302,0,59135.6,339831
step02_gravity_refstate-mantle.xmf,1518,-1.17154e-06,2.54621e-05,0,-8.21301e-06,-1.54902e+09,-1.54546e+09,-1.54887e+09,-1.09767e+06,-0.208299,0.167882,-0,0.267531,11906.7,-53967.1,0,55265,1.09767e+06
step02_gravity_refstate-mantle.xmf,1519,7.15395e-07,2.21674e-05,0,-6.81899e-06,-1.55019e+09,-1.54733e+09,-1.55029e+09,-911358,-0.208671,0.146074,-0,0.254718,13001.1,-54007.5,0,55550.3,911358
step02_gravity_refstate-mantle.xmf,1520,-1.38785e-06,2.5279e-05,0,-2.55881e-06,-1.67947e+09,-1.6759e+09,-1.67928e+09,-341985,-0.218788,0.0512547,-0,0.224711,12945.8,-57994.7,0,59422,341985
step02_gravity_refstate-mantle.xmf,1521,-3.07643e-06,2.79686e-05,0,-3.28631e-06,-1.67163e+09,-1.66749e+09,-1.67122e+09,-439216,-0.216601,0.063736,-0,0.225783,12074.2,-57748.3,0,58997.1,439216
step02_gravity_refstate-mantle.xmf,1522,-4.97955e-06,3.12069e-05,0,-7.0123e-06,-1.60748e+09,-1.60264e+09,-1.60681e+09,-937194,-0.209059,0.137184,-0,0.25005,10772.5,-55762,0,56793.1,937194
step02_gravity_refstate-mantle.xmf,1523,-3.04069e-06,2.838e-05,0,-7.76101e-06,-1.57869e+09,-1.57449e+09,-1.57829e+09,-1.03726e+06,-0.209787,0.154144,-0,0.260328,11337.1,-54878.6,0,56037.4,1.03726e+06
step02_gravity_refstate-mantle.xmf,1524,9.35627e-07,2.16738e-05,0,-5.41239e-06,-1.58252e+09,-1.57975e+09,-1.58265e+09,-723367,-0.212299,0.115878,-0,0.241865,13510.2,-55006.4,0,56641.2,723367
step02_gravity_refstate-mantle.xmf,1525,1.23181e-06,2.10681e-05,0,-3.95309e-06,-1.61917e+09,-1.61652e+09,-1.61934e+09,-528330,-0.215396,0.084949,-0,0.231542,14040.9,-56138.9,0,57868.2,528330
step02_gravity_refstate-mantle.xmf,1526,-4.43762e-06,3.01707e-05,0,-5.11941e-06,-1.64036e+09,-1.63573e+09,-1.63976e+09,-684209,-0.212575,0.0994379,-0,0.234682,11265.8,-56778.7,0,57885.5,684209
step02_gravity_refstate-mantle.xmf,1527,-6.15928e-07,2.41126e-05,0,-3.44547e-06,-1.65193e+09,-1.64863e+09,-1.65185e+09,-460487,-0.217898,0.0702362,-0,0.228938,13210.3,-57146.4,0,58653.4,460487
step02_gravity_refstate-mantle.xmf,1528,-1.00731e-06,2.4946e-05,0,-6.58372e-06,-1.58102e+09,-1.57755e+09,-1.58088e+09,-879915,-0.212112,0.134124,-0,0.250959,12395.3,-54955.3,0,56335.8,879915
step02_gravity_refstate-mantle.xmf,1529,-2.73064e-06,2.76565e-05,0,-6.03846e-06,-1.60996e+09,-1.6059e+09,-1.60959e+09,-807040,-0.213166,0.119663,-0,0.244457,11803.2,-55844.7,0,57078.4,807040
step02_gravity_refstate-mantle.xmf,1530,-7.16456e-07,2.434e-05,0,-5.0344e-06,-1.61378e+09,-1.61043e+09,-1.61369e+09,-672847,-0.215256,0.102462,-0,0.238398,12862.9,-55967.8,0,57426.9,672847
step02_gravity_refstate-mantle.xmf,1531,-2.33935e-06,2.68485e-05,0,-4.58772e-06,-1.63768e+09,-1.63378e+09,-1.63737e+09,-613149,-0.215758,0.0909339,-0,0.234138,12237.8,-56701.6,0,58007.2,613149
step02_gravity_refstate-intrusion.xmf,0,2.58926e-05,-3.10391e-05,0,7.45776e-05,-1.09711e+09,-1.10103e+09,-1.09889e+09,5.14385e+06,-0.152253,1.05787,-0,1.06877,-4000,-40000,-0,40199.5,5.14385e+06
step02_gravity_refstate-intrusion.xmf,1,4.21757e-06,-9.62463e-06,0,9.61818e-05,-1.11487e+09,-1.11582e+09,-1.11516e+09,6.63396e+06,-0.125041,1.06353,-0,1.07085,-4000,-40502.2,-0,40699.2,6.63396e+06
step02_gravity_refstate-intrusion.xmf,2,2.06838e-06,-1.7669e-06,0,0.00010692,-1.13098e+09,-1.13125e+09,-1.13113e+09,7.37463e+06,-0.0962546,1.06638,-0,1.07071,-4000,-41001.3,-0,41196,7.37463e+06
step02_gravity_refstate-intrusion.xmf,3,1.57847e-06,6.81209e-06,0,0.00011364,-1.14694e+09,-1.14658e+09,-1.14705e+09,7.83809e+06,-0.0671917,1.06512,-0,1.06724,-4000,-41501.5,-0,41693.8,7.83809e+06
step02_gravity_refstate-intrusion.xmf,4,1.69605e-06,1.57981e-05,0,0.000117637,-1.16278e+09,-1.16181e+09,-1.1629e+09,8.11378e+06,-0.0384619,1.05949,-0,1.06019,-4000,-42000.5,-0,42190.6,8.11378e+06
step02_gravity_refstate-intrusion.xmf,5,2.05419e-06,2.49917e-05,0,0.000119437,-1.17863e+09,-1.17705e+09,-1.17877e+09,8.23792e+06,-0.0103353,1.0493,-0,1.04935,-4000,-42500.6,-0,42688.4,8.23792e+06
step02_gravity_refstate-intrusion.xmf,6,2.62358e-06,3.42024e-05,0,0.000119291,-1.19443e+09,-1.19225e+09,-1.19461e+09,8.2279e+06,0.0166806,1.03452,0,1.03466,-4000,-43000,-0,43185.6,8.2279e+06
step02_gravity_refstate-intrusion.xmf,7,3.11365e-06,4.34297e-05,0,0.000117176,-1.21024e+09,-1.20746e+09,-1.21046e+09,8.082e+06,0.0421494,1.01515,0,1.01602,-4000,-43499.4,-0,43682.9,8.082e+06
step02_gravity_refstate-intrusion.xmf,8,3.89685e-06,5.22389e-05,0,0.000113502,-1.22606e+09,-1.22272e+09,-1.22632e+09,7.82856e+06,0.0655248,0.991201,0,0.993364,-4000,-43999.5,-0,44180.9,7.82856e+06
step02_gravity_refstate-intrusion.xmf,9,4.87778e-06,6.10656e-05,0,0.000108312,-1.24182e+09,-1.23794e+09,-1.24215e+09,7.47059e+06,0.0859877,0.962891,0,0.966723,-4000,-44498.5,-0,44677.9,7.47059e+06
step02_gravity_refstate-intrusion.xmf,10,5.23515e-06,6.90527e-05,0,0.000100226,-1.25771e+09,-1.2533e+09,-1.25807e+09,6.91291e+06,0.102527,0.930356,0,0.935988,-4000,-44998.7,-0,45176.1,6.91291e+06
step02_gravity_refstate-intrusion.xmf,11,3.46254e-06,7.60889e-05,0,8.79699e-05,-1.27381e+09,-1.2688e+09,-1.27405e+09,6.06756e+06,0.113379,0.894026,0,0.901187,-4000,-45497.8,-0,45673.3,6.06756e+06
step02_gravity_refstate-intrusion.xmf,12,-2.63395e-05,0.000104315,0,6.34896e-05,-1.29218e+09,-1.28317e+09,-1.29036e+09,4.37907e+06,0.114019,0.855707,0,0.86327,-4000,-46000,-0,46173.6,4.37907e+06
step02_gravity_refstate-intrusion.xmf,13,-2.5534e-05,0.000150402,0,7.1205e-05,-1.29056e+09,-1.27842e+09,-1.2888e+09,4.91123e+06,0.100782,0.906861,0,0.912444,-3497.18,-46000,-0,46132.7,4.91123e+06
step02_gravity_refstate-intrusion.xmf,14,-2.70336e-05,0.000173758,0,6.22903e-05,-1.28993e+09,-1.27609e+09,-1.28807e+09,4.29636e+06,0.0875808,0.956069,0,0.960072,-2997.53,-46000,-0,46097.6,4.29636e+06
step02_gravity_refstate-intrusion.xmf,15,-2.82623e-05,0.000189226,0,5.16222e-05,-1.28954e+09,-1.27454e+09,-1.2876e+09,3.56054e+06,0.0737398,0.998447,0,1.00117,-2497.35,-46000,-0,46067.7,3.56054e+06
step02_gravity_refstate-intrusion.xmf,16,-2.90558e-05,0.000199962,0,4.08184e-05,-1.28927e+09,-1.27347e+09,-1.28726e+09,2.81537e+06,0.059406,1.0332,0,1.0349,-1997.54,-46000,-0,46043.4,2.81537e+06
step02_gravity_refstate-intrusion.xmf,17,-2.95526e-05,0.000207327,0,3.02601e-05,-1.28907e+09,-1.27274e+09,-1.28704e+09,2.08713e+06,0.0447637,1.06015,0,1.0611,-1498.34,-46000,-0,46024.4,2.08713e+06
step02_gravity_refstate-intrusion.xmf,18,1.28244e-05,-1.28432e-05,0,-7.71456e-05,-1.09784e+09,-1.09961e+09,-1.09872e+09,-5.32098e+06,0.152219,1.05789,0,1.06879,4000,-40000,0,40199.5,5.32098e+06
step02_gravity_refstate-intrusion.xmf,19,4.14726e-06,-9.58141e-06,0,-9.62601e-05,-1.11487e+09,-1.11582e+09,-1.11516e+09,-6.63936e+06,0.125041,1.06353,0,1.07085,4000,-40502.2,0,40699.2,6.63936e+06
step02_gravity_refstate-intrusion.xmf,20,-2.98471e-05,0.000212153,0,1.99312e-05,-1.28894e+09,-1.27225e+09,-1.28688e+09,1.37471e+06,0.0299471,1.07935,0,1.07976,-999.46,-46000,-0,46010.9,1.37471e+06
step02_gravity_refstate-intrusion.xmf,21,-2.99876e-05,0.000214886,0,9.81838e-06,-1.28887e+09,-1.27198e+09,-1.2868e+09,677204,0.0150056,1.09086,0,1.09096,-500.036,-46000,-0,46002.7,677204
step02_gravity_refstate-intrusion.xmf,22,2.01007e-06,-1.76153e-06,0,-0.000106934,-1.13099e+09,-1.13125e+09,-1.13113e+09,-7.37559e+06,0.0962516,1.06638,0,1.07071,4000,-41001.3,0,41196,7.37559e+06
step02_gravity_refstate-intrusion.xmf,23,-3.0055e-05,0.000215791,0,-2.15193e-07,-1.28884e+09,-1.27189e+09,-1.28677e+09,-14842.6,3.82997e-06,1.09469,0,1.09469,4.01542e-10,-46000,0,46000,14842.6
step02_gravity_refstate-intrusion.xmf,24,1.60546e-06,6.77238e-06,0,-0.000113567,-1.14694e+09,-1.14658e+09,-1.14705e+09,-7.83304e+06,0.0671915,1.06512,0,1.06724,4000,-41501.5,0,41693.8,7.83304e+06
step02_gravity_refstate-intrusion.xmf,25,1.69924e-06,1.58251e-05,0,-0.000117639,-1.16278e+09,-1.16181e+09,-1.1629e+09,-8.11391e+06,0.038466,1.05949,0,1.06019,4000,-42000.5,0,42190.6,8.11391e+06
step02_gravity_refstate-intrusion.xmf,26,-2.99952e-05,0.000214878,0,-1.02049e-05,-1.28887e+09,-1.27198e+09,-1.2868e+09,-703866,-0.0150073,1.09086,-0,1.09096,500.036,-46000,0,46002.7,703866
step02_gravity_refstate-intrusion.xmf,27,-2.9828e-05,0.000211982,0,-2.01916e-05,-1.28895e+09,-1.27227e+09,-1.28689e+09,-1.39268e+06,-0.0299497,1.07935,-0,1.07977,999.46,-46000,0,46010.9,1.39268e+06
step02_gravity_refstate-intrusion.xmf,28,2.05047e-06,2.49581e-05,0,-0.000119358,-1.17863e+09,-1.17705e+09,-1.17877e+09,-8.23251e+06,0.0103357,1.0493,0,1.04935,4000,-42500.6,0,42688.4,8.23251e+06
step02_gravity_refstate-intrusion.xmf,29,-2.96101e-05,0.000207431,0,-3.08191e-05,-1.28908e+09,-1.27273e+09,-1.28703e+09,-2.12569e+06,-0.0447626,1.06016,-0,1.0611,1498.34,-46000,0,46024.4,2.12569e+06
step02_gravity_refstate-intrusion.xmf,30,2.70491e-06,3.42221e-05,0,-0.000119332,-1.19442e+09,-1.19225e+09,-1.19461e+09,-8.23072e+06,-0.0166775,1.03452,-0,1.03465,4000,-43000,0,43185.6,8.23072e+06
step02_gravity_refstate-intrusion.xmf,31,3.35701e-06,4.33587e-05,0,-0.000117383,-1.21022e+09,-1.20746e+09,-1.21045e+09,-8.0963e+06,-0.0421486,1.01515,-0,1.01602,4000,-43499.4,0,43682.9,8.0963e+06
step02_gravity_refstate-intrusion.xmf,32,-2.91265e-05,0.000200106,0,-4.14844e-05,-1.28927e+09,-1.27346e+09,-1.28726e+09,-2.86131e+06,-0.0594021,1.0332,-0,1.03491,1997.54,-46000,0,46043.4,2.86131e+06
step02_gravity_refstate-intrusion.xmf,33,4.18984e-06,5.22562e-05,0,-0.000113646,-1.22603e+09,-1.22271e+09,-1.22631e+09,-7.83852e+06,-0.0655274,0.991199,-0,0.993362,4000,-43999.5,0,44180.9,7.83852e+06
step02_gravity_refstate-intrusion.xmf,34,-2.83933e-05,0.000189725,0,-5.25996e-05,-1.28954e+09,-1.2745e+09,-1.28758e+09,-3.62796e+06,-0.0737352,0.998455,-0,1.00117,2497.35,-46000,0,46067.7,3.62796e+06
step02_gravity_refstate-intrusion.xmf,35,5.02102e-06,6.09818e-05,0,-0.000108139,-1.2418e+09,-1.23794e+09,-1.24215e+09,-7.45866e+06,-0.0859941,0.96288,-0,0.966712,4000,-44498.5,0,44677.9,7.45866e+06
step02_gravity_refstate-intrusion.xmf,36,-2.73445e-05,0.000174947,0,-6.38248e-05,-1.28993e+09,-1.27597e+09,-1.28804e+09,-4.40219e+06,-0.0875784,0.956072,-0,0.960075,2997.53,-46000,0,46097.6,4.40219e+06
step02_gravity_refstate-intrusion.xmf,37,5.49847e-06,6.90825e-05,0,-0.000100135,-1.25768e+09,-1.25329e+09,-1.25806e+09,-6.90661e+06,-0.10252,0.93036,-0,0.935991,4000,-44998.7,0,45176.1,6.90661e+06
step02_gravity_refstate-intrusion.xmf,38,-2.6362e-05,0.000154068,0,-7.53892e-05,-1.29052e+09,-1.27808e+09,-1.2887e+09,-5.19983e+06,-0.100772,0.90687,-0,0.912452,3497.18,-46000,0,46132.7,5.19983e+06
step02_gravity_refstate-intrusion.xmf,39,3.59829e-06,7.60386e-05,0,-8.7951e-05,-1.2738e+09,-1.2688e+09,-1.27405e+09,-6.06625e+06,-0.113377,0.894021,-0,0.901182,4000,-45497.8,0,45673.3,6.06625e+06
step02_gravity_refstate-intrusion.xmf,40,-6.70554e-06,7.65454e-05,0,-6.75625e-05,-1.29109e+09,-1.28535e+09,-1.29063e+09,-4.66e+06,-0.114018,0.855707,-0,0.863269,4000,-46000,0,46173.6,4.66e+06
step02_gravity_refstate-intrusion.xmf,41,3.07529e-05,-6.57112e-05,0,6.94316e-05,-1.09776e+09,-1.10442e+09,-1.09988e+09,4.78892e+06,-0.13776,1.14692,-0,1.15517,-3497.18,-40000,-0,40152.6,4.78892e+06
step02_gravity_refstate-intrusion.xmf,42,3.55392e-05,-8.35685e-05,0,5.78973e-05,-1.09787e+09,-1.10608e+09,-1.10032e+09,3.99336e+06,-0.121135,1.22341,-0,1.22939,-2997.53,-40000,-0,40112.2,3.99336e+06
step02_gravity_refstate-intrusion.xmf,43,3.8528e-05,-9.48662e-05,0,4.66799e-05,-1.09794e+09,-1.10714e+09,-1.1006e+09,3.21966e+06,-0.102587,1.28702,-0,1.29111,-2497.35,-40000,-0,40077.9,3.21966e+06
step02_gravity_refstate-intrusion.xmf,44,4.02722e-05,-0.000102301,0,3.61899e-05,-1.09801e+09,-1.10784e+09,-1.10079e+09,2.49613e+06,-0.0828815,1.33807,-0,1.34063,-1997.54,-40000,-0,40049.8,2.49613e+06
step02_gravity_refstate-intrusion.xmf,45,4.12329e-05,-0.000107166,0,2.64179e-05,-1.09807e+09,-1.10831e+09,-1.10092e+09,1.82213e+06,-0.062536,1.37707,-0,1.37849,-1498.34,-40000,-0,40028.1,1.82213e+06
step02_gravity_refstate-intrusion.xmf,46,4.20505e-05,-0.000110053,0,1.74537e-05,-1.09809e+09,-1.10858e+09,-1.10099e+09,1.20383e+06,-0.0418493,1.40455,-0,1.40518,-999.46,-40000,-0,40012.5,1.20383e+06
step02_gravity_refstate-intrusion.xmf,47,4.21465e-05,-0.000111694,0,8.64022e-06,-1.09813e+09,-1.10874e+09,-1.10104e+09,595943,-0.0209702,1.42092,-0,1.42108,-500.036,-40000,-0,40003.1,595943
step02_gravity_refstate-intrusion.xmf,48,4.198e-05,-0.000112229,0,-8.39258e-08,-1.09816e+09,-1.1088e+09,-1.10106e+09,-5788.62,-1.22967e-06,1.42636,-0,1.42636,-4.01542e-10,-40000,-0,40000,5788.62
step02_gravity_refstate-intrusion.xmf,49,4.22099e-05,-0.00011174,0,-8.61215e-06,-1.09813e+09,-1.10874e+09,-1.10104e+09,-594007,0.0209718,1.42092,0,1.42108,500.036,-40000,0,40003.1,594007
step02_gravity_refstate-intrusion.xmf,50,4.17139e-05,-0.000110028,0,-1.74639e-05,-1.09812e+09,-1.10858e+09,-1.101e+09,-1.20454e+06,0.0418488,1.40455,0,1.40518,999.46,-40000,0,40012.5,1.20454e+06
step02_gravity_refstate-intrusion.xmf,51,4.12407e-05,-0.000106958,0,-2.66279e-05,-1.09806e+09,-1.10829e+09,-1.10091e+09,-1.83661e+06,0.0625359,1.37707,0,1.37849,1498.34,-40000,0,40028.1,1.83661e+06
step02_gravity_refstate-intrusion.xmf,52,4.03033e-05,-0.000102052,0,-3.64533e-05,-1.098e+09,-1.10782e+09,-1.10078e+09,-2.5143e+06,0.0828795,1.33807,0,1.34063,1997.54,-40000,0,40049.8,2.5143e+06
step02_gravity_refstate-intrusion.xmf,53,3.85718e-05,-9.46299e-05,0,-4.6984e-05,-1.09793e+09,-1.10711e+09,-1.10059e+09,-3.24063e+06,0.102589,1.28702,0,1.2911,2497.35,-40000,0,40077.9,3.24063e+06
step02_gravity_refstate-intrusion.xmf,54,3.57424e-05,-8.36199e-05,0,-5.85099e-05,-1.09785e+09,-1.10608e+09,-1.10032e+09,-4.03561e+06,0.121135,1.2234,0,1.22939,2997.53,-40000,0,40112.2,4.03561e+06
step02_gravity_refstate-intrusion.xmf,55,3.19405e-05,-6.7132e-05,0,-7.10009e-05,-1.09769e+09,-1.10452e+09,-1.09989e+09,-4.89716e+06,0.137789,1.14691,0,1.15516,3497.18,-40000,0,40152.6,4.89716e+06
step02_gravity_refstate-intrusion.xmf,56,2.05451e-05,-3.81609e-05,0,7.41856e-05,-1.10968e+09,-1.11373e+09,-1.11109e+09,5.11681e+06,-0.127803,1.14085,-0,1.14799,-3635.73,-40364.1,-0,40527.5,5.11681e+06
step02_gravity_refstate-intrusion.xmf,57,1.44452e-05,-2.44443e-05,0,7.91522e-05,-1.12218e+09,-1.12487e+09,-1.12318e+09,5.45937e+06,-0.107721,1.16064,-0,1.16563,-3597.3,-40745.3,-0,40903.8,5.45937e+06
step02_gravity_refstate-intrusion.xmf,58,2.80618e-05,-5.43483e-05,0,6.35294e-05,-1.11109e+09,-1.11677e+09,-1.11302e+09,4.38182e+06,-0.116282,1.21221,-0,1.21777,-3256.67,-40414.8,-0,40545.8,4.38182e+06
step02_gravity_refstate-intrusion.xmf,59,9.1613e-06,-9.20224e-06,0,8.6227e-05,-1.13795e+09,-1.13922e+09,-1.13858e+09,5.94735e+06,-0.0807468,1.17123,-0,1.17401,-3586.47,-41231.3,-0,41387,5.94735e+06
step02_gravity_refstate-intrusion.xmf,60,3.29773e-05,-6.83713e-05,0,5.13637e-05,-1.11164e+09,-1.11863e+09,-1.11391e+09,3.54271e+06,-0.100008,1.29094,-0,1.29481,-2747.44,-40432.9,-0,40526.1,3.54271e+06
step02_gravity_refstate-intrusion.xmf,61,2.12675e-05,-3.51952e-05,0,6.29869e-05,-1.12838e+09,-1.13228e+09,-1.12985e+09,4.34441e+06,-0.0886151,1.26139,-0,1.2645,-3107.39,-40947.3,-0,41065,4.34441e+06
step02_gravity_refstate-intrusion.xmf,62,5.83053e-06,4.78346e-06,0,9.15048e-05,-1.15406e+09,-1.15413e+09,-1.15446e+09,6.31137e+06,-0.0523882,1.17234,-0,1.17351,-3586.5,-41732.7,-0,41886.5,6.31137e+06
step02_gravity_refstate-intrusion.xmf,63,1.19873e-05,-1.05223e-05,0,7.24179e-05,-1.14504e+09,-1.14659e+09,-1.14587e+09,4.99489e+06,-0.0645586,1.24783,-0,1.2495,-3239.22,-41457.9,-0,41584.3,4.99489e+06
step02_gravity_refstate-intrusion.xmf,64,3.52974e-05,-7.67666e-05,0,4.04281e-05,-1.11195e+09,-1.11968e+09,-1.11439e+09,2.78845e+06,-0.0827068,1.35261,-0,1.35514,-2248.57,-40441.3,-0,40503.8,2.78845e+06
step02_gravity_refstate-intrusion.xmf,65,2.73324e-05,-4.86375e-05,0,4.65846e-05,-1.12718e+09,-1.13242e+09,-1.12906e+09,3.21309e+06,-0.0759369,1.34857,-0,1.3507,-2528.14,-40915.3,-0,40993.4,3.21309e+06
step02_gravity_refstate-intrusion.xmf,66,1.70578e-05,-1.98699e-05,0,5.61131e-05,-1.14392e+09,-1.14646e+09,-1.14509e+09,3.8703e+06,-0.0596705,1.32558,-0,1.32693,-2802.91,-41429.6,-0,41524.3,3.8703e+06
step02_gravity_refstate-intrusion.xmf,67,3.64267e-05,-8.21542e-05,0,2.98893e-05,-1.11224e+09,-1.12042e+09,-1.11475e+09,2.06156e+06,-0.0638132,1.40256,-0,1.40402,-1726.51,-40448.2,-0,40485,2.06156e+06
step02_gravity_refstate-intrusion.xmf,68,7.73416e-06,6.09324e-06,0,7.15612e-05,-1.16083e+09,-1.16095e+09,-1.16137e+09,4.9358e+06,-0.0372611,1.27176,-0,1.27231,-3123.61,-41949.4,-0,42065.6,4.9358e+06
step02_gravity_refstate-intrusion.xmf,69,3.45681e-06,1.82125e-05,0,9.48853e-05,-1.16992e+09,-1.1689e+09,-1.17016e+09,6.54453e+06,-0.0245147,1.16497,-0,1.16523,-3593.38,-42229.1,-0,42381.7,6.54453e+06
step02_gravity_refstate-intrusion.xmf,70,2.97345e-05,-5.6073e-05,0,3.43981e-05,-1.12676e+09,-1.13268e+09,-1.12881e+09,2.37255e+06,-0.060896,1.41048,-0,1.41179,-1985.71,-40902.5,-0,40950.7,2.37255e+06
step02_gravity_refstate-intrusion.xmf,71,2.09123e-05,-2.81987e-05,0,4.09091e-05,-1.14261e+09,-1.146e+09,-1.14405e+09,2.82163e+06,-0.0510892,1.39997,-0,1.4009,-2266.49,-41392.8,-0,41454.8,2.82163e+06
step02_gravity_refstate-intrusion.xmf,72,1.58612e-06,3.09726e-05,0,9.5528e-05,-1.18568e+09,-1.18365e+09,-1.18578e+09,6.58886e+06,0.00257555,1.15346,0,1.15346,-3590.78,-42722.9,-0,42873.6,6.58886e+06
step02_gravity_refstate-intrusion.xmf,73,1.13746e-05,-9.4314e-07,0,5.01173e-05,-1.15953e+09,-1.16038e+09,-1.16031e+09,3.45675e+06,-0.0335626,1.36844,-0,1.36885,-2555.46,-41913.4,-0,41991.2,3.45675e+06
step02_gravity_refstate-intrusion.xmf,74,3.6872e-05,-8.52583e-05,0,2.00092e-05,-1.11257e+09,-1.12099e+09,-1.11511e+09,1.3801e+06,-0.044127,1.43949,-0,1.44017,-1193.16,-40456.4,-0,40474,1.3801e+06
step02_gravity_refstate-intrusion.xmf,75,3.04077e-05,-5.94086e-05,0,2.33745e-05,-1.12727e+09,-1.13346e+09,-1.12936e+09,1.61221e+06,-0.0434696,1.45873,-0,1.45938,-1418.76,-40916.7,-0,40941.3,1.61221e+06
step02_gravity_refstate-intrusion.xmf,76,2.87332e-06,2.37201e-05,0,7.86198e-05,-1.17722e+09,-1.17578e+09,-1.17741e+09,5.42265e+06,-0.0109511,1.2362,-0,1.23625,-3260.43,-42458.2,-0,42583.2,5.42265e+06
step02_gravity_refstate-intrusion.xmf,77,3.60098e-06,2.26113e-05,0,6.13562e-05,-1.17611e+09,-1.1748e+09,-1.17636e+09,4.23193e+06,-0.0112127,1.31851,-0,1.31855,-2832.74,-42425.4,-0,42519.8,4.23193e+06
step02_gravity_refstate-intrusion.xmf,78,2.26518e-05,-3.31273e-05,0,2.82853e-05,-1.14213e+09,-1.14598e+09,-1.14369e+09,1.95092e+06,-0.0391672,1.45842,-0,1.45895,-1696.79,-41378.5,-0,41413.3,1.95092e+06
step02_gravity_refstate-intrusion.xmf,79,1.36981e-05,-6.11535e-06,0,3.51538e-05,-1.15798e+09,-1.15935e+09,-1.15893e+09,2.42467e+06,-0.028604,1.4376,-0,1.43789,-2007.76,-41867.6,-0,41915.7,2.42467e+06
step02_gravity_refstate-intrusion.xmf,80,-4.41943e-07,3.80252e-05,0,7.32631e-05,-1.19077e+09,-1.18811e+09,-1.19074e+09,5.05319e+06,0.0111211,1.24739,0,1.24744,-3141.44,-42881.1,-0,42996,5.05319e+06
step02_gravity_refstate-intrusion.xmf,81,-3.57202e-07,4.46817e-05,0,9.22495e-05,-1.20157e+09,-1.19847e+09,-1.20155e+09,6.36274e+06,0.0287355,1.14518,0,1.14554,-3546.76,-43221.9,-0,43367.2,6.36274e+06
step02_gravity_refstate-intrusion.xmf,82,4.49626e-06,2.09071e-05,0,4.31925e-05,-1.17544e+09,-1.17431e+09,-1.17575e+09,2.97912e+06,-0.00993196,1.39854,-0,1.39858,-2300.29,-42405.5,-0,42467.9,2.97912e+06
step02_gravity_refstate-intrusion.xmf,83,3.75531e-05,-8.82737e-05,0,1.1806e-05,-1.11176e+09,-1.12044e+09,-1.11435e+09,814299,-0.0262733,1.4585,-0,1.45874,-703.679,-40430.6,-0,40436.8,814299
step02_gravity_refstate-intrusion.xmf,84,3.03301e-05,-6.01998e-05,0,1.28924e-05,-1.12815e+09,-1.1344e+09,-1.13025e+09,889232,-0.0246094,1.49267,-0,1.49287,-812.227,-40943.1,-0,40951.2,889232
step02_gravity_refstate-intrusion.xmf,85,2.31937e-05,-3.55455e-05,0,1.72226e-05,-1.14206e+09,-1.14612e+09,-1.14366e+09,1.1879e+06,-0.0254273,1.5003,-0,1.50051,-1094.42,-41375.6,-0,41390.1,1.1879e+06
step02_gravity_refstate-intrusion.xmf,86,-2.79863e-06,4.42958e-05,0,5.32307e-05,-1.19242e+09,-1.18917e+09,-1.19222e+09,3.67148e+06,0.0126736,1.3385,0,1.33856,-2604.72,-42931,-0,43010,3.67148e+06
step02_gravity_refstate-intrusion.xmf,87,-2.42415e-06,5.88931e-05,0,8.94338e-05,-1.21831e+09,-1.21408e+09,-1.21814e+09,6.16853e+06,0.0542731,1.11756,0,1.11888,-3548.43,-43747.1,-0,43890.7,6.16853e+06
step02_gravity_refstate-intrusion.xmf,88,3.85145e-05,-9.43798e-05,0,3.91521e-06,-1.10864e+09,-1.1178e+09,-1.11129e+09,270044,-0.00903643,1.45933,-0,1.45936,-234.551,-40330.9,-0,40331.6,270044
step02_gravity_refstate-intrusion.xmf,89,1.44811e-05,-8.2883e-06,0,2.23314e-05,-1.15767e+09,-1.15924e+09,-1.15867e+09,1.54026e+06,-0.0202738,1.49196,-0,1.4921,-1395.51,-41858.2,-0,41881.5,1.54026e+06
step02_gravity_refstate-intrusion.xmf,90,4.98301e-06,1.99122e-05,0,2.85786e-05,-1.17459e+09,-1.17356e+09,-1.17493e+09,1.97116e+06,-0.00808984,1.46342,-0,1.46344,-1709.37,-42379.8,-0,42414.3,1.97116e+06
step02_gravity_refstate-intrusion.xmf,91,-6.58865e-06,6.06154e-05,0,6.54617e-05,-1.20976e+09,-1.20512e+09,-1.2093e+09,4.5151e+06,0.0389843,1.24521,0,1.24582,-2997.15,-43471.4,-0,43574.6,4.5151e+06
step02_gravity_refstate-intrusion.xmf,92,-3.85095e-06,4.66158e-05,0,3.55702e-05,-1.19205e+09,-1.18857e+09,-1.19178e+09,2.45339e+06,0.0102856,1.41479,0,1.41483,-2015.71,-42918.7,-0,42966,2.45339e+06
step02_gravity_refstate-intrusion.xmf,93,-3.65551e-06,7.13052e-05,0,8.72867e-05,-1.23435e+09,-1.22918e+09,-1.2341e+09,6.02044e+06,0.0763889,1.07424,0,1.07695,-3595.49,-44251.4,-0,44397.2,6.02044e+06
step02_gravity_refstate-intrusion.xmf,94,3.76296e-05,-9.03421e-05,0,-3.67923e-06,-1.11107e+09,-1.1199e+09,-1.11366e+09,-253768,0.0082381,1.46655,0,1.46657,218.89,-40407.4,0,40408,253768
step02_gravity_refstate-intrusion.xmf,95,3.22937e-05,-6.84161e-05,0,3.00898e-06,-1.1239e+09,-1.13084e+09,-1.12613e+09,207539,-0.00628788,1.49867,-0,1.49868,-194.683,-40809.4,-0,40809.8,207539
step02_gravity_refstate-intrusion.xmf,96,2.38567e-05,-3.84956e-05,0,7.05116e-06,-1.14096e+09,-1.14526e+09,-1.14261e+09,486341,-0.0110691,1.52283,-0,1.52287,-464.014,-41340.6,-0,41343.2,486341
step02_gravity_refstate-intrusion.xmf,97,1.45719e-05,-8.97423e-06,0,1.17445e-05,-1.15766e+09,-1.15929e+09,-1.15867e+09,810052,-0.0113027,1.52557,-0,1.52562,-777.007,-41857.6,-0,41864.8,810052
step02_gravity_refstate-intrusion.xmf,98,-1.05791e-05,6.98921e-05,0,4.38796e-05,-1.20905e+09,-1.2035e+09,-1.20832e+09,3.02652e+06,0.0322186,1.34677,0,1.34716,-2332.47,-43446.5,-0,43509,3.02652e+06
step02_gravity_refstate-intrusion.xmf,99,-6.17298e-06,8.5031e-05,0,8.09303e-05,-1.25026e+09,-1.24397e+09,-1.24983e+09,5.58201e+06,0.0945968,1.03305,0,1.03737,-3606.5,-44749,-0,44894.1,5.58201e+06
step02_gravity_refstate-intrusion.xmf,100,-1.00511e-05,7.96571e-05,0,6.82965e-05,-1.22888e+09,-1.22269e+09,-1.22819e+09,4.71062e+06,0.0659433,1.17563,0,1.17747,-3149.09,-44070.9,-0,44183.3,4.71062e+06
step02_gravity_refstate-intrusion.xmf,101,3.75494e-05,-8.78614e-05,0,-1.28629e-05,-1.11191e+09,-1.12056e+09,-1.1145e+09,-887195,0.0287264,1.45671,0,1.45699,770.664,-40435.7,0,40443.1,887195
step02_gravity_refstate-intrusion.xmf,102,4.93181e-06,2.00372e-05,0,1.67318e-05,-1.17436e+09,-1.17331e+09,-1.1747e+09,1.15404e+06,-0.00520824,1.50812,-0,1.50813,-1088.86,-42372.6,-0,42386.6,1.15404e+06
step02_gravity_refstate-intrusion.xmf,103,-4.75027e-06,4.91134e-05,0,2.2336e-05,-1.19185e+09,-1.18813e+09,-1.19152e+09,1.54059e+06,0.00745803,1.46941,0,1.46943,-1404.95,-42912.3,-0,42935.3,1.54059e+06
step02_gravity_refstate-intrusion.xmf,104,-1.31279e-05,7.57621e-05,0,2.84995e-05,-1.20915e+09,-1.20302e+09,-1.20824e+09,1.9657e+06,0.0250049,1.41077,0,1.41099,-1722.42,-43447.6,-0,43481.8,1.9657e+06
step02_gravity_refstate-intrusion.xmf,105,-1.16262e-05,9.12934e-05,0,6.95462e-05,-1.24297e+09,-1.23587e+09,-1.24217e+09,4.79682e+06,0.0838262,1.11425,0,1.1174,-3281.06,-44513.1,-0,44633.9,4.79682e+06
step02_gravity_refstate-intrusion.xmf,106,-1.51017e-05,8.74275e-05,0,5.04645e-05,-1.2251e+09,-1.21803e+09,-1.22406e+09,3.48069e+06,0.0545842,1.26847,0,1.26964,-2626.22,-43946.2,-0,44024.6,3.48069e+06
step02_gravity_refstate-intrusion.xmf,107,3.13787e-05,-6.45903e-05,0,-7.47936e-06,-1.12588e+09,-1.1325e+09,-1.12805e+09,-515875,0.0147053,1.49857,0,1.49864,468.58,-40871.7,0,40874.4,515875
step02_gravity_refstate-intrusion.xmf,108,2.39632e-05,-3.89608e-05,0,-2.26635e-06,-1.14075e+09,-1.14509e+09,-1.1424e+09,-156317,0.00353752,1.5272,0,1.5272,147.524,-41333.9,0,41334.1,156317
step02_gravity_refstate-intrusion.xmf,109,3.72715e-05,-8.63889e-05,0,-2.23234e-05,-1.11145e+09,-1.11998e+09,-1.11402e+09,-1.53971e+06,0.0487727,1.43013,0,1.43096,1304.82,-40422.2,0,40443.2,1.53971e+06
step02_gravity_refstate-intrusion.xmf,110,1.49503e-05,-1.03812e-05,0,2.2997e-06,-1.15695e+09,-1.15869e+09,-1.15798e+09,158618,-0.00232387,1.53952,-0,1.53952,-155.399,-41835.2,-0,41835.4,158618
step02_gravity_refstate-intrusion.xmf,111,4.91103e-06,1.99728e-05,0,6.82824e-06,-1.17407e+09,-1.17303e+09,-1.1744e+09,470965,-0.00226916,1.53231,-0,1.53231,-463.834,-42363.5,-0,42366,470965
step02_gravity_refstate-intrusion.xmf,112,-1.97371e-05,9.94377e-05,0,3.50899e-05,-1.22581e+09,-1.21759e+09,-1.22444e+09,2.42026e+06,0.0447979,1.33729,0,1.33804,-2025.11,-43965.7,-0,44012.3,2.42026e+06
step02_gravity_refstate-intrusion.xmf,113,-1.20616e-05,0.000101396,0,7.23815e-05,-1.26622e+09,-1.2584e+09,-1.26539e+09,4.99238e+06,0.10729,0.986441,0,0.992258,-3611.39,-45240.3,-0,45384.3,4.99238e+06
step02_gravity_refstate-intrusion.xmf,114,-2.03791e-05,0.000117998,0,6.04545e-05,-1.25848e+09,-1.24893e+09,-1.25707e+09,4.16974e+06,0.0951733,1.08504,0,1.08921,-3151.06,-44991.9,-0,45102.1,4.16974e+06
step02_gravity_refstate-intrusion.xmf,115,-1.89681e-05,0.000106356,0,5.47289e-05,-1.24268e+09,-1.23403e+09,-1.24137e+09,3.77482e+06,0.0766139,1.1841,0,1.18658,-2846.18,-44496.3,-0,44587.2,3.77482e+06
step02_gravity_refstate-intrusion.xmf,116,3.10829e-05,-6.16196e-05,0,-1.77423e-05,-1.12672e+09,-1.13312e+09,-1.12887e+09,-1.22374e+06,0.0337141,1.47752,0,1.4779,1089.68,-40899.8,0,40914.4,1.22374e+06
step02_gravity_refstate-intrusion.xmf,117,3.7775e-05,-8.77922e-05,0,-3.05683e-05,-1.10846e+09,-1.11712e+09,-1.11106e+09,-2.10839e+06,0.0669513,1.39089,0,1.3925,1746.55,-40329.8,0,40367.6,2.10839e+06
step02_gravity_refstate-intrusion.xmf,118,-5.31261e-06,5.08301e-05,0,1.15806e-05,-1.19175e+09,-1.18788e+09,-1.19138e+09,798749,0.00423596,1.50346,0,1.50347,-776.974,-42909.2,-0,42916.2,798749
step02_gravity_refstate-intrusion.xmf,119,-1.48171e-05,8.10897e-05,0,1.65756e-05,-1.20976e+09,-1.20315e+09,-1.20874e+09,1.14327e+06,0.0165129,1.45294,0,1.45304,-1082.8,-43466.7,-0,43480.1,1.14327e+06
step02_gravity_refstate-intrusion.xmf,120,-2.23348e-05,0.000107967,0,2.24102e-05,-1.22694e+09,-1.21795e+09,-1.2254e+09,1.5457e+06,0.0328297,1.38306,0,1.38345,-1413.74,-44001.2,-0,44023.9,1.5457e+06
step02_gravity_refstate-intrusion.xmf,121,-2.44171e-05,0.000120043,0,4.07838e-05,-1.24233e+09,-1.23237e+09,-1.24065e+09,2.81298e+06,0.064573,1.25164,0,1.25331,-2307.26,-44482.6,-0,44542.4,2.81298e+06
step02_gravity_refstate-intrusion.xmf,122,2.37945e-05,-3.76611e-05,0,-1.20688e-05,-1.14104e+09,-1.14528e+09,-1.14269e+09,-832424,0.0185464,1.51351,0,1.51362,779.405,-41343.8,0,41351.2,832424
step02_gravity_refstate-intrusion.xmf,123,1.50335e-05,-1.03551e-05,0,-6.88551e-06,-1.15682e+09,-1.15857e+09,-1.15786e+09,-474915,0.00698248,1.53482,0,1.53483,464.717,-41831.7,0,41834.2,474915
step02_gravity_refstate-intrusion.xmf,124,3.17549e-05,-6.26978e-05,0,-2.94816e-05,-1.12369e+09,-1.13021e+09,-1.12588e+09,-2.03344e+06,0.0558676,1.42773,0,1.42883,1736.24,-40807.2,0,40844.1,2.03344e+06
step02_gravity_refstate-intrusion.xmf,125,3.57464e-05,-7.81868e-05,0,-3.94308e-05,-1.11125e+09,-1.11911e+09,-1.11372e+09,-2.71967e+06,0.081419,1.35656,0,1.359,2195.8,-40419.5,0,40479.1,2.71967e+06
step02_gravity_refstate-intrusion.xmf,126,5.10765e-06,1.9465e-05,0,-2.194e-06,-1.17365e+09,-1.17266e+09,-1.17401e+09,-151327,0.000796804,1.53721,0,1.53721,155.581,-42350.9,0,42351.2,151327
step02_gravity_refstate-intrusion.xmf,127,-5.46267e-06,5.1402e-05,0,2.21626e-06,-1.19157e+09,-1.18765e+09,-1.1912e+09,152862,0.000799683,1.51774,0,1.51774,-147.066,-42903.9,-0,42904.2,152862
step02_gravity_refstate-intrusion.xmf,128,-1.76171e-05,0.000118192,0,6.82142e-05,-1.27904e+09,-1.26967e+09,-1.27782e+09,4.70495e+06,0.111299,0.939396,0,0.945966,-3635.73,-45635.9,-0,45780.5,4.70495e+06
step02_gravity_refstate-intrusion.xmf,129,-2.79852e-05,0.000130803,0,2.91092e-05,-1.2428e+09,-1.23184e+09,-1.24086e+09,2.00775e+06,0.0501287,1.30103,0,1.30199,-1739.58,-44496.7,-0,44530.7,2.00775e+06
step02_gravity_refstate-intrusion.xmf,130,-2.83611e-05,0.000140734,0,6.17046e-05,-1.27727e+09,-1.26561e+09,-1.27532e+09,4.25596e+06,0.103549,0.99443,0,0.999807,-3274.23,-45570.7,-0,45688.2,4.25596e+06
step02_gravity_refstate-intrusion.xmf,131,-2.79964e-05,0.0001401,0,4.65859e-05,-1.25895e+09,-1.24735e+09,-1.25702e+09,3.21318e+06,0.0811304,1.15678,0,1.15962,-2559.8,-45005.2,-0,45077.9,3.21318e+06
step02_gravity_refstate-intrusion.xmf,132,2.42327e-05,-3.78473e-05,0,-2.32186e-05,-1.13993e+09,-1.14421e+09,-1.1416e+09,-1.60146e+06,0.0344742,1.47784,0,1.47824,1418.09,-41310.5,0,41334.8,1.60146e+06
step02_gravity_refstate-intrusion.xmf,133,-1.55043e-05,8.36517e-05,0,6.49381e-06,-1.20991e+09,-1.20307e+09,-1.20884e+09,447898,0.00677773,1.47549,0,1.4755,-436.558,-43471.6,-0,43473.8,447898
step02_gravity_refstate-intrusion.xmf,134,-2.47691e-05,0.000118024,0,1.14151e-05,-1.23002e+09,-1.22017e+09,-1.22831e+09,787337,0.0183667,1.40432,0,1.40444,-739.535,-44099,-0,44105.2,787337
step02_gravity_refstate-intrusion.xmf,135,-2.98601e-05,0.000139997,0,1.91546e-05,-1.24472e+09,-1.233e+09,-1.24266e+09,1.32115e+06,0.0350987,1.32703,0,1.32749,-1180.47,-44559.5,-0,44575.2,1.32115e+06
step02_gravity_refstate-intrusion.xmf,136,-3.01447e-05,0.000162508,0,5.32655e-05,-1.27662e+09,-1.26333e+09,-1.27454e+09,3.67389e+06,0.0887848,1.05265,0,1.05639,-2747.44,-45567.2,-0,45650,3.67389e+06
step02_gravity_refstate-intrusion.xmf,137,-3.09126e-05,0.000152164,0,3.58821e-05,-1.25879e+09,-1.24616e+09,-1.25666e+09,2.4749e+06,0.0654584,1.20675,0,1.20853,-2028.29,-45003.5,-0,45049.2,2.4749e+06
step02_gravity_refstate-intrusion.xmf,138,1.50023e-05,-9.51446e-06,0,-1.69036e-05,-1.15688e+09,-1.15857e+09,-1.15792e+09,-1.1659e+06,0.0163928,1.51066,0,1.51074,1094.08,-41834.3,0,41848.6,1.1659e+06
step02_gravity_refstate-intrusion.xmf,139,5.26729e-06,1.93689e-05,0,-1.15426e-05,-1.17358e+09,-1.17261e+09,-1.17395e+09,-796131,0.00405337,1.52294,0,1.52294,780.117,-42349.1,0,42356.3,796131
step02_gravity_refstate-intrusion.xmf,140,2.27743e-05,-3.25824e-05,0,-3.49794e-05,-1.1406e+09,-1.14441e+09,-1.14217e+09,-2.41264e+06,0.0479808,1.4259,0,1.4267,2020.94,-41332,0,41381.4,2.41264e+06
step02_gravity_refstate-intrusion.xmf,141,3.34646e-05,-6.9161e-05,0,-5.04412e-05,-1.11187e+09,-1.11895e+09,-1.11418e+09,-3.47909e+06,0.0978723,1.29918,0,1.30286,2690.5,-40440.9,0,40530.3,3.47909e+06
step02_gravity_refstate-intrusion.xmf,142,2.86777e-05,-5.17722e-05,0,-4.19608e-05,-1.12651e+09,-1.13206e+09,-1.12849e+09,-2.89417e+06,0.0712446,1.37207,0,1.37392,2333.76,-40895.8,0,40962.3,2.89417e+06
step02_gravity_refstate-intrusion.xmf,143,-5.15859e-06,5.0648e-05,0,-6.85033e-06,-1.1912e+09,-1.18735e+09,-1.19084e+09,-472488,-0.00249184,1.51333,-0,1.51333,480.056,-42892.4,0,42895.1,472488
step02_gravity_refstate-intrusion.xmf,144,-1.51525e-05,8.26098e-05,0,-2.68388e-06,-1.20907e+09,-1.20233e+09,-1.20803e+09,-185116,-0.00297481,1.48112,-0,1.48112,196.716,-43445.9,0,43446.4,185116
step02_gravity_refstate-intrusion.xmf,145,-3.30586e-05,0.000160827,0,2.5616e-05,-1.25913e+09,-1.24576e+09,-1.25685e+09,1.76682e+06,0.0483058,1.24236,0,1.2433,-1481.93,-45016.2,-0,45040.6,1.76682e+06
step02_gravity_refstate-intrusion.xmf,146,-3.18114e-05,0.000172659,0,4.33337e-05,-1.27473e+09,-1.26063e+09,-1.27254e+09,2.98886e+06,0.0742078,1.10464,0,1.10713,-2266.03,-45514.1,-0,45570.5,2.98886e+06
step02_gravity_refstate-intrusion.xmf,147,1.48144e-05,-9.0731e-06,0,-2.89198e-05,-1.15651e+09,-1.15816e+09,-1.15753e+09,-1.99469e+06,0.0259545,1.46621,0,1.46644,1713.47,-41822.6,0,41857.7,1.99469e+06
step02_gravity_refstate-intrusion.xmf,148,2.767e-05,-5.35801e-05,0,-6.30844e-05,-1.11287e+09,-1.11848e+09,-1.11478e+09,-4.35113e+06,0.113361,1.21928,0,1.22454,3232.07,-40469.4,0,40598.3,4.35113e+06
step02_gravity_refstate-intrusion.xmf,149,-3.05868e-05,0.000147997,0,1.17882e-05,-1.24766e+09,-1.23534e+09,-1.24555e+09,813068,0.0222196,1.33073,0,1.33092,-724.919,-44656.4,-0,44662.3,813068
step02_gravity_refstate-intrusion.xmf,150,-2.37493e-05,0.000114256,0,1.24194e-06,-1.227e+09,-1.21748e+09,-1.22536e+09,85660.8,0.00165339,1.42695,0,1.42695,-69.6942,-44005.2,-0,44005.2,85660.8
step02_gravity_refstate-intrusion.xmf,151,-3.35277e-05,0.000167554,0,1.68053e-05,-1.26038e+09,-1.24652e+09,-1.25807e+09,1.15911e+06,0.03216,1.25866,0,1.25908,-979.107,-45060.3,-0,45070.9,1.15911e+06
step02_gravity_refstate-intrusion.xmf,152,-3.26207e-05,0.000181606,0,3.317e-05,-1.27439e+09,-1.25962e+09,-1.27214e+09,2.28784e+06,0.0576712,1.14173,0,1.14318,-1752.58,-45510.3,-0,45544,2.28784e+06
step02_gravity_refstate-intrusion.xmf,153,5.48891e-06,1.92356e-05,0,-2.23412e-05,-1.17353e+09,-1.17258e+09,-1.17391e+09,-1.54094e+06,0.00745844,1.48837,0,1.48838,1408.66,-42348,0,42371.4,1.54094e+06
step02_gravity_refstate-intrusion.xmf,154,-4.59144e-06,4.92203e-05,0,-1.67635e-05,-1.19094e+09,-1.18723e+09,-1.19062e+09,-1.15623e+06,-0.00543286,1.48947,-0,1.48948,1106.68,-42884.8,0,42899,1.15623e+06
step02_gravity_refstate-intrusion.xmf,155,2.48011e-05,-4.37283e-05,0,-5.62661e-05,-1.1255e+09,-1.13023e+09,-1.12722e+09,-3.88085e+06,0.0875237,1.29451,0,1.29747,2886.45,-40860.7,0,40962.6,3.88085e+06
step02_gravity_refstate-intrusion.xmf,156,1.37003e-05,-5.61209e-06,0,-4.27032e-05,-1.15639e+09,-1.15772e+09,-1.15734e+09,-2.94537e+06,0.0347231,1.4009,0,1.40133,2316.74,-41819,0,41883.1,2.94537e+06
step02_gravity_refstate-intrusion.xmf,157,2.00017e-05,-2.57749e-05,0,-4.93254e-05,-1.14087e+09,-1.14402e+09,-1.14225e+09,-3.40213e+06,0.0600783,1.35463,0,1.35597,2598.05,-41338.6,0,41420.1,3.40213e+06
step02_gravity_refstate-intrusion.xmf,158,-2.97438e-05,0.000143324,0,4.4309e-06,-1.24399e+09,-1.23206e+09,-1.24194e+09,305613,0.00802749,1.3566,0,1.35662,-269.932,-44541,-0,44541.8,305613
step02_gravity_refstate-intrusion.xmf,159,-1.45823e-05,8.07595e-05,0,-1.19188e-05,-1.20867e+09,-1.20209e+09,-1.20766e+09,-822075,-0.0120322,1.46768,-0,1.46773,813.333,-43433.3,0,43440.9,822075
step02_gravity_refstate-intrusion.xmf,160,-2.32133e-05,0.000112037,0,-7.78896e-06,-1.22613e+09,-1.2168e+09,-1.22453e+09,-537229,-0.012465,1.42391,-0,1.42396,535.706,-43977.6,0,43980.9,537229
step02_gravity_refstate-intrusion.xmf,161,-3.29229e-05,0.000170223,0,8.68125e-06,-1.26043e+09,-1.24642e+09,-1.25816e+09,598773,0.0164089,1.2709,0,1.271,-498.66,-45066.3,-0,45069.1,598773
step02_gravity_refstate-intrusion.xmf,162,-3.37512e-05,0.000188447,0,2.32299e-05,-1.27485e+09,-1.25953e+09,-1.27252e+09,1.60224e+06,0.0409133,1.16491,0,1.16563,-1243.33,-45528,-0,45545,1.60224e+06
step02_gravity_refstate-intrusion.xmf,163,1.78062e-05,-2.93884e-05,0,-6.95219e-05,-1.12799e+09,-1.13125e+09,-1.12922e+09,-4.79514e+06,0.092938,1.2283,0,1.23181,3286.11,-40930.3,0,41062,4.79514e+06
step02_gravity_refstate-intrusion.xmf,164,5.43431e-06,1.84854e-05,0,-3.63513e-05,-1.17344e+09,-1.17254e+09,-1.17381e+09,-2.50726e+06,0.0110062,1.43238,0,1.43243,2027.17,-42344.3,0,42392.8,2.50726e+06
step02_gravity_refstate-intrusion.xmf,165,2.1637e-05,-3.81465e-05,0,-7.25955e-05,-1.10956e+09,-1.11369e+09,-1.11106e+09,-5.00714e+06,0.127819,1.14085,0,1.14799,3635.73,-40364.1,0,40527.5,5.00714e+06
step02_gravity_refstate-intrusion.xmf,166,-2.95221e-05,0.000142039,0,-4.25463e-06,-1.24323e+09,-1.2314e+09,-1.24119e+09,-293455,-0.00844924,1.35987,-0,1.3599,286.136,-44516.8,0,44517.7,293455
step02_gravity_refstate-intrusion.xmf,167,-3.36656e-05,0.000192329,0,1.38489e-05,-1.27495e+09,-1.25937e+09,-1.27263e+09,955202,0.0245182,1.18045,0,1.1807,-745.333,-45535.4,-0,45541.5,955202
step02_gravity_refstate-intrusion.xmf,168,-3.74631e-06,4.71601e-05,0,-2.86811e-05,-1.19079e+09,-1.18728e+09,-1.19053e+09,-1.97823e+06,-0.00790657,1.44512,-0,1.44514,1726.68,-42880.7,0,42915.4,1.97823e+06
step02_gravity_refstate-intrusion.xmf,169,-1.34665e-05,7.74043e-05,0,-2.24023e-05,-1.20831e+09,-1.20204e+09,-1.20738e+09,-1.54516e+06,-0.0204213,1.43571,-0,1.43586,1426.5,-43422.2,0,43445.7,1.54516e+06
step02_gravity_refstate-intrusion.xmf,170,1.2997e-05,-2.27961e-05,0,-8.03181e-05,-1.12246e+09,-1.12493e+09,-1.12336e+09,-5.53979e+06,0.107829,1.15441,0,1.15944,3627.11,-40750.9,0,40912,5.53979e+06
step02_gravity_refstate-intrusion.xmf,171,1.4571e-05,-1.77098e-05,0,-6.74305e-05,-1.14064e+09,-1.14287e+09,-1.14165e+09,-4.65089e+06,0.070221,1.26701,0,1.26895,3129.79,-41322.7,0,41441.1,4.65089e+06
step02_gravity_refstate-intrusion.xmf,172,5.4643e-06,1.86935e-05,0,-5.28582e-05,-1.17257e+09,-1.17166e+09,-1.17295e+09,-3.64579e+06,0.0154112,1.35496,0,1.35505,2621.37,-42317.8,0,42399,3.64579e+06
step02_gravity_refstate-intrusion.xmf,173,1.10712e-05,-8.85595e-07,0,-6.06303e-05,-1.15618e+09,-1.15701e+09,-1.15695e+09,-4.18186e+06,0.0423331,1.31459,0,1.31527,2892.25,-41809.1,0,41909,4.18186e+06
step02_gravity_refstate-intrusion.xmf,174,-3.28011e-05,0.000169359,0,-1.40605e-08,-1.25937e+09,-1.24543e+09,-1.25711e+09,-969.794,-0.00043098,1.28111,-0,1.28111,13.142,-45033.2,0,45033.2,969.794
step02_gravity_refstate-intrusion.xmf,175,-2.2309e-05,0.000108327,0,-1.73287e-05,-1.22555e+09,-1.21654e+09,-1.22401e+09,-1.19521e+06,-0.025892,1.40372,-0,1.40396,1135.36,-43958.9,0,43973.5,1.19521e+06
step02_gravity_refstate-intrusion.xmf,176,-2.92081e-05,0.000139553,0,-1.32102e-05,-1.24293e+09,-1.23129e+09,-1.24091e+09,-911151,-0.0250092,1.34826,-0,1.34849,852.387,-44505.9,0,44514,911151
step02_gravity_refstate-intrusion.xmf,177,-3.29228e-05,0.000193771,0,4.77451e-06,-1.27467e+09,-1.25903e+09,-1.2724e+09,329313,0.0081452,1.1898,0,1.18983,-247.424,-45530.5,-0,45531.1,329313
step02_gravity_refstate-intrusion.xmf,178,8.2432e-06,-9.17102e-06,0,-8.73293e-05,-1.13797e+09,-1.13918e+09,-1.13854e+09,-6.02337e+06,0.080983,1.16757,0,1.17037,3602.3,-41229.2,0,41386.3,6.02337e+06
step02_gravity_refstate-intrusion.xmf,179,-2.33298e-06,4.23862e-05,0,-4.51079e-05,-1.18998e+09,-1.1869e+09,-1.18982e+09,-3.11123e+06,-0.00880605,1.3781,-0,1.37813,2346.72,-42855.4,0,42919.6,3.11123e+06
step02_gravity_refstate-intrusion.xmf,180,-3.27292e-05,0.000168321,0,-9.18898e-06,-1.25938e+09,-1.24551e+09,-1.25712e+09,-633792,-0.0181883,1.2755,-0,1.27563,554.752,-45032.5,0,45035.9,633792
step02_gravity_refstate-intrusion.xmf,181,-1.13672e-05,7.19186e-05,0,-3.56415e-05,-1.20775e+09,-1.20201e+09,-1.20697e+09,-2.45831e+06,-0.0276484,1.38268,-0,1.38296,2046.57,-43406.1,0,43454.3,2.45831e+06
step02_gravity_refstate-intrusion.xmf,182,-2.0536e-05,0.000102423,0,-2.83841e-05,-1.22506e+09,-1.21658e+09,-1.22365e+09,-1.95774e+06,-0.0384669,1.36548,-0,1.36602,1737.12,-43943.3,0,43977.6,1.95774e+06
step02_gravity_refstate-intrusion.xmf,183,5.74018e-06,5.42494e-06,0,-8.72897e-05,-1.15543e+09,-1.15545e+09,-1.15583e+09,-6.02064e+06,0.0494803,1.19167,0,1.19269,3503.7,-41775.5,0,41922.2,6.02064e+06
step02_gravity_refstate-intrusion.xmf,184,4.21446e-08,3.7014e-05,0,-6.44156e-05,-1.18763e+09,-1.18508e+09,-1.18763e+09,-4.44295e+06,-0.00626138,1.29123,-0,1.29124,2927.75,-42784.7,0,42884.7,4.44295e+06
step02_gravity_refstate-intrusion.xmf,185,4.54748e-06,1.87632e-05,0,-7.47815e-05,-1.17147e+09,-1.17049e+09,-1.17178e+09,-5.15791e+06,0.020073,1.25579,0,1.25595,3183.84,-42280.9,0,42400.6,5.15791e+06
step02_gravity_refstate-intrusion.xmf,186,-3.29404e-05,0.000193306,0,-4.69052e-06,-1.27439e+09,-1.25878e+09,-1.27211e+09,-323520,-0.00873749,1.19144,-0,1.19147,265.313,-45521.2,0,45521.9,323520
step02_gravity_refstate-intrusion.xmf,187,-2.88231e-05,0.000133689,0,-2.35573e-05,-1.24235e+09,-1.23114e+09,-1.24036e+09,-1.62482e+06,-0.0416107,1.32323,-0,1.32388,1439.79,-44483.2,0,44506.5,1.62482e+06
step02_gravity_refstate-intrusion.xmf,188,-3.29358e-05,0.00016786,0,-1.93937e-05,-1.26111e+09,-1.24726e+09,-1.25884e+09,-1.33764e+06,-0.0374003,1.24828,-0,1.24884,1136.49,-45085,0,45099.3,1.33764e+06
step02_gravity_refstate-intrusion.xmf,189,-7.62693e-06,6.23299e-05,0,-5.56358e-05,-1.20647e+09,-1.20164e+09,-1.20594e+09,-3.83737e+06,-0.0324828,1.29826,-0,1.29866,2716.25,-43368.4,0,43453.4,3.83737e+06
step02_gravity_refstate-intrusion.xmf,190,-3.29065e-05,0.00019198,0,-1.41363e-05,-1.27474e+09,-1.25923e+09,-1.27247e+09,-975027,-0.0253878,1.18066,-0,1.18093,771.371,-45530.8,0,45537.3,975027
step02_gravity_refstate-intrusion.xmf,191,-2.55788e-05,0.00012262,0,-3.47356e-05,-1.24095e+09,-1.23073e+09,-1.23919e+09,-2.39582e+06,-0.057022,1.28307,-0,1.28433,2042.62,-44439,0,44485.9,2.39582e+06
step02_gravity_refstate-intrusion.xmf,192,-3.2363e-05,0.000155912,0,-3.01105e-05,-1.25829e+09,-1.24531e+09,-1.25606e+09,-2.07682e+06,-0.0563886,1.23058,-0,1.23187,1742.04,-44987.4,0,45021.2,2.07682e+06
step02_gravity_refstate-intrusion.xmf,193,-1.69815e-05,9.3086e-05,0,-4.28387e-05,-1.22459e+09,-1.217e+09,-1.22342e+09,-2.95472e+06,-0.049786,1.30437,-0,1.30532,2358.82,-43930.2,0,43993.5,2.95472e+06
step02_gravity_refstate-intrusion.xmf,194,-2.12261e-06,4.63067e-05,0,-7.47451e-05,-1.19892e+09,-1.19558e+09,-1.19878e+09,-5.15541e+06,-0.0239176,1.2293,-0,1.22953,3177.65,-43136.3,0,43253.1,5.15541e+06
step02_gravity_refstate-intrusion.xmf,195,1.24979e-06,3.22583e-05,0,-9.04414e-05,-1.18647e+09,-1.18433e+09,-1.18655e+09,-6.23803e+06,-0.00402948,1.17426,-0,1.17427,3501.01,-42747.7,0,42890.8,6.23803e+06
step02_gravity_refstate-intrusion.xmf,196,2.753e-06,1.91425e-05,0,-9.77348e-05,-1.171e+09,-1.16987e+09,-1.17119e+09,-6.74108e+06,0.0228639,1.15313,0,1.15335,3638.77,-42261.1,0,42417.5,6.74108e+06
step02_gravity_refstate-intrusion.xmf,197,-3.31057e-05,0.000194149,0,-2.18272e-05,-1.27789e+09,-1.26222e+09,-1.27561e+09,-1.50549e+06,-0.0371443,1.14961,-0,1.15021,1141.4,-45629.8,0,45644.1,1.50549e+06
step02_gravity_refstate-intrusion.xmf,198,-2.8306e-05,0.00013914,0,-4.15916e-05,-1.25445e+09,-1.2429e+09,-1.2525e+09,-2.8687e+06,-0.0731538,1.19826,-0,1.20049,2347.2,-44864.3,0,44925.7,2.8687e+06
step02_gravity_refstate-intrusion.xmf,199,-5.34148e-06,6.00154e-05,0,-7.23363e-05,-1.21056e+09,-1.20606e+09,-1.2102e+09,-4.98926e+06,-0.0411741,1.21472,-0,1.21542,3153.26,-43499.7,0,43613.9,4.98926e+06
step02_gravity_refstate-intrusion.xmf,200,-3.2953e-05,0.000182196,0,-2.69557e-05,-1.27243e+09,-1.25759e+09,-1.27016e+09,-1.85922e+06,-0.0483906,1.16914,-0,1.17014,1463.11,-45449.3,0,45472.8,1.85922e+06
step02_gravity_refstate-intrusion.xmf,201,-3.17063e-05,0.000161306,0,-3.81655e-05,-1.26554e+09,-1.25223e+09,-1.26335e+09,-2.63239e+06,-0.0696266,1.16596,-0,1.16804,2116.05,-45218.9,0,45268.4,2.63239e+06
step02_gravity_refstate-intrusion.xmf,202,-2.07615e-05,0.000109082,0,-4.88537e-05,-1.24047e+09,-1.23152e+09,-1.23904e+09,-3.36959e+06,-0.0703235,1.2206,-0,1.22262,2630.76,-44425.3,0,44503.2,3.36959e+06
step02_gravity_refstate-intrusion.xmf,203,-1.1418e-05,8.0144e-05,0,-6.29221e-05,-1.22503e+09,-1.21871e+09,-1.22424e+09,-4.33994e+06,-0.0593245,1.21321,-0,1.21466,2987.98,-43948,0,44049.5,4.33994e+06
step02_gravity_refstate-intrusion.xmf,204,-4.59537e-07,4.55322e-05,0,-9.36533e-05,-1.20309e+09,-1.19992e+09,-1.20306e+09,-6.45956e+06,-0.0311432,1.13626,-0,1.13668,3575.37,-43269.5,0,43416.9,6.45956e+06
step02_gravity_refstate-intrusion.xmf,205,-3.34648e-05,0.000181581,0,-3.49525e-05,-1.27544e+09,-1.26061e+09,-1.27313e+09,-2.41078e+06,-0.0607666,1.13008,-0,1.13172,1852.03,-45540.1,0,45577.7,2.41078e+06
step02_gravity_refstate-intrusion.xmf,206,-2.89401e-05,0.000147486,0,-4.86004e-05,-1.26525e+09,-1.25308e+09,-1.26325e+09,-3.35212e+06,-0.0856568,1.11908,-0,1.12235,2645.77,-45204.4,0,45281.8,3.35212e+06
step02_gravity_refstate-intrusion.xmf,207,-2.19065e-05,0.000120681,0,-5.53354e-05,-1.25375e+09,-1.24392e+09,-1.25224e+09,-3.81665e+06,-0.0875022,1.13285,-0,1.13622,2932.89,-44843.9,0,44939.7,3.81665e+06
step02_gravity_refstate-intrusion.xmf,208,-2.39243e-06,5.90505e-05,0,-8.90575e-05,-1.21812e+09,-1.21388e+09,-1.21796e+09,-6.14258e+06,-0.0540145,1.11955,-0,1.12086,3541.12,-43741.5,0,43884.6,6.14258e+06
step02_gravity_refstate-intrusion.xmf,209,-3.16518e-05,0.000175042,0,-4.44149e-05,-1.27712e+09,-1.26287e+09,-1.27494e+09,-3.06343e+06,-0.0753497,1.08707,-0,1.08968,2318.61,-45590.9,0,45649.9,3.06343e+06
step02_gravity_refstate-intrusion.xmf,210,-1.44268e-05,9.66151e-05,0,-6.42458e-05,-1.24092e+09,-1.23326e+09,-1.23993e+09,-4.43123e+06,-0.0793789,1.14889,-0,1.15163,3112.71,-44446.4,0,44555.3,4.43123e+06
step02_gravity_refstate-intrusion.xmf,211,-4.92144e-06,7.30769e-05,0,-8.43072e-05,-1.23382e+09,-1.22844e+09,-1.23348e+09,-5.81493e+06,-0.0753763,1.08948,-0,1.09209,3530.13,-44232.9,0,44373.6,5.81493e+06
step02_gravity_refstate-intrusion.xmf,212,-2.99548e-05,0.000160956,0,-5.42699e-05,-1.27757e+09,-1.2644e+09,-1.27551e+09,-3.74317e+06,-0.0909901,1.03995,-0,1.04392,2828.92,-45595.7,0,45683.4,3.74317e+06
step02_gravity_refstate-intrusion.xmf,213,-2.19555e-05,0.000125808,0,-6.0615e-05,-1.26502e+09,-1.25483e+09,-1.2635e+09,-4.18081e+06,-0.0993092,1.05631,-0,1.06097,3178.67,-45197.1,0,45308.7,4.18081e+06
step02_gravity_refstate-intrusion.xmf,214,-9.54473e-06,9.23848e-05,0,-7.42551e-05,-1.25142e+09,-1.24439e+09,-1.25076e+09,-5.12161e+06,-0.0946376,1.05362,-0,1.05786,3481.79,-44781.8,0,44917,5.12161e+06
step02_gravity_refstate-intrusion.xmf,215,-2.60302e-05,0.000142113,0,-6.16549e-05,-1.27812e+09,-1.26652e+09,-1.27633e+09,-4.25253e+06,-0.103585,0.988582,-0,0.993994,3282.12,-45605.7,0,45723.6,4.25253e+06
step02_gravity_refstate-intrusion.xmf,216,-1.17366e-05,0.000103529,0,-7.20705e-05,-1.267e+09,-1.25905e+09,-1.26619e+09,-4.97092e+06,-0.107613,0.985701,-0,0.991558,3599.15,-45267.5,0,45410.4,4.97092e+06
step02_gravity_refstate-intrusion.xmf,217,-2.08787e-05,0.000126075,0,-6.72555e-05,-1.27911e+09,-1.26897e+09,-1.27767e+09,-4.63882e+06,-0.111293,0.939403,-0,0.945973,3635.73,-45635.9,0,45780.5,4.63882e+06
step02_gravity_refstate-crust.xmf,0,1.79998e-06,9.12893e-06,0,-1.00035e-07,-1.09813e+09,-1.09763e+09,-1.09826e+09,-6862.39,0.0040574,0.0451308,0,0.0453128,-37792.8,-40000,-0,55030,6862.39
step02_gravity_refstate-crust.xmf,1,1.87632e-06,9.02229e-06,0,-1.2849e-08,-1.09813e+09,-1.09764e+09,-1.09826e+09,-881.445,2.80712e-19,0.0440371,0,0.0440371,-40000,-40000,-0,56568.5,881.445
step02_gravity_refstate-crust.xmf,2,1.59587e-06,9.38384e-06,0,-1.65613e-07,-1.09814e+09,-1.09761e+09,-1.09825e+09,-11361.1,0.00763122,0.0482597,0,0.0488593,-35691.6,-40000,-0,53608.7,11361.1
step02_gravity_refstate-crust.xmf,3,8.67171e-07,1.02828e-05,0,-1.65258e-07,-1.09819e+09,-1.09754e+09,-1.09825e+09,-11336.7,0.0125655,0.0600514,0,0.0613519,-31786.7,-40000,-0,51092,11336.7
step02_gravity_refstate-crust.xmf,4,1.28523e-06,9.76091e-06,0,-1.73071e-07,-1.09816e+09,-1.09758e+09,-1.09825e+09,-11872.7,0.010513,0.0532608,0,0.0542884,-33691.1,-40000,-0,52298.1,11872.7
step02_gravity_refstate-crust.xmf,5,3.6474e-07,1.08879e-05,0,-7.6263e-08,-1.09822e+09,-1.09749e+09,-1.09824e+09,-5231.64,0.0136929,0.0685996,0,0.0699529,-29973.6,-40000,-0,49984.2,5231.64
step02_gravity_refstate-crust.xmf,6,-2.00956e-07,1.15655e-05,0,8.79886e-08,-1.09825e+09,-1.09744e+09,-1.09824e+09,6036.02,0.0138374,0.0789087,0,0.0801128,-28247.5,-40000,-0,48968.6,6036.02
step02_gravity_refstate-crust.xmf,7,-1.52931e-06,1.30926e-05,0,6.69311e-07,-1.09833e+09,-1.09733e+09,-1.09823e+09,45914.7,0.0111434,0.104906,0,0.105496,-25039.7,-40000,-0,47191,45914.7
step02_gravity_refstate-crust.xmf,8,-8.31173e-07,1.22757e-05,0,3.48153e-07,-1.09829e+09,-1.09739e+09,-1.09823e+09,23883.3,0.0129894,0.0909984,0,0.0919208,-26604.2,-40000,-0,48039.4,23883.3
step02_gravity_refstate-crust.xmf,9,-2.26302e-06,1.39024e-05,0,1.10935e-06,-1.09838e+09,-1.09727e+09,-1.09822e+09,76101.7,0.0083282,0.120673,0,0.12096,-23550.3,-40000,-0,46417.8,76101.7
step02_gravity_refstate-crust.xmf,10,-3.03348e-06,1.47327e-05,0,1.64606e-06,-1.09843e+09,-1.09721e+09,-1.09822e+09,112920,0.00458322,0.138344,0,0.13842,-22132.3,-40000,-0,45714.8,112920
step02_gravity_refstate-crust.xmf,11,-3.83256e-06,1.55624e-05,0,2.30349e-06,-1.09848e+09,-1.09715e+09,-1.09822e+09,158020,-4.23236e-05,0.157964,-0,0.157964,-20782.4,-40000,-0,45076.7,158020
step02_gravity_refstate-crust.xmf,12,-4.65952e-06,1.63888e-05,0,3.0756e-06,-1.09854e+09,-1.0971e+09,-1.09822e+09,210986,-0.00548878,0.179575,-0,0.179659,-19497.2,-40000,-0,44498.8,210986
step02_gravity_refstate-crust.xmf,13,-5.50485e-06,1.71958e-05,0,3.98685e-06,-1.0986e+09,-1.09704e+09,-1.09822e+09,273498,-0.0116961,0.20322,-0,0.203556,-18273.7,-40000,-0,43976.5,273498
step02_gravity_refstate-crust.xmf,14,-6.36923e-06,1.79754e-05,0,5.02838e-06,-1.09866e+09,-1.09699e+09,-1.09823e+09,344947,-0.0185987,0.228938,-0,0.229692,-17108.9,-40000,-0,43505.3,344947
step02_gravity_refstate-crust.xmf,15,-7.24235e-06,1.87218e-05,0,6.22322e-06,-1.09873e+09,-1.09695e+09,-1.09823e+09,426913,-0.026135,0.256773,-0,0.258099,-15999.9,-40000,-0,43081.3,426913
step02_gravity_refstate-crust.xmf,16,-1.17715e-05,2.13682e-05,0,1.5236e-05,-1.09912e+09,-1.09685e+09,-1.09831e+09,1.04519e+06,-0.0711825,0.429437,-0,0.435296,-11203.7,-40000,-0,41539.4,1.04519e+06
step02_gravity_refstate-crust.xmf,17,-1.08289e-05,2.09186e-05,0,1.29766e-05,-1.09903e+09,-1.09686e+09,-1.09829e+09,890196,-0.0613832,0.390224,-0,0.395023,-12071.1,-40000,-0,41781.7,890196
step02_gravity_refstate-crust.xmf,18,-1.2665e-05,2.15414e-05,0,1.78728e-05,-1.09921e+09,-1.09686e+09,-1.09834e+09,1.22608e+06,-0.0812553,0.471168,-0,0.478123,-10377.9,-40000,-0,41324.3,1.22608e+06
step02_gravity_refstate-crust.xmf,19,-1.3512e-05,2.14951e-05,0,2.09143e-05,-1.09931e+09,-1.09691e+09,-1.09838e+09,1.43472e+06,-0.0915281,0.515538,-0,0.5236,-9591.69,-40000,-0,41133.9,1.43472e+06
step02_gravity_refstate-crust.xmf,20,-1.42649e-05,2.11484e-05,0,2.44395e-05,-1.09941e+09,-1.09698e+09,-1.09843e+09,1.67655e+06,-0.101907,0.562695,-0,0.571848,-8843.14,-40000,-0,40965.9,1.67655e+06
step02_gravity_refstate-crust.xmf,21,-1.48492e-05,2.03824e-05,0,2.85379e-05,-1.0995e+09,-1.09709e+09,-1.09848e+09,1.9577e+06,-0.112265,0.612806,-0,0.623004,-8130.43,-40000,-0,40817.9,1.9577e+06
step02_gravity_refstate-crust.xmf,22,-9.91498e-06,2.04801e-05,0,1.09591e-05,-1.09895e+09,-1.09687e+09,-1.09827e+09,751794,-0.0519211,0.353428,-0,0.357221,-12982.1,-40000,-0,42054,751794
step02_gravity_refstate-crust.xmf,23,-8.13355e-06,1.94076e-05,0,7.59846e-06,-1.0988e+09,-1.09691e+09,-1.09824e+09,521254,-0.0342396,0.286764,-0,0.288801,-14944.2,-40000,-0,42700.4,521254
step02_gravity_refstate-crust.xmf,24,-9.00787e-06,1.99435e-05,0,9.18781e-06,-1.09887e+09,-1.09689e+09,-1.09825e+09,630284,-0.0428543,0.318964,-0,0.32183,-13939,-40000,-0,42359.1,630284
step02_gravity_refstate-crust.xmf,25,-1.39961e-05,1.33474e-05,0,4.53457e-05,-1.09971e+09,-1.09783e+09,-1.09875e+09,3.11072e+06,-0.141018,0.782717,-0,0.795319,-6190.26,-40000,-0,40476.2,3.11072e+06
step02_gravity_refstate-crust.xmf,26,-1.48922e-05,1.64676e-05,0,3.88605e-05,-1.09967e+09,-1.09752e+09,-1.09865e+09,2.66583e+06,-0.132125,0.722636,-0,0.734616,-6805.63,-40000,-0,40574.8,2.66583e+06
step02_gravity_refstate-crust.xmf,27,-1.51341e-05,1.90087e-05,0,3.33209e-05,-1.09959e+09,-1.09725e+09,-1.09856e+09,2.28581e+06,-0.122424,0.666057,-0,0.677214,-7451.82,-40000,-0,40688.2,2.28581e+06
step02_gravity_refstate-crust.xmf,28,-1.18433e-05,8.16308e-06,0,5.28078e-05,-1.09969e+09,-1.09832e+09,-1.09888e+09,3.62261e+06,-0.148586,0.846425,-0,0.859368,-5604.1,-40000,-0,40390.7,3.62261e+06
step02_gravity_refstate-crust.xmf,29,-7.81131e-06,4.59539e-07,0,6.135e-05,-1.09957e+09,-1.099e+09,-1.09903e+09,4.20861e+06,-0.154085,0.91378,-0,0.92668,-5045.52,-40000,-0,40317,4.20861e+06
step02_gravity_refstate-crust.xmf,30,4.81393e-08,-1.21495e-05,0,7.13003e-05,-1.09923e+09,-1.10007e+09,-1.09923e+09,4.8912e+06,-0.156359,0.984615,-0,0.996953,-4512.49,-40000,-0,40253.7,4.8912e+06
step02_gravity_refstate-crust.xmf,31,2.58926e-05,-3.01611e-05,0,8.82424e-05,-1.09713e+09,-1.10097e+09,-1.0989e+09,6.05343e+06,-0.152253,1.05787,-0,1.06877,-4000,-40000,-0,40199.5,6.05343e+06
step02_gravity_refstate-crust.xmf,32,1.60561e-05,-2.36721e-05,0,-7.34801e-05,-1.09794e+09,-1.10067e+09,-1.09904e+09,-5.04074e+06,0.152219,1.05789,0,1.06879,4000,-40000,0,40199.5,5.04074e+06
step02_gravity_refstate-crust.xmf,33,-7.05405e-07,-1.04788e-05,0,-6.96969e-05,-1.09924e+09,-1.09991e+09,-1.0992e+09,-4.78121e+06,0.156359,0.984614,0,0.996952,4512.49,-40000,0,40253.7,4.78121e+06
step02_gravity_refstate-crust.xmf,34,-7.85111e-06,4.17288e-07,0,-6.08008e-05,-1.09957e+09,-1.09901e+09,-1.09904e+09,-4.17093e+06,0.154087,0.913778,0,0.926678,5045.52,-40000,0,40317,4.17093e+06
step02_gravity_refstate-crust.xmf,35,-1.18222e-05,7.89802e-06,0,-5.25632e-05,-1.0997e+09,-1.09835e+09,-1.09889e+09,-3.60583e+06,0.148585,0.846426,0,0.859368,5604.1,-40000,0,40390.7,3.60583e+06
step02_gravity_refstate-crust.xmf,36,-1.39487e-05,1.30267e-05,0,-4.52532e-05,-1.09972e+09,-1.09787e+09,-1.09876e+09,-3.10437e+06,0.141018,0.782717,0,0.795319,6190.26,-40000,0,40476.2,3.10437e+06
step02_gravity_refstate-crust.xmf,37,1.87639e-06,9.02211e-06,0,1.29344e-08,-1.09813e+09,-1.09764e+09,-1.09826e+09,887.298,-9.00566e-20,0.0440372,-0,0.0440372,40000,-40000,0,56568.5,887.298
step02_gravity_refstate-crust.xmf,38,1.8005e-06,9.12543e-06,0,1.00358e-07,-1.09813e+09,-1.09763e+09,-1.09826e+09,6884.53,-0.00405719,0.0451305,-0,0.0453125,37792.8,-40000,0,55030,6884.53
step02_gravity_refstate-crust.xmf,39,-1.4893e-05,1.64702e-05,0,-3.8864e-05,-1.09967e+09,-1.09752e+09,-1.09865e+09,-2.66607e+06,0.132125,0.722637,0,0.734616,6805.63,-40000,0,40574.8,2.66607e+06
step02_gravity_refstate-crust.xmf,40,1.59617e-06,9.3773e-06,0,1.62338e-07,-1.09814e+09,-1.09761e+09,-1.09825e+09,11136.4,-0.00763071,0.0482602,-0,0.0488597,35691.6,-40000,0,53608.7,11136.4
step02_gravity_refstate-crust.xmf,41,-1.50953e-05,1.8726e-05,0,-3.33385e-05,-1.0996e+09,-1.09728e+09,-1.09857e+09,-2.28702e+06,0.122424,0.666057,0,0.677215,7451.82,-40000,0,40688.2,2.28702e+06
step02_gravity_refstate-crust.xmf,42,1.28088e-06,9.77633e-06,0,1.912e-07,-1.09816e+09,-1.09758e+09,-1.09825e+09,13116.3,-0.0105137,0.0532607,-0,0.0542885,33691.1,-40000,0,52298.1,13116.3
step02_gravity_refstate-crust.xmf,43,-1.4805e-05,2.01314e-05,0,-2.85782e-05,-1.09951e+09,-1.09711e+09,-1.09849e+09,-1.96047e+06,0.112265,0.612806,0,0.623005,8130.43,-40000,0,40817.9,1.96047e+06
step02_gravity_refstate-crust.xmf,44,-1.42201e-05,2.09316e-05,0,-2.44916e-05,-1.09941e+09,-1.097e+09,-1.09843e+09,-1.68012e+06,0.101908,0.562695,0,0.571849,8843.14,-40000,0,40965.9,1.68012e+06
step02_gravity_refstate-crust.xmf,45,8.66179e-07,1.02871e-05,0,1.67708e-07,-1.09819e+09,-1.09754e+09,-1.09825e+09,11504.8,-0.0125662,0.0600511,-0,0.0613518,31786.7,-40000,0,51092,11504.8
step02_gravity_refstate-crust.xmf,46,-1.34687e-05,2.13078e-05,0,-2.09666e-05,-1.09931e+09,-1.09692e+09,-1.09839e+09,-1.43831e+06,0.091528,0.515539,0,0.5236,9591.69,-40000,0,41133.9,1.43831e+06
step02_gravity_refstate-crust.xmf,47,3.65826e-07,1.08846e-05,0,7.46391e-08,-1.09822e+09,-1.09749e+09,-1.09824e+09,5120.24,-0.0136922,0.0685997,-0,0.0699528,29973.6,-40000,0,49984.2,5120.24
step02_gravity_refstate-crust.xmf,48,-1.26273e-05,2.13777e-05,0,-1.79257e-05,-1.09921e+09,-1.09688e+09,-1.09835e+09,-1.2297e+06,0.0812563,0.471168,0,0.478123,10377.9,-40000,0,41324.3,1.2297e+06
step02_gravity_refstate-crust.xmf,49,-1.17362e-05,2.12295e-05,0,-1.52778e-05,-1.09912e+09,-1.09686e+09,-1.09832e+09,-1.04806e+06,0.0711813,0.429436,0,0.435295,11203.7,-40000,0,41539.4,1.04806e+06
step02_gravity_refstate-crust.xmf,50,-2.00548e-07,1.15638e-05,0,-8.83799e-08,-1.09825e+09,-1.09744e+09,-1.09824e+09,-6062.86,-0.0138374,0.0789085,-0,0.0801126,28247.5,-40000,0,48968.6,6062.86
step02_gravity_refstate-crust.xmf,51,-1.08311e-05,2.09192e-05,0,-1.29803e-05,-1.09903e+09,-1.09686e+09,-1.09829e+09,-890447,0.0613846,0.390225,0,0.395023,12071.1,-40000,0,41781.7,890447
step02_gravity_refstate-crust.xmf,52,-8.41244e-07,1.23087e-05,0,-3.30879e-07,-1.09829e+09,-1.09739e+09,-1.09823e+09,-22698.3,-0.0129898,0.090998,-0,0.0919204,26604.2,-40000,0,48039.4,22698.3
step02_gravity_refstate-crust.xmf,53,-1.52865e-06,1.30914e-05,0,-6.69525e-07,-1.09833e+09,-1.09733e+09,-1.09823e+09,-45929.4,-0.0111431,0.104906,-0,0.105496,25039.7,-40000,0,47191,45929.4
step02_gravity_refstate-crust.xmf,54,-9.91646e-06,2.04795e-05,0,-1.09579e-05,-1.09895e+09,-1.09687e+09,-1.09827e+09,-751714,0.0519212,0.353428,0,0.357221,12982.1,-40000,0,42054,751714
step02_gravity_refstate-crust.xmf,55,-9.00942e-06,1.99422e-05,0,-9.18864e-06,-1.09887e+09,-1.09689e+09,-1.09826e+09,-630341,0.0428546,0.318964,0,0.32183,13939,-40000,0,42359.1,630341
step02_gravity_refstate-crust.xmf,56,-8.11029e-06,1.93253e-05,0,-7.63014e-06,-1.0988e+09,-1.09692e+09,-1.09824e+09,-523428,0.034239,0.286764,0,0.288801,14944.2,-40000,0,42700.4,523428
step02_gravity_refstate-crust.xmf,57,-2.26316e-06,1.39061e-05,0,-1.10464e-06,-1.09838e+09,-1.09727e+09,-1.09822e+09,-75778,-0.00832834,0.120673,-0,0.12096,23550.3,-40000,0,46417.8,75778
step02_gravity_refstate-crust.xmf,58,-7.22313e-06,1.8645e-05,0,-6.26362e-06,-1.09873e+09,-1.09696e+09,-1.09823e+09,-429684,0.0261354,0.256773,0,0.2581,15999.9,-40000,0,43081.3,429684
step02_gravity_refstate-crust.xmf,59,-3.03358e-06,1.47376e-05,0,-1.64473e-06,-1.09843e+09,-1.09721e+09,-1.09822e+09,-112828,-0.00458312,0.138344,-0,0.13842,22132.3,-40000,0,45714.8,112828
step02_gravity_refstate-crust.xmf,60,-3.83416e-06,1.55732e-05,0,-2.2979e-06,-1.09848e+09,-1.09715e+09,-1.09822e+09,-157636,4.17677e-05,0.157963,0,0.157963,20782.4,-40000,0,45076.7,157636
step02_gravity_refstate-crust.xmf,61,-4.65905e-06,1.63951e-05,0,-3.07821e-06,-1.09854e+09,-1.0971e+09,-1.09822e+09,-211165,0.00548911,0.179575,0,0.179659,19497.2,-40000,0,44498.8,211165
step02_gravity_refstate-crust.xmf,62,-5.50551e-06,1.71987e-05,0,-3.98625e-06,-1.0986e+09,-1.09704e+09,-1.09822e+09,-273457,0.0116959,0.203219,0,0.203556,18273.7,-40000,0,43976.5,273457
step02_gravity_refstate-crust.xmf,63,-6.36919e-06,1.79789e-05,0,-5.02976e-06,-1.09866e+09,-1.09699e+09,-1.09823e+09,-345042,0.0185987,0.228938,0,0.229692,17108.9,-40000,0,43505.3,345042
step02_gravity_refstate-crust.xmf,64,-7.44546e-06,2.81488e-06,0,-2.61355e-08,-707706,-3846.93,-196948,-1792.89,-2.74073e-18,0.296325,-0,0.296325,-40000,0,-0,40000,1792.89
step02_gravity_refstate-crust.xmf,65,-6.14783e-06,2.59519e-06,0,2.31672e-07,-5.98672e+07,-5.92674e+07,-5.94455e+07,15892.7,-0.0132691,0.292145,-0,0.292447,-37854.5,-2158.67,-0,37916,15892.7
step02_gravity_refstate-crust.xmf,66,-7.37128e-06,2.79852e-06,0,-2.86008e-08,-700159,-2510.76,-194489,-1962.01,-0.0232041,0.29971,-0,0.300607,-36899.5,0,-0,36899.5,1962.01
step02_gravity_refstate-crust.xmf,67,-5.73842e-06,2.55755e-06,0,-1.06725e-08,-8.36079e+07,-8.30388e+07,-8.32143e+07,-732.136,-2.27252e-18,0.288178,-0,0.288178,-40000,-3024.57,-0,40114.2,732.136
step02_gravity_refstate-crust.xmf,68,-5.58244e-06,2.45752e-06,0,6.46603e-07,-7.92033e+07,-7.86518e+07,-7.88203e+07,44357,-0.0262619,0.296294,-0,0.297456,-35431.4,-2864.69,-0,35547,44357
step02_gravity_refstate-crust.xmf,69,-5.06341e-06,2.58381e-06,0,4.3628e-07,-1.25129e+08,-1.24605e+08,-1.24782e+08,29928.8,-0.0112322,0.286062,-0,0.286283,-37804,-4538.96,-0,38075.6,29928.8
step02_gravity_refstate-crust.xmf,70,-4.45854e-06,2.66072e-06,0,1.02426e-06,-1.64283e+08,-1.63794e+08,-1.63977e+08,70264.2,-0.01964,0.287407,-0,0.288077,-35726.1,-5966.96,-0,36220.9,70264.2
step02_gravity_refstate-crust.xmf,71,-4.45301e-06,2.43012e-06,0,1.40764e-06,-1.38857e+08,-1.38385e+08,-1.38551e+08,96564.4,-0.031587,0.299364,-0,0.301026,-33393.4,-5040.97,-0,33771.8,96564.4
step02_gravity_refstate-crust.xmf,72,-6.87978e-06,2.60756e-06,0,-3.02729e-09,-653659,-2827.86,-181706,-207.672,-0.0446245,0.309308,-0,0.312511,-33894,0,-0,33894,207.672
step02_gravity_refstate-crust.xmf,73,-4.65159e-06,2.73941e-06,0,-6.8183e-09,-1.63735e+08,-1.63228e+08,-1.63416e+08,-467.735,-1.88097e-18,0.280448,-0,0.280448,-40000,-5946.36,-0,40439.6,467.735
step02_gravity_refstate-crust.xmf,74,-3.78736e-06,2.87369e-06,0,1.83029e-06,-2.15071e+08,-2.14614e+08,-2.14811e+08,125558,-0.0258014,0.290642,-0,0.291785,-33669.4,-7818.99,-0,34565.4,125558
step02_gravity_refstate-crust.xmf,75,-4.25924e-06,2.91408e-06,0,6.11151e-07,-2.00111e+08,-1.99619e+08,-1.99819e+08,41924.9,-0.00941726,0.278539,-0,0.278698,-37812.2,-7272.53,-0,38505.2,41924.9
step02_gravity_refstate-crust.xmf,76,-3.79959e-06,2.53076e-06,0,2.08289e-06,-1.80621e+08,-1.80186e+08,-1.8036e+08,142886,-0.0347672,0.304083,-0,0.306064,-31844.7,-6564.22,-0,32514.2,142886
step02_gravity_refstate-crust.xmf,77,-5.18997e-06,2.24984e-06,0,9.08252e-07,-6.87681e+07,-6.82577e+07,-6.84121e+07,62306.1,-0.0438828,0.310701,-0,0.313785,-32361.2,-2486.06,-0,32456.6,62306.1
step02_gravity_refstate-crust.xmf,78,-3.36757e-06,2.85737e-06,0,2.71917e-06,-2.34551e+08,-2.34124e+08,-2.3432e+08,186535,-0.0343079,0.303924,-0,0.305855,-31046,-8529.85,-0,32196.4,186535
step02_gravity_refstate-crust.xmf,79,-3.93144e-06,3.04416e-06,0,1.26082e-06,-2.26433e+08,-2.25954e+08,-2.26163e+08,86492,-0.0171546,0.280758,-0,0.281282,-35780.2,-8232.32,-0,36715,86492
step02_gravity_refstate-crust.xmf,80,-3.38281e-06,3.3934e-06,0,2.5478e-06,-2.83712e+08,-2.83247e+08,-2.8348e+08,174779,-0.0273407,0.288845,-0,0.290137,-32545.2,-10320.4,-0,34142.4,174779
step02_gravity_refstate-crust.xmf,81,-4.06835e-06,2.20277e-06,0,1.79947e-06,-1.27914e+08,-1.27483e+08,-1.27634e+08,123444,-0.0435393,0.315089,-0,0.318083,-30831.7,-4643.77,-0,31179.5,123444
step02_gravity_refstate-crust.xmf,82,-6.06633e-06,2.30019e-06,0,2.73215e-10,-576332,-2389.12,-160182,18.7425,-0.0635505,0.324279,-0,0.330447,-30975.9,0,-0,30975.9,18.7425
step02_gravity_refstate-crust.xmf,83,-3.31676e-06,2.36176e-06,0,2.70777e-06,-1.85749e+08,-1.85359e+08,-1.85521e+08,185753,-0.0427814,0.319903,-0,0.322751,-29480.9,-6752.61,-0,30244.4,185753
step02_gravity_refstate-crust.xmf,84,-2.81213e-06,2.72918e-06,0,3.7199e-06,-2.52404e+08,-2.52024e+08,-2.52212e+08,255185,-0.042435,0.324866,-0,0.327625,-28121.5,-9181.89,-0,29582.5,255185
step02_gravity_refstate-crust.xmf,85,-3.06558e-06,3.29276e-06,0,3.40933e-06,-2.91319e+08,-2.90883e+08,-2.91109e+08,233880,-0.0351293,0.304534,-0,0.306554,-30079.2,-10598.5,-0,31891.8,233880
step02_gravity_refstate-crust.xmf,86,-2.80536e-06,3.27371e-06,0,4.06534e-06,-3.0503e+08,-3.04613e+08,-3.04838e+08,278883,-0.0399119,0.317334,-0,0.319834,-28323.7,-11098.6,-0,30420.6,278883
step02_gravity_refstate-crust.xmf,87,-2.94829e-06,3.8496e-06,0,4.05518e-06,-3.49871e+08,-3.49405e+08,-3.49669e+08,278185,-0.0365438,0.303845,-0,0.306035,-29214.9,-12731.4,-0,31868.5,278185
step02_gravity_refstate-crust.xmf,88,-4.01066e-06,3.22178e-06,0,-6.1354e-09,-2.4128e+08,-2.40783e+08,-2.41005e+08,-420.889,-1.82585e-18,0.272034,-0,0.272034,-40000,-8772.79,-0,40950.7,420.889
step02_gravity_refstate-crust.xmf,89,-3.60838e-06,3.46683e-06,0,1.7398e-06,-2.79626e+08,-2.79141e+08,-2.79379e+08,119351,-0.0191833,0.277732,-0,0.278393,-34890.5,-10170.8,-0,36342.7,119351
step02_gravity_refstate-crust.xmf,90,-3.74711e-06,3.52788e-06,0,8.25055e-07,-2.79687e+08,-2.79188e+08,-2.7943e+08,56598.8,-0.00923051,0.269652,-0,0.26981,-37572.1,-10172.6,-0,38924.8,56598.8
step02_gravity_refstate-crust.xmf,91,-4.47627e-06,1.96331e-06,0,1.1701e-06,-6.59116e+07,-6.54699e+07,-6.56046e+07,80268.8,-0.0578324,0.328541,-0,0.333592,-29564.5,-2384.51,-0,29660.5,80268.8
step02_gravity_refstate-crust.xmf,92,-2.68893e-06,3.7059e-06,0,4.78164e-06,-3.55331e+08,-3.54892e+08,-3.55146e+08,328021,-0.0420806,0.321022,-0,0.323768,-27238.5,-12931,-0,30152,328021
step02_gravity_refstate-crust.xmf,93,-3.19833e-06,3.95449e-06,0,3.20757e-06,-3.43627e+08,-3.43137e+08,-3.43408e+08,220039,-0.0296675,0.287644,-0,0.28917,-31465.8,-12503.3,-0,33858.9,220039
step02_gravity_refstate-crust.xmf,94,-3.39691e-06,4.02382e-06,0,2.32067e-06,-3.38877e+08,-3.38368e+08,-3.38644e+08,159198,-0.0219414,0.274516,-0,0.275391,-33815.4,-12329.7,-0,35993.1,159198
step02_gravity_refstate-crust.xmf,95,-3.38141e-06,1.92481e-06,0,2.2806e-06,-1.28239e+08,-1.27875e+08,-1.28007e+08,156449,-0.0534307,0.334883,-0,0.339119,-28163.6,-4657.96,-0,28546.2,156449
step02_gravity_refstate-crust.xmf,96,-4.99423e-06,1.89266e-06,0,7.32088e-09,-474520,-2079.9,-131916,502.213,-0.0792981,0.343664,-0,0.352694,-28137.7,0,-0,28137.7,502.213
step02_gravity_refstate-crust.xmf,97,-2.45505e-06,3.04736e-06,0,4.66465e-06,-3.04913e+08,-3.04535e+08,-3.04744e+08,319995,-0.0449663,0.335442,-0,0.338442,-26402.5,-11095.4,-0,28639.1,319995
step02_gravity_refstate-crust.xmf,98,-2.66248e-06,2.09172e-06,0,3.36792e-06,-1.90059e+08,-1.89732e+08,-1.89876e+08,231040,-0.0503812,0.342146,-0,0.345835,-26810.4,-6911.74,-0,27687,231040
step02_gravity_refstate-crust.xmf,99,-2.93548e-06,4.43466e-06,0,4.70268e-06,-4.06038e+08,-4.05532e+08,-4.05837e+08,322604,-0.0392745,0.304162,-0,0.306687,-28221.8,-14777.2,-0,31856.5,322604
step02_gravity_refstate-crust.xmf,100,-3.14886e-06,4.57771e-06,0,3.83e-06,-4.0189e+08,-4.0136e+08,-4.01674e+08,262738,-0.032553,0.286152,-0,0.287997,-30421.4,-14625.5,-0,33754.5,262738
step02_gravity_refstate-crust.xmf,101,-3.66847e-06,3.89961e-06,0,-2.58123e-09,-3.16429e+08,-3.1591e+08,-3.16177e+08,-177.073,-1.56387e-18,0.262283,-0,0.262283,-40000,-11511.1,-0,41623.4,177.073
step02_gravity_refstate-crust.xmf,102,-3.54886e-06,4.00198e-06,0,1.53378e-06,-3.30107e+08,-3.29589e+08,-3.29864e+08,105217,-0.0148669,0.267215,-0,0.267629,-35878.3,-12009.7,-0,37835,105217
step02_gravity_refstate-crust.xmf,103,-3.51675e-06,1.59022e-06,0,1.43065e-06,-6.54789e+07,-6.51285e+07,-6.52376e+07,98142.3,-0.0690145,0.350557,-0,0.357285,-26784,-2372.06,-0,26888.8,98142.3
step02_gravity_refstate-crust.xmf,104,-2.21877e-06,2.37322e-06,0,4.39188e-06,-2.50088e+08,-2.49773e+08,-2.49936e+08,301283,-0.0492116,0.350214,-0,0.353655,-25474.8,-9099.41,-0,27051.2,301283
step02_gravity_refstate-crust.xmf,105,-2.32498e-06,3.43414e-06,0,5.4897e-06,-3.57432e+08,-3.57037e+08,-3.57273e+08,376593,-0.0472716,0.342232,-0,0.345482,-25164.7,-13008.6,-0,28328.1,376593
step02_gravity_refstate-crust.xmf,106,-2.67242e-06,4.18862e-06,0,5.52699e-06,-4.087e+08,-4.0823e+08,-4.08517e+08,379152,-0.0452476,0.32495,-0,0.328086,-26103.3,-14874.8,-0,30044,379152
step02_gravity_refstate-crust.xmf,107,-3.01078e-06,5.02755e-06,0,5.36655e-06,-4.60408e+08,-4.59857e+08,-4.60201e+08,368146,-0.0430964,0.305701,-0,0.308723,-27108.7,-16757.2,-0,31869.9,368146
step02_gravity_refstate-crust.xmf,108,-2.73144e-06,4.69334e-06,0,6.20816e-06,-4.5898e+08,-4.58471e+08,-4.58793e+08,425880,-0.04916,0.329337,-0,0.332985,-24987.8,-16705.9,-0,30057.8,425880
step02_gravity_refstate-crust.xmf,109,-3.30813e-06,4.65564e-06,0,2.90392e-06,-3.97372e+08,-3.96826e+08,-3.97145e+08,199209,-0.0250903,0.271196,-0,0.272354,-32729,-14460.5,-0,35781.2,199209
step02_gravity_refstate-crust.xmf,110,-3.54247e-06,4.31595e-06,0,8.57916e-07,-3.5668e+08,-3.56141e+08,-3.56437e+08,58853,-0.00797839,0.258294,-0,0.258417,-37764.7,-12977.6,-0,39932.3,58853
step02_gravity_refstate-crust.xmf,111,-3.44869e-06,4.71901e-06,0,1.85951e-06,-3.95538e+08,-3.94978e+08,-3.95302e+08,127562,-0.0162022,0.258692,-0,0.259199,-35358.8,-14393.3,-0,38176.1,127562
step02_gravity_refstate-crust.xmf,112,-2.52249e-06,1.57378e-06,0,2.72621e-06,-1.29232e+08,-1.28951e+08,-1.29059e+08,187018,-0.0612559,0.358917,-0,0.364106,-25462.1,-4697.04,-0,25891.7,187018
step02_gravity_refstate-crust.xmf,113,-3.69631e-06,1.39918e-06,0,1.6727e-08,-351269,-1718.19,-97701.8,1147.47,-0.0913823,0.366467,-0,0.377688,-25371.6,0,-0,25371.6,1147.47
step02_gravity_refstate-crust.xmf,114,-1.97544e-06,2.72775e-06,0,5.30732e-06,-3.065e+08,-3.06177e+08,-3.06364e+08,364082,-0.0497869,0.358469,-0,0.36191,-24209.8,-11154.7,-0,26656,364082
step02_gravity_refstate-crust.xmf,115,-1.91396e-06,1.74347e-06,0,3.91041e-06,-1.91977e+08,-1.91726e+08,-1.91845e+08,268254,-0.0561071,0.367472,-0,0.37173,-24227.7,-6984.06,-0,25214.2,268254
step02_gravity_refstate-crust.xmf,116,-2.30462e-06,3.8204e-06,0,6.27158e-06,-4.09135e+08,-4.08715e+08,-4.08977e+08,430230,-0.0504376,0.348506,-0,0.352137,-24020.7,-14891.6,-0,28262.2,430230
step02_gravity_refstate-crust.xmf,117,-3.10681e-06,5.56718e-06,0,6.00016e-06,-5.08836e+08,-5.08241e+08,-5.08623e+08,411611,-0.047576,0.309047,-0,0.312687,-25938.8,-18520.7,-0,31872.2,411611
step02_gravity_refstate-crust.xmf,118,-3.1951e-06,5.23325e-06,0,4.42301e-06,-4.58325e+08,-4.57747e+08,-4.58106e+08,303418,-0.036076,0.284735,-0,0.287011,-29361.5,-16681,-0,33769.1,303418
step02_gravity_refstate-crust.xmf,119,-3.3175e-06,5.32931e-06,0,3.48014e-06,-4.54802e+08,-4.54209e+08,-4.54575e+08,238737,-0.0287498,0.267977,-0,0.269515,-31603.4,-16552.4,-0,35675.7,238737
step02_gravity_refstate-crust.xmf,120,-3.51962e-06,4.69787e-06,0,-1.41016e-09,-3.8937e+08,-3.88806e+08,-3.89129e+08,-96.7373,-1.48455e-18,0.25086,-0,0.25086,-40000,-14168.4,-0,42435.2,96.7373
step02_gravity_refstate-crust.xmf,121,-2.39217e-06,1.15777e-06,0,1.67462e-06,-6.63439e+07,-6.61003e+07,-6.61798e+07,114879,-0.0767598,0.375346,-0,0.383114,-24091.4,-2407.43,-0,24211.4,114879
step02_gravity_refstate-crust.xmf,122,-1.57665e-06,2.00531e-06,0,4.95295e-06,-2.51992e+08,-2.51746e+08,-2.51884e+08,339773,-0.0536401,0.375701,-0,0.379511,-23089.6,-9170.75,-0,24844.1,339773
step02_gravity_refstate-crust.xmf,123,-2.3556e-06,4.24524e-06,0,6.98992e-06,-4.58703e+08,-4.5825e+08,-4.58542e+08,479508,-0.0544003,0.354879,-0,0.359024,-22924.2,-16696.6,-0,28360.1,479508
step02_gravity_refstate-crust.xmf,124,-1.86019e-06,3.05129e-06,0,6.15267e-06,-3.59389e+08,-3.59052e+08,-3.59262e+08,422073,-0.0517493,0.366621,-0,0.370255,-23028.9,-13081.1,-0,26484.8,422073
step02_gravity_refstate-crust.xmf,125,-3.33155e-06,5.9608e-06,0,5.04203e-06,-5.1782e+08,-5.17182e+08,-5.17591e+08,345883,-0.0405205,0.28355,-0,0.286431,-28171.7,-18847.5,-0,33895,345883
step02_gravity_refstate-crust.xmf,126,-2.82144e-06,5.14226e-06,0,6.88276e-06,-5.06395e+08,-5.05848e+08,-5.06201e+08,472157,-0.0536987,0.33468,-0,0.33896,-23860.7,-18432.4,-0,30151.1,472157
step02_gravity_refstate-crust.xmf,127,-3.39112e-06,5.37029e-06,0,2.58189e-06,-4.51541e+08,-4.5094e+08,-4.51308e+08,177117,-0.0215371,0.255638,-0,0.256544,-33750.9,-16433.4,-0,37539.1,177117
step02_gravity_refstate-crust.xmf,128,-3.46618e-06,5.14124e-06,0,8.91783e-07,-4.27703e+08,-4.27112e+08,-4.27465e+08,61176.3,-0.00761518,0.245972,-0,0.24609,-37813.1,-15564.9,-0,40891.3,61176.3
step02_gravity_refstate-crust.xmf,129,-1.57217e-06,1.19228e-06,0,3.13518e-06,-1.32968e+08,-1.32779e+08,-1.32861e+08,215074,-0.0659152,0.38462,-0,0.390227,-22899.5,-4836.33,-0,23404.7,215074
step02_gravity_refstate-crust.xmf,130,-2.21316e-06,8.36684e-07,0,2.91233e-08,-210367,-1147.7,-58544.2,1997.86,-0.0994457,0.391654,-0,0.404082,-22669.8,0,-0,22669.8,1997.86
step02_gravity_refstate-crust.xmf,131,-1.39944e-06,2.30864e-06,0,5.8652e-06,-3.08015e+08,-3.0776e+08,-3.07919e+08,402353,-0.0534888,0.383988,-0,0.387695,-22000.9,-11211.5,-0,24692.8,402353
step02_gravity_refstate-crust.xmf,132,-1.11197e-06,1.37435e-06,0,4.39212e-06,-1.97791e+08,-1.9762e+08,-1.97714e+08,301300,-0.0592408,0.393715,-0,0.398147,-21790.9,-7198.4,-0,22949.1,301300
step02_gravity_refstate-crust.xmf,133,-1.83894e-06,3.33716e-06,0,6.94267e-06,-4.09946e+08,-4.09591e+08,-4.0982e+08,476267,-0.05474,0.374178,-0,0.378161,-21954.6,-14922.2,-0,26545.8,476267
step02_gravity_refstate-crust.xmf,134,-3.41851e-06,6.38583e-06,0,5.71838e-06,-5.55781e+08,-5.55109e+08,-5.55547e+08,392281,-0.0458998,0.290039,-0,0.293649,-26724.1,-20229.8,-0,33517.5,392281
step02_gravity_refstate-crust.xmf,135,-3.2593e-06,6.06719e-06,0,6.62126e-06,-5.53631e+08,-5.52991e+08,-5.53407e+08,454218,-0.0523593,0.31341,-0,0.317754,-24779.7,-20151.7,-0,31939.4,454218
step02_gravity_refstate-crust.xmf,136,-3.40254e-06,6.03806e-06,0,3.9963e-06,-5.11376e+08,-5.10728e+08,-5.11142e+08,274146,-0.0325251,0.264166,-0,0.266161,-30534.3,-18612.7,-0,35760,274146
step02_gravity_refstate-crust.xmf,137,-3.44921e-06,5.62323e-06,0,1.70799e-06,-4.6848e+08,-4.67857e+08,-4.68243e+08,117168,-0.0142223,0.243049,-0,0.243465,-35884.2,-17050.2,-0,39728.9,117168
step02_gravity_refstate-crust.xmf,138,-3.43211e-06,6.04006e-06,0,3.07767e-06,-5.05715e+08,-5.05065e+08,-5.0548e+08,211128,-0.0252621,0.250557,-0,0.251827,-32659.5,-18406.5,-0,37489.2,211128
step02_gravity_refstate-crust.xmf,139,-3.46507e-06,5.54499e-06,0,2.27448e-10,-4.60287e+08,-4.59669e+08,-4.6005e+08,15.6029,-1.36195e-18,0.237631,-0,0.237631,-40000,-16751.8,-0,43366.1,15.6029
step02_gravity_refstate-crust.xmf,140,-2.44049e-06,4.59639e-06,0,7.69533e-06,-5.04637e+08,-5.04154e+08,-5.04469e+08,527900,-0.0589442,0.362057,-0,0.366824,-21846,-18369.1,-0,28542.4,527900
step02_gravity_refstate-crust.xmf,141,-2.96034e-06,5.56123e-06,0,7.55478e-06,-5.50914e+08,-5.5033e+08,-5.50711e+08,518258,-0.0586606,0.341095,-0,0.346102,-22733.4,-20053.2,-0,30314,518258
step02_gravity_refstate-crust.xmf,142,-1.13579e-06,6.82348e-07,0,1.94861e-06,-7.02967e+07,-7.0172e+07,-7.02188e+07,133674,-0.0804627,0.40219,-0,0.41016,-21444.1,-2555.68,-0,21595.9,133674
step02_gravity_refstate-crust.xmf,143,-9.33189e-07,1.6329e-06,0,5.41251e-06,-2.57598e+08,-2.57421e+08,-2.57534e+08,371298,-0.0560637,0.400206,-0,0.404114,-20950.4,-9376.85,-0,22953.1,371298
step02_gravity_refstate-crust.xmf,144,-1.8678e-06,3.65958e-06,0,7.67133e-06,-4.582e+08,-4.57821e+08,-4.58072e+08,526253,-0.0586089,0.381936,-0,0.386407,-20921.6,-16679.4,-0,26756.6,526253
step02_gravity_refstate-crust.xmf,145,-1.30475e-06,2.55103e-06,0,6.68699e-06,-3.59536e+08,-3.59272e+08,-3.59447e+08,458728,-0.0550385,0.392527,-0,0.396367,-20951.5,-13087.9,-0,24703.5,458728
step02_gravity_refstate-crust.xmf,146,-3.4888e-06,6.58537e-06,0,5.11459e-06,-5.61044e+08,-5.60353e+08,-5.60805e+08,350861,-0.041453,0.275091,-0,0.278197,-28028.5,-20421.4,-0,34679,350861
step02_gravity_refstate-crust.xmf,147,-3.44812e-06,6.05359e-06,0,2.32704e-06,-5.03971e+08,-5.03319e+08,-5.03734e+08,159635,-0.0192171,0.241437,-0,0.242201,-34420.8,-18343,-0,39003.3,159635
step02_gravity_refstate-crust.xmf,148,-3.44497e-06,6.00256e-06,0,8.42168e-07,-4.97903e+08,-4.97255e+08,-4.97667e+08,57772.7,-0.006998,0.231447,-0,0.231553,-37970.7,-18122,-0,42073.5,57772.7
step02_gravity_refstate-crust.xmf,149,-2.5489e-06,4.89975e-06,0,8.39936e-06,-5.47973e+08,-5.47462e+08,-5.47799e+08,576196,-0.0639115,0.370125,-0,0.375603,-20782.5,-19946.8,-0,28806,576196
step02_gravity_refstate-crust.xmf,150,-5.87996e-07,8.14837e-07,0,3.58956e-06,-1.43747e+08,-1.4365e+08,-1.43706e+08,246244,-0.0668982,0.411069,-0,0.416477,-20445.2,-5232.12,-0,21104,246244
step02_gravity_refstate-crust.xmf,151,-5.96216e-07,2.25976e-07,0,4.69935e-08,-56647.5,-245.087,-15747.1,3223.76,-0.103256,0.418166,-0,0.430726,-20024.7,0,-0,20024.7,3223.76
step02_gravity_refstate-crust.xmf,152,-7.94568e-07,1.83979e-06,0,6.26541e-06,-3.09226e+08,-3.09045e+08,-3.09172e+08,429807,-0.0556857,0.408824,-0,0.412599,-19984.7,-11257.3,-0,22937.2,429807
step02_gravity_refstate-crust.xmf,153,-3.78902e-07,1.0497e-06,0,4.88439e-06,-2.12455e+08,-2.12357e+08,-2.12429e+08,335069,-0.0595862,0.417793,-0,0.42202,-19660.4,-7734.73,-0,21127.2,335069
step02_gravity_refstate-crust.xmf,154,-1.25669e-06,2.70853e-06,0,7.49221e-06,-4.09581e+08,-4.09309e+08,-4.09495e+08,513966,-0.0578916,0.401564,-0,0.405716,-19910.9,-14910.3,-0,24874.9,513966
step02_gravity_refstate-crust.xmf,155,-3.54943e-06,6.78849e-06,0,4.43902e-06,-5.68503e+08,-5.67794e+08,-5.6826e+08,304517,-0.0362635,0.259298,-0,0.261821,-29516.9,-20693.1,-0,36047.9,304517
step02_gravity_refstate-crust.xmf,156,-3.09432e-06,5.8782e-06,0,8.29556e-06,-5.91413e+08,-5.90797e+08,-5.91201e+08,569075,-0.0642365,0.350918,-0,0.356749,-21485.3,-21527.6,-0,30414.7,569075
step02_gravity_refstate-crust.xmf,157,-3.65299e-06,7.15725e-06,0,5.24642e-06,-6.0016e+08,-5.99419e+08,-5.9991e+08,359905,-0.0429956,0.269047,-0,0.272461,-27662.2,-21845.7,-0,35248.1,359905
step02_gravity_refstate-crust.xmf,158,-3.61125e-06,6.94797e-06,0,6.15727e-06,-5.9819e+08,-5.97466e+08,-5.97943e+08,422389,-0.0497312,0.290368,-0,0.294596,-25800.1,-21773.9,-0,33760.1,422389
step02_gravity_refstate-crust.xmf,159,-3.50332e-06,6.63318e-06,0,7.21914e-06,-6.00932e+08,-6.00237e+08,-6.00692e+08,495233,-0.0572486,0.31663,-0,0.321764,-23699.1,-21873.6,-0,32250.6,495233
step02_gravity_refstate-crust.xmf,160,-3.51458e-06,6.7637e-06,0,3.43029e-06,-5.61478e+08,-5.60772e+08,-5.61236e+08,235318,-0.0282757,0.243234,-0,0.244872,-31788.1,-20437.4,-0,37791.1,235318
step02_gravity_refstate-crust.xmf,161,-3.45192e-06,6.5346e-06,0,1.6579e-06,-5.41308e+08,-5.40623e+08,-5.41071e+08,113732,-0.0137358,0.22655,-0,0.226966,-35994.8,-19703,-0,41034.6,113732
step02_gravity_refstate-crust.xmf,162,-3.48081e-06,6.67224e-06,0,2.56512e-06,-5.52807e+08,-5.52111e+08,-5.52569e+08,175967,-0.0212347,0.233113,-0,0.234078,-33814.8,-20121.8,-0,39348.7,175967
step02_gravity_refstate-crust.xmf,163,-3.43264e-06,6.3893e-06,0,1.55689e-09,-5.29364e+08,-5.28691e+08,-5.29129e+08,106.803,-1.24096e-18,0.222618,-0,0.222618,-40000,-19268,-0,44398.8,106.803
step02_gravity_refstate-crust.xmf,164,-1.9197e-06,3.89498e-06,0,8.40221e-06,-5.03739e+08,-5.0334e+08,-5.03607e+08,576392,-0.0631258,0.390412,-0,0.395482,-19905.9,-18337.4,-0,27064.8,576392
step02_gravity_refstate-crust.xmf,165,2.4793e-07,1.94473e-07,0,2.31343e-06,-8.14352e+07,-8.14389e+07,-8.14522e+07,158701,-0.0790142,0.432759,-0,0.439913,-18599.8,-2966.03,-0,18834.8,158701
step02_gravity_refstate-crust.xmf,166,-3.92151e-07,1.31934e-06,0,5.74692e-06,-2.654e+08,-2.65282e+08,-2.65373e+08,394239,-0.0569017,0.420651,-0,0.424482,-19236.8,-9662.6,-0,21527.2,394239
step02_gravity_refstate-crust.xmf,167,-1.25561e-06,2.92276e-06,0,8.23337e-06,-4.58108e+08,-4.57821e+08,-4.58022e+08,564809,-0.0616881,0.410246,-0,0.414858,-18949.7,-16677.3,-0,25243.3,564809
step02_gravity_refstate-crust.xmf,168,-6.5418e-07,1.93229e-06,0,7.03998e-06,-3.5654e+08,-3.56363e+08,-3.56496e+08,482943,-0.0569462,0.419232,-0,0.423082,-18935.4,-12980.6,-0,22957.4,482943
step02_gravity_refstate-crust.xmf,169,-2.69492e-06,5.18438e-06,0,9.10829e-06,-5.89831e+08,-5.8929e+08,-5.89646e+08,624829,-0.0691035,0.378339,-0,0.384598,-19778,-21470.5,-0,29191.6,624829
step02_gravity_refstate-crust.xmf,170,-3.41358e-06,6.80467e-06,0,7.62819e-07,-5.6368e+08,-5.62979e+08,-5.63446e+08,52329.4,-0.0063669,0.215846,-0,0.21594,-38130.2,-20518.1,-0,43300.2,52329.4
step02_gravity_refstate-crust.xmf,171,-2.00176e-06,4.09849e-06,0,9.13196e-06,-5.47294e+08,-5.46875e+08,-5.47156e+08,626452,-0.0680477,0.399063,-0,0.404823,-18946.1,-19923,-0,27493.3,626452
step02_gravity_refstate-crust.xmf,172,2.84478e-07,4.90094e-07,0,4.17928e-06,-1.66702e+08,-1.66688e+08,-1.66721e+08,286698,-0.0641479,0.436155,-0,0.440847,-18207.7,-6070.86,-0,19193.1,286698
step02_gravity_refstate-crust.xmf,173,1.06757e-06,-4.09025e-07,0,5.14343e-08,101245,-49.9274,28009.2,3528.39,-0.102716,0.444925,-0,0.456627,-17428.6,0,-0,17428.6,3528.39
step02_gravity_refstate-crust.xmf,174,-1.2678e-07,1.27987e-06,0,6.44287e-06,-3.04775e+08,-3.04679e+08,-3.04767e+08,441981,-0.0565728,0.433399,-0,0.437075,-18079.8,-11097.1,-0,21213.8,441981
step02_gravity_refstate-crust.xmf,175,3.08883e-07,7.62597e-07,0,5.55008e-06,-2.42942e+08,-2.42911e+08,-2.42964e+08,380736,-0.0578195,0.442784,-0,0.446543,-17508.7,-8846.99,-0,19616.9,380736
step02_gravity_refstate-crust.xmf,176,-5.04049e-07,1.88392e-06,0,7.89799e-06,-4.08452e+08,-4.08288e+08,-4.08417e+08,541802,-0.0597389,0.431756,-0,0.435869,-17762.5,-14871,-0,23165.8,541802
step02_gravity_refstate-crust.xmf,177,-3.33854e-06,6.28002e-06,0,8.90199e-06,-6.3092e+08,-6.3026e+08,-6.30691e+08,610677,-0.0689778,0.356463,-0,0.363076,-20586.5,-22965.5,-0,30841.8,610677
step02_gravity_refstate-crust.xmf,178,-3.61723e-06,7.50006e-06,0,3.74899e-06,-6.16961e+08,-6.16199e+08,-6.16713e+08,257181,-0.0313995,0.235782,-0,0.237864,-30836.2,-22458.1,-0,38147.5,257181
step02_gravity_refstate-crust.xmf,179,-3.60819e-06,6.87972e-06,0,7.98836e-06,-6.33448e+08,-6.32729e+08,-6.33201e+08,548001,-0.0632982,0.329564,-0,0.335588,-22247,-23057.4,-0,32040.2,548001
step02_gravity_refstate-crust.xmf,180,-3.72139e-06,7.68472e-06,0,4.55127e-06,-6.3168e+08,-6.30898e+08,-6.31425e+08,312217,-0.038095,0.247616,-0,0.250529,-28969.8,-22993.8,-0,36986,312217
step02_gravity_refstate-crust.xmf,181,-3.81033e-06,7.67938e-06,0,5.51237e-06,-6.36901e+08,-6.36113e+08,-6.3664e+08,378149,-0.0456459,0.266781,-0,0.270658,-26950.6,-23183.5,-0,35550.1,378149
step02_gravity_refstate-crust.xmf,182,-3.83978e-06,7.54951e-06,0,6.45736e-06,-6.39767e+08,-6.38985e+08,-6.39503e+08,442975,-0.0527391,0.288135,-0,0.292922,-25093.2,-23287.5,-0,34234.2,442975
step02_gravity_refstate-crust.xmf,183,-3.52689e-06,7.39766e-06,0,2.88171e-06,-6.09552e+08,-6.08803e+08,-6.0931e+08,197685,-0.0242353,0.223862,-0,0.22517,-32870,-22188.5,-0,39658.1,197685
step02_gravity_refstate-crust.xmf,184,-3.45489e-06,7.30364e-06,0,2.03038e-06,-6.03651e+08,-6.02913e+08,-6.03414e+08,139284,-0.0171165,0.214884,-0,0.215564,-34934.2,-21973.9,-0,41270.4,139284
step02_gravity_refstate-crust.xmf,185,-3.3626e-06,7.1867e-06,0,3.29438e-09,-5.96783e+08,-5.96059e+08,-5.96552e+08,225.994,-1.16308e-18,0.205948,-0,0.205948,-40000,-21724,-0,45518.5,225.994
step02_gravity_refstate-crust.xmf,186,-3.40169e-06,7.2314e-06,0,1.28718e-06,-5.99415e+08,-5.98685e+08,-5.99181e+08,88300.4,-0.0108444,0.209602,-0,0.209882,-36778.8,-21819.7,-0,42764.3,88300.4
step02_gravity_refstate-crust.xmf,187,-1.28674e-06,3.06224e-06,0,8.98563e-06,-5.0455e+08,-5.04252e+08,-5.04462e+08,616414,-0.0661632,0.418898,-0,0.424091,-18050.3,-18368.2,-0,25752.7,616414
step02_gravity_refstate-crust.xmf,188,-6.10011e-07,2.15029e-06,0,8.67367e-06,-4.62556e+08,-4.62367e+08,-4.62514e+08,595014,-0.0636731,0.436649,-0,0.441267,-17158.2,-16840.7,-0,24041.8,595014
step02_gravity_refstate-crust.xmf,189,-3.61956e-06,6.72875e-06,0,9.49063e-06,-6.69639e+08,-6.68929e+08,-6.69391e+08,651057,-0.0736335,0.361688,-0,0.369107,-19746.9,-24374.7,-0,31369.8,651057
step02_gravity_refstate-crust.xmf,190,-2.90857e-06,5.50001e-06,0,9.80125e-06,-6.30428e+08,-6.29851e+08,-6.30228e+08,672366,-0.0741741,0.385198,-0,0.392274,-18914.7,-22948.1,-0,29738.6,672366
step02_gravity_refstate-crust.xmf,191,-3.9322e-06,7.20521e-06,0,1.00642e-05,-7.06724e+08,-7.0596e+08,-7.06455e+08,690406,-0.0780294,0.366625,-0,0.374836,-18970.3,-25724.3,-0,31962.6,690406
step02_gravity_refstate-crust.xmf,192,-3.20528e-06,5.92091e-06,0,1.04262e-05,-6.6942e+08,-6.68794e+08,-6.692e+08,715234,-0.0788622,0.390032,-0,0.397925,-18211.5,-24367.1,-0,30420.6,715234
step02_gravity_refstate-crust.xmf,193,-2.12408e-06,4.29321e-06,0,9.88012e-06,-5.89771e+08,-5.89331e+08,-5.89625e+08,677776,-0.0732673,0.407647,-0,0.414179,-18050.3,-21469.2,-0,28048.9,677776
step02_gravity_refstate-crust.xmf,194,1.11203e-06,-3.41058e-08,0,3.38741e-06,-1.26638e+08,-1.26717e+08,-1.26714e+08,232376,-0.0686151,0.455887,-0,0.461022,-16513,-4614.83,-0,17145.7,232376
step02_gravity_refstate-crust.xmf,195,1.62757e-06,-4.24431e-07,0,1.86677e-06,-6.18931e+07,-6.20339e+07,-6.20048e+07,128060,-0.0813348,0.460659,-0,0.467784,-16025.4,-2259.21,-0,16183.9,128060
step02_gravity_refstate-crust.xmf,196,1.06375e-07,1.18075e-06,0,7.11031e-06,-3.4552e+08,-3.45446e+08,-3.45527e+08,487767,-0.0571784,0.446136,-0,0.449785,-16972.2,-12581.3,-0,21126.8,487767
step02_gravity_refstate-crust.xmf,197,-3.89736e-06,7.37511e-06,0,8.49576e-06,-6.71186e+08,-6.70412e+08,-6.70918e+08,582809,-0.0675446,0.333418,-0,0.340191,-21381,-24430.8,-0,32465.6,582809
step02_gravity_refstate-crust.xmf,198,-4.21689e-06,7.89975e-06,0,9.00264e-06,-7.08185e+08,-7.07353e+08,-7.07895e+08,617581,-0.0717118,0.337642,-0,0.345173,-20526.4,-25777.3,-0,32951.6,617581
step02_gravity_refstate-crust.xmf,199,-3.81458e-06,7.38781e-06,0,7.23495e-06,-6.43939e+08,-6.4317e+08,-6.43677e+08,496317,-0.0584343,0.306825,-0,0.312339,-23615,-23439.2,-0,33272.6,496317
step02_gravity_refstate-crust.xmf,200,-3.30883e-06,7.56955e-06,0,6.98744e-07,-6.30403e+08,-6.29657e+08,-6.30176e+08,47933.8,-0.00594243,0.19827,-0,0.198359,-38198.9,-22948.8,-0,44562.3,47933.8
step02_gravity_refstate-crust.xmf,201,-4.56822e-08,1.45404e-06,0,8.30069e-06,-4.2706e+08,-4.26957e+08,-4.27057e+08,569427,-0.0612987,0.450989,-0,0.455136,-16350.5,-15549.6,-0,22563.9,569427
step02_gravity_refstate-crust.xmf,202,-1.33408e-06,3.15991e-06,0,9.73824e-06,-5.4809e+08,-5.47781e+08,-5.47998e+08,668044,-0.0710254,0.427826,-0,0.433681,-17203,-19953.2,-0,26345.3,668044
step02_gravity_refstate-crust.xmf,203,-3.54595e-06,6.35771e-06,0,1.1058e-05,-7.06222e+08,-7.05542e+08,-7.05978e+08,758581,-0.0833619,0.39507,-0,0.403769,-17541.2,-25706.2,-0,31120.8,758581
step02_gravity_refstate-crust.xmf,204,9.90184e-07,1.60894e-07,0,4.65067e-06,-1.89909e+08,-1.89966e+08,-1.89977e+08,319036,-0.0604721,0.458858,-0,0.462825,-16239.8,-6918.09,-0,17651.9,319036
step02_gravity_refstate-crust.xmf,205,2.75902e-06,-1.045e-06,0,4.3639e-08,262170,1213.71,72900.7,2993.64,-0.0979026,0.470896,-0,0.480966,-14873.9,0,-0,14873.9,2993.64
step02_gravity_refstate-crust.xmf,206,6.08288e-07,6.50885e-07,0,6.40578e-06,-2.95912e+08,-2.95909e+08,-2.95953e+08,439437,-0.056112,0.457978,-0,0.461403,-16186.6,-10776.4,-0,19445.8,439437
step02_gravity_refstate-crust.xmf,207,3.21266e-07,9.70964e-07,0,7.79598e-06,-3.89368e+08,-3.89324e+08,-3.8939e+08,534804,-0.0588421,0.458598,-0,0.462357,-15935.2,-14178.1,-0,21329.6,534804
step02_gravity_refstate-crust.xmf,208,-4.30437e-06,7.69676e-06,0,1.06822e-05,-7.42442e+08,-7.41618e+08,-7.42146e+08,732796,-0.0823835,0.372651,-0,0.381649,-18180.7,-27023.8,-0,32570.3,732796
step02_gravity_refstate-crust.xmf,209,-3.57321e-06,8.08912e-06,0,3.13581e-06,-6.63259e+08,-6.62459e+08,-6.63014e+08,215117,-0.026951,0.21492,-0,0.216604,-31899.2,-24144.7,-0,40006.6,215117
step02_gravity_refstate-crust.xmf,210,-4.55406e-06,8.41537e-06,0,9.53149e-06,-7.43101e+08,-7.42211e+08,-7.42788e+08,653860,-0.0757557,0.342879,-0,0.351148,-19673.7,-27047.9,-0,33446.2,653860
step02_gravity_refstate-crust.xmf,211,-3.72458e-06,8.20922e-06,0,3.96524e-06,-6.68823e+08,-6.68005e+08,-6.68568e+08,272015,-0.0339277,0.228157,-0,0.230666,-29946.9,-24346.8,-0,38595.1,272015
step02_gravity_refstate-crust.xmf,212,-4.05077e-06,7.87508e-06,0,7.56358e-06,-6.76569e+08,-6.75751e+08,-6.76291e+08,518862,-0.0614634,0.307691,-0,0.313769,-22930.8,-24627,-0,33649.8,518862
step02_gravity_refstate-crust.xmf,213,-3.88275e-06,8.28717e-06,0,4.84953e-06,-6.73672e+08,-6.72837e+08,-6.73405e+08,332678,-0.041159,0.244769,-0,0.248206,-28012.1,-24522.8,-0,37229.6,332678
step02_gravity_refstate-crust.xmf,214,-4.01817e-06,8.29452e-06,0,5.76125e-06,-6.7793e+08,-6.77085e+08,-6.77654e+08,395222,-0.0483545,0.263883,-0,0.268276,-26166.2,-24677.3,-0,35967.2,395222
step02_gravity_refstate-crust.xmf,215,-4.0968e-06,8.19244e-06,0,6.68133e-06,-6.80634e+08,-6.79791e+08,-6.80353e+08,458339,-0.0552887,0.284931,-0,0.290246,-24446.5,-24775.3,-0,34805.9,458339
step02_gravity_refstate-crust.xmf,216,-3.43355e-06,7.97618e-06,0,2.31883e-06,-6.59289e+08,-6.58506e+08,-6.59053e+08,159072,-0.0199932,0.204146,-0,0.205122,-33915.6,-24000.5,-0,41548.7,159072
step02_gravity_refstate-crust.xmf,217,-3.30352e-06,7.94304e-06,0,1.43935e-06,-6.61483e+08,-6.60712e+08,-6.61257e+08,98739.6,-0.0124197,0.194256,-0,0.194653,-36164.2,-24080.9,-0,43448.1,98739.6
step02_gravity_refstate-crust.xmf,218,-3.20812e-06,7.90083e-06,0,5.14813e-09,-6.62725e+08,-6.61963e+08,-6.62505e+08,353.161,-1.15821e-18,0.187824,-0,0.187824,-40000,-24126.4,-0,46712.8,353.161
step02_gravity_refstate-crust.xmf,219,-5.88541e-07,2.16064e-06,0,9.42149e-06,-5.07477e+08,-5.07289e+08,-5.07437e+08,646314,-0.0680117,0.445779,-0,0.450938,-16354,-18476.2,-0,24674.3,646314
step02_gravity_refstate-crust.xmf,220,6.73046e-08,1.33972e-06,0,8.9625e-06,-4.67955e+08,-4.67868e+08,-4.6796e+08,614827,-0.0645614,0.46087,-0,0.46537,-15556.6,-17038.7,-0,23072.2,614827
step02_gravity_refstate-crust.xmf,221,-3.00338e-06,5.34591e-06,0,1.19662e-05,-7.06151e+08,-7.05579e+08,-7.05945e+08,820883,-0.0877176,0.42319,-0,0.432185,-16208.6,-25704.3,-0,30388,820883
step02_gravity_refstate-crust.xmf,222,-3.88761e-06,6.78652e-06,0,1.17636e-05,-7.41912e+08,-7.4118e+08,-7.41646e+08,806981,-0.0880073,0.402114,-0,0.411632,-16810.4,-27004.8,-0,31809.6,806981
step02_gravity_refstate-crust.xmf,223,-2.71361e-06,5.06564e-06,0,1.12302e-05,-6.7066e+08,-6.70127e+08,-6.70474e+08,770391,-0.0829328,0.416171,-0,0.424354,-16865.6,-24412.9,-0,29672.2,770391
step02_gravity_refstate-crust.xmf,224,-2.34364e-06,4.56513e-06,0,1.06129e-05,-6.31093e+08,-6.30619e+08,-6.30932e+08,728045,-0.0783825,0.413974,-0,0.42133,-17333.9,-22973.2,-0,28779,728045
step02_gravity_refstate-crust.xmf,225,-1.40088e-06,3.22525e-06,0,1.05363e-05,-5.90453e+08,-5.90136e+08,-5.90357e+08,722790,-0.076279,0.437364,-0,0.443966,-16380.9,-21495.4,-0,27025.6,722790
step02_gravity_refstate-crust.xmf,226,1.13605e-06,1.85148e-07,0,5.57481e-06,-2.44422e+08,-2.44487e+08,-2.445e+08,382432,-0.0561714,0.469521,-0,0.472869,-15312.8,-8903.32,-0,17713,382432
step02_gravity_refstate-crust.xmf,227,1.64334e-06,-2.54281e-07,0,3.93275e-06,-1.54107e+08,-1.54237e+08,-1.5422e+08,269787,-0.0626027,0.472998,-0,0.477123,-15000.7,-5616.68,-0,16017.7,269787
step02_gravity_refstate-crust.xmf,228,2.05039e-06,-4.8829e-07,0,2.93837e-06,-1.07084e+08,-1.07258e+08,-1.07225e+08,201572,-0.0690309,0.476021,-0,0.481,-14666,-3906.04,-0,15177.2,201572
step02_gravity_refstate-crust.xmf,229,2.95589e-06,-9.58603e-07,0,1.68325e-06,-5.66803e+07,-5.69488e+07,-5.6883e+07,115471,-0.0770343,0.485792,-0,0.491862,-13596.3,-2073.98,-0,13753.6,115471
step02_gravity_refstate-crust.xmf,230,8.64482e-07,4.58268e-07,0,7.08877e-06,-3.41977e+08,-3.42005e+08,-3.42036e+08,486290,-0.0561536,0.471284,-0,0.474618,-15090.4,-12454.2,-0,19566,486290
step02_gravity_refstate-crust.xmf,231,6.21763e-07,6.9932e-07,0,8.40865e-06,-4.29367e+08,-4.29361e+08,-4.29409e+08,576834,-0.0610376,0.473202,-0,0.477122,-14827.5,-15635.1,-0,21547.9,576834
step02_gravity_refstate-crust.xmf,232,-3.24829e-06,5.567e-06,0,1.27456e-05,-7.3747e+08,-7.36865e+08,-7.37247e+08,874348,-0.0923698,0.432614,-0,0.442365,-15513.5,-26843.8,-0,31004.2,874348
step02_gravity_refstate-crust.xmf,233,-4.34469e-06,8.41285e-06,0,7.92175e-06,-7.10968e+08,-7.10093e+08,-7.1067e+08,543432,-0.0646954,0.309263,-0,0.315958,-22169.3,-25878.9,-0,34076.3,543432
step02_gravity_refstate-crust.xmf,234,-4.68429e-06,8.9987e-06,0,8.31729e-06,-7.46813e+08,-7.45875e+08,-7.46492e+08,570566,-0.0680662,0.311821,-0,0.319164,-21328.5,-27183.5,-0,34552.1,570566
step02_gravity_refstate-crust.xmf,235,-3.11403e-06,8.22963e-06,0,6.72251e-07,-6.94517e+08,-6.93739e+08,-6.94303e+08,46116.4,-0.00587949,0.179967,-0,0.180063,-38101.5,-25284.7,-0,45727.9,46116.4
step02_gravity_refstate-crust.xmf,236,-5.27766e-07,2.06057e-06,0,1.02004e-05,-5.49678e+08,-5.495e+08,-5.49641e+08,699746,-0.0727643,0.456711,-0,0.462471,-15511.8,-20012.6,-0,25320.4,699746
step02_gravity_refstate-crust.xmf,237,-2.23247e-06,4.05361e-06,0,1.27467e-05,-7.02753e+08,-7.02321e+08,-7.02599e+08,874422,-0.0907242,0.451846,-0,0.460864,-14939.4,-25581.7,-0,29624.4,874422
step02_gravity_refstate-crust.xmf,238,1.73691e-06,-2.80809e-07,0,4.68069e-06,-1.96615e+08,-1.96754e+08,-1.96734e+08,321095,-0.0572462,0.481527,-0,0.484918,-14277.9,-7164.56,-0,15974.7,321095
step02_gravity_refstate-crust.xmf,239,4.37132e-06,-1.65435e-06,0,4.42048e-08,415431,2069.62,115558,3032.45,-0.0889785,0.495037,-0,0.50297,-12353.1,0,-0,12353.1,3032.45
step02_gravity_refstate-crust.xmf,240,1.38929e-06,-6.93512e-09,0,6.28617e-06,-2.93523e+08,-2.93619e+08,-2.93619e+08,431231,-0.054126,0.48287,-0,0.485894,-14207.7,-10691.6,-0,17781.2,431231
step02_gravity_refstate-crust.xmf,241,1.13932e-06,9.52364e-08,0,7.73149e-06,-3.87221e+08,-3.87293e+08,-3.87299e+08,530380,-0.057358,0.484506,-0,0.487889,-14070.5,-14101.9,-0,19921,530380
step02_gravity_refstate-crust.xmf,242,-4.9555e-06,8.9522e-06,0,1.01165e-05,-7.76892e+08,-7.75938e+08,-7.76552e+08,693991,-0.0797769,0.349492,-0,0.358482,-18798.7,-28277.3,-0,33955.8,693991
step02_gravity_refstate-crust.xmf,243,-4.73336e-06,8.23127e-06,0,1.13161e-05,-7.76735e+08,-7.75845e+08,-7.7641e+08,776287,-0.0864467,0.378951,-0,0.388687,-17424.8,-28271.4,-0,33209.9,776287
step02_gravity_refstate-crust.xmf,244,-4.27814e-06,7.20111e-06,0,1.25086e-05,-7.74493e+08,-7.73705e+08,-7.74199e+08,858093,-0.0923704,0.410095,-0,0.420369,-16103.8,-28190,-0,32465.5,858093
step02_gravity_refstate-crust.xmf,245,-5.02148e-06,9.47049e-06,0,8.93262e-06,-7.77535e+08,-7.76541e+08,-7.77191e+08,612778,-0.0725781,0.321045,-0,0.329147,-20237.7,-28301.3,-0,34792.6,612778
step02_gravity_refstate-crust.xmf,246,-3.41329e-06,8.59612e-06,0,2.53808e-06,-7.10415e+08,-7.09591e+08,-7.10181e+08,174112,-0.0224025,0.194381,-0,0.195667,-32879.9,-25862.9,-0,41832.7,174112
step02_gravity_refstate-crust.xmf,247,-3.61294e-06,8.73514e-06,0,3.3103e-06,-7.12909e+08,-7.12062e+08,-7.12661e+08,227087,-0.0290804,0.20655,-0,0.208587,-30944.7,-25953.1,-0,40387.4,227087
step02_gravity_refstate-crust.xmf,248,-3.83893e-06,8.8514e-06,0,4.14998e-06,-7.14453e+08,-7.13582e+08,-7.14189e+08,284688,-0.0361632,0.22222,-0,0.225144,-29019.4,-26008.5,-0,38968.8,284688
step02_gravity_refstate-crust.xmf,249,-4.38151e-06,8.85399e-06,0,6.90449e-06,-7.20591e+08,-7.19683e+08,-7.20291e+08,473648,-0.0577814,0.282615,-0,0.288462,-23725.4,-26229.8,-0,35368.1,473648
step02_gravity_refstate-crust.xmf,250,-4.06126e-06,8.93349e-06,0,5.0354e-06,-7.16673e+08,-7.15782e+08,-7.16395e+08,345429,-0.0434113,0.240373,-0,0.244261,-27156.3,-26088.6,-0,37657.4,345429
step02_gravity_refstate-crust.xmf,251,-4.2546e-06,8.95616e-06,0,5.95055e-06,-7.19517e+08,-7.18611e+08,-7.19225e+08,408208,-0.0506253,0.260362,-0,0.265238,-25392.4,-26191.4,-0,36479.6,408208
step02_gravity_refstate-crust.xmf,252,-3.27023e-06,8.41383e-06,0,1.88991e-06,-7.02279e+08,-7.01478e+08,-7.02055e+08,129648,-0.016656,0.18775,-0,0.188487,-34669.5,-25567,-0,43077.2,129648
step02_gravity_refstate-crust.xmf,253,-2.93431e-06,8.5035e-06,0,6.64072e-09,-7.2737e+08,-7.26586e+08,-7.27169e+08,455.553,-1.07066e-18,0.168502,-0,0.168502,-40000,-26481.9,-0,47971.8,455.553
step02_gravity_refstate-crust.xmf,254,-3.05781e-06,8.5736e-06,0,1.26708e-06,-7.25817e+08,-7.25019e+08,-7.25607e+08,86921.6,-0.0112792,0.174736,-0,0.1751,-36215.8,-26425,-0,44831.5,86921.6
step02_gravity_refstate-crust.xmf,255,2.20799e-07,1.12291e-06,0,9.69311e-06,-5.10167e+08,-5.10105e+08,-5.10182e+08,664947,-0.068589,0.472415,-0,0.477368,-14714.4,-18575.8,-0,23697.5,664947
step02_gravity_refstate-crust.xmf,256,8.69503e-07,3.66061e-07,0,9.06912e-06,-4.71101e+08,-4.71136e+08,-4.71161e+08,622142,-0.0641044,0.485798,-0,0.490009,-13935,-17155,-0,22101.5,622142
step02_gravity_refstate-crust.xmf,257,-2.16813e-06,4.11465e-06,0,1.20109e-05,-6.76312e+08,-6.75881e+08,-6.76163e+08,823945,-0.0865395,0.441341,-0,0.449746,-15600.8,-24619.4,-0,29146.2,823945
step02_gravity_refstate-crust.xmf,258,-1.54414e-06,3.36864e-06,0,1.14501e-05,-6.35807e+08,-6.3547e+08,-6.35701e+08,785480,-0.082271,0.447224,-0,0.454728,-15580.1,-23146.2,-0,27901.3,785480
step02_gravity_refstate-crust.xmf,259,-4.49787e-07,1.88448e-06,0,1.10209e-05,-5.89525e+08,-5.89365e+08,-5.89495e+08,756035,-0.0777421,0.468701,-0,0.475105,-14689.7,-21463.4,-0,26008.9,756035
step02_gravity_refstate-crust.xmf,260,-2.36269e-06,4.08718e-06,0,1.35989e-05,-7.32492e+08,-7.3205e+08,-7.3233e+08,932887,-0.0954385,0.463418,-0,0.473144,-14256,-26663.9,-0,30235.7,932887
step02_gravity_refstate-crust.xmf,261,1.9307e-06,-3.91689e-07,0,5.39817e-06,-2.44594e+08,-2.44753e+08,-2.44726e+08,370314,-0.0530244,0.493673,-0,0.496512,-13264.8,-8911.89,-0,15980.5,370314
step02_gravity_refstate-crust.xmf,262,2.37588e-06,-6.43248e-07,0,3.73147e-06,-1.50284e+08,-1.50491e+08,-1.50447e+08,255979,-0.0596501,0.491456,-0,0.495062,-13306.9,-5479.85,-0,14391,255979
step02_gravity_refstate-crust.xmf,263,3.21252e-06,-9.99532e-07,0,2.68496e-06,-1.02732e+08,-1.03021e+08,-1.02952e+08,184188,-0.0632558,0.501484,-0,0.505458,-12189.5,-3751.51,-0,12753.7,184188
step02_gravity_refstate-crust.xmf,264,4.29383e-06,-1.49029e-06,0,1.47916e-06,-5.32643e+07,-5.36611e+07,-5.35589e+07,101471,-0.0685263,0.510043,-0,0.514625,-11036.9,-1954.21,-0,11208.5,101471
step02_gravity_refstate-crust.xmf,265,1.67303e-06,-3.21333e-07,0,6.89502e-06,-3.40318e+08,-3.40455e+08,-3.40433e+08,472998,-0.0536581,0.496141,-0,0.499035,-13170.2,-12395.9,-0,18086.2,472998
step02_gravity_refstate-crust.xmf,266,1.42784e-06,-2.26287e-07,0,8.34933e-06,-4.31267e+08,-4.31381e+08,-4.31365e+08,572764,-0.0595001,0.497235,-0,0.500782,-13166.2,-15706.1,-0,20494.7,572764
step02_gravity_refstate-crust.xmf,267,-3.56432e-06,5.81082e-06,0,1.36417e-05,-7.69411e+08,-7.68768e+08,-7.69167e+08,935818,-0.0971673,0.443085,-0,0.453614,-14811.1,-28005.8,-0,31681.1,935818
step02_gravity_refstate-crust.xmf,268,-4.99226e-06,9.80233e-06,0,7.98283e-06,-7.79942e+08,-7.78927e+08,-7.79599e+08,547622,-0.0664493,0.298514,-0,0.30582,-21444.1,-28389.5,-0,35578.3,547622
step02_gravity_refstate-crust.xmf,269,-4.7259e-06,9.58127e-06,0,7.21527e-06,-7.61134e+08,-7.60152e+08,-7.6081e+08,494967,-0.0608479,0.283393,-0,0.289851,-22768.9,-27705.5,-0,35861.1,494967
step02_gravity_refstate-crust.xmf,270,-2.78545e-06,8.77676e-06,0,6.0186e-07,-7.58086e+08,-7.57293e+08,-7.57895e+08,41287.6,-0.00538098,0.160348,-0,0.160438,-38051.6,-27601.2,-0,47008,41287.6
step02_gravity_refstate-crust.xmf,271,4.12727e-07,8.03577e-07,0,1.04614e-05,-5.50747e+08,-5.5072e+08,-5.50776e+08,717649,-0.0729882,0.485107,-0,0.490567,-13884,-20053.4,-0,24390.7,717649
step02_gravity_refstate-crust.xmf,272,-1.25071e-06,2.71085e-06,0,1.24492e-05,-6.66179e+08,-6.65908e+08,-6.66094e+08,854016,-0.0874363,0.46799,-0,0.476088,-14410.5,-24252.1,-0,28210.4,854016
step02_gravity_refstate-crust.xmf,273,-1.22407e-06,2.47799e-06,0,1.34118e-05,-6.99367e+08,-6.99113e+08,-6.99283e+08,920049,-0.0925992,0.482279,-0,0.491089,-13626.8,-25460,-0,28877.4,920049
step02_gravity_refstate-crust.xmf,274,2.52825e-06,-7.78071e-07,0,4.46768e-06,-1.98851e+08,-1.99078e+08,-1.99024e+08,306483,-0.0527137,0.504166,-0,0.506915,-12224.5,-7248.39,-0,14211.9,306483
step02_gravity_refstate-crust.xmf,275,5.83522e-06,-2.20667e-06,0,5.1108e-08,554625,2951.77,154329,3506.01,-0.0763006,0.516378,-0,0.521985,-9858.69,0,-0,9858.69,3506.01
step02_gravity_refstate-crust.xmf,276,2.18111e-06,-6.86975e-07,0,5.98952e-06,-2.92609e+08,-2.92805e+08,-2.92758e+08,410881,-0.0505849,0.506596,-0,0.509115,-12228.9,-10660.5,-0,16223.2,410881
step02_gravity_refstate-crust.xmf,277,2.00474e-06,-8.35964e-07,0,7.46173e-06,-3.86449e+08,-3.86644e+08,-3.86586e+08,511874,-0.0543816,0.509474,-0,0.512368,-12204.7,-14075.9,-0,18630.2,511874
step02_gravity_refstate-crust.xmf,278,-5.32292e-06,1.03913e-05,0,8.16849e-06,-8.09448e+08,-8.0837e+08,-8.09082e+08,560358,-0.0677997,0.298019,-0,0.305634,-20860.5,-29463.3,-0,36100.5,560358
step02_gravity_refstate-crust.xmf,279,-5.43535e-06,1.00897e-05,0,9.33869e-06,-8.09286e+08,-8.0822e+08,-8.08913e+08,640634,-0.0753361,0.324851,-0,0.333472,-19459.3,-29456.5,-0,35303.6,640634
step02_gravity_refstate-crust.xmf,280,-5.43307e-06,9.61669e-06,0,1.05884e-05,-8.10284e+08,-8.09252e+08,-8.09911e+08,726367,-0.0827513,0.353396,-0,0.362955,-18085.9,-29492.1,-0,34596,726367
step02_gravity_refstate-crust.xmf,281,-5.26682e-06,8.89656e-06,0,1.1923e-05,-8.11076e+08,-8.10104e+08,-8.10715e+08,817915,-0.0899318,0.384111,-0,0.394499,-16740.9,-29520.5,-0,33937,817915
step02_gravity_refstate-crust.xmf,282,-4.85449e-06,7.76994e-06,0,1.34372e-05,-8.11632e+08,-8.10766e+08,-8.11299e+08,921789,-0.0970674,0.419269,-0,0.430358,-15333,-29540.7,-0,33282.9,921789
step02_gravity_refstate-crust.xmf,283,-3.10439e-06,8.94672e-06,0,1.8666e-06,-7.54389e+08,-7.53562e+08,-7.54176e+08,128048,-0.01679,0.17352,-0,0.17433,-34171.8,-27465.6,-0,43841.4,128048
step02_gravity_refstate-crust.xmf,284,-3.37624e-06,9.14806e-06,0,2.67035e-06,-7.56583e+08,-7.55724e+08,-7.56351e+08,183186,-0.0240129,0.185564,-0,0.187111,-31900.1,-27544.7,-0,42146.5,183186
step02_gravity_refstate-crust.xmf,285,-3.66282e-06,9.33392e-06,0,3.44488e-06,-7.57595e+08,-7.56703e+08,-7.57344e+08,236318,-0.030777,0.199721,-0,0.202078,-29952,-27580.6,-0,40716.2,236318
step02_gravity_refstate-crust.xmf,286,-3.96143e-06,9.48757e-06,0,4.267e-06,-7.57922e+08,-7.57e+08,-7.57651e+08,292716,-0.0377587,0.216532,-0,0.219799,-28105.7,-27591.6,-0,39385.6,292716
step02_gravity_refstate-crust.xmf,287,-4.52023e-06,9.65526e-06,0,6.0962e-06,-7.60734e+08,-7.59762e+08,-7.60424e+08,418199,-0.0524287,0.256867,-0,0.262163,-24597.6,-27691.9,-0,37039,418199
step02_gravity_refstate-crust.xmf,288,-4.25266e-06,9.60302e-06,0,5.14693e-06,-7.59006e+08,-7.58056e+08,-7.58714e+08,353079,-0.0449776,0.235573,-0,0.239828,-26324.9,-27630,-0,38163,353079
step02_gravity_refstate-crust.xmf,289,-2.51622e-06,8.97153e-06,0,9.89873e-09,-7.909e+08,-7.90112e+08,-7.90727e+08,679.053,-9.81601e-19,0.148269,-0,0.148269,-40000,-28797.2,-0,49287.7,679.053
step02_gravity_refstate-crust.xmf,290,-2.72999e-06,9.03597e-06,0,1.10564e-06,-7.82423e+08,-7.81616e+08,-7.82236e+08,75846.7,-0.0100715,0.156709,-0,0.157032,-36172,-28487.9,-0,46043.1,75846.7
step02_gravity_refstate-crust.xmf,291,1.15447e-06,-6.81603e-08,0,9.77407e-06,-5.12772e+08,-5.12856e+08,-5.12852e+08,670501,-0.0677684,0.499075,-0,0.503655,-13083.5,-18672.6,-0,22800.1,670501
step02_gravity_refstate-crust.xmf,292,1.76168e-06,-7.18667e-07,0,8.96382e-06,-4.73143e+08,-4.73313e+08,-4.73264e+08,614918,-0.062201,0.510317,-0,0.514093,-12323.1,-17231.3,-0,21184.3,614918
step02_gravity_refstate-crust.xmf,293,6.52664e-07,3.73347e-07,0,1.12737e-05,-5.89213e+08,-5.89232e+08,-5.89258e+08,773375,-0.0775448,0.499095,-0,0.505083,-13069,-21454.1,-0,25121.3,773375
step02_gravity_refstate-crust.xmf,294,-2.97598e-07,1.55628e-06,0,1.19177e-05,-6.27804e+08,-6.27677e+08,-6.27784e+08,817556,-0.0829355,0.483268,-0,0.490333,-13817.7,-22857,-0,26709,817556
step02_gravity_refstate-crust.xmf,295,-2.54625e-06,4.09532e-06,0,1.45962e-05,-7.62994e+08,-7.62539e+08,-7.6282e+08,1.0013e+06,-0.100363,0.476049,-0,0.486514,-13576.3,-27773.6,-0,30914.2,1.0013e+06
step02_gravity_refstate-crust.xmf,296,-3.82151e-06,5.85906e-06,0,1.4649e-05,-7.97369e+08,-7.96704e+08,-7.97106e+08,1.00492e+06,-0.101836,0.456258,-0,0.467484,-14083.9,-29022.6,-0,32259.4,1.00492e+06
step02_gravity_refstate-crust.xmf,297,-1.2792e-06,2.36414e-06,0,1.44101e-05,-7.3159e+08,-7.31341e+08,-7.31503e+08,988533,-0.0977067,0.495654,-0,0.505193,-12954.3,-26632.8,-0,29616.2,988533
step02_gravity_refstate-crust.xmf,298,2.68859e-06,-9.63702e-07,0,5.05734e-06,-2.458e+08,-2.4605e+08,-2.45984e+08,346933,-0.0483855,0.515771,-0,0.518036,-11267.9,-8957.97,-0,14394.8,346933
step02_gravity_refstate-crust.xmf,299,3.24516e-06,-1.10797e-06,0,3.49219e-06,-1.54209e+08,-1.54508e+08,-1.54432e+08,239564,-0.0528853,0.514538,-0,0.517249,-11052,-5625.54,-0,12401.4,239564
step02_gravity_refstate-crust.xmf,300,5.37095e-06,-1.91237e-06,0,1.31666e-06,-5.55652e+07,-5.60648e+07,-5.59336e+07,90322.8,-0.0558385,0.530942,-0,0.53387,-8513.09,-2041.68,-0,8754.49,90322.8
step02_gravity_refstate-crust.xmf,301,4.17267e-06,-1.4326e-06,0,2.48338e-06,-1.07813e+08,-1.08198e+08,-1.081e+08,170360,-0.0535214,0.524173,-0,0.526898,-9759.07,-3939.71,-0,10524.3,170360
step02_gravity_refstate-crust.xmf,302,2.50818e-06,-1.1387e-06,0,6.49137e-06,-3.4006e+08,-3.4031e+08,-3.40232e+08,445308,-0.049561,0.520032,-0,0.522389,-11215,-12388.6,-0,16710.9,445308
step02_gravity_refstate-crust.xmf,303,2.34012e-06,-1.28743e-06,0,8.0486e-06,-4.32846e+08,-4.33095e+08,-4.33006e+08,552134,-0.0563443,0.521778,-0,0.524812,-11412.2,-15765.7,-0,19462.6,552134
step02_gravity_refstate-crust.xmf,304,-5.0775e-06,1.04734e-05,0,7.12365e-06,-8.05908e+08,-8.04841e+08,-8.0556e+08,488682,-0.0606989,0.274981,-0,0.2816,-22275.6,-29335.6,-0,36834.4,488682
step02_gravity_refstate-crust.xmf,305,-4.78299e-06,7.33842e-06,0,1.45459e-05,-8.26281e+08,-8.25449e+08,-8.25953e+08,997846,-0.102113,0.441388,-0,0.453046,-14369.7,-30073.6,-0,33330.3,997846
step02_gravity_refstate-crust.xmf,306,-4.10799e-06,5.98549e-06,0,1.56656e-05,-8.23395e+08,-8.22703e+08,-8.23113e+08,1.07466e+06,-0.106203,0.469551,-0,0.481412,-13417.7,-29969.2,-0,32835.7,1.07466e+06
step02_gravity_refstate-crust.xmf,307,-2.2823e-06,9.21697e-06,0,5.37189e-07,-8.27281e+08,-8.26493e+08,-8.27125e+08,36851.2,-0.00482328,0.138005,-0,0.138089,-37825.5,-30123,-0,48354.6,36851.2
step02_gravity_refstate-crust.xmf,308,1.48277e-06,-6.03249e-07,0,1.04991e-05,-5.51936e+08,-5.52079e+08,-5.52038e+08,720235,-0.0716333,0.513002,-0,0.517979,-12284.1,-20098.9,-0,23555.5,720235
step02_gravity_refstate-crust.xmf,309,-9.2502e-08,9.97797e-07,0,1.29412e-05,-6.64313e+08,-6.64238e+08,-6.64306e+08,887766,-0.0881782,0.499758,-0,0.507478,-12949.4,-24186.1,-0,27434.6,887766
step02_gravity_refstate-crust.xmf,310,-1.14051e-08,7.08531e-07,0,1.39468e-05,-6.99276e+08,-6.99227e+08,-6.99275e+08,956747,-0.0934332,0.514001,-0,0.522424,-12273.8,-25458.9,-0,28263.1,956747
step02_gravity_refstate-crust.xmf,311,-2.75464e-06,4.01049e-06,0,1.57512e-05,-7.92618e+08,-7.92154e+08,-7.92429e+08,1.08053e+06,-0.105323,0.490333,-0,0.501517,-12894.1,-28851.1,-0,31601.3,1.08053e+06
step02_gravity_refstate-crust.xmf,312,-4.55687e-06,6.37362e-06,0,1.66446e-05,-8.50377e+08,-8.49627e+08,-8.50065e+08,1.14182e+06,-0.110115,0.480148,-0,0.492612,-12874.5,-30950.3,-0,33521.2,1.14182e+06
step02_gravity_refstate-crust.xmf,313,-2.94354e-06,3.83483e-06,0,1.71705e-05,-8.23402e+08,-8.22937e+08,-8.232e+08,1.17789e+06,-0.110791,0.509031,-0,0.520949,-12119.4,-29970.8,-0,32328.5,1.17789e+06
step02_gravity_refstate-crust.xmf,314,3.26092e-06,-1.2626e-06,0,4.10553e-06,-2.02907e+08,-2.03217e+08,-2.03131e+08,281640,-0.0465323,0.52507,-0,0.527128,-10167.4,-7398.27,-0,12574.2,281640
step02_gravity_refstate-crust.xmf,315,7.07416e-06,-2.68039e-06,0,4.91284e-08,672163,3000.49,186876,3370.21,-0.0603715,0.534039,-0,0.537441,-7383.26,0,-0,7383.26,3370.21
step02_gravity_refstate-crust.xmf,316,2.95002e-06,-1.36397e-06,0,5.49417e-06,-2.92363e+08,-2.92659e+08,-2.92566e+08,376900,-0.0455428,0.528337,-0,0.530296,-10265,-10653.6,-0,14794.2,376900
step02_gravity_refstate-crust.xmf,317,2.97385e-06,-1.89178e-06,0,6.96171e-06,-3.90415e+08,-3.90749e+08,-3.90619e+08,477573,-0.0496537,0.53496,-0,0.537259,-10185.4,-14222.6,-0,17493.6,477573
step02_gravity_refstate-crust.xmf,318,-5.43285e-06,1.1202e-05,0,7.20601e-06,-8.41522e+08,-8.40381e+08,-8.4115e+08,494332,-0.0610947,0.272332,-0,0.279101,-21598.1,-30631.8,-0,37480.5,494332
step02_gravity_refstate-crust.xmf,319,-5.72219e-06,1.11213e-05,0,8.34747e-06,-8.4227e+08,-8.41114e+08,-8.41877e+08,572636,-0.0689083,0.297908,-0,0.305773,-20180.6,-30657.7,-0,36703.6,572636
step02_gravity_refstate-crust.xmf,320,-3.76446e-06,4.73349e-06,0,1.81767e-05,-8.55221e+08,-8.54638e+08,-8.54963e+08,1.24692e+06,-0.114885,0.514164,-0,0.526843,-11810.6,-31127.3,-0,33292.6,1.24692e+06
step02_gravity_refstate-crust.xmf,321,-5.90977e-06,1.08564e-05,0,9.611e-06,-8.42499e+08,-8.41349e+08,-8.42093e+08,659315,-0.0769114,0.325897,-0,0.33485,-18798.8,-30664.9,-0,35968.5,659315
step02_gravity_refstate-crust.xmf,322,-5.28141e-06,7.89032e-06,0,1.51802e-05,-8.50539e+08,-8.49635e+08,-8.50177e+08,1.04136e+06,-0.104758,0.446598,-0,0.45872,-13959.5,-30955.6,-0,33957.5,1.04136e+06
step02_gravity_refstate-crust.xmf,323,-5.69453e-06,8.9671e-06,0,1.37574e-05,-8.48462e+08,-8.47456e+08,-8.48071e+08,943759,-0.0987354,0.415605,-0,0.427172,-15054.4,-30879.9,-0,34354.1,943759
step02_gravity_refstate-crust.xmf,324,-5.96809e-06,1.03971e-05,0,1.0958e-05,-8.43055e+08,-8.41932e+08,-8.42645e+08,751719,-0.0847272,0.355411,-0,0.365371,-17474.7,-30684.2,-0,35311.3,751719
step02_gravity_refstate-crust.xmf,325,-5.87375e-06,9.70926e-06,0,1.23931e-05,-8.44135e+08,-8.43066e+08,-8.43732e+08,850167,-0.0922493,0.386539,-0,0.397394,-16194.5,-30722.8,-0,34729.7,850167
step02_gravity_refstate-crust.xmf,326,-3.02417e-06,9.44344e-06,0,2.07091e-06,-7.98979e+08,-7.98124e+08,-7.98772e+08,142064,-0.0188867,0.165459,-0,0.166534,-32839.1,-29090,-0,43870.7,142064
step02_gravity_refstate-crust.xmf,327,-4.77228e-06,1.0413e-05,0,6.13388e-06,-8.0166e+08,-8.00618e+08,-8.01332e+08,420784,-0.0533328,0.252614,-0,0.258182,-23836,-29182,-0,37679.5,420784
step02_gravity_refstate-crust.xmf,328,-3.35028e-06,9.68358e-06,0,2.75919e-06,-7.99822e+08,-7.98928e+08,-7.99592e+08,189280,-0.0250923,0.17797,-0,0.17973,-30861,-29119.7,-0,42430.6,189280
step02_gravity_refstate-crust.xmf,329,-3.70788e-06,9.91936e-06,0,3.49252e-06,-8.00098e+08,-7.99163e+08,-7.99844e+08,239587,-0.0315507,0.192966,-0,0.195529,-29012.7,-29128.7,-0,41112.2,239587
step02_gravity_refstate-crust.xmf,330,-4.08789e-06,1.01321e-05,0,4.31063e-06,-8.00104e+08,-7.99129e+08,-7.99824e+08,295709,-0.0385406,0.210815,-0,0.214309,-27208.2,-29127.8,-0,39858.7,295709
step02_gravity_refstate-crust.xmf,331,-4.45495e-06,1.02968e-05,0,5.19432e-06,-8.00507e+08,-7.99495e+08,-8.00202e+08,356330,-0.0458032,0.230705,-0,0.235207,-25491.3,-29141.2,-0,38717.1,356330
step02_gravity_refstate-crust.xmf,332,-2.77415e-06,9.29636e-06,0,1.51534e-06,-8.01924e+08,-8.01096e+08,-8.01734e+08,103952,-0.013847,0.156082,-0,0.156695,-34540.1,-29198,-0,45227.7,103952
step02_gravity_refstate-crust.xmf,333,-1.94771e-06,9.29423e-06,0,3.89292e-09,-8.53495e+08,-8.52724e+08,-8.53361e+08,267.054,-5.03703e-19,0.12744,-0,0.12744,-40000,-31078.8,-0,50654.7,267.054
step02_gravity_refstate-crust.xmf,334,-2.34307e-06,9.3936e-06,0,1.05492e-06,-8.35474e+08,-8.34669e+08,-8.35313e+08,72367.5,-0.00960628,0.140565,-0,0.140893,-35633.1,-30421.3,-0,46852.7,72367.5
step02_gravity_refstate-crust.xmf,335,2.1669e-06,-1.34714e-06,0,9.59992e-06,-5.13793e+08,-5.14034e+08,-5.13942e+08,658554,-0.0652784,0.524445,-0,0.528492,-11504.9,-18711.8,-0,21965.8,658554
step02_gravity_refstate-crust.xmf,336,2.73683e-06,-1.91019e-06,0,8.6365e-06,-4.75863e+08,-4.76182e+08,-4.76051e+08,592464,-0.058808,0.53447,-0,0.537696,-10680.8,-17332.4,-0,20359,592464
step02_gravity_refstate-crust.xmf,337,3.16021e-06,-2.27031e-06,0,7.67618e-06,-4.39307e+08,-4.3968e+08,-4.39524e+08,526586,-0.0527354,0.542363,-0,0.544921,-9884.16,-16002.7,-0,18809.1,526586
step02_gravity_refstate-crust.xmf,338,1.88583e-06,-1.2808e-06,0,1.1269e-05,-5.89447e+08,-5.89664e+08,-5.89576e+08,773055,-0.0755891,0.528431,-0,0.53381,-11494.1,-21465,-0,24348.8,773055
step02_gravity_refstate-crust.xmf,339,9.76804e-07,-2.26462e-07,0,1.21825e-05,-6.2715e+08,-6.27233e+08,-6.27217e+08,835720,-0.0823123,0.515487,-0,0.522017,-12223.5,-22835.6,-0,25901.3,835720
step02_gravity_refstate-crust.xmf,340,-1.34682e-06,2.17296e-06,0,1.55065e-05,-7.6166e+08,-7.61419e+08,-7.61568e+08,1.06375e+06,-0.102652,0.509813,-0,0.520045,-12318.3,-27726.9,-0,30340.1,1.06375e+06
step02_gravity_refstate-crust.xmf,341,-1.03113e-08,4.33871e-07,0,1.50456e-05,-7.3193e+08,-7.319e+08,-7.3193e+08,1.03213e+06,-0.0985694,0.527334,-0,0.536467,-11706.1,-26647.3,-0,29105.2,1.03213e+06
step02_gravity_refstate-crust.xmf,342,-2.36359e-06,2.62871e-06,0,1.8535e-05,-8.37945e+08,-8.37603e+08,-8.37783e+08,1.2715e+06,-0.114877,0.536554,-0,0.548714,-11215.8,-30500.7,-0,32497.5,1.2715e+06
step02_gravity_refstate-crust.xmf,343,3.38715e-06,-1.51859e-06,0,4.54267e-06,-2.47649e+08,-2.47986e+08,-2.47881e+08,311627,-0.042388,0.53547,-0,0.537145,-9303.51,-9027.27,-0,12963.3,311627
step02_gravity_refstate-crust.xmf,344,3.96174e-06,-1.53809e-06,0,3.16575e-06,-1.63944e+08,-1.64321e+08,-1.64215e+08,217170,-0.0439819,0.535181,-0,0.536985,-8812.2,-5982.18,-0,10650.9,217170
step02_gravity_refstate-crust.xmf,345,6.27254e-06,-2.29438e-06,0,9.85954e-07,-5.47798e+07,-5.53675e+07,-5.52101e+07,67636.4,-0.0414734,0.547093,-0,0.548663,-6026.38,-2016.14,-0,6354.69,67636.4
step02_gravity_refstate-crust.xmf,346,4.93978e-06,-1.82869e-06,0,2.09893e-06,-1.1803e+08,-1.18494e+08,-1.18369e+08,143986,-0.0399896,0.545549,-0,0.547013,-7053.9,-4314.14,-0,8268.58,143986
step02_gravity_refstate-crust.xmf,347,3.33143e-06,-1.95303e-06,0,5.82002e-06,-3.38763e+08,-3.39125e+08,-3.38991e+08,399254,-0.0437538,0.541824,-0,0.543588,-9245.19,-12343.5,-0,15421.9,399254
step02_gravity_refstate-crust.xmf,348,-5.05092e-06,1.11608e-05,0,6.14357e-06,-8.40252e+08,-8.3914e+08,-8.39905e+08,421449,-0.053463,0.24872,-0,0.254401,-23081.1,-30587.1,-0,38318.5,421449
step02_gravity_refstate-crust.xmf,349,-5.19591e-06,6.93619e-06,0,1.77155e-05,-8.78656e+08,-8.77824e+08,-8.783e+08,1.21528e+06,-0.113852,0.490713,-0,0.503747,-12350.4,-31978.1,-0,34280.2,1.21528e+06
step02_gravity_refstate-crust.xmf,350,-5.88328e-06,8.5061e-06,0,1.60023e-05,-8.7717e+08,-8.76183e+08,-8.76766e+08,1.09776e+06,-0.10778,0.454835,-0,0.46743,-13438.8,-31923.6,-0,34637,1.09776e+06
step02_gravity_refstate-crust.xmf,351,-4.26642e-06,4.99228e-06,0,1.94317e-05,-8.80867e+08,-8.80232e+08,-8.80574e+08,1.33302e+06,-0.11897,0.527854,-0,0.541095,-11296.4,-32059.3,-0,33991.3,1.33302e+06
step02_gravity_refstate-crust.xmf,352,-1.61856e-06,9.4119e-06,0,2.86288e-07,-8.84324e+08,-8.83568e+08,-8.84213e+08,19639.4,-0.00239947,0.117734,-0,0.117759,-38495.8,-32202.7,-0,50189.1,19639.4
step02_gravity_refstate-crust.xmf,353,-1.7642e-06,9.52656e-06,0,6.34811e-07,-8.85191e+08,-8.84416e+08,-8.85069e+08,43548,-0.00556384,0.120703,-0,0.120831,-36591.6,-32233.9,-0,48764.4,43548
step02_gravity_refstate-crust.xmf,354,3.50433e-06,-2.57197e-06,0,6.89343e-06,-4.13498e+08,-4.13915e+08,-4.13739e+08,472889,-0.0479881,0.549255,-0,0.551347,-9129.8,-15064,-0,17614.7,472889
step02_gravity_refstate-crust.xmf,355,2.64509e-06,-2.11178e-06,0,1.02686e-05,-5.52963e+08,-5.5329e+08,-5.53145e+08,704424,-0.0685611,0.539628,-0,0.543966,-10722.3,-20138.6,-0,22815.2,704424
step02_gravity_refstate-crust.xmf,356,1.42234e-06,-1.16703e-06,0,1.32713e-05,-6.65756e+08,-6.65934e+08,-6.65854e+08,910412,-0.0873722,0.534973,-0,0.542061,-11341.4,-24241.5,-0,26763.3,910412
step02_gravity_refstate-crust.xmf,357,1.22215e-06,-1.11477e-06,0,1.43608e-05,-7.02698e+08,-7.02858e+08,-7.02782e+08,985150,-0.09326,0.54282,-0,0.550773,-11065,-25585.6,-0,27875.8,985150
step02_gravity_refstate-crust.xmf,358,-1.33955e-06,1.72913e-06,0,1.67504e-05,-7.89466e+08,-7.89256e+08,-7.89374e+08,1.14908e+06,-0.107476,0.526762,-0,0.537614,-11649.3,-28738.6,-0,31009.8,1.14908e+06
step02_gravity_refstate-crust.xmf,359,-2.61955e-06,2.61068e-06,0,1.96513e-05,-8.58647e+08,-8.58289e+08,-8.58468e+08,1.34808e+06,-0.118503,0.549286,-0,0.561924,-10791.2,-31253.4,-0,33063.9,1.34808e+06
step02_gravity_refstate-crust.xmf,360,-1.20468e-06,1.12374e-06,0,1.81073e-05,-8.15037e+08,-8.14877e+08,-8.14955e+08,1.24216e+06,-0.112148,0.546901,-0,0.558281,-10948,-29669.1,-0,31624.6,1.24216e+06
step02_gravity_refstate-crust.xmf,361,-5.85843e-06,7.45618e-06,0,1.88839e-05,-9.04274e+08,-9.0336e+08,-9.03872e+08,1.29544e+06,-0.117372,0.50347,-0,0.51697,-11810.4,-32908.8,-0,34963.9,1.29544e+06
step02_gravity_refstate-crust.xmf,362,-4.77212e-06,5.1986e-06,0,2.08637e-05,-9.04656e+08,-9.03972e+08,-9.04328e+08,1.43125e+06,-0.122883,0.543439,-0,0.557159,-10776.3,-32923.6,-0,34642.4,1.43125e+06
step02_gravity_refstate-crust.xmf,363,8.01761e-06,-3.04251e-06,0,4.35807e-08,761608,2884.22,211601,2989.64,-0.0418216,0.547272,-0,0.548868,-4919.33,0,-0,4919.33,2989.64
step02_gravity_refstate-crust.xmf,364,3.79562e-06,-1.6383e-06,0,3.72035e-06,-2.09839e+08,-2.10212e+08,-2.101e+08,255216,-0.0401384,0.540929,-0,0.542416,-8439.05,-7652.22,-0,11391.8,255216
step02_gravity_refstate-crust.xmf,365,3.66465e-06,-1.99858e-06,0,4.7781e-06,-2.91019e+08,-2.91407e+08,-2.9127e+08,327778,-0.0390597,0.547384,-0,0.548776,-8311.98,-10606.6,-0,13475.5,327778
step02_gravity_refstate-crust.xmf,366,-5.35849e-06,1.18669e-05,0,6.19284e-06,-8.74567e+08,-8.73385e+08,-8.74199e+08,424828,-0.0532803,0.246744,-0,0.252431,-22295.8,-31836.2,-0,38867,424828
step02_gravity_refstate-crust.xmf,367,-5.79192e-06,1.19607e-05,0,7.28439e-06,-8.74769e+08,-8.73551e+08,-8.74372e+08,499709,-0.0611936,0.27132,-0,0.278135,-20867.6,-31841.9,-0,38070.5,499709
step02_gravity_refstate-crust.xmf,368,-6.15446e-06,1.19113e-05,0,8.50441e-06,-8.7473e+08,-8.73491e+08,-8.74308e+08,583403,-0.0694302,0.298127,-0,0.306105,-19486.1,-31839,-0,37328.7,583403
step02_gravity_refstate-crust.xmf,369,-6.41722e-06,1.16861e-05,0,9.85168e-06,-8.74749e+08,-8.73507e+08,-8.74308e+08,675825,-0.077824,0.327064,-0,0.336195,-18147.8,-31838.2,-0,36647.2,675825
step02_gravity_refstate-crust.xmf,370,-6.33044e-06,9.75117e-06,0,1.43471e-05,-8.76966e+08,-8.75863e+08,-8.76531e+08,984213,-0.100988,0.420494,-0,0.43245,-14549.1,-31916.3,-0,35076,984213
step02_gravity_refstate-crust.xmf,371,-6.52312e-06,1.06237e-05,0,1.27851e-05,-8.75718e+08,-8.74542e+08,-8.75271e+08,877055,-0.0937392,0.388379,-0,0.399531,-15686.9,-31871.5,-0,35522.8,877055
step02_gravity_refstate-crust.xmf,372,-6.54222e-06,1.12526e-05,0,1.12931e-05,-8.74835e+08,-8.73615e+08,-8.74386e+08,774710,-0.0860385,0.357449,-0,0.367658,-16877.2,-31840.2,-0,36036.6,774710
step02_gravity_refstate-crust.xmf,373,-6.44801e-06,7.89386e-06,0,2.01833e-05,-9.27724e+08,-9.2674e+08,-9.27282e+08,1.38457e+06,-0.120778,0.518668,-0,0.532545,-11254.2,-33760.9,-0,35587.3,1.38457e+06
step02_gravity_refstate-crust.xmf,374,-2.58435e-06,9.6378e-06,0,1.54745e-06,-8.40628e+08,-8.39789e+08,-8.4045e+08,106155,-0.0141203,0.146588,-0,0.147267,-33682.7,-30608.4,-0,45512.6,106155
step02_gravity_refstate-crust.xmf,375,-2.9062e-06,9.9063e-06,0,2.10673e-06,-8.41665e+08,-8.40786e+08,-8.41466e+08,144521,-0.019225,0.156763,-0,0.157938,-31777.8,-30645.2,-0,44147,144521
step02_gravity_refstate-crust.xmf,376,-4.63666e-06,1.10186e-05,0,5.16151e-06,-8.40127e+08,-8.39053e+08,-8.39809e+08,354080,-0.0458187,0.226127,-0,0.230722,-24661.2,-30584,-0,39288.1,354080
step02_gravity_refstate-crust.xmf,377,-3.30376e-06,1.02091e-05,0,2.74323e-06,-8.42015e+08,-8.41088e+08,-8.41788e+08,188186,-0.0249853,0.170068,-0,0.171894,-29896.6,-30656.8,-0,42821.1,188186
step02_gravity_refstate-crust.xmf,378,-3.74554e-06,1.0515e-05,0,3.45904e-06,-8.42032e+08,-8.41053e+08,-8.41775e+08,237290,-0.0313186,0.18605,-0,0.188667,-28085,-30656.1,-0,41576,237290
step02_gravity_refstate-crust.xmf,379,-4.20787e-06,1.07933e-05,0,4.26649e-06,-8.41554e+08,-8.40525e+08,-8.41265e+08,292681,-0.0382394,0.204647,-0,0.208189,-26344.8,-30637.3,-0,40406.6,292681
step02_gravity_refstate-crust.xmf,380,-1.19421e-06,9.44628e-06,0,1.18158e-08,-9.15333e+08,-9.14603e+08,-9.15251e+08,810.567,-4.00025e-19,0.106304,-0,0.106304,-40000,-33333.4,-0,52068.4,810.567
step02_gravity_refstate-crust.xmf,381,-1.98016e-06,9.71808e-06,0,1.05448e-06,-8.83695e+08,-8.82893e+08,-8.83559e+08,72337.1,-0.00929269,0.127336,-0,0.127675,-34623.6,-32178.8,-0,47268.1,72337.1
step02_gravity_refstate-crust.xmf,382,3.25018e-06,-2.71147e-06,0,9.18918e-06,-5.16007e+08,-5.16416e+08,-5.1623e+08,630378,-0.0612905,0.548848,-0,0.552259,-9926.56,-18794.7,-0,21255.1,630378
step02_gravity_refstate-crust.xmf,383,3.73827e-06,-3.12696e-06,0,8.04592e-06,-4.78044e+08,-4.78514e+08,-4.783e+08,551950,-0.0538039,0.556844,-0,0.559437,-9059.27,-17413.9,-0,19629.5,551950
step02_gravity_refstate-crust.xmf,384,4.03606e-06,-3.28363e-06,0,6.91781e-06,-4.38982e+08,-4.39484e+08,-4.39259e+08,474562,-0.0468328,0.562037,-0,0.563985,-8255.18,-15992.8,-0,17997.7,474562
step02_gravity_refstate-crust.xmf,385,3.88152e-06,-2.80273e-06,0,6.05881e-06,-3.86593e+08,-3.87051e+08,-3.86859e+08,415634,-0.0425271,0.55703,-0,0.558651,-8176.65,-14085.7,-0,16286.9,415634
step02_gravity_refstate-crust.xmf,386,3.21171e-06,-3.02945e-06,0,1.09527e-05,-5.89651e+08,-5.90079e+08,-5.89871e+08,751354,-0.0717367,0.556073,-0,0.560682,-9965.28,-21475.1,-0,23674.6,751354
step02_gravity_refstate-crust.xmf,387,2.40014e-06,-2.15344e-06,0,1.20949e-05,-6.25499e+08,-6.25812e+08,-6.25664e+08,829713,-0.0794824,0.545979,-0,0.551735,-10693,-22778.3,-0,25163.3,829713
step02_gravity_refstate-crust.xmf,388,2.38513e-06,-2.6222e-06,0,1.38314e-05,-6.8403e+08,-6.84374e+08,-6.84194e+08,948832,-0.0885682,0.559495,-0,0.566462,-10294.7,-24908.4,-0,26952,948832
step02_gravity_refstate-crust.xmf,389,1.12237e-07,-5.16659e-08,0,1.62166e-05,-7.61065e+08,-7.61076e+08,-7.61072e+08,1.11246e+06,-0.103331,0.54367,-0,0.553402,-11087.6,-27707.7,-0,29843.8,1.11246e+06
step02_gravity_refstate-crust.xmf,390,1.38717e-06,-1.62409e-06,0,1.54687e-05,-7.33611e+08,-7.33818e+08,-7.33706e+08,1.06115e+06,-0.0980659,0.557415,-0,0.565976,-10542.1,-26710.9,-0,28716,1.06115e+06
step02_gravity_refstate-crust.xmf,391,-2.89943e-06,2.55047e-06,0,2.10499e-05,-8.81585e+08,-8.81211e+08,-8.81386e+08,1.44402e+06,-0.122653,0.565884,-0,0.579023,-10288.8,-32087.2,-0,33696.4,1.44402e+06
step02_gravity_refstate-crust.xmf,392,-1.02916e-06,4.45263e-07,0,1.94668e-05,-8.36981e+08,-8.3688e+08,-8.3691e+08,1.33542e+06,-0.116265,0.567033,-0,0.578829,-10320.8,-30467.7,-0,32168.2,1.33542e+06
step02_gravity_refstate-crust.xmf,393,6.96089e-06,-2.56785e-06,0,5.97802e-07,-5.12119e+07,-5.18656e+07,-5.16895e+07,41009.2,-0.0256538,0.557781,-0,0.55837,-3578.68,-1888.61,-0,4046.45,41009.2
step02_gravity_refstate-crust.xmf,394,4.01783e-06,-1.99154e-06,0,3.80022e-06,-2.43965e+08,-2.44378e+08,-2.44241e+08,260695,-0.0352531,0.551831,-0,0.552956,-7369.73,-8894.97,-0,11551.3,260695
step02_gravity_refstate-crust.xmf,395,4.43419e-06,-1.90818e-06,0,2.90449e-06,-1.88611e+08,-1.89046e+08,-1.88915e+08,199248,-0.033852,0.552602,-0,0.553638,-6720.11,-6881.54,-0,9618.5,199248
step02_gravity_refstate-crust.xmf,396,5.78158e-06,-2.19275e-06,0,1.30644e-06,-1.03256e+08,-1.03803e+08,-1.03652e+08,89622,-0.0279692,0.558281,-0,0.558982,-4588.77,-3779.12,-0,5944.62,89622
step02_gravity_refstate-crust.xmf,397,4.07557e-06,-2.68845e-06,0,4.89927e-06,-3.36463e+08,-3.36927e+08,-3.36743e+08,336090,-0.0364141,0.560354,-0,0.561536,-7288.66,-12261.6,-0,14264.3,336090
step02_gravity_refstate-crust.xmf,398,-4.86037e-06,1.17004e-05,0,5.17808e-06,-8.75877e+08,-8.7474e+08,-8.75543e+08,355216,-0.04552,0.223559,-0,0.228146,-23779.2,-31885.6,-0,39776.1,355216
step02_gravity_refstate-crust.xmf,399,-6.57572e-06,9.21428e-06,0,1.69108e-05,-9.03904e+08,-9.02821e+08,-9.03453e+08,1.16008e+06,-0.110623,0.464429,-0,0.477422,-12895.1,-32895.2,-0,35332.4,1.16008e+06
step02_gravity_refstate-crust.xmf,400,-6.95282e-06,1.04298e-05,0,1.50839e-05,-9.02414e+08,-9.01222e+08,-9.01937e+08,1.03475e+06,-0.103391,0.428925,-0,0.44121,-13975,-32841.3,-0,35691.1,1.03475e+06
step02_gravity_refstate-crust.xmf,401,-5.23295e-06,5.40043e-06,0,2.23824e-05,-9.27146e+08,-9.26416e+08,-9.26787e+08,1.53543e+06,-0.126694,0.561153,-0,0.575278,-10248.4,-33740.9,-0,35262.9,1.53543e+06
step02_gravity_refstate-crust.xmf,402,-7.29439e-06,9.88307e-06,0,1.79669e-05,-9.28966e+08,-9.27788e+08,-9.28465e+08,1.23253e+06,-0.113469,0.477019,-0,0.490329,-12307.5,-33805.7,-0,35976.4,1.23253e+06
step02_gravity_refstate-crust.xmf,403,-9.30899e-07,9.53117e-06,0,2.64776e-07,-9.40359e+08,-9.39641e+08,-9.40295e+08,18163.6,-0.00178545,0.0990353,-0,0.0990514,-37947.5,-34245.7,-0,51115.4,18163.6
step02_gravity_refstate-crust.xmf,404,-1.23845e-06,9.72083e-06,0,5.97528e-07,-9.33787e+08,-9.33035e+08,-9.33702e+08,40990.4,-0.0045175,0.106151,-0,0.106247,-35641.6,-34005.5,-0,49261.5,40990.4
step02_gravity_refstate-crust.xmf,405,3.85277e-06,-3.66256e-06,0,9.74518e-06,-5.53947e+08,-5.54463e+08,-5.54212e+08,668520,-0.0637599,0.564377,-0,0.567967,-9198.44,-20176.9,-0,22174.8,668520
step02_gravity_refstate-crust.xmf,406,2.54545e-06,-3.02999e-06,0,1.46498e-05,-7.08904e+08,-7.09286e+08,-7.09079e+08,1.00498e+06,-0.092265,0.570426,-0,0.57784,-9936.14,-25814,-0,27660.2,1.00498e+06
step02_gravity_refstate-crust.xmf,407,3.05397e-06,-3.35307e-06,0,1.28895e-05,-6.56674e+08,-6.57114e+08,-6.56884e+08,884219,-0.0826113,0.565181,-0,0.571187,-9898.33,-23914,-0,25881.6,884219
step02_gravity_refstate-crust.xmf,408,2.75572e-07,-7.54485e-07,0,1.75194e-05,-7.88398e+08,-7.88468e+08,-7.88417e+08,1.20183e+06,-0.107937,0.561674,-0,0.571952,-10478,-28702.4,-0,30555.1,1.20183e+06
step02_gravity_refstate-crust.xmf,409,-1.01609e-06,-5.99466e-08,0,2.09117e-05,-8.59171e+08,-8.59105e+08,-8.59101e+08,1.43454e+06,-0.120398,0.585611,-0,0.597859,-9796.25,-31274.8,-0,32773.1,1.43454e+06
step02_gravity_refstate-crust.xmf,410,5.51682e-07,-1.57838e-06,0,1.88954e-05,-8.13406e+08,-8.13552e+08,-8.13444e+08,1.29623e+06,-0.112241,0.582022,-0,0.592746,-9859.26,-29612.7,-0,31210.8,1.29623e+06
step02_gravity_refstate-crust.xmf,411,-3.2103e-06,2.34657e-06,0,2.27271e-05,-9.04237e+08,-9.03856e+08,-9.04017e+08,1.55908e+06,-0.126842,0.584637,-0,0.598238,-9775.87,-32910.3,-0,34331.5,1.55908e+06
step02_gravity_refstate-crust.xmf,412,8.60347e-06,-3.26576e-06,0,3.64846e-08,817222,2992.16,227023,2502.85,-0.0214,0.555484,-0,0.555896,-2459.57,0,-0,2459.57,2502.85
step02_gravity_refstate-crust.xmf,413,5.07194e-06,-2.0608e-06,0,1.95187e-06,-1.50108e+08,-1.50597e+08,-1.50456e+08,133899,-0.0285,0.558844,-0,0.559571,-5219.92,-5482.15,-0,7569.78,133899
step02_gravity_refstate-crust.xmf,414,4.28257e-06,-2.54926e-06,0,3.8742e-06,-2.89434e+08,-2.89902e+08,-2.89727e+08,265770,-0.0313357,0.563098,-0,0.56397,-6374.65,-10550.5,-0,12326.8,265770
step02_gravity_refstate-crust.xmf,415,-5.1237e-06,1.23593e-05,0,5.21971e-06,-9.06802e+08,-9.05602e+08,-9.0645e+08,358072,-0.0449701,0.22282,-0,0.227312,-22911.5,-33011.4,-0,40183.2,358072
step02_gravity_refstate-crust.xmf,416,-5.6508e-06,1.25983e-05,0,6.19528e-06,-9.06581e+08,-9.05329e+08,-9.06193e+08,424997,-0.052428,0.245313,-0,0.250853,-21529.6,-33001.6,-0,39403.4,424997
step02_gravity_refstate-crust.xmf,417,-6.15916e-06,1.27494e-05,0,7.33034e-06,-9.06563e+08,-9.05266e+08,-9.0614e+08,502861,-0.060561,0.270599,-0,0.277293,-20148.3,-32999.1,-0,38663.9,502861
step02_gravity_refstate-crust.xmf,418,-6.61393e-06,1.27649e-05,0,8.63312e-06,-9.06664e+08,-9.05335e+08,-9.0621e+08,592232,-0.0692205,0.298616,-0,0.306534,-18785.6,-33001,-0,37973.2,592232
step02_gravity_refstate-crust.xmf,419,-6.94621e-06,1.25614e-05,0,1.00853e-05,-9.05527e+08,-9.04189e+08,-9.05051e+08,691849,-0.0781873,0.329062,-0,0.338223,-17486.9,-32958,-0,37309.8,691849
step02_gravity_refstate-crust.xmf,420,-7.12571e-06,1.14227e-05,0,1.32804e-05,-9.02744e+08,-9.01472e+08,-9.02255e+08,911037,-0.095299,0.393675,-0,0.405046,-15119.6,-32854.2,-0,36166.2,911037
step02_gravity_refstate-crust.xmf,421,-7.12634e-06,1.21054e-05,0,1.16765e-05,-9.04087e+08,-9.02768e+08,-9.03599e+08,801008,-0.0871213,0.361469,-0,0.37182,-16245,-32904.1,-0,36695.8,801008
step02_gravity_refstate-crust.xmf,422,-3.53123e-06,2.10292e-06,0,2.46223e-05,-9.26512e+08,-9.26125e+08,-9.2627e+08,1.68909e+06,-0.131084,0.606338,-0,0.620345,-9242.82,-33719.6,-0,34963.4,1.68909e+06
step02_gravity_refstate-crust.xmf,423,-5.80719e-06,5.57289e-06,0,2.41934e-05,-9.49446e+08,-9.48665e+08,-9.49048e+08,1.65966e+06,-0.130543,0.581851,-0,0.596316,-9696.79,-34550.7,-0,35885.6,1.65966e+06
step02_gravity_refstate-crust.xmf,424,-7.11092e-06,8.34704e-06,0,2.16149e-05,-9.49869e+08,-9.48809e+08,-9.49381e+08,1.48279e+06,-0.12401,0.535668,-0,0.549835,-10700,-34565.1,-0,36183.4,1.48279e+06
step02_gravity_refstate-crust.xmf,425,-7.91164e-06,1.03803e-05,0,1.92686e-05,-9.51202e+08,-9.49947e+08,-9.50659e+08,1.32182e+06,-0.116679,0.494292,-0,0.507877,-11660.3,-34613.5,-0,36524.8,1.32182e+06
step02_gravity_refstate-crust.xmf,426,-2.34662e-06,1.00154e-05,0,1.51739e-06,-8.83684e+08,-8.82836e+08,-8.83523e+08,104093,-0.013495,0.136303,-0,0.136969,-32668.1,-32177.4,-0,45854,104093
step02_gravity_refstate-crust.xmf,427,-2.75229e-06,1.03633e-05,0,2.03485e-06,-8.84354e+08,-8.83454e+08,-8.84165e+08,139591,-0.0181976,0.147632,-0,0.148749,-30776.5,-32200.7,-0,44543,139591
step02_gravity_refstate-crust.xmf,428,-4.33373e-06,1.15629e-05,0,4.12994e-06,-8.87438e+08,-8.86348e+08,-8.87141e+08,283314,-0.0366202,0.197753,-0,0.201115,-25354.4,-32308.4,-0,41069.3,283314
step02_gravity_refstate-crust.xmf,429,-3.23611e-06,1.0739e-05,0,2.64199e-06,-8.83901e+08,-8.82942e+08,-8.83679e+08,181240,-0.0236881,0.161996,-0,0.163719,-28941.3,-32182.8,-0,43282,181240
step02_gravity_refstate-crust.xmf,430,-3.74912e-06,1.11274e-05,0,3.31356e-06,-8.84541e+08,-8.8352e+08,-8.84284e+08,227310,-0.0296277,0.178131,-0,0.180578,-27201.4,-32204.7,-0,42155.2,227310
step02_gravity_refstate-crust.xmf,431,-1.59045e-06,1.00001e-05,0,9.67511e-07,-9.29237e+08,-9.28442e+08,-9.29128e+08,66371.3,-0.00767906,0.115026,-0,0.115282,-33626.4,-33838.9,-0,47705.4,66371.3
step02_gravity_refstate-crust.xmf,432,-3.02212e-07,9.45687e-06,0,7.3535e-09,-9.76597e+08,-9.75927e+08,-9.76576e+08,504.45,-2.14603e-21,0.0851914,-0,0.0851914,-40000,-35567.4,-0,53526.1,504.45
step02_gravity_refstate-crust.xmf,433,4.35821e-06,-4.10144e-06,0,8.48002e-06,-5.17994e+08,-5.18574e+08,-5.18293e+08,581730,-0.0555779,0.571487,-0,0.574184,-8356.83,-18869.4,-0,20637.1,581730
step02_gravity_refstate-crust.xmf,434,4.84349e-06,-4.51038e-06,0,7.02846e-06,-4.7975e+08,-4.80392e+08,-4.80082e+08,482152,-0.0461447,0.579406,-0,0.581241,-7230.9,-17478.4,-0,18915.1,482152
step02_gravity_refstate-crust.xmf,435,4.81678e-06,-4.14641e-06,0,5.78022e-06,-4.31259e+08,-4.31874e+08,-4.3159e+08,396523,-0.0388301,0.578354,-0,0.579656,-6590.81,-15713.5,-0,17039.7,396523
step02_gravity_refstate-crust.xmf,436,4.56151e-06,-4.78614e-06,0,1.03172e-05,-5.90194e+08,-5.90836e+08,-5.90507e+08,707760,-0.0660964,0.58133,-0,0.585076,-8489.01,-21497.7,-0,23113,707760
step02_gravity_refstate-crust.xmf,437,3.88706e-06,-4.12931e-06,0,1.16549e-05,-6.24188e+08,-6.24738e+08,-6.24455e+08,799529,-0.0746613,0.574084,-0,0.578918,-9222.73,-22733.5,-0,24533.1,799529
step02_gravity_refstate-crust.xmf,438,3.74108e-06,-4.53202e-06,0,1.36939e-05,-6.85474e+08,-6.86041e+08,-6.85731e+08,939404,-0.0854648,0.584487,-0,0.590703,-9187.9,-24963.5,-0,26600.6,939404
step02_gravity_refstate-crust.xmf,439,1.7671e-06,-2.47444e-06,0,1.66519e-05,-7.60997e+08,-7.61288e+08,-7.61119e+08,1.14232e+06,-0.102233,0.576273,-0,0.585271,-9917.92,-27708.2,-0,29429.7,1.14232e+06
step02_gravity_refstate-crust.xmf,440,2.76032e-06,-3.60248e-06,0,1.56361e-05,-7.35491e+08,-7.35927e+08,-7.3568e+08,1.07263e+06,-0.096371,0.583334,-0,0.591241,-9548.32,-26781.9,-0,28433.1,1.07263e+06
step02_gravity_refstate-crust.xmf,441,-1.07471e-06,-4.51616e-07,0,2.24677e-05,-8.81329e+08,-8.81286e+08,-8.81255e+08,1.54128e+06,-0.124584,0.604864,-0,0.617561,-9304.3,-32080.6,-0,33402.6,1.54128e+06
step02_gravity_refstate-crust.xmf,442,8.38893e-07,-2.45624e-06,0,2.03492e-05,-8.36648e+08,-8.36874e+08,-8.36706e+08,1.39596e+06,-0.116322,0.602865,-0,0.613985,-9291.41,-30458.6,-0,31844.3,1.39596e+06
step02_gravity_refstate-crust.xmf,443,7.29368e-06,-2.70003e-06,0,2.27729e-07,-5.01729e+07,-5.08584e+07,-5.06732e+07,15622.2,-0.00877194,0.56313,-0,0.563198,-1202.45,-1851.92,-0,2208.06,15622.2
step02_gravity_refstate-crust.xmf,444,6.21107e-06,-2.37227e-06,0,6.7588e-07,-9.95382e+07,-1.00127e+08,-9.99643e+07,46365.3,-0.0145865,0.56572,-0,0.565908,-2323.97,-3645.24,-0,4323.04,46365.3
step02_gravity_refstate-crust.xmf,445,4.54676e-06,-2.39771e-06,0,2.92321e-06,-2.42152e+08,-2.42629e+08,-2.42464e+08,200532,-0.0269066,0.565122,-0,0.565763,-5417.19,-8830.48,-0,10359.7,200532
step02_gravity_refstate-crust.xmf,446,5.45628e-06,-2.26004e-06,0,1.27643e-06,-1.47353e+08,-1.47882e+08,-1.47727e+08,87563.1,-0.0186603,0.566859,-0,0.567166,-3329.18,-5383.1,-0,6329.39,87563.1
step02_gravity_refstate-crust.xmf,447,4.9264e-06,-2.27512e-06,0,2.03873e-06,-1.93277e+08,-1.93771e+08,-1.93615e+08,139857,-0.0228809,0.5663,-0,0.566762,-4407.67,-7052.85,-0,8316.87,139857
step02_gravity_refstate-crust.xmf,448,4.68644e-06,-3.29885e-06,0,3.80817e-06,-3.35023e+08,-3.35571e+08,-3.35345e+08,261241,-0.0280153,0.574899,-0,0.575581,-5382.54,-12210.7,-0,13344.4,261241
step02_gravity_refstate-crust.xmf,449,4.67122e-06,-3.63989e-06,0,4.84586e-06,-3.82199e+08,-3.82769e+08,-3.8252e+08,332426,-0.0337363,0.57498,-0,0.575969,-6180.15,-13927.6,-0,15237.2,332426
step02_gravity_refstate-crust.xmf,450,-3.78423e-06,1.56656e-06,0,2.70291e-05,-9.49507e+08,-9.4914e+08,-9.49247e+08,1.8542e+06,-0.135696,0.634381,-0,0.648731,-8632.71,-34554.9,-0,35616.9,1.8542e+06
step02_gravity_refstate-crust.xmf,451,-4.6605e-06,1.21165e-05,0,4.46233e-06,-9.08127e+08,-9.06976e+08,-9.07807e+08,306116,-0.0388489,0.204808,-0,0.20846,-24120.7,-33061.2,-0,40924.9,306116
step02_gravity_refstate-crust.xmf,452,-7.83328e-06,1.15375e-05,0,1.56421e-05,-9.31868e+08,-9.30539e+08,-9.31331e+08,1.07305e+06,-0.104224,0.433064,-0,0.44543,-13496.7,-33911.8,-0,36498.9,1.07305e+06
step02_gravity_refstate-crust.xmf,453,-7.6272e-06,1.19402e-05,0,1.39586e-05,-9.22733e+08,-9.21391e+08,-9.2221e+08,957558,-0.0974008,0.403197,-0,0.414795,-14525.9,-33580.6,-0,36587.7,957558
step02_gravity_refstate-crust.xmf,454,-8.46287e-06,1.20204e-05,0,1.70062e-05,-9.54507e+08,-9.53102e+08,-9.53926e+08,1.16662e+06,-0.108166,0.453817,-0,0.466529,-12652.9,-34734.2,-0,36967,1.16662e+06
step02_gravity_refstate-crust.xmf,455,-7.79658e-07,9.90404e-06,0,5.14535e-07,-9.73743e+08,-9.7301e+08,-9.73689e+08,35297.1,-0.00269076,0.0952198,-0,0.0952578,-34570.1,-35462.3,-0,49524.3,35297.1
step02_gravity_refstate-crust.xmf,456,1.32066e-07,9.44888e-06,0,9.77823e-08,-1.0061e+09,-1.00546e+09,-1.00611e+09,6707.86,0.000287789,0.075886,0,0.0758865,-38283.6,-36643.3,-0,52994,6707.86
step02_gravity_refstate-crust.xmf,457,-4.15719e-07,9.62639e-06,0,2.85452e-07,-9.8117e+08,-9.80481e+08,-9.81141e+08,19582,-0.000967368,0.0870336,-0,0.087039,-36620.1,-35733.7,-0,51165.7,19582
step02_gravity_refstate-crust.xmf,458,-6.57972e-06,5.96466e-06,0,2.60454e-05,-9.70787e+08,-9.69926e+08,-9.70336e+08,1.78671e+06,-0.133842,0.60169,-0,0.616396,-9209.49,-35325.1,-0,36505.8,1.78671e+06
step02_gravity_refstate-crust.xmf,459,-4.83487e-06,2.70487e-06,0,2.83895e-05,-9.69462e+08,-9.68945e+08,-9.69131e+08,1.94752e+06,-0.138199,0.64303,-0,0.657713,-8440.17,-35278.9,-0,36274.4,1.94752e+06
step02_gravity_refstate-crust.xmf,460,-2.69412e-06,-7.78414e-07,0,2.95665e-05,-9.61371e+08,-9.6124e+08,-9.61186e+08,2.02826e+06,-0.139468,0.673226,-0,0.68752,-7898.01,-34987.6,-0,35867.9,2.02826e+06
step02_gravity_refstate-crust.xmf,461,-3.38771e-06,-3.79358e-07,0,3.12058e-05,-9.77016e+08,-9.76809e+08,-9.76783e+08,2.14072e+06,-0.142088,0.686973,-0,0.701514,-7663.59,-35554.9,-0,36371.5,2.14072e+06
step02_gravity_refstate-crust.xmf,462,5.0457e-06,-5.18839e-06,0,8.95535e-06,-5.55997e+08,-5.56699e+08,-5.56343e+08,614337,-0.0574918,0.586721,-0,0.589531,-7723.89,-20254,-0,21676.8,614337
step02_gravity_refstate-crust.xmf,463,4.31878e-06,-5.52267e-06,0,1.47809e-05,-7.18037e+08,-7.18712e+08,-7.18333e+08,1.01397e+06,-0.0896656,0.602945,-0,0.609576,-8643.55,-26149.8,-0,27541.3,1.01397e+06
step02_gravity_refstate-crust.xmf,464,4.66184e-06,-5.52584e-06,0,1.24066e-05,-6.57083e+08,-6.57782e+08,-6.57403e+08,851093,-0.0773768,0.593402,-0,0.598426,-8516.4,-23932.1,-0,25402.2,851093
step02_gravity_refstate-crust.xmf,465,2.20103e-06,-3.5938e-06,0,1.79735e-05,-7.87498e+08,-7.87896e+08,-7.87649e+08,1.23298e+06,-0.106354,0.596573,-0,0.605979,-9318.48,-28673,-0,30149.2,1.23298e+06
step02_gravity_refstate-crust.xmf,466,1.08219e-06,-3.32707e-06,0,2.19269e-05,-8.59256e+08,-8.59558e+08,-8.5933e+08,1.50418e+06,-0.120405,0.623957,-0,0.635468,-8778.19,-31281.3,-0,32489.6,1.50418e+06
step02_gravity_refstate-crust.xmf,467,2.6563e-06,-4.6954e-06,0,1.93847e-05,-8.12766e+08,-8.1327e+08,-8.12948e+08,1.32979e+06,-0.110363,0.617977,-0,0.627754,-8754.93,-29593,-0,30860.9,1.32979e+06
step02_gravity_refstate-crust.xmf,468,-1.1638e-06,-1.0577e-06,0,2.42885e-05,-9.02891e+08,-9.02883e+08,-9.02811e+08,1.66619e+06,-0.128734,0.625544,-0,0.638653,-8826.12,-32864.3,-0,34028.8,1.66619e+06
step02_gravity_refstate-crust.xmf,469,-1.13505e-06,-1.89555e-06,0,2.64364e-05,-9.24578e+08,-9.24631e+08,-9.24501e+08,1.81353e+06,-0.133038,0.651203,-0,0.664654,-8290.57,-33652.7,-0,34658.9,1.81353e+06
step02_gravity_refstate-crust.xmf,470,8.79744e-06,-3.33954e-06,0,2.51665e-08,835639,3042.96,232135,1726.42,4.32855e-07,0.558269,0,0.558269,7.12462e-08,0,0,7.12462e-08,1726.42
step02_gravity_refstate-crust.xmf,471,4.77114e-06,-2.99684e-06,0,2.82546e-06,-2.89066e+08,-2.89599e+08,-2.89393e+08,193827,-0.0226028,0.575183,-0,0.575627,-4446.43,-10538.4,-0,11438,193827
step02_gravity_refstate-crust.xmf,472,-4.71642e-06,1.26618e-05,0,4.25802e-06,-9.37665e+08,-9.36473e+08,-9.37342e+08,292100,-0.0360012,0.199364,-0,0.202588,-23551.3,-34137.2,-0,41473,292100
step02_gravity_refstate-crust.xmf,473,-5.30639e-06,1.30381e-05,0,5.10149e-06,-9.3798e+08,-9.36721e+08,-9.37616e+08,349962,-0.0427163,0.219624,-0,0.223739,-22192.6,-34146.8,-0,40724.9,349962
step02_gravity_refstate-crust.xmf,474,-5.92251e-06,1.3361e-05,0,6.12381e-06,-9.37959e+08,-9.36636e+08,-9.37552e+08,420093,-0.0504497,0.243206,-0,0.248383,-20810.6,-34144,-0,39986.2,420093
step02_gravity_refstate-crust.xmf,475,-6.53315e-06,1.35927e-05,0,7.33485e-06,-9.37994e+08,-9.36613e+08,-9.37546e+08,503170,-0.0590035,0.269896,-0,0.27627,-19430.3,-34143.2,-0,39284.8,503170
step02_gravity_refstate-crust.xmf,476,-7.08649e-06,1.37559e-05,0,8.69695e-06,-9.40752e+08,-9.39322e+08,-9.40266e+08,596611,-0.0679349,0.299224,-0,0.306839,-18029.8,-34241.6,-0,38698.4,596611
step02_gravity_refstate-crust.xmf,477,-7.49473e-06,1.34173e-05,0,1.04474e-05,-9.33647e+08,-9.32212e+08,-9.33133e+08,716690,-0.0787755,0.334549,-0,0.343699,-16742.4,-33980.8,-0,37881.4,716690
step02_gravity_refstate-crust.xmf,478,-7.78719e-06,1.29886e-05,0,1.21995e-05,-9.32756e+08,-9.3133e+08,-9.32221e+08,836886,-0.0882045,0.368418,-0,0.37883,-15527.9,-33946.5,-0,37329.4,836886
step02_gravity_refstate-crust.xmf,479,-7.85497e-06,8.86293e-06,0,2.32123e-05,-9.71419e+08,-9.70272e+08,-9.7088e+08,1.59236e+06,-0.127029,0.554449,-0,0.568815,-10148.4,-35347.4,-0,36775.4,1.59236e+06
step02_gravity_refstate-crust.xmf,480,-8.63873e-06,1.09909e-05,0,2.05972e-05,-9.72355e+08,-9.71008e+08,-9.71762e+08,1.41297e+06,-0.119304,0.51129,-0,0.525025,-11071.4,-35381.6,-0,37073.4,1.41297e+06
step02_gravity_refstate-crust.xmf,481,-9.0424e-06,1.25196e-05,0,1.82671e-05,-9.7383e+08,-9.7235e+08,-9.73209e+08,1.25312e+06,-0.111195,0.472445,-0,0.485354,-11963,-35436,-0,37400.9,1.25312e+06
step02_gravity_refstate-crust.xmf,482,-2.05338e-06,1.03749e-05,0,1.38224e-06,-9.27123e+08,-9.2627e+08,-9.26982e+08,94821.4,-0.011363,0.125545,-0,0.126059,-31704.5,-33760.6,-0,46313.6,94821.4
step02_gravity_refstate-crust.xmf,483,-2.56037e-06,1.0805e-05,0,1.87087e-06,-9.26238e+08,-9.25321e+08,-9.26062e+08,128342,-0.0157519,0.138303,-0,0.139197,-29824,-33727,-0,45022,128342
step02_gravity_refstate-crust.xmf,484,-4.13955e-06,1.22371e-05,0,3.55047e-06,-9.34445e+08,-9.33321e+08,-9.34161e+08,243562,-0.0304572,0.182368,-0,0.184894,-24950,-34021.6,-0,42189.7,243562
step02_gravity_refstate-crust.xmf,485,-3.09487e-06,1.12593e-05,0,2.40738e-06,-9.26718e+08,-9.25733e+08,-9.26505e+08,165146,-0.0205354,0.152348,-0,0.153726,-28087.8,-33743,-0,43903.5,165146
step02_gravity_refstate-crust.xmf,486,-3.66861e-06,1.1724e-05,0,3.02799e-06,-9.2736e+08,-9.26304e+08,-9.27109e+08,207720,-0.026001,0.16848,-0,0.170475,-26423.8,-33764.8,-0,42875.2,207720
step02_gravity_refstate-crust.xmf,487,-1.19656e-06,1.02505e-05,0,8.14773e-07,-9.70952e+08,-9.70167e+08,-9.7087e+08,55893.4,-0.00486051,0.103995,-0,0.104108,-32660.7,-35359.5,-0,48135.4,55893.4
step02_gravity_refstate-crust.xmf,488,7.3119e-07,9.31265e-06,0,4.33212e-09,-1.03747e+09,-1.03688e+09,-1.03752e+09,297.184,2.71915e-19,0.0643522,0,0.0643522,-40000,-37787.4,-0,55026.3,297.184
step02_gravity_refstate-crust.xmf,489,-7.62072e-06,6.93759e-06,0,2.76742e-05,-9.92464e+08,-9.91465e+08,-9.91941e+08,1.89845e+06,-0.135934,0.616465,-0,0.631274,-8844.57,-36111.6,-0,37178.9,1.89845e+06
step02_gravity_refstate-crust.xmf,490,-6.11124e-06,3.74534e-06,0,3.06207e-05,-9.94081e+08,-9.93404e+08,-9.93661e+08,2.10058e+06,-0.141299,0.661929,-0,0.676842,-8063.77,-36171.6,-0,37059.5,2.10058e+06
step02_gravity_refstate-crust.xmf,491,-8.55232e-07,-3.12172e-06,0,2.87443e-05,-9.43506e+08,-9.43661e+08,-9.43447e+08,1.97186e+06,-0.13691,0.679928,-0,0.693575,-7750.62,-34341,-0,35204.7,1.97186e+06
step02_gravity_refstate-crust.xmf,492,-5.31262e-07,-4.46187e-06,0,3.1222e-05,-9.61105e+08,-9.61375e+08,-9.61068e+08,2.14183e+06,-0.140485,0.709528,-0,0.723302,-7252.33,-34980.9,-0,35724.8,2.14183e+06
step02_gravity_refstate-crust.xmf,493,5.43301e-06,-5.48041e-06,0,7.59533e-06,-5.24057e+08,-5.24806e+08,-5.2443e+08,521040,-0.0488836,0.591986,-0,0.594,-6842.07,-19092.3,-0,20281.3,521040
step02_gravity_refstate-crust.xmf,494,5.61125e-06,-5.32445e-06,0,5.55971e-06,-4.67332e+08,-4.68082e+08,-4.67717e+08,381396,-0.036303,0.594018,-0,0.595126,-5562.61,-17028.1,-0,17913.7,381396
step02_gravity_refstate-crust.xmf,495,5.42616e-06,-4.80124e-06,0,4.53276e-06,-4.24845e+08,-4.25546e+08,-4.25217e+08,310948,-0.0302381,0.590745,-0,0.591518,-4997.55,-15481.4,-0,16268.1,310948
step02_gravity_refstate-crust.xmf,496,5.89016e-06,-6.50088e-06,0,9.37084e-06,-5.91644e+08,-5.92494e+08,-5.92048e+08,642840,-0.0588182,0.604037,-0,0.606894,-7052.38,-21553.2,-0,22677.6,642840
step02_gravity_refstate-crust.xmf,497,5.39104e-06,-6.10562e-06,0,1.08965e-05,-6.24665e+08,-6.25454e+08,-6.25035e+08,747498,-0.0681406,0.599836,-0,0.603694,-7796.24,-22753.9,-0,24052.5,747498
step02_gravity_refstate-crust.xmf,498,5.42866e-06,-6.8271e-06,0,1.31623e-05,-6.8658e+08,-6.8742e+08,-6.86952e+08,902935,-0.0799094,0.611975,-0,0.61717,-7925.38,-25007,-0,26232.8,902935
step02_gravity_refstate-crust.xmf,499,3.78604e-06,-5.30369e-06,0,1.64896e-05,-7.56091e+08,-7.56714e+08,-7.5635e+08,1.13118e+06,-0.0978943,0.608691,-0,0.616513,-8716.21,-27533.3,-0,28880.1,1.13118e+06
step02_gravity_refstate-crust.xmf,500,1.14421e-06,-3.91029e-06,0,2.35827e-05,-8.81192e+08,-8.81539e+08,-8.81271e+08,1.61777e+06,-0.124541,0.643671,-0,0.655609,-8353.47,-32079.3,-0,33149.1,1.61777e+06
step02_gravity_refstate-crust.xmf,501,3.13075e-06,-5.88154e-06,0,2.09534e-05,-8.37277e+08,-8.37895e+08,-8.37491e+08,1.4374e+06,-0.114389,0.640376,-0,0.650512,-8231.97,-30485.5,-0,31577.3,1.4374e+06
step02_gravity_refstate-crust.xmf,502,7.29972e-06,-2.70664e-06,0,-1.45462e-07,-5.01298e+07,-5.08162e+07,-5.06306e+07,-9978.69,0.00834934,0.563192,0,0.563254,1144.15,-1850.37,0,2175.53,9978.69
step02_gravity_refstate-crust.xmf,503,6.33632e-06,-2.43481e-06,0,4.31472e-08,-9.97503e+07,-1.00352e+08,-1.00185e+08,2959.9,-0.000369758,0.568449,-0,0.568449,-58.5238,-3653.38,-0,3653.85,2959.9
step02_gravity_refstate-crust.xmf,504,5.69248e-06,-2.38062e-06,0,4.73128e-07,-1.4547e+08,-1.46024e+08,-1.45861e+08,32456.6,-0.00675666,0.571719,-0,0.571759,-1186.22,-5315.33,-0,5446.08,32456.6
step02_gravity_refstate-crust.xmf,505,4.93542e-06,-2.70841e-06,0,1.91842e-06,-2.41658e+08,-2.42182e+08,-2.41997e+08,131604,-0.0174755,0.574883,-0,0.575148,-3427.33,-8813.58,-0,9456.52,131604
step02_gravity_refstate-crust.xmf,506,5.2314e-06,-2.48385e-06,0,1.10893e-06,-1.9311e+08,-1.93639e+08,-1.93469e+08,76072.8,-0.012258,0.573825,-0,0.573956,-2315.62,-7047.67,-0,7418.34,76072.8
step02_gravity_refstate-crust.xmf,507,5.14444e-06,-3.76842e-06,0,2.56656e-06,-3.34793e+08,-3.35405e+08,-3.35146e+08,176066,-0.0187129,0.58548,-0,0.585779,-3490.81,-12203.5,-0,12692.9,176066
step02_gravity_refstate-crust.xmf,508,5.25681e-06,-4.2746e-06,0,3.55674e-06,-3.80812e+08,-3.81466e+08,-3.81172e+08,243992,-0.024547,0.587813,-0,0.588326,-4341.16,-13878.5,-0,14541.6,243992
step02_gravity_refstate-crust.xmf,509,-8.27241e-06,1.32116e-05,0,1.34969e-05,-9.48026e+08,-9.46553e+08,-9.47459e+08,925887,-0.0936175,0.391886,-0,0.402913,-14517.5,-34500.8,-0,37430.8,925887
step02_gravity_refstate-crust.xmf,510,-8.87193e-06,1.36989e-05,0,1.47281e-05,-9.67012e+08,-9.65463e+08,-9.66403e+08,1.01035e+06,-0.0974761,0.412068,-0,0.42344,-13636.9,-35190.3,-0,37740.2,1.01035e+06
step02_gravity_refstate-crust.xmf,511,-9.21089e-06,1.36009e-05,0,1.63078e-05,-9.76717e+08,-9.75152e+08,-9.76085e+08,1.11872e+06,-0.103328,0.43918,-0,0.451172,-12765.6,-35542.2,-0,37765.1,1.11872e+06
step02_gravity_refstate-crust.xmf,512,-3.30695e-07,1.00442e-05,0,3.73754e-07,-1.01358e+09,-1.01287e+09,-1.01355e+09,25639.5,0.000639964,0.0841718,0,0.0841743,-33610.3,-36914.5,-0,49923.3,25639.5
step02_gravity_refstate-crust.xmf,513,-1.74875e-09,9.72345e-06,0,2.31228e-07,-1.01466e+09,-1.014e+09,-1.01466e+09,15862.3,0.00101332,0.0781424,0,0.078149,-35376.2,-36954.9,-0,51158,15862.3
step02_gravity_refstate-crust.xmf,514,1.00943e-06,9.28473e-06,0,-1.62333e-09,-1.05497e+09,-1.05441e+09,-1.05504e+09,-111.361,0.00162834,0.059059,0,0.0590814,-38427.4,-38425.8,-0,54343.5,111.361
step02_gravity_refstate-crust.xmf,515,6.8812e-07,9.46468e-06,0,4.53298e-08,-1.04508e+09,-1.04448e+09,-1.04512e+09,3109.63,0.00266013,0.064581,0,0.0646358,-36719.6,-38064.5,-0,52888.9,3109.63
step02_gravity_refstate-crust.xmf,516,-8.78543e-06,9.69828e-06,0,2.47354e-05,-9.92624e+08,-9.91356e+08,-9.92021e+08,1.69685e+06,-0.129153,0.571517,-0,0.585928,-9668.26,-36116.9,-0,37388.6,1.69685e+06
step02_gravity_refstate-crust.xmf,517,-4.05722e-06,-2.79077e-07,0,3.35494e-05,-9.95515e+08,-9.95255e+08,-9.95236e+08,2.30149e+06,-0.145238,0.70922,-0,0.723938,-7308.18,-36225.9,-0,36955.7,2.30149e+06
step02_gravity_refstate-crust.xmf,518,-8.16917e-07,-4.89571e-06,0,3.35832e-05,-9.78492e+08,-9.78772e+08,-9.78436e+08,2.30381e+06,-0.143882,0.732122,-0,0.746127,-6921.93,-35612.1,-0,36278.6,2.30381e+06
step02_gravity_refstate-crust.xmf,519,5.74628e-06,-5.71777e-06,0,6.42205e-06,-5.00255e+08,-5.01041e+08,-5.00649e+08,440553,-0.0414065,0.596939,-0,0.598373,-5953.68,-18226.7,-0,19174.4,440553
step02_gravity_refstate-crust.xmf,520,6.21013e-06,-6.67723e-06,0,7.88683e-06,-5.59357e+08,-5.60241e+08,-5.59783e+08,541036,-0.0497248,0.606855,-0,0.608889,-6265.14,-20378.7,-0,21320,541036
step02_gravity_refstate-crust.xmf,521,6.22591e-06,-8.06479e-06,0,1.39132e-05,-7.13484e+08,-7.14465e+08,-7.13911e+08,954443,-0.0822333,0.630485,-0,0.635825,-7404.15,-25987.8,-0,27022,954443
step02_gravity_refstate-crust.xmf,522,6.2932e-06,-7.6806e-06,0,1.15015e-05,-6.56839e+08,-6.57798e+08,-6.57271e+08,789002,-0.0699833,0.618921,-0,0.622865,-7170.06,-23926.5,-0,24977.7,789002
step02_gravity_refstate-crust.xmf,523,5.45844e-06,-7.3592e-06,0,1.53366e-05,-7.37937e+08,-7.38817e+08,-7.38312e+08,1.05209e+06,-0.090009,0.626783,-0,0.633212,-7855.96,-26876,-0,28000.7,1.05209e+06
step02_gravity_refstate-crust.xmf,524,4.34957e-06,-6.67619e-06,0,1.80492e-05,-7.87835e+08,-7.88591e+08,-7.88133e+08,1.23818e+06,-0.102721,0.630813,-0,0.639122,-8179.12,-28689.2,-0,29832.3,1.23818e+06
step02_gravity_refstate-crust.xmf,525,3.34168e-06,-6.7287e-06,0,2.2617e-05,-8.6087e+08,-8.61561e+08,-8.61099e+08,1.55152e+06,-0.118734,0.660037,-0,0.670632,-7844.25,-31343.9,-0,32310.6,1.55152e+06
step02_gravity_refstate-crust.xmf,526,5.08574e-06,-8.20246e-06,0,1.94746e-05,-8.13358e+08,-8.14269e+08,-8.13707e+08,1.33596e+06,-0.106226,0.654202,-0,0.662771,-7642.46,-29619,-0,30589.1,1.33596e+06
step02_gravity_refstate-crust.xmf,527,1.33998e-06,-5.00032e-06,0,2.55368e-05,-9.02249e+08,-9.02684e+08,-9.02341e+08,1.75182e+06,-0.128543,0.66671,-0,0.678989,-7896.85,-32845,-0,33780.9,1.75182e+06
step02_gravity_refstate-crust.xmf,528,1.75743e-06,-6.40659e-06,0,2.77539e-05,-9.22766e+08,-9.23326e+08,-9.22887e+08,1.90392e+06,-0.132416,0.694432,-0,0.706944,-7394.32,-33591.4,-0,34395.6,1.90392e+06
step02_gravity_refstate-crust.xmf,529,8.58784e-06,-3.26206e-06,0,1.20066e-08,815642,2738.63,226516,823.653,0.0213989,0.555483,0,0.555895,2459.57,0,0,2459.57,823.653
step02_gravity_refstate-crust.xmf,530,5.1058e-06,-3.30021e-06,0,1.62539e-06,-2.88125e+08,-2.88701e+08,-2.88475e+08,111502,-0.0128999,0.583217,-0,0.583359,-2483.56,-10505,-0,10794.6,111502
step02_gravity_refstate-crust.xmf,531,-4.07974e-06,1.27703e-05,0,3.26843e-06,-9.6919e+08,-9.68034e+08,-9.6891e+08,224215,-0.0259937,0.174861,-0,0.176783,-24286.6,-35287.6,-0,42837.5,224215
step02_gravity_refstate-crust.xmf,532,-4.77669e-06,1.32913e-05,0,4.03643e-06,-9.69323e+08,-9.68084e+08,-9.68996e+08,276899,-0.0322696,0.194335,-0,0.196996,-22860.1,-35290.4,-0,42047.6,276899
step02_gravity_refstate-crust.xmf,533,-5.46503e-06,1.37627e-05,0,4.92714e-06,-9.69555e+08,-9.68236e+08,-9.6918e+08,338002,-0.0393037,0.21607,-0,0.219615,-21469.1,-35296.8,-0,41313.3,338002
step02_gravity_refstate-crust.xmf,534,-6.15265e-06,1.41516e-05,0,5.9763e-06,-9.68938e+08,-9.67545e+08,-9.68516e+08,409974,-0.0472034,0.240344,-0,0.244935,-20130.7,-35272.2,-0,40612.5,409974
step02_gravity_refstate-crust.xmf,535,-6.78162e-06,1.44355e-05,0,7.10537e-06,-9.68616e+08,-9.6716e+08,-9.6815e+08,487428,-0.0551741,0.265256,-0,0.270933,-18906.9,-35258.3,-0,40007.8,487428
step02_gravity_refstate-crust.xmf,536,-7.68896e-06,1.45052e-05,0,9.40706e-06,-9.63233e+08,-9.6171e+08,-9.62705e+08,645324,-0.0704231,0.313113,-0,0.320935,-16989.5,-35058.8,-0,38958.5,645324
step02_gravity_refstate-crust.xmf,537,-7.92902e-06,1.41525e-05,0,1.06892e-05,-9.55922e+08,-9.54408e+08,-9.55378e+08,733282,-0.0784946,0.338523,-0,0.347505,-16178.4,-34791.1,-0,38368.8,733282
step02_gravity_refstate-crust.xmf,538,-8.37424e-06,1.4338e-05,0,1.17117e-05,-9.64213e+08,-9.62655e+08,-9.63638e+08,803423,-0.083187,0.357473,-0,0.367024,-15368.4,-35091.5,-0,38309.2,803423
step02_gravity_refstate-crust.xmf,539,-9.49261e-06,1.17984e-05,0,2.19554e-05,-9.93408e+08,-9.91948e+08,-9.92757e+08,1.50614e+06,-0.121232,0.528072,-0,0.541809,-10523.4,-36145.9,-0,37646.6,1.50614e+06
step02_gravity_refstate-crust.xmf,540,-9.81347e-06,1.33707e-05,0,1.92713e-05,-9.9402e+08,-9.9243e+08,-9.93347e+08,1.32201e+06,-0.112398,0.485886,-0,0.498717,-11426.9,-36169.3,-0,37931.4,1.32201e+06
step02_gravity_refstate-crust.xmf,541,-9.83766e-06,1.44605e-05,0,1.68561e-05,-9.9494e+08,-9.93273e+08,-9.94265e+08,1.15633e+06,-0.103257,0.446823,-0,0.458599,-12336.3,-36204.4,-0,38248.4,1.15633e+06
step02_gravity_refstate-crust.xmf,542,-1.71855e-06,1.07106e-05,0,1.16687e-06,-9.69463e+08,-9.68611e+08,-9.69345e+08,80047,-0.00777087,0.114856,-0,0.115119,-30775.9,-35303.9,-0,46835.1,80047
step02_gravity_refstate-crust.xmf,543,-3.43071e-06,1.2316e-05,0,2.57537e-06,-9.71003e+08,-9.69922e+08,-9.70767e+08,176670,-0.0201524,0.156863,-0,0.158152,-25734.7,-35355.5,-0,43729.7,176670
step02_gravity_refstate-crust.xmf,544,-2.25312e-06,1.12175e-05,0,1.56819e-06,-9.70141e+08,-9.69217e+08,-9.69986e+08,107578,-0.0111527,0.126958,-0,0.127447,-28994.1,-35327.2,-0,45701.9,107578
step02_gravity_refstate-crust.xmf,545,-2.83072e-06,1.1763e-05,0,2.03192e-06,-9.71873e+08,-9.70872e+08,-9.71679e+08,139390,-0.0150771,0.140561,-0,0.141368,-27306.6,-35388.8,-0,44699.1,139390
step02_gravity_refstate-crust.xmf,546,-7.47599e-07,1.04796e-05,0,5.83662e-07,-1.01274e+09,-1.01197e+09,-1.01269e+09,40039.2,-0.00045784,0.0927315,-0,0.0927326,-31732.8,-36883.1,-0,48655.3,40039.2
step02_gravity_refstate-crust.xmf,547,5.78253e-07,9.7471e-06,0,5.79149e-08,-1.05412e+09,-1.05349e+09,-1.05416e+09,3972.96,0.00475226,0.0662015,0,0.0663718,-34622.1,-38393.6,-0,51698.7,3972.96
step02_gravity_refstate-crust.xmf,548,-9.78025e-06,1.07174e-05,0,2.62173e-05,-1.01286e+09,-1.01146e+09,-1.01219e+09,1.7985e+06,-0.13033,0.587278,-0,0.601566,-9243.6,-36851.3,-0,37993,1.7985e+06
step02_gravity_refstate-crust.xmf,549,-8.72369e-06,7.96628e-06,0,2.94745e-05,-1.01293e+09,-1.01179e+09,-1.01234e+09,2.02195e+06,-0.137631,0.633972,-0,0.64874,-8455.12,-36853.9,-0,37811.4,2.02195e+06
step02_gravity_refstate-crust.xmf,550,-7.05804e-06,4.36559e-06,0,3.28729e-05,-1.01317e+09,-1.01238e+09,-1.01268e+09,2.25508e+06,-0.143699,0.683029,-0,0.697981,-7687.9,-36863.6,-0,37656.7,2.25508e+06
step02_gravity_refstate-crust.xmf,551,-1.13854e-06,-5.33156e-06,0,3.62723e-05,-9.96051e+08,-9.96339e+08,-9.95973e+08,2.48828e+06,-0.147214,0.757758,-0,0.771925,-6577.72,-36249.4,-0,36841.3,2.48828e+06
step02_gravity_refstate-crust.xmf,552,2.26513e-06,-8.03608e-06,0,3.01814e-05,-9.42013e+08,-9.4272e+08,-9.42168e+08,2.07045e+06,-0.136029,0.724011,-0,0.736679,-6912.97,-34291.6,-0,34981.5,2.07045e+06
step02_gravity_refstate-crust.xmf,553,2.7457e-06,-9.7122e-06,0,3.27988e-05,-9.60121e+08,-9.60975e+08,-9.60309e+08,2.25e+06,-0.139451,0.753669,-0,0.766462,-6484.51,-34950.2,-0,35546.7,2.25e+06
step02_gravity_refstate-crust.xmf,554,5.93577e-06,-5.37211e-06,0,3.09517e-06,-4.22601e+08,-4.23377e+08,-4.23009e+08,212329,-0.0204958,0.600862,-0,0.601212,-3302.49,-15400.9,-0,15751,212329
step02_gravity_refstate-crust.xmf,555,6.40832e-06,-6.71835e-06,0,6.51637e-06,-5.30142e+08,-5.31043e+08,-5.30582e+08,447023,-0.0412679,0.608922,-0,0.610319,-5443.83,-19315.9,-0,20068.4,447023
step02_gravity_refstate-crust.xmf,556,6.41729e-06,-6.51723e-06,0,5.27749e-06,-4.99992e+08,-5.00879e+08,-5.00432e+08,362036,-0.0336971,0.608583,-0,0.609515,-4688.99,-18218.6,-0,18812.3,362036
step02_gravity_refstate-crust.xmf,557,6.22929e-06,-6.02928e-06,0,4.1365e-06,-4.63999e+08,-4.6484e+08,-4.64427e+08,283764,-0.0267772,0.605493,-0,0.606085,-3992.75,-16908.2,-0,17373.3,283764
step02_gravity_refstate-crust.xmf,558,7.1511e-06,-8.11812e-06,0,8.07922e-06,-5.93345e+08,-5.94393e+08,-5.93836e+08,554234,-0.0497912,0.623949,-0,0.625932,-5630.35,-21617.7,-0,22338.9,554234
step02_gravity_refstate-crust.xmf,559,6.88526e-06,-8.04601e-06,0,9.75092e-06,-6.25847e+08,-6.26871e+08,-6.26319e+08,668913,-0.0596303,0.623245,-0,0.626091,-6376.58,-22800,-0,23674.9,668913
step02_gravity_refstate-crust.xmf,560,7.13568e-06,-9.08345e-06,0,1.21448e-05,-6.8609e+08,-6.87202e+08,-6.86579e+08,833133,-0.072037,0.636808,-0,0.64087,-6683.47,-24992.6,-0,25870.8,833133
step02_gravity_refstate-crust.xmf,561,5.7833e-06,-8.12714e-06,0,1.64639e-05,-7.62761e+08,-7.63715e+08,-7.63158e+08,1.12942e+06,-0.0940048,0.640586,-0,0.647447,-7592.07,-27779.9,-0,28798.6,1.12942e+06
step02_gravity_refstate-crust.xmf,562,7.0351e-06,-9.46898e-06,0,1.47172e-05,-7.37969e+08,-7.39102e+08,-7.38452e+08,1.0096e+06,-0.084308,0.648929,-0,0.654383,-6939.17,-26880.3,-0,27761.5,1.0096e+06
step02_gravity_refstate-crust.xmf,563,3.67125e-06,-7.69783e-06,0,2.43362e-05,-8.81916e+08,-8.82696e+08,-8.82168e+08,1.66946e+06,-0.122549,0.681503,-0,0.692434,-7446.02,-32110,-0,32962,1.66946e+06
step02_gravity_refstate-crust.xmf,564,6.06338e-06,-9.9529e-06,0,2.11773e-05,-8.40267e+08,-8.41366e+08,-8.40683e+08,1.45276e+06,-0.109853,0.68235,-0,0.691136,-7067.62,-30599.9,-0,31405.5,1.45276e+06
step02_gravity_refstate-crust.xmf,565,7.00769e-06,-2.5941e-06,0,-5.09508e-07,-4.96443e+07,-5.0303e+07,-5.01251e+07,-34952.3,0.0254764,0.557785,0,0.558366,3534.47,-1831.69,0,3980.9,34952.3
step02_gravity_refstate-crust.xmf,566,6.21955e-06,-2.3857e-06,0,-5.8882e-07,-9.98585e+07,-1.00449e+08,-1.00285e+08,-40393.1,0.0137981,0.566032,0,0.5662,2198.48,-3656.92,0,4266.89,40393.1
step02_gravity_refstate-crust.xmf,567,5.70598e-06,-2.38962e-06,0,-3.58096e-07,-1.4524e+08,-1.45795e+08,-1.45631e+08,-24565.4,0.00570899,0.571911,0,0.571939,1001.31,-5306.99,0,5400.63,24565.4
step02_gravity_refstate-crust.xmf,568,5.3516e-06,-2.57084e-06,0,9.26793e-08,-1.93072e+08,-1.93615e+08,-1.93439e+08,6357.8,-0.000840232,0.576729,-0,0.576729,-157.473,-7046.63,-0,7048.39,6357.8
step02_gravity_refstate-crust.xmf,569,5.16364e-06,-2.88994e-06,0,7.84666e-07,-2.40944e+08,-2.41496e+08,-2.41298e+08,53828.1,-0.00704781,0.580445,-0,0.580488,-1361.86,-8788.22,-0,8893.11,53828.1
step02_gravity_refstate-crust.xmf,570,5.41383e-06,-4.04274e-06,0,1.22645e-06,-3.34143e+08,-3.34792e+08,-3.34515e+08,84134.3,-0.0088694,0.591565,-0,0.591631,-1627.92,-12180.5,-0,12288.8,84134.3
step02_gravity_refstate-crust.xmf,571,5.64802e-06,-4.6929e-06,0,2.14414e-06,-3.79049e+08,-3.79759e+08,-3.79437e+08,147088,-0.0146994,0.59611,-0,0.596292,-2545.14,-13815.3,-0,14047.7,147088
step02_gravity_refstate-crust.xmf,572,-7.27043e-06,1.46535e-05,0,8.0926e-06,-9.70331e+08,-9.68827e+08,-9.69832e+08,555152,-0.0616251,0.286431,-0,0.292985,-17922.5,-35319.1,-0,39606.3,555152
step02_gravity_refstate-crust.xmf,573,-8.75912e-06,1.44336e-05,0,1.28713e-05,-9.71656e+08,-9.70065e+08,-9.71055e+08,882969,-0.0883881,0.378856,-0,0.389029,-14553.4,-35361,-0,38238.8,882969
step02_gravity_refstate-crust.xmf,574,-9.60392e-06,1.50479e-05,0,1.47666e-05,-9.93879e+08,-9.92188e+08,-9.9322e+08,1.01299e+06,-0.0945967,0.411717,-0,0.422444,-13257.1,-36167.6,-0,38520.7,1.01299e+06
step02_gravity_refstate-crust.xmf,575,-3.28859e-06,1.27986e-05,0,2.29472e-06,-1.0045e+09,-1.00339e+09,-1.00427e+09,157418,-0.0149682,0.149676,-0,0.150423,-25007.7,-36576.2,-0,44308,157418
step02_gravity_refstate-crust.xmf,576,-4.02626e-06,1.33485e-05,0,2.99131e-06,-1.00166e+09,-1.00047e+09,-1.00138e+09,205204,-0.0209844,0.168761,-0,0.170061,-23565.1,-36470.9,-0,43421.6,205204
step02_gravity_refstate-crust.xmf,577,2.24968e-07,1.01656e-05,0,1.38822e-07,-1.05524e+09,-1.05456e+09,-1.05525e+09,9523.21,0.00569556,0.0723475,0,0.0725713,-32699.8,-38433.6,-0,50462.1,9523.21
step02_gravity_refstate-crust.xmf,578,-1.04418e-05,1.29882e-05,0,2.30166e-05,-1.01408e+09,-1.01247e+09,-1.01336e+09,1.57894e+06,-0.121652,0.541257,-0,0.55476,-10077.5,-36896.5,-0,38247.9,1.57894e+06
step02_gravity_refstate-crust.xmf,579,-4.68612e-06,-2.89184e-07,0,3.62561e-05,-1.01318e+09,-1.01287e+09,-1.01286e+09,2.48717e+06,-0.148107,0.734316,-0,0.749103,-6940.87,-36866.3,-0,37514,2.48717e+06
step02_gravity_refstate-crust.xmf,580,2.35847e-06,-9.9703e-06,0,3.55164e-05,-9.79911e+08,-9.80757e+08,-9.80073e+08,2.43642e+06,-0.143667,0.777341,-0,0.790506,-6213.45,-35668.8,-0,36205.9,2.43642e+06
step02_gravity_refstate-crust.xmf,581,7.29252e-06,-8.0584e-06,0,6.4956e-06,-5.62964e+08,-5.64017e+08,-5.63464e+08,445598,-0.0403063,0.624231,-0,0.625531,-4807.7,-20512.3,-0,21068.2,445598
step02_gravity_refstate-crust.xmf,582,7.85154e-06,-1.02216e-05,0,1.29182e-05,-7.1238e+08,-7.1362e+08,-7.12919e+08,886188,-0.074614,0.652587,-0,0.656839,-6350.65,-25950.9,-0,26716.6,886188
step02_gravity_refstate-crust.xmf,583,8.07529e-06,-9.92405e-06,0,1.01863e-05,-6.60768e+08,-6.62002e+08,-6.61322e+08,698779,-0.0602898,0.64484,-0,0.647652,-5722.27,-24073.2,-0,24744,698779
step02_gravity_refstate-crust.xmf,584,6.68692e-06,-9.94045e-06,0,1.76498e-05,-7.88398e+08,-7.89539e+08,-7.88857e+08,1.21078e+06,-0.0967893,0.663262,-0,0.670287,-7074.4,-28714.1,-0,29572.7,1.21078e+06
step02_gravity_refstate-crust.xmf,585,5.59091e-06,-9.96517e-06,0,2.30478e-05,-8.6449e+08,-8.65557e+08,-8.64873e+08,1.58108e+06,-0.115994,0.693014,-0,0.702654,-7018.44,-31479.8,-0,32252.7,1.58108e+06
step02_gravity_refstate-crust.xmf,586,7.79063e-06,-1.19468e-05,0,1.88631e-05,-8.12588e+08,-8.13942e+08,-8.13123e+08,1.29401e+06,-0.0989967,0.688454,-0,0.695535,-6544,-29596.1,-0,30310.9,1.29401e+06
step02_gravity_refstate-crust.xmf,587,4.3236e-06,-9.50189e-06,0,2.63214e-05,-9.01965e+08,-9.02913e+08,-9.02261e+08,1.80565e+06,-0.125923,0.707777,-0,0.718891,-6984.06,-32839.7,-0,33574.1,1.80565e+06
step02_gravity_refstate-crust.xmf,588,5.07892e-06,-1.1433e-05,0,2.85976e-05,-9.22471e+08,-9.23604e+08,-9.2282e+08,1.9618e+06,-0.1294,0.737264,-0,0.748534,-6521.75,-33586.3,-0,34213.7,1.9618e+06
step02_gravity_refstate-crust.xmf,589,7.99132e-06,-3.04184e-06,0,1.73241e-09,758716,1840.64,210511,118.843,0.0418148,0.547274,0,0.548869,4919.33,0,0,4919.33,118.843
step02_gravity_refstate-crust.xmf,590,5.25325e-06,-3.43673e-06,0,3.57104e-07,-2.87773e+08,-2.8837e+08,-2.88134e+08,24497.3,-0.00275985,0.586757,-0,0.586764,-526.513,-10492.6,-0,10505.8,24497.3
step02_gravity_refstate-crust.xmf,591,-4.79229e-06,1.39685e-05,0,3.7544e-06,-1.00214e+09,-1.00085e+09,-1.00181e+09,257552,-0.0271198,0.188795,-0,0.190733,-22141.9,-36486.2,-0,42679.1,257552
step02_gravity_refstate-crust.xmf,592,-5.5692e-06,1.45085e-05,0,4.70069e-06,-1.00083e+09,-9.99449e+08,-1.00044e+09,322467,-0.0346264,0.212138,-0,0.214946,-20760,-36436,-0,41935.2,322467
step02_gravity_refstate-crust.xmf,593,-6.31315e-06,1.49538e-05,0,5.74685e-06,-9.99161e+08,-9.97702e+08,-9.98728e+08,394234,-0.0425691,0.236558,-0,0.240357,-19503,-36373.1,-0,41271.8,394234
step02_gravity_refstate-crust.xmf,594,-6.94938e-06,1.52011e-05,0,6.85352e-06,-9.94855e+08,-9.93335e+08,-9.94378e+08,470152,-0.0508648,0.261083,-0,0.265992,-18448.3,-36214.1,-0,40642.3,470152
step02_gravity_refstate-crust.xmf,595,-7.57467e-06,1.53523e-05,0,8.14603e-06,-9.91088e+08,-9.89516e+08,-9.90569e+08,558817,-0.0597201,0.288013,-0,0.29414,-17385.1,-36074.7,-0,40045.3,558817
step02_gravity_refstate-crust.xmf,596,-8.19982e-06,1.53098e-05,0,9.76885e-06,-9.85761e+08,-9.84148e+08,-9.85199e+08,670143,-0.0701197,0.32016,-0,0.327749,-16263.8,-35878.1,-0,39392.3,670143
step02_gravity_refstate-crust.xmf,597,-9.24131e-06,1.54151e-05,0,1.28429e-05,-9.93296e+08,-9.91605e+08,-9.92662e+08,881022,-0.0856754,0.377982,-0,0.38757,-14223.2,-36148.4,-0,38845.9,881022
step02_gravity_refstate-crust.xmf,598,-8.78815e-06,1.55055e-05,0,1.12362e-05,-9.91539e+08,-9.89872e+08,-9.90936e+08,770803,-0.0776623,0.348553,-0,0.357101,-15172.3,-36086.4,-0,39146.2,770803
step02_gravity_refstate-crust.xmf,599,-1.07043e-05,1.45462e-05,0,2.00957e-05,-1.01523e+09,-1.0135e+09,-1.01449e+09,1.37856e+06,-0.112048,0.496638,-0,0.509121,-10959.8,-36939.6,-0,38531.2,1.37856e+06
step02_gravity_refstate-crust.xmf,600,-1.05672e-05,1.55135e-05,0,1.74559e-05,-1.01504e+09,-1.01325e+09,-1.01432e+09,1.19748e+06,-0.102503,0.455646,-0,0.467034,-11864.6,-36934.9,-0,38793.8,1.19748e+06
step02_gravity_refstate-crust.xmf,601,-1.02327e-05,1.61247e-05,0,1.50976e-05,-1.01515e+09,-1.01334e+09,-1.01445e+09,1.03569e+06,-0.0928196,0.417282,-0,0.42748,-12794.5,-36941.1,-0,39094,1.03569e+06
step02_gravity_refstate-crust.xmf,602,-3.30611e-06,1.32831e-05,0,2.17581e-06,-1.02863e+09,-1.02749e+09,-1.0284e+09,149261,-0.0113251,0.147594,-0,0.148028,-24203.6,-37455.4,-0,44595,149261
step02_gravity_refstate-crust.xmf,603,-1.28114e-06,1.10117e-05,0,8.51502e-07,-1.01308e+09,-1.01223e+09,-1.01299e+09,58413.1,-0.00221714,0.102947,-0,0.102971,-29926.9,-36893.9,-0,47505.6,58413.1
step02_gravity_refstate-crust.xmf,604,-2.42239e-06,1.2279e-05,0,1.53615e-06,-1.02074e+09,-1.01973e+09,-1.02057e+09,105380,-0.00691831,0.127108,-0,0.127296,-26460.1,-37170.2,-0,45626.3,105380
step02_gravity_refstate-crust.xmf,605,-1.83685e-06,1.16017e-05,0,1.17323e-06,-1.01515e+09,-1.01422e+09,-1.01502e+09,80483.3,-0.00449445,0.114512,-0,0.1146,-28190,-36967.9,-0,46489.9,80483.3
step02_gravity_refstate-crust.xmf,606,-2.13455e-07,1.06764e-05,0,2.78694e-07,-1.05556e+09,-1.05481e+09,-1.05554e+09,19118.4,0.00577177,0.080685,0,0.0808912,-30860.6,-38444.3,-0,49298.5,19118.4
step02_gravity_refstate-crust.xmf,607,-1.13086e-05,1.39485e-05,0,2.43635e-05,-1.03213e+09,-1.0304e+09,-1.03135e+09,1.67134e+06,-0.122158,0.557724,-0,0.570945,-9612.56,-37551.6,-0,38762.4,1.67134e+06
step02_gravity_refstate-crust.xmf,608,-1.07807e-05,1.18065e-05,0,2.7708e-05,-1.03115e+09,-1.0296e+09,-1.03041e+09,1.90077e+06,-0.130948,0.603738,-0,0.617776,-8839.76,-37514.6,-0,38542,1.90077e+06
step02_gravity_refstate-crust.xmf,609,-9.80267e-06,8.99483e-06,0,3.13954e-05,-1.03149e+09,-1.0302e+09,-1.03082e+09,2.15372e+06,-0.138804,0.653045,-0,0.667633,-8070.49,-37526.8,-0,38384.8,2.15372e+06
step02_gravity_refstate-crust.xmf,610,-8.10192e-06,5.14334e-06,0,3.53083e-05,-1.03157e+09,-1.03066e+09,-1.03102e+09,2.42215e+06,-0.145523,0.705411,-0,0.720265,-7320.89,-37530.6,-0,38237.9,2.42215e+06
step02_gravity_refstate-crust.xmf,611,2.69456e-06,-1.15203e-05,0,3.84815e-05,-9.95935e+08,-9.9691e+08,-9.9612e+08,2.63983e+06,-0.146671,0.807079,-0,0.820298,-5864.68,-36251.1,-0,36722.4,2.63983e+06
step02_gravity_refstate-crust.xmf,612,-1.33977e-06,-6.10106e-06,0,3.93682e-05,-1.01276e+09,-1.01309e+09,-1.01267e+09,2.70066e+06,-0.150239,0.786557,-0,0.800777,-6222.81,-36855.8,-0,37377.4,2.70066e+06
step02_gravity_refstate-crust.xmf,613,6.13554e-06,-1.38797e-05,0,3.10255e-05,-9.41201e+08,-9.42575e+08,-9.41622e+08,2.12835e+06,-0.132234,0.769944,-0,0.781217,-6050.78,-34268.7,-0,34798.8,2.12835e+06
step02_gravity_refstate-crust.xmf,614,7.76526e-06,-1.71543e-05,0,3.35145e-05,-9.5793e+08,-9.59639e+08,-9.58463e+08,2.29909e+06,-0.134033,0.806849,-0,0.817906,-5555.58,-34879.2,-0,35318.9,2.29909e+06
step02_gravity_refstate-crust.xmf,615,6.53744e-06,-1.64129e-05,0,3.6703e-05,-9.791e+08,-9.80674e+08,-9.79548e+08,2.51783e+06,-0.140277,0.823387,-0,0.835251,-5496.1,-35646.1,-0,36067.4,2.51783e+06
step02_gravity_refstate-crust.xmf,616,6.25418e-06,-5.73356e-06,0,1.50459e-06,-4.21219e+08,-4.22041e+08,-4.21648e+08,103215,-0.00990065,0.60704,-0,0.607121,-1571.2,-15351.3,-0,15431.5,103215
step02_gravity_refstate-crust.xmf,617,6.6992e-06,-6.59014e-06,0,2.53297e-06,-4.63352e+08,-4.64263e+08,-4.63811e+08,173762,-0.0162775,0.613936,-0,0.614151,-2373.18,-16885.7,-0,17051.6,173762
step02_gravity_refstate-crust.xmf,618,7.28859e-06,-7.81669e-06,0,4.99351e-06,-5.32738e+08,-5.33775e+08,-5.33238e+08,342555,-0.0311637,0.623218,-0,0.623997,-3932.64,-19412.3,-0,19806.6,342555
step02_gravity_refstate-crust.xmf,619,7.0814e-06,-7.32854e-06,0,3.66333e-06,-5.00659e+08,-5.01647e+08,-5.01144e+08,251304,-0.0231341,0.619812,-0,0.620244,-3116.72,-18244.3,-0,18508.6,251304
step02_gravity_refstate-crust.xmf,620,8.27988e-06,-9.56746e-06,0,6.44764e-06,-5.9557e+08,-5.96794e+08,-5.96138e+08,442308,-0.0391234,0.640684,-0,0.641878,-4212.45,-21701,-0,22106.1,442308
step02_gravity_refstate-crust.xmf,621,8.26319e-06,-9.81982e-06,0,8.20687e-06,-6.26893e+08,-6.28134e+08,-6.2746e+08,562992,-0.0492488,0.643099,-0,0.644982,-4983.95,-22840.9,-0,23378.3,562992
step02_gravity_refstate-crust.xmf,622,8.39108e-06,-1.0642e-05,0,1.11342e-05,-6.86593e+08,-6.87899e+08,-6.87169e+08,763804,-0.064845,0.654158,-0,0.657364,-5744.89,-25013.6,-0,25664.8,763804
step02_gravity_refstate-crust.xmf,623,7.94165e-06,-1.10395e-05,0,1.5628e-05,-7.62779e+08,-7.64081e+08,-7.63324e+08,1.07208e+06,-0.0864917,0.669025,-0,0.674593,-6492.74,-27784.8,-0,28533.3,1.07208e+06
step02_gravity_refstate-crust.xmf,624,8.83405e-06,-1.18423e-05,0,1.35831e-05,-7.37119e+08,-7.38538e+08,-7.37725e+08,931798,-0.0759612,0.671807,-0,0.676088,-5907.36,-26853,-0,27495.1,931798
step02_gravity_refstate-crust.xmf,625,6.62317e-06,-1.19167e-05,0,2.44577e-05,-8.8135e+08,-8.82622e+08,-8.81804e+08,1.6778e+06,-0.117854,0.718198,-0,0.727804,-6555.59,-32094.8,-0,32757.4,1.6778e+06
step02_gravity_refstate-crust.xmf,626,8.44921e-06,-1.38038e-05,0,2.22385e-05,-8.59087e+08,-8.60614e+08,-8.59667e+08,1.52556e+06,-0.108489,0.723061,-0,0.731155,-6158.87,-31288.7,-0,31889.1,1.52556e+06
step02_gravity_refstate-crust.xmf,627,9.107e-06,-1.40037e-05,0,1.99889e-05,-8.34174e+08,-8.3576e+08,-8.34799e+08,1.37124e+06,-0.100305,0.715186,-0,0.722186,-6018.38,-30384.1,-0,30974.4,1.37124e+06
step02_gravity_refstate-crust.xmf,628,6.43317e-06,-2.3631e-06,0,-8.16153e-07,-4.65846e+07,-4.71881e+07,-4.70259e+07,-55988.1,0.0426815,0.546318,0,0.547983,6040.24,-1718.33,0,6279.9,55988.1
step02_gravity_refstate-crust.xmf,629,5.85875e-06,-2.21911e-06,0,-1.20668e-06,-9.91813e+07,-9.97354e+07,-9.95832e+07,-82778.1,0.0280453,0.558127,0,0.558831,4550.65,-3631.06,0,5821.77,82778.1
step02_gravity_refstate-crust.xmf,630,5.47068e-06,-2.28655e-06,0,-1.19954e-06,-1.47899e+08,-1.48431e+08,-1.48274e+08,-82288.4,0.0180347,0.567282,0,0.567568,3217.43,-5403,0,6288.43,82288.4
step02_gravity_refstate-crust.xmf,631,5.24958e-06,-2.51947e-06,0,-9.58017e-07,-1.94531e+08,-1.95064e+08,-1.94891e+08,-65720,0.0108984,0.574567,0,0.574671,2057.97,-7099.44,0,7391.7,65720
step02_gravity_refstate-crust.xmf,632,5.18999e-06,-2.8923e-06,0,-4.8123e-07,-2.39155e+08,-2.39709e+08,-2.39511e+08,-33012.4,0.00454464,0.580876,0,0.580894,876.451,-8723.19,0,8767.11,33012.4
step02_gravity_refstate-crust.xmf,633,5.49382e-06,-4.13529e-06,0,-1.24769e-07,-3.34451e+08,-3.35112e+08,-3.34828e+08,-8559.14,0.00098549,0.593327,0,0.593328,180.107,-12191.9,0,12193.2,8559.14
step02_gravity_refstate-crust.xmf,634,5.83999e-06,-4.90135e-06,0,6.28933e-07,-3.78058e+08,-3.78795e+08,-3.78459e+08,43144.8,-0.00425641,0.600134,-0,0.600149,-729.645,-13779.6,-0,13798.9,43144.8
step02_gravity_refstate-crust.xmf,635,-9.76231e-06,1.64758e-05,0,1.29764e-05,-1.01593e+09,-1.01413e+09,-1.01526e+09,890180,-0.0829563,0.380959,-0,0.389886,-13756.3,-36972.1,-0,39448.4,890180
step02_gravity_refstate-crust.xmf,636,-2.71804e-06,1.28744e-05,0,1.68697e-06,-1.03582e+09,-1.03475e+09,-1.03563e+09,115726,-0.00637937,0.132903,-0,0.133056,-25199.4,-37718.8,-0,45362.1,115726
step02_gravity_refstate-crust.xmf,637,-3.8547e-06,1.39822e-05,0,2.57663e-06,-1.03813e+09,-1.03691e+09,-1.03787e+09,176757,-0.0133117,0.159904,-0,0.160457,-22870.8,-37800.3,-0,44180.8,176757
step02_gravity_refstate-crust.xmf,638,-1.17162e-05,1.60806e-05,0,2.0795e-05,-1.03831e+09,-1.03641e+09,-1.03751e+09,1.42654e+06,-0.109901,0.5062,-0,0.517993,-10507,-37778.3,-0,39212.2,1.42654e+06
step02_gravity_refstate-crust.xmf,639,-5.36234e-06,-2.21848e-07,0,3.92377e-05,-1.03008e+09,-1.02973e+09,-1.02972e+09,2.6917e+06,-0.150544,0.761202,-0,0.775946,-6582.03,-37479.2,-0,38052.7,2.6917e+06
step02_gravity_refstate-crust.xmf,640,9.63227e-06,-2.03645e-05,0,3.51856e-05,-9.69204e+08,-9.71262e+08,-9.69865e+08,2.41373e+06,-0.13421,0.83921,-0,0.849874,-5140.7,-35292.3,-0,35664.7,2.41373e+06
step02_gravity_refstate-crust.xmf,641,8.20432e-06,-9.23888e-06,0,4.80318e-06,-5.67027e+08,-5.68223e+08,-5.6759e+08,329498,-0.0294891,0.638219,-0,0.6389,-3362.51,-20662.1,-0,20933.9,329498
step02_gravity_refstate-crust.xmf,642,9.32221e-06,-1.21207e-05,0,1.16162e-05,-7.10698e+08,-7.12169e+08,-7.11338e+08,796872,-0.0658218,0.670964,-0,0.674185,-5362.55,-25892.6,-0,26442.1,796872
step02_gravity_refstate-crust.xmf,643,9.53579e-06,-1.20724e-05,0,9.82756e-06,-6.84692e+08,-6.86174e+08,-6.85346e+08,674170,-0.0564058,0.668179,-0,0.670556,-4837.83,-24946.8,-0,25411.5,674170
step02_gravity_refstate-crust.xmf,644,9.12207e-06,-1.32363e-05,0,1.65968e-05,-7.87825e+08,-7.89359e+08,-7.88451e+08,1.13854e+06,-0.0881169,0.692957,-0,0.698537,-5990.46,-28698,-0,29316.5,1.13854e+06
step02_gravity_refstate-crust.xmf,645,1.05847e-05,-1.57243e-05,0,1.75236e-05,-8.11838e+08,-8.13643e+08,-8.12564e+08,1.20212e+06,-0.0888569,0.720018,-0,0.72548,-5456.75,-29574.2,-0,30073.4,1.20212e+06
step02_gravity_refstate-crust.xmf,646,7.74329e-06,-1.44783e-05,0,2.64201e-05,-9.01602e+08,-9.03127e+08,-9.02134e+08,1.81242e+06,-0.120465,0.747812,-0,0.757452,-6088.24,-32832.6,-0,33392.4,1.81242e+06
step02_gravity_refstate-crust.xmf,647,8.95504e-06,-1.71129e-05,0,2.86961e-05,-9.22436e+08,-9.24224e+08,-9.23051e+08,1.96855e+06,-0.123332,0.779953,-0,0.789644,-5649.36,-33591.9,-0,34063.7,1.96855e+06
step02_gravity_refstate-crust.xmf,648,7.03089e-06,-2.67868e-06,0,-9.62379e-10,667428,1351.11,185108,-66.0192,0.0603769,0.53404,0,0.537442,7383.26,0,0,7383.26,66.0192
step02_gravity_refstate-crust.xmf,649,5.23187e-06,-3.43883e-06,0,-8.23097e-07,-2.89817e+08,-2.90412e+08,-2.90176e+08,-56464.5,0.00658522,0.586219,0,0.586256,1257.71,-10566.9,0,10641.5,56464.5
step02_gravity_refstate-crust.xmf,650,-6.472e-06,1.58427e-05,0,5.56913e-06,-1.02987e+09,-1.02834e+09,-1.02943e+09,382043,-0.0371871,0.234842,-0,0.237768,-18744.9,-37491.8,-0,41916.7,382043
step02_gravity_refstate-crust.xmf,651,-4.81132e-06,1.4682e-05,0,3.53038e-06,-1.03336e+09,-1.03202e+09,-1.03303e+09,242184,-0.0214663,0.185182,-0,0.186422,-21332.2,-37623.8,-0,43250.5,242184
step02_gravity_refstate-crust.xmf,652,-5.62915e-06,1.53128e-05,0,4.43881e-06,-1.03266e+09,-1.03123e+09,-1.03228e+09,304502,-0.0285302,0.20819,-0,0.210136,-20017.7,-37596.1,-0,42593.1,304502
step02_gravity_refstate-crust.xmf,653,-7.18359e-06,1.58786e-05,0,6.91665e-06,-1.01547e+09,-1.01389e+09,-1.01498e+09,474482,-0.0486333,0.26383,-0,0.268275,-17814,-36964.7,-0,41033.2,474482
step02_gravity_refstate-crust.xmf,654,-7.84075e-06,1.62253e-05,0,8.01105e-06,-1.01642e+09,-1.01477e+09,-1.01588e+09,549558,-0.055463,0.286646,-0,0.291963,-16860.4,-36997.3,-0,40658,549558
step02_gravity_refstate-crust.xmf,655,-9.18303e-06,1.66011e-05,0,1.10622e-05,-1.01705e+09,-1.01528e+09,-1.01642e+09,758869,-0.0730607,0.346468,-0,0.354087,-14761.9,-37015.1,-0,39850.1,758869
step02_gravity_refstate-crust.xmf,656,-8.53195e-06,1.64739e-05,0,9.44354e-06,-1.01672e+09,-1.01501e+09,-1.01614e+09,647827,-0.0640723,0.31548,-0,0.321921,-15792.4,-37005.8,-0,40234.7,647827
step02_gravity_refstate-crust.xmf,657,-1.13125e-05,1.6823e-05,0,1.78068e-05,-1.03627e+09,-1.03434e+09,-1.03549e+09,1.22154e+06,-0.0997211,0.461193,-0,0.471851,-11460.3,-37706.6,-0,39409.8,1.22154e+06
step02_gravity_refstate-crust.xmf,658,-1.02237e-05,1.75123e-05,0,1.31255e-05,-1.03666e+09,-1.03476e+09,-1.03596e+09,900410,-0.0797998,0.384858,-0,0.393044,-13296.7,-37726.5,-0,40001.2,900410
step02_gravity_refstate-crust.xmf,659,-1.08207e-05,1.72579e-05,0,1.53643e-05,-1.0357e+09,-1.03377e+09,-1.03495e+09,1.05399e+06,-0.090059,0.42247,-0,0.431962,-12356.4,-37688.5,-0,39662.3,1.05399e+06
step02_gravity_refstate-crust.xmf,660,-2.63359e-06,1.33987e-05,0,1.49353e-06,-1.06386e+09,-1.06276e+09,-1.06368e+09,102456,-0.000859757,0.129376,-0,0.129378,-24295,-38741.1,-0,45728.7,102456
step02_gravity_refstate-crust.xmf,661,-7.65994e-07,1.12831e-05,0,4.81841e-07,-1.05649e+09,-1.05566e+09,-1.05644e+09,33054.3,0.00509759,0.0906685,0,0.0908117,-29099.9,-38476.9,-0,48241.8,33054.3
step02_gravity_refstate-crust.xmf,662,-1.90685e-06,1.26345e-05,0,1.03414e-06,-1.06302e+09,-1.06202e+09,-1.06288e+09,70942.1,0.00244983,0.113487,0,0.113514,-25871.2,-38712,-0,46561.1,70942.1
step02_gravity_refstate-crust.xmf,663,-1.34962e-06,1.19524e-05,0,7.45653e-07,-1.05868e+09,-1.05776e+09,-1.05858e+09,51151.8,0.00381495,0.102094,0,0.102166,-27400.5,-38555.2,-0,47300,51151.8
step02_gravity_refstate-crust.xmf,664,-1.22068e-05,1.63812e-05,0,2.25659e-05,-1.04902e+09,-1.04706e+09,-1.04818e+09,1.54802e+06,-0.113122,0.531973,-0,0.543868,-9905.98,-38166.5,-0,39431.1,1.54802e+06
step02_gravity_refstate-crust.xmf,665,-1.21789e-05,1.50599e-05,0,2.55679e-05,-1.04855e+09,-1.04668e+09,-1.04772e+09,1.75396e+06,-0.121805,0.572828,-0,0.585635,-9206.7,-38147.7,-0,39243,1.75396e+06
step02_gravity_refstate-crust.xmf,666,-1.18423e-05,1.31052e-05,0,2.92125e-05,-1.04887e+09,-1.04715e+09,-1.04805e+09,2.00398e+06,-0.130688,0.620179,-0,0.633799,-8458.02,-38157.4,-0,39083.6,2.00398e+06
step02_gravity_refstate-crust.xmf,667,-1.1024e-05,1.03489e-05,0,3.33504e-05,-1.04964e+09,-1.04817e+09,-1.04888e+09,2.28784e+06,-0.138974,0.671677,-0,0.685904,-7714.07,-38184.6,-0,38956,2.28784e+06
step02_gravity_refstate-crust.xmf,668,-9.34034e-06,6.03998e-06,0,3.84635e-05,-1.0512e+09,-1.05014e+09,-1.05055e+09,2.6386e+06,-0.146804,0.732604,-0,0.747168,-6914.62,-38241.4,-0,38861.5,2.6386e+06
step02_gravity_refstate-crust.xmf,669,7.34067e-06,-1.86699e-05,0,3.99173e-05,-9.95768e+08,-9.97552e+08,-9.96272e+08,2.73833e+06,-0.143214,0.856001,-0,0.867898,-5173.42,-36252.7,-0,36620,2.73833e+06
step02_gravity_refstate-crust.xmf,670,3.0507e-06,-1.32302e-05,0,4.19561e-05,-1.01233e+09,-1.01345e+09,-1.01254e+09,2.87819e+06,-0.14959,0.839962,-0,0.853179,-5519.36,-36846.8,-0,37257.9,2.87819e+06
step02_gravity_refstate-crust.xmf,671,-1.41447e-06,-7.12532e-06,0,4.29214e-05,-1.02895e+09,-1.02934e+09,-1.02885e+09,2.94441e+06,-0.152917,0.818932,-0,0.833087,-5860.31,-37443.2,-0,37899,2.94441e+06
step02_gravity_refstate-crust.xmf,672,-5.50163e-06,-1.18198e-06,0,4.2982e-05,-1.04545e+09,-1.04515e+09,-1.04507e+09,2.94857e+06,-0.152862,0.795822,-0,0.81037,-6164.39,-38036.6,-0,38532.9,2.94857e+06
step02_gravity_refstate-crust.xmf,673,1.07841e-05,-2.0661e-05,0,3.09172e-05,-9.40873e+08,-9.4303e+08,-9.41612e+08,2.12092e+06,-0.124711,0.816843,-0,0.826308,-5164.02,-34265,-0,34652,2.12092e+06
step02_gravity_refstate-crust.xmf,674,1.11104e-05,-2.31113e-05,0,3.71468e-05,-9.79726e+08,-9.82074e+08,-9.80488e+08,2.54827e+06,-0.134685,0.867014,-0,0.877413,-4830.59,-35677.1,-0,36002.6,2.54827e+06
step02_gravity_refstate-crust.xmf,675,1.30542e-05,-2.45528e-05,0,3.34543e-05,-9.60059e+08,-9.62639e+08,-9.60955e+08,2.29497e+06,-0.125799,0.858938,-0,0.868102,-4680.53,-34966.7,-0,35278.6,2.29497e+06
step02_gravity_refstate-crust.xmf,676,6.33141e-06,-5.81509e-06,0,-1.45247e-07,-4.19578e+08,-4.20412e+08,-4.20013e+08,-9963.95,0.00101749,0.608582,0,0.608583,161.198,-15291.8,0,15292.6,9963.95
step02_gravity_refstate-crust.xmf,677,6.90817e-06,-6.82973e-06,0,7.60035e-07,-4.60933e+08,-4.61876e+08,-4.61407e+08,52138.4,-0.00484925,0.617695,-0,0.617714,-702.344,-16798.1,-0,16812.8,52138.4
step02_gravity_refstate-crust.xmf,678,7.52955e-06,-7.9111e-06,0,1.80052e-06,-5.01927e+08,-5.02986e+08,-5.02443e+08,123516,-0.0113092,0.627122,-0,0.627224,-1489.93,-18291.4,-0,18351.9,123516
step02_gravity_refstate-crust.xmf,679,8.11702e-06,-8.95509e-06,0,2.95161e-06,-5.3967e+08,-5.40841e+08,-5.40227e+08,202481,-0.018139,0.636148,-0,0.636407,-2183.49,-19666.2,-0,19787,202481
step02_gravity_refstate-crust.xmf,680,9.1736e-06,-1.07301e-05,0,4.57197e-06,-5.98302e+08,-5.99668e+08,-5.98932e+08,313637,-0.0273972,0.653384,-0,0.653958,-2839.66,-21802.3,-0,21986.4,313637
step02_gravity_refstate-crust.xmf,681,9.42558e-06,-1.13105e-05,0,6.25957e-06,-6.2737e+08,-6.28793e+08,-6.28017e+08,429406,-0.0369916,0.658884,-0,0.659922,-3590.24,-22860.7,-0,23140.9,429406
step02_gravity_refstate-crust.xmf,682,9.53338e-06,-1.17465e-05,0,8.08743e-06,-6.5688e+08,-6.5834e+08,-6.57534e+08,554798,-0.0471231,0.66363,-0,0.665301,-4290.23,-23934.8,-0,24316.2,554798
step02_gravity_refstate-crust.xmf,683,1.00545e-05,-1.3841e-05,0,1.42752e-05,-7.62477e+08,-7.64116e+08,-7.63167e+08,979276,-0.0768387,0.694299,-0,0.698538,-5424.43,-27778,-0,28302.7,979276
step02_gravity_refstate-crust.xmf,684,1.0576e-05,-1.41025e-05,0,1.19956e-05,-7.3602e+08,-7.37713e+08,-7.36745e+08,822895,-0.0656341,0.692274,-0,0.695379,-4863.83,-26816.5,-0,27254,822895
step02_gravity_refstate-crust.xmf,685,9.94884e-06,-1.65515e-05,0,2.38283e-05,-8.80415e+08,-8.82233e+08,-8.81098e+08,1.63462e+06,-0.11012,0.754209,-0,0.762206,-5649.05,-32067,-0,32560.8,1.63462e+06
step02_gravity_refstate-crust.xmf,686,1.13071e-05,-1.76789e-05,0,2.11364e-05,-8.57843e+08,-8.59831e+08,-8.58619e+08,1.44996e+06,-0.0997433,0.752664,-0,0.759245,-5304.94,-31249,-0,31696.1,1.44996e+06
step02_gravity_refstate-crust.xmf,687,1.24262e-05,-1.85449e-05,0,1.83827e-05,-8.3529e+08,-8.37415e+08,-8.36143e+08,1.26105e+06,-0.0885044,0.750897,-0,0.756095,-4889,-30431.1,-0,30821.4,1.26105e+06
step02_gravity_refstate-crust.xmf,688,5.26803e-06,-1.91337e-06,0,-1.27e-06,-5.65637e+07,-5.70563e+07,-5.69251e+07,-87122.1,0.0566515,0.529618,0,0.532639,8698.32,-2077.61,0,8943,87122.1
step02_gravity_refstate-crust.xmf,689,5.22094e-06,-1.93911e-06,0,-1.79445e-06,-1.02219e+08,-1.0271e+08,-1.02577e+08,-123099,0.040518,0.545794,0,0.547296,6850.12,-3739.51,0,7804.36,123099
step02_gravity_refstate-crust.xmf,690,5.04455e-06,-2.06213e-06,0,-1.99084e-06,-1.48868e+08,-1.49356e+08,-1.49214e+08,-136571,0.029799,0.557443,0,0.558239,5463.2,-5436.92,0,7707.57,136571
step02_gravity_refstate-crust.xmf,691,4.93794e-06,-2.34648e-06,0,-1.97812e-06,-1.97169e+08,-1.97669e+08,-1.97508e+08,-135699,0.0220645,0.567309,0,0.567738,4259.54,-7194.5,0,8360.89,135699
step02_gravity_refstate-crust.xmf,692,4.97949e-06,-2.87209e-06,0,-1.75233e-06,-2.50475e+08,-2.51014e+08,-2.50817e+08,-120210,0.0157431,0.577062,0,0.577277,3079.69,-9134.51,0,9639.7,120210
step02_gravity_refstate-crust.xmf,693,5.37817e-06,-4.03017e-06,0,-1.50253e-06,-3.34877e+08,-3.35522e+08,-3.35246e+08,-103074,0.0110235,0.59072,0,0.590823,2027.13,-12207,0,12374.2,103074
step02_gravity_refstate-crust.xmf,694,5.81125e-06,-4.87238e-06,0,-9.13238e-07,-3.77485e+08,-3.78218e+08,-3.77883e+08,-62648.1,0.00634864,0.599565,0,0.599599,1090.83,-13758.7,0,13801.9,62648.1
step02_gravity_refstate-crust.xmf,695,-7.07111e-06,1.66501e-05,0,6.3105e-06,-1.04455e+09,-1.04293e+09,-1.04407e+09,432900,-0.0397853,0.252999,-0,0.256109,-17539.4,-38025.2,-0,41875.4,432900
step02_gravity_refstate-crust.xmf,696,-9.54374e-06,1.75777e-05,0,1.11508e-05,-1.03885e+09,-1.03699e+09,-1.0382e+09,764943,-0.0695118,0.349745,-0,0.356585,-14247.6,-37809,-0,40404.3,764943
step02_gravity_refstate-crust.xmf,697,-3.18569e-06,1.41748e-05,0,1.86062e-06,-1.0728e+09,-1.07161e+09,-1.07258e+09,127639,-0.00209797,0.141873,-0,0.141888,-22887.7,-39065.5,-0,45276.5,127639
step02_gravity_refstate-crust.xmf,698,-1.24518e-05,1.81024e-05,0,2.02603e-05,-1.06105e+09,-1.05896e+09,-1.0602e+09,1.38986e+06,-0.102496,0.499821,-0,0.510222,-10358.2,-38606.3,-0,39971.8,1.38986e+06
step02_gravity_refstate-crust.xmf,699,-1.29172e-05,1.76428e-05,0,2.31791e-05,-1.06454e+09,-1.06244e+09,-1.06365e+09,1.59009e+06,-0.110738,0.540918,-0,0.552137,-9581.75,-38730.7,-0,39898.3,1.59009e+06
step02_gravity_refstate-crust.xmf,700,-8.7198e-06,4.22246e-06,0,4.23056e-05,-1.06042e+09,-1.05953e+09,-1.05982e+09,2.90216e+06,-0.150044,0.774335,-0,0.788738,-6400.85,-38577,-0,39104.4,2.90216e+06
step02_gravity_refstate-crust.xmf,701,8.87383e-06,-1.01812e-05,0,3.27295e-06,-5.74693e+08,-5.76e+08,-5.75301e+08,224524,-0.0199021,0.648337,-0,0.648643,-2180.08,-20942.4,-0,21055.6,224524
step02_gravity_refstate-crust.xmf,702,1.08483e-05,-1.40877e-05,0,9.84805e-06,-7.10348e+08,-7.12058e+08,-7.11092e+08,675576,-0.0547193,0.689142,-0,0.691311,-4265.97,-25883,-0,26232.2,675576
step02_gravity_refstate-crust.xmf,703,1.08783e-05,-1.37863e-05,0,7.79165e-06,-6.84114e+08,-6.85806e+08,-6.8486e+08,534507,-0.0439824,0.684419,-0,0.685831,-3627.47,-24928.5,-0,25191.1,534507
step02_gravity_refstate-crust.xmf,704,1.15541e-05,-1.64889e-05,0,1.49542e-05,-7.8813e+08,-7.90054e+08,-7.88923e+08,1.02585e+06,-0.0770753,0.720222,-0,0.724335,-4911.82,-28713.9,-0,29131,1.02585e+06
step02_gravity_refstate-crust.xmf,705,1.3326e-05,-1.93895e-05,0,1.55026e-05,-8.12331e+08,-8.14575e+08,-8.13245e+08,1.06348e+06,-0.0761945,0.748584,-0,0.752452,-4383.86,-29597.6,-0,29920.5,1.06348e+06
step02_gravity_refstate-crust.xmf,706,1.15361e-05,-1.98211e-05,0,2.56261e-05,-9.01222e+08,-9.03373e+08,-9.02013e+08,1.75795e+06,-0.111795,0.786428,-0,0.794335,-5194.59,-32825.9,-0,33234.3,1.75795e+06
step02_gravity_refstate-crust.xmf,707,1.34304e-05,-2.33871e-05,0,2.75109e-05,-9.21262e+08,-9.23788e+08,-9.22184e+08,1.88725e+06,-0.112952,0.821536,-0,0.829265,-4749.59,-33557.6,-0,33892.1,1.88725e+06
step02_gravity_refstate-crust.xmf,708,5.80684e-06,-2.22183e-06,0,-1.60361e-08,550827,60.3943,152478,-1100.07,0.0762925,0.516379,0,0.521985,9858.69,0,0,9858.69,1100.07
step02_gravity_refstate-crust.xmf,709,5.06556e-06,-3.40782e-06,0,-1.98814e-06,-2.99935e+08,-3.00516e+08,-3.00282e+08,-136387,0.0155153,0.583022,0,0.583228,2977.11,-10934.6,0,11332.7,136387
step02_gravity_refstate-crust.xmf,710,-1.19043e-05,1.85275e-05,0,1.75058e-05,-1.06004e+09,-1.05795e+09,-1.05922e+09,1.2009e+06,-0.0928687,0.458631,-0,0.467939,-11188.6,-38572.3,-0,40162.3,1.2009e+06
step02_gravity_refstate-crust.xmf,711,-4.00628e-06,1.48321e-05,0,2.55882e-06,-1.06763e+09,-1.06634e+09,-1.06736e+09,175535,-0.00835222,0.161926,-0,0.162142,-21641.7,-38875,-0,44493,175535
step02_gravity_refstate-crust.xmf,712,-5.55524e-06,1.60351e-05,0,4.15481e-06,-1.06141e+09,-1.05993e+09,-1.06103e+09,285020,-0.0214801,0.203835,-0,0.204963,-19374.2,-38644.2,-0,43228.9,285020
step02_gravity_refstate-crust.xmf,713,-4.7048e-06,1.55683e-05,0,3.20098e-06,-1.07106e+09,-1.06967e+09,-1.07073e+09,219587,-0.0125183,0.179945,-0,0.18038,-20390.4,-38998,-0,44006.9,219587
step02_gravity_refstate-crust.xmf,714,-6.2882e-06,1.64414e-05,0,5.10135e-06,-1.05542e+09,-1.05386e+09,-1.05499e+09,349953,-0.0293807,0.226177,-0,0.228077,-18443.2,-38423.6,-0,42620.7,349953
step02_gravity_refstate-crust.xmf,715,-8.04428e-06,1.72085e-05,0,7.8456e-06,-1.04386e+09,-1.04213e+09,-1.04331e+09,538208,-0.0497104,0.285661,-0,0.289954,-16263.6,-37997,-0,41331.3,538208
step02_gravity_refstate-crust.xmf,716,-8.76858e-06,1.75166e-05,0,9.25439e-06,-1.04283e+09,-1.04103e+09,-1.04223e+09,634851,-0.0583829,0.314302,-0,0.319679,-15281.7,-37957.1,-0,40917.8,634851
step02_gravity_refstate-crust.xmf,717,-1.12798e-05,1.85317e-05,0,1.53218e-05,-1.05672e+09,-1.05468e+09,-1.05595e+09,1.05107e+06,-0.0849626,0.423624,-0,0.432061,-12006,-38454,-0,40284.7,1.05107e+06
step02_gravity_refstate-crust.xmf,718,-9.84693e-06,1.84746e-05,0,1.12503e-05,-1.05737e+09,-1.05543e+09,-1.05669e+09,771772,-0.0658523,0.353407,-0,0.35949,-13788.1,-38483.3,-0,40878.8,771772
step02_gravity_refstate-crust.xmf,719,-1.05998e-05,1.8583e-05,0,1.31881e-05,-1.05679e+09,-1.05479e+09,-1.05606e+09,904702,-0.0754722,0.387858,-0,0.395132,-12872.4,-38459.4,-0,40556.4,904702
step02_gravity_refstate-crust.xmf,720,-1.31131e-05,1.65266e-05,0,2.66096e-05,-1.06556e+09,-1.06353e+09,-1.06466e+09,1.82542e+06,-0.119902,0.585941,-0,0.598083,-8842.13,-38765.3,-0,39760.9,1.82542e+06
step02_gravity_refstate-crust.xmf,721,-1.29748e-05,1.47635e-05,0,3.05977e-05,-1.06646e+09,-1.06456e+09,-1.06557e+09,2.099e+06,-0.129028,0.635091,-0,0.648065,-8113.45,-38796,-0,39635.3,2.099e+06
step02_gravity_refstate-crust.xmf,722,-1.24145e-05,1.23556e-05,0,3.50016e-05,-1.06801e+09,-1.06631e+09,-1.06716e+09,2.40111e+06,-0.137217,0.68623,-0,0.699814,-7423.38,-38851,-0,39553.8,2.40111e+06
step02_gravity_refstate-crust.xmf,723,-5.77818e-06,-1.33548e-06,0,4.65047e-05,-1.0596e+09,-1.05929e+09,-1.0592e+09,3.19022e+06,-0.154194,0.825616,-0,0.839892,-5841.4,-38550.3,-0,38990.3,3.19022e+06
step02_gravity_refstate-crust.xmf,724,-1.17068e-05,1.0004e-05,0,3.95578e-05,-1.07297e+09,-1.07148e+09,-1.07217e+09,2.71367e+06,-0.143214,0.73623,-0,0.75003,-6796.75,-39030.7,-0,39618.1,2.71367e+06
step02_gravity_refstate-crust.xmf,725,-1.29924e-06,-8.63146e-06,0,4.70602e-05,-1.04455e+09,-1.04506e+09,-1.04447e+09,3.22833e+06,-0.155091,0.854425,-0,0.868386,-5502.73,-38009.4,-0,38405.7,3.22833e+06
step02_gravity_refstate-crust.xmf,726,1.2801e-05,-2.67512e-05,0,4.01725e-05,-9.95521e+08,-9.98234e+08,-9.96399e+08,2.75584e+06,-0.136375,0.904098,-0,0.914325,-4493.46,-36253.3,-0,36530.7,2.75584e+06
step02_gravity_refstate-crust.xmf,727,8.53654e-06,-2.16766e-05,0,4.35913e-05,-1.01191e+09,-1.01398e+09,-1.0125e+09,2.99037e+06,-0.145546,0.893623,-0,0.905398,-4829.45,-36840.6,-0,37155.8,2.99037e+06
step02_gravity_refstate-crust.xmf,728,3.68096e-06,-1.54619e-05,0,4.60562e-05,-1.02859e+09,-1.0299e+09,-1.02884e+09,3.15945e+06,-0.152101,0.877719,-0,0.890801,-5161.05,-37437.6,-0,37791.7,3.15945e+06
step02_gravity_refstate-crust.xmf,729,1.57934e-05,-2.77463e-05,0,2.94533e-05,-9.40728e+08,-9.43715e+08,-9.41812e+08,2.02049e+06,-0.113239,0.860805,-0,0.868221,-4297.14,-34269.1,-0,34537.5,2.02049e+06
step02_gravity_refstate-crust.xmf,730,1.62874e-05,-3.05179e-05,0,3.60966e-05,-9.78793e+08,-9.82004e+08,-9.7991e+08,2.47623e+06,-0.125241,0.908693,-0,0.917283,-4158.31,-35652.6,-0,35894.3,2.47623e+06
step02_gravity_refstate-crust.xmf,731,6.17746e-06,-5.63294e-06,0,-1.77267e-06,-4.18636e+08,-4.19447e+08,-4.1906e+08,-121605,0.0118224,0.605656,0,0.605771,1890.44,-15257.1,0,15373.8,121605
step02_gravity_refstate-crust.xmf,732,6.84334e-06,-6.7344e-06,0,-9.53452e-07,-4.57962e+08,-4.58894e+08,-4.58432e+08,-65406.8,0.00620975,0.616684,0,0.616715,906.467,-16689.8,0,16714.4,65406.8
step02_gravity_refstate-crust.xmf,733,7.56556e-06,-7.92524e-06,0,-1.46627e-07,-4.97399e+08,-4.98461e+08,-4.97918e+08,-10058.6,0.000977251,0.627882,0,0.627883,129.553,-18126.6,0,18127.1,10058.6
step02_gravity_refstate-crust.xmf,734,8.30328e-06,-9.13321e-06,0,7.26114e-07,-5.34288e+08,-5.35484e+08,-5.34858e+08,49811.4,-0.0044147,0.639031,-0,0.639046,-532.4,-19470.7,-0,19478,49811.4
step02_gravity_refstate-crust.xmf,735,9.04721e-06,-1.03414e-05,0,1.49195e-06,-5.68624e+08,-5.69954e+08,-5.69245e+08,102348,-0.00898873,0.650414,-0,0.650476,-990.035,-20721.9,-0,20745.6,102348
step02_gravity_refstate-crust.xmf,736,9.74527e-06,-1.14783e-05,0,2.53646e-06,-5.99842e+08,-6.01298e+08,-6.00511e+08,174001,-0.0150473,0.661188,-0,0.661359,-1524.7,-21859.5,-0,21912.6,174001
step02_gravity_refstate-crust.xmf,737,1.02923e-05,-1.24276e-05,0,4.03918e-06,-6.28458e+08,-6.30017e+08,-6.29164e+08,277087,-0.0235676,0.670215,-0,0.670629,-2218.51,-22902,-0,23009.2,277087
step02_gravity_refstate-crust.xmf,738,1.06796e-05,-1.3213e-05,0,5.85252e-06,-6.56806e+08,-6.58445e+08,-6.57539e+08,401483,-0.0335874,0.677993,-0,0.678824,-2950.55,-23934.4,-0,24115.6,401483
step02_gravity_refstate-crust.xmf,739,1.21229e-05,-1.6557e-05,0,1.234e-05,-7.62574e+08,-7.64542e+08,-7.63406e+08,846521,-0.0647557,0.717259,-0,0.720177,-4330.45,-27785.7,-0,28121.1,846521
step02_gravity_refstate-crust.xmf,740,1.23268e-05,-1.63877e-05,0,9.87844e-06,-7.3688e+08,-7.3885e+08,-7.37726e+08,677661,-0.0528664,0.712021,-0,0.713981,-3733.7,-26851.4,-0,27109.7,677661
step02_gravity_refstate-crust.xmf,741,1.33508e-05,-2.12035e-05,0,2.24293e-05,-8.80052e+08,-8.82422e+08,-8.80968e+08,1.53865e+06,-0.0998065,0.787394,-0,0.793695,-4768.06,-32060.4,-0,32413,1.53865e+06
step02_gravity_refstate-crust.xmf,742,1.53749e-05,-2.25026e-05,0,1.59788e-05,-8.35938e+08,-8.38536e+08,-8.36992e+08,1.09614e+06,-0.0744965,0.779431,-0,0.782983,-3865.84,-30460.5,-0,30704.8,1.09614e+06
step02_gravity_refstate-crust.xmf,743,1.45412e-05,-2.20602e-05,0,1.92039e-05,-8.58045e+08,-8.60556e+08,-8.59043e+08,1.31738e+06,-0.0874673,0.784072,-0,0.788936,-4346.31,-31262.7,-0,31563.3,1.31738e+06
step02_gravity_refstate-crust.xmf,744,4.48368e-06,-1.63366e-06,0,-2.32214e-06,-1.11283e+08,-1.11703e+08,-1.11591e+08,-159299,0.0488048,0.53256,0,0.534792,8768.47,-4066.99,0,9665.74,159299
step02_gravity_refstate-crust.xmf,745,4.38309e-06,-1.58112e-06,0,-1.17707e-06,-4.17086e+07,-4.21177e+07,-4.20092e+07,-80747,0.0714926,0.50877,0,0.513769,11105.9,-1533.73,0,11211.3,80747
step02_gravity_refstate-crust.xmf,746,4.31651e-06,-1.65637e-06,0,-2.51564e-08,409254,-486.056,113141,-1725.73,0.0889811,0.495033,0,0.502966,12353.1,0,0,12353.1,1725.73
step02_gravity_refstate-crust.xmf,747,4.44379e-06,-1.74774e-06,0,-2.6794e-06,-1.5119e+08,-1.51614e+08,-1.51495e+08,-183807,0.039981,0.543599,0,0.545068,7640.94,-5519.49,0,9425.96,183807
step02_gravity_refstate-crust.xmf,748,4.44202e-06,-2.01779e-06,0,-2.88203e-06,-1.9731e+08,-1.97753e+08,-1.97615e+08,-197707,0.0324775,0.554835,0,0.555785,6480.62,-7198.13,0,9685.63,197707
step02_gravity_refstate-crust.xmf,749,4.53933e-06,-2.46311e-06,0,-2.92807e-06,-2.45155e+08,-2.45635e+08,-2.45466e+08,-200866,0.0269259,0.565341,0,0.565982,5424.97,-8939.67,0,10457,200866
step02_gravity_refstate-crust.xmf,750,4.73492e-06,-3.03399e-06,0,-2.92321e-06,-2.91769e+08,-2.92302e+08,-2.92094e+08,-200532,0.0234428,0.574573,0,0.575051,4615.67,-10636.6,0,11594.9,200532
step02_gravity_refstate-crust.xmf,751,5.07008e-06,-3.74126e-06,0,-2.81012e-06,-3.35825e+08,-3.3643e+08,-3.36173e+08,-192774,0.0206243,0.583876,0,0.58424,3861.22,-12240.8,0,12835.3,192774
step02_gravity_refstate-crust.xmf,752,5.56318e-06,-4.61462e-06,0,-2.436e-06,-3.7791e+08,-3.78608e+08,-3.78292e+08,-167109,0.0168756,0.594403,0,0.594643,2939.87,-13773.6,0,14083.8,167109
step02_gravity_refstate-crust.xmf,753,-6.43087e-06,1.71487e-05,0,5.15433e-06,-1.07469e+09,-1.07307e+09,-1.07425e+09,353587,-0.0255477,0.229124,-0,0.230544,-17767.9,-39125.7,-0,42971.1,353587
step02_gravity_refstate-crust.xmf,754,-5.70294e-06,1.6656e-05,0,4.27435e-06,-1.07776e+09,-1.07622e+09,-1.07736e+09,293220,-0.0187438,0.207991,-0,0.208834,-18668.9,-39239.5,-0,43454.2,293220
step02_gravity_refstate-crust.xmf,755,-9.06438e-06,1.81737e-05,0,9.61526e-06,-1.05669e+09,-1.05482e+09,-1.05606e+09,659607,-0.0572442,0.322293,-0,0.327337,-14731.2,-38461.1,-0,41185.8,659607
step02_gravity_refstate-crust.xmf,756,-1.23887e-05,1.99765e-05,0,1.77057e-05,-1.08001e+09,-1.07779e+09,-1.07916e+09,1.21461e+06,-0.087546,0.46431,-0,0.472491,-10788.8,-39299.5,-0,40753.5,1.21461e+06
step02_gravity_refstate-crust.xmf,757,-1.30906e-05,1.97558e-05,0,2.05802e-05,-1.08093e+09,-1.07868e+09,-1.08003e+09,1.4118e+06,-0.0972993,0.506688,-0,0.515945,-9982.13,-39330,-0,40577,1.4118e+06
step02_gravity_refstate-crust.xmf,758,-1.36711e-05,1.92474e-05,0,2.38519e-05,-1.08202e+09,-1.07976e+09,-1.08108e+09,1.63624e+06,-0.106951,0.551417,-0,0.561693,-9215.28,-39366.6,-0,40430.8,1.63624e+06
step02_gravity_refstate-crust.xmf,759,-9.56887e-06,5.26506e-06,0,4.49358e-05,-1.07333e+09,-1.07231e+09,-1.07267e+09,3.08259e+06,-0.149899,0.794037,-0,0.808062,-6163.06,-39045.1,-0,39528.5,3.08259e+06
step02_gravity_refstate-crust.xmf,760,-6.31727e-06,-8.7665e-07,0,5.0178e-05,-1.07347e+09,-1.0731e+09,-1.07304e+09,3.44221e+06,-0.154544,0.851767,-0,0.865673,-5583.13,-39054,-0,39451,3.44221e+06
step02_gravity_refstate-crust.xmf,761,-1.76613e-06,-8.62323e-06,0,5.1016e-05,-1.05977e+09,-1.06024e+09,-1.05965e+09,3.49969e+06,-0.156442,0.883509,-0,0.897253,-5249.89,-38561.4,-0,38917.1,3.49969e+06
step02_gravity_refstate-crust.xmf,762,1.86264e-05,-3.24471e-05,0,3.14425e-05,-9.59693e+08,-9.63197e+08,-9.60971e+08,2.15695e+06,-0.112789,0.903713,-0,0.910724,-3860.24,-34963.7,-0,35176.2,2.15695e+06
step02_gravity_refstate-crust.xmf,763,1.22931e-05,-1.59587e-05,0,7.52439e-06,-7.1122e+08,-7.13158e+08,-7.12063e+08,516173,-0.0410399,0.705674,-0,0.706867,-3071.44,-25917.7,-0,26099,516173
step02_gravity_refstate-crust.xmf,764,1.20089e-05,-1.52394e-05,0,5.2962e-06,-6.84763e+08,-6.86633e+08,-6.85587e+08,363320,-0.0294325,0.697633,-0,0.698253,-2348.79,-24954.5,-0,25064.8,363320
step02_gravity_refstate-crust.xmf,765,1.38537e-05,-1.95222e-05,0,1.26052e-05,-7.88312e+08,-7.90602e+08,-7.89263e+08,864715,-0.0633366,0.743963,-0,0.746655,-3824.62,-28725.1,-0,28978.6,864715
step02_gravity_refstate-crust.xmf,766,1.57964e-05,-2.26636e-05,0,1.27597e-05,-8.12945e+08,-8.15584e+08,-8.14029e+08,875313,-0.0611098,0.772438,-0,0.774851,-3335.92,-29624.9,-0,29812.1,875313
step02_gravity_refstate-crust.xmf,767,1.54834e-05,-2.52641e-05,0,2.38072e-05,-9.01033e+08,-9.03828e+08,-9.02095e+08,1.63317e+06,-0.0998469,0.82229,-0,0.82833,-4309.32,-32826.5,-0,33108.2,1.63317e+06
step02_gravity_refstate-crust.xmf,768,1.78883e-05,-2.95525e-05,0,2.52326e-05,-9.21292e+08,-9.24546e+08,-9.22519e+08,1.73096e+06,-0.0994812,0.859344,-0,0.865083,-3883.1,-33567.2,-0,33791,1.73096e+06
step02_gravity_refstate-crust.xmf,769,3.77064e-06,-1.2899e-06,0,-2.42014e-06,-9.73392e+07,-9.76864e+07,-9.75979e+07,-166022,0.059863,0.512916,0,0.516397,10966.6,-3556.99,0,11529,166022
step02_gravity_refstate-crust.xmf,770,2.99466e-06,-1.00297e-06,0,-1.73502e-06,-5.96064e+07,-5.98806e+07,-5.98118e+07,-119022,0.0756908,0.48803,0,0.493865,13383.7,-2180.59,0,13560.2,119022
step02_gravity_refstate-crust.xmf,771,2.71238e-06,-1.03716e-06,0,-3.00512e-08,257320,101.515,71250.6,-2061.51,0.0978963,0.4709,0,0.480969,14873.9,0,0,14873.9,2061.51
step02_gravity_refstate-crust.xmf,772,1.61062e-06,-4.50726e-07,0,-1.69776e-06,-5.57356e+07,-5.5877e+07,-5.58461e+07,-116466,0.0831153,0.459437,0,0.466895,16130.7,-2034.93,0,16258.5,116466
step02_gravity_refstate-crust.xmf,773,1.05988e-06,-4.04929e-07,0,-2.87262e-08,100564,77.9956,27856.2,-1970.62,0.102724,0.444932,0,0.456636,17428.6,0,0,17428.6,1970.62
step02_gravity_refstate-crust.xmf,774,-1.16196e-05,1.99667e-05,0,1.52103e-05,-1.07921e+09,-1.07705e+09,-1.07842e+09,1.04343e+06,-0.0779831,0.424863,-0,0.431961,-11622.9,-39273.8,-0,40957.5,1.04343e+06
step02_gravity_refstate-crust.xmf,775,-7.26857e-06,1.76669e-05,0,6.35557e-06,-1.07178e+09,-1.07007e+09,-1.07128e+09,435992,-0.0342461,0.256673,-0,0.258948,-16691.1,-39017,-0,42437.3,435992
step02_gravity_refstate-crust.xmf,776,-8.32923e-06,1.8302e-05,0,7.97466e-06,-1.07014e+09,-1.06832e+09,-1.06957e+09,547062,-0.0445613,0.290979,-0,0.294371,-15466.8,-38954.3,-0,41912.5,547062
step02_gravity_refstate-crust.xmf,777,-1.08135e-05,1.97526e-05,0,1.30417e-05,-1.07789e+09,-1.07579e+09,-1.07715e+09,894658,-0.0688884,0.388051,-0,0.394119,-12498.9,-39228.5,-0,41171.5,894658
step02_gravity_refstate-crust.xmf,778,-9.13105e-06,1.90158e-05,0,9.38405e-06,-1.07661e+09,-1.07468e+09,-1.07599e+09,643746,-0.0508653,0.32019,-0,0.324205,-14377.1,-39187.7,-0,41741.8,643746
step02_gravity_refstate-crust.xmf,779,-9.97864e-06,1.94586e-05,0,1.10987e-05,-1.07763e+09,-1.07561e+09,-1.07695e+09,761368,-0.0595933,0.353083,-0,0.358076,-13407.2,-39222.1,-0,41450.2,761368
step02_gravity_refstate-crust.xmf,780,-1.40477e-05,1.82934e-05,0,2.76062e-05,-1.08287e+09,-1.08065e+09,-1.0819e+09,1.89379e+06,-0.116605,0.598939,-0,0.610184,-8485.55,-39394.4,-0,40297.9,1.89379e+06
step02_gravity_refstate-crust.xmf,781,-1.41084e-05,1.67586e-05,0,3.19067e-05,-1.0837e+09,-1.08158e+09,-1.08273e+09,2.1888e+06,-0.125991,0.649394,-0,0.661503,-7788.56,-39422.1,-0,40184.1,2.1888e+06
step02_gravity_refstate-crust.xmf,782,-1.37481e-05,1.45784e-05,0,3.6751e-05,-1.08505e+09,-1.08311e+09,-1.08411e+09,2.52112e+06,-0.134585,0.702317,-0,0.715096,-7126.81,-39469.4,-0,40107.6,2.52112e+06
step02_gravity_refstate-crust.xmf,783,-1.26854e-05,1.13454e-05,0,4.22551e-05,-1.08625e+09,-1.0846e+09,-1.08538e+09,2.8987e+06,-0.142471,0.758581,-0,0.771844,-6494.69,-39512.4,-0,40042.6,2.8987e+06
step02_gravity_refstate-crust.xmf,784,-2.13241e-06,-8.44762e-06,0,5.51326e-05,-1.0738e+09,-1.07424e+09,-1.07366e+09,3.7821e+06,-0.156844,0.910124,-0,0.92354,-5040.44,-39071.2,-0,39395,3.7821e+06
step02_gravity_refstate-crust.xmf,785,1.88656e-05,-3.55265e-05,0,3.88464e-05,-9.95254e+08,-9.98986e+08,-9.96549e+08,2.66487e+06,-0.125679,0.950521,-0,0.958793,-3816.52,-36254.6,-0,36454.9,2.66487e+06
step02_gravity_refstate-crust.xmf,786,4.72111e-06,-1.82192e-05,0,5.12688e-05,-1.04586e+09,-1.04744e+09,-1.04619e+09,3.51704e+06,-0.154134,0.922866,-0,0.935649,-4784.37,-38066.6,-0,38366.1,3.51704e+06
step02_gravity_refstate-crust.xmf,787,1.50806e-05,-3.14113e-05,0,4.36719e-05,-1.01152e+09,-1.01471e+09,-1.01255e+09,2.99589e+06,-0.137453,0.946707,-0,0.956634,-4145.9,-36837.7,-0,37070.3,2.99589e+06
step02_gravity_refstate-crust.xmf,788,1.03405e-05,-2.56932e-05,0,4.78649e-05,-1.02777e+09,-1.03025e+09,-1.02848e+09,3.28353e+06,-0.147118,0.937111,-0,0.948589,-4470.08,-37419.2,-0,37685.3,3.28353e+06
step02_gravity_refstate-crust.xmf,789,2.0708e-05,-3.45704e-05,0,2.65867e-05,-9.40803e+08,-9.44595e+08,-9.42224e+08,1.82384e+06,-0.098234,0.899518,-0,0.904866,-3467.97,-34281.1,-0,34456.1,1.82384e+06
step02_gravity_refstate-crust.xmf,790,2.18061e-05,-3.82797e-05,0,3.34675e-05,-9.77833e+08,-9.81955e+08,-9.79329e+08,2.29587e+06,-0.111766,0.948736,-0,0.955296,-3464.03,-35627.9,-0,35795.9,2.29587e+06
step02_gravity_refstate-crust.xmf,791,2.78384e-06,-1.63481e-05,0,5.47195e-05,-1.06036e+09,-1.06167e+09,-1.06055e+09,3.75376e+06,-0.156238,0.934575,-0,0.947545,-4760.21,-38589.3,-0,38881.8,3.75376e+06
step02_gravity_refstate-crust.xmf,792,5.77176e-06,-5.18045e-06,0,-3.42064e-06,-4.19962e+08,-4.20713e+08,-4.20358e+08,-234656,0.022992,0.597974,0,0.598416,3749.31,-15304.5,0,15757,234656
step02_gravity_refstate-crust.xmf,793,6.58843e-06,-6.41901e-06,0,-2.49209e-06,-4.56137e+08,-4.5703e+08,-4.56589e+08,-170957,0.0162111,0.612105,0,0.612319,2403.67,-16622.8,0,16795.7,170957
step02_gravity_refstate-crust.xmf,794,7.36423e-06,-7.66562e-06,0,-1.89842e-06,-4.94532e+08,-4.95563e+08,-4.95037e+08,-130232,0.0120688,0.624648,0,0.624764,1621.51,-18021.8,0,18094.6,130232
step02_gravity_refstate-crust.xmf,795,8.19368e-06,-8.97887e-06,0,-1.27749e-06,-5.31393e+08,-5.32571e+08,-5.31955e+08,-87636,0.00797843,0.6374,0,0.63745,971.297,-19365.2,0,19389.5,87636
step02_gravity_refstate-crust.xmf,796,9.07149e-06,-1.03614e-05,0,-5.6771e-07,-5.66685e+08,-5.68018e+08,-5.67308e+08,-38944.9,0.00351232,0.650636,0,0.650645,387.832,-20651.4,0,20655,38944.9
step02_gravity_refstate-crust.xmf,797,9.96109e-06,-1.17594e-05,0,3.1002e-07,-5.99588e+08,-6.01078e+08,-6.00271e+08,21267.4,-0.00177594,0.663998,-0,0.664001,-178.848,-21850.7,-0,21851.4,21267.4
step02_gravity_refstate-crust.xmf,798,1.0806e-05,-1.31062e-05,0,1.58156e-06,-6.29965e+08,-6.31605e+08,-6.30706e+08,108495,-0.00910572,0.676834,-0,0.676896,-841.041,-22957.9,-0,22973.3,108495
step02_gravity_refstate-crust.xmf,799,1.151e-05,-1.42892e-05,0,3.29599e-06,-6.58077e+08,-6.59847e+08,-6.58866e+08,226105,-0.0186644,0.688127,-0,0.68838,-1595.97,-23982.4,-0,24035.4,226105
step02_gravity_refstate-crust.xmf,800,1.38582e-05,-1.83878e-05,0,7.16089e-06,-7.38292e+08,-7.40504e+08,-7.39242e+08,491237,-0.0375866,0.728522,-0,0.729491,-2550.01,-26905.8,-0,27026.4,491237
step02_gravity_refstate-crust.xmf,801,1.4039e-05,-1.90653e-05,0,9.77552e-06,-7.63505e+08,-7.65776e+08,-7.64468e+08,670601,-0.0501284,0.737397,-0,0.739099,-3197.68,-27823.4,-0,28006.6,670601
step02_gravity_refstate-crust.xmf,802,1.79195e-05,-2.58816e-05,0,1.28096e-05,-8.36488e+08,-8.39493e+08,-8.37717e+08,878741,-0.0582574,0.802334,-0,0.804447,-2880.58,-30485.6,-0,30621.4,878741
step02_gravity_refstate-crust.xmf,803,1.6843e-05,-2.59363e-05,0,2.00754e-05,-8.80249e+08,-8.83184e+08,-8.81405e+08,1.37718e+06,-0.0862772,0.818702,-0,0.823236,-3863.8,-32074.3,-0,32306.2,1.37718e+06
step02_gravity_refstate-crust.xmf,804,1.76012e-05,-2.61664e-05,0,1.63862e-05,-8.58556e+08,-8.61559e+08,-8.59764e+08,1.12409e+06,-0.0724067,0.811513,-0,0.814737,-3397.66,-31287.3,-0,31471.2,1.12409e+06
step02_gravity_refstate-crust.xmf,805,2.90873e-07,8.71338e-08,0,-1.68828e-06,-5.61572e+07,-5.61712e+07,-5.61772e+07,-115816,0.0853847,0.432477,0,0.440825,18637,-2045.77,0,18748.9,115816
step02_gravity_refstate-crust.xmf,806,-5.83334e-07,2.23646e-07,0,-3.34139e-08,-55315,43.8589,-15298.3,-2292.19,0.103248,0.418161,0,0.430719,20024.7,0,0,20024.7,2292.19
step02_gravity_refstate-crust.xmf,807,3.72589e-06,-1.36102e-06,0,-3.20875e-06,-1.51534e+08,-1.51883e+08,-1.51789e+08,-220121,0.048756,0.526093,0,0.528347,9793.85,-5529.7,0,11247.1,220121
step02_gravity_refstate-crust.xmf,808,3.80868e-06,-1.60558e-06,0,-3.62579e-06,-1.98262e+08,-1.98633e+08,-1.98523e+08,-248729,0.0413093,0.538642,0,0.540223,8629.88,-7230.84,0,11258.8,248729
step02_gravity_refstate-crust.xmf,809,3.9684e-06,-2.00336e-06,0,-3.85646e-06,-2.44477e+08,-2.44887e+08,-2.4475e+08,-264553,0.0359598,0.550473,0,0.551646,7547.21,-8913.4,0,11679.4,264553
step02_gravity_refstate-crust.xmf,810,4.22331e-06,-2.55257e-06,0,-3.96191e-06,-2.89979e+08,-2.90444e+08,-2.90269e+08,-271787,0.0321998,0.561662,0,0.562585,6576.22,-10570.1,0,12448.9,271787
step02_gravity_refstate-crust.xmf,811,4.58465e-06,-3.24608e-06,0,-3.97886e-06,-3.34146e+08,-3.34684e+08,-3.34461e+08,-272949,0.0294989,0.572546,0,0.573306,5709.72,-12178.5,0,13450.5,272949
step02_gravity_refstate-crust.xmf,812,5.08389e-06,-4.10157e-06,0,-3.87901e-06,-3.7965e+08,-3.8028e+08,-3.79999e+08,-266100,0.0270826,0.584497,0,0.585125,4841.79,-13835.7,0,14658.5,266100
step02_gravity_refstate-crust.xmf,813,-1.04316e-05,6.42607e-06,0,4.84202e-05,-1.08669e+09,-1.08554e+09,-1.08598e+09,3.32163e+06,-0.149406,0.818763,-0,0.832283,-5887.61,-39529.9,-0,39965.9,3.32163e+06
step02_gravity_refstate-crust.xmf,814,-6.52393e-06,-4.18203e-07,0,5.46828e-05,-1.08663e+09,-1.08621e+09,-1.08618e+09,3.75124e+06,-0.154339,0.880131,-0,0.893561,-5325.08,-39532.8,-0,39889.9,3.75124e+06
step02_gravity_refstate-crust.xmf,815,2.38439e-05,-3.97505e-05,0,2.80166e-05,-9.60004e+08,-9.64367e+08,-9.6164e+08,1.92194e+06,-0.0967354,0.942315,-0,0.947267,-3093.43,-34984.8,-0,35121.3,1.92194e+06
step02_gravity_refstate-crust.xmf,816,3.08165e-06,-1.71471e-05,0,5.894e-05,-1.07217e+09,-1.07356e+09,-1.07239e+09,4.04328e+06,-0.156584,0.963345,-0,0.975988,-4567.3,-39019.5,-0,39285.9,4.04328e+06
step02_gravity_refstate-crust.xmf,817,1.34354e-05,-1.74461e-05,0,4.67392e-06,-7.12723e+08,-7.14841e+08,-7.13644e+08,320631,-0.0250954,0.718338,-0,0.718776,-1819.05,-25974.7,-0,26038.3,320631
step02_gravity_refstate-crust.xmf,818,1.27762e-05,-1.62377e-05,0,2.34336e-06,-6.86462e+08,-6.88453e+08,-6.87339e+08,160754,-0.0127806,0.706503,-0,0.706618,-995.856,-25017.9,-0,25037.7,160754
step02_gravity_refstate-crust.xmf,819,1.59144e-05,-2.22296e-05,0,9.53228e-06,-7.895e+08,-7.92117e+08,-7.90592e+08,653914,-0.0468795,0.7643,-0,0.765736,-2703.05,-28772.5,-0,28899.2,653914
step02_gravity_refstate-crust.xmf,820,1.79335e-05,-2.54748e-05,0,9.13827e-06,-8.14155e+08,-8.17133e+08,-8.15385e+08,626885,-0.0428772,0.792313,-0,0.793473,-2241.09,-29673.2,-0,29757.8,626885
step02_gravity_refstate-crust.xmf,821,1.93064e-05,-3.04543e-05,0,2.09048e-05,-9.01126e+08,-9.04539e+08,-9.0245e+08,1.43407e+06,-0.0847905,0.854075,-0,0.858274,-3438.04,-32837.3,-0,33016.8,1.43407e+06
step02_gravity_refstate-crust.xmf,822,2.21296e-05,-3.53301e-05,0,2.1628e-05,-9.21401e+08,-9.25343e+08,-9.2292e+08,1.48368e+06,-0.0824937,0.892239,-0,0.896045,-3028.23,-33579.4,-0,33715.6,1.48368e+06
step02_gravity_refstate-crust.xmf,823,-1.16374e-06,6.71662e-07,0,-1.84073e-06,-6.62233e+07,-6.60974e+07,-6.61435e+07,-126274,0.0815171,0.40258,0,0.41075,21416.7,-2407.26,0,21551.5,126274
step02_gravity_refstate-crust.xmf,824,-2.19484e-06,8.39339e-07,0,-2.1108e-08,-208219,-73.6472,-57652.3,-1448.01,0.0994463,0.391656,0,0.404084,22669.8,0,0,22669.8,1448.01
step02_gravity_refstate-crust.xmf,825,2.88379e-06,-9.13893e-07,0,-3.64401e-06,-1.5386e+08,-1.54121e+08,-1.54058e+08,-249979,0.0557731,0.505309,0,0.508378,11984.1,-5611.69,0,13232.9,249979
step02_gravity_refstate-crust.xmf,826,2.70026e-06,-8.04372e-07,0,-2.99945e-06,-1.15277e+08,-1.15518e+08,-1.15462e+08,-205762,0.0639345,0.492667,0,0.496798,13105.8,-4206.46,0,13764.3,205762
step02_gravity_refstate-crust.xmf,827,1.85378e-06,-4.21581e-07,0,-2.98364e-06,-1.09135e+08,-1.09291e+08,-1.09263e+08,-204678,0.0694191,0.471912,0,0.476991,15049.8,-3980.03,0,15567.1,204678
step02_gravity_refstate-crust.xmf,828,8.29693e-07,4.62345e-08,0,-3.06122e-06,-1.11457e+08,-1.11511e+08,-1.11514e+08,-209999,0.0720098,0.447247,0,0.453006,17283.2,-4061.13,0,17753.9,209999
step02_gravity_refstate-crust.xmf,829,-2.49631e-06,1.15689e-06,0,-1.34696e-06,-5.24514e+07,-5.22008e+07,-5.22801e+07,-92401.7,0.0800697,0.375471,0,0.383914,24139.5,-1901.24,0,24214.3,92401.7
step02_gravity_refstate-crust.xmf,830,-3.64764e-06,1.39515e-06,0,-1.91321e-08,-346031,-95.5196,-95803,-1312.46,0.091378,0.366467,0,0.377687,25371.6,0,0,25371.6,1312.46
step02_gravity_refstate-crust.xmf,831,-3.59734e-06,1.61797e-06,0,-1.22471e-06,-5.70929e+07,-5.67351e+07,-5.68461e+07,-84015,0.070399,0.349982,0,0.356992,26908.6,-2066.47,0,26987.8,84015
step02_gravity_refstate-crust.xmf,832,-5.02829e-06,1.90299e-06,0,-4.14665e-08,-477866,-2379.67,-132925,-2844.6,0.0792955,0.343666,0,0.352695,28137.7,0,0,28137.7,2844.6
step02_gravity_refstate-crust.xmf,833,-1.28682e-06,-9.62799e-06,0,6.01371e-05,-1.08632e+09,-1.08689e+09,-1.08623e+09,4.12541e+06,-0.156564,0.943124,-0,0.956031,-4793.16,-39528.5,-0,39818,4.12541e+06
step02_gravity_refstate-crust.xmf,834,2.52451e-05,-4.4688e-05,0,3.54213e-05,-9.94942e+08,-9.9974e+08,-9.96674e+08,2.4299e+06,-0.11032,0.994806,-0,1.0009,-3119.45,-36254.8,-0,36388.8,2.4299e+06
step02_gravity_refstate-crust.xmf,835,2.21901e-05,-4.18302e-05,0,4.15991e-05,-1.01128e+09,-1.01567e+09,-1.0128e+09,2.8537e+06,-0.124942,0.997233,-0,1.00503,-3471.72,-36841.6,-0,37004.8,2.8537e+06
step02_gravity_refstate-crust.xmf,836,8.48387e-06,-2.5209e-05,0,5.66153e-05,-1.05734e+09,-1.05965e+09,-1.05792e+09,3.88381e+06,-0.153351,0.979348,-0,0.991282,-4321.66,-38488.7,-0,38730.6,3.88381e+06
step02_gravity_refstate-crust.xmf,837,1.81959e-05,-3.74479e-05,0,4.74519e-05,-1.02714e+09,-1.03095e+09,-1.02838e+09,3.2552e+06,-0.137441,0.994636,-0,1.00409,-3797.13,-37409.6,-0,37601.8,3.2552e+06
step02_gravity_refstate-crust.xmf,838,1.32615e-05,-3.13834e-05,0,5.26885e-05,-1.04292e+09,-1.04598e+09,-1.04383e+09,3.61443e+06,-0.147371,0.987208,-0,0.998147,-4098.23,-37973.4,-0,38194,3.61443e+06
step02_gravity_refstate-crust.xmf,839,2.5289e-05,-4.08574e-05,0,2.21757e-05,-9.41026e+08,-9.45563e+08,-9.4276e+08,1.52125e+06,-0.0794306,0.932954,-0,0.936329,-2643.33,-34298,-0,34399.7,1.52125e+06
step02_gravity_refstate-crust.xmf,840,2.74026e-05,-4.61964e-05,0,2.91002e-05,-9.78018e+08,-9.83067e+08,-9.79898e+08,1.99628e+06,-0.094014,0.987646,-0,0.99211,-2734.83,-35645.1,-0,35749.8,1.99628e+06
step02_gravity_refstate-crust.xmf,841,5.3409e-06,-4.66121e-06,0,-4.36797e-06,-4.1517e+08,-4.15856e+08,-4.15536e+08,-299642,0.0294491,0.589384,0,0.59012,4955.21,-15129.1,0,15919.9,299642
step02_gravity_refstate-crust.xmf,842,6.23447e-06,-6.05972e-06,0,-3.87456e-06,-4.60976e+08,-4.6182e+08,-4.61404e+08,-265795,0.0252444,0.606215,0,0.60674,3775.76,-16798.1,0,17217.3,265795
step02_gravity_refstate-crust.xmf,843,6.96396e-06,-7.17865e-06,0,-3.52422e-06,-4.92941e+08,-4.93911e+08,-4.93418e+08,-241761,0.0224661,0.617965,0,0.618374,3082.76,-17963.1,0,18225.7,241761
step02_gravity_refstate-crust.xmf,844,7.8415e-06,-8.54641e-06,0,-3.12004e-06,-5.2996e+08,-5.31084e+08,-5.30498e+08,-214035,0.0194742,0.631997,0,0.632297,2411.51,-19312.2,0,19462.2,214035
step02_gravity_refstate-crust.xmf,845,8.7932e-06,-1.00163e-05,0,-2.64686e-06,-5.65512e+08,-5.66803e+08,-5.66115e+08,-181575,0.0161844,0.646649,0,0.646852,1809.77,-20608.1,0,20687.4,181575
step02_gravity_refstate-crust.xmf,846,9.8248e-06,-1.16002e-05,0,-1.98709e-06,-5.99572e+08,-6.01042e+08,-6.00246e+08,-136315,0.0118959,0.662189,0,0.662296,1202.58,-21849.8,0,21882.9,136315
step02_gravity_refstate-crust.xmf,847,1.08861e-05,-1.32317e-05,0,-9.50913e-07,-6.30887e+08,-6.32541e+08,-6.31633e+08,-65232.6,0.00560458,0.677905,0,0.677928,515.267,-22991.6,0,22997.4,65232.6
step02_gravity_refstate-crust.xmf,848,1.19271e-05,-1.48673e-05,0,4.746e-07,-6.60591e+08,-6.6243e+08,-6.6141e+08,32557.6,-0.00258489,0.693425,-0,0.69343,-217.465,-24074.7,-0,24075.7,32557.6
step02_gravity_refstate-crust.xmf,849,1.49765e-05,-1.98734e-05,0,3.93083e-06,-7.40515e+08,-7.42906e+08,-7.41542e+08,269655,-0.0203077,0.740435,-0,0.740713,-1336.53,-26989,-0,27022.1,269655
step02_gravity_refstate-crust.xmf,850,1.562e-05,-2.11546e-05,0,6.6271e-06,-7.65524e+08,-7.68046e+08,-7.66595e+08,454619,-0.0333162,0.75353,-0,0.754266,-2044.24,-27900.1,-0,27974.9,454619
step02_gravity_refstate-crust.xmf,851,1.99318e-05,-2.85711e-05,0,9.10814e-06,-8.37889e+08,-8.41216e+08,-8.39256e+08,624818,-0.040595,0.82004,-0,0.821044,-1932.95,-30540.6,-0,30601.7,624818
step02_gravity_refstate-crust.xmf,852,2.01908e-05,-2.96129e-05,0,1.28009e-05,-8.59117e+08,-8.62534e+08,-8.60502e+08,878138,-0.0552129,0.833335,-0,0.835162,-2478.97,-31312.9,-0,31410.8,878138
step02_gravity_refstate-crust.xmf,853,2.00544e-05,-3.02297e-05,0,1.67078e-05,-8.80282e+08,-8.83732e+08,-8.81658e+08,1.14615e+06,-0.0697716,0.84522,-0,0.848095,-2965.76,-32081.9,-0,32218.7,1.14615e+06
step02_gravity_refstate-crust.xmf,854,-1.30703e-07,4.9737e-07,0,-3.11245e-06,-1.17316e+08,-1.17273e+08,-1.17307e+08,-213514,0.0716597,0.423404,0,0.429426,19403.4,-4271.26,0,19867.9,213514
step02_gravity_refstate-crust.xmf,855,3.05414e-06,-1.12087e-06,0,-4.22251e-06,-2.00055e+08,-2.00341e+08,-2.00264e+08,-289664,0.0486577,0.518857,0,0.521133,10795.5,-7293.81,0,13028.5,289664
step02_gravity_refstate-crust.xmf,856,3.28133e-06,-1.47396e-06,0,-4.61041e-06,-2.45719e+08,-2.46045e+08,-2.45944e+08,-316274,0.0435116,0.532243,0,0.534018,9633.79,-8956.64,0,13154.1,316274
step02_gravity_refstate-crust.xmf,857,3.58165e-06,-1.97616e-06,0,-4.85138e-06,-2.90267e+08,-2.90649e+08,-2.90513e+08,-332805,0.0399215,0.545124,0,0.546583,8553.5,-10578.9,0,13604.3,332805
step02_gravity_refstate-crust.xmf,858,3.95625e-06,-2.61332e-06,0,-5.00597e-06,-3.33879e+08,-3.3433e+08,-3.3415e+08,-343410,0.0375546,0.557378,0,0.558642,7598.05,-12167.2,0,14344.7,343410
step02_gravity_refstate-crust.xmf,859,4.41186e-06,-3.37249e-06,0,-5.08628e-06,-3.75166e+08,-3.757e+08,-3.75469e+08,-348919,0.0359309,0.569295,0,0.570427,6748.24,-13670.9,0,15245.8,348919
step02_gravity_refstate-crust.xmf,860,-4.57099e-06,1.97622e-06,0,-1.07875e-06,-6.05668e+07,-6.01177e+07,-6.02533e+07,-74002.2,0.0585698,0.328563,0,0.333742,29615.7,-2189.56,0,29696.5,74002.2
step02_gravity_refstate-crust.xmf,861,-6.09032e-06,2.30505e-06,0,-4.04701e-08,-578791,-2868.46,-160995,-2776.25,0.0635485,0.324281,0,0.330449,30975.9,0,0,30975.9,2776.25
step02_gravity_refstate-crust.xmf,862,2.87035e-05,-4.64901e-05,0,2.25944e-05,-9.59893e+08,-9.65051e+08,-9.61862e+08,1.54998e+06,-0.0758546,0.975662,-0,0.978607,-2296.52,-34990,-0,35065.3,1.54998e+06
step02_gravity_refstate-crust.xmf,863,3.11922e-05,-5.32868e-05,0,2.99407e-05,-9.95234e+08,-1.00103e+09,-9.97374e+08,2.05393e+06,-0.0907222,1.03476,-0,1.03873,-2417.01,-36276.2,-0,36356.6,2.05393e+06
step02_gravity_refstate-crust.xmf,864,1.12099e-05,-2.93872e-05,0,6.38735e-05,-1.07144e+09,-1.07422e+09,-1.07221e+09,4.38173e+06,-0.15269,1.02788,-0,1.03916,-4025.35,-39006.6,-0,39213.7,4.38173e+06
step02_gravity_refstate-crust.xmf,865,5.10935e-06,-2.01011e-05,0,6.47352e-05,-1.08558e+09,-1.08731e+09,-1.08593e+09,4.44083e+06,-0.155416,1.00892,-0,1.02082,-4274.91,-39511.3,-0,39741.9,4.44083e+06
step02_gravity_refstate-crust.xmf,866,4.88474e-06,-4.14639e-06,0,-5.17997e-06,-4.14333e+08,-4.14952e+08,-4.14668e+08,-355346,0.0352907,0.580167,0,0.581239,6106.03,-15097.5,0,16285.5,355346
step02_gravity_refstate-crust.xmf,867,5.59595e-06,-5.21441e-06,0,-4.8963e-06,-4.46739e+08,-4.47481e+08,-4.47123e+08,-335886,0.0323295,0.593763,0,0.594642,5123.69,-16278.6,0,17065.9,335886
step02_gravity_refstate-crust.xmf,868,1.41072e-05,-1.83604e-05,0,1.52634e-06,-7.15536e+08,-7.17763e+08,-7.16504e+08,104707,-0.0081033,0.726097,-0,0.726142,-574.188,-26078.4,-0,26084.8,104707
step02_gravity_refstate-crust.xmf,869,1.31271e-05,-1.68061e-05,0,-8.31222e-07,-6.92548e+08,-6.94601e+08,-6.93448e+08,-57021.8,0.00487366,0.711707,0,0.711723,371.284,-25240,0,25242.7,57021.8
step02_gravity_refstate-crust.xmf,870,1.75063e-05,-2.43404e-05,0,5.89167e-06,-7.91811e+08,-7.94682e+08,-7.93012e+08,404168,-0.0284673,0.77972,-0,0.780239,-1582.7,-28859.8,-0,28903.2,404168
step02_gravity_refstate-crust.xmf,871,1.93646e-05,-2.74312e-05,0,5.46201e-06,-8.16814e+08,-8.20024e+08,-8.18143e+08,374694,-0.0253525,0.80582,-0,0.806218,-1283.67,-29772.8,-0,29800.5,374694
step02_gravity_refstate-crust.xmf,872,2.27992e-05,-3.51184e-05,0,1.67404e-05,-9.01094e+08,-9.05068e+08,-9.02659e+08,1.14839e+06,-0.0661444,0.881011,-0,0.883491,-2550.11,-32843.1,-0,32942,1.14839e+06
step02_gravity_refstate-crust.xmf,873,2.58743e-05,-4.03604e-05,0,1.65444e-05,-9.21482e+08,-9.26026e+08,-9.23257e+08,1.13494e+06,-0.0615576,0.919503,-0,0.921562,-2152.63,-33589.7,-0,33658.6,1.13494e+06
step02_gravity_refstate-crust.xmf,874,-1.8668e-06,1.2155e-06,0,-2.66561e-06,-1.12969e+08,-1.12758e+08,-1.12841e+08,-182861,0.0681882,0.378722,0,0.384811,23550.7,-4107.08,0,23906.1,182861
step02_gravity_refstate-crust.xmf,875,-1.01685e-06,9.14857e-07,0,-3.0942e-06,-1.24379e+08,-1.24247e+08,-1.24309e+08,-212262,0.0691782,0.400089,0,0.406026,21491.6,-4525.45,0,21962.9,212262
step02_gravity_refstate-crust.xmf,876,1.99644e-06,-4.43233e-07,0,-3.97691e-06,-1.58985e+08,-1.59152e+08,-1.59122e+08,-272816,0.0603736,0.483127,0,0.486885,14092.4,-5795.4,0,15237.5,272816
step02_gravity_refstate-crust.xmf,877,2.19776e-06,-5.78323e-07,0,-4.6875e-06,-2.04344e+08,-2.04535e+08,-2.04495e+08,-321563,0.0542147,0.495913,0,0.498867,13001.3,-7447.35,0,14983.2,321563
step02_gravity_refstate-crust.xmf,878,1.12314e-06,4.5302e-08,0,-4.14556e-06,-1.63651e+08,-1.63725e+08,-1.63728e+08,-284386,0.0630686,0.459916,0,0.46422,16157.5,-5962.5,0,17222.6,284386
step02_gravity_refstate-crust.xmf,879,2.4357e-07,5.20214e-07,0,-4.1873e-06,-1.67657e+08,-1.67638e+08,-1.67673e+08,-287249,0.0640521,0.435073,0,0.439763,18299.4,-6105.5,0,19291,287249
step02_gravity_refstate-crust.xmf,880,-2.70882e-06,1.57256e-06,0,-2.36266e-06,-1.12344e+08,-1.1205e+08,-1.12158e+08,-162078,0.0630241,0.356458,0,0.361987,25825.3,-4081.46,0,26145.8,162078
step02_gravity_refstate-crust.xmf,881,-3.49257e-06,1.90765e-06,0,-2.01871e-06,-1.1381e+08,-1.13439e+08,-1.1357e+08,-138484,0.0549634,0.334677,0,0.33916,28313.4,-4132.18,0,28613.4,138484
step02_gravity_refstate-crust.xmf,882,-5.28092e-06,2.26321e-06,0,-8.54505e-07,-6.40553e+07,-6.35378e+07,-6.36931e+07,-58619,0.0440241,0.310576,0,0.313681,32456.1,-2314.14,0,32538.5,58619
step02_gravity_refstate-crust.xmf,883,2.90058e-05,-5.23407e-05,0,3.68715e-05,-1.01155e+09,-1.01713e+09,-1.01354e+09,2.52938e+06,-0.108093,1.04373,-0,1.04932,-2805.62,-36862.8,-0,36969.4,2.52938e+06
step02_gravity_refstate-crust.xmf,884,2.63326e-05,-4.96323e-05,0,4.42146e-05,-1.02708e+09,-1.03229e+09,-1.02889e+09,3.03312e+06,-0.122932,1.04881,-0,1.05599,-3139.21,-37421.6,-0,37553.1,3.03312e+06
step02_gravity_refstate-crust.xmf,885,1.74414e-05,-3.88297e-05,0,5.80755e-05,-1.05703e+09,-1.06089e+09,-1.05823e+09,3.98398e+06,-0.146075,1.04068,-0,1.05088,-3755.88,-38492.8,-0,38675.6,3.98398e+06
step02_gravity_refstate-crust.xmf,886,2.2436e-05,-4.53236e-05,0,5.12767e-05,-1.04222e+09,-1.04687e+09,-1.04376e+09,3.51758e+06,-0.135928,1.04756,-0,1.05635,-3460.28,-37963.8,-0,38121.2,3.51758e+06
step02_gravity_refstate-crust.xmf,887,2.91218e-05,-4.60723e-05,0,1.62299e-05,-9.41313e+08,-9.46472e+08,-9.43311e+08,1.11337e+06,-0.0568569,0.959685,-0,0.961367,-1808.65,-34315.9,-0,34363.6,1.11337e+06
step02_gravity_refstate-crust.xmf,888,3.23149e-05,-5.3175e-05,0,2.28548e-05,-9.78383e+08,-9.84247e+08,-9.806e+08,1.56784e+06,-0.072105,1.02071,-0,1.02326,-1994.11,-35667.4,-0,35723.1,1.56784e+06
step02_gravity_refstate-crust.xmf,889,4.20674e-06,-3.37855e-06,0,-6.13232e-06,-4.117e+08,-4.1222e+08,-4.11989e+08,-420677,0.042172,0.565163,0,0.566734,7657.99,-15000.1,0,16841.9,420677
step02_gravity_refstate-crust.xmf,890,6.32293e-06,-6.37465e-06,0,-4.917e-06,-4.89097e+08,-4.89968e+08,-4.89531e+08,-337306,0.0317727,0.607389,0,0.608219,4519.38,-17821.8,0,18385.9,337306
step02_gravity_refstate-crust.xmf,891,7.22063e-06,-7.77294e-06,0,-4.80927e-06,-5.27253e+08,-5.28281e+08,-5.27748e+08,-329916,0.0302345,0.622193,0,0.622928,3863.39,-19212.3,0,19596.9,329916
step02_gravity_refstate-crust.xmf,892,8.22281e-06,-9.31152e-06,0,-4.58862e-06,-5.64569e+08,-5.65772e+08,-5.65133e+08,-314779,0.0282027,0.638355,0,0.638978,3228.96,-20572.6,0,20824.4,314779
step02_gravity_refstate-crust.xmf,893,9.33829e-06,-1.10114e-05,0,-4.22342e-06,-6.00095e+08,-6.01491e+08,-6.00735e+08,-289727,0.0253261,0.655705,0,0.656194,2600.9,-21867.8,0,22021.9,289727
step02_gravity_refstate-crust.xmf,894,1.05677e-05,-1.28615e-05,0,-3.45385e-06,-6.32461e+08,-6.34068e+08,-6.33186e+08,-236934,0.0201953,0.674059,0,0.674362,1869.42,-23048.2,0,23123.9,236934
step02_gravity_refstate-crust.xmf,895,1.18344e-05,-1.4772e-05,0,-2.22901e-06,-6.61911e+08,-6.63736e+08,-6.62723e+08,-152910,0.0126941,0.692386,0,0.692502,1067.27,-24122.5,0,24146.1,152910
step02_gravity_refstate-crust.xmf,896,1.55147e-05,-2.06485e-05,0,5.82329e-07,-7.43361e+08,-7.45842e+08,-7.44425e+08,39947.8,-0.00292801,0.746511,-0,0.746517,-189.213,-27093.6,-0,27094.2,39947.8
step02_gravity_refstate-crust.xmf,897,1.66627e-05,-2.25676e-05,0,2.9508e-06,-7.6802e+08,-7.70711e+08,-7.69163e+08,202425,-0.0145737,0.764187,-0,0.764326,-870.508,-27993,-0,28006.5,202425
step02_gravity_refstate-crust.xmf,898,2.12904e-05,-3.04319e-05,0,5.02561e-06,-8.39667e+08,-8.43215e+08,-8.41127e+08,344757,-0.0220738,0.832004,-0,0.832297,-1023.82,-30607.9,-0,30625,344757
step02_gravity_refstate-crust.xmf,899,2.22e-05,-3.23094e-05,0,8.49597e-06,-8.60091e+08,-8.6383e+08,-8.61614e+08,582823,-0.0359641,0.849821,-0,0.850581,-1561.92,-31352.3,-0,31391.1,582823
step02_gravity_refstate-crust.xmf,900,2.27813e-05,-3.38788e-05,0,1.23802e-05,-8.80762e+08,-8.84649e+08,-8.82324e+08,849280,-0.0505089,0.866748,-0,0.868219,-2059.67,-32104.7,-0,32170.7,849280
step02_gravity_refstate-crust.xmf,901,-5.78868e-07,9.58212e-07,0,-4.09306e-06,-1.70923e+08,-1.70818e+08,-1.70883e+08,-280784,0.0632877,0.410747,0,0.415594,20396.1,-6221.77,0,21324,280784
step02_gravity_refstate-crust.xmf,902,2.5013e-06,-8.86744e-07,0,-5.20526e-06,-2.49143e+08,-2.49376e+08,-2.49315e+08,-357081,0.0495231,0.510939,0,0.513334,11729.7,-9079.06,0,14832.9,357081
step02_gravity_refstate-crust.xmf,903,2.84306e-06,-1.32843e-06,0,-5.56541e-06,-2.92106e+08,-2.92392e+08,-2.92301e+08,-381787,0.0463549,0.525339,0,0.52738,10547,-10643.8,0,14984.4,381787
step02_gravity_refstate-crust.xmf,904,3.23362e-06,-1.90279e-06,0,-5.84859e-06,-3.3511e+08,-3.35462e+08,-3.35332e+08,-401213,0.0443833,0.539067,0,0.540891,9484.11,-12210.2,0,15460.8,401213
step02_gravity_refstate-crust.xmf,905,3.69948e-06,-2.60205e-06,0,-6.03693e-06,-3.7598e+08,-3.76413e+08,-3.76234e+08,-414133,0.0431041,0.552597,0,0.554276,8504.72,-13698.9,0,16124.2,414133
step02_gravity_refstate-crust.xmf,906,-6.88955e-06,2.60919e-06,0,-3.57113e-08,-654675,-3061.68,-182052,-2449.79,0.0446351,0.309313,0,0.312516,33894,0,0,33894,2449.79
step02_gravity_refstate-crust.xmf,907,-4.24685e-06,2.19796e-06,0,-1.63755e-06,-1.16931e+08,-1.16489e+08,-1.1664e+08,-112336,0.0440046,0.314711,0,0.317773,31025.9,-4243.23,0,31314.8,112336
step02_gravity_refstate-crust.xmf,908,3.25177e-05,-5.18499e-05,0,1.59914e-05,-9.60823e+08,-9.6661e+08,-9.63053e+08,1.09701e+06,-0.0525081,1.00198,-0,1.00336,-1524.01,-35031,-0,35064.1,1.09701e+06
step02_gravity_refstate-crust.xmf,909,3.52855e-05,-6.19136e-05,0,3.02702e-05,-1.01239e+09,-1.01905e+09,-1.01481e+09,2.07654e+06,-0.0865667,1.08577,-0,1.08921,-2125.06,-36903.8,-0,36964.9,2.07654e+06
step02_gravity_refstate-crust.xmf,910,3.60759e-05,-6.05284e-05,0,2.27688e-05,-9.9629e+08,-1.00292e+09,-9.98765e+08,1.56194e+06,-0.067775,1.06832,-0,1.07047,-1722.97,-36323.2,-0,36364,1.56194e+06
step02_gravity_refstate-crust.xmf,911,2.34895e-05,-4.89637e-05,0,6.34635e-05,-1.07096e+09,-1.07593e+09,-1.07257e+09,4.35359e+06,-0.143224,1.09571,-0,1.10503,-3475.88,-39008.6,-0,39163.2,4.35359e+06
step02_gravity_refstate-crust.xmf,912,1.89613e-05,-3.89414e-05,0,7.45047e-05,-1.0849e+09,-1.08887e+09,-1.0862e+09,5.11102e+06,-0.149498,1.08214,-0,1.09242,-3751.16,-39513.3,-0,39691,5.11102e+06
step02_gravity_refstate-crust.xmf,913,4.79267e-06,-4.27018e-06,0,-6.22104e-06,-4.48859e+08,-4.49481e+08,-4.49188e+08,-426764,0.0416196,0.578225,0,0.579721,6879.87,-16354,0,17742.2,426764
step02_gravity_refstate-crust.xmf,914,5.52998e-06,-5.41207e-06,0,-6.2579e-06,-4.85241e+08,-4.85992e+08,-4.8562e+08,-429292,0.0407149,0.592631,0,0.594028,6080.37,-17679.7,0,18696,429292
step02_gravity_refstate-crust.xmf,915,1.26342e-05,-1.61077e-05,0,-3.2688e-06,-6.87538e+08,-6.8951e+08,-6.88405e+08,-224240,0.0182236,0.705313,0,0.705548,1421.45,-25056.7,0,25097,224240
step02_gravity_refstate-crust.xmf,916,1.44098e-05,-1.89364e-05,0,-1.10448e-06,-7.21899e+08,-7.24187e+08,-7.22887e+08,-75767.2,0.00576913,0.730773,0,0.730796,400.304,-26310.4,0,26313.5,75767.2
step02_gravity_refstate-crust.xmf,917,1.86317e-05,-2.58698e-05,0,1.59265e-06,-7.97023e+08,-8.00075e+08,-7.98301e+08,109256,-0.00736536,0.791388,-0,0.791423,-396.38,-29051.7,-0,29054.4,109256
step02_gravity_refstate-crust.xmf,918,2.01029e-05,-2.83383e-05,0,2.03627e-06,-8.19666e+08,-8.22989e+08,-8.21045e+08,139688,-0.00930813,0.81355,-0,0.813603,-462.209,-29878.2,-0,29881.8,139688
step02_gravity_refstate-crust.xmf,919,2.56029e-05,-3.88305e-05,0,1.15079e-05,-9.0156e+08,-9.05981e+08,-9.03317e+08,789442,-0.0446446,0.901922,-0,0.903026,-1656.34,-32865.7,-0,32907.4,789442
step02_gravity_refstate-crust.xmf,920,2.8628e-05,-4.40395e-05,0,1.04422e-05,-9.21994e+08,-9.26979e+08,-9.23958e+08,716337,-0.0382235,0.939094,-0,0.939871,-1291.71,-33613.8,-0,33638.6,716337
step02_gravity_refstate-crust.xmf,921,-1.37469e-06,1.34418e-06,0,-3.79952e-06,-1.69148e+08,-1.68961e+08,-1.69053e+08,-260647,0.061321,0.386311,0,0.391147,22585.6,-6154.5,0,23409.1,260647
step02_gravity_refstate-crust.xmf,922,-2.12212e-06,1.69936e-06,0,-3.43237e-06,-1.68599e+08,-1.68337e+08,-1.68453e+08,-235461,0.0573953,0.362726,0,0.367239,24834.1,-6132.06,0,25579.9,235461
step02_gravity_refstate-crust.xmf,923,1.34884e-06,-3.48516e-08,0,-5.05971e-06,-2.14401e+08,-2.14495e+08,-2.14493e+08,-347096,0.0572719,0.472584,0,0.476042,15061.3,-7810.87,0,16966.2,347096
step02_gravity_refstate-crust.xmf,924,1.63119e-06,-2.2686e-07,0,-5.67897e-06,-2.57455e+08,-2.57583e+08,-2.57567e+08,-389578,0.0538515,0.486533,0,0.489504,13890.5,-9379.16,0,16760.5,389578
step02_gravity_refstate-crust.xmf,925,5.23194e-07,5.31944e-07,0,-5.16624e-06,-2.20269e+08,-2.20268e+08,-2.20305e+08,-354404,0.0588743,0.447553,0,0.451408,17159.2,-8022.06,0,18941.8,354404
step02_gravity_refstate-crust.xmf,926,-2.75108e-07,1.04614e-06,0,-5.09077e-06,-2.23312e+08,-2.23222e+08,-2.23293e+08,-349227,0.0589258,0.421617,0,0.425715,19305,-8130.41,0,20947.2,349227
step02_gravity_refstate-crust.xmf,927,-5.78793e-06,2.47257e-06,0,-5.41152e-07,-6.51502e+07,-6.45835e+07,-6.47532e+07,-37123,0.0278608,0.297821,0,0.299121,35354,-2352.27,0,35432.2,37123
step02_gravity_refstate-crust.xmf,928,-7.38926e-06,2.80154e-06,0,-1.45403e-08,-702028,-2939.21,-195125,-997.464,0.0231887,0.299711,0,0.300607,36899.5,0,0,36899.5,997.464
step02_gravity_refstate-crust.xmf,929,-2.81257e-06,2.0234e-06,0,-2.98889e-06,-1.69148e+08,-1.68816e+08,-1.68955e+08,-205038,0.051399,0.340137,0,0.343999,27205.4,-6149.76,0,27891.9,205038
step02_gravity_refstate-crust.xmf,930,-3.39734e-06,2.29701e-06,0,-2.49045e-06,-1.70669e+08,-1.70279e+08,-1.70436e+08,-170845,0.0436465,0.320128,0,0.32309,29620.6,-6203.2,0,30263.2,170845
step02_gravity_refstate-crust.xmf,931,-4.49072e-06,2.4567e-06,0,-1.29485e-06,-1.37089e+08,-1.36613e+08,-1.36781e+08,-88826.9,0.0296831,0.297355,0,0.298832,33848.9,-4976.51,0,34212.8,88826.9
step02_gravity_refstate-crust.xmf,932,3.35996e-05,-6.14282e-05,0,3.77468e-05,-1.02789e+09,-1.0344e+09,-1.03019e+09,2.58943e+06,-0.103601,1.09887,-0,1.10374,-2482.86,-37462,-0,37544.2,2.58943e+06
step02_gravity_refstate-crust.xmf,933,3.13878e-05,-5.93104e-05,0,4.60589e-05,-1.04252e+09,-1.04875e+09,-1.04468e+09,3.15964e+06,-0.11897,1.10548,-0,1.11186,-2821.27,-37989.3,-0,38093.9,3.15964e+06
step02_gravity_refstate-crust.xmf,934,2.81287e-05,-5.56276e-05,0,5.46464e-05,-1.05717e+09,-1.06292e+09,-1.0591e+09,3.74874e+06,-0.1326,1.10529,-0,1.11322,-3154.28,-38515.1,-0,38644.1,3.74874e+06
step02_gravity_refstate-crust.xmf,935,3.18705e-05,-4.95293e-05,0,9.55504e-06,-9.42968e+08,-9.48552e+08,-9.45154e+08,655476,-0.0326833,0.979522,-0,0.980067,-1004.72,-34381.9,-0,34396.6,655476
step02_gravity_refstate-crust.xmf,936,3.6044e-05,-5.86496e-05,0,1.54475e-05,-9.79908e+08,-9.86404e+08,-9.82381e+08,1.0597e+06,-0.047887,1.04703,-0,1.04813,-1273.36,-35729.6,-0,35752.2,1.0597e+06
step02_gravity_refstate-crust.xmf,937,3.52801e-06,-2.58074e-06,0,-6.83067e-06,-4.10958e+08,-4.11377e+08,-4.112e+08,-468584,0.0476211,0.549553,0,0.551612,9083.2,-14971.6,0,17511.5,468584
step02_gravity_refstate-crust.xmf,938,3.93548e-06,-3.259e-06,0,-7.14525e-06,-4.44932e+08,-4.45425e+08,-4.45202e+08,-490164,0.0483663,0.559858,0,0.561944,8504.75,-16209.1,0,18304.8,490164
step02_gravity_refstate-crust.xmf,939,6.36752e-06,-6.68327e-06,0,-6.2737e-06,-5.24286e+08,-5.25182e+08,-5.24723e+08,-430376,0.0401068,0.608401,0,0.609722,5353.09,-19102.6,0,19838.4,430376
step02_gravity_refstate-crust.xmf,940,7.38579e-06,-8.26823e-06,0,-6.3433e-06,-5.63581e+08,-5.64654e+08,-5.64087e+08,-435150,0.0393777,0.625764,0,0.627002,4672.23,-20534.8,0,21059.6,435150
step02_gravity_refstate-crust.xmf,941,8.52582e-06,-1.00098e-05,0,-6.25833e-06,-6.00539e+08,-6.0181e+08,-6.01124e+08,-429321,0.0378539,0.644547,0,0.645658,3998.94,-21882.2,0,22244.6,429321
step02_gravity_refstate-crust.xmf,942,9.81821e-06,-1.19587e-05,0,-5.87606e-06,-6.33784e+08,-6.35278e+08,-6.34457e+08,-403098,0.0345289,0.664625,0,0.665521,3265.65,-23094.7,0,23324.5,403098
step02_gravity_refstate-crust.xmf,943,1.136e-05,-1.43222e-05,0,-5.1025e-06,-6.6748e+08,-6.69242e+08,-6.68259e+08,-350032,0.0290118,0.68759,0,0.688202,2443.64,-24324.1,0,24446.5,350032
step02_gravity_refstate-crust.xmf,944,1.37984e-05,-1.80167e-05,0,-3.71698e-06,-7.15512e+08,-7.17694e+08,-7.16458e+08,-254985,0.0200583,0.722624,0,0.722902,1432.9,-26076.8,0,26116.2,254985
step02_gravity_refstate-crust.xmf,945,1.53874e-05,-2.0548e-05,0,-2.7516e-06,-7.44775e+08,-7.4724e+08,-7.45831e+08,-188760,0.0142782,0.745699,0,0.745835,922.053,-27144.7,0,27160.4,188760
step02_gravity_refstate-crust.xmf,946,1.69411e-05,-2.29985e-05,0,-9.79224e-07,-7.69561e+08,-7.72301e+08,-7.70723e+08,-67174.8,0.00493514,0.767213,0,0.767229,292.132,-28049.6,0,28051.1,67174.8
step02_gravity_refstate-crust.xmf,947,2.18219e-05,-3.11772e-05,0,7.64872e-07,-8.40195e+08,-8.43831e+08,-8.41692e+08,52470.2,-0.00326816,0.83653,-0,0.836536,-150.218,-30628.2,-0,30628.5,52470.2
step02_gravity_refstate-crust.xmf,948,2.33922e-05,-3.39359e-05,0,3.6936e-06,-8.60935e+08,-8.64867e+08,-8.62539e+08,253381,-0.0154176,0.859493,-0,0.859631,-656.627,-31385.3,-0,31392.2,253381
step02_gravity_refstate-crust.xmf,949,2.47074e-05,-3.64738e-05,0,7.26069e-06,-8.8133e+08,-8.85527e+08,-8.83024e+08,498083,-0.0291318,0.881532,-0,0.882013,-1155.03,-32129.2,-0,32149.9,498083
step02_gravity_refstate-crust.xmf,950,-1.01398e-06,1.49149e-06,0,-4.82044e-06,-2.22886e+08,-2.22714e+08,-2.22817e+08,-330683,0.0575329,0.396189,0,0.400345,21459.9,-8112.6,0,22942.1,330683
step02_gravity_refstate-crust.xmf,951,2.04037e-06,-6.13366e-07,0,-6.066e-06,-2.95438e+08,-2.9562e+08,-2.95578e+08,-416128,0.0512958,0.502931,0,0.50554,12548.3,-10763,0,16531.9,416128
step02_gravity_refstate-crust.xmf,952,2.42078e-06,-1.11235e-06,0,-6.4935e-06,-3.36877e+08,-3.3712e+08,-3.37043e+08,-445454,0.0499687,0.517304,0,0.519711,11435.7,-12272.4,0,16774.6,445454
step02_gravity_refstate-crust.xmf,953,2.85934e-06,-1.7709e-06,0,-6.9836e-06,-3.87205e+08,-3.87523e+08,-3.87401e+08,-479075,0.0500084,0.532364,0,0.534708,10384.6,-14105.4,0,17515.8,479075
step02_gravity_refstate-crust.xmf,954,-6.13563e-06,2.59885e-06,0,-2.13169e-07,-5.98498e+07,-5.92506e+07,-5.94289e+07,-14623.4,0.0134893,0.292198,0,0.29251,37819.8,-2158.09,0,37881.3,14623.4
step02_gravity_refstate-crust.xmf,955,-7.44414e-06,2.81477e-06,0,2.44133e-08,-707564,-3802.63,-196896,1674.75,9.99258e-19,0.296327,0,0.296327,40000,0,0,40000,1674.75
step02_gravity_refstate-crust.xmf,956,-3.82385e-06,2.50051e-06,0,-2.0085e-06,-1.73947e+08,-1.73513e+08,-1.73684e+08,-137783,0.0353895,0.304894,0,0.306941,31811.6,-6321.11,0,32433.5,137783
step02_gravity_refstate-crust.xmf,957,3.95274e-05,-7.0771e-05,0,2.92718e-05,-1.02884e+09,-1.03641e+09,-1.03156e+09,2.00804e+06,-0.0798032,1.14125,-0,1.14403,-1825.07,-37506.4,-0,37550.8,2.00804e+06
step02_gravity_refstate-crust.xmf,958,3.98767e-05,-6.89232e-05,0,2.18698e-05,-1.01343e+09,-1.02089e+09,-1.01617e+09,1.50027e+06,-0.0619965,1.11868,-0,1.12039,-1462.53,-36949.6,-0,36978.5,1.50027e+06
step02_gravity_refstate-crust.xmf,959,3.52473e-05,-5.59164e-05,0,8.69309e-06,-9.63793e+08,-9.70047e+08,-9.66211e+08,596346,-0.0278852,1.02297,-0,1.02335,-781.515,-35143.9,-0,35152.6,596346
step02_gravity_refstate-crust.xmf,960,3.94737e-05,-6.57701e-05,0,1.46894e-05,-9.97925e+08,-1.00514e+09,-1.00063e+09,1.0077e+06,-0.0432483,1.0933,-0,1.09415,-1063.41,-36388.3,-0,36403.9,1.0077e+06
step02_gravity_refstate-crust.xmf,961,3.40553e-05,-6.75138e-05,0,5.52512e-05,-1.07045e+09,-1.07741e+09,-1.07278e+09,3.79023e+06,-0.12678,1.16198,-0,1.16887,-2903.04,-39003.9,-0,39111.8,3.79023e+06
step02_gravity_refstate-crust.xmf,962,3.21952e-05,-6.52923e-05,0,6.46405e-05,-1.08458e+09,-1.09127e+09,-1.08679e+09,4.43434e+06,-0.136166,1.15632,-0,1.16431,-3228.22,-39514.4,-0,39646.1,4.43434e+06
step02_gravity_refstate-crust.xmf,963,3.07529e-05,-6.28737e-05,0,7.172e-05,-1.09798e+09,-1.1044e+09,-1.10009e+09,4.91999e+06,-0.13776,1.14692,-0,1.15517,-3497.18,-40000,-0,40152.6,4.91999e+06
step02_gravity_refstate-crust.xmf,964,4.5711e-06,-4.20876e-06,0,-7.37103e-06,-4.83414e+08,-4.84016e+08,-4.83727e+08,-505652,0.048846,0.57424,0,0.576313,7726.69,-17611.1,0,19231.6,505652
step02_gravity_refstate-crust.xmf,965,5.36888e-06,-5.45224e-06,0,-7.59628e-06,-5.21354e+08,-5.22096e+08,-5.21722e+08,-521105,0.0489811,0.59055,0,0.592578,6916.79,-18993.7,0,20213.9,521105
step02_gravity_refstate-crust.xmf,966,1.24895e-05,-1.6109e-05,0,-5.31691e-06,-6.9704e+08,-6.99002e+08,-6.97897e+08,-364740,0.0292731,0.705491,0,0.706098,2245.14,-25402,0,25501.1,364740
step02_gravity_refstate-crust.xmf,967,2.00488e-05,-2.82168e-05,0,-1.46336e-06,-8.17932e+08,-8.21243e+08,-8.19307e+08,-100387,0.00683293,0.812086,0,0.812115,340.873,-29815.1,0,29817,100387
step02_gravity_refstate-crust.xmf,968,2.72951e-05,-4.10036e-05,0,5.61069e-06,-9.01678e+08,-9.06363e+08,-9.0355e+08,384893,-0.0217263,0.914033,-0,0.914291,-788.992,-32873.4,-0,32882.9,384893
step02_gravity_refstate-crust.xmf,969,3.02401e-05,-4.60055e-05,0,2.96644e-06,-9.22872e+08,-9.28102e+08,-9.24946e+08,203498,-0.0112,0.95066,-0,0.950726,-370.7,-33649.2,-0,33651.2,203498
step02_gravity_refstate-crust.xmf,970,3.35301e-05,-5.21883e-05,0,2.54741e-06,-9.4718e+08,-9.53061e+08,-9.4948e+08,174752,-0.00842749,0.99479,-0,0.994826,-251.714,-34537.9,-0,34538.8,174752
step02_gravity_refstate-crust.xmf,971,-1.71493e-06,1.89526e-06,0,-4.42352e-06,-2.22794e+08,-2.22547e+08,-2.22677e+08,-303453,0.05441,0.370859,0,0.374829,23716.4,-8107.05,0,25063.8,303453
step02_gravity_refstate-crust.xmf,972,-2.35243e-06,2.25109e-06,0,-3.9234e-06,-2.23605e+08,-2.23289e+08,-2.23444e+08,-269145,0.0495136,0.346597,0,0.350116,26061.1,-8134.54,0,27301.1,269145
step02_gravity_refstate-crust.xmf,973,1.34218e-06,-6.34727e-09,0,-6.36531e-06,-2.99439e+08,-2.99531e+08,-2.99531e+08,-436660,0.0542986,0.481761,0,0.484811,14297.4,-10906.8,0,17982.6,436660
step02_gravity_refstate-crust.xmf,974,7.96205e-07,4.47748e-07,0,-6.0928e-06,-2.7662e+08,-2.76644e+08,-2.76675e+08,-417966,0.0559954,0.462141,0,0.465521,15886.2,-10074.6,0,18811.4,417966
step02_gravity_refstate-crust.xmf,975,-6.0933e-08,1.11587e-06,0,-6.00357e-06,-2.76356e+08,-2.76275e+08,-2.76352e+08,-411845,0.056844,0.432693,0,0.436411,18231.7,-10062.5,0,20824.2,411845
step02_gravity_refstate-crust.xmf,976,-7.97889e-07,1.66639e-06,0,-5.7541e-06,-2.76802e+08,-2.76633e+08,-2.76747e+08,-394731,0.0558657,0.40563,0,0.409459,20406.8,-10076.6,0,22759.1,394731
step02_gravity_refstate-crust.xmf,977,3.08847e-06,-2.19884e-06,0,-7.68657e-06,-4.38132e+08,-4.38495e+08,-4.38344e+08,-527299,0.0530952,0.540346,0,0.542948,10034.3,-15959.7,0,18852,527299
step02_gravity_refstate-crust.xmf,978,-4.99406e-06,2.58081e-06,0,-5.74682e-07,-1.29004e+08,-1.28485e+08,-1.28662e+08,-39423.2,0.0141708,0.286852,0,0.287202,37194.9,-4680.32,0,37488.3,39423.2
step02_gravity_refstate-crust.xmf,979,-5.73944e-06,2.55772e-06,0,1.38641e-08,-8.3608e+07,-8.30389e+07,-8.32143e+07,951.08,1.02165e-18,0.288184,0,0.288184,40000,-3024.57,0,40114.2,951.08
step02_gravity_refstate-crust.xmf,980,-2.90319e-06,2.54315e-06,0,-3.33006e-06,-2.24291e+08,-2.23917e+08,-2.24092e+08,-228442,0.0430456,0.32457,0,0.327412,28471.2,-8157.73,0,29616.8,228442
step02_gravity_refstate-crust.xmf,981,-3.34835e-06,2.7766e-06,0,-2.68455e-06,-2.25874e+08,-2.25454e+08,-2.25644e+08,-184160,0.0352857,0.305865,0,0.307894,30892.4,-8213.92,0,31965.7,184160
step02_gravity_refstate-crust.xmf,982,-3.73158e-06,2.92627e-06,0,-1.9046e-06,-2.2285e+08,-2.22394e+08,-2.22594e+08,-130656,0.0259194,0.290414,0,0.291569,33548.1,-8102.53,0,34512.7,130656
step02_gravity_refstate-crust.xmf,983,4.3424e-05,-7.70496e-05,0,1.98322e-05,-1.02973e+09,-1.038e+09,-1.03271e+09,1.36049e+06,-0.0539101,1.17178,-0,1.17302,-1196.56,-37544.8,-0,37563.9,1.36049e+06
step02_gravity_refstate-crust.xmf,984,3.87479e-05,-7.22301e-05,0,3.69739e-05,-1.04413e+09,-1.05174e+09,-1.04679e+09,2.53641e+06,-0.096069,1.16076,-0,1.16472,-2155.55,-38057.5,-0,38118.5,2.53641e+06
step02_gravity_refstate-crust.xmf,985,3.73827e-05,-7.28006e-05,0,4.61081e-05,-1.06029e+09,-1.06784e+09,-1.06285e+09,3.16302e+06,-0.112202,1.17493,-0,1.18028,-2511.93,-38639.3,-0,38720.9,3.16302e+06
step02_gravity_refstate-crust.xmf,986,3.83657e-05,-6.22947e-05,0,7.71184e-06,-9.82484e+08,-9.89389e+08,-9.85116e+08,529032,-0.0236525,1.06564,-0,1.06591,-611.456,-35827.1,-0,35832.3,529032
step02_gravity_refstate-crust.xmf,987,3.58738e-06,-3.02585e-06,0,-8.14491e-06,-4.7785e+08,-4.78304e+08,-4.78097e+08,-558741,0.054656,0.553684,0,0.556375,9297.8,-17406.5,0,19734.1,558741
step02_gravity_refstate-crust.xmf,988,6.33131e-06,-6.90453e-06,0,-7.74466e-06,-5.61298e+08,-5.62206e+08,-5.61733e+08,-531284,0.0490366,0.60915,0,0.61112,6117.27,-20449.6,0,21344.9,531284
step02_gravity_refstate-crust.xmf,989,7.44557e-06,-8.64959e-06,0,-7.97734e-06,-5.99941e+08,-6.01045e+08,-6.00452e+08,-547245,0.048911,0.628925,0,0.630824,5392.67,-21858.2,0,22513.6,547245
step02_gravity_refstate-crust.xmf,990,8.68599e-06,-1.05463e-05,0,-8.01152e-06,-6.34737e+08,-6.36056e+08,-6.35332e+08,-549591,0.0477078,0.649835,0,0.651584,4678.46,-23127,0,23595.5,549591
step02_gravity_refstate-crust.xmf,991,1.00843e-05,-1.26598e-05,0,-7.75593e-06,-6.65612e+08,-6.67173e+08,-6.66304e+08,-532056,0.0447633,0.671882,0,0.673372,3931.55,-24253.5,0,24570.1,532056
step02_gravity_refstate-crust.xmf,992,1.15303e-05,-1.48594e-05,0,-7.39871e-06,-6.94391e+08,-6.96201e+08,-6.95182e+08,-507551,0.0413228,0.693931,0,0.69516,3272.22,-25303.6,0,25514.3,507551
step02_gravity_refstate-crust.xmf,993,1.30366e-05,-1.71444e-05,0,-6.83541e-06,-7.20286e+08,-7.22357e+08,-7.21181e+08,-468909,0.0368844,0.715735,0,0.716684,2655.51,-26248.9,0,26382.9,468909
step02_gravity_refstate-crust.xmf,994,1.46946e-05,-1.96874e-05,0,-5.9718e-06,-7.45846e+08,-7.48204e+08,-7.46854e+08,-409666,0.0310627,0.738993,0,0.739645,2032.77,-27182.2,0,27258.1,409666
step02_gravity_refstate-crust.xmf,995,1.64944e-05,-2.24807e-05,0,-4.72058e-06,-7.71096e+08,-7.7377e+08,-7.72228e+08,-323832,0.0235947,0.763571,0,0.763936,1403.8,-28104.4,0,28139.5,323832
step02_gravity_refstate-crust.xmf,996,1.83367e-05,-2.5405e-05,0,-3.03484e-06,-7.95275e+08,-7.98276e+08,-7.96533e+08,-208190,0.0146079,0.788343,0,0.788478,793.352,-28987.6,0,28998.5,208190
step02_gravity_refstate-crust.xmf,997,2.15854e-05,-3.09083e-05,0,-3.6759e-06,-8.4039e+08,-8.43991e+08,-8.4187e+08,-252167,0.0162147,0.834684,0,0.834841,747.315,-30634.7,0,30643.8,252167
step02_gravity_refstate-crust.xmf,998,2.36776e-05,-3.43788e-05,0,-1.34578e-06,-8.61742e+08,-8.65725e+08,-8.63366e+08,-92320.3,0.00573542,0.862131,0,0.86215,242.622,-31415.1,0,31416.1,92320.3
step02_gravity_refstate-crust.xmf,999,2.56104e-05,-3.76983e-05,0,1.78396e-06,-8.81738e+08,-8.86081e+08,-8.83495e+08,122380,-0.00700605,0.888343,-0,0.888371,-274.164,-32145.8,-0,32147,122380
step02_gravity_refstate-crust.xmf,1000,3.15958e-05,-4.86518e-05,0,-2.16111e-06,-9.33552e+08,-9.39056e+08,-9.35719e+08,-148252,0.00739015,0.969701,0,0.969729,233.235,-34039.4,0,34040.2,148252
step02_gravity_refstate-crust.xmf,1001,-1.45848e-06,2.13384e-06,0,-5.35274e-06,-2.7666e+08,-2.76413e+08,-2.7656e+08,-367198,0.0533645,0.379547,0,0.38328,22589.9,-10069.5,0,24732.5,367198
step02_gravity_refstate-crust.xmf,1002,1.58881e-06,-2.66996e-07,0,-6.85583e-06,-3.37606e+08,-3.37734e+08,-3.37715e+08,-470310,0.0539096,0.49333,0,0.496267,13389.8,-12296.9,0,18179.7,470310
step02_gravity_refstate-crust.xmf,1003,1.89994e-06,-7.15484e-07,0,-7.43401e-06,-3.82046e+08,-3.82225e+08,-3.82176e+08,-509973,0.0545471,0.506307,0,0.509237,12438.5,-13915.3,0,18664.2,509973
step02_gravity_refstate-crust.xmf,1004,2.20986e-06,-1.19761e-06,0,-8.06965e-06,-4.29917e+08,-4.30151e+08,-4.30069e+08,-553578,0.0566336,0.518342,0,0.521427,11655,-15658.7,0,19520,553578
step02_gravity_refstate-crust.xmf,1005,-4.24561e-06,2.78849e-06,0,-1.18095e-06,-1.87404e+08,-1.86922e+08,-1.87113e+08,-81013,0.0192791,0.285592,0,0.286242,35581.2,-6809.78,0,36227,81013
step02_gravity_refstate-crust.xmf,1006,4.27701e-05,-7.35743e-05,0,1.29535e-05,-1.01498e+09,-1.02296e+09,-1.01792e+09,888613,-0.0365489,1.14186,-0,1.14245,-839.825,-37010.6,-0,37020.1,888613
step02_gravity_refstate-crust.xmf,1007,4.34899e-05,-8.03761e-05,0,2.68095e-05,-1.04463e+09,-1.05312e+09,-1.04761e+09,1.83913e+06,-0.07033,1.19996,-0,1.20202,-1527.28,-38082.1,-0,38112.8,1.83913e+06
step02_gravity_refstate-crust.xmf,1008,3.69515e-05,-5.90785e-05,0,4.07451e-07,-9.69129e+08,-9.75717e+08,-9.71664e+08,27951.1,-0.00116258,1.03983,-0,1.03983,-31.6161,-35340.1,-0,35340.2,27951.1
step02_gravity_refstate-crust.xmf,1009,4.13801e-05,-6.89572e-05,0,6.52833e-06,-9.99956e+08,-1.00753e+09,-1.0028e+09,447843,-0.0190672,1.10932,-0,1.10949,-459.062,-36465.1,-0,36467.9,447843
step02_gravity_refstate-crust.xmf,1010,3.88961e-05,-7.93534e-05,0,4.85618e-05,-1.07581e+09,-1.08392e+09,-1.07848e+09,3.33134e+06,-0.113156,1.21507,-0,1.22033,-2535.98,-39200.3,-0,39282.3,3.33134e+06
step02_gravity_refstate-crust.xmf,1011,3.80392e-05,-7.99897e-05,0,5.35819e-05,-1.08583e+09,-1.09393e+09,-1.08844e+09,3.67571e+06,-0.1188,1.2209,-0,1.22667,-2744.53,-39560.8,-0,39655.8,3.67571e+06
step02_gravity_refstate-crust.xmf,1012,3.55392e-05,-7.96955e-05,0,5.88314e-05,-1.09816e+09,-1.10607e+09,-1.1006e+09,4.03584e+06,-0.121135,1.22341,-0,1.22939,-2997.53,-40000,-0,40112.2,4.03584e+06
step02_gravity_refstate-crust.xmf,1013,4.20981e-06,-3.98569e-06,0,-8.76666e-06,-5.24282e+08,-5.24844e+08,-5.2457e+08,-601393,0.057534,0.568606,0,0.571509,8632.52,-19097.9,0,20958.3,601393
step02_gravity_refstate-crust.xmf,1014,5.22029e-06,-5.5065e-06,0,-8.91005e-06,-5.59408e+08,-5.60144e+08,-5.59766e+08,-611230,0.0570802,0.589791,0,0.592547,7553.36,-20378.4,0,21733.2,611230
step02_gravity_refstate-crust.xmf,1015,1.95485e-05,-2.75968e-05,0,-5.37226e-06,-8.18802e+08,-8.22036e+08,-8.20143e+08,-368537,0.0247921,0.808132,0,0.808512,1245.59,-29845.7,0,29871.6,368537
step02_gravity_refstate-crust.xmf,1016,2.76608e-05,-4.14995e-05,0,2.51328e-07,-9.00251e+08,-9.04995e+08,-9.02148e+08,17241.1,-0.00101919,0.915428,-0,0.915429,-36.4486,-32822.2,-0,32822.2,17241.1
step02_gravity_refstate-crust.xmf,1017,3.38561e-05,-5.30008e-05,0,-4.48866e-06,-9.50495e+08,-9.56453e+08,-9.52817e+08,-307922,0.0151074,1.00006,0,1.00017,445.458,-34658.6,0,34661.5,307922
step02_gravity_refstate-crust.xmf,1018,2.88137e-05,-4.37695e-05,0,-4.29401e-06,-9.12754e+08,-9.17733e+08,-9.1473e+08,-294569,0.0157171,0.933044,0,0.933176,543.415,-33278.5,0,33282.9,294569
step02_gravity_refstate-crust.xmf,1019,1.01359e-05,-1.30836e-05,0,-9.80007e-06,-6.96523e+08,-6.98116e+08,-6.97219e+08,-672285,0.0555608,0.677847,0,0.68012,4558.61,-25378.4,0,25784.5,672285
step02_gravity_refstate-crust.xmf,1020,-2.05684e-06,2.54003e-06,0,-4.82525e-06,-2.77285e+08,-2.7697e+08,-2.77144e+08,-331012,0.0492889,0.35413,0,0.357544,24864.7,-10090.5,0,26834.1,331012
step02_gravity_refstate-crust.xmf,1021,-2.57463e-06,2.88482e-06,0,-4.1981e-06,-2.79174e+08,-2.78799e+08,-2.78997e+08,-287990,0.0437127,0.330359,0,0.333238,27213.3,-10157.6,0,29047.2,287990
step02_gravity_refstate-crust.xmf,1022,8.07254e-07,4.52455e-07,0,-6.97961e-06,-3.34124e+08,-3.34148e+08,-3.34179e+08,-478801,0.0560826,0.468555,0,0.471899,15307.9,-12168.1,0,19554.9,478801
step02_gravity_refstate-crust.xmf,1023,5.42261e-08,1.18419e-06,0,-6.86482e-06,-3.31176e+08,-3.31098e+08,-3.3118e+08,-470927,0.0568589,0.442252,0,0.445892,17310.4,-12058.8,0,21096.5,470927
step02_gravity_refstate-crust.xmf,1024,-6.564e-07,1.81457e-06,0,-6.61353e-06,-3.29501e+08,-3.29332e+08,-3.29456e+08,-453688,0.0561843,0.415403,0,0.419186,19365.8,-11996,0,22780.2,453688
step02_gravity_refstate-crust.xmf,1025,-1.31341e-06,2.37868e-06,0,-6.21425e-06,-3.29431e+08,-3.29177e+08,-3.2934e+08,-426298,0.0540405,0.388283,0,0.392026,21500.6,-11991.6,0,24618.5,426298
step02_gravity_refstate-crust.xmf,1026,2.58901e-06,-1.74519e-06,0,-8.64813e-06,-4.73946e+08,-4.74244e+08,-4.74124e+08,-593262,0.0593001,0.530576,0,0.53388,10944.6,-17262.3,0,20439.4,593262
step02_gravity_refstate-crust.xmf,1027,-4.21545e-06,2.95348e-06,0,-6.34242e-07,-2.06206e+08,-2.05714e+08,-2.05917e+08,-43509,0.00952916,0.277974,0,0.278137,37760.7,-7494.65,0,38497.2,43509
step02_gravity_refstate-crust.xmf,1028,-4.63988e-06,2.73037e-06,0,4.4312e-09,-1.63734e+08,-1.63229e+08,-1.63416e+08,303.981,6.77476e-19,0.280441,0,0.280441,40000,-5946.36,0,40439.6,303.981
step02_gravity_refstate-crust.xmf,1029,-3.00744e-06,3.18052e-06,0,-3.47315e-06,-2.83147e+08,-2.82723e+08,-2.82941e+08,-238258,0.0365708,0.308491,0,0.310651,29692.4,-10301,0,31428.5,238258
step02_gravity_refstate-crust.xmf,1030,-3.87447e-06,3.14782e-06,0,-1.2603e-06,-2.39178e+08,-2.38696e+08,-2.38912e+08,-86456.6,0.0162582,0.278856,0,0.279329,35921.5,-8696.72,0,36959.2,86456.6
step02_gravity_refstate-crust.xmf,1031,-3.35199e-06,3.35995e-06,0,-2.65496e-06,-2.8208e+08,-2.8162e+08,-2.8185e+08,-182130,0.0285991,0.291179,0,0.29258,32188.1,-10261,0,33784.1,182130
step02_gravity_refstate-crust.xmf,1032,4.55897e-05,-8.1076e-05,0,1.01431e-05,-1.03132e+09,-1.04e+09,-1.03444e+09,695818,-0.027675,1.19258,-0,1.19291,-602.898,-37605,-0,37609.8,695818
step02_gravity_refstate-crust.xmf,1033,4.614e-05,-8.55005e-05,0,1.63304e-05,-1.04546e+09,-1.05449e+09,-1.04862e+09,1.12027e+06,-0.04329,1.22726,-0,1.22802,-921.778,-38115.2,-0,38126.3,1.12027e+06
step02_gravity_refstate-crust.xmf,1034,4.31046e-05,-8.30296e-05,0,3.38422e-05,-1.05902e+09,-1.06767e+09,-1.06198e+09,2.32157e+06,-0.0849972,1.22433,-0,1.22728,-1836.58,-38600.5,-0,38644.2,2.32157e+06
step02_gravity_refstate-crust.xmf,1035,3.9609e-05,-6.48223e-05,0,1.34186e-06,-9.87088e+08,-9.94252e+08,-9.89806e+08,92051.8,-0.00412794,1.08023,-0,1.08024,-104.385,-35995.8,-0,35996,92051.8
step02_gravity_refstate-crust.xmf,1036,4.41427e-05,-7.58784e-05,0,3.82457e-06,-1.01624e+09,-1.02448e+09,-1.01927e+09,262365,-0.0107852,1.15416,-0,1.15421,-244.534,-37058.5,-0,37059.3,262365
step02_gravity_refstate-crust.xmf,1037,4.22419e-05,-8.62087e-05,0,3.92362e-05,-1.0733e+09,-1.08211e+09,-1.0762e+09,2.6916e+06,-0.0947568,1.24987,-0,1.25346,-2075.25,-39112.1,-0,39167.1,2.6916e+06
step02_gravity_refstate-crust.xmf,1038,4.11211e-05,-8.91497e-05,0,4.3203e-05,-1.08631e+09,-1.09525e+09,-1.08913e+09,2.96373e+06,-0.10001,1.27268,-0,1.2766,-2274.01,-39576.5,-0,39641.8,2.96373e+06
step02_gravity_refstate-crust.xmf,1039,3.04403e-06,-2.5163e-06,0,-9.20657e-06,-5.11877e+08,-5.12259e+08,-5.12086e+08,-631570,0.0616641,0.544244,0,0.547727,10208.8,-18643.8,0,21255.8,631570
step02_gravity_refstate-crust.xmf,1040,6.19245e-06,-7.00413e-06,0,-9.3184e-06,-5.99494e+08,-6.004e+08,-5.99919e+08,-639243,0.0584314,0.609702,0,0.612496,6798.65,-21839.4,0,22873.2,639243
step02_gravity_refstate-crust.xmf,1041,7.31469e-06,-8.81005e-06,0,-9.75706e-06,-6.35849e+08,-6.36955e+08,-6.3635e+08,-669334,0.0590864,0.630797,0,0.633558,6081.73,-23164.7,0,23949.7,669334
step02_gravity_refstate-crust.xmf,1042,8.59117e-06,-1.07469e-05,0,-9.94038e-06,-6.67564e+08,-6.6889e+08,-6.68153e+08,-681910,0.058359,0.653102,0,0.655705,5357.34,-24321.4,0,24904.5,681910
step02_gravity_refstate-crust.xmf,1043,1.17643e-05,-1.55483e-05,0,-9.43986e-06,-7.22262e+08,-7.24136e+08,-7.23069e+08,-647574,0.0515702,0.702244,0,0.704135,3818.93,-26318.2,0,26593.8,647574
step02_gravity_refstate-crust.xmf,1044,1.35131e-05,-1.82278e-05,0,-8.97444e-06,-7.47984e+08,-7.50162e+08,-7.48911e+08,-615647,0.0470917,0.727526,0,0.729048,3150.94,-27257.6,0,27439.1,615647
step02_gravity_refstate-crust.xmf,1045,1.54488e-05,-2.12033e-05,0,-8.22757e-06,-7.73343e+08,-7.75857e+08,-7.74403e+08,-564411,0.041351,0.754349,0,0.755481,2500.5,-28184,0,28294.7,564411
step02_gravity_refstate-crust.xmf,1046,1.7532e-05,-2.43899e-05,0,-6.93267e-06,-7.96923e+08,-7.99798e+08,-7.98125e+08,-475581,0.0333927,0.781765,0,0.782477,1833.52,-29045.9,0,29103.7,475581
step02_gravity_refstate-crust.xmf,1047,2.0672e-05,-2.98041e-05,0,-7.9646e-06,-8.41737e+08,-8.452e+08,-8.43155e+08,-546372,0.0352185,0.828021,0,0.828769,1641.01,-30681.8,0,30725.6,546372
step02_gravity_refstate-crust.xmf,1048,2.29472e-05,-3.3487e-05,0,-6.46614e-06,-8.61788e+08,-8.65659e+08,-8.63362e+08,-443577,0.0272435,0.856498,0,0.856931,1165.43,-31415.2,0,31436.8,443577
step02_gravity_refstate-crust.xmf,1049,2.57469e-05,-3.82873e-05,0,-4.13404e-06,-8.85514e+08,-8.89907e+08,-8.87281e+08,-283595,0.0164996,0.891878,0,0.89203,638.078,-32282.9,0,32289.2,283595
step02_gravity_refstate-crust.xmf,1050,3.09336e-05,-4.78263e-05,0,-7.8845e-06,-9.33871e+08,-9.39274e+08,-9.35993e+08,-540877,0.0277258,0.965026,0,0.965424,883.173,-34049.6,0,34061.1,540877
step02_gravity_refstate-crust.xmf,1051,-1.88851e-06,2.85237e-06,0,-5.67961e-06,-3.29724e+08,-3.29399e+08,-3.29594e+08,-389621,0.0505067,0.362142,0,0.365647,23678.2,-12000.7,0,26545.7,389621
step02_gravity_refstate-crust.xmf,1052,1.03389e-06,2.55432e-07,0,-7.62169e-06,-3.80713e+08,-3.80766e+08,-3.80783e+08,-522848,0.0572956,0.48034,0,0.483745,14378.6,-13864.8,0,19974.4,522848
step02_gravity_refstate-crust.xmf,1053,1.58825e-06,-5.7612e-07,0,-8.97758e-06,-4.70922e+08,-4.7107e+08,-4.71031e+08,-615862,0.0624818,0.505662,0,0.509508,12629.9,-17149.9,0,21298.7,615862
step02_gravity_refstate-crust.xmf,1054,1.2708e-06,-1.08588e-07,0,-8.32622e-06,-4.27247e+08,-4.27341e+08,-4.27334e+08,-571179,0.0596056,0.492471,0,0.496065,13497.8,-15559.3,0,20598.2,571179
step02_gravity_refstate-crust.xmf,1055,-3.59646e-06,3.4939e-06,0,-1.78532e-06,-2.82739e+08,-2.82252e+08,-2.82492e+08,-122473,0.0195117,0.277784,0,0.278468,34781.5,-10284.3,0,36270.1,122473
step02_gravity_refstate-crust.xmf,1056,4.60841e-05,-8.9204e-05,0,2.26694e-05,-1.05917e+09,-1.06845e+09,-1.06233e+09,1.55512e+06,-0.0582508,1.2585,-0,1.25985,-1234.26,-38608.4,-0,38628.1,1.55512e+06
step02_gravity_refstate-crust.xmf,1057,3.59622e-05,-5.76038e-05,0,-8.5926e-06,-9.6839e+08,-9.74808e+08,-9.70857e+08,-589452,0.0274851,1.03284,0,1.03321,755.387,-35311.5,0,35319.6,589452
step02_gravity_refstate-crust.xmf,1058,3.90701e-05,-6.37612e-05,0,-5.43528e-06,-9.84923e+08,-9.91977e+08,-9.87603e+08,-372860,0.0166264,1.07331,0,1.07343,424.393,-35916.4,0,35918.9,372860
step02_gravity_refstate-crust.xmf,1059,4.19272e-05,-7.0012e-05,0,-1.5638e-06,-1.00118e+09,-1.00886e+09,-1.00405e+09,-107277,0.00457408,1.11485,0,1.11486,109.24,-36510.1,0,36510.2,107277
step02_gravity_refstate-crust.xmf,1060,4.63151e-05,-8.24967e-05,0,-1.47496e-08,-1.03201e+09,-1.04085e+09,-1.03519e+09,-1011.82,-2.72781e-05,1.20028,-0,1.20028,-0.585559,-37631.1,-0,37631.1,1011.82
step02_gravity_refstate-crust.xmf,1061,3.8528e-05,-9.02911e-05,0,4.7285e-05,-1.09828e+09,-1.10712e+09,-1.10092e+09,3.24375e+06,-0.102587,1.28702,-0,1.29111,-2497.35,-40000,-0,40077.9,3.24375e+06
step02_gravity_refstate-crust.xmf,1062,3.34636e-06,-3.03886e-06,0,-9.81228e-06,-5.45339e+08,-5.45777e+08,-5.45568e+08,-673122,0.064832,0.553401,0,0.557186,9830.41,-19862.4,0,22162,673122
step02_gravity_refstate-crust.xmf,1063,4.14631e-06,-4.22196e-06,0,-1.00629e-05,-5.72056e+08,-5.7263e+08,-5.72341e+08,-690313,0.0651867,0.57159,0,0.575295,8906.51,-20836.5,0,22660.2,690313
step02_gravity_refstate-crust.xmf,1064,4.9013e-06,-5.40827e-06,0,-1.04823e-05,-6.02335e+08,-6.03043e+08,-6.02672e+08,-719085,0.0665274,0.588641,0,0.592389,8182.15,-21940.1,0,23416.1,719085
step02_gravity_refstate-crust.xmf,1065,1.85219e-05,-2.62976e-05,0,-8.96497e-06,-8.20314e+08,-8.23388e+08,-8.21584e+08,-614997,0.0415861,0.79982,0,0.800901,2119.92,-29898.6,0,29973.6,614997
step02_gravity_refstate-crust.xmf,1066,3.26676e-05,-5.15322e-05,0,-1.13748e-05,-9.5186e+08,-9.57636e+08,-9.54101e+08,-780312,0.0383223,0.99363,0,0.994368,1139.37,-34705.8,0,34724.5,780312
step02_gravity_refstate-crust.xmf,1067,2.80231e-05,-4.30184e-05,0,-1.09264e-05,-9.18743e+08,-9.23616e+08,-9.20665e+08,-749551,0.0401766,0.932451,0,0.933317,1379.29,-33494.5,0,33522.9,749551
step02_gravity_refstate-crust.xmf,1068,1.01615e-05,-1.35139e-05,0,-1.16723e-05,-7.25027e+08,-7.26651e+08,-7.25724e+08,-800720,0.0648141,0.684505,0,0.687567,4985.14,-26415.5,0,26881.8,800720
step02_gravity_refstate-crust.xmf,1069,8.58987e-06,-1.10945e-05,0,-1.1662e-05,-6.99623e+08,-7.00973e+08,-7.00212e+08,-800015,0.0673254,0.659043,0,0.662473,5759.86,-25488,0,26130.8,800015
step02_gravity_refstate-crust.xmf,1070,-2.38759e-06,3.25415e-06,0,-5.0257e-06,-3.3132e+08,-3.30933e+08,-3.31156e+08,-344763,0.045567,0.336965,0,0.340032,25955.7,-12057.4,0,28619.6,344763
step02_gravity_refstate-crust.xmf,1071,-2.80179e-06,3.59706e-06,0,-4.27742e-06,-3.35207e+08,-3.34768e+08,-3.35015e+08,-293431,0.0393153,0.313587,0,0.316042,28321.3,-12197.8,0,30836.4,293431
step02_gravity_refstate-crust.xmf,1072,1.99773e-07,1.08634e-06,0,-7.63822e-06,-3.79514e+08,-3.79453e+08,-3.79528e+08,-523982,0.058423,0.453409,0,0.457158,16334.8,-13819.1,0,21396.1,523982
step02_gravity_refstate-crust.xmf,1073,-5.42293e-07,1.89489e-06,0,-7.40491e-06,-3.79343e+08,-3.79176e+08,-3.79306e+08,-507977,0.0580485,0.425645,0,0.429585,18344.7,-13811.1,0,22962.5,507977
step02_gravity_refstate-crust.xmf,1074,-1.81291e-06,3.16375e-06,0,-6.49098e-06,-3.80995e+08,-3.80654e+08,-3.80871e+08,-445281,0.0529665,0.370334,0,0.374103,22526.9,-13868.1,0,26453.4,445281
step02_gravity_refstate-crust.xmf,1075,-1.22446e-06,2.58354e-06,0,-7.02577e-06,-3.80059e+08,-3.79798e+08,-3.79975e+08,-481968,0.0562066,0.39771,0,0.401662,20408.2,-13835.5,0,24655.9,481968
step02_gravity_refstate-crust.xmf,1076,2.0008e-06,-1.14389e-06,0,-9.54274e-06,-5.09561e+08,-5.09776e+08,-5.09698e+08,-654632,0.0653588,0.51971,0,0.523803,11793,-18557.4,0,21987.5,654632
step02_gravity_refstate-crust.xmf,1077,-3.76704e-06,3.53502e-06,0,-8.82769e-07,-2.80652e+08,-2.80151e+08,-2.80394e+08,-60558,0.00970026,0.269783,0,0.269957,37444.6,-10207.7,0,38811,60558
step02_gravity_refstate-crust.xmf,1078,-4.00894e-06,3.22109e-06,0,6.21146e-09,-2.41279e+08,-2.40783e+08,-2.41004e+08,426.106,6.83862e-19,0.272034,0,0.272034,40000,-8772.79,0,40950.7,426.106
step02_gravity_refstate-crust.xmf,1079,-3.16555e-06,3.90814e-06,0,-3.38932e-06,-3.42961e+08,-3.42475e+08,-3.42743e+08,-232508,0.0312277,0.29112,0,0.29279,30979.3,-12479.1,0,33398.3,232508
step02_gravity_refstate-crust.xmf,1080,-3.40328e-06,3.92428e-06,0,-2.36708e-06,-3.30201e+08,-3.29699e+08,-3.29968e+08,-162382,0.0227296,0.276767,0,0.277699,33618.6,-12013.6,0,35700.7,162382
step02_gravity_refstate-crust.xmf,1081,4.7394e-05,-8.81088e-05,0,5.79018e-06,-1.04617e+09,-1.05546e+09,-1.04942e+09,397207,-0.0155092,1.24208,-0,1.24218,-327.108,-38142.1,-0,38143.5,397207
step02_gravity_refstate-crust.xmf,1082,4.74003e-05,-9.26766e-05,0,1.18644e-05,-1.05953e+09,-1.06914e+09,-1.06278e+09,813897,-0.0310692,1.27977,-0,1.28015,-651.498,-38621.6,-0,38627.1,813897
step02_gravity_refstate-crust.xmf,1083,4.52252e-05,-9.24431e-05,0,2.84422e-05,-1.07279e+09,-1.08223e+09,-1.07589e+09,1.95113e+06,-0.0706503,1.28771,-0,1.28965,-1520.95,-39095.9,-0,39125.4,1.95113e+06
step02_gravity_refstate-crust.xmf,1084,4.41499e-05,-7.5997e-05,0,-5.61593e-06,-1.01711e+09,-1.02535e+09,-1.02014e+09,-385253,0.0157267,1.15562,0,1.15573,355.869,-37089.9,0,37091.6,385253
step02_gravity_refstate-crust.xmf,1085,4.31579e-05,-9.53366e-05,0,3.2867e-05,-1.08589e+09,-1.09539e+09,-1.08885e+09,2.25468e+06,-0.079011,1.31429,-0,1.31667,-1772.05,-39559.9,-0,39599.6,2.25468e+06
step02_gravity_refstate-crust.xmf,1086,4.02722e-05,-9.72798e-05,0,3.66754e-05,-1.09838e+09,-1.10782e+09,-1.10114e+09,2.51593e+06,-0.0828815,1.33807,-0,1.34063,-1997.54,-40000,-0,40049.8,2.51593e+06
step02_gravity_refstate-crust.xmf,1087,2.40265e-06,-1.8367e-06,0,-1.01437e-05,-5.43554e+08,-5.43844e+08,-5.43718e+08,-695856,0.0681361,0.533239,0,0.537575,11066.6,-19795.5,0,22678.9,695856
step02_gravity_refstate-crust.xmf,1088,5.80591e-06,-6.78433e-06,0,-1.10023e-05,-6.36736e+08,-6.376e+08,-6.37134e+08,-754760,0.0684094,0.608088,0,0.611924,7483.92,-23194,0,24371.5,754760
step02_gravity_refstate-crust.xmf,1089,6.86904e-06,-8.61201e-06,0,-1.18147e-05,-6.73955e+08,-6.75017e+08,-6.74427e+08,-810485,0.0706017,0.630765,0,0.634704,6798.22,-24550.5,0,25474.3,810485
step02_gravity_refstate-crust.xmf,1090,1.18745e-05,-1.61613e-05,0,-1.16108e-05,-7.50338e+08,-7.52261e+08,-7.51152e+08,-796503,0.061866,0.710816,0,0.713504,4284.89,-27339.8,0,27673.6,796503
step02_gravity_refstate-crust.xmf,1091,1.37899e-05,-1.91411e-05,0,-1.14091e-05,-7.75451e+08,-7.7771e+08,-7.76397e+08,-782663,0.0580855,0.738725,0,0.741005,3623.23,-28257.2,0,28488.5,782663
step02_gravity_refstate-crust.xmf,1092,1.60907e-05,-2.2806e-05,0,-1.09741e-05,-8.02446e+08,-8.05114e+08,-8.0355e+08,-752823,0.052992,0.770917,0,0.772736,2950.85,-29243.6,0,29392.1,752823
step02_gravity_refstate-crust.xmf,1093,1.91337e-05,-2.78791e-05,0,-1.1828e-05,-8.43305e+08,-8.4653e+08,-8.44617e+08,-811398,0.0527952,0.816117,0,0.817823,2512.57,-30735.6,0,30838.1,811398
step02_gravity_refstate-crust.xmf,1094,2.13634e-05,-3.1484e-05,0,-1.1167e-05,-8.62515e+08,-8.6614e+08,-8.63981e+08,-766060,0.047579,0.844649,0,0.845988,2079.24,-31438.4,0,31507.1,766060
step02_gravity_refstate-crust.xmf,1095,2.39394e-05,-3.56607e-05,0,-9.90584e-06,-8.81877e+08,-8.85965e+08,-8.83519e+08,-679540,0.0402222,0.876087,0,0.87701,1609.25,-32147.2,0,32187.5,679540
step02_gravity_refstate-crust.xmf,1096,2.63324e-05,-3.96219e-05,0,-8.66512e-06,-9.00055e+08,-9.04579e+08,-9.01861e+08,-594427,0.0333974,0.906593,0,0.907208,1230.99,-32812.6,0,32835.7,594427
step02_gravity_refstate-crust.xmf,1097,2.95514e-05,-4.62412e-05,0,-1.40565e-05,-9.37859e+08,-9.43058e+08,-9.39886e+08,-964279,0.0494642,0.959483,0,0.960757,1581.28,-34191.6,0,34228.2,964279
step02_gravity_refstate-crust.xmf,1098,-2.30314e-06,3.62929e-06,0,-5.81884e-06,-3.81572e+08,-3.81165e+08,-3.81414e+08,-399172,0.0484219,0.344137,0,0.347527,24716.7,-13887.8,0,28351.1,399172
step02_gravity_refstate-crust.xmf,1099,3.95913e-07,9.47291e-07,0,-8.33044e-06,-4.26275e+08,-4.26237e+08,-4.26302e+08,-571468,0.0610776,0.465204,0,0.469197,15381.3,-15522,0,21852.1,571468
step02_gravity_refstate-crust.xmf,1100,9.31667e-07,1.54755e-07,0,-9.76074e-06,-5.10867e+08,-5.10921e+08,-5.10931e+08,-669587,0.0679384,0.493031,0,0.49769,13454.7,-18602.6,0,22958.4,669587
step02_gravity_refstate-crust.xmf,1101,6.12865e-07,6.12836e-07,0,-9.09525e-06,-4.71627e+08,-4.71627e+08,-4.71669e+08,-623934,0.0645128,0.478392,0,0.482723,14414.8,-17173.5,0,22421.3,623934
step02_gravity_refstate-crust.xmf,1102,-3.55997e-06,3.95253e-06,0,-1.50171e-06,-3.25171e+08,-3.24656e+08,-3.24927e+08,-103017,0.0147463,0.267768,0,0.268174,35927,-11829.9,0,37824.5,103017
step02_gravity_refstate-crust.xmf,1103,4.67251e-05,-9.6413e-05,0,1.77172e-05,-1.07257e+09,-1.08239e+09,-1.07577e+09,1.2154e+06,-0.045063,1.31432,-0,1.31509,-960.103,-39087.6,-0,39099.4,1.2154e+06
step02_gravity_refstate-crust.xmf,1104,3.37708e-05,-5.46609e-05,0,-1.62588e-05,-9.68831e+08,-9.74897e+08,-9.71147e+08,-1.11536e+06,0.0522172,1.01912,0,1.02046,1463.27,-35323.2,0,35353.5,1.11536e+06
step02_gravity_refstate-crust.xmf,1105,3.74737e-05,-6.15216e-05,0,-1.3806e-05,-9.85155e+08,-9.91946e+08,-9.87725e+08,-947089,0.0422108,1.06296,0,1.0638,1092.31,-35921.9,0,35938.5,947089
step02_gravity_refstate-crust.xmf,1106,4.10843e-05,-6.88029e-05,0,-1.02412e-05,-1.00139e+09,-1.00893e+09,-1.00421e+09,-702545,0.0299018,1.10916,0,1.10956,719.184,-36516.3,0,36523.3,702545
step02_gravity_refstate-crust.xmf,1107,4.57377e-05,-8.16791e-05,0,-1.03102e-05,-1.03281e+09,-1.04155e+09,-1.03595e+09,-707282,0.0279633,1.19691,0,1.19724,606.994,-37659.1,0,37664,707282
step02_gravity_refstate-crust.xmf,1108,4.74982e-05,-8.85728e-05,0,-4.86406e-06,-1.04704e+09,-1.05637e+09,-1.0503e+09,-333675,0.0128142,1.24543,0,1.2455,269.855,-38173.5,0,38174.5,333675
step02_gravity_refstate-crust.xmf,1109,2.91479e-06,-2.64925e-06,0,-1.06946e-05,-5.74928e+08,-5.75309e+08,-5.75128e+08,-733652,0.0706508,0.548052,0,0.552587,10337.6,-20938.5,0,23351.4,733652
step02_gravity_refstate-crust.xmf,1110,3.55154e-06,-3.66985e-06,0,-1.12692e-05,-6.05896e+08,-6.06391e+08,-6.06139e+08,-773066,0.0729757,0.564988,0,0.569681,9576.64,-22066.9,0,24055.4,773066
step02_gravity_refstate-crust.xmf,1111,4.27198e-06,-4.85345e-06,0,-1.19392e-05,-6.38125e+08,-6.38751e+08,-6.38418e+08,-819029,0.0755276,0.583326,0,0.588195,8853.32,-23241.3,0,24870.5,819029
step02_gravity_refstate-crust.xmf,1112,1.73397e-05,-2.50232e-05,0,-1.21896e-05,-8.26182e+08,-8.29088e+08,-8.27371e+08,-836205,0.0564662,0.792484,0,0.794494,2895.35,-30109.4,0,30248.3,836205
step02_gravity_refstate-crust.xmf,1113,3.07709e-05,-4.92019e-05,0,-1.71229e-05,-9.53874e+08,-9.5936e+08,-9.55985e+08,-1.17463e+06,0.0579009,0.983121,0,0.984825,1745.7,-34775,0,34818.8,1.17463e+06
step02_gravity_refstate-crust.xmf,1114,2.67156e-05,-4.15519e-05,0,-1.61511e-05,-9.25739e+08,-9.30422e+08,-9.27572e+08,-1.10796e+06,0.0590549,0.929408,0,0.931282,2018.2,-33746.2,0,33806.5,1.10796e+06
step02_gravity_refstate-crust.xmf,1115,2.47642e-05,-3.80562e-05,0,-1.45012e-05,-9.05561e+08,-9.09871e+08,-9.0726e+08,-994780,0.0559258,0.898829,0,0.900567,2074.28,-33009.1,0,33074.2,994780
step02_gravity_refstate-crust.xmf,1116,8.41983e-06,-1.12677e-05,0,-1.33659e-05,-7.27927e+08,-7.29278e+08,-7.28505e+08,-916897,0.0756826,0.663933,0,0.668233,6096.08,-26517.5,0,27209.2,916897
step02_gravity_refstate-crust.xmf,1117,9.93018e-06,-1.3654e-05,0,-1.36993e-05,-7.5246e+08,-7.54078e+08,-7.53142e+08,-939773,0.0745536,0.689565,0,0.693584,5411.63,-27413.1,0,27942.2,939773
step02_gravity_refstate-crust.xmf,1118,7.20587e-06,-9.36734e-06,0,-1.30673e-05,-7.06194e+08,-7.07331e+08,-7.06688e+08,-896415,0.0763628,0.64223,0,0.646754,6748.15,-25724.3,0,26594.7,896415
step02_gravity_refstate-crust.xmf,1119,-2.70039e-06,4.01757e-06,0,-5.07024e-06,-3.84957e+08,-3.84496e+08,-3.84772e+08,-347818,0.0428336,0.319812,0,0.322667,26940.2,-14010.1,0,30365.4,347818
step02_gravity_refstate-crust.xmf,1120,-3.00155e-06,4.32206e-06,0,-4.25905e-06,-3.89575e+08,-3.89072e+08,-3.89369e+08,-292171,0.0364069,0.298239,0,0.300453,29179.7,-14177.4,0,32441.6,292171
step02_gravity_refstate-crust.xmf,1121,-4.51778e-07,1.86314e-06,0,-8.19328e-06,-4.26721e+08,-4.26562e+08,-4.2669e+08,-562059,0.061035,0.436688,0,0.440933,17331.6,-15536.2,0,23275.7,562059
step02_gravity_refstate-crust.xmf,1122,-1.17304e-06,2.74258e-06,0,-7.81136e-06,-4.29315e+08,-4.29046e+08,-4.29235e+08,-535859,0.0595166,0.407389,0,0.411713,19352.5,-15629.1,0,24875.5,535859
step02_gravity_refstate-crust.xmf,1123,-2.30775e-06,4.01231e-06,0,-6.56003e-06,-4.30469e+08,-4.30036e+08,-4.30311e+08,-450018,0.0519657,0.350817,0,0.354645,23579.7,-15668.5,0,28310.9,450018
step02_gravity_refstate-crust.xmf,1124,-1.80676e-06,3.4601e-06,0,-7.27005e-06,-4.30952e+08,-4.3059e+08,-4.30828e+08,-498725,0.0564645,0.378611,0,0.382798,21421.5,-15687.3,0,26551.3,498725
step02_gravity_refstate-crust.xmf,1125,1.37955e-06,-4.61481e-07,0,-1.03284e-05,-5.44139e+08,-5.44266e+08,-5.44234e+08,-708527,0.0709407,0.50882,0,0.513741,12518.2,-19814.8,0,23437.8,708527
step02_gravity_refstate-crust.xmf,1126,-3.67085e-06,3.90067e-06,0,2.08136e-09,-3.16429e+08,-3.1591e+08,-3.16177e+08,142.781,5.78304e-19,0.262283,0,0.262283,40000,-11511.1,0,41623.4,142.781
step02_gravity_refstate-crust.xmf,1127,-3.32324e-06,4.51314e-06,0,-2.78944e-06,-3.84954e+08,-3.84416e+08,-3.84726e+08,-191355,0.0244528,0.272037,0,0.273134,32940.5,-14008.2,0,35795.4,191355
step02_gravity_refstate-crust.xmf,1128,-3.55875e-06,4.2699e-06,0,-8.87733e-07,-3.52438e+08,-3.51901e+08,-3.52194e+08,-60898.5,0.00827351,0.259103,0,0.259235,37687.2,-12823.1,0,39808.9,60898.5
step02_gravity_refstate-crust.xmf,1129,-3.44837e-06,4.48204e-06,0,-1.83574e-06,-3.75133e+08,-3.74589e+08,-3.74897e+08,-125932,0.016451,0.262268,0,0.262783,35318.2,-13650.1,0,37864.2,125932
step02_gravity_refstate-crust.xmf,1130,4.81582e-05,-9.41307e-05,0,1.0698e-06,-1.06003e+09,-1.06979e+09,-1.06333e+09,73388,-0.00284697,1.28925,-0,1.28926,-59.4923,-38640.4,-0,38640.5,73388
step02_gravity_refstate-crust.xmf,1131,4.71083e-05,-9.85322e-05,0,7.12344e-06,-1.07279e+09,-1.08278e+09,-1.07603e+09,488668,-0.0185146,1.33004,-0,1.33017,-392.66,-39094.2,-0,39096.1,488668
step02_gravity_refstate-crust.xmf,1132,4.47799e-05,-9.95167e-05,0,2.27793e-05,-1.08566e+09,-1.09556e+09,-1.08873e+09,1.56266e+06,-0.0560185,1.34692,-0,1.34808,-1245.41,-39551.5,-0,39571.1,1.56266e+06
step02_gravity_refstate-crust.xmf,1133,4.27239e-05,-7.39381e-05,0,-1.54657e-05,-1.0182e+09,-1.02621e+09,-1.02114e+09,-1.06095e+06,0.0432485,1.14679,0,1.14761,987.084,-37127.1,0,37140.3,1.06095e+06
step02_gravity_refstate-crust.xmf,1134,4.12329e-05,-0.000101865,0,2.68328e-05,-1.09847e+09,-1.10829e+09,-1.1013e+09,1.84073e+06,-0.062536,1.37707,-0,1.37849,-1498.34,-40000,-0,40028.1,1.84073e+06
step02_gravity_refstate-crust.xmf,1135,1.76609e-06,-1.14045e-06,0,-1.0964e-05,-5.74927e+08,-5.75126e+08,-5.75048e+08,-752134,0.0739307,0.523259,0,0.528456,11743.1,-20936.2,0,24004.7,752134
step02_gravity_refstate-crust.xmf,1136,5.09614e-06,-6.11483e-06,0,-1.26475e-05,-6.70404e+08,-6.71173e+08,-6.70753e+08,-867620,0.0782651,0.602622,0,0.607683,8195.72,-24417.9,0,25756.6,867620
step02_gravity_refstate-crust.xmf,1137,1.16477e-05,-1.63748e-05,0,-1.39677e-05,-7.76734e+08,-7.78656e+08,-7.77533e+08,-958182,0.0727409,0.716972,0,0.720653,4756.9,-28299.6,0,28696.6,958182
step02_gravity_refstate-crust.xmf,1138,1.35896e-05,-1.94824e-05,0,-1.41402e-05,-8.00862e+08,-8.03131e+08,-8.01794e+08,-970015,0.0702046,0.746359,0,0.749653,4133.22,-29181,0,29472.3,970015
step02_gravity_refstate-crust.xmf,1139,1.53741e-05,-2.24143e-05,0,-1.45291e-05,-8.23541e+08,-8.26133e+08,-8.24596e+08,-996697,0.0688595,0.773558,0,0.776616,3688.14,-30009.3,0,30235.1,996697
step02_gravity_refstate-crust.xmf,1140,1.70586e-05,-2.52242e-05,0,-1.50538e-05,-8.44097e+08,-8.46997e+08,-8.45267e+08,-1.03269e+06,0.0683026,0.798867,0,0.801782,3361.8,-30760.1,0,30943.3,1.03269e+06
step02_gravity_refstate-crust.xmf,1141,1.91391e-05,-2.86515e-05,0,-1.52384e-05,-8.63983e+08,-8.67262e+08,-8.65296e+08,-1.04535e+06,0.0658948,0.82763,0,0.83025,2970.05,-31487.2,0,31627,1.04535e+06
step02_gravity_refstate-crust.xmf,1142,2.16607e-05,-3.28069e-05,0,-1.50531e-05,-8.83865e+08,-8.87602e+08,-8.85351e+08,-1.03264e+06,0.061729,0.86014,0,0.862352,2537.07,-32214.8,0,32314.6,1.03264e+06
step02_gravity_refstate-crust.xmf,1143,2.70915e-05,-4.35539e-05,0,-2.04591e-05,-9.44147e+08,-9.48994e+08,-9.46006e+08,-1.4035e+06,0.0719502,0.948958,0,0.951681,2320.95,-34414.8,0,34493,1.4035e+06
step02_gravity_refstate-crust.xmf,1144,5.67895e-06,-7.31617e-06,0,-1.36706e-05,-7.01634e+08,-7.02525e+08,-7.02024e+08,-937806,0.0818843,0.61959,0,0.624977,7748.94,-25555.3,0,26704.3,937806
step02_gravity_refstate-crust.xmf,1145,-3.19394e-06,4.5521e-06,0,-3.55625e-06,-3.96587e+08,-3.96056e+08,-3.96368e+08,-243959,0.0305415,0.282285,0,0.283933,31058.9,-14432.3,0,34248.3,243959
step02_gravity_refstate-crust.xmf,1146,-2.69803e-06,4.45146e-06,0,-5.78499e-06,-4.32524e+08,-4.32034e+08,-4.32339e+08,-396850,0.0465958,0.325291,0,0.328612,25728.1,-15742.5,0,30162.2,396850
step02_gravity_refstate-crust.xmf,1147,-2.87972e-07,1.77482e-06,0,-8.91785e-06,-4.72017e+08,-4.71875e+08,-4.71997e+08,-611765,0.0648331,0.449087,0,0.453743,16303.7,-17185.8,0,23688.9,611765
step02_gravity_refstate-crust.xmf,1148,4.7473e-07,7.17006e-07,0,-1.03458e-05,-5.45288e+08,-5.45272e+08,-5.45321e+08,-709720,0.0723132,0.485625,0,0.490979,13862.4,-19854.8,0,24215.3,709720
step02_gravity_refstate-crust.xmf,1149,-8.54446e-08,1.49313e-06,0,-9.81212e-06,-5.20456e+08,-5.20348e+08,-5.20451e+08,-673112,0.06972,0.464318,0,0.469524,15174.7,-18949.7,0,24276.8,673112
step02_gravity_refstate-crust.xmf,1150,4.53537e-05,-0.00010211,0,1.28939e-05,-1.08578e+09,-1.0959e+09,-1.08889e+09,884520,-0.0323288,1.36891,-0,1.36929,-715.846,-39554.4,-0,39560.9,884520
step02_gravity_refstate-crust.xmf,1151,2.98155e-05,-4.88701e-05,0,-2.30084e-05,-9.6673e+08,-9.72128e+08,-9.68775e+08,-1.57838e+06,0.0757738,0.990271,0,0.993166,2223.61,-35239.7,0,35309.8,1.57838e+06
step02_gravity_refstate-crust.xmf,1152,3.42996e-05,-5.71031e-05,0,-2.18719e-05,-9.85587e+08,-9.91857e+08,-9.8794e+08,-1.50041e+06,0.067418,1.04272,0,1.0449,1792.82,-35931.6,0,35976.3,1.50041e+06
step02_gravity_refstate-crust.xmf,1153,3.87019e-05,-6.54537e-05,0,-1.95156e-05,-1.00243e+09,-1.00957e+09,-1.00508e+09,-1.33877e+06,0.0569459,1.09436,0,1.09584,1393.17,-36549.6,0,36576.2,1.33877e+06
step02_gravity_refstate-crust.xmf,1154,4.41097e-05,-7.92923e-05,0,-1.9986e-05,-1.03471e+09,-1.04317e+09,-1.03773e+09,-1.37104e+06,0.0536818,1.18661,0,1.18783,1175.76,-37725.2,0,37743.5,1.37104e+06
step02_gravity_refstate-crust.xmf,1155,4.65136e-05,-8.69628e-05,0,-1.53241e-05,-1.04803e+09,-1.05718e+09,-1.05122e+09,-1.05124e+06,0.0403047,1.23728,0,1.23794,853.98,-38208,0,38217.5,1.05124e+06
step02_gravity_refstate-crust.xmf,1156,4.75653e-05,-9.36227e-05,0,-9.894e-06,-1.06095e+09,-1.07064e+09,-1.06422e+09,-678728,0.0255821,1.28704,0,1.28729,535.935,-38672.6,0,38676.3,678728
step02_gravity_refstate-crust.xmf,1157,4.75266e-05,-9.88019e-05,0,-4.04587e-06,-1.07274e+09,-1.08277e+09,-1.076e+09,-277547,0.0102175,1.33207,0,1.3321,216.504,-39093.3,0,39093.9,277547
step02_gravity_refstate-crust.xmf,1158,2.21905e-06,-1.90773e-06,0,-1.16737e-05,-6.07716e+08,-6.07999e+08,-6.07868e+08,-800815,0.0773398,0.538867,0,0.544389,10992.8,-22130.5,0,24710.3,800815
step02_gravity_refstate-crust.xmf,1159,2.75985e-06,-2.84014e-06,0,-1.24575e-05,-6.40321e+08,-6.40705e+08,-6.40511e+08,-854587,0.0807951,0.556205,0,0.562043,10247.5,-23318.3,0,25470.7,854587
step02_gravity_refstate-crust.xmf,1160,3.43379e-06,-4.00338e-06,0,-1.33073e-05,-6.72254e+08,-6.72764e+08,-6.72489e+08,-912880,0.084072,0.575965,0,0.582069,9485.95,-24481.8,0,26255.3,912880
step02_gravity_refstate-crust.xmf,1161,2.37068e-05,-3.73547e-05,0,-2.05647e-05,-9.25167e+08,-9.29356e+08,-9.26794e+08,-1.41074e+06,0.0768205,0.90744,0,0.910686,2729.88,-33719.7,0,33830,1.41074e+06
step02_gravity_refstate-crust.xmf,1162,6.62796e-06,-8.92275e-06,0,-1.45081e-05,-7.2961e+08,-7.30677e+08,-7.30065e+08,-995255,0.084061,0.640856,0,0.646345,7165.84,-26575.2,0,27524.4,995255
step02_gravity_refstate-crust.xmf,1163,7.90309e-06,-1.10031e-05,0,-1.5193e-05,-7.54603e+08,-7.559e+08,-7.55145e+08,-1.04224e+06,0.0846756,0.665638,0,0.671002,6497.1,-27487,0,28244.4,1.04224e+06
step02_gravity_refstate-crust.xmf,1164,9.31996e-06,-1.33214e-05,0,-1.58761e-05,-7.78713e+08,-7.80267e+08,-7.79353e+08,-1.0891e+06,0.0848608,0.691634,0,0.696821,5872.58,-28366.9,0,28968.4,1.0891e+06
step02_gravity_refstate-crust.xmf,1165,6.76519e-07,3.8041e-07,0,-1.09709e-05,-5.75893e+08,-5.75913e+08,-5.75939e+08,-752607,0.0758509,0.496329,0,0.502092,13227.5,-20969.3,0,24792.7,752607
step02_gravity_refstate-crust.xmf,1166,-2.98788e-06,4.78718e-06,0,-4.95231e-06,-4.35724e+08,-4.3519e+08,-4.35519e+08,-339728,0.0404527,0.302312,0,0.305006,27891,-15858.3,0,32084.2,339728
step02_gravity_refstate-crust.xmf,1167,-3.18739e-06,5.02306e-06,0,-4.10273e-06,-4.3891e+08,-4.38347e+08,-4.38692e+08,-281447,0.0338961,0.282915,0,0.284938,30011.9,-15973.8,0,33998.2,281447
step02_gravity_refstate-crust.xmf,1168,-3.31459e-06,5.12813e-06,0,-3.22406e-06,-4.3737e+08,-4.36791e+08,-4.37143e+08,-221171,0.0269355,0.267674,0,0.269026,32146.1,-15917.4,0,35871.1,221171
step02_gravity_refstate-crust.xmf,1169,-1.14743e-06,2.77966e-06,0,-8.59933e-06,-4.74255e+08,-4.73986e+08,-4.74177e+08,-589914,0.0635645,0.418368,0,0.423169,18293,-17265.4,0,25154.1,589914
step02_gravity_refstate-crust.xmf,1170,-2.77348e-06,4.90318e-06,0,-6.44506e-06,-4.79155e+08,-4.78629e+08,-4.78965e+08,-442131,0.0506755,0.330052,0,0.333919,24632.4,-17440.5,0,30181.5,442131
step02_gravity_refstate-crust.xmf,1171,-1.90302e-06,3.79258e-06,0,-8.08787e-06,-4.84625e+08,-4.84234e+08,-4.84494e+08,-554828,0.061024,0.385854,0,0.39065,20395.2,-17641.4,0,26966.4,554828
step02_gravity_refstate-crust.xmf,1172,-2.37936e-06,4.38738e-06,0,-7.2643e-06,-4.77386e+08,-4.76921e+08,-4.77222e+08,-498331,0.0560809,0.357235,0,0.36161,22522.8,-17376.9,0,28447,498331
step02_gravity_refstate-crust.xmf,1173,-3.52165e-06,4.69902e-06,0,2.07162e-09,-3.8937e+08,-3.88806e+08,-3.89129e+08,142.113,6.60127e-19,0.250861,0,0.250861,40000,-14168.4,0,42435.2,142.113
step02_gravity_refstate-crust.xmf,1174,-3.40187e-06,5.14228e-06,0,-2.23701e-06,-4.31917e+08,-4.31331e+08,-4.31684e+08,-153459,0.0189114,0.255604,0,0.256303,34532,-15718.6,0,37941.2,153459
step02_gravity_refstate-crust.xmf,1175,-3.45953e-06,5.14416e-06,0,-1.11046e-06,-4.28172e+08,-4.27582e+08,-4.27935e+08,-76177.3,0.00947399,0.246979,0,0.247161,37277.4,-15582,0,40403,76177.3
step02_gravity_refstate-crust.xmf,1176,4.52556e-05,-0.000103216,0,3.14441e-06,-1.0859e+09,-1.09608e+09,-1.089e+09,215706,-0.00813654,1.37911,-0,1.37914,-179.839,-39556.4,-0,39556.8,215706
step02_gravity_refstate-crust.xmf,1177,4.17077e-05,-0.00010474,0,1.75868e-05,-1.09854e+09,-1.10859e+09,-1.1014e+09,1.20646e+06,-0.0418493,1.40455,-0,1.40518,-999.46,-40000,-0,40012.5,1.20646e+06
step02_gravity_refstate-crust.xmf,1178,3.96895e-05,-7.0009e-05,0,-2.62212e-05,-1.02176e+09,-1.02929e+09,-1.02448e+09,-1.79878e+06,0.072607,1.13023,0,1.13256,1683.81,-37250.4,0,37288.5,1.79878e+06
step02_gravity_refstate-crust.xmf,1179,4.64303e-05,-9.8638e-05,0,-1.47234e-05,-1.07621e+09,-1.08617e+09,-1.0794e+09,-1.01003e+06,0.0373147,1.33238,0,1.3329,799.887,-39215.8,0,39224,1.01003e+06
step02_gravity_refstate-crust.xmf,1180,9.65155e-07,-2.08316e-07,0,-1.17519e-05,-6.08679e+08,-6.0876e+08,-6.08745e+08,-806183,0.0797867,0.510977,0,0.517168,12443.5,-22163.2,0,25417.4,806183
step02_gravity_refstate-crust.xmf,1181,3.99158e-06,-4.95278e-06,0,-1.42265e-05,-7.03111e+08,-7.03725e+08,-7.03385e+08,-975936,0.0879109,0.593099,0,0.599579,8940.91,-25606,0,27122,975936
step02_gravity_refstate-crust.xmf,1182,1.09514e-05,-1.59692e-05,0,-1.64446e-05,-8.01114e+08,-8.02961e+08,-8.01865e+08,-1.1281e+06,0.084075,0.719171,0,0.724069,5260.92,-29184.9,0,29655.3,1.1281e+06
step02_gravity_refstate-crust.xmf,1183,1.27013e-05,-1.88267e-05,0,-1.69811e-05,-8.2249e+08,-8.24653e+08,-8.23362e+08,-1.1649e+06,0.0829145,0.747238,0,0.751824,4709.28,-29965.8,0,30333.6,1.1649e+06
step02_gravity_refstate-crust.xmf,1184,1.44274e-05,-2.17292e-05,0,-1.77099e-05,-8.43751e+08,-8.46231e+08,-8.44741e+08,-1.2149e+06,0.0824853,0.774914,0,0.779292,4270.17,-30742.3,0,31037.5,1.2149e+06
step02_gravity_refstate-crust.xmf,1185,1.63141e-05,-2.49315e-05,0,-1.84764e-05,-8.64432e+08,-8.67262e+08,-8.65551e+08,-1.26748e+06,0.0818735,0.803955,0,0.808114,3867.11,-31497.9,0,31734.4,1.26748e+06
step02_gravity_refstate-crust.xmf,1186,1.86051e-05,-2.87953e-05,0,-1.90663e-05,-8.84761e+08,-8.88013e+08,-8.86038e+08,-1.30795e+06,0.0800352,0.83657,0,0.84039,3437.04,-32241.3,0,32424,1.30795e+06
step02_gravity_refstate-crust.xmf,1187,2.11651e-05,-3.31864e-05,0,-1.96434e-05,-9.05104e+08,-9.08833e+08,-9.06556e+08,-1.34753e+06,0.0778727,0.871762,0,0.875233,3036.59,-32985.5,0,33124.9,1.34753e+06
step02_gravity_refstate-crust.xmf,1188,2.56198e-05,-4.20401e-05,0,-2.53967e-05,-9.56364e+08,-9.61005e+08,-9.58121e+08,-1.74222e+06,0.087451,0.951307,0,0.955318,2766.66,-34855.9,0,34965.6,1.74222e+06
step02_gravity_refstate-crust.xmf,1189,2.26717e-05,-3.74035e-05,0,-2.53324e-05,-9.42951e+08,-9.47073e+08,-9.44507e+08,-1.7378e+06,0.0918395,0.916445,0,0.921035,3137.04,-34362.9,0,34505.8,1.7378e+06
step02_gravity_refstate-crust.xmf,1190,4.77375e-06,-6.42661e-06,0,-1.52139e-05,-7.30553e+08,-7.31321e+08,-7.30881e+08,-1.04367e+06,0.0906232,0.614356,0,0.621003,8285.11,-26605.9,0,27866,1.04367e+06
step02_gravity_refstate-crust.xmf,1191,-3.7276e-07,1.76918e-06,0,-1.06877e-05,-5.71612e+08,-5.71465e+08,-5.71587e+08,-733175,0.075523,0.466227,0,0.472304,14888.9,-20811.3,0,25588.9,733175
step02_gravity_refstate-crust.xmf,1192,-3.04913e-06,5.27797e-06,0,-5.6029e-06,-4.8176e+08,-4.81189e+08,-4.81551e+08,-384359,0.0447155,0.30609,0,0.309339,26690.4,-17534.8,0,31935,384359
step02_gravity_refstate-crust.xmf,1193,-1.00173e-06,2.70422e-06,0,-9.30964e-06,-5.13854e+08,-5.136e+08,-5.13786e+08,-638641,0.0679333,0.431659,0,0.436972,17190.4,-18707.5,0,25406.3,638641
step02_gravity_refstate-crust.xmf,1194,4.19175e-05,-0.000106343,0,8.7502e-06,-1.09858e+09,-1.10876e+09,-1.10146e+09,600264,-0.0209702,1.42092,-0,1.42108,-500.036,-40000,-0,40003.1,600264
step02_gravity_refstate-crust.xmf,1195,4.53464e-05,-0.000103281,0,-5.62233e-06,-1.08659e+09,-1.09679e+09,-1.08971e+09,-385692,0.014124,1.38039,0,1.38047,313.364,-39582.1,0,39583.4,385692
step02_gravity_refstate-crust.xmf,1196,2.97942e-05,-5.08479e-05,0,-2.89738e-05,-9.86822e+08,-9.92354e+08,-9.88866e+08,-1.9876e+06,0.0904993,1.01445,0,1.01848,2503.86,-35968,0,36055.1,1.9876e+06
step02_gravity_refstate-crust.xmf,1197,3.45166e-05,-5.95952e-05,0,-2.83682e-05,-1.00382e+09,-1.01028e+09,-1.00619e+09,-1.94606e+06,0.0830711,1.06829,0,1.07152,2098.49,-36592.5,0,36652.6,1.94606e+06
step02_gravity_refstate-crust.xmf,1198,4.17603e-05,-7.59434e-05,0,-2.80319e-05,-1.03745e+09,-1.04553e+09,-1.04032e+09,-1.92299e+06,0.0747583,1.17297,0,1.17535,1657.42,-37820.8,0,37857.1,1.92299e+06
step02_gravity_refstate-crust.xmf,1199,4.4514e-05,-8.35775e-05,0,-2.53952e-05,-1.04941e+09,-1.0582e+09,-1.05247e+09,-1.74211e+06,0.0658835,1.21971,0,1.22149,1414.15,-38255.7,0,38281.8,1.74211e+06
step02_gravity_refstate-crust.xmf,1200,4.63022e-05,-9.11311e-05,0,-2.08008e-05,-1.06196e+09,-1.07139e+09,-1.06514e+09,-1.42694e+06,0.0532841,1.27215,0,1.27326,1126.28,-38708,0,38724.4,1.42694e+06
step02_gravity_refstate-crust.xmf,1201,1.34353e-06,-9.03572e-07,0,-1.25906e-05,-6.41569e+08,-6.41723e+08,-6.41661e+08,-863712,0.0838875,0.527321,0,0.533952,11659.7,-23361,0,26109.1,863712
step02_gravity_refstate-crust.xmf,1202,1.82101e-06,-1.78681e-06,0,-1.35154e-05,-6.73695e+08,-6.73943e+08,-6.7382e+08,-927153,0.0879434,0.545877,0,0.552915,10865.8,-24531.2,0,26829.9,927153
step02_gravity_refstate-crust.xmf,1203,2.34879e-06,-2.78266e-06,0,-1.45114e-05,-7.04245e+08,-7.04597e+08,-7.04406e+08,-995485,0.0918727,0.565255,0,0.572673,10131.4,-25643.9,0,27572.8,995485
step02_gravity_refstate-crust.xmf,1204,2.52301e-05,-4.27079e-05,0,-2.9547e-05,-9.71902e+08,-9.76562e+08,-9.73632e+08,-2.02692e+06,0.0982244,0.965665,0,0.970648,2979.72,-35419,0,35544.1,2.02692e+06
step02_gravity_refstate-crust.xmf,1205,1.98411e-05,-3.20892e-05,0,-2.44529e-05,-9.25344e+08,-9.28907e+08,-9.26705e+08,-1.67747e+06,0.0940883,0.87854,0,0.883564,3522.75,-33718.7,0,33902.2,1.67747e+06
step02_gravity_refstate-crust.xmf,1206,5.75377e-06,-8.13404e-06,0,-1.61981e-05,-7.5697e+08,-7.57923e+08,-7.57365e+08,-1.11119e+06,0.0929153,0.637884,0,0.644616,7629.55,-27568.9,0,28605.2,1.11119e+06
step02_gravity_refstate-crust.xmf,1207,6.92347e-06,-1.01567e-05,0,-1.72423e-05,-7.82565e+08,-7.83736e+08,-7.8304e+08,-1.18282e+06,0.0947604,0.663752,0,0.670482,6982.14,-28502.3,0,29345.1,1.18282e+06
step02_gravity_refstate-crust.xmf,1208,8.28753e-06,-1.2429e-05,0,-1.81756e-05,-8.05295e+08,-8.06716e+08,-8.05863e+08,-1.24684e+06,0.0956436,0.690839,0,0.697428,6357.28,-29331.8,0,30012.9,1.24684e+06
step02_gravity_refstate-crust.xmf,1209,-1.39485e-07,1.40001e-06,0,-1.15147e-05,-6.09142e+08,-6.09037e+08,-6.09133e+08,-789906,0.0804404,0.481688,0,0.488359,13947.1,-22178,0,26199,789906
step02_gravity_refstate-crust.xmf,1210,-3.24082e-06,5.56855e-06,0,-4.70737e-06,-4.85992e+08,-4.85388e+08,-4.8577e+08,-322925,0.0380559,0.284127,0,0.286664,28818.2,-17688.6,0,33813.8,322925
step02_gravity_refstate-crust.xmf,1211,-3.35389e-06,5.74259e-06,0,-3.78578e-06,-4.88211e+08,-4.87587e+08,-4.87981e+08,-259705,0.0309327,0.265737,0,0.267531,30977.6,-17769.1,0,35712.1,259705
step02_gravity_refstate-crust.xmf,1212,-3.4134e-06,5.82123e-06,0,-2.82826e-06,-4.87866e+08,-4.87233e+08,-4.87632e+08,-194019,0.0233125,0.251071,0,0.252151,33227.2,-17756.5,0,37674.1,194019
step02_gravity_refstate-crust.xmf,1213,-1.76119e-06,3.68503e-06,0,-8.86633e-06,-5.19725e+08,-5.19351e+08,-5.19604e+08,-608230,0.0659046,0.402245,0,0.407608,18991,-18919.7,0,26806.9,608230
step02_gravity_refstate-crust.xmf,1214,-9.95317e-07,2.68899e-06,0,-1.00263e-05,-5.52184e+08,-5.51932e+08,-5.52116e+08,-687806,0.0723491,0.441044,0,0.446939,16404,-20103,0,25946.5,687806
step02_gravity_refstate-crust.xmf,1215,-3.17677e-06,5.79291e-06,0,-6.18957e-06,-5.27197e+08,-5.26581e+08,-5.26979e+08,-424604,0.0490251,0.309037,0,0.312902,25611.3,-19189.2,0,32002.6,424604
step02_gravity_refstate-crust.xmf,1216,-2.92426e-06,5.39168e-06,0,-7.05164e-06,-5.2571e+08,-5.2514e+08,-5.2551e+08,-483743,0.0549684,0.333629,0,0.338127,23656.4,-19135.5,0,30426.9,483743
step02_gravity_refstate-crust.xmf,1217,-2.59192e-06,4.90534e-06,0,-7.85012e-06,-5.27012e+08,-5.26498e+08,-5.26834e+08,-538518,0.0601533,0.358782,0,0.36379,21804.9,-19183.5,0,29042.4,538518
step02_gravity_refstate-crust.xmf,1218,-3.46459e-06,5.54429e-06,0,-5.90495e-10,-4.60287e+08,-4.59669e+08,-4.6005e+08,-40.5079,5.19091e-19,0.23763,0,0.23763,40000,-16751.8,0,43366.1,40.5079
step02_gravity_refstate-crust.xmf,1219,-3.44071e-06,5.86451e-06,0,-1.85527e-06,-4.87957e+08,-4.87319e+08,-4.87721e+08,-127271,0.01539,0.240217,0,0.240709,35538,-17759.7,0,39728.6,127271
step02_gravity_refstate-crust.xmf,1220,4.198e-05,-0.000106877,0,1.15818e-07,-1.0986e+09,-1.10881e+09,-1.10148e+09,7945.08,-1.22967e-06,1.42636,-0,1.42636,-4.01542e-10,-40000,-0,40000,7945.08
step02_gravity_refstate-crust.xmf,1221,4.42427e-05,-0.000102972,0,-1.3745e-05,-1.08932e+09,-1.09942e+09,-1.09235e+09,-942906,0.0339944,1.37995,0,1.38037,765.553,-39677.3,0,39684.6,942906
step02_gravity_refstate-crust.xmf,1222,3.82735e-05,-6.94718e-05,0,-3.32973e-05,-1.03329e+09,-1.04068e+09,-1.03592e+09,-2.2842e+06,0.0895928,1.13974,0,1.14325,2050.29,-37665.3,0,37721.1,2.2842e+06
step02_gravity_refstate-crust.xmf,1223,4.51719e-05,-9.40955e-05,0,-2.66343e-05,-1.07487e+09,-1.08442e+09,-1.07797e+09,-1.82711e+06,0.0661802,1.29997,0,1.30165,1427.14,-39168.7,0,39194.7,1.82711e+06
step02_gravity_refstate-crust.xmf,1224,5.57417e-08,9.05e-07,0,-1.24064e-05,-6.42398e+08,-6.4234e+08,-6.42402e+08,-851078,0.0850249,0.496961,0,0.504182,13117.4,-23388.8,0,26816,851078
step02_gravity_refstate-crust.xmf,1225,2.97058e-06,-3.84943e-06,0,-1.55002e-05,-7.32602e+08,-7.33069e+08,-7.32805e+08,-1.06331e+06,0.0955392,0.585308,0,0.593054,9456.07,-26677.2,0,28303.5,1.06331e+06
step02_gravity_refstate-crust.xmf,1226,2.10364e-05,-3.57736e-05,0,-2.96594e-05,-9.57914e+08,-9.61811e+08,-9.59357e+08,-2.03464e+06,0.10499,0.920017,0,0.925988,3497.73,-34903.5,0,35078.4,2.03464e+06
step02_gravity_refstate-crust.xmf,1227,9.92384e-06,-1.50662e-05,0,-1.88162e-05,-8.23961e+08,-8.25675e+08,-8.24642e+08,-1.29079e+06,0.0948442,0.718721,0,0.724952,5732.89,-30013.9,0,30556.5,1.29079e+06
step02_gravity_refstate-crust.xmf,1228,1.1533e-05,-1.78113e-05,0,-1.96779e-05,-8.43768e+08,-8.45781e+08,-8.44559e+08,-1.3499e+06,0.0946895,0.746595,0,0.752576,5213.08,-30737.3,0,31176.2,1.3499e+06
step02_gravity_refstate-crust.xmf,1229,1.31394e-05,-2.06532e-05,0,-2.08426e-05,-8.64455e+08,-8.66774e+08,-8.65357e+08,-1.4298e+06,0.0953335,0.774966,0,0.780807,4783.84,-31492.5,0,31853.8,1.4298e+06
step02_gravity_refstate-crust.xmf,1230,1.50888e-05,-2.40751e-05,0,-2.20388e-05,-8.85351e+08,-8.88037e+08,-8.86386e+08,-1.51186e+06,0.0954207,0.807065,0,0.812686,4343.04,-32255.8,0,32546.9,1.51186e+06
step02_gravity_refstate-crust.xmf,1231,1.73553e-05,-2.8049e-05,0,-2.32211e-05,-9.05607e+08,-9.08722e+08,-9.06798e+08,-1.59297e+06,0.0948487,0.841856,0,0.847182,3912.91,-32996.3,0,33227.5,1.59297e+06
step02_gravity_refstate-crust.xmf,1232,1.79331e-05,-3.09323e-05,0,-2.9029e-05,-9.44414e+08,-9.47766e+08,-9.45644e+08,-1.99139e+06,0.108624,0.881989,0,0.888653,3941.79,-34407,0,34632.1,1.99139e+06
step02_gravity_refstate-crust.xmf,1233,3.66456e-06,-5.27358e-06,0,-1.66827e-05,-7.59393e+08,-7.60006e+08,-7.59644e+08,-1.14443e+06,0.0988119,0.607778,0,0.615758,8773.01,-27653.1,0,29011.4,1.14443e+06
step02_gravity_refstate-crust.xmf,1234,-1.13969e-06,2.75973e-06,0,-1.11836e-05,-6.12155e+08,-6.11888e+08,-6.12077e+08,-767195,0.0798459,0.453113,0,0.460094,15412.4,-22285.8,0,27096.1,767195
step02_gravity_refstate-crust.xmf,1235,-3.34452e-06,6.10741e-06,0,-5.27736e-06,-5.30845e+08,-5.30197e+08,-5.30616e+08,-362027,0.0424078,0.285852,0,0.28898,27653.6,-19321.9,0,33735.1,362027
step02_gravity_refstate-crust.xmf,1236,-1.61453e-06,3.54022e-06,0,-9.44618e-06,-5.44486e+08,-5.44132e+08,-5.44375e+08,-648008,0.0695742,0.41533,0,0.421117,17976,-19821.5,0,26758.7,648008
step02_gravity_refstate-crust.xmf,1237,-2.27914e-06,4.47886e-06,0,-8.49113e-06,-5.34121e+08,-5.33658e+08,-5.33965e+08,-582491,0.0642016,0.379603,0,0.384994,20314.7,-19442.9,0,28119.7,582491
step02_gravity_refstate-crust.xmf,1238,-1.24221e-06,2.99118e-06,0,-1.05407e-05,-5.86146e+08,-5.85856e+08,-5.86061e+08,-723090,0.076075,0.441254,0,0.447764,16193.8,-21338.8,0,26787.8,723090
step02_gravity_refstate-crust.xmf,1239,-3.44517e-06,6.04521e-06,0,-8.98972e-07,-5.01357e+08,-5.00706e+08,-5.01121e+08,-61669.5,0.00747187,0.230934,0,0.231055,37832.3,-18247.8,0,42003.2,61669.5
step02_gravity_refstate-crust.xmf,1240,4.19115e-05,-0.000106365,0,-8.55133e-06,-1.09859e+09,-1.10876e+09,-1.10146e+09,-586621,0.0209718,1.42092,0,1.42108,500.036,-40000,0,40003.1,586621
step02_gravity_refstate-crust.xmf,1241,4.42087e-05,-0.000100259,0,-2.20076e-05,-1.08727e+09,-1.09718e+09,-1.09031e+09,-1.50972e+06,0.0539265,1.35444,0,1.35551,1206.68,-39606.9,0,39625.3,1.50972e+06
step02_gravity_refstate-crust.xmf,1242,2.43297e-05,-4.33195e-05,0,-3.44391e-05,-9.888e+08,-9.93441e+08,-9.90469e+08,-2.36253e+06,0.109871,0.980308,0,0.986446,3197.3,-36029.6,0,36171.2,2.36253e+06
step02_gravity_refstate-crust.xmf,1243,2.86771e-05,-5.13028e-05,0,-3.545e-05,-1.00471e+09,-1.01019e+09,-1.00668e+09,-2.43187e+06,0.105515,1.03107,0,1.03645,2802.85,-36614,0,36721.1,2.43187e+06
step02_gravity_refstate-crust.xmf,1244,3.36595e-05,-6.11884e-05,0,-3.64159e-05,-1.02325e+09,-1.02976e+09,-1.02556e+09,-2.49813e+06,0.100746,1.09137,0,1.09601,2440.83,-37294,0,37373.8,2.49813e+06
step02_gravity_refstate-crust.xmf,1245,4.04744e-05,-7.59206e-05,0,-3.55172e-05,-1.04808e+09,-1.05607e+09,-1.05086e+09,-2.43648e+06,0.0911613,1.18109,0,1.1846,2012.95,-38202.7,0,38255.7,2.43648e+06
step02_gravity_refstate-crust.xmf,1246,4.38688e-05,-8.59809e-05,0,-3.18209e-05,-1.06249e+09,-1.07139e+09,-1.0655e+09,-2.18291e+06,0.0797971,1.24276,0,1.24532,1714.31,-38725.3,0,38763.2,2.18291e+06
step02_gravity_refstate-crust.xmf,1247,3.7527e-07,2.59265e-07,0,-1.33632e-05,-6.74754e+08,-6.74762e+08,-6.74779e+08,-916716,0.0896396,0.514734,0,0.522481,12260.5,-24567,0,27456.5,916716
step02_gravity_refstate-crust.xmf,1248,7.81285e-07,-5.61038e-07,0,-1.44004e-05,-7.05614e+08,-7.05706e+08,-7.05668e+08,-987871,0.094121,0.53438,0,0.542605,11419.9,-25690.9,0,28114.7,987871
step02_gravity_refstate-crust.xmf,1249,1.21335e-06,-1.47148e-06,0,-1.55237e-05,-7.34995e+08,-7.35179e+08,-7.35078e+08,-1.06493e+06,0.0984636,0.554611,0,0.563283,10653.1,-26760.9,0,28803.3,1.06493e+06
step02_gravity_refstate-crust.xmf,1250,2.00925e-05,-3.57562e-05,0,-3.37852e-05,-9.75266e+08,-9.79097e+08,-9.76644e+08,-2.31767e+06,0.11522,0.933059,0,0.940146,3678.22,-35531.4,0,35721.3,2.31767e+06
step02_gravity_refstate-crust.xmf,1251,1.54671e-05,-2.61357e-05,0,-2.73377e-05,-9.2635e+08,-9.29204e+08,-9.27411e+08,-1.87537e+06,0.109027,0.844124,0,0.851136,4353.27,-33746.8,0,34026.4,1.87537e+06
step02_gravity_refstate-crust.xmf,1252,7.36771e-06,-1.16954e-05,0,-2.03317e-05,-8.32321e+08,-8.33628e+08,-8.32826e+08,-1.39476e+06,0.104952,0.693574,0,0.70147,6647.83,-30313.2,0,31033.6,1.39476e+06
step02_gravity_refstate-crust.xmf,1253,4.49684e-06,-6.86028e-06,0,-1.79472e-05,-7.86015e+08,-7.86794e+08,-7.86323e+08,-1.23118e+06,0.102045,0.632109,0,0.640293,8120.38,-28623.2,0,29752.8,1.23118e+06
step02_gravity_refstate-crust.xmf,1254,5.4578e-06,-8.74737e-06,0,-1.95498e-05,-8.14966e+08,-8.1594e+08,-8.1534e+08,-1.34112e+06,0.105703,0.660295,0,0.668702,7468.26,-29678.2,0,30603.4,1.34112e+06
step02_gravity_refstate-crust.xmf,1255,-1.04636e-06,2.58254e-06,0,-1.19579e-05,-6.44742e+08,-6.44493e+08,-6.4467e+08,-820311,0.0845579,0.465617,0,0.473233,14622.5,-23472.2,0,27654.3,820311
step02_gravity_refstate-crust.xmf,1256,-3.4698e-06,6.52402e-06,0,-2.42009e-06,-5.40859e+08,-5.40174e+08,-5.40621e+08,-166018,0.0200124,0.234162,0,0.235016,34176.1,-19686.6,0,39440.7,166018
step02_gravity_refstate-crust.xmf,1257,-3.44098e-06,6.36228e-06,0,-4.34521e-06,-5.37649e+08,-5.36977e+08,-5.37413e+08,-298081,0.0353513,0.264711,0,0.267061,29744.4,-19569.6,0,35604.8,298081
step02_gravity_refstate-crust.xmf,1258,-3.4761e-06,6.50153e-06,0,-3.37381e-06,-5.41659e+08,-5.40974e+08,-5.4142e+08,-231443,0.027724,0.24691,0,0.248461,31950.7,-19715.6,0,37544,231443
step02_gravity_refstate-crust.xmf,1259,-2.28405e-06,4.54862e-06,0,-9.19697e-06,-5.67908e+08,-5.6744e+08,-5.67752e+08,-630912,0.068957,0.39115,0,0.397181,19233.7,-20673.1,0,28236.7,630912
step02_gravity_refstate-crust.xmf,1260,-1.79623e-06,3.8252e-06,0,-9.98029e-06,-5.8007e+08,-5.79685e+08,-5.79947e+08,-684648,0.0734043,0.417789,0,0.424188,17551.6,-21116.7,0,27458.6,684648
step02_gravity_refstate-crust.xmf,1261,-3.49233e-06,6.6299e-06,0,-5.85435e-06,-5.73599e+08,-5.72904e+08,-5.73359e+08,-401608,0.0471378,0.288998,0,0.292817,26439.6,-20878.6,0,33689.3,401608
step02_gravity_refstate-crust.xmf,1262,-3.36084e-06,6.32982e-06,0,-6.73651e-06,-5.72046e+08,-5.71381e+08,-5.71815e+08,-462125,0.0534518,0.311626,0,0.316177,24592.6,-20822.1,0,32223.5,462125
step02_gravity_refstate-crust.xmf,1263,-2.80258e-06,5.3589e-06,0,-8.41577e-06,-5.70965e+08,-5.70405e+08,-5.70773e+08,-577322,0.0645127,0.361892,0,0.367597,21041.3,-20783.5,0,29575.2,577322
step02_gravity_refstate-crust.xmf,1264,-3.12924e-06,5.89786e-06,0,-7.61205e-06,-5.70771e+08,-5.70151e+08,-5.70556e+08,-522187,0.0593783,0.336583,0,0.34178,22760.3,-20776,0,30816.7,522187
step02_gravity_refstate-crust.xmf,1265,-1.95459e-06,3.98656e-06,0,-1.06336e-05,-6.1521e+08,-6.14802e+08,-6.15076e+08,-729464,0.0778202,0.424147,0,0.431227,16922.3,-22395.6,0,28070,729464
step02_gravity_refstate-crust.xmf,1266,-3.43258e-06,6.38939e-06,0,-1.69074e-09,-5.29364e+08,-5.28691e+08,-5.29129e+08,-115.985,4.75279e-19,0.222618,0,0.222618,40000,-19268,0,44398.8,115.985
step02_gravity_refstate-crust.xmf,1267,-3.44838e-06,6.49077e-06,0,-1.57221e-06,-5.378e+08,-5.37118e+08,-5.37563e+08,-107853,0.0130379,0.226712,0,0.227086,36199.5,-19575.2,0,41153.3,107853
step02_gravity_refstate-crust.xmf,1268,4.17139e-05,-0.000104797,0,-1.73746e-05,-1.09854e+09,-1.10859e+09,-1.1014e+09,-1.1919e+06,0.0418488,1.40455,0,1.40518,999.46,-40000,0,40012.5,1.1919e+06
step02_gravity_refstate-crust.xmf,1269,4.32138e-05,-9.59174e-05,0,-3.22134e-05,-1.0867e+09,-1.09624e+09,-1.08966e+09,-2.20984e+06,0.0769604,1.32012,0,1.32236,1730.45,-39588.6,0,39626.4,2.20984e+06
step02_gravity_refstate-crust.xmf,1270,3.56177e-05,-6.63063e-05,0,-3.97339e-05,-1.03906e+09,-1.04605e+09,-1.0415e+09,-2.72575e+06,0.104237,1.13004,0,1.13483,2407.95,-37869.5,0,37946,2.72575e+06
step02_gravity_refstate-crust.xmf,1271,4.28555e-05,-8.80213e-05,0,-3.76193e-05,-1.07483e+09,-1.08381e+09,-1.07777e+09,-2.58068e+06,0.0907413,1.26193,0,1.26519,1985.21,-39167.5,0,39217.8,2.58068e+06
step02_gravity_refstate-crust.xmf,1272,-9.57633e-07,2.23091e-06,0,-1.28449e-05,-6.74498e+08,-6.74279e+08,-6.74432e+08,-881159,0.0891388,0.48009,0,0.488295,13818.9,-24555.4,0,28176.7,881159
step02_gravity_refstate-crust.xmf,1273,1.74246e-06,-2.44498e-06,0,-1.66417e-05,-7.61961e+08,-7.62248e+08,-7.6208e+08,-1.14162e+06,0.102482,0.575389,0,0.584444,9952.76,-27743.2,0,29474.5,1.14162e+06
step02_gravity_refstate-crust.xmf,1274,1.85354e-05,-3.51496e-05,0,-3.78418e-05,-9.90446e+08,-9.94129e+08,-9.91718e+08,-2.59594e+06,0.124636,0.941315,0,0.94953,3862.12,-36078.7,0,36284.9,2.59594e+06
step02_gravity_refstate-crust.xmf,1275,1.55214e-05,-2.86985e-05,0,-3.33858e-05,-9.63331e+08,-9.66365e+08,-9.64396e+08,-2.29026e+06,0.12156,0.883858,0,0.892178,4296.94,-35089.4,0,35351.5,2.29026e+06
step02_gravity_refstate-crust.xmf,1276,9.12767e-06,-1.44075e-05,0,-2.07922e-05,-8.44959e+08,-8.46574e+08,-8.45585e+08,-1.42635e+06,0.103153,0.721221,0,0.72856,6004.79,-30776.2,0,31356.5,1.42635e+06
step02_gravity_refstate-crust.xmf,1277,9.87695e-06,-1.61516e-05,0,-2.23408e-05,-8.64531e+08,-8.66317e+08,-8.65209e+08,-1.53258e+06,0.106056,0.742116,0,0.749656,5718.97,-31489.1,0,32004.2,1.53258e+06
step02_gravity_refstate-crust.xmf,1278,1.14554e-05,-1.91049e-05,0,-2.39351e-05,-8.85892e+08,-8.87988e+08,-8.86677e+08,-1.64195e+06,0.107516,0.773579,0,0.781015,5245.92,-32268.5,0,32692.2,1.64195e+06
step02_gravity_refstate-crust.xmf,1279,1.33329e-05,-2.25656e-05,0,-2.56395e-05,-9.06741e+08,-9.09204e+08,-9.07656e+08,-1.75887e+06,0.108537,0.807966,0,0.815223,4784.75,-33029.8,0,33374.6,1.75887e+06
step02_gravity_refstate-crust.xmf,1280,1.31685e-05,-2.42691e-05,0,-3.10234e-05,-9.45172e+08,-9.4774e+08,-9.46075e+08,-2.12821e+06,0.12098,0.843363,0,0.851996,4723.43,-34425.6,0,34748.2,2.12821e+06
step02_gravity_refstate-crust.xmf,1281,2.25997e-06,-3.69147e-06,0,-1.8004e-05,-7.8809e+08,-7.88499e+08,-7.88245e+08,-1.23508e+06,0.10637,0.598054,0,0.60744,9271.93,-28694.6,0,30155.5,1.23508e+06
step02_gravity_refstate-crust.xmf,1282,-2.01776e-06,3.98713e-06,0,-1.13729e-05,-6.47616e+08,-6.47204e+08,-6.47477e+08,-780178,0.0825409,0.434695,0,0.442462,16130.7,-23575.1,0,28565.4,780178
step02_gravity_refstate-crust.xmf,1283,-3.56275e-06,6.89833e-06,0,-4.9455e-06,-5.79982e+08,-5.79264e+08,-5.79737e+08,-339262,0.040408,0.267177,0,0.270215,28359.3,-21111.1,0,35354.3,339262
step02_gravity_refstate-crust.xmf,1284,-3.40902e-06,6.82003e-06,0,-8.19809e-07,-5.65112e+08,-5.6441e+08,-5.64878e+08,-56238.9,0.006843,0.215718,0,0.215827,37989.7,-20570.2,0,43201.3,56238.9
step02_gravity_refstate-crust.xmf,1285,4.12407e-05,-0.000102015,0,-2.66071e-05,-1.09848e+09,-1.1083e+09,-1.1013e+09,-1.82525e+06,0.0625359,1.37707,0,1.37849,1498.34,-40000,0,40028.1,1.82525e+06
step02_gravity_refstate-crust.xmf,1286,2.19506e-05,-4.15949e-05,0,-4.00294e-05,-1.00515e+09,-1.00951e+09,-1.00666e+09,-2.74602e+06,0.122971,0.986526,0,0.994161,3491.21,-36617.9,0,36784,2.74602e+06
step02_gravity_refstate-crust.xmf,1287,2.57983e-05,-4.91769e-05,0,-4.28347e-05,-1.02204e+09,-1.02718e+09,-1.02381e+09,-2.93846e+06,0.121674,1.0379,0,1.04501,3162.23,-37236.5,0,37370.6,2.93846e+06
step02_gravity_refstate-crust.xmf,1288,2.99293e-05,-5.74161e-05,0,-4.53871e-05,-1.03835e+09,-1.04434e+09,-1.0404e+09,-3.11355e+06,0.11995,1.09036,0,1.09693,2895,-37834.2,0,37944.8,3.11355e+06
step02_gravity_refstate-crust.xmf,1289,3.53067e-05,-6.78472e-05,0,-4.51749e-05,-1.05157e+09,-1.05864e+09,-1.05399e+09,-3.099e+06,0.113225,1.14688,0,1.15246,2579.18,-38321.1,0,38407.8,3.099e+06
step02_gravity_refstate-crust.xmf,1290,4.00527e-05,-7.8533e-05,0,-4.23312e-05,-1.06357e+09,-1.07171e+09,-1.06632e+09,-2.90392e+06,0.103167,1.20486,0,1.20927,2270.85,-38760.9,0,38827.4,2.90392e+06
step02_gravity_refstate-crust.xmf,1291,-6.05294e-07,1.4751e-06,0,-1.39818e-05,-7.07349e+08,-7.07206e+08,-7.07308e+08,-959153,0.0945009,0.50251,0,0.511319,12743.1,-25751.6,0,28732,959153
step02_gravity_refstate-crust.xmf,1292,-3.34178e-07,7.87579e-07,0,-1.51653e-05,-7.38065e+08,-7.37988e+08,-7.38042e+08,-1.04034e+06,0.0995147,0.522703,0,0.532091,11880.3,-26869.9,0,29379.1,1.04034e+06
step02_gravity_refstate-crust.xmf,1293,-2.18525e-08,2.25865e-08,0,-1.6331e-05,-7.64408e+08,-7.64405e+08,-7.64406e+08,-1.12031e+06,0.103896,0.542593,0,0.552451,11126.5,-27829,0,29970.8,1.12031e+06
step02_gravity_refstate-crust.xmf,1294,1.57117e-05,-3.00317e-05,0,-3.63167e-05,-9.7917e+08,-9.82308e+08,-9.80248e+08,-2.49132e+06,0.12659,0.904316,0,0.913133,4235.46,-35664.7,0,35915.3,2.49132e+06
step02_gravity_refstate-crust.xmf,1295,6.78391e-06,-1.15412e-05,0,-2.25712e-05,-8.60753e+08,-8.6201e+08,-8.61218e+08,-1.54838e+06,0.112966,0.704099,0,0.713103,6689.94,-31346.1,0,32052.1,1.54838e+06
step02_gravity_refstate-crust.xmf,1296,1.11675e-05,-2.01969e-05,0,-2.89707e-05,-9.27822e+08,-9.29973e+08,-9.28588e+08,-1.98739e+06,0.120306,0.807023,0,0.815941,5167.3,-33792.2,0,34185,1.98739e+06
step02_gravity_refstate-crust.xmf,1297,5.31729e-06,-9.11151e-06,0,-2.14132e-05,-8.42736e+08,-8.43726e+08,-8.43101e+08,-1.46895e+06,0.111932,0.674134,0,0.683363,7324.08,-30688,0,31549.9,1.46895e+06
step02_gravity_refstate-crust.xmf,1298,2.81804e-06,-4.96966e-06,0,-1.95037e-05,-8.14575e+08,-8.1511e+08,-8.14769e+08,-1.33795e+06,0.110473,0.621748,0,0.631486,8649.2,-29659.1,0,30894.5,1.33795e+06
step02_gravity_refstate-crust.xmf,1299,-2.10592e-06,3.9912e-06,0,-1.22719e-05,-6.83233e+08,-6.82815e+08,-6.83089e+08,-841855,0.0878787,0.446578,0,0.455143,15308.3,-24871.4,0,29205,841855
step02_gravity_refstate-crust.xmf,1300,-3.42897e-06,7.21648e-06,0,-1.73163e-06,-5.96936e+08,-5.96205e+08,-5.967e+08,-118790,0.0145574,0.213677,0,0.214172,35693,-21729.3,0,41787,118790
step02_gravity_refstate-crust.xmf,1301,-3.51601e-06,7.23264e-06,0,-2.85075e-06,-5.96583e+08,-5.95846e+08,-5.96342e+08,-195561,0.0238688,0.226529,0,0.227783,33002.6,-21716.2,0,39506.5,195561
step02_gravity_refstate-crust.xmf,1302,-3.60371e-06,7.23967e-06,0,-3.96004e-06,-5.98205e+08,-5.97461e+08,-5.97958e+08,-271659,0.03285,0.243724,0,0.245928,30466.7,-21774.9,0,37448.2,271659
step02_gravity_refstate-crust.xmf,1303,-2.55356e-06,4.97744e-06,0,-9.85375e-06,-6.13107e+08,-6.12591e+08,-6.12932e+08,-675967,0.0739579,0.395042,0,0.401905,18544.8,-22318.2,0,29017.4,675967
step02_gravity_refstate-crust.xmf,1304,-3.71825e-06,7.39134e-06,0,-5.46083e-06,-6.17681e+08,-6.16919e+08,-6.17426e+08,-374613,0.0449175,0.269861,0,0.273574,27149.7,-22483.7,0,35250.9,374613
step02_gravity_refstate-crust.xmf,1305,-3.68918e-06,7.1746e-06,0,-6.34923e-06,-6.15336e+08,-6.14591e+08,-6.15083e+08,-435557,0.0514813,0.291137,0,0.295654,25375,-22398.1,0,33846.2,435557
step02_gravity_refstate-crust.xmf,1306,-3.02308e-06,5.75984e-06,0,-9.04697e-06,-6.1269e+08,-6.12087e+08,-6.12482e+08,-620622,0.0693864,0.367458,0,0.373952,20162.5,-22302.3,0,30065.2,620622
step02_gravity_refstate-crust.xmf,1307,-3.58392e-06,6.85996e-06,0,-7.25657e-06,-6.14403e+08,-6.13686e+08,-6.14157e+08,-497801,0.0578951,0.314551,0,0.319834,23609.9,-22364.1,0,32520.5,497801
step02_gravity_refstate-crust.xmf,1308,-3.36935e-06,6.39507e-06,0,-8.16864e-06,-6.13536e+08,-6.12866e+08,-6.13305e+08,-560369,0.0639624,0.340216,0,0.346177,21862.8,-22332.7,0,31252.7,560369
step02_gravity_refstate-crust.xmf,1309,-2.78287e-06,5.22236e-06,0,-1.0611e-05,-6.52148e+08,-6.51599e+08,-6.51957e+08,-727912,0.0791674,0.403275,0,0.410973,17700.7,-23738.9,0,29611.7,727912
step02_gravity_refstate-crust.xmf,1310,-3.36325e-06,7.18688e-06,0,-2.69792e-09,-5.96783e+08,-5.96059e+08,-5.96552e+08,-185.077,4.01866e-19,0.205948,0,0.205948,40000,-21724,0,45518.5,185.077
step02_gravity_refstate-crust.xmf,1311,4.12739e-05,-8.93422e-05,0,-4.29415e-05,-1.08629e+09,-1.09525e+09,-1.08912e+09,-2.94579e+06,0.0989388,1.27516,0,1.27899,2247.9,-39576,0,39639.8,2.94579e+06
step02_gravity_refstate-crust.xmf,1312,4.03033e-05,-9.75481e-05,0,-3.64031e-05,-1.09839e+09,-1.10785e+09,-1.10115e+09,-2.49725e+06,0.0828795,1.33807,0,1.34063,1997.54,-40000,0,40049.8,2.49725e+06
step02_gravity_refstate-crust.xmf,1313,3.91917e-05,-7.96378e-05,0,-4.81825e-05,-1.0753e+09,-1.08345e+09,-1.07799e+09,-3.30532e+06,0.111962,1.21686,0,1.222,2503.9,-39182.5,0,39262.5,3.30532e+06
step02_gravity_refstate-crust.xmf,1314,-1.68731e-06,3.11182e-06,0,-1.34507e-05,-7.10764e+08,-7.10435e+08,-7.10648e+08,-922718,0.0935913,0.473901,0,0.483054,13935.6,-25874.1,0,29388.2,922718
step02_gravity_refstate-crust.xmf,1315,3.9931e-07,-8.38555e-07,0,-1.75666e-05,-7.90149e+08,-7.90234e+08,-7.90177e+08,-1.20507e+06,0.108227,0.563959,0,0.57425,10403.8,-28766.5,0,30590,1.20507e+06
step02_gravity_refstate-crust.xmf,1316,1.52359e-05,-3.16601e-05,0,-4.1988e-05,-1.00477e+09,-1.00798e+09,-1.00581e+09,-2.88037e+06,0.135182,0.937748,0,0.947441,4161.79,-36592.1,0,36828,2.88037e+06
step02_gravity_refstate-crust.xmf,1317,1.281e-05,-2.68477e-05,0,-3.92917e-05,-9.91161e+08,-9.93882e+08,-9.9204e+08,-2.69541e+06,0.135175,0.897652,0,0.907773,4525.02,-36094.5,0,36377,2.69541e+06
step02_gravity_refstate-crust.xmf,1318,1.1452e-05,-2.36171e-05,0,-3.63728e-05,-9.75658e+08,-9.78063e+08,-9.76443e+08,-2.49518e+06,0.133061,0.864557,0,0.874736,4815,-35529.6,0,35854.3,2.49518e+06
step02_gravity_refstate-crust.xmf,1319,7.86402e-06,-1.41209e-05,0,-2.494e-05,-8.87016e+08,-8.88524e+08,-8.87556e+08,-1.71088e+06,0.116691,0.736956,0,0.746137,6166.26,-32302.7,0,32885.9,1.71088e+06
step02_gravity_refstate-crust.xmf,1320,9.36687e-06,-1.70779e-05,0,-2.70111e-05,-9.08651e+08,-9.10465e+08,-9.09294e+08,-1.85296e+06,0.118929,0.771444,0,0.780557,5649.98,-33091.8,0,33570.7,1.85296e+06
step02_gravity_refstate-crust.xmf,1321,1.07042e-05,-2.13818e-05,0,-3.36894e-05,-9.60182e+08,-9.62383e+08,-9.60916e+08,-2.31109e+06,0.130078,0.838372,0,0.848403,5039.72,-34966.6,0,35327.9,2.31109e+06
step02_gravity_refstate-crust.xmf,1322,8.78242e-06,-1.80391e-05,0,-3.20393e-05,-9.4802e+08,-9.4986e+08,-9.48622e+08,-2.19789e+06,0.130111,0.80534,0,0.815782,5471.22,-34521.2,0,34952.1,2.19789e+06
step02_gravity_refstate-crust.xmf,1323,3.22516e-06,-6.10243e-06,0,-2.11984e-05,-8.40867e+08,-8.41507e+08,-8.41088e+08,-1.45421e+06,0.114941,0.644357,0,0.654529,8142.01,-30616.2,0,31680.3,1.45421e+06
step02_gravity_refstate-crust.xmf,1324,6.5223e-07,-1.77971e-06,0,-1.90748e-05,-8.16065e+08,-8.16232e+08,-8.1611e+08,-1.30853e+06,0.112676,0.585737,0,0.596476,9750.38,-29709.6,0,31268.6,1.30853e+06
step02_gravity_refstate-crust.xmf,1325,-2.82886e-06,5.19257e-06,0,-1.13515e-05,-6.79121e+08,-6.78571e+08,-6.78927e+08,-778715,0.0838024,0.415832,0,0.424192,16805,-24720.7,0,29891.8,778715
step02_gravity_refstate-crust.xmf,1326,-3.70396e-06,7.53276e-06,0,-4.70096e-06,-6.21692e+08,-6.20921e+08,-6.21438e+08,-322486,0.0391273,0.252841,0,0.25585,28709.4,-22630,0,36556.1,322486
step02_gravity_refstate-crust.xmf,1327,-3.30825e-06,7.5619e-06,0,-6.78537e-07,-6.29756e+08,-6.2901e+08,-6.29529e+08,-46547.6,0.00577815,0.198375,0,0.198459,38249.1,-22925.2,0,44593.3,46547.6
step02_gravity_refstate-crust.xmf,1328,1.75495e-05,-3.65982e-05,0,-4.61486e-05,-1.0223e+09,-1.02602e+09,-1.02351e+09,-3.16579e+06,0.137102,0.981372,0,0.990902,3877.58,-37232.4,0,37433.7,3.16579e+06
step02_gravity_refstate-crust.xmf,1329,2.22544e-05,-4.57631e-05,0,-4.98445e-05,-1.03849e+09,-1.04316e+09,-1.04002e+09,-3.41933e+06,0.134807,1.04079,0,1.04948,3465.91,-37826.6,0,37985.1,3.41933e+06
step02_gravity_refstate-crust.xmf,1330,2.75562e-05,-5.55878e-05,0,-5.27064e-05,-1.05279e+09,-1.05849e+09,-1.05468e+09,-3.61566e+06,0.131382,1.09682,0,1.10466,3148.96,-38353.2,0,38482.2,3.61566e+06
step02_gravity_refstate-crust.xmf,1331,3.39885e-05,-6.74737e-05,0,-5.20684e-05,-1.06447e+09,-1.07143e+09,-1.0668e+09,-3.57189e+06,0.12346,1.15632,0,1.16289,2816.62,-38786.2,0,38888.4,3.57189e+06
step02_gravity_refstate-crust.xmf,1332,3.81481e-05,-8.05365e-05,0,-5.38885e-05,-1.08664e+09,-1.09478e+09,-1.08926e+09,-3.69675e+06,0.118341,1.22369,0,1.2294,2740.61,-39589.8,0,39684.6,3.69675e+06
step02_gravity_refstate-crust.xmf,1333,-1.64732e-06,2.80322e-06,0,-1.45037e-05,-7.40392e+08,-7.40086e+08,-7.40279e+08,-994955,0.0985921,0.490058,0,0.499878,13143.2,-26952.4,0,29986.2,994955
step02_gravity_refstate-crust.xmf,1334,-1.22445e-06,1.48436e-06,0,-1.6975e-05,-7.92031e+08,-7.91845e+08,-7.91947e+08,-1.16449e+06,0.108067,0.531661,0,0.542533,11478.6,-28832,0,31033,1.16449e+06
step02_gravity_refstate-crust.xmf,1335,-1.56868e-06,2.37965e-06,0,-1.56469e-05,-7.68032e+08,-7.67762e+08,-7.67925e+08,-1.07338e+06,0.103439,0.507679,0,0.51811,12377.1,-27958.3,0,30575.5,1.07338e+06
step02_gravity_refstate-crust.xmf,1336,3.6726e-06,-7.35746e-06,0,-2.29751e-05,-8.64777e+08,-8.65534e+08,-8.65029e+08,-1.57609e+06,0.119086,0.667684,0,0.67822,7672.35,-31486.5,0,32407.8,1.57609e+06
step02_gravity_refstate-crust.xmf,1337,7.29791e-06,-1.48098e-05,0,-2.97534e-05,-9.31506e+08,-9.33022e+08,-9.32006e+08,-2.04108e+06,0.128428,0.771563,0,0.782179,5923.56,-33919,0,34432.3,2.04108e+06
step02_gravity_refstate-crust.xmf,1338,9.4815e-07,-2.73251e-06,0,-2.06834e-05,-8.41289e+08,-8.41541e+08,-8.41354e+08,-1.41888e+06,0.117119,0.608317,0,0.619489,9149.68,-30627.6,0,31965,1.41888e+06
step02_gravity_refstate-crust.xmf,1339,-3.39369e-06,5.94788e-06,0,-1.17695e-05,-7.1672e+08,-7.16079e+08,-7.16487e+08,-807384,0.0871607,0.411852,0,0.420974,16631.8,-26088.4,0,30939,807384
step02_gravity_refstate-crust.xmf,1340,-3.43879e-06,7.86005e-06,0,-2.29518e-06,-6.49305e+08,-6.4853e+08,-6.49069e+08,-157450,0.0197042,0.206384,0,0.207322,34043.5,-23636.9,0,41444.7,157450
step02_gravity_refstate-crust.xmf,1341,-3.58278e-06,7.91945e-06,0,-3.24231e-06,-6.49507e+08,-6.48718e+08,-6.49261e+08,-222422,0.0276724,0.219856,0,0.221591,31763.6,-23643.7,0,39597.4,222422
step02_gravity_refstate-crust.xmf,1342,-3.72317e-06,8.00669e-06,0,-4.1366e-06,-6.53953e+08,-6.53148e+08,-6.53697e+08,-283771,0.0351022,0.234644,0,0.237255,29702.7,-23805.1,0,38064.8,283771
step02_gravity_refstate-crust.xmf,1343,-3.31563e-06,6.21782e-06,0,-9.70379e-06,-6.55579e+08,-6.54925e+08,-6.55351e+08,-665680,0.0744976,0.372966,0,0.380334,19300.1,-23863.2,0,30691.2,665680
step02_gravity_refstate-crust.xmf,1344,-3.84495e-06,8.04846e-06,0,-4.98335e-06,-6.57974e+08,-6.57159e+08,-6.57711e+08,-341858,0.0419477,0.250866,0,0.254349,27872.7,-23951.1,0,36749.7,341858
step02_gravity_refstate-crust.xmf,1345,-3.91955e-06,7.95611e-06,0,-5.85398e-06,-6.57422e+08,-6.56608e+08,-6.57154e+08,-401583,0.0486594,0.270221,0,0.274567,26143,-23930.6,0,35441.9,401583
step02_gravity_refstate-crust.xmf,1346,-3.93222e-06,7.74967e-06,0,-6.79015e-06,-6.56387e+08,-6.55586e+08,-6.56117e+08,-465805,0.0555451,0.292732,0,0.297955,24389.5,-23892.5,0,34142.3,465805
step02_gravity_refstate-crust.xmf,1347,-3.65719e-06,6.91026e-06,0,-8.7288e-06,-6.55169e+08,-6.54444e+08,-6.54918e+08,-598796,0.0686095,0.344234,0,0.351005,20975.4,-23848,0,31759.9,598796
step02_gravity_refstate-crust.xmf,1348,-3.85559e-06,7.41563e-06,0,-7.75017e-06,-6.55781e+08,-6.55007e+08,-6.55516e+08,-531661,0.0622363,0.317354,0,0.323399,22671.5,-23870.2,0,32920.9,531661
step02_gravity_refstate-crust.xmf,1349,-3.63109e-06,6.60368e-06,0,-1.05183e-05,-6.96315e+08,-6.95613e+08,-6.96066e+08,-721555,0.0801996,0.382692,0,0.391005,18275.5,-25345.6,0,31247.3,721555
step02_gravity_refstate-crust.xmf,1350,-3.20679e-06,7.89942e-06,0,-4.41693e-09,-6.62725e+08,-6.61963e+08,-6.62505e+08,-303.002,4.11023e-19,0.187824,0,0.187824,40000,-24126.4,0,46712.8,303.002
step02_gravity_refstate-crust.xmf,1351,-3.30542e-06,7.91662e-06,0,-1.4169e-06,-6.59329e+08,-6.58559e+08,-6.59102e+08,-97199.6,0.0122561,0.194699,0,0.195084,36221.5,-24002.4,0,43452.4,97199.6
step02_gravity_refstate-crust.xmf,1352,3.85718e-05,-9.06239e-05,0,-4.6959e-05,-1.09829e+09,-1.10715e+09,-1.10093e+09,-3.22139e+06,0.102589,1.28702,0,1.2911,2497.35,-40000,0,40077.9,3.22139e+06
step02_gravity_refstate-crust.xmf,1353,3.45152e-05,-7.01176e-05,0,-5.70101e-05,-1.07623e+09,-1.0834e+09,-1.07859e+09,-3.91089e+06,0.127908,1.17203,0,1.17899,2940.66,-39212.2,0,39322.3,3.91089e+06
step02_gravity_refstate-crust.xmf,1354,1.15873e-05,-2.69036e-05,0,-4.5005e-05,-1.01703e+09,-1.01967e+09,-1.01782e+09,-3.08734e+06,0.143445,0.928391,0,0.939407,4450.69,-37031.1,0,37297.6,3.08734e+06
step02_gravity_refstate-crust.xmf,1355,-2.68292e-06,4.75123e-06,0,-1.27908e-05,-7.20241e+08,-7.19731e+08,-7.20057e+08,-877449,0.0918537,0.443402,0,0.452816,15186.8,-26217.6,0,30298.6,877449
step02_gravity_refstate-crust.xmf,1356,-2.71682e-06,4.53761e-06,0,-1.36596e-05,-7.43191e+08,-7.42693e+08,-7.43005e+08,-937050,0.0961229,0.45771,0,0.467695,14421.3,-27052.6,0,30656.5,937050
step02_gravity_refstate-crust.xmf,1357,-1.12962e-06,1.08411e-06,0,-1.82304e-05,-8.17961e+08,-8.17809e+08,-8.17883e+08,-1.2506e+06,0.112693,0.549488,0,0.560925,10863.6,-29775.8,0,31695.7,1.2506e+06
step02_gravity_refstate-crust.xmf,1358,4.54155e-06,-9.10623e-06,0,-2.48743e-05,-8.87636e+08,-8.88573e+08,-8.87948e+08,-1.70638e+06,0.122745,0.696671,0,0.707402,7127.6,-32319.6,0,33096.2,1.70638e+06
step02_gravity_refstate-crust.xmf,1359,8.57105e-06,-2.17025e-05,0,-4.26812e-05,-1.00759e+09,-1.00967e+09,-1.00818e+09,-2.92793e+06,0.144542,0.886938,0,0.898638,4871.53,-36683.4,0,37005.4,2.92793e+06
step02_gravity_refstate-crust.xmf,1360,6.79557e-06,-1.64529e-05,0,-3.52966e-05,-9.70042e+08,-9.71636e+08,-9.70508e+08,-2.42135e+06,0.138001,0.813047,0,0.824675,5574.21,-35317.4,0,35754.5,2.42135e+06
step02_gravity_refstate-crust.xmf,1361,7.47304e-06,-1.87848e-05,0,-3.89033e-05,-9.90152e+08,-9.91953e+08,-9.90664e+08,-2.66877e+06,0.141825,0.848614,0,0.860384,5224.29,-36048.6,0,36425.2,2.66877e+06
step02_gravity_refstate-crust.xmf,1362,5.22714e-06,-1.12485e-05,0,-2.76899e-05,-9.13934e+08,-9.15064e+08,-9.14292e+08,-1.89953e+06,0.127315,0.73069,0,0.741698,6585.55,-33276.4,0,33921.8,1.89953e+06
step02_gravity_refstate-crust.xmf,1363,5.1162e-06,-1.29046e-05,0,-3.24887e-05,-9.53603e+08,-9.5484e+08,-9.53954e+08,-2.22873e+06,0.136185,0.773031,0,0.784935,6103.15,-34717.6,0,35250,2.22873e+06
step02_gravity_refstate-crust.xmf,1364,1.19311e-06,-3.68174e-06,0,-2.24453e-05,-8.65667e+08,-8.66001e+08,-8.65749e+08,-1.53975e+06,0.121553,0.631187,0,0.642784,8611.34,-31514.6,0,32669.9,1.53975e+06
step02_gravity_refstate-crust.xmf,1365,-1.11355e-06,4.35428e-07,0,-1.98132e-05,-8.43327e+08,-8.43221e+08,-8.43251e+08,-1.35919e+06,0.117389,0.570548,0,0.582499,10216.6,-30698.3,0,32353.8,1.35919e+06
step02_gravity_refstate-crust.xmf,1366,1.13177e-05,-2.76404e-05,0,-4.81997e-05,-1.02949e+09,-1.03216e+09,-1.03026e+09,-3.3065e+06,0.146616,0.947162,0,0.958443,4374.44,-37482.5,0,37736.9,3.3065e+06
step02_gravity_refstate-crust.xmf,1367,-3.13193e-06,8.18655e-06,0,-6.77192e-07,-6.89893e+08,-6.89116e+08,-6.89678e+08,-46455.4,0.00591911,0.181351,0,0.181448,38099.8,-25116.2,0,45633.6,46455.4
step02_gravity_refstate-crust.xmf,1368,1.42198e-05,-3.35315e-05,0,-5.17925e-05,-1.04015e+09,-1.04342e+09,-1.04112e+09,-3.55296e+06,0.145826,0.988786,0,0.999481,4047.46,-37873.2,0,38088.8,3.55296e+06
step02_gravity_refstate-crust.xmf,1369,1.81976e-05,-4.13972e-05,0,-5.68458e-05,-1.05458e+09,-1.05866e+09,-1.05582e+09,-3.89962e+06,0.144683,1.0415,0,1.0515,3714.25,-38402.4,0,38581.6,3.89962e+06
step02_gravity_refstate-crust.xmf,1370,2.52956e-05,-5.43833e-05,0,-6.16638e-05,-1.0695e+09,-1.07496e+09,-1.07123e+09,-4.23014e+06,0.140481,1.10561,0,1.1145,3370.2,-38954.3,0,39099.8,4.23014e+06
step02_gravity_refstate-crust.xmf,1371,3.21967e-05,-6.64342e-05,0,-6.60547e-05,-1.08608e+09,-1.09285e+09,-1.08829e+09,-4.53135e+06,0.136418,1.15715,0,1.16516,3247.35,-39567.3,0,39700.3,4.53135e+06
step02_gravity_refstate-crust.xmf,1372,3.57424e-05,-8.01188e-05,0,-5.8344e-05,-1.09816e+09,-1.1061e+09,-1.10061e+09,-4.0024e+06,0.121135,1.2234,0,1.22939,2997.53,-40000,0,40112.2,4.0024e+06
step02_gravity_refstate-crust.xmf,1373,-3.56027e-06,6.08677e-06,0,-1.26348e-05,-7.47871e+08,-7.4721e+08,-7.47627e+08,-866746,0.0922737,0.424578,0,0.43449,15763.2,-27222,0,31456.6,866746
step02_gravity_refstate-crust.xmf,1374,-2.80176e-06,4.41399e-06,0,-1.46207e-05,-7.69285e+08,-7.6879e+08,-7.69093e+08,-1.00298e+06,0.100715,0.472052,0,0.482676,13691.3,-28002.1,0,31170,1.00298e+06
step02_gravity_refstate-crust.xmf,1375,-2.74871e-06,3.55866e-06,0,-1.72101e-05,-8.21164e+08,-8.20732e+08,-8.20976e+08,-1.18061e+06,0.110866,0.512867,0,0.524713,12006.5,-29889.7,0,32211,1.18061e+06
step02_gravity_refstate-crust.xmf,1376,-2.97506e-06,4.33509e-06,0,-1.57865e-05,-7.98432e+08,-7.97931e+08,-7.98228e+08,-1.08295e+06,0.105711,0.487283,0,0.498618,12969.8,-29062.4,0,31825.1,1.08295e+06
step02_gravity_refstate-crust.xmf,1377,1.51284e-06,-4.82561e-06,0,-2.43856e-05,-8.88637e+08,-8.89072e+08,-8.88741e+08,-1.67285e+06,0.125794,0.656273,0,0.66822,8080.82,-32350.4,0,33344.3,1.67285e+06
step02_gravity_refstate-crust.xmf,1378,4.26065e-06,-1.07373e-05,0,-3.01616e-05,-9.37659e+08,-9.38687e+08,-9.37951e+08,-2.06909e+06,0.133633,0.743315,0,0.755232,6522.03,-34137,0,34754.5,2.06909e+06
step02_gravity_refstate-crust.xmf,1379,-1.03566e-06,-2.3574e-07,0,-2.14667e-05,-8.67162e+08,-8.67107e+08,-8.67091e+08,-1.47262e+06,0.121902,0.592492,0,0.604902,9614.76,-31565.3,0,32997.2,1.47262e+06
step02_gravity_refstate-crust.xmf,1380,6.49821e-06,-2.01167e-05,0,-4.65979e-05,-1.02635e+09,-1.02817e+09,-1.02679e+09,-3.19662e+06,0.150121,0.900413,0,0.912842,4880.09,-37360.4,0,37677.8,3.19662e+06
step02_gravity_refstate-crust.xmf,1381,-4.14731e-06,7.38967e-06,0,-1.07897e-05,-7.34715e+08,-7.33924e+08,-7.34431e+08,-740171,0.082776,0.377816,0,0.386778,18033,-26742.7,0,32254.7,740171
step02_gravity_refstate-crust.xmf,1382,-3.28538e-06,8.37085e-06,0,-1.86755e-06,-6.98105e+08,-6.97305e+08,-6.97879e+08,-128114,0.0164312,0.188607,0,0.189322,34766.3,-25414.9,0,43065.2,128114
step02_gravity_refstate-crust.xmf,1383,-3.45609e-06,8.43353e-06,0,-2.65037e-06,-6.95216e+08,-6.94401e+08,-6.94979e+08,-181815,0.023203,0.199766,0,0.201109,32766.2,-25309.1,0,41402.6,181815
step02_gravity_refstate-crust.xmf,1384,-3.66022e-06,8.55338e-06,0,-3.5207e-06,-6.96878e+08,-6.9604e+08,-6.96627e+08,-241520,0.0306472,0.213857,0,0.216041,30650.5,-25369,0,39787.4,241520
step02_gravity_refstate-crust.xmf,1385,-3.85993e-06,8.64033e-06,0,-4.38276e-06,-6.98381e+08,-6.97524e+08,-6.98116e+08,-300657,0.0378283,0.230148,0,0.233236,28720.8,-25423,0,38356.4,300657
step02_gravity_refstate-crust.xmf,1386,-4.00103e-06,7.45821e-06,0,-9.29904e-06,-6.95853e+08,-6.95066e+08,-6.95578e+08,-637914,0.073209,0.348645,0,0.356248,20099.8,-25328.6,0,32334.8,637914
step02_gravity_refstate-crust.xmf,1387,-4.03662e-06,8.66003e-06,0,-5.26624e-06,-6.98942e+08,-6.98071e+08,-6.98665e+08,-361264,0.0449351,0.248773,0,0.252799,26911.4,-25442.8,0,37034.6,361264
step02_gravity_refstate-crust.xmf,1388,-4.16565e-06,8.57382e-06,0,-6.19889e-06,-6.98065e+08,-6.97191e+08,-6.97779e+08,-425244,0.0520959,0.270089,0,0.275067,25167.2,-25410.2,0,35764,425244
step02_gravity_refstate-crust.xmf,1389,-4.22479e-06,8.37158e-06,0,-7.18645e-06,-6.97342e+08,-6.96478e+08,-6.97052e+08,-492991,0.0592994,0.293868,0,0.299791,23451.6,-25383.3,0,34558.5,492991
step02_gravity_refstate-crust.xmf,1390,-4.18073e-06,8.01295e-06,0,-8.21762e-06,-6.96463e+08,-6.95627e+08,-6.96176e+08,-563729,0.0663528,0.319941,0,0.326749,21774.7,-25350.9,0,33418.7,563729
step02_gravity_refstate-crust.xmf,1391,-2.93001e-06,8.50073e-06,0,-7.37516e-09,-7.2737e+08,-7.26586e+08,-7.27169e+08,-505.936,4.38796e-19,0.168499,0,0.168499,40000,-26481.9,0,47971.8,505.936
step02_gravity_refstate-crust.xmf,1392,-3.14022e-06,8.40828e-06,0,-1.22407e-06,-7.08855e+08,-7.08063e+08,-7.08639e+08,-83971,0.0108725,0.179305,0,0.179634,36444.4,-25806.9,0,44656.3,83971
step02_gravity_refstate-crust.xmf,1393,-4.28077e-06,7.36928e-06,0,-1.15953e-05,-7.55401e+08,-7.54602e+08,-7.55107e+08,-795439,0.0874188,0.392305,0,0.401927,17096.5,-27495.2,0,32377.1,795439
step02_gravity_refstate-crust.xmf,1394,-3.76071e-06,6.08767e-06,0,-1.35355e-05,-7.73184e+08,-7.72509e+08,-7.72926e+08,-928533,0.0967631,0.437648,0,0.448217,14994.4,-28142.8,0,31888.1,928533
step02_gravity_refstate-crust.xmf,1395,-2.74339e-06,3.223e-06,0,-1.85493e-05,-8.45046e+08,-8.44637e+08,-8.44858e+08,-1.27248e+06,0.115449,0.532091,0,0.544472,11325.8,-30758.7,0,32777.5,1.27248e+06
step02_gravity_refstate-crust.xmf,1396,1.95937e-06,-6.04727e-06,0,-2.65262e-05,-9.11407e+08,-9.11956e+08,-9.11542e+08,-1.8197e+06,0.130092,0.683738,0,0.696004,7564.66,-33179.3,0,34030.7,1.8197e+06
step02_gravity_refstate-crust.xmf,1397,3.31421e-06,-1.35054e-05,0,-4.09579e-05,-1.00672e+09,-1.00788e+09,-1.00695e+09,-2.80971e+06,0.148428,0.832833,0,0.845956,5577.17,-36643.2,0,37065.2,2.80971e+06
step02_gravity_refstate-crust.xmf,1398,2.81094e-06,-1.15564e-05,0,-3.75265e-05,-9.90002e+08,-9.90988e+08,-9.90195e+08,-2.57432e+06,0.145446,0.798933,0,0.812064,5946.51,-36035.5,0,36522.9,2.57432e+06
step02_gravity_refstate-crust.xmf,1399,2.29165e-06,-9.62256e-06,0,-3.43564e-05,-9.72407e+08,-9.73224e+08,-9.72564e+08,-2.35685e+06,0.142188,0.765259,0,0.778357,6362.5,-35395.8,0,35963.1,2.35685e+06
step02_gravity_refstate-crust.xmf,1400,1.86056e-06,-7.91773e-06,0,-3.15195e-05,-9.54092e+08,-9.54763e+08,-9.5422e+08,-2.16224e+06,0.138692,0.733818,0,0.746809,6797.41,-34729.9,0,35388.9,2.16224e+06
step02_gravity_refstate-crust.xmf,1401,1.84944e-06,-6.96438e-06,0,-2.90266e-05,-9.34006e+08,-9.34611e+08,-9.34133e+08,-1.99123e+06,0.134633,0.708563,0,0.72124,7166.6,-34000.1,0,34747.2,1.99123e+06
step02_gravity_refstate-crust.xmf,1402,-9.46722e-07,-1.00196e-06,0,-2.3308e-05,-8.902e+08,-8.90204e+08,-8.90135e+08,-1.59893e+06,0.126354,0.616104,0,0.628928,9036.11,-32403.2,0,33639.6,1.59893e+06
step02_gravity_refstate-crust.xmf,1403,-2.93274e-06,2.8615e-06,0,-2.01205e-05,-8.69167e+08,-8.6877e+08,-8.68966e+08,-1.38027e+06,0.120052,0.552138,0,0.565039,10684,-31635.5,0,33390.9,1.38027e+06
step02_gravity_refstate-crust.xmf,1404,7.25814e-06,-2.23106e-05,0,-5.08639e-05,-1.04198e+09,-1.04401e+09,-1.04248e+09,-3.48926e+06,0.152251,0.936773,0,0.949065,4610.18,-37929.1,0,38208.2,3.48926e+06
step02_gravity_refstate-crust.xmf,1405,-4.42109e-06,8.09281e-06,0,-9.79933e-06,-7.35308e+08,-7.3445e+08,-7.35005e+08,-672234,0.0771992,0.351633,0,0.360008,19337.8,-26764.3,0,33019.3,672234
step02_gravity_refstate-crust.xmf,1406,-2.84373e-06,8.75657e-06,0,-7.06494e-07,-7.54198e+08,-7.53403e+08,-7.54003e+08,-48465.5,0.00632226,0.162115,0,0.162238,37735.4,-27459.4,0,46668.9,48465.5
step02_gravity_refstate-crust.xmf,1407,-3.01494e-06,8.8042e-06,0,-1.43465e-06,-7.48496e+08,-7.47685e+08,-7.48289e+08,-98416.8,0.0129266,0.169934,0,0.170425,35501.6,-27251.2,0,44754.8,98416.8
step02_gravity_refstate-crust.xmf,1408,9.02022e-06,-2.67084e-05,0,-5.61217e-05,-1.05571e+09,-1.05816e+09,-1.05633e+09,-3.84995e+06,0.152794,0.980449,0,0.992283,4296.91,-38429.4,0,38668.9,3.84995e+06
step02_gravity_refstate-crust.xmf,1409,1.20226e-05,-3.24455e-05,0,-6.25877e-05,-1.06979e+09,-1.07284e+09,-1.07062e+09,-4.29352e+06,0.152023,1.03053,0,1.04168,3987.58,-38945.3,0,39148.9,4.29352e+06
step02_gravity_refstate-crust.xmf,1410,1.77358e-05,-4.2073e-05,0,-7.22418e-05,-1.08308e+09,-1.08719e+09,-1.0843e+09,-4.95579e+06,0.14934,1.08082,0,1.09109,3738.97,-39437.4,0,39614.2,4.95579e+06
step02_gravity_refstate-crust.xmf,1411,3.19405e-05,-6.28904e-05,0,-7.2284e-05,-1.09785e+09,-1.10435e+09,-1.10004e+09,-4.95868e+06,0.137789,1.14691,0,1.15516,3497.18,-40000,0,40152.6,4.95868e+06
step02_gravity_refstate-crust.xmf,1412,3.62976e-06,-1.4931e-05,0,-4.38593e-05,-1.01934e+09,-1.02061e+09,-1.01959e+09,-3.00875e+06,0.150574,0.859118,0,0.872214,5322.79,-37101.5,0,37481.4,3.00875e+06
step02_gravity_refstate-crust.xmf,1413,-4.45407e-06,7.49108e-06,0,-1.24244e-05,-7.8092e+08,-7.80101e+08,-7.80615e+08,-852315,0.0921449,0.405881,0,0.416209,16208.2,-28423.8,0,32720.3,852315
step02_gravity_refstate-crust.xmf,1414,-4.87831e-06,8.69935e-06,0,-1.04202e-05,-7.73301e+08,-7.72369e+08,-7.72966e+08,-714824,0.0813443,0.357153,0,0.366299,18484.2,-28146.5,0,33673.3,714824
step02_gravity_refstate-crust.xmf,1415,-3.79971e-06,5.91594e-06,0,-1.44297e-05,-7.92614e+08,-7.91948e+08,-7.92353e+08,-989876,0.100911,0.453015,0,0.464119,14241.2,-28849.7,0,32173.2,989876
step02_gravity_refstate-crust.xmf,1416,-4.08368e-06,5.47097e-06,0,-1.72001e-05,-8.47074e+08,-8.46418e+08,-8.46794e+08,-1.17993e+06,0.111847,0.495258,0,0.507731,12426.1,-30830.5,0,33240.5,1.17993e+06
step02_gravity_refstate-crust.xmf,1417,-3.85675e-06,5.51061e-06,0,-1.61633e-05,-8.26584e+08,-8.25941e+08,-8.26319e+08,-1.1088e+06,0.10811,0.481579,0,0.493565,12992.8,-30085.5,0,32771.2,1.1088e+06
step02_gravity_refstate-crust.xmf,1418,-8.48296e-07,-1.87582e-06,0,-2.53416e-05,-9.12052e+08,-9.12122e+08,-9.11994e+08,-1.73843e+06,0.130662,0.641431,0,0.654603,8481.43,-33197.8,0,34264.1,1.73843e+06
step02_gravity_refstate-crust.xmf,1419,-2.89093e-06,2.16038e-06,0,-2.19098e-05,-8.91031e+08,-8.90685e+08,-8.90833e+08,-1.50301e+06,0.124665,0.577186,0,0.590496,9982.89,-32430.5,0,33932.3,1.50301e+06
step02_gravity_refstate-crust.xmf,1420,1.50338e-06,-1.32866e-05,0,-4.86567e-05,-1.04308e+09,-1.04409e+09,-1.04318e+09,-3.33785e+06,0.154863,0.884009,0,0.897472,5175.82,-37959.9,0,38311.1,3.33785e+06
step02_gravity_refstate-crust.xmf,1421,-3.22753e-06,8.88563e-06,0,-2.13321e-06,-7.43148e+08,-7.42317e+08,-7.42927e+08,-146338,0.019127,0.180221,0,0.181233,33554.3,-27055.8,0,43103.4,146338
step02_gravity_refstate-crust.xmf,1422,-3.47188e-06,9.02229e-06,0,-2.89004e-06,-7.4172e+08,-7.40862e+08,-7.41481e+08,-198257,0.0257836,0.192706,0,0.194424,31570.8,-27003,0,41543.6,198257
step02_gravity_refstate-crust.xmf,1423,-3.74776e-06,9.17603e-06,0,-3.71628e-06,-7.41919e+08,-7.41033e+08,-7.41662e+08,-254937,0.0329125,0.20815,0,0.210736,29582,-27009.4,0,40057.5,254937
step02_gravity_refstate-crust.xmf,1424,-4.02066e-06,9.28758e-06,0,-4.582e-06,-7.41692e+08,-7.40779e+08,-7.41417e+08,-314325,0.0401495,0.226102,0,0.229639,27712.9,-27000.2,0,38691.2,314325
step02_gravity_refstate-crust.xmf,1425,-4.56092e-06,8.6653e-06,0,-8.64447e-06,-7.36264e+08,-7.35357e+08,-7.35951e+08,-593011,0.0700228,0.322015,0,0.32954,20935.4,-26799.4,0,34007.3,593011
step02_gravity_refstate-crust.xmf,1426,-4.26469e-06,9.31276e-06,0,-5.50813e-06,-7.40145e+08,-7.39213e+08,-7.39852e+08,-377858,0.0475656,0.24676,0,0.251303,25933.5,-26942.9,0,37396.1,377858
step02_gravity_refstate-crust.xmf,1427,-4.45305e-06,9.23836e-06,0,-6.49034e-06,-7.3861e+08,-7.37671e+08,-7.38305e+08,-445237,0.0550594,0.269609,0,0.275174,24224.5,-26886.1,0,36189.6,445237
step02_gravity_refstate-crust.xmf,1428,-4.55953e-06,9.02187e-06,0,-7.55207e-06,-7.36815e+08,-7.35883e+08,-7.36502e+08,-518072,0.0626785,0.295135,0,0.301717,22543.9,-26820,0,35036.3,518072
step02_gravity_refstate-crust.xmf,1429,-2.51781e-06,8.97391e-06,0,-5.57293e-09,-7.909e+08,-7.90112e+08,-7.90727e+08,-382.303,2.97044e-19,0.148272,0,0.148272,40000,-28797.2,0,49287.7,382.303
step02_gravity_refstate-crust.xmf,1430,1.39632e-06,-1.19935e-05,0,-4.53306e-05,-1.0312e+09,-1.03212e+09,-1.0313e+09,-3.10968e+06,0.153263,0.857434,0,0.871024,5412.18,-37529.1,0,37917.4,3.10968e+06
step02_gravity_refstate-crust.xmf,1431,-8.71473e-07,-7.81396e-06,0,-4.24257e-05,-1.02487e+09,-1.02535e+09,-1.02481e+09,-2.9104e+06,0.152361,0.81645,0,0.830544,5877.15,-37295.9,0,37756.1,2.9104e+06
step02_gravity_refstate-crust.xmf,1432,-4.91025e-06,8.48221e-06,0,-1.13992e-05,-7.87411e+08,-7.86492e+08,-7.87074e+08,-781987,0.0870831,0.378263,0,0.388158,17311.2,-28659.8,0,33482.2,781987
step02_gravity_refstate-crust.xmf,1433,-4.37468e-06,6.6239e-06,0,-1.49352e-05,-8.19567e+08,-8.18813e+08,-8.19267e+08,-1.02455e+06,0.103494,0.453397,0,0.465059,14005.6,-29829.7,0,32954,1.02455e+06
step02_gravity_refstate-crust.xmf,1434,-4.78648e-06,7.68425e-06,0,-1.34655e-05,-8.09926e+08,-8.09071e+08,-8.09598e+08,-923735,0.0972336,0.420878,0,0.431964,15289.8,-29478.7,0,33208,923735
step02_gravity_refstate-crust.xmf,1435,-4.36847e-06,5.52789e-06,0,-1.84594e-05,-8.7121e+08,-8.70531e+08,-8.7091e+08,-1.26632e+06,0.116109,0.511358,0,0.524374,11806.1,-31708.2,0,33834.8,1.26632e+06
step02_gravity_refstate-crust.xmf,1436,-7.54877e-07,-2.61773e-06,0,-2.74772e-05,-9.33199e+08,-9.33327e+08,-9.33148e+08,-1.88493e+06,0.134856,0.666713,0,0.680215,7988.12,-33966.9,0,34893.6,1.88493e+06
step02_gravity_refstate-crust.xmf,1437,-9.93751e-07,-6.37104e-06,0,-3.87021e-05,-1.00827e+09,-1.00864e+09,-1.0082e+09,-2.65496e+06,0.149514,0.782782,0,0.796933,6259.92,-36693.2,0,37223.3,2.65496e+06
step02_gravity_refstate-crust.xmf,1438,-1.15718e-06,-5.16907e-06,0,-3.55285e-05,-9.9155e+08,-9.91825e+08,-9.91471e+08,-2.43725e+06,0.146353,0.749652,0,0.763804,6685.61,-36085.7,0,36699.8,2.43725e+06
step02_gravity_refstate-crust.xmf,1439,-1.13239e-06,-4.12139e-06,0,-3.25676e-05,-9.73236e+08,-9.73441e+08,-9.73159e+08,-2.23413e+06,0.142773,0.719213,0,0.733247,7119.06,-35420.7,0,36129,2.23413e+06
step02_gravity_refstate-crust.xmf,1440,-9.71687e-07,-3.37363e-06,0,-2.99418e-05,-9.537e+08,-9.53865e+08,-9.53633e+08,-2.05401e+06,0.138919,0.692296,0,0.706097,7541.8,-34711.2,0,35521.1,2.05401e+06
step02_gravity_refstate-crust.xmf,1441,-2.99753e-06,1.65117e-06,0,-2.38705e-05,-9.14328e+08,-9.14009e+08,-9.14123e+08,-1.63751e+06,0.129314,0.601977,0,0.61571,9357.69,-33277.5,0,34568.1,1.63751e+06
step02_gravity_refstate-crust.xmf,1442,-4.90257e-06,5.7005e-06,0,-2.00596e-05,-8.98001e+08,-8.97274e+08,-8.97665e+08,-1.37609e+06,0.120772,0.53051,0,0.544083,11138.7,-32681.6,0,34527.7,1.37609e+06
step02_gravity_refstate-crust.xmf,1443,2.27468e-06,-1.53044e-05,0,-5.30446e-05,-1.05691e+09,-1.05811e+09,-1.05706e+09,-3.63886e+06,0.156131,0.921527,0,0.93466,4865.8,-38463.2,0,38769.8,3.63886e+06
step02_gravity_refstate-crust.xmf,1444,-4.99218e-06,9.38203e-06,0,-9.03755e-06,-7.74697e+08,-7.73711e+08,-7.74355e+08,-619976,0.073252,0.324236,0,0.332408,20119.5,-28198,0,34639.8,619976
step02_gravity_refstate-crust.xmf,1445,-2.30558e-06,9.18277e-06,0,-4.68912e-07,-8.21302e+08,-8.20514e+08,-8.21144e+08,-32167.4,0.00421632,0.139533,0,0.139597,38141,-29905.2,0,48467.1,32167.4
step02_gravity_refstate-crust.xmf,1446,-2.61665e-06,9.14295e-06,0,-1.02836e-06,-7.99561e+08,-7.98754e+08,-7.99381e+08,-70545.6,0.00934903,0.15079,0,0.15108,36255.1,-29112.4,0,46496.9,70545.6
step02_gravity_refstate-crust.xmf,1447,-2.87731e-06,9.24255e-06,0,-1.64314e-06,-7.91831e+08,-7.91e+08,-7.91634e+08,-112719,0.0149778,0.160559,0,0.161256,34293.2,-28830.1,0,44801.8,112719
step02_gravity_refstate-crust.xmf,1448,3.5279e-06,-1.81001e-05,0,-5.86524e-05,-1.07079e+09,-1.07227e+09,-1.07103e+09,-4.02356e+06,0.156455,0.964406,0,0.977015,4550.47,-38969.5,0,39234.3,4.02356e+06
step02_gravity_refstate-crust.xmf,1449,6.04929e-06,-2.0818e-05,0,-6.48843e-05,-1.08472e+09,-1.08656e+09,-1.08514e+09,-4.45106e+06,0.155357,1.01013,0,1.02201,4261.32,-39482.6,0,39711.9,4.45106e+06
step02_gravity_refstate-crust.xmf,1450,-5.30474e-06,8.97583e-06,0,-1.19144e-05,-8.13602e+08,-8.12622e+08,-8.13238e+08,-817330,0.0899517,0.383488,0,0.393896,16732.6,-29612.4,0,34012.9,817330
step02_gravity_refstate-crust.xmf,1451,-5.48146e-06,9.69838e-06,0,-1.06117e-05,-8.13823e+08,-8.12781e+08,-8.13447e+08,-727960,0.0829132,0.353295,0,0.362894,18034.2,-29620.9,0,34678.9,727960
step02_gravity_refstate-crust.xmf,1452,-4.94047e-06,7.21102e-06,0,-1.5689e-05,-8.46677e+08,-8.45844e+08,-8.46338e+08,-1.07627e+06,0.106723,0.459833,0,0.472055,13556.1,-30815.3,0,33665.3,1.07627e+06
step02_gravity_refstate-crust.xmf,1453,-5.44806e-06,7.58858e-06,0,-1.67454e-05,-8.72679e+08,-8.71785e+08,-8.72305e+08,-1.14874e+06,0.110569,0.472356,0,0.485125,12941.1,-31760.5,0,34295.8,1.14874e+06
step02_gravity_refstate-crust.xmf,1454,-3.25608e-06,1.34068e-06,0,-2.57426e-05,-9.34506e+08,-9.34191e+08,-9.34283e+08,-1.76594e+06,0.133221,0.623286,0,0.637364,8872.57,-34010.5,0,35148.8,1.76594e+06
step02_gravity_refstate-crust.xmf,1455,-4.63067e-06,4.54851e-06,0,-2.20716e-05,-9.15006e+08,-9.14377e+08,-9.14689e+08,-1.51411e+06,0.125909,0.562448,0,0.576368,10269.1,-33300,0,34847.5,1.51411e+06
step02_gravity_refstate-crust.xmf,1456,-3.23495e-06,-5.27002e-06,0,-4.51388e-05,-1.04371e+09,-1.04385e+09,-1.04349e+09,-3.09652e+06,0.154365,0.826997,0,0.84128,5805.25,-37976.2,0,38417.4,3.09652e+06
step02_gravity_refstate-crust.xmf,1457,-2.80932e-06,-6.81435e-06,0,-4.93522e-05,-1.05761e+09,-1.05789e+09,-1.05742e+09,-3.38556e+06,0.155991,0.864945,0,0.878899,5430.21,-38481.5,0,38862.8,3.38556e+06
step02_gravity_refstate-crust.xmf,1458,-2.30192e-06,-7.96079e-06,0,-5.40251e-05,-1.07155e+09,-1.07193e+09,-1.07139e+09,-3.70612e+06,0.156764,0.901702,0,0.915227,5110.78,-38989,0,39322.6,3.70612e+06
step02_gravity_refstate-crust.xmf,1459,-5.47575e-06,1.0163e-05,0,-9.35402e-06,-8.12529e+08,-8.11456e+08,-8.12153e+08,-641686,0.0754328,0.324649,0,0.333298,19409.9,-29574.5,0,35375.1,641686
step02_gravity_refstate-crust.xmf,1460,-3.16324e-06,9.41149e-06,0,-2.30622e-06,-7.88669e+08,-7.87807e+08,-7.88452e+08,-158207,0.0209707,0.171903,0,0.173178,32343.5,-28714.1,0,43250.5,158207
step02_gravity_refstate-crust.xmf,1461,-3.48763e-06,9.61069e-06,0,-3.02692e-06,-7.87038e+08,-7.8614e+08,-7.86799e+08,-207646,0.0273857,0.185723,0,0.187731,30429.1,-28653.7,0,41796.7,207646
step02_gravity_refstate-crust.xmf,1462,-3.84284e-06,9.81048e-06,0,-3.82786e-06,-7.86008e+08,-7.85071e+08,-7.85744e+08,-262591,0.0343466,0.202443,0,0.205336,28536.8,-28615.1,0,40412.5,262591
step02_gravity_refstate-crust.xmf,1463,-4.19506e-06,9.95286e-06,0,-4.70465e-06,-7.83887e+08,-7.82917e+08,-7.836e+08,-322739,0.0416909,0.221949,0,0.22583,26737.3,-28536.6,0,39105.3,322739
step02_gravity_refstate-crust.xmf,1464,-4.93867e-06,9.73201e-06,0,-7.85649e-06,-7.75722e+08,-7.74716e+08,-7.75383e+08,-538955,0.0653975,0.295736,0,0.302881,21694.4,-28236,0,35607.9,538955
step02_gravity_refstate-crust.xmf,1465,-4.51432e-06,1.00042e-05,0,-5.66969e-06,-7.8095e+08,-7.79954e+08,-7.80641e+08,-388941,0.0494071,0.244184,0,0.249132,25005.3,-28428.5,0,37860.8,388941
step02_gravity_refstate-crust.xmf,1466,-4.77195e-06,9.9381e-06,0,-6.72665e-06,-7.77977e+08,-7.76968e+08,-7.7765e+08,-461448,0.0573977,0.268977,0,0.275033,23320.3,-28319.1,0,36685.3,461448
step02_gravity_refstate-crust.xmf,1467,-1.9388e-06,9.28958e-06,0,-9.69502e-09,-8.53494e+08,-8.52724e+08,-8.53361e+08,-665.078,2.2257e-19,0.127434,0,0.127434,40000,-31078.8,0,50654.7,665.078
step02_gravity_refstate-crust.xmf,1468,-4.51696e-06,-1.23319e-06,0,-3.86711e-05,-1.02388e+09,-1.02365e+09,-1.02357e+09,-2.65284e+06,0.150253,0.759802,0,0.774516,6597.82,-37255,0,37834.8,2.65284e+06
step02_gravity_refstate-crust.xmf,1469,-5.47941e-06,8.54822e-06,0,-1.4091e-05,-8.44383e+08,-8.43421e+08,-8.44008e+08,-966640,0.100233,0.424281,0,0.43596,14791.1,-30731.7,0,34105.9,966640
step02_gravity_refstate-crust.xmf,1470,-6.03061e-06,8.10117e-06,0,-1.7852e-05,-8.98777e+08,-8.97808e+08,-8.98364e+08,-1.22465e+06,0.114086,0.484871,0,0.498112,12360.9,-32709,0,34966.7,1.22465e+06
step02_gravity_refstate-crust.xmf,1471,-3.47984e-06,1.04156e-06,0,-2.78225e-05,-9.54619e+08,-9.54309e+08,-9.5438e+08,-1.90862e+06,0.137119,0.646783,0,0.661158,8388.74,-34741.4,0,35739.8,1.90862e+06
step02_gravity_refstate-crust.xmf,1472,-4.5677e-06,-2.30757e-07,0,-3.57134e-05,-1.00975e+09,-1.00945e+09,-1.00943e+09,-2.44994e+06,0.147587,0.729432,0,0.744213,7009.79,-36742,0,37404.7,2.44994e+06
step02_gravity_refstate-crust.xmf,1473,-4.41366e-06,3.97025e-07,0,-3.28568e-05,-9.93244e+08,-9.92914e+08,-9.92941e+08,-2.25397e+06,0.144348,0.698467,0,0.713226,7476.18,-36142.8,0,36907.9,2.25397e+06
step02_gravity_refstate-crust.xmf,1474,-4.017e-06,7.98884e-07,0,-3.02019e-05,-9.74502e+08,-9.74171e+08,-9.74226e+08,-2.07185e+06,0.140827,0.671052,0,0.68567,7936.39,-35462.7,0,36339.9,2.07185e+06
step02_gravity_refstate-crust.xmf,1475,-5.07643e-06,4.61069e-06,0,-2.37418e-05,-9.36033e+08,-9.35369e+08,-9.35685e+08,-1.62868e+06,0.129668,0.581533,0,0.595814,9756.27,-34063.8,0,35433.5,1.62868e+06
step02_gravity_refstate-crust.xmf,1476,-5.86276e-06,6.91029e-06,0,-2.05596e-05,-9.20643e+08,-9.19766e+08,-9.20241e+08,-1.41039e+06,0.122052,0.529047,0,0.542943,11045.7,-33503.9,0,35277.7,1.41039e+06
step02_gravity_refstate-crust.xmf,1477,-6.68376e-06,-4.09182e-07,0,-4.91891e-05,-1.0715e+09,-1.07107e+09,-1.07104e+09,-3.37438e+06,0.154254,0.843349,0,0.85734,5664.67,-38981.2,0,39390.7,3.37438e+06
step02_gravity_refstate-crust.xmf,1478,-5.33973e-06,1.04898e-05,0,-8.10363e-06,-8.12613e+08,-8.11527e+08,-8.12247e+08,-555909,0.0674777,0.29646,0,0.304042,20880.2,-29578.6,0,36206,555909
step02_gravity_refstate-crust.xmf,1479,-2.11607e-06,9.38455e-06,0,-7.20513e-07,-8.50374e+08,-8.49585e+08,-8.50229e+08,-49427.2,0.00649759,0.132274,0,0.132434,36773.1,-30964.7,0,48073.6,49427.2
step02_gravity_refstate-crust.xmf,1480,-1.60944e-06,9.42285e-06,0,-3.6489e-07,-8.85999e+08,-8.85242e+08,-8.85889e+08,-25031.5,0.00308377,0.117688,0,0.117729,38055.1,-32263.8,0,49891.3,25031.5
step02_gravity_refstate-crust.xmf,1481,-1.20614e-06,9.45336e-06,0,-4.59941e-09,-9.15334e+08,-9.14602e+08,-9.15251e+08,-315.519,8.1657e-20,0.106312,0,0.106312,40000,-33333.4,0,52068.4,315.519
step02_gravity_refstate-crust.xmf,1482,-2.38244e-06,9.4908e-06,0,-1.1719e-06,-8.41826e+08,-8.41012e+08,-8.41663e+08,-80392.5,0.0106593,0.140352,0,0.140756,35063.7,-30652.6,0,46573,80392.5
step02_gravity_refstate-crust.xmf,1483,-2.70686e-06,9.67941e-06,0,-1.7321e-06,-8.36237e+08,-8.35387e+08,-8.36051e+08,-118822,0.0158094,0.150823,0,0.151649,33143.5,-30448.1,0,45006.4,118822
step02_gravity_refstate-crust.xmf,1484,-1.36779e-06,-9.70854e-06,0,-6.02289e-05,-1.08532e+09,-1.08589e+09,-1.08523e+09,-4.1317e+06,0.156617,0.941083,0,0.954026,4807.01,-39491.7,0,39783.2,4.1317e+06
step02_gravity_refstate-crust.xmf,1485,-5.031e-06,-1.39102e-06,0,-4.14079e-05,-1.03749e+09,-1.03724e+09,-1.03714e+09,-2.84058e+06,0.152063,0.783072,0,0.7977,6311.61,-37748.2,0,38272.2,2.84058e+06
step02_gravity_refstate-crust.xmf,1486,-5.86044e-06,9.65503e-06,0,-1.25484e-05,-8.45241e+08,-8.44176e+08,-8.44839e+08,-860821,0.093075,0.389963,0,0.400916,16047.1,-30763.1,0,34696.9,860821
step02_gravity_refstate-crust.xmf,1487,-6.00741e-06,1.04314e-05,0,-1.10745e-05,-8.45873e+08,-8.44746e+08,-8.45461e+08,-759713,0.0853716,0.357573,0,0.367623,17338.3,-30786.7,0,35333.2,759713
step02_gravity_refstate-crust.xmf,1488,-5.97073e-06,1.09492e-05,0,-9.67727e-06,-8.46648e+08,-8.45487e+08,-8.46238e+08,-663860,0.0772895,0.326849,0,0.335863,18678.1,-30815.8,0,36034.5,663860
step02_gravity_refstate-crust.xmf,1489,-6.10363e-06,9.17406e-06,0,-1.49684e-05,-8.73609e+08,-8.72561e+08,-8.7319e+08,-1.02683e+06,0.103722,0.434425,0,0.446636,14126.1,-31794.1,0,34791,1.02683e+06
step02_gravity_refstate-crust.xmf,1490,-6.76011e-06,9.85972e-06,0,-1.58525e-05,-9.00909e+08,-8.99769e+08,-9.00445e+08,-1.08748e+06,0.106681,0.444717,0,0.457334,13507,-32786.4,0,35459.7,1.08748e+06
step02_gravity_refstate-crust.xmf,1491,-6.67467e-06,8.61538e-06,0,-1.89039e-05,-9.21084e+08,-9.20036e+08,-9.20627e+08,-1.29681e+06,0.116949,0.49678,0,0.51036,11858,-33519.3,0,35555,1.29681e+06
step02_gravity_refstate-crust.xmf,1492,-5.61609e-06,4.73718e-06,0,-2.5534e-05,-9.56396e+08,-9.55685e+08,-9.5601e+08,-1.75163e+06,0.13321,0.601499,0,0.616073,9267.4,-34803.1,0,36015.9,1.75163e+06
step02_gravity_refstate-crust.xmf,1493,-7.52491e-06,3.47976e-06,0,-3.79641e-05,-1.03824e+09,-1.03748e+09,-1.03772e+09,-2.60434e+06,0.148402,0.736812,0,0.751609,6889.48,-37773,0,38396.2,2.60434e+06
step02_gravity_refstate-crust.xmf,1494,-7.05756e-06,3.52049e-06,0,-3.54027e-05,-1.02459e+09,-1.02386e+09,-1.0241e+09,-2.42863e+06,0.14653,0.712401,0,0.727314,7239,-37278,0,37974.3,2.42863e+06
step02_gravity_refstate-crust.xmf,1495,-6.39772e-06,7.20273e-06,0,-2.17581e-05,-9.38431e+08,-9.37498e+08,-9.37992e+08,-1.49261e+06,0.124863,0.543027,0,0.557197,10605.6,-34149.8,0,35758.7,1.49261e+06
step02_gravity_refstate-crust.xmf,1496,-6.23835e-06,-4.6364e-07,0,-4.55418e-05,-1.05848e+09,-1.05808e+09,-1.05805e+09,-3.12416e+06,0.153668,0.816136,0,0.830477,5942.01,-38509,0,38964.7,3.12416e+06
step02_gravity_refstate-crust.xmf,1497,-6.5229e-06,-3.43793e-07,0,-5.41436e-05,-1.0856e+09,-1.08518e+09,-1.08515e+09,-3.71425e+06,0.154306,0.876692,0,0.890168,5355.27,-39495.4,0,39856.9,3.71425e+06
step02_gravity_refstate-crust.xmf,1498,-5.78307e-06,1.125e-05,0,-8.35871e-06,-8.47633e+08,-8.46464e+08,-8.47236e+08,-573407,0.0689413,0.297596,0,0.305478,20084,-30852.9,0,36814,573407
step02_gravity_refstate-crust.xmf,1499,-3.07988e-06,9.92913e-06,0,-2.35925e-06,-8.33312e+08,-8.3242e+08,-8.33101e+08,-161844,0.0215397,0.163476,0,0.164889,31216.8,-30340.5,0,43532,161844
step02_gravity_refstate-crust.xmf,1500,-3.49799e-06,1.0194e-05,0,-3.0643e-06,-8.3059e+08,-8.29651e+08,-8.3035e+08,-210211,0.0278715,0.178864,0,0.181023,29346,-30240.1,0,42138.5,210211
step02_gravity_refstate-crust.xmf,1501,-3.93915e-06,1.04414e-05,0,-3.85747e-06,-8.27795e+08,-8.26809e+08,-8.27525e+08,-264623,0.0348005,0.196934,0,0.199985,27540.3,-30136.9,0,40825.3,264623
step02_gravity_refstate-crust.xmf,1502,-4.38224e-06,1.06264e-05,0,-4.76875e-06,-8.23895e+08,-8.22866e+08,-8.23595e+08,-327136,0.0424565,0.2182,0,0.222292,25781.7,-29993.5,0,39551.3,327136
step02_gravity_refstate-crust.xmf,1503,-5.11681e-06,1.06605e-05,0,-6.92809e-06,-8.15301e+08,-8.14218e+08,-8.1495e+08,-475267,0.0591473,0.26879,0,0.275221,22434.8,-29677.6,0,37203.3,475267
step02_gravity_refstate-crust.xmf,1504,-4.78676e-06,1.07105e-05,0,-5.79703e-06,-8.19522e+08,-8.18459e+08,-8.19194e+08,-397677,0.050666,0.24233,0,0.24757,24075.7,-29832.8,0,38335.8,397677
step02_gravity_refstate-crust.xmf,1505,-7.98988e-07,9.4922e-06,0,-1.66918e-07,-9.45969e+08,-9.45263e+08,-9.45914e+08,-11450.6,0.00106519,0.0963519,0,0.0963577,38622.7,-34450.4,0,51754.6,11450.6
step02_gravity_refstate-crust.xmf,1506,-2.98063e-07,9.45016e-06,0,-1.09243e-08,-9.76597e+08,-9.75928e+08,-9.76576e+08,-749.404,-4.80654e-21,0.0851849,-0,0.0851849,40000,-35567.4,0,53526.1,749.404
step02_gravity_refstate-crust.xmf,1507,-7.93569e-06,3.10748e-06,0,-4.15608e-05,-1.05303e+09,-1.05227e+09,-1.05248e+09,-2.85107e+06,0.150551,0.771067,0,0.785627,6449.11,-38309.3,0,38848.3,2.85107e+06
step02_gravity_refstate-crust.xmf,1508,-6.46427e-06,1.03619e-05,0,-1.32536e-05,-8.75306e+08,-8.74152e+08,-8.74863e+08,-909198,0.0960214,0.398207,0,0.409621,15339.1,-31856.3,0,35356.9,909198
step02_gravity_refstate-crust.xmf,1509,-7.55744e-06,1.06804e-05,0,-1.67937e-05,-9.28755e+08,-9.27503e+08,-9.28236e+08,-1.15205e+06,0.108993,0.454769,0,0.467647,12914.7,-33798.2,0,36181.6,1.15205e+06
step02_gravity_refstate-crust.xmf,1510,-7.28301e-06,9.21393e-06,0,-1.98416e-05,-9.41104e+08,-9.39972e+08,-9.40604e+08,-1.36113e+06,0.119132,0.507253,0,0.521054,11432.1,-34246.6,0,36104.3,1.36113e+06
step02_gravity_refstate-crust.xmf,1511,-6.16536e-06,4.93017e-06,0,-2.7491e-05,-9.76322e+08,-9.75561e+08,-9.75899e+08,-1.88588e+06,0.136552,0.62296,0,0.63775,8789.67,-35526.7,0,36597.8,1.88588e+06
step02_gravity_refstate-crust.xmf,1512,-9.3511e-06,7.48296e-06,0,-3.40121e-05,-1.03686e+09,-1.03571e+09,-1.03622e+09,-2.33323e+06,0.142748,0.685943,0,0.700638,7573.55,-37721.8,0,38474.5,2.33323e+06
step02_gravity_refstate-crust.xmf,1513,-7.81466e-06,5.59492e-06,0,-3.24311e-05,-1.01655e+09,-1.01563e+09,-1.01601e+09,-2.22478e+06,0.14268,0.674472,0,0.689398,7807.87,-36985.5,0,37800.6,2.22478e+06
step02_gravity_refstate-crust.xmf,1514,-7.00552e-06,5.27204e-06,0,-2.96844e-05,-9.96259e+08,-9.95416e+08,-9.95778e+08,-2.03635e+06,0.139582,0.6457,0,0.660615,8327.31,-36249.6,0,37193.8,2.03635e+06
step02_gravity_refstate-crust.xmf,1515,-7.05446e-06,7.66145e-06,0,-2.3148e-05,-9.5839e+08,-9.57381e+08,-9.57907e+08,-1.58795e+06,0.127682,0.558638,0,0.573044,10142,-34874.5,0,36319.3,1.58795e+06
step02_gravity_refstate-crust.xmf,1516,-9.44061e-06,5.10267e-06,0,-4.42396e-05,-1.07043e+09,-1.06944e+09,-1.06979e+09,-3.03484e+06,0.149956,0.789257,0,0.803376,6219.15,-38939.9,0,39433.4,3.03484e+06
step02_gravity_refstate-crust.xmf,1517,-1.05319e-05,6.44803e-06,0,-4.79242e-05,-1.0854e+09,-1.08424e+09,-1.08468e+09,-3.2876e+06,0.149417,0.81563,0,0.829203,5920.65,-39482.6,0,39924,3.2876e+06
step02_gravity_refstate-crust.xmf,1518,-5.46985e-06,1.1408e-05,0,-7.09208e-06,-8.49968e+08,-8.4881e+08,-8.49593e+08,-486517,0.0603509,0.269404,0,0.276081,21566.6,-30939.5,0,37714.3,486517
step02_gravity_refstate-crust.xmf,1519,-1.7784e-06,9.59607e-06,0,-7.44664e-07,-8.89203e+08,-8.88423e+08,-8.89081e+08,-51084,0.00647971,0.120942,0,0.121116,35963.6,-32380,0,48392.6,51084
step02_gravity_refstate-crust.xmf,1520,-9.98024e-07,9.58841e-06,0,-4.0002e-07,-9.39448e+08,-9.38722e+08,-9.39379e+08,-27441.4,0.00286114,0.101169,0,0.101209,36862.4,-34212.3,0,50292.4,27441.4
step02_gravity_refstate-crust.xmf,1521,-3.33663e-08,9.48244e-06,0,-1.33457e-07,-9.97724e+08,-9.97071e+08,-9.97721e+08,-9155.14,-4.412e-05,0.0790736,-0,0.0790737,38004.7,-36337.7,0,52581.2,9155.14
step02_gravity_refstate-crust.xmf,1522,-2.10717e-06,9.82143e-06,0,-1.20144e-06,-8.84371e+08,-8.83552e+08,-8.84226e+08,-82418.4,0.0106142,0.129839,0,0.130272,33952.4,-32203.1,0,46795.4,82418.4
step02_gravity_refstate-crust.xmf,1523,-2.50951e-06,1.01056e-05,0,-1.71491e-06,-8.79998e+08,-8.79133e+08,-8.79826e+08,-117643,0.0153379,0.141206,0,0.142036,32035.4,-32042.7,0,45310.1,117643
step02_gravity_refstate-crust.xmf,1524,-6.59479e-06,1.12264e-05,0,-1.15889e-05,-8.77424e+08,-8.76202e+08,-8.76972e+08,-795000,0.0875884,0.363325,0,0.373734,16604.2,-31934.2,0,35993,795000
step02_gravity_refstate-crust.xmf,1525,-6.49225e-06,1.17475e-05,0,-1.00297e-05,-8.78294e+08,-8.77043e+08,-8.77849e+08,-688040,0.0788163,0.330542,0,0.339809,17930.9,-31967.1,0,36652.6,688040
step02_gravity_refstate-crust.xmf,1526,-6.23974e-06,1.20308e-05,0,-8.61472e-06,-8.79698e+08,-8.78445e+08,-8.7927e+08,-590970,0.0700482,0.30019,0,0.308254,19281.7,-32019.7,0,37377.1,590970
step02_gravity_refstate-crust.xmf,1527,-7.11791e-06,1.11443e-05,0,-1.39341e-05,-9.03362e+08,-9.02109e+08,-9.02874e+08,-955876,0.0983758,0.4066,0,0.418331,14678.4,-32876.3,0,36004.2,955876
step02_gravity_refstate-crust.xmf,1528,-7.75458e-06,1.18564e-05,0,-1.46963e-05,-9.28015e+08,-9.2667e+08,-9.27483e+08,-1.00817e+06,0.100503,0.416607,0,0.428558,14035.9,-33772.3,0,36572.9,1.00817e+06
step02_gravity_refstate-crust.xmf,1529,-7.82831e-06,1.06375e-05,0,-1.80851e-05,-9.42357e+08,-9.4109e+08,-9.4182e+08,-1.24064e+06,0.113116,0.475485,0,0.488755,12217.3,-34292.2,0,36403.6,1.24064e+06
step02_gravity_refstate-crust.xmf,1530,-7.7945e-06,8.17853e-06,0,-2.47425e-05,-9.7845e+08,-9.77354e+08,-9.77915e+08,-1.69733e+06,0.130422,0.576658,0,0.591223,9657.09,-35602.6,0,36889.1,1.69733e+06
step02_gravity_refstate-crust.xmf,1531,-1.02917e-05,8.26792e-06,0,-3.66249e-05,-1.05346e+09,-1.05219e+09,-1.05276e+09,-2.51247e+06,0.143804,0.710747,0,0.725149,7181.4,-38323.6,0,38990.6,2.51247e+06
step02_gravity_refstate-crust.xmf,1532,-7.99714e-06,9.91045e-06,0,-2.08268e-05,-9.60551e+08,-9.59323e+08,-9.60003e+08,-1.42872e+06,0.121033,0.518485,0,0.532424,11009.6,-34952.8,0,36645.8,1.42872e+06
step02_gravity_refstate-crust.xmf,1533,-5.86799e-06,1.21303e-05,0,-7.31054e-06,-8.81774e+08,-8.80539e+08,-8.81371e+08,-501503,0.0612421,0.271527,0,0.278347,20689.9,-32096.9,0,38187.5,501503
step02_gravity_refstate-crust.xmf,1534,-2.98473e-06,1.04336e-05,0,-2.32091e-06,-8.75804e+08,-8.74883e+08,-8.75599e+08,-159215,0.0209135,0.155491,0,0.156891,30137,-31888.6,0,43876.2,159215
step02_gravity_refstate-crust.xmf,1535,-3.4997e-06,1.07658e-05,0,-3.01687e-06,-8.71639e+08,-8.70661e+08,-8.71399e+08,-206957,0.0272127,0.172305,0,0.174441,28323.9,-31735.4,0,42536.8,206957
step02_gravity_refstate-crust.xmf,1536,-4.0357e-06,1.10854e-05,0,-3.81577e-06,-8.68114e+08,-8.67077e+08,-8.67837e+08,-261762,0.0342417,0.19162,0,0.194656,26561.2,-31605.4,0,41284.4,261762
step02_gravity_refstate-crust.xmf,1537,-4.59223e-06,1.13362e-05,0,-4.7947e-06,-8.62878e+08,-8.61785e+08,-8.62563e+08,-328917,0.0425052,0.215145,0,0.219304,24791.9,-31412.9,0,40017.6,328917
step02_gravity_refstate-crust.xmf,1538,-5.08472e-06,1.14384e-05,0,-5.9114e-06,-8.55903e+08,-8.5477e+08,-8.55554e+08,-405522,0.0514311,0.241631,0,0.247044,23124.2,-31157.2,0,38800.7,405522
step02_gravity_refstate-crust.xmf,1539,7.32033e-07,9.31368e-06,0,-2.35657e-09,-1.03747e+09,-1.03688e+09,-1.03752e+09,-161.661,-1.17666e-19,0.0643536,-0,0.0643536,40000,-37787.4,0,55026.3,161.661
step02_gravity_refstate-crust.xmf,1540,-7.20143e-06,1.20268e-05,0,-1.21189e-05,-9.05952e+08,-9.04633e+08,-9.05458e+08,-831355,0.0893379,0.370008,0,0.380641,15901.9,-32971.6,0,36605.9,831355
step02_gravity_refstate-crust.xmf,1541,-8.32011e-06,1.26267e-05,0,-1.51021e-05,-9.48781e+08,-9.47345e+08,-9.48211e+08,-1.036e+06,0.100834,0.42101,0,0.432917,13630.6,-34527.2,0,37120.4,1.036e+06
step02_gravity_refstate-crust.xmf,1542,-8.51244e-06,1.15343e-05,0,-1.86031e-05,-9.61703e+08,-9.60328e+08,-9.61119e+08,-1.27618e+06,0.113524,0.480154,0,0.493392,11903.9,-34995.2,0,36964.4,1.27618e+06
step02_gravity_refstate-crust.xmf,1543,-8.66688e-06,1.26369e-05,0,-1.6427e-05,-9.59989e+08,-9.58528e+08,-9.59395e+08,-1.12689e+06,0.105411,0.44288,0,0.455251,12878.4,-34933.9,0,37232.1,1.12689e+06
step02_gravity_refstate-crust.xmf,1544,-8.59613e-06,8.81513e-06,0,-2.64854e-05,-9.98309e+08,-9.97114e+08,-9.97719e+08,-1.8169e+06,0.132796,0.595963,0,0.610579,9180.44,-36323.3,0,37465.5,1.8169e+06
step02_gravity_refstate-crust.xmf,1545,-1.16756e-05,1.19063e-05,0,-3.21755e-05,-1.05399e+09,-1.05237e+09,-1.05319e+09,-2.20724e+06,0.135849,0.656989,0,0.670887,7892.48,-38342.8,0,39146.7,2.20724e+06
step02_gravity_refstate-crust.xmf,1546,-1.06834e-05,1.08548e-05,0,-3.01171e-05,-1.03707e+09,-1.03559e+09,-1.03633e+09,-2.06603e+06,0.13529,0.634878,0,0.649132,8313.31,-37729,0,38634,2.06603e+06
step02_gravity_refstate-crust.xmf,1547,-9.59764e-06,9.67865e-06,0,-2.83466e-05,-1.01794e+09,-1.01662e+09,-1.01728e+09,-1.94458e+06,0.134637,0.616425,0,0.630957,8715.95,-37035.3,0,38047.1,1.94458e+06
step02_gravity_refstate-crust.xmf,1548,-8.77204e-06,1.06447e-05,0,-2.20354e-05,-9.80573e+08,-9.79241e+08,-9.79972e+08,-1.51163e+06,0.122961,0.532728,0,0.546735,10534.9,-35679.7,0,37202.5,1.51163e+06
step02_gravity_refstate-crust.xmf,1549,-1.13747e-05,9.49943e-06,0,-3.92344e-05,-1.06934e+09,-1.06791e+09,-1.06856e+09,-2.69148e+06,0.143853,0.734573,0,0.748526,6830.56,-38899.3,0,39494.4,2.69148e+06
step02_gravity_refstate-crust.xmf,1550,-1.25929e-05,1.1213e-05,0,-4.2033e-05,-1.08497e+09,-1.08334e+09,-1.08411e+09,-2.88346e+06,0.142752,0.757707,0,0.771037,6509.45,-39465.8,0,39999.1,2.88346e+06
step02_gravity_refstate-crust.xmf,1551,-5.3873e-06,1.21009e-05,0,-6.06171e-06,-8.85912e+08,-8.84712e+08,-8.85543e+08,-415833,0.0521139,0.243316,0,0.248835,22202.4,-32249.5,0,39153.2,415833
step02_gravity_refstate-crust.xmf,1552,-1.38014e-06,9.8312e-06,0,-7.38035e-07,-9.3216e+08,-9.31391e+08,-9.32065e+08,-50629.2,0.00568219,0.109322,0,0.109469,34822.4,-33945.8,0,48630.4,50629.2
step02_gravity_refstate-crust.xmf,1553,-4.29672e-07,9.70038e-06,0,-3.45157e-07,-9.85638e+08,-9.84943e+08,-9.85608e+08,-23677.8,0.00107714,0.0875732,0,0.0875798,35706,-35896.4,0,50630.7,23677.8
step02_gravity_refstate-crust.xmf,1554,1.0102e-06,9.28386e-06,0,5.14213e-10,-1.05497e+09,-1.05441e+09,-1.05504e+09,35.275,-0.00162955,0.059059,-0,0.0590815,38427.4,-38425.8,0,54343.5,35.275
step02_gravity_refstate-crust.xmf,1555,-1.81409e-06,1.01522e-05,0,-1.14829e-06,-9.26398e+08,-9.25578e+08,-9.26274e+08,-78773,0.0093255,0.119859,0,0.120221,32810.4,-33734.8,0,47059.1,78773
step02_gravity_refstate-crust.xmf,1556,-2.32805e-06,1.05267e-05,0,-1.64072e-06,-9.20563e+08,-9.19681e+08,-9.20403e+08,-112554,0.0138608,0.133004,0,0.133724,30901.1,-33520.9,0,45590.9,112554
step02_gravity_refstate-crust.xmf,1557,-7.03056e-06,1.25531e-05,0,-1.04002e-05,-9.07199e+08,-9.05855e+08,-9.06717e+08,-713453,0.0799411,0.335377,0,0.344773,17199.2,-33018.5,0,37229.5,713453
step02_gravity_refstate-crust.xmf,1558,-6.70816e-06,1.28149e-05,0,-8.87608e-06,-9.08898e+08,-9.07559e+08,-9.08438e+08,-608899,0.0706995,0.303731,0,0.311851,18506.8,-33082.1,0,37906.8,608899
step02_gravity_refstate-crust.xmf,1559,-6.27963e-06,1.28794e-05,0,-7.52428e-06,-9.11005e+08,-9.0969e+08,-9.10574e+08,-516166,0.0617428,0.274758,0,0.281609,19831.8,-33160.6,0,38638.4,516166
step02_gravity_refstate-crust.xmf,1560,-7.92605e-06,1.30412e-05,0,-1.25732e-05,-9.36796e+08,-9.35358e+08,-9.36253e+08,-862522,0.0898491,0.375265,0,0.385871,15229.9,-34093.1,0,37340.2,862522
step02_gravity_refstate-crust.xmf,1561,-8.46029e-06,1.35345e-05,0,-1.35741e-05,-9.55745e+08,-9.54236e+08,-9.55165e+08,-931183,0.0933081,0.392543,0,0.40348,14380.7,-34781.6,0,37637.3,931183
step02_gravity_refstate-crust.xmf,1562,-1.26418e-05,1.3025e-05,0,-3.43991e-05,-1.0695e+09,-1.06774e+09,-1.06863e+09,-2.35978e+06,0.13576,0.679523,0,0.692952,7499.96,-38905.2,0,39621.5,2.35978e+06
step02_gravity_refstate-crust.xmf,1563,-9.62481e-06,1.14814e-05,0,-2.34029e-05,-1.0006e+09,-9.99156e+08,-9.99944e+08,-1.60544e+06,0.124655,0.549211,0,0.56318,10038.9,-36406.8,0,37765.5,1.60544e+06
step02_gravity_refstate-crust.xmf,1564,-9.28732e-06,1.24429e-05,0,-1.94849e-05,-9.82401e+08,-9.80911e+08,-9.81764e+08,-1.33666e+06,0.114661,0.491451,0,0.50465,11423.8,-35747,0,37528,1.33666e+06
step02_gravity_refstate-crust.xmf,1565,-5.77456e-06,1.27875e-05,0,-6.32827e-06,-9.13186e+08,-9.11913e+08,-9.1279e+08,-434119,0.0531848,0.248224,0,0.253857,21188.2,-33241.9,0,39420.3,434119
step02_gravity_refstate-crust.xmf,1566,-2.89771e-06,1.09291e-05,0,-2.22639e-06,-9.15067e+08,-9.14119e+08,-9.14869e+08,-152730,0.0192871,0.148564,0,0.14981,29075.4,-33319.1,0,44221.5,152730
step02_gravity_refstate-crust.xmf,1567,-3.49347e-06,1.13456e-05,0,-2.89951e-06,-9.11166e+08,-9.10148e+08,-9.10927e+08,-198907,0.0254128,0.166027,0,0.16796,27320.2,-33175.4,0,42976.7,198907
step02_gravity_refstate-crust.xmf,1568,-4.14397e-06,1.17477e-05,0,-3.73365e-06,-9.06447e+08,-9.05357e+08,-9.06163e+08,-256129,0.0327992,0.187116,0,0.189969,25566.8,-33001.5,0,41746.4,256129
step02_gravity_refstate-crust.xmf,1569,-4.8664e-06,1.21196e-05,0,-4.83415e-06,-9.01818e+08,-9.00653e+08,-9.01485e+08,-331623,0.0420315,0.213811,0,0.217903,23674,-32830.7,0,40476.1,331623
step02_gravity_refstate-crust.xmf,1570,6.95967e-07,9.5049e-06,0,-4.82187e-08,-1.04646e+09,-1.04586e+09,-1.04651e+09,-3307.8,-0.00296947,0.0646777,-0,0.0647459,36400.9,-38115.1,0,52704.7,3307.8
step02_gravity_refstate-crust.xmf,1571,-7.58987e-06,1.33971e-05,0,-1.0755e-05,-9.34372e+08,-9.32933e+08,-9.33852e+08,-737794,0.0804075,0.340401,0,0.349769,16507.3,-34006.8,0,37801.5,737794
step02_gravity_refstate-crust.xmf,1572,-8.85064e-06,1.3799e-05,0,-1.44989e-05,-9.67596e+08,-9.66042e+08,-9.66988e+08,-994628,0.0965072,0.408426,0,0.419673,13732.9,-35211.8,0,37795.1,994628
step02_gravity_refstate-crust.xmf,1573,-9.47095e-06,1.37142e-05,0,-1.7098e-05,-9.83992e+08,-9.82402e+08,-9.83342e+08,-1.17293e+06,0.105604,0.451616,0,0.463799,12356.3,-35806.1,0,37878.2,1.17293e+06
step02_gravity_refstate-crust.xmf,1574,-1.32554e-05,1.55603e-05,0,-3.00031e-05,-1.07042e+09,-1.06844e+09,-1.06951e+09,-2.05821e+06,0.126626,0.628365,0,0.640997,8177.01,-38940.2,0,39789.5,2.05821e+06
step02_gravity_refstate-crust.xmf,1575,-1.05388e-05,1.24293e-05,0,-2.48578e-05,-1.01997e+09,-1.0184e+09,-1.01925e+09,-1.70524e+06,0.125738,0.566342,0,0.580132,9562.43,-37109.7,0,38321.9,1.70524e+06
step02_gravity_refstate-crust.xmf,1576,-1.2437e-05,1.4602e-05,0,-2.81625e-05,-1.05586e+09,-1.054e+09,-1.055e+09,-1.93195e+06,0.126582,0.606495,0,0.619564,8611.71,-38411.8,0,39365.3,1.93195e+06
step02_gravity_refstate-crust.xmf,1577,-1.15321e-05,1.36277e-05,0,-2.63037e-05,-1.0391e+09,-1.03738e+09,-1.03831e+09,-1.80443e+06,0.126024,0.584159,0,0.597598,9100.56,-37804,0,38884,1.80443e+06
step02_gravity_refstate-crust.xmf,1578,-1.00958e-05,1.33689e-05,0,-2.05261e-05,-1.00255e+09,-1.00094e+09,-1.00185e+09,-1.40809e+06,0.115613,0.50508,0,0.518143,10917,-36478.5,0,38077.1,1.40809e+06
step02_gravity_refstate-crust.xmf,1579,-1.37005e-05,1.46383e-05,0,-3.65993e-05,-1.08461e+09,-1.08267e+09,-1.08367e+09,-2.51071e+06,0.134662,0.70184,0,0.714642,7135.09,-39453.5,0,40093.5,2.51071e+06
step02_gravity_refstate-crust.xmf,1580,-5.30658e-06,1.2651e-05,0,-5.3851e-06,-9.17315e+08,-9.16083e+08,-9.16951e+08,-369418,0.0459247,0.226573,0,0.23118,22362.9,-33393.9,0,40190.2,369418
step02_gravity_refstate-crust.xmf,1581,-9.6609e-07,1.00674e-05,0,-6.48799e-07,-9.74444e+08,-9.73687e+08,-9.74378e+08,-44507.6,0.00345031,0.098472,0,0.0985324,33625,-35487.3,0,48887.5,44507.6
step02_gravity_refstate-crust.xmf,1582,-1.69154e-09,9.87332e-06,0,-2.50961e-07,-1.02441e+09,-1.02373e+09,-1.02441e+09,-17215.9,-0.00188693,0.0778872,-0,0.0779101,34280,-37309.8,0,50666.9,17215.9
step02_gravity_refstate-crust.xmf,1583,-1.54766e-06,1.04931e-05,0,-1.04199e-06,-9.655e+08,-9.64674e+08,-9.65394e+08,-71480.6,0.00693902,0.111418,0,0.111634,31620.4,-35160,0,47287.2,71480.6
step02_gravity_refstate-crust.xmf,1584,-2.1618e-06,1.09431e-05,0,-1.51463e-06,-9.57701e+08,-9.56802e+08,-9.57553e+08,-103904,0.0113477,0.125977,0,0.126487,29803.3,-34874.3,0,45874.3,103904
step02_gravity_refstate-crust.xmf,1585,-1.41787e-05,1.70573e-05,0,-3.16542e-05,-1.08488e+09,-1.08273e+09,-1.0839e+09,-2.17148e+06,0.125056,0.646699,0,0.658679,7814.22,-39465,0,40231.2,2.17148e+06
step02_gravity_refstate-crust.xmf,1586,-7.1838e-06,1.364e-05,0,-9.09764e-06,-9.36706e+08,-9.35278e+08,-9.36214e+08,-624098,0.0705641,0.307129,0,0.315131,17780.3,-34093.8,0,38451.6,624098
step02_gravity_refstate-crust.xmf,1587,-6.68114e-06,1.36582e-05,0,-7.6708e-06,-9.38871e+08,-9.37475e+08,-9.38412e+08,-526217,0.061268,0.277258,0,0.283947,19057.6,-34174.6,0,39129.3,526217
step02_gravity_refstate-crust.xmf,1588,-6.10551e-06,1.35133e-05,0,-6.41517e-06,-9.40988e+08,-9.39642e+08,-9.4057e+08,-440081,0.052416,0.249835,0,0.255274,20372.6,-34253.8,0,39854.3,440081
step02_gravity_refstate-crust.xmf,1589,-9.41383e-06,1.46679e-05,0,-1.48281e-05,-9.8687e+08,-9.85218e+08,-9.86224e+08,-1.01721e+06,0.0958058,0.413082,0,0.424047,13322.8,-35912.6,0,38304.2,1.01721e+06
step02_gravity_refstate-crust.xmf,1590,-9.03266e-06,1.50009e-05,0,-1.28505e-05,-9.84098e+08,-9.82449e+08,-9.83478e+08,-881546,0.0868719,0.378139,0,0.38799,14371.2,-35813.8,0,38589.6,881546
step02_gravity_refstate-crust.xmf,1591,-8.45095e-06,1.43845e-05,0,-1.20088e-05,-9.66442e+08,-9.64876e+08,-9.65863e+08,-823804,0.0847704,0.363869,0,0.373613,15117.6,-35172.4,0,38283.7,823804
step02_gravity_refstate-crust.xmf,1592,-8.11697e-06,1.43687e-05,0,-1.08642e-05,-9.61985e+08,-9.60442e+08,-9.61428e+08,-745285,0.0788294,0.341412,0,0.350394,15962.2,-35011.4,0,38478.4,745285
step02_gravity_refstate-crust.xmf,1593,-1.09356e-05,1.43877e-05,0,-2.16566e-05,-1.02196e+09,-1.02022e+09,-1.02121e+09,-1.48564e+06,0.116169,0.520367,0,0.533176,10406.5,-37183.6,0,38612.3,1.48564e+06
step02_gravity_refstate-crust.xmf,1594,-1.02193e-05,1.47419e-05,0,-1.7851e-05,-1.005e+09,-1.00329e+09,-1.0043e+09,-1.22458e+06,0.105814,0.463021,0,0.474958,11821.4,-36569.6,0,38432.8,1.22458e+06
step02_gravity_refstate-crust.xmf,1595,-5.50877e-06,1.32528e-05,0,-5.35452e-06,-9.42894e+08,-9.41607e+08,-9.42516e+08,-367320,0.0444209,0.225645,0,0.229976,21680.5,-34325.2,0,40598.9,367320
step02_gravity_refstate-crust.xmf,1596,-2.79684e-06,1.14305e-05,0,-2.06508e-06,-9.52974e+08,-9.51998e+08,-9.52782e+08,-141665,0.0164298,0.141899,0,0.142847,28041.8,-34700.3,0,44614.5,141665
step02_gravity_refstate-crust.xmf,1597,-3.4772e-06,1.19293e-05,0,-2.72991e-06,-9.48674e+08,-9.47617e+08,-9.48435e+08,-187272,0.0224999,0.160207,0,0.161779,26338.3,-34541.8,0,43437.8,187272
step02_gravity_refstate-crust.xmf,1598,-4.21853e-06,1.24107e-05,0,-3.57595e-06,-9.43453e+08,-9.42312e+08,-9.43163e+08,-245310,0.0300214,0.182269,0,0.184725,24634.1,-34349.5,0,42269.7,245310
step02_gravity_refstate-crust.xmf,1599,-4.89227e-06,1.28697e-05,0,-4.44156e-06,-9.42759e+08,-9.41541e+08,-9.42424e+08,-304691,0.0372546,0.203921,0,0.207296,23069.6,-34322.2,0,41354.8,304691
step02_gravity_refstate-crust.xmf,1600,8.45086e-07,9.69354e-06,0,1.28787e-08,-1.06757e+09,-1.06696e+09,-1.06763e+09,883.478,-0.00604189,0.0612426,-0,0.0615399,34691.4,-38884.3,0,52110.3,883.478
step02_gravity_refstate-crust.xmf,1601,-1.409e-05,1.8756e-05,0,-2.73182e-05,-1.0853e+09,-1.08305e+09,-1.08433e+09,-1.87403e+06,0.115232,0.596857,0,0.607879,8491.87,-39483.4,0,40386.3,1.87403e+06
step02_gravity_refstate-crust.xmf,1602,-7.64551e-06,1.45176e-05,0,-9.24101e-06,-9.63713e+08,-9.62193e+08,-9.63189e+08,-633933,0.0693365,0.30964,0,0.317308,17115.8,-35076.5,0,39029.6,633933
step02_gravity_refstate-crust.xmf,1603,-1.00937e-05,1.56807e-05,0,-1.53803e-05,-1.00823e+09,-1.00646e+09,-1.00754e+09,-1.05509e+06,0.0951874,0.421979,0,0.432582,12776.7,-36689.1,0,38850.1,1.05509e+06
step02_gravity_refstate-crust.xmf,1604,-1.34147e-05,1.73419e-05,0,-2.65424e-05,-1.07182e+09,-1.06971e+09,-1.0709e+09,-1.82081e+06,0.117909,0.585886,0,0.597633,8784.17,-38993.2,0,39970.4,1.82081e+06
step02_gravity_refstate-crust.xmf,1605,-1.18639e-05,1.55643e-05,0,-2.28176e-05,-1.04119e+09,-1.03931e+09,-1.04037e+09,-1.56529e+06,0.115735,0.5355,0,0.547864,9924.17,-37881.6,0,39160,1.56529e+06
step02_gravity_refstate-crust.xmf,1606,-1.28251e-05,1.72238e-05,0,-2.39936e-05,-1.06197e+09,-1.05991e+09,-1.06109e+09,-1.64596e+06,0.114172,0.55319,0,0.564849,9402.24,-38637,0,39764.5,1.64596e+06
step02_gravity_refstate-crust.xmf,1607,-1.09757e-05,1.57161e-05,0,-1.88088e-05,-1.02452e+09,-1.02269e+09,-1.02377e+09,-1.29028e+06,0.106004,0.477258,0,0.488888,11262.9,-37278.6,0,38942.8,1.29028e+06
step02_gravity_refstate-crust.xmf,1608,-6.35868e-07,1.03491e-05,0,-5.20639e-07,-1.01254e+09,-1.01178e+09,-1.01249e+09,-35715.9,0.000104191,0.0901205,0,0.0901205,32286.9,-36875.9,0,49013,35715.9
step02_gravity_refstate-crust.xmf,1609,3.76693e-07,1.00719e-05,0,-9.45243e-08,-1.05913e+09,-1.05847e+09,-1.05916e+09,-6484.37,-0.00613664,0.0698957,-0,0.0701645,32960.1,-38575.9,0,50739.2,6484.37
step02_gravity_refstate-crust.xmf,1610,-1.31927e-06,1.08503e-05,0,-8.94058e-07,-1.00083e+09,-9.99992e+08,-1.00074e+09,-61332.4,0.00356814,0.104539,0,0.1046,30449.9,-36447.6,0,47493.4,61332.4
step02_gravity_refstate-crust.xmf,1611,-1.98909e-06,1.13539e-05,0,-1.3417e-06,-9.92423e+08,-9.91508e+08,-9.92287e+08,-92040.6,0.00776132,0.119567,0,0.119819,28762.5,-36139.7,0,46188.3,92040.6
step02_gravity_refstate-crust.xmf,1612,-7.07284e-06,1.4482e-05,0,-7.7665e-06,-9.66019e+08,-9.64541e+08,-9.65534e+08,-532782,0.0598555,0.279392,0,0.285731,18327.1,-35162.7,0,39652.2,532782
step02_gravity_refstate-crust.xmf,1613,-6.4294e-06,1.42982e-05,0,-6.44744e-06,-9.68913e+08,-9.67491e+08,-9.68471e+08,-442294,0.050614,0.250982,0,0.256034,19587.8,-35270.4,0,40344.5,442294
step02_gravity_refstate-crust.xmf,1614,-5.74069e-06,1.397e-05,0,-5.30589e-06,-9.71127e+08,-9.69775e+08,-9.70733e+08,-363984,0.042075,0.225072,0,0.228971,20900.7,-35353.2,0,41069.3,363984
step02_gravity_refstate-crust.xmf,1615,-8.59249e-06,1.5434e-05,0,-1.08815e-05,-9.88667e+08,-9.87019e+08,-9.88078e+08,-746468,0.0763349,0.342634,0,0.351034,15421.8,-35982.6,0,39148.1,746468
step02_gravity_refstate-crust.xmf,1616,-9.66481e-06,1.61421e-05,0,-1.31409e-05,-1.00938e+09,-1.00761e+09,-1.00872e+09,-901466,0.0848249,0.383645,0,0.392911,13790.4,-36733.4,0,39236.6,901466
step02_gravity_refstate-crust.xmf,1617,-8.07842e-06,1.54569e-05,0,-9.30707e-06,-9.90269e+08,-9.88655e+08,-9.89715e+08,-638465,0.0669533,0.311478,0,0.318593,16490.4,-36043,0,39636.2,638465
step02_gravity_refstate-crust.xmf,1618,-1.3587e-05,1.93385e-05,0,-2.37313e-05,-1.08203e+09,-1.07977e+09,-1.0811e+09,-1.62797e+06,0.106915,0.551269,0,0.561541,9217.42,-39367.3,0,40431.9,1.62797e+06
step02_gravity_refstate-crust.xmf,1619,-1.16933e-05,1.68081e-05,0,-1.96856e-05,-1.04242e+09,-1.04046e+09,-1.04162e+09,-1.35043e+06,0.105449,0.491005,0,0.502201,10758.7,-37929,0,39425.4,1.35043e+06
step02_gravity_refstate-crust.xmf,1620,-1.08556e-05,1.69164e-05,0,-1.59386e-05,-1.03161e+09,-1.0297e+09,-1.03086e+09,-1.09339e+06,0.0933029,0.431527,0,0.441498,12200.5,-37539,0,39471.9,1.09339e+06
step02_gravity_refstate-crust.xmf,1621,-5.01208e-06,1.35447e-05,0,-4.29093e-06,-9.73565e+08,-9.72292e+08,-9.73221e+08,-294358,0.0340041,0.200828,0,0.203686,22291.2,-35444.3,0,41871.2,294358
step02_gravity_refstate-crust.xmf,1622,-2.66465e-06,1.19061e-05,0,-1.84542e-06,-9.8827e+08,-9.8727e+08,-9.88087e+08,-126596,0.0123626,0.13526,0,0.135824,27115.8,-35986.6,0,45058.9,126596
step02_gravity_refstate-crust.xmf,1623,-3.42436e-06,1.25007e-05,0,-2.50279e-06,-9.84214e+08,-9.83121e+08,-9.83979e+08,-171691,0.0183255,0.154286,0,0.155371,25428.6,-35836.8,0,43941.9,171691
step02_gravity_refstate-crust.xmf,1624,-4.23182e-06,1.30684e-05,0,-3.32815e-06,-9.7884e+08,-9.77653e+08,-9.7855e+08,-228311,0.0257811,0.176684,0,0.178555,23796.9,-35638.8,0,42853.4,228311
step02_gravity_refstate-crust.xmf,1625,-7.43247e-06,1.53436e-05,0,-7.80992e-06,-9.92448e+08,-9.90886e+08,-9.91939e+08,-535760,0.0574293,0.281158,0,0.286963,17635.8,-36124.8,0,40199.8,535760
step02_gravity_refstate-crust.xmf,1626,-9.10434e-06,1.63155e-05,0,-1.12028e-05,-1.01054e+09,-1.0088e+09,-1.00992e+09,-768512,0.0748295,0.348666,0,0.356606,14815.3,-36778.1,0,39650,768512
step02_gravity_refstate-crust.xmf,1627,-1.02603e-05,1.7229e-05,0,-1.35151e-05,-1.03156e+09,-1.02967e+09,-1.03086e+09,-927136,0.0826311,0.391079,0,0.399713,13216.9,-37540.2,0,39798.9,927136
step02_gravity_refstate-crust.xmf,1628,-1.24871e-05,1.81486e-05,0,-2.03184e-05,-1.06151e+09,-1.0594e+09,-1.06065e+09,-1.39384e+06,0.102538,0.500605,0,0.510999,10338,-38622.7,0,39982.4,1.39384e+06
step02_gravity_refstate-crust.xmf,1629,-1.14352e-05,1.74001e-05,0,-1.743e-05,-1.04353e+09,-1.04156e+09,-1.04275e+09,-1.1957e+06,0.0967475,0.456078,0,0.466226,11473.1,-37971.6,0,39667.1,1.1957e+06
step02_gravity_refstate-crust.xmf,1630,-3.22723e-07,1.07115e-05,0,-3.30378e-07,-1.05091e+09,-1.05015e+09,-1.05088e+09,-22663.9,-0.00496066,0.0828959,-0,0.0830442,30785.8,-38274.6,0,49119.3,22663.9
step02_gravity_refstate-crust.xmf,1631,-1.20998e-06,1.11749e-05,0,-7.9671e-07,-1.02524e+09,-1.02439e+09,-1.02516e+09,-54654.3,0.000655607,0.101279,0,0.101281,29430.8,-37337.2,0,47542,54654.3
step02_gravity_refstate-crust.xmf,1632,-1.73999e-06,1.16983e-05,0,-1.08686e-06,-1.02522e+09,-1.0243e+09,-1.0251e+09,-74558.7,0.00279886,0.111953,0,0.111988,27973,-37335.3,0,46652.1,74558.7
step02_gravity_refstate-crust.xmf,1633,-5.12529e-06,1.42441e-05,0,-4.12917e-06,-1.0032e+09,-1.00187e+09,-1.00285e+09,-283261,0.0299589,0.198296,0,0.200547,21505,-36523.8,0,42384.6,283261
step02_gravity_refstate-crust.xmf,1634,-6.71831e-06,1.51147e-05,0,-6.42188e-06,-9.96125e+08,-9.94627e+08,-9.95664e+08,-440541,0.047732,0.251643,0,0.25613,18851,-36261.1,0,40868.4,440541
step02_gravity_refstate-crust.xmf,1635,-5.92352e-06,1.47498e-05,0,-5.1655e-06,-1.00085e+09,-9.99435e+08,-1.00045e+09,-354354,0.0381242,0.223213,0,0.226446,20147.6,-36436,0,41635.4,354354
step02_gravity_refstate-crust.xmf,1636,-8.4494e-06,1.64556e-05,0,-9.35069e-06,-1.01618e+09,-1.01448e+09,-1.0156e+09,-641458,0.0638233,0.314325,0,0.320739,15843.9,-36986.5,0,40237.2,641458
step02_gravity_refstate-crust.xmf,1637,-9.52437e-06,1.72761e-05,0,-1.13291e-05,-1.03182e+09,-1.02999e+09,-1.03117e+09,-777178,0.0718063,0.352321,0,0.359564,14303.9,-37552.8,0,40184.7,777178
step02_gravity_refstate-crust.xmf,1638,-7.78074e-06,1.62926e-05,0,-7.84188e-06,-1.01932e+09,-1.01767e+09,-1.01879e+09,-537953,0.0540073,0.283528,0,0.288626,16914.9,-37103.2,0,40777,537953
step02_gravity_refstate-crust.xmf,1639,-1.30223e-05,1.98754e-05,0,-2.05172e-05,-1.08149e+09,-1.07923e+09,-1.0806e+09,-1.40748e+06,0.0971763,0.507112,0,0.516339,9967.24,-39350.8,0,40593.5,1.40748e+06
step02_gravity_refstate-crust.xmf,1640,-1.18631e-05,1.87081e-05,0,-1.73588e-05,-1.0615e+09,-1.0594e+09,-1.06069e+09,-1.19081e+06,0.0921495,0.457526,0,0.466713,11190.9,-38626,0,40214.5,1.19081e+06
step02_gravity_refstate-crust.xmf,1641,-1.12808e-05,1.85178e-05,0,-1.53299e-05,-1.0565e+09,-1.05446e+09,-1.05573e+09,-1.05163e+06,0.0850804,0.423826,0,0.432281,12004.8,-38446.1,0,40276.8,1.05163e+06
step02_gravity_refstate-crust.xmf,1642,-1.06088e-05,1.84698e-05,0,-1.32911e-05,-1.05482e+09,-1.05282e+09,-1.05409e+09,-911770,0.0764369,0.38938,0,0.396812,12867.5,-38387.3,0,40486.5,911770
step02_gravity_refstate-crust.xmf,1643,-4.34506e-06,1.37101e-05,0,-3.25849e-06,-1.00657e+09,-1.00533e+09,-1.00628e+09,-223533,0.0226132,0.176022,0,0.177469,22857.8,-36648.9,0,43192.9,223533
step02_gravity_refstate-crust.xmf,1644,-2.4418e-06,1.23503e-05,0,-1.54003e-06,-1.02364e+09,-1.02262e+09,-1.02347e+09,-105646,0.00660163,0.127267,0,0.127438,26307.7,-37275.7,0,45624.3,105646
step02_gravity_refstate-crust.xmf,1645,-3.28361e-06,1.31198e-05,0,-2.17016e-06,-1.02246e+09,-1.02134e+09,-1.02224e+09,-148873,0.0120288,0.147049,0,0.14754,24500.1,-37230.9,0,44569,148873
step02_gravity_refstate-crust.xmf,1646,-6.96405e-06,1.59475e-05,0,-6.41717e-06,-1.02213e+09,-1.02055e+09,-1.02165e+09,-440218,0.044217,0.253193,0,0.257025,18109,-37208,0,41380.8,440218
step02_gravity_refstate-crust.xmf,1647,-8.84392e-06,1.71263e-05,0,-9.74678e-06,-1.03185e+09,-1.03006e+09,-1.03124e+09,-668629,0.0631865,0.322441,0,0.328574,15242,-37556.1,0,40531.2,668629
step02_gravity_refstate-crust.xmf,1648,-9.8263e-06,1.83478e-05,0,-1.1259e-05,-1.05481e+09,-1.05288e+09,-1.05413e+09,-772366,0.0665162,0.353274,0,0.359481,13840.7,-38390,0,40808.8,772366
step02_gravity_refstate-crust.xmf,1649,-1.23891e-05,2.00001e-05,0,-1.76993e-05,-1.08035e+09,-1.07813e+09,-1.0795e+09,-1.21417e+06,0.0874082,0.464274,0,0.47243,10784.5,-39312.1,0,40764.5,1.21417e+06
step02_gravity_refstate-crust.xmf,1650,-7.2468e-07,1.13183e-05,0,-4.57819e-07,-1.05968e+09,-1.05885e+09,-1.05963e+09,-31406.3,-0.00565754,0.0901972,-0,0.0903745,28971.9,-38593.2,0,48257.7,31406.3
step02_gravity_refstate-crust.xmf,1651,-1.34036e-06,1.20155e-05,0,-7.28597e-07,-1.06208e+09,-1.06117e+09,-1.06199e+09,-49981.8,-0.00443041,0.101821,-0,0.101917,27249.6,-38679.4,0,47314.2,49981.8
step02_gravity_refstate-crust.xmf,1652,-4.31419e-06,1.43295e-05,0,-3.01672e-06,-1.03599e+09,-1.03471e+09,-1.03569e+09,-206947,0.0170694,0.171765,0,0.172611,22112.7,-37721,0,43724.6,206947
step02_gravity_refstate-crust.xmf,1653,-5.14531e-06,1.49578e-05,0,-3.88392e-06,-1.03352e+09,-1.03214e+09,-1.03317e+09,-266437,0.0241884,0.194354,0,0.195853,20772.4,-37628.8,0,42981.6,266437
step02_gravity_refstate-crust.xmf,1654,-6.04346e-06,1.56461e-05,0,-4.9497e-06,-1.03373e+09,-1.03224e+09,-1.03331e+09,-339550,0.0321477,0.22069,0,0.223019,19330.6,-37633.7,0,42308,339550
step02_gravity_refstate-crust.xmf,1655,-8.20262e-06,1.73759e-05,0,-8.08038e-06,-1.0465e+09,-1.04475e+09,-1.04594e+09,-554314,0.0506004,0.290706,0,0.295077,16018.5,-38092.6,0,41323.6,554314
step02_gravity_refstate-crust.xmf,1656,-8.9824e-06,1.79751e-05,0,-9.45902e-06,-1.05278e+09,-1.05093e+09,-1.05216e+09,-648889,0.0573198,0.318994,0,0.324103,14918,-38318.9,0,41120.4,648889
step02_gravity_refstate-crust.xmf,1657,-7.18257e-06,1.68578e-05,0,-6.38843e-06,-1.04834e+09,-1.04669e+09,-1.04785e+09,-438246,0.0395265,0.254906,0,0.257952,17362,-38162.9,0,41926.7,438246
step02_gravity_refstate-crust.xmf,1658,-1.15392e-05,2.00175e-05,0,-1.51059e-05,-1.07916e+09,-1.077e+09,-1.07837e+09,-1.03626e+06,0.0778378,0.424234,0,0.431316,11637.4,-39272.3,0,40960.3,1.03626e+06
step02_gravity_refstate-crust.xmf,1659,-1.08025e-05,1.97274e-05,0,-1.30208e-05,-1.07748e+09,-1.07538e+09,-1.07674e+09,-893227,0.0689212,0.387636,0,0.393715,12516.4,-39213.5,0,41162.6,893227
step02_gravity_refstate-crust.xmf,1660,-9.97391e-06,1.94196e-05,0,-1.10964e-05,-1.07689e+09,-1.07488e+09,-1.07621e+09,-761211,0.0597975,0.352932,0,0.357962,13425.7,-39195.1,0,41430.7,761211
step02_gravity_refstate-crust.xmf,1661,-3.61119e-06,1.3786e-05,0,-2.37031e-06,-1.03925e+09,-1.03805e+09,-1.039e+09,-162603,0.0114322,0.153839,0,0.154264,23284.3,-37841.6,0,44431.3,162603
step02_gravity_refstate-crust.xmf,1662,-2.03616e-06,1.27327e-05,0,-1.11747e-06,-1.0615e+09,-1.06049e+09,-1.06136e+09,-76658.3,-0.00159762,0.11636,-0,0.116371,25644.6,-38656.6,0,46389.4,76658.3
step02_gravity_refstate-crust.xmf,1663,-6.49696e-06,1.6418e-05,0,-5.42153e-06,-1.04933e+09,-1.04776e+09,-1.04888e+09,-371917,0.0327495,0.232993,0,0.235283,18295.9,-38201,0,42356.3,371917
step02_gravity_refstate-crust.xmf,1664,-9.09642e-06,1.89769e-05,0,-9.32495e-06,-1.07612e+09,-1.0742e+09,-1.0755e+09,-639691,0.0506741,0.318952,0,0.322952,14425.4,-39169.9,0,41741.7,639691
step02_gravity_refstate-crust.xmf,1665,-2.69227e-06,1.3465e-05,0,-1.53075e-06,-1.06421e+09,-1.0631e+09,-1.06402e+09,-105009,0.00109849,0.130666,0,0.130671,24166.2,-38753.6,0,45671,105009
step02_gravity_refstate-crust.xmf,1666,-3.36482e-06,1.4199e-05,0,-2.02276e-06,-1.067e+09,-1.06579e+09,-1.06677e+09,-138762,0.00437233,0.14622,0,0.146285,22784.8,-38853.5,0,45041.6,138762
step02_gravity_refstate-crust.xmf,1667,-4.13588e-06,1.49259e-05,0,-2.67711e-06,-1.06678e+09,-1.06548e+09,-1.0665e+09,-183649,0.00940953,0.165181,0,0.165449,21456.2,-38843.7,0,44375.7,183649
step02_gravity_refstate-crust.xmf,1668,-4.97665e-06,1.56594e-05,0,-3.49611e-06,-1.06593e+09,-1.06451e+09,-1.06559e+09,-239833,0.0157227,0.187267,0,0.187926,20135.6,-38810.2,0,43722.7,239833
step02_gravity_refstate-crust.xmf,1669,-5.7267e-06,1.64128e-05,0,-4.30373e-06,-1.06969e+09,-1.06817e+09,-1.06929e+09,-295236,0.0208147,0.208198,0,0.209236,18900.6,-38945.3,0,43289.4,295236
step02_gravity_refstate-crust.xmf,1670,-8.22585e-06,1.84113e-05,0,-7.78458e-06,-1.07455e+09,-1.07272e+09,-1.07398e+09,-534022,0.0422933,0.287504,0,0.290598,15484.9,-39115.2,0,42068.7,534022
step02_gravity_refstate-crust.xmf,1671,-6.46621e-06,1.71097e-05,0,-5.20163e-06,-1.07276e+09,-1.07115e+09,-1.07232e+09,-356832,0.026336,0.230115,0,0.231617,17777.4,-39055.3,0,42911,356832
step02_gravity_refstate-crust.xmf,1672,-7.33135e-06,1.77761e-05,0,-6.39401e-06,-1.07344e+09,-1.07172e+09,-1.07293e+09,-438629,0.033992,0.257371,0,0.259606,16621.3,-39077.4,0,42465.4,438629
