Block Name,Point ID,cauchy_strain_0,cauchy_strain_1,cauchy_strain_2,cauchy_strain_3,cauchy_stress_0,cauchy_stress_1,cauchy_stress_2,cauchy_stress_3,displacement_0,displacement_1,displacement_2,displacement_Magnitude,Points_0,Points_1,Points_2,Points_Magnitude,stress_xy
step02_gravity_refstate-mantle.xmf,0,-5.19107e-09,1.96025e-06,0,2.05425e-09,-1.09856e+09,-1.0983e+09,-1.09856e+09,274.55,-1.34756e-20,0.0436087,-0,0.0436087,-40000,-40000,-0,56568.5,274.55
step02_gravity_refstate-mantle.xmf,1,8.70571e-08,2.03131e-06,0,8.56188e-10,-1.17167e+09,-1.17141e+09,-1.17168e+09,114.43,-7.65555e-21,0.0390956,-0,0.0390956,-40000,-42259.2,-0,58188,114.43
step02_gravity_refstate-mantle.xmf,2,5.11534e-08,2.01347e-06,0,-1.3251e-08,-1.14803e+09,-1.14777e+09,-1.14803e+09,-1770.99,8.2269e-05,0.0406015,0,0.0406016,-38454.4,-41528.6,-0,56598.3,1770.99
step02_gravity_refstate-mantle.xmf,3,-1.63403e-08,1.96897e-06,0,-6.60715e-09,-1.09856e+09,-1.0983e+09,-1.09856e+09,-883.046,-2.52383e-05,0.0436965,-0,0.0436965,-37557.3,-40000,-0,54868.5,883.046
step02_gravity_refstate-mantle.xmf,4,1.36498e-07,2.06022e-06,0,-2.63955e-08,-1.20661e+09,-1.20635e+09,-1.20663e+09,-3527.76,0.000245199,0.0369225,0,0.0369233,-38247.3,-43338.9,-0,57802.4,3527.76
step02_gravity_refstate-mantle.xmf,5,5.99463e-08,2.03799e-06,0,-3.7252e-08,-1.16474e+09,-1.16448e+09,-1.16475e+09,-4978.73,0.000252364,0.039684,0,0.0396848,-36467.4,-42045,-0,55656.5,4978.73
step02_gravity_refstate-mantle.xmf,6,2.03099e-07,2.07988e-06,0,5.53994e-10,-1.24414e+09,-1.24389e+09,-1.24417e+09,74.0413,-1.02153e-20,0.0344917,-0,0.0344917,-40000,-44498.7,-0,59834.2,74.0413
step02_gravity_refstate-mantle.xmf,7,-4.53749e-08,1.98919e-06,0,-1.32744e-08,-1.09856e+09,-1.09829e+09,-1.09856e+09,-1774.12,-9.6935e-05,0.0439516,-0,0.0439517,-35229,-40000,-0,53301.8,1774.12
step02_gravity_refstate-mantle.xmf,8,2.53366e-07,2.10009e-06,0,-3.55394e-08,-1.27523e+09,-1.27498e+09,-1.27526e+09,-4749.84,0.000449333,0.0325115,0,0.0325146,-38243.9,-45459.4,-0,59406.7,4749.84
step02_gravity_refstate-mantle.xmf,9,1.77424e-07,2.08922e-06,0,-5.94309e-08,-1.23768e+09,-1.23742e+09,-1.2377e+09,-7942.94,0.000633616,0.0350171,0,0.0350228,-36624.4,-44298.9,-0,57478.2,7942.94
step02_gravity_refstate-mantle.xmf,10,1.68257e-08,2.05948e-06,0,-5.59729e-08,-1.15809e+09,-1.15782e+09,-1.1581e+09,-7480.78,0.000295714,0.0403856,0,0.0403867,-34191.3,-41839.4,-0,54033.1,7480.78
step02_gravity_refstate-mantle.xmf,11,3.30115e-07,2.11643e-06,0,3.37649e-10,-1.31615e+09,-1.31591e+09,-1.31619e+09,45.1267,-1.29293e-20,0.0298225,-0,0.0298225,-40000,-46723.9,-0,61507.1,45.1267
step02_gravity_refstate-mantle.xmf,12,-9.20519e-08,2.02077e-06,0,-1.50174e-08,-1.09857e+09,-1.09829e+09,-1.09856e+09,-2007.08,-0.000248265,0.0443711,-0,0.0443718,-33009.3,-40000,-0,51861.5,2007.08
step02_gravity_refstate-mantle.xmf,13,1.12151e-07,2.0861e-06,0,-7.41136e-08,-1.2089e+09,-1.20864e+09,-1.20892e+09,-9905.29,0.000661931,0.0370113,0,0.0370173,-35064.8,-43409.6,-0,55802.6,9905.29
step02_gravity_refstate-mantle.xmf,14,3.80355e-07,2.13221e-06,0,-4.05909e-08,-1.34526e+09,-1.34503e+09,-1.34532e+09,-5424.97,0.000662936,0.0279306,0,0.0279384,-38263.7,-47623.8,-0,61091.2,5424.97
step02_gravity_refstate-mantle.xmf,15,4.59212e-07,2.14788e-06,0,1.43513e-10,-1.38785e+09,-1.38762e+09,-1.38791e+09,19.1805,-1.5605e-20,0.0250981,-0,0.0250981,-40000,-48939.8,-0,63206.8,19.1805
step02_gravity_refstate-mantle.xmf,16,-2.92821e-08,2.09239e-06,0,-7.10206e-08,-1.15674e+09,-1.15646e+09,-1.15674e+09,-9491.91,0.000268943,0.0408754,0,0.0408763,-32139.8,-41797.5,-0,52725.7,9491.91
step02_gravity_refstate-mantle.xmf,17,-1.53138e-07,2.06162e-06,0,-1.11428e-08,-1.09858e+09,-1.09829e+09,-1.09856e+09,-1489.24,-0.000506291,0.0449625,-0,0.0449654,-30892.4,-40000,-0,50540.5,1489.24
step02_gravity_refstate-mantle.xmf,18,2.96325e-07,2.1227e-06,0,-7.38018e-08,-1.30357e+09,-1.30333e+09,-1.30361e+09,-9863.61,0.00102901,0.0307289,0,0.0307461,-36614.9,-46335.4,-0,59056,9863.61
step02_gravity_refstate-mantle.xmf,19,2.15648e-07,2.11956e-06,0,-9.64239e-08,-1.26701e+09,-1.26676e+09,-1.26704e+09,-12887.1,0.00114476,0.0332308,0,0.0332505,-35107.9,-45205.4,-0,57237.1,12887.1
step02_gravity_refstate-mantle.xmf,20,1.02e-07,2.11929e-06,0,-1.06058e-07,-1.22034e+09,-1.22008e+09,-1.22036e+09,-14174.6,0.000966669,0.0365101,0,0.0365229,-33286.3,-43763.1,-0,54983.5,14174.6
step02_gravity_refstate-mantle.xmf,21,5.07704e-07,2.16256e-06,0,-4.14964e-08,-1.41614e+09,-1.41591e+09,-1.4162e+09,-5545.99,0.000873616,0.0232269,0,0.0232434,-38280.7,-49813.9,-0,62823.8,5545.99
step02_gravity_refstate-mantle.xmf,22,5.81323e-07,2.18134e-06,0,-4.03186e-11,-1.45943e+09,-1.45922e+09,-1.45951e+09,-5.38858,-1.81202e-20,0.0203103,-0,0.0203103,-40000,-51151.8,-0,64934.6,5.38858
step02_gravity_refstate-mantle.xmf,23,-9.02135e-08,2.14556e-06,0,-8.46714e-08,-1.16052e+09,-1.16022e+09,-1.1605e+09,-11316.3,0.000195375,0.0412401,0,0.0412406,-29974.1,-41913.8,-0,51528.7,11316.3
step02_gravity_refstate-mantle.xmf,24,-2.26463e-07,2.10894e-06,0,7.85171e-11,-1.09859e+09,-1.09828e+09,-1.09856e+09,10.4938,-0.000888923,0.0457404,-0,0.045749,-28873.1,-40000,-0,49332.1,10.4938
step02_gravity_refstate-mantle.xmf,25,4.28034e-07,2.15203e-06,0,-8.09641e-08,-1.37397e+09,-1.37374e+09,-1.37403e+09,-10820.9,0.00145904,0.0260782,0,0.026119,-36625.2,-48510.8,-0,60784.1,10820.9
step02_gravity_refstate-mantle.xmf,26,6.25138e-07,2.19771e-06,0,-3.89145e-08,-1.48723e+09,-1.48702e+09,-1.48731e+09,-5200.92,0.00108043,0.0184369,0,0.0184686,-38270.3,-52010.9,-0,64573.6,5200.92
step02_gravity_refstate-mantle.xmf,27,6.87665e-07,2.2237e-06,0,-1.9281e-10,-1.531e+09,-1.5308e+09,-1.5311e+09,-25.769,-2.10775e-20,0.0154398,-0,0.0154398,-40000,-53363.5,-0,66690.8,25.769
step02_gravity_refstate-mantle.xmf,28,3.16297e-08,2.14217e-06,0,-1.16668e-07,-1.20293e+09,-1.20265e+09,-1.20294e+09,-15592.6,0.000870855,0.0380212,0,0.0380312,-31421.9,-43224.9,-0,53439,15592.6
step02_gravity_refstate-mantle.xmf,29,-1.86918e-07,2.18725e-06,0,-6.56636e-08,-1.14711e+09,-1.14679e+09,-1.14709e+09,-8775.94,-0.000318761,0.0429761,-0,0.0429773,-27866.4,-41499.2,-0,49987.2,8775.94
step02_gravity_refstate-mantle.xmf,30,-3.11089e-07,2.16252e-06,0,2.06486e-08,-1.09861e+09,-1.09828e+09,-1.09857e+09,2759.68,-0.00140552,0.0467232,-0,0.0467443,-26946.1,-40000,-0,48229.6,2759.68
step02_gravity_refstate-mantle.xmf,31,3.50035e-07,2.14946e-06,0,-1.12055e-07,-1.33708e+09,-1.33684e+09,-1.33713e+09,-14976.2,0.00175259,0.0286045,0,0.0286581,-35162.4,-47370.8,-0,58994.8,14976.2
step02_gravity_refstate-mantle.xmf,32,2.52596e-07,2.15602e-06,0,-1.41222e-07,-1.29709e+09,-1.29684e+09,-1.29713e+09,-18874.3,0.0018699,0.0314271,0,0.0314827,-33374.7,-46135,-0,56941.3,18874.3
step02_gravity_refstate-mantle.xmf,33,5.54985e-07,2.18171e-06,0,-8.0543e-08,-1.44422e+09,-1.444e+09,-1.44429e+09,-10764.6,0.00188474,0.0213745,0,0.0214574,-36608.5,-50681.6,-0,62520.5,10764.6
step02_gravity_refstate-mantle.xmf,34,7.25651e-07,2.24565e-06,0,-3.34448e-08,-1.56008e+09,-1.55988e+09,-1.56018e+09,-4469.9,0.00130683,0.0134358,0,0.0134992,-38196,-54262.1,-0,66357.4,4469.9
step02_gravity_refstate-mantle.xmf,35,7.70085e-07,2.28113e-06,0,-2.98201e-10,-1.60258e+09,-1.60238e+09,-1.60269e+09,-39.8546,-2.65903e-20,0.0104593,-0,0.0104593,-40000,-55575.3,-0,68473.4,39.8546
step02_gravity_refstate-mantle.xmf,36,1.31566e-07,2.16581e-06,0,-1.49727e-07,-1.25165e+09,-1.25138e+09,-1.25167e+09,-20011,0.00157223,0.0347206,0,0.0347561,-31691.7,-44730.5,-0,54819.5,20011
step02_gravity_refstate-mantle.xmf,37,3.80201e-08,2.18965e-06,0,-1.51189e-07,-1.22541e+09,-1.22513e+09,-1.22542e+09,-20206.3,0.00128539,0.0368792,0,0.0369016,-30017.5,-43919.4,-0,53197.4,20206.3
step02_gravity_refstate-mantle.xmf,38,-6.64797e-08,2.21575e-06,0,-1.34942e-07,-1.19888e+09,-1.19858e+09,-1.19888e+09,-18035,0.00076145,0.0392037,0,0.0392111,-28446.2,-43099.3,-0,51640.4,18035
step02_gravity_refstate-mantle.xmf,39,-2.71259e-07,2.24328e-06,0,-4.95828e-08,-1.14512e+09,-1.14478e+09,-1.14508e+09,-6626.74,-0.000778138,0.0440968,-0,0.0441037,-26034.9,-41437.2,-0,48937.3,6626.74
step02_gravity_refstate-mantle.xmf,40,4.85696e-07,2.17602e-06,0,-1.16628e-07,-1.4075e+09,-1.40727e+09,-1.40756e+09,-15587.3,0.00236052,0.023896,0,0.0240123,-35194.4,-49547,-0,60774.6,15587.3
step02_gravity_refstate-mantle.xmf,41,6.68337e-07,2.21857e-06,0,-7.12692e-08,-1.51454e+09,-1.51433e+09,-1.51463e+09,-9525.12,0.00225316,0.0165927,0,0.016745,-36615.9,-52854.7,-0,64298.9,9525.12
step02_gravity_refstate-mantle.xmf,42,7.98501e-07,2.31143e-06,0,-2.78889e-08,-1.6319e+09,-1.6317e+09,-1.63201e+09,-3727.35,0.00172221,0.00838153,0,0.00855663,-37837.1,-56481.1,-0,67983.5,3727.35
step02_gravity_refstate-mantle.xmf,43,8.22389e-07,2.35875e-06,0,-2.36198e-11,-1.67417e+09,-1.67396e+09,-1.67428e+09,-3.15678,-1.94324e-20,0.00532957,-0,0.00532957,-40000,-57787,-0,70280.4,3.15678
step02_gravity_refstate-mantle.xmf,44,-4.02983e-07,2.21872e-06,0,5.11878e-08,-1.09862e+09,-1.09827e+09,-1.09857e+09,6841.24,-0.00206084,0.0479331,-0,0.0479774,-25106.5,-40000,-0,47226.4,6841.24
step02_gravity_refstate-mantle.xmf,45,-1.60782e-07,2.24892e-06,0,-1.12434e-07,-1.18095e+09,-1.18062e+09,-1.18092e+09,-15026.8,0.000209233,0.0411138,0,0.0411143,-26924.2,-42544.6,-0,50348.4,15026.8
step02_gravity_refstate-mantle.xmf,46,4.0567e-07,2.1824e-06,0,-1.57989e-07,-1.37167e+09,-1.37143e+09,-1.37172e+09,-21115.2,0.00278033,0.0264227,0,0.0265686,-33422.7,-48439.7,-0,58851.3,21115.2
step02_gravity_refstate-mantle.xmf,47,3.0256e-07,2.20202e-06,0,-1.94353e-07,-1.33326e+09,-1.33301e+09,-1.3333e+09,-25975.3,0.00292784,0.0292507,0,0.0293968,-31458.6,-47252.6,-0,56766.7,25975.3
step02_gravity_refstate-mantle.xmf,48,6.10772e-07,2.20586e-06,0,-1.11036e-07,-1.477e+09,-1.47678e+09,-1.47708e+09,-14840,0.00294747,0.0191914,0,0.0194164,-35165.4,-51694.7,-0,62521.6,14840
step02_gravity_refstate-mantle.xmf,49,7.51436e-07,2.26278e-06,0,-5.81792e-08,-1.57669e+09,-1.57649e+09,-1.57679e+09,-7775.65,0.00257431,0.0122896,0,0.0125563,-36547.3,-54775.4,-0,65848.7,7775.65
step02_gravity_refstate-mantle.xmf,50,8.33143e-07,2.38498e-06,0,-1.01515e-08,-1.69445e+09,-1.69424e+09,-1.69456e+09,-1356.75,0.00135643,0.00384254,0,0.00407492,-38368.2,-58413.8,-0,69887.7,1356.75
step02_gravity_refstate-mantle.xmf,51,8.38801e-07,2.45994e-06,0,2.75099e-09,-1.74579e+09,-1.74558e+09,-1.74591e+09,367.669,1.20664e-19,-4.87695e-20,0,1.30147e-19,-40000,-60000,-0,72111,367.669
step02_gravity_refstate-mantle.xmf,52,-3.57834e-07,2.30321e-06,0,-2.46698e-08,-1.14506e+09,-1.1447e+09,-1.14501e+09,-3297.12,-0.00132947,0.045308,-0,0.0453275,-24286.4,-41435,-0,48028,3297.12
step02_gravity_refstate-mantle.xmf,53,-5.00734e-07,2.27621e-06,0,9.49384e-08,-1.09864e+09,-1.09827e+09,-1.09857e+09,12688.5,-0.00285157,0.049393,-0,0.0494752,-23349.5,-40000,-0,46316.3,12688.5
step02_gravity_refstate-mantle.xmf,54,1.67187e-07,2.21666e-06,0,-1.95887e-07,-1.28399e+09,-1.28372e+09,-1.28401e+09,-26180.3,0.00237375,0.032878,0,0.0329635,-30066.2,-45729.7,-0,54728.3,26180.3
step02_gravity_refstate-mantle.xmf,55,5.75121e-08,2.2476e-06,0,-1.94529e-07,-1.25452e+09,-1.25423e+09,-1.25453e+09,-25998.7,0.00194364,0.0353491,0,0.0354025,-28493.1,-44818.9,-0,53109.3,25998.7
step02_gravity_refstate-mantle.xmf,56,-6.04825e-08,2.28493e-06,0,-1.75785e-07,-1.22738e+09,-1.22707e+09,-1.22738e+09,-23493.6,0.00130645,0.0378738,0,0.0378963,-26896.1,-43979.8,-0,51552.2,23493.6
step02_gravity_refstate-mantle.xmf,57,-2.02629e-07,2.32003e-06,0,-1.25784e-07,-1.19561e+09,-1.19527e+09,-1.19558e+09,-16811,0.000277901,0.0409891,0,0.04099,-25298,-42997.5,-0,49887.6,16811
step02_gravity_refstate-mantle.xmf,58,5.46951e-07,2.20605e-06,0,-1.56921e-07,-1.44226e+09,-1.44204e+09,-1.44234e+09,-20972.5,0.00360088,0.0216322,0,0.0219298,-33469.7,-50621.3,-0,60685.6,20972.5
step02_gravity_refstate-mantle.xmf,59,7.18745e-07,2.24554e-06,0,-9.55302e-08,-1.54599e+09,-1.54578e+09,-1.54608e+09,-12767.6,0.00351057,0.0144491,0,0.0148694,-35059.5,-53826.7,-0,64237.6,12767.6
step02_gravity_refstate-mantle.xmf,60,8.04317e-07,2.30695e-06,0,-6.29323e-08,-1.62296e+09,-1.62276e+09,-1.62307e+09,-8410.9,0.00372093,0.00903285,0,0.00976923,-35312,-56205.2,-0,66377.4,8410.9
step02_gravity_refstate-mantle.xmf,61,8.3895e-07,2.37681e-06,0,-2.48046e-08,-1.68704e+09,-1.68683e+09,-1.68715e+09,-3315.14,0.00289544,0.00439122,0,0.00525988,-36518.1,-58184.8,-0,68695.3,3315.14
step02_gravity_refstate-mantle.xmf,62,8.44802e-07,2.46013e-06,0,2.36336e-09,-1.74579e+09,-1.74558e+09,-1.74591e+09,315.864,0.00199152,-5.52011e-20,0,0.00199152,-37633.6,-60000,-0,70825.7,315.864
step02_gravity_refstate-mantle.xmf,63,-5.95414e-07,2.32824e-06,0,1.50868e-07,-1.09866e+09,-1.09827e+09,-1.09858e+09,20163.6,-0.00376768,0.0511253,-0,0.0512639,-21670.5,-40000,-0,45493,20163.6
step02_gravity_refstate-mantle.xmf,64,-4.42943e-07,2.37981e-06,0,7.68059e-09,-1.15186e+09,-1.15148e+09,-1.1518e+09,1026.51,-0.00186875,0.0464068,-0,0.0464444,-22467.3,-41644.6,-0,47318.6,1026.51
step02_gravity_refstate-mantle.xmf,65,-6.83278e-07,2.3677e-06,0,2.19255e-07,-1.09867e+09,-1.09826e+09,-1.09858e+09,29303.4,-0.00479148,0.0531501,-0,0.0533656,-20065.1,-40000,-0,44750.5,29303.4
step02_gravity_refstate-mantle.xmf,66,-5.61672e-07,2.42304e-06,0,9.88382e-08,-1.14032e+09,-1.13992e+09,-1.14025e+09,13209.7,-0.00309071,0.0491741,-0,0.0492712,-20742.1,-41287.5,-0,46204.9,13209.7
step02_gravity_refstate-mantle.xmf,67,2.76747e-07,2.23869e-06,0,-2.27555e-07,-1.3333e+09,-1.33304e+09,-1.33334e+09,-30412.7,0.00339185,0.0295258,0,0.02972,-29871.1,-47253.8,-0,55903.5,30412.7
step02_gravity_refstate-mantle.xmf,68,4.69919e-07,2.21962e-06,0,-2.02509e-07,-1.40833e+09,-1.4081e+09,-1.4084e+09,-27065.4,0.00405374,0.0240911,0,0.0244298,-31690,-49572.8,-0,58836.3,27065.4
step02_gravity_refstate-mantle.xmf,69,6.68578e-07,2.23524e-06,0,-1.43001e-07,-1.50947e+09,-1.50926e+09,-1.50956e+09,-19112.1,0.00434708,0.0170218,0,0.0175681,-33428.6,-52698.3,-0,62406.6,19112.1
step02_gravity_refstate-mantle.xmf,70,-2.98381e-07,2.37284e-06,0,-8.98067e-08,-1.18676e+09,-1.1864e+09,-1.18672e+09,-12002.7,-0.000366081,0.0427411,-0,0.0427427,-23714.5,-42723.6,-0,48863.9,12002.7
step02_gravity_refstate-mantle.xmf,71,-6.43151e-07,2.45979e-06,0,1.77745e-07,-1.13853e+09,-1.13812e+09,-1.13845e+09,23755.6,-0.00403499,0.0513135,-0,0.0514719,-19274.3,-41231.8,-0,45514.4,23755.6
step02_gravity_refstate-mantle.xmf,72,-7.55791e-07,2.39825e-06,0,3.06738e-07,-1.09868e+09,-1.09826e+09,-1.09858e+09,40995.5,-0.00589883,0.0554839,-0,0.0557966,-18528.8,-40000,-0,44083.1,40995.5
step02_gravity_refstate-mantle.xmf,73,-8.09486e-07,2.40669e-06,0,4.06052e-07,-1.0987e+09,-1.09827e+09,-1.09859e+09,54268.9,-0.00705697,0.0581372,-0,0.058564,-17057.5,-40000,-0,43485.2,54268.9
step02_gravity_refstate-mantle.xmf,74,-7.10595e-07,2.49633e-06,0,2.83782e-07,-1.13896e+09,-1.13853e+09,-1.13886e+09,37927.4,-0.00503003,0.0537222,-0,0.0539572,-17785.2,-41244.6,-0,44915.8,37927.4
step02_gravity_refstate-mantle.xmf,75,-8.43311e-07,2.38715e-06,0,5.13851e-07,-1.0987e+09,-1.09827e+09,-1.09859e+09,68676.2,-0.00822652,0.0611124,-0,0.0616637,-15647.1,-40000,-0,42951.5,68676.2
step02_gravity_refstate-mantle.xmf,76,-7.6443e-07,2.50125e-06,0,4.15503e-07,-1.13625e+09,-1.13581e+09,-1.13615e+09,55531.9,-0.00620956,0.0567625,-0,0.0571012,-16335.6,-41160.6,-0,44283.7,55531.9
step02_gravity_refstate-mantle.xmf,77,1.90282e-07,2.27056e-06,0,-2.40363e-07,-1.31012e+09,-1.30984e+09,-1.31014e+09,-32124.5,0.00321703,0.0314741,0,0.0316381,-28471,-46537.2,-0,54555.5,32124.5
step02_gravity_refstate-mantle.xmf,78,7.25482e-08,2.31217e-06,0,-2.36601e-07,-1.28148e+09,-1.28118e+09,-1.28149e+09,-31621.8,0.00270547,0.0340142,0,0.0341216,-26933.8,-45651.9,-0,53005,31621.8
step02_gravity_refstate-mantle.xmf,79,-5.72639e-08,2.35939e-06,0,-2.11984e-07,-1.25397e+09,-1.25365e+09,-1.25396e+09,-28331.7,0.00194515,0.0367172,0,0.0367687,-25386.4,-44801.3,-0,51494,28331.7
step02_gravity_refstate-mantle.xmf,80,3.9751e-07,2.24652e-06,0,-2.40156e-07,-1.38332e+09,-1.38307e+09,-1.38337e+09,-32096.8,0.00433475,0.0260291,0,0.0263876,-30037.5,-48799.7,-0,57303.2,32096.8
step02_gravity_refstate-mantle.xmf,81,6.09313e-07,2.23999e-06,0,-1.93821e-07,-1.47542e+09,-1.4752e+09,-1.4755e+09,-25904.2,0.00504028,0.0194658,0,0.0201077,-31714,-51646,-0,60606,25904.2
step02_gravity_refstate-mantle.xmf,82,7.697e-07,2.27637e-06,0,-1.15957e-07,-1.57667e+09,-1.57647e+09,-1.57678e+09,-15497.7,0.00501061,0.0123395,0,0.013318,-33339,-54774.9,-0,64123.2,15497.7
step02_gravity_refstate-mantle.xmf,83,8.58724e-07,2.38274e-06,0,-3.86364e-08,-1.68802e+09,-1.68782e+09,-1.68814e+09,-5163.76,0.00477111,0.00432594,0,0.00644028,-34311.6,-58215.3,-0,67574.5,5163.76
step02_gravity_refstate-mantle.xmf,84,8.61099e-07,2.46259e-06,0,2.05452e-09,-1.74579e+09,-1.74558e+09,-1.7459e+09,274.587,0.00391274,-5.46423e-20,0,0.00391274,-35381,-60000,-0,69655,274.587
step02_gravity_refstate-mantle.xmf,85,-1.85781e-07,2.40741e-06,0,-1.68215e-07,-1.23034e+09,-1.23e+09,-1.23032e+09,-22482,0.00103501,0.039383,0,0.0393966,-23898.7,-44070.8,-0,50133.6,22482
step02_gravity_refstate-mantle.xmf,86,-4.44032e-07,2.48176e-06,0,-1.24756e-08,-1.18574e+09,-1.18535e+09,-1.18568e+09,-1667.37,-0.00136246,0.0452979,-0,0.0453184,-21106.9,-42691.5,-0,47624.2,1667.37
step02_gravity_refstate-mantle.xmf,87,-3.20278e-07,2.44886e-06,0,-9.85214e-08,-1.20624e+09,-1.20587e+09,-1.2062e+09,-13167.4,-0.000127496,0.0423506,-0,0.0423508,-22465.6,-43325.4,-0,48803.6,13167.4
step02_gravity_refstate-mantle.xmf,88,-5.42558e-07,2.50584e-06,0,7.35523e-08,-1.17163e+09,-1.17122e+09,-1.17155e+09,9830.26,-0.00246491,0.0478657,-0,0.0479292,-19911.4,-42254.9,-0,46711.2,9830.26
step02_gravity_refstate-mantle.xmf,89,-7.90262e-07,2.477e-06,0,5.55475e-07,-1.1359e+09,-1.13546e+09,-1.13579e+09,74239.2,-0.00728929,0.0599187,-0,0.0603604,-14970.3,-41149.4,-0,43787.9,74239.2
step02_gravity_refstate-mantle.xmf,90,-8.18176e-07,2.33689e-06,0,6.39681e-07,-1.0987e+09,-1.09828e+09,-1.09859e+09,85493.4,-0.00936119,0.0644018,-0,0.0650786,-14293.4,-40000,-0,42477.1,85493.4
step02_gravity_refstate-mantle.xmf,91,-7.5832e-07,2.24778e-06,0,7.68831e-07,-1.0987e+09,-1.0983e+09,-1.0986e+09,102754,-0.0104064,0.0679868,-0,0.0687786,-12992.6,-40000,-0,42057.2,102754
step02_gravity_refstate-mantle.xmf,92,-7.64373e-07,2.43585e-06,0,7.58511e-07,-1.14052e+09,-1.14009e+09,-1.14042e+09,101375,-0.00826009,0.0635579,-0,0.0640924,-13476,-41292.4,-0,43435.7,101375
step02_gravity_refstate-mantle.xmf,93,3.16718e-07,2.2846e-06,0,-2.6901e-07,-1.36087e+09,-1.36061e+09,-1.36091e+09,-35953.2,0.00442532,0.0279102,0,0.0282588,-28436.2,-48105.8,-0,55881.9,35953.2
step02_gravity_refstate-mantle.xmf,94,5.38509e-07,2.25977e-06,0,-2.42248e-07,-1.44407e+09,-1.44384e+09,-1.44414e+09,-32376.5,0.00549865,0.0217985,0,0.0224813,-30037.3,-50677.2,-0,58910.2,32376.5
step02_gravity_refstate-mantle.xmf,95,7.2599e-07,2.26766e-06,0,-1.69748e-07,-1.53899e+09,-1.53879e+09,-1.53909e+09,-22686.8,0.00590064,0.0150403,0,0.0161564,-31663.5,-53610.7,-0,62263,22686.8
step02_gravity_refstate-mantle.xmf,96,8.42295e-07,2.33266e-06,0,-8.26563e-08,-1.63974e+09,-1.63954e+09,-1.63985e+09,-11047,0.00570735,0.00785421,0,0.00970889,-32997.2,-56723.6,-0,65623,11047
step02_gravity_refstate-mantle.xmf,97,-5.92721e-07,2.57901e-06,0,1.31959e-07,-1.18297e+09,-1.18255e+09,-1.18289e+09,17636.4,-0.00275549,0.0488558,-0,0.0489335,-18623,-42605.2,-0,46497.5,17636.4
step02_gravity_refstate-mantle.xmf,98,-6.81411e-07,2.62024e-06,0,2.81432e-07,-1.18033e+09,-1.17988e+09,-1.18023e+09,37613.4,-0.00394653,0.0520464,-0,0.0521958,-16935.1,-42522.9,-0,45771.1,37613.4
step02_gravity_refstate-mantle.xmf,99,-6.45924e-07,2.1152e-06,0,8.96277e-07,-1.09868e+09,-1.09832e+09,-1.0986e+09,119787,-0.0113092,0.0718331,-0,0.0727179,-11740.6,-40000,-0,41687.4,119787
step02_gravity_refstate-mantle.xmf,100,-6.89042e-07,2.29437e-06,0,9.21926e-07,-1.13056e+09,-1.13016e+09,-1.13046e+09,123215,-0.00962106,0.0681747,-0,0.0688502,-12202.9,-40984.7,-0,42762.8,123215
step02_gravity_refstate-mantle.xmf,101,-7.50034e-07,2.59659e-06,0,4.4626e-07,-1.1665e+09,-1.16605e+09,-1.1664e+09,59642.6,-0.00546476,0.0558843,-0,0.0561508,-15655.2,-42095.3,-0,44912.2,59642.6
step02_gravity_refstate-mantle.xmf,102,2.12258e-07,2.33038e-06,0,-2.82681e-07,-1.33495e+09,-1.33467e+09,-1.33498e+09,-37780.3,0.00416533,0.030183,0,0.030469,-26919.4,-47304.6,-0,54427.8,37780.3
step02_gravity_refstate-mantle.xmf,103,8.79592e-08,2.38407e-06,0,-2.76646e-07,-1.30788e+09,-1.30757e+09,-1.30789e+09,-36973.7,0.00359557,0.0327482,0,0.032945,-25419.9,-46467.7,-0,52966.1,36973.7
step02_gravity_refstate-mantle.xmf,104,-4.5926e-08,2.44152e-06,0,-2.48158e-07,-1.28218e+09,-1.28185e+09,-1.28217e+09,-33166.4,0.00278133,0.0354533,0,0.0355623,-23965.9,-45673,-0,51579,33166.4
step02_gravity_refstate-mantle.xmf,105,4.55754e-07,2.29378e-06,0,-2.8306e-07,-1.41547e+09,-1.41523e+09,-1.41553e+09,-37831,0.00571045,0.0240485,0,0.0247172,-28428.4,-49793.3,-0,57337.2,37831
step02_gravity_refstate-mantle.xmf,106,6.7227e-07,2.27726e-06,0,-2.25332e-07,-1.50596e+09,-1.50575e+09,-1.50605e+09,-30115.6,0.0066106,0.0174635,0,0.0186728,-29991.5,-52590,-0,60540.9,30115.6
step02_gravity_refstate-mantle.xmf,107,8.19657e-07,2.30878e-06,0,-1.31281e-07,-1.60161e+09,-1.60141e+09,-1.60172e+09,-17545.7,0.00665165,0.0106175,0,0.012529,-31538.2,-55545.5,-0,63874.6,17545.7
step02_gravity_refstate-mantle.xmf,108,8.90143e-07,2.39847e-06,0,-4.76102e-08,-1.69422e+09,-1.69402e+09,-1.69434e+09,-6363.1,0.0066203,0.00387911,0,0.00767306,-32216.6,-58407.1,-0,66703.1,6363.1
step02_gravity_refstate-mantle.xmf,109,8.86333e-07,2.46812e-06,0,1.7513e-09,-1.74578e+09,-1.74557e+09,-1.7459e+09,234.061,0.00578642,-4.96458e-20,0,0.00578642,-33236.8,-60000,-0,68590.7,234.061
step02_gravity_refstate-mantle.xmf,110,-4.59221e-07,2.57796e-06,0,-8.43902e-09,-1.21093e+09,-1.21052e+09,-1.21086e+09,-1127.87,-0.000948802,0.0447981,-0,0.0448081,-19896.3,-43469.5,-0,47806.5,1127.87
step02_gravity_refstate-mantle.xmf,111,-1.86198e-07,2.49708e-06,0,-1.93955e-07,-1.25731e+09,-1.25695e+09,-1.25728e+09,-25922,0.00172594,0.0383638,0,0.0384026,-22561.5,-44903.9,-0,50253.2,25922
step02_gravity_refstate-mantle.xmf,112,-3.28791e-07,2.54677e-06,0,-1.12026e-07,-1.23352e+09,-1.23314e+09,-1.23348e+09,-14972.2,0.000456257,0.0415176,0,0.0415201,-21168.4,-44168.4,-0,48979.1,14972.2
step02_gravity_refstate-mantle.xmf,113,-4.72248e-07,1.93367e-06,0,1.01808e-06,-1.09866e+09,-1.09834e+09,-1.0986e+09,136067,-0.0120073,0.0758913,-0,0.0768353,-10533.4,-40000,-0,41363.7,136067
step02_gravity_refstate-mantle.xmf,114,-5.7398e-07,2.14924e-06,0,1.08314e-06,-1.12891e+09,-1.12854e+09,-1.12883e+09,144762,-0.0104087,0.0720495,-0,0.0727975,-11085.7,-40934.1,-0,42408.7,144762
step02_gravity_refstate-mantle.xmf,115,-7.29529e-07,2.47076e-06,0,9.47802e-07,-1.16368e+09,-1.16325e+09,-1.16358e+09,126674,-0.00812155,0.0652951,-0,0.0657982,-12339.2,-42008,-0,43782.7,126674
step02_gravity_refstate-mantle.xmf,116,-7.66641e-07,2.64366e-06,0,5.97426e-07,-1.17962e+09,-1.17916e+09,-1.17952e+09,79845.9,-0.00581791,0.0578394,-0,0.0581313,-14431.1,-42500.6,-0,44883.8,79845.9
step02_gravity_refstate-mantle.xmf,117,3.5699e-07,2.34056e-06,0,-3.12063e-07,-1.38807e+09,-1.3878e+09,-1.38812e+09,-41707.3,0.00564689,0.0263576,0,0.0269557,-26890.2,-48946.3,-0,55846.4,41707.3
step02_gravity_refstate-mantle.xmf,118,5.98586e-07,2.30311e-06,0,-2.78381e-07,-1.47316e+09,-1.47293e+09,-1.47324e+09,-37205.6,0.00701906,0.0199566,0,0.021155,-28386.6,-51576.4,-0,58872.1,37205.6
step02_gravity_refstate-mantle.xmf,119,7.84091e-07,2.30295e-06,0,-1.90791e-07,-1.5656e+09,-1.56539e+09,-1.5657e+09,-25499.3,0.00754497,0.0132469,0,0.0152449,-29931.3,-54432.9,-0,62119.5,25499.3
step02_gravity_refstate-mantle.xmf,120,8.79303e-07,2.35599e-06,0,-9.20574e-08,-1.65284e+09,-1.65264e+09,-1.65296e+09,-12303.5,0.0072455,0.00692954,0,0.0100258,-31298,-57128.7,-0,65140.2,12303.5
step02_gravity_refstate-mantle.xmf,121,-4.92694e-07,2.67143e-06,0,1.96966e-08,-1.22895e+09,-1.22853e+09,-1.22889e+09,2632.45,-0.000719924,0.0449047,-0,0.0449104,-18766.9,-44026.5,-0,47859.4,2632.45
step02_gravity_refstate-mantle.xmf,122,-5.90947e-07,2.68391e-06,0,1.38747e-07,-1.2123e+09,-1.21187e+09,-1.21222e+09,18543.6,-0.00201439,0.047908,-0,0.0479503,-17755,-43511.5,-0,46994.6,18543.6
step02_gravity_refstate-mantle.xmf,123,-7.1837e-07,2.72956e-06,0,3.86615e-07,-1.2028e+09,-1.20234e+09,-1.20271e+09,51671.1,-0.00383462,0.0528871,-0,0.0530259,-15659,-43217.4,-0,45966.8,51671.1
step02_gravity_refstate-mantle.xmf,124,-2.32267e-07,1.70148e-06,0,1.12369e-06,-1.09863e+09,-1.09837e+09,-1.0986e+09,150182,-0.0124426,0.0800954,-0,0.0810561,-9366.97,-40000,-0,41082.1,150182
step02_gravity_refstate-mantle.xmf,125,-4.06798e-07,1.96541e-06,0,1.25028e-06,-1.12939e+09,-1.12907e+09,-1.12933e+09,167099,-0.0109397,0.0760329,-0,0.0768159,-9986.64,-40949.6,-0,42149.8,167099
step02_gravity_refstate-mantle.xmf,126,-6.63893e-07,2.33679e-06,0,1.08543e-06,-1.15436e+09,-1.15396e+09,-1.15427e+09,145067,-0.00910076,0.068835,-0,0.069434,-11499.6,-41720.2,-0,43276,145067
step02_gravity_refstate-mantle.xmf,127,-7.71561e-07,2.60233e-06,0,7.96806e-07,-1.17798e+09,-1.17753e+09,-1.17788e+09,106493,-0.00682974,0.0613898,-0,0.0617685,-13222.9,-42450,-0,44461.7,106493
step02_gravity_refstate-mantle.xmf,128,2.39133e-07,2.39842e-06,0,-3.24311e-07,-1.36078e+09,-1.36049e+09,-1.36081e+09,-43344.2,0.00527992,0.0288434,0,0.0293226,-25407.9,-48102.7,-0,54400.6,43344.2
step02_gravity_refstate-mantle.xmf,129,1.07835e-07,2.46414e-06,0,-3.15432e-07,-1.33484e+09,-1.33452e+09,-1.33485e+09,-42157.5,0.00464809,0.0314516,0,0.0317932,-23981.7,-47300.7,-0,53032.8,42157.5
step02_gravity_refstate-mantle.xmf,130,-3.73655e-08,2.53219e-06,0,-2.79682e-07,-1.30886e+09,-1.30851e+09,-1.30885e+09,-37379.5,0.00371681,0.0343146,0,0.0345153,-22616.4,-46497.3,-0,51705.9,37379.5
step02_gravity_refstate-mantle.xmf,131,5.05456e-07,2.34562e-06,0,-3.22553e-07,-1.44198e+09,-1.44173e+09,-1.44205e+09,-43109.2,0.00712597,0.0224616,0,0.0235649,-26855,-50612.6,-0,57296,43109.2
step02_gravity_refstate-mantle.xmf,132,7.28645e-07,2.31639e-06,0,-2.52643e-07,-1.53023e+09,-1.53001e+09,-1.53032e+09,-33765.8,0.00819294,0.0158884,0,0.0178764,-28339.5,-53340,-0,60401,33765.8
step02_gravity_refstate-mantle.xmf,133,8.78571e-07,2.34674e-06,0,-1.37922e-07,-1.62996e+09,-1.62976e+09,-1.63007e+09,-18433.3,0.00837958,0.00862772,0,0.0120273,-29808.3,-56421.8,-0,63811.8,18433.3
step02_gravity_refstate-mantle.xmf,134,9.2427e-07,2.40784e-06,0,-6.34623e-08,-1.69282e+09,-1.69262e+09,-1.69295e+09,-8481.73,0.0083929,0.00400061,0,0.00929762,-30256.3,-58364.1,-0,65740.5,8481.73
step02_gravity_refstate-mantle.xmf,135,9.19931e-07,2.47656e-06,0,2.18919e-09,-1.74578e+09,-1.74557e+09,-1.7459e+09,292.586,0.00762944,-5.13322e-20,0,0.00762944,-31195.7,-60000,-0,67625.2,292.586
step02_gravity_refstate-mantle.xmf,136,4.97036e-08,1.42967e-06,0,1.20407e-06,-1.09859e+09,-1.09841e+09,-1.0986e+09,160923,-0.012558,0.0843613,-0,0.0852909,-8237.32,-40000,-0,40839.4,160923
step02_gravity_refstate-mantle.xmf,137,-1.7902e-07,1.71627e-06,0,1.44593e-06,-1.13297e+09,-1.13272e+09,-1.13295e+09,193248,-0.0111571,0.0804425,-0,0.0812125,-8809.16,-41061.2,-0,41995.6,193248
step02_gravity_refstate-mantle.xmf,138,-3.4571e-07,2.66274e-06,0,-1.15154e-07,-1.26117e+09,-1.26077e+09,-1.26113e+09,-15390.4,0.00118458,0.0407545,0,0.0407717,-19875.7,-45022.7,-0,49214.7,15390.4
step02_gravity_refstate-mantle.xmf,139,-1.93243e-07,2.59871e-06,0,-2.1269e-07,-1.28303e+09,-1.28266e+09,-1.283e+09,-28426,0.00250606,0.0374856,0,0.0375692,-21264,-45698.7,-0,50403.7,28426
step02_gravity_refstate-mantle.xmf,140,-6.3836e-07,2.76117e-06,0,2.1486e-07,-1.22278e+09,-1.22232e+09,-1.22269e+09,28716.1,-0.00216491,0.0489265,-0,0.0489744,-16725.9,-43834.9,-0,46917.5,28716.1
step02_gravity_refstate-mantle.xmf,141,-5.31351e-07,2.77341e-06,0,5.90614e-08,-1.24648e+09,-1.24604e+09,-1.24641e+09,7893.55,-0.000440867,0.0450779,-0,0.0450801,-17724.2,-44567.9,-0,47962.9,7893.55
step02_gravity_refstate-mantle.xmf,142,-5.73477e-07,2.24923e-06,0,1.28361e-06,-1.16179e+09,-1.16142e+09,-1.16172e+09,171555,-0.00939599,0.0717746,-0,0.072387,-10551.5,-41950.2,-0,43256.9,171555
step02_gravity_refstate-mantle.xmf,143,-7.19681e-07,2.5037e-06,0,1.14084e-06,-1.1822e+09,-1.18177e+09,-1.18211e+09,152474,-0.00798715,0.0669056,-0,0.0673806,-11456.7,-42580.4,-0,44094.7,152474
step02_gravity_refstate-mantle.xmf,144,-7.88891e-07,2.67188e-06,0,9.41261e-07,-1.1964e+09,-1.19594e+09,-1.19629e+09,125800,-0.0066419,0.0624186,-0,0.0627709,-12423.6,-43018.9,-0,44776.9,125800
step02_gravity_refstate-mantle.xmf,145,-7.66256e-07,2.84677e-06,0,5.02095e-07,-1.22385e+09,-1.22336e+09,-1.22375e+09,67104.9,-0.00364163,0.0537296,-0,0.0538529,-14567.9,-43867.3,-0,46223,67104.9
step02_gravity_refstate-mantle.xmf,146,-8.02784e-07,2.78507e-06,0,7.21079e-07,-1.20994e+09,-1.20946e+09,-1.20983e+09,96372.2,-0.00517937,0.0579866,-0,0.0582174,-13471.6,-43437.2,-0,45478.3,96372.2
step02_gravity_refstate-mantle.xmf,147,3.9801e-07,2.40306e-06,0,-3.52851e-07,-1.41396e+09,-1.4137e+09,-1.41402e+09,-47158.5,0.00697979,0.024901,0,0.0258607,-25395.1,-49746.7,-0,55853.8,47158.5
step02_gravity_refstate-mantle.xmf,148,6.52625e-07,2.35048e-06,0,-3.11268e-07,-1.49721e+09,-1.49699e+09,-1.4973e+09,-41601,0.00856428,0.0184641,0,0.0203536,-26794.3,-52319.8,-0,58781.8,41601
step02_gravity_refstate-mantle.xmf,149,8.39528e-07,2.33992e-06,0,-2.06796e-07,-1.587e+09,-1.5868e+09,-1.58711e+09,-27638.3,0.00920342,0.0118094,0,0.0149721,-28260.9,-55094.6,-0,61920,27638.3
step02_gravity_refstate-mantle.xmf,150,1.44678e-07,1.38713e-06,0,1.53344e-06,-1.12874e+09,-1.12857e+09,-1.12876e+09,204944,-0.0113278,0.0853641,-0,0.0861124,-7658.35,-40931.9,-0,41642.1,204944
step02_gravity_refstate-mantle.xmf,151,-4.24103e-07,2.75239e-06,0,-5.63264e-08,-1.26481e+09,-1.26438e+09,-1.26475e+09,-7528.02,0.000879709,0.0420855,0,0.0420947,-18639.6,-45134.6,-0,48832.1,7528.02
step02_gravity_refstate-mantle.xmf,152,-6.9113e-07,2.8839e-06,0,2.9625e-07,-1.24254e+09,-1.24207e+09,-1.24245e+09,39593.8,-0.00191488,0.0494748,-0,0.0495118,-15643.6,-44445.5,-0,47118.2,39593.8
step02_gravity_refstate-mantle.xmf,153,-4.09281e-07,2.02569e-06,0,1.44715e-06,-1.1548e+09,-1.15447e+09,-1.15474e+09,193411,-0.0101515,0.076126,-0,0.0767998,-9563.11,-41734.7,-0,42816.3,193411
step02_gravity_refstate-mantle.xmf,154,2.72078e-07,2.47369e-06,0,-3.64801e-07,-1.38721e+09,-1.38691e+09,-1.38724e+09,-48755.7,0.00655224,0.0274562,0,0.0282272,-23978.4,-48919.5,-0,54480.1,48755.7
step02_gravity_refstate-mantle.xmf,155,1.26075e-07,2.55402e-06,0,-3.51571e-07,-1.36073e+09,-1.36041e+09,-1.36075e+09,-46987.5,0.00580845,0.0302453,0,0.030798,-22603.3,-48100.9,-0,53147,46987.5
step02_gravity_refstate-mantle.xmf,156,-2.65863e-08,2.63295e-06,0,-3.10195e-07,-1.33583e+09,-1.33548e+09,-1.33583e+09,-41457.5,0.00481206,0.0331412,0,0.0334888,-21348.2,-47331,-0,51922.7,41457.5
step02_gravity_refstate-mantle.xmf,157,5.60558e-07,2.4028e-06,0,-3.58757e-07,-1.46817e+09,-1.46792e+09,-1.46824e+09,-47947.8,0.00866524,0.0208867,0,0.0226128,-25352.4,-51422.2,-0,57332.2,47947.8
step02_gravity_refstate-mantle.xmf,158,7.89073e-07,2.35979e-06,0,-2.74325e-07,-1.55351e+09,-1.5533e+09,-1.55362e+09,-36663.6,0.00984698,0.0143708,0,0.0174208,-26758.9,-54059.7,-0,60319.9,36663.6
step02_gravity_refstate-mantle.xmf,159,9.1744e-07,2.37522e-06,0,-1.54903e-07,-1.63534e+09,-1.63515e+09,-1.63547e+09,-20702.8,0.010008,0.00829878,0,0.0130012,-28055,-56588.5,-0,63161.2,20702.8
step02_gravity_refstate-mantle.xmf,160,9.649e-07,2.4262e-06,0,-7.80238e-08,-1.69267e+09,-1.69247e+09,-1.6928e+09,-10427.9,0.0102262,0.00403999,0,0.0109953,-28315.8,-58359.7,-0,64866.4,10427.9
step02_gravity_refstate-mantle.xmf,161,9.60125e-07,2.48988e-06,0,2.27476e-09,-1.74577e+09,-1.74556e+09,-1.74589e+09,304.022,0.00945557,-5.22436e-20,0,0.00945557,-29252.7,-60000,-0,66751.2,304.022
step02_gravity_refstate-mantle.xmf,162,4.11161e-07,1.11017e-06,0,1.24737e-06,-1.09854e+09,-1.09845e+09,-1.09859e+09,166711,-0.0123085,0.0885885,-0,0.0894395,-7140.25,-40000,-0,40632.3,166711
step02_gravity_refstate-mantle.xmf,163,-8.46858e-08,1.6428e-06,0,1.7013e-06,-1.15404e+09,-1.15381e+09,-1.15403e+09,227379,-0.0105608,0.0824823,-0,0.0831557,-8060.54,-41712.5,-0,42484.1,227379
step02_gravity_refstate-mantle.xmf,164,-3.23518e-07,1.92705e-06,0,1.66265e-06,-1.16672e+09,-1.16642e+09,-1.16668e+09,222213,-0.0100329,0.0786021,-0,0.0792398,-8795.45,-42103.4,-0,43012.2,222213
step02_gravity_refstate-mantle.xmf,165,-1.81715e-07,2.70556e-06,0,-2.39543e-07,-1.31212e+09,-1.31174e+09,-1.3121e+09,-32015,0.00360566,0.0361927,0,0.0363719,-20170.7,-46597.7,-0,50776,32015
step02_gravity_refstate-mantle.xmf,166,-3.04805e-07,2.79154e-06,0,-1.66079e-07,-1.30156e+09,-1.30115e+09,-1.30152e+09,-22196.4,0.00279708,0.0385133,0,0.0386147,-18948.5,-46270.9,-0,50000.5,22196.4
step02_gravity_refstate-mantle.xmf,167,-4.44467e-07,2.86189e-06,0,-4.99182e-08,-1.28578e+09,-1.28534e+09,-1.28572e+09,-6671.57,0.00154973,0.0415768,0,0.0416057,-17771.9,-45782.6,-0,49110.9,6671.57
step02_gravity_refstate-mantle.xmf,168,-5.81369e-07,2.8931e-06,0,1.10358e-07,-1.26455e+09,-1.26409e+09,-1.26448e+09,14749.3,-0.000118026,0.0453663,-0,0.0453665,-16679.1,-45126.1,-0,48109.8,14749.3
step02_gravity_refstate-mantle.xmf,169,-5.46744e-07,2.24905e-06,0,1.54028e-06,-1.18311e+09,-1.18274e+09,-1.18304e+09,205858,-0.00911252,0.073806,-0,0.0743664,-9672.83,-42609.1,-0,43693.2,205858
step02_gravity_refstate-mantle.xmf,170,-7.64243e-07,3.02434e-06,0,4.01527e-07,-1.26173e+09,-1.26122e+09,-1.26163e+09,53664.1,-0.00169595,0.0502907,-0,0.0503193,-14569,-45037.9,-0,47335.7,53664.1
step02_gravity_refstate-mantle.xmf,171,-7.2002e-07,2.52852e-06,0,1.3568e-06,-1.19934e+09,-1.19891e+09,-1.19925e+09,181337,-0.00792254,0.0688223,-0,0.0692768,-10598.5,-43109.9,-0,44393.6,181337
step02_gravity_refstate-mantle.xmf,172,-8.22026e-07,2.74322e-06,0,1.13176e-06,-1.21478e+09,-1.21431e+09,-1.21467e+09,151260,-0.00654773,0.0639515,-0,0.0642859,-11543.1,-43586.7,-0,45089.3,151260
step02_gravity_refstate-mantle.xmf,173,-8.57699e-07,2.89297e-06,0,8.85446e-07,-1.22981e+09,-1.22931e+09,-1.22969e+09,118340,-0.00502915,0.0592201,-0,0.0594333,-12522.3,-44051,-0,45796.3,118340
step02_gravity_refstate-mantle.xmf,174,-8.34513e-07,2.98266e-06,0,6.35962e-07,-1.24509e+09,-1.24458e+09,-1.24498e+09,84996.3,-0.0033984,0.0546423,-0,0.0547479,-13543.7,-44523.4,-0,46537.8,84996.3
step02_gravity_refstate-mantle.xmf,175,4.4415e-07,2.47353e-06,0,-3.92294e-07,-1.43987e+09,-1.4396e+09,-1.43993e+09,-52430.1,0.00846154,0.0234444,0,0.0249247,-23940.7,-50547.4,-0,55930.3,52430.1
step02_gravity_refstate-mantle.xmf,176,7.16985e-07,2.40269e-06,0,-3.38271e-07,-1.5226e+09,-1.52238e+09,-1.5227e+09,-45209.9,0.0102428,0.0168582,0,0.019726,-25284.6,-53104.7,-0,58816.8,45209.9
step02_gravity_refstate-mantle.xmf,177,8.98762e-07,2.38144e-06,0,-2.17922e-07,-1.60738e+09,-1.60718e+09,-1.6075e+09,-29125.2,0.0108951,0.0104324,0,0.0150843,-26672.5,-55724.5,-0,61779,29125.2
step02_gravity_refstate-mantle.xmf,178,4.86726e-07,1.04741e-06,0,1.60762e-06,-1.12867e+09,-1.12859e+09,-1.12873e+09,214858,-0.0110019,0.0896587,-0,0.0903312,-6622.3,-40931.1,-0,41463.3,214858
step02_gravity_refstate-mantle.xmf,179,1.58619e-07,1.38462e-06,0,1.8766e-06,-1.16039e+09,-1.16022e+09,-1.16041e+09,250808,-0.010359,0.0863634,-0,0.0869824,-7114.32,-41909.4,-0,42509,250808
step02_gravity_refstate-mantle.xmf,180,-2.09199e-07,1.79013e-06,0,1.92306e-06,-1.18138e+09,-1.18111e+09,-1.18135e+09,257016,-0.00984914,0.0816394,-0,0.0822313,-7925.4,-42556.5,-0,43288.2,257016
step02_gravity_refstate-mantle.xmf,181,-6.54532e-07,3.02722e-06,0,1.86265e-07,-1.28069e+09,-1.2802e+09,-1.2806e+09,24894.3,7.86203e-05,0.0460886,0,0.0460886,-15598.7,-45624.4,-0,48217.3,24894.3
step02_gravity_refstate-mantle.xmf,182,3.03883e-07,2.55882e-06,0,-4.03608e-07,-1.41227e+09,-1.41197e+09,-1.41231e+09,-53942.2,0.00792212,0.0261788,0,0.0273513,-22590.6,-49694.2,-0,54588,53942.2
step02_gravity_refstate-mantle.xmf,183,1.48162e-07,2.65251e-06,0,-3.87431e-07,-1.38661e+09,-1.38628e+09,-1.38663e+09,-51780.2,0.00710681,0.0290171,0,0.0298747,-21315.8,-48900.8,-0,53344.6,51780.2
step02_gravity_refstate-mantle.xmf,184,-1.32355e-08,2.74789e-06,0,-3.4306e-07,-1.36364e+09,-1.36328e+09,-1.36364e+09,-45849.9,0.00609819,0.0319001,0,0.0324778,-20119.2,-48190.4,-0,52221.7,45849.9
step02_gravity_refstate-mantle.xmf,185,6.19687e-07,2.46872e-06,0,-3.9321e-07,-1.49357e+09,-1.49332e+09,-1.49365e+09,-52552.5,0.0103478,0.0193708,0,0.0219615,-23852.6,-52207.3,-0,57398.1,52552.5
step02_gravity_refstate-mantle.xmf,186,8.56655e-07,2.40905e-06,0,-2.90101e-07,-1.5768e+09,-1.5766e+09,-1.57692e+09,-38771.9,0.0116097,0.0128384,0,0.0173092,-25215.3,-54779.9,-0,60304.6,38771.9
step02_gravity_refstate-mantle.xmf,187,9.79641e-07,2.41826e-06,0,-1.41494e-07,-1.6612e+09,-1.66101e+09,-1.66133e+09,-18910.7,0.011634,0.00644368,0,0.0132993,-26626.7,-57387.7,-0,63264,18910.7
step02_gravity_refstate-mantle.xmf,188,1.00534e-06,2.51081e-06,0,1.10128e-09,-1.74575e+09,-1.74555e+09,-1.74589e+09,147.186,0.0112741,-3.83545e-20,0,0.0112741,-27403,-60000,-0,65961.6,147.186
step02_gravity_refstate-mantle.xmf,189,8.15979e-07,7.61835e-07,0,1.24407e-06,-1.09848e+09,-1.09849e+09,-1.09859e+09,166270,-0.0116566,0.0926592,-0,0.0933895,-6071.51,-40000,-0,40458.2,166270
step02_gravity_refstate-mantle.xmf,190,-5.6918e-08,1.59079e-06,0,2.16923e-06,-1.19487e+09,-1.19465e+09,-1.19486e+09,289918,-0.0096807,0.0850243,-0,0.0855736,-7064.31,-42973.7,-0,43550.5,289918
step02_gravity_refstate-mantle.xmf,191,-5.08205e-07,2.1778e-06,0,1.82017e-06,-1.19844e+09,-1.19808e+09,-1.19837e+09,243265,-0.0090875,0.0766222,-0,0.0771592,-8788.84,-43082.5,-0,43969.8,243265
step02_gravity_refstate-mantle.xmf,192,-4.57065e-07,2.07366e-06,0,2.14182e-06,-1.21646e+09,-1.21613e+09,-1.2164e+09,286255,-0.00905195,0.0798175,-0,0.0803292,-7868.98,-43639.4,-0,44343.2,286255
step02_gravity_refstate-mantle.xmf,193,-1.73248e-07,2.84544e-06,0,-2.71973e-07,-1.34451e+09,-1.3441e+09,-1.34448e+09,-36349.1,0.00501027,0.03478,0,0.035139,-18941.8,-47598.4,-0,51228.9,36349.1
step02_gravity_refstate-mantle.xmf,194,-3.34265e-07,2.94417e-06,0,-1.70617e-07,-1.3281e+09,-1.32766e+09,-1.32805e+09,-22803,0.00382087,0.0377982,0,0.0379908,-17759.4,-47090.8,-0,50328.3,22803
step02_gravity_refstate-mantle.xmf,195,-5.18352e-07,3.03748e-06,0,-6.8149e-09,-1.30923e+09,-1.30875e+09,-1.30916e+09,-910.812,0.00221107,0.0416425,0,0.0417011,-16481.4,-46506.9,-0,49341,910.812
step02_gravity_refstate-mantle.xmf,196,-7.51538e-07,3.18268e-06,0,2.90898e-07,-1.29611e+09,-1.29559e+09,-1.29601e+09,38878.6,0.000192479,0.0471429,0,0.0471433,-14509.2,-46100.6,-0,48329.9,38878.6
step02_gravity_refstate-mantle.xmf,197,-7.26315e-07,2.53468e-06,0,1.61141e-06,-1.21591e+09,-1.21547e+09,-1.21581e+09,215365,-0.00794633,0.071186,-0,0.0716281,-9719.33,-43621.6,-0,44691.2,215365
step02_gravity_refstate-mantle.xmf,198,-8.56147e-07,3.18304e-06,0,5.19126e-07,-1.28101e+09,-1.28047e+09,-1.28089e+09,69381.2,-0.0014511,0.051175,-0,0.0511956,-13559.3,-45633.3,-0,47605.2,69381.2
step02_gravity_refstate-mantle.xmf,199,-8.70399e-07,2.81184e-06,0,1.35398e-06,-1.2325e+09,-1.232e+09,-1.23238e+09,180959,-0.00653994,0.0658313,-0,0.0661554,-10662.7,-44133.7,-0,45403.5,180959
step02_gravity_refstate-mantle.xmf,200,-9.32842e-07,3.00743e-06,0,1.07369e-06,-1.24867e+09,-1.24815e+09,-1.24855e+09,143499,-0.00494927,0.0607052,-0,0.0609066,-11607.4,-44633.5,-0,46118.2,143499
step02_gravity_refstate-mantle.xmf,201,-9.22441e-07,3.12301e-06,0,7.9119e-07,-1.26397e+09,-1.26343e+09,-1.26385e+09,105743,-0.00326997,0.0558715,-0,0.0559671,-12575.2,-45106.4,-0,46826.5,105743
step02_gravity_refstate-mantle.xmf,202,4.86846e-07,2.5549e-06,0,-4.31253e-07,-1.46324e+09,-1.46296e+09,-1.46331e+09,-57636.9,0.0100079,0.0221912,0,0.0243435,-22501.5,-51269.8,-0,55990.3,57636.9
step02_gravity_refstate-mantle.xmf,203,7.88579e-07,2.46261e-06,0,-3.61349e-07,-1.54761e+09,-1.54739e+09,-1.54772e+09,-48294.3,0.012066,0.0152695,0,0.0194614,-23779.6,-53877.8,-0,58892.2,48294.3
step02_gravity_refstate-mantle.xmf,204,9.68839e-07,2.42916e-06,0,-2.17501e-07,-1.63056e+09,-1.63036e+09,-1.63069e+09,-29069.1,0.0126923,0.00882679,0,0.0154598,-25140.6,-56441.2,-0,61787.2,29069.1
step02_gravity_refstate-mantle.xmf,205,1.02071e-06,2.46845e-06,0,-6.62899e-08,-1.70826e+09,-1.70806e+09,-1.70839e+09,-8859.64,0.0120267,0.00289104,0,0.0123693,-26579,-58841.7,-0,64566.1,8859.64
step02_gravity_refstate-mantle.xmf,206,8.77818e-07,6.59202e-07,0,1.64834e-06,-1.1321e+09,-1.13213e+09,-1.13222e+09,220301,-0.0101716,0.0940125,-0,0.0945611,-5533.43,-41038.7,-0,41410.1,220301
step02_gravity_refstate-mantle.xmf,207,5.06085e-07,9.95553e-07,0,1.88611e-06,-1.15377e+09,-1.15371e+09,-1.15384e+09,252079,-0.0102006,0.0905992,-0,0.0911716,-6215.97,-41706.5,-0,42167.2,252079
step02_gravity_refstate-mantle.xmf,208,3.10895e-07,1.17075e-06,0,2.16332e-06,-1.18123e+09,-1.18111e+09,-1.18127e+09,289128,-0.00978565,0.0894641,-0,0.0899977,-6264.84,-42553.7,-0,43012.4,289128
step02_gravity_refstate-mantle.xmf,209,-2.39856e-07,1.78388e-06,0,2.37839e-06,-1.22018e+09,-1.21991e+09,-1.22014e+09,317872,-0.00929484,0.0842528,-0,0.0847639,-6957.55,-43754.7,-0,44304.5,317872
step02_gravity_refstate-mantle.xmf,210,-6.36997e-07,3.15479e-06,0,1.1464e-07,-1.31042e+09,-1.30992e+09,-1.31034e+09,15321.6,0.00162911,0.0437863,0,0.0438166,-15350,-46543.3,-0,49009.2,15321.6
step02_gravity_refstate-mantle.xmf,211,3.31362e-07,2.65465e-06,0,-4.40228e-07,-1.4351e+09,-1.43478e+09,-1.43514e+09,-58836.5,0.00933181,0.0250788,0,0.0267588,-21254.7,-50399.6,-0,54698.1,58836.5
step02_gravity_refstate-mantle.xmf,212,1.6728e-07,2.76514e-06,0,-4.2368e-07,-1.41153e+09,-1.41118e+09,-1.41155e+09,-56624.9,0.00850744,0.0278794,0,0.0291486,-20049,-49670.8,-0,53564.4,56624.9
step02_gravity_refstate-mantle.xmf,213,-6.56303e-09,2.8796e-06,0,-3.76172e-07,-1.39009e+09,-1.3897e+09,-1.39009e+09,-50275.4,0.00747172,0.0307867,0,0.0316804,-18904.7,-49007.7,-0,52527.5,50275.4
step02_gravity_refstate-mantle.xmf,214,6.89223e-07,2.55035e-06,0,-4.28625e-07,-1.51865e+09,-1.5184e+09,-1.51874e+09,-57285.7,0.0122861,0.0179196,0,0.021727,-22219.7,-52982.8,-0,57453.4,57285.7
step02_gravity_refstate-mantle.xmf,215,9.34365e-07,2.46416e-06,0,-2.96176e-07,-1.60126e+09,-1.60105e+09,-1.60138e+09,-39583.9,0.0134766,0.011192,0,0.017518,-23736.8,-55535.9,-0,60395.9,39583.9
step02_gravity_refstate-mantle.xmf,216,1.0552e-06,2.48168e-06,0,-1.10012e-07,-1.69309e+09,-1.6929e+09,-1.69324e+09,-14703.1,0.0136214,0.00409306,0,0.0142231,-24954.9,-58373.6,-0,63484.1,14703.1
step02_gravity_refstate-mantle.xmf,217,1.05745e-06,2.53735e-06,0,3.03512e-09,-1.74574e+09,-1.74554e+09,-1.74588e+09,405.644,0.013089,-5.34209e-20,0,0.013089,-25642.2,-60000,-0,65249.7,405.644
step02_gravity_refstate-mantle.xmf,218,-5.2346e-07,2.135e-06,0,2.40594e-06,-1.24142e+09,-1.24106e+09,-1.24135e+09,321555,-0.00880755,0.0810972,-0,0.0815741,-7310.04,-44409.9,-0,45007.5,321555
step02_gravity_refstate-mantle.xmf,219,1.24273e-06,4.0096e-07,0,1.18319e-06,-1.09842e+09,-1.09853e+09,-1.09858e+09,158134,-0.0105846,0.0964436,-0,0.0970227,-5026.7,-40000,-0,40314.6,158134
step02_gravity_refstate-mantle.xmf,220,9.37111e-08,1.349e-06,0,2.43177e-06,-1.20998e+09,-1.20981e+09,-1.20999e+09,325006,-0.0094687,0.0883965,-0,0.0889022,-6255.77,-43441,-0,43889.1,325006
step02_gravity_refstate-mantle.xmf,221,-7.36862e-07,2.48548e-06,0,1.91973e-06,-1.23057e+09,-1.23014e+09,-1.23047e+09,256571,-0.00812862,0.0742473,-0,0.0746909,-8802.03,-44074.2,-0,44944.5,256571
step02_gravity_refstate-mantle.xmf,222,-1.87357e-07,3.00047e-06,0,-2.95779e-07,-1.37151e+09,-1.37109e+09,-1.37149e+09,-39530.8,0.00630568,0.0338237,0,0.0344064,-17748.5,-48433,-0,51582.6,39530.8
step02_gravity_refstate-mantle.xmf,223,-3.73825e-07,3.11772e-06,0,-1.76152e-07,-1.35424e+09,-1.35377e+09,-1.35419e+09,-23542.7,0.00494986,0.0371228,0,0.0374513,-16617.5,-47898.4,-0,50699.1,23542.7
step02_gravity_refstate-mantle.xmf,224,-5.55388e-07,3.23109e-06,0,-1.99408e-08,-1.34036e+09,-1.33986e+09,-1.34029e+09,-2665.08,0.00355585,0.0405501,0,0.0407058,-15484.3,-47468.9,-0,49930.6,2665.08
step02_gravity_refstate-mantle.xmf,225,-7.1442e-07,3.31734e-06,0,1.60951e-07,-1.32835e+09,-1.32781e+09,-1.32825e+09,21511.1,0.00214774,0.0439835,0,0.0440359,-14476.8,-47097,-0,49271.7,21511.1
step02_gravity_refstate-mantle.xmf,226,-8.58315e-07,3.36111e-06,0,3.88757e-07,-1.31406e+09,-1.31349e+09,-1.31394e+09,51957.3,0.000484656,0.047944,0,0.0479465,-13520.3,-46654.6,-0,48574.2,51957.3
step02_gravity_refstate-mantle.xmf,227,-9.3007e-07,2.86983e-06,0,1.60956e-06,-1.24965e+09,-1.24914e+09,-1.24953e+09,215118,-0.00663054,0.0680635,-0,0.0683857,-9788.67,-44663.4,-0,45723.5,215118
step02_gravity_refstate-mantle.xmf,228,-9.69008e-07,3.34968e-06,0,6.58588e-07,-1.29836e+09,-1.29779e+09,-1.29824e+09,88020.2,-0.00133129,0.052384,-0,0.0524009,-12589.9,-46169.1,-0,47854.9,88020.2
step02_gravity_refstate-mantle.xmf,229,-1.02519e-06,3.12086e-06,0,1.28681e-06,-1.2664e+09,-1.26584e+09,-1.26626e+09,171982,-0.00497087,0.0624772,-0,0.0626746,-10723.6,-45180.6,-0,46435.8,171982
step02_gravity_refstate-mantle.xmf,230,-1.03034e-06,3.27202e-06,0,9.65218e-07,-1.28207e+09,-1.2815e+09,-1.28193e+09,129001,-0.00320378,0.057296,-0,0.0573855,-11653.6,-45665.2,-0,47128.7,129001
step02_gravity_refstate-mantle.xmf,231,-8.36461e-07,2.58042e-06,0,2.17313e-06,-1.25411e+09,-1.25366e+09,-1.254e+09,290439,-0.00791471,0.0755302,-0,0.0759437,-8178.71,-44801.1,-0,45541.5,290439
step02_gravity_refstate-mantle.xmf,232,5.09619e-07,2.64718e-06,0,-4.6481e-07,-1.47999e+09,-1.47971e+09,-1.48006e+09,-62121.9,0.0113798,0.0214552,0,0.0242863,-21150.6,-51787.6,-0,55940.2,62121.9
step02_gravity_refstate-mantle.xmf,233,8.71258e-07,2.52676e-06,0,-3.75176e-07,-1.57298e+09,-1.57276e+09,-1.5731e+09,-50142.2,0.0139881,0.0136152,0,0.0195203,-22361,-54662.1,-0,59059,50142.2
step02_gravity_refstate-mantle.xmf,234,1.04717e-06,2.48735e-06,0,-2.05242e-07,-1.65434e+09,-1.65415e+09,-1.65448e+09,-27430.6,0.0146223,0.00714489,0,0.0162746,-23593.4,-57176.6,-0,61853.2,27430.6
step02_gravity_refstate-mantle.xmf,235,-2.10033e-07,1.65101e-06,0,2.66127e-06,-1.23877e+09,-1.23852e+09,-1.23874e+09,355679,-0.00920988,0.0866226,-0,0.0871109,-6338.52,-44329,-0,44779.9,355679
step02_gravity_refstate-mantle.xmf,236,7.0558e-07,7.38871e-07,0,2.04259e-06,-1.16659e+09,-1.16659e+09,-1.16669e+09,272992,-0.00956713,0.093472,-0,0.0939603,-5486.96,-42103.2,-0,42459.2,272992
step02_gravity_refstate-mantle.xmf,237,1.3194e-06,2.45363e-07,0,1.49496e-06,-1.12672e+09,-1.12686e+09,-1.12689e+09,199801,-0.00913269,0.0980783,-0,0.0985026,-4486.18,-40874.3,-0,41119.7,199801
step02_gravity_refstate-mantle.xmf,238,5.1077e-07,8.72636e-07,0,2.37509e-06,-1.19637e+09,-1.19633e+09,-1.19644e+09,317430,-0.00932734,0.0927944,-0,0.093262,-5474.87,-43022.2,-0,43369.2,317430
step02_gravity_refstate-mantle.xmf,239,1.6645e-06,4.82269e-08,0,1.05796e-06,-1.09836e+09,-1.09857e+09,-1.09858e+09,141396,-0.00909725,0.099805,-0,0.100219,-4001.3,-40000,-0,40199.6,141396
step02_gravity_refstate-mantle.xmf,240,-8.46589e-07,2.53756e-06,0,2.46242e-06,-1.27026e+09,-1.26981e+09,-1.27015e+09,329103,-0.00809118,0.0781972,-0,0.0786147,-7457.79,-45299.7,-0,45909.5,329103
step02_gravity_refstate-mantle.xmf,241,3.56496e-07,2.76069e-06,0,-4.76965e-07,-1.45645e+09,-1.45612e+09,-1.45649e+09,-63746.4,0.010787,0.0240869,0,0.026392,-19987.4,-51059.6,-0,54832.2,63746.4
step02_gravity_refstate-mantle.xmf,242,1.83365e-07,2.89023e-06,0,-4.60715e-07,-1.43494e+09,-1.43458e+09,-1.43496e+09,-61574.5,0.00996779,0.0268536,0,0.0286439,-18834,-50394.4,-0,53798.8,61574.5
step02_gravity_refstate-mantle.xmf,243,-1.0618e-08,3.02894e-06,0,-4.08516e-07,-1.41425e+09,-1.41385e+09,-1.41425e+09,-54598.2,0.00886362,0.029885,0,0.0311718,-17711.6,-49754.5,-0,52813,54598.2
step02_gravity_refstate-mantle.xmf,244,6.54081e-07,2.65072e-06,0,-4.70174e-07,-1.51706e+09,-1.51679e+09,-1.51715e+09,-62838.7,0.0131379,0.0185511,0,0.0227321,-20861.5,-52933.6,-0,56896.1,62838.7
step02_gravity_refstate-mantle.xmf,245,8.16459e-07,2.61112e-06,0,-4.35394e-07,-1.55576e+09,-1.55552e+09,-1.55587e+09,-58190.4,0.014537,0.0153378,0,0.0211323,-21034.3,-54130,-0,58073.2,58190.4
step02_gravity_refstate-mantle.xmf,246,1.02208e-06,2.52618e-06,0,-2.89427e-07,-1.62573e+09,-1.62553e+09,-1.62586e+09,-38682,0.0154189,0.009504,0,0.0181127,-22313,-56292.5,-0,60553.5,38682
step02_gravity_refstate-mantle.xmf,247,1.12372e-06,2.54126e-06,0,-1.06916e-07,-1.70259e+09,-1.7024e+09,-1.70274e+09,-14289.4,0.0156913,0.00342435,0,0.0160606,-23123.5,-58667.6,-0,63060.2,14289.4
step02_gravity_refstate-mantle.xmf,248,1.11202e-06,2.574e-06,0,2.24447e-09,-1.74573e+09,-1.74553e+09,-1.74587e+09,299.973,0.0149083,-4.62279e-20,0,0.0149083,-23965.9,-60000,-0,64609.3,299.973
step02_gravity_refstate-mantle.xmf,249,-5.74559e-07,2.1002e-06,0,2.6781e-06,-1.25878e+09,-1.25842e+09,-1.2587e+09,357928,-0.00880074,0.0829285,-0,0.0833942,-6782.01,-44945.7,-0,45454.5,357928
step02_gravity_refstate-mantle.xmf,250,1.06598e-06,4.01468e-07,0,1.83208e-06,-1.15133e+09,-1.15142e+09,-1.15147e+09,244858,-0.0091402,0.0966142,-0,0.0970456,-4808.38,-41633.2,-0,41910,244858
step02_gravity_refstate-mantle.xmf,251,2.76736e-07,1.03269e-06,0,2.67197e-06,-1.22442e+09,-1.22432e+09,-1.22446e+09,357109,-0.00925354,0.0918955,-0,0.0923602,-5490.69,-43887.3,-0,44229.5,357109
step02_gravity_refstate-mantle.xmf,252,1.69359e-06,-1.06555e-07,0,1.31224e-06,-1.12551e+09,-1.12575e+09,-1.12573e+09,175381,-0.00772561,0.101253,-0,0.101548,-3538.8,-40838.5,-0,40991.6,175381
step02_gravity_refstate-mantle.xmf,253,2.04714e-06,-2.68346e-07,0,8.69146e-07,-1.0983e+09,-1.09861e+09,-1.09857e+09,116161,-0.0072234,0.102606,-0,0.10286,-2990.68,-40000,-0,40111.6,116161
step02_gravity_refstate-mantle.xmf,254,-1.03125e-06,2.92809e-06,0,1.88873e-06,-1.26732e+09,-1.26679e+09,-1.26718e+09,252428,-0.00673771,0.0703071,-0,0.0706292,-8979.99,-45208.7,-0,46091.9,252428
step02_gravity_refstate-mantle.xmf,255,-2.18599e-07,3.17039e-06,0,-3.14847e-07,-1.39482e+09,-1.39436e+09,-1.39479e+09,-42079.3,0.00751807,0.0331883,0,0.0340292,-16611,-49153,-0,51883.9,42079.3
step02_gravity_refstate-mantle.xmf,256,-4.31393e-07,3.30874e-06,0,-1.77194e-07,-1.37744e+09,-1.37694e+09,-1.37738e+09,-23682,0.00601099,0.0367317,0,0.0372203,-15520.6,-48615.2,-0,51032.6,23682
step02_gravity_refstate-mantle.xmf,257,-6.36082e-07,3.43016e-06,0,2.79507e-09,-1.36209e+09,-1.36155e+09,-1.362e+09,373.561,0.00439957,0.040462,0,0.0407005,-14477.9,-48140,-0,50270,373.561
step02_gravity_refstate-mantle.xmf,258,-8.21354e-07,3.51506e-06,0,2.2393e-07,-1.34705e+09,-1.34647e+09,-1.34694e+09,29928.2,0.00265553,0.0444408,0,0.0445201,-13519.3,-47674.4,-0,49554.2,29928.2
step02_gravity_refstate-mantle.xmf,259,-9.84225e-07,3.55547e-06,0,4.97094e-07,-1.33156e+09,-1.33096e+09,-1.33143e+09,66436.7,0.00074474,0.0488878,0,0.0488935,-12575.6,-47195,-0,48841.7,66436.7
step02_gravity_refstate-mantle.xmf,260,-1.13151e-06,3.22708e-06,0,1.52781e-06,-1.28321e+09,-1.28263e+09,-1.28306e+09,204192,-0.0051036,0.0645609,-0,0.0647624,-9864.52,-45699.7,-0,46752.2,204192
step02_gravity_refstate-mantle.xmf,261,-1.10153e-06,3.52966e-06,0,8.12014e-07,-1.31555e+09,-1.31493e+09,-1.3154e+09,108526,-0.00124412,0.0537259,-0,0.0537404,-11668.1,-46699.4,-0,48135,108526
step02_gravity_refstate-mantle.xmf,262,-1.15745e-06,3.4257e-06,0,1.16118e-06,-1.29942e+09,-1.29881e+09,-1.29926e+09,155192,-0.00322474,0.0589626,-0,0.0590507,-10766.4,-46200.6,-0,47438.5,155192
step02_gravity_refstate-mantle.xmf,263,-1.11595e-06,2.96486e-06,0,2.18525e-06,-1.28444e+09,-1.28389e+09,-1.28429e+09,292058,-0.00692942,0.0727758,-0,0.073105,-8208.6,-45736.9,-0,46467.7,292058
step02_gravity_refstate-mantle.xmf,264,5.41718e-07,2.74698e-06,0,-5.00802e-07,-1.49842e+09,-1.49812e+09,-1.49849e+09,-66932.2,0.0128907,0.0205755,0,0.02428,-19885.3,-52357.3,-0,56006.4,66932.2
step02_gravity_refstate-mantle.xmf,265,9.73937e-07,2.59696e-06,0,-3.75665e-07,-1.60138e+09,-1.60116e+09,-1.60151e+09,-50207.6,0.0160963,0.0116703,0,0.0198819,-21002.7,-55540.4,-0,59378.8,50207.6
step02_gravity_refstate-mantle.xmf,266,1.11535e-06,2.54336e-06,0,-1.93437e-07,-1.67079e+09,-1.6706e+09,-1.67094e+09,-25852.8,0.016267,0.00597367,0,0.0173292,-22297.6,-57685.3,-0,61844.8,25852.8
step02_gravity_refstate-mantle.xmf,267,-4.34819e-07,1.85524e-06,0,2.93362e-06,-1.26647e+09,-1.26616e+09,-1.26641e+09,392078,-0.00903485,0.0863732,-0,0.0868444,-6127.86,-45183.5,-0,45597.1,392078
step02_gravity_refstate-mantle.xmf,268,-8.73947e-07,2.44248e-06,0,2.79737e-06,-1.28468e+09,-1.28423e+09,-1.28456e+09,373868,-0.00835224,0.0811351,-0,0.0815639,-6778.96,-45744.6,-0,46244.2,373868
step02_gravity_refstate-mantle.xmf,269,1.01696e-06,3.44344e-07,0,2.14277e-06,-1.17925e+09,-1.17934e+09,-1.17939e+09,286381,-0.00869428,0.0972978,-0,0.0976855,-4570.25,-42495.3,-0,42740.4,286381
step02_gravity_refstate-mantle.xmf,270,1.37853e-06,6.46183e-08,0,1.73846e-06,-1.15302e+09,-1.1532e+09,-1.15321e+09,232345,-0.00816062,0.0996541,-0,0.0999877,-4020.48,-41686.8,-0,41880.3,232345
step02_gravity_refstate-mantle.xmf,271,7.5938e-07,4.86489e-07,0,2.54776e-06,-1.21132e+09,-1.21136e+09,-1.21143e+09,340508,-0.00883043,0.0962871,-0,0.0966911,-4703.69,-43484.7,-0,43738.3,340508
step02_gravity_refstate-mantle.xmf,272,2.02401e-06,-4.19097e-07,0,1.05287e-06,-1.12505e+09,-1.12537e+09,-1.12532e+09,140716,-0.00598896,0.103846,-0,0.104018,-2600.49,-40825.6,-0,40908.4,140716
step02_gravity_refstate-mantle.xmf,273,2.41485e-08,1.23053e-06,0,2.96672e-06,-1.2515e+09,-1.25134e+09,-1.2515e+09,396503,-0.0092347,0.0911097,-0,0.0915765,-5462.45,-44722.7,-0,45055,396503
step02_gravity_refstate-mantle.xmf,274,-1.16581e-06,2.94901e-06,0,2.50568e-06,-1.29997e+09,-1.29942e+09,-1.29981e+09,334884,-0.00726785,0.0757482,-0,0.0760961,-7447.05,-46216.3,-0,46812.4,334884
step02_gravity_refstate-mantle.xmf,275,3.85793e-07,2.87716e-06,0,-5.15224e-07,-1.47757e+09,-1.47724e+09,-1.47762e+09,-68859.7,0.0123434,0.0230981,0,0.0261894,-18777.6,-51712.6,-0,55016.2,68859.7
step02_gravity_refstate-mantle.xmf,276,1.93941e-07,3.02986e-06,0,-4.98362e-07,-1.45648e+09,-1.4561e+09,-1.4565e+09,-66606.1,0.0114526,0.0259866,0,0.0283983,-17658.3,-51060.1,-0,54027.3,66606.1
step02_gravity_refstate-mantle.xmf,277,-2.75633e-08,3.19542e-06,0,-4.39121e-07,-1.43568e+09,-1.43525e+09,-1.43568e+09,-58688.6,0.0102148,0.0292386,0,0.0309716,-16558.4,-50416.7,-0,53066.2,58688.6
step02_gravity_refstate-mantle.xmf,278,7.27478e-07,2.72168e-06,0,-4.92784e-07,-1.53965e+09,-1.53938e+09,-1.53975e+09,-65860.6,0.0148304,0.0171225,0,0.0226522,-19819,-53632.2,-0,57176.9,65860.6
step02_gravity_refstate-mantle.xmf,279,9.24283e-07,2.68858e-06,0,-4.41957e-07,-1.5842e+09,-1.58396e+09,-1.58432e+09,-59067.6,0.0166901,0.0134124,0,0.0214115,-19770.6,-55009.5,-0,58454.4,59067.6
step02_gravity_refstate-mantle.xmf,280,1.1335e-06,2.60155e-06,0,-2.5319e-07,-1.65896e+09,-1.65876e+09,-1.65911e+09,-33838.9,0.017627,0.00706098,0,0.0189886,-20912.4,-57320,-0,61015.7,33838.9
step02_gravity_refstate-mantle.xmf,281,1.18628e-06,2.60116e-06,0,-1.1557e-07,-1.7059e+09,-1.70571e+09,-1.70605e+09,-15446,0.0175241,0.00323198,0,0.0178196,-21559.2,-58770.2,-0,62599.8,15446
step02_gravity_refstate-mantle.xmf,282,1.17183e-06,2.6219e-06,0,2.89805e-09,-1.74571e+09,-1.74552e+09,-1.74587e+09,387.325,0.0167306,-4.43725e-20,0,0.0167306,-22370,-60000,-0,64034.5,387.325
step02_gravity_refstate-mantle.xmf,283,-2.34328e-07,1.46684e-06,0,3.25196e-06,-1.2767e+09,-1.27647e+09,-1.27666e+09,434624,-0.00923472,0.0905573,-0,0.0910269,-5384.67,-45499.8,-0,45817.3,434624
step02_gravity_refstate-mantle.xmf,284,-6.92325e-07,2.08671e-06,0,3.12984e-06,-1.28915e+09,-1.28878e+09,-1.28906e+09,418303,-0.0088512,0.0855326,-0,0.0859894,-6044.79,-45883.1,-0,46279.6,418303
step02_gravity_refstate-mantle.xmf,285,5.25156e-07,6.05402e-07,0,2.89044e-06,-1.23869e+09,-1.23868e+09,-1.23876e+09,386307,-0.00898979,0.0956628,-0,0.0960842,-4736.19,-44328.8,-0,44581.1,386307
step02_gravity_refstate-mantle.xmf,286,1.73489e-06,-3.02535e-07,0,1.48214e-06,-1.15037e+09,-1.15064e+09,-1.1506e+09,198088,-0.00680767,0.102644,-0,0.102869,-3141.7,-41606.2,-0,41724.6,198088
step02_gravity_refstate-mantle.xmf,287,2.35402e-06,-5.19429e-07,0,6.22753e-07,-1.09825e+09,-1.09864e+09,-1.09857e+09,83231,-0.00502103,0.10472,-0,0.104841,-1990.05,-40000,-0,40049.5,83231
step02_gravity_refstate-mantle.xmf,288,-1.27171e-06,3.32088e-06,0,1.80832e-06,-1.29958e+09,-1.29896e+09,-1.29941e+09,241682,-0.00532716,0.0669121,-0,0.0671238,-9036.38,-46204.5,-0,47079.8,241682
step02_gravity_refstate-mantle.xmf,289,-2.64805e-07,3.35892e-06,0,-3.30927e-07,-1.41576e+09,-1.41528e+09,-1.41573e+09,-44228.4,0.00868303,0.0328009,0,0.0339308,-15509.2,-49800.2,-0,52159.4,44228.4
step02_gravity_refstate-mantle.xmf,290,-5.07264e-07,3.51315e-06,0,-1.70827e-07,-1.39743e+09,-1.39689e+09,-1.39736e+09,-22831.1,0.0069489,0.036654,0,0.0373069,-14484.5,-49232.8,-0,51319.3,22831.1
step02_gravity_refstate-mantle.xmf,291,-7.37981e-07,3.64326e-06,0,3.72289e-08,-1.38102e+09,-1.38044e+09,-1.38092e+09,4975.65,0.0051064,0.0407106,0,0.0410297,-13508.2,-48724.7,-0,50562.5,4975.65
step02_gravity_refstate-mantle.xmf,292,-9.50472e-07,3.73256e-06,0,2.99968e-07,-1.3648e+09,-1.36417e+09,-1.36467e+09,40090.7,0.00309392,0.045145,0,0.0452509,-12575.3,-48222.4,-0,49835.1,40090.7
step02_gravity_refstate-mantle.xmf,293,-1.12945e-06,3.76555e-06,0,6.17246e-07,-1.34871e+09,-1.34806e+09,-1.34856e+09,82494.9,0.000966827,0.0499899,0,0.0499992,-11667.4,-47724.3,-0,49129.8,82494.9
step02_gravity_refstate-mantle.xmf,294,-1.30134e-06,3.57723e-06,0,1.38514e-06,-1.31594e+09,-1.31529e+09,-1.31576e+09,185124,-0.00335708,0.0609377,-0,0.0610301,-9904.8,-46710.3,-0,47748.9,185124
step02_gravity_refstate-mantle.xmf,295,-1.25339e-06,3.71884e-06,0,9.83736e-07,-1.33223e+09,-1.33157e+09,-1.33207e+09,131476,-0.0012249,0.0552745,-0,0.055288,-10782.6,-47214.4,-0,48430,131476
step02_gravity_refstate-mantle.xmf,296,-1.39207e-06,3.38526e-06,0,2.11493e-06,-1.31479e+09,-1.31415e+09,-1.3146e+09,282661,-0.00567218,0.0696253,-0,0.069856,-8240.25,-46673.7,-0,47395.5,282661
step02_gravity_refstate-mantle.xmf,297,5.98641e-07,2.8495e-06,0,-5.35454e-07,-1.52005e+09,-1.51975e+09,-1.52013e+09,-71563.4,0.0146416,0.0193841,0,0.0242923,-18706.8,-53026.3,-0,56229.2,71563.4
step02_gravity_refstate-mantle.xmf,298,1.0885e-06,2.67446e-06,0,-3.55111e-07,-1.62999e+09,-1.62978e+09,-1.63014e+09,-47460.6,0.0182761,0.00962953,0,0.0206578,-19709.1,-56425.1,-0,59768.2,47460.6
step02_gravity_refstate-mantle.xmf,299,-5.37917e-07,1.71756e-06,0,3.49358e-06,-1.30067e+09,-1.30037e+09,-1.3006e+09,466917,-0.0091936,0.089732,-0,0.0902018,-5334.72,-46239,-0,46545.7,466917
step02_gravity_refstate-mantle.xmf,300,-1.17654e-06,2.80932e-06,0,2.92209e-06,-1.31298e+09,-1.31244e+09,-1.31282e+09,390537,-0.00783616,0.0797873,-0,0.0801712,-6633.97,-46617.7,-0,47087.4,390537
step02_gravity_refstate-mantle.xmf,301,1.47294e-06,-1.6871e-07,0,1.90337e-06,-1.17525e+09,-1.17547e+09,-1.17545e+09,254386,-0.00747704,0.101306,-0,0.101581,-3588.56,-42373.5,-0,42525.2,254386
step02_gravity_refstate-mantle.xmf,302,1.22525e-06,-3.79343e-08,0,2.2983e-06,-1.20051e+09,-1.20067e+09,-1.20067e+09,307168,-0.00799126,0.100102,-0,0.10042,-3906.72,-43152.3,-0,43328.7,307168
step02_gravity_refstate-mantle.xmf,303,1.03292e-06,2.94397e-08,0,2.6758e-06,-1.22632e+09,-1.22645e+09,-1.22646e+09,357621,-0.00831902,0.0996117,-0,0.0999584,-4013.51,-43948.5,-0,44131.3,357621
step02_gravity_refstate-mantle.xmf,304,1.99129e-06,-5.75863e-07,0,1.19177e-06,-1.14836e+09,-1.1487e+09,-1.14862e+09,159279,-0.00543228,0.104696,-0,0.104837,-2400.06,-41545.1,-0,41614.4,159279
step02_gravity_refstate-mantle.xmf,305,2.26938e-06,-7.00507e-07,0,7.23966e-07,-1.12861e+09,-1.12901e+09,-1.12892e+09,96758.1,-0.00382485,0.105926,-0,0.105995,-1605.77,-40936.8,-0,40968.3,96758.1
step02_gravity_refstate-mantle.xmf,306,2.99844e-07,7.37321e-07,0,3.23086e-06,-1.26407e+09,-1.26401e+09,-1.26411e+09,431804,-0.00916371,0.0953441,-0,0.0957835,-4700.96,-45111.6,-0,45355.9,431804
step02_gravity_refstate-mantle.xmf,307,-1.47358e-06,3.39921e-06,0,2.45092e-06,-1.32847e+09,-1.32781e+09,-1.32827e+09,327566,-0.00615024,0.0727929,-0,0.0730522,-7473.61,-47095.7,-0,47685,327566
step02_gravity_refstate-mantle.xmf,308,4.20119e-07,3.00561e-06,0,-5.54647e-07,-1.49827e+09,-1.49792e+09,-1.49833e+09,-74128.6,0.0140007,0.0221324,0,0.026189,-17607.2,-52352.6,-0,55234.1,74128.6
step02_gravity_refstate-mantle.xmf,309,2.00904e-07,3.18468e-06,0,-5.36869e-07,-1.47647e+09,-1.47607e+09,-1.47649e+09,-71752.5,0.0129638,0.0252569,0,0.0283896,-16523,-51678.1,-0,54255.3,71752.5
step02_gravity_refstate-mantle.xmf,310,-5.33905e-08,3.37452e-06,0,-4.67977e-07,-1.45463e+09,-1.45418e+09,-1.45463e+09,-62545.1,0.0115082,0.0288029,0,0.0310168,-15477.3,-51002.4,-0,53299.1,62545.1
step02_gravity_refstate-mantle.xmf,311,8.1073e-07,2.81221e-06,0,-5.14933e-07,-1.56242e+09,-1.56215e+09,-1.56253e+09,-68820.8,0.0167538,0.0157028,0,0.0229623,-18655.6,-54336.3,-0,57449.6,68820.8
step02_gravity_refstate-mantle.xmf,312,1.02681e-06,2.77091e-06,0,-4.40788e-07,-1.60793e+09,-1.6077e+09,-1.60807e+09,-58911.3,0.0187164,0.0117914,0,0.022121,-18604.4,-55743.5,-0,58766.2,58911.3
step02_gravity_refstate-mantle.xmf,313,1.20796e-06,2.67867e-06,0,-2.48072e-07,-1.66961e+09,-1.66941e+09,-1.66977e+09,-33154.8,0.0193353,0.00636455,0,0.0203559,-19628.9,-57649.7,-0,60899.8,33154.8
step02_gravity_refstate-mantle.xmf,314,1.23978e-06,2.66578e-06,0,-1.36574e-07,-1.70446e+09,-1.70427e+09,-1.70463e+09,-18253.1,0.0191884,0.00342904,0,0.0194923,-20176.2,-58726.4,-0,62095.6,18253.1
step02_gravity_refstate-mantle.xmf,315,1.23463e-06,2.68322e-06,0,3.24593e-09,-1.74569e+09,-1.7455e+09,-1.74586e+09,433.818,0.0185583,-4.71138e-20,0,0.0185583,-20850.5,-60000,-0,63519.6,433.818
step02_gravity_refstate-mantle.xmf,316,1.01668e-08,9.85322e-07,0,3.58182e-06,-1.28884e+09,-1.28871e+09,-1.28884e+09,478711,-0.00935243,0.0948044,-0,0.0952646,-4684.86,-45875.4,-0,46114,478711
step02_gravity_refstate-mantle.xmf,317,-9.51762e-07,2.34581e-06,0,3.3092e-06,-1.31194e+09,-1.3115e+09,-1.31182e+09,442274,-0.00864771,0.0849712,-0,0.0854102,-5900.26,-46586.1,-0,46958.3,442274
step02_gravity_refstate-mantle.xmf,318,8.45037e-07,6.91885e-08,0,3.04798e-06,-1.25157e+09,-1.25167e+09,-1.25168e+09,407363,-0.00863644,0.0994948,-0,0.0998689,-4028.92,-44727.3,-0,44908.4,407363
step02_gravity_refstate-mantle.xmf,319,1.84229e-06,-6.04415e-07,0,1.57737e-06,-1.17445e+09,-1.17477e+09,-1.17469e+09,210816,-0.00595729,0.104418,-0,0.104588,-2674.89,-42349.9,-0,42434.3,210816
step02_gravity_refstate-mantle.xmf,320,2.55616e-06,-6.88798e-07,0,3.21129e-07,-1.09822e+09,-1.09866e+09,-1.09857e+09,42918.9,-0.00257783,0.10604,-0,0.106071,-994.552,-40000,-0,40012.4,42918.9
step02_gravity_refstate-mantle.xmf,321,2.15335e-06,-8.63391e-07,0,1.02295e-06,-1.16159e+09,-1.16199e+09,-1.16187e+09,136718,-0.00409062,0.106431,-0,0.10651,-1760.92,-41954.1,-0,41991,136718
step02_gravity_refstate-mantle.xmf,322,8.70534e-08,2.03131e-06,0,-8.53105e-10,-1.17167e+09,-1.17141e+09,-1.17168e+09,-114.018,2.0426e-20,0.0390955,0,0.0390955,40000,-42259.2,0,58188,114.018
step02_gravity_refstate-mantle.xmf,323,-5.19528e-09,1.96028e-06,0,-2.07302e-09,-1.09856e+09,-1.0983e+09,-1.09856e+09,-277.059,8.02419e-21,0.0436087,0,0.0436087,40000,-40000,0,56568.5,277.059
step02_gravity_refstate-mantle.xmf,324,5.11203e-08,2.01343e-06,0,1.32402e-08,-1.148e+09,-1.14774e+09,-1.148e+09,1769.55,-8.213e-05,0.0406033,-0,0.0406034,38455.7,-41527.7,0,56598.5,1769.55
step02_gravity_refstate-mantle.xmf,325,-1.62488e-08,1.9689e-06,0,6.72088e-09,-1.09856e+09,-1.0983e+09,-1.09856e+09,898.246,2.53758e-05,0.0436965,0,0.0436965,37557.3,-40000,0,54868.5,898.246
step02_gravity_refstate-mantle.xmf,326,-1.48059e-06,3.71672e-06,0,1.659e-06,-1.33154e+09,-1.33084e+09,-1.33134e+09,221725,-0.00362978,0.0633309,-0,0.0634349,-9057.67,-47191.3,-0,48052.7,221725
step02_gravity_refstate-mantle.xmf,327,-3.25211e-07,3.5606e-06,0,-3.41575e-07,-1.43391e+09,-1.43339e+09,-1.43387e+09,-45651.4,0.00974221,0.0326846,0,0.0341057,-14473.9,-50360.9,-0,52399.6,45651.4
step02_gravity_refstate-mantle.xmf,328,-5.95519e-07,3.73114e-06,0,-1.59986e-07,-1.41553e+09,-1.41495e+09,-1.41545e+09,-21382.2,0.00782372,0.036779,0,0.0376019,-13506.9,-49791.7,-0,51591.2,21382.2
step02_gravity_refstate-mantle.xmf,329,-8.57363e-07,3.87268e-06,0,8.1547e-08,-1.39839e+09,-1.39776e+09,-1.39827e+09,10898.8,0.00573342,0.0412072,0,0.0416041,-12571.5,-49260.9,-0,50839.7,10898.8
step02_gravity_refstate-mantle.xmf,330,-1.09618e-06,3.96451e-06,0,3.86657e-07,-1.38163e+09,-1.38095e+09,-1.38148e+09,51676.8,0.00347707,0.0460448,0,0.0461759,-11671,-48741.9,-0,50119.7,51676.8
step02_gravity_refstate-mantle.xmf,331,-1.29274e-06,3.98747e-06,0,7.52872e-07,-1.3652e+09,-1.36449e+09,-1.36503e+09,100621,0.00112657,0.051302,0,0.0513144,-10794.4,-48233.1,-0,49426.2,100621
step02_gravity_refstate-mantle.xmf,332,-1.42655e-06,3.91795e-06,0,1.17915e-06,-1.3488e+09,-1.34809e+09,-1.34861e+09,157594,-0.00127329,0.057077,-0,0.0570912,-9917.08,-47725.5,-0,48744.9,157594
step02_gravity_refstate-mantle.xmf,333,-1.62828e-06,3.80438e-06,0,1.96908e-06,-1.34394e+09,-1.34321e+09,-1.34372e+09,263167,-0.00413621,0.0663056,-0,0.0664345,-8255.23,-47573.7,-0,48284.6,263167
step02_gravity_refstate-mantle.xmf,334,6.59062e-07,2.96356e-06,0,-5.68728e-07,-1.54029e+09,-1.53998e+09,-1.54038e+09,-76010.4,0.0164479,0.0182887,0,0.0245969,-17560,-53652,-0,56452.6,76010.4
step02_gravity_refstate-mantle.xmf,335,1.19255e-06,2.75062e-06,0,-3.2399e-07,-1.65385e+09,-1.65364e+09,-1.654e+09,-43301.2,0.0201596,0.00786091,0,0.021638,-18637,-57162.8,-0,60124.2,43301.2
step02_gravity_refstate-mantle.xmf,336,-3.46828e-07,1.25974e-06,0,3.89642e-06,-1.31305e+09,-1.31283e+09,-1.313e+09,520757,-0.0094771,0.0940781,-0,0.0945542,-4671.48,-46621.4,-0,46854.9,520757
step02_gravity_refstate-mantle.xmf,337,-9.04538e-07,2.10628e-06,0,3.68071e-06,-1.32385e+09,-1.32345e+09,-1.32373e+09,491927,-0.00900863,0.0884183,-0,0.0888761,-5327.89,-46953.7,-0,47255,491927
step02_gravity_refstate-mantle.xmf,338,-1.31314e-06,2.82097e-06,0,3.30174e-06,-1.33321e+09,-1.33266e+09,-1.33303e+09,441278,-0.00803691,0.0823687,-0,0.0827599,-6024.21,-47241.8,-0,47624.3,441278
step02_gravity_refstate-mantle.xmf,339,-1.58124e-06,3.39269e-06,0,2.82489e-06,-1.34272e+09,-1.34205e+09,-1.34251e+09,377546,-0.00661748,0.0760689,-0,0.0763562,-6760.98,-47535.2,-0,48013.6,377546
step02_gravity_refstate-mantle.xmf,340,1.57871e-06,-4.39463e-07,0,2.00768e-06,-1.19393e+09,-1.1942e+09,-1.19414e+09,268326,-0.00698417,0.102886,-0,0.103122,-3217.29,-42950.6,-0,43070.9,268326
step02_gravity_refstate-mantle.xmf,341,1.49019e-06,-4.84919e-07,0,2.32458e-06,-1.21492e+09,-1.21518e+09,-1.21512e+09,310681,-0.00728803,0.102873,-0,0.103131,-3294.26,-43598.1,-0,43722.4,310681
step02_gravity_refstate-mantle.xmf,342,1.37814e-06,-5.31856e-07,0,2.7172e-06,-1.23952e+09,-1.23977e+09,-1.2397e+09,363153,-0.00769322,0.103021,-0,0.103308,-3345.73,-44357,-0,44483,363153
step02_gravity_refstate-mantle.xmf,343,2.43569e-06,-7.90168e-07,0,3.17816e-07,-1.12175e+09,-1.12218e+09,-1.12208e+09,42476.1,-0.00180068,0.106786,-0,0.106801,-732.999,-40725.7,-0,40732.3,42476.1
step02_gravity_refstate-mantle.xmf,344,2.35623e-06,-9.9277e-07,0,4.50393e-07,-1.15047e+09,-1.15091e+09,-1.15078e+09,60195.1,-0.00195995,0.107488,-0,0.107506,-821.537,-41611.6,-0,41619.7,60195.1
step02_gravity_refstate-mantle.xmf,345,2.5949e-06,-7.32822e-07,0,1.32414e-08,-1.09822e+09,-1.09866e+09,-1.09857e+09,1769.71,-1.80264e-07,0.10649,-0,0.10649,0,-40000,0,40000,1769.71
step02_gravity_refstate-mantle.xmf,346,6.28268e-07,1.53818e-07,0,3.45612e-06,-1.27642e+09,-1.27649e+09,-1.27651e+09,461910,-0.00899604,0.0994525,-0,0.0998586,-4021.81,-45493.9,-0,45671.3,461910
step02_gravity_refstate-mantle.xmf,347,1.36433e-07,2.06017e-06,0,2.6319e-08,-1.20655e+09,-1.20629e+09,-1.20657e+09,3517.53,-0.000244498,0.036926,-0,0.0369268,38251.2,-43337.1,0,57803.7,3517.53
step02_gravity_refstate-mantle.xmf,348,5.98472e-08,2.0379e-06,0,3.71761e-08,-1.16465e+09,-1.16438e+09,-1.16466e+09,4968.59,-0.000251757,0.0396896,-0,0.0396904,36469.7,-42042.1,0,55655.9,4968.59
step02_gravity_refstate-mantle.xmf,349,-1.73641e-06,3.84955e-06,0,2.2945e-06,-1.35531e+09,-1.35457e+09,-1.35508e+09,306661,-0.00468491,0.0694479,-0,0.0696057,-7526.77,-47924.4,-0,48511.8,306661
step02_gravity_refstate-mantle.xmf,350,4.59429e-07,3.14927e-06,0,-5.94874e-07,-1.51832e+09,-1.51796e+09,-1.51838e+09,-79504.9,0.0157547,0.0212197,0,0.0264288,-16461.1,-52972.4,-0,55471.1,79504.9
step02_gravity_refstate-mantle.xmf,351,-8.86695e-08,3.57603e-06,0,-4.94756e-07,-1.47214e+09,-1.47165e+09,-1.47213e+09,-66124.1,0.0127904,0.0285766,0,0.0313084,-14409.9,-51543.4,-0,53519.8,66124.1
step02_gravity_refstate-mantle.xmf,352,2.02385e-07,3.3603e-06,0,-5.75277e-07,-1.49502e+09,-1.4946e+09,-1.49505e+09,-76885.7,0.0145009,0.0246943,0,0.0286371,-15403.9,-52251.7,-0,54475,76885.7
step02_gravity_refstate-mantle.xmf,353,8.95875e-07,2.91539e-06,0,-5.34432e-07,-1.58302e+09,-1.58275e+09,-1.58314e+09,-71426.9,0.0187102,0.0144348,0,0.0236312,-17506.3,-54973.5,-0,57693.6,71426.9
step02_gravity_refstate-mantle.xmf,354,1.14446e-06,2.8748e-06,0,-4.30012e-07,-1.63364e+09,-1.63341e+09,-1.63379e+09,-57471.1,0.0209862,0.0099499,0,0.0232255,-17391.8,-56538.7,-0,59153.2,57471.1
step02_gravity_refstate-mantle.xmf,355,1.29619e-06,2.75496e-06,0,-1.69729e-07,-1.70081e+09,-1.70062e+09,-1.70098e+09,-22684.3,0.0210059,0.00385363,0,0.0213564,-18709.9,-58614.3,-0,61528,22684.3
step02_gravity_refstate-mantle.xmf,356,1.30028e-06,2.75923e-06,0,4.26273e-09,-1.74567e+09,-1.74547e+09,-1.74584e+09,569.714,0.020391,-5.392e-20,0,0.020391,-19403.8,-60000,-0,63059.6,569.714
step02_gravity_refstate-mantle.xmf,357,3.42906e-07,3.6469e-07,0,3.89269e-06,-1.3004e+09,-1.30039e+09,-1.30044e+09,520258,-0.00936649,0.0992505,-0,0.0996915,-4025.33,-46233,-0,46407.9,520258
step02_gravity_refstate-mantle.xmf,358,1.2456e-06,-5.93629e-07,0,3.14033e-06,-1.26437e+09,-1.26462e+09,-1.26454e+09,419705,-0.00814246,0.103431,-0,0.103751,-3349.85,-45123.7,-0,45247.9,419705
step02_gravity_refstate-mantle.xmf,359,1.84591e-06,-8.31771e-07,0,1.85763e-06,-1.20193e+09,-1.20229e+09,-1.20218e+09,248272,-0.00600496,0.10524,-0,0.105411,-2609.02,-43198.4,-0,43277.1,248272
step02_gravity_refstate-mantle.xmf,360,2.12438e-06,-1.06309e-06,0,1.33571e-06,-1.18921e+09,-1.18964e+09,-1.1895e+09,178518,-0.00448389,0.106945,-0,0.107039,-1898.61,-42806.8,-0,42848.9,178518
step02_gravity_refstate-mantle.xmf,361,2.31507e-06,-1.19927e-06,0,7.87752e-07,-1.17895e+09,-1.17942e+09,-1.17926e+09,105283,-0.00274334,0.108061,-0,0.108096,-1141.99,-42490.6,-0,42506,105283
step02_gravity_refstate-mantle.xmf,362,2.43451e-06,-8.5812e-07,0,1.31697e-08,-1.12954e+09,-1.12998e+09,-1.12986e+09,1760.13,-2.03762e-07,0.10726,-0,0.10726,0,-40966,0,40966,1760.13
step02_gravity_refstate-mantle.xmf,363,2.03107e-07,2.07988e-06,0,-5.65324e-10,-1.24414e+09,-1.24389e+09,-1.24417e+09,-75.5555,4.04403e-20,0.0344917,0,0.0344917,40000,-44498.7,0,59834.2,75.5555
step02_gravity_refstate-mantle.xmf,364,-5.16625e-08,1.9902e-06,0,1.41035e-08,-1.09857e+09,-1.09829e+09,-1.09856e+09,1884.93,9.67896e-05,0.0439516,0,0.0439517,35229,-40000,0,53301.8,1884.93
step02_gravity_refstate-mantle.xmf,365,-1.64719e-06,4.14075e-06,0,1.44207e-06,-1.36614e+09,-1.36536e+09,-1.36592e+09,192732,-0.00145239,0.0594793,-0,0.0594971,-8992.3,-48260,-0,49090.6,192732
step02_gravity_refstate-mantle.xmf,366,-3.94012e-07,3.77844e-06,0,-3.47713e-07,-1.45065e+09,-1.45009e+09,-1.4506e+09,-46471.9,0.0107686,0.0327469,0,0.034472,-13485.6,-50878.1,-0,52635,46471.9
step02_gravity_refstate-mantle.xmf,367,-6.94754e-07,3.9668e-06,0,-1.43118e-07,-1.43247e+09,-1.43184e+09,-1.43237e+09,-19127.8,0.00866625,0.0370958,0,0.0380946,-12564,-50314.9,-0,51859.8,19127.8
step02_gravity_refstate-mantle.xmf,368,-9.89952e-07,4.11819e-06,0,1.35703e-07,-1.41477e+09,-1.41408e+09,-1.41463e+09,18136.7,0.0063151,0.0419111,0,0.0423842,-11668.6,-49766.6,-0,51116.2,18136.7
step02_gravity_refstate-mantle.xmf,369,-1.25878e-06,4.21178e-06,0,4.88542e-07,-1.39774e+09,-1.39701e+09,-1.39757e+09,65293.7,0.00380621,0.0471766,0,0.0473299,-10794.9,-49239,-0,50408.4,65293.7
step02_gravity_refstate-mantle.xmf,370,-1.47423e-06,4.22747e-06,0,9.00098e-07,-1.38198e+09,-1.38122e+09,-1.38178e+09,120298,0.00129975,0.0527367,0,0.0527527,-9953.35,-48750.8,-0,49756.5,120298
step02_gravity_refstate-mantle.xmf,371,-1.76599e-06,4.11519e-06,0,1.8525e-06,-1.36672e+09,-1.36594e+09,-1.36649e+09,247587,-0.00283271,0.0640941,-0,0.0641567,-8158,-48277.3,-0,48961.7,247587
step02_gravity_refstate-mantle.xmf,372,7.25883e-07,3.09398e-06,0,-5.996e-07,-1.55963e+09,-1.55931e+09,-1.55972e+09,-80136.5,0.0183484,0.0172644,0,0.0251937,-16419.8,-54250.1,-0,56680.6,80136.5
step02_gravity_refstate-mantle.xmf,373,1.28422e-06,2.82063e-06,0,-2.76524e-07,-1.67628e+09,-1.67608e+09,-1.67646e+09,-36957.5,0.0217545,0.00609323,0,0.0225917,-17793.8,-57856.8,-0,60531.2,36957.5
step02_gravity_refstate-mantle.xmf,374,-2.3521e-08,6.00916e-07,0,4.28958e-06,-1.32334e+09,-1.32326e+09,-1.32334e+09,573302,-0.00967006,0.0989258,-0,0.0993973,-4024.85,-46940,-0,47112.2,573302
step02_gravity_refstate-mantle.xmf,375,-7.66659e-07,1.67623e-06,0,4.16544e-06,-1.33622e+09,-1.3359e+09,-1.33612e+09,556711,-0.00944469,0.0930234,-0,0.0935017,-4672.56,-47335.6,-0,47565.7,556711
step02_gravity_refstate-mantle.xmf,376,-1.32409e-06,2.61819e-06,0,3.75884e-06,-1.34656e+09,-1.34604e+09,-1.34639e+09,502369,-0.00853354,0.0863474,-0,0.0867681,-5379.98,-47653.8,-0,47956.5,502369
step02_gravity_refstate-mantle.xmf,377,-1.67851e-06,3.33168e-06,0,3.25593e-06,-1.35688e+09,-1.35621e+09,-1.35665e+09,435155,-0.00711773,0.0796993,-0,0.0800165,-6079.19,-47971.7,-0,48355.4,435155
step02_gravity_refstate-mantle.xmf,378,-1.88669e-06,3.9064e-06,0,2.65337e-06,-1.36867e+09,-1.3679e+09,-1.36842e+09,354623,-0.00514233,0.0726337,-0,0.0728155,-6832.56,-48336.2,-0,48816.7,354623
step02_gravity_refstate-mantle.xmf,379,1.83814e-06,-1.0342e-06,0,2.22042e-06,-1.22741e+09,-1.22779e+09,-1.22765e+09,296759,-0.00636727,0.105857,-0,0.106049,-2639.41,-43984.8,-0,44064,296759
step02_gravity_refstate-mantle.xmf,380,1.81484e-06,-1.22943e-06,0,2.64512e-06,-1.25251e+09,-1.25291e+09,-1.25275e+09,353521,-0.00685273,0.106604,-0,0.106825,-2667.52,-44759.4,-0,44838.8,353521
step02_gravity_refstate-mantle.xmf,381,2.41193e-06,-1.26032e-06,0,3.42533e-07,-1.1735e+09,-1.17399e+09,-1.17382e+09,45779.6,-0.00123342,0.108518,-0,0.108525,-509.078,-42322.8,-0,42325.9,45779.6
step02_gravity_refstate-mantle.xmf,382,2.55452e-06,-7.01667e-07,0,-3.08084e-07,-1.09823e+09,-1.09866e+09,-1.09857e+09,-41175.4,0.00257784,0.10604,0,0.106071,994.552,-40000,0,40012.4,41175.4
step02_gravity_refstate-mantle.xmf,383,2.44201e-06,-7.86442e-07,0,-2.91056e-07,-1.12099e+09,-1.12142e+09,-1.12131e+09,-38899.6,0.0017368,0.106787,0,0.106801,705.685,-40702.2,0,40708.3,38899.6
step02_gravity_refstate-mantle.xmf,384,1.06249e-06,-5.93362e-07,0,3.62846e-06,-1.28861e+09,-1.28884e+09,-1.28876e+09,484943,-0.00867094,0.103808,-0,0.104169,-3360.96,-45871.4,-0,45994.4,484943
step02_gravity_refstate-mantle.xmf,385,2.53675e-07,2.1002e-06,0,3.57651e-08,-1.27541e+09,-1.27516e+09,-1.27544e+09,4780,-0.000452388,0.0325001,-0,0.0325032,38234.1,-45464.9,0,59404.6,4780
step02_gravity_refstate-mantle.xmf,386,-9.73231e-08,2.02148e-06,0,1.56016e-08,-1.09857e+09,-1.09829e+09,-1.09856e+09,2085.15,0.000248312,0.0443711,0,0.0443718,33009.3,-40000,0,51861.5,2085.15
step02_gravity_refstate-mantle.xmf,387,1.38094e-08,2.05936e-06,0,5.68906e-08,-1.15816e+09,-1.15788e+09,-1.15816e+09,7603.43,-0.000296206,0.0403811,-0,0.0403822,34194,-41841.4,0,54036.3,7603.43
step02_gravity_refstate-mantle.xmf,388,1.77247e-07,2.08919e-06,0,5.94301e-08,-1.23758e+09,-1.23733e+09,-1.23761e+09,7942.83,-0.000633428,0.0350232,-0,0.0350289,36622.5,-44296,0,57474.7,7942.83
step02_gravity_refstate-mantle.xmf,389,3.30117e-07,2.11643e-06,0,-3.37983e-10,-1.31615e+09,-1.31591e+09,-1.31619e+09,-45.1714,6.12193e-20,0.0298225,0,0.0298225,40000,-46723.9,0,61507.1,45.1714
step02_gravity_refstate-mantle.xmf,390,-1.91897e-06,4.26116e-06,0,2.06071e-06,-1.37977e+09,-1.37894e+09,-1.37951e+09,275414,-0.00290804,0.0658849,-0,0.065949,-7603.36,-48679.6,-0,49269.8,275414
step02_gravity_refstate-mantle.xmf,391,-1.46566e-07,3.78808e-06,0,-5.0307e-07,-1.48511e+09,-1.48458e+09,-1.48509e+09,-67235.3,0.0137781,0.0288241,0,0.0319478,-13429.5,-51944.2,-0,53652.1,67235.3
step02_gravity_refstate-mantle.xmf,392,4.99576e-07,3.31112e-06,0,-6.33255e-07,-1.53694e+09,-1.53657e+09,-1.53701e+09,-84634.5,0.0175524,0.0204354,0,0.0269387,-15344.6,-53548.5,-0,55703.6,84634.5
step02_gravity_refstate-mantle.xmf,393,1.92339e-07,3.58234e-06,0,-6.11128e-07,-1.51351e+09,-1.51306e+09,-1.51354e+09,-81677.3,0.0161855,0.0243333,0,0.0292246,-14189.1,-52823.3,-0,54695.8,81677.3
step02_gravity_refstate-mantle.xmf,394,9.81833e-07,3.04102e-06,0,-5.46923e-07,-1.60129e+09,-1.60102e+09,-1.60143e+09,-73096.2,0.0207134,0.0133614,0,0.024649,-16338.6,-55538.9,-0,57892.3,73096.2
step02_gravity_refstate-mantle.xmf,395,1.31634e-06,2.93269e-06,0,-3.14138e-07,-1.67463e+09,-1.67441e+09,-1.6748e+09,-41984.5,0.0231674,0.00647261,0,0.0240546,-16677.3,-57806,-0,60163.7,41984.5
step02_gravity_refstate-mantle.xmf,396,1.37435e-06,2.87442e-06,0,-1.54039e-07,-1.71035e+09,-1.71015e+09,-1.71053e+09,-20587.4,0.0229633,0.00315815,0,0.0231795,-17336.2,-58909.8,-0,61407.7,20587.4
step02_gravity_refstate-mantle.xmf,397,1.36534e-06,2.85636e-06,0,2.91044e-09,-1.74565e+09,-1.74545e+09,-1.74583e+09,388.98,0.0222279,-4.53782e-20,0,0.0222279,-18026.3,-60000,-0,62649.4,388.98
step02_gravity_refstate-mantle.xmf,398,7.96833e-07,-4.42655e-07,0,4.17293e-06,-1.31182e+09,-1.31198e+09,-1.31193e+09,557712,-0.00922441,0.10402,-0,0.104429,-3385.51,-46586.8,-0,46709.7,557712
step02_gravity_refstate-mantle.xmf,399,-4.03215e-07,9.13352e-07,0,4.66692e-06,-1.34467e+09,-1.34449e+09,-1.34462e+09,623734,-0.00984657,0.0987906,-0,0.0992801,-3983.36,-47597,-0,47763.4,623734
step02_gravity_refstate-mantle.xmf,400,1.74807e-06,-1.40783e-06,0,3.13076e-06,-1.27705e+09,-1.27748e+09,-1.27729e+09,418427,-0.00743611,0.107496,-0,0.107753,-2688.04,-45516.8,-0,45596.1,418427
step02_gravity_refstate-mantle.xmf,401,2.16274e-06,-1.3436e-06,0,1.64115e-06,-1.21587e+09,-1.21634e+09,-1.21616e+09,219340,-0.00481643,0.107812,-0,0.10792,-1944.31,-43629.8,-0,43673.1,219340
step02_gravity_refstate-mantle.xmf,402,2.38363e-06,-1.52632e-06,0,1.04157e-06,-1.20629e+09,-1.20681e+09,-1.20661e+09,139206,-0.00312132,0.109043,-0,0.109087,-1243.14,-43334.8,-0,43352.6,139206
step02_gravity_refstate-mantle.xmf,403,2.48582e-06,-1.56942e-06,0,4.70104e-07,-1.19824e+09,-1.19878e+09,-1.19857e+09,62829.4,-0.00143658,0.109544,-0,0.109554,-571.37,-43086.7,-0,43090.5,62829.4
step02_gravity_refstate-mantle.xmf,404,2.40843e-06,-1.13353e-06,0,-5.31645e-10,-1.15933e+09,-1.1598e+09,-1.15965e+09,-71.0544,-1.02618e-07,0.108163,-0,0.108163,0,-41885.4,0,41885.4,71.0544
step02_gravity_refstate-mantle.xmf,405,2.25187e-06,-6.7312e-07,0,-7.20203e-07,-1.12857e+09,-1.12896e+09,-1.12887e+09,-96255.1,0.00391271,0.105863,0,0.105935,1644.56,-40935.3,0,40968.3,96255.1
step02_gravity_refstate-mantle.xmf,406,2.33252e-06,-9.61702e-07,0,-4.82782e-07,-1.1504e+09,-1.15084e+09,-1.15071e+09,-64523.9,0.00211858,0.107421,0,0.107442,889.314,-41609.6,0,41619.1,64523.9
step02_gravity_refstate-mantle.xmf,407,-1.58375e-07,2.06264e-06,0,1.13522e-08,-1.09858e+09,-1.09829e+09,-1.09856e+09,1517.22,0.000506219,0.0449625,0,0.0449654,30892.4,-40000,0,50540.5,1517.22
step02_gravity_refstate-mantle.xmf,408,-3.31214e-08,2.09308e-06,0,7.16065e-08,-1.15692e+09,-1.15664e+09,-1.15692e+09,9570.21,-0.000271077,0.0408633,-0,0.0408642,32143.2,-41802.9,0,52732.1,9570.21
step02_gravity_refstate-mantle.xmf,409,1.12146e-07,2.0861e-06,0,7.4117e-08,-1.2089e+09,-1.20864e+09,-1.20892e+09,9905.73,-0.000661927,0.0370113,-0,0.0370173,35064.8,-43409.6,0,55802.6,9905.73
step02_gravity_refstate-mantle.xmf,410,3.80376e-07,2.13224e-06,0,4.07636e-08,-1.34528e+09,-1.34505e+09,-1.34533e+09,5448.05,-0.000665638,0.0279297,-0,0.0279377,38256.7,-47624.2,0,61087.2,5448.05
step02_gravity_refstate-mantle.xmf,411,4.59213e-07,2.14788e-06,0,-1.42142e-10,-1.38785e+09,-1.38762e+09,-1.38791e+09,-18.9973,8.1644e-20,0.0250981,0,0.0250981,40000,-48939.8,0,63206.8,18.9973
step02_gravity_refstate-mantle.xmf,412,-1.81848e-06,4.41763e-06,0,1.51687e-06,-1.38845e+09,-1.38762e+09,-1.38821e+09,202730,-0.000695237,0.0597334,-0,0.0597374,-8412.34,-48948.9,-0,49666.5,202730
step02_gravity_refstate-mantle.xmf,413,-4.73354e-07,4.01407e-06,0,-3.44865e-07,-1.46583e+09,-1.46523e+09,-1.46577e+09,-46091.2,0.0117309,0.0330465,0,0.0350669,-12535.7,-51347.1,-0,52855.2,46091.2
step02_gravity_refstate-mantle.xmf,414,-8.15288e-07,4.21704e-06,0,-1.04718e-07,-1.44672e+09,-1.44605e+09,-1.44661e+09,-13995.6,0.00931932,0.0378277,0,0.0389587,-11656.9,-50755,-0,52076.4,13995.6
step02_gravity_refstate-mantle.xmf,415,-1.14176e-06,4.37987e-06,0,2.12469e-07,-1.42961e+09,-1.42887e+09,-1.42946e+09,28396.5,0.00677959,0.0429699,0,0.0435015,-10787.5,-50224.7,-0,51370.1,28396.5
step02_gravity_refstate-mantle.xmf,416,-1.42263e-06,4.47199e-06,0,5.89473e-07,-1.4142e+09,-1.41341e+09,-1.41401e+09,78783.1,0.00423284,0.0482863,0,0.0484715,-9979.87,-49747.1,-0,50738.3,78783.1
step02_gravity_refstate-mantle.xmf,417,-1.65435e-06,4.50181e-06,0,1.01986e-06,-1.40162e+09,-1.4008e+09,-1.4014e+09,136305,0.0018054,0.0537778,0,0.0538081,-9178.38,-49357.1,-0,50203.2,136305
step02_gravity_refstate-mantle.xmf,418,7.96974e-07,3.24344e-06,0,-6.24583e-07,-1.57763e+09,-1.5773e+09,-1.57773e+09,-83475.5,0.020302,0.0163465,0,0.0260648,-15304.6,-54807,-0,56903.7,83475.5
step02_gravity_refstate-mantle.xmf,419,1.18932e-06,3.01897e-06,0,-4.5837e-07,-1.63975e+09,-1.63951e+09,-1.63991e+09,-61261.2,0.0226881,0.00985154,0,0.0247346,-16136.6,-56728.2,-0,58978.6,61261.2
step02_gravity_refstate-mantle.xmf,420,4.15172e-07,-1.82112e-07,0,4.69667e-06,-1.33387e+09,-1.33395e+09,-1.33392e+09,627710,-0.00971497,0.10406,-0,0.104512,-3410.85,-47266,-0,47388.9,627710
step02_gravity_refstate-mantle.xmf,421,-1.31349e-06,2.31822e-06,0,4.33999e-06,-1.361e+09,-1.36052e+09,-1.36083e+09,580039,-0.00905108,0.0910326,-0,0.0914814,-4725.44,-48099.1,-0,48330.7,580039
step02_gravity_refstate-mantle.xmf,422,-1.72249e-06,3.16075e-06,0,3.72145e-06,-1.36679e+09,-1.36613e+09,-1.36656e+09,497372,-0.00774252,0.0838184,-0,0.0841752,-5465.55,-48277.1,-0,48585.5,497372
step02_gravity_refstate-mantle.xmf,423,-2.04697e-06,3.87603e-06,0,3.20773e-06,-1.38247e+09,-1.38168e+09,-1.38219e+09,428714,-0.00591526,0.0774732,-0,0.0776987,-6004.73,-48761.2,-0,49129.5,428714
step02_gravity_refstate-mantle.xmf,424,-2.09931e-06,4.42084e-06,0,2.3321e-06,-1.39493e+09,-1.39406e+09,-1.39465e+09,311685,-0.00298145,0.0682086,-0,0.0682737,-6975.49,-49147.3,-0,49639.8,311685
step02_gravity_refstate-mantle.xmf,425,2.2434e-06,-1.68358e-06,0,1.99749e-06,-1.24108e+09,-1.2416e+09,-1.24138e+09,266964,-0.00524361,0.108868,-0,0.108994,-1979.82,-44408.1,-0,44452.2,266964
step02_gravity_refstate-mantle.xmf,426,2.32551e-06,-2.0458e-06,0,2.42964e-06,-1.26576e+09,-1.26635e+09,-1.26607e+09,324721,-0.00577402,0.110167,-0,0.110318,-2006.99,-45170.2,-0,45214.8,324721
step02_gravity_refstate-mantle.xmf,427,2.35415e-06,-5.43015e-07,0,-6.09114e-07,-1.09826e+09,-1.09864e+09,-1.09857e+09,-81408,0.00502117,0.10472,0,0.104841,1990.05,-40000,0,40049.5,81408
step02_gravity_refstate-mantle.xmf,428,2.47519e-06,-1.47575e-06,0,-8.84609e-10,-1.18767e+09,-1.18819e+09,-1.188e+09,-118.228,1.52026e-07,0.109279,0,0.109279,0,-42760.3,0,42760.3,118.228
step02_gravity_refstate-mantle.xmf,429,1.64073e-06,-1.55535e-06,0,3.70839e-06,-1.30095e+09,-1.30137e+09,-1.30116e+09,495627,-0.00810356,0.108482,-0,0.108784,-2705.8,-46253.7,-0,46332.8,495627
step02_gravity_refstate-mantle.xmf,430,-2.32337e-07,2.11139e-06,0,1.56078e-10,-1.0986e+09,-1.09828e+09,-1.09856e+09,20.8598,0.000888934,0.0457405,0,0.0457491,28873.1,-40000,0,49332.1,20.8598
step02_gravity_refstate-mantle.xmf,431,-8.86894e-08,2.14552e-06,0,8.51756e-08,-1.16102e+09,-1.16072e+09,-1.161e+09,11383.7,-0.0002047,0.0412009,-0,0.0412014,29992.7,-41929.2,0,51552.1,11383.7
step02_gravity_refstate-mantle.xmf,432,2.9511e-07,2.12253e-06,0,7.39746e-08,-1.30298e+09,-1.30274e+09,-1.30302e+09,9886.7,-0.00102924,0.0307683,-0,0.0307855,36601.9,-46317.1,0,59033.6,9886.7
step02_gravity_refstate-mantle.xmf,433,1.02103e-07,2.11929e-06,0,1.05981e-07,-1.22042e+09,-1.22015e+09,-1.22043e+09,14164.4,-0.000967182,0.0365046,-0,0.0365174,33289.8,-43765.4,0,54987.5,14164.4
step02_gravity_refstate-mantle.xmf,434,2.15688e-07,2.11951e-06,0,9.63432e-08,-1.26701e+09,-1.26676e+09,-1.26704e+09,12876.3,-0.00114365,0.0332302,-0,0.0332499,35113,-45205.4,0,57240.3,12876.3
step02_gravity_refstate-mantle.xmf,435,5.07709e-07,2.16257e-06,0,4.15018e-08,-1.41614e+09,-1.41592e+09,-1.41621e+09,5546.72,-0.000873587,0.0232266,-0,0.023243,38280.8,-49814,0,62824,5546.72
step02_gravity_refstate-mantle.xmf,436,5.81323e-07,2.18134e-06,0,4.01568e-11,-1.45943e+09,-1.45922e+09,-1.45951e+09,5.36696,1.02181e-19,0.0203103,0,0.0203103,40000,-51151.8,0,64934.6,5.36696
step02_gravity_refstate-mantle.xmf,437,-2.01545e-06,4.6406e-06,0,1.7469e-06,-1.40464e+09,-1.40375e+09,-1.40437e+09,233473,-0.00063707,0.0618448,-0,0.0618481,-7698.24,-49448.2,-0,50043.8,233473
step02_gravity_refstate-mantle.xmf,438,3.79795e-08,3.82269e-06,0,-5.84504e-07,-1.5115e+09,-1.511e+09,-1.51151e+09,-78118.9,0.0161361,0.0261923,0,0.0307638,-13166.3,-52760.9,-0,54378.9,78118.9
step02_gravity_refstate-mantle.xmf,439,-2.3035e-07,4.0169e-06,0,-4.9752e-07,-1.49532e+09,-1.49475e+09,-1.49529e+09,-66493.6,0.0145542,0.0294296,0,0.0328318,-12514.8,-52259.6,-0,53737.2,66493.6
step02_gravity_refstate-mantle.xmf,440,5.64379e-07,3.48545e-06,0,-6.64753e-07,-1.55662e+09,-1.55623e+09,-1.5567e+09,-88844.2,0.0195621,0.0195098,0,0.0276281,-14273.7,-54157.2,-0,56006.6,88844.2
step02_gravity_refstate-mantle.xmf,441,1.05333e-06,3.19173e-06,0,-5.59827e-07,-1.61555e+09,-1.61527e+09,-1.61569e+09,-74820.9,0.022603,0.0126364,0,0.0258955,-15212.1,-55980.1,-0,58010.2,74820.9
step02_gravity_refstate-mantle.xmf,442,1.38567e-06,3.0803e-06,0,-3.16317e-07,-1.6818e+09,-1.68157e+09,-1.68198e+09,-42275.7,0.0249876,0.00610705,0,0.0257231,-15474.1,-58028.4,-0,60056.2,42275.7
step02_gravity_refstate-mantle.xmf,443,1.43677e-06,3.00889e-06,0,-1.63477e-07,-1.71234e+09,-1.71213e+09,-1.71253e+09,-21848.8,0.0247556,0.00311454,0,0.0249507,-16080,-58972.1,-0,61125,21848.8
step02_gravity_refstate-mantle.xmf,444,1.43283e-06,2.97552e-06,0,3.79909e-09,-1.74562e+09,-1.74542e+09,-1.74581e+09,507.748,0.0240629,-4.5373e-20,0,0.0240629,-16714.6,-60000,-0,62284.6,507.748
step02_gravity_refstate-mantle.xmf,445,1.36998e-06,-1.41895e-06,0,4.3983e-06,-1.32325e+09,-1.32362e+09,-1.32343e+09,587833,-0.00888885,0.108941,-0,0.109303,-2788.02,-46941.3,-0,47024,587833
step02_gravity_refstate-mantle.xmf,446,-3.67594e-08,1.13316e-07,0,5.17466e-06,-1.35515e+09,-1.35513e+09,-1.35515e+09,691593,-0.0100613,0.104083,-0,0.104568,-3412.99,-47921.2,-0,48042.6,691593
step02_gravity_refstate-mantle.xmf,447,-9.3962e-07,1.4547e-06,0,4.98872e-06,-1.36723e+09,-1.36691e+09,-1.3671e+09,666743,-0.0097807,0.0978919,-0,0.0983793,-3990.97,-48291.6,-0,48456.2,666743
step02_gravity_refstate-mantle.xmf,448,9.20107e-07,-1.13838e-06,0,5.09055e-06,-1.34535e+09,-1.34563e+09,-1.34547e+09,680352,-0.00963117,0.109151,-0,0.109575,-2871.5,-47621.6,-0,47708.1,680352
step02_gravity_refstate-mantle.xmf,449,2.36772e-06,-2.39471e-06,0,2.96946e-06,-1.29013e+09,-1.29077e+09,-1.29045e+09,396868,-0.00644052,0.111688,-0,0.111874,-2037.14,-45922.5,-0,45967.6,396868
step02_gravity_refstate-mantle.xmf,450,2.50509e-06,-1.91465e-06,0,1.30735e-06,-1.23144e+09,-1.23203e+09,-1.23177e+09,174727,-0.00348832,0.110262,-0,0.110317,-1300.19,-44111.5,-0,44130.7,174727
step02_gravity_refstate-mantle.xmf,451,2.01564e-06,-4.36869e-07,0,-1.04644e-06,-1.12506e+09,-1.12538e+09,-1.12533e+09,-139857,0.0060115,0.103818,0,0.103992,2611.72,-40825.9,0,40909.4,139857
step02_gravity_refstate-mantle.xmf,452,2.65173e-06,-2.02044e-06,0,6.1049e-07,-1.22418e+09,-1.2248e+09,-1.22453e+09,81592,-0.00164003,0.110943,-0,0.110955,-610.034,-43888,-0,43892.2,81592
step02_gravity_refstate-mantle.xmf,453,2.63523e-06,-1.89637e-06,0,1.0961e-08,-1.21462e+09,-1.21523e+09,-1.21497e+09,1464.93,1.47451e-07,0.110669,0,0.110669,0,-43593,0,43593,1464.93
step02_gravity_refstate-mantle.xmf,454,2.40479e-06,-1.31146e-06,0,-4.53931e-07,-1.17929e+09,-1.17979e+09,-1.17962e+09,-60667.9,0.00159435,0.108637,0,0.108649,655.527,-42501.7,0,42506.7,60667.9
step02_gravity_refstate-mantle.xmf,455,2.14481e-06,-8.25213e-07,0,-1.04812e-06,-1.16023e+09,-1.16063e+09,-1.16052e+09,-140082,0.00427434,0.10622,0,0.106306,1846.99,-41912.2,0,41952.9,140082
step02_gravity_refstate-mantle.xmf,456,-3.11186e-07,2.1626e-06,0,-2.05815e-08,-1.09861e+09,-1.09828e+09,-1.09857e+09,-2750.72,0.00140548,0.0467232,0,0.0467444,26946.1,-40000,0,48229.6,2750.72
step02_gravity_refstate-mantle.xmf,457,-1.89271e-07,2.18909e-06,0,6.65929e-08,-1.1474e+09,-1.14708e+09,-1.14737e+09,8900.14,0.000311683,0.0429523,0,0.0429534,27875.7,-41508.1,0,49999.7,8900.14
step02_gravity_refstate-mantle.xmf,458,3.29095e-08,2.14261e-06,0,1.17267e-07,-1.2036e+09,-1.20332e+09,-1.2036e+09,15672.7,-0.000880387,0.0379765,-0,0.0379867,31424.5,-43245.4,0,53457.1,15672.7
step02_gravity_refstate-mantle.xmf,459,4.26934e-07,2.15191e-06,0,8.14263e-08,-1.37341e+09,-1.37318e+09,-1.37347e+09,10882.6,-0.00146463,0.0261161,-0,0.0261572,36604.2,-48493.6,0,60757.7,10882.6
step02_gravity_refstate-mantle.xmf,460,6.25155e-07,2.19772e-06,0,3.89478e-08,-1.48725e+09,-1.48703e+09,-1.48733e+09,5205.37,-0.00108127,0.018436,-0,0.0184677,38269,-52011.3,0,64573.2,5205.37
step02_gravity_refstate-mantle.xmf,461,6.87664e-07,2.2237e-06,0,1.94259e-10,-1.531e+09,-1.5308e+09,-1.5311e+09,25.9627,1.25006e-19,0.0154398,0,0.0154398,40000,-53363.5,0,66690.8,25.9627
step02_gravity_refstate-mantle.xmf,462,-1.84103e-06,4.74215e-06,0,1.20363e-06,-1.41626e+09,-1.41538e+09,-1.41601e+09,160865,0.0019191,0.0556564,0,0.0556894,-8436.85,-49808.5,-0,50518,160865
step02_gravity_refstate-mantle.xmf,463,-5.77007e-07,4.26323e-06,0,-3.19674e-07,-1.47785e+09,-1.4772e+09,-1.47777e+09,-42724.5,0.0124535,0.0337815,0,0.0360039,-11643.2,-51718.3,-0,53012.7,42724.5
step02_gravity_refstate-mantle.xmf,464,-9.39789e-07,4.48302e-06,0,-5.50339e-08,-1.46061e+09,-1.45989e+09,-1.46048e+09,-7355.29,0.00998824,0.038704,0,0.0399721,-10791.7,-51184,-0,52309.3,7355.29
step02_gravity_refstate-mantle.xmf,465,-1.28747e-06,4.6494e-06,0,2.93325e-07,-1.44441e+09,-1.44362e+09,-1.44424e+09,39202.9,0.00732499,0.0440502,0,0.0446551,-9973.58,-50681.7,-0,51653.8,39202.9
step02_gravity_refstate-mantle.xmf,466,-1.59289e-06,4.74279e-06,0,7.1327e-07,-1.42983e+09,-1.42898e+09,-1.42962e+09,95328.5,0.004628,0.0496798,0,0.0498949,-9191.55,-50229.5,-0,51063.5,95328.5
step02_gravity_refstate-mantle.xmf,467,3.04984e-07,3.75033e-06,0,-6.59453e-07,-1.53932e+09,-1.53886e+09,-1.53936e+09,-88135.9,0.0185954,0.0227328,0,0.0293695,-13286.6,-53621.8,-0,55243.3,88135.9
step02_gravity_refstate-mantle.xmf,468,8.75826e-07,3.40917e-06,0,-6.40894e-07,-1.59477e+09,-1.59443e+09,-1.59488e+09,-85655.5,0.0222962,0.015462,0,0.0271329,-14252.3,-55337.4,-0,57143.3,85655.5
step02_gravity_refstate-mantle.xmf,469,1.25586e-06,3.16782e-06,0,-4.60244e-07,-1.649e+09,-1.64875e+09,-1.64917e+09,-61511.6,0.0244102,0.00943445,0,0.0261699,-15041.5,-57014.7,-0,58965.4,61511.6
step02_gravity_refstate-mantle.xmf,470,-1.9307e-06,3.33972e-06,0,3.9764e-06,-1.38536e+09,-1.38466e+09,-1.3851e+09,531446,-0.00750386,0.0850999,-0,0.0854301,-5124.18,-48850,-0,49118,531446
step02_gravity_refstate-mantle.xmf,471,-2.21021e-06,4.8362e-06,0,2.04698e-06,-1.41896e+09,-1.41802e+09,-1.41866e+09,273579,-0.00073919,0.0646396,-0,0.0646438,-6993.52,-49889.7,-0,50377.5,273579
step02_gravity_refstate-mantle.xmf,472,-2.2821e-06,4.52339e-06,0,2.73895e-06,-1.40818e+09,-1.40727e+09,-1.40788e+09,366061,-0.00339456,0.0718857,-0,0.0719658,-6272.99,-49555.5,-0,49951,366061
step02_gravity_refstate-mantle.xmf,473,-1.5598e-06,2.48908e-06,0,4.6429e-06,-1.37953e+09,-1.37899e+09,-1.37932e+09,620524,-0.00892508,0.0923051,-0,0.0927356,-4457.71,-48670.2,-0,48873.9,620524
step02_gravity_refstate-mantle.xmf,474,3.9981e-07,-8.33945e-07,0,5.70705e-06,-1.36605e+09,-1.36621e+09,-1.3661e+09,762747,-0.0101439,0.109513,-0,0.109981,-2900.56,-48258.3,-0,48345.3,762747
step02_gravity_refstate-mantle.xmf,475,2.67995e-06,-2.40062e-06,0,1.62215e-06,-1.25524e+09,-1.25591e+09,-1.25559e+09,216801,-0.00391548,0.111721,-0,0.11179,-1344.54,-44846.5,-0,44866.7,216801
step02_gravity_refstate-mantle.xmf,476,2.87897e-06,-2.93717e-06,0,2.02308e-06,-1.27885e+09,-1.27963e+09,-1.27923e+09,270384,-0.00442539,0.113532,-0,0.113618,-1378.07,-45575.9,-0,45596.7,270384
step02_gravity_refstate-mantle.xmf,477,2.02711e-06,-2.75547e-07,0,-8.56417e-07,-1.0983e+09,-1.09861e+09,-1.09857e+09,-114460,0.00722372,0.102606,0,0.10286,2990.68,-40000,0,40111.6,114460
step02_gravity_refstate-mantle.xmf,478,1.96974e-06,-5.57258e-07,0,-1.2303e-06,-1.14905e+09,-1.14939e+09,-1.14931e+09,-164430,0.00557086,0.104529,0,0.104678,2471.11,-41566.5,0,41639.9,164430
step02_gravity_refstate-mantle.xmf,479,2.51397e-06,-1.62922e-06,0,-4.07397e-07,-1.20126e+09,-1.20181e+09,-1.20159e+09,-54448.6,0.00126416,0.109751,0,0.109758,498.595,-43180.1,0,43182.9,54448.6
step02_gravity_refstate-mantle.xmf,480,2.2834e-06,-1.11935e-06,0,-8.64185e-07,-1.17575e+09,-1.17621e+09,-1.17606e+09,-115498,0.00313631,0.107674,0,0.10772,1317.39,-42391.9,0,42412.4,115498
step02_gravity_refstate-mantle.xmf,481,2.38653e-06,-2.74944e-06,0,3.72792e-06,-1.31614e+09,-1.31682e+09,-1.31646e+09,498237,-0.00727223,0.113673,-0,0.113906,-2055.46,-46724.9,-0,46770.1,498237
step02_gravity_refstate-mantle.xmf,482,-2.68967e-07,2.24388e-06,0,5.1231e-08,-1.14606e+09,-1.14572e+09,-1.14602e+09,6847.03,0.000754988,0.0440259,0,0.0440323,26044.6,-41466.2,0,48967,6847.03
step02_gravity_refstate-mantle.xmf,483,-6.50162e-08,2.21563e-06,0,1.35417e-07,-1.19933e+09,-1.19903e+09,-1.19932e+09,18098.5,-0.000771398,0.0391674,-0,0.039175,28461,-43113.1,0,51660.1,18098.5
step02_gravity_refstate-mantle.xmf,484,-4.03093e-07,2.21877e-06,0,-5.10756e-08,-1.09862e+09,-1.09827e+09,-1.09857e+09,-6826.25,0.00206079,0.0479331,0,0.0479774,25106.5,-40000,0,47226.4,6826.25
step02_gravity_refstate-mantle.xmf,485,3.8787e-08,2.1896e-06,0,1.51275e-07,-1.22566e+09,-1.22537e+09,-1.22567e+09,20217.9,-0.00128948,0.0368601,-0,0.0368827,30026.1,-43927,0,53208.6,20217.9
step02_gravity_refstate-mantle.xmf,486,3.50297e-07,2.14923e-06,0,1.11484e-07,-1.33712e+09,-1.33688e+09,-1.33717e+09,14899.8,-0.00174385,0.0285999,-0,0.0286531,35188.3,-47372.1,0,59011.3,14899.8
step02_gravity_refstate-mantle.xmf,487,1.36206e-07,2.16725e-06,0,1.51514e-07,-1.25399e+09,-1.25371e+09,-1.254e+09,20249.8,-0.00161058,0.0345684,-0,0.0346059,31670.6,-44802.6,0,54866.2,20249.8
step02_gravity_refstate-mantle.xmf,488,2.52762e-07,2.15594e-06,0,1.41087e-07,-1.29714e+09,-1.29688e+09,-1.29717e+09,18856.3,-0.001869,0.0314235,-0,0.031479,33380.5,-46136.3,0,56945.8,18856.3
step02_gravity_refstate-mantle.xmf,489,5.54992e-07,2.18171e-06,0,8.0544e-08,-1.44422e+09,-1.444e+09,-1.4443e+09,10764.7,-0.00188486,0.021374,-0,0.021457,36608.4,-50681.8,0,62520.5,10764.7
step02_gravity_refstate-mantle.xmf,490,7.25728e-07,2.24569e-06,0,3.35657e-08,-1.56013e+09,-1.55993e+09,-1.56023e+09,4486.05,-0.00131202,0.0134324,-0,0.0134963,38189,-54263.7,0,66354.7,4486.05
step02_gravity_refstate-mantle.xmf,491,7.70104e-07,2.28111e-06,0,2.93443e-10,-1.60258e+09,-1.60238e+09,-1.60269e+09,39.2187,1.65691e-19,0.0104592,0,0.0104592,40000,-55575.3,0,68473.4,39.2187
step02_gravity_refstate-mantle.xmf,492,-2.03441e-06,4.97993e-06,0,1.43919e-06,-1.42994e+09,-1.429e+09,-1.42966e+09,192347,0.00194053,0.0580446,0,0.0580771,-7704.09,-50230.4,-0,50817.8,192347
step02_gravity_refstate-mantle.xmf,493,3.60785e-08,4.00556e-06,0,-6.02417e-07,-1.5246e+09,-1.52407e+09,-1.5246e+09,-80513.1,0.0173928,0.0260026,0,0.0312833,-12411,-53165.9,-0,54595.2,80513.1
step02_gravity_refstate-mantle.xmf,494,-2.97353e-07,4.27351e-06,0,-4.90875e-07,-1.50816e+09,-1.50755e+09,-1.50812e+09,-65605.5,0.015618,0.0298844,0,0.0337194,-11601.5,-52656.5,-0,53919.4,65605.5
step02_gravity_refstate-mantle.xmf,495,6.34448e-07,3.67127e-06,0,-6.86101e-07,-1.57424e+09,-1.57383e+09,-1.57432e+09,-91697.5,0.0215229,0.0187059,0,0.0285157,-13298.5,-54702.3,-0,56295.6,91697.5
step02_gravity_refstate-mantle.xmf,496,1.15091e-06,3.3515e-06,0,-5.51861e-07,-1.63247e+09,-1.63218e+09,-1.63263e+09,-73756.2,0.0246501,0.0115732,0,0.0272317,-14182.1,-56503.9,-0,58256.5,73756.2
step02_gravity_refstate-mantle.xmf,497,1.39403e-06,3.28542e-06,0,-3.81779e-07,-1.67548e+09,-1.67522e+09,-1.67566e+09,-51024.7,0.0265152,0.0071333,0,0.027458,-14233.9,-57833.7,-0,59559.5,51024.7
step02_gravity_refstate-mantle.xmf,498,1.49392e-06,3.17942e-06,0,-1.83809e-07,-1.71222e+09,-1.71199e+09,-1.71242e+09,-24566,0.0265782,0.00329915,0,0.0267821,-14835,-58969,-0,60806.4,24566
step02_gravity_refstate-mantle.xmf,499,1.49721e-06,3.12258e-06,0,4.75955e-09,-1.7456e+09,-1.74538e+09,-1.7458e+09,636.114,0.0258925,-4.92423e-20,0,0.0258925,-15465.3,-60000,-0,61961.1,636.114
step02_gravity_refstate-mantle.xmf,500,1.94823e-06,-2.4863e-06,0,4.67664e-06,-1.33779e+09,-1.33839e+09,-1.33805e+09,625033,-0.00858511,0.113662,-0,0.113986,-2306.6,-47391.6,-0,47447.7,625033
step02_gravity_refstate-mantle.xmf,501,-2.2387e-06,4.10124e-06,0,3.39275e-06,-1.40106e+09,-1.40021e+09,-1.40076e+09,453442,-0.00542056,0.078432,-0,0.0786191,-5637.34,-49334.8,-0,49655.9,453442
step02_gravity_refstate-mantle.xmf,502,-5.91374e-07,6.3308e-07,0,5.60261e-06,-1.37595e+09,-1.37579e+09,-1.37587e+09,748788,-0.01017,0.103825,-0,0.104322,-3414.78,-48561.4,-0,48681.3,748788
step02_gravity_refstate-mantle.xmf,503,-1.41089e-06,1.98987e-06,0,5.19905e-06,-1.38705e+09,-1.38659e+09,-1.38686e+09,694853,-0.00944527,0.0972543,-0,0.0977119,-3952.84,-48902.1,-0,49061.6,694853
step02_gravity_refstate-mantle.xmf,504,1.49727e-06,-2.24701e-06,0,5.50512e-06,-1.35747e+09,-1.35797e+09,-1.35767e+09,735759,-0.00943844,0.11434,-0,0.114729,-2395.96,-47997.1,-0,48056.9,735759
step02_gravity_refstate-mantle.xmf,505,1.65778e-06,2.97981e-08,0,-1.05507e-06,-1.09836e+09,-1.09858e+09,-1.09858e+09,-141011,0.0090974,0.0998049,0,0.100219,4001.3,-40000,0,40199.6,141011
step02_gravity_refstate-mantle.xmf,506,1.68421e-06,-1.17519e-07,0,-1.30002e-06,-1.12559e+09,-1.12583e+09,-1.12582e+09,-173747,0.00773196,0.10124,0,0.101535,3543.28,-40841.1,0,40994.5,173747
step02_gravity_refstate-mantle.xmf,507,3.08667e-06,-3.50872e-06,0,2.5288e-06,-1.302e+09,-1.30288e+09,-1.30241e+09,337974,-0.00501041,0.115746,-0,0.115854,-1396.71,-46290.8,-0,46311.9,337974
step02_gravity_refstate-mantle.xmf,508,2.83656e-06,-2.47391e-06,0,8.14549e-07,-1.246e+09,-1.24671e+09,-1.24638e+09,108865,-0.00196679,0.112374,-0,0.112391,-679.283,-44562,-0,44567.2,108865
step02_gravity_refstate-mantle.xmf,509,1.7297e-06,-3.23082e-07,0,-1.48948e-06,-1.15047e+09,-1.15075e+09,-1.1507e+09,-199069,0.00683265,0.102599,0,0.102826,3156.37,-41609.3,0,41728.9,199069
step02_gravity_refstate-mantle.xmf,510,2.87326e-06,-2.4422e-06,0,1.12013e-08,-1.24027e+09,-1.24098e+09,-1.24065e+09,1497.05,-5.3412e-08,0.112384,-0,0.112384,0,-44385.5,0,44385.5,1497.05
step02_gravity_refstate-mantle.xmf,511,2.65307e-06,-1.98808e-06,0,-5.85862e-07,-1.22283e+09,-1.22345e+09,-1.22318e+09,-78300.5,0.00164768,0.110853,0,0.110866,615.412,-43846.4,0,43850.7,78300.5
step02_gravity_refstate-mantle.xmf,512,2.39777e-06,-1.47527e-06,0,-9.52433e-07,-1.20182e+09,-1.20233e+09,-1.20214e+09,-127293,0.00296991,0.108926,0,0.108966,1192.28,-43196.9,0,43213.3,127293
step02_gravity_refstate-mantle.xmf,513,1.84209e-06,-5.98535e-07,0,-1.56498e-06,-1.1742e+09,-1.17453e+09,-1.17445e+09,-209160,0.00598612,0.104365,0,0.104537,2690.89,-42342.3,0,42427.7,209160
step02_gravity_refstate-mantle.xmf,514,2.12392e-06,-1.02974e-06,0,-1.33586e-06,-1.18795e+09,-1.18837e+09,-1.18823e+09,-178538,0.00457287,0.106792,0,0.106889,1944.05,-42767.9,0,42812.1,178538
step02_gravity_refstate-mantle.xmf,515,-1.6067e-07,2.24841e-06,0,1.12258e-07,-1.18079e+09,-1.18047e+09,-1.18077e+09,15003.3,-0.000207759,0.0411183,-0,0.0411188,26936.6,-42539.8,0,50351,15003.3
step02_gravity_refstate-mantle.xmf,516,-3.55561e-07,2.30285e-06,0,2.60816e-08,-1.1456e+09,-1.14524e+09,-1.14555e+09,3485.81,0.00130829,0.0452532,0,0.0452721,24307.5,-41451.6,0,48053,3485.81
step02_gravity_refstate-mantle.xmf,517,-5.00796e-07,2.27623e-06,0,-9.49817e-08,-1.09864e+09,-1.09827e+09,-1.09857e+09,-12694.3,0.00285149,0.049393,0,0.0494752,23349.5,-40000,0,46316.3,12694.3
step02_gravity_refstate-mantle.xmf,518,4.85703e-07,2.17602e-06,0,1.16633e-07,-1.4075e+09,-1.40728e+09,-1.40757e+09,15588.1,-0.00236051,0.0238958,-0,0.0240121,35194.5,-49547.1,0,60774.7,15588.1
step02_gravity_refstate-mantle.xmf,519,6.68425e-07,2.21861e-06,0,7.13056e-08,-1.5146e+09,-1.51439e+09,-1.51469e+09,9529.99,-0.00225467,0.0165887,-0,0.0167413,36614.1,-52856.6,0,64299.4,9529.99
step02_gravity_refstate-mantle.xmf,520,7.98766e-07,2.31172e-06,0,2.7946e-08,-1.63221e+09,-1.632e+09,-1.63231e+09,3734.98,-0.00172626,0.00835966,-0,0.00853603,37832.6,-56490.6,0,67988.9,3734.98
step02_gravity_refstate-mantle.xmf,521,8.2239e-07,2.35875e-06,0,1.85677e-11,-1.67417e+09,-1.67396e+09,-1.67428e+09,2.48158,1.31479e-19,0.00532957,0,0.00532957,40000,-57787,0,70280.4,2.48158
step02_gravity_refstate-mantle.xmf,522,-1.76848e-06,5.01581e-06,0,8.77528e-07,-1.44399e+09,-1.44309e+09,-1.44376e+09,117282,0.00492475,0.0515107,0,0.0517456,-8429.52,-50666.5,-0,51362.9,117282
step02_gravity_refstate-mantle.xmf,523,-6.78864e-07,4.54137e-06,0,-2.83921e-07,-1.49091e+09,-1.49022e+09,-1.49082e+09,-37946,0.0133166,0.0345773,0,0.037053,-10759.1,-52121.9,-0,53220.8,37946
step02_gravity_refstate-mantle.xmf,524,-1.06765e-06,4.77068e-06,0,1.30194e-08,-1.47437e+09,-1.47359e+09,-1.47423e+09,1740.04,0.0106969,0.0397698,0,0.0411832,-9951.86,-51608.8,-0,52559.6,1740.04
step02_gravity_refstate-mantle.xmf,525,-1.43761e-06,4.93739e-06,0,3.98843e-07,-1.45886e+09,-1.458e+09,-1.45866e+09,53305.4,0.00788439,0.0453979,0,0.0460775,-9177.79,-51127.6,-0,51944.8,53305.4
step02_gravity_refstate-mantle.xmf,526,3.45752e-07,3.96116e-06,0,-6.79281e-07,-1.55569e+09,-1.55521e+09,-1.55574e+09,-90785.9,0.0203719,0.0222182,0,0.030144,-12381.6,-54128.2,-0,55526.2,90785.9
step02_gravity_refstate-mantle.xmf,527,9.54391e-07,3.59356e-06,0,-6.46275e-07,-1.61015e+09,-1.6098e+09,-1.61028e+09,-86374.6,0.0242415,0.0146964,0,0.0283484,-13272.8,-55813.6,-0,57370,86374.6
step02_gravity_refstate-mantle.xmf,528,-1.96485e-06,3.09428e-06,0,4.58526e-06,-1.39764e+09,-1.39696e+09,-1.39738e+09,612820,-0.00804701,0.0901538,-0,0.0905122,-4513.42,-49228.3,-0,49434.8,612820
step02_gravity_refstate-mantle.xmf,529,-2.21527e-06,5.2146e-06,0,1.71454e-06,-1.44351e+09,-1.44252e+09,-1.44321e+09,229148,0.00202875,0.0607255,0,0.0607594,-7006.78,-50649,-0,51131.4,229148
step02_gravity_refstate-mantle.xmf,530,-2.38622e-06,4.99329e-06,0,2.40353e-06,-1.43157e+09,-1.43058e+09,-1.43125e+09,321231,-0.000919631,0.0679431,-0,0.0679493,-6332.91,-50278.5,-0,50675.8,321231
step02_gravity_refstate-mantle.xmf,531,-2.29456e-06,3.95949e-06,0,3.87443e-06,-1.40881e+09,-1.40797e+09,-1.4085e+09,517818,-0.00606219,0.0827538,-0,0.0829756,-5094.65,-49573.4,-0,49834.5,517818
step02_gravity_refstate-mantle.xmf,532,-2.42628e-06,4.58907e-06,0,3.13772e-06,-1.42046e+09,-1.41952e+09,-1.42013e+09,419356,-0.00363086,0.0753357,-0,0.0754231,-5690.18,-49934,-0,50257.1,419356
step02_gravity_refstate-mantle.xmf,533,-1.99981e-07,-3.24128e-07,0,6.27763e-06,-1.38605e+09,-1.38607e+09,-1.38602e+09,839006,-0.0103836,0.109905,-0,0.110395,-2897.61,-48873.4,-0,48959.2,839006
step02_gravity_refstate-mantle.xmf,534,1.00571e-06,-2.09895e-06,0,6.28577e-06,-1.37698e+09,-1.37739e+09,-1.37711e+09,840093,-0.010051,0.115622,-0,0.116058,-2400.46,-48596.7,-0,48656,840093
step02_gravity_refstate-mantle.xmf,535,1.31445e-06,2.24741e-07,0,-1.49911e-06,-1.12685e+09,-1.127e+09,-1.12703e+09,-200356,0.00913256,0.0980708,0,0.0984951,4488.01,-40878.4,0,41124,200356
step02_gravity_refstate-mantle.xmf,536,1.23529e-06,3.819e-07,0,-1.18474e-06,-1.09842e+09,-1.09853e+09,-1.09859e+09,-158341,0.0105848,0.0964429,0,0.0970221,5026.7,-40000,0,40314.6,158341
step02_gravity_refstate-mantle.xmf,537,3.11069e-06,-3.12016e-06,0,1.04401e-06,-1.26866e+09,-1.26949e+09,-1.26907e+09,139532,-0.00231526,0.114233,-0,0.114257,-727.775,-45262.2,-0,45268.1,139532
step02_gravity_refstate-mantle.xmf,538,3.43916e-06,-3.77306e-06,0,1.33077e-06,-1.29161e+09,-1.29257e+09,-1.29207e+09,177857,-0.00275244,0.116563,-0,0.116596,-774.03,-45971.7,-0,45978.2,177857
step02_gravity_refstate-mantle.xmf,539,3.34977e-06,-4.23035e-06,0,3.11787e-06,-1.32414e+09,-1.32515e+09,-1.32458e+09,416703,-0.00559609,0.118468,-0,0.1186,-1380.64,-46974.7,-0,46994.9,416703
step02_gravity_refstate-mantle.xmf,540,3.73422e-06,-4.54063e-06,0,1.93719e-06,-1.31352e+09,-1.31463e+09,-1.31402e+09,258905,-0.00354222,0.119075,-0,0.119128,-886.02,-46648.5,-0,46656.9,258905
step02_gravity_refstate-mantle.xmf,541,5.82996e-08,2.24743e-06,0,1.94634e-07,-1.25474e+09,-1.25445e+09,-1.25475e+09,26012.8,-0.00194796,0.0353311,-0,0.0353847,28501.7,-44825.7,0,53119.6,26012.8
step02_gravity_refstate-mantle.xmf,542,-2.01641e-07,2.32107e-06,0,1.26741e-07,-1.19629e+09,-1.19595e+09,-1.19626e+09,16939,-0.000293557,0.0409485,-0,0.0409495,25285.3,-43018.4,0,49899.2,16939
step02_gravity_refstate-mantle.xmf,543,-5.88121e-08,2.28432e-06,0,1.76159e-07,-1.22769e+09,-1.22738e+09,-1.22769e+09,23543.7,-0.00131551,0.0378415,-0,0.0378643,26918.7,-43989.5,0,51572.2,23543.7
step02_gravity_refstate-mantle.xmf,544,-5.95429e-07,2.32817e-06,0,-1.50862e-07,-1.09866e+09,-1.09827e+09,-1.09858e+09,-20162.7,0.00376768,0.0511252,0,0.0512639,21670.5,-40000,0,45493,20162.7
step02_gravity_refstate-mantle.xmf,545,-4.42312e-07,2.37994e-06,0,-7.05915e-09,-1.15209e+09,-1.15171e+09,-1.15203e+09,-943.455,0.00186035,0.0463864,0,0.0464237,22470.7,-41651.8,0,47326.6,943.455
step02_gravity_refstate-mantle.xmf,546,-6.83269e-07,2.3677e-06,0,-2.19358e-07,-1.09867e+09,-1.09826e+09,-1.09858e+09,-29317.2,0.00479146,0.05315,0,0.0533656,20065.1,-40000,0,44750.5,29317.2
step02_gravity_refstate-mantle.xmf,547,-5.62248e-07,2.42208e-06,0,-9.92393e-08,-1.13986e+09,-1.13946e+09,-1.13978e+09,-13263.3,0.00310066,0.0491979,0,0.0492955,20751.2,-41273.1,0,46196.1,13263.3
step02_gravity_refstate-mantle.xmf,548,1.67361e-07,2.21667e-06,0,1.95929e-07,-1.28405e+09,-1.28378e+09,-1.28407e+09,26185.9,-0.00237465,0.0328732,-0,0.0329589,30068.1,-45731.7,0,54731,26185.9
step02_gravity_refstate-mantle.xmf,549,4.05669e-07,2.18241e-06,0,1.57991e-07,-1.37167e+09,-1.37143e+09,-1.37172e+09,21115.5,-0.00278034,0.0264226,-0,0.0265685,33422.7,-48439.7,0,58851.4,21115.5
step02_gravity_refstate-mantle.xmf,550,3.02606e-07,2.20202e-06,0,1.94354e-07,-1.33327e+09,-1.33302e+09,-1.33331e+09,25975.4,-0.00292776,0.0292497,-0,0.0293959,31459.5,-47253,0,56767.5,25975.4
step02_gravity_refstate-mantle.xmf,551,6.10795e-07,2.20586e-06,0,1.11043e-07,-1.47701e+09,-1.4768e+09,-1.4771e+09,14840.9,-0.00294765,0.0191903,-0,0.0194154,35165.3,-51695.2,0,62521.9,14840.9
step02_gravity_refstate-mantle.xmf,552,7.51732e-07,2.26297e-06,0,5.81541e-08,-1.57693e+09,-1.57672e+09,-1.57703e+09,7772.3,-0.00257697,0.0122732,-0,0.0125408,36545,-54782.6,0,65853.4,7772.3
step02_gravity_refstate-mantle.xmf,553,8.33001e-07,2.38484e-06,0,1.02188e-08,-1.69434e+09,-1.69413e+09,-1.69445e+09,1365.75,-0.00135906,0.00385083,-0,0.00408361,38364.9,-58410.3,0,69883,1365.75
step02_gravity_refstate-mantle.xmf,554,8.38787e-07,2.45993e-06,0,-2.76259e-09,-1.74579e+09,-1.74558e+09,-1.74591e+09,-369.22,-6.132e-19,-3.75322e-19,-0,7.18944e-19,40000,-60000,0,72111,369.22
step02_gravity_refstate-mantle.xmf,555,-1.94255e-06,5.28932e-06,0,1.09341e-06,-1.45707e+09,-1.45611e+09,-1.45681e+09,146134,0.00515849,0.0538007,0,0.0540474,-7693.48,-51070,-0,51646.3,146134
step02_gravity_refstate-mantle.xmf,556,3.10456e-08,4.24308e-06,0,-6.08877e-07,-1.53867e+09,-1.53811e+09,-1.53868e+09,-81376.4,0.0188431,0.0259708,0,0.0320865,-11552.5,-53601.2,-0,54832,81376.4
step02_gravity_refstate-mantle.xmf,557,-3.51801e-07,4.55233e-06,0,-4.72143e-07,-1.5216e+09,-1.52095e+09,-1.52155e+09,-63102,0.016828,0.0303466,0,0.0347001,-10728.7,-53072.1,-0,54145.7,63102
step02_gravity_refstate-mantle.xmf,558,6.87963e-07,3.88906e-06,0,-6.91406e-07,-1.58877e+09,-1.58834e+09,-1.58886e+09,-92406.5,0.0233519,0.0182344,0,0.0296278,-12357.8,-55152.1,-0,56519.7,92406.5
step02_gravity_refstate-mantle.xmf,559,1.26771e-06,3.5416e-06,0,-5.23746e-07,-1.65051e+09,-1.65021e+09,-1.65068e+09,-69998.7,0.0269042,0.0103586,0,0.0288295,-13121.5,-57062.4,-0,58551.6,69998.7
step02_gravity_refstate-mantle.xmf,560,1.54485e-06,3.38048e-06,0,-1.85573e-07,-1.71477e+09,-1.71453e+09,-1.71498e+09,-24801.9,0.0283327,0.0032353,0,0.0285168,-13708.9,-59048.8,-0,60619.3,24801.9
step02_gravity_refstate-mantle.xmf,561,1.55457e-06,3.30683e-06,0,4.02562e-09,-1.74557e+09,-1.74534e+09,-1.74578e+09,538.024,0.0277079,-4.8742e-20,0,0.0277079,-14275.5,-60000,-0,61674.9,538.024
step02_gravity_refstate-mantle.xmf,562,2.80737e-06,-3.71473e-06,0,4.08068e-06,-1.33497e+09,-1.33584e+09,-1.33534e+09,545382,-0.00725274,0.117319,-0,0.117543,-1789.99,-47307,-0,47340.8,545382
step02_gravity_refstate-mantle.xmf,563,2.63527e-06,-3.78614e-06,0,4.95001e-06,-1.35178e+09,-1.35264e+09,-1.35213e+09,661569,-0.00815136,0.118618,-0,0.118897,-1875.08,-47824.9,-0,47861.7,661569
step02_gravity_refstate-mantle.xmf,564,-1.18793e-06,1.29528e-06,0,5.8979e-06,-1.39626e+09,-1.39593e+09,-1.39611e+09,788254,-0.00990215,0.103266,-0,0.10374,-3411.27,-49186.5,-0,49304.7,788254
step02_gravity_refstate-mantle.xmf,565,-1.90211e-06,2.67214e-06,0,5.25735e-06,-1.40736e+09,-1.40675e+09,-1.4071e+09,702644,-0.00860595,0.0958207,-0,0.0962064,-3950.72,-49527.9,-0,49685.2,702644
step02_gravity_refstate-mantle.xmf,566,2.37169e-06,-3.86302e-06,0,5.8999e-06,-1.36965e+09,-1.37048e+09,-1.36996e+09,788522,-0.00895317,0.12054,-0,0.120872,-1897.79,-48374.8,-0,48412,788522
step02_gravity_refstate-mantle.xmf,567,1.37639e-06,5.07925e-08,0,-1.72932e-06,-1.15323e+09,-1.1534e+09,-1.15341e+09,-231124,0.00816634,0.0996344,0,0.0999686,4025.72,-41693,0,41886.9,231124
step02_gravity_refstate-mantle.xmf,568,8.76031e-07,6.41452e-07,0,-1.65422e-06,-1.13222e+09,-1.13225e+09,-1.13233e+09,-221087,0.0101674,0.0940177,0,0.0945659,5531.57,-41042.2,0,41413.3,221087
step02_gravity_refstate-mantle.xmf,569,3.189e-06,-3.10549e-06,0,1.05525e-08,-1.26467e+09,-1.26551e+09,-1.2651e+09,1410.35,2.82109e-09,0.114468,0,0.114468,0,-45139.6,0,45139.6,1410.35
step02_gravity_refstate-mantle.xmf,570,1.46608e-06,-1.92731e-07,0,-1.9076e-06,-1.17528e+09,-1.1755e+09,-1.17547e+09,-254951,0.0074872,0.10128,0,0.101556,3595.49,-42374.2,0,42526.5,254951
step02_gravity_refstate-mantle.xmf,571,2.85918e-06,-2.47749e-06,0,-7.76721e-07,-1.24628e+09,-1.247e+09,-1.24667e+09,-103809,0.00195851,0.112401,0,0.112418,675.578,-44571.1,0,44576.2,103809
step02_gravity_refstate-mantle.xmf,572,2.52173e-06,-1.89309e-06,0,-1.27573e-06,-1.23029e+09,-1.23088e+09,-1.23063e+09,-170501,0.00346968,0.110199,0,0.110254,1297.88,-44076.3,0,44095.4,170501
step02_gravity_refstate-mantle.xmf,573,1.86038e-06,-8.31518e-07,0,-1.85184e-06,-1.20194e+09,-1.2023e+09,-1.20219e+09,-247498,0.00600648,0.105238,0,0.105409,2609.7,-43198.8,0,43277.6,247498
step02_gravity_refstate-mantle.xmf,574,2.17939e-06,-1.32777e-06,0,-1.6209e-06,-1.21495e+09,-1.21541e+09,-1.21524e+09,-216634,0.00481508,0.107763,0,0.107871,1948.32,-43601.4,0,43644.9,216634
step02_gravity_refstate-mantle.xmf,575,3.83124e-06,-4.48786e-06,0,9.01147e-07,-1.30416e+09,-1.30527e+09,-1.30467e+09,120438,-0.00168543,0.118793,-0,0.118804,-434.994,-46360.2,-0,46362.2,120438
step02_gravity_refstate-mantle.xmf,576,-2.994e-07,2.37415e-06,0,8.96101e-08,-1.18697e+09,-1.18661e+09,-1.18693e+09,11976.4,0.00036755,0.0427462,0,0.0427478,23688.1,-42730.2,0,48856.9,11976.4
step02_gravity_refstate-mantle.xmf,577,-6.45148e-07,2.45847e-06,0,-1.79801e-07,-1.13778e+09,-1.13736e+09,-1.13769e+09,-24030.4,0.00406713,0.0513842,0,0.0515449,19265.4,-41208.5,0,45489.5,24030.4
step02_gravity_refstate-mantle.xmf,578,-7.55747e-07,2.39814e-06,0,-3.06703e-07,-1.09868e+09,-1.09826e+09,-1.09858e+09,-40990.8,0.0058988,0.0554838,0,0.0557965,18528.8,-40000,0,44083.1,40990.8
step02_gravity_refstate-mantle.xmf,579,-8.09507e-07,2.40662e-06,0,-4.06061e-07,-1.0987e+09,-1.09827e+09,-1.09859e+09,-54270.1,0.00705693,0.0581372,0,0.0585639,17057.5,-40000,0,43485.2,54270.1
step02_gravity_refstate-mantle.xmf,580,-8.3346e-07,2.38843e-06,0,-5.17925e-07,-1.0987e+09,-1.09827e+09,-1.09859e+09,-69220.7,0.00822651,0.0611124,0,0.0616636,15647.1,-40000,0,42951.5,69220.7
step02_gravity_refstate-mantle.xmf,581,-7.64529e-07,2.5003e-06,0,-4.14158e-07,-1.13592e+09,-1.13548e+09,-1.13582e+09,-55352.3,0.0062107,0.0567548,0,0.0570936,16351.4,-41150.3,0,44280,55352.3
step02_gravity_refstate-mantle.xmf,582,-7.11451e-07,2.49568e-06,0,-2.84923e-07,-1.13866e+09,-1.13823e+09,-1.13857e+09,-38079.9,0.00504804,0.0537623,0,0.0539988,17775.5,-41235.4,0,44903.5,38079.9
step02_gravity_refstate-mantle.xmf,583,-8.18204e-07,2.33689e-06,0,-6.39667e-07,-1.0987e+09,-1.09828e+09,-1.09859e+09,-85491.6,0.00936119,0.0644018,0,0.0650786,14293.4,-40000,0,42477.1,85491.6
step02_gravity_refstate-mantle.xmf,584,-7.85226e-07,2.48173e-06,0,-5.62302e-07,-1.13589e+09,-1.13546e+09,-1.13579e+09,-75151.6,0.00728928,0.0599186,0,0.0603604,14970.3,-41149.4,0,43787.9,75151.6
step02_gravity_refstate-mantle.xmf,585,-7.58387e-07,2.24792e-06,0,-7.68772e-07,-1.0987e+09,-1.0983e+09,-1.0986e+09,-102746,0.0104065,0.0679868,0,0.0687787,12992.6,-40000,0,42057.2,102746
step02_gravity_refstate-mantle.xmf,586,-7.64505e-07,2.4359e-06,0,-7.58039e-07,-1.14049e+09,-1.14007e+09,-1.14039e+09,-101312,0.00825898,0.0635514,0,0.0640858,13479,-41291.5,0,43435.8,101312
step02_gravity_refstate-mantle.xmf,587,8.23743e-07,7.52678e-07,0,-1.2386e-06,-1.09848e+09,-1.09849e+09,-1.09859e+09,-165539,0.0116565,0.0926587,0,0.093389,6071.51,-40000,0,40458.2,165539
step02_gravity_refstate-mantle.xmf,588,-6.45919e-07,2.11523e-06,0,-8.96305e-07,-1.09868e+09,-1.09832e+09,-1.0986e+09,-119791,0.0113092,0.0718331,0,0.0727179,11740.6,-40000,0,41687.4,119791
step02_gravity_refstate-mantle.xmf,589,-6.8916e-07,2.29444e-06,0,-9.21988e-07,-1.13056e+09,-1.13016e+09,-1.13046e+09,-123224,0.00962104,0.0681747,0,0.0688502,12202.9,-40984.7,0,42762.8,123224
step02_gravity_refstate-mantle.xmf,590,5.46955e-07,2.20605e-06,0,1.56922e-07,-1.44227e+09,-1.44204e+09,-1.44234e+09,20972.6,-0.0036009,0.021632,-0,0.0219297,33469.7,-50621.4,0,60685.7,20972.6
step02_gravity_refstate-mantle.xmf,591,7.18898e-07,2.24563e-06,0,9.55754e-08,-1.5461e+09,-1.5459e+09,-1.5462e+09,12773.7,-0.00351346,0.0144412,-0,0.0148625,35056.5,-53830.2,0,64238.9,12773.7
step02_gravity_refstate-mantle.xmf,592,8.04679e-07,2.30718e-06,0,6.30744e-08,-1.62324e+09,-1.62304e+09,-1.62334e+09,8429.9,-0.00373381,0.00901361,-0,0.00975635,35297.4,-56213.6,0,66376.7,8429.9
step02_gravity_refstate-mantle.xmf,593,8.39613e-07,2.37865e-06,0,2.43767e-08,-1.6884e+09,-1.68819e+09,-1.68851e+09,3257.95,-0.00291295,0.00429143,-0,0.00518668,36499.6,-58226.8,0,68721,3257.95
step02_gravity_refstate-mantle.xmf,594,8.44758e-07,2.46018e-06,0,-2.30871e-09,-1.74579e+09,-1.74558e+09,-1.74591e+09,-308.559,-0.00199156,-4.18334e-19,-0,0.00199156,37633.6,-60000,0,70825.7,308.559
step02_gravity_refstate-mantle.xmf,595,-1.58797e-06,5.24459e-06,0,5.46227e-07,-1.47292e+09,-1.472e+09,-1.4727e+09,73003.2,0.00845474,0.0471289,0,0.0478813,-8390.52,-51561.7,-0,52239.9,73003.2
step02_gravity_refstate-mantle.xmf,596,-7.63997e-07,4.84e-06,0,-2.35929e-07,-1.50478e+09,-1.50403e+09,-1.50468e+09,-31531.9,0.0143618,0.0353607,0,0.0381659,-9920.53,-52550.4,-0,53478.6,31531.9
step02_gravity_refstate-mantle.xmf,597,-1.1863e-06,5.08475e-06,0,1.01019e-07,-1.48877e+09,-1.48794e+09,-1.48861e+09,13501.2,0.0115642,0.0409461,0,0.0425478,-9135.99,-52053.8,-0,52849.5,13501.2
step02_gravity_refstate-mantle.xmf,598,3.76847e-07,4.20175e-06,0,-6.80422e-07,-1.56997e+09,-1.56946e+09,-1.57002e+09,-90938.4,0.0220724,0.021965,0,0.0311393,-11508.3,-54570.1,-0,55770.4,90938.4
step02_gravity_refstate-mantle.xmf,599,1.00566e-06,3.81882e-06,0,-6.36261e-07,-1.62166e+09,-1.62129e+09,-1.6218e+09,-85036.3,0.0259914,0.0143464,0,0.0296879,-12328.4,-56170.2,-0,57507.2,85036.3
step02_gravity_refstate-mantle.xmf,600,1.47384e-06,3.4912e-06,0,-3.45879e-07,-1.68744e+09,-1.68717e+09,-1.68764e+09,-46226.7,0.0284401,0.00629941,0,0.0291294,-13180.3,-58204.4,-0,59678.1,46226.7
step02_gravity_refstate-mantle.xmf,601,-2.33458e-06,3.74952e-06,0,4.48173e-06,-1.41876e+09,-1.41795e+09,-1.41845e+09,598983,-0.00662686,0.0879649,-0,0.0882142,-4509.8,-49879.9,-0,50083.4,598983
step02_gravity_refstate-mantle.xmf,602,-2.109e-06,5.55487e-06,0,1.37736e-06,-1.46889e+09,-1.46787e+09,-1.46861e+09,184084,0.00531635,0.0566209,0,0.05687,-6989.49,-51434.7,-0,51907.5,184084
step02_gravity_refstate-mantle.xmf,603,-2.38161e-06,5.42334e-06,0,2.07237e-06,-1.45573e+09,-1.45468e+09,-1.45541e+09,276972,0.0020248,0.0640811,0,0.0641131,-6329.2,-51025.9,-0,51416.9,276972
step02_gravity_refstate-mantle.xmf,604,-2.5341e-06,5.10139e-06,0,2.84733e-06,-1.44325e+09,-1.44223e+09,-1.44291e+09,380545,-0.00114623,0.0719222,-0,0.0719314,-5690.05,-50638.5,-0,50957.2,380545
step02_gravity_refstate-mantle.xmf,605,-2.53166e-06,4.55088e-06,0,3.66419e-06,-1.4308e+09,-1.42985e+09,-1.43046e+09,489719,-0.0040906,0.0799452,-0,0.0800497,-5086.81,-50252.7,-0,50509.5,489719
step02_gravity_refstate-mantle.xmf,606,-8.43334e-07,3.48053e-07,0,6.69972e-06,-1.4054e+09,-1.40524e+09,-1.40529e+09,895417,-0.01022,0.110072,-0,0.110545,-2884.68,-49468.6,-0,49552.6,895417
step02_gravity_refstate-mantle.xmf,607,3.8419e-07,-1.65013e-06,0,7.04714e-06,-1.39592e+09,-1.39619e+09,-1.39597e+09,941851,-0.0104072,0.116848,-0,0.11731,-2390.08,-49178.8,-0,49236.8,941851
step02_gravity_refstate-mantle.xmf,608,1.94196e-06,-3.92693e-06,0,6.8845e-06,-1.38765e+09,-1.38843e+09,-1.38791e+09,920114,-0.0096473,0.122771,-0,0.123149,-1893.18,-48927.9,-0,48964.5,920114
step02_gravity_refstate-mantle.xmf,609,1.06091e-06,3.98851e-07,0,-1.82712e-06,-1.15156e+09,-1.15165e+09,-1.1517e+09,-244195,0.00914029,0.0966005,0,0.097032,4811.06,-41640.4,0,41917.4,244195
step02_gravity_refstate-mantle.xmf,610,3.59727e-06,-3.98411e-06,0,-3.56959e-08,-1.28789e+09,-1.28891e+09,-1.28837e+09,-4770.76,-1.28669e-08,0.11698,-0,0.11698,0,-45857.4,0,45857.4,4770.76
step02_gravity_refstate-mantle.xmf,611,1.57853e-06,-4.38325e-07,0,-2.00837e-06,-1.19369e+09,-1.19396e+09,-1.1939e+09,-268419,0.0069853,0.102875,0,0.103112,3219.06,-42943,0,43063.5,268419
step02_gravity_refstate-mantle.xmf,612,3.57237e-06,-4.99429e-06,0,3.92982e-06,-1.34517e+09,-1.34632e+09,-1.34565e+09,525220,-0.00635763,0.121434,-0,0.121601,-1385.68,-47624,-0,47644.2,525220
step02_gravity_refstate-mantle.xmf,613,4.14532e-06,-5.48796e-06,0,2.53229e-06,-1.33451e+09,-1.3358e+09,-1.33507e+09,338441,-0.00415836,0.122226,-0,0.122297,-913.69,-47297.4,-0,47306.2,338441
step02_gravity_refstate-mantle.xmf,614,4.273e-06,-5.38311e-06,0,1.15231e-06,-1.32271e+09,-1.324e+09,-1.32328e+09,154006,-0.00194663,0.121602,-0,0.121618,-447.965,-46933.8,-0,46936,154006
step02_gravity_refstate-mantle.xmf,615,1.90409e-07,2.27054e-06,0,2.40363e-07,-1.31016e+09,-1.30988e+09,-1.31018e+09,32124.5,-0.00321767,0.031471,-0,0.031635,28472.4,-46538.4,0,54557.3,32124.5
step02_gravity_refstate-mantle.xmf,616,7.30983e-08,2.31206e-06,0,2.36732e-07,-1.28163e+09,-1.28133e+09,-1.28164e+09,31639.3,-0.00270909,0.0340017,-0,0.0341095,26938.5,-45656.5,0,53011.3,31639.3
step02_gravity_refstate-mantle.xmf,617,-5.77543e-08,2.35994e-06,0,2.11998e-07,-1.254e+09,-1.25368e+09,-1.25399e+09,28333.5,-0.0019454,0.0367213,-0,0.0367728,25374.6,-44802.3,0,51489,28333.5
step02_gravity_refstate-mantle.xmf,618,-4.44078e-07,2.487e-06,0,1.29844e-08,-1.18734e+09,-1.18695e+09,-1.18728e+09,1735.36,0.00133386,0.0452486,0,0.0452683,21042.1,-42741,0,47639.9,1735.36
step02_gravity_refstate-mantle.xmf,619,-1.84496e-07,2.40825e-06,0,1.69166e-07,-1.23099e+09,-1.23064e+09,-1.23096e+09,22609.1,-0.00105461,0.0393398,-0,0.039354,23892,-44090.7,0,50147.9,22609.1
step02_gravity_refstate-mantle.xmf,620,-3.15408e-07,2.45065e-06,0,1.02191e-07,-1.20807e+09,-1.2077e+09,-1.20803e+09,13657.8,6.32989e-05,0.0422079,0,0.0422079,22470.4,-43381.9,0,48856,13657.8
step02_gravity_refstate-mantle.xmf,621,-5.45558e-07,2.5042e-06,0,-7.63907e-08,-1.17052e+09,-1.17011e+09,-1.17045e+09,-10209.6,0.00251267,0.0479685,0,0.0480343,19898.8,-42220.6,0,46674.9,10209.6
step02_gravity_refstate-mantle.xmf,622,4.25861e-07,1.10241e-06,0,-1.24514e-06,-1.09854e+09,-1.09845e+09,-1.09859e+09,-166413,0.0123082,0.0885882,0,0.0894391,7140.25,-40000,0,40632.3,166413
step02_gravity_refstate-mantle.xmf,623,4.9895e-07,1.03761e-06,0,-1.60191e-06,-1.1287e+09,-1.12862e+09,-1.12876e+09,-214095,0.0110008,0.0896593,0,0.0903317,6621.94,-40931.9,0,41464.1,214095
step02_gravity_refstate-mantle.xmf,624,-4.72158e-07,1.93341e-06,0,-1.01821e-06,-1.09866e+09,-1.09834e+09,-1.0986e+09,-136083,0.0120072,0.0758912,0,0.0768352,10533.4,-40000,0,41363.7,136083
step02_gravity_refstate-mantle.xmf,625,-5.74233e-07,2.14933e-06,0,-1.08299e-06,-1.12889e+09,-1.12853e+09,-1.12882e+09,-144742,0.0104088,0.0720478,0,0.0727958,11086.5,-40933.7,0,42408.5,144742
step02_gravity_refstate-mantle.xmf,626,-7.29632e-07,2.47089e-06,0,-9.47491e-07,-1.16367e+09,-1.16324e+09,-1.16357e+09,-126632,0.00812059,0.0652897,0,0.0657928,12341.1,-42007.7,0,43783,126632
step02_gravity_refstate-mantle.xmf,627,2.76757e-07,2.23868e-06,0,2.27543e-07,-1.3333e+09,-1.33304e+09,-1.33334e+09,30411.1,-0.00339188,0.0295256,-0,0.0297198,29871.2,-47253.9,0,55903.6,30411.1
step02_gravity_refstate-mantle.xmf,628,4.69926e-07,2.21962e-06,0,2.02506e-07,-1.40834e+09,-1.4081e+09,-1.4084e+09,27064.9,-0.00405371,0.0240909,-0,0.0244296,31690.1,-49572.8,0,58836.5,27064.9
step02_gravity_refstate-mantle.xmf,629,6.6861e-07,2.23524e-06,0,1.43001e-07,-1.50949e+09,-1.50928e+09,-1.50958e+09,19112,-0.00434726,0.0170204,-0,0.0175668,33428.6,-52698.9,0,62407.1,19112
step02_gravity_refstate-mantle.xmf,630,-1.74854e-06,5.54197e-06,0,7.76503e-07,-1.48371e+09,-1.48273e+09,-1.48348e+09,103780,0.00869767,0.0496112,0,0.0503679,-7648.98,-51894.8,-0,52455.5,103780
step02_gravity_refstate-mantle.xmf,631,2.49563e-08,4.52289e-06,0,-5.93216e-07,-1.5525e+09,-1.5519e+09,-1.5525e+09,-79283.3,0.0203771,0.0261178,0,0.0331265,-10684.2,-54029,-0,55075.2,79283.3
step02_gravity_refstate-mantle.xmf,632,-3.89561e-07,4.85991e-06,0,-4.32447e-07,-1.53565e+09,-1.53495e+09,-1.53559e+09,-57796.6,0.0182179,0.0308209,0,0.0358025,-9891.78,-53506.5,-0,54413.1,57796.6
step02_gravity_refstate-mantle.xmf,633,7.32434e-07,4.13696e-06,0,-6.79124e-07,-1.60162e+09,-1.60116e+09,-1.60172e+09,-90764.9,0.025108,0.0179346,0,0.0308555,-11475.9,-55550,-0,56723,90764.9
step02_gravity_refstate-mantle.xmf,634,1.23196e-06,3.81768e-06,0,-5.44443e-07,-1.6493e+09,-1.64895e+09,-1.64946e+09,-72764.8,0.0280356,0.0112481,0,0.0302079,-12161.4,-57025.2,-0,58307.6,72764.8
step02_gravity_refstate-mantle.xmf,635,1.4521e-06,3.74902e-06,0,-3.90541e-07,-1.68125e+09,-1.68095e+09,-1.68145e+09,-52195.8,0.0296338,0.0074741,0,0.0305618,-12202.6,-58013.7,-0,59283.2,52195.8
step02_gravity_refstate-mantle.xmf,636,1.57802e-06,3.67963e-06,0,-2.06159e-07,-1.7133e+09,-1.71302e+09,-1.71351e+09,-27553.1,0.0302699,0.00368201,0,0.0304931,-12450.7,-59004.3,-0,60303.6,27553.1
step02_gravity_refstate-mantle.xmf,637,1.60347e-06,3.53176e-06,0,6.33386e-09,-1.74554e+09,-1.74528e+09,-1.74575e+09,846.521,0.0294957,-5.96991e-20,0,0.0294957,-13142.2,-60000,-0,61422.4,846.521
step02_gravity_refstate-mantle.xmf,638,3.7011e-06,-5.6566e-06,0,4.94854e-06,-1.36369e+09,-1.36494e+09,-1.36419e+09,661373,-0.00719344,0.124346,-0,0.124554,-1402.25,-48195.3,-0,48215.7,661373
step02_gravity_refstate-mantle.xmf,639,-1.73107e-06,2.03128e-06,0,6.04819e-06,-1.41638e+09,-1.41588e+09,-1.41615e+09,808341,-0.00911255,0.102451,-0,0.102855,-3395.05,-49806.1,-0,49921.6,808341
step02_gravity_refstate-mantle.xmf,640,-2.29944e-06,3.39263e-06,0,5.21577e-06,-1.42869e+09,-1.42793e+09,-1.42838e+09,697088,-0.00713623,0.0941391,-0,0.0944092,-3926.08,-50186.1,-0,50339.4,697088
step02_gravity_refstate-mantle.xmf,641,3.63008e-06,-6.05792e-06,0,6.07877e-06,-1.38047e+09,-1.38177e+09,-1.38096e+09,812428,-0.00800952,0.127285,-0,0.127537,-1412.56,-48712,-0,48732.5,812428
step02_gravity_refstate-mantle.xmf,642,1.01706e-06,3.17553e-07,0,-2.14714e-06,-1.17938e+09,-1.17947e+09,-1.17952e+09,-286966,0.00869678,0.0972843,0,0.0976722,4573.07,-42499.2,0,42744.5,286966
step02_gravity_refstate-mantle.xmf,643,7.01954e-07,7.41934e-07,0,-2.04633e-06,-1.16692e+09,-1.16692e+09,-1.16702e+09,-273492,0.00956604,0.0934479,0,0.0939362,5490.67,-42113.4,0,42469.8,273492
step02_gravity_refstate-mantle.xmf,644,4.0477e-06,-4.85345e-06,0,3.9299e-08,-1.30998e+09,-1.31117e+09,-1.31052e+09,5252.32,-2.3788e-08,0.119965,-0,0.119965,0,-46540.5,0,46540.5,5252.32
step02_gravity_refstate-mantle.xmf,645,3.11619e-06,-3.04756e-06,0,-1.01148e-06,-1.26865e+09,-1.26948e+09,-1.26907e+09,-135185,0.00231526,0.114233,0,0.114257,727.775,-45262.2,0,45268.1,135185
step02_gravity_refstate-mantle.xmf,646,1.22013e-06,-4.91139e-08,0,-2.29862e-06,-1.20052e+09,-1.20069e+09,-1.20068e+09,-307210,0.0079935,0.100094,0,0.100412,3908.55,-43152.6,0,43329.2,307210
step02_gravity_refstate-mantle.xmf,647,2.69089e-06,-2.35607e-06,0,-1.60011e-06,-1.25513e+09,-1.25581e+09,-1.25549e+09,-213855,0.00391395,0.111714,0,0.111783,1344.58,-44843.6,0,44863.7,213855
step02_gravity_refstate-mantle.xmf,648,1.49036e-06,-4.78724e-07,0,-2.32023e-06,-1.21491e+09,-1.21517e+09,-1.21511e+09,-310099,0.00729169,0.102862,0,0.10312,3296.85,-43597.7,0,43722.2,310099
step02_gravity_refstate-mantle.xmf,649,2.25255e-06,-1.65648e-06,0,-1.98063e-06,-1.2409e+09,-1.24142e+09,-1.2412e+09,-264711,0.00524441,0.108854,0,0.10898,1981.43,-44402.7,0,44446.9,264711
step02_gravity_refstate-mantle.xmf,650,1.84504e-06,-1.02147e-06,0,-2.21182e-06,-1.22746e+09,-1.22784e+09,-1.22771e+09,-295610,0.00637039,0.105854,0,0.106045,2640.64,-43986.4,0,44065.6,295610
step02_gravity_refstate-mantle.xmf,651,-7.53425e-07,2.59386e-06,0,-4.53478e-07,-1.16573e+09,-1.16528e+09,-1.16563e+09,-60607.3,0.00551309,0.055992,0,0.0562627,15635.3,-42071.4,0,44882.8,60607.3
step02_gravity_refstate-mantle.xmf,652,-6.00659e-07,2.57481e-06,0,-1.4151e-07,-1.18027e+09,-1.17985e+09,-1.18019e+09,-18912.9,0.00289474,0.0491502,0,0.0492353,18573.1,-42521.7,0,46401,18912.9
step02_gravity_refstate-mantle.xmf,653,-6.87586e-07,2.61662e-06,0,-2.87491e-07,-1.17874e+09,-1.1783e+09,-1.17865e+09,-38423.1,0.00400887,0.0521581,0,0.052312,16943.6,-42474,0,45728.8,38423.1
step02_gravity_refstate-mantle.xmf,654,-7.66612e-07,2.64317e-06,0,-5.97255e-07,-1.17948e+09,-1.17902e+09,-1.17938e+09,-79823.2,0.00582258,0.0578453,0,0.0581376,14433.2,-42496.2,0,44880.4,79823.2
step02_gravity_refstate-mantle.xmf,655,7.2062e-08,1.42124e-06,0,-1.20402e-06,-1.09859e+09,-1.09841e+09,-1.0986e+09,-160917,0.0125582,0.0843613,0,0.0852909,8237.32,-40000,0,40839.4,160917
step02_gravity_refstate-mantle.xmf,656,1.54964e-07,1.38254e-06,0,-1.53222e-06,-1.12874e+09,-1.12858e+09,-1.12876e+09,-204781,0.0113276,0.0853637,0,0.086112,7658.36,-40932,0,41642.3,204781
step02_gravity_refstate-mantle.xmf,657,4.98452e-07,9.94354e-07,0,-1.89631e-06,-1.15378e+09,-1.15371e+09,-1.15384e+09,-253442,0.0102005,0.0905991,0,0.0911716,6215.97,-41706.5,0,42167.2,253442
step02_gravity_refstate-mantle.xmf,658,-2.32319e-07,1.70149e-06,0,-1.12355e-06,-1.09863e+09,-1.09837e+09,-1.0986e+09,-150162,0.0124428,0.0800954,0,0.0810561,9366.97,-40000,0,41082.1,150162
step02_gravity_refstate-mantle.xmf,659,-1.79173e-07,1.71638e-06,0,-1.4461e-06,-1.13299e+09,-1.13274e+09,-1.13297e+09,-193271,0.0111563,0.0804408,0,0.0812108,8809.3,-41061.9,0,41996.2,193271
step02_gravity_refstate-mantle.xmf,660,-4.06944e-07,1.96551e-06,0,-1.25028e-06,-1.12939e+09,-1.12908e+09,-1.12934e+09,-167099,0.0109393,0.0760315,0,0.0768145,9986.89,-40949.8,0,42150,167099
step02_gravity_refstate-mantle.xmf,661,-6.64149e-07,2.33633e-06,0,-1.08326e-06,-1.1541e+09,-1.1537e+09,-1.15401e+09,-144777,0.00910537,0.0688223,0,0.069422,11508.5,-41712.2,0,43270.7,144777
step02_gravity_refstate-mantle.xmf,662,-7.71547e-07,2.60233e-06,0,-7.96294e-07,-1.17796e+09,-1.17751e+09,-1.17786e+09,-106425,0.00682826,0.0613822,0,0.0617608,13225.9,-42449.4,0,44462,106425
step02_gravity_refstate-mantle.xmf,663,3.97511e-07,2.24652e-06,0,2.40155e-07,-1.38332e+09,-1.38307e+09,-1.38337e+09,32096.8,-0.00433475,0.0260292,-0,0.0263876,30037.5,-48799.7,0,57303.2,32096.8
step02_gravity_refstate-mantle.xmf,664,3.16783e-07,2.28458e-06,0,2.69003e-07,-1.36089e+09,-1.36063e+09,-1.36093e+09,35952.2,-0.0044256,0.0279086,-0,0.0282573,28436.9,-48106.4,0,55882.8,35952.2
step02_gravity_refstate-mantle.xmf,665,6.09314e-07,2.23999e-06,0,1.93819e-07,-1.47542e+09,-1.4752e+09,-1.4755e+09,25903.9,-0.00504027,0.0194658,-0,0.0201078,31714.1,-51646,0,60606,25903.9
step02_gravity_refstate-mantle.xmf,666,7.69846e-07,2.27645e-06,0,1.15917e-07,-1.57679e+09,-1.57659e+09,-1.57689e+09,15492.3,-0.00501171,0.0123315,-0,0.013311,33338.7,-54778.5,0,64126,15492.3
step02_gravity_refstate-mantle.xmf,667,8.59927e-07,2.38503e-06,0,3.77215e-08,-1.6897e+09,-1.68949e+09,-1.68981e+09,5041.47,-0.00480243,0.0042026,-0,0.00638163,34279.8,-58267.1,0,67603,5041.47
step02_gravity_refstate-mantle.xmf,668,8.61107e-07,2.46264e-06,0,-2.0629e-09,-1.74579e+09,-1.74558e+09,-1.7459e+09,-275.706,-0.00391275,-4.09545e-19,-0,0.00391275,35381,-60000,0,69655,275.706
step02_gravity_refstate-mantle.xmf,669,-1.30472e-06,5.47237e-06,0,2.57204e-07,-1.50507e+09,-1.50417e+09,-1.5049e+09,34375.3,0.0127088,0.0424944,0,0.0443541,-8257.38,-52557.4,-0,53202.2,34375.3
step02_gravity_refstate-mantle.xmf,670,-8.40235e-07,5.17003e-06,0,-1.57091e-07,-1.51875e+09,-1.51794e+09,-1.51864e+09,-20995.2,0.0155333,0.0362872,0,0.0394721,-9112.2,-52982.2,-0,53760.1,20995.2
step02_gravity_refstate-mantle.xmf,671,3.99174e-07,4.48861e-06,0,-6.55222e-07,-1.58321e+09,-1.58266e+09,-1.58326e+09,-87570.4,0.0237802,0.0219254,0,0.0323454,-10642,-54980,-0,56000.5,87570.4
step02_gravity_refstate-mantle.xmf,672,1.04422e-06,4.08163e-06,0,-6.15703e-07,-1.63209e+09,-1.63168e+09,-1.63223e+09,-82288.7,0.0276835,0.0141098,0,0.0310718,-11439.6,-56493.1,-0,57639.7,82288.7
step02_gravity_refstate-mantle.xmf,673,-1.9056e-06,5.84138e-06,0,1.07304e-06,-1.49348e+09,-1.49245e+09,-1.49323e+09,143412,0.00889115,0.0525076,0,0.0532551,-6958.06,-52196.4,-0,52658.1,143412
step02_gravity_refstate-mantle.xmf,674,-2.58205e-06,4.40551e-06,0,4.31387e-06,-1.44032e+09,-1.43939e+09,-1.43998e+09,576548,-0.00459201,0.0855185,-0,0.0856417,-4487.36,-50546.2,-0,50745,576548
step02_gravity_refstate-mantle.xmf,675,-2.25561e-06,5.82069e-06,0,1.74442e-06,-1.48049e+09,-1.47941e+09,-1.48019e+09,233141,0.00552609,0.0599599,0,0.060214,-6306.65,-51792.7,-0,52175.3,233141
step02_gravity_refstate-mantle.xmf,676,-2.52555e-06,5.59417e-06,0,2.55891e-06,-1.46694e+09,-1.46585e+09,-1.4666e+09,341999,0.00191373,0.0684198,0,0.0684466,-5647.15,-51371.6,-0,51681.1,341999
step02_gravity_refstate-mantle.xmf,677,-2.63215e-06,5.10226e-06,0,3.44381e-06,-1.45291e+09,-1.45188e+09,-1.45256e+09,460265,-0.00158705,0.0770629,-0,0.0770793,-5048.27,-50936.4,-0,51186,460265
step02_gravity_refstate-mantle.xmf,678,-1.40027e-06,1.19165e-06,0,6.97209e-06,-1.42362e+09,-1.42327e+09,-1.42343e+09,931820,-0.00953472,0.11006,-0,0.110472,-2858.91,-50029.8,-0,50111.4,931820
step02_gravity_refstate-mantle.xmf,679,-3.37206e-07,-9.22089e-07,0,7.61954e-06,-1.41434e+09,-1.41442e+09,-1.41429e+09,1.01835e+06,-0.0103196,0.11767,-0,0.118121,-2383.83,-49744.8,-0,49801.9,1.01835e+06
step02_gravity_refstate-mantle.xmf,680,1.25901e-06,-3.50846e-06,0,7.87079e-06,-1.40502e+09,-1.40565e+09,-1.40518e+09,1.05193e+06,-0.0101337,0.124622,-0,0.125034,-1902.76,-49460.9,-0,49497.5,1.05193e+06
step02_gravity_refstate-mantle.xmf,681,3.18838e-06,-6.24834e-06,0,7.33002e-06,-1.39679e+09,-1.39805e+09,-1.39722e+09,979657,-0.00886384,0.130021,-0,0.130322,-1443.82,-49212.7,-0,49233.8,979657
step02_gravity_refstate-mantle.xmf,682,3.82599e-06,-4.51769e-06,0,-8.72352e-07,-1.30416e+09,-1.30528e+09,-1.30467e+09,-116590,0.00168547,0.118792,0,0.118804,435.017,-46360.1,0,46362.1,116590
step02_gravity_refstate-mantle.xmf,683,4.64566e-06,-6.66756e-06,0,3.35799e-06,-1.35559e+09,-1.3571e+09,-1.35621e+09,448795,-0.00484294,0.126154,-0,0.126247,-920.066,-47948.6,-0,47957.5,448795
step02_gravity_refstate-mantle.xmf,684,4.89965e-06,-6.64666e-06,0,1.52387e-06,-1.34314e+09,-1.34468e+09,-1.3438e+09,203666,-0.00226892,0.125392,-0,0.125412,-453.086,-47565.9,-0,47568.1,203666
step02_gravity_refstate-mantle.xmf,685,4.66532e-06,-6.04391e-06,0,5.6997e-08,-1.33099e+09,-1.33242e+09,-1.33162e+09,7617.66,-2.81633e-08,0.123507,-0,0.123507,0,-47190.6,0,47190.6,7617.66
step02_gravity_refstate-mantle.xmf,686,4.29383e-06,-5.37738e-06,0,-1.08003e-06,-1.32264e+09,-1.32393e+09,-1.32321e+09,-144345,0.00195233,0.121588,0,0.121604,449.494,-46931.7,0,46933.9,144345
step02_gravity_refstate-mantle.xmf,687,2.12506e-07,2.33032e-06,0,2.82697e-07,-1.33502e+09,-1.33474e+09,-1.33505e+09,37782.5,-0.00416684,0.0301773,-0,0.0304636,26921.3,-47306.8,0,54430.6,37782.5
step02_gravity_refstate-mantle.xmf,688,8.84629e-08,2.38399e-06,0,2.76761e-07,-1.30802e+09,-1.30771e+09,-1.30803e+09,36989.2,-0.00359973,0.0327365,-0,0.0329338,25422.7,-46472,0,52971.3,36989.2
step02_gravity_refstate-mantle.xmf,689,-4.44518e-08,2.44171e-06,0,2.48855e-07,-1.28267e+09,-1.28234e+09,-1.28266e+09,33259.5,-0.00279833,0.0354158,-0,0.0355261,23966.9,-45688.2,0,51592.8,33259.5
step02_gravity_refstate-mantle.xmf,690,-4.63906e-07,2.57628e-06,0,4.00365e-09,-1.20939e+09,-1.20899e+09,-1.20933e+09,535.088,0.00102117,0.0449492,0,0.0449608,19873.8,-43422.2,0,47754.1,535.088
step02_gravity_refstate-mantle.xmf,691,-3.29274e-07,2.54649e-06,0,1.1177e-07,-1.23327e+09,-1.23289e+09,-1.23323e+09,14938,-0.000446255,0.0415379,-0,0.0415403,21167.8,-44160.7,0,48971.8,14938
step02_gravity_refstate-mantle.xmf,692,-1.85371e-07,2.49719e-06,0,1.94435e-07,-1.25756e+09,-1.2572e+09,-1.25753e+09,25986.2,-0.0017355,0.0383432,-0,0.0383824,22563.4,-44911.6,0,50260.9,25986.2
step02_gravity_refstate-mantle.xmf,693,1.56825e-07,1.36844e-06,0,-1.88898e-06,-1.16043e+09,-1.16027e+09,-1.16045e+09,-252463,0.0103579,0.0863629,0,0.0869818,7114,-41910.8,0,42510.3,252463
step02_gravity_refstate-mantle.xmf,694,3.05293e-07,1.15905e-06,0,-2.16963e-06,-1.18124e+09,-1.18113e+09,-1.18128e+09,-289972,0.00978562,0.0894617,0,0.0899953,6265.25,-42554,0,43012.8,289972
step02_gravity_refstate-mantle.xmf,695,-5.73731e-07,2.24933e-06,0,-1.28272e-06,-1.16172e+09,-1.16134e+09,-1.16164e+09,-171435,0.00939737,0.0717697,0,0.0723823,10554.1,-41947.9,0,43255.2,171435
step02_gravity_refstate-mantle.xmf,696,-7.20144e-07,2.50402e-06,0,-1.13929e-06,-1.18214e+09,-1.18171e+09,-1.18204e+09,-152266,0.00798449,0.0668841,0,0.067359,11464,-42578.3,0,44094.7,152266
step02_gravity_refstate-mantle.xmf,697,-7.88887e-07,2.67175e-06,0,-9.40453e-07,-1.19634e+09,-1.19588e+09,-1.19624e+09,-125692,0.00664119,0.0624099,0,0.0627623,12427.6,-43017.2,0,44776.3,125692
step02_gravity_refstate-mantle.xmf,698,5.3851e-07,2.25977e-06,0,2.42248e-07,-1.44407e+09,-1.44384e+09,-1.44414e+09,32376.4,-0.00549865,0.0217985,-0,0.0224813,30037.3,-50677.2,0,58910.3,32376.4
step02_gravity_refstate-mantle.xmf,699,7.25951e-07,2.26764e-06,0,1.69742e-07,-1.53897e+09,-1.53876e+09,-1.53907e+09,22686.1,-0.00590007,0.0150419,-0,0.0161577,31663.9,-53610,0,62262.6,22686.1
step02_gravity_refstate-mantle.xmf,700,8.42439e-07,2.33281e-06,0,8.25567e-08,-1.63986e+09,-1.63966e+09,-1.63997e+09,11033.7,-0.00571116,0.00784561,-0,0.00970417,32993.4,-56727.3,0,65624.3,11033.7
step02_gravity_refstate-mantle.xmf,701,-1.56257e-06,5.77852e-06,0,6.04156e-07,-1.50626e+09,-1.50528e+09,-1.50605e+09,80745.4,0.0117886,0.0466634,0,0.0481295,-7486.93,-52593.3,-0,53123.6,80745.4
step02_gravity_refstate-mantle.xmf,702,3.329e-08,4.83909e-06,0,-5.49397e-07,-1.56671e+09,-1.56607e+09,-1.56672e+09,-73426.9,0.0220719,0.0262684,0,0.0343103,-9852.26,-54468.8,-0,55352.7,73426.9
step02_gravity_refstate-mantle.xmf,703,-3.96537e-07,5.19776e-06,0,-3.64076e-07,-1.55062e+09,-1.54987e+09,-1.55057e+09,-48658.8,0.0198703,0.031189,0,0.0369809,-9106.4,-53969.9,-0,54732.7,48658.8
step02_gravity_refstate-mantle.xmf,704,7.65704e-07,4.43359e-06,0,-6.41979e-07,-1.61356e+09,-1.61307e+09,-1.61366e+09,-85800.5,0.0268559,0.0177812,0,0.0322088,-10617.3,-55919.7,-0,56918.7,85800.5
step02_gravity_refstate-mantle.xmf,705,1.30881e-06,4.0465e-06,0,-4.92631e-07,-1.66295e+09,-1.66259e+09,-1.66313e+09,-65840.1,0.0298416,0.0102858,0,0.0315645,-11386,-57448.3,-0,58565.7,65840.1
step02_gravity_refstate-mantle.xmf,706,1.52201e-06,3.98497e-06,0,-3.18878e-07,-1.69565e+09,-1.69532e+09,-1.69585e+09,-42618,0.031366,0.00619017,0,0.031971,-11417.7,-58459.5,-0,59564.1,42618
step02_gravity_refstate-mantle.xmf,707,1.62882e-06,3.81994e-06,0,2.73787e-09,-1.74551e+09,-1.74522e+09,-1.74573e+09,365.916,0.0312401,-4.39148e-20,0,0.0312401,-12062.5,-60000,-0,61200.5,365.916
step02_gravity_refstate-mantle.xmf,708,5.31366e-06,-8.44691e-06,0,4.22127e-06,-1.37512e+09,-1.37696e+09,-1.37583e+09,564173,-0.00530945,0.130994,-0,0.131102,-863.777,-48552,-0,48559.7,564173
step02_gravity_refstate-mantle.xmf,709,-2.10136e-06,2.76461e-06,0,6.14469e-06,-1.43709e+09,-1.43644e+09,-1.43681e+09,821238,-0.00765133,0.101644,-0,0.101931,-3345.28,-50445.2,-0,50556,821238
step02_gravity_refstate-mantle.xmf,710,-2.53412e-06,4.1518e-06,0,5.14226e-06,-1.4518e+09,-1.45091e+09,-1.45146e+09,687263,-0.00479136,0.0921461,-0,0.0922706,-3875.27,-50900.4,-0,51047.7,687263
step02_gravity_refstate-mantle.xmf,711,4.92217e-06,-8.31413e-06,0,6.00843e-06,-1.38915e+09,-1.39092e+09,-1.38981e+09,803026,-0.00691593,0.132974,-0,0.133154,-1051.57,-48983.1,-0,48994.4,803026
step02_gravity_refstate-mantle.xmf,712,5.09094e-07,8.59424e-07,0,-2.37008e-06,-1.1964e+09,-1.19635e+09,-1.19647e+09,-316761,0.00932747,0.0927913,0,0.0932589,5475.37,-43022.9,0,43369.9,316761
step02_gravity_refstate-mantle.xmf,713,3.43884e-06,-3.83591e-06,0,-1.37017e-06,-1.29161e+09,-1.29259e+09,-1.29207e+09,-183123,0.00275241,0.116563,0,0.116596,774.03,-45971.7,0,45978.2,183123
step02_gravity_refstate-mantle.xmf,714,2.89573e-06,-2.88725e-06,0,-1.99681e-06,-1.27883e+09,-1.2796e+09,-1.27922e+09,-266874,0.00442568,0.11353,0,0.113616,1378.27,-45575.6,0,45596.4,266874
step02_gravity_refstate-mantle.xmf,715,7.58081e-07,4.69011e-07,0,-2.54942e-06,-1.21134e+09,-1.21138e+09,-1.21144e+09,-340730,0.00883112,0.0962824,0,0.0966866,4704.58,-43485.1,0,43738.8,340730
step02_gravity_refstate-mantle.xmf,716,1.03352e-06,2.0552e-08,0,-2.67346e-06,-1.22632e+09,-1.22645e+09,-1.22645e+09,-357308,0.0083194,0.0996096,0,0.0999564,4013.92,-43948.4,0,44131.3,357308
step02_gravity_refstate-mantle.xmf,717,2.33783e-06,-2.01801e-06,0,-2.41319e-06,-1.26577e+09,-1.26635e+09,-1.26608e+09,-322523,0.00577619,0.110164,0,0.110315,2007.84,-45170.6,0,45215.2,322523
step02_gravity_refstate-mantle.xmf,718,1.38266e-06,-5.31374e-07,0,-2.70994e-06,-1.23951e+09,-1.23977e+09,-1.2397e+09,-362184,0.00769319,0.103021,0,0.103308,3345.73,-44357,0,44483,362184
step02_gravity_refstate-mantle.xmf,719,1.82312e-06,-1.21849e-06,0,-2.63495e-06,-1.25253e+09,-1.25294e+09,-1.25277e+09,-352162,0.0068542,0.106603,0,0.106823,2668.05,-44760.2,0,44839.7,352162
step02_gravity_refstate-mantle.xmf,720,3.75267e-06,-4.59346e-06,0,-1.93099e-06,-1.31352e+09,-1.31463e+09,-1.31402e+09,-258076,0.00354239,0.119074,0,0.119127,886.099,-46648.4,0,46656.8,258076
step02_gravity_refstate-mantle.xmf,721,-7.25363e-07,2.72833e-06,0,-3.84544e-07,-1.20267e+09,-1.20221e+09,-1.20257e+09,-51394.3,0.00382149,0.0528373,0,0.0529753,15686,-43213.1,0,45972,51394.3
step02_gravity_refstate-mantle.xmf,722,-4.98611e-07,2.66748e-06,0,-2.62189e-08,-1.22666e+09,-1.22623e+09,-1.22659e+09,-3504.16,0.000831213,0.0451217,0,0.0451293,18748.5,-43955.4,0,47786.9,3504.16
step02_gravity_refstate-mantle.xmf,723,-5.95267e-07,2.67832e-06,0,-1.45001e-07,-1.20999e+09,-1.20955e+09,-1.20991e+09,-19379.4,0.00212514,0.0481203,0,0.0481672,17743.3,-43439.8,0,46923.8,19379.4
step02_gravity_refstate-mantle.xmf,724,-8.0283e-07,2.7851e-06,0,-7.21098e-07,-1.20994e+09,-1.20946e+09,-1.20983e+09,-96374.7,0.00517935,0.0579866,0,0.0582174,13471.6,-43437.2,0,45478.3,96374.7
step02_gravity_refstate-mantle.xmf,725,-8.64576e-08,1.64458e-06,0,-1.70202e-06,-1.15418e+09,-1.15395e+09,-1.15417e+09,-227475,0.0105565,0.0824594,0,0.0831323,8064.23,-41716.7,0,42489,227475
step02_gravity_refstate-mantle.xmf,726,-4.09376e-07,2.02593e-06,0,-1.44718e-06,-1.15482e+09,-1.15449e+09,-1.15477e+09,-193415,0.0101504,0.0761219,0,0.0767957,9563.76,-41735.4,0,42817.1,193415
step02_gravity_refstate-mantle.xmf,727,4.5576e-07,2.29378e-06,0,2.83059e-07,-1.41547e+09,-1.41523e+09,-1.41553e+09,37830.8,-0.00571047,0.0240484,-0,0.0247171,28428.5,-49793.4,0,57337.2,37830.8
step02_gravity_refstate-mantle.xmf,728,3.57012e-07,2.34055e-06,0,3.12059e-07,-1.38807e+09,-1.38781e+09,-1.38812e+09,41706.7,-0.00564702,0.0263571,-0,0.0269552,26890.3,-48946.5,0,55846.7,41706.7
step02_gravity_refstate-mantle.xmf,729,6.72267e-07,2.27726e-06,0,2.25329e-07,-1.50596e+09,-1.50575e+09,-1.50605e+09,30115.3,-0.00661055,0.0174637,-0,0.0186729,29991.6,-52590,0,60540.9,30115.3
step02_gravity_refstate-mantle.xmf,730,8.19477e-07,2.30867e-06,0,1.31341e-07,-1.60149e+09,-1.60129e+09,-1.6016e+09,17553.7,-0.00664892,0.0106261,-0,0.0125349,31540.2,-55541.8,0,63872.4,17553.7
step02_gravity_refstate-mantle.xmf,731,8.90206e-07,2.39865e-06,0,4.75236e-08,-1.69434e+09,-1.69414e+09,-1.69446e+09,6351.53,-0.00662139,0.00387016,-0,0.00766949,32215.8,-58410.9,0,66706,6351.53
step02_gravity_refstate-mantle.xmf,732,8.86396e-07,2.46811e-06,0,-1.81268e-09,-1.74578e+09,-1.74557e+09,-1.7459e+09,-242.265,-0.00578637,-3.76948e-19,-0,0.00578637,33236.8,-60000,0,68590.7,242.265
step02_gravity_refstate-mantle.xmf,733,-8.43291e-07,5.5057e-06,0,-7.36647e-08,-1.53489e+09,-1.53404e+09,-1.53478e+09,-9845.29,0.017225,0.0366749,0,0.0405185,-8409.22,-53481.7,-0,54138.7,9845.29
step02_gravity_refstate-mantle.xmf,734,-1.17551e-06,5.86826e-06,0,2.81144e-07,-1.5307e+09,-1.52975e+09,-1.53054e+09,37574.9,0.0157957,0.0414629,0,0.0443697,-7619.58,-53350.8,-0,53892.2,37574.9
step02_gravity_refstate-mantle.xmf,735,-1.60589e-06,6.09523e-06,0,7.89372e-07,-1.51864e+09,-1.51761e+09,-1.51842e+09,105500,0.0128936,0.0480124,0,0.0497135,-6935.44,-52976.1,-0,53428.1,105500
step02_gravity_refstate-mantle.xmf,736,4.30462e-07,4.81654e-06,0,-5.97957e-07,-1.59671e+09,-1.59612e+09,-1.59677e+09,-79916.9,0.0255995,0.0218497,0,0.0336562,-9824.68,-55398.1,-0,56262.5,79916.9
step02_gravity_refstate-mantle.xmf,737,1.08218e-06,4.39182e-06,0,-5.70029e-07,-1.64328e+09,-1.64283e+09,-1.64342e+09,-76184.4,0.0294659,0.0137797,0,0.0325288,-10579.8,-56839.8,-0,57816,76184.4
step02_gravity_refstate-mantle.xmf,738,1.60982e-06,3.97714e-06,0,-1.51817e-07,-1.72335e+09,-1.72303e+09,-1.72356e+09,-20290.3,0.0319759,0.00273662,0,0.0320928,-11498.9,-59315.7,-0,60420,20290.3
step02_gravity_refstate-mantle.xmf,739,-2.02064e-06,6.18214e-06,0,1.43745e-06,-1.5053e+09,-1.5042e+09,-1.50503e+09,192116,0.00947957,0.0555312,0,0.0563345,-6284.52,-52561.4,-0,52935.8,192116
step02_gravity_refstate-mantle.xmf,740,-2.66601e-06,4.98565e-06,0,4.14566e-06,-1.45894e+09,-1.45792e+09,-1.45858e+09,554067,-0.00225763,0.0827968,-0,0.0828276,-4489.11,-51122,-0,51318.8,554067
step02_gravity_refstate-mantle.xmf,741,-2.37638e-06,6.09139e-06,0,2.25564e-06,-1.4919e+09,-1.49077e+09,-1.49159e+09,301467,0.00576682,0.0641467,0,0.0644054,-5622.07,-52145.1,-0,52447.3,301467
step02_gravity_refstate-mantle.xmf,742,-2.63185e-06,5.69398e-06,0,3.34193e-06,-1.47715e+09,-1.47603e+09,-1.4768e+09,446649,0.00151784,0.0748266,0,0.074842,-4891.08,-51686.6,-0,51917.5,446649
step02_gravity_refstate-mantle.xmf,743,-1.74371e-06,1.83266e-06,0,7.01853e-06,-1.43887e+09,-1.43839e+09,-1.43864e+09,938026,-0.00837743,0.10907,-0,0.109391,-2877.84,-50500.3,-0,50582.2,938026
step02_gravity_refstate-mantle.xmf,744,-9.97556e-07,2.35054e-07,0,7.9819e-06,-1.43388e+09,-1.43371e+09,-1.43375e+09,1.06678e+06,-0.00944752,0.118004,-0,0.118381,-2379.86,-50347,-0,50403.2,1.06678e+06
step02_gravity_refstate-mantle.xmf,745,4.25584e-07,-2.7013e-06,0,8.67342e-06,-1.42259e+09,-1.42301e+09,-1.42265e+09,1.1592e+06,-0.0101201,0.12632,-0,0.126725,-1901.62,-50000.2,-0,50036.4,1.1592e+06
step02_gravity_refstate-mantle.xmf,746,2.65811e-06,-6.20044e-06,0,8.81367e-06,-1.41387e+09,-1.41506e+09,-1.41423e+09,1.17795e+06,-0.00943763,0.133276,-0,0.13361,-1444.41,-49737,-0,49758,1.17795e+06
step02_gravity_refstate-mantle.xmf,747,5.17439e-06,-9.49502e-06,0,7.33335e-06,-1.40373e+09,-1.40569e+09,-1.40443e+09,980103,-0.00735454,0.137609,-0,0.137805,-998.057,-49432.2,-0,49442.2,980103
step02_gravity_refstate-mantle.xmf,748,9.30436e-08,1.34998e-06,0,-2.43126e-06,-1.20997e+09,-1.2098e+09,-1.20998e+09,-324937,0.00946904,0.0883847,0,0.0888905,6258.17,-43440.5,0,43888.9,324937
step02_gravity_refstate-mantle.xmf,749,5.72159e-06,-8.27266e-06,0,1.99431e-06,-1.36305e+09,-1.36492e+09,-1.36382e+09,266539,-0.0025625,0.130036,-0,0.130061,-437.529,-48182.3,-0,48184.2,266539
step02_gravity_refstate-mantle.xmf,750,5.4315e-06,-7.52712e-06,0,7.81787e-08,-1.35098e+09,-1.35271e+09,-1.35171e+09,10448.6,4.93659e-08,0.127704,0,0.127704,0,-47809.3,0,47809.3,10448.6
step02_gravity_refstate-mantle.xmf,751,4.92511e-06,-6.62595e-06,0,-1.42773e-06,-1.34285e+09,-1.3444e+09,-1.34351e+09,-190816,0.00229992,0.125317,0,0.125338,460.301,-47557.3,0,47559.5,190816
step02_gravity_refstate-mantle.xmf,752,4.19548e-06,-5.47789e-06,0,-2.47345e-06,-1.33438e+09,-1.33567e+09,-1.33494e+09,-330577,0.00416252,0.122197,0,0.122268,915.549,-47293.4,0,47302.3,330577
step02_gravity_refstate-mantle.xmf,753,2.39466e-07,2.39831e-06,0,3.24335e-07,-1.36086e+09,-1.36057e+09,-1.36089e+09,43347.4,-0.00528184,0.0288364,-0,0.0293162,25410.5,-48105.2,0,54404.1,43347.4
step02_gravity_refstate-mantle.xmf,754,-7.66267e-07,2.84679e-06,0,-5.02093e-07,-1.22385e+09,-1.22336e+09,-1.22375e+09,-67104.7,0.00364163,0.0537296,0,0.0538529,14567.9,-43867.3,0,46223,67104.7
step02_gravity_refstate-mantle.xmf,755,1.08154e-07,2.46438e-06,0,3.15615e-07,-1.33499e+09,-1.33467e+09,-1.335e+09,42181.9,-0.00465387,0.0314422,-0,0.0317848,23978,-47305.3,0,53035.2,42181.9
step02_gravity_refstate-mantle.xmf,756,-6.43827e-07,2.76075e-06,0,-2.14749e-07,-1.22277e+09,-1.22231e+09,-1.22268e+09,-28701.2,0.00216109,0.0489142,0,0.0489619,16732.6,-43834.6,0,46919.6,28701.2
step02_gravity_refstate-mantle.xmf,757,-3.70015e-08,2.53221e-06,0,2.79851e-07,-1.30896e+09,-1.30861e+09,-1.30895e+09,37402.1,-0.0037207,0.0343066,-0,0.0345077,22616.9,-46500.4,0,51708.9,37402.1
step02_gravity_refstate-mantle.xmf,758,-3.55657e-07,2.66251e-06,0,1.07292e-07,-1.25872e+09,-1.25831e+09,-1.25867e+09,14339.5,-0.00105737,0.0410182,-0,0.0410318,19825.2,-44946.7,0,49124.8,14339.5
step02_gravity_refstate-mantle.xmf,759,-1.93026e-07,2.59869e-06,0,2.12891e-07,-1.28304e+09,-1.28267e+09,-1.28301e+09,28452.9,-0.00250658,0.0374841,-0,0.0375678,21264.8,-45699,0,50404.3,28452.9
step02_gravity_refstate-mantle.xmf,760,-5.35738e-07,2.7699e-06,0,-6.47364e-08,-1.24473e+09,-1.24429e+09,-1.24466e+09,-8652.02,0.000532936,0.045252,0,0.0452551,17710,-44513.7,0,47907.3,8652.02
step02_gravity_refstate-mantle.xmf,761,-3.24078e-07,1.92771e-06,0,-1.66308e-06,-1.16681e+09,-1.16651e+09,-1.16677e+09,-222271,0.0100299,0.078594,0,0.0792314,8796.07,-42106.2,0,43015.1,222271
step02_gravity_refstate-mantle.xmf,762,-2.16928e-07,1.80049e-06,0,-1.92226e-06,-1.1819e+09,-1.18164e+09,-1.18188e+09,-256910,0.00983254,0.081527,0,0.0821177,7943.41,-42572.7,0,43307.4,256910
step02_gravity_refstate-mantle.xmf,763,-6.37797e-08,1.59402e-06,0,-2.17999e-06,-1.19516e+09,-1.19493e+09,-1.19515e+09,-291356,0.00967591,0.0850228,0,0.0855717,7061.7,-42982.6,0,43558.8,291356
step02_gravity_refstate-mantle.xmf,764,-5.4688e-07,2.24956e-06,0,-1.54057e-06,-1.18318e+09,-1.18281e+09,-1.18311e+09,-205897,0.00911038,0.0738029,0,0.0743631,9672.45,-42611.1,0,43695.1,205897
step02_gravity_refstate-mantle.xmf,765,-7.18115e-07,2.52527e-06,0,-1.35361e-06,-1.19878e+09,-1.19835e+09,-1.19869e+09,-180910,0.00793722,0.0688276,0,0.0692838,10608.2,-43092.6,0,44379.1,180910
step02_gravity_refstate-mantle.xmf,766,-8.21624e-07,2.74243e-06,0,-1.13005e-06,-1.21461e+09,-1.21413e+09,-1.2145e+09,-151032,0.00654915,0.0639391,0,0.0642736,11550.5,-43581.3,0,45085.9,151032
step02_gravity_refstate-mantle.xmf,767,-8.57451e-07,2.89258e-06,0,-8.84529e-07,-1.22974e+09,-1.22924e+09,-1.22962e+09,-118217,0.00502843,0.0592108,0,0.0594239,12527,-44048.8,0,45795.5,118217
step02_gravity_refstate-mantle.xmf,768,5.98587e-07,2.30311e-06,0,2.7838e-07,-1.47316e+09,-1.47293e+09,-1.47324e+09,37205.5,-0.00701906,0.0199566,-0,0.021155,28386.6,-51576.4,0,58872.1,37205.5
step02_gravity_refstate-mantle.xmf,769,7.84041e-07,2.30293e-06,0,1.90808e-07,-1.56557e+09,-1.56537e+09,-1.56568e+09,25501.5,-0.00754436,0.0132488,-0,0.0152462,29931.7,-54432.1,0,62118.9,25501.5
step02_gravity_refstate-mantle.xmf,770,8.79393e-07,2.35604e-06,0,9.20797e-08,-1.65286e+09,-1.65267e+09,-1.65298e+09,12306.5,-0.00724922,0.00692788,-0,0.0100273,31293.9,-57129.4,0,65138.9,12306.5
step02_gravity_refstate-mantle.xmf,771,5.18606e-08,5.2064e-06,0,-4.65155e-07,-1.58124e+09,-1.58055e+09,-1.58125e+09,-62168,0.0239256,0.0264252,0,0.0356472,-9054.8,-54918.7,-0,55660.1,62168
step02_gravity_refstate-mantle.xmf,772,-3.81607e-07,5.59709e-06,0,-2.45787e-07,-1.56635e+09,-1.56555e+09,-1.5663e+09,-32849.4,0.0217771,0.031558,0,0.0383425,-8341.14,-54456.9,-0,55092,32849.4
step02_gravity_refstate-mantle.xmf,773,7.9875e-07,4.77286e-06,0,-5.70868e-07,-1.62559e+09,-1.62506e+09,-1.62569e+09,-76296.5,0.0286355,0.0175709,0,0.0335966,-9820.04,-56292.5,-0,57142.6,76296.5
step02_gravity_refstate-mantle.xmf,774,1.36018e-06,4.40792e-06,0,-4.23205e-07,-1.67644e+09,-1.67603e+09,-1.67662e+09,-56561.3,0.0319356,0.00946577,0,0.0333089,-10402.1,-57866.2,-0,58793.7,56561.3
step02_gravity_refstate-mantle.xmf,775,1.56973e-06,4.36448e-06,0,-1.90061e-07,-1.71656e+09,-1.71619e+09,-1.71677e+09,-25401.6,0.0333843,0.0039192,0,0.0336135,-10526.8,-59106.7,-0,60036.8,25401.6
step02_gravity_refstate-mantle.xmf,776,1.62952e-06,4.17795e-06,0,5.22984e-09,-1.74548e+09,-1.74514e+09,-1.7457e+09,698.969,0.0329148,-6.30774e-20,0,0.0329148,-11033.6,-60000,-0,61006.1,698.969
step02_gravity_refstate-mantle.xmf,777,6.66831e-06,-1.07527e-05,0,4.01899e-06,-1.38944e+09,-1.39177e+09,-1.39033e+09,537138,-0.00417103,0.137157,-0,0.137221,-576.437,-48997.5,-0,49000.9,537138
step02_gravity_refstate-mantle.xmf,778,-2.63732e-06,5.16954e-06,0,4.55817e-06,-1.47247e+09,-1.47143e+09,-1.47212e+09,609200,-0.00118825,0.0853186,-0,0.0853269,-4143.55,-51540.7,-0,51707,609200
step02_gravity_refstate-mantle.xmf,779,-2.16572e-06,3.17169e-06,0,6.46375e-06,-1.4561e+09,-1.45539e+09,-1.45581e+09,863880,-0.00595002,0.10307,-0,0.103242,-3149.71,-51033.1,-0,51130.2,863880
step02_gravity_refstate-mantle.xmf,780,-1.5398e-06,1.57696e-06,0,7.66163e-06,-1.45066e+09,-1.45024e+09,-1.45045e+09,1.02398e+06,-0.007629,0.113565,-0,0.11382,-2594.28,-50865,-0,50931.1,1.02398e+06
step02_gravity_refstate-mantle.xmf,781,2.76041e-07,1.03332e-06,0,-2.6726e-06,-1.22448e+09,-1.22438e+09,-1.22452e+09,-357194,0.00925355,0.0918915,0,0.0923563,5491.06,-43889.2,0,44231.4,357194
step02_gravity_refstate-mantle.xmf,782,3.11145e-06,-3.5592e-06,0,-2.53531e-06,-1.302e+09,-1.30289e+09,-1.30242e+09,-338845,0.00501093,0.115746,0,0.115854,1396.84,-46291,0,46312.1,338845
step02_gravity_refstate-mantle.xmf,783,2.40415e-06,-2.39413e-06,0,-2.96173e-06,-1.29013e+09,-1.29077e+09,-1.29045e+09,-395835,0.00644106,0.111687,0,0.111873,2037.35,-45922.5,0,45967.7,395835
step02_gravity_refstate-mantle.xmf,784,5.29552e-07,6.06347e-07,0,-2.90084e-06,-1.23869e+09,-1.23868e+09,-1.23876e+09,-387698,0.00898978,0.0956625,0,0.096084,4736.23,-44328.8,0,44581.1,387698
step02_gravity_refstate-mantle.xmf,785,8.55546e-07,6.93814e-08,0,-3.05822e-06,-1.25157e+09,-1.25167e+09,-1.25168e+09,-408731,0.00863642,0.0994948,0,0.0998689,4028.92,-44727.3,0,44908.4,408731
step02_gravity_refstate-mantle.xmf,786,1.77446e-06,-1.40777e-06,0,-3.1359e-06,-1.27706e+09,-1.27748e+09,-1.27729e+09,-419113,0.00743671,0.107495,0,0.107752,2688.31,-45517,0,45596.4,419113
step02_gravity_refstate-mantle.xmf,787,1.26328e-06,-5.93905e-07,0,-3.14981e-06,-1.26437e+09,-1.26462e+09,-1.26454e+09,-420972,0.00814247,0.103431,0,0.103751,3349.87,-45123.8,0,45247.9,420972
step02_gravity_refstate-mantle.xmf,788,3.37045e-06,-4.29363e-06,0,-3.14125e-06,-1.32414e+09,-1.32516e+09,-1.32459e+09,-419828,0.00559616,0.118468,0,0.1186,1380.67,-46974.7,0,46995,419828
step02_gravity_refstate-mantle.xmf,789,-6.98423e-07,2.88341e-06,0,-2.96538e-07,-1.24251e+09,-1.24203e+09,-1.24242e+09,-39632.3,0.00191257,0.0494648,0,0.0495018,15649.4,-44444.4,0,47119.1,39632.3
step02_gravity_refstate-mantle.xmf,790,-4.32882e-07,2.75047e-06,0,4.74815e-08,-1.26239e+09,-1.26196e+09,-1.26233e+09,6345.9,-0.000746473,0.0423498,-0,0.0423563,18599.3,-45059.8,0,48747.5,6345.9
step02_gravity_refstate-mantle.xmf,791,-8.34343e-07,2.98225e-06,0,-6.35656e-07,-1.24503e+09,-1.24452e+09,-1.24492e+09,-84955.5,0.00339971,0.0546415,0,0.0547472,13545.9,-44521.5,0,46536.6,84955.5
step02_gravity_refstate-mantle.xmf,792,-2.36974e-07,1.76733e-06,0,-2.3844e-06,-1.22062e+09,-1.22035e+09,-1.22059e+09,-318675,0.00928815,0.0842265,0,0.084737,6957.97,-43768.4,0,44318,318675
step02_gravity_refstate-mantle.xmf,793,-2.08908e-07,1.65636e-06,0,-2.6699e-06,-1.23904e+09,-1.23879e+09,-1.23901e+09,-356832,0.0092074,0.0866083,0,0.0870964,6338.6,-44337.4,0,44788.2,356832
step02_gravity_refstate-mantle.xmf,794,5.05456e-07,2.34562e-06,0,3.22552e-07,-1.44198e+09,-1.44173e+09,-1.44205e+09,43109.1,-0.00712596,0.0224616,-0,0.0235649,26855,-50612.6,0,57296,43109.1
step02_gravity_refstate-mantle.xmf,795,3.98018e-07,2.40306e-06,0,3.52853e-07,-1.41397e+09,-1.4137e+09,-1.41402e+09,47158.7,-0.00697984,0.0249008,-0,0.0258606,25395.1,-49746.7,0,55853.8,47158.7
step02_gravity_refstate-mantle.xmf,796,7.28635e-07,2.31639e-06,0,2.52645e-07,-1.53022e+09,-1.53001e+09,-1.53032e+09,33766,-0.00819281,0.0158887,-0,0.0178766,28339.6,-53339.8,0,60400.9,33766
step02_gravity_refstate-mantle.xmf,797,8.78578e-07,2.34674e-06,0,1.37933e-07,-1.62995e+09,-1.62976e+09,-1.63007e+09,18434.8,-0.00837999,0.00862791,-0,0.0120277,29807.8,-56421.7,0,63811.5,18434.8
step02_gravity_refstate-mantle.xmf,798,9.24353e-07,2.40792e-06,0,6.34277e-08,-1.69287e+09,-1.69267e+09,-1.69299e+09,8477.11,-0.0083955,0.00399733,-0,0.00929855,30253.7,-58365.5,0,65740.5,8477.11
step02_gravity_refstate-mantle.xmf,799,9.19929e-07,2.47656e-06,0,-2.19529e-09,-1.74578e+09,-1.74557e+09,-1.7459e+09,-293.4,-0.00762944,-3.89216e-19,-0,0.00762944,31195.7,-60000,0,67625.2,293.4
step02_gravity_refstate-mantle.xmf,800,-8.02267e-07,5.98442e-06,0,8.9407e-08,-1.55512e+09,-1.55421e+09,-1.55501e+09,11949.2,0.0196508,0.037031,0,0.0419219,-7609.33,-54108,-0,54640.5,11949.2
step02_gravity_refstate-mantle.xmf,801,-1.25159e-06,6.30785e-06,0,5.52852e-07,-1.54313e+09,-1.54212e+09,-1.54296e+09,73888.7,0.016981,0.0434082,0,0.0466115,-6919.73,-53735.5,-0,54179.2,73888.7
step02_gravity_refstate-mantle.xmf,802,-1.70789e-06,6.52253e-06,0,1.17078e-06,-1.53027e+09,-1.52917e+09,-1.53004e+09,156475,0.0137628,0.0508483,0,0.0526779,-6255.5,-53335.9,-0,53701.5,156475
step02_gravity_refstate-mantle.xmf,803,4.57767e-07,5.21055e-06,0,-5.00676e-07,-1.61045e+09,-1.60982e+09,-1.61051e+09,-66915.3,0.0275204,0.0217588,0,0.035083,-9037.04,-55823.8,-0,56550.5,66915.3
step02_gravity_refstate-mantle.xmf,804,1.07054e-06,4.71767e-06,0,-5.14879e-07,-1.64972e+09,-1.64923e+09,-1.64986e+09,-68813.6,0.0307723,0.0139776,0,0.033798,-9843.53,-57039.5,-0,57882.7,68813.6
step02_gravity_refstate-mantle.xmf,805,-2.12914e-06,6.56037e-06,0,1.96338e-06,-1.51648e+09,-1.51532e+09,-1.5162e+09,262406,0.0100389,0.0594309,0,0.0602729,-5611.25,-52907.2,-0,53203.9,262406
step02_gravity_refstate-mantle.xmf,806,6.6205e-06,-1.02744e-05,0,1.90042e-06,-1.37795e+09,-1.38021e+09,-1.37884e+09,253992,-0.00228754,0.134592,-0,0.134611,-340.232,-48643.5,-0,48644.7,253992
step02_gravity_refstate-mantle.xmf,807,-2.44908e-06,6.3881e-06,0,2.9442e-06,-1.50365e+09,-1.50247e+09,-1.50333e+09,393493,0.00620785,0.0690655,0,0.0693439,-4958.47,-52508.4,-0,52742,393493
step02_gravity_refstate-mantle.xmf,808,-2.47929e-06,4.44129e-06,0,5.60602e-06,-1.46844e+09,-1.46751e+09,-1.46811e+09,749245,-0.00321984,0.0943089,-0,0.0943638,-3587.85,-51415.4,-0,51540.4,749245
step02_gravity_refstate-mantle.xmf,809,-8.35699e-07,-1.02787e-08,0,8.64874e-06,-1.44813e+09,-1.44802e+09,-1.44802e+09,1.1559e+06,-0.00838182,0.121957,-0,0.122245,-2176.85,-50787.7,-0,50834.3,1.1559e+06
step02_gravity_refstate-mantle.xmf,810,-2.37568e-08,-1.72526e-06,0,9.31255e-06,-1.43947e+09,-1.4397e+09,-1.43947e+09,1.24462e+06,-0.00929056,0.128547,-0,0.128882,-1850.57,-50521.2,-0,50555,1.24462e+06
step02_gravity_refstate-mantle.xmf,811,1.35724e-06,-5.29479e-06,0,9.80315e-06,-1.43073e+09,-1.43162e+09,-1.43091e+09,1.31019e+06,-0.00944834,0.136395,-0,0.136722,-1435.61,-50251.3,-0,50271.8,1.31019e+06
step02_gravity_refstate-mantle.xmf,812,8.42993e-06,-1.38204e-05,0,5.02729e-06,-1.4057e+09,-1.40867e+09,-1.40682e+09,671897,-0.00415301,0.14392,-0,0.14398,-496.382,-49503.5,-0,49506,671897
step02_gravity_refstate-mantle.xmf,813,6.60509e-06,-1.22941e-05,0,1.0329e-05,-1.42204e+09,-1.42456e+09,-1.42292e+09,1.38047e+06,-0.00798322,0.143192,-0,0.143414,-1000,-50000,-0,50010,1.38047e+06
step02_gravity_refstate-mantle.xmf,814,6.39798e-06,-9.41072e-06,0,1.00397e-07,-1.36999e+09,-1.3721e+09,-1.37084e+09,13418.1,-1.79636e-06,0.132691,-0,0.132691,0,-48398.2,0,48398.2,13418.1
step02_gravity_refstate-mantle.xmf,815,5.67313e-06,-8.15672e-06,0,-1.9386e-06,-1.36205e+09,-1.3639e+09,-1.36281e+09,-259094,0.00271593,0.129681,0,0.12971,468.111,-48151.3,0,48153.6,259094
step02_gravity_refstate-mantle.xmf,816,4.66162e-06,-6.63035e-06,0,-3.29613e-06,-1.35507e+09,-1.35658e+09,-1.3557e+09,-440528,0.0048734,0.125993,0,0.126087,930.608,-47932.9,0,47941.9,440528
step02_gravity_refstate-mantle.xmf,817,3.61402e-06,-4.99565e-06,0,-3.92482e-06,-1.34516e+09,-1.34632e+09,-1.34565e+09,-524552,0.00635735,0.121434,0,0.121601,1385.68,-47624.1,0,47644.2,524552
step02_gravity_refstate-mantle.xmf,818,2.72084e-07,2.47369e-06,0,3.64804e-07,-1.38721e+09,-1.38691e+09,-1.38725e+09,48756,-0.00655229,0.0274561,-0,0.0282271,23978.5,-48919.6,0,54480.2,48756
step02_gravity_refstate-mantle.xmf,819,-7.642e-07,3.02405e-06,0,-4.01538e-07,-1.26168e+09,-1.26117e+09,-1.26157e+09,-53665.6,0.00169811,0.0502934,0,0.0503221,14569.8,-45036.3,0,47334.5,53665.6
step02_gravity_refstate-mantle.xmf,820,1.26081e-07,2.55402e-06,0,3.51575e-07,-1.36073e+09,-1.36041e+09,-1.36075e+09,46988,-0.00580845,0.0302453,-0,0.030798,22603.3,-48100.9,0,53147,46988
step02_gravity_refstate-mantle.xmf,821,-5.88559e-07,2.89162e-06,0,-1.13503e-07,-1.26381e+09,-1.26334e+09,-1.26373e+09,-15169.6,0.000161485,0.0454485,0,0.0454488,16670.9,-45103,0,48085.4,15169.6
step02_gravity_refstate-mantle.xmf,822,-2.69874e-08,2.63298e-06,0,3.10033e-07,-1.33573e+09,-1.33537e+09,-1.33572e+09,41436,-0.00480726,0.0331508,-0,0.0334976,21347.2,-47327.7,0,51919.3,41436
step02_gravity_refstate-mantle.xmf,823,-1.8402e-07,2.70575e-06,0,2.38236e-07,-1.31157e+09,-1.31118e+09,-1.31155e+09,31840.2,-0.00357818,0.0362475,-0,0.0364236,20162.5,-46580.6,0,50757.1,31840.2
step02_gravity_refstate-mantle.xmf,824,-3.17795e-07,2.79211e-06,0,1.55967e-07,-1.29876e+09,-1.29835e+09,-1.29872e+09,20844.9,-0.00264038,0.0388237,-0,0.0389134,18895.5,-46184.4,0,49900.2,20844.9
step02_gravity_refstate-mantle.xmf,825,-4.49092e-07,2.86047e-06,0,4.50166e-08,-1.28448e+09,-1.28404e+09,-1.28442e+09,6016.48,-0.00147577,0.0417153,-0,0.0417414,17756.7,-45742.5,0,49068.1,6016.48
step02_gravity_refstate-mantle.xmf,826,-5.11591e-07,2.18277e-06,0,-1.82133e-06,-1.19891e+09,-1.19855e+09,-1.19884e+09,-243421,0.00907272,0.0765814,0,0.077117,8790.8,-43097.1,0,43984.5,243421
step02_gravity_refstate-mantle.xmf,827,-4.58686e-07,2.07573e-06,0,-2.14735e-06,-1.21705e+09,-1.21671e+09,-1.21699e+09,-286993,0.00904427,0.0798417,0,0.0803523,7856.57,-43657.5,0,44358.8,286993
step02_gravity_refstate-mantle.xmf,828,-5.4764e-07,2.13461e-06,0,-2.42798e-06,-1.24215e+09,-1.24179e+09,-1.24208e+09,-324499,0.00879847,0.0810966,0,0.0815725,7301.33,-44432.3,0,45028.2,324499
step02_gravity_refstate-mantle.xmf,829,-7.26413e-07,2.53504e-06,0,-1.61058e-06,-1.2159e+09,-1.21546e+09,-1.2158e+09,-215254,0.00794486,0.0711757,0,0.0716177,9721.93,-43621.2,0,44691.4,215254
step02_gravity_refstate-mantle.xmf,830,-8.69507e-07,2.81049e-06,0,-1.35248e-06,-1.23228e+09,-1.23179e+09,-1.23216e+09,-180758,0.00654428,0.0658281,0,0.0661526,10668.1,-44127,0,45398.2,180758
step02_gravity_refstate-mantle.xmf,831,-9.31863e-07,3.00594e-06,0,-1.07181e-06,-1.24846e+09,-1.24794e+09,-1.24834e+09,-143248,0.0049512,0.0606925,0,0.0608941,11616.2,-44627,0,46114,143248
step02_gravity_refstate-mantle.xmf,832,-9.22001e-07,3.12232e-06,0,-7.90562e-07,-1.26389e+09,-1.26335e+09,-1.26376e+09,-105659,0.00327075,0.0558668,0,0.0559625,12579,-45103.8,0,46825,105659
step02_gravity_refstate-mantle.xmf,833,6.52624e-07,2.35048e-06,0,3.11268e-07,-1.49721e+09,-1.49699e+09,-1.4973e+09,41601,-0.00856427,0.0184641,-0,0.0203536,26794.3,-52319.8,0,58781.8,41601
step02_gravity_refstate-mantle.xmf,834,8.39518e-07,2.33991e-06,0,2.06802e-07,-1.58699e+09,-1.58679e+09,-1.58711e+09,27639.1,-0.00920335,0.0118098,-0,0.0149724,28260.9,-55094.4,0,61919.9,27639.1
step02_gravity_refstate-mantle.xmf,835,5.28044e-08,5.64902e-06,0,-3.24739e-07,-1.59498e+09,-1.59424e+09,-1.59499e+09,-43401.4,0.0257769,0.0267783,0,0.0371689,-8285.95,-55344.4,-0,55961.2,43401.4
step02_gravity_refstate-mantle.xmf,836,-3.90752e-07,6.09855e-06,0,-4.55078e-08,-1.58127e+09,-1.5804e+09,-1.58121e+09,-6082.11,0.0236938,0.032274,0,0.0400376,-7581.13,-54918.8,-0,55439.6,6082.11
step02_gravity_refstate-mantle.xmf,837,8.53398e-07,5.17232e-06,0,-4.69722e-07,-1.64107e+09,-1.6405e+09,-1.64119e+09,-62778.3,0.0307683,0.016792,0,0.0350523,-9051.91,-56772.2,-0,57489.3,62778.3
step02_gravity_refstate-mantle.xmf,838,1.19686e-06,4.93869e-06,0,-4.05571e-07,-1.66961e+09,-1.66911e+09,-1.66977e+09,-54204.6,0.0327718,0.0116626,0,0.0347851,-9409.07,-57655.5,-0,58418.2,54204.6
step02_gravity_refstate-mantle.xmf,839,1.43464e-06,4.79046e-06,0,-2.72409e-07,-1.69944e+09,-1.69899e+09,-1.69963e+09,-36407.4,0.0341492,0.00688594,0,0.0348365,-9639.32,-58578.1,-0,59365.9,36407.4
step02_gravity_refstate-mantle.xmf,840,1.58414e-06,4.6274e-06,0,2.37403e-09,-1.74545e+09,-1.74505e+09,-1.74567e+09,317.289,0.0344906,-5.03296e-20,0,0.0344906,-10053,-60000,-0,60836.4,317.289
step02_gravity_refstate-mantle.xmf,841,7.55906e-06,-1.23379e-05,0,-1.99136e-08,-1.38812e+09,-1.39078e+09,-1.38913e+09,-2661.46,2.80919e-06,0.138648,0,0.138648,0,-48958.6,0,48958.6,2661.46
step02_gravity_refstate-mantle.xmf,842,-2.59537e-06,5.9488e-06,0,4.0322e-06,-1.49261e+09,-1.49147e+09,-1.49226e+09,538904,0.00266312,0.0791177,0,0.0791625,-4338.59,-52165.1,-0,52345.2,538904
step02_gravity_refstate-mantle.xmf,843,-2.51914e-06,5.27463e-06,0,5.35199e-06,-1.4859e+09,-1.48486e+09,-1.48557e+09,715294,-0.000178166,0.0900991,-0,0.0900992,-3685.66,-51956.7,-0,52087.3,715294
step02_gravity_refstate-mantle.xmf,844,-2.21857e-06,4.20015e-06,0,6.63219e-06,-1.47827e+09,-1.47741e+09,-1.47798e+09,886392,-0.0027625,0.100871,-0,0.100909,-3131.19,-51720.3,-0,51814.9,886392
step02_gravity_refstate-mantle.xmf,845,-1.6564e-06,2.63791e-06,0,7.87041e-06,-1.46926e+09,-1.46868e+09,-1.46903e+09,1.05188e+06,-0.00513652,0.111736,-0,0.111854,-2625.21,-51441.5,-0,51508.4,1.05188e+06
step02_gravity_refstate-mantle.xmf,846,-9.10401e-07,8.61492e-07,0,8.96812e-06,-1.46216e+09,-1.46192e+09,-1.46204e+09,1.19859e+06,-0.00668014,0.12134,-0,0.121524,-2196.73,-51222.7,-0,51269.8,1.19859e+06
step02_gravity_refstate-mantle.xmf,847,9.15275e-08,-1.37408e-06,0,9.99692e-06,-1.45505e+09,-1.45525e+09,-1.45506e+09,1.33609e+06,-0.00773468,0.130517,-0,0.130746,-1799.61,-51004.2,-0,51035.9,1.33609e+06
step02_gravity_refstate-mantle.xmf,848,2.28825e-08,1.23175e-06,0,-2.96759e-06,-1.25159e+09,-1.25142e+09,-1.25159e+09,-396619,0.00923468,0.0911027,0,0.0915695,5463.07,-44725.3,0,45057.7,396619
step02_gravity_refstate-mantle.xmf,849,2.42698e-06,-2.86749e-06,0,-3.73794e-06,-1.31615e+09,-1.31686e+09,-1.31648e+09,-499575,0.00727522,0.113668,0,0.113901,2056.5,-46725.4,0,46770.7,499575
step02_gravity_refstate-mantle.xmf,850,1.66433e-06,-1.56234e-06,0,-3.73599e-06,-1.30094e+09,-1.30137e+09,-1.30116e+09,-499315,0.00810349,0.108482,0,0.108784,2705.79,-46253.7,0,46332.8,499315
step02_gravity_refstate-mantle.xmf,851,3.02124e-07,7.38019e-07,0,-3.24659e-06,-1.26407e+09,-1.26402e+09,-1.26411e+09,-433907,0.00916371,0.0953437,0,0.0957831,4701,-45111.7,0,45356,433907
step02_gravity_refstate-mantle.xmf,852,6.36021e-07,1.5365e-07,0,-3.47335e-06,-1.27642e+09,-1.27649e+09,-1.27651e+09,-464213,0.00899601,0.0994525,0,0.0998585,4021.81,-45493.9,0,45671.3,464213
step02_gravity_refstate-mantle.xmf,853,1.0784e-06,-5.94667e-07,0,-3.64732e-06,-1.28861e+09,-1.28884e+09,-1.28876e+09,-487465,0.00867093,0.103808,0,0.104169,3360.96,-45871.5,0,45994.4,487465
step02_gravity_refstate-mantle.xmf,854,2.81449e-06,-3.72706e-06,0,-4.11745e-06,-1.33497e+09,-1.33585e+09,-1.33535e+09,-550297,0.00725304,0.117319,0,0.117543,1790.08,-47307.2,0,47341,550297
step02_gravity_refstate-mantle.xmf,855,-6.6263e-07,3.02898e-06,0,-1.88546e-07,-1.28069e+09,-1.28019e+09,-1.2806e+09,-25199.2,-7.85648e-05,0.0460886,-0,0.0460886,15598.9,-45624.3,0,48217.2,25199.2
step02_gravity_refstate-mantle.xmf,856,-8.55893e-07,3.18167e-06,0,-5.19639e-07,-1.28078e+09,-1.28024e+09,-1.28066e+09,-69449.8,0.00146267,0.0511927,0,0.0512136,13561.1,-45626.2,0,47598.9,69449.8
step02_gravity_refstate-mantle.xmf,857,-5.855e-07,2.11433e-06,0,-2.6795e-06,-1.2596e+09,-1.25924e+09,-1.25952e+09,-358115,0.00878357,0.0828284,0,0.0832928,6790.02,-44971,0,45480.7,358115
step02_gravity_refstate-mantle.xmf,858,5.60559e-07,2.4028e-06,0,3.58756e-07,-1.46817e+09,-1.46792e+09,-1.46824e+09,47947.7,-0.00866525,0.0208867,-0,0.0226128,25352.4,-51422.2,0,57332.2,47947.7
step02_gravity_refstate-mantle.xmf,859,4.44151e-07,2.47353e-06,0,3.92292e-07,-1.43987e+09,-1.4396e+09,-1.43993e+09,52429.8,-0.00846153,0.0234444,-0,0.0249246,23940.7,-50547.4,0,55930.3,52429.8
step02_gravity_refstate-mantle.xmf,860,7.89069e-07,2.35979e-06,0,2.74326e-07,-1.55351e+09,-1.5533e+09,-1.55361e+09,36663.7,-0.00984694,0.0143709,-0,0.0174208,26758.9,-54059.7,0,60319.9,36663.7
step02_gravity_refstate-mantle.xmf,861,9.1744e-07,2.37522e-06,0,1.54904e-07,-1.63534e+09,-1.63515e+09,-1.63547e+09,20702.9,-0.010008,0.0082988,-0,0.0130012,28055,-56588.5,0,63161.2,20702.9
step02_gravity_refstate-mantle.xmf,862,9.64904e-07,2.42621e-06,0,7.80224e-08,-1.69267e+09,-1.69248e+09,-1.6928e+09,10427.7,-0.0102263,0.00403982,-0,0.0109953,28315.7,-58359.8,0,64866.4,10427.7
step02_gravity_refstate-mantle.xmf,863,9.60125e-07,2.48988e-06,0,-2.277e-09,-1.74577e+09,-1.74556e+09,-1.74589e+09,-304.321,-0.00945556,-3.93135e-19,-0,0.00945556,29252.7,-60000,0,66751.2,304.321
step02_gravity_refstate-mantle.xmf,864,-8.60123e-07,6.51165e-06,0,3.74564e-07,-1.56829e+09,-1.56731e+09,-1.56818e+09,50060.5,0.0211953,0.0385907,0,0.0440282,-6890.46,-54516.1,-0,54949.8,50060.5
step02_gravity_refstate-mantle.xmf,865,-1.35507e-06,6.85978e-06,0,9.6434e-07,-1.5553e+09,-1.5542e+09,-1.55512e+09,128884,0.0181829,0.0460175,0,0.0494795,-6209.58,-54112.2,-0,54467.3,128884
step02_gravity_refstate-mantle.xmf,866,-1.83686e-06,7.04569e-06,0,1.74266e-06,-1.54141e+09,-1.54022e+09,-1.54116e+09,232907,0.0145701,0.0546808,0,0.0565887,-5558.4,-53680.4,-0,53967.4,232907
step02_gravity_refstate-mantle.xmf,867,4.36587e-07,5.71597e-06,0,-3.47934e-07,-1.62293e+09,-1.62223e+09,-1.62299e+09,-46501.4,0.029348,0.0220056,0,0.0366818,-8240.21,-56210.5,-0,56811.3,46501.4
step02_gravity_refstate-mantle.xmf,868,1.51939e-06,4.85846e-06,0,-1.31006e-07,-1.72508e+09,-1.72464e+09,-1.72529e+09,-17508.9,0.0350228,0.00307576,0,0.0351576,-9585.67,-59370.9,-0,60139.7,17508.9
step02_gravity_refstate-mantle.xmf,869,-2.23469e-06,7.01288e-06,0,2.70779e-06,-1.52749e+09,-1.52625e+09,-1.52719e+09,361896,0.010643,0.0642786,0,0.0651537,-4943.98,-53247.7,-0,53476.7,361896
step02_gravity_refstate-mantle.xmf,870,8.74709e-06,-1.49735e-05,0,1.02477e-07,-1.40535e+09,-1.40852e+09,-1.40652e+09,13696,-1.68494e-06,0.145831,-0,0.145831,0,-49492,0,49492,13696
step02_gravity_refstate-mantle.xmf,871,-2.47614e-06,6.76484e-06,0,3.85321e-06,-1.51615e+09,-1.51492e+09,-1.51582e+09,514981,0.00700393,0.0745281,0,0.0748565,-4334.65,-52895.2,-0,53072.6,514981
step02_gravity_refstate-mantle.xmf,872,1.4688e-06,-4.07399e-06,0,1.09701e-05,-1.44689e+09,-1.44763e+09,-1.44709e+09,1.46616e+06,-0.00831107,0.139329,-0,0.139577,-1414.06,-50754.3,-0,50774,1.46616e+06
step02_gravity_refstate-mantle.xmf,873,3.99126e-06,-9.53406e-06,0,1.21865e-05,-1.43855e+09,-1.44036e+09,-1.43909e+09,1.62873e+06,-0.00792058,0.148389,-0,0.1486,-1000,-50499.8,-0,50509.7,1.62873e+06
step02_gravity_refstate-mantle.xmf,874,8.0842e-06,-1.66764e-05,0,5.22939e-06,-1.42208e+09,-1.42539e+09,-1.42316e+09,698908,-0.00427202,0.151455,-0,0.151515,-500,-50000,-0,50002.5,698908
step02_gravity_refstate-mantle.xmf,875,8.80076e-06,-1.85805e-05,0,3.53946e-08,-1.42208e+09,-1.42574e+09,-1.42326e+09,4730.49,1.18589e-05,0.15432,0,0.15432,0,-50000,0,50000,4730.49
step02_gravity_refstate-mantle.xmf,876,-4.44672e-07,1.84511e-06,0,-2.94496e-06,-1.26685e+09,-1.26655e+09,-1.26679e+09,-393594,0.00902916,0.0863189,0,0.0867899,6133.14,-45195.3,0,45609.6,393594
step02_gravity_refstate-mantle.xmf,877,6.53198e-06,-1.00138e-05,0,-2.66711e-06,-1.37997e+09,-1.38218e+09,-1.38084e+09,-356459,0.00318772,0.134701,0,0.134739,471.142,-48705.8,0,48708.1,356459
step02_gravity_refstate-mantle.xmf,878,5.04958e-06,-7.71482e-06,0,-4.25892e-06,-1.37205e+09,-1.37376e+09,-1.37273e+09,-569205,0.00558677,0.129679,0,0.129799,942.386,-48457.3,0,48466.5,569205
step02_gravity_refstate-mantle.xmf,879,2.61905e-06,-3.8182e-06,0,-4.94943e-06,-1.35169e+09,-1.35255e+09,-1.35204e+09,-661491,0.00815388,0.118585,0,0.118865,1877.59,-47821.8,0,47858.7,661491
step02_gravity_refstate-mantle.xmf,880,3.66988e-06,-5.55179e-06,0,-4.88258e-06,-1.36268e+09,-1.36391e+09,-1.36317e+09,-652557,0.00719027,0.124074,0,0.124282,1413.87,-48163.9,0,48184.7,652557
step02_gravity_refstate-mantle.xmf,881,3.03887e-07,2.55881e-06,0,4.03606e-07,-1.41227e+09,-1.41197e+09,-1.41231e+09,53941.9,-0.00792207,0.0261788,-0,0.0273512,22590.7,-49694.2,0,54588.1,53941.9
step02_gravity_refstate-mantle.xmf,882,-7.51509e-07,3.18238e-06,0,-2.91025e-07,-1.29606e+09,-1.29553e+09,-1.29595e+09,-38895.5,-0.000189583,0.0471471,-0,0.0471474,14509.9,-46098.8,0,48328.4,38895.5
step02_gravity_refstate-mantle.xmf,883,1.48181e-07,2.65248e-06,0,3.87433e-07,-1.38661e+09,-1.38628e+09,-1.38663e+09,51780.5,-0.00710672,0.0290169,-0,0.0298745,21316.1,-48900.7,0,53344.7,51780.5
step02_gravity_refstate-mantle.xmf,884,-5.18997e-07,3.03642e-06,0,5.78491e-09,-1.30889e+09,-1.30842e+09,-1.30882e+09,773.153,-0.00219272,0.0416708,-0,0.0417284,16483.2,-46496.5,0,49331.8,773.153
step02_gravity_refstate-mantle.xmf,885,-1.39434e-08,2.74777e-06,0,3.42716e-07,-1.36345e+09,-1.36308e+09,-1.36344e+09,45804,-0.00608833,0.0319167,-0,0.0324922,20119.6,-48184.3,0,52216.1,45804
step02_gravity_refstate-mantle.xmf,886,-1.76453e-07,2.84504e-06,0,2.69805e-07,-1.3437e+09,-1.3433e+09,-1.34368e+09,36059.4,-0.00496735,0.0348539,-0,0.0352061,18939,-47573.6,0,51204.8,36059.4
step02_gravity_refstate-mantle.xmf,887,-3.3365e-07,2.93962e-06,0,1.70185e-07,-1.3273e+09,-1.32686e+09,-1.32725e+09,22745.2,-0.00378675,0.0378259,-0,0.0380149,17790.3,-47066,0,50316.1,22745.2
step02_gravity_refstate-mantle.xmf,888,-7.37515e-07,2.48609e-06,0,-1.92048e-06,-1.23067e+09,-1.23024e+09,-1.23057e+09,-256673,0.00812613,0.0742442,0,0.0746876,8801.02,-44077.3,0,44947.4,256673
step02_gravity_refstate-mantle.xmf,889,-8.71412e-07,2.54188e-06,0,-2.48229e-06,-1.27079e+09,-1.27034e+09,-1.27068e+09,-331757,0.00808529,0.0782029,0,0.0786198,7449.56,-45316,0,45924.2,331757
step02_gravity_refstate-mantle.xmf,890,-8.29395e-07,2.56781e-06,0,-2.18045e-06,-1.2536e+09,-1.25314e+09,-1.25349e+09,-291417,0.00794713,0.0756854,0,0.0761015,8156.9,-44785.2,0,45522,291417
step02_gravity_refstate-mantle.xmf,891,-9.29532e-07,2.86929e-06,0,-1.60909e-06,-1.24958e+09,-1.24907e+09,-1.24945e+09,-215054,0.00663189,0.0680623,0,0.0683847,9790.43,-44661.1,0,45721.6,215054
step02_gravity_refstate-mantle.xmf,892,-1.02359e-06,3.1184e-06,0,-1.28627e-06,-1.26611e+09,-1.26555e+09,-1.26597e+09,-171910,0.0049804,0.0624881,0,0.0626863,10727.7,-45171.7,0,46428.1,171910
step02_gravity_refstate-mantle.xmf,893,-9.68791e-07,3.3492e-06,0,-6.58577e-07,-1.2983e+09,-1.29773e+09,-1.29817e+09,-88018.8,0.00133365,0.0523862,0,0.0524032,12591.1,-46167.2,0,47853.4,88018.8
step02_gravity_refstate-mantle.xmf,894,-1.02985e-06,3.27127e-06,0,-9.64954e-07,-1.28199e+09,-1.28141e+09,-1.28185e+09,-128966,0.00320609,0.0572963,0,0.057386,11655.8,-45662.6,0,47126.7,128966
step02_gravity_refstate-mantle.xmf,895,7.16985e-07,2.40269e-06,0,3.38271e-07,-1.5226e+09,-1.52238e+09,-1.5227e+09,45209.9,-0.0102428,0.0168582,-0,0.019726,25284.6,-53104.7,0,58816.8,45209.9
step02_gravity_refstate-mantle.xmf,896,8.98761e-07,2.38144e-06,0,2.17923e-07,-1.60738e+09,-1.60718e+09,-1.6075e+09,29125.4,-0.010895,0.0104325,-0,0.0150844,26672.5,-55724.5,0,61779,29125.4
step02_gravity_refstate-mantle.xmf,897,4.26071e-10,6.20525e-06,0,-1.09007e-07,-1.60721e+09,-1.60638e+09,-1.60721e+09,-14568.8,0.0274723,0.0275467,0,0.0389043,-7531.27,-55723.1,-0,56229.7,14568.8
step02_gravity_refstate-mantle.xmf,898,-4.63902e-07,6.70839e-06,0,2.52397e-07,-1.59379e+09,-1.59283e+09,-1.59373e+09,33732.8,0.0253227,0.033562,0,0.0420434,-6856.59,-55306.8,-0,55730.2,33732.8
step02_gravity_refstate-mantle.xmf,899,7.30871e-07,5.93715e-06,0,-2.49215e-07,-1.65143e+09,-1.65074e+09,-1.65153e+09,-33307.6,0.0326042,0.0175361,0,0.037021,-8010.38,-57093.3,-0,57652.5,33307.6
step02_gravity_refstate-mantle.xmf,900,1.03333e-06,5.39823e-06,0,-3.47279e-07,-1.66485e+09,-1.66427e+09,-1.66499e+09,-46413.9,0.0332011,0.013607,0,0.0358813,-8700.83,-57508.5,-0,58163,46413.9
step02_gravity_refstate-mantle.xmf,901,1.23101e-06,5.34794e-06,0,-2.74338e-07,-1.68778e+09,-1.68723e+09,-1.68794e+09,-36665.3,0.0347003,0.00964145,0,0.0360148,-8784.03,-58217.8,-0,58876.8,36665.3
step02_gravity_refstate-mantle.xmf,902,1.37593e-06,5.43244e-06,0,-1.34285e-07,-1.71818e+09,-1.71764e+09,-1.71836e+09,-17947.2,0.0360939,0.00460501,0,0.0363865,-8731.16,-59158.2,-0,59799,17947.2
step02_gravity_refstate-mantle.xmf,903,1.4805e-06,5.19637e-06,0,3.08303e-09,-1.74543e+09,-1.74493e+09,-1.74563e+09,412.047,0.0359234,-7.32851e-20,0,0.0359234,-9118.31,-60000,-0,60688.9,412.047
step02_gravity_refstate-mantle.xmf,904,7.54487e-06,-1.27685e-05,0,-3.97968e-06,-1.39822e+09,-1.40094e+09,-1.39923e+09,-531884,0.00368859,0.141082,0,0.14113,464.672,-49269.3,0,49271.5,531884
step02_gravity_refstate-mantle.xmf,905,-2.51813e-06,6.24474e-06,0,5.21341e-06,-1.50696e+09,-1.50579e+09,-1.50662e+09,696773,0.00370977,0.085703,0,0.0857832,-3724.36,-52609.7,-0,52741.3,696773
step02_gravity_refstate-mantle.xmf,906,-2.31022e-06,5.31066e-06,0,6.67129e-06,-1.49775e+09,-1.49673e+09,-1.49744e+09,891618,0.000640709,0.0974073,0,0.0974094,-3162.57,-52324.2,-0,52419.7,891618
step02_gravity_refstate-mantle.xmf,907,-1.81083e-06,3.89994e-06,0,8.14559e-06,-1.48822e+09,-1.48745e+09,-1.48797e+09,1.08866e+06,-0.00208872,0.109293,-0,0.109313,-2649.86,-52029.4,-0,52096.8,1.08866e+06
step02_gravity_refstate-mantle.xmf,908,-1.04196e-06,2.09779e-06,0,9.53816e-06,-1.4792e+09,-1.47878e+09,-1.47906e+09,1.27478e+06,-0.00419786,0.120518,-0,0.120591,-2198.43,-51751.4,-0,51798.1,1.27478e+06
step02_gravity_refstate-mantle.xmf,909,1.82254e-08,-1.0722e-07,0,1.09149e-05,-1.47099e+09,-1.47101e+09,-1.47099e+09,1.45878e+06,-0.00563418,0.131236,-0,0.131357,-1785.58,-51499.2,-0,51530.2,1.45878e+06
step02_gravity_refstate-mantle.xmf,910,8.69226e-06,-1.60041e-05,0,-3.15256e-06,-1.41193e+09,-1.41523e+09,-1.4131e+09,-421339,0.00266047,0.148095,0,0.148119,301.5,-49692.3,0,49693.2,421339
step02_gravity_refstate-mantle.xmf,911,1.42512e-06,-2.86285e-06,0,1.22811e-05,-1.46288e+09,-1.46345e+09,-1.46307e+09,1.64137e+06,-0.00646335,0.141347,-0,0.141495,-1406.51,-51251,-0,51270.3,1.64137e+06
step02_gravity_refstate-mantle.xmf,912,-2.33371e-07,1.43735e-06,0,-3.24558e-06,-1.27672e+09,-1.2765e+09,-1.27669e+09,-433772,0.00923454,0.0905529,0,0.0910226,5385.15,-45500.7,0,45818.2,433772
step02_gravity_refstate-mantle.xmf,913,1.93473e-06,-2.56301e-06,0,-4.6906e-06,-1.3378e+09,-1.33841e+09,-1.33806e+09,-626898,0.00858498,0.113663,0,0.113986,2306.57,-47391.7,0,47447.8,626898
step02_gravity_refstate-mantle.xmf,914,1.37793e-06,-1.50141e-06,0,-4.40365e-06,-1.32326e+09,-1.32364e+09,-1.32344e+09,-588548,0.00888876,0.108941,0,0.109303,2787.98,-46941.3,0,47024,588548
step02_gravity_refstate-mantle.xmf,915,7.9608e-07,-4.85165e-07,0,-4.18049e-06,-1.31182e+09,-1.31199e+09,-1.31193e+09,-558722,0.00922435,0.104021,0,0.104429,3385.48,-46586.8,0,46709.7,558722
step02_gravity_refstate-mantle.xmf,916,6.68836e-09,9.53402e-07,0,-3.59169e-06,-1.28884e+09,-1.28872e+09,-1.28884e+09,-480030,0.0093524,0.0948044,0,0.0952645,4684.86,-45875.4,0,46114,480030
step02_gravity_refstate-mantle.xmf,917,3.40345e-07,3.29287e-07,0,-3.90213e-06,-1.3004e+09,-1.3004e+09,-1.30045e+09,-521520,0.00936645,0.0992506,0,0.0996916,4025.32,-46233,0,46407.9,521520
step02_gravity_refstate-mantle.xmf,918,-8.83465e-07,2.45477e-06,0,-2.79868e-06,-1.28544e+09,-1.28499e+09,-1.28532e+09,-374043,0.00833516,0.0810653,0,0.0814927,6780.98,-45768,0,46267.6,374043
step02_gravity_refstate-mantle.xmf,919,-6.36999e-07,3.15479e-06,0,-1.14622e-07,-1.31042e+09,-1.30992e+09,-1.31034e+09,-15319.3,-0.00162912,0.0437863,-0,0.0438166,15350,-46543.3,0,49009.2,15319.3
step02_gravity_refstate-mantle.xmf,920,-8.5825e-07,3.36078e-06,0,-3.88869e-07,-1.31401e+09,-1.31344e+09,-1.31389e+09,-51972.3,-0.000481989,0.0479475,-0,0.0479499,13521,-46653,0,48572.8,51972.3
step02_gravity_refstate-mantle.xmf,921,6.19687e-07,2.46872e-06,0,3.93209e-07,-1.49357e+09,-1.49332e+09,-1.49365e+09,52552.4,-0.0103478,0.0193708,-0,0.0219615,23852.6,-52207.3,0,57398.1,52552.4
step02_gravity_refstate-mantle.xmf,922,4.86847e-07,2.5549e-06,0,4.3125e-07,-1.46324e+09,-1.46296e+09,-1.46331e+09,57636.5,-0.0100079,0.0221912,-0,0.0243435,22501.6,-51269.8,0,55990.3,57636.5
step02_gravity_refstate-mantle.xmf,923,8.56654e-07,2.40905e-06,0,2.901e-07,-1.5768e+09,-1.5766e+09,-1.57692e+09,38771.9,-0.0116096,0.0128384,-0,0.0173092,25215.3,-54779.9,0,60304.6,38771.9
step02_gravity_refstate-mantle.xmf,924,9.79642e-07,2.41826e-06,0,1.41494e-07,-1.6612e+09,-1.66101e+09,-1.66133e+09,18910.7,-0.011634,0.00644364,-0,0.0132993,26626.7,-57387.7,0,63264,18910.7
step02_gravity_refstate-mantle.xmf,925,1.00534e-06,2.51082e-06,0,-1.10149e-09,-1.74575e+09,-1.74555e+09,-1.74589e+09,-147.214,-0.0112741,-2.8098e-19,-0,0.0112741,27403,-60000,0,65961.6,147.214
step02_gravity_refstate-mantle.xmf,926,-9.65052e-07,7.17807e-06,0,7.85239e-07,-1.58085e+09,-1.57976e+09,-1.58072e+09,104947,0.0226941,0.0406323,0,0.0465404,-6185.64,-54904.9,-0,55252.2,104947
step02_gravity_refstate-mantle.xmf,927,-1.51514e-06,7.60809e-06,0,1.60678e-06,-1.56876e+09,-1.56754e+09,-1.56856e+09,214746,0.0195644,0.0495727,0,0.0532937,-5439.56,-54528.9,-0,54799.6,214746
step02_gravity_refstate-mantle.xmf,928,-2.02588e-06,7.65945e-06,0,2.56636e-06,-1.55051e+09,-1.54921e+09,-1.55024e+09,342994,0.0150029,0.0598602,0,0.0617117,-4872.8,-53961.7,-0,54181.3,342994
step02_gravity_refstate-mantle.xmf,929,3.14259e-07,6.36444e-06,0,-1.09917e-07,-1.63197e+09,-1.63116e+09,-1.63201e+09,-14690.4,0.030741,0.0230754,0,0.038438,-7441.02,-56490.5,-0,56978.5,14690.4
step02_gravity_refstate-mantle.xmf,930,9.85167e-07,5.88516e-06,0,-2.27662e-07,-1.6768e+09,-1.67615e+09,-1.67694e+09,-30427,0.0347546,0.0127217,0,0.0370098,-8075.48,-57878.6,-0,58439.3,30427
step02_gravity_refstate-mantle.xmf,931,-2.37881e-06,7.61926e-06,0,3.72658e-06,-1.5381e+09,-1.53676e+09,-1.53778e+09,498057,0.0112441,0.0701476,0,0.071043,-4298.27,-53576,-0,53748.1,498057
step02_gravity_refstate-mantle.xmf,932,-2.5384e-06,7.29371e-06,0,5.16906e-06,-1.52807e+09,-1.52675e+09,-1.52773e+09,690845,0.00776647,0.081542,0,0.0819111,-3708.28,-53264.2,-0,53393.1,690845
step02_gravity_refstate-mantle.xmf,933,7.70284e-06,-1.41699e-05,0,-5.91235e-06,-1.40993e+09,-1.41285e+09,-1.41096e+09,-790185,0.0051274,0.144539,0,0.14463,611.829,-49628.4,0,49632.1,790185
step02_gravity_refstate-mantle.xmf,934,3.3821e-06,-6.73413e-06,0,1.4224e-05,-1.45464e+09,-1.45599e+09,-1.45509e+09,1.90104e+06,-0.00645659,0.152473,-0,0.152609,-1000,-50999.8,-0,51009.6,1.90104e+06
step02_gravity_refstate-mantle.xmf,935,8.25002e-06,-1.67985e-05,0,-5.36958e-06,-1.42206e+09,-1.4254e+09,-1.42316e+09,-717644,0.00427762,0.151444,0,0.151504,500,-50000,0,50002.5,717644
step02_gravity_refstate-mantle.xmf,936,-6.92132e-07,2.08667e-06,0,-3.13018e-06,-1.28915e+09,-1.28878e+09,-1.28906e+09,-418348,0.0088511,0.0855326,0,0.0859893,6044.79,-45883.1,0,46279.6,418348
step02_gravity_refstate-mantle.xmf,937,5.34188e-06,-8.89398e-06,0,-5.6055e-06,-1.3888e+09,-1.3907e+09,-1.38951e+09,-749174,0.00638893,0.13389,0,0.134043,951.144,-48973.4,0,48982.6,749174
step02_gravity_refstate-mantle.xmf,938,3.60408e-06,-6.09025e-06,0,-6.06014e-06,-1.38011e+09,-1.3814e+09,-1.38059e+09,-809938,0.00801548,0.127152,0,0.127404,1418.83,-48700.5,0,48721.2,809938
step02_gravity_refstate-mantle.xmf,939,1.48572e-06,-2.32995e-06,0,-5.51968e-06,-1.35749e+09,-1.358e+09,-1.35769e+09,-737705,0.00944001,0.114332,0,0.114721,2396.87,-47997.4,0,48057.2,737705
step02_gravity_refstate-mantle.xmf,940,2.35222e-06,-3.92313e-06,0,-5.90058e-06,-1.36943e+09,-1.37027e+09,-1.36975e+09,-788612,0.00895648,0.120458,0,0.12079,1903.21,-48367.9,0,48405.4,788612
step02_gravity_refstate-mantle.xmf,941,3.31373e-07,2.65462e-06,0,4.40221e-07,-1.43509e+09,-1.43478e+09,-1.43514e+09,58835.5,-0.00933165,0.0250788,-0,0.0267586,21255,-50399.6,0,54698.2,58835.5
step02_gravity_refstate-mantle.xmf,942,-7.14398e-07,3.31714e-06,0,-1.61011e-07,-1.32832e+09,-1.32778e+09,-1.32822e+09,-21519.1,-0.00214607,0.0439854,-0,0.0440377,14477.5,-47095.9,0,49270.9,21519.1
step02_gravity_refstate-mantle.xmf,943,1.67357e-07,2.765e-06,0,4.2367e-07,-1.41152e+09,-1.41117e+09,-1.41154e+09,56623.5,-0.0085069,0.0278787,-0,0.0291478,20050.5,-49670.6,0,53564.8,56623.5
step02_gravity_refstate-mantle.xmf,944,-5.55428e-07,3.23067e-06,0,1.97527e-08,-1.34028e+09,-1.33978e+09,-1.34021e+09,2639.94,-0.00355147,0.0405554,-0,0.0407106,15485.8,-47466.4,0,49928.6,2639.94
step02_gravity_refstate-mantle.xmf,945,-7.11403e-09,2.87916e-06,0,3.758e-07,-1.3899e+09,-1.38951e+09,-1.38989e+09,50225.7,-0.00746109,0.0308002,-0,0.031691,18908.3,-49001.7,0,52523.2,50225.7
step02_gravity_refstate-mantle.xmf,946,-1.87483e-07,2.99912e-06,0,2.95399e-07,-1.37124e+09,-1.37082e+09,-1.37122e+09,39480.1,-0.00629156,0.0338366,-0,0.0344165,17757.6,-48424.7,0,51577.9,39480.1
step02_gravity_refstate-mantle.xmf,947,-3.73734e-07,3.11698e-06,0,1.76055e-07,-1.35412e+09,-1.35365e+09,-1.35407e+09,23529.7,-0.00494414,0.0371271,-0,0.0374549,16621.9,-47894.7,0,50697,23529.7
step02_gravity_refstate-mantle.xmf,948,-1.03224e-06,2.92929e-06,0,-1.8882e-06,-1.26741e+09,-1.26688e+09,-1.26727e+09,-252358,0.00673209,0.070288,0,0.0706097,8982.25,-45211.4,0,46095,252358
step02_gravity_refstate-mantle.xmf,949,-1.18986e-06,2.94978e-06,0,-2.52298e-06,-1.3e+09,-1.29945e+09,-1.29984e+09,-337197,0.00726153,0.0757175,0,0.0760649,7451.68,-46217.2,0,46814,337197
step02_gravity_refstate-mantle.xmf,950,-1.11982e-06,2.96932e-06,0,-2.18689e-06,-1.28484e+09,-1.28429e+09,-1.28469e+09,-292278,0.00691952,0.0727598,0,0.0730881,8204.84,-45749.2,0,46479.2,292278
step02_gravity_refstate-mantle.xmf,951,-1.1321e-06,3.22933e-06,0,-1.52567e-06,-1.28339e+09,-1.2828e+09,-1.28323e+09,-203906,0.00508961,0.0645204,0,0.0647208,9869.59,-45705,0,46758.5,203906
step02_gravity_refstate-mantle.xmf,952,-9.8419e-07,3.55544e-06,0,-4.97044e-07,-1.33156e+09,-1.33095e+09,-1.33143e+09,-66429.9,-0.000744915,0.048887,-0,0.0488927,12576,-47194.9,0,48841.7,66429.9
step02_gravity_refstate-mantle.xmf,953,-1.15754e-06,3.4267e-06,0,-1.16019e-06,-1.29952e+09,-1.29891e+09,-1.29936e+09,-155060,0.00321692,0.058944,0,0.0590318,10768.3,-46203.7,0,47441.9,155060
step02_gravity_refstate-mantle.xmf,954,-1.10186e-06,3.53005e-06,0,-8.12437e-07,-1.31557e+09,-1.31495e+09,-1.31542e+09,-108582,0.0012447,0.0537302,0,0.0537446,11666.2,-46700.1,0,48135.3,108582
step02_gravity_refstate-mantle.xmf,955,7.88579e-07,2.46261e-06,0,3.61349e-07,-1.54761e+09,-1.54739e+09,-1.54772e+09,48294.2,-0.012066,0.0152695,-0,0.0194614,23779.6,-53877.8,0,58892.2,48294.2
step02_gravity_refstate-mantle.xmf,956,9.68839e-07,2.42916e-06,0,2.17501e-07,-1.63056e+09,-1.63036e+09,-1.63069e+09,29069,-0.0126923,0.00882679,-0,0.0154598,25140.6,-56441.2,0,61787.2,29069
step02_gravity_refstate-mantle.xmf,957,1.02071e-06,2.46845e-06,0,6.62892e-08,-1.70826e+09,-1.70806e+09,-1.70839e+09,8859.55,-0.0120267,0.002891,-0,0.0123693,26578.9,-58841.7,0,64566.1,8859.55
step02_gravity_refstate-mantle.xmf,958,-1.30199e-07,6.8941e-06,0,1.96205e-07,-1.61765e+09,-1.61671e+09,-1.61763e+09,26222.7,0.0288966,0.0288281,0,0.0408175,-6799.25,-56046.4,-0,56457.3,26222.7
step02_gravity_refstate-mantle.xmf,959,-6.06961e-07,7.46267e-06,0,6.54056e-07,-1.60527e+09,-1.60419e+09,-1.60519e+09,87414.6,0.0267809,0.0352274,0,0.0442514,-6165,-55662.4,-0,56002.8,87414.6
step02_gravity_refstate-mantle.xmf,960,4.5403e-07,6.66375e-06,0,-2.36129e-08,-1.65092e+09,-1.65009e+09,-1.65098e+09,-3155.87,0.033013,0.020021,0,0.0386096,-7225.69,-57077.6,-0,57533.2,3155.87
step02_gravity_refstate-mantle.xmf,961,1.09408e-07,7.13387e-06,0,1.95173e-07,-1.63974e+09,-1.6388e+09,-1.63975e+09,26084.8,0.0318555,0.0244481,0,0.0401557,-6706.56,-56731,-0,57126,26084.8
step02_gravity_refstate-mantle.xmf,962,1.11751e-06,6.0149e-06,0,-1.53251e-07,-1.70076e+09,-1.70011e+09,-1.70091e+09,-20482,0.0362986,0.00837453,0,0.0372521,-8024.78,-58620,-0,59166.7,20482
step02_gravity_refstate-mantle.xmf,963,1.29827e-06,5.89852e-06,0,1.19823e-09,-1.74541e+09,-1.7448e+09,-1.74558e+09,160.143,0.0371603,-7.62309e-20,0,0.0371603,-8227.38,-60000,-0,60561.5,160.143
step02_gravity_refstate-mantle.xmf,964,-2.46039e-06,6.5794e-06,0,6.72984e-06,-1.51797e+09,-1.51676e+09,-1.51764e+09,899444,0.00442588,0.0935233,0,0.093628,-3170.71,-52951,-0,53045.8,899444
step02_gravity_refstate-mantle.xmf,965,-2.07941e-06,5.36886e-06,0,8.48013e-06,-1.50773e+09,-1.50673e+09,-1.50745e+09,1.13337e+06,0.00130207,0.106648,0,0.106656,-2642.91,-52634,-0,52700.3,1.13337e+06
step02_gravity_refstate-mantle.xmf,966,-1.3681e-06,3.62389e-06,0,1.01352e-05,-1.49699e+09,-1.49632e+09,-1.49681e+09,1.35458e+06,-0.00135329,0.119232,-0,0.11924,-2186.51,-52302.7,-0,52348.4,1.35458e+06
step02_gravity_refstate-mantle.xmf,967,-3.88163e-07,1.60161e-06,0,1.174e-05,-1.48741e+09,-1.48714e+09,-1.48735e+09,1.56906e+06,-0.00323155,0.130948,-0,0.130988,-1782.26,-52008,-0,52038.5,1.56906e+06
step02_gravity_refstate-mantle.xmf,968,8.44325e-07,-7.44431e-07,0,1.33746e-05,-1.47904e+09,-1.47926e+09,-1.47916e+09,1.78751e+06,-0.00435353,0.141998,-0,0.142065,-1414.79,-51751.9,-0,51771.3,1.78751e+06
step02_gravity_refstate-mantle.xmf,969,5.16697e-06,-9.52315e-06,0,-7.42503e-06,-1.40503e+09,-1.40699e+09,-1.40572e+09,-992356,0.00732667,0.138185,0,0.138379,983.677,-49472.1,0,49481.9,992356
step02_gravity_refstate-mantle.xmf,970,2.45865e-06,-3.86158e-06,0,1.57041e-05,-1.47081e+09,-1.47165e+09,-1.47114e+09,2.09886e+06,-0.00468927,0.155132,-0,0.155203,-1000,-51500.3,-0,51510,2.09886e+06
step02_gravity_refstate-mantle.xmf,971,4.7795e-06,-1.13813e-05,0,-1.05765e-05,-1.42236e+09,-1.42452e+09,-1.423e+09,-1.41355e+06,0.00798302,0.143175,0,0.143397,1000,-50000,0,50010,1.41355e+06
step02_gravity_refstate-mantle.xmf,972,-5.38101e-07,1.71781e-06,0,-3.4936e-06,-1.30068e+09,-1.30038e+09,-1.30061e+09,-466920,0.00919346,0.0897306,0,0.0902003,5334.85,-46239.3,0,46546,466920
step02_gravity_refstate-mantle.xmf,973,9.10745e-07,-1.21203e-06,0,-5.1085e-06,-1.34538e+09,-1.34567e+09,-1.3455e+09,-682751,0.00963264,0.109144,0,0.109568,2872.4,-47622.4,0,47708.9,682751
step02_gravity_refstate-mantle.xmf,974,4.12227e-07,-2.43961e-07,0,-4.71122e-06,-1.33388e+09,-1.33396e+09,-1.33393e+09,-629655,0.00971487,0.104061,0,0.104513,3410.76,-47266.1,0,47389,629655
step02_gravity_refstate-mantle.xmf,975,-3.00918e-08,6.04656e-07,0,-4.31909e-06,-1.32335e+09,-1.32326e+09,-1.32334e+09,-577246,0.00967005,0.0989259,0,0.0993974,4024.84,-46940,0,47112.2,577246
step02_gravity_refstate-mantle.xmf,976,-3.5775e-07,1.25965e-06,0,-3.92092e-06,-1.31305e+09,-1.31283e+09,-1.313e+09,-524031,0.00947708,0.0940781,0,0.0945542,4671.48,-46621.4,0,46854.9,524031
step02_gravity_refstate-mantle.xmf,977,-1.17861e-06,2.81235e-06,0,-2.92153e-06,-1.3131e+09,-1.31257e+09,-1.31294e+09,-390463,0.00783088,0.079766,0,0.0801495,6635.53,-46621.6,0,47091.4,390463
step02_gravity_refstate-mantle.xmf,978,-8.21286e-07,3.51499e-06,0,-2.23859e-07,-1.34705e+09,-1.34647e+09,-1.34694e+09,-29918.7,-0.0026558,0.0444397,-0,0.044519,13519.8,-47674.3,0,49554.3,29918.7
step02_gravity_refstate-mantle.xmf,979,5.09618e-07,2.64718e-06,0,4.64811e-07,-1.47999e+09,-1.47971e+09,-1.48006e+09,62122,-0.0113798,0.0214552,-0,0.0242863,21150.6,-51787.6,0,55940.2,62122
step02_gravity_refstate-mantle.xmf,980,6.89222e-07,2.55035e-06,0,4.28626e-07,-1.51865e+09,-1.5184e+09,-1.51874e+09,57285.8,-0.0122861,0.0179196,-0,0.021727,22219.7,-52982.8,0,57453.4,57285.8
step02_gravity_refstate-mantle.xmf,981,9.34365e-07,2.46416e-06,0,2.96176e-07,-1.60126e+09,-1.60105e+09,-1.60138e+09,39584,-0.0134767,0.0111919,-0,0.017518,23736.8,-55535.9,0,60396,39584
step02_gravity_refstate-mantle.xmf,982,1.0552e-06,2.48168e-06,0,1.10009e-07,-1.6931e+09,-1.69291e+09,-1.69324e+09,14702.7,-0.0136215,0.00409294,-0,0.0142231,24954.9,-58373.7,0,63484.1,14702.7
step02_gravity_refstate-mantle.xmf,983,1.05745e-06,2.53735e-06,0,-3.03473e-09,-1.74574e+09,-1.74554e+09,-1.74588e+09,-405.592,-0.013089,-3.97902e-19,-0,0.013089,25642.2,-60000,0,65249.7,405.592
step02_gravity_refstate-mantle.xmf,984,-2.29448e-06,8.43393e-06,0,3.65249e-06,-1.55861e+09,-1.55718e+09,-1.55831e+09,488155,0.0152302,0.0660271,0,0.0677608,-4227.88,-54212.4,-0,54377,488155
step02_gravity_refstate-mantle.xmf,985,-1.11538e-06,8.00309e-06,0,1.29177e-06,-1.59395e+09,-1.59273e+09,-1.5938e+09,172645,0.0243255,0.042558,0,0.0490195,-5539.93,-55310.7,-0,55587.4,172645
step02_gravity_refstate-mantle.xmf,986,-1.91114e-06,8.42753e-06,0,2.63998e-06,-1.57214e+09,-1.57076e+09,-1.57189e+09,352833,0.0189122,0.056657,0,0.0597301,-4682.89,-54632.7,-0,54833.1,352833
step02_gravity_refstate-mantle.xmf,987,6.87682e-07,6.65803e-06,0,-4.603e-08,-1.67179e+09,-1.67099e+09,-1.67188e+09,-6151.91,0.0349858,0.0154376,0,0.0382403,-7317.64,-57723.8,-0,58185.8,6151.91
step02_gravity_refstate-mantle.xmf,988,2.90323e-07,7.3744e-06,0,2.01445e-07,-1.6604e+09,-1.65946e+09,-1.66044e+09,26923.1,0.034231,0.020038,0,0.0396646,-6647.12,-57371.2,-0,57755,26923.1
step02_gravity_refstate-mantle.xmf,989,1.10932e-06,6.36678e-06,0,-5.27083e-08,-1.72388e+09,-1.72318e+09,-1.72403e+09,-7044.47,0.0375044,0.00425589,0,0.0377451,-7720.61,-59335,-0,59835.2,7044.47
step02_gravity_refstate-mantle.xmf,990,8.43961e-07,6.77887e-06,0,-2.58351e-08,-1.69682e+09,-1.69603e+09,-1.69694e+09,-3452.86,0.0368105,0.0103045,0,0.0382256,-7285.18,-58498.3,-0,58950.2,3452.86
step02_gravity_refstate-mantle.xmf,991,-2.59399e-06,8.34163e-06,0,4.98014e-06,-1.54788e+09,-1.54641e+09,-1.54753e+09,665596,0.0117669,0.0766874,0,0.0775849,-3711.6,-53878.4,-0,54006.1,665596
step02_gravity_refstate-mantle.xmf,992,-2.67934e-06,7.9452e-06,0,6.68458e-06,-1.53796e+09,-1.53654e+09,-1.5376e+09,893394,0.00832942,0.0889975,0,0.0893864,-3172.08,-53570.5,-0,53664.3,893394
step02_gravity_refstate-mantle.xmf,993,-9.5283e-07,2.34733e-06,0,-3.30912e-06,-1.312e+09,-1.31156e+09,-1.31187e+09,-442264,0.008646,0.0849615,0,0.0854003,5901.04,-46587.9,0,46960.1,442264
step02_gravity_refstate-mantle.xmf,994,3.2343e-06,-6.31283e-06,0,-7.43643e-06,-1.39706e+09,-1.39833e+09,-1.39749e+09,-993879,0.00884542,0.130196,0,0.130496,1434.64,-49221.1,0,49242,993879
step02_gravity_refstate-mantle.xmf,995,1.89629e-06,-3.87609e-06,0,-6.96766e-06,-1.3876e+09,-1.38838e+09,-1.38786e+09,-931228,0.00966644,0.122631,0,0.123011,1903.83,-48926.4,0,48963.4,931228
step02_gravity_refstate-mantle.xmf,996,3.76337e-07,-8.33963e-07,0,-5.76304e-06,-1.36608e+09,-1.36625e+09,-1.36613e+09,-770230,0.0101443,0.109517,0,0.109986,2900.2,-48259.2,0,48346.3,770230
step02_gravity_refstate-mantle.xmf,997,9.79184e-07,-2.09005e-06,0,-6.36187e-06,-1.37716e+09,-1.37757e+09,-1.3773e+09,-850264,0.0100567,0.115625,0,0.116061,2401.22,-48602.3,0,48661.6,850264
step02_gravity_refstate-mantle.xmf,998,3.56515e-07,2.76065e-06,0,4.76952e-07,-1.45644e+09,-1.45612e+09,-1.45649e+09,63744.6,-0.0107867,0.0240868,-0,0.0263918,19987.9,-51059.5,0,54832.4,63744.6
step02_gravity_refstate-mantle.xmf,999,-6.36033e-07,3.43009e-06,0,-2.77139e-09,-1.36209e+09,-1.36154e+09,-1.362e+09,-370.396,-0.00439951,0.0404616,-0,0.0407,14478.4,-48139.9,0,50270,370.396
step02_gravity_refstate-mantle.xmf,1000,1.83494e-07,2.88998e-06,0,4.60691e-07,-1.43493e+09,-1.43457e+09,-1.43495e+09,61571.4,-0.00996691,0.0268524,-0,0.0286425,18836.2,-50394.1,0,53799.3,61571.4
step02_gravity_refstate-mantle.xmf,1001,-4.31201e-07,3.30837e-06,0,1.77265e-07,-1.37741e+09,-1.37691e+09,-1.37735e+09,23691.4,-0.00601001,0.0367306,-0,0.0372191,15522.8,-48614.4,0,51032.5,23691.4
step02_gravity_refstate-mantle.xmf,1002,-1.03371e-08,3.02812e-06,0,4.08483e-07,-1.41419e+09,-1.41378e+09,-1.41418e+09,54593.7,-0.00885953,0.0298842,-0,0.0311698,17717.8,-49752.4,0,52813.1,54593.7
step02_gravity_refstate-mantle.xmf,1003,-2.18347e-07,3.16953e-06,0,3.14813e-07,-1.39472e+09,-1.39427e+09,-1.3947e+09,42074.8,-0.00751341,0.033189,-0,0.0340288,16616.5,-49150.2,0,51883.1,42074.8
step02_gravity_refstate-mantle.xmf,1004,-1.50405e-06,3.40464e-06,0,-2.46272e-06,-1.32884e+09,-1.32818e+09,-1.32864e+09,-329143,0.00612943,0.0727349,0,0.0729927,7476.69,-47107,0,47696.6,329143
step02_gravity_refstate-mantle.xmf,1005,-1.27647e-06,3.32965e-06,0,-1.80281e-06,-1.30021e+09,-1.2996e+09,-1.30004e+09,-240946,0.00528484,0.0667958,0,0.0670046,9046.4,-46224,0,47101,240946
step02_gravity_refstate-mantle.xmf,1006,-1.3999e-06,3.39383e-06,0,-2.1173e-06,-1.31549e+09,-1.31485e+09,-1.3153e+09,-282977,0.00565146,0.0695987,0,0.0698277,8232.06,-46695.3,0,47415.4,282977
step02_gravity_refstate-mantle.xmf,1007,-1.3033e-06,3.5845e-06,0,-1.37819e-06,-1.31659e+09,-1.31593e+09,-1.31641e+09,-184195,0.00330749,0.0608213,0,0.0609112,9914.49,-46730.3,0,47770.5,184195
step02_gravity_refstate-mantle.xmf,1008,-9.50217e-07,3.7326e-06,0,-2.99486e-07,-1.36484e+09,-1.36422e+09,-1.36472e+09,-40026.3,-0.00309818,0.0451367,-0,0.0452429,12576.5,-48223.7,0,49836.7,40026.3
step02_gravity_refstate-mantle.xmf,1009,-1.12917e-06,3.76585e-06,0,-6.16241e-07,-1.34878e+09,-1.34813e+09,-1.34863e+09,-82360.6,-0.000974324,0.049974,-0,0.0499835,11669.5,-47726.5,0,49132.5,82360.6
step02_gravity_refstate-mantle.xmf,1010,-1.25403e-06,3.72155e-06,0,-9.81664e-07,-1.33254e+09,-1.33187e+09,-1.33237e+09,-131199,0.00120404,0.0552361,0,0.0552492,10783.6,-47223.7,0,48439.3,131199
step02_gravity_refstate-mantle.xmf,1011,8.71257e-07,2.52676e-06,0,3.75178e-07,-1.57298e+09,-1.57276e+09,-1.5731e+09,50142.6,-0.0139881,0.0136152,-0,0.0195203,22361,-54662.1,0,59059,50142.6
step02_gravity_refstate-mantle.xmf,1012,1.04719e-06,2.48736e-06,0,2.05223e-07,-1.65436e+09,-1.65416e+09,-1.6545e+09,27428,-0.0146227,0.00714398,-0,0.0162745,23593.3,-57177,0,61853.4,27428
step02_gravity_refstate-mantle.xmf,1013,-1.54961e-06,8.48213e-06,0,1.99085e-06,-1.5869e+09,-1.58556e+09,-1.58669e+09,266077,0.0223262,0.0492496,0,0.0540738,-5006.77,-55091.2,-0,55318.2,266077
step02_gravity_refstate-mantle.xmf,1014,-3.35975e-07,7.7389e-06,0,5.86574e-07,-1.62791e+09,-1.62683e+09,-1.62787e+09,78395.6,0.0302015,0.0302331,0,0.0427337,-6107.99,-56364.2,-0,56694.2,78395.6
step02_gravity_refstate-mantle.xmf,1015,-8.37845e-07,8.40611e-06,0,1.15718e-06,-1.61657e+09,-1.61534e+09,-1.61646e+09,154657,0.0281233,0.037057,0,0.0465203,-5507.44,-56012.4,-0,56282.5,154657
step02_gravity_refstate-mantle.xmf,1016,-1.43476e-07,8.04092e-06,0,5.42255e-07,-1.64958e+09,-1.64849e+09,-1.64956e+09,72472.4,0.0330536,0.0252302,0,0.0415825,-6049.3,-57035.7,-0,57355.6,72472.4
step02_gravity_refstate-mantle.xmf,1017,1.00043e-06,6.79055e-06,0,5.22288e-11,-1.7454e+09,-1.74463e+09,-1.74553e+09,6.98038,0.038135,-8.26906e-20,0,0.038135,-7377.92,-60000,-0,60451.9,6.98038
step02_gravity_refstate-mantle.xmf,1018,-2.6193e-06,9.34854e-06,0,4.78725e-06,-1.56686e+09,-1.56526e+09,-1.56651e+09,639817,0.0155958,0.0717118,0,0.0733881,-3697.61,-54467.1,-0,54592.5,639817
step02_gravity_refstate-mantle.xmf,1019,-2.48846e-06,7.09185e-06,0,8.64457e-06,-1.5278e+09,-1.52652e+09,-1.52747e+09,1.15535e+06,0.00498728,0.102682,0,0.102803,-2646.88,-53255.9,-0,53321.6,1.15535e+06
step02_gravity_refstate-mantle.xmf,1020,-1.92009e-06,5.47684e-06,0,1.10726e-05,-1.51674e+09,-1.51575e+09,-1.51648e+09,1.47985e+06,0.00174802,0.119368,0,0.11938,-2076.94,-52913.7,-0,52954.4,1.47985e+06
step02_gravity_refstate-mantle.xmf,1021,-9.58882e-07,3.34225e-06,0,1.24071e-05,-1.50266e+09,-1.50208e+09,-1.50253e+09,1.6582e+06,-0.000938121,0.130168,-0,0.130171,-1768.68,-52479.8,-0,52509.6,1.6582e+06
step02_gravity_refstate-mantle.xmf,1022,2.06875e-08,1.55737e-06,0,1.4304e-05,-1.49547e+09,-1.49526e+09,-1.49547e+09,1.91173e+06,-0.00214499,0.142093,-0,0.142109,-1405.37,-52259.6,-0,52278.5,1.91173e+06
step02_gravity_refstate-mantle.xmf,1023,1.31401e-06,-9.47936e-07,0,1.67171e-05,-1.48701e+09,-1.48731e+09,-1.48718e+09,2.23425e+06,-0.00290919,0.156335,-0,0.156362,-1000,-52000.6,-0,52010.2,2.23425e+06
step02_gravity_refstate-mantle.xmf,1024,2.6146e-06,-5.88168e-06,0,-8.85629e-06,-1.41374e+09,-1.41488e+09,-1.41409e+09,-1.18364e+06,0.00943111,0.133276,0,0.13361,1443.1,-49733.5,0,49754.4,1.18364e+06
step02_gravity_refstate-mantle.xmf,1025,-9.05498e-07,2.1077e-06,0,-3.68054e-06,-1.32389e+09,-1.32348e+09,-1.32377e+09,-491904,0.00900751,0.0884103,0,0.088868,5328.63,-46954.7,0,47256.1,491904
step02_gravity_refstate-mantle.xmf,1026,-7.42201e-08,1.32759e-07,0,-5.21973e-06,-1.3553e+09,-1.35527e+09,-1.35529e+09,-697617,0.0100627,0.104004,0,0.10449,3420.82,-47925.6,0,48047.5,697617
step02_gravity_refstate-mantle.xmf,1027,-4.31433e-07,9.11897e-07,0,-4.71788e-06,-1.34468e+09,-1.3445e+09,-1.34462e+09,-630545,0.00984652,0.0987906,0,0.0992801,3983.36,-47597,0,47763.4,630545
step02_gravity_refstate-mantle.xmf,1028,-7.8874e-07,1.67204e-06,0,-4.19776e-06,-1.33623e+09,-1.3359e+09,-1.33613e+09,-561031,0.0094446,0.0930228,0,0.093501,4672.62,-47335.7,0,47565.8,561031
step02_gravity_refstate-mantle.xmf,1029,-1.31635e-06,2.82603e-06,0,-3.29974e-06,-1.33335e+09,-1.3328e+09,-1.33317e+09,-441011,0.00802826,0.0823299,0,0.0827204,6027.74,-47246.1,0,47629.1,441011
step02_gravity_refstate-mantle.xmf,1030,-7.37922e-07,3.64324e-06,0,-3.71519e-08,-1.38103e+09,-1.38044e+09,-1.38093e+09,-4965.35,-0.00510716,0.0407091,-0,0.0410282,13508.5,-48724.9,0,50562.8,4965.35
step02_gravity_refstate-mantle.xmf,1031,-1.58435e-06,3.3985e-06,0,-2.82119e-06,-1.34293e+09,-1.34226e+09,-1.34271e+09,-377053,0.00660079,0.0760133,0,0.0762993,6765.76,-47541.6,0,48020.6,377053
step02_gravity_refstate-mantle.xmf,1032,5.41769e-07,2.74696e-06,0,5.00744e-07,-1.49842e+09,-1.49812e+09,-1.49849e+09,66924.4,-0.0128906,0.0205755,-0,0.0242799,19885.5,-52357.3,0,56006.4,66924.4
step02_gravity_refstate-mantle.xmf,1033,6.54092e-07,2.65072e-06,0,4.70188e-07,-1.51706e+09,-1.51679e+09,-1.51715e+09,62840.7,-0.0131379,0.0185511,-0,0.0227321,20861.5,-52933.6,0,56896.1,62840.7
step02_gravity_refstate-mantle.xmf,1034,8.16453e-07,2.61117e-06,0,4.35363e-07,-1.55576e+09,-1.55552e+09,-1.55587e+09,58186.2,-0.014537,0.0153378,-0,0.0211323,21034.3,-54130,0,58073.2,58186.2
step02_gravity_refstate-mantle.xmf,1035,1.02215e-06,2.52619e-06,0,2.89394e-07,-1.62575e+09,-1.62555e+09,-1.62589e+09,38677.5,-0.0154197,0.00950232,-0,0.0181124,22312.8,-56293.2,0,60554,38677.5
step02_gravity_refstate-mantle.xmf,1036,1.12377e-06,2.54133e-06,0,1.06814e-07,-1.70264e+09,-1.70245e+09,-1.70279e+09,14275.7,-0.0156923,0.00342095,-0,0.0160608,23122.9,-58669,0,63061.2,14275.7
step02_gravity_refstate-mantle.xmf,1037,1.11201e-06,2.57401e-06,0,-2.24212e-09,-1.74573e+09,-1.74553e+09,-1.74587e+09,-299.659,-0.0149083,-3.31985e-19,-0,0.0149083,23965.9,-60000,0,64609.3,299.659
step02_gravity_refstate-mantle.xmf,1038,-2.26325e-06,9.18332e-06,0,3.60289e-06,-1.57527e+09,-1.57374e+09,-1.57497e+09,481526,0.0184235,0.0624896,0,0.0651488,-4154.27,-54729,-0,54886.4,481526
step02_gravity_refstate-mantle.xmf,1039,-1.38367e-06,9.02376e-06,0,1.92033e-06,-1.60539e+09,-1.604e+09,-1.60521e+09,256653,0.0255798,0.0450494,0,0.0518052,-4922.86,-55665,-0,55882.2,256653
step02_gravity_refstate-mantle.xmf,1040,-1.94985e-06,9.48547e-06,0,2.90739e-06,-1.59247e+09,-1.59094e+09,-1.59221e+09,388573,0.0222794,0.0546152,0,0.0589846,-4378.83,-55263.2,-0,55436.4,388573
step02_gravity_refstate-mantle.xmf,1041,4.34959e-07,7.57403e-06,0,1.81272e-07,-1.68286e+09,-1.68191e+09,-1.68292e+09,24227,0.0362869,0.0149579,0,0.0392489,-6612.18,-58066.4,-0,58441.7,24227
step02_gravity_refstate-mantle.xmf,1042,-1.98004e-08,8.39648e-06,0,5.06188e-07,-1.67132e+09,-1.67019e+09,-1.67131e+09,67652,0.0354062,0.0199455,0,0.0406377,-5992.34,-57708.8,-0,58019.1,67652
step02_gravity_refstate-mantle.xmf,1043,7.83345e-07,7.25604e-06,0,2.19674e-08,-1.72392e+09,-1.72305e+09,-1.72402e+09,2935.94,0.0382075,0.00484368,0,0.0385133,-6977.14,-59336.2,-0,59745,2935.94
step02_gravity_refstate-mantle.xmf,1044,-2.94291e-06,9.3075e-06,0,6.45141e-06,-1.55741e+09,-1.55578e+09,-1.55702e+09,862231,0.012217,0.0837146,0,0.0846014,-3176.29,-54173.1,-0,54266.2,862231
step02_gravity_refstate-mantle.xmf,1045,-3.00279e-06,8.92122e-06,0,8.56637e-06,-1.54793e+09,-1.54634e+09,-1.54753e+09,1.14489e+06,0.00878067,0.0975817,0,0.097976,-2651.89,-53878.8,-0,53944,1.14489e+06
step02_gravity_refstate-mantle.xmf,1046,1.5482e-06,-5.26797e-06,0,-1.01177e-05,-1.43069e+09,-1.4316e+09,-1.4309e+09,-1.35223e+06,0.00944786,0.136401,0,0.136728,1435.35,-50251.4,0,50271.9,1.35223e+06
step02_gravity_refstate-mantle.xmf,1047,3.99208e-06,-9.5398e-06,0,-1.21935e-05,-1.43855e+09,-1.44036e+09,-1.43909e+09,-1.62966e+06,0.00792,0.148388,0,0.148599,1000,-50499.8,0,50509.7,1.62966e+06
step02_gravity_refstate-mantle.xmf,1048,1.2066e-06,-3.51452e-06,0,-8.01097e-06,-1.405e+09,-1.40563e+09,-1.40516e+09,-1.07067e+06,0.0101322,0.124636,0,0.125047,1901.64,-49460,0,49496.6,1.07067e+06
step02_gravity_refstate-mantle.xmf,1049,-6.29517e-07,6.38114e-07,0,-5.65209e-06,-1.37604e+09,-1.37587e+09,-1.37596e+09,-755402,0.0101693,0.103816,0,0.104312,3415.49,-48563.9,0,48683.9,755402
step02_gravity_refstate-mantle.xmf,1050,3.3772e-07,-1.65378e-06,0,-7.13622e-06,-1.39598e+09,-1.39624e+09,-1.39602e+09,-953755,0.010407,0.116881,0,0.117343,2387.86,-49180.3,0,49238.2,953755
step02_gravity_refstate-mantle.xmf,1051,-2.39927e-07,-3.24973e-07,0,-6.34546e-06,-1.38612e+09,-1.38613e+09,-1.38609e+09,-848071,0.0103842,0.109931,0,0.11042,2895.6,-48875.3,0,48961,848071
step02_gravity_refstate-mantle.xmf,1052,3.85812e-07,2.8771e-06,0,5.15211e-07,-1.47757e+09,-1.47723e+09,-1.47762e+09,68858,-0.0123432,0.0230979,-0,0.0261891,18778.1,-51712.5,0,55016.4,68858
step02_gravity_refstate-mantle.xmf,1053,-5.07245e-07,3.51315e-06,0,1.70843e-07,-1.39743e+09,-1.3969e+09,-1.39737e+09,22833.2,-0.00694911,0.0366536,-0,0.0373065,14484.6,-49232.9,0,51319.4,22833.2
step02_gravity_refstate-mantle.xmf,1054,1.94109e-07,3.0295e-06,0,4.98326e-07,-1.45647e+09,-1.45609e+09,-1.45649e+09,66601.2,-0.0114514,0.0259851,-0,0.0283965,17660.9,-51059.8,0,54027.9,66601.2
step02_gravity_refstate-mantle.xmf,1055,-2.64659e-07,3.3587e-06,0,3.3097e-07,-1.41576e+09,-1.41527e+09,-1.41572e+09,44234.1,-0.0086829,0.0327996,-0,0.0339294,15510.4,-49800,0,52159.5,44234.1
step02_gravity_refstate-mantle.xmf,1056,-2.66646e-08,3.1939e-06,0,4.39243e-07,-1.43563e+09,-1.4352e+09,-1.43563e+09,58704.9,-0.0102117,0.0292307,-0,0.0309631,16568.3,-50415.2,0,53067.9,58704.9
step02_gravity_refstate-mantle.xmf,1057,-1.75456e-06,3.85174e-06,0,-2.29955e-06,-1.3555e+09,-1.35475e+09,-1.35527e+09,-307335,0.00466853,0.0694058,0,0.0695626,7529.8,-47930.2,0,48518,307335
step02_gravity_refstate-mantle.xmf,1058,-1.63223e-06,3.81639e-06,0,-1.95772e-06,-1.34469e+09,-1.34396e+09,-1.34447e+09,-261650,0.00407225,0.0661459,0,0.0662711,8267.51,-47596.9,0,48309.5,261650
step02_gravity_refstate-mantle.xmf,1059,-1.4876e-06,3.74297e-06,0,-1.63323e-06,-1.33357e+09,-1.33287e+09,-1.33337e+09,-218282,0.00346541,0.0629393,0,0.0630346,9088.1,-47254,0,48120,218282
step02_gravity_refstate-mantle.xmf,1060,-8.57055e-07,3.87262e-06,0,-8.11559e-08,-1.39842e+09,-1.39779e+09,-1.39831e+09,-10846.5,-0.00573725,0.0412001,-0,0.0415976,12572.4,-49262,0,50841.1,10846.5
step02_gravity_refstate-mantle.xmf,1061,-1.42701e-06,3.92476e-06,0,-1.16958e-06,-1.34954e+09,-1.34882e+09,-1.34935e+09,-156315,0.00120657,0.0569374,0,0.0569502,9928.04,-47748.2,0,48769.5,156315
step02_gravity_refstate-mantle.xmf,1062,-1.09535e-06,3.96479e-06,0,-3.84918e-07,-1.38177e+09,-1.38109e+09,-1.38162e+09,-51444.2,-0.003492,0.0460168,-0,0.0461491,11674.1,-48746.3,0,50124.7,51444.2
step02_gravity_refstate-mantle.xmf,1063,-1.29183e-06,3.98921e-06,0,-7.48703e-07,-1.36551e+09,-1.3648e+09,-1.36534e+09,-100064,-0.00115793,0.0512405,-0,0.0512536,10800.2,-48242.7,0,49436.8,100064
step02_gravity_refstate-mantle.xmf,1064,9.73888e-07,2.59696e-06,0,3.75705e-07,-1.60138e+09,-1.60116e+09,-1.60151e+09,50212.9,-0.0160963,0.0116703,-0,0.0198819,21002.7,-55540.4,0,59378.8,50212.9
step02_gravity_refstate-mantle.xmf,1065,1.11543e-06,2.5434e-06,0,1.93377e-07,-1.67084e+09,-1.67064e+09,-1.67098e+09,25844.8,-0.0162683,0.00597041,-0,0.0173292,22297.1,-57686.6,0,61845.8,25844.8
step02_gravity_refstate-mantle.xmf,1066,-6.4418e-07,8.78809e-06,0,1.05732e-06,-1.63839e+09,-1.63713e+09,-1.63831e+09,141311,0.0313595,0.0316049,0,0.0445229,-5454.37,-56688.7,-0,56950.5,141311
step02_gravity_refstate-mantle.xmf,1067,-1.20393e-06,9.58016e-06,0,1.77197e-06,-1.62691e+09,-1.62547e+09,-1.62675e+09,236824,0.0291187,0.0392742,0,0.0488913,-4875.2,-56332.4,-0,56542.9,236824
step02_gravity_refstate-mantle.xmf,1068,-5.36927e-07,9.20462e-06,0,9.63852e-07,-1.65975e+09,-1.65845e+09,-1.65968e+09,128819,0.0340259,0.025957,0,0.0427964,-5400.38,-57350.2,-0,57603.9,128819
step02_gravity_refstate-mantle.xmf,1069,4.76649e-07,7.85353e-06,0,1.53028e-07,-1.70642e+09,-1.70544e+09,-1.70649e+09,20452.2,0.0378299,0.00956254,0,0.0390198,-6517.52,-58795.2,-0,59155.3,20452.2
step02_gravity_refstate-mantle.xmf,1070,5.49078e-07,7.91264e-06,0,-7.61259e-10,-1.74541e+09,-1.74442e+09,-1.74548e+09,-101.742,0.0387678,-6.33812e-20,0,0.0387678,-6567.63,-60000,-0,60358.4,101.742
step02_gravity_refstate-mantle.xmf,1071,-2.59294e-06,1.02427e-05,0,4.40672e-06,-1.58533e+09,-1.58361e+09,-1.58498e+09,588958,0.019383,0.0656682,0,0.0684691,-3724.83,-55040.2,-0,55166,588958
step02_gravity_refstate-mantle.xmf,1072,-3.12062e-06,1.06258e-05,0,6.12801e-06,-1.57645e+09,-1.57461e+09,-1.57603e+09,819008,0.0160291,0.0777894,0,0.0794236,-3178.44,-54763.4,-0,54855.5,819008
step02_gravity_refstate-mantle.xmf,1073,-2.77846e-06,8.07114e-06,0,1.08548e-05,-1.53852e+09,-1.53707e+09,-1.53815e+09,1.45075e+06,0.00564188,0.112309,0,0.112451,-2166.73,-53587.5,-0,53631.3,1.45075e+06
step02_gravity_refstate-mantle.xmf,1074,-1.12995e-06,4.24199e-06,0,1.4497e-05,-1.51355e+09,-1.51283e+09,-1.51339e+09,1.93753e+06,0.000321529,0.138423,0,0.138423,-1466.48,-52817.2,-0,52837.6,1.93753e+06
step02_gravity_refstate-mantle.xmf,1075,7.46723e-08,1.89358e-06,0,1.73859e-05,-1.50321e+09,-1.50297e+09,-1.50322e+09,2.32362e+06,-0.00118195,0.156101,-0,0.156105,-1000,-52500.2,-0,52509.7,2.32362e+06
step02_gravity_refstate-mantle.xmf,1076,4.07459e-07,-2.50559e-06,0,-8.70639e-06,-1.42271e+09,-1.4231e+09,-1.42276e+09,-1.16361e+06,0.0101155,0.126375,0,0.12678,1899.18,-50004.3,0,50040.3,1.16361e+06
step02_gravity_refstate-mantle.xmf,1077,1.55101e-06,-4.4524e-06,0,-1.10596e-05,-1.44691e+09,-1.44771e+09,-1.44712e+09,-1.47812e+06,0.00831122,0.13932,0,0.139568,1414.41,-50754.6,0,50774.3,1.47812e+06
step02_gravity_refstate-mantle.xmf,1078,-1.32688e-06,2.62285e-06,0,-3.7564e-06,-1.34664e+09,-1.34611e+09,-1.34646e+09,-502043,0.00852676,0.0863105,0,0.0867306,5383.72,-47656,0,47959.1,502043
step02_gravity_refstate-mantle.xmf,1079,-9.58079e-07,1.46141e-06,0,-5.01161e-06,-1.36729e+09,-1.36696e+09,-1.36716e+09,-669802,0.00977902,0.0978773,0,0.0983646,3992.14,-48293.3,0,48458.1,669802
step02_gravity_refstate-mantle.xmf,1080,-1.31376e-06,2.31871e-06,0,-4.33975e-06,-1.36102e+09,-1.36053e+09,-1.36084e+09,-580008,0.00905043,0.0910295,0,0.0914783,4725.66,-48099.5,0,48331.1,580008
step02_gravity_refstate-mantle.xmf,1081,-1.68043e-06,3.33532e-06,0,-3.25339e-06,-1.35697e+09,-1.3563e+09,-1.35674e+09,-434815,0.00710847,0.0796653,0,0.0799818,6082.26,-47974.6,0,48358.6,434815
step02_gravity_refstate-mantle.xmf,1082,-1.88778e-06,3.90968e-06,0,-2.64969e-06,-1.36878e+09,-1.36801e+09,-1.36853e+09,-354131,0.00512772,0.0725902,0,0.0727711,6836.67,-48339.7,0,48820.7,354131
step02_gravity_refstate-mantle.xmf,1083,7.26576e-07,2.72104e-06,0,4.92556e-07,-1.53939e+09,-1.53912e+09,-1.53949e+09,65830.1,-0.0148123,0.0171403,-0,0.0226538,19828.2,-53624.1,0,57172.6,65830.1
step02_gravity_refstate-mantle.xmf,1084,-5.95425e-07,3.73111e-06,0,1.60066e-07,-1.41554e+09,-1.41496e+09,-1.41546e+09,21392.8,-0.00782468,0.0367772,-0,0.0376004,13507.2,-49792,0,51591.6,21392.8
step02_gravity_refstate-mantle.xmf,1085,5.98653e-07,2.84949e-06,0,5.35443e-07,-1.52005e+09,-1.51975e+09,-1.52013e+09,71561.9,-0.0146416,0.019384,-0,0.0242923,18706.8,-53026.3,0,56229.2,71561.9
step02_gravity_refstate-mantle.xmf,1086,9.21679e-07,2.68742e-06,0,4.42337e-07,-1.58353e+09,-1.5833e+09,-1.58366e+09,59118.4,-0.0166483,0.0134616,-0,0.0214099,19789,-54988.9,0,58441.3,59118.4
step02_gravity_refstate-mantle.xmf,1087,1.13398e-06,2.60176e-06,0,2.52716e-07,-1.65917e+09,-1.65898e+09,-1.65932e+09,33775.5,-0.0176342,0.0070444,-0,0.0189892,20909.6,-57326.6,0,61020.9,33775.5
step02_gravity_refstate-mantle.xmf,1088,1.1866e-06,2.6015e-06,0,1.15003e-07,-1.7061e+09,-1.70591e+09,-1.70626e+09,15370.1,-0.017529,0.00321553,-0,0.0178215,21556.5,-58776.6,0,62604.9,15370.1
step02_gravity_refstate-mantle.xmf,1089,1.17183e-06,2.62192e-06,0,-2.88622e-09,-1.74571e+09,-1.74552e+09,-1.74587e+09,-385.743,-0.0167306,-3.11679e-19,-0,0.0167306,22370,-60000,0,64034.5,385.743
step02_gravity_refstate-mantle.xmf,1090,-1.82246e-06,1.03156e-05,0,2.70411e-06,-1.61541e+09,-1.61378e+09,-1.61516e+09,361404,0.0263548,0.04832,0,0.05504,-4313.67,-55974.6,-0,56140.6,361404
step02_gravity_refstate-mantle.xmf,1091,2.75474e-08,8.73344e-06,0,4.25011e-07,-1.69435e+09,-1.69319e+09,-1.69436e+09,56802.8,0.0372711,0.0140646,0,0.0398365,-5929.03,-58421.6,-0,58721.7,56802.8
step02_gravity_refstate-mantle.xmf,1092,-5.11487e-07,9.68792e-06,0,8.51364e-07,-1.6816e+09,-1.68024e+09,-1.68153e+09,113785,0.0361579,0.0198248,0,0.0412361,-5346.64,-58026.5,-0,58272.3,113785
step02_gravity_refstate-mantle.xmf,1093,4.41137e-07,8.07911e-06,0,8.29726e-08,-1.72732e+09,-1.7263e+09,-1.72738e+09,11089.3,0.0386355,0.00455916,0,0.0389036,-6404.44,-59441,-0,59785.1,11089.3
step02_gravity_refstate-mantle.xmf,1094,-3.51235e-06,1.06464e-05,0,8.20329e-06,-1.56715e+09,-1.56526e+09,-1.56668e+09,1.09637e+06,0.0124743,0.0915082,0,0.0923546,-2662.9,-54473.5,-0,54538.6,1.09637e+06
step02_gravity_refstate-mantle.xmf,1095,-2.31435e-06,6.78264e-06,0,1.33252e-05,-1.52979e+09,-1.52858e+09,-1.52948e+09,1.78091e+06,0.00304182,0.127955,0,0.127991,-1702.61,-53317.6,-0,53344.8,1.78091e+06
step02_gravity_refstate-mantle.xmf,1096,-3.56004e-06,1.02576e-05,0,1.04997e-05,-1.55803e+09,-1.55618e+09,-1.55756e+09,1.40328e+06,0.00915642,0.105745,0,0.106141,-2205.25,-54190.6,-0,54235.4,1.40328e+06
step02_gravity_refstate-mantle.xmf,1097,3.08045e-08,-1.87228e-06,0,-9.29837e-06,-1.4395e+09,-1.43975e+09,-1.4395e+09,-1.24273e+06,0.00928835,0.128581,0,0.128916,1849.02,-50522,0,50555.9,1.24273e+06
step02_gravity_refstate-mantle.xmf,1098,3.39791e-06,-6.77933e-06,0,-1.42172e-05,-1.45464e+09,-1.456e+09,-1.4551e+09,-1.90012e+06,0.00645674,0.15247,0,0.152606,1000,-50999.8,0,51009.6,1.90012e+06
step02_gravity_refstate-mantle.xmf,1099,-1.44425e-06,1.99071e-06,0,-5.24066e-06,-1.38714e+09,-1.38668e+09,-1.38694e+09,-700415,0.00944478,0.0972644,0,0.0977219,3951.51,-48904.6,0,49064,700415
step02_gravity_refstate-mantle.xmf,1100,-3.85752e-07,-9.28579e-07,0,-7.70906e-06,-1.41447e+09,-1.41454e+09,-1.41442e+09,-1.03032e+06,0.0103181,0.117728,0,0.11818,2380.37,-49748.5,0,49805.4,1.03032e+06
step02_gravity_refstate-mantle.xmf,1101,-1.22921e-06,1.29189e-06,0,-5.95684e-06,-1.39641e+09,-1.39607e+09,-1.39624e+09,-796131,0.00990468,0.103325,0,0.103798,3406.2,-49190.7,0,49308.4,796131
step02_gravity_refstate-mantle.xmf,1102,-8.91781e-07,3.50919e-07,0,-6.77116e-06,-1.40554e+09,-1.40537e+09,-1.40542e+09,-904966,0.0102197,0.110112,0,0.110586,2881.72,-49472.4,0,49556.3,904966
step02_gravity_refstate-mantle.xmf,1103,-1.92861e-06,4.26308e-06,0,-2.06139e-06,-1.37993e+09,-1.3791e+09,-1.37967e+09,-275504,0.00289072,0.0658452,0,0.0659086,7606.29,-48684.4,0,49275,275504
step02_gravity_refstate-mantle.xmf,1104,4.20138e-07,3.00557e-06,0,5.5463e-07,-1.49827e+09,-1.49792e+09,-1.49832e+09,74126.3,-0.0140005,0.0221322,-0,0.0261887,17607.6,-52352.5,0,55234.2,74126.3
step02_gravity_refstate-mantle.xmf,1105,-3.25186e-07,3.56059e-06,0,3.4159e-07,-1.43391e+09,-1.43339e+09,-1.43387e+09,45653.5,-0.00974243,0.0326842,-0,0.0341053,14474,-50361,0,52399.7,45653.5
step02_gravity_refstate-mantle.xmf,1106,2.01028e-07,3.18441e-06,0,5.36859e-07,-1.47646e+09,-1.47606e+09,-1.47649e+09,71751.2,-0.0129629,0.0252558,-0,0.0283883,16524.7,-51677.8,0,54255.5,71751.2
step02_gravity_refstate-mantle.xmf,1107,-5.3364e-08,3.37449e-06,0,4.67989e-07,-1.45463e+09,-1.45417e+09,-1.45463e+09,62546.7,-0.0115082,0.0288026,-0,0.0310166,15477.5,-51002.4,0,53299.1,62546.7
step02_gravity_refstate-mantle.xmf,1108,-1.76715e-06,4.12682e-06,0,-1.83819e-06,-1.36711e+09,-1.36632e+09,-1.36687e+09,-245674,0.00279433,0.0640071,0,0.0640681,8164.39,-48289.2,0,48974.5,245674
step02_gravity_refstate-mantle.xmf,1109,-1.64695e-06,4.14768e-06,0,-1.43157e-06,-1.36678e+09,-1.36601e+09,-1.36656e+09,-191329,0.00138767,0.0593428,0,0.059359,9002.58,-48280,0,49112.1,191329
step02_gravity_refstate-mantle.xmf,1110,-6.94526e-07,3.9667e-06,0,1.43303e-07,-1.43248e+09,-1.43186e+09,-1.43239e+09,19152.5,-0.00866828,0.037092,-0,0.0380914,12564.5,-50315.4,0,51860.5,19152.5
step02_gravity_refstate-mantle.xmf,1111,-9.89085e-07,4.11788e-06,0,-1.34733e-07,-1.41483e+09,-1.41415e+09,-1.4147e+09,-18007.1,-0.00632355,0.041895,-0,0.0423695,11670.9,-49768.7,0,51118.8,18007.1
step02_gravity_refstate-mantle.xmf,1112,-1.47258e-06,4.23034e-06,0,-8.93789e-07,-1.38243e+09,-1.38167e+09,-1.38223e+09,-119455,-0.00134634,0.05265,-0,0.0526672,9959.55,-48764.7,0,49771.4,119455
step02_gravity_refstate-mantle.xmf,1113,-1.25434e-06,4.21121e-06,0,-4.81586e-07,-1.3981e+09,-1.39737e+09,-1.39793e+09,-64364,-0.00385502,0.0470785,-0,0.0472361,10808.1,-49250.3,0,50422.3,64364
step02_gravity_refstate-mantle.xmf,1114,1.086e-06,2.67248e-06,0,3.5551e-07,-1.6295e+09,-1.62928e+09,-1.62964e+09,47513.9,-0.018228,0.00966367,-0,0.0206312,19740.1,-56409.7,0,59764,47513.9
step02_gravity_refstate-mantle.xmf,1115,-2.51372e-06,1.10897e-05,0,3.96271e-06,-1.60497e+09,-1.60316e+09,-1.60464e+09,529616,0.0232307,0.0588438,0,0.0632634,-3746.95,-55649.7,-0,55775.7,529616
step02_gravity_refstate-mantle.xmf,1116,-1.09906e-06,1.00712e-05,0,1.61045e-06,-1.64818e+09,-1.64669e+09,-1.64804e+09,215236,0.0321381,0.0331378,0,0.0461625,-4831.16,-56991.3,-0,57195.7,215236
step02_gravity_refstate-mantle.xmf,1117,-1.73317e-06,1.10372e-05,0,2.49134e-06,-1.63678e+09,-1.63508e+09,-1.63655e+09,332967,0.0297332,0.0417241,0,0.0512344,-4267.52,-56637.4,-0,56797.9,332967
step02_gravity_refstate-mantle.xmf,1118,-1.10485e-06,1.06205e-05,0,1.4378e-06,-1.66934e+09,-1.66777e+09,-1.66919e+09,192161,0.0345502,0.0266584,0,0.0436393,-4782.84,-57646.2,-0,57844.3,192161
step02_gravity_refstate-mantle.xmf,1119,-5.96805e-09,9.04004e-06,0,2.6264e-07,-1.71804e+09,-1.71683e+09,-1.71804e+09,35101.8,0.0384762,0.00769456,0,0.0392381,-5871.67,-59153.9,-0,59444.6,35101.8
step02_gravity_refstate-mantle.xmf,1120,-6.13347e-08,9.2571e-06,0,-1.07151e-08,-1.74543e+09,-1.74418e+09,-1.74542e+09,-1432.07,0.0389576,-1.02457e-19,0,0.0389576,-5794.24,-60000,-0,60279.1,1432.07
step02_gravity_refstate-mantle.xmf,1121,-3.25048e-06,1.18564e-05,0,5.64456e-06,-1.59571e+09,-1.59369e+09,-1.59527e+09,754395,0.019819,0.0710147,0,0.0737284,-3181.83,-55360.5,-0,55451.9,754395
step02_gravity_refstate-mantle.xmf,1122,-3.9204e-06,1.23811e-05,0,7.77228e-06,-1.58639e+09,-1.58421e+09,-1.58586e+09,1.03876e+06,0.0160975,0.0849097,0,0.0864222,-2650.98,-55069.5,-0,55133.2,1.03876e+06
step02_gravity_refstate-mantle.xmf,1123,-3.35704e-06,9.46532e-06,0,1.29668e-05,-1.54934e+09,-1.54763e+09,-1.54889e+09,1.73302e+06,0.00618984,0.120908,0,0.121067,-1770.68,-53921.4,-0,53950.4,1.73302e+06
step02_gravity_refstate-mantle.xmf,1124,-1.97428e-06,6.23128e-06,0,1.57707e-05,-1.52755e+09,-1.52645e+09,-1.52729e+09,2.10775e+06,0.00190102,0.141508,0,0.141521,-1311.4,-53249.3,-0,53265.5,2.10775e+06
step02_gravity_refstate-mantle.xmf,1125,-1.19021e-06,4.64671e-06,0,1.77982e-05,-1.51942e+09,-1.51864e+09,-1.51926e+09,2.37872e+06,0.000488634,0.154467,0,0.154468,-1000,-52999.4,-0,53008.9,2.37872e+06
step02_gravity_refstate-mantle.xmf,1126,-9.64439e-07,6.06799e-08,0,-7.99994e-06,-1.4341e+09,-1.43396e+09,-1.43397e+09,-1.06919e+06,0.00943757,0.118098,0,0.118475,2374.66,-50353.5,0,50409.4,1.06919e+06
step02_gravity_refstate-mantle.xmf,1127,1.21052e-07,-1.35596e-06,0,-1.00933e-05,-1.45511e+09,-1.4553e+09,-1.45512e+09,-1.34897e+06,0.00772759,0.130482,0,0.13071,1801.17,-51006.1,0,51037.9,1.34897e+06
step02_gravity_refstate-mantle.xmf,1128,1.3372e-06,-2.84146e-06,0,-1.22985e-05,-1.46289e+09,-1.46345e+09,-1.46307e+09,-1.6437e+06,0.00647084,0.141207,0,0.141355,1411.35,-51250.8,0,51270.2,1.6437e+06
step02_gravity_refstate-mantle.xmf,1129,-1.72301e-06,3.16224e-06,0,-3.72027e-06,-1.36682e+09,-1.36616e+09,-1.36659e+09,-497214,0.00773929,0.0838054,0,0.084162,5466.68,-48278.1,0,48586.6,497214
step02_gravity_refstate-mantle.xmf,1130,-1.56952e-06,2.48371e-06,0,-4.67064e-06,-1.37956e+09,-1.37902e+09,-1.37935e+09,-624230,0.00892516,0.0923089,0,0.0927394,4457.16,-48671,0,48874.6,624230
step02_gravity_refstate-mantle.xmf,1131,-2.04695e-06,3.87606e-06,0,-3.20764e-06,-1.38247e+09,-1.38168e+09,-1.38219e+09,-428701,0.00591524,0.0774732,0,0.0776987,6004.73,-48761.2,0,49129.5,428701
step02_gravity_refstate-mantle.xmf,1132,-2.0994e-06,4.42105e-06,0,-2.33201e-06,-1.39494e+09,-1.39407e+09,-1.39466e+09,-311673,0.00298106,0.0682077,0,0.0682728,6975.54,-49147.4,0,49640,311673
step02_gravity_refstate-mantle.xmf,1133,8.10453e-07,2.81216e-06,0,5.14998e-07,-1.56235e+09,-1.56208e+09,-1.56245e+09,68829.5,-0.0167494,0.0157087,-0,0.0229631,18656.8,-54334,0,57447.9,68829.5
step02_gravity_refstate-mantle.xmf,1134,-3.93952e-07,3.77841e-06,0,3.47747e-07,-1.45065e+09,-1.4501e+09,-1.4506e+09,46476.4,-0.010769,0.032746,-0,0.0344713,13485.7,-50878.3,0,52635.2,46476.4
step02_gravity_refstate-mantle.xmf,1135,6.59153e-07,2.96356e-06,0,5.68611e-07,-1.54029e+09,-1.53998e+09,-1.54038e+09,75994.9,-0.0164478,0.0182887,-0,0.0245969,17560,-53652,0,56452.6,75994.9
step02_gravity_refstate-mantle.xmf,1136,1.0259e-06,2.77116e-06,0,4.40898e-07,-1.60779e+09,-1.60755e+09,-1.60792e+09,58926,-0.0187114,0.0118042,-0,0.0221237,18603.8,-55739,0,58761.7,58926
step02_gravity_refstate-mantle.xmf,1137,1.20827e-06,2.67929e-06,0,2.47764e-07,-1.66975e+09,-1.66955e+09,-1.66991e+09,33113.7,-0.0193473,0.00635458,-0,0.0203642,19621.2,-57653.9,0,60901.2,33113.7
step02_gravity_refstate-mantle.xmf,1138,1.24006e-06,2.66598e-06,0,1.36309e-07,-1.70456e+09,-1.70437e+09,-1.70472e+09,18217.7,-0.0191927,0.00342123,-0,0.0194953,20173.4,-58729.4,0,62097.6,18217.7
step02_gravity_refstate-mantle.xmf,1139,1.23464e-06,2.68322e-06,0,-3.26304e-09,-1.74569e+09,-1.7455e+09,-1.74586e+09,-436.105,-0.0185583,-3.31424e-19,-0,0.0185583,20850.5,-60000,0,63519.6,436.105
step02_gravity_refstate-mantle.xmf,1140,-2.47017e-06,1.20035e-05,0,3.62644e-06,-1.62576e+09,-1.62383e+09,-1.62543e+09,484674,0.0268173,0.0518702,0,0.0583925,-3711.38,-56294.5,-0,56416.7,484674
step02_gravity_refstate-mantle.xmf,1141,-6.36486e-07,1.02149e-05,0,6.26213e-07,-1.7066e+09,-1.70515e+09,-1.70651e+09,83693.4,0.0377722,0.0125236,0,0.0397942,-5235.21,-58799.3,-0,59031.9,83693.4
step02_gravity_refstate-mantle.xmf,1142,-1.20466e-06,1.12263e-05,0,1.21793e-06,-1.69026e+09,-1.6886e+09,-1.6901e+09,162776,0.0362967,0.0198522,0,0.041371,-4731.38,-58293.3,-0,58485,162776
step02_gravity_refstate-mantle.xmf,1143,-4.2994e-06,1.23307e-05,0,9.96771e-06,-1.57689e+09,-1.57467e+09,-1.57632e+09,1.33218e+06,0.012547,0.0987929,0,0.0995865,-2219.26,-54773.6,-0,54818.5,1.33218e+06
step02_gravity_refstate-mantle.xmf,1144,-3.0238e-06,8.52279e-06,0,1.55052e-05,-1.54238e+09,-1.54084e+09,-1.54198e+09,2.07227e+06,0.00389284,0.136338,0,0.136393,-1362.17,-53706.3,-0,53723.6,2.07227e+06
step02_gravity_refstate-mantle.xmf,1145,-4.34848e-06,1.19059e-05,0,1.25113e-05,-1.56779e+09,-1.56562e+09,-1.56721e+09,1.67214e+06,0.00917037,0.113976,0,0.114344,-1798.44,-54490.9,-0,54520.6,1.67214e+06
step02_gravity_refstate-mantle.xmf,1146,-7.52869e-07,-4.72096e-08,0,-8.74931e-06,-1.44835e+09,-1.44825e+09,-1.44825e+09,-1.16935e+06,0.00836602,0.122181,0,0.122467,2166.14,-50794.8,0,50841,1.16935e+06
step02_gravity_refstate-mantle.xmf,1147,2.45683e-06,-3.85953e-06,0,-1.56932e-05,-1.47081e+09,-1.47165e+09,-1.47114e+09,-2.09739e+06,0.00469185,0.155132,0,0.155203,1000,-51500.3,0,51510,2.09739e+06
step02_gravity_refstate-mantle.xmf,1148,-1.82479e-06,4.41945e-06,0,-1.51938e-06,-1.38863e+09,-1.3878e+09,-1.38839e+09,-203065,0.00067386,0.0596891,0,0.0596929,8415.77,-48954.4,0,49672.6,203065
step02_gravity_refstate-mantle.xmf,1149,-1.95816e-06,3.33847e-06,0,-4.01154e-06,-1.38534e+09,-1.38463e+09,-1.38508e+09,-536142,0.00751237,0.0851378,0,0.0854686,5120.56,-48849.1,0,49116.7,536142
step02_gravity_refstate-mantle.xmf,1150,-1.99583e-06,3.09541e-06,0,-4.61751e-06,-1.39771e+09,-1.39703e+09,-1.39744e+09,-617130,0.00804551,0.0901593,0,0.0905175,4512.34,-49230.4,0,49436.7,617130
step02_gravity_refstate-mantle.xmf,1151,-1.93688e-06,2.67636e-06,0,-5.30072e-06,-1.40751e+09,-1.4069e+09,-1.40725e+09,-708442,0.0086027,0.0958407,0,0.096226,3948.11,-49532.5,0,49689.6,708442
step02_gravity_refstate-mantle.xmf,1152,-1.42253e-06,1.08322e-06,0,-7.01516e-06,-1.42388e+09,-1.42355e+09,-1.42369e+09,-937576,0.0095245,0.110099,0,0.11051,2855.9,-50037.5,0,50118.9,937576
step02_gravity_refstate-mantle.xmf,1153,-1.76866e-06,2.04096e-06,0,-6.10295e-06,-1.4166e+09,-1.41609e+09,-1.41636e+09,-815659,0.00910598,0.102484,0,0.102888,3391.71,-49812.7,0,49928.1,815659
step02_gravity_refstate-mantle.xmf,1154,-2.02327e-06,4.64158e-06,0,-1.75282e-06,-1.40472e+09,-1.40383e+09,-1.40445e+09,-234264,0.000627722,0.0618267,0,0.0618299,7699.3,-49450.6,0,50046.4,234264
step02_gravity_refstate-mantle.xmf,1155,4.59446e-07,3.14927e-06,0,5.94846e-07,-1.51832e+09,-1.51796e+09,-1.51838e+09,79501.2,-0.0157547,0.0212197,-0,0.0264288,16461.1,-52972.4,0,55471.1,79501.2
step02_gravity_refstate-mantle.xmf,1156,-8.86515e-08,3.57601e-06,0,4.9476e-07,-1.47214e+09,-1.47165e+09,-1.47213e+09,66124.7,-0.0127904,0.0285764,-0,0.0313082,14410,-51543.4,0,53519.8,66124.7
step02_gravity_refstate-mantle.xmf,1157,2.02415e-07,3.36023e-06,0,5.75273e-07,-1.49502e+09,-1.4946e+09,-1.49505e+09,76885.3,-0.0145007,0.0246941,-0,0.0286368,15404.2,-52251.6,0,54475,76885.3
step02_gravity_refstate-mantle.xmf,1158,-4.73324e-07,4.01405e-06,0,3.4488e-07,-1.46583e+09,-1.46523e+09,-1.46577e+09,46093.3,-0.0117312,0.0330461,-0,0.0350665,12535.8,-51347.2,0,52855.2,46093.3
step02_gravity_refstate-mantle.xmf,1159,-8.15057e-07,4.21693e-06,0,1.04908e-07,-1.44673e+09,-1.44606e+09,-1.44662e+09,14020.9,-0.00932117,0.0378242,-0,0.0389558,11657.4,-50755.4,0,52076.9,14020.9
step02_gravity_refstate-mantle.xmf,1160,-1.65446e-06,4.50194e-06,0,-1.01984e-06,-1.40162e+09,-1.4008e+09,-1.4014e+09,-136301,-0.00180538,0.0537778,-0,0.0538081,9178.38,-49357.1,0,50203.2,136301
step02_gravity_refstate-mantle.xmf,1161,-1.14179e-06,4.37985e-06,0,-2.12516e-07,-1.42961e+09,-1.42887e+09,-1.42946e+09,-28402.7,-0.00677959,0.0429699,-0,0.0435015,10787.5,-50224.7,0,51370.1,28402.7
step02_gravity_refstate-mantle.xmf,1162,-1.42164e-06,4.47234e-06,0,-5.87609e-07,-1.41432e+09,-1.41353e+09,-1.41413e+09,-78534,-0.00424702,0.0482614,-0,0.0484479,9981.88,-49750.8,0,50742.3,78534
step02_gravity_refstate-mantle.xmf,1163,1.18845e-06,2.7523e-06,0,3.28807e-07,-1.65248e+09,-1.65228e+09,-1.65264e+09,43945,-0.0201439,0.00798046,-0,0.0216671,18619.6,-57120.8,0,60078.8,43945
step02_gravity_refstate-mantle.xmf,1164,-3.30629e-06,1.29972e-05,0,5.11438e-06,-1.61541e+09,-1.61323e+09,-1.61496e+09,683537,0.0234557,0.0635956,0,0.0677832,-3171.36,-55971.5,-0,56061.3,683537
step02_gravity_refstate-mantle.xmf,1165,-1.75239e-06,1.16783e-05,0,2.25221e-06,-1.65789e+09,-1.6561e+09,-1.65766e+09,301008,0.032481,0.0346871,0,0.0475206,-4222.69,-57291,-0,57446.4,301008
step02_gravity_refstate-mantle.xmf,1166,-2.47898e-06,1.28703e-05,0,3.31566e-06,-1.64654e+09,-1.64449e+09,-1.64621e+09,443139,0.0298665,0.0443149,0,0.0534399,-3672.81,-56938.6,-0,57056.9,443139
step02_gravity_refstate-mantle.xmf,1167,-1.89568e-06,1.23438e-05,0,1.94739e-06,-1.6787e+09,-1.6768e+09,-1.67845e+09,260269,0.0345418,0.0271388,0,0.0439278,-4192.86,-57934.6,-0,58086.1,260269
step02_gravity_refstate-mantle.xmf,1168,-5.60442e-07,1.01842e-05,0,2.55582e-07,-1.72831e+09,-1.72688e+09,-1.72824e+09,34158.5,0.0386262,0.00542328,0,0.0390051,-5347.73,-59470.4,-0,59710.3,34158.5
step02_gravity_refstate-mantle.xmf,1169,-4.23138e-06,1.3979e-05,0,7.10751e-06,-1.60584e+09,-1.6034e+09,-1.60527e+09,949919,0.0196929,0.077183,0,0.0796556,-2640.59,-55672.3,-0,55734.9,949919
step02_gravity_refstate-mantle.xmf,1170,-4.93797e-06,1.44422e-05,0,9.42971e-06,-1.59585e+09,-1.59326e+09,-1.59519e+09,1.26028e+06,0.0157874,0.0916615,0,0.0930112,-2190.69,-55360.2,-0,55403.5,1.26028e+06
step02_gravity_refstate-mantle.xmf,1171,-4.16917e-06,1.11477e-05,0,1.52181e-05,-1.55954e+09,-1.55749e+09,-1.55898e+09,2.0339e+06,0.0062052,0.130199,0,0.130347,-1388.9,-54235.3,-0,54253.1,2.0339e+06
step02_gravity_refstate-mantle.xmf,1172,-2.48004e-06,7.37501e-06,0,1.79849e-05,-1.53566e+09,-1.53434e+09,-1.53533e+09,2.40368e+06,0.00212663,0.151459,0,0.151474,-1000,-53499.2,-0,53508.6,2.40368e+06
step02_gravity_refstate-mantle.xmf,1173,-8.86169e-07,8.53172e-07,0,-9.05857e-06,-1.46231e+09,-1.46208e+09,-1.4622e+09,-1.21068e+06,0.00666353,0.121449,0,0.121632,2191.66,-51227.6,0,51274.5,1.21068e+06
step02_gravity_refstate-mantle.xmf,1174,-1.49089e-06,1.56841e-06,0,-7.74733e-06,-1.4511e+09,-1.4507e+09,-1.4509e+09,-1.03543e+06,0.00758924,0.113702,0,0.113955,2585.93,-50879.2,0,50944.8,1.03543e+06
step02_gravity_refstate-mantle.xmf,1175,-1.89778e-08,-1.06261e-07,0,-1.09611e-05,-1.47102e+09,-1.47103e+09,-1.47101e+09,-1.46496e+06,0.00563157,0.131243,0,0.131364,1785.32,-51499.8,0,51530.7,1.46496e+06
step02_gravity_refstate-mantle.xmf,1176,7.54544e-07,-7.44314e-07,0,-1.33937e-05,-1.47906e+09,-1.47926e+09,-1.47916e+09,-1.79007e+06,0.00435321,0.141998,0,0.142065,1414.78,-51751.9,0,51771.2,1.79007e+06
step02_gravity_refstate-mantle.xmf,1177,-2.28231e-06,4.52373e-06,0,-2.73901e-06,-1.4082e+09,-1.40729e+09,-1.4079e+09,-366069,0.0033935,0.0718859,0,0.071966,6272.59,-49556.2,0,49951.6,366069
step02_gravity_refstate-mantle.xmf,1178,-2.20897e-06,4.83492e-06,0,-2.04436e-06,-1.41887e+09,-1.41793e+09,-1.41857e+09,-273229,0.000737707,0.0646177,0,0.0646219,6998.28,-49887,0,50375.4,273229
step02_gravity_refstate-mantle.xmf,1179,8.93672e-07,2.91508e-06,0,5.34734e-07,-1.58258e+09,-1.58231e+09,-1.5827e+09,71467.2,-0.018683,0.0144711,-0,0.0236319,17513,-54959.9,0,57682.7,71467.2
step02_gravity_refstate-mantle.xmf,1180,-1.46563e-07,3.78808e-06,0,5.03072e-07,-1.48511e+09,-1.48458e+09,-1.48509e+09,67235.6,-0.0137781,0.028824,-0,0.0319478,13429.5,-51944.2,0,53652.1,67235.6
step02_gravity_refstate-mantle.xmf,1181,7.25835e-07,3.09373e-06,0,5.99362e-07,-1.55958e+09,-1.55927e+09,-1.55968e+09,80104.7,-0.0183443,0.0172667,-0,0.0251923,16422.1,-54248.8,0,56680,80104.7
step02_gravity_refstate-mantle.xmf,1182,1.14155e-06,2.87571e-06,0,4.33504e-07,-1.63251e+09,-1.63228e+09,-1.63266e+09,57937.8,-0.0209647,0.0100567,-0,0.023252,17374.4,-56503.7,0,59114.6,57937.8
step02_gravity_refstate-mantle.xmf,1183,1.29618e-06,2.75578e-06,0,1.71507e-07,-1.70039e+09,-1.70019e+09,-1.70056e+09,22921.9,-0.0210206,0.00389122,-0,0.0213777,18694.2,-58601.2,0,61510.8,22921.9
step02_gravity_refstate-mantle.xmf,1184,1.30039e-06,2.75908e-06,0,-4.42666e-09,-1.74567e+09,-1.74547e+09,-1.74584e+09,-591.624,-0.0203909,-3.76407e-19,-0,0.0203909,19403.8,-60000,0,63059.6,591.624
step02_gravity_refstate-mantle.xmf,1185,-3.35707e-06,1.40772e-05,0,4.66642e-06,-1.63499e+09,-1.63266e+09,-1.63455e+09,623667,0.0265994,0.0559759,0,0.0619745,-3131.36,-56579.1,-0,56665.6,623667
step02_gravity_refstate-mantle.xmf,1186,-2.16053e-06,1.31147e-05,0,1.56466e-06,-1.69973e+09,-1.69769e+09,-1.69944e+09,209117,0.0358976,0.0191204,0,0.0406722,-4145.62,-58584.2,-0,58730.7,209117
step02_gravity_refstate-mantle.xmf,1187,-1.46006e-06,1.1832e-05,0,9.56806e-07,-1.70849e+09,-1.70671e+09,-1.7083e+09,127877,0.0372105,0.0137915,0,0.0396841,-4623.73,-58856.3,-0,59037.6,127877
step02_gravity_refstate-mantle.xmf,1188,-1.29997e-06,1.15755e-05,0,4.62243e-07,-1.72604e+09,-1.72432e+09,-1.72587e+09,61778.8,0.0380464,0.00702665,0,0.0386899,-4782.15,-59398.8,-0,59591,61778.8
step02_gravity_refstate-mantle.xmf,1189,-9.33088e-07,1.09758e-05,0,-9.50165e-09,-1.74547e+09,-1.74388e+09,-1.74535e+09,-1269.9,0.0385922,-1.13308e-19,0,0.0385922,-5055.41,-60000,-0,60212.6,1269.9
step02_gravity_refstate-mantle.xmf,1190,-5.30254e-06,1.43189e-05,0,1.18339e-05,-1.58603e+09,-1.58341e+09,-1.58532e+09,1.5816e+06,0.0121412,0.106252,0,0.106944,-1810.11,-55054.1,-0,55083.9,1.5816e+06
step02_gravity_refstate-mantle.xmf,1191,-1.71282e-06,1.84606e-06,0,-7.00739e-06,-1.43911e+09,-1.43863e+09,-1.43888e+09,-936537,0.00836845,0.109187,0,0.109507,2870.16,-50507.8,0,50589.2,936537
step02_gravity_refstate-mantle.xmf,1192,-3.80221e-06,1.01184e-05,0,1.79876e-05,-1.55192e+09,-1.55006e+09,-1.55141e+09,2.40405e+06,0.0037588,0.147083,0,0.147131,-1000,-53999.7,-0,54008.9,2.40405e+06
step02_gravity_refstate-mantle.xmf,1193,-5.33201e-06,1.37707e-05,0,1.47531e-05,-1.57667e+09,-1.57412e+09,-1.57596e+09,1.97175e+06,0.00854148,0.123221,0,0.123517,-1400.51,-54763.4,-0,54781.3,1.97175e+06
step02_gravity_refstate-mantle.xmf,1194,1.31118e-06,-9.43979e-07,0,-1.6719e-05,-1.48701e+09,-1.48731e+09,-1.48718e+09,-2.2345e+06,0.00290914,0.156335,0,0.156362,1000,-52000.6,0,52010.2,2.2345e+06
step02_gravity_refstate-mantle.xmf,1195,-1.84588e-06,4.74282e-06,0,-1.20666e-06,-1.41632e+09,-1.41544e+09,-1.41607e+09,-161270,-0.00192691,0.0556426,-0,0.055676,8437.63,-49810.4,0,50520,161270
step02_gravity_refstate-mantle.xmf,1196,-2.23874e-06,4.10091e-06,0,-3.39368e-06,-1.40107e+09,-1.40022e+09,-1.40077e+09,-453566,0.00542209,0.0784398,0,0.0786269,5636.41,-49335,0,49656,453566
step02_gravity_refstate-mantle.xmf,1197,-2.31607e-06,3.96018e-06,0,-3.89916e-06,-1.40881e+09,-1.40797e+09,-1.4085e+09,-521123,0.00606213,0.0827533,0,0.0829751,5094.71,-49573.4,0,49834.5,521123
step02_gravity_refstate-mantle.xmf,1198,-2.35773e-06,3.75654e-06,0,-4.51432e-06,-1.41894e+09,-1.41812e+09,-1.41862e+09,-603339,0.00661444,0.0879539,0,0.0882022,4509.02,-49885.3,0,50088.7,603339
step02_gravity_refstate-mantle.xmf,1199,-2.3166e-06,3.40415e-06,0,-5.26032e-06,-1.42895e+09,-1.42818e+09,-1.42864e+09,-703042,0.00711997,0.0941489,0,0.0944177,3923.34,-50194,0,50347.1,703042
step02_gravity_refstate-mantle.xmf,1200,-2.12824e-06,2.79251e-06,0,-6.17896e-06,-1.43747e+09,-1.43681e+09,-1.43718e+09,-825818,0.00762459,0.101676,0,0.101961,3341.11,-50456.8,0,50567.3,825818
step02_gravity_refstate-mantle.xmf,1201,-2.03786e-06,4.9819e-06,0,-1.44243e-06,-1.4301e+09,-1.42916e+09,-1.42983e+09,-192781,-0.00196128,0.0580113,-0,0.0580445,7705.3,-50235.5,0,50823,192781
step02_gravity_refstate-mantle.xmf,1202,4.99553e-07,3.31106e-06,0,6.33249e-07,-1.53694e+09,-1.53656e+09,-1.537e+09,84633.7,-0.0175517,0.0204357,-0,0.0269385,15344.9,-53548.3,0,55703.5,84633.7
step02_gravity_refstate-mantle.xmf,1203,1.92281e-07,3.58237e-06,0,6.11122e-07,-1.5135e+09,-1.51305e+09,-1.51353e+09,81676.5,-0.016185,0.0243342,-0,0.0292251,14189,-52823.1,0,54695.6,81676.5
step02_gravity_refstate-mantle.xmf,1204,-2.30363e-07,4.01692e-06,0,4.97515e-07,-1.49532e+09,-1.49475e+09,-1.49529e+09,66492.9,-0.0145542,0.0294295,-0,0.0328317,12514.8,-52259.6,0,53737.2,66492.9
step02_gravity_refstate-mantle.xmf,1205,-5.76926e-07,4.2632e-06,0,3.1972e-07,-1.47785e+09,-1.47721e+09,-1.47778e+09,42730.6,-0.0124541,0.0337804,-0,0.0360031,11643.4,-51718.5,0,53012.9,42730.6
step02_gravity_refstate-mantle.xmf,1206,-9.39635e-07,4.48297e-06,0,5.51684e-08,-1.46062e+09,-1.4599e+09,-1.4605e+09,7373.25,-0.00998961,0.0387017,-0,0.0399701,10791.9,-51184.3,0,52309.6,7373.25
step02_gravity_refstate-mantle.xmf,1207,-1.59194e-06,4.743e-06,0,-7.11608e-07,-1.42992e+09,-1.42907e+09,-1.4297e+09,-95106.5,-0.00463985,0.0496587,-0,0.049875,9193.32,-50232.1,0,51066.4,95106.5
step02_gravity_refstate-mantle.xmf,1208,-1.28699e-06,4.64934e-06,0,-2.92744e-07,-1.44445e+09,-1.44366e+09,-1.44428e+09,-39125.3,-0.00732999,0.0440416,-0,0.0446474,9974.39,-50682.9,0,51655,39125.3
step02_gravity_refstate-mantle.xmf,1209,1.28114e-06,2.82924e-06,0,2.86712e-07,-1.67409e+09,-1.67388e+09,-1.67426e+09,38319,-0.021825,0.00630263,-0,0.0227168,17699.5,-57788.9,0,60438.7,38319
step02_gravity_refstate-mantle.xmf,1210,-4.41776e-06,1.53905e-05,0,6.43802e-06,-1.62458e+09,-1.62193e+09,-1.62398e+09,860442,0.0228688,0.0692457,0,0.0729242,-2609.39,-56253.5,-0,56314,860442
step02_gravity_refstate-mantle.xmf,1211,-2.63817e-06,1.36242e-05,0,2.96703e-06,-1.66705e+09,-1.66487e+09,-1.66669e+09,396543,0.0321911,0.0362357,0,0.0484695,-3638.01,-57572.8,-0,57687.6,396543
step02_gravity_refstate-mantle.xmf,1212,-3.50402e-06,1.51417e-05,0,4.29438e-06,-1.65468e+09,-1.65219e+09,-1.65421e+09,573944,0.0291157,0.0477688,0,0.0559427,-3078.88,-57188.8,-0,57271.6,573944
step02_gravity_refstate-mantle.xmf,1213,-2.94558e-06,1.43699e-05,0,2.42988e-06,-1.68781e+09,-1.6855e+09,-1.68742e+09,324754,0.0338982,0.0271523,0,0.043432,-3644.47,-58214.1,-0,58328.1,324754
step02_gravity_refstate-mantle.xmf,1214,-5.48301e-06,1.6456e-05,0,8.66256e-06,-1.61472e+09,-1.61179e+09,-1.61399e+09,1.15775e+06,0.0188706,0.0836391,0,0.0857415,-2148.35,-55944.6,-0,55985.8,1.15775e+06
step02_gravity_refstate-mantle.xmf,1215,-6.14579e-06,1.67307e-05,0,1.10956e-05,-1.60459e+09,-1.60153e+09,-1.60377e+09,1.48293e+06,0.0150102,0.0980825,0,0.0992244,-1783.95,-55628.1,-0,55656.7,1.48293e+06
step02_gravity_refstate-mantle.xmf,1216,-2.13351e-06,3.18403e-06,0,-6.5402e-06,-1.45637e+09,-1.45566e+09,-1.45608e+09,-874097,0.005919,0.103077,0,0.103247,3147.74,-51041.6,0,51138.6,874097
step02_gravity_refstate-mantle.xmf,1217,-5.13715e-06,1.28858e-05,0,1.78089e-05,-1.56818e+09,-1.56577e+09,-1.56749e+09,2.38016e+06,0.00541431,0.141331,0,0.141435,-1000,-54500.1,-0,54509.3,2.38016e+06
step02_gravity_refstate-mantle.xmf,1218,-1.06318e-06,2.09945e-06,0,-9.6009e-06,-1.47926e+09,-1.47884e+09,-1.47912e+09,-1.28316e+06,0.00419148,0.12056,0,0.120632,2196.55,-51753.1,0,51799.7,1.28316e+06
step02_gravity_refstate-mantle.xmf,1219,-1.64703e-06,2.62303e-06,0,-7.94739e-06,-1.46944e+09,-1.46887e+09,-1.46922e+09,-1.06217e+06,0.00512414,0.111903,0,0.11202,2616.38,-51447.1,0,51513.6,1.06217e+06
step02_gravity_refstate-mantle.xmf,1220,-4.42338e-07,1.60346e-06,0,-1.17697e-05,-1.48742e+09,-1.48715e+09,-1.48736e+09,-1.57302e+06,0.00323121,0.130949,0,0.130988,1782.24,-52008.1,0,52038.6,1.57302e+06
step02_gravity_refstate-mantle.xmf,1221,-5.6991e-08,1.56198e-06,0,-1.42884e-05,-1.49548e+09,-1.49527e+09,-1.49548e+09,-1.90964e+06,0.00214509,0.142093,0,0.142109,1405.36,-52259.6,0,52278.5,1.90964e+06
step02_gravity_refstate-mantle.xmf,1222,-2.42657e-06,4.58961e-06,0,-3.13794e-06,-1.4205e+09,-1.41956e+09,-1.42018e+09,-419385,0.00362843,0.0753363,0,0.0754237,5689.46,-49935.3,0,50258.4,419385
step02_gravity_refstate-mantle.xmf,1223,-2.38687e-06,4.99457e-06,0,-2.40373e-06,-1.43166e+09,-1.43067e+09,-1.43134e+09,-321259,0.000914051,0.0679441,0,0.0679502,6331.2,-50281.2,0,50678.2,321259
step02_gravity_refstate-mantle.xmf,1224,-2.21559e-06,5.21547e-06,0,-1.7144e-06,-1.44357e+09,-1.44257e+09,-1.44327e+09,-229129,-0.00203339,0.0607239,-0,0.0607579,7005.76,-50650.8,0,51133,229129
step02_gravity_refstate-mantle.xmf,1225,9.80091e-07,3.03883e-06,0,5.45995e-07,-1.60091e+09,-1.60064e+09,-1.60105e+09,72972.2,-0.0206727,0.0133854,-0,0.0246278,16360.5,-55527.1,0,57887.2,72972.2
step02_gravity_refstate-mantle.xmf,1226,3.19627e-08,3.82862e-06,0,5.88552e-07,-1.51151e+09,-1.511e+09,-1.51151e+09,78660,-0.0161363,0.026192,-0,0.0307637,13166.3,-52761,0,54379,78660
step02_gravity_refstate-mantle.xmf,1227,7.97081e-07,3.24281e-06,0,6.24741e-07,-1.57764e+09,-1.57731e+09,-1.57774e+09,83496.6,-0.0203,0.0163427,-0,0.026061,15307.8,-54807.4,0,56905,83496.6
step02_gravity_refstate-mantle.xmf,1228,1.31544e-06,2.95933e-06,0,3.29489e-07,-1.67182e+09,-1.6716e+09,-1.67199e+09,44036.1,-0.0233874,0.00678332,-0,0.0243513,16452.7,-57719.4,0,60018.5,44036.1
step02_gravity_refstate-mantle.xmf,1229,1.37635e-06,2.87635e-06,0,1.53726e-07,-1.71054e+09,-1.71034e+09,-1.71073e+09,20545.5,-0.0229939,0.00314334,-0,0.0232077,17315.6,-58915.7,0,61407.6,20545.5
step02_gravity_refstate-mantle.xmf,1230,1.36534e-06,2.85624e-06,0,-3.01038e-09,-1.74565e+09,-1.74545e+09,-1.74583e+09,-402.338,-0.022228,-3.03489e-19,-0,0.022228,18026.3,-60000,0,62649.4,402.338
step02_gravity_refstate-mantle.xmf,1231,-4.60068e-06,1.67489e-05,0,5.90306e-06,-1.64296e+09,-1.6401e+09,-1.64234e+09,788943,0.02542,0.0612478,0,0.0663134,-2542.12,-56823.6,-0,56880.4,788943
step02_gravity_refstate-mantle.xmf,1232,-3.43622e-06,1.5346e-05,0,1.87123e-06,-1.70749e+09,-1.70498e+09,-1.70703e+09,250090,0.0346363,0.0185275,0,0.0392803,-3573.59,-58821.3,-0,58929.7,250090
step02_gravity_refstate-mantle.xmf,1233,-2.50325e-06,1.37692e-05,0,8.82653e-07,-1.72314e+09,-1.72097e+09,-1.72281e+09,117967,0.0366187,0.00964588,0,0.0378679,-4074.75,-59306.9,-0,59446.7,117967
step02_gravity_refstate-mantle.xmf,1234,-2.08662e-06,1.30546e-05,0,-1.86976e-08,-1.74555e+09,-1.74353e+09,-1.74527e+09,-2498.93,0.0375358,-1.55903e-19,0,0.0375358,-4348.74,-60000,-0,60157.4,2498.93
step02_gravity_refstate-mantle.xmf,1235,-6.50962e-06,1.65299e-05,0,1.41351e-05,-1.5938e+09,-1.59072e+09,-1.59293e+09,1.88916e+06,0.0108498,0.115511,0,0.11602,-1392.2,-55291.8,-0,55309.4,1.88916e+06
step02_gravity_refstate-mantle.xmf,1236,-6.49137e-06,1.57185e-05,0,1.74425e-05,-1.58441e+09,-1.58145e+09,-1.58355e+09,2.33119e+06,0.00712208,0.134186,0,0.134375,-1000,-54999.9,-0,55009,2.33119e+06
step02_gravity_refstate-mantle.xmf,1237,1.11557e-07,1.86126e-06,0,-1.73709e-05,-1.50321e+09,-1.50298e+09,-1.50322e+09,-2.32163e+06,0.00118167,0.1561,0,0.156105,1000,-52500.2,0,52509.7,2.32163e+06
step02_gravity_refstate-mantle.xmf,1238,-1.76801e-06,5.01634e-06,0,-8.8047e-07,-1.44403e+09,-1.44312e+09,-1.44379e+09,-117675,-0.00492854,0.0515053,-0,0.0517406,8429.63,-50667.5,0,51363.9,117675
step02_gravity_refstate-mantle.xmf,1239,-2.54524e-06,4.55433e-06,0,-3.69034e-06,-1.43082e+09,-1.42987e+09,-1.43048e+09,-493213,0.00408904,0.079944,0,0.0800485,5086.68,-50253.2,0,50510,493213
step02_gravity_refstate-mantle.xmf,1240,-2.5849e-06,4.40345e-06,0,-4.35583e-06,-1.44036e+09,-1.43943e+09,-1.44001e+09,-582157,0.00460065,0.0855739,0,0.0856974,4482.48,-50547.2,0,50745.6,582157
step02_gravity_refstate-mantle.xmf,1241,-2.52355e-06,4.18505e-06,0,-5.17035e-06,-1.45178e+09,-1.45089e+09,-1.45145e+09,-691017,0.00480654,0.0922247,0,0.0923499,3869.95,-50899.9,0,51046.8,691017
step02_gravity_refstate-mantle.xmf,1242,-1.94268e-06,5.29028e-06,0,-1.10012e-06,-1.45709e+09,-1.45612e+09,-1.45683e+09,-147030,-0.00515948,0.0538013,-0,0.0540481,7693.01,-51070.5,0,51646.7,147030
step02_gravity_refstate-mantle.xmf,1243,5.64411e-07,3.48543e-06,0,6.64879e-07,-1.55662e+09,-1.55623e+09,-1.5567e+09,88861,-0.0195621,0.0195098,-0,0.0276281,14273.7,-54157.2,0,56006.6,88861
step02_gravity_refstate-mantle.xmf,1244,3.04459e-07,3.75077e-06,0,6.59283e-07,-1.53928e+09,-1.53882e+09,-1.53933e+09,88113.2,-0.0185927,0.0227393,-0,0.0293729,13285,-53620.6,0,55241.9,88113.2
step02_gravity_refstate-mantle.xmf,1245,2.97114e-08,4.01247e-06,0,6.07186e-07,-1.5246e+09,-1.52407e+09,-1.52461e+09,81150.4,-0.0173932,0.0259991,-0,0.0312806,12412.4,-53166,0,54595.7,81150.4
step02_gravity_refstate-mantle.xmf,1246,-2.97196e-07,4.27333e-06,0,4.90932e-07,-1.50816e+09,-1.50755e+09,-1.50812e+09,65613.1,-0.0156184,0.0298826,-0,0.033718,11602.1,-52656.6,0,53919.6,65613.1
step02_gravity_refstate-mantle.xmf,1247,-6.78835e-07,4.54136e-06,0,2.83939e-07,-1.49092e+09,-1.49022e+09,-1.49083e+09,37948.4,-0.0133169,0.0345769,-0,0.0370527,10759.1,-52122,0,53220.9,37948.4
step02_gravity_refstate-mantle.xmf,1248,-1.0675e-06,4.77064e-06,0,-1.28926e-08,-1.47438e+09,-1.4736e+09,-1.47423e+09,-1723.1,-0.0106982,0.0397677,-0,0.0411815,9952.05,-51609.1,0,52559.9,1723.1
step02_gravity_refstate-mantle.xmf,1249,-1.43735e-06,4.9374e-06,0,-3.98525e-07,-1.45888e+09,-1.45802e+09,-1.45868e+09,-53262.9,-0.00788717,0.0453935,-0,0.0460736,9178.09,-51128.2,0,51945.5,53262.9
step02_gravity_refstate-mantle.xmf,1250,1.17498e-06,3.01933e-06,0,4.62143e-07,-1.63581e+09,-1.63557e+09,-1.63597e+09,61765.4,-0.0225186,0.0102175,-0,0.0247282,16143.7,-56606.3,0,58863.4,61765.4
step02_gravity_refstate-mantle.xmf,1251,-5.99576e-06,1.84849e-05,0,8.01599e-06,-1.63254e+09,-1.62927e+09,-1.63174e+09,1.07134e+06,0.0212333,0.0762027,0,0.0791057,-2047.92,-56496.8,-0,56533.9,1.07134e+06
step02_gravity_refstate-mantle.xmf,1252,-3.94512e-06,1.62864e-05,0,3.79803e-06,-1.67708e+09,-1.67437e+09,-1.67655e+09,507606,0.0310457,0.0373942,0,0.048602,-3032.53,-57880.7,-0,57960.1,507606
step02_gravity_refstate-mantle.xmf,1253,-4.86581e-06,1.79793e-05,0,5.49564e-06,-1.66074e+09,-1.65769e+09,-1.66009e+09,734493,0.0272342,0.0526806,0,0.0593038,-2476.55,-57374.4,-0,57427.8,734493
step02_gravity_refstate-mantle.xmf,1254,-4.09659e-06,1.64452e-05,0,2.79947e-06,-1.69588e+09,-1.69314e+09,-1.69534e+09,374149,0.0327963,0.0264001,0,0.0421018,-3207.75,-58461,-0,58549,374149
step02_gravity_refstate-mantle.xmf,1255,-7.09983e-06,1.9348e-05,0,1.04944e-05,-1.62237e+09,-1.61883e+09,-1.62142e+09,1.40257e+06,0.0171632,0.0909931,0,0.0925976,-1678.38,-56177.5,-0,56202.6,1.40257e+06
step02_gravity_refstate-mantle.xmf,1256,-7.5943e-06,1.91868e-05,0,1.34202e-05,-1.61047e+09,-1.60689e+09,-1.60946e+09,1.7936e+06,0.012969,0.107418,0,0.108198,-1358.64,-55806.3,-0,55822.9,1.7936e+06
step02_gravity_refstate-mantle.xmf,1257,-2.21579e-06,4.19578e-06,0,-6.66994e-06,-1.47827e+09,-1.47741e+09,-1.47798e+09,-891437,0.00276261,0.100871,0,0.100908,3131.19,-51720.3,0,51814.9,891437
step02_gravity_refstate-mantle.xmf,1258,-1.39947e-06,3.64501e-06,0,-1.01914e-05,-1.49701e+09,-1.49634e+09,-1.49682e+09,-1.36208e+06,0.00135166,0.11924,0,0.119247,2186.17,-52303.1,0,52348.8,1.36208e+06
step02_gravity_refstate-mantle.xmf,1259,-1.83453e-06,3.90243e-06,0,-8.19578e-06,-1.48824e+09,-1.48748e+09,-1.488e+09,-1.09537e+06,0.00208561,0.109293,0,0.109313,2649.71,-52030,0,52097.5,1.09537e+06
step02_gravity_refstate-mantle.xmf,1260,-1.16536e-06,4.65704e-06,0,-1.77789e-05,-1.51942e+09,-1.51864e+09,-1.51926e+09,-2.37615e+06,-0.000488754,0.154467,-0,0.154468,1000,-52999.4,0,53008.9,2.37615e+06
step02_gravity_refstate-mantle.xmf,1261,-1.2072e-06,4.39004e-06,0,-1.44685e-05,-1.51355e+09,-1.5128e+09,-1.51339e+09,-1.93371e+06,-0.000321402,0.138422,-0,0.138423,1466.48,-52817.2,0,52837.6,1.93371e+06
step02_gravity_refstate-mantle.xmf,1262,-9.711e-07,3.38426e-06,0,-1.24251e-05,-1.50266e+09,-1.50208e+09,-1.50253e+09,-1.66062e+06,0.000938144,0.130167,0,0.130171,1768.67,-52479.8,0,52509.6,1.66062e+06
step02_gravity_refstate-mantle.xmf,1263,-2.5355e-06,5.10498e-06,0,-2.8481e-06,-1.44345e+09,-1.44243e+09,-1.44311e+09,-380648,0.00113127,0.0719266,0,0.0719355,5686.32,-50644.7,0,50962.9,380648
step02_gravity_refstate-mantle.xmf,1264,-2.10947e-06,5.55547e-06,0,-1.37803e-06,-1.46892e+09,-1.46789e+09,-1.46863e+09,-184174,-0.00531638,0.0566277,-0,0.0568768,6988.04,-51435.4,0,51907.9,184174
step02_gravity_refstate-mantle.xmf,1265,-2.38202e-06,5.42735e-06,0,-2.07271e-06,-1.45597e+09,-1.45492e+09,-1.45565e+09,-277018,-0.00204693,0.0640758,-0,0.0641085,6325.09,-51033.3,0,51423.8,277018
step02_gravity_refstate-mantle.xmf,1266,1.06023e-06,3.18876e-06,0,5.56917e-07,-1.61652e+09,-1.61624e+09,-1.61666e+09,74432,-0.0226397,0.0125326,-0,0.0258771,15225.7,-56010.1,0,58042.7,74432
step02_gravity_refstate-mantle.xmf,1267,8.75998e-07,3.41295e-06,0,6.40852e-07,-1.59479e+09,-1.59445e+09,-1.59491e+09,85649.8,-0.0223153,0.0154763,-0,0.0271567,14232.7,-55338.3,0,57139.3,85649.8
step02_gravity_refstate-mantle.xmf,1268,1.26957e-06,3.12775e-06,0,4.38036e-07,-1.65214e+09,-1.65189e+09,-1.65231e+09,58543.5,-0.0242818,0.00903843,-0,0.0259094,15246.2,-57111.5,0,59111.5,58543.5
step02_gravity_refstate-mantle.xmf,1269,1.438e-06,3.01444e-06,0,1.64991e-07,-1.71208e+09,-1.71187e+09,-1.71227e+09,22051.1,-0.0248146,0.00314451,-0,0.025013,16036.5,-58963.9,0,61105.8,22051.1
step02_gravity_refstate-mantle.xmf,1270,1.43317e-06,2.97492e-06,0,-4.17698e-09,-1.74562e+09,-1.74542e+09,-1.74581e+09,-558.253,-0.0240628,-3.03102e-19,-0,0.0240628,16714.6,-60000,0,62284.6,558.253
step02_gravity_refstate-mantle.xmf,1271,-6.17864e-06,2.0045e-05,0,7.21115e-06,-1.64977e+09,-1.64626e+09,-1.64894e+09,963770,0.0233278,0.0670382,0,0.0709811,-1989.89,-57031.8,-0,57066.5,963770
step02_gravity_refstate-mantle.xmf,1272,-4.98772e-06,1.78095e-05,0,2.27309e-06,-1.71126e+09,-1.70821e+09,-1.71059e+09,303798,0.0324193,0.0194218,0,0.0377917,-3023.39,-58933.6,-0,59011.1,303798
step02_gravity_refstate-mantle.xmf,1273,-4.33946e-06,1.67527e-05,0,1.10423e-06,-1.72709e+09,-1.72427e+09,-1.72651e+09,147580,0.0341705,0.00971927,0,0.0355258,-3340.21,-59424.1,-0,59517.9,147580
step02_gravity_refstate-mantle.xmf,1274,-3.56103e-06,1.55165e-05,0,-1.73701e-08,-1.74567e+09,-1.74312e+09,-1.74519e+09,-2321.51,0.0356236,-1.71454e-19,0,0.0356236,-3671.61,-60000,-0,60112.2,2321.51
step02_gravity_refstate-mantle.xmf,1275,-7.84669e-06,1.86684e-05,0,1.68154e-05,-1.60063e+09,-1.59708e+09,-1.59958e+09,2.24738e+06,0.00890945,0.125596,0,0.125911,-1000,-55499.2,-0,55508.2,2.24738e+06
step02_gravity_refstate-mantle.xmf,1276,-2.45582e-06,4.44482e-06,0,-5.61662e-06,-1.46862e+09,-1.4677e+09,-1.46829e+09,-750661,0.00318591,0.094243,0,0.0942968,3590.35,-51421.2,0,51546.4,750661
step02_gravity_refstate-mantle.xmf,1277,-2.48177e-06,7.37739e-06,0,-1.79884e-05,-1.53566e+09,-1.53434e+09,-1.53532e+09,-2.40415e+06,-0.00212703,0.151459,-0,0.151474,1000,-53499.2,0,53508.6,2.40415e+06
step02_gravity_refstate-mantle.xmf,1278,-1.97092e-06,6.23876e-06,0,-1.57556e-05,-1.52755e+09,-1.52645e+09,-1.52729e+09,-2.10573e+06,-0.00190108,0.141508,-0,0.141521,1311.4,-53249.3,0,53265.5,2.10573e+06
step02_gravity_refstate-mantle.xmf,1279,-1.58195e-06,5.2458e-06,0,-5.50771e-07,-1.47293e+09,-1.47201e+09,-1.47271e+09,-73610.5,-0.00845618,0.0471272,-0,0.0478799,8390.5,-51562.1,0,52240.3,73610.5
step02_gravity_refstate-mantle.xmf,1280,-2.64391e-06,5.11943e-06,0,-3.47338e-06,-1.45331e+09,-1.45227e+09,-1.45295e+09,-464218,0.00155618,0.0770892,0,0.0771049,5040.38,-50948.6,0,51197.3,464218
step02_gravity_refstate-mantle.xmf,1281,-2.66592e-06,4.94621e-06,0,-4.19039e-06,-1.45819e+09,-1.45717e+09,-1.45783e+09,-560045,0.00242418,0.0832179,0,0.0832532,4465.15,-51098.8,0,51293.5,560045
step02_gravity_refstate-mantle.xmf,1282,-1.75322e-06,5.54762e-06,0,-7.88206e-07,-1.48371e+09,-1.48273e+09,-1.48347e+09,-105344,-0.00869711,0.0496123,-0,0.0503689,7648.86,-51894.7,0,52455.4,105344
step02_gravity_refstate-mantle.xmf,1283,6.31806e-07,3.67412e-06,0,6.85726e-07,-1.574e+09,-1.5736e+09,-1.57409e+09,91647.3,-0.0215102,0.0187438,-0,0.028531,13289.2,-54695.1,0,56286.4,91647.3
step02_gravity_refstate-mantle.xmf,1284,3.48072e-07,3.95797e-06,0,6.79411e-07,-1.55575e+09,-1.55527e+09,-1.55579e+09,90803.2,-0.0203737,0.0221932,-0,0.0301268,12392.2,-54130,0,55530.4,90803.2
step02_gravity_refstate-mantle.xmf,1285,2.40604e-08,4.25056e-06,0,6.14434e-07,-1.53867e+09,-1.53811e+09,-1.53868e+09,82119.1,-0.018843,0.0259667,-0,0.0320831,11554.4,-53601.2,0,54832.4,82119.1
step02_gravity_refstate-mantle.xmf,1286,-3.51786e-07,4.55233e-06,0,4.72147e-07,-1.5216e+09,-1.52095e+09,-1.52156e+09,63102.5,-0.0168282,0.0303464,-0,0.0347,10728.7,-53072.1,0,54145.7,63102.5
step02_gravity_refstate-mantle.xmf,1287,-7.63954e-07,4.83999e-06,0,2.35952e-07,-1.50478e+09,-1.50403e+09,-1.50468e+09,31534.9,-0.0143621,0.0353602,-0,0.0381656,9920.57,-52550.5,0,53478.7,31534.9
step02_gravity_refstate-mantle.xmf,1288,-1.18621e-06,5.08474e-06,0,-1.00948e-07,-1.48878e+09,-1.48794e+09,-1.48862e+09,-13491.6,-0.011565,0.040945,-0,0.0425469,9136.07,-52054,0,52849.6,13491.6
step02_gravity_refstate-mantle.xmf,1289,1.39973e-06,3.1012e-06,0,3.09912e-07,-1.68397e+09,-1.68374e+09,-1.68415e+09,41419.7,-0.0252538,0.00593911,-0,0.0259428,15325.4,-58095.5,0,60082.9,41419.7
step02_gravity_refstate-mantle.xmf,1290,-8.37836e-06,2.25226e-05,0,1.01784e-05,-1.63872e+09,-1.63459e+09,-1.6376e+09,1.36034e+06,0.0180652,0.085603,0,0.0874884,-1476.4,-56682.1,-0,56701.3,1.36034e+06
step02_gravity_refstate-mantle.xmf,1291,-5.31056e-06,1.85695e-05,0,3.60599e-06,-1.69523e+09,-1.69204e+09,-1.69452e+09,481941,0.0305613,0.0303108,0,0.0430435,-2738.99,-58438.2,-0,58502.3,481941
step02_gravity_refstate-mantle.xmf,1292,-5.6802e-06,1.95893e-05,0,5.11868e-06,-1.67965e+09,-1.67628e+09,-1.67889e+09,684111,0.0280222,0.0429889,0,0.0513156,-2379.01,-57957.1,-0,58005.9,684111
step02_gravity_refstate-mantle.xmf,1293,-6.47632e-06,2.14105e-05,0,6.70388e-06,-1.66706e+09,-1.66333e+09,-1.66619e+09,895974,0.0246269,0.0569161,0,0.0620155,-1932.12,-57567.4,-0,57599.8,895974
step02_gravity_refstate-mantle.xmf,1294,-8.66086e-06,2.18676e-05,0,1.29279e-05,-1.62469e+09,-1.62061e+09,-1.62354e+09,1.72782e+06,0.0143853,0.100701,0,0.101723,-1284.61,-56245.3,-0,56260,1.72782e+06
step02_gravity_refstate-mantle.xmf,1295,-9.16522e-06,2.17568e-05,0,1.58773e-05,-1.61683e+09,-1.6127e+09,-1.6156e+09,2.12201e+06,0.0107997,0.115488,0,0.115991,-1000,-55998.8,-0,56007.7,2.12201e+06
step02_gravity_refstate-mantle.xmf,1296,-2.62821e-06,5.1701e-06,0,-4.55644e-06,-1.47244e+09,-1.4714e+09,-1.47209e+09,-608968,0.00120254,0.0853799,0,0.0853884,4139.47,-51539.9,0,51705.9,608968
step02_gravity_refstate-mantle.xmf,1297,-2.52045e-06,5.27158e-06,0,-5.37683e-06,-1.4859e+09,-1.48486e+09,-1.48557e+09,-718613,0.000178171,0.090099,0,0.0900992,3685.66,-51956.7,0,52087.3,718613
step02_gravity_refstate-mantle.xmf,1298,-2.33274e-06,5.30975e-06,0,-6.70661e-06,-1.49776e+09,-1.49674e+09,-1.49745e+09,-896339,-0.000640709,0.0974073,-0,0.0974094,3162.56,-52324.2,0,52419.7,896339
step02_gravity_refstate-mantle.xmf,1299,-3.0398e-06,8.53364e-06,0,-1.55274e-05,-1.54239e+09,-1.54084e+09,-1.54198e+09,-2.07523e+06,-0.00389274,0.136338,-0,0.136393,1362.17,-53706.4,0,53723.6,2.07523e+06
step02_gravity_refstate-mantle.xmf,1300,-1.9676e-06,5.57603e-06,0,-1.11226e-05,-1.51674e+09,-1.51573e+09,-1.51648e+09,-1.48653e+06,-0.00174801,0.119367,-0,0.11938,2076.93,-52913.7,0,52954.4,1.48653e+06
step02_gravity_refstate-mantle.xmf,1301,-2.12238e-06,5.36834e-06,0,-8.5238e-06,-1.50774e+09,-1.50673e+09,-1.50745e+09,-1.13921e+06,-0.00130209,0.106648,-0,0.106656,2642.91,-52634,0,52700.3,1.13921e+06
step02_gravity_refstate-mantle.xmf,1302,-2.33611e-06,6.84187e-06,0,-1.33514e-05,-1.52979e+09,-1.52856e+09,-1.52948e+09,-1.78442e+06,-0.00304179,0.127954,-0,0.127991,1702.61,-53317.6,0,53344.8,1.78442e+06
step02_gravity_refstate-mantle.xmf,1303,-2.52501e-06,5.6003e-06,0,-2.5565e-06,-1.46721e+09,-1.46612e+09,-1.46687e+09,-341676,-0.00195063,0.0683836,-0,0.0684114,5646.03,-51380,0,51689.3,341676
step02_gravity_refstate-mantle.xmf,1304,-1.90607e-06,5.84129e-06,0,-1.07364e-06,-1.49346e+09,-1.49242e+09,-1.4932e+09,-143492,-0.00888651,0.0525154,-0,0.0532619,6957.59,-52195.6,0,52657.3,143492
step02_gravity_refstate-mantle.xmf,1305,-2.25608e-06,5.824e-06,0,-1.74631e-06,-1.48064e+09,-1.47956e+09,-1.48034e+09,-233394,-0.00554029,0.0599664,-0,0.0602218,6302.65,-51797.4,0,52179.5,233394
step02_gravity_refstate-mantle.xmf,1306,1.14183e-06,3.34993e-06,0,5.57699e-07,-1.631e+09,-1.63071e+09,-1.63116e+09,74536.5,-0.0245537,0.0117154,-0,0.0272054,14196.8,-56458.5,0,58216,74536.5
step02_gravity_refstate-mantle.xmf,1307,9.40432e-07,3.60517e-06,0,6.46699e-07,-1.60858e+09,-1.60823e+09,-1.60871e+09,86431.3,-0.0241618,0.0149002,-0,0.0283867,13242.4,-55765.2,0,57316,86431.3
step02_gravity_refstate-mantle.xmf,1308,1.38045e-06,3.31792e-06,0,4.03666e-07,-1.67133e+09,-1.67107e+09,-1.67151e+09,53950,-0.0265856,0.00762209,-0,0.0276566,14074.1,-57705.6,0,59397.1,53950
step02_gravity_refstate-mantle.xmf,1309,1.49622e-06,3.18207e-06,0,1.83206e-07,-1.71248e+09,-1.71225e+09,-1.71268e+09,24485.4,-0.0266079,0.00327627,-0,0.0268088,14817.6,-58977.1,0,60810.1,24485.4
step02_gravity_refstate-mantle.xmf,1310,1.49729e-06,3.12227e-06,0,-4.90007e-09,-1.7456e+09,-1.74538e+09,-1.7458e+09,-654.895,-0.0258924,-3.15237e-19,-0,0.0258924,15465.3,-60000,0,61961.1,654.895
step02_gravity_refstate-mantle.xmf,1311,-8.3957e-06,2.45791e-05,0,8.53646e-06,-1.65683e+09,-1.65242e+09,-1.65571e+09,1.1409e+06,0.0202912,0.0725157,0,0.0753011,-1464.2,-57246.7,-0,57265.4,1.1409e+06
step02_gravity_refstate-mantle.xmf,1312,-6.49924e-06,2.02069e-05,0,2.94108e-06,-1.70971e+09,-1.70615e+09,-1.70885e+09,393075,0.0296375,0.0230828,0,0.0375659,-2543.69,-58881.8,-0,58936.8,393075
step02_gravity_refstate-mantle.xmf,1313,-6.59829e-06,2.02037e-05,0,1.51269e-06,-1.7273e+09,-1.72372e+09,-1.72642e+09,202171,0.0303546,0.0116777,0,0.0325234,-2640.94,-59424.4,-0,59483.1,202171
step02_gravity_refstate-mantle.xmf,1314,-5.43908e-06,1.84182e-05,0,-2.71503e-08,-1.74583e+09,-1.74264e+09,-1.7451e+09,-3628.64,0.0326966,-2.18075e-19,0,0.0326966,-3021.02,-60000,-0,60076,3628.64
step02_gravity_refstate-mantle.xmf,1315,-3.79972e-06,1.01066e-05,0,-1.79919e-05,-1.55192e+09,-1.55006e+09,-1.55141e+09,-2.40462e+06,-0.00375944,0.147082,-0,0.14713,1000,-53999.7,0,54008.9,2.40462e+06
step02_gravity_refstate-mantle.xmf,1316,-1.30473e-06,5.47238e-06,0,-2.57223e-07,-1.50507e+09,-1.50417e+09,-1.5049e+09,-34377.9,-0.0127087,0.0424947,-0,0.0443543,8257.35,-52557.4,0,53202.1,34377.9
step02_gravity_refstate-mantle.xmf,1317,-2.62549e-06,5.69662e-06,0,-3.36216e-06,-1.47737e+09,-1.47626e+09,-1.47702e+09,-449352,-0.00154388,0.0748328,-0,0.0748487,4887.17,-51693.6,0,51924.1,449352
step02_gravity_refstate-mantle.xmf,1318,-1.56271e-06,5.77852e-06,0,-6.04317e-07,-1.50626e+09,-1.50528e+09,-1.50605e+09,-80766.9,-0.0117872,0.0466656,-0,0.0481313,7486.77,-52593.1,0,53123.3,80766.9
step02_gravity_refstate-mantle.xmf,1319,6.83338e-07,3.88826e-06,0,6.91846e-07,-1.58825e+09,-1.58782e+09,-1.58834e+09,92465.2,-0.0233018,0.0182866,-0,0.0296204,12365.7,-55135.9,0,56505.6,92465.2
step02_gravity_refstate-mantle.xmf,1320,3.7593e-07,4.20208e-06,0,6.8032e-07,-1.56989e+09,-1.56938e+09,-1.56994e+09,90924.8,-0.022065,0.0219755,-0,0.0311414,11507.9,-54567.8,0,55768,90924.8
step02_gravity_refstate-mantle.xmf,1321,1.65496e-08,4.53163e-06,0,5.98879e-07,-1.5525e+09,-1.5519e+09,-1.5525e+09,80040.1,-0.0203772,0.0261177,-0,0.0331265,10684.1,-54029,0,55075.3,80040.1
step02_gravity_refstate-mantle.xmf,1322,-3.89562e-07,4.85991e-06,0,4.32443e-07,-1.53565e+09,-1.53495e+09,-1.53559e+09,57796,-0.0182179,0.0308209,-0,0.0358025,9891.77,-53506.5,0,54413.1,57796
step02_gravity_refstate-mantle.xmf,1323,-8.40227e-07,5.17002e-06,0,1.57093e-07,-1.51875e+09,-1.51794e+09,-1.51864e+09,20995.4,-0.0155334,0.0362871,-0,0.039472,9112.21,-52982.2,0,53760.1,20995.4
step02_gravity_refstate-mantle.xmf,1324,-1.04035e-05,2.50626e-05,0,1.4436e-05,-1.63302e+09,-1.62828e+09,-1.63163e+09,1.92938e+06,0.0127886,0.103774,0,0.104559,-1000,-56499,-0,56507.8,1.92938e+06
step02_gravity_refstate-mantle.xmf,1325,-1.14455e-05,2.84458e-05,0,1.24128e-05,-1.64917e+09,-1.64384e+09,-1.64764e+09,1.65897e+06,0.0147668,0.090401,0,0.0915991,-1000,-56999.5,-0,57008.3,1.65897e+06
step02_gravity_refstate-mantle.xmf,1326,-7.06613e-06,2.14657e-05,0,4.33608e-06,-1.69773e+09,-1.69392e+09,-1.69679e+09,579517,0.0275351,0.0329661,0,0.0429528,-2245.57,-58511.2,-0,58554.3,579517
step02_gravity_refstate-mantle.xmf,1327,-7.57318e-06,2.31165e-05,0,6.2509e-06,-1.68356e+09,-1.67946e+09,-1.68255e+09,835433,0.0247086,0.0465041,0,0.0526606,-1871.05,-58074.3,-0,58104.4,835433
step02_gravity_refstate-mantle.xmf,1328,-7.74327e-06,2.57854e-05,0,8.43232e-06,-1.67291e+09,-1.66843e+09,-1.67188e+09,1.12698e+06,0.0211275,0.0602751,0,0.0638706,-1439.64,-57750.9,-0,57768.9,1.12698e+06
step02_gravity_refstate-mantle.xmf,1329,-2.59505e-06,5.9501e-06,0,-4.06926e-06,-1.49263e+09,-1.49149e+09,-1.49228e+09,-543856,-0.00266607,0.0791194,-0,0.0791643,4338.16,-52165.8,0,52345.9,543856
step02_gravity_refstate-mantle.xmf,1330,-2.5388e-06,6.24588e-06,0,-5.23586e-06,-1.50697e+09,-1.50579e+09,-1.50663e+09,-699772,-0.00370989,0.0857031,-0,0.0857833,3724.34,-52609.7,0,52741.4,699772
step02_gravity_refstate-mantle.xmf,1331,-2.50207e-06,6.57934e-06,0,-6.7496e-06,-1.51798e+09,-1.51676e+09,-1.51764e+09,-902084,-0.00442589,0.0935235,-0,0.0936282,3170.69,-52951,0,53045.8,902084
step02_gravity_refstate-mantle.xmf,1332,-4.2294e-06,1.11468e-05,0,-1.52299e-05,-1.55955e+09,-1.5575e+09,-1.55899e+09,-2.03547e+06,-0.00620509,0.1302,-0,0.130348,1388.88,-54235.3,0,54253.1,2.03547e+06
step02_gravity_refstate-mantle.xmf,1333,-3.4277e-06,9.46619e-06,0,-1.29624e-05,-1.54936e+09,-1.54763e+09,-1.5489e+09,-1.73242e+06,-0.00618993,0.120908,-0,0.121066,1770.68,-53921.4,0,53950.5,1.73242e+06
step02_gravity_refstate-mantle.xmf,1334,-2.55915e-06,7.09183e-06,0,-8.65131e-06,-1.52782e+09,-1.52653e+09,-1.52748e+09,-1.15625e+06,-0.00498732,0.102683,-0,0.102804,2646.83,-53255.9,0,53321.7,1.15625e+06
step02_gravity_refstate-mantle.xmf,1335,-2.85827e-06,8.07256e-06,0,-1.08472e-05,-1.53854e+09,-1.53708e+09,-1.53816e+09,-1.44973e+06,-0.00564187,0.11231,-0,0.112452,2166.68,-53587.5,0,53631.3,1.44973e+06
step02_gravity_refstate-mantle.xmf,1336,-2.36722e-06,6.09979e-06,0,-2.23409e-06,-1.49247e+09,-1.49134e+09,-1.49215e+09,-298586,-0.00589067,0.0639159,-0,0.0641868,5634.58,-52162.6,0,52466,298586
step02_gravity_refstate-mantle.xmf,1337,-1.60602e-06,6.09521e-06,0,-7.8958e-07,-1.51863e+09,-1.5176e+09,-1.51841e+09,-105527,-0.0128918,0.0480152,-0,0.0497158,6935.27,-52975.8,0,53427.8,105527
step02_gravity_refstate-mantle.xmf,1338,-2.02097e-06,6.18356e-06,0,-1.43845e-06,-1.50534e+09,-1.50425e+09,-1.50507e+09,-192249,-0.00948435,0.055536,-0,0.05634,6282.83,-52562.9,0,52937.1,192249
step02_gravity_refstate-mantle.xmf,1339,1.20027e-06,3.55387e-06,0,5.51971e-07,-1.64154e+09,-1.64123e+09,-1.6417e+09,73770.9,-0.0263399,0.0113055,-0,0.0286637,13177.3,-56784.9,0,58293.8,73770.9
step02_gravity_refstate-mantle.xmf,1340,9.92925e-07,3.82481e-06,0,6.40488e-07,-1.62036e+09,-1.61998e+09,-1.62049e+09,85601.3,-0.0259038,0.0145096,-0,0.0296906,12320.1,-56129.9,0,57466.1,85601.3
step02_gravity_refstate-mantle.xmf,1341,1.54619e-06,3.38781e-06,0,1.81836e-07,-1.71534e+09,-1.71509e+09,-1.71555e+09,24302.3,-0.0283886,0.00318135,-0,0.0285663,13679.1,-59066.4,0,60629.7,24302.3
step02_gravity_refstate-mantle.xmf,1342,1.55491e-06,3.3064e-06,0,-4.09367e-09,-1.74557e+09,-1.74534e+09,-1.74578e+09,-547.119,-0.0277078,-3.05597e-19,-0,0.0277078,14275.5,-60000,0,61674.9,547.119
step02_gravity_refstate-mantle.xmf,1343,-1.15462e-05,3.16905e-05,0,9.19529e-06,-1.66511e+09,-1.65933e+09,-1.66356e+09,1.22895e+06,0.016372,0.0753802,0,0.0771377,-1000,-57499.6,-0,57508.3,1.22895e+06
step02_gravity_refstate-mantle.xmf,1344,-8.3891e-06,2.28978e-05,0,2.71984e-06,-1.71703e+09,-1.71285e+09,-1.71591e+09,363506,0.0264549,0.0207287,0,0.0336087,-2117.92,-59102.1,-0,59140,363506
step02_gravity_refstate-mantle.xmf,1345,-7.66858e-06,2.16655e-05,0,-8.01897e-09,-1.74605e+09,-1.74212e+09,-1.74502e+09,-1071.73,0.028579,-1.6572e-19,0,0.028579,-2393.33,-60000,-0,60047.7,1071.73
step02_gravity_refstate-mantle.xmf,1346,-5.13387e-06,1.28736e-05,0,-1.78103e-05,-1.56818e+09,-1.56577e+09,-1.56749e+09,-2.38035e+06,-0.0054145,0.141331,-0,0.141434,1000,-54500.1,0,54509.3,2.38035e+06
step02_gravity_refstate-mantle.xmf,1347,-1.17551e-06,5.86827e-06,0,-2.81151e-07,-1.53069e+09,-1.52975e+09,-1.53054e+09,-37575.8,-0.0157956,0.041463,-0,0.0443698,7619.57,-53350.8,0,53892.2,37575.8
step02_gravity_refstate-mantle.xmf,1348,-2.44641e-06,6.39375e-06,0,-2.96032e-06,-1.50385e+09,-1.50266e+09,-1.50352e+09,-395647,-0.00624533,0.0690126,-0,0.0692946,4959.77,-52514.3,0,52748,395647
step02_gravity_refstate-mantle.xmf,1349,7.27999e-07,4.14052e-06,0,6.79435e-07,-1.6013e+09,-1.60085e+09,-1.6014e+09,90806.5,-0.0250852,0.017987,-0,0.0308675,11468.2,-55540.2,0,56711.8,90806.5
step02_gravity_refstate-mantle.xmf,1350,3.99148e-07,4.48864e-06,0,6.55362e-07,-1.58321e+09,-1.58266e+09,-1.58326e+09,87589.2,-0.0237803,0.0219253,-0,0.0323454,10642,-54980,0,56000.5,87589.2
step02_gravity_refstate-mantle.xmf,1351,2.4412e-08,4.84862e-06,0,5.546e-07,-1.56671e+09,-1.56607e+09,-1.56672e+09,74122.3,-0.0220721,0.0262682,-0,0.0343103,9852.23,-54468.9,0,55352.7,74122.3
step02_gravity_refstate-mantle.xmf,1352,-8.43289e-07,5.5057e-06,0,7.36609e-08,-1.53489e+09,-1.53404e+09,-1.53478e+09,9844.78,-0.0172249,0.0366749,-0,0.0405184,8409.23,-53481.6,0,54138.7,9844.78
step02_gravity_refstate-mantle.xmf,1353,-3.96528e-07,5.19775e-06,0,3.64079e-07,-1.55062e+09,-1.54987e+09,-1.55057e+09,48659.2,-0.0198704,0.031189,-0,0.0369808,9106.4,-53969.9,0,54732.8,48659.2
step02_gravity_refstate-mantle.xmf,1354,1.3727e-06,3.55945e-06,0,4.46401e-07,-1.66729e+09,-1.66699e+09,-1.66747e+09,59661.5,-0.0279277,0.00860459,-0,0.0292232,12976.4,-57581.3,0,59025.3,59661.5
step02_gravity_refstate-mantle.xmf,1355,1.49691e-06,3.50807e-06,0,3.19442e-07,-1.69211e+09,-1.69185e+09,-1.69231e+09,42693.5,-0.0287,0.00582128,-0,0.0292844,13107.6,-58348.9,0,59803.1,42693.5
step02_gravity_refstate-mantle.xmf,1356,-9.62557e-06,2.49944e-05,0,4.31966e-06,-1.70319e+09,-1.69856e+09,-1.7019e+09,577322,0.0232761,0.0334293,0,0.0407344,-1741.88,-58671.6,-0,58697.5,577322
step02_gravity_refstate-mantle.xmf,1357,-1.11311e-05,2.75317e-05,0,5.82811e-06,-1.69022e+09,-1.68506e+09,-1.68874e+09,778927,0.0201527,0.0471455,0,0.0512721,-1393.13,-58267.6,-0,58284.2,778927
step02_gravity_refstate-mantle.xmf,1358,-1.41514e-05,3.06009e-05,0,6.85266e-06,-1.68196e+09,-1.67598e+09,-1.68007e+09,915858,0.0161112,0.0588584,0,0.0610236,-1000,-58000,-0,58008.6,915858
step02_gravity_refstate-mantle.xmf,1359,-8.9511e-06,2.35051e-05,0,1.20103e-06,-1.73341e+09,-1.72908e+09,-1.73222e+09,160517,0.0258089,0.00926663,0,0.027422,-2057.08,-59606,-0,59641.5,160517
step02_gravity_refstate-mantle.xmf,1360,-2.48885e-06,6.76754e-06,0,-3.87593e-06,-1.51617e+09,-1.51493e+09,-1.51583e+09,-518018,-0.00700513,0.0745295,-0,0.074858,4334.4,-52895.5,0,53072.8,518018
step02_gravity_refstate-mantle.xmf,1361,-2.56934e-06,7.29361e-06,0,-5.17419e-06,-1.52807e+09,-1.52676e+09,-1.52773e+09,-691531,-0.00776647,0.0815422,-0,0.0819112,3708.27,-53264.2,0,53393.1,691531
step02_gravity_refstate-mantle.xmf,1362,-2.72835e-06,7.94526e-06,0,-6.68853e-06,-1.53797e+09,-1.53654e+09,-1.53761e+09,-893923,-0.00832952,0.0889985,-0,0.0893874,3172.01,-53570.5,0,53664.4,893923
step02_gravity_refstate-mantle.xmf,1363,-5.40029e-06,1.37726e-05,0,-1.47819e-05,-1.57669e+09,-1.57412e+09,-1.57596e+09,-1.97559e+06,-0.00854148,0.123222,-0,0.123518,1400.46,-54763.4,0,54781.3,1.97559e+06
step02_gravity_refstate-mantle.xmf,1364,-4.41724e-06,1.19054e-05,0,-1.25127e-05,-1.5678e+09,-1.56562e+09,-1.56721e+09,-1.67232e+06,-0.00917183,0.113966,-0,0.114335,1798.75,-54490.9,0,54520.6,1.67232e+06
step02_gravity_refstate-mantle.xmf,1365,-3.62905e-06,1.02593e-05,0,-1.0493e-05,-1.55805e+09,-1.5562e+09,-1.55757e+09,-1.40239e+06,-0.00915638,0.10575,-0,0.106146,2204.98,-54190.7,0,54235.6,1.40239e+06
step02_gravity_refstate-mantle.xmf,1366,-3.06744e-06,8.92186e-06,0,-8.55582e-06,-1.54795e+09,-1.54634e+09,-1.54754e+09,-1.14349e+06,-0.00878071,0.0975839,-0,0.0979781,2651.76,-53878.9,0,53944.1,1.14349e+06
step02_gravity_refstate-mantle.xmf,1367,-2.12547e-06,6.56564e-06,0,-1.95997e-06,-1.51678e+09,-1.51562e+09,-1.5165e+09,-261950,-0.0100937,0.0593679,-0,0.0602199,5611.46,-52916.4,0,53213.1,261950
step02_gravity_refstate-mantle.xmf,1368,-1.25175e-06,6.30789e-06,0,-5.53025e-07,-1.54312e+09,-1.54211e+09,-1.54295e+09,-73911.8,-0.0169795,0.0434106,-0,0.0466131,6919.61,-53735.3,0,54179,73911.8
step02_gravity_refstate-mantle.xmf,1369,-1.70861e-06,6.5224e-06,0,-1.17173e-06,-1.53024e+09,-1.52914e+09,-1.53001e+09,-156601,-0.0137554,0.0508604,-0,0.0526877,6254.9,-53334.8,0,53700.3,156601
step02_gravity_refstate-mantle.xmf,1370,1.24616e-06,3.7854e-06,0,5.38521e-07,-1.65072e+09,-1.65038e+09,-1.65088e+09,71973.3,-0.0280058,0.0110005,-0,0.0300888,12254.1,-57069.2,0,58370,71973.3
step02_gravity_refstate-mantle.xmf,1371,1.04161e-06,4.0856e-06,0,6.15522e-07,-1.63189e+09,-1.63148e+09,-1.63203e+09,82264.5,-0.0276804,0.0141495,-0,0.0310872,11427.9,-56486.9,0,57631.3,82264.5
step02_gravity_refstate-mantle.xmf,1372,1.45148e-06,3.7236e-06,0,3.91471e-07,-1.68083e+09,-1.68053e+09,-1.68103e+09,52320.1,-0.029499,0.00747581,-0,0.0304316,12283.4,-58000.7,0,59287.2,52320.1
step02_gravity_refstate-mantle.xmf,1373,1.58124e-06,3.68346e-06,0,1.9972e-07,-1.71439e+09,-1.71411e+09,-1.7146e+09,26692.5,-0.0303107,0.00356074,-0,0.0305192,12439,-59038,0,60334.2,26692.5
step02_gravity_refstate-mantle.xmf,1374,1.60337e-06,3.53184e-06,0,-6.22903e-09,-1.74554e+09,-1.74528e+09,-1.74575e+09,-832.509,-0.0294957,-3.40561e-19,-0,0.0294957,13142.2,-60000,0,61422.4,832.509
step02_gravity_refstate-mantle.xmf,1375,-1.06102e-05,2.58925e-05,0,2.47261e-06,-1.72054e+09,-1.71566e+09,-1.71912e+09,330465,0.0217113,0.0206325,0,0.0299513,-1622.49,-59203.3,-0,59225.6,330465
step02_gravity_refstate-mantle.xmf,1376,-1.01191e-05,2.50658e-05,0,3.13362e-09,-1.74629e+09,-1.74159e+09,-1.74494e+09,418.808,0.0231624,-1.51354e-19,0,0.0231624,-1783.82,-60000,-0,60026.5,418.808
step02_gravity_refstate-mantle.xmf,1377,-6.48674e-06,1.57169e-05,0,-1.7431e-05,-1.58441e+09,-1.58145e+09,-1.58355e+09,-2.32965e+06,-0.00712127,0.134184,-0,0.134373,1000,-54999.9,0,55009,2.32965e+06
step02_gravity_refstate-mantle.xmf,1378,-8.02265e-07,5.98439e-06,0,-8.94087e-08,-1.55512e+09,-1.55421e+09,-1.55501e+09,-11949.5,-0.0196505,0.037031,-0,0.0419218,7609.4,-54108,0,54640.4,11949.5
step02_gravity_refstate-mantle.xmf,1379,-2.23805e-06,7.0218e-06,0,-2.7286e-06,-1.52765e+09,-1.52641e+09,-1.52735e+09,-364677,-0.0106682,0.0642691,-0,0.0651485,4941.9,-53252.5,0,53481.3,364677
step02_gravity_refstate-mantle.xmf,1380,7.64907e-07,4.43643e-06,0,6.41649e-07,-1.61357e+09,-1.61308e+09,-1.61367e+09,85756.4,-0.0268622,0.017792,-0,0.03222,10610.4,-55920.1,0,56917.8,85756.4
step02_gravity_refstate-mantle.xmf,1381,4.30527e-07,4.81659e-06,0,5.98004e-07,-1.59672e+09,-1.59613e+09,-1.59678e+09,79923.2,-0.0256004,0.0218487,-0,0.0336563,9824.59,-55398.3,0,56262.8,79923.2
step02_gravity_refstate-mantle.xmf,1382,4.37831e-08,5.21744e-06,0,4.69431e-07,-1.58125e+09,-1.58055e+09,-1.58125e+09,62739.5,-0.0239261,0.0264249,-0,0.0356474,9054.68,-54918.8,0,55660.2,62739.5
step02_gravity_refstate-mantle.xmf,1383,-3.81602e-07,5.59703e-06,0,2.45808e-07,-1.56635e+09,-1.56555e+09,-1.5663e+09,32852.2,-0.0217769,0.0315579,-0,0.0383423,8341.22,-54456.9,0,55092,32852.2
step02_gravity_refstate-mantle.xmf,1384,-1.22718e-05,2.83974e-05,0,3.49093e-06,-1.70806e+09,-1.70262e+09,-1.70642e+09,466562,0.0173001,0.0333872,0,0.0376032,-1207.37,-58813,-0,58825.4,466562
step02_gravity_refstate-mantle.xmf,1385,-1.39644e-05,3.11909e-05,0,4.33673e-06,-1.69547e+09,-1.68943e+09,-1.6936e+09,579605,0.0127838,0.0475235,0,0.0492129,-823.469,-58420,-0,58425.8,579605
step02_gravity_refstate-mantle.xmf,1386,-1.11907e-05,2.65657e-05,0,1.05243e-06,-1.73516e+09,-1.73012e+09,-1.73367e+09,140658,0.0202739,0.00920566,0,0.022266,-1507.9,-59652.9,-0,59671.9,140658
step02_gravity_refstate-mantle.xmf,1387,-2.38797e-06,7.59322e-06,0,-3.74654e-06,-1.53809e+09,-1.53676e+09,-1.53777e+09,-500725,-0.0112398,0.0701633,-0,0.0710578,4297.31,-53575.7,0,53747.8,500725
step02_gravity_refstate-mantle.xmf,1388,-2.60919e-06,8.33137e-06,0,-4.99704e-06,-1.54788e+09,-1.54642e+09,-1.54753e+09,-667854,-0.0117671,0.0766882,-0,0.0775857,3711.51,-53878.5,0,54006.2,667854
step02_gravity_refstate-mantle.xmf,1389,-2.96229e-06,9.31349e-06,0,-6.4667e-06,-1.55742e+09,-1.55578e+09,-1.55703e+09,-864274,-0.0122175,0.0837174,-0,0.0846042,3176.06,-54173.3,0,54266.3,864274
step02_gravity_refstate-mantle.xmf,1390,-6.5365e-06,1.64271e-05,0,-1.41558e-05,-1.5937e+09,-1.59063e+09,-1.59282e+09,-1.89192e+06,-0.01087,0.115385,-0,0.115896,1397.9,-55288.1,0,55305.8,1.89192e+06
step02_gravity_refstate-mantle.xmf,1391,-5.33504e-06,1.42891e-05,0,-1.18734e-05,-1.58604e+09,-1.58342e+09,-1.58533e+09,-1.58688e+06,-0.0121408,0.106256,-0,0.106948,1809.92,-55054.3,0,55084,1.58688e+06
step02_gravity_refstate-mantle.xmf,1392,-4.32452e-06,1.23298e-05,0,-9.9756e-06,-1.57689e+09,-1.57466e+09,-1.57631e+09,-1.33324e+06,-0.0125558,0.0987334,-0,0.0995286,2221.7,-54773.3,0,54818.3,1.33324e+06
step02_gravity_refstate-mantle.xmf,1393,-3.53845e-06,1.06647e-05,0,-8.21427e-06,-1.56717e+09,-1.56527e+09,-1.56669e+09,-1.09784e+06,-0.0124745,0.0915179,-0,0.0923642,2662.3,-54473.9,0,54538.9,1.09784e+06
step02_gravity_refstate-mantle.xmf,1394,-1.83695e-06,7.04574e-06,0,-1.74308e-06,-1.5414e+09,-1.54022e+09,-1.54116e+09,-232962,-0.0145687,0.0546843,-0,0.0565917,5558.14,-53680.3,0,53967.2,232962
step02_gravity_refstate-mantle.xmf,1395,-8.60223e-07,6.51101e-06,0,-3.74315e-07,-1.56827e+09,-1.56728e+09,-1.56815e+09,-50027.2,-0.0211917,0.0385914,-0,0.0440271,6891.16,-54515.3,0,54949.1,50027.2
step02_gravity_refstate-mantle.xmf,1396,-1.35524e-06,6.85983e-06,0,-9.6459e-07,-1.55529e+09,-1.55419e+09,-1.55511e+09,-128918,-0.0181812,0.0460202,-0,0.0494815,6209.45,-54111.9,0,54467,128918
step02_gravity_refstate-mantle.xmf,1397,1.30948e-06,4.04395e-06,0,4.92064e-07,-1.66301e+09,-1.66265e+09,-1.66319e+09,65764.3,-0.0298359,0.0102721,-0,0.0315547,11393.1,-57450.1,0,58568.9,65764.3
step02_gravity_refstate-mantle.xmf,1398,1.08146e-06,4.39321e-06,0,5.69839e-07,-1.64325e+09,-1.64281e+09,-1.64339e+09,76158.9,-0.0294671,0.0137877,-0,0.0325333,10576.7,-56838.9,0,57814.6,76158.9
step02_gravity_refstate-mantle.xmf,1399,1.52281e-06,3.9827e-06,0,3.17921e-07,-1.6958e+09,-1.69548e+09,-1.69601e+09,42490.2,-0.0313631,0.00616804,-0,0.0319639,11423.4,-58464.3,0,59569.8,42490.2
step02_gravity_refstate-mantle.xmf,1400,1.62911e-06,3.81971e-06,0,-2.83476e-09,-1.74551e+09,-1.74522e+09,-1.74573e+09,-378.866,-0.03124,-2.58631e-19,-0,0.03124,12062.5,-60000,0,61200.5,378.866
step02_gravity_refstate-mantle.xmf,1401,-1.65151e-05,3.53763e-05,0,4.33919e-06,-1.68208e+09,-1.67514e+09,-1.67987e+09,579932,0.00844287,0.0638159,0,0.0643719,-499.828,-58000,-0,58002.2,579932
step02_gravity_refstate-mantle.xmf,1402,-1.25584e-05,2.84028e-05,0,1.68425e-06,-1.72639e+09,-1.72092e+09,-1.72471e+09,225101,0.0160441,0.0176445,0,0.0238483,-1141.22,-59377.4,-0,59388.4,225101
step02_gravity_refstate-mantle.xmf,1403,-1.24503e-05,2.82347e-05,0,4.43263e-08,-1.74654e+09,-1.7411e+09,-1.74487e+09,5924.21,0.0164369,-2.13849e-19,0,0.0164369,-1186.26,-60000,-0,60011.7,5924.21
step02_gravity_refstate-mantle.xmf,1404,-7.79572e-06,1.87701e-05,0,-1.67412e-05,-1.60061e+09,-1.59706e+09,-1.59957e+09,-2.23746e+06,-0.00890844,0.125597,-0,0.125913,1000,-55499.2,0,55508.2,2.23746e+06
step02_gravity_refstate-mantle.xmf,1405,-3.90681e-07,6.09802e-06,0,4.57651e-08,-1.58126e+09,-1.58039e+09,-1.5812e+09,6116.51,-0.0236924,0.0322725,-0,0.0400355,7581.89,-54918.5,0,55439.4,6116.51
step02_gravity_refstate-mantle.xmf,1406,-2.03711e-06,7.67679e-06,0,-2.59534e-06,-1.55051e+09,-1.54921e+09,-1.55024e+09,-346867,-0.0150029,0.0598604,-0,0.0617119,4872.77,-53961.7,0,54181.3,346867
step02_gravity_refstate-mantle.xmf,1407,7.98733e-07,4.77339e-06,0,5.70797e-07,-1.62561e+09,-1.62508e+09,-1.62571e+09,76287,-0.0286384,0.01757,-0,0.0335985,9818.96,-56293.1,0,57143,76287
step02_gravity_refstate-mantle.xmf,1408,4.57983e-07,5.21083e-06,0,5.00627e-07,-1.61048e+09,-1.60984e+09,-1.61054e+09,66908.8,-0.0275234,0.0217562,-0,0.0350838,9036.55,-55824.5,0,56551.2,66908.8
step02_gravity_refstate-mantle.xmf,1409,4.63691e-08,5.66249e-06,0,3.27696e-07,-1.59499e+09,-1.59423e+09,-1.59499e+09,43796.6,-0.025777,0.0267791,-0,0.0371695,8285.72,-55344.4,0,55961.2,43796.6
step02_gravity_refstate-mantle.xmf,1410,1.61036e-06,3.97832e-06,0,1.50119e-07,-1.7236e+09,-1.72329e+09,-1.72382e+09,20063.4,-0.0319844,0.00270588,-0,0.0320987,11496.1,-59323.5,0,60427.2,20063.4
step02_gravity_refstate-mantle.xmf,1411,-1.62944e-05,3.41223e-05,0,1.62298e-06,-1.69699e+09,-1.69025e+09,-1.69481e+09,216912,0.00416663,0.0491707,0,0.0493469,-255.724,-58458.8,-0,58459.4,216912
step02_gravity_refstate-mantle.xmf,1412,-1.44237e-05,3.12573e-05,0,1.88861e-06,-1.71488e+09,-1.70878e+09,-1.71296e+09,252413,0.00936464,0.0299609,0,0.0313903,-626.422,-59016.8,-0,59020.2,252413
step02_gravity_refstate-mantle.xmf,1413,-2.31313e-06,8.43667e-06,0,-3.6607e-06,-1.55862e+09,-1.55718e+09,-1.55831e+09,-489252,-0.0152302,0.0660272,-0,0.067761,4227.87,-54212.4,0,54377,489252
step02_gravity_refstate-mantle.xmf,1414,-2.64508e-06,9.35042e-06,0,-4.77273e-06,-1.56687e+09,-1.56526e+09,-1.56651e+09,-637876,-0.0155967,0.0717117,-0,0.0733881,3697.51,-54467.3,0,54592.6,637876
step02_gravity_refstate-mantle.xmf,1415,-9.11368e-06,2.18593e-05,0,-1.57994e-05,-1.61681e+09,-1.61267e+09,-1.61559e+09,-2.1116e+06,-0.0107995,0.115488,-0,0.115992,1000,-55998.8,0,56007.7,2.1116e+06
step02_gravity_refstate-mantle.xmf,1416,-7.60736e-06,1.92374e-05,0,-1.34027e-05,-1.61023e+09,-1.60664e+09,-1.60921e+09,-1.79127e+06,-0.0129698,0.107416,-0,0.108196,1363.25,-55798.8,0,55815.5,1.79127e+06
step02_gravity_refstate-mantle.xmf,1417,-3.15432e-06,1.0628e-05,0,-6.10073e-06,-1.57647e+09,-1.57463e+09,-1.57605e+09,-815362,-0.0160308,0.0777926,-0,0.0794272,3177.99,-54763.8,0,54856,815362
step02_gravity_refstate-mantle.xmf,1418,-6.1959e-06,1.66582e-05,0,-1.12011e-05,-1.60368e+09,-1.60063e+09,-1.60285e+09,-1.49702e+06,-0.0148241,0.0987163,-0,0.0998231,1778.33,-55599.4,0,55627.9,1.49702e+06
step02_gravity_refstate-mantle.xmf,1419,-4.94821e-06,1.43728e-05,0,-9.32983e-06,-1.59573e+09,-1.59315e+09,-1.59507e+09,-1.24693e+06,-0.0158548,0.0912734,-0,0.0926402,2208.75,-55356.4,0,55400.4,1.24693e+06
step02_gravity_refstate-mantle.xmf,1420,-3.96307e-06,1.23908e-05,0,-7.7422e-06,-1.58644e+09,-1.58425e+09,-1.58591e+09,-1.03474e+06,-0.0160969,0.0849422,-0,0.0864539,2648.7,-55070.8,0,55134.5,1.03474e+06
step02_gravity_refstate-mantle.xmf,1421,-4.64154e-07,6.70669e-06,0,-2.51751e-07,-1.59373e+09,-1.59277e+09,-1.59367e+09,-33646.5,-0.0253144,0.0335641,-0,0.0420401,6858.36,-55305,0,55728.6,33646.5
step02_gravity_refstate-mantle.xmf,1422,-1.52992e-06,7.6656e-06,0,-1.63873e-06,-1.56875e+09,-1.56752e+09,-1.56854e+09,-219017,-0.0195618,0.0495745,-0,0.0532944,5439.76,-54528.5,0,54799.1,219017
step02_gravity_refstate-mantle.xmf,1423,-9.65814e-07,7.17696e-06,0,-7.85275e-07,-1.58079e+09,-1.5797e+09,-1.58066e+09,-104952,-0.0226836,0.0406418,-0,0.0465435,6186.29,-54902.9,0,55250.3,104952
step02_gravity_refstate-mantle.xmf,1424,1.36008e-06,4.40799e-06,0,4.23179e-07,-1.67644e+09,-1.67603e+09,-1.67662e+09,56557.9,-0.0319356,0.00946576,-0,0.0333089,10402.1,-57866.2,0,58793.7,56557.9
step02_gravity_refstate-mantle.xmf,1425,1.07438e-06,4.71619e-06,0,5.13566e-07,-1.65008e+09,-1.64959e+09,-1.65022e+09,68638.1,-0.0307992,0.0139222,-0,0.0337997,9845.43,-57050.6,0,57893.9,68638.1
step02_gravity_refstate-mantle.xmf,1426,1.56975e-06,4.36459e-06,0,1.89961e-07,-1.71658e+09,-1.7162e+09,-1.71679e+09,25388.3,-0.0333849,0.00391708,-0,0.0336139,10526.6,-59107.2,0,60037.2,25388.3
step02_gravity_refstate-mantle.xmf,1427,1.62953e-06,4.17795e-06,0,-5.24507e-09,-1.74548e+09,-1.74514e+09,-1.7457e+09,-701.004,-0.0329148,-3.73842e-19,-0,0.0329148,11033.6,-60000,0,61006.1,701.004
step02_gravity_refstate-mantle.xmf,1428,-1.73457e-05,3.69196e-05,0,1.70245e-08,-1.68213e+09,-1.67488e+09,-1.67981e+09,2275.33,2.56284e-06,0.0658243,0,0.0658243,-1.02887e-10,-58000,-0,58000,2275.33
step02_gravity_refstate-mantle.xmf,1429,-1.3751e-05,2.99944e-05,0,8.67925e-07,-1.73318e+09,-1.72733e+09,-1.73134e+09,115998,0.0106651,0.0124652,0,0.016405,-739.969,-59583.1,-0,59587.7,115998
step02_gravity_refstate-mantle.xmf,1430,-1.04035e-05,2.50738e-05,0,-1.44238e-05,-1.63302e+09,-1.62827e+09,-1.63163e+09,-1.92774e+06,-0.0127873,0.103774,-0,0.104559,1000,-56499,0,56507.8,1.92774e+06
step02_gravity_refstate-mantle.xmf,1431,-8.64868e-06,2.18933e-05,0,-1.27673e-05,-1.62452e+09,-1.62043e+09,-1.62336e+09,-1.70635e+06,-0.0144442,0.100526,-0,0.101558,1294.21,-56240,0,56254.9,1.70635e+06
step02_gravity_refstate-mantle.xmf,1432,-2.93301e-09,6.21765e-06,0,1.10794e-07,-1.60719e+09,-1.60636e+09,-1.60719e+09,14807.7,-0.0274697,0.0275412,-0,0.0388986,7533.37,-55722.5,0,56229.4,14807.7
step02_gravity_refstate-mantle.xmf,1433,-1.91139e-06,8.446e-06,0,-2.65923e-06,-1.57214e+09,-1.57075e+09,-1.57188e+09,-355407,-0.0189115,0.0566576,-0,0.0597305,4682.93,-54632.6,0,54832.9,355407
step02_gravity_refstate-mantle.xmf,1434,8.5481e-07,5.17154e-06,0,4.6967e-07,-1.64117e+09,-1.6406e+09,-1.64129e+09,62771.4,-0.030777,0.0167733,-0,0.0350509,9053.06,-56775.3,0,57492.6,62771.4
step02_gravity_refstate-mantle.xmf,1435,4.35736e-07,5.71904e-06,0,3.46773e-07,-1.62296e+09,-1.62226e+09,-1.62302e+09,46346.2,-0.029353,0.0220126,-0,0.03669,8236.43,-56211.4,0,56811.6,46346.2
step02_gravity_refstate-mantle.xmf,1436,-1.65553e-05,3.48128e-05,0,-4.79614e-06,-1.68213e+09,-1.67527e+09,-1.67992e+09,-641004,-0.00844272,0.0638281,-0,0.064384,499.828,-58000,0,58002.2,641004
step02_gravity_refstate-mantle.xmf,1437,-1.6025e-05,3.40372e-05,0,-1.58557e-06,-1.69708e+09,-1.69039e+09,-1.69494e+09,-211912,-0.00401893,0.0490375,-0,0.0492019,247.134,-58463.3,0,58463.9,211912
step02_gravity_refstate-mantle.xmf,1438,-1.55178e-05,3.25114e-05,0,-1.63133e-07,-1.71314e+09,-1.70672e+09,-1.71107e+09,-21802.7,-0.000302833,0.0328579,-0,0.0328593,19.6298,-58958.8,0,58958.8,21802.7
step02_gravity_refstate-mantle.xmf,1439,-1.47525e-05,3.12665e-05,0,3.46756e-07,-1.73069e+09,-1.72454e+09,-1.72872e+09,46343.9,0.00381771,0.0154414,0,0.0159064,-258.913,-59502.8,-0,59503.4,46343.9
step02_gravity_refstate-mantle.xmf,1440,-1.41413e-05,3.0402e-05,0,5.94926e-08,-1.74672e+09,-1.74077e+09,-1.74483e+09,7951.19,0.00856851,-2.33789e-19,0,0.00856851,-593.045,-60000,-0,60002.9,7951.19
step02_gravity_refstate-mantle.xmf,1441,-2.2632e-06,9.18331e-06,0,-3.60285e-06,-1.57527e+09,-1.57374e+09,-1.57497e+09,-481521,-0.0184237,0.0624891,-0,0.0651484,4154.28,-54729,0,54886.4,481521
step02_gravity_refstate-mantle.xmf,1442,-2.60549e-06,1.02463e-05,0,-4.36135e-06,-1.58534e+09,-1.58362e+09,-1.58499e+09,-582895,-0.0193859,0.0656616,-0,0.0684635,3725.02,-55040.5,0,55166.4,582895
step02_gravity_refstate-mantle.xmf,1443,-8.26742e-06,2.25922e-05,0,-1.0121e-05,-1.63852e+09,-1.63439e+09,-1.63741e+09,-1.35268e+06,-0.0180743,0.0856157,-0,0.0875028,1480.66,-56676.8,0,56696.1,1.35268e+06
step02_gravity_refstate-mantle.xmf,1444,-7.00296e-06,1.92359e-05,0,-1.03893e-05,-1.62174e+09,-1.61824e+09,-1.62081e+09,-1.38853e+06,-0.0172658,0.0906157,-0,0.0922459,1706.88,-56158.5,0,56184.5,1.38853e+06
step02_gravity_refstate-mantle.xmf,1445,-3.26871e-06,1.18571e-05,0,-5.60091e-06,-1.59574e+09,-1.59372e+09,-1.5953e+09,-748562,-0.0198261,0.0709961,-0,0.0737124,3182.27,-55361.4,0,55452.8,748562
step02_gravity_refstate-mantle.xmf,1446,-5.41002e-06,1.6305e-05,0,-8.48398e-06,-1.61458e+09,-1.61168e+09,-1.61386e+09,-1.13388e+06,-0.0190388,0.0829105,-0,0.0850683,2183.28,-55940.4,0,55983,1.13388e+06
step02_gravity_refstate-mantle.xmf,1447,-4.24801e-06,1.39889e-05,0,-7.05196e-06,-1.60586e+09,-1.60343e+09,-1.6053e+09,-942494,-0.0196978,0.0771688,-0,0.0796432,2640.76,-55673,0,55735.6,942494
step02_gravity_refstate-mantle.xmf,1448,-1.28448e-07,6.90846e-06,0,-1.95351e-07,-1.61773e+09,-1.61679e+09,-1.61771e+09,-26108.7,-0.0289095,0.0287811,-0,0.0407935,6804.98,-56049,0,56460.6,26108.7
step02_gravity_refstate-mantle.xmf,1449,-6.04771e-07,7.4583e-06,0,-6.5062e-07,-1.60528e+09,-1.6042e+09,-1.6052e+09,-86955.4,-0.0267849,0.0351969,-0,0.0442296,6169.38,-55662.7,0,56003.5,86955.4
step02_gravity_refstate-mantle.xmf,1450,-1.11507e-06,8.00146e-06,0,-1.29084e-06,-1.59393e+09,-1.59271e+09,-1.59378e+09,-172521,-0.0243224,0.0425547,-0,0.0490151,5541.06,-55309.9,0,55586.8,172521
step02_gravity_refstate-mantle.xmf,1451,1.19715e-06,4.9384e-06,0,4.05422e-07,-1.66965e+09,-1.66915e+09,-1.66981e+09,54184.7,-0.0327734,0.0116567,-0,0.0347847,9409.61,-57656.6,0,58419.3,54184.7
step02_gravity_refstate-mantle.xmf,1452,1.43465e-06,4.79045e-06,0,2.72413e-07,-1.69944e+09,-1.69899e+09,-1.69963e+09,36408,-0.0341491,0.00688594,-0,0.0348365,9639.32,-58578.1,0,59365.9,36408
step02_gravity_refstate-mantle.xmf,1453,1.58414e-06,4.6274e-06,0,-2.37681e-09,-1.74545e+09,-1.74505e+09,-1.74567e+09,-317.66,-0.0344906,-2.92908e-19,-0,0.0344906,10053,-60000,0,60836.4,317.66
step02_gravity_refstate-mantle.xmf,1454,-1.45739e-05,3.20607e-05,0,-3.94932e-06,-1.69428e+09,-1.68805e+09,-1.69233e+09,-527827,-0.0107135,0.0497484,-0,0.0508889,674.557,-58381.4,0,58385.3,527827
step02_gravity_refstate-mantle.xmf,1455,-1.14416e-05,2.8453e-05,0,-1.24221e-05,-1.64917e+09,-1.64383e+09,-1.64764e+09,-1.66022e+06,-0.0147647,0.0904028,-0,0.0916006,1000,-56999.5,0,57008.3,1.66022e+06
step02_gravity_refstate-mantle.xmf,1456,3.14675e-07,6.36603e-06,0,1.13569e-07,-1.63197e+09,-1.63116e+09,-1.63201e+09,15178.5,-0.0307389,0.023054,-0,0.0384235,7446.84,-56490.4,0,56979.2,15178.5
step02_gravity_refstate-mantle.xmf,1457,-1.54964e-06,8.48188e-06,0,-1.99082e-06,-1.58689e+09,-1.58555e+09,-1.58669e+09,-266074,-0.0223249,0.0492505,-0,0.0540741,5006.87,-55091,0,55318,266074
step02_gravity_refstate-mantle.xmf,1458,-1.95557e-06,9.48267e-06,0,-2.89236e-06,-1.59247e+09,-1.59094e+09,-1.59221e+09,-386564,-0.0222789,0.0546155,-0,0.0589848,4378.88,-55263.1,0,55436.3,386564
step02_gravity_refstate-mantle.xmf,1459,7.31908e-07,5.93646e-06,0,2.49391e-07,-1.65151e+09,-1.65081e+09,-1.6516e+09,33331.1,-0.0326109,0.0175194,-0,0.0370189,8011.49,-57095.6,0,57655,33331.1
step02_gravity_refstate-mantle.xmf,1460,1.0343e-06,5.39716e-06,0,3.4722e-07,-1.66493e+09,-1.66434e+09,-1.66506e+09,46406,-0.0332055,0.0135919,-0,0.0358795,8702.32,-57510.8,0,58165.5,46406
step02_gravity_refstate-mantle.xmf,1461,1.51938e-06,4.85847e-06,0,1.31008e-07,-1.72508e+09,-1.72464e+09,-1.72529e+09,17509.2,-0.0350228,0.00307577,-0,0.0351576,9585.67,-59370.9,0,60139.7,17509.2
step02_gravity_refstate-mantle.xmf,1462,-1.29586e-05,3.1364e-05,0,-6.49076e-06,-1.68164e+09,-1.67572e+09,-1.67991e+09,-867490,-0.0161084,0.0588665,-0,0.0610307,1000,-58000,0,58008.6,867490
step02_gravity_refstate-mantle.xmf,1463,-1.44236e-05,3.10969e-05,0,-2.20876e-06,-1.71157e+09,-1.70548e+09,-1.70964e+09,-295201,-0.00931894,0.0331906,-0,0.034474,617.674,-58913.9,0,58917.1,295201
step02_gravity_refstate-mantle.xmf,1464,-1.47378e-05,3.11853e-05,0,-5.60219e-07,-1.72986e+09,-1.72373e+09,-1.72789e+09,-74873.3,-0.00460387,0.0162019,-0,0.0168433,311.939,-59477.2,0,59478.1,74873.3
step02_gravity_refstate-mantle.xmf,1465,-1.47725e-05,3.12062e-05,0,4.88287e-08,-1.74679e+09,-1.74065e+09,-1.74482e+09,6525.96,-1.66215e-07,-2.22628e-19,-0,1.66215e-07,-4.92291e-08,-60000,-0,60000,6525.96
step02_gravity_refstate-mantle.xmf,1466,-8.39549e-06,2.4702e-05,0,-8.37942e-06,-1.65609e+09,-1.65166e+09,-1.65496e+09,-1.11991e+06,-0.0200744,0.0733981,-0,0.0760938,1448.28,-57224.1,0,57242.4,1.11991e+06
step02_gravity_refstate-mantle.xmf,1467,-2.51732e-06,1.10854e-05,0,-3.92937e-06,-1.605e+09,-1.60319e+09,-1.60467e+09,-525160,-0.0232389,0.0588177,-0,0.0632422,3748.14,-55650.6,0,55776.7,525160
step02_gravity_refstate-mantle.xmf,1468,-5.75494e-06,1.83857e-05,0,-7.52196e-06,-1.63504e+09,-1.63181e+09,-1.63427e+09,-1.00531e+06,-0.0220318,0.0733396,-0,0.0765774,2116.55,-56575.5,0,56615.1,1.00531e+06
step02_gravity_refstate-mantle.xmf,1469,-3.29922e-06,1.29871e-05,0,-5.05312e-06,-1.61548e+09,-1.6133e+09,-1.61504e+09,-675350,-0.0234877,0.0634731,-0,0.0676795,3177.19,-55973.8,0,56063.9,675350
step02_gravity_refstate-mantle.xmf,1470,-4.31132e-06,1.52704e-05,0,-6.21236e-06,-1.62514e+09,-1.62253e+09,-1.62457e+09,-830282,-0.0231576,0.0681742,-0,0.072,2653.21,-56271.5,0,56334,830282
step02_gravity_refstate-mantle.xmf,1471,1.08551e-07,7.16367e-06,0,-2.01605e-07,-1.63988e+09,-1.63893e+09,-1.63989e+09,-26944.5,-0.0318733,0.0244285,-0,0.040158,6703.87,-56735.4,0,57130.1,26944.5
step02_gravity_refstate-mantle.xmf,1472,-3.25085e-07,7.76049e-06,0,-5.8428e-07,-1.62836e+09,-1.62728e+09,-1.62831e+09,-78089.1,-0.0302688,0.0300671,-0,0.0426642,6118.04,-56378.1,0,56709.1,78089.1
step02_gravity_refstate-mantle.xmf,1473,-1.38359e-06,9.02296e-06,0,-1.92007e-06,-1.60538e+09,-1.60399e+09,-1.60519e+09,-256618,-0.0255776,0.0450501,-0,0.0518047,4923.23,-55664.5,0,55881.8,256618
step02_gravity_refstate-mantle.xmf,1474,-8.36283e-07,8.40189e-06,0,-1.15459e-06,-1.61655e+09,-1.61531e+09,-1.61644e+09,-154311,-0.0281217,0.0370422,-0,0.0465076,5510.26,-56011.6,0,56282,154311
step02_gravity_refstate-mantle.xmf,1475,1.23115e-06,5.34775e-06,0,2.74302e-07,-1.68779e+09,-1.68724e+09,-1.68795e+09,36660.5,-0.0347006,0.00963919,-0,0.0360145,8784.27,-58218.2,0,58877.2,36660.5
step02_gravity_refstate-mantle.xmf,1476,1.37593e-06,5.43244e-06,0,1.34283e-07,-1.71818e+09,-1.71764e+09,-1.71836e+09,17946.9,-0.0360939,0.00460501,-0,0.0363864,8731.16,-59158.2,0,59799,17946.9
step02_gravity_refstate-mantle.xmf,1477,1.48049e-06,5.19638e-06,0,-3.08227e-09,-1.74543e+09,-1.74493e+09,-1.74563e+09,-411.945,-0.0359234,-4.38436e-19,-0,0.0359234,9118.31,-60000,0,60688.9,411.945
step02_gravity_refstate-mantle.xmf,1478,-1.27224e-05,2.93076e-05,0,-4.25639e-06,-1.69938e+09,-1.69377e+09,-1.69768e+09,-568866,-0.0159801,0.041996,-0,0.0449336,1076.18,-58544.4,0,58554.3,568866
step02_gravity_refstate-mantle.xmf,1479,-1.17693e-05,3.06648e-05,0,-9.65912e-06,-1.66524e+09,-1.65957e+09,-1.66367e+09,-1.29094e+06,-0.0163736,0.0753786,-0,0.0771364,1000,-57499.6,0,57508.3,1.29094e+06
step02_gravity_refstate-mantle.xmf,1480,-6.72726e-06,2.10059e-05,0,-7.63816e-06,-1.6492e+09,-1.64549e+09,-1.6483e+09,-1.02084e+06,-0.0222771,0.0702666,-0,0.0737134,1840.15,-57013,0,57042.7,1.02084e+06
step02_gravity_refstate-mantle.xmf,1481,4.58465e-07,6.66254e-06,0,2.42088e-08,-1.65122e+09,-1.65039e+09,-1.65128e+09,3235.51,-0.033044,0.0199522,-0,0.0386004,7227.92,-57086.8,0,57542.5,3235.51
step02_gravity_refstate-mantle.xmf,1482,9.8542e-07,5.88481e-06,0,2.27705e-07,-1.67682e+09,-1.67616e+09,-1.67695e+09,30432.8,-0.0347553,0.0127181,-0,0.0370092,8075.86,-57879.1,0,58439.8,30432.8
step02_gravity_refstate-mantle.xmf,1483,-8.52242e-06,2.52213e-05,0,-7.5602e-06,-1.67271e+09,-1.6682e+09,-1.67157e+09,-1.01042e+06,-0.0212323,0.0604036,-0,0.0640266,1452.61,-57738,0,57756.3,1.01042e+06
step02_gravity_refstate-mantle.xmf,1484,-1.02726e-05,2.64057e-05,0,-6.1538e-06,-1.68947e+09,-1.68457e+09,-1.6881e+09,-822456,-0.021019,0.0468602,-0,0.0513583,1471.84,-58247.2,0,58265.8,822456
step02_gravity_refstate-mantle.xmf,1485,-1.2223e-05,2.81425e-05,0,-2.81475e-06,-1.71538e+09,-1.70999e+09,-1.71375e+09,-376192,-0.0171955,0.0269454,-0,0.0319646,1215.74,-59039,0,59051.5,376192
step02_gravity_refstate-mantle.xmf,1486,-1.34063e-05,2.94736e-05,0,-1.1946e-06,-1.73043e+09,-1.7247e+09,-1.72864e+09,-159658,-0.0127398,0.014709,-0,0.0194591,890.897,-59499.4,0,59506,159658
step02_gravity_refstate-mantle.xmf,1487,-1.41199e-05,3.03846e-05,0,1.43989e-08,-1.74672e+09,-1.74077e+09,-1.74483e+09,1924.42,-0.00856477,-1.81426e-19,-0,0.00856477,593.045,-60000,0,60002.9,1924.42
step02_gravity_refstate-mantle.xmf,1488,-6.61386e-06,2.14688e-05,0,-6.85012e-06,-1.66339e+09,-1.65964e+09,-1.6625e+09,-915519,-0.0240871,0.0600301,-0,0.0646823,1889.87,-57453.3,0,57484.4,915519
step02_gravity_refstate-mantle.xmf,1489,-1.82412e-06,1.03113e-05,0,-2.67697e-06,-1.61541e+09,-1.61379e+09,-1.61517e+09,-357777,-0.0263556,0.0483162,-0,0.055037,4313.97,-55974.7,0,56140.7,357777
step02_gravity_refstate-mantle.xmf,1490,-2.46835e-06,1.20035e-05,0,-3.58883e-06,-1.62583e+09,-1.62389e+09,-1.6255e+09,-479647,-0.026829,0.0518401,-0,0.0583711,3711.93,-56296.5,0,56418.7,479647
step02_gravity_refstate-mantle.xmf,1491,-5.35131e-06,1.8658e-05,0,-6.24769e-06,-1.65306e+09,-1.64985e+09,-1.65235e+09,-835004,-0.025332,0.0602557,-0,0.065364,2265.4,-57135.6,0,57180.5,835004
step02_gravity_refstate-mantle.xmf,1492,-3.29146e-06,1.39791e-05,0,-4.54228e-06,-1.63524e+09,-1.63293e+09,-1.6348e+09,-607075,-0.0267499,0.0553924,-0,0.0615132,3164.87,-56586.7,0,56675.2,607075
step02_gravity_refstate-mantle.xmf,1493,-4.29283e-06,1.6244e-05,0,-5.50341e-06,-1.64358e+09,-1.64083e+09,-1.64301e+09,-735531,-0.0260782,0.0588962,-0,0.0644114,2669.03,-56843.5,0,56906.2,735531
step02_gravity_refstate-mantle.xmf,1494,6.8773e-07,6.65814e-06,0,4.57811e-08,-1.67179e+09,-1.67099e+09,-1.67188e+09,6118.64,-0.0349857,0.0154376,-0,0.0382403,7317.64,-57723.8,0,58185.8,6118.64
step02_gravity_refstate-mantle.xmf,1495,2.92632e-07,7.38515e-06,0,-2.02622e-07,-1.66105e+09,-1.66011e+09,-1.66109e+09,-27080.4,-0.0342995,0.019907,-0,0.0396578,6642.43,-57391.3,0,57774.4,27080.4
step02_gravity_refstate-mantle.xmf,1496,-1.33915e-07,8.06956e-06,0,-5.47798e-07,-1.64983e+09,-1.64873e+09,-1.64981e+09,-73213.1,-0.0330846,0.025129,-0,0.0415459,6057.14,-57043.4,0,57364.1,73213.1
step02_gravity_refstate-mantle.xmf,1497,-6.37187e-07,8.81834e-06,0,-1.06394e-06,-1.63844e+09,-1.63718e+09,-1.63836e+09,-142196,-0.03137,0.031555,-0,0.0444949,5459.79,-56690.3,0,56952.6,142196
step02_gravity_refstate-mantle.xmf,1498,-1.20264e-06,9.57854e-06,0,-1.7704e-06,-1.62693e+09,-1.62549e+09,-1.62677e+09,-236614,-0.0291231,0.0392583,-0,0.0488812,4876.38,-56333,0,56543.6,236614
step02_gravity_refstate-mantle.xmf,1499,1.1175e-06,6.01493e-06,0,1.53225e-07,-1.70076e+09,-1.70011e+09,-1.70091e+09,20478.5,-0.0362986,0.00837452,-0,0.0372521,8024.78,-58620,0,59166.7,20478.5
step02_gravity_refstate-mantle.xmf,1500,1.29826e-06,5.89852e-06,0,-1.19972e-09,-1.74541e+09,-1.7448e+09,-1.74558e+09,-160.342,-0.0371602,-4.02364e-19,-0,0.0371602,8227.38,-60000,0,60561.5,160.342
step02_gravity_refstate-mantle.xmf,1501,-1.0836e-05,2.65803e-05,0,-4.2653e-06,-1.70368e+09,-1.69868e+09,-1.70223e+09,-570057,-0.0206561,0.0351022,-0,0.0407288,1485.71,-58682.8,0,58701.6,570057
step02_gravity_refstate-mantle.xmf,1502,1.1093e-06,6.36679e-06,0,5.27036e-08,-1.72388e+09,-1.72318e+09,-1.72403e+09,7043.83,-0.0375044,0.00425588,-0,0.0377451,7720.61,-59335,0,59835.2,7043.83
step02_gravity_refstate-mantle.xmf,1503,8.44038e-07,6.77806e-06,0,2.58877e-08,-1.69683e+09,-1.69603e+09,-1.69694e+09,3459.89,-0.0368102,0.0103023,-0,0.0382247,7285.84,-58498.5,0,58950.5,3459.89
step02_gravity_refstate-mantle.xmf,1504,-7.24236e-06,2.21717e-05,0,-6.00732e-06,-1.68042e+09,-1.67649e+09,-1.67945e+09,-802878,-0.0251271,0.0479752,-0,0.0541571,1930.53,-57977,0,58009.1,802878
step02_gravity_refstate-mantle.xmf,1505,-8.45373e-06,2.33109e-05,0,-4.67205e-06,-1.69804e+09,-1.6938e+09,-1.69691e+09,-624419,-0.0250463,0.0356521,-0,0.0435705,1926.48,-58516.1,0,58547.8,624419
step02_gravity_refstate-mantle.xmf,1506,-9.82162e-06,2.48713e-05,0,-3.04672e-06,-1.71515e+09,-1.71052e+09,-1.71384e+09,-407195,-0.0233146,0.0240693,-0,0.0335097,1770.19,-59039.6,0,59066.1,407195
step02_gravity_refstate-mantle.xmf,1507,-1.12289e-05,2.66053e-05,0,-1.44486e-06,-1.73095e+09,-1.7259e+09,-1.72945e+09,-193105,-0.0201077,0.012705,-0,0.0237852,1489.51,-59522.6,0,59541.2,193105
step02_gravity_refstate-mantle.xmf,1508,-1.24043e-05,2.81542e-05,0,-5.07911e-09,-1.74653e+09,-1.74111e+09,-1.74487e+09,-678.822,-0.0164328,-1.40635e-19,-0,0.0164328,1186.26,-60000,0,60011.7,678.822
step02_gravity_refstate-mantle.xmf,1509,-5.40255e-06,1.90227e-05,0,-5.40917e-06,-1.67013e+09,-1.66686e+09,-1.6694e+09,-722936,-0.0274954,0.0486749,-0,0.0559039,2377.59,-57663.3,0,57712.3,722936
step02_gravity_refstate-mantle.xmf,1510,-1.74154e-06,1.10415e-05,0,-2.46365e-06,-1.63685e+09,-1.63514e+09,-1.63662e+09,-329267,-0.0297402,0.0417186,-0,0.051234,4265.69,-56639.5,0,56799.9,329267
step02_gravity_refstate-mantle.xmf,1511,-2.46546e-06,1.28184e-05,0,-3.25899e-06,-1.64637e+09,-1.64433e+09,-1.64604e+09,-435565,-0.0298812,0.044217,-0,0.0533669,3687.95,-56933.3,0,57052.6,435565
step02_gravity_refstate-mantle.xmf,1512,-4.37775e-06,1.6899e-05,0,-5.04903e-06,-1.65903e+09,-1.65619e+09,-1.65845e+09,-674803,-0.028055,0.0506638,-0,0.0579129,2689.52,-57322.1,0,57385.1,674803
step02_gravity_refstate-mantle.xmf,1513,-3.38477e-06,1.48849e-05,0,-4.13993e-06,-1.65436e+09,-1.65192e+09,-1.6539e+09,-553302,-0.0292971,0.0471451,-0,0.0555066,3141.68,-57179.1,0,57265.3,553302
step02_gravity_refstate-mantle.xmf,1514,4.39908e-07,7.56553e-06,0,-1.74555e-07,-1.68333e+09,-1.68238e+09,-1.68339e+09,-23329.2,-0.0363198,0.0148243,-0,0.0392286,6620.72,-58080.9,0,58457,23329.2
step02_gravity_refstate-mantle.xmf,1515,-1.13413e-08,8.37892e-06,0,-4.99232e-07,-1.67142e+09,-1.6703e+09,-1.67142e+09,-66722.3,-0.0354162,0.0198727,-0,0.0406108,6003.7,-57712,0,58023.4,66722.3
step02_gravity_refstate-mantle.xmf,1516,-5.16898e-07,9.22487e-06,0,-9.68971e-07,-1.65985e+09,-1.65854e+09,-1.65978e+09,-129503,-0.0340449,0.0258465,-0,0.0427446,5415.04,-57353.3,0,57608.4,129503
step02_gravity_refstate-mantle.xmf,1517,-1.09182e-06,1.01214e-05,0,-1.62463e-06,-1.64832e+09,-1.64682e+09,-1.64817e+09,-217132,-0.0321587,0.03308,-0,0.0461354,4832.96,-56995.7,0,57200.2,217132
step02_gravity_refstate-mantle.xmf,1518,1.00043e-06,6.79051e-06,0,-6.99645e-11,-1.7454e+09,-1.74463e+09,-1.74553e+09,-9.35075,-0.038135,-4.58447e-19,-0,0.038135,7377.92,-60000,0,60451.9,9.35075
step02_gravity_refstate-mantle.xmf,1519,7.83211e-07,7.25597e-06,0,-2.18295e-08,-1.72392e+09,-1.72305e+09,-1.72402e+09,-2917.51,-0.0382074,0.00484345,-0,0.0385131,6977.22,-59336.2,0,59745,2917.51
step02_gravity_refstate-mantle.xmf,1520,4.74835e-07,7.85324e-06,0,-1.51527e-07,-1.70642e+09,-1.70544e+09,-1.70649e+09,-20251.6,-0.03783,0.00956245,-0,0.0390199,6517.52,-58795.2,0,59155.3,20251.6
step02_gravity_refstate-mantle.xmf,1521,-5.84751e-06,1.94681e-05,0,-4.3986e-06,-1.68839e+09,-1.685e+09,-1.68761e+09,-587872,-0.0288588,0.0367577,-0,0.0467329,2470.54,-58225.5,0,58277.9,587872
step02_gravity_refstate-mantle.xmf,1522,-6.97003e-06,2.09149e-05,0,-2.96415e-06,-1.71081e+09,-1.70708e+09,-1.70988e+09,-396158,-0.0288353,0.0231398,-0,0.036972,2424.19,-58914.2,0,58964.1,396158
step02_gravity_refstate-mantle.xmf,1523,-8.79238e-06,2.32591e-05,0,-1.30925e-06,-1.73184e+09,-1.72755e+09,-1.73066e+09,-174981,-0.0261079,0.0103153,-0,0.0280718,2090.15,-59557.7,0,59594.3,174981
step02_gravity_refstate-mantle.xmf,1524,-1.01058e-05,2.50746e-05,0,-2.11688e-08,-1.74629e+09,-1.74159e+09,-1.74494e+09,-2829.21,-0.0231614,-1.0479e-19,-0,0.0231614,1783.82,-60000,0,60026.5,2829.21
step02_gravity_refstate-mantle.xmf,1525,-4.06309e-06,1.64413e-05,0,-3.90252e-06,-1.67506e+09,-1.67232e+09,-1.67452e+09,-521572,-0.0307333,0.0388376,-0,0.0495267,2990.94,-57818,0,57895.3,521572
step02_gravity_refstate-mantle.xmf,1526,-1.75675e-06,1.17259e-05,0,-2.22901e-06,-1.65814e+09,-1.65634e+09,-1.6579e+09,-297907,-0.0325271,0.0345183,-0,0.0474292,4232.07,-57298.7,0,57454.8,297907
step02_gravity_refstate-mantle.xmf,1527,-2.65601e-06,1.36876e-05,0,-2.94096e-06,-1.66717e+09,-1.66499e+09,-1.66682e+09,-393059,-0.0322287,0.0360984,-0,0.048392,3647.16,-57576.7,0,57692.1,393059
step02_gravity_refstate-mantle.xmf,1528,4.09456e-08,8.67761e-06,0,-4.09967e-07,-1.69351e+09,-1.69236e+09,-1.69352e+09,-54792.1,-0.0372148,0.0142089,-0,0.0398351,5957,-58395.6,0,58698.6,54792.1
step02_gravity_refstate-mantle.xmf,1529,-4.86937e-07,9.6372e-06,0,-8.38854e-07,-1.68142e+09,-1.68006e+09,-1.68135e+09,-112113,-0.0361538,0.0197777,-0,0.0412099,5369.64,-58020.9,0,58268.8,112113
step02_gravity_refstate-mantle.xmf,1530,-1.09894e-06,1.0699e-05,0,-1.4672e-06,-1.66974e+09,-1.66816e+09,-1.66959e+09,-196091,-0.0345854,0.0265558,-0,0.0436046,4777.81,-57658.7,0,57856.3,196091
step02_gravity_refstate-mantle.xmf,1531,5.49264e-07,7.91252e-06,0,7.84328e-10,-1.74541e+09,-1.74442e+09,-1.74548e+09,104.825,-0.0387678,-4.34906e-19,-0,0.0387678,6567.63,-60000,0,60358.4,104.825
step02_gravity_refstate-mantle.xmf,1532,4.41604e-07,8.0808e-06,0,-8.38279e-08,-1.72732e+09,-1.7263e+09,-1.72738e+09,-11203.6,-0.0386354,0.00455906,-0,0.0389035,6404.44,-59441,0,59785.1,11203.6
step02_gravity_refstate-mantle.xmf,1533,2.36915e-09,9.01881e-06,0,-2.77381e-07,-1.71664e+09,-1.71543e+09,-1.71664e+09,-37072,-0.0384257,0.00807716,-0,0.0392655,5876.03,-59110.5,0,59401.8,37072
step02_gravity_refstate-mantle.xmf,1534,-4.64446e-06,1.73028e-05,0,-3.01193e-06,-1.69721e+09,-1.69427e+09,-1.69659e+09,-402544,-0.0319649,0.0271477,-0,0.0419375,3007.59,-58500.4,0,58577.7,402544
step02_gravity_refstate-mantle.xmf,1535,-6.37514e-06,1.98314e-05,0,-1.2328e-06,-1.72979e+09,-1.72629e+09,-1.72894e+09,-164764,-0.0308162,0.00993099,-0,0.0323769,2710.5,-59501.9,0,59563.6,164764
step02_gravity_refstate-mantle.xmf,1536,-7.67457e-06,2.1686e-05,0,-3.15091e-08,-1.74604e+09,-1.74212e+09,-1.74502e+09,-4211.2,-0.0285808,-9.38826e-20,-0,0.0285808,2393.33,-60000,0,60047.7,4211.2
step02_gravity_refstate-mantle.xmf,1537,-1.91225e-06,1.24185e-05,0,-1.89864e-06,-1.68023e+09,-1.67832e+09,-1.67998e+09,-253753,-0.034699,0.0264535,-0,0.0436327,4207.62,-57981.9,0,58134.3,253753
step02_gravity_refstate-mantle.xmf,1538,-3.08263e-06,1.46355e-05,0,-2.44138e-06,-1.68939e+09,-1.68702e+09,-1.68897e+09,-326291,-0.0338801,0.0267152,-0,0.0431458,3605.9,-58262.5,0,58373.9,326291
step02_gravity_refstate-mantle.xmf,1539,-5.30114e-07,9.99772e-06,0,-6.25408e-07,-1.7028e+09,-1.70139e+09,-1.70273e+09,-83585.8,-0.0376326,0.0134155,-0,0.0399523,5335.57,-58682,0,58924.1,83585.8
step02_gravity_refstate-mantle.xmf,1540,-1.17111e-06,1.11785e-05,0,-1.18866e-06,-1.69135e+09,-1.6897e+09,-1.69119e+09,-158864,-0.0364064,0.0193476,-0,0.041228,4758.5,-58327,0,58520.8,158864
step02_gravity_refstate-mantle.xmf,1541,-5.31551e-08,9.24614e-06,0,1.3561e-08,-1.74543e+09,-1.74418e+09,-1.74542e+09,1812.42,-0.0389575,-6.41458e-19,-0,0.0389575,5794.24,-60000,0,60279.1,1812.42
step02_gravity_refstate-mantle.xmf,1542,-5.1759e-06,1.80561e-05,0,-2.04131e-06,-1.7154e+09,-1.7123e+09,-1.71471e+09,-272821,-0.0323601,0.0172645,-0,0.0366775,2997.71,-59060.8,0,59136.9,272821
step02_gravity_refstate-mantle.xmf,1543,-6.68584e-07,1.04192e-05,0,-3.57292e-07,-1.72427e+09,-1.72279e+09,-1.72419e+09,-47752,-0.0384604,0.00685725,-0,0.0390669,5242.06,-59345.5,0,59576.6,47752
step02_gravity_refstate-mantle.xmf,1544,-3.63202e-06,1.55977e-05,0,-1.75408e-06,-1.71066e+09,-1.70809e+09,-1.71018e+09,-234433,-0.0345459,0.0172743,-0,0.0386241,3519.58,-58918.5,0,59023.6,234433
step02_gravity_refstate-mantle.xmf,1545,-4.45902e-06,1.69029e-05,0,-9.64019e-07,-1.72907e+09,-1.72621e+09,-1.72847e+09,-128841,-0.034068,0.00876441,-0,0.0351773,3311.99,-59484.9,0,59577,128841
step02_gravity_refstate-mantle.xmf,1546,-5.43919e-06,1.8417e-05,0,-2.38809e-08,-1.74583e+09,-1.74264e+09,-1.7451e+09,-3191.68,-0.0326967,-8.73086e-20,-0,0.0326967,3021.02,-60000,0,60076,3191.68
step02_gravity_refstate-mantle.xmf,1547,-2.13541e-06,1.29831e-05,0,-1.30879e-06,-1.70592e+09,-1.7039e+09,-1.70564e+09,-174920,-0.0363722,0.0162825,-0,0.0398505,4223.02,-58775.4,0,58926.9,174920
step02_gravity_refstate-mantle.xmf,1548,-1.2463e-06,1.13976e-05,0,-8.11327e-07,-1.70906e+09,-1.70737e+09,-1.7089e+09,-108434,-0.037464,0.0130565,-0,0.039674,4787.02,-58874.3,0,59068.6,108434
step02_gravity_refstate-mantle.xmf,1549,-1.58124e-06,1.21289e-05,0,-5.27312e-07,-1.7263e+09,-1.72447e+09,-1.72609e+09,-70475.3,-0.0377924,0.00724337,-0,0.0384803,4604.11,-59406.5,0,59584.6,70475.3
step02_gravity_refstate-mantle.xmf,1550,-9.12754e-07,1.09474e-05,0,1.45708e-08,-1.74547e+09,-1.74389e+09,-1.74535e+09,1947.38,-0.03859,-6.79507e-19,-0,0.03859,5055.41,-60000,0,60212.6,1947.38
step02_gravity_refstate-mantle.xmf,1551,-2.83832e-06,1.42894e-05,0,-7.38109e-07,-1.7272e+09,-1.72491e+09,-1.72682e+09,-98648.3,-0.0363602,0.00818799,-0,0.0372707,3948.45,-59431.2,0,59562.2,98648.3
step02_gravity_refstate-mantle.xmf,1552,-3.57171e-06,1.55172e-05,0,-1.94012e-08,-1.74567e+09,-1.74312e+09,-1.74519e+09,-2592.97,-0.0356234,-8.46271e-20,-0,0.0356234,3671.61,-60000,0,60112.2,2592.97
step02_gravity_refstate-mantle.xmf,1553,-2.12232e-06,1.30323e-05,0,9.05677e-09,-1.74556e+09,-1.74353e+09,-1.74528e+09,1210.44,-0.0375316,3.52715e-19,-0,0.0375316,4348.74,-60000,0,60157.4,1210.44
step02_gravity_refstate-intrusion.xmf,0,6.60509e-06,-1.51937e-05,0,1.27772e-05,-1.42231e+09,-1.42439e+09,-1.42294e+09,1.21844e+06,-0.00798322,0.143192,-0,0.143414,-1000,-50000,-0,50010,1.21844e+06
step02_gravity_refstate-intrusion.xmf,1,4.37976e-06,-9.53406e-06,0,1.71753e-05,-1.4385e+09,-1.43983e+09,-1.43892e+09,1.63784e+06,-0.00792058,0.148389,-0,0.1486,-1000,-50499.8,-0,50509.7,1.63784e+06
step02_gravity_refstate-intrusion.xmf,2,8.0842e-06,-2.26983e-05,0,6.94703e-06,-1.42251e+09,-1.42545e+09,-1.42328e+09,662469,-0.00427202,0.151455,-0,0.151515,-500,-50000,-0,50002.5,662469
step02_gravity_refstate-intrusion.xmf,3,8.80076e-06,-2.47436e-05,0,-1.89741e-07,-1.42252e+09,-1.42572e+09,-1.42336e+09,-18093.7,1.18589e-05,0.15432,0,0.15432,0,-50000,0,50000,18093.7
step02_gravity_refstate-intrusion.xmf,4,3.84258e-06,-6.98366e-06,0,1.98957e-05,-1.45463e+09,-1.45566e+09,-1.45499e+09,1.89725e+06,-0.00645659,0.152473,-0,0.152609,-1000,-50999.8,-0,51009.6,1.89725e+06
step02_gravity_refstate-intrusion.xmf,5,8.25002e-06,-2.29428e-05,0,-7.57757e-06,-1.4225e+09,-1.42548e+09,-1.42329e+09,-722597,0.00427762,0.151444,0,0.151504,500,-50000,0,50002.5,722597
step02_gravity_refstate-intrusion.xmf,6,2.98581e-06,-3.86158e-06,0,2.20548e-05,-1.47079e+09,-1.47144e+09,-1.47107e+09,2.10314e+06,-0.00468927,0.155132,-0,0.155203,-1000,-51500.3,-0,51510,2.10314e+06
step02_gravity_refstate-intrusion.xmf,7,4.40496e-06,-1.13813e-05,0,-1.36438e-05,-1.42243e+09,-1.42393e+09,-1.42285e+09,-1.30107e+06,0.00798302,0.143175,0,0.143397,1000,-50000,0,50010,1.30107e+06
step02_gravity_refstate-intrusion.xmf,8,1.85263e-06,-9.47936e-07,0,2.34827e-05,-1.48699e+09,-1.48725e+09,-1.48716e+09,2.23931e+06,-0.00290919,0.156335,-0,0.156362,-1000,-52000.6,-0,52010.2,2.23931e+06
step02_gravity_refstate-intrusion.xmf,9,4.39181e-06,-9.5398e-06,0,-1.71849e-05,-1.4385e+09,-1.43983e+09,-1.43892e+09,-1.63875e+06,0.00792,0.148388,0,0.148599,1000,-50499.8,0,50509.7,1.63875e+06
step02_gravity_refstate-intrusion.xmf,10,5.32759e-07,1.89358e-06,0,2.44104e-05,-1.5032e+09,-1.50307e+09,-1.50325e+09,2.32777e+06,-0.00118195,0.156101,-0,0.156105,-1000,-52500.2,-0,52509.7,2.32777e+06
step02_gravity_refstate-intrusion.xmf,11,3.96196e-06,-6.77933e-06,0,-2.00258e-05,-1.4546e+09,-1.45562e+09,-1.45498e+09,-1.90966e+06,0.00645674,0.15247,0,0.152606,1000,-50999.8,0,51009.6,1.90966e+06
step02_gravity_refstate-intrusion.xmf,12,-8.26401e-07,4.64671e-06,0,2.49563e-05,-1.51941e+09,-1.51889e+09,-1.51933e+09,2.37984e+06,0.000488634,0.154467,0,0.154468,-1000,-52999.4,-0,53008.9,2.37984e+06
step02_gravity_refstate-intrusion.xmf,13,3.03798e-06,-3.85953e-06,0,-2.20677e-05,-1.47078e+09,-1.47144e+09,-1.47107e+09,-2.10438e+06,0.00469185,0.155132,0,0.155203,1000,-51500.3,0,51510,2.10438e+06
step02_gravity_refstate-intrusion.xmf,14,-2.24183e-06,7.36413e-06,0,2.51782e-05,-1.53565e+09,-1.53474e+09,-1.53544e+09,2.40099e+06,0.00212663,0.151459,0,0.151474,-1000,-53499.2,-0,53508.6,2.40099e+06
step02_gravity_refstate-intrusion.xmf,15,-3.65188e-06,1.01075e-05,0,2.51778e-05,-1.55191e+09,-1.5506e+09,-1.55156e+09,2.40095e+06,0.0037588,0.147083,0,0.147131,-1000,-53999.7,-0,54008.9,2.40095e+06
step02_gravity_refstate-intrusion.xmf,16,1.83691e-06,-9.43979e-07,0,-2.34822e-05,-1.48699e+09,-1.48725e+09,-1.48716e+09,-2.23926e+06,0.00290914,0.156335,0,0.156362,1000,-52000.6,0,52010.2,2.23926e+06
step02_gravity_refstate-intrusion.xmf,17,-5.04127e-06,1.28858e-05,0,2.49259e-05,-1.56817e+09,-1.56646e+09,-1.56768e+09,2.37693e+06,0.00541431,0.141331,0,0.141435,-1000,-54500.1,-0,54509.3,2.37693e+06
step02_gravity_refstate-intrusion.xmf,18,-6.4648e-06,1.57185e-05,0,2.43423e-05,-1.5844e+09,-1.58229e+09,-1.58378e+09,2.32128e+06,0.00712208,0.134186,0,0.134375,-1000,-54999.9,-0,55009,2.32128e+06
step02_gravity_refstate-intrusion.xmf,19,5.30681e-07,1.89162e-06,0,-2.44089e-05,-1.5032e+09,-1.50307e+09,-1.50325e+09,-2.32763e+06,0.00118167,0.1561,0,0.156105,1000,-52500.2,0,52509.7,2.32763e+06
step02_gravity_refstate-intrusion.xmf,20,-8.24027e-07,4.647e-06,0,-2.49578e-05,-1.51941e+09,-1.51889e+09,-1.51933e+09,-2.37998e+06,-0.000488754,0.154467,-0,0.154468,1000,-52999.4,0,53008.9,2.37998e+06
step02_gravity_refstate-intrusion.xmf,21,-7.92077e-06,1.88369e-05,0,2.34576e-05,-1.60061e+09,-1.59806e+09,-1.59985e+09,2.23692e+06,0.00890945,0.125596,0,0.125911,-1000,-55499.2,-0,55508.2,2.23692e+06
step02_gravity_refstate-intrusion.xmf,22,-2.21288e-06,7.37739e-06,0,-2.5208e-05,-1.53565e+09,-1.53473e+09,-1.53544e+09,-2.40384e+06,-0.00212703,0.151459,-0,0.151474,1000,-53499.2,0,53508.6,2.40384e+06
step02_gravity_refstate-intrusion.xmf,23,-9.20553e-06,2.17568e-05,0,2.21282e-05,-1.61681e+09,-1.61386e+09,-1.61593e+09,2.11014e+06,0.0107997,0.115488,0,0.115991,-1000,-55998.8,-0,56007.7,2.11014e+06
step02_gravity_refstate-intrusion.xmf,24,-3.61693e-06,1.01066e-05,0,-2.51894e-05,-1.55191e+09,-1.5506e+09,-1.55156e+09,-2.40206e+06,-0.00375944,0.147082,-0,0.14713,1000,-53999.7,0,54008.9,2.40206e+06
step02_gravity_refstate-intrusion.xmf,25,-1.05745e-05,2.53476e-05,0,2.01842e-05,-1.63301e+09,-1.62958e+09,-1.632e+09,1.92476e+06,0.0127886,0.103774,0,0.104559,-1000,-56499,-0,56507.8,1.92476e+06
step02_gravity_refstate-intrusion.xmf,26,-1.15566e-05,2.87994e-05,0,1.74668e-05,-1.64917e+09,-1.64532e+09,-1.64806e+09,1.66563e+06,0.0147668,0.090401,0,0.0915991,-1000,-56999.5,-0,57008.3,1.66563e+06
step02_gravity_refstate-intrusion.xmf,27,-1.20841e-05,3.16905e-05,0,1.34717e-05,-1.66527e+09,-1.66109e+09,-1.66412e+09,1.28466e+06,0.016372,0.0753802,0,0.0771377,-1000,-57499.6,-0,57508.3,1.28466e+06
step02_gravity_refstate-intrusion.xmf,28,-5.03096e-06,1.28736e-05,0,-2.49118e-05,-1.56816e+09,-1.56646e+09,-1.56768e+09,-2.37559e+06,-0.0054145,0.141331,-0,0.141434,1000,-54500.1,0,54509.3,2.37559e+06
step02_gravity_refstate-intrusion.xmf,29,-1.41514e-05,3.89603e-05,0,8.5141e-06,-1.68137e+09,-1.67631e+09,-1.68002e+09,811905,0.0161112,0.0588584,0,0.0610236,-1000,-58000,-0,58008.6,811905
step02_gravity_refstate-intrusion.xmf,30,-6.44676e-06,1.57169e-05,0,-2.43565e-05,-1.5844e+09,-1.58228e+09,-1.58378e+09,-2.32264e+06,-0.00712127,0.134184,-0,0.134373,1000,-54999.9,0,55009,2.32264e+06
step02_gravity_refstate-intrusion.xmf,31,-1.65151e-05,4.75171e-05,0,5.51113e-06,-1.68124e+09,-1.67514e+09,-1.67967e+09,525541,0.00844287,0.0638159,0,0.0643719,-499.828,-58000,-0,58002.2,525541
step02_gravity_refstate-intrusion.xmf,32,-7.85548e-06,1.86731e-05,0,-2.34628e-05,-1.60061e+09,-1.59808e+09,-1.59986e+09,-2.23742e+06,-0.00890844,0.125597,-0,0.125913,1000,-55499.2,0,55508.2,2.23742e+06
step02_gravity_refstate-intrusion.xmf,33,-9.20248e-06,2.17637e-05,0,-2.21313e-05,-1.61681e+09,-1.61386e+09,-1.61593e+09,-2.11044e+06,-0.0107995,0.115488,-0,0.115992,1000,-55998.8,0,56007.7,2.11044e+06
step02_gravity_refstate-intrusion.xmf,34,-1.72531e-05,4.97506e-05,0,-2.48695e-07,-1.68123e+09,-1.67484e+09,-1.67958e+09,-23715.5,2.56284e-06,0.0658243,0,0.0658243,-1.02887e-10,-58000,-0,58000,23715.5
step02_gravity_refstate-intrusion.xmf,35,-1.04274e-05,2.50738e-05,0,-2.02473e-05,-1.633e+09,-1.62962e+09,-1.63201e+09,-1.93078e+06,-0.0127873,0.103774,-0,0.104559,1000,-56499,0,56507.8,1.93078e+06
step02_gravity_refstate-intrusion.xmf,36,-1.65553e-05,4.81787e-05,0,-6.42893e-06,-1.68121e+09,-1.67504e+09,-1.67963e+09,-613063,-0.00844272,0.0638281,-0,0.064384,499.828,-58000,0,58002.2,613063
step02_gravity_refstate-intrusion.xmf,37,-1.14099e-05,2.8453e-05,0,-1.75122e-05,-1.64916e+09,-1.64536e+09,-1.64808e+09,-1.66996e+06,-0.0147647,0.0904028,-0,0.0916006,1000,-56999.5,0,57008.3,1.66996e+06
step02_gravity_refstate-intrusion.xmf,38,-1.18051e-05,3.42577e-05,0,-9.68087e-06,-1.68128e+09,-1.67689e+09,-1.68015e+09,-923168,-0.0161084,0.0588665,-0,0.0610307,1000,-58000,0,58008.6,923168
step02_gravity_refstate-intrusion.xmf,39,-1.21039e-05,3.17335e-05,0,-1.35466e-05,-1.66527e+09,-1.66109e+09,-1.66411e+09,-1.29181e+06,-0.0163736,0.0753786,-0,0.0771364,1000,-57499.6,0,57508.3,1.29181e+06
step02_gravity_refstate-intrusion.xmf,40,7.88803e-06,-1.67103e-05,0,9.29598e-06,-1.43396e+09,-1.43631e+09,-1.43472e+09,886464,-0.00584781,0.156544,-0,0.156653,-636.59,-50363.3,-0,50367.4,886464
step02_gravity_refstate-intrusion.xmf,41,7.33217e-06,-1.33884e-05,0,1.00326e-05,-1.4468e+09,-1.44877e+09,-1.44749e+09,956711,-0.00495426,0.163263,-0,0.163338,-598.146,-50763,-0,50766.5,956711
step02_gravity_refstate-intrusion.xmf,42,9.56731e-06,-1.97007e-05,0,4.03125e-06,-1.43473e+09,-1.43752e+09,-1.43564e+09,384420,-0.00271356,0.161909,-0,0.161932,-280.8,-50389.7,-0,50390.5,384420
step02_gravity_refstate-intrusion.xmf,43,9.82594e-06,-1.91598e-05,0,-2.79671e-06,-1.43672e+09,-1.43948e+09,-1.43766e+09,-266695,0.00205114,0.163658,0,0.163671,212.705,-50453.3,0,50453.8,266695
step02_gravity_refstate-intrusion.xmf,44,5.03283e-06,-7.8949e-06,0,1.40151e-05,-1.46229e+09,-1.46352e+09,-1.46277e+09,1.33648e+06,-0.00436597,0.165302,-0,0.165359,-703.672,-51240.4,-0,51245.2,1.33648e+06
step02_gravity_refstate-intrusion.xmf,45,8.8967e-06,-1.56857e-05,0,2.7145e-06,-1.44654e+09,-1.44889e+09,-1.44739e+09,258855,-0.00145262,0.169273,-0,0.16928,-162.769,-50758.4,-0,50758.7,258855
step02_gravity_refstate-intrusion.xmf,46,8.2846e-06,-1.67795e-05,0,-8.92614e-06,-1.43391e+09,-1.4363e+09,-1.4347e+09,-851196,0.00584796,0.156553,0,0.156662,636.493,-50363.4,0,50367.5,851196
step02_gravity_refstate-intrusion.xmf,47,4.22297e-06,-5.41318e-06,0,1.12504e-05,-1.47697e+09,-1.47789e+09,-1.47737e+09,1.07284e+06,-0.00238608,0.173373,-0,0.173389,-520.485,-51694.5,-0,51697.1,1.07284e+06
step02_gravity_refstate-intrusion.xmf,48,6.98236e-06,-1.1077e-05,0,5.41471e-06,-1.46002e+09,-1.46174e+09,-1.46068e+09,516347,-0.00203844,0.173579,-0,0.173591,-289.596,-51173.8,-0,51174.6,516347
step02_gravity_refstate-intrusion.xmf,49,7.84653e-06,-1.2808e-05,0,-2.77597e-06,-1.45439e+09,-1.45636e+09,-1.45514e+09,-264717,0.00130629,0.172699,0,0.172704,166.585,-51000.9,0,51001.2,264717
step02_gravity_refstate-intrusion.xmf,50,7.0629e-06,-1.28232e-05,0,-9.87929e-06,-1.44683e+09,-1.44873e+09,-1.44751e+09,-942089,0.00493933,0.163318,0,0.163393,596.265,-50763.9,0,50767.4,942089
step02_gravity_refstate-intrusion.xmf,51,2.02619e-06,-6.686e-07,0,1.36817e-05,-1.49531e+09,-1.49556e+09,-1.4955e+09,1.30469e+06,-0.00135004,0.173337,-0,0.173342,-580.523,-52258.9,-0,52262.1,1.30469e+06
step02_gravity_refstate-intrusion.xmf,52,5.39269e-06,-7.02888e-06,0,-1.75951e-06,-1.47319e+09,-1.47438e+09,-1.47371e+09,-167787,0.000471291,0.178842,0,0.178842,88.6637,-51580.5,0,51580.6,167787
step02_gravity_refstate-intrusion.xmf,53,5.49394e-06,-8.38961e-06,0,-1.11396e-05,-1.46302e+09,-1.46435e+09,-1.46355e+09,-1.06227e+06,0.00359893,0.169281,0,0.169319,568.378,-51264.3,0,51267.5,1.06227e+06
step02_gravity_refstate-intrusion.xmf,54,3.15435e-06,-2.78178e-06,0,3.14791e-06,-1.48981e+09,-1.49037e+09,-1.49011e+09,300185,-0.000424957,0.181039,-0,0.181039,-136.384,-52090.6,-0,52090.8,300185
step02_gravity_refstate-intrusion.xmf,55,2.79549e-07,2.69999e-06,0,1.47212e-05,-1.51174e+09,-1.51151e+09,-1.51177e+09,1.40381e+06,-0.000281122,0.172138,-0,0.172138,-603.06,-52764.3,-0,52767.7,1.40381e+06
step02_gravity_refstate-intrusion.xmf,56,1.1855e-06,1.09388e-06,0,4.87806e-06,-1.50607e+09,-1.50608e+09,-1.50619e+09,465172,-0.000242113,0.180858,-0,0.180858,-202.103,-52590.7,-0,52591,465172
step02_gravity_refstate-intrusion.xmf,57,3.42592e-06,-3.3237e-06,0,-6.18135e-06,-1.48722e+09,-1.48786e+09,-1.48754e+09,-589453,0.000939984,0.179405,0,0.179407,274.592,-52010.9,0,52011.6,589453
step02_gravity_refstate-intrusion.xmf,58,3.73428e-06,-4.34648e-06,0,-1.24024e-05,-1.4788e+09,-1.47957e+09,-1.47915e+09,-1.1827e+06,0.00244999,0.172428,0,0.172445,567.152,-51750.4,0,51753.6,1.1827e+06
step02_gravity_refstate-intrusion.xmf,59,1.75231e-06,-5.30026e-08,0,-5.07813e-06,-1.50126e+09,-1.50144e+09,-1.50143e+09,-484251,0.00037979,0.180797,0,0.180797,215.611,-52442.7,0,52443.2,484251
step02_gravity_refstate-intrusion.xmf,60,-1.28836e-06,5.6744e-06,0,1.46474e-05,-1.52741e+09,-1.52674e+09,-1.52729e+09,1.39678e+06,0.000717515,0.170544,0,0.170545,-589.66,-53246.1,-0,53249.4,1.39678e+06
step02_gravity_refstate-intrusion.xmf,61,-3.33632e-07,3.91258e-06,0,6.78645e-06,-1.51939e+09,-1.51899e+09,-1.51936e+09,647156,8.50947e-05,0.178891,0,0.178891,-277.129,-52999.8,-0,53000.5,647156
step02_gravity_refstate-intrusion.xmf,62,-2.72484e-07,3.82807e-06,0,-3.71584e-06,-1.51905e+09,-1.51866e+09,-1.51902e+09,-354342,-3.86247e-05,0.180335,-0,0.180335,152.905,-52989.4,0,52989.6,354342
step02_gravity_refstate-intrusion.xmf,63,2.03026e-06,-8.75142e-07,0,-1.41602e-05,-1.49473e+09,-1.495e+09,-1.49492e+09,-1.35032e+06,0.00143843,0.172584,0,0.17259,605.053,-52240.6,0,52244.1,1.35032e+06
step02_gravity_refstate-intrusion.xmf,64,3.69727e-07,2.429e-06,0,-1.44111e-05,-1.51084e+09,-1.51065e+09,-1.51088e+09,-1.37424e+06,0.000337978,0.17251,0,0.172511,593.413,-52736.5,0,52739.8,1.37424e+06
step02_gravity_refstate-intrusion.xmf,65,-3.12348e-06,9.0589e-06,0,1.321e-05,-1.54565e+09,-1.54449e+09,-1.54535e+09,1.25971e+06,0.00166284,0.168185,0,0.168193,-530.003,-53806.9,-0,53809.5,1.25971e+06
step02_gravity_refstate-intrusion.xmf,66,-1.73535e-06,6.54066e-06,0,3.56303e-06,-1.53269e+09,-1.5319e+09,-1.53253e+09,339771,0.000250001,0.178235,0,0.178235,-143.725,-53408.7,-0,53408.9,339771
step02_gravity_refstate-intrusion.xmf,67,-1.34459e-06,5.69764e-06,0,-1.48029e-05,-1.52746e+09,-1.52679e+09,-1.52733e+09,-1.41161e+06,-0.000727627,0.170329,-0,0.17033,596.267,-53247.4,0,53250.7,1.41161e+06
step02_gravity_refstate-intrusion.xmf,68,-4.51648e-06,1.16998e-05,0,1.79358e-05,-1.56005e+09,-1.55851e+09,-1.55962e+09,1.71036e+06,0.00334422,0.157209,0,0.157244,-720.738,-54249.9,-0,54254.7,1.71036e+06
step02_gravity_refstate-intrusion.xmf,69,-2.02319e-06,7.02855e-06,0,-6.65189e-06,-1.53504e+09,-1.53417e+09,-1.53484e+09,-634324,-0.00053581,0.176393,-0,0.176394,267.673,-53480.7,0,53481.3,634324
step02_gravity_refstate-intrusion.xmf,70,-6.01208e-06,1.44953e-05,0,1.6436e-05,-1.57478e+09,-1.57283e+09,-1.57421e+09,1.56734e+06,0.00418547,0.153069,0,0.153126,-671.934,-54702.8,-0,54707,1.56734e+06
step02_gravity_refstate-intrusion.xmf,71,-4.9469e-06,1.23946e-05,0,8.28471e-06,-1.56259e+09,-1.56093e+09,-1.56212e+09,790030,0.00166988,0.167063,0,0.167071,-336.33,-54327.4,-0,54328.4,790030
step02_gravity_refstate-intrusion.xmf,72,-3.55615e-06,9.82273e-06,0,-2.05463e-06,-1.54934e+09,-1.54806e+09,-1.549e+09,-195930,-0.000291043,0.174417,-0,0.174417,82.1887,-53920.1,0,53920.2,195930
step02_gravity_refstate-intrusion.xmf,73,-2.97371e-06,8.73971e-06,0,-1.41673e-05,-1.54379e+09,-1.54267e+09,-1.5435e+09,-1.35099e+06,-0.00166741,0.167615,-0,0.167623,566.976,-53749.4,0,53752.4,1.35099e+06
step02_gravity_refstate-intrusion.xmf,74,-7.98015e-06,1.81943e-05,0,1.21087e-05,-1.59103e+09,-1.58853e+09,-1.59027e+09,1.15468e+06,0.00418807,0.14979,0,0.149848,-514.683,-55201.8,-0,55204.2,1.15468e+06
step02_gravity_refstate-intrusion.xmf,75,-6.54788e-06,1.54132e-05,0,6.48927e-06,-1.57684e+09,-1.57474e+09,-1.57621e+09,618817,0.00175516,0.162083,0,0.162093,-267.375,-54765.3,-0,54766,618817
step02_gravity_refstate-intrusion.xmf,76,-5.62368e-06,1.3598e-05,0,-2.84629e-06,-1.56822e+09,-1.56639e+09,-1.56769e+09,-271422,-0.000643566,0.16745,-0,0.167451,114.996,-54500.4,0,54500.5,271422
step02_gravity_refstate-intrusion.xmf,77,-4.58652e-06,1.1725e-05,0,-1.38087e-05,-1.55963e+09,-1.55808e+09,-1.55919e+09,-1.3168e+06,-0.00256542,0.162981,-0,0.163001,555.258,-54236.6,0,54239.5,1.3168e+06
step02_gravity_refstate-intrusion.xmf,78,-9.85337e-06,2.21083e-05,0,1.29694e-05,-1.60897e+09,-1.60593e+09,-1.60803e+09,1.23677e+06,0.00601255,0.136837,0,0.136969,-583.835,-55754.2,-0,55757.3,1.23677e+06
step02_gravity_refstate-intrusion.xmf,79,-7.83458e-06,1.78012e-05,0,-1.90749e-06,-1.58721e+09,-1.58477e+09,-1.58647e+09,-181898,-0.000640421,0.158504,-0,0.158505,82.3661,-55084,0,55084.1,181898
step02_gravity_refstate-intrusion.xmf,80,-1.16476e-05,2.58048e-05,0,1.20896e-05,-1.62465e+09,-1.62108e+09,-1.62354e+09,1.15286e+06,0.00739802,0.12493,0,0.125149,-597.896,-56236.7,-0,56239.8,1.15286e+06
step02_gravity_refstate-intrusion.xmf,81,-9.85038e-06,2.16405e-05,0,3.06735e-06,-1.60366e+09,-1.60066e+09,-1.60272e+09,292502,0.00134868,0.148307,0,0.148314,-137.361,-55589.4,-0,55589.6,292502
step02_gravity_refstate-intrusion.xmf,82,-6.36918e-06,1.50487e-05,0,-1.3505e-05,-1.57669e+09,-1.57465e+09,-1.57608e+09,-1.28784e+06,-0.00358537,0.15602,-0,0.156062,553.316,-54761,0,54763.8,1.28784e+06
step02_gravity_refstate-intrusion.xmf,83,-1.14715e-05,2.48625e-05,0,5.5221e-06,-1.61707e+09,-1.6136e+09,-1.61597e+09,526588,0.00306899,0.137515,0,0.137549,-265.274,-56001.4,-0,56002.1,526588
step02_gravity_refstate-intrusion.xmf,84,-9.44085e-06,2.08991e-05,0,-6.25121e-06,-1.60113e+09,-1.59824e+09,-1.60023e+09,-596116,-0.00259071,0.148563,-0,0.148585,274.062,-55511.8,0,55512.4,596116
step02_gravity_refstate-intrusion.xmf,85,-1.37901e-05,3.10931e-05,0,1.02343e-05,-1.64072e+09,-1.63644e+09,-1.63941e+09,975943,0.00860559,0.111299,0,0.111631,-585.884,-56732.2,-0,56735.3,975943
step02_gravity_refstate-intrusion.xmf,86,-1.57205e-05,3.6683e-05,0,8.39512e-06,-1.65723e+09,-1.65224e+09,-1.65574e+09,800559,0.0101499,0.0940335,0,0.0945797,-600.238,-57243.1,-0,57246.2,800559
step02_gravity_refstate-intrusion.xmf,87,-1.36343e-05,2.90285e-05,0,3.54842e-06,-1.6308e+09,-1.62673e+09,-1.6295e+09,338377,0.00266461,0.126866,0,0.126894,-195.948,-56422.8,-0,56423.2,338377
step02_gravity_refstate-intrusion.xmf,88,-1.17278e-05,2.50468e-05,0,-3.56595e-06,-1.6173e+09,-1.61379e+09,-1.61618e+09,-340049,-0.001915,0.138365,-0,0.138378,164.263,-56007.8,0,56008,340049
step02_gravity_refstate-intrusion.xmf,89,-8.03796e-06,1.84415e-05,0,-1.33206e-05,-1.59257e+09,-1.59004e+09,-1.5918e+09,-1.27025e+06,-0.00470645,0.147463,-0,0.147538,567.431,-55249.5,0,55252.4,1.27025e+06
step02_gravity_refstate-intrusion.xmf,90,-1.63542e-05,4.08572e-05,0,7.24053e-06,-1.66983e+09,-1.66437e+09,-1.66827e+09,690456,0.0113139,0.0783451,0,0.0791578,-636.534,-57636.5,-0,57640,690456
step02_gravity_refstate-intrusion.xmf,91,-9.79315e-06,2.20332e-05,0,-1.33884e-05,-1.60888e+09,-1.60584e+09,-1.60794e+09,-1.27671e+06,-0.00618686,0.136379,-0,0.136519,601.975,-55751.4,0,55754.6,1.27671e+06
step02_gravity_refstate-intrusion.xmf,92,-1.67707e-05,3.66136e-05,0,2.00767e-06,-1.64951e+09,-1.64442e+09,-1.64791e+09,191451,0.00219537,0.108536,0,0.108558,-132.961,-56999.5,-0,56999.6,191451
step02_gravity_refstate-intrusion.xmf,93,-1.82651e-05,4.38949e-05,0,3.35338e-06,-1.66784e+09,-1.66191e+09,-1.6661e+09,319778,0.00488656,0.0850462,0,0.0851864,-267.111,-57571.3,-0,57572,319778
step02_gravity_refstate-intrusion.xmf,94,-1.43654e-05,3.07219e-05,0,-4.19465e-06,-1.63583e+09,-1.63153e+09,-1.63446e+09,-400002,-0.00330182,0.121924,-0,0.121969,229.829,-56577.6,0,56578.1,400002
step02_gravity_refstate-intrusion.xmf,95,-1.18315e-05,2.60077e-05,0,-1.23182e-05,-1.62552e+09,-1.62192e+09,-1.6244e+09,-1.17466e+06,-0.00753444,0.124092,-0,0.124321,603.337,-56263.1,0,56266.3,1.17466e+06
step02_gravity_refstate-intrusion.xmf,96,-1.83885e-05,4.34311e-05,0,-2.69104e-06,-1.6656e+09,-1.6597e+09,-1.66384e+09,-256617,-0.00422837,0.088299,-0,0.0884002,231.667,-57500.7,0,57501.1,256617
step02_gravity_refstate-intrusion.xmf,97,-1.62318e-05,3.59578e-05,0,-4.78154e-06,-1.64989e+09,-1.64491e+09,-1.64834e+09,-455968,-0.0051842,0.106641,-0,0.106767,316.359,-57012.4,0,57013.2,455968
step02_gravity_refstate-intrusion.xmf,98,-1.36827e-05,3.04762e-05,0,-1.10288e-05,-1.64165e+09,-1.63744e+09,-1.64034e+09,-1.05171e+06,-0.00919397,0.109519,-0,0.109904,623.926,-56760.2,0,56763.6,1.05171e+06
step02_gravity_refstate-intrusion.xmf,99,-1.52962e-05,3.58948e-05,0,-8.8321e-06,-1.65687e+09,-1.65199e+09,-1.65542e+09,-842229,-0.0106435,0.0937505,-0,0.0943527,634.022,-57232.6,0,57236.1,842229
step02_gravity_refstate-intrusion.xmf,100,-1.69647e-05,4.21391e-05,0,-7.05357e-06,-1.67008e+09,-1.66444e+09,-1.66846e+09,-672629,-0.0117478,0.0776593,-0,0.0785428,662.605,-57643.6,0,57647.4,672629
step02_gravity_refstate-crust.xmf,0,-5.19107e-09,3.81748e-06,0,-2.45094e-09,-1.09856e+09,-1.0983e+09,-1.09856e+09,-168.134,-1.83493e-20,0.0436087,-0,0.0436087,-40000,-40000,-0,56568.5,168.134
step02_gravity_refstate-crust.xmf,1,-1.63403e-08,3.83035e-06,0,-1.82231e-08,-1.09856e+09,-1.0983e+09,-1.09856e+09,-1250.11,-2.52383e-05,0.0436965,-0,0.0436965,-37557.3,-40000,-0,54868.5,1250.11
step02_gravity_refstate-crust.xmf,2,-4.53749e-08,3.85951e-06,0,-2.83251e-08,-1.09856e+09,-1.09829e+09,-1.09856e+09,-1943.1,-9.6935e-05,0.0439516,-0,0.0439517,-35229,-40000,-0,53301.8,1943.1
step02_gravity_refstate-crust.xmf,3,-9.20519e-08,3.90508e-06,0,-3.14838e-08,-1.09856e+09,-1.09829e+09,-1.09856e+09,-2159.79,-0.000248265,0.0443711,-0,0.0443718,-33009.3,-40000,-0,51861.5,2159.79
step02_gravity_refstate-crust.xmf,4,-1.53138e-07,3.96343e-06,0,-2.35453e-08,-1.09857e+09,-1.09829e+09,-1.09856e+09,-1615.21,-0.000506291,0.0449625,-0,0.0449654,-30892.4,-40000,-0,50540.5,1615.21
step02_gravity_refstate-crust.xmf,5,-2.26463e-07,4.03161e-06,0,-1.01686e-09,-1.09857e+09,-1.09828e+09,-1.09856e+09,-69.7564,-0.000888923,0.0457404,-0,0.045749,-28873.1,-40000,-0,49332.1,69.7564
step02_gravity_refstate-crust.xmf,6,-3.11089e-07,4.1064e-06,0,3.8957e-08,-1.09858e+09,-1.09828e+09,-1.09856e+09,2672.45,-0.00140552,0.0467232,-0,0.0467443,-26946.1,-40000,-0,48229.6,2672.45
step02_gravity_refstate-crust.xmf,7,-4.02983e-07,4.18369e-06,0,9.93656e-08,-1.09859e+09,-1.09827e+09,-1.09856e+09,6816.48,-0.00206084,0.0479331,-0,0.0479774,-25106.5,-40000,-0,47226.4,6816.48
step02_gravity_refstate-crust.xmf,8,-4.98593e-07,4.25777e-06,0,1.83314e-07,-1.09859e+09,-1.09827e+09,-1.09856e+09,12575.3,-0.00285157,0.049393,-0,0.0494752,-23349.5,-40000,-0,46316.3,12575.3
step02_gravity_refstate-crust.xmf,9,-5.93813e-07,4.3236e-06,0,2.93296e-07,-1.0986e+09,-1.09826e+09,-1.09856e+09,20120.1,-0.00376768,0.0511253,-0,0.0512639,-21670.5,-40000,-0,45493,20120.1
step02_gravity_refstate-crust.xmf,10,-6.83278e-07,4.37476e-06,0,4.30659e-07,-1.09861e+09,-1.09826e+09,-1.09856e+09,29543.2,-0.00479148,0.0531501,-0,0.0533656,-20065.1,-40000,-0,44750.5,29543.2
step02_gravity_refstate-crust.xmf,11,-7.59663e-07,4.40285e-06,0,5.96844e-07,-1.09862e+09,-1.09826e+09,-1.09857e+09,40943.5,-0.00589883,0.0554839,-0,0.0557966,-18528.8,-40000,-0,44083.1,40943.5
step02_gravity_refstate-crust.xmf,12,-8.15988e-07,4.39956e-06,0,7.90569e-07,-1.09862e+09,-1.09827e+09,-1.09857e+09,54233.1,-0.00705697,0.0581372,-0,0.058564,-17057.5,-40000,-0,43485.2,54233.1
step02_gravity_refstate-crust.xmf,13,-8.43311e-07,4.35529e-06,0,1.00946e-06,-1.09863e+09,-1.09827e+09,-1.09857e+09,69248.8,-0.00822652,0.0611124,-0,0.0616637,-15647.1,-40000,-0,42951.5,69248.8
step02_gravity_refstate-crust.xmf,14,-8.32484e-07,4.26037e-06,0,1.24934e-06,-1.09863e+09,-1.09828e+09,-1.09857e+09,85704.9,-0.00936119,0.0644018,-0,0.0650786,-14293.4,-40000,-0,42477.1,85704.9
step02_gravity_refstate-crust.xmf,15,-7.78125e-07,4.10768e-06,0,1.49811e-06,-1.09863e+09,-1.0983e+09,-1.09858e+09,102770,-0.0104064,0.0679868,-0,0.0687786,-12992.6,-40000,-0,42057.2,102770
step02_gravity_refstate-crust.xmf,16,-6.64331e-07,3.88616e-06,0,1.74939e-06,-1.09863e+09,-1.09832e+09,-1.09858e+09,120008,-0.0113092,0.0718331,-0,0.0727179,-11740.6,-40000,-0,41687.4,120008
step02_gravity_refstate-crust.xmf,17,-4.90138e-07,3.59243e-06,0,1.98713e-06,-1.09862e+09,-1.09834e+09,-1.09859e+09,136317,-0.0120073,0.0758913,-0,0.0768353,-10533.4,-40000,-0,41363.7,136317
step02_gravity_refstate-crust.xmf,18,-2.51098e-07,3.22422e-06,0,2.19447e-06,-1.09861e+09,-1.09837e+09,-1.09859e+09,150540,-0.0124426,0.0800954,-0,0.0810561,-9366.97,-40000,-0,41082.1,150540
step02_gravity_refstate-crust.xmf,19,4.97036e-08,2.78709e-06,0,2.34846e-06,-1.0986e+09,-1.09841e+09,-1.0986e+09,161105,-0.012558,0.0843613,-0,0.0852909,-8237.32,-40000,-0,40839.4,161105
step02_gravity_refstate-crust.xmf,20,4.11161e-07,2.28794e-06,0,2.43037e-06,-1.09858e+09,-1.09845e+09,-1.09861e+09,166724,-0.0123085,0.0885885,-0,0.0894395,-7140.25,-40000,-0,40632.3,166724
step02_gravity_refstate-crust.xmf,21,8.15979e-07,1.74582e-06,0,2.41785e-06,-1.09856e+09,-1.09849e+09,-1.09861e+09,165864,-0.0116566,0.0926592,-0,0.0933895,-6071.51,-40000,-0,40458.2,165864
step02_gravity_refstate-crust.xmf,22,1.24273e-06,1.19138e-06,0,2.29122e-06,-1.09853e+09,-1.09853e+09,-1.09862e+09,157177,-0.0105846,0.0964436,-0,0.0970227,-5026.7,-40000,-0,40314.6,157177
step02_gravity_refstate-crust.xmf,23,1.6645e-06,6.58605e-07,0,2.04131e-06,-1.09851e+09,-1.09858e+09,-1.09862e+09,140034,-0.00909725,0.099805,-0,0.100219,-4001.3,-40000,-0,40199.6,140034
step02_gravity_refstate-crust.xmf,24,2.04714e-06,1.86107e-07,0,1.66788e-06,-1.09848e+09,-1.09861e+09,-1.09863e+09,114417,-0.0072234,0.102606,-0,0.10286,-2990.68,-40000,-0,40111.6,114417
step02_gravity_refstate-crust.xmf,25,2.35402e-06,-1.92065e-07,0,1.18203e-06,-1.09847e+09,-1.09864e+09,-1.09863e+09,81087,-0.00502103,0.10472,-0,0.104841,-1990.05,-40000,-0,40049.5,81087
step02_gravity_refstate-crust.xmf,26,2.55616e-06,-4.3572e-07,0,6.12568e-07,-1.09845e+09,-1.09866e+09,-1.09863e+09,42022.2,-0.00257783,0.10604,-0,0.106071,-994.552,-40000,-0,40012.4,42022.2
step02_gravity_refstate-crust.xmf,27,-5.19528e-09,3.81754e-06,0,2.42275e-09,-1.09856e+09,-1.0983e+09,-1.09856e+09,166.201,5.55888e-21,0.0436087,0,0.0436087,40000,-40000,0,56568.5,166.201
step02_gravity_refstate-crust.xmf,28,-1.62488e-08,3.83008e-06,0,1.80042e-08,-1.09856e+09,-1.0983e+09,-1.09856e+09,1235.09,2.53758e-05,0.0436965,0,0.0436965,37557.3,-40000,0,54868.5,1235.09
step02_gravity_refstate-crust.xmf,29,2.62795e-06,-5.17361e-07,0,-6.90446e-09,-1.09845e+09,-1.09867e+09,-1.09863e+09,-473.646,-1.80264e-07,0.10649,-0,0.10649,0,-40000,0,40000,473.646
step02_gravity_refstate-crust.xmf,30,-4.55488e-08,3.85972e-06,0,2.84798e-08,-1.09856e+09,-1.09829e+09,-1.09856e+09,1953.71,9.67896e-05,0.0439516,0,0.0439517,35229,-40000,0,53301.8,1953.71
step02_gravity_refstate-crust.xmf,31,2.55452e-06,-4.23537e-07,0,-6.26808e-07,-1.09845e+09,-1.09866e+09,-1.09863e+09,-42999.1,0.00257784,0.10604,0,0.106071,994.552,-40000,0,40012.4,42999.1
step02_gravity_refstate-crust.xmf,32,-9.20035e-08,3.905e-06,0,3.14329e-08,-1.09856e+09,-1.09829e+09,-1.09856e+09,2156.3,0.000248312,0.0443711,0,0.0443718,33009.3,-40000,0,51861.5,2156.3
step02_gravity_refstate-crust.xmf,33,-1.53231e-07,3.96344e-06,0,2.35362e-08,-1.09857e+09,-1.09829e+09,-1.09856e+09,1614.59,0.000506219,0.0449625,0,0.0449654,30892.4,-40000,0,50540.5,1614.59
step02_gravity_refstate-crust.xmf,34,2.35415e-06,-1.72021e-07,0,-1.19381e-06,-1.09847e+09,-1.09864e+09,-1.09863e+09,-81895.4,0.00502117,0.10472,0,0.104841,1990.05,-40000,0,40049.5,81895.4
step02_gravity_refstate-crust.xmf,35,-2.26476e-07,4.03142e-06,0,8.38744e-10,-1.09857e+09,-1.09828e+09,-1.09856e+09,57.5378,0.000888934,0.0457405,0,0.0457491,28873.1,-40000,0,49332.1,57.5378
step02_gravity_refstate-crust.xmf,36,-3.11186e-07,4.10626e-06,0,-3.90738e-08,-1.09858e+09,-1.09828e+09,-1.09856e+09,-2680.46,0.00140548,0.0467232,0,0.0467444,26946.1,-40000,0,48229.6,2680.46
step02_gravity_refstate-crust.xmf,37,2.04215e-06,2.14353e-07,0,-1.67574e-06,-1.09848e+09,-1.09861e+09,-1.09862e+09,-114956,0.00722372,0.102606,0,0.10286,2990.68,-40000,0,40111.6,114956
step02_gravity_refstate-crust.xmf,38,-4.03093e-07,4.18361e-06,0,-9.94046e-08,-1.09859e+09,-1.09827e+09,-1.09856e+09,-6819.16,0.00206079,0.0479331,0,0.0479774,25106.5,-40000,0,47226.4,6819.16
step02_gravity_refstate-crust.xmf,39,1.65778e-06,6.95659e-07,0,-2.04387e-06,-1.09851e+09,-1.09857e+09,-1.09862e+09,-140210,0.0090974,0.0998049,0,0.100219,4001.3,-40000,0,40199.6,140210
step02_gravity_refstate-crust.xmf,40,-4.98952e-07,4.25854e-06,0,-1.8312e-07,-1.09859e+09,-1.09827e+09,-1.09856e+09,-12562,0.00285149,0.049393,0,0.0494752,23349.5,-40000,0,46316.3,12562
step02_gravity_refstate-crust.xmf,41,1.23529e-06,1.23456e-06,0,-2.28752e-06,-1.09853e+09,-1.09853e+09,-1.09861e+09,-156924,0.0105848,0.0964429,0,0.0970221,5026.7,-40000,0,40314.6,156924
step02_gravity_refstate-crust.xmf,42,-5.93919e-07,4.32442e-06,0,-2.93381e-07,-1.0986e+09,-1.09826e+09,-1.09856e+09,-20125.9,0.00376768,0.0511252,0,0.0512639,21670.5,-40000,0,45493,20125.9
step02_gravity_refstate-crust.xmf,43,-6.83269e-07,4.37537e-06,0,-4.30607e-07,-1.09861e+09,-1.09826e+09,-1.09856e+09,-29539.6,0.00479146,0.05315,0,0.0533656,20065.1,-40000,0,44750.5,29539.6
step02_gravity_refstate-crust.xmf,44,-7.59702e-07,4.40353e-06,0,-5.96699e-07,-1.09862e+09,-1.09826e+09,-1.09857e+09,-40933.6,0.0058988,0.0554838,0,0.0557965,18528.8,-40000,0,44083.1,40933.6
step02_gravity_refstate-crust.xmf,45,-8.14591e-07,4.39109e-06,0,-7.88503e-07,-1.09862e+09,-1.09827e+09,-1.09857e+09,-54091.3,0.00705693,0.0581372,0,0.0585639,17057.5,-40000,0,43485.2,54091.3
step02_gravity_refstate-crust.xmf,46,-8.43252e-07,4.3561e-06,0,-1.00918e-06,-1.09863e+09,-1.09827e+09,-1.09857e+09,-69229.6,0.00822651,0.0611124,0,0.0616636,15647.1,-40000,0,42951.5,69229.6
step02_gravity_refstate-crust.xmf,47,-8.32345e-07,4.26028e-06,0,-1.24919e-06,-1.09863e+09,-1.09828e+09,-1.09857e+09,-85694.7,0.00936119,0.0644018,0,0.0650786,14293.4,-40000,0,42477.1,85694.7
step02_gravity_refstate-crust.xmf,48,-7.78081e-07,4.1076e-06,0,-1.49828e-06,-1.09863e+09,-1.0983e+09,-1.09858e+09,-102782,0.0104065,0.0679868,0,0.0687787,12992.6,-40000,0,42057.2,102782
step02_gravity_refstate-crust.xmf,49,8.09407e-07,1.78133e-06,0,-2.40836e-06,-1.09855e+09,-1.09849e+09,-1.09861e+09,-165214,0.0116565,0.0926587,0,0.093389,6071.51,-40000,0,40458.2,165214
step02_gravity_refstate-crust.xmf,50,-6.6448e-07,3.8865e-06,0,-1.75004e-06,-1.09863e+09,-1.09832e+09,-1.09858e+09,-120052,0.0113092,0.0718331,0,0.0727179,11740.6,-40000,0,41687.4,120052
step02_gravity_refstate-crust.xmf,51,4.05076e-07,2.31438e-06,0,-2.41918e-06,-1.09858e+09,-1.09845e+09,-1.0986e+09,-165956,0.0123082,0.0885882,0,0.0894391,7140.25,-40000,0,40632.3,165956
step02_gravity_refstate-crust.xmf,52,-4.90287e-07,3.59432e-06,0,-1.98614e-06,-1.09862e+09,-1.09834e+09,-1.09859e+09,-136249,0.0120072,0.0758912,0,0.0768352,10533.4,-40000,0,41363.7,136249
step02_gravity_refstate-crust.xmf,53,4.60389e-08,2.80804e-06,0,-2.33765e-06,-1.0986e+09,-1.09841e+09,-1.0986e+09,-160363,0.0125582,0.0843613,0,0.0852909,8237.32,-40000,0,40839.4,160363
step02_gravity_refstate-crust.xmf,54,-2.56584e-07,3.24054e-06,0,-2.18394e-06,-1.09861e+09,-1.09837e+09,-1.09859e+09,-149818,0.0124428,0.0800954,0,0.0810561,9366.97,-40000,0,41082.1,149818
step02_gravity_refstate-crust.xmf,55,-3.28508e-07,3.23521e-07,0,1.2675e-08,-6.32459e+07,-6.32011e+07,-6.32233e+07,869.508,-0.000762548,0.123353,-0,0.123355,-37697.7,-2301.7,-0,37767.9,869.508
step02_gravity_refstate-crust.xmf,56,-4.00603e-07,1.50814e-07,0,-1.79676e-09,-38105.4,-278.144,-10624,-123.258,-1.57947e-19,0.123797,-0,0.123797,-40000,0,-0,40000,123.258
step02_gravity_refstate-crust.xmf,57,-3.93797e-07,1.4915e-07,0,-1.6455e-09,-37419.9,-173.66,-10405.3,-112.881,-0.0014485,0.124041,-0,0.124049,-36401.3,0,-0,36401.3,112.881
step02_gravity_refstate-crust.xmf,58,-3.01825e-07,4.16761e-07,0,-9.4021e-10,-9.53329e+07,-9.52836e+07,-9.53122e+07,-64.4984,-1.48247e-19,0.122812,-0,0.122812,-40000,-3470.11,-0,40150.2,64.4984
step02_gravity_refstate-crust.xmf,59,-2.91334e-07,3.62847e-07,0,3.98641e-08,-7.94267e+07,-7.93818e+07,-7.94067e+07,2734.68,-0.00158668,0.123562,-0,0.123572,-34881.7,-2890.99,-0,35001.3,2734.68
step02_gravity_refstate-crust.xmf,60,-2.66147e-07,5.51217e-07,0,3.3624e-08,-1.3995e+08,-1.39894e+08,-1.39932e+08,2306.61,-0.000734201,0.122174,-0,0.122176,-37285.5,-5094.79,-0,37632,2306.61
step02_gravity_refstate-crust.xmf,61,-3.53007e-07,1.33036e-07,0,-1.35861e-10,-33572.1,-229.56,-9355.82,-9.3201,-0.0027596,0.124732,-0,0.124762,-32904.6,0,-0,32904.6,9.3201
step02_gravity_refstate-crust.xmf,62,-2.47562e-07,7.04572e-07,0,-5.90124e-10,-1.87181e+08,-1.87116e+08,-1.87164e+08,-40.4825,-1.27829e-19,0.120937,-0,0.120937,-40000,-6814.61,-0,40576.3,40.4825
step02_gravity_refstate-crust.xmf,63,-2.48868e-07,3.73852e-07,0,6.95621e-08,-8.80211e+07,-8.79784e+07,-8.80041e+07,4771.96,-0.0025132,0.124401,-0,0.124427,-31298.7,-3204.07,-0,31462.3,4771.96
step02_gravity_refstate-crust.xmf,64,-2.28415e-07,6.7271e-07,0,9.25665e-08,-1.80975e+08,-1.80913e+08,-1.8096e+08,6350.06,-0.00146089,0.121848,-0,0.121856,-33999.5,-6588.7,-0,34632,6350.06
step02_gravity_refstate-crust.xmf,65,-2.26886e-07,8.52197e-07,0,5.04869e-08,-2.32268e+08,-2.32194e+08,-2.32252e+08,3463.4,-0.000644211,0.119822,-0,0.119824,-37224.2,-8456.34,-0,38172.6,3463.4
step02_gravity_refstate-crust.xmf,66,-1.98855e-07,6.57196e-07,0,1.35175e-07,-1.7988e+08,-1.79822e+08,-1.79867e+08,9272.99,-0.00214557,0.122855,-0,0.122874,-30808.6,-6548.93,-0,31497,9272.99
step02_gravity_refstate-crust.xmf,67,-1.94997e-07,9.15765e-07,0,1.49136e-07,-2.55151e+08,-2.55074e+08,-2.55137e+08,10230.7,-0.00172998,0.120274,-0,0.120286,-32036.9,-9289.64,-0,33356.6,10230.7
step02_gravity_refstate-crust.xmf,68,-2.91505e-07,1.10377e-07,0,1.15356e-09,-27701,-131.853,-7703.73,79.1343,-0.00385875,0.125795,-0,0.125855,-29500.3,0,-0,29500.3,79.1343
step02_gravity_refstate-crust.xmf,69,-2.24512e-07,1.00456e-06,0,-4.40485e-10,-2.75811e+08,-2.75726e+08,-2.75795e+08,-30.2172,-1.15488e-19,0.118179,-0,0.118179,-40000,-10041.8,-0,41241.2,30.2172
step02_gravity_refstate-crust.xmf,70,-2.10824e-07,1.03996e-06,0,1.09555e-07,-2.88154e+08,-2.88068e+08,-2.8814e+08,7515.45,-0.00115366,0.11833,-0,0.118336,-34741.3,-10491.3,-0,36290.8,7515.45
step02_gravity_refstate-crust.xmf,71,-1.67601e-07,8.75963e-07,0,1.93659e-07,-2.48191e+08,-2.4812e+08,-2.4818e+08,13285,-0.00225273,0.121591,-0,0.121612,-29210,-9036.33,-0,30575.8,13285
step02_gravity_refstate-crust.xmf,72,-1.96453e-07,4.81916e-07,0,1.20344e-07,-1.28391e+08,-1.28345e+08,-1.28378e+08,8255.59,-0.00269804,0.124518,-0,0.124547,-29268.6,-4674.16,-0,29639.4,8255.59
step02_gravity_refstate-crust.xmf,73,-2.01945e-07,2.98781e-07,0,7.7213e-08,-7.05784e+07,-7.05441e+07,-7.05646e+07,5296.81,-0.00343793,0.125929,-0,0.125976,-27856.4,-2569.12,-0,27974.6,5296.81
step02_gravity_refstate-crust.xmf,74,-2.17527e-07,1.16394e-06,0,5.96164e-08,-3.21537e+08,-3.21442e+08,-3.21522e+08,4089.69,-0.000591782,0.116534,-0,0.116536,-37318.8,-11706.8,-0,39111.9,4089.69
step02_gravity_refstate-crust.xmf,75,-1.972e-07,1.1286e-06,0,1.55774e-07,-3.15402e+08,-3.15311e+08,-3.15388e+08,10686.1,-0.00153846,0.117781,-0,0.117791,-32809.6,-11483.5,-0,34761.2,10686.1
step02_gravity_refstate-crust.xmf,76,-1.7881e-07,1.13585e-06,0,2.06768e-07,-3.20929e+08,-3.20839e+08,-3.20917e+08,14184.3,-0.00200073,0.118447,-0,0.118464,-30354.9,-11684.8,-0,32526.2,14184.3
step02_gravity_refstate-crust.xmf,77,-1.57787e-07,6.48176e-07,0,1.74863e-07,-1.83473e+08,-1.83417e+08,-1.83462e+08,11995.6,-0.00266672,0.124013,-0,0.124042,-27807.8,-6679.87,-0,28598.8,11995.6
step02_gravity_refstate-crust.xmf,78,-2.09268e-07,7.96555e-08,0,1.06506e-09,-19868.5,-48.3269,-5512.69,73.0634,-0.00469458,0.127147,-0,0.127233,-26179,0,-0,26179,73.0634
step02_gravity_refstate-crust.xmf,79,-2.21949e-07,1.30985e-06,0,-3.70633e-10,-3.61443e+08,-3.61338e+08,-3.61427e+08,-25.4254,-1.13412e-19,0.114571,-0,0.114571,-40000,-13159.8,-0,42109.2,25.4254
step02_gravity_refstate-crust.xmf,80,-2.09088e-07,1.32547e-06,0,1.2948e-07,-3.6829e+08,-3.68184e+08,-3.68275e+08,8882.35,-0.00118941,0.114923,-0,0.11493,-34561.4,-13409.2,-0,37071.5,8882.35
step02_gravity_refstate-crust.xmf,81,-1.97694e-07,1.31396e-06,0,1.82875e-07,-3.67884e+08,-3.6778e+08,-3.6787e+08,12545.2,-0.00166087,0.115631,-0,0.115643,-32254.8,-13394.4,-0,34925.4,12545.2
step02_gravity_refstate-crust.xmf,82,-1.47009e-07,1.07448e-06,0,2.54511e-07,-3.0985e+08,-3.09767e+08,-3.0984e+08,17459.4,-0.0024728,0.120229,-0,0.120255,-27459.2,-11281.5,-0,29686.4,17459.4
step02_gravity_refstate-crust.xmf,83,-1.28325e-07,8.4207e-07,0,2.34324e-07,-2.45036e+08,-2.44969e+08,-2.45027e+08,16074.6,-0.00269812,0.123113,-0,0.123143,-26240.4,-8921.56,-0,27715.5,16074.6
step02_gravity_refstate-crust.xmf,84,-1.46503e-07,4.49778e-07,0,1.43102e-07,-1.25123e+08,-1.25082e+08,-1.25113e+08,9816.78,-0.00324245,0.125933,-0,0.125975,-26222.4,-4555.33,-0,26615.1,9816.78
step02_gravity_refstate-crust.xmf,85,-1.33528e-07,2.555e-07,0,8.70256e-08,-6.54176e+07,-6.53909e+07,-6.54084e+07,5969.96,-0.00403831,0.127494,-0,0.127558,-24613.3,-2381.45,-0,24728.2,5969.96
step02_gravity_refstate-crust.xmf,86,-2.22835e-07,1.46877e-06,0,6.56379e-08,-4.05438e+08,-4.05322e+08,-4.05423e+08,4502.76,-0.000587256,0.112504,-0,0.112505,-37391.8,-14761.7,-0,40200.2,4502.76
step02_gravity_refstate-crust.xmf,87,-1.84878e-07,1.35145e-06,0,2.28996e-07,-3.8154e+08,-3.81434e+08,-3.81527e+08,15709.1,-0.00203902,0.115709,-0,0.115727,-30344.2,-13891.7,-0,33372.9,15709.1
step02_gravity_refstate-crust.xmf,88,-1.65069e-07,1.28931e-06,0,2.65502e-07,-3.68471e+08,-3.68372e+08,-3.6846e+08,18213.4,-0.00236858,0.117248,-0,0.117272,-28378.9,-13415.9,-0,31390.3,18213.4
step02_gravity_refstate-crust.xmf,89,-1.07598e-07,6.22492e-07,0,2.06017e-07,-1.83354e+08,-1.83304e+08,-1.83346e+08,14132.8,-0.00307508,0.125553,-0,0.125591,-24736.8,-6675.71,-0,25621.7,14132.8
step02_gravity_refstate-crust.xmf,90,-1.13799e-07,4.36407e-08,0,1.46828e-09,-10790.6,9.77127,-2983.98,100.724,-0.00522379,0.128692,-0,0.128798,-22931.2,0,-0,22931.2,100.724
step02_gravity_refstate-crust.xmf,91,-2.31137e-07,1.61502e-06,0,-2.93283e-10,-4.44293e+08,-4.44167e+08,-4.44277e+08,-20.1192,-1.16916e-19,0.11016,-0,0.11016,-40000,-16176.5,-0,43147.2,20.1192
step02_gravity_refstate-crust.xmf,92,-2.07652e-07,1.54723e-06,0,1.97297e-07,-4.31393e+08,-4.31273e+08,-4.31379e+08,13534.5,-0.00171923,0.112318,-0,0.112331,-32272.1,-15706.9,-0,35891.4,13534.5
step02_gravity_refstate-crust.xmf,93,-1.88905e-07,1.54073e-06,0,2.64206e-07,-4.34931e+08,-4.34812e+08,-4.34918e+08,18124.6,-0.00227171,0.113265,-0,0.113287,-29532.9,-15835.7,-0,33510.6,18124.6
step02_gravity_refstate-crust.xmf,94,-1.35554e-07,1.26681e-06,0,3.12646e-07,-3.69262e+08,-3.69166e+08,-3.69253e+08,21447.5,-0.00274578,0.118558,-0,0.118589,-25877,-13444.8,-0,29161.3,21447.5
step02_gravity_refstate-crust.xmf,95,-1.08775e-07,1.03747e-06,0,2.94996e-07,-3.07211e+08,-3.07133e+08,-3.07204e+08,20236.7,-0.00282626,0.121842,-0,0.121875,-24694.1,-11185.5,-0,27109.3,20236.7
step02_gravity_refstate-crust.xmf,96,-8.23074e-08,8.1119e-07,0,2.66064e-07,-2.44203e+08,-2.44141e+08,-2.44197e+08,18252,-0.00300237,0.124731,-0,0.124767,-23368.2,-8891.36,-0,25002.5,18252
step02_gravity_refstate-crust.xmf,97,-8.16859e-08,4.10197e-07,0,1.59065e-07,-1.21498e+08,-1.21465e+08,-1.21493e+08,10911.8,-0.00363776,0.12765,-0,0.127702,-23016.1,-4423.57,-0,23437.4,10911.8
step02_gravity_refstate-crust.xmf,98,-5.21322e-08,2.14783e-07,0,9.39838e-08,-6.26038e+07,-6.25855e+07,-6.26002e+07,6447.29,-0.00437267,0.129203,-0,0.129277,-21394.2,-2279.28,-0,21515.3,6447.29
step02_gravity_refstate-crust.xmf,99,-2.36282e-07,1.77015e-06,0,6.91601e-08,-4.86306e+08,-4.86168e+08,-4.86289e+08,4744.38,-0.000607971,0.107729,-0,0.107731,-37441.9,-17706.2,-0,41417.4,4744.38
step02_gravity_refstate-crust.xmf,100,-2.23552e-07,1.6324e-06,0,1.32261e-07,-4.51161e+08,-4.51033e+08,-4.51145e+08,9073.09,-0.00115743,0.110364,-0,0.11037,-34960.2,-16426.6,-0,38627.1,9073.09
step02_gravity_refstate-crust.xmf,101,-1.64764e-07,1.50096e-06,0,3.20291e-07,-4.31309e+08,-4.31195e+08,-4.31298e+08,21971.9,-0.00270874,0.114775,-0,0.114807,-27025,-15703.9,-0,31256.4,21971.9
step02_gravity_refstate-crust.xmf,102,-5.13447e-08,5.94836e-07,0,2.27026e-07,-1.83666e+08,-1.83622e+08,-1.83662e+08,15574,-0.00331011,0.127215,-0,0.127258,-21766,-6687.25,-0,22770.2,15574
step02_gravity_refstate-crust.xmf,103,-9.67239e-09,4.28256e-09,0,2.15665e-09,-892.767,64.5428,-229.241,147.946,-0.00542556,0.130332,-0,0.130445,-19747.8,0,-0,19747.8,147.946
step02_gravity_refstate-crust.xmf,104,-2.45463e-07,1.9162e-06,0,-2.17294e-10,-5.24574e+08,-5.24426e+08,-5.24557e+08,-14.9064,-1.32494e-19,0.104999,-0,0.104999,-40000,-19099.6,-0,44326,14.9064
step02_gravity_refstate-crust.xmf,105,-2.26166e-07,1.7769e-06,0,1.8659e-07,-4.91702e+08,-4.91565e+08,-4.91687e+08,12800.1,-0.00162325,0.108384,-0,0.108396,-33092.9,-17902.8,-0,37625.1,12800.1
step02_gravity_refstate-crust.xmf,106,-1.95459e-07,1.75215e-06,0,3.12567e-07,-4.94965e+08,-4.94831e+08,-4.94952e+08,21442.1,-0.00266008,0.110317,-0,0.110349,-28258,-18021.6,-0,33515.6,21442.1
step02_gravity_refstate-crust.xmf,107,-2.15525e-07,1.78062e-06,0,2.48042e-07,-4.96371e+08,-4.96234e+08,-4.96356e+08,17015.7,-0.00213829,0.10897,-0,0.108991,-30800.6,-18072.8,-0,35711.4,17015.7
step02_gravity_refstate-crust.xmf,108,-1.67598e-07,1.69921e-06,0,3.73594e-07,-4.90016e+08,-4.89888e+08,-4.90004e+08,25628.5,-0.00311487,0.112169,-0,0.112212,-25674.5,-17841.5,-0,31265,25628.5
step02_gravity_refstate-crust.xmf,109,-1.31161e-07,1.46171e-06,0,3.70222e-07,-4.30113e+08,-4.30004e+08,-4.30104e+08,25397.3,-0.00308373,0.116398,-0,0.116438,-24466.3,-15660.4,-0,29049.1,25397.3
step02_gravity_refstate-crust.xmf,110,-9.65694e-08,1.23015e-06,0,3.53062e-07,-3.68602e+08,-3.68511e+08,-3.68596e+08,24220,-0.00304968,0.120196,-0,0.120235,-23247.6,-13420.9,-0,26843.4,24220
step02_gravity_refstate-crust.xmf,111,-6.48388e-08,1.00101e-06,0,3.24899e-07,-3.06204e+08,-3.06131e+08,-3.062e+08,22288.1,-0.00305806,0.123509,-0,0.123547,-22019,-11149,-0,24680.7,22288.1
step02_gravity_refstate-crust.xmf,112,-3.20393e-08,7.82112e-07,0,2.87301e-07,-2.45062e+08,-2.45006e+08,-2.4506e+08,19708.9,-0.00315868,0.126372,-0,0.126411,-20607.5,-8922.8,-0,22456.3,19708.9
step02_gravity_refstate-crust.xmf,113,-1.10333e-08,3.87199e-07,0,1.72242e-07,-1.23984e+08,-1.23956e+08,-1.23983e+08,11815.8,-0.00376161,0.129355,-0,0.12941,-19918.4,-4514.31,-0,20423.6,11815.8
step02_gravity_refstate-crust.xmf,114,3.41169e-08,1.95573e-07,0,1.051e-07,-6.73132e+07,-6.73022e+07,-6.73156e+07,7209.88,-0.00434034,0.130917,-0,0.130989,-18217.9,-2451.05,-0,18382.1,7209.88
step02_gravity_refstate-crust.xmf,115,-2.52662e-07,2.08339e-06,0,7.62684e-08,-5.69374e+08,-5.69214e+08,-5.69357e+08,5232.01,-0.000689161,0.101924,-0,0.101926,-37278.2,-20730.8,-0,42654.8,5232.01
step02_gravity_refstate-crust.xmf,116,-2.39296e-07,1.90179e-06,0,1.37786e-07,-5.22773e+08,-5.22626e+08,-5.22756e+08,9452.11,-0.00121694,0.105748,-0,0.105755,-34995.9,-19034,-0,39837.3,9452.11
step02_gravity_refstate-crust.xmf,117,-2.03088e-07,1.94639e-06,0,3.64061e-07,-5.50683e+08,-5.50536e+08,-5.50669e+08,24974.6,-0.0031189,0.107391,-0,0.107437,-26854.6,-20050.4,-0,33514,24974.6
step02_gravity_refstate-crust.xmf,118,-1.7228e-07,1.88777e-06,0,4.25756e-07,-5.45605e+08,-5.45464e+08,-5.45593e+08,29206.9,-0.00357061,0.109445,-0,0.109503,-24347.5,-19865.5,-0,31423.5,29206.9
step02_gravity_refstate-crust.xmf,119,-1.28666e-07,1.64428e-06,0,4.25381e-07,-4.87305e+08,-4.87184e+08,-4.87297e+08,29181.1,-0.00348584,0.114097,-0,0.11415,-23095.4,-17742.9,-0,29124,29181.1
step02_gravity_refstate-crust.xmf,120,5.75529e-09,5.83924e-07,0,2.41816e-07,-1.89667e+08,-1.89627e+08,-1.89667e+08,16588.6,-0.00334676,0.128763,-0,0.128807,-18946.6,-6905.93,-0,20165.9,16588.6
step02_gravity_refstate-crust.xmf,121,9.6579e-08,-3.59776e-08,0,2.84362e-09,9202.82,109.433,2577.5,195.072,-0.00529519,0.131969,-0,0.132075,-16619.6,0,-0,16619.6,195.072
step02_gravity_refstate-crust.xmf,122,-2.59296e-07,2.20981e-06,0,1.60155e-11,-6.02493e+08,-6.02324e+08,-6.02475e+08,1.09866,-1.01898e-19,0.0991458,-0,0.0991458,-40000,-21936.7,-0,45620.4,1.09866
step02_gravity_refstate-crust.xmf,123,-2.40574e-07,2.02041e-06,0,2.11576e-07,-5.56814e+08,-5.56659e+08,-5.56797e+08,14514.1,-0.00187648,0.104117,-0,0.104134,-32435.8,-20273.5,-0,38250.5,14514.1
step02_gravity_refstate-crust.xmf,124,-2.26772e-07,2.00188e-06,0,2.94422e-07,-5.5744e+08,-5.57287e+08,-5.57424e+08,20197.4,-0.00257242,0.105399,-0,0.10543,-29476.3,-20296.3,-0,35788.2,20197.4
step02_gravity_refstate-crust.xmf,125,-2.12521e-07,2.12782e-06,0,4.15343e-07,-6.03057e+08,-6.02896e+08,-6.03042e+08,28492.5,-0.00360523,0.104421,-0,0.104483,-25495.3,-21957.3,-0,33647.2,28492.5
step02_gravity_refstate-crust.xmf,126,-1.28551e-07,1.82033e-06,0,4.78845e-07,-5.4225e+08,-5.42117e+08,-5.42242e+08,32848.8,-0.00393108,0.111584,-0,0.111653,-21838.6,-19743.5,-0,29440.3,32848.8
step02_gravity_refstate-crust.xmf,127,-8.72372e-08,1.40964e-06,0,4.10393e-07,-4.28262e+08,-4.28159e+08,-4.28256e+08,28153,-0.00336388,0.118277,-0,0.118325,-21842.4,-15593.1,-0,26837.2,28153
step02_gravity_refstate-crust.xmf,128,-5.0053e-08,1.18462e-06,0,3.81558e-07,-3.67628e+08,-3.67544e+08,-3.67625e+08,26174.9,-0.00323955,0.121985,-0,0.122028,-20625.9,-13385.5,-0,24588.6,26174.9
step02_gravity_refstate-crust.xmf,129,-1.5549e-08,9.63358e-07,0,3.43255e-07,-3.06479e+08,-3.06412e+08,-3.06478e+08,23547.3,-0.00316481,0.125216,-0,0.125256,-19365.9,-11159.1,-0,22350.9,23547.3
step02_gravity_refstate-crust.xmf,130,1.86982e-08,7.65603e-07,0,2.99776e-07,-2.5059e+08,-2.50538e+08,-2.50591e+08,20564.6,-0.00316778,0.127855,-0,0.127894,-17991.7,-9124.23,-0,20173.1,20564.6
step02_gravity_refstate-crust.xmf,131,6.12758e-08,4.08674e-07,0,1.92844e-07,-1.40888e+08,-1.40864e+08,-1.40892e+08,13229.1,-0.00354808,0.130985,-0,0.131033,-16671.2,-5130.03,-0,17442.6,13229.1
step02_gravity_refstate-crust.xmf,132,1.15955e-07,1.68854e-07,0,1.05336e-07,-6.93098e+07,-6.93062e+07,-6.93178e+07,7226.05,-0.00408575,0.132571,-0,0.132634,-15157.6,-2524.02,-0,15366.3,7226.05
step02_gravity_refstate-crust.xmf,133,-2.63675e-07,2.32942e-06,0,5.56773e-08,-6.34532e+08,-6.34354e+08,-6.34513e+08,3819.46,-0.000527616,0.096602,-0,0.0966035,-37998.3,-23103.3,-0,44470.6,3819.46
step02_gravity_refstate-crust.xmf,134,-2.52592e-07,2.12503e-06,0,1.47706e-07,-5.81881e+08,-5.81718e+08,-5.81864e+08,10132.6,-0.00134208,0.101483,-0,0.101492,-34730.9,-21186.2,-0,40682.8,10132.6
step02_gravity_refstate-crust.xmf,135,-2.37563e-07,2.19022e-06,0,3.44947e-07,-6.10121e+08,-6.09955e+08,-6.10105e+08,23663.4,-0.00306874,0.102223,-0,0.102269,-27974.2,-22214.5,-0,35721.7,23663.4
step02_gravity_refstate-crust.xmf,136,-1.79319e-07,2.06396e-06,0,4.78937e-07,-5.98713e+08,-5.98559e+08,-5.987e+08,32855.1,-0.00405568,0.10658,-0,0.106657,-23101.4,-21799.2,-0,31762.9,32855.1
step02_gravity_refstate-crust.xmf,137,-2.69182e-07,2.49358e-06,0,4.20129e-10,-6.78253e+08,-6.78064e+08,-6.78235e+08,28.8208,-9.63583e-20,0.0926593,-0,0.0926593,-40000,-24695.3,-0,47009.1,28.8208
step02_gravity_refstate-crust.xmf,138,-8.30305e-08,1.59111e-06,0,4.64754e-07,-4.87405e+08,-4.8729e+08,-4.87399e+08,31882.1,-0.00374375,0.115911,-0,0.115972,-20667.8,-17746.6,-0,27241.5,31882.1
step02_gravity_refstate-crust.xmf,139,4.95403e-08,6.09148e-07,0,2.57454e-07,-2.05566e+08,-2.05527e+08,-2.05569e+08,17661.4,-0.00322406,0.12975,-0,0.12979,-16739.6,-7484.97,-0,18336.8,17661.4
step02_gravity_refstate-crust.xmf,140,1.98599e-07,-7.45964e-08,0,3.09186e-09,18898,156.788,5274.1,212.102,-0.00484562,0.133508,-0,0.133596,-13537.5,0,-0,13537.5,212.102
step02_gravity_refstate-crust.xmf,141,-2.63717e-07,2.32306e-06,0,1.18788e-07,-6.33522e+08,-6.33345e+08,-6.33504e+08,8148.86,-0.00112136,0.0970528,-0,0.0970593,-35745.1,-23066.5,-0,42541.5,8148.86
step02_gravity_refstate-crust.xmf,142,-2.62398e-07,2.30296e-06,0,1.90965e-07,-6.29812e+08,-6.29636e+08,-6.29794e+08,13100.2,-0.00178151,0.0980855,-0,0.0981017,-33222.8,-22931.4,-0,40368.3,13100.2
step02_gravity_refstate-crust.xmf,143,-2.53765e-07,2.25169e-06,0,2.6697e-07,-6.19892e+08,-6.19721e+08,-6.19875e+08,18314.1,-0.00243548,0.0999842,-0,0.100014,-30634.4,-22570.3,-0,38051.1,18314.1
step02_gravity_refstate-crust.xmf,144,-2.50414e-07,2.36593e-06,0,3.95412e-07,-6.59418e+08,-6.59238e+08,-6.59401e+08,27125.2,-0.00358057,0.0990899,-0,0.0991546,-26512.6,-24009.4,-0,35768.2,27125.2
step02_gravity_refstate-crust.xmf,145,-2.24199e-07,2.3012e-06,0,4.67916e-07,-6.53306e+08,-6.53132e+08,-6.5329e+08,32099,-0.00411532,0.101376,-0,0.101459,-24174.5,-23786.9,-0,33914.9,32099
step02_gravity_refstate-crust.xmf,146,-2.69628e-07,2.53114e-06,0,8.26258e-08,-6.88769e+08,-6.88577e+08,-6.8875e+08,5668.13,-0.000819397,0.0919405,-0,0.0919441,-36951.4,-25078.2,-0,44657.8,5668.13
step02_gravity_refstate-crust.xmf,147,-1.3418e-07,1.9944e-06,0,5.32515e-07,-5.96521e+08,-5.96375e+08,-5.96511e+08,36530.5,-0.00440177,0.108681,-0,0.10877,-20810.2,-21719.5,-0,30079.9,36530.5
step02_gravity_refstate-crust.xmf,148,-8.19564e-08,1.76534e-06,0,5.17361e-07,-5.43546e+08,-5.43419e+08,-5.4354e+08,35491,-0.00416925,0.113303,-0,0.11338,-19653.4,-19790.7,-0,27891.4,35491
step02_gravity_refstate-crust.xmf,149,-3.72541e-08,1.36396e-06,0,4.38768e-07,-4.30576e+08,-4.3048e+08,-4.30573e+08,30099.5,-0.00353255,0.120004,-0,0.120056,-19308.5,-15677.5,-0,24871.7,30099.5
step02_gravity_refstate-crust.xmf,150,1.80433e-09,1.1415e-06,0,3.97481e-07,-3.69307e+08,-3.69229e+08,-3.69307e+08,27267.2,-0.00330709,0.123717,-0,0.123761,-18035.1,-13446.8,-0,22496.2,27267.2
step02_gravity_refstate-crust.xmf,151,3.67038e-08,9.25559e-07,0,3.48072e-07,-3.07929e+08,-3.07868e+08,-3.07931e+08,23877.7,-0.00313879,0.126879,-0,0.126918,-16768.4,-11212,-0,20171.5,23877.7
step02_gravity_refstate-crust.xmf,152,6.84726e-08,7.354e-07,0,2.96502e-07,-2.51947e+08,-2.51902e+08,-2.51952e+08,20340.1,-0.00305905,0.129348,-0,0.129384,-15536.7,-9173.82,-0,18042.9,20340.1
step02_gravity_refstate-crust.xmf,153,9.71384e-08,5.498e-07,0,2.40076e-07,-1.94738e+08,-1.94707e+08,-1.94744e+08,16469.2,-0.00309975,0.131264,-0,0.131301,-14551.8,-7090.87,-0,16187.5,16469.2
step02_gravity_refstate-crust.xmf,154,1.3553e-07,3.46313e-07,0,1.72059e-07,-1.3175e+08,-1.31735e+08,-1.31759e+08,11803.2,-0.00329523,0.132887,-0,0.132928,-13460.4,-4797.56,-0,14289.8,11803.2
step02_gravity_refstate-crust.xmf,155,1.96742e-07,1.27553e-07,0,9.26591e-08,-6.63861e+07,-6.63909e+07,-6.63996e+07,6356.41,-0.00363099,0.134156,-0,0.134205,-12040.9,-2417.85,-0,12281.2,6356.41
step02_gravity_refstate-crust.xmf,156,-2.66549e-07,2.43223e-06,0,3.20749e-07,-6.69571e+08,-6.69385e+08,-6.69552e+08,22003.4,-0.00299549,0.0966878,-0,0.0967342,-28868.9,-24379.1,-0,37785.7,22003.4
step02_gravity_refstate-crust.xmf,157,-1.90132e-07,2.23798e-06,0,5.33276e-07,-6.50833e+08,-6.50667e+08,-6.5082e+08,36582.8,-0.00456377,0.103478,-0,0.103579,-21955.9,-23696.9,-0,32304.9,36582.8
step02_gravity_refstate-crust.xmf,158,-2.68734e-07,2.70508e-06,0,4.74239e-08,-7.3611e+08,-7.35906e+08,-7.36091e+08,3253.28,-0.000495391,0.0872725,-0,0.087274,-38154.7,-26801.9,-0,46627.5,3253.28
step02_gravity_refstate-crust.xmf,159,-2.67842e-07,2.76329e-06,0,4.87031e-10,-7.52056e+08,-7.51848e+08,-7.52037e+08,33.4103,-1.08129e-19,0.0855968,-0,0.0855968,-40000,-27382.5,-0,48474.8,33.4103
step02_gravity_refstate-crust.xmf,160,-3.18488e-08,1.54552e-06,0,4.92219e-07,-4.91871e+08,-4.91763e+08,-4.91869e+08,33766.2,-0.00390333,0.117488,-0,0.117553,-18361.7,-17909.3,-0,25649.5,33766.2
step02_gravity_refstate-crust.xmf,161,2.90057e-07,-1.09201e-07,0,3.09228e-09,27590.1,201.003,7692.17,212.13,-0.00410615,0.134861,-0,0.134923,-10492.7,0,-0,10492.7,212.13
step02_gravity_refstate-crust.xmf,162,-2.73628e-07,2.54587e-06,0,1.55289e-07,-6.93332e+08,-6.93139e+08,-6.93313e+08,10652.8,-0.00153908,0.0921248,-0,0.0921376,-34307.3,-25244.3,-0,42594.2,10652.8
step02_gravity_refstate-crust.xmf,163,-2.78927e-07,2.53932e-06,0,2.41926e-07,-6.9329e+08,-6.93097e+08,-6.93271e+08,16596.2,-0.00234371,0.09323,-0,0.0932594,-31386.7,-25242.7,-0,40278.1,16596.2
step02_gravity_refstate-crust.xmf,164,-2.81799e-07,2.59465e-06,0,3.66527e-07,-7.13852e+08,-7.13655e+08,-7.13833e+08,25143.8,-0.00348586,0.0935544,-0,0.0936193,-27412.1,-25991.4,-0,37775.3,25143.8
step02_gravity_refstate-crust.xmf,165,-2.68018e-07,2.54249e-06,0,4.41903e-07,-7.07992e+08,-7.07799e+08,-7.07974e+08,30314.5,-0.00406981,0.0956999,-0,0.0957864,-25240.4,-25778,-0,36077.5,30314.5
step02_gravity_refstate-crust.xmf,166,-2.43014e-07,2.48639e-06,0,5.18771e-07,-7.05335e+08,-7.05148e+08,-7.05318e+08,35587.7,-0.00462695,0.0978195,-0,0.0979289,-23033,-25681.3,-0,34497.1,35587.7
step02_gravity_refstate-crust.xmf,167,-2.73474e-07,2.78605e-06,0,1.08174e-07,-7.58138e+08,-7.57928e+08,-7.58119e+08,7420.74,-0.00115546,0.0854647,-0,0.0854726,-35701.3,-27604,-0,45128.3,7420.74
step02_gravity_refstate-crust.xmf,168,-2.63297e-07,2.90769e-06,0,4.93133e-08,-7.92367e+08,-7.92149e+08,-7.92349e+08,3382.89,-0.000551534,0.0815512,-0,0.0815531,-37892,-28850.3,-0,47625,3382.89
step02_gravity_refstate-crust.xmf,169,-1.40464e-07,2.15741e-06,0,5.89334e-07,-6.48112e+08,-6.47955e+08,-6.48103e+08,40428.3,-0.00490363,0.10573,-0,0.105843,-19789.4,-23597.9,-0,30797.5,40428.3
step02_gravity_refstate-crust.xmf,170,-8.04863e-08,1.92139e-06,0,5.72645e-07,-5.96085e+08,-5.95948e+08,-5.9608e+08,39283.4,-0.00462814,0.110651,-0,0.110748,-18672.7,-21703.7,-0,28630.8,39283.4
step02_gravity_refstate-crust.xmf,171,-2.98092e-08,1.7068e-06,0,5.43066e-07,-5.45728e+08,-5.45609e+08,-5.45726e+08,37254.4,-0.00429823,0.114926,-0,0.115006,-17618.1,-19870.3,-0,26556.1,37254.4
step02_gravity_refstate-crust.xmf,172,2.10572e-08,1.33497e-06,0,4.57134e-07,-4.40147e+08,-4.40056e+08,-4.40148e+08,31359.4,-0.00360414,0.121502,-0,0.121555,-16700.9,-16026.1,-0,23146.4,31359.4
step02_gravity_refstate-crust.xmf,173,2.63637e-07,9.72489e-08,0,7.66981e-08,-6.51955e+07,-6.5207e+07,-6.52136e+07,5261.49,-0.00296149,0.135435,-0,0.135467,-9082.28,-2374.73,-0,9387.61,5261.49
step02_gravity_refstate-crust.xmf,174,5.76033e-08,1.08964e-06,0,3.9548e-07,-3.69753e+08,-3.69682e+08,-3.69757e+08,27129.9,-0.00323309,0.125469,-0,0.12551,-15498.4,-13463.2,-0,20529.4,27129.9
step02_gravity_refstate-crust.xmf,175,8.96208e-08,8.83043e-07,0,3.36661e-07,-3.08473e+08,-3.08418e+08,-3.08479e+08,23094.9,-0.00297973,0.128489,-0,0.128524,-14239.1,-11232,-0,18135.8,23094.9
step02_gravity_refstate-crust.xmf,176,1.18516e-07,6.95645e-07,0,2.78066e-07,-2.50454e+08,-2.50414e+08,-2.50462e+08,19075.3,-0.00282912,0.130851,-0,0.130882,-13066.3,-9119.58,-0,15934.1,19075.3
step02_gravity_refstate-crust.xmf,177,1.51794e-07,5.06972e-07,0,2.15555e-07,-1.90934e+08,-1.90909e+08,-1.90944e+08,14787.1,-0.00277598,0.132806,-0,0.132835,-11851.3,-6952.54,-0,13740.1,14787.1
step02_gravity_refstate-crust.xmf,178,1.96383e-07,3.09245e-07,0,1.48403e-07,-1.2891e+08,-1.28902e+08,-1.28923e+08,10180.5,-0.00283386,0.134341,-0,0.134371,-10572.4,-4694.37,-0,11567.7,10180.5
step02_gravity_refstate-crust.xmf,179,3.54469e-07,-1.35949e-07,0,1.41414e-09,33610.7,-31.9524,9294.12,97.0101,-0.00312162,0.13595,-0,0.135985,-7476.13,0,-0,7476.13,97.0101
step02_gravity_refstate-crust.xmf,180,3.06293e-07,7.92103e-08,0,5.46381e-08,-6.63027e+07,-6.63183e+07,-6.63237e+07,3748.17,-0.00211022,0.136405,-0,0.136422,-6161.36,-2415.18,-0,6617.81,3748.17
step02_gravity_refstate-crust.xmf,181,4.05419e-07,-1.55494e-07,0,1.17315e-09,38441.6,-37.019,10629.8,80.4779,-0.00195083,0.136713,-0,0.136727,-4478.91,0,-0,4478.91,80.4779
step02_gravity_refstate-crust.xmf,182,3.34611e-07,7.70697e-08,0,3.12017e-08,-6.96417e+07,-6.96594e+07,-6.96647e+07,2140.43,-0.00111856,0.137034,-0,0.137038,-3193.99,-2536.85,-0,4078.87,2140.43
step02_gravity_refstate-crust.xmf,183,4.31738e-07,-1.65575e-07,0,5.29363e-10,40937.6,-38.0212,11320.4,36.3143,-0.000663601,0.137106,-0,0.137108,-1492.16,0,-0,1492.16,36.3143
step02_gravity_refstate-crust.xmf,184,3.44402e-07,7.84293e-08,0,1.32295e-09,-7.16225e+07,-7.16407e+07,-7.16461e+07,90.7546,-6.00792e-05,0.137268,-0,0.137268,-169.637,-2609,-0,2614.51,90.7546
step02_gravity_refstate-crust.xmf,185,4.44119e-07,-1.67347e-07,0,1.21501e-09,42238.3,291.71,11771.7,83.3494,0.000664041,0.137106,0,0.137108,1492.16,0,0,1492.16,83.3494
step02_gravity_refstate-crust.xmf,186,-2.87283e-07,2.63676e-06,0,3.028e-07,-7.20792e+08,-7.20592e+08,-7.20772e+08,20772.1,-0.00296162,0.0917161,-0,0.0917639,-29292.7,-26244.1,-0,39329.6,20772.1
step02_gravity_refstate-crust.xmf,187,-2.00588e-07,2.40468e-06,0,5.90977e-07,-7.01249e+08,-7.0107e+08,-7.01235e+08,40541,-0.00509526,0.100277,-0,0.100407,-20843.3,-25532.6,-0,32959.9,40541
step02_gravity_refstate-crust.xmf,188,-2.53296e-07,3.0167e-06,0,9.53095e-10,-8.24098e+08,-8.23874e+08,-8.24081e+08,65.3823,-1.18497e-19,0.0780159,-0,0.0780159,-40000,-30005.8,-0,50003.5,65.3823
step02_gravity_refstate-crust.xmf,189,9.46187e-09,1.53196e-06,0,5.10713e-07,-5.02801e+08,-5.02697e+08,-5.02802e+08,35034.9,-0.00399465,0.118275,-0,0.118342,-16653.8,-18307.4,-0,24748.9,35034.9
step02_gravity_refstate-crust.xmf,190,3.42883e-07,8.85241e-08,0,-2.72758e-08,-7.36115e+07,-7.3629e+07,-7.36351e+07,-1871.12,0.000989729,0.13707,0,0.137074,2851.05,-2681.43,0,3913.89,1871.12
step02_gravity_refstate-crust.xmf,191,-2.84364e-07,2.78161e-06,0,1.86532e-07,-7.56462e+08,-7.56251e+08,-7.56442e+08,12796.1,-0.00195494,0.0865006,-0,0.0865227,-32836.5,-27542.9,-0,42858.4,12796.1
step02_gravity_refstate-crust.xmf,192,-2.96704e-07,2.80421e-06,0,2.56233e-07,-7.62576e+08,-7.62364e+08,-7.62556e+08,17577.6,-0.00264047,0.0869366,-0,0.0869767,-30467.7,-27765.5,-0,41221.4,17577.6
step02_gravity_refstate-crust.xmf,193,-3.03897e-07,2.80544e-06,0,3.26515e-07,-7.64672e+08,-7.64458e+08,-7.64651e+08,22398.9,-0.00328162,0.0879549,-0,0.0880161,-28328,-27841.7,-0,39719.5,22398.9
step02_gravity_refstate-crust.xmf,194,-3.02617e-07,2.7674e-06,0,4.05256e-07,-7.59481e+08,-7.59271e+08,-7.59461e+08,27800.6,-0.00392501,0.0899823,-0,0.0900678,-26190.3,-27652.7,-0,38086.8,27800.6
step02_gravity_refstate-crust.xmf,195,-2.93553e-07,2.73289e-06,0,4.85408e-07,-7.58511e+08,-7.58303e+08,-7.58491e+08,33299,-0.00454142,0.0917928,-0,0.0919051,-24118.5,-27617.4,-0,36666.3,33299
step02_gravity_refstate-crust.xmf,196,-2.70104e-07,2.68841e-06,0,5.73553e-07,-7.61025e+08,-7.60822e+08,-7.61006e+08,39345.8,-0.00518008,0.0936629,-0,0.093806,-21900,-27708.9,-0,35318.5,39345.8
step02_gravity_refstate-crust.xmf,197,-2.65838e-07,3.01862e-06,0,8.79339e-08,-8.22954e+08,-8.22728e+08,-8.22935e+08,6032.27,-0.0010334,0.0785552,-0,0.078562,-35973.5,-29964,-0,46818.1,6032.27
step02_gravity_refstate-crust.xmf,198,-2.39717e-07,3.16609e-06,0,4.73127e-08,-8.68072e+08,-8.67839e+08,-8.68056e+08,3245.65,-0.000595679,0.0732231,-0,0.0732255,-37491.4,-31607,-0,49036.8,3245.65
step02_gravity_refstate-crust.xmf,199,-2.78018e-07,3.00985e-06,0,1.41758e-07,-8.18922e+08,-8.18697e+08,-8.18903e+08,9724.63,-0.00162906,0.0795745,-0,0.0795911,-33792.4,-29817.2,-0,45066.5,9724.63
step02_gravity_refstate-crust.xmf,200,-1.44477e-07,2.30315e-06,0,6.5212e-07,-6.96372e+08,-6.96204e+08,-6.96362e+08,44735.4,-0.00543205,0.102925,-0,0.103068,-18706.7,-25355.1,-0,31509,44735.4
step02_gravity_refstate-crust.xmf,201,-2.1223e-07,2.54718e-06,0,6.5425e-07,-7.45816e+08,-7.45627e+08,-7.45802e+08,44881.5,-0.00563588,0.0974991,-0,0.0976618,-19675,-27155.3,-0,33533.8,44881.5
step02_gravity_refstate-crust.xmf,202,4.15148e-07,-1.5634e-07,0,7.69865e-10,39486.7,282.64,11007.6,52.8127,0.0019524,0.136713,0,0.136727,4478.91,0,0,4478.91,52.8127
step02_gravity_refstate-crust.xmf,203,-7.72961e-08,2.06312e-06,0,6.31884e-07,-6.45809e+08,-6.45662e+08,-6.45803e+08,43347.3,-0.00511478,0.108015,-0,0.108136,-17680.9,-23514.2,-0,29419.9,43347.3
step02_gravity_refstate-crust.xmf,204,-1.84427e-08,1.83822e-06,0,5.96933e-07,-5.95181e+08,-5.95054e+08,-5.9518e+08,40949.6,-0.00472065,0.11262,-0,0.112719,-16653.5,-21670.9,-0,27330.7,40949.6
step02_gravity_refstate-crust.xmf,205,2.77e-08,1.63373e-06,0,5.51792e-07,-5.44755e+08,-5.44645e+08,-5.44757e+08,37852.9,-0.00429255,0.116655,-0,0.116734,-15721.1,-19835,-0,25309.7,37852.9
step02_gravity_refstate-crust.xmf,206,5.99848e-08,1.43587e-06,0,4.97929e-07,-4.89666e+08,-4.89572e+08,-4.8967e+08,34158,-0.00384457,0.120354,-0,0.120416,-14973.6,-17829.2,-0,23282.9,34158
step02_gravity_refstate-crust.xmf,207,8.63599e-08,1.23149e-06,0,4.37373e-07,-4.28924e+08,-4.28845e+08,-4.2893e+08,30003.8,-0.00340644,0.123917,-0,0.123964,-14157.6,-15617.7,-0,21079.6,30003.8
step02_gravity_refstate-crust.xmf,208,2.45175e-07,2.87554e-07,0,1.19055e-07,-1.29481e+08,-1.29478e+08,-1.29498e+08,8167.19,-0.0022104,0.135477,-0,0.135495,-7760.56,-4715.34,-0,9080.79,8167.19
step02_gravity_refstate-crust.xmf,209,1.13797e-07,1.0281e-06,0,3.73449e-07,-3.67324e+08,-3.67262e+08,-3.67332e+08,25618.6,-0.00301326,0.127209,-0,0.127244,-13035.5,-13374.9,-0,18676.5,25618.6
step02_gravity_refstate-crust.xmf,210,1.40519e-07,8.39568e-07,0,3.09339e-07,-3.08451e+08,-3.08403e+08,-3.08461e+08,21220.7,-0.00269527,0.129972,-0,0.13,-11766.8,-11231.3,-0,16266.6,21220.7
step02_gravity_refstate-crust.xmf,211,1.6739e-07,6.56323e-07,0,2.4498e-07,-2.49029e+08,-2.48996e+08,-2.49041e+08,16805.6,-0.00246112,0.132267,-0,0.132289,-10487,-9067.86,-0,13863.8,16805.6
step02_gravity_refstate-crust.xmf,212,1.99451e-07,4.75457e-07,0,1.82103e-07,-1.89739e+08,-1.8972e+08,-1.89752e+08,12492.3,-0.00231409,0.134079,-0,0.134098,-9201.12,-6909.17,-0,11506.4,12492.3
step02_gravity_refstate-crust.xmf,213,2.73617e-07,2.80759e-07,0,8.0169e-08,-1.33652e+08,-1.33651e+08,-1.33671e+08,5499.59,-0.00145959,0.136274,-0,0.136282,-4952.27,-4867.27,-0,6943.73,5499.59
step02_gravity_refstate-crust.xmf,214,2.87872e-07,3.12823e-07,0,3.66905e-08,-1.47905e+08,-1.47904e+08,-1.47925e+08,2516.97,-0.000566348,0.136633,-0,0.136635,-1924.68,-5386.29,-0,5719.84,2516.97
step02_gravity_refstate-crust.xmf,215,2.92882e-07,2.91406e-07,0,-2.08061e-08,-1.41497e+08,-1.41497e+08,-1.41517e+08,-1427.3,0.000352398,0.136761,0,0.136762,1180.67,-5152.98,0,5286.51,1427.3
step02_gravity_refstate-crust.xmf,216,-2.22055e-07,3.24837e-06,0,3.18547e-10,-8.94577e+08,-8.94339e+08,-8.94561e+08,21.8523,-1.00773e-19,0.069974,-0,0.069974,-40000,-32572.1,-0,51584.3,21.8523
step02_gravity_refstate-crust.xmf,217,-2.58725e-07,3.19349e-06,0,9.64882e-08,-8.72429e+08,-8.72192e+08,-8.72411e+08,6619.09,-0.00122807,0.0732066,-0,0.0732169,-34906.8,-31765.5,-0,47196.8,6619.09
step02_gravity_refstate-crust.xmf,218,-1.4444e-07,2.42725e-06,0,7.22376e-07,-7.41039e+08,-7.40862e+08,-7.41029e+08,49555,-0.0059761,0.100371,-0,0.100549,-17572.8,-26981.4,-0,32199.4,49555
step02_gravity_refstate-crust.xmf,219,-2.19334e-07,2.65977e-06,0,7.26139e-07,-7.84416e+08,-7.84218e+08,-7.84401e+08,49813.1,-0.00616582,0.0952136,-0,0.095413,-18510.4,-28560.7,-0,34034.5,49813.1
step02_gravity_refstate-crust.xmf,220,2.90039e-07,1.44575e-07,0,-6.65478e-08,-8.61574e+07,-8.61674e+07,-8.61773e+07,-4565.18,0.00197604,0.136344,0,0.136359,6092.94,-3138.04,0,6853.56,4565.18
step02_gravity_refstate-crust.xmf,221,2.8179e-07,3.0925e-07,0,-6.9136e-08,-1.44901e+08,-1.449e+08,-1.44921e+08,-4742.73,0.0011516,0.136371,0,0.136376,3950,-5276.9,0,6591.52,4742.73
step02_gravity_refstate-crust.xmf,222,-2.95124e-07,3.00268e-06,0,2.04173e-07,-8.15164e+08,-8.14938e+08,-8.15144e+08,14006.3,-0.00227378,0.0808471,-0,0.0808791,-31561.9,-29680.3,-0,43325.2,14006.3
step02_gravity_refstate-crust.xmf,223,-3.13824e-07,3.00409e-06,0,2.7451e-07,-8.14237e+08,-8.1401e+08,-8.14216e+08,18831.4,-0.00294842,0.0820899,-0,0.0821429,-29346.1,-29646.5,-0,41714.6,18831.4
step02_gravity_refstate-crust.xmf,224,-3.26564e-07,2.98999e-06,0,3.52261e-07,-8.11723e+08,-8.11495e+08,-8.117e+08,24165.1,-0.00363525,0.0837547,-0,0.0838335,-27203.2,-29554.9,-0,40168.5,24165.1
step02_gravity_refstate-crust.xmf,225,-3.31272e-07,2.96418e-06,0,4.33749e-07,-8.09173e+08,-8.08947e+08,-8.09151e+08,29755.2,-0.00429589,0.0856028,-0,0.0857105,-25193.8,-29462,-0,38765.2,29755.2
step02_gravity_refstate-crust.xmf,226,-3.26512e-07,2.93068e-06,0,5.18067e-07,-8.08222e+08,-8.07998e+08,-8.08199e+08,35539.4,-0.00492368,0.0874482,-0,0.0875867,-23282.7,-29427.3,-0,37524,35539.4
step02_gravity_refstate-crust.xmf,227,-2.7156e-07,2.75637e-06,0,6.4162e-07,-7.86828e+08,-7.86621e+08,-7.8681e+08,44015.2,-0.00569998,0.0926564,-0,0.0928316,-20459.3,-28648.4,-0,35203.9,44015.2
step02_gravity_refstate-crust.xmf,228,-1.72152e-07,3.46437e-06,0,1.00902e-09,-9.63685e+08,-9.63435e+08,-9.63673e+08,69.2185,-5.36454e-20,0.0615244,-0,0.0615244,-40000,-35088.6,-0,53209.1,69.2185
step02_gravity_refstate-crust.xmf,229,-1.98236e-07,3.38655e-06,0,2.57011e-08,-9.37317e+08,-9.37071e+08,-9.37303e+08,1763.09,-0.000397644,0.0649057,-0,0.064907,-37955.6,-34128.4,-0,51042.9,1763.09
step02_gravity_refstate-crust.xmf,230,-2.79516e-07,3.20015e-06,0,1.5033e-07,-8.70662e+08,-8.70424e+08,-8.70643e+08,10312.7,-0.00185315,0.0741488,-0,0.074172,-32586.5,-31701.2,-0,45462.5,10312.7
step02_gravity_refstate-crust.xmf,231,-7.02948e-08,2.18949e-06,0,6.98112e-07,-6.93467e+08,-6.93312e+08,-6.93462e+08,47890.5,-0.00562868,0.10545,-0,0.1056,-16638,-25249.5,-0,30238.4,47890.5
step02_gravity_refstate-crust.xmf,232,-1.5715e-07,2.5857e-06,0,8.0638e-07,-7.91996e+08,-7.91808e+08,-7.91985e+08,55317.6,-0.00659744,0.0969995,-0,0.0972236,-16573.2,-28836.8,-0,33260.1,55317.6
step02_gravity_refstate-crust.xmf,233,3.63292e-07,-1.37686e-07,0,-7.45051e-10,34517.4,150.264,9595.51,-51.1105,0.00312042,0.13595,0,0.135986,7476.13,0,0,7476.13,51.1105
step02_gravity_refstate-crust.xmf,234,-2.86388e-09,1.95727e-06,0,6.56514e-07,-6.43592e+08,-6.43457e+08,-6.43591e+08,45036.8,-0.00517585,0.110279,-0,0.1104,-15650.6,-23433.6,-0,28179.3,45036.8
step02_gravity_refstate-crust.xmf,235,5.17196e-08,1.74172e-06,0,6.02431e-07,-5.92581e+08,-5.92465e+08,-5.92584e+08,41326.8,-0.0046648,0.114664,-0,0.114759,-14687.8,-21576.4,-0,26101.2,41326.8
step02_gravity_refstate-crust.xmf,236,1.23119e-07,1.34133e-06,0,4.72887e-07,-4.82033e+08,-4.8195e+08,-4.82042e+08,32440,-0.00359548,0.122414,-0,0.122467,-12826.6,-17551.5,-0,21738.8,32440
step02_gravity_refstate-crust.xmf,237,9.23733e-08,1.53673e-06,0,5.39183e-07,-5.38308e+08,-5.38209e+08,-5.38314e+08,36988,-0.00412342,0.118712,-0,0.118783,-13778,-19600.4,-0,23958.5,36988
step02_gravity_refstate-crust.xmf,238,1.45968e-07,1.14956e-06,0,4.02761e-07,-4.22629e+08,-4.2256e+08,-4.22639e+08,27629.4,-0.00309992,0.125819,-0,0.125857,-11808.5,-15388.6,-0,19397.2,27629.4
step02_gravity_refstate-crust.xmf,239,2.36525e-07,4.61821e-07,0,1.4139e-07,-1.9309e+08,-1.93074e+08,-1.93106e+08,9699.36,-0.00173915,0.135009,-0,0.13502,-6593.96,-7031.3,-0,9639.48,9699.36
step02_gravity_refstate-crust.xmf,240,1.67087e-07,9.68437e-07,0,3.33918e-07,-3.64684e+08,-3.64629e+08,-3.64695e+08,22906.8,-0.00266455,0.128779,-0,0.128806,-10617.4,-13278.8,-0,17001.7,22906.8
step02_gravity_refstate-crust.xmf,241,1.87632e-07,7.96578e-07,0,2.65958e-07,-3.0761e+08,-3.07568e+08,-3.07623e+08,18244.7,-0.00228794,0.131306,-0,0.131326,-9291.21,-11200.8,-0,14552.9,18244.7
step02_gravity_refstate-crust.xmf,242,2.08652e-07,6.29694e-07,0,2.01941e-07,-2.50427e+08,-2.50399e+08,-2.50442e+08,13853.1,-0.00198972,0.133368,-0,0.133383,-7980.32,-9118.88,-0,12117.7,13853.1
step02_gravity_refstate-crust.xmf,243,2.56506e-07,4.61967e-07,0,9.16005e-08,-1.99382e+08,-1.99368e+08,-1.99399e+08,6283.8,-0.0011078,0.135579,-0,0.135584,-4085.99,-7260.45,-0,8331.23,6283.8
step02_gravity_refstate-crust.xmf,244,2.71853e-07,4.65106e-07,0,3.86575e-09,-2.04857e+08,-2.04844e+08,-2.04876e+08,265.19,-3.84192e-05,0.135922,-0,0.135922,-140.166,-7459.85,-0,7461.17,265.19
step02_gravity_refstate-crust.xmf,245,2.65215e-07,4.72733e-07,0,-5.89371e-08,-2.0622e+08,-2.06206e+08,-2.06238e+08,-4043.08,0.000682413,0.135734,0,0.135736,2499.11,-7509.45,0,7914.38,4043.08
step02_gravity_refstate-crust.xmf,246,-3.23361e-07,2.94006e-06,0,5.95302e-07,-8.19688e+08,-8.19465e+08,-8.19666e+08,40837.7,-0.00550888,0.0879977,-0,0.0881699,-21574.2,-29844.8,-0,36826.1,40837.7
step02_gravity_refstate-crust.xmf,247,-3.02432e-07,2.9136e-06,0,6.85662e-07,-8.26886e+08,-8.26665e+08,-8.26865e+08,47036.4,-0.00609066,0.089288,-0,0.0894955,-19813.4,-30106.9,-0,36041.6,47036.4
step02_gravity_refstate-crust.xmf,248,-2.66787e-07,2.85674e-06,0,7.63643e-07,-8.30183e+08,-8.29969e+08,-8.30165e+08,52385.9,-0.0065455,0.0908987,-0,0.0911341,-18293.3,-30227,-0,35331.5,52385.9
step02_gravity_refstate-crust.xmf,249,-1.41669e-07,3.57043e-06,0,1.14003e-08,-9.99474e+08,-9.99219e+08,-9.99464e+08,782.057,-0.000253245,0.057012,-0,0.0570125,-38163.4,-36391.8,-0,52733.4,782.057
step02_gravity_refstate-crust.xmf,250,-2.1897e-07,3.36861e-06,0,5.85843e-08,-9.27774e+08,-9.27528e+08,-9.27759e+08,4018.88,-0.000861187,0.0663834,-0,0.066389,-35832.6,-33780.9,-0,49245.5,4018.88
step02_gravity_refstate-crust.xmf,251,-2.48905e-07,3.39061e-06,0,9.70365e-08,-9.28097e+08,-9.27847e+08,-9.2808e+08,6656.71,-0.00138049,0.0669078,-0,0.066922,-33587.3,-33792.5,-0,47645,6656.71
step02_gravity_refstate-crust.xmf,252,-9.96111e-08,3.65366e-06,0,5.71051e-10,-1.03161e+09,-1.03136e+09,-1.03161e+09,39.1741,-2.98956e-20,0.0527198,-0,0.0527198,-40000,-37562.2,-0,54871.9,39.1741
step02_gravity_refstate-crust.xmf,253,-6.08866e-08,2.301e-06,0,7.71242e-07,-7.38684e+08,-7.38522e+08,-7.3868e+08,52907.2,-0.00615369,0.102968,-0,0.103152,-15618,-26895.9,-0,31101.6,52907.2
step02_gravity_refstate-crust.xmf,254,2.52528e-07,1.25895e-07,0,-8.24005e-08,-7.43373e+07,-7.4346e+07,-7.43546e+07,-5652.68,0.00293654,0.135317,0,0.135349,9288.59,-2707.54,0,9675.16,5652.68
step02_gravity_refstate-crust.xmf,255,2.47564e-07,3.68459e-07,0,-1.14117e-07,-1.61071e+08,-1.61062e+08,-1.61088e+08,-7828.4,0.00171187,0.135617,0,0.135628,6194.47,-5865.51,0,8530.86,7828.4
step02_gravity_refstate-crust.xmf,256,2.65719e-07,4.99721e-07,0,5.19391e-08,-2.16727e+08,-2.16711e+08,-2.16745e+08,3563.02,-0.000573245,0.135597,-0,0.135598,-2109.28,-7892.01,-0,8169.02,3563.02
step02_gravity_refstate-crust.xmf,257,2.50501e-07,4.95897e-07,0,-1.16004e-07,-2.10697e+08,-2.1068e+08,-2.10714e+08,-7957.86,0.0013277,0.13517,0,0.135176,4992.83,-7672.41,0,9153.92,7957.86
step02_gravity_refstate-crust.xmf,258,-3.0712e-07,3.20219e-06,0,2.13628e-07,-8.67289e+08,-8.67048e+08,-8.67268e+08,14654.9,-0.00251786,0.0755393,-0,0.0755813,-30354.8,-31578.2,-0,43801.8,14654.9
step02_gravity_refstate-crust.xmf,259,-3.34778e-07,3.19914e-06,0,2.88672e-07,-8.63422e+08,-8.63179e+08,-8.63399e+08,19802.9,-0.00322154,0.0772487,-0,0.0773159,-28194.2,-31437.3,-0,42228.2,19802.9
step02_gravity_refstate-crust.xmf,260,-3.54878e-07,3.18732e-06,0,3.70236e-07,-8.60333e+08,-8.6009e+08,-8.60309e+08,25398.2,-0.00392799,0.0790759,-0,0.0791734,-26162.7,-31324.8,-0,40813.4,25398.2
step02_gravity_refstate-crust.xmf,261,-3.66156e-07,3.16711e-06,0,4.55669e-07,-8.58269e+08,-8.58027e+08,-8.58244e+08,31258.9,-0.00460593,0.0809294,-0,0.0810604,-24289.5,-31249.6,-0,39579.2,31258.9
step02_gravity_refstate-crust.xmf,262,-3.72148e-07,3.16184e-06,0,5.43684e-07,-8.628e+08,-8.62558e+08,-8.62775e+08,37296.7,-0.00526731,0.0822026,-0,0.0823712,-22496.3,-31414.5,-0,38638.8,37296.7
step02_gravity_refstate-crust.xmf,263,-2.1602e-07,2.79452e-06,0,8.54501e-07,-8.39359e+08,-8.39152e+08,-8.39344e+08,58618.8,-0.00703159,0.0923262,-0,0.0925935,-16602.4,-30561.1,-0,34779.6,58618.8
step02_gravity_refstate-crust.xmf,264,-1.7466e-07,3.51533e-06,0,3.07409e-08,-9.76971e+08,-9.76718e+08,-9.76959e+08,2108.83,-0.000568309,0.0600938,-0,0.0600965,-36539.2,-35572.4,-0,50995.2,2108.83
step02_gravity_refstate-crust.xmf,265,-2.82347e-07,3.39391e-06,0,1.49092e-07,-9.22587e+08,-9.22335e+08,-9.22568e+08,10227.7,-0.00200023,0.0684263,-0,0.0684556,-31334,-33591.8,-0,45937.2,10227.7
step02_gravity_refstate-crust.xmf,266,-8.03524e-08,3.70724e-06,0,-9.69894e-10,-1.05072e+09,-1.05046e+09,-1.05071e+09,-66.5347,-0.000134176,0.0502152,-0,0.0502154,-38256.5,-38257.9,-0,54103.9,66.5347
step02_gravity_refstate-crust.xmf,267,1.77197e-08,2.06284e-06,0,7.24003e-07,-6.91184e+08,-6.91043e+08,-6.91185e+08,49666.6,-0.00565845,0.107913,-0,0.108061,-14631.8,-25166.5,-0,29110.9,49666.6
step02_gravity_refstate-crust.xmf,268,-4.31182e-08,2.38955e-06,0,8.52117e-07,-7.80839e+08,-7.80672e+08,-7.80836e+08,58455.2,-0.00668044,0.10075,-0,0.100971,-14569.4,-28430.8,-0,31946.4,58455.2
step02_gravity_refstate-crust.xmf,269,-1.22639e-07,2.62473e-06,0,9.16949e-07,-8.30596e+08,-8.30408e+08,-8.30588e+08,62902.7,-0.00722997,0.0956964,-0,0.0959691,-14928.1,-30242.2,-0,33726,62902.7
step02_gravity_refstate-crust.xmf,270,2.80038e-07,-1.07513e-07,0,-2.45265e-09,26548.5,-37.4982,7337.86,-168.252,0.00410565,0.134861,0,0.134923,10492.7,0,0,10492.7,168.252
step02_gravity_refstate-crust.xmf,271,2.18905e-07,3.56254e-07,0,-1.41529e-07,-1.51075e+08,-1.51066e+08,-1.5109e+08,-9708.87,0.00229704,0.13494,0,0.134959,8523.87,-5501.48,0,10145.1,9708.87
step02_gravity_refstate-crust.xmf,272,1.83409e-07,1.33803e-07,0,-9.4068e-08,-6.76646e+07,-6.7668e+07,-6.76772e+07,-6453.07,0.00367453,0.134008,0,0.134058,12340.1,-2464.35,0,12583.7,6453.07
step02_gravity_refstate-crust.xmf,273,1.92093e-07,-7.37602e-08,0,-2.07383e-09,18210.5,-27.0225,5032.93,-142.265,0.00484543,0.133508,0,0.133596,13537.5,0,0,13537.5,142.265
step02_gravity_refstate-crust.xmf,274,1.16917e-07,1.34987e-07,0,-9.06438e-08,-5.9057e+07,-5.90558e+07,-5.9065e+07,-6218.17,0.00421084,0.132631,0,0.132698,15150.8,-2150.71,0,15302.6,6218.17
step02_gravity_refstate-crust.xmf,275,9.36551e-08,-3.58535e-08,0,-1.42536e-09,8883.15,-1.13939,2458.41,-97.7796,0.00529526,0.131969,0,0.132075,16619.6,0,0,16619.6,97.7796
step02_gravity_refstate-crust.xmf,276,3.54219e-08,1.68381e-07,0,-9.29809e-08,-5.91279e+07,-5.91188e+07,-5.91303e+07,-6378.49,0.00444607,0.13099,0,0.131065,18183.7,-2153.01,0,18310.7,6378.49
step02_gravity_refstate-crust.xmf,277,-9.6383e-09,3.68713e-09,0,-1.62822e-09,-914.303,-0.17794,-253.115,-111.696,0.00542542,0.130332,0,0.130444,19747.8,0,0,19747.8,111.696
step02_gravity_refstate-crust.xmf,278,1.92233e-07,1.24966e-06,0,4.24606e-07,-4.78403e+08,-4.7833e+08,-4.78416e+08,29128,-0.00318266,0.12434,-0,0.12438,-10373,-17419.4,-0,20274,29128
step02_gravity_refstate-crust.xmf,279,8.29223e-08,1.83959e-06,0,6.5995e-07,-6.41305e+08,-6.41185e+08,-6.41311e+08,45272.6,-0.00507168,0.112544,-0,0.112659,-13622.4,-23350.5,-0,27033.6,45272.6
step02_gravity_refstate-crust.xmf,280,1.29599e-07,1.63412e-06,0,5.86401e-07,-5.88884e+08,-5.88781e+08,-5.88893e+08,40227.1,-0.00444886,0.116758,-0,0.116842,-12684.7,-21442,-0,24913,40227.1
step02_gravity_refstate-crust.xmf,281,1.59864e-07,1.4378e-06,0,5.07249e-07,-5.31926e+08,-5.31838e+08,-5.31937e+08,34797.3,-0.0038187,0.120707,-0,0.120767,-11774.1,-19368.2,-0,22666.2,34797.3
step02_gravity_refstate-crust.xmf,282,1.99619e-07,1.07418e-06,0,3.52124e-07,-4.1624e+08,-4.1618e+08,-4.16254e+08,24155.7,-0.0026845,0.127456,-0,0.127484,-9580.63,-15156.1,-0,17930.3,24155.7
step02_gravity_refstate-crust.xmf,283,2.40248e-07,6.19551e-07,0,1.50693e-07,-2.55886e+08,-2.5586e+08,-2.55902e+08,10337.5,-0.00144353,0.1341,-0,0.134108,-5545.71,-9317.71,-0,10843.2,10337.5
step02_gravity_refstate-crust.xmf,284,2.15234e-07,9.15156e-07,0,2.77677e-07,-3.62353e+08,-3.62305e+08,-3.62368e+08,19048.7,-0.00219339,0.130129,-0,0.130147,-8189.12,-13194.1,-0,15528.9,19048.7
step02_gravity_refstate-crust.xmf,285,2.28346e-07,7.68462e-07,0,2.09511e-07,-3.10629e+08,-3.10592e+08,-3.10645e+08,14372.4,-0.00177153,0.132304,-0,0.132316,-6784.85,-11310.9,-0,13189.8,14372.4
step02_gravity_refstate-crust.xmf,286,2.57048e-07,6.21765e-07,0,9.26677e-08,-2.63639e+08,-2.63614e+08,-2.63656e+08,6357,-0.000875814,0.134469,-0,0.134472,-3273.7,-9600.04,-0,10142.9,6357
step02_gravity_refstate-crust.xmf,287,2.67139e-07,6.2381e-07,0,3.28705e-08,-2.6785e+08,-2.67826e+08,-2.67869e+08,2254.92,-0.000303992,0.134638,-0,0.134638,-1121.88,-9753.41,-0,9817.72,2254.92
step02_gravity_refstate-crust.xmf,288,2.66927e-07,6.21049e-07,0,-3.42924e-08,-2.66747e+08,-2.66723e+08,-2.66765e+08,-2352.46,0.000321147,0.134659,0,0.134659,1185.15,-9713.24,0,9785.27,2352.46
step02_gravity_refstate-crust.xmf,289,2.54098e-07,6.35427e-07,0,-1.06319e-07,-2.68355e+08,-2.68328e+08,-2.68372e+08,-7293.51,0.000990165,0.134277,0,0.13428,3712.79,-9771.73,0,10453.3,7293.51
step02_gravity_refstate-crust.xmf,290,-3.70879e-07,3.14886e-06,0,6.33141e-07,-8.68865e+08,-8.68624e+08,-8.6884e+08,43433.5,-0.00589782,0.0834221,-0,0.0836303,-20818.6,-31635.3,-0,37870.9,43433.5
step02_gravity_refstate-crust.xmf,291,-3.46155e-07,3.09817e-06,0,7.33768e-07,-8.71151e+08,-8.70915e+08,-8.71128e+08,50336.5,-0.00651022,0.0853213,-0,0.0855693,-19136,-31718.5,-0,37043.9,50336.5
step02_gravity_refstate-crust.xmf,292,-3.01656e-07,3.01647e-06,0,8.36446e-07,-8.72854e+08,-8.72626e+08,-8.72833e+08,57380.2,-0.00707225,0.0875347,-0,0.08782,-17446.9,-31780.6,-0,36254.6,57380.2
step02_gravity_refstate-crust.xmf,293,-1.13485e-07,3.68447e-06,0,8.07557e-09,-1.03625e+09,-1.03599e+09,-1.03624e+09,553.984,-0.000373425,0.0523547,-0,0.052356,-36306.2,-37731,-0,52361.9,553.984
step02_gravity_refstate-crust.xmf,294,-1.9187e-07,3.55441e-06,0,4.82835e-08,-9.83473e+08,-9.83216e+08,-9.83459e+08,3312.25,-0.000897657,0.0596305,-0,0.0596373,-34592.1,-35809,-0,49788.6,3312.25
step02_gravity_refstate-crust.xmf,295,-2.27762e-07,3.60352e-06,0,7.57671e-08,-9.8864e+08,-9.88377e+08,-9.88624e+08,5197.63,-0.0013368,0.0596094,-0,0.0596244,-32343.9,-35997.1,-0,48393.4,5197.63
step02_gravity_refstate-crust.xmf,296,3.58321e-08,2.15221e-06,0,7.95684e-07,-7.35599e+08,-7.35454e+08,-7.35601e+08,54583.9,-0.00614212,0.105516,-0,0.105695,-13788.9,-26783.7,-0,30124.7,54583.9
step02_gravity_refstate-crust.xmf,297,-2.29736e-07,2.8955e-06,0,9.32822e-07,-8.72722e+08,-8.72508e+08,-8.72707e+08,63991.6,-0.00752015,0.0901249,-0,0.0904381,-15785.3,-31775.9,-0,35480.8,63991.6
step02_gravity_refstate-crust.xmf,298,1.68165e-07,3.7683e-07,0,-1.74133e-07,-1.48852e+08,-1.48837e+08,-1.48863e+08,-11945.5,0.00289759,0.133643,0,0.133675,11527.4,-5420.35,0,12738.2,11945.5
step02_gravity_refstate-crust.xmf,299,-4.75424e-08,2.22128e-07,0,-9.78565e-08,-6.56653e+07,-6.56468e+07,-6.5662e+07,-6712.95,0.0043376,0.129224,0,0.129297,21310.4,-2390.76,0,21444.1,6712.95
step02_gravity_refstate-crust.xmf,300,-1.10896e-07,4.25089e-08,0,-1.77014e-09,-10516.1,7.47693,-2908.64,-121.432,0.00522373,0.128692,0,0.128797,22931.2,0,0,22931.2,121.432
step02_gravity_refstate-crust.xmf,301,-1.25049e-07,2.63351e-07,0,-9.24087e-08,-6.87966e+07,-6.877e+07,-6.8788e+07,-6339.23,0.00401492,0.127526,0,0.127589,24487,-2504.51,0,24614.8,6339.23
step02_gravity_refstate-crust.xmf,302,-2.04074e-07,7.79798e-08,0,-1.7435e-09,-19362.5,-13.6334,-5363.05,-119.604,0.00469422,0.127147,0,0.127234,26179,0,0,26179,119.604
step02_gravity_refstate-crust.xmf,303,-2.02993e-07,3.13055e-07,0,-8.40928e-08,-7.56088e+07,-7.55734e+07,-7.55949e+07,-5768.77,0.00334597,0.125781,0,0.125826,28071.3,-2752.28,0,28205.9,5768.77
step02_gravity_refstate-crust.xmf,304,-2.86673e-07,1.09665e-07,0,-1.9157e-10,-27194.3,-5.481,-7528.5,-13.1417,0.00386094,0.125796,0,0.125856,29500.3,0,0,29500.3,13.1417
step02_gravity_refstate-crust.xmf,305,-2.75064e-07,2.68093e-07,0,-4.74959e-08,-5.24273e+07,-5.239e+07,-5.24084e+07,-3258.22,0.00281337,0.124849,0,0.12488,31202.5,-1907.97,0,31260.8,3258.22
step02_gravity_refstate-crust.xmf,306,-3.54777e-07,1.33685e-07,0,-3.0853e-09,-33741.2,-232.664,-9403.48,-211.651,0.00275765,0.124732,0,0.124762,32904.6,0,0,32904.6,211.651
step02_gravity_refstate-crust.xmf,307,2.17734e-07,5.20601e-07,0,-1.65451e-07,-2.12521e+08,-2.125e+08,-2.12536e+08,-11350,0.00189638,0.134379,0,0.134392,7412.7,-7738.72,0,10716.1,11350
step02_gravity_refstate-crust.xmf,308,2.33358e-07,6.59642e-07,0,-1.70664e-07,-2.70704e+08,-2.70674e+08,-2.7072e+08,-11707.6,0.00158765,0.133569,0,0.133578,6141.89,-9857.21,0,11614.1,11707.6
step02_gravity_refstate-crust.xmf,309,-3.22391e-07,3.39428e-06,0,2.15903e-07,-9.16117e+08,-9.15862e+08,-9.16095e+08,14810.9,-0.00269197,0.0703278,-0,0.0703793,-29155.4,-33356.1,-0,44302,14810.9
step02_gravity_refstate-crust.xmf,310,-3.60773e-07,3.39668e-06,0,2.95978e-07,-9.11505e+08,-9.11247e+08,-9.1148e+08,20304.1,-0.00342849,0.0722561,-0,0.0723374,-27063.6,-33188.1,-0,42823.9,20304.1
step02_gravity_refstate-crust.xmf,311,-3.90012e-07,3.3945e-06,0,3.81804e-07,-9.09217e+08,-9.08958e+08,-9.0919e+08,26191.8,-0.00415997,0.0740754,-0,0.0741921,-25137.9,-33104.6,-0,41567.2,26191.8
step02_gravity_refstate-crust.xmf,312,-4.11038e-07,3.38949e-06,0,4.73926e-07,-9.09429e+08,-9.09169e+08,-9.09401e+08,32511.3,-0.0048832,0.0757644,-0,0.0759216,-23330,-33112.3,-0,40505.7,32511.3
step02_gravity_refstate-crust.xmf,313,-4.23072e-07,3.38064e-06,0,5.70621e-07,-9.12088e+08,-9.11827e+08,-9.12059e+08,39144.6,-0.00558375,0.0772989,-0,0.0775003,-21640,-33209,-0,39637.4,39144.6
step02_gravity_refstate-crust.xmf,314,-2.89875e-07,3.57452e-06,0,1.40982e-07,-9.69311e+08,-9.69046e+08,-9.69291e+08,9671.39,-0.00206713,0.0630825,-0,0.0631164,-30072,-35293.1,-0,46367.3,9671.39
step02_gravity_refstate-crust.xmf,315,1.28329e-07,1.92398e-06,0,7.30859e-07,-6.93494e+08,-6.9337e+08,-6.93502e+08,50137,-0.00552845,0.11023,-0,0.110368,-12458.1,-25250.8,-0,28156.9,50137
step02_gravity_refstate-crust.xmf,316,5.61288e-08,2.23089e-06,0,8.64566e-07,-7.73297e+08,-7.73148e+08,-7.73301e+08,59309.2,-0.00657802,0.103475,-0,0.103684,-13051.3,-28156.3,-0,31034.1,59309.2
step02_gravity_refstate-crust.xmf,317,1.36903e-09,2.40358e-06,0,9.30247e-07,-8.1132e+08,-8.11155e+08,-8.1132e+08,63815,-0.00708607,0.0997947,-0,0.100046,-13385.3,-29540.6,-0,32431.7,63815
step02_gravity_refstate-crust.xmf,318,-1.42427e-07,2.75931e-06,0,1.01797e-06,-8.74183e+08,-8.73983e+08,-8.74173e+08,69833,-0.00783352,0.0926024,-0,0.0929332,-14199.3,-31829.2,-0,34852.8,69833
step02_gravity_refstate-crust.xmf,319,1.79848e-07,5.52579e-07,0,-2.08365e-07,-2.15119e+08,-2.15094e+08,-2.15132e+08,-14293.8,0.00239032,0.133302,0,0.133324,9880.04,-7833.22,0,12608.5,14293.8
step02_gravity_refstate-crust.xmf,320,1.14526e-07,3.38226e-07,0,-1.69312e-07,-1.26603e+08,-1.26588e+08,-1.26611e+08,-11614.8,0.00345294,0.132436,0,0.132481,14423.9,-4610.1,0,15142.7,11614.8
step02_gravity_refstate-crust.xmf,321,-2.89831e-07,3.49388e-07,0,-4.34771e-08,-7.58132e+07,-7.57693e+07,-7.57933e+07,-2982.53,0.00177019,0.123728,0,0.123741,34312.9,-2759.42,0,34423.6,2982.53
step02_gravity_refstate-crust.xmf,322,5.49272e-08,3.69372e-07,0,-1.77474e-07,-1.27544e+08,-1.27522e+08,-1.27547e+08,-12174.7,0.00366875,0.130967,0,0.131019,17030.6,-4644.15,0,17652.5,12174.7
step02_gravity_refstate-crust.xmf,323,-9.12452e-09,4.08153e-07,0,-1.79126e-07,-1.30458e+08,-1.3043e+08,-1.30458e+08,-12288.1,0.00370911,0.129309,0,0.129362,19835.2,-4750.06,0,20396,12288.1
step02_gravity_refstate-crust.xmf,324,2.44354e-07,1.12224e-06,0,3.41369e-07,-4.52625e+08,-4.52565e+08,-4.52642e+08,23417.9,-0.00254206,0.12681,-0,0.126835,-8131.6,-16481,-0,18377.9,23417.9
step02_gravity_refstate-crust.xmf,325,2.30994e-07,1.38238e-06,0,4.74294e-07,-5.42992e+08,-5.42913e+08,-5.43008e+08,32536.6,-0.00351417,0.121672,-0,0.121723,-9766.42,-19771.2,-0,22051.9,32536.6
step02_gravity_refstate-crust.xmf,326,1.78448e-07,1.71012e-06,0,6.36088e-07,-6.3857e+08,-6.38465e+08,-6.38582e+08,43635.6,-0.00477341,0.114799,-0,0.114898,-11558.8,-23251.1,-0,25965.8,43635.6
step02_gravity_refstate-crust.xmf,327,2.09566e-07,1.53331e-06,0,5.51276e-07,-5.8838e+08,-5.88289e+08,-5.88394e+08,37817.5,-0.00410652,0.118542,-0,0.118613,-10692.1,-21423.8,-0,23943.7,37817.5
step02_gravity_refstate-crust.xmf,328,2.49447e-07,1.0016e-06,0,2.76568e-07,-4.08979e+08,-4.08927e+08,-4.08996e+08,18972.6,-0.00209508,0.12901,-0,0.129027,-7089.28,-14891.8,-0,16493.2,18972.6
step02_gravity_refstate-crust.xmf,329,2.57571e-07,7.61559e-07,0,1.49704e-07,-3.1832e+08,-3.18286e+08,-3.18338e+08,10269.7,-0.00123442,0.132815,-0,0.132821,-4531.44,-11591,-0,12445.3,10269.7
step02_gravity_refstate-crust.xmf,330,2.55969e-07,8.84221e-07,0,2.10023e-07,-3.66143e+08,-3.661e+08,-3.6616e+08,14407.6,-0.00163669,0.131001,-0,0.131012,-5779.58,-13332.2,-0,14531,14407.6
step02_gravity_refstate-crust.xmf,331,2.73963e-07,7.59635e-07,0,7.5783e-08,-3.25438e+08,-3.25405e+08,-3.25457e+08,5198.72,-0.000624327,0.133079,-0,0.133081,-2225.58,-11850.2,-0,12057.4,5198.72
step02_gravity_refstate-crust.xmf,332,2.8015e-07,7.56111e-07,0,-3.41398e-09,-3.26416e+08,-3.26384e+08,-3.26435e+08,-234.199,2.86167e-05,0.133202,0,0.133202,101.076,-11885.8,0,11886.2,234.199
step02_gravity_refstate-crust.xmf,333,2.73169e-07,7.63244e-07,0,-8.34762e-08,-3.26652e+08,-3.26618e+08,-3.26671e+08,-5726.47,0.000686719,0.133014,0,0.133016,2448.64,-11894.4,0,12143.8,5726.47
step02_gravity_refstate-crust.xmf,334,2.52991e-07,7.86414e-07,0,-1.62322e-07,-3.28326e+08,-3.28289e+08,-3.28343e+08,-11135.3,0.00133689,0.132437,0,0.132444,4881.38,-11955.3,0,12913.4,11135.3
step02_gravity_refstate-crust.xmf,335,-3.95205e-07,1.49049e-07,0,-1.13987e-09,-37580.5,-244.762,-10469.5,-78.1949,0.00144784,0.124041,0,0.124049,36401.3,0,0,36401.3,78.1949
step02_gravity_refstate-crust.xmf,336,-4.22273e-07,3.34201e-06,0,6.77579e-07,-9.12782e+08,-9.12524e+08,-9.12753e+08,46482,-0.00629028,0.0793162,-0,0.0795652,-19970,-33234.2,-0,38772.6,46482
step02_gravity_refstate-crust.xmf,337,-3.92325e-07,3.26889e-06,0,7.9715e-07,-9.12089e+08,-9.11837e+08,-9.12062e+08,54684.5,-0.00697895,0.0817939,-0,0.0820911,-18283.6,-33209,-0,37909.4,54684.5
step02_gravity_refstate-crust.xmf,338,-3.37505e-07,3.16026e-06,0,9.20844e-07,-9.11808e+08,-9.11568e+08,-9.11785e+08,63169.9,-0.00761453,0.0845503,-0,0.0848925,-16560.6,-33198.8,-0,37100.1,63169.9
step02_gravity_refstate-crust.xmf,339,-1.3423e-07,3.74683e-06,0,1.00381e-08,-1.04811e+09,-1.04784e+09,-1.0481e+09,688.616,-0.000579472,0.0511554,-0,0.0511587,-34073.8,-38162.6,-0,51160.6,688.616
step02_gravity_refstate-crust.xmf,340,-2.45268e-07,3.71606e-06,0,7.83067e-08,-1.01527e+09,-1.015e+09,-1.01525e+09,5371.84,-0.00149621,0.0566774,-0,0.0566972,-30733.6,-36966.7,-0,48073.8,5371.84
step02_gravity_refstate-crust.xmf,341,1.20738e-07,2.03846e-06,0,7.9617e-07,-7.33658e+08,-7.33527e+08,-7.33667e+08,54617.2,-0.00600413,0.107472,-0,0.107639,-12345,-26713.2,-0,29427.8,54617.2
step02_gravity_refstate-crust.xmf,342,-4.39556e-08,2.55097e-06,0,9.96251e-07,-8.45892e+08,-8.45714e+08,-8.45889e+08,68342.8,-0.00754262,0.0966066,-0,0.0969006,-13433,-30799.3,-0,33601.2,68342.8
step02_gravity_refstate-crust.xmf,343,-2.51289e-07,3.0095e-06,0,1.03112e-06,-9.09864e+08,-9.0964e+08,-9.09847e+08,70735.1,-0.0080852,0.0875742,-0,0.0879466,-14935.4,-33128.1,-0,36339.2,70735.1
step02_gravity_refstate-crust.xmf,344,1.33471e-07,6.11794e-07,0,-2.5059e-07,-2.25586e+08,-2.25553e+08,-2.25595e+08,-17190.5,0.00278056,0.13178,0,0.131809,12459.8,-8214.18,0,14923.8,17190.5
step02_gravity_refstate-crust.xmf,345,-7.30052e-08,4.45513e-07,0,-1.70973e-07,-1.33006e+08,-1.32971e+08,-1.33001e+08,-11728.7,0.00356337,0.127601,0,0.127651,22778.2,-4842.63,0,23287.3,11728.7
step02_gravity_refstate-crust.xmf,346,-1.30753e-07,4.85929e-07,0,-1.55724e-07,-1.37458e+08,-1.37416e+08,-1.37449e+08,-10682.7,0.00321936,0.125955,0,0.125996,25751.8,-5004.51,0,26233.6,10682.7
step02_gravity_refstate-crust.xmf,347,-2.20486e-07,4.82462e-07,0,-9.68753e-08,-1.24691e+08,-1.24642e+08,-1.24676e+08,-6645.65,0.00230927,0.123858,0,0.12388,31211.3,-4539.34,0,31539.7,6645.65
step02_gravity_refstate-crust.xmf,348,1.95961e-07,6.95344e-07,0,-2.26122e-07,-2.73367e+08,-2.73333e+08,-2.73381e+08,-15512,0.00211372,0.132566,0,0.132583,8572.17,-9954.07,0,13136.4,15512
step02_gravity_refstate-crust.xmf,349,2.51645e-07,1.24636e-06,0,3.98111e-07,-5.02309e+08,-5.02241e+08,-5.02327e+08,27310.4,-0.00294092,0.124401,-0,0.124436,-8596.36,-18290,-0,20209.5,27310.4
step02_gravity_refstate-crust.xmf,350,2.2412e-07,8.21098e-07,0,-2.32894e-07,-3.30958e+08,-3.30917e+08,-3.30974e+08,-15976.5,0.00191732,0.131521,0,0.131535,7279.48,-12051,0,14079,15976.5
step02_gravity_refstate-crust.xmf,351,-3.23029e-07,3.36983e-07,0,-1.65505e-08,-6.77266e+07,-6.76813e+07,-6.77044e+07,-1135.36,0.000817458,0.123318,0,0.123321,37496.9,-2464.87,0,37577.8,1135.36
step02_gravity_refstate-crust.xmf,352,-3.9987e-07,1.50426e-07,0,1.82069e-09,-38040.5,-290.14,-10609.4,124.9,6.09878e-20,0.123796,0,0.123796,40000,0,0,40000,124.9
step02_gravity_refstate-crust.xmf,353,-3.41936e-07,3.58383e-06,0,2.10323e-07,-9.62494e+08,-9.62225e+08,-9.62471e+08,14428.1,-0.00278169,0.0651504,-0,0.0652097,-27975.3,-35044.7,-0,44841.4,14428.1
step02_gravity_refstate-crust.xmf,354,-3.9366e-07,3.60306e-06,0,2.94956e-07,-9.59481e+08,-9.59207e+08,-9.59454e+08,20234,-0.00355075,0.066998,-0,0.067092,-25942.4,-34934.9,-0,43513.8,20234
step02_gravity_refstate-crust.xmf,355,-4.34464e-07,3.61049e-06,0,3.90658e-07,-9.57378e+08,-9.57101e+08,-9.57349e+08,26799.1,-0.00435327,0.068949,-0,0.0690863,-24036.5,-34858.1,-0,42342,26799.1
step02_gravity_refstate-crust.xmf,356,-4.618e-07,3.59312e-06,0,4.97299e-07,-9.53766e+08,-9.53487e+08,-9.53734e+08,34114.7,-0.00515445,0.0712429,-0,0.0714291,-22300.1,-34726.5,-0,41270.1,34114.7
step02_gravity_refstate-crust.xmf,357,-4.77753e-07,3.57089e-06,0,6.10801e-07,-9.53247e+08,-9.52969e+08,-9.53214e+08,41901,-0.00593618,0.0733272,-0,0.0735671,-20646.8,-34707.5,-0,40384.4,41901
step02_gravity_refstate-crust.xmf,358,-1.79615e-07,3.7923e-06,0,2.53522e-08,-1.04938e+09,-1.04911e+09,-1.04937e+09,1739.16,-0.000903052,0.0515598,-0,0.0515677,-31950.8,-38209,-0,49807.4,1739.16
step02_gravity_refstate-crust.xmf,359,-3.00003e-07,3.7401e-06,0,1.25311e-07,-1.01048e+09,-1.0102e+09,-1.01046e+09,8596.31,-0.00204329,0.0582016,-0,0.0582374,-28901,-36792,-0,46785.8,8596.31
step02_gravity_refstate-crust.xmf,360,2.4111e-07,1.74972e-06,0,6.80833e-07,-6.82749e+08,-6.82646e+08,-6.82766e+08,46705.1,-0.00502668,0.113168,-0,0.11328,-10419.6,-24859.9,-0,26955.2,46705.1
step02_gravity_refstate-crust.xmf,361,1.53306e-07,2.08485e-06,0,8.56966e-07,-7.67516e+08,-7.67383e+08,-7.67526e+08,58787.9,-0.00635601,0.105813,-0,0.106003,-11661.7,-27946,-0,30281.6,58787.9
step02_gravity_refstate-crust.xmf,362,2.06946e-07,1.90774e-06,0,7.69997e-07,-7.26228e+08,-7.26112e+08,-7.26242e+08,52821.8,-0.00569094,0.109622,-0,0.10977,-11012.8,-26442.9,-0,28644.5,52821.8
step02_gravity_refstate-crust.xmf,363,9.53302e-08,2.23809e-06,0,9.19478e-07,-7.98253e+08,-7.98106e+08,-7.9826e+08,63076.2,-0.00685294,0.102609,-0,0.102838,-12226.7,-29065.1,-0,31532.1,63076.2
step02_gravity_refstate-crust.xmf,364,7.84426e-08,2.35336e-06,0,1.00274e-06,-8.34782e+08,-8.34626e+08,-8.34787e+08,68788.2,-0.00736057,0.0998657,-0,0.100137,-12026.3,-30395,-0,32687.8,68788.2
step02_gravity_refstate-crust.xmf,365,-1.98529e-08,2.58255e-06,0,1.08028e-06,-8.73999e+08,-8.7382e+08,-8.73998e+08,74107.3,-0.00795844,0.0953253,-0,0.095657,-12639,-31822.7,-0,34240.8,74107.3
step02_gravity_refstate-crust.xmf,366,-1.37668e-07,2.82408e-06,0,1.11977e-06,-9.06244e+08,-9.06041e+08,-9.06235e+08,76816.5,-0.00835191,0.0908238,-0,0.091207,-13373.7,-32996.6,-0,35603.8,76816.5
step02_gravity_refstate-crust.xmf,367,1.12668e-07,5.03454e-07,0,-2.24072e-07,-1.82904e+08,-1.82878e+08,-1.82912e+08,-15371.3,0.0030756,0.131858,0,0.131894,13901,-6660.05,0,15414.1,15371.3
step02_gravity_refstate-crust.xmf,368,1.53727e-07,7.40264e-07,0,-2.72423e-07,-2.77453e+08,-2.77413e+08,-2.77463e+08,-18688.2,0.00255068,0.131268,0,0.131293,11026.7,-10102.7,0,14955.1,18688.2
step02_gravity_refstate-crust.xmf,369,6.73342e-08,5.52758e-07,0,-2.40533e-07,-1.90579e+08,-1.90546e+08,-1.90584e+08,-16500.6,0.00323466,0.130506,0,0.130546,16002.4,-6939.36,0,17442.2,16500.6
step02_gravity_refstate-crust.xmf,370,-1.71361e-07,5.35722e-07,0,-1.40968e-07,-1.47275e+08,-1.47227e+08,-1.47263e+08,-9670.43,0.00276686,0.12458,0,0.12461,28285.9,-5361.83,0,28789.6,9670.43
step02_gravity_refstate-crust.xmf,371,-2.40489e-07,5.64735e-07,0,-7.56465e-08,-1.46735e+08,-1.4668e+08,-1.46719e+08,-5189.35,0.00154169,0.122603,0,0.122612,34071.1,-5341.94,0,34487.3,5189.35
step02_gravity_refstate-crust.xmf,372,1.39794e-08,5.92039e-07,0,-2.45952e-07,-1.93508e+08,-1.93468e+08,-1.93509e+08,-16872.3,0.00332657,0.128916,0,0.128959,18556,-7045.82,0,19848.7,16872.3
step02_gravity_refstate-crust.xmf,373,-4.07646e-08,6.33176e-07,0,-2.40521e-07,-1.96832e+08,-1.96786e+08,-1.9683e+08,-16499.7,0.00327404,0.127208,0,0.12725,21277,-7166.69,0,22451.6,16499.7
step02_gravity_refstate-crust.xmf,374,2.88364e-07,1.06472e-06,0,2.64401e-07,-4.49531e+08,-4.49478e+08,-4.49551e+08,18137.9,-0.00195537,0.127965,-0,0.12798,-5982.38,-16368.4,-0,17427.4,18137.9
step02_gravity_refstate-crust.xmf,375,2.93569e-07,1.17807e-06,0,3.32048e-07,-4.9455e+08,-4.94489e+08,-4.9457e+08,22778.5,-0.0024328,0.125703,-0,0.125727,-6901.48,-18007.6,-0,19284.8,22778.5
step02_gravity_refstate-crust.xmf,376,2.95769e-07,1.305e-06,0,4.09978e-07,-5.42977e+08,-5.42907e+08,-5.42997e+08,28124.5,-0.00299837,0.123004,-0,0.12304,-7809.29,-19770.8,-0,21257.2,28124.5
step02_gravity_refstate-crust.xmf,377,2.87719e-07,1.43972e-06,0,4.95349e-07,-5.89349e+08,-5.8927e+08,-5.89369e+08,33981,-0.00362989,0.120053,-0,0.120108,-8739.79,-21459.2,-0,23170.7,33981
step02_gravity_refstate-crust.xmf,378,2.70642e-07,1.58614e-06,0,5.85346e-07,-6.35766e+08,-6.35676e+08,-6.35785e+08,40154.8,-0.00430485,0.1168,-0,0.116879,-9600.38,-23149.3,-0,25061,40154.8
step02_gravity_refstate-crust.xmf,379,2.83446e-07,9.65217e-07,0,2.04192e-07,-4.09824e+08,-4.09778e+08,-4.09844e+08,14007.6,-0.00154437,0.129793,-0,0.129802,-5013.46,-14922.7,-0,15742.4,14007.6
step02_gravity_refstate-crust.xmf,380,2.87454e-07,8.95542e-07,0,1.38044e-07,-3.84793e+08,-3.84751e+08,-3.84812e+08,9469.85,-0.00105028,0.131065,-0,0.131069,-3489.54,-14011.3,-0,14439.3,9469.85
step02_gravity_refstate-crust.xmf,381,3.02187e-07,8.75763e-07,0,4.01793e-08,-3.8333e+08,-3.8329e+08,-3.8335e+08,2756.3,-0.000307199,0.131477,-0,0.131478,-1005.48,-13958.1,-0,13994.2,2756.3
step02_gravity_refstate-crust.xmf,382,3.01485e-07,8.77694e-07,0,-5.15193e-08,-3.83788e+08,-3.83748e+08,-3.83809e+08,-3534.23,0.000395888,0.131441,0,0.131441,1296.33,-13974.8,0,14034.8,3534.23
step02_gravity_refstate-crust.xmf,383,2.86015e-07,8.95852e-07,0,-1.42306e-07,-3.8458e+08,-3.84538e+08,-3.84599e+08,-9762.16,0.00109442,0.131036,0,0.131041,3643.76,-14003.6,0,14469.8,9762.16
step02_gravity_refstate-crust.xmf,384,2.56553e-07,9.31705e-07,0,-2.26863e-07,-3.86614e+08,-3.86568e+08,-3.86632e+08,-15562.8,0.00175139,0.130237,0,0.130249,6021.55,-14077.6,0,15311.3,15562.8
step02_gravity_refstate-crust.xmf,385,-2.64569e-07,5.53763e-07,0,-4.05675e-08,-1.41096e+08,-1.41039e+08,-1.41077e+08,-2782.93,0.000840031,0.122199,0,0.122202,36881.2,-5136.51,0,37237.2,2782.93
step02_gravity_refstate-crust.xmf,386,-3.01768e-07,4.16706e-07,0,9.04336e-10,-9.53329e+07,-9.52836e+07,-9.53122e+07,62.0375,6.01572e-20,0.122812,0,0.122812,40000,-3470.11,0,40150.2,62.0375
step02_gravity_refstate-crust.xmf,387,-4.77146e-07,3.51707e-06,0,7.37746e-07,-9.51957e+08,-9.51683e+08,-9.51925e+08,50609.4,-0.00673343,0.0758169,-0,0.0761154,-18986.1,-34660.5,-0,39519.9,50609.4
step02_gravity_refstate-crust.xmf,388,-4.47232e-07,3.43991e-06,0,8.7799e-07,-9.52035e+08,-9.51768e+08,-9.52004e+08,60230.1,-0.00750033,0.0784254,-0,0.0787832,-17334.5,-34663.3,-0,38756,60230.1
step02_gravity_refstate-crust.xmf,389,-3.82416e-07,3.30875e-06,0,1.04452e-06,-9.53664e+08,-9.53411e+08,-9.53638e+08,71654,-0.00828863,0.0815444,-0,0.0819645,-15475.8,-34722.7,-0,38015.3,71654
step02_gravity_refstate-crust.xmf,390,-2.36617e-07,3.85972e-06,0,4.8331e-08,-1.05432e+09,-1.05403e+09,-1.0543e+09,3315.51,-0.00128091,0.0516573,-0,0.0516732,-29872,-38388.4,-0,48641.6,3315.51
step02_gravity_refstate-crust.xmf,391,-2.54415e-07,3.06934e-06,0,1.1458e-06,-9.40216e+08,-9.39988e+08,-9.40199e+08,78602,-0.00866049,0.0860904,-0,0.0865249,-13940.7,-34233.2,-0,36962.9,78602
step02_gravity_refstate-crust.xmf,392,1.06443e-07,7.92832e-07,0,-3.08255e-07,-2.82778e+08,-2.82731e+08,-2.82785e+08,-21146.3,0.00287791,0.129728,0,0.12976,13493.7,-10296.5,0,16973.4,21146.3
step02_gravity_refstate-crust.xmf,393,7.85897e-08,7.06108e-07,0,-2.88464e-07,-2.45514e+08,-2.45471e+08,-2.4552e+08,-19788.6,0.0030312,0.129799,0,0.129834,15073.1,-8939.6,0,17524.7,19788.6
step02_gravity_refstate-crust.xmf,394,-9.23262e-08,6.68132e-07,0,-2.22989e-07,-1.98896e+08,-1.98844e+08,-1.9889e+08,-15297,0.00307541,0.125555,0,0.125593,24062,-7241.68,0,25128.1,15297
step02_gravity_refstate-crust.xmf,395,-1.37662e-07,7.02577e-07,0,-1.96994e-07,-2.01993e+08,-2.01935e+08,-2.01983e+08,-13513.8,0.00273509,0.12401,0,0.12404,26857.8,-7354.28,0,27846.4,13513.8
step02_gravity_refstate-crust.xmf,396,-1.76276e-07,7.18063e-07,0,-1.60641e-07,-2.00597e+08,-2.00536e+08,-2.00585e+08,-11020,0.00228647,0.12277,0,0.122791,29688,-7303.34,0,30573.2,11020
step02_gravity_refstate-crust.xmf,397,-2.07327e-07,7.32302e-07,0,-1.17981e-07,-2.00242e+08,-2.00177e+08,-2.00227e+08,-8093.51,0.00171474,0.121733,0,0.121745,32622.1,-7290.29,0,33426.8,8093.51
step02_gravity_refstate-crust.xmf,398,1.8094e-07,8.66217e-07,0,-2.89068e-07,-3.33062e+08,-3.33014e+08,-3.33074e+08,-19830,0.00240561,0.130354,0,0.130376,9656.53,-12127.5,0,15502.4,19830
step02_gravity_refstate-crust.xmf,399,1.35997e-07,9.11235e-07,0,-3.29959e-07,-3.34262e+08,-3.34208e+08,-3.34271e+08,-22635.2,0.00277361,0.129051,0,0.129081,11938.8,-12171.1,0,17049,22635.2
step02_gravity_refstate-crust.xmf,400,2.18053e-07,9.76862e-07,0,-2.99152e-07,-3.88518e+08,-3.88466e+08,-3.88533e+08,-20521.9,0.00231524,0.129146,0,0.129167,8357.54,-14146.8,0,16431.1,20521.9
step02_gravity_refstate-crust.xmf,401,-3.65091e-07,3.77712e-06,0,1.93783e-07,-1.00778e+09,-1.0075e+09,-1.00776e+09,13293.5,-0.00275443,0.059828,-0,0.0598914,-26848.8,-36693.7,-0,45467.5,13293.5
step02_gravity_refstate-crust.xmf,402,-4.39947e-07,3.83309e-06,0,2.84716e-07,-1.00994e+09,-1.00965e+09,-1.00991e+09,19531.5,-0.00357555,0.061179,-0,0.0612834,-24736.3,-36772.1,-0,44317.8,19531.5
step02_gravity_refstate-crust.xmf,403,-4.87643e-07,3.79626e-06,0,4.08616e-07,-9.96292e+08,-9.95998e+08,-9.96258e+08,28031.1,-0.00458288,0.0648997,-0,0.0650613,-22861.8,-36274.9,-0,42878.1,28031.1
step02_gravity_refstate-crust.xmf,404,-5.20775e-07,3.78391e-06,0,5.26594e-07,-9.92609e+08,-9.92313e+08,-9.92573e+08,36124.3,-0.00542442,0.0672763,-0,0.0674946,-21255.4,-36140.7,-0,41927.8,36124.3
step02_gravity_refstate-crust.xmf,405,-5.40639e-07,3.7538e-06,0,6.58846e-07,-9.90485e+08,-9.9019e+08,-9.90447e+08,45196.8,-0.00629304,0.069741,-0,0.0700244,-19648.5,-36063.2,-0,41068.4,45196.8
step02_gravity_refstate-crust.xmf,406,-3.08168e-07,3.91563e-06,0,9.40797e-08,-1.05338e+09,-1.05309e+09,-1.05336e+09,6453.87,-0.00183907,0.0527914,-0,0.0528234,-27866.9,-38354.3,-0,47409,6453.87
step02_gravity_refstate-crust.xmf,407,3.42342e-07,1.61242e-06,0,6.15257e-07,-6.79567e+08,-6.7948e+08,-6.7959e+08,42206.6,-0.00444644,0.115203,-0,0.115289,-8552.6,-24744.2,-0,26180.6,42206.6
step02_gravity_refstate-crust.xmf,408,3.14204e-07,1.76119e-06,0,7.21745e-07,-7.22873e+08,-7.22773e+08,-7.22894e+08,49511.7,-0.00521148,0.111763,-0,0.111884,-9335.03,-26320.9,-0,27927.3,49511.7
step02_gravity_refstate-crust.xmf,409,1.91838e-07,2.11668e-06,0,9.25597e-07,-8.00608e+08,-8.00476e+08,-8.00622e+08,63495.9,-0.00670494,0.104258,-0,0.104474,-10958.9,-29151,-0,31142.9,63495.9
step02_gravity_refstate-crust.xmf,410,2.64697e-07,1.92928e-06,0,8.2803e-07,-7.63522e+08,-7.63408e+08,-7.63541e+08,56802.9,-0.00598221,0.108097,-0,0.108262,-10135.2,-27800.9,-0,29590.7,56802.9
step02_gravity_refstate-crust.xmf,411,1.21972e-07,2.38065e-06,0,1.10806e-06,-8.71955e+08,-8.718e+08,-8.71963e+08,76013,-0.00785107,0.098144,-0,0.0984575,-11145.6,-31748.6,-0,33648.1,76013
step02_gravity_refstate-crust.xmf,412,-1.23622e-07,2.85315e-06,0,1.22003e-06,-9.32363e+08,-9.32159e+08,-9.32355e+08,83693.8,-0.0088103,0.0895871,-0,0.0900193,-12626.8,-33947.5,-0,36219.8,83693.8
step02_gravity_refstate-crust.xmf,413,1.42881e-09,2.62194e-06,0,1.18752e-06,-9.06329e+08,-9.06149e+08,-9.06329e+08,81463.8,-0.00845751,0.0936968,-0,0.0940777,-11863,-32999.9,-0,35067.4,81463.8
step02_gravity_refstate-crust.xmf,414,3.11811e-08,7.69574e-07,0,-3.02261e-07,-2.55266e+08,-2.55215e+08,-2.55268e+08,-20735.1,0.00314701,0.128121,0,0.12816,17361.9,-9294.54,0,19693.2,20735.1
step02_gravity_refstate-crust.xmf,415,-2.2954e-07,7.34576e-07,0,-7.9627e-08,-1.97986e+08,-1.9792e+08,-1.9797e+08,-5462.41,0.00118204,0.121169,0,0.121175,35062.4,-7208.08,0,35795.6,5462.41
step02_gravity_refstate-crust.xmf,416,-1.90847e-08,8.14073e-07,0,-3.00341e-07,-2.58296e+08,-2.58239e+08,-2.58295e+08,-20603.4,0.00315804,0.126424,0,0.126463,19909.7,-9404.71,0,22019.2,20603.4
step02_gravity_refstate-crust.xmf,417,-6.78205e-08,8.53602e-07,0,-2.84715e-07,-2.60262e+08,-2.60199e+08,-2.60257e+08,-19531.5,0.00303686,0.124719,0,0.124756,22569,-9476.14,0,24477.7,19531.5
step02_gravity_refstate-crust.xmf,418,9.38183e-08,9.56033e-07,0,-3.55136e-07,-3.36294e+08,-3.36235e+08,-3.363e+08,-24362.3,0.00301104,0.127743,0,0.127778,13948.6,-12245,0,18560.8,24362.3
step02_gravity_refstate-crust.xmf,419,3.18506e-07,1.02089e-06,0,1.8019e-07,-4.45759e+08,-4.45711e+08,-4.45781e+08,12361.1,-0.00132411,0.128822,-0,0.128829,-3947.46,-16231.2,-0,16704.3,12361.1
step02_gravity_refstate-crust.xmf,420,3.36001e-07,1.12524e-06,0,2.47478e-07,-4.93195e+08,-4.9314e+08,-4.93218e+08,16977,-0.00179767,0.126654,-0,0.126667,-4904.9,-17958.3,-0,18616.1,16977
step02_gravity_refstate-crust.xmf,421,3.50715e-07,1.23548e-06,0,3.26292e-07,-5.41491e+08,-5.4143e+08,-5.41515e+08,22383.6,-0.00236023,0.124164,-0,0.124187,-5864.03,-19716.9,-0,20570.4,22383.6
step02_gravity_refstate-crust.xmf,422,3.58403e-07,1.35254e-06,0,4.15872e-07,-5.89067e+08,-5.88999e+08,-5.89092e+08,28528.8,-0.00300544,0.121398,-0,0.121436,-6813.37,-21449.1,-0,22505.3,28528.8
step02_gravity_refstate-crust.xmf,423,3.55928e-07,1.47829e-06,0,5.13683e-07,-6.35233e+08,-6.35156e+08,-6.35257e+08,35238.7,-0.00371274,0.11839,-0,0.118449,-7725.73,-23130,-0,24386.2,35238.7
step02_gravity_refstate-crust.xmf,424,3.3251e-07,9.88289e-07,0,8.85658e-08,-4.40519e+08,-4.40474e+08,-4.40541e+08,6075.62,-0.000654538,0.12944,-0,0.129442,-1933.53,-16040.4,-0,16156.5,6075.62
step02_gravity_refstate-crust.xmf,425,3.37382e-07,9.78376e-07,0,-9.83192e-09,-4.38807e+08,-4.38763e+08,-4.3883e+08,-674.47,7.32765e-05,0.129635,0,0.129635,215.938,-15978.1,0,15979.5,674.47
step02_gravity_refstate-crust.xmf,426,3.28195e-07,9.92133e-07,0,-1.11845e-07,-4.40258e+08,-4.40212e+08,-4.4028e+08,-7672.56,0.000829997,0.129366,0,0.129368,2462.26,-16030.9,0,16218.9,7672.56
step02_gravity_refstate-crust.xmf,427,3.0162e-07,1.02548e-06,0,-2.11822e-07,-4.41639e+08,-4.4159e+08,-4.4166e+08,-14531,0.00157633,0.128711,0,0.128721,4797.92,-16081.1,0,16781.6,14531
step02_gravity_refstate-crust.xmf,428,2.60279e-07,1.07325e-06,0,-2.9843e-07,-4.42245e+08,-4.42189e+08,-4.42263e+08,-20472.3,0.00223766,0.127738,0,0.127758,7121.77,-16103.1,0,17607.6,20472.3
step02_gravity_refstate-crust.xmf,429,-2.4743e-07,7.0438e-07,0,3.80626e-10,-1.87181e+08,-1.87116e+08,-1.87164e+08,26.111,4.43551e-20,0.120937,0,0.120937,40000,-6814.61,0,40576.3,26.111
step02_gravity_refstate-crust.xmf,430,-3.5008e-07,3.28171e-06,0,1.18558e-06,-9.72582e+08,-9.72333e+08,-9.72558e+08,81330.7,-0.00894591,0.0819882,-0,0.0824748,-14116.8,-35411.5,-0,38121.6,81330.7
step02_gravity_refstate-crust.xmf,431,-5.45254e-07,3.70362e-06,0,8.01285e-07,-9.9047e+08,-9.90179e+08,-9.90433e+08,54968.2,-0.0071548,0.0722072,-0,0.0725608,-18063.9,-36062.6,-0,40333.8,54968.2
step02_gravity_refstate-crust.xmf,432,-5.19205e-07,3.62884e-06,0,9.63784e-07,-9.91893e+08,-9.91609e+08,-9.91858e+08,66115.6,-0.00800063,0.0748197,-0,0.0752463,-16479.7,-36114.4,-0,39696.7,66115.6
step02_gravity_refstate-crust.xmf,433,-2.11696e-07,3.05419e-06,0,1.29849e-06,-9.66576e+08,-9.66352e+08,-9.66561e+08,89076.7,-0.00928277,0.0857594,-0,0.0862603,-12697.1,-35193,-0,37413.4,89076.7
step02_gravity_refstate-crust.xmf,434,2.32358e-07,2.14904e-06,0,1.00807e-06,-8.36322e+08,-8.36191e+08,-8.36338e+08,69153.7,-0.00711778,0.10247,-0,0.102716,-10307.4,-30451.4,-0,32148.6,69153.7
step02_gravity_refstate-crust.xmf,435,5.51688e-08,9.24579e-07,0,-3.5127e-07,-3.14437e+08,-3.14378e+08,-3.14441e+08,-24097.1,0.00310625,0.127261,0,0.127299,15850.8,-11449.1,0,19553.3,24097.1
step02_gravity_refstate-crust.xmf,436,-1.12171e-07,8.91608e-07,0,-2.57829e-07,-2.6286e+08,-2.62791e+08,-2.62852e+08,-17687.1,0.00278291,0.123058,0,0.123089,25295.6,-9570.6,0,27045.6,17687.1
step02_gravity_refstate-crust.xmf,437,-2.29555e-07,8.47877e-07,0,-4.96195e-08,-2.30799e+08,-2.30725e+08,-2.30783e+08,-3403.9,0.000627804,0.119859,0,0.11986,37302.3,-8402.85,0,38237,3403.9
step02_gravity_refstate-crust.xmf,438,-1.51151e-07,9.26502e-07,0,-2.19812e-07,-2.65765e+08,-2.65691e+08,-2.65755e+08,-15079.1,0.00239632,0.121496,0,0.12152,28148.5,-9676.26,0,29765.2,15079.1
step02_gravity_refstate-crust.xmf,439,-1.83018e-07,9.5533e-07,0,-1.71402e-07,-2.68319e+08,-2.68241e+08,-2.68306e+08,-11758.2,0.00188553,0.120143,0,0.120158,31134.7,-9769.15,0,32631.4,11758.2
step02_gravity_refstate-crust.xmf,440,-2.07374e-07,9.79108e-07,0,-1.10327e-07,-2.71057e+08,-2.70976e+08,-2.71043e+08,-7568.44,0.00122777,0.119031,0,0.119038,34435.1,-9868.79,0,35821.4,7568.44
step02_gravity_refstate-crust.xmf,441,1.68526e-07,1.02859e-06,0,-3.50697e-07,-3.88682e+08,-3.88623e+08,-3.88693e+08,-24057.8,0.0027558,0.127902,0,0.127931,10626.3,-14152.6,0,17697.9,24057.8
step02_gravity_refstate-crust.xmf,442,1.18012e-07,1.07685e-06,0,-3.85452e-07,-3.87298e+08,-3.87233e+08,-3.87306e+08,-26442,0.0030689,0.126572,0,0.126609,12839.1,-14102.1,0,19071.2,26442
step02_gravity_refstate-crust.xmf,443,2.1065e-07,1.13265e-06,0,-3.69619e-07,-4.441e+08,-4.44037e+08,-4.44114e+08,-25355.9,0.00278321,0.126447,0,0.126478,9389.64,-16170.5,0,18698.9,25355.9
step02_gravity_refstate-crust.xmf,444,-3.80641e-07,3.98172e-06,0,1.49751e-07,-1.05582e+09,-1.05552e+09,-1.05579e+09,10272.9,-0.00243744,0.0536184,-0,0.0536738,-26026.3,-38442.6,-0,46424.2,10272.9
step02_gravity_refstate-crust.xmf,445,-4.95679e-07,3.96162e-06,0,3.27595e-07,-1.03229e+09,-1.03199e+09,-1.03226e+09,22473,-0.0039828,0.0593856,-0,0.059519,-23273.4,-37585.8,-0,44207.9,22473
step02_gravity_refstate-crust.xmf,446,-5.43289e-07,3.96735e-06,0,4.27753e-07,-1.0294e+09,-1.0291e+09,-1.02937e+09,29343.8,-0.00476667,0.0613812,-0,0.061566,-21830,-37480.4,-0,43374.3,29343.8
step02_gravity_refstate-crust.xmf,447,-5.86852e-07,3.97015e-06,0,5.55843e-07,-1.02774e+09,-1.02743e+09,-1.0277e+09,38130.8,-0.00565109,0.0635819,-0,0.0638326,-20297.5,-37419.7,-0,42570.2,38130.8
step02_gravity_refstate-crust.xmf,448,-4.7369e-07,3.53446e-06,0,1.12908e-06,-9.96911e+08,-9.96636e+08,-9.96879e+08,77454.7,-0.00877971,0.0771912,-0,0.0776889,-14959.7,-36297.1,-0,39259,77454.7
step02_gravity_refstate-crust.xmf,449,-6.16294e-07,3.95048e-06,0,7.05239e-07,-1.02718e+09,-1.02687e+09,-1.02714e+09,48379.4,-0.00659951,0.0659983,-0,0.0663274,-18731.9,-37399.2,-0,41828,48379.4
step02_gravity_refstate-crust.xmf,450,4.35299e-07,1.49467e-06,0,5.27151e-07,-6.79185e+08,-6.79113e+08,-6.79215e+08,36162.6,-0.00374171,0.116774,-0,0.116834,-6749.45,-24730.5,-0,25635,36162.6
step02_gravity_refstate-crust.xmf,451,4.23786e-07,1.61958e-06,0,6.45403e-07,-7.21955e+08,-7.21873e+08,-7.21984e+08,44274.7,-0.00455977,0.113616,-0,0.113707,-7597.85,-26287.7,-0,27363.7,44274.7
step02_gravity_refstate-crust.xmf,452,3.93761e-07,1.76151e-06,0,7.68834e-07,-7.63042e+08,-7.62948e+08,-7.63069e+08,52742,-0.00540595,0.110241,-0,0.110373,-8403.74,-27783.6,-0,29026.8,52742
step02_gravity_refstate-crust.xmf,453,3.34899e-07,1.92338e-06,0,8.87512e-07,-7.98878e+08,-7.98769e+08,-7.98901e+08,60883.3,-0.00623208,0.106768,-0,0.10695,-9259.74,-29088.3,-0,30526.6,60883.3
step02_gravity_refstate-crust.xmf,454,7.01212e-11,2.70132e-06,0,1.31916e-06,-9.42448e+08,-9.42262e+08,-9.42448e+08,90494.2,-0.00905808,0.0914376,-0,0.0918852,-11259.6,-34314.9,-0,36115,90494.2
step02_gravity_refstate-crust.xmf,455,2.83257e-07,2.16483e-06,0,1.10727e-06,-8.72316e+08,-8.72187e+08,-8.72336e+08,75958.7,-0.00755117,0.100757,-0,0.10104,-9632.94,-31762.1,-0,33190.7,75958.7
step02_gravity_refstate-crust.xmf,456,1.63945e-07,2.39903e-06,0,1.22324e-06,-9.06451e+08,-9.06298e+08,-9.06462e+08,83914.1,-0.00833827,0.0965368,-0,0.0968962,-10394.7,-33004.6,-0,34602.8,83914.1
step02_gravity_refstate-crust.xmf,457,-4.13794e-10,9.86252e-07,0,-3.53808e-07,-3.18397e+08,-3.18329e+08,-3.18396e+08,-24271.2,0.00318566,0.125326,0,0.125366,18563,-11593.1,0,21885.7,24271.2
step02_gravity_refstate-crust.xmf,458,-4.98707e-08,1.03542e-06,0,-3.42058e-07,-3.20956e+08,-3.20881e+08,-3.20952e+08,-23465.2,0.00312175,0.123531,0,0.12357,21133.8,-11686.1,0,24149.6,23465.2
step02_gravity_refstate-crust.xmf,459,-9.43879e-08,1.07985e-06,0,-3.17133e-07,-3.23499e+08,-3.23418e+08,-3.23492e+08,-21755.3,0.00293371,0.121792,0,0.121827,23726.5,-11778.6,0,26489.3,21755.3
step02_gravity_refstate-crust.xmf,460,6.76355e-08,1.11531e-06,0,-4.01762e-07,-3.82812e+08,-3.8274e+08,-3.82817e+08,-27560.9,0.00325316,0.125274,0,0.125317,15021.8,-13938.7,0,20492.4,27560.9
step02_gravity_refstate-crust.xmf,461,3.66099e-07,1.08764e-06,0,1.50942e-07,-4.92283e+08,-4.92234e+08,-4.92308e+08,10354.6,-0.0010886,0.127307,-0,0.127312,-2894.1,-17925.2,-0,18157.4,10354.6
step02_gravity_refstate-crust.xmf,462,3.9451e-07,1.18185e-06,0,2.25496e-07,-5.41023e+08,-5.40969e+08,-5.4105e+08,15469.1,-0.00161621,0.125017,-0,0.125028,-3873.56,-19699.9,-0,20077.1,15469.1
step02_gravity_refstate-crust.xmf,463,4.17594e-07,1.27859e-06,0,3.14686e-07,-5.8835e+08,-5.88291e+08,-5.88379e+08,21587.4,-0.00224809,0.122499,-0,0.122519,-4873.16,-21423.2,-0,21970.4,21587.4
step02_gravity_refstate-crust.xmf,464,4.32283e-07,1.38237e-06,0,4.16442e-07,-6.3469e+08,-6.34625e+08,-6.3472e+08,28567.9,-0.00296622,0.119733,-0,0.11977,-5842.47,-23110.4,-0,23837.5,28567.9
step02_gravity_refstate-crust.xmf,465,3.77306e-07,1.06642e-06,0,4.39816e-08,-4.90761e+08,-4.90714e+08,-4.90787e+08,3017.14,-0.000320062,0.127674,-0,0.127674,-842.26,-17869.8,-0,17889.7,3017.14
step02_gravity_refstate-crust.xmf,466,3.76586e-07,1.07006e-06,0,-6.72653e-08,-4.91849e+08,-4.91802e+08,-4.91875e+08,-4614.4,0.000487488,0.127594,0,0.127595,1281.69,-17909.4,0,17955.2,4614.4
step02_gravity_refstate-crust.xmf,467,3.62937e-07,1.11429e-06,0,-1.86952e-07,-5.01548e+08,-5.01497e+08,-5.01573e+08,-12824.9,0.00137275,0.126752,0,0.126759,3601.6,-18262.6,0,18614.3,12824.9
step02_gravity_refstate-crust.xmf,468,3.1453e-07,1.15015e-06,0,-2.90439e-07,-4.94591e+08,-4.94534e+08,-4.94612e+08,-19924.1,0.00213961,0.126167,0,0.126185,5936.56,-18009.1,0,18962.4,19924.1
step02_gravity_refstate-crust.xmf,469,2.59674e-07,1.2161e-06,0,-3.762e-07,-4.95545e+08,-4.95479e+08,-4.95563e+08,-25807.3,0.00279267,0.124955,0,0.124986,8180.68,-18043.7,0,19811.6,25807.3
step02_gravity_refstate-crust.xmf,470,-2.2472e-07,1.00473e-06,0,4.33832e-10,-2.75811e+08,-2.75726e+08,-2.75795e+08,29.7609,4.13022e-20,0.11818,0,0.11818,40000,-10041.8,0,41241.2,29.7609
step02_gravity_refstate-crust.xmf,471,-4.63447e-07,4.05279e-06,0,2.27515e-07,-1.05852e+09,-1.05821e+09,-1.05848e+09,15607.5,-0.0031643,0.0546821,-0,0.0547736,-24197.3,-38540.7,-0,45507.1,15607.5
step02_gravity_refstate-crust.xmf,472,-5.39193e-07,4.12365e-06,0,3.16469e-07,-1.06343e+09,-1.06311e+09,-1.06339e+09,21709.8,-0.00391821,0.0555833,-0,0.0557212,-22525.3,-38719.3,-0,44794.8,21709.8
step02_gravity_refstate-crust.xmf,473,-3.86038e-07,3.38351e-06,0,1.29831e-06,-1.00072e+09,-1.00047e+09,-1.0007e+09,89064.3,-0.00946315,0.080024,-0,0.0805815,-13461.8,-36436.1,-0,38843.4,89064.3
step02_gravity_refstate-crust.xmf,474,-2.53801e-07,3.17496e-06,0,1.44286e-06,-1.00188e+09,-1.00164e+09,-1.00186e+09,98980.2,-0.00992676,0.083188,-0,0.0837781,-12087.6,-36478.3,-0,38428.9,98980.2
step02_gravity_refstate-crust.xmf,475,-9.86421e-08,2.89964e-06,0,1.42268e-06,-9.76124e+08,-9.75918e+08,-9.76117e+08,97595.9,-0.00963502,0.08768,-0,0.0882078,-11408.2,-35540.8,-0,37326.9,97595.9
step02_gravity_refstate-crust.xmf,476,-6.28175e-07,3.90404e-06,0,8.68518e-07,-1.02809e+09,-1.02778e+09,-1.02805e+09,59580.3,-0.00755062,0.0685162,-0,0.0689309,-17197,-37432.2,-0,41193.6,59580.3
step02_gravity_refstate-crust.xmf,477,-6.06804e-07,3.83023e-06,0,1.05143e-06,-1.02987e+09,-1.02956e+09,-1.02983e+09,72128.4,-0.00846686,0.0711908,-0,0.0716925,-15712.6,-37496.8,-0,40655.8,72128.4
step02_gravity_refstate-crust.xmf,478,3.77616e-07,1.95814e-06,0,9.75082e-07,-8.37161e+08,-8.37053e+08,-8.37187e+08,66890.6,-0.0066742,0.104707,-0,0.104919,-8811.47,-30482.3,-0,31730.3,66890.6
step02_gravity_refstate-crust.xmf,479,-1.35129e-07,1.12895e-06,0,-2.79819e-07,-3.2851e+08,-3.28423e+08,-3.28501e+08,-19195.6,0.0026102,0.11997,0,0.119998,26527.6,-11960.9,0,29099.4,19195.6
step02_gravity_refstate-crust.xmf,480,-2.1832e-07,1.14979e-06,0,-5.97919e-08,-3.17546e+08,-3.17453e+08,-3.17531e+08,-4101.73,0.000590441,0.116701,0,0.116703,37326.1,-11561.5,0,39075.6,4101.73
step02_gravity_refstate-crust.xmf,481,-1.6991e-07,1.17532e-06,0,-2.28625e-07,-3.34128e+08,-3.34035e+08,-3.34116e+08,-15683.7,0.00214988,0.118251,0,0.11827,29518.9,-12165.4,0,31927.4,15683.7
step02_gravity_refstate-crust.xmf,482,-1.94561e-07,1.21089e-06,0,-1.7025e-07,-3.38981e+08,-3.38885e+08,-3.38968e+08,-11679.1,0.00161049,0.116894,0,0.116905,32447.9,-12342,0,34715.9,11679.1
step02_gravity_refstate-crust.xmf,483,1.56484e-08,1.15381e-06,0,-4.0685e-07,-3.79359e+08,-3.79281e+08,-3.7936e+08,-27909.9,0.00333563,0.123801,0,0.123846,17320.6,-13812.8,0,22154,27909.9
step02_gravity_refstate-crust.xmf,484,1.52975e-07,1.19485e-06,0,-4.14953e-07,-4.42974e+08,-4.42903e+08,-4.42985e+08,-28465.8,0.0031802,0.125088,0,0.125128,11604,-16129.4,0,19869.8,28465.8
step02_gravity_refstate-crust.xmf,485,9.37876e-08,1.25273e-06,0,-4.42607e-07,-4.40182e+08,-4.40103e+08,-4.40189e+08,-30362.8,0.00344192,0.12363,0,0.123678,13852.9,-16027.6,0,21184.6,30362.8
step02_gravity_refstate-crust.xmf,486,1.98162e-07,1.28903e-06,0,-4.4218e-07,-4.96584e+08,-4.96509e+08,-4.96597e+08,-30333.5,0.00330361,0.123497,0,0.123542,10375.6,-18081.4,0,20846.8,30333.5
step02_gravity_refstate-crust.xmf,487,-6.06592e-07,4.15561e-06,0,4.33187e-07,-1.06348e+09,-1.06315e+09,-1.06344e+09,29716.7,-0.00482185,0.0574323,-0,0.0576343,-20942.8,-38720.9,-0,44021.7,29716.7
step02_gravity_refstate-crust.xmf,488,-6.66215e-07,4.17357e-06,0,5.82431e-07,-1.063e+09,-1.06267e+09,-1.06296e+09,39954.8,-0.00582322,0.059687,-0,0.0599703,-19379.7,-38703.5,-0,43284.3,39954.8
step02_gravity_refstate-crust.xmf,489,-7.81188e-08,2.90525e-06,0,1.55018e-06,-9.99265e+08,-9.99061e+08,-9.9926e+08,106342,-0.0101092,0.0868504,-0,0.0874367,-10756,-36383.4,-0,37940,106342
step02_gravity_refstate-crust.xmf,490,-5.54512e-07,3.71208e-06,0,1.24248e-06,-1.03251e+09,-1.03222e+09,-1.03247e+09,85234.2,-0.00932585,0.0740609,-0,0.0746457,-14257.5,-37593,-0,40205.8,85234.2
step02_gravity_refstate-crust.xmf,491,-7.07234e-07,4.16453e-06,0,7.50137e-07,-1.0634e+09,-1.06307e+09,-1.06335e+09,51459.4,-0.00685543,0.062106,-0,0.0624832,-17871.1,-38717.7,-0,42643.1,51459.4
step02_gravity_refstate-crust.xmf,492,5.1555e-07,1.39375e-06,0,4.11882e-07,-6.78837e+08,-6.78777e+08,-6.78872e+08,28255.1,-0.00288176,0.118054,-0,0.118089,-4946.51,-24718,-0,25208.1,28255.1
step02_gravity_refstate-crust.xmf,493,5.26375e-07,1.4908e-06,0,5.37856e-07,-7.22218e+08,-7.22152e+08,-7.22254e+08,36896.9,-0.00372936,0.115155,-0,0.115215,-5843.01,-26297.5,-0,26938.8,36896.9
step02_gravity_refstate-crust.xmf,494,5.17767e-07,1.6031e-06,0,6.73029e-07,-7.62678e+08,-7.62604e+08,-7.62714e+08,46169.8,-0.00462518,0.112114,-0,0.11221,-6700.07,-27770.7,-0,28567.5,46169.8
step02_gravity_refstate-crust.xmf,495,4.93498e-07,1.73963e-06,0,8.31013e-07,-8.06787e+08,-8.06701e+08,-8.06821e+08,57007.5,-0.00562531,0.108538,-0,0.108684,-7503.26,-29376.6,-0,30319.7,57007.5
step02_gravity_refstate-crust.xmf,496,7.67786e-08,2.6425e-06,0,1.46343e-06,-9.70447e+08,-9.70271e+08,-9.70453e+08,100391,-0.0095428,0.0910237,-0,0.0915226,-10240.5,-35334.5,-0,36788.5,100391
step02_gravity_refstate-crust.xmf,497,4.5238e-07,1.94399e-06,0,1.06626e-06,-8.73089e+08,-8.72987e+08,-8.7312e+08,73145.4,-0.00702651,0.103161,-0,0.1034,-8169.33,-31790.5,-0,32823.4,73145.4
step02_gravity_refstate-crust.xmf,498,3.543e-07,2.14305e-06,0,1.21228e-06,-9.05855e+08,-9.05733e+08,-9.0588e+08,83162.1,-0.00794086,0.0994487,-0,0.0997653,-8902.18,-32983.3,-0,34163.6,83162.1
step02_gravity_refstate-crust.xmf,499,2.21244e-07,2.38691e-06,0,1.3477e-06,-9.38617e+08,-9.38468e+08,-9.38632e+08,92452.2,-0.00880832,0.0952772,-0,0.0956835,-9640.72,-34175.9,-0,35509.6,92452.2
step02_gravity_refstate-crust.xmf,500,-3.454e-08,1.20876e-06,0,-3.95996e-07,-3.8036e+08,-3.80275e+08,-3.80358e+08,-27165.3,0.00331478,0.122033,0,0.122078,19758.6,-13849.1,0,24128.9,27165.3
step02_gravity_refstate-crust.xmf,501,-2.09861e-07,1.25467e-06,0,-1.16599e-07,-3.48321e+08,-3.4822e+08,-3.48307e+08,-7998.69,0.00109956,0.115766,0,0.115771,34962.1,-12682.1,0,37191.2,7998.69
step02_gravity_refstate-crust.xmf,502,-8.03155e-08,1.25742e-06,0,-3.73716e-07,-3.81858e+08,-3.81766e+08,-3.81853e+08,-25636.9,0.00317554,0.120282,0,0.120324,22204.4,-13903.6,0,26198.2,25636.9
step02_gravity_refstate-crust.xmf,503,-1.19154e-07,1.3033e-06,0,-3.42122e-07,-3.84568e+08,-3.84471e+08,-3.8456e+08,-23469.5,0.00294312,0.118625,0,0.118661,24571,-14002.1,0,28280.6,23469.5
step02_gravity_refstate-crust.xmf,504,3.58593e-08,1.30845e-06,0,-4.52246e-07,-4.37386e+08,-4.37299e+08,-4.37389e+08,-31024.1,0.00357312,0.12206,0,0.122113,16138.3,-15925.6,0,22673.1,31024.1
step02_gravity_refstate-crust.xmf,505,4.21661e-07,1.14704e-06,0,1.12163e-07,-5.40247e+08,-5.40197e+08,-5.40276e+08,7694.37,-0.000797182,0.125559,-0,0.125562,-1872.33,-19671.7,-0,19760.6,7694.37
step02_gravity_refstate-crust.xmf,506,4.62128e-07,1.22641e-06,0,1.95674e-07,-5.89162e+08,-5.8911e+08,-5.89194e+08,13423.2,-0.00138284,0.123215,-0,0.123223,-2898.22,-21452.8,-0,21647.7,13423.2
step02_gravity_refstate-crust.xmf,507,4.94265e-07,1.30665e-06,0,2.97445e-07,-6.34722e+08,-6.34666e+08,-6.34755e+08,20404.8,-0.00209042,0.120737,-0,0.120755,-3950.36,-23111.7,-0,23446.9,20404.8
step02_gravity_refstate-crust.xmf,508,4.26841e-07,1.13625e-06,0,-9.39694e-09,-5.40358e+08,-5.40309e+08,-5.40387e+08,-644.63,6.66131e-05,0.125711,0,0.125711,155.334,-19675.8,0,19676.4,644.63
step02_gravity_refstate-crust.xmf,509,4.16372e-07,1.15181e-06,0,-1.30193e-07,-5.41384e+08,-5.41334e+08,-5.41413e+08,-8931.24,0.000930973,0.125455,0,0.125458,2186,-19713.1,0,19833.9,8931.24
step02_gravity_refstate-crust.xmf,510,3.71923e-07,1.22338e-06,0,-2.93057e-07,-5.4788e+08,-5.47822e+08,-5.47906e+08,-20103.7,0.0021338,0.124219,0,0.124238,5140.5,-19949.5,0,20601.2,20103.7
step02_gravity_refstate-crust.xmf,511,3.19415e-07,1.28066e-06,0,-3.79713e-07,-5.45884e+08,-5.45818e+08,-5.45906e+08,-26048.3,0.00278563,0.123323,0,0.123355,7053.06,-19876.7,0,21091,26048.3
step02_gravity_refstate-crust.xmf,512,2.51899e-07,1.36401e-06,0,-4.58678e-07,-5.46846e+08,-5.4677e+08,-5.46864e+08,-31465.3,0.00340383,0.121898,0,0.121945,9184.59,-19911.6,0,21927.8,31465.3
step02_gravity_refstate-crust.xmf,513,-2.22218e-07,1.31003e-06,0,4.90128e-10,-3.61443e+08,-3.61338e+08,-3.61427e+08,33.6228,4.78803e-20,0.114572,0,0.114572,40000,-13159.8,0,42109.2,33.6228
step02_gravity_refstate-crust.xmf,514,-2.89394e-07,3.26484e-06,0,1.62802e-06,-1.0353e+09,-1.03505e+09,-1.03528e+09,111682,-0.0106356,0.0811452,-0,0.0818392,-11376.3,-37694.9,-0,39374.2,111682
step02_gravity_refstate-crust.xmf,515,-4.53447e-07,3.53002e-06,0,1.43467e-06,-1.03397e+09,-1.0337e+09,-1.03394e+09,98418.5,-0.0100613,0.0773652,-0,0.0780167,-12840.2,-37646.5,-0,39775.9,98418.5
step02_gravity_refstate-crust.xmf,516,-7.28287e-07,4.12135e-06,0,9.36243e-07,-1.06457e+09,-1.06423e+09,-1.06452e+09,64226.2,-0.00790478,0.0647461,-0,0.0652269,-16396.8,-38760,-0,42085.6,64226.2
step02_gravity_refstate-crust.xmf,517,-7.08074e-07,4.03795e-06,0,1.14614e-06,-1.06523e+09,-1.0649e+09,-1.06518e+09,78625.2,-0.00891965,0.06774,-0,0.0683247,-14984.9,-38784.2,-0,41578.4,78625.2
step02_gravity_refstate-crust.xmf,518,1.3315e-07,2.60659e-06,0,1.61599e-06,-9.97992e+08,-9.97822e+08,-9.98001e+08,110857,-0.0100486,0.0902663,-0,0.0908239,-9489.37,-36337.5,-0,37556.1,110857
step02_gravity_refstate-crust.xmf,519,5.18648e-07,1.79574e-06,0,9.38576e-07,-8.45762e+08,-8.45675e+08,-8.45798e+08,64386.3,-0.00621652,0.10607,-0,0.106252,-7476.99,-30795.7,-0,31690.4,64386.3
step02_gravity_refstate-crust.xmf,520,-1.65534e-07,1.39938e-06,0,-2.86766e-07,-4.00531e+08,-4.00424e+08,-4.0052e+08,-19672.1,0.00248539,0.115888,0,0.115914,27968.7,-14583.2,0,31542.3,19672.1
step02_gravity_refstate-crust.xmf,521,-2.21568e-07,1.47092e-06,0,-7.69896e-08,-4.06149e+08,-4.06032e+08,-4.06133e+08,-5281.49,0.000689355,0.112527,0,0.112529,36935.2,-14787.6,0,39785.5,5281.49
step02_gravity_refstate-crust.xmf,522,-2.10713e-07,1.47366e-06,0,-1.59145e-07,-4.09617e+08,-4.09501e+08,-4.09602e+08,-10917.4,0.00140551,0.113062,0,0.113071,33657.4,-14913.9,0,36813.7,10917.4
step02_gravity_refstate-crust.xmf,523,-1.93032e-07,1.4303e-06,0,-2.21192e-07,-4.01871e+08,-4.01759e+08,-4.01857e+08,-15173.7,0.00194267,0.114416,0,0.114432,30976.7,-14631.9,0,34258.6,15173.7
step02_gravity_refstate-crust.xmf,524,-2.06997e-08,1.36564e-06,0,-4.49206e-07,-4.37046e+08,-4.36951e+08,-4.37045e+08,-30815.5,0.0035881,0.120311,0,0.120365,18469.9,-15913.1,0,24379.6,30815.5
step02_gravity_refstate-crust.xmf,525,1.30329e-07,1.37044e-06,0,-4.8132e-07,-4.96457e+08,-4.96372e+08,-4.96466e+08,-33018.6,0.00366902,0.121869,0,0.121924,12608.3,-18076.7,0,22039.4,33018.6
step02_gravity_refstate-crust.xmf,526,6.129e-08,1.44015e-06,0,-4.97872e-07,-4.92288e+08,-4.92193e+08,-4.92292e+08,-34154,0.0038604,0.120249,0,0.120311,14934,-17924.7,0,23330.6,34154
step02_gravity_refstate-crust.xmf,527,4.1083e-07,1.19578e-06,0,-2.1563e-07,-5.55352e+08,-5.55298e+08,-5.5538e+08,-14792.2,0.00155353,0.124496,0,0.124506,3578.87,-20221.7,0,20535.9,14792.2
step02_gravity_refstate-crust.xmf,528,1.77808e-07,1.45665e-06,0,-5.18433e-07,-5.48795e+08,-5.48707e+08,-5.48807e+08,-35564.5,0.00388101,0.120175,0,0.120238,11326,-19982.4,0,22969,35564.5
step02_gravity_refstate-crust.xmf,529,-4.8373e-08,2.89934e-06,0,1.71996e-06,-1.02627e+09,-1.02607e+09,-1.02626e+09,117989,-0.0106995,0.0859659,-0,0.0866291,-10031.5,-37366.6,-0,38689.7,117989
step02_gravity_refstate-crust.xmf,530,-6.53106e-07,3.90354e-06,0,1.36218e-06,-1.06639e+09,-1.06608e+09,-1.06635e+09,93445.7,-0.00985613,0.0709423,-0,0.0716237,-13622.5,-38826.5,-0,41146.9,93445.7
step02_gravity_refstate-crust.xmf,531,5.7631e-07,1.32142e-06,0,2.79381e-07,-6.80275e+08,-6.80224e+08,-6.80315e+08,19165.5,-0.00193993,0.118877,-0,0.118892,-3204.08,-24770.5,-0,24976.8,19165.5
step02_gravity_refstate-crust.xmf,532,6.09987e-07,1.38502e-06,0,4.00097e-07,-7.21949e+08,-7.21896e+08,-7.21991e+08,27446.6,-0.00273637,0.116382,-0,0.116414,-4099.64,-26287.9,-0,26605.6,27446.6
step02_gravity_refstate-crust.xmf,533,6.26078e-07,1.46562e-06,0,5.43921e-07,-7.62517e+08,-7.62459e+08,-7.6256e+08,37313,-0.00367065,0.113636,-0,0.113696,-5032.95,-27765,-0,28217.5,37313
step02_gravity_refstate-crust.xmf,534,6.33381e-07,1.54993e-06,0,6.88427e-07,-8.01483e+08,-8.0142e+08,-8.01527e+08,47226.1,-0.00456973,0.110845,-0,0.110939,-5757.37,-29183.8,-0,29746.2,47226.1
step02_gravity_refstate-crust.xmf,535,2.94482e-07,2.34101e-06,0,1.4836e-06,-9.68707e+08,-9.68567e+08,-9.68727e+08,101775,-0.00925763,0.0943558,-0,0.0948089,-8897.82,-35271.6,-0,36376.6,101775
step02_gravity_refstate-crust.xmf,536,6.47746e-07,1.61814e-06,0,8.21699e-07,-8.3928e+08,-8.39213e+08,-8.39324e+08,56368.5,-0.00534208,0.108226,-0,0.108358,-6153.68,-30560,-0,31173.4,56368.5
step02_gravity_refstate-crust.xmf,537,6.20752e-07,1.7262e-06,0,9.76532e-07,-8.72494e+08,-8.72419e+08,-8.72537e+08,66990.1,-0.00625255,0.105414,-0,0.105599,-6747.18,-31769.2,-0,32477.8,66990.1
step02_gravity_refstate-crust.xmf,538,5.51216e-07,1.88411e-06,0,1.14872e-06,-9.04873e+08,-9.04781e+08,-9.04911e+08,78802,-0.00726801,0.102154,-0,0.102413,-7457.68,-32947.9,-0,33781.4,78802
step02_gravity_refstate-crust.xmf,539,4.40803e-07,2.09099e-06,0,1.325e-06,-9.37367e+08,-9.37254e+08,-9.37397e+08,90894.9,-0.00830393,0.0984196,-0,0.0987693,-8192.71,-34130.8,-0,35100.3,90894.9
step02_gravity_refstate-crust.xmf,540,-7.00105e-08,1.42719e-06,0,-4.2734e-07,-4.38564e+08,-4.38462e+08,-4.3856e+08,-29315.5,0.0034855,0.118456,0,0.118508,20853.1,-15968.3,0,26264.7,29315.5
step02_gravity_refstate-crust.xmf,541,-1.14092e-07,1.48559e-06,0,-3.95765e-07,-4.41963e+08,-4.41853e+08,-4.41955e+08,-27149.5,0.00327597,0.116578,0,0.116624,23242.5,-16091.9,0,28269.5,27149.5
step02_gravity_refstate-crust.xmf,542,-1.53171e-07,1.55174e-06,0,-3.52259e-07,-4.49373e+08,-4.49256e+08,-4.49363e+08,-24165,0.00296022,0.114515,0,0.114553,25770,-16361.7,0,30525.4,24165
step02_gravity_refstate-crust.xmf,543,-2.59538e-09,1.5139e-06,0,-4.97419e-07,-4.91865e+08,-4.91761e+08,-4.91865e+08,-34122.9,0.00392279,0.118383,0,0.118448,17260.4,-17909.2,0,24872.9,34122.9
step02_gravity_refstate-crust.xmf,544,4.84772e-07,1.19657e-06,0,6.16334e-08,-5.88646e+08,-5.88598e+08,-5.8868e+08,4228.05,-0.000431926,0.123621,-0,0.123621,-891.768,-21434.1,-0,21452.6,4228.05
step02_gravity_refstate-crust.xmf,545,5.49011e-07,1.25633e-06,0,1.53538e-07,-6.43141e+08,-6.43092e+08,-6.43178e+08,10532.7,-0.00106317,0.121025,-0,0.12103,-1912.3,-23418.3,-0,23496.3,10532.7
step02_gravity_refstate-crust.xmf,546,4.79683e-07,1.19809e-06,0,-7.34199e-08,-5.88776e+08,-5.88726e+08,-5.88808e+08,-5036.6,0.000521584,0.123596,0,0.123597,1077.72,-21438.8,0,21465.8,5036.6
step02_gravity_refstate-crust.xmf,547,4.63821e-07,1.2276e-06,0,-1.9127e-07,-5.92525e+08,-5.92472e+08,-5.92556e+08,-13121.1,0.00136578,0.123083,0,0.12309,2835.45,-21575.2,0,21760.7,13121.1
step02_gravity_refstate-crust.xmf,548,4.31536e-07,1.2727e-06,0,-2.94102e-07,-5.94537e+08,-5.94479e+08,-5.94566e+08,-20175.4,0.0021149,0.122391,0,0.12241,4478.52,-21648.4,0,22106.8,20175.4
step02_gravity_refstate-crust.xmf,549,3.80333e-07,1.33461e-06,0,-3.89534e-07,-5.94171e+08,-5.94106e+08,-5.94197e+08,-26722,0.00282601,0.121505,0,0.121537,6227.52,-21635,0,22513.4,26722
step02_gravity_refstate-crust.xmf,550,3.13237e-07,1.41734e-06,0,-4.74942e-07,-5.94343e+08,-5.94267e+08,-5.94364e+08,-32581,0.00348613,0.120251,0,0.120301,8119.96,-21641.1,0,23114.3,32581
step02_gravity_refstate-crust.xmf,551,2.36104e-07,1.51848e-06,0,-5.43434e-07,-5.96565e+08,-5.96477e+08,-5.96581e+08,-37279.6,0.00404738,0.118596,0,0.118665,10086.5,-21721.8,0,23949.4,37279.6
step02_gravity_refstate-crust.xmf,552,-2.30948e-07,1.61485e-06,0,1.51851e-10,-4.44293e+08,-4.44167e+08,-4.44277e+08,10.417,3.89196e-20,0.110159,0,0.110159,40000,-16176.5,0,43147.2,10.417
step02_gravity_refstate-crust.xmf,553,-2.18983e-07,3.17288e-06,0,1.78919e-06,-1.05137e+09,-1.05113e+09,-1.05135e+09,122738,-0.011159,0.0819157,-0,0.0826723,-10466.3,-38280,-0,39685,122738
step02_gravity_refstate-crust.xmf,554,-5.63924e-07,3.7367e-06,0,1.57145e-06,-1.06937e+09,-1.06908e+09,-1.06933e+09,107801,-0.0106492,0.0739808,-0,0.0747433,-12366.6,-38935.1,-0,40851.9,107801
step02_gravity_refstate-crust.xmf,555,-1.43864e-08,2.87311e-06,0,1.90084e-06,-1.05047e+09,-1.05028e+09,-1.05047e+09,130398,-0.0112697,0.0853735,-0,0.0861142,-9380.12,-38247.9,-0,39381.4,130398
step02_gravity_refstate-crust.xmf,556,3.73539e-07,2.28056e-06,0,1.63828e-06,-9.98041e+08,-9.9791e+08,-9.98067e+08,112386,-0.00973253,0.0935288,-0,0.0940338,-8233.01,-36339.7,-0,37260.7,112386
step02_gravity_refstate-crust.xmf,557,1.90315e-07,2.56383e-06,0,1.78963e-06,-1.02536e+09,-1.0252e+09,-1.02537e+09,122768,-0.0105937,0.0895192,-0,0.0901439,-8824.21,-37334,-0,38362.7,122768
step02_gravity_refstate-crust.xmf,558,-1.98559e-07,1.63126e-06,0,-2.61713e-07,-4.58382e+08,-4.58257e+08,-4.58369e+08,-17953.5,0.00224096,0.111724,0,0.111746,29930,-16689.6,0,34268.7,17953.5
step02_gravity_refstate-crust.xmf,559,-2.28802e-07,1.72084e-06,0,-1.34754e-07,-4.74621e+08,-4.74487e+08,-4.74605e+08,-9244.12,0.00117703,0.10893,0,0.108937,34965.8,-17280.8,0,39003,9244.12
step02_gravity_refstate-crust.xmf,560,-2.16494e-07,1.68429e-06,0,-2.01276e-07,-4.67994e+08,-4.67864e+08,-4.67979e+08,-13807.5,0.00174192,0.110118,0,0.110132,32402.7,-17039.5,0,36609.8,13807.5
step02_gravity_refstate-crust.xmf,561,-1.82278e-07,1.63839e-06,0,-3.13057e-07,-4.65817e+08,-4.65692e+08,-4.65805e+08,-21475.7,0.00265448,0.112334,0,0.112366,27861.5,-16960.3,0,32617.7,21475.7
step02_gravity_refstate-crust.xmf,562,-6.12176e-08,1.58359e-06,0,-4.83075e-07,-4.93434e+08,-4.93321e+08,-4.93429e+08,-33138.9,0.00385773,0.116437,0,0.116501,19556.9,-17966.2,0,26556.7,33138.9
step02_gravity_refstate-crust.xmf,563,9.53351e-08,1.57964e-06,0,-5.566e-07,-5.55251e+08,-5.55149e+08,-5.55257e+08,-38182.8,0.0042581,0.117824,0,0.117901,13694.2,-20217.3,0,24418.6,38182.8
step02_gravity_refstate-crust.xmf,564,1.67331e-08,1.64872e-06,0,-5.49815e-07,-5.45385e+08,-5.45273e+08,-5.45386e+08,-37717.3,0.00430652,0.116266,0,0.116346,16119.8,-19857.9,0,25577,37717.3
step02_gravity_refstate-crust.xmf,565,6.20805e-07,1.28809e-06,0,1.78143e-07,-6.90254e+08,-6.90208e+08,-6.90296e+08,12220.6,-0.00122744,0.118831,-0,0.118837,-1941.68,-25133.9,-0,25208.8,12220.6
step02_gravity_refstate-crust.xmf,566,1.54939e-07,1.62617e-06,0,-5.90725e-07,-5.99606e+08,-5.99505e+08,-5.99617e+08,-40523.7,0.00446279,0.11669,0,0.116775,12061.7,-21832.4,0,24942.7,40523.7
step02_gravity_refstate-crust.xmf,567,-2.37529e-07,1.77714e-06,0,-6.44396e-08,-4.88073e+08,-4.87934e+08,-4.88056e+08,-4420.55,0.000564236,0.107592,0,0.107594,37630.6,-17770.6,0,41615.5,4420.55
step02_gravity_refstate-crust.xmf,568,-4.16701e-07,3.49246e-06,0,1.7752e-06,-1.07066e+09,-1.07039e+09,-1.07063e+09,121779,-0.0112836,0.0775284,-0,0.0783452,-11129.5,-38982.1,-0,40539.8,121779
step02_gravity_refstate-crust.xmf,569,6.68252e-07,1.31639e-06,0,2.55958e-07,-7.23978e+08,-7.23933e+08,-7.24024e+08,17558.7,-0.0017339,0.117051,-0,0.117064,-2512.11,-26361.9,-0,26481.3,17558.7
step02_gravity_refstate-crust.xmf,570,7.10099e-07,1.36103e-06,0,3.92512e-07,-7.63144e+08,-7.63099e+08,-7.63193e+08,26926.3,-0.00261271,0.114708,-0,0.114738,-3439.94,-27788,-0,28000.1,26926.3
step02_gravity_refstate-crust.xmf,571,-2.26639e-07,3.20356e-06,0,1.96348e-06,-1.07384e+09,-1.0736e+09,-1.07382e+09,134694,-0.0117402,0.0809948,-0,0.0818412,-9936.61,-39098.2,-0,40341.1,134694
step02_gravity_refstate-crust.xmf,572,7.43478e-07,1.40748e-06,0,5.2896e-07,-8.00209e+08,-8.00164e+08,-8.0026e+08,36286.6,-0.00345325,0.112361,-0,0.112414,-4155.89,-29137.6,-0,29432.5,36286.6
step02_gravity_refstate-crust.xmf,573,7.74546e-07,1.45369e-06,0,6.72998e-07,-8.37603e+08,-8.37556e+08,-8.37656e+08,46167.7,-0.00429611,0.109923,-0,0.110007,-4715.51,-30499.2,-0,30861.5,46167.7
step02_gravity_refstate-crust.xmf,574,5.28738e-07,2.03071e-06,0,1.45684e-06,-9.69078e+08,-9.68975e+08,-9.69115e+08,99939.1,-0.00873032,0.097339,-0,0.0977297,-7591.66,-35285.6,-0,36093,99939.1
step02_gravity_refstate-crust.xmf,575,7.76447e-07,1.52649e-06,0,8.42215e-07,-8.71693e+08,-8.71641e+08,-8.71746e+08,57776,-0.00526608,0.107366,-0,0.107495,-5353.8,-31740.3,-0,32188.7,57776
step02_gravity_refstate-crust.xmf,576,7.45513e-07,1.63398e-06,0,1.0324e-06,-9.04523e+08,-9.04462e+08,-9.04574e+08,70822.6,-0.00633355,0.104548,-0,0.104739,-6026.68,-32935.6,-0,33482.5,70822.6
step02_gravity_refstate-crust.xmf,577,6.74694e-07,1.77924e-06,0,1.22958e-06,-9.35018e+08,-9.34942e+08,-9.35064e+08,84349.1,-0.00743061,0.101487,-0,0.101759,-6716.66,-34045.7,-0,34701.9,84349.1
step02_gravity_refstate-crust.xmf,578,-1.0889e-07,1.65445e-06,0,-4.50255e-07,-4.96726e+08,-4.96605e+08,-4.96718e+08,-30887.5,0.00367591,0.114425,0,0.114484,21886,-18085.9,0,28391.8,30887.5
step02_gravity_refstate-crust.xmf,579,-1.51215e-07,1.71891e-06,0,-4.06281e-07,-5.01038e+08,-5.0091e+08,-5.01028e+08,-27870.9,0.00337691,0.112396,0,0.112447,24308.6,-18242.8,0,30392.6,27870.9
step02_gravity_refstate-crust.xmf,580,-2.08085e-07,1.83331e-06,0,-3.00392e-07,-5.14577e+08,-5.14437e+08,-5.14562e+08,-20606.9,0.00257575,0.108671,0,0.108701,28940.8,-18735.7,0,34476,20606.9
step02_gravity_refstate-crust.xmf,581,-1.8434e-07,1.78063e-06,0,-3.54816e-07,-5.07612e+08,-5.07477e+08,-5.07599e+08,-24340.4,0.00299894,0.110415,0,0.110456,26690,-18482.1,0,32464.6,24340.4
step02_gravity_refstate-crust.xmf,582,-4.85012e-08,1.73113e-06,0,-5.345e-07,-5.45871e+08,-5.45749e+08,-5.45868e+08,-36666.7,0.00426991,0.11426,0,0.11434,18368.9,-19875.5,0,27063.9,36666.7
step02_gravity_refstate-crust.xmf,583,5.52234e-07,1.23525e-06,0,-6.51651e-09,-6.36011e+08,-6.35964e+08,-6.36049e+08,-447.033,5.27262e-05,0.121561,0,0.121562,96.0569,-23158.8,0,23159,447.033
step02_gravity_refstate-crust.xmf,584,6.25908e-07,1.26424e-06,0,5.50073e-08,-6.83275e+08,-6.83231e+08,-6.83318e+08,3773.5,-0.000371699,0.119384,-0,0.119384,-594.597,-24879.8,-0,24886.9,3773.5
step02_gravity_refstate-crust.xmf,585,5.33587e-07,1.25356e-06,0,-1.50996e-07,-6.35745e+08,-6.35695e+08,-6.35781e+08,-10358.3,0.00106519,0.121354,0,0.121359,1955.16,-23149,0,23231.4,10358.3
step02_gravity_refstate-crust.xmf,586,5.01585e-07,1.29813e-06,0,-2.77484e-07,-6.37597e+08,-6.37543e+08,-6.37632e+08,-19035.4,0.0019687,0.120718,0,0.120734,3675.11,-23216.4,0,23505.5,19035.4
step02_gravity_refstate-crust.xmf,587,4.49973e-07,1.36494e-06,0,-3.91217e-07,-6.38617e+08,-6.38554e+08,-6.38648e+08,-26837.5,0.00280015,0.119804,0,0.119837,5399.67,-23253.4,0,23872.1,26837.5
step02_gravity_refstate-crust.xmf,588,3.8192e-07,1.45399e-06,0,-4.91057e-07,-6.4024e+08,-6.40167e+08,-6.40267e+08,-33686.5,0.00355514,0.118539,0,0.118592,7175.49,-23312.4,0,24391.7,33686.5
step02_gravity_refstate-crust.xmf,589,2.99259e-07,1.55943e-06,0,-5.70351e-07,-6.40972e+08,-6.40885e+08,-6.40992e+08,-39126.1,0.00419347,0.117008,0,0.117083,9024.53,-23338.8,0,25022.9,39126.1
step02_gravity_refstate-crust.xmf,590,2.11524e-07,1.6769e-06,0,-6.26929e-07,-6.43373e+08,-6.43272e+08,-6.43387e+08,-43007.3,0.00469254,0.115161,0,0.115257,10881,-23426.1,0,25829.8,43007.3
step02_gravity_refstate-crust.xmf,591,-2.45383e-07,1.91614e-06,0,1.3026e-10,-5.24574e+08,-5.24426e+08,-5.24557e+08,8.93585,3.75248e-20,0.104999,0,0.104999,40000,-19099.6,0,44326,8.93585
step02_gravity_refstate-crust.xmf,592,1.35028e-08,2.8499e-06,0,2.10684e-06,-1.07498e+09,-1.07479e+09,-1.07498e+09,144529,-0.0118961,0.0847443,-0,0.0855752,-8797.91,-39140.3,-0,40116.9,144529
step02_gravity_refstate-crust.xmf,593,2.52904e-07,2.50437e-06,0,1.97974e-06,-1.05102e+09,-1.05087e+09,-1.05104e+09,135810,-0.0111474,0.0889712,-0,0.0896669,-8224.21,-38268.5,-0,39142.2,135810
step02_gravity_refstate-crust.xmf,594,6.32499e-07,1.93888e-06,0,1.59674e-06,-9.97675e+08,-9.97586e+08,-9.97719e+08,109537,-0.00911027,0.0966417,-0,0.0970702,-7012.79,-36326.9,-0,36997.6,109537
step02_gravity_refstate-crust.xmf,595,4.62399e-07,2.19757e-06,0,1.80451e-06,-1.02512e+09,-1.02501e+09,-1.02516e+09,123789,-0.0101991,0.0929536,-0,0.0935115,-7631.24,-37326,-0,38098.1,123789
step02_gravity_refstate-crust.xmf,596,-2.42651e-07,1.92497e-06,0,-1.109e-07,-5.28151e+08,-5.28002e+08,-5.28135e+08,-7607.75,0.000982966,0.105151,0,0.105156,35985.8,-19229.9,0,40801.6,7607.75
step02_gravity_refstate-crust.xmf,597,-2.51716e-07,2.04779e-06,0,-6.04203e-08,-5.59795e+08,-5.59638e+08,-5.59778e+08,-4144.84,0.00054272,0.102574,0,0.102576,37842.7,-20382.1,0,42982.5,4144.84
step02_gravity_refstate-crust.xmf,598,-2.26005e-07,1.88575e-06,0,-2.39208e-07,-5.23218e+08,-5.23073e+08,-5.23202e+08,-16409.6,0.00208256,0.106964,0,0.106985,31295.4,-19050.3,0,36637.6,16409.6
step02_gravity_refstate-crust.xmf,599,-2.39743e-07,1.96552e-06,0,-1.76958e-07,-5.40956e+08,-5.40804e+08,-5.40939e+08,-12139.3,0.00156469,0.104852,0,0.104864,33634.3,-19696.1,0,38977,12139.3
step02_gravity_refstate-crust.xmf,600,-1.06207e-07,1.80837e-06,0,-5.0785e-07,-5.48859e+08,-5.48727e+08,-5.48851e+08,-34838.5,0.00411581,0.112162,0,0.112238,20596.9,-19984.1,0,28698.4,34838.5
step02_gravity_refstate-crust.xmf,601,3.18724e-08,1.77783e-06,0,-6.04364e-07,-5.96581e+08,-5.96461e+08,-5.96583e+08,-41459.4,0.00472451,0.113881,0,0.113979,15240.4,-21722,0,26535.2,41459.4
step02_gravity_refstate-crust.xmf,602,-3.67333e-08,1.86539e-06,0,-5.9028e-07,-5.96267e+08,-5.96136e+08,-5.96264e+08,-40493.2,0.00471299,0.111964,0,0.112063,17265.7,-21710.4,0,27738.9,40493.2
step02_gravity_refstate-crust.xmf,603,8.77827e-08,1.73523e-06,0,-6.15325e-07,-6.07317e+08,-6.07204e+08,-6.07323e+08,-42211.3,0.00473582,0.114673,0,0.114771,13703.3,-22113,0,26014.7,42211.3
step02_gravity_refstate-crust.xmf,604,6.9932e-07,1.28029e-06,0,1.21635e-07,-7.25685e+08,-7.25645e+08,-7.25733e+08,8344.16,-0.000816727,0.117345,-0,0.117348,-1162.28,-26424.1,-0,26449.7,8344.16
step02_gravity_refstate-crust.xmf,605,1.24638e-07,1.7912e-06,0,-6.60534e-07,-6.45673e+08,-6.45558e+08,-6.45681e+08,-45312.6,0.00502129,0.113209,0,0.113321,12694.2,-23509.6,0,26717.9,45312.6
step02_gravity_refstate-crust.xmf,606,7.64586e-07,1.29237e-06,0,2.22666e-07,-7.63303e+08,-7.63267e+08,-7.63355e+08,15274.9,-0.00146759,0.115403,-0,0.115413,-1885.52,-27793.9,-0,27857.8,15274.9
step02_gravity_refstate-crust.xmf,607,8.2282e-07,1.30762e-06,0,3.53736e-07,-8.0028e+08,-8.00246e+08,-8.00336e+08,24266.3,-0.00227905,0.113333,-0,0.113356,-2655.35,-29140.3,-0,29261.1,24266.3
step02_gravity_refstate-crust.xmf,608,8.73388e-07,1.32649e-06,0,4.99781e-07,-8.36231e+08,-8.362e+08,-8.36291e+08,34285,-0.0031432,0.11119,-0,0.111235,-3334.2,-30449.4,-0,30631.4,34285
step02_gravity_refstate-crust.xmf,609,9.12595e-07,1.35335e-06,0,6.65369e-07,-8.71259e+08,-8.71229e+08,-8.71322e+08,45644.3,-0.00407934,0.108957,-0,0.109033,-3955.48,-31724.9,-0,31970.5,45644.3
step02_gravity_refstate-crust.xmf,610,7.57559e-07,1.7305e-06,0,1.36818e-06,-9.68727e+08,-9.6866e+08,-9.68779e+08,93856.8,-0.0079297,0.100042,-0,0.100356,-6360.63,-35273.2,-0,35842.1,93856.8
step02_gravity_refstate-crust.xmf,611,9.27053e-07,1.40369e-06,0,8.59555e-07,-9.04623e+08,-9.0459e+08,-9.04686e+08,58965.5,-0.00513983,0.10657,-0,0.106694,-4596.75,-32939.6,-0,33258.8,58965.5
step02_gravity_refstate-crust.xmf,612,9.20643e-07,1.47787e-06,0,1.10822e-06,-9.42132e+08,-9.42094e+08,-9.42195e+08,76023.7,-0.00640422,0.103673,-0,0.10387,-5241.36,-34305.3,-0,34703.4,76023.7
step02_gravity_refstate-crust.xmf,613,-2.54439e-07,2.14379e-06,0,-1.19709e-07,-5.86159e+08,-5.85995e+08,-5.86142e+08,-8212.07,0.00109373,0.100909,0,0.100915,35724.7,-21342,0,41614.1,8212.07
step02_gravity_refstate-crust.xmf,614,-1.5384e-07,1.90124e-06,0,-4.62453e-07,-5.57165e+08,-5.57024e+08,-5.57154e+08,-31724.3,0.00385477,0.109688,0,0.109755,22961.7,-20286.5,0,30639.6,31724.3
step02_gravity_refstate-crust.xmf,615,-2.35347e-07,2.05974e-06,0,-2.78814e-07,-5.71139e+08,-5.70982e+08,-5.71123e+08,-19126.6,0.00246212,0.104072,0,0.104101,30098.2,-20795.1,0,36583.3,19126.6
step02_gravity_refstate-crust.xmf,616,-1.90704e-07,1.95994e-06,0,-4.05298e-07,-5.60119e+08,-5.59972e+08,-5.60106e+08,-27803.4,0.00344773,0.107697,0,0.107752,25378.9,-20394,0,32557.6,27803.4
step02_gravity_refstate-crust.xmf,617,-2.17262e-07,2.013e-06,0,-3.43493e-07,-5.6507e+08,-5.64917e+08,-5.65055e+08,-23563.6,0.00297867,0.105804,0,0.105846,27751.3,-20574.2,0,34546.1,23563.6
step02_gravity_refstate-crust.xmf,618,-1.00403e-07,1.95783e-06,0,-5.61147e-07,-5.99329e+08,-5.99188e+08,-5.99323e+08,-38494.7,0.0045875,0.109751,0,0.109847,19398.5,-21821.8,0,29197.5,38494.7
step02_gravity_refstate-crust.xmf,619,6.16824e-07,1.26643e-06,0,-9.44025e-08,-6.79625e+08,-6.7958e+08,-6.79667e+08,-6476.01,0.000657679,0.119501,0,0.119503,1064.39,-24746.9,0,24769.8,6476.01
step02_gravity_refstate-crust.xmf,620,7.01692e-07,1.27012e-06,0,-3.34534e-08,-7.23085e+08,-7.23046e+08,-7.23134e+08,-2294.91,0.000231698,0.11756,0,0.11756,330.912,-26329.5,0,26331.5,2294.91
step02_gravity_refstate-crust.xmf,621,5.83252e-07,1.30542e-06,0,-2.45303e-07,-6.80046e+08,-6.79996e+08,-6.80086e+08,-16827.8,0.00171037,0.11904,0,0.119052,2810.92,-24762.1,0,24921.2,16827.8
step02_gravity_refstate-crust.xmf,622,5.31502e-07,1.3743e-06,0,-3.83636e-07,-6.81709e+08,-6.81651e+08,-6.81746e+08,-26317.5,0.00269599,0.118143,0,0.118174,4550.67,-24822.6,0,25236.3,26317.5
step02_gravity_refstate-crust.xmf,623,4.59618e-07,1.46855e-06,0,-5.02273e-07,-6.83247e+08,-6.83178e+08,-6.83279e+08,-34455.9,0.00357194,0.116913,0,0.116967,6284.04,-24878.4,0,25659.8,34455.9
step02_gravity_refstate-crust.xmf,624,3.71648e-07,1.58342e-06,0,-5.98191e-07,-6.84629e+08,-6.84546e+08,-6.84655e+08,-41035.9,0.00432146,0.11537,0,0.115451,8048.53,-24928.6,0,26195.6,41035.9
step02_gravity_refstate-crust.xmf,625,2.74124e-07,1.71253e-06,0,-6.68105e-07,-6.86361e+08,-6.86262e+08,-6.8638e+08,-45832,0.00491954,0.113537,0,0.113643,9840.41,-24991.4,0,26859,45832
step02_gravity_refstate-crust.xmf,626,1.73542e-07,1.84785e-06,0,-7.10204e-07,-6.88327e+08,-6.88212e+08,-6.88339e+08,-48720,0.0053466,0.111483,0,0.111611,11653.1,-25062.8,0,27639.4,48720
step02_gravity_refstate-crust.xmf,627,-2.5917e-07,2.20974e-06,0,3.0104e-11,-6.02493e+08,-6.02324e+08,-6.02475e+08,2.06513,4.08722e-20,0.0991459,0,0.0991459,40000,-21936.7,0,45620.4,2.06513
step02_gravity_refstate-crust.xmf,628,3.24574e-07,2.42273e-06,0,2.18666e-06,-1.07508e+09,-1.07493e+09,-1.0751e+09,150005,-0.0117096,0.0886643,-0,0.0894342,-7670.26,-39144.3,-0,39888.7,150005
step02_gravity_refstate-crust.xmf,629,5.67863e-07,2.08253e-06,0,1.98148e-06,-1.05012e+09,-1.05002e+09,-1.05016e+09,135930,-0.0106455,0.0926935,-0,0.0933028,-7063.4,-38236.3,-0,38883.3,135930
step02_gravity_refstate-crust.xmf,630,8.99323e-07,1.59427e-06,0,1.49061e-06,-9.98105e+08,-9.98057e+08,-9.98166e+08,102256,-0.00819597,0.0994769,-0,0.099814,-5803.85,-36343.1,-0,36803.6,102256
step02_gravity_refstate-crust.xmf,631,7.6333e-07,1.80283e-06,0,1.74385e-06,-1.0246e+09,-1.02453e+09,-1.02465e+09,119628,-0.00944911,0.0963104,-0,0.0967728,-6429.87,-37307.5,-0,37857.6,119628
step02_gravity_refstate-crust.xmf,632,-2.63963e-07,2.30606e-06,0,-6.26038e-08,-6.28307e+08,-6.28131e+08,-6.28289e+08,-4294.62,0.000589513,0.0971538,0,0.0971556,37756.3,-22876.7,0,44146.1,4294.62
step02_gravity_refstate-crust.xmf,633,-2.45591e-07,2.09337e-06,0,-2.27101e-07,-5.76592e+08,-5.76432e+08,-5.76575e+08,-15579.2,0.00203079,0.102831,0,0.102852,31938.3,-20993.7,0,38220.3,15579.2
step02_gravity_refstate-crust.xmf,634,-1.62353e-07,2.1045e-06,0,-5.2828e-07,-6.19731e+08,-6.19576e+08,-6.1972e+08,-36240,0.00443394,0.106247,0,0.106339,21607,-22564.5,0,31241.3,36240
step02_gravity_refstate-crust.xmf,635,4.82835e-08,1.89607e-06,0,-6.6388e-07,-6.4604e+08,-6.45913e+08,-6.46044e+08,-45542.1,0.00517325,0.111384,0,0.111504,14430,-23522.9,0,27596.2,45542.1
step02_gravity_refstate-crust.xmf,636,-2.4868e-08,1.99122e-06,0,-6.50231e-07,-6.45225e+08,-6.45087e+08,-6.45224e+08,-44605.8,0.00518281,0.109521,0,0.109644,16265.1,-23493.1,0,28574.1,44605.8
step02_gravity_refstate-crust.xmf,637,-9.11558e-08,2.08112e-06,0,-6.20391e-07,-6.45207e+08,-6.45058e+08,-6.45201e+08,-42558.8,0.00506576,0.107531,0,0.10765,18201.7,-23492.3,0,29718.5,42558.8
step02_gravity_refstate-crust.xmf,638,7.88753e-07,1.26147e-06,0,4.93681e-08,-7.63721e+08,-7.63689e+08,-7.63775e+08,3386.66,-0.000319746,0.115678,-0,0.115678,-406.313,-27809.2,-0,27812.2,3386.66
step02_gravity_refstate-crust.xmf,639,7.69946e-08,1.97236e-06,0,-7.27156e-07,-6.89373e+08,-6.89243e+08,-6.89379e+08,-49882.9,0.00558088,0.109412,0,0.109554,13436.1,-25100.7,0,28470.6,49882.9
step02_gravity_refstate-crust.xmf,640,8.69782e-07,1.24783e-06,0,1.57893e-07,-8.00304e+08,-8.00278e+08,-8.00363e+08,10831.5,-0.00100702,0.113896,-0,0.1139,-1152.02,-29141.3,-0,29164.1,10831.5
step02_gravity_refstate-crust.xmf,641,9.48412e-07,1.23207e-06,0,2.92732e-07,-8.36549e+08,-8.3653e+08,-8.36614e+08,20081.4,-0.00181914,0.112024,-0,0.112039,-1877.72,-30461.2,-0,30519,20081.4
step02_gravity_refstate-crust.xmf,642,1.01866e-06,1.21922e-06,0,4.49909e-07,-8.71287e+08,-8.71273e+08,-8.71357e+08,30863.7,-0.00271724,0.110117,-0,0.11015,-2544.45,-31726.1,-0,31827.9,30863.7
step02_gravity_refstate-crust.xmf,643,1.07115e-06,1.22022e-06,0,6.4055e-07,-9.04244e+08,-9.04233e+08,-9.04317e+08,43941.8,-0.00375644,0.108123,-0,0.108189,-3216.55,-32926.1,-0,33082.9,43941.8
step02_gravity_refstate-crust.xmf,644,9.81837e-07,1.45173e-06,0,1.26696e-06,-9.74648e+08,-9.74616e+08,-9.74715e+08,86913.4,-0.00707068,0.101986,-0,0.102231,-5216.97,-35489.2,-0,35870.7,86913.4
step02_gravity_refstate-crust.xmf,645,1.11834e-06,1.22157e-06,0,8.44086e-07,-9.37113e+08,-9.37106e+08,-9.3719e+08,57904.3,-0.00479101,0.106091,-0,0.106199,-3746.94,-34123,-0,34328.1,57904.3
step02_gravity_refstate-crust.xmf,646,-2.60994e-07,2.27026e-06,0,-1.82556e-07,-6.20954e+08,-6.20781e+08,-6.20936e+08,-12523.4,0.00169021,0.0987163,0,0.0987308,33534.5,-22608.9,0,40444.1,12523.4
step02_gravity_refstate-crust.xmf,647,-2.64864e-07,2.35041e-06,0,-1.20816e-07,-6.40823e+08,-6.40643e+08,-6.40805e+08,-8287.99,0.00114934,0.0964516,0,0.0964585,35656.1,-23332.4,0,42611.7,8287.99
step02_gravity_refstate-crust.xmf,648,-2.03615e-07,2.16338e-06,0,-4.597e-07,-6.18869e+08,-6.18707e+08,-6.18855e+08,-31535.4,0.00396779,0.104232,0,0.104307,24101.2,-22533.1,0,32994.1,31535.4
step02_gravity_refstate-crust.xmf,649,-2.58117e-07,2.28109e-06,0,-2.52539e-07,-6.26692e+08,-6.26518e+08,-6.26675e+08,-17324.2,0.00232146,0.0991914,0,0.0992185,31129,-22817.8,0,38596.2,17324.2
step02_gravity_refstate-crust.xmf,650,-2.48318e-07,2.2502e-06,0,-3.20766e-07,-6.2321e+08,-6.23039e+08,-6.23193e+08,-22004.6,0.00289516,0.100657,0,0.100699,28836.9,-22691.1,0,36694,22004.6
step02_gravity_refstate-crust.xmf,651,-2.30542e-07,2.20796e-06,0,-3.91008e-07,-6.19618e+08,-6.19451e+08,-6.19602e+08,-26823.1,0.00345271,0.102431,0,0.102489,26471.9,-22560.3,0,34781.1,26823.1
step02_gravity_refstate-crust.xmf,652,-1.40587e-07,2.1465e-06,0,-5.80922e-07,-6.44089e+08,-6.43932e+08,-6.44079e+08,-39851.3,0.00484689,0.105855,0,0.105966,19985.2,-23451.4,0,30812,39851.3
step02_gravity_refstate-crust.xmf,653,6.78662e-07,1.29379e-06,0,-1.96388e-07,-7.21411e+08,-7.21368e+08,-7.21457e+08,-13472.2,0.00133808,0.117364,0,0.117371,1939.5,-26268.4,0,26339.9,13472.2
step02_gravity_refstate-crust.xmf,654,7.77107e-07,1.27058e-06,0,-1.32877e-07,-7.61813e+08,-7.61779e+08,-7.61866e+08,-9115.35,0.000885348,0.115669,0,0.115672,1134.82,-27739.7,0,27762.9,9115.35
step02_gravity_refstate-crust.xmf,655,6.24917e-07,1.35965e-06,0,-3.58569e-07,-7.22282e+08,-7.22232e+08,-7.22325e+08,-24597.8,0.00246537,0.116614,0,0.11664,3656.99,-26300,0,26553.1,24597.8
step02_gravity_refstate-crust.xmf,656,5.50223e-07,1.45784e-06,0,-5.02867e-07,-7.23917e+08,-7.23855e+08,-7.23955e+08,-34496.6,0.00349676,0.115422,0,0.115475,5380.23,-26359.4,0,26902.9,34496.6
step02_gravity_refstate-crust.xmf,657,4.54913e-07,1.58288e-06,0,-6.21183e-07,-7.25433e+08,-7.25355e+08,-7.25464e+08,-42613.1,0.00438889,0.11387,0,0.113954,7117.61,-26414.4,0,27356.5,42613.1
step02_gravity_refstate-crust.xmf,658,3.45121e-07,1.72906e-06,0,-7.10664e-07,-7.27497e+08,-7.27402e+08,-7.27521e+08,-48751.6,0.00512275,0.111954,0,0.112071,8889.43,-26489.3,0,27941.1,48751.6
step02_gravity_refstate-crust.xmf,659,2.30182e-07,1.88445e-06,0,-7.67089e-07,-7.29816e+08,-7.29702e+08,-7.29832e+08,-52622.3,0.00566185,0.109784,0,0.109929,10667.6,-26573.5,0,28634.8,52622.3
step02_gravity_refstate-crust.xmf,660,1.19378e-07,2.0349e-06,0,-7.89844e-07,-7.31457e+08,-7.31326e+08,-7.31465e+08,-54183.3,0.00598641,0.107536,0,0.107703,12424.6,-26633.1,0,29388.6,54183.3
step02_gravity_refstate-crust.xmf,661,-2.67711e-07,2.49291e-06,0,-1.6845e-10,-6.78253e+08,-6.78064e+08,-6.78235e+08,-11.5557,4.85393e-20,0.092659,0,0.092659,40000,-24695.3,0,47009.1,11.5557
step02_gravity_refstate-crust.xmf,662,6.87504e-07,1.93922e-06,0,2.18065e-06,-1.07454e+09,-1.07446e+09,-1.07459e+09,149593,-0.0111206,0.092617,-0,0.0932823,-6537.5,-39125.7,-0,39668.1,149593
step02_gravity_refstate-crust.xmf,663,1.17535e-06,1.20284e-06,0,1.04756e-06,-9.70158e+08,-9.70156e+08,-9.70239e+08,71862.4,-0.00573326,0.104193,-0,0.104351,-4066.28,-35326.2,-0,35559.4,71862.4
step02_gravity_refstate-crust.xmf,664,9.16967e-07,1.6274e-06,0,1.89442e-06,-1.04929e+09,-1.04924e+09,-1.04935e+09,129957,-0.00974088,0.0963093,-0,0.0968007,-5878.62,-38206.5,-0,38656.2,129957
step02_gravity_refstate-crust.xmf,665,1.159e-06,1.2645e-06,0,1.30924e-06,-9.98471e+08,-9.98463e+08,-9.9855e+08,89813.7,-0.00697467,0.101986,-0,0.102224,-4608.17,-36357,-0,36647.8,89813.7
step02_gravity_refstate-crust.xmf,666,1.0761e-06,1.40085e-06,0,1.59097e-06,-1.0238e+09,-1.02378e+09,-1.02388e+09,109141,-0.00830675,0.0994594,-0,0.0998057,-5211.8,-37279.1,-0,37641.7,109141
step02_gravity_refstate-crust.xmf,667,-2.71657e-07,2.58947e-06,0,-6.96123e-08,-7.04237e+08,-7.0404e+08,-7.04218e+08,-4775.4,0.000701833,0.0904333,0,0.0904361,37393.4,-25641.3,0,45340.4,4775.4
step02_gravity_refstate-crust.xmf,668,-1.90676e-07,2.33248e-06,0,-5.75365e-07,-6.8193e+08,-6.81757e+08,-6.81917e+08,-39470,0.00493273,0.101754,0,0.101873,21034.9,-24829.2,0,32541.6,39470
step02_gravity_refstate-crust.xmf,669,-8.21882e-09,2.0994e-06,0,-7.15945e-07,-6.91729e+08,-6.91585e+08,-6.91729e+08,-49113.8,0.00566661,0.107163,0,0.107312,15251.3,-25186.3,0,29444.1,49113.8
step02_gravity_refstate-crust.xmf,670,-8.7502e-08,2.21458e-06,0,-6.85705e-07,-6.93421e+08,-6.93263e+08,-6.93415e+08,-47039.4,0.00558602,0.104856,0,0.105005,17170,-25247.8,0,30532.9,47039.4
step02_gravity_refstate-crust.xmf,671,-1.48293e-07,2.29279e-06,0,-6.36148e-07,-6.90178e+08,-6.9001e+08,-6.90168e+08,-43639.7,0.00532556,0.103027,0,0.103165,19095.6,-25129.6,0,31561.6,43639.7
step02_gravity_refstate-crust.xmf,672,8.78724e-07,1.23463e-06,0,-4.6447e-08,-7.99871e+08,-7.99847e+08,-7.99932e+08,-3186.26,0.000307255,0.114035,0,0.114036,350.497,-29125.6,0,29127.7,3186.26
step02_gravity_refstate-crust.xmf,673,1.49584e-08,2.17437e-06,0,-7.87994e-07,-7.33024e+08,-7.32876e+08,-7.33025e+08,-54056.4,0.00612244,0.105221,0,0.105399,14185.9,-26689.9,0,30225.7,54056.4
step02_gravity_refstate-crust.xmf,674,9.80887e-07,1.18953e-06,0,6.86182e-08,-8.35983e+08,-8.35969e+08,-8.3605e+08,4707.21,-0.000416269,0.112431,-0,0.112432,-425.479,-30440.6,-0,30443.6,4707.21
step02_gravity_refstate-crust.xmf,675,1.08015e-06,1.14031e-06,0,2.10144e-07,-8.70715e+08,-8.70711e+08,-8.7079e+08,14415.9,-0.00125315,0.110814,-0,0.110821,-1152.69,-31705.4,-0,31726.3,14415.9
step02_gravity_refstate-crust.xmf,676,1.17236e-06,1.09197e-06,0,3.81769e-07,-9.04088e+08,-9.04094e+08,-9.04169e+08,26189.4,-0.00220716,0.109167,-0,0.10919,-1836.36,-32920.7,-0,32971.8,26189.4
step02_gravity_refstate-crust.xmf,677,1.25917e-06,1.04274e-06,0,5.74277e-07,-9.36772e+08,-9.36787e+08,-9.36859e+08,39395.4,-0.00320731,0.107496,-0,0.107543,-2417.96,-34110.8,-0,34196.4,39395.4
step02_gravity_refstate-crust.xmf,678,1.34738e-06,9.84378e-07,0,7.80633e-07,-9.69377e+08,-9.69402e+08,-9.69469e+08,53551.4,-0.00419811,0.105858,-0,0.105942,-2860.25,-35298.1,-0,35413.8,53551.4
step02_gravity_refstate-crust.xmf,679,-2.23211e-07,2.36845e-06,0,-5.11007e-07,-6.76542e+08,-6.76364e+08,-6.76527e+08,-35055.1,0.00448543,0.100368,0,0.100468,23028.3,-24633,0,33720.7,35055.1
step02_gravity_refstate-crust.xmf,680,-2.73434e-07,2.54654e-06,0,-1.42955e-07,-6.93329e+08,-6.93135e+08,-6.9331e+08,-9806.72,0.00141963,0.0919993,0,0.0920102,34743.9,-25244.2,0,42946.5,9806.72
step02_gravity_refstate-crust.xmf,681,-2.49119e-07,2.41095e-06,0,-4.38159e-07,-6.75539e+08,-6.75357e+08,-6.75522e+08,-30057.7,0.0039513,0.0986128,0,0.0986919,25256.6,-24596.4,0,35254.5,30057.7
step02_gravity_refstate-crust.xmf,682,-2.75155e-07,2.50813e-06,0,-2.14646e-07,-6.84302e+08,-6.84111e+08,-6.84283e+08,-14724.7,0.00208176,0.0936596,0,0.0936827,32307.7,-24915.5,0,40799.1,14724.7
step02_gravity_refstate-crust.xmf,683,-2.73495e-07,2.48412e-06,0,-2.87307e-07,-6.80855e+08,-6.80666e+08,-6.80836e+08,-19709.3,0.00272868,0.0950847,0,0.0951238,29932.4,-24789.9,0,38865,19709.3
step02_gravity_refstate-crust.xmf,684,-2.65302e-07,2.44888e-06,0,-3.6356e-07,-6.7703e+08,-6.76844e+08,-6.77012e+08,-24940.2,0.00336509,0.0968458,0,0.0969043,27544.9,-24650.7,0,36964.5,24940.2
step02_gravity_refstate-crust.xmf,685,7.35978e-07,1.32241e-06,0,-3.21271e-07,-7.62787e+08,-7.62747e+08,-7.62837e+08,-22039.2,0.0021405,0.115067,0,0.115087,2788.06,-27775,0,27914.6,22039.2
step02_gravity_refstate-crust.xmf,686,8.52107e-07,1.26943e-06,0,-2.53665e-07,-8.00407e+08,-8.00378e+08,-8.00465e+08,-17401.4,0.00164587,0.113666,0,0.113678,1895.76,-29145,0,29206.6,17401.4
step02_gravity_refstate-crust.xmf,687,6.55438e-07,1.42481e-06,0,-4.95024e-07,-7.64247e+08,-7.64195e+08,-7.64292e+08,-33958.7,0.00334781,0.113954,0,0.114003,4502.99,-27828.1,0,28190,33958.7
step02_gravity_refstate-crust.xmf,688,5.50407e-07,1.5593e-06,0,-6.40095e-07,-7.64829e+08,-7.64759e+08,-7.64866e+08,-43910.5,0.00440052,0.112452,0,0.112538,6230.51,-27849,0,28537.4,43910.5
step02_gravity_refstate-crust.xmf,689,4.2803e-07,1.7228e-06,0,-7.54165e-07,-7.67357e+08,-7.67268e+08,-7.67387e+08,-51735.7,0.00529167,0.110451,0,0.110578,7983.56,-27940.8,0,29059,51735.7
step02_gravity_refstate-crust.xmf,690,2.92603e-07,1.90482e-06,0,-8.28018e-07,-7.69244e+08,-7.69134e+08,-7.69265e+08,-56802,0.00596587,0.108139,0,0.108303,9788.47,-28009.2,0,29670.4,56802
step02_gravity_refstate-crust.xmf,691,1.64592e-07,2.07711e-06,0,-8.5957e-07,-7.70431e+08,-7.70299e+08,-7.70442e+08,-58966.5,0.00637363,0.105781,0,0.105973,11520.4,-28052.2,0,30325.6,58966.5
step02_gravity_refstate-crust.xmf,692,5.36587e-08,2.22621e-06,0,-8.56759e-07,-7.70383e+08,-7.70234e+08,-7.70387e+08,-58773.6,0.00654574,0.103575,0,0.103782,13150.8,-28050.2,0,30980,58773.6
step02_gravity_refstate-crust.xmf,693,-2.67218e-07,2.76302e-06,0,-3.20148e-10,-7.52056e+08,-7.51848e+08,-7.52037e+08,-21.9621,3.86557e-20,0.0855967,0,0.0855967,40000,-27382.5,0,48474.8,21.9621
step02_gravity_refstate-crust.xmf,694,1.07956e-06,1.42777e-06,0,2.06321e-06,-1.07365e+09,-1.07363e+09,-1.07372e+09,141536,-0.0100885,0.096396,-0,0.0969225,-5402.89,-39093.8,-0,39465.4,141536
step02_gravity_refstate-crust.xmf,695,1.38179e-06,9.81971e-07,0,1.04639e-06,-9.97157e+08,-9.97185e+08,-9.97252e+08,71782.3,-0.00544835,0.10411,-0,0.104252,-3429.09,-36309.6,-0,36471.2,71782.3
step02_gravity_refstate-crust.xmf,696,1.28825e-06,1.14612e-06,0,1.68133e-06,-1.0481e+09,-1.04811e+09,-1.04819e+09,115339,-0.00831607,0.0997932,-0,0.100139,-4619.01,-38164.3,-0,38442.8,115339
step02_gravity_refstate-crust.xmf,697,1.37283e-06,1.02493e-06,0,1.35494e-06,-1.02435e+09,-1.02438e+09,-1.02445e+09,92948.9,-0.00684468,0.102107,-0,0.102336,-4005.57,-37299.7,-0,37514.1,92948.9
step02_gravity_refstate-crust.xmf,698,-2.74193e-07,2.79187e-06,0,-1.09072e-07,-7.59643e+08,-7.59433e+08,-7.59624e+08,-7482.31,0.00117099,0.0853253,0,0.0853333,35642.1,-27658.8,0,45115.1,7482.31
step02_gravity_refstate-crust.xmf,699,-2.48866e-07,2.57168e-06,0,-5.60665e-07,-7.32022e+08,-7.31829e+08,-7.32005e+08,-38461.6,0.00499624,0.096274,0,0.0964036,22066.3,-26653,0,34602.1,38461.6
step02_gravity_refstate-crust.xmf,700,-2.12407e-07,2.51974e-06,0,-6.34236e-07,-7.35567e+08,-7.35379e+08,-7.35552e+08,-43508.6,0.00547764,0.0979878,0,0.0981408,20089.3,-26782.1,0,33479.3,43508.6
step02_gravity_refstate-crust.xmf,701,-8.02259e-08,2.3435e-06,0,-7.69421e-07,-7.44046e+08,-7.43879e+08,-7.4404e+08,-52782.3,0.0061824,0.102023,0,0.10221,16012.2,-27091,0,31469.3,52782.3
step02_gravity_refstate-crust.xmf,702,-1.58945e-07,2.44943e-06,0,-7.05212e-07,-7.4024e+08,-7.40061e+08,-7.40229e+08,-48377.6,0.00588973,0.0998223,0,0.0999959,18094.5,-26952.3,0,32462.9,48377.6
step02_gravity_refstate-crust.xmf,703,9.67952e-07,1.19871e-06,0,-1.62469e-07,-8.36967e+08,-8.36951e+08,-8.37034e+08,-11145.4,0.00101293,0.112286,0,0.11229,1035.16,-30476.4,0,30494,11145.4
step02_gravity_refstate-crust.xmf,704,-2.92161e-08,2.33815e-06,0,-8.34661e-07,-7.69477e+08,-7.69315e+08,-7.69475e+08,-57257.7,0.00654791,0.101759,0,0.10197,14545.2,-28017.1,0,31567.7,57257.7
step02_gravity_refstate-crust.xmf,705,-2.64941e-07,2.88715e-06,0,-5.00187e-08,-7.86502e+08,-7.86285e+08,-7.86483e+08,-3431.28,0.000557269,0.0821712,0,0.0821731,37879.6,-28636.8,0,47486.1,3431.28
step02_gravity_refstate-crust.xmf,706,1.09843e-06,1.1176e-06,0,-4.26823e-08,-8.71354e+08,-8.71353e+08,-8.71429e+08,-2928.01,0.00026721,0.110956,0,0.110956,244.078,-31728.7,0,31729.6,2928.01
step02_gravity_refstate-crust.xmf,707,1.22165e-06,1.02959e-06,0,1.04444e-07,-9.04397e+08,-9.04411e+08,-9.04481e+08,7164.83,-0.000591607,0.109635,-0,0.109636,-485.228,-32932,-0,32935.6,7164.83
step02_gravity_refstate-crust.xmf,708,1.34179e-06,9.37962e-07,0,2.78362e-07,-9.36294e+08,-9.36322e+08,-9.36387e+08,19095.6,-0.00153359,0.108315,-0,0.108326,-1133.69,-34093.6,-0,34112.5,19095.6
step02_gravity_refstate-crust.xmf,709,1.45565e-06,8.45949e-07,0,4.82658e-07,-9.67071e+08,-9.67113e+08,-9.67171e+08,33110.3,-0.00256342,0.106998,-0,0.107029,-1713.68,-35214.4,-0,35256.1,33110.3
step02_gravity_refstate-crust.xmf,710,1.43004e-06,9.78825e-07,0,1.87796e-06,-1.07467e+09,-1.0747e+09,-1.07477e+09,128828,-0.00885653,0.0993748,-0,0.0997686,-4393.33,-39131.8,-0,39377.7,128828
step02_gravity_refstate-crust.xmf,711,1.55479e-06,7.63376e-07,0,7.288e-07,-9.96492e+08,-9.96546e+08,-9.96599e+08,49995.7,-0.00372774,0.105657,-0,0.105722,-2264.74,-36285.8,-0,36356.4,49995.7
step02_gravity_refstate-crust.xmf,712,-2.72903e-07,2.61272e-06,0,-4.83942e-07,-7.29943e+08,-7.29745e+08,-7.29924e+08,-33198.4,0.0044477,0.0945693,0,0.0946738,24121.3,-26577.2,0,35891.3,33198.4
step02_gravity_refstate-crust.xmf,713,-2.82134e-07,2.74682e-06,0,-1.73983e-07,-7.47099e+08,-7.46891e+08,-7.47079e+08,-11935.2,0.00181457,0.0872586,0,0.0872774,33340.5,-27202,0,43029.5,11935.2
step02_gravity_refstate-crust.xmf,714,-2.87002e-07,2.65121e-06,0,-4.03606e-07,-7.30801e+08,-7.30599e+08,-7.30781e+08,-27687.4,0.00383143,0.092711,0,0.0927901,26322.1,-26608.5,0,37428.1,27687.4
step02_gravity_refstate-crust.xmf,715,-2.89675e-07,2.71762e-06,0,-2.45446e-07,-7.39785e+08,-7.39579e+08,-7.39765e+08,-16837.6,0.00248285,0.0889628,0,0.0889974,30999.1,-26935.6,0,41066.7,16837.6
step02_gravity_refstate-crust.xmf,716,-2.92225e-07,2.68847e-06,0,-3.22756e-07,-7.34816e+08,-7.34612e+08,-7.34796e+08,-22141,0.00316689,0.0907479,0,0.0908032,28634.7,-26754.7,0,39188.8,22141
step02_gravity_refstate-crust.xmf,717,7.86963e-07,1.36761e-06,0,-4.79844e-07,-8.07675e+08,-8.07635e+08,-8.07729e+08,-32917.3,0.00313929,0.112361,0,0.112405,3651.19,-29409.5,0,29635.3,32917.3
step02_gravity_refstate-crust.xmf,718,9.33908e-07,1.25652e-06,0,-3.79148e-07,-8.40152e+08,-8.4013e+08,-8.40216e+08,-26009.5,0.00237766,0.111579,0,0.111605,2448.52,-30592.3,0,30690.1,26009.5
step02_gravity_refstate-crust.xmf,719,1.06543e-06,1.15294e-06,0,-2.89813e-07,-8.73156e+08,-8.7315e+08,-8.73229e+08,-19881.2,0.00174984,0.110547,0,0.110561,1604.74,-31794.2,0,31834.7,19881.2
step02_gravity_refstate-crust.xmf,720,6.6358e-07,1.50858e-06,0,-6.51969e-07,-8.03225e+08,-8.03167e+08,-8.03271e+08,-44725.1,0.00433923,0.111136,0,0.111221,5367.78,-29247.2,0,29735.7,44725.1
step02_gravity_refstate-crust.xmf,721,5.30089e-07,1.68114e-06,0,-7.88742e-07,-8.04793e+08,-8.04714e+08,-8.04829e+08,-54107.7,0.0053553,0.109238,0,0.109369,7030.89,-29304,0,30135.7,54107.7
step02_gravity_refstate-crust.xmf,722,3.71134e-07,1.91131e-06,0,-9.10736e-07,-8.12851e+08,-8.12745e+08,-8.12877e+08,-62476.5,0.00632528,0.106264,0,0.106452,8917.67,-29597.1,0,30911.4,62476.5
step02_gravity_refstate-crust.xmf,723,2.08774e-07,2.11561e-06,0,-9.39231e-07,-8.08742e+08,-8.08611e+08,-8.08756e+08,-64431.3,0.00678744,0.103919,0,0.104141,10761.7,-29447.2,0,31352,64431.3
step02_gravity_refstate-crust.xmf,724,7.87736e-08,2.28755e-06,0,-9.3619e-07,-8.0753e+08,-8.07379e+08,-8.07536e+08,-64222.7,0.00699646,0.101605,0,0.101846,12389.8,-29402.8,0,31906.6,64222.7
step02_gravity_refstate-crust.xmf,725,-2.6015e-08,2.42397e-06,0,-9.03363e-07,-8.03908e+08,-8.0374e+08,-8.03906e+08,-61970.7,0.00698297,0.0996171,0,0.0998615,13944.8,-29270.7,0,32422.7,61970.7
step02_gravity_refstate-crust.xmf,726,-2.53136e-07,3.01657e-06,0,-6.53073e-10,-8.24098e+08,-8.23874e+08,-8.24081e+08,-44.8008,3.61744e-20,0.0780159,0,0.0780159,40000,-30005.8,0,50003.5,44.8008
step02_gravity_refstate-crust.xmf,727,-2.65181e-07,3.00199e-06,0,-8.28113e-08,-8.18448e+08,-8.18224e+08,-8.1843e+08,-5680.85,0.000967843,0.0789955,0,0.0790014,36240.6,-29800,0,46919.3,5680.85
step02_gravity_refstate-crust.xmf,728,1.62552e-06,7.0697e-07,0,1.02812e-06,-1.02456e+09,-1.02463e+09,-1.02467e+09,70529.2,-0.0050643,0.104209,-0,0.104332,-2814.29,-37307.9,-0,37413.9,70529.2
step02_gravity_refstate-crust.xmf,729,1.65011e-06,6.93692e-07,0,1.42394e-06,-1.05376e+09,-1.05383e+09,-1.05388e+09,97682.2,-0.00672287,0.102383,-0,0.102603,-3421.65,-38371.1,-0,38523.3,97682.2
step02_gravity_refstate-crust.xmf,730,-2.76397e-07,2.97002e-06,0,-1.33371e-07,-8.08245e+08,-8.08022e+08,-8.08226e+08,-9149.27,0.00151534,0.0805929,0,0.0806072,34254.8,-29428.5,0,45160,9149.27
step02_gravity_refstate-crust.xmf,731,-3.02125e-07,2.81037e-06,0,-5.27766e-07,-7.81636e+08,-7.81423e+08,-7.81615e+08,-36204.7,0.00492212,0.0904315,0,0.0905654,23071.7,-28459.4,0,36636.6,36204.7
step02_gravity_refstate-crust.xmf,732,-2.77523e-07,2.75982e-06,0,-6.13567e-07,-7.82639e+08,-7.8243e+08,-7.8262e+08,-42090.7,0.00550611,0.0923796,0,0.0925436,21085,-28495.9,0,35448.4,42090.7
step02_gravity_refstate-crust.xmf,733,-2.37374e-07,2.69399e-06,0,-6.97082e-07,-7.84918e+08,-7.84717e+08,-7.84901e+08,-47819.8,0.00601908,0.0943629,0,0.0945547,19164.9,-28578.9,0,34410,47819.8
step02_gravity_refstate-crust.xmf,734,-1.78731e-07,2.60603e-06,0,-7.74311e-07,-7.87324e+08,-7.87133e+08,-7.87311e+08,-53117.7,0.00643103,0.0964691,0,0.0966832,17305.4,-28666.6,0,33485.1,53117.7
step02_gravity_refstate-crust.xmf,735,-1.07901e-07,2.5214e-06,0,-8.47578e-07,-7.95899e+08,-7.95719e+08,-7.95892e+08,-58143.8,0.00677781,0.0980848,0,0.0983187,15518.7,-28979,0,32872.6,58143.8
step02_gravity_refstate-crust.xmf,736,1.00508e-06,1.23698e-06,0,-5.12779e-07,-8.7468e+08,-8.74664e+08,-8.74748e+08,-35176.6,0.00311129,0.109711,0,0.109755,2904.42,-31849.6,0,31981.7,35176.6
step02_gravity_refstate-crust.xmf,737,-2.46088e-07,3.14275e-06,0,-4.20978e-08,-8.60623e+08,-8.60391e+08,-8.60607e+08,-2887.91,0.000517944,0.0740381,0,0.07404,37844,-31335.7,0,49133.4,2887.91
step02_gravity_refstate-crust.xmf,738,1.21611e-06,1.03573e-06,0,-1.7971e-07,-9.05005e+08,-9.05018e+08,-9.05089e+08,-12328.1,0.00104948,0.109534,0,0.109539,860.918,-32954.1,0,32965.4,12328.1
step02_gravity_refstate-crust.xmf,739,1.36856e-06,9.037e-07,0,-3.73382e-08,-9.36835e+08,-9.36867e+08,-9.36929e+08,-2561.4,0.000220518,0.108522,0,0.108522,161.708,-34113.4,0,34113.8,2561.4
step02_gravity_refstate-crust.xmf,740,1.51915e-06,7.65571e-07,0,1.43924e-07,-9.6702e+08,-9.67071e+08,-9.67124e+08,9873.18,-0.000749704,0.107557,-0,0.107559,-494.282,-35212.6,-0,35216.1,9873.18
step02_gravity_refstate-crust.xmf,741,1.66575e-06,6.2309e-07,0,3.70865e-07,-9.96475e+08,-9.96547e+08,-9.96589e+08,25441.4,-0.00187044,0.106586,-0,0.106603,-1111.14,-36285.4,-0,36302.4,25441.4
step02_gravity_refstate-crust.xmf,742,1.76086e-06,5.60056e-07,0,1.66849e-06,-1.08003e+09,-1.08011e+09,-1.08015e+09,114458,-0.00756501,0.101663,-0,0.101944,-3476.14,-39327.5,-0,39480.8,114458
step02_gravity_refstate-crust.xmf,743,1.79479e-06,4.9122e-07,0,6.32413e-07,-1.02355e+09,-1.02363e+09,-1.02367e+09,43383.5,-0.00306755,0.105645,-0,0.105689,-1655.79,-37271.2,-0,37308,43383.5
step02_gravity_refstate-crust.xmf,744,-2.5879e-07,3.17106e-06,0,-9.20524e-08,-8.66256e+08,-8.6602e+08,-8.66238e+08,-6314.8,0.00116255,0.0738454,0,0.0738545,35216.1,-31540.8,0,47275.7,6314.8
step02_gravity_refstate-crust.xmf,745,-3.13318e-07,2.84868e-06,0,-4.42539e-07,-7.82109e+08,-7.81892e+08,-7.82088e+08,-30358.2,0.00428809,0.0885235,0,0.0886273,25125.8,-28476.6,0,37976.6,30358.2
step02_gravity_refstate-crust.xmf,746,-2.91701e-07,2.94397e-06,0,-1.97192e-07,-7.99668e+08,-7.99446e+08,-7.99648e+08,-13527.4,0.00216342,0.0823299,0,0.0823583,32008.2,-29116.1,0,43269.8,13527.4
step02_gravity_refstate-crust.xmf,747,-3.14472e-07,2.88772e-06,0,-3.56054e-07,-7.8642e+08,-7.86201e+08,-7.86399e+08,-24425.3,0.00359496,0.0863654,0,0.0864402,27338.2,-28633.6,0,39588.7,24425.3
step02_gravity_refstate-crust.xmf,748,-3.07099e-07,2.92715e-06,0,-2.71181e-07,-7.94425e+08,-7.94203e+08,-7.94404e+08,-18603,0.0028618,0.0840323,0,0.084081,29689.5,-28925.1,0,41450.3,18603
step02_gravity_refstate-crust.xmf,749,8.78683e-07,1.33468e-06,0,-5.56822e-07,-8.46512e+08,-8.4648e+08,-8.46572e+08,-38198,0.00348474,0.11048,0,0.110535,3608.2,-30823.7,0,31034.2,38198
step02_gravity_refstate-crust.xmf,750,1.15309e-06,1.10828e-06,0,-4.47336e-07,-9.06509e+08,-9.06512e+08,-9.06588e+08,-30687.2,0.00261511,0.108867,0,0.108898,2170.87,-33008.7,0,33080,30687.2
step02_gravity_refstate-crust.xmf,751,7.76779e-07,1.4472e-06,0,-6.65039e-07,-8.38663e+08,-8.38617e+08,-8.38716e+08,-45621.7,0.00428478,0.1099,0,0.109984,4683.21,-30537.7,0,30894.8,45621.7
step02_gravity_refstate-crust.xmf,752,6.47044e-07,1.61226e-06,0,-8.15765e-07,-8.3942e+08,-8.39354e+08,-8.39464e+08,-55961.5,0.00534268,0.108221,0,0.108353,6151.15,-30565,0,31177.8,55961.5
step02_gravity_refstate-crust.xmf,753,4.98989e-07,1.80876e-06,0,-9.35116e-07,-8.42584e+08,-8.42494e+08,-8.42618e+08,-64149,0.00626142,0.106009,0,0.106193,7665.94,-30679.9,0,31623.2,64149
step02_gravity_refstate-crust.xmf,754,2.36671e-07,2.16759e-06,0,-1.03312e-06,-8.46415e+08,-8.46282e+08,-8.46431e+08,-70872.2,0.00726603,0.101787,0,0.102046,10238.7,-30818.9,0,32475.1,70872.2
step02_gravity_refstate-crust.xmf,755,9.85976e-08,2.35188e-06,0,-1.02899e-06,-8.45261e+08,-8.45106e+08,-8.45267e+08,-70589,0.00749199,0.0994501,0,0.0997319,11729.1,-30776.6,0,32935.9,70589
step02_gravity_refstate-crust.xmf,756,-2.11483e-08,2.51239e-06,0,-9.92982e-07,-8.42427e+08,-8.42254e+08,-8.42426e+08,-68118.6,0.00750291,0.0972419,0,0.0975309,13238,-30673.2,0,33407.9,68118.6
step02_gravity_refstate-crust.xmf,757,-1.21656e-07,2.64689e-06,0,-9.3121e-07,-8.37732e+08,-8.37542e+08,-8.37724e+08,-63881,0.00732348,0.0951684,0,0.0954498,14826.3,-30502.1,0,33914.5,63881
step02_gravity_refstate-crust.xmf,758,-2.22824e-07,3.25123e-06,0,-4.47762e-10,-8.94577e+08,-8.94338e+08,-8.94561e+08,-30.7165,2.33322e-20,0.0699738,0,0.0699738,40000,-32572.1,0,51584.3,30.7165
step02_gravity_refstate-crust.xmf,759,1.91534e-06,3.6223e-07,0,9.17438e-07,-1.04973e+09,-1.04984e+09,-1.04986e+09,62936.2,-0.00427042,0.104745,-0,0.104832,-2097.53,-38224.9,-0,38282.4,62936.2
step02_gravity_refstate-crust.xmf,760,2.00303e-06,2.63601e-07,0,1.28957e-06,-1.07554e+09,-1.07566e+09,-1.07568e+09,88464.6,-0.00575263,0.103684,-0,0.103843,-2579.83,-39164.7,-0,39249.6,88464.6
step02_gravity_refstate-crust.xmf,761,-2.779e-07,3.16077e-06,0,-1.45843e-07,-8.60216e+08,-8.5998e+08,-8.60197e+08,-10004.8,0.00177493,0.0752162,0,0.0752371,32970.6,-31320.8,0,45475.9,10004.8
step02_gravity_refstate-crust.xmf,762,-3.45962e-07,3.04419e-06,0,-4.80174e-07,-8.3122e+08,-8.30987e+08,-8.31196e+08,-32940,0.00472251,0.0842859,0,0.084418,23971.1,-30264.7,0,38607.9,32940
step02_gravity_refstate-crust.xmf,763,-3.36962e-07,3.00182e-06,0,-5.74338e-07,-8.30262e+08,-8.30033e+08,-8.30239e+08,-39399.6,0.00539264,0.0863728,0,0.0865409,22014.4,-30229.8,0,37396.2,39399.6
step02_gravity_refstate-crust.xmf,764,-3.1097e-07,2.93961e-06,0,-6.70897e-07,-8.29867e+08,-8.29644e+08,-8.29845e+08,-46023.5,0.0060142,0.0886105,0,0.0888144,20106.9,-30215.4,0,36294.1,46023.5
step02_gravity_refstate-crust.xmf,765,-2.66332e-07,2.85845e-06,0,-7.65236e-07,-8.30687e+08,-8.30473e+08,-8.30669e+08,-52495.2,0.00655658,0.0908838,0,0.09112,18265.6,-30245.3,0,35332.9,52495.2
step02_gravity_refstate-crust.xmf,766,-2.02067e-07,2.75733e-06,0,-8.52846e-07,-8.32651e+08,-8.32448e+08,-8.32637e+08,-58505.2,0.00699318,0.0931568,0,0.0934189,16498.3,-30316.9,0,34515.4,58505.2
step02_gravity_refstate-crust.xmf,767,9.04383e-07,1.35966e-06,0,-6.97625e-07,-8.74793e+08,-8.74762e+08,-8.74855e+08,-47857.1,0.00428187,0.108608,0,0.108692,4129.2,-31853.5,0,32120,47857.1
step02_gravity_refstate-crust.xmf,768,1.05727e-06,1.23189e-06,0,-6.86688e-07,-9.07199e+08,-9.07187e+08,-9.07271e+08,-47106.8,0.00403995,0.107764,0,0.10784,3449.18,-33033.7,0,33213.2,47106.8
step02_gravity_refstate-crust.xmf,769,3.67823e-07,2.00235e-06,0,-1.02192e-06,-8.51428e+08,-8.51316e+08,-8.51453e+08,-70103.6,0.00695935,0.103487,0,0.103721,8936.4,-31001.7,0,32264,70103.6
step02_gravity_refstate-crust.xmf,770,-2.02348e-07,3.36024e-06,0,-2.2539e-08,-9.28688e+08,-9.28444e+08,-9.28674e+08,-1546.18,0.000330103,0.0659325,0,0.0659333,38349,-33814.2,0,51127.8,1546.18
step02_gravity_refstate-crust.xmf,771,-2.20211e-07,3.37663e-06,0,-5.34823e-08,-9.3017e+08,-9.29923e+08,-9.30155e+08,-3668.89,0.000809061,0.06605,0,0.066055,36042,-33868.1,0,49457.8,3668.89
step02_gravity_refstate-crust.xmf,772,-1.71217e-07,3.46364e-06,0,-1.2469e-09,-9.63684e+08,-9.63435e+08,-9.63673e+08,-85.537,2.1894e-20,0.0615238,0,0.0615238,40000,-35088.6,0,53209.1,85.537
step02_gravity_refstate-crust.xmf,773,1.33196e-06,9.47195e-07,0,-3.56534e-07,-9.37785e+08,-9.37812e+08,-9.37877e+08,-24458.2,0.00198967,0.108108,0,0.108126,1469.34,-34147.9,0,34179.5,24458.2
step02_gravity_refstate-crust.xmf,774,1.51742e-06,7.66872e-07,0,-2.21042e-07,-9.68313e+08,-9.68364e+08,-9.68417e+08,-15163.5,0.00118564,0.107445,0,0.107451,779.293,-35259.7,0,35268.3,15163.5
step02_gravity_refstate-crust.xmf,775,1.70155e-06,5.79191e-07,0,-1.46774e-08,-9.96127e+08,-9.96204e+08,-9.96244e+08,-1006.87,8.94788e-05,0.106893,0,0.106893,52.9468,-36272.8,0,36272.8,1006.87
step02_gravity_refstate-crust.xmf,776,1.87576e-06,3.83768e-07,0,2.24166e-07,-1.02294e+09,-1.02304e+09,-1.02307e+09,15377.8,-0.00107616,0.106331,-0,0.106336,-573.201,-37249.4,-0,37253.8,15377.8
step02_gravity_refstate-crust.xmf,777,2.05245e-06,1.87963e-07,0,4.72884e-07,-1.04883e+09,-1.04895e+09,-1.04897e+09,32439.9,-0.00217174,0.105822,-0,0.105845,-1045.8,-38192.1,-0,38206.4,32439.9
step02_gravity_refstate-crust.xmf,778,-2.47977e-07,3.36473e-06,0,-9.49706e-08,-9.21018e+08,-9.20771e+08,-9.21001e+08,-6514.99,0.00133779,0.0676896,0,0.0677028,33879.5,-33534.8,0,47669.7,6514.99
step02_gravity_refstate-crust.xmf,779,-3.41825e-07,3.07371e-06,0,-3.90668e-07,-8.33403e+08,-8.33169e+08,-8.3338e+08,-26799.8,0.00402671,0.0822854,0,0.0823839,25986.6,-30344.3,0,39950.9,26799.8
step02_gravity_refstate-crust.xmf,780,-3.03879e-07,3.15294e-06,0,-2.11978e-07,-8.54549e+08,-8.54312e+08,-8.54528e+08,-14541.7,0.00246371,0.0768628,0,0.0769023,30653.7,-31114.4,0,43677.8,14541.7
step02_gravity_refstate-crust.xmf,781,-3.34684e-07,3.15384e-06,0,-2.98861e-07,-8.52057e+08,-8.51818e+08,-8.52034e+08,-20501.9,0.00327257,0.0786057,0,0.0786738,28129.1,-31023.5,0,41877.3,20501.9
step02_gravity_refstate-crust.xmf,782,1.22477e-06,1.0755e-06,0,-6.48134e-07,-9.38437e+08,-9.38447e+08,-9.38521e+08,-44462,0.00366351,0.107115,0,0.107177,2770.05,-34171.3,0,34283.4,44462
step02_gravity_refstate-crust.xmf,783,7.69996e-07,1.52964e-06,0,-8.48547e-07,-8.7337e+08,-8.73318e+08,-8.73423e+08,-58210.3,0.00534554,0.107186,0,0.107319,5422.83,-31801.4,0,32260.4,58210.3
step02_gravity_refstate-crust.xmf,784,6.12906e-07,1.73328e-06,0,-9.83619e-07,-8.74413e+08,-8.74336e+08,-8.74455e+08,-67476.3,0.00633766,0.105169,0,0.10536,6830.98,-31839,0,32563.6,67476.3
step02_gravity_refstate-crust.xmf,785,4.46572e-07,1.95646e-06,0,-1.07961e-06,-8.77321e+08,-8.77217e+08,-8.77351e+08,-74061.1,0.00713525,0.102744,0,0.102992,8240.55,-31944.6,0,32990.3,74061.1
step02_gravity_refstate-crust.xmf,786,2.84999e-07,2.17317e-06,0,-1.12173e-06,-8.7797e+08,-8.7784e+08,-8.7799e+08,-76950.4,0.0076477,0.100335,0,0.100626,9619.18,-31967.9,0,33383.8,76950.4
step02_gravity_refstate-crust.xmf,787,-2.2751e-07,2.89626e-06,0,-9.40352e-07,-8.74475e+08,-8.74261e+08,-8.7446e+08,-64508.1,0.00755814,0.0900912,0,0.0904077,15691.6,-31839.7,0,35496.4,64508.1
step02_gravity_refstate-crust.xmf,788,1.29447e-07,2.38597e-06,0,-1.12538e-06,-8.78533e+08,-8.78378e+08,-8.78542e+08,-77201.3,0.00794703,0.0977554,0,0.0980779,11043.5,-31988.1,0,33840.8,77201.3
step02_gravity_refstate-crust.xmf,789,-1.26731e-08,2.58349e-06,0,-1.09096e-06,-8.77987e+08,-8.77809e+08,-8.77986e+08,-74840.1,0.00801826,0.095129,0,0.0954663,12538.2,-31967.9,0,34338.8,74840.1
step02_gravity_refstate-crust.xmf,790,-1.32485e-07,2.75374e-06,0,-1.02519e-06,-8.76144e+08,-8.75946e+08,-8.76135e+08,-70328.3,0.00787223,0.0925872,0,0.0929213,14093.2,-31900.6,0,34875,70328.3
step02_gravity_refstate-crust.xmf,791,-1.51766e-07,3.55524e-06,0,-1.53912e-08,-9.935e+08,-9.93245e+08,-9.93489e+08,-1055.84,0.00031156,0.0578128,0,0.0578136,37845.9,-36174.2,0,52353.5,1055.84
step02_gravity_refstate-crust.xmf,792,2.2164e-06,-2.40161e-09,0,8.01466e-07,-1.07415e+09,-1.0743e+09,-1.0743e+09,54980.6,-0.0035194,0.105291,-0,0.10535,-1534.48,-39114.5,-0,39144.6,54980.6
step02_gravity_refstate-crust.xmf,793,-2.80094e-07,3.35692e-06,0,-1.47705e-07,-9.13055e+08,-9.12806e+08,-9.13036e+08,-10132.5,0.00194896,0.0694506,0,0.0694779,31678.2,-33244.8,0,45920.8,10132.5
step02_gravity_refstate-crust.xmf,794,-3.75808e-07,3.25281e-06,0,-4.24382e-07,-8.76939e+08,-8.7669e+08,-8.76913e+08,-29112.6,0.00442169,0.0783586,0,0.0784833,24713.5,-31929.4,0,40376.2,29112.6
step02_gravity_refstate-crust.xmf,795,-3.85322e-07,3.23562e-06,0,-5.17806e-07,-8.77288e+08,-8.7704e+08,-8.77262e+08,-35521.5,0.00512806,0.0801296,0,0.0802935,22859.6,-31942,0,39279.2,35521.5
step02_gravity_refstate-crust.xmf,796,-3.78225e-07,3.18762e-06,0,-6.23845e-07,-8.75619e+08,-8.75374e+08,-8.75593e+08,-42795.7,0.00584854,0.0824471,0,0.0826543,20980.5,-31881.2,0,38165.3,42795.7
step02_gravity_refstate-crust.xmf,797,-3.51491e-07,3.11789e-06,0,-7.34794e-07,-8.75076e+08,-8.74838e+08,-8.75052e+08,-50406.9,0.00652768,0.0848845,0,0.0851351,19130.9,-31861.4,0,37163.7,50406.9
step02_gravity_refstate-crust.xmf,798,-3.00267e-07,3.01591e-06,0,-8.40659e-07,-8.7351e+08,-8.73283e+08,-8.7349e+08,-57669.2,0.00709557,0.0875559,0,0.0878429,17384.4,-31804.5,0,36245.6,57669.2
step02_gravity_refstate-crust.xmf,799,9.13262e-07,1.40926e-06,0,-8.84588e-07,-9.06411e+08,-9.06377e+08,-9.06474e+08,-60682.8,0.00530033,0.106292,0,0.106425,4740.33,-33004.7,0,33343.4,60682.8
step02_gravity_refstate-crust.xmf,800,1.07824e-06,1.25921e-06,0,-9.06142e-07,-9.38536e+08,-9.38523e+08,-9.3861e+08,-62161.3,0.0051783,0.105596,0,0.105722,4079.82,-34174.6,0,34417.3,62161.3
step02_gravity_refstate-crust.xmf,801,-1.88664e-07,3.56674e-06,0,-4.15349e-08,-9.88552e+08,-9.88295e+08,-9.88539e+08,-2849.29,0.00083172,0.0589227,0,0.0589285,34806.7,-35994,0,50070.7,2849.29
step02_gravity_refstate-crust.xmf,802,-9.96132e-08,3.65386e-06,0,-3.36393e-10,-1.03161e+09,-1.03136e+09,-1.03161e+09,-23.0766,8.58868e-21,0.05272,0,0.05272,40000,-37562.2,0,54871.9,23.0766
step02_gravity_refstate-crust.xmf,803,1.68322e-06,5.88393e-07,0,-4.54872e-07,-1.00177e+09,-1.00184e+09,-1.00189e+09,-31204.2,0.00230331,0.106326,0,0.106351,1345.57,-36478.1,0,36503,31204.2
step02_gravity_refstate-crust.xmf,804,1.4332e-06,8.65338e-07,0,-5.85242e-07,-9.6901e+08,-9.69049e+08,-9.69108e+08,-40147.6,0.00312725,0.106643,0,0.106689,2091.97,-35284.9,0,35346.9,40147.6
step02_gravity_refstate-crust.xmf,805,1.85741e-06,4.03759e-07,0,-1.44967e-07,-1.02029e+09,-1.02039e+09,-1.02042e+09,-9944.77,0.000708197,0.10642,0,0.106423,381.636,-37152.9,0,37154.8,9944.77
step02_gravity_refstate-crust.xmf,806,2.0859e-06,1.50749e-07,0,-4.8241e-08,-1.04733e+09,-1.04746e+09,-1.04747e+09,-3309.33,0.000242196,0.106186,0,0.106186,116.523,-38137.6,0,38137.8,3309.33
step02_gravity_refstate-crust.xmf,807,2.331e-06,-1.45949e-07,0,2.70732e-07,-1.07389e+09,-1.07406e+09,-1.07405e+09,18572.2,-0.00116293,0.106096,-0,0.106102,-499.132,-39105.4,-0,39108.6,18572.2
step02_gravity_refstate-crust.xmf,808,-2.40885e-07,3.53158e-06,0,-9.11986e-08,-9.67263e+08,-9.67005e+08,-9.67247e+08,-6256.22,0.00144153,0.0623313,0,0.0623479,32499.1,-35218.7,0,47922.3,6256.22
step02_gravity_refstate-crust.xmf,809,-3.60016e-07,3.25487e-06,0,-3.49887e-07,-8.76416e+08,-8.76168e+08,-8.76391e+08,-24002.3,0.00380945,0.0770156,0,0.0771097,26385,-31910.4,0,41405.8,24002.3
step02_gravity_refstate-crust.xmf,810,-3.16581e-07,3.36953e-06,0,-2.09867e-07,-9.10463e+08,-9.1021e+08,-9.10441e+08,-14396.8,0.00260802,0.0708247,0,0.0708727,29508.1,-33150.2,0,44380.9,14396.8
step02_gravity_refstate-crust.xmf,811,-3.38379e-07,3.16581e-06,0,-9.27954e-07,-9.13826e+08,-9.13586e+08,-9.13803e+08,-63657.6,0.00765291,0.0844407,0,0.0847868,16487,-33272.3,0,37133.1,63657.6
step02_gravity_refstate-crust.xmf,812,1.26574e-06,1.07277e-06,0,-8.95576e-07,-9.68677e+08,-9.6869e+08,-9.68764e+08,-61436.5,0.00490237,0.105205,0,0.105319,3407.82,-35272.4,0,35436.7,61436.5
step02_gravity_refstate-crust.xmf,813,7.38603e-07,1.63857e-06,0,-1.04244e-06,-9.07029e+08,-9.06968e+08,-9.0708e+08,-71511.7,0.00643527,0.104282,0,0.104481,6100.98,-33026.8,0,33585.6,71511.7
step02_gravity_refstate-crust.xmf,814,5.50764e-07,1.8856e-06,0,-1.15849e-06,-9.08447e+08,-9.08355e+08,-9.08485e+08,-79472.5,0.0073512,0.101868,0,0.102133,7481,-33078.1,0,33913.5,79472.5
step02_gravity_refstate-crust.xmf,815,3.57382e-07,2.14399e-06,0,-1.22159e-06,-9.09684e+08,-9.09561e+08,-9.09709e+08,-83801.3,0.00801198,0.0991702,0,0.0994933,8891.74,-33122.7,0,34295.4,83801.3
step02_gravity_refstate-crust.xmf,816,1.72133e-07,2.39717e-06,0,-1.2343e-06,-9.10824e+08,-9.10671e+08,-9.10836e+08,-84672.8,0.00840687,0.0962882,0,0.0966545,10326.9,-33163.9,0,34734.5,84672.8
step02_gravity_refstate-crust.xmf,817,-2.52589e-07,3.01945e-06,0,-1.04067e-06,-9.12988e+08,-9.12763e+08,-9.1297e+08,-71390,0.0081359,0.0873659,0,0.0877439,14860.5,-33241.9,0,36412.3,71390
step02_gravity_refstate-crust.xmf,818,4.62486e-09,2.63285e-06,0,-1.20288e-06,-9.11792e+08,-9.11612e+08,-9.11792e+08,-82517.5,0.00854461,0.0933103,0,0.0937007,11793.4,-33198.8,0,35231.3,82517.5
step02_gravity_refstate-crust.xmf,819,-1.3857e-07,2.84281e-06,0,-1.13542e-06,-9.12608e+08,-9.12403e+08,-9.12598e+08,-77890.1,0.00844587,0.0903012,0,0.0906953,13303.2,-33228.2,0,35792.3,77890.1
step02_gravity_refstate-crust.xmf,820,-7.91747e-08,3.70909e-06,0,5.49563e-10,-1.0514e+09,-1.05114e+09,-1.0514e+09,37.7001,0.000130319,0.0501214,0,0.0501216,38282.6,-38282.8,0,54139.9,37.7001
step02_gravity_refstate-crust.xmf,821,-2.87097e-07,3.54163e-06,0,-1.42563e-07,-9.61096e+08,-9.60834e+08,-9.61076e+08,-9779.86,0.00205583,0.0640265,0,0.0640595,30321.1,-34994,0,46302.8,9779.86
step02_gravity_refstate-crust.xmf,822,-3.5665e-07,3.40109e-06,0,-2.83973e-07,-9.13218e+08,-9.1296e+08,-9.13193e+08,-19480.5,0.00332571,0.0718551,0,0.071932,27328.1,-33250.4,0,43039.7,19480.5
step02_gravity_refstate-crust.xmf,823,-3.9e-07,3.43645e-06,0,-3.57605e-07,-9.19141e+08,-9.18878e+08,-9.19114e+08,-24531.7,0.00398929,0.0725623,0,0.0726719,25462.6,-33466,0,42051.4,24531.7
step02_gravity_refstate-crust.xmf,824,-4.17316e-07,3.44508e-06,0,-4.48384e-07,-9.21079e+08,-9.20814e+08,-9.2105e+08,-30759.1,0.00472073,0.0740146,0,0.074165,23626.6,-33536.4,0,41023.3,30759.1
step02_gravity_refstate-crust.xmf,825,-4.32563e-07,3.42625e-06,0,-5.56101e-07,-9.20752e+08,-9.20487e+08,-9.20722e+08,-38148.5,0.00550293,0.0760472,0,0.0762461,21791.8,-33524.4,0,39984.6,38148.5
step02_gravity_refstate-crust.xmf,826,-4.27292e-07,3.37197e-06,0,-6.78454e-07,-9.18505e+08,-9.18245e+08,-9.18476e+08,-46542,0.00629843,0.0786341,0,0.0788859,19957.1,-33442.6,0,38944.8,46542
step02_gravity_refstate-crust.xmf,827,-3.96069e-07,3.28258e-06,0,-8.05182e-07,-9.15575e+08,-9.15323e+08,-9.15548e+08,-55235.5,0.00703055,0.0815299,0,0.0818325,18183,-33335.9,0,37972.4,55235.5
step02_gravity_refstate-crust.xmf,828,1.06556e-06,1.32397e-06,0,-1.15883e-06,-9.69573e+08,-9.69555e+08,-9.69646e+08,-79495.6,0.00644017,0.103166,0,0.103367,4708.53,-35304.6,0,35617.2,79495.6
step02_gravity_refstate-crust.xmf,829,8.86881e-07,1.50095e-06,0,-1.11018e-06,-9.39034e+08,-9.38992e+08,-9.39095e+08,-76158.4,0.00649189,0.103567,0,0.10377,5407.14,-34192.4,0,34617.3,76158.4
step02_gravity_refstate-crust.xmf,830,-1.962e-07,3.67142e-06,0,-4.62777e-08,-1.01422e+09,-1.01395e+09,-1.0142e+09,-3174.65,0.00102081,0.0560272,0,0.0560365,32951.1,-36928.5,0,49492.3,3174.65
step02_gravity_refstate-crust.xmf,831,-1.06125e-07,3.71128e-06,0,-2.76428e-09,-1.04633e+09,-1.04606e+09,-1.04632e+09,-189.629,0.000326336,0.0509972,0,0.0509983,36309.9,-38097.8,0,52629.4,189.629
step02_gravity_refstate-crust.xmf,832,1.91712e-06,3.41564e-07,0,-4.51298e-07,-1.03375e+09,-1.03386e+09,-1.03388e+09,-30959,0.00219067,0.105916,0,0.105938,1123.9,-37643.1,0,37659.8,30959
step02_gravity_refstate-crust.xmf,833,1.49591e-06,8.19651e-07,0,-8.76435e-07,-9.98483e+08,-9.98529e+08,-9.98585e+08,-60123.5,0.00451886,0.105009,0,0.105106,2764.78,-36358.1,0,36463.1,60123.5
step02_gravity_refstate-crust.xmf,834,2.35212e-06,-1.78107e-07,0,-2.60671e-07,-1.07575e+09,-1.07592e+09,-1.07591e+09,-17882,0.00114864,0.106111,0,0.106117,489.202,-39172.8,0,39175.9,17882
step02_gravity_refstate-crust.xmf,835,-2.42931e-07,3.69208e-06,0,-7.90012e-08,-1.00955e+09,-1.00928e+09,-1.00954e+09,-5419.48,0.00146311,0.0573032,0,0.0573219,31087,-36758.5,0,48141.4,5419.48
step02_gravity_refstate-crust.xmf,836,-3.35016e-07,3.56628e-06,0,-2.04817e-07,-9.59025e+08,-9.58758e+08,-9.59002e+08,-14050.5,0.00271352,0.065426,0,0.0654823,28255.9,-34918.4,0,44918.8,14050.5
step02_gravity_refstate-crust.xmf,837,-4.48989e-07,3.44751e-06,0,-8.87481e-07,-9.54487e+08,-9.5422e+08,-9.54457e+08,-60881.2,0.00755518,0.0782987,0,0.0786623,17227.4,-34752.6,0,38788.2,60881.2
step02_gravity_refstate-crust.xmf,838,-3.82104e-07,3.31055e-06,0,-1.02992e-06,-9.52105e+08,-9.51852e+08,-9.52079e+08,-70652.2,0.00823568,0.0815256,0,0.0819406,15585.6,-34665.9,0,38008.4,70652.2
step02_gravity_refstate-crust.xmf,839,1.26961e-06,1.10865e-06,0,-1.18127e-06,-9.98024e+08,-9.98035e+08,-9.98111e+08,-81035.2,0.00626511,0.103078,0,0.103268,4031.76,-36340.9,0,36563.9,81035.2
step02_gravity_refstate-crust.xmf,840,6.72705e-07,1.78707e-06,0,-1.25089e-06,-9.40486e+08,-9.40409e+08,-9.40532e+08,-85811.3,0.00757577,0.101053,0,0.101336,6759.07,-34244.8,0,34905.5,85811.3
step02_gravity_refstate-crust.xmf,841,4.47888e-07,2.08658e-06,0,-1.33931e-06,-9.42237e+08,-9.42124e+08,-9.42267e+08,-91876.8,0.00839147,0.0981325,0,0.0984906,8152.87,-34308.1,0,35263.5,91876.8
step02_gravity_refstate-crust.xmf,842,2.2915e-07,2.38465e-06,0,-1.36507e-06,-9.43858e+08,-9.4371e+08,-9.43873e+08,-93643.5,0.00889948,0.0949679,0,0.095384,9573.12,-34366.7,0,35675.1,93643.5
step02_gravity_refstate-crust.xmf,843,2.91171e-08,2.66583e-06,0,-1.33641e-06,-9.45599e+08,-9.45419e+08,-9.45601e+08,-91677.5,0.0091105,0.0916398,0,0.0920916,11024.4,-34429.7,0,36151.7,91677.5
step02_gravity_refstate-crust.xmf,844,-2.79862e-07,3.1339e-06,0,-1.15862e-06,-9.4986e+08,-9.49626e+08,-9.49841e+08,-79481.6,0.00874616,0.0848491,0,0.0852987,14016.5,-34584.3,0,37316.7,79481.6
step02_gravity_refstate-crust.xmf,845,-1.42486e-07,2.91801e-06,0,-1.26372e-06,-9.47582e+08,-9.47372e+08,-9.47572e+08,-86691,0.00904801,0.0882439,0,0.0887065,12503.7,-34501.6,0,36697.4,86691
step02_gravity_refstate-crust.xmf,846,-1.3899e-07,3.74519e-06,0,-9.86123e-09,-1.04737e+09,-1.04711e+09,-1.04736e+09,-676.48,0.000579227,0.0512456,0,0.0512488,34119.1,-38135.9,0,51170.9,676.48
step02_gravity_refstate-crust.xmf,847,1.73733e-06,5.44383e-07,0,-8.47435e-07,-1.02718e+09,-1.02727e+09,-1.0273e+09,-58134.1,0.00413555,0.104951,0,0.105032,2232.28,-37403.5,0,37470.1,58134.1
step02_gravity_refstate-crust.xmf,848,2.12363e-06,9.09695e-08,0,-4.7347e-07,-1.05713e+09,-1.05727e+09,-1.05727e+09,-32480.1,0.00214754,0.105813,0,0.105835,997.489,-38494.5,0,38507.4,32480.1
step02_gravity_refstate-crust.xmf,849,-2.96185e-07,3.72547e-06,0,-1.24759e-07,-1.00741e+09,-1.00714e+09,-1.00739e+09,-8558.47,0.00202177,0.0585232,0,0.0585581,29078.6,-36680.5,0,46808.3,8558.47
step02_gravity_refstate-crust.xmf,850,-1.82416e-07,3.80053e-06,0,-2.31879e-08,-1.05161e+09,-1.05133e+09,-1.05159e+09,-1590.69,0.000877723,0.0512477,0,0.0512553,31965.4,-38289.9,0,49878.9,1590.69
step02_gravity_refstate-crust.xmf,851,-3.85647e-07,3.61008e-06,0,-2.76212e-07,-9.62322e+08,-9.62048e+08,-9.62295e+08,-18948.1,0.00339208,0.0663494,0,0.0664361,26295.3,-35038.3,0,43807.8,18948.1
step02_gravity_refstate-crust.xmf,852,-4.31084e-07,3.64134e-06,0,-3.61505e-07,-9.6487e+08,-9.64591e+08,-9.6484e+08,-24799.2,0.00413128,0.0675909,0,0.0677171,24427.2,-35130.9,0,42788.7,24799.2
step02_gravity_refstate-crust.xmf,853,-4.70456e-07,3.65527e-06,0,-4.68061e-07,-9.66303e+08,-9.6602e+08,-9.66271e+08,-32109,0.00496326,0.0693017,0,0.0694793,22556.1,-35183,0,41792.6,32109
step02_gravity_refstate-crust.xmf,854,-4.89987e-07,3.62391e-06,0,-5.96977e-07,-9.6301e+08,-9.62728e+08,-9.62976e+08,-40952.6,0.00585999,0.0719395,0,0.0721778,20730.4,-35063,0,40732.8,40952.6
step02_gravity_refstate-crust.xmf,855,-4.83083e-07,3.54801e-06,0,-7.41326e-07,-9.57546e+08,-9.5727e+08,-9.57513e+08,-50854.9,0.00675243,0.0751695,0,0.0754721,18938.5,-34864,0,39675.7,50854.9
step02_gravity_refstate-crust.xmf,856,1.02352e-06,1.42177e-06,0,-1.42138e-06,-9.99354e+08,-9.99327e+08,-9.99424e+08,-97506.4,0.00769602,0.100629,0,0.100923,5249.32,-36388.8,0,36765.5,97506.4
step02_gravity_refstate-crust.xmf,857,8.27367e-07,1.63e-06,0,-1.35442e-06,-9.71671e+08,-9.71616e+08,-9.71728e+08,-92913.2,0.00772989,0.100564,0,0.10086,6020.85,-35380.5,0,35889.2,92913.2
step02_gravity_refstate-crust.xmf,858,1.98412e-06,2.64171e-07,0,-8.25891e-07,-1.05425e+09,-1.05437e+09,-1.05439e+09,-56656.1,0.00384921,0.105021,0,0.105091,1842.08,-38389.6,0,38433.8,56656.1
step02_gravity_refstate-crust.xmf,859,1.50179e-06,8.38841e-07,0,-1.21062e-06,-1.02518e+09,-1.02522e+09,-1.02528e+09,-83048.8,0.00604817,0.103163,0,0.10334,3436.47,-37330,0,37487.9,83048.8
step02_gravity_refstate-crust.xmf,860,2.25157e-06,-6.57779e-08,0,-7.76844e-07,-1.07693e+09,-1.07709e+09,-1.07709e+09,-53291.5,0.00341159,0.105372,0,0.105427,1466.97,-39215.8,0,39243.2,53291.5
step02_gravity_refstate-crust.xmf,861,-2.39319e-07,3.85676e-06,0,-4.9001e-08,-1.05327e+09,-1.05298e+09,-1.05325e+09,-3361.47,0.00127508,0.0517707,0,0.0517864,29951,-38350.2,0,48660,3361.47
step02_gravity_refstate-crust.xmf,862,-3.55344e-07,3.7687e-06,0,-1.83619e-07,-1.00742e+09,-1.00714e+09,-1.00739e+09,-12596.2,0.00264958,0.0596722,0,0.059731,27151.1,-36680.5,0,45636,12596.2
step02_gravity_refstate-crust.xmf,863,-4.29825e-07,3.44582e-06,0,-1.14862e-06,-9.87703e+08,-9.87438e+08,-9.87674e+08,-78795,0.00884326,0.0789214,0,0.0794153,14693.3,-35961.9,0,38847.8,78795
step02_gravity_refstate-crust.xmf,864,-5.49127e-07,3.72416e-06,0,-8.13454e-07,-9.94265e+08,-9.93972e+08,-9.94227e+08,-55803,0.00721372,0.0718981,0,0.0722591,17941.9,-36200.7,0,40403,55803
step02_gravity_refstate-crust.xmf,865,-5.12916e-07,3.61578e-06,0,-9.84344e-07,-9.92073e+08,-9.9179e+08,-9.92038e+08,-67526,0.00810718,0.0751831,0,0.0756189,16275.1,-36120.9,0,39618.2,67526
step02_gravity_refstate-crust.xmf,866,1.24144e-06,1.1758e-06,0,-1.46103e-06,-1.02395e+09,-1.02395e+09,-1.02403e+09,-100226,0.0075418,0.100981,0,0.101262,4547.5,-37284.6,0,37560.9,100226
step02_gravity_refstate-crust.xmf,867,5.67078e-07,1.98304e-06,0,-1.46838e-06,-9.73944e+08,-9.73847e+08,-9.73983e+08,-100731,0.0087354,0.0974454,0,0.0978362,7387.96,-35462.8,0,36224.2,100731
step02_gravity_refstate-crust.xmf,868,3.03339e-07,2.34004e-06,0,-1.51409e-06,-9.75881e+08,-9.75742e+08,-9.75902e+08,-103867,0.00939692,0.0939329,0,0.0944017,8818.77,-35532.8,0,36610.8,103867
step02_gravity_refstate-crust.xmf,869,6.3074e-08,2.6752e-06,0,-1.49147e-06,-9.78274e+08,-9.78094e+08,-9.78278e+08,-102315,0.00970049,0.0902468,0,0.0907666,10249.2,-35619.4,0,37064.7,102315
step02_gravity_refstate-crust.xmf,870,-1.45899e-07,2.98137e-06,0,-1.41379e-06,-9.81471e+08,-9.81256e+08,-9.81461e+08,-96985.8,0.00968642,0.086375,0,0.0869165,11717.2,-35735.4,0,37607.4,96985.8
step02_gravity_refstate-crust.xmf,871,-3.05815e-07,3.2297e-06,0,-1.29362e-06,-9.83502e+08,-9.83259e+08,-9.83481e+08,-88742.6,0.00937436,0.0827529,0,0.0832822,13175.1,-35809.1,0,38156,88742.6
step02_gravity_refstate-crust.xmf,872,1.75471e-06,5.38821e-07,0,-1.23053e-06,-1.05139e+09,-1.05148e+09,-1.05151e+09,-84414,0.00581242,0.103418,0,0.103581,2919.8,-38285,0,38396.2,84414
step02_gravity_refstate-crust.xmf,873,-3.04175e-07,3.90924e-06,0,-9.18225e-08,-1.05268e+09,-1.0524e+09,-1.05266e+09,-6299.02,0.00181249,0.0528241,0,0.0528552,27985.3,-38328.9,0,47458.2,6299.02
step02_gravity_refstate-crust.xmf,874,-4.20791e-07,3.81962e-06,0,-2.60515e-07,-1.00909e+09,-1.00879e+09,-1.00906e+09,-17871.3,0.00336271,0.060854,0,0.0609469,25257.9,-36741,0,44585.4,17871.3
step02_gravity_refstate-crust.xmf,875,-4.83808e-07,3.86189e-06,0,-3.58559e-07,-1.01098e+09,-1.01068e+09,-1.01095e+09,-24597.1,0.00418991,0.0623232,0,0.0624639,23368.7,-36809.8,0,43601.1,24597.1
step02_gravity_refstate-crust.xmf,876,-5.37643e-07,3.8866e-06,0,-4.87855e-07,-1.01319e+09,-1.01289e+09,-1.01315e+09,-33466.9,0.00518736,0.0642546,0,0.0644636,21373,-36890.1,0,42634.3,33466.9
step02_gravity_refstate-crust.xmf,877,-5.55388e-07,3.80403e-06,0,-6.53889e-07,-9.99432e+08,-9.99133e+08,-9.99394e+08,-44856.8,0.00627636,0.0685942,0,0.0688808,19591.3,-36389,0,41327.7,44856.8
step02_gravity_refstate-crust.xmf,878,1.00135e-06,1.48565e-06,0,-1.62037e-06,-1.0228e+09,-1.02277e+09,-1.02287e+09,-111157,0.0085902,0.0987786,0,0.0991514,5513.03,-37242.5,0,37648.4,111157
step02_gravity_refstate-crust.xmf,879,7.3655e-07,1.78906e-06,0,-1.62872e-06,-1.0068e+09,-1.00673e+09,-1.00685e+09,-111730,0.00902493,0.0972132,0,0.0976312,6531.58,-36659.2,0,37236.6,111730
step02_gravity_refstate-crust.xmf,880,-4.71474e-07,3.54739e-06,0,-1.2824e-06,-1.01743e+09,-1.01715e+09,-1.0174e+09,-87972.8,0.00946511,0.0771215,0,0.0777002,13802.8,-37044.2,0,39532.1,87972.8
step02_gravity_refstate-crust.xmf,881,2.0266e-06,2.13296e-07,0,-1.22142e-06,-1.07576e+09,-1.07588e+09,-1.0759e+09,-83789.2,0.00550021,0.103919,0,0.104065,2451.76,-39172.7,0,39249.3,83789.2
step02_gravity_refstate-crust.xmf,882,1.46522e-06,9.00694e-07,0,-1.54354e-06,-1.04915e+09,-1.04918e+09,-1.04925e+09,-105887,0.0075026,0.101234,0,0.101512,4005.79,-38202.5,0,38411.9,105887
step02_gravity_refstate-crust.xmf,883,-3.77637e-07,3.96952e-06,0,-1.49911e-07,-1.05345e+09,-1.05316e+09,-1.05343e+09,-10283.9,0.00243756,0.0538945,0,0.0539496,26119.3,-38356.7,0,46405.3,10283.9
step02_gravity_refstate-crust.xmf,884,-6.27609e-07,3.97726e-06,0,-7.11906e-07,-1.03187e+09,-1.03155e+09,-1.03183e+09,-48836.7,0.00664318,0.0655258,0,0.0658617,18605.9,-37569.9,0,41924.7,48836.7
step02_gravity_refstate-crust.xmf,885,-5.97555e-07,3.79727e-06,0,-1.10553e-06,-1.03001e+09,-1.02971e+09,-1.02997e+09,-75839.5,0.00870306,0.0720041,0,0.0725281,15320.9,-37502.1,0,40511,75839.5
step02_gravity_refstate-crust.xmf,886,-6.29367e-07,3.90999e-06,0,-8.91723e-07,-1.02964e+09,-1.02933e+09,-1.0296e+09,-61172.2,0.00765647,0.0686271,0,0.0690528,17019.1,-37488.8,0,41171,61172.2
step02_gravity_refstate-crust.xmf,887,1.1531e-06,1.3137e-06,0,-1.74087e-06,-1.04611e+09,-1.0461e+09,-1.04619e+09,-119424,0.00881665,0.0986896,0,0.0990826,5081.06,-38091.4,0,38428.8,119424
step02_gravity_refstate-crust.xmf,888,4.05963e-07,2.2477e-06,0,-1.68197e-06,-1.00659e+09,-1.00647e+09,-1.00662e+09,-115383,0.009878,0.0933172,0,0.0938386,8044.63,-36651.2,0,37523.7,115383
step02_gravity_refstate-crust.xmf,889,1.17817e-07,2.64473e-06,0,-1.66784e-06,-1.00899e+09,-1.00881e+09,-1.00899e+09,-114414,0.0102942,0.089305,0,0.0898964,9456.25,-36737.7,0,37935.2,114414
step02_gravity_refstate-crust.xmf,890,-1.30414e-07,3.0023e-06,0,-1.58194e-06,-1.01126e+09,-1.01105e+09,-1.01125e+09,-108521,0.0103199,0.0851931,0,0.0858159,10897.3,-36820.1,0,38398.8,108521
step02_gravity_refstate-crust.xmf,891,-3.27301e-07,3.30435e-06,0,-1.4474e-06,-1.01413e+09,-1.01388e+09,-1.0141e+09,-99291.6,0.0100201,0.0810831,0,0.0816999,12351.5,-36924,0,38935.1,99291.6
step02_gravity_refstate-crust.xmf,892,1.73062e-06,5.7542e-07,0,-1.62335e-06,-1.07475e+09,-1.07483e+09,-1.07487e+09,-111362,0.00743801,0.101726,0,0.101998,3495.03,-39135.2,0,39291,111362
step02_gravity_refstate-crust.xmf,893,-4.6091e-07,4.03372e-06,0,-2.32472e-07,-1.05437e+09,-1.05406e+09,-1.05434e+09,-15947.6,0.00319549,0.0552288,0,0.0553211,24269.1,-38389.8,0,45417.7,15947.6
step02_gravity_refstate-crust.xmf,894,-5.36921e-07,4.08247e-06,0,-3.36258e-07,-1.05477e+09,-1.05445e+09,-1.05473e+09,-23067.3,0.00405611,0.0568842,0,0.0570287,22517.7,-38404,0,44518.8,23067.3
step02_gravity_refstate-crust.xmf,895,-6.06928e-07,4.00786e-06,0,-5.7425e-07,-1.03456e+09,-1.03424e+09,-1.03452e+09,-39393.6,0.00578113,0.0630598,0,0.0633243,19964.7,-37667.9,0,42631.6,39393.6
step02_gravity_refstate-crust.xmf,896,-6.07727e-07,3.8164e-06,0,-1.24503e-06,-1.04588e+09,-1.04558e+09,-1.04584e+09,-85409.4,0.00936558,0.0721648,0,0.07277,14284.5,-38079.8,0,40670.9,85409.4
step02_gravity_refstate-crust.xmf,897,8.37895e-07,1.7161e-06,0,-1.8155e-06,-1.03781e+09,-1.03775e+09,-1.03787e+09,-124543,0.00962421,0.0962178,0,0.096698,6155.67,-37788.6,0,38286.7,124543
step02_gravity_refstate-crust.xmf,898,-5.06682e-07,3.62695e-06,0,-1.42844e-06,-1.04336e+09,-1.04307e+09,-1.04332e+09,-97990.9,0.0100772,0.0757498,0,0.0764171,12991.6,-37988,0,40148.1,97990.9
step02_gravity_refstate-crust.xmf,899,1.37062e-06,1.02885e-06,0,-1.90695e-06,-1.07302e+09,-1.07304e+09,-1.07312e+09,-130817,0.00903428,0.0989601,0,0.0993717,4560.46,-39071.5,0,39336.8,130817
step02_gravity_refstate-crust.xmf,900,-6.06392e-07,4.14562e-06,0,-4.43806e-07,-1.0615e+09,-1.06117e+09,-1.06146e+09,-30445.1,0.00489695,0.0578279,0,0.0580349,20867.8,-38648.8,0,43922.6,30445.1
step02_gravity_refstate-crust.xmf,901,-6.72292e-07,4.18618e-06,0,-5.85083e-07,-1.06513e+09,-1.06479e+09,-1.06508e+09,-40136.7,0.0058421,0.05947,0,0.0597562,19310.1,-38780.7,0,43322.4,40136.7
step02_gravity_refstate-crust.xmf,902,-7.12584e-07,4.17224e-06,0,-7.57732e-07,-1.06476e+09,-1.06443e+09,-1.06471e+09,-51980.4,0.00689856,0.0620423,0,0.0624247,17790.9,-38767.3,0,42654.6,51980.4
step02_gravity_refstate-crust.xmf,903,-7.27141e-07,4.12371e-06,0,-9.51796e-07,-1.065e+09,-1.06467e+09,-1.06495e+09,-65293.2,0.0079616,0.0648498,0,0.0653367,16314.5,-38776,0,42068.3,65293.2
step02_gravity_refstate-crust.xmf,904,-7.15316e-07,4.05192e-06,0,-1.14735e-06,-1.06725e+09,-1.06692e+09,-1.0672e+09,-78708.5,0.0089265,0.0674765,0,0.0680643,14970.3,-38857.7,0,41641.7,78708.5
step02_gravity_refstate-crust.xmf,905,5.13677e-07,2.11844e-06,0,-1.87534e-06,-1.03505e+09,-1.03494e+09,-1.03508e+09,-128648,0.0103462,0.0929833,0,0.0935572,7350.59,-37687.2,0,38397.4,128648
step02_gravity_refstate-crust.xmf,906,9.57263e-07,1.57204e-06,0,-2.05122e-06,-1.06914e+09,-1.06909e+09,-1.0692e+09,-140714,0.01029,0.095523,0,0.0960756,5757.39,-38929.3,0,39352.7,140714
step02_gravity_refstate-crust.xmf,907,1.80069e-07,2.58424e-06,0,-1.86707e-06,-1.03856e+09,-1.03839e+09,-1.03857e+09,-128081,0.0109107,0.0886497,0,0.0893185,8700.85,-37814.5,0,38802.6,128081
step02_gravity_refstate-crust.xmf,908,-1.09908e-07,3.00397e-06,0,-1.81172e-06,-1.04387e+09,-1.04365e+09,-1.04386e+09,-124284,0.0110775,0.0840735,0,0.0848002,10032.9,-38007.2,0,39309.1,124284
step02_gravity_refstate-crust.xmf,909,-3.40461e-07,3.35327e-06,0,-1.61494e-06,-1.04084e+09,-1.04058e+09,-1.04081e+09,-110785,0.0106583,0.0799156,0,0.0806232,11576.8,-37896.5,0,39625.3,110785
step02_gravity_refstate-crust.xmf,910,-6.65566e-07,3.9276e-06,0,-1.35934e-06,-1.06887e+09,-1.06856e+09,-1.06883e+09,-93250.5,0.00985107,0.0705327,0,0.0712173,13643.9,-38916.8,0,41239.2,93250.5
step02_gravity_refstate-crust.xmf,911,6.52755e-07,1.96477e-06,0,-2.00848e-06,-1.05513e+09,-1.05504e+09,-1.05517e+09,-137782,0.0106116,0.0933111,0,0.0939125,6746.96,-38418.6,0,39006.6,137782
step02_gravity_refstate-crust.xmf,912,-5.64273e-07,3.7371e-06,0,-1.57996e-06,-1.07015e+09,-1.06985e+09,-1.07011e+09,-108385,0.0106808,0.0739976,0,0.0747645,12324.4,-38963.3,0,40866,108385
step02_gravity_refstate-crust.xmf,913,3.6282e-07,2.37182e-06,0,-2.11273e-06,-1.06726e+09,-1.06712e+09,-1.06728e+09,-144934,0.0114642,0.0893344,0,0.090067,7673.26,-38859.8,0,39610.1,144934
step02_gravity_refstate-crust.xmf,914,6.43807e-07,1.99265e-06,0,-2.20103e-06,-1.07671e+09,-1.07662e+09,-1.07675e+09,-150991,0.0112847,0.0919997,0,0.0926892,6672.77,-39204.4,0,39768.2,150991
step02_gravity_refstate-crust.xmf,915,3.68275e-08,2.82048e-06,0,-2.06474e-06,-1.07017e+09,-1.06998e+09,-1.07017e+09,-141641,0.0117674,0.0850807,0,0.0858906,8844.2,-38965.1,0,39956.2,141641
step02_gravity_refstate-crust.xmf,916,-4.01317e-07,3.4675e-06,0,-1.79328e-06,-1.07054e+09,-1.07027e+09,-1.07051e+09,-123019,0.0113269,0.0778835,0,0.0787028,11021.3,-38977.7,0,40505.9,123019
step02_gravity_refstate-crust.xmf,917,-2.4344e-07,3.22729e-06,0,-1.97369e-06,-1.07636e+09,-1.07612e+09,-1.07634e+09,-135395,0.0117879,0.0806211,0,0.0814783,9959.76,-39190,0,40435.8,135395
