Block Name,Point ID,cauchy_strain_0,cauchy_strain_1,cauchy_strain_2,cauchy_strain_3,cauchy_stress_0,cauchy_stress_1,cauchy_stress_2,cauchy_stress_3,displacement_0,displacement_1,displacement_2,displacement_Magnitude,Points_0,Points_1,Points_2,Points_Magnitude,stress_xy
step02_gravity_refstate-mantle.xmf,0,3.70866e-07,1.93262e-06,0,-5.47177e-10,-1.09848e+09,-1.09827e+09,-1.09853e+09,-73.1302,6.52123e-20,0.0476764,0,0.0476764,40000,-40000,0,56568.5,73.1302
step02_gravity_refstate-mantle.xmf,1,3.67819e-07,1.9368e-06,0,-2.01719e-08,-1.09848e+09,-1.09827e+09,-1.09853e+09,-2695.97,-0.000875264,0.0478167,-0,0.0478247,37630.7,-40000,0,54918.8,2695.97
step02_gravity_refstate-mantle.xmf,2,4.23327e-07,2.00624e-06,0,-1.21298e-08,-1.15183e+09,-1.15162e+09,-1.15189e+09,-1621.14,-0.000699394,0.0444954,-0,0.0445009,38351.6,-41648.7,0,56616.7,1621.14
step02_gravity_refstate-mantle.xmf,3,4.49612e-07,2.03623e-06,0,-5.07851e-10,-1.17623e+09,-1.17602e+09,-1.17629e+09,-67.8743,8.83523e-20,0.0429083,0,0.0429083,40000,-42402.6,0,58292.2,67.8743
step02_gravity_refstate-mantle.xmf,4,3.58614e-07,1.95019e-06,0,-4.0204e-08,-1.09848e+09,-1.09827e+09,-1.09853e+09,-5373.27,-0.00169467,0.048215,-0,0.0482448,35375.6,-40000,0,53398.8,5373.27
step02_gravity_refstate-mantle.xmf,5,4.30175e-07,2.03203e-06,0,-2.74033e-08,-1.16395e+09,-1.16374e+09,-1.16401e+09,-3662.46,-0.00163316,0.0440082,-0,0.0440385,36241.6,-42023.2,0,55492.3,3662.46
step02_gravity_refstate-mantle.xmf,6,4.85273e-07,2.0911e-06,0,-1.28859e-08,-1.21484e+09,-1.21463e+09,-1.21491e+09,-1722.2,-0.000934601,0.040529,-0,0.0405398,38076.2,-43595.7,0,57882.4,1722.2
step02_gravity_refstate-mantle.xmf,7,5.23746e-07,2.1409e-06,0,-4.84891e-10,-1.25444e+09,-1.25422e+09,-1.25451e+09,-64.8057,1.04621e-19,0.0378612,0,0.0378612,40000,-44819.1,0,60072.9,64.8057
step02_gravity_refstate-mantle.xmf,8,3.44939e-07,1.97014e-06,0,-6.07482e-08,-1.09848e+09,-1.09826e+09,-1.09853e+09,-8118.99,-0.00245045,0.0488447,-0,0.0489061,33229,-40000,0,52001.6,8118.99
step02_gravity_refstate-mantle.xmf,9,3.9627e-07,2.01489e-06,0,-4.55864e-08,-1.13967e+09,-1.13945e+09,-1.13972e+09,-6092.62,-0.0023098,0.0459624,-0,0.0460204,34324.9,-41272.7,0,53680.9,6092.62
step02_gravity_refstate-mantle.xmf,10,5.53882e-07,2.19489e-06,0,-1.19647e-08,-1.2912e+09,-1.29098e+09,-1.29128e+09,-1599.08,-0.0010994,0.0354777,-0,0.0354948,38017.1,-45955.1,0,59642,1599.08
step02_gravity_refstate-mantle.xmf,11,3.94451e-07,2.04578e-06,0,-6.13658e-08,-1.14826e+09,-1.14803e+09,-1.14831e+09,-8201.54,-0.00307036,0.0460027,-0,0.046105,32548.1,-41538,0,52771.1,8201.54
step02_gravity_refstate-mantle.xmf,12,4.5012e-07,2.08548e-06,0,-4.13284e-08,-1.19209e+09,-1.19187e+09,-1.19215e+09,-5523.54,-0.00262343,0.0426498,-0,0.0427304,34291.5,-42892.6,0,54915.3,5523.54
step02_gravity_refstate-mantle.xmf,13,5.13128e-07,2.15199e-06,0,-2.64534e-08,-1.2514e+09,-1.25119e+09,-1.25147e+09,-3535.49,-0.00215023,0.0384234,-0,0.0384835,35846.8,-44725.4,0,57318,3535.49
step02_gravity_refstate-mantle.xmf,14,5.90142e-07,2.24875e-06,0,-6.88684e-10,-1.3333e+09,-1.33308e+09,-1.33338e+09,-92.0426,1.28952e-19,0.0325125,0,0.0325125,40000,-47256,0,61912.3,92.0426
step02_gravity_refstate-mantle.xmf,15,3.29314e-07,1.99639e-06,0,-8.40344e-08,-1.09848e+09,-1.09826e+09,-1.09853e+09,-11231.2,-0.00313869,0.0496868,-0,0.0497858,31185.8,-40000,0,50720.4,11231.2
step02_gravity_refstate-mantle.xmf,16,5.73926e-07,2.2438e-06,0,-2.16574e-08,-1.31982e+09,-1.3196e+09,-1.3199e+09,-2894.52,-0.00209118,0.0336926,-0,0.0337575,36372.5,-46839.5,0,59303.4,2894.52
step02_gravity_refstate-mantle.xmf,17,6.17709e-07,2.3099e-06,0,-1.27756e-08,-1.37309e+09,-1.37287e+09,-1.37317e+09,-1707.46,-0.00134905,0.0297938,-0,0.0298243,37816,-48485.4,0,61488.9,1707.46
step02_gravity_refstate-mantle.xmf,18,3.10892e-07,2.02733e-06,0,-1.09459e-07,-1.09848e+09,-1.09826e+09,-1.09853e+09,-14629.2,-0.00375898,0.0507273,-0,0.0508664,29241,-40000,0,49548.3,14629.2
step02_gravity_refstate-mantle.xmf,19,3.81703e-07,2.08444e-06,0,-8.832e-08,-1.15128e+09,-1.15105e+09,-1.15133e+09,-11804,-0.00400171,0.046835,-0,0.0470056,30213.4,-41631.4,0,51439.5,11804
step02_gravity_refstate-mantle.xmf,20,4.51673e-07,2.13501e-06,0,-6.29127e-08,-1.20727e+09,-1.20705e+09,-1.20733e+09,-8408.29,-0.0037633,0.0424001,-0,0.0425668,31988.2,-43361.6,0,53883.9,8408.29
step02_gravity_refstate-mantle.xmf,21,5.08602e-07,2.18802e-06,0,-4.62812e-08,-1.25894e+09,-1.25872e+09,-1.25901e+09,-6185.48,-0.00342585,0.0384743,-0,0.0386265,33420.9,-44958.3,0,56019.6,6185.48
step02_gravity_refstate-mantle.xmf,22,5.62025e-07,2.25477e-06,0,-3.46394e-08,-1.31571e+09,-1.31549e+09,-1.31579e+09,-4629.55,-0.00309066,0.0342889,-0,0.0344279,34584.9,-46712.4,0,58122,4629.55
step02_gravity_refstate-mantle.xmf,23,6.46336e-07,2.36146e-06,0,-7.16352e-10,-1.41307e+09,-1.41284e+09,-1.41315e+09,-95.7405,1.2772e-19,0.0268315,0,0.0268315,40000,-49720.5,0,63813.3,95.7405
step02_gravity_refstate-mantle.xmf,24,2.69264e-07,2.09935e-06,0,-1.69101e-07,-1.09849e+09,-1.09824e+09,-1.09852e+09,-22600.3,-0.00480619,0.0533683,-0,0.0535843,25627.4,-40000,0,47505.4,22600.3
step02_gravity_refstate-mantle.xmf,25,3.42743e-07,2.15544e-06,0,-1.49269e-07,-1.14864e+09,-1.1484e+09,-1.14868e+09,-19949.8,-0.00532646,0.0493874,-0,0.0496738,26460,-41549.8,0,49259.7,19949.8
step02_gravity_refstate-mantle.xmf,26,3.16967e-07,2.1836e-06,0,-1.85597e-07,-1.1412e+09,-1.14095e+09,-1.14125e+09,-24805,-0.00577148,0.0513177,-0,0.0516412,24758.1,-41320,0,48169.6,24805
step02_gravity_refstate-mantle.xmf,27,2.91048e-07,2.06232e-06,0,-1.3812e-07,-1.09849e+09,-1.09825e+09,-1.09852e+09,-18459.8,-0.00431351,0.0519569,-0,0.0521357,27389.7,-40000,0,48478.8,18459.8
step02_gravity_refstate-mantle.xmf,28,3.68037e-07,2.12681e-06,0,-1.17871e-07,-1.1554e+09,-1.15517e+09,-1.15545e+09,-15753.4,-0.00479666,0.0477118,-0,0.0479523,28208.9,-41758.9,0,50393.9,15753.4
step02_gravity_refstate-mantle.xmf,29,6.11819e-07,2.32435e-06,0,-2.46236e-08,-1.37338e+09,-1.37316e+09,-1.37347e+09,-3290.94,-0.00253081,0.0299794,-0,0.030086,35890.2,-48494.4,0,60330.9,3290.94
step02_gravity_refstate-mantle.xmf,30,6.68884e-07,2.42838e-06,0,-1.07491e-08,-1.45562e+09,-1.45538e+09,-1.45571e+09,-1436.62,-0.00133078,0.0237399,-0,0.0237772,38011.5,-51035.3,0,63635.5,1436.62
step02_gravity_refstate-mantle.xmf,31,2.50418e-07,2.13955e-06,0,-2.05666e-07,-1.09849e+09,-1.09824e+09,-1.09852e+09,-27487.3,-0.00524267,0.0549565,-0,0.055206,23949.7,-40000,0,46621.8,27487.3
step02_gravity_refstate-mantle.xmf,32,3.66189e-07,2.22146e-06,0,-1.69965e-07,-1.17653e+09,-1.17629e+09,-1.17658e+09,-22715.8,-0.00607551,0.0482611,-0,0.048642,25506.3,-42411.8,0,49490.8,22715.8
step02_gravity_refstate-mantle.xmf,33,4.08588e-07,2.14947e-06,0,-1.00683e-07,-1.18472e+09,-1.18448e+09,-1.18477e+09,-13456.3,-0.00473945,0.0451667,-0,0.0454147,29233,-42664.7,0,51718.9,13456.3
step02_gravity_refstate-mantle.xmf,34,4.47001e-07,2.17492e-06,0,-8.56195e-08,-1.21426e+09,-1.21403e+09,-1.21432e+09,-11443,-0.0046335,0.0427057,-0,0.0429564,30181.4,-43577.5,0,53008.6,11443
step02_gravity_refstate-mantle.xmf,35,5.01726e-07,2.23137e-06,0,-6.82864e-08,-1.2668e+09,-1.26657e+09,-1.26686e+09,-9126.48,-0.00454477,0.038642,-0,0.0389083,31310.7,-45201,0,54986.3,9126.48
step02_gravity_refstate-mantle.xmf,36,5.53281e-07,2.29056e-06,0,-5.3466e-08,-1.32038e+09,-1.32015e+09,-1.32045e+09,-7145.73,-0.0042754,0.0344899,-0,0.0347539,32503.1,-46856.6,0,57026.3,7145.73
step02_gravity_refstate-mantle.xmf,37,6.0054e-07,2.35517e-06,0,-4.03976e-08,-1.37627e+09,-1.37603e+09,-1.37635e+09,-5399.13,-0.0038806,0.0301714,-0,0.03042,33678.5,-48583.5,0,59115.1,5399.13
step02_gravity_refstate-mantle.xmf,38,6.45134e-07,2.39469e-06,0,-1.88588e-08,-1.42487e+09,-1.42464e+09,-1.42496e+09,-2520.48,-0.00232373,0.026159,-0,0.026262,36424.7,-50085.2,0,61929.7,2520.48
step02_gravity_refstate-mantle.xmf,39,6.90879e-07,2.4795e-06,0,-9.60139e-10,-1.49396e+09,-1.49372e+09,-1.49405e+09,-128.323,1.45925e-19,0.0207816,0,0.0207816,40000,-52219.9,0,65779.3,128.323
step02_gravity_refstate-mantle.xmf,40,2.98225e-07,2.22357e-06,0,-2.276e-07,-1.13877e+09,-1.13851e+09,-1.13881e+09,-30418.7,-0.00622748,0.0530925,-0,0.0534565,23134.6,-41244.9,0,47290,30418.7
step02_gravity_refstate-mantle.xmf,41,3.49972e-07,2.26405e-06,0,-2.08976e-07,-1.17654e+09,-1.17629e+09,-1.17659e+09,-27929.6,-0.00664433,0.0496781,-0,0.0501205,23916,-42412.1,0,48690.5,27929.6
step02_gravity_refstate-mantle.xmf,42,4.03962e-07,2.24081e-06,0,-1.50293e-07,-1.20366e+09,-1.20341e+09,-1.20371e+09,-20086.6,-0.00609739,0.0456604,-0,0.0460657,26447,-43250,0,50695.2,20086.6
step02_gravity_refstate-mantle.xmf,43,4.35511e-07,2.21755e-06,0,-1.13933e-07,-1.21793e+09,-1.21769e+09,-1.21799e+09,-15227.1,-0.00548506,0.0434406,-0,0.0437855,28328.4,-43690.9,0,52071.1,15227.1
step02_gravity_refstate-mantle.xmf,44,6.42261e-07,2.42594e-06,0,-3.09807e-08,-1.43278e+09,-1.43254e+09,-1.43286e+09,-4140.58,-0.00346551,0.0258044,-0,0.0260361,34681.7,-50329.5,0,61121.8,4140.58
step02_gravity_refstate-mantle.xmf,45,6.79738e-07,2.50505e-06,0,-2.22835e-08,-1.49394e+09,-1.49369e+09,-1.49403e+09,-2978.19,-0.00294187,0.0210083,-0,0.0212133,35708.3,-52219.1,0,63260.7,2978.19
step02_gravity_refstate-mantle.xmf,46,7.05501e-07,2.54668e-06,0,-9.61961e-09,-1.53448e+09,-1.53424e+09,-1.53458e+09,-1285.66,-0.001514,0.0176866,-0,0.0177513,37855.3,-53471.9,0,65515.4,1285.66
step02_gravity_refstate-mantle.xmf,47,7.23134e-07,2.6032e-06,0,-9.54315e-10,-1.57622e+09,-1.57597e+09,-1.57631e+09,-127.544,1.4804e-19,0.0143228,0,0.0143228,40000,-54761.4,0,67814.5,127.544
step02_gravity_refstate-mantle.xmf,48,2.3349e-07,2.18183e-06,0,-2.47394e-07,-1.09849e+09,-1.09823e+09,-1.09852e+09,-33064.2,-0.00562968,0.0567179,-0,0.0569967,22352.7,-40000,0,45821.8,33064.2
step02_gravity_refstate-mantle.xmf,49,3.92902e-07,2.29691e-06,0,-1.90611e-07,-1.20942e+09,-1.20916e+09,-1.20947e+09,-25475.2,-0.00685148,0.0466028,-0,0.0471038,24748.8,-43427.9,0,49984.9,25475.2
step02_gravity_refstate-mantle.xmf,50,4.91187e-07,2.27802e-06,0,-9.64421e-08,-1.27124e+09,-1.271e+09,-1.27131e+09,-12889.5,-0.00555762,0.0391909,-0,0.039583,29342.2,-45338.3,0,54004.9,12889.5
step02_gravity_refstate-mantle.xmf,51,5.40001e-07,2.33621e-06,0,-7.752e-08,-1.32472e+09,-1.32448e+09,-1.32479e+09,-10360.5,-0.00542344,0.0348865,-0,0.0353056,30455.3,-46990.6,0,55996.8,10360.5
step02_gravity_refstate-mantle.xmf,52,5.86256e-07,2.39813e-06,0,-6.10058e-08,-1.37971e+09,-1.37946e+09,-1.37978e+09,-8153.42,-0.00513639,0.0304667,-0,0.0308966,31590.9,-48689.7,0,58040.3,8153.42
step02_gravity_refstate-mantle.xmf,53,6.26578e-07,2.4607e-06,0,-4.62957e-08,-1.43397e+09,-1.43372e+09,-1.43405e+09,-6187.42,-0.00472744,0.0260985,-0,0.0265232,32697.4,-50366.2,0,60049,6187.42
step02_gravity_refstate-mantle.xmf,54,7.31279e-07,2.67093e-06,0,-6.67059e-09,-1.61633e+09,-1.61607e+09,-1.61642e+09,-891.524,-0.00153069,0.0110871,-0,0.0111922,37907.9,-56000.6,0,67624.5,891.524
step02_gravity_refstate-mantle.xmf,55,7.42249e-07,2.73245e-06,0,-4.92621e-10,-1.66008e+09,-1.65981e+09,-1.66018e+09,-65.8388,1.37663e-19,0.00741138,0,0.00741138,40000,-57352.3,0,69923.4,65.8388
step02_gravity_refstate-mantle.xmf,56,2.84684e-07,2.27089e-06,0,-2.76968e-07,-1.13898e+09,-1.13872e+09,-1.13902e+09,-37016.8,-0.00668763,0.0548774,-0,0.0552834,21569.7,-41251.4,0,46550.3,37016.8
step02_gravity_refstate-mantle.xmf,57,3.37316e-07,2.3162e-06,0,-2.57463e-07,-1.17851e+09,-1.17824e+09,-1.17855e+09,-34410,-0.00721512,0.0511533,-0,0.0516596,22355,-42472.8,0,47996.7,34410
step02_gravity_refstate-mantle.xmf,58,3.81026e-07,2.35981e-06,0,-2.3651e-07,-1.21665e+09,-1.21639e+09,-1.2167e+09,-31609.5,-0.00757352,0.0475435,-0,0.0481429,23165.9,-43651.5,0,49417.7,31609.5
step02_gravity_refstate-mantle.xmf,59,4.30674e-07,2.33831e-06,0,-1.72725e-07,-1.24584e+09,-1.24558e+09,-1.2459e+09,-23084.7,-0.00704936,0.0433907,-0,0.0439596,25492.5,-44553.3,0,51331,23084.7
step02_gravity_refstate-mantle.xmf,60,4.67491e-07,2.3329e-06,0,-1.36584e-07,-1.27059e+09,-1.27035e+09,-1.27066e+09,-18254.4,-0.00663805,0.0405058,-0,0.0410461,27068.7,-45318.3,0,52786.9,18254.4
step02_gravity_refstate-mantle.xmf,61,6.57713e-07,2.51745e-06,0,-3.54271e-08,-1.48154e+09,-1.48129e+09,-1.48163e+09,-4734.83,-0.00426422,0.0222454,-0,0.0226504,33682.4,-51836.2,0,61818.2,4734.83
step02_gravity_refstate-mantle.xmf,62,7.11013e-07,2.63542e-06,0,-1.53897e-08,-1.57973e+09,-1.57947e+09,-1.57982e+09,-2056.83,-0.00299054,0.0141844,-0,0.0144962,35837.7,-54869.7,0,65536.5,2056.83
step02_gravity_refstate-mantle.xmf,63,7.41861e-07,2.77488e-06,0,-1.81506e-09,-1.68417e+09,-1.6839e+09,-1.68427e+09,-242.583,-0.0014188,0.00537494,-0,0.00555905,38092.5,-58096.6,0,69471.2,242.583
step02_gravity_refstate-mantle.xmf,64,7.49624e-07,2.86325e-06,0,-2.8578e-10,-1.74578e+09,-1.7455e+09,-1.74588e+09,-38.1944,-6.06902e-19,-5.2352e-19,-0,8.015e-19,40000,-60000,0,72111,38.1944
step02_gravity_refstate-mantle.xmf,65,2.03901e-07,2.49726e-06,0,-6.62347e-07,-1.09847e+09,-1.09816e+09,-1.0985e+09,-88522.6,-0.00730682,0.0708068,-0,0.0711828,14255.3,-40000,0,42464.3,88522.6
step02_gravity_refstate-mantle.xmf,66,2.08431e-07,2.56961e-06,0,-7.68492e-07,-1.09846e+09,-1.09815e+09,-1.09849e+09,-102709,-0.00753363,0.0737272,-0,0.0741111,13122.5,-40000,0,42097.5,102709
step02_gravity_refstate-mantle.xmf,67,2.4004e-07,2.62441e-06,0,-7.57799e-07,-1.12865e+09,-1.12833e+09,-1.12868e+09,-101280,-0.00843377,0.0699073,-0,0.0704142,13656.1,-40932.8,0,43150.7,101280
step02_gravity_refstate-mantle.xmf,68,2.01266e-07,2.43343e-06,0,-5.69112e-07,-1.09847e+09,-1.09818e+09,-1.0985e+09,-76061.9,-0.00707234,0.0680473,-0,0.0684139,15444.9,-40000,0,42878.2,76061.9
step02_gravity_refstate-mantle.xmf,69,2.44586e-07,2.5483e-06,0,-6.49943e-07,-1.13047e+09,-1.13016e+09,-1.1305e+09,-86864.9,-0.00820568,0.066908,-0,0.0674093,14851.5,-40988.8,0,43596.4,86864.9
step02_gravity_refstate-mantle.xmf,70,2.0144e-07,2.37601e-06,0,-4.87156e-07,-1.09848e+09,-1.09819e+09,-1.09851e+09,-65108.3,-0.00682697,0.0654505,-0,0.0658056,16694.2,-40000,0,43343.9,65108.3
step02_gravity_refstate-mantle.xmf,71,2.48891e-07,2.48122e-06,0,-5.55011e-07,-1.13199e+09,-1.13169e+09,-1.13202e+09,-74177.2,-0.00795375,0.06417,-0,0.064661,16075.5,-41035.6,0,44072,74177.2
step02_gravity_refstate-mantle.xmf,72,2.05022e-07,2.3234e-06,0,-4.15496e-07,-1.09848e+09,-1.0982e+09,-1.09851e+09,-55531.1,-0.00656625,0.0630177,-0,0.0633589,18006.4,-40000,0,43866,55531.1
step02_gravity_refstate-mantle.xmf,73,2.52412e-07,2.42095e-06,0,-4.71265e-07,-1.13279e+09,-1.1325e+09,-1.13282e+09,-62984.6,-0.00765922,0.0616535,-0,0.0621274,17359,-41060.3,0,44579,62984.6
step02_gravity_refstate-mantle.xmf,74,2.23061e-07,2.22744e-06,0,-2.97446e-07,-1.09849e+09,-1.09822e+09,-1.09852e+09,-39753.7,-0.00597433,0.0586498,-0,0.0589533,20832.2,-40000,0,45099.7,39753.7
step02_gravity_refstate-mantle.xmf,75,2.12353e-07,2.27417e-06,0,-3.52606e-07,-1.09849e+09,-1.09821e+09,-1.09851e+09,-47125.8,-0.00628419,0.0607503,-0,0.0610745,19384.6,-40000,0,44449.6,47125.8
step02_gravity_refstate-mantle.xmf,76,2.76562e-07,2.32324e-06,0,-3.37838e-07,-1.13874e+09,-1.13847e+09,-1.13878e+09,-45152.1,-0.00710278,0.0568892,-0,0.0573309,20060.5,-41244.1,0,45864,45152.1
step02_gravity_refstate-mantle.xmf,77,2.62605e-07,2.37171e-06,0,-4.00255e-07,-1.13618e+09,-1.1359e+09,-1.13622e+09,-53494.1,-0.00740581,0.0591295,-0,0.0595915,18695.5,-41165,0,45211.5,53494.1
step02_gravity_refstate-mantle.xmf,78,4.21045e-07,2.40022e-06,0,-2.13734e-07,-1.25393e+09,-1.25366e+09,-1.25398e+09,-28565.6,-0.00776687,0.043971,-0,0.0446517,24057.7,-44803.2,0,50853.7,28565.6
step02_gravity_refstate-mantle.xmf,79,5.22905e-07,2.39379e-06,0,-1.10805e-07,-1.32835e+09,-1.3281e+09,-1.32842e+09,-14809.1,-0.00654258,0.0355351,-0,0.0361324,28400.9,-47102.8,0,55002.6,14809.1
step02_gravity_refstate-mantle.xmf,80,5.6676e-07,2.45167e-06,0,-8.72422e-08,-1.38283e+09,-1.38258e+09,-1.38291e+09,-11659.9,-0.00632154,0.030935,-0,0.0315743,29568.4,-48786.2,0,57047.2,11659.9
step02_gravity_refstate-mantle.xmf,81,6.07608e-07,2.51398e-06,0,-6.71289e-08,-1.4386e+09,-1.43835e+09,-1.43868e+09,-8971.78,-0.0059929,0.0262706,-0,0.0269455,30681.3,-50509.5,0,59097.8,8971.78
step02_gravity_refstate-mantle.xmf,82,6.45239e-07,2.57521e-06,0,-4.79615e-08,-1.49483e+09,-1.49457e+09,-1.49492e+09,-6410.05,-0.00548498,0.0215438,-0,0.0222311,31876.1,-52246.7,0,61203,6410.05
step02_gravity_refstate-mantle.xmf,83,6.82149e-07,2.62398e-06,0,-2.92183e-08,-1.54879e+09,-1.54854e+09,-1.54889e+09,-3905.03,-0.00457331,0.0169318,-0,0.0175385,33486.5,-53914.1,0,63467.1,3905.03
step02_gravity_refstate-mantle.xmf,84,7.29819e-07,2.76876e-06,0,-7.16218e-09,-1.66692e+09,-1.66665e+09,-1.66702e+09,-957.225,-0.00300398,0.00689927,-0,0.00752488,35929.2,-57563.6,0,67856.3,957.225
step02_gravity_refstate-mantle.xmf,85,7.43464e-07,2.87614e-06,0,-5.87456e-10,-1.74578e+09,-1.7455e+09,-1.74588e+09,-78.5134,-0.00198639,-6.71894e-19,-0,0.00198639,37337.5,-60000,0,70668.9,78.5134
step02_gravity_refstate-mantle.xmf,86,2.12728e-07,2.65493e-06,0,-8.88111e-07,-1.09845e+09,-1.09813e+09,-1.09848e+09,-118696,-0.00775352,0.0768068,-0,0.0771971,12043.8,-40000,0,41773.8,118696
step02_gravity_refstate-mantle.xmf,87,2.35815e-07,2.71619e-06,0,-8.83847e-07,-1.12693e+09,-1.1266e+09,-1.12696e+09,-118126,-0.00865204,0.0731668,-0,0.0736765,12483.2,-40880,0,42743.5,118126
step02_gravity_refstate-mantle.xmf,88,2.13059e-07,2.75693e-06,0,-1.02336e-06,-1.09845e+09,-1.09811e+09,-1.09847e+09,-136772,-0.00796699,0.0800424,-0,0.0804379,11016.2,-40000,0,41489.2,136772
step02_gravity_refstate-mantle.xmf,89,2.2821e-07,2.81992e-06,0,-1.02273e-06,-1.1243e+09,-1.12395e+09,-1.12433e+09,-136688,-0.00881464,0.0766411,-0,0.0771463,11382.2,-40798.8,0,42356.8,136688
step02_gravity_refstate-mantle.xmf,90,3.24831e-07,2.37723e-06,0,-3.18289e-07,-1.18058e+09,-1.18031e+09,-1.18063e+09,-42539.4,-0.00778096,0.0528996,-0,0.0534688,20765,-42537,0,47334.8,42539.4
step02_gravity_refstate-mantle.xmf,91,3.65576e-07,2.42508e-06,0,-2.94884e-07,-1.21951e+09,-1.21923e+09,-1.21955e+09,-39411.3,-0.00821309,0.0490229,-0,0.0497061,21578.6,-43739.7,0,48772.9,39411.3
step02_gravity_refstate-mantle.xmf,92,4.02004e-07,2.4719e-06,0,-2.67273e-07,-1.25926e+09,-1.25898e+09,-1.25931e+09,-35721,-0.00850192,0.0450745,-0,0.0458693,22451.9,-44968,0,50261.4,35721
step02_gravity_refstate-mantle.xmf,93,4.59007e-07,2.4322e-06,0,-1.83734e-07,-1.2916e+09,-1.29133e+09,-1.29166e+09,-24556.1,-0.00776832,0.0402837,-0,0.0410259,25140.4,-45967.2,0,52393,24556.1
step02_gravity_refstate-mantle.xmf,94,4.99301e-07,2.46684e-06,0,-1.5057e-07,-1.33461e+09,-1.33435e+09,-1.33468e+09,-20123.7,-0.00762834,0.0361827,-0,0.0369781,26384.8,-47296.4,0,54158.1,20123.7
step02_gravity_refstate-mantle.xmf,95,7.05657e-07,2.72184e-06,0,-1.73876e-08,-1.61811e+09,-1.61784e+09,-1.61821e+09,-2323.86,-0.00423279,0.0111348,-0,0.0119122,34154.8,-56055.7,0,65641.4,2323.86
step02_gravity_refstate-mantle.xmf,96,2.09992e-07,2.87766e-06,0,-1.17274e-06,-1.09844e+09,-1.09808e+09,-1.09846e+09,-156737,-0.00816938,0.0834295,-0,0.0838285,10037.4,-40000,0,41240.1,156737
step02_gravity_refstate-mantle.xmf,97,2.11216e-07,2.90884e-06,0,-1.14013e-06,-1.11881e+09,-1.11845e+09,-1.11884e+09,-152379,-0.00881908,0.0799456,-0,0.0804306,10512.1,-40629.5,0,41967.4,152379
step02_gravity_refstate-mantle.xmf,98,2.43378e-07,2.78163e-06,0,-8.6701e-07,-1.15659e+09,-1.15625e+09,-1.15662e+09,-115876,-0.00941045,0.0693366,-0,0.0699723,12967.9,-41796.4,0,43761.9,115876
step02_gravity_refstate-mantle.xmf,99,2.58452e-07,2.68422e-06,0,-7.37208e-07,-1.16034e+09,-1.16001e+09,-1.16037e+09,-98527.9,-0.00919653,0.0659021,-0,0.0665407,14237,-41912,0,44264.1,98527.9
step02_gravity_refstate-mantle.xmf,100,2.80439e-07,2.52664e-06,0,-5.30674e-07,-1.16438e+09,-1.16408e+09,-1.16442e+09,-70924.6,-0.0086209,0.0602974,-0,0.0609105,16780.3,-42036.6,0,45262,70924.6
step02_gravity_refstate-mantle.xmf,101,2.71378e-07,2.62539e-06,0,-6.41537e-07,-1.16872e+09,-1.16841e+09,-1.16876e+09,-85741.5,-0.00911294,0.0627158,-0,0.0633744,15373,-42171,0,44885.7,85741.5
step02_gravity_refstate-mantle.xmf,102,2.83703e-07,2.45529e-06,0,-4.51311e-07,-1.16009e+09,-1.1598e+09,-1.16013e+09,-60317.7,-0.00818398,0.0585345,-0,0.0591039,17969.7,-41903.9,0,45594.3,60317.7
step02_gravity_refstate-mantle.xmf,103,3.13295e-07,2.44585e-06,0,-3.98848e-07,-1.17975e+09,-1.17946e+09,-1.17979e+09,-53306.1,-0.00828659,0.055237,-0,0.0558551,19116.2,-42511.3,0,46611.6,53306.1
step02_gravity_refstate-mantle.xmf,104,4.38337e-07,2.51431e-06,0,-2.35543e-07,-1.29973e+09,-1.29945e+09,-1.29979e+09,-31480.3,-0.0086224,0.0410221,-0,0.0419185,23449.3,-46218.5,0,51826.8,31480.3
step02_gravity_refstate-mantle.xmf,105,5.42265e-07,2.51808e-06,0,-1.22362e-07,-1.38548e+09,-1.38521e+09,-1.38555e+09,-16353.7,-0.00744187,0.031606,-0,0.0324703,27579.7,-48867.9,0,56113.4,16353.7
step02_gravity_refstate-mantle.xmf,106,5.80425e-07,2.57807e-06,0,-9.46015e-08,-1.4411e+09,-1.44083e+09,-1.44118e+09,-12643.5,-0.00720233,0.0267531,-0,0.0277057,28667.9,-50586.6,0,58145.1,12643.5
step02_gravity_refstate-mantle.xmf,107,6.17505e-07,2.63849e-06,0,-6.93953e-08,-1.49787e+09,-1.4976e+09,-1.49795e+09,-9274.68,-0.006813,0.0218085,-0,0.0228479,29791.4,-52340.5,0,60225.1,9274.68
step02_gravity_refstate-mantle.xmf,108,6.52745e-07,2.69762e-06,0,-4.60564e-08,-1.55594e+09,-1.55567e+09,-1.55603e+09,-6155.44,-0.00624685,0.0167388,-0,0.0178665,31006.4,-54134.7,0,62385.6,6155.44
step02_gravity_refstate-mantle.xmf,109,6.82679e-07,2.76463e-06,0,-2.65633e-08,-1.61714e+09,-1.61686e+09,-1.61723e+09,-3550.18,-0.00560815,0.0114018,-0,0.0127064,32171.7,-56025.6,0,64605.6,3550.18
step02_gravity_refstate-mantle.xmf,110,7.07657e-07,2.83306e-06,0,-1.09486e-08,-1.67921e+09,-1.67892e+09,-1.6793e+09,-1463.27,-0.00481704,0.005938,-0,0.00764616,33418.1,-57943.1,0,66889.3,1463.27
step02_gravity_refstate-mantle.xmf,111,7.25815e-07,2.91002e-06,0,-2.68083e-10,-1.74578e+09,-1.74549e+09,-1.74588e+09,-35.8293,-0.00386064,-5.77045e-19,-0,0.00386064,34785.7,-60000,0,69354.5,35.8293
step02_gravity_refstate-mantle.xmf,112,1.77032e-07,3.20707e-06,0,-1.52751e-06,-1.09842e+09,-1.09801e+09,-1.09844e+09,-204152,-0.00851693,0.090632,-0,0.0910313,8215.82,-40000,0,40835,204152
step02_gravity_refstate-mantle.xmf,113,1.28475e-07,3.43179e-06,0,-1.72596e-06,-1.09841e+09,-1.09797e+09,-1.09842e+09,-230675,-0.00864154,0.0944272,-0,0.0948217,7368.31,-40000,0,40673,230675
step02_gravity_refstate-mantle.xmf,114,1.00466e-07,3.48768e-06,0,-1.69228e-06,-1.1192e+09,-1.11875e+09,-1.11921e+09,-226174,-0.0093051,0.0908057,-0,0.0912812,7678.96,-40642.2,0,41361.3,226174
step02_gravity_refstate-mantle.xmf,115,2.01303e-07,3.02426e-06,0,-1.34104e-06,-1.09843e+09,-1.09805e+09,-1.09845e+09,-179229,-0.00835552,0.0869622,-0,0.0873627,9104.73,-40000,0,41023.1,179229
step02_gravity_refstate-mantle.xmf,116,1.38748e-07,3.29852e-06,0,-1.49683e-06,-1.12752e+09,-1.1271e+09,-1.12754e+09,-200051,-0.0094447,0.0860706,-0,0.0865872,8612.19,-40899,0,41795.9,200051
step02_gravity_refstate-mantle.xmf,117,1.91374e-07,3.06543e-06,0,-1.29212e-06,-1.12394e+09,-1.12355e+09,-1.12396e+09,-172692,-0.00916184,0.0824792,-0,0.0829865,9653.8,-40788.1,0,41915,172692
step02_gravity_refstate-mantle.xmf,118,2.21155e-07,2.9114e-06,0,-1.01913e-06,-1.15479e+09,-1.15443e+09,-1.15482e+09,-136207,-0.00964656,0.0729142,-0,0.0735496,11723.6,-41741,0,43356.1,136207
step02_gravity_refstate-mantle.xmf,119,1.93716e-07,3.0501e-06,0,-1.19074e-06,-1.14808e+09,-1.14769e+09,-1.1481e+09,-159142,-0.00971507,0.0772976,-0,0.0779058,10498.1,-41533.7,0,42839.9,159142
step02_gravity_refstate-mantle.xmf,120,3.07339e-07,2.55318e-06,0,-4.88535e-07,-1.19399e+09,-1.19369e+09,-1.19403e+09,-65292.7,-0.00903143,0.0563962,-0,0.0571148,17678.5,-42951.4,0,46447.3,65292.7
step02_gravity_refstate-mantle.xmf,121,3.48973e-07,2.50035e-06,0,-3.64872e-07,-1.22276e+09,-1.22248e+09,-1.22281e+09,-48765.1,-0.00882145,0.0506648,-0,0.051427,20034.7,-43840.4,0,48201.4,48765.1
step02_gravity_refstate-mantle.xmf,122,3.79927e-07,2.55127e-06,0,-3.3278e-07,-1.26277e+09,-1.26248e+09,-1.26282e+09,-44476.1,-0.00916615,0.0464912,-0,0.0473862,20885.8,-45076.7,0,49680.2,44476.1
step02_gravity_refstate-mantle.xmf,123,4.0937e-07,2.6007e-06,0,-2.96122e-07,-1.30442e+09,-1.30413e+09,-1.30448e+09,-39576.8,-0.00938107,0.0421938,-0,0.0432241,21794.6,-46363.5,0,51230.7,39576.8
step02_gravity_refstate-mantle.xmf,124,4.73091e-07,2.55453e-06,0,-2.00737e-07,-1.34191e+09,-1.34163e+09,-1.34197e+09,-26828.6,-0.00861368,0.0368767,-0,0.0378693,24504.4,-47521.7,0,53467.6,26828.6
step02_gravity_refstate-mantle.xmf,125,5.08997e-07,2.60014e-06,0,-1.63866e-07,-1.38976e+09,-1.38948e+09,-1.38982e+09,-21900.6,-0.00850714,0.0323297,-0,0.0334302,25614.8,-49000.1,0,55291.3,21900.6
step02_gravity_refstate-mantle.xmf,126,5.1882e-08,3.70796e-06,0,-1.93395e-06,-1.0984e+09,-1.09791e+09,-1.09841e+09,-258472,-0.008713,0.0983318,-0,0.0987171,6559.91,-40000,0,40534.3,258472
step02_gravity_refstate-mantle.xmf,127,4.16033e-08,3.68416e-06,0,-1.85509e-06,-1.11441e+09,-1.11392e+09,-1.11441e+09,-247933,-0.00920938,0.0944913,-0,0.094939,6976.96,-40494.3,0,41091,247933
step02_gravity_refstate-mantle.xmf,128,2.42096e-07,2.84672e-06,0,-8.41811e-07,-1.186e+09,-1.18565e+09,-1.18603e+09,-112508,-0.0100183,0.0655737,-0,0.0663346,13449.1,-42705.1,0,44772.8,112508
step02_gravity_refstate-mantle.xmf,129,2.12837e-07,2.96688e-06,0,-9.78319e-07,-1.18284e+09,-1.18247e+09,-1.18287e+09,-130752,-0.0102152,0.0688765,-0,0.0696299,12258.5,-42607.5,0,44335.9,130752
step02_gravity_refstate-mantle.xmf,130,2.59063e-07,2.76315e-06,0,-7.4313e-07,-1.18779e+09,-1.18745e+09,-1.18782e+09,-99319.3,-0.0098185,0.063193,-0,0.0639512,14413,-42760.1,0,45123.8,99319.3
step02_gravity_refstate-mantle.xmf,131,2.91961e-07,2.65692e-06,0,-5.87832e-07,-1.20102e+09,-1.20071e+09,-1.20106e+09,-78563.7,-0.00958311,0.0582074,-0,0.058991,16324.2,-43168.9,0,46152.3,78563.7
step02_gravity_refstate-mantle.xmf,132,4.39325e-07,2.64868e-06,0,-2.58022e-07,-1.34726e+09,-1.34696e+09,-1.34732e+09,-34484.6,-0.00946919,0.0378351,-0,0.0390021,22747,-47687,0,52834.4,34484.6
step02_gravity_refstate-mantle.xmf,133,5.45831e-07,2.65718e-06,0,-1.31067e-07,-1.44301e+09,-1.44272e+09,-1.44308e+09,-17517.1,-0.00832872,0.0274341,-0,0.0286705,26686.9,-50645.4,0,57246.4,17517.1
step02_gravity_refstate-mantle.xmf,134,5.80022e-07,2.71643e-06,0,-9.74012e-08,-1.49958e+09,-1.49929e+09,-1.49965e+09,-13017.7,-0.00805536,0.022311,-0,0.0237206,27729.3,-52393.2,0,59278.7,13017.7
step02_gravity_refstate-mantle.xmf,135,6.14254e-07,2.77597e-06,0,-6.66763e-08,-1.5582e+09,-1.55791e+09,-1.55828e+09,-8911.29,-0.00763821,0.0170124,-0,0.0186485,28821.1,-54204.6,0,61390.5,8911.29
step02_gravity_refstate-mantle.xmf,136,6.46483e-07,2.83651e-06,0,-3.92575e-08,-1.6191e+09,-1.61881e+09,-1.61919e+09,-5246.76,-0.00708505,0.0115125,-0,0.013518,29954.9,-56086.1,0,63584.2,5246.76
step02_gravity_refstate-mantle.xmf,137,6.74752e-07,2.89853e-06,0,-1.67108e-08,-1.6815e+09,-1.6812e+09,-1.68159e+09,-2233.4,-0.00640084,0.00586147,-0,0.00867915,31129.5,-58013.9,0,65838.1,2233.4
step02_gravity_refstate-mantle.xmf,138,6.96703e-07,2.96507e-06,0,-1.09224e-10,-1.74578e+09,-1.74548e+09,-1.74588e+09,-14.5978,-0.00560143,-5.68941e-19,-0,0.00560143,32337.8,-60000,0,68159.6,14.5978
step02_gravity_refstate-mantle.xmf,139,-7.07196e-08,3.99275e-06,0,-2.03318e-06,-1.11841e+09,-1.11786e+09,-1.1184e+09,-271734,-0.00930768,0.0972889,-0,0.0977331,6289.1,-40617.9,0,41101.9,271734
step02_gravity_refstate-mantle.xmf,140,-5.55375e-08,3.85531e-06,0,-1.86084e-06,-1.13763e+09,-1.13711e+09,-1.13762e+09,-248702,-0.00978749,0.0917345,-0,0.0922551,6988.54,-41211.4,0,41799.7,248702
step02_gravity_refstate-mantle.xmf,141,3.32682e-08,3.59686e-06,0,-1.6674e-06,-1.14214e+09,-1.14166e+09,-1.14214e+09,-222847,-0.0098938,0.0875093,-0,0.0880668,7866.07,-41350.6,0,42092.1,222847
step02_gravity_refstate-mantle.xmf,142,1.26084e-07,3.28997e-06,0,-1.38777e-06,-1.15329e+09,-1.15287e+09,-1.15331e+09,-185475,-0.0100309,0.0806911,-0,0.0813122,9348.83,-41694.9,0,42730.1,185475
step02_gravity_refstate-mantle.xmf,143,1.71396e-07,3.11589e-06,0,-1.14062e-06,-1.17769e+09,-1.1773e+09,-1.17772e+09,-152443,-0.0103371,0.0728436,-0,0.0735734,11022.2,-42448.6,0,43856.3,152443
step02_gravity_refstate-mantle.xmf,144,2.69754e-07,2.77157e-06,0,-6.93431e-07,-1.20773e+09,-1.2074e+09,-1.20777e+09,-92677.1,-0.010064,0.060031,-0,0.0608687,15097.5,-43376.3,0,45928.6,92677.1
step02_gravity_refstate-mantle.xmf,145,2.38072e-07,2.90015e-06,0,-8.05966e-07,-1.21375e+09,-1.21339e+09,-1.21378e+09,-107717,-0.0104715,0.0619447,-0,0.0628235,13952.1,-43562.3,0,45742,107717
step02_gravity_refstate-mantle.xmf,146,3.33384e-07,2.58986e-06,0,-4.47285e-07,-1.22777e+09,-1.22747e+09,-1.22782e+09,-59779.7,-0.00940488,0.0522906,-0,0.0531297,18583.5,-43995.2,0,47759,59779.7
step02_gravity_refstate-mantle.xmf,147,3.0943e-07,2.69443e-06,0,-5.40459e-07,-1.23354e+09,-1.23322e+09,-1.23358e+09,-72232.4,-0.0099594,0.0540303,-0,0.0549405,17172.1,-44173.5,0,47393.9,72232.4
step02_gravity_refstate-mantle.xmf,148,3.54063e-07,2.63966e-06,0,-4.08019e-07,-1.26589e+09,-1.26559e+09,-1.26594e+09,-54531.8,-0.00976048,0.0480769,-0,0.0490577,19395,-45173.1,0,49160.7,54531.8
step02_gravity_refstate-mantle.xmf,149,3.76033e-07,2.69461e-06,0,-3.66991e-07,-1.30731e+09,-1.307e+09,-1.30736e+09,-49048.4,-0.0100321,0.0436364,-0,0.0447747,20228.9,-46452.6,0,50666.1,49048.4
step02_gravity_refstate-mantle.xmf,150,3.97756e-07,2.74915e-06,0,-3.23117e-07,-1.35038e+09,-1.35006e+09,-1.35043e+09,-43184.5,-0.0102009,0.03911,-0,0.0404184,21074.8,-47783.3,0,52224.4,43184.5
step02_gravity_refstate-mantle.xmf,151,4.70584e-07,2.69259e-06,0,-2.16165e-07,-1.39227e+09,-1.39198e+09,-1.39234e+09,-28890.4,-0.00942835,0.0333184,-0,0.0346267,23775,-49077.9,0,54533.3,28890.4
step02_gravity_refstate-mantle.xmf,152,5.0132e-07,2.75033e-06,0,-1.73006e-07,-1.44542e+09,-1.44512e+09,-1.44549e+09,-23122.2,-0.00935222,0.0282214,-0,0.0297306,24760.5,-50720.1,0,56441.2,23122.2
step02_gravity_refstate-mantle.xmf,153,-1.09388e-06,6.32496e-06,0,-2.88663e-06,-1.09843e+09,-1.09744e+09,-1.09829e+09,-385799,-0.00742754,0.118395,-0,0.118628,3021.01,-40000,0,40113.9,385799
step02_gravity_refstate-mantle.xmf,154,-1.61215e-06,7.22753e-06,0,-2.86455e-06,-1.09847e+09,-1.09729e+09,-1.09825e+09,-382848,-0.00658579,0.122101,-0,0.122279,2394.25,-40000,0,40071.6,382848
step02_gravity_refstate-mantle.xmf,155,-1.50321e-06,6.8029e-06,0,-2.66775e-06,-1.11531e+09,-1.1142e+09,-1.11511e+09,-356544,-0.0070938,0.116575,-0,0.11679,2736.82,-40520,0,40612.3,356544
step02_gravity_refstate-mantle.xmf,156,-1.06119e-06,6.05235e-06,0,-2.68649e-06,-1.11551e+09,-1.11456e+09,-1.11537e+09,-359050,-0.00789576,0.113146,-0,0.113422,3366.33,-40526.9,0,40666.5,359050
step02_gravity_refstate-mantle.xmf,157,-7.11626e-07,5.58639e-06,0,-2.77184e-06,-1.09841e+09,-1.09757e+09,-1.09832e+09,-370456,-0.00801293,0.114472,-0,0.114752,3670.37,-40000,0,40168,370456
step02_gravity_refstate-mantle.xmf,158,-5.47802e-08,4.04888e-06,0,-2.15669e-06,-1.0984e+09,-1.09785e+09,-1.09839e+09,-288242,-0.00871302,0.102323,-0,0.102694,5788.3,-40000,0,40416.6,288242
step02_gravity_refstate-mantle.xmf,159,4.2413e-08,3.53345e-06,0,-1.56404e-06,-1.15634e+09,-1.15588e+09,-1.15635e+09,-209034,-0.0101783,0.0838018,-0,0.0844177,8412.05,-41789.3,0,42627.6,209034
step02_gravity_refstate-mantle.xmf,160,1.09808e-07,3.30468e-06,0,-1.30002e-06,-1.17827e+09,-1.17785e+09,-1.17829e+09,-173747,-0.0104956,0.0760467,-0,0.0767676,9969.35,-42466.6,0,43621.1,173747
step02_gravity_refstate-mantle.xmf,161,1.99949e-07,3.02799e-06,0,-9.33372e-07,-1.21249e+09,-1.21211e+09,-1.21251e+09,-124745,-0.0107025,0.0647978,-0,0.0656757,12779.2,-43523.4,0,45360.7,124745
step02_gravity_refstate-mantle.xmf,162,1.50197e-07,3.17663e-06,0,-1.0767e-06,-1.20912e+09,-1.20872e+09,-1.20914e+09,-143901,-0.0108455,0.0681339,-0,0.0689916,11605.9,-43419.5,0,44943.9,143901
step02_gravity_refstate-mantle.xmf,163,2.78472e-07,2.80882e-06,0,-6.41587e-07,-1.23819e+09,-1.23785e+09,-1.23823e+09,-85748.1,-0.0104246,0.0559249,-0,0.0568882,15860.7,-44317.3,0,47070,85748.1
step02_gravity_refstate-mantle.xmf,164,4.22705e-07,2.80044e-06,0,-2.76145e-07,-1.3955e+09,-1.39519e+09,-1.39556e+09,-36906.8,-0.0102488,0.0344038,-0,0.0358979,21997.2,-49177.7,0,53873.2,36906.8
step02_gravity_refstate-mantle.xmf,165,5.33091e-07,2.81221e-06,0,-1.33009e-07,-1.50161e+09,-1.50131e+09,-1.50169e+09,-17776.6,-0.00917256,0.0229065,-0,0.0246747,25739.5,-52456.2,0,58430.9,17776.6
step02_gravity_refstate-mantle.xmf,166,5.65302e-07,2.86934e-06,0,-9.242e-08,-1.55953e+09,-1.55922e+09,-1.5596e+09,-12351.9,-0.0088714,0.0174592,-0,0.0195838,26737.7,-54245.4,0,60477,12351.9
step02_gravity_refstate-mantle.xmf,167,5.98124e-07,2.92722e-06,0,-5.56373e-08,-1.62055e+09,-1.62024e+09,-1.62063e+09,-7435.93,-0.00843597,0.011738,-0,0.014455,27789,-56130.8,0,62633,7435.93
step02_gravity_refstate-mantle.xmf,168,6.29063e-07,2.9831e-06,0,-2.44319e-08,-1.68251e+09,-1.68219e+09,-1.68259e+09,-3265.32,-0.00787027,0.00593494,-0,0.00985721,28876.9,-58045,0,64831.3,3265.32
step02_gravity_refstate-mantle.xmf,169,6.55373e-07,3.04081e-06,0,6.28681e-11,-1.74579e+09,-1.74547e+09,-1.74587e+09,8.40232,-0.00719048,-5.75449e-19,-0,0.00719048,29987.4,-60000,0,67076.4,8.40232
step02_gravity_refstate-mantle.xmf,170,-2.21972e-06,8.22986e-06,0,-2.63519e-06,-1.09852e+09,-1.09712e+09,-1.09822e+09,-352193,-0.00543169,0.125435,-0,0.125552,1785.26,-40000,0,40039.8,352193
step02_gravity_refstate-mantle.xmf,171,-2.03131e-06,7.65251e-06,0,-2.48341e-06,-1.11541e+09,-1.11411e+09,-1.11513e+09,-331908,-0.0059765,0.119761,-0,0.11991,2099.13,-40521.4,0,40575.8,331908
step02_gravity_refstate-mantle.xmf,172,-1.38291e-06,6.41973e-06,0,-2.49139e-06,-1.13221e+09,-1.13117e+09,-1.13203e+09,-332974,-0.00756541,0.111239,-0,0.111496,3112,-41041.8,0,41159.6,332974
step02_gravity_refstate-mantle.xmf,173,-7.34046e-07,5.43421e-06,0,-2.58535e-06,-1.11751e+09,-1.11669e+09,-1.11742e+09,-345532,-0.00849301,0.109219,-0,0.109549,4019.51,-40589.5,0,40788.1,345532
step02_gravity_refstate-mantle.xmf,174,-4.24957e-07,4.97455e-06,0,-2.59009e-06,-1.0984e+09,-1.09768e+09,-1.09834e+09,-346166,-0.0083951,0.11044,-0,0.110759,4346.07,-40000,0,40235.4,346166
step02_gravity_refstate-mantle.xmf,175,-2.09669e-07,4.46532e-06,0,-2.37861e-06,-1.0984e+09,-1.09777e+09,-1.09837e+09,-317901,-0.00861627,0.106373,-0,0.106721,5051.17,-40000,0,40317.7,317901
step02_gravity_refstate-mantle.xmf,176,-2.42788e-07,4.39079e-06,0,-2.22713e-06,-1.12008e+09,-1.11946e+09,-1.12005e+09,-297656,-0.00922557,0.100911,-0,0.101332,5517.15,-40669.5,0,41042,297656
step02_gravity_refstate-mantle.xmf,177,-4.67241e-07,4.87891e-06,0,-2.41829e-06,-1.1199e+09,-1.11918e+09,-1.11984e+09,-323204,-0.00895382,0.104937,-0,0.105318,4746.45,-40663.6,0,40939.7,323204
step02_gravity_refstate-mantle.xmf,178,-2.59729e-07,4.32063e-06,0,-2.07552e-06,-1.14246e+09,-1.14185e+09,-1.14242e+09,-277393,-0.00972144,0.0954774,-0,0.0959711,6019.62,-41360.4,0,41796.2,277393
step02_gravity_refstate-mantle.xmf,179,-9.08501e-08,3.84909e-06,0,-1.74032e-06,-1.16169e+09,-1.16116e+09,-1.16168e+09,-232593,-0.0102555,0.0867476,-0,0.0873517,7496.73,-41954.4,0,42618.9,232593
step02_gravity_refstate-mantle.xmf,180,1.58629e-08,3.54655e-06,0,-1.46478e-06,-1.18124e+09,-1.18077e+09,-1.18124e+09,-195768,-0.0106127,0.0790896,-0,0.0797984,8962.67,-42558.2,0,43491.7,195768
step02_gravity_refstate-mantle.xmf,181,8.5267e-08,3.34711e-06,0,-1.22556e-06,-1.20527e+09,-1.20484e+09,-1.20529e+09,-163796,-0.0109114,0.0716454,-0,0.0724715,10497,-43300.6,0,44554.8,163796
step02_gravity_refstate-mantle.xmf,182,2.37083e-07,2.9417e-06,0,-7.52291e-07,-1.24295e+09,-1.24259e+09,-1.24298e+09,-100544,-0.0108266,0.0579254,-0,0.0589284,14604.1,-44464.3,0,46801.2,100544
step02_gravity_refstate-mantle.xmf,183,1.83278e-07,3.09109e-06,0,-8.7418e-07,-1.24555e+09,-1.24516e+09,-1.24557e+09,-116834,-0.0111256,0.0602955,-0,0.0613134,13369.8,-44544.6,0,46507.8,116834
step02_gravity_refstate-mantle.xmf,184,3.24412e-07,2.74438e-06,0,-4.9558e-07,-1.26996e+09,-1.26963e+09,-1.27e+09,-66234.3,-0.0103065,0.0497309,-0,0.0507876,17963,-45298.7,0,48730.3,66234.3
step02_gravity_refstate-mantle.xmf,185,2.85846e-07,2.85715e-06,0,-5.89742e-07,-1.27268e+09,-1.27234e+09,-1.27272e+09,-78819,-0.0107573,0.0516013,-0,0.0527106,16609.9,-45383,0,48327,78819
step02_gravity_refstate-mantle.xmf,186,3.37646e-07,2.79326e-06,0,-4.46593e-07,-1.30797e+09,-1.30764e+09,-1.30801e+09,-59687.2,-0.0105677,0.0453862,-0,0.0466003,18749.6,-46473.1,0,50112.8,59687.2
step02_gravity_refstate-mantle.xmf,187,3.49042e-07,2.86207e-06,0,-3.99023e-07,-1.35241e+09,-1.35208e+09,-1.35246e+09,-53329.4,-0.0108195,0.0406212,-0,0.0420374,19473.8,-47846.2,0,51657.4,53329.4
step02_gravity_refstate-mantle.xmf,188,3.65792e-07,2.9182e-06,0,-3.43762e-07,-1.39725e+09,-1.39691e+09,-1.3973e+09,-45943.7,-0.0109324,0.0357562,-0,0.0373902,20299.3,-49231.6,0,53252.4,45943.7
step02_gravity_refstate-mantle.xmf,189,4.48605e-07,2.85903e-06,0,-2.25684e-07,-1.447e+09,-1.44667e+09,-1.44706e+09,-30162.6,-0.0102352,0.0292111,-0,0.0309523,22922.6,-50768.5,0,55703.6,30162.6
step02_gravity_refstate-mantle.xmf,190,4.75264e-07,2.92025e-06,0,-1.73713e-07,-1.50262e+09,-1.5023e+09,-1.50269e+09,-23216.7,-0.0101455,0.0237148,-0,0.0257938,23819.5,-52487.2,0,57639.2,23216.7
step02_gravity_refstate-mantle.xmf,191,-2.84996e-06,9.29177e-06,0,-2.13435e-06,-1.09857e+09,-1.09694e+09,-1.09819e+09,-285256,-0.00392355,0.128166,-0,0.128226,1187.64,-40000,0,40017.6,285256
step02_gravity_refstate-mantle.xmf,192,-2.58023e-06,8.49696e-06,0,-2.0668e-06,-1.1153e+09,-1.11382e+09,-1.11496e+09,-276227,-0.00456766,0.122446,-0,0.122531,1484.58,-40516.7,0,40543.9,276227
step02_gravity_refstate-mantle.xmf,193,-1.82434e-06,7.15554e-06,0,-2.37747e-06,-1.13263e+09,-1.13143e+09,-1.13239e+09,-317749,-0.0065308,0.114158,-0,0.114345,2466.16,-41053.7,0,41127.7,317749
step02_gravity_refstate-mantle.xmf,194,-1.03967e-06,5.85997e-06,0,-2.51278e-06,-1.13122e+09,-1.1303e+09,-1.13108e+09,-335834,-0.00824367,0.108645,-0,0.108957,3673.39,-41012,0,41176.2,335834
step02_gravity_refstate-mantle.xmf,195,-2.58442e-07,4.20776e-06,0,-1.91214e-06,-1.16305e+09,-1.16245e+09,-1.16301e+09,-255558,-0.0101194,0.0902789,-0,0.0908443,6588.93,-41996.2,0,42509.9,255558
step02_gravity_refstate-mantle.xmf,196,-1.0936e-07,3.82843e-06,0,-1.62244e-06,-1.18431e+09,-1.18378e+09,-1.18429e+09,-216839,-0.0106148,0.0820713,-0,0.0827549,8021.41,-42652.9,0,43400.6,216839
step02_gravity_refstate-mantle.xmf,197,-2.85803e-09,3.55384e-06,0,-1.36645e-06,-1.20559e+09,-1.20512e+09,-1.20559e+09,-182626,-0.0109568,0.0745909,-0,0.0753913,9517.79,-43310.4,0,44343.9,182626
step02_gravity_refstate-mantle.xmf,198,1.04881e-07,3.28261e-06,0,-1.01877e-06,-1.24672e+09,-1.2463e+09,-1.24674e+09,-136159,-0.0113355,0.0632782,-0,0.0642855,12036.2,-44580.9,0,46177.1,136159
step02_gravity_refstate-mantle.xmf,199,4.83041e-08,3.42363e-06,0,-1.16777e-06,-1.23436e+09,-1.23391e+09,-1.23437e+09,-156073,-0.0112764,0.0675573,-0,0.068492,10867.2,-44199,0,45515.4,156073
step02_gravity_refstate-mantle.xmf,200,2.38702e-07,2.9821e-06,0,-6.91059e-07,-1.27464e+09,-1.27428e+09,-1.27468e+09,-92360.1,-0.0111209,0.0536472,-0,0.0547878,15322.5,-45443.5,0,47957.2,92360.1
step02_gravity_refstate-mantle.xmf,201,3.8631e-07,2.97112e-06,0,-2.87152e-07,-1.44399e+09,-1.44364e+09,-1.44404e+09,-38377.9,-0.0109501,0.0307541,-0,0.0326453,21162,-50675.6,0,54916.7,38377.9
step02_gravity_refstate-mantle.xmf,202,5.02994e-07,2.98123e-06,0,-1.25821e-07,-1.55954e+09,-1.55921e+09,-1.55961e+09,-16816,-0.00995891,0.0181357,-0,0.0206902,24702.9,-54245.6,0,59605.5,16816
step02_gravity_refstate-mantle.xmf,203,5.36284e-07,3.03757e-06,0,-7.60782e-08,-1.62156e+09,-1.62122e+09,-1.62163e+09,-10167.9,-0.00963371,0.0120766,-0,0.0154483,25681.4,-56161.8,0,61755,10167.9
step02_gravity_refstate-mantle.xmf,204,5.69386e-07,3.08985e-06,0,-3.40977e-08,-1.68371e+09,-1.68337e+09,-1.68378e+09,-4557.16,-0.00918721,0.00602694,-0,0.0109877,26681.3,-58081.9,0,63917.1,4557.16
step02_gravity_refstate-mantle.xmf,205,6.00759e-07,3.13756e-06,0,2.42562e-10,-1.74579e+09,-1.74545e+09,-1.74587e+09,32.4184,-0.00860974,-5.83736e-19,-0,0.00860974,27728.1,-60000,0,66097.3,32.4184
step02_gravity_refstate-mantle.xmf,206,-3.07689e-06,9.25625e-06,0,-1.37462e-06,-1.11563e+09,-1.11398e+09,-1.11522e+09,-183718,-0.00280933,0.12434,-0,0.124371,863.087,-40525.5,0,40534.7,183718
step02_gravity_refstate-mantle.xmf,207,-2.324e-06,7.87363e-06,0,-2.02071e-06,-1.13279e+09,-1.13143e+09,-1.13248e+09,-270068,-0.00517384,0.116804,-0,0.116919,1811.49,-41057,0,41097,270068
step02_gravity_refstate-mantle.xmf,208,-1.64946e-06,6.6799e-06,0,-2.22759e-06,-1.15004e+09,-1.14893e+09,-1.14982e+09,-297718,-0.00706168,0.108734,-0,0.108963,2867.46,-41591.3,0,41690.1,297718
step02_gravity_refstate-mantle.xmf,209,-1.24156e-06,6.04603e-06,0,-2.33952e-06,-1.1487e+09,-1.14772e+09,-1.14853e+09,-312676,-0.00806264,0.105989,-0,0.106295,3557.54,-41550.9,0,41703,312676
step02_gravity_refstate-mantle.xmf,210,-8.2702e-07,5.38765e-06,0,-2.36754e-06,-1.14218e+09,-1.14135e+09,-1.14207e+09,-316422,-0.00884401,0.103604,-0,0.103981,4311.56,-41350.8,0,41574.9,316422
step02_gravity_refstate-mantle.xmf,211,-4.93722e-07,4.77172e-06,0,-2.23375e-06,-1.14283e+09,-1.14212e+09,-1.14276e+09,-298540,-0.0094211,0.0992488,-0,0.0996949,5200.55,-41371.4,0,41696.9,298540
step02_gravity_refstate-mantle.xmf,212,-2.08359e-06,7.35983e-06,0,-1.9928e-06,-1.15038e+09,-1.14912e+09,-1.1501e+09,-266338,-0.00577915,0.111338,-0,0.111487,2180.29,-41600.7,0,41657.8,266338
step02_gravity_refstate-mantle.xmf,213,-4.79715e-07,4.65467e-06,0,-2.06487e-06,-1.16563e+09,-1.16495e+09,-1.16557e+09,-275970,-0.00981884,0.0936351,-0,0.0941486,5711.43,-42075.7,0,42461.5,275970
step02_gravity_refstate-mantle.xmf,214,-2.73851e-07,4.16036e-06,0,-1.76996e-06,-1.18668e+09,-1.18609e+09,-1.18665e+09,-236555,-0.0104668,0.0851825,-0,0.0858232,7103.38,-42726,0,43312.5,236555
step02_gravity_refstate-mantle.xmf,215,-1.25769e-07,3.81434e-06,0,-1.50418e-06,-1.20869e+09,-1.20816e+09,-1.20867e+09,-201033,-0.0109326,0.0772991,-0,0.0780684,8568.62,-43405.8,0,44243.4,201033
step02_gravity_refstate-mantle.xmf,216,-1.41017e-08,3.56394e-06,0,-1.28453e-06,-1.22753e+09,-1.22705e+09,-1.22752e+09,-171677,-0.0112142,0.0706984,-0,0.0715823,10008.4,-43987.9,0,45112.1,171677
step02_gravity_refstate-mantle.xmf,217,1.78514e-07,3.12957e-06,0,-8.01977e-07,-1.27697e+09,-1.27658e+09,-1.27699e+09,-107184,-0.0114136,0.0558249,-0,0.0569797,14060.5,-45515.3,0,47637.6,107184
step02_gravity_refstate-mantle.xmf,218,1.01776e-07,3.30231e-06,0,-9.19239e-07,-1.27949e+09,-1.27906e+09,-1.2795e+09,-122856,-0.0116143,0.058119,-0,0.0592681,12832.3,-45593,0,47364.5,122856
step02_gravity_refstate-mantle.xmf,219,2.89505e-07,2.92285e-06,0,-5.40978e-07,-1.3119e+09,-1.31155e+09,-1.31194e+09,-72301.7,-0.0110781,0.0470783,-0,0.0483641,17268.1,-46594.5,0,49691.4,72301.7
step02_gravity_refstate-mantle.xmf,220,2.38889e-07,3.03585e-06,0,-6.3116e-07,-1.31027e+09,-1.3099e+09,-1.3103e+09,-84354.5,-0.0113905,0.0491602,-0,0.0504626,16008.3,-46544.1,0,49220.1,84354.5
step02_gravity_refstate-mantle.xmf,221,2.89327e-07,2.99553e-06,0,-4.84836e-07,-1.35532e+09,-1.35496e+09,-1.35536e+09,-64798.3,-0.011346,0.0422273,-0,0.043725,17912.5,-47935.9,0,51173.3,64798.3
step02_gravity_refstate-mantle.xmf,222,2.97818e-07,3.05637e-06,0,-4.21147e-07,-1.39955e+09,-1.39918e+09,-1.39959e+09,-56286.4,-0.0114943,0.0372095,-0,0.0389444,18660.5,-49302.4,0,52715.6,56286.4
step02_gravity_refstate-mantle.xmf,223,3.16143e-07,3.09726e-06,0,-3.53414e-07,-1.44242e+09,-1.44205e+09,-1.44246e+09,-47233.8,-0.0115221,0.0322947,-0,0.0342886,19505.2,-50626.9,0,54254.3,47233.8
step02_gravity_refstate-mantle.xmf,224,4.08045e-07,3.04356e-06,0,-2.22872e-07,-1.50297e+09,-1.50261e+09,-1.50302e+09,-29786.8,-0.0109429,0.0246818,-0,0.0269989,22017,-52497.7,0,56927.6,29786.8
step02_gravity_refstate-mantle.xmf,225,4.31107e-07,3.1038e-06,0,-1.62738e-07,-1.55869e+09,-1.55833e+09,-1.55874e+09,-21750,-0.0108478,0.0189843,-0,0.021865,22794.1,-54219.1,0,58815.7,21750
step02_gravity_refstate-mantle.xmf,226,-3.38658e-06,1.00621e-05,0,-1.19211e-06,-1.09862e+09,-1.09682e+09,-1.09817e+09,-159326,-0.00207172,0.130005,-0,0.130021,593.771,-40000,0,40004.4,159326
step02_gravity_refstate-mantle.xmf,227,-2.7755e-06,8.53624e-06,0,-1.46141e-06,-1.13294e+09,-1.13142e+09,-1.13256e+09,-195317,-0.00351297,0.118848,-0,0.1189,1160.73,-41060.2,0,41076.6,195317
step02_gravity_refstate-mantle.xmf,228,-1.86728e-06,6.87153e-06,0,-1.92119e-06,-1.16803e+09,-1.16686e+09,-1.16778e+09,-256767,-0.00637983,0.106024,-0,0.106216,2591.2,-42146,0,42225.6,256767
step02_gravity_refstate-mantle.xmf,229,-4.85293e-07,4.54957e-06,0,-1.89392e-06,-1.1886e+09,-1.18792e+09,-1.18853e+09,-253123,-0.0101428,0.088361,-0,0.0889413,6206.83,-42784.7,0,43232.5,253123
step02_gravity_refstate-mantle.xmf,230,-2.84071e-07,4.12088e-06,0,-1.63456e-06,-1.21095e+09,-1.21036e+09,-1.21091e+09,-218459,-0.0107595,0.0802094,-0,0.0809278,7622.64,-43475.4,0,44138.6,218459
step02_gravity_refstate-mantle.xmf,231,-1.31445e-07,3.79292e-06,0,-1.38728e-06,-1.23298e+09,-1.23246e+09,-1.23296e+09,-185410,-0.0112009,0.0726134,-0,0.0734722,9150.2,-44156.1,0,45094.2,185410
step02_gravity_refstate-mantle.xmf,232,-1.79433e-09,3.51756e-06,0,-1.11765e-06,-1.26241e+09,-1.26194e+09,-1.26241e+09,-149374,-0.011549,0.0640037,-0,0.0650373,11076.9,-45065.3,0,46406.7,149374
step02_gravity_refstate-mantle.xmf,233,-9.93391e-08,3.71285e-06,0,-1.2519e-06,-1.25659e+09,-1.25608e+09,-1.25658e+09,-167316,-0.0114527,0.0675036,-0,0.0684682,9982.57,-44885.5,0,45982.2,167316
step02_gravity_refstate-mantle.xmf,234,6.41782e-09,3.50058e-06,0,-1.02907e-06,-1.28413e+09,-1.28366e+09,-1.28413e+09,-137535,-0.0117169,0.0601326,-0,0.0612635,11708.8,-45736.3,0,47211.3,137535
step02_gravity_refstate-mantle.xmf,235,1.76031e-07,3.16818e-06,0,-7.31302e-07,-1.30877e+09,-1.30837e+09,-1.3088e+09,-97738.5,-0.0116401,0.0514761,-0,0.0527758,14726.6,-46497.8,0,48774.2,97738.5
step02_gravity_refstate-mantle.xmf,236,3.36344e-07,3.14782e-06,0,-2.85711e-07,-1.49072e+09,-1.49034e+09,-1.49077e+09,-38185.3,-0.011508,0.0269559,-0,0.0293096,20341.1,-52119.2,0,55947.9,38185.3
step02_gravity_refstate-mantle.xmf,237,4.60937e-07,3.16005e-06,0,-1.03471e-07,-1.6188e+09,-1.61844e+09,-1.61886e+09,-13828.9,-0.0106222,0.0128436,-0,0.0166669,23688.4,-56076.4,0,60874.5,13828.9
step02_gravity_refstate-mantle.xmf,238,4.91708e-07,3.22697e-06,0,-4.25712e-08,-1.68808e+09,-1.68772e+09,-1.68815e+09,-5689.64,-0.0103468,0.0058423,-0,0.0118823,24506.1,-58217,0,63164.6,5689.64
step02_gravity_refstate-mantle.xmf,239,5.3164e-07,3.25563e-06,0,3.64466e-10,-1.7458e+09,-1.74543e+09,-1.74587e+09,48.7109,-0.00984105,-5.65041e-19,-0,0.00984105,25553.8,-60000,0,65215,48.7109
step02_gravity_refstate-mantle.xmf,240,-3.36472e-06,9.67475e-06,0,-4.131e-07,-1.11528e+09,-1.11354e+09,-1.11483e+09,-55210.8,-0.000834791,0.125446,-0,0.125449,248.679,-40513.9,0,40514.6,55210.8
step02_gravity_refstate-mantle.xmf,241,-3.56792e-06,1.03141e-05,0,2.34583e-09,-1.09864e+09,-1.09678e+09,-1.09816e+09,313.52,-1.50817e-06,0.130658,-0,0.130658,0,-40000,0,40000,313.52
step02_gravity_refstate-mantle.xmf,242,-3.1065e-06,9.014e-06,0,-6.92483e-07,-1.13303e+09,-1.13141e+09,-1.13261e+09,-92550.4,-0.00157744,0.120102,-0,0.120112,503.128,-41062,0,41065.1,92550.4
step02_gravity_refstate-mantle.xmf,243,-2.50035e-06,7.93997e-06,0,-1.53854e-06,-1.15052e+09,-1.14912e+09,-1.15018e+09,-205626,-0.00423195,0.113457,-0,0.113536,1505.79,-41603.6,0,41630.8,205626
step02_gravity_refstate-mantle.xmf,244,-2.25756e-06,7.45806e-06,0,-1.5916e-06,-1.16814e+09,-1.16684e+09,-1.16784e+09,-212718,-0.00490388,0.108258,-0,0.108369,1874.81,-42148.4,0,42190,212718
step02_gravity_refstate-mantle.xmf,245,-1.46823e-06,6.26332e-06,0,-2.107e-06,-1.1685e+09,-1.16746e+09,-1.1683e+09,-281601,-0.00759894,0.103192,-0,0.103471,3328.07,-42161.6,0,42292.8,281601
step02_gravity_refstate-mantle.xmf,246,-1.12073e-06,5.70694e-06,0,-2.16467e-06,-1.16921e+09,-1.1683e+09,-1.16906e+09,-289308,-0.00854181,0.100072,-0,0.100436,4066.36,-42184.6,0,42380.1,289308
step02_gravity_refstate-mantle.xmf,247,-7.7169e-07,5.14126e-06,0,-2.15122e-06,-1.16695e+09,-1.16616e+09,-1.16685e+09,-287510,-0.0093048,0.0970161,-0,0.0974613,4877.18,-42115.7,0,42397.1,287510
step02_gravity_refstate-mantle.xmf,248,-7.38511e-07,5.0116e-06,0,-1.98769e-06,-1.1904e+09,-1.18963e+09,-1.1903e+09,-265654,-0.00960987,0.0915031,-0,0.0920063,5329.14,-42839.9,0,43170.1,265654
step02_gravity_refstate-mantle.xmf,249,-4.82534e-07,4.47661e-06,0,-1.74434e-06,-1.2125e+09,-1.21184e+09,-1.21243e+09,-233130,-0.010413,0.0832468,-0,0.0838956,6690.23,-43522.8,0,44034,233130
step02_gravity_refstate-mantle.xmf,250,-2.86025e-07,4.08154e-06,0,-1.50196e-06,-1.23624e+09,-1.23566e+09,-1.2362e+09,-200737,-0.0110188,0.0751995,-0,0.0760025,8175.49,-44256.5,0,45005.3,200737
step02_gravity_refstate-mantle.xmf,251,-1.0902e-07,3.72983e-06,0,-1.14438e-06,-1.28684e+09,-1.28633e+09,-1.28683e+09,-152946,-0.0116761,0.0625235,-0,0.0636044,10568.6,-45819.9,0,47023,152946
step02_gravity_refstate-mantle.xmf,252,9.57736e-08,3.33578e-06,0,-8.37573e-07,-1.31075e+09,-1.31032e+09,-1.31076e+09,-111942,-0.0118293,0.0536037,-0,0.0548934,13472.9,-46558.8,0,48468.9,111942
step02_gravity_refstate-mantle.xmf,253,1.04813e-09,3.52239e-06,0,-9.38991e-07,-1.31365e+09,-1.31318e+09,-1.31365e+09,-125496,-0.0119072,0.0556184,-0,0.0568787,12311,-46648.2,0,48245.4,125496
step02_gravity_refstate-mantle.xmf,254,1.78061e-07,3.19687e-06,0,-6.64463e-07,-1.33777e+09,-1.33737e+09,-1.3378e+09,-88805.5,-0.0117908,0.0475531,-0,0.048993,15361.2,-47393.7,0,49821,88805.5
step02_gravity_refstate-mantle.xmf,255,2.14742e-07,3.15538e-06,0,-5.8712e-07,-1.35691e+09,-1.35651e+09,-1.35694e+09,-78468.5,-0.0117626,0.0442415,-0,0.0457784,16308.4,-47984.9,0,50680.5,78468.5
step02_gravity_refstate-mantle.xmf,256,2.19165e-07,3.2085e-06,0,-5.04716e-07,-1.40111e+09,-1.40071e+09,-1.40114e+09,-67455.3,-0.0119065,0.0388386,-0,0.0406226,17107.6,-49350.4,0,52231.5,67455.3
step02_gravity_refstate-mantle.xmf,257,2.3424e-07,3.24523e-06,0,-4.26121e-07,-1.44261e+09,-1.44221e+09,-1.44264e+09,-56951.1,-0.0119606,0.0337994,-0,0.0358532,17915.6,-50632.6,0,53708.7,56951.1
step02_gravity_refstate-mantle.xmf,258,2.54555e-07,3.27624e-06,0,-3.51015e-07,-1.48416e+09,-1.48375e+09,-1.48419e+09,-46913.2,-0.0119573,0.0288666,-0,0.0312451,18720.9,-51916.2,0,55188.5,46913.2
step02_gravity_refstate-mantle.xmf,259,3.37905e-07,3.25133e-06,0,-2.19119e-07,-1.55151e+09,-1.55112e+09,-1.55155e+09,-29285.2,-0.01161,0.0206882,-0,0.0237233,20747.8,-53997.2,0,57846.1,29285.2
step02_gravity_refstate-mantle.xmf,260,3.75476e-07,3.28953e-06,0,-1.38538e-07,-1.61177e+09,-1.61138e+09,-1.61182e+09,-18515.6,-0.0114062,0.01414,-0,0.018167,21779.5,-55859.1,0,59954.8,18515.6
step02_gravity_refstate-mantle.xmf,261,-3.36676e-06,1.00093e-05,0,1.1699e-06,-1.09862e+09,-1.09683e+09,-1.09817e+09,156357,0.00207162,0.130003,0,0.13002,-593.771,-40000,-0,40004.4,156357
step02_gravity_refstate-mantle.xmf,262,-3.3859e-06,9.73293e-06,0,5.39192e-07,-1.1115e+09,-1.10974e+09,-1.11105e+09,72063,0.000985155,0.126544,0,0.126548,-290.495,-40397,-0,40398,72063
step02_gravity_refstate-mantle.xmf,263,-2.8276e-06,8.40469e-06,0,-8.99691e-07,-1.15091e+09,-1.14941e+09,-1.15053e+09,-120244,-0.0023744,0.114875,-0,0.114899,811.727,-41614.6,0,41622.6,120244
step02_gravity_refstate-mantle.xmf,264,-2.03967e-06,7.01928e-06,0,-1.60426e-06,-1.18373e+09,-1.18252e+09,-1.18346e+09,-214410,-0.00554991,0.103691,-0,0.103839,2262.83,-42630.3,0,42690.3,214410
step02_gravity_refstate-mantle.xmf,265,-1.7023e-06,6.54038e-06,0,-1.87974e-06,-1.18169e+09,-1.18059e+09,-1.18147e+09,-251227,-0.00685723,0.101968,-0,0.102198,2948.96,-42568.4,0,42670.4,251227
step02_gravity_refstate-mantle.xmf,266,-7.25614e-07,4.88153e-06,0,-1.81057e-06,-1.21473e+09,-1.21398e+09,-1.21463e+09,-241983,-0.00987252,0.0860987,-0,0.0866628,5788.5,-43591.2,0,43973.9,241983
step02_gravity_refstate-mantle.xmf,267,-4.71377e-07,4.40521e-06,0,-1.5974e-06,-1.23805e+09,-1.2374e+09,-1.23799e+09,-213493,-0.0106652,0.077972,-0,0.078698,7219.99,-44312,0,44896.4,213493
step02_gravity_refstate-mantle.xmf,268,-2.8464e-07,4.05006e-06,0,-1.37287e-06,-1.26311e+09,-1.26253e+09,-1.26307e+09,-183484,-0.0112497,0.0701262,-0,0.0710228,8750.46,-45086.4,0,45927.8,183484
step02_gravity_refstate-mantle.xmf,269,-1.08852e-07,3.72481e-06,0,-1.0375e-06,-1.315e+09,-1.31449e+09,-1.31499e+09,-138662,-0.0118551,0.0578477,-0,0.0590499,11190.9,-46689.7,0,48012.2,138662
step02_gravity_refstate-mantle.xmf,270,9.33255e-08,3.36591e-06,0,-7.61322e-07,-1.34073e+09,-1.34029e+09,-1.34074e+09,-101751,-0.0119899,0.0494014,-0,0.0508356,14072.3,-47484.9,0,49526.2,101751
step02_gravity_refstate-mantle.xmf,271,2.71283e-07,3.31169e-06,0,-2.88358e-07,-1.52283e+09,-1.52243e+09,-1.52287e+09,-38539.1,-0.0119352,0.0244413,-0,0.0271997,19363.8,-53111.1,0,56530.9,38539.1
step02_gravity_refstate-mantle.xmf,272,4.11862e-07,3.32401e-06,0,-7.41505e-08,-1.66792e+09,-1.66753e+09,-1.66798e+09,-9910.22,-0.0111462,0.00815916,-0,0.0138134,22687.8,-57593.9,0,61901.5,9910.22
step02_gravity_refstate-mantle.xmf,273,4.47304e-07,3.39272e-06,0,1.54869e-09,-1.7458e+09,-1.74541e+09,-1.74586e+09,206.983,-0.0108661,-4.31643e-19,-0,0.0108661,23458.4,-60000,0,64422.8,206.983
step02_gravity_refstate-mantle.xmf,274,-2.8652e-06,9.23571e-06,0,2.08164e-06,-1.09858e+09,-1.09696e+09,-1.09819e+09,278211,0.00392308,0.128167,0,0.128227,-1187.64,-40000,-0,40017.6,278211
step02_gravity_refstate-mantle.xmf,275,-3.10338e-06,9.25643e-06,0,1.31922e-06,-1.11482e+09,-1.11317e+09,-1.11441e+09,176314,0.00275421,0.124623,0,0.124654,-842.54,-40500.3,-0,40509.1,176314
step02_gravity_refstate-mantle.xmf,276,-2.20444e-06,8.19097e-06,0,2.66629e-06,-1.09852e+09,-1.09713e+09,-1.09822e+09,356350,0.0054318,0.125435,0,0.125553,-1785.26,-40000,-0,40039.8,356350
step02_gravity_refstate-mantle.xmf,277,-2.62102e-06,8.532e-06,0,2.02439e-06,-1.11563e+09,-1.11414e+09,-1.11528e+09,270560,0.00448164,0.122482,0,0.122564,-1452.53,-40526.7,-0,40552.8,270560
step02_gravity_refstate-mantle.xmf,278,-3.19633e-06,9.12711e-06,0,4.00674e-07,-1.13008e+09,-1.12844e+09,-1.12966e+09,53550.1,0.000844054,0.121153,0,0.121156,-264.845,-40970.8,-0,40971.6,53550.1
step02_gravity_refstate-mantle.xmf,279,-2.99856e-06,8.62741e-06,0,-1.25222e-07,-1.15038e+09,-1.14882e+09,-1.14998e+09,-16736,-0.000349621,0.115658,-0,0.115658,117.385,-41597.7,0,41597.8,16736
step02_gravity_refstate-mantle.xmf,280,-2.58947e-06,7.90879e-06,0,-1.04694e-06,-1.16848e+09,-1.16708e+09,-1.16813e+09,-139924,-0.00310579,0.109901,-0,0.109945,1135.27,-42157.8,0,42173.1,139924
step02_gravity_refstate-mantle.xmf,281,-2.37707e-06,7.49701e-06,0,-1.17138e-06,-1.18517e+09,-1.18385e+09,-1.18486e+09,-156555,-0.00383279,0.105251,-0,0.105321,1492.56,-42673.8,0,42699.9,156555
step02_gravity_refstate-mantle.xmf,282,-1.46415e-06,6.12059e-06,0,-1.89243e-06,-1.19251e+09,-1.1915e+09,-1.19232e+09,-252923,-0.00764627,0.0978737,-0,0.0981719,3525.89,-42903.1,0,43047.8,252923
step02_gravity_refstate-mantle.xmf,283,-1.0654e-06,5.50507e-06,0,-1.98685e-06,-1.19204e+09,-1.19116e+09,-1.1919e+09,-265543,-0.00883172,0.0945319,-0,0.0949436,4469.31,-42889.6,0,43121.8,265543
step02_gravity_refstate-mantle.xmf,284,-1.83939e-06,6.64357e-06,0,-1.61283e-06,-1.19967e+09,-1.19853e+09,-1.19942e+09,-215555,-0.00619091,0.0991104,-0,0.0993036,2692.53,-43122.9,0,43206.9,215555
step02_gravity_refstate-mantle.xmf,285,-1.00771e-06,5.35409e-06,0,-1.83364e-06,-1.21633e+09,-1.21548e+09,-1.21619e+09,-245066,-0.00907945,0.0890031,-0,0.089465,4878.46,-43639.8,0,43911.6,245066
step02_gravity_refstate-mantle.xmf,286,-6.95189e-07,4.77297e-06,0,-1.65953e-06,-1.23959e+09,-1.23885e+09,-1.23949e+09,-221796,-0.010117,0.0807702,-0,0.0814013,6274.51,-44358.9,0,44800.4,221796
step02_gravity_refstate-mantle.xmf,287,-4.54863e-07,4.34108e-06,0,-1.45791e-06,-1.2646e+09,-1.26395e+09,-1.26453e+09,-194850,-0.0108951,0.0727051,-0,0.0735169,7776.43,-45132,0,45797,194850
step02_gravity_refstate-mantle.xmf,288,-2.56146e-07,3.98476e-06,0,-1.24468e-06,-1.28873e+09,-1.28816e+09,-1.2887e+09,-166351,-0.0114804,0.0650679,-0,0.0660729,9454.29,-45877.9,0,46841.9,166351
step02_gravity_refstate-mantle.xmf,289,-2.4086e-07,3.96309e-06,0,-1.13274e-06,-1.31658e+09,-1.31602e+09,-1.31655e+09,-151391,-0.0116636,0.060171,-0,0.0612911,10068.4,-46738.3,0,47810.4,151391
step02_gravity_refstate-mantle.xmf,290,-9.38948e-09,3.56003e-06,0,-8.55168e-07,-1.34489e+09,-1.34442e+09,-1.34489e+09,-114293,-0.0120673,0.0511752,-0,0.0525787,12834.8,-47613.4,0,49312.9,114293
step02_gravity_refstate-mantle.xmf,291,-1.22595e-07,3.7619e-06,0,-9.47877e-07,-1.34575e+09,-1.34523e+09,-1.34573e+09,-126684,-0.0119935,0.0533457,-0,0.0546774,11646.9,-47639.5,0,49042.6,126684
step02_gravity_refstate-mantle.xmf,292,1.06969e-07,3.3706e-06,0,-6.77162e-07,-1.36995e+09,-1.36951e+09,-1.36996e+09,-90502.8,-0.0120931,0.0451379,-0,0.0467298,14820,-48387.6,0,50606.3,90502.8
step02_gravity_refstate-mantle.xmf,293,1.25028e-07,3.38479e-06,0,-5.90538e-07,-1.40421e+09,-1.40377e+09,-1.40423e+09,-78925.4,-0.0121808,0.0404282,-0,0.0422234,15610.4,-49446,0,51851.7,78925.4
step02_gravity_refstate-mantle.xmf,294,1.37617e-07,3.41536e-06,0,-5.01982e-07,-1.44405e+09,-1.44361e+09,-1.44407e+09,-67089.9,-0.012254,0.0353053,-0,0.0373715,16372.3,-50677,0,53256.1,67089.9
step02_gravity_refstate-mantle.xmf,295,1.58991e-07,3.43764e-06,0,-4.15166e-07,-1.48447e+09,-1.48403e+09,-1.48449e+09,-55486.9,-0.0122787,0.0302035,-0,0.0326039,17172.1,-51925.5,0,54691.3,55486.9
step02_gravity_refstate-mantle.xmf,296,1.8733e-07,3.45229e-06,0,-3.33243e-07,-1.52449e+09,-1.52405e+09,-1.52451e+09,-44537.9,-0.0122551,0.0252552,-0,0.0280715,17990.5,-53162,0,56123.6,44537.9
step02_gravity_refstate-mantle.xmf,297,2.34755e-07,3.43779e-06,0,-2.52933e-07,-1.56329e+09,-1.56286e+09,-1.56332e+09,-33804.5,-0.0121371,0.0204417,-0,0.0237733,19018.4,-54360.9,0,57591.7,33804.5
step02_gravity_refstate-mantle.xmf,298,2.74638e-07,3.44704e-06,0,-1.7665e-07,-1.60854e+09,-1.60812e+09,-1.60858e+09,-23609.3,-0.0120011,0.015177,-0,0.0193486,19929.1,-55759,0,59213.5,23609.3
step02_gravity_refstate-mantle.xmf,299,3.18924e-07,3.45665e-06,0,-1.03954e-07,-1.65782e+09,-1.6574e+09,-1.65786e+09,-13893.5,-0.0117981,0.00961113,-0,0.0152174,20872.7,-57281.5,0,60965.9,13893.5
step02_gravity_refstate-mantle.xmf,300,-2.03905e-06,7.65476e-06,0,2.4873e-06,-1.11588e+09,-1.11458e+09,-1.1156e+09,332428,0.00592157,0.119768,0,0.119915,-2073.9,-40535.9,-0,40589,332428
step02_gravity_refstate-mantle.xmf,301,-2.78669e-06,8.18563e-06,0,-3.98712e-07,-1.16826e+09,-1.16679e+09,-1.16788e+09,-53287.8,-0.00115997,0.110878,-0,0.110884,413.544,-42150.2,0,42152.3,53287.8
step02_gravity_refstate-mantle.xmf,302,-2.15565e-06,7.08316e-06,0,-1.25377e-06,-1.20183e+09,-1.20059e+09,-1.20154e+09,-167566,-0.00458657,0.100649,-0,0.100754,1902.64,-43188.7,0,43230.6,167566
step02_gravity_refstate-mantle.xmf,303,-9.51388e-07,5.17432e-06,0,-1.66972e-06,-1.24098e+09,-1.24016e+09,-1.24085e+09,-223159,-0.00935624,0.0834652,-0,0.083988,5351.87,-44401.2,0,44722.6,223159
step02_gravity_refstate-mantle.xmf,304,-6.59153e-07,4.67209e-06,0,-1.51657e-06,-1.26554e+09,-1.26483e+09,-1.26545e+09,-202690,-0.0103544,0.0753945,-0,0.0761022,6799.29,-45160.6,0,45669.6,202690
step02_gravity_refstate-mantle.xmf,305,-4.29886e-07,4.27754e-06,0,-1.32621e-06,-1.29144e+09,-1.29081e+09,-1.29138e+09,-177248,-0.0111145,0.0675029,-0,0.0684117,8373.02,-45961.2,0,46717.6,177248
step02_gravity_refstate-mantle.xmf,306,-2.25957e-07,3.93947e-06,0,-1.02821e-06,-1.34306e+09,-1.3425e+09,-1.34303e+09,-137420,-0.0118187,0.055648,-0,0.0568892,10663.3,-47556.1,0,48737,137420
step02_gravity_refstate-mantle.xmf,307,-1.0295e-08,3.58732e-06,0,-7.65539e-07,-1.37744e+09,-1.37696e+09,-1.37744e+09,-102314,-0.0121984,0.0465493,-0,0.0481211,13426.4,-48618.8,0,50438.6,102314
step02_gravity_refstate-mantle.xmf,308,3.59297e-07,3.46783e-06,0,-4.54465e-08,-1.70432e+09,-1.70391e+09,-1.70437e+09,-6073.92,-0.0115599,0.00448851,-0,0.0124007,21705.5,-58718.3,0,62601.6,6073.92
step02_gravity_refstate-mantle.xmf,309,-1.61544e-06,7.22927e-06,0,2.86485e-06,-1.09847e+09,-1.09729e+09,-1.09825e+09,382887,0.00658563,0.122102,0,0.122279,-2394.25,-40000,-0,40071.6,382887
step02_gravity_refstate-mantle.xmf,310,-2.44392e-06,8.01776e-06,0,1.87232e-06,-1.13482e+09,-1.13342e+09,-1.1345e+09,250235,0.00477601,0.116868,0,0.116965,-1653.65,-41119.4,-0,41152.6,250235
step02_gravity_refstate-mantle.xmf,311,-2.86026e-06,8.63446e-06,0,1.28166e-06,-1.13381e+09,-1.13227e+09,-1.13343e+09,171293,0.0030763,0.118991,0,0.119031,-1008.32,-41086.9,-0,41099.2,171293
step02_gravity_refstate-mantle.xmf,312,-2.9132e-06,8.48246e-06,0,6.59282e-07,-1.15117e+09,-1.14965e+09,-1.15078e+09,88113,0.00166888,0.11514,0,0.115152,-566.15,-41622.5,-0,41626.3,88113
step02_gravity_refstate-mantle.xmf,313,-2.83815e-06,8.2611e-06,0,1.91377e-07,-1.16608e+09,-1.1646e+09,-1.16571e+09,25577.6,0.000511736,0.111548,0,0.111549,-181.029,-42083.1,-0,42083.5,25577.6
step02_gravity_refstate-mantle.xmf,314,-2.5944e-06,7.78841e-06,0,-5.81072e-07,-1.18621e+09,-1.18482e+09,-1.18587e+09,-77660.2,-0.0018588,0.106205,-0,0.106221,703.781,-42705.2,0,42711,77660.2
step02_gravity_refstate-mantle.xmf,315,-2.41829e-06,7.445e-06,0,-7.87161e-07,-1.20168e+09,-1.20036e+09,-1.20136e+09,-105204,-0.00275578,0.102103,-0,0.10214,1101.88,-43183.3,0,43197.4,105204
step02_gravity_refstate-mantle.xmf,316,-1.3296e-06,5.81436e-06,0,-1.74814e-06,-1.21744e+09,-1.21648e+09,-1.21726e+09,-233638,-0.00806255,0.0916697,-0,0.0920236,4013.71,-43673.2,0,43857.2,233638
step02_gravity_refstate-mantle.xmf,317,-1.65634e-06,6.28952e-06,0,-1.57304e-06,-1.21904e+09,-1.21798e+09,-1.21882e+09,-210237,-0.00677958,0.0939217,-0,0.0941661,3162.3,-43721.8,0,43836,210237
step02_gravity_refstate-mantle.xmf,318,-1.95825e-06,6.71808e-06,0,-1.295e-06,-1.22005e+09,-1.21889e+09,-1.21979e+09,-173077,-0.00528,0.095807,-0,0.0959523,2337.65,-43752,0,43814.4,173077
step02_gravity_refstate-mantle.xmf,319,-1.22779e-06,5.61005e-06,0,-1.62403e-06,-1.24238e+09,-1.24147e+09,-1.24222e+09,-217052,-0.00836465,0.0859527,-0,0.0863588,4449.69,-44443.9,0,44666.1,217052
step02_gravity_refstate-mantle.xmf,320,-8.99845e-07,5.04303e-06,0,-1.5306e-06,-1.26656e+09,-1.26576e+09,-1.26644e+09,-204565,-0.00959406,0.0780448,-0,0.0786323,5820.79,-45191.4,0,45564.7,204565
step02_gravity_refstate-mantle.xmf,321,-6.24053e-07,4.58794e-06,0,-1.37844e-06,-1.29328e+09,-1.29259e+09,-1.2932e+09,-184228,-0.0105715,0.0699343,-0,0.0707288,7343.71,-46017.6,0,46599.9,184228
step02_gravity_refstate-mantle.xmf,322,-3.98967e-07,4.21658e-06,0,-1.19926e-06,-1.31925e+09,-1.31863e+09,-1.31919e+09,-160282,-0.0113277,0.0622689,-0,0.0632908,9016.68,-46820.2,0,47680.5,160282
step02_gravity_refstate-mantle.xmf,323,-3.60616e-07,4.16433e-06,0,-1.08395e-06,-1.34744e+09,-1.34684e+09,-1.34739e+09,-144870,-0.0115311,0.0571205,-0,0.0582728,9693.97,-47691.2,0,48666.5,144870
step02_gravity_refstate-mantle.xmf,324,-1.44458e-07,3.817e-06,0,-8.52844e-07,-1.38082e+09,-1.38029e+09,-1.3808e+09,-113983,-0.0121046,0.0484747,-0,0.0499632,12060.1,-48722.9,0,50193.3,113983
step02_gravity_refstate-mantle.xmf,325,-2.89084e-07,4.04809e-06,0,-9.50966e-07,-1.37505e+09,-1.37447e+09,-1.37501e+09,-127097,-0.0118122,0.0516519,-0,0.0529853,10688,-48544.3,0,49707,127097
step02_gravity_refstate-mantle.xmf,326,8.50505e-09,3.58622e-06,0,-6.72621e-07,-1.40862e+09,-1.40814e+09,-1.40862e+09,-89895.9,-0.0122961,0.0419628,-0,0.0437272,14161.9,-49582,0,51564.8,89895.9
step02_gravity_refstate-mantle.xmf,327,2.7582e-08,3.60183e-06,0,-5.77449e-07,-1.44553e+09,-1.44505e+09,-1.44553e+09,-77176.1,-0.01238,0.0368808,-0,0.0389032,14899.6,-50722.3,0,52865.4,77176.1
step02_gravity_refstate-mantle.xmf,328,4.60185e-08,3.62297e-06,0,-4.81628e-07,-1.48548e+09,-1.485e+09,-1.48549e+09,-64369.6,-0.0124395,0.0316021,-0,0.0339622,15628.4,-51956.6,0,54256.2,64369.6
step02_gravity_refstate-mantle.xmf,329,7.43665e-08,3.63446e-06,0,-3.87879e-07,-1.52608e+09,-1.5256e+09,-1.52609e+09,-51840.1,-0.0124652,0.0263274,-0,0.0291293,16411.4,-53210.9,0,55684.2,51840.1
step02_gravity_refstate-mantle.xmf,330,1.13875e-07,3.63319e-06,0,-2.97603e-07,-1.567e+09,-1.56653e+09,-1.56701e+09,-39774.7,-0.0124482,0.0211018,-0,0.0244999,17273.5,-54475.2,0,57148.2,39774.7
step02_gravity_refstate-mantle.xmf,331,1.59306e-07,3.62834e-06,0,-2.12013e-07,-1.60953e+09,-1.60907e+09,-1.60955e+09,-28335.5,-0.0123844,0.0158376,-0,0.0201048,18169.3,-55789.3,0,58673.4,28335.5
step02_gravity_refstate-mantle.xmf,332,2.11808e-07,3.61963e-06,0,-1.29709e-07,-1.65534e+09,-1.65489e+09,-1.65537e+09,-17335.6,-0.0122577,0.0103477,-0,0.0160414,19131.2,-57204.8,0,60319.1,17335.6
step02_gravity_refstate-mantle.xmf,333,2.71165e-07,3.60205e-06,0,-5.75742e-08,-1.70155e+09,-1.70111e+09,-1.70159e+09,-7694.79,-0.0120449,0.00497696,-0,0.0130326,20162.2,-58632.5,0,62002.3,7694.79
step02_gravity_refstate-mantle.xmf,334,3.45579e-07,3.55626e-06,0,9.87762e-10,-1.74581e+09,-1.74538e+09,-1.74586e+09,132.014,-0.0116661,-4.79347e-19,-0,0.0116661,21436.1,-60000,0,63714.3,132.014
step02_gravity_refstate-mantle.xmf,335,-1.09683e-06,6.32773e-06,0,2.88904e-06,-1.09843e+09,-1.09744e+09,-1.09829e+09,386120,0.00742728,0.118396,0,0.118628,-3021.01,-40000,-0,40113.9,386120
step02_gravity_refstate-mantle.xmf,336,-1.54708e-06,6.85292e-06,0,2.64713e-06,-1.11644e+09,-1.11532e+09,-1.11624e+09,353789,0.00703458,0.11653,0,0.116742,-2700.11,-40554.6,-0,40644.4,353789
step02_gravity_refstate-mantle.xmf,337,-1.91572e-06,7.21989e-06,0,2.28824e-06,-1.13515e+09,-1.13393e+09,-1.1349e+09,305823,0.00629643,0.114087,0,0.11426,-2353.97,-41131.1,-0,41198.4,305823
step02_gravity_refstate-mantle.xmf,338,-2.6746e-06,7.90775e-06,0,4.91673e-08,-1.18477e+09,-1.18335e+09,-1.18441e+09,6571.21,0.000152479,0.106908,0,0.106908,-57.0591,-42660.3,-0,42660.4,6571.21
step02_gravity_refstate-mantle.xmf,339,-2.20584e-06,7.06323e-06,0,-9.10396e-07,-1.22108e+09,-1.21985e+09,-1.22079e+09,-121674,-0.00356278,0.0971545,-0,0.0972198,1519.2,-43783.1,0,43809.5,121674
step02_gravity_refstate-mantle.xmf,340,-1.14006e-06,5.40755e-06,0,-1.49154e-06,-1.26695e+09,-1.26608e+09,-1.2668e+09,-199345,-0.00866035,0.0805098,-0,0.0809743,4904.42,-45202.9,0,45468.2,199345
step02_gravity_refstate-mantle.xmf,341,-8.5412e-07,4.93971e-06,0,-1.38793e-06,-1.29553e+09,-1.29476e+09,-1.29542e+09,-185497,-0.00978058,0.0723373,-0,0.0729955,6284.57,-46086.4,0,46513,185497
step02_gravity_refstate-mantle.xmf,342,-5.81216e-07,4.50518e-06,0,-1.25008e-06,-1.3211e+09,-1.32042e+09,-1.32103e+09,-167073,-0.0107987,0.0645519,-0,0.0654489,7939.62,-46877,0,47544.7,167073
step02_gravity_refstate-mantle.xmf,343,-1.21403e-07,3.80422e-06,0,-7.5014e-07,-1.41212e+09,-1.4116e+09,-1.41211e+09,-100256,-0.0122283,0.0436245,-0,0.0453059,12773.7,-49689.9,0,51305.5,100256
step02_gravity_refstate-mantle.xmf,344,-1.08065e-06,6.07568e-06,0,2.6775e-06,-1.11665e+09,-1.1157e+09,-1.11651e+09,357848,0.00788211,0.113018,0,0.113292,-3350.59,-40562.2,-0,40700.4,357848
step02_gravity_refstate-mantle.xmf,345,-2.20997e-06,7.47675e-06,0,1.80747e-06,-1.1546e+09,-1.15331e+09,-1.15431e+09,241568,0.00531811,0.11103,0,0.111158,-1988.53,-41730.5,-0,41777.9,241568
step02_gravity_refstate-mantle.xmf,346,-2.61597e-06,8.06668e-06,0,1.29777e-06,-1.1539e+09,-1.15247e+09,-1.15355e+09,173446,0.00358834,0.113222,0,0.113279,-1267.63,-41707.7,-0,41726.9,173446
step02_gravity_refstate-mantle.xmf,347,-2.66831e-06,7.93161e-06,0,7.25142e-07,-1.17545e+09,-1.17403e+09,-1.17509e+09,96915.2,0.00213739,0.108728,0,0.108749,-786.153,-42372.6,-0,42379.9,96915.2
step02_gravity_refstate-mantle.xmf,348,-2.52931e-06,7.6003e-06,0,-2.21623e-07,-1.20283e+09,-1.20147e+09,-1.20249e+09,-29620,-0.000766472,0.102529,-0,0.102532,302.081,-43218.4,0,43219.5,29620
step02_gravity_refstate-mantle.xmf,349,-2.37749e-06,7.28705e-06,0,-4.46749e-07,-1.22133e+09,-1.22004e+09,-1.22102e+09,-59708.1,-0.00170674,0.0980422,-0,0.0980571,711.142,-43790.3,0,43796,59708.1
step02_gravity_refstate-mantle.xmf,350,-1.52102e-06,6.01451e-06,0,-1.47864e-06,-1.24269e+09,-1.24168e+09,-1.24249e+09,-197620,-0.00716427,0.0883165,-0,0.0886067,3576.72,-44452.4,0,44596.1,197620
step02_gravity_refstate-mantle.xmf,351,-1.79849e-06,6.41029e-06,0,-1.26105e-06,-1.2423e+09,-1.2412e+09,-1.24206e+09,-168539,-0.00575458,0.0904483,-0,0.0906311,2722.42,-44439.6,0,44522.9,168539
step02_gravity_refstate-mantle.xmf,352,-2.02856e-06,6.73599e-06,0,-9.65332e-07,-1.24191e+09,-1.24074e+09,-1.24164e+09,-129017,-0.00420682,0.0920913,-0,0.0921873,1911.32,-44426.7,0,44467.8,129017
step02_gravity_refstate-mantle.xmf,353,-1.41106e-06,5.79485e-06,0,-1.36841e-06,-1.26974e+09,-1.26878e+09,-1.26955e+09,-182888,-0.00744831,0.082392,-0,0.082728,3974.98,-45288.3,0,45462.4,182888
step02_gravity_refstate-mantle.xmf,354,-1.13799e-06,5.36802e-06,0,-1.32856e-06,-1.29962e+09,-1.29875e+09,-1.29947e+09,-177562,-0.00857885,0.0745681,-0,0.0750599,5108.36,-46212,0,46493.4,177562
step02_gravity_refstate-mantle.xmf,355,-7.88248e-07,4.8201e-06,0,-1.26477e-06,-1.32318e+09,-1.32243e+09,-1.32307e+09,-169037,-0.0100565,0.0667641,-0,0.0675173,6865.8,-46940.6,0,47440,169037
step02_gravity_refstate-mantle.xmf,356,-5.37088e-07,4.43175e-06,0,-1.12464e-06,-1.35057e+09,-1.34991e+09,-1.3505e+09,-150309,-0.0110231,0.0590588,-0,0.0600787,8578.77,-47787.5,0,48551.5,150309
step02_gravity_refstate-mantle.xmf,357,-4.90213e-07,4.37388e-06,0,-1.00643e-06,-1.38176e+09,-1.38111e+09,-1.3817e+09,-134509,-0.0112382,0.0534842,-0,0.0546522,9248.6,-48751.1,0,49620.6,134509
step02_gravity_refstate-mantle.xmf,358,-2.66495e-07,4.03541e-06,0,-8.23303e-07,-1.41281e+09,-1.41224e+09,-1.41278e+09,-110034,-0.0119692,0.0456745,-0,0.0472167,11415.4,-49710.8,0,51004.7,110034
step02_gravity_refstate-mantle.xmf,359,-1.00807e-07,3.80521e-06,0,-6.48746e-07,-1.44658e+09,-1.44606e+09,-1.44657e+09,-86704.9,-0.0123312,0.0385831,-0,0.0405058,13470,-50754.5,0,52511.6,86704.9
step02_gravity_refstate-mantle.xmf,360,-8.1711e-08,3.82538e-06,0,-5.4593e-07,-1.48631e+09,-1.48579e+09,-1.4863e+09,-72963.5,-0.0124139,0.0331002,-0,0.0353515,14131.3,-51981.8,0,53868.4,72963.5
step02_gravity_refstate-mantle.xmf,361,-5.52269e-08,3.83628e-06,0,-4.42967e-07,-1.52707e+09,-1.52655e+09,-1.52706e+09,-59202.6,-0.0124813,0.0275648,-0,0.0302589,14843.9,-53241,0,55271.6,59202.6
step02_gravity_refstate-mantle.xmf,362,-1.75212e-08,3.83614e-06,0,-3.42288e-07,-1.56868e+09,-1.56816e+09,-1.56867e+09,-45746.8,-0.0125291,0.0220097,-0,0.025326,15627.8,-54526.6,0,56722,45746.8
step02_gravity_refstate-mantle.xmf,363,2.69392e-08,3.83182e-06,0,-2.45667e-07,-1.61166e+09,-1.61115e+09,-1.61166e+09,-32833.3,-0.0125473,0.0164292,-0,0.0206726,16442,-55854.7,0,58224.5,32833.3
step02_gravity_refstate-mantle.xmf,364,8.53636e-08,3.81034e-06,0,-1.55162e-07,-1.65497e+09,-1.65447e+09,-1.65498e+09,-20737.4,-0.0125185,0.0109301,-0,0.0166187,17374.5,-57192.9,0,59773.7,20737.4
step02_gravity_refstate-mantle.xmf,365,1.49604e-07,3.78445e-06,0,-7.21704e-08,-1.70002e+09,-1.69954e+09,-1.70004e+09,-9645.57,-0.0124251,0.00541082,-0,0.0135521,18353,-58584.9,0,61392.4,9645.57
step02_gravity_refstate-mantle.xmf,366,2.2588e-07,3.7411e-06,0,1.04285e-09,-1.74582e+09,-1.74535e+09,-1.74585e+09,139.377,-0.012224,-5.21186e-19,-0,0.012224,19481,-60000,0,63083.3,139.377
step02_gravity_refstate-mantle.xmf,367,-7.21198e-07,5.59621e-06,0,2.76777e-06,-1.09841e+09,-1.09757e+09,-1.09832e+09,369912,0.00801299,0.114473,0,0.114753,-3670.37,-40000,-0,40168,369912
step02_gravity_refstate-mantle.xmf,368,-1.46914e-06,6.52052e-06,0,2.44286e-06,-1.13535e+09,-1.13428e+09,-1.13515e+09,326488,0.00742115,0.111041,0,0.111288,-3022.51,-41138.3,-0,41249.2,326488
step02_gravity_refstate-mantle.xmf,369,-1.77132e-06,6.82005e-06,0,2.13209e-06,-1.15447e+09,-1.15332e+09,-1.15423e+09,284953,0.00670552,0.108544,0,0.108751,-2685.62,-41727.7,-0,41814.1,284953
step02_gravity_refstate-mantle.xmf,370,-2.53089e-06,7.61859e-06,0,3.80478e-07,-1.19973e+09,-1.19837e+09,-1.19939e+09,50850.9,0.00130503,0.10315,0,0.103158,-510.901,-43122.7,-0,43125.7,50850.9
step02_gravity_refstate-mantle.xmf,371,-2.19192e-06,6.96361e-06,0,-6.09302e-07,-1.24223e+09,-1.24101e+09,-1.24194e+09,-81433.2,-0.00257333,0.0930602,-0,0.0930958,1140.08,-44436.2,0,44450.8,81433.2
step02_gravity_refstate-mantle.xmf,372,-1.27618e-06,5.5793e-06,0,-1.34817e-06,-1.28419e+09,-1.28328e+09,-1.28402e+09,-180182,-0.00799657,0.0786114,-0,0.079017,4497.27,-45735,0,45955.6,180182
step02_gravity_refstate-mantle.xmf,373,-1.02082e-06,5.16213e-06,0,-1.22935e-06,-1.32526e+09,-1.32443e+09,-1.32512e+09,-164303,-0.00904668,0.06893,-0,0.0695212,5762.54,-47004.1,0,47356,164303
step02_gravity_refstate-mantle.xmf,374,-7.26611e-07,4.71849e-06,0,-1.14492e-06,-1.35221e+09,-1.35148e+09,-1.35211e+09,-153019,-0.0103206,0.0611549,-0,0.0620197,7473.64,-47837.4,0,48417.7,153019
step02_gravity_refstate-mantle.xmf,375,-4.3191e-07,4.29026e-06,0,-8.80416e-07,-1.41358e+09,-1.41295e+09,-1.41353e+09,-117668,-0.011504,0.0477681,-0,0.0491339,10075.2,-49734.2,0,50744.5,117668
step02_gravity_refstate-mantle.xmf,376,-2.39076e-07,4.02165e-06,0,-7.12474e-07,-1.44742e+09,-1.44685e+09,-1.44738e+09,-95222.2,-0.0121039,0.0403289,-0,0.0421061,12109,-50779.9,0,52203.7,95222.2
step02_gravity_refstate-mantle.xmf,377,-4.26146e-07,4.97525e-06,0,2.58968e-06,-1.0984e+09,-1.09768e+09,-1.09834e+09,346111,0.00839483,0.11044,0,0.110759,-4346.07,-40000,-0,40235.4,346111
step02_gravity_refstate-mantle.xmf,378,-7.36289e-07,5.43319e-06,0,2.58552e-06,-1.11675e+09,-1.11593e+09,-1.11665e+09,345555,0.00848573,0.109354,0,0.109683,-4018.23,-40566,-0,40764.6,345555
step02_gravity_refstate-mantle.xmf,379,-1.05621e-06,5.84922e-06,0,2.47783e-06,-1.13556e+09,-1.13464e+09,-1.13542e+09,331162,0.00826445,0.107751,0,0.108068,-3695.32,-41146,-0,41311.6,331162
step02_gravity_refstate-mantle.xmf,380,-1.99753e-06,7.01884e-06,0,1.75148e-06,-1.17434e+09,-1.17314e+09,-1.17408e+09,234085,0.00585938,0.105432,0,0.105595,-2360.69,-42340.6,-0,42406.3,234085
step02_gravity_refstate-mantle.xmf,381,-2.34362e-06,7.50823e-06,0,1.34234e-06,-1.17576e+09,-1.17444e+09,-1.17544e+09,179403,0.00427105,0.107112,0,0.107198,-1637.07,-42383.2,-0,42414.8,179403
step02_gravity_refstate-mantle.xmf,382,-2.38114e-06,7.38627e-06,0,9.37349e-07,-1.19886e+09,-1.19756e+09,-1.19855e+09,125277,0.00321499,0.102481,0,0.102531,-1284.91,-43096.4,-0,43115.6,125277
step02_gravity_refstate-mantle.xmf,383,-2.41182e-06,7.34611e-06,0,5.88648e-08,-1.22168e+09,-1.22038e+09,-1.22136e+09,7867.28,0.000226817,0.0982286,0,0.0982288,-93.8587,-43801.1,-0,43801.2,7867.28
step02_gravity_refstate-mantle.xmf,384,-2.28392e-06,7.07078e-06,0,-1.85534e-07,-1.24335e+09,-1.2421e+09,-1.24305e+09,-24796.6,-0.000789529,0.0933541,-0,0.0933575,346.107,-44470.5,0,44471.8,24796.6
step02_gravity_refstate-mantle.xmf,385,-1.67488e-06,6.17607e-06,0,-1.19921e-06,-1.2654e+09,-1.26435e+09,-1.26517e+09,-160274,-0.00607293,0.0852659,-0,0.0854819,3050.61,-45153.3,0,45256.2,160274
step02_gravity_refstate-mantle.xmf,386,-1.8956e-06,6.48419e-06,0,-9.49541e-07,-1.26405e+09,-1.26293e+09,-1.26379e+09,-126906,-0.00458356,0.0870913,-0,0.0872119,2207.39,-45110.8,0,45164.8,126906
step02_gravity_refstate-mantle.xmf,387,-2.05304e-06,6.71175e-06,0,-7.17346e-07,-1.2596e+09,-1.25843e+09,-1.25932e+09,-95873.2,-0.00326986,0.0889667,-0,0.0890268,1523.04,-44972.9,0,44998.7,95873.2
step02_gravity_refstate-mantle.xmf,388,-1.4127e-06,5.75396e-06,0,-1.19176e-06,-1.30046e+09,-1.2995e+09,-1.30027e+09,-159279,-0.00716378,0.0768633,-0,0.0771964,4001.3,-46236.9,0,46409.7,159279
step02_gravity_refstate-mantle.xmf,389,-1.27116e-06,5.52911e-06,0,-1.13004e-06,-1.32783e+09,-1.32692e+09,-1.32766e+09,-151030,-0.00770428,0.0708933,-0,0.0713107,4609.67,-47082.8,0,47307.9,151030
step02_gravity_refstate-mantle.xmf,390,-9.34748e-07,5.02374e-06,0,-1.12435e-06,-1.35401e+09,-1.35321e+09,-1.35389e+09,-150269,-0.00938558,0.0631651,-0,0.0638586,6358.95,-47892.5,0,48312.8,150269
step02_gravity_refstate-mantle.xmf,391,-6.66924e-07,4.63063e-06,0,-1.0267e-06,-1.38295e+09,-1.38224e+09,-1.38286e+09,-137219,-0.0105821,0.0554386,-0,0.0564396,8121.02,-48787.1,0,49458.4,137219
step02_gravity_refstate-mantle.xmf,392,-6.06663e-07,4.56055e-06,0,-9.14731e-07,-1.41523e+09,-1.41454e+09,-1.41515e+09,-122254,-0.0108373,0.0496625,-0,0.0508312,8799.66,-49784.7,0,50556.4,122254
step02_gravity_refstate-mantle.xmf,393,-3.91436e-07,4.25307e-06,0,-7.63879e-07,-1.44804e+09,-1.44742e+09,-1.44799e+09,-102092,-0.011689,0.0421278,-0,0.0437193,10783.1,-50798.7,0,51930.6,102092
step02_gravity_refstate-mantle.xmf,394,-2.17135e-07,4.02685e-06,0,-6.02428e-07,-1.48562e+09,-1.48505e+09,-1.48559e+09,-80514.5,-0.0122103,0.0347549,-0,0.0368374,12753.3,-51960,0,53502.2,80514.5
step02_gravity_refstate-mantle.xmf,395,-1.9662e-07,4.04959e-06,0,-4.93731e-07,-1.52737e+09,-1.5268e+09,-1.52734e+09,-65987.1,-0.0122916,0.0289266,-0,0.0314298,13335.8,-53250.1,0,54894.6,65987.1
step02_gravity_refstate-mantle.xmf,396,-1.62067e-07,4.05182e-06,0,-3.85405e-07,-1.56915e+09,-1.56858e+09,-1.56913e+09,-51509.4,-0.0123855,0.0231118,-0,0.0262213,14026.3,-54540.7,0,56315.5,51509.4
step02_gravity_refstate-mantle.xmf,397,-1.14961e-07,4.04165e-06,0,-2.79453e-07,-1.61193e+09,-1.61138e+09,-1.61192e+09,-37349,-0.0124754,0.0172612,-0,0.0212975,14802.4,-55862.6,0,57790.5,37349
step02_gravity_refstate-mantle.xmf,398,-5.67456e-08,4.02058e-06,0,-1.78435e-07,-1.65561e+09,-1.65506e+09,-1.6556e+09,-23847.9,-0.0125435,0.0114395,-0,0.0169765,15653,-57212.1,0,59314.7,23847.9
step02_gravity_refstate-mantle.xmf,399,1.26256e-08,3.98775e-06,0,-8.40935e-08,-1.70046e+09,-1.69992e+09,-1.70046e+09,-11239.1,-0.0125682,0.005646,-0,0.0137781,16590.1,-58597.9,0,60901.1,11239.1
step02_gravity_refstate-mantle.xmf,400,8.94831e-08,3.94555e-06,0,9.5214e-10,-1.74583e+09,-1.74532e+09,-1.74585e+09,127.254,-0.0125223,-5.43949e-19,-0,0.0125223,17587.3,-60000,0,62524.5,127.254
step02_gravity_refstate-mantle.xmf,401,-2.08475e-07,4.46259e-06,0,2.3809e-06,-1.0984e+09,-1.09777e+09,-1.09837e+09,318207,0.00861626,0.106373,0,0.106721,-5051.17,-40000,-0,40317.7,318207
step02_gravity_refstate-mantle.xmf,402,-4.60252e-07,4.88625e-06,0,2.4395e-06,-1.11693e+09,-1.11621e+09,-1.11687e+09,326039,0.0088889,0.10564,0,0.106013,-4698.43,-40571.8,-0,40843,326039
step02_gravity_refstate-mantle.xmf,403,-1.38303e-06,6.22341e-06,0,2.26329e-06,-1.1544e+09,-1.15338e+09,-1.15421e+09,302488,0.00777631,0.105751,0,0.106036,-3366.89,-41726.5,-0,41862.1,302488
step02_gravity_refstate-mantle.xmf,404,-1.63704e-06,6.48416e-06,0,1.99508e-06,-1.17372e+09,-1.17264e+09,-1.1735e+09,266642,0.00708893,0.103273,0,0.103516,-3033.99,-42322.4,-0,42431,266642
step02_gravity_refstate-mantle.xmf,405,-2.33726e-06,7.24244e-06,0,5.58262e-07,-1.22159e+09,-1.22031e+09,-1.22128e+09,74611.8,0.00214745,0.0978226,0,0.0978461,-898.969,-43798.5,-0,43807.7,74611.8
step02_gravity_refstate-mantle.xmf,406,-2.12994e-06,6.81258e-06,0,-3.9733e-07,-1.26414e+09,-1.26294e+09,-1.26385e+09,-53103.1,-0.001815,0.0886518,-0,0.0886704,840.567,-45112.9,0,45120.7,53103.1
step02_gravity_refstate-mantle.xmf,407,-1.57095e-06,6.00132e-06,0,-1.1555e-06,-1.28627e+09,-1.28526e+09,-1.28606e+09,-154432,-0.00636095,0.0807139,-0,0.0809641,3363.51,-45798.3,0,45921.6,154432
step02_gravity_refstate-mantle.xmf,408,-1.15344e-06,5.33633e-06,0,-1.05252e-06,-1.35558e+09,-1.35471e+09,-1.35543e+09,-140670,-0.00819611,0.0650762,-0,0.0655903,5229.98,-47940.4,0,48224.8,140670
step02_gravity_refstate-mantle.xmf,409,-8.58464e-07,4.91037e-06,0,-1.01801e-06,-1.38436e+09,-1.38359e+09,-1.38425e+09,-136057,-0.00970159,0.0573439,-0,0.0581588,6973.74,-48830.3,0,49325.8,136057
step02_gravity_refstate-mantle.xmf,410,-5.58262e-07,4.50005e-06,0,-7.96507e-07,-1.44884e+09,-1.44816e+09,-1.44877e+09,-106453,-0.0110697,0.0439128,-0,0.0452865,9475.68,-50823,0,51698.8,106453
step02_gravity_refstate-mantle.xmf,411,-3.65875e-07,4.24832e-06,0,-6.50059e-07,-1.4855e+09,-1.48489e+09,-1.48545e+09,-86880.3,-0.0118152,0.0364135,-0,0.0382824,11381.9,-51956.1,0,53188.2,86880.3
step02_gravity_refstate-mantle.xmf,412,-2.38143e-07,4.40793e-06,0,2.25381e-06,-1.11705e+09,-1.11643e+09,-1.11702e+09,301222,0.00914522,0.101749,0,0.10216,-5433.94,-40575.9,-0,40938.1,301222
step02_gravity_refstate-mantle.xmf,413,-7.42618e-07,5.2864e-06,0,2.40661e-06,-1.1358e+09,-1.135e+09,-1.1357e+09,321643,0.00887628,0.104326,0,0.104703,-4378.88,-41154,-0,41386.3,321643
step02_gravity_refstate-mantle.xmf,414,-1.02669e-06,5.65541e-06,0,2.29611e-06,-1.15478e+09,-1.15389e+09,-1.15464e+09,306875,0.00858366,0.102708,0,0.103066,-4042.11,-41739.3,-0,41934.6,306875
step02_gravity_refstate-mantle.xmf,415,-1.80827e-06,6.64692e-06,0,1.73479e-06,-1.18966e+09,-1.18853e+09,-1.18942e+09,231855,0.00641914,0.100985,0,0.101188,-2752.79,-42814,-0,42902.4,231855
step02_gravity_refstate-mantle.xmf,416,-2.05275e-06,6.94116e-06,0,1.42154e-06,-1.19874e+09,-1.19753e+09,-1.19846e+09,189989,0.00517859,0.100705,0,0.100838,-2167.42,-43093.5,-0,43148,189989
step02_gravity_refstate-mantle.xmf,417,-2.15602e-06,6.96807e-06,0,1.01379e-06,-1.22189e+09,-1.22067e+09,-1.2216e+09,135493,0.0039684,0.0966695,0,0.096751,-1708.94,-43808.1,-0,43841.4,135493
step02_gravity_refstate-mantle.xmf,418,-2.25997e-06,7.05055e-06,0,2.61012e-07,-1.24424e+09,-1.243e+09,-1.24394e+09,34884.3,0.00110061,0.0931064,0,0.0931129,-484.007,-44498.2,-0,44500.8,34884.3
step02_gravity_refstate-mantle.xmf,419,-2.17136e-06,6.84516e-06,0,1.62489e-08,-1.26654e+09,-1.26533e+09,-1.26625e+09,2171.67,4.63577e-05,0.0884229,0,0.088423,-21.44,-45186.9,-0,45186.9,2171.67
step02_gravity_refstate-mantle.xmf,420,-1.97176e-06,6.55489e-06,0,-6.11131e-07,-1.28193e+09,-1.28079e+09,-1.28166e+09,-81677.6,-0.0030787,0.0844152,-0,0.0844713,1502.3,-45662.8,0,45687.5,81677.6
step02_gravity_refstate-mantle.xmf,421,-1.78051e-06,6.28221e-06,0,-9.09454e-07,-1.28703e+09,-1.28595e+09,-1.28679e+09,-121549,-0.0048211,0.0821777,-0,0.082319,2450.09,-45821.1,0,45886.6,121549
step02_gravity_refstate-mantle.xmf,422,-1.6404e-06,6.06203e-06,0,-9.52465e-07,-1.30675e+09,-1.30572e+09,-1.30653e+09,-127297,-0.00552702,0.077608,-0,0.0778046,2968.43,-46430.7,0,46525.5,127297
step02_gravity_refstate-mantle.xmf,423,-1.49942e-06,5.84136e-06,0,-9.55707e-07,-1.32982e+09,-1.32884e+09,-1.32962e+09,-127730,-0.00617516,0.0724907,-0,0.0727532,3518.75,-47143.6,0,47274.8,127730
step02_gravity_refstate-mantle.xmf,424,-1.36638e-06,5.63898e-06,0,-9.27482e-07,-1.35702e+09,-1.35608e+09,-1.35683e+09,-123958,-0.00676834,0.0667454,-0,0.0670876,4105.97,-47984.1,0,48159.4,123958
step02_gravity_refstate-mantle.xmf,425,-1.05592e-06,5.19197e-06,0,-9.706e-07,-1.38497e+09,-1.38413e+09,-1.38482e+09,-129721,-0.00860807,0.0592448,-0,0.0598669,5833.22,-48848.3,0,49195.4,129721
step02_gravity_refstate-mantle.xmf,426,-7.89331e-07,4.81769e-06,0,-9.11044e-07,-1.41629e+09,-1.41554e+09,-1.41619e+09,-121761,-0.0100001,0.0514672,-0,0.0524297,7606.55,-49816.9,0,50394.3,121761
step02_gravity_refstate-mantle.xmf,427,-7.22867e-07,4.74579e-06,0,-8.09745e-07,-1.44918e+09,-1.44845e+09,-1.44908e+09,-108222,-0.0102881,0.0456272,-0,0.0467727,8255.16,-50832.9,0,51498.9,108222
step02_gravity_refstate-mantle.xmf,428,-5.19299e-07,4.47109e-06,0,-6.84069e-07,-1.48463e+09,-1.48396e+09,-1.48456e+09,-91425.9,-0.0112472,0.0381359,-0,0.0397599,10083,-51928.7,0,52898.6,91425.9
step02_gravity_refstate-mantle.xmf,429,-3.47924e-07,4.26546e-06,0,-5.35225e-07,-1.52654e+09,-1.52592e+09,-1.52649e+09,-71532.8,-0.0119047,0.0304402,-0,0.0326853,11901.6,-53223.9,0,54538.3,71532.8
step02_gravity_refstate-mantle.xmf,430,-3.16886e-07,4.27679e-06,0,-4.22546e-07,-1.56903e+09,-1.56842e+09,-1.56899e+09,-56473.3,-0.0120151,0.0243186,-0,0.0271249,12477.8,-54536.8,0,55946,56473.3
step02_gravity_refstate-mantle.xmf,431,-2.68426e-07,4.26234e-06,0,-3.10856e-07,-1.61129e+09,-1.61068e+09,-1.61125e+09,-41545.9,-0.0121687,0.0182527,-0,0.0219372,13199.3,-55842.3,0,57381,41545.9
step02_gravity_refstate-mantle.xmf,432,-2.09011e-07,4.23945e-06,0,-2.00534e-07,-1.65543e+09,-1.65483e+09,-1.6554e+09,-26801.4,-0.0123236,0.0120727,-0,0.0172517,13996.6,-57206.1,0,58893.5,26801.4
step02_gravity_refstate-mantle.xmf,433,-1.42436e-07,4.21151e-06,0,-9.61788e-08,-1.70046e+09,-1.69987e+09,-1.70044e+09,-12854.3,-0.0124538,0.00596126,-0,0.013807,14823.3,-58597.4,0,60443.2,12854.3
step02_gravity_refstate-mantle.xmf,434,-6.25481e-08,4.16733e-06,0,8.81459e-10,-1.74585e+09,-1.74528e+09,-1.74584e+09,117.807,-0.012547,-5.74399e-19,-0,0.012547,15749.5,-60000,0,62032.6,117.807
step02_gravity_refstate-mantle.xmf,435,-5.46606e-08,4.0475e-06,0,2.15815e-06,-1.0984e+09,-1.09785e+09,-1.09839e+09,288437,0.00871262,0.102323,0,0.102693,-5788.3,-40000,-0,40416.6,288437
step02_gravity_refstate-mantle.xmf,436,-4.76838e-07,4.78497e-06,0,2.28357e-06,-1.1358e+09,-1.1351e+09,-1.13574e+09,305200,0.00930345,0.100819,0,0.101248,-5089.65,-41154.5,-0,41468,305200
step02_gravity_refstate-mantle.xmf,437,-1.32514e-06,6.00054e-06,0,2.08936e-06,-1.17467e+09,-1.17369e+09,-1.17449e+09,279243,0.0080333,0.100644,0,0.100964,-3680.24,-42352.4,-0,42512,279243
step02_gravity_refstate-mantle.xmf,438,-1.56267e-06,6.26651e-06,0,1.84502e-06,-1.19387e+09,-1.19283e+09,-1.19366e+09,246586,0.00727911,0.0984048,0,0.0986736,-3292.9,-42944.9,-0,43070.9,246586
step02_gravity_refstate-mantle.xmf,439,-2.15449e-06,6.90343e-06,0,6.72861e-07,-1.24468e+09,-1.24347e+09,-1.24439e+09,89927.9,0.00288527,0.0923728,0,0.0924178,-1290.96,-44511.9,-0,44530.6,89927.9
step02_gravity_refstate-mantle.xmf,440,-2.05663e-06,6.66297e-06,0,-2.17502e-07,-1.28608e+09,-1.28491e+09,-1.2858e+09,-29069.2,-0.00108237,0.0842468,-0,0.0842538,523.776,-45790.8,0,45793.8,29069.2
step02_gravity_refstate-mantle.xmf,441,-1.2493e-06,5.46262e-06,0,-8.74186e-07,-1.38602e+09,-1.38512e+09,-1.38585e+09,-116835,-0.00729806,0.0608678,-0,0.0613037,4703.38,-48880.3,0,49106,116835
step02_gravity_refstate-mantle.xmf,442,-9.72845e-07,5.07833e-06,0,-8.77853e-07,-1.41717e+09,-1.41636e+09,-1.41704e+09,-117325,-0.00896478,0.0531763,-0,0.0539267,6435.17,-49843.3,0,50257,117325
step02_gravity_refstate-mantle.xmf,443,-6.8534e-07,4.70778e-06,0,-7.00838e-07,-1.48318e+09,-1.48246e+09,-1.48309e+09,-93667,-0.0104616,0.0399891,-0,0.0413349,8761.85,-51883.4,0,52618.1,93667
step02_gravity_refstate-mantle.xmf,444,-5.07375e-07,4.49289e-06,0,-5.67402e-07,-1.52519e+09,-1.52452e+09,-1.52512e+09,-75833.3,-0.0113066,0.0320658,-0,0.0340009,10483.8,-53181.6,0,54205.1,75833.3
step02_gravity_refstate-mantle.xmf,445,-8.47287e-08,4.02769e-06,0,2.05601e-06,-1.11727e+09,-1.11672e+09,-1.11726e+09,274786,0.0092707,0.0979506,0,0.0983883,-6182.49,-40582.6,-0,41050.9,274786
step02_gravity_refstate-mantle.xmf,446,-2.59395e-07,4.3461e-06,0,2.12381e-06,-1.13544e+09,-1.13483e+09,-1.13541e+09,283847,0.00957167,0.0972637,0,0.0977335,-5837.77,-41143.8,-0,41555.9,283847
step02_gravity_refstate-mantle.xmf,447,-7.40218e-07,5.15286e-06,0,2.2375e-06,-1.15528e+09,-1.1545e+09,-1.15519e+09,299042,0.00920522,0.099429,0,0.0998542,-4750.23,-41755.5,-0,42024.8,299042
step02_gravity_refstate-mantle.xmf,448,-1.01061e-06,5.50457e-06,0,2.11704e-06,-1.1761e+09,-1.17523e+09,-1.17597e+09,282942,0.00883199,0.0976083,0,0.0980071,-4375.67,-42397.7,-0,42622.9,282942
step02_gravity_refstate-mantle.xmf,449,-1.76165e-06,6.4954e-06,0,1.60754e-06,-1.20676e+09,-1.20565e+09,-1.20652e+09,214848,0.00643792,0.0971471,0,0.0973602,-2876.77,-43342.1,-0,43437.5,214848
step02_gravity_refstate-mantle.xmf,450,-1.97685e-06,6.64396e-06,0,1.03039e-06,-1.24459e+09,-1.24343e+09,-1.24432e+09,137711,0.00452928,0.0912425,0,0.0913548,-2085.15,-44509.6,-0,44558.4,137711
step02_gravity_refstate-mantle.xmf,451,-1.88289e-06,6.58632e-06,0,1.34547e-06,-1.22408e+09,-1.22295e+09,-1.22383e+09,179823,0.00559344,0.094551,0,0.0947163,-2524.41,-43876.8,-0,43949.3,179823
step02_gravity_refstate-mantle.xmf,452,-2.08325e-06,6.71982e-06,0,4.50262e-07,-1.27086e+09,-1.26968e+09,-1.27058e+09,60177.6,0.00208727,0.0871468,0,0.0871718,-983.529,-45320.5,-0,45331.2,60177.6
step02_gravity_refstate-mantle.xmf,453,-2.0543e-06,6.63945e-06,0,1.63481e-07,-1.28914e+09,-1.28797e+09,-1.28886e+09,21849.2,0.000796149,0.0836618,0,0.0836655,-387.754,-45885.2,-0,45886.8,21849.2
step02_gravity_refstate-mantle.xmf,454,-1.94242e-06,6.4706e-06,0,-3.54696e-07,-1.30662e+09,-1.30549e+09,-1.30636e+09,-47405.1,-0.00194455,0.079861,-0,0.0798847,987.101,-46425.5,0,46436,47405.1
step02_gravity_refstate-mantle.xmf,455,-1.82027e-06,6.30686e-06,0,-6.83761e-07,-1.30596e+09,-1.30488e+09,-1.30572e+09,-91384.6,-0.00382875,0.0791192,-0,0.0792118,1984.14,-46405.7,0,46448.1,91384.6
step02_gravity_refstate-mantle.xmf,456,-1.99735e-06,6.54211e-06,0,-5.46004e-08,-1.30381e+09,-1.30267e+09,-1.30355e+09,-7297.35,-0.000305931,0.0807136,-0,0.0807142,153.171,-46338.7,0,46339,7297.35
step02_gravity_refstate-mantle.xmf,457,-1.68305e-06,6.08913e-06,0,-7.30358e-07,-1.33097e+09,-1.32993e+09,-1.33074e+09,-97612.4,-0.0045338,0.0737366,-0,0.0738758,2492.78,-47178.4,0,47244.2,97612.4
step02_gravity_refstate-mantle.xmf,458,-1.54823e-06,5.88438e-06,0,-7.43977e-07,-1.35822e+09,-1.35723e+09,-1.35801e+09,-99432.5,-0.00519676,0.0680404,-0,0.0682386,3034.04,-48020.7,0,48116.4,99432.5
step02_gravity_refstate-mantle.xmf,459,-1.42379e-06,5.70441e-06,0,-7.35666e-07,-1.38715e+09,-1.3862e+09,-1.38696e+09,-98321.8,-0.00582367,0.0621637,-0,0.0624359,3606.94,-48914.8,0,49047.6,98321.8
step02_gravity_refstate-mantle.xmf,460,-1.15025e-06,5.32556e-06,0,-8.09717e-07,-1.41719e+09,-1.41633e+09,-1.41704e+09,-108219,-0.00775441,0.054832,-0,0.0553776,5293.69,-49843.5,0,50123.8,108219
step02_gravity_refstate-mantle.xmf,461,-8.99406e-07,4.9879e-06,0,-7.84124e-07,-1.45007e+09,-1.44928e+09,-1.44995e+09,-104798,-0.00929811,0.0471935,-0,0.0481007,7039.79,-50859.8,0,51344.7,104798
step02_gravity_refstate-mantle.xmf,462,-8.38741e-07,4.92915e-06,0,-6.94443e-07,-1.48306e+09,-1.48229e+09,-1.48295e+09,-92812.3,-0.00957042,0.0414406,-0,0.0425313,7589.81,-51879.2,0,52431.4,92812.3
step02_gravity_refstate-mantle.xmf,463,-6.66823e-07,4.71399e-06,0,-5.90236e-07,-1.52096e+09,-1.52024e+09,-1.52087e+09,-78885,-0.0105308,0.0340736,-0,0.0356638,9127.85,-53050.7,0,53830.2,78885
step02_gravity_refstate-mantle.xmf,464,-4.83633e-07,4.50777e-06,0,-4.48201e-07,-1.5682e+09,-1.56754e+09,-1.56814e+09,-59902.1,-0.0114088,0.0256538,-0,0.0280764,10953.3,-54510.6,0,55600.2,59902.1
step02_gravity_refstate-mantle.xmf,465,-4.27923e-07,4.48741e-06,0,-3.34257e-07,-1.6108e+09,-1.61015e+09,-1.61075e+09,-44673.5,-0.0116338,0.019236,-0,0.0224804,11659.9,-55826.8,0,57031.5,44673.5
step02_gravity_refstate-mantle.xmf,466,-3.69059e-07,4.46323e-06,0,-2.21657e-07,-1.65385e+09,-1.6532e+09,-1.6538e+09,-29624.5,-0.0118604,0.0129189,-0,0.0175375,12388.4,-57156.8,0,58484,29624.5
step02_gravity_refstate-mantle.xmf,467,-3.04661e-07,4.43916e-06,0,-1.08834e-07,-1.69933e+09,-1.6987e+09,-1.69929e+09,-14545.7,-0.0120773,0.00643862,-0,0.0136864,13136.4,-58562.2,0,60017.4,14545.7
step02_gravity_refstate-mantle.xmf,468,-2.27583e-07,4.40241e-06,0,7.25874e-10,-1.74586e+09,-1.74525e+09,-1.74583e+09,97.013,-0.012288,-6.20795e-19,-0,0.012288,13961.9,-60000,0,61603,97.013
step02_gravity_refstate-mantle.xmf,469,5.34287e-08,3.70886e-06,0,1.93788e-06,-1.0984e+09,-1.09791e+09,-1.09841e+09,258997,0.00871323,0.0983317,0,0.098717,-6559.91,-40000,-0,40534.3,258997
step02_gravity_refstate-mantle.xmf,470,-4.83996e-07,4.68779e-06,0,2.13153e-06,-1.15512e+09,-1.15442e+09,-1.15505e+09,284879,0.00965706,0.0960723,0,0.0965564,-5500.76,-41750.8,-0,42111.6,284879
step02_gravity_refstate-mantle.xmf,471,-1.29872e-06,5.84378e-06,0,1.91178e-06,-1.19715e+09,-1.19619e+09,-1.19698e+09,255510,0.00817865,0.0955409,0,0.0958904,-3948.09,-43046.7,-0,43227.4,255510
step02_gravity_refstate-mantle.xmf,472,-2.00723e-06,6.64063e-06,0,7.6843e-07,-1.26273e+09,-1.26157e+09,-1.26246e+09,102701,0.00361417,0.0880942,0,0.0881683,-1704.29,-45069.8,-0,45102,102701
step02_gravity_refstate-mantle.xmf,473,-1.58097e-06,6.17386e-06,0,1.61141e-06,-1.22002e+09,-1.21899e+09,-1.21981e+09,215365,0.00709591,0.0931571,0,0.093427,-3365.58,-43752.3,-0,43881.6,215365
step02_gravity_refstate-mantle.xmf,474,-1.96122e-06,6.48601e-06,0,1.71346e-07,-1.31004e+09,-1.30891e+09,-1.30977e+09,22900.4,0.000957208,0.0793962,0,0.079402,-486.417,-46531,-0,46533.6,22900.4
step02_gravity_refstate-mantle.xmf,475,-1.31317e-06,5.54963e-06,0,-7.02913e-07,-1.41728e+09,-1.41637e+09,-1.41711e+09,-93944.3,-0.0063851,0.0562404,-0,0.0566017,4182.53,-49845.9,0,50021,93944.3
step02_gravity_refstate-mantle.xmf,476,-1.0683e-06,5.22245e-06,0,-7.31781e-07,-1.45057e+09,-1.44972e+09,-1.45042e+09,-97802.5,-0.00813226,0.0486608,-0,0.0493356,5856.2,-50874.7,0,51210.7,97802.5
step02_gravity_refstate-mantle.xmf,477,-7.94731e-07,4.88772e-06,0,-6.10938e-07,-1.51241e+09,-1.51165e+09,-1.5123e+09,-81651.9,-0.00977733,0.0364857,-0,0.0377731,8039.57,-52786.1,0,53394.8,81651.9
step02_gravity_refstate-mantle.xmf,478,-6.52328e-07,4.74019e-06,0,-4.66505e-07,-1.56527e+09,-1.56455e+09,-1.56519e+09,-62348.4,-0.0105707,0.0272986,-0,0.0292738,9455.44,-54419.6,0,55234.9,62348.4
step02_gravity_refstate-mantle.xmf,479,1.41578e-08,3.73647e-06,0,1.86031e-06,-1.12056e+09,-1.12006e+09,-1.12056e+09,248630,0.00938259,0.0938464,0,0.0943143,-6964.11,-40684.2,-0,41275.9,248630
step02_gravity_refstate-mantle.xmf,480,-1.15349e-07,4.01531e-06,0,1.96573e-06,-1.13385e+09,-1.13329e+09,-1.13383e+09,262720,0.00967155,0.0942759,0,0.0947707,-6523.48,-41094.5,-0,41609.1,262720
step02_gravity_refstate-mantle.xmf,481,-2.61175e-07,4.26151e-06,0,1.99036e-06,-1.1536e+09,-1.15299e+09,-1.15356e+09,266011,0.00993709,0.0927642,0,0.0932949,-6296.29,-41704.3,-0,42176.9,266011
step02_gravity_refstate-mantle.xmf,482,-7.36488e-07,5.03805e-06,0,2.07323e-06,-1.17628e+09,-1.17551e+09,-1.17619e+09,277087,0.00948753,0.0944833,0,0.0949584,-5130.95,-42403.9,-0,42713.2,277087
step02_gravity_refstate-mantle.xmf,483,-9.94974e-07,5.37864e-06,0,1.94888e-06,-1.19847e+09,-1.19762e+09,-1.19834e+09,260468,0.00902832,0.0925834,0,0.0930226,-4702.39,-43088.4,-0,43344.3,260468
step02_gravity_refstate-mantle.xmf,484,-1.84416e-06,6.40337e-06,0,1.00319e-06,-1.26696e+09,-1.26586e+09,-1.26671e+09,134076,0.00488053,0.0862237,0,0.0863617,-2381.27,-45200.9,-0,45263.6,134076
step02_gravity_refstate-mantle.xmf,485,-1.73401e-06,6.30261e-06,0,1.2984e-06,-1.24616e+09,-1.24508e+09,-1.24592e+09,173532,0.00602803,0.0892951,0,0.0894984,-2901.68,-44558.8,-0,44653.2,173532
step02_gravity_refstate-mantle.xmf,486,-1.91522e-06,6.46566e-06,0,7.03866e-07,-1.2853e+09,-1.28418e+09,-1.28504e+09,94071.6,0.00361611,0.0834192,0,0.0834975,-1790.55,-45767.1,-0,45802.1,94071.6
step02_gravity_refstate-mantle.xmf,487,-1.93773e-06,6.45488e-06,0,4.39677e-07,-1.30371e+09,-1.30259e+09,-1.30345e+09,58762.8,0.00234758,0.0803096,0,0.0803439,-1188.95,-46335.6,-0,46350.9,58762.8
step02_gravity_refstate-mantle.xmf,488,-1.89507e-06,6.37914e-06,0,-9.50015e-08,-1.32886e+09,-1.32775e+09,-1.3286e+09,-12697,-0.000548812,0.0757,-0,0.075702,289.086,-47112.6,0,47113.5,12697
step02_gravity_refstate-mantle.xmf,489,-1.81478e-06,6.26868e-06,0,-4.49657e-07,-1.33075e+09,-1.32967e+09,-1.33051e+09,-60096.7,-0.00272557,0.0747969,-0,0.0748466,1459.86,-47171.3,0,47193.9,60096.7
step02_gravity_refstate-mantle.xmf,490,-1.6871e-06,6.06857e-06,0,-5.17214e-07,-1.35925e+09,-1.35821e+09,-1.35903e+09,-69125.6,-0.0035101,0.0689413,-0,0.0690306,1995.36,-48052,0,48093.4,69125.6
step02_gravity_refstate-mantle.xmf,491,-1.56495e-06,5.89207e-06,0,-5.51655e-07,-1.38798e+09,-1.38699e+09,-1.38777e+09,-73728.7,-0.00422119,0.0631601,-0,0.063301,2538.17,-48939.9,0,49005.7,73728.7
step02_gravity_refstate-mantle.xmf,492,-1.45258e-06,5.73873e-06,0,-5.6201e-07,-1.41779e+09,-1.41683e+09,-1.4176e+09,-75112.6,-0.00488522,0.0572939,-0,0.0575018,3100.65,-49861.1,0,49957.4,75112.6
step02_gravity_refstate-mantle.xmf,493,-1.22234e-06,5.42995e-06,0,-6.58444e-07,-1.44768e+09,-1.44679e+09,-1.44752e+09,-88001,-0.00687902,0.0504495,-0,0.0509163,4742.5,-50785.1,0,51006.1,88001
step02_gravity_refstate-mantle.xmf,494,-9.9436e-07,5.14021e-06,0,-6.50176e-07,-1.48475e+09,-1.48393e+09,-1.48462e+09,-86896.1,-0.00849135,0.0425247,-0,0.0433642,6423.22,-51931.1,0,52326.8,86896.1
step02_gravity_refstate-mantle.xmf,495,-9.25938e-07,5.07553e-06,0,-5.72243e-07,-1.5188e+09,-1.51799e+09,-1.51867e+09,-76480.3,-0.00885872,0.0365474,-0,0.0376057,7010.47,-52982.9,0,53444.7,76480.3
step02_gravity_refstate-mantle.xmf,496,-8.25047e-07,4.97157e-06,0,-4.87494e-07,-1.55525e+09,-1.55447e+09,-1.55514e+09,-65153.6,-0.00949011,0.0300632,-0,0.0315255,7935.28,-54109.2,0,54688,65153.6
step02_gravity_refstate-mantle.xmf,497,-5.92758e-07,4.70999e-06,0,-3.47911e-07,-1.60918e+09,-1.60848e+09,-1.60911e+09,-46498.3,-0.0108723,0.0203861,-0,0.0231041,10157.6,-55776.3,0,56693.7,46498.3
step02_gravity_refstate-mantle.xmf,498,-5.33985e-07,4.69165e-06,0,-2.32822e-07,-1.65365e+09,-1.65296e+09,-1.65358e+09,-31116.7,-0.0111538,0.0135883,-0,0.0175798,10822.4,-57150.3,0,58166,31116.7
step02_gravity_refstate-mantle.xmf,499,-4.73308e-07,4.67328e-06,0,-1.15537e-07,-1.69945e+09,-1.69876e+09,-1.69938e+09,-15441.5,-0.0114376,0.00675908,-0,0.0132854,11491.4,-58565.2,0,59681.9,15441.5
step02_gravity_refstate-mantle.xmf,500,-4.01529e-07,4.64502e-06,0,4.48958e-10,-1.74588e+09,-1.74521e+09,-1.74583e+09,60.0032,-0.0117399,-6.52222e-19,-0,0.0117399,12218.8,-60000,0,61231.5,60.0032
step02_gravity_refstate-mantle.xmf,501,1.24541e-07,3.43367e-06,0,1.72495e-06,-1.09841e+09,-1.09797e+09,-1.09843e+09,230539,0.00864126,0.0944275,0,0.0948221,-7368.31,-40000,-0,40673,230539
step02_gravity_refstate-mantle.xmf,502,-4.90451e-07,4.60615e-06,0,1.9827e-06,-1.17589e+09,-1.17521e+09,-1.17583e+09,264987,0.00996605,0.0912844,0,0.0918268,-5923.39,-42392.3,-0,42804.2,264987
step02_gravity_refstate-mantle.xmf,503,-1.26533e-06,5.70192e-06,0,1.73946e-06,-1.2217e+09,-1.22077e+09,-1.22153e+09,232478,0.00828521,0.0902591,0,0.0906386,-4219.35,-43805,-0,44007.7,232478
step02_gravity_refstate-mantle.xmf,504,-1.75599e-06,6.24581e-06,0,9.35967e-07,-1.28819e+09,-1.28713e+09,-1.28796e+09,125092,0.00501113,0.0817758,0,0.0819291,-2563.55,-45857.1,-0,45928.7,125092
step02_gravity_refstate-mantle.xmf,505,-1.86406e-06,6.33225e-06,0,2.32765e-07,-1.33258e+09,-1.33148e+09,-1.33233e+09,31109,0.00140901,0.0748442,0,0.0748575,-749.489,-47227.6,-0,47233.6,31109
step02_gravity_refstate-mantle.xmf,506,-1.35253e-06,5.60668e-06,0,-5.45388e-07,-1.44848e+09,-1.44754e+09,-1.44829e+09,-72891,-0.00546276,0.0514198,-0,0.0517091,3646.55,-50809.2,0,50939.9,72891
step02_gravity_refstate-mantle.xmf,507,-1.15198e-06,5.35563e-06,0,-5.7878e-07,-1.48549e+09,-1.48462e+09,-1.48534e+09,-77353.9,-0.00713295,0.0437179,-0,0.044296,5162.06,-51953.4,0,52209.2,77353.9
step02_gravity_refstate-mantle.xmf,508,-7.54271e-07,4.92802e-06,0,-3.55126e-07,-1.60576e+09,-1.605e+09,-1.60566e+09,-47462.6,-0.00988811,0.0218064,-0,0.0239436,8679.22,-55670.1,0,56342.6,47462.6
step02_gravity_refstate-mantle.xmf,509,-5.87061e-08,3.83524e-06,0,1.80665e-06,-1.14635e+09,-1.14583e+09,-1.14634e+09,241459,0.0099728,0.0897164,0,0.090269,-7216.75,-41480.6,-0,42103.8,241459
step02_gravity_refstate-mantle.xmf,510,9.42643e-08,3.47675e-06,0,1.66426e-06,-1.12236e+09,-1.1219e+09,-1.12237e+09,222428,0.00938688,0.0899366,0,0.0904251,-7802.08,-40739.7,-0,41480,222428
step02_gravity_refstate-mantle.xmf,511,-2.64627e-07,4.1898e-06,0,1.84761e-06,-1.1743e+09,-1.1737e+09,-1.17426e+09,246933,0.0102874,0.0879106,0,0.0885105,-6812.06,-42343.5,-0,42887.9,246933
step02_gravity_refstate-mantle.xmf,512,-7.37609e-07,4.95017e-06,0,1.91394e-06,-1.19903e+09,-1.19827e+09,-1.19893e+09,255798,0.00971581,0.0895159,0,0.0900416,-5503.13,-43106.3,-0,43456.1,255798
step02_gravity_refstate-mantle.xmf,513,-9.71884e-07,5.25808e-06,0,1.78536e-06,-1.2228e+09,-1.22196e+09,-1.22267e+09,238614,0.00920874,0.087343,0,0.0878271,-5056.96,-43839.7,-0,44130.4,238614
step02_gravity_refstate-mantle.xmf,514,-1.4682e-06,5.92822e-06,0,1.48352e-06,-1.24634e+09,-1.24535e+09,-1.24615e+09,198272,0.00737942,0.087193,0,0.0875048,-3748.56,-44565.4,-0,44722.8,198272
step02_gravity_refstate-mantle.xmf,515,-1.61647e-06,6.06762e-06,0,1.19431e-06,-1.27455e+09,-1.27352e+09,-1.27433e+09,159619,0.0062695,0.0831684,0,0.0834043,-3229.33,-45436,-0,45550.6,159619
step02_gravity_refstate-mantle.xmf,516,-1.78879e-06,6.26264e-06,0,7.33342e-07,-1.30665e+09,-1.30558e+09,-1.30642e+09,98011.1,0.00413956,0.078777,0,0.0788857,-2159.04,-46427.2,-0,46477.3,98011.1
step02_gravity_refstate-mantle.xmf,517,-1.78902e-06,6.21876e-06,0,5.18356e-07,-1.33262e+09,-1.33155e+09,-1.33239e+09,69278.3,0.00314161,0.0742469,0,0.0743133,-1696.42,-47229.2,-0,47259.7,69278.3
step02_gravity_refstate-mantle.xmf,518,-1.77112e-06,6.18555e-06,0,-2.44228e-07,-1.35965e+09,-1.35859e+09,-1.35942e+09,-32641.1,-0.00162984,0.0695494,-0,0.0695685,911.113,-48064.2,0,48072.8,32641.1
step02_gravity_refstate-mantle.xmf,519,-1.79304e-06,6.21417e-06,0,4.23628e-08,-1.36026e+09,-1.35919e+09,-1.36002e+09,5661.79,0.000287291,0.0696104,0,0.0696109,-160.157,-48082.9,-0,48083.2,5661.79
step02_gravity_refstate-mantle.xmf,520,-1.6637e-06,6.02129e-06,0,-3.3314e-07,-1.38899e+09,-1.38797e+09,-1.38877e+09,-44524.1,-0.00250318,0.06375,-0,0.0637992,1476.88,-48970.9,0,48993.1,44524.1
step02_gravity_refstate-mantle.xmf,521,-1.55656e-06,5.87508e-06,0,-3.86079e-07,-1.41894e+09,-1.41794e+09,-1.41873e+09,-51599.5,-0.00328118,0.0579192,-0,0.0580121,2038.53,-49896.1,0,49937.7,51599.5
step02_gravity_refstate-mantle.xmf,522,-1.46075e-06,5.75106e-06,0,-4.14366e-07,-1.44756e+09,-1.44659e+09,-1.44736e+09,-55380.1,-0.00399387,0.052413,-0,0.0525649,2599.53,-50780.5,0,50847,55380.1
step02_gravity_refstate-mantle.xmf,523,-1.30986e-06,5.57011e-06,0,-4.60079e-07,-1.48751e+09,-1.48659e+09,-1.48734e+09,-61489.5,-0.00537454,0.0446041,-0,0.0449267,3743.34,-52015.3,0,52149.8,61489.5
step02_gravity_refstate-mantle.xmf,524,-1.07267e-06,5.27402e-06,0,-5.14695e-07,-1.5208e+09,-1.51996e+09,-1.52066e+09,-68789,-0.00760534,0.0373681,-0,0.0381342,5767.48,-53044.5,0,53357.1,68789
step02_gravity_refstate-mantle.xmf,525,-9.93365e-07,5.201e-06,0,-4.47768e-07,-1.55691e+09,-1.55608e+09,-1.55677e+09,-59844.2,-0.0081414,0.0309735,-0,0.0320256,6459.27,-54160,0,54543.8,59844.2
step02_gravity_refstate-mantle.xmf,526,-9.11052e-07,5.1386e-06,0,-3.38816e-07,-1.60542e+09,-1.60461e+09,-1.60529e+09,-45282.7,-0.00868822,0.0227182,-0,0.0243228,7236.13,-55658.9,0,56127.3,45282.7
step02_gravity_refstate-mantle.xmf,527,-6.95045e-07,4.90644e-06,0,-2.36235e-07,-1.65234e+09,-1.65159e+09,-1.65225e+09,-31572.8,-0.0102415,0.0143987,-0,0.0176695,9332.08,-57109.1,0,57866.6,31572.8
step02_gravity_refstate-mantle.xmf,528,-6.44437e-07,4.9049e-06,0,-1.21645e-07,-1.69806e+09,-1.69732e+09,-1.69797e+09,-16257.9,-0.0105317,0.00730459,-0,0.012817,9867.87,-58521.8,0,59347.9,16257.9
step02_gravity_refstate-mantle.xmf,529,-5.79002e-07,4.88804e-06,0,1.92354e-10,-1.7459e+09,-1.74517e+09,-1.74582e+09,25.7081,-0.0109045,-7.05534e-19,-0,0.0109045,10514.7,-60000,0,60914.4,25.7081
step02_gravity_refstate-mantle.xmf,530,1.69787e-07,3.2094e-06,0,1.52543e-06,-1.09842e+09,-1.09801e+09,-1.09844e+09,203873,0.00851706,0.0906322,0,0.0910315,-8215.82,-40000,-0,40835,203873
step02_gravity_refstate-mantle.xmf,531,-4.96004e-07,4.53713e-06,0,1.83348e-06,-1.19895e+09,-1.19828e+09,-1.19889e+09,245045,0.0102421,0.0862949,0,0.0869006,-6368.39,-43104.5,-0,43572.4,245045
step02_gravity_refstate-mantle.xmf,532,-1.19578e-06,5.52951e-06,0,1.59312e-06,-1.24699e+09,-1.24609e+09,-1.24683e+09,212921,0.00850008,0.0847276,0,0.0851529,-4599.47,-44586.3,-0,44822.9,212921
step02_gravity_refstate-mantle.xmf,533,-1.61812e-06,6.0256e-06,0,9.87811e-07,-1.30419e+09,-1.30317e+09,-1.30398e+09,132021,0.00571977,0.0779157,0,0.0781254,-3072.24,-46351.7,-0,46453.4,132021
step02_gravity_refstate-mantle.xmf,534,-1.74843e-06,6.15333e-06,0,3.17607e-07,-1.36111e+09,-1.36005e+09,-1.36087e+09,42448.2,0.00214328,0.0691357,0,0.0691689,-1205.14,-48109.2,-0,48124.3,42448.2
step02_gravity_refstate-mantle.xmf,535,-1.38943e-06,5.6649e-06,0,-4.36556e-07,-1.46695e+09,-1.46601e+09,-1.46677e+09,-58345.7,-0.00460702,0.0486459,-0,0.0488635,3096.27,-51380,0,51473.2,58345.7
step02_gravity_refstate-mantle.xmf,536,-1.21358e-06,5.46473e-06,0,-4.32715e-07,-1.52176e+09,-1.52087e+09,-1.5216e+09,-57832.4,-0.00608204,0.038259,-0,0.0387394,4441.06,-53073.6,0,53259.1,57832.4
step02_gravity_refstate-mantle.xmf,537,-8.16326e-07,5.05785e-06,0,-2.55892e-07,-1.64255e+09,-1.64177e+09,-1.64244e+09,-34199.9,-0.00938295,0.0163999,-0,0.0188944,8166.01,-56806.5,0,57390.4,34199.9
step02_gravity_refstate-mantle.xmf,538,1.53278e-07,3.24792e-06,0,1.46721e-06,-1.12347e+09,-1.12306e+09,-1.12349e+09,196092,0.0093051,0.0860134,0,0.0865153,-8730.65,-40773.9,-0,41698.1,196092
step02_gravity_refstate-mantle.xmf,539,6.40939e-08,3.50027e-06,0,1.57849e-06,-1.14696e+09,-1.1465e+09,-1.14696e+09,210965,0.00998129,0.0851875,0,0.0857702,-8316.85,-41499.4,-0,42324.6,210965
step02_gravity_refstate-mantle.xmf,540,-9.14235e-08,3.82785e-06,0,1.67723e-06,-1.17264e+09,-1.17211e+09,-1.17263e+09,224162,0.0104411,0.0843441,0,0.084988,-7780.98,-42292.5,-0,43002.3,224162
step02_gravity_refstate-mantle.xmf,541,-2.83575e-07,4.15717e-06,0,1.71133e-06,-1.19854e+09,-1.19794e+09,-1.1985e+09,228719,0.0106014,0.0829191,0,0.0835941,-7303.67,-43092.1,-0,43706.7,228719
step02_gravity_refstate-mantle.xmf,542,-7.26544e-07,4.86027e-06,0,1.75777e-06,-1.22354e+09,-1.2228e+09,-1.22345e+09,234925,0.00993131,0.0843311,0,0.0849139,-5916.75,-43863.4,-0,44260.6,234925
step02_gravity_refstate-mantle.xmf,543,-9.3211e-07,5.13252e-06,0,1.63455e-06,-1.2481e+09,-1.24729e+09,-1.24798e+09,218458,0.00941133,0.0819752,0,0.0825136,-5467.86,-44621.4,-0,44955.1,218458
step02_gravity_refstate-mantle.xmf,544,-1.35628e-06,5.70972e-06,0,1.36809e-06,-1.27363e+09,-1.27268e+09,-1.27345e+09,182846,0.00768091,0.0812261,0,0.0815884,-4173.37,-45408.4,-0,45599.8,182846
step02_gravity_refstate-mantle.xmf,545,-1.65224e-06,6.04632e-06,0,7.63148e-07,-1.33123e+09,-1.3302e+09,-1.331e+09,101995,0.00479082,0.0734939,0,0.0736499,-2648.37,-47186.5,-0,47260.8,101995
step02_gravity_refstate-mantle.xmf,546,-1.45984e-06,5.81118e-06,0,1.16229e-06,-1.29889e+09,-1.29792e+09,-1.2987e+09,155341,0.00686676,0.0775823,0,0.0778856,-3783.38,-46188.4,-0,46343.1,155341
step02_gravity_refstate-mantle.xmf,547,-1.6523e-06,6.01349e-06,0,5.7397e-07,-1.36088e+09,-1.35986e+09,-1.36066e+09,76711.1,0.00392227,0.06841,0,0.0685223,-2248.46,-48102.5,-0,48155,76711.1
step02_gravity_refstate-mantle.xmf,548,-1.70524e-06,6.08269e-06,0,-9.31634e-08,-1.3898e+09,-1.38875e+09,-1.38957e+09,-12451.3,-0.000693507,0.0639763,-0,0.06398,405.649,-48995.5,0,48997.1,12451.3
step02_gravity_refstate-mantle.xmf,549,-1.69648e-06,6.07062e-06,0,1.52545e-07,-1.39048e+09,-1.38944e+09,-1.39025e+09,20387.6,0.00114181,0.0637949,0,0.0638051,-669.58,-49016.6,-0,49021.2,20387.6
step02_gravity_refstate-mantle.xmf,550,-1.62031e-06,5.95804e-06,0,-1.85555e-07,-1.42025e+09,-1.41923e+09,-1.42003e+09,-24799.4,-0.00156591,0.0581861,-0,0.0582072,961.289,-49936.3,0,49945.6,24799.4
step02_gravity_refstate-mantle.xmf,551,-1.52801e-06,5.84056e-06,0,-2.52525e-07,-1.45213e+09,-1.45114e+09,-1.45192e+09,-33750,-0.00242523,0.0521613,-0,0.0522177,1561.63,-50921.4,0,50945.4,33750
step02_gravity_refstate-mantle.xmf,552,-1.42827e-06,5.72247e-06,0,-3.18097e-07,-1.48427e+09,-1.48332e+09,-1.48408e+09,-42513.6,-0.00354575,0.0460314,-0,0.0461678,2395.66,-51914.8,0,51970,42513.6
step02_gravity_refstate-mantle.xmf,553,-1.33451e-06,5.62412e-06,0,-3.24543e-07,-1.52168e+09,-1.52075e+09,-1.5215e+09,-43375.2,-0.00435519,0.0391194,-0,0.0393611,3086.55,-53070.5,0,53160.2,43375.2
step02_gravity_refstate-mantle.xmf,554,-1.13138e-06,5.38515e-06,0,-3.88086e-07,-1.55754e+09,-1.55667e+09,-1.55739e+09,-51867.7,-0.00671665,0.0318036,-0,0.0325051,5121.56,-54179.1,0,54420.6,51867.7
step02_gravity_refstate-mantle.xmf,555,-1.05524e-06,5.32343e-06,0,-3.30763e-07,-1.59452e+09,-1.59367e+09,-1.59438e+09,-44206.4,-0.0073407,0.0252718,-0,0.0263163,5825.94,-55321.8,0,55627.7,44206.4
step02_gravity_refstate-mantle.xmf,556,-9.3196e-07,5.22902e-06,0,-2.12824e-07,-1.65523e+09,-1.65441e+09,-1.6551e+09,-28443.9,-0.00837774,0.0148284,-0,0.0170314,7048.8,-57197.7,0,57630.4,28443.9
step02_gravity_refstate-mantle.xmf,557,-8.19545e-07,5.12961e-06,0,-1.33727e-07,-1.69148e+09,-1.69068e+09,-1.69137e+09,-17872.6,-0.00931307,0.00869448,-0,0.0127408,8191.01,-58318,0,58890.4,17872.6
step02_gravity_refstate-mantle.xmf,558,-7.53292e-07,5.12282e-06,0,-1.62272e-10,-1.74592e+09,-1.74513e+09,-1.74582e+09,-21.6877,-0.00979125,-8.40449e-19,-0,0.00979125,8844,-60000,0,60648.3,21.6877
step02_gravity_refstate-mantle.xmf,559,1.95129e-07,3.02767e-06,0,1.34084e-06,-1.09843e+09,-1.09805e+09,-1.09845e+09,179203,0.00835574,0.0869623,0,0.0873628,-9104.73,-40000,-0,41023.1,179203
step02_gravity_refstate-mantle.xmf,560,-5.01512e-07,4.48421e-06,0,1.68836e-06,-1.22387e+09,-1.2232e+09,-1.2238e+09,225650,0.0104777,0.0812325,0,0.0819054,-6818.55,-43873.9,-0,44400.5,225650
step02_gravity_refstate-mantle.xmf,561,-1.11639e-06,5.35924e-06,0,1.45802e-06,-1.27404e+09,-1.27317e+09,-1.27389e+09,194865,0.00875729,0.0789457,0,0.0794299,-5050,-45421.8,-0,45701.7,194865
step02_gravity_refstate-mantle.xmf,562,-1.53275e-06,5.88189e-06,0,9.39683e-07,-1.3264e+09,-1.32541e+09,-1.32619e+09,125589,0.00596234,0.0733673,0,0.0736092,-3357.83,-47037.8,-0,47157.5,125589
step02_gravity_refstate-mantle.xmf,563,-1.63368e-06,5.98615e-06,0,3.8512e-07,-1.39085e+09,-1.38983e+09,-1.39063e+09,51471.3,0.00293012,0.0632507,0,0.0633185,-1740.69,-49028.2,-0,49059.1,51471.3
step02_gravity_refstate-mantle.xmf,564,-1.25083e-06,5.5445e-06,0,-3.08583e-07,-1.55755e+09,-1.55664e+09,-1.55738e+09,-41242.1,-0.00509842,0.032583,-0,0.0329795,3765.4,-54179,0,54309.7,41242.1
step02_gravity_refstate-mantle.xmf,565,-1.01509e-06,5.30814e-06,0,-2.59907e-07,-1.62909e+09,-1.62825e+09,-1.62896e+09,-34736.5,-0.00760497,0.0194209,-0,0.0208568,6187.47,-56390,0,56728.4,34736.5
step02_gravity_refstate-mantle.xmf,566,1.89688e-07,3.06477e-06,0,1.29561e-06,-1.12193e+09,-1.12154e+09,-1.12195e+09,173158,0.00910374,0.0828098,0,0.0833087,-9615.19,-40726,-0,41845.7,173158
step02_gravity_refstate-mantle.xmf,567,1.32861e-07,3.2816e-06,0,1.4081e-06,-1.14617e+09,-1.14575e+09,-1.14619e+09,188193,0.00987533,0.081947,0,0.0825399,-9200.35,-41475,-0,42483.2,188193
step02_gravity_refstate-mantle.xmf,568,2.86655e-08,3.53952e-06,0,1.50084e-06,-1.17166e+09,-1.17119e+09,-1.17166e+09,200588,0.0104564,0.0808407,0,0.0815141,-8762.46,-42262.2,-0,43161.1,200588
step02_gravity_refstate-mantle.xmf,569,-1.23018e-07,3.83631e-06,0,1.5642e-06,-1.19805e+09,-1.19752e+09,-1.19803e+09,209056,0.0107946,0.0795501,0,0.0802791,-8274.07,-43077.2,-0,43864.7,209056
step02_gravity_refstate-mantle.xmf,570,-3.05673e-07,4.14485e-06,0,1.58373e-06,-1.22405e+09,-1.22345e+09,-1.224e+09,211666,0.0108562,0.0780627,0,0.078814,-7763.99,-43879.9,-0,44561.4,211666
step02_gravity_refstate-mantle.xmf,571,-7.04166e-07,4.7711e-06,0,1.61026e-06,-1.24903e+09,-1.2483e+09,-1.24894e+09,215212,0.0101395,0.0790848,0,0.0797322,-6368.19,-44650.6,-0,45102.5,215212
step02_gravity_refstate-mantle.xmf,572,-8.82406e-07,5.00902e-06,0,1.49526e-06,-1.27408e+09,-1.2733e+09,-1.27397e+09,199842,0.00963048,0.0765826,0,0.0771858,-5925.82,-45423.9,-0,45808.8,199842
step02_gravity_refstate-mantle.xmf,573,-1.25772e-06,5.52506e-06,0,1.26455e-06,-1.30095e+09,-1.30004e+09,-1.30078e+09,169007,0.00799373,0.0754364,0,0.0758587,-4629.46,-46252.6,-0,46483.7,169007
step02_gravity_refstate-mantle.xmf,574,-1.49399e-06,5.80018e-06,0,8.21749e-07,-1.35532e+09,-1.35434e+09,-1.35512e+09,109827,0.00574518,0.068114,0,0.0683559,-3379.79,-47931.1,-0,48050.1,109827
step02_gravity_refstate-mantle.xmf,575,-1.37294e-06,5.65542e-06,0,1.06059e-06,-1.32894e+09,-1.328e+09,-1.32876e+09,141748,0.00705165,0.0716128,0,0.0719591,-4123.73,-47116.8,-0,47296.9,141748
step02_gravity_refstate-mantle.xmf,576,-1.52655e-06,5.83096e-06,0,5.99544e-07,-1.39046e+09,-1.38948e+09,-1.39025e+09,80129.1,0.00464485,0.0624424,0,0.0626149,-2822.86,-49016.5,-0,49097.7,80129.1
step02_gravity_refstate-mantle.xmf,577,-1.6319e-06,5.98056e-06,0,2.66878e-08,-1.4209e+09,-1.41988e+09,-1.42068e+09,3566.82,0.000223981,0.0582093,0,0.0582097,-137.103,-49956.4,-0,49956.6,3566.82
step02_gravity_refstate-mantle.xmf,578,-1.60213e-06,5.9405e-06,0,2.33945e-07,-1.42088e+09,-1.41988e+09,-1.42067e+09,31266.8,0.00197669,0.0579807,0,0.0580144,-1217.47,-49956.1,-0,49971,31266.8
step02_gravity_refstate-mantle.xmf,579,-1.56598e-06,5.89076e-06,0,-6.84185e-08,-1.45325e+09,-1.45225e+09,-1.45304e+09,-9144.13,-0.000665152,0.0522568,-0,0.052261,425.228,-50956,0,50957.8,9144.13
step02_gravity_refstate-mantle.xmf,580,-1.49171e-06,5.80661e-06,0,-1.44062e-07,-1.48671e+09,-1.48573e+09,-1.48651e+09,-19253.9,-0.00159803,0.0460994,-0,0.0461271,1065.95,-51989.9,0,52000.8,19253.9
step02_gravity_refstate-mantle.xmf,581,-1.41583e-06,5.72916e-06,0,-1.92252e-07,-1.52157e+09,-1.52061e+09,-1.52138e+09,-25694.5,-0.00252048,0.0397021,-0,0.039782,1751.95,-53066.9,0,53095.8,25694.5
step02_gravity_refstate-mantle.xmf,582,-1.34337e-06,5.66394e-06,0,-2.10203e-07,-1.55752e+09,-1.55658e+09,-1.55734e+09,-28093.7,-0.00335585,0.0331585,-0,0.0333279,2423.33,-54177.7,0,54231.9,28093.7
step02_gravity_refstate-mantle.xmf,583,-1.18177e-06,5.48781e-06,0,-2.7409e-07,-1.59329e+09,-1.59239e+09,-1.59313e+09,-36632.2,-0.0057509,0.0261909,-0,0.0268149,4401.73,-55283.3,0,55458.2,36632.2
step02_gravity_refstate-mantle.xmf,584,-1.12629e-06,5.4558e-06,0,-2.25572e-07,-1.62888e+09,-1.628e+09,-1.62873e+09,-30147.7,-0.00628284,0.0199521,-0,0.0209179,4951.97,-56383,0,56600,30147.7
step02_gravity_refstate-mantle.xmf,585,-1.06186e-06,5.41347e-06,0,-1.70353e-07,-1.66368e+09,-1.66282e+09,-1.66354e+09,-22767.7,-0.00696073,0.0138865,-0,0.0155334,5644.14,-57458.5,0,57735,22767.7
step02_gravity_refstate-mantle.xmf,586,-9.90304e-07,5.36849e-06,0,-1.01136e-07,-1.70009e+09,-1.69924e+09,-1.69996e+09,-13516.9,-0.00770499,0.00764963,-0,0.0108574,6424.48,-58583.4,0,58934.6,13516.9
step02_gravity_refstate-mantle.xmf,587,-9.17111e-07,5.34073e-06,0,-4.95618e-10,-1.74594e+09,-1.7451e+09,-1.74581e+09,-66.2394,-0.00841889,-7.39495e-19,-0,0.00841889,7201.04,-60000,0,60430.6,66.2394
step02_gravity_refstate-mantle.xmf,588,2.06069e-07,2.87997e-06,0,1.1732e-06,-1.09844e+09,-1.09808e+09,-1.09846e+09,156798,0.00816937,0.0834294,0,0.0838284,-10037.4,-40000,-0,41240.1,156798
step02_gravity_refstate-mantle.xmf,589,-4.98846e-07,4.43527e-06,0,1.55356e-06,-1.24897e+09,-1.24831e+09,-1.24891e+09,207633,0.010682,0.0762982,0,0.0770423,-7278.5,-44649.3,-0,45238.7,207633
step02_gravity_refstate-mantle.xmf,590,-1.0322e-06,5.19745e-06,0,1.3304e-06,-1.30303e+09,-1.3022e+09,-1.30289e+09,177809,0.0090537,0.0729081,0,0.0734681,-5576.74,-46317.6,-0,46652.1,177809
step02_gravity_refstate-mantle.xmf,591,-1.5301e-06,5.84362e-06,0,4.25572e-07,-1.42002e+09,-1.41904e+09,-1.41982e+09,56877.6,0.00365616,0.0575585,0,0.0576745,-2285.05,-49929.7,-0,49982,56877.6
step02_gravity_refstate-mantle.xmf,592,-1.27707e-06,5.61244e-06,0,-2.05466e-07,-1.59182e+09,-1.5909e+09,-1.59165e+09,-27460.6,-0.00410845,0.0269688,-0,0.0272799,3064.58,-55237.7,0,55322.6,27460.6
step02_gravity_refstate-mantle.xmf,593,2.08505e-07,2.93391e-06,0,1.14782e-06,-1.1243e+09,-1.12394e+09,-1.12433e+09,153406,0.00900033,0.079415,0,0.0799234,-10522.6,-40799.1,-0,42134.2,153406
step02_gravity_refstate-mantle.xmf,594,1.73344e-07,3.12157e-06,0,1.26925e-06,-1.14414e+09,-1.14375e+09,-1.14417e+09,169635,0.00970481,0.0794503,0,0.0800408,-9965.18,-41412.2,-0,42594.3,169635
step02_gravity_refstate-mantle.xmf,595,1.14846e-07,3.3027e-06,0,1.33373e-06,-1.16925e+09,-1.16883e+09,-1.16927e+09,178254,0.0103406,0.0777482,0,0.0784329,-9731.48,-42188,-0,43295.8,178254
step02_gravity_refstate-mantle.xmf,596,-3.01127e-09,3.57199e-06,0,1.41342e-06,-1.19707e+09,-1.19659e+09,-1.19707e+09,188903,0.0108439,0.0764167,0,0.0771822,-9240.62,-43047.1,-0,44027.8,188903
step02_gravity_refstate-mantle.xmf,597,-1.55352e-07,3.85862e-06,0,1.45931e-06,-1.22414e+09,-1.2236e+09,-1.22412e+09,195037,0.0110772,0.0749771,0,0.075791,-8720.71,-43883.1,-0,44741.2,195037
step02_gravity_refstate-mantle.xmf,598,-3.26436e-07,4.14526e-06,0,1.46814e-06,-1.24932e+09,-1.24873e+09,-1.24928e+09,196217,0.0110516,0.0735214,0,0.0743474,-8180.51,-44660.6,-0,45403.6,196217
step02_gravity_refstate-mantle.xmf,599,-6.75155e-07,4.69021e-06,0,1.47227e-06,-1.27515e+09,-1.27443e+09,-1.27506e+09,196769,0.0103391,0.0738713,0,0.0745914,-6846.34,-45457.4,-0,45970.1,196769
step02_gravity_refstate-mantle.xmf,600,-7.90169e-07,4.83542e-06,0,1.35056e-06,-1.30475e+09,-1.304e+09,-1.30464e+09,180502,0.0100119,0.0700382,0,0.0707502,-6646.7,-46371.3,-0,46845.2,180502
step02_gravity_refstate-mantle.xmf,601,-1.16889e-06,5.36977e-06,0,1.15655e-06,-1.33086e+09,-1.32999e+09,-1.33071e+09,154573,0.0082728,0.0694111,0,0.0699023,-5100.38,-47176.8,-0,47451.7,154573
step02_gravity_refstate-mantle.xmf,602,-1.28622e-06,5.51427e-06,0,9.69456e-07,-1.35973e+09,-1.35882e+09,-1.35956e+09,129568,0.00729864,0.0656063,0,0.0660111,-4524.29,-48068,-0,48280.5,129568
step02_gravity_refstate-mantle.xmf,603,-1.37218e-06,5.62262e-06,0,7.72597e-07,-1.3899e+09,-1.38896e+09,-1.38971e+09,103258,0.00625077,0.0612804,0,0.0615983,-3928.23,-48999.6,-0,49156.8,103258
step02_gravity_refstate-mantle.xmf,604,-1.41801e-06,5.68468e-06,0,5.95356e-07,-1.42023e+09,-1.41928e+09,-1.42004e+09,79569.4,0.00524789,0.0566131,0,0.0568558,-3364.42,-49936.4,-0,50049.6,79569.4
step02_gravity_refstate-mantle.xmf,605,-1.55493e-06,5.88309e-06,0,1.17042e-07,-1.45302e+09,-1.45203e+09,-1.45281e+09,15642.6,0.00111267,0.0522548,0,0.0522667,-712.028,-50949,-0,50953.9,15642.6
step02_gravity_refstate-mantle.xmf,606,-1.51688e-06,5.83024e-06,0,2.88604e-07,-1.44973e+09,-1.44875e+09,-1.44953e+09,38571.9,0.00272411,0.0525093,0,0.0525799,-1753.28,-50847.4,-0,50877.7,38571.9
step02_gravity_refstate-mantle.xmf,607,-1.50749e-06,5.82722e-06,0,2.60285e-08,-1.48705e+09,-1.48607e+09,-1.48684e+09,3478.71,0.000266663,0.0461609,0,0.0461616,-177.29,-52000.2,-0,52000.5,3478.71
step02_gravity_refstate-mantle.xmf,608,-1.4526e-06,5.7766e-06,0,-4.76211e-08,-1.52199e+09,-1.52102e+09,-1.5218e+09,-6364.56,-0.000636081,0.0398847,-0,0.0398898,438.491,-53079.9,0,53081.7,6364.56
step02_gravity_refstate-mantle.xmf,609,-1.3967e-06,5.73207e-06,0,-9.73202e-08,-1.55745e+09,-1.55649e+09,-1.55726e+09,-13006.8,-0.00154052,0.0335035,-0,0.0335389,1098.27,-54175.3,0,54186.5,13006.8
step02_gravity_refstate-mantle.xmf,610,-1.34267e-06,5.6944e-06,0,-1.23863e-07,-1.59151e+09,-1.59057e+09,-1.59133e+09,-16554.3,-0.00242963,0.0273667,-0,0.0274743,1783.79,-55228,0,55256.8,16554.3
step02_gravity_refstate-mantle.xmf,611,-1.22815e-06,5.58581e-06,0,-1.75931e-07,-1.62653e+09,-1.62562e+09,-1.62637e+09,-23513.1,-0.00465129,0.0208111,-0,0.0213245,3561.92,-56310.2,0,56422.8,23513.1
step02_gravity_refstate-mantle.xmf,612,-1.18163e-06,5.57552e-06,0,-1.30965e-07,-1.66614e+09,-1.66524e+09,-1.66599e+09,-17503.4,-0.00521402,0.0138533,-0,0.014802,4090.62,-57534.1,0,57679.3,17503.4
step02_gravity_refstate-mantle.xmf,613,-1.12309e-06,5.54975e-06,0,-7.55497e-08,-1.70443e+09,-1.70354e+09,-1.70428e+09,-10097.2,-0.00600672,0.00715422,-0,0.00934149,4821.08,-58717,0,58914.6,10097.2
step02_gravity_refstate-mantle.xmf,614,-1.06164e-06,5.53111e-06,0,-8.34783e-10,-1.74595e+09,-1.74507e+09,-1.74581e+09,-111.569,-0.00681535,-6.92416e-19,-0,0.00681535,5580.2,-60000,0,60258.9,111.569
step02_gravity_refstate-mantle.xmf,615,2.08863e-07,2.7585e-06,0,1.0224e-06,-1.09845e+09,-1.09811e+09,-1.09847e+09,136643,0.00796683,0.0800423,0,0.0804378,-11016.2,-40000,-0,41489.2,136643
step02_gravity_refstate-mantle.xmf,616,-4.86758e-07,4.39357e-06,0,1.44179e-06,-1.27123e+09,-1.27057e+09,-1.27116e+09,192695,0.0108475,0.0720247,0,0.0728369,-7701.03,-45336.7,-0,45986.1,192695
step02_gravity_refstate-mantle.xmf,617,-9.50436e-07,5.05493e-06,0,1.21398e-06,-1.33202e+09,-1.33121e+09,-1.33189e+09,162249,0.00936066,0.0670411,0,0.0676914,-6140.83,-47213.1,-0,47610.8,162249
step02_gravity_refstate-mantle.xmf,618,-1.44398e-06,5.72723e-06,0,4.56637e-07,-1.44448e+09,-1.44352e+09,-1.44428e+09,61029.5,0.00433459,0.0528001,0,0.0529777,-2824.05,-50685.4,-0,50764,61029.5
step02_gravity_refstate-mantle.xmf,619,-1.29594e-06,5.66326e-06,0,-1.32269e-07,-1.61899e+09,-1.61806e+09,-1.61882e+09,-17677.8,-0.00322007,0.0224131,-0,0.0226432,2417.31,-56077,0,56129.1,17677.8
step02_gravity_refstate-mantle.xmf,620,1.84962e-07,3.06809e-06,0,1.16218e-06,-1.15906e+09,-1.15868e+09,-1.15909e+09,155325,0.00995224,0.0754351,0,0.0760888,-10756.3,-41873.1,-0,43232.5,155325
step02_gravity_refstate-mantle.xmf,621,2.22035e-07,2.82302e-06,0,1.00682e-06,-1.12795e+09,-1.1276e+09,-1.12798e+09,134562,0.00890272,0.0758964,0,0.0764168,-11520.5,-40911.7,-0,42502.8,134562
step02_gravity_refstate-mantle.xmf,622,9.19695e-08,3.33891e-06,0,1.25925e-06,-1.19453e+09,-1.19409e+09,-1.19454e+09,168298,0.0107603,0.0734879,0,0.0742715,-10252.9,-42968.6,-0,44174.9,168298
step02_gravity_refstate-mantle.xmf,623,-3.81171e-08,3.61673e-06,0,1.32528e-06,-1.2248e+09,-1.22431e+09,-1.22479e+09,177124,0.0111775,0.0718999,0,0.0727635,-9702.14,-43903.5,-0,44962.8,177124
step02_gravity_refstate-mantle.xmf,624,-1.86064e-07,3.88744e-06,0,1.35787e-06,-1.25087e+09,-1.25033e+09,-1.25085e+09,181479,0.0113025,0.0705105,0,0.0714107,-9143.34,-44708.8,-0,45634.1,181479
step02_gravity_refstate-mantle.xmf,625,-3.57468e-07,4.1741e-06,0,1.36926e-06,-1.27463e+09,-1.27403e+09,-1.27459e+09,183001,0.011175,0.0693958,0,0.0702898,-8485.93,-45442.3,-0,46227.8,183001
step02_gravity_refstate-mantle.xmf,626,-5.58941e-07,4.4856e-06,0,1.34257e-06,-1.29895e+09,-1.29828e+09,-1.29888e+09,179434,0.0107722,0.0681556,0,0.0690016,-7725.04,-46193,-0,46834.5,179434
step02_gravity_refstate-mantle.xmf,627,-7.29978e-07,4.72933e-06,0,1.23229e-06,-1.3313e+09,-1.33057e+09,-1.3312e+09,164696,0.0102735,0.0647482,0,0.0655581,-7224.05,-47191.6,-0,47741.4,164696
step02_gravity_refstate-mantle.xmf,628,-1.08476e-06,5.23574e-06,0,1.05628e-06,-1.36111e+09,-1.36027e+09,-1.36097e+09,141172,0.00856767,0.0634845,0,0.06406,-5606.37,-48111.4,-0,48436.9,141172
step02_gravity_refstate-mantle.xmf,629,-1.19265e-06,5.37782e-06,0,8.91345e-07,-1.39114e+09,-1.39026e+09,-1.39098e+09,119128,0.00765828,0.0595156,0,0.0600063,-5033.53,-49038.5,-0,49296.2,119128
step02_gravity_refstate-mantle.xmf,630,-1.27304e-06,5.48917e-06,0,7.2156e-07,-1.42191e+09,-1.421e+09,-1.42174e+09,96436.6,0.00669644,0.0551344,0,0.0555396,-4449.66,-49988.7,-0,50186.4,96436.6
step02_gravity_refstate-mantle.xmf,631,-1.32652e-06,5.5695e-06,0,5.67185e-07,-1.45158e+09,-1.45066e+09,-1.4514e+09,75804.3,0.0057249,0.0506917,0,0.051014,-3856.07,-50905.2,-0,51051,75804.3
step02_gravity_refstate-mantle.xmf,632,-1.47346e-06,5.78906e-06,0,1.91864e-07,-1.48631e+09,-1.48534e+09,-1.48611e+09,25642.7,0.00211205,0.0460762,0,0.0461245,-1412.25,-51977.6,-0,51996.8,25642.7
step02_gravity_refstate-mantle.xmf,633,-1.39444e-06,5.68025e-06,0,3.75902e-07,-1.48044e+09,-1.47949e+09,-1.48025e+09,50239.3,0.00418166,0.0464563,0,0.0466441,-2835.87,-51796.5,-0,51874.1,50239.3
step02_gravity_refstate-mantle.xmf,634,-1.44504e-06,5.76598e-06,0,9.7898e-08,-1.52219e+09,-1.52123e+09,-1.522e+09,13084.1,0.00123809,0.0398004,0,0.0398197,-855.013,-53086.1,-0,53093,13084.1
step02_gravity_refstate-mantle.xmf,635,-1.40914e-06,5.74794e-06,0,2.36819e-08,-1.55808e+09,-1.55712e+09,-1.55789e+09,3165.09,0.000340961,0.0334737,0,0.0334754,-242.368,-54194.9,-0,54195.5,3165.09
step02_gravity_refstate-mantle.xmf,636,-1.37261e-06,5.734e-06,0,-3.17777e-08,-1.59316e+09,-1.59221e+09,-1.59297e+09,-4247.1,-0.000647194,0.0272444,-0,0.027252,472.1,-55278.6,0,55280.6,4247.1
step02_gravity_refstate-mantle.xmf,637,-1.33318e-06,5.71865e-06,0,-6.64303e-08,-1.62639e+09,-1.62545e+09,-1.62622e+09,-8878.41,-0.00170942,0.0212958,-0,0.0213643,1275.12,-56305.5,0,56320,8878.41
step02_gravity_refstate-mantle.xmf,638,-1.28021e-06,5.68949e-06,0,-8.77731e-08,-1.65869e+09,-1.65776e+09,-1.65852e+09,-11730.9,-0.00314514,0.015456,-0,0.0157727,2401.14,-57303.6,0,57353.9,11730.9
step02_gravity_refstate-mantle.xmf,639,-1.22713e-06,5.68546e-06,0,-5.29165e-08,-1.70455e+09,-1.70363e+09,-1.70439e+09,-7072.29,-0.00409917,0.00730725,-0,0.00837849,3198.25,-58720.5,0,58807.5,7072.29
step02_gravity_refstate-mantle.xmf,640,-1.17871e-06,5.68406e-06,0,-1.34836e-09,-1.74596e+09,-1.74505e+09,-1.74581e+09,-180.209,-0.00501801,-7.08181e-19,-0,0.00501801,3975.83,-60000,0,60131.6,180.209
step02_gravity_refstate-mantle.xmf,641,2.07368e-07,2.65742e-06,0,8.87667e-07,-1.09845e+09,-1.09813e+09,-1.09848e+09,118637,0.00775399,0.0768069,0,0.0771973,-12043.8,-40000,-0,41773.8,118637
step02_gravity_refstate-mantle.xmf,642,-8.80335e-07,4.94259e-06,0,1.10313e-06,-1.36139e+09,-1.36061e+09,-1.36128e+09,147433,0.0096361,0.0613541,0,0.0621062,-6699.91,-48120.7,-0,48584.9,147433
step02_gravity_refstate-mantle.xmf,643,2.30798e-07,2.71882e-06,0,8.75851e-07,-1.12887e+09,-1.12854e+09,-1.1289e+09,117057,0.00869498,0.0727748,0,0.0732923,-12565.4,-40939.9,-0,42824.8,117057
step02_gravity_refstate-mantle.xmf,644,2.19761e-07,2.90679e-06,0,9.91994e-07,-1.16019e+09,-1.15983e+09,-1.16022e+09,132580,0.00973405,0.071714,0,0.0723717,-11973.6,-41907.7,-0,43584.7,132580
step02_gravity_refstate-mantle.xmf,645,1.61151e-07,3.14079e-06,0,1.10414e-06,-1.19242e+09,-1.19202e+09,-1.19244e+09,147569,0.0105851,0.0705076,0,0.0712977,-11336.9,-42903.4,-0,44376,147569
step02_gravity_refstate-mantle.xmf,646,5.95364e-08,3.39867e-06,0,1.18596e-06,-1.22436e+09,-1.22392e+09,-1.22437e+09,158504,0.0111615,0.0689538,0,0.0698513,-10742.3,-43890.2,-0,45185.7,158504
step02_gravity_refstate-mantle.xmf,647,-9.11811e-08,3.69433e-06,0,1.23135e-06,-1.25854e+09,-1.25803e+09,-1.25853e+09,164570,0.011478,0.0669122,0,0.0678895,-10119.9,-44945.6,-0,46070.8,164570
step02_gravity_refstate-mantle.xmf,648,-2.42711e-07,3.96822e-06,0,1.28969e-06,-1.27578e+09,-1.27522e+09,-1.27575e+09,172367,0.011418,0.0670717,0,0.0680366,-9294.96,-45478,-0,46418.2,172367
step02_gravity_refstate-mantle.xmf,649,-3.68545e-07,4.17609e-06,0,1.26552e-06,-1.30026e+09,-1.29965e+09,-1.30021e+09,169136,0.0112999,0.0650886,0,0.0660621,-8869,-46233.7,-0,47076.7,169136
step02_gravity_refstate-mantle.xmf,650,-5.28844e-07,4.42345e-06,0,1.20651e-06,-1.32964e+09,-1.32898e+09,-1.32957e+09,161250,0.0109772,0.0624737,0,0.0634308,-8327.91,-47141,-0,47870.9,161250
step02_gravity_refstate-mantle.xmf,651,-6.77503e-07,4.64517e-06,0,1.11186e-06,-1.36088e+09,-1.36017e+09,-1.36079e+09,148600,0.0105087,0.0591905,0,0.0601161,-7818.5,-48105.4,-0,48736.7,148600
step02_gravity_refstate-mantle.xmf,652,-1.00782e-06,5.12378e-06,0,9.60583e-07,-1.3917e+09,-1.39088e+09,-1.39157e+09,128382,0.00886293,0.0576685,0,0.0583455,-6133.66,-49056.5,-0,49438.5,128382
step02_gravity_refstate-mantle.xmf,653,-1.10813e-06,5.26405e-06,0,8.14958e-07,-1.42252e+09,-1.42167e+09,-1.42237e+09,108919,0.00801797,0.0535886,0,0.0541852,-5563.4,-50008.1,-0,50316.6,108919
step02_gravity_refstate-mantle.xmf,654,-1.18518e-06,5.37941e-06,0,6.65422e-07,-1.45411e+09,-1.45323e+09,-1.45395e+09,88933.6,0.00712857,0.0491055,0,0.0496202,-4986.53,-50983.8,-0,51227,88933.6
step02_gravity_refstate-mantle.xmf,655,-1.25429e-06,5.48834e-06,0,5.09285e-07,-1.4874e+09,-1.4865e+09,-1.48723e+09,68066,0.00604609,0.0442065,0,0.0446181,-4267.61,-52012,-0,52186.7,68066
step02_gravity_refstate-mantle.xmf,656,-1.38955e-06,5.69968e-06,0,2.37394e-07,-1.52152e+09,-1.52057e+09,-1.52133e+09,31727.7,0.00312509,0.0395598,0,0.0396831,-2183.17,-53065.6,-0,53110.4,31727.7
step02_gravity_refstate-mantle.xmf,657,-1.38156e-06,5.71134e-06,0,1.40342e-07,-1.55833e+09,-1.55739e+09,-1.55815e+09,18756.7,0.00217678,0.0332589,0,0.0333301,-1558.07,-54202.8,-0,54225.2,18756.7
step02_gravity_refstate-mantle.xmf,658,-1.36541e-06,5.72576e-06,0,6.41379e-08,-1.59454e+09,-1.5936e+09,-1.59436e+09,8572.03,0.00122193,0.0269663,0,0.0269939,-893.33,-55321.5,-0,55328.7,8572.03
step02_gravity_refstate-mantle.xmf,659,-1.34706e-06,5.74078e-06,0,9.21698e-09,-1.62947e+09,-1.62852e+09,-1.62929e+09,1231.85,0.000195244,0.0208201,0,0.020821,-145.269,-56400.4,-0,56400.6,1231.85
step02_gravity_refstate-mantle.xmf,660,-1.32349e-06,5.75446e-06,0,-2.38677e-08,-1.66519e+09,-1.66424e+09,-1.66501e+09,-3189.92,-0.000942861,0.0144621,-0,0.0144928,712.789,-57504.1,0,57508.5,3189.92
step02_gravity_refstate-mantle.xmf,661,-1.29349e-06,5.76856e-06,0,-2.72072e-08,-1.70351e+09,-1.70257e+09,-1.70334e+09,-3636.25,-0.00207358,0.0076011,-0,0.00787886,1590.12,-58688.1,0,58709.7,3636.25
step02_gravity_refstate-mantle.xmf,662,-1.26153e-06,5.79168e-06,0,-1.57737e-09,-1.74597e+09,-1.74503e+09,-1.7458e+09,-210.815,-0.00307354,-7.37835e-19,-0,0.00307354,2382.28,-60000,0,60047.3,210.815
step02_gravity_refstate-mantle.xmf,663,2.02793e-07,2.57264e-06,0,7.67701e-07,-1.09846e+09,-1.09815e+09,-1.09849e+09,102603,0.00753354,0.0737275,0,0.0741114,-13122.5,-40000,-0,42097.5,102603
step02_gravity_refstate-mantle.xmf,664,-8.18284e-07,4.85333e-06,0,9.9385e-07,-1.39215e+09,-1.39139e+09,-1.39204e+09,132828,0.00988786,0.0556535,0,0.056525,-7263.05,-49070.9,-0,49605.5,132828
step02_gravity_refstate-mantle.xmf,665,-1.2936e-06,5.57231e-06,0,3.63489e-07,-1.52206e+09,-1.52114e+09,-1.52189e+09,48580.4,0.00496816,0.0387899,0,0.0391067,-3554.65,-53082.5,-0,53201.4,48580.4
step02_gravity_refstate-mantle.xmf,666,2.3486e-07,2.62682e-06,0,7.5617e-07,-1.12876e+09,-1.12844e+09,-1.12879e+09,101062,0.00843515,0.0698763,0,0.0703836,-13664.8,-40936.2,-0,43156.7,101062
step02_gravity_refstate-mantle.xmf,667,2.40323e-07,2.78584e-06,0,8.57504e-07,-1.1598e+09,-1.15946e+09,-1.15983e+09,114605,0.00947019,0.0687849,0,0.0694338,-13074.7,-41895.5,-0,43888.2,114605
step02_gravity_refstate-mantle.xmf,668,2.08094e-07,2.98125e-06,0,9.57429e-07,-1.19183e+09,-1.19146e+09,-1.19186e+09,127960,0.0103635,0.0674858,0,0.0682769,-12473.2,-42885.3,-0,44662.4,127960
step02_gravity_refstate-mantle.xmf,669,1.35939e-07,3.20868e-06,0,1.04441e-06,-1.22392e+09,-1.22351e+09,-1.22394e+09,139585,0.0110468,0.0660207,0,0.0669386,-11854.1,-43876.6,-0,45449.7,139585
step02_gravity_refstate-mantle.xmf,670,3.30412e-08,3.44874e-06,0,1.10067e-06,-1.25562e+09,-1.25516e+09,-1.25562e+09,147104,0.0114851,0.0642173,0,0.0652363,-11282.9,-44855.6,-0,46252.8,147104
step02_gravity_refstate-mantle.xmf,671,-2.18509e-07,3.91722e-06,0,1.19503e-06,-1.29461e+09,-1.29406e+09,-1.29459e+09,159716,0.0115851,0.0633456,0,0.0643963,-9856.67,-46059.7,-0,47102.6,159716
step02_gravity_refstate-mantle.xmf,672,-3.50123e-07,4.13865e-06,0,1.14872e-06,-1.32754e+09,-1.32694e+09,-1.3275e+09,153526,0.0114777,0.0601939,0,0.0612785,-9454.2,-47076.6,-0,48016.5,153526
step02_gravity_refstate-mantle.xmf,673,-4.92309e-07,4.36511e-06,0,1.08376e-06,-1.35942e+09,-1.35877e+09,-1.35936e+09,144845,0.0111797,0.0570778,0,0.0581624,-8953.41,-48061,-0,48887.8,144845
step02_gravity_refstate-mantle.xmf,674,-6.30353e-07,4.57943e-06,0,9.94543e-07,-1.39188e+09,-1.39119e+09,-1.3918e+09,132921,0.010725,0.0536184,0,0.0546805,-8419.09,-49063.3,-0,49780.4,132921
step02_gravity_refstate-mantle.xmf,675,-9.30807e-07,5.02187e-06,0,8.68851e-07,-1.42281e+09,-1.42202e+09,-1.42269e+09,116122,0.00919343,0.0518649,0,0.0526734,-6719.28,-50017.9,-0,50467.2,116122
step02_gravity_refstate-mantle.xmf,676,-1.02174e-06,5.15669e-06,0,7.41184e-07,-1.45414e+09,-1.45331e+09,-1.454e+09,99059.3,0.00844543,0.0476826,0,0.0484248,-6179.9,-50985.2,-0,51358.4,99059.3
step02_gravity_refstate-mantle.xmf,677,-1.09963e-06,5.28118e-06,0,6.04093e-07,-1.48766e+09,-1.48681e+09,-1.48751e+09,80737,0.00760489,0.042936,0,0.0436043,-5593.06,-52020.4,-0,52320.2,80737
step02_gravity_refstate-mantle.xmf,678,-1.16544e-06,5.39421e-06,0,4.68139e-07,-1.52217e+09,-1.5213e+09,-1.52202e+09,62566.8,0.00666172,0.0378269,0,0.038409,-4930.37,-53086.4,-0,53314.9,62566.8
step02_gravity_refstate-mantle.xmf,679,-1.31104e-06,5.62579e-06,0,2.4575e-07,-1.55843e+09,-1.55751e+09,-1.55826e+09,32844.5,0.00398216,0.0328232,0,0.0330638,-2897.4,-54206.1,-0,54283.5,32844.5
step02_gravity_refstate-mantle.xmf,680,-1.32061e-06,5.66916e-06,0,1.52817e-07,-1.59589e+09,-1.59496e+09,-1.59572e+09,20424,0.0030397,0.0264945,0,0.0266683,-2248.29,-55363.3,-0,55409,20424
step02_gravity_refstate-mantle.xmf,681,-1.32243e-06,5.71076e-06,0,8.22239e-08,-1.6307e+09,-1.62976e+09,-1.63053e+09,10989.2,0.00210663,0.0204988,0,0.0206068,-1577.77,-56438.7,-0,56460.8,10989.2
step02_gravity_refstate-mantle.xmf,682,-1.32066e-06,5.75402e-06,0,3.00908e-08,-1.66717e+09,-1.66623e+09,-1.667e+09,4021.63,0.00108948,0.0141045,0,0.0141465,-824.529,-57565.4,-0,57571.3,4021.63
step02_gravity_refstate-mantle.xmf,683,-1.31449e-06,5.79878e-06,0,1.90079e-09,-1.70537e+09,-1.70442e+09,-1.70519e+09,254.04,2.69742e-05,0.00730565,0,0.0073057,-20.6075,-58745.4,-0,58745.4,254.04
step02_gravity_refstate-mantle.xmf,684,-1.30472e-06,5.84777e-06,0,-1.51023e-09,-1.74598e+09,-1.74502e+09,-1.7458e+09,-201.843,-0.00103571,-7.10347e-19,-0,0.00103571,793.86,-60000,0,60005.2,201.843
step02_gravity_refstate-mantle.xmf,685,1.98844e-07,2.49969e-06,0,6.61957e-07,-1.09847e+09,-1.09816e+09,-1.0985e+09,88470.6,0.00730685,0.0708069,0,0.0711829,-14255.3,-40000,-0,42464.3,88470.6
step02_gravity_refstate-mantle.xmf,686,-8.2902e-08,3.67259e-06,0,1.11646e-06,-1.28602e+09,-1.28552e+09,-1.28601e+09,149215,0.0116971,0.0619916,0,0.0630855,-10827.8,-45794.6,-0,47057.3,149215
step02_gravity_refstate-mantle.xmf,687,-7.55703e-07,4.77235e-06,0,8.93635e-07,-1.42207e+09,-1.42133e+09,-1.42197e+09,119434,0.0101598,0.0502028,0,0.0512205,-7861.65,-49995.5,-0,50609.8,119434
step02_gravity_refstate-mantle.xmf,688,-1.21049e-06,5.49168e-06,0,3.39408e-07,-1.55786e+09,-1.55696e+09,-1.5577e+09,45361.9,0.00569634,0.0322718,0,0.0327706,-4252.05,-54188.7,-0,54355.3,45361.9
step02_gravity_refstate-mantle.xmf,689,2.37988e-07,2.54837e-06,0,6.48642e-07,-1.12935e+09,-1.12904e+09,-1.12938e+09,86691,0.0081758,0.0670294,0,0.0675262,-14836.7,-40954.3,-0,43559,86691
step02_gravity_refstate-mantle.xmf,690,2.54502e-07,2.68512e-06,0,7.36344e-07,-1.16011e+09,-1.15979e+09,-1.16014e+09,98412.4,0.00919119,0.0659276,0,0.0665652,-14234.1,-41904.9,-0,44256.5,98412.4
step02_gravity_refstate-mantle.xmf,691,2.40712e-07,2.85237e-06,0,8.27301e-07,-1.19144e+09,-1.19109e+09,-1.19147e+09,110569,0.0100988,0.064702,0,0.0654854,-13614.1,-42872.9,-0,44982.6,110569
step02_gravity_refstate-mantle.xmf,692,1.92971e-07,3.05035e-06,0,9.11221e-07,-1.22364e+09,-1.22326e+09,-1.22367e+09,121785,0.0108549,0.0632352,0,0.0641601,-12993.5,-43867.9,-0,45751.7,121785
step02_gravity_refstate-mantle.xmf,693,1.13628e-07,3.26914e-06,0,9.76501e-07,-1.25565e+09,-1.25523e+09,-1.25567e+09,130509,0.0114046,0.0615389,0,0.0625868,-12386.9,-44856.7,-0,46535.5,130509
step02_gravity_refstate-mantle.xmf,694,1.53966e-08,3.48713e-06,0,1.01414e-06,-1.28575e+09,-1.28529e+09,-1.28575e+09,135539,0.0117278,0.05967,0,0.0608116,-11834.9,-45786.4,-0,47291.2,135539
step02_gravity_refstate-mantle.xmf,695,-2.00265e-07,3.88503e-06,0,1.08456e-06,-1.32064e+09,-1.32009e+09,-1.32061e+09,144952,0.0117642,0.0586993,0,0.0598666,-10503.5,-46863.7,-0,48026.4,144952
step02_gravity_refstate-mantle.xmf,696,-3.22009e-07,4.097e-06,0,1.03145e-06,-1.35654e+09,-1.35595e+09,-1.3565e+09,137854,0.0116613,0.0550884,0,0.0563091,-10117.7,-47972.4,-0,49027.7,137854
step02_gravity_refstate-mantle.xmf,697,-4.58557e-07,4.32269e-06,0,9.62313e-07,-1.39153e+09,-1.39089e+09,-1.39147e+09,128613,0.0113641,0.0515415,0,0.0527794,-9590.66,-49052.9,-0,49981.7,128613
step02_gravity_refstate-mantle.xmf,698,-5.91779e-07,4.5358e-06,0,8.86332e-07,-1.42246e+09,-1.42177e+09,-1.42238e+09,118458,0.010904,0.0483666,0,0.0495805,-8971.52,-50008,-0,50806.3,118458
step02_gravity_refstate-mantle.xmf,699,-8.48107e-07,4.91921e-06,0,7.8537e-07,-1.45253e+09,-1.45176e+09,-1.45242e+09,104965,0.00959447,0.0463278,0,0.0473109,-7397.73,-50936.1,-0,51470.5,104965
step02_gravity_refstate-mantle.xmf,700,-9.29873e-07,5.04947e-06,0,6.6714e-07,-1.48634e+09,-1.48554e+09,-1.48622e+09,89163.2,0.00895104,0.0417273,0,0.0426766,-6911.25,-51980.3,-0,52437.8,89163.2
step02_gravity_refstate-mantle.xmf,701,-1.01364e-06,5.19032e-06,0,5.38494e-07,-1.52179e+09,-1.52096e+09,-1.52165e+09,71969.8,0.00813733,0.036755,0,0.037645,-6282.71,-53075,-0,53445.5,71969.8
step02_gravity_refstate-mantle.xmf,702,-1.08198e-06,5.31438e-06,0,4.14916e-07,-1.55753e+09,-1.55667e+09,-1.55738e+09,55453.5,0.0072757,0.0314701,0,0.0323002,-5627.03,-54178.9,-0,54470.3,55453.5
step02_gravity_refstate-mantle.xmf,703,-1.23838e-06,5.5649e-06,0,2.34426e-07,-1.59416e+09,-1.59325e+09,-1.594e+09,31331.1,0.0048141,0.026362,0,0.0267979,-3630.29,-55310.1,-0,55429.1,31331.1
step02_gravity_refstate-mantle.xmf,704,-1.26133e-06,5.63071e-06,0,1.50599e-07,-1.62985e+09,-1.62892e+09,-1.62968e+09,20127.6,0.00396025,0.0203827,0,0.0207638,-3011.57,-56412.4,-0,56492.8,20127.6
step02_gravity_refstate-mantle.xmf,705,-1.27756e-06,5.69883e-06,0,7.99267e-08,-1.66734e+09,-1.6664e+09,-1.66717e+09,10682.2,0.00305437,0.0139449,0,0.0142755,-2336.96,-57570.6,-0,57618,10682.2
step02_gravity_refstate-mantle.xmf,706,-1.29245e-06,5.77094e-06,0,2.8866e-08,-1.70566e+09,-1.70472e+09,-1.70549e+09,3857.94,0.002062,0.00721779,0,0.00750655,-1581.87,-58754.6,-0,58775.9,3857.94
step02_gravity_refstate-mantle.xmf,707,-1.3045e-06,5.84766e-06,0,-1.44264e-09,-1.74598e+09,-1.74502e+09,-1.7458e+09,-192.809,0.00103557,-7.02998e-19,0,0.00103557,-793.86,-60000,-0,60005.2,192.809
step02_gravity_refstate-mantle.xmf,708,1.96676e-07,2.43561e-06,0,5.68816e-07,-1.09848e+09,-1.09818e+09,-1.0985e+09,76022.2,0.00707235,0.0680474,0,0.0684139,-15444.9,-40000,-0,42878.2,76022.2
step02_gravity_refstate-mantle.xmf,709,-8.36905e-08,3.68082e-06,0,1.02555e-06,-1.31201e+09,-1.31151e+09,-1.312e+09,137064,0.0118614,0.0577967,0,0.0590013,-11370.6,-46597.5,-0,47964.8,137064
step02_gravity_refstate-mantle.xmf,710,-7.01529e-07,4.70858e-06,0,8.15358e-07,-1.44656e+09,-1.44584e+09,-1.44647e+09,108973,0.0104012,0.0458093,0,0.0469753,-8393.45,-50752.2,-0,51441.6,108973
step02_gravity_refstate-mantle.xmf,711,-1.13287e-06,5.42275e-06,0,3.02741e-07,-1.59235e+09,-1.59147e+09,-1.5922e+09,40461.3,0.00642244,0.026075,0,0.0268543,-4979.44,-55254.4,-0,55478.3,40461.3
step02_gravity_refstate-mantle.xmf,712,2.41271e-07,2.47922e-06,0,5.53109e-07,-1.12987e+09,-1.12957e+09,-1.1299e+09,73923,0.00789456,0.0643405,0,0.064823,-16071.6,-40970.1,-0,44009.6,73923
step02_gravity_refstate-mantle.xmf,713,2.64797e-07,2.59896e-06,0,6.29858e-07,-1.15996e+09,-1.15965e+09,-1.16e+09,84180.5,0.00887889,0.0633232,0,0.0639426,-15421,-41900.2,-0,44647.8,84180.5
step02_gravity_refstate-mantle.xmf,714,2.65098e-07,2.74289e-06,0,7.08579e-07,-1.19136e+09,-1.19103e+09,-1.19139e+09,94701.5,0.00979409,0.0620235,0,0.062792,-14811.3,-42870.3,-0,45356.8,94701.5
step02_gravity_refstate-mantle.xmf,715,2.36462e-07,2.91631e-06,0,7.87117e-07,-1.22363e+09,-1.22327e+09,-1.22366e+09,105198,0.0106003,0.0605643,0,0.061485,-14177.4,-43867.4,-0,46101.5,105198
step02_gravity_refstate-mantle.xmf,716,1.77792e-07,3.11522e-06,0,8.5474e-07,-1.25656e+09,-1.25617e+09,-1.25659e+09,114236,0.0112473,0.0588567,0,0.0599217,-13545.4,-44884.9,-0,46884.3,114236
step02_gravity_refstate-mantle.xmf,717,9.41541e-08,3.327e-06,0,9.04105e-07,-1.28829e+09,-1.28786e+09,-1.2883e+09,120834,0.0116892,0.0570268,0,0.0582125,-12921.9,-45864.9,-0,47650.5,120834
step02_gravity_refstate-mantle.xmf,718,-9.46249e-09,3.54777e-06,0,9.34793e-07,-1.31842e+09,-1.31794e+09,-1.31842e+09,124935,0.0119335,0.0551564,0,0.0564326,-12282.4,-46795.5,-0,48380.5,124935
step02_gravity_refstate-mantle.xmf,719,-1.53458e-07,3.81863e-06,0,9.58915e-07,-1.34925e+09,-1.34872e+09,-1.34923e+09,128159,0.0119664,0.0534132,0,0.0547372,-11404.3,-47747.5,-0,49090.5,128159
step02_gravity_refstate-mantle.xmf,720,-3.02145e-07,4.08138e-06,0,9.06217e-07,-1.39149e+09,-1.3909e+09,-1.39145e+09,121116,0.0118209,0.0493976,0,0.0507923,-10792.5,-49052.1,-0,50225.3,121116
step02_gravity_refstate-mantle.xmf,721,-4.40927e-07,4.31473e-06,0,8.49264e-07,-1.42505e+09,-1.42441e+09,-1.42499e+09,113504,0.0114808,0.0461887,0,0.0475941,-10109.7,-50088.3,-0,51098.4,113504
step02_gravity_refstate-mantle.xmf,722,-5.75536e-07,4.53187e-06,0,7.83623e-07,-1.45444e+09,-1.45376e+09,-1.45436e+09,104731,0.0109839,0.043285,0,0.0446569,-9368.86,-50995.9,-0,51849.4,104731
step02_gravity_refstate-mantle.xmf,723,-7.32394e-07,4.77332e-06,0,7.08255e-07,-1.48132e+09,-1.48058e+09,-1.48122e+09,94658.3,0.0101918,0.0407517,0,0.0420068,-8367.47,-51825.8,-0,52496.9,94658.3
step02_gravity_refstate-mantle.xmf,724,-8.43815e-07,4.9587e-06,0,5.81142e-07,-1.52086e+09,-1.52008e+09,-1.52075e+09,77669.6,0.00943838,0.0355712,0,0.0368021,-7678.31,-53046.9,-0,53599.7,77669.6
step02_gravity_refstate-mantle.xmf,725,-9.31643e-07,5.11305e-06,0,4.62172e-07,-1.55757e+09,-1.55676e+09,-1.55744e+09,61769.3,0.00866543,0.0304498,0,0.0316588,-7007.41,-54180.6,-0,54631.9,61769.3
step02_gravity_refstate-mantle.xmf,726,-1.00896e-06,5.25415e-06,0,3.50537e-07,-1.59271e+09,-1.59187e+09,-1.59257e+09,46849.3,0.00782463,0.0253059,0,0.026488,-6288.96,-55266,-0,55622.7,46849.3
step02_gravity_refstate-mantle.xmf,727,-1.16464e-06,5.50412e-06,0,2.12346e-07,-1.62689e+09,-1.626e+09,-1.62673e+09,28380,0.00571329,0.0204681,0,0.0212506,-4450.17,-56321.4,-0,56496.9,28380
step02_gravity_refstate-mantle.xmf,728,-1.19575e-06,5.59006e-06,0,1.27678e-07,-1.66525e+09,-1.66435e+09,-1.66509e+09,17064.2,0.0049643,0.0140513,0,0.0149025,-3878.94,-57506.5,-0,57637.2,17064.2
step02_gravity_refstate-mantle.xmf,729,-1.22968e-06,5.68927e-06,0,5.39234e-08,-1.70537e+09,-1.70444e+09,-1.7052e+09,7206.86,0.00403617,0.0071687,0,0.00822684,-3147.08,-58745.6,-0,58829.9,7206.86
step02_gravity_refstate-mantle.xmf,730,-1.2614e-06,5.79191e-06,0,-1.22173e-09,-1.74597e+09,-1.74503e+09,-1.7458e+09,-163.284,0.00307366,-6.99343e-19,0,0.00307366,-2382.28,-60000,-0,60047.3,163.284
step02_gravity_refstate-mantle.xmf,731,1.97286e-07,2.37798e-06,0,4.87014e-07,-1.09848e+09,-1.09819e+09,-1.09851e+09,65089.4,0.00682702,0.0654505,0,0.0658056,-16694.2,-40000,-0,43343.9,65089.4
step02_gravity_refstate-mantle.xmf,732,-1.06978e-06,5.36763e-06,0,2.66596e-07,-1.61976e+09,-1.6189e+09,-1.61962e+09,35630.6,0.00703514,0.0212086,0,0.022345,-5615.05,-56101.6,-0,56381.9,35630.6
step02_gravity_refstate-mantle.xmf,733,2.50181e-07,2.42464e-06,0,4.72213e-07,-1.13335e+09,-1.13306e+09,-1.13338e+09,63111.3,0.00767687,0.0616318,0,0.062108,-17347.9,-41077.6,-0,44590.6,63111.3
step02_gravity_refstate-mantle.xmf,734,2.7351e-07,2.52072e-06,0,5.32426e-07,-1.15958e+09,-1.15928e+09,-1.15961e+09,71158.8,0.00852379,0.0608156,0,0.0614101,-16703,-41888.1,-0,45095.5,71158.8
step02_gravity_refstate-mantle.xmf,735,2.83486e-07,2.64355e-06,0,6.01287e-07,-1.18946e+09,-1.18915e+09,-1.1895e+09,80362,0.00941057,0.0596618,0,0.0603994,-16055.4,-42811.6,-0,45723.2,80362
step02_gravity_refstate-mantle.xmf,736,2.70656e-07,2.80073e-06,0,6.72759e-07,-1.22371e+09,-1.22337e+09,-1.22374e+09,89914.2,0.0102871,0.0580179,0,0.0589228,-15417.7,-43869.8,-0,46500.2,89914.2
step02_gravity_refstate-mantle.xmf,737,2.30151e-07,2.98053e-06,0,7.38426e-07,-1.25764e+09,-1.25728e+09,-1.25767e+09,98690.7,0.0110131,0.0562578,0,0.0573257,-14766.9,-44918.3,-0,47283.3,98690.7
step02_gravity_refstate-mantle.xmf,738,1.64749e-07,3.17569e-06,0,7.92175e-07,-1.29018e+09,-1.28978e+09,-1.29021e+09,105874,0.0115546,0.0544454,0,0.055658,-14107.6,-45923.5,-0,48041.6,105874
step02_gravity_refstate-mantle.xmf,739,7.74141e-08,3.3846e-06,0,8.29276e-07,-1.32225e+09,-1.32181e+09,-1.32226e+09,110833,0.0119177,0.0524622,0,0.0537988,-13445.4,-46914,-0,48802.7,110833
step02_gravity_refstate-mantle.xmf,740,-3.38462e-08,3.61495e-06,0,8.49507e-07,-1.35488e+09,-1.35439e+09,-1.35487e+09,113537,0.0121043,0.0502802,0,0.0517167,-12719.4,-47921.7,-0,49580.9,113537
step02_gravity_refstate-mantle.xmf,741,-1.56013e-07,3.84904e-06,0,8.27572e-07,-1.3927e+09,-1.39217e+09,-1.39268e+09,110605,0.0121211,0.0469917,0,0.0485298,-12104.5,-49089.9,-0,50560.2,110605
step02_gravity_refstate-mantle.xmf,742,-2.99066e-07,4.10376e-06,0,7.73805e-07,-1.434e+09,-1.43341e+09,-1.43396e+09,103419,0.0119352,0.043025,0,0.0446497,-11406.5,-50365.3,-0,51640.8,103419
step02_gravity_refstate-mantle.xmf,743,-4.37504e-07,4.32994e-06,0,7.51299e-07,-1.45655e+09,-1.45591e+09,-1.45649e+09,100411,0.0115411,0.0414199,0,0.0429977,-10486.9,-51061.4,-0,52127.2,100411
step02_gravity_refstate-mantle.xmf,744,-5.49816e-07,4.5211e-06,0,6.75711e-07,-1.48956e+09,-1.48889e+09,-1.48949e+09,90308.8,0.0111016,0.0377427,0,0.0393415,-9846.08,-52081,-0,53003.6,90308.8
step02_gravity_refstate-mantle.xmf,745,-6.6638e-07,4.71498e-06,0,5.90116e-07,-1.52164e+09,-1.52092e+09,-1.52155e+09,78869,0.0105171,0.0339917,0,0.0355815,-9111.62,-53071.6,-0,53848.1,78869
step02_gravity_refstate-mantle.xmf,746,-7.70138e-07,4.89465e-06,0,4.84214e-07,-1.55811e+09,-1.55735e+09,-1.55801e+09,64715.2,0.00985112,0.0292366,0,0.0308516,-8403.54,-54197.9,-0,54845.6,64715.2
step02_gravity_refstate-mantle.xmf,747,-8.65847e-07,5.06506e-06,0,3.7453e-07,-1.595e+09,-1.59421e+09,-1.59488e+09,50056,0.00908382,0.0241164,0,0.0257705,-7641.01,-55337.2,-0,55862.3,50056
step02_gravity_refstate-mantle.xmf,748,-9.58459e-07,5.22901e-06,0,2.74285e-07,-1.62859e+09,-1.62776e+09,-1.62846e+09,36658.2,0.00818259,0.019245,0,0.0209123,-6771.36,-56374.6,-0,56779.8,36658.2
step02_gravity_refstate-mantle.xmf,749,-1.06712e-06,5.40984e-06,0,1.82563e-07,-1.65828e+09,-1.65742e+09,-1.65814e+09,24399.5,0.00690879,0.014807,0,0.0163395,-5585.33,-57291.5,-0,57563.1,24399.5
step02_gravity_refstate-mantle.xmf,750,-1.1273e-06,5.55307e-06,0,7.81114e-08,-1.70383e+09,-1.70294e+09,-1.70368e+09,10439.6,0.00594133,0.00726438,0,0.00938459,-4762.31,-58698.5,-0,58891.4,10439.6
step02_gravity_refstate-mantle.xmf,751,-1.17861e-06,5.68439e-06,0,-9.65823e-10,-1.74596e+09,-1.74505e+09,-1.74581e+09,-129.082,0.00501817,-7.09861e-19,0,0.00501817,-3975.83,-60000,-0,60131.6,129.082
step02_gravity_refstate-mantle.xmf,752,2.01266e-07,2.32503e-06,0,4.15129e-07,-1.09848e+09,-1.0982e+09,-1.09851e+09,55482,0.00656622,0.0630177,0,0.0633589,-18006.4,-40000,-0,43866,55482
step02_gravity_refstate-mantle.xmf,753,2.59141e-07,2.37166e-06,0,4.00368e-07,-1.13531e+09,-1.13503e+09,-1.13535e+09,53509.2,0.00739229,0.0592424,0,0.0597019,-18664.8,-41138.1,-0,45174.3,53509.2
step02_gravity_refstate-mantle.xmf,754,2.83445e-07,2.45186e-06,0,4.49782e-07,-1.15908e+09,-1.15879e+09,-1.15911e+09,60113.4,0.00815371,0.0585754,0,0.0591402,-17991.1,-41872.6,-0,45574,60113.4
step02_gravity_refstate-mantle.xmf,755,2.97216e-07,2.55215e-06,0,5.0365e-07,-1.18624e+09,-1.18594e+09,-1.18628e+09,67312.9,0.00895399,0.0575097,0,0.0582026,-17381.1,-42712.1,-0,46113.2,67312.9
step02_gravity_refstate-mantle.xmf,756,2.98246e-07,2.69972e-06,0,5.69359e-07,-1.22354e+09,-1.22322e+09,-1.22358e+09,76094.9,0.00991598,0.0556477,0,0.0565242,-16711.1,-43864.6,-0,46940,76094.9
step02_gravity_refstate-mantle.xmf,757,2.72466e-07,2.86585e-06,0,6.31609e-07,-1.25935e+09,-1.259e+09,-1.25939e+09,84414.5,0.0107203,0.0537604,0,0.0548189,-16032.9,-44971,-0,47743.5,84414.5
step02_gravity_refstate-mantle.xmf,758,2.24276e-07,3.04058e-06,0,6.84934e-07,-1.29169e+09,-1.29131e+09,-1.29172e+09,91541.4,0.0113296,0.0520104,0,0.0532301,-15351,-45970.1,-0,48465.5,91541.4
step02_gravity_refstate-mantle.xmf,759,1.58833e-07,3.22203e-06,0,7.2406e-07,-1.32296e+09,-1.32255e+09,-1.32298e+09,96770.6,0.0117741,0.0501066,0,0.0514714,-14708.8,-46936.1,-0,49186.9,96770.6
step02_gravity_refstate-mantle.xmf,760,7.26397e-08,3.42429e-06,0,7.44729e-07,-1.35684e+09,-1.3564e+09,-1.35685e+09,99533.1,0.0120871,0.0477185,0,0.0492255,-14067.8,-47982.7,-0,50002.4,99533.1
step02_gravity_refstate-mantle.xmf,761,-3.11792e-08,3.64147e-06,0,7.43689e-07,-1.39259e+09,-1.3921e+09,-1.39259e+09,99394,0.0122432,0.0448819,0,0.0465218,-13411.1,-49086.8,-0,50885.9,99394
step02_gravity_refstate-mantle.xmf,762,-1.46269e-07,3.86346e-06,0,7.19572e-07,-1.42905e+09,-1.42851e+09,-1.42903e+09,96170.8,0.0122324,0.0416758,0,0.0434339,-12735.9,-50212.6,-0,51802.6,96170.8
step02_gravity_refstate-mantle.xmf,763,-3.65915e-07,4.24864e-06,0,6.60902e-07,-1.48203e+09,-1.48142e+09,-1.48198e+09,88329.6,0.0118,0.0369491,0,0.0387876,-11316.6,-51848.9,-0,53069.6,88329.6
step02_gravity_refstate-mantle.xmf,764,-4.92913e-07,4.47068e-06,0,5.76579e-07,-1.5216e+09,-1.52094e+09,-1.52154e+09,77059.8,0.0113544,0.0324869,0,0.034414,-10555.9,-53071,-0,54110.6,77059.8
step02_gravity_refstate-mantle.xmf,765,-6.04671e-07,4.66729e-06,0,4.85557e-07,-1.55838e+09,-1.55768e+09,-1.5583e+09,64894.7,0.0108227,0.0279948,0,0.030014,-9818.45,-54206.9,-0,55088.9,64894.7
step02_gravity_refstate-mantle.xmf,766,-7.08433e-07,4.8534e-06,0,3.842e-07,-1.59615e+09,-1.59541e+09,-1.59606e+09,51348.3,0.010197,0.0230157,0,0.0251734,-9060.08,-55373.3,-0,56109.6,51348.3
step02_gravity_refstate-mantle.xmf,767,-8.10202e-07,5.03581e-06,0,2.83515e-07,-1.63243e+09,-1.63164e+09,-1.63232e+09,37891.8,0.00944378,0.0179593,0,0.0202909,-8209.19,-56493.6,-0,57086.9,37891.8
step02_gravity_refstate-mantle.xmf,768,-9.09144e-07,5.21622e-06,0,1.82923e-07,-1.669e+09,-1.66818e+09,-1.66888e+09,24447.7,0.00855914,0.0125317,0,0.0151757,-7276.42,-57623.1,-0,58080.7,24447.7
step02_gravity_refstate-mantle.xmf,769,-9.91822e-07,5.37606e-06,0,9.23521e-08,-1.70444e+09,-1.70359e+09,-1.70431e+09,12342.9,0.00767765,0.00693117,0,0.0103435,-6401.66,-58717.9,-0,59065.8,12342.9
step02_gravity_refstate-mantle.xmf,770,-1.06159e-06,5.53171e-06,0,-4.40875e-10,-1.74595e+09,-1.74507e+09,-1.74581e+09,-58.923,0.00681529,-6.7838e-19,0,0.00681529,-5580.2,-60000,-0,60258.9,58.923
step02_gravity_refstate-mantle.xmf,771,2.08871e-07,2.27557e-06,0,3.52306e-07,-1.09849e+09,-1.09821e+09,-1.09851e+09,47085.7,0.0062842,0.0607503,0,0.0610745,-19384.6,-40000,-0,44449.6,47085.7
step02_gravity_refstate-mantle.xmf,772,-2.34718e-07,4.03142e-06,0,6.74415e-07,-1.46084e+09,-1.46027e+09,-1.46081e+09,90135.6,0.0121316,0.0384145,0,0.0402846,-12289.7,-51194.7,-0,52649.1,90135.6
step02_gravity_refstate-mantle.xmf,773,2.72207e-07,2.3239e-06,0,3.35877e-07,-1.13853e+09,-1.13826e+09,-1.13857e+09,44889.9,0.00709598,0.0568943,0,0.0573351,-20067.7,-41237.5,-0,45861.2,44889.9
step02_gravity_refstate-mantle.xmf,774,3.0641e-07,2.46321e-06,0,4.1469e-07,-1.17988e+09,-1.17959e+09,-1.17992e+09,55423.3,0.0083844,0.0556916,0,0.0563192,-18807.6,-42515.3,-0,46489.5,55423.3
step02_gravity_refstate-mantle.xmf,775,3.21283e-07,2.61031e-06,0,4.76944e-07,-1.22299e+09,-1.22269e+09,-1.22303e+09,63743.6,0.00948791,0.0534691,0,0.0543044,-18059.7,-43847.6,-0,47421.1,63743.6
step02_gravity_refstate-mantle.xmf,776,3.07883e-07,2.76819e-06,0,5.35438e-07,-1.26166e+09,-1.26133e+09,-1.2617e+09,71561.3,0.0103779,0.0513946,0,0.0524319,-17334.5,-45042.4,-0,48262.8,71561.3
step02_gravity_refstate-mantle.xmf,777,2.70833e-07,2.93839e-06,0,5.86022e-07,-1.29811e+09,-1.29775e+09,-1.29814e+09,78321.8,0.0110908,0.0492932,0,0.0505255,-16629.8,-46168.3,-0,49072.1,78321.8
step02_gravity_refstate-mantle.xmf,778,2.20071e-07,3.08852e-06,0,6.35521e-07,-1.32173e+09,-1.32135e+09,-1.32176e+09,84937.4,0.0115437,0.0483091,0,0.0496692,-15863,-46898.2,-0,49508.4,84937.4
step02_gravity_refstate-mantle.xmf,779,1.64661e-07,3.24813e-06,0,6.47992e-07,-1.35507e+09,-1.35466e+09,-1.35509e+09,86604.1,0.0119155,0.0457413,0,0.0472678,-15418.3,-47928,-0,50347,86604.1
step02_gravity_refstate-mantle.xmf,780,7.77776e-08,3.4539e-06,0,6.53889e-07,-1.3931e+09,-1.39265e+09,-1.39311e+09,87392.3,0.0122131,0.0427635,0,0.0444734,-14775.6,-49102.6,-0,51277.6,87392.3
step02_gravity_refstate-mantle.xmf,781,-2.38705e-08,3.66812e-06,0,6.43745e-07,-1.43047e+09,-1.42997e+09,-1.43046e+09,86036.6,0.0123479,0.0396352,0,0.0415141,-14075.1,-50256.9,-0,52190.6,86036.6
step02_gravity_refstate-mantle.xmf,782,-1.34369e-07,3.88517e-06,0,6.12382e-07,-1.46819e+09,-1.46766e+09,-1.46818e+09,81844.9,0.012326,0.0361487,0,0.0381924,-13365.5,-51422.1,-0,53130.6,81844.9
step02_gravity_refstate-mantle.xmf,783,-2.35284e-07,4.06167e-06,0,5.95489e-07,-1.49094e+09,-1.49036e+09,-1.49091e+09,79587.1,0.0121756,0.0342407,0,0.036341,-12623.8,-52124.4,-0,53631.3,79587.1
step02_gravity_refstate-mantle.xmf,784,-4.41626e-07,4.43884e-06,0,4.70471e-07,-1.55814e+09,-1.55749e+09,-1.55808e+09,62878.5,0.011572,0.0267978,0,0.0291896,-11249.2,-54199.8,-0,55354.9,62878.5
step02_gravity_refstate-mantle.xmf,785,-3.2878e-07,4.23388e-06,0,5.47208e-07,-1.52067e+09,-1.52006e+09,-1.52063e+09,73134.3,0.0119496,0.0311125,0,0.0333284,-11997.9,-53042.7,-0,54382.7,73134.3
step02_gravity_refstate-mantle.xmf,786,-5.51761e-07,4.63866e-06,0,3.81332e-07,-1.59615e+09,-1.59546e+09,-1.59608e+09,50965,0.0110784,0.0220732,0,0.0246973,-10458.9,-55373.8,-0,56352.9,50965
step02_gravity_refstate-mantle.xmf,787,-6.51467e-07,4.82197e-06,0,2.87664e-07,-1.63293e+09,-1.6322e+09,-1.63284e+09,38446.3,0.0105172,0.0171564,0,0.0201235,-9679.59,-56509.7,-0,57332.7,38446.3
step02_gravity_refstate-mantle.xmf,788,-7.45947e-07,4.99974e-06,0,1.90984e-07,-1.67003e+09,-1.66927e+09,-1.66993e+09,25525,0.00987513,0.0118617,0,0.0154343,-8868.8,-57655.6,-0,58333.8,25525
step02_gravity_refstate-mantle.xmf,789,-8.352e-07,5.16667e-06,0,1.05155e-07,-1.70299e+09,-1.70219e+09,-1.70288e+09,14054,0.00916638,0.00689735,0,0.0114715,-8029.48,-58673.4,-0,59220.3,14054
step02_gravity_refstate-mantle.xmf,790,-9.17068e-07,5.34139e-06,0,-6.9649e-11,-1.74594e+09,-1.7451e+09,-1.74581e+09,-9.30859,0.00841894,-6.75967e-19,0,0.00841894,-7201.04,-60000,-0,60430.6,9.30859
step02_gravity_refstate-mantle.xmf,791,2.20017e-07,2.22873e-06,0,2.97328e-07,-1.09849e+09,-1.09822e+09,-1.09852e+09,39737.9,0.00597441,0.0586498,0,0.0589533,-20832.2,-40000,-0,45099.7,39737.9
step02_gravity_refstate-mantle.xmf,792,2.9422e-07,2.27854e-06,0,2.75675e-07,-1.14421e+09,-1.14394e+09,-1.14425e+09,36844,0.00676756,0.0543898,0,0.0548092,-21667.5,-41412.9,-0,46738.7,36844
step02_gravity_refstate-mantle.xmf,793,2.36758e-07,2.18283e-06,0,2.48893e-07,-1.09849e+09,-1.09823e+09,-1.09852e+09,33264.5,0.00562954,0.0567179,0,0.0569966,-22352.7,-40000,-0,45821.8,33264.5
step02_gravity_refstate-mantle.xmf,794,3.23453e-07,2.4e-06,0,3.36719e-07,-1.18297e+09,-1.1827e+09,-1.18302e+09,45002.5,0.00794341,0.0531843,0,0.0537742,-20410.1,-42610.9,-0,47246.8,45002.5
step02_gravity_refstate-mantle.xmf,795,2.51099e-07,2.1416e-06,0,2.06958e-07,-1.09849e+09,-1.09824e+09,-1.09852e+09,27660,0.00524273,0.0549565,0,0.055206,-23949.7,-40000,-0,46621.8,27660
step02_gravity_refstate-mantle.xmf,796,2.89617e-07,2.21389e-06,0,2.27791e-07,-1.13171e+09,-1.13146e+09,-1.13175e+09,30444.3,0.00608935,0.0535607,0,0.0539057,-23149.6,-41026.7,-0,47107.3,30444.3
step02_gravity_refstate-mantle.xmf,797,3.419e-07,2.53139e-06,0,3.93883e-07,-1.22313e+09,-1.22284e+09,-1.22318e+09,52642.5,0.00901329,0.0513546,0,0.0521396,-19498.3,-43851.9,-0,47991.4,52642.5
step02_gravity_refstate-mantle.xmf,798,3.39368e-07,2.67973e-06,0,4.47955e-07,-1.26365e+09,-1.26334e+09,-1.2637e+09,59869.2,0.00996499,0.0491948,0,0.0501939,-18705.1,-45103.8,-0,48828.6,59869.2
step02_gravity_refstate-mantle.xmf,799,3.12171e-07,2.84845e-06,0,4.98699e-07,-1.30348e+09,-1.30314e+09,-1.30352e+09,66651.1,0.010786,0.046921,0,0.0481448,-17902.8,-46334.5,-0,49672.9,66651.1
step02_gravity_refstate-mantle.xmf,800,2.52167e-07,3.05609e-06,0,5.53728e-07,-1.34334e+09,-1.34296e+09,-1.34337e+09,74005.7,0.0115086,0.044708,0,0.0461655,-16896.4,-47565.7,-0,50477.6,74005.7
step02_gravity_refstate-mantle.xmf,801,1.74015e-07,3.28026e-06,0,5.64659e-07,-1.39228e+09,-1.39186e+09,-1.3923e+09,75466.7,0.0120292,0.040872,0,0.0426055,-16201.1,-49077.5,-0,51682.5,75466.7
step02_gravity_refstate-mantle.xmf,802,8.47703e-08,3.48931e-06,0,5.64026e-07,-1.43197e+09,-1.43152e+09,-1.43199e+09,75382,0.0123096,0.0376685,0,0.0396288,-15463.8,-50303.7,-0,52626.9,75382
step02_gravity_refstate-mantle.xmf,803,-1.24728e-08,3.6951e-06,0,5.47879e-07,-1.4689e+09,-1.46841e+09,-1.4689e+09,73224.1,0.0124256,0.0344555,0,0.0366275,-14723.4,-51444.3,-0,53509.8,73224.1
step02_gravity_refstate-mantle.xmf,804,-1.64979e-07,3.98421e-06,0,5.15722e-07,-1.51312e+09,-1.51257e+09,-1.5131e+09,68926.3,0.012335,0.0305164,0,0.0329151,-13516.6,-52810,-0,54512.4,68926.3
step02_gravity_refstate-mantle.xmf,805,-4.01337e-07,4.43342e-06,0,3.58259e-07,-1.59941e+09,-1.59876e+09,-1.59935e+09,47881.4,0.0117357,0.0206835,0,0.0237809,-11854.3,-55474.8,-0,56727.2,47881.4
step02_gravity_refstate-mantle.xmf,806,-2.81068e-07,4.20848e-06,0,4.42003e-07,-1.55728e+09,-1.55668e+09,-1.55724e+09,59073.7,0.0121122,0.0256458,0,0.0283622,-12740.1,-54173.8,-0,55651.7,59073.7
step02_gravity_refstate-mantle.xmf,807,-5.13806e-07,4.62935e-06,0,2.91817e-07,-1.62967e+09,-1.62898e+09,-1.6296e+09,39001.3,0.0112585,0.0169857,0,0.0203781,-10940.4,-56409.4,-0,57460.5,39001.3
step02_gravity_refstate-mantle.xmf,808,-5.71016e-07,4.76057e-06,0,1.95318e-07,-1.66851e+09,-1.6678e+09,-1.66843e+09,26104.3,0.0109587,0.011538,0,0.0159128,-10510.4,-57609.1,-0,58560,26104.3
step02_gravity_refstate-mantle.xmf,809,-6.63085e-07,4.93562e-06,0,1.08915e-07,-1.70274e+09,-1.70199e+09,-1.70265e+09,14556.6,0.0104126,0.00662916,0,0.0123437,-9692.25,-58666.2,-0,59461.5,14556.6
step02_gravity_refstate-mantle.xmf,810,-7.53443e-07,5.12361e-06,0,3.31768e-10,-1.74592e+09,-1.74513e+09,-1.74582e+09,44.3408,0.00979136,-6.50426e-19,0,0.00979136,-8844,-60000,-0,60648.3,44.3408
step02_gravity_refstate-mantle.xmf,811,3.15916e-07,2.19265e-06,0,1.91619e-07,-1.1419e+09,-1.14165e+09,-1.14194e+09,25609.8,0.00585765,0.0514882,0,0.0518203,-24522.8,-41341.6,-0,48067.7,25609.8
step02_gravity_refstate-mantle.xmf,812,2.69916e-07,2.101e-06,0,1.69857e-07,-1.09849e+09,-1.09824e+09,-1.09852e+09,22701.4,0.00480622,0.0533683,0,0.0535843,-25627.4,-40000,-0,47505.4,22701.4
step02_gravity_refstate-mantle.xmf,813,3.43348e-07,2.36294e-06,0,2.8346e-07,-1.19056e+09,-1.19029e+09,-1.1906e+09,37884.4,0.00763822,0.0509578,0,0.051527,-21758.8,-42845.2,-0,48053.6,37884.4
step02_gravity_refstate-mantle.xmf,814,3.474e-07,2.28741e-06,0,2.31064e-07,-1.17751e+09,-1.17725e+09,-1.17756e+09,30881.7,0.0068976,0.0502862,0,0.050757,-23234.3,-42442.1,-0,48385.6,30881.7
step02_gravity_refstate-mantle.xmf,815,3.61997e-07,2.46494e-06,0,3.22154e-07,-1.22499e+09,-1.22471e+09,-1.22504e+09,43055.8,0.00851903,0.0492924,0,0.0500231,-20994.2,-43909.1,-0,48670,43055.8
step02_gravity_refstate-mantle.xmf,816,3.56008e-07,2.17448e-06,0,1.52566e-07,-1.15946e+09,-1.15922e+09,-1.15951e+09,20390.4,0.00553771,0.0487842,0,0.0490975,-26303.3,-41884.2,-0,49458.5,20390.4
step02_gravity_refstate-mantle.xmf,817,3.68034e-07,2.59785e-06,0,3.68696e-07,-1.26515e+09,-1.26485e+09,-1.2652e+09,49276.3,0.00947147,0.0471603,0,0.048102,-20164.8,-45150.2,-0,49448.5,49276.3
step02_gravity_refstate-mantle.xmf,818,3.53914e-07,2.75065e-06,0,4.12793e-07,-1.30619e+09,-1.30587e+09,-1.30624e+09,55169.8,0.010334,0.0447619,0,0.0459393,-19362.2,-46418.3,-0,50294.6,55169.8
step02_gravity_refstate-mantle.xmf,819,3.15314e-07,2.92958e-06,0,4.5419e-07,-1.34795e+09,-1.3476e+09,-1.34799e+09,60702.5,0.0111011,0.042181,0,0.0436173,-18489,-47708.2,-0,51165.6,60702.5
step02_gravity_refstate-mantle.xmf,820,2.56055e-07,3.12468e-06,0,4.79358e-07,-1.39089e+09,-1.39051e+09,-1.39092e+09,64066.2,0.0117038,0.0391592,0,0.0408708,-17672.3,-49034.8,-0,52122.2,64066.2
step02_gravity_refstate-mantle.xmf,821,1.80413e-07,3.32727e-06,0,4.85122e-07,-1.43346e+09,-1.43304e+09,-1.43348e+09,64836.5,0.0121257,0.035818,0,0.0378149,-16896.8,-50349.8,-0,53109.4,64836.5
step02_gravity_refstate-mantle.xmf,822,9.18217e-08,3.53295e-06,0,4.76364e-07,-1.47347e+09,-1.47301e+09,-1.47348e+09,63666.1,0.0123806,0.0324488,0,0.0347305,-16094.7,-51585.6,-0,54038.1,63666.1
step02_gravity_refstate-mantle.xmf,823,-1.55825e-08,3.75917e-06,0,4.50802e-07,-1.51479e+09,-1.51428e+09,-1.51479e+09,60249.7,0.012486,0.0286965,0,0.0312952,-15181.9,-52861.8,-0,54998.8,60249.7
step02_gravity_refstate-mantle.xmf,824,-1.29067e-07,3.98677e-06,0,4.00529e-07,-1.55741e+09,-1.55686e+09,-1.5574e+09,53530.7,0.0124292,0.0243693,0,0.0273559,-14285.2,-54178.4,-0,56030,53530.7
step02_gravity_refstate-mantle.xmf,825,-3.87221e-07,4.48365e-06,0,2.27782e-07,-1.65135e+09,-1.6507e+09,-1.6513e+09,30443,0.0117914,0.0133423,0,0.017806,-12198.7,-57079.6,-0,58368.5,30443
step02_gravity_refstate-mantle.xmf,826,-2.44243e-07,4.21433e-06,0,3.26791e-07,-1.60205e+09,-1.60146e+09,-1.60202e+09,43675.7,0.0122275,0.0193474,0,0.0228874,-13389.4,-55557,-0,57147.7,43675.7
step02_gravity_refstate-mantle.xmf,827,-4.85739e-07,4.69316e-06,0,1.0801e-07,-1.70207e+09,-1.70138e+09,-1.70201e+09,14435.6,0.0113801,0.00640248,0,0.0130575,-11375.7,-58646.3,-0,59739.4,14435.6
step02_gravity_refstate-mantle.xmf,828,-5.78933e-07,4.8883e-06,0,6.65497e-10,-1.7459e+09,-1.74517e+09,-1.74582e+09,88.9436,0.0109045,-6.28728e-19,0,0.0109045,-10514.7,-60000,-0,60914.4,88.9436
step02_gravity_refstate-mantle.xmf,829,2.89738e-07,2.06283e-06,0,1.37498e-07,-1.09849e+09,-1.09825e+09,-1.09853e+09,18376.5,0.00431346,0.0519568,0,0.0521356,-27389.7,-40000,-0,48478.8,18376.5
step02_gravity_refstate-mantle.xmf,830,3.69937e-07,2.25323e-06,0,1.86081e-07,-1.18537e+09,-1.18512e+09,-1.18542e+09,24869.7,0.00644892,0.0482029,0,0.0486323,-24853.9,-42684.9,-0,49393.5,24869.7
step02_gravity_refstate-mantle.xmf,831,3.68626e-07,2.13078e-06,0,1.18035e-07,-1.15705e+09,-1.15682e+09,-1.1571e+09,15775.4,0.00482591,0.0476184,0,0.0478623,-28185.3,-41809.9,-0,50423,15775.4
step02_gravity_refstate-mantle.xmf,832,3.29518e-07,1.99634e-06,0,8.41069e-08,-1.09848e+09,-1.09826e+09,-1.09853e+09,11240.9,0.00313865,0.0496867,0,0.0497857,-31185.8,-40000,-0,50720.4,11240.9
step02_gravity_refstate-mantle.xmf,833,3.45765e-07,1.97026e-06,0,6.12604e-08,-1.09848e+09,-1.09826e+09,-1.09853e+09,8187.46,0.00245038,0.0488447,0,0.0489061,-33229,-40000,-0,52001.6,8187.46
step02_gravity_refstate-mantle.xmf,834,4.01676e-07,2.06171e-06,0,6.56827e-08,-1.1561e+09,-1.15588e+09,-1.15615e+09,8778.49,0.00328858,0.0456555,0,0.0457738,-32153.4,-41780.4,-0,52720.4,8778.49
step02_gravity_refstate-mantle.xmf,835,3.1098e-07,2.02734e-06,0,1.09485e-07,-1.09848e+09,-1.09826e+09,-1.09853e+09,14632.6,0.00375897,0.0507273,0,0.0508664,-29241,-40000,-0,49548.3,14632.6
step02_gravity_refstate-mantle.xmf,836,3.89669e-07,2.09622e-06,0,8.99433e-08,-1.15883e+09,-1.15861e+09,-1.15889e+09,12020.9,0.00411652,0.0463972,0,0.0465795,-30114.4,-41864.9,-0,51570.8,12020.9
step02_gravity_refstate-mantle.xmf,837,3.58915e-07,1.95001e-06,0,4.01764e-08,-1.09848e+09,-1.09827e+09,-1.09853e+09,5369.57,0.00169469,0.0482151,0,0.0482448,-35375.6,-40000,-0,53398.8,5369.57
step02_gravity_refstate-mantle.xmf,838,4.12884e-07,2.0362e-06,0,4.54657e-08,-1.15493e+09,-1.15471e+09,-1.15498e+09,6076.49,0.00244651,0.0450402,0,0.0451066,-34207.2,-41744.3,-0,53969.6,6076.49
step02_gravity_refstate-mantle.xmf,839,3.67679e-07,1.93689e-06,0,2.01306e-08,-1.09848e+09,-1.09827e+09,-1.09853e+09,2690.46,0.000875262,0.0478167,0,0.0478247,-37630.7,-40000,-0,54918.8,2690.46
step02_gravity_refstate-mantle.xmf,840,4.232e-07,2.01904e-06,0,2.66534e-08,-1.15551e+09,-1.15529e+09,-1.15556e+09,3562.23,0.0015269,0.0445065,0,0.0445327,-36417.9,-41762.1,-0,55410.6,3562.23
step02_gravity_refstate-mantle.xmf,841,3.70864e-07,1.9326e-06,0,5.58542e-10,-1.09848e+09,-1.09827e+09,-1.09853e+09,74.6491,-1.48052e-20,0.0476764,-0,0.0476764,-40000,-40000,-0,56568.5,74.6491
step02_gravity_refstate-mantle.xmf,842,4.2411e-07,2.00644e-06,0,1.17916e-08,-1.1521e+09,-1.15189e+09,-1.15216e+09,1575.95,0.000706111,0.0444801,0,0.0444857,-38336.8,-41656.9,-0,56612.8,1575.95
step02_gravity_refstate-mantle.xmf,843,3.80262e-07,2.4016e-06,0,2.61304e-07,-1.22464e+09,-1.22437e+09,-1.22469e+09,34923.3,0.00794565,0.047608,0,0.0482665,-22523.5,-43898.4,-0,49339.4,34923.3
step02_gravity_refstate-mantle.xmf,844,3.93952e-07,2.52249e-06,0,2.98952e-07,-1.26583e+09,-1.26554e+09,-1.26588e+09,39954.9,0.00889781,0.0453511,0,0.0462157,-21696.4,-45171,-0,50111.4,39954.9
step02_gravity_refstate-mantle.xmf,845,3.99693e-07,2.34176e-06,0,2.09186e-07,-1.22388e+09,-1.22362e+09,-1.22393e+09,27957.7,0.007308,0.0461063,0,0.0466819,-24132.8,-43874.9,-0,50073.9,27957.7
step02_gravity_refstate-mantle.xmf,846,4.11702e-07,2.28197e-06,0,1.64232e-07,-1.21867e+09,-1.21842e+09,-1.21873e+09,21949.6,0.0065575,0.0450881,0,0.0455625,-25808.7,-43713.9,-0,50764.1,21949.6
step02_gravity_refstate-mantle.xmf,847,3.90503e-07,2.66078e-06,0,3.37148e-07,-1.30745e+09,-1.30714e+09,-1.3075e+09,45059.8,0.00978771,0.0429083,0,0.0440105,-20872.3,-46457,-0,50930.4,45059.8
step02_gravity_refstate-mantle.xmf,848,3.67714e-07,2.81809e-06,0,3.71223e-07,-1.34978e+09,-1.34945e+09,-1.34983e+09,49613.9,0.0105872,0.0402195,0,0.0415896,-20048.1,-47764.9,-0,51801.7,49613.9
step02_gravity_refstate-mantle.xmf,849,3.2385e-07,2.99602e-06,0,3.97817e-07,-1.39288e+09,-1.39252e+09,-1.39292e+09,53168.2,0.0112784,0.0372656,0,0.0389349,-19191.8,-49096.4,-0,52714.2,53168.2
step02_gravity_refstate-mantle.xmf,850,2.64489e-07,3.18138e-06,0,4.08309e-07,-1.43554e+09,-1.43515e+09,-1.43558e+09,54570.6,0.011803,0.0340159,0,0.0360054,-18396.5,-50414.3,-0,53665.9,54570.6
step02_gravity_refstate-mantle.xmf,851,1.91511e-07,3.37182e-06,0,4.05783e-07,-1.47607e+09,-1.47565e+09,-1.4761e+09,54232.9,0.0121778,0.0307011,0,0.0330281,-17585.1,-51666.3,-0,54576.9,54232.9
step02_gravity_refstate-mantle.xmf,852,1.06747e-07,3.56971e-06,0,3.87825e-07,-1.51649e+09,-1.51603e+09,-1.5165e+09,51832.8,0.0124169,0.0271078,0,0.0298164,-16754.6,-52914.7,-0,55503.9,51832.8
step02_gravity_refstate-mantle.xmf,853,1.15337e-08,3.7767e-06,0,3.51705e-07,-1.55789e+09,-1.55739e+09,-1.5579e+09,47005.3,0.0125238,0.0230891,0,0.0262669,-15892.2,-54193.6,-0,56475.7,47005.3
step02_gravity_refstate-mantle.xmf,854,-9.02086e-08,3.99163e-06,0,2.92035e-07,-1.60249e+09,-1.60194e+09,-1.60247e+09,39030.4,0.0124999,0.018311,0,0.0221707,-15019,-55570.9,-0,57564.7,39030.4
step02_gravity_refstate-mantle.xmf,855,-1.99396e-07,4.21748e-06,0,2.09737e-07,-1.65002e+09,-1.64943e+09,-1.64999e+09,28031.3,0.0123423,0.0127498,0,0.0177452,-14072.5,-57039,-0,58749.3,28031.3
step02_gravity_refstate-mantle.xmf,856,-3.07026e-07,4.44094e-06,0,1.08869e-07,-1.69863e+09,-1.69799e+09,-1.69858e+09,14550.3,0.0120691,0.00654104,0,0.0137277,-13108.8,-58540.3,-0,59990.1,14550.3
step02_gravity_refstate-mantle.xmf,857,-4.01353e-07,4.64508e-06,0,9.78001e-10,-1.74588e+09,-1.74521e+09,-1.74583e+09,130.71,0.0117398,-6.42863e-19,0,0.0117398,-12218.8,-60000,-0,61231.5,130.71
step02_gravity_refstate-mantle.xmf,858,4.0875e-07,2.21897e-06,0,1.33102e-07,-1.20223e+09,-1.20199e+09,-1.20228e+09,17789,0.00575771,0.0452035,0,0.0455687,-27239.6,-43205.8,-0,51075.7,17789
step02_gravity_refstate-mantle.xmf,859,4.49643e-07,2.0362e-06,0,5.70101e-10,-1.17623e+09,-1.17602e+09,-1.17629e+09,76.194,-1.77506e-20,0.0429083,-0,0.0429083,-40000,-42402.6,-0,58292.2,76.194
step02_gravity_refstate-mantle.xmf,860,4.67886e-07,2.13202e-06,0,5.22838e-08,-1.21551e+09,-1.21528e+09,-1.21557e+09,6987.73,0.00332431,0.0414791,0,0.0416121,-33073.8,-43616.1,-0,54737.9,6987.73
step02_gravity_refstate-mantle.xmf,861,4.4652e-07,2.21726e-06,0,1.05501e-07,-1.22483e+09,-1.2246e+09,-1.22489e+09,14100.1,0.00534273,0.0426848,0,0.0430179,-28824,-43904.3,-0,52520.6,14100.1
step02_gravity_refstate-mantle.xmf,862,4.57131e-07,2.16601e-06,0,7.47922e-08,-1.21811e+09,-1.21788e+09,-1.21817e+09,9995.97,0.0042927,0.0420709,0,0.0422893,-31015.4,-43696.6,-0,53585,9995.97
step02_gravity_refstate-mantle.xmf,863,4.86275e-07,2.09207e-06,0,1.41405e-08,-1.21533e+09,-1.21512e+09,-1.2154e+09,1889.87,0.00101451,0.0405116,0,0.0405243,-37913.3,-43610.8,-0,57786.9,1889.87
step02_gravity_refstate-mantle.xmf,864,4.76132e-07,2.10785e-06,0,3.46306e-08,-1.21371e+09,-1.21349e+09,-1.21377e+09,4628.39,0.00238712,0.0410651,0,0.0411344,-35043.9,-43560.6,-0,55907.1,4628.39
step02_gravity_refstate-mantle.xmf,865,4.17164e-07,2.45411e-06,0,2.3893e-07,-1.26581e+09,-1.26554e+09,-1.26587e+09,31933,0.00825329,0.0437723,0,0.0445436,-23285,-45170.6,-0,50819,31933
step02_gravity_refstate-mantle.xmf,866,4.22566e-07,2.57628e-06,0,2.70868e-07,-1.3069e+09,-1.30661e+09,-1.30695e+09,36201.5,0.00913645,0.0413533,0,0.0423505,-22457.3,-46439.9,-0,51584.9,36201.5
step02_gravity_refstate-mantle.xmf,867,4.49094e-07,2.30367e-06,0,1.41001e-07,-1.24948e+09,-1.24924e+09,-1.24954e+09,18844.8,0.00648245,0.0421371,0,0.0426328,-26885.8,-44666,-0,52133.4,18844.8
step02_gravity_refstate-mantle.xmf,868,4.43802e-07,2.39545e-06,0,1.84342e-07,-1.27029e+09,-1.27003e+09,-1.27035e+09,24637.3,0.00753563,0.0419126,0,0.0425846,-25088.8,-45308.8,-0,51791.3,24637.3
step02_gravity_refstate-mantle.xmf,869,4.1256e-07,2.71753e-06,0,2.9947e-07,-1.35013e+09,-1.34982e+09,-1.35018e+09,40024.2,0.00996726,0.0385822,0,0.0398489,-21646,-47775.6,-0,52450.5,40024.2
step02_gravity_refstate-mantle.xmf,870,3.83312e-07,2.87932e-06,0,3.2395e-07,-1.3943e+09,-1.39396e+09,-1.39435e+09,43296,0.0107272,0.0355684,0,0.0371508,-20783,-49140.3,-0,53354.5,43296
step02_gravity_refstate-mantle.xmf,871,3.37087e-07,3.056e-06,0,3.35754e-07,-1.43976e+09,-1.43939e+09,-1.4398e+09,44873.5,0.0113596,0.0321494,0,0.0340973,-19953.7,-50544.6,-0,54340.7,44873.5
step02_gravity_refstate-mantle.xmf,872,2.77715e-07,3.23212e-06,0,3.37329e-07,-1.48061e+09,-1.48021e+09,-1.48064e+09,45084,0.0118373,0.0288962,0,0.0312267,-19115.8,-51806.6,-0,55220.8,45084
step02_gravity_refstate-mantle.xmf,873,2.09433e-07,3.40629e-06,0,3.29953e-07,-1.51794e+09,-1.51751e+09,-1.51796e+09,44098.2,0.0121799,0.0257323,0,0.0284693,-18278.2,-52959.7,-0,56025.2,44098.2
step02_gravity_refstate-mantle.xmf,874,1.34618e-07,3.58883e-06,0,3.00891e-07,-1.55914e+09,-1.55868e+09,-1.55916e+09,40214.1,0.0124077,0.0218291,0,0.025109,-17503.6,-54232.5,-0,56987.2,40214.1
step02_gravity_refstate-mantle.xmf,875,4.99045e-08,3.78416e-06,0,2.5395e-07,-1.60286e+09,-1.60236e+09,-1.60287e+09,33940.4,0.0125335,0.0173434,0,0.0213982,-16675.1,-55583,-0,58030.4,33940.4
step02_gravity_refstate-mantle.xmf,876,-4.10177e-08,3.98883e-06,0,1.85448e-07,-1.6499e+09,-1.64936e+09,-1.6499e+09,24785.1,0.0125513,0.0120879,0,0.0174256,-15809.7,-57035.9,-0,59186.5,24785.1
step02_gravity_refstate-mantle.xmf,877,-1.35133e-07,4.1967e-06,0,9.99366e-08,-1.69762e+09,-1.69704e+09,-1.6976e+09,13356.5,0.0124642,0.00631606,0,0.0139732,-14894.2,-58509.8,-0,60375.8,13356.5
step02_gravity_refstate-mantle.xmf,878,-2.27298e-07,4.4023e-06,0,1.05773e-09,-1.74586e+09,-1.74525e+09,-1.74583e+09,141.366,0.0122879,-6.21082e-19,0,0.0122879,-13961.9,-60000,-0,61603,141.366
step02_gravity_refstate-mantle.xmf,879,5.23835e-07,2.14089e-06,0,4.15376e-10,-1.25444e+09,-1.25422e+09,-1.25451e+09,55.515,-1.68091e-20,0.0378613,-0,0.0378613,-40000,-44819.1,-0,60072.9,55.515
step02_gravity_refstate-mantle.xmf,880,5.26923e-07,2.20296e-06,0,4.1242e-08,-1.27449e+09,-1.27427e+09,-1.27456e+09,5511.99,0.00319375,0.0372549,0,0.0373915,-34035.8,-45438.8,-0,56772.5,5511.99
step02_gravity_refstate-mantle.xmf,881,5.15818e-07,2.23369e-06,0,6.14988e-08,-1.2757e+09,-1.27547e+09,-1.27577e+09,8219.31,0.00426594,0.0377808,0,0.0380209,-31987,-45476,-0,55598.8,8219.31
step02_gravity_refstate-mantle.xmf,882,4.90611e-07,2.33607e-06,0,1.19421e-07,-1.28712e+09,-1.28687e+09,-1.28718e+09,15960.6,0.00636677,0.0387621,0,0.0392815,-27997.1,-45828.9,-0,53704.1,15960.6
step02_gravity_refstate-mantle.xmf,883,5.02468e-07,2.27649e-06,0,8.76547e-08,-1.27858e+09,-1.27834e+09,-1.27865e+09,11715,0.00533054,0.0383967,0,0.038765,-29932.6,-45565,-0,54517.3,11715
step02_gravity_refstate-mantle.xmf,884,5.37005e-07,2.18406e-06,0,2.4428e-08,-1.27594e+09,-1.27572e+09,-1.27601e+09,3264.8,0.00205561,0.036722,0,0.0367795,-36192.1,-45483.4,-0,58125.8,3264.8
step02_gravity_refstate-mantle.xmf,885,5.57369e-07,2.19918e-06,0,1.0822e-08,-1.29487e+09,-1.29465e+09,-1.29494e+09,1446.36,0.000997152,0.0352144,0,0.0352285,-38211.8,-46068.4,-0,59853.4,1446.36
step02_gravity_refstate-mantle.xmf,886,4.47881e-07,2.50439e-06,0,2.18705e-07,-1.30498e+09,-1.30471e+09,-1.30504e+09,29229.9,0.00846349,0.0401915,0,0.041073,-23951.7,-46380.9,-0,52200.3,29229.9
step02_gravity_refstate-mantle.xmf,887,4.50233e-07,2.62236e-06,0,2.38203e-07,-1.34718e+09,-1.34689e+09,-1.34724e+09,31835.9,0.00922621,0.0373881,0,0.0385096,-23292.4,-47684.6,-0,53069.3,31835.9
step02_gravity_refstate-mantle.xmf,888,4.7787e-07,2.39513e-06,0,1.52581e-07,-1.29473e+09,-1.29448e+09,-1.2948e+09,20392.4,0.00720838,0.0391605,0,0.0398184,-26415.2,-46064.1,-0,53100.5,20392.4
step02_gravity_refstate-mantle.xmf,889,4.35214e-07,2.77307e-06,0,2.58596e-07,-1.39477e+09,-1.39445e+09,-1.39482e+09,34561.3,0.010049,0.0341015,0,0.0355513,-22449.4,-49154.8,-0,54038.6,34561.3
step02_gravity_refstate-mantle.xmf,890,4.01368e-07,2.94426e-06,0,2.70964e-07,-1.44418e+09,-1.44384e+09,-1.44423e+09,36214.3,0.0107937,0.0304281,0,0.0322859,-21563,-50681.5,-0,55077.9,36214.3
step02_gravity_refstate-mantle.xmf,891,3.50561e-07,3.1384e-06,0,2.64604e-07,-1.4994e+09,-1.49903e+09,-1.49945e+09,35364.3,0.0114235,0.0258592,0,0.02827,-20704.6,-52387.4,-0,56330.4,35364.3
step02_gravity_refstate-mantle.xmf,892,2.86517e-07,3.2752e-06,0,2.85348e-07,-1.51708e+09,-1.51668e+09,-1.51712e+09,38136.7,0.0118477,0.0248615,0,0.0275402,-19604.5,-52933.3,-0,56447.1,38136.7
step02_gravity_refstate-mantle.xmf,893,2.41759e-07,3.41727e-06,0,2.55563e-07,-1.55823e+09,-1.5578e+09,-1.55826e+09,34156,0.0121044,0.0209268,0,0.0241754,-19105.7,-54204.5,-0,57473.1,34156
step02_gravity_refstate-mantle.xmf,894,1.7409e-07,3.59531e-06,0,2.15632e-07,-1.60319e+09,-1.60273e+09,-1.60321e+09,28819.2,0.0123467,0.0164621,0,0.0205777,-18347.6,-55593.3,-0,58542.7,28819.2
step02_gravity_refstate-mantle.xmf,895,9.93947e-08,3.7806e-06,0,1.60046e-07,-1.6495e+09,-1.64901e+09,-1.64952e+09,21390.2,0.0125009,0.0115176,0,0.0169978,-17535.7,-57024,-0,59659.3,21390.2
step02_gravity_refstate-mantle.xmf,896,1.92595e-08,3.97246e-06,0,8.8222e-08,-1.69693e+09,-1.6964e+09,-1.69693e+09,11790.9,0.0125668,0.00606739,0,0.0139548,-16661.5,-58488.8,-0,60815.7,11790.9
step02_gravity_refstate-mantle.xmf,897,-6.23891e-08,4.16735e-06,0,1.01928e-09,-1.74585e+09,-1.74528e+09,-1.74584e+09,136.227,0.0125471,-5.96524e-19,0,0.0125471,-15749.5,-60000,-0,62032.6,136.227
step02_gravity_refstate-mantle.xmf,898,5.8996e-07,2.24883e-06,0,5.66357e-10,-1.3333e+09,-1.33308e+09,-1.33338e+09,75.6936,-1.89471e-20,0.0325125,-0,0.0325125,-40000,-47256,-0,61912.3,75.6936
step02_gravity_refstate-mantle.xmf,899,4.81741e-07,2.51225e-06,0,1.84153e-07,-1.33372e+09,-1.33345e+09,-1.33379e+09,24612.1,0.00822972,0.0370667,0,0.0379693,-25136.8,-47268.9,-0,53537,24612.1
step02_gravity_refstate-mantle.xmf,900,5.12433e-07,2.45282e-06,0,1.36847e-07,-1.33887e+09,-1.33861e+09,-1.33893e+09,18289.6,0.00732696,0.0354608,0,0.0362098,-27060.8,-47427.8,-0,54604.8,18289.6
step02_gravity_refstate-mantle.xmf,901,5.78462e-07,2.27505e-06,0,3.19999e-08,-1.33266e+09,-1.33243e+09,-1.33274e+09,4276.78,0.00293717,0.0330242,0,0.0331545,-34976,-47236.1,-0,58775.6,4276.78
step02_gravity_refstate-mantle.xmf,902,5.67891e-07,2.30392e-06,0,4.96032e-08,-1.33385e+09,-1.33362e+09,-1.33393e+09,6629.46,0.00409712,0.033404,0,0.0336543,-32956.7,-47272.8,-0,57626.9,6629.46
step02_gravity_refstate-mantle.xmf,903,5.52662e-07,2.34388e-06,0,7.27996e-08,-1.33503e+09,-1.33479e+09,-1.3351e+09,9729.66,0.00525962,0.033976,0,0.0343807,-30888.9,-47309.3,-0,56500.4,9729.66
step02_gravity_refstate-mantle.xmf,904,5.3392e-07,2.39342e-06,0,1.01828e-07,-1.33646e+09,-1.33621e+09,-1.33653e+09,13609.3,0.00633955,0.0346873,0,0.0352619,-28914.9,-47353.5,-0,55483.6,13609.3
step02_gravity_refstate-mantle.xmf,905,5.82658e-07,2.255e-06,0,1.89234e-08,-1.32984e+09,-1.32962e+09,-1.32992e+09,2529.11,0.00189096,0.0329457,0,0.0329999,-36766.3,-47149,-0,59789.5,2529.11
step02_gravity_refstate-mantle.xmf,906,6.1452e-07,2.30414e-06,0,1.09326e-08,-1.36964e+09,-1.36942e+09,-1.36973e+09,1461.15,0.00120158,0.0300235,0,0.0300475,-38047.6,-48378.8,-0,61547.8,1461.15
step02_gravity_refstate-mantle.xmf,907,4.79361e-07,2.67337e-06,0,2.02723e-07,-1.39219e+09,-1.39189e+09,-1.39225e+09,27093.9,0.00923258,0.0330401,0,0.0343058,-24186.8,-49075.3,-0,54711.8,27093.9
step02_gravity_refstate-mantle.xmf,908,4.58266e-07,2.83552e-06,0,2.15559e-07,-1.4444e+09,-1.44408e+09,-1.44446e+09,28809.5,0.0100724,0.0292283,0,0.0309152,-23244.1,-50688.3,-0,55763.7,28809.5
step02_gravity_refstate-mantle.xmf,909,4.16483e-07,3.01857e-06,0,2.19711e-07,-1.49701e+09,-1.49666e+09,-1.49706e+09,29364.4,0.010837,0.0251274,0,0.0273647,-22204.1,-52313.6,-0,56830.7,29364.4
step02_gravity_refstate-mantle.xmf,910,3.462e-07,3.22984e-06,0,2.17648e-07,-1.54712e+09,-1.54674e+09,-1.54717e+09,29088.7,0.0115463,0.0210491,0,0.0240079,-20892.9,-53861.7,-0,57771.9,29088.7
step02_gravity_refstate-mantle.xmf,911,2.86324e-07,3.41645e-06,0,1.80281e-07,-1.6013e+09,-1.60089e+09,-1.60134e+09,24094.5,0.0119415,0.0158756,0,0.0198654,-20093.6,-55535.4,-0,59058.8,24094.5
step02_gravity_refstate-mantle.xmf,912,2.24277e-07,3.58958e-06,0,1.35008e-07,-1.64869e+09,-1.64824e+09,-1.64872e+09,18043.8,0.0122163,0.0110413,0,0.0164666,-19291.8,-56999.2,-0,60175.4,18043.8
step02_gravity_refstate-mantle.xmf,913,1.60247e-07,3.76359e-06,0,7.39691e-08,-1.69716e+09,-1.69668e+09,-1.69718e+09,9885.98,0.0124026,0.00572225,0,0.013659,-18492.4,-58496.6,-0,61350,9885.98
step02_gravity_refstate-mantle.xmf,914,8.9407e-08,3.94588e-06,0,9.09565e-10,-1.74583e+09,-1.74532e+09,-1.74585e+09,121.563,0.0125224,-5.62389e-19,0,0.0125224,-17587.3,-60000,-0,62524.5,121.563
step02_gravity_refstate-mantle.xmf,915,6.46305e-07,2.36135e-06,0,9.74937e-10,-1.41307e+09,-1.41284e+09,-1.41315e+09,130.3,-2.49633e-20,0.0268313,-0,0.0268313,-40000,-49720.5,-0,63813.3,130.3
step02_gravity_refstate-mantle.xmf,916,5.17955e-07,2.58626e-06,0,1.55556e-07,-1.39059e+09,-1.39032e+09,-1.39066e+09,20790,0.0083067,0.0320272,0,0.0330869,-26019.6,-49026,-0,55502.8,20790
step02_gravity_refstate-mantle.xmf,917,5.49391e-07,2.51755e-06,0,1.15999e-07,-1.39098e+09,-1.39071e+09,-1.39105e+09,15503.2,0.00731405,0.0310297,0,0.0318801,-27889.8,-49037.9,-0,56414.2,15503.2
step02_gravity_refstate-mantle.xmf,918,6.23316e-07,2.34639e-06,0,2.29129e-08,-1.38949e+09,-1.38926e+09,-1.38958e+09,3062.31,0.00251962,0.0288042,0,0.0289142,-35981,-48992.1,-0,60785.3,3062.31
step02_gravity_refstate-mantle.xmf,919,6.14038e-07,2.37593e-06,0,3.82793e-08,-1.39248e+09,-1.39225e+09,-1.39256e+09,5116.03,0.00378248,0.0289278,0,0.029174,-33950.8,-49084.4,-0,59682,5116.03
step02_gravity_refstate-mantle.xmf,920,5.97821e-07,2.41108e-06,0,5.78319e-08,-1.39187e+09,-1.39163e+09,-1.39195e+09,7729.24,0.00500994,0.0294669,0,0.0298898,-31915.7,-49065.6,-0,58532.4,7729.24
step02_gravity_refstate-mantle.xmf,921,5.76193e-07,2.45902e-06,0,8.3564e-08,-1.39153e+09,-1.39128e+09,-1.39161e+09,11168.3,0.0062092,0.0301615,0,0.030794,-29864.5,-49055.1,-0,57430.8,11168.3
step02_gravity_refstate-mantle.xmf,922,6.66582e-07,2.42588e-06,0,1.29612e-08,-1.45237e+09,-1.45213e+09,-1.45246e+09,1732.27,0.00162859,0.0240117,0,0.0240669,-37558.6,-50934.8,-0,63285.1,1732.27
step02_gravity_refstate-mantle.xmf,923,5.07739e-07,2.73729e-06,0,1.66896e-07,-1.44425e+09,-1.44395e+09,-1.44432e+09,22305.6,0.00920878,0.0281709,0,0.0296379,-25029.9,-50683.9,-0,56527.5,22305.6
step02_gravity_refstate-mantle.xmf,924,4.80966e-07,2.90157e-06,0,1.7211e-07,-1.49716e+09,-1.49684e+09,-1.49723e+09,23002.5,0.0100352,0.0241178,0,0.0261223,-23992.3,-52318.5,-0,57557.4,23002.5
step02_gravity_refstate-mantle.xmf,925,4.33522e-07,3.08836e-06,0,1.67793e-07,-1.55077e+09,-1.55041e+09,-1.55083e+09,22425.5,0.0108097,0.0197316,0,0.0224986,-22817,-53974.6,-0,58599.3,22425.5
step02_gravity_refstate-mantle.xmf,926,3.84301e-07,3.2539e-06,0,1.47885e-07,-1.59838e+09,-1.59799e+09,-1.59843e+09,19764.8,0.0113293,0.0154506,0,0.0191591,-21900.8,-55445.2,-0,59613.9,19764.8
step02_gravity_refstate-mantle.xmf,927,3.38247e-07,3.40685e-06,0,1.11419e-07,-1.64639e+09,-1.64598e+09,-1.64644e+09,14891.2,0.0116825,0.0107437,0,0.0158716,-21179,-56928.5,-0,60740.5,14891.2
step02_gravity_refstate-mantle.xmf,928,2.86662e-07,3.56917e-06,0,6.15239e-08,-1.6962e+09,-1.69577e+09,-1.69624e+09,8222.67,0.0119765,0.00553721,0,0.0131945,-20397.3,-58467.3,-0,61923.2,8222.67
step02_gravity_refstate-mantle.xmf,929,2.2554e-07,3.74191e-06,0,8.43111e-10,-1.74582e+09,-1.74535e+09,-1.74585e+09,112.682,0.0122241,-5.43988e-19,0,0.0122241,-19481,-60000,-0,63083.3,112.682
step02_gravity_refstate-mantle.xmf,930,6.90801e-07,2.4797e-06,0,7.28823e-10,-1.49396e+09,-1.49372e+09,-1.49405e+09,97.4072,-2.13679e-20,0.0207818,-0,0.0207818,-40000,-52219.9,-0,65779.3,97.4072
step02_gravity_refstate-mantle.xmf,931,5.50366e-07,2.65169e-06,0,1.26868e-07,-1.44447e+09,-1.44418e+09,-1.44454e+09,16955.9,0.00822752,0.0272213,0,0.0284375,-26888.9,-50690.5,-0,57380.7,16955.9
step02_gravity_refstate-mantle.xmf,932,5.85865e-07,2.583e-06,0,9.25582e-08,-1.44646e+09,-1.44619e+09,-1.44654e+09,12370.4,0.0071393,0.0262659,0,0.0272189,-28828.7,-50752.2,-0,58368.5,12370.4
step02_gravity_refstate-mantle.xmf,933,6.55792e-07,2.4491e-06,0,2.63044e-08,-1.45241e+09,-1.45218e+09,-1.4525e+09,3515.59,0.00322224,0.0242559,0,0.024469,-35143.8,-50936.3,-0,61883.7,3515.59
step02_gravity_refstate-mantle.xmf,934,6.38549e-07,2.47976e-06,0,4.34305e-08,-1.44964e+09,-1.4494e+09,-1.44973e+09,5804.49,0.0046126,0.0248406,0,0.0252652,-32977.1,-50850.6,-0,60607.6,5804.49
step02_gravity_refstate-mantle.xmf,935,6.1531e-07,2.52652e-06,0,6.50128e-08,-1.4487e+09,-1.44845e+09,-1.44879e+09,8688.96,0.00593558,0.0254329,0,0.0261163,-30856,-50821.5,-0,59455.2,8688.96
step02_gravity_refstate-mantle.xmf,936,7.05357e-07,2.54872e-06,0,8.33625e-09,-1.53609e+09,-1.53585e+09,-1.53619e+09,1114.14,0.0014272,0.0175543,0,0.0176123,-37980.7,-53521.7,-0,65628.5,1114.14
step02_gravity_refstate-mantle.xmf,937,5.354e-07,2.80122e-06,0,1.31007e-07,-1.49807e+09,-1.49776e+09,-1.49814e+09,17509,0.00909473,0.0231663,0,0.0248876,-25852,-52346.5,-0,58382.2,17509
step02_gravity_refstate-mantle.xmf,938,4.65681e-07,3.12328e-06,0,1.14143e-07,-1.60106e+09,-1.6007e+09,-1.60112e+09,15255.2,0.0105525,0.0145489,0,0.0179729,-23744.7,-55528.3,-0,60392.1,15255.2
step02_gravity_refstate-mantle.xmf,939,5.06228e-07,2.96099e-06,0,1.2796e-07,-1.55083e+09,-1.5505e+09,-1.55089e+09,17101.9,0.00988712,0.0189062,0,0.0213354,-24781.2,-53976.5,-0,59393.4,17101.9
step02_gravity_refstate-mantle.xmf,940,4.2066e-07,3.2647e-06,0,9.59772e-08,-1.64022e+09,-1.63984e+09,-1.64028e+09,12827.4,0.0110569,0.0109536,0,0.015564,-22801.5,-56738.1,-0,61148.3,12827.4
step02_gravity_refstate-mantle.xmf,941,4.08309e-07,3.37309e-06,0,5.04953e-08,-1.69256e+09,-1.69217e+09,-1.69262e+09,6748.7,0.0112011,0.00562152,0,0.0125326,-22618,-58355.2,-0,62585.1,6748.7
step02_gravity_refstate-mantle.xmf,942,3.45003e-07,3.55742e-06,0,7.68878e-10,-1.74581e+09,-1.74538e+09,-1.74586e+09,102.76,0.0116665,-5.52725e-19,0,0.0116665,-21436.1,-60000,-0,63714.3,102.76
step02_gravity_refstate-mantle.xmf,943,6.85184e-07,2.51542e-06,0,1.78159e-08,-1.50443e+09,-1.50419e+09,-1.50452e+09,2381.1,0.00260745,0.0201436,0,0.0203117,-36227.6,-52543.4,-0,63822,2381.1
step02_gravity_refstate-mantle.xmf,944,7.23172e-07,2.60306e-06,0,1.2147e-09,-1.57622e+09,-1.57597e+09,-1.57631e+09,162.344,-2.53884e-20,0.0143226,-0,0.0143226,-40000,-54761.4,-0,67814.5,162.344
step02_gravity_refstate-mantle.xmf,945,5.81764e-07,2.71744e-06,0,9.74298e-08,-1.50071e+09,-1.50042e+09,-1.50078e+09,13021.5,0.00803017,0.0221978,0,0.0236056,-27781.9,-52428.2,-0,59334.2,13021.5
step02_gravity_refstate-mantle.xmf,946,6.20163e-07,2.64832e-06,0,6.90891e-08,-1.5036e+09,-1.50333e+09,-1.50368e+09,9233.76,0.00682575,0.0213352,0,0.0224005,-29809.5,-52517.6,-0,60387.9,9233.76
step02_gravity_refstate-mantle.xmf,947,6.79981e-07,2.56707e-06,0,2.82321e-08,-1.52066e+09,-1.52041e+09,-1.52075e+09,3773.22,0.00396326,0.019083,0,0.0194902,-34288.2,-53044.9,-0,63162,3773.22
step02_gravity_refstate-mantle.xmf,948,6.51474e-07,2.59429e-06,0,4.6639e-08,-1.50752e+09,-1.50726e+09,-1.50761e+09,6233.3,0.00548844,0.0205172,0,0.0212386,-31938.6,-52638.7,-0,61570.4,6233.3
step02_gravity_refstate-mantle.xmf,949,7.06479e-07,2.59618e-06,0,1.50139e-08,-1.5576e+09,-1.55735e+09,-1.5577e+09,2006.61,0.00273566,0.0159499,0,0.0161828,-36157.7,-54186.2,-0,65142.4,2006.61
step02_gravity_refstate-mantle.xmf,950,7.28906e-07,2.66835e-06,0,6.11656e-09,-1.61439e+09,-1.61413e+09,-1.61449e+09,817.479,0.00177546,0.0112571,0,0.0113963,-37570.7,-55940.7,-0,67386.3,817.479
step02_gravity_refstate-mantle.xmf,951,7.42228e-07,2.73261e-06,0,2.77464e-10,-1.66008e+09,-1.65981e+09,-1.66018e+09,37.0831,-1.97039e-20,0.00741159,-0,0.00741159,-40000,-57352.3,-0,69923.4,37.0831
step02_gravity_refstate-mantle.xmf,952,5.64384e-07,2.8627e-06,0,9.44616e-08,-1.55443e+09,-1.55413e+09,-1.55451e+09,12624.8,0.00885697,0.0179124,0,0.0199825,-26730.8,-54088,-0,60332.8,12624.8
step02_gravity_refstate-mantle.xmf,953,4.97842e-07,3.17035e-06,0,6.06277e-08,-1.66073e+09,-1.66037e+09,-1.6608e+09,8102.89,0.0102545,0.00853016,0,0.0133386,-24623.1,-57371.9,-0,62432.6,8102.89
step02_gravity_refstate-mantle.xmf,954,5.35533e-07,3.01181e-06,0,8.46836e-08,-1.60576e+09,-1.60543e+09,-1.60583e+09,11318,0.00960421,0.0135574,0,0.0166145,-25664.3,-55673.8,-0,61304.4,11318
step02_gravity_refstate-mantle.xmf,955,4.47228e-07,3.39403e-06,0,3.20449e-10,-1.7458e+09,-1.74541e+09,-1.74586e+09,42.828,0.0108665,-3.46125e-19,0,0.0108665,-23458.4,-60000,-0,64422.8,42.828
step02_gravity_refstate-mantle.xmf,956,7.41723e-07,2.77517e-06,0,2.17122e-09,-1.68421e+09,-1.68393e+09,-1.6843e+09,290.184,0.00141813,0.00537203,0,0.00555606,-38093.5,-58097.7,-0,69472.7,290.184
step02_gravity_refstate-mantle.xmf,957,7.49639e-07,2.86324e-06,0,2.68336e-10,-1.74578e+09,-1.7455e+09,-1.74588e+09,35.863,1.19261e-19,-6.84721e-20,0,1.37519e-19,-40000,-60000,-0,72111,35.863
step02_gravity_refstate-mantle.xmf,958,6.12134e-07,2.78181e-06,0,6.85971e-08,-1.55855e+09,-1.55826e+09,-1.55863e+09,9168,0.00770916,0.0170104,0,0.0186758,-28707,-54215.2,-0,61346.4,9168
step02_gravity_refstate-mantle.xmf,959,6.52428e-07,2.71117e-06,0,4.66767e-08,-1.56142e+09,-1.56115e+09,-1.56151e+09,6238.34,0.00634675,0.0163044,0,0.0174961,-30877,-54304.2,-0,62468.6,6238.34
step02_gravity_refstate-mantle.xmf,960,4.93599e-07,3.26146e-06,0,2.61567e-08,-1.7111e+09,-1.71073e+09,-1.71116e+09,3495.85,0.0103327,0.00352879,0,0.0109186,-24572.4,-58927.9,-0,63846,3495.85
step02_gravity_refstate-mantle.xmf,961,6.78512e-07,2.65915e-06,0,3.16035e-08,-1.56108e+09,-1.56082e+09,-1.56117e+09,4223.81,0.00505186,0.0160187,0,0.0167964,-32823.6,-54293.7,-0,63444.4,4223.81
step02_gravity_refstate-mantle.xmf,962,7.0941e-07,2.69242e-06,0,1.67605e-08,-1.60641e+09,-1.60614e+09,-1.6065e+09,2240.04,0.00382946,0.0120712,0,0.0126641,-34703.4,-55694.1,-0,65621.3,2240.04
step02_gravity_refstate-mantle.xmf,963,7.31739e-07,2.78274e-06,0,5.79899e-09,-1.6771e+09,-1.67683e+09,-1.6772e+09,775.035,0.00292081,0.00602213,0,0.00669307,-36050.5,-57878.2,-0,68187.4,775.035
step02_gravity_refstate-mantle.xmf,964,7.43251e-07,2.8764e-06,0,4.03732e-10,-1.74578e+09,-1.7455e+09,-1.74588e+09,53.9588,0.0019865,-7.63837e-20,0,0.0019865,-37337.5,-60000,-0,70668.9,53.9588
step02_gravity_refstate-mantle.xmf,965,5.93317e-07,2.92133e-06,0,6.0033e-08,-1.61209e+09,-1.61177e+09,-1.61217e+09,8023.4,0.00850303,0.0125308,0,0.0151434,-27643.2,-55869.3,-0,62334,8023.4
step02_gravity_refstate-mantle.xmf,966,5.64318e-07,3.04612e-06,0,4.96997e-08,-1.65319e+09,-1.65286e+09,-1.65326e+09,6642.37,0.00921771,0.00893679,0,0.0128387,-26553.1,-57139,-0,63007.4,6642.37
step02_gravity_refstate-mantle.xmf,967,5.59987e-07,3.13816e-06,0,2.42461e-08,-1.70405e+09,-1.7037e+09,-1.70412e+09,3240.49,0.00937034,0.00409475,0,0.010226,-26389.5,-58710.3,-0,64368.5,3240.49
step02_gravity_refstate-mantle.xmf,968,5.31242e-07,3.25565e-06,0,3.20155e-10,-1.7458e+09,-1.74543e+09,-1.74587e+09,42.7887,0.00984093,-4.01022e-19,0,0.00984093,-25553.8,-60000,-0,65215,42.7887
step02_gravity_refstate-mantle.xmf,969,6.43198e-07,2.84411e-06,0,4.08269e-08,-1.61944e+09,-1.61914e+09,-1.61952e+09,5456.51,0.00720805,0.0115109,0,0.0135815,-29764.8,-56096.5,-0,63504,5456.51
step02_gravity_refstate-mantle.xmf,970,6.82833e-07,2.76796e-06,0,2.66669e-08,-1.61833e+09,-1.61805e+09,-1.61842e+09,3564.03,0.00564461,0.0113054,0,0.0126362,-32121.1,-56062.5,-0,64612.4,3564.03
step02_gravity_refstate-mantle.xmf,971,7.09609e-07,2.82898e-06,0,1.07306e-08,-1.67893e+09,-1.67865e+09,-1.67903e+09,1434.14,0.00471428,0.00595493,0,0.00759511,-33563,-57934.8,-0,66954.5,1434.14
step02_gravity_refstate-mantle.xmf,972,7.25622e-07,2.91043e-06,0,2.42863e-10,-1.74578e+09,-1.74549e+09,-1.74588e+09,32.4587,0.0038607,-7.68156e-20,0,0.0038607,-34785.7,-60000,-0,69354.5,32.4587
step02_gravity_refstate-mantle.xmf,973,6.19053e-07,2.99883e-06,0,2.63125e-08,-1.68115e+09,-1.68083e+09,-1.68123e+09,3516.66,0.00814123,0.00609777,0,0.0101716,-28439.3,-58003.1,-0,64600,3516.66
step02_gravity_refstate-mantle.xmf,974,6.00127e-07,3.13822e-06,0,2.93795e-10,-1.74579e+09,-1.74545e+09,-1.74587e+09,39.2657,0.00860931,-5.97245e-19,0,0.00860931,-27728.1,-60000,-0,66097.3,39.2657
step02_gravity_refstate-mantle.xmf,975,6.7468e-07,2.89932e-06,0,1.70426e-08,-1.68147e+09,-1.68117e+09,-1.68156e+09,2277.74,0.0064199,0.0058659,0,0.0086962,-31101.1,-58013,-0,65823.9,2277.74
step02_gravity_refstate-mantle.xmf,976,6.96724e-07,2.9651e-06,0,7.83608e-11,-1.74578e+09,-1.74548e+09,-1.74588e+09,10.4729,0.00560148,-7.73512e-20,0,0.00560148,-32337.8,-60000,-0,68159.6,10.4729
step02_gravity_refstate-mantle.xmf,977,6.5525e-07,3.04087e-06,0,-5.24084e-11,-1.74579e+09,-1.74547e+09,-1.74587e+09,-7.00439,0.00719032,-5.74555e-19,0,0.00719032,-29987.4,-60000,-0,67076.4,7.00439
step02_gravity_refstate-intrusion.xmf,0,5.34064e-06,-1.05693e-05,0,-8.6176e-06,-8.23846e+08,-8.24943e+08,-8.24214e+08,-594383,0.00738734,0.217426,0,0.217552,1000,-30000,0,30016.7,594383
step02_gravity_refstate-intrusion.xmf,1,7.72603e-06,-1.54658e-05,0,-4.11579e-06,-8.23765e+08,-8.25365e+08,-8.24298e+08,-283879,0.00400144,0.223922,0,0.223957,499.828,-30000,0,30004.2,283879
step02_gravity_refstate-intrusion.xmf,2,4.98319e-06,-8.30122e-06,0,-1.06334e-05,-8.37553e+08,-8.38469e+08,-8.37896e+08,-733418,0.00656468,0.222149,0,0.222246,1000,-30500.4,0,30516.8,733418
step02_gravity_refstate-intrusion.xmf,3,2.84262e-06,-1.7783e-06,0,-1.37286e-05,-8.78778e+08,-8.79097e+08,-8.78974e+08,-946902,0.00334841,0.229622,0,0.229647,1000,-32001.2,0,32016.9,946902
step02_gravity_refstate-intrusion.xmf,4,2.04917e-06,2.42373e-07,0,-1.41839e-05,-8.92515e+08,-8.9264e+08,-8.92657e+08,-978311,0.00237085,0.229983,0,0.229995,1000,-32500.8,0,32516.2,978311
step02_gravity_refstate-intrusion.xmf,5,4.36859e-06,-6.23265e-06,0,-1.19974e-05,-8.51281e+08,-8.52012e+08,-8.51583e+08,-827495,0.00548348,0.225739,0,0.225806,1000,-31000.5,0,31016.6,827495
step02_gravity_refstate-intrusion.xmf,6,3.61507e-06,-3.96616e-06,0,-1.29974e-05,-8.65032e+08,-8.65555e+08,-8.65282e+08,-896471,0.00438986,0.228225,0,0.228267,1000,-31501,0,31516.9,896471
step02_gravity_refstate-intrusion.xmf,7,1.26801e-06,2.26498e-06,0,-1.45065e-05,-9.06242e+08,-9.06173e+08,-9.06329e+08,-1.00056e+06,0.00144336,0.229345,0,0.229349,1000,-33000.1,0,33015.2,1.00056e+06
step02_gravity_refstate-intrusion.xmf,8,4.72674e-07,4.16949e-06,0,-1.4644e-05,-9.19988e+08,-9.19733e+08,-9.20021e+08,-1.01004e+06,0.000551121,0.227735,0,0.227736,1000,-33499.9,0,33514.8,1.01004e+06
step02_gravity_refstate-intrusion.xmf,9,8.35098e-06,-1.6495e-05,0,1.69651e-11,-8.23735e+08,-8.25449e+08,-8.24311e+08,1.17014,-1.61731e-06,0.22609,-0,0.22609,-1.02887e-10,-30000,-0,30000,1.17014
step02_gravity_refstate-intrusion.xmf,10,-3.02581e-07,6.08774e-06,0,-1.46797e-05,-9.3375e+08,-9.33309e+08,-9.33729e+08,-1.0125e+06,-0.000321169,0.225167,-0,0.225168,1000,-34000.3,0,34015,1.0125e+06
step02_gravity_refstate-intrusion.xmf,11,-1.07091e-06,8.00862e-06,0,-1.46037e-05,-9.4751e+08,-9.46884e+08,-9.47436e+08,-1.00726e+06,-0.00118705,0.221648,-0,0.221651,1000,-34500.8,0,34515.3,1.00726e+06
step02_gravity_refstate-intrusion.xmf,12,-1.83257e-06,9.95351e-06,0,-1.44061e-05,-9.61252e+08,-9.60439e+08,-9.61125e+08,-993633,-0.00205989,0.217175,-0,0.217185,1000,-35000.6,0,35014.9,993633
step02_gravity_refstate-intrusion.xmf,13,-2.58865e-06,1.19516e-05,0,-1.40718e-05,-9.74976e+08,-9.73973e+08,-9.74798e+08,-970574,-0.0029538,0.211731,-0,0.211751,1000,-35499.8,0,35513.9,970574
step02_gravity_refstate-intrusion.xmf,14,-3.30302e-06,1.39526e-05,0,-1.35522e-05,-9.88706e+08,-9.87516e+08,-9.88478e+08,-934735,-0.0038837,0.205276,-0,0.205313,1000,-35999.4,0,36013.3,934735
step02_gravity_refstate-intrusion.xmf,15,7.74897e-06,-1.53869e-05,0,4.1487e-06,-8.2376e+08,-8.25356e+08,-8.24294e+08,286148,-0.00400312,0.223921,-0,0.223957,-499.828,-30000,-0,30004.2,286148
step02_gravity_refstate-intrusion.xmf,16,-3.99198e-06,1.60992e-05,0,-1.27999e-05,-1.00244e+09,-1.00106e+09,-1.00217e+09,-882852,-0.00485877,0.197762,-0,0.197822,1000,-36499.7,0,36513.4,882852
step02_gravity_refstate-intrusion.xmf,17,5.33532e-06,-1.05628e-05,0,8.59718e-06,-8.23846e+08,-8.24943e+08,-8.24214e+08,592974,-0.00738811,0.217432,-0,0.217558,-1000,-30000,-0,30016.7,592974
step02_gravity_refstate-intrusion.xmf,18,4.99541e-06,-8.31447e-06,0,1.06332e-05,-8.37552e+08,-8.3847e+08,-8.37896e+08,733405,-0.00656501,0.222148,-0,0.222245,-1000,-30500.4,-0,30516.8,733405
step02_gravity_refstate-intrusion.xmf,19,-4.58855e-06,1.83275e-05,0,-1.17209e-05,-1.01618e+09,-1.0146e+09,-1.01586e+09,-808429,-0.00587007,0.189149,-0,0.18924,1000,-37000.2,0,37013.7,808429
step02_gravity_refstate-intrusion.xmf,20,4.4047e-06,-6.0676e-06,0,1.20676e-05,-8.51272e+08,-8.51994e+08,-8.51576e+08,832342,-0.00548251,0.22574,-0,0.225807,-1000,-31000.5,-0,31016.6,832342
step02_gravity_refstate-intrusion.xmf,21,3.66925e-06,-3.85988e-06,0,1.30682e-05,-8.65023e+08,-8.65543e+08,-8.65276e+08,901351,-0.00438943,0.228223,-0,0.228265,-1000,-31501,-0,31516.9,901351
step02_gravity_refstate-intrusion.xmf,22,-5.01614e-06,2.05829e-05,0,-1.01748e-05,-1.02988e+09,-1.02812e+09,-1.02954e+09,-701786,-0.00685995,0.179423,-0,0.179554,1000,-37500.2,0,37513.6,701786
step02_gravity_refstate-intrusion.xmf,23,2.8688e-06,-1.73413e-06,0,1.37538e-05,-8.78774e+08,-8.79092e+08,-8.78972e+08,948646,-0.00334924,0.229623,-0,0.229647,-1000,-32001.2,-0,32016.9,948646
step02_gravity_refstate-intrusion.xmf,24,2.06208e-06,3.02484e-07,0,1.42158e-05,-8.92512e+08,-8.92633e+08,-8.92654e+08,980510,-0.00237067,0.229983,-0,0.229996,-1000,-32500.8,-0,32516.2,980510
step02_gravity_refstate-intrusion.xmf,25,1.26886e-06,2.26279e-06,0,1.45054e-05,-9.06242e+08,-9.06173e+08,-9.06329e+08,1.00048e+06,-0.00144338,0.229345,-0,0.229349,-1000,-33000.1,-0,33015.2,1.00048e+06
step02_gravity_refstate-intrusion.xmf,26,-6.01344e-06,2.42076e-05,0,-7.52394e-06,-1.04359e+09,-1.04151e+09,-1.04318e+09,-518949,-0.00763619,0.168576,-0,0.168748,1000,-38000,0,38013.2,518949
step02_gravity_refstate-intrusion.xmf,27,4.88014e-07,4.1806e-06,0,1.46577e-05,-9.19986e+08,-9.19732e+08,-9.2002e+08,1.01099e+06,-0.000551213,0.227735,-0,0.227736,-1000,-33499.9,-0,33514.8,1.01099e+06
step02_gravity_refstate-intrusion.xmf,28,-1.83708e-06,9.91415e-06,0,1.44297e-05,-9.61253e+08,-9.60443e+08,-9.61127e+08,995260,0.00206018,0.217174,0,0.217184,-1000,-35000.6,-0,35014.9,995260
step02_gravity_refstate-intrusion.xmf,29,-2.56388e-06,1.18966e-05,0,1.40708e-05,-9.74975e+08,-9.73978e+08,-9.74799e+08,970510,0.00295387,0.211731,0,0.211751,-1000,-35499.8,-0,35513.9,970510
step02_gravity_refstate-intrusion.xmf,30,-2.89411e-07,6.08646e-06,0,1.46953e-05,-9.33748e+08,-9.33308e+08,-9.33728e+08,1.01358e+06,0.00032086,0.225168,0,0.225168,-1000,-34000.3,-0,34015,1.01358e+06
step02_gravity_refstate-intrusion.xmf,31,-1.0573e-06,7.98941e-06,0,1.46192e-05,-9.47509e+08,-9.46885e+08,-9.47436e+08,1.00833e+06,0.0011873,0.221648,0,0.221651,-1000,-34500.8,-0,34515.3,1.00833e+06
step02_gravity_refstate-intrusion.xmf,32,-3.2948e-06,1.39449e-05,0,1.35471e-05,-9.88705e+08,-9.87516e+08,-9.88478e+08,934389,0.0038831,0.205275,0,0.205312,-1000,-35999.4,-0,36013.3,934389
step02_gravity_refstate-intrusion.xmf,33,-3.9788e-06,1.61015e-05,0,1.28266e-05,-1.00244e+09,-1.00106e+09,-1.00217e+09,884687,0.00485687,0.197761,0,0.197821,-1000,-36499.7,-0,36513.4,884687
step02_gravity_refstate-intrusion.xmf,34,-8.56872e-06,2.92729e-05,0,2.61931e-08,-1.04369e+09,-1.04108e+09,-1.04309e+09,1806.62,-1.11606e-06,0.176534,-0,0.176534,0,-38000,0,38000,1806.62
step02_gravity_refstate-intrusion.xmf,35,-7.98948e-06,2.80773e-05,0,-3.90336e-06,-1.04367e+09,-1.04118e+09,-1.04311e+09,-269227,-0.00413546,0.174531,-0,0.17458,500,-38000,0,38003.3,269227
step02_gravity_refstate-intrusion.xmf,36,-4.60219e-06,1.8338e-05,0,1.17205e-05,-1.01618e+09,-1.0146e+09,-1.01586e+09,808398,0.00587047,0.18915,0,0.189242,-1000,-37000.2,-0,37013.7,808398
step02_gravity_refstate-intrusion.xmf,37,-5.01603e-06,2.05881e-05,0,1.01743e-05,-1.02988e+09,-1.02812e+09,-1.02954e+09,701754,0.0068597,0.179423,0,0.179554,-1000,-37500.2,-0,37513.6,701754
step02_gravity_refstate-intrusion.xmf,38,-6.00768e-06,2.4202e-05,0,7.52659e-06,-1.04359e+09,-1.04151e+09,-1.04318e+09,519132,0.00763633,0.168575,0,0.168748,-1000,-38000,-0,38013.2,519132
step02_gravity_refstate-intrusion.xmf,39,-8.00116e-06,2.80875e-05,0,3.90497e-06,-1.04367e+09,-1.04118e+09,-1.04311e+09,269338,0.00413412,0.17453,0,0.174579,-500,-38000,-0,38003.3,269338
step02_gravity_refstate-intrusion.xmf,40,6.6646e-06,-1.16878e-05,0,-6.02138e-06,-8.33738e+08,-8.35004e+08,-8.34198e+08,-415313,0.00466672,0.22735,0,0.227397,636.359,-30363.7,0,30370.4,415313
step02_gravity_refstate-intrusion.xmf,41,7.5243e-06,-1.29449e-05,0,-2.29833e-06,-8.34845e+08,-8.36257e+08,-8.35364e+08,-158523,0.0018685,0.231437,0,0.231445,248.265,-30405.7,0,30406.7,158523
step02_gravity_refstate-intrusion.xmf,42,6.07821e-06,-9.26466e-06,0,-6.45809e-06,-8.4434e+08,-8.45398e+08,-8.44759e+08,-445435,0.00389176,0.23191,0,0.231943,599.393,-30750.4,0,30756.3,445435
step02_gravity_refstate-intrusion.xmf,43,3.69027e-06,-3.41092e-06,0,-9.16548e-06,-8.72031e+08,-8.7252e+08,-8.72285e+08,-632172,0.00279876,0.236477,0,0.236494,696.88,-31756.7,0,31764.4,632172
step02_gravity_refstate-intrusion.xmf,44,2.99823e-06,-1.64007e-06,0,-7.17013e-06,-8.84504e+08,-8.84824e+08,-8.84711e+08,-494546,0.00162215,0.240687,0,0.240692,523.602,-32210.4,0,32214.7,494546
step02_gravity_refstate-intrusion.xmf,45,1.8877e-06,9.21104e-07,0,-8.19441e-06,-8.99605e+08,-8.99672e+08,-8.99736e+08,-565194,0.00113957,0.23995,0,0.239952,577.107,-32759.2,0,32764.3,565194
step02_gravity_refstate-intrusion.xmf,46,4.96276e-06,-6.34982e-06,0,-6.26324e-06,-8.6001e+08,-8.6079e+08,-8.60352e+08,-431995,0.00266147,0.237432,0,0.237447,518.079,-31320.3,0,31324.6,431995
step02_gravity_refstate-intrusion.xmf,47,7.54336e-06,-1.29798e-05,0,2.20456e-06,-8.34877e+08,-8.36293e+08,-8.35397e+08,152055,-0.00181598,0.231487,-0,0.231494,-241.269,-30406.9,-0,30407.8,152055
step02_gravity_refstate-intrusion.xmf,48,9.75066e-07,3.09897e-06,0,-8.77604e-06,-9.13374e+08,-9.13228e+08,-9.13441e+08,-605311,0.000617752,0.23841,0,0.238411,605.739,-33259.7,0,33265.2,605311
step02_gravity_refstate-intrusion.xmf,49,1.14885e-07,5.098e-06,0,-8.25906e-06,-9.26867e+08,-9.26523e+08,-9.26875e+08,-569653,7.01032e-05,0.237104,0,0.237104,566.971,-33750.1,0,33754.9,569653
step02_gravity_refstate-intrusion.xmf,50,6.37586e-06,-9.27326e-06,0,-1.0229e-07,-8.4878e+08,-8.49859e+08,-8.49219e+08,-7055.26,-3.08312e-05,0.237759,-0,0.237759,-4.72083,-30913.2,-0,30913.2,7055.26
step02_gravity_refstate-intrusion.xmf,51,6.76968e-06,-1.17364e-05,0,5.92025e-06,-8.33724e+08,-8.35001e+08,-8.34191e+08,408338,-0.0046677,0.227346,-0,0.227394,-636.534,-30363.5,-0,30370.2,408338
step02_gravity_refstate-intrusion.xmf,52,4.09656e-06,-4.03734e-06,0,-4.16475e-06,-8.72548e+08,-8.73109e+08,-8.72831e+08,-287256,0.00131951,0.242006,0,0.24201,319.98,-31776.3,0,31778,287256
step02_gravity_refstate-intrusion.xmf,53,-7.37704e-07,7.10101e-06,0,-8.07422e-06,-9.40265e+08,-9.39724e+08,-9.40214e+08,-556904,-0.000419052,0.234345,-0,0.234345,555.112,-34237.1,0,34241.6,556904
step02_gravity_refstate-intrusion.xmf,54,-2.5141e-06,1.13672e-05,0,-8.00624e-06,-9.68131e+08,-9.67174e+08,-9.67958e+08,-552215,-0.00148095,0.224822,-0,0.224827,567.625,-35250.2,0,35254.8,552215
step02_gravity_refstate-intrusion.xmf,55,-1.65544e-06,9.2895e-06,0,-7.958e-06,-9.54689e+08,-9.53935e+08,-9.54575e+08,-548888,-0.000943213,0.230096,-0,0.230098,553.232,-34761.5,0,34765.9,548888
step02_gravity_refstate-intrusion.xmf,56,-3.39256e-06,1.35373e-05,0,-8.11663e-06,-9.81869e+08,-9.80701e+08,-9.81635e+08,-559830,-0.0021326,0.218097,-0,0.218108,597.413,-35749.7,0,35754.7,559830
step02_gravity_refstate-intrusion.xmf,57,2.35672e-06,-7.20488e-09,0,-1.76407e-06,-8.94971e+08,-8.95134e+08,-8.95133e+08,-121674,0.000293526,0.244832,0,0.244832,125.082,-32591.1,0,32591.3,121674
step02_gravity_refstate-intrusion.xmf,58,1.40163e-06,2.15426e-06,0,-3.02075e-06,-9.08124e+08,-9.08072e+08,-9.0822e+08,-208350,0.000296211,0.243867,0,0.243867,210.733,-33069,0,33069.7,208350
step02_gravity_refstate-intrusion.xmf,59,6.05648e-06,-9.40421e-06,0,5.9344e-06,-8.44347e+08,-8.45413e+08,-8.44765e+08,409314,-0.00369751,0.232359,-0,0.232389,-566.968,-30750.4,-0,30755.7,409314
step02_gravity_refstate-intrusion.xmf,60,3.4701e-06,-2.56807e-06,0,9.84265e-07,-8.81006e+08,-8.81423e+08,-8.81246e+08,67887.8,-0.000251628,0.244378,-0,0.244378,-73.2794,-32083.7,-0,32083.8,67887.8
step02_gravity_refstate-intrusion.xmf,61,4.83267e-06,-5.75599e-06,0,8.10644e-07,-8.65228e+08,-8.65958e+08,-8.65561e+08,55912.6,-0.000310947,0.24213,-0,0.24213,-65.3811,-31510.5,-0,31510.6,55912.6
step02_gravity_refstate-intrusion.xmf,62,-4.36028e-06,1.59295e-05,0,-7.2131e-06,-9.95125e+08,-9.93726e+08,-9.94824e+08,-497510,-0.0025781,0.211574,-0,0.21159,562.968,-36231.6,0,36236,497510
step02_gravity_refstate-intrusion.xmf,63,5.99826e-07,3.99084e-06,0,-4.0339e-06,-9.19756e+08,-9.19522e+08,-9.19797e+08,-278231,0.000168539,0.242052,0,0.242052,278.44,-33491.7,0,33492.9,278231
step02_gravity_refstate-intrusion.xmf,64,-1.81909e-07,5.79755e-06,0,-1.26112e-06,-9.31522e+08,-9.3111e+08,-9.3151e+08,-86983.6,-1.58746e-05,0.241041,-0,0.241041,86.5352,-33919.4,0,33919.5,86983.6
step02_gravity_refstate-intrusion.xmf,65,4.98679e-06,-6.44818e-06,0,6.2858e-06,-8.57962e+08,-8.58751e+08,-8.58306e+08,433551,-0.00281066,0.236816,-0,0.236833,-528.694,-31245.7,-0,31250.2,433551
step02_gravity_refstate-intrusion.xmf,66,2.49824e-06,-3.37134e-07,0,3.82241e-06,-8.9288e+08,-8.93076e+08,-8.93052e+08,263644,-0.000684881,0.243928,-0,0.243929,-274.09,-32515.1,-0,32516.2,263644
step02_gravity_refstate-intrusion.xmf,67,-1.25257e-06,8.24254e-06,0,-1.64623e-06,-9.47514e+08,-9.46859e+08,-9.47428e+08,-113545,-0.000142994,0.236876,-0,0.236876,114.685,-34500.5,0,34500.7,113545
step02_gravity_refstate-intrusion.xmf,68,-3.13722e-06,1.2728e-05,0,-3.73529e-06,-9.75346e+08,-9.74252e+08,-9.7513e+08,-257634,-0.000855707,0.225393,-0,0.225395,270.874,-35512.2,0,35513.2,257634
step02_gravity_refstate-intrusion.xmf,69,-2.362e-06,1.0792e-05,0,-1.14635e-06,-9.63457e+08,-9.6255e+08,-9.63294e+08,-79067.3,-0.000190981,0.231467,-0,0.231467,81.9725,-35079.9,0,35080,79067.3
step02_gravity_refstate-intrusion.xmf,70,-4.00897e-06,1.47298e-05,0,-2.48145e-06,-9.86602e+08,-9.85309e+08,-9.86325e+08,-171153,-0.000754037,0.220332,-0,0.220333,188.514,-35921.2,0,35921.6,171153
step02_gravity_refstate-intrusion.xmf,71,1.68068e-06,1.53093e-06,0,2.92826e-06,-9.04227e+08,-9.04237e+08,-9.04343e+08,201971,-0.000346287,0.244162,-0,0.244163,-205.771,-32927.4,-0,32928.1,201971
step02_gravity_refstate-intrusion.xmf,72,7.57213e-07,3.64539e-06,0,1.71777e-06,-9.17598e+08,-9.17399e+08,-9.17651e+08,118480,-9.02419e-05,0.243328,-0,0.243328,-119.039,-33413.3,-0,33413.5,118480
step02_gravity_refstate-intrusion.xmf,73,3.87671e-06,-3.788e-06,0,7.03534e-06,-8.72258e+08,-8.72787e+08,-8.72525e+08,485249,-0.00219666,0.239285,-0,0.239295,-539.487,-31765.3,-0,31769.8,485249
step02_gravity_refstate-intrusion.xmf,74,2.86313e-06,-1.36493e-06,0,7.80323e-06,-8.85624e+08,-8.85916e+08,-8.85821e+08,538213,-0.00170346,0.240036,-0,0.240042,-567.527,-32251,-0,32256,538213
step02_gravity_refstate-intrusion.xmf,75,-3.3479e-06,1.31894e-05,0,1.8455e-06,-9.77489e+08,-9.76349e+08,-9.77258e+08,127290,0.000449109,0.225202,0,0.225203,-134.91,-35590,-0,35590.3,127290
step02_gravity_refstate-intrusion.xmf,76,-5.18505e-06,1.76255e-05,0,-5.1456e-07,-1.00073e+09,-9.99154e+08,-1.00037e+09,-35490.8,-0.000244497,0.2125,-0,0.2125,47.2935,-36434.5,0,36434.6,35490.8
step02_gravity_refstate-intrusion.xmf,77,-5.36628e-06,1.86638e-05,0,-6.57468e-06,-1.009e+09,-1.00734e+09,-1.00863e+09,-453476,-0.00320049,0.202879,-0,0.202904,560.705,-36736.3,0,36740.6,453476
step02_gravity_refstate-intrusion.xmf,78,-7.56506e-07,7.11106e-06,0,3.86768e-06,-9.40253e+08,-9.3971e+08,-9.402e+08,266766,0.000203804,0.238009,0,0.238009,-266.742,-34236.6,-0,34237.7,266766
step02_gravity_refstate-intrusion.xmf,79,1.90061e-06,8.96765e-07,0,8.5751e-06,-8.99252e+08,-8.99321e+08,-8.99383e+08,591451,-0.00120407,0.239484,-0,0.239487,-603.706,-32746.3,-0,32751.9,591451
step02_gravity_refstate-intrusion.xmf,80,-1.55235e-06,8.96553e-06,0,4.80065e-06,-9.52321e+08,-9.51596e+08,-9.52214e+08,331116,0.000522021,0.233867,0,0.233867,-333.393,-34675.3,-0,34676.9,331116
step02_gravity_refstate-intrusion.xmf,81,-4.20913e-06,1.52979e-05,0,2.8336e-06,-9.8907e+08,-9.87725e+08,-9.8878e+08,195442,0.000905817,0.218823,0,0.218825,-216.337,-36011,-0,36011.6,195442
step02_gravity_refstate-intrusion.xmf,82,-6.39207e-06,2.16156e-05,0,-6.18981e-06,-1.02274e+09,-1.02081e+09,-1.0223e+09,-426931,-0.00407332,0.192335,-0,0.192379,594.986,-37236.2,0,37241,426931
step02_gravity_refstate-intrusion.xmf,83,1.01379e-06,2.98903e-06,0,8.30473e-06,-9.12874e+08,-9.12738e+08,-9.12944e+08,572803,-0.000606881,0.239029,-0,0.239029,-574.791,-33241.5,-0,33246.5,572803
step02_gravity_refstate-intrusion.xmf,84,2.5262e-08,5.29169e-06,0,7.4222e-06,-9.28265e+08,-9.27902e+08,-9.28267e+08,511932,-1.66004e-05,0.237782,-0,0.237782,-510.512,-33800.9,-0,33804.8,511932
step02_gravity_refstate-intrusion.xmf,85,-8.26625e-07,7.31185e-06,0,9.77147e-06,-9.41972e+08,-9.4141e+08,-9.41915e+08,673969,0.000577208,0.231706,0,0.231707,-670.749,-34299.2,-0,34305.8,673969
step02_gravity_refstate-intrusion.xmf,86,-2.4387e-06,1.11858e-05,0,7.43783e-06,-9.66607e+08,-9.65667e+08,-9.66438e+08,513011,0.00132408,0.226112,0,0.226116,-527.222,-35194.8,-0,35198.7,513011
step02_gravity_refstate-intrusion.xmf,87,-3.46151e-06,1.37373e-05,0,7.79724e-06,-9.82404e+08,-9.81218e+08,-9.82166e+08,537800,0.00207593,0.218228,0,0.218238,-574.269,-35769.2,-0,35773.8,537800
step02_gravity_refstate-intrusion.xmf,88,-4.63277e-06,1.65574e-05,0,6.8446e-06,-9.97764e+08,-9.96303e+08,-9.97445e+08,472093,0.00258056,0.210398,0,0.210414,-538.219,-36327.4,-0,36331.4,472093
step02_gravity_refstate-intrusion.xmf,89,-6.52018e-06,2.11137e-05,0,-1.6508e-06,-1.01621e+09,-1.0143e+09,-1.01576e+09,-113861,-0.00104048,0.201321,-0,0.201324,160.012,-36997.4,0,36997.7,113861
step02_gravity_refstate-intrusion.xmf,90,-1.58001e-06,9.14253e-06,0,1.04193e-05,-9.54388e+08,-9.53649e+08,-9.54279e+08,718651,0.0011991,0.226917,0,0.226921,-720.99,-34750.7,-0,34758.2,718651
step02_gravity_refstate-intrusion.xmf,91,-6.02499e-06,1.99026e-05,0,3.49256e-06,-1.01167e+09,-1.00989e+09,-1.01126e+09,240893,0.00182763,0.203893,0,0.203901,-301.044,-36832.7,-0,36833.9,240893
step02_gravity_refstate-intrusion.xmf,92,-7.82697e-06,2.5217e-05,0,-1.88893e-06,-1.03129e+09,-1.02901e+09,-1.03075e+09,-130285,-0.0016567,0.188417,-0,0.188425,212.705,-37546.7,0,37547.3,130285
step02_gravity_refstate-intrusion.xmf,93,-7.12354e-06,2.43405e-05,0,-5.78791e-06,-1.03372e+09,-1.03155e+09,-1.03323e+09,-399210,-0.00486516,0.18262,-0,0.182685,636.493,-37636.6,0,37641.9,399210
step02_gravity_refstate-intrusion.xmf,94,-5.12773e-06,1.84455e-05,0,8.42687e-06,-1.0097e+09,-1.00807e+09,-1.00935e+09,581227,0.00399299,0.200007,0,0.200046,-705.85,-36762.4,-0,36769.2,581227
step02_gravity_refstate-intrusion.xmf,95,-7.08816e-06,2.28976e-05,0,1.63718e-06,-1.02295e+09,-1.02089e+09,-1.02246e+09,112922,0.0011775,0.1959,0,0.195903,-164.496,-37243,-0,37243.4,112922
step02_gravity_refstate-intrusion.xmf,96,-6.36921e-06,2.16438e-05,0,6.07641e-06,-1.02277e+09,-1.02084e+09,-1.02233e+09,419109,0.00409665,0.192261,0,0.192305,-598.574,-37237.4,-0,37242.2,419109
step02_gravity_refstate-intrusion.xmf,97,-7.85148e-06,2.56178e-05,0,2.41272e-06,-1.03304e+09,-1.03073e+09,-1.0325e+09,166413,0.00221903,0.18646,0,0.186473,-281.159,-37610.6,-0,37611.7,166413
step02_gravity_refstate-intrusion.xmf,98,-7.11417e-06,2.43315e-05,0,5.78566e-06,-1.03372e+09,-1.03155e+09,-1.03323e+09,399055,0.00486577,0.182616,0,0.182681,-636.59,-37636.7,-0,37642,399055
step02_gravity_refstate-crust.xmf,0,3.71272e-07,3.89738e-06,0,-4.70176e-10,-1.09851e+09,-1.09827e+09,-1.09854e+09,-32.2541,-2.90893e-20,0.0476764,-0,0.0476764,40000,-40000,0,56568.5,32.2541
step02_gravity_refstate-crust.xmf,1,3.6787e-07,3.9064e-06,0,-3.95286e-08,-1.09851e+09,-1.09827e+09,-1.09854e+09,-2711.66,-0.000875264,0.0478167,-0,0.0478247,37630.7,-40000,0,54918.8,2711.66
step02_gravity_refstate-crust.xmf,2,3.58689e-07,3.92934e-06,0,-7.86726e-08,-1.09851e+09,-1.09827e+09,-1.09854e+09,-5396.94,-0.00169467,0.048215,-0,0.0482448,35375.6,-40000,0,53398.8,5396.94
step02_gravity_refstate-crust.xmf,3,3.44939e-07,3.96442e-06,0,-1.19854e-07,-1.09851e+09,-1.09826e+09,-1.09854e+09,-8221.99,-0.00245045,0.0488447,-0,0.0489061,33229,-40000,0,52001.6,8221.99
step02_gravity_refstate-crust.xmf,4,3.28215e-07,4.00956e-06,0,-1.64547e-07,-1.09851e+09,-1.09826e+09,-1.09854e+09,-11287.9,-0.00313869,0.0496868,-0,0.0497858,31185.8,-40000,0,50720.4,11287.9
step02_gravity_refstate-crust.xmf,5,3.09225e-07,4.06339e-06,0,-2.14114e-07,-1.09851e+09,-1.09826e+09,-1.09853e+09,-14688.2,-0.00375898,0.0507273,-0,0.0508664,29241,-40000,0,49548.3,14688.2
step02_gravity_refstate-crust.xmf,6,2.69264e-07,4.19133e-06,0,-3.32879e-07,-1.09851e+09,-1.09824e+09,-1.09853e+09,-22835.5,-0.00480619,0.0533683,-0,0.0535843,25627.4,-40000,0,47505.4,22835.5
step02_gravity_refstate-crust.xmf,7,2.89187e-07,4.12435e-06,0,-2.69741e-07,-1.09851e+09,-1.09825e+09,-1.09853e+09,-18504.2,-0.00431351,0.0519569,-0,0.0521357,27389.7,-40000,0,48478.8,18504.2
step02_gravity_refstate-crust.xmf,8,2.50418e-07,4.2635e-06,0,-4.04551e-07,-1.09851e+09,-1.09824e+09,-1.09853e+09,-27752.2,-0.00524267,0.0549565,-0,0.055206,23949.7,-40000,0,46621.8,27752.2
step02_gravity_refstate-crust.xmf,9,2.3349e-07,4.34047e-06,0,-4.86524e-07,-1.09851e+09,-1.09823e+09,-1.09853e+09,-33375.6,-0.00562968,0.0567179,-0,0.0569967,22352.7,-40000,0,45821.8,33375.6
step02_gravity_refstate-crust.xmf,10,1.98625e-07,4.93228e-06,0,-1.28459e-06,-1.09849e+09,-1.09816e+09,-1.0985e+09,-88122.5,-0.00730682,0.0708068,-0,0.0711828,14255.3,-40000,0,42464.3,88122.5
step02_gravity_refstate-crust.xmf,11,2.02172e-07,5.08549e-06,0,-1.49632e-06,-1.09848e+09,-1.09815e+09,-1.0985e+09,-102648,-0.00753363,0.0737272,-0,0.0741111,13122.5,-40000,0,42097.5,102648
step02_gravity_refstate-crust.xmf,12,1.96549e-07,4.80815e-06,0,-1.10386e-06,-1.09849e+09,-1.09818e+09,-1.09851e+09,-75724.5,-0.00707234,0.0680473,-0,0.0684139,15444.9,-40000,0,42878.2,75724.5
step02_gravity_refstate-crust.xmf,13,1.97144e-07,4.69759e-06,0,-9.45252e-07,-1.0985e+09,-1.09819e+09,-1.09851e+09,-64844.3,-0.00682697,0.0654505,-0,0.0658056,16694.2,-40000,0,43343.9,64844.3
step02_gravity_refstate-crust.xmf,14,2.01339e-07,4.5965e-06,0,-8.05714e-07,-1.0985e+09,-1.0982e+09,-1.09852e+09,-55272,-0.00656625,0.0630177,-0,0.0633589,18006.4,-40000,0,43866,55272
step02_gravity_refstate-crust.xmf,15,2.19206e-07,4.42221e-06,0,-5.80466e-07,-1.09851e+09,-1.09822e+09,-1.09852e+09,-39820,-0.00597433,0.0586498,-0,0.0589533,20832.2,-40000,0,45099.7,39820
step02_gravity_refstate-crust.xmf,16,2.07961e-07,4.50938e-06,0,-6.87761e-07,-1.09851e+09,-1.09821e+09,-1.09852e+09,-47180.4,-0.00628419,0.0607503,-0,0.0610745,19384.6,-40000,0,44449.6,47180.4
step02_gravity_refstate-crust.xmf,17,2.06095e-07,5.25158e-06,0,-1.73238e-06,-1.09847e+09,-1.09813e+09,-1.09849e+09,-118841,-0.00775352,0.0768068,-0,0.0771971,12043.8,-40000,0,41773.8,118841
step02_gravity_refstate-crust.xmf,18,2.06899e-07,5.4496e-06,0,-1.9933e-06,-1.09847e+09,-1.09811e+09,-1.09848e+09,-136740,-0.00796699,0.0800424,-0,0.0804379,11016.2,-40000,0,41489.2,136740
step02_gravity_refstate-crust.xmf,19,2.04726e-07,5.68465e-06,0,-2.28736e-06,-1.09846e+09,-1.09808e+09,-1.09847e+09,-156913,-0.00816938,0.0834295,-0,0.0838285,10037.4,-40000,0,41240.1,156913
step02_gravity_refstate-crust.xmf,20,1.68534e-07,6.29838e-06,0,-2.9601e-06,-1.09843e+09,-1.09801e+09,-1.09844e+09,-203063,-0.00851693,0.090632,-0,0.0910313,8215.82,-40000,0,40835,203063
step02_gravity_refstate-crust.xmf,21,1.23715e-07,6.73114e-06,0,-3.36057e-06,-1.09842e+09,-1.09797e+09,-1.09843e+09,-230535,-0.00864154,0.0944272,-0,0.0948217,7368.31,-40000,0,40673,230535
step02_gravity_refstate-crust.xmf,22,1.94411e-07,5.95512e-06,0,-2.60321e-06,-1.09845e+09,-1.09805e+09,-1.09846e+09,-178580,-0.00835552,0.0869622,-0,0.0873627,9104.73,-40000,0,41023.1,178580
step02_gravity_refstate-crust.xmf,23,5.1882e-08,7.24178e-06,0,-3.7787e-06,-1.09841e+09,-1.09791e+09,-1.09841e+09,-259219,-0.008713,0.0983318,-0,0.0987171,6559.91,-40000,0,40534.3,259219
step02_gravity_refstate-crust.xmf,24,-1.09388e-06,1.19616e-05,0,-5.60942e-06,-1.09833e+09,-1.09744e+09,-1.09826e+09,-384806,-0.00742754,0.118395,-0,0.118628,3021.01,-40000,0,40113.9,384806
step02_gravity_refstate-crust.xmf,25,-1.58508e-06,1.34414e-05,0,-5.60681e-06,-1.09832e+09,-1.09729e+09,-1.09822e+09,-384627,-0.00658579,0.122101,-0,0.122279,2394.25,-40000,0,40071.6,384627
step02_gravity_refstate-crust.xmf,26,-7.11626e-07,1.06385e-05,0,-5.38646e-06,-1.09835e+09,-1.09757e+09,-1.0983e+09,-369511,-0.00801293,0.114472,-0,0.114752,3670.37,-40000,0,40168,369511
step02_gravity_refstate-crust.xmf,27,-5.50041e-08,7.86009e-06,0,-4.20915e-06,-1.09839e+09,-1.09785e+09,-1.09839e+09,-288748,-0.00871302,0.102323,-0,0.102694,5788.3,-40000,0,40416.6,288748
step02_gravity_refstate-crust.xmf,28,-2.19605e-06,1.51495e-05,0,-5.17324e-06,-1.09832e+09,-1.09713e+09,-1.09817e+09,-354884,-0.00543169,0.125435,-0,0.125552,1785.26,-40000,0,40039.8,354884
step02_gravity_refstate-crust.xmf,29,-4.22296e-07,9.53724e-06,0,-5.03428e-06,-1.09836e+09,-1.09768e+09,-1.09833e+09,-345352,-0.0083951,0.11044,-0,0.110759,4346.07,-40000,0,40235.4,345352
step02_gravity_refstate-crust.xmf,30,-2.05046e-07,8.60348e-06,0,-4.64682e-06,-1.09838e+09,-1.09777e+09,-1.09836e+09,-318772,-0.00861627,0.106373,-0,0.106721,5051.17,-40000,0,40317.7,318772
step02_gravity_refstate-crust.xmf,31,-2.84996e-06,1.68825e-05,0,-4.09827e-06,-1.09832e+09,-1.09697e+09,-1.09812e+09,-281141,-0.00392355,0.128166,-0,0.128226,1187.64,-40000,0,40017.6,281141
step02_gravity_refstate-crust.xmf,32,-3.38658e-06,1.82737e-05,0,-2.29778e-06,-1.09832e+09,-1.09683e+09,-1.09809e+09,-157628,-0.00207172,0.130005,-0,0.130021,593.771,-40000,0,40004.4,157628
step02_gravity_refstate-crust.xmf,33,-3.60784e-06,1.89488e-05,0,4.34733e-08,-1.09832e+09,-1.09677e+09,-1.09807e+09,2982.27,-1.50817e-06,0.130658,-0,0.130658,0,-40000,0,40000,2982.27
step02_gravity_refstate-crust.xmf,34,-3.38691e-06,1.83936e-05,0,2.34447e-06,-1.09831e+09,-1.09682e+09,-1.09808e+09,160830,0.00207162,0.130003,0,0.13002,-593.771,-40000,-0,40004.4,160830
step02_gravity_refstate-crust.xmf,35,-2.85663e-06,1.70666e-05,0,4.1397e-06,-1.09831e+09,-1.09694e+09,-1.09812e+09,283983,0.00392308,0.128167,0,0.128227,-1187.64,-40000,-0,40017.6,283983
step02_gravity_refstate-crust.xmf,36,-2.20444e-06,1.53089e-05,0,5.18344e-06,-1.09831e+09,-1.09711e+09,-1.09816e+09,355584,0.0054318,0.125435,0,0.125553,-1785.26,-40000,-0,40039.8,355584
step02_gravity_refstate-crust.xmf,37,-1.59471e-06,1.35419e-05,0,5.60148e-06,-1.09832e+09,-1.09728e+09,-1.09821e+09,384261,0.00658563,0.122102,0,0.122279,-2394.25,-40000,-0,40071.6,384261
step02_gravity_refstate-crust.xmf,38,-1.09683e-06,1.19713e-05,0,5.61031e-06,-1.09833e+09,-1.09744e+09,-1.09826e+09,384867,0.00742728,0.118396,0,0.118628,-3021.01,-40000,-0,40113.9,384867
step02_gravity_refstate-crust.xmf,39,-7.11955e-07,1.06417e-05,0,5.38481e-06,-1.09835e+09,-1.09757e+09,-1.0983e+09,369398,0.00801299,0.114473,0,0.114753,-3670.37,-40000,-0,40168,369398
step02_gravity_refstate-crust.xmf,40,-4.22345e-07,9.5334e-06,0,5.03549e-06,-1.09836e+09,-1.09768e+09,-1.09833e+09,345434,0.00839483,0.11044,0,0.110759,-4346.07,-40000,-0,40235.4,345434
step02_gravity_refstate-crust.xmf,41,-2.08475e-07,8.61566e-06,0,4.62591e-06,-1.09838e+09,-1.09777e+09,-1.09836e+09,317337,0.00861626,0.106373,0,0.106721,-5051.17,-40000,-0,40317.7,317337
step02_gravity_refstate-crust.xmf,42,-5.46606e-08,7.85842e-06,0,4.19399e-06,-1.09839e+09,-1.09785e+09,-1.09839e+09,287708,0.00871262,0.102323,0,0.102693,-5788.3,-40000,-0,40416.6,287708
step02_gravity_refstate-crust.xmf,43,5.34287e-08,7.23215e-06,0,3.76132e-06,-1.09841e+09,-1.09791e+09,-1.09841e+09,258027,0.00871323,0.0983317,0,0.098717,-6559.91,-40000,-0,40534.3,258027
step02_gravity_refstate-crust.xmf,44,1.24541e-07,6.71771e-06,0,3.34881e-06,-1.09842e+09,-1.09797e+09,-1.09843e+09,229729,0.00864126,0.0944275,0,0.0948221,-7368.31,-40000,-0,40673,229729
step02_gravity_refstate-crust.xmf,45,1.69787e-07,6.29815e-06,0,2.96014e-06,-1.09843e+09,-1.09801e+09,-1.09844e+09,203066,0.00851706,0.0906322,0,0.0910315,-8215.82,-40000,-0,40835,203066
step02_gravity_refstate-crust.xmf,46,1.95129e-07,5.95398e-06,0,2.60243e-06,-1.09845e+09,-1.09805e+09,-1.09846e+09,178527,0.00835574,0.0869623,0,0.0873628,-9104.73,-40000,-0,41023.1,178527
step02_gravity_refstate-crust.xmf,47,2.06069e-07,5.67214e-06,0,2.27789e-06,-1.09846e+09,-1.09808e+09,-1.09847e+09,156263,0.00816937,0.0834294,0,0.0838284,-10037.4,-40000,-0,41240.1,156263
step02_gravity_refstate-crust.xmf,48,2.08863e-07,5.4371e-06,0,1.98394e-06,-1.09847e+09,-1.09811e+09,-1.09848e+09,136099,0.00796683,0.0800423,0,0.0804378,-11016.2,-40000,-0,41489.2,136099
step02_gravity_refstate-crust.xmf,49,2.07368e-07,5.24e-06,0,1.7217e-06,-1.09847e+09,-1.09813e+09,-1.09849e+09,118109,0.00775399,0.0768069,0,0.0771973,-12043.8,-40000,-0,41773.8,118109
step02_gravity_refstate-crust.xmf,50,2.02793e-07,5.07428e-06,0,1.49039e-06,-1.09848e+09,-1.09815e+09,-1.0985e+09,102241,0.00753354,0.0737275,0,0.0741114,-13122.5,-40000,-0,42097.5,102241
step02_gravity_refstate-crust.xmf,51,1.98844e-07,4.93208e-06,0,1.285e-06,-1.09849e+09,-1.09816e+09,-1.0985e+09,88150.8,0.00730685,0.0708069,0,0.0711829,-14255.3,-40000,-0,42464.3,88150.8
step02_gravity_refstate-crust.xmf,52,1.96676e-07,4.80786e-06,0,1.10419e-06,-1.09849e+09,-1.09818e+09,-1.09851e+09,75747.2,0.00707235,0.0680474,0,0.0684139,-15444.9,-40000,-0,42878.2,75747.2
step02_gravity_refstate-crust.xmf,53,1.97286e-07,4.69709e-06,0,9.45256e-07,-1.0985e+09,-1.09819e+09,-1.09851e+09,64844.6,0.00682702,0.0654505,0,0.0658056,-16694.2,-40000,-0,43343.9,64844.6
step02_gravity_refstate-crust.xmf,54,2.01266e-07,4.59642e-06,0,8.05764e-07,-1.0985e+09,-1.0982e+09,-1.09852e+09,55275.4,0.00656622,0.0630177,0,0.0633589,-18006.4,-40000,-0,43866,55275.4
step02_gravity_refstate-crust.xmf,55,2.08871e-07,4.50377e-06,0,6.83905e-07,-1.09851e+09,-1.09821e+09,-1.09852e+09,46915.9,0.0062842,0.0607503,0,0.0610745,-19384.6,-40000,-0,44449.6,46915.9
step02_gravity_refstate-crust.xmf,56,2.20017e-07,4.41743e-06,0,5.77215e-07,-1.09851e+09,-1.09822e+09,-1.09852e+09,39596.9,0.00597441,0.0586498,0,0.0589533,-20832.2,-40000,-0,45099.7,39596.9
step02_gravity_refstate-crust.xmf,57,2.3406e-07,4.33657e-06,0,4.84219e-07,-1.09851e+09,-1.09823e+09,-1.09853e+09,33217.4,0.00562954,0.0567179,0,0.0569966,-22352.7,-40000,-0,45821.8,33217.4
step02_gravity_refstate-crust.xmf,58,2.51099e-07,4.26008e-06,0,4.02416e-07,-1.09851e+09,-1.09824e+09,-1.09853e+09,27605.7,0.00524273,0.0549565,0,0.055206,-23949.7,-40000,-0,46621.8,27605.7
step02_gravity_refstate-crust.xmf,59,2.69916e-07,4.18847e-06,0,3.30783e-07,-1.09851e+09,-1.09824e+09,-1.09853e+09,22691.7,0.00480622,0.0533683,0,0.0535843,-25627.4,-40000,-0,47505.4,22691.7
step02_gravity_refstate-crust.xmf,60,2.89738e-07,4.12186e-06,0,2.67767e-07,-1.09851e+09,-1.09825e+09,-1.09853e+09,18368.8,0.00431346,0.0519568,0,0.0521356,-27389.7,-40000,-0,48478.8,18368.8
step02_gravity_refstate-crust.xmf,61,3.28266e-07,4.00953e-06,0,1.6469e-07,-1.09851e+09,-1.09826e+09,-1.09854e+09,11297.7,0.00313865,0.0496867,0,0.0497857,-31185.8,-40000,-0,50720.4,11297.7
step02_gravity_refstate-crust.xmf,62,3.45386e-07,3.96303e-06,0,1.18815e-07,-1.09851e+09,-1.09826e+09,-1.09854e+09,8150.72,0.00245038,0.0488447,0,0.0489061,-33229,-40000,-0,52001.6,8150.72
step02_gravity_refstate-crust.xmf,63,3.09276e-07,4.06325e-06,0,2.14354e-07,-1.09851e+09,-1.09826e+09,-1.09853e+09,14704.7,0.00375897,0.0507273,0,0.0508664,-29241,-40000,-0,49548.3,14704.7
step02_gravity_refstate-crust.xmf,64,3.58884e-07,3.92842e-06,0,7.76664e-08,-1.09851e+09,-1.09827e+09,-1.09854e+09,5327.92,0.00169469,0.0482151,0,0.0482448,-35375.6,-40000,-0,53398.8,5327.92
step02_gravity_refstate-crust.xmf,65,3.67571e-07,3.90654e-06,0,3.88835e-08,-1.09851e+09,-1.09827e+09,-1.09854e+09,2667.41,0.000875262,0.0478167,0,0.0478247,-37630.7,-40000,-0,54918.8,2667.41
step02_gravity_refstate-crust.xmf,66,3.71269e-07,3.89747e-06,0,4.48516e-10,-1.09851e+09,-1.09827e+09,-1.09854e+09,30.7682,8.6909e-20,0.0476764,0,0.0476764,-40000,-40000,-0,56568.5,30.7682
step02_gravity_refstate-crust.xmf,67,-8.92733e-07,5.1746e-07,0,-2.23307e-08,-5.5866e+07,-5.57693e+07,-5.58048e+07,-1531.88,0.00182295,0.131559,0,0.131572,37970.9,-2031.05,0,38025.2,1531.88
step02_gravity_refstate-crust.xmf,68,-8.33377e-07,5.68183e-07,0,1.21521e-09,-7.79064e+07,-7.78103e+07,-7.78493e+07,83.3635,1.16853e-19,0.130905,0,0.130905,40000,-2833.77,0,40100.3,83.3635
step02_gravity_refstate-crust.xmf,69,-7.26548e-07,6.65823e-07,0,-4.72898e-08,-1.17718e+08,-1.17623e+08,-1.17668e+08,-3244.08,0.00162889,0.130268,0,0.130278,37775.2,-4283.74,0,38017.3,3244.08
step02_gravity_refstate-crust.xmf,70,-1.08946e-06,4.16618e-07,0,4.70643e-09,-103354,-37.1665,-28617.2,322.861,2.90198e-19,0.132291,0,0.132291,40000,0,0,40000,322.861
step02_gravity_refstate-crust.xmf,71,-6.52958e-07,7.66656e-07,0,6.4479e-10,-1.53593e+08,-1.53495e+08,-1.53548e+08,44.2326,9.20441e-20,0.129065,0,0.129065,40000,-5590.24,0,40388.7,44.2326
step02_gravity_refstate-crust.xmf,72,-6.31988e-07,7.57626e-07,0,-1.14638e-07,-1.52902e+08,-1.52807e+08,-1.52858e+08,-7864.17,0.00285828,0.130123,0,0.130155,35593.6,-5565.16,0,36026,7864.17
step02_gravity_refstate-crust.xmf,73,-8.24338e-07,5.44816e-07,0,-6.27871e-08,-7.2193e+07,-7.20991e+07,-7.21364e+07,-4307.19,0.0036705,0.132011,0,0.132062,35642.4,-2625.77,0,35739,4307.19
step02_gravity_refstate-crust.xmf,74,-1.07156e-06,4.07769e-07,0,3.37124e-09,-101741,-259.438,-28232.4,231.267,0.00311101,0.132708,0,0.132744,37123.5,0,0,37123.5,231.267
step02_gravity_refstate-crust.xmf,75,-5.75747e-07,8.81138e-07,0,-6.75709e-08,-1.92414e+08,-1.92314e+08,-1.92374e+08,-4635.36,0.00128646,0.128163,0,0.128169,37780,-7004.05,0,38423.8,4635.36
step02_gravity_refstate-crust.xmf,76,-5.50184e-07,8.39256e-07,0,-2.09868e-07,-1.82237e+08,-1.82142e+08,-1.82199e+08,-14397,0.00405697,0.130824,0,0.130887,33033.7,-6633.6,0,33693.2,14397
step02_gravity_refstate-crust.xmf,77,-4.95619e-07,1.02539e-06,0,-1.57204e-07,-2.37447e+08,-2.37342e+08,-2.37413e+08,-10784.2,0.00227654,0.127437,0,0.127457,35481.5,-8644.07,0,36519.3,10784.2
step02_gravity_refstate-crust.xmf,78,-4.69198e-07,9.64253e-07,0,-2.92496e-07,-2.22011e+08,-2.21913e+08,-2.21979e+08,-20065.2,0.00439417,0.130866,0,0.13094,31412.9,-8082.13,0,32435.9,20065.2
step02_gravity_refstate-crust.xmf,79,-4.54207e-07,1.0685e-06,0,-2.53198e-07,-2.51174e+08,-2.5107e+08,-2.51143e+08,-17369.4,0.00334339,0.128447,0,0.12849,33012.2,-9144.06,0,34255.2,17369.4
step02_gravity_refstate-crust.xmf,80,-6.83269e-07,6.44019e-07,0,-1.3064e-07,-1.15628e+08,-1.15537e+08,-1.15582e+08,-8961.94,0.00446204,0.132076,0,0.132152,33814,-4207.8,0,34074.8,8961.94
step02_gravity_refstate-crust.xmf,81,-4.20979e-07,1.12166e-06,0,-3.3045e-07,-2.66551e+08,-2.66445e+08,-2.66522e+08,-22668.9,0.00397882,0.129343,0,0.129404,31230.1,-9704.08,0,32703.1,22668.9
step02_gravity_refstate-crust.xmf,82,-3.81849e-07,1.27069e-06,0,-4.0003e-07,-3.0632e+08,-3.06207e+08,-3.06294e+08,-27442.1,0.00404121,0.128741,0,0.128805,30100.5,-11152.3,0,32100.1,27442.1
step02_gravity_refstate-crust.xmf,83,-4.17559e-07,1.03756e-06,0,-3.88457e-07,-2.44356e+08,-2.44256e+08,-2.44327e+08,-26648.1,0.0050043,0.132105,0,0.1322,29403.8,-8895.95,0,30720.1,26648.1
step02_gravity_refstate-crust.xmf,84,-5.22127e-07,9.93058e-07,0,1.5293e-10,-2.27364e+08,-2.2726e+08,-2.27328e+08,10.491,6.99682e-20,0.126701,0,0.126701,40000,-8276.85,0,40847.4,10.491
step02_gravity_refstate-crust.xmf,85,-5.04008e-07,8.04705e-07,0,-2.95413e-07,-1.77152e+08,-1.77062e+08,-1.77118e+08,-20265.3,0.00565149,0.133557,0,0.133677,30141.3,-6448.61,0,30823.5,20265.3
step02_gravity_refstate-crust.xmf,86,-6.27679e-07,6.46006e-07,0,-1.87794e-07,-1.21828e+08,-1.21741e+08,-1.21785e+08,-12882.7,0.00577601,0.133574,0,0.133698,31653.2,-4433.74,0,31962.2,12882.7
step02_gravity_refstate-crust.xmf,87,-8.0077e-07,4.99117e-07,0,-8.69406e-08,-6.09272e+07,-6.0838e+07,-6.08722e+07,-5964.12,0.00604281,0.133812,0,0.133948,32947.2,-2215.65,0,33021.6,5964.12
step02_gravity_refstate-crust.xmf,88,-1.02604e-06,3.90042e-07,0,1.05765e-09,-97436.9,-293.456,-27050.4,72.5545,0.00601405,0.133888,0,0.134023,34354.5,0,0,34354.5,72.5545
step02_gravity_refstate-crust.xmf,89,-3.93043e-07,1.28421e-06,0,-3.13027e-07,-3.10513e+08,-3.10398e+08,-3.10486e+08,-21473.7,0.00319819,0.12658,0,0.12662,32167.3,-11304.9,0,34095.9,21473.7
step02_gravity_refstate-crust.xmf,90,-3.63213e-07,1.25255e-06,0,-4.93462e-07,-3.01992e+08,-3.01881e+08,-3.01967e+08,-33851.5,0.00489179,0.131454,0,0.131545,27950.2,-10994.8,0,30034.9,33851.5
step02_gravity_refstate-crust.xmf,91,-4.0878e-07,1.25874e-06,0,-2.21552e-07,-3.04372e+08,-3.04258e+08,-3.04344e+08,-15198.4,0.00236259,0.125279,0,0.125302,34348.5,-11081.3,0,36091.7,15198.4
step02_gravity_refstate-crust.xmf,92,-4.69613e-07,1.11261e-06,0,-7.5941e-08,-2.63348e+08,-2.6324e+08,-2.63316e+08,-5209.55,0.000985119,0.125557,0,0.125561,37911.7,-9587.28,0,39105.2,5209.55
step02_gravity_refstate-crust.xmf,93,-3.68186e-07,1.05696e-06,0,-4.9891e-07,-2.5302e+08,-2.52923e+08,-2.52995e+08,-34225.2,0.00587035,0.134899,0,0.135026,26905.1,-9211.61,0,28438.4,34225.2
step02_gravity_refstate-crust.xmf,94,-3.37691e-07,1.23637e-06,0,-5.92213e-07,-2.99965e+08,-2.99857e+08,-2.99942e+08,-40625.8,0.00567791,0.134552,0,0.134672,25778.5,-10921.1,0,27996.5,40625.8
step02_gravity_refstate-crust.xmf,95,-3.56581e-07,1.47672e-06,0,-3.77656e-07,-3.60242e+08,-3.60116e+08,-3.60217e+08,-25907.2,0.00325117,0.125134,0,0.125176,31000.5,-13115.8,0,33660.9,25907.2
step02_gravity_refstate-crust.xmf,96,-3.528e-07,1.46682e-06,0,-4.74941e-07,-3.55879e+08,-3.55754e+08,-3.55855e+08,-32580.9,0.00404545,0.127653,0,0.127717,28869.9,-12957,0,31644.2,32580.9
step02_gravity_refstate-crust.xmf,97,-3.43183e-07,1.44937e-06,0,-5.72512e-07,-3.50874e+08,-3.50751e+08,-3.5085e+08,-39274.3,0.0048132,0.130586,0,0.130674,26802.3,-12774.8,0,29691,39274.3
step02_gravity_refstate-crust.xmf,98,-4.21736e-07,1.24207e-06,0,-1.41349e-07,-3.00188e+08,-3.00074e+08,-3.00159e+08,-9696.55,0.00156031,0.124472,0,0.124482,36329.1,-10928.9,0,37937.4,9696.55
step02_gravity_refstate-crust.xmf,99,-4.26416e-07,1.23676e-06,0,-4.09566e-11,-2.99422e+08,-2.99308e+08,-2.99393e+08,-2.80962,5.32483e-20,0.123776,0,0.123776,40000,-10900.9,0,41458.8,2.80962
step02_gravity_refstate-crust.xmf,100,-4.14791e-07,8.79449e-07,0,-4.08022e-07,-2.03689e+08,-2.036e+08,-2.03661e+08,-27990.3,0.00630434,0.135534,0,0.135681,27735.3,-7415.19,0,28709.4,27990.3
step02_gravity_refstate-crust.xmf,101,-5.68841e-07,6.11938e-07,0,-2.39196e-07,-1.18093e+08,-1.18012e+08,-1.18054e+08,-16408.8,0.00727633,0.136016,0,0.13621,29269.5,-4297.94,0,29583.4,16408.8
step02_gravity_refstate-crust.xmf,102,-7.31204e-07,4.66868e-07,0,-1.17051e-07,-5.89861e+07,-5.8904e+07,-5.8936e+07,-8029.71,0.00802217,0.135981,0,0.136218,30421.6,-2145.21,0,30497.2,8029.71
step02_gravity_refstate-crust.xmf,103,-9.48565e-07,3.60399e-07,0,9.68809e-10,-90087.4,-292.458,-25015.9,66.4603,0.00865132,0.135735,0,0.13601,31685.6,0,0,31685.6,66.4603
step02_gravity_refstate-crust.xmf,104,-3.26638e-07,1.41916e-06,0,-6.72852e-07,-3.44834e+08,-3.44714e+08,-3.44811e+08,-46157.6,0.00556533,0.134004,0,0.13412,24728,-12554.9,0,27732.6,46157.6
step02_gravity_refstate-crust.xmf,105,-2.9999e-07,1.20083e-06,0,-6.81651e-07,-2.9526e+08,-2.95157e+08,-2.95239e+08,-46761.2,0.00637701,0.137966,0,0.138113,23751.3,-10749.9,0,26070.8,46761.2
step02_gravity_refstate-crust.xmf,106,-3.21403e-07,1.02534e-06,0,-5.85186e-07,-2.49796e+08,-2.49704e+08,-2.49774e+08,-40143.8,0.00664634,0.138132,0,0.138292,24787.9,-9094.37,0,26403.5,40143.8
step02_gravity_refstate-crust.xmf,107,-2.95253e-07,1.37832e-06,0,-7.72136e-07,-3.39302e+08,-3.39187e+08,-3.39281e+08,-52968.5,0.0062528,0.137751,0,0.137893,22677.4,-12353.6,0,25823.9,52968.5
step02_gravity_refstate-crust.xmf,108,-3.26064e-07,1.58839e-06,0,-7.5079e-07,-3.84912e+08,-3.84781e+08,-3.8489e+08,-51504.2,0.00560506,0.13375,0,0.133867,23556.9,-14014.3,0,27410.4,51504.2
step02_gravity_refstate-crust.xmf,109,-3.0293e-07,1.55232e-06,0,-8.50749e-07,-3.80802e+08,-3.80674e+08,-3.80781e+08,-58361.4,0.00623199,0.137387,0,0.137529,21668.3,-13864.6,0,25724.4,58361.4
step02_gravity_refstate-crust.xmf,110,-3.58198e-07,1.47243e-06,0,-2.78642e-07,-3.61488e+08,-3.61363e+08,-3.61464e+08,-19114.9,0.00243303,0.123168,0,0.123192,33256.4,-13161.2,0,35766,19114.9
step02_gravity_refstate-crust.xmf,111,-3.58715e-07,1.47569e-06,0,-1.69451e-07,-3.64667e+08,-3.64541e+08,-3.64642e+08,-11624.4,0.00148943,0.121488,0,0.121498,35841.1,-13276.9,0,38221.2,11624.4
step02_gravity_refstate-crust.xmf,112,-3.88641e-07,1.35881e-06,0,-7.68621e-08,-3.33673e+08,-3.33553e+08,-3.33646e+08,-5272.74,0.000752914,0.122359,0,0.122361,38065.8,-12148.2,0,39957.3,5272.74
step02_gravity_refstate-crust.xmf,113,-2.55372e-07,1.33858e-06,0,-8.60412e-07,-3.36702e+08,-3.36592e+08,-3.36684e+08,-59024.2,0.00677857,0.14128,0,0.141442,20844.9,-12259,0,24182.5,59024.2
step02_gravity_refstate-crust.xmf,114,-4.7269e-07,6.99174e-07,0,-3.24344e-07,-1.50933e+08,-1.50853e+08,-1.50901e+08,-22250,0.00723948,0.136819,0,0.13701,27917.6,-5494.05,0,28453,22250
step02_gravity_refstate-crust.xmf,115,-3.61926e-07,9.0636e-07,0,-4.93702e-07,-2.1565e+08,-2.15563e+08,-2.15625e+08,-33868,0.00680939,0.137649,0,0.137817,25904.1,-7850.89,0,27067.7,33868
step02_gravity_refstate-crust.xmf,116,-2.52063e-07,1.16503e-06,0,-7.67149e-07,-2.9301e+08,-2.92913e+08,-2.92993e+08,-52626.4,0.00693705,0.141456,0,0.141626,21811.9,-10668.1,0,24281,52626.4
step02_gravity_refstate-crust.xmf,117,-3.41059e-07,1.64661e-06,0,-6.3883e-07,-3.97589e+08,-3.97453e+08,-3.97566e+08,-43823.8,0.00477048,0.129485,0,0.129573,25744.2,-14475.8,0,29534.9,43823.8
step02_gravity_refstate-crust.xmf,118,-2.71235e-07,1.5104e-06,0,-9.44416e-07,-3.7875e+08,-3.78627e+08,-3.78731e+08,-64787,0.00674942,0.140942,0,0.141104,19913.8,-13790,0,24222.4,64787
step02_gravity_refstate-crust.xmf,119,-3.24932e-07,1.72563e-06,0,-9.20944e-07,-4.21001e+08,-4.2086e+08,-4.20978e+08,-63176.8,0.00627849,0.136811,0,0.136955,20729.3,-15328.3,0,25781,63176.8
step02_gravity_refstate-crust.xmf,120,-3.39557e-07,1.75761e-06,0,-8.19261e-07,-4.23835e+08,-4.23691e+08,-4.23811e+08,-56201.3,0.00567457,0.133266,0,0.133386,22491.5,-15431.5,0,27276.3,56201.3
step02_gravity_refstate-crust.xmf,121,-2.9668e-07,1.67972e-06,0,-1.02058e-06,-4.19242e+08,-4.19107e+08,-4.19222e+08,-70012,0.00681667,0.140447,0,0.140612,19024,-15264.3,0,24390.9,70012
step02_gravity_refstate-crust.xmf,122,-3.54599e-07,1.90191e-06,0,-9.81976e-07,-4.6061e+08,-4.60455e+08,-4.60586e+08,-67363.6,0.00636708,0.135995,0,0.136144,19850.9,-16770.5,0,25986.7,67363.6
step02_gravity_refstate-crust.xmf,123,-3.27677e-07,1.67109e-06,0,-3.38403e-07,-4.11755e+08,-4.11617e+08,-4.11732e+08,-23214.4,0.00256604,0.121312,0,0.121339,31960.1,-14991.6,0,35301.5,23214.4
step02_gravity_refstate-crust.xmf,124,-3.35479e-07,1.67248e-06,0,-4.37683e-07,-4.08377e+08,-4.0824e+08,-4.08354e+08,-30025.1,0.00330558,0.123597,0,0.123641,29802.6,-14868.6,0,33305.7,30025.1
step02_gravity_refstate-crust.xmf,125,-3.40284e-07,1.66739e-06,0,-5.38343e-07,-4.04071e+08,-4.03934e+08,-4.04048e+08,-36930.4,0.00404237,0.126325,0,0.126389,27724.9,-14711.8,0,31386.4,36930.4
step02_gravity_refstate-crust.xmf,126,-3.52322e-07,1.48828e-06,0,-2.39222e-10,-3.69965e+08,-3.69838e+08,-3.69941e+08,-16.4106,3.86264e-20,0.120276,0,0.120276,40000,-13469.8,0,42207.1,16.4106
step02_gravity_refstate-crust.xmf,127,-3.30452e-07,1.84883e-06,0,-1.08905e-06,-4.58383e+08,-4.58234e+08,-4.5836e+08,-74709,0.00694853,0.139792,0,0.139964,18179.5,-16689.4,0,24678.5,74709
step02_gravity_refstate-crust.xmf,128,-3.97525e-07,7.36573e-07,0,-4.0695e-07,-1.679e+08,-1.67822e+08,-1.67873e+08,-27916.8,0.00762716,0.138678,0,0.138888,26181.2,-6112.09,0,26885.2,27916.8
step02_gravity_refstate-crust.xmf,129,-4.84103e-07,5.65035e-07,0,-2.8569e-07,-1.13132e+08,-1.1306e+08,-1.13099e+08,-19598.4,0.0086812,0.139071,0,0.139342,26841.7,-4117.6,0,27155.7,19598.4
step02_gravity_refstate-crust.xmf,130,-6.36327e-07,4.2035e-07,0,-1.43059e-07,-5.56994e+07,-5.56269e+07,-5.56557e+07,-9813.86,0.00985464,0.138781,0,0.13913,27887.4,-2025.87,0,27960.9,9813.86
step02_gravity_refstate-crust.xmf,131,-8.43852e-07,3.20519e-07,0,3.52501e-10,-80146.7,-270.853,-22258.4,24.1816,0.0109627,0.138151,0,0.138585,29109.7,0,0,29109.7,24.1816
step02_gravity_refstate-crust.xmf,132,-2.64965e-07,9.83454e-07,0,-6.59214e-07,-2.45559e+08,-2.45473e+08,-2.45541e+08,-45222.1,0.0072845,0.141518,0,0.141706,22823.2,-8940.27,0,24511.8,45222.1
step02_gravity_refstate-crust.xmf,133,-3.09589e-07,8.04159e-07,0,-5.29813e-07,-1.94706e+08,-1.9463e+08,-1.94685e+08,-36345.2,0.00781521,0.141116,0,0.141332,24061.4,-7088.47,0,25083.8,36345.2
step02_gravity_refstate-crust.xmf,134,-3.91839e-07,2.07909e-06,0,-1.03793e-06,-4.99439e+08,-4.99269e+08,-4.99412e+08,-71201.8,0.00648774,0.135034,0,0.13519,18993.2,-18184.2,0,26294.6,71201.8
step02_gravity_refstate-crust.xmf,135,-3.45074e-07,1.78085e-06,0,-7.17496e-07,-4.27788e+08,-4.27642e+08,-4.27764e+08,-49220.2,0.00502351,0.129864,0,0.129961,24304.8,-15575.4,0,28867.2,49220.2
step02_gravity_refstate-crust.xmf,136,-3.63829e-07,1.93485e-06,0,-8.76208e-07,-4.6313e+08,-4.62972e+08,-4.63105e+08,-60107.9,0.00574826,0.132426,0,0.132551,21533.2,-16862.2,0,27349.8,60107.9
step02_gravity_refstate-crust.xmf,137,-3.17796e-07,1.67587e-06,0,-2.41576e-07,-4.16614e+08,-4.16477e+08,-4.16592e+08,-16572.1,0.00182443,0.119397,0,0.119411,34169.7,-15168.6,0,37385.2,16572.1
step02_gravity_refstate-crust.xmf,138,-3.21766e-07,1.61372e-06,0,-6.9039e-08,-4.04082e+08,-4.03949e+08,-4.0406e+08,-4736.08,0.000546419,0.118503,0,0.118504,38300.4,-14712.2,0,41028.9,4736.08
step02_gravity_refstate-crust.xmf,139,-2.55899e-07,1.62052e-06,0,-1.1116e-06,-4.1847e+08,-4.18341e+08,-4.18452e+08,-76256,0.00725919,0.14401,0,0.144193,17429.2,-15236.3,0,23150,76256
step02_gravity_refstate-crust.xmf,140,-1.9595e-07,1.12887e-06,0,-8.47873e-07,-2.93451e+08,-2.9336e+08,-2.93438e+08,-58164.1,0.00734528,0.144921,0,0.145107,19970.7,-10684.3,0,22649.2,58164.1
step02_gravity_refstate-crust.xmf,141,-2.06485e-07,1.29912e-06,0,-9.45385e-07,-3.37461e+08,-3.37358e+08,-3.37447e+08,-64853.4,0.00718413,0.144786,0,0.144964,19066.3,-12286.8,0,22682.3,64853.4
step02_gravity_refstate-crust.xmf,142,-2.25836e-07,1.4585e-06,0,-1.03096e-06,-3.78121e+08,-3.78005e+08,-3.78105e+08,-70723.7,0.00717271,0.144518,0,0.144696,18223.1,-13767.2,0,22838.9,70723.7
step02_gravity_refstate-crust.xmf,143,-2.03241e-07,9.59632e-07,0,-7.36241e-07,-2.47848e+08,-2.47768e+08,-2.47834e+08,-50506.1,0.00768274,0.144737,0,0.144941,20978.7,-9023.83,0,22837.2,50506.1
step02_gravity_refstate-crust.xmf,144,-3.71834e-07,2.024e-06,0,-1.15875e-06,-4.97869e+08,-4.97704e+08,-4.97843e+08,-79490.3,0.00714814,0.139106,0,0.13929,17279.9,-18127,0,25043.6,79490.3
step02_gravity_refstate-crust.xmf,145,-3.94566e-07,2.11745e-06,0,-9.2274e-07,-5.02464e+08,-5.02292e+08,-5.02437e+08,-63299.9,0.00581939,0.131287,0,0.131416,20646,-18294.4,0,27585.2,63299.9
step02_gravity_refstate-crust.xmf,146,-3.4397e-07,1.88607e-06,0,-6.04595e-07,-4.54317e+08,-4.54164e+08,-4.54294e+08,-41475.2,0.00410144,0.124922,0,0.124989,26368.7,-16541.4,0,31127.6,41475.2
step02_gravity_refstate-crust.xmf,147,-3.62386e-07,1.95733e-06,0,-7.74185e-07,-4.67055e+08,-4.66895e+08,-4.6703e+08,-53109.1,0.00510532,0.129025,0,0.129126,23227.1,-17005.2,0,28786.7,53109.1
step02_gravity_refstate-crust.xmf,148,-3.00743e-07,1.72543e-06,0,-1.4816e-07,-4.32876e+08,-4.32737e+08,-4.32856e+08,-10163.8,0.00108097,0.117297,0,0.117302,36363.1,-15760.7,0,39631.7,10163.8
step02_gravity_refstate-crust.xmf,149,-2.93465e-07,1.85624e-06,0,-2.92699e-07,-4.61897e+08,-4.6175e+08,-4.61877e+08,-20079.1,0.00198072,0.11736,0,0.117377,32880.2,-16817.5,0,36931.5,20079.1
step02_gravity_refstate-crust.xmf,150,-3.09217e-07,1.86359e-06,0,-3.86493e-07,-4.58779e+08,-4.58629e+08,-4.58757e+08,-26513.4,0.00262976,0.119348,0,0.119377,30787.1,-16703.9,0,35026.6,26513.4
step02_gravity_refstate-crust.xmf,151,-3.2668e-07,1.87326e-06,0,-4.89266e-07,-4.5586e+08,-4.55709e+08,-4.55838e+08,-33563.7,0.00333571,0.121865,0,0.12191,28627.6,-16597.6,0,33091.1,33563.7
step02_gravity_refstate-crust.xmf,152,-2.89769e-07,1.74051e-06,0,-5.91785e-10,-4.39189e+08,-4.3905e+08,-4.3917e+08,-40.5964,3.6803e-20,0.116206,0,0.116206,40000,-15990.7,0,43077.8,40.5964
step02_gravity_refstate-crust.xmf,153,-2.85895e-07,1.76636e-06,0,-1.18961e-06,-4.54869e+08,-4.54728e+08,-4.5485e+08,-81607.6,0.00744848,0.143755,0,0.143947,16575.8,-16561.5,0,23431.7,81607.6
step02_gravity_refstate-crust.xmf,154,-3.69644e-07,5.79666e-07,0,-3.74571e-07,-1.28648e+08,-1.28582e+08,-1.28622e+08,-25695.5,0.00919259,0.141876,0,0.142174,24637.5,-4682.95,0,25078.6,25695.5
step02_gravity_refstate-crust.xmf,155,-4.93994e-07,3.79041e-07,0,-1.9207e-07,-6.00994e+07,-6.00395e+07,-6.00655e+07,-13176,0.0112158,0.142251,0,0.142693,25192.9,-2186.57,0,25287.6,13176
step02_gravity_refstate-crust.xmf,156,-7.1047e-07,2.69476e-07,0,5.22788e-10,-67494.6,-270.285,-18756.4,35.8632,0.0129031,0.141039,0,0.141628,26619.5,0,0,26619.5,35.8632
step02_gravity_refstate-crust.xmf,157,-2.21698e-07,7.75732e-07,0,-6.09266e-07,-1.97228e+08,-1.9716e+08,-1.97213e+08,-41795.7,0.00835491,0.144772,0,0.145013,21843.7,-7180.59,0,22993.7,41795.7
step02_gravity_refstate-crust.xmf,158,-4.31359e-07,2.23357e-06,0,-1.18355e-06,-5.39711e+08,-5.39528e+08,-5.39681e+08,-81191.5,0.0071283,0.136695,0,0.136881,16942.1,-19650.4,0,25945.6,81191.5
step02_gravity_refstate-crust.xmf,159,-4.34339e-07,2.26274e-06,0,-1.07701e-06,-5.37619e+08,-5.37434e+08,-5.37589e+08,-73883.1,0.00656425,0.133658,0,0.133819,18272.2,-19574.3,0,26777.4,73883.1
step02_gravity_refstate-crust.xmf,160,-4.3033e-07,2.293e-06,0,-9.61896e-07,-5.39487e+08,-5.393e+08,-5.39457e+08,-65986.1,0.00588441,0.130054,0,0.130187,19814.8,-19642.4,0,27900.7,65986.1
step02_gravity_refstate-crust.xmf,161,-3.55943e-07,1.98322e-06,0,-6.84281e-07,-4.7413e+08,-4.7397e+08,-4.74106e+08,-46941.7,0.0045012,0.125957,0,0.126038,24757.3,-17262.8,0,30181.6,46941.7
step02_gravity_refstate-crust.xmf,162,-3.85326e-07,2.13264e-06,0,-8.1554e-07,-5.04758e+08,-5.04585e+08,-5.04731e+08,-55946.1,0.00515669,0.12789,0,0.127994,22301.2,-18377.9,0,28898,55946.1
step02_gravity_refstate-crust.xmf,163,-2.81015e-07,1.85748e-06,0,-2.15115e-07,-4.65967e+08,-4.6582e+08,-4.65947e+08,-14756.9,0.00144366,0.115923,0,0.115932,34683.1,-16965.7,0,38610.3,14756.9
step02_gravity_refstate-crust.xmf,164,-2.61463e-07,1.87328e-06,0,-7.87045e-08,-4.74845e+08,-4.74699e+08,-4.74827e+08,-5399.13,0.000518204,0.114066,0,0.114067,38007.4,-17289.1,0,41754.9,5399.13
step02_gravity_refstate-crust.xmf,165,-3.78563e-07,2.06321e-06,0,-1.24335e-06,-5.14858e+08,-5.1469e+08,-5.14832e+08,-85293.9,0.00749846,0.140426,0,0.140626,16232.5,-18745.6,0,24797,85293.9
step02_gravity_refstate-crust.xmf,166,-4.13728e-07,2.18076e-06,0,-1.30429e-06,-5.42159e+08,-5.41981e+08,-5.4213e+08,-89474.2,0.00771879,0.140161,0,0.140374,15524.1,-19739.5,0,25112.7,89474.2
step02_gravity_refstate-crust.xmf,167,-5.10146e-07,2.45345e-06,0,-1.43028e-06,-6.01231e+08,-6.01028e+08,-6.01196e+08,-98117.2,0.008134,0.139098,0,0.139336,14143.5,-21890.2,0,26061.8,98117.2
step02_gravity_refstate-crust.xmf,168,-4.66494e-07,2.33468e-06,0,-1.5903e-06,-6.01747e+08,-6.01555e+08,-6.01715e+08,-109095,0.00880163,0.143327,0,0.143597,12774.1,-21908.9,0,25361,109095
step02_gravity_refstate-crust.xmf,169,-4.18359e-07,2.20917e-06,0,-1.49676e-06,-5.7148e+08,-5.713e+08,-5.71452e+08,-102678,0.00848882,0.143367,0,0.143618,13563.5,-20807,0,24837.5,102678
step02_gravity_refstate-crust.xmf,170,-1.79279e-07,1.41376e-06,0,-1.1057e-06,-3.8136e+08,-3.81251e+08,-3.81348e+08,-75851.1,0.00745985,0.147563,0,0.147752,16763.3,-13885.3,0,21767.2,75851.1
step02_gravity_refstate-crust.xmf,171,-1.99145e-07,1.54008e-06,0,-1.19458e-06,-4.17939e+08,-4.1782e+08,-4.17925e+08,-81947.9,0.00760923,0.147607,0,0.147803,15890.5,-15217.1,0,22001.5,81947.9
step02_gravity_refstate-crust.xmf,172,-3.08592e-07,1.87504e-06,0,-1.27083e-06,-4.85426e+08,-4.85277e+08,-4.85405e+08,-87179,0.00771652,0.143985,0,0.144192,15660.3,-17674.1,0,23613.9,87179
step02_gravity_refstate-crust.xmf,173,-1.22843e-07,9.1057e-07,0,-8.05307e-07,-2.47349e+08,-2.47278e+08,-2.4734e+08,-55244,0.00801144,0.148509,0,0.148725,19012.9,-9005.89,0,21038,55244
step02_gravity_refstate-crust.xmf,174,-1.31157e-07,1.0966e-06,0,-9.29258e-07,-2.98338e+08,-2.98254e+08,-2.98329e+08,-63747.1,0.00760815,0.148462,0,0.148656,18109.7,-10862.5,0,21117.6,63747.1
step02_gravity_refstate-crust.xmf,175,-1.46247e-07,1.24995e-06,0,-1.02165e-06,-3.39462e+08,-3.39366e+08,-3.39452e+08,-70085.3,0.00747939,0.148334,0,0.148522,17336.3,-12359.8,0,21291.1,70085.3
step02_gravity_refstate-crust.xmf,176,-2.60686e-07,5.96418e-07,0,-4.71717e-07,-1.45321e+08,-1.45262e+08,-1.45303e+08,-32359.8,0.00939035,0.144832,0,0.145136,22562.6,-5290.41,0,23174.5,32359.8
step02_gravity_refstate-crust.xmf,177,-1.60705e-07,7.87855e-07,0,-6.8627e-07,-2.08772e+08,-2.08707e+08,-2.08761e+08,-47078.1,0.00842697,0.147216,0,0.147457,20313.1,-7601.13,0,21688.7,47078.1
step02_gravity_refstate-crust.xmf,178,-5.57555e-07,2.54674e-06,0,-1.63343e-06,-6.36787e+08,-6.36574e+08,-6.36749e+08,-112053,0.00883677,0.141354,0,0.14163,12434.9,-23184.6,0,26308.8,112053
step02_gravity_refstate-crust.xmf,179,-5.61812e-07,2.58152e-06,0,-1.50059e-06,-6.28048e+08,-6.27832e+08,-6.28009e+08,-102940,0.00833531,0.138826,0,0.139076,13441.5,-22866.4,0,26524.5,102940
step02_gravity_refstate-crust.xmf,180,-6.20289e-07,2.68211e-06,0,-1.69718e-06,-6.61989e+08,-6.61762e+08,-6.61946e+08,-116426,0.0089491,0.140844,0,0.141128,11903.9,-24102,0,26881.4,116426
step02_gravity_refstate-crust.xmf,181,-5.16125e-07,2.4249e-06,0,-1.78997e-06,-6.38895e+08,-6.38693e+08,-6.3886e+08,-122792,0.00938694,0.144866,0,0.14517,11392,-23261.3,0,25901,122792
step02_gravity_refstate-crust.xmf,182,-4.78839e-07,2.39101e-06,0,-1.23443e-06,-5.72511e+08,-5.72314e+08,-5.72478e+08,-84681.7,0.00728495,0.135827,0,0.136022,16204.9,-20844.6,0,26402.6,84681.7
step02_gravity_refstate-crust.xmf,183,-4.80893e-07,2.44028e-06,0,-1.11068e-06,-5.73731e+08,-5.7353e+08,-5.73698e+08,-76192.8,0.00661505,0.132214,0,0.13238,17583.6,-20889.1,0,27304.5,76192.8
step02_gravity_refstate-crust.xmf,184,-4.12969e-07,2.30979e-06,0,-8.49718e-07,-5.4208e+08,-5.41894e+08,-5.42052e+08,-58290.7,0.00519388,0.126588,0,0.126695,21400.8,-19736.9,0,29112.5,58290.7
step02_gravity_refstate-crust.xmf,185,-3.46639e-07,2.14451e-06,0,-6.13786e-07,-5.13727e+08,-5.13556e+08,-5.13703e+08,-42105.7,0.00381928,0.121478,0,0.121538,25737.4,-18704.7,0,31816.4,42105.7
step02_gravity_refstate-crust.xmf,186,-3.69709e-07,2.14521e-06,0,-7.14707e-07,-5.096e+08,-5.09428e+08,-5.09575e+08,-49028.9,0.00448985,0.12459,0,0.124671,23961.3,-18554.3,0,30305.2,49028.9
step02_gravity_refstate-crust.xmf,187,-4.59463e-07,2.31653e-06,0,-1.36497e-06,-5.71937e+08,-5.71747e+08,-5.71906e+08,-93637.3,0.00792639,0.139596,0,0.139821,14843.8,-20823.7,0,25572.7,93637.3
step02_gravity_refstate-crust.xmf,188,-5.79144e-07,2.5457e-06,0,-1.87558e-06,-6.63095e+08,-6.62881e+08,-6.63056e+08,-128665,0.00955541,0.144625,0,0.14494,10878.5,-24142.2,0,26480,128665
step02_gravity_refstate-crust.xmf,189,-6.89265e-07,2.82977e-06,0,-1.76279e-06,-6.87475e+08,-6.87234e+08,-6.87428e+08,-120928,0.00900069,0.140338,0,0.140627,11363.9,-25029.8,0,27488.7,120928
step02_gravity_refstate-crust.xmf,190,-6.35981e-07,2.78004e-06,0,-1.52893e-06,-6.61122e+08,-6.60887e+08,-6.61078e+08,-104885,0.00828653,0.137152,0,0.137402,12973.7,-24070.5,0,27344.3,104885
step02_gravity_refstate-crust.xmf,191,-3.23087e-07,2.08807e-06,0,-5.21607e-07,-5.05955e+08,-5.05789e+08,-5.05933e+08,-35782.3,0.00325743,0.119484,0,0.119528,27627.2,-18421.7,0,33205.7,35782.3
step02_gravity_refstate-crust.xmf,192,-2.41138e-07,2.00158e-06,0,-1.52065e-07,-5.07681e+08,-5.07528e+08,-5.07665e+08,-10431.7,0.000916653,0.112328,0,0.112332,36086.7,-18484.8,0,40545.5,10431.7
step02_gravity_refstate-crust.xmf,193,-2.53088e-07,2.02765e-06,0,-2.38994e-07,-5.101e+08,-5.09943e+08,-5.10082e+08,-16395,0.00144087,0.11325,0,0.113259,33914.5,-18572.8,0,38667.1,16395
step02_gravity_refstate-crust.xmf,194,-2.73598e-07,2.04334e-06,0,-3.29769e-07,-5.08122e+08,-5.07963e+08,-5.08103e+08,-22622.1,0.00201542,0.114957,0,0.114975,31766.8,-18500.7,0,36761.5,22622.1
step02_gravity_refstate-crust.xmf,195,-2.97742e-07,2.06168e-06,0,-4.2424e-07,-5.06035e+08,-5.05873e+08,-5.06015e+08,-29102.9,0.00262798,0.117105,0,0.117134,29664.2,-18424.7,0,34920.4,29102.9
step02_gravity_refstate-crust.xmf,196,-2.30731e-07,1.98802e-06,0,-1.04682e-09,-5.07292e+08,-5.0714e+08,-5.07276e+08,-71.8119,3.45564e-20,0.111583,0,0.111583,40000,-18470.6,0,44058.6,71.8119
step02_gravity_refstate-crust.xmf,197,-3.70184e-07,2.0849e-06,0,-1.42414e-06,-5.42211e+08,-5.42042e+08,-5.42185e+08,-97696.2,0.00825107,0.143895,0,0.144131,14166.2,-19741.5,0,24298.3,97696.2
step02_gravity_refstate-crust.xmf,198,-3.28649e-07,1.95884e-06,0,-1.3557e-06,-5.12413e+08,-5.12256e+08,-5.1239e+08,-93000.8,0.00801396,0.144395,0,0.144618,14780.2,-18656.6,0,23801.8,93000.8
step02_gravity_refstate-crust.xmf,199,-3.40462e-07,2.04541e-06,0,-1.61747e-06,-5.6742e+08,-5.67256e+08,-5.67397e+08,-110959,0.00893846,0.147372,0,0.147643,12362.5,-20659.3,0,24075.7,110959
step02_gravity_refstate-crust.xmf,200,-2.17399e-07,1.65359e-06,0,-1.27985e-06,-4.51248e+08,-4.51119e+08,-4.51233e+08,-87797.7,0.00783825,0.147797,0,0.148005,15015.6,-16429.8,0,22257.7,87797.7
step02_gravity_refstate-crust.xmf,201,-1.03834e-07,1.24171e-06,0,-1.09034e-06,-3.50876e+08,-3.50784e+08,-3.50869e+08,-74797.4,0.00760946,0.150669,0,0.150861,16033,-12775.5,0,20500.5,74797.4
step02_gravity_refstate-crust.xmf,202,-3.19873e-07,4.18023e-07,0,-3.08525e-07,-8.9131e+07,-8.90804e+07,-8.91091e+07,-21164.8,0.0110322,0.145206,0,0.145624,22964.8,-3244.26,0,23192.8,21164.8
step02_gravity_refstate-crust.xmf,203,-5.54241e-07,2.11573e-07,0,-1.26789e-09,-52595.3,-60.4455,-14574.4,-86.9772,0.0144281,0.144303,0,0.145023,24208.2,0,0,24208.2,86.9772
step02_gravity_refstate-crust.xmf,204,-1.5243e-07,5.88718e-07,0,-5.62825e-07,-1.56684e+08,-1.56633e+08,-1.56674e+08,-38609.8,0.00953706,0.14836,0,0.148666,20401.1,-5704.54,0,21183.6,38609.8
step02_gravity_refstate-crust.xmf,205,-8.12218e-08,6.8955e-07,0,-6.96687e-07,-1.93908e+08,-1.93855e+08,-1.93903e+08,-47792.7,0.00888161,0.150425,0,0.150687,18827.3,-7060.16,0,20107.5,47792.7
step02_gravity_refstate-crust.xmf,206,-4.6223e-07,2.31453e-06,0,-1.71995e-06,-6.16657e+08,-6.16466e+08,-6.16625e+08,-117989,0.00921711,0.145214,0,0.145506,11832.7,-22451.7,0,25379,117989
step02_gravity_refstate-crust.xmf,207,-6.54581e-07,2.68521e-06,0,-1.96426e-06,-6.88048e+08,-6.87819e+08,-6.88003e+08,-134749,0.00966404,0.144336,0,0.14466,10366,-25050.6,0,27110.6,134749
step02_gravity_refstate-crust.xmf,208,-7.33871e-07,2.83031e-06,0,-2.05599e-06,-7.12149e+08,-7.11905e+08,-7.12099e+08,-141041,0.00971294,0.144233,0,0.14456,9838.49,-25927.9,0,27731.8,141041
step02_gravity_refstate-crust.xmf,209,-5.83294e-07,2.48398e-06,0,-2.1784e-06,-6.88271e+08,-6.8806e+08,-6.88231e+08,-149438,0.010262,0.148544,0,0.148899,9396.8,-25058.7,0,26762.6,149438
step02_gravity_refstate-crust.xmf,210,-6.67165e-07,2.60499e-06,0,-2.31308e-06,-7.11945e+08,-7.11721e+08,-7.11899e+08,-158677,0.0103952,0.148849,0,0.149212,8867.12,-25920.4,0,27395.1,158677
step02_gravity_refstate-crust.xmf,211,-8.26776e-07,2.99009e-06,0,-2.15527e-06,-7.36755e+08,-7.36493e+08,-7.36698e+08,-147851,0.00965082,0.144174,0,0.144497,9302.89,-26823.6,0,28391,147851
step02_gravity_refstate-crust.xmf,212,-7.62622e-07,2.9896e-06,0,-1.82415e-06,-7.12785e+08,-7.12528e+08,-7.12733e+08,-125137,0.00895824,0.139822,0,0.140109,10831.6,-25951.2,0,28121,125137
step02_gravity_refstate-crust.xmf,213,-4.67078e-07,2.47071e-06,0,-9.90277e-07,-5.75474e+08,-5.75273e+08,-5.75442e+08,-67933,0.00591894,0.128683,0,0.128819,19019.7,-20952.6,0,28297.7,67933
step02_gravity_refstate-crust.xmf,214,-4.44899e-07,2.48377e-06,0,-8.77653e-07,-5.78115e+08,-5.77914e+08,-5.78084e+08,-60207,0.00520269,0.125187,0,0.125295,20532.1,-21048.9,0,29404.4,60207
step02_gravity_refstate-crust.xmf,215,-3.88899e-07,2.32492e-06,0,-7.42518e-07,-5.47799e+08,-5.47613e+08,-5.47772e+08,-50936.8,0.00448462,0.123076,0,0.123158,23032.1,-19945.2,0,30467.9,50936.8
step02_gravity_refstate-crust.xmf,216,-5.282e-07,2.54391e-06,0,-1.28309e-06,-6.0319e+08,-6.0298e+08,-6.03154e+08,-88019.7,0.00743042,0.135063,0,0.135267,15472.8,-21961.5,0,26864.8,88019.7
step02_gravity_refstate-crust.xmf,217,-6.99083e-07,2.93857e-06,0,-1.57172e-06,-6.87849e+08,-6.876e+08,-6.87801e+08,-107820,0.00825875,0.136306,0,0.136556,12424,-25043.6,0,27955.9,107820
step02_gravity_refstate-crust.xmf,218,-5.79431e-07,2.69077e-06,0,-1.33307e-06,-6.31882e+08,-6.31658e+08,-6.31842e+08,-91448.9,0.00755437,0.134421,0,0.134634,14748.3,-23006.1,0,27327.5,91448.9
step02_gravity_refstate-crust.xmf,219,-6.32561e-07,2.84888e-06,0,-1.36704e-06,-6.60588e+08,-6.60349e+08,-6.60544e+08,-93779.2,0.00755473,0.133396,0,0.13361,14138.3,-24051.2,0,27898.9,93779.2
step02_gravity_refstate-crust.xmf,220,-2.00508e-07,2.13706e-06,0,-9.04676e-08,-5.47402e+08,-5.47242e+08,-5.47388e+08,-6206.08,0.000478584,0.108864,0,0.108865,37574.2,-19931.2,0,42533.2,6206.08
step02_gravity_refstate-crust.xmf,221,-3.64864e-07,2.11365e-06,0,-1.72222e-06,-5.92217e+08,-5.92047e+08,-5.92192e+08,-118144,0.00927553,0.147894,0,0.148185,11624.1,-21562,0,24495.7,118144
step02_gravity_refstate-crust.xmf,222,-3.2526e-07,1.99852e-06,0,-1.52886e-06,-5.46279e+08,-5.4612e+08,-5.46257e+08,-104880,0.00864191,0.146801,0,0.147056,13059.4,-19889.6,0,23793.8,104880
step02_gravity_refstate-crust.xmf,223,-1.1122e-07,1.32929e-06,0,-1.1696e-06,-3.80992e+08,-3.80893e+08,-3.80984e+08,-80234.5,0.00767576,0.150977,0,0.151172,15275.5,-13872,0,20634.3,80234.5
step02_gravity_refstate-crust.xmf,224,-1.20284e-07,1.42532e-06,0,-1.25976e-06,-4.14811e+08,-4.14705e+08,-4.14803e+08,-86419.6,0.00783867,0.151316,0,0.151519,14415.4,-15103.3,0,20878.5,86419.6
step02_gravity_refstate-crust.xmf,225,-2.33117e-07,1.74339e-06,0,-1.37151e-06,-4.8214e+08,-4.82005e+08,-4.82124e+08,-94085.9,0.00812693,0.148181,0,0.148404,14124,-17554.6,0,22531.1,94085.9
step02_gravity_refstate-crust.xmf,226,-4.30463e-08,9.03791e-07,0,-8.9884e-07,-2.62201e+08,-2.62136e+08,-2.62198e+08,-61660.5,0.00801257,0.152101,0,0.152312,16981.8,-9546.93,0,19481.4,61660.5
step02_gravity_refstate-crust.xmf,227,-4.35461e-08,1.04958e-06,0,-1.02168e-06,-3.08698e+08,-3.08623e+08,-3.08695e+08,-70087.2,0.00773945,0.152686,0,0.152882,15914.7,-11239.9,0,19483.7,70087.2
step02_gravity_refstate-crust.xmf,228,-3.89467e-07,2.69899e-07,0,-1.44287e-07,-3.84362e+07,-3.83909e+07,-3.84094e+07,-9898.07,0.0130775,0.145708,0,0.146293,23048.2,-1398.15,0,23090.5,9898.07
step02_gravity_refstate-crust.xmf,229,-2.08938e-07,4.42984e-07,0,-4.09203e-07,-1.09619e+08,-1.09574e+08,-1.09604e+08,-28071.3,0.0107602,0.147666,0,0.148057,21294.4,-3990.61,0,21665.1,28071.3
step02_gravity_refstate-crust.xmf,230,-3.70357e-08,7.64681e-07,0,-7.93693e-07,-2.22151e+08,-2.22096e+08,-2.22148e+08,-54447.3,0.00847104,0.152025,0,0.15226,17623.3,-8088.66,0,19390.9,54447.3
step02_gravity_refstate-crust.xmf,231,-3.89832e-07,2.15972e-06,0,-1.84238e-06,-6.15392e+08,-6.15217e+08,-6.15366e+08,-126387,0.00960482,0.14854,0,0.14885,10921.1,-22405.7,0,24925.6,126387
step02_gravity_refstate-crust.xmf,232,-4.44344e-07,2.26039e-06,0,-1.94583e-06,-6.39874e+08,-6.39688e+08,-6.39843e+08,-133484,0.00985635,0.148471,0,0.148798,10412.6,-23297,0,25518,133484
step02_gravity_refstate-crust.xmf,233,-5.11331e-07,2.37317e-06,0,-2.0558e-06,-6.64482e+08,-6.64284e+08,-6.64447e+08,-141028,0.0100735,0.148386,0,0.148728,9917.55,-24192.7,0,26146.6,141028
step02_gravity_refstate-crust.xmf,234,-4.64416e-07,2.21273e-06,0,-2.39645e-06,-6.87777e+08,-6.87594e+08,-6.87745e+08,-164397,0.0107509,0.152919,0,0.153297,8465.23,-25040.8,0,26432.9,164397
step02_gravity_refstate-crust.xmf,235,-7.48666e-07,2.69807e-06,0,-2.49279e-06,-7.34406e+08,-7.34169e+08,-7.34355e+08,-171006,0.0105342,0.149949,0,0.150318,8234.56,-26737.9,0,27977.2,171006
step02_gravity_refstate-crust.xmf,236,-8.3583e-07,3.15654e-06,0,-1.88346e-06,-7.37425e+08,-7.37151e+08,-7.37368e+08,-129205,0.00881307,0.13942,0,0.139698,10292.9,-26848.2,0,28753.6,129205
step02_gravity_refstate-crust.xmf,237,-5.26866e-07,2.60444e-06,0,-1.14571e-06,-6.06167e+08,-6.05952e+08,-6.06131e+08,-78595.6,0.00668186,0.131108,0,0.131278,16839.8,-22070,0,27760.9,78595.6
step02_gravity_refstate-crust.xmf,238,-5.0868e-07,2.64137e-06,0,-1.01839e-06,-6.09593e+08,-6.09377e+08,-6.09558e+08,-69861.7,0.0059308,0.127364,0,0.127502,18218.6,-22194.9,0,28714.6,69861.7
step02_gravity_refstate-crust.xmf,239,-4.11527e-07,2.48815e-06,0,-7.68878e-07,-5.81978e+08,-5.81779e+08,-5.81949e+08,-52745,0.0044862,0.121759,0,0.121842,22105.6,-21189.7,0,30621.2,52745
step02_gravity_refstate-crust.xmf,240,-3.23363e-07,2.29727e-06,0,-5.40672e-07,-5.53829e+08,-5.53649e+08,-5.53806e+08,-37090.1,0.00312829,0.116905,0,0.116947,26679.4,-20164.9,0,33442.7,37090.1
step02_gravity_refstate-crust.xmf,241,-3.58508e-07,2.32519e-06,0,-6.39081e-07,-5.5321e+08,-5.53025e+08,-5.53185e+08,-43840.9,0.00377465,0.119703,0,0.119762,24789.6,-20142.3,0,31941.2,43840.9
step02_gravity_refstate-crust.xmf,242,-7.61344e-07,3.09924e-06,0,-1.61367e-06,-7.13628e+08,-7.13363e+08,-7.13576e+08,-110698,0.00815891,0.135601,0,0.135846,11856.5,-25982.1,0,28559.5,110698
step02_gravity_refstate-crust.xmf,243,-6.86387e-07,3.01073e-06,0,-1.39572e-06,-6.88412e+08,-6.88158e+08,-6.88365e+08,-95746.7,0.00747663,0.132378,0,0.132588,13537.6,-25064.2,0,28486.5,95746.7
step02_gravity_refstate-crust.xmf,244,-2.89991e-07,2.26238e-06,0,-4.49552e-07,-5.53257e+08,-5.53082e+08,-5.53237e+08,-30839.2,0.00254706,0.114553,0,0.114581,28606.1,-20144.2,0,34987.1,30839.2
step02_gravity_refstate-crust.xmf,245,-2.0956e-07,2.17934e-06,0,-1.84807e-07,-5.54413e+08,-5.54249e+08,-5.54399e+08,-12677.8,0.000977845,0.10925,0,0.109254,35007.7,-20186.5,0,40410.8,12677.8
step02_gravity_refstate-crust.xmf,246,-2.2825e-07,2.21469e-06,0,-2.69346e-07,-5.57414e+08,-5.57247e+08,-5.57399e+08,-18477.1,0.00144054,0.110331,0,0.11034,32805.8,-20295.7,0,38576.4,18477.1
step02_gravity_refstate-crust.xmf,247,-2.57643e-07,2.23515e-06,0,-3.59238e-07,-5.5472e+08,-5.54549e+08,-5.54703e+08,-24643.8,0.00198108,0.112322,0,0.112339,30643,-20197.6,0,36700.6,24643.8
step02_gravity_refstate-crust.xmf,248,-1.709e-07,2.22794e-06,0,-7.41147e-10,-5.74467e+08,-5.74302e+08,-5.74455e+08,-50.8427,2.04679e-20,0.106427,0,0.106427,40000,-20916.8,0,45138.8,50.8427
step02_gravity_refstate-crust.xmf,249,-2.56656e-07,1.82973e-06,0,-1.47853e-06,-5.14904e+08,-5.14761e+08,-5.14886e+08,-101427,0.00847319,0.148483,0,0.148724,13234,-18747.4,0,22947.8,101427
step02_gravity_refstate-crust.xmf,250,-2.3636e-07,1.85593e-06,0,-1.7248e-06,-5.64647e+08,-5.64504e+08,-5.64631e+08,-118321,0.00925409,0.151227,0,0.151509,11217.9,-20558.5,0,23419.9,118321
step02_gravity_refstate-crust.xmf,251,-2.22175e-07,1.80736e-06,0,-1.61243e-06,-5.38185e+08,-5.38046e+08,-5.3817e+08,-110613,0.00890568,0.150684,0,0.150947,11953.8,-19595.1,0,22953.4,110613
step02_gravity_refstate-crust.xmf,252,-1.28161e-07,1.51692e-06,0,-1.35131e-06,-4.47742e+08,-4.47629e+08,-4.47733e+08,-92700,0.00807832,0.1517,0,0.151915,13553.9,-16302.3,0,21200.8,92700
step02_gravity_refstate-crust.xmf,253,-2.59668e-08,1.13706e-06,0,-1.1179e-06,-3.43216e+08,-3.43136e+08,-3.43214e+08,-76688,0.00770124,0.153894,0,0.154087,14738,-12496.8,0,19323,76688
step02_gravity_refstate-crust.xmf,254,-2.26535e-07,2.60941e-07,0,-2.33321e-07,-5.50624e+07,-5.5029e+07,-5.50469e+07,-16005.8,0.0129439,0.148851,0,0.149413,21009.4,-2004.09,0,21104.7,16005.8
step02_gravity_refstate-crust.xmf,255,-3.65867e-07,1.39201e-07,0,-1.19624e-09,-34739,-91.3267,-9640.53,-82.0623,0.0155113,0.147844,0,0.148655,21869,0,0,21869,82.0623
step02_gravity_refstate-crust.xmf,256,-9.90413e-08,3.69951e-07,0,-4.18778e-07,-1.01895e+08,-1.01863e+08,-1.01889e+08,-28728.2,0.0112935,0.150883,0,0.151305,19534.4,-3709.78,0,19883.6,28728.2
step02_gravity_refstate-crust.xmf,257,-3.17988e-08,4.88662e-07,0,-5.73257e-07,-1.44189e+08,-1.44153e+08,-1.44187e+08,-39325.4,0.0100474,0.152324,0,0.152655,18389.9,-5249.97,0,19124.6,39325.4
step02_gravity_refstate-crust.xmf,258,1.87282e-08,6.01393e-07,0,-7.10644e-07,-1.84199e+08,-1.84159e+08,-1.842e+08,-48750.2,0.00912206,0.153904,0,0.154174,17149,-6706.96,0,18413.9,48750.2
step02_gravity_refstate-crust.xmf,259,-5.30547e-07,2.27947e-06,0,-2.56626e-06,-7.08947e+08,-7.08754e+08,-7.0891e+08,-176045,0.0109605,0.153738,0,0.154128,7955.49,-25811.3,0,27009.5,176045
step02_gravity_refstate-crust.xmf,260,-4.05381e-07,2.1438e-06,0,-2.24162e-06,-6.65624e+08,-6.65449e+08,-6.65596e+08,-153775,0.0105046,0.152326,0,0.152688,8976.79,-24234.4,0,25843.5,153775
step02_gravity_refstate-crust.xmf,261,-6.72679e-07,2.48591e-06,0,-2.78954e-06,-7.40901e+08,-7.40684e+08,-7.40855e+08,-191363,0.0110657,0.154391,0,0.154787,7343.45,-26974.4,0,27956.1,191363
step02_gravity_refstate-crust.xmf,262,-8.66899e-07,2.93825e-06,0,-2.55799e-06,-7.59887e+08,-7.59626e+08,-7.59828e+08,-175478,0.0102578,0.149308,0,0.14966,7886.74,-27665.5,0,28767.7,175478
step02_gravity_refstate-crust.xmf,263,-9.18566e-07,3.17387e-06,0,-2.2369e-06,-7.61144e+08,-7.60863e+08,-7.61081e+08,-153451,0.00940643,0.144028,0,0.144335,8800.99,-27711.4,0,29075.4,153451
step02_gravity_refstate-crust.xmf,264,-9.13506e-07,3.32768e-06,0,-1.9444e-06,-7.61632e+08,-7.61341e+08,-7.61569e+08,-133386,0.00852214,0.139084,0,0.139345,9756.75,-27729.4,0,29395.8,133386
step02_gravity_refstate-crust.xmf,265,-8.20151e-07,3.2625e-06,0,-1.65194e-06,-7.38411e+08,-7.38131e+08,-7.38355e+08,-113323,0.00795802,0.134994,0,0.135228,11291.2,-26884.3,0,29159.2,113323
step02_gravity_refstate-crust.xmf,266,-4.74658e-07,2.65557e-06,0,-8.97037e-07,-6.12374e+08,-6.1216e+08,-6.12342e+08,-61536.7,0.00517887,0.123786,0,0.123895,19677.8,-22296.3,0,29737.9,61536.7
step02_gravity_refstate-crust.xmf,267,-4.38989e-07,2.65377e-06,0,-7.91794e-07,-6.1562e+08,-6.15408e+08,-6.1559e+08,-54317.1,0.00446449,0.120439,0,0.120522,21148.8,-22414.6,0,30817,54317.1
step02_gravity_refstate-crust.xmf,268,-3.73205e-07,2.52568e-06,0,-6.6015e-07,-5.95733e+08,-5.95534e+08,-5.95708e+08,-45286.3,0.00370784,0.117757,0,0.117815,23667.2,-21690.7,0,32103.3,45286.3
step02_gravity_refstate-crust.xmf,269,-5.70311e-07,2.76491e-06,0,-1.17203e-06,-6.3633e+08,-6.36101e+08,-6.3629e+08,-80401.3,0.00669848,0.130017,0,0.130189,16141,-23168.2,0,28236.4,80401.3
step02_gravity_refstate-crust.xmf,270,-7.3755e-07,3.17218e-06,0,-1.42112e-06,-7.14961e+08,-7.14693e+08,-7.14911e+08,-97489.1,0.00731731,0.131458,0,0.131662,12936.3,-26030.8,0,29068,97489.1
step02_gravity_refstate-crust.xmf,271,-6.14475e-07,2.91621e-06,0,-1.20074e-06,-6.64421e+08,-6.64178e+08,-6.64379e+08,-82370.9,0.00668469,0.129095,0,0.129268,15434.1,-24190.9,0,28695.2,82370.9
step02_gravity_refstate-crust.xmf,272,-6.57874e-07,3.05583e-06,0,-1.23615e-06,-6.89638e+08,-6.89383e+08,-6.89593e+08,-84799.8,0.00667437,0.128552,0,0.128725,14694.2,-25109,0,29092.6,84799.8
step02_gravity_refstate-crust.xmf,273,-1.6401e-07,2.31086e-06,0,-1.31541e-07,-5.94195e+08,-5.94026e+08,-5.94184e+08,-9023.7,0.000590649,0.10548,0,0.105482,36223.8,-21635.2,0,42193,9023.7
step02_gravity_refstate-crust.xmf,274,-1.38397e-07,2.36358e-06,0,-6.9377e-08,-6.12254e+08,-6.12083e+08,-6.12245e+08,-4759.26,0.000278689,0.103468,0,0.103468,37950.3,-22292.8,0,44013.6,4759.26
step02_gravity_refstate-crust.xmf,275,-2.52724e-07,1.90628e-06,0,-1.84371e-06,-5.90111e+08,-5.89963e+08,-5.90094e+08,-126478,0.00960352,0.151803,0,0.152107,10528.2,-21485.5,0,23926.3,126478
step02_gravity_refstate-crust.xmf,276,-2.2514e-08,1.21167e-06,0,-1.21126e-06,-3.77286e+08,-3.77201e+08,-3.77285e+08,-83092.7,0.00776588,0.154527,0,0.154722,13824.5,-13737.3,0,19489.2,83092.7
step02_gravity_refstate-crust.xmf,277,-2.04403e-08,1.28476e-06,0,-1.30442e-06,-4.1111e+08,-4.11021e+08,-4.11109e+08,-89483.1,0.00792423,0.155029,0,0.155231,12970.2,-14968.8,0,19806.3,89483.1
step02_gravity_refstate-crust.xmf,278,-1.3354e-07,1.58475e-06,0,-1.44867e-06,-4.78412e+08,-4.78295e+08,-4.78403e+08,-99379.1,0.00836633,0.152186,0,0.152415,12714.3,-17419,0,21565.6,99379.1
step02_gravity_refstate-crust.xmf,279,4.10477e-08,7.16147e-07,0,-8.29517e-07,-2.23098e+08,-2.23051e+08,-2.231e+08,-56904.9,0.00845462,0.154958,0,0.155189,16145.3,-8123.37,0,18073.8,56904.9
step02_gravity_refstate-crust.xmf,280,4.98041e-08,8.3504e-07,0,-9.43645e-07,-2.64108e+08,-2.64055e+08,-2.64112e+08,-64734.1,0.00799001,0.15576,0,0.155965,15186.6,-9616.62,0,17975.3,64734.1
step02_gravity_refstate-crust.xmf,281,6.0892e-08,9.33138e-07,0,-1.04709e-06,-3.02949e+08,-3.02889e+08,-3.02953e+08,-71830.7,0.00774329,0.156648,0,0.156839,14174.7,-11030.8,0,17961.1,71830.7
step02_gravity_refstate-crust.xmf,282,-8.09219e-07,2.66628e-06,0,-2.92504e-06,-7.63192e+08,-7.62954e+08,-7.63137e+08,-200658,0.010916,0.15448,0,0.154865,6995.05,-27785.6,0,28652.6,200658
step02_gravity_refstate-crust.xmf,283,-5.32814e-07,2.24924e-06,0,-2.73176e-06,-7.22004e+08,-7.21813e+08,-7.21967e+08,-187398,0.0111711,0.155398,0,0.155799,7449.72,-26286.6,0,27321.8,187398
step02_gravity_refstate-crust.xmf,284,-2.82063e-07,1.95486e-06,0,-1.97716e-06,-6.15376e+08,-6.15222e+08,-6.15356e+08,-135633,0.00994071,0.152222,0,0.152546,9922.57,-22405.2,0,24504.1,135633
step02_gravity_refstate-crust.xmf,285,-3.48481e-07,2.06562e-06,0,-2.10248e-06,-6.41978e+08,-6.41812e+08,-6.41954e+08,-144230,0.0102333,0.152028,0,0.152372,9474.66,-23373.6,0,25220.9,144230
step02_gravity_refstate-crust.xmf,286,-2.40903e-07,1.83173e-06,0,-2.42072e-06,-6.65244e+08,-6.65102e+08,-6.65228e+08,-166062,0.0108033,0.156556,0,0.156928,8044.39,-24220.7,0,25521.7,166062
step02_gravity_refstate-crust.xmf,287,-2.75954e-07,1.84566e-06,0,-2.60757e-06,-6.86083e+08,-6.85937e+08,-6.86064e+08,-178879,0.011086,0.157569,0,0.157959,7542.65,-24979.3,0,26093.2,178879
step02_gravity_refstate-crust.xmf,288,-7.84924e-07,2.53139e-06,0,-3.21001e-06,-7.7381e+08,-7.73582e+08,-7.73756e+08,-220207,0.0111573,0.157794,0,0.158188,6359.35,-28172.1,0,28880.9,220207
step02_gravity_refstate-crust.xmf,289,-9.6967e-07,3.01805e-06,0,-2.92036e-06,-7.88437e+08,-7.88164e+08,-7.88371e+08,-200337,0.0102335,0.152833,0,0.153176,6853.12,-28704.6,0,29511.3,200337
step02_gravity_refstate-crust.xmf,290,-9.46755e-07,3.07835e-06,0,-2.66023e-06,-7.78526e+08,-7.7825e+08,-7.78461e+08,-182492,0.0100019,0.149612,0,0.149946,7503.34,-28344,0,29320.3,182492
step02_gravity_refstate-crust.xmf,291,-8.70987e-07,3.42916e-06,0,-1.68297e-06,-7.62341e+08,-7.62046e+08,-7.62281e+08,-115452,0.0076208,0.134431,0,0.134646,10741.8,-27755.6,0,29761.7,115452
step02_gravity_refstate-crust.xmf,292,-5.46387e-07,2.80481e-06,0,-1.03496e-06,-6.41084e+08,-6.40854e+08,-6.41046e+08,-70998.2,0.00586964,0.125981,0,0.126118,17504.5,-23341.4,0,29175.9,70998.2
step02_gravity_refstate-crust.xmf,293,-5.08183e-07,2.82335e-06,0,-9.1182e-07,-6.45722e+08,-6.45493e+08,-6.45687e+08,-62550.9,0.00508031,0.122257,0,0.122362,18869,-23510.5,0,30146,62550.9
step02_gravity_refstate-crust.xmf,294,-4.05241e-07,2.62676e-06,0,-7.18345e-07,-6.14161e+08,-6.13953e+08,-6.14134e+08,-49278.5,0.00397997,0.118314,0,0.118381,22350.6,-22361.6,0,31616.3,49278.5
step02_gravity_refstate-crust.xmf,295,-2.82941e-07,2.4597e-06,0,-4.62923e-07,-5.99411e+08,-5.99223e+08,-5.99392e+08,-31756.5,0.00238034,0.111763,0,0.111789,27608.9,-21824.8,0,35193.4,31756.5
step02_gravity_refstate-crust.xmf,296,-3.2727e-07,2.49691e-06,0,-5.55168e-07,-5.98568e+08,-5.98374e+08,-5.98545e+08,-38084.5,0.00297869,0.114419,0,0.114457,25660.3,-21794,0,33666.4,38084.5
step02_gravity_refstate-crust.xmf,297,-7.82867e-07,3.3314e-06,0,-1.44334e-06,-7.40113e+08,-7.39831e+08,-7.40059e+08,-99013.1,0.00706467,0.130659,0,0.13085,12340.2,-26946.5,0,29637.8,99013.1
step02_gravity_refstate-crust.xmf,298,-6.96676e-07,3.21201e-06,0,-1.24981e-06,-7.16398e+08,-7.1613e+08,-7.1635e+08,-85736.7,0.00647035,0.127478,0,0.127642,14065.3,-26083.3,0,29634,85736.7
step02_gravity_refstate-crust.xmf,299,-2.43428e-07,2.4277e-06,0,-3.79194e-07,-6.0108e+08,-6.00896e+08,-6.01063e+08,-26012.7,0.00186064,0.109463,0,0.109479,29537.1,-21885.7,0,36761.7,26012.7
step02_gravity_refstate-crust.xmf,300,-1.6787e-07,2.39747e-06,0,-2.0499e-07,-6.1232e+08,-6.12144e+08,-6.12308e+08,-14062.3,0.00087355,0.104959,0,0.104963,33998.4,-22295.1,0,40656.7,14062.3
step02_gravity_refstate-crust.xmf,301,-2.07074e-07,2.40559e-06,0,-2.9857e-07,-6.0472e+08,-6.04541e+08,-6.04706e+08,-20481.9,0.00138545,0.107329,0,0.107338,31523.4,-22018.3,0,38451.6,20481.9
step02_gravity_refstate-crust.xmf,302,-1.05844e-07,2.45718e-06,0,-7.84068e-10,-6.40885e+08,-6.4071e+08,-6.40878e+08,-53.7871,1.10141e-20,0.100761,0,0.100761,40000,-23335.4,0,46309.2,53.7871
step02_gravity_refstate-crust.xmf,303,-1.00678e-07,1.62941e-06,0,-1.81921e-06,-5.63199e+08,-5.6308e+08,-5.63192e+08,-124798,0.00943367,0.155078,0,0.155365,10074.9,-20505.9,0,22847.2,124798
step02_gravity_refstate-crust.xmf,304,-1.02534e-07,1.60982e-06,0,-1.69309e-06,-5.36317e+08,-5.36199e+08,-5.3631e+08,-116146,0.00907964,0.154376,0,0.154643,10789.1,-19527.2,0,22309.6,116146
step02_gravity_refstate-crust.xmf,305,-1.27806e-07,1.60883e-06,0,-1.55261e-06,-5.05371e+08,-5.05252e+08,-5.05362e+08,-106509,0.00867555,0.152989,0,0.153234,11865,-18400.5,0,21894.2,106509
step02_gravity_refstate-crust.xmf,306,-1.5515e-08,1.35226e-06,0,-1.39868e-06,-4.43761e+08,-4.43667e+08,-4.4376e+08,-95949.7,0.00815443,0.155538,0,0.155751,12144.1,-16157.6,0,20212.6,95949.7
step02_gravity_refstate-crust.xmf,307,7.49535e-08,1.01529e-06,0,-1.13831e-06,-3.38495e+08,-3.3843e+08,-3.385e+08,-78088.3,0.00766102,0.15751,0,0.157696,13205.8,-12325.1,0,18063.9,78088.3
step02_gravity_refstate-crust.xmf,308,-1.60522e-07,6.01017e-08,0,-3.07659e-09,-15282.8,-148.08,-4271.06,-211.054,0.0161161,0.151556,0,0.15241,19595.1,0,0,19595.1,211.054
step02_gravity_refstate-crust.xmf,309,-3.49248e-08,1.73341e-07,0,-2.41909e-07,-5.11047e+07,-5.10905e+07,-5.11023e+07,-16595,0.0134442,0.153121,0,0.15371,18564.3,-1860.65,0,18657.3,16595
step02_gravity_refstate-crust.xmf,310,4.91806e-08,2.91933e-07,0,-4.32809e-07,-9.69915e+07,-9.69749e+07,-9.69949e+07,-29690.7,0.0115191,0.154726,0,0.155154,17462.9,-3531.73,0,17816.5,29690.7
step02_gravity_refstate-crust.xmf,311,9.93611e-08,4.11748e-07,0,-5.92174e-07,-1.3982e+08,-1.39799e+08,-1.39827e+08,-40623.2,0.0100968,0.156168,0,0.156494,16401.9,-5091.33,0,17173.9,40623.2
step02_gravity_refstate-crust.xmf,312,1.26248e-07,5.30441e-07,0,-7.29017e-07,-1.81243e+08,-1.81215e+08,-1.81251e+08,-50010.6,0.00905227,0.157362,0,0.157622,15415.3,-6599.65,0,16768.7,50010.6
step02_gravity_refstate-crust.xmf,313,-5.77621e-07,2.12167e-06,0,-3.29417e-06,-7.56508e+08,-7.56323e+08,-7.56468e+08,-225980,0.0116003,0.160543,0,0.160962,6176.31,-27542.4,0,28226.4,225980
step02_gravity_refstate-crust.xmf,314,-8.78448e-07,2.66406e-06,0,-3.34661e-06,-7.89407e+08,-7.89164e+08,-7.89347e+08,-229578,0.0109308,0.158602,0,0.158979,6050.94,-28739.7,0,29369.8,229578
step02_gravity_refstate-crust.xmf,315,-6.16851e-07,2.10379e-06,0,-3.54346e-06,-7.715e+08,-7.71313e+08,-7.71458e+08,-243081,0.0116539,0.162669,0,0.163086,5721.35,-28088,0,28664.8,243081
step02_gravity_refstate-crust.xmf,316,-5.69299e-07,2.18014e-06,0,-3.0813e-06,-7.44437e+08,-7.44248e+08,-7.44398e+08,-211377,0.0114645,0.158464,0,0.158879,6632.84,-27103,0,27902.9,211377
step02_gravity_refstate-crust.xmf,317,-3.05162e-07,1.83511e-06,0,-2.81541e-06,-7.05158e+08,-7.05012e+08,-7.05137e+08,-193137,0.0113412,0.158937,0,0.159341,7036.88,-25673.6,0,26620.5,193137
step02_gravity_refstate-crust.xmf,318,-3.65892e-07,1.84371e-06,0,-3.06121e-06,-7.25719e+08,-7.25567e+08,-7.25694e+08,-209999,0.0115699,0.160416,0,0.160832,6539.59,-26421.9,0,27219.2,209999
step02_gravity_refstate-crust.xmf,319,-2.0303e-07,1.80167e-06,0,-2.25054e-06,-6.42543e+08,-6.42406e+08,-6.42529e+08,-154387,0.010494,0.15587,0,0.156223,8539.7,-23394.4,0,24904.3,154387
step02_gravity_refstate-crust.xmf,320,-9.39672e-07,2.79253e-06,0,-3.52788e-06,-8.06886e+08,-8.0663e+08,-8.06821e+08,-242013,0.010539,0.160089,0,0.160435,5652.23,-29376,0,29914.8,242013
step02_gravity_refstate-crust.xmf,321,-6.95224e-07,2.15694e-06,0,-3.79721e-06,-7.88429e+08,-7.88233e+08,-7.88381e+08,-260488,0.0115401,0.164607,0,0.165011,5312.33,-28704.1,0,29191.5,260488
step02_gravity_refstate-crust.xmf,322,-1.00151e-06,3.36542e-06,0,-2.32786e-06,-7.85707e+08,-7.85407e+08,-7.85638e+08,-159691,0.00898042,0.144201,0,0.14448,8250.88,-28605.6,0,29771.8,159691
step02_gravity_refstate-crust.xmf,323,-1.02051e-06,3.33905e-06,0,-2.56329e-06,-7.95014e+08,-7.94715e+08,-7.94944e+08,-175842,0.0092625,0.147498,0,0.147789,7533.23,-28944.3,0,29908.6,175842
step02_gravity_refstate-crust.xmf,324,-9.71068e-07,3.50868e-06,0,-1.98651e-06,-7.84826e+08,-7.84519e+08,-7.8476e+08,-136275,0.0080426,0.138743,0,0.138976,9253.71,-28573.9,0,30035,136275
step02_gravity_refstate-crust.xmf,325,-9.17928e-07,3.59195e-06,0,-1.71329e-06,-7.85378e+08,-7.85069e+08,-7.85315e+08,-117532,0.00711861,0.133892,0,0.134081,10215.3,-28594.3,0,30364.3,117532
step02_gravity_refstate-crust.xmf,326,-8.18609e-07,3.48768e-06,0,-1.46173e-06,-7.63951e+08,-7.63655e+08,-7.63895e+08,-100275,0.00670045,0.129964,0,0.130137,11757.3,-27814.5,0,30197.3,100275
step02_gravity_refstate-crust.xmf,327,-4.5678e-07,2.81887e-06,0,-7.96185e-07,-6.48872e+08,-6.48648e+08,-6.48841e+08,-54618.3,0.0043188,0.118745,0,0.118824,20343.8,-23625.4,0,31177.3,54618.3
step02_gravity_refstate-crust.xmf,328,-4.04271e-07,2.79075e-06,0,-6.92997e-07,-6.50174e+08,-6.49955e+08,-6.50146e+08,-47539.6,0.00360249,0.115475,0,0.115532,21959.3,-23672.9,0,32289.6,47539.6
step02_gravity_refstate-crust.xmf,329,-3.71734e-07,2.68879e-06,0,-6.43463e-07,-6.33155e+08,-6.32945e+08,-6.3313e+08,-44141.5,0.00337092,0.114937,0,0.114987,23229.9,-23053.3,0,32727.4,44141.5
step02_gravity_refstate-crust.xmf,330,-5.76283e-07,2.96809e-06,0,-1.03875e-06,-6.7146e+08,-6.71217e+08,-6.71421e+08,-71258.1,0.00571691,0.124481,0,0.124612,16842.2,-24447.5,0,29687.3,71258.1
step02_gravity_refstate-crust.xmf,331,-7.29622e-07,3.36908e-06,0,-1.25893e-06,-7.42386e+08,-7.42105e+08,-7.42336e+08,-86362.9,0.00616105,0.12645,0,0.1266,13438.5,-27029.6,0,30185.9,86362.9
step02_gravity_refstate-crust.xmf,332,-6.12088e-07,3.10413e-06,0,-1.06782e-06,-6.96322e+08,-6.96067e+08,-6.9628e+08,-73252.4,0.00568235,0.123935,0,0.124065,16023.8,-25352.6,0,29992,73252.4
step02_gravity_refstate-crust.xmf,333,-6.44441e-07,3.23652e-06,0,-1.09405e-06,-7.19819e+08,-7.19553e+08,-7.19775e+08,-75052.1,0.0055874,0.123445,0,0.123571,15245.2,-26208.1,0,30319.7,75052.1
step02_gravity_refstate-crust.xmf,334,-1.18617e-07,2.48374e-06,0,-1.28037e-07,-6.43452e+08,-6.43274e+08,-6.43444e+08,-8783.33,0.000436123,0.101269,0,0.101269,35981,-23428.9,0,42936.6,8783.33
step02_gravity_refstate-crust.xmf,335,-7.61804e-08,2.56972e-06,0,-6.03678e-08,-6.72987e+08,-6.72805e+08,-6.72981e+08,-4141.23,0.000148307,0.0980054,0,0.0980055,37989.1,-24504.4,0,45206.6,4141.23
step02_gravity_refstate-crust.xmf,336,-1.03994e-07,1.65762e-06,0,-1.95183e-06,-5.89044e+08,-5.88924e+08,-5.89037e+08,-133896,0.00978896,0.155742,0,0.156049,9434.56,-21446.9,0,23430.3,133896
step02_gravity_refstate-crust.xmf,337,8.58114e-08,1.0723e-06,0,-1.23128e-06,-3.73609e+08,-3.73541e+08,-3.73615e+08,-84466.1,0.00770471,0.158133,0,0.15832,12344.7,-13603.6,0,18369.8,84466.1
step02_gravity_refstate-crust.xmf,338,9.81849e-08,1.12468e-06,0,-1.32412e-06,-4.07909e+08,-4.07838e+08,-4.07915e+08,-90834.5,0.00784774,0.158647,0,0.158841,11546.7,-14852.5,0,18812.8,90834.5
step02_gravity_refstate-crust.xmf,339,-3.18225e-09,1.38835e-06,0,-1.49962e-06,-4.74145e+08,-4.74049e+08,-4.74145e+08,-102874,0.00842674,0.156205,0,0.156433,11323.1,-17263.9,0,20645.9,102874
step02_gravity_refstate-crust.xmf,340,1.42346e-07,6.42839e-07,0,-8.50205e-07,-2.22321e+08,-2.22287e+08,-2.22331e+08,-58324,0.00830715,0.158423,0,0.15864,14436,-8095.4,0,16551,58324
step02_gravity_refstate-crust.xmf,341,1.54726e-07,7.39919e-07,0,-9.55867e-07,-2.61745e+08,-2.61705e+08,-2.61755e+08,-65572.5,0.00783122,0.159357,0,0.159549,13486.1,-9530.85,0,16514,65572.5
step02_gravity_refstate-crust.xmf,342,1.69022e-07,8.17084e-07,0,-1.04951e-06,-2.99134e+08,-2.9909e+08,-2.99146e+08,-71996.1,0.00756436,0.160209,0,0.160388,12566.2,-10892.2,0,16629.8,71996.1
step02_gravity_refstate-crust.xmf,343,-2.56992e-07,1.58095e-06,0,-3.35475e-06,-7.37287e+08,-7.37161e+08,-7.37269e+08,-230136,0.011803,0.163967,0,0.164391,5861.04,-26843.1,0,27475.5,230136
step02_gravity_refstate-crust.xmf,344,-1.14974e-07,1.65976e-06,0,-2.12311e-06,-6.16186e+08,-6.16064e+08,-6.16178e+08,-145645,0.0101735,0.156503,0,0.156833,8792.51,-22435,0,24096.4,145645
step02_gravity_refstate-crust.xmf,345,-1.03906e-08,1.38167e-06,0,-2.79237e-06,-6.84399e+08,-6.84304e+08,-6.84398e+08,-191557,0.0111989,0.162344,0,0.16273,6625.82,-24918.3,0,25784.2,191557
step02_gravity_refstate-crust.xmf,346,-1.21179e-08,1.47253e-06,0,-2.39352e-06,-6.44395e+08,-6.44293e+08,-6.44394e+08,-164196,0.0106172,0.1598,0,0.160152,7601.4,-23462.1,0,24662.7,164196
step02_gravity_refstate-crust.xmf,347,-1.31908e-08,1.4386e-06,0,-2.57842e-06,-6.64605e+08,-6.64506e+08,-6.64604e+08,-176880,0.0109132,0.160915,0,0.161285,7120.62,-24197.8,0,25223.7,176880
step02_gravity_refstate-crust.xmf,348,-7.48777e-07,2.19204e-06,0,-4.09025e-06,-8.06866e+08,-8.06664e+08,-8.06815e+08,-280591,0.0112128,0.167142,0,0.167518,4861.08,-29375.1,0,29774.6,280591
step02_gravity_refstate-crust.xmf,349,-1.03738e-06,3.16474e-06,0,-3.07847e-06,-8.0772e+08,-8.07431e+08,-8.07648e+08,-211183,0.00976793,0.154042,0,0.154352,6391.67,-29406.5,0,30093.2,211183
step02_gravity_refstate-crust.xmf,350,-9.91438e-07,2.93342e-06,0,-3.71524e-06,-8.24442e+08,-8.24172e+08,-8.24374e+08,-254865,0.00984712,0.161449,0,0.161749,5293.34,-30015.2,0,30478.3,254865
step02_gravity_refstate-crust.xmf,351,-1.0629e-06,3.4322e-06,0,-2.67688e-06,-8.09059e+08,-8.08751e+08,-8.08986e+08,-183634,0.00891876,0.148445,0,0.148713,7135.38,-29455.6,0,30307.6,183634
step02_gravity_refstate-crust.xmf,352,-8.40717e-07,3.64336e-06,0,-1.47485e-06,-7.87014e+08,-7.86706e+08,-7.86956e+08,-101175,0.00618939,0.129316,0,0.129464,11189.4,-28654.3,0,30761.5,101175
step02_gravity_refstate-crust.xmf,353,-5.33973e-07,2.98649e-06,0,-9.14637e-07,-6.77365e+08,-6.77123e+08,-6.77328e+08,-62744.1,0.00488566,0.12062,0,0.120719,18134.6,-24662.6,0,30612.2,62744.1
step02_gravity_refstate-crust.xmf,354,-4.80349e-07,2.98807e-06,0,-8.0211e-07,-6.82972e+08,-6.82735e+08,-6.8294e+08,-55024.7,0.00410032,0.116981,0,0.117053,19470.7,-24867,0,31582.8,55024.7
step02_gravity_refstate-crust.xmf,355,-3.29459e-07,2.70474e-06,0,-5.60375e-07,-6.44934e+08,-6.44726e+08,-6.44911e+08,-38441.7,0.00272846,0.111619,0,0.111653,24580.5,-23482.3,0,33994.4,38441.7
step02_gravity_refstate-crust.xmf,356,-2.29106e-07,2.6134e-06,0,-3.89938e-07,-6.45661e+08,-6.45466e+08,-6.45646e+08,-26749.7,0.0016493,0.10649,0,0.106503,28475.6,-23509.1,0,36926.1,26749.7
step02_gravity_refstate-crust.xmf,357,-2.75007e-07,2.6529e-06,0,-4.68388e-07,-6.44399e+08,-6.44198e+08,-6.4438e+08,-32131.4,0.00213167,0.108839,0,0.10886,26601.8,-23463,0,35470.7,32131.4
step02_gravity_refstate-crust.xmf,358,-7.52086e-07,3.52146e-06,0,-1.26464e-06,-7.66949e+08,-7.66655e+08,-7.66897e+08,-86754,0.00574535,0.12553,0,0.125662,12824,-27923.9,0,30727.8,86754
step02_gravity_refstate-crust.xmf,359,-6.66995e-07,3.38099e-06,0,-1.10143e-06,-7.4498e+08,-7.44702e+08,-7.44934e+08,-75558,0.00528935,0.122467,0,0.122581,14565.6,-27124.3,0,30787.7,75558
step02_gravity_refstate-crust.xmf,360,-1.88998e-07,2.58559e-06,0,-3.19488e-07,-6.4873e+08,-6.48539e+08,-6.48717e+08,-21916.9,0.00124328,0.104399,0,0.104407,30279.6,-23620.9,0,38403.2,21916.9
step02_gravity_refstate-crust.xmf,361,-1.47291e-07,2.58664e-06,0,-2.47928e-07,-6.58856e+08,-6.58669e+08,-6.58846e+08,-17007.9,0.000839738,0.101923,0,0.101926,32156.5,-23989.7,0,40119.2,17007.9
step02_gravity_refstate-crust.xmf,362,-1.01926e-07,2.61378e-06,0,-1.73836e-07,-6.76108e+08,-6.75922e+08,-6.76101e+08,-11925.2,0.00046126,0.0990158,0,0.0990168,34225.1,-24618,0,42159.2,11925.2
step02_gravity_refstate-crust.xmf,363,-3.53341e-08,2.67636e-06,0,-6.57545e-10,-7.06731e+08,-7.06545e+08,-7.06728e+08,-45.1076,1.22647e-21,0.0946061,0,0.0946061,40000,-25733.2,0,47562.6,45.1076
step02_gravity_refstate-crust.xmf,364,7.14518e-08,1.36006e-06,0,-1.88377e-06,-5.61348e+08,-5.6126e+08,-5.61353e+08,-129226,0.00942614,0.158898,0,0.159178,8962.04,-20438.8,0,22317.4,129226
step02_gravity_refstate-crust.xmf,365,5.25641e-08,1.3704e-06,0,-1.75284e-06,-5.34942e+08,-5.34852e+08,-5.34946e+08,-120245,0.00909375,0.158152,0,0.158413,9600.99,-19477.4,0,21715.2,120245
step02_gravity_refstate-crust.xmf,366,2.13439e-08,1.38279e-06,0,-1.61743e-06,-5.0417e+08,-5.04076e+08,-5.04171e+08,-110956,0.00873888,0.157136,0,0.157379,10453.8,-18357,0,21124.9,110956
step02_gravity_refstate-crust.xmf,367,1.16124e-07,1.16899e-06,0,-1.41922e-06,-4.40829e+08,-4.40757e+08,-4.40837e+08,-97358.6,0.00805966,0.159191,0,0.159394,10776.2,-16051.1,0,19333,97358.6
step02_gravity_refstate-crust.xmf,368,2.39809e-07,4.63715e-07,0,-7.34816e-07,-1.79985e+08,-1.7997e+08,-1.80002e+08,-50408.4,0.00875503,0.160776,0,0.161014,13672.6,-6554.23,0,15162.3,50408.4
step02_gravity_refstate-crust.xmf,369,1.87764e-07,8.83634e-07,0,-1.13554e-06,-3.35045e+08,-3.34998e+08,-3.35058e+08,-77898.2,0.00745294,0.160987,0,0.16116,11684.2,-12199.8,0,16892.5,77898.2
step02_gravity_refstate-crust.xmf,370,6.38756e-08,-2.49227e-08,0,-3.76768e-09,6038.61,-52.9587,1656.74,-258.463,0.0162305,0.155335,0,0.156181,17380,0,0,17380,258.463
step02_gravity_refstate-crust.xmf,371,1.5402e-07,9.35562e-08,0,-2.49158e-07,-4.91806e+07,-4.91847e+07,-4.91912e+07,-17092.2,0.0134054,0.157007,0,0.157578,16398.7,-1791.24,0,16496.2,17092.2
step02_gravity_refstate-crust.xmf,372,2.11119e-07,2.17599e-07,0,-4.45838e-07,-9.53348e+07,-9.53344e+07,-9.53493e+07,-30584.5,0.0113053,0.158627,0,0.159029,15366.9,-3471.95,0,15754.2,30584.5
step02_gravity_refstate-crust.xmf,373,2.29052e-07,3.39307e-07,0,-5.95057e-07,-1.36705e+08,-1.36697e+08,-1.3672e+08,-40820.9,0.00987568,0.15971,0,0.160015,14562.8,-4978.33,0,15390.2,40820.9
step02_gravity_refstate-crust.xmf,374,-2.77025e-07,1.51222e-06,0,-3.63118e-06,-7.53091e+08,-7.52968e+08,-7.53072e+08,-249099,0.0119459,0.166174,0,0.166602,5411.63,-27418.2,0,27947.2,249099
step02_gravity_refstate-crust.xmf,375,-3.23682e-07,1.46644e-06,0,-3.93684e-06,-7.69497e+08,-7.69375e+08,-7.69475e+08,-270067,0.0120185,0.168462,0,0.168891,4994.03,-28015.3,0,28456.9,270067
step02_gravity_refstate-crust.xmf,376,1.18166e-08,1.27456e-06,0,-3.03448e-06,-7.02619e+08,-7.02533e+08,-7.0262e+08,-208165,0.0114513,0.164269,0,0.164668,6105.86,-25581.6,0,26300.2,208165
step02_gravity_refstate-crust.xmf,377,-2.04218e-08,1.50315e-06,0,-2.25968e-06,-6.28099e+08,-6.27994e+08,-6.28097e+08,-155014,0.0103786,0.158873,0,0.159211,8028.77,-22868.8,0,24237.2,155014
step02_gravity_refstate-crust.xmf,378,9.42285e-08,1.34902e-06,0,-2.02564e-06,-5.86659e+08,-5.86572e+08,-5.86665e+08,-138959,0.00976157,0.159784,0,0.160082,8348.11,-21360.4,0,22933.7,138959
step02_gravity_refstate-crust.xmf,379,-3.9527e-07,1.44205e-06,0,-4.27711e-06,-7.86579e+08,-7.86453e+08,-7.86551e+08,-293410,0.0119721,0.171002,0,0.171421,4587.71,-28636.8,0,29002,293410
step02_gravity_refstate-crust.xmf,380,-8.37286e-07,2.45106e-06,0,-4.22415e-06,-8.2468e+08,-8.24454e+08,-8.24622e+08,-289777,0.0104127,0.167683,0,0.168006,4652.54,-30023.7,0,30382,289777
step02_gravity_refstate-crust.xmf,381,-1.05259e-06,3.32504e-06,0,-3.20257e-06,-8.25273e+08,-8.24972e+08,-8.25201e+08,-219697,0.00906955,0.155103,0,0.155368,6001.57,-30045.8,0,30639.3,219697
step02_gravity_refstate-crust.xmf,382,-1.03194e-06,3.59883e-06,0,-2.30646e-06,-8.07807e+08,-8.07489e+08,-8.07736e+08,-158223,0.00813662,0.143191,0,0.143422,7956.29,-29410.4,0,30467.6,158223
step02_gravity_refstate-crust.xmf,383,-1.00092e-06,3.69242e-06,0,-2.01255e-06,-8.07261e+08,-8.06939e+08,-8.07192e+08,-138061,0.0073259,0.138325,0,0.138519,8789.63,-29390.8,0,30677,138061
step02_gravity_refstate-crust.xmf,384,-9.33481e-07,3.7595e-06,0,-1.7294e-06,-8.07719e+08,-8.07397e+08,-8.07655e+08,-118637,0.00642105,0.133373,0,0.133528,9708.63,-29407.9,0,30969,118637
step02_gravity_refstate-crust.xmf,385,-8.53072e-07,3.79077e-06,0,-1.49161e-06,-8.0905e+08,-8.08732e+08,-8.08992e+08,-102324,0.00551802,0.128721,0,0.128839,10645.7,-29456.7,0,31321.4,102324
step02_gravity_refstate-crust.xmf,386,-7.64235e-07,3.66106e-06,0,-1.27675e-06,-7.89008e+08,-7.88705e+08,-7.88956e+08,-87585.4,0.00528349,0.124966,0,0.125078,12201.6,-28727.2,0,31211.1,87585.4
step02_gravity_refstate-crust.xmf,387,-4.16006e-07,2.96455e-06,0,-6.9637e-07,-6.85891e+08,-6.85659e+08,-6.85863e+08,-47771,0.00336738,0.113574,0,0.113623,20983.1,-24973.5,0,32618.5,47771
step02_gravity_refstate-crust.xmf,388,-3.56535e-07,2.8124e-06,0,-6.0588e-07,-6.63389e+08,-6.63172e+08,-6.63365e+08,-41563.4,0.00290561,0.111911,0,0.111948,23229.4,-24154.3,0,33511.7,41563.4
step02_gravity_refstate-crust.xmf,389,-5.49066e-07,3.14007e-06,0,-9.11178e-07,-7.06613e+08,-7.0636e+08,-7.06575e+08,-62506.8,0.004628,0.119096,0,0.119186,17420.9,-25727.6,0,31070.8,62506.8
step02_gravity_refstate-crust.xmf,390,-6.77351e-07,3.53029e-06,0,-1.09848e-06,-7.70567e+08,-7.70279e+08,-7.70521e+08,-75355.9,0.0048227,0.121313,0,0.121408,13917.3,-28056,0,31318.2,75355.9
step02_gravity_refstate-crust.xmf,391,-5.99647e-07,3.38667e-06,0,-9.6457e-07,-7.5007e+08,-7.49797e+08,-7.50029e+08,-66169.5,0.00441545,0.118532,0,0.118615,15685.1,-27309.9,0,31493.7,66169.5
step02_gravity_refstate-crust.xmf,392,-5.80969e-07,3.25803e-06,0,-9.4733e-07,-7.27338e+08,-7.27075e+08,-7.27298e+08,-64986.8,0.00461649,0.119068,0,0.119158,16493.7,-26482.2,0,31198.5,64986.8
step02_gravity_refstate-crust.xmf,393,-5.65555e-08,2.67409e-06,0,-1.08404e-07,-7.00782e+08,-7.00595e+08,-7.00778e+08,-7436.48,0.000180113,0.0958187,0,0.0958189,36168.5,-25516.6,0,44263.4,7436.48
step02_gravity_refstate-crust.xmf,394,-9.01283e-09,2.76825e-06,0,-5.19651e-08,-7.33561e+08,-7.3337e+08,-7.3356e+08,-3564.81,1.31613e-05,0.0921134,0,0.0921134,38016.6,-26710.3,0,46461.8,3564.81
step02_gravity_refstate-crust.xmf,395,2.08875e-07,9.1953e-07,0,-1.22609e-06,-3.71319e+08,-3.7127e+08,-3.71333e+08,-84110,0.00747392,0.161606,0,0.161779,10866.5,-13520.5,0,17346,84110
step02_gravity_refstate-crust.xmf,396,2.27725e-07,9.58196e-07,0,-1.31741e-06,-4.06822e+08,-4.06772e+08,-4.06838e+08,-90374.5,0.00761597,0.161974,0,0.162152,10178.7,-14813.2,0,17973.2,90374.5
step02_gravity_refstate-crust.xmf,397,1.46732e-07,1.17503e-06,0,-1.52135e-06,-4.71692e+08,-4.71621e+08,-4.71702e+08,-104365,0.00830413,0.159942,0,0.160157,9990.24,-17174.8,0,19869,104365
step02_gravity_refstate-crust.xmf,398,2.49613e-07,5.58964e-07,0,-8.46836e-07,-2.20361e+08,-2.20339e+08,-2.20378e+08,-58093,0.00800268,0.161759,0,0.161957,12778,-8024.32,0,15088.6,58093
step02_gravity_refstate-crust.xmf,399,2.63205e-07,6.38874e-07,0,-9.42905e-07,-2.59258e+08,-2.59232e+08,-2.59276e+08,-64683.3,0.00750656,0.162684,0,0.162857,11876.4,-9440.59,0,15171.4,64683.3
step02_gravity_refstate-crust.xmf,400,2.82737e-07,6.95634e-07,0,-1.02544e-06,-2.95827e+08,-2.95798e+08,-2.95846e+08,-70345.3,0.00721358,0.16352,0,0.163679,11013.7,-10772.1,0,15405.8,70345.3
step02_gravity_refstate-crust.xmf,401,3.23123e-07,3.07957e-07,0,-6.17556e-07,-1.42613e+08,-1.42614e+08,-1.42635e+08,-42364.4,0.00933213,0.162351,0,0.162619,13115,-5193.75,0,14106,42364.4
step02_gravity_refstate-crust.xmf,402,3.41421e-07,3.9995e-07,0,-7.2697e-07,-1.79947e+08,-1.79943e+08,-1.79971e+08,-49870.2,0.00831111,0.16367,0,0.163881,12144.6,-6553.16,0,13799.8,49870.2
step02_gravity_refstate-crust.xmf,403,1.16417e-07,1.03275e-06,0,-3.30609e-06,-7.17489e+08,-7.17426e+08,-7.17497e+08,-226798,0.0116309,0.167156,0,0.167561,5509.57,-26123,0,26697.7,226798
step02_gravity_refstate-crust.xmf,404,3.31075e-07,8.3041e-07,0,-2.92227e-06,-6.83022e+08,-6.82988e+08,-6.83045e+08,-200468,0.0110317,0.167032,0,0.167395,5737.29,-24868.7,0,25521.9,200468
step02_gravity_refstate-crust.xmf,405,1.27965e-07,9.04803e-07,0,-3.60294e-06,-7.34485e+08,-7.34432e+08,-7.34494e+08,-247162,0.0118284,0.169354,0,0.169766,5075.41,-26741.6,0,27219,247162
step02_gravity_refstate-crust.xmf,406,1.42457e-07,1.25493e-06,0,-2.17865e-06,-6.07757e+08,-6.0768e+08,-6.07767e+08,-149455,0.0100369,0.161109,0,0.161422,7725.27,-22128.5,0,23438.2,149455
step02_gravity_refstate-crust.xmf,407,2.78459e-07,9.69894e-07,0,-2.6923e-06,-6.64048e+08,-6.64001e+08,-6.64068e+08,-184692,0.0107838,0.165249,0,0.165601,6218.9,-24178,0,24965,184692
step02_gravity_refstate-crust.xmf,408,1.95982e-07,1.15943e-06,0,-2.32522e-06,-6.25694e+08,-6.25628e+08,-6.25707e+08,-159510,0.010264,0.1625,0,0.162824,7177.41,-22781.6,0,23885.5,159510
step02_gravity_refstate-crust.xmf,409,2.45943e-07,1.06087e-06,0,-2.49295e-06,-6.44367e+08,-6.44311e+08,-6.44384e+08,-171017,0.0105088,0.163893,0,0.164229,6672.67,-23461.4,0,24391.9,171017
step02_gravity_refstate-crust.xmf,410,2.75086e-07,1.07374e-06,0,-1.906e-06,-5.59925e+08,-5.5987e+08,-5.59944e+08,-130751,0.00921514,0.162574,0,0.162835,7878.86,-20387.4,0,21856.9,130751
step02_gravity_refstate-crust.xmf,411,-3.6901e-07,1.29705e-06,0,-4.64544e-06,-8.00137e+08,-8.00023e+08,-8.00112e+08,-318677,0.011854,0.174503,0,0.174905,4147.11,-29130.3,0,29424,318677
step02_gravity_refstate-crust.xmf,412,-6.2198e-07,1.84008e-06,0,-4.55847e-06,-8.14769e+08,-8.146e+08,-8.14726e+08,-312711,0.0112432,0.172201,0,0.172568,4291.18,-29662.8,0,29971.6,312711
step02_gravity_refstate-crust.xmf,413,-1.08224e-06,3.588e-06,0,-2.76816e-06,-8.26486e+08,-8.26165e+08,-8.26412e+08,-189896,0.00819674,0.149077,0,0.149302,6741.09,-30090.2,0,30836.1,189896
step02_gravity_refstate-crust.xmf,414,-9.64499e-07,3.07808e-06,0,-3.91234e-06,-8.41147e+08,-8.4087e+08,-8.41081e+08,-268386,0.00888429,0.162992,0,0.163234,4948.13,-30623.7,0,31020.8,268386
step02_gravity_refstate-crust.xmf,415,-1.04464e-06,3.46801e-06,0,-3.37174e-06,-8.42295e+08,-8.41985e+08,-8.42223e+08,-231302,0.00811677,0.156355,0,0.156565,5619.28,-30665.7,0,31176.3,231302
step02_gravity_refstate-crust.xmf,416,-1.05378e-06,3.76542e-06,0,-2.37435e-06,-8.27481e+08,-8.27151e+08,-8.27409e+08,-162880,0.00729797,0.143368,0,0.143553,7523.65,-30126.9,0,31052.1,162880
step02_gravity_refstate-crust.xmf,417,-7.52055e-07,3.80627e-06,0,-1.28223e-06,-8.12462e+08,-8.1215e+08,-8.12411e+08,-87960.8,0.00456866,0.124167,0,0.124251,11597.3,-29581.4,0,31773.5,87960.8
step02_gravity_refstate-crust.xmf,418,-4.89762e-07,3.15026e-06,0,-7.93444e-07,-7.15509e+08,-7.1526e+08,-7.15476e+08,-54430.3,0.00374557,0.115024,0,0.115084,18710.2,-26051.7,0,32074.3,54430.3
step02_gravity_refstate-crust.xmf,419,-4.23563e-07,3.12609e-06,0,-6.92319e-07,-7.19767e+08,-7.19524e+08,-7.19738e+08,-47493.1,0.00300378,0.111512,0,0.111552,20127.1,-26207,0,33044,47493.1
step02_gravity_refstate-crust.xmf,420,-3.60158e-07,2.93801e-06,0,-6.09904e-07,-6.89494e+08,-6.89267e+08,-6.89469e+08,-41839.4,0.00273523,0.110528,0,0.110562,22434.3,-25104.8,0,33668.2,41839.4
step02_gravity_refstate-crust.xmf,421,-1.6809e-07,2.75501e-06,0,-3.27553e-07,-6.90739e+08,-6.90538e+08,-6.90727e+08,-22470.1,0.000979005,0.101302,0,0.101307,29231.3,-25150.6,0,38561.9,22470.1
step02_gravity_refstate-crust.xmf,422,-3.09329e-07,2.89356e-06,0,-5.33522e-07,-6.90212e+08,-6.89993e+08,-6.90191e+08,-36599.6,0.00219803,0.107878,0,0.1079,24008.7,-25131.1,0,34756.2,36599.6
step02_gravity_refstate-crust.xmf,423,-2.10751e-07,2.79415e-06,0,-3.91805e-07,-6.89451e+08,-6.89245e+08,-6.89437e+08,-26877.8,0.00132536,0.103312,0,0.10332,27467.6,-25103.6,0,37211,26877.8
step02_gravity_refstate-crust.xmf,424,-2.60279e-07,2.83925e-06,0,-4.63291e-07,-6.88477e+08,-6.88264e+08,-6.88459e+08,-31781.8,0.00175759,0.10566,0,0.105675,25671,-25068,0,35880.5,31781.8
step02_gravity_refstate-crust.xmf,425,-6.7023e-07,3.67671e-06,0,-1.09082e-06,-7.95661e+08,-7.95363e+08,-7.95615e+08,-74830.1,0.00419758,0.12013,0,0.120203,13289,-28969.8,0,31872.3,74830.1
step02_gravity_refstate-crust.xmf,426,-6.03214e-07,3.51834e-06,0,-9.65644e-07,-7.73885e+08,-7.73602e+08,-7.73843e+08,-66243.2,0.00400388,0.117527,0,0.117595,14997.7,-28177.1,0,31919.9,66243.2
step02_gravity_refstate-crust.xmf,427,-1.36444e-07,2.72095e-06,0,-2.75605e-07,-6.90755e+08,-6.90559e+08,-6.90746e+08,-18906.5,0.000745036,0.0999056,0,0.0999084,30778.7,-25151.3,0,39748.2,18906.5
step02_gravity_refstate-crust.xmf,428,-3.33503e-08,2.80467e-06,0,-1.44854e-07,-7.35122e+08,-7.34927e+08,-7.35119e+08,-9936.98,7.30669e-05,0.0930572,0,0.0930573,34503.4,-26767,0,43668.8,9936.98
step02_gravity_refstate-crust.xmf,429,-7.77362e-08,2.80131e-06,0,-2.15086e-07,-7.22952e+08,-7.22755e+08,-7.22947e+08,-14754.9,0.000291551,0.0956278,0,0.0956282,32164.8,-26323.8,0,41563.4,14754.9
step02_gravity_refstate-crust.xmf,430,3.99155e-08,2.88647e-06,0,-8.68032e-10,-7.72196e+08,-7.72001e+08,-7.72199e+08,-59.547,-1.08817e-20,0.0879747,-0,0.0879747,40000,-28117.2,0,48893.5,59.547
step02_gravity_refstate-crust.xmf,431,2.36957e-07,1.09912e-06,0,-1.76933e-06,-5.324e+08,-5.32341e+08,-5.32417e+08,-121376,0.00889274,0.16178,0,0.162024,8469.62,-19385.2,0,21154.7,121376
step02_gravity_refstate-crust.xmf,432,1.9277e-07,1.13411e-06,0,-1.64048e-06,-5.02355e+08,-5.0229e+08,-5.02368e+08,-112537,0.00857809,0.160924,0,0.161153,9172.51,-18291.3,0,20462.3,112537
step02_gravity_refstate-crust.xmf,433,2.57499e-07,9.78037e-07,0,-1.4083e-06,-4.38567e+08,-4.38518e+08,-4.38585e+08,-96609.5,0.00779547,0.162499,0,0.162686,9499.2,-15969,0,18580.8,96609.5
step02_gravity_refstate-crust.xmf,434,3.10502e-07,7.42769e-07,0,-1.10384e-06,-3.32359e+08,-3.32329e+08,-3.3238e+08,-75723.1,0.00706367,0.164297,0,0.164449,10165.9,-12102.3,0,15805.4,75723.1
step02_gravity_refstate-crust.xmf,435,2.99524e-07,-1.1411e-07,0,-4.67509e-09,28433.4,58.1092,7886.04,-320.711,0.0158452,0.159073,0,0.159861,15217,0,0,15217,320.711
step02_gravity_refstate-crust.xmf,436,3.52819e-07,1.43027e-08,0,-2.54665e-07,-4.87815e+07,-4.88048e+07,-4.88057e+07,-17470,0.0128742,0.160882,0,0.161396,14232.7,-1777.39,0,14343.2,17470
step02_gravity_refstate-crust.xmf,437,3.77428e-07,1.59491e-07,0,-4.71425e-07,-1.00531e+08,-1.00546e+08,-1.00557e+08,-32339.8,0.0104751,0.162661,0,0.162998,13142.2,-3661.7,0,13642.8,32339.8
step02_gravity_refstate-crust.xmf,438,4.37494e-07,2.32771e-07,0,-5.89441e-07,-1.37958e+08,-1.37972e+08,-1.37988e+08,-40435.6,0.0088571,0.165141,0,0.165378,11597.9,-5024.63,0,12639.6,40435.6
step02_gravity_refstate-crust.xmf,439,1.30003e-07,7.66632e-07,0,-3.93585e-06,-7.51093e+08,-7.5105e+08,-7.51102e+08,-269999,0.0119885,0.171774,0,0.172192,4664.56,-27346,0,27741,269999
step02_gravity_refstate-crust.xmf,440,1.11233e-07,6.29861e-07,0,-4.30998e-06,-7.67599e+08,-7.67563e+08,-7.67607e+08,-295665,0.0120923,0.174449,0,0.174868,4273.6,-27946.6,0,28271.5,295665
step02_gravity_refstate-crust.xmf,441,4.18411e-07,6.24791e-07,0,-3.16979e-06,-6.99918e+08,-6.99903e+08,-6.99946e+08,-217448,0.0112162,0.16927,0,0.169641,5243.04,-25483.9,0,26017.6,217448
step02_gravity_refstate-crust.xmf,442,3.32737e-07,9.95653e-07,0,-2.04961e-06,-5.84101e+08,-5.84055e+08,-5.84124e+08,-140603,0.00949093,0.163689,0,0.163964,7289.96,-21267.7,0,22482.4,140603
step02_gravity_refstate-crust.xmf,443,1.09352e-07,4.45961e-07,0,-4.72192e-06,-7.82998e+08,-7.82975e+08,-7.83006e+08,-323924,0.0120997,0.177626,0,0.178038,3880.8,-28507,0,28769.9,323924
step02_gravity_refstate-crust.xmf,444,-3.19695e-07,1.09834e-06,0,-5.0426e-06,-8.1241e+08,-8.12313e+08,-8.12388e+08,-345923,0.0115983,0.178136,0,0.178513,3752.59,-29577,0,29814.1,345923
step02_gravity_refstate-crust.xmf,445,-6.07861e-07,1.8326e-06,0,-4.81974e-06,-8.2633e+08,-8.26163e+08,-8.26289e+08,-330634,0.0107705,0.174497,0,0.174829,4009.96,-30083.8,0,30349.8,330634
step02_gravity_refstate-crust.xmf,446,-7.90654e-07,2.53683e-06,0,-4.5049e-06,-8.40422e+08,-8.40194e+08,-8.40368e+08,-309036,0.00950355,0.169959,0,0.170224,4309.58,-30597.1,0,30899.1,309036
step02_gravity_refstate-crust.xmf,447,-1.04462e-06,3.75238e-06,0,-2.87285e-06,-8.43841e+08,-8.43512e+08,-8.4377e+08,-197078,0.00723904,0.149977,0,0.150151,6331.79,-30722.5,0,31368.2,197078
step02_gravity_refstate-crust.xmf,448,-9.81996e-07,3.87719e-06,0,-2.02405e-06,-8.28252e+08,-8.27918e+08,-8.28184e+08,-138850,0.00640644,0.138001,0,0.138149,8349.14,-30155.4,0,31289.8,138850
step02_gravity_refstate-crust.xmf,449,-9.17278e-07,3.92315e-06,0,-1.74367e-06,-8.2924e+08,-8.28908e+08,-8.29177e+08,-119616,0.00551536,0.132911,0,0.133025,9219.16,-30191.7,0,31567.9,119616
step02_gravity_refstate-crust.xmf,450,-8.27662e-07,3.93953e-06,0,-1.49875e-06,-8.30544e+08,-8.30217e+08,-8.30487e+08,-102814,0.00464669,0.128121,0,0.128205,10125.4,-30239.5,0,31889.7,102814
step02_gravity_refstate-crust.xmf,451,-7.36177e-07,3.93168e-06,0,-1.30014e-06,-8.32269e+08,-8.31948e+08,-8.32218e+08,-89189.4,0.0038316,0.123725,0,0.123784,11037.1,-30302.7,0,32250.1,89189.4
step02_gravity_refstate-crust.xmf,452,-6.41642e-07,3.82545e-06,0,-1.0851e-06,-8.22577e+08,-8.22271e+08,-8.22533e+08,-74437.6,0.00330822,0.118813,0,0.118859,12622.8,-29950.1,0,32501.4,74437.6
step02_gravity_refstate-crust.xmf,453,-3.54837e-07,3.09393e-06,0,-6.01874e-07,-7.23455e+08,-7.23218e+08,-7.2343e+08,-41288.6,0.00234981,0.108273,0,0.108299,21602,-26341.4,0,34066.4,41288.6
step02_gravity_refstate-crust.xmf,454,-5.00597e-07,3.31201e-06,0,-7.96472e-07,-7.46823e+08,-7.46562e+08,-7.46789e+08,-54638,0.00338445,0.113559,0,0.113609,17754.1,-27192,0,32474.8,54638
step02_gravity_refstate-crust.xmf,455,-5.8508e-07,3.65805e-06,0,-9.50091e-07,-7.99705e+08,-7.99413e+08,-7.99664e+08,-65176.3,0.00332907,0.116009,0,0.116056,14386.1,-29117.3,0,32477.4,65176.3
step02_gravity_refstate-crust.xmf,456,-5.292e-07,3.50593e-06,0,-8.49126e-07,-7.79103e+08,-7.78826e+08,-7.79067e+08,-58250.1,0.00320541,0.113833,0,0.113878,16068.2,-28367.3,0,32602,58250.1
step02_gravity_refstate-crust.xmf,457,-5.4093e-07,3.39155e-06,0,-8.58672e-07,-7.57166e+08,-7.56896e+08,-7.57129e+08,-58904.9,0.00363472,0.115024,0,0.115082,16658.8,-27568.4,0,32210.8,58904.9
step02_gravity_refstate-crust.xmf,458,-4.44043e-09,2.82133e-06,0,-9.59422e-08,-7.46385e+08,-7.46191e+08,-7.46384e+08,-6581.63,-1.79342e-05,0.0912359,-0,0.0912359,36230,-27177.2,0,45290.3,6581.63
step02_gravity_refstate-crust.xmf,459,6.44472e-08,2.97342e-06,0,-5.41427e-08,-7.97735e+08,-7.97535e+08,-7.97739e+08,-3714.19,-0.0001596,0.0854699,-0,0.0854701,37640.3,-29047.2,0,47545,3714.19
step02_gravity_refstate-crust.xmf,460,4.2844e-07,8.30048e-07,0,-1.76407e-06,-5.34355e+08,-5.34327e+08,-5.34384e+08,-121015,0.00856821,0.164992,0,0.165215,7392.09,-19456.7,0,20813.6,121015
step02_gravity_refstate-crust.xmf,461,5.04767e-07,7.48626e-07,0,-1.88545e-06,-5.5905e+08,-5.59033e+08,-5.59085e+08,-129342,0.00878799,0.166037,0,0.16627,6825.98,-20356,0,21470,129342
step02_gravity_refstate-crust.xmf,462,3.52461e-07,7.57931e-07,0,-1.19065e-06,-3.71943e+08,-3.71916e+08,-3.71968e+08,-81678.3,0.00703858,0.165057,0,0.165207,9292.46,-13543.6,0,16424.9,81678.3
step02_gravity_refstate-crust.xmf,463,3.38933e-07,8.26586e-07,0,-1.29786e-06,-4.09496e+08,-4.09462e+08,-4.09519e+08,-89033.3,0.00733468,0.16443,0,0.164594,9087.68,-14910.8,0,17461.9,89033.3
step02_gravity_refstate-crust.xmf,464,3.16198e-07,9.42258e-07,0,-1.50119e-06,-4.68679e+08,-4.68636e+08,-4.687e+08,-102981,0.00796674,0.163463,0,0.163657,8707.11,-17065.4,0,19158.4,102981
step02_gravity_refstate-crust.xmf,465,3.55318e-07,4.73752e-07,0,-8.22704e-07,-2.1862e+08,-2.18612e+08,-2.18645e+08,-56437.5,0.00754461,0.164788,0,0.16496,11212.7,-7961.26,0,13751.6,56437.5
step02_gravity_refstate-crust.xmf,466,3.73201e-07,5.33946e-07,0,-9.03605e-07,-2.5647e+08,-2.56459e+08,-2.56496e+08,-61987.3,0.0070232,0.165738,0,0.165886,10328.9,-9339.39,0,13925.2,61987.3
step02_gravity_refstate-crust.xmf,467,3.99882e-07,5.706e-07,0,-9.7168e-07,-2.92603e+08,-2.92591e+08,-2.9263e+08,-66657.3,0.00668974,0.166578,0,0.166712,9491.55,-10655,0,14269.5,66657.3
step02_gravity_refstate-crust.xmf,468,4.51576e-07,3.2245e-07,0,-6.92598e-07,-1.77456e+08,-1.77465e+08,-1.77487e+08,-47512.2,0.00771439,0.166571,0,0.16675,10552.4,-6462.8,0,12374.2,47512.2
step02_gravity_refstate-crust.xmf,469,6.1949e-07,4.78718e-07,0,-2.73464e-06,-6.63809e+08,-6.63819e+08,-6.63852e+08,-187597,0.0103956,0.169329,0,0.169648,5367.63,-24169.9,0,24758.7,187597
step02_gravity_refstate-crust.xmf,470,5.23119e-07,3.70532e-07,0,-3.45514e-06,-7.16481e+08,-7.16491e+08,-7.16517e+08,-237023,0.0113705,0.171852,0,0.172228,4756.19,-26086.9,0,26516.9,237023
step02_gravity_refstate-crust.xmf,471,7.37402e-07,2.16604e-07,0,-2.95957e-06,-6.81294e+08,-6.81329e+08,-6.81344e+08,-203027,0.0105437,0.171403,0,0.171727,4902.64,-24806.5,0,25286.3,203027
step02_gravity_refstate-crust.xmf,472,5.995e-07,1.26719e-07,0,-3.78505e-06,-7.33281e+08,-7.33313e+08,-7.33322e+08,-259655,0.0115365,0.174432,0,0.174813,4335.98,-26698.4,0,27048.2,259655
step02_gravity_refstate-crust.xmf,473,4.08759e-07,8.55603e-07,0,-2.20454e-06,-6.05707e+08,-6.05676e+08,-6.05735e+08,-151231,0.00971829,0.165085,0,0.165371,6711.11,-22054.3,0,23052.8,151231
step02_gravity_refstate-crust.xmf,474,5.60711e-07,5.89355e-07,0,-2.53541e-06,-6.44851e+08,-6.44849e+08,-6.44889e+08,-173929,0.0101509,0.167929,0,0.168236,5754.99,-23479.6,0,24174.6,173929
step02_gravity_refstate-crust.xmf,475,5.04715e-07,6.99299e-07,0,-2.35158e-06,-6.24171e+08,-6.24157e+08,-6.24205e+08,-161319,0.00987945,0.16669,0,0.166982,6166.25,-22726.7,0,23548.4,161319
step02_gravity_refstate-crust.xmf,476,1.24689e-07,2.784e-07,0,-5.13793e-06,-7.97182e+08,-7.97171e+08,-7.97191e+08,-352462,0.0119832,0.18114,0,0.181536,3509.29,-29023.1,0,29234.5,352462
step02_gravity_refstate-crust.xmf,477,-6.55173e-07,2.558e-06,0,-4.87482e-06,-8.54081e+08,-8.53861e+08,-8.54036e+08,-334413,0.00844979,0.172795,0,0.173002,3967.41,-31095,0,31347.1,334413
step02_gravity_refstate-crust.xmf,478,-8.5127e-07,3.1926e-06,0,-4.18105e-06,-8.56453e+08,-8.56175e+08,-8.56394e+08,-286820,0.00772366,0.16502,0,0.165201,4597.11,-31181.5,0,31518.6,286820
step02_gravity_refstate-crust.xmf,479,-1.02384e-06,3.92366e-06,0,-2.4569e-06,-8.4553e+08,-8.45191e+08,-8.4546e+08,-168543,0.0063152,0.143915,0,0.144054,7085.58,-30784.3,0,31589.2,168543
step02_gravity_refstate-crust.xmf,480,-9.56943e-07,3.61242e-06,0,-3.60517e-06,-8.59046e+08,-8.58733e+08,-8.5898e+08,-247315,0.00689733,0.158156,0,0.158306,5208.68,-31276.2,0,31706.9,247315
step02_gravity_refstate-crust.xmf,481,-9.81607e-07,3.90438e-06,0,-3.0474e-06,-8.60941e+08,-8.60606e+08,-8.60873e+08,-209052,0.00601926,0.151167,0,0.151286,5915.14,-31345.5,0,31898.7,209052
step02_gravity_refstate-crust.xmf,482,-9.55883e-07,4.03206e-06,0,-2.08312e-06,-8.47575e+08,-8.47232e+08,-8.47509e+08,-142902,0.00535525,0.138099,0,0.138203,7888.7,-30859.2,0,31851.5,142902
step02_gravity_refstate-crust.xmf,483,-6.52545e-07,3.91421e-06,0,-1.15421e-06,-8.34672e+08,-8.34358e+08,-8.34627e+08,-79178.7,0.00312615,0.120036,0,0.120077,11849.3,-30390.5,0,32618.8,79178.7
step02_gravity_refstate-crust.xmf,484,-1.02885e-07,2.876e-06,0,-2.72012e-07,-7.325e+08,-7.32296e+08,-7.32493e+08,-18660,0.000380131,0.0962572,0,0.096258,30061.2,-26671.4,0,40187.6,18660
step02_gravity_refstate-crust.xmf,485,-4.17955e-07,3.28297e-06,0,-6.82828e-07,-7.5255e+08,-7.52296e+08,-7.52521e+08,-46842,0.00253161,0.10944,0,0.10947,19279.5,-27400.7,0,33503.7,46842
step02_gravity_refstate-crust.xmf,486,-3.46397e-07,3.24572e-06,0,-5.9498e-07,-7.56932e+08,-7.56686e+08,-7.56908e+08,-40815.6,0.0018654,0.106003,0,0.106019,20739.3,-27560.5,0,34492,40815.6
step02_gravity_refstate-crust.xmf,487,-2.94536e-07,3.05265e-06,0,-5.24112e-07,-7.26133e+08,-7.25904e+08,-7.26113e+08,-35954.1,0.0017901,0.105334,0,0.10535,23152.5,-26439.1,0,35143.5,35954.1
step02_gravity_refstate-crust.xmf,488,-1.40063e-07,2.92447e-06,0,-3.27532e-07,-7.3373e+08,-7.3352e+08,-7.3372e+08,-22468.7,0.000580812,0.0978404,0,0.0978421,28253.1,-26716.1,0,38884.3,22468.7
step02_gravity_refstate-crust.xmf,489,-2.40722e-07,3.00906e-06,0,-4.54762e-07,-7.28896e+08,-7.28673e+08,-7.28879e+08,-31196.7,0.00130446,0.102585,0,0.102594,24779.3,-26539.9,0,36309.5,31196.7
step02_gravity_refstate-crust.xmf,490,-1.87504e-07,2.96602e-06,0,-3.88709e-07,-7.315e+08,-7.31284e+08,-7.31487e+08,-26665.4,0.000898898,0.100063,0,0.100067,26488.6,-26634.8,0,37564.1,26665.4
step02_gravity_refstate-crust.xmf,491,-5.42449e-07,3.78792e-06,0,-9.33682e-07,-8.24827e+08,-8.2453e+08,-8.24789e+08,-64050.6,0.00250082,0.114478,0,0.114505,13794.8,-30032.3,0,33049,64050.6
step02_gravity_refstate-crust.xmf,492,-5.24847e-07,3.61437e-06,0,-8.62461e-07,-7.99405e+08,-7.99121e+08,-7.99369e+08,-59164.8,0.00280859,0.113199,0,0.113234,15346.3,-29106.6,0,32904.5,59164.8
step02_gravity_refstate-crust.xmf,493,3.74501e-08,2.96539e-06,0,-1.1216e-07,-7.8845e+08,-7.88249e+08,-7.88452e+08,-7694.16,-0.000247261,0.0871643,-0,0.0871647,35189.9,-28709,0,45415.1,7694.16
step02_gravity_refstate-crust.xmf,494,2.37493e-09,2.96697e-06,0,-1.68435e-07,-7.79051e+08,-7.78848e+08,-7.79051e+08,-11554.6,-0.000227129,0.0892164,-0,0.0892167,32999,-28366.7,0,43515.6,11554.6
step02_gravity_refstate-crust.xmf,495,1.16772e-07,3.09057e-06,0,-4.29029e-10,-8.37475e+08,-8.37271e+08,-8.37483e+08,-29.4314,-1.99186e-20,0.0808709,-0,0.0808709,40000,-30494.4,0,50298.2,29.4314
step02_gravity_refstate-crust.xmf,496,4.09416e-07,8.37517e-07,0,-1.6157e-06,-5.01477e+08,-5.01448e+08,-5.01505e+08,-110837,0.00815812,0.164794,0,0.164995,7811.24,-18259.7,0,19860.3,110837
step02_gravity_refstate-crust.xmf,497,6.45086e-07,5.32499e-07,0,-1.70756e-06,-5.35142e+08,-5.3515e+08,-5.35186e+08,-117139,0.0080217,0.168044,0,0.168235,6345.45,-19485.8,0,20493,117139
step02_gravity_refstate-crust.xmf,498,4.15465e-07,7.53451e-07,0,-1.34822e-06,-4.32752e+08,-4.32729e+08,-4.3278e+08,-92487.7,0.00729353,0.165736,0,0.165897,8230.92,-15757.6,0,17777.8,92487.7
step02_gravity_refstate-crust.xmf,499,4.39482e-07,5.92002e-07,0,-1.03268e-06,-3.28076e+08,-3.28066e+08,-3.28106e+08,-70841.8,0.00648069,0.16738,0,0.167506,8670.87,-11946.6,0,14761.6,70841.8
step02_gravity_refstate-crust.xmf,500,5.38521e-07,-2.04642e-07,0,-5.56299e-09,51143.1,162.154,14200.6,-381.621,0.0149657,0.16266,0,0.163348,13099.6,0,0,13099.6,381.621
step02_gravity_refstate-crust.xmf,501,5.53695e-07,-6.6375e-08,0,-2.48894e-07,-4.8253e+07,-4.82955e+07,-4.8291e+07,-17074.1,0.0119138,0.164625,0,0.165055,12064.5,-1758.84,0,12192,17074.1
step02_gravity_refstate-crust.xmf,502,5.63275e-07,1.57019e-07,0,-5.45989e-07,-1.3511e+08,-1.35138e+08,-1.35148e+08,-37454.8,0.00804168,0.16811,0,0.168303,9853.35,-4921.33,0,11014,37454.8
step02_gravity_refstate-crust.xmf,503,5.61557e-07,5.62873e-08,0,-4.23477e-07,-9.31322e+07,-9.31669e+07,-9.31708e+07,-29050.5,0.00966595,0.166503,0,0.166783,10939.7,-3392.93,0,11453.8,29050.5
step02_gravity_refstate-crust.xmf,504,6.63288e-07,-1.35728e-07,0,-4.16553e-06,-7.49763e+08,-7.49818e+08,-7.49809e+08,-285755,0.0116795,0.177244,0,0.177629,3945.76,-27298.4,0,27582,285755
step02_gravity_refstate-crust.xmf,505,7.26635e-07,-4.39273e-07,0,-4.60174e-06,-7.65646e+08,-7.65726e+08,-7.65695e+08,-315680,0.0117681,0.180439,0,0.180822,3568.71,-27876.4,0,28103.9,315680
step02_gravity_refstate-crust.xmf,506,8.75405e-07,-6.98818e-08,0,-3.21204e-06,-6.98595e+08,-6.9866e+08,-6.98655e+08,-220346,0.0106674,0.173783,0,0.17411,4446.67,-25436.5,0,25822.2,220346
step02_gravity_refstate-crust.xmf,507,8.49539e-07,1.7225e-07,0,-2.54268e-06,-6.48115e+08,-6.48161e+08,-6.48173e+08,-174428,0.00971158,0.171124,0,0.171399,5011.57,-23599,0,24125.2,174428
step02_gravity_refstate-crust.xmf,508,1.0059e-06,-7.21996e-08,0,-2.68899e-06,-6.62761e+08,-6.62835e+08,-6.6283e+08,-184465,0.00971352,0.173088,0,0.17336,4563.45,-24132.4,0,24560.1,184465
step02_gravity_refstate-crust.xmf,509,6.016e-07,6.14017e-07,0,-2.0185e-06,-5.82583e+08,-5.82582e+08,-5.82624e+08,-138469,0.00897525,0.167355,0,0.167595,6252.3,-21212.9,0,22115.1,138469
step02_gravity_refstate-crust.xmf,510,7.9725e-07,-7.89221e-07,0,-5.08881e-06,-7.80766e+08,-7.80874e+08,-7.8082e+08,-349092,0.011772,0.184086,0,0.184462,3202.23,-28426.6,0,28606.4,349092
step02_gravity_refstate-crust.xmf,511,2.12765e-07,-5.55739e-08,0,-5.62913e-06,-8.10273e+08,-8.10291e+08,-8.10287e+08,-386158,0.0116976,0.185411,0,0.185779,3124.25,-29499.6,0,29664.5,386158
step02_gravity_refstate-crust.xmf,512,-2.38941e-07,9.29469e-07,0,-5.45473e-06,-8.2536e+08,-8.2528e+08,-8.25344e+08,-374195,0.011086,0.181824,0,0.182162,3399.32,-30048.5,0,30240.2,374195
step02_gravity_refstate-crust.xmf,513,-5.02948e-07,1.78719e-06,0,-5.19116e-06,-8.39906e+08,-8.39749e+08,-8.39872e+08,-356113,0.00995713,0.177629,0,0.177908,3675.32,-30578.4,0,30798.4,356113
step02_gravity_refstate-crust.xmf,514,-4.69386e-07,2.60853e-06,0,-5.3396e-06,-8.67042e+08,-8.66831e+08,-8.6701e+08,-366297,0.00716664,0.175753,0,0.175899,3653.35,-31567.7,0,31778.4,366297
step02_gravity_refstate-crust.xmf,515,-7.11803e-07,3.202e-06,0,-4.58446e-06,-8.66959e+08,-8.66691e+08,-8.6691e+08,-314494,0.00682731,0.168001,0,0.16814,4241.75,-31564.6,0,31848.3,314494
step02_gravity_refstate-crust.xmf,516,-9.3796e-07,4.08944e-06,0,-2.56198e-06,-8.62855e+08,-8.6251e+08,-8.62791e+08,-175752,0.00512259,0.144726,0,0.144816,6646.85,-31415.6,0,32111.1,175752
step02_gravity_refstate-crust.xmf,517,-8.51885e-07,4.08631e-06,0,-1.7593e-06,-8.49693e+08,-8.49354e+08,-8.49634e+08,-120688,0.00442125,0.132629,0,0.132703,8733.92,-30936.8,0,32146,120688
step02_gravity_refstate-crust.xmf,518,-7.69013e-07,4.08324e-06,0,-1.51219e-06,-8.51365e+08,-8.51032e+08,-8.51312e+08,-103736,0.00357715,0.127586,0,0.127636,9619.2,-30998,0,32456.2,103736
step02_gravity_refstate-crust.xmf,519,-6.73555e-07,4.05902e-06,0,-1.30408e-06,-8.52793e+08,-8.52469e+08,-8.52747e+08,-89459.8,0.00281922,0.122953,0,0.122985,10537.1,-31050.4,0,32789.5,89459.8
step02_gravity_refstate-crust.xmf,520,-5.86752e-07,4.01884e-06,0,-1.14009e-06,-8.53847e+08,-8.53531e+08,-8.53807e+08,-78209.8,0.0021697,0.118806,0,0.118826,11464.6,-31089,0,33135.5,78209.8
step02_gravity_refstate-crust.xmf,521,-5.28224e-07,3.95632e-06,0,-1.01721e-06,-8.50954e+08,-8.50646e+08,-8.50918e+08,-69780.5,0.00182203,0.115533,0,0.115548,12419.8,-30983.8,0,33380.4,69780.5
step02_gravity_refstate-crust.xmf,522,-2.76982e-07,3.20503e-06,0,-5.16981e-07,-7.60806e+08,-7.60568e+08,-7.60787e+08,-35464.9,0.00130284,0.102859,0,0.102867,22252.3,-27701.8,0,35532.4,35464.9
step02_gravity_refstate-crust.xmf,523,-4.85366e-07,3.88994e-06,0,-9.29234e-07,-8.46249e+08,-8.45948e+08,-8.46215e+08,-63745.5,0.00165249,0.113172,0,0.113184,13282.8,-30812.6,0,33553.6,63745.5
step02_gravity_refstate-crust.xmf,524,-4.63621e-07,3.4814e-06,0,-7.53708e-07,-7.83865e+08,-7.83594e+08,-7.83833e+08,-51704.4,0.00248437,0.110343,0,0.110371,17190,-28540.9,0,33317.8,51704.4
step02_gravity_refstate-crust.xmf,525,-4.56176e-07,3.74527e-06,0,-8.1821e-07,-8.28752e+08,-8.28464e+08,-8.28721e+08,-56129.2,0.00173364,0.110383,0,0.110396,14956.9,-30175.5,0,33678.9,56129.2
step02_gravity_refstate-crust.xmf,526,-4.21088e-07,3.63612e-06,0,-7.40595e-07,-8.15579e+08,-8.15301e+08,-8.1555e+08,-50804.8,0.0016947,0.108417,0,0.10843,16322.8,-29695.9,0,33886.3,50804.8
step02_gravity_refstate-crust.xmf,527,-3.07194e-08,2.99767e-06,0,-2.21393e-07,-7.76515e+08,-7.76307e+08,-7.76512e+08,-15187.6,-0.000176172,0.0908169,-0,0.0908171,30974.5,-28274.3,0,41938.7,15187.6
step02_gravity_refstate-crust.xmf,528,1.47544e-07,3.18458e-06,0,-3.94888e-08,-8.66534e+08,-8.66325e+08,-8.66544e+08,-2708.93,-0.000295786,0.0776936,-0,0.0776941,38020.7,-31552.6,0,49407.9,2708.93
step02_gravity_refstate-crust.xmf,529,5.66164e-07,6.34666e-07,0,-1.62708e-06,-5.14589e+08,-5.14584e+08,-5.14628e+08,-111618,0.00791293,0.16715,0,0.167337,6824.01,-18737.4,0,19941.3,111618
step02_gravity_refstate-crust.xmf,530,7.54623e-07,4.05484e-07,0,-1.80104e-06,-5.57594e+08,-5.57618e+08,-5.57646e+08,-123552,0.00811039,0.169257,0,0.169452,5798.31,-20303.4,0,21115.2,123552
step02_gravity_refstate-crust.xmf,531,4.48456e-07,6.68606e-07,0,-1.21452e-06,-3.9585e+08,-3.95835e+08,-3.9588e+08,-83316.1,0.00683081,0.166793,0,0.166933,8186.38,-14414.2,0,16576.6,83316.1
step02_gravity_refstate-crust.xmf,532,5.01289e-07,6.91953e-07,0,-1.4294e-06,-4.64733e+08,-4.6472e+08,-4.64767e+08,-98056.8,0.00739089,0.166768,0,0.166931,7441.66,-16922.2,0,18486.2,98056.8
step02_gravity_refstate-crust.xmf,533,4.63684e-07,3.83257e-07,0,-7.72704e-07,-2.16253e+08,-2.16259e+08,-2.16285e+08,-53007.5,0.0069158,0.167659,0,0.167802,9634.71,-7875.38,0,12443.8,53007.5
step02_gravity_refstate-crust.xmf,534,4.82841e-07,4.288e-07,0,-8.3757e-07,-2.53962e+08,-2.53966e+08,-2.53995e+08,-57457.3,0.0063718,0.168535,0,0.168656,8795.1,-9248.36,0,12762.7,57457.3
step02_gravity_refstate-crust.xmf,535,5.13019e-07,4.50805e-07,0,-8.90878e-07,-2.90226e+08,-2.9023e+08,-2.90261e+08,-61114.2,0.00601242,0.169271,0,0.169378,8019.22,-10568.7,0,13266.7,61114.2
step02_gravity_refstate-crust.xmf,536,5.00719e-07,5.6532e-07,0,-1.07575e-06,-3.59747e+08,-3.59743e+08,-3.59782e+08,-73796.1,0.00630771,0.168336,0,0.168454,7822.05,-13099.9,0,15257.5,73796.1
step02_gravity_refstate-crust.xmf,537,5.6171e-07,2.44808e-07,0,-6.36904e-07,-1.75536e+08,-1.75558e+08,-1.75575e+08,-43691.6,0.00690475,0.169319,0,0.169459,8908.53,-6393.23,0,10965.2,43691.6
step02_gravity_refstate-crust.xmf,538,1.02548e-06,-4.01276e-07,0,-3.50616e-06,-7.15683e+08,-7.15781e+08,-7.15753e+08,-240523,0.0107772,0.176419,0,0.176748,4017.34,-26058.7,0,26366.5,240523
step02_gravity_refstate-crust.xmf,539,1.19382e-06,-4.44687e-07,0,-2.89237e-06,-6.80243e+08,-6.80355e+08,-6.80324e+08,-198417,0.00973718,0.17544,0,0.17571,4098.54,-24769.1,0,25105.9,198417
step02_gravity_refstate-crust.xmf,540,1.17899e-06,-7.75431e-07,0,-3.85326e-06,-7.32498e+08,-7.32632e+08,-7.32579e+08,-264333,0.0108794,0.1793,0,0.17963,3621.56,-26670.9,0,26915.6,264333
step02_gravity_refstate-crust.xmf,541,7.20547e-07,4.09179e-07,0,-2.15313e-06,-6.03407e+08,-6.03428e+08,-6.03456e+08,-147705,0.00909109,0.16893,0,0.169175,5692.61,-21971.2,0,22696.7,147705
step02_gravity_refstate-crust.xmf,542,8.7959e-07,1.60037e-07,0,-2.32071e-06,-6.26458e+08,-6.26507e+08,-6.26518e+08,-159201,0.00920671,0.170884,0,0.171132,5103.38,-22810.6,0,23374.6,159201
step02_gravity_refstate-crust.xmf,543,1.19552e-06,-3.07146e-07,0,-2.38353e-06,-6.42694e+08,-6.42797e+08,-6.42776e+08,-163510,0.00879774,0.174193,0,0.174415,4268.4,-23402.3,0,23788.4,163510
step02_gravity_refstate-crust.xmf,544,8.85805e-07,-1.13167e-06,0,-5.60806e-06,-7.95115e+08,-7.95253e+08,-7.95175e+08,-384713,0.0116497,0.188266,0,0.188626,2844.25,-28948.8,0,29088.2,384713
step02_gravity_refstate-crust.xmf,545,-2.9022e-07,1.71978e-06,0,-5.68794e-06,-8.53462e+08,-8.53324e+08,-8.53442e+08,-390193,0.00880986,0.181235,0,0.181449,3343.16,-31072.6,0,31251.9,390193
step02_gravity_refstate-crust.xmf,546,-5.68424e-07,3.41137e-06,0,-4.9555e-06,-8.80054e+08,-8.79781e+08,-8.80015e+08,-339947,0.00536155,0.16971,0,0.169795,3987.76,-32042.2,0,32289.4,339947
step02_gravity_refstate-crust.xmf,547,-7.87521e-07,3.734e-06,0,-4.05986e-06,-8.75581e+08,-8.75271e+08,-8.75527e+08,-278507,0.0054426,0.161468,0,0.161559,4697.19,-31879,0,32223.2,278507
step02_gravity_refstate-crust.xmf,548,-8.88337e-07,4.1788e-06,0,-2.17412e-06,-8.64834e+08,-8.64486e+08,-8.64773e+08,-149145,0.00423494,0.13874,0,0.138805,7410.7,-31488,0,32348.3,149145
step02_gravity_refstate-crust.xmf,549,-8.5079e-07,4.08305e-06,0,-3.30041e-06,-8.77841e+08,-8.77503e+08,-8.77783e+08,-226408,0.00452959,0.152851,0,0.152918,5475.24,-31961.6,0,32427.2,226408
step02_gravity_refstate-crust.xmf,550,-8.29358e-07,4.25427e-06,0,-2.74761e-06,-8.79897e+08,-8.79548e+08,-8.7984e+08,-188486,0.00367959,0.145803,0,0.14585,6204.04,-32036.7,0,32631.9,188486
step02_gravity_refstate-crust.xmf,551,-2.73006e-07,2.79721e-06,0,-5.97081e-06,-8.80854e+08,-8.80643e+08,-8.80835e+08,-409597,0.00552908,0.178906,0,0.178991,3347.99,-32071.6,0,32245.9,409597
step02_gravity_refstate-crust.xmf,552,-7.73399e-07,4.23458e-06,0,-1.81577e-06,-8.69439e+08,-8.69096e+08,-8.69386e+08,-124562,0.0031093,0.132475,0,0.132512,8257.41,-31656.2,0,32715.5,124562
step02_gravity_refstate-crust.xmf,553,-3.94838e-07,3.43473e-06,0,-6.68204e-07,-7.85406e+08,-7.85143e+08,-7.85379e+08,-45838.8,0.00188929,0.107162,0,0.107178,18474.4,-28597.2,0,34045.6,45838.8
step02_gravity_refstate-crust.xmf,554,-6.58063e-08,3.04451e-06,0,-2.73573e-07,-7.77024e+08,-7.7681e+08,-7.77019e+08,-18767.1,-9.17346e-05,0.0923662,-0,0.0923662,29040.3,-28292.8,0,40544.1,18767.1
step02_gravity_refstate-crust.xmf,555,-3.23003e-07,3.39163e-06,0,-5.86133e-07,-7.89313e+08,-7.89058e+08,-7.89291e+08,-40208.7,0.00127432,0.103752,0,0.103759,19876.8,-28739.7,0,34943.6,40208.7
step02_gravity_refstate-crust.xmf,556,-2.56675e-07,3.34693e-06,0,-5.1445e-07,-7.93301e+08,-7.93054e+08,-7.93284e+08,-35291.3,0.000746298,0.100548,0,0.100551,21337.7,-28885.1,0,35911.6,35291.3
step02_gravity_refstate-crust.xmf,557,-2.14325e-07,3.16633e-06,0,-4.46564e-07,-7.65969e+08,-7.65737e+08,-7.65955e+08,-30634.3,0.000797123,0.0997565,0,0.0997597,23847.9,-27889.9,0,36695.7,30634.3
step02_gravity_refstate-crust.xmf,558,-1.08513e-07,3.08677e-06,0,-3.26868e-07,-7.75014e+08,-7.74795e+08,-7.75007e+08,-22423.1,9.10397e-05,0.0943906,0,0.0943906,27248,-28219.5,0,39227.5,22423.1
step02_gravity_refstate-crust.xmf,559,-1.58793e-07,3.12814e-06,0,-3.84328e-07,-7.71522e+08,-7.71297e+08,-7.71512e+08,-26364.9,0.000378252,0.0968302,0,0.0968309,25518.9,-28092.2,0,37952.5,26364.9
step02_gravity_refstate-crust.xmf,560,-3.88479e-07,3.87173e-06,0,-8.19776e-07,-8.55193e+08,-8.54901e+08,-8.55167e+08,-56236.7,0.000766183,0.108889,0,0.108892,14225,-31138.6,0,34234,56236.7
step02_gravity_refstate-crust.xmf,561,1.10155e-07,3.12669e-06,0,-8.39086e-08,-8.43037e+08,-8.4283e+08,-8.43044e+08,-5756.13,-0.000476992,0.0808418,-0,0.0808432,35974.7,-30696.9,0,47291.4,5756.13
step02_gravity_refstate-crust.xmf,562,7.78051e-08,3.11628e-06,0,-1.3213e-07,-8.31157e+08,-8.30948e+08,-8.31162e+08,-9064.14,-0.000605905,0.0830082,-0,0.0830104,33841.9,-30264.2,0,45400.4,9064.14
step02_gravity_refstate-crust.xmf,563,4.5311e-08,3.13509e-06,0,-1.81796e-07,-8.25411e+08,-8.25199e+08,-8.25414e+08,-12471.2,-0.000686852,0.0848351,-0,0.0848379,31726.8,-30054.9,0,43702.2,12471.2
step02_gravity_refstate-crust.xmf,564,1.92557e-07,3.29071e-06,0,-5.35826e-10,-9.02725e+08,-9.02512e+08,-9.02738e+08,-36.7577,-3.01811e-20,0.0732896,-0,0.0732896,40000,-32870.5,0,51773.2,36.7577
step02_gravity_refstate-crust.xmf,565,6.15389e-07,5.49726e-07,0,-1.48935e-06,-4.90442e+08,-4.90446e+08,-4.90484e+08,-102169,0.00737283,0.168137,0,0.168299,6646.39,-17858.4,0,19055.1,102169
step02_gravity_refstate-crust.xmf,566,7.45313e-07,3.89433e-07,0,-1.52635e-06,-5.11702e+08,-5.11726e+08,-5.11753e+08,-104707,0.00725744,0.16962,0,0.169775,5906.61,-18632.6,0,19546.4,104707
step02_gravity_refstate-crust.xmf,567,8.70916e-07,2.27493e-07,0,-1.57869e-06,-5.33307e+08,-5.33351e+08,-5.33367e+08,-108298,0.00720831,0.170865,0,0.171017,5320.74,-19419.5,0,20135.2,108298
step02_gravity_refstate-crust.xmf,568,5.26395e-07,5.90859e-07,0,-1.2246e-06,-4.1317e+08,-4.13165e+08,-4.13206e+08,-84007.3,0.0066586,0.168017,0,0.168149,7418.04,-15044.9,0,16774.3,84007.3
step02_gravity_refstate-crust.xmf,569,5.90342e-07,5.32218e-07,0,-1.26717e-06,-4.36168e+08,-4.36172e+08,-4.36208e+08,-86927.8,0.00665634,0.168702,0,0.168834,6871.68,-15882.3,0,17305.2,86927.8
step02_gravity_refstate-crust.xmf,570,5.61776e-07,4.48859e-07,0,-9.27149e-07,-3.23113e+08,-3.2312e+08,-3.23151e+08,-63602.4,0.0057328,0.170063,0,0.17016,7233.66,-11766.2,0,13811.9,63602.4
step02_gravity_refstate-crust.xmf,571,7.71692e-07,-2.93053e-07,0,-6.15524e-09,73295.6,254.066,20357.5,-422.25,0.0136118,0.165988,0,0.166545,11021.2,0,0,11021.2,422.25
step02_gravity_refstate-crust.xmf,572,7.43994e-07,-1.46917e-07,0,-2.24726e-07,-4.63764e+07,-4.64375e+07,-4.64274e+07,-15416.2,0.0106428,0.167936,0,0.168273,9988.27,-1691.16,0,10130.4,15416.2
step02_gravity_refstate-crust.xmf,573,6.87886e-07,8.14556e-08,0,-4.78528e-07,-1.32172e+08,-1.32213e+08,-1.32219e+08,-32827,0.00694826,0.170893,0,0.171034,8022.21,-4814.75,0,9356.16,32827
step02_gravity_refstate-crust.xmf,574,7.11894e-07,-1.84804e-08,0,-3.77988e-07,-9.05643e+07,-9.06144e+07,-9.06131e+07,-25929.9,0.00849671,0.169552,0,0.169765,8991.89,-3299.94,0,9578.29,25929.9
step02_gravity_refstate-crust.xmf,575,1.34972e-06,-1.2205e-06,0,-4.25545e-06,-7.48524e+08,-7.48701e+08,-7.48617e+08,-291924,0.0109374,0.18254,0,0.182867,3244.2,-27254.3,0,27446.8,291924
step02_gravity_refstate-crust.xmf,576,1.55813e-06,-1.77941e-06,0,-4.73528e-06,-7.64053e+08,-7.64282e+08,-7.64159e+08,-324840,0.0109249,0.186327,0,0.186647,2869.24,-27819.6,0,27967.2,324840
step02_gravity_refstate-crust.xmf,577,1.39148e-06,-8.21329e-07,0,-3.13433e-06,-6.97984e+08,-6.98136e+08,-6.98079e+08,-215015,0.00978225,0.177949,0,0.178217,3681.59,-25415.2,0,25680.4,215015
step02_gravity_refstate-crust.xmf,578,1.44234e-06,-6.76999e-07,0,-2.51791e-06,-6.6132e+08,-6.61465e+08,-6.61419e+08,-172729,0.00865957,0.17668,0,0.176892,3737.33,-24080.8,0,24369.1,172729
step02_gravity_refstate-crust.xmf,579,8.9121e-07,2.15988e-07,0,-1.90514e-06,-5.80189e+08,-5.80236e+08,-5.8025e+08,-130693,0.00816489,0.170724,0,0.170919,5239.33,-21126.3,0,21766.3,130693
step02_gravity_refstate-crust.xmf,580,1.73092e-06,-2.22673e-06,0,-5.25716e-06,-7.79625e+08,-7.79896e+08,-7.79744e+08,-360641,0.0109132,0.190388,0,0.190701,2542.56,-28386.6,0,28500.2,360641
step02_gravity_refstate-crust.xmf,581,9.77758e-07,-1.5682e-06,0,-6.21393e-06,-8.09078e+08,-8.09253e+08,-8.09146e+08,-426276,0.011347,0.192914,0,0.193248,2508.7,-29456.8,0,29563.5,426276
step02_gravity_refstate-crust.xmf,582,3.32261e-07,-3.44252e-07,0,-6.14257e-06,-8.23985e+08,-8.24032e+08,-8.24008e+08,-421380,0.0111258,0.189795,0,0.190121,2787.93,-29998.8,0,30128.1,421380
step02_gravity_refstate-crust.xmf,583,-4.6479e-08,7.36001e-07,0,-5.94703e-06,-8.3892e+08,-8.38866e+08,-8.38916e+08,-407966,0.0102063,0.185915,0,0.186195,3060.41,-30542.7,0,30695.6,407966
step02_gravity_refstate-crust.xmf,584,-1.81184e-08,1.72203e-06,0,-6.36154e-06,-8.66819e+08,-8.667e+08,-8.66818e+08,-436401,0.00734509,0.18511,0,0.185256,3032.02,-31560,0,31705.3,436401
step02_gravity_refstate-crust.xmf,585,-7.53991e-07,4.33998e-06,0,-2.29374e-06,-8.82039e+08,-8.8169e+08,-8.81987e+08,-157350,0.00285312,0.139469,0,0.139499,6944.8,-32115.2,0,32857.5,157350
step02_gravity_refstate-crust.xmf,586,-4.31647e-07,3.79738e-06,0,-5.54291e-06,-8.95044e+08,-8.94754e+08,-8.95015e+08,-380244,0.00349438,0.172435,0,0.172471,3658.72,-32589.1,0,32793.9,380244
step02_gravity_refstate-crust.xmf,587,-6.58499e-07,4.23268e-06,0,-1.53535e-06,-8.71968e+08,-8.71632e+08,-8.71923e+08,-105325,0.00228225,0.127178,0,0.127199,9105.18,-31748.8,0,33028.6,105325
step02_gravity_refstate-crust.xmf,588,-5.73571e-07,4.18742e-06,0,-1.32159e-06,-8.73731e+08,-8.73405e+08,-8.73692e+08,-90660.8,0.00157221,0.122189,0,0.122199,10027.9,-31813.2,0,33356.2,90660.8
step02_gravity_refstate-crust.xmf,589,-4.90146e-07,4.13313e-06,0,-1.14835e-06,-8.74773e+08,-8.74456e+08,-8.74739e+08,-78776.6,0.000999942,0.117763,0,0.117767,10970,-31851.4,0,33687.6,78776.6
step02_gravity_refstate-crust.xmf,590,-4.21628e-07,4.06869e-06,0,-1.00917e-06,-8.74701e+08,-8.74393e+08,-8.74673e+08,-69229.3,0.00055867,0.113776,0,0.113777,11961.4,-31849,0,34021,69229.3
step02_gravity_refstate-crust.xmf,591,-3.63309e-07,3.9907e-06,0,-8.82374e-07,-8.73167e+08,-8.72868e+08,-8.73142e+08,-60530.9,0.000196322,0.109781,0,0.109781,13141.8,-31793.2,0,34402.3,60530.9
step02_gravity_refstate-crust.xmf,592,-1.89888e-07,3.30734e-06,0,-4.47681e-07,-7.98736e+08,-7.98496e+08,-7.98723e+08,-30710.9,0.000273774,0.0973915,0,0.0973919,22855.1,-29083.1,0,36988.9,30710.9
step02_gravity_refstate-crust.xmf,593,-3.48296e-07,3.5798e-06,0,-6.50438e-07,-8.1844e+08,-8.1817e+08,-8.18416e+08,-44620.1,0.00104641,0.104606,0,0.104611,17734.4,-29800.2,0,34678,44620.1
step02_gravity_refstate-crust.xmf,594,-3.59425e-07,3.81642e-06,0,-7.60067e-07,-8.52086e+08,-8.518e+08,-8.52061e+08,-52140.6,0.000602381,0.106844,0,0.106846,15070.6,-31025.5,0,34492.1,52140.6
step02_gravity_refstate-crust.xmf,595,-3.35878e-07,3.76264e-06,0,-7.0962e-07,-8.48481e+08,-8.482e+08,-8.48458e+08,-48679.9,0.000479255,0.105084,0,0.105085,15900.7,-30894.3,0,34746,48679.9
step02_gravity_refstate-crust.xmf,596,1.21593e-08,3.16579e-06,0,-2.27918e-07,-8.22149e+08,-8.21933e+08,-8.2215e+08,-15635.2,-0.000704576,0.0865618,-0,0.0865647,29854.9,-29936.1,0,42278.7,15635.2
step02_gravity_refstate-crust.xmf,597,1.72134e-07,3.27229e-06,0,-6.65482e-08,-8.92034e+08,-8.91821e+08,-8.92045e+08,-4565.21,-0.000621034,0.0749925,-0,0.0749951,36489.4,-32481.1,0,48851.8,4565.21
step02_gravity_refstate-crust.xmf,598,2.17101e-07,3.37137e-06,0,-3.63763e-08,-9.27539e+08,-9.27322e+08,-9.27554e+08,-2495.41,-0.000437897,0.0704145,-0,0.0704158,37997,-33774.1,0,50837.6,2495.41
step02_gravity_refstate-crust.xmf,599,1.01269e-06,5.89489e-08,0,-1.64323e-06,-5.55865e+08,-5.5593e+08,-5.55934e+08,-112726,0.00717162,0.172175,0,0.172325,4777.79,-20241,0,20797.2,112726
step02_gravity_refstate-crust.xmf,600,5.76643e-07,4.98342e-07,0,-1.10282e-06,-3.87238e+08,-3.87243e+08,-3.87277e+08,-75653.8,0.00613906,0.16934,0,0.169452,7016.09,-14100.9,0,15749.9,75653.8
step02_gravity_refstate-crust.xmf,601,6.93294e-07,4.38797e-07,0,-1.30539e-06,-4.61848e+08,-4.61865e+08,-4.61896e+08,-89549.6,0.00658122,0.169782,0,0.16991,6160.25,-16817.5,0,17910.3,89549.6
step02_gravity_refstate-crust.xmf,602,6.63072e-07,4.15474e-07,0,-1.10942e-06,-4.09999e+08,-4.10016e+08,-4.10045e+08,-76106,0.00593241,0.170384,0,0.170488,6261.66,-14929.8,0,16189.7,76106
step02_gravity_refstate-crust.xmf,603,5.70675e-07,2.93719e-07,0,-6.97648e-07,-2.14797e+08,-2.14816e+08,-2.14836e+08,-47858.6,0.00608682,0.170317,0,0.170426,8014.74,-7822.67,0,11199.6,47858.6
step02_gravity_refstate-crust.xmf,604,5.84157e-07,3.33303e-07,0,-7.49909e-07,-2.53785e+08,-2.53802e+08,-2.53825e+08,-51443.8,0.00557078,0.17096,0,0.171051,7293.02,-9242.18,0,11773.1,51443.8
step02_gravity_refstate-crust.xmf,605,6.1577e-07,3.43695e-07,0,-7.87202e-07,-2.89002e+08,-2.8902e+08,-2.89044e+08,-54002,0.00521565,0.171536,0,0.171616,6613.5,-10524.4,0,12429.9,54002
step02_gravity_refstate-crust.xmf,606,6.30128e-07,4.06421e-07,0,-9.46446e-07,-3.53886e+08,-3.53901e+08,-3.53929e+08,-64926.2,0.00547244,0.170931,0,0.171019,6431.01,-12886.8,0,14402.3,64926.2
step02_gravity_refstate-crust.xmf,607,6.70042e-07,1.67756e-07,0,-5.5295e-07,-1.73949e+08,-1.73984e+08,-1.73995e+08,-37932.4,0.00583578,0.171902,0,0.172001,7148.22,-6335.77,0,9551.91,37932.4
step02_gravity_refstate-crust.xmf,608,1.61148e-06,-1.261e-06,0,-3.41567e-06,-7.15223e+08,-7.1542e+08,-7.15334e+08,-234315,0.00980934,0.180723,0,0.180989,3294.03,-26043,0,26250.5,234315
step02_gravity_refstate-crust.xmf,609,1.67985e-06,-1.12597e-06,0,-2.69902e-06,-6.79862e+08,-6.80054e+08,-6.79977e+08,-185153,0.00860842,0.179074,0,0.179281,3320.53,-24756.1,0,24977.8,185153
step02_gravity_refstate-crust.xmf,610,1.87606e-06,-1.79911e-06,0,-3.72996e-06,-7.31546e+08,-7.31798e+08,-7.31675e+08,-255875,0.00977126,0.183878,0,0.184138,2917.76,-26637.5,0,26796.8,255875
step02_gravity_refstate-crust.xmf,611,1.05652e-06,-5.25094e-08,0,-2.01167e-06,-6.01649e+08,-6.01725e+08,-6.01721e+08,-138001,0.00815755,0.172428,0,0.172621,4690.03,-21907.8,0,22404.2,138001
step02_gravity_refstate-crust.xmf,612,1.56557e-06,-8.15164e-07,0,-2.15417e-06,-6.41136e+08,-6.41299e+08,-6.41243e+08,-147776,0.00764866,0.177156,0,0.177322,3467.68,-23346.3,0,23602.4,147776
step02_gravity_refstate-crust.xmf,613,1.26694e-06,-3.66283e-07,0,-2.0872e-06,-6.20215e+08,-6.20327e+08,-6.20301e+08,-143182,0.00798516,0.174471,0,0.174653,4119.84,-22584.1,0,22956.8,143182
step02_gravity_refstate-crust.xmf,614,-1.18624e-07,3.14914e-06,0,-6.86436e-06,-8.94654e+08,-8.94429e+08,-8.94645e+08,-470895,0.00372629,0.182985,0,0.183023,3010.95,-32575.2,0,32714,470895
step02_gravity_refstate-crust.xmf,615,1.90588e-06,-3.01477e-06,0,-5.96751e-06,-7.94197e+08,-7.94535e+08,-7.94328e+08,-409371,0.0107698,0.19502,0,0.195317,2225.82,-28916.6,0,29002.1,409371
step02_gravity_refstate-crust.xmf,616,2.87953e-07,5.3428e-07,0,-6.61553e-06,-8.52457e+08,-8.52441e+08,-8.52477e+08,-453826,0.00891518,0.190415,0,0.190624,2741.53,-31036.6,0,31157.4,453826
step02_gravity_refstate-crust.xmf,617,2.48318e-07,1.89413e-06,0,-7.34365e-06,-8.80448e+08,-8.80335e+08,-8.80465e+08,-503774,0.00559061,0.189801,0,0.189884,2705.97,-32057.5,0,32171.5,503774
step02_gravity_refstate-crust.xmf,618,-6.00444e-07,4.09881e-06,0,-4.50961e-06,-8.94594e+08,-8.94272e+08,-8.94553e+08,-309359,0.00320642,0.163181,0,0.163213,4332.96,-32572.5,0,32859.4,309359
step02_gravity_refstate-crust.xmf,619,-6.18093e-07,4.40374e-06,0,-1.90888e-06,-8.90096e+08,-8.89752e+08,-8.90054e+08,-130949,0.00145919,0.132596,0,0.132604,7730.82,-32409.2,0,33318.4,130949
step02_gravity_refstate-crust.xmf,620,-6.84378e-07,4.32462e-06,0,-3.65639e-06,-8.94688e+08,-8.94344e+08,-8.94641e+08,-250828,0.00273267,0.15475,0,0.154774,5045.05,-32575.9,0,32964.3,250828
step02_gravity_refstate-crust.xmf,621,-6.76291e-07,4.46534e-06,0,-2.99342e-06,-8.96477e+08,-8.96124e+08,-8.96431e+08,-205349,0.00200852,0.147104,0,0.147118,5768.96,-32641.3,0,33147.2,205349
step02_gravity_refstate-crust.xmf,622,-6.29138e-07,4.51042e-06,0,-2.49343e-06,-8.97804e+08,-8.97451e+08,-8.9776e+08,-171049,0.00138136,0.140579,0,0.140586,6483.69,-32689.9,0,33326.7,171049
step02_gravity_refstate-crust.xmf,623,-5.18532e-07,4.36748e-06,0,-1.58495e-06,-8.9246e+08,-8.92125e+08,-8.92424e+08,-108728,0.000694805,0.126378,0,0.126379,8675.13,-32495.6,0,33633.6,108728
step02_gravity_refstate-crust.xmf,624,-2.82854e-07,3.53135e-06,0,-5.78236e-07,-8.2141e+08,-8.21148e+08,-8.21391e+08,-39667,0.000538008,0.101388,0,0.10139,19040.1,-29908.6,0,35454.9,39667
step02_gravity_refstate-crust.xmf,625,-2.61507e-08,3.20516e-06,0,-2.76474e-07,-8.19445e+08,-8.19224e+08,-8.19443e+08,-18966.1,-0.000655383,0.0885286,-0,0.088531,27994.3,-29837.6,0,40914.1,18966.1
step02_gravity_refstate-crust.xmf,626,-2.2016e-07,3.48301e-06,0,-5.11846e-07,-8.25022e+08,-8.24768e+08,-8.25007e+08,-35112.6,7.6108e-05,0.0981914,0,0.0981915,20450.4,-30040.2,0,36340.6,35112.6
step02_gravity_refstate-crust.xmf,627,-1.63199e-07,3.43664e-06,0,-4.52768e-07,-8.28853e+08,-8.28606e+08,-8.28841e+08,-31059.9,-0.000305776,0.0951957,-0,0.0951962,21907.2,-30179.9,0,37292.8,31059.9
step02_gravity_refstate-crust.xmf,628,-1.15895e-07,3.29767e-06,0,-3.79216e-07,-8.14083e+08,-8.13848e+08,-8.14075e+08,-26014.2,-0.000315807,0.0932137,-0,0.0932142,24475,-29642.1,0,38440.6,26014.2
step02_gravity_refstate-crust.xmf,629,-7.05901e-08,3.24065e-06,0,-3.26023e-07,-8.1474e+08,-8.14513e+08,-8.14735e+08,-22365.2,-0.000496011,0.0908961,-0,0.0908975,26280.6,-29666.2,0,39632.7,22365.2
step02_gravity_refstate-crust.xmf,630,-2.65209e-07,3.95953e-06,0,-7.87747e-07,-8.81923e+08,-8.81633e+08,-8.81905e+08,-54039.4,-0.000587535,0.105428,-0,0.10543,14109.4,-32112.3,0,35075.3,54039.4
step02_gravity_refstate-crust.xmf,631,-2.49875e-07,3.87985e-06,0,-7.14639e-07,-8.75549e+08,-8.75266e+08,-8.75532e+08,-49024.2,-0.000550294,0.10319,-0,0.103192,15201.9,-31880.2,0,35319.2,49024.2
step02_gravity_refstate-crust.xmf,632,-2.76785e-07,3.70984e-06,0,-6.37724e-07,-8.49539e+08,-8.49266e+08,-8.4952e+08,-43747.9,8.43202e-05,0.102072,0,0.102072,17050.2,-30933,0,35320.8,43747.9
step02_gravity_refstate-crust.xmf,633,1.50646e-07,3.26615e-06,0,-1.03377e-07,-8.83735e+08,-8.83521e+08,-8.83745e+08,-7091.69,-0.000867082,0.0765369,-0,0.0765418,34696,-32178.9,0,47321.2,7091.69
step02_gravity_refstate-crust.xmf,634,1.19403e-07,3.26656e-06,0,-1.47633e-07,-8.73681e+08,-8.73465e+08,-8.73689e+08,-10127.6,-0.00107023,0.0786741,-0,0.0786814,32632.6,-31812.8,0,45573.4,10127.6
step02_gravity_refstate-crust.xmf,635,8.91429e-08,3.29164e-06,0,-1.92109e-07,-8.6898e+08,-8.6876e+08,-8.68986e+08,-13178.6,-0.00123056,0.0804673,-0,0.0804767,30637.3,-31641.5,0,44043.5,13178.6
step02_gravity_refstate-crust.xmf,636,2.62952e-07,3.49042e-06,0,-6.27561e-10,-9.67975e+08,-9.67754e+08,-9.67993e+08,-43.0507,-4.32164e-20,0.0652334,-0,0.0652334,40000,-35246.6,0,53313.4,43.0507
step02_gravity_refstate-crust.xmf,637,8.17611e-07,2.80701e-07,0,-1.32993e-06,-4.85796e+08,-4.85833e+08,-4.85853e+08,-91232.9,0.00643893,0.171007,0,0.171129,5453.32,-17689.6,0,18511.1,91232.9
step02_gravity_refstate-crust.xmf,638,9.56505e-07,1.09162e-07,0,-1.34608e-06,-5.08287e+08,-5.08345e+08,-5.08352e+08,-92341.2,0.00625152,0.172273,0,0.172386,4797.71,-18508.7,0,19120.4,92341.2
step02_gravity_refstate-crust.xmf,639,1.10068e-06,-7.63796e-08,0,-1.37295e-06,-5.31227e+08,-5.31307e+08,-5.31302e+08,-94184.6,0.00611435,0.173452,0,0.17356,4251.5,-19344.2,0,19805.9,94184.6
step02_gravity_refstate-crust.xmf,640,7.5597e-07,3.20569e-07,0,-1.12068e-06,-4.33755e+08,-4.33785e+08,-4.33807e+08,-76878.5,0.00576664,0.171302,0,0.171399,5598.79,-15794.8,0,16757.8,76878.5
step02_gravity_refstate-crust.xmf,641,6.72347e-07,3.21894e-07,0,-7.95838e-07,-3.20081e+08,-3.20105e+08,-3.20127e+08,-54594.5,0.00484719,0.172307,0,0.172375,5826.77,-11656.1,0,13031.3,54594.5
step02_gravity_refstate-crust.xmf,642,9.88639e-07,-3.7521e-07,0,-6.46024e-09,93911,350.957,26090.4,-443.173,0.0118181,0.168952,0,0.169365,8975.48,0,0,8975.48,443.173
step02_gravity_refstate-crust.xmf,643,9.12146e-07,-2.16041e-07,0,-1.94091e-07,-4.54371e+07,-4.55145e+07,-4.54996e+07,-13314.6,0.00901018,0.170767,0,0.171005,7976.38,-1657.54,0,8146.79,13314.6
step02_gravity_refstate-crust.xmf,644,8.01791e-07,1.23645e-08,0,-3.86041e-07,-1.29083e+08,-1.29137e+08,-1.29138e+08,-26482.4,0.00558668,0.173302,0,0.173392,6133.09,-4702.67,0,7728.51,26482.4
step02_gravity_refstate-crust.xmf,645,8.48729e-07,-8.70144e-08,0,-3.14786e-07,-8.80313e+07,-8.80955e+07,-8.80895e+07,-21594.3,0.0070351,0.17218,0,0.172324,7041.11,-3208.17,0,7737.54,21594.3
step02_gravity_refstate-crust.xmf,646,2.21994e-06,-2.49578e-06,0,-4.0736e-06,-7.46978e+08,-7.47302e+08,-7.47131e+08,-279449,0.00961383,0.187578,0,0.187825,2535.43,-27199.6,0,27317.5,279449
step02_gravity_refstate-crust.xmf,647,2.773e-06,-3.52254e-06,0,-4.47231e-06,-7.62686e+08,-7.63118e+08,-7.62876e+08,-306801,0.00925083,0.192325,0,0.192548,2110.91,-27772.1,0,27852.2,306801
step02_gravity_refstate-crust.xmf,648,1.95042e-06,-1.60896e-06,0,-2.90357e-06,-6.97982e+08,-6.98226e+08,-6.98116e+08,-199185,0.00853937,0.181724,0,0.181925,2936.31,-25416.1,0,25585.2,199185
step02_gravity_refstate-crust.xmf,649,2.86775e-06,-3.9633e-06,0,-5.17372e-06,-7.79512e+08,-7.7998e+08,-7.79709e+08,-354917,0.00948862,0.19614,0,0.196369,1926.74,-28384.4,0,28449.7,354917
step02_gravity_refstate-crust.xmf,650,1.86562e-06,-1.24756e-06,0,-2.241e-06,-6.61002e+08,-6.61215e+08,-6.6113e+08,-153733,0.00736341,0.179713,0,0.179863,2958.69,-24070,0,24251.2,153733
step02_gravity_refstate-crust.xmf,651,1.18232e-06,-1.745e-07,0,-1.70898e-06,-5.78143e+08,-5.78236e+08,-5.78224e+08,-117236,0.00708397,0.173687,0,0.173832,4242.09,-21052.4,0,21475.5,117236
step02_gravity_refstate-crust.xmf,652,-3.46676e-07,4.29014e-06,0,-6.3786e-06,-9.09687e+08,-9.09369e+08,-9.09663e+08,-437572,0.00155715,0.175811,0,0.175818,3309.7,-33123.3,0,33288.2,437572
step02_gravity_refstate-crust.xmf,653,2.17665e-06,-3.79759e-06,0,-6.65033e-06,-8.08099e+08,-8.08509e+08,-8.08248e+08,-456212,0.0103834,0.200651,0,0.20092,1896.69,-29422.6,0,29483.6,456212
step02_gravity_refstate-crust.xmf,654,1.18814e-06,-2.12129e-06,0,-6.86712e-06,-8.22669e+08,-8.22896e+08,-8.2275e+08,-471084,0.0107116,0.198301,0,0.198591,2181.31,-29951.6,0,30030.9,471084
step02_gravity_refstate-crust.xmf,655,6.53402e-07,-7.6336e-07,0,-6.75561e-06,-8.37533e+08,-8.3763e+08,-8.37577e+08,-463435,0.0101311,0.194853,0,0.195117,2460.09,-30492.7,0,30591.8,463435
step02_gravity_refstate-crust.xmf,656,6.71391e-07,4.90617e-07,0,-7.59429e-06,-8.66058e+08,-8.6607e+08,-8.66104e+08,-520968,0.00724131,0.195398,0,0.195532,2438.53,-31533.2,0,31627.3,520968
step02_gravity_refstate-crust.xmf,657,-5.69825e-07,4.504e-06,0,-2.13477e-06,-8.98721e+08,-8.98373e+08,-8.98682e+08,-146445,0.000879809,0.135271,0,0.135274,7147.3,-32723.5,0,33495,146445
step02_gravity_refstate-crust.xmf,658,-4.88911e-07,4.59191e-06,0,-5.06257e-06,-9.10735e+08,-9.10387e+08,-9.10702e+08,-347293,0.0011265,0.165535,0,0.165539,3969.1,-33161.4,0,33398.1,347293
step02_gravity_refstate-crust.xmf,659,-4.2245e-07,4.3228e-06,0,-1.35754e-06,-8.94756e+08,-8.9443e+08,-8.94727e+08,-93127,9.60357e-05,0.121474,0,0.121474,9514.18,-32579.5,0,33940.3,93127
step02_gravity_refstate-crust.xmf,660,-3.51155e-07,4.25198e-06,0,-1.18304e-06,-8.96745e+08,-8.96429e+08,-8.96721e+08,-81156.8,-0.000421301,0.116748,-0,0.116748,10436.2,-32652.1,0,34279.3,81156.8
step02_gravity_refstate-crust.xmf,661,-2.8359e-07,4.18267e-06,0,-1.03661e-06,-8.9845e+08,-8.98144e+08,-8.98431e+08,-71111.6,-0.000850741,0.112362,-0,0.112365,11408.6,-32714.3,0,34646.6,71111.6
step02_gravity_refstate-crust.xmf,662,-2.26344e-07,4.11256e-06,0,-9.15874e-07,-9.00036e+08,-8.99739e+08,-9.00021e+08,-62829,-0.00121684,0.108205,-0,0.108211,12449.4,-32772.2,0,35057.1,62829
step02_gravity_refstate-crust.xmf,663,-1.72112e-07,4.05085e-06,0,-8.19944e-07,-9.02782e+08,-9.02493e+08,-9.0277e+08,-56248.1,-0.00158522,0.104274,-0,0.104286,13499.7,-32872.3,0,35536.3,56248.1
step02_gravity_refstate-crust.xmf,664,-1.14681e-07,3.39993e-06,0,-4.0495e-07,-8.33164e+08,-8.32923e+08,-8.33156e+08,-27779.6,-0.000595443,0.0926203,-0,0.0926222,23232.7,-30337,0,38211.1,27779.6
step02_gravity_refstate-crust.xmf,665,-2.2072e-07,3.65973e-06,0,-5.72392e-07,-8.53051e+08,-8.52785e+08,-8.53036e+08,-39266.1,-0.000362035,0.0987517,-0,0.0987524,18318.8,-31061,0,36060.5,39266.1
step02_gravity_refstate-crust.xmf,666,-1.94771e-07,3.82447e-06,0,-6.42146e-07,-8.79037e+08,-8.78761e+08,-8.79024e+08,-44051.2,-0.000977769,0.0995318,-0,0.0995366,16424.9,-32007.4,0,35975.7,44051.2
step02_gravity_refstate-crust.xmf,667,5.59974e-08,3.32242e-06,0,-2.35691e-07,-8.64719e+08,-8.64495e+08,-8.64723e+08,-16168.4,-0.00130962,0.0824083,-0,0.0824187,28800.9,-31486.3,0,42671.8,16168.4
step02_gravity_refstate-crust.xmf,668,2.22224e-07,3.42872e-06,0,-7.73817e-08,-9.40565e+08,-9.40345e+08,-9.4058e+08,-5308.39,-0.000986874,0.069278,-0,0.069285,35703.4,-34248.4,0,49474.1,5308.39
step02_gravity_refstate-crust.xmf,669,2.89139e-07,3.583e-06,0,-3.75032e-08,-9.96269e+08,-9.96043e+08,-9.96289e+08,-2572.72,-0.000629944,0.0617347,-0,0.0617379,37818.8,-36276.9,0,52404.9,2572.72
step02_gravity_refstate-crust.xmf,670,1.25732e-06,-2.64324e-07,0,-1.41213e-06,-5.54281e+08,-5.54385e+08,-5.54367e+08,-96872,0.00599903,0.174664,0,0.174767,3773.15,-20183.8,0,20533.5,96872
step02_gravity_refstate-crust.xmf,671,7.16453e-07,3.22468e-07,0,-9.44656e-07,-3.81444e+08,-3.81471e+08,-3.81493e+08,-64803.4,0.00518459,0.171874,0,0.171952,5630.53,-13890.2,0,14988,64803.4
step02_gravity_refstate-crust.xmf,672,8.70682e-07,2.08405e-07,0,-1.13018e-06,-4.59036e+08,-4.59081e+08,-4.59096e+08,-77530.4,0.00557851,0.172298,0,0.172388,4931.58,-16715.5,0,17427.8,77530.4
step02_gravity_refstate-crust.xmf,673,8.04988e-07,2.37216e-07,0,-9.41797e-07,-4.07632e+08,-4.07671e+08,-4.07687e+08,-64607.3,0.00495735,0.172655,0,0.172726,4969.72,-14843.9,0,15653.7,64607.3
step02_gravity_refstate-crust.xmf,674,6.77316e-07,2.1351e-07,0,-5.92295e-07,-2.18488e+08,-2.1852e+08,-2.18535e+08,-40631.4,0.00490777,0.172892,0,0.172961,6149.17,-7957.35,0,10056.4,40631.4
step02_gravity_refstate-crust.xmf,675,6.60471e-07,2.69531e-07,0,-6.68863e-07,-2.59149e+08,-2.59176e+08,-2.59194e+08,-45884,0.00479239,0.172672,0,0.172739,6040.92,-9437.66,0,11205.5,45884
step02_gravity_refstate-crust.xmf,676,7.05657e-07,2.48485e-07,0,-6.56392e-07,-2.8579e+08,-2.85822e+08,-2.85839e+08,-45028.5,0.00431165,0.173414,0,0.173468,5260.19,-10407.7,0,11661.5,45028.5
step02_gravity_refstate-crust.xmf,677,7.49183e-07,2.62834e-07,0,-7.8294e-07,-3.5028e+08,-3.50313e+08,-3.50331e+08,-53709.7,0.00446372,0.173129,0,0.173186,5009.22,-12755.7,0,13704,53709.7
step02_gravity_refstate-crust.xmf,678,7.69425e-07,9.21446e-08,0,-4.35538e-07,-1.70685e+08,-1.70732e+08,-1.70738e+08,-29877.9,0.00455697,0.174092,0,0.174151,5335.96,-6217.23,0,8193.07,29877.9
step02_gravity_refstate-crust.xmf,679,2.2629e-06,-2.1748e-06,0,-3.11581e-06,-7.14696e+08,-7.15e+08,-7.14851e+08,-213745,0.00839978,0.184636,0,0.184827,2575.45,-26025,0,26152.1,213745
step02_gravity_refstate-crust.xmf,680,2.19291e-06,-1.82825e-06,0,-2.34177e-06,-6.80163e+08,-6.80438e+08,-6.80313e+08,-160645,0.00708538,0.18237,0,0.182508,2527.44,-24768,0,24896.7,160645
step02_gravity_refstate-crust.xmf,681,2.6511e-06,-2.87459e-06,0,-3.3315e-06,-7.30546e+08,-7.30925e+08,-7.30728e+08,-228541,0.00815304,0.187953,0,0.18813,2219.23,-26602.5,0,26694.9,228541
step02_gravity_refstate-crust.xmf,682,3.65863e-06,-4.92573e-06,0,-4.27889e-06,-7.69123e+08,-7.69712e+08,-7.69374e+08,-293532,0.00789777,0.197155,0,0.197313,1591.95,-28007.9,0,28053.1,293532
step02_gravity_refstate-crust.xmf,683,1.39078e-06,-4.98349e-07,0,-1.75456e-06,-5.99187e+08,-5.99316e+08,-5.99282e+08,-120363,0.00687643,0.175481,0,0.175616,3692.23,-21818.8,0,22129,120363
step02_gravity_refstate-crust.xmf,684,1.94868e-06,-1.32715e-06,0,-1.7916e-06,-6.40903e+08,-6.41128e+08,-6.41037e+08,-122904,0.00612921,0.179907,0,0.180012,2605.87,-23338.6,0,23483.6,122904
step02_gravity_refstate-crust.xmf,685,1.64908e-06,-8.77079e-07,0,-1.78033e-06,-6.20156e+08,-6.20329e+08,-6.20269e+08,-122130,0.00654262,0.17759,0,0.17771,3130.37,-22582.7,0,22798.6,122130
step02_gravity_refstate-crust.xmf,686,3.76612e-07,2.33565e-06,0,-8.55826e-06,-8.93472e+08,-8.93337e+08,-8.93498e+08,-587097,0.00380352,0.195111,0,0.195148,2381.02,-32532.9,0,32619.9,587097
step02_gravity_refstate-crust.xmf,687,-1.09793e-07,3.76757e-06,0,-7.97009e-06,-9.08313e+08,-9.08047e+08,-9.08306e+08,-546748,0.00190172,0.187828,0,0.187838,2657.56,-33073.4,0,33180,546748
step02_gravity_refstate-crust.xmf,688,3.32922e-06,-5.33717e-06,0,-5.89575e-06,-7.93581e+08,-7.94175e+08,-7.93809e+08,-404448,0.00919249,0.201337,0,0.201547,1632.76,-28896.3,0,28942.4,404448
step02_gravity_refstate-crust.xmf,689,1.14248e-06,-1.04508e-06,0,-7.69662e-06,-8.5158e+08,-8.5173e+08,-8.51658e+08,-527988,0.00860178,0.200074,0,0.200258,2178.99,-31005.6,0,31082.1,527988
step02_gravity_refstate-crust.xmf,690,9.20266e-07,9.11838e-07,0,-8.9008e-06,-8.79296e+08,-8.79296e+08,-8.79359e+08,-610595,0.00540463,0.20081,0,0.200883,2149.24,-32016.8,0,32088.8,610595
step02_gravity_refstate-crust.xmf,691,-5.27435e-07,4.69545e-06,0,-4.0981e-06,-9.11605e+08,-9.11247e+08,-9.11569e+08,-281130,0.000656605,0.156545,0,0.156547,4647.28,-33193,0,33516.8,281130
step02_gravity_refstate-crust.xmf,692,-3.11421e-07,4.51216e-06,0,-1.63384e-06,-9.13452e+08,-9.13121e+08,-9.13431e+08,-112081,-0.00119439,0.124925,-0,0.124931,8343.45,-33260.9,0,34291.4,112081
step02_gravity_refstate-crust.xmf,693,-5.12199e-07,4.7517e-06,0,-3.31777e-06,-9.12881e+08,-9.1252e+08,-9.12846e+08,-227599,0.000113997,0.148492,0,0.148492,5349.94,-33239.6,0,33667.4,227599
step02_gravity_refstate-crust.xmf,694,-4.59806e-07,4.74318e-06,0,-2.72317e-06,-9.14267e+08,-9.1391e+08,-9.14236e+08,-186809,-0.000413147,0.141411,-0,0.141412,6063.25,-33290.3,0,33837.9,186809
step02_gravity_refstate-crust.xmf,695,-4.03221e-07,4.68537e-06,0,-2.26989e-06,-9.14756e+08,-9.14407e+08,-9.14729e+08,-155715,-0.000784896,0.135285,-0,0.135287,6789.64,-33308.2,0,33993.2,155715
step02_gravity_refstate-crust.xmf,696,-3.68898e-07,4.59516e-06,0,-1.92096e-06,-9.13177e+08,-9.12837e+08,-9.13152e+08,-131778,-0.000892658,0.130129,-0,0.130132,7535.3,-33250.7,0,34093.9,131778
step02_gravity_refstate-crust.xmf,697,-4.44157e-07,5.11999e-06,0,-7.26294e-06,-9.23861e+08,-9.2348e+08,-9.23831e+08,-498237,-0.000305329,0.179616,-0,0.179616,2955.23,-33640.2,0,33769.8,498237
step02_gravity_refstate-crust.xmf,698,-4.68507e-07,5.19861e-06,0,-5.80829e-06,-9.25781e+08,-9.25392e+08,-9.25749e+08,-398449,-0.000873032,0.168374,-0,0.168376,3598.23,-33710.1,0,33901.6,398449
step02_gravity_refstate-crust.xmf,699,-2.49085e-07,4.43935e-06,0,-1.42351e-06,-9.14942e+08,-9.1462e+08,-9.14925e+08,-97652.7,-0.0015477,0.12035,-0,0.12036,9111.57,-33315.2,0,34538.8,97652.7
step02_gravity_refstate-crust.xmf,700,-1.29929e-07,3.99188e-06,0,-7.36161e-07,-9.04843e+08,-9.04561e+08,-9.04834e+08,-50500.7,-0.00186021,0.100637,-0,0.100654,14612,-32947.4,0,36042.2,50500.7
step02_gravity_refstate-crust.xmf,701,-1.6635e-07,3.61219e-06,0,-5.12563e-07,-8.56681e+08,-8.56421e+08,-8.56669e+08,-35161.8,-0.000736623,0.095618,-0,0.0956208,19637.3,-31193.2,0,36859.8,35161.8
step02_gravity_refstate-crust.xmf,702,1.77557e-08,3.35219e-06,0,-2.799e-07,-8.59055e+08,-8.58826e+08,-8.59056e+08,-19201.1,-0.00128629,0.0847066,-0,0.0847164,27083.8,-31280,0,41376,19201.1
step02_gravity_refstate-crust.xmf,703,-1.16623e-07,3.56322e-06,0,-4.57013e-07,-8.59993e+08,-8.59741e+08,-8.59985e+08,-31351.1,-0.00103497,0.0926336,-0,0.0926394,21058.3,-31314,0,37736.1,31351.1
step02_gravity_refstate-crust.xmf,704,-7.26294e-08,3.51579e-06,0,-4.06961e-07,-8.629e+08,-8.62654e+08,-8.62895e+08,-27917.5,-0.00124837,0.0899446,-0,0.0899533,22509.1,-31419.9,0,38650.6,27917.5
step02_gravity_refstate-crust.xmf,705,-3.65257e-08,3.45811e-06,0,-3.59101e-07,-8.6262e+08,-8.6238e+08,-8.62617e+08,-24634.3,-0.00132848,0.0877364,-0,0.0877464,24102.9,-31409.7,0,39591.9,24634.3
step02_gravity_refstate-crust.xmf,706,-2.5653e-08,3.3792e-06,0,-3.24773e-07,-8.51827e+08,-8.51594e+08,-8.51826e+08,-22279.5,-0.00114983,0.0873499,-0,0.0873574,25486.9,-31016.8,0,40145,22279.5
step02_gravity_refstate-crust.xmf,707,-1.46339e-07,3.77558e-06,0,-5.79538e-07,-8.81886e+08,-8.81617e+08,-8.81876e+08,-39756.3,-0.00129368,0.0963775,-0,0.0963862,17612.2,-32111.2,0,36624,39756.3
step02_gravity_refstate-crust.xmf,708,1.87278e-07,3.40002e-06,0,-1.20948e-07,-9.2208e+08,-9.2186e+08,-9.22093e+08,-8297.03,-0.00132271,0.0723608,-0,0.0723729,33527.5,-33575.3,0,47448.9,8297.03
step02_gravity_refstate-crust.xmf,709,1.61317e-07,3.41898e-06,0,-1.63497e-07,-9.16318e+08,-9.16095e+08,-9.16329e+08,-11215.9,-0.00163166,0.074146,-0,0.0741639,31465.4,-33365.4,0,45862,11215.9
step02_gravity_refstate-crust.xmf,710,1.32866e-07,3.44615e-06,0,-2.05694e-07,-9.11415e+08,-9.11188e+08,-9.11424e+08,-14110.6,-0.00185695,0.0760467,-0,0.0760693,29554.4,-33186.9,0,44439.1,14110.6
step02_gravity_refstate-crust.xmf,711,3.23299e-07,3.69288e-06,0,-1.3575e-10,-1.03323e+09,-1.033e+09,-1.03325e+09,-9.31248,-3.96747e-20,0.0567001,-0,0.0567001,40000,-37622.7,0,54913.3,9.31248
step02_gravity_refstate-crust.xmf,712,1.00676e-06,3.60519e-08,0,-1.11722e-06,-4.82786e+08,-4.82853e+08,-4.82855e+08,-76641.6,0.00530366,0.17342,0,0.173501,4260.84,-17580.4,0,18089.4,76641.6
step02_gravity_refstate-crust.xmf,713,1.29825e-06,-3.34848e-07,0,-1.12031e-06,-5.30544e+08,-5.30656e+08,-5.30633e+08,-76853.1,0.00488973,0.175485,0,0.175553,3239.76,-19319.7,0,19589.5,76853.1
step02_gravity_refstate-crust.xmf,714,1.16092e-06,-1.56701e-07,0,-1.07983e-06,-5.04652e+08,-5.04742e+08,-5.04732e+08,-74076.4,0.00491011,0.174652,0,0.174721,3588.25,-18376.8,0,18723.9,74076.4
step02_gravity_refstate-crust.xmf,715,9.02389e-07,1.3752e-07,0,-9.33913e-07,-4.3197e+08,-4.32023e+08,-4.32032e+08,-64066.4,0.00472803,0.173412,0,0.173477,4373.23,-15730.2,0,16326.8,64066.4
step02_gravity_refstate-crust.xmf,716,7.66891e-07,2.1239e-07,0,-6.33944e-07,-3.16254e+08,-3.16292e+08,-3.16307e+08,-43488.5,0.00382484,0.174134,0,0.174176,4433.95,-11517,0,12341,43488.5
step02_gravity_refstate-crust.xmf,717,1.17869e-06,-4.4736e-07,0,-6.24313e-09,111963,415.927,31104.8,-428.279,0.00963548,0.171457,0,0.171728,6955.89,0,0,6955.89,428.279
step02_gravity_refstate-crust.xmf,718,1.05958e-06,-2.79669e-07,0,-1.50121e-07,-4.35291e+07,-4.3621e+07,-4.36018e+07,-10298.3,0.00709811,0.173082,0,0.173228,5979.13,-1588.57,0,6186.56,10298.3
step02_gravity_refstate-crust.xmf,719,8.90945e-07,-4.17299e-08,0,-2.79258e-07,-1.26527e+08,-1.26591e+08,-1.26588e+08,-19157.1,0.00405424,0.175112,0,0.175159,4288.28,-4609.89,0,6296.06,19157.1
step02_gravity_refstate-crust.xmf,720,9.76519e-07,-1.55613e-07,0,-2.25952e-07,-8.31323e+07,-8.321e+07,-8.31993e+07,-15500.3,0.00523168,0.174378,0,0.174456,4962.75,-3030.23,0,5814.74,15500.3
step02_gravity_refstate-crust.xmf,721,3.17745e-06,-3.79036e-06,0,-3.47886e-06,-7.44699e+08,-7.45177e+08,-7.44917e+08,-238650,0.00764597,0.191764,0,0.191917,1839.89,-27118.5,0,27180.9,238650
step02_gravity_refstate-crust.xmf,722,2.52032e-06,-2.3871e-06,0,-2.46251e-06,-6.98052e+08,-6.98389e+08,-6.98225e+08,-168929,0.00688321,0.185014,0,0.185142,2192.95,-25419.8,0,25514.2,168929
step02_gravity_refstate-crust.xmf,723,4.21614e-06,-5.86829e-06,0,-4.58745e-06,-7.80129e+08,-7.80821e+08,-7.80418e+08,-314699,0.00748132,0.201121,0,0.20126,1351.78,-28409.4,0,28441.5,314699
step02_gravity_refstate-crust.xmf,724,3.82373e-06,-4.87953e-06,0,-3.45126e-06,-7.55823e+08,-7.5642e+08,-7.56085e+08,-236757,0.00679915,0.195664,0,0.195782,1457.82,-27524.4,0,27563,236757
step02_gravity_refstate-crust.xmf,725,2.302e-06,-1.83225e-06,0,-1.79006e-06,-6.61683e+08,-6.61967e+08,-6.61841e+08,-122798,0.00562685,0.182498,0,0.182585,2115.75,-24095.7,0,24188.4,122798
step02_gravity_refstate-crust.xmf,726,1.45311e-06,-5.31877e-07,0,-1.42793e-06,-5.76525e+08,-5.76661e+08,-5.76625e+08,-97956.1,0.00575006,0.176166,0,0.17626,3256.16,-20994,0,21245,97956.1
step02_gravity_refstate-crust.xmf,727,1.46387e-06,-5.34919e-07,0,-1.12471e-06,-5.53131e+08,-5.53268e+08,-5.53231e+08,-77155.2,0.00467389,0.176597,0,0.176659,2814.38,-20142.4,0,20338,77155.2
step02_gravity_refstate-crust.xmf,728,-3.24392e-07,4.75376e-06,0,-9.15037e-06,-9.21849e+08,-9.21501e+08,-9.21827e+08,-627716,0.000201431,0.192489,0,0.192489,2330.77,-33566.9,0,33647.7,627716
step02_gravity_refstate-crust.xmf,729,4.26564e-06,-7.10666e-06,0,-6.94535e-06,-8.08692e+08,-8.09472e+08,-8.08984e+08,-476451,0.00831377,0.209174,0,0.209339,1242.75,-29447.5,0,29473.7,476451
step02_gravity_refstate-crust.xmf,730,2.42405e-06,-4.80854e-06,0,-7.42154e-06,-8.20312e+08,-8.20808e+08,-8.20478e+08,-509118,0.00965756,0.20693,0,0.207156,1588.79,-29866.6,0,29908.9,509118
step02_gravity_refstate-crust.xmf,731,1.8262e-06,-2.83387e-06,0,-7.76521e-06,-8.371e+08,-8.37419e+08,-8.37225e+08,-532694,0.00940009,0.205109,0,0.205324,1843.08,-30478.4,0,30534.1,532694
step02_gravity_refstate-crust.xmf,732,1.69799e-06,-1.03293e-06,0,-9.23827e-06,-8.65375e+08,-8.65563e+08,-8.65492e+08,-633745,0.00662983,0.20707,0,0.207176,1855.15,-31510.1,0,31564.7,633745
step02_gravity_refstate-crust.xmf,733,-7.06039e-07,6.16558e-06,0,-8.24096e-06,-9.37304e+08,-9.36832e+08,-9.37255e+08,-565330,-0.00193288,0.183594,-0,0.183604,2607.71,-34130.2,0,34229.6,565330
step02_gravity_refstate-crust.xmf,734,-4.38748e-07,5.25347e-06,0,-4.60156e-06,-9.27727e+08,-9.27337e+08,-9.27697e+08,-315667,-0.00145471,0.15858,-0,0.158587,4255.84,-33781.2,0,34048.2,315667
step02_gravity_refstate-crust.xmf,735,-1.75965e-07,4.372e-06,0,-1.24101e-06,-9.17792e+08,-9.1748e+08,-9.1778e+08,-85133,-0.00196849,0.115709,-0,0.115725,9945.25,-33419.2,0,34867.6,85133
step02_gravity_refstate-crust.xmf,736,-1.21475e-07,4.29547e-06,0,-1.1024e-06,-9.20926e+08,-9.20623e+08,-9.20918e+08,-75624.5,-0.00234235,0.111218,-0,0.111243,10840.8,-33533.4,0,35242.2,75624.5
step02_gravity_refstate-crust.xmf,737,-7.09484e-08,4.2219e-06,0,-9.78943e-07,-9.24114e+08,-9.23819e+08,-9.24109e+08,-67155.5,-0.00265507,0.106769,-0,0.106802,11839,-33649.5,0,35671.5,67155.5
step02_gravity_refstate-crust.xmf,738,-3.62056e-08,4.15507e-06,0,-8.77965e-07,-9.27008e+08,-9.2672e+08,-9.27005e+08,-60228.4,-0.00288567,0.102672,-0,0.102712,12877.4,-33754.9,0,36127.9,60228.4
step02_gravity_refstate-crust.xmf,739,-7.22856e-09,4.09464e-06,0,-7.9262e-07,-9.30228e+08,-9.29946e+08,-9.30227e+08,-54373.7,-0.00308208,0.0987615,-0,0.0988096,13969.2,-33872.2,0,36639.6,54373.7
step02_gravity_refstate-crust.xmf,740,-9.89953e-08,3.93246e-06,0,-6.65945e-07,-9.05991e+08,-9.05715e+08,-9.05985e+08,-45683.8,-0.0020456,0.0973863,-0,0.0974078,15759.3,-32989.2,0,36560.1,45683.8
step02_gravity_refstate-crust.xmf,741,-1.00723e-07,3.73124e-06,0,-5.24128e-07,-8.86627e+08,-8.86364e+08,-8.8662e+08,-35955.2,-0.00161899,0.0930938,-0,0.0931079,18873.8,-32283.9,0,37396.1,35955.2
step02_gravity_refstate-crust.xmf,742,-6.45974e-08,3.88175e-06,0,-6.05435e-07,-9.09178e+08,-9.08908e+08,-9.09174e+08,-41532.9,-0.00227513,0.0940792,-0,0.0941067,16940.9,-33105.3,0,37188.1,41532.9
step02_gravity_refstate-crust.xmf,743,1.00353e-07,3.47123e-06,0,-2.46596e-07,-9.05155e+08,-9.04924e+08,-9.05162e+08,-16916.5,-0.00197339,0.0782727,-0,0.0782976,27817.4,-32958.9,0,43128.8,16916.5
step02_gravity_refstate-crust.xmf,744,2.40495e-07,3.52819e-06,0,-1.07028e-07,-9.66048e+08,-9.65823e+08,-9.66065e+08,-7342.13,-0.00151619,0.0666154,-0,0.0666326,34008.1,-35176.4,0,48927.8,7342.13
step02_gravity_refstate-crust.xmf,745,2.81197e-07,3.61713e-06,0,-8.12548e-08,-1.00017e+09,-9.99946e+08,-1.00019e+09,-5574.08,-0.00136877,0.061754,-0,0.0617692,35267,-36419.1,0,50696.2,5574.08
step02_gravity_refstate-crust.xmf,746,3.38451e-07,3.75483e-06,0,-2.75532e-08,-1.05211e+09,-1.05187e+09,-1.05213e+09,-1890.15,-0.000569528,0.0542185,-0,0.0542215,38312.5,-38310.1,0,54180.4,1890.15
step02_gravity_refstate-crust.xmf,747,8.5264e-07,1.56598e-07,0,-7.35794e-07,-3.79643e+08,-3.79691e+08,-3.79701e+08,-50475.5,0.00395647,0.174101,0,0.174146,4086.41,-13825,0,14416.3,50475.5
step02_gravity_refstate-crust.xmf,748,1.02526e-06,9.73538e-09,0,-9.07029e-07,-4.56631e+08,-4.56701e+08,-4.56701e+08,-62222.2,0.00439909,0.174326,0,0.174381,3721.28,-16628.3,0,17039.6,62222.2
step02_gravity_refstate-crust.xmf,749,9.14885e-07,1.07939e-07,0,-7.76051e-07,-4.08983e+08,-4.09038e+08,-4.09045e+08,-53237.1,0.00402352,0.174231,0,0.174278,3867.69,-14893.3,0,15387.3,53237.1
step02_gravity_refstate-crust.xmf,750,7.32189e-07,1.9191e-07,0,-5.40839e-07,-2.49136e+08,-2.49173e+08,-2.49186e+08,-37101.6,0.00394426,0.174203,0,0.174248,4830.71,-9073.29,0,10279.1,37101.6
step02_gravity_refstate-crust.xmf,751,7.74402e-07,1.22025e-07,0,-4.26575e-07,-2.07042e+08,-2.07087e+08,-2.07095e+08,-29263.1,0.00362858,0.174926,0,0.174963,4344.89,-7540.9,0,8703.06,29263.1
step02_gravity_refstate-crust.xmf,752,7.807e-07,1.66973e-07,0,-4.98965e-07,-2.80692e+08,-2.80734e+08,-2.80746e+08,-34229,0.00327588,0.174945,0,0.174976,3884.18,-10222.3,0,10935.4,34229
step02_gravity_refstate-crust.xmf,753,8.44268e-07,1.45946e-07,0,-5.85809e-07,-3.45378e+08,-3.45426e+08,-3.45436e+08,-40186.5,0.00331897,0.174825,0,0.174857,3611.99,-12577.5,0,13085.9,40186.5
step02_gravity_refstate-crust.xmf,754,8.47681e-07,3.18777e-08,0,-2.95975e-07,-1.66368e+08,-1.66424e+08,-1.66426e+08,-20303.9,0.00310648,0.175716,0,0.175743,3511.96,-6060.27,0,7004.34,20303.9
step02_gravity_refstate-crust.xmf,755,2.88808e-06,-3.01442e-06,0,-2.58826e-06,-7.14426e+08,-7.14831e+08,-7.14624e+08,-177555,0.00662416,0.187836,0,0.187953,1889.28,-26016.4,0,26084.9,177555
step02_gravity_refstate-crust.xmf,756,2.73846e-06,-2.54294e-06,0,-1.74592e-06,-6.82396e+08,-6.82759e+08,-6.82584e+08,-119770,0.00496689,0.185472,0,0.185539,1640.38,-24850.5,0,24904.5,119770
step02_gravity_refstate-crust.xmf,757,3.3975e-06,-3.85933e-06,0,-2.59327e-06,-7.29359e+08,-7.29857e+08,-7.29592e+08,-177898,0.00601674,0.1912,0,0.191295,1526.45,-26560.8,0,26604.7,177898
step02_gravity_refstate-crust.xmf,758,4.58928e-06,-6.20496e-06,0,-3.33888e-06,-7.67917e+08,-7.68657e+08,-7.68231e+08,-229047,0.00583862,0.200038,0,0.200123,1104.84,-27965.7,0,27987.5,229047
step02_gravity_refstate-crust.xmf,759,2.27975e-06,-1.75741e-06,0,-1.30299e-06,-6.41303e+08,-6.4158e+08,-6.41459e+08,-89385.2,0.00432992,0.182055,0,0.182106,1750.05,-23353.8,0,23419.3,89385.2
step02_gravity_refstate-crust.xmf,760,1.69373e-06,-8.9408e-07,0,-1.40689e-06,-5.98434e+08,-5.98612e+08,-5.98551e+08,-96512.7,0.00535303,0.177954,0,0.178035,2714.86,-21792.1,0,21960.5,96512.7
step02_gravity_refstate-crust.xmf,761,1.96792e-06,-1.29383e-06,0,-1.36961e-06,-6.20141e+08,-6.20365e+08,-6.20276e+08,-93955.2,0.00488351,0.179913,0,0.179979,2212.68,-22582.8,0,22690.9,93955.2
step02_gravity_refstate-crust.xmf,762,1.45953e-06,-5.31738e-07,0,-8.70256e-07,-5.3427e+08,-5.34406e+08,-5.3437e+08,-59699.6,0.00371403,0.176964,0,0.177003,2348.21,-19455.7,0,19596.9,59699.6
step02_gravity_refstate-crust.xmf,763,1.59754e-06,-1.38787e-07,0,-1.04467e-05,-8.78821e+08,-8.7894e+08,-8.7893e+08,-716644,0.00490853,0.210568,0,0.210626,1715.15,-32000.6,0,32046.5,716644
step02_gravity_refstate-crust.xmf,764,1.05304e-06,1.33254e-06,0,-1.0449e-05,-8.90697e+08,-8.90678e+08,-8.90769e+08,-716800,0.00374942,0.207586,0,0.207619,1829.03,-32433,0,32484.6,716800
step02_gravity_refstate-crust.xmf,765,3.23735e-07,3.14251e-06,0,-1.02146e-05,-9.06621e+08,-9.06428e+08,-9.06643e+08,-700722,0.0020429,0.202832,0,0.202843,1973.8,-33012.6,0,33071.6,700722
step02_gravity_refstate-crust.xmf,766,5.2459e-06,-8.09437e-06,0,-4.86876e-06,-7.9353e+08,-7.94445e+08,-7.9389e+08,-333997,0.00665535,0.207002,0,0.207109,1037.45,-28897.9,0,28916.6,333997
step02_gravity_refstate-crust.xmf,767,5.57419e-06,-1.05693e-05,0,-8.50508e-06,-8.2387e+08,-8.24978e+08,-8.24252e+08,-583449,0.00738734,0.217426,0,0.217552,1000,-30000,0,30016.7,583449
step02_gravity_refstate-crust.xmf,768,2.14224e-06,-2.58199e-06,0,-8.88332e-06,-8.51156e+08,-8.5148e+08,-8.51303e+08,-609396,0.00790243,0.208674,0,0.208823,1733.57,-30991.9,0,31040.3,609396
step02_gravity_refstate-crust.xmf,769,-7.48346e-07,6.0856e-06,0,-1.04678e-05,-9.34978e+08,-9.34509e+08,-9.34927e+08,-718089,-0.00117645,0.198336,-0,0.19834,1963.18,-34045.2,0,34101.8,718089
step02_gravity_refstate-crust.xmf,770,-1.14031e-06,7.45737e-06,0,-9.12734e-06,-9.50357e+08,-9.49767e+08,-9.50279e+08,-626136,-0.00330533,0.186929,-0,0.186958,2295.45,-34605.6,0,34681.7,626136
step02_gravity_refstate-crust.xmf,771,-4.93196e-08,4.57345e-06,0,-1.52637e-06,-9.34369e+08,-9.34052e+08,-9.34366e+08,-104709,-0.0032543,0.11936,-0,0.119404,8707.1,-34023.5,0,35120,104709
step02_gravity_refstate-crust.xmf,772,-3.70293e-07,5.16115e-06,0,-3.72046e-06,-9.29348e+08,-9.28969e+08,-9.29323e+08,-255223,-0.00196173,0.149911,-0,0.149924,4942.65,-33840.3,0,34199.4,255223
step02_gravity_refstate-crust.xmf,773,-9.78414e-08,4.6799e-06,0,-1.76341e-06,-9.33032e+08,-9.32704e+08,-9.33025e+08,-120970,-0.00306797,0.124245,-0,0.124283,7920.11,-33974.8,0,34885.8,120970
step02_gravity_refstate-crust.xmf,774,-2.88298e-07,5.06023e-06,0,-3.02337e-06,-9.30877e+08,-9.3051e+08,-9.30857e+08,-207403,-0.00239876,0.142311,-0,0.142331,5646.32,-33896.2,0,34363.2,207403
step02_gravity_refstate-crust.xmf,775,-2.11508e-07,4.93523e-06,0,-2.4874e-06,-9.31958e+08,-9.31605e+08,-9.31943e+08,-170636,-0.00271686,0.135567,-0,0.135594,6379.04,-33935.6,0,34530,170636
step02_gravity_refstate-crust.xmf,776,-1.47966e-07,4.80537e-06,0,-2.08145e-06,-9.32609e+08,-9.32269e+08,-9.32599e+08,-142788,-0.00292632,0.129648,-0,0.129681,7129.29,-33959.4,0,34699.7,142788
step02_gravity_refstate-crust.xmf,777,-5.983e-07,6.09462e-06,0,-6.54081e-06,-9.39856e+08,-9.39397e+08,-9.39815e+08,-448699,-0.00268894,0.171485,-0,0.171506,3230.66,-34223.4,0,34375.6,448699
step02_gravity_refstate-crust.xmf,778,-8.69086e-07,7.14758e-06,0,-7.32316e-06,-9.52833e+08,-9.52283e+08,-9.52773e+08,-502369,-0.00421374,0.174604,-0,0.174655,2879.27,-34696.4,0,34815.6,502369
step02_gravity_refstate-crust.xmf,779,-4.54355e-07,5.91243e-06,0,-5.24032e-06,-9.42526e+08,-9.4209e+08,-9.42495e+08,-359486,-0.00340504,0.160855,-0,0.160891,3873.55,-34320.9,0,34538.8,359486
step02_gravity_refstate-crust.xmf,780,-1.02944e-10,4.48862e-06,0,-1.34347e-06,-9.3682e+08,-9.36512e+08,-9.3682e+08,-92162.4,-0.00348725,0.114873,-0,0.114926,9484.3,-34112.8,0,35406.7,92162.4
step02_gravity_refstate-crust.xmf,781,9.15403e-09,4.03844e-06,0,-7.16155e-07,-9.326e+08,-9.32323e+08,-9.326e+08,-49128.2,-0.00319369,0.0952072,-0,0.0952607,15111.5,-33958.5,0,37169.1,49128.2
step02_gravity_refstate-crust.xmf,782,-5.69483e-08,3.68916e-06,0,-4.71271e-07,-8.91575e+08,-8.91318e+08,-8.91571e+08,-32329.2,-0.00188082,0.089925,-0,0.0899447,20211.7,-32464.2,0,38241.8,32329.2
step02_gravity_refstate-crust.xmf,783,6.87227e-08,3.49938e-06,0,-2.87211e-07,-8.9941e+08,-8.99174e+08,-8.99415e+08,-19702.7,-0.00201273,0.0805453,-0,0.0805704,26241.5,-32749.6,0,41966.1,19702.7
step02_gravity_refstate-crust.xmf,784,-1.97029e-08,3.64167e-06,0,-4.20089e-07,-8.94909e+08,-8.94658e+08,-8.94908e+08,-28818.1,-0.00203009,0.0870564,-0,0.08708,21670.6,-32585.6,0,39133.6,28818.1
step02_gravity_refstate-crust.xmf,785,1.40912e-08,3.59387e-06,0,-3.71913e-07,-8.97581e+08,-8.97335e+08,-8.97582e+08,-25513.2,-0.00210068,0.0844702,-0,0.0844964,23193.8,-32682.9,0,40076.5,25513.2
step02_gravity_refstate-crust.xmf,786,4.03805e-08,3.54183e-06,0,-3.2831e-07,-8.9746e+08,-8.9722e+08,-8.97463e+08,-22522.1,-0.00205811,0.0825277,-0,0.0825534,24710.6,-32678.6,0,40969.5,22522.1
step02_gravity_refstate-crust.xmf,787,-3.0547e-08,3.83997e-06,0,-5.49792e-07,-9.13535e+08,-9.13269e+08,-9.13533e+08,-37715.7,-0.00249359,0.0908587,-0,0.090893,18142.4,-33264,0,37889.8,37715.7
step02_gravity_refstate-crust.xmf,788,2.23536e-07,3.54341e-06,0,-1.40649e-07,-9.61968e+08,-9.6174e+08,-9.61983e+08,-9648.49,-0.00187765,0.0678907,-0,0.0679167,32315.8,-35027.8,0,47657.7,9648.49
step02_gravity_refstate-crust.xmf,789,2.01778e-07,3.57297e-06,0,-1.82426e-07,-9.58505e+08,-9.58274e+08,-9.58519e+08,-12514.4,-0.00226269,0.0694764,-0,0.0695132,30341.1,-34901.7,0,46246.2,12514.4
step02_gravity_refstate-crust.xmf,790,1.71884e-07,3.59123e-06,0,-2.23515e-07,-9.50251e+08,-9.50016e+08,-9.50263e+08,-15333.1,-0.0024993,0.0718471,-0,0.0718906,28552.7,-34601.1,0,44860.8,15333.1
step02_gravity_refstate-crust.xmf,791,1.43698e-07,3.61291e-06,0,-2.62195e-07,-9.43363e+08,-9.43125e+08,-9.43373e+08,-17986.5,-0.00265527,0.0741446,-0,0.0741921,26950.2,-34350.2,0,43660.7,17986.5
step02_gravity_refstate-crust.xmf,792,3.29684e-07,3.75343e-06,0,-6.05403e-08,-1.04748e+09,-1.04724e+09,-1.0475e+09,-4153.07,-0.00119079,0.0551278,-0,0.0551407,36413,-38141.6,0,52732.2,4153.07
step02_gravity_refstate-crust.xmf,793,1.17093e-06,-1.71954e-07,0,-8.45945e-07,-4.80862e+08,-4.80954e+08,-4.80942e+08,-58031.9,0.00395533,0.175352,0,0.175396,3046.32,-17510.7,0,17773.7,58031.9
step02_gravity_refstate-crust.xmf,794,1.35513e-06,-3.94638e-07,0,-7.70282e-07,-5.08545e+08,-5.08665e+08,-5.08638e+08,-52841.3,0.00343512,0.176502,0,0.176536,2372.1,-18519,0,18670.3,52841.3
step02_gravity_refstate-crust.xmf,795,1.01751e-06,-5.19086e-09,0,-7.09119e-07,-4.28485e+08,-4.28555e+08,-4.28555e+08,-48645.6,0.00355833,0.17502,0,0.175056,3193.15,-15603.5,0,15926.9,48645.6
step02_gravity_refstate-crust.xmf,796,8.40085e-07,1.27818e-07,0,-4.48152e-07,-3.12645e+08,-3.12694e+08,-3.12702e+08,-30743.2,0.00268654,0.175507,0,0.175527,3035.92,-11385.7,0,11783.5,30743.2
step02_gravity_refstate-crust.xmf,797,1.33156e-06,-5.05361e-07,0,-6.02929e-09,126484,471.924,35139.7,-413.609,0.00712947,0.173418,0,0.173565,4955.97,0,0,4955.97,413.609
step02_gravity_refstate-crust.xmf,798,1.16944e-06,-3.2398e-07,0,-1.03053e-07,-4.31589e+07,-4.32614e+07,-4.32392e+07,-7069.44,0.00486884,0.174831,0,0.174899,3971.78,-1575.47,0,4272.84,7069.44
step02_gravity_refstate-crust.xmf,799,9.44768e-07,-7.40867e-08,0,-1.6954e-07,-1.26475e+08,-1.26545e+08,-1.2654e+08,-11630.4,0.00244488,0.176277,0,0.176294,2535.32,-4608.15,0,5259.55,11630.4
step02_gravity_refstate-crust.xmf,800,1.05574e-06,-1.95112e-07,0,-1.40236e-07,-8.1736e+07,-8.18218e+07,-8.18084e+07,-9620.19,0.00327041,0.175807,0,0.175837,3015.32,-2979.65,0,4239.16,9620.19
step02_gravity_refstate-crust.xmf,801,4.0107e-06,-4.8812e-06,0,-2.46596e-06,-7.4305e+08,-7.4366e+08,-7.43325e+08,-169165,0.00514348,0.194852,0,0.19492,1159.55,-27060.1,0,27085,169165
step02_gravity_refstate-crust.xmf,802,2.6335e-06,-2.2747e-06,0,-1.17796e-06,-6.60926e+08,-6.61262e+08,-6.61106e+08,-80808.3,0.00360672,0.184364,0,0.184399,1302.97,-24068.8,0,24104,80808.3
step02_gravity_refstate-crust.xmf,803,2.98026e-06,-2.98524e-06,0,-1.97855e-06,-7.01042e+08,-7.01451e+08,-7.01246e+08,-135729,0.005269,0.187541,0,0.187615,1572.59,-25529.6,0,25577.9,135729
step02_gravity_refstate-crust.xmf,804,5.50914e-06,-7.72168e-06,0,-3.17947e-06,-7.80249e+08,-7.81157e+08,-7.80627e+08,-218111,0.00478167,0.20482,0,0.204876,795.261,-28416.1,0,28427.2,218111
step02_gravity_refstate-crust.xmf,805,4.69549e-06,-6.05159e-06,0,-2.16715e-06,-7.55291e+08,-7.56028e+08,-7.55613e+08,-148667,0.00401998,0.198563,0,0.198604,808.848,-27506.7,0,27518.6,148667
step02_gravity_refstate-crust.xmf,806,1.68084e-06,-8.30013e-07,0,-1.0656e-06,-5.75307e+08,-5.75479e+08,-5.75422e+08,-73100.4,0.00419359,0.178083,0,0.178133,2277.08,-20950.1,0,21073.5,73100.4
step02_gravity_refstate-crust.xmf,807,1.62798e-06,-7.50492e-07,0,-7.74202e-07,-5.52324e+08,-5.52487e+08,-5.52435e+08,-53110.2,0.00316353,0.17804,0,0.178068,1845.3,-20113.3,0,20197.8,53110.2
step02_gravity_refstate-crust.xmf,808,1.8135e-06,-7.2194e-08,0,-1.21368e-05,-8.85593e+08,-8.85722e+08,-8.85717e+08,-832581,0.00364829,0.219015,0,0.219046,1383.35,-32248.1,0,32277.8,832581
step02_gravity_refstate-crust.xmf,809,-1.36595e-07,4.46408e-06,0,-1.10064e-05,-9.19996e+08,-9.19681e+08,-9.19987e+08,-755041,0.000533382,0.204557,0,0.204558,1827.14,-33499.7,0,33549.5,755041
step02_gravity_refstate-crust.xmf,810,6.53987e-06,-1.0586e-05,0,-4.78463e-06,-8.0458e+08,-8.05755e+08,-8.05028e+08,-328226,0.0055565,0.21295,0,0.213023,761.83,-29301.6,0,29311.5,328226
step02_gravity_refstate-crust.xmf,811,6.74991e-06,-1.17663e-05,0,-5.60216e-06,-8.14663e+08,-8.15933e+08,-8.15126e+08,-384308,0.00586705,0.216947,0,0.217026,763.737,-29667.7,0,29677.5,384308
step02_gravity_refstate-crust.xmf,812,3.33901e-06,-5.91824e-06,0,-8.44578e-06,-8.32522e+08,-8.33157e+08,-8.32751e+08,-579380,0.00848678,0.213151,0,0.21332,1365.35,-30313.1,0,30343.9,579380
step02_gravity_refstate-crust.xmf,813,3.30246e-06,-4.88192e-06,0,-9.41554e-06,-8.43867e+08,-8.44429e+08,-8.44094e+08,-645906,0.00768102,0.214828,0,0.214966,1393.49,-30727.6,0,30759.2,645906
step02_gravity_refstate-crust.xmf,814,2.98528e-06,-3.40793e-06,0,-1.05749e-05,-8.5813e+08,-8.58569e+08,-8.58335e+08,-725435,0.00632929,0.216947,0,0.217039,1395.87,-31247.9,0,31279.1,725435
step02_gravity_refstate-crust.xmf,815,2.45848e-06,-1.76396e-06,0,-1.14826e-05,-8.72048e+08,-8.72338e+08,-8.72217e+08,-787708,0.00495382,0.218388,0,0.218444,1390.4,-31755,0,31785.4,787708
step02_gravity_refstate-crust.xmf,816,-1.31256e-06,7.53179e-06,0,-1.09923e-05,-9.47868e+08,-9.47261e+08,-9.47778e+08,-754074,-0.00242863,0.198798,-0,0.198813,1814.37,-34514.4,0,34562.1,754074
step02_gravity_refstate-crust.xmf,817,-1.82414e-06,9.00596e-06,0,-1.02679e-05,-9.62946e+08,-9.62203e+08,-9.62821e+08,-704375,-0.0042417,0.191336,-0,0.191383,1934.89,-35063.6,0,35116.9,704375
step02_gravity_refstate-crust.xmf,818,-1.28188e-06,8.40232e-06,0,-8.09364e-06,-9.64954e+08,-9.64289e+08,-9.64866e+08,-555223,-0.00541782,0.177644,-0,0.177727,2540.92,-35137.9,0,35229.7,555223
step02_gravity_refstate-crust.xmf,819,-2.89147e-07,5.74048e-06,0,-4.15574e-06,-9.45006e+08,-9.44593e+08,-9.44987e+08,-285084,-0.00400099,0.151511,-0,0.151563,4541.09,-34411.6,0,34710,285084
step02_gravity_refstate-crust.xmf,820,5.83143e-08,4.41433e-06,0,-1.20243e-06,-9.41656e+08,-9.41357e+08,-9.4166e+08,-82486.7,-0.00384195,0.110312,-0,0.110379,10289.3,-34289,0,35799.5,82486.7
step02_gravity_refstate-crust.xmf,821,1.06507e-07,4.34063e-06,0,-1.08604e-06,-9.48355e+08,-9.48065e+08,-9.48362e+08,-74502.2,-0.00422062,0.105228,-0,0.105313,11252.8,-34533,0,36320.1,74502.2
step02_gravity_refstate-crust.xmf,822,1.13373e-07,4.26493e-06,0,-9.76002e-07,-9.50213e+08,-9.49928e+08,-9.5022e+08,-66953.7,-0.00422424,0.1013,-0,0.101388,12235.3,-34600.5,0,36700.1,66953.7
step02_gravity_refstate-crust.xmf,823,1.27444e-07,4.20651e-06,0,-8.87333e-07,-9.54883e+08,-9.54603e+08,-9.54892e+08,-60871,-0.00434565,0.0971146,-0,0.0972118,13284.5,-34770.5,0,37221.8,60871
step02_gravity_refstate-crust.xmf,824,1.31055e-07,4.15004e-06,0,-8.0182e-07,-9.58806e+08,-9.5853e+08,-9.58815e+08,-55004.8,-0.00438005,0.0931198,-0,0.0932228,14439.8,-34913.2,0,37781.5,55004.8
step02_gravity_refstate-crust.xmf,825,2.66589e-08,3.98918e-06,0,-6.51657e-07,-9.35728e+08,-9.35456e+08,-9.3573e+08,-44703.7,-0.0033035,0.0918503,-0,0.0919097,16265.2,-34072.4,0,37755.6,44703.7
step02_gravity_refstate-crust.xmf,826,4.68309e-09,3.8023e-06,0,-4.98341e-07,-9.19599e+08,-9.19338e+08,-9.19599e+08,-34186.2,-0.00270855,0.0875104,-0,0.0875523,19429.5,-33484.8,0,38713.5,34186.2
step02_gravity_refstate-crust.xmf,827,4.6401e-08,3.94336e-06,0,-5.92531e-07,-9.39386e+08,-9.39119e+08,-9.39389e+08,-40647.6,-0.00339561,0.0885994,-0,0.0886645,17472.1,-34205.6,0,38409.6,40647.6
step02_gravity_refstate-crust.xmf,828,1.98545e-07,3.71035e-06,0,-2.45995e-07,-9.79824e+08,-9.79583e+08,-9.79838e+08,-16875.3,-0.00305686,0.0687037,-0,0.0687717,27596,-35678,0,45105,16875.3
step02_gravity_refstate-crust.xmf,829,2.75558e-07,3.66321e-06,0,-1.20241e-07,-1.00546e+09,-1.00522e+09,-1.00547e+09,-8248.55,-0.00196316,0.0617666,-0,0.0617978,33227,-36611.4,0,49441.1,8248.55
step02_gravity_refstate-crust.xmf,830,3.188e-07,3.78583e-06,0,-9.80268e-08,-1.04961e+09,-1.04937e+09,-1.04963e+09,-6724.64,-0.00188499,0.055387,-0,0.0554191,34289.5,-38219.2,0,51346.7,6724.64
step02_gravity_refstate-crust.xmf,831,9.86737e-07,6.41364e-09,0,-5.33435e-07,-3.96302e+08,-3.96369e+08,-3.96369e+08,-36593.6,0.0027859,0.175557,0,0.175579,2674.97,-14431.8,0,14677.6,36593.6
step02_gravity_refstate-crust.xmf,832,9.17542e-07,7.10933e-08,0,-5.07939e-07,-3.66281e+08,-3.66339e+08,-3.66344e+08,-34844.6,0.00276318,0.175459,0,0.175481,2844.28,-13338.7,0,13638.5,34844.6
step02_gravity_refstate-crust.xmf,833,1.14449e-06,-1.43492e-07,0,-6.37989e-07,-4.53716e+08,-4.53804e+08,-4.53794e+08,-43766,0.00305739,0.175831,0,0.175857,2513.1,-16522.4,0,16712.4,43766
step02_gravity_refstate-crust.xmf,834,8.00327e-07,1.22696e-07,0,-3.77838e-07,-2.43089e+08,-2.43136e+08,-2.43144e+08,-25919.7,0.00277827,0.175628,0,0.17565,3310.28,-8853.34,0,9451.96,25919.7
step02_gravity_refstate-crust.xmf,835,8.35938e-07,6.72862e-08,0,-2.65489e-07,-2.02989e+08,-2.03042e+08,-2.03047e+08,-18212.5,0.0022631,0.17621,0,0.176225,2638.94,-7393.51,0,7850.35,18212.5
step02_gravity_refstate-crust.xmf,836,8.37444e-07,1.06317e-07,0,-3.18777e-07,-2.77238e+08,-2.77288e+08,-2.77296e+08,-21868.1,0.00209611,0.176076,0,0.176088,2434.03,-10096.7,0,10385.9,21868.1
step02_gravity_refstate-crust.xmf,837,9.08113e-07,7.01769e-08,0,-3.7529e-07,-3.41517e+08,-3.41574e+08,-3.41579e+08,-25744.9,0.00211201,0.175965,0,0.175978,2255.41,-12437,0,12639.9,25744.9
step02_gravity_refstate-crust.xmf,838,8.9275e-07,-2.90218e-09,0,-1.57357e-07,-1.64454e+08,-1.64515e+08,-1.64515e+08,-10794.7,0.00164589,0.17664,0,0.176648,1825.64,-5990.71,0,6262.71,10794.7
step02_gravity_refstate-crust.xmf,839,2.50086e-06,-2.03212e-06,0,-7.3514e-07,-6.41517e+08,-6.41828e+08,-6.41689e+08,-50430.6,0.00241151,0.183379,0,0.183394,945.302,-23362.1,0,23381.2,50430.6
step02_gravity_refstate-crust.xmf,840,3.42174e-06,-3.69251e-06,0,-1.79055e-06,-7.13614e+08,-7.14102e+08,-7.13849e+08,-122832,0.00443049,0.190187,0,0.190239,1202.02,-25988,0,26015.8,122832
step02_gravity_refstate-crust.xmf,841,3.26724e-06,-3.32486e-06,0,-1.21264e-06,-6.96729e+08,-6.97181e+08,-6.96953e+08,-83186.9,0.00318156,0.188658,0,0.188685,938.317,-25373.2,0,25390.5,83186.9
step02_gravity_refstate-crust.xmf,842,3.97005e-06,-4.58874e-06,0,-1.5424e-06,-7.28642e+08,-7.29229e+08,-7.28914e+08,-105808,0.00346556,0.193411,0,0.193442,838.998,-26535.9,0,26549.2,105808
step02_gravity_refstate-crust.xmf,843,5.36461e-06,-7.25879e-06,0,-2.04225e-06,-7.68381e+08,-7.69247e+08,-7.68749e+08,-140098,0.00343518,0.202351,0,0.202381,616.334,-27984.1,0,27990.9,140098
step02_gravity_refstate-crust.xmf,844,1.54176e-06,-6.35813e-07,0,-5.57088e-07,-5.28557e+08,-5.28706e+08,-5.28663e+08,-38216.3,0.00236166,0.177811,0,0.177827,1488.72,-19247.9,0,19305.4,38216.3
step02_gravity_refstate-crust.xmf,845,2.20263e-06,-1.60116e-06,0,-8.86371e-07,-6.20849e+08,-6.2111e+08,-6.21e+08,-60805.1,0.00309864,0.181501,0,0.181527,1350.61,-22609.1,0,22649.4,60805.1
step02_gravity_refstate-crust.xmf,846,1.93124e-06,-1.20025e-06,0,-9.76888e-07,-5.98099e+08,-5.98314e+08,-5.98231e+08,-67014.5,0.0036358,0.179737,0,0.179774,1770.48,-21780.3,0,21852.2,67014.5
step02_gravity_refstate-crust.xmf,847,1.09495e-06,1.73163e-06,0,-1.24063e-05,-8.9921e+08,-8.99166e+08,-8.99285e+08,-851071,0.00243942,0.217573,0,0.217586,1421.18,-32743.7,0,32774.6,851071
step02_gravity_refstate-crust.xmf,848,3.36389e-07,3.46338e-06,0,-1.25495e-05,-9.13137e+08,-9.12922e+08,-9.1316e+08,-860896,0.00118313,0.215682,0,0.215685,1441.99,-33250.4,0,33281.6,860896
step02_gravity_refstate-crust.xmf,849,6.85082e-06,-1.05213e-05,0,-2.46929e-06,-7.94772e+08,-7.95964e+08,-7.95242e+08,-169394,0.00311148,0.211246,0,0.211269,442.924,-28945.9,0,28949.3,169394
step02_gravity_refstate-crust.xmf,850,7.94636e-06,-1.33429e-05,0,-2.38394e-06,-8.11042e+08,-8.12502e+08,-8.11587e+08,-163538,0.00258387,0.218621,0,0.218636,324.398,-29538.3,0,29540.1,163538
step02_gravity_refstate-crust.xmf,851,7.72603e-06,-1.47885e-05,0,-4.23321e-06,-8.2381e+08,-8.25355e+08,-8.2434e+08,-290398,0.00400144,0.223922,0,0.223957,499.828,-30000,0,30004.2,290398
step02_gravity_refstate-crust.xmf,852,5.10289e-06,-8.30122e-06,0,-1.06307e-05,-8.37572e+08,-8.38491e+08,-8.37922e+08,-729265,0.00656468,0.222149,0,0.222246,1000,-30500.4,0,30516.8,729265
step02_gravity_refstate-crust.xmf,853,-4.03875e-07,5.2127e-06,0,-1.26452e-05,-9.27142e+08,-9.26756e+08,-9.27114e+08,-867462,-7.54091e-05,0.213356,-0,0.213356,1446.03,-33760,0,33790.9,867462
step02_gravity_refstate-crust.xmf,854,-1.12845e-06,6.93679e-06,0,-1.26265e-05,-9.40998e+08,-9.40445e+08,-9.40921e+08,-866179,-0.00130297,0.210357,-0,0.210361,1443.85,-34264.2,0,34294.6,866179
step02_gravity_refstate-crust.xmf,855,-1.84429e-06,8.66333e-06,0,-1.2484e-05,-9.54778e+08,-9.54058e+08,-9.54652e+08,-856403,-0.00251106,0.206627,-0,0.206643,1437.61,-34765.6,0,34795.3,856403
step02_gravity_refstate-crust.xmf,856,1.81801e-07,4.61199e-06,0,-1.4836e-06,-9.54757e+08,-9.54453e+08,-9.5477e+08,-101775,-0.00498617,0.114011,-0,0.11412,9067.33,-34766.8,0,35929.7,101775
step02_gravity_refstate-crust.xmf,857,1.5667e-07,4.73085e-06,0,-1.68184e-06,-9.53059e+08,-9.52745e+08,-9.5307e+08,-115375,-0.00497048,0.118555,-0,0.11866,8291.6,-34705,0,35681.8,115375
step02_gravity_refstate-crust.xmf,858,-1.47956e-07,5.48482e-06,0,-3.38863e-06,-9.47092e+08,-9.46706e+08,-9.47082e+08,-232460,-0.00443211,0.143314,-0,0.143382,5234.2,-34487.7,0,34882.7,232460
step02_gravity_refstate-crust.xmf,859,1.1722e-07,4.88148e-06,0,-1.95335e-06,-9.51617e+08,-9.5129e+08,-9.51625e+08,-134000,-0.00494249,0.123796,-0,0.123894,7489.1,-34652.6,0,35452.6,134000
step02_gravity_refstate-crust.xmf,860,-3.20149e-08,5.26295e-06,0,-2.77927e-06,-9.48715e+08,-9.48352e+08,-9.48713e+08,-190658,-0.00469922,0.136121,-0,0.136202,5951.88,-34546.9,0,35055.9,190658
step02_gravity_refstate-crust.xmf,861,5.58307e-08,5.06196e-06,0,-2.31345e-06,-9.50267e+08,-9.49924e+08,-9.50271e+08,-158703,-0.00486883,0.129661,-0,0.129752,6700.63,-34603.5,0,35246.3,158703
step02_gravity_refstate-crust.xmf,862,-1.85299e-06,9.91607e-06,0,-8.59683e-06,-9.78704e+08,-9.77897e+08,-9.78577e+08,-589742,-0.00664467,0.178614,-0,0.178737,2265.27,-35638.6,0,35710.5,589742
step02_gravity_refstate-crust.xmf,863,-5.86187e-07,6.83718e-06,0,-5.8462e-06,-9.56434e+08,-9.55925e+08,-9.56394e+08,-401049,-0.00514784,0.163423,-0,0.163504,3486.71,-34828.2,0,35002.3,401049
step02_gravity_refstate-crust.xmf,864,-8.50067e-07,7.8063e-06,0,-6.54622e-06,-9.6749e+08,-9.66897e+08,-9.67432e+08,-449071,-0.00635343,0.166587,-0,0.166709,3108.7,-35231.1,0,35368,449071
step02_gravity_refstate-crust.xmf,865,-3.07608e-07,6.44391e-06,0,-4.71843e-06,-9.60284e+08,-9.59821e+08,-9.60263e+08,-323684,-0.00595685,0.153269,-0,0.153385,4134.09,-34968.8,0,35212.4,323684
step02_gravity_refstate-crust.xmf,866,1.92343e-07,4.51894e-06,0,-1.33931e-06,-9.55867e+08,-9.5557e+08,-9.5588e+08,-91876.7,-0.00494571,0.110396,-0,0.110507,9763.82,-34807.1,0,36150.6,91876.7
step02_gravity_refstate-crust.xmf,867,1.24076e-07,4.10093e-06,0,-7.25602e-07,-9.62112e+08,-9.6184e+08,-9.62121e+08,-49776.3,-0.00436548,0.0895559,-0,0.0896622,15609.6,-35033.5,0,38353.7,49776.3
step02_gravity_refstate-crust.xmf,868,3.82665e-08,3.76584e-06,0,-4.4686e-07,-9.25948e+08,-9.25692e+08,-9.2595e+08,-30654.6,-0.0028609,0.0842153,-0,0.0842639,20826.8,-33716,0,39629.9,30654.6
step02_gravity_refstate-crust.xmf,869,1.21333e-07,3.64818e-06,0,-3.0426e-07,-9.396e+08,-9.39358e+08,-9.39609e+08,-20872.2,-0.00279744,0.0762175,-0,0.0762688,25399.9,-34213.2,0,42611,20872.2
step02_gravity_refstate-crust.xmf,870,6.95545e-08,3.72877e-06,0,-3.96835e-07,-9.31936e+08,-9.31685e+08,-9.31941e+08,-27222.9,-0.0029318,0.0811287,-0,0.0811816,22310.6,-33934.1,0,40611.4,27222.9
step02_gravity_refstate-crust.xmf,871,9.65503e-08,3.68873e-06,0,-3.49124e-07,-9.3627e+08,-9.36024e+08,-9.36277e+08,-23949.9,-0.00290139,0.0784903,-0,0.0785439,23840,-34092,0,41600.5,23949.9
step02_gravity_refstate-crust.xmf,872,6.46303e-08,3.90724e-06,0,-5.38503e-07,-9.44446e+08,-9.44183e+08,-9.44451e+08,-36941.3,-0.00349405,0.0854045,-0,0.0854759,18693,-34389.8,0,39141.9,36941.3
step02_gravity_refstate-crust.xmf,873,1.87237e-07,3.76009e-06,0,-2.84215e-07,-9.8274e+08,-9.82495e+08,-9.82753e+08,-19497.2,-0.00337053,0.069603,-0,0.0696846,26170.3,-35784.2,0,44332.8,19497.2
step02_gravity_refstate-crust.xmf,874,2.60619e-07,3.70397e-06,0,-1.62421e-07,-1.0059e+09,-1.00567e+09,-1.00592e+09,-11142.1,-0.00251217,0.0626942,-0,0.0627445,31175.8,-36627.7,0,48099.1,11142.1
step02_gravity_refstate-crust.xmf,875,2.40052e-07,3.7442e-06,0,-2.10701e-07,-1.00295e+09,-1.00271e+09,-1.00296e+09,-14454.1,-0.00300583,0.0644185,-0,0.0644886,29070.2,-36520.1,0,46677.5,14454.1
step02_gravity_refstate-crust.xmf,876,1.29018e-06,-3.19055e-07,0,-5.2651e-07,-4.79005e+08,-4.79116e+08,-4.79094e+08,-36118.6,0.00244239,0.176681,0,0.176698,1831.02,-17443.4,0,17539.2,36118.6
step02_gravity_refstate-crust.xmf,877,1.10133e-06,-1.12023e-07,0,-4.43406e-07,-4.24828e+08,-4.24912e+08,-4.24904e+08,-30417.6,0.00221318,0.176188,0,0.176202,1949.07,-15470.6,0,15592.9,30417.6
step02_gravity_refstate-crust.xmf,878,8.88126e-07,7.24574e-08,0,-2.45109e-07,-3.10625e+08,-3.1068e+08,-3.10685e+08,-16814.5,0.00145962,0.176384,0,0.17639,1622.68,-11312.3,0,11428.1,16814.5
step02_gravity_refstate-crust.xmf,879,1.43884e-06,-5.46178e-07,0,-5.51421e-09,136672,499.067,37966.9,-378.275,0.00438012,0.174767,0,0.174822,2969.28,0,0,2969.28,378.275
step02_gravity_refstate-crust.xmf,880,1.2374e-06,-3.51021e-07,0,-4.92395e-08,-4.29215e+07,-4.30304e+07,-4.30064e+07,-3377.83,0.00247835,0.175902,0,0.17592,1983.78,-1567.06,0,2528.06,3377.83
step02_gravity_refstate-crust.xmf,881,9.57413e-07,-7.39604e-08,0,-7.30843e-08,-1.32571e+08,-1.32642e+08,-1.32637e+08,-5013.58,0.000987377,0.176829,0,0.176832,1028.77,-4830.14,0,4938.48,5013.58
step02_gravity_refstate-crust.xmf,882,1.07079e-06,-1.90521e-07,0,-5.68736e-08,-8.96768e+07,-8.97633e+07,-8.97502e+07,-3901.53,0.00106585,0.176634,0,0.176637,994.051,-3268.81,0,3416.61,3901.53
step02_gravity_refstate-crust.xmf,883,4.58858e-06,-5.61989e-06,0,-1.08758e-06,-7.43197e+08,-7.43897e+08,-7.43512e+08,-74608.2,0.00222084,0.19687,0,0.196883,479.103,-27066.7,0,27070.9,74608.2
step02_gravity_refstate-crust.xmf,884,3.01792e-06,-2.87497e-06,0,-9.0812e-07,-6.78137e+08,-6.78541e+08,-6.78344e+08,-62297,0.0025464,0.186749,0,0.186766,827.863,-24696,0,24709.9,62297
step02_gravity_refstate-crust.xmf,885,2.80651e-06,-2.50182e-06,0,-4.60344e-07,-6.59519e+08,-6.59883e+08,-6.59712e+08,-31579.6,0.00137884,0.18529,0,0.185295,490.224,-24017.9,0,24022.9,31579.6
step02_gravity_refstate-crust.xmf,886,6.19665e-06,-8.76308e-06,0,-9.16303e-07,-7.78405e+08,-7.79431e+08,-7.7883e+08,-62858.4,0.00140876,0.20622,0,0.206225,227.527,-28350.1,0,28351,62858.4
step02_gravity_refstate-crust.xmf,887,5.38358e-06,-7.08553e-06,0,-4.60725e-07,-7.60074e+08,-7.6093e+08,-7.60444e+08,-31605.8,0.000773331,0.201141,0,0.201142,145.197,-27682.1,0,27682.5,31605.8
step02_gravity_refstate-crust.xmf,888,1.44232e-06,-5.04175e-07,0,-3.73316e-07,-5.02847e+08,-5.0298e+08,-5.02946e+08,-25609.5,0.00166668,0.177534,0,0.177542,1141.89,-18311.7,0,18347.3,25609.5
step02_gravity_refstate-crust.xmf,889,2.33692e-06,-1.76616e-06,0,-4.49472e-07,-6.23213e+08,-6.23495e+08,-6.23374e+08,-30833.8,0.001562,0.182378,0,0.182385,662.366,-22695.4,0,22705.1,30833.8
step02_gravity_refstate-crust.xmf,890,1.84016e-06,-1.03858e-06,0,-6.35661e-07,-5.74185e+08,-5.74383e+08,-5.74311e+08,-43606.3,0.00246264,0.179354,0,0.179371,1302.7,-20909.6,0,20950.2,43606.3
step02_gravity_refstate-crust.xmf,891,1.71657e-06,-8.657e-07,0,-3.71346e-07,-5.4939e+08,-5.49567e+08,-5.49507e+08,-25474.4,0.00150625,0.178832,0,0.178838,870.122,-20006.7,0,20025.6,25474.4
step02_gravity_refstate-crust.xmf,892,2.72672e-06,-1.7425e-06,0,-1.38057e-05,-8.78781e+08,-8.79088e+08,-8.78968e+08,-947070,0.00334841,0.229622,0,0.229647,1000,-32001.2,0,32016.9,947070
step02_gravity_refstate-crust.xmf,893,1.83288e-06,2.9818e-07,0,-1.42726e-05,-8.92517e+08,-8.92622e+08,-8.92642e+08,-979098,0.00237085,0.229983,0,0.229995,1000,-32500.8,0,32516.2,979098
step02_gravity_refstate-crust.xmf,894,4.43291e-06,-6.07542e-06,0,-1.20839e-05,-8.51286e+08,-8.52007e+08,-8.5159e+08,-828954,0.00548348,0.225739,0,0.225806,1000,-31000.5,0,31016.6,828954
step02_gravity_refstate-crust.xmf,895,3.69016e-06,-3.85615e-06,0,-1.31505e-05,-8.65024e+08,-8.65542e+08,-8.65277e+08,-902125,0.00438986,0.228225,0,0.228267,1000,-31501,0,31516.9,902125
step02_gravity_refstate-crust.xmf,896,-2.51114e-06,1.03349e-05,0,-1.22e-05,-9.68092e+08,-9.67211e+08,-9.6792e+08,-836920,-0.00368105,0.202174,-0,0.202207,1432.57,-35250.2,0,35279.3,836920
step02_gravity_refstate-crust.xmf,897,-2.3974e-06,1.0615e-05,0,-1.04997e-05,-9.75848e+08,-9.74955e+08,-9.75683e+08,-720279,-0.00528532,0.190511,-0,0.190584,1775.26,-35533.5,0,35577.8,720279
step02_gravity_refstate-crust.xmf,898,-1.1879e-06,8.78847e-06,0,-7.19372e-06,-9.76339e+08,-9.75655e+08,-9.76258e+08,-493489,-0.00713955,0.169578,-0,0.169728,2780.94,-35553.4,0,35662,493489
step02_gravity_refstate-crust.xmf,899,-5.48527e-08,6.07767e-06,0,-3.77729e-06,-9.631e+08,-9.62679e+08,-9.63096e+08,-259122,-0.00644491,0.144385,-0,0.144529,4819.94,-35071.8,0,35401.5,259122
step02_gravity_refstate-crust.xmf,900,3.64692e-07,4.63633e-06,0,-1.47818e-06,-9.74932e+08,-9.74639e+08,-9.74957e+08,-101403,-0.00634628,0.108456,-0,0.108641,9500.9,-35502,0,36751.3,101403
step02_gravity_refstate-crust.xmf,901,2.97119e-07,4.49213e-06,0,-1.2756e-06,-9.69905e+08,-9.69618e+08,-9.69926e+08,-87506.4,-0.00572669,0.105047,-0,0.105203,10446.1,-35318.5,0,36830.9,87506.4
step02_gravity_refstate-crust.xmf,902,2.89191e-07,4.40838e-06,0,-1.14682e-06,-9.7491e+08,-9.74628e+08,-9.7493e+08,-78671.7,-0.00571676,0.100116,-0,0.100279,11482.5,-35500.6,0,37311.4,78671.7
step02_gravity_refstate-crust.xmf,903,2.66914e-07,4.33563e-06,0,-1.03297e-06,-9.77877e+08,-9.77598e+08,-9.77895e+08,-70862,-0.0055843,0.0960198,-0,0.0961821,12512.6,-35608.4,0,37742.8,70862
step02_gravity_refstate-crust.xmf,904,2.49122e-07,4.28037e-06,0,-9.31319e-07,-9.84402e+08,-9.84125e+08,-9.84419e+08,-63888.5,-0.00555249,0.0912113,-0,0.0913801,13728.8,-35845.8,0,38384.9,63888.5
step02_gravity_refstate-crust.xmf,905,2.26879e-07,4.22704e-06,0,-8.36848e-07,-9.88196e+08,-9.87922e+08,-9.88211e+08,-57407.8,-0.00541447,0.0873654,-0,0.087533,14913.3,-35983.7,0,38951.7,57407.8
step02_gravity_refstate-crust.xmf,906,1.22927e-07,4.05445e-06,0,-6.56803e-07,-9.65245e+08,-9.64976e+08,-9.65254e+08,-45056.7,-0.00432754,0.0862819,-0,0.0863903,16806.7,-35147.5,0,38959.1,45056.7
step02_gravity_refstate-crust.xmf,907,9.24185e-08,3.88486e-06,0,-4.89634e-07,-9.53727e+08,-9.53467e+08,-9.53733e+08,-33588.9,-0.00365845,0.081786,-0,0.0818678,19963.6,-34727.8,0,40057,33588.9
step02_gravity_refstate-crust.xmf,908,1.29769e-07,4.01115e-06,0,-5.9358e-07,-9.68715e+08,-9.68449e+08,-9.68724e+08,-40719.6,-0.00428356,0.0831997,-0,0.0833099,18029.9,-35273.8,0,39614.6,40719.6
step02_gravity_refstate-crust.xmf,909,2.37065e-07,3.8318e-06,0,-2.55055e-07,-1.0156e+09,-1.01535e+09,-1.01561e+09,-17496.8,-0.00353244,0.0639366,-0,0.0640341,27422.1,-36980.7,0,46038.5,17496.8
step02_gravity_refstate-crust.xmf,910,3.08206e-07,3.82829e-06,0,-1.40706e-07,-1.05119e+09,-1.05095e+09,-1.05121e+09,-9652.44,-0.00254341,0.0559669,-0,0.0560247,32208.3,-38276.9,0,50024.9,9652.44
step02_gravity_refstate-crust.xmf,911,9.79418e-07,-1.78176e-10,0,-3.00922e-07,-3.68984e+08,-3.69051e+08,-3.69051e+08,-20643.3,0.00162454,0.176287,0,0.176294,1631.23,-13437.2,0,13535.8,20643.3
step02_gravity_refstate-crust.xmf,912,1.21886e-06,-2.40068e-07,0,-3.39163e-07,-4.51211e+08,-4.51311e+08,-4.51295e+08,-23266.6,0.00161433,0.176762,0,0.176769,1306.45,-16431.3,0,16483.2,23266.6
step02_gravity_refstate-crust.xmf,913,1.05972e-06,-7.99207e-08,0,-2.51061e-07,-3.98093e+08,-3.98172e+08,-3.98166e+08,-17222.8,0.00130394,0.176514,0,0.176519,1218.57,-14497.2,0,14548.3,17222.8
step02_gravity_refstate-crust.xmf,914,8.45132e-07,7.90146e-08,0,-2.00292e-07,-2.39521e+08,-2.39573e+08,-2.39579e+08,-13740,0.00149026,0.176548,0,0.176554,1744.8,-8723.54,0,8896.31,13740
step02_gravity_refstate-crust.xmf,915,9.13187e-07,-2.18324e-08,0,-1.9715e-08,-1.60598e+08,-1.60662e+08,-1.60661e+08,-1352.45,0.000192638,0.17698,0,0.17698,211.295,-5850.39,0,5854.21,1352.45
step02_gravity_refstate-crust.xmf,916,8.69077e-07,3.66576e-08,0,-9.48078e-08,-1.99309e+08,-1.99366e+08,-1.99369e+08,-6503.82,0.000808622,0.176879,0,0.176881,929.143,-7259.63,0,7318.85,6503.82
step02_gravity_refstate-crust.xmf,917,8.69848e-07,7.34422e-08,0,-1.32474e-07,-2.76295e+08,-2.7635e+08,-2.76355e+08,-9087.71,0.000881614,0.176684,0,0.176686,1011.7,-10062.4,0,10113.2,9087.71
step02_gravity_refstate-crust.xmf,918,9.46798e-07,2.42587e-08,0,-1.46861e-07,-3.41007e+08,-3.41071e+08,-3.41072e+08,-10074.6,0.000817803,0.176591,0,0.176592,862.096,-12418.6,0,12448.5,10074.6
step02_gravity_refstate-crust.xmf,919,2.5474e-06,-2.09312e-06,0,-8.23076e-08,-6.37859e+08,-6.38177e+08,-6.38034e+08,-5646.3,0.000295492,0.183644,0,0.183644,116.475,-23229,0,23229.3,5646.3
step02_gravity_refstate-crust.xmf,920,3.74786e-06,-4.0926e-06,0,-8.18955e-07,-7.1275e+08,-7.13288e+08,-7.13007e+08,-56180.3,0.0020056,0.191484,0,0.191495,530.195,-25957.2,0,25962.6,56180.3
step02_gravity_refstate-crust.xmf,921,3.43593e-06,-3.54287e-06,0,-3.75678e-07,-6.95444e+08,-6.95923e+08,-6.9568e+08,-25771.5,0.00096325,0.189319,0,0.189322,280.972,-25326.8,0,25328.3,25771.5
step02_gravity_refstate-crust.xmf,922,4.24302e-06,-4.91521e-06,0,-2.74366e-07,-7.28417e+08,-7.29046e+08,-7.28708e+08,-18821.5,0.000645556,0.194396,0,0.194397,153.097,-26528.3,0,26528.8,18821.5
step02_gravity_refstate-crust.xmf,923,1.58965e-06,-6.97476e-07,0,-1.75912e-07,-5.25159e+08,-5.25316e+08,-5.25268e+08,-12067.6,0.000740878,0.178317,0,0.178318,466.185,-19124.3,0,19130,12067.6
step02_gravity_refstate-crust.xmf,924,2.10869e-06,-1.41465e-06,0,-4.3672e-07,-5.99681e+08,-5.99923e+08,-5.99826e+08,-29959,0.00162322,0.180947,0,0.180955,764.941,-21838.3,0,21851.7,29959
step02_gravity_refstate-crust.xmf,925,9.42905e-07,2.26498e-06,0,-1.45718e-05,-9.06246e+08,-9.06155e+08,-9.0631e+08,-999626,0.00144336,0.229345,0,0.229349,1000,-33000.1,0,33015.2,999626
step02_gravity_refstate-crust.xmf,926,6.64093e-08,4.18303e-06,0,-1.47334e-05,-9.1999e+08,-9.19708e+08,-9.19995e+08,-1.01071e+06,0.000551121,0.227735,0,0.227736,1000,-33499.9,0,33514.8,1.01071e+06
step02_gravity_refstate-crust.xmf,927,8.25566e-06,-1.5858e-05,0,-3.1371e-08,-8.23797e+08,-8.25451e+08,-8.24363e+08,-2152.05,-1.61731e-06,0.22609,-0,0.22609,-1.02887e-10,-30000,-0,30000,2152.05
step02_gravity_refstate-crust.xmf,928,7.62566e-06,-1.18729e-05,0,1.81516e-07,-8.0196e+08,-8.03297e+08,-8.02483e+08,12452,-9.6219e-05,0.215162,-0,0.215162,-11.8801,-29208.6,-0,29208.6,12452
step02_gravity_refstate-crust.xmf,929,6.84873e-06,-1.01989e-05,0,7.47578e-07,-7.89344e+08,-7.90514e+08,-7.89814e+08,51283.9,-0.000965541,0.210033,-0,0.210035,-141.344,-28748.8,-0,28749.1,51283.9
step02_gravity_refstate-crust.xmf,930,-8.04599e-07,6.08324e-06,0,-1.47763e-05,-9.33752e+08,-9.3328e+08,-9.33697e+08,-1.01365e+06,-0.000321169,0.225167,-0,0.225168,1000,-34000.3,0,34015,1.01365e+06
step02_gravity_refstate-crust.xmf,931,-1.66877e-06,7.98636e-06,0,-1.47042e-05,-9.47513e+08,-9.46851e+08,-9.47398e+08,-1.00871e+06,-0.00118705,0.221648,-0,0.221651,1000,-34500.8,0,34515.3,1.00871e+06
step02_gravity_refstate-crust.xmf,932,-2.48572e-06,9.91265e-06,0,-1.44925e-05,-9.6125e+08,-9.604e+08,-9.6108e+08,-994184,-0.00205989,0.217175,-0,0.217185,1000,-35000.6,0,35014.9,994184
step02_gravity_refstate-crust.xmf,933,-3.158e-06,1.20657e-05,0,-1.1831e-05,-9.81778e+08,-9.80733e+08,-9.81561e+08,-811605,-0.00484801,0.197139,-0,0.197199,1412.29,-35748.5,0,35776.4,811605
step02_gravity_refstate-crust.xmf,934,-3.39311e-06,1.18964e-05,0,-1.41779e-05,-9.74981e+08,-9.73932e+08,-9.74748e+08,-972606,-0.0029538,0.211731,-0,0.211751,1000,-35499.8,0,35513.9,972606
step02_gravity_refstate-crust.xmf,935,-2.65935e-06,1.17e-05,0,-9.78991e-06,-9.87489e+08,-9.86504e+08,-9.87307e+08,-671588,-0.00665059,0.184413,-0,0.184533,1834.1,-35957.9,0,36004.6,671588
step02_gravity_refstate-crust.xmf,936,3.73552e-07,4.77143e-06,0,-1.66908e-06,-9.735e+08,-9.73199e+08,-9.73526e+08,-114499,-0.00655044,0.112973,-0,0.113163,8656.27,-35450.2,0,36491.7,114499
step02_gravity_refstate-crust.xmf,937,3.62011e-07,4.9368e-06,0,-1.90672e-06,-9.71632e+08,-9.71318e+08,-9.71656e+08,-130801,-0.00669994,0.118006,-0,0.118196,7835.07,-35382.3,0,36239.4,130801
step02_gravity_refstate-crust.xmf,938,1.13873e-07,5.68809e-06,0,-3.12254e-06,-9.64974e+08,-9.64592e+08,-9.64982e+08,-214207,-0.00664936,0.136717,-0,0.136878,5532.38,-35140.1,0,35572.9,214207
step02_gravity_refstate-crust.xmf,939,3.20046e-07,5.14471e-06,0,-2.21595e-06,-9.69544e+08,-9.69213e+08,-9.69566e+08,-152014,-0.00678693,0.123678,-0,0.123865,7026.66,-35306.5,0,35998.9,152014
step02_gravity_refstate-crust.xmf,940,2.34041e-07,5.38771e-06,0,-2.60903e-06,-9.66826e+08,-9.66473e+08,-9.66842e+08,-178980,-0.00672661,0.129973,-0,0.130147,6261.11,-35207.6,0,35759.9,178980
step02_gravity_refstate-crust.xmf,941,-1.25394e-06,9.71834e-06,0,-6.83643e-06,-9.90526e+08,-9.89773e+08,-9.9044e+08,-468979,-0.00879432,0.165099,-0,0.165334,2763.44,-36071.1,0,36176.8,468979
step02_gravity_refstate-crust.xmf,942,-7.98926e-07,8.29945e-06,0,-6.10272e-06,-9.80024e+08,-9.794e+08,-9.79969e+08,-418647,-0.00802949,0.161011,-0,0.161211,3226.39,-35688.4,0,35833.9,418647
step02_gravity_refstate-crust.xmf,943,-4.49562e-07,7.43585e-06,0,-5.30795e-06,-9.75625e+08,-9.75084e+08,-9.75594e+08,-364125,-0.00777351,0.155359,-0,0.155554,3693.99,-35528.3,0,35719.8,364125
step02_gravity_refstate-crust.xmf,944,-5.47301e-08,6.75847e-06,0,-4.25149e-06,-9.78262e+08,-9.77794e+08,-9.78258e+08,-291652,-0.00826209,0.145479,-0,0.145713,4412.94,-35624.8,0,35897.1,291652
step02_gravity_refstate-crust.xmf,945,2.01666e-07,4.18203e-06,0,-7.52792e-07,-9.91845e+08,-9.91572e+08,-9.91859e+08,-51641.5,-0.0052795,0.083901,-0,0.0840669,16098,-36116.4,0,39541.6,51641.5
step02_gravity_refstate-crust.xmf,946,1.21164e-07,3.86131e-06,0,-4.3957e-07,-9.63234e+08,-9.62978e+08,-9.63243e+08,-30154.5,-0.00374435,0.0781929,-0,0.0782825,21364.8,-35074,0,41068.7,30154.5
step02_gravity_refstate-crust.xmf,947,1.69373e-07,3.79994e-06,0,-3.34913e-07,-9.78422e+08,-9.78173e+08,-9.78434e+08,-22975,-0.00359502,0.0719369,-0,0.0720266,24514.6,-35627,0,43246.4,22975
step02_gravity_refstate-crust.xmf,948,1.45969e-07,3.83224e-06,0,-3.86075e-07,-9.71568e+08,-9.71315e+08,-9.71578e+08,-26484.7,-0.00371671,0.0748334,-0,0.0749256,22922.1,-35377.4,0,42154.3,26484.7
step02_gravity_refstate-crust.xmf,949,1.33134e-07,3.9756e-06,0,-5.41219e-07,-9.71718e+08,-9.71454e+08,-9.71727e+08,-37127.6,-0.00422812,0.0806932,-0,0.0808039,19120.3,-35383.1,0,40218.7,37127.6
step02_gravity_refstate-crust.xmf,950,2.19933e-07,3.91705e-06,0,-3.21863e-07,-1.02043e+09,-1.02017e+09,-1.02044e+09,-22079.8,-0.00409128,0.0652744,-0,0.0654025,25222.1,-37156.5,0,44908.4,22079.8
step02_gravity_refstate-crust.xmf,951,2.92708e-07,3.87734e-06,0,-1.86301e-07,-1.05214e+09,-1.0519e+09,-1.05216e+09,-12780.2,-0.00315037,0.0568685,-0,0.0569557,30192.5,-38311.5,0,48778.6,12780.2
step02_gravity_refstate-crust.xmf,952,2.77952e-07,3.93841e-06,0,-2.35532e-07,-1.05493e+09,-1.05468e+09,-1.05495e+09,-16157.5,-0.00370304,0.0576825,-0,0.0578013,28317,-38413,0,47722.3,16157.5
step02_gravity_refstate-crust.xmf,953,1.34111e-06,-3.82272e-07,0,-1.88476e-07,-4.75944e+08,-4.76062e+08,-4.76036e+08,-12929.5,0.0008814,0.177318,0,0.17732,656.542,-17332.1,0,17344.5,12929.5
step02_gravity_refstate-crust.xmf,954,1.14936e-06,-1.69122e-07,0,-1.69804e-07,-4.24586e+08,-4.24676e+08,-4.24665e+08,-11648.6,0.000850424,0.176796,0,0.176798,738.588,-15461.9,0,15479.5,11648.6
step02_gravity_refstate-crust.xmf,955,9.87424e-07,-9.84477e-08,0,3.3249e-08,-1.2165e+08,-1.21724e+08,-1.21717e+08,2280.88,-0.000416325,0.176881,-0,0.176882,-422.446,-4432.62,-0,4452.71,2280.88
step02_gravity_refstate-crust.xmf,956,9.05816e-07,5.00693e-08,0,-3.24712e-08,-3.08456e+08,-3.08515e+08,-3.08519e+08,-2227.53,0.00018685,0.176735,0,0.176735,206.775,-11233.4,0,11235.3,2227.53
step02_gravity_refstate-crust.xmf,957,1.49348e-06,-5.67149e-07,0,-4.80246e-09,141852,492.417,39398.8,-329.449,0.0014777,0.175455,0,0.175461,989.347,0,0,989.347,329.449
step02_gravity_refstate-crust.xmf,958,1.2553e-06,-3.54245e-07,0,6.63629e-09,-4.42951e+07,-4.44055e+07,-4.43812e+07,455.25,-3.90203e-05,0.176283,-0,0.176283,-31.596,-1617.14,-0,1617.44,455.25
step02_gravity_refstate-crust.xmf,959,4.71607e-06,-5.74301e-06,0,5.07666e-07,-7.43539e+08,-7.44256e+08,-7.43862e+08,34825.9,-0.00094844,0.197294,-0,0.197296,-202.618,-27079.5,-0,27080.2,34825.9
step02_gravity_refstate-crust.xmf,960,3.12727e-06,-3.02427e-06,0,-2.84945e-09,-6.77804e+08,-6.78226e+08,-6.78018e+08,-195.472,-3.39523e-06,0.187303,-0,0.187303,-1.1466,-24684.1,-0,24684.1,195.472
step02_gravity_refstate-crust.xmf,961,2.82638e-06,-2.53799e-06,0,2.92444e-07,-6.59524e+08,-6.59892e+08,-6.59718e+08,20061.7,-0.000892638,0.185392,-0,0.185394,-316.809,-24018.1,-0,24020.2,20061.7
step02_gravity_refstate-crust.xmf,962,5.87801e-06,-8.19282e-06,0,1.27949e-06,-7.73721e+08,-7.74686e+08,-7.74124e+08,87772.9,-0.00196592,0.204606,-0,0.204616,-332.13,-28179.2,-0,28181.1,87772.9
step02_gravity_refstate-crust.xmf,963,1.46204e-06,-5.28225e-07,0,-8.60591e-09,-4.99876e+08,-5.00013e+08,-4.99977e+08,-590.366,5.36077e-05,0.177817,0,0.177817,36.7686,-18203.6,0,18203.6,590.366
step02_gravity_refstate-crust.xmf,964,2.28436e-06,-1.67355e-06,0,-4.97509e-08,-6.14794e+08,-6.15066e+08,-6.14951e+08,-3412.91,0.000194829,0.182075,0,0.182075,85.6578,-22388.9,0,22389,3412.91
step02_gravity_refstate-crust.xmf,965,1.90485e-06,-1.12611e-06,0,-1.56339e-07,-5.71869e+08,-5.72077e+08,-5.72e+08,-10724.8,0.000604442,0.179873,0,0.179874,317.906,-20825.4,0,20827.9,10724.8
step02_gravity_refstate-crust.xmf,966,1.73209e-06,-8.87706e-07,0,5.03675e-08,-5.47143e+08,-5.47323e+08,-5.47262e+08,3455.21,-0.000211194,0.179007,-0,0.179007,-122.367,-19924.9,-0,19925.3,3455.21
step02_gravity_refstate-crust.xmf,967,8.05989e-06,-1.34777e-05,0,1.86396e-06,-8.1219e+08,-8.13667e+08,-8.12743e+08,127868,-0.0019119,0.219517,-0,0.219525,-237.741,-29580.3,-0,29581.3,127868
step02_gravity_refstate-crust.xmf,968,-4.24893e-06,1.39526e-05,0,-1.36682e-05,-9.88711e+08,-9.87463e+08,-9.8842e+08,-937640,-0.0038837,0.205276,-0,0.205313,1000,-35999.4,0,36013.3,937640
step02_gravity_refstate-crust.xmf,969,-2.05893e-06,1.10538e-05,0,-8.22675e-06,-9.92406e+08,-9.91507e+08,-9.92265e+08,-564355,-0.0081262,0.173997,-0,0.174187,2233.95,-36138.3,0,36207.3,564355
step02_gravity_refstate-crust.xmf,970,2.15444e-07,6.25334e-06,0,-3.4869e-06,-9.80758e+08,-9.80344e+08,-9.80773e+08,-239201,-0.00848083,0.137396,-0,0.137658,5108.27,-35716,0,36079.5,239201
step02_gravity_refstate-crust.xmf,971,5.30511e-07,4.819e-06,0,-1.70853e-06,-9.94456e+08,-9.94162e+08,-9.94493e+08,-117205,-0.00774433,0.107343,-0,0.107622,9037.22,-36213.8,0,37324.4,117205
step02_gravity_refstate-crust.xmf,972,4.8944e-07,4.68065e-06,0,-1.51838e-06,-9.96146e+08,-9.95859e+08,-9.9618e+08,-104161,-0.00738482,0.102846,-0,0.103111,9939.79,-36274.9,0,37612.1,104161
step02_gravity_refstate-crust.xmf,973,4.39179e-07,4.56682e-06,0,-1.35037e-06,-9.97482e+08,-9.97199e+08,-9.97512e+08,-92635.1,-0.00701714,0.0986743,-0,0.0989235,10893.2,-36323.2,0,37921.4,92635.1
step02_gravity_refstate-crust.xmf,974,3.94479e-07,4.48686e-06,0,-1.21775e-06,-1.00127e+09,-1.00099e+09,-1.00129e+09,-83537.8,-0.00676712,0.0943553,-0,0.0945977,11896.1,-36460.7,0,38352.3,83537.8
step02_gravity_refstate-crust.xmf,975,3.52006e-07,4.4242e-06,0,-1.09962e-06,-1.00606e+09,-1.00578e+09,-1.00608e+09,-75433.6,-0.0065494,0.0900677,-0,0.0903055,12966.4,-36634.9,0,38861.8,75433.6
step02_gravity_refstate-crust.xmf,976,3.12667e-07,4.37667e-06,0,-9.91152e-07,-1.01261e+09,-1.01233e+09,-1.01263e+09,-67993,-0.006369,0.0856009,-0,0.0858375,14140.2,-36873.1,0,39491.4,67993
step02_gravity_refstate-crust.xmf,977,2.77578e-07,4.32961e-06,0,-8.87287e-07,-1.01733e+09,-1.01705e+09,-1.01735e+09,-60867.9,-0.00615592,0.081812,-0,0.0820433,15316.2,-37044.6,0,40086,60867.9
step02_gravity_refstate-crust.xmf,978,1.8948e-07,4.13823e-06,0,-6.73822e-07,-9.95928e+08,-9.95657e+08,-9.95941e+08,-46224.2,-0.00514566,0.080514,-0,0.0806783,17362.7,-36264.9,0,40207.1,46224.2
step02_gravity_refstate-crust.xmf,979,1.73872e-07,4.00739e-06,0,-5.10733e-07,-9.93526e+08,-9.93263e+08,-9.93538e+08,-35036.3,-0.00458803,0.0756542,-0,0.0757932,20211.1,-36177.2,0,41440.1,35036.3
step02_gravity_refstate-crust.xmf,980,1.90078e-07,4.09104e-06,0,-5.9782e-07,-9.99538e+08,-9.9927e+08,-9.99551e+08,-41010.5,-0.0049864,0.0773762,-0,0.0775367,18696.8,-36396.3,0,40917.7,41010.5
step02_gravity_refstate-crust.xmf,981,2.62931e-07,4.00884e-06,0,-2.93359e-07,-1.05796e+09,-1.05771e+09,-1.05798e+09,-20124.4,-0.00423301,0.0587164,-0,0.0588688,26440.3,-38523.4,0,46724.1,20124.4
step02_gravity_refstate-crust.xmf,982,1.01784e-06,-4.47928e-08,0,-3.12746e-08,-3.731e+08,-3.73173e+08,-3.7317e+08,-2145.43,0.000156712,0.176705,0,0.176705,154.459,-13587.1,0,13588,2145.43
step02_gravity_refstate-crust.xmf,983,1.24085e-06,-2.70991e-07,0,-3.91867e-08,-4.48878e+08,-4.48981e+08,-4.48963e+08,-2688.21,0.000182789,0.17709,0,0.17709,147.674,-16346.4,0,16347.1,2688.21
step02_gravity_refstate-crust.xmf,984,1.08864e-06,-1.09966e-07,0,-3.72741e-08,-4.02312e+08,-4.02394e+08,-4.02386e+08,-2557,0.000194624,0.176779,0,0.17678,178.933,-14650.8,0,14651.9,2557
step02_gravity_refstate-crust.xmf,985,8.6234e-07,6.1604e-08,0,-1.34541e-08,-2.36001e+08,-2.36056e+08,-2.36061e+08,-922.951,0.00012213,0.176906,0,0.176906,142.121,-8595.45,0,8596.63,922.951
step02_gravity_refstate-crust.xmf,986,9.13492e-07,-2.79978e-08,0,1.15757e-07,-1.53985e+08,-1.5405e+08,-1.54048e+08,7940.95,-0.00133408,0.176761,-0,0.176766,-1451.94,-5609.64,-0,5794.5,7940.95
step02_gravity_refstate-crust.xmf,987,8.73668e-07,2.92922e-08,0,6.88255e-08,-1.9512e+08,-1.95178e+08,-1.9518e+08,4721.43,-0.000627371,0.176922,-0,0.176923,-717.693,-7107.12,-0,7143.27,4721.43
step02_gravity_refstate-crust.xmf,988,8.72599e-07,6.76084e-08,0,6.4977e-08,-2.73331e+08,-2.73386e+08,-2.73391e+08,4457.42,-0.000408914,0.176791,-0,0.176792,-469.562,-9954.51,-0,9965.58,4457.42
step02_gravity_refstate-crust.xmf,989,9.47687e-07,1.92097e-08,0,9.54887e-08,-3.39014e+08,-3.39078e+08,-3.39079e+08,6550.52,-0.000542592,0.176652,-0,0.176653,-573.271,-12346,-0,12359.3,6550.52
step02_gravity_refstate-crust.xmf,990,1.09916e-06,-2.18194e-07,0,5.28984e-08,-8.04742e+07,-8.05646e+07,-8.05496e+07,3628.83,-0.00129085,0.176529,-0,0.176534,-1171.27,-2933.85,-0,3159.01,3628.83
step02_gravity_refstate-crust.xmf,991,5.04023e-06,-6.61197e-06,0,1.67227e-06,-7.58558e+08,-7.59358e+08,-7.58904e+08,114718,-0.00297291,0.200029,-0,0.200051,-574.988,-27626.2,-0,27632.2,114718
step02_gravity_refstate-crust.xmf,992,2.52733e-06,-2.05657e-06,0,5.72508e-07,-6.40615e+08,-6.4093e+08,-6.40789e+08,39274,-0.00183073,0.183545,-0,0.183555,-717.1,-23329.3,-0,23340.3,39274
step02_gravity_refstate-crust.xmf,993,3.81603e-06,-4.16094e-06,0,2.64501e-07,-7.12255e+08,-7.12803e+08,-7.12517e+08,18144.7,-0.000599669,0.191729,-0,0.19173,-157.875,-25939.4,-0,25939.8,18144.7
step02_gravity_refstate-crust.xmf,994,3.39764e-06,-3.50317e-06,0,5.84899e-07,-6.95006e+08,-6.95479e+08,-6.95239e+08,40124,-0.00153941,0.189135,-0,0.189141,-451.522,-25310.7,-0,25314.7,40124
step02_gravity_refstate-crust.xmf,995,4.12287e-06,-4.73396e-06,0,1.0134e-06,-7.28005e+08,-7.28613e+08,-7.28288e+08,69519.1,-0.00219866,0.193938,-0,0.19395,-527.149,-26513.1,-0,26518.3,69519.1
step02_gravity_refstate-crust.xmf,996,1.57378e-06,-6.79062e-07,0,2.05284e-07,-5.22919e+08,-5.23074e+08,-5.23027e+08,14082.5,-0.000881553,0.178233,-0,0.178235,-559.595,-19042.7,-0,19050.9,14082.5
step02_gravity_refstate-crust.xmf,997,2.37301e-06,-1.81511e-06,0,3.10592e-07,-6.24601e+08,-6.24888e+08,-6.24763e+08,21306.6,-0.00102934,0.182606,-0,0.182608,-432.328,-22746,-0,22750.1,21306.6
step02_gravity_refstate-crust.xmf,998,2.07869e-06,-1.37031e-06,0,1.22376e-07,-5.92933e+08,-5.9317e+08,-5.93076e+08,8394.98,-0.000440996,0.180846,-0,0.180847,-212.57,-21592.6,-0,21593.7,8394.98
step02_gravity_refstate-crust.xmf,999,7.74897e-06,-1.48503e-05,0,4.16598e-06,-8.2381e+08,-8.25361e+08,-8.24342e+08,285786,-0.00400312,0.223921,-0,0.223957,-499.828,-30000,-0,30004.2,285786
step02_gravity_refstate-crust.xmf,1000,7.07997e-06,-1.08297e-05,0,2.99431e-06,-8.00389e+08,-8.01617e+08,-8.00874e+08,205410,-0.0034558,0.213286,-0,0.213314,-471.398,-29150.8,-0,29154.6,205410
step02_gravity_refstate-crust.xmf,1001,5.94703e-06,-8.84838e-06,0,3.23724e-06,-7.86972e+08,-7.87987e+08,-7.8738e+08,222075,-0.00446676,0.207347,-0,0.207395,-695.576,-28660.9,-0,28669.3,222075
step02_gravity_refstate-crust.xmf,1002,-3.6693e-06,1.36788e-05,0,-1.10865e-05,-9.95111e+08,-9.9392e+08,-9.94859e+08,-760533,-0.00612151,0.190425,-0,0.190523,1430.4,-36234.3,0,36262.6,760533
step02_gravity_refstate-crust.xmf,1003,-2.8047e-06,1.27904e-05,0,-8.92584e-06,-1.00109e+09,-1.00002e+09,-1.0009e+09,-612313,-0.0081991,0.177182,-0,0.177372,1887.46,-36454.1,0,36502.9,612313
step02_gravity_refstate-crust.xmf,1004,-1.76144e-06,1.12731e-05,0,-7.27908e-06,-1.0042e+09,-1.00331e+09,-1.00408e+09,-499345,-0.00972456,0.165751,-0,0.166036,2420.54,-36569.4,0,36649.4,499345
step02_gravity_refstate-crust.xmf,1005,5.52206e-07,4.98931e-06,0,-1.92859e-06,-9.92157e+08,-9.91852e+08,-9.92195e+08,-132301,-0.00805979,0.112257,-0,0.112546,8182.2,-36130.4,0,37045.3,132301
step02_gravity_refstate-crust.xmf,1006,5.47339e-07,5.20838e-06,0,-2.19973e-06,-9.89892e+08,-9.89572e+08,-9.89929e+08,-150901,-0.00834911,0.117601,-0,0.117897,7359.92,-36048.3,0,36791.9,150901
step02_gravity_refstate-crust.xmf,1007,3.82783e-07,5.81199e-06,0,-2.95448e-06,-9.83527e+08,-9.83155e+08,-9.83553e+08,-202677,-0.00854438,0.130165,-0,0.130445,5828.5,-35816.8,0,36288,202677
step02_gravity_refstate-crust.xmf,1008,4.92505e-07,5.47795e-06,0,-2.5319e-06,-9.86697e+08,-9.86355e+08,-9.86731e+08,-173688,-0.00850299,0.123616,-0,0.123908,6573.59,-35932.2,0,36528.5,173688
step02_gravity_refstate-crust.xmf,1009,-5.53288e-07,8.56211e-06,0,-5.5451e-06,-9.92735e+08,-9.9211e+08,-9.92697e+08,-380394,-0.00961955,0.154433,-0,0.154733,3406.51,-36152.5,0,36312.7,380394
step02_gravity_refstate-crust.xmf,1010,-1.03264e-07,7.61284e-06,0,-4.67335e-06,-9.93563e+08,-9.93034e+08,-9.93556e+08,-320592,-0.00990809,0.14609,-0,0.146426,4025.34,-36183,0,36406.2,320592
step02_gravity_refstate-crust.xmf,1011,2.40375e-07,6.89292e-06,0,-3.92239e-06,-9.95745e+08,-9.95289e+08,-9.95762e+08,-269076,-0.0100677,0.138029,-0,0.138396,4693.14,-36262.7,0,36565.2,269076
step02_gravity_refstate-crust.xmf,1012,2.43455e-07,4.28952e-06,0,-7.93372e-07,-1.02202e+09,-1.02174e+09,-1.02203e+09,-54425.3,-0.00596397,0.0783698,-0,0.0785964,16487.9,-37215.2,0,40704.1,54425.3
step02_gravity_refstate-crust.xmf,1013,1.84434e-07,3.97242e-06,0,-4.39136e-07,-1.00231e+09,-1.00205e+09,-1.00232e+09,-30124.7,-0.00446161,0.0717805,-0,0.071919,21945.3,-36496.9,0,42586.6,30124.7
step02_gravity_refstate-crust.xmf,1014,2.06197e-07,3.96568e-06,0,-3.82204e-07,-1.01743e+09,-1.01718e+09,-1.01745e+09,-26219.2,-0.00440751,0.0675577,-0,0.0677013,23533.2,-37047.7,0,43890.1,26219.2
step02_gravity_refstate-crust.xmf,1015,2.44985e-07,4.07678e-06,0,-3.56289e-07,-1.05926e+09,-1.059e+09,-1.05928e+09,-24441.4,-0.00469618,0.0601942,-0,0.0603771,24656.7,-38570.8,0,45778.4,24441.4
step02_gravity_refstate-crust.xmf,1016,1.33602e-06,-3.74971e-07,0,1.37231e-07,-4.73739e+08,-4.73856e+08,-4.7383e+08,9414.03,-0.000618032,0.177337,-0,0.177338,-463.106,-17251.8,-0,17258,9414.03
step02_gravity_refstate-crust.xmf,1017,1.15066e-06,-1.68758e-07,0,8.94419e-08,-4.2318e+08,-4.23271e+08,-4.23259e+08,6135.72,-0.000430361,0.176864,-0,0.176864,-374.592,-15410.7,-0,15415.2,6135.72
step02_gravity_refstate-crust.xmf,1018,9.85801e-07,-1.08191e-07,0,1.39934e-07,-1.13626e+08,-1.13701e+08,-1.13694e+08,9599.5,-0.00215172,0.176409,-0,0.176422,-2157.24,-4140.49,-0,4668.76,9599.5
step02_gravity_refstate-crust.xmf,1019,8.9247e-07,6.19539e-08,0,1.79273e-07,-3.06306e+08,-3.06363e+08,-3.06367e+08,12298.1,-0.0010876,0.17655,-0,0.176553,-1212.07,-11155.1,-0,11220.7,12298.1
step02_gravity_refstate-crust.xmf,1020,1.49326e-06,-5.67865e-07,0,-3.01538e-09,141796,403.331,39358.8,-206.855,-0.00147752,0.175455,-0,0.175462,-989.347,0,-0,989.347,206.855
step02_gravity_refstate-crust.xmf,1021,1.2348e-06,-3.48952e-07,0,6.1321e-08,-4.3174e+07,-4.32826e+07,-4.32587e+07,4206.62,-0.00250388,0.175897,-0,0.175914,-2006.21,-1576.25,-0,2551.36,4206.62
step02_gravity_refstate-crust.xmf,1022,4.29176e-06,-5.16841e-06,0,1.96906e-06,-7.43223e+08,-7.43872e+08,-7.43517e+08,135078,-0.00398239,0.195892,-0,0.195933,-877.178,-27067.1,-0,27081.3,135078
step02_gravity_refstate-crust.xmf,1023,3.01317e-06,-2.88403e-06,0,8.3487e-07,-6.77426e+08,-6.7783e+08,-6.77632e+08,57272.1,-0.00237924,0.186747,-0,0.186763,-775.429,-24670.1,-0,24682.3,57272.1
step02_gravity_refstate-crust.xmf,1024,2.66319e-06,-2.33347e-06,0,1.00329e-06,-6.59031e+08,-6.59373e+08,-6.59213e+08,68826,-0.00308475,0.184525,-0,0.184551,-1117.01,-23999.8,-0,24025.8,68826
step02_gravity_refstate-crust.xmf,1025,4.99922e-06,-6.9737e-06,0,3.20422e-06,-7.72583e+08,-7.73404e+08,-7.72926e+08,219809,-0.00521836,0.202049,-0,0.202116,-935.317,-28136.1,-0,28151.6,219809
step02_gravity_refstate-crust.xmf,1026,1.42206e-06,-4.7669e-07,0,3.40828e-07,-4.97742e+08,-4.97873e+08,-4.9784e+08,23380.8,-0.00150449,0.177496,-0,0.177502,-1047.44,-18125.8,-0,18156.1,23380.8
step02_gravity_refstate-crust.xmf,1027,2.21036e-06,-1.5832e-06,0,3.49332e-07,-6.09444e+08,-6.09704e+08,-6.09595e+08,23964.2,-0.00124526,0.181604,-0,0.181608,-561.22,-22193.9,-0,22201,23964.2
step02_gravity_refstate-crust.xmf,1028,1.86907e-06,-1.08071e-06,0,3.21005e-07,-5.69568e+08,-5.69771e+08,-5.69697e+08,22020.9,-0.00125982,0.179648,-0,0.179653,-671.11,-20741.6,-0,20752.4,22020.9
step02_gravity_refstate-crust.xmf,1029,1.67387e-06,-8.16625e-07,0,4.59248e-07,-5.45572e+08,-5.45743e+08,-5.45687e+08,31504.4,-0.00189123,0.178558,-0,0.178568,-1112.45,-19867.6,-0,19898.7,31504.4
step02_gravity_refstate-crust.xmf,1030,6.71696e-06,-1.10192e-05,0,5.53708e-06,-8.11734e+08,-8.12951e+08,-8.12195e+08,379843,-0.00571668,0.21586,-0,0.215936,-751.233,-29562.1,-0,29571.7,379843
step02_gravity_refstate-crust.xmf,1031,-5.08185e-06,1.60992e-05,0,-1.29134e-05,-1.00245e+09,-1.001e+09,-1.0021e+09,-885856,-0.00485877,0.197762,-0,0.197822,1000,-36499.7,0,36513.4,885856
step02_gravity_refstate-crust.xmf,1032,-8.29651e-07,9.83416e-06,0,-5.94705e-06,-1.00636e+09,-1.00563e+09,-1.0063e+09,-407967,-0.0107137,0.155313,-0,0.155682,3027.82,-36649.4,0,36774.3,407967
step02_gravity_refstate-crust.xmf,1033,4.70823e-07,6.35016e-06,0,-3.32422e-06,-9.98711e+08,-9.98308e+08,-9.98744e+08,-228041,-0.0100773,0.130674,-0,0.131062,5384.57,-36370.8,0,36767.2,228041
step02_gravity_refstate-crust.xmf,1034,6.65579e-07,5.06504e-06,0,-2.0079e-06,-1.01365e+09,-1.01335e+09,-1.0137e+09,-137742,-0.00898061,0.106433,-0,0.106812,8532.62,-36913.6,0,37886.9,137742
step02_gravity_refstate-crust.xmf,1035,5.95357e-07,4.9054e-06,0,-1.79246e-06,-1.01656e+09,-1.01626e+09,-1.0166e+09,-122963,-0.00854602,0.101659,-0,0.102017,9409.4,-37018.8,0,38195.9,122963
step02_gravity_refstate-crust.xmf,1036,5.52611e-07,4.77507e-06,0,-1.61357e-06,-1.02026e+09,-1.01997e+09,-1.0203e+09,-110691,-0.00814272,0.0970092,-0,0.0973503,10338.1,-37153.3,0,38564.8,110691
step02_gravity_refstate-crust.xmf,1037,4.88419e-07,4.6723e-06,0,-1.44358e-06,-1.02333e+09,-1.02304e+09,-1.02336e+09,-99029.5,-0.00774361,0.0927773,-0,0.0930999,11303.9,-37264.6,0,38941.3,99029.5
step02_gravity_refstate-crust.xmf,1038,4.21725e-07,4.6093e-06,0,-1.30868e-06,-1.029e+09,-1.02871e+09,-1.02903e+09,-89775.5,-0.00743935,0.0883714,-0,0.088684,12310.4,-37470.6,0,39441,89775.5
step02_gravity_refstate-crust.xmf,1039,3.69344e-07,4.56524e-06,0,-1.19036e-06,-1.0368e+09,-1.03652e+09,-1.03683e+09,-81658.8,-0.00719039,0.0838181,-0,0.0841259,13373.5,-37754.4,0,40053.1,81658.8
step02_gravity_refstate-crust.xmf,1040,3.24541e-07,4.51404e-06,0,-1.06284e-06,-1.04291e+09,-1.04263e+09,-1.04294e+09,-72911.1,-0.00691395,0.0796873,-0,0.0799866,14519.4,-37976.6,0,40657.5,72911.1
step02_gravity_refstate-crust.xmf,1041,2.85737e-07,4.45169e-06,0,-9.39237e-07,-1.04493e+09,-1.04465e+09,-1.04495e+09,-64431.6,-0.00662032,0.0766393,-0,0.0769247,15635.1,-38049.9,0,41136.9,64431.6
step02_gravity_refstate-crust.xmf,1042,2.38529e-07,4.27151e-06,0,-7.13394e-07,-1.03366e+09,-1.03338e+09,-1.03368e+09,-48938.8,-0.00587653,0.0738068,-0,0.0740404,17829.2,-37639.1,0,41648.3,48938.8
step02_gravity_refstate-crust.xmf,1043,2.15786e-07,4.12471e-06,0,-5.1162e-07,-1.03239e+09,-1.03212e+09,-1.0324e+09,-35097.1,-0.00517645,0.0687578,-0,0.0689524,20952.8,-37592.4,0,43037.2,35097.1
step02_gravity_refstate-crust.xmf,1044,2.21056e-07,4.18861e-06,0,-5.98815e-07,-1.03178e+09,-1.0315e+09,-1.03179e+09,-41078.7,-0.00548829,0.0712237,-0,0.0714348,19434.5,-37570.2,0,42299.2,41078.7
step02_gravity_refstate-crust.xmf,1045,1.06637e-06,-8.72734e-08,0,1.70064e-07,-3.96873e+08,-3.96952e+08,-3.96946e+08,11666.4,-0.000880254,0.176649,-0,0.176651,-822.391,-14452.7,-0,14476.1,11666.4
step02_gravity_refstate-crust.xmf,1046,9.86436e-07,-9.53557e-09,0,2.49005e-07,-3.67783e+08,-3.67851e+08,-3.6785e+08,17081.7,-0.00134595,0.176417,-0,0.176422,-1350.7,-13393.5,-0,13461.4,17081.7
step02_gravity_refstate-crust.xmf,1047,1.21443e-06,-2.41293e-07,0,2.534e-07,-4.46546e+08,-4.46646e+08,-4.46629e+08,17383.2,-0.00121912,0.176868,-0,0.176872,-996.89,-16261.5,-0,16292,17383.2
step02_gravity_refstate-crust.xmf,1048,8.44167e-07,7.22067e-08,0,1.9429e-07,-2.37224e+08,-2.37277e+08,-2.37282e+08,13328.3,-0.00144387,0.176576,-0,0.176582,-1689.84,-8639.92,-0,8803.62,13328.3
step02_gravity_refstate-crust.xmf,1049,8.85357e-07,-1.45445e-08,0,2.40976e-07,-1.4886e+08,-1.48922e+08,-1.48921e+08,16531,-0.00288258,0.175964,-0,0.175988,-3150.63,-5422.97,-0,6271.77,16531
step02_gravity_refstate-crust.xmf,1050,8.51521e-07,4.19233e-08,0,2.29345e-07,-1.8986e+08,-1.89916e+08,-1.89919e+08,15733.1,-0.00211224,0.17635,-0,0.176363,-2430.87,-6915.56,-0,7330.35,15733.1
step02_gravity_refstate-crust.xmf,1051,8.53535e-07,8.58297e-08,0,2.4463e-07,-2.77156e+08,-2.77209e+08,-2.77215e+08,16781.6,-0.00158796,0.176393,-0,0.1764,-1832.59,-10093.7,-0,10258.7,16781.6
step02_gravity_refstate-crust.xmf,1052,9.10122e-07,5.90054e-08,0,3.26716e-07,-3.36484e+08,-3.36542e+08,-3.36546e+08,22412.7,-0.00186529,0.176131,-0,0.17614,-2002.32,-12253.8,-0,12416.3,22412.7
step02_gravity_refstate-crust.xmf,1053,1.07222e-06,-2.10994e-07,0,1.27255e-07,-7.78419e+07,-7.79299e+07,-7.79155e+07,8729.71,-0.00307746,0.175897,-0,0.175924,-2798.11,-2837.92,-0,3985.38,8729.71
step02_gravity_refstate-crust.xmf,1054,2.24659e-06,-1.63768e-06,0,7.29229e-07,-6.20359e+08,-6.20625e+08,-6.20513e+08,50025.1,-0.00250723,0.181806,-0,0.181824,-1087.19,-22591.3,-0,22617.5,50025.1
step02_gravity_refstate-crust.xmf,1055,4.2097e-06,-5.48882e-06,0,3.13834e-06,-7.57979e+08,-7.58644e+08,-7.58268e+08,215290,-0.00591626,0.197373,-0,0.197462,-1214.98,-27603.5,-0,27630.2,215290
step02_gravity_refstate-crust.xmf,1056,2.32858e-06,-1.78686e-06,0,1.1271e-06,-6.38583e+08,-6.38866e+08,-6.38743e+08,77319.1,-0.00371611,0.18235,-0,0.182388,-1504.46,-23254.9,-0,23303.5,77319.1
step02_gravity_refstate-crust.xmf,1057,3.59177e-06,-3.85735e-06,0,1.3137e-06,-7.11872e+08,-7.12383e+08,-7.12119e+08,90119.9,-0.00318058,0.190805,-0,0.190831,-855.454,-25925,-0,25939.1,90119.9
step02_gravity_refstate-crust.xmf,1058,3.12977e-06,-3.1632e-06,0,1.47089e-06,-6.94935e+08,-6.95367e+08,-6.9515e+08,100903,-0.00393301,0.187923,-0,0.187964,-1184.85,-25307.6,-0,25335.3,100903
step02_gravity_refstate-crust.xmf,1059,3.66614e-06,-4.12484e-06,0,2.11824e-06,-7.27674e+08,-7.28208e+08,-7.27925e+08,145312,-0.00481715,0.192191,-0,0.192252,-1201.11,-26500.1,-0,26527.3,145312
step02_gravity_refstate-crust.xmf,1060,1.49512e-06,-5.80889e-07,0,5.69536e-07,-5.21333e+08,-5.21476e+08,-5.21436e+08,39070.2,-0.00245829,0.17756,-0,0.177577,-1593.09,-18984.8,-0,19051.5,39070.2
step02_gravity_refstate-crust.xmf,1061,2.01693e-06,-1.28392e-06,0,6.68909e-07,-5.9544e+08,-5.95667e+08,-5.95579e+08,45887.2,-0.00244808,0.180374,-0,0.18039,-1184.43,-21683.8,-0,21716.1,45887.2
step02_gravity_refstate-crust.xmf,1062,5.02558e-06,-9.48301e-06,0,8.30825e-06,-8.23885e+08,-8.2488e+08,-8.2423e+08,569946,-0.00738811,0.217432,-0,0.217558,-1000,-30000,-0,30016.7,569946
step02_gravity_refstate-crust.xmf,1063,5.40611e-06,-8.33926e-06,0,5.25694e-06,-7.99318e+08,-8.00261e+08,-7.99689e+08,360626,-0.0067051,0.209086,-0,0.209194,-996.784,-29108.9,-0,29126,360626
step02_gravity_refstate-crust.xmf,1064,4.48013e-06,-6.73209e-06,0,4.83648e-06,-7.86086e+08,-7.86855e+08,-7.86393e+08,331782,-0.00735819,0.203233,-0,0.203366,-1256.9,-28625.9,-0,28653.5,331782
step02_gravity_refstate-crust.xmf,1065,-4.01838e-06,1.52378e-05,0,-1.00619e-05,-1.00913e+09,-1.00781e+09,-1.00885e+09,-690248,-0.00747779,0.182573,-0,0.182726,1449.57,-36745.7,0,36774.3,690248
step02_gravity_refstate-crust.xmf,1066,-2.60385e-06,1.35045e-05,0,-7.78287e-06,-1.01654e+09,-1.01543e+09,-1.01636e+09,-533905,-0.00988521,0.168099,-0,0.168389,1972.3,-37018.5,0,37071,533905
step02_gravity_refstate-crust.xmf,1067,-1.20184e-06,1.10784e-05,0,-6.33418e-06,-1.01785e+09,-1.01701e+09,-1.01777e+09,-434525,-0.0112817,0.156312,-0,0.156718,2660.03,-37068.1,0,37163.5,434525
step02_gravity_refstate-crust.xmf,1068,6.96432e-07,5.28075e-06,0,-2.25686e-06,-1.01074e+09,-1.01042e+09,-1.01078e+09,-154821,-0.00941093,0.111598,-0,0.111994,7689.66,-36807.8,0,37602.5,154821
step02_gravity_refstate-crust.xmf,1069,6.91723e-07,5.55801e-06,0,-2.55295e-06,-1.00753e+09,-1.0072e+09,-1.00758e+09,-175132,-0.00979265,0.117268,-0,0.117676,6880.71,-36691.7,0,37331.3,175132
step02_gravity_refstate-crust.xmf,1070,6.12981e-07,5.9085e-06,0,-2.90338e-06,-1.00321e+09,-1.00284e+09,-1.00325e+09,-199172,-0.0100191,0.123669,-0,0.124075,6111.1,-36534.3,0,37041.9,199172
step02_gravity_refstate-crust.xmf,1071,-3.88787e-07,9.8076e-06,0,-5.39498e-06,-1.02414e+09,-1.02344e+09,-1.02411e+09,-370096,-0.0121593,0.145776,-0,0.146282,3264.26,-37298.5,0,37441.1,370096
step02_gravity_refstate-crust.xmf,1072,-1.93722e-07,8.61756e-06,0,-5.01029e-06,-1.00861e+09,-1.00801e+09,-1.0086e+09,-343706,-0.0112352,0.146077,-0,0.146508,3662.85,-36732.1,0,36914.3,343706
step02_gravity_refstate-crust.xmf,1073,2.17119e-07,7.65815e-06,0,-4.31954e-06,-1.01034e+09,-1.00983e+09,-1.01035e+09,-296320,-0.0113605,0.138259,-0,0.138725,4302.44,-36795.1,0,37045.8,296320
step02_gravity_refstate-crust.xmf,1074,4.93963e-07,6.94516e-06,0,-3.74557e-06,-1.01309e+09,-1.01265e+09,-1.01312e+09,-256946,-0.0113077,0.13097,-0,0.131457,4967.29,-36895.3,0,37228.1,256946
step02_gravity_refstate-crust.xmf,1075,2.57736e-07,4.40724e-06,0,-8.40782e-07,-1.04871e+09,-1.04843e+09,-1.04873e+09,-57677.7,-0.00639811,0.073692,-0,0.0739693,16698.5,-38187.2,0,41678.6,57677.7
step02_gravity_refstate-crust.xmf,1076,2.19155e-07,4.08179e-06,0,-4.46749e-07,-1.03582e+09,-1.03555e+09,-1.03583e+09,-30647,-0.00494095,0.0663869,-0,0.0665705,22303.2,-37717.1,0,43818,30647
step02_gravity_refstate-crust.xmf,1077,2.34827e-07,4.14488e-06,0,-4.21717e-07,-1.06144e+09,-1.06117e+09,-1.06145e+09,-28929.8,-0.00508189,0.061506,-0,0.0617156,23151.2,-38650.1,0,45053.4,28929.8
step02_gravity_refstate-crust.xmf,1078,1.2792e-06,-3.03095e-07,0,4.47615e-07,-4.71806e+08,-4.71914e+08,-4.71893e+08,30706.4,-0.00206719,0.176796,-0,0.176808,-1577.79,-17181.3,-0,17253.6,30706.4
step02_gravity_refstate-crust.xmf,1079,1.11124e-06,-1.21145e-07,0,3.39154e-07,-4.20643e+08,-4.20727e+08,-4.20719e+08,23266,-0.00168431,0.176463,-0,0.176471,-1489.8,-15318.2,-0,15390.5,23266
step02_gravity_refstate-crust.xmf,1080,9.55325e-07,-1.0189e-07,0,2.28821e-07,-1.06586e+08,-1.06659e+08,-1.06652e+08,15697.1,-0.00384365,0.175406,-0,0.175448,-3843.36,-3884.09,-0,5464.21,15697.1
step02_gravity_refstate-crust.xmf,1081,8.48235e-07,1.06176e-07,0,3.75102e-07,-3.02994e+08,-3.03045e+08,-3.03052e+08,25732,-0.00230194,0.175858,-0,0.175873,-2614.53,-11034.4,-0,11339.9,25732
step02_gravity_refstate-crust.xmf,1082,1.4347e-06,-5.45046e-07,0,-2.55093e-09,136260,448.838,37839,-174.994,-0.00438151,0.174767,-0,0.174822,-2969.28,0,-0,2969.28,174.994
step02_gravity_refstate-crust.xmf,1083,1.13149e-06,-2.90473e-07,0,1.19802e-07,-5.16353e+07,-5.17328e+07,-5.17129e+07,8218.44,-0.00477267,0.174892,-0,0.174958,-4018.37,-1883.96,-0,4438.09,8218.44
step02_gravity_refstate-crust.xmf,1084,3.56498e-06,-4.19723e-06,0,3.02734e-06,-7.42961e+08,-7.43493e+08,-7.43206e+08,207676,-0.00650086,0.19322,-0,0.19333,-1520.4,-27056.2,-0,27098.8,207676
step02_gravity_refstate-crust.xmf,1085,2.7279e-06,-2.51603e-06,0,1.55391e-06,-6.77068e+08,-6.77427e+08,-6.77255e+08,106598,-0.00452829,0.185284,-0,0.185339,-1526.17,-24656.5,-0,24703.7,106598
step02_gravity_refstate-crust.xmf,1086,2.37099e-06,-1.95613e-06,0,1.60661e-06,-6.58752e+08,-6.59049e+08,-6.58915e+08,110213,-0.00506183,0.182867,-0,0.182937,-1904.12,-23989.1,-0,24064.5,110213
step02_gravity_refstate-crust.xmf,1087,3.77061e-06,-5.2391e-06,0,4.39886e-06,-7.72223e+08,-7.72841e+08,-7.72482e+08,301762,-0.00784328,0.198121,-0,0.198276,-1537.33,-28120.7,-0,28162.7,301762
step02_gravity_refstate-crust.xmf,1088,1.32651e-06,-3.54986e-07,0,6.72087e-07,-4.9644e+08,-4.96555e+08,-4.96531e+08,46105.2,-0.00301717,0.176587,-0,0.176612,-2154.96,-18078.2,-0,18206.2,46105.2
step02_gravity_refstate-crust.xmf,1089,1.75206e-06,-9.37316e-07,0,7.72403e-07,-5.68543e+08,-5.68728e+08,-5.68663e+08,52986.8,-0.0030515,0.178751,-0,0.178777,-1665.64,-20704,-0,20770.9,52986.8
step02_gravity_refstate-crust.xmf,1090,1.54489e-06,-6.5368e-07,0,8.36884e-07,-5.44087e+08,-5.44237e+08,-5.44193e+08,57410.2,-0.00349274,0.177486,-0,0.17752,-2116.68,-19813.3,-0,19926,57410.2
step02_gravity_refstate-crust.xmf,1091,4.09977e-06,-7.11109e-06,0,7.02503e-06,-8.1159e+08,-8.12359e+08,-8.11871e+08,481917,-0.0084872,0.209699,-0,0.209871,-1262.2,-29552.3,-0,29579.2,481917
step02_gravity_refstate-crust.xmf,1092,3.53302e-06,-6.12858e-06,0,8.71474e-06,-8.33118e+08,-8.33781e+08,-8.3336e+08,597831,-0.00833928,0.213869,-0,0.214031,-1334.68,-30335.3,-0,30364.6,597831
step02_gravity_refstate-crust.xmf,1093,5.11335e-06,-8.31447e-06,0,1.06447e-05,-8.37571e+08,-8.38492e+08,-8.37922e+08,730228,-0.00656501,0.222148,-0,0.222245,-1000,-30500.4,-0,30516.8,730228
step02_gravity_refstate-crust.xmf,1094,-5.83906e-06,1.83275e-05,0,-1.18228e-05,-1.01619e+09,-1.01453e+09,-1.01579e+09,-811044,-0.00587007,0.189149,-0,0.18924,1000,-37000.2,0,37013.7,811044
step02_gravity_refstate-crust.xmf,1095,-8.75789e-07,1.12203e-05,0,-5.93124e-06,-1.03116e+09,-1.03033e+09,-1.0311e+09,-406883,-0.0121692,0.149116,-0,0.149611,2786.16,-37554.3,0,37657.5,406883
step02_gravity_refstate-crust.xmf,1096,6.62589e-07,6.41906e-06,0,-3.28158e-06,-1.01683e+09,-1.01644e+09,-1.01688e+09,-225116,-0.0111305,0.124281,-0,0.124779,5642.48,-37031.5,0,37458.9,225116
step02_gravity_refstate-crust.xmf,1097,6.83362e-07,5.18529e-06,0,-2.12587e-06,-1.03601e+09,-1.0357e+09,-1.03606e+09,-145835,-0.00941274,0.100589,-0,0.101029,8870.5,-37727.8,0,38756.6,145835
step02_gravity_refstate-crust.xmf,1098,7.4214e-07,5.39212e-06,0,-2.37027e-06,-1.03262e+09,-1.0323e+09,-1.03267e+09,-162600,-0.00993545,0.105505,-0,0.105972,8019.38,-37604.9,0,38450.5,162600
step02_gravity_refstate-crust.xmf,1099,5.87323e-07,5.03488e-06,0,-1.90466e-06,-1.03958e+09,-1.03927e+09,-1.03962e+09,-130659,-0.00891696,0.0959677,-0,0.0963811,9757.09,-37857,0,39094.2,130659
step02_gravity_refstate-crust.xmf,1100,4.42754e-07,4.79644e-06,0,-1.51317e-06,-1.04596e+09,-1.04566e+09,-1.04599e+09,-103804,-0.00800875,0.0875119,-0,0.0878776,11693.4,-38088.3,0,39842.9,103804
step02_gravity_refstate-crust.xmf,1101,5.19488e-07,4.93853e-06,0,-1.73717e-06,-1.04827e+09,-1.04797e+09,-1.04831e+09,-119170,-0.00848401,0.0904749,-0,0.0908718,10743.4,-38173.2,0,39656.2,119170
step02_gravity_refstate-crust.xmf,1102,3.89577e-07,4.78e-06,0,-1.42052e-06,-1.05612e+09,-1.05582e+09,-1.05614e+09,-97447.7,-0.0077689,0.0830375,-0,0.0834001,12532.1,-38457.9,0,40448.3,97447.7
step02_gravity_refstate-crust.xmf,1103,3.13732e-07,4.77834e-06,0,-1.29897e-06,-1.07098e+09,-1.07068e+09,-1.07101e+09,-89109.2,-0.00747625,0.0772194,-0,0.0775805,13654.4,-38998.9,0,41320.2,89109.2
step02_gravity_refstate-crust.xmf,1104,2.7672e-07,4.6765e-06,0,-1.11541e-06,-1.07244e+09,-1.07214e+09,-1.07246e+09,-76517.4,-0.00713197,0.0738073,-0,0.074151,14897,-39051.8,0,41796.7,76517.4
step02_gravity_refstate-crust.xmf,1105,2.55701e-07,4.57414e-06,0,-9.60404e-07,-1.07125e+09,-1.07096e+09,-1.07127e+09,-65883.7,-0.00681371,0.0712678,-0,0.0715928,16103.5,-39008.2,0,42201.4,65883.7
step02_gravity_refstate-crust.xmf,1106,2.33032e-07,4.22987e-06,0,-5.0468e-07,-1.06534e+09,-1.06507e+09,-1.06536e+09,-34621,-0.00547934,0.0628038,-0,0.0630423,21627.6,-38792.3,0,44413.9,34621
step02_gravity_refstate-crust.xmf,1107,2.42083e-07,4.47989e-06,0,-8.27028e-07,-1.06945e+09,-1.06916e+09,-1.06946e+09,-56734.1,-0.00650108,0.069058,-0,0.0693633,17334.2,-38942.2,0,42625.9,56734.1
step02_gravity_refstate-crust.xmf,1108,2.30624e-07,4.3012e-06,0,-5.94586e-07,-1.06532e+09,-1.06504e+09,-1.06534e+09,-40788.6,-0.00581252,0.0648935,-0,0.0651533,20153.8,-38791.8,0,43714.7,40788.6
step02_gravity_refstate-crust.xmf,1109,2.34187e-07,4.38345e-06,0,-7.03503e-07,-1.0662e+09,-1.06592e+09,-1.06622e+09,-48260.3,-0.00615586,0.0671344,-0,0.0674161,18677.6,-38823.9,0,43083.1,48260.3
step02_gravity_refstate-crust.xmf,1110,1.01779e-06,-2.75866e-08,0,4.13093e-07,-3.9422e+08,-3.94292e+08,-3.9429e+08,28338.2,-0.00215213,0.176045,-0,0.176059,-2052.65,-14356,-0,14502,28338.2
step02_gravity_refstate-crust.xmf,1111,9.23042e-07,6.42875e-08,0,5.03561e-07,-3.67761e+08,-3.6782e+08,-3.67824e+08,34544.3,-0.00273494,0.17549,-0,0.175512,-2804.34,-13392.5,-0,13683,34544.3
step02_gravity_refstate-crust.xmf,1112,1.14678e-06,-1.60222e-07,0,5.29568e-07,-4.44787e+08,-4.44876e+08,-4.44865e+08,36328.4,-0.00256281,0.17613,-0,0.176148,-2143.44,-16197.3,-0,16338.5,36328.4
step02_gravity_refstate-crust.xmf,1113,8.05657e-07,1.27326e-07,0,3.96074e-07,-2.65926e+08,-2.65972e+08,-2.65981e+08,27170.7,-0.00268899,0.175623,-0,0.175643,-3176.93,-9684.76,-0,10192.5,27170.7
step02_gravity_refstate-crust.xmf,1114,8.01592e-07,1.04058e-07,0,3.59273e-07,-2.24378e+08,-2.24425e+08,-2.24433e+08,24646.1,-0.00284218,0.175654,-0,0.175677,-3381.64,-8172.1,-0,8844.13,24646.1
step02_gravity_refstate-crust.xmf,1115,8.30585e-07,1.54986e-08,0,3.50313e-07,-1.44957e+08,-1.45013e+08,-1.45014e+08,24031.4,-0.00437471,0.174619,-0,0.174674,-4856.72,-5280.7,-0,7174.51,24031.4
step02_gravity_refstate-crust.xmf,1116,8.01954e-07,7.646e-08,0,3.69962e-07,-1.85612e+08,-1.85661e+08,-1.85667e+08,25379.4,-0.00353245,0.175192,-0,0.175227,-4132.35,-6760.74,-0,7923.63,25379.4
step02_gravity_refstate-crust.xmf,1117,8.41071e-07,1.34534e-07,0,5.36988e-07,-3.33959e+08,-3.34008e+08,-3.34017e+08,36837.4,-0.00310514,0.175063,-0,0.17509,-3429.52,-12161.7,-0,12636,36837.4
step02_gravity_refstate-crust.xmf,1118,2.03707e-06,-1.34841e-06,0,1.15726e-06,-6.15939e+08,-6.16171e+08,-6.16078e+08,79388.1,-0.00410004,0.180415,-0,0.180462,-1860.08,-22430,-0,22507,79388.1
step02_gravity_refstate-crust.xmf,1119,3.20771e-06,-4.08928e-06,0,4.01597e-06,-7.57773e+08,-7.58273e+08,-7.57993e+08,275495,-0.0081983,0.193651,-0,0.193824,-1832.7,-27594.1,-0,27654.9,275495
step02_gravity_refstate-crust.xmf,1120,2.0274e-06,-1.38514e-06,0,1.60754e-06,-6.36399e+08,-6.36633e+08,-6.36538e+08,110277,-0.00548759,0.180412,-0,0.180495,-2337.93,-23174.8,-0,23292.4,110277
step02_gravity_refstate-crust.xmf,1121,3.14115e-06,-3.25876e-06,0,2.17612e-06,-7.11536e+08,-7.11975e+08,-7.11752e+08,149282,-0.00548856,0.188836,-0,0.188916,-1543.28,-25911.8,-0,25957.8,149282
step02_gravity_refstate-crust.xmf,1122,2.69492e-06,-2.59285e-06,0,2.17756e-06,-6.9469e+08,-6.95053e+08,-6.94875e+08,149381,-0.0060351,0.185777,-0,0.185875,-1908.63,-25297.8,-0,25369.7,149381
step02_gravity_refstate-crust.xmf,1123,3.01959e-06,-3.26105e-06,0,2.92138e-06,-7.27499e+08,-7.2793e+08,-7.27706e+08,200407,-0.00702449,0.189445,-0,0.189575,-1863.14,-26492.5,-0,26557.9,200407
step02_gravity_refstate-crust.xmf,1124,1.35942e-06,-4.08424e-07,0,8.99657e-07,-5.20152e+08,-5.20274e+08,-5.20246e+08,61716.4,-0.00394257,0.17631,-0,0.176354,-2642.01,-18941.5,-0,19124.9,61716.4
step02_gravity_refstate-crust.xmf,1125,2.77807e-06,-5.26575e-06,0,7.70011e-06,-8.23518e+08,-8.2407e+08,-8.23709e+08,528227,-0.00936649,0.208823,-0,0.209033,-1506.7,-29984.1,-0,30021.9,528227
step02_gravity_refstate-crust.xmf,1126,3.44605e-06,-5.48195e-06,0,6.17565e-06,-7.99189e+08,-7.99802e+08,-7.99426e+08,423650,-0.00913401,0.203374,-0,0.203579,-1546.32,-29100.7,-0,29141.8,423650
step02_gravity_refstate-crust.xmf,1127,2.9621e-06,-4.43037e-06,0,5.49677e-06,-7.85967e+08,-7.86474e+08,-7.8617e+08,377079,-0.0095248,0.197926,-0,0.198155,-1841.24,-28619,-0,28678.2,377079
step02_gravity_refstate-crust.xmf,1128,3.27962e-06,-4.89577e-06,0,9.56576e-06,-8.44513e+08,-8.45074e+08,-8.44738e+08,656211,-0.00759678,0.215101,-0,0.215235,-1386.3,-30751,-0,30782.3,656211
step02_gravity_refstate-crust.xmf,1129,4.42667e-06,-6.0676e-06,0,1.20925e-05,-8.51287e+08,-8.52006e+08,-8.5159e+08,829548,-0.00548251,0.22574,-0,0.225807,-1000,-31000.5,-0,31016.6,829548
step02_gravity_refstate-crust.xmf,1130,-1.62893e-06,1.27264e-05,0,-6.5892e-06,-1.0304e+09,-1.02941e+09,-1.03029e+09,-452019,-0.0115373,0.155962,-0,0.156388,2310.05,-37525.8,0,37596.9,452019
step02_gravity_refstate-crust.xmf,1131,-4.22986e-06,1.6723e-05,0,-9.02766e-06,-1.02264e+09,-1.02121e+09,-1.02235e+09,-619298,-0.00851089,0.175324,-0,0.17553,1419.81,-37239.2,0,37266.2,619298
step02_gravity_refstate-crust.xmf,1132,-4.28877e-07,1.05859e-05,0,-5.49599e-06,-1.04077e+09,-1.04001e+09,-1.04074e+09,-377025,-0.0125998,0.141378,-0,0.141938,3111.55,-37904.8,0,38032.3,377025
step02_gravity_refstate-crust.xmf,1133,7.78381e-07,5.65475e-06,0,-2.63826e-06,-1.02863e+09,-1.0283e+09,-1.02869e+09,-180985,-0.0104454,0.110931,-0,0.111422,7200.26,-37460.3,0,38146,180985
step02_gravity_refstate-crust.xmf,1134,7.79195e-07,6.04452e-06,0,-2.98612e-06,-1.02595e+09,-1.02559e+09,-1.02601e+09,-204848,-0.0109973,0.116866,-0,0.117383,6364.71,-37363.3,0,37901.6,204848
step02_gravity_refstate-crust.xmf,1135,1.37553e-07,8.53704e-06,0,-4.67191e-06,-1.02504e+09,-1.02446e+09,-1.02505e+09,-320493,-0.0122887,0.137768,-0,0.138315,3940.21,-37331.4,0,37538.8,320493
step02_gravity_refstate-crust.xmf,1136,4.60401e-07,7.63983e-06,0,-4.14187e-06,-1.02697e+09,-1.02648e+09,-1.02701e+09,-284133,-0.01218,0.130883,-0,0.131449,4577.03,-37401.7,0,37680.7,284133
step02_gravity_refstate-crust.xmf,1137,6.46699e-07,7.00027e-06,0,-3.71091e-06,-1.02995e+09,-1.02951e+09,-1.02999e+09,-254568,-0.0119359,0.124626,-0,0.125197,5204.07,-37509.7,0,37869,254568
step02_gravity_refstate-crust.xmf,1138,5.96806e-07,5.34645e-06,0,-2.23988e-06,-1.05769e+09,-1.05736e+09,-1.05773e+09,-153656,-0.00935194,0.0949719,-0,0.0954312,9191.92,-38516.8,0,39598.4,153656
step02_gravity_refstate-crust.xmf,1139,3.85435e-07,5.0529e-06,0,-1.71407e-06,-1.07306e+09,-1.07274e+09,-1.07309e+09,-117585,-0.00816682,0.0830413,-0,0.0834419,11577,-39075.2,0,40754.1,117585
step02_gravity_refstate-crust.xmf,1140,1.17058e-06,-1.67003e-07,0,7.46604e-07,-4.70604e+08,-4.70695e+08,-4.70684e+08,51217.1,-0.0035094,0.175651,-0,0.175686,-2762.89,-17137.3,-0,17358.6,51217.1
step02_gravity_refstate-crust.xmf,1141,1.05001e-06,-5.34577e-08,0,5.60812e-07,-4.20442e+08,-4.20518e+08,-4.20514e+08,38471.7,-0.00282335,0.175685,-0,0.175708,-2546.05,-15310.8,-0,15521,38471.7
step02_gravity_refstate-crust.xmf,1142,8.93194e-07,-7.60465e-08,0,3.03133e-07,-1.01424e+08,-1.0149e+08,-1.01485e+08,20794.9,-0.00554177,0.173832,-0,0.173921,-5609.71,-3695.93,-0,6717.79,20794.9
step02_gravity_refstate-crust.xmf,1143,7.79267e-07,1.77505e-07,0,5.51817e-07,-2.99022e+08,-2.99063e+08,-2.99076e+08,37854.7,-0.00345479,0.174672,-0,0.174706,-4045.77,-10889.6,-0,11616.9,37854.7
step02_gravity_refstate-crust.xmf,1144,1.32757e-06,-5.04947e-07,0,5.07785e-11,126059,348.366,34987.7,3.48341,-0.00712899,0.173419,-0,0.173565,-4955.97,0,-0,4955.97,3.48341
step02_gravity_refstate-crust.xmf,1145,2.72978e-06,-3.06033e-06,0,3.688e-06,-7.42906e+08,-7.43303e+08,-7.43093e+08,252997,-0.0085078,0.189637,-0,0.189828,-2159.03,-27052.5,-0,27138.6,252997
step02_gravity_refstate-crust.xmf,1146,2.31595e-06,-1.97552e-06,0,2.13678e-06,-6.76974e+08,-6.77269e+08,-6.77133e+08,146583,-0.00645304,0.18301,-0,0.183124,-2290.11,-24652.2,-0,24758.4,146583
step02_gravity_refstate-crust.xmf,1147,1.97581e-06,-1.4244e-06,0,2.06242e-06,-6.57166e+08,-6.57399e+08,-6.57301e+08,141482,-0.00678373,0.180372,-0,0.1805,-2715.19,-23930.6,-0,24084.1,141482
step02_gravity_refstate-crust.xmf,1148,2.57376e-06,-3.46863e-06,0,4.90858e-06,-7.72121e+08,-7.72536e+08,-7.72298e+08,336729,-0.00974018,0.193294,-0,0.193539,-2136.81,-28114.9,-0,28196,336729
step02_gravity_refstate-crust.xmf,1149,1.18151e-06,-1.70631e-07,0,9.76362e-07,-4.97006e+08,-4.97099e+08,-4.97087e+08,66978.4,-0.00446947,0.175072,-0,0.175129,-3306.54,-18098.5,-0,18398.1,66978.4
step02_gravity_refstate-crust.xmf,1150,1.77995e-06,-9.73215e-07,0,1.1541e-06,-5.91375e+08,-5.91564e+08,-5.91497e+08,79171.5,-0.00438702,0.178688,-0,0.178742,-2234.91,-21535.3,-0,21650.9,79171.5
step02_gravity_refstate-crust.xmf,1151,1.55499e-06,-6.82842e-07,0,1.15149e-06,-5.66475e+08,-5.66629e+08,-5.66582e+08,78992,-0.00465713,0.177178,-0,0.17724,-2654.77,-20628.3,-0,20798.5,78992
step02_gravity_refstate-crust.xmf,1152,1.36094e-06,-4.17037e-07,0,1.15673e-06,-5.42481e+08,-5.42603e+08,-5.42574e+08,79351.7,-0.00493039,0.175855,-0,0.175924,-3122.51,-19754.4,-0,19999.7,79351.7
step02_gravity_refstate-crust.xmf,1153,2.3375e-06,-4.15751e-06,0,6.92851e-06,-8.11934e+08,-8.1238e+08,-8.12094e+08,475296,-0.0101471,0.202821,-0,0.203074,-1775.95,-29562.3,-0,29615.6,475296
step02_gravity_refstate-crust.xmf,1154,2.19857e-06,-3.68299e-06,0,7.98833e-06,-8.357e+08,-8.36104e+08,-8.35851e+08,548000,-0.00923003,0.207321,-0,0.207526,-1709.94,-30427.7,-0,30475.7,548000
step02_gravity_refstate-crust.xmf,1155,2.94559e-06,-3.39928e-06,0,1.05981e-05,-8.58176e+08,-8.58611e+08,-8.58378e+08,727029,-0.00633527,0.216877,-0,0.21697,-1398.93,-31249.4,-0,31280.7,727029
step02_gravity_refstate-crust.xmf,1156,3.60456e-06,-3.85988e-06,0,1.30994e-05,-8.65034e+08,-8.65546e+08,-8.65281e+08,898619,-0.00438943,0.228223,-0,0.228265,-1000,-31501,-0,31516.9,898619
step02_gravity_refstate-crust.xmf,1157,-1.05137e-06,1.21273e-05,0,-6.0303e-06,-1.04268e+09,-1.04177e+09,-1.0426e+09,-413679,-0.0122118,0.146732,-0,0.14724,2584.89,-37974.2,0,38062.1,413679
step02_gravity_refstate-crust.xmf,1158,-2.79505e-06,1.50366e-05,0,-7.40183e-06,-1.03131e+09,-1.03008e+09,-1.03112e+09,-507765,-0.0104267,0.16349,-0,0.163822,1791.18,-37557.8,0,37600.5,507765
step02_gravity_refstate-crust.xmf,1159,-6.39162e-06,2.05829e-05,0,-1.0257e-05,-1.02989e+09,-1.02804e+09,-1.02945e+09,-703631,-0.00685995,0.179423,-0,0.179554,1000,-37500.2,0,37513.6,703631
step02_gravity_refstate-crust.xmf,1160,-3.7743e-09,9.41119e-06,0,-4.99041e-06,-1.03917e+09,-1.03852e+09,-1.03917e+09,-342342,-0.0127027,0.136382,-0,0.136973,3631.17,-37846.6,0,38020.4,342342
step02_gravity_refstate-crust.xmf,1161,7.38574e-07,6.55651e-06,0,-3.39239e-06,-1.03289e+09,-1.03249e+09,-1.03294e+09,-232718,-0.0116274,0.119535,-0,0.120099,5766.19,-37616.4,0,38055.8,232718
step02_gravity_refstate-crust.xmf,1162,6.61157e-07,5.57989e-06,0,-2.52518e-06,-1.05671e+09,-1.05637e+09,-1.05676e+09,-173228,-0.00987612,0.0991027,-0,0.0995935,8332.6,-38481.9,0,39373.7,173228
step02_gravity_refstate-crust.xmf,1163,7.3832e-07,5.80667e-06,0,-2.7765e-06,-1.04999e+09,-1.04965e+09,-1.05004e+09,-190468,-0.0104806,0.104808,-0,0.105331,7490.65,-38238.1,0,38964.8,190468
step02_gravity_refstate-crust.xmf,1164,5.2478e-07,5.18721e-06,0,-2.01278e-06,-1.05986e+09,-1.05954e+09,-1.05989e+09,-138077,-0.00890089,0.0911587,-0,0.0915922,10009.8,-38595.4,0,39872.3,138077
step02_gravity_refstate-crust.xmf,1165,3.07657e-07,4.98289e-06,0,-1.53073e-06,-1.08051e+09,-1.08019e+09,-1.08053e+09,-105008,-0.00779852,0.0785385,-0,0.0789247,12585.9,-39346.1,0,41310,105008
step02_gravity_refstate-crust.xmf,1166,8.24451e-07,1.76548e-07,0,7.18778e-07,-3.65686e+08,-3.6573e+08,-3.65742e+08,49308.2,-0.00396408,0.174017,-0,0.174062,-4226.72,-13316.8,-0,13971.5,49308.2
step02_gravity_refstate-crust.xmf,1167,9.30043e-07,7.42618e-08,0,7.06169e-07,-4.0167e+08,-4.01728e+08,-4.01733e+08,48443.2,-0.00366829,0.174642,-0,0.174681,-3553.93,-14627.1,-0,15052.6,48443.2
step02_gravity_refstate-crust.xmf,1168,1.01508e-06,4.81716e-10,0,8.10275e-07,-4.40894e+08,-4.40964e+08,-4.40964e+08,55584.9,-0.00398393,0.174651,-0,0.174696,-3490.43,-16055.3,-0,16430.3,55584.9
step02_gravity_refstate-crust.xmf,1169,7.39422e-07,1.90786e-07,0,5.47822e-07,-2.62396e+08,-2.62433e+08,-2.62446e+08,37580.6,-0.00381099,0.174319,-0,0.17436,-4634.41,-9556.07,-0,10620.6,37580.6
step02_gravity_refstate-crust.xmf,1170,7.56777e-07,5.45815e-08,0,4.3601e-07,-1.40514e+08,-1.40562e+08,-1.40565e+08,29910.3,-0.00576603,0.172799,-0,0.172895,-6549.93,-5118.68,-0,8312.79,29910.3
step02_gravity_refstate-crust.xmf,1171,7.27475e-07,1.68586e-07,0,5.17816e-07,-2.22227e+08,-2.22265e+08,-2.22276e+08,35522.2,-0.00419243,0.174046,-0,0.174096,-5142.96,-8093.58,-0,9589.38,35522.2
step02_gravity_refstate-crust.xmf,1172,7.29759e-07,1.2773e-07,0,4.89359e-07,-1.82568e+08,-1.8261e+08,-1.82618e+08,33570,-0.00484752,0.173502,-0,0.17357,-5828.4,-6649.73,-0,8842.46,33570
step02_gravity_refstate-crust.xmf,1173,7.47664e-07,2.37747e-07,0,7.1626e-07,-3.31221e+08,-3.31256e+08,-3.31272e+08,49135.5,-0.00422157,0.173508,-0,0.173559,-4853.35,-12061.8,-0,13001.6,49135.5
step02_gravity_refstate-crust.xmf,1174,1.02483e-06,-2.50635e-07,0,1.74048e-07,-5.00369e+07,-5.01244e+07,-5.01072e+07,11939.7,-0.00709644,0.172975,-0,0.173121,-6141.07,-1825.4,-0,6406.62,11939.7
step02_gravity_refstate-crust.xmf,1175,1.74584e-06,-9.62367e-07,0,1.56384e-06,-6.13058e+08,-6.13243e+08,-6.13177e+08,107280,-0.00575537,0.178328,-0,0.178421,-2765.81,-22324.6,-0,22495.2,107280
step02_gravity_refstate-crust.xmf,1176,2.23922e-06,-2.68131e-06,0,4.42583e-06,-7.57777e+08,-7.58115e+08,-7.57931e+08,303612,-0.00987838,0.189198,-0,0.189456,-2449.84,-27592.5,-0,27701.1,303612
step02_gravity_refstate-crust.xmf,1177,1.6303e-06,-8.87364e-07,0,2.02621e-06,-6.3579e+08,-6.35962e+08,-6.35901e+08,138998,-0.00720506,0.177615,-0,0.177762,-3283.93,-23151.8,-0,23383.5,138998
step02_gravity_refstate-crust.xmf,1178,2.54033e-06,-2.45676e-06,0,2.83471e-06,-7.11748e+08,-7.12091e+08,-7.11923e+08,194461,-0.00752447,0.185947,-0,0.186099,-2256.81,-25918.4,-0,26016.4,194461
step02_gravity_refstate-crust.xmf,1179,2.15123e-06,-1.866e-06,0,2.70524e-06,-6.9479e+08,-6.95065e+08,-6.94937e+08,185579,-0.00786647,0.182783,-0,0.182952,-2663.27,-25300.3,-0,25440.1,185579
step02_gravity_refstate-crust.xmf,1180,2.32795e-06,-2.32393e-06,0,3.43207e-06,-7.2813e+08,-7.28449e+08,-7.28289e+08,235440,-0.00877777,0.186088,-0,0.186294,-2509.99,-26514.1,-0,26632.6,235440
step02_gravity_refstate-crust.xmf,1181,1.18915e-06,-1.90448e-07,0,1.16238e-06,-5.18754e+08,-5.18849e+08,-5.18836e+08,79739.6,-0.00519523,0.174641,-0,0.174718,-3641.6,-18890.3,-0,19238.1,79739.6
step02_gravity_refstate-crust.xmf,1182,1.59276e-06,-2.9087e-06,0,7.14677e-06,-8.24547e+08,-8.24856e+08,-8.24656e+08,490268,-0.0103418,0.201651,-0,0.201916,-1969.87,-30020.4,-0,30085,490268
step02_gravity_refstate-crust.xmf,1183,1.87517e-06,-2.98729e-06,0,6.18616e-06,-8.00234e+08,-8.00568e+08,-8.00363e+08,424370,-0.0107743,0.19651,-0,0.196805,-2153.11,-29136.3,-0,29215.7,424370
step02_gravity_refstate-crust.xmf,1184,1.77048e-06,-2.51144e-06,0,5.51819e-06,-7.85726e+08,-7.8602e+08,-7.85847e+08,378548,-0.0108994,0.192071,-0,0.19238,-2425.53,-28608.4,-0,28711.1,378548
step02_gravity_refstate-crust.xmf,1185,1.79438e-06,-2.02721e-06,0,8.47529e-06,-8.51102e+08,-8.51364e+08,-8.51225e+08,581405,-0.00817837,0.206001,-0,0.206164,-1865.95,-30989.3,-0,31045.4,581405
step02_gravity_refstate-crust.xmf,1186,2.38545e-06,-1.68739e-06,0,1.13925e-05,-8.71944e+08,-8.72223e+08,-8.72107e+08,781526,-0.00501252,0.217863,-0,0.217921,-1410.62,-31751,-0,31782.3,781526
step02_gravity_refstate-crust.xmf,1187,-1.94372e-06,1.40767e-05,0,-6.60764e-06,-1.04314e+09,-1.04204e+09,-1.04301e+09,-453284,-0.0114245,0.153153,-0,0.153579,2063.69,-37990.5,0,38046.5,453284
step02_gravity_refstate-crust.xmf,1188,-4.28452e-06,1.78753e-05,0,-8.21296e-06,-1.03395e+09,-1.03243e+09,-1.03366e+09,-563409,-0.0090099,0.169391,-0,0.16963,1355.16,-37652.4,0,37676.8,563409
step02_gravity_refstate-crust.xmf,1189,-6.98957e-07,1.1563e-05,0,-5.66447e-06,-1.0553e+09,-1.05446e+09,-1.05526e+09,-388583,-0.0122237,0.138059,-0,0.138599,2873.37,-38434.4,0,38541.7,388583
step02_gravity_refstate-crust.xmf,1190,-2.39581e-07,1.03272e-05,0,-5.27531e-06,-1.05161e+09,-1.05089e+09,-1.0516e+09,-361886,-0.0125673,0.134919,-0,0.135503,3332.77,-38300.1,0,38444.8,361886
step02_gravity_refstate-crust.xmf,1191,7.66791e-07,6.1268e-06,0,-3.06487e-06,-1.04654e+09,-1.04617e+09,-1.04659e+09,-210250,-0.0110381,0.109907,-0,0.11046,6734.79,-38112.9,0,38703.3,210250
step02_gravity_refstate-crust.xmf,1192,3.30783e-07,8.46305e-06,0,-4.52438e-06,-1.04148e+09,-1.04092e+09,-1.0415e+09,-310372,-0.0126241,0.130078,-0,0.130689,4203.75,-37930.4,0,38162.6,310372
step02_gravity_refstate-crust.xmf,1193,5.73139e-07,7.65368e-06,0,-4.11118e-06,-1.04405e+09,-1.04356e+09,-1.04408e+09,-282027,-0.012348,0.123919,-0,0.124533,4829.99,-38023.7,0,38329.2,282027
step02_gravity_refstate-crust.xmf,1194,6.91588e-07,7.06571e-06,0,-3.75459e-06,-1.04685e+09,-1.04641e+09,-1.0469e+09,-257565,-0.011964,0.118469,-0,0.119071,5439.37,-38125.4,0,38511.4,257565
step02_gravity_refstate-crust.xmf,1195,7.54991e-07,6.53469e-06,0,-3.3867e-06,-1.04653e+09,-1.04613e+09,-1.04658e+09,-232328,-0.011515,0.114035,-0,0.114615,6086.32,-38113.2,0,38596.1,232328
step02_gravity_refstate-crust.xmf,1196,4.65197e-07,5.78034e-06,0,-2.61373e-06,-1.07828e+09,-1.07792e+09,-1.07831e+09,-179302,-0.00926935,0.0930508,-0,0.0935114,8677.94,-39266.8,0,40214.3,179302
step02_gravity_refstate-crust.xmf,1197,4.3326e-07,5.50837e-06,0,-2.2933e-06,-1.0781e+09,-1.07776e+09,-1.07813e+09,-157320,-0.00888493,0.0892834,-0,0.0897244,9588.02,-39259.8,0,40413.6,157320
step02_gravity_refstate-crust.xmf,1198,4.13272e-07,5.26511e-06,0,-1.99664e-06,-1.07588e+09,-1.07555e+09,-1.07591e+09,-136969,-0.00854342,0.0861437,-0,0.0865664,10526.8,-39178.4,0,40568,136969
step02_gravity_refstate-crust.xmf,1199,1.03972e-06,-2.90015e-09,0,1.00436e-06,-4.73284e+08,-4.73356e+08,-4.73356e+08,68899,-0.00479547,0.174052,-0,0.174118,-3897.32,-17234.6,-0,17669.8,68899
step02_gravity_refstate-crust.xmf,1200,8.16498e-07,-5.26097e-08,0,3.49075e-07,-9.49724e+07,-9.5032e+07,-9.50284e+07,23946.5,-0.00707772,0.171913,-0,0.172059,-7270.22,-3460.79,-0,8051.91,23946.5
step02_gravity_refstate-crust.xmf,1201,6.91917e-07,2.67899e-07,0,7.02126e-07,-2.9573e+08,-2.95759e+08,-2.95777e+08,48165.9,-0.00449996,0.173038,-0,0.173097,-5482.4,-10769.5,-0,12084.7,48165.9
step02_gravity_refstate-crust.xmf,1202,1.17305e-06,-4.46929e-07,0,2.02859e-09,111355,224.239,30883.6,139.161,-0.00963502,0.171457,-0,0.171728,-6955.89,0,-0,6955.89,139.161
step02_gravity_refstate-crust.xmf,1203,1.94673e-06,-1.96602e-06,0,4.01259e-06,-7.43312e+08,-7.43581e+08,-7.43446e+08,275264,-0.00997054,0.185604,-0,0.185872,-2778.11,-27065.9,-0,27208.1,275264
step02_gravity_refstate-crust.xmf,1204,1.84115e-06,-1.33297e-06,0,2.5405e-06,-6.76498e+08,-6.76715e+08,-6.76624e+08,174278,-0.00804046,0.180042,-0,0.180222,-3061.21,-24634,-0,24823.4,174278
step02_gravity_refstate-crust.xmf,1205,1.60567e-06,-9.27003e-07,0,2.38694e-06,-6.584e+08,-6.58573e+08,-6.5851e+08,163744,-0.00811309,0.177801,-0,0.177986,-3438.15,-23974.8,-0,24220,163744
step02_gravity_refstate-crust.xmf,1206,1.56326e-06,-1.90343e-06,0,4.99372e-06,-7.72494e+08,-7.72732e+08,-7.72601e+08,342570,-0.0110243,0.187913,-0,0.188236,-2750.79,-28126.8,-0,28261,342570
step02_gravity_refstate-crust.xmf,1207,1.03903e-06,2.51351e-09,0,1.1581e-06,-4.94499e+08,-4.9457e+08,-4.94571e+08,79445.5,-0.00541847,0.173528,-0,0.173612,-4196.12,-18006.9,-0,18489.4,79445.5
step02_gravity_refstate-crust.xmf,1208,1.5142e-06,-6.24915e-07,0,1.50355e-06,-5.88908e+08,-5.89055e+08,-5.89012e+08,103143,-0.00590637,0.176595,-0,0.176694,-3186.35,-21445,-0,21680.4,103143
step02_gravity_refstate-crust.xmf,1209,1.31671e-06,-3.70808e-07,0,1.45055e-06,-5.64689e+08,-5.64805e+08,-5.64779e+08,99507.8,-0.00603189,0.175099,-0,0.175203,-3635.62,-20562.8,-0,20881.7,99507.8
step02_gravity_refstate-crust.xmf,1210,1.14451e-06,-1.35348e-07,0,1.40287e-06,-5.40311e+08,-5.40399e+08,-5.4039e+08,96236.8,-0.00614109,0.173776,-0,0.173885,-4120.53,-19675,-0,20101.9,96236.8
step02_gravity_refstate-crust.xmf,1211,1.39362e-06,-2.43539e-06,0,6.58017e-06,-8.13628e+08,-8.1389e+08,-8.13723e+08,451400,-0.0109338,0.197297,-0,0.1976,-2197.84,-29622.8,-0,29704.2,451400
step02_gravity_refstate-crust.xmf,1212,1.09238e-06,-1.56986e-06,0,7.17605e-06,-8.37239e+08,-8.37422e+08,-8.37314e+08,492277,-0.00991337,0.199108,-0,0.199355,-2194.64,-30482.5,-0,30561.4,492277
step02_gravity_refstate-crust.xmf,1213,2.75084e-06,-1.77848e-06,0,1.37839e-05,-8.7878e+08,-8.79091e+08,-8.78969e+08,945576,-0.00334924,0.229623,-0,0.229647,-1000,-32001.2,-0,32016.9,945576
step02_gravity_refstate-crust.xmf,1214,1.97736e-06,-1.46597e-06,0,9.712e-06,-8.65114e+08,-8.65351e+08,-8.6525e+08,666243,-0.00641841,0.209906,-0,0.210004,-1725.83,-31501.1,-0,31548.3,666243
step02_gravity_refstate-crust.xmf,1215,1.71348e-06,6.76051e-08,0,1.18102e-05,-8.85681e+08,-8.85794e+08,-8.85799e+08,810177,-0.00376034,0.217196,-0,0.217229,-1451.74,-32251.1,-0,32283.8,810177
step02_gravity_refstate-crust.xmf,1216,1.85559e-06,2.64799e-07,0,1.42561e-05,-8.92515e+08,-8.92625e+08,-8.92643e+08,977970,-0.00237067,0.229983,-0,0.229996,-1000,-32500.8,-0,32516.2,977970
step02_gravity_refstate-crust.xmf,1217,1.02893e-06,1.80902e-06,0,1.22299e-05,-8.99513e+08,-8.9946e+08,-8.99584e+08,838968,-0.00244703,0.216654,-0,0.216668,-1454.22,-32754.6,-0,32786.9,838968
step02_gravity_refstate-crust.xmf,1218,9.66707e-07,2.24204e-06,0,1.45579e-05,-9.06244e+08,-9.06156e+08,-9.0631e+08,998673,-0.00144338,0.229345,-0,0.229349,-1000,-33000.1,-0,33015.2,998673
step02_gravity_refstate-crust.xmf,1219,-1.48253e-06,1.3346e-05,0,-6.11729e-06,-1.05572e+09,-1.0547e+09,-1.05562e+09,-419646,-0.0116153,0.143631,-0,0.1441,2329.83,-38449.1,0,38519.6,419646
step02_gravity_refstate-crust.xmf,1220,-3.2466e-06,1.68099e-05,0,-7.22866e-06,-1.04374e+09,-1.04237e+09,-1.04352e+09,-495886,-0.0100619,0.160121,-0,0.160437,1541.19,-38011.4,0,38042.6,495886
step02_gravity_refstate-crust.xmf,1221,-5.89524e-06,2.21004e-05,0,-7.16475e-06,-1.0435e+09,-1.04158e+09,-1.04309e+09,-491502,-0.00763619,0.168576,-0,0.168748,1000,-38000,0,38013.2,491502
step02_gravity_refstate-crust.xmf,1222,8.03459e-08,9.4416e-06,0,-4.92668e-06,-1.05539e+09,-1.05475e+09,-1.0554e+09,-337970,-0.0124837,0.129167,-0,0.129769,3803,-38437.6,0,38625.3,337970
step02_gravity_refstate-crust.xmf,1223,5.17203e-07,6.11517e-06,0,-2.98473e-06,-1.07604e+09,-1.07565e+09,-1.07607e+09,-204752,-0.00979506,0.0980186,-0,0.0985068,7710.33,-39185.7,0,39937.1,204752
step02_gravity_refstate-crust.xmf,1224,6.14234e-07,6.35547e-06,0,-3.23427e-06,-1.06689e+09,-1.0665e+09,-1.06694e+09,-221871,-0.0105524,0.104179,-0,0.104712,6924.68,-38853.7,0,39466,221871
step02_gravity_refstate-crust.xmf,1225,7.02876e-07,3.18236e-07,0,8.90991e-07,-3.62976e+08,-3.63003e+08,-3.63024e+08,61122,-0.00502504,0.172072,-0,0.172146,-5644.28,-13217.8,-0,14372.5,61122
step02_gravity_refstate-crust.xmf,1226,7.81548e-07,2.53377e-07,0,9.22132e-07,-3.9653e+08,-3.96567e+08,-3.96584e+08,63258.3,-0.00492189,0.172592,-0,0.172662,-5074.88,-14439.6,-0,15305.5,63258.3
step02_gravity_refstate-crust.xmf,1227,8.60951e-07,1.82527e-07,0,9.75779e-07,-4.29204e+08,-4.2925e+08,-4.29263e+08,66938.5,-0.00496709,0.172943,-0,0.173014,-4681.66,-15629.4,-0,16315.5,66938.5
step02_gravity_refstate-crust.xmf,1228,6.64197e-07,1.02981e-07,0,5.01299e-07,-1.36999e+08,-1.37037e+08,-1.37045e+08,34389.1,-0.00702749,0.170545,-0,0.17069,-8255.03,-4990.43,-0,9646.24,34389.1
step02_gravity_refstate-crust.xmf,1229,6.5694e-07,2.6814e-07,0,6.74699e-07,-2.58587e+08,-2.58614e+08,-2.58632e+08,46284.4,-0.00483722,0.172587,-0,0.172655,-6109.21,-9417.2,-0,11225.2,46284.4
step02_gravity_refstate-crust.xmf,1230,6.41431e-07,1.88751e-07,0,5.83128e-07,-1.80078e+08,-1.80109e+08,-1.80122e+08,40002.6,-0.00601527,0.171374,-0,0.17148,-7504.17,-6558.79,-0,9966.46,40002.6
step02_gravity_refstate-crust.xmf,1231,6.41018e-07,2.40783e-07,0,6.35641e-07,-2.19818e+08,-2.19846e+08,-2.19862e+08,43605,-0.00531354,0.172066,-0,0.172148,-6771.76,-8005.67,-0,10485.6,43605
step02_gravity_refstate-crust.xmf,1232,6.38139e-07,3.59504e-07,0,8.61406e-07,-3.28835e+08,-3.28854e+08,-3.28879e+08,59092.4,-0.00519621,0.171522,-0,0.1716,-6280.64,-11974.7,-0,13521.8,59092.4
step02_gravity_refstate-crust.xmf,1233,8.9834e-07,-2.03507e-07,0,2.06774e-07,-4.84891e+07,-4.85646e+07,-4.85507e+07,14184.7,-0.00895855,0.17072,-0,0.170955,-8030.42,-1768.61,-0,8222.87,14184.7
step02_gravity_refstate-crust.xmf,1234,1.41241e-06,-5.19786e-07,0,1.86328e-06,-6.10371e+08,-6.10504e+08,-6.10468e+08,127821,-0.00714719,0.175701,-0,0.175846,-3687.78,-22226.1,-0,22530,127821
step02_gravity_refstate-crust.xmf,1235,1.39581e-06,-1.39521e-06,0,4.50782e-06,-7.57955e+08,-7.58147e+08,-7.58051e+08,309237,-0.0110337,0.184233,-0,0.184563,-3082.58,-27597.6,-0,27769.2,309237
step02_gravity_refstate-crust.xmf,1236,1.37873e-06,-5.72771e-07,0,2.33242e-06,-6.4567e+08,-6.45804e+08,-6.45764e+08,160004,-0.00837468,0.175786,-0,0.175986,-3871.77,-23510.9,-0,23827.6,160004
step02_gravity_refstate-crust.xmf,1237,1.81504e-06,-1.52439e-06,0,3.32016e-06,-7.13674e+08,-7.13903e+08,-7.13799e+08,227763,-0.00935216,0.181965,-0,0.182205,-3061.23,-25987,-0,26166.7,227763
step02_gravity_refstate-crust.xmf,1238,1.56809e-06,-1.05464e-06,0,3.01494e-06,-6.94633e+08,-6.94812e+08,-6.9474e+08,206825,-0.00931879,0.179049,-0,0.179292,-3447.06,-25293.5,-0,25527.3,206825
step02_gravity_refstate-crust.xmf,1239,1.72183e-06,-1.53432e-06,0,3.74699e-06,-7.31137e+08,-7.3136e+08,-7.31255e+08,257044,-0.0100478,0.182812,-0,0.183088,-3081.04,-26622.3,-0,26800,257044
step02_gravity_refstate-crust.xmf,1240,9.9824e-07,5.50279e-08,0,1.34698e-06,-5.14489e+08,-5.14554e+08,-5.14557e+08,92403.1,-0.00618133,0.17266,-0,0.172771,-4611.46,-18734.6,-0,19293.8,92403.1
step02_gravity_refstate-crust.xmf,1241,7.9072e-07,-1.28061e-06,0,6.53161e-06,-8.23618e+08,-8.2376e+08,-8.23672e+08,448069,-0.0109415,0.194598,-0,0.194905,-2441.66,-29985.8,-0,30085.1,448069
step02_gravity_refstate-crust.xmf,1242,8.11596e-07,-1.23659e-06,0,6.0936e-06,-8.10163e+08,-8.10303e+08,-8.10218e+08,418021,-0.0114348,0.191624,-0,0.191964,-2615.84,-29496.2,-0,29611.9,418021
step02_gravity_refstate-crust.xmf,1243,1.12212e-06,-1.57139e-06,0,5.76901e-06,-7.96464e+08,-7.96649e+08,-7.96541e+08,395754,-0.0114617,0.190509,-0,0.190853,-2648.06,-28998.2,-0,29118.8,395754
step02_gravity_refstate-crust.xmf,1244,8.63274e-07,-9.99557e-07,0,5.31889e-06,-7.8705e+08,-7.87178e+08,-7.8711e+08,364876,-0.0117159,0.186059,-0,0.186427,-3023.19,-28655.3,-0,28814.3,364876
step02_gravity_refstate-crust.xmf,1245,3.34537e-07,3.46724e-06,0,1.2587e-05,-9.13127e+08,-9.12912e+08,-9.13149e+08,863471,-0.00118083,0.215942,-0,0.215946,-1432.61,-33250,-0,33280.9,863471
step02_gravity_refstate-crust.xmf,1246,8.59498e-08,4.17387e-06,0,1.47189e-05,-9.19989e+08,-9.19708e+08,-9.19994e+08,1.00972e+06,-0.000551213,0.227735,-0,0.227736,-1000,-33499.9,-0,33514.8,1.00972e+06
step02_gravity_refstate-crust.xmf,1247,6.82222e-07,-1.68318e-07,0,7.14895e-06,-8.51359e+08,-8.51417e+08,-8.51406e+08,490418,-0.00887819,0.195303,-0,0.195504,-2448.19,-30997.1,-0,31093.6,490418
step02_gravity_refstate-crust.xmf,1248,1.10922e-06,-1.55113e-07,0,8.30977e-06,-8.65111e+08,-8.65198e+08,-8.65188e+08,570050,-0.00709967,0.20065,-0,0.200775,-2164.86,-31499.5,-0,31573.8,570050
step02_gravity_refstate-crust.xmf,1249,1.41688e-06,1.27486e-08,0,9.81165e-06,-8.76888e+08,-8.76985e+08,-8.76985e+08,673079,-0.00533508,0.207319,-0,0.207388,-1854.28,-31929.7,-0,31983.5,673079
step02_gravity_refstate-crust.xmf,1250,-2.67343e-06,1.06554e-05,0,1.23877e-05,-9.70536e+08,-9.69622e+08,-9.70353e+08,849799,0.00375167,0.202765,0,0.2028,-1376.2,-35339,-0,35365.8,849799
step02_gravity_refstate-crust.xmf,1251,-2.51106e-06,9.88768e-06,0,1.44608e-05,-9.61254e+08,-9.60404e+08,-9.61082e+08,992010,0.00206018,0.217174,0,0.217184,-1000,-35000.6,-0,35014.9,992010
step02_gravity_refstate-crust.xmf,1252,-3.36315e-06,1.19438e-05,0,1.41426e-05,-9.74975e+08,-9.73925e+08,-9.74745e+08,970184,0.00295387,0.211731,0,0.211751,-1000,-35499.8,-0,35513.9,970184
step02_gravity_refstate-crust.xmf,1253,-2.58362e-06,1.57703e-05,0,-6.60362e-06,-1.05547e+09,-1.05422e+09,-1.0553e+09,-453008,-0.0105314,0.149897,-0,0.150267,1789.82,-38439.6,0,38481.2,453008
step02_gravity_refstate-crust.xmf,1254,-4.15482e-07,1.08804e-05,0,-5.37878e-06,-1.06746e+09,-1.06669e+09,-1.06743e+09,-368984,-0.0116993,0.12961,-0,0.130137,3244.74,-38877.1,0,39012.3,368984
step02_gravity_refstate-crust.xmf,1255,-1.24447e-06,1.28127e-05,0,-5.77164e-06,-1.06941e+09,-1.06845e+09,-1.06933e+09,-395934,-0.0109833,0.134781,-0,0.135227,2563.31,-38947.8,0,39032.1,395934
step02_gravity_refstate-crust.xmf,1256,6.22782e-07,6.69646e-06,0,-3.49636e-06,-1.06244e+09,-1.06202e+09,-1.06248e+09,-239851,-0.0111036,0.109059,-0,0.109623,6265.93,-38692,0,39196.1,239851
step02_gravity_refstate-crust.xmf,1257,3.40242e-07,8.52385e-06,0,-4.54673e-06,-1.05906e+09,-1.0585e+09,-1.05908e+09,-311906,-0.0122112,0.122906,-0,0.123511,4406.97,-38570.7,0,38821.7,311906
step02_gravity_refstate-crust.xmf,1258,5.22388e-07,7.75001e-06,0,-4.18346e-06,-1.06273e+09,-1.06223e+09,-1.06277e+09,-286986,-0.0117768,0.116905,-0,0.117497,5062.07,-38703.8,0,39033.5,286986
step02_gravity_refstate-crust.xmf,1259,5.83431e-07,7.17763e-06,0,-3.83434e-06,-1.06496e+09,-1.06451e+09,-1.065e+09,-263036,-0.011347,0.112017,-0,0.11259,5693.73,-38784.5,0,39200.2,263036
step02_gravity_refstate-crust.xmf,1260,8.95574e-07,1.91231e-07,0,1.24845e-06,-4.84229e+08,-4.84278e+08,-4.84291e+08,85643.5,-0.00599339,0.172058,-0,0.172163,-4963.11,-17632.8,-0,18317.9,85643.5
step02_gravity_refstate-crust.xmf,1261,9.14465e-07,1.39237e-07,0,1.05437e-06,-4.5522e+08,-4.55273e+08,-4.55282e+08,72330.1,-0.00519573,0.172983,-0,0.173061,-4562.46,-16576.6,-0,17193,72330.1
step02_gravity_refstate-crust.xmf,1262,7.05286e-07,-6.68047e-09,0,3.89918e-07,-9.237e+07,-9.24189e+07,-9.24184e+07,26748.4,-0.00848066,0.16949,-0,0.169702,-9035.17,-3365.67,-0,9641.69,26748.4
step02_gravity_refstate-crust.xmf,1263,5.90711e-07,3.72749e-07,0,8.24852e-07,-2.93288e+08,-2.93303e+08,-2.93329e+08,56584.9,-0.00542757,0.170981,-0,0.171067,-6941.9,-10680.4,-0,12738.2,56584.9
step02_gravity_refstate-crust.xmf,1264,9.82044e-07,-3.7482e-07,0,3.56084e-09,93194.7,113.818,25826.5,244.274,-0.011818,0.168953,-0,0.169365,-8975.48,0,-0,8975.48,244.274
step02_gravity_refstate-crust.xmf,1265,1.24641e-06,-3.57002e-07,0,2.19742e-06,-6.29357e+08,-6.29467e+08,-6.29442e+08,150743,-0.00828757,0.174442,-0,0.174639,-4160.84,-22916.9,-0,23291.5,150743
step02_gravity_refstate-crust.xmf,1266,1.26407e-06,-9.66382e-07,0,4.08269e-06,-7.43188e+08,-7.43341e+08,-7.43275e+08,280073,-0.0109598,0.181194,-0,0.181525,-3398.47,-27060.1,-0,27272.7,280073
step02_gravity_refstate-crust.xmf,1267,1.18587e-06,-3.46595e-07,0,2.60248e-06,-6.59686e+08,-6.59792e+08,-6.59768e+08,178530,-0.00925667,0.174545,-0,0.17479,-4231.01,-24020.8,-0,24390.6,178530
step02_gravity_refstate-crust.xmf,1268,1.36478e-06,-6.73245e-07,0,2.79122e-06,-6.77075e+08,-6.77215e+08,-6.77169e+08,191478,-0.0092887,0.176669,-0,0.176913,-3828.11,-24654.1,-0,24949.5,191478
step02_gravity_refstate-crust.xmf,1269,7.5734e-07,-5.75158e-07,0,4.81554e-06,-7.7328e+08,-7.73372e+08,-7.73332e+08,330346,-0.0117885,0.182124,-0,0.182505,-3392.76,-28154.2,-0,28357.9,330346
step02_gravity_refstate-crust.xmf,1270,1.22595e-06,-2.42343e-07,0,1.75864e-06,-5.8712e+08,-5.87221e+08,-5.87204e+08,120642,-0.00715942,0.174073,-0,0.174221,-4130.36,-21379.3,-0,21774.6,120642
step02_gravity_refstate-crust.xmf,1271,1.05522e-06,-2.29122e-08,0,1.6705e-06,-5.63018e+08,-5.63092e+08,-5.63091e+08,114596,-0.00717598,0.172568,-0,0.172717,-4630.4,-20501.5,-0,21017.9,114596
step02_gravity_refstate-crust.xmf,1272,9.12937e-07,1.70225e-07,0,1.58108e-06,-5.37903e+08,-5.37954e+08,-5.37966e+08,108462,-0.00713722,0.171309,-0,0.171457,-5135.98,-19586.9,-0,20249,108462
step02_gravity_refstate-crust.xmf,1273,-3.86895e-07,5.18797e-06,0,1.27003e-05,-9.26871e+08,-9.26488e+08,-9.26844e+08,871242,4.58332e-05,0.213769,0,0.213769,-1433.03,-33750.1,-0,33780.5,871242
step02_gravity_refstate-crust.xmf,1274,-7.85548e-07,6.08696e-06,0,1.47595e-05,-9.3375e+08,-9.33278e+08,-9.33696e+08,1.0125e+06,0.00032086,0.225168,0,0.225168,-1000,-34000.3,-0,34015,1.0125e+06
step02_gravity_refstate-crust.xmf,1275,-1.09998e-06,6.85207e-06,0,1.27387e-05,-9.40262e+08,-9.39716e+08,-9.40186e+08,873878,0.00121199,0.211191,0,0.211194,-1420.54,-34237.3,-0,34266.8,873878
step02_gravity_refstate-crust.xmf,1276,-1.64435e-06,7.98445e-06,0,1.46816e-05,-9.4751e+08,-9.4685e+08,-9.47397e+08,1.00716e+06,0.0011873,0.221648,0,0.221651,-1000,-34500.8,-0,34515.3,1.00716e+06
step02_gravity_refstate-crust.xmf,1277,3.00197e-07,-1.03531e-08,0,6.36071e-06,-8.37101e+08,-8.37123e+08,-8.37122e+08,436345,-0.0103018,0.190623,-0,0.190901,-2736.98,-30476.7,-0,30599.4,436345
step02_gravity_refstate-crust.xmf,1278,7.42776e-07,1.91495e-06,0,9.85713e-06,-8.93248e+08,-8.93167e+08,-8.93299e+08,676199,-0.00360745,0.203567,-0,0.203599,-1994.12,-32525.6,-0,32586.6,676199
step02_gravity_refstate-crust.xmf,1279,4.17799e-07,3.00825e-06,0,1.07223e-05,-9.06275e+08,-9.06097e+08,-9.06304e+08,735547,-0.00203354,0.205929,-0,0.205939,-1846.86,-33000.2,-0,33051.8,735547
step02_gravity_refstate-crust.xmf,1280,-1.71696e-06,8.32743e-06,0,1.27596e-05,-9.516e+08,-9.50911e+08,-9.51482e+08,875307,0.00214338,0.208997,0,0.209008,-1387.34,-34649.9,-0,34677.7,875307
step02_gravity_refstate-crust.xmf,1281,-3.14292e-06,1.20084e-05,0,1.17187e-05,-9.8181e+08,-9.8077e+08,-9.81594e+08,803906,0.00491576,0.1966,0,0.196662,-1432.52,-35749.6,-0,35778.3,803906
step02_gravity_refstate-crust.xmf,1282,-4.20993e-06,1.39935e-05,0,1.3626e-05,-9.88705e+08,-9.87457e+08,-9.88417e+08,934745,0.0038831,0.205275,0,0.205312,-1000,-35999.4,-0,36013.3,934745
step02_gravity_refstate-crust.xmf,1283,-1.99938e-06,9.16133e-06,0,1.15091e-05,-9.6122e+08,-9.60454e+08,-9.61082e+08,789525,0.0034766,0.199491,0,0.199522,-1627.05,-35000.3,-0,35038.1,789525
step02_gravity_refstate-crust.xmf,1284,-3.85223e-06,1.39506e-05,0,1.13342e-05,-9.95538e+08,-9.94316e+08,-9.95273e+08,777524,0.00589666,0.19195,0,0.192041,-1360.96,-36249.6,-0,36275.1,777524
step02_gravity_refstate-crust.xmf,1285,-5.07321e-06,1.61015e-05,0,1.2916e-05,-1.00245e+09,-1.001e+09,-1.0021e+09,886035,0.00485687,0.197761,0,0.197821,-1000,-36499.7,-0,36513.4,886035
step02_gravity_refstate-crust.xmf,1286,-2.16544e-06,1.4745e-05,0,-5.9928e-06,-1.06817e+09,-1.06701e+09,-1.06802e+09,-411106,-0.0102268,0.140233,-0,0.140605,2039.15,-38901.9,0,38955.3,411106
step02_gravity_refstate-crust.xmf,1287,-8.12117e-06,2.5447e-05,0,-2.49687e-06,-1.05253e+09,-1.05022e+09,-1.05197e+09,-171286,-0.00273127,0.167131,-0,0.167153,330.672,-38324.8,0,38326.2,171286
step02_gravity_refstate-crust.xmf,1288,-8.59659e-06,2.75059e-05,0,1.0523e-07,-1.04357e+09,-1.04109e+09,-1.04298e+09,7218.79,-1.11606e-06,0.176534,-0,0.176534,0,-38000,0,38000,7218.79
step02_gravity_refstate-crust.xmf,1289,-8.09559e-06,2.65239e-05,0,-3.92297e-06,-1.04356e+09,-1.04118e+09,-1.043e+09,-269115,-0.00413546,0.174531,-0,0.17458,500,-38000,0,38003.3,269115
step02_gravity_refstate-crust.xmf,1290,-4.60285e-06,1.91558e-05,0,-6.52584e-06,-1.05547e+09,-1.05384e+09,-1.05516e+09,-447672,-0.0086426,0.156332,-0,0.156571,1248.3,-38436.6,0,38456.9,447672
step02_gravity_refstate-crust.xmf,1291,-7.01217e-06,2.3336e-05,0,-4.83769e-06,-1.05464e+09,-1.05256e+09,-1.05416e+09,-331866,-0.00574085,0.162499,-0,0.162601,735.242,-38403.1,0,38410.1,331866
step02_gravity_refstate-crust.xmf,1292,-1.24414e-08,9.58762e-06,0,-4.98204e-06,-1.07183e+09,-1.07118e+09,-1.07183e+09,-341768,-0.0114856,0.122518,-0,0.123055,3918.86,-39036,0,39232.2,341768
step02_gravity_refstate-crust.xmf,1293,3.64269e-07,6.65468e-06,0,-3.40476e-06,-1.08434e+09,-1.08391e+09,-1.08437e+09,-233566,-0.00970219,0.0998378,-0,0.100308,6963.42,-39488.4,0,40097.7,233566
step02_gravity_refstate-crust.xmf,1294,4.33563e-07,7.04916e-06,0,-3.74497e-06,-1.0796e+09,-1.07915e+09,-1.07963e+09,-256905,-0.010282,0.104989,-0,0.105491,6227.97,-39316.6,0,39806.9,256905
step02_gravity_refstate-crust.xmf,1295,7.87588e-07,2.96545e-07,0,1.1956e-06,-4.55501e+08,-4.55535e+08,-4.55555e+08,82018.4,-0.00598442,0.171271,-0,0.171375,-5484.63,-16586.6,-0,17469.9,82018.4
step02_gravity_refstate-crust.xmf,1296,5.74759e-07,4.67593e-07,0,1.0183e-06,-3.60515e+08,-3.60523e+08,-3.60555e+08,69855.2,-0.00588556,0.169801,-0,0.169903,-7024.39,-13128,-0,14889.1,69855.2
step02_gravity_refstate-crust.xmf,1297,6.3838e-07,4.26636e-07,0,1.06965e-06,-3.93525e+08,-3.9354e+08,-3.93569e+08,73378.1,-0.00584884,0.170337,-0,0.170438,-6425.53,-14329.9,-0,15704.6,73378.1
step02_gravity_refstate-crust.xmf,1298,7.10987e-07,3.67771e-07,0,1.12801e-06,-4.25592e+08,-4.25616e+08,-4.25641e+08,77381.7,-0.00588379,0.17083,-0,0.170931,-5905.39,-15497.5,-0,16584.6,77381.7
step02_gravity_refstate-crust.xmf,1299,5.56876e-07,1.58504e-07,0,5.46168e-07,-1.3447e+08,-1.34497e+08,-1.34508e+08,37467.1,-0.0081166,0.167933,-0,0.168129,-9965.27,-4898.02,-0,11103.9,37467.1
step02_gravity_refstate-crust.xmf,1300,5.37817e-07,2.58369e-07,0,6.53452e-07,-1.78281e+08,-1.783e+08,-1.78318e+08,44826.8,-0.00704657,0.168793,-0,0.16894,-9222.82,-6493.06,-0,11279.2,44826.8
step02_gravity_refstate-crust.xmf,1301,5.59556e-07,3.59401e-07,0,7.80553e-07,-2.56426e+08,-2.5644e+08,-2.56465e+08,53546,-0.00576764,0.170395,-0,0.170492,-7639.12,-9338.28,-0,12064.8,53546
step02_gravity_refstate-crust.xmf,1302,5.39324e-07,3.24931e-07,0,7.30257e-07,-2.18936e+08,-2.1895e+08,-2.18973e+08,50095.6,-0.00629799,0.169618,-0,0.169735,-8433.1,-7973.25,-0,11605.6,50095.6
step02_gravity_refstate-crust.xmf,1303,5.24841e-07,4.83798e-07,0,9.65215e-07,-3.25898e+08,-3.259e+08,-3.25934e+08,66213.7,-0.00598229,0.169274,-0,0.169379,-7663.22,-11867.5,-0,14126.7,66213.7
step02_gravity_refstate-crust.xmf,1304,7.47552e-07,-1.48589e-07,0,2.25398e-07,-4.65531e+07,-4.66146e+07,-4.66044e+07,15462.3,-0.0106052,0.167999,-0,0.168333,-9947.09,-1697.61,-0,10090.9,15462.3
step02_gravity_refstate-crust.xmf,1305,1.0897e-06,-8.29417e-08,0,2.06176e-06,-6.09167e+08,-6.09247e+08,-6.09242e+08,141437,-0.00823523,0.172808,-0,0.173004,-4581.99,-22181.6,-0,22649.9,141437
step02_gravity_refstate-crust.xmf,1306,7.131e-07,-2.89948e-07,0,4.37136e-06,-7.58033e+08,-7.58102e+08,-7.58082e+08,299875,-0.0117235,0.178952,-0,0.179335,-3735.99,-27599.4,-0,27851.1,299875
step02_gravity_refstate-crust.xmf,1307,1.06807e-06,-1.24604e-07,0,2.44096e-06,-6.44432e+08,-6.44514e+08,-6.44506e+08,167450,-0.00915743,0.173109,-0,0.173351,-4541.01,-23465.3,-0,23900.7,167450
step02_gravity_refstate-crust.xmf,1308,1.03883e-06,-2.87438e-07,0,3.13527e-06,-6.94438e+08,-6.94529e+08,-6.9451e+08,215080,-0.0103287,0.174968,-0,0.175273,-4225.97,-25285.5,-0,25636.2,215080
step02_gravity_refstate-crust.xmf,1309,1.20166e-06,-7.45003e-07,0,3.73681e-06,-7.27378e+08,-7.27511e+08,-7.2746e+08,256345,-0.0107526,0.178925,-0,0.179248,-3657.42,-26484.6,-0,26736,256345
step02_gravity_refstate-crust.xmf,1310,1.1647e-06,-5.58766e-07,0,3.39246e-06,-7.10115e+08,-7.10233e+08,-7.10195e+08,232723,-0.0104537,0.17711,-0,0.177418,-3885.92,-25856.3,-0,26146.7,232723
step02_gravity_refstate-crust.xmf,1311,7.978e-07,3.16425e-07,0,1.48701e-06,-5.10893e+08,-5.10926e+08,-5.10948e+08,102009,-0.00702564,0.170329,-0,0.170474,-5625.69,-18603.3,-0,19435.3,102009
step02_gravity_refstate-crust.xmf,1312,1.28993e-07,1.13036e-07,0,5.84898e-06,-8.22468e+08,-8.22469e+08,-8.22477e+08,401240,-0.0112524,0.186805,-0,0.187144,-3012.42,-29943.5,-0,30094.6,401240
step02_gravity_refstate-crust.xmf,1313,2.04063e-07,9.58982e-09,0,5.4535e-06,-8.04798e+08,-8.04812e+08,-8.04812e+08,374110,-0.0118331,0.184074,-0,0.184454,-3238.21,-29300.3,-0,29478.7,374110
step02_gravity_refstate-crust.xmf,1314,1.39826e-07,3.30041e-07,0,4.90995e-06,-7.89358e+08,-7.89345e+08,-7.89368e+08,336822,-0.0120617,0.179394,-0,0.179799,-3688.01,-28738.4,-0,28974.1,336822
step02_gravity_refstate-crust.xmf,1315,-2.07592e-07,4.65467e-06,0,1.04503e-05,-9.20751e+08,-9.20417e+08,-9.20737e+08,716892,-0.000427417,0.201089,-0,0.20109,-1963.54,-33527.2,-0,33584.7,716892
step02_gravity_refstate-crust.xmf,1316,-1.67733e-08,1.1322e-06,0,6.15563e-06,-8.51415e+08,-8.51337e+08,-8.51414e+08,422277,-0.00906488,0.186101,-0,0.186321,-3019.55,-30998.3,-0,31145,422277
step02_gravity_refstate-crust.xmf,1317,3.14059e-07,1.16885e-06,0,6.9987e-06,-8.65827e+08,-8.65768e+08,-8.65849e+08,480111,-0.00741001,0.190512,-0,0.190656,-2711.64,-31524.4,-0,31640.8,480111
step02_gravity_refstate-crust.xmf,1318,6.03228e-07,1.4284e-06,0,8.22086e-06,-8.80227e+08,-8.8017e+08,-8.80268e+08,563951,-0.00547285,0.196066,-0,0.196142,-2378.54,-32050.2,-0,32138.3,563951
step02_gravity_refstate-crust.xmf,1319,-2.27012e-06,1.0208e-05,0,1.03504e-05,-9.73415e+08,-9.72559e+08,-9.73259e+08,710039,0.00513887,0.190341,0,0.19041,-1821.44,-35444.8,-0,35491.5,710039
step02_gravity_refstate-crust.xmf,1320,-4.36201e-06,1.57406e-05,0,1.04072e-05,-1.00926e+09,-1.00788e+09,-1.00896e+09,713931,0.0070797,0.184741,0,0.184876,-1352.57,-36749.9,-0,36774.8,713931
step02_gravity_refstate-crust.xmf,1321,-5.76181e-06,1.83172e-05,0,1.17748e-05,-1.01618e+09,-1.01453e+09,-1.01579e+09,807750,0.00587047,0.18915,0,0.189242,-1000,-37000.2,-0,37013.7,807750
step02_gravity_refstate-crust.xmf,1322,-4.2127e-06,1.65763e-05,0,8.97144e-06,-1.02295e+09,-1.02153e+09,-1.02266e+09,615441,0.00859224,0.174877,0,0.175088,-1432.91,-37250.2,-0,37277.8,615441
step02_gravity_refstate-crust.xmf,1323,-6.39154e-06,2.05881e-05,0,1.02532e-05,-1.02989e+09,-1.02804e+09,-1.02945e+09,703368,0.0068597,0.179423,0,0.179554,-1000,-37500.2,-0,37513.6,703368
step02_gravity_refstate-crust.xmf,1324,-3.50343e-06,1.75011e-05,0,-6.07343e-06,-1.06667e+09,-1.06523e+09,-1.06643e+09,-416637,-0.00885348,0.146218,-0,0.146486,1501.2,-38846.2,0,38875.2,416637
step02_gravity_refstate-crust.xmf,1325,-8.23751e-06,2.52662e-05,0,1.28408e-07,-1.05644e+09,-1.05414e+09,-1.05588e+09,8808.78,-1.85972e-07,0.164227,-0,0.164227,0,-38466.7,0,38466.7,8808.78
step02_gravity_refstate-crust.xmf,1326,-1.07904e-06,1.23259e-05,0,-5.58634e-06,-1.08379e+09,-1.08287e+09,-1.08372e+09,-383223,-0.00957066,0.126353,-0,0.126715,2789.64,-39471.3,0,39569.7,383223
step02_gravity_refstate-crust.xmf,1327,-2.0571e-06,1.4544e-05,0,-5.51257e-06,-1.08398e+09,-1.08284e+09,-1.08384e+09,-378162,-0.00847736,0.131372,-0,0.131646,2089.75,-39477.5,0,39532.8,378162
step02_gravity_refstate-crust.xmf,1328,-5.26789e-07,1.08044e-05,0,-5.37553e-06,-1.08483e+09,-1.08405e+09,-1.0848e+09,-368761,-0.00993701,0.12131,-0,0.121717,3429.73,-39509,0,39657.6,368761
step02_gravity_refstate-crust.xmf,1329,1.61203e-07,8.69322e-06,0,-4.66515e-06,-1.07968e+09,-1.07909e+09,-1.07969e+09,-320029,-0.0107381,0.115015,-0,0.115515,4602.52,-39320.9,0,39589.4,320029
step02_gravity_refstate-crust.xmf,1330,3.11734e-07,7.78138e-06,0,-4.21094e-06,-1.0812e+09,-1.08069e+09,-1.08122e+09,-288870,-0.0104372,0.109321,-0,0.109818,5419.73,-39375.5,0,39746.7,288870
step02_gravity_refstate-crust.xmf,1331,5.73068e-07,4.62797e-08,0,4.12237e-07,-8.98242e+07,-8.98603e+07,-8.98635e+07,28279.5,-0.00972987,0.16661,-0,0.166894,-10878.4,-3272.53,-0,11359.9,28279.5
step02_gravity_refstate-crust.xmf,1332,4.848e-07,4.82019e-07,0,9.15061e-07,-2.9159e+08,-2.9159e+08,-2.91623e+08,62773.2,-0.0061946,0.168628,-0,0.168742,-8377.37,-10618.3,-0,13525.1,62773.2
step02_gravity_refstate-crust.xmf,1333,7.64561e-07,-2.92624e-07,0,4.31012e-09,72521.3,-1.63694,20072.4,295.674,-0.013612,0.165988,-0,0.166545,-11021.2,0,-0,11021.2,295.674
step02_gravity_refstate-crust.xmf,1334,9.19319e-07,1.00885e-07,0,2.34742e-06,-6.30819e+08,-6.30875e+08,-6.30882e+08,161033,-0.00919824,0.171408,-0,0.171655,-4963.64,-22969.5,-0,23499.7,161033
step02_gravity_refstate-crust.xmf,1335,6.89781e-07,-5.90539e-08,0,3.975e-06,-7.42094e+08,-7.42146e+08,-7.42142e+08,272685,-0.0115713,0.176384,-0,0.176763,-4057.81,-27019.4,-0,27322.4,272685
step02_gravity_refstate-crust.xmf,1336,7.95035e-07,2.18004e-07,0,2.63157e-06,-6.5473e+08,-6.5477e+08,-6.54785e+08,180526,-0.00994424,0.170807,-0,0.171096,-5072.65,-23839.7,-0,24373.4,180526
step02_gravity_refstate-crust.xmf,1337,9.09577e-07,-1.98072e-08,0,2.89715e-06,-6.77232e+08,-6.77296e+08,-6.77295e+08,198745,-0.010194,0.172845,-0,0.173145,-4620.29,-24659,-0,25088.1,198745
step02_gravity_refstate-crust.xmf,1338,1.52402e-07,5.06803e-07,0,4.48136e-06,-7.73832e+08,-7.73807e+08,-7.73842e+08,307422,-0.0121005,0.176106,-0,0.176522,-4065.49,-28173.5,-0,28465.3,307422
step02_gravity_refstate-crust.xmf,1339,7.02426e-07,4.41184e-07,0,1.39881e-06,-4.83038e+08,-4.83056e+08,-4.83086e+08,95958.5,-0.00689808,0.169539,-0,0.169679,-6119.94,-17589,-0,18623.3,95958.5
step02_gravity_refstate-crust.xmf,1340,9.39444e-07,1.45512e-07,0,1.93368e-06,-5.86572e+08,-5.86626e+08,-5.86636e+08,132650,-0.00815326,0.171253,-0,0.171447,-5059.99,-21358.7,-0,21949.9,132650
step02_gravity_refstate-crust.xmf,1341,7.85244e-07,3.40734e-07,0,1.82305e-06,-5.62315e+08,-5.62345e+08,-5.62369e+08,125061,-0.00810986,0.1696,-0,0.169794,-5663,-20475.3,-0,21244,125061
step02_gravity_refstate-crust.xmf,1342,6.76984e-07,4.8758e-07,0,1.70051e-06,-5.3608e+08,-5.36093e+08,-5.36127e+08,116655,-0.00793979,0.16846,-0,0.168647,-6192.85,-19520,-0,20478.8,116655
step02_gravity_refstate-crust.xmf,1343,-7.21117e-07,6.00223e-06,0,1.11025e-05,-9.33928e+08,-9.33467e+08,-9.33879e+08,761630,0.000947964,0.202396,0,0.202398,-1807.67,-34007,-0,34055,761630
step02_gravity_refstate-crust.xmf,1344,-1.2709e-06,7.40411e-06,0,1.06599e-05,-9.47763e+08,-9.47168e+08,-9.47676e+08,731271,0.0025127,0.196987,0,0.197004,-1889.11,-34510.6,-0,34562.3,731271
step02_gravity_refstate-crust.xmf,1345,-2.70114e-07,1.20676e-06,0,5.57339e-06,-8.37021e+08,-8.3692e+08,-8.37003e+08,382335,-0.0103162,0.182153,-0,0.182445,-3339.51,-30473.4,-0,30655.8,382335
step02_gravity_refstate-crust.xmf,1346,6.64246e-08,3.59775e-06,0,8.96239e-06,-9.07667e+08,-9.07425e+08,-9.07672e+08,614820,-0.00198862,0.194437,-0,0.194447,-2340.28,-33050.4,-0,33133.1,614820
step02_gravity_refstate-crust.xmf,1347,-2.48433e-06,1.15831e-05,0,9.25824e-06,-9.88715e+08,-9.8775e+08,-9.88545e+08,635115,0.00706981,0.18143,0,0.181568,-1945.83,-36003.1,-0,36055.6,635115
step02_gravity_refstate-crust.xmf,1348,-1.55277e-06,8.54182e-06,0,9.37945e-06,-9.6205e+08,-9.61358e+08,-9.61944e+08,643430,0.00452824,0.186361,0,0.186416,-2165.9,-35031.3,-0,35098.2,643430
step02_gravity_refstate-crust.xmf,1349,-3.07134e-06,1.33258e-05,0,9.14762e-06,-1.00243e+09,-1.00131e+09,-1.00222e+09,627527,0.00800656,0.178845,0,0.179024,-1777.41,-36502.8,-0,36546.1,627527
step02_gravity_refstate-crust.xmf,1350,-4.38737e-06,1.79443e-05,0,8.1296e-06,-1.03379e+09,-1.03226e+09,-1.03349e+09,557691,0.00902506,0.1694,0,0.169641,-1360.92,-37646.1,-0,37670.7,557691
step02_gravity_refstate-crust.xmf,1351,-5.87273e-06,2.20859e-05,0,7.17046e-06,-1.0435e+09,-1.04158e+09,-1.04309e+09,491894,0.00763633,0.168575,0,0.168748,-1000,-38000,-0,38013.2,491894
step02_gravity_refstate-crust.xmf,1352,-8.00116e-06,2.65324e-05,0,3.89503e-06,-1.04354e+09,-1.04118e+09,-1.043e+09,267199,0.00413412,0.17453,0,0.174579,-500,-38000,-0,38003.3,267199
step02_gravity_refstate-crust.xmf,1353,-8.11141e-06,2.54385e-05,0,2.51656e-06,-1.05249e+09,-1.05019e+09,-1.05193e+09,172636,0.0027602,0.167148,0,0.167171,-334.148,-38323.5,-0,38324.9,172636
step02_gravity_refstate-crust.xmf,1354,-2.7902e-06,1.60939e-05,0,-5.66939e-06,-1.07651e+09,-1.07522e+09,-1.07632e+09,-388920,-0.00862352,0.138127,-0,0.138396,1745.12,-39205.2,0,39244,388920
step02_gravity_refstate-crust.xmf,1355,-7.38073e-06,2.34829e-05,0,-2.6456e-06,-1.06308e+09,-1.06096e+09,-1.06257e+09,-181488,-0.00304318,0.157409,-0,0.157438,403.805,-38709,0,38711.1,181488
step02_gravity_refstate-crust.xmf,1356,-5.63951e-06,2.05869e-05,0,-4.59858e-06,-1.06841e+09,-1.06661e+09,-1.06802e+09,-315463,-0.00608779,0.150025,-0,0.150148,921.526,-38905.6,0,38916.5,315463
step02_gravity_refstate-crust.xmf,1357,-2.44579e-07,9.78417e-06,0,-5.09948e-06,-1.08685e+09,-1.08617e+09,-1.08684e+09,-349824,-0.00989721,0.116651,-0,0.117071,3999,-39582.2,0,39783.7,349824
step02_gravity_refstate-crust.xmf,1358,4.49219e-07,6.12772e-07,0,1.10293e-06,-3.57807e+08,-3.57796e+08,-3.57838e+08,75660.7,-0.00654814,0.167325,-0,0.167453,-8363.18,-13029.1,-0,15482.2,75660.7
step02_gravity_refstate-crust.xmf,1359,6.2206e-07,5.07193e-07,0,1.31867e-06,-4.53689e+08,-4.53697e+08,-4.53732e+08,90460.6,-0.00676457,0.168892,-0,0.169028,-6629.9,-16520.3,-0,17801,90460.6
step02_gravity_refstate-crust.xmf,1360,4.95191e-07,6.00397e-07,0,1.17262e-06,-3.91317e+08,-3.9131e+08,-3.91351e+08,80441.5,-0.00657743,0.167801,-0,0.16793,-7753.48,-14249.2,-0,16222.1,80441.5
step02_gravity_refstate-crust.xmf,1361,5.52764e-07,5.65187e-07,0,1.244e-06,-4.23254e+08,-4.23254e+08,-4.23292e+08,85338.3,-0.0066561,0.168315,-0,0.168446,-7175.84,-15412.1,-0,17000.8,85338.3
step02_gravity_refstate-crust.xmf,1362,4.44678e-07,2.06256e-07,0,5.61721e-07,-1.29268e+08,-1.29284e+08,-1.29298e+08,38534.1,-0.00908567,0.165072,-0,0.165321,-11677.2,-4708.24,-0,12590.6,38534.1
step02_gravity_refstate-crust.xmf,1363,4.32657e-07,3.2188e-07,0,6.88273e-07,-1.74242e+08,-1.74249e+08,-1.74271e+08,47215.5,-0.00791198,0.166,-0,0.166189,-10900,-6345.69,-0,12612.6,47215.5
step02_gravity_refstate-crust.xmf,1364,4.1007e-07,4.38059e-07,0,8.12378e-07,-2.22336e+08,-2.22334e+08,-2.22364e+08,55729.1,-0.00717587,0.166358,-0,0.166513,-10321.7,-8096.69,-0,13118.4,55729.1
step02_gravity_refstate-crust.xmf,1365,4.50307e-07,4.67719e-07,0,8.69904e-07,-2.59315e+08,-2.59314e+08,-2.59346e+08,59675.4,-0.00654754,0.167767,-0,0.167895,-9186.19,-9443.17,-0,13174.2,59675.4
step02_gravity_refstate-crust.xmf,1366,4.14686e-07,6.03272e-07,0,1.03413e-06,-3.23111e+08,-3.23098e+08,-3.2314e+08,70941.1,-0.00659675,0.166849,-0,0.16698,-9004.04,-11765.8,-0,14815.8,70941.1
step02_gravity_refstate-crust.xmf,1367,5.71887e-07,-8.14175e-08,0,2.37142e-07,-4.57214e+07,-4.57662e+07,-4.57606e+07,16268,-0.0119422,0.164859,-0,0.16529,-11920.2,-1666.72,-0,12036.2,16268
step02_gravity_refstate-crust.xmf,1368,7.85479e-07,3.37458e-07,0,2.1921e-06,-6.10946e+08,-6.10977e+08,-6.11e+08,150378,-0.00909338,0.169719,-0,0.169963,-5448.44,-22245.8,-0,22903.3,150378
step02_gravity_refstate-crust.xmf,1369,1.89961e-07,6.24904e-07,0,4.10173e-06,-7.57746e+08,-7.57716e+08,-7.57759e+08,281379,-0.0120238,0.173519,-0,0.173935,-4415.71,-27588.2,-0,27939.4,281379
step02_gravity_refstate-crust.xmf,1370,5.74125e-07,4.10392e-07,0,3.1365e-06,-6.9544e+08,-6.95451e+08,-6.95479e+08,215164,-0.0109952,0.170619,-0,0.170973,-5018.24,-25321.1,-0,25813.6,215164
step02_gravity_refstate-crust.xmf,1371,6.97258e-07,1.67216e-07,0,3.34616e-06,-7.08398e+08,-7.08434e+08,-7.08446e+08,229547,-0.0110697,0.172869,-0,0.173223,-4602.12,-25793,-0,26200.4,229547
step02_gravity_refstate-crust.xmf,1372,6.05405e-07,2.22677e-07,0,3.62371e-06,-7.25508e+08,-7.25534e+08,-7.2555e+08,248586,-0.0114273,0.173587,-0,0.173962,-4469.25,-26415.6,-0,26791.1,248586
step02_gravity_refstate-crust.xmf,1373,5.89876e-07,5.9393e-07,0,1.59176e-06,-5.09348e+08,-5.09348e+08,-5.09389e+08,109195,-0.00775371,0.167559,-0,0.167738,-6716.4,-18546.6,-0,19725.3,109195
step02_gravity_refstate-crust.xmf,1374,-3.79443e-07,1.25507e-06,0,5.15198e-06,-8.22011e+08,-8.21899e+08,-8.21985e+08,353426,-0.0111911,0.178756,-0,0.179106,-3663.31,-29926.6,-0,30149.9,353426
step02_gravity_refstate-crust.xmf,1375,-3.42637e-07,1.32464e-06,0,4.41243e-06,-7.90165e+08,-7.90051e+08,-7.90142e+08,302693,-0.0119812,0.172597,-0,0.173012,-4393.36,-28767.4,-0,29101,302693
step02_gravity_refstate-crust.xmf,1376,-3.80063e-07,1.27347e-06,0,4.77916e-06,-8.05945e+08,-8.05832e+08,-8.05919e+08,327850,-0.0117369,0.175636,-0,0.176028,-4010.04,-29341.7,-0,29614.4,327850
step02_gravity_refstate-crust.xmf,1377,-7.12007e-07,6.07835e-06,0,9.30016e-06,-9.35357e+08,-9.34891e+08,-9.35308e+08,637991,0.00145638,0.19082,0,0.190825,-2285.39,-34059.1,-0,34135.7,637991
step02_gravity_refstate-crust.xmf,1378,-4.90788e-07,2.14096e-06,0,5.27575e-06,-8.51987e+08,-8.51807e+08,-8.51954e+08,361916,-0.00884883,0.177212,-0,0.177432,-3641.7,-31018.8,-0,31231.8,361916
step02_gravity_refstate-crust.xmf,1379,-2.4671e-07,2.18999e-06,0,5.89396e-06,-8.66213e+08,-8.66046e+08,-8.66196e+08,404325,-0.00738644,0.18092,-0,0.18107,-3303.46,-31537.7,-0,31710.3,404325
step02_gravity_refstate-crust.xmf,1380,1.37032e-07,2.83771e-06,0,7.82142e-06,-8.94243e+08,-8.94058e+08,-8.94252e+08,536549,-0.00377265,0.189804,-0,0.189842,-2643.05,-32560.8,-0,32667.9,536549
step02_gravity_refstate-crust.xmf,1381,-3.22062e-09,2.39849e-06,0,6.73708e-06,-8.80465e+08,-8.803e+08,-8.80465e+08,462164,-0.00562547,0.185018,-0,0.185104,-2976.36,-32057.9,-0,32195.8,462164
step02_gravity_refstate-crust.xmf,1382,-3.68767e-07,4.92713e-06,0,8.32593e-06,-9.22048e+08,-9.21684e+08,-9.22022e+08,571159,-9.0297e-05,0.187133,-0,0.187133,-2583.71,-33574.2,-0,33673.5,571159
step02_gravity_refstate-crust.xmf,1383,-1.64327e-06,9.42264e-06,0,8.33638e-06,-9.7609e+08,-9.75331e+08,-9.75977e+08,571876,0.00652979,0.177296,0,0.177416,-2376.23,-35543.5,-0,35622.8,571876
step02_gravity_refstate-crust.xmf,1384,-2.71791e-06,1.36753e-05,0,7.89642e-06,-1.01601e+09,-1.01489e+09,-1.01583e+09,541695,0.00972671,0.169128,0,0.169408,-1930.03,-36999.2,-0,37049.5,541695
step02_gravity_refstate-crust.xmf,1385,-2.81985e-06,1.50275e-05,0,7.40104e-06,-1.03117e+09,-1.02995e+09,-1.03098e+09,507711,0.0104321,0.163494,0,0.163827,-1795.57,-37552.8,-0,37595.7,507711
step02_gravity_refstate-crust.xmf,1386,-3.26161e-06,1.67796e-05,0,7.22197e-06,-1.04369e+09,-1.04231e+09,-1.04346e+09,495427,0.0100825,0.160066,0,0.160383,-1547.5,-38009.2,-0,38040.7,495427
step02_gravity_refstate-crust.xmf,1387,-6.94192e-06,2.30086e-05,0,5.3035e-06,-1.05424e+09,-1.05219e+09,-1.05377e+09,363820,0.00583354,0.162745,0,0.162849,-746.247,-38388.3,-0,38395.5,363820
step02_gravity_refstate-crust.xmf,1388,-4.20063e-06,1.83582e-05,0,-4.93295e-06,-1.07604e+09,-1.07449e+09,-1.07575e+09,-338400,-0.00697749,0.14223,-0,0.142401,1250.64,-39185.7,0,39205.6,338400
step02_gravity_refstate-crust.xmf,1389,-7.37526e-06,2.34613e-05,0,2.76517e-06,-1.06293e+09,-1.06081e+09,-1.06242e+09,189690,0.00316271,0.157478,0,0.15751,-419.545,-38703.4,-0,38705.6,189690
step02_gravity_refstate-crust.xmf,1390,-7.12609e-06,2.2982e-05,0,8.33015e-08,-1.06982e+09,-1.06776e+09,-1.06933e+09,5714.48,-1.7477e-07,0.152453,-0,0.152453,0,-38954.7,0,38954.7,5714.48
step02_gravity_refstate-crust.xmf,1391,-3.13346e-06,1.68672e-05,0,-4.99529e-06,-1.08629e+09,-1.08492e+09,-1.08608e+09,-342677,-0.00661901,0.134069,-0,0.134232,1492.2,-39561.1,0,39589.2,342677
step02_gravity_refstate-crust.xmf,1392,4.25226e-07,1.13361e-07,0,4.29209e-07,-9.05627e+07,-9.05841e+07,-9.05919e+07,29443.7,-0.0106293,0.163453,-0,0.163798,-12725.3,-3298.92,-0,13145.9,29443.7
step02_gravity_refstate-crust.xmf,1393,3.90321e-07,5.80145e-07,0,9.69638e-07,-2.90552e+08,-2.90539e+08,-2.90579e+08,66517.2,-0.00674988,0.166315,-0,0.166452,-9652.92,-10580.3,-0,14322.1,66517.2
step02_gravity_refstate-crust.xmf,1394,5.31217e-07,-2.04358e-07,0,4.94636e-09,50343.5,-116.955,13902,339.321,-0.0149661,0.16266,-0,0.163347,-13099.6,0,-0,13099.6,339.321
step02_gravity_refstate-crust.xmf,1395,6.23464e-07,5.15793e-07,0,2.43957e-06,-6.34914e+08,-6.34922e+08,-6.34957e+08,167355,-0.00987529,0.16835,-0,0.168639,-5703.93,-23118,-0,23811.3,167355
step02_gravity_refstate-crust.xmf,1396,2.67956e-07,6.38694e-07,0,3.81152e-06,-7.42264e+08,-7.42239e+08,-7.42283e+08,261470,-0.0118622,0.172075,-0,0.172483,-4653.97,-27024.9,-0,27422.8,261470
step02_gravity_refstate-crust.xmf,1397,5.0235e-07,5.91705e-07,0,2.87291e-06,-6.76253e+08,-6.76247e+08,-6.76288e+08,197082,-0.0107584,0.168653,-0,0.168996,-5456.78,-24622.6,-0,25220,197082
step02_gravity_refstate-crust.xmf,1398,-2.70504e-07,1.3407e-06,0,4.07931e-06,-7.73669e+08,-7.73558e+08,-7.7365e+08,279841,-0.0120584,0.170135,-0,0.170561,-4763.27,-28167.2,-0,28567.1,279841
step02_gravity_refstate-crust.xmf,1399,5.11664e-07,6.91755e-07,0,1.49457e-06,-4.81627e+08,-4.81614e+08,-4.81662e+08,102528,-0.00758233,0.166734,-0,0.166906,-7285.35,-17537.2,-0,18990.3,102528
step02_gravity_refstate-crust.xmf,1400,5.98416e-07,5.98018e-07,0,2.07363e-06,-5.89699e+08,-5.89699e+08,-5.8974e+08,142251,-0.00910304,0.167387,-0,0.167634,-6197.96,-21471.9,-0,22348.6,142251
step02_gravity_refstate-crust.xmf,1401,5.20884e-07,7.08391e-07,0,1.89646e-06,-5.61117e+08,-5.61104e+08,-5.61152e+08,130097,-0.00878467,0.16627,-0,0.166502,-6736.33,-20431.2,-0,21513.1,130097
step02_gravity_refstate-crust.xmf,1402,4.56993e-07,7.90996e-07,0,1.76084e-06,-5.34688e+08,-5.34665e+08,-5.34719e+08,120794,-0.00851232,0.165404,-0,0.165623,-7251.27,-19468.9,-0,20775.5,120794
step02_gravity_refstate-crust.xmf,1403,-6.52128e-07,2.12574e-06,0,4.8406e-06,-8.37374e+08,-8.37184e+08,-8.37329e+08,332065,-0.00999034,0.17402,-0,0.174306,-3983.23,-30486.1,-0,30745.2,332065
step02_gravity_refstate-crust.xmf,1404,-2.19531e-07,4.05369e-06,0,7.29952e-06,-9.08569e+08,-9.08276e+08,-9.08554e+08,500747,-0.00182713,0.182957,-0,0.182967,-2911.16,-33082.7,-0,33210.6,500747
step02_gravity_refstate-crust.xmf,1405,-1.01174e-06,7.1083e-06,0,8.46238e-06,-9.49626e+08,-9.49069e+08,-9.49557e+08,580519,0.00343993,0.182683,0,0.182715,-2506.2,-34579,-0,34669.7,580519
step02_gravity_refstate-crust.xmf,1406,-1.99502e-06,1.16417e-05,0,7.64805e-06,-1.00223e+09,-1.00129e+09,-1.00209e+09,524656,0.00925798,0.169111,0,0.169364,-2277.47,-36497.1,-0,36568.1,524656
step02_gravity_refstate-crust.xmf,1407,-1.53037e-06,1.00872e-05,0,7.40608e-06,-9.89303e+08,-9.88506e+08,-9.89198e+08,508057,0.00836304,0.169163,0,0.169369,-2555.93,-36026,-0,36116.5,508057
step02_gravity_refstate-crust.xmf,1408,-1.0904e-06,7.95074e-06,0,7.52035e-06,-9.63942e+08,-9.63322e+08,-9.63867e+08,515896,0.00554147,0.173925,0,0.174013,-2750.91,-35101.2,-0,35208.8,515896
step02_gravity_refstate-crust.xmf,1409,-4.53433e-06,1.90459e-05,0,6.5052e-06,-1.05557e+09,-1.05395e+09,-1.05526e+09,446256,0.00869598,0.156106,0,0.156349,-1261.59,-38440.2,-0,38460.9,446256
step02_gravity_refstate-crust.xmf,1410,-6.06644e-06,2.14353e-05,0,-2.19852e-06,-1.07649e+09,-1.0746e+09,-1.07607e+09,-150819,-0.00272574,0.14628,-0,0.146305,435.392,-39199.4,0,39201.8,150819
step02_gravity_refstate-crust.xmf,1411,-4.58088e-06,1.92581e-05,0,-3.61388e-06,-1.08463e+09,-1.08299e+09,-1.08431e+09,-247912,-0.00456526,0.138434,-0,0.138509,894.786,-39498.1,0,39508.3,247912
step02_gravity_refstate-crust.xmf,1412,3.32171e-07,7.45137e-07,0,1.15139e-06,-3.54489e+08,-3.54461e+08,-3.54512e+08,78985.3,-0.00703258,0.164739,-0,0.164889,-9667.39,-12908,-0,16126.9,78985.3
step02_gravity_refstate-crust.xmf,1413,3.56569e-07,7.68296e-07,0,1.23559e-06,-3.89038e+08,-3.89009e+08,-3.89062e+08,84761.8,-0.00712235,0.165023,-0,0.165177,-9088.66,-14165.9,-0,16830.8,84761.8
step02_gravity_refstate-crust.xmf,1414,4.44662e-07,7.36546e-07,0,1.40784e-06,-4.52634e+08,-4.52614e+08,-4.52664e+08,96578,-0.0074231,0.16599,-0,0.166155,-7893.97,-16481.5,-0,18274.4,96578
step02_gravity_refstate-crust.xmf,1415,3.94119e-07,7.65631e-07,0,1.3206e-06,-4.21809e+08,-4.21783e+08,-4.21836e+08,90593.1,-0.00725983,0.165443,-0,0.165602,-8489.87,-15359.2,-0,17549.4,90593.1
step02_gravity_refstate-crust.xmf,1416,3.07322e-07,2.95776e-07,0,5.98002e-07,-1.36016e+08,-1.36016e+08,-1.36037e+08,41023,-0.00959182,0.161811,-0,0.162095,-13445.6,-4953.49,-0,14329,41023
step02_gravity_refstate-crust.xmf,1417,3.40422e-07,3.62413e-07,0,6.87521e-07,-1.66473e+08,-1.66472e+08,-1.66496e+08,47163.9,-0.00861256,0.163403,-0,0.16363,-12389.2,-6062.56,-0,13793,47163.9
step02_gravity_refstate-crust.xmf,1418,3.14269e-07,4.76453e-07,0,7.99114e-07,-2.05742e+08,-2.05731e+08,-2.05764e+08,54819.2,-0.00795511,0.163395,-0,0.163589,-12072.3,-7492.26,-0,14208.2,54819.2
step02_gravity_refstate-crust.xmf,1419,3.24677e-07,6.1417e-07,0,9.65629e-07,-2.75311e+08,-2.75291e+08,-2.75334e+08,66242.1,-0.00713164,0.164564,-0,0.164718,-10735.7,-10025.2,-0,14688.8,66242.1
step02_gravity_refstate-crust.xmf,1420,3.13825e-07,7.05386e-07,0,1.06878e-06,-3.18332e+08,-3.18306e+08,-3.18354e+08,73318,-0.00704811,0.164391,-0,0.164542,-10300.2,-11591.6,-0,15506.7,73318
step02_gravity_refstate-crust.xmf,1421,3.78289e-07,8.16615e-10,0,2.52061e-07,-4.78219e+07,-4.78478e+07,-4.78479e+07,17291.4,-0.0128165,0.161372,-0,0.161881,-13954.9,-1742.54,-0,14063.2,17291.4
step02_gravity_refstate-crust.xmf,1422,5.39038e-07,6.71084e-07,0,2.26408e-06,-6.1451e+08,-6.14501e+08,-6.14547e+08,155316,-0.00966386,0.166867,-0,0.167146,-6183.12,-22375.1,-0,23213.7,155316
step02_gravity_refstate-crust.xmf,1423,-1.65844e-07,1.3299e-06,0,3.71936e-06,-7.52902e+08,-7.528e+08,-7.52891e+08,255148,-0.0119963,0.167947,-0,0.168375,-5169.78,-27411.6,-0,27894.8,255148
step02_gravity_refstate-crust.xmf,1424,4.15687e-07,7.7735e-07,0,2.63785e-06,-6.55943e+08,-6.55918e+08,-6.55971e+08,180957,-0.0105235,0.166641,-0,0.166973,-5978.78,-23883.1,-0,24620.1,180957
step02_gravity_refstate-crust.xmf,1425,2.14312e-07,9.85094e-07,0,3.02465e-06,-6.95036e+08,-6.94984e+08,-6.95051e+08,207491,-0.0112878,0.166382,-0,0.166764,-5783.99,-25305.9,-0,25958.5,207491
step02_gravity_refstate-crust.xmf,1426,2.31076e-07,8.6594e-07,0,3.33405e-06,-7.15562e+08,-7.15518e+08,-7.15578e+08,228716,-0.0115602,0.168483,-0,0.168879,-5304.55,-26053,-0,26587.6,228716
step02_gravity_refstate-crust.xmf,1427,1.19411e-07,9.49865e-07,0,3.56906e-06,-7.33867e+08,-7.3381e+08,-7.33875e+08,244837,-0.0118251,0.169036,-0,0.169449,-5125.56,-26719.1,-0,27206.3,244837
step02_gravity_refstate-crust.xmf,1428,3.93674e-07,8.62745e-07,0,1.64692e-06,-5.08757e+08,-5.08725e+08,-5.08784e+08,112978,-0.00828503,0.164548,-0,0.164757,-7817.68,-18524.8,-0,20106.8,112978
step02_gravity_refstate-crust.xmf,1429,-7.15442e-07,2.10307e-06,0,4.5024e-06,-8.22148e+08,-8.21954e+08,-8.22099e+08,308864,-0.0108114,0.171157,-0,0.171498,-4340.32,-29931.5,-0,30244.5,308864
step02_gravity_refstate-crust.xmf,1430,-6.54415e-07,2.05346e-06,0,3.9172e-06,-7.90639e+08,-7.90453e+08,-7.90594e+08,268720,-0.0116115,0.166135,-0,0.16654,-5112.12,-28784.5,-0,29235,268720
step02_gravity_refstate-crust.xmf,1431,-7.09907e-07,2.08818e-06,0,4.19694e-06,-8.06724e+08,-8.06532e+08,-8.06675e+08,287910,-0.0113178,0.168451,-0,0.168831,-4724.16,-29370,-0,29747.5,287910
step02_gravity_refstate-crust.xmf,1432,-6.45706e-07,6.03118e-06,0,7.57487e-06,-9.36709e+08,-9.36251e+08,-9.36665e+08,519636,0.00200768,0.179235,0,0.179246,-2837.4,-34108.6,-0,34226.4,519636
step02_gravity_refstate-crust.xmf,1433,-7.76143e-07,2.84424e-06,0,4.52388e-06,-8.52326e+08,-8.52077e+08,-8.52272e+08,310338,-0.00841367,0.169209,-0,0.169418,-4274.22,-31031,-0,31324,310338
step02_gravity_refstate-crust.xmf,1434,-6.06766e-07,2.94878e-06,0,4.95867e-06,-8.66795e+08,-8.66551e+08,-8.66753e+08,340165,-0.00704953,0.171991,-0,0.172135,-3931.47,-31558.6,-0,31802.6,340165
step02_gravity_refstate-crust.xmf,1435,-4.0645e-07,3.12893e-06,0,5.56936e-06,-8.81021e+08,-8.80779e+08,-8.80994e+08,382058,-0.00542902,0.175264,-0,0.175348,-3586.23,-32077.7,-0,32277.5,382058
step02_gravity_refstate-crust.xmf,1436,-2.48899e-07,3.46741e-06,0,6.3669e-06,-8.94913e+08,-8.94658e+08,-8.94896e+08,436769,-0.0036505,0.179008,-0,0.179046,-3242.25,-32584.6,-0,32745.5,436769
step02_gravity_refstate-crust.xmf,1437,-4.44944e-07,5.07124e-06,0,6.74295e-06,-9.23037e+08,-9.22659e+08,-9.23007e+08,462566,0.00028007,0.176063,0,0.176064,-3162.16,-33610.2,-0,33758.6,462566
step02_gravity_refstate-crust.xmf,1438,-1.13989e-06,8.67854e-06,0,7.06039e-06,-9.7595e+08,-9.75277e+08,-9.75872e+08,484343,0.00715868,0.168642,0,0.168794,-2841,-35539.3,-0,35652.6,484343
step02_gravity_refstate-crust.xmf,1439,-1.35977e-06,1.13149e-05,0,6.53689e-06,-1.01518e+09,-1.01431e+09,-1.01509e+09,448431,0.0109767,0.158546,0,0.158926,-2584.3,-36970.7,-0,37060.9,448431
step02_gravity_refstate-crust.xmf,1440,-1.59962e-06,1.26247e-05,0,6.59585e-06,-1.0292e+09,-1.02823e+09,-1.02909e+09,452475,0.0115097,0.156243,0,0.156666,-2328.91,-37482.2,-0,37554.5,452475
step02_gravity_refstate-crust.xmf,1441,-1.94888e-06,1.40583e-05,0,6.60926e-06,-1.04294e+09,-1.04184e+09,-1.0428e+09,453396,0.0114386,0.153157,0,0.153583,-2071.31,-37983,-0,38039.4,453396
step02_gravity_refstate-crust.xmf,1442,-2.57754e-06,1.56413e-05,0,6.51355e-06,-1.05569e+09,-1.05444e+09,-1.05552e+09,446829,0.0105457,0.149666,0,0.150037,-1799.07,-38447.4,-0,38489.5,446829
step02_gravity_refstate-crust.xmf,1443,-5.31717e-06,2.0258e-05,0,4.71101e-06,-1.06899e+09,-1.06723e+09,-1.06862e+09,323175,0.00631233,0.149214,0,0.149348,-971.346,-38927.4,-0,38939.6,323175
step02_gravity_refstate-crust.xmf,1444,-6.11712e-06,2.15103e-05,0,2.3828e-06,-1.0754e+09,-1.07351e+09,-1.07498e+09,163460,0.00296266,0.147037,0,0.147067,-465.529,-39159.6,-0,39162.4,163460
step02_gravity_refstate-crust.xmf,1445,-5.5837e-06,2.08468e-05,0,1.17201e-08,-1.08377e+09,-1.08196e+09,-1.08339e+09,803.999,-8.38662e-07,0.141252,-0,0.141252,0,-39465.5,0,39465.5,803.999
step02_gravity_refstate-crust.xmf,1446,2.61621e-07,2.04579e-07,0,4.54037e-07,-9.72756e+07,-9.72795e+07,-9.72936e+07,31146.9,-0.0110754,0.159879,-0,0.160262,-14681.2,-3542.79,-0,15102.6,31146.9
step02_gravity_refstate-crust.xmf,1447,2.9082e-07,5.8122e-07,0,8.99347e-07,-2.43645e+08,-2.43625e+08,-2.43665e+08,61695.2,-0.00754605,0.163282,-0,0.163456,-11749.5,-8872.21,-0,14723,61695.2
step02_gravity_refstate-crust.xmf,1448,2.92147e-07,-1.14034e-07,0,6.1109e-09,27616.8,-247.279,7575.49,419.208,-0.0158453,0.159072,-0,0.15986,-15217,0,-0,15217,419.208
step02_gravity_refstate-crust.xmf,1449,3.60919e-07,9.03468e-07,0,2.42217e-06,-6.3387e+08,-6.33833e+08,-6.33895e+08,166161,-0.0102331,0.165094,-0,0.165411,-6482.45,-23079.5,-0,23972.6,166161
step02_gravity_refstate-crust.xmf,1450,1.81809e-07,1.11312e-06,0,2.78795e-06,-6.7693e+08,-6.76867e+08,-6.76943e+08,191253,-0.0110419,0.16465,-0,0.16502,-6241.73,-24646.8,-0,25424.9,191253
step02_gravity_refstate-crust.xmf,1451,-5.53148e-07,1.96429e-06,0,3.65715e-06,-7.72144e+08,-7.71972e+08,-7.72106e+08,250880,-0.0117721,0.164327,-0,0.164748,-5498.13,-28111.5,-0,28644.1,250880
step02_gravity_refstate-crust.xmf,1452,3.05261e-07,9.64174e-07,0,1.55833e-06,-4.83014e+08,-4.82968e+08,-4.83035e+08,106901,-0.00815401,0.163173,-0,0.163377,-8629.85,-17587.3,-0,19590.5,106901
step02_gravity_refstate-crust.xmf,1453,3.39283e-07,9.61707e-07,0,2.22332e-06,-6.09171e+08,-6.09128e+08,-6.09194e+08,152520,-0.00986888,0.164173,-0,0.16447,-6918.85,-22180.3,-0,23234.4,152520
step02_gravity_refstate-crust.xmf,1454,3.25845e-07,9.89591e-07,0,2.05467e-06,-5.84562e+08,-5.84517e+08,-5.84584e+08,140950,-0.00950642,0.163605,-0,0.16388,-7308.96,-21284.4,-0,22504.4,140950
step02_gravity_refstate-crust.xmf,1455,2.98817e-07,1.02625e-06,0,1.90471e-06,-5.59212e+08,-5.59162e+08,-5.59232e+08,130663,-0.00917101,0.162959,-0,0.163217,-7770.55,-20361.5,-0,21793.8,130663
step02_gravity_refstate-crust.xmf,1456,2.68218e-07,1.05831e-06,0,1.7721e-06,-5.33278e+08,-5.33224e+08,-5.33296e+08,121566,-0.00885777,0.162343,-0,0.162585,-8275.06,-19417.2,-0,21107,121566
step02_gravity_refstate-crust.xmf,1457,-8.7536e-07,2.74956e-06,0,4.21739e-06,-8.37421e+08,-8.37172e+08,-8.37361e+08,289313,-0.00950457,0.166885,-0,0.167155,-4614.04,-30487.9,-0,30835,289313
step02_gravity_refstate-crust.xmf,1458,-3.98676e-07,4.34296e-06,0,5.98665e-06,-9.08891e+08,-9.08566e+08,-9.08864e+08,410684,-0.00160809,0.17319,-0,0.173197,-3478.51,-33094.2,-0,33276.5,410684
step02_gravity_refstate-crust.xmf,1459,-7.50078e-07,6.7818e-06,0,6.80141e-06,-9.51464e+08,-9.50947e+08,-9.51412e+08,466577,0.00419978,0.171167,0,0.171219,-3090.94,-34646.4,-0,34784.1,466577
step02_gravity_refstate-crust.xmf,1460,-1.08115e-06,9.9978e-06,0,6.36745e-06,-1.00137e+09,-1.00061e+09,-1.00129e+09,436807,0.0100742,0.159581,0,0.159898,-2863.8,-36466.9,-0,36579.2,436807
step02_gravity_refstate-crust.xmf,1461,-8.46804e-07,8.76618e-06,0,6.15172e-06,-9.86552e+08,-9.85893e+08,-9.86494e+08,422008,0.00873146,0.160416,0,0.160653,-3134.5,-35926.6,-0,36063,422008
step02_gravity_refstate-crust.xmf,1462,-6.86017e-07,7.62001e-06,0,6.03259e-06,-9.68891e+08,-9.68322e+08,-9.68844e+08,413836,0.00670561,0.162648,0,0.162786,-3327.42,-35282.5,-0,35439,413836
step02_gravity_refstate-crust.xmf,1463,-7.9285e-07,1.08922e-05,0,5.86615e-06,-1.02813e+09,-1.02733e+09,-1.02808e+09,402418,0.0121124,0.149265,0,0.149756,-2868.88,-37443.8,-0,37553.6,402418
step02_gravity_refstate-crust.xmf,1464,-3.50182e-06,1.72341e-05,0,5.79108e-06,-1.06823e+09,-1.0668e+09,-1.06798e+09,397268,0.00880789,0.145004,0,0.145271,-1527.61,-38902.3,-0,38932.3,397268
step02_gravity_refstate-crust.xmf,1465,-4.91698e-06,1.99851e-05,0,-1.59191e-06,-1.08829e+09,-1.08658e+09,-1.08795e+09,-109205,-0.0018941,0.137478,-0,0.137491,383.391,-39631.4,0,39633.2,109205
step02_gravity_refstate-crust.xmf,1466,2.14696e-07,8.77607e-07,0,1.17482e-06,-3.51892e+08,-3.51846e+08,-3.51906e+08,80592.8,-0.00740184,0.161777,-0,0.161947,-11076.2,-12813.2,-0,16936.9,80592.8
step02_gravity_refstate-crust.xmf,1467,2.26091e-07,9.27227e-07,0,1.26536e-06,-3.87375e+08,-3.87327e+08,-3.8739e+08,86803.4,-0.00750231,0.162024,-0,0.162197,-10444.7,-14105.1,-0,17551.2,86803.4
step02_gravity_refstate-crust.xmf,1468,2.42738e-07,9.60365e-07,0,1.35943e-06,-4.21283e+08,-4.21234e+08,-4.213e+08,93257.1,-0.00768444,0.162267,-0,0.162449,-9843.03,-15339.7,-0,18226.1,93257.1
step02_gravity_refstate-crust.xmf,1469,2.68679e-07,9.70187e-07,0,1.45405e-06,-4.5259e+08,-4.52542e+08,-4.52608e+08,99747.6,-0.00790118,0.162671,-0,0.162863,-9232.95,-16479.6,-0,18889.8,99747.6
step02_gravity_refstate-crust.xmf,1470,1.75148e-07,3.94962e-07,0,6.25782e-07,-1.46379e+08,-1.46364e+08,-1.46391e+08,42928.6,-0.00976066,0.158399,-0,0.1587,-15183.8,-5330.41,-0,16092.2,42928.6
step02_gravity_refstate-crust.xmf,1471,2.16448e-07,4.95367e-07,0,7.59893e-07,-1.88233e+08,-1.88214e+08,-1.88248e+08,52128.7,-0.00866777,0.160237,-0,0.160471,-13876.6,-6854.45,-0,15477.2,52128.7
step02_gravity_refstate-crust.xmf,1472,2.01617e-07,6.39849e-07,0,8.94356e-07,-2.37676e+08,-2.37646e+08,-2.3769e+08,61352.8,-0.0079454,0.16053,-0,0.160726,-13207.3,-8654.66,-0,15790.4,61352.8
step02_gravity_refstate-crust.xmf,1473,2.04294e-07,7.31265e-07,0,9.91904e-07,-2.7642e+08,-2.76384e+08,-2.76434e+08,68044.6,-0.0075836,0.161087,-0,0.161265,-12453.4,-10065.3,-0,16012.4,68044.6
step02_gravity_refstate-crust.xmf,1474,2.1074e-07,8.07296e-07,0,1.08302e-06,-3.14183e+08,-3.14142e+08,-3.14198e+08,74294.9,-0.00740744,0.161574,-0,0.161744,-11709.7,-11440.3,-0,16370.6,74294.9
step02_gravity_refstate-crust.xmf,1475,1.75756e-07,9.76461e-08,0,2.73011e-07,-5.34506e+07,-5.34559e+07,-5.34626e+07,18728.5,-0.0131513,0.157555,-0,0.158103,-16085.9,-1946.78,-0,16203.3,18728.5
step02_gravity_refstate-crust.xmf,1476,1.10156e-07,3.12486e-07,0,4.8688e-07,-1.10318e+08,-1.10304e+08,-1.10325e+08,33400,-0.0109872,0.156267,-0,0.156653,-16555.7,-4017.16,-0,17036.1,33400
step02_gravity_refstate-crust.xmf,1477,-2.36963e-07,1.58945e-06,0,3.33202e-06,-7.35723e+08,-7.35598e+08,-7.35707e+08,228577,-0.0117966,0.164065,-0,0.164489,-5859.77,-26786.2,-0,27419.7,228577
step02_gravity_refstate-crust.xmf,1478,8.31375e-08,1.30346e-06,0,2.57046e-06,-6.58954e+08,-6.5887e+08,-6.58959e+08,176334,-0.0108169,0.162164,-0,0.162524,-6915.12,-23992.2,-0,24968.9,176334
step02_gravity_refstate-crust.xmf,1479,-2.30775e-08,1.38871e-06,0,2.88241e-06,-6.93415e+08,-6.93319e+08,-6.93414e+08,197733,-0.0113262,0.162811,-0,0.163204,-6451.38,-25246.5,-0,26057.8,197733
step02_gravity_refstate-crust.xmf,1480,-1.21594e-07,1.49368e-06,0,3.06312e-06,-7.12363e+08,-7.12252e+08,-7.12354e+08,210130,-0.011565,0.163089,-0,0.163498,-6226.08,-25936.1,-0,26672.9,210130
step02_gravity_refstate-crust.xmf,1481,-4.61228e-07,1.90232e-06,0,3.41891e-06,-7.55072e+08,-7.54909e+08,-7.5504e+08,234537,-0.0117755,0.162842,-0,0.163267,-5861,-27490.2,-0,28108.1,234537
step02_gravity_refstate-crust.xmf,1482,2.43384e-07,1.07862e-06,0,1.66532e-06,-5.09729e+08,-5.09672e+08,-5.09746e+08,114241,-0.00859607,0.161853,-0,0.162081,-8747.12,-18559.8,-0,20517.8,114241
step02_gravity_refstate-crust.xmf,1483,-8.39402e-07,2.5713e-06,0,3.44696e-06,-7.89755e+08,-7.89521e+08,-7.89697e+08,236462,-0.0110787,0.160036,-0,0.160419,-5862.2,-28752.4,-0,29343.9,236462
step02_gravity_refstate-crust.xmf,1484,-9.20173e-07,2.71104e-06,0,3.93027e-06,-8.22848e+08,-8.22599e+08,-8.22785e+08,269616,-0.0102123,0.164216,-0,0.164534,-5018.43,-29957.1,-0,30374.5,269616
step02_gravity_refstate-crust.xmf,1485,-9.17488e-07,2.70759e-06,0,3.63842e-06,-8.08144e+08,-8.07895e+08,-8.08081e+08,249595,-0.010636,0.161454,-0,0.161804,-5478.17,-29421.8,-0,29927.4,249595
step02_gravity_refstate-crust.xmf,1486,-5.37617e-07,5.86417e-06,0,6.12083e-06,-9.37181e+08,-9.36741e+08,-9.37144e+08,419889,0.00241926,0.168879,0,0.168896,-3422.5,-34125.9,-0,34297.1,419889
step02_gravity_refstate-crust.xmf,1487,-9.35171e-07,3.30845e-06,0,3.89102e-06,-8.51715e+08,-8.51424e+08,-8.51651e+08,266924,-0.00793129,0.162159,-0,0.162353,-4910.59,-31008.9,-0,31395.3,266924
step02_gravity_refstate-crust.xmf,1488,-8.1253e-07,3.47227e-06,0,4.17568e-06,-8.67084e+08,-8.6679e+08,-8.67028e+08,286452,-0.00655532,0.16393,-0,0.164061,-4580.11,-31569.1,-0,31899.7,286452
step02_gravity_refstate-crust.xmf,1489,-6.47641e-07,3.65462e-06,0,4.61929e-06,-8.81785e+08,-8.8149e+08,-8.81741e+08,316883,-0.00499768,0.166498,-0,0.166573,-4214.95,-32105.3,-0,32380.8,316883
step02_gravity_refstate-crust.xmf,1490,-4.87162e-07,3.90528e-06,0,5.23218e-06,-8.956e+08,-8.95299e+08,-8.95567e+08,358928,-0.00333353,0.16966,-0,0.169693,-3843.1,-32609.3,-0,32835,358928
step02_gravity_refstate-crust.xmf,1491,-4.67193e-07,5.06536e-06,0,5.51258e-06,-9.22425e+08,-9.22045e+08,-9.22393e+08,378163,0.000449603,0.166966,0,0.166966,-3731.18,-33587.8,-0,33794.4,378163
step02_gravity_refstate-crust.xmf,1492,-5.88405e-07,9.7642e-06,0,5.60862e-06,-1.01439e+09,-1.01368e+09,-1.01435e+09,384751,0.011488,0.15047,0,0.150908,-3169.6,-36942.7,-0,37078.4,384751
step02_gravity_refstate-crust.xmf,1493,-1.01202e-06,1.20276e-05,0,6.01057e-06,-1.04229e+09,-1.0414e+09,-1.04222e+09,412325,0.0122402,0.146564,0,0.147074,-2612.73,-37960.2,-0,38050,412325
step02_gravity_refstate-crust.xmf,1494,-1.46826e-06,1.33411e-05,0,6.10848e-06,-1.05575e+09,-1.05474e+09,-1.05565e+09,419042,0.0116166,0.143594,0,0.144064,-2331.54,-38450.5,-0,38521.1,419042
step02_gravity_refstate-crust.xmf,1495,-2.1005e-06,1.46942e-05,0,5.95422e-06,-1.06824e+09,-1.06709e+09,-1.0681e+09,408460,0.0102477,0.140074,0,0.140448,-2051.81,-38904.6,-0,38958.7,408460
step02_gravity_refstate-crust.xmf,1496,-4.57884e-06,1.92204e-05,0,3.45192e-06,-1.08496e+09,-1.08333e+09,-1.08465e+09,236802,0.00441196,0.138325,0,0.138395,-867.607,-39510.3,-0,39519.8,236802
step02_gravity_refstate-crust.xmf,1497,-5.10031e-06,2.01224e-05,0,1.78428e-06,-1.08663e+09,-1.0849e+09,-1.08628e+09,122402,0.00221037,0.138603,0,0.138621,-430.872,-39570.2,-0,39572.6,122402
step02_gravity_refstate-crust.xmf,1498,5.73147e-08,-2.58647e-08,0,8.6507e-09,5269.41,-436.692,1337.63,593.438,-0.0162289,0.155334,-0,0.15618,-17380,0,-0,17380,593.438
step02_gravity_refstate-crust.xmf,1499,7.10545e-08,4.78657e-07,0,6.32654e-07,-1.5517e+08,-1.55142e+08,-1.55175e+08,43400.1,-0.00973244,0.155385,-0,0.155689,-16680.3,-5650.14,-0,17611.3,43400.1
step02_gravity_refstate-crust.xmf,1500,9.93809e-08,1.30995e-06,0,2.34169e-06,-6.32222e+08,-6.32139e+08,-6.32228e+08,160640,-0.0104173,0.161186,-0,0.161522,-7422.16,-23019.1,-0,24186.1,160640
step02_gravity_refstate-crust.xmf,1501,-5.71468e-08,1.48678e-06,0,2.71041e-06,-6.80789e+08,-6.80683e+08,-6.80785e+08,185934,-0.0111415,0.161157,-0,0.161542,-6894.78,-24786.9,-0,25727.9,185934
step02_gravity_refstate-crust.xmf,1502,-7.30771e-07,2.41838e-06,0,3.27282e-06,-7.70814e+08,-7.70598e+08,-7.70764e+08,224515,-0.0113332,0.159055,-0,0.159459,-6220.39,-28063.1,-0,28744.2,224515
step02_gravity_refstate-crust.xmf,1503,1.41706e-07,1.21291e-06,0,1.62653e-06,-5.00834e+08,-5.0076e+08,-5.00844e+08,111580,-0.0086243,0.159833,-0,0.160066,-9575.33,-18235.8,-0,20596.9,111580
step02_gravity_refstate-crust.xmf,1504,1.1308e-07,1.30506e-06,0,2.16207e-06,-6.06985e+08,-6.06903e+08,-6.06992e+08,148318,-0.0100421,0.160599,-0,0.160913,-7866.77,-22100.4,-0,23458.7,148318
step02_gravity_refstate-crust.xmf,1505,1.1481e-07,1.30498e-06,0,2.00934e-06,-5.82543e+08,-5.82461e+08,-5.82551e+08,137840,-0.00969294,0.160078,-0,0.160371,-8321.42,-21210.5,-0,22784.5,137840
step02_gravity_refstate-crust.xmf,1506,1.12278e-07,1.30064e-06,0,1.86988e-06,-5.56982e+08,-5.569e+08,-5.56989e+08,128274,-0.00934539,0.159634,-0,0.159907,-8804.77,-20279.9,-0,22108.8,128274
step02_gravity_refstate-crust.xmf,1507,1.16242e-07,1.27799e-06,0,1.74411e-06,-5.30299e+08,-5.30219e+08,-5.30307e+08,119646,-0.0089991,0.159438,-0,0.159692,-9258.96,-19308.5,-0,21413.7,119646
step02_gravity_refstate-crust.xmf,1508,-9.9557e-07,3.1642e-06,0,3.7325e-06,-8.37879e+08,-8.37594e+08,-8.37811e+08,256050,-0.0089438,0.161082,-0,0.16133,-5176.24,-30504.7,-0,30940.7,256050
step02_gravity_refstate-crust.xmf,1509,-5.02095e-07,4.50164e-06,0,5.05319e-06,-9.0878e+08,-9.08437e+08,-9.08746e+08,346649,-0.00140055,0.165636,-0,0.165642,-3984.87,-33090,-0,33329.1,346649
step02_gravity_refstate-crust.xmf,1510,-4.91138e-07,6.38656e-06,0,5.4684e-06,-9.52305e+08,-9.51833e+08,-9.52271e+08,375132,0.00469628,0.161128,0,0.161197,-3703.93,-34677.5,-0,34874.8,375132
step02_gravity_refstate-crust.xmf,1511,-4.44088e-07,8.73127e-06,0,5.36465e-06,-1.00057e+09,-9.99936e+08,-1.00054e+09,368015,0.0104502,0.151217,0,0.151577,-3461,-36438.3,-0,36602.3,368015
step02_gravity_refstate-crust.xmf,1512,-3.51632e-07,7.71997e-06,0,5.11394e-06,-9.83955e+08,-9.83402e+08,-9.83931e+08,350817,0.00879315,0.152428,0,0.152681,-3739.71,-35832.4,-0,36027,350817
step02_gravity_refstate-crust.xmf,1513,-2.86992e-07,9.68708e-06,0,5.30702e-06,-1.02754e+09,-1.02686e+09,-1.02752e+09,364062,0.012351,0.143587,0,0.144117,-3345.43,-37422.6,-0,37571.8,364062
step02_gravity_refstate-crust.xmf,1514,-3.91436e-07,1.04984e-05,0,5.46393e-06,-1.04061e+09,-1.03986e+09,-1.04058e+09,374825,0.0126128,0.141083,0,0.141646,-3143.42,-37899,-0,38029.1,374825
step02_gravity_refstate-crust.xmf,1515,-2.71373e-06,1.582e-05,0,5.60574e-06,-1.07642e+09,-1.07515e+09,-1.07623e+09,384553,0.00874384,0.137863,0,0.13814,-1785.33,-39201.7,-0,39242.3,384553
step02_gravity_refstate-crust.xmf,1516,-3.17843e-06,1.67778e-05,0,4.98623e-06,-1.08435e+09,-1.08298e+09,-1.08413e+09,342055,0.00683085,0.135359,0,0.135531,-1477.13,-39490,-0,39517.6,342055
step02_gravity_refstate-crust.xmf,1517,1.57858e-07,1.15896e-06,0,1.52959e-06,-4.74584e+08,-4.74515e+08,-4.74595e+08,104930,-0.00831997,0.160187,-0,0.160403,-9854.31,-17280.1,-0,19892.5,104930
step02_gravity_refstate-crust.xmf,1518,1.05388e-07,1.00013e-06,0,1.17192e-06,-3.49936e+08,-3.49875e+08,-3.49943e+08,80393.8,-0.00762706,0.158593,-0,0.158776,-12535.2,-12741.7,-0,17874.1,80393.8
step02_gravity_refstate-crust.xmf,1519,1.05453e-07,1.07512e-06,0,1.26528e-06,-3.86109e+08,-3.86042e+08,-3.86116e+08,86798.3,-0.00772706,0.158783,-0,0.158971,-11856.2,-14058.8,-0,18390.7,86798.3
step02_gravity_refstate-crust.xmf,1520,1.06362e-07,1.13792e-06,0,1.36e-06,-4.20497e+08,-4.20426e+08,-4.20504e+08,93295.7,-0.00791798,0.158917,-0,0.159114,-11224.5,-15310.8,-0,18984.5,93295.7
step02_gravity_refstate-crust.xmf,1521,1.03905e-07,1.20342e-06,0,1.46871e-06,-4.56358e+08,-4.56282e+08,-4.56365e+08,100753,-0.00820582,0.158927,-0,0.159138,-10620,-16616.4,-0,19720.3,100753
step02_gravity_refstate-crust.xmf,1522,9.2487e-08,5.81928e-07,0,7.50909e-07,-1.91079e+08,-1.91046e+08,-1.91086e+08,51512.4,-0.00891965,0.15638,-0,0.156634,-15812.9,-6957.71,-0,17275.9,51512.4
step02_gravity_refstate-crust.xmf,1523,1.01173e-07,7.05253e-07,0,8.73824e-07,-2.33431e+08,-2.33389e+08,-2.33438e+08,59944.3,-0.00824327,0.157184,-0,0.1574,-14913.5,-8499.78,-0,17165.6,59944.3
step02_gravity_refstate-crust.xmf,1524,1.01822e-07,8.21575e-07,0,9.83926e-07,-2.75049e+08,-2.74999e+08,-2.75056e+08,67497.3,-0.00783785,0.157744,-0,0.157938,-14079.6,-10015.1,-0,17278.2,67497.3
step02_gravity_refstate-crust.xmf,1525,1.04915e-07,9.15208e-07,0,1.07992e-06,-3.12998e+08,-3.12942e+08,-3.13005e+08,74082.5,-0.00765221,0.158278,-0,0.158463,-13263.5,-11396.8,-0,17487.4,74082.5
step02_gravity_refstate-crust.xmf,1526,-1.20104e-08,2.27571e-07,0,3.19424e-07,-6.97963e+07,-6.97799e+07,-6.97955e+07,21912.5,-0.0126083,0.153354,-0,0.153871,-18357,-2541.31,-0,18532.1,21912.5
step02_gravity_refstate-crust.xmf,1527,-9.39309e-09,4.67684e-07,0,5.63603e-07,-1.40281e+08,-1.40248e+08,-1.4028e+08,38663.2,-0.0101608,0.152949,-0,0.153286,-18093.5,-5107.75,-0,18800.6,38663.2
step02_gravity_refstate-crust.xmf,1528,-5.88797e-07,2.22122e-06,0,3.12847e-06,-7.50259e+08,-7.50067e+08,-7.50219e+08,214613,-0.0114807,0.158833,-0,0.159248,-6503.97,-27315,-0,28078.7,214613
step02_gravity_refstate-crust.xmf,1529,-1.55782e-07,1.70584e-06,0,2.38905e-06,-6.54586e+08,-6.54458e+08,-6.54575e+08,163889,-0.0107178,0.157619,-0,0.157983,-7961.13,-23832.9,-0,25127.4,163889
step02_gravity_refstate-crust.xmf,1530,-2.94716e-07,1.84462e-06,0,2.77579e-06,-7.01955e+08,-7.01809e+08,-7.01935e+08,190419,-0.0113026,0.158753,-0,0.159155,-7110.33,-25557.1,-0,26527.7,190419
step02_gravity_refstate-crust.xmf,1531,-2.26402e-07,1.78638e-06,0,2.56394e-06,-6.78582e+08,-6.78443e+08,-6.78566e+08,175886,-0.0110205,0.157888,-0,0.158273,-7578.23,-24706.3,-0,25842.4,175886
step02_gravity_refstate-crust.xmf,1532,-4.64535e-07,2.07097e-06,0,2.9631e-06,-7.29935e+08,-7.29761e+08,-7.29903e+08,203269,-0.0114571,0.158483,-0,0.158897,-6810.6,-26575.3,-0,27434.2,203269
step02_gravity_refstate-crust.xmf,1533,-9.4038e-07,2.93642e-06,0,3.02925e-06,-7.88578e+08,-7.88312e+08,-7.88513e+08,207806,-0.010448,0.154463,-0,0.154816,-6620.26,-28709.7,-0,29463.1,207806
step02_gravity_refstate-crust.xmf,1534,-1.01738e-06,3.12488e-06,0,3.14791e-06,-8.0819e+08,-8.07906e+08,-8.08121e+08,215946,-0.00989108,0.155124,-0,0.155439,-6245.03,-29423.7,-0,30079.1,215946
step02_gravity_refstate-crust.xmf,1535,-1.04669e-06,3.30164e-06,0,3.32559e-06,-8.28429e+08,-8.28131e+08,-8.28357e+08,228135,-0.00907317,0.15662,-0,0.156882,-5779.66,-30160.7,-0,30709.4,228135
step02_gravity_refstate-crust.xmf,1536,-1.0145e-06,3.59572e-06,0,3.35701e-06,-8.49279e+08,-8.48962e+08,-8.49209e+08,230291,-0.00753168,0.155962,-0,0.156144,-5565.13,-30920.3,-0,31417.1,230291
step02_gravity_refstate-crust.xmf,1537,-4.30927e-07,5.63376e-06,0,4.95365e-06,-9.36492e+08,-9.36076e+08,-9.36462e+08,339821,0.0026137,0.159928,0,0.15995,-4028.71,-34100.9,-0,34338,339821
step02_gravity_refstate-crust.xmf,1538,-9.14569e-07,3.80531e-06,0,3.51936e-06,-8.66441e+08,-8.66118e+08,-8.66379e+08,241428,-0.00604457,0.15667,-0,0.156786,-5257.14,-31545.9,-0,31980.9,241428
step02_gravity_refstate-crust.xmf,1539,-7.70044e-07,4.03944e-06,0,3.79747e-06,-8.83052e+08,-8.82722e+08,-8.82999e+08,260506,-0.00434394,0.158031,-0,0.158091,-4907.78,-32151.5,-0,32524,260506
step02_gravity_refstate-crust.xmf,1540,-5.97085e-07,4.39108e-06,0,4.26147e-06,-9.00818e+08,-9.00476e+08,-9.00777e+08,292337,-0.00224865,0.160143,-0,0.160159,-4498.28,-32799.6,-0,33106.6,292337
step02_gravity_refstate-crust.xmf,1541,-4.73371e-07,4.98261e-06,0,4.5297e-06,-9.20166e+08,-9.19792e+08,-9.20134e+08,310737,0.000393408,0.159266,0,0.159266,-4310.33,-33505.4,-0,33781.5,310737
step02_gravity_refstate-crust.xmf,1542,-2.9256e-07,6.82747e-06,0,4.79571e-06,-9.67937e+08,-9.67449e+08,-9.67917e+08,328985,0.00692754,0.152774,0,0.152931,-4030.99,-35248.1,-0,35477.8,328985
step02_gravity_refstate-crust.xmf,1543,-1.98752e-08,8.60118e-06,0,4.84375e-06,-1.01778e+09,-1.01719e+09,-1.01778e+09,332281,0.011908,0.141778,0,0.142278,-3782.33,-37066.4,-0,37258.9,332281
step02_gravity_refstate-crust.xmf,1544,6.02168e-08,9.13398e-06,0,4.90249e-06,-1.03692e+09,-1.0363e+09,-1.03693e+09,336311,0.0126713,0.135997,0,0.136586,-3742.8,-37764.7,-0,37949.7,336311
step02_gravity_refstate-crust.xmf,1545,-7.1042e-07,1.15916e-05,0,5.67497e-06,-1.05541e+09,-1.05456e+09,-1.05536e+09,389303,0.0122137,0.138092,0,0.138631,-2865.82,-38438.2,-0,38544.9,389303
step02_gravity_refstate-crust.xmf,1546,-1.18353e-06,1.27467e-05,0,5.7536e-06,-1.06972e+09,-1.06876e+09,-1.06964e+09,394697,0.0109856,0.134403,0,0.134851,-2589.35,-38959.1,-0,39045,394697
step02_gravity_refstate-crust.xmf,1547,-2.06031e-06,1.45416e-05,0,5.51661e-06,-1.08398e+09,-1.08284e+09,-1.08384e+09,378439,0.00847795,0.131372,0,0.131645,-2089.75,-39477.5,-0,39532.8,378439
step02_gravity_refstate-crust.xmf,1548,3.63952e-08,1.35561e-06,0,1.57384e-06,-4.92234e+08,-4.92143e+08,-4.92236e+08,107966,-0.00860511,0.157366,-0,0.157601,-10581.2,-17922.5,-0,20812.9,107966
step02_gravity_refstate-crust.xmf,1549,-3.86727e-09,6.32004e-07,0,7.14249e-07,-1.88986e+08,-1.88942e+08,-1.88986e+08,48997.5,-0.00903218,0.153105,-0,0.153371,-17503.5,-6881.18,-0,18807.5,48997.5
step02_gravity_refstate-crust.xmf,1550,-1.67317e-07,6.13795e-08,0,6.89987e-09,-15983.6,-295.08,-4505.71,473.331,-0.0161172,0.151556,-0,0.15241,-19595.1,0,-0,19595.1,473.331
step02_gravity_refstate-crust.xmf,1551,-1.0885e-07,1.65098e-06,0,2.21968e-06,-6.29949e+08,-6.29828e+08,-6.29941e+08,152270,-0.0103793,0.157234,-0,0.157576,-8401.92,-22936,-0,24426.5,152270
step02_gravity_refstate-crust.xmf,1552,-8.3654e-07,2.74849e-06,0,2.91259e-06,-7.68355e+08,-7.68109e+08,-7.68298e+08,199804,-0.0107979,0.154069,-0,0.154447,-6980.37,-27973.6,-0,28831.4,199804
step02_gravity_refstate-crust.xmf,1553,-1.24004e-08,1.46487e-06,0,1.68405e-06,-5.24765e+08,-5.24664e+08,-5.24764e+08,115526,-0.0089798,0.156496,-0,0.156753,-10309.6,-19106.8,-0,21710.8,115526
step02_gravity_refstate-crust.xmf,1554,-7.62245e-08,1.60623e-06,0,2.07122e-06,-6.05718e+08,-6.05602e+08,-6.05713e+08,142086,-0.0100413,0.156921,-0,0.157242,-8845.89,-22053.9,-0,23761.9,142086
step02_gravity_refstate-crust.xmf,1555,-6.02651e-08,1.57684e-06,0,1.93476e-06,-5.81277e+08,-5.81165e+08,-5.81273e+08,132724,-0.00970261,0.156519,-0,0.15682,-9344.11,-21164.2,-0,23135.1,132724
step02_gravity_refstate-crust.xmf,1556,-4.36568e-08,1.53761e-06,0,1.80677e-06,-5.54944e+08,-5.54836e+08,-5.54941e+08,123944,-0.00935286,0.156265,-0,0.156544,-9859.73,-20205.5,-0,22482.8,123944
step02_gravity_refstate-crust.xmf,1557,-2.86766e-07,5.97041e-06,0,4.42367e-06,-9.51551e+08,-9.51122e+08,-9.51532e+08,303464,0.00483939,0.152668,0,0.152745,-4334.94,-34650.3,-0,34920.4,303464
step02_gravity_refstate-crust.xmf,1558,-5.82764e-09,7.69609e-06,0,4.56429e-06,-9.99657e+08,-9.99129e+08,-9.99657e+08,313110,0.0105023,0.143839,0,0.144222,-4071.03,-36405.4,-0,36632.3,313110
step02_gravity_refstate-crust.xmf,1559,-3.09003e-09,6.96554e-06,0,4.24601e-06,-9.83881e+08,-9.83403e+08,-9.83881e+08,291277,0.00889867,0.144506,0,0.14478,-4375.62,-35829.9,-0,36096.1,291277
step02_gravity_refstate-crust.xmf,1560,-1.49266e-07,1.01353e-05,0,5.22064e-06,-1.05346e+09,-1.05275e+09,-1.05345e+09,358136,0.0125325,0.133303,0,0.13389,-3428.59,-38367.3,-0,38520.2,358136
step02_gravity_refstate-crust.xmf,1561,1.12211e-08,1.10165e-06,0,1.14409e-06,-3.47445e+08,-3.4737e+08,-3.47446e+08,78484.3,-0.00770742,0.155376,-0,0.155567,-14003,-12650.8,-0,18871.3,78484.3
step02_gravity_refstate-crust.xmf,1562,2.26496e-09,1.19767e-06,0,1.23527e-06,-3.83332e+08,-3.8325e+08,-3.83332e+08,84739.3,-0.00779075,0.155475,-0,0.15567,-13307.5,-13957.5,-0,19284.7,84739.3
step02_gravity_refstate-crust.xmf,1563,-7.81536e-09,1.28697e-06,0,1.33149e-06,-4.19342e+08,-4.19253e+08,-4.19341e+08,91340.5,-0.00797739,0.155533,-0,0.155738,-12608.9,-15268.5,-0,19801.8,91340.5
step02_gravity_refstate-crust.xmf,1564,-1.93181e-08,1.36517e-06,0,1.42609e-06,-4.52355e+08,-4.5226e+08,-4.52354e+08,97829.9,-0.00822532,0.155522,-0,0.15574,-11986.8,-16470.5,-0,20370.6,97829.9
step02_gravity_refstate-crust.xmf,1565,3.28221e-09,7.71406e-07,0,8.39317e-07,-2.3203e+08,-2.31977e+08,-2.3203e+08,57577.1,-0.00835145,0.153637,-0,0.153864,-16680.1,-8448.49,-0,18697.7,57577.1
step02_gravity_refstate-crust.xmf,1566,3.39801e-09,9.06034e-07,0,9.54851e-07,-2.74779e+08,-2.74717e+08,-2.74779e+08,65502.8,-0.00793026,0.154114,-0,0.154318,-15811.7,-10005,-0,18711.3,65502.8
step02_gravity_refstate-crust.xmf,1567,7.72071e-09,1.01367e-06,0,1.05684e-06,-3.13194e+08,-3.13125e+08,-3.13195e+08,72499.3,-0.00774185,0.154839,-0,0.155033,-14841.9,-11403.7,-0,18717,72499.3
step02_gravity_refstate-crust.xmf,1568,-2.01104e-07,2.73733e-07,0,2.57705e-07,-6.13512e+07,-6.13186e+07,-6.13374e+07,17678.5,-0.0127138,0.149184,-0,0.149725,-20776.9,-2233.16,-0,20896.6,17678.5
step02_gravity_refstate-crust.xmf,1569,-1.18777e-07,4.54577e-07,0,4.76441e-07,-1.22888e+08,-1.22849e+08,-1.2288e+08,32683.8,-0.0105536,0.149869,-0,0.15024,-19922,-4474.08,-0,20418.2,32683.8
step02_gravity_refstate-crust.xmf,1570,-9.23218e-08,6.49711e-07,0,6.51163e-07,-1.8054e+08,-1.80489e+08,-1.80534e+08,44669.8,-0.00911996,0.150001,-0,0.150278,-19222.4,-6573.38,-0,20315.3,44669.8
step02_gravity_refstate-crust.xmf,1571,-3.7265e-07,1.39964e-07,0,5.54718e-09,-35460.4,-295.092,-9896.62,380.536,-0.015511,0.147843,-0,0.148654,-21869,0,-0,21869,380.536
step02_gravity_refstate-crust.xmf,1572,-7.18755e-07,2.56255e-06,0,2.7932e-06,-7.47164e+08,-7.46939e+08,-7.47115e+08,191613,-0.0109846,0.15392,-0,0.154312,-7326.9,-27202.3,-0,28171.8,191613
step02_gravity_refstate-crust.xmf,1573,-3.25592e-07,2.01388e-06,0,2.2157e-06,-6.52597e+08,-6.52437e+08,-6.52575e+08,151997,-0.0104658,0.153473,-0,0.15383,-8939.11,-23760.3,-0,25386.2,151997
step02_gravity_refstate-crust.xmf,1574,-3.9883e-07,2.11466e-06,0,2.35906e-06,-6.76611e+08,-6.76438e+08,-6.76583e+08,161832,-0.0107178,0.153582,-0,0.153956,-8510.89,-24634.3,-0,26063.1,161832
step02_gravity_refstate-crust.xmf,1575,-4.87564e-07,2.23318e-06,0,2.5107e-06,-7.0049e+08,-7.00304e+08,-7.00457e+08,172234,-0.010918,0.153761,-0,0.154148,-8085.82,-25503.5,-0,26754.6,172234
step02_gravity_refstate-crust.xmf,1576,-5.94688e-07,2.38055e-06,0,2.66142e-06,-7.2419e+08,-7.23986e+08,-7.24149e+08,182573,-0.0110249,0.153908,-0,0.154303,-7684.04,-26366.1,-0,27463,182573
step02_gravity_refstate-crust.xmf,1577,-9.8491e-07,3.1979e-06,0,2.64746e-06,-7.87106e+08,-7.86819e+08,-7.87038e+08,181616,-0.00973155,0.149121,-0,0.149439,-7427.46,-28656.3,-0,29603.3,181616
step02_gravity_refstate-crust.xmf,1578,-1.04653e-06,3.39183e-06,0,2.71785e-06,-8.07203e+08,-8.06899e+08,-8.07131e+08,186445,-0.00911299,0.149258,-0,0.149536,-7051.98,-29388.1,-0,30222.3,186445
step02_gravity_refstate-crust.xmf,1579,-1.06913e-06,3.58809e-06,0,2.78785e-06,-8.26842e+08,-8.26523e+08,-8.26769e+08,191247,-0.00823647,0.149497,-0,0.149724,-6679.35,-30103.2,-0,30835.4,191247
step02_gravity_refstate-crust.xmf,1580,-1.03792e-06,3.78731e-06,0,2.87322e-06,-8.46203e+08,-8.45872e+08,-8.46132e+08,197103,-0.00705648,0.149875,-0,0.150042,-6304.81,-30808.5,-0,31447.1,197103
step02_gravity_refstate-crust.xmf,1581,-9.4842e-07,4.00092e-06,0,2.96656e-06,-8.64772e+08,-8.64433e+08,-8.64707e+08,203506,-0.00555252,0.150028,-0,0.15013,-5981.17,-31485.3,-0,32048.3,203506
step02_gravity_refstate-crust.xmf,1582,-3.4646e-07,5.40916e-06,0,4.00495e-06,-9.35197e+08,-9.34802e+08,-9.35173e+08,274740,0.00268074,0.151872,0,0.151896,-4675.8,-34053.8,-0,34373.3,274740
step02_gravity_refstate-crust.xmf,1583,-8.12104e-07,4.2247e-06,0,3.13348e-06,-8.82345e+08,-8.81999e+08,-8.82289e+08,214957,-0.00385479,0.150595,-0,0.150644,-5636.92,-32125.9,-0,32616.7,214957
step02_gravity_refstate-crust.xmf,1584,-6.47194e-07,4.50498e-06,0,3.38612e-06,-8.99665e+08,-8.99311e+08,-8.9962e+08,232288,-0.00191607,0.151399,-0,0.151411,-5284.02,-32757.5,-0,33181,232288
step02_gravity_refstate-crust.xmf,1585,-4.79303e-07,4.88801e-06,0,3.68878e-06,-9.17263e+08,-9.16895e+08,-9.1723e+08,253050,0.000292993,0.151918,0,0.151918,-4960.33,-33399.5,-0,33765.8,253050
step02_gravity_refstate-crust.xmf,1586,-5.15068e-08,6.26953e-06,0,3.94037e-06,-9.67341e+08,-9.66908e+08,-9.67338e+08,270309,0.00696522,0.144987,0,0.145155,-4680.92,-35226.5,-0,35536.2,270309
step02_gravity_refstate-crust.xmf,1587,2.69574e-07,7.71191e-06,0,4.2667e-06,-1.01412e+09,-1.01361e+09,-1.01413e+09,292695,0.0116116,0.136878,0,0.137369,-4333.05,-36933,-0,37186.3,292695
step02_gravity_refstate-crust.xmf,1588,3.65649e-07,8.13214e-06,0,4.38412e-06,-1.0328e+09,-1.03227e+09,-1.03283e+09,300750,0.0124677,0.131774,0,0.132363,-4303.28,-37614.3,-0,37859.6,300750
step02_gravity_refstate-crust.xmf,1589,2.16192e-07,8.97024e-06,0,4.75985e-06,-1.05117e+09,-1.05057e+09,-1.05119e+09,326526,0.0125819,0.128765,0,0.129379,-4007.85,-38283.8,-0,38493,326526
step02_gravity_refstate-crust.xmf,1590,-5.61788e-07,1.12245e-05,0,5.47224e-06,-1.069e+09,-1.0682e+09,-1.06897e+09,375396,0.0115058,0.130118,0,0.130625,-3113.52,-38933.2,-0,39057.5,375396
step02_gravity_refstate-crust.xmf,1591,-1.1194e-06,1.24487e-05,0,5.61093e-06,-1.0844e+09,-1.08347e+09,-1.08433e+09,384910,0.00942927,0.126443,0,0.126794,-2739.67,-39493.5,-0,39588.4,384910
step02_gravity_refstate-crust.xmf,1592,-3.80664e-08,1.44156e-06,0,1.5113e-06,-4.80843e+08,-4.80742e+08,-4.8084e+08,103675,-0.00848616,0.155267,-0,0.155498,-11540,-17507.7,-0,20968.8,103675
step02_gravity_refstate-crust.xmf,1593,-1.2999e-07,1.62841e-06,0,1.59245e-06,-5.1602e+08,-5.15899e+08,-5.16011e+08,109242,-0.00879925,0.153164,-0,0.153417,-11588,-18788.2,-0,22074.4,109242
step02_gravity_refstate-crust.xmf,1594,-5.98614e-08,1.17952e-06,0,1.10478e-06,-3.45846e+08,-3.45761e+08,-3.45842e+08,75787.6,-0.00767637,0.152537,-0,0.15273,-15294.8,-12592.4,-0,19811.6,75787.6
step02_gravity_refstate-crust.xmf,1595,-8.36139e-08,8.16203e-07,0,7.84176e-07,-2.28339e+08,-2.28278e+08,-2.28334e+08,53794.5,-0.00832957,0.15019,-0,0.150421,-18461.2,-8313.85,-0,20246.9,53794.5
step02_gravity_refstate-crust.xmf,1596,-3.63337e-07,3.21244e-07,0,2.12549e-07,-5.70514e+07,-5.70044e+07,-5.70265e+07,14580.8,-0.0122659,0.145549,-0,0.146065,-23020.5,-2076.04,-0,23113.9,14580.8
step02_gravity_refstate-crust.xmf,1597,-5.55947e-07,2.09712e-07,0,5.01442e-09,-52864.1,-339.792,-14726.1,343.989,-0.0144304,0.144303,-0,0.145023,-24208.2,0,-0,24208.2,343.989
step02_gravity_refstate-crust.xmf,1598,-2.64869e-07,1.92174e-06,0,2.08721e-06,-6.28741e+08,-6.28591e+08,-6.28723e+08,143183,-0.0101903,0.153489,-0,0.153827,-9349.63,-22891.9,-0,24727.6,143183
step02_gravity_refstate-crust.xmf,1599,-8.9801e-07,3.00651e-06,0,2.56969e-06,-7.66226e+08,-7.65958e+08,-7.66164e+08,176281,-0.0101427,0.1491,-0,0.149445,-7806.73,-27896.2,-0,28968,176281
step02_gravity_refstate-crust.xmf,1600,-1.77624e-07,1.75019e-06,0,1.7153e-06,-5.52708e+08,-5.52576e+08,-5.52696e+08,117669,-0.00920025,0.15264,-0,0.152917,-11022.2,-20123.9,-0,22944.7,117669
step02_gravity_refstate-crust.xmf,1601,-2.23988e-07,1.84735e-06,0,1.96735e-06,-6.04735e+08,-6.04593e+08,-6.0472e+08,134960,-0.00989022,0.153425,-0,0.153744,-9797.26,-22017.9,-0,24099.3,134960
step02_gravity_refstate-crust.xmf,1602,-2.13526e-07,1.82863e-06,0,1.83646e-06,-5.81813e+08,-5.81673e+08,-5.81798e+08,125981,-0.00955596,0.15263,-0,0.152928,-10452.2,-21183.5,-0,23621.7,125981
step02_gravity_refstate-crust.xmf,1603,-1.10433e-07,5.64185e-06,0,3.50037e-06,-9.52011e+08,-9.51617e+08,-9.52004e+08,240126,0.00505382,0.143743,0,0.143832,-5097.74,-34667.2,-0,35040,240126
step02_gravity_refstate-crust.xmf,1604,2.80725e-07,7.01829e-06,0,3.95381e-06,-1.0009e+09,-1.00044e+09,-1.00092e+09,271232,0.0105346,0.137155,0,0.137559,-4650.69,-36450.9,-0,36746.4,271232
step02_gravity_refstate-crust.xmf,1605,2.52237e-07,6.32211e-06,0,3.5388e-06,-9.8497e+08,-9.84554e+08,-9.84988e+08,242761,0.00892836,0.136803,0,0.137094,-5070.67,-35869.6,-0,36226.3,242761
step02_gravity_refstate-crust.xmf,1606,-7.35819e-08,9.892e-06,0,5.09984e-06,-1.06768e+09,-1.067e+09,-1.06768e+09,349849,0.011802,0.125732,0,0.126285,-3698.15,-38885.1,-0,39060.6,349849
step02_gravity_refstate-crust.xmf,1607,-8.09278e-08,1.29053e-06,0,1.18165e-06,-3.78784e+08,-3.7869e+08,-3.78779e+08,81061.4,-0.00772019,0.152222,-0,0.152418,-14784,-13791.7,-0,20218.3,81061.4
step02_gravity_refstate-crust.xmf,1608,-1.04342e-07,1.4121e-06,0,1.27648e-06,-4.17202e+08,-4.17098e+08,-4.17195e+08,87566.5,-0.00788366,0.152005,-0,0.15221,-14081.7,-15190.4,-0,20713.3,87566.5
step02_gravity_refstate-crust.xmf,1609,-1.25893e-07,1.51963e-06,0,1.37398e-06,-4.53747e+08,-4.53634e+08,-4.53738e+08,94255.3,-0.00813649,0.151919,-0,0.152136,-13340.4,-16521,-0,21234.6,94255.3
step02_gravity_refstate-crust.xmf,1610,-1.46382e-07,1.61003e-06,0,1.47062e-06,-4.86465e+08,-4.86344e+08,-4.86455e+08,100885,-0.00842986,0.151911,-0,0.152144,-12644,-17712.1,-0,21762.1,100885
step02_gravity_refstate-crust.xmf,1611,-8.47343e-08,9.75071e-07,0,9.02466e-07,-2.73783e+08,-2.7371e+08,-2.73777e+08,61909.1,-0.00786466,0.150407,-0,0.150612,-17614.2,-9968.49,-0,20239.4,61909.1
step02_gravity_refstate-crust.xmf,1612,-9.36907e-08,1.13939e-06,0,1.02086e-06,-3.21294e+08,-3.21209e+08,-3.21287e+08,70031.1,-0.007638,0.150641,-0,0.150835,-16631.3,-11698.4,-0,20333.5,70031.1
step02_gravity_refstate-crust.xmf,1613,-2.42903e-07,4.76312e-07,0,4.07606e-07,-1.14646e+08,-1.14596e+08,-1.14629e+08,27961.7,-0.0104461,0.146458,-0,0.14683,-21952.7,-4173.55,-0,22346,27961.7
step02_gravity_refstate-crust.xmf,1614,-1.8411e-07,6.55872e-07,0,5.75137e-07,-1.70288e+08,-1.7023e+08,-1.70275e+08,39454.4,-0.00909307,0.146845,-0,0.147126,-21071.7,-6199.77,-0,21964.8,39454.4
step02_gravity_refstate-crust.xmf,1615,-1.61996e-07,8.39276e-07,0,7.1333e-07,-2.22061e+08,-2.21993e+08,-2.2205e+08,48934.4,-0.00820379,0.146896,-0,0.147125,-20274.1,-8085.01,-0,21826.7,48934.4
step02_gravity_refstate-crust.xmf,1616,-5.07844e-07,3.7564e-07,0,1.78494e-07,-5.68157e+07,-5.67551e+07,-5.67809e+07,12244.7,-0.0112629,0.142072,-0,0.142518,-25351.9,-2066.96,-0,25436,12244.7
step02_gravity_refstate-crust.xmf,1617,-7.9884e-07,2.8231e-06,0,2.48207e-06,-7.44535e+08,-7.44286e+08,-7.4448e+08,170270,-0.0103787,0.149178,-0,0.149538,-8190.15,-27106.7,-0,28317,170270
step02_gravity_refstate-crust.xmf,1618,-4.41694e-07,2.24645e-06,0,2.04605e-06,-6.50964e+08,-6.5078e+08,-6.50934e+08,140359,-0.0100991,0.149669,-0,0.15001,-9881.3,-23700.7,-0,25678.1,140359
step02_gravity_refstate-crust.xmf,1619,-5.22731e-07,2.37995e-06,0,2.15013e-06,-6.75512e+08,-6.75313e+08,-6.75476e+08,147499,-0.0102711,0.149303,-0,0.149656,-9479.68,-24594.2,-0,26357.9,147499
step02_gravity_refstate-crust.xmf,1620,-6.07331e-07,2.51206e-06,0,2.26619e-06,-6.99276e+08,-6.99062e+08,-6.99234e+08,155461,-0.0104062,0.149239,-0,0.149601,-9030.44,-25459.3,-0,27013.4,155461
step02_gravity_refstate-crust.xmf,1621,-7.0054e-07,2.65994e-06,0,2.37808e-06,-7.22322e+08,-7.22092e+08,-7.22274e+08,163137,-0.0104506,0.149193,-0,0.149559,-8600.98,-26298.2,-0,27668.9,163137
step02_gravity_refstate-crust.xmf,1622,-9.90207e-07,3.384e-06,0,2.31005e-06,-7.86196e+08,-7.85896e+08,-7.86128e+08,158469,-0.0089495,0.144089,-0,0.144367,-8259.66,-28623.5,-0,29791.4,158469
step02_gravity_refstate-crust.xmf,1623,-1.03447e-06,3.57063e-06,0,2.34923e-06,-8.06623e+08,-8.06307e+08,-8.06552e+08,161157,-0.008294,0.143884,-0,0.144123,-7870.42,-29367.3,-0,30403.6,161157
step02_gravity_refstate-crust.xmf,1624,-1.04429e-06,3.75082e-06,0,2.39248e-06,-8.26158e+08,-8.25829e+08,-8.26086e+08,164124,-0.00744012,0.143853,-0,0.144046,-7478.47,-30078.7,-0,30994.4,164124
step02_gravity_refstate-crust.xmf,1625,-1.01316e-06,3.92101e-06,0,2.45362e-06,-8.44805e+08,-8.44466e+08,-8.44735e+08,168318,-0.00638191,0.144051,-0,0.144192,-7081.15,-30757.9,-0,31562.5,168318
step02_gravity_refstate-crust.xmf,1626,-9.32632e-07,4.11113e-06,0,2.51843e-06,-8.63446e+08,-8.631e+08,-8.63382e+08,172764,-0.00499172,0.144037,-0,0.144124,-6723.19,-31437.2,-0,32148.1,172764
step02_gravity_refstate-crust.xmf,1627,-7.97895e-07,4.3186e-06,0,2.6026e-06,-8.81707e+08,-8.81356e+08,-8.81652e+08,178538,-0.00331748,0.143887,-0,0.143925,-6396.54,-32102.9,-0,32733.9,178538
step02_gravity_refstate-crust.xmf,1628,-2.75514e-07,5.18806e-06,0,3.24153e-06,-9.33693e+08,-9.33318e+08,-9.33674e+08,222369,0.00269429,0.144465,0,0.144491,-5375.43,-33998.9,-0,34421.2,222369
step02_gravity_refstate-crust.xmf,1629,-6.32765e-07,4.54949e-06,0,2.7593e-06,-8.99367e+08,-8.99011e+08,-8.99323e+08,189288,-0.00146773,0.144102,-0,0.14411,-6043.76,-32746.8,-0,33299.9,189288
step02_gravity_refstate-crust.xmf,1630,-4.48823e-07,4.83365e-06,0,2.96468e-06,-9.16798e+08,-9.16435e+08,-9.16767e+08,203377,0.000580622,0.144196,0,0.144197,-5713.72,-33382.6,-0,33868,203377
step02_gravity_refstate-crust.xmf,1631,9.51607e-08,5.90873e-06,0,3.38571e-06,-9.68253e+08,-9.67854e+08,-9.68259e+08,232260,0.00706307,0.138958,0,0.139137,-5229.73,-35259.7,-0,35645.5,232260
step02_gravity_refstate-crust.xmf,1632,4.95614e-07,7.2021e-06,0,3.86903e-06,-1.01973e+09,-1.01927e+09,-1.01976e+09,265415,0.0117374,0.130353,0,0.130881,-4847.5,-37137.4,-0,37452.4,265415
step02_gravity_refstate-crust.xmf,1633,4.7462e-07,8.02867e-06,0,4.30678e-06,-1.05023e+09,-1.04971e+09,-1.05026e+09,295445,0.0123885,0.123804,0,0.124422,-4626.87,-38248.9,-0,38527.7,295445
step02_gravity_refstate-crust.xmf,1634,2.28719e-07,8.813e-06,0,4.70224e-06,-1.06645e+09,-1.06586e+09,-1.06647e+09,322573,0.0118467,0.121348,0,0.121925,-4307.28,-38839.8,-0,39077.9,322573
step02_gravity_refstate-crust.xmf,1635,-5.37828e-07,1.09193e-05,0,5.38327e-06,-1.08346e+09,-1.08267e+09,-1.08342e+09,369292,0.0100811,0.122327,0,0.122742,-3363.23,-39459,-0,39602.1,369292
step02_gravity_refstate-crust.xmf,1636,-2.85058e-07,1.93254e-06,0,1.60886e-06,-5.51909e+08,-5.51757e+08,-5.5189e+08,110368,-0.00891493,0.148896,-0,0.149163,-12233.4,-20094.7,-0,23525.5,110368
step02_gravity_refstate-crust.xmf,1637,-1.34495e-07,1.31835e-06,0,1.10497e-06,-3.65739e+08,-3.65639e+08,-3.6573e+08,75800.8,-0.00756055,0.149478,-0,0.149669,-16256.7,-13316.6,-0,21014.6,75800.8
step02_gravity_refstate-crust.xmf,1638,-1.5877e-07,1.01832e-06,0,8.32192e-07,-2.70523e+08,-2.70442e+08,-2.70512e+08,57088.4,-0.00767415,0.14685,-0,0.14705,-19443.8,-9849.58,-0,21796.2,57088.4
step02_gravity_refstate-crust.xmf,1639,-3.5601e-07,5.02426e-07,0,3.46248e-07,-1.09411e+08,-1.09353e+08,-1.09387e+08,23752.6,-0.0100092,0.143288,-0,0.143637,-23964.4,-3982.57,-0,24293.1,23752.6
step02_gravity_refstate-crust.xmf,1640,-7.13225e-07,2.68625e-07,0,5.98894e-09,-67837,-482.057,-18909.7,410.842,-0.0129006,0.141039,-0,0.141628,-26619.5,0,-0,26619.5,410.842
step02_gravity_refstate-crust.xmf,1641,-3.74835e-07,2.13102e-06,0,1.96252e-06,-6.29151e+08,-6.28979e+08,-6.29126e+08,134629,-0.00992653,0.150199,-0,0.150527,-10186,-22906.7,-0,25069.3,134629
step02_gravity_refstate-crust.xmf,1642,-9.2284e-07,3.204e-06,0,2.25594e-06,-7.6521e+08,-7.64927e+08,-7.65147e+08,154758,-0.00938602,0.144246,-0,0.144551,-8673.91,-27859.5,-0,29178.5,154758
step02_gravity_refstate-crust.xmf,1643,-3.37858e-07,2.05481e-06,0,1.7077e-06,-5.8292e+08,-5.82756e+08,-5.82897e+08,117148,-0.00922778,0.148451,-0,0.148738,-11668,-21223.6,-0,24219.5,117148
step02_gravity_refstate-crust.xmf,1644,-3.98861e-07,2.1826e-06,0,1.82339e-06,-6.14152e+08,-6.13975e+08,-6.14124e+08,125084,-0.00955212,0.148182,-0,0.14849,-11047.9,-22360.6,-0,24941,125084
step02_gravity_refstate-crust.xmf,1645,1.02397e-07,5.56498e-06,0,2.96131e-06,-9.62081e+08,-9.61706e+08,-9.62088e+08,203146,0.00629345,0.135622,0,0.135768,-5714.45,-35034.5,-0,35497.5,203146
step02_gravity_refstate-crust.xmf,1646,4.59006e-07,6.57408e-06,0,3.51608e-06,-1.00336e+09,-1.00294e+09,-1.00339e+09,241203,0.0105305,0.131322,0,0.131744,-5191.24,-36540.2,-0,36907.2,241203
step02_gravity_refstate-crust.xmf,1647,2.66836e-07,5.86725e-06,0,3.08313e-06,-9.76952e+08,-9.76568e+08,-9.7697e+08,211503,0.00796379,0.133699,0,0.133936,-5585.75,-35577.1,-0,36012.9,211503
step02_gravity_refstate-crust.xmf,1648,6.04085e-07,7.28681e-06,0,3.88112e-06,-1.03502e+09,-1.03457e+09,-1.03507e+09,266245,0.0121691,0.124851,0,0.125443,-5016.09,-37694.8,-0,38027.1,266245
step02_gravity_refstate-crust.xmf,1649,-1.39842e-07,9.68387e-06,0,5.05416e-06,-1.08262e+09,-1.08194e+09,-1.08261e+09,346715,0.0104131,0.118182,0,0.118639,-3994.71,-39428.1,-0,39630,346715
step02_gravity_refstate-crust.xmf,1650,-2.41979e-07,1.81786e-06,0,1.52049e-06,-5.21594e+08,-5.21453e+08,-5.21578e+08,104305,-0.00862157,0.149385,-0,0.149633,-12762.8,-18991,-0,22881.1,104305
step02_gravity_refstate-crust.xmf,1651,-1.85881e-07,1.50194e-06,0,1.18973e-06,-4.10846e+08,-4.1073e+08,-4.10833e+08,81615.4,-0.00761686,0.148151,-0,0.148347,-15826.6,-14958.8,-0,21777.2,81615.4
step02_gravity_refstate-crust.xmf,1652,-2.10764e-07,1.64107e-06,0,1.29322e-06,-4.52212e+08,-4.52084e+08,-4.52197e+08,88715.1,-0.00787953,0.1482,-0,0.148409,-14831.8,-16464.9,-0,22160.2,88715.1
step02_gravity_refstate-crust.xmf,1653,-2.50892e-07,1.79208e-06,0,1.3932e-06,-4.93057e+08,-4.92917e+08,-4.9304e+08,95573.2,-0.00819051,0.147764,-0,0.14799,-14017.7,-17952,-0,22776.5,95573.2
step02_gravity_refstate-crust.xmf,1654,-1.68294e-07,1.18633e-06,0,9.34488e-07,-3.14991e+08,-3.14898e+08,-3.1498e+08,64105.9,-0.00741156,0.14671,-0,0.146897,-18624.6,-11468.7,-0,21872.5,64105.9
step02_gravity_refstate-crust.xmf,1655,-1.91436e-07,1.35504e-06,0,1.02215e-06,-3.57989e+08,-3.57883e+08,-3.57976e+08,70119.6,-0.00730612,0.146168,-0,0.146351,-17935.2,-13034.3,-0,22171.2,70119.6
step02_gravity_refstate-crust.xmf,1656,-2.7473e-07,6.72081e-07,0,5.02656e-07,-1.64011e+08,-1.63946e+08,-1.63992e+08,34482.2,-0.00880086,0.143689,-0,0.143958,-22989.2,-5970.91,-0,23751.9,34482.2
step02_gravity_refstate-crust.xmf,1657,-2.36042e-07,8.5377e-07,0,6.35738e-07,-2.15903e+08,-2.15828e+08,-2.15887e+08,43611.7,-0.00793631,0.143692,-0,0.143911,-22143.5,-7860.53,-0,23497.3,43611.7
step02_gravity_refstate-crust.xmf,1658,-2.21316e-07,1.03634e-06,0,7.50829e-07,-2.64755e+08,-2.64669e+08,-2.6474e+08,51506.9,-0.007393,0.143564,-0,0.143754,-21281.1,-9639.38,-0,23362.4,51506.9
step02_gravity_refstate-crust.xmf,1659,-4.4245e-07,5.21373e-07,0,2.94232e-07,-1.05189e+08,-1.05122e+08,-1.05158e+08,20184.3,-0.00946456,0.140858,-0,0.141175,-25652.9,-3828.51,-0,25937,20184.3
step02_gravity_refstate-crust.xmf,1660,-5.86843e-07,4.62419e-07,0,1.88455e-07,-7.32331e+07,-7.31611e+07,-7.31929e+07,12928,-0.00945005,0.13883,-0,0.139152,-27614,-2664.47,-0,27742.2,12928
step02_gravity_refstate-crust.xmf,1661,-5.11998e-07,2.40985e-06,0,1.87581e-06,-6.47163e+08,-6.46963e+08,-6.47128e+08,128680,-0.00963868,0.146154,-0,0.146472,-10853.7,-23562.3,-0,25941.9,128680
step02_gravity_refstate-crust.xmf,1662,-8.44949e-07,3.03421e-06,0,2.19237e-06,-7.43896e+08,-7.4363e+08,-7.43838e+08,150397,-0.00965051,0.144442,-0,0.144764,-9093.75,-27083.6,-0,28569.5,150397
step02_gravity_refstate-crust.xmf,1663,-5.96727e-07,2.56983e-06,0,1.94866e-06,-6.73368e+08,-6.73151e+08,-6.73327e+08,133678,-0.00972786,0.145311,-0,0.145637,-10468.5,-24516.2,-0,26657.7,133678
step02_gravity_refstate-crust.xmf,1664,-6.81759e-07,2.72705e-06,0,2.0306e-06,-6.98686e+08,-6.98452e+08,-6.98639e+08,139299,-0.00977847,0.144811,-0,0.145141,-10012.8,-25437.8,-0,27337.5,139299
step02_gravity_refstate-crust.xmf,1665,-7.64642e-07,2.87919e-06,0,2.11511e-06,-7.22115e+08,-7.21865e+08,-7.22063e+08,145096,-0.0097644,0.144579,-0,0.144908,-9541.57,-26290.7,-0,27968.6,145096
step02_gravity_refstate-crust.xmf,1666,-9.64417e-07,3.51007e-06,0,2.00772e-06,-7.85577e+08,-7.8527e+08,-7.85511e+08,137730,-0.00811259,0.139222,-0,0.139459,-9144.6,-28601.3,-0,30027.6,137730
step02_gravity_refstate-crust.xmf,1667,-7.62017e-08,5.28333e-06,0,2.94248e-06,-9.46594e+08,-9.46226e+08,-9.46588e+08,201854,0.00442622,0.138605,0,0.138676,-5723.62,-34469.6,-0,34941.5,201854
step02_gravity_refstate-crust.xmf,1668,-9.92779e-07,3.68711e-06,0,2.02819e-06,-8.06553e+08,-8.06232e+08,-8.06485e+08,139134,-0.00743151,0.138787,-0,0.138986,-8724.56,-29365.1,-0,30633.7,139134
step02_gravity_refstate-crust.xmf,1669,-9.88698e-07,3.86316e-06,0,2.04425e-06,-8.27059e+08,-8.26726e+08,-8.26991e+08,140236,-0.00652727,0.138391,-0,0.138545,-8312.25,-30111.9,-0,31238.1,140236
step02_gravity_refstate-crust.xmf,1670,-9.52435e-07,4.00787e-06,0,2.08545e-06,-8.4481e+08,-8.44469e+08,-8.44744e+08,143062,-0.00557477,0.138434,-0,0.138546,-7899.34,-30758.5,-0,31756.6,143062
step02_gravity_refstate-crust.xmf,1671,-8.93813e-07,4.13505e-06,0,2.20056e-06,-8.61531e+08,-8.61186e+08,-8.6147e+08,150958,-0.0045532,0.139267,-0,0.139341,-7406.9,-31367.7,-0,32230.3,150958
step02_gravity_refstate-crust.xmf,1672,-7.53348e-07,4.3548e-06,0,2.20141e-06,-8.81731e+08,-8.8138e+08,-8.81679e+08,151017,-0.00274244,0.138089,-0,0.138116,-7136.31,-32104,-0,32887.6,151017
step02_gravity_refstate-crust.xmf,1673,-5.8886e-07,4.53429e-06,0,2.25982e-06,-8.9884e+08,-8.98488e+08,-8.98799e+08,155024,-0.00103004,0.13738,-0,0.137384,-6863.83,-32727.8,-0,33439.8,155024
step02_gravity_refstate-crust.xmf,1674,-1.99491e-07,5.03026e-06,0,2.62455e-06,-9.34156e+08,-9.33797e+08,-9.34142e+08,180044,0.00293558,0.137257,0,0.137289,-6132.98,-34015.9,-0,34564.3,180044
step02_gravity_refstate-crust.xmf,1675,-3.92449e-07,4.75906e-06,0,2.40692e-06,-9.17022e+08,-9.16668e+08,-9.16995e+08,165115,0.000943693,0.137135,0,0.137138,-6508.48,-33390.9,-0,34019.3,165115
step02_gravity_refstate-crust.xmf,1676,6.26277e-07,6.6e-06,0,3.43227e-06,-1.01799e+09,-1.01758e+09,-1.01803e+09,235454,0.0113163,0.125646,0,0.126155,-5440.56,-37073.7,-0,37470.8,235454
step02_gravity_refstate-crust.xmf,1677,5.13538e-07,6.07336e-06,0,3.07445e-06,-9.97207e+08,-9.96825e+08,-9.97242e+08,210907,0.00978676,0.128008,0,0.128381,-5732.96,-36315.8,-0,36765.5,210907
step02_gravity_refstate-crust.xmf,1678,6.29832e-07,7.25445e-06,0,3.86827e-06,-1.05119e+09,-1.05074e+09,-1.05123e+09,265363,0.0119825,0.118122,0,0.118729,-5331.56,-38283.4,-0,38652.9,265363
step02_gravity_refstate-crust.xmf,1679,4.32145e-07,7.92016e-06,0,4.27772e-06,-1.06631e+09,-1.06579e+09,-1.06634e+09,293452,0.0116329,0.116444,0,0.117024,-4982.72,-38834,-0,39152.4,293452
step02_gravity_refstate-crust.xmf,1680,9.04616e-08,8.66525e-06,0,4.67199e-06,-1.08231e+09,-1.08173e+09,-1.08232e+09,320499,0.010473,0.113732,0,0.114213,-4670.48,-39416.5,-0,39692.3,320499
step02_gravity_refstate-crust.xmf,1681,-3.62927e-07,2.08063e-06,0,1.49765e-06,-5.52734e+08,-5.52566e+08,-5.52709e+08,102739,-0.00852805,0.145206,-0,0.145456,-13436.8,-20124.6,-0,24198.1,102739
step02_gravity_refstate-crust.xmf,1682,-4.16363e-07,2.21395e-06,0,1.56884e-06,-5.82088e+08,-5.81908e+08,-5.8206e+08,107623,-0.00875601,0.144503,-0,0.144768,-12914.7,-21193.3,-0,24818.2,107623
step02_gravity_refstate-crust.xmf,1683,-2.07467e-07,1.47007e-06,0,1.09436e-06,-3.89111e+08,-3.88996e+08,-3.89096e+08,75072.9,-0.00735927,0.146136,-0,0.146321,-17218.8,-14167.4,-0,22298,75072.9
step02_gravity_refstate-crust.xmf,1684,-2.2546e-07,1.21903e-06,0,8.49522e-07,-3.11315e+08,-3.11216e+08,-3.11299e+08,58277.2,-0.00707712,0.14319,-0,0.143365,-20468,-11334.7,-0,23396.9,58277.2
step02_gravity_refstate-crust.xmf,1685,-3.6142e-07,6.77145e-07,0,4.25234e-07,-1.56002e+08,-1.55931e+08,-1.55977e+08,29171,-0.00837149,0.140792,-0,0.141041,-24941.4,-5678.99,-0,25579.8,29171
step02_gravity_refstate-crust.xmf,1686,-8.46635e-07,3.20048e-07,0,3.94061e-09,-80475.9,-441.519,-22396.8,270.326,-0.0109633,0.138151,-0,0.138585,-29109.7,0,-0,29109.7,270.326
step02_gravity_refstate-crust.xmf,1687,-9.15745e-07,3.34082e-06,0,1.98032e-06,-7.64784e+08,-7.64492e+08,-7.64721e+08,135850,-0.00858506,0.139664,-0,0.139928,-9561.32,-27844.2,-0,29440.1,135850
step02_gravity_refstate-crust.xmf,1688,-4.81636e-07,2.36501e-06,0,1.64324e-06,-6.12615e+08,-6.1242e+08,-6.12582e+08,112726,-0.00896388,0.143683,-0,0.143962,-12384,-22304.6,-0,25511.9,112726
step02_gravity_refstate-crust.xmf,1689,1.17099e-07,5.22401e-06,0,2.45641e-06,-9.56343e+08,-9.55993e+08,-9.56351e+08,168510,0.00556351,0.130655,0,0.130773,-6427.95,-34825.2,-0,35413.5,168510
step02_gravity_refstate-crust.xmf,1690,3.76313e-07,5.60325e-06,0,2.71115e-06,-9.79702e+08,-9.79343e+08,-9.79728e+08,185985,0.00805572,0.128242,0,0.128495,-6156.38,-35677.2,-0,36204.5,185985
step02_gravity_refstate-crust.xmf,1691,7.20521e-07,6.64197e-06,0,3.44528e-06,-1.03538e+09,-1.03497e+09,-1.03543e+09,236346,0.0117107,0.119298,0,0.119871,-5717.07,-37707.1,-0,38138,236346
step02_gravity_refstate-crust.xmf,1692,-3.25927e-07,1.98135e-06,0,1.42951e-06,-5.27775e+08,-5.27617e+08,-5.27753e+08,98064.5,-0.00830143,0.145518,-0,0.145754,-13968.9,-19215.9,-0,23756.7,98064.5
step02_gravity_refstate-crust.xmf,1693,-2.78199e-07,1.7465e-06,0,1.20193e-06,-4.53645e+08,-4.53506e+08,-4.53626e+08,82452.7,-0.00750228,0.144287,-0,0.144482,-16386.3,-16517,-0,23266.3,82452.7
step02_gravity_refstate-crust.xmf,1694,-3.09772e-07,1.88041e-06,0,1.28388e-06,-4.88361e+08,-4.88211e+08,-4.88339e+08,88073.9,-0.0077578,0.144116,-0,0.144325,-15529.9,-17780.9,-0,23608,88073.9
step02_gravity_refstate-crust.xmf,1695,-2.64743e-07,1.64756e-06,0,1.1164e-06,-4.24239e+08,-4.24107e+08,-4.2422e+08,76585,-0.00724992,0.143672,-0,0.143855,-17426.9,-15446.3,-0,23287,76585
step02_gravity_refstate-crust.xmf,1696,-2.41234e-07,1.3956e-06,0,9.36278e-07,-3.55043e+08,-3.54931e+08,-3.55026e+08,64228.6,-0.00694808,0.142721,-0,0.14289,-19655.1,-12926.9,-0,23525,64228.6
step02_gravity_refstate-crust.xmf,1697,-2.6458e-07,1.5687e-06,0,1.02055e-06,-3.97304e+08,-3.97179e+08,-3.97286e+08,70009.4,-0.00697373,0.142318,-0,0.142489,-18755.5,-14465.6,-0,23685.9,70009.4
step02_gravity_refstate-crust.xmf,1698,-3.05676e-07,8.68152e-07,0,5.55141e-07,-2.11482e+08,-2.11401e+08,-2.11461e+08,38082.7,-0.00748396,0.14054,-0,0.140739,-24102.3,-7699.32,-0,25302.2,38082.7
step02_gravity_refstate-crust.xmf,1699,-2.79315e-07,1.0546e-06,0,6.65144e-07,-2.61451e+08,-2.6136e+08,-2.61432e+08,45628.9,-0.00695088,0.14025,-0,0.140422,-23219.5,-9518.89,-0,25095,45628.9
step02_gravity_refstate-crust.xmf,1700,-2.73214e-07,1.24334e-06,0,7.60708e-07,-3.09187e+08,-3.09083e+08,-3.09168e+08,52184.6,-0.00662902,0.139783,-0,0.13994,-22344.6,-11257.1,-0,25020,52184.6
step02_gravity_refstate-crust.xmf,1701,-4.47967e-07,6.68542e-07,0,3.44285e-07,-1.45043e+08,-1.44966e+08,-1.45012e+08,23617.9,-0.00780831,0.13818,-0,0.1384,-26972.9,-5279.65,-0,27484.8,23617.9
step02_gravity_refstate-crust.xmf,1702,-7.00551e-07,4.94719e-07,0,1.36912e-07,-7.02771e+07,-7.01951e+07,-7.02291e+07,9392.15,-0.00775471,0.135826,-0,0.136048,-30377.4,-2556.44,-0,30484.8,9392.15
step02_gravity_refstate-crust.xmf,1703,-9.32376e-07,3.57459e-07,0,8.63911e-10,-88413.4,69.3229,-24452.4,59.2643,-0.00865237,0.135735,-0,0.13601,-31685.6,0,-0,31685.6,59.2643
step02_gravity_refstate-crust.xmf,1704,-7.83813e-07,5.06661e-07,0,8.63552e-08,-6.34865e+07,-6.33979e+07,-6.34327e+07,5923.97,-0.00594032,0.133719,-0,0.133851,-33011.1,-2308.9,-0,33091.8,5923.97
step02_gravity_refstate-crust.xmf,1705,-1.02587e-06,3.89491e-07,0,3.32029e-09,-97441.2,-347.377,-27066.5,227.772,-0.00601478,0.133888,-0,0.134023,-34354.5,0,-0,34354.5,227.772
step02_gravity_refstate-crust.xmf,1706,-5.64231e-07,2.55186e-06,0,1.69592e-06,-6.44202e+08,-6.43988e+08,-6.44163e+08,116340,-0.00904366,0.142254,-0,0.142542,-11981.5,-23454.5,-0,26337.6,116340
step02_gravity_refstate-crust.xmf,1707,-6.40829e-07,2.71703e-06,0,1.75402e-06,-6.71839e+08,-6.71608e+08,-6.71795e+08,120326,-0.00909321,0.141328,-0,0.14162,-11515.5,-24460.6,-0,27035.6,120326
step02_gravity_refstate-crust.xmf,1708,-8.57565e-07,3.19085e-06,0,1.93181e-06,-7.44652e+08,-7.44374e+08,-7.44593e+08,132522,-0.00884355,0.139856,-0,0.140135,-10016.5,-27111.3,-0,28902.4,132522
step02_gravity_refstate-crust.xmf,1709,-7.17706e-07,2.88294e-06,0,1.81065e-06,-6.98156e+08,-6.97909e+08,-6.98107e+08,124211,-0.00907319,0.140558,-0,0.140851,-11031.1,-25418.6,-0,27709,124211
step02_gravity_refstate-crust.xmf,1710,-7.92401e-07,3.04568e-06,0,1.86928e-06,-7.22983e+08,-7.2272e+08,-7.22929e+08,128233,-0.00898215,0.140025,-0,0.140313,-10523,-26322.4,-0,28347.9,128233
step02_gravity_refstate-crust.xmf,1711,-9.19172e-07,3.58031e-06,0,1.75367e-06,-7.84551e+08,-7.84243e+08,-7.84488e+08,120302,-0.00731332,0.134813,-0,0.135011,-10044.3,-28564.2,-0,30278.7,120302
step02_gravity_refstate-crust.xmf,1712,-9.32453e-07,3.74775e-06,0,1.75823e-06,-8.06161e+08,-8.0584e+08,-8.06097e+08,120615,-0.00660717,0.134116,-0,0.134279,-9603.79,-29351.1,-0,30882.4,120615
step02_gravity_refstate-crust.xmf,1713,-9.13393e-07,3.91816e-06,0,1.75447e-06,-8.2792e+08,-8.27588e+08,-8.27857e+08,120357,-0.00564445,0.133329,-0,0.133448,-9176.49,-30143.6,-0,31509.4,120357
step02_gravity_refstate-crust.xmf,1714,-7.54341e-07,4.26733e-06,0,1.84074e-06,-8.71704e+08,-8.71359e+08,-8.71652e+08,126275,-0.00301126,0.133047,-0,0.133081,-8109.23,-31738.8,-0,32758.4,126275
step02_gravity_refstate-crust.xmf,1715,-8.50788e-07,4.09331e-06,0,1.75816e-06,-8.50282e+08,-8.49942e+08,-8.50223e+08,120610,-0.00438228,0.132597,-0,0.13267,-8724.2,-30958.2,-0,32164,120610
step02_gravity_refstate-crust.xmf,1716,-5.46097e-07,4.46839e-06,0,1.87279e-06,-8.96452e+08,-8.96108e+08,-8.96415e+08,128473,-0.000795274,0.13152,-0,0.131523,-7738.33,-32641,-0,33545.7,128473
step02_gravity_refstate-crust.xmf,1717,-3.34896e-07,4.65825e-06,0,1.9759e-06,-9.16756e+08,-9.16414e+08,-9.16733e+08,135547,0.00122258,0.13074,0,0.130746,-7359.55,-33381.3,-0,34182.9,135547
step02_gravity_refstate-crust.xmf,1718,-1.11072e-07,4.89109e-06,0,2.15613e-06,-9.36334e+08,-9.35991e+08,-9.36327e+08,147911,0.00331862,0.130373,0,0.130415,-6940.54,-34095.3,-0,34794.6,147911
step02_gravity_refstate-crust.xmf,1719,7.0598e-07,6.09111e-06,0,3.01732e-06,-1.01744e+09,-1.01707e+09,-1.01749e+09,206988,0.0108345,0.120466,0,0.120953,-6122.88,-37053.3,-0,37555.8,206988
step02_gravity_refstate-crust.xmf,1720,6.00466e-07,5.63694e-06,0,2.62974e-06,-9.98803e+08,-9.98457e+08,-9.98844e+08,180400,0.00945924,0.121449,0,0.121817,-6534.3,-36373.6,-0,36955.8,180400
step02_gravity_refstate-crust.xmf,1721,6.89513e-07,6.68811e-06,0,3.49314e-06,-1.05362e+09,-1.05321e+09,-1.05367e+09,239629,0.0114658,0.112562,0,0.113145,-6050.62,-38371.3,-0,38845.5,239629
step02_gravity_refstate-crust.xmf,1722,5.41353e-07,7.22137e-06,0,3.87139e-06,-1.06661e+09,-1.06615e+09,-1.06664e+09,265578,0.0112775,0.11165,0,0.112218,-5683.71,-38844.3,-0,39257.9,265578
step02_gravity_refstate-crust.xmf,1723,2.53202e-07,7.85481e-06,0,4.25743e-06,-1.0821e+09,-1.08158e+09,-1.08212e+09,292059,0.0103742,0.109369,0,0.10986,-5370.2,-39408.1,-0,39772.4,292059
step02_gravity_refstate-crust.xmf,1724,-3.56942e-07,2.03024e-06,0,1.33918e-06,-5.21245e+08,-5.21082e+08,-5.21221e+08,91867.5,-0.00792719,0.143042,-0,0.143261,-15046.1,-18978.2,-0,24218.9,91867.5
step02_gravity_refstate-crust.xmf,1725,-4.10479e-07,2.18398e-06,0,1.38467e-06,-5.52438e+08,-5.5226e+08,-5.5241e+08,94988.1,-0.00806481,0.141781,-0,0.14201,-14634.5,-20113.8,-0,24874.3,94988.1
step02_gravity_refstate-crust.xmf,1726,-4.61673e-07,2.32319e-06,0,1.43472e-06,-5.8085e+08,-5.80659e+08,-5.80819e+08,98421.7,-0.00821627,0.140853,-0,0.141093,-14148.2,-21148.2,-0,25444.4,98421.7
step02_gravity_refstate-crust.xmf,1727,-5.21779e-07,2.47985e-06,0,1.48507e-06,-6.10991e+08,-6.10785e+08,-6.10955e+08,101876,-0.00834231,0.139782,-0,0.14003,-13635,-22245.5,-0,26091.6,101876
step02_gravity_refstate-crust.xmf,1728,-2.80048e-07,1.4247e-06,0,8.43178e-07,-3.53292e+08,-3.53175e+08,-3.53273e+08,57842,-0.00648683,0.13926,-0,0.139411,-21465.6,-12863,-0,25024.6,57842
step02_gravity_refstate-crust.xmf,1729,-3.72984e-07,8.59796e-07,0,4.66334e-07,-2.02576e+08,-2.02491e+08,-2.0255e+08,31990.5,-0.00695466,0.137734,-0,0.13791,-26136.7,-7374.8,-0,27157.3,31990.5
step02_gravity_refstate-crust.xmf,1730,-5.36214e-07,6.65013e-07,0,2.67206e-07,-1.35602e+08,-1.35519e+08,-1.35565e+08,18330.4,-0.00691043,0.135656,-0,0.135832,-29226.2,-4935.58,-0,29640,18330.4
step02_gravity_refstate-crust.xmf,1731,-8.34216e-07,5.373e-07,0,5.68334e-08,-6.79169e+07,-6.78228e+07,-6.78597e+07,3898.77,-0.00364196,0.132052,-0,0.132102,-35740.4,-2470.04,-0,35825.6,3898.77
step02_gravity_refstate-crust.xmf,1732,-8.90212e-07,3.42107e-06,0,1.76053e-06,-7.64778e+08,-7.64482e+08,-7.64717e+08,120772,-0.00782685,0.135653,-0,0.135879,-10402,-27844.2,-0,29723.7,120772
step02_gravity_refstate-crust.xmf,1733,-5.88323e-07,2.64865e-06,0,1.53104e-06,-6.41324e+08,-6.41102e+08,-6.41284e+08,105030,-0.00840868,0.138609,-0,0.138864,-13121.1,-23349.8,-0,26783.9,105030
step02_gravity_refstate-crust.xmf,1734,4.20093e-07,5.26561e-06,0,2.29079e-06,-9.78821e+08,-9.78488e+08,-9.7885e+08,157148,0.00766098,0.122498,0,0.122737,-6943.96,-35644.8,-0,36314.9,157148
step02_gravity_refstate-crust.xmf,1735,7.63792e-07,6.14101e-06,0,3.06239e-06,-1.03679e+09,-1.03642e+09,-1.03684e+09,210080,0.0111725,0.113751,0,0.114298,-6470.72,-37757.8,-0,38308.3,210080
step02_gravity_refstate-crust.xmf,1736,-3.29728e-07,1.85668e-06,0,1.11858e-06,-4.63095e+08,-4.62945e+08,-4.63072e+08,76734.6,-0.00707094,0.140415,-0,0.140593,-17766.7,-16861,-0,24493.8,76734.6
step02_gravity_refstate-crust.xmf,1737,-3.5465e-07,1.97076e-06,0,1.18371e-06,-4.91246e+08,-4.91087e+08,-4.91222e+08,81202.6,-0.00728714,0.140403,-0,0.140592,-16941.3,-17885.9,-0,24635.6,81202.6
step02_gravity_refstate-crust.xmf,1738,-3.93609e-07,2.10988e-06,0,1.2378e-06,-5.22198e+08,-5.22027e+08,-5.22171e+08,84913.1,-0.00745422,0.139687,-0,0.139886,-16304,-19012.8,-0,25046.1,84913.1
step02_gravity_refstate-crust.xmf,1739,-3.12239e-07,1.76712e-06,0,1.05377e-06,-4.39635e+08,-4.39492e+08,-4.39613e+08,72288.3,-0.00686924,0.140062,-0,0.14023,-18611.5,-16006.8,-0,24548,72288.3
step02_gravity_refstate-crust.xmf,1740,-2.99681e-07,1.601e-06,0,9.15086e-07,-3.94748e+08,-3.94618e+08,-3.94728e+08,62774.9,-0.00645669,0.138596,-0,0.138746,-20630.6,-14372.5,-0,25143.4,62774.9
step02_gravity_refstate-crust.xmf,1741,-3.3026e-07,1.06773e-06,0,5.75583e-07,-2.59061e+08,-2.58965e+08,-2.59039e+08,39485,-0.00636559,0.137072,-0,0.13722,-25245.4,-9431.7,-0,26949.7,39485
step02_gravity_refstate-crust.xmf,1742,-3.13219e-07,1.26401e-06,0,6.68752e-07,-3.08963e+08,-3.08855e+08,-3.08942e+08,45876.4,-0.00605817,0.136447,-0,0.136582,-24299.3,-11248.8,-0,26776.7,45876.4
step02_gravity_refstate-crust.xmf,1743,-3.11894e-07,1.45086e-06,0,7.52504e-07,-3.54366e+08,-3.54245e+08,-3.54345e+08,51621.7,-0.00594513,0.135941,-0,0.136071,-23266.1,-12902,-0,26604,51621.7
step02_gravity_refstate-crust.xmf,1744,-3.20826e-07,1.61901e-06,0,8.20112e-07,-3.93772e+08,-3.93639e+08,-3.9375e+08,56259.7,-0.00593204,0.135387,-0,0.135517,-22341.8,-14336.9,-0,26546.2,56259.7
step02_gravity_refstate-crust.xmf,1745,-4.34378e-07,8.62032e-07,0,3.83063e-07,-1.9766e+08,-1.97571e+08,-1.9763e+08,26278.1,-0.00618103,0.13506,-0,0.135201,-28266.2,-7195.57,-0,29167.7,26278.1
step02_gravity_refstate-crust.xmf,1746,-6.05562e-07,6.78317e-07,0,1.99001e-07,-1.32627e+08,-1.32539e+08,-1.32586e+08,13651.5,-0.0055699,0.133296,-0,0.133413,-31672.5,-4827.04,-0,32038.2,13651.5
step02_gravity_refstate-crust.xmf,1747,-6.66771e-07,6.71922e-07,0,1.28819e-07,-1.24415e+08,-1.24323e+08,-1.24369e+08,8836.99,-0.00411805,0.131657,-0,0.131721,-34142.6,-4527.79,-0,34441.5,8836.99
step02_gravity_refstate-crust.xmf,1748,-1.07369e-06,4.0869e-07,0,6.70451e-10,-101939,-247.617,-28283.8,45.9929,-0.00311092,0.132708,-0,0.132744,-37123.5,0,-0,37123.5,45.9929
step02_gravity_refstate-crust.xmf,1749,-6.58142e-07,2.82569e-06,0,1.56835e-06,-6.70896e+08,-6.70657e+08,-6.70851e+08,107589,-0.00838444,0.137367,-0,0.137623,-12624,-24426.3,-0,27495.7,107589
step02_gravity_refstate-crust.xmf,1750,-7.25434e-07,2.99835e-06,0,1.60384e-06,-6.98478e+08,-6.98223e+08,-6.98428e+08,110024,-0.00829119,0.136328,-0,0.13658,-12106.7,-25430.5,-0,28165.3,110024
step02_gravity_refstate-crust.xmf,1751,-8.47081e-07,3.32744e-06,0,1.68432e-06,-7.49346e+08,-7.4906e+08,-7.49288e+08,115544,-0.00787658,0.135001,-0,0.135231,-10977.7,-27282.4,-0,29408.2,115544
step02_gravity_refstate-crust.xmf,1752,-7.89953e-07,3.17034e-06,0,1.63889e-06,-7.2496e+08,-7.24688e+08,-7.24905e+08,112428,-0.00811374,0.135475,-0,0.135718,-11560,-26394.6,-0,28815.1,112428
step02_gravity_refstate-crust.xmf,1753,-8.58675e-07,3.57417e-06,0,1.54281e-06,-7.78092e+08,-7.77788e+08,-7.78033e+08,105837,-0.00669794,0.131011,-0,0.131182,-11066.8,-28329.3,-0,30414.2,105837
step02_gravity_refstate-crust.xmf,1754,-8.60423e-07,3.76329e-06,0,1.52668e-06,-8.04609e+08,-8.04291e+08,-8.0455e+08,104731,-0.00584079,0.129744,-0,0.129875,-10554.7,-29294.9,-0,31138.3,104731
step02_gravity_refstate-crust.xmf,1755,-8.33094e-07,3.92522e-06,0,1.51754e-06,-8.27604e+08,-8.27278e+08,-8.27547e+08,104103,-0.00487811,0.128773,-0,0.128866,-10077.1,-30132.5,-0,31772.8,104103
step02_gravity_refstate-crust.xmf,1756,1.84888e-07,4.95902e-06,0,1.99969e-06,-9.57476e+08,-9.57149e+08,-9.57489e+08,137178,0.00553621,0.123416,0,0.12354,-7388.62,-34866.3,-0,35640.6,137178
step02_gravity_refstate-crust.xmf,1757,-7.655e-07,4.0803e-06,0,1.50995e-06,-8.50008e+08,-8.49675e+08,-8.49955e+08,103583,-0.00367587,0.127765,-0,0.127818,-9623.61,-30948.6,-0,32410.3,103583
step02_gravity_refstate-crust.xmf,1758,-6.48807e-07,4.23481e-06,0,1.51756e-06,-8.72672e+08,-8.72337e+08,-8.72627e+08,104105,-0.00218108,0.12673,-0,0.126749,-9167.93,-31774.4,-0,33070.6,104105
step02_gravity_refstate-crust.xmf,1759,-4.88755e-07,4.38689e-06,0,1.5643e-06,-8.9448e+08,-8.94146e+08,-8.94447e+08,107311,-0.000497007,0.125965,-0,0.125966,-8690.77,-32569.3,-0,33708.9,107311
step02_gravity_refstate-crust.xmf,1760,-2.83431e-07,4.54634e-06,0,1.64663e-06,-9.16015e+08,-9.15684e+08,-9.15996e+08,112959,0.0014235,0.125005,0,0.125013,-8259.92,-33354.3,-0,34361.9,112959
step02_gravity_refstate-crust.xmf,1761,-5.86768e-08,4.72519e-06,0,1.78481e-06,-9.36442e+08,-9.36114e+08,-9.36438e+08,122438,0.00340615,0.124201,0,0.124248,-7834.74,-34099.2,-0,34987.7,122438
step02_gravity_refstate-crust.xmf,1762,7.34569e-07,5.67998e-06,0,2.64722e-06,-1.01871e+09,-1.01837e+09,-1.01876e+09,181599,0.0103258,0.114815,0,0.115278,-6905.58,-37098.9,-0,37736.2,181599
step02_gravity_refstate-crust.xmf,1763,6.20824e-07,5.30776e-06,0,2.27738e-06,-9.99967e+08,-9.99646e+08,-1.00001e+09,156229,0.00903607,0.11572,0,0.116073,-7351.83,-36415.5,-0,37150.2,156229
step02_gravity_refstate-crust.xmf,1764,6.88024e-07,6.24575e-06,0,3.14846e-06,-1.05633e+09,-1.05595e+09,-1.05638e+09,215984,0.0108945,0.107247,0,0.107799,-6811.06,-38469.3,-0,39067.6,215984
step02_gravity_refstate-crust.xmf,1765,5.99143e-07,6.68053e-06,0,3.48476e-06,-1.06667e+09,-1.06626e+09,-1.06671e+09,239055,0.0108789,0.107308,0,0.107858,-6385.95,-38846.1,-0,39367.5,239055
step02_gravity_refstate-crust.xmf,1766,3.6101e-07,7.17644e-06,0,3.82933e-06,-1.0815e+09,-1.08103e+09,-1.08153e+09,262692,0.0101937,0.105128,0,0.105621,-6116.81,-39385.7,-0,39857.9,262692
step02_gravity_refstate-crust.xmf,1767,-4.39246e-07,2.25791e-06,0,1.27807e-06,-5.5265e+08,-5.52465e+08,-5.52619e+08,87675.6,-0.00756639,0.138562,-0,0.138769,-15806.4,-20121.5,-0,25587.4,87675.6
step02_gravity_refstate-crust.xmf,1768,-4.83814e-07,2.3971e-06,0,1.30634e-06,-5.79576e+08,-5.79378e+08,-5.79543e+08,89614.8,-0.00762768,0.137374,-0,0.137585,-15404.4,-21101.8,-0,26126.2,89614.8
step02_gravity_refstate-crust.xmf,1769,-5.36586e-07,2.55429e-06,0,1.34107e-06,-6.09481e+08,-6.09269e+08,-6.09444e+08,91997.5,-0.00769397,0.136171,-0,0.136389,-14879.2,-22190.5,-0,26717.2,91997.5
step02_gravity_refstate-crust.xmf,1770,-5.93392e-07,2.71997e-06,0,1.37385e-06,-6.39703e+08,-6.39475e+08,-6.39662e+08,94246,-0.00771347,0.134928,-0,0.135148,-14325.6,-23290.8,-0,27343.9,94246
step02_gravity_refstate-crust.xmf,1771,-3.29219e-07,1.78191e-06,0,9.70526e-07,-4.35496e+08,-4.35351e+08,-4.35473e+08,66578.1,-0.00645357,0.13745,-0,0.137601,-19959.7,-15856.1,-0,25491.3,66578.1
step02_gravity_refstate-crust.xmf,1772,-3.32393e-07,1.63031e-06,0,7.38603e-07,-3.94034e+08,-3.939e+08,-3.94012e+08,50668.2,-0.00544921,0.132776,-0,0.132888,-23815.1,-14346.4,-0,27802.4,50668.2
step02_gravity_refstate-crust.xmf,1773,-3.7507e-07,1.06907e-06,0,4.82813e-07,-2.55454e+08,-2.55355e+08,-2.55428e+08,33121,-0.00567367,0.13421,-0,0.13433,-27345.5,-9300.19,-0,28883.7,33121
step02_gravity_refstate-crust.xmf,1774,-4.83691e-07,8.75178e-07,0,3.05332e-07,-1.97078e+08,-1.96985e+08,-1.97045e+08,20945.8,-0.00517908,0.132612,-0,0.132713,-30468.5,-7174.23,-0,31301.8,20945.8
step02_gravity_refstate-crust.xmf,1775,-7.07095e-07,6.66155e-07,0,8.82556e-08,-1.19075e+08,-1.18981e+08,-1.19026e+08,6054.33,-0.00304052,0.130909,-0,0.130944,-35794.5,-4333.21,-0,36055.9,6054.33
step02_gravity_refstate-crust.xmf,1776,-9.04778e-07,5.12367e-07,0,1.87214e-08,-5.22672e+07,-5.217e+07,-5.22051e+07,1284.29,-0.00172765,0.1316,-0,0.131611,-38100.9,-1899.97,-0,38148.2,1284.29
step02_gravity_refstate-crust.xmf,1777,-1.07839e-06,4.09485e-07,0,-2.38659e-09,-102427,-359.04,-28449.7,-163.72,-3.55413e-19,0.132291,-0,0.132291,-40000,0,-0,40000,163.72
step02_gravity_refstate-crust.xmf,1778,-6.51595e-07,2.8925e-06,0,1.39954e-06,-6.69535e+08,-6.69292e+08,-6.6949e+08,96008.3,-0.00764958,0.133617,-0,0.133836,-13776.6,-24376.9,-0,28000.5,96008.3
step02_gravity_refstate-crust.xmf,1779,4.37434e-07,5.00783e-06,0,1.95707e-06,-9.79616e+08,-9.79303e+08,-9.79646e+08,134255,0.00735768,0.116756,0,0.116988,-7802.55,-35673.4,-0,36516.8,134255
step02_gravity_refstate-crust.xmf,1780,7.54649e-07,5.77325e-06,0,2.74169e-06,-1.0387e+09,-1.03835e+09,-1.03875e+09,188080,0.010621,0.108657,0,0.109174,-7230.49,-37826.8,-0,38511.6,188080
step02_gravity_refstate-crust.xmf,1781,-3.78898e-07,2.03663e-06,0,1.10214e-06,-4.95648e+08,-4.95482e+08,-4.95622e+08,75606.7,-0.00686329,0.137427,-0,0.137598,-18062.6,-18046.2,-0,25532.7,75606.7
step02_gravity_refstate-crust.xmf,1782,-3.69358e-07,1.97283e-06,0,1.03075e-06,-4.78038e+08,-4.77878e+08,-4.78013e+08,70709.6,-0.00653477,0.136269,-0,0.136426,-19148.8,-17405,-0,25876.9,70709.6
step02_gravity_refstate-crust.xmf,1783,-4.16918e-07,2.18363e-06,0,1.13719e-06,-5.26492e+08,-5.26314e+08,-5.26464e+08,78011.1,-0.00693322,0.136265,-0,0.136441,-17551.5,-19169.2,-0,25990.6,78011.1
step02_gravity_refstate-crust.xmf,1784,-4.6063e-07,2.34131e-06,0,1.17109e-06,-5.58749e+08,-5.58556e+08,-5.58717e+08,80336.7,-0.00700103,0.13498,-0,0.135161,-16994.3,-20343.6,-0,26507.9,80336.7
step02_gravity_refstate-crust.xmf,1785,-3.42492e-07,1.79976e-06,0,8.71562e-07,-4.34267e+08,-4.3412e+08,-4.34243e+08,59789.2,-0.00590832,0.134252,-0,0.134382,-21603.4,-15811.3,-0,26771.3,59789.2
step02_gravity_refstate-crust.xmf,1786,-3.47586e-07,1.79753e-06,0,7.76981e-07,-4.31921e+08,-4.31774e+08,-4.31898e+08,53300.9,-0.00535842,0.131393,-0,0.131502,-23246,-15725.9,-0,28065.7,53300.9
step02_gravity_refstate-crust.xmf,1787,-3.44139e-07,1.28976e-06,0,5.71578e-07,-3.12124e+08,-3.12012e+08,-3.121e+08,39210.3,-0.00533894,0.133109,-0,0.133216,-26384.1,-11363.8,-0,28727.3,39210.3
step02_gravity_refstate-crust.xmf,1788,-3.34522e-07,1.51555e-06,0,6.52725e-07,-3.66647e+08,-3.6652e+08,-3.66624e+08,44776.9,-0.00518037,0.131938,-0,0.13204,-25302.1,-13349.2,-0,28607.6,44776.9
step02_gravity_refstate-crust.xmf,1789,-4.1337e-07,1.06768e-06,0,3.91607e-07,-2.52546e+08,-2.52444e+08,-2.52517e+08,26864.2,-0.00486025,0.131681,-0,0.13177,-29503,-9194.16,-0,30902.4,26864.2
step02_gravity_refstate-crust.xmf,1790,-5.33949e-07,8.7764e-07,0,2.10004e-07,-1.94262e+08,-1.94165e+08,-1.94225e+08,14406.3,-0.00380067,0.13029,-0,0.130345,-33248.7,-7071.49,-0,33992.4,14406.3
step02_gravity_refstate-crust.xmf,1791,-7.25266e-07,6.6569e-07,0,5.02077e-08,-1.17948e+08,-1.17853e+08,-1.17898e+08,3444.25,-0.00173436,0.130298,-0,0.130309,-37628.9,-4292.12,-0,37872.9,3444.25
step02_gravity_refstate-crust.xmf,1792,-6.03175e-07,8.09184e-07,0,1.21708e-07,-1.69586e+08,-1.69489e+08,-1.69544e+08,8349.17,-0.00267956,0.12962,-0,0.129648,-35650.7,-6172.75,-0,36181.2,8349.17
step02_gravity_refstate-crust.xmf,1793,-8.33718e-07,5.68441e-07,0,-1.33766e-09,-7.79065e+07,-7.78103e+07,-7.78493e+07,-91.7636,-3.5298e-19,0.130905,-0,0.130905,-40000,-2833.77,-0,40100.3,91.7636
step02_gravity_refstate-crust.xmf,1794,-7.0757e-07,3.06748e-06,0,1.4179e-06,-6.98334e+08,-6.98075e+08,-6.98285e+08,97267.9,-0.00748777,0.132315,-0,0.132527,-13231.7,-25425.4,-0,28662.3,97267.9
step02_gravity_refstate-crust.xmf,1795,-7.58794e-07,3.25044e-06,0,1.42649e-06,-7.27079e+08,-7.26804e+08,-7.27027e+08,97857.5,-0.00718676,0.130953,-0,0.13115,-12682.7,-26472,-0,29353.3,97857.5
step02_gravity_refstate-crust.xmf,1796,-8.0404e-07,3.44822e-06,0,1.4341e-06,-7.57179e+08,-7.56888e+08,-7.57124e+08,98379.5,-0.00672869,0.129721,-0,0.129895,-12035.7,-27568,-0,30080.7,98379.5
step02_gravity_refstate-crust.xmf,1797,-7.83965e-07,3.76534e-06,0,1.33397e-06,-8.04927e+08,-8.04614e+08,-8.04873e+08,91510.1,-0.00505351,0.125643,-0,0.125745,-11490.3,-29306.8,-0,31478.8,91510.1
step02_gravity_refstate-crust.xmf,1798,-7.48542e-07,3.90742e-06,0,1.31685e-06,-8.27181e+08,-8.26862e+08,-8.2713e+08,90336,-0.00415004,0.124482,-0,0.124551,-11029.8,-30117.4,-0,32073.6,90336
step02_gravity_refstate-crust.xmf,1799,-6.82559e-07,4.04597e-06,0,1.31336e-06,-8.49674e+08,-8.4935e+08,-8.49628e+08,90096.7,-0.00304527,0.123464,-0,0.123501,-10525.8,-30936.7,-0,32678.4,90096.7
step02_gravity_refstate-crust.xmf,1800,2.1377e-07,4.77436e-06,0,1.70334e-06,-9.58457e+08,-9.58145e+08,-9.58472e+08,116849,0.00545348,0.117824,0,0.11795,-8256.65,-34901.9,-0,35865.2,116849
step02_gravity_refstate-crust.xmf,1801,-5.76645e-07,4.17992e-06,0,1.31499e-06,-8.71817e+08,-8.71491e+08,-8.71777e+08,90208.5,-0.00169549,0.122258,-0,0.12227,-10074.2,-31743.5,-0,33303.8,90208.5
step02_gravity_refstate-crust.xmf,1802,-4.26475e-07,4.30895e-06,0,1.33543e-06,-8.93656e+08,-8.93331e+08,-8.93627e+08,91610.5,-0.000137671,0.121026,-0,0.121026,-9636.93,-32539.4,-0,33936.4,91610.5
step02_gravity_refstate-crust.xmf,1803,-2.37179e-07,4.44286e-06,0,1.40094e-06,-9.15488e+08,-9.15167e+08,-9.15472e+08,96104.5,0.00161225,0.119923,0,0.119933,-9175.49,-33335.2,-0,34574.9,96104.5
step02_gravity_refstate-crust.xmf,1804,-1.91544e-08,4.59149e-06,0,1.51892e-06,-9.37027e+08,-9.36711e+08,-9.37026e+08,104198,0.00349656,0.118847,0,0.118898,-8719.56,-34120.4,-0,35217,104198
step02_gravity_refstate-crust.xmf,1805,7.16407e-07,5.36717e-06,0,2.33205e-06,-1.02028e+09,-1.01997e+09,-1.02033e+09,159979,0.00978841,0.109517,0,0.109953,-7729.32,-37155.7,-0,37951.1,159979
step02_gravity_refstate-crust.xmf,1806,6.03422e-07,5.05863e-06,0,1.99285e-06,-1.00137e+09,-1.00106e+09,-1.00141e+09,136710,0.00859543,0.110449,0,0.110783,-8204.04,-36466.1,-0,37377.5,136710
step02_gravity_refstate-crust.xmf,1807,4.68788e-07,6.5401e-06,0,3.35439e-06,-1.07715e+09,-1.07674e+09,-1.07718e+09,230111,0.010116,0.101708,0,0.10221,-6936.34,-39226.8,-0,39835.4,230111
step02_gravity_refstate-crust.xmf,1808,6.4986e-07,5.95381e-06,0,2.88603e-06,-1.05996e+09,-1.0596e+09,-1.06001e+09,197982,0.0103672,0.102603,0,0.103126,-7503.67,-38600.8,-0,39323.4,197982
step02_gravity_refstate-crust.xmf,1809,-4.94849e-07,2.4528e-06,0,1.20573e-06,-5.81688e+08,-5.81486e+08,-5.81654e+08,82713.4,-0.00710041,0.134362,-0,0.134549,-16454.9,-21178.7,-0,26819.8,82713.4
step02_gravity_refstate-crust.xmf,1810,-5.33075e-07,2.59676e-06,0,1.20837e-06,-6.07683e+08,-6.07469e+08,-6.07647e+08,82894.1,-0.00703033,0.132782,-0,0.132968,-16150.5,-22125.2,-0,27392.8,82894.1
step02_gravity_refstate-crust.xmf,1811,-5.80961e-07,2.76169e-06,0,1.22969e-06,-6.38247e+08,-6.38017e+08,-6.38207e+08,84356.9,-0.00699908,0.131401,-0,0.131587,-15572.8,-23237.9,-0,27973.4,84356.9
step02_gravity_refstate-crust.xmf,1812,-6.28877e-07,2.9306e-06,0,1.24607e-06,-6.68412e+08,-6.68168e+08,-6.68369e+08,85480.6,-0.00689876,0.130005,-0,0.130188,-14978.2,-24336.2,-0,28576.2,85480.6
step02_gravity_refstate-crust.xmf,1813,-4.17667e-07,2.20027e-06,0,1.04327e-06,-5.23607e+08,-5.23428e+08,-5.23579e+08,71568,-0.00643225,0.133607,-0,0.133762,-18790.4,-19064.2,-0,26767.9,71568
step02_gravity_refstate-crust.xmf,1814,-3.72642e-07,1.99145e-06,0,9.15687e-07,-4.75992e+08,-4.7583e+08,-4.75966e+08,62816.1,-0.00591085,0.132823,-0,0.132954,-20864.9,-17330.5,-0,27123.6,62816.1
step02_gravity_refstate-crust.xmf,1815,-3.43762e-07,1.76139e-06,0,6.82638e-07,-4.23465e+08,-4.23321e+08,-4.23442e+08,46828.9,-0.00484557,0.129151,-0,0.129242,-24919.3,-15418,-0,29303.3,46828.9
step02_gravity_refstate-crust.xmf,1816,-3.69514e-07,1.27672e-06,0,4.6994e-07,-3.07792e+08,-3.07679e+08,-3.07766e+08,32237.9,-0.00461306,0.130446,-0,0.130528,-28543.8,-11205.9,-0,30664.7,32237.9
step02_gravity_refstate-crust.xmf,1817,-4.44631e-07,1.06513e-06,0,3.03801e-07,-2.50328e+08,-2.50224e+08,-2.50297e+08,20840.7,-0.00394353,0.129561,-0,0.129621,-31698.6,-9113.29,-0,32982.6,20840.7
step02_gravity_refstate-crust.xmf,1818,-7.92119e-07,3.63633e-06,0,1.34171e-06,-7.85096e+08,-7.84792e+08,-7.85042e+08,92041.5,-0.00567236,0.126533,-0,0.12666,-11931.8,-28584.6,-0,30975,92041.5
step02_gravity_refstate-crust.xmf,1819,-6.7296e-07,3.09889e-06,0,1.25529e-06,-6.97415e+08,-6.97156e+08,-6.97369e+08,86112.7,-0.00670476,0.128608,-0,0.128783,-14394.8,-25392.2,-0,29188.5,86112.7
step02_gravity_refstate-crust.xmf,1820,4.28216e-07,4.81484e-06,0,1.70439e-06,-9.80549e+08,-9.80248e+08,-9.80578e+08,116921,0.00705211,0.111695,0,0.111917,-8665,-35707.1,-0,36743.4,116921
step02_gravity_refstate-crust.xmf,1821,7.16878e-07,5.49024e-06,0,2.45814e-06,-1.03947e+09,-1.03914e+09,-1.03951e+09,168628,0.0100813,0.104377,0,0.104863,-7975.95,-37854.2,-0,38685.3,168628
step02_gravity_refstate-crust.xmf,1822,-5.09723e-07,2.57302e-06,0,1.1015e-06,-5.98077e+08,-5.97866e+08,-5.98042e+08,75563,-0.00647995,0.130457,-0,0.130618,-17396.5,-21775.5,-0,27871.3,75563
step02_gravity_refstate-crust.xmf,1823,-4.63641e-07,2.39614e-06,0,1.0657e-06,-5.63043e+08,-5.62847e+08,-5.63011e+08,73107.3,-0.00641221,0.13167,-0,0.131826,-18201.5,-20500,-0,27414.3,73107.3
step02_gravity_refstate-crust.xmf,1824,-4.11062e-07,2.19016e-06,0,9.47909e-07,-5.18294e+08,-5.18116e+08,-5.18266e+08,65026.6,-0.00588629,0.130972,-0,0.131104,-20197.8,-18870.7,-0,27641.5,65026.6
step02_gravity_refstate-crust.xmf,1825,-3.68012e-07,1.98907e-06,0,8.12716e-07,-4.73752e+08,-4.7359e+08,-4.73726e+08,55752.3,-0.00530952,0.129794,-0,0.129902,-22529.9,-17249,-0,28374.7,55752.3
step02_gravity_refstate-crust.xmf,1826,-3.58909e-07,1.96515e-06,0,7.15781e-07,-4.69486e+08,-4.69327e+08,-4.69462e+08,49102.6,-0.00472354,0.127134,-0,0.127222,-24236.5,-17093.7,-0,29658.1,49102.6
step02_gravity_refstate-crust.xmf,1827,-3.47403e-07,1.49183e-06,0,5.36495e-07,-3.61167e+08,-3.6104e+08,-3.61143e+08,36803.6,-0.00444305,0.128949,-0,0.129025,-27604.3,-13149.5,-0,30576.3,36803.6
step02_gravity_refstate-crust.xmf,1828,-3.4077e-07,1.70647e-06,0,5.8409e-07,-4.12196e+08,-4.12056e+08,-4.12173e+08,40068.6,-0.0042896,0.127059,-0,0.127132,-26806.1,-15007.7,-0,30721.3,40068.6
step02_gravity_refstate-crust.xmf,1829,-3.90132e-07,1.26474e-06,0,3.72216e-07,-3.04679e+08,-3.04566e+08,-3.04652e+08,25534,-0.00381349,0.128173,-0,0.12823,-30727.7,-11092.5,-0,32668.6,25534
step02_gravity_refstate-crust.xmf,1830,-4.60422e-07,1.08087e-06,0,2.25032e-07,-2.53894e+08,-2.53788e+08,-2.53862e+08,15437.2,-0.0029746,0.127803,-0,0.127838,-33766.3,-9243.07,-0,35008.6,15437.2
step02_gravity_refstate-crust.xmf,1831,-5.06517e-07,9.9642e-07,0,1.49171e-07,-2.28947e+08,-2.28844e+08,-2.28913e+08,10233.1,-0.002269,0.127689,-0,0.12771,-35606.3,-8334.55,-0,36568.8,10233.1
step02_gravity_refstate-crust.xmf,1832,-5.74228e-07,8.84515e-07,0,6.73845e-08,-1.93396e+08,-1.93296e+08,-1.93357e+08,4622.58,-0.00128341,0.128131,-0,0.128138,-37779.7,-7039.83,-0,38430,4622.58
step02_gravity_refstate-crust.xmf,1833,-6.52486e-07,7.66352e-07,0,-4.8961e-10,-1.53593e+08,-1.53495e+08,-1.53548e+08,-33.5873,-2.60231e-19,0.129065,-0,0.129065,-40000,-5590.24,-0,40388.7,33.5873
step02_gravity_refstate-crust.xmf,1834,-7.10067e-07,3.27037e-06,0,1.25466e-06,-7.26017e+08,-7.25744e+08,-7.25968e+08,86069.4,-0.00637724,0.127128,-0,0.127288,-13825.2,-26433.6,-0,29830.7,86069.4
step02_gravity_refstate-crust.xmf,1835,-7.35692e-07,3.44318e-06,0,1.24646e-06,-7.54217e+08,-7.5393e+08,-7.54166e+08,85506.9,-0.00590115,0.125639,-0,0.125777,-13248.5,-27460.4,-0,30489.2,85506.9
step02_gravity_refstate-crust.xmf,1836,-7.34682e-07,3.61146e-06,0,1.21222e-06,-7.81875e+08,-7.81577e+08,-7.81824e+08,83158,-0.00515551,0.1237,-0,0.123808,-12794.7,-28467.6,-0,31210.7,83158
step02_gravity_refstate-crust.xmf,1837,-7.08505e-07,3.761e-06,0,1.17548e-06,-8.07038e+08,-8.06731e+08,-8.06989e+08,80638.1,-0.00428173,0.121862,-0,0.121937,-12378.6,-29384,-0,31884.9,80638.1
step02_gravity_refstate-crust.xmf,1838,-6.56548e-07,3.89496e-06,0,1.14618e-06,-8.30565e+08,-8.30252e+08,-8.3052e+08,78628,-0.00330409,0.120243,-0,0.120289,-11945.4,-30240.9,-0,32514.7,78628
step02_gravity_refstate-crust.xmf,1839,-5.86098e-07,4.01281e-06,0,1.13716e-06,-8.52088e+08,-8.51773e+08,-8.52048e+08,78008.8,-0.00228146,0.119043,-0,0.119065,-11469.5,-31025,-0,33077.2,78008.8
step02_gravity_refstate-crust.xmf,1840,-5.2364e-07,4.11719e-06,0,1.18176e-06,-8.69883e+08,-8.69564e+08,-8.69847e+08,81068.5,-0.001408,0.118982,-0,0.118991,-10857.4,-31673.2,-0,33482.5,81068.5
step02_gravity_refstate-crust.xmf,1841,2.19729e-07,4.62537e-06,0,1.47707e-06,-9.59121e+08,-9.58818e+08,-9.59136e+08,101327,0.00531529,0.112886,0,0.113011,-9143.51,-34925.8,-0,36102.8,101327
step02_gravity_refstate-crust.xmf,1842,-3.79833e-07,4.22745e-06,0,1.16339e-06,-8.9191e+08,-8.91594e+08,-8.91884e+08,79808.7,0.000105787,0.116797,0,0.116797,-10592.2,-32475.9,-0,34159.6,79808.7
step02_gravity_refstate-crust.xmf,1843,-1.98364e-07,4.34585e-06,0,1.21058e-06,-9.14923e+08,-9.14611e+08,-9.14909e+08,83045.9,0.0017719,0.115304,0,0.115318,-10129,-33314.6,-0,34820.4,83045.9
step02_gravity_refstate-crust.xmf,1844,1.72093e-09,4.47369e-06,0,1.31356e-06,-9.3696e+08,-9.36654e+08,-9.3696e+08,90110.1,0.00349882,0.114131,0,0.114184,-9630.73,-34117.9,-0,35451.1,90110.1
step02_gravity_refstate-crust.xmf,1845,6.72443e-07,5.13511e-06,0,2.07071e-06,-1.02346e+09,-1.02315e+09,-1.0235e+09,142051,0.00928284,0.104214,0,0.104627,-8610.85,-37270.7,-0,38252.4,142051
step02_gravity_refstate-crust.xmf,1846,5.66213e-07,4.87341e-06,0,1.76463e-06,-1.0033e+09,-1.003e+09,-1.00334e+09,121053,0.00818363,0.105583,0,0.105899,-9077.75,-36535.9,-0,37646.7,121053
step02_gravity_refstate-crust.xmf,1847,6.20418e-07,5.63619e-06,0,2.56423e-06,-1.05898e+09,-1.05863e+09,-1.05902e+09,175906,0.00988449,0.0988709,0,0.0993637,-8284.74,-38564.4,-0,39444.2,175906
step02_gravity_refstate-crust.xmf,1848,4.51248e-07,6.12976e-06,0,2.96958e-06,-1.07892e+09,-1.07853e+09,-1.07895e+09,203713,0.00963169,0.0968722,0,0.0973499,-7814.23,-39290.5,-0,40060.1,203713
step02_gravity_refstate-crust.xmf,1849,-6.27103e-07,3.10918e-06,0,1.10739e-06,-6.97004e+08,-6.96748e+08,-6.96961e+08,75966.6,-0.00590884,0.124955,-0,0.125095,-15632.9,-25377.4,-0,29806.1,75966.6
step02_gravity_refstate-crust.xmf,1850,-5.54831e-07,2.77478e-06,0,1.09976e-06,-6.35978e+08,-6.35749e+08,-6.3594e+08,75443.8,-0.00629789,0.128132,-0,0.128287,-16862.7,-23155.5,-0,28644.8,75443.8
step02_gravity_refstate-crust.xmf,1851,-5.94305e-07,2.94799e-06,0,1.10602e-06,-6.67923e+08,-6.6768e+08,-6.67882e+08,75872.8,-0.00613799,0.126476,-0,0.126625,-16236.2,-24318.6,-0,29240.5,75872.8
step02_gravity_refstate-crust.xmf,1852,-4.47763e-07,2.39792e-06,0,9.61788e-07,-5.60425e+08,-5.6023e+08,-5.60394e+08,65978.7,-0.00581011,0.128791,-0,0.128922,-19572.4,-20404.7,-0,28274.2,65978.7
step02_gravity_refstate-crust.xmf,1853,-3.94795e-07,2.18336e-06,0,8.41916e-07,-5.15354e+08,-5.15178e+08,-5.15327e+08,57755.4,-0.00527154,0.128031,-0,0.128139,-21784.5,-18763.8,-0,28751.4,57755.4
step02_gravity_refstate-crust.xmf,1854,-3.43559e-07,1.93108e-06,0,6.17745e-07,-4.64005e+08,-4.63849e+08,-4.63981e+08,42377.3,-0.00413956,0.124738,-0,0.124807,-26029.3,-16894.2,-0,31031.2,42377.3
step02_gravity_refstate-crust.xmf,1855,-3.56083e-07,1.4717e-06,0,4.34196e-07,-3.57622e+08,-3.57497e+08,-3.57598e+08,29785.9,-0.00372035,0.126565,-0,0.12662,-29744,-13020.4,-0,32469,29785.9
step02_gravity_refstate-crust.xmf,1856,-4.06502e-07,1.25367e-06,0,2.75324e-07,-3.02343e+08,-3.02229e+08,-3.02315e+08,18887.2,-0.00292504,0.126288,-0,0.126321,-33006.6,-11007.4,-0,34793.7,18887.2
step02_gravity_refstate-crust.xmf,1857,-6.53847e-07,3.27038e-06,0,1.10474e-06,-7.25488e+08,-7.25219e+08,-7.25443e+08,75785,-0.00558423,0.123473,-0,0.123599,-15009.3,-26414.5,-0,30381,75785
step02_gravity_refstate-crust.xmf,1858,3.99659e-07,4.66449e-06,0,1.5041e-06,-9.80982e+08,-9.80689e+08,-9.81009e+08,103181,0.00672027,0.107273,0,0.107483,-9534.06,-35722.5,-0,36972.9,103181
step02_gravity_refstate-crust.xmf,1859,6.72059e-07,5.31219e-06,0,2.26032e-06,-1.04196e+09,-1.04164e+09,-1.04201e+09,155058,0.00965361,0.100578,0,0.10104,-8634.1,-37944.6,-0,38914.5,155058
step02_gravity_refstate-crust.xmf,1860,-4.86804e-07,2.59722e-06,0,9.73526e-07,-6.00178e+08,-5.99966e+08,-6.00144e+08,66783.9,-0.00571711,0.126724,-0,0.126853,-18879.9,-21852.1,-0,28878.5,66783.9
step02_gravity_refstate-crust.xmf,1861,-4.27216e-07,2.37506e-06,0,8.64981e-07,-5.55849e+08,-5.55657e+08,-5.5582e+08,59337.7,-0.00521743,0.126144,-0,0.126252,-21031.3,-20238.2,-0,29187.4,59337.7
step02_gravity_refstate-crust.xmf,1862,-3.75187e-07,2.16687e-06,0,7.39682e-07,-5.13344e+08,-5.13169e+08,-5.13318e+08,50742.2,-0.00463948,0.125128,-0,0.125214,-23470.4,-18690.6,-0,30003.3,50742.2
step02_gravity_refstate-crust.xmf,1863,-3.5431e-07,2.13647e-06,0,6.43745e-07,-5.10428e+08,-5.10257e+08,-5.10404e+08,44160.9,-0.00402744,0.122506,-0,0.122572,-25224.2,-18584.5,-0,31331.2,44160.9
step02_gravity_refstate-crust.xmf,1864,-3.37641e-07,1.6824e-06,0,4.84824e-07,-4.09071e+08,-4.08933e+08,-4.09048e+08,33258.9,-0.00363724,0.124686,-0,0.124739,-28801.7,-14893.9,-0,32424.7,33258.9
step02_gravity_refstate-crust.xmf,1865,-3.29669e-07,1.89243e-06,0,5.21807e-07,-4.5878e+08,-4.58628e+08,-4.58757e+08,35795.9,-0.00354222,0.122521,-0,0.122572,-27927.7,-16703.9,-0,32542,35795.9
step02_gravity_refstate-crust.xmf,1866,-3.62647e-07,1.45216e-06,0,3.35482e-07,-3.54643e+08,-3.54519e+08,-3.54619e+08,23014,-0.00296062,0.124592,-0,0.124627,-31921,-12911.9,-0,34433.6,23014
step02_gravity_refstate-crust.xmf,1867,-4.23058e-07,1.23212e-06,0,1.76378e-07,-2.97182e+08,-2.97069e+08,-2.97153e+08,12099.5,-0.00195443,0.125009,-0,0.125024,-35428,-10819.4,-0,37043.3,12099.5
step02_gravity_refstate-crust.xmf,1868,-4.69942e-07,1.11103e-06,0,8.06341e-08,-2.62842e+08,-2.62734e+08,-2.6281e+08,5531.5,-0.0010482,0.125608,-0,0.125612,-37780.4,-9568.86,-0,38973.3,5531.5
step02_gravity_refstate-crust.xmf,1869,-5.2235e-07,9.93189e-07,0,-2.09157e-10,-2.27364e+08,-2.2726e+08,-2.27328e+08,-14.3482,-2.11237e-19,0.126701,-0,0.126701,-40000,-8276.85,-0,40847.4,14.3482
step02_gravity_refstate-crust.xmf,1870,-6.67933e-07,3.43109e-06,0,1.09186e-06,-7.53587e+08,-7.53305e+08,-7.53541e+08,74901.6,-0.00510274,0.121865,-0,0.121971,-14416.7,-27437.7,-0,30994.6,74901.6
step02_gravity_refstate-crust.xmf,1871,-6.63631e-07,3.58511e-06,0,1.07068e-06,-7.8077e+08,-7.80479e+08,-7.80725e+08,73448.5,-0.00445605,0.120178,-0,0.12026,-13860.6,-28427.6,-0,31626.7,73448.5
step02_gravity_refstate-crust.xmf,1872,-6.32198e-07,3.73215e-06,0,1.03969e-06,-8.07748e+08,-8.07449e+08,-8.07705e+08,71322.8,-0.00358775,0.118256,-0,0.118311,-13360.5,-29410.1,-0,32302.6,71322.8
step02_gravity_refstate-crust.xmf,1873,-5.63044e-07,3.87802e-06,0,1.0051e-06,-8.36273e+08,-8.35968e+08,-8.36234e+08,68949.9,-0.0024204,0.11603,-0,0.116055,-12863.3,-30449.1,-0,33054.7,68949.9
step02_gravity_refstate-crust.xmf,1874,-4.72738e-07,4.00211e-06,0,9.92298e-07,-8.61309e+08,-8.61002e+08,-8.61277e+08,68071.7,-0.00123302,0.114307,-0,0.114313,-12345.3,-31361.1,-0,33703.5,68071.7
step02_gravity_refstate-crust.xmf,1875,-3.72872e-07,4.12529e-06,0,1.02496e-06,-8.83922e+08,-8.83614e+08,-8.83897e+08,70312.2,-7.9102e-05,0.1137,-0,0.1137,-11625.4,-32185,-0,34220.2,70312.2
step02_gravity_refstate-crust.xmf,1876,2.14301e-07,4.50554e-06,0,1.29777e-06,-9.59658e+08,-9.59363e+08,-9.59672e+08,89026.8,0.00515992,0.108491,0,0.108614,-10042.5,-34945.1,-0,36359.5,89026.8
step02_gravity_refstate-crust.xmf,1877,-1.70372e-07,4.25429e-06,0,1.05996e-06,-9.13837e+08,-9.13534e+08,-9.13826e+08,72713,0.00187352,0.111133,0,0.111149,-11127.6,-33275.1,-0,35086.4,72713
step02_gravity_refstate-crust.xmf,1878,2.04365e-08,4.37126e-06,0,1.14878e-06,-9.37686e+08,-9.37388e+08,-9.37688e+08,78806.1,0.00354292,0.109546,0,0.109603,-10611.2,-34144.3,-0,35755.1,78806.1
step02_gravity_refstate-crust.xmf,1879,5.12327e-07,4.71262e-06,0,1.54757e-06,-1.00345e+09,-1.00316e+09,-1.00348e+09,106163,0.00768785,0.101278,0,0.101569,-10012.8,-36540.8,-0,37887.8,106163
step02_gravity_refstate-crust.xmf,1880,6.21789e-07,5.0055e-06,0,1.91125e-06,-1.03016e+09,-1.02986e+09,-1.0302e+09,131112,0.00893051,0.0990743,0,0.099476,-9437.98,-37514.2,-0,38683.2,131112
step02_gravity_refstate-crust.xmf,1881,5.87181e-07,5.35231e-06,0,2.24869e-06,-1.05652e+09,-1.0562e+09,-1.05656e+09,154260,0.00939194,0.0954653,0,0.0959262,-9130.93,-38474.4,-0,39543.1,154260
step02_gravity_refstate-crust.xmf,1882,4.45314e-07,5.77765e-06,0,2.60708e-06,-1.07795e+09,-1.07759e+09,-1.07798e+09,178846,0.00927411,0.0930672,0,0.0935282,-8690.1,-39254.7,-0,40205.1,178846
step02_gravity_refstate-crust.xmf,1883,-5.20092e-07,2.77161e-06,0,9.79613e-07,-6.34221e+08,-6.33995e+08,-6.34185e+08,67201.4,-0.00558973,0.124918,-0,0.125043,-18227.8,-23091.6,-0,29419,67201.4
step02_gravity_refstate-crust.xmf,1884,-5.91003e-07,3.25812e-06,0,9.68949e-07,-7.26073e+08,-7.25809e+08,-7.26033e+08,66469.9,-0.00478185,0.119814,-0,0.11991,-16271.2,-26436.1,-0,31042.2,66469.9
step02_gravity_refstate-crust.xmf,1885,-5.72834e-07,3.10686e-06,0,9.71631e-07,-6.98023e+08,-6.97771e+08,-6.97984e+08,66653.9,-0.00509467,0.121266,-0,0.121373,-16950.1,-25414.7,-0,30548.5,66653.9
step02_gravity_refstate-crust.xmf,1886,-5.49578e-07,2.94496e-06,0,9.77077e-07,-6.67429e+08,-6.6719e+08,-6.67392e+08,67027.5,-0.00537289,0.123015,-0,0.123132,-17589.6,-24300.8,-0,29998.7,67027.5
step02_gravity_refstate-crust.xmf,1887,-4.53134e-07,2.57008e-06,0,8.69215e-07,-5.95517e+08,-5.9531e+08,-5.95486e+08,59628.2,-0.0050836,0.123968,-0,0.124073,-20347.7,-21682.5,-0,29734.8,59628.2
step02_gravity_refstate-crust.xmf,1888,-3.9559e-07,2.35819e-06,0,7.57629e-07,-5.54309e+08,-5.5412e+08,-5.54282e+08,51973.3,-0.00455379,0.123135,-0,0.12322,-22687.4,-20182.2,-0,30365.1,51973.3
step02_gravity_refstate-crust.xmf,1889,-3.28163e-07,2.10182e-06,0,5.47724e-07,-5.07223e+08,-5.07056e+08,-5.072e+08,37573.8,-0.00343118,0.120127,-0,0.120176,-27059.6,-18467.9,-0,32761,37573.8
step02_gravity_refstate-crust.xmf,1890,-3.33682e-07,1.65717e-06,0,3.85884e-07,-4.06219e+08,-4.06082e+08,-4.06196e+08,26471.6,-0.00295275,0.122605,-0,0.122641,-30903.1,-14790,-0,34260,26471.6
step02_gravity_refstate-crust.xmf,1891,-3.6706e-07,1.43667e-06,0,2.42641e-07,-3.52607e+08,-3.52483e+08,-3.52582e+08,16645.2,-0.00218915,0.123086,-0,0.123106,-34069.9,-12837.8,-0,36408.3,16645.2
step02_gravity_refstate-crust.xmf,1892,-5.98183e-07,3.4068e-06,0,9.5944e-07,-7.53638e+08,-7.53363e+08,-7.53597e+08,65817.6,-0.00433852,0.118275,-0,0.118355,-15620,-27439.8,-0,31574.2,65817.6
step02_gravity_refstate-crust.xmf,1893,3.56476e-07,4.55333e-06,0,1.35384e-06,-9.79382e+08,-9.79094e+08,-9.79406e+08,92873.6,0.00634265,0.104194,0,0.104387,-10279.5,-35663.9,-0,37115.7,92873.6
step02_gravity_refstate-crust.xmf,1894,-4.78745e-07,2.75529e-06,0,8.67612e-07,-6.32971e+08,-6.32749e+08,-6.32938e+08,59518.2,-0.00488596,0.121766,-0,0.121864,-19674.8,-23046.3,-0,30302.3,59518.2
step02_gravity_refstate-crust.xmf,1895,-4.19035e-07,2.54237e-06,0,7.69158e-07,-5.93488e+08,-5.93284e+08,-5.93459e+08,52764.2,-0.00442615,0.121057,-0,0.121138,-21917.5,-21608.8,-0,30778.5,52764.2
step02_gravity_refstate-crust.xmf,1896,-3.6364e-07,2.33444e-06,0,6.58397e-07,-5.53782e+08,-5.53597e+08,-5.53757e+08,45166,-0.0039092,0.120271,-0,0.120334,-24399.4,-20163.1,-0,31652.5,45166
step02_gravity_refstate-crust.xmf,1897,-3.32692e-07,2.30259e-06,0,5.65774e-07,-5.53143e+08,-5.52962e+08,-5.5312e+08,38812.1,-0.00329473,0.117637,-0,0.117684,-26189.1,-20139.9,-0,33037.7,38812.1
step02_gravity_refstate-crust.xmf,1898,-3.15702e-07,1.86297e-06,0,4.26251e-07,-4.5631e+08,-4.56161e+08,-4.56289e+08,29240.8,-0.00291803,0.120388,-0,0.120423,-29919.5,-16614,-0,34222.9,29240.8
step02_gravity_refstate-crust.xmf,1899,-3.0476e-07,2.06735e-06,0,4.55602e-07,-5.04973e+08,-5.0481e+08,-5.04952e+08,31254.3,-0.00284434,0.117941,-0,0.117976,-28972.5,-18386,-0,34314,31254.3
step02_gravity_refstate-crust.xmf,1900,-3.29531e-07,1.63624e-06,0,2.88642e-07,-4.04392e+08,-4.04257e+08,-4.04369e+08,19800.8,-0.00224406,0.120873,-0,0.120893,-33074.8,-14723.5,-0,36203.9,19800.8
step02_gravity_refstate-crust.xmf,1901,-3.7024e-07,1.42423e-06,0,1.62558e-07,-3.50765e+08,-3.50642e+08,-3.5074e+08,11151.5,-0.0014949,0.122163,-0,0.122172,-35975.9,-12770.7,-0,38175.3,11151.5
step02_gravity_refstate-crust.xmf,1902,-3.9141e-07,1.34827e-06,0,8.43471e-08,-3.30673e+08,-3.30553e+08,-3.30646e+08,5786.21,-0.000836171,0.12255,-0,0.122553,-37869,-12039,-0,39736.6,5786.21
step02_gravity_refstate-crust.xmf,1903,-4.26581e-07,1.23685e-06,0,9.73091e-11,-2.99422e+08,-2.99308e+08,-2.99393e+08,6.67541,-1.6769e-19,0.123776,-0,0.123776,-40000,-10900.9,-0,41458.8,6.67541
step02_gravity_refstate-crust.xmf,1904,-5.88711e-07,3.54789e-06,0,9.41619e-07,-7.8021e+08,-7.79926e+08,-7.8017e+08,64595,-0.00374151,0.1166,-0,0.11666,-15036.2,-28407.4,-0,32141.4,64595
step02_gravity_refstate-crust.xmf,1905,-5.60014e-07,3.68497e-06,0,9.21358e-07,-8.06689e+08,-8.06398e+08,-8.06651e+08,63205.2,-0.00298337,0.114862,-0,0.1149,-14455.5,-29371.8,-0,32736.3,63205.2
step02_gravity_refstate-crust.xmf,1906,-5.0365e-07,3.81673e-06,0,9.00161e-07,-8.33501e+08,-8.33205e+08,-8.33466e+08,61751.1,-0.00201755,0.112965,-0,0.112983,-13892,-30348.3,-0,33376.8,61751.1
step02_gravity_refstate-crust.xmf,1907,-4.16279e-07,3.93917e-06,0,8.86997e-07,-8.6008e+08,-8.59781e+08,-8.60051e+08,60848,-0.000860558,0.110992,-0,0.110996,-13345.1,-31316.5,-0,34041.3,60848
step02_gravity_refstate-crust.xmf,1908,-2.97883e-07,4.05519e-06,0,8.95771e-07,-8.86347e+08,-8.86048e+08,-8.86326e+08,61449.9,0.000460731,0.109116,0,0.109117,-12770.5,-32273.4,-0,34708.2,61449.9
step02_gravity_refstate-crust.xmf,1909,-1.50054e-07,4.16521e-06,0,9.34179e-07,-9.11978e+08,-9.11682e+08,-9.11968e+08,64084.7,0.00192075,0.107284,0,0.107301,-12203.6,-33207.3,-0,35378.7,64084.7
step02_gravity_refstate-crust.xmf,1910,2.23135e-07,4.41167e-06,0,1.16061e-06,-9.64081e+08,-9.63793e+08,-9.64096e+08,79617.9,0.00521891,0.103464,0,0.103595,-11063.9,-35106.1,-0,36808.2,79617.9
step02_gravity_refstate-crust.xmf,1911,1.89819e-08,4.27474e-06,0,1.01181e-06,-9.36713e+08,-9.36421e+08,-9.36714e+08,69410,0.00345612,0.105507,0,0.105563,-11655.5,-34108.7,-0,36045.2,69410
step02_gravity_refstate-crust.xmf,1912,4.09931e-07,4.55215e-06,0,1.3335e-06,-9.93566e+08,-9.93282e+08,-9.93594e+08,91478.1,0.0068499,0.0994035,0,0.0996392,-10873.3,-36180.5,-0,37779,91478.1
step02_gravity_refstate-crust.xmf,1913,5.57325e-07,4.83571e-06,0,1.67398e-06,-1.02587e+09,-1.02558e+09,-1.02591e+09,114835,0.00836009,0.0964683,0,0.0968299,-10229.8,-37357.6,-0,38732.9,114835
step02_gravity_refstate-crust.xmf,1914,5.3638e-07,5.08108e-06,0,1.91737e-06,-1.05111e+09,-1.0508e+09,-1.05115e+09,131532,0.00883685,0.0924143,0,0.0928359,-10105.6,-38276.8,-0,39588.4,131532
step02_gravity_refstate-crust.xmf,1915,4.28667e-07,5.49137e-06,0,2.28121e-06,-1.07648e+09,-1.07614e+09,-1.07651e+09,156491,0.00891747,0.0895904,0,0.0900331,-9592.56,-39200.7,-0,40357.3,156491
step02_gravity_refstate-crust.xmf,1916,-4.99007e-07,2.93025e-06,0,8.60139e-07,-6.67902e+08,-6.67667e+08,-6.67868e+08,59005.5,-0.0046213,0.119627,-0,0.119716,-19005.7,-24318.2,-0,30864.1,59005.5
step02_gravity_refstate-crust.xmf,1917,-5.23591e-07,3.37978e-06,0,8.3761e-07,-7.56015e+08,-7.55748e+08,-7.55979e+08,57460,-0.00353791,0.114522,-0,0.114576,-16909.4,-27526.6,-0,32305.4,57460
step02_gravity_refstate-crust.xmf,1918,-5.20828e-07,3.24304e-06,0,8.41781e-07,-7.296e+08,-7.29342e+08,-7.29565e+08,57746.2,-0.0039302,0.115917,-0,0.115984,-17627.8,-26564.7,-0,31881.4,57746.2
step02_gravity_refstate-crust.xmf,1919,-5.1271e-07,3.09364e-06,0,8.49215e-07,-7.00259e+08,-7.00012e+08,-7.00224e+08,58256.2,-0.00429138,0.117616,-0,0.117694,-18334.8,-25496.3,-0,31404.3,58256.2
step02_gravity_refstate-crust.xmf,1920,-4.33939e-07,2.72436e-06,0,7.67356e-07,-6.31081e+08,-6.30865e+08,-6.31051e+08,52640.6,-0.00423125,0.118881,-0,0.118956,-21171.9,-22977.6,-0,31244.5,52640.6
step02_gravity_refstate-crust.xmf,1921,-3.75778e-07,2.51902e-06,0,6.68185e-07,-5.93841e+08,-5.93643e+08,-5.93815e+08,45837.5,-0.00376756,0.118094,-0,0.118154,-23569.3,-21621.8,-0,31984.5,45837.5
step02_gravity_refstate-crust.xmf,1922,-2.97111e-07,2.27005e-06,0,4.73469e-07,-5.52656e+08,-5.5248e+08,-5.52636e+08,32480,-0.00271163,0.115239,-0,0.115271,-28062.8,-20122.3,-0,34531.5,32480
step02_gravity_refstate-crust.xmf,1923,-3.01952e-07,1.83968e-06,0,3.30685e-07,-4.555e+08,-4.55354e+08,-4.5548e+08,22685,-0.00227392,0.118464,-0,0.118486,-32022.2,-16584.6,-0,36062,22685
step02_gravity_refstate-crust.xmf,1924,-3.26543e-07,1.61775e-06,0,1.93391e-07,-4.02602e+08,-4.02469e+08,-4.0258e+08,13266.6,-0.00152321,0.119608,-0,0.119618,-35299,-14658.3,-0,38221.5,13266.6
step02_gravity_refstate-crust.xmf,1925,-5.15201e-07,3.50777e-06,0,8.31334e-07,-7.80995e+08,-7.80719e+08,-7.8096e+08,57029.5,-0.00305036,0.113148,-0,0.113189,-16233.8,-28436.2,-0,32743.8,57029.5
step02_gravity_refstate-crust.xmf,1926,4.96251e-07,4.69095e-06,0,1.49732e-06,-1.0139e+09,-1.01361e+09,-1.01393e+09,102716,0.00776082,0.0967475,0,0.0970582,-10678.5,-36921.3,-0,38434.5,102716
step02_gravity_refstate-crust.xmf,1927,-4.4651e-07,2.90386e-06,0,7.58082e-07,-6.68404e+08,-6.68174e+08,-6.68373e+08,52004.4,-0.00393075,0.116503,-0,0.116569,-20446.3,-24336.6,-0,31785.5,52004.4
step02_gravity_refstate-crust.xmf,1928,-3.89968e-07,2.68989e-06,0,6.74254e-07,-6.30713e+08,-6.30502e+08,-6.30686e+08,46253.8,-0.00358727,0.115995,-0,0.11605,-22753.5,-22964.3,-0,32327.8,46253.8
step02_gravity_refstate-crust.xmf,1929,-3.33533e-07,2.49637e-06,0,5.72983e-07,-5.96377e+08,-5.96183e+08,-5.96354e+08,39306.6,-0.0031222,0.115137,-0,0.115179,-25302.6,-21714.2,-0,33342.6,39306.6
step02_gravity_refstate-crust.xmf,1930,-2.93079e-07,2.46596e-06,0,4.8353e-07,-5.98658e+08,-5.98469e+08,-5.98638e+08,33170.1,-0.00251504,0.112381,-0,0.112409,-27165.8,-21797.4,-0,34829.7,33170.1
step02_gravity_refstate-crust.xmf,1931,-2.82312e-07,2.0366e-06,0,3.62675e-07,-5.03863e+08,-5.03704e+08,-5.03844e+08,24879.5,-0.00225079,0.115926,-0,0.115948,-31022.3,-18345.7,-0,36040.9,24879.5
step02_gravity_refstate-crust.xmf,1932,-2.66741e-07,2.23344e-06,0,3.86362e-07,-5.5154e+08,-5.51369e+08,-5.51522e+08,26504.4,-0.00217008,0.113184,-0,0.113204,-30017.3,-20081.7,-0,36115.3,26504.4
step02_gravity_refstate-crust.xmf,1933,-2.91032e-07,1.81499e-06,0,2.35273e-07,-4.53779e+08,-4.53635e+08,-4.53759e+08,16139.7,-0.00162706,0.116995,-0,0.117007,-34235.2,-16521.9,-0,38013.5,16139.7
step02_gravity_refstate-crust.xmf,1934,-3.24666e-07,1.60528e-06,0,8.94985e-08,-4.01423e+08,-4.01291e+08,-4.01401e+08,6139.6,-0.000712626,0.118762,-0,0.118764,-37800.5,-14615.4,-0,40527.6,6139.6
step02_gravity_refstate-crust.xmf,1935,-3.52428e-07,1.48834e-06,0,3.1114e-10,-3.69965e+08,-3.69838e+08,-3.69941e+08,21.3442,-1.42969e-19,0.120276,-0,0.120276,-40000,-13469.8,-0,42207.1,21.3442
step02_gravity_refstate-crust.xmf,1936,-4.89769e-07,3.62896e-06,0,8.17999e-07,-8.05461e+08,-8.05179e+08,-8.05428e+08,56114.7,-0.00241092,0.111564,-0,0.11159,-15645.1,-29327.3,-0,33239.4,56114.7
step02_gravity_refstate-crust.xmf,1937,-4.38252e-07,3.75194e-06,0,8.00477e-07,-8.31802e+08,-8.31514e+08,-8.31772e+08,54912.8,-0.00154455,0.109643,-0,0.109654,-15069.2,-30286.6,-0,33828.4,54912.8
step02_gravity_refstate-crust.xmf,1938,-3.61071e-07,3.87142e-06,0,7.92421e-07,-8.58625e+08,-8.58334e+08,-8.586e+08,54360.1,-0.000503114,0.107689,-0,0.107691,-14462.8,-31263.6,-0,34446.9,54360.1
step02_gravity_refstate-crust.xmf,1939,-2.53826e-07,3.98432e-06,0,8.00105e-07,-8.8566e+08,-8.85369e+08,-8.85642e+08,54887.2,0.000724922,0.105619,0,0.105621,-13870.5,-32248.5,-0,35104.9,54887.2
step02_gravity_refstate-crust.xmf,1940,-1.26154e-07,4.08729e-06,0,8.3258e-07,-9.11239e+08,-9.1095e+08,-9.11231e+08,57115,0.0020299,0.10361,0,0.10363,-13314.9,-33180.4,-0,35752.3,57115
step02_gravity_refstate-crust.xmf,1941,1.6844e-08,4.18809e-06,0,8.96908e-07,-9.35811e+08,-9.35524e+08,-9.35812e+08,61527.9,0.0033817,0.101663,0,0.10172,-12778.4,-34075.7,-0,36392.8,61527.9
step02_gravity_refstate-crust.xmf,1942,1.75109e-07,4.30125e-06,0,1.00605e-06,-9.61008e+08,-9.60724e+08,-9.6102e+08,69014.8,0.00481224,0.0995976,0,0.0997138,-12240.5,-34993.8,-0,37072.9,69014.8
step02_gravity_refstate-crust.xmf,1943,3.27621e-07,4.43198e-06,0,1.15895e-06,-9.8683e+08,-9.86549e+08,-9.86853e+08,79504,0.0061994,0.0970311,0,0.097229,-11802.4,-35934.7,-0,37823.3,79504
step02_gravity_refstate-crust.xmf,1944,4.47569e-07,4.6065e-06,0,1.36799e-06,-1.01411e+09,-1.01382e+09,-1.01414e+09,93844,0.00742167,0.093946,0,0.0942387,-11411.9,-36928.5,-0,38651.6,93844
step02_gravity_refstate-crust.xmf,1945,5.07773e-07,4.81976e-06,0,1.61215e-06,-1.03569e+09,-1.0354e+09,-1.03573e+09,110594,0.00824013,0.092228,0,0.0925954,-10872.9,-37715,-0,39251,110594
step02_gravity_refstate-crust.xmf,1946,3.91168e-07,5.28403e-06,0,2.00557e-06,-1.07631e+09,-1.07598e+09,-1.07634e+09,137582,0.00854752,0.0861578,0,0.0865808,-10500.5,-39193.9,-0,40576.2,137582
step02_gravity_refstate-crust.xmf,1947,-4.4234e-07,3.47475e-06,0,7.3314e-07,-7.84685e+08,-7.84416e+08,-7.84655e+08,50293.4,-0.00234581,0.109644,-0,0.109669,-17435.1,-28570.8,-0,33470.5,50293.4
step02_gravity_refstate-crust.xmf,1948,-4.49823e-07,3.07055e-06,0,7.41214e-07,-7.03281e+08,-7.0304e+08,-7.0325e+08,50847.3,-0.00352969,0.114093,-0,0.114148,-19775.9,-25606.6,-0,32354,50847.3
step02_gravity_refstate-crust.xmf,1949,-4.48308e-07,3.35351e-06,0,7.31469e-07,-7.60915e+08,-7.60654e+08,-7.60884e+08,50178.8,-0.00274978,0.11076,-0,0.110794,-18219.8,-27705.2,-0,33159.4,50178.8
step02_gravity_refstate-crust.xmf,1950,-4.44495e-07,3.22726e-06,0,7.23175e-07,-7.36314e+08,-7.36062e+08,-7.36284e+08,49609.8,-0.00304945,0.111788,-0,0.111829,-19081.6,-26809.5,-0,32906.7,49609.8
step02_gravity_refstate-crust.xmf,1951,-3.93603e-07,2.86094e-06,0,6.67629e-07,-6.67026e+08,-6.66803e+08,-6.66999e+08,45799.3,-0.0033158,0.113726,-0,0.113774,-21968.6,-24286.6,-0,32748.4,45799.3
step02_gravity_refstate-crust.xmf,1952,-3.39488e-07,2.66088e-06,0,5.83575e-07,-6.32425e+08,-6.32219e+08,-6.32402e+08,40033.3,-0.0029729,0.113153,-0,0.113192,-24376.8,-23026.8,-0,33533,40033.3
step02_gravity_refstate-crust.xmf,1953,-2.51332e-07,2.42964e-06,0,3.98512e-07,-5.99026e+08,-5.98842e+08,-5.99008e+08,27337.9,-0.00199586,0.110132,-0,0.11015,-29068.6,-21810.9,-0,36341.4,27337.9
step02_gravity_refstate-crust.xmf,1954,-2.62433e-07,2.01198e-06,0,2.71201e-07,-5.03778e+08,-5.03622e+08,-5.0376e+08,18604.4,-0.00167062,0.114214,-0,0.114226,-33153.4,-18342.6,-0,37889.3,18604.4
step02_gravity_refstate-crust.xmf,1955,-2.86773e-07,1.79034e-06,0,1.5375e-07,-4.50306e+08,-4.50164e+08,-4.50287e+08,10547.3,-0.00107287,0.116244,-0,0.116249,-36202.3,-16395.5,-0,39741.9,10547.3
step02_gravity_refstate-crust.xmf,1956,-4.32359e-07,3.57263e-06,0,7.41395e-07,-8.03987e+08,-8.03712e+08,-8.03957e+08,50859.7,-0.00195856,0.108847,-0,0.108865,-16751.1,-29273.7,-0,33727.6,50859.7
step02_gravity_refstate-crust.xmf,1957,4.6727e-07,4.98704e-06,0,1.7455e-06,-1.05663e+09,-1.05632e+09,-1.05667e+09,119741,0.0084291,0.0881332,0,0.0885354,-10969.9,-38477.4,-0,40010.6,119741
step02_gravity_refstate-crust.xmf,1958,-3.90005e-07,3.03123e-06,0,6.51144e-07,-7.04225e+08,-7.0399e+08,-7.04198e+08,44668.5,-0.00289107,0.111069,-0,0.111106,-21248,-25641.1,-0,33300.8,44668.5
step02_gravity_refstate-crust.xmf,1959,-3.45986e-07,2.81648e-06,0,5.87762e-07,-6.66415e+08,-6.66198e+08,-6.66391e+08,40320.4,-0.00275575,0.111128,-0,0.111162,-23517.2,-24264.5,-0,33790.9,40320.4
step02_gravity_refstate-crust.xmf,1960,-2.85327e-07,2.67087e-06,0,4.85586e-07,-6.46144e+08,-6.45941e+08,-6.46124e+08,33311.2,-0.00223431,0.109264,-0,0.109287,-26150,-23526.5,-0,35175.5,33311.2
step02_gravity_refstate-crust.xmf,1961,-2.35884e-07,2.61521e-06,0,4.00714e-07,-6.44601e+08,-6.44405e+08,-6.44585e+08,27488.9,-0.00171989,0.106871,-0,0.106885,-28221.7,-23470.4,-0,36705.9,27488.9
step02_gravity_refstate-crust.xmf,1962,-2.39328e-07,2.20045e-06,0,2.98813e-07,-5.50973e+08,-5.50805e+08,-5.50956e+08,20498.5,-0.0016444,0.111367,-0,0.111379,-32110.8,-20061.1,-0,37862.3,20498.5
step02_gravity_refstate-crust.xmf,1963,-2.17892e-07,2.38889e-06,0,3.18634e-07,-5.97882e+08,-5.97703e+08,-5.97867e+08,21858.3,-0.00153805,0.108312,-0,0.108323,-31062.4,-21769.3,-0,37931.2,21858.3
step02_gravity_refstate-crust.xmf,1964,-2.44869e-07,1.99486e-06,0,1.66364e-07,-5.04982e+08,-5.04829e+08,-5.04966e+08,11412.6,-0.00101447,0.112676,-0,0.11268,-35722.2,-18386.5,-0,40176.3,11412.6
step02_gravity_refstate-crust.xmf,1965,-2.53938e-07,1.90353e-06,0,7.47313e-08,-4.83258e+08,-4.8311e+08,-4.8324e+08,5126.57,-0.00048128,0.11347,-0,0.113471,-38096.4,-17595.4,-0,41963.5,5126.57
step02_gravity_refstate-crust.xmf,1966,-2.89638e-07,1.7405e-06,0,6.17585e-10,-4.39189e+08,-4.3905e+08,-4.3917e+08,42.3663,-9.79677e-20,0.116206,-0,0.116206,-40000,-15990.7,-0,43077.8,42.3663
step02_gravity_refstate-crust.xmf,1967,-3.82663e-07,3.68305e-06,0,7.18423e-07,-8.29073e+08,-8.28794e+08,-8.29047e+08,49283.8,-0.00116313,0.10671,-0,0.106716,-16287.5,-30187.4,-0,34301.1,49283.8
step02_gravity_refstate-crust.xmf,1968,-3.07799e-07,3.80182e-06,0,7.07906e-07,-8.5734e+08,-8.57058e+08,-8.57319e+08,48562.4,-0.000154964,0.104429,-0,0.104429,-15686.7,-31217,-0,34936.7,48562.4
step02_gravity_refstate-crust.xmf,1969,-2.11142e-07,3.91442e-06,0,7.15121e-07,-8.85266e+08,-8.84983e+08,-8.85251e+08,49057.3,0.000982983,0.102185,0,0.102189,-15066.3,-32234.2,-0,35581.4,49057.3
step02_gravity_refstate-crust.xmf,1970,-1.04633e-07,4.01529e-06,0,7.46429e-07,-9.1043e+08,-9.10147e+08,-9.10423e+08,51205,0.00211976,0.10025,0,0.100272,-14462,-33150.9,-0,36168.1,51205
step02_gravity_refstate-crust.xmf,1971,1.02994e-08,4.10932e-06,0,8.00706e-07,-9.34025e+08,-9.33743e+08,-9.34025e+08,54928.5,0.00327163,0.0983217,0,0.0983761,-13926.2,-34010.5,-0,36751.2,54928.5
step02_gravity_refstate-crust.xmf,1972,-3.45773e-07,3.58964e-06,0,6.5255e-07,-8.19563e+08,-8.19293e+08,-8.19539e+08,44764.9,-0.00104429,0.104716,-0,0.104721,-17622.8,-29841.2,-0,34656.3,44764.9
step02_gravity_refstate-crust.xmf,1973,1.41673e-07,4.2132e-06,0,8.85838e-07,-9.5908e+08,-9.58801e+08,-9.5909e+08,60768.5,0.00452795,0.0960326,0,0.0961393,-13426.2,-34923.4,-0,37415.3,60768.5
step02_gravity_refstate-crust.xmf,1974,2.71532e-07,4.33695e-06,0,1.01565e-06,-9.84792e+08,-9.84513e+08,-9.84811e+08,69673.5,0.00577562,0.0936015,0,0.0937796,-12921.6,-35860.2,-0,38117.2,69673.5
step02_gravity_refstate-crust.xmf,1975,3.81074e-07,4.50143e-06,0,1.20101e-06,-1.01228e+09,-1.012e+09,-1.01231e+09,82389.1,0.00694154,0.0907613,0,0.0910264,-12428.5,-36861.7,-0,38900.5,82389.1
step02_gravity_refstate-crust.xmf,1976,4.40003e-07,4.75965e-06,0,1.47847e-06,-1.0432e+09,-1.0429e+09,-1.04323e+09,101423,0.00791092,0.0875299,0,0.0878867,-11830.6,-37987.8,-0,39787.3,101423
step02_gravity_refstate-crust.xmf,1977,3.64769e-07,5.08036e-06,0,1.73254e-06,-1.0746e+09,-1.07428e+09,-1.07462e+09,118852,0.00817609,0.0829116,0,0.0833138,-11530,-39131.2,-0,40794.5,118852
step02_gravity_refstate-crust.xmf,1978,-3.81592e-07,3.45124e-06,0,6.598e-07,-7.89829e+08,-7.89566e+08,-7.89802e+08,45262.3,-0.00174916,0.10661,-0,0.106625,-18473.1,-28758.3,-0,34180.3,45262.3
step02_gravity_refstate-crust.xmf,1979,-3.75248e-07,3.1988e-06,0,6.29988e-07,-7.4146e+08,-7.41215e+08,-7.41434e+08,43217.2,-0.00233316,0.108255,-0,0.108281,-20510.2,-26997,-0,33904.4,43217.2
step02_gravity_refstate-crust.xmf,1980,-3.55875e-07,3.36049e-06,0,6.18096e-07,-7.76598e+08,-7.76343e+08,-7.76574e+08,42401.4,-0.00173684,0.105881,-0,0.105895,-19593.6,-28276.6,-0,34401.7,42401.4
step02_gravity_refstate-crust.xmf,1981,-3.34102e-07,2.98193e-06,0,5.72517e-07,-7.03661e+08,-7.03433e+08,-7.03638e+08,39274.7,-0.00234865,0.108418,-0,0.108443,-22777,-25620.7,-0,34281.4,39274.7
step02_gravity_refstate-crust.xmf,1982,-3.02378e-07,2.79118e-06,0,5.21237e-07,-6.6909e+08,-6.68877e+08,-6.69069e+08,35756.9,-0.00228865,0.10882,-0,0.108844,-24837.6,-24362,-0,34791,35756.9
step02_gravity_refstate-crust.xmf,1983,-1.94696e-07,2.56926e-06,0,3.26362e-07,-6.43273e+08,-6.43083e+08,-6.4326e+08,22388.4,-0.00132171,0.105031,-0,0.105039,-30148.9,-23422.2,-0,38177.9,22388.4
step02_gravity_refstate-crust.xmf,1984,-2.16467e-07,2.17741e-06,0,2.12992e-07,-5.51769e+08,-5.51605e+08,-5.51754e+08,14611.3,-0.00114624,0.109846,-0,0.109852,-34275.9,-20090.2,-0,39729.7,14611.3
step02_gravity_refstate-crust.xmf,1985,-3.15156e-07,3.14449e-06,0,5.54374e-07,-7.41237e+08,-7.41e+08,-7.41215e+08,38030,-0.00181339,0.105497,-0,0.105513,-22030.6,-26989.1,-0,34839,38030
step02_gravity_refstate-crust.xmf,1986,-2.86822e-07,2.931e-06,0,5.05435e-07,-7.02732e+08,-7.02511e+08,-7.02712e+08,34672.8,-0.00189561,0.106113,-0,0.10613,-24297.7,-25587,-0,35285.6,34672.8
step02_gravity_refstate-crust.xmf,1987,-2.45225e-07,2.86765e-06,0,4.46153e-07,-6.97732e+08,-6.97518e+08,-6.97715e+08,30606.1,-0.00157053,0.104465,-0,0.104477,-25846.4,-25405.1,-0,36241.6,30606.1
step02_gravity_refstate-crust.xmf,1988,-2.07351e-07,2.79954e-06,0,3.88244e-07,-6.9137e+08,-6.91164e+08,-6.91356e+08,26633.5,-0.00129056,0.103067,-0,0.103076,-27509.7,-25173.5,-0,37289.3,26633.5
step02_gravity_refstate-crust.xmf,1989,-1.67648e-07,2.74587e-06,0,3.24947e-07,-6.88876e+08,-6.88676e+08,-6.88865e+08,22291.4,-0.00098297,0.101385,-0,0.10139,-29337.6,-25082.8,-0,38598.4,22291.4
step02_gravity_refstate-crust.xmf,1990,-1.89549e-07,2.35469e-06,0,2.39183e-07,-5.97288e+08,-5.97113e+08,-5.97275e+08,16407.9,-0.00111452,0.106771,-0,0.106776,-33161.8,-21747.7,-0,39656.9,16407.9
step02_gravity_refstate-crust.xmf,1991,-1.62201e-07,2.52661e-06,0,2.54757e-07,-6.41761e+08,-6.41577e+08,-6.4175e+08,17476.3,-0.000974322,0.103505,-0,0.10351,-32169.1,-23367.2,-0,39760.3,17476.3
step02_gravity_refstate-crust.xmf,1992,-2.00765e-07,2.16803e-06,0,1.40754e-07,-5.54026e+08,-5.53864e+08,-5.54012e+08,9655.69,-0.000740556,0.108775,-0,0.108778,-36174.1,-20172.4,-0,41418.5,9655.69
step02_gravity_refstate-crust.xmf,1993,-2.07176e-07,2.10306e-06,0,7.61408e-08,-5.38245e+08,-5.38086e+08,-5.38231e+08,5223.26,-0.000420966,0.109488,-0,0.109489,-37946.3,-19597.8,-0,42708.3,5223.26
step02_gravity_refstate-crust.xmf,1994,-2.31072e-07,1.98815e-06,0,6.6987e-10,-5.07292e+08,-5.0714e+08,-5.07276e+08,45.953,-8.57328e-20,0.111583,-0,0.111583,-40000,-18470.6,-0,44058.6,45.953
step02_gravity_refstate-crust.xmf,1995,-2.6199e-07,3.72954e-06,0,6.34774e-07,-8.55006e+08,-8.54732e+08,-8.54988e+08,43545.5,0.000115707,0.101486,0,0.101486,-16985.4,-31132,-0,35464.2,43545.5
step02_gravity_refstate-crust.xmf,1996,-1.69291e-07,3.84916e-06,0,6.41053e-07,-8.85743e+08,-8.85467e+08,-8.85731e+08,43976.2,0.00124435,0.0988382,0,0.098846,-16325.7,-32251.6,-0,36148.2,43976.2
step02_gravity_refstate-crust.xmf,1997,-6.57255e-08,3.96121e-06,0,6.72869e-07,-9.14169e+08,-9.13893e+08,-9.14164e+08,46158.8,0.0023951,0.0965316,0,0.0965613,-15633.7,-33287.1,-0,36775.6,46158.8
step02_gravity_refstate-crust.xmf,1998,9.36811e-09,4.0426e-06,0,7.25744e-07,-9.31868e+08,-9.31592e+08,-9.31869e+08,49786,0.00316197,0.095729,0,0.0957812,-14956.5,-33931.9,-0,37081.9,49786
step02_gravity_refstate-crust.xmf,1999,1.10748e-07,4.13494e-06,0,7.85832e-07,-9.5595e+08,-9.55674e+08,-9.55958e+08,53908.1,0.00423983,0.0931153,0,0.0932117,-14597.9,-34809.2,-0,37746.2,53908.1
step02_gravity_refstate-crust.xmf,2000,-2.92042e-07,3.51731e-06,0,5.83205e-07,-8.16553e+08,-8.16292e+08,-8.16533e+08,40007.9,-0.000696624,0.102016,-0,0.102018,-19038.1,-29731.7,-0,35304.7,40007.9
step02_gravity_refstate-crust.xmf,2001,2.24657e-07,4.25391e-06,0,8.92751e-07,-9.82676e+08,-9.824e+08,-9.82691e+08,61242.7,0.00540136,0.0904337,0,0.0905949,-14093.7,-35782.8,-0,38458.3,61242.7
step02_gravity_refstate-crust.xmf,2002,3.1966e-07,4.40308e-06,0,1.04527e-06,-1.00969e+09,-1.00941e+09,-1.00971e+09,71705.7,0.00646571,0.0877025,0,0.0879405,-13560.7,-36766.9,-0,39187.9,71705.7
step02_gravity_refstate-crust.xmf,2003,3.7309e-07,4.61749e-06,0,1.25578e-06,-1.04012e+09,-1.03983e+09,-1.04015e+09,86146.7,0.00737065,0.0842353,0,0.0845571,-13041.8,-37875.3,-0,40057.8,86146.7
step02_gravity_refstate-crust.xmf,2004,3.45123e-07,4.88468e-06,0,1.48409e-06,-1.06863e+09,-1.06832e+09,-1.06865e+09,101808,0.00782366,0.0807624,0,0.0811405,-12556.3,-38913.4,-0,40889,101808
step02_gravity_refstate-crust.xmf,2005,-2.85461e-07,3.30122e-06,0,5.36986e-07,-7.78117e+08,-7.77871e+08,-7.78098e+08,36837.2,-0.00116519,0.102547,-0,0.102554,-21246.4,-28332.1,-0,35413.5,36837.2
step02_gravity_refstate-crust.xmf,2006,-2.60589e-07,3.08798e-06,0,4.87172e-07,-7.40417e+08,-7.40187e+08,-7.40399e+08,33420,-0.00137979,0.103042,-0,0.103051,-23597.1,-26959.3,-0,35827.8,33420
step02_gravity_refstate-crust.xmf,2007,-1.31302e-07,2.69538e-06,0,2.60444e-07,-6.86202e+08,-6.86008e+08,-6.86193e+08,17866.4,-0.000720535,0.0999405,-0,0.0999431,-31293.5,-24985.5,-0,40044.5,17866.4
step02_gravity_refstate-crust.xmf,2008,-1.6565e-07,2.33743e-06,0,1.60329e-07,-5.99568e+08,-5.99396e+08,-5.99557e+08,10998.5,-0.000716507,0.105384,-0,0.105386,-35332.9,-21830.8,-0,41533.1,10998.5
step02_gravity_refstate-crust.xmf,2009,-2.17951e-07,3.65816e-06,0,5.69421e-07,-8.52751e+08,-8.52485e+08,-8.52736e+08,39062.3,0.000359483,0.0987121,0,0.0987128,-18356.3,-31050,-0,36070.2,39062.3
step02_gravity_refstate-crust.xmf,2010,-2.39018e-07,3.45069e-06,0,5.20364e-07,-8.14908e+08,-8.14655e+08,-8.14892e+08,35697,-0.000360901,0.0993938,-0,0.0993945,-20490.9,-29671.9,-0,36059.6,35697
step02_gravity_refstate-crust.xmf,2011,-2.28322e-07,3.24371e-06,0,4.71915e-07,-7.78462e+08,-7.78223e+08,-7.78446e+08,32373.4,-0.000753492,0.0998711,-0,0.0998739,-22815.7,-28344.8,-0,36386.6,32373.4
step02_gravity_refstate-crust.xmf,2012,-2.13757e-07,3.03075e-06,0,4.27322e-07,-7.39169e+08,-7.38947e+08,-7.39155e+08,29314.3,-0.00102393,0.100869,-0,0.100874,-25205.5,-26914,-0,36873.9,29314.3
step02_gravity_refstate-crust.xmf,2013,-1.69922e-07,2.97302e-06,0,3.70475e-07,-7.36904e+08,-7.36688e+08,-7.36892e+08,25414.6,-0.000746205,0.0990245,-0,0.0990273,-26869.4,-26831.6,-0,37972.4,25414.6
step02_gravity_refstate-crust.xmf,2014,-1.3067e-07,2.91523e-06,0,3.15051e-07,-7.33965e+08,-7.33756e+08,-7.33956e+08,21612.5,-0.000526636,0.0974291,-0,0.0974305,-28633.4,-26724.7,-0,39167.3,21612.5
step02_gravity_refstate-crust.xmf,2015,-9.77169e-08,2.85782e-06,0,2.60937e-07,-7.29868e+08,-7.29665e+08,-7.29861e+08,17900.2,-0.000368384,0.0961802,-0,0.0961809,-30478.3,-26575.6,-0,40437.5,17900.2
step02_gravity_refstate-crust.xmf,2016,-1.01573e-07,2.66048e-06,0,1.98417e-07,-6.85996e+08,-6.85806e+08,-6.85989e+08,13611.4,-0.000493616,0.0986086,-0,0.0986098,-33252.7,-24978.1,-0,41589,13611.4
step02_gravity_refstate-crust.xmf,2017,-1.32473e-07,2.5053e-06,0,1.81679e-07,-6.44561e+08,-6.4438e+08,-6.44552e+08,12463.2,-0.000642549,0.101922,-0,0.101924,-34291.3,-23469.2,-0,41553.6,12463.2
step02_gravity_refstate-crust.xmf,2018,-1.4713e-07,2.33797e-06,0,7.78914e-08,-6.04349e+08,-6.04179e+08,-6.04339e+08,5343.35,-0.000335405,0.104202,-0,0.104202,-37672.2,-22005,-0,43628.1,5343.35
step02_gravity_refstate-crust.xmf,2019,-1.70429e-07,2.22752e-06,0,9.01831e-10,-5.74467e+08,-5.74302e+08,-5.74455e+08,61.8656,-6.98109e-20,0.106426,-0,0.106426,-40000,-20916.8,-0,45138.8,61.8656
step02_gravity_refstate-crust.xmf,2020,-1.30321e-07,3.78598e-06,0,5.74908e-07,-8.8642e+08,-8.86151e+08,-8.86411e+08,39438.7,0.00147219,0.0956374,0,0.0956488,-17664.9,-32276.3,-0,36794.2,39438.7
step02_gravity_refstate-crust.xmf,2021,-3.45468e-08,3.90895e-06,0,6.07962e-07,-9.17685e+08,-9.17415e+08,-9.17683e+08,41706.2,0.00260367,0.0929828,0,0.0930193,-16892.5,-33415.2,-0,37442.3,41706.2
step02_gravity_refstate-crust.xmf,2022,7.15691e-08,4.046e-06,0,6.8805e-07,-9.48051e+08,-9.47778e+08,-9.48055e+08,47200.2,0.00380451,0.0910287,0,0.0911081,-15858.6,-34521.3,-0,37989.7,47200.2
step02_gravity_refstate-crust.xmf,2023,1.86603e-07,4.17798e-06,0,7.85071e-07,-9.80215e+08,-9.79941e+08,-9.80228e+08,53855.9,0.00506102,0.087552,0,0.0876982,-15319,-35692.9,-0,38841.4,53855.9
step02_gravity_refstate-crust.xmf,2024,-1.73954e-07,3.59172e-06,0,5.10104e-07,-8.51519e+08,-8.51261e+08,-8.51507e+08,34993.1,0.000597222,0.096025,0,0.0960268,-19779.7,-31005.3,-0,36777.2,34993.1
step02_gravity_refstate-crust.xmf,2025,2.73163e-07,4.32713e-06,0,9.17599e-07,-1.00929e+09,-1.00901e+09,-1.0093e+09,62947.3,0.00610221,0.0845118,0,0.0847318,-14746.9,-36751.9,-0,39600.1,62947.3
step02_gravity_refstate-crust.xmf,2026,3.20809e-07,4.51831e-06,0,1.08748e-06,-1.03917e+09,-1.03888e+09,-1.03919e+09,74601.1,0.00694751,0.0811037,0,0.0814007,-14212.9,-37840.4,-0,40421.5,74601.1
step02_gravity_refstate-crust.xmf,2027,3.05542e-07,4.76356e-06,0,1.2856e-06,-1.06855e+09,-1.06825e+09,-1.06857e+09,88191.9,0.00746036,0.0775989,0,0.0779567,-13670.3,-38910.4,-0,41241.9,88191.9
step02_gravity_refstate-crust.xmf,2028,-1.84909e-07,3.39171e-06,0,4.59936e-07,-8.15586e+08,-8.15341e+08,-8.15573e+08,31551.6,-1.61394e-05,0.0966469,-0,0.0966469,-22029,-29696.7,-0,36975.3,31551.6
step02_gravity_refstate-crust.xmf,2029,-1.76383e-07,3.18672e-06,0,4.12616e-07,-7.78561e+08,-7.7833e+08,-7.78549e+08,28305.4,-0.000421581,0.0974488,-0,0.0974497,-24444.8,-28348.5,-0,37432.4,28305.4
step02_gravity_refstate-crust.xmf,2030,-6.77555e-08,2.8122e-06,0,2.06216e-07,-7.27439e+08,-7.27242e+08,-7.27435e+08,14146.4,-0.000236678,0.0950298,-0,0.0950301,-32374.3,-26487.2,-0,41829.1,14146.4
step02_gravity_refstate-crust.xmf,2031,-1.14945e-07,2.48661e-06,0,1.18993e-07,-6.45131e+08,-6.44952e+08,-6.45123e+08,8162.91,-0.000400217,0.101029,-0,0.101029,-36227.7,-23490,-0,43176.7,8162.91
step02_gravity_refstate-crust.xmf,2032,-9.55318e-08,3.72333e-06,0,5.15301e-07,-8.86605e+08,-8.86343e+08,-8.86598e+08,35349.6,0.00163749,0.0927118,0,0.0927262,-19070.1,-32283.1,-0,37494.9,35349.6
step02_gravity_refstate-crust.xmf,2033,-1.30143e-07,3.53011e-06,0,4.54988e-07,-8.51332e+08,-8.51081e+08,-8.51323e+08,31212.2,0.000817334,0.0934084,0,0.093412,-21262.3,-30998.5,-0,37589.8,31212.2
step02_gravity_refstate-crust.xmf,2034,-1.33943e-07,3.33396e-06,0,4.03162e-07,-8.16487e+08,-8.16249e+08,-8.16477e+08,27656.9,0.000265824,0.0940483,0,0.0940487,-23660.8,-29729.6,-0,37995.9,27656.9
step02_gravity_refstate-crust.xmf,2035,-1.31482e-07,3.13213e-06,0,3.58912e-07,-7.78576e+08,-7.78352e+08,-7.78567e+08,24621.4,-0.000166115,0.0952927,-0,0.0952928,-26110.8,-28349.2,-0,38541.5,24621.4
step02_gravity_refstate-crust.xmf,2036,-9.06388e-08,3.07712e-06,0,3.07279e-07,-7.77347e+08,-7.7713e+08,-7.77341e+08,21079.4,4.34508e-06,0.0934913,0,0.0934913,-27848.4,-28304.5,-0,39707.4,21079.4
step02_gravity_refstate-crust.xmf,2037,-5.60352e-08,3.02031e-06,0,2.57002e-07,-7.74478e+08,-7.74267e+08,-7.74474e+08,17630.4,9.76042e-05,0.0920706,0,0.0920706,-29688.8,-28200.1,-0,40947.2,17630.4
step02_gravity_refstate-crust.xmf,2038,-2.74348e-08,2.96619e-06,0,2.07151e-07,-7.70769e+08,-7.70563e+08,-7.70767e+08,14210.6,0.00013424,0.0909818,0,0.0909819,-31614.5,-28065.1,-0,42274.4,14210.6
step02_gravity_refstate-crust.xmf,2039,-4.59355e-08,2.78044e-06,0,1.57941e-07,-7.26584e+08,-7.2639e+08,-7.2658e+08,10834.7,-0.000143472,0.0941088,-0,0.0941089,-34122.4,-26456.1,-0,43177.2,10834.7
step02_gravity_refstate-crust.xmf,2040,-6.38755e-08,2.67041e-06,0,1.23681e-07,-6.97825e+08,-6.97637e+08,-6.97821e+08,8484.49,-0.000228043,0.0963111,-0,0.0963114,-35596.1,-25408.9,-0,43734.4,8484.49
step02_gravity_refstate-crust.xmf,2041,-7.35859e-08,2.57708e-06,0,5.93589e-08,-6.75202e+08,-6.7502e+08,-6.75197e+08,4072.02,-0.000145329,0.0978022,-0,0.0978023,-37963.9,-24585.1,-0,45229.2,4072.02
step02_gravity_refstate-crust.xmf,2042,-1.05764e-07,2.4573e-06,0,7.48231e-10,-6.40885e+08,-6.4071e+08,-6.40878e+08,51.3286,-3.31388e-20,0.100761,-0,0.100761,-40000,-23335.4,-0,46309.2,51.3286
step02_gravity_refstate-crust.xmf,2043,-6.02041e-09,3.853e-06,0,5.43119e-07,-9.2087e+08,-9.20605e+08,-9.2087e+08,37257.9,0.00274802,0.0894585,0,0.0895007,-18325.5,-33531.1,-0,38212,37257.9
step02_gravity_refstate-crust.xmf,2044,7.98986e-08,3.97574e-06,0,5.97419e-07,-9.50854e+08,-9.50586e+08,-9.50859e+08,40982.9,0.00377852,0.086799,0,0.0868812,-17541.2,-34623.3,-0,38813.2,40982.9
step02_gravity_refstate-crust.xmf,2045,1.61351e-07,4.10875e-06,0,6.90201e-07,-9.78794e+08,-9.78523e+08,-9.78805e+08,47347.8,0.00478577,0.0846493,0,0.0847845,-16635.3,-35641,-0,39332.1,47347.8
step02_gravity_refstate-crust.xmf,2046,2.35816e-07,4.25476e-06,0,8.02167e-07,-1.00825e+09,-1.00798e+09,-1.00827e+09,55028.7,0.00575678,0.0816188,0,0.0818216,-15995,-36714,-0,40046.9,55028.7
step02_gravity_refstate-crust.xmf,2047,-6.32338e-08,3.66255e-06,0,4.61024e-07,-8.86512e+08,-8.86257e+08,-8.86508e+08,31626.2,0.00174993,0.0900611,0,0.0900781,-20522,-32279.8,-0,38251,31626.2
step02_gravity_refstate-crust.xmf,2048,2.80359e-07,4.43391e-06,0,9.44197e-07,-1.03858e+09,-1.0383e+09,-1.0386e+09,64771.9,0.00657439,0.078174,0,0.07845,-15418.7,-37818.6,-0,40840.9,64771.9
step02_gravity_refstate-crust.xmf,2049,2.73826e-07,4.6581e-06,0,1.11082e-06,-1.0686e+09,-1.0683e+09,-1.06862e+09,76202.5,0.00712014,0.0745873,0,0.0749264,-14844.4,-38911.8,-0,41647.1,76202.5
step02_gravity_refstate-crust.xmf,2050,-8.53536e-08,3.47332e-06,0,4.01752e-07,-8.52569e+08,-8.52325e+08,-8.52563e+08,27560.2,0.00101991,0.0907659,0,0.0907716,-22840.6,-31043.7,-0,38540.9,27560.2
step02_gravity_refstate-crust.xmf,2051,-8.75085e-08,3.28219e-06,0,3.51138e-07,-8.18024e+08,-8.17793e+08,-8.18018e+08,24088,0.000480852,0.0916654,0,0.0916667,-25309.5,-29785.7,-0,39086.6,24088
step02_gravity_refstate-crust.xmf,2052,-2.04443e-09,2.92636e-06,0,1.57273e-07,-7.69068e+08,-7.68867e+08,-7.69068e+08,10788.9,0.000147016,0.0899803,0,0.0899805,-33562,-28003.2,-0,43710.3,10788.9
step02_gravity_refstate-crust.xmf,2053,1.45535e-08,3.79612e-06,0,4.85042e-07,-9.22047e+08,-9.21788e+08,-9.22048e+08,33273.8,0.00277887,0.086554,0,0.0865986,-19770.4,-33574,-0,38962.6,33273.8
step02_gravity_refstate-crust.xmf,2054,-2.9207e-08,3.60558e-06,0,4.09373e-07,-8.87351e+08,-8.87102e+08,-8.87349e+08,28083,0.00184386,0.0874626,0,0.0874821,-22053.7,-32310.4,-0,39119.4,28083
step02_gravity_refstate-crust.xmf,2055,-3.94772e-08,3.42316e-06,0,3.49619e-07,-8.55717e+08,-8.5548e+08,-8.55715e+08,23983.9,0.00119671,0.0880526,0,0.0880608,-24525.2,-31158.4,-0,39652.6,23983.9
step02_gravity_refstate-crust.xmf,2056,-4.69533e-08,3.23231e-06,0,3.02915e-07,-8.19142e+08,-8.18917e+08,-8.19138e+08,20780,0.000614927,0.0895714,0,0.0895735,-27008.4,-29826.5,-0,40237.7,20780
step02_gravity_refstate-crust.xmf,2057,-1.11275e-08,3.17957e-06,0,2.55348e-07,-8.18385e+08,-8.18166e+08,-8.18384e+08,17516.9,0.000655055,0.0878719,0,0.0878743,-28827,-29799,-0,41460.5,17516.9
step02_gravity_refstate-crust.xmf,2058,1.96476e-08,3.12943e-06,0,2.0854e-07,-8.16929e+08,-8.16716e+08,-8.1693e+08,14305.8,0.000627572,0.0864829,0,0.0864852,-30736.7,-29746,-0,42773.5,14305.8
step02_gravity_refstate-crust.xmf,2059,4.50857e-08,3.08638e-06,0,1.62692e-07,-8.1547e+08,-8.15261e+08,-8.15473e+08,11160.7,0.000548858,0.0853772,0,0.085379,-32690.4,-29693,-0,44162.6,11160.7
step02_gravity_refstate-crust.xmf,2060,1.79215e-08,2.89325e-06,0,1.02632e-07,-7.67316e+08,-7.67119e+08,-7.67317e+08,7040.58,0.000119007,0.0892165,0,0.0892166,-35746.8,-27939.5,-0,45370.1,7040.58
step02_gravity_refstate-crust.xmf,2061,-2.13441e-09,2.78755e-06,0,5.2109e-08,-7.39464e+08,-7.39272e+08,-7.39464e+08,3574.67,-1.94199e-07,0.0915295,-0,0.0915295,-37938.4,-26925.2,-0,46521.9,3574.67
step02_gravity_refstate-crust.xmf,2062,-3.5319e-08,2.67638e-06,0,8.46598e-10,-7.06731e+08,-7.06545e+08,-7.06728e+08,58.0766,-5.2066e-21,0.0946061,-0,0.0946061,-40000,-25733.2,-0,47562.6,58.0766
step02_gravity_refstate-crust.xmf,2063,1.53806e-07,4.06259e-06,0,6.23116e-07,-9.80401e+08,-9.80133e+08,-9.80412e+08,42745.7,0.0046507,0.0819558,0,0.0820877,-17792.8,-35699.4,-0,39887.7,42745.7
step02_gravity_refstate-crust.xmf,2064,1.1463e-07,3.94925e-06,0,5.40862e-07,-9.61497e+08,-9.61234e+08,-9.61505e+08,37103.1,0.00397362,0.0825316,0,0.0826272,-18922.3,-35010.8,-0,39797.2,37103.1
step02_gravity_refstate-crust.xmf,2065,2.09711e-07,4.18944e-06,0,7.02715e-07,-1.00751e+09,-1.00723e+09,-1.00752e+09,48206.2,0.00545352,0.0789466,0,0.0791348,-17271.5,-36686.6,-0,40548.9,48206.2
step02_gravity_refstate-crust.xmf,2066,2.50121e-07,4.35559e-06,0,8.18798e-07,-1.03755e+09,-1.03727e+09,-1.03757e+09,56169.5,0.0062261,0.0755506,0,0.0758068,-16661.9,-37780.8,-0,41291.7,56169.5
step02_gravity_refstate-crust.xmf,2067,3.26808e-08,3.7368e-06,0,4.3139e-07,-9.21479e+08,-9.21225e+08,-9.21481e+08,29593.4,0.00272818,0.0841484,0,0.0841927,-21249.1,-33553.3,-0,39715.8,29593.4
step02_gravity_refstate-crust.xmf,2068,2.50619e-07,4.56263e-06,0,9.57683e-07,-1.06833e+09,-1.06803e+09,-1.06834e+09,65697.1,0.00679773,0.0718398,0,0.0721607,-16064.2,-38901.6,-0,42087.9,65697.1
step02_gravity_refstate-crust.xmf,2069,8.59614e-09,3.55539e-06,0,3.58649e-07,-8.90302e+08,-8.90059e+08,-8.90303e+08,24603.3,0.00193137,0.0847464,0,0.0847684,-23690.6,-32417.9,-0,40151.8,24603.3
step02_gravity_refstate-crust.xmf,2070,3.15556e-09,3.38161e-06,0,3.01328e-07,-8.60035e+08,-8.59803e+08,-8.60035e+08,20671.1,0.0013121,0.0855097,0,0.0855198,-26213.1,-31315.7,-0,40838.7,20671.1
step02_gravity_refstate-crust.xmf,2071,6.70676e-08,3.05877e-06,0,1.17732e-07,-8.1605e+08,-8.15844e+08,-8.16054e+08,8076.44,0.000444172,0.0843583,0,0.0843595,-34632.4,-29714.1,-0,45632.5,8076.44
step02_gravity_refstate-crust.xmf,2072,1.03203e-07,3.87595e-06,0,4.6973e-07,-9.57716e+08,-9.57457e+08,-9.57723e+08,32223.5,0.00370516,0.0802739,0,0.0803594,-20532.4,-34873,-0,40468.6,32223.5
step02_gravity_refstate-crust.xmf,2073,5.56094e-08,3.68299e-06,0,3.80864e-07,-9.22278e+08,-9.22029e+08,-9.22282e+08,26127.3,0.00268005,0.0817612,0,0.0818051,-22786,-33582.4,-0,40583,26127.3
step02_gravity_refstate-crust.xmf,2074,5.2637e-08,3.51627e-06,0,3.067e-07,-8.97212e+08,-8.96975e+08,-8.97216e+08,21039.6,0.00201736,0.0816382,0,0.0816631,-25498.2,-32669.6,-0,41442.3,21039.6
step02_gravity_refstate-crust.xmf,2075,4.06338e-08,3.34031e-06,0,2.56189e-07,-8.63334e+08,-8.63108e+08,-8.63337e+08,17574.6,0.0013294,0.0833273,0,0.0833379,-27962.5,-31435.9,-0,42072.7,17574.6
step02_gravity_refstate-crust.xmf,2076,9.56066e-08,3.25086e-06,0,1.69579e-07,-8.63064e+08,-8.62847e+08,-8.6307e+08,11633.1,0.00106692,0.080455,0,0.0804621,-31728.5,-31426.1,-0,44657.6,11633.1
step02_gravity_refstate-crust.xmf,2077,7.01361e-08,3.29394e-06,0,2.12603e-07,-8.63505e+08,-8.63284e+08,-8.6351e+08,14584.5,0.00123082,0.0817391,0,0.0817484,-29801.1,-31442.2,-0,43321.1,14584.5
step02_gravity_refstate-crust.xmf,2078,1.16661e-07,3.21668e-06,0,1.27807e-07,-8.62984e+08,-8.62771e+08,-8.62992e+08,8767.57,0.000859757,0.0794125,0,0.0794171,-33681,-31423.2,-0,46063.3,8767.57
step02_gravity_refstate-crust.xmf,2079,8.84232e-08,3.05931e-06,0,7.91555e-08,-8.22737e+08,-8.22533e+08,-8.22743e+08,5430.07,0.000347177,0.0830204,0,0.0830211,-36352,-29957.7,-0,47105.5,5430.07
step02_gravity_refstate-crust.xmf,2080,6.93457e-08,2.97964e-06,0,4.43179e-08,-8.00212e+08,-8.00012e+08,-8.00217e+08,3040.2,0.000142567,0.0851417,0,0.0851418,-37993,-29137.4,-0,47879.6,3040.2
step02_gravity_refstate-crust.xmf,2081,3.96389e-08,2.88669e-06,0,6.41758e-10,-7.72196e+08,-7.72001e+08,-7.72199e+08,44.0246,2.29249e-20,0.087975,0,0.087975,-40000,-28117.2,-0,48893.5,44.0246
step02_gravity_refstate-crust.xmf,2082,1.91574e-07,4.11735e-06,0,6.12305e-07,-1.00448e+09,-1.00421e+09,-1.0045e+09,42004.1,0.00512061,0.0768405,0,0.0770109,-18586.1,-36576.4,-0,41027.7,42004.1
step02_gravity_refstate-crust.xmf,2083,2.29068e-07,4.27932e-06,0,7.06542e-07,-1.03609e+09,-1.03581e+09,-1.03611e+09,48468.8,0.00588551,0.0731475,0,0.0733839,-17976.8,-37727.5,-0,41791.5,48468.8
step02_gravity_refstate-crust.xmf,2084,2.35127e-07,4.47477e-06,0,8.22898e-07,-1.06796e+09,-1.06767e+09,-1.06798e+09,56450.8,0.00648341,0.0692828,0,0.0695855,-17343.3,-38888.1,-0,42580.2,56450.8
step02_gravity_refstate-crust.xmf,2085,1.75254e-07,4.02207e-06,0,5.26549e-07,-9.94111e+08,-9.93847e+08,-9.94123e+08,36121.3,0.00465268,0.0760747,0,0.0762168,-19902.5,-36198.6,-0,41309.2,36121.3
step02_gravity_refstate-crust.xmf,2086,1.12241e-07,3.81716e-06,0,4.11912e-07,-9.56996e+08,-9.56741e+08,-9.57003e+08,28257.2,0.00352513,0.0780639,0,0.0781434,-22046.3,-34846.7,-0,41235.1,28257.2
step02_gravity_refstate-crust.xmf,2087,8.62123e-08,3.63992e-06,0,3.31634e-07,-9.26688e+08,-9.26444e+08,-9.26694e+08,22750.1,0.00265642,0.0790322,0,0.0790768,-24439.7,-33743,-0,41664,22750.1
step02_gravity_refstate-crust.xmf,2088,9.83141e-08,3.50521e-06,0,2.6302e-07,-9.0956e+08,-9.09326e+08,-9.09566e+08,18043.2,0.00211185,0.0783866,0,0.078415,-27097.1,-33119.3,-0,42791.8,18043.2
step02_gravity_refstate-crust.xmf,2089,1.32844e-07,3.19445e-06,0,8.78935e-08,-8.6378e+08,-8.6357e+08,-8.63789e+08,6029.5,0.000625532,0.0785693,0,0.0785718,-35601.7,-31452.3,-0,47505,6029.5
step02_gravity_refstate-crust.xmf,2090,1.67231e-07,3.96284e-06,0,4.5771e-07,-9.93258e+08,-9.92998e+08,-9.9327e+08,31398.9,0.00438608,0.0738855,0,0.0740155,-21385.2,-36167.4,-0,42016.7,31398.9
step02_gravity_refstate-crust.xmf,2091,1.27974e-07,3.76718e-06,0,3.60209e-07,-9.58217e+08,-9.57967e+08,-9.58226e+08,24710.3,0.00336643,0.0758379,0,0.0759126,-23579.1,-34891.2,-0,42111.4,24710.3
step02_gravity_refstate-crust.xmf,2092,1.13418e-07,3.60605e-06,0,2.91734e-07,-9.3084e+08,-9.306e+08,-9.30848e+08,20012.9,0.00258932,0.0768525,0,0.0768961,-25886.8,-33894.2,-0,42649.1,20012.9
step02_gravity_refstate-crust.xmf,2093,1.22537e-07,3.45808e-06,0,2.20776e-07,-9.09946e+08,-9.09717e+08,-9.09954e+08,15145.2,0.00192163,0.0767456,0,0.0767697,-28895,-33133.3,-0,43962.9,15145.2
step02_gravity_refstate-crust.xmf,2094,1.66724e-07,3.37754e-06,0,1.38633e-07,-9.10385e+08,-9.10165e+08,-9.10397e+08,9510.2,0.00137537,0.0741935,0,0.0742063,-32707.8,-33149.4,-0,46569.1,9510.2
step02_gravity_refstate-crust.xmf,2095,1.47777e-07,3.41912e-06,0,1.7968e-07,-9.11444e+08,-9.11219e+08,-9.11454e+08,12326,0.00169351,0.0752131,0,0.0752322,-30732.2,-33187.9,-0,45231.7,12326
step02_gravity_refstate-crust.xmf,2096,1.81937e-07,3.34489e-06,0,9.9398e-08,-9.09508e+08,-9.09291e+08,-9.0952e+08,6818.7,0.00102513,0.073435,0,0.0734422,-34693.2,-33117.5,-0,47962.3,6818.7
step02_gravity_refstate-crust.xmf,2097,1.47472e-07,3.18514e-06,0,4.29348e-08,-8.66328e+08,-8.66119e+08,-8.66338e+08,2945.33,0.000329651,0.0777526,0,0.0777533,-37786.3,-31545.1,-0,49222.9,2945.33
step02_gravity_refstate-crust.xmf,2098,1.16955e-07,3.0903e-06,0,7.59698e-10,-8.37475e+08,-8.37271e+08,-8.37483e+08,52.1153,5.87689e-20,0.0808705,0,0.0808705,-40000,-30494.4,-0,50298.2,52.1153
step02_gravity_refstate-crust.xmf,2099,2.1526e-07,4.19881e-06,0,6.06445e-07,-1.03272e+09,-1.03244e+09,-1.03273e+09,41602.1,0.00552455,0.0712365,0,0.0714504,-19341.1,-37604.4,-0,42286.8,41602.1
step02_gravity_refstate-crust.xmf,2100,2.26859e-07,4.38648e-06,0,7.02409e-07,-1.06638e+09,-1.0661e+09,-1.0664e+09,48185.3,0.00615503,0.0670838,0,0.0673656,-18690.2,-38830.5,-0,43094.5,48185.3
step02_gravity_refstate-crust.xmf,2101,2.14642e-07,4.12226e-06,0,5.18133e-07,-1.03014e+09,-1.02988e+09,-1.03016e+09,35543.9,0.00517396,0.0693313,0,0.0695241,-20792.2,-37510.7,-0,42887.9,35543.9
step02_gravity_refstate-crust.xmf,2102,1.74519e-07,3.9082e-06,0,3.96237e-07,-9.93852e+08,-9.93596e+08,-9.93864e+08,27181.8,0.00413601,0.0717041,0,0.0718233,-22913.3,-36188.9,-0,42832.9,27181.8
step02_gravity_refstate-crust.xmf,2103,1.49126e-07,3.72443e-06,0,3.11412e-07,-9.61545e+08,-9.613e+08,-9.61555e+08,21362.9,0.0032023,0.0734905,0,0.0735602,-25198.6,-35012.4,-0,43137.4,21362.9
step02_gravity_refstate-crust.xmf,2104,1.63544e-07,3.66241e-06,0,2.66449e-07,-9.57772e+08,-9.57532e+08,-9.57784e+08,18278.4,0.0028921,0.0723641,0,0.0724219,-26813.4,-34875,-0,43991.2,18278.4
step02_gravity_refstate-crust.xmf,2105,1.87626e-07,3.31516e-06,0,6.5968e-08,-9.05802e+08,-9.05587e+08,-9.05815e+08,4525.41,0.000686388,0.0733543,0,0.0733575,-36434,-32982.5,-0,49145.5,4525.41
step02_gravity_refstate-crust.xmf,2106,2.0987e-07,4.06106e-06,0,4.4578e-07,-1.0292e+09,-1.02894e+09,-1.02922e+09,30580.5,0.00485605,0.0674502,0,0.0676248,-22239.6,-37476.3,-0,43578.4,30580.5
step02_gravity_refstate-crust.xmf,2107,1.86491e-07,3.85794e-06,0,3.41489e-07,-9.94969e+08,-9.94717e+08,-9.94982e+08,23426.1,0.00387534,0.0696899,0,0.0697976,-24461,-36229.6,-0,43714.1,23426.1
step02_gravity_refstate-crust.xmf,2108,1.64173e-07,3.59173e-06,0,2.31479e-07,-9.47329e+08,-9.47093e+08,-9.4734e+08,15879.5,0.00252197,0.0725275,0,0.0725713,-28187.2,-34494.7,-0,44546.6,15879.5
step02_gravity_refstate-crust.xmf,2109,1.99482e-07,3.60927e-06,0,1.98108e-07,-9.64505e+08,-9.64271e+08,-9.64519e+08,13590.2,0.00247724,0.0691998,0,0.0692441,-29590,-35120.2,-0,45923.8,13590.2
step02_gravity_refstate-crust.xmf,2110,2.29742e-07,3.50306e-06,0,1.11516e-07,-9.56984e+08,-9.56759e+08,-9.56999e+08,7650,0.00150546,0.067855,0,0.0678717,-33807.6,-34846.3,-0,48551.2,7650
step02_gravity_refstate-crust.xmf,2111,2.16582e-07,3.54672e-06,0,1.5189e-07,-9.59625e+08,-9.59396e+08,-9.5964e+08,10419.7,0.00198026,0.0684869,0,0.0685156,-31755.2,-34942.5,-0,47216.2,10419.7
step02_gravity_refstate-crust.xmf,2112,2.42561e-07,3.47614e-06,0,6.99637e-08,-9.56988e+08,-9.56766e+08,-9.57005e+08,4799.51,0.000989032,0.0671318,0,0.0671391,-36005.4,-34846.5,-0,50106.5,4799.51
step02_gravity_refstate-crust.xmf,2113,2.2362e-07,3.38578e-06,0,3.41432e-08,-9.32397e+08,-9.3218e+08,-9.32412e+08,2342.22,0.000436164,0.0698095,0,0.0698108,-38052.7,-33951,-0,50996.9,2342.22
step02_gravity_refstate-crust.xmf,2114,1.9261e-07,3.29074e-06,0,4.79921e-10,-9.02725e+08,-9.02512e+08,-9.02738e+08,32.9226,8.02927e-20,0.0732898,0,0.0732898,-40000,-32870.5,-0,51773.2,32.9226
step02_gravity_refstate-crust.xmf,2115,2.24383e-07,4.3051e-06,0,5.97851e-07,-1.06508e+09,-1.0648e+09,-1.06509e+09,41012.6,0.00582205,0.0650151,0,0.0652752,-20098.9,-38782.8,-0,43681.5,41012.6
step02_gravity_refstate-crust.xmf,2116,2.32463e-07,4.2278e-06,0,5.07545e-07,-1.06409e+09,-1.06382e+09,-1.06411e+09,34817.6,0.00548043,0.0630858,0,0.0633234,-21559.9,-38746.9,-0,44341.3,34817.6
step02_gravity_refstate-crust.xmf,2117,2.18015e-07,4.00319e-06,0,3.79754e-07,-1.02977e+09,-1.02951e+09,-1.02979e+09,26051.1,0.00453114,0.0654612,0,0.0656178,-23796.3,-37496.9,-0,44410.4,26051.1
step02_gravity_refstate-crust.xmf,2118,1.99695e-07,3.80307e-06,0,2.89833e-07,-9.94418e+08,-9.94171e+08,-9.94432e+08,19882.6,0.00355205,0.0680697,0,0.0681623,-26092.5,-36209.5,-0,44631.2,19882.6
step02_gravity_refstate-crust.xmf,2119,2.17292e-07,3.74853e-06,0,2.40657e-07,-9.93965e+08,-9.93723e+08,-9.9398e+08,16509,0.00318018,0.0665684,0,0.0666443,-27854.2,-36193,-0,45670.4,16509
step02_gravity_refstate-crust.xmf,2120,2.35442e-07,4.16368e-06,0,4.29189e-07,-1.06442e+09,-1.06415e+09,-1.06443e+09,29442.3,0.00513186,0.0611361,0,0.0613511,-23081.7,-38758.6,-0,45110.9,29442.3
step02_gravity_refstate-crust.xmf,2121,2.29396e-07,3.9466e-06,0,3.22086e-07,-1.02968e+09,-1.02942e+09,-1.02969e+09,22095.1,0.00417928,0.0638078,0,0.0639445,-25363.9,-37493.4,-0,45266.8,22095.1
step02_gravity_refstate-crust.xmf,2122,2.61358e-07,3.71791e-06,0,1.67213e-07,-1.00873e+09,-1.0085e+09,-1.00875e+09,11470.8,0.00259321,0.0624358,0,0.0624897,-30953.2,-36730.8,-0,48033.9,11470.8
step02_gravity_refstate-crust.xmf,2123,2.8115e-07,3.62602e-06,0,8.99793e-08,-1.00108e+09,-1.00085e+09,-1.0011e+09,6172.58,0.00150285,0.0617733,0,0.0617915,-34803.6,-36452.2,-0,50398.9,6172.58
step02_gravity_refstate-crust.xmf,2124,2.72853e-07,3.66596e-06,0,1.25945e-07,-1.00471e+09,-1.00448e+09,-1.00473e+09,8639.84,0.00203896,0.0619907,0,0.0620243,-32931.1,-36584.4,-0,49222.7,8639.84
step02_gravity_refstate-crust.xmf,2125,2.89215e-07,3.58618e-06,0,3.56078e-08,-9.97204e+08,-9.96978e+08,-9.97224e+08,2442.69,0.000616828,0.0616058,0,0.0616089,-37871.2,-36310.9,-0,52466.3,2442.69
step02_gravity_refstate-crust.xmf,2126,2.62994e-07,3.49037e-06,0,6.5489e-10,-9.67975e+08,-9.67754e+08,-9.67993e+08,44.9254,1.15667e-19,0.0652334,0,0.0652334,-40000,-35246.6,-0,53313.4,44.9254
step02_gravity_refstate-crust.xmf,2127,2.48405e-07,4.10036e-06,0,3.58739e-07,-1.06522e+09,-1.06495e+09,-1.06523e+09,24609.5,0.0047472,0.0592566,0,0.0594464,-24707.2,-38787.6,-0,45988.3,24609.5
step02_gravity_refstate-crust.xmf,2128,2.53773e-07,3.78362e-06,0,2.06589e-07,-1.01672e+09,-1.01647e+09,-1.01673e+09,14172,0.00309003,0.0623771,0,0.0624536,-29292,-37021.4,-0,47208.1,14172
step02_gravity_refstate-crust.xmf,2129,2.40399e-07,3.88645e-06,0,2.72838e-07,-1.02655e+09,-1.0263e+09,-1.02656e+09,18716.7,0.00379436,0.0628828,0,0.0629972,-26847.1,-37379.5,-0,46021.6,18716.7
step02_gravity_refstate-crust.xmf,2130,2.84379e-07,3.60519e-06,0,6.43108e-08,-9.99282e+08,-9.99054e+08,-9.99302e+08,4411.72,0.00108319,0.0616167,0,0.0616263,-36264.1,-36386.6,-0,51371.8,4411.72
step02_gravity_refstate-crust.xmf,2131,2.62204e-07,4.03057e-06,0,2.97205e-07,-1.06294e+09,-1.06268e+09,-1.06296e+09,20388.3,0.00430235,0.0580557,0,0.0582149,-26360.9,-38704.7,-0,46829,20388.3
step02_gravity_refstate-crust.xmf,2132,2.93875e-07,3.88841e-06,0,1.88137e-07,-1.05491e+09,-1.05466e+09,-1.05493e+09,12906.2,0.00319241,0.0565199,0,0.05661,-30119.7,-38412.1,-0,48812.8,12906.2
step02_gravity_refstate-crust.xmf,2133,2.73755e-07,3.92744e-06,0,2.39404e-07,-1.05047e+09,-1.05022e+09,-1.05049e+09,16423.1,0.00370644,0.0584366,0,0.058554,-28157.3,-38250.6,-0,47496.8,16423.1
step02_gravity_refstate-crust.xmf,2134,3.08008e-07,3.83463e-06,0,1.43286e-07,-1.05235e+09,-1.0521e+09,-1.05237e+09,9829.41,0.00258897,0.0558629,0,0.0559229,-32082.2,-38318.9,-0,49976.1,9829.41
step02_gravity_refstate-crust.xmf,2135,3.25408e-07,3.73596e-06,0,6.11921e-08,-1.04185e+09,-1.04162e+09,-1.04187e+09,4197.78,0.00118646,0.0559023,0,0.0559149,-36376.1,-37936.8,-0,52558.7,4197.78
step02_gravity_refstate-crust.xmf,2136,3.2026e-07,3.78764e-06,0,1.01003e-07,-1.04952e+09,-1.04928e+09,-1.04954e+09,6928.77,0.00191792,0.0554339,0,0.0554671,-34184.6,-38215.9,-0,51274.1,6928.77
step02_gravity_refstate-crust.xmf,2137,3.23323e-07,3.69283e-06,0,1.67229e-10,-1.03323e+09,-1.033e+09,-1.03325e+09,11.4719,1.0586e-19,0.0567001,0,0.0567001,-40000,-37622.7,-0,54913.3,11.4719
step02_gravity_refstate-crust.xmf,2138,3.39464e-07,3.75853e-06,0,2.6816e-08,-1.05336e+09,-1.05313e+09,-1.05338e+09,1839.58,0.000555963,0.0540428,0,0.0540456,-38357.6,-38355.8,-0,54244.5,1839.58
