Block Name,Point ID,cauchy_strain_0,cauchy_strain_1,cauchy_strain_2,cauchy_strain_3,cauchy_stress_0,cauchy_stress_1,cauchy_stress_2,cauchy_stress_3,displacement_0,displacement_1,displacement_2,displacement_Magnitude,Points_0,Points_1,Points_2,Points_Magnitude,stress_xy
step02_gravity_refstate-mantle.xmf,0,-1.27475e-08,2.19688e-06,0,4.19869e-09,-1.09854e+09,-1.09825e+09,-1.09854e+09,561.155,-2.91351e-20,0.04229,-0,0.04229,-40000,-40000,-0,56568.5,561.155
step02_gravity_refstate-mantle.xmf,1,1.75245e-07,2.22194e-06,0,1.74994e-09,-1.17164e+09,-1.17136e+09,-1.17166e+09,233.88,-1.55546e-20,0.0372899,-0,0.0372899,-40000,-42259.2,-0,58188,233.88
step02_gravity_refstate-mantle.xmf,2,1.02044e-07,2.22433e-06,0,-2.70544e-08,-1.148e+09,-1.14772e+09,-1.14801e+09,-3615.83,0.000164269,0.0389718,0,0.0389722,-38454.4,-41528.6,-0,56598.3,3615.83
step02_gravity_refstate-mantle.xmf,3,-3.55214e-08,2.21469e-06,0,-1.34631e-08,-1.09854e+09,-1.09824e+09,-1.09854e+09,-1799.35,-5.67874e-05,0.042469,-0,0.042469,-37557.3,-40000,-0,54868.5,1799.35
step02_gravity_refstate-mantle.xmf,4,2.76045e-07,2.22359e-06,0,-5.39225e-08,-1.20657e+09,-1.20631e+09,-1.2066e+09,-7206.74,0.000496007,0.0349626,0,0.0349661,-38247.3,-43338.9,-0,57802.4,7206.74
step02_gravity_refstate-mantle.xmf,5,1.19891e-07,2.24697e-06,0,-7.60718e-08,-1.16471e+09,-1.16443e+09,-1.16473e+09,-10167,0.000506498,0.0380791,0,0.0380825,-36467.4,-42045,-0,55656.5,10167
step02_gravity_refstate-mantle.xmf,6,4.11913e-07,2.20207e-06,0,1.13293e-09,-1.24408e+09,-1.24385e+09,-1.24414e+09,151.416,-2.07806e-20,0.0323353,-0,0.0323353,-40000,-44498.7,-0,59834.2,151.416
step02_gravity_refstate-mantle.xmf,7,-9.48264e-08,2.25596e-06,0,-2.70477e-08,-1.09855e+09,-1.09824e+09,-1.09854e+09,-3614.93,-0.000208228,0.0429884,-0,0.0429889,-35229,-40000,-0,53301.8,3614.93
step02_gravity_refstate-mantle.xmf,8,5.14452e-07,2.19224e-06,0,-7.26332e-08,-1.27516e+09,-1.27494e+09,-1.27523e+09,-9707.43,0.000912425,0.0302806,0,0.0302944,-38243.9,-45459.4,-0,59406.7,9707.43
step02_gravity_refstate-mantle.xmf,9,3.59468e-07,2.23176e-06,0,-1.21435e-07,-1.23763e+09,-1.23738e+09,-1.23767e+09,-16229.7,0.00128438,0.0329997,0,0.0330247,-36624.4,-44298.9,-0,57478.2,16229.7
step02_gravity_refstate-mantle.xmf,10,3.1823e-08,2.30177e-06,0,-1.14281e-07,-1.15807e+09,-1.15777e+09,-1.15807e+09,-15273.6,0.000589425,0.0391175,0,0.039122,-34191.3,-41839.4,-0,54033.1,15273.6
step02_gravity_refstate-mantle.xmf,11,6.71088e-07,2.15832e-06,0,6.90762e-10,-1.31607e+09,-1.31587e+09,-1.31616e+09,92.3204,-2.63237e-20,0.0274833,-0,0.0274833,-40000,-46723.9,-0,61507.1,92.3204
step02_gravity_refstate-mantle.xmf,12,-1.90167e-07,2.32042e-06,0,-3.05602e-08,-1.09857e+09,-1.09823e+09,-1.09854e+09,-4084.37,-0.000522091,0.0438429,-0,0.043846,-33009.3,-40000,-0,51861.5,4084.37
step02_gravity_refstate-mantle.xmf,13,2.26254e-07,2.27268e-06,0,-1.51402e-07,-1.20886e+09,-1.20859e+09,-1.20889e+09,-20234.9,0.0013383,0.0352827,0,0.035308,-35064.8,-43409.6,-0,55802.6,20234.9
step02_gravity_refstate-mantle.xmf,14,7.73617e-07,2.14267e-06,0,-8.29897e-08,-1.34518e+09,-1.345e+09,-1.34528e+09,-11091.6,0.00134841,0.0255879,0,0.0256234,-38263.7,-47623.8,-0,61091.2,11091.6
step02_gravity_refstate-mantle.xmf,15,9.3461e-07,2.1046e-06,0,2.93329e-10,-1.38775e+09,-1.38759e+09,-1.38788e+09,39.2035,-3.17901e-20,0.0227604,-0,0.0227604,-40000,-48939.8,-0,63206.8,39.2035
step02_gravity_refstate-mantle.xmf,16,-6.23878e-08,2.37119e-06,0,-1.44977e-07,-1.15673e+09,-1.1564e+09,-1.15672e+09,-19376.2,0.000529545,0.0400358,0,0.0400393,-32139.8,-41797.5,-0,52725.7,19376.2
step02_gravity_refstate-mantle.xmf,17,-3.1493e-07,2.4038e-06,0,-2.25774e-08,-1.09859e+09,-1.09823e+09,-1.09855e+09,-3017.47,-0.00105366,0.0450479,-0,0.0450603,-30892.4,-40000,-0,50540.5,3017.47
step02_gravity_refstate-mantle.xmf,18,6.02069e-07,2.19182e-06,0,-1.50859e-07,-1.3035e+09,-1.30329e+09,-1.30358e+09,-20162.4,0.00209111,0.0284965,0,0.0285731,-36614.9,-46335.4,-0,59056,20162.4
step02_gravity_refstate-mantle.xmf,19,4.37376e-07,2.24552e-06,0,-1.97059e-07,-1.26695e+09,-1.26671e+09,-1.26701e+09,-26337,0.00232334,0.0312171,0,0.0313035,-35107.9,-45205.4,-0,57237.1,26337
step02_gravity_refstate-mantle.xmf,20,2.05394e-07,2.32168e-06,0,-2.16668e-07,-1.22031e+09,-1.22002e+09,-1.22033e+09,-28957.7,0.00195529,0.0349634,0,0.035018,-33286.3,-43763.1,-0,54983.5,28957.7
step02_gravity_refstate-mantle.xmf,21,1.03361e-06,2.08805e-06,0,-8.48722e-08,-1.41603e+09,-1.41589e+09,-1.41617e+09,-11343.2,0.00177858,0.0209538,0,0.0210292,-38280.7,-49813.9,-0,62823.8,11343.2
step02_gravity_refstate-mantle.xmf,22,1.18396e-06,2.05515e-06,0,-8.36354e-11,-1.45931e+09,-1.45919e+09,-1.45947e+09,-11.1779,-3.69287e-20,0.0181606,-0,0.0181606,-40000,-51151.8,-0,64934.6,11.1779
step02_gravity_refstate-mantle.xmf,23,-1.86925e-07,2.47359e-06,0,-1.7278e-07,-1.16051e+09,-1.16015e+09,-1.16048e+09,-23092,0.000373389,0.0409989,0,0.0410006,-29974.1,-41913.8,-0,51528.7,23092
step02_gravity_refstate-mantle.xmf,24,-4.64675e-07,2.50035e-06,0,4.36499e-10,-1.09861e+09,-1.09822e+09,-1.09855e+09,58.338,-0.0018395,0.046633,-0,0.0466693,-28873.1,-40000,-0,49332.1,58.338
step02_gravity_refstate-mantle.xmf,25,8.70918e-07,2.13592e-06,0,-1.65567e-07,-1.37388e+09,-1.37371e+09,-1.37399e+09,-22128,0.00296891,0.0237874,0,0.0239719,-36625.2,-48510.8,-0,60784.1,22128
step02_gravity_refstate-mantle.xmf,26,1.27344e-06,2.04279e-06,0,-7.96178e-08,-1.4871e+09,-1.487e+09,-1.48727e+09,-10640.9,0.00220091,0.0164156,0,0.0165625,-38270.3,-52010.9,-0,64573.6,10640.9
step02_gravity_refstate-mantle.xmf,27,1.40116e-06,2.02382e-06,0,-3.97188e-10,-1.53087e+09,-1.53078e+09,-1.53105e+09,-53.0841,-4.29684e-20,0.0136514,-0,0.0136514,-40000,-53363.5,-0,66690.8,53.0841
step02_gravity_refstate-mantle.xmf,28,6.16837e-08,2.39704e-06,0,-2.38284e-07,-1.20291e+09,-1.20259e+09,-1.20291e+09,-31846.6,0.0017548,0.0369748,0,0.0370164,-31421.9,-43224.9,-0,53439,31846.6
step02_gravity_refstate-mantle.xmf,29,-3.84395e-07,2.58071e-06,0,-1.33806e-07,-1.14712e+09,-1.14673e+09,-1.14707e+09,-17883.2,-0.000681317,0.0437538,-0,0.0437591,-27866.4,-41499.2,-0,49987.2,17883.2
step02_gravity_refstate-mantle.xmf,30,-6.37459e-07,2.60965e-06,0,4.25807e-08,-1.09864e+09,-1.09821e+09,-1.09856e+09,5690.9,-0.00289868,0.0486361,-0,0.0487224,-26946.1,-40000,-0,48229.6,5690.9
step02_gravity_refstate-mantle.xmf,31,7.11636e-07,2.19137e-06,0,-2.29107e-07,-1.337e+09,-1.3368e+09,-1.33709e+09,-30620.2,0.00356394,0.0264046,0,0.026644,-35162.4,-47370.8,-0,58994.8,30620.2
step02_gravity_refstate-mantle.xmf,32,5.12649e-07,2.27056e-06,0,-2.88678e-07,-1.29703e+09,-1.29679e+09,-1.2971e+09,-38581.9,0.00379831,0.0294913,0,0.0297349,-33374.7,-46135,-0,56941.3,38581.9
step02_gravity_refstate-mantle.xmf,33,1.13016e-06,2.08091e-06,0,-1.64767e-07,-1.4441e+09,-1.44397e+09,-1.44425e+09,-22021.1,0.00383809,0.0192104,0,0.0195901,-36608.5,-50681.6,-0,62520.5,22021.1
step02_gravity_refstate-mantle.xmf,34,1.47878e-06,2.02076e-06,0,-6.84434e-08,-1.55994e+09,-1.55987e+09,-1.56014e+09,-9147.47,0.00266312,0.0118423,0,0.0121381,-38196,-54262.1,-0,66357.4,9147.47
step02_gravity_refstate-mantle.xmf,35,1.56954e-06,2.02328e-06,0,-6.15638e-10,-1.60243e+09,-1.60237e+09,-1.60264e+09,-82.28,-5.42157e-20,0.00917845,-0,0.00917845,-40000,-55575.3,-0,68473.4,82.28
step02_gravity_refstate-mantle.xmf,36,2.65525e-07,2.36531e-06,0,-3.05949e-07,-1.25161e+09,-1.25133e+09,-1.25164e+09,-40890.1,0.00318617,0.0332725,0,0.0334247,-31691.7,-44730.5,-0,54819.5,40890.1
step02_gravity_refstate-mantle.xmf,37,7.44875e-08,2.45715e-06,0,-3.08835e-07,-1.22538e+09,-1.22507e+09,-1.22539e+09,-41275.7,0.0025961,0.0360268,0,0.0361202,-30017.5,-43919.4,-0,53197.4,41275.7
step02_gravity_refstate-mantle.xmf,38,-1.38871e-07,2.55402e-06,0,-2.7548e-07,-1.19887e+09,-1.19851e+09,-1.19885e+09,-36817.9,0.00152263,0.0391368,0,0.0391664,-28446.2,-43099.3,-0,51640.4,36817.9
step02_gravity_refstate-mantle.xmf,39,-5.56653e-07,2.69834e-06,0,-1.00762e-07,-1.14514e+09,-1.14471e+09,-1.14507e+09,-13466.8,-0.00162418,0.0459219,-0,0.0459506,-26034.9,-41437.2,-0,48937.3,13466.8
step02_gravity_refstate-mantle.xmf,40,9.88624e-07,2.12971e-06,0,-2.38556e-07,-1.40739e+09,-1.40724e+09,-1.40753e+09,-31883,0.00480517,0.0216989,0,0.0222246,-35194.4,-49547,-0,60774.6,31883
step02_gravity_refstate-mantle.xmf,41,1.3617e-06,2.04039e-06,0,-1.45842e-07,-1.5144e+09,-1.51431e+09,-1.51458e+09,-19491.8,0.00459063,0.0147313,0,0.01543,-36615.9,-52854.7,-0,64298.9,19491.8
step02_gravity_refstate-mantle.xmf,42,1.62763e-06,2.0369e-06,0,-5.70778e-08,-1.63174e+09,-1.63169e+09,-1.63196e+09,-7628.45,0.00351043,0.00734408,0,0.00813994,-37837.1,-56481.1,-0,67983.5,7628.45
step02_gravity_refstate-mantle.xmf,43,1.67642e-06,2.06401e-06,0,-4.94895e-11,-1.67401e+09,-1.67395e+09,-1.67423e+09,-6.61427,-3.96178e-20,0.00466134,-0,0.00466134,-40000,-57787,-0,70280.4,6.61427
step02_gravity_refstate-mantle.xmf,44,-8.25014e-07,2.72424e-06,0,1.05129e-07,-1.09867e+09,-1.0982e+09,-1.09856e+09,14050.4,-0.00424083,0.0511027,-0,0.0512784,-25106.5,-40000,-0,47226.4,14050.4
step02_gravity_refstate-mantle.xmf,45,-3.31416e-07,2.6512e-06,0,-2.29312e-07,-1.18095e+09,-1.18055e+09,-1.1809e+09,-30647.5,0.000391486,0.0419494,0,0.0419512,-26924.2,-42544.6,-0,50348.4,30647.5
step02_gravity_refstate-mantle.xmf,46,8.25131e-07,2.20173e-06,0,-3.23123e-07,-1.37158e+09,-1.37139e+09,-1.37169e+09,-43185.4,0.00565685,0.0243275,0,0.0249765,-33422.7,-48439.7,-0,58851.3,43185.4
step02_gravity_refstate-mantle.xmf,47,6.1443e-07,2.30507e-06,0,-3.97429e-07,-1.33318e+09,-1.33296e+09,-1.33327e+09,-53116.4,0.00595189,0.0274605,0,0.0280981,-31458.6,-47252.6,-0,56766.7,53116.4
step02_gravity_refstate-mantle.xmf,48,1.24411e-06,2.0762e-06,0,-2.27204e-07,-1.47687e+09,-1.47676e+09,-1.47704e+09,-30365.8,0.0060038,0.0171843,0,0.018203,-35165.4,-51694.7,-0,62521.6,30365.8
step02_gravity_refstate-mantle.xmf,49,1.5315e-06,2.02834e-06,0,-1.19076e-07,-1.57654e+09,-1.57648e+09,-1.57675e+09,-15914.6,0.00524648,0.0108247,0,0.0120291,-36547.3,-54775.4,-0,65848.7,15914.6
step02_gravity_refstate-mantle.xmf,50,1.69842e-06,2.08419e-06,0,-2.07761e-08,-1.69429e+09,-1.69424e+09,-1.69452e+09,-2776.72,0.00276514,0.00336036,0,0.00435178,-38368.2,-58413.8,-0,69887.7,2776.72
step02_gravity_refstate-mantle.xmf,51,1.70995e-06,2.15288e-06,0,5.62602e-09,-1.74563e+09,-1.74557e+09,-1.74586e+09,751.917,2.45991e-19,-4.24358e-20,0,2.49624e-19,-40000,-60000,-0,72111,751.917
step02_gravity_refstate-mantle.xmf,52,-7.33449e-07,2.82073e-06,0,-4.95978e-08,-1.1451e+09,-1.14462e+09,-1.145e+09,-6628.74,-0.00275481,0.0483868,-0,0.0484651,-24286.4,-41435,-0,48028,6628.74
step02_gravity_refstate-mantle.xmf,53,-1.02436e-06,2.84137e-06,0,1.94724e-07,-1.09871e+09,-1.09819e+09,-1.09857e+09,26024.8,-0.00585907,0.0540792,-0,0.0543956,-23349.5,-40000,-0,46316.3,26024.8
step02_gravity_refstate-mantle.xmf,54,3.37972e-07,2.41608e-06,0,-4.00403e-07,-1.28394e+09,-1.28366e+09,-1.28398e+09,-53513.9,0.00481664,0.0315897,0,0.0319548,-30066.2,-45729.7,-0,54728.3,53513.9
step02_gravity_refstate-mantle.xmf,55,1.13925e-07,2.52777e-06,0,-3.97467e-07,-1.25449e+09,-1.25417e+09,-1.2545e+09,-53121.5,0.0039339,0.0347328,0,0.0349549,-28493.1,-44818.9,-0,53109.3,53121.5
step02_gravity_refstate-mantle.xmf,56,-1.2707e-07,2.64866e-06,0,-3.58929e-07,-1.22737e+09,-1.227e+09,-1.22735e+09,-47970.8,0.00262853,0.0381737,0,0.0382641,-26896.1,-43979.8,-0,51552.2,47970.8
step02_gravity_refstate-mantle.xmf,57,-4.17208e-07,2.77248e-06,0,-2.56411e-07,-1.19562e+09,-1.19519e+09,-1.19556e+09,-34269.4,0.000525102,0.0425757,0,0.0425789,-25298,-42997.5,-0,49887.6,34269.4
step02_gravity_refstate-mantle.xmf,58,1.1137e-06,2.13376e-06,0,-3.21085e-07,-1.44215e+09,-1.44201e+09,-1.4423e+09,-42913,0.00733263,0.0195911,0,0.0209184,-33469.7,-50621.3,-0,60685.6,42913
step02_gravity_refstate-mantle.xmf,59,1.46474e-06,2.04359e-06,0,-1.95541e-07,-1.54584e+09,-1.54577e+09,-1.54604e+09,-26134.1,0.00715379,0.0127982,0,0.0146619,-35059.5,-53826.7,-0,64237.6,26134.1
step02_gravity_refstate-mantle.xmf,60,1.63963e-06,2.04225e-06,0,-1.28836e-07,-1.62281e+09,-1.62275e+09,-1.62303e+09,-17219,0.0075846,0.00793494,0,0.0109768,-35312,-56205.2,-0,66377.4,17219
step02_gravity_refstate-mantle.xmf,61,1.71036e-06,2.07958e-06,0,-5.07758e-08,-1.68687e+09,-1.68683e+09,-1.6871e+09,-6786.18,0.00590257,0.00384414,0,0.00704398,-36518.1,-58184.8,-0,68695.3,6786.18
step02_gravity_refstate-mantle.xmf,62,1.72226e-06,2.15319e-06,0,4.83272e-09,-1.74563e+09,-1.74557e+09,-1.74586e+09,645.893,0.00405993,-4.83131e-20,0,0.00405993,-37633.6,-60000,-0,70825.7,645.893
step02_gravity_refstate-mantle.xmf,63,-1.21724e-06,2.94721e-06,0,3.09222e-07,-1.09874e+09,-1.09818e+09,-1.09858e+09,41327.5,-0.00773263,0.0576115,-0,0.0581281,-21670.5,-40000,-0,45493,41327.5
step02_gravity_refstate-mantle.xmf,64,-9.07215e-07,2.96591e-06,0,1.69372e-08,-1.15191e+09,-1.15139e+09,-1.15179e+09,2263.66,-0.00386201,0.0510219,-0,0.0511679,-22467.3,-41644.6,-0,47318.6,2263.66
step02_gravity_refstate-mantle.xmf,65,-1.39609e-06,3.02722e-06,0,4.49124e-07,-1.09877e+09,-1.09818e+09,-1.09858e+09,60025.4,-0.00982512,0.0617408,-0,0.0625177,-20065.1,-40000,-0,44750.5,60025.4
step02_gravity_refstate-mantle.xmf,66,-1.14911e-06,3.07268e-06,0,2.03629e-07,-1.1404e+09,-1.13983e+09,-1.14024e+09,27215,-0.00635958,0.055995,-0,0.056355,-20742.1,-41287.5,-0,46204.9,27215
step02_gravity_refstate-mantle.xmf,67,5.6155e-07,2.37995e-06,0,-4.65377e-07,-1.33323e+09,-1.33298e+09,-1.3333e+09,-62197.6,0.0068939,0.0280223,0,0.0288579,-29871.1,-47253.8,-0,55903.5,62197.6
step02_gravity_refstate-mantle.xmf,68,9.56255e-07,2.21737e-06,0,-4.1435e-07,-1.40823e+09,-1.40806e+09,-1.40836e+09,-55377.9,0.00825149,0.022153,0,0.0236399,-31690,-49572.8,-0,58836.3,55377.9
step02_gravity_refstate-mantle.xmf,69,1.36225e-06,2.0826e-06,0,-2.92714e-07,-1.50933e+09,-1.50924e+09,-1.50952e+09,-39121.3,0.0088568,0.0152161,0,0.017606,-33428.6,-52698.3,-0,62406.6,39121.3
step02_gravity_refstate-mantle.xmf,70,-6.12771e-07,2.89483e-06,0,-1.82562e-07,-1.18678e+09,-1.18631e+09,-1.1867e+09,-24399.3,-0.000794481,0.0456134,-0,0.0456203,-23714.5,-42723.6,-0,48863.9,24399.3
step02_gravity_refstate-mantle.xmf,71,-1.31499e-06,3.1501e-06,0,3.65301e-07,-1.13862e+09,-1.13802e+09,-1.13845e+09,48822.4,-0.0082903,0.0602545,-0,0.0608221,-19274.3,-41231.8,-0,45514.4,48822.4
step02_gravity_refstate-mantle.xmf,72,-1.54297e-06,3.08877e-06,0,6.28085e-07,-1.0988e+09,-1.09818e+09,-1.09859e+09,83943.6,-0.0120868,0.0665002,-0,0.0675898,-18528.8,-40000,-0,44083.1,83943.6
step02_gravity_refstate-mantle.xmf,73,-1.65108e-06,3.1049e-06,0,8.31095e-07,-1.09882e+09,-1.09818e+09,-1.0986e+09,111076,-0.0144504,0.071911,-0,0.0733485,-17057.5,-40000,-0,43485.2,111076
step02_gravity_refstate-mantle.xmf,74,-1.45169e-06,3.22323e-06,0,5.82602e-07,-1.13906e+09,-1.13843e+09,-1.13886e+09,77864.7,-0.0103241,0.0651915,-0,0.0660039,-17785.2,-41244.6,-0,44915.8,77864.7
step02_gravity_refstate-mantle.xmf,75,-1.71832e-06,3.06363e-06,0,1.05123e-06,-1.09884e+09,-1.0982e+09,-1.09861e+09,140497,-0.0168349,0.0779773,-0,0.0797739,-15647.1,-40000,-0,42951.5,140497
step02_gravity_refstate-mantle.xmf,76,-1.56006e-06,3.2365e-06,0,8.52222e-07,-1.13636e+09,-1.13572e+09,-1.13615e+09,113900,-0.0127319,0.0712359,-0,0.0723647,-16335.6,-41160.6,-0,44283.7,113900
step02_gravity_refstate-mantle.xmf,77,3.84795e-07,2.48332e-06,0,-4.91472e-07,-1.31006e+09,-1.30978e+09,-1.31011e+09,-65685.2,0.00653222,0.0304412,0,0.0311342,-28471,-46537.2,-0,54555.5,65685.2
step02_gravity_refstate-mantle.xmf,78,1.44163e-07,2.61552e-06,0,-4.83581e-07,-1.28144e+09,-1.28111e+09,-1.28146e+09,-64630.7,0.00548257,0.0337397,0,0.0341822,-26933.8,-45651.9,-0,53005,64630.7
step02_gravity_refstate-mantle.xmf,79,-1.21088e-07,2.75732e-06,0,-4.32946e-07,-1.25395e+09,-1.25357e+09,-1.25394e+09,-57863.2,0.00392516,0.0374835,0,0.0376884,-25386.4,-44801.3,-0,51494,57863.2
step02_gravity_refstate-mantle.xmf,80,8.08193e-07,2.31357e-06,0,-4.9137e-07,-1.38323e+09,-1.38302e+09,-1.38333e+09,-65671.6,0.00881964,0.0243339,0,0.0258829,-30037.5,-48799.7,-0,57303.2,65671.6
step02_gravity_refstate-mantle.xmf,81,1.24112e-06,2.14834e-06,0,-3.96761e-07,-1.47529e+09,-1.47517e+09,-1.47546e+09,-53027.1,0.0102667,0.0176226,0,0.0203951,-31714,-51646,-0,60606,53027.1
step02_gravity_refstate-mantle.xmf,82,1.56898e-06,2.05581e-06,0,-2.37432e-07,-1.57652e+09,-1.57645e+09,-1.57673e+09,-31732.7,0.0102123,0.0109236,0,0.0149538,-33339,-54774.9,-0,64123.2,31732.7
step02_gravity_refstate-mantle.xmf,83,1.75094e-06,2.08981e-06,0,-7.91168e-08,-1.68785e+09,-1.68781e+09,-1.68809e+09,-10574,0.00972678,0.00379505,0,0.0104409,-34311.6,-58215.3,-0,67574.5,10574
step02_gravity_refstate-mantle.xmf,84,1.75571e-06,2.15801e-06,0,4.20331e-09,-1.74562e+09,-1.74557e+09,-1.74586e+09,561.772,0.00797689,-4.81129e-20,0,0.00797689,-35381,-60000,-0,69655,561.772
step02_gravity_refstate-mantle.xmf,85,-3.83592e-07,2.89425e-06,0,-3.43069e-07,-1.23035e+09,-1.22991e+09,-1.2303e+09,-45851.1,0.00206233,0.0414323,0,0.0414836,-23898.7,-44070.8,-0,50133.6,45851.1
step02_gravity_refstate-mantle.xmf,86,-9.1034e-07,3.11886e-06,0,-2.37243e-08,-1.18579e+09,-1.18525e+09,-1.18567e+09,-3170.76,-0.00283838,0.0507653,-0,0.0508446,-21106.9,-42691.5,-0,47624.2,3170.76
step02_gravity_refstate-mantle.xmf,87,-6.58052e-07,3.01834e-06,0,-2.00109e-07,-1.20627e+09,-1.20577e+09,-1.20618e+09,-26744.6,-0.000314627,0.0459964,-0,0.0459974,-22465.6,-43325.4,-0,48803.6,26744.6
step02_gravity_refstate-mantle.xmf,88,-1.11102e-06,3.19074e-06,0,1.52552e-07,-1.17169e+09,-1.17112e+09,-1.17154e+09,20388.6,-0.00509072,0.0551595,-0,0.0553939,-19911.4,-42254.9,-0,46711.2,20388.6
step02_gravity_refstate-mantle.xmf,89,-1.61106e-06,3.18606e-06,0,1.13854e-06,-1.13602e+09,-1.13537e+09,-1.1358e+09,152167,-0.0149342,0.0776514,-0,0.0790745,-14970.3,-41149.4,-0,43787.9,152167
step02_gravity_refstate-mantle.xmf,90,-1.66417e-06,2.95921e-06,0,1.30792e-06,-1.09884e+09,-1.09822e+09,-1.09861e+09,174803,-0.0191451,0.0846825,-0,0.0868197,-14293.4,-40000,-0,42477.1,174803
step02_gravity_refstate-mantle.xmf,91,-1.53891e-06,2.77534e-06,0,1.57095e-06,-1.09882e+09,-1.09825e+09,-1.09862e+09,209957,-0.0212693,0.0919876,-0,0.0944145,-12992.6,-40000,-0,42057.2,209957
step02_gravity_refstate-mantle.xmf,92,-1.55558e-06,3.09225e-06,0,1.55378e-06,-1.14064e+09,-1.14002e+09,-1.14043e+09,207662,-0.0169133,0.0853383,-0,0.0869982,-13476,-41292.4,-0,43435.7,207662
step02_gravity_refstate-mantle.xmf,93,6.42931e-07,2.42843e-06,0,-5.50385e-07,-1.36079e+09,-1.36055e+09,-1.36088e+09,-73559,0.00899875,0.0266068,0,0.0280873,-28436.2,-48105.8,-0,55881.9,73559
step02_gravity_refstate-mantle.xmf,94,1.09633e-06,2.24042e-06,0,-4.95921e-07,-1.44395e+09,-1.4438e+09,-1.4441e+09,-66279.8,0.0111969,0.0200581,0,0.0229717,-30037.3,-50677.2,-0,58910.2,66279.8
step02_gravity_refstate-mantle.xmf,95,1.47969e-06,2.09996e-06,0,-3.47617e-07,-1.53885e+09,-1.53876e+09,-1.53904e+09,-46459,0.0120246,0.0134545,0,0.0180448,-31663.5,-53610.7,-0,62263,46459
step02_gravity_refstate-mantle.xmf,96,1.71747e-06,2.06681e-06,0,-1.69285e-07,-1.63957e+09,-1.63952e+09,-1.6398e+09,-22624.9,0.0116349,0.00691749,0,0.013536,-32997.2,-56723.6,-0,65623,22624.9
step02_gravity_refstate-mantle.xmf,97,-1.21368e-06,3.32152e-06,0,2.72682e-07,-1.18305e+09,-1.18244e+09,-1.18288e+09,36444,-0.00569126,0.0578555,-0,0.0581348,-18623,-42605.2,-0,46497.5,36444
step02_gravity_refstate-mantle.xmf,98,-1.39397e-06,3.40912e-06,0,5.79237e-07,-1.18041e+09,-1.17977e+09,-1.18023e+09,77415,-0.00812772,0.0642051,-0,0.0647175,-16935.1,-42522.9,-0,45771.1,77415
step02_gravity_refstate-mantle.xmf,99,-1.30622e-06,2.50271e-06,0,1.82983e-06,-1.0988e+09,-1.09829e+09,-1.09862e+09,244556,-0.0230991,0.0998211,-0,0.102459,-11740.6,-40000,-0,41687.4,244556
step02_gravity_refstate-mantle.xmf,100,-1.39785e-06,2.81718e-06,0,1.88594e-06,-1.13067e+09,-1.1301e+09,-1.13048e+09,252055,-0.019677,0.0941726,-0,0.0962064,-12202.9,-40984.7,-0,42762.8,252055
step02_gravity_refstate-mantle.xmf,101,-1.53213e-06,3.38194e-06,0,9.16553e-07,-1.1666e+09,-1.16595e+09,-1.1664e+09,122497,-0.0112241,0.0712109,-0,0.07209,-15655.2,-42095.3,-0,44912.2,122497
step02_gravity_refstate-mantle.xmf,102,4.29258e-07,2.5648e-06,0,-5.78248e-07,-1.33489e+09,-1.3346e+09,-1.33495e+09,-77282.8,0.00846202,0.0294694,0,0.0306603,-26919.4,-47304.6,-0,54427.8,77282.8
step02_gravity_refstate-mantle.xmf,103,1.75032e-07,2.71926e-06,0,-5.65677e-07,-1.30783e+09,-1.30749e+09,-1.30786e+09,-75602.8,0.00729265,0.0328862,0,0.033685,-25419.9,-46467.7,-0,52966.1,75602.8
step02_gravity_refstate-mantle.xmf,104,-9.87292e-08,2.87909e-06,0,-5.07046e-07,-1.28216e+09,-1.28176e+09,-1.28214e+09,-67766.7,0.00562426,0.0367153,0,0.0371436,-23965.9,-45673,-0,51579,67766.7
step02_gravity_refstate-mantle.xmf,105,9.27022e-07,2.35712e-06,0,-5.79488e-07,-1.41536e+09,-1.41517e+09,-1.41549e+09,-77448.5,0.0116234,0.0225718,0,0.0253887,-28428.4,-49793.3,-0,57337.2,77448.5
step02_gravity_refstate-mantle.xmf,106,1.36987e-06,2.17391e-06,0,-4.61517e-07,-1.50582e+09,-1.50571e+09,-1.506e+09,-61681.7,0.0134688,0.0158449,0,0.0207959,-29991.5,-52590,-0,60540.9,61681.7
step02_gravity_refstate-mantle.xmf,107,1.6713e-06,2.08062e-06,0,-2.68929e-07,-1.60144e+09,-1.60139e+09,-1.60167e+09,-35942.4,0.0135591,0.00941933,0,0.0165097,-31538.2,-55545.5,-0,63874.6,35942.4
step02_gravity_refstate-mantle.xmf,108,1.81545e-06,2.11132e-06,0,-9.75305e-08,-1.69405e+09,-1.69401e+09,-1.69429e+09,-13034.9,0.0134978,0.00341531,0,0.0139232,-32216.6,-58407.1,-0,66703.1,13034.9
step02_gravity_refstate-mantle.xmf,109,1.80753e-06,2.16898e-06,0,3.58546e-09,-1.74561e+09,-1.74556e+09,-1.74585e+09,479.197,0.0117976,-4.39833e-20,0,0.0117976,-33236.8,-60000,-0,68590.7,479.197
step02_gravity_refstate-mantle.xmf,110,-9.4239e-07,3.27444e-06,0,-1.4945e-08,-1.21097e+09,-1.21041e+09,-1.21085e+09,-1997.4,-0.0020039,0.0512736,-0,0.0513127,-19896.3,-43469.5,-0,47806.5,1997.4
step02_gravity_refstate-mantle.xmf,111,-3.85381e-07,3.03357e-06,0,-3.95672e-07,-1.25731e+09,-1.25685e+09,-1.25726e+09,-52881.6,0.00346409,0.0410503,0,0.0411962,-22561.5,-44903.9,-0,50253.2,52881.6
step02_gravity_refstate-mantle.xmf,112,-6.7651e-07,3.17404e-06,0,-2.27468e-07,-1.23355e+09,-1.23303e+09,-1.23346e+09,-30401.1,0.000867278,0.0459816,0,0.0459898,-21168.4,-44168.4,-0,48979.1,30401.1
step02_gravity_refstate-mantle.xmf,113,-9.48516e-07,2.13045e-06,0,2.07646e-06,-1.09875e+09,-1.09834e+09,-1.09862e+09,277518,-0.0245074,0.108081,-0,0.110825,-10533.4,-40000,-0,41363.7,277518
step02_gravity_refstate-mantle.xmf,114,-1.15976e-06,2.52143e-06,0,2.21348e-06,-1.129e+09,-1.12851e+09,-1.12885e+09,295831,-0.0212723,0.10197,-0,0.104166,-11085.7,-40934.1,-0,42408.7,295831
step02_gravity_refstate-mantle.xmf,115,-1.48395e-06,3.12396e-06,0,1.94189e-06,-1.16379e+09,-1.16317e+09,-1.16359e+09,259534,-0.0166405,0.0902332,-0,0.0917548,-12339.2,-42008,-0,43782.7,259534
step02_gravity_refstate-mantle.xmf,116,-1.56552e-06,3.45558e-06,0,1.22672e-06,-1.17972e+09,-1.17905e+09,-1.17952e+09,163950,-0.0119529,0.0759792,-0,0.0769137,-14431.1,-42500.6,-0,44883.8,163950
step02_gravity_refstate-mantle.xmf,117,7.24887e-07,2.49803e-06,0,-6.38845e-07,-1.38797e+09,-1.38774e+09,-1.38807e+09,-85381.6,0.0114873,0.0253313,0,0.0278142,-26890.2,-48946.3,-0,55846.4,85381.6
step02_gravity_refstate-mantle.xmf,118,1.21911e-06,2.28083e-06,0,-5.70247e-07,-1.47303e+09,-1.47289e+09,-1.47319e+09,-76213.5,0.014297,0.0184498,0,0.0233409,-28386.6,-51576.4,-0,58872.1,76213.5
step02_gravity_refstate-mantle.xmf,119,1.59867e-06,2.12783e-06,0,-3.90927e-07,-1.56544e+09,-1.56536e+09,-1.56565e+09,-52247.4,0.0153784,0.0118888,0,0.0194381,-29931.3,-54432.9,-0,62119.5,52247.4
step02_gravity_refstate-mantle.xmf,120,1.79339e-06,2.09252e-06,0,-1.88608e-07,-1.65266e+09,-1.65262e+09,-1.6529e+09,-25207.5,0.014772,0.00612491,0,0.0159915,-31298,-57128.7,-0,65140.2,25207.5
step02_gravity_refstate-mantle.xmf,121,-1.01185e-06,3.43624e-06,0,4.30375e-08,-1.229e+09,-1.22841e+09,-1.22887e+09,5751.97,-0.00154683,0.0526043,-0,0.052627,-18766.9,-44026.5,-0,47859.4,5751.97
step02_gravity_refstate-mantle.xmf,122,-1.21172e-06,3.48837e-06,0,2.87257e-07,-1.21237e+09,-1.21174e+09,-1.21221e+09,38391.9,-0.00419073,0.0577014,-0,0.0578534,-17755,-43511.5,-0,46994.6,38391.9
step02_gravity_refstate-mantle.xmf,123,-1.47054e-06,3.59561e-06,0,7.95664e-07,-1.2029e+09,-1.20222e+09,-1.2027e+09,106340,-0.00791324,0.0672777,-0,0.0677415,-15659,-43217.4,-0,45966.8,106340
step02_gravity_refstate-mantle.xmf,124,-4.56216e-07,1.65553e-06,0,2.28921e-06,-1.09868e+09,-1.0984e+09,-1.09862e+09,305953,-0.0253762,0.11663,-0,0.119359,-9366.97,-40000,-0,41082.1,305953
step02_gravity_refstate-mantle.xmf,125,-8.15399e-07,2.14327e-06,0,2.5522e-06,-1.12946e+09,-1.12907e+09,-1.12935e+09,341101,-0.0223418,0.110106,-0,0.11235,-9986.64,-40949.6,-0,42149.8,341101
step02_gravity_refstate-mantle.xmf,126,-1.34671e-06,2.86354e-06,0,2.22146e-06,-1.15446e+09,-1.1539e+09,-1.15428e+09,296898,-0.0186263,0.0968982,-0,0.0986722,-11499.6,-41720.2,-0,43276,296898
step02_gravity_refstate-mantle.xmf,127,-1.5734e-06,3.3717e-06,0,1.63461e-06,-1.17809e+09,-1.17743e+09,-1.17788e+09,218465,-0.0140169,0.0831218,-0,0.0842954,-13222.9,-42450,-0,44461.7,218465
step02_gravity_refstate-mantle.xmf,128,4.83636e-07,2.66149e-06,0,-6.63815e-07,-1.3607e+09,-1.36041e+09,-1.36077e+09,-88718.8,0.0107312,0.0284974,0,0.030451,-25407.9,-48102.7,-0,54400.6,88718.8
step02_gravity_refstate-mantle.xmf,129,2.14876e-07,2.83884e-06,0,-6.45413e-07,-1.33478e+09,-1.33443e+09,-1.33481e+09,-86259.4,0.00943406,0.0320428,0,0.0334027,-23981.7,-47300.7,-0,53032.8,86259.4
step02_gravity_refstate-mantle.xmf,130,-8.22457e-08,3.02096e-06,0,-5.71828e-07,-1.30883e+09,-1.30841e+09,-1.30882e+09,-76424.8,0.00752557,0.0361403,0,0.0369155,-22616.4,-46497.3,-0,51705.9,76424.8
step02_gravity_refstate-mantle.xmf,131,1.02845e-06,2.41925e-06,0,-6.6079e-07,-1.44186e+09,-1.44167e+09,-1.442e+09,-88314.5,0.0145089,0.0212513,0,0.0257318,-26855,-50612.6,-0,57296,88314.5
step02_gravity_refstate-mantle.xmf,132,1.48527e-06,2.2135e-06,0,-5.17785e-07,-1.53007e+09,-1.52997e+09,-1.53027e+09,-69202,0.0166963,0.0144973,0,0.0221119,-28339.5,-53340,-0,60401,69202
step02_gravity_refstate-mantle.xmf,133,1.79209e-06,2.11099e-06,0,-2.82682e-07,-1.62978e+09,-1.62974e+09,-1.63002e+09,-37780.5,0.0170843,0.00768269,0,0.0187323,-29808.3,-56421.8,-0,63811.8,37780.5
step02_gravity_refstate-mantle.xmf,134,1.88561e-06,2.13222e-06,0,-1.30068e-07,-1.69264e+09,-1.6926e+09,-1.69289e+09,-17383.5,0.0171136,0.0035427,0,0.0174764,-30256.3,-58364.1,-0,65740.5,17383.5
step02_gravity_refstate-mantle.xmf,135,1.87656e-06,2.18571e-06,0,4.48547e-09,-1.74559e+09,-1.74555e+09,-1.74584e+09,599.483,0.0155566,-4.603e-20,0,0.0155566,-31195.7,-60000,-0,67625.2,599.483
step02_gravity_refstate-mantle.xmf,136,1.20894e-07,1.10111e-06,0,2.44991e-06,-1.0986e+09,-1.09847e+09,-1.09862e+09,327431,-0.0255906,0.125297,-0,0.127884,-8237.32,-40000,-0,40839.4,327431
step02_gravity_refstate-mantle.xmf,137,-3.47769e-07,1.6273e-06,0,2.94754e-06,-1.13302e+09,-1.13275e+09,-1.13297e+09,393938,-0.0227696,0.11928,-0,0.121434,-8809.16,-41061.2,-0,41995.6,393938
step02_gravity_refstate-mantle.xmf,138,-7.12701e-07,3.36634e-06,0,-2.33693e-07,-1.26119e+09,-1.26065e+09,-1.2611e+09,-31233.1,0.00234221,0.04617,0,0.0462293,-19875.7,-45022.7,-0,49214.7,31233.1
step02_gravity_refstate-mantle.xmf,139,-4.01031e-07,3.19956e-06,0,-4.34103e-07,-1.28303e+09,-1.28254e+09,-1.28297e+09,-58017.9,0.00504683,0.0409112,0,0.0412213,-21264,-45698.7,-0,50403.7,58017.9
step02_gravity_refstate-mantle.xmf,140,-1.30921e-06,3.6291e-06,0,4.43723e-07,-1.22285e+09,-1.22219e+09,-1.22267e+09,59303.6,-0.0045075,0.0604251,-0,0.0605929,-16725.9,-43834.9,-0,46917.5,59303.6
step02_gravity_refstate-mantle.xmf,141,-1.09219e-06,3.61641e-06,0,1.24088e-07,-1.24653e+09,-1.2459e+09,-1.24639e+09,16584.3,-0.000988689,0.0540557,-0,0.0540647,-17724.2,-44567.9,-0,47962.9,16584.3
step02_gravity_refstate-mantle.xmf,142,-1.15973e-06,2.66999e-06,0,2.62535e-06,-1.16189e+09,-1.16137e+09,-1.16173e+09,350878,-0.0192263,0.103323,-0,0.105096,-10551.5,-41950.2,-0,43256.9,350878
step02_gravity_refstate-mantle.xmf,143,-1.46337e-06,3.15903e-06,0,2.33743e-06,-1.18231e+09,-1.18169e+09,-1.18211e+09,312398,-0.016377,0.0946185,-0,0.0960253,-11456.7,-42580.4,-0,44094.7,312398
step02_gravity_refstate-mantle.xmf,144,-1.60921e-06,3.4826e-06,0,1.93123e-06,-1.19651e+09,-1.19583e+09,-1.1963e+09,258109,-0.0136467,0.0863289,-0,0.0874009,-12423.6,-43018.9,-0,44776.9,258109
step02_gravity_refstate-mantle.xmf,145,-1.56984e-06,3.8007e-06,0,1.03315e-06,-1.22394e+09,-1.22322e+09,-1.22373e+09,138080,-0.00753578,0.0702906,-0,0.0706934,-14567.9,-43867.3,-0,46223,138080
step02_gravity_refstate-mantle.xmf,146,-1.64149e-06,3.69485e-06,0,1.48149e-06,-1.21004e+09,-1.20933e+09,-1.20982e+09,198000,-0.0106707,0.0781166,-0,0.078842,-13471.6,-43437.2,-0,45478.3,198000
step02_gravity_refstate-mantle.xmf,147,8.08378e-07,2.5831e-06,0,-7.22887e-07,-1.41386e+09,-1.41362e+09,-1.41397e+09,-96613.9,0.0142035,0.0241953,0,0.0280562,-25395.1,-49746.7,-0,55853.8,96613.9
step02_gravity_refstate-mantle.xmf,148,1.32965e-06,2.33764e-06,0,-6.38087e-07,-1.49707e+09,-1.49693e+09,-1.49724e+09,-85280.3,0.0174486,0.0172131,0,0.0245101,-26794.3,-52319.8,-0,58781.8,85280.3
step02_gravity_refstate-mantle.xmf,149,1.71235e-06,2.16755e-06,0,-4.23993e-07,-1.58683e+09,-1.58677e+09,-1.58705e+09,-56666.7,0.0187621,0.0106657,0,0.0215818,-28260.9,-55094.6,-0,61920,56666.7
step02_gravity_refstate-mantle.xmf,150,3.14206e-07,9.63023e-07,0,3.1203e-06,-1.12874e+09,-1.12865e+09,-1.12878e+09,417028,-0.0230933,0.129035,-0,0.131086,-7658.35,-40931.9,-0,41642.1,417028
step02_gravity_refstate-mantle.xmf,151,-8.73692e-07,3.54385e-06,0,-1.12906e-07,-1.26484e+09,-1.26425e+09,-1.26472e+09,-15089.9,0.00171004,0.0491164,0,0.0491462,-18639.6,-45134.6,-0,48832.1,15089.9
step02_gravity_refstate-mantle.xmf,152,-1.41881e-06,3.84796e-06,0,6.11128e-07,-1.24262e+09,-1.24192e+09,-1.24243e+09,81677.3,-0.00401281,0.0627777,-0,0.0629059,-15643.6,-44445.5,-0,47118.2,81677.3
step02_gravity_refstate-mantle.xmf,153,-8.20782e-07,2.22281e-06,0,2.95547e-06,-1.15487e+09,-1.15446e+09,-1.15476e+09,394998,-0.0207492,0.111769,-0,0.113678,-9563.11,-41734.7,-0,42816.3,394998
step02_gravity_refstate-mantle.xmf,154,5.50376e-07,2.77196e-06,0,-7.4732e-07,-1.38712e+09,-1.38683e+09,-1.3872e+09,-99879.3,0.0133227,0.0275041,0,0.030561,-23978.4,-48919.5,-0,54480.1,99879.3
step02_gravity_refstate-mantle.xmf,155,2.5124e-07,2.98027e-06,0,-7.20016e-07,-1.36067e+09,-1.3603e+09,-1.3607e+09,-96230.2,0.0117955,0.0313463,0,0.0334921,-22603.3,-48100.9,-0,53147,96230.2
step02_gravity_refstate-mantle.xmf,156,-6.14544e-08,3.18307e-06,0,-6.34856e-07,-1.3358e+09,-1.33536e+09,-1.33579e+09,-84848.5,0.00975267,0.0355501,0,0.0368636,-21348.2,-47331,-0,51922.7,84848.5
step02_gravity_refstate-mantle.xmf,157,1.14102e-06,2.49267e-06,0,-7.35588e-07,-1.46804e+09,-1.46786e+09,-1.46819e+09,-98311.3,0.0176481,0.019967,0,0.0266484,-25352.4,-51422.2,-0,57332.2,98311.3
step02_gravity_refstate-mantle.xmf,158,1.60915e-06,2.26324e-06,0,-5.62656e-07,-1.55334e+09,-1.55325e+09,-1.55356e+09,-75199,0.0200714,0.0132197,0,0.0240338,-26758.9,-54059.7,-0,60319.9,75199
step02_gravity_refstate-mantle.xmf,159,1.87201e-06,2.15962e-06,0,-3.17715e-07,-1.63515e+09,-1.63512e+09,-1.6354e+09,-42462.7,0.0204069,0.0074564,0,0.0217264,-28055,-56588.5,-0,63161.2,42462.7
step02_gravity_refstate-mantle.xmf,160,1.96922e-06,2.16923e-06,0,-1.60035e-07,-1.69247e+09,-1.69245e+09,-1.69274e+09,-21388.7,0.0208543,0.00360966,0,0.0211644,-28315.8,-58359.7,-0,64866.4,21388.7
step02_gravity_refstate-mantle.xmf,161,1.95924e-06,2.21226e-06,0,4.66585e-09,-1.74557e+09,-1.74554e+09,-1.74583e+09,623.591,0.0192824,-4.77266e-20,0,0.0192824,-29252.7,-60000,-0,66751.2,623.591
step02_gravity_refstate-mantle.xmf,162,8.57589e-07,4.51135e-07,0,2.53429e-06,-1.0985e+09,-1.09855e+09,-1.09861e+09,338708,-0.0250605,0.133875,-0,0.136201,-7140.25,-40000,-0,40632.3,338708
step02_gravity_refstate-mantle.xmf,163,-1.53476e-07,1.43984e-06,0,3.46649e-06,-1.15407e+09,-1.15386e+09,-1.15405e+09,463297,-0.0215584,0.124648,-0,0.126498,-8060.54,-41712.5,-0,42484.1,463297
step02_gravity_refstate-mantle.xmf,164,-6.43061e-07,1.9991e-06,0,3.39352e-06,-1.16679e+09,-1.16643e+09,-1.1667e+09,453544,-0.020507,0.117508,-0,0.119284,-8795.45,-42103.4,-0,43012.2,453544
step02_gravity_refstate-mantle.xmf,165,-3.79036e-07,3.37086e-06,0,-4.89518e-07,-1.31211e+09,-1.31161e+09,-1.31206e+09,-65424,0.00728157,0.0401829,0,0.0408373,-20170.7,-46597.7,-0,50776,65424
step02_gravity_refstate-mantle.xmf,166,-6.31322e-07,3.5643e-06,0,-3.38576e-07,-1.30157e+09,-1.30101e+09,-1.30149e+09,-45250.7,0.00562126,0.0442162,0,0.044572,-18948.5,-46270.9,-0,50000.5,45250.7
step02_gravity_refstate-mantle.xmf,167,-9.1706e-07,3.73409e-06,0,-9.98157e-08,-1.28581e+09,-1.28519e+09,-1.28569e+09,-13340.4,0.00306605,0.0494312,0,0.0495262,-17771.9,-45782.6,-0,49110.9,13340.4
step02_gravity_refstate-mantle.xmf,168,-1.1962e-06,3.8321e-06,0,2.2955e-07,-1.26461e+09,-1.26394e+09,-1.26445e+09,30679.4,-0.000343817,0.0557922,-0,0.0557933,-16679.1,-45126.1,-0,48109.8,30679.4
step02_gravity_refstate-mantle.xmf,169,-1.10353e-06,2.63127e-06,0,3.14984e-06,-1.1832e+09,-1.1827e+09,-1.18306e+09,420976,-0.0186591,0.108728,-0,0.110318,-9672.83,-42609.1,-0,43693.2,420976
step02_gravity_refstate-mantle.xmf,170,-1.57045e-06,4.10411e-06,0,8.27574e-07,-1.26181e+09,-1.26106e+09,-1.2616e+09,110605,-0.00358517,0.0656587,-0,0.0657565,-14569,-45037.9,-0,47335.7,110605
step02_gravity_refstate-mantle.xmf,171,-1.46296e-06,3.17893e-06,0,2.77965e-06,-1.19945e+09,-1.19883e+09,-1.19925e+09,371500,-0.016257,0.0995607,-0,0.100879,-10598.5,-43109.9,-0,44393.6,371500
step02_gravity_refstate-mantle.xmf,172,-1.67696e-06,3.59645e-06,0,2.32223e-06,-1.2149e+09,-1.21419e+09,-1.21467e+09,310366,-0.0134705,0.0905794,-0,0.0915755,-11543.1,-43586.7,-0,45089.3,310366
step02_gravity_refstate-mantle.xmf,173,-1.75482e-06,3.88194e-06,0,1.81934e-06,-1.22992e+09,-1.22917e+09,-1.22969e+09,243154,-0.0103831,0.0818621,-0,0.082518,-12522.3,-44051,-0,45796.3,243154
step02_gravity_refstate-mantle.xmf,174,-1.71133e-06,4.04366e-06,0,1.30851e-06,-1.24519e+09,-1.24442e+09,-1.24496e+09,174882,-0.00705985,0.0734816,-0,0.07382,-13543.7,-44523.4,-0,46537.8,174882
step02_gravity_refstate-mantle.xmf,175,9.02404e-07,2.68432e-06,0,-8.04474e-07,-1.43975e+09,-1.43952e+09,-1.43987e+09,-107518,0.0172243,0.0230935,0,0.0288095,-23940.7,-50547.4,-0,55930.3,107518
step02_gravity_refstate-mantle.xmf,176,1.4615e-06,2.40193e-06,0,-6.94074e-07,-1.52244e+09,-1.52232e+09,-1.52264e+09,-92763,0.0208739,0.0158782,0,0.0262266,-25284.6,-53104.7,-0,58816.8,92763
step02_gravity_refstate-mantle.xmf,177,1.834e-06,2.21807e-06,0,-4.47162e-07,-1.60719e+09,-1.60714e+09,-1.60743e+09,-59763.1,0.022215,0.00950588,0,0.0241634,-26672.5,-55724.5,-0,61779,59763.1
step02_gravity_refstate-mantle.xmf,178,1.01128e-06,2.7206e-07,0,3.26514e-06,-1.12862e+09,-1.12872e+09,-1.12876e+09,436386,-0.022409,0.137745,-0,0.139556,-6622.3,-40931.1,-0,41463.3,436386
step02_gravity_refstate-mantle.xmf,179,3.45001e-07,9.01042e-07,0,3.81837e-06,-1.16038e+09,-1.16031e+09,-1.16043e+09,510326,-0.0211336,0.132901,-0,0.134571,-7114.32,-41909.4,-0,42509,510326
step02_gravity_refstate-mantle.xmf,180,-4.0598e-07,1.69154e-06,0,3.92159e-06,-1.18143e+09,-1.18115e+09,-1.18137e+09,524120,-0.0201317,0.124557,-0,0.126173,-7925.4,-42556.5,-0,43288.2,524120
step02_gravity_refstate-mantle.xmf,181,-1.34794e-06,4.08051e-06,0,3.85374e-07,-1.28075e+09,-1.28003e+09,-1.28057e+09,51505.2,4.06055e-05,0.0583045,0,0.0583045,-15598.7,-45624.4,-0,48217.3,51505.2
step02_gravity_refstate-mantle.xmf,182,6.14776e-07,2.90477e-06,0,-8.27709e-07,-1.41218e+09,-1.41187e+09,-1.41226e+09,-110623,0.0161138,0.0266717,0,0.0311614,-22590.6,-49694.2,-0,54588,110623
step02_gravity_refstate-mantle.xmf,183,2.95396e-07,3.13931e-06,0,-7.94434e-07,-1.38654e+09,-1.38616e+09,-1.38658e+09,-106176,0.014439,0.0306374,0,0.0338694,-21315.8,-48900.8,-0,53344.6,106176
step02_gravity_refstate-mantle.xmf,184,-3.56238e-08,3.37287e-06,0,-7.03174e-07,-1.3636e+09,-1.36314e+09,-1.36359e+09,-93979.2,0.0123691,0.0349151,0,0.0370413,-20119.2,-48190.4,-0,52221.7,93979.2
step02_gravity_refstate-mantle.xmf,185,1.26202e-06,2.58506e-06,0,-8.07095e-07,-1.49342e+09,-1.49324e+09,-1.49359e+09,-107868,0.0210812,0.0187773,0,0.0282312,-23852.6,-52207.3,-0,57398.1,107868
step02_gravity_refstate-mantle.xmf,186,1.74791e-06,2.32466e-06,0,-5.95572e-07,-1.57662e+09,-1.57654e+09,-1.57685e+09,-79598.2,0.02367,0.0119404,0,0.0265112,-25215.3,-54779.9,-0,60304.6,79598.2
step02_gravity_refstate-mantle.xmf,187,1.99986e-06,2.20411e-06,0,-2.9043e-07,-1.661e+09,-1.66097e+09,-1.66126e+09,-38816,0.0237268,0.00583389,0,0.0244335,-26626.7,-57387.7,-0,63264,38816
step02_gravity_refstate-mantle.xmf,188,2.05237e-06,2.25417e-06,0,2.2605e-09,-1.74555e+09,-1.74552e+09,-1.74582e+09,302.116,0.0229941,-3.53272e-20,0,0.0229941,-27403,-60000,-0,65961.6,302.116
step02_gravity_refstate-mantle.xmf,189,1.67976e-06,-2.55339e-07,0,2.52359e-06,-1.09838e+09,-1.09864e+09,-1.0986e+09,337278,-0.0237124,0.142126,-0,0.14409,-6071.51,-40000,-0,40458.2,337278
step02_gravity_refstate-mantle.xmf,190,-9.12768e-08,1.25803e-06,0,4.41916e-06,-1.1949e+09,-1.19472e+09,-1.19489e+09,590620,-0.0197839,0.132248,-0,0.133719,-7064.31,-42973.7,-0,43550.5,590620
step02_gravity_refstate-mantle.xmf,191,-1.02094e-06,2.45599e-06,0,3.72042e-06,-1.19853e+09,-1.19806e+09,-1.19839e+09,497234,-0.0186136,0.115387,-0,0.116879,-8788.84,-43082.5,-0,43969.8,497234
step02_gravity_refstate-mantle.xmf,192,-9.10766e-07,2.20632e-06,0,4.37552e-06,-1.21655e+09,-1.21614e+09,-1.21643e+09,584789,-0.0185483,0.122995,-0,0.124386,-7868.98,-43639.4,-0,44343.2,584789
step02_gravity_refstate-mantle.xmf,193,-3.63818e-07,3.60449e-06,0,-5.57004e-07,-1.34448e+09,-1.34395e+09,-1.34444e+09,-74443.6,0.0101368,0.0394748,0,0.0407555,-18941.8,-47598.4,-0,51228.9,74443.6
step02_gravity_refstate-mantle.xmf,194,-6.94024e-07,3.83391e-06,0,-3.48611e-07,-1.3281e+09,-1.3275e+09,-1.32801e+09,-46591.8,0.00769639,0.04452,0,0.0451804,-17759.4,-47090.8,-0,50328.3,46591.8
step02_gravity_refstate-mantle.xmf,195,-1.07117e-06,4.05593e-06,0,-1.17006e-08,-1.30926e+09,-1.30858e+09,-1.30912e+09,-1563.79,0.00439684,0.0511027,0,0.0512915,-16481.4,-46506.9,-0,49341,1563.79
step02_gravity_refstate-mantle.xmf,196,-1.54892e-06,4.37393e-06,0,6.00301e-07,-1.29619e+09,-1.29539e+09,-1.29598e+09,80230.2,0.000252368,0.0614606,0,0.0614611,-14509.2,-46100.6,-0,48329.9,80230.2
step02_gravity_refstate-mantle.xmf,197,-1.47364e-06,3.16029e-06,0,3.30069e-06,-1.21602e+09,-1.2154e+09,-1.21582e+09,441138,-0.0163184,0.105393,-0,0.106649,-9719.33,-43621.6,-0,44691.2,441138
step02_gravity_refstate-mantle.xmf,198,-1.76117e-06,4.39757e-06,0,1.06944e-06,-1.2811e+09,-1.28028e+09,-1.28087e+09,142930,-0.00310857,0.068704,-0,0.0687743,-13559.3,-45633.3,-0,47605.2,142930
step02_gravity_refstate-mantle.xmf,199,-1.77533e-06,3.70493e-06,0,2.77838e-06,-1.23262e+09,-1.23188e+09,-1.23238e+09,371330,-0.0134733,0.0955126,-0,0.0964582,-10662.7,-44133.7,-0,45403.5,371330
step02_gravity_refstate-mantle.xmf,200,-1.9095e-06,4.08365e-06,0,2.20646e-06,-1.2488e+09,-1.248e+09,-1.24854e+09,294893,-0.0102424,0.0860774,-0,0.0866847,-11607.4,-44633.5,-0,46118.2,294893
step02_gravity_refstate-mantle.xmf,201,-1.89317e-06,4.2994e-06,0,1.62788e-06,-1.26408e+09,-1.26325e+09,-1.26383e+09,217566,-0.00682106,0.0771898,-0,0.0774906,-12575.2,-45106.4,-0,46826.5,217566
step02_gravity_refstate-mantle.xmf,202,9.89508e-07,2.81188e-06,0,-8.85406e-07,-1.46311e+09,-1.46287e+09,-1.46324e+09,-118334,0.0203779,0.0222513,0,0.0301725,-22501.5,-51269.8,-0,55990.3,118334
step02_gravity_refstate-mantle.xmf,203,1.60845e-06,2.48227e-06,0,-7.4225e-07,-1.54743e+09,-1.54731e+09,-1.54765e+09,-99201.7,0.0245965,0.0145805,0,0.0285933,-23779.6,-53877.8,-0,58892.2,99201.7
step02_gravity_refstate-mantle.xmf,204,1.97813e-06,2.27631e-06,0,-4.46721e-07,-1.63035e+09,-1.63031e+09,-1.63062e+09,-59704.3,0.0258855,0.00813316,0,0.0271331,-25140.6,-56441.2,-0,61787.2,59704.3
step02_gravity_refstate-mantle.xmf,205,2.08415e-06,2.22891e-06,0,-1.36055e-07,-1.70805e+09,-1.70803e+09,-1.70832e+09,-18183.8,0.0245303,0.00261094,0,0.0246688,-26579,-58841.7,-0,64566.1,18183.8
step02_gravity_refstate-mantle.xmf,206,1.80551e-06,-5.21337e-07,0,3.34095e-06,-1.132e+09,-1.13231e+09,-1.13224e+09,446518,-0.0206997,0.146763,-0,0.148215,-5533.43,-41038.7,-0,41410.1,446518
step02_gravity_refstate-mantle.xmf,207,1.05243e-06,1.21977e-07,0,3.82945e-06,-1.15373e+09,-1.15385e+09,-1.15387e+09,511806,-0.020786,0.141103,-0,0.142626,-6215.97,-41706.5,-0,42167.2,511806
step02_gravity_refstate-mantle.xmf,208,6.59552e-07,4.26331e-07,0,4.39659e-06,-1.18121e+09,-1.18124e+09,-1.1813e+09,587604,-0.0199635,0.14043,-0,0.141842,-6264.84,-42553.7,-0,43012.4,587604
step02_gravity_refstate-mantle.xmf,209,-4.60784e-07,1.60368e-06,0,4.85055e-06,-1.22024e+09,-1.21996e+09,-1.22018e+09,648276,-0.0190266,0.132239,-0,0.133601,-6957.55,-43754.7,-0,44304.5,648276
step02_gravity_refstate-mantle.xmf,210,-1.31533e-06,4.29426e-06,0,2.37717e-07,-1.31047e+09,-1.30973e+09,-1.3103e+09,31770.9,0.00319269,0.0555546,0,0.0556462,-15350,-46543.3,-0,49009.2,31770.9
step02_gravity_refstate-mantle.xmf,211,6.70373e-07,3.06306e-06,0,-9.03996e-07,-1.43499e+09,-1.43467e+09,-1.43508e+09,-120819,0.0189868,0.0260686,0,0.0322502,-21254.7,-50399.6,-0,54698.1,120819
step02_gravity_refstate-mantle.xmf,212,3.3344e-07,3.3288e-06,0,-8.70147e-07,-1.41144e+09,-1.41104e+09,-1.41149e+09,-116295,0.0172917,0.0300766,0,0.034693,-20049,-49670.8,-0,53564.4,116295
step02_gravity_refstate-mantle.xmf,213,-2.35913e-08,3.59923e-06,0,-7.72569e-07,-1.39003e+09,-1.38955e+09,-1.39003e+09,-103254,0.015164,0.0344818,0,0.0376688,-18904.7,-49007.7,-0,52527.5,103254
step02_gravity_refstate-mantle.xmf,214,1.40473e-06,2.70974e-06,0,-8.80973e-07,-1.51848e+09,-1.51831e+09,-1.51867e+09,-117742,0.025038,0.0177269,0,0.0306781,-22219.7,-52982.8,-0,57453.4,117742
step02_gravity_refstate-mantle.xmf,215,1.90778e-06,2.39575e-06,0,-6.08709e-07,-1.60105e+09,-1.60099e+09,-1.60131e+09,-81353.9,0.027484,0.0105503,0,0.0294394,-23736.8,-55535.9,-0,60395.9,81353.9
step02_gravity_refstate-mantle.xmf,216,2.1555e-06,2.27985e-06,0,-2.26029e-07,-1.69287e+09,-1.69286e+09,-1.69316e+09,-30208.8,0.0277868,0.0037534,0,0.0280392,-24954.9,-58373.6,-0,63484.1,30208.8
step02_gravity_refstate-mantle.xmf,217,2.15987e-06,2.30724e-06,0,6.24054e-09,-1.74552e+09,-1.7455e+09,-1.74581e+09,834.048,0.0267001,-5.05332e-20,0,0.0267001,-25642.2,-60000,-0,65249.7,834.048
step02_gravity_refstate-mantle.xmf,218,-1.04184e-06,2.28295e-06,0,4.91744e-06,-1.24152e+09,-1.24107e+09,-1.24138e+09,657215,-0.0180761,0.127163,-0,0.128441,-7310.04,-44409.9,-0,45007.5,657215
step02_gravity_refstate-mantle.xmf,219,2.54358e-06,-9.8514e-07,0,2.39613e-06,-1.09825e+09,-1.09872e+09,-1.09859e+09,320242,-0.021513,0.149786,-0,0.151323,-5026.7,-40000,-0,40314.6,320242
step02_gravity_refstate-mantle.xmf,220,2.21966e-07,7.34579e-07,0,4.94793e-06,-1.21001e+09,-1.20994e+09,-1.21003e+09,661290,-0.0193468,0.140017,-0,0.141347,-6255.77,-43441,-0,43889.1,661290
step02_gravity_refstate-mantle.xmf,221,-1.49059e-06,3.02933e-06,0,3.93128e-06,-1.23068e+09,-1.23008e+09,-1.23049e+09,525416,-0.016701,0.11254,-0,0.113772,-8802.03,-44074.2,-0,44944.5,525416
step02_gravity_refstate-mantle.xmf,222,-3.94971e-07,3.87807e-06,0,-6.07353e-07,-1.37149e+09,-1.37091e+09,-1.37143e+09,-81172.7,0.0127686,0.039375,0,0.0413936,-17748.5,-48433,-0,51582.6,81172.7
step02_gravity_refstate-mantle.xmf,223,-7.77926e-07,4.14719e-06,0,-3.61313e-07,-1.35424e+09,-1.35358e+09,-1.35414e+09,-48289.5,0.00998483,0.0449115,0,0.046008,-16617.5,-47898.4,-0,50699.1,48289.5
step02_gravity_refstate-mantle.xmf,224,-1.15078e-06,4.4025e-06,0,-3.99655e-08,-1.3404e+09,-1.33965e+09,-1.34024e+09,-5341.39,0.00712193,0.050957,0,0.0514523,-15484.3,-47468.9,-0,49930.6,5341.39
step02_gravity_refstate-mantle.xmf,225,-1.47695e-06,4.5987e-06,0,3.32308e-07,-1.32841e+09,-1.3276e+09,-1.32821e+09,44413,0.00423172,0.0571513,0,0.0573078,-14476.8,-47097,-0,49271.7,44413
step02_gravity_refstate-mantle.xmf,226,-1.77093e-06,4.71066e-06,0,8.01273e-07,-1.31414e+09,-1.31328e+09,-1.31391e+09,107090,0.000823945,0.0642791,0,0.0642843,-13520.3,-46654.6,-0,48574.2,107090
step02_gravity_refstate-mantle.xmf,227,-1.89592e-06,3.79127e-06,0,3.30332e-06,-1.24978e+09,-1.24902e+09,-1.24953e+09,441489,-0.0136795,0.101146,-0,0.102067,-9788.67,-44663.4,-0,45723.5,441489
step02_gravity_refstate-mantle.xmf,228,-1.99517e-06,4.71048e-06,0,1.35643e-06,-1.29847e+09,-1.29758e+09,-1.29821e+09,181286,-0.00289068,0.072304,-0,0.0723618,-12589.9,-46169.1,-0,47854.9,181286
step02_gravity_refstate-mantle.xmf,229,-2.09918e-06,4.28446e-06,0,2.64514e-06,-1.26653e+09,-1.26568e+09,-1.26625e+09,353523,-0.0103123,0.0908234,-0,0.091407,-10723.6,-45180.6,-0,46435.8,353523
step02_gravity_refstate-mantle.xmf,230,-2.11621e-06,4.57396e-06,0,1.9863e-06,-1.2822e+09,-1.2813e+09,-1.28192e+09,265469,-0.00671348,0.0812646,-0,0.0815414,-11653.6,-45665.2,-0,47128.7,265469
step02_gravity_refstate-mantle.xmf,231,-1.69216e-06,3.17904e-06,0,4.45311e-06,-1.25425e+09,-1.2536e+09,-1.25402e+09,595158,-0.016295,0.116644,-0,0.117777,-8178.71,-44801.1,-0,45541.5,595158
step02_gravity_refstate-mantle.xmf,232,1.03592e-06,2.97258e-06,0,-9.55526e-07,-1.47985e+09,-1.47959e+09,-1.47999e+09,-127706,0.0231759,0.0219933,0,0.0319504,-21150.6,-51787.6,-0,55940.2,127706
step02_gravity_refstate-mantle.xmf,233,1.77855e-06,2.57022e-06,0,-7.71626e-07,-1.57278e+09,-1.57267e+09,-1.57302e+09,-103128,0.0285239,0.0132097,0,0.0314342,-22361,-54662.1,-0,59059,103128
step02_gravity_refstate-mantle.xmf,234,2.13959e-06,2.35453e-06,0,-4.21987e-07,-1.65412e+09,-1.65409e+09,-1.65441e+09,-56398.6,0.0298295,0.00668344,0,0.0305691,-23593.4,-57176.6,-0,61853.2,56398.6
step02_gravity_refstate-mantle.xmf,235,-3.93009e-07,1.29409e-06,0,5.4258e-06,-1.23884e+09,-1.23862e+09,-1.23879e+09,725158,-0.0188622,0.13822,-0,0.139501,-6338.52,-44329,-0,44779.9,725158
step02_gravity_refstate-mantle.xmf,236,1.45998e-06,-4.22004e-07,0,4.14153e-06,-1.16652e+09,-1.16678e+09,-1.16672e+09,553516,-0.0194881,0.147676,-0,0.148957,-5486.96,-42103.2,-0,42459.2,553516
step02_gravity_refstate-mantle.xmf,237,2.69829e-06,-1.34735e-06,0,3.02348e-06,-1.12655e+09,-1.12709e+09,-1.12691e+09,404088,-0.0185658,0.154681,-0,0.155791,-4486.18,-40874.3,-0,41119.7,404088
step02_gravity_refstate-mantle.xmf,238,1.07106e-06,-2.09112e-07,0,4.81955e-06,-1.19634e+09,-1.19651e+09,-1.19649e+09,644133,-0.0190208,0.148093,-0,0.14931,-5474.87,-43022.2,-0,43369.2,644133
step02_gravity_refstate-mantle.xmf,239,3.39427e-06,-1.69614e-06,0,2.13913e-06,-1.09813e+09,-1.09881e+09,-1.09858e+09,285895,-0.0184752,0.156581,-0,0.157667,-4001.3,-40000,-0,40199.6,285895
step02_gravity_refstate-mantle.xmf,240,-1.70687e-06,3.05604e-06,0,5.0464e-06,-1.2704e+09,-1.26977e+09,-1.27018e+09,674451,-0.0166749,0.123117,-0,0.124241,-7457.79,-45299.7,-0,45909.5,674451
step02_gravity_refstate-mantle.xmf,241,7.21288e-07,3.24449e-06,0,-9.80974e-07,-1.45633e+09,-1.45599e+09,-1.45642e+09,-131107,0.0219539,0.0256028,0,0.0337265,-19987.4,-51059.6,-0,54832.2,131107
step02_gravity_refstate-mantle.xmf,242,3.6536e-07,3.54611e-06,0,-9.48036e-07,-1.43484e+09,-1.43442e+09,-1.43489e+09,-126705,0.0202674,0.0296648,0,0.0359273,-18834,-50394.4,-0,53798.8,126705
step02_gravity_refstate-mantle.xmf,243,-3.35725e-08,3.86536e-06,0,-8.4106e-07,-1.41419e+09,-1.41367e+09,-1.41418e+09,-112408,0.0179967,0.0343507,0,0.0387796,-17711.6,-49754.5,-0,52813,112408
step02_gravity_refstate-mantle.xmf,244,1.33257e-06,2.91729e-06,0,-9.67503e-07,-1.51689e+09,-1.51668e+09,-1.51707e+09,-129307,0.0267732,0.0188852,0,0.0327637,-20861.5,-52933.6,-0,56896.1,129307
step02_gravity_refstate-mantle.xmf,245,1.66642e-06,2.77101e-06,0,-8.96198e-07,-1.55556e+09,-1.55541e+09,-1.55578e+09,-119777,0.0296402,0.0153496,0,0.0333789,-21034.3,-54130,-0,58073.2,119777
step02_gravity_refstate-mantle.xmf,246,2.08862e-06,2.48051e-06,0,-5.95566e-07,-1.6255e+09,-1.62545e+09,-1.62578e+09,-79597.4,0.0314546,0.00910847,0,0.0327468,-22313,-56292.5,-0,60553.5,79597.4
step02_gravity_refstate-mantle.xmf,247,2.29722e-06,2.38417e-06,0,-2.1993e-07,-1.70235e+09,-1.70234e+09,-1.70266e+09,-29393.7,0.032017,0.00320764,0,0.0321773,-23123.5,-58667.6,-0,63060.2,29393.7
step02_gravity_refstate-mantle.xmf,248,2.27269e-06,2.38073e-06,0,4.6215e-09,-1.74549e+09,-1.74548e+09,-1.74579e+09,617.663,0.0304173,-4.54309e-20,0,0.0304173,-23965.9,-60000,-0,64609.3,617.663
step02_gravity_refstate-mantle.xmf,249,-1.13976e-06,2.17517e-06,0,5.47486e-06,-1.25889e+09,-1.25845e+09,-1.25874e+09,731715,-0.0180802,0.131997,-0,0.13323,-6782.01,-44945.7,-0,45454.5,731715
step02_gravity_refstate-mantle.xmf,250,2.18822e-06,-1.07607e-06,0,3.70788e-06,-1.15121e+09,-1.15164e+09,-1.1515e+09,495558,-0.0185966,0.153138,-0,0.154263,-4808.38,-41633.2,-0,41910,495558
step02_gravity_refstate-mantle.xmf,251,6.02069e-07,6.07978e-08,0,5.42895e-06,-1.22443e+09,-1.2245e+09,-1.22451e+09,725579,-0.0188988,0.148005,-0,0.149207,-5490.69,-43887.3,-0,44229.5,725579
step02_gravity_refstate-mantle.xmf,252,3.45229e-06,-2.0534e-06,0,2.64898e-06,-1.12529e+09,-1.12602e+09,-1.12575e+09,354037,-0.0156929,0.161027,-0,0.16179,-3538.8,-40838.5,-0,40991.6,354037
step02_gravity_refstate-mantle.xmf,253,4.16365e-06,-2.3324e-06,0,1.75484e-06,-1.09801e+09,-1.09888e+09,-1.09857e+09,234535,-0.0146594,0.162236,-0,0.162897,-2990.68,-40000,-0,40111.6,234535
step02_gravity_refstate-mantle.xmf,254,-2.10137e-06,3.87618e-06,0,3.87806e-06,-1.26748e+09,-1.26668e+09,-1.26719e+09,518303,-0.0139241,0.106851,-0,0.107755,-8979.99,-45208.7,-0,46091.9,518303
step02_gravity_refstate-mantle.xmf,255,-4.61371e-07,4.18824e-06,0,-6.48605e-07,-1.39478e+09,-1.39416e+09,-1.39472e+09,-86686.1,0.015231,0.0397031,0,0.0425243,-16611,-49153,-0,51883.9,86686.1
step02_gravity_refstate-mantle.xmf,256,-8.99087e-07,4.50127e-06,0,-3.65459e-07,-1.37744e+09,-1.37672e+09,-1.37732e+09,-48843.5,0.0121337,0.0457107,0,0.0472937,-15520.6,-48615.2,-0,51032.6,48843.5
step02_gravity_refstate-mantle.xmf,257,-1.31994e-06,4.77589e-06,0,5.11355e-09,-1.36213e+09,-1.36131e+09,-1.36195e+09,683.426,0.00882292,0.0522571,0,0.0529967,-14477.9,-48140,-0,50270,683.426
step02_gravity_refstate-mantle.xmf,258,-1.70016e-06,4.97439e-06,0,4.60797e-07,-1.34712e+09,-1.34623e+09,-1.34689e+09,61585.5,0.00524314,0.0593467,0,0.0595778,-13519.3,-47674.4,-0,49554.2,61585.5
step02_gravity_refstate-mantle.xmf,259,-2.03305e-06,5.08117e-06,0,1.02382e-06,-1.33166e+09,-1.33071e+09,-1.33139e+09,136834,0.00132575,0.067375,0,0.067388,-12575.6,-47195,-0,48841.7,136834
step02_gravity_refstate-mantle.xmf,260,-2.31712e-06,4.47113e-06,0,3.1419e-06,-1.28337e+09,-1.28246e+09,-1.28306e+09,419914,-0.010613,0.096164,-0,0.0967478,-9864.52,-45699.7,-0,46752.2,419914
step02_gravity_refstate-mantle.xmf,261,-2.27031e-06,5.05122e-06,0,1.67253e-06,-1.31567e+09,-1.31469e+09,-1.31537e+09,223534,-0.00274444,0.0761794,-0,0.0762289,-11668.1,-46699.4,-0,48135,223534
step02_gravity_refstate-mantle.xmf,262,-2.37904e-06,4.85912e-06,0,2.39051e-06,-1.29956e+09,-1.2986e+09,-1.29925e+09,319491,-0.00678867,0.0858013,-0,0.0860694,-10766.4,-46200.6,-0,47438.5,319491
step02_gravity_refstate-mantle.xmf,263,-2.27188e-06,3.91654e-06,0,4.48931e-06,-1.28461e+09,-1.28378e+09,-1.2843e+09,599996,-0.0143451,0.112999,-0,0.113905,-8208.6,-45736.9,-0,46467.7,599996
step02_gravity_refstate-mantle.xmf,264,1.10167e-06,3.14556e-06,0,-1.03111e-06,-1.49826e+09,-1.49799e+09,-1.49841e+09,-137808,0.0262598,0.021583,0,0.0339912,-19885.3,-52357.3,-0,56006.4,137808
step02_gravity_refstate-mantle.xmf,265,1.99032e-06,2.66487e-06,0,-7.73733e-07,-1.60116e+09,-1.60107e+09,-1.60142e+09,-103409,0.0328354,0.0115266,0,0.0347998,-21002.7,-55540.4,-0,59378.8,103409
step02_gravity_refstate-mantle.xmf,266,2.28053e-06,2.44037e-06,0,-3.98075e-07,-1.67055e+09,-1.67053e+09,-1.67085e+09,-53202.7,0.0331925,0.00568163,0,0.0336753,-22297.6,-57685.3,-0,61844.8,53202.7
step02_gravity_refstate-mantle.xmf,267,-8.44755e-07,1.65183e-06,0,5.99195e-06,-1.26657e+09,-1.26624e+09,-1.26646e+09,800824,-0.0185503,0.139495,-0,0.140723,-6127.86,-45183.5,-0,45597.1,800824
step02_gravity_refstate-mantle.xmf,268,-1.75376e-06,2.82729e-06,0,5.73322e-06,-1.28484e+09,-1.28422e+09,-1.2846e+09,766245,-0.0172259,0.130042,-0,0.131178,-6778.96,-45744.6,-0,46244.2,766245
step02_gravity_refstate-mantle.xmf,269,2.09418e-06,-1.24424e-06,0,4.33532e-06,-1.17915e+09,-1.1796e+09,-1.17943e+09,579415,-0.0176962,0.156168,-0,0.157168,-4570.25,-42495.3,-0,42740.4,579415
step02_gravity_refstate-mantle.xmf,270,2.81967e-06,-1.7581e-06,0,3.51182e-06,-1.15286e+09,-1.15347e+09,-1.15324e+09,469355,-0.0165906,0.15938,-0,0.160241,-4020.48,-41686.8,-0,41880.3,469355
step02_gravity_refstate-mantle.xmf,271,1.58104e-06,-1.02095e-06,0,5.16034e-06,-1.21127e+09,-1.21162e+09,-1.21148e+09,689679,-0.0179953,0.156076,-0,0.15711,-4703.69,-43484.7,-0,43738.3,689679
step02_gravity_refstate-mantle.xmf,272,4.11608e-06,-2.67955e-06,0,2.12194e-06,-1.12478e+09,-1.12569e+09,-1.12533e+09,283597,-0.0121572,0.166232,-0,0.166676,-2600.49,-40825.6,-0,40908.4,283597
step02_gravity_refstate-mantle.xmf,273,9.61937e-08,4.06153e-07,0,6.03785e-06,-1.25155e+09,-1.25151e+09,-1.25157e+09,806959,-0.0188979,0.148134,-0,0.149334,-5462.45,-44722.7,-0,45055,806959
step02_gravity_refstate-mantle.xmf,274,-2.36869e-06,3.84927e-06,0,5.14989e-06,-1.30015e+09,-1.29932e+09,-1.29984e+09,688282,-0.015067,0.120086,-0,0.121027,-7447.05,-46216.3,-0,46812.4,688282
step02_gravity_refstate-mantle.xmf,275,7.81005e-07,3.44729e-06,0,-1.06162e-06,-1.47744e+09,-1.47708e+09,-1.47754e+09,-141885,0.0251299,0.0251485,0,0.0355522,-18777.6,-51712.6,-0,55016.2,141885
step02_gravity_refstate-mantle.xmf,276,3.86184e-07,3.796e-06,0,-1.02783e-06,-1.45637e+09,-1.45592e+09,-1.45642e+09,-137370,0.0232947,0.0294649,0,0.0375609,-17658.3,-51060.1,-0,54027.3,137370
step02_gravity_refstate-mantle.xmf,277,-6.99299e-08,4.17096e-06,0,-9.06738e-07,-1.43561e+09,-1.43504e+09,-1.4356e+09,-121186,0.0207471,0.0345691,0,0.040317,-16558.4,-50416.7,-0,53066.2,121186
step02_gravity_refstate-mantle.xmf,278,1.48371e-06,3.0237e-06,0,-1.0154e-06,-1.53946e+09,-1.53926e+09,-1.53966e+09,-135708,0.0302333,0.0177172,0,0.0350421,-19819,-53632.2,-0,57176.9,135708
step02_gravity_refstate-mantle.xmf,279,1.88897e-06,2.8802e-06,0,-9.11112e-07,-1.58397e+09,-1.58384e+09,-1.58423e+09,-121770,0.0340453,0.0136832,0,0.0366921,-19770.6,-55009.5,-0,58454.4,121770
step02_gravity_refstate-mantle.xmf,280,2.31884e-06,2.57735e-06,0,-5.21669e-07,-1.65871e+09,-1.65867e+09,-1.65902e+09,-69721,0.0359729,0.00689524,0,0.0366278,-20912.4,-57320,-0,61015.7,69721
step02_gravity_refstate-mantle.xmf,281,2.42702e-06,2.49917e-06,0,-2.38017e-07,-1.70564e+09,-1.70563e+09,-1.70596e+09,-31811,0.0357654,0.00310065,0,0.0358995,-21559.2,-58770.2,-0,62599.8,31811
step02_gravity_refstate-mantle.xmf,282,2.39666e-06,2.47686e-06,0,5.97487e-09,-1.74546e+09,-1.74545e+09,-1.74578e+09,798.541,0.0341429,-4.50678e-20,0,0.0341429,-22370,-60000,-0,64034.5,798.541
step02_gravity_refstate-mantle.xmf,283,-4.21173e-07,8.29538e-07,0,6.63217e-06,-1.27679e+09,-1.27662e+09,-1.27673e+09,886390,-0.0189457,0.148657,-0,0.14986,-5384.67,-45499.8,-0,45817.3,886390
step02_gravity_refstate-mantle.xmf,284,-1.36682e-06,2.07946e-06,0,6.40593e-06,-1.2893e+09,-1.28884e+09,-1.28911e+09,856153,-0.01823,0.139283,-0,0.140471,-6044.79,-45883.1,-0,46279.6,856153
step02_gravity_refstate-mantle.xmf,285,1.1157e-06,-8.36942e-07,0,5.86164e-06,-1.23868e+09,-1.23895e+09,-1.23883e+09,783408,-0.0183461,0.156529,-0,0.157601,-4736.19,-44328.8,-0,44581.1,783408
step02_gravity_refstate-mantle.xmf,286,3.53633e-06,-2.49036e-06,0,2.98842e-06,-1.15016e+09,-1.15096e+09,-1.15063e+09,399402,-0.013828,0.165259,-0,0.165836,-3141.7,-41606.2,-0,41724.6,399402
step02_gravity_refstate-mantle.xmf,287,4.77915e-06,-2.83584e-06,0,1.2559e-06,-1.09792e+09,-1.09894e+09,-1.09856e+09,167851,-0.0101843,0.1665,-0,0.166811,-1990.05,-40000,-0,40049.5,167851
step02_gravity_refstate-mantle.xmf,288,-2.60541e-06,4.6321e-06,0,3.72165e-06,-1.29976e+09,-1.29879e+09,-1.29941e+09,497398,-0.0111042,0.102037,-0,0.102639,-9036.38,-46204.5,-0,47079.8,497398
step02_gravity_refstate-mantle.xmf,289,-5.58629e-07,4.54044e-06,0,-6.84559e-07,-1.41573e+09,-1.41505e+09,-1.41565e+09,-91491.3,0.0175963,0.0403939,0,0.0440602,-15509.2,-49800.2,-0,52159.4,91491.3
step02_gravity_refstate-mantle.xmf,290,-1.05814e-06,4.88825e-06,0,-3.55108e-07,-1.39744e+09,-1.39664e+09,-1.3973e+09,-47460.2,0.0140302,0.0469477,0,0.0489993,-14484.5,-49232.8,-0,51319.3,47460.2
step02_gravity_refstate-mantle.xmf,291,-1.53326e-06,5.18299e-06,0,7.36467e-08,-1.38107e+09,-1.38017e+09,-1.38086e+09,9842.88,0.0102424,0.0540716,0,0.0550331,-13508.2,-48724.7,-0,50562.5,9842.88
step02_gravity_refstate-mantle.xmf,292,-1.96998e-06,5.39274e-06,0,6.1576e-07,-1.36488e+09,-1.3639e+09,-1.36462e+09,82296.4,0.00610871,0.0619967,0,0.0622969,-12575.3,-48222.4,-0,49835.1,82296.4
step02_gravity_refstate-mantle.xmf,293,-2.3361e-06,5.48509e-06,0,1.27072e-06,-1.34883e+09,-1.34779e+09,-1.34852e+09,169831,0.00174484,0.070785,0,0.0708065,-11667.4,-47724.3,-0,49129.8,169831
step02_gravity_refstate-mantle.xmf,294,-2.67683e-06,5.14098e-06,0,2.85336e-06,-1.31611e+09,-1.31506e+09,-1.31575e+09,381351,-0.00709708,0.0909294,-0,0.0912059,-9904.8,-46710.3,-0,47748.9,381351
step02_gravity_refstate-mantle.xmf,295,-2.58624e-06,5.412e-06,0,2.02686e-06,-1.33238e+09,-1.33131e+09,-1.33204e+09,270890,-0.00274282,0.080459,-0,0.0805058,-10782.6,-47214.4,-0,48430,270890
step02_gravity_refstate-mantle.xmf,296,-2.85176e-06,4.73334e-06,0,4.3562e-06,-1.31499e+09,-1.31398e+09,-1.31461e+09,582207,-0.011848,0.108588,-0,0.109232,-8240.25,-46673.7,-0,47395.5,582207
step02_gravity_refstate-mantle.xmf,297,1.21889e-06,3.31817e-06,0,-1.10438e-06,-1.51988e+09,-1.5196e+09,-1.52004e+09,-147601,0.0298379,0.0208009,0,0.0363727,-18706.8,-53026.3,-0,56229.2,147601
step02_gravity_refstate-mantle.xmf,298,2.22726e-06,2.77342e-06,0,-7.32422e-07,-1.62974e+09,-1.62966e+09,-1.63003e+09,-97888.2,0.0372976,0.00970795,0,0.0385403,-19709.1,-56425.1,-0,59768.2,97888.2
step02_gravity_refstate-mantle.xmf,299,-1.03684e-06,1.28915e-06,0,7.14386e-06,-1.30081e+09,-1.3005e+09,-1.30067e+09,954777,-0.018928,0.148587,-0,0.149788,-5334.72,-46239,-0,46545.7,954777
step02_gravity_refstate-mantle.xmf,300,-2.37882e-06,3.52702e-06,0,6.00688e-06,-1.31318e+09,-1.31239e+09,-1.31286e+09,802819,-0.0162539,0.129192,-0,0.130211,-6633.97,-46617.7,-0,47087.4,802819
step02_gravity_refstate-mantle.xmf,301,3.01288e-06,-2.26808e-06,0,3.84052e-06,-1.17509e+09,-1.1758e+09,-1.1755e+09,513285,-0.0151981,0.164022,-0,0.164724,-3588.56,-42373.5,-0,42525.2,513285
step02_gravity_refstate-mantle.xmf,302,2.5197e-06,-2.05523e-06,0,4.64199e-06,-1.20039e+09,-1.201e+09,-1.20073e+09,620402,-0.016257,0.163114,-0,0.163923,-3906.72,-43152.3,-0,43328.7,620402
step02_gravity_refstate-mantle.xmf,303,2.14071e-06,-1.97425e-06,0,5.40832e-06,-1.22624e+09,-1.22679e+09,-1.22653e+09,722822,-0.0169389,0.163722,-0,0.164596,-4013.51,-43948.5,-0,44131.3,722822
step02_gravity_refstate-mantle.xmf,304,4.05038e-06,-3.03351e-06,0,2.39969e-06,-1.14811e+09,-1.14906e+09,-1.14866e+09,320718,-0.0110275,0.16928,-0,0.169639,-2400.06,-41545.1,-0,41614.4,320718
step02_gravity_refstate-mantle.xmf,305,4.60753e-06,-3.24864e-06,0,1.457e-06,-1.12832e+09,-1.12937e+09,-1.12893e+09,194729,-0.00776032,0.170628,-0,0.170804,-1605.77,-40936.8,-0,40968.3,194729
step02_gravity_refstate-mantle.xmf,306,6.69863e-07,-6.27504e-07,0,6.56156e-06,-1.26411e+09,-1.26428e+09,-1.26419e+09,876952,-0.0187345,0.15752,-0,0.158631,-4700.96,-45111.6,-0,45355.9,876952
step02_gravity_refstate-mantle.xmf,307,-3.01574e-06,4.73159e-06,0,5.05229e-06,-1.32869e+09,-1.32765e+09,-1.32829e+09,675239,-0.0128672,0.115978,-0,0.11669,-7473.61,-47095.7,-0,47685,675239
step02_gravity_refstate-mantle.xmf,308,8.51514e-07,3.67482e-06,0,-1.14526e-06,-1.49812e+09,-1.49774e+09,-1.49824e+09,-153065,0.0285147,0.0247306,0,0.0377451,-17607.2,-52352.6,-0,55234.1,153065
step02_gravity_refstate-mantle.xmf,309,3.99961e-07,4.07915e-06,0,-1.11016e-06,-1.47635e+09,-1.47586e+09,-1.4764e+09,-148372,0.0263779,0.0294514,0,0.0395371,-16523,-51678.1,-0,54255.3,148372
step02_gravity_refstate-mantle.xmf,310,-1.24307e-07,4.50625e-06,0,-9.69631e-07,-1.45455e+09,-1.45394e+09,-1.45454e+09,-129591,0.0233809,0.0350565,0,0.0421382,-15477.3,-51002.4,-0,53299.1,129591
step02_gravity_refstate-mantle.xmf,311,1.65579e-06,3.16916e-06,0,-1.06274e-06,-1.56221e+09,-1.562e+09,-1.56243e+09,-142035,0.0341684,0.0166067,0,0.0379903,-18655.6,-54336.3,-0,57449.6,142035
step02_gravity_refstate-mantle.xmf,312,2.10131e-06,3.00669e-06,0,-9.10017e-07,-1.60768e+09,-1.60756e+09,-1.60796e+09,-121624,0.0381947,0.0122957,0,0.040125,-18604.4,-55743.5,-0,58766.2,121624
step02_gravity_refstate-mantle.xmf,313,2.47356e-06,2.71511e-06,0,-5.11758e-07,-1.66933e+09,-1.6693e+09,-1.66966e+09,-68396.5,0.0394704,0.00637304,0,0.0399816,-19628.9,-57649.7,-0,60899.8,68396.5
step02_gravity_refstate-mantle.xmf,314,2.53847e-06,2.63149e-06,0,-2.81606e-07,-1.70418e+09,-1.70417e+09,-1.70452e+09,-37636.6,0.0391716,0.00337724,0,0.039317,-20176.2,-58726.4,-0,62095.6,37636.6
step02_gravity_refstate-mantle.xmf,315,2.52719e-06,2.60001e-06,0,6.69834e-09,-1.74542e+09,-1.74541e+09,-1.74576e+09,895.233,0.0378826,-4.91484e-20,0,0.0378826,-20850.5,-60000,-0,63519.6,895.233
step02_gravity_refstate-mantle.xmf,316,9.48042e-08,-1.87535e-07,0,7.29182e-06,-1.28892e+09,-1.28896e+09,-1.28893e+09,974552,-0.0191717,0.15807,-0,0.159228,-4684.86,-45875.4,-0,46114,974552
step02_gravity_refstate-mantle.xmf,317,-1.90041e-06,2.56335e-06,0,6.79113e-06,-1.31213e+09,-1.31153e+09,-1.31188e+09,907634,-0.0178839,0.139678,-0,0.140818,-5900.26,-46586.1,-0,46958.3,907634
step02_gravity_refstate-mantle.xmf,318,1.77286e-06,-1.94948e-06,0,6.16607e-06,-1.25154e+09,-1.25203e+09,-1.25177e+09,824096,-0.0176054,0.165092,-0,0.166028,-4028.92,-44727.3,-0,44908.4,824096
step02_gravity_refstate-mantle.xmf,319,3.75386e-06,-3.13795e-06,0,3.17572e-06,-1.17424e+09,-1.17516e+09,-1.17474e+09,424435,-0.0120962,0.170248,-0,0.170677,-2674.89,-42349.9,-0,42434.3,424435
step02_gravity_refstate-mantle.xmf,320,5.18386e-06,-3.17483e-06,0,6.47171e-07,-1.09786e+09,-1.09898e+09,-1.09855e+09,86494.4,-0.00522684,0.169159,-0,0.169239,-994.552,-40000,-0,40012.4,86494.4
step02_gravity_refstate-mantle.xmf,321,4.3748e-06,-3.63074e-06,0,2.05682e-06,-1.16133e+09,-1.1624e+09,-1.16192e+09,274894,-0.0082999,0.173543,-0,0.173741,-1760.92,-41954.1,-0,41991,274894
step02_gravity_refstate-mantle.xmf,322,1.75238e-07,2.22194e-06,0,-1.74364e-09,-1.17164e+09,-1.17136e+09,-1.17166e+09,-233.038,4.12645e-20,0.0372899,0,0.0372899,40000,-42259.2,0,58188,233.038
step02_gravity_refstate-mantle.xmf,323,-1.27554e-08,2.19694e-06,0,-4.23701e-09,-1.09854e+09,-1.09825e+09,-1.09854e+09,-566.277,1.6677e-20,0.04229,0,0.04229,40000,-40000,0,56568.5,566.277
step02_gravity_refstate-mantle.xmf,324,1.01977e-07,2.2243e-06,0,2.70323e-08,-1.14797e+09,-1.14769e+09,-1.14798e+09,3612.86,-0.000163989,0.0389738,-0,0.0389741,38455.7,-41527.7,0,56598.5,3612.86
step02_gravity_refstate-mantle.xmf,325,-3.53333e-08,2.21455e-06,0,1.36955e-08,-1.09854e+09,-1.09824e+09,-1.09854e+09,1830.4,5.7067e-05,0.042469,0,0.042469,37557.3,-40000,0,54868.5,1830.4
step02_gravity_refstate-mantle.xmf,326,-3.04977e-06,5.39938e-06,0,3.42091e-06,-1.33174e+09,-1.33061e+09,-1.33133e+09,457205,-0.00769921,0.0968649,-0,0.0971704,-9057.67,-47191.3,-0,48052.7,457205
step02_gravity_refstate-mantle.xmf,327,-6.8511e-07,4.9242e-06,0,-7.10232e-07,-1.43387e+09,-1.43313e+09,-1.43378e+09,-94922.6,0.0197461,0.0414551,0,0.0459177,-14473.9,-50360.9,-0,52399.6,94922.6
step02_gravity_refstate-mantle.xmf,328,-1.24305e-06,5.3064e-06,0,-3.36539e-07,-1.41554e+09,-1.41466e+09,-1.41537e+09,-44978.4,0.0157975,0.048481,0,0.0509898,-13506.9,-49791.7,-0,51591.2,44978.4
step02_gravity_refstate-mantle.xmf,329,-1.78339e-06,5.62664e-06,0,1.61638e-07,-1.39844e+09,-1.39745e+09,-1.3982e+09,21602.9,0.0114965,0.0562977,0,0.0574596,-12571.5,-49260.9,-0,50839.7,21602.9
step02_gravity_refstate-mantle.xmf,330,-2.27528e-06,5.84306e-06,0,7.92086e-07,-1.38173e+09,-1.38064e+09,-1.38142e+09,105862,0.00685742,0.0649966,0,0.0653573,-11671,-48741.9,-0,50119.7,105862
step02_gravity_refstate-mantle.xmf,331,-2.67793e-06,5.91531e-06,0,1.54949e-06,-1.36534e+09,-1.36419e+09,-1.36498e+09,207089,0.00203077,0.074593,0,0.0746206,-10794.4,-48233.1,-0,49426.2,207089
step02_gravity_refstate-mantle.xmf,332,-2.94771e-06,5.79405e-06,0,2.43082e-06,-1.34897e+09,-1.34781e+09,-1.34858e+09,324878,-0.00288746,0.085264,-0,0.0853129,-9917.08,-47725.5,-0,48744.9,324878
step02_gravity_refstate-mantle.xmf,333,-3.35581e-06,5.55552e-06,0,4.06376e-06,-1.34417e+09,-1.34298e+09,-1.34372e+09,543122,-0.00878143,0.103786,-0,0.104156,-8255.23,-47573.7,-0,48284.6,543122
step02_gravity_refstate-mantle.xmf,334,1.34398e-06,3.5161e-06,0,-1.17521e-06,-1.54009e+09,-1.5398e+09,-1.54027e+09,-157067,0.0335328,0.0201288,0,0.0391103,-17560,-53652,-0,56452.6,157067
step02_gravity_refstate-mantle.xmf,335,2.44304e-06,2.88695e-06,0,-6.69009e-07,-1.65356e+09,-1.6535e+09,-1.65389e+09,-89413,0.041157,0.00808866,0,0.0419443,-18637,-57162.8,-0,60124.2,89413
step02_gravity_refstate-mantle.xmf,336,-6.24609e-07,3.12357e-07,0,7.95766e-06,-1.31318e+09,-1.31306e+09,-1.3131e+09,1.06354e+06,-0.0195041,0.158247,-0,0.159444,-4671.48,-46621.4,-0,46854.9,1.06354e+06
step02_gravity_refstate-mantle.xmf,337,-1.78883e-06,2.03447e-06,0,7.55406e-06,-1.32405e+09,-1.32354e+09,-1.32381e+09,1.0096e+06,-0.0186414,0.147506,-0,0.14868,-5327.89,-46953.7,-0,47255,1.0096e+06
step02_gravity_refstate-mantle.xmf,338,-2.65617e-06,3.50435e-06,0,6.79983e-06,-1.33344e+09,-1.33262e+09,-1.33309e+09,908798,-0.0167285,0.135838,-0,0.136865,-6024.21,-47241.8,-0,47624.3,908798
step02_gravity_refstate-mantle.xmf,339,-3.23492e-06,4.68542e-06,0,5.83027e-06,-1.34297e+09,-1.34191e+09,-1.34254e+09,779216,-0.0138754,0.123644,-0,0.12442,-6760.98,-47535.2,-0,48013.6,779216
step02_gravity_refstate-mantle.xmf,340,3.22884e-06,-2.84617e-06,0,4.04656e-06,-1.19377e+09,-1.19459e+09,-1.19421e+09,540823,-0.0141915,0.168327,-0,0.168924,-3217.29,-42950.6,-0,43070.9,540823
step02_gravity_refstate-mantle.xmf,341,3.05697e-06,-2.98097e-06,0,4.68526e-06,-1.21479e+09,-1.21559e+09,-1.2152e+09,626185,-0.0148138,0.169585,-0,0.170231,-3294.26,-43598.1,-0,43722.4,626185
step02_gravity_refstate-mantle.xmf,342,2.84224e-06,-3.12992e-06,0,5.47747e-06,-1.23941e+09,-1.24021e+09,-1.23979e+09,732064,-0.0156462,0.171425,-0,0.172138,-3345.73,-44357,-0,44483,732064
step02_gravity_refstate-mantle.xmf,343,4.94077e-06,-3.41612e-06,0,6.39398e-07,-1.12143e+09,-1.12254e+09,-1.12209e+09,85455.6,-0.00365226,0.171972,-0,0.172011,-732.999,-40725.7,-0,40732.3,85455.6
step02_gravity_refstate-mantle.xmf,344,4.77998e-06,-3.86874e-06,0,9.05005e-07,-1.15018e+09,-1.15133e+09,-1.15082e+09,120954,-0.00397534,0.175023,-0,0.175068,-821.537,-41611.6,-0,41619.7,120954
step02_gravity_refstate-mantle.xmf,345,5.26128e-06,-3.26282e-06,0,2.64963e-08,-1.09785e+09,-1.09899e+09,-1.09855e+09,3541.23,-3.82421e-07,0.170065,-0,0.170065,0,-40000,0,40000,3541.23
step02_gravity_refstate-mantle.xmf,346,1.35011e-06,-1.84089e-06,0,7.00125e-06,-1.27643e+09,-1.27686e+09,-1.27661e+09,935717,-0.01837,0.166631,-0,0.167641,-4021.81,-45493.9,-0,45671.3,935717
step02_gravity_refstate-mantle.xmf,347,2.75913e-07,2.22359e-06,0,5.37658e-08,-1.20651e+09,-1.20625e+09,-1.20654e+09,7185.8,-0.000494587,0.0349663,-0,0.0349698,38251.2,-43337.1,0,57803.7,7185.8
step02_gravity_refstate-mantle.xmf,348,1.19689e-07,2.24693e-06,0,7.59165e-08,-1.16462e+09,-1.16433e+09,-1.16463e+09,10146.2,-0.000505268,0.0380851,-0,0.0380884,36469.7,-42042.1,0,55655.9,10146.2
step02_gravity_refstate-mantle.xmf,349,-3.57917e-06,5.62505e-06,0,4.74049e-06,-1.35556e+09,-1.35433e+09,-1.35509e+09,633566,-0.0099553,0.110989,-0,0.111435,-7526.77,-47924.4,-0,48511.8,633566
step02_gravity_refstate-mantle.xmf,350,9.33003e-07,3.9338e-06,0,-1.23123e-06,-1.51815e+09,-1.51775e+09,-1.51827e+09,-164554,0.0321009,0.0243915,0,0.0403164,-16461.1,-52972.4,-0,55471.1,164554
step02_gravity_refstate-mantle.xmf,351,-1.97731e-07,4.88947e-06,0,-1.02945e-06,-1.47205e+09,-1.47137e+09,-1.47203e+09,-137585,0.0259936,0.0358797,0,0.0443059,-14409.9,-51543.4,-0,53519.8,137585
step02_gravity_refstate-mantle.xmf,352,4.03055e-07,4.40668e-06,0,-1.19323e-06,-1.49489e+09,-1.49436e+09,-1.49495e+09,-159475,0.029517,0.029689,0,0.0418651,-15403.9,-52251.7,-0,54475,159475
step02_gravity_refstate-mantle.xmf,353,1.83257e-06,3.34335e-06,0,-1.1048e-06,-1.58278e+09,-1.58258e+09,-1.58303e+09,-147657,0.0381753,0.0156583,0,0.0412617,-17506.3,-54973.5,-0,57693.6,147657
step02_gravity_refstate-mantle.xmf,354,2.34573e-06,3.17291e-06,0,-8.89087e-07,-1.63336e+09,-1.63325e+09,-1.63367e+09,-118826,0.0428483,0.0106528,0,0.0441526,-17391.8,-56538.7,-0,59153.2,118826
step02_gravity_refstate-mantle.xmf,355,2.6566e-06,2.817e-06,0,-3.50474e-07,-1.70051e+09,-1.70049e+09,-1.70087e+09,-46840.8,0.0428948,0.00392561,0,0.043074,-18709.9,-58614.3,-0,61528,46840.8
step02_gravity_refstate-mantle.xmf,356,2.66409e-06,2.75275e-06,0,8.80377e-09,-1.74538e+09,-1.74536e+09,-1.74573e+09,1176.62,0.0416357,-5.92151e-20,0,0.0416357,-19403.8,-60000,-0,63059.6,1176.62
step02_gravity_refstate-mantle.xmf,357,7.92117e-07,-1.48584e-06,0,7.90449e-06,-1.30045e+09,-1.30076e+09,-1.30056e+09,1.05644e+06,-0.0191777,0.167838,-0,0.16893,-4025.33,-46233,-0,46407.9,1.05644e+06
step02_gravity_refstate-mantle.xmf,358,2.5906e-06,-3.31214e-06,0,6.33322e-06,-1.2643e+09,-1.26509e+09,-1.26465e+09,846435,-0.0165744,0.17385,-0,0.174638,-3349.85,-45123.7,-0,45247.9,846435
step02_gravity_refstate-mantle.xmf,359,3.76554e-06,-3.64496e-06,0,3.7369e-06,-1.20175e+09,-1.20274e+09,-1.20225e+09,499436,-0.0121912,0.173552,-0,0.17398,-2609.02,-43198.4,-0,43277.1,499436
step02_gravity_refstate-mantle.xmf,360,4.3189e-06,-4.07981e-06,0,2.68345e-06,-1.18899e+09,-1.19011e+09,-1.18957e+09,358644,-0.00909617,0.176212,-0,0.176447,-1898.61,-42806.8,-0,42848.9,358644
step02_gravity_refstate-mantle.xmf,361,4.69766e-06,-4.33069e-06,0,1.58139e-06,-1.17869e+09,-1.1799e+09,-1.17932e+09,211353,-0.00556289,0.177842,-0,0.177929,-1141.99,-42490.6,-0,42506,211353
step02_gravity_refstate-mantle.xmf,362,4.93761e-06,-3.56461e-06,0,2.62656e-08,-1.12922e+09,-1.13036e+09,-1.12988e+09,3510.39,-4.3442e-07,0.173366,-0,0.173366,0,-40966,0,40966,3510.39
step02_gravity_refstate-mantle.xmf,363,4.1193e-07,2.20206e-06,0,-1.15609e-09,-1.24408e+09,-1.24385e+09,-1.24414e+09,-154.512,8.20855e-20,0.0323353,0,0.0323353,40000,-44498.7,0,59834.2,154.512
step02_gravity_refstate-mantle.xmf,364,-1.07679e-07,2.25802e-06,0,2.8741e-08,-1.09856e+09,-1.09824e+09,-1.09854e+09,3841.23,0.000207928,0.0429885,0,0.042989,35229,-40000,0,53301.8,3841.23
step02_gravity_refstate-mantle.xmf,365,-3.41092e-06,6.22526e-06,0,2.97548e-06,-1.36634e+09,-1.36506e+09,-1.36589e+09,397673,-0.0033148,0.0913631,-0,0.0914232,-8992.3,-48260,-0,49090.6,397673
step02_gravity_refstate-mantle.xmf,366,-8.28824e-07,5.34325e-06,0,-7.2789e-07,-1.45061e+09,-1.44979e+09,-1.4505e+09,-97282.5,0.0218299,0.0427919,0,0.0480384,-13485.6,-50878.1,-0,52635,97282.5
step02_gravity_refstate-mantle.xmf,367,-1.45102e-06,5.76287e-06,0,-3.07027e-07,-1.43248e+09,-1.43152e+09,-1.43229e+09,-41034.2,0.0174984,0.0503362,0,0.0532909,-12564,-50314.9,-0,51859.8,41034.2
step02_gravity_refstate-mantle.xmf,368,-2.06187e-06,6.1056e-06,0,2.68529e-07,-1.41483e+09,-1.41374e+09,-1.41456e+09,35888.9,0.0126556,0.0588901,0,0.0602346,-11668.6,-49766.6,-0,51116.2,35888.9
step02_gravity_refstate-mantle.xmf,369,-2.61732e-06,6.32718e-06,0,9.98741e-07,-1.39786e+09,-1.39666e+09,-1.39751e+09,133482,0.00749087,0.0684323,0,0.0688411,-10794.9,-49239,-0,50408.4,133482
step02_gravity_refstate-mantle.xmf,370,-3.06008e-06,6.3838e-06,0,1.85177e-06,-1.38214e+09,-1.38088e+09,-1.38173e+09,247489,0.00233641,0.078685,0,0.0787197,-9953.35,-48750.8,-0,49756.5,247489
step02_gravity_refstate-mantle.xmf,371,-3.65487e-06,6.16603e-06,0,3.82612e-06,-1.36696e+09,-1.36565e+09,-1.36647e+09,511361,-0.00617527,0.100836,-0,0.101025,-8158,-48277.3,-0,48961.7,511361
step02_gravity_refstate-mantle.xmf,372,1.48319e-06,3.74807e-06,0,-1.24148e-06,-1.55941e+09,-1.5591e+09,-1.55961e+09,-165924,0.037425,0.0195513,0,0.0422242,-16419.8,-54250.1,-0,56680.6,165924
step02_gravity_refstate-mantle.xmf,373,2.63347e-06,2.99039e-06,0,-5.71459e-07,-1.67598e+09,-1.67593e+09,-1.67633e+09,-76375.6,0.044428,0.00638274,0,0.0448842,-17793.8,-57856.8,-0,60531.2,76375.6
step02_gravity_refstate-mantle.xmf,374,6.25712e-08,-1.0714e-06,0,8.74013e-06,-1.32346e+09,-1.32361e+09,-1.32347e+09,1.16812e+06,-0.019878,0.168774,-0,0.16994,-4024.85,-46940,-0,47112.2,1.16812e+06
step02_gravity_refstate-mantle.xmf,375,-1.48164e-06,1.10566e-06,0,8.54543e-06,-1.33643e+09,-1.33608e+09,-1.33623e+09,1.1421e+06,-0.0195486,0.157728,-0,0.158935,-4672.56,-47335.6,-0,47565.7,1.1421e+06
step02_gravity_refstate-mantle.xmf,376,-2.66584e-06,3.0454e-06,0,7.74881e-06,-1.34682e+09,-1.34606e+09,-1.34646e+09,1.03563e+06,-0.0177903,0.14488,-0,0.145968,-5379.98,-47653.8,-0,47956.5,1.03563e+06
step02_gravity_refstate-mantle.xmf,377,-3.43414e-06,4.52499e-06,0,6.73062e-06,-1.35716e+09,-1.35609e+09,-1.3567e+09,899547,-0.0149641,0.132043,-0,0.132888,-6079.19,-47971.7,-0,48355.4,899547
step02_gravity_refstate-mantle.xmf,378,-3.89511e-06,5.71662e-06,0,5.49028e-06,-1.36896e+09,-1.36767e+09,-1.36844e+09,733775,-0.0109612,0.118432,-0,0.118938,-6832.56,-48336.2,-0,48816.7,733775
step02_gravity_refstate-mantle.xmf,379,3.75753e-06,-4.10345e-06,0,4.46353e-06,-1.22725e+09,-1.2283e+09,-1.22775e+09,596551,-0.0129269,0.176364,-0,0.176837,-2639.41,-43984.8,-0,44064,596551
step02_gravity_refstate-mantle.xmf,380,3.72326e-06,-4.55164e-06,0,5.31435e-06,-1.25237e+09,-1.25347e+09,-1.25287e+09,710262,-0.0139154,0.179455,-0,0.179994,-2667.52,-44759.4,-0,44838.8,710262
step02_gravity_refstate-mantle.xmf,381,4.89033e-06,-4.4418e-06,0,6.87439e-07,-1.17323e+09,-1.17447e+09,-1.17388e+09,91876.3,-0.00250071,0.178439,-0,0.178456,-509.078,-42322.8,-0,42325.9,91876.3
step02_gravity_refstate-mantle.xmf,382,5.18063e-06,-3.20042e-06,0,-6.20939e-07,-1.09786e+09,-1.09898e+09,-1.09856e+09,-82988.5,0.00522682,0.169159,0,0.16924,994.552,-40000,0,40012.4,82988.5
step02_gravity_refstate-mantle.xmf,383,4.95351e-06,-3.40735e-06,0,-5.85604e-07,-1.12066e+09,-1.12178e+09,-1.12132e+09,-78266,0.00352258,0.171932,0,0.171968,705.685,-40702.2,0,40708.3,78266
step02_gravity_refstate-mantle.xmf,384,2.24296e-06,-3.37933e-06,0,7.32505e-06,-1.28859e+09,-1.28934e+09,-1.28889e+09,978993,-0.0176776,0.176217,-0,0.177101,-3360.96,-45871.4,-0,45994.4,978993
step02_gravity_refstate-mantle.xmf,385,5.15083e-07,2.19218e-06,0,7.30944e-08,-1.27534e+09,-1.27512e+09,-1.27541e+09,9769.07,-0.000918635,0.030269,-0,0.0302829,38234.1,-45464.9,0,59404.6,9769.07
step02_gravity_refstate-mantle.xmf,386,-2.00942e-07,2.32187e-06,0,3.17508e-08,-1.09857e+09,-1.09823e+09,-1.09854e+09,4243.49,0.000522183,0.0438429,0,0.043846,33009.3,-40000,0,51861.5,4243.49
step02_gravity_refstate-mantle.xmf,387,2.56505e-08,2.30141e-06,0,1.16156e-07,-1.15813e+09,-1.15783e+09,-1.15814e+09,15524.3,-0.000590438,0.0391122,-0,0.0391167,34194,-41841.4,0,54036.3,15524.3
step02_gravity_refstate-mantle.xmf,388,3.59106e-07,2.23186e-06,0,1.21433e-07,-1.23753e+09,-1.23728e+09,-1.23758e+09,16229.5,-0.001284,0.0330064,-0,0.0330314,36622.5,-44296,0,57474.7,16229.5
step02_gravity_refstate-mantle.xmf,389,6.71091e-07,2.15833e-06,0,-6.91432e-10,-1.31607e+09,-1.31587e+09,-1.31616e+09,-92.4099,1.24495e-19,0.0274833,0,0.0274833,40000,-46723.9,0,61507.1,92.4099
step02_gravity_refstate-mantle.xmf,390,-3.98083e-06,6.448e-06,0,4.26006e-06,-1.38003e+09,-1.37864e+09,-1.3795e+09,569357,-0.00639024,0.105407,-0,0.105601,-7603.36,-48679.6,-0,49269.8,569357
step02_gravity_refstate-mantle.xmf,391,-3.17238e-07,5.30159e-06,0,-1.05206e-06,-1.48502e+09,-1.48427e+09,-1.48498e+09,-140607,0.0280057,0.0373426,0,0.0466775,-13429.5,-51944.2,-0,53652.1,140607
step02_gravity_refstate-mantle.xmf,392,1.01724e-06,4.23142e-06,0,-1.31403e-06,-1.53675e+09,-1.53632e+09,-1.53689e+09,-175620,0.0357816,0.0242238,0,0.0432101,-15344.6,-53548.5,-0,55703.6,175620
step02_gravity_refstate-mantle.xmf,393,3.83539e-07,4.82805e-06,0,-1.27287e-06,-1.51337e+09,-1.51277e+09,-1.51342e+09,-170118,0.0329618,0.0303472,0,0.0448044,-14189.1,-52823.3,-0,54695.8,170118
step02_gravity_refstate-mantle.xmf,394,2.01205e-06,3.56651e-06,0,-1.13247e-06,-1.60103e+09,-1.60082e+09,-1.6013e+09,-151355,0.0422826,0.0149395,0,0.0448443,-16338.6,-55538.9,-0,57892.3,151355
step02_gravity_refstate-mantle.xmf,395,2.70196e-06,3.21954e-06,0,-6.4992e-07,-1.6743e+09,-1.67423e+09,-1.67466e+09,-86861.8,0.0473267,0.00701125,0,0.0478433,-16677.3,-57806,-0,60163.7,86861.8
step02_gravity_refstate-mantle.xmf,396,2.82022e-06,3.04202e-06,0,-3.18457e-07,-1.71002e+09,-1.70999e+09,-1.7104e+09,-42561.8,0.0469095,0.00333443,0,0.0470279,-17336.2,-58909.8,-0,61407.7,42561.8
step02_gravity_refstate-mantle.xmf,397,2.80032e-06,2.94834e-06,0,6.01251e-09,-1.74533e+09,-1.74531e+09,-1.7457e+09,803.572,0.0454015,-5.17825e-20,0,0.0454015,-18026.3,-60000,-0,62649.4,803.572
step02_gravity_refstate-mantle.xmf,398,1.73616e-06,-3.15877e-06,0,8.44215e-06,-1.31184e+09,-1.31249e+09,-1.31207e+09,1.12829e+06,-0.0188553,0.178235,-0,0.17923,-3385.51,-46586.8,-0,46709.7,1.12829e+06
step02_gravity_refstate-mantle.xmf,399,-6.98752e-07,-5.05495e-07,0,9.55114e-06,-1.34485e+09,-1.34483e+09,-1.34476e+09,1.27651e+06,-0.0203493,0.170024,-0,0.171237,-3983.36,-47597,-0,47763.4,1.27651e+06
step02_gravity_refstate-mantle.xmf,400,3.6082e-06,-4.96971e-06,0,6.28904e-06,-1.27695e+09,-1.27809e+09,-1.27743e+09,840530,-0.0151088,0.182845,-0,0.183468,-2688.04,-45516.8,-0,45596.1,840530
step02_gravity_refstate-mantle.xmf,401,4.40022e-06,-4.69095e-06,0,3.29347e-06,-1.21567e+09,-1.21688e+09,-1.21625e+09,440173,-0.00976755,0.179574,-0,0.179839,-1944.31,-43629.8,-0,43673.1,440173
step02_gravity_refstate-mantle.xmf,402,4.83663e-06,-5.03261e-06,0,2.08796e-06,-1.20605e+09,-1.20737e+09,-1.20669e+09,279056,-0.00632606,0.181456,-0,0.181566,-1243.14,-43334.8,-0,43352.6,279056
step02_gravity_refstate-mantle.xmf,403,5.03811e-06,-5.10149e-06,0,9.41923e-07,-1.19798e+09,-1.19933e+09,-1.19865e+09,125888,-0.00291095,0.181974,-0,0.181997,-571.37,-43086.7,-0,43090.5,125888
step02_gravity_refstate-mantle.xmf,404,4.88367e-06,-4.16424e-06,0,-9.65592e-10,-1.15904e+09,-1.16025e+09,-1.15969e+09,-129.051,-2.31029e-07,0.176895,-0,0.176895,0,-41885.4,0,41885.4,129.051
step02_gravity_refstate-mantle.xmf,405,4.57224e-06,-3.19338e-06,0,-1.44944e-06,-1.12827e+09,-1.12931e+09,-1.12888e+09,-193718,0.00793865,0.170497,0,0.170681,1644.56,-40935.3,0,40968.3,193718
step02_gravity_refstate-mantle.xmf,406,4.73246e-06,-3.80679e-06,0,-9.70488e-07,-1.15012e+09,-1.15126e+09,-1.15075e+09,-129706,0.00429714,0.174884,0,0.174937,889.314,-41609.6,0,41619.1,129706
step02_gravity_refstate-mantle.xmf,407,-3.25635e-07,2.40588e-06,0,2.30001e-08,-1.09859e+09,-1.09823e+09,-1.09855e+09,3073.97,0.00105351,0.045048,0,0.0450603,30892.4,-40000,0,50540.5,3073.97
step02_gravity_refstate-mantle.xmf,408,-7.02447e-08,2.37233e-06,0,1.46173e-07,-1.1569e+09,-1.15658e+09,-1.1569e+09,19536,-0.000533909,0.0400213,-0,0.0400249,32143.2,-41802.9,0,52732.1,19536
step02_gravity_refstate-mantle.xmf,409,2.26244e-07,2.27268e-06,0,1.51409e-07,-1.20886e+09,-1.20859e+09,-1.20889e+09,20235.8,-0.0013383,0.0352827,-0,0.0353081,35064.8,-43409.6,0,55802.6,20235.8
step02_gravity_refstate-mantle.xmf,410,7.7366e-07,2.1427e-06,0,8.33425e-08,-1.34519e+09,-1.34501e+09,-1.3453e+09,11138.7,-0.0013539,0.0255872,-0,0.025623,38256.7,-47624.2,0,61087.2,11138.7
step02_gravity_refstate-mantle.xmf,411,9.34612e-07,2.10461e-06,0,-2.90524e-10,-1.38775e+09,-1.38759e+09,-1.38788e+09,-38.8286,1.66198e-19,0.0227604,0,0.0227604,40000,-48939.8,0,63206.8,38.8286
step02_gravity_refstate-mantle.xmf,412,-3.78019e-06,6.7651e-06,0,3.12903e-06,-1.38868e+09,-1.38727e+09,-1.38817e+09,418195,-0.00183389,0.0934359,-0,0.0934539,-8412.34,-48948.9,-0,49666.5,418195
step02_gravity_refstate-mantle.xmf,413,-9.94026e-07,5.801e-06,0,-7.28714e-07,-1.46579e+09,-1.46489e+09,-1.46566e+09,-97392.6,0.0237844,0.04451,0,0.0504662,-12535.7,-51347.1,-0,52855.2,97392.6
step02_gravity_refstate-mantle.xmf,414,-1.70342e-06,6.25402e-06,0,-2.34783e-07,-1.44674e+09,-1.44568e+09,-1.44651e+09,-31378.7,0.0188112,0.0528549,0,0.0561027,-11656.9,-50755,-0,52076.4,31378.7
step02_gravity_refstate-mantle.xmf,415,-2.38151e-06,6.6212e-06,0,4.20171e-07,-1.42969e+09,-1.42849e+09,-1.42937e+09,56155.9,0.0135722,0.0621075,0,0.0635731,-10787.5,-50224.7,-0,51370.1,56155.9
step02_gravity_refstate-mantle.xmf,416,-2.9646e-06,6.83881e-06,0,1.20143e-06,-1.41434e+09,-1.41303e+09,-1.41394e+09,160571,0.00831997,0.0718597,0,0.0723398,-9979.87,-49747.1,-0,50738.3,160571
step02_gravity_refstate-mantle.xmf,417,-3.44462e-06,6.92113e-06,0,2.09499e-06,-1.40181e+09,-1.40042e+09,-1.40135e+09,279995,0.00331307,0.0821877,0,0.0822544,-9178.38,-49357.1,-0,50203.2,279995
step02_gravity_refstate-mantle.xmf,418,1.63244e-06,4.02017e-06,0,-1.29579e-06,-1.57738e+09,-1.57706e+09,-1.5776e+09,-173182,0.0414315,0.0191034,0,0.0456236,-15304.6,-54807,-0,56903.7,173182
step02_gravity_refstate-mantle.xmf,419,2.44103e-06,3.45417e-06,0,-9.49075e-07,-1.63945e+09,-1.63931e+09,-1.63977e+09,-126844,0.0463399,0.0109542,0,0.047617,-16136.6,-56728.2,-0,58978.6,126844
step02_gravity_refstate-mantle.xmf,420,9.94223e-07,-2.71653e-06,0,9.53709e-06,-1.33395e+09,-1.33445e+09,-1.33409e+09,1.27463e+06,-0.0199401,0.179878,-0,0.18098,-3410.85,-47266,-0,47388.9,1.27463e+06
step02_gravity_refstate-mantle.xmf,421,-2.62074e-06,2.37593e-06,0,8.95815e-06,-1.36128e+09,-1.36061e+09,-1.36093e+09,1.19726e+06,-0.0189124,0.155452,-0,0.156599,-4725.44,-48099.1,-0,48330.7,1.19726e+06
step02_gravity_refstate-mantle.xmf,422,-3.51813e-06,4.14071e-06,0,7.70064e-06,-1.36709e+09,-1.36607e+09,-1.36662e+09,1.02919e+06,-0.016299,0.141155,-0,0.142093,-5465.55,-48277.1,-0,48585.5,1.02919e+06
step02_gravity_refstate-mantle.xmf,423,-4.23581e-06,5.62612e-06,0,6.65143e-06,-1.3828e+09,-1.38148e+09,-1.38223e+09,888964,-0.0126418,0.129303,-0,0.12992,-6004.73,-48761.2,-0,49129.5,888964
step02_gravity_refstate-mantle.xmf,424,-4.37194e-06,6.75788e-06,0,4.82597e-06,-1.39523e+09,-1.39374e+09,-1.39465e+09,644991,-0.00662658,0.111229,-0,0.111426,-6975.49,-49147.3,-0,49639.8,644991
step02_gravity_refstate-mantle.xmf,425,4.56901e-06,-5.42217e-06,0,4.003e-06,-1.24088e+09,-1.24222e+09,-1.24149e+09,535001,-0.0106306,0.183264,-0,0.183572,-1979.82,-44408.1,-0,44452.2,535001
step02_gravity_refstate-mantle.xmf,426,4.74593e-06,-6.20128e-06,0,4.86223e-06,-1.26558e+09,-1.26704e+09,-1.26622e+09,649836,-0.011704,0.187447,-0,0.187812,-2006.99,-45170.2,-0,45214.8,649836
step02_gravity_refstate-mantle.xmf,427,4.77955e-06,-2.88293e-06,0,-1.2284e-06,-1.09792e+09,-1.09895e+09,-1.09856e+09,-164176,0.0101845,0.1665,0,0.166811,1990.05,-40000,0,40049.5,164176
step02_gravity_refstate-mantle.xmf,428,5.0163e-06,-4.89541e-06,0,-1.70052e-09,-1.1874e+09,-1.18872e+09,-1.18807e+09,-227.275,2.7093e-07,0.180806,0,0.180806,0,-42760.3,0,42760.3,227.275
step02_gravity_refstate-mantle.xmf,429,3.42051e-06,-5.33925e-06,0,7.45135e-06,-1.30087e+09,-1.30204e+09,-1.30133e+09,995873,-0.0164856,0.186431,-0,0.187159,-2705.8,-46253.7,-0,46332.8,995873
step02_gravity_refstate-mantle.xmf,430,-4.76665e-07,2.50535e-06,0,3.46307e-11,-1.09862e+09,-1.09822e+09,-1.09855e+09,4.6284,0.00183951,0.0466331,0,0.0466694,28873.1,-40000,0,49332.1,4.6284
step02_gravity_refstate-mantle.xmf,431,-1.83814e-07,2.4727e-06,0,1.73811e-07,-1.16101e+09,-1.16065e+09,-1.16098e+09,23229.9,-0.000392461,0.0409483,-0,0.0409501,29992.7,-41929.2,0,51552.1,23229.9
step02_gravity_refstate-mantle.xmf,432,5.99589e-07,2.19245e-06,0,1.51212e-07,-1.30291e+09,-1.3027e+09,-1.30299e+09,20209.5,-0.00209155,0.0285379,-0,0.0286145,36601.9,-46317.1,0,59033.6,20209.5
step02_gravity_refstate-mantle.xmf,433,2.05603e-07,2.32156e-06,0,2.16512e-07,-1.22038e+09,-1.2201e+09,-1.22041e+09,28936.8,-0.00195635,0.0349568,-0,0.0350115,33289.8,-43765.4,0,54987.5,28936.8
step02_gravity_refstate-mantle.xmf,434,4.37458e-07,2.24542e-06,0,1.96894e-07,-1.26695e+09,-1.26671e+09,-1.26701e+09,26314.9,-0.0023211,0.0312161,-0,0.0313023,35113,-45205.4,0,57240.3,26314.9
step02_gravity_refstate-mantle.xmf,435,1.03362e-06,2.08805e-06,0,8.48832e-08,-1.41603e+09,-1.41589e+09,-1.41617e+09,11344.6,-0.00177852,0.0209535,-0,0.0210288,38280.8,-49814,0,62824,11344.6
step02_gravity_refstate-mantle.xmf,436,1.18396e-06,2.05515e-06,0,8.33045e-11,-1.45931e+09,-1.45919e+09,-1.45947e+09,11.1337,2.08134e-19,0.0181606,0,0.0181606,40000,-51151.8,0,64934.6,11.1337
step02_gravity_refstate-mantle.xmf,437,-4.2058e-06,7.20535e-06,0,3.60332e-06,-1.4049e+09,-1.40337e+09,-1.40434e+09,481584,-0.0017936,0.0988938,-0,0.09891,-7698.24,-49448.2,-0,50043.8,481584
step02_gravity_refstate-mantle.xmf,438,6.61088e-08,5.32359e-06,0,-1.22329e-06,-1.51137e+09,-1.51067e+09,-1.51138e+09,-163493,0.0328483,0.0339719,0,0.0472557,-13166.3,-52760.9,-0,54378.9,163493
step02_gravity_refstate-mantle.xmf,439,-4.89882e-07,5.75236e-06,0,-1.04746e-06,-1.49523e+09,-1.49439e+09,-1.49516e+09,-139994,0.0295861,0.0393349,0,0.0492196,-12514.8,-52259.6,-0,53737.2,139994
step02_gravity_refstate-mantle.xmf,440,1.15409e-06,4.5511e-06,0,-1.383e-06,-1.5564e+09,-1.55595e+09,-1.55656e+09,-184838,0.0399044,0.0238692,0,0.0464983,-14273.7,-54157.2,-0,56006.6,184838
step02_gravity_refstate-mantle.xmf,441,2.16277e-06,3.84701e-06,0,-1.16097e-06,-1.61526e+09,-1.61503e+09,-1.61555e+09,-155163,0.046162,0.0146194,0,0.0484217,-15212.1,-55980.1,-0,58010.2,155163
step02_gravity_refstate-mantle.xmf,442,2.84819e-06,3.50568e-06,0,-6.55044e-07,-1.68145e+09,-1.68136e+09,-1.68183e+09,-87546.6,0.0510659,0.00687575,0,0.0515267,-15474.1,-58028.4,-0,60056.2,87546.6
step02_gravity_refstate-mantle.xmf,443,2.95189e-06,3.31012e-06,0,-3.38308e-07,-1.71199e+09,-1.71194e+09,-1.71238e+09,-45214.9,0.0505896,0.00341837,0,0.050705,-16080,-58972.1,-0,61125,45214.9
step02_gravity_refstate-mantle.xmf,444,2.94219e-06,3.18852e-06,0,7.84808e-09,-1.74528e+09,-1.74525e+09,-1.74567e+09,1048.9,0.0491673,-5.39085e-20,0,0.0491673,-16714.6,-60000,-0,62284.6,1048.9
step02_gravity_refstate-mantle.xmf,445,2.91829e-06,-5.16237e-06,0,8.85297e-06,-1.32323e+09,-1.32431e+09,-1.32362e+09,1.1832e+06,-0.0181315,0.188911,-0,0.189779,-2788.02,-46941.3,-0,47024,1.1832e+06
step02_gravity_refstate-mantle.xmf,446,9.51158e-08,-2.19843e-06,0,1.05644e-05,-1.35531e+09,-1.35562e+09,-1.35533e+09,1.41193e+06,-0.0207797,0.181486,-0,0.182672,-3412.99,-47921.2,-0,48042.6,1.41193e+06
step02_gravity_refstate-mantle.xmf,447,-1.81038e-06,5.42275e-07,0,1.02805e-05,-1.36749e+09,-1.36718e+09,-1.36725e+09,1.374e+06,-0.0203969,0.169856,-0,0.171076,-3990.97,-48291.6,-0,48456.2,1.374e+06
step02_gravity_refstate-mantle.xmf,448,2.06016e-06,-4.70677e-06,0,1.02921e-05,-1.3454e+09,-1.3463e+09,-1.34567e+09,1.37554e+06,-0.0197396,0.190943,-0,0.19196,-2871.5,-47621.6,-0,47708.1,1.37554e+06
step02_gravity_refstate-mantle.xmf,449,4.85181e-06,-6.95952e-06,0,5.93548e-06,-1.28997e+09,-1.29155e+09,-1.29062e+09,793277,-0.0130572,0.1921,-0,0.192543,-2037.14,-45922.5,-0,45967.6,793277
step02_gravity_refstate-mantle.xmf,450,5.08325e-06,-5.85423e-06,0,2.61641e-06,-1.23121e+09,-1.23267e+09,-1.23189e+09,349683,-0.00706562,0.185449,-0,0.185583,-1300.19,-44111.5,-0,44130.7,349683
step02_gravity_refstate-mantle.xmf,451,4.09935e-06,-2.71496e-06,0,-2.10887e-06,-1.12479e+09,-1.12571e+09,-1.12534e+09,-281850,0.012203,0.166178,0,0.166625,2611.72,-40825.9,0,40909.4,281850
step02_gravity_refstate-mantle.xmf,452,5.37061e-06,-6.04624e-06,0,1.22076e-06,-1.22392e+09,-1.22545e+09,-1.22464e+09,163154,-0.00332056,0.186361,-0,0.18639,-610.034,-43888,-0,43892.2,163154
step02_gravity_refstate-mantle.xmf,453,5.33607e-06,-5.78097e-06,0,2.16418e-08,-1.21436e+09,-1.21585e+09,-1.21507e+09,2892.43,2.53441e-07,0.185224,0,0.185224,0,-43593,0,43593,2892.43
step02_gravity_refstate-mantle.xmf,454,4.8762e-06,-4.55379e-06,0,-9.10679e-07,-1.17903e+09,-1.18029e+09,-1.17968e+09,-121712,0.00323219,0.17902,0,0.179049,655.527,-42501.7,0,42506.7,121712
step02_gravity_refstate-mantle.xmf,455,4.35766e-06,-3.55209e-06,0,-2.10761e-06,-1.15998e+09,-1.16103e+09,-1.16056e+09,-281682,0.00867319,0.173038,0,0.173255,1846.99,-41912.2,0,41952.9,281682
step02_gravity_refstate-mantle.xmf,456,-6.37656e-07,2.60982e-06,0,-4.24435e-08,-1.09864e+09,-1.09821e+09,-1.09856e+09,-5672.57,0.00289858,0.0486362,0,0.0487225,26946.1,-40000,0,48229.6,5672.57
step02_gravity_refstate-mantle.xmf,457,-3.89191e-07,2.58399e-06,0,1.35694e-07,-1.14741e+09,-1.14701e+09,-1.14736e+09,18135.5,0.000666851,0.0437219,0,0.043727,27875.7,-41508.1,0,49999.7,18135.5
step02_gravity_refstate-mantle.xmf,458,6.4294e-08,2.39684e-06,0,2.39508e-07,-1.20357e+09,-1.20326e+09,-1.20358e+09,32010.3,-0.00177425,0.0369243,-0,0.0369669,31424.5,-43245.4,0,53457.1,32010.3
step02_gravity_refstate-mantle.xmf,459,8.6867e-07,2.13659e-06,0,1.66511e-07,-1.37332e+09,-1.37315e+09,-1.37343e+09,22254.2,-0.00298025,0.0238258,-0,0.0240115,36604.2,-48493.6,0,60757.7,22254.2
step02_gravity_refstate-mantle.xmf,460,1.27348e-06,2.04278e-06,0,7.96858e-08,-1.48712e+09,-1.48701e+09,-1.48729e+09,10650,-0.0022026,0.0164148,-0,0.0165619,38269,-52011.3,0,64573.2,10650
step02_gravity_refstate-mantle.xmf,461,1.40116e-06,2.02382e-06,0,4.00175e-10,-1.53087e+09,-1.53078e+09,-1.53105e+09,53.4834,2.5473e-19,0.0136515,0,0.0136515,40000,-53363.5,0,66690.8,53.4834
step02_gravity_refstate-mantle.xmf,462,-3.84536e-06,7.3985e-06,0,2.46949e-06,-1.41647e+09,-1.41497e+09,-1.41596e+09,330048,0.0034838,0.0870619,0,0.0871316,-8436.85,-49808.5,-0,50518,330048
step02_gravity_refstate-mantle.xmf,463,-1.20934e-06,6.29176e-06,0,-6.85125e-07,-1.47782e+09,-1.47681e+09,-1.47766e+09,-91567,0.0252495,0.0468904,0,0.0532564,-11643.2,-51718.3,-0,53012.7,91567
step02_gravity_refstate-mantle.xmf,464,-1.9645e-06,6.77812e-06,0,-1.41925e-07,-1.46064e+09,-1.45947e+09,-1.46038e+09,-18968.3,0.0201577,0.0556501,0,0.0591884,-10791.7,-51184,-0,52309.3,18968.3
step02_gravity_refstate-mantle.xmf,465,-2.69003e-06,7.15369e-06,0,5.77294e-07,-1.44451e+09,-1.44319e+09,-1.44415e+09,77155.4,0.0146546,0.0653748,0,0.0669971,-9973.58,-50681.7,-0,51653.8,77155.4
step02_gravity_refstate-mantle.xmf,466,-3.32809e-06,7.37532e-06,0,1.44837e-06,-1.42999e+09,-1.42856e+09,-1.42954e+09,193575,0.00908031,0.0758179,0,0.0763597,-9191.55,-50229.5,-0,51063.5,193575
step02_gravity_refstate-mantle.xmf,467,6.19833e-07,5.12343e-06,0,-1.3777e-06,-1.53914e+09,-1.53854e+09,-1.53922e+09,-184129,0.0379088,0.029069,0,0.0477711,-13286.6,-53621.8,-0,55243.3,184129
step02_gravity_refstate-mantle.xmf,468,1.79918e-06,4.3258e-06,0,-1.33196e-06,-1.59449e+09,-1.59415e+09,-1.59473e+09,-178017,0.0455282,0.0186729,0,0.0492087,-14252.3,-55337.4,-0,57143.3,178017
step02_gravity_refstate-mantle.xmf,469,2.58171e-06,3.73948e-06,0,-9.53967e-07,-1.64867e+09,-1.64851e+09,-1.64901e+09,-127498,0.0498781,0.0108726,0,0.0510494,-15041.5,-57014.7,-0,58965.4,127498
step02_gravity_refstate-mantle.xmf,470,-3.97319e-06,4.48156e-06,0,8.2548e-06,-1.38571e+09,-1.38458e+09,-1.38518e+09,1.10325e+06,-0.0159466,0.145108,-0,0.145981,-5124.18,-48850,-0,49118,1.10325e+06
step02_gravity_refstate-mantle.xmf,471,-4.63446e-06,7.59609e-06,0,4.2212e-06,-1.41925e+09,-1.41762e+09,-1.41863e+09,564164,-0.00209593,0.105629,-0,0.105649,-6993.52,-49889.7,-0,50377.5,564164
step02_gravity_refstate-mantle.xmf,472,-4.77664e-06,6.95639e-06,0,5.67379e-06,-1.40852e+09,-1.40695e+09,-1.40788e+09,758302,-0.00758221,0.119697,-0,0.119937,-6272.99,-49555.5,-0,49951,758302
step02_gravity_refstate-mantle.xmf,473,-3.15453e-06,2.68994e-06,0,9.62248e-06,-1.37986e+09,-1.37908e+09,-1.37944e+09,1.28604e+06,-0.0188019,0.159396,-0,0.160501,-4457.71,-48670.2,-0,48873.9,1.28604e+06
step02_gravity_refstate-mantle.xmf,474,1.04377e-06,-4.19977e-06,0,1.16139e-05,-1.36619e+09,-1.36689e+09,-1.36633e+09,1.5522e+06,-0.0209404,0.19324,-0,0.194371,-2900.56,-48258.3,-0,48345.3,1.5522e+06
step02_gravity_refstate-mantle.xmf,475,5.43841e-06,-6.8695e-06,0,3.23988e-06,-1.25501e+09,-1.25665e+09,-1.25574e+09,433009,-0.00792608,0.189873,-0,0.190038,-1344.54,-44846.5,-0,44866.7,433009
step02_gravity_refstate-mantle.xmf,476,5.84638e-06,-7.98817e-06,0,4.0314e-06,-1.27863e+09,-1.28047e+09,-1.27941e+09,538796,-0.00895341,0.195021,-0,0.195226,-1378.07,-45575.9,-0,45596.7,538796
step02_gravity_refstate-mantle.xmf,477,4.12289e-06,-2.34672e-06,0,-1.72932e-06,-1.09802e+09,-1.09889e+09,-1.09857e+09,-231123,0.01466,0.162236,0,0.162897,2990.68,-40000,0,40111.6,231123
step02_gravity_refstate-mantle.xmf,478,4.0073e-06,-2.99741e-06,0,-2.47724e-06,-1.14881e+09,-1.14975e+09,-1.14935e+09,-331083,0.0113093,0.168984,0,0.169362,2471.11,-41566.5,0,41639.9,331083
step02_gravity_refstate-mantle.xmf,479,5.09436e-06,-5.22582e-06,0,-8.16207e-07,-1.201e+09,-1.20238e+09,-1.20168e+09,-109086,0.0025612,0.182571,0,0.182589,498.595,-43180.1,0,43182.9,109086
step02_gravity_refstate-mantle.xmf,480,4.63452e-06,-4.16612e-06,0,-1.73567e-06,-1.17549e+09,-1.17667e+09,-1.17611e+09,-231973,0.00636067,0.176876,0,0.17699,1317.39,-42391.9,0,42412.4,231973
step02_gravity_refstate-mantle.xmf,481,4.93044e-06,-7.75731e-06,0,7.4409e-06,-1.316e+09,-1.3177e+09,-1.31666e+09,994477,-0.0147563,0.197846,-0,0.198395,-2055.46,-46724.9,-0,46770.1,994477
step02_gravity_refstate-mantle.xmf,482,-5.51985e-07,2.69804e-06,0,1.0413e-07,-1.14608e+09,-1.14565e+09,-1.14601e+09,13917,0.00157696,0.0458315,0,0.0458586,26044.6,-41466.2,0,48967,13917
step02_gravity_refstate-mantle.xmf,483,-1.35884e-07,2.55304e-06,0,2.76452e-07,-1.19932e+09,-1.19896e+09,-1.1993e+09,36947.8,-0.00154297,0.03909,-0,0.0391204,28461,-43113.1,0,51660.1,36947.8
step02_gravity_refstate-mantle.xmf,484,-8.25238e-07,2.72435e-06,0,-1.04899e-07,-1.09867e+09,-1.0982e+09,-1.09856e+09,-14019.8,0.00424072,0.0511027,0,0.0512784,25106.5,-40000,0,47226.4,14019.8
step02_gravity_refstate-mantle.xmf,485,7.60532e-08,2.45663e-06,0,3.09011e-07,-1.22563e+09,-1.22531e+09,-1.22564e+09,41299.4,-0.00260447,0.0360033,-0,0.0360973,30026.1,-43927,0,53208.6,41299.4
step02_gravity_refstate-mantle.xmf,486,7.12174e-07,2.19084e-06,0,2.27938e-07,-1.33704e+09,-1.33684e+09,-1.33714e+09,30463.9,-0.00354616,0.0263982,-0,0.0266353,35188.3,-47372.1,0,59011.3,30463.9
step02_gravity_refstate-mantle.xmf,487,2.7499e-07,2.3644e-06,0,3.09606e-07,-1.25394e+09,-1.25366e+09,-1.25398e+09,41378.8,-0.00326436,0.0331103,-0,0.0332708,31670.6,-44802.6,0,54866.2,41378.8
step02_gravity_refstate-mantle.xmf,488,5.12987e-07,2.27032e-06,0,2.88403e-07,-1.29707e+09,-1.29684e+09,-1.29714e+09,38545,-0.0037965,0.0294869,-0,0.0297303,33380.5,-46136.3,0,56945.8,38545
step02_gravity_refstate-mantle.xmf,489,1.13017e-06,2.0809e-06,0,1.64768e-07,-1.44411e+09,-1.44398e+09,-1.44426e+09,22021.3,-0.00383834,0.0192101,-0,0.0195898,36608.4,-50681.8,0,62520.5,22021.3
step02_gravity_refstate-mantle.xmf,490,1.47893e-06,2.02076e-06,0,6.86907e-08,-1.55999e+09,-1.55992e+09,-1.56019e+09,9180.51,-0.00267368,0.0118393,-0,0.0121375,38189,-54263.7,0,66354.7,9180.51
step02_gravity_refstate-mantle.xmf,491,1.56958e-06,2.02326e-06,0,6.05964e-10,-1.60243e+09,-1.60237e+09,-1.60264e+09,80.9871,3.37722e-19,0.00917845,0,0.00917845,40000,-55575.3,0,68473.4,80.9871
step02_gravity_refstate-mantle.xmf,492,-4.26613e-06,7.87564e-06,0,2.94802e-06,-1.43018e+09,-1.42856e+09,-1.42961e+09,394003,0.00345469,0.0929189,0,0.0929831,-7704.09,-50230.4,-0,50817.8,394003
step02_gravity_refstate-mantle.xmf,493,6.50883e-08,5.67286e-06,0,-1.26596e-06,-1.52445e+09,-1.5237e+09,-1.52446e+09,-169195,0.0354264,0.0345811,0,0.0495063,-12411,-53165.9,-0,54595.2,169195
step02_gravity_refstate-mantle.xmf,494,-6.26316e-07,6.2539e-06,0,-1.04314e-06,-1.50807e+09,-1.50715e+09,-1.50798e+09,-139416,0.0317622,0.0412241,0,0.052041,-11601.5,-52656.5,-0,53919.4,139416
step02_gravity_refstate-mantle.xmf,495,1.30361e-06,4.89638e-06,0,-1.43073e-06,-1.57399e+09,-1.57351e+09,-1.57416e+09,-191217,0.0439346,0.0236206,0,0.0498817,-13298.5,-54702.3,-0,56295.6,191217
step02_gravity_refstate-mantle.xmf,496,2.36842e-06,4.14071e-06,0,-1.14555e-06,-1.63214e+09,-1.63191e+09,-1.63246e+09,-153102,0.0503713,0.0138448,0,0.0522393,-14182.1,-56503.9,-0,58256.5,153102
step02_gravity_refstate-mantle.xmf,497,2.86987e-06,3.9316e-06,0,-7.91252e-07,-1.6751e+09,-1.67496e+09,-1.67549e+09,-105751,0.0542083,0.00842284,0,0.0548588,-14233.9,-57833.7,-0,59559.5,105751
step02_gravity_refstate-mantle.xmf,498,3.07344e-06,3.65509e-06,0,-3.80625e-07,-1.71184e+09,-1.71176e+09,-1.71225e+09,-50870.6,0.0543368,0.00378332,0,0.0544684,-14835,-58969,-0,60806.4,50870.6
step02_gravity_refstate-mantle.xmf,499,3.07824e-06,3.48551e-06,0,9.81743e-09,-1.74522e+09,-1.74517e+09,-1.74564e+09,1312.1,0.0529265,-6.1651e-20,0,0.0529265,-15465.3,-60000,-0,61961.1,1312.1
step02_gravity_refstate-mantle.xmf,500,4.11105e-06,-7.34992e-06,0,9.36636e-06,-1.33773e+09,-1.33926e+09,-1.33828e+09,1.25181e+06,-0.0174854,0.199386,-0,0.200151,-2306.6,-47391.6,-0,47447.7,1.25181e+06
step02_gravity_refstate-mantle.xmf,501,-4.67139e-06,6.07464e-06,0,7.04602e-06,-1.40142e+09,-1.39999e+09,-1.4008e+09,941700,-0.0117589,0.132594,-0,0.133114,-5637.34,-49334.8,-0,49655.9,941700
step02_gravity_refstate-mantle.xmf,502,-1.03914e-06,-1.21802e-06,0,1.15302e-05,-1.3762e+09,-1.37623e+09,-1.37606e+09,1.54101e+06,-0.0212072,0.182541,-0,0.183769,-3414.78,-48561.4,-0,48681.3,1.54101e+06
step02_gravity_refstate-mantle.xmf,503,-2.82231e-06,1.60874e-06,0,1.07863e-05,-1.38739e+09,-1.38679e+09,-1.38701e+09,1.44159e+06,-0.0199247,0.170041,-0,0.171204,-3952.84,-48902.1,-0,49061.6,1.44159e+06
step02_gravity_refstate-mantle.xmf,504,3.27816e-06,-7.00868e-06,0,1.10701e-05,-1.35748e+09,-1.35886e+09,-1.35792e+09,1.47952e+06,-0.0193184,0.202223,-0,0.203143,-2395.96,-47997.1,-0,48056.9,1.47952e+06
step02_gravity_refstate-mantle.xmf,505,3.3808e-06,-1.73305e-06,0,-2.13305e-06,-1.09813e+09,-1.09882e+09,-1.09858e+09,-285083,0.0184754,0.15658,0,0.157666,4001.3,-40000,0,40199.6,285083
step02_gravity_refstate-mantle.xmf,506,3.43282e-06,-2.0754e-06,0,-2.62446e-06,-1.12538e+09,-1.12611e+09,-1.12584e+09,-350759,0.0157058,0.161005,0,0.161769,3543.28,-40841.1,0,40994.5,350759
step02_gravity_refstate-mantle.xmf,507,6.27923e-06,-9.18027e-06,0,5.02699e-06,-1.30177e+09,-1.30384e+09,-1.30261e+09,671858,-0.0101333,0.200979,-0,0.201234,-1396.71,-46290.8,-0,46311.9,671858
step02_gravity_refstate-mantle.xmf,508,5.74188e-06,-6.98878e-06,0,1.62525e-06,-1.24574e+09,-1.24744e+09,-1.24651e+09,217215,-0.00397914,0.190586,-0,0.190628,-679.283,-44562,-0,44567.2,217215
step02_gravity_refstate-mantle.xmf,509,3.52603e-06,-2.5313e-06,0,-3.00289e-06,-1.15026e+09,-1.15107e+09,-1.15074e+09,-401336,0.0138788,0.165175,0,0.165757,3156.37,-41609.3,0,41728.9,401336
step02_gravity_refstate-mantle.xmf,510,5.81203e-06,-6.91266e-06,0,2.20168e-08,-1.24e+09,-1.24171e+09,-1.24078e+09,2942.54,-1.51597e-07,0.190245,-0,0.190245,0,-44385.5,0,44385.5,2942.54
step02_gravity_refstate-mantle.xmf,511,5.3731e-06,-5.97949e-06,0,-1.17218e-06,-1.22257e+09,-1.22409e+09,-1.22329e+09,-156662,0.0033361,0.186099,0,0.186128,615.412,-43846.4,0,43850.7,156662
step02_gravity_refstate-mantle.xmf,512,4.86384e-06,-4.9222e-06,0,-1.90965e-06,-1.20157e+09,-1.20288e+09,-1.20222e+09,-255224,0.00601952,0.180949,0,0.181049,1192.28,-43196.9,0,43213.3,255224
step02_gravity_refstate-mantle.xmf,513,3.753e-06,-3.12582e-06,0,-3.15079e-06,-1.17399e+09,-1.17491e+09,-1.1745e+09,-421103,0.0121548,0.170125,0,0.170559,2690.89,-42342.3,0,42427.7,421103
step02_gravity_refstate-mantle.xmf,514,4.31768e-06,-4.01113e-06,0,-2.68407e-06,-1.18772e+09,-1.18884e+09,-1.1883e+09,-358726,0.00927717,0.175828,0,0.176072,1944.05,-42767.9,0,42812.1,358726
step02_gravity_refstate-mantle.xmf,515,-3.31181e-07,2.65043e-06,0,2.28952e-07,-1.18079e+09,-1.1804e+09,-1.18075e+09,30599.5,-0.000388537,0.0419493,-0,0.0419511,26936.6,-42539.8,0,50351,30599.5
step02_gravity_refstate-mantle.xmf,516,-7.28817e-07,2.81913e-06,0,5.24846e-08,-1.14564e+09,-1.14516e+09,-1.14554e+09,7014.56,0.00271153,0.0483064,0,0.0483824,24307.5,-41451.6,0,48053,7014.56
step02_gravity_refstate-mantle.xmf,517,-1.02448e-06,2.84142e-06,0,-1.94813e-07,-1.09871e+09,-1.09819e+09,-1.09857e+09,-26036.7,0.00585887,0.0540791,0,0.0543956,23349.5,-40000,0,46316.3,26036.7
step02_gravity_refstate-mantle.xmf,518,9.88638e-07,2.12971e-06,0,2.38567e-07,-1.4074e+09,-1.40724e+09,-1.40753e+09,31884.5,-0.00480516,0.0216988,-0,0.0222244,35194.5,-49547.1,0,60774.7,31884.5
step02_gravity_refstate-mantle.xmf,519,1.36188e-06,2.04037e-06,0,1.45916e-07,-1.51446e+09,-1.51437e+09,-1.51464e+09,19501.7,-0.0045937,0.0147277,-0,0.0154274,36614.1,-52856.6,0,64299.4,19501.7
step02_gravity_refstate-mantle.xmf,520,1.62817e-06,2.03697e-06,0,5.71944e-08,-1.63205e+09,-1.63199e+09,-1.63227e+09,7644.04,-0.00351868,0.0073248,-0,0.00812612,37832.6,-56490.6,0,67988.9,7644.04
step02_gravity_refstate-mantle.xmf,521,1.67642e-06,2.06401e-06,0,3.91315e-11,-1.67401e+09,-1.67395e+09,-1.67423e+09,5.22992,2.68021e-19,0.00466135,0,0.00466135,40000,-57787,0,70280.4,5.22992
step02_gravity_refstate-mantle.xmf,522,-3.70616e-06,7.9209e-06,0,1.77485e-06,-1.44417e+09,-1.44262e+09,-1.44368e+09,237209,0.00963492,0.0805728,0,0.0811468,-8429.52,-50666.5,-0,51362.9,237209
step02_gravity_refstate-mantle.xmf,523,-1.42012e-06,6.83901e-06,0,-6.23193e-07,-1.49088e+09,-1.48978e+09,-1.49069e+09,-83289.8,0.027007,0.0494789,0,0.0563697,-10759.1,-52121.9,-0,53220.8,83289.8
step02_gravity_refstate-mantle.xmf,524,-2.23275e-06,7.34662e-06,0,-1.5215e-08,-1.47441e+09,-1.47313e+09,-1.47411e+09,-2033.49,0.0215884,0.0588291,0,0.0626651,-9951.86,-51608.8,-0,52559.6,2033.49
step02_gravity_refstate-mantle.xmf,525,-3.00938e-06,7.72542e-06,0,7.8066e-07,-1.45897e+09,-1.45753e+09,-1.45856e+09,104335,0.0157656,0.0691697,0,0.0709436,-9177.79,-51127.6,-0,51944.8,104335
step02_gravity_refstate-mantle.xmf,526,7.0961e-07,5.52158e-06,0,-1.42407e-06,-1.55548e+09,-1.55484e+09,-1.55558e+09,-190327,0.0415622,0.0292938,0,0.0508483,-12381.6,-54128.2,-0,55526.2,190327
step02_gravity_refstate-mantle.xmf,527,1.96673e-06,4.67157e-06,0,-1.34485e-06,-1.60984e+09,-1.60948e+09,-1.6101e+09,-179739,0.0495314,0.0183592,0,0.0528244,-13272.8,-55813.6,-0,57370,179739
step02_gravity_refstate-mantle.xmf,528,-4.05723e-06,3.93975e-06,0,9.54396e-06,-1.39802e+09,-1.39695e+09,-1.39748e+09,1.27555e+06,-0.0171884,0.156335,-0,0.157277,-4513.42,-49228.3,-0,49434.8,1.27555e+06
step02_gravity_refstate-mantle.xmf,529,-4.66845e-06,8.35026e-06,0,3.50258e-06,-1.44378e+09,-1.44204e+09,-1.44316e+09,468119,0.00355258,0.0993737,0,0.0994372,-7006.78,-50649,-0,51131.4,468119
step02_gravity_refstate-mantle.xmf,530,-5.0333e-06,7.91469e-06,0,4.95307e-06,-1.4319e+09,-1.43017e+09,-1.43123e+09,661978,-0.00257262,0.113292,-0,0.113321,-6332.91,-50278.5,-0,50675.8,661978
step02_gravity_refstate-mantle.xmf,531,-4.80456e-06,5.7667e-06,0,8.0603e-06,-1.4092e+09,-1.40779e+09,-1.40856e+09,1.07726e+06,-0.0131779,0.142003,-0,0.142613,-5094.65,-49573.4,-0,49834.5,1.07726e+06
step02_gravity_refstate-mantle.xmf,532,-5.11123e-06,7.08444e-06,0,6.50467e-06,-1.42083e+09,-1.4192e+09,-1.42015e+09,869349,-0.00818811,0.127642,-0,0.127904,-5690.18,-49934,-0,50257.1,869349
step02_gravity_refstate-mantle.xmf,533,-1.63765e-07,-3.27791e-06,0,1.29035e-05,-1.38629e+09,-1.3867e+09,-1.38626e+09,1.72456e+06,-0.0216782,0.195612,-0,0.19681,-2897.61,-48873.4,-0,48959.2,1.72456e+06
step02_gravity_refstate-mantle.xmf,534,2.35729e-06,-6.85241e-06,0,1.27227e-05,-1.37708e+09,-1.37831e+09,-1.37739e+09,1.70038e+06,-0.0207308,0.206329,-0,0.207368,-2400.46,-48596.7,-0,48656,1.70038e+06
step02_gravity_refstate-mantle.xmf,535,2.68843e-06,-1.38893e-06,0,-3.03151e-06,-1.12669e+09,-1.12723e+09,-1.12705e+09,-405162,0.0185656,0.154674,0,0.155784,4488.01,-40878.4,0,41124,405162
step02_gravity_refstate-mantle.xmf,536,2.52852e-06,-1.02344e-06,0,-2.39892e-06,-1.09826e+09,-1.09873e+09,-1.0986e+09,-320616,0.0215134,0.149784,0,0.151321,5026.7,-40000,0,40314.6,320616
step02_gravity_refstate-mantle.xmf,537,6.29234e-06,-8.3142e-06,0,2.07821e-06,-1.2684e+09,-1.27035e+09,-1.26924e+09,277753,-0.00468012,0.195748,-0,0.195804,-727.775,-45262.2,-0,45268.1,277753
step02_gravity_refstate-mantle.xmf,538,6.95445e-06,-9.65717e-06,0,2.64179e-06,-1.29134e+09,-1.29356e+09,-1.29227e+09,353075,-0.00555907,0.201895,-0,0.201971,-774.03,-45971.7,-0,45978.2,353075
step02_gravity_refstate-mantle.xmf,539,6.83018e-06,-1.06745e-05,0,6.17991e-06,-1.32392e+09,-1.32626e+09,-1.32483e+09,825946,-0.0113168,0.207919,-0,0.208226,-1380.64,-46974.7,-0,46994.9,825946
step02_gravity_refstate-mantle.xmf,540,7.55771e-06,-1.12278e-05,0,3.8332e-06,-1.31325e+09,-1.31576e+09,-1.31426e+09,512307,-0.00715037,0.208367,-0,0.208489,-886.02,-46648.5,-0,46656.9,512307
step02_gravity_refstate-mantle.xmf,541,1.15534e-07,2.52707e-06,0,3.97683e-07,-1.25471e+09,-1.25439e+09,-1.25472e+09,53150.3,-0.00394276,0.03471,-0,0.0349332,28501.7,-44825.7,0,53119.6,53150.3
step02_gravity_refstate-mantle.xmf,542,-4.152e-07,2.7735e-06,0,2.58368e-07,-1.19629e+09,-1.19587e+09,-1.19624e+09,34530.8,-0.000556972,0.0425339,-0,0.0425375,25285.3,-43018.4,0,49899.2,34530.8
step02_gravity_refstate-mantle.xmf,543,-1.23657e-07,2.64691e-06,0,3.59697e-07,-1.22768e+09,-1.22731e+09,-1.22766e+09,48073.5,-0.00264711,0.0381272,-0,0.038219,26918.7,-43989.5,0,51572.2,48073.5
step02_gravity_refstate-mantle.xmf,544,-1.21727e-06,2.94708e-06,0,-3.0921e-07,-1.09874e+09,-1.09818e+09,-1.09858e+09,-41326,0.0077326,0.0576115,0,0.0581281,21670.5,-40000,0,45493,41326
step02_gravity_refstate-mantle.xmf,545,-9.05922e-07,2.96579e-06,0,-1.56708e-08,-1.15214e+09,-1.15163e+09,-1.15202e+09,-2094.41,0.00384487,0.0509938,0,0.0511385,22470.7,-41651.8,0,47326.6,2094.41
step02_gravity_refstate-mantle.xmf,546,-1.39608e-06,3.02723e-06,0,-4.49335e-07,-1.09877e+09,-1.09818e+09,-1.09858e+09,-60053.6,0.00982506,0.0617407,0,0.0625176,20065.1,-40000,0,44750.5,60053.6
step02_gravity_refstate-mantle.xmf,547,-1.15026e-06,3.07148e-06,0,-2.04444e-07,-1.13993e+09,-1.13936e+09,-1.13977e+09,-27324,0.00637977,0.0560166,0,0.0563787,20751.2,-41273.1,0,46196.1,27324
step02_gravity_refstate-mantle.xmf,548,3.38327e-07,2.41599e-06,0,4.00488e-07,-1.284e+09,-1.28372e+09,-1.28404e+09,53525.3,-0.00481847,0.0315841,-0,0.0319496,30068.1,-45731.7,0,54731,53525.3
step02_gravity_refstate-mantle.xmf,549,8.25129e-07,2.20174e-06,0,3.23128e-07,-1.37158e+09,-1.37139e+09,-1.37169e+09,43186.1,-0.00565686,0.0243274,-0,0.0249765,33422.7,-48439.7,0,58851.4,43186.1
step02_gravity_refstate-mantle.xmf,550,6.14523e-07,2.30504e-06,0,3.9743e-07,-1.3332e+09,-1.33297e+09,-1.33328e+09,53116.5,-0.00595173,0.0274594,-0,0.028097,31459.5,-47253,0,56767.5,53116.5
step02_gravity_refstate-mantle.xmf,551,1.24415e-06,2.07619e-06,0,2.27217e-07,-1.47689e+09,-1.47678e+09,-1.47705e+09,30367.5,-0.00600417,0.0171833,-0,0.0182021,35165.3,-51695.2,0,62521.9,30367.5
step02_gravity_refstate-mantle.xmf,552,1.5321e-06,2.02834e-06,0,1.19025e-07,-1.57678e+09,-1.57671e+09,-1.57698e+09,15907.7,-0.00525189,0.01081,-0,0.0120183,36545,-54782.6,0,65853.4,15907.7
step02_gravity_refstate-mantle.xmf,553,1.69813e-06,2.08408e-06,0,2.0914e-08,-1.69418e+09,-1.69412e+09,-1.6944e+09,2795.16,-0.00277049,0.00336764,-0,0.0043608,38364.9,-58410.3,0,69883,2795.16
step02_gravity_refstate-mantle.xmf,554,1.70992e-06,2.15288e-06,0,-5.64973e-09,-1.74563e+09,-1.74557e+09,-1.74586e+09,-755.087,-1.25007e-18,-3.28273e-19,-0,1.29246e-18,40000,-60000,0,72111,755.087
step02_gravity_refstate-mantle.xmf,555,-4.0852e-06,8.47136e-06,0,2.20196e-06,-1.45727e+09,-1.45559e+09,-1.45673e+09,294292,0.0100566,0.0861938,0,0.0867785,-7693.48,-51070,-0,51646.3,294292
step02_gravity_refstate-mantle.xmf,556,6.05103e-08,6.12993e-06,0,-1.28702e-06,-1.53851e+09,-1.5377e+09,-1.53852e+09,-172010,0.038409,0.0355966,0,0.0523677,-11552.5,-53601.2,-0,54832,172010
step02_gravity_refstate-mantle.xmf,557,-7.3403e-07,6.79734e-06,0,-1.01638e-06,-1.5215e+09,-1.52049e+09,-1.5214e+09,-135839,0.034248,0.0431827,0,0.0551151,-10728.7,-53072.1,-0,54145.7,135839
step02_gravity_refstate-mantle.xmf,558,1.42111e-06,5.31081e-06,0,-1.44488e-06,-1.58849e+09,-1.58797e+09,-1.58868e+09,-193108,0.0477021,0.0238197,0,0.0533186,-12357.8,-55152.1,-0,56519.7,193108
step02_gravity_refstate-mantle.xmf,559,2.61467e-06,4.49373e-06,0,-1.08742e-06,-1.65014e+09,-1.64989e+09,-1.65049e+09,-145333,0.055013,0.0128747,0,0.0564995,-13121.5,-57062.4,-0,58551.6,145333
step02_gravity_refstate-mantle.xmf,560,3.18237e-06,4.05833e-06,0,-3.84228e-07,-1.71436e+09,-1.71424e+09,-1.71479e+09,-51352.1,0.0579487,0.00387668,0,0.0580782,-13708.9,-59048.8,-0,60619.3,51352.1
step02_gravity_refstate-mantle.xmf,561,3.20025e-06,3.85859e-06,0,8.27205e-09,-1.74517e+09,-1.74508e+09,-1.7456e+09,1105.56,0.0566613,-6.34295e-20,0,0.0566613,-14275.5,-60000,-0,61674.9,1105.56
step02_gravity_refstate-mantle.xmf,562,5.79678e-06,-9.73099e-06,0,8.11536e-06,-1.33482e+09,-1.3369e+09,-1.3356e+09,1.08462e+06,-0.0147094,0.206432,-0,0.206955,-1789.99,-47307,-0,47340.8,1.08462e+06
step02_gravity_refstate-mantle.xmf,563,5.51675e-06,-9.98484e-06,0,9.84779e-06,-1.35167e+09,-1.35374e+09,-1.35241e+09,1.31616e+06,-0.0165745,0.210262,-0,0.210914,-1875.08,-47824.9,-0,47861.7,1.31616e+06
step02_gravity_refstate-mantle.xmf,564,-2.32792e-06,1.03497e-07,0,1.22549e-05,-1.39661e+09,-1.39629e+09,-1.3963e+09,1.63786e+06,-0.0209493,0.182978,-0,0.184174,-3411.27,-49186.5,-0,49304.7,1.63786e+06
step02_gravity_refstate-mantle.xmf,565,-3.93934e-06,3.02899e-06,0,1.09716e-05,-1.40777e+09,-1.40684e+09,-1.40724e+09,1.46636e+06,-0.0184743,0.168642,-0,0.169651,-3950.72,-49527.9,-0,49685.2,1.46636e+06
step02_gravity_refstate-mantle.xmf,566,5.08843e-06,-1.02992e-05,0,1.1751e-05,-1.36959e+09,-1.37165e+09,-1.37027e+09,1.57052e+06,-0.0182825,0.21547,-0,0.216244,-1897.79,-48374.8,-0,48412,1.57052e+06
step02_gravity_refstate-mantle.xmf,567,2.81481e-06,-1.78604e-06,0,-3.49352e-06,-1.15307e+09,-1.15368e+09,-1.15344e+09,-466909,0.0166023,0.159352,0,0.160214,4025.72,-41693,0,41886.9,466909
step02_gravity_refstate-mantle.xmf,568,1.80181e-06,-5.57378e-07,0,-3.35246e-06,-1.13212e+09,-1.13243e+09,-1.13236e+09,-448056,0.0206911,0.14678,0,0.148231,5531.57,-41042.2,0,41413.3,448056
step02_gravity_refstate-mantle.xmf,569,6.44315e-06,-8.27402e-06,0,2.06906e-08,-1.2644e+09,-1.26636e+09,-1.26526e+09,2765.3,-4.73203e-08,0.195958,-0,0.195958,0,-45139.6,0,45139.6,2765.3
step02_gravity_refstate-mantle.xmf,570,2.99923e-06,-2.31578e-06,0,-3.84871e-06,-1.17512e+09,-1.17583e+09,-1.17552e+09,-514380,0.0152188,0.163971,0,0.164675,3595.49,-42374.2,0,42526.5,514380
step02_gravity_refstate-mantle.xmf,571,5.78672e-06,-6.9965e-06,0,-1.55064e-06,-1.24603e+09,-1.24773e+09,-1.2468e+09,-207244,0.00396224,0.190659,0,0.190701,675.578,-44571.1,0,44576.2,207244
step02_gravity_refstate-mantle.xmf,572,5.11572e-06,-5.80899e-06,0,-2.55336e-06,-1.23006e+09,-1.23152e+09,-1.23074e+09,-341256,0.00702798,0.185252,0,0.185386,1297.88,-44076.3,0,44095.4,341256
step02_gravity_refstate-mantle.xmf,573,3.79441e-06,-3.64443e-06,0,-3.72462e-06,-1.20176e+09,-1.20275e+09,-1.20226e+09,-497795,0.0121942,0.173549,0,0.173977,2609.7,-43198.8,0,43277.6,497795
step02_gravity_refstate-mantle.xmf,574,4.43302e-06,-4.6575e-06,0,-3.25257e-06,-1.21473e+09,-1.21595e+09,-1.21533e+09,-434705,0.0097649,0.179418,0,0.179684,1948.32,-43601.4,0,43644.9,434705
step02_gravity_refstate-mantle.xmf,575,7.73233e-06,-1.10886e-05,0,1.78298e-06,-1.30386e+09,-1.30638e+09,-1.3049e+09,238296,-0.00340026,0.20716,-0,0.207188,-434.994,-46360.2,-0,46362.2,238296
step02_gravity_refstate-mantle.xmf,576,-6.14853e-07,2.89714e-06,0,1.82153e-07,-1.187e+09,-1.18653e+09,-1.18691e+09,24344.8,0.000797587,0.0456367,0,0.0456437,23688.1,-42730.2,0,48856.9,24344.8
step02_gravity_refstate-mantle.xmf,577,-1.31903e-06,3.14863e-06,0,-3.6949e-07,-1.13787e+09,-1.13727e+09,-1.13769e+09,-49382.3,0.00835572,0.0603552,0,0.0609309,19265.4,-41208.5,0,45489.5,49382.3
step02_gravity_refstate-mantle.xmf,578,-1.54288e-06,3.08855e-06,0,-6.2801e-07,-1.0988e+09,-1.09818e+09,-1.09859e+09,-83933.6,0.0120868,0.0665001,0,0.0675896,18528.8,-40000,0,44083.1,83933.6
step02_gravity_refstate-mantle.xmf,579,-1.65112e-06,3.10475e-06,0,-8.31112e-07,-1.09882e+09,-1.09818e+09,-1.0986e+09,-111078,0.0144503,0.0719109,0,0.0733484,17057.5,-40000,0,43485.2,111078
step02_gravity_refstate-mantle.xmf,580,-1.69798e-06,3.06618e-06,0,-1.05957e-06,-1.09883e+09,-1.0982e+09,-1.09861e+09,-141611,0.0168348,0.0779772,0,0.0797738,15647.1,-40000,0,42951.5,141611
step02_gravity_refstate-mantle.xmf,581,-1.56026e-06,3.23512e-06,0,-8.4945e-07,-1.13603e+09,-1.13539e+09,-1.13582e+09,-113529,0.012734,0.0712009,0,0.0723306,16351.4,-41150.3,0,44280,113529
step02_gravity_refstate-mantle.xmf,582,-1.45342e-06,3.22238e-06,0,-5.84922e-07,-1.13876e+09,-1.13814e+09,-1.13857e+09,-78174.9,0.0103608,0.0652561,0,0.0660735,17775.5,-41235.4,0,44903.5,78174.9
step02_gravity_refstate-mantle.xmf,583,-1.66423e-06,2.95921e-06,0,-1.30789e-06,-1.09884e+09,-1.09822e+09,-1.09861e+09,-174799,0.0191451,0.0846825,0,0.0868197,14293.4,-40000,0,42477.1,174799
step02_gravity_refstate-mantle.xmf,584,-1.60066e-06,3.1957e-06,0,-1.15249e-06,-1.13601e+09,-1.13537e+09,-1.1358e+09,-154031,0.0149342,0.0776513,0,0.0790744,14970.3,-41149.4,0,43787.9,154031
step02_gravity_refstate-mantle.xmf,585,-1.53904e-06,2.77561e-06,0,-1.57082e-06,-1.09882e+09,-1.09825e+09,-1.09862e+09,-209941,0.0212694,0.0919876,0,0.0944145,12992.6,-40000,0,42057.2,209941
step02_gravity_refstate-mantle.xmf,586,-1.55585e-06,3.0924e-06,0,-1.55281e-06,-1.14061e+09,-1.13999e+09,-1.1404e+09,-207533,0.016911,0.0853232,0,0.0869829,13479,-41291.5,0,43435.8,207533
step02_gravity_refstate-mantle.xmf,587,1.69466e-06,-2.73843e-07,0,-2.51232e-06,-1.09838e+09,-1.09864e+09,-1.0986e+09,-335772,0.0237121,0.142125,0,0.144089,6071.51,-40000,0,40458.2,335772
step02_gravity_refstate-mantle.xmf,588,-1.30621e-06,2.50279e-06,0,-1.82988e-06,-1.0988e+09,-1.09829e+09,-1.09862e+09,-244563,0.023099,0.0998211,0,0.102459,11740.6,-40000,0,41687.4,244563
step02_gravity_refstate-mantle.xmf,589,-1.39808e-06,2.8173e-06,0,-1.88606e-06,-1.13067e+09,-1.1301e+09,-1.13048e+09,-252072,0.0196769,0.0941726,0,0.0962063,12202.9,-40984.7,0,42762.8,252072
step02_gravity_refstate-mantle.xmf,590,1.11371e-06,2.13375e-06,0,3.21085e-07,-1.44215e+09,-1.44201e+09,-1.4423e+09,42913.1,-0.00733267,0.0195909,-0,0.0209182,33469.7,-50621.4,0,60685.7,42913.1
step02_gravity_refstate-mantle.xmf,591,1.46505e-06,2.04358e-06,0,1.95634e-07,-1.54596e+09,-1.54588e+09,-1.54615e+09,26146.4,-0.00715967,0.0127912,-0,0.0146586,35056.5,-53830.2,0,64238.9,26146.4
step02_gravity_refstate-mantle.xmf,592,1.64037e-06,2.04228e-06,0,1.29127e-07,-1.62308e+09,-1.62302e+09,-1.6233e+09,17257.9,-0.00761086,0.00791801,-0,0.0109827,35297.4,-56213.6,0,66376.7,17257.9
step02_gravity_refstate-mantle.xmf,593,1.71171e-06,2.08111e-06,0,4.98998e-08,-1.68823e+09,-1.68818e+09,-1.68846e+09,6669.11,-0.00593826,0.00375683,-0,0.00702686,36499.6,-58226.8,0,68721,6669.11
step02_gravity_refstate-mantle.xmf,594,1.72217e-06,2.15329e-06,0,-4.72104e-09,-1.74563e+09,-1.74557e+09,-1.74586e+09,-630.967,-0.00406002,-3.6617e-19,-0,0.00406002,37633.6,-60000,0,70825.7,630.967
step02_gravity_refstate-mantle.xmf,595,-3.33022e-06,8.33756e-06,0,1.06358e-06,-1.47304e+09,-1.47148e+09,-1.47259e+09,142148,0.0169011,0.0737259,0,0.0756383,-8390.52,-51561.7,-0,52239.9,142148
step02_gravity_refstate-mantle.xmf,596,-1.59382e-06,7.42439e-06,0,-5.40095e-07,-1.50474e+09,-1.50354e+09,-1.50453e+09,-72183.7,0.029148,0.0521104,0,0.0597084,-9920.53,-52550.4,-0,53478.6,72183.7
step02_gravity_refstate-mantle.xmf,597,-2.48086e-06,7.96652e-06,0,1.46525e-07,-1.48881e+09,-1.48742e+09,-1.48848e+09,19583.1,0.0233526,0.0622891,0,0.0665227,-9135.99,-52053.8,-0,52849.5,19583.1
step02_gravity_refstate-mantle.xmf,598,7.82318e-07,5.98202e-06,0,-1.43176e-06,-1.56973e+09,-1.56904e+09,-1.56984e+09,-191355,0.0450686,0.0299022,0,0.0540862,-11508.3,-54570.1,-0,55770.4,191355
step02_gravity_refstate-mantle.xmf,599,2.07939e-06,5.10689e-06,0,-1.32505e-06,-1.62132e+09,-1.62092e+09,-1.6216e+09,-177093,0.0531395,0.0185888,0,0.056297,-12328.4,-56170.2,-0,57507.2,177093
step02_gravity_refstate-mantle.xmf,600,3.03871e-06,4.3284e-06,0,-7.16635e-07,-1.68704e+09,-1.68686e+09,-1.68744e+09,-95778.3,0.0581727,0.00774873,0,0.0586865,-13180.3,-58204.4,-0,59678.1,95778.3
step02_gravity_refstate-mantle.xmf,601,-4.92638e-06,5.31906e-06,0,9.34171e-06,-1.41919e+09,-1.41782e+09,-1.41853e+09,1.24852e+06,-0.0144923,0.153403,-0,0.154086,-4509.8,-49879.9,-0,50083.4,1.24852e+06
step02_gravity_refstate-mantle.xmf,602,-4.4529e-06,9.00895e-06,0,2.76167e-06,-1.46911e+09,-1.46731e+09,-1.46852e+09,369097,0.0103203,0.0928122,0,0.0933842,-6989.49,-51434.7,-0,51907.5,369097
step02_gravity_refstate-mantle.xmf,603,-5.04905e-06,8.77719e-06,0,4.22002e-06,-1.45603e+09,-1.45418e+09,-1.45535e+09,564005,0.00345074,0.107117,0,0.107173,-6329.2,-51025.9,-0,51416.9,564005
step02_gravity_refstate-mantle.xmf,604,-5.38636e-06,8.13849e-06,0,5.86025e-06,-1.44361e+09,-1.4418e+09,-1.44289e+09,783223,-0.00316442,0.12228,-0,0.122321,-5690.05,-50638.5,-0,50957.2,783223
step02_gravity_refstate-mantle.xmf,605,-5.37769e-06,7.00441e-06,0,7.60072e-06,-1.43121e+09,-1.42956e+09,-1.4305e+09,1.01584e+06,-0.00927911,0.137833,-0,0.138145,-5086.81,-50252.7,-0,50509.5,1.01584e+06
step02_gravity_refstate-mantle.xmf,606,-1.56771e-06,-1.94879e-06,0,1.39471e-05,-1.40575e+09,-1.4058e+09,-1.40554e+09,1.86403e+06,-0.0217147,0.197519,-0,0.198709,-2884.68,-49468.6,-0,49552.6,1.86403e+06
step02_gravity_refstate-mantle.xmf,607,1.15115e-06,-6.12959e-06,0,1.44472e-05,-1.39612e+09,-1.3971e+09,-1.39628e+09,1.93087e+06,-0.0217566,0.210375,-0,0.211497,-2390.08,-49178.8,-0,49236.8,1.93087e+06
step02_gravity_refstate-mantle.xmf,608,4.36224e-06,-1.06205e-05,0,1.37781e-05,-1.38768e+09,-1.38968e+09,-1.38826e+09,1.84144e+06,-0.0198577,0.221392,-0,0.22228,-1893.18,-48927.9,-0,48964.5,1.84144e+06
step02_gravity_refstate-mantle.xmf,609,2.17817e-06,-1.08191e-06,0,-3.69768e-06,-1.15144e+09,-1.15188e+09,-1.15173e+09,-494195,0.0185968,0.153124,0,0.154249,4811.06,-41640.4,0,41917.4,494195
step02_gravity_refstate-mantle.xmf,610,7.25825e-06,-1.0055e-05,0,-6.95908e-08,-1.2876e+09,-1.28992e+09,-1.28857e+09,-9300.81,-8.89185e-08,0.202471,-0,0.202471,0,-45857.4,0,45857.4,9300.81
step02_gravity_refstate-mantle.xmf,611,3.22863e-06,-2.84324e-06,0,-4.0473e-06,-1.19353e+09,-1.19434e+09,-1.19396e+09,-540921,0.0141938,0.168292,0,0.16889,3219.06,-42943,0,43063.5,540921
step02_gravity_refstate-mantle.xmf,612,7.31658e-06,-1.2263e-05,0,7.76847e-06,-1.34497e+09,-1.34758e+09,-1.34594e+09,1.03826e+06,-0.0128664,0.215309,-0,0.215693,-1385.68,-47624,-0,47644.2,1.03826e+06
step02_gravity_refstate-mantle.xmf,613,8.39663e-06,-1.31532e-05,0,4.99395e-06,-1.33423e+09,-1.33711e+09,-1.33535e+09,667442,-0.00839223,0.216075,-0,0.216238,-913.69,-47297.4,-0,47306.2,667442
step02_gravity_refstate-mantle.xmf,614,8.61886e-06,-1.28939e-05,0,2.27214e-06,-1.32239e+09,-1.32527e+09,-1.32354e+09,303672,-0.00392452,0.213997,-0,0.214033,-447.965,-46933.8,-0,46936,303672
step02_gravity_refstate-mantle.xmf,615,3.85056e-07,2.48319e-06,0,4.9147e-07,-1.3101e+09,-1.30982e+09,-1.31015e+09,65685,-0.00653354,0.0304375,-0,0.0311308,28472.4,-46538.4,0,54557.3,65685
step02_gravity_refstate-mantle.xmf,616,1.45287e-07,2.61507e-06,0,4.83849e-07,-1.28159e+09,-1.28126e+09,-1.28161e+09,64666.5,-0.00548996,0.0337239,-0,0.0341679,26938.5,-45656.5,0,53011.3,64666.5
step02_gravity_refstate-mantle.xmf,617,-1.22094e-07,2.75838e-06,0,4.32971e-07,-1.25398e+09,-1.2536e+09,-1.25397e+09,57866.6,-0.0039256,0.0374939,-0,0.0376989,25374.6,-44802.3,0,51489,57866.6
step02_gravity_refstate-mantle.xmf,618,-9.10495e-07,3.12696e-06,0,2.47416e-08,-1.18739e+09,-1.18685e+09,-1.18727e+09,3306.71,0.0027805,0.0507609,0,0.050837,21042.1,-42741,0,47639.9,3306.71
step02_gravity_refstate-mantle.xmf,619,-3.8098e-07,2.89491e-06,0,3.45015e-07,-1.23099e+09,-1.23055e+09,-1.23094e+09,46111.2,-0.00210227,0.0413844,-0,0.0414378,23892,-44090.7,0,50147.9,46111.2
step02_gravity_refstate-mantle.xmf,620,-6.48152e-07,3.01902e-06,0,2.07622e-07,-1.20809e+09,-1.2076e+09,-1.20801e+09,27748.6,0.000183762,0.045817,0,0.0458174,22470.4,-43381.9,0,48856,27748.6
step02_gravity_refstate-mantle.xmf,621,-1.1171e-06,3.18918e-06,0,-1.58346e-07,-1.17059e+09,-1.17001e+09,-1.17044e+09,-21163,0.00518801,0.0553034,0,0.0555463,19898.8,-42220.6,0,46674.9,21163
step02_gravity_refstate-mantle.xmf,622,8.86761e-07,4.35357e-07,0,-2.52953e-06,-1.09849e+09,-1.09855e+09,-1.09861e+09,-338072,0.0250598,0.133875,0,0.1362,7140.25,-40000,0,40632.3,338072
step02_gravity_refstate-mantle.xmf,623,1.03569e-06,2.51959e-07,0,-3.25328e-06,-1.12864e+09,-1.12875e+09,-1.12878e+09,-434801,0.0224068,0.137748,0,0.139558,6621.94,-40931.9,0,41464.1,434801
step02_gravity_refstate-mantle.xmf,624,-9.48332e-07,2.12991e-06,0,-2.0767e-06,-1.09875e+09,-1.09834e+09,-1.09862e+09,-277552,0.0245071,0.108081,0,0.110824,10533.4,-40000,0,41363.7,277552
step02_gravity_refstate-mantle.xmf,625,-1.16027e-06,2.52164e-06,0,-2.21316e-06,-1.12899e+09,-1.1285e+09,-1.12883e+09,-295789,0.0212725,0.101966,0,0.104161,11086.5,-40933.7,0,42408.5,295789
step02_gravity_refstate-mantle.xmf,626,-1.48416e-06,3.12424e-06,0,-1.94125e-06,-1.16378e+09,-1.16316e+09,-1.16358e+09,-259449,0.0166385,0.0902216,0,0.091743,12341.1,-42007.7,0,43783,259449
step02_gravity_refstate-mantle.xmf,627,5.6157e-07,2.37992e-06,0,4.65351e-07,-1.33323e+09,-1.33299e+09,-1.33331e+09,62194.2,-0.00689397,0.0280221,-0,0.0288577,29871.2,-47253.9,0,55903.6,62194.2
step02_gravity_refstate-mantle.xmf,628,9.56268e-07,2.21736e-06,0,4.14343e-07,-1.40823e+09,-1.40806e+09,-1.40836e+09,55376.9,-0.00825142,0.0221528,-0,0.0236396,31690.1,-49572.8,0,58836.5,55376.9
step02_gravity_refstate-mantle.xmf,629,1.36231e-06,2.08258e-06,0,2.92712e-07,-1.50935e+09,-1.50926e+09,-1.50954e+09,39121,-0.00885717,0.0152148,-0,0.0176051,33428.6,-52698.9,0,62407.1,39121
step02_gravity_refstate-mantle.xmf,630,-3.67339e-06,8.93551e-06,0,1.51229e-06,-1.48384e+09,-1.48216e+09,-1.48335e+09,202118,0.0173661,0.0795816,0,0.0814544,-7648.98,-51894.8,-0,52455.5,202118
step02_gravity_refstate-mantle.xmf,631,5.80084e-08,6.6708e-06,0,-1.26367e-06,-1.55231e+09,-1.55143e+09,-1.55232e+09,-168889,0.0415753,0.0369692,0,0.0556348,-10684.2,-54029,-0,55075.2,168889
step02_gravity_refstate-mantle.xmf,632,-8.02257e-07,7.39434e-06,0,-9.48877e-07,-1.53553e+09,-1.53443e+09,-1.53542e+09,-126817,0.037118,0.045224,0,0.058506,-9891.78,-53506.5,-0,54413.1,126817
step02_gravity_refstate-mantle.xmf,633,1.5223e-06,5.7882e-06,0,-1.4214e-06,-1.60131e+09,-1.60074e+09,-1.60151e+09,-189970,0.0513283,0.0242473,0,0.0567673,-11475.9,-55550,-0,56723,189970
step02_gravity_refstate-mantle.xmf,634,2.54769e-06,5.05584e-06,0,-1.13045e-06,-1.64891e+09,-1.64857e+09,-1.64925e+09,-151085,0.0573499,0.0145827,0,0.0591749,-12161.4,-57025.2,-0,58307.6,151085
step02_gravity_refstate-mantle.xmf,635,2.99897e-06,4.86262e-06,0,-8.08695e-07,-1.68083e+09,-1.68058e+09,-1.68123e+09,-108082,0.0606376,0.00961096,0,0.0613945,-12202.6,-58013.7,-0,59283.2,108082
step02_gravity_refstate-mantle.xmf,636,3.25569e-06,4.66905e-06,0,-4.26131e-07,-1.71285e+09,-1.71267e+09,-1.71329e+09,-56952.4,0.0619426,0.00466007,0,0.0621176,-12450.7,-59004.3,-0,60303.6,56952.4
step02_gravity_refstate-mantle.xmf,637,3.30495e-06,4.31535e-06,0,1.2927e-08,-1.74511e+09,-1.74497e+09,-1.74555e+09,1727.7,0.060344,-8.41916e-20,0,0.060344,-13142.2,-60000,-0,61422.4,1727.7
step02_gravity_refstate-mantle.xmf,638,7.63318e-06,-1.36597e-05,0,9.75501e-06,-1.36351e+09,-1.36635e+09,-1.36453e+09,1.30376e+06,-0.0145872,0.222457,-0,0.222935,-1402.25,-48195.3,-0,48215.7,1.30376e+06
step02_gravity_refstate-mantle.xmf,639,-3.60853e-06,1.65936e-06,0,1.26588e-05,-1.41682e+09,-1.41611e+09,-1.41633e+09,1.69184e+06,-0.0196902,0.182873,-0,0.18393,-3395.05,-49806.1,-0,49921.6,1.69184e+06
step02_gravity_refstate-mantle.xmf,640,-4.91855e-06,4.5717e-06,0,1.08913e-05,-1.42916e+09,-1.42789e+09,-1.4285e+09,1.45562e+06,-0.0157448,0.166785,-0,0.167526,-3926.08,-50186.1,-0,50339.4,1.45562e+06
step02_gravity_refstate-mantle.xmf,641,7.58866e-06,-1.45829e-05,0,1.1947e-05,-1.38032e+09,-1.38328e+09,-1.38133e+09,1.59672e+06,-0.0163034,0.229582,-0,0.23016,-1412.56,-48712,-0,48732.5,1.59672e+06
step02_gravity_refstate-mantle.xmf,642,2.0946e-06,-1.29728e-06,0,-4.34335e-06,-1.17928e+09,-1.17973e+09,-1.17956e+09,-580488,0.0177013,0.156149,0,0.157149,4573.07,-42499.2,0,42744.5,580488
step02_gravity_refstate-mantle.xmf,643,1.45268e-06,-4.16415e-07,0,-4.14919e-06,-1.16686e+09,-1.16711e+09,-1.16705e+09,-554539,0.0194861,0.147647,0,0.148927,5490.67,-42113.4,0,42469.8,554539
step02_gravity_refstate-mantle.xmf,644,8.15979e-06,-1.18171e-05,0,7.60695e-08,-1.30967e+09,-1.31234e+09,-1.31076e+09,10166.7,-1.25539e-07,0.209877,-0,0.209877,0,-46540.5,0,46540.5,10166.7
step02_gravity_refstate-mantle.xmf,645,6.30321e-06,-8.17189e-06,0,-2.01416e-06,-1.26839e+09,-1.27032e+09,-1.26923e+09,-269192,0.00468001,0.195748,0,0.195804,727.775,-45262.2,0,45268.1,269192
step02_gravity_refstate-mantle.xmf,646,2.50999e-06,-2.07664e-06,0,-4.64177e-06,-1.20041e+09,-1.20102e+09,-1.20074e+09,-620372,0.0162615,0.163099,0,0.163907,3908.55,-43152.6,0,43329.2,620372
step02_gravity_refstate-mantle.xmf,647,5.46017e-06,-6.78077e-06,0,-3.19609e-06,-1.2549e+09,-1.25654e+09,-1.25563e+09,-427158,0.00792289,0.189852,0,0.190018,1344.58,-44843.6,0,44863.7,427158
step02_gravity_refstate-mantle.xmf,648,3.05772e-06,-2.96718e-06,0,-4.67579e-06,-1.21477e+09,-1.21558e+09,-1.21518e+09,-624920,0.0148212,0.169562,0,0.170208,3296.85,-43597.7,0,43722.2,624920
step02_gravity_refstate-mantle.xmf,649,4.58736e-06,-5.36675e-06,0,-3.96902e-06,-1.2407e+09,-1.24203e+09,-1.24131e+09,-530459,0.0106322,0.183224,0,0.183532,1981.43,-44402.7,0,44446.9,530459
step02_gravity_refstate-mantle.xmf,650,3.77166e-06,-4.07671e-06,0,-4.44571e-06,-1.22729e+09,-1.22834e+09,-1.2278e+09,-594169,0.0129331,0.176361,0,0.176834,2640.64,-43986.4,0,44065.6,594169
step02_gravity_refstate-mantle.xmf,651,-1.53912e-06,3.37757e-06,0,-9.31389e-07,-1.16583e+09,-1.16517e+09,-1.16563e+09,-124480,0.0113224,0.0713849,0,0.0722772,15635.3,-42071.4,0,44882.8,124480
step02_gravity_refstate-mantle.xmf,652,-1.22974e-06,3.31727e-06,0,-2.92212e-07,-1.18034e+09,-1.17974e+09,-1.18018e+09,-39054.1,0.00597498,0.058294,0,0.0585994,18573.1,-42521.7,0,46401,39054.1
step02_gravity_refstate-mantle.xmf,653,-1.40666e-06,3.4043e-06,0,-5.91659e-07,-1.17883e+09,-1.17819e+09,-1.17864e+09,-79075.3,0.00825432,0.0643383,0,0.0648656,16943.6,-42474,0,45728.8,79075.3
step02_gravity_refstate-mantle.xmf,654,-1.56544e-06,3.45481e-06,0,-1.22636e-06,-1.17958e+09,-1.17891e+09,-1.17937e+09,-163903,0.0119623,0.0759828,0,0.0769187,14433.2,-42496.2,0,44880.4,163903
step02_gravity_refstate-mantle.xmf,655,1.65882e-07,1.08388e-06,0,-2.44958e-06,-1.09859e+09,-1.09847e+09,-1.09862e+09,-327387,0.0255909,0.125297,0,0.127884,8237.32,-40000,0,40839.4,327387
step02_gravity_refstate-mantle.xmf,656,3.34819e-07,9.53468e-07,0,-3.11753e-06,-1.12874e+09,-1.12866e+09,-1.12879e+09,-416658,0.0230929,0.129035,0,0.131085,7658.36,-40932,0,41642.3,416658
step02_gravity_refstate-mantle.xmf,657,1.03727e-06,1.19576e-07,0,-3.8499e-06,-1.15373e+09,-1.15385e+09,-1.15387e+09,-514539,0.0207858,0.141103,0,0.142626,6215.97,-41706.5,0,42167.2,514539
step02_gravity_refstate-mantle.xmf,658,-4.56315e-07,1.65554e-06,0,-2.28891e-06,-1.09868e+09,-1.0984e+09,-1.09862e+09,-305913,0.0253765,0.11663,0,0.119359,9366.97,-40000,0,41082.1,305913
step02_gravity_refstate-mantle.xmf,659,-3.48078e-07,1.6275e-06,0,-2.94789e-06,-1.13304e+09,-1.13277e+09,-1.13299e+09,-393985,0.0227679,0.119277,0,0.121431,8809.3,-41061.9,0,41996.2,393985
step02_gravity_refstate-mantle.xmf,660,-8.15693e-07,2.14348e-06,0,-2.5522e-06,-1.12947e+09,-1.12907e+09,-1.12936e+09,-341101,0.022341,0.110103,0,0.112347,9986.89,-40949.8,0,42150,341101
step02_gravity_refstate-mantle.xmf,661,-1.34723e-06,2.86303e-06,0,-2.217e-06,-1.1542e+09,-1.15364e+09,-1.15402e+09,-296302,0.0186355,0.0968571,0,0.0986336,11508.5,-41712.2,0,43270.7,296302
step02_gravity_refstate-mantle.xmf,662,-1.57337e-06,3.37174e-06,0,-1.63356e-06,-1.17807e+09,-1.17741e+09,-1.17786e+09,-218325,0.0140138,0.0831051,0,0.0842783,13225.9,-42449.4,0,44462,218325
step02_gravity_refstate-mantle.xmf,663,8.08195e-07,2.31357e-06,0,4.91368e-07,-1.38323e+09,-1.38302e+09,-1.38333e+09,65671.3,-0.00881963,0.0243339,-0,0.0258829,30037.5,-48799.7,0,57303.2,65671.3
step02_gravity_refstate-mantle.xmf,664,6.43063e-07,2.42836e-06,0,5.50369e-07,-1.36081e+09,-1.36057e+09,-1.3609e+09,73556.8,-0.00899931,0.026605,-0,0.0280858,28436.9,-48106.4,0,55882.8,73556.8
step02_gravity_refstate-mantle.xmf,665,1.24112e-06,2.14834e-06,0,3.96755e-07,-1.47529e+09,-1.47517e+09,-1.47546e+09,53026.4,-0.0102667,0.0176226,-0,0.0203951,31714.1,-51646,0,60606,53026.4
step02_gravity_refstate-mantle.xmf,666,1.56928e-06,2.05579e-06,0,2.37347e-07,-1.57663e+09,-1.57657e+09,-1.57684e+09,31721.5,-0.0102145,0.0109163,-0,0.01495,33338.7,-54778.5,0,64126,31721.5
step02_gravity_refstate-mantle.xmf,667,1.75341e-06,2.09173e-06,0,7.72432e-08,-1.68953e+09,-1.68948e+09,-1.68976e+09,10323.6,-0.00979065,0.00368696,-0,0.0104619,34279.8,-58267.1,0,67603,10323.6
step02_gravity_refstate-mantle.xmf,668,1.75572e-06,2.15812e-06,0,-4.22051e-09,-1.74562e+09,-1.74557e+09,-1.74586e+09,-564.071,-0.0079769,-3.59139e-19,-0,0.0079769,35381,-60000,0,69655,564.071
step02_gravity_refstate-mantle.xmf,669,-2.72415e-06,8.72875e-06,0,4.36779e-07,-1.50511e+09,-1.50358e+09,-1.50474e+09,58375.5,0.0257026,0.0666582,0,0.0714419,-8257.38,-52557.4,-0,53202.2,58375.5
step02_gravity_refstate-mantle.xmf,670,-1.7446e-06,8.06962e-06,0,-3.98228e-07,-1.5187e+09,-1.51739e+09,-1.51847e+09,-53223.1,0.0315637,0.0550516,0,0.0634582,-9112.2,-52982.2,-0,53760.1,53223.1
step02_gravity_refstate-mantle.xmf,671,8.41202e-07,6.53583e-06,0,-1.38428e-06,-1.58294e+09,-1.58218e+09,-1.58306e+09,-185009,0.0486021,0.030878,0,0.0575814,-10642,-54980,-0,56000.5,185009
step02_gravity_refstate-mantle.xmf,672,2.16752e-06,5.62017e-06,0,-1.28174e-06,-1.63172e+09,-1.63126e+09,-1.63201e+09,-171305,0.0566352,0.018971,0,0.0597281,-11439.6,-56493.1,-0,57639.7,171305
step02_gravity_refstate-mantle.xmf,673,-4.01113e-06,9.53815e-06,0,2.08895e-06,-1.49363e+09,-1.49182e+09,-1.4931e+09,279188,0.0177359,0.0862122,0,0.0880176,-6958.06,-52196.4,-0,52658.1,279188
step02_gravity_refstate-mantle.xmf,674,-5.55115e-06,6.70716e-06,0,8.94605e-06,-1.44078e+09,-1.43914e+09,-1.44004e+09,1.19564e+06,-0.0104923,0.149951,-0,0.150317,-4487.36,-50546.2,-0,50745,1.19564e+06
step02_gravity_refstate-mantle.xmf,675,-4.78297e-06,9.54743e-06,0,3.48061e-06,-1.48073e+09,-1.47881e+09,-1.48009e+09,465184,0.0106923,0.10048,0,0.101047,-6306.65,-51792.7,-0,52175.3,465184
step02_gravity_refstate-mantle.xmf,676,-5.39384e-06,9.13024e-06,0,5.19192e-06,-1.46726e+09,-1.46532e+09,-1.46654e+09,693900,0.00311367,0.116806,0,0.116848,-5647.15,-51371.6,-0,51681.1,693900
step02_gravity_refstate-mantle.xmf,677,-5.6507e-06,8.14741e-06,0,7.07882e-06,-1.45331e+09,-1.45147e+09,-1.45256e+09,946085,-0.00422194,0.133511,-0,0.133578,-5048.27,-50936.4,-0,51186,946085
step02_gravity_refstate-mantle.xmf,678,-2.97245e-06,-1.27735e-07,0,1.4606e-05,-1.42407e+09,-1.42369e+09,-1.42367e+09,1.95209e+06,-0.0207597,0.198961,-0,0.200041,-2858.91,-50029.8,-0,50111.4,1.95209e+06
step02_gravity_refstate-mantle.xmf,679,-4.47243e-07,-4.70241e-06,0,1.59207e-05,-1.41468e+09,-1.41524e+09,-1.41462e+09,2.1278e+06,-0.0220773,0.213632,-0,0.214769,-2383.83,-49744.8,-0,49801.9,2.1278e+06
step02_gravity_refstate-mantle.xmf,680,3.15656e-06,-1.01248e-05,0,1.60471e-05,-1.40515e+09,-1.40693e+09,-1.40557e+09,2.14469e+06,-0.0212096,0.226661,-0,0.227651,-1902.76,-49460.9,-0,49497.5,2.14469e+06
step02_gravity_refstate-mantle.xmf,681,6.89441e-06,-1.51966e-05,0,1.43282e-05,-1.39673e+09,-1.39968e+09,-1.39765e+09,1.91497e+06,-0.0181839,0.236358,-0,0.237056,-1443.82,-49212.7,-0,49233.8,1.91497e+06
step02_gravity_refstate-mantle.xmf,682,7.72232e-06,-1.11468e-05,0,-1.72703e-06,-1.30387e+09,-1.30639e+09,-1.3049e+09,-230818,0.0034002,0.20716,0,0.207187,435.017,-46360.1,0,46362.1,230818
step02_gravity_refstate-mantle.xmf,683,9.42183e-06,-1.55386e-05,0,6.60124e-06,-1.35529e+09,-1.35863e+09,-1.35655e+09,882256,-0.00978087,0.225359,-0,0.225571,-920.066,-47948.6,-0,47957.5,882256
step02_gravity_refstate-mantle.xmf,684,9.87992e-06,-1.54277e-05,0,2.99622e-06,-1.34279e+09,-1.34617e+09,-1.34411e+09,400445,-0.00457333,0.222924,-0,0.22297,-453.086,-47565.9,-0,47568.1,400445
step02_gravity_refstate-mantle.xmf,685,9.3959e-06,-1.42049e-05,0,1.10594e-07,-1.33065e+09,-1.3338e+09,-1.3319e+09,14780.9,-1.55588e-07,0.218335,-0,0.218335,0,-47190.6,0,47190.6,14780.9
step02_gravity_refstate-mantle.xmf,686,8.6598e-06,-1.28825e-05,0,-2.13241e-06,-1.32231e+09,-1.32519e+09,-1.32347e+09,-284996,0.00393584,0.213964,0,0.214,449.494,-46931.7,0,46933.9,284996
step02_gravity_refstate-mantle.xmf,687,4.29766e-07,2.56456e-06,0,5.7828e-07,-1.33496e+09,-1.33467e+09,-1.33502e+09,77287.1,-0.00846511,0.0294625,-0,0.0306545,26921.3,-47306.8,0,54430.6,77287.1
step02_gravity_refstate-mantle.xmf,688,1.76061e-07,2.71886e-06,0,5.65913e-07,-1.30797e+09,-1.30763e+09,-1.308e+09,75634.2,-0.00730115,0.0328717,-0,0.0336728,25422.7,-46472,0,52971.3,75634.2
step02_gravity_refstate-mantle.xmf,689,-9.57221e-08,2.87868e-06,0,5.08475e-07,-1.28265e+09,-1.28225e+09,-1.28263e+09,67957.7,-0.00565897,0.0366705,-0,0.0371046,23966.9,-45688.2,0,51592.8,67957.7
step02_gravity_refstate-mantle.xmf,690,-9.51897e-07,3.27349e-06,0,5.8605e-09,-1.20944e+09,-1.20888e+09,-1.20932e+09,783.255,0.00215141,0.0514881,0,0.051533,19873.8,-43422.2,0,47754.1,783.255
step02_gravity_refstate-mantle.xmf,691,-6.77489e-07,3.17388e-06,0,2.26941e-07,-1.2333e+09,-1.23278e+09,-1.23321e+09,30330.6,-0.000846906,0.0460075,-0,0.0460153,21167.8,-44160.7,0,48971.8,30330.6
step02_gravity_refstate-mantle.xmf,692,-3.83695e-07,3.03339e-06,0,3.96655e-07,-1.25755e+09,-1.2571e+09,-1.2575e+09,53013,-0.00348362,0.041024,-0,0.0411716,22563.4,-44911.6,0,50260.9,53013
step02_gravity_refstate-mantle.xmf,693,3.416e-07,8.68448e-07,0,-3.84289e-06,-1.16043e+09,-1.16036e+09,-1.16048e+09,-513603,0.0211313,0.132903,0,0.134572,7114,-41910.8,0,42510.3,513603
step02_gravity_refstate-mantle.xmf,694,6.4859e-07,4.03311e-07,0,-4.4088e-06,-1.18123e+09,-1.18126e+09,-1.18131e+09,-589236,0.0199634,0.140426,0,0.141838,6265.25,-42554,0,43012.8,589236
step02_gravity_refstate-mantle.xmf,695,-1.16025e-06,2.67032e-06,0,-2.62351e-06,-1.16181e+09,-1.1613e+09,-1.16165e+09,-350632,0.019229,0.103308,0,0.105083,10554.1,-41947.9,0,43255.2,350632
step02_gravity_refstate-mantle.xmf,696,-1.46432e-06,3.15981e-06,0,-2.33426e-06,-1.18224e+09,-1.18163e+09,-1.18205e+09,-311973,0.0163715,0.0945708,0,0.0959774,11464,-42578.3,0,44094.7,311973
step02_gravity_refstate-mantle.xmf,697,-1.6092e-06,3.48243e-06,0,-1.92958e-06,-1.19645e+09,-1.19577e+09,-1.19624e+09,-257888,0.0136451,0.0863079,0,0.0873799,12427.6,-43017.2,0,44776.3,257888
step02_gravity_refstate-mantle.xmf,698,1.09633e-06,2.24042e-06,0,4.95919e-07,-1.44395e+09,-1.4438e+09,-1.4441e+09,66279.5,-0.0111969,0.0200581,-0,0.0229717,30037.3,-50677.2,0,58910.3,66279.5
step02_gravity_refstate-mantle.xmf,699,1.47961e-06,2.09997e-06,0,3.47605e-07,-1.53882e+09,-1.53874e+09,-1.53902e+09,46457.4,-0.0120234,0.013456,-0,0.0180451,31663.9,-53610,0,62262.6,46457.4
step02_gravity_refstate-mantle.xmf,700,1.71776e-06,2.06691e-06,0,1.6908e-07,-1.63969e+09,-1.63964e+09,-1.63992e+09,22597.6,-0.0116427,0.00690991,-0,0.0135388,32993.4,-56727.3,0,65624.3,22597.6
step02_gravity_refstate-mantle.xmf,701,-3.26694e-06,9.36186e-06,0,1.12499e-06,-1.50634e+09,-1.50465e+09,-1.5059e+09,150355,0.0237803,0.0752436,0,0.078912,-7486.93,-52593.3,-0,53123.6,150355
step02_gravity_refstate-mantle.xmf,702,9.15315e-08,7.28091e-06,0,-1.18172e-06,-1.5665e+09,-1.56554e+09,-1.56651e+09,-157937,0.045089,0.0383958,0,0.0592221,-9852.26,-54468.8,-0,55352.7,157937
step02_gravity_refstate-mantle.xmf,703,-7.98522e-07,8.04501e-06,0,-8.23039e-07,-1.55047e+09,-1.54929e+09,-1.55037e+09,-109999,0.04055,0.0471377,0,0.0621793,-9106.4,-53969.9,-0,54732.7,109999
step02_gravity_refstate-mantle.xmf,704,1.6035e-06,6.365e-06,0,-1.34426e-06,-1.61321e+09,-1.61258e+09,-1.61343e+09,-179660,0.0549474,0.0249141,0,0.0603318,-10617.3,-55919.7,-0,56918.7,179660
step02_gravity_refstate-mantle.xmf,705,2.71146e-06,5.49696e-06,0,-1.02017e-06,-1.66253e+09,-1.66216e+09,-1.66289e+09,-136346,0.0610777,0.0137797,0,0.0626129,-11386,-57448.3,-0,58565.7,136346
step02_gravity_refstate-mantle.xmf,706,3.14561e-06,5.31942e-06,0,-6.58009e-07,-1.69519e+09,-1.6949e+09,-1.69561e+09,-87942.9,0.0642106,0.00823942,0,0.064737,-11417.7,-58459.5,-0,59564.1,87942.9
step02_gravity_refstate-mantle.xmf,707,3.36065e-06,4.90261e-06,0,5.5168e-09,-1.74505e+09,-1.74484e+09,-1.7455e+09,737.32,0.0639414,-6.32967e-20,0,0.0639414,-12062.5,-60000,-0,61200.5,737.32
step02_gravity_refstate-mantle.xmf,708,1.07706e-05,-1.90484e-05,0,8.31195e-06,-1.37482e+09,-1.37881e+09,-1.37626e+09,1.11089e+06,-0.0107494,0.236344,-0,0.236589,-863.777,-48552,-0,48559.7,1.11089e+06
step02_gravity_refstate-mantle.xmf,709,-4.61172e-06,3.26579e-06,0,1.28382e-05,-1.43759e+09,-1.43654e+09,-1.43698e+09,1.71583e+06,-0.0170601,0.182787,-0,0.183581,-3345.28,-50445.2,-0,50556,1.71583e+06
step02_gravity_refstate-mantle.xmf,710,-5.55626e-06,6.18926e-06,0,1.06413e-05,-1.45229e+09,-1.45072e+09,-1.45155e+09,1.42221e+06,-0.0111503,0.164381,-0,0.164758,-3875.27,-50900.4,-0,51047.7,1.42221e+06
step02_gravity_refstate-mantle.xmf,711,1.00751e-05,-1.88674e-05,0,1.17344e-05,-1.38891e+09,-1.39278e+09,-1.39026e+09,1.5683e+06,-0.0140649,0.241357,-0,0.241766,-1051.57,-48983.1,-0,48994.4,1.5683e+06
step02_gravity_refstate-mantle.xmf,712,1.06702e-06,-2.34559e-07,0,-4.80928e-06,-1.19637e+09,-1.19654e+09,-1.19651e+09,-642760,0.019021,0.148088,0,0.149305,5475.37,-43022.9,0,43369.9,642760
step02_gravity_refstate-mantle.xmf,713,6.95376e-06,-9.78108e-06,0,-2.71871e-06,-1.29135e+09,-1.29358e+09,-1.29228e+09,-363356,0.00555888,0.201894,0,0.201971,774.03,-45971.7,0,45978.2,363356
step02_gravity_refstate-mantle.xmf,714,5.87981e-06,-7.88898e-06,0,-3.97909e-06,-1.2786e+09,-1.28044e+09,-1.27938e+09,-531806,0.00895388,0.195016,0,0.195222,1378.27,-45575.6,0,45596.4,531806
step02_gravity_refstate-mantle.xmf,715,1.57918e-06,-1.05486e-06,0,-5.16285e-06,-1.21129e+09,-1.21164e+09,-1.2115e+09,-690016,0.0179967,0.156067,0,0.157101,4704.58,-43485.1,0,43738.8,690016
step02_gravity_refstate-mantle.xmf,716,2.14267e-06,-1.99035e-06,0,-5.4026e-06,-1.22624e+09,-1.2268e+09,-1.22653e+09,-722057,0.0169396,0.163718,0,0.164592,4013.92,-43948.4,0,44131.3,722057
step02_gravity_refstate-mantle.xmf,717,4.77101e-06,-6.14424e-06,0,-4.82861e-06,-1.26558e+09,-1.26704e+09,-1.26622e+09,-645344,0.0117083,0.187442,0,0.187808,2007.84,-45170.6,0,45215.2,645344
step02_gravity_refstate-mantle.xmf,718,2.85197e-06,-3.12673e-06,0,-5.46183e-06,-1.23941e+09,-1.24021e+09,-1.23979e+09,-729974,0.015646,0.171425,0,0.172138,3345.73,-44357,0,44483,729974
step02_gravity_refstate-mantle.xmf,719,3.74047e-06,-4.52747e-06,0,-5.29294e-06,-1.25239e+09,-1.25349e+09,-1.25289e+09,-707401,0.0139183,0.179454,0,0.179993,2668.05,-44760.2,0,44839.7,707401
step02_gravity_refstate-mantle.xmf,720,7.5943e-06,-1.13322e-05,0,-3.82111e-06,-1.31324e+09,-1.31577e+09,-1.31426e+09,-510691,0.00715055,0.208364,0,0.208487,886.099,-46648.4,0,46656.8,510691
step02_gravity_refstate-mantle.xmf,721,-1.48512e-06,3.59335e-06,0,-7.91448e-07,-1.20276e+09,-1.20208e+09,-1.20256e+09,-105777,0.00788623,0.0671679,0,0.0676293,15686,-43213.1,0,45972,105777
step02_gravity_refstate-mantle.xmf,722,-1.02381e-06,3.43186e-06,0,-5.64062e-08,-1.22671e+09,-1.22611e+09,-1.22657e+09,-7538.69,0.00177357,0.0529041,0,0.0529338,18748.5,-43955.4,0,47786.9,7538.69
step02_gravity_refstate-mantle.xmf,723,-1.22038e-06,3.48066e-06,0,-3.00054e-07,-1.21005e+09,-1.20943e+09,-1.20989e+09,-40102.2,0.00441613,0.0579923,0,0.0581602,17743.3,-43439.8,0,46923.8,40102.2
step02_gravity_refstate-mantle.xmf,724,-1.64158e-06,3.69491e-06,0,-1.48152e-06,-1.21004e+09,-1.20933e+09,-1.20982e+09,-198006,0.0106706,0.0781166,0,0.078842,13471.6,-43437.2,0,45478.3,198006
step02_gravity_refstate-mantle.xmf,725,-1.5709e-07,1.44324e-06,0,-3.46798e-06,-1.15421e+09,-1.154e+09,-1.15419e+09,-463495,0.0215497,0.124609,0,0.126459,8064.23,-41716.7,0,42489,463495
step02_gravity_refstate-mantle.xmf,726,-8.20975e-07,2.22325e-06,0,-2.95553e-06,-1.15489e+09,-1.15449e+09,-1.15478e+09,-395006,0.0207469,0.111762,0,0.113671,9563.76,-41735.4,0,42817.1,395006
step02_gravity_refstate-mantle.xmf,727,9.27034e-07,2.35711e-06,0,5.79484e-07,-1.41537e+09,-1.41517e+09,-1.41549e+09,77448,-0.0116234,0.0225716,-0,0.0253886,28428.5,-49793.4,0,57337.2,77448
step02_gravity_refstate-mantle.xmf,728,7.24933e-07,2.49801e-06,0,6.38835e-07,-1.38798e+09,-1.38774e+09,-1.38808e+09,85380.3,-0.0114875,0.0253307,-0,0.0278138,26890.3,-48946.5,0,55846.7,85380.3
step02_gravity_refstate-mantle.xmf,729,1.36986e-06,2.17392e-06,0,4.61511e-07,-1.50582e+09,-1.50571e+09,-1.506e+09,61681,-0.0134687,0.015845,-0,0.0207959,29991.6,-52590,0,60540.9,61681
step02_gravity_refstate-mantle.xmf,730,1.67093e-06,2.08059e-06,0,2.69051e-07,-1.60132e+09,-1.60127e+09,-1.60154e+09,35958.7,-0.0135534,0.00942701,-0,0.0165095,31540.2,-55541.8,0,63872.4,35958.7
step02_gravity_refstate-mantle.xmf,731,1.81558e-06,2.11149e-06,0,9.73528e-08,-1.69417e+09,-1.69413e+09,-1.69441e+09,13011.2,-0.0135001,0.00340747,-0,0.0139235,32215.8,-58410.9,0,66706,13011.2
step02_gravity_refstate-mantle.xmf,732,1.80765e-06,2.16896e-06,0,-3.71112e-09,-1.74561e+09,-1.74556e+09,-1.74585e+09,-495.992,-0.0117974,-3.31638e-19,-0,0.0117974,33236.8,-60000,0,68590.7,495.992
step02_gravity_refstate-mantle.xmf,733,-1.73258e-06,8.71337e-06,0,-2.48845e-07,-1.53481e+09,-1.53342e+09,-1.53458e+09,-33258.1,0.0350788,0.0570773,0,0.066995,-8409.22,-53481.7,-0,54138.7,33258.1
step02_gravity_refstate-mantle.xmf,734,-2.42214e-06,9.46765e-06,0,4.51393e-07,-1.53067e+09,-1.52908e+09,-1.53034e+09,60328.6,0.0321259,0.0665032,0,0.0738563,-7619.58,-53350.8,-0,53892.2,60328.6
step02_gravity_refstate-mantle.xmf,735,-3.34271e-06,9.97757e-06,0,1.47135e-06,-1.51869e+09,-1.51691e+09,-1.51825e+09,196646,0.026086,0.0789267,0,0.0831258,-6935.44,-52976.1,-0,53428.1,196646
step02_gravity_refstate-mantle.xmf,736,9.23739e-07,7.16982e-06,0,-1.26722e-06,-1.59641e+09,-1.59557e+09,-1.59653e+09,-169363,0.0523792,0.0318196,0,0.0612867,-9824.68,-55398.1,-0,56262.5,169363
step02_gravity_refstate-mantle.xmf,737,2.25545e-06,6.2288e-06,0,-1.18313e-06,-1.64287e+09,-1.64234e+09,-1.64317e+09,-158126,0.0603239,0.0192398,0,0.0633178,-10579.8,-56839.8,-0,57816,158126
step02_gravity_refstate-mantle.xmf,738,3.32334e-06,5.25984e-06,0,-3.12659e-07,-1.72287e+09,-1.72261e+09,-1.72332e+09,-41786.9,0.0654616,0.00361802,0,0.0655615,-11498.9,-59315.7,-0,60420,41786.9
step02_gravity_refstate-mantle.xmf,739,-4.25297e-06,1.02148e-05,0,2.79076e-06,-1.50544e+09,-1.50351e+09,-1.50488e+09,372985,0.0189437,0.0932612,0,0.0951657,-6284.52,-52561.4,-0,52935.8,372985
step02_gravity_refstate-mantle.xmf,740,-5.79657e-06,7.91441e-06,0,8.51167e-06,-1.45937e+09,-1.45754e+09,-1.4586e+09,1.13758e+06,-0.00575957,0.145706,-0,0.14582,-4489.11,-51122,-0,51318.8,1.13758e+06
step02_gravity_refstate-mantle.xmf,741,-5.06057e-06,1.00926e-05,0,4.48028e-06,-1.49215e+09,-1.49013e+09,-1.49148e+09,598789,0.0111359,0.109876,0,0.110439,-5622.07,-52145.1,-0,52447.3,598789
step02_gravity_refstate-mantle.xmf,742,-5.68635e-06,9.33953e-06,0,6.75867e-06,-1.47751e+09,-1.4755e+09,-1.47675e+09,903296,0.00215704,0.13067,0,0.130688,-4891.08,-51686.6,-0,51917.5,903296
step02_gravity_refstate-mantle.xmf,743,-3.95517e-06,1.29534e-06,0,1.46573e-05,-1.4394e+09,-1.43869e+09,-1.43887e+09,1.95895e+06,-0.0187329,0.198122,-0,0.199006,-2877.84,-50500.3,-0,50582.2,1.95895e+06
step02_gravity_refstate-mantle.xmf,744,-2.32668e-06,-2.12479e-06,0,1.67196e-05,-1.43436e+09,-1.43433e+09,-1.43405e+09,2.23457e+06,-0.0209628,0.215952,-0,0.216967,-2379.86,-50347,-0,50403.2,2.23457e+06
step02_gravity_refstate-mantle.xmf,745,1.24521e-06,-8.51133e-06,0,1.82666e-05,-1.42289e+09,-1.4242e+09,-1.42306e+09,2.44134e+06,-0.0219036,0.231747,-0,0.23278,-1901.62,-50000.2,-0,50036.4,2.44134e+06
step02_gravity_refstate-mantle.xmf,746,6.87738e-06,-1.59875e-05,0,1.79173e-05,-1.41377e+09,-1.41683e+09,-1.41469e+09,2.39465e+06,-0.0197965,0.244467,-0,0.245268,-1444.41,-49737,-0,49758,2.39465e+06
step02_gravity_refstate-mantle.xmf,747,1.04336e-05,-2.09772e-05,0,1.40842e-05,-1.40355e+09,-1.40774e+09,-1.40494e+09,1.88235e+06,-0.0150442,0.251546,-0,0.251995,-998.057,-49432.2,-0,49442.2,1.88235e+06
step02_gravity_refstate-mantle.xmf,748,2.20587e-07,7.36608e-07,0,-4.9469e-06,-1.20999e+09,-1.20992e+09,-1.21002e+09,-661153,0.0193474,0.139992,0,0.141322,6258.17,-43440.5,0,43888.9,661153
step02_gravity_refstate-mantle.xmf,749,1.15493e-05,-1.86738e-05,0,3.93042e-06,-1.36265e+09,-1.36669e+09,-1.36419e+09,525301,-0.00517262,0.233523,-0,0.23358,-437.529,-48182.3,-0,48184.2,525301
step02_gravity_refstate-mantle.xmf,750,1.094e-05,-1.7167e-05,0,1.53737e-07,-1.35059e+09,-1.35434e+09,-1.35205e+09,20547,-8.58128e-09,0.228038,-0,0.228038,0,-47809.3,0,47809.3,20547
step02_gravity_refstate-mantle.xmf,751,9.93201e-06,-1.53866e-05,0,-2.81109e-06,-1.3425e+09,-1.34588e+09,-1.34382e+09,-375702,0.0046356,0.222757,0,0.222805,460.301,-47557.3,0,47559.5,375702
step02_gravity_refstate-mantle.xmf,752,8.49566e-06,-1.31331e-05,0,-4.88026e-06,-1.33408e+09,-1.33697e+09,-1.33522e+09,-652247,0.00840049,0.216008,0,0.216172,915.549,-47293.4,0,47302.3,652247
step02_gravity_refstate-mantle.xmf,753,4.84318e-07,2.66114e-06,0,6.63863e-07,-1.36078e+09,-1.36049e+09,-1.36085e+09,88725.2,-0.0107351,0.0284888,-0,0.0304443,25410.5,-48105.2,0,54404.1,88725.2
step02_gravity_refstate-mantle.xmf,754,-1.56986e-06,3.80072e-06,0,-1.03315e-06,-1.22394e+09,-1.22322e+09,-1.22373e+09,-138080,0.00753574,0.0702906,0,0.0706934,14567.9,-43867.3,0,46223,138080
step02_gravity_refstate-mantle.xmf,755,2.15526e-07,2.83908e-06,0,6.45788e-07,-1.33493e+09,-1.33458e+09,-1.33496e+09,86309.6,-0.00944585,0.0320338,-0,0.0333974,23978,-47305.3,0,53035.2,86309.6
step02_gravity_refstate-mantle.xmf,756,-1.32065e-06,3.62826e-06,0,-4.43513e-07,-1.22284e+09,-1.22218e+09,-1.22266e+09,-59275.5,0.00449963,0.0603993,0,0.0605667,16732.6,-43834.6,0,46919.6,59275.5
step02_gravity_refstate-mantle.xmf,757,-8.15015e-08,3.02084e-06,0,5.72173e-07,-1.30892e+09,-1.30851e+09,-1.30891e+09,76471,-0.00753353,0.0361304,-0,0.0369075,22616.9,-46500.4,0,51708.9,76471
step02_gravity_refstate-mantle.xmf,758,-7.32953e-07,3.36987e-06,0,2.17542e-07,-1.25874e+09,-1.25819e+09,-1.25864e+09,29074.5,-0.00208258,0.0465511,-0,0.0465977,19825.2,-44946.7,0,49124.8,29074.5
step02_gravity_refstate-mantle.xmf,759,-4.0058e-07,3.1995e-06,0,4.34514e-07,-1.28304e+09,-1.28255e+09,-1.28298e+09,58072.8,-0.00504792,0.0409088,-0,0.0412191,21264.8,-45699,0,50404.3,58072.8
step02_gravity_refstate-mantle.xmf,760,-1.10103e-06,3.61205e-06,0,-1.35732e-07,-1.24478e+09,-1.24415e+09,-1.24463e+09,-18140.6,0.00117625,0.0543002,0,0.0543129,17710,-44513.7,0,47907.3,18140.6
step02_gravity_refstate-mantle.xmf,761,-6.442e-07,2.00028e-06,0,-3.39442e-06,-1.16688e+09,-1.16652e+09,-1.16679e+09,-453665,0.0205008,0.117497,0,0.119272,8796.07,-42106.2,0,43015.1,453665
step02_gravity_refstate-mantle.xmf,762,-4.21813e-07,1.71181e-06,0,-3.92016e-06,-1.18196e+09,-1.18167e+09,-1.1819e+09,-523929,0.0200987,0.12436,0,0.125974,7943.41,-42572.7,0,43307.4,523929
step02_gravity_refstate-mantle.xmf,763,-1.04215e-07,1.26396e-06,0,-4.44073e-06,-1.19519e+09,-1.19501e+09,-1.19518e+09,-593503,0.0197743,0.132262,0,0.133732,7061.7,-42982.6,0,43558.8,593503
step02_gravity_refstate-mantle.xmf,764,-1.10381e-06,2.63219e-06,0,-3.15043e-06,-1.18327e+09,-1.18277e+09,-1.18312e+09,-421055,0.0186547,0.108726,0,0.110315,9672.45,-42611.1,0,43695.1,421055
step02_gravity_refstate-mantle.xmf,765,-1.45903e-06,3.17322e-06,0,-2.77306e-06,-1.19889e+09,-1.19827e+09,-1.1987e+09,-370619,0.0162864,0.0995375,0,0.100861,10608.2,-43092.6,0,44379.1,370619
step02_gravity_refstate-mantle.xmf,766,-1.67613e-06,3.59513e-06,0,-2.31872e-06,-1.21472e+09,-1.21402e+09,-1.2145e+09,-309897,0.0134732,0.0905432,0,0.0915401,11550.5,-43581.3,0,45085.9,309897
step02_gravity_refstate-mantle.xmf,767,-1.75431e-06,3.88126e-06,0,-1.81745e-06,-1.22985e+09,-1.2291e+09,-1.22962e+09,-242902,0.0103815,0.0818387,0,0.0824945,12527,-44048.8,0,45795.5,242902
step02_gravity_refstate-mantle.xmf,768,1.21911e-06,2.28083e-06,0,5.70244e-07,-1.47303e+09,-1.47289e+09,-1.47319e+09,76213.1,-0.014297,0.0184498,-0,0.0233409,28386.6,-51576.4,0,58872.1,76213.1
step02_gravity_refstate-mantle.xmf,769,1.59856e-06,2.12784e-06,0,3.9096e-07,-1.56541e+09,-1.56534e+09,-1.56562e+09,52251.8,-0.0153772,0.0118905,-0,0.0194381,29931.7,-54432.1,0,62118.9,52251.8
step02_gravity_refstate-mantle.xmf,770,1.79358e-06,2.09258e-06,0,1.88654e-07,-1.65269e+09,-1.65265e+09,-1.65293e+09,25213.6,-0.0147796,0.00612351,-0,0.015998,31293.9,-57129.4,0,65138.9,25213.6
step02_gravity_refstate-mantle.xmf,771,1.54589e-07,7.98924e-06,0,-1.01315e-06,-1.58099e+09,-1.57994e+09,-1.58101e+09,-135407,0.0489508,0.0398819,0,0.0631407,-9054.8,-54918.7,-0,55660.1,135407
step02_gravity_refstate-mantle.xmf,772,-7.36258e-07,8.81104e-06,0,-5.91863e-07,-1.56616e+09,-1.56489e+09,-1.56606e+09,-79102.5,0.0445356,0.0491368,0,0.0663163,-8341.14,-54456.9,-0,55092,79102.5
step02_gravity_refstate-mantle.xmf,773,1.6867e-06,7.02811e-06,0,-1.19242e-06,-1.62521e+09,-1.62449e+09,-1.62543e+09,-159367,0.0586407,0.0254897,0,0.063941,-9820.04,-56292.5,-0,57142.6,159367
step02_gravity_refstate-mantle.xmf,774,2.82173e-06,6.21027e-06,0,-8.70365e-07,-1.67598e+09,-1.67552e+09,-1.67635e+09,-116324,0.0654049,0.0132692,0,0.0667373,-10402.1,-57866.2,-0,58793.7,116324
step02_gravity_refstate-mantle.xmf,775,3.24384e-06,6.06382e-06,0,-3.87935e-07,-1.71606e+09,-1.71568e+09,-1.71649e+09,-51847.5,0.068372,0.00543877,0,0.0685879,-10526.8,-59106.7,-0,60036.8,51847.5
step02_gravity_refstate-mantle.xmf,776,3.36375e-06,5.63546e-06,0,1.0305e-08,-1.74498e+09,-1.74468e+09,-1.74543e+09,1377.26,0.0673976,-9.48804e-20,0,0.0673976,-11033.6,-60000,-0,61006.1,1377.26
step02_gravity_refstate-mantle.xmf,777,1.35224e-05,-2.35791e-05,0,8.06538e-06,-1.38902e+09,-1.39398e+09,-1.39083e+09,1.07794e+06,-0.00849604,0.249519,-0,0.249664,-576.437,-48997.5,-0,49000.9,1.07794e+06
step02_gravity_refstate-mantle.xmf,778,-5.78791e-06,8.27763e-06,0,9.28682e-06,-1.47289e+09,-1.47101e+09,-1.47212e+09,1.24118e+06,-0.00365586,0.151858,-0,0.151902,-4143.55,-51540.7,-0,51707,1.24118e+06
step02_gravity_refstate-mantle.xmf,779,-4.94468e-06,4.13473e-06,0,1.33462e-05,-1.45662e+09,-1.45541e+09,-1.45596e+09,1.78372e+06,-0.0138497,0.187117,-0,0.187629,-3149.71,-51033.1,-0,51130.2,1.78372e+06
step02_gravity_refstate-mantle.xmf,780,-3.72424e-06,7.5363e-07,0,1.58573e-05,-1.4512e+09,-1.4506e+09,-1.4507e+09,2.11933e+06,-0.0175202,0.208214,-0,0.20895,-2594.28,-50865,-0,50931.1,2.11933e+06
step02_gravity_refstate-mantle.xmf,781,6.00677e-07,6.19603e-08,0,-5.43024e-06,-1.22449e+09,-1.22456e+09,-1.22457e+09,-725752,0.0188987,0.148001,0,0.149203,5491.06,-43889.2,0,44231.4,725752
step02_gravity_refstate-mantle.xmf,782,6.32858e-06,-9.28327e-06,0,-5.03878e-06,-1.30178e+09,-1.30386e+09,-1.30262e+09,-673433,0.0101342,0.200979,0,0.201234,1396.84,-46291,0,46312.1,673433
step02_gravity_refstate-mantle.xmf,783,4.92547e-06,-6.9582e-06,0,-5.91726e-06,-1.28996e+09,-1.29155e+09,-1.29062e+09,-790842,0.0130581,0.192098,0,0.192542,2037.35,-45922.5,0,45967.7,790842
step02_gravity_refstate-mantle.xmf,784,1.12628e-06,-8.35117e-07,0,-5.88163e-06,-1.23868e+09,-1.23894e+09,-1.23883e+09,-786080,0.018346,0.156529,0,0.1576,4736.23,-44328.8,0,44581.1,786080
step02_gravity_refstate-mantle.xmf,785,1.79589e-06,-1.94911e-06,0,-6.18517e-06,-1.25153e+09,-1.25203e+09,-1.25177e+09,-826648,0.0176052,0.165091,0,0.166027,4028.92,-44727.3,0,44908.4,826648
step02_gravity_refstate-mantle.xmf,786,3.66278e-06,-4.96946e-06,0,-6.29641e-06,-1.27694e+09,-1.2781e+09,-1.27743e+09,-841515,0.01511,0.182843,0,0.183466,2688.31,-45517,0,45596.4,841515
step02_gravity_refstate-mantle.xmf,787,2.62804e-06,-3.31261e-06,0,-6.35005e-06,-1.2643e+09,-1.26509e+09,-1.26465e+09,-848685,0.0165743,0.17385,0,0.174638,3349.87,-45123.8,0,45247.9,848685
step02_gravity_refstate-mantle.xmf,788,6.87141e-06,-1.08011e-05,0,-6.22507e-06,-1.32392e+09,-1.32628e+09,-1.32484e+09,-831981,0.0113168,0.207918,0,0.208226,1380.67,-46974.7,0,46995,831981
step02_gravity_refstate-mantle.xmf,789,-1.43404e-06,3.84703e-06,0,-6.11759e-07,-1.24259e+09,-1.24189e+09,-1.2424e+09,-81761.6,0.004008,0.0627553,0,0.0628832,15649.4,-44444.4,0,47119.1,81761.6
step02_gravity_refstate-mantle.xmf,790,-8.91524e-07,3.54385e-06,0,9.47346e-08,-1.26242e+09,-1.26183e+09,-1.2623e+09,12661.3,-0.00143822,0.0495006,-0,0.0495214,18599.3,-45059.8,0,48747.5,12661.3
step02_gravity_refstate-mantle.xmf,791,-1.71097e-06,4.04292e-06,0,-1.30788e-06,-1.24513e+09,-1.24436e+09,-1.2449e+09,-174798,0.00706243,0.073476,0,0.0738147,13545.9,-44521.5,0,46536.6,174798
step02_gravity_refstate-mantle.xmf,792,-4.54892e-07,1.56875e-06,0,-4.86338e-06,-1.22068e+09,-1.22041e+09,-1.22062e+09,-649991,0.0190135,0.132213,0,0.133573,6957.97,-43768.4,0,44318,649991
step02_gravity_refstate-mantle.xmf,793,-3.89234e-07,1.30401e-06,0,-5.44275e-06,-1.23911e+09,-1.23888e+09,-1.23906e+09,-727424,0.0188575,0.138208,0,0.139489,6338.6,-44337.4,0,44788.2,727424
step02_gravity_refstate-mantle.xmf,794,1.02845e-06,2.41925e-06,0,6.60787e-07,-1.44186e+09,-1.44167e+09,-1.442e+09,88314.2,-0.0145089,0.0212513,-0,0.0257318,26855,-50612.6,0,57296,88314.2
step02_gravity_refstate-mantle.xmf,795,8.08395e-07,2.5831e-06,0,7.22889e-07,-1.41386e+09,-1.41362e+09,-1.41397e+09,96614.1,-0.0142036,0.0241951,-0,0.0280561,25395.1,-49746.7,0,55853.8,96614.1
step02_gravity_refstate-mantle.xmf,796,1.48525e-06,2.2135e-06,0,5.17787e-07,-1.53007e+09,-1.52997e+09,-1.53026e+09,69202.3,-0.016696,0.0144976,-0,0.0221119,28339.6,-53339.8,0,60400.9,69202.3
step02_gravity_refstate-mantle.xmf,797,1.7921e-06,2.111e-06,0,2.82705e-07,-1.62978e+09,-1.62973e+09,-1.63002e+09,37783.5,-0.0170852,0.00768289,-0,0.0187331,29807.8,-56421.7,0,63811.5,37783.5
step02_gravity_refstate-mantle.xmf,798,1.88578e-06,2.13231e-06,0,1.29996e-07,-1.69268e+09,-1.69265e+09,-1.69293e+09,17374,-0.0171189,0.00353983,-0,0.017481,30253.7,-58365.5,0,65740.5,17374
step02_gravity_refstate-mantle.xmf,799,1.87656e-06,2.18571e-06,0,-4.49796e-09,-1.74559e+09,-1.74555e+09,-1.74584e+09,-601.152,-0.0155566,-3.44244e-19,-0,0.0155566,31195.7,-60000,0,67625.2,601.152
step02_gravity_refstate-mantle.xmf,800,-1.60354e-06,9.62515e-06,0,6.27503e-08,-1.55499e+09,-1.55349e+09,-1.55477e+09,8386.58,0.0401609,0.0593876,0,0.0716923,-7609.33,-54108,-0,54640.5,8386.58
step02_gravity_refstate-mantle.xmf,801,-2.54704e-06,1.03224e-05,0,9.75591e-07,-1.54308e+09,-1.54136e+09,-1.54274e+09,130388,0.0346378,0.0714333,0,0.0793883,-6919.73,-53735.5,-0,54179.2,130388
step02_gravity_refstate-mantle.xmf,802,-3.52961e-06,1.08145e-05,0,2.20751e-06,-1.53031e+09,-1.52839e+09,-1.52984e+09,295034,0.0279352,0.0856012,0,0.0900441,-6255.5,-53335.9,-0,53701.5,295034
step02_gravity_refstate-mantle.xmf,803,1.00359e-06,7.93552e-06,0,-1.06114e-06,-1.61011e+09,-1.60918e+09,-1.61024e+09,-141821,0.0563806,0.0327734,0,0.0652141,-9037.04,-55823.8,-0,56550.5,141821
step02_gravity_refstate-mantle.xmf,804,2.24075e-06,6.87839e-06,0,-1.06346e-06,-1.64929e+09,-1.64867e+09,-1.64959e+09,-142132,0.0630356,0.0201962,0,0.066192,-9843.53,-57039.5,-0,57882.7,142132
step02_gravity_refstate-mantle.xmf,805,-4.47082e-06,1.09611e-05,0,3.81325e-06,-1.51662e+09,-1.51456e+09,-1.51603e+09,509641,0.0201224,0.102068,0,0.104033,-5611.25,-52907.2,-0,53203.9,509641
step02_gravity_refstate-mantle.xmf,806,1.34002e-05,-2.26742e-05,0,3.7798e-06,-1.37751e+09,-1.38233e+09,-1.3793e+09,505171,-0.00463566,0.243604,-0,0.243648,-340.232,-48643.5,-0,48644.7,505171
step02_gravity_refstate-mantle.xmf,807,-5.22608e-06,1.06764e-05,0,5.82913e-06,-1.5039e+09,-1.50178e+09,-1.5032e+09,779063,0.0120252,0.120813,0,0.12141,-4958.47,-52508.4,-0,52742,779063
step02_gravity_refstate-mantle.xmf,808,-5.53305e-06,6.76721e-06,0,1.14709e-05,-1.46891e+09,-1.46726e+09,-1.46817e+09,1.53309e+06,-0.00806125,0.17003,-0,0.170221,-3587.85,-51415.4,-0,51540.4,1.53309e+06
step02_gravity_refstate-mantle.xmf,809,-2.32498e-06,-2.64611e-06,0,1.78564e-05,-1.44867e+09,-1.44872e+09,-1.44836e+09,2.38651e+06,-0.0192529,0.225145,-0,0.225967,-2176.85,-50787.7,-0,50834.3,2.38651e+06
step02_gravity_refstate-mantle.xmf,810,-6.32326e-07,-6.1854e-06,0,1.93496e-05,-1.43997e+09,-1.44071e+09,-1.43989e+09,2.58608e+06,-0.02105,0.237762,-0,0.238692,-1850.57,-50521.2,-0,50555,2.58608e+06
step02_gravity_refstate-mantle.xmf,811,2.11577e-06,-1.3831e-05,0,2.02161e-05,-1.43127e+09,-1.4334e+09,-1.43156e+09,2.70188e+06,-0.0210397,0.252495,-0,0.25337,-1435.61,-50251.3,-0,50271.8,2.70188e+06
step02_gravity_refstate-mantle.xmf,812,1.76861e-05,-2.97224e-05,0,1.05647e-05,-1.40501e+09,-1.41135e+09,-1.40737e+09,1.41197e+06,-0.00858551,0.264102,-0,0.264241,-496.382,-49503.5,-0,49506,1.41197e+06
step02_gravity_refstate-mantle.xmf,813,1.52539e-05,-2.59367e-05,0,1.99135e-05,-1.4213e+09,-1.4268e+09,-1.42334e+09,2.66144e+06,-0.0167643,0.263615,-0,0.264148,-1000,-50000,-0,50010,2.66144e+06
step02_gravity_refstate-mantle.xmf,814,1.29288e-05,-2.09353e-05,0,2.0667e-07,-1.36953e+09,-1.37406e+09,-1.37126e+09,27621.4,-3.81108e-06,0.239257,-0,0.239257,0,-48398.2,0,48398.2,27621.4
step02_gravity_refstate-mantle.xmf,815,1.14556e-05,-1.84457e-05,0,-3.81884e-06,-1.36165e+09,-1.36565e+09,-1.36318e+09,-510387,0.00548149,0.232753,0,0.232818,468.111,-48151.3,0,48153.6,510387
step02_gravity_refstate-mantle.xmf,816,9.45618e-06,-1.54636e-05,0,-6.4862e-06,-1.35477e+09,-1.3581e+09,-1.35603e+09,-866880,0.00984214,0.225004,0,0.225219,930.608,-47932.9,0,47941.9,866880
step02_gravity_refstate-mantle.xmf,817,7.40054e-06,-1.22655e-05,0,-7.75554e-06,-1.34495e+09,-1.34758e+09,-1.34594e+09,-1.03653e+06,0.0128657,0.215308,0,0.215693,1385.68,-47624.1,0,47644.2,1.03653e+06
step02_gravity_refstate-mantle.xmf,818,5.50388e-07,2.77196e-06,0,7.47323e-07,-1.38712e+09,-1.38683e+09,-1.3872e+09,99879.7,-0.0133228,0.027504,-0,0.0305609,23978.5,-48919.6,0,54480.2,99879.7
step02_gravity_refstate-mantle.xmf,819,-1.57035e-06,4.10359e-06,0,-8.27597e-07,-1.26176e+09,-1.261e+09,-1.26155e+09,-110608,0.00358952,0.065661,0,0.065759,14569.8,-45036.3,0,47334.5,110608
step02_gravity_refstate-mantle.xmf,820,2.51252e-07,2.98026e-06,0,7.20021e-07,-1.36067e+09,-1.3603e+09,-1.3607e+09,96230.9,-0.0117955,0.0313463,-0,0.0334921,22603.3,-48100.9,0,53147,96230.9
step02_gravity_refstate-mantle.xmf,821,-1.21115e-06,3.83027e-06,0,-2.36012e-07,-1.26387e+09,-1.26319e+09,-1.2637e+09,-31542.9,0.000432355,0.0559122,0,0.0559139,16670.9,-45103,0,48085.4,31542.9
step02_gravity_refstate-mantle.xmf,822,-6.22718e-08,3.18331e-06,0,6.34521e-07,-1.33569e+09,-1.33525e+09,-1.33568e+09,84803.7,-0.00974285,0.0355624,-0,0.0368729,21347.2,-47327.7,0,51919.3,84803.7
step02_gravity_refstate-mantle.xmf,823,-3.83733e-07,3.37216e-06,0,4.86825e-07,-1.31156e+09,-1.31106e+09,-1.31151e+09,65064.2,-0.00722545,0.040258,-0,0.0409012,20162.5,-46580.6,0,50757.1,65064.2
step02_gravity_refstate-mantle.xmf,824,-6.57826e-07,3.57005e-06,0,3.17767e-07,-1.29877e+09,-1.29821e+09,-1.29868e+09,42469.6,-0.0053012,0.0446652,-0,0.0449787,18895.5,-46184.4,0,49900.2,42469.6
step02_gravity_refstate-mantle.xmf,825,-9.2645e-07,3.73327e-06,0,8.97331e-08,-1.28451e+09,-1.28389e+09,-1.28439e+09,11992.8,-0.0029152,0.0496295,-0,0.0497151,17756.7,-45742.5,0,49068.1,11992.8
step02_gravity_refstate-mantle.xmf,826,-1.02789e-06,2.46534e-06,0,-3.72289e-06,-1.199e+09,-1.19853e+09,-1.19886e+09,-497564,0.018584,0.115333,0,0.116821,8790.8,-43097.1,0,43984.5,497564
step02_gravity_refstate-mantle.xmf,827,-9.14007e-07,2.20945e-06,0,-4.38686e-06,-1.21714e+09,-1.21672e+09,-1.21702e+09,-586304,0.0185331,0.12308,0,0.124468,7856.57,-43657.5,0,44358.8,586304
step02_gravity_refstate-mantle.xmf,828,-1.09117e-06,2.28066e-06,0,-4.96298e-06,-1.24225e+09,-1.2418e+09,-1.24211e+09,-663303,0.0180585,0.127208,0,0.128483,7301.33,-44432.3,0,45028.2,663303
step02_gravity_refstate-mantle.xmf,829,-1.47385e-06,3.16106e-06,0,-3.29898e-06,-1.21601e+09,-1.21539e+09,-1.21581e+09,-440909,0.0163154,0.105371,0,0.106627,9721.93,-43621.2,0,44691.4,440909
step02_gravity_refstate-mantle.xmf,830,-1.77348e-06,3.70253e-06,0,-2.77528e-06,-1.2324e+09,-1.23167e+09,-1.23216e+09,-370916,0.0134818,0.0954922,0,0.0964392,10668.1,-44127,0,45398.2,370916
step02_gravity_refstate-mantle.xmf,831,-1.90747e-06,4.08096e-06,0,-2.20259e-06,-1.24858e+09,-1.24778e+09,-1.24833e+09,-294376,0.0102461,0.0860381,0,0.086646,11616.2,-44627,0,46114,294376
step02_gravity_refstate-mantle.xmf,832,-1.89225e-06,4.29812e-06,0,-1.62658e-06,-1.264e+09,-1.26317e+09,-1.26375e+09,-217393,0.00682251,0.0771749,0,0.0774759,12579,-45103.8,0,46825,217393
step02_gravity_refstate-mantle.xmf,833,1.32964e-06,2.33764e-06,0,6.38084e-07,-1.49707e+09,-1.49693e+09,-1.49724e+09,85280,-0.0174485,0.0172132,-0,0.0245101,26794.3,-52319.8,0,58781.8,85280
step02_gravity_refstate-mantle.xmf,834,1.71233e-06,2.16756e-06,0,4.24005e-07,-1.58682e+09,-1.58676e+09,-1.58705e+09,56668.3,-0.018762,0.0106661,-0,0.0215819,28260.9,-55094.4,0,61919.9,56668.3
step02_gravity_refstate-mantle.xmf,835,1.90517e-07,8.84739e-06,0,-7.22368e-07,-1.59469e+09,-1.59353e+09,-1.59472e+09,-96544.4,0.0528307,0.0417315,0,0.0673246,-8285.95,-55344.4,-0,55961.2,96544.4
step02_gravity_refstate-mantle.xmf,836,-7.08566e-07,9.77814e-06,0,-1.85817e-07,-1.58103e+09,-1.57963e+09,-1.58094e+09,-24834.4,0.0485772,0.0518098,0,0.0710211,-7581.13,-54918.8,-0,55439.6,24834.4
step02_gravity_refstate-mantle.xmf,837,1.81304e-06,7.80908e-06,0,-9.69298e-07,-1.64065e+09,-1.63985e+09,-1.64089e+09,-129547,0.063067,0.0252188,0,0.0679223,-9051.91,-56772.2,-0,57489.3,129547
step02_gravity_refstate-mantle.xmf,838,2.49785e-06,7.30058e-06,0,-8.2557e-07,-1.66914e+09,-1.66849e+09,-1.66947e+09,-110337,0.0671572,0.0171816,0,0.0693202,-9409.07,-57655.5,-0,58418.2,110337
step02_gravity_refstate-mantle.xmf,839,2.96996e-06,6.96124e-06,0,-5.50961e-07,-1.69893e+09,-1.6984e+09,-1.69933e+09,-73635.9,0.0699657,0.0100075,0,0.0706778,-9639.32,-58578.1,-0,59365.9,73635.9
step02_gravity_refstate-mantle.xmf,840,3.26888e-06,6.55906e-06,0,4.51853e-09,-1.74493e+09,-1.74449e+09,-1.74537e+09,603.902,0.0706498,-7.8672e-20,0,0.0706498,-10053,-60000,-0,60836.4,603.902
step02_gravity_refstate-mantle.xmf,841,1.54104e-05,-2.69254e-05,0,-4.75834e-08,-1.38763e+09,-1.39329e+09,-1.38969e+09,-6359.52,6.39663e-06,0.252379,0,0.252379,0,-48958.6,0,48958.6,6359.52
step02_gravity_refstate-mantle.xmf,842,-5.63078e-06,9.82313e-06,0,8.08909e-06,-1.49294e+09,-1.49088e+09,-1.49219e+09,1.08111e+06,0.0044748,0.140602,0,0.140674,-4338.59,-52165.1,-0,52345.2,1.08111e+06
step02_gravity_refstate-mantle.xmf,843,-5.56633e-06,8.43918e-06,0,1.08249e-05,-1.4863e+09,-1.48443e+09,-1.48556e+09,1.44675e+06,-0.00165182,0.162667,-0,0.162675,-3685.66,-51956.7,-0,52087.3,1.44675e+06
step02_gravity_refstate-mantle.xmf,844,-5.0316e-06,6.188e-06,0,1.34937e-05,-1.47872e+09,-1.47722e+09,-1.47804e+09,1.80343e+06,-0.0072686,0.184255,-0,0.184398,-3131.19,-51720.3,-0,51814.9,1.80343e+06
step02_gravity_refstate-mantle.xmf,845,-3.95252e-06,2.87473e-06,0,1.60725e-05,-1.46973e+09,-1.46882e+09,-1.4692e+09,2.14809e+06,-0.0124577,0.205908,-0,0.206284,-2625.21,-51441.5,-0,51508.4,2.14809e+06
step02_gravity_refstate-mantle.xmf,846,-2.46975e-06,-9.50189e-07,0,1.83122e-05,-1.46265e+09,-1.46244e+09,-1.46232e+09,2.44742e+06,-0.0158778,0.225044,-0,0.225603,-2196.73,-51222.7,-0,51269.8,2.44742e+06
step02_gravity_refstate-mantle.xmf,847,-4.47159e-07,-5.8313e-06,0,2.03289e-05,-1.45554e+09,-1.45626e+09,-1.45548e+09,2.71695e+06,-0.0182417,0.243155,-0,0.243838,-1799.61,-51004.2,-0,51035.9,2.71695e+06
step02_gravity_refstate-mantle.xmf,848,9.36521e-08,4.08455e-07,0,-6.03966e-06,-1.25164e+09,-1.2516e+09,-1.25165e+09,-807201,0.018898,0.148125,0,0.149325,5463.07,-44725.3,0,45057.7,807201
step02_gravity_refstate-mantle.xmf,849,5.01252e-06,-7.986e-06,0,-7.45698e-06,-1.31602e+09,-1.31776e+09,-1.31669e+09,-996625,0.0147623,0.197836,0,0.198386,2056.5,-46725.4,0,46770.7,996625
step02_gravity_refstate-mantle.xmf,850,3.47199e-06,-5.35207e-06,0,-7.50158e-06,-1.30086e+09,-1.30204e+09,-1.30133e+09,-1.00259e+06,0.0164852,0.186431,0,0.187158,2705.79,-46253.7,0,46332.8,1.00259e+06
step02_gravity_refstate-mantle.xmf,851,6.76907e-07,-6.26133e-07,0,-6.59231e-06,-1.26411e+09,-1.26428e+09,-1.2642e+09,-881062,0.0187344,0.15752,0,0.15863,4701,-45111.7,0,45356,881062
step02_gravity_refstate-mantle.xmf,852,1.36877e-06,-1.8412e-06,0,-7.03409e-06,-1.27643e+09,-1.27686e+09,-1.27661e+09,-940106,0.0183698,0.166631,0,0.167641,4021.81,-45493.9,0,45671.3,940106
step02_gravity_refstate-mantle.xmf,853,2.27847e-06,-3.38172e-06,0,-7.35984e-06,-1.28858e+09,-1.28934e+09,-1.28889e+09,-983643,0.0176774,0.176217,0,0.177101,3360.96,-45871.5,0,45994.4,983643
step02_gravity_refstate-mantle.xmf,854,5.81393e-06,-9.7534e-06,0,-8.18191e-06,-1.33482e+09,-1.3369e+09,-1.3356e+09,-1.09351e+06,0.0147098,0.206432,0,0.206955,1790.08,-47307.2,0,47341,1.09351e+06
step02_gravity_refstate-mantle.xmf,855,-1.36481e-06,4.08417e-06,0,-3.90066e-07,-1.28075e+09,-1.28002e+09,-1.28057e+09,-52132.3,-4.05188e-05,0.0583042,-0,0.0583042,15598.9,-45624.3,0,48217.2,52132.3
step02_gravity_refstate-mantle.xmf,856,-1.7606e-06,4.39514e-06,0,-1.07049e-06,-1.28087e+09,-1.28005e+09,-1.28064e+09,-143071,0.00313198,0.0687251,0,0.0687965,13561.1,-45626.2,0,47598.9,143071
step02_gravity_refstate-mantle.xmf,857,-1.16226e-06,2.2026e-06,0,-5.47822e-06,-1.25972e+09,-1.25927e+09,-1.25956e+09,-732164,0.0180471,0.131847,0,0.133076,6790.02,-44971,0,45480.7,732164
step02_gravity_refstate-mantle.xmf,858,1.14102e-06,2.49267e-06,0,7.35585e-07,-1.46804e+09,-1.46786e+09,-1.46819e+09,98310.9,-0.0176481,0.019967,-0,0.0266484,25352.4,-51422.2,0,57332.2,98310.9
step02_gravity_refstate-mantle.xmf,859,9.02405e-07,2.68432e-06,0,8.04468e-07,-1.43975e+09,-1.43952e+09,-1.43988e+09,107517,-0.0172243,0.0230935,-0,0.0288095,23940.7,-50547.4,0,55930.3,107517
step02_gravity_refstate-mantle.xmf,860,1.60914e-06,2.26324e-06,0,5.62657e-07,-1.55334e+09,-1.55325e+09,-1.55355e+09,75199.1,-0.0200713,0.0132198,-0,0.0240338,26758.9,-54059.7,0,60319.9,75199.1
step02_gravity_refstate-mantle.xmf,861,1.87201e-06,2.15963e-06,0,3.17717e-07,-1.63515e+09,-1.63512e+09,-1.6354e+09,42462.8,-0.0204069,0.00745642,-0,0.0217265,28055,-56588.5,0,63161.2,42462.8
step02_gravity_refstate-mantle.xmf,862,1.96923e-06,2.16924e-06,0,1.60032e-07,-1.69248e+09,-1.69245e+09,-1.69274e+09,21388.2,-0.0208546,0.00360951,-0,0.0211647,28315.7,-58359.8,0,64866.4,21388.2
step02_gravity_refstate-mantle.xmf,863,1.95924e-06,2.21226e-06,0,-4.67043e-09,-1.74557e+09,-1.74554e+09,-1.74583e+09,-624.203,-0.0192823,-3.50584e-19,-0,0.0192823,29252.7,-60000,0,66751.2,624.203
step02_gravity_refstate-mantle.xmf,864,-1.67049e-06,1.06449e-05,0,6.2967e-07,-1.56813e+09,-1.56648e+09,-1.5679e+09,84155.4,0.0434538,0.0636286,0,0.0770509,-6890.46,-54516.1,-0,54949.8,84155.4
step02_gravity_refstate-mantle.xmf,865,-2.7075e-06,1.13955e-05,0,1.78395e-06,-1.55522e+09,-1.55333e+09,-1.55485e+09,238425,0.0372364,0.0777218,0,0.0861813,-6209.58,-54112.2,-0,54467.3,238425
step02_gravity_refstate-mantle.xmf,866,-3.75206e-06,1.18378e-05,0,3.32778e-06,-1.54143e+09,-1.53934e+09,-1.54093e+09,444758,0.0297093,0.0942954,0,0.0988649,-5558.4,-53680.4,-0,53967.4,444758
step02_gravity_refstate-mantle.xmf,867,9.8842e-07,8.9281e-06,0,-7.32647e-07,-1.62255e+09,-1.62149e+09,-1.62268e+09,-97918.2,0.0602064,0.0343394,0,0.0693109,-8240.21,-56210.5,-0,56811.3,97918.2
step02_gravity_refstate-mantle.xmf,868,3.1347e-06,7.06716e-06,0,-2.63046e-07,-1.72455e+09,-1.72402e+09,-1.72497e+09,-35156.2,0.0717517,0.00447625,0,0.0718912,-9585.67,-59370.9,-0,60139.7,35156.2
step02_gravity_refstate-mantle.xmf,869,-4.66027e-06,1.18469e-05,0,5.28025e-06,-1.52762e+09,-1.52541e+09,-1.52699e+09,705705,0.0214468,0.112828,0,0.114849,-4943.98,-53247.7,-0,53476.7,705705
step02_gravity_refstate-mantle.xmf,870,1.81866e-05,-3.24749e-05,0,2.57292e-07,-1.40476e+09,-1.41153e+09,-1.40719e+09,34387.1,-4.12018e-06,0.268001,-0,0.268001,0,-49492,0,49492,34387.1
step02_gravity_refstate-mantle.xmf,871,-5.25762e-06,1.13973e-05,0,7.62706e-06,-1.51637e+09,-1.51415e+09,-1.51567e+09,1.01936e+06,0.0137235,0.132961,0,0.133667,-4334.65,-52895.2,-0,53072.6,1.01936e+06
step02_gravity_refstate-mantle.xmf,872,2.38186e-06,-1.14394e-05,0,2.21473e-05,-1.4473e+09,-1.44915e+09,-1.44762e+09,2.95999e+06,-0.0195227,0.260107,-0,0.260839,-1414.06,-50754.3,-0,50774,2.95999e+06
step02_gravity_refstate-mantle.xmf,873,8.43198e-06,-2.51629e-05,0,2.39027e-05,-1.43889e+09,-1.44338e+09,-1.44001e+09,3.1946e+06,-0.0185946,0.276648,-0,0.277272,-1000,-50499.8,-0,50509.7,3.1946e+06
step02_gravity_refstate-mantle.xmf,874,1.64147e-05,-3.55743e-05,0,1.05178e-05,-1.42184e+09,-1.42879e+09,-1.42404e+09,1.4057e+06,-0.00865075,0.280235,-0,0.280369,-500,-50000,-0,50002.5,1.4057e+06
step02_gravity_refstate-mantle.xmf,875,1.76449e-05,-3.98017e-05,0,1.58465e-07,-1.42193e+09,-1.42961e+09,-1.42429e+09,21178.9,3.9513e-05,0.286321,0,0.286321,0,-50000,0,50000,21178.9
step02_gravity_refstate-mantle.xmf,876,-8.63768e-07,1.63174e-06,0,-6.01438e-06,-1.26696e+09,-1.26663e+09,-1.26684e+09,-803823,0.0185397,0.13941,0,0.140637,6133.14,-45195.3,0,45609.6,803823
step02_gravity_refstate-mantle.xmf,877,1.32253e-05,-2.21495e-05,0,-5.31246e-06,-1.37953e+09,-1.38425e+09,-1.38129e+09,-710011,0.00646514,0.243974,0,0.244059,471.142,-48705.8,0,48708.1,710011
step02_gravity_refstate-mantle.xmf,878,1.02571e-05,-1.76416e-05,0,-8.37341e-06,-1.37175e+09,-1.37548e+09,-1.37312e+09,-1.11911e+06,0.0113064,0.233539,0,0.233812,942.386,-48457.3,0,48466.5,1.11911e+06
step02_gravity_refstate-mantle.xmf,879,5.48919e-06,-1.00328e-05,0,-9.8386e-06,-1.35158e+09,-1.35365e+09,-1.35231e+09,-1.31493e+06,0.0165794,0.210188,0,0.210841,1877.59,-47821.8,0,47858.7,1.31493e+06
step02_gravity_refstate-mantle.xmf,880,7.57516e-06,-1.34523e-05,0,-9.62588e-06,-1.36249e+09,-1.3653e+09,-1.3635e+09,-1.2865e+06,0.01458,0.221843,0,0.222322,1413.87,-48163.9,0,48184.7,1.2865e+06
step02_gravity_refstate-mantle.xmf,881,6.14783e-07,2.90476e-06,0,8.27702e-07,-1.41218e+09,-1.41187e+09,-1.41226e+09,110622,-0.0161137,0.0266717,-0,0.0311613,22590.7,-49694.2,0,54588.1,110622
step02_gravity_refstate-mantle.xmf,882,-1.54885e-06,4.3734e-06,0,-6.00564e-07,-1.29613e+09,-1.29534e+09,-1.29592e+09,-80265.4,-0.000246515,0.0614652,-0,0.0614657,14509.9,-46098.8,0,48328.4,80265.4
step02_gravity_refstate-mantle.xmf,883,2.95437e-07,3.13925e-06,0,7.94435e-07,-1.38654e+09,-1.38616e+09,-1.38658e+09,106176,-0.0144388,0.030637,-0,0.033869,21316.1,-48900.7,0,53344.7,106176
step02_gravity_refstate-mantle.xmf,884,-1.07246e-06,4.0543e-06,0,9.57188e-09,-1.30893e+09,-1.30824e+09,-1.30878e+09,1279.28,-0.00435949,0.0511381,-0,0.0513236,16483.2,-46496.5,0,49331.8,1279.28
step02_gravity_refstate-mantle.xmf,885,-3.70676e-08,3.37296e-06,0,7.0246e-07,-1.3634e+09,-1.36294e+09,-1.36339e+09,93883.8,-0.012349,0.0349351,-0,0.0370535,20119.6,-48184.3,0,52216.1,93883.8
step02_gravity_refstate-mantle.xmf,886,-3.70358e-07,3.605e-06,0,5.52526e-07,-1.34368e+09,-1.34315e+09,-1.34363e+09,73845.1,-0.0100491,0.039571,-0,0.040827,18939,-47573.6,0,51204.8,73845.1
step02_gravity_refstate-mantle.xmf,887,-6.92686e-07,3.82589e-06,0,3.47684e-07,-1.3273e+09,-1.3267e+09,-1.32721e+09,46468,-0.00762717,0.0445228,-0,0.0451713,17790.3,-47066,0,50316.1,46468
step02_gravity_refstate-mantle.xmf,888,-1.49193e-06,3.03041e-06,0,-3.93285e-06,-1.23079e+09,-1.23018e+09,-1.23059e+09,-525625,0.016696,0.11254,0,0.113772,8801.02,-44077.3,0,44947.4,525625
step02_gravity_refstate-mantle.xmf,889,-1.75731e-06,3.06387e-06,0,-5.08758e-06,-1.27094e+09,-1.2703e+09,-1.27071e+09,-679955,0.0166638,0.123163,0,0.124285,7449.56,-45316,0,45924.2,679955
step02_gravity_refstate-mantle.xmf,890,-1.67735e-06,3.15383e-06,0,-4.46782e-06,-1.25373e+09,-1.25309e+09,-1.25351e+09,-597124,0.0163598,0.116927,0,0.118066,8156.9,-44785.2,0,45522,597124
step02_gravity_refstate-mantle.xmf,891,-1.89479e-06,3.7903e-06,0,-3.30233e-06,-1.24971e+09,-1.24895e+09,-1.24946e+09,-441357,0.013682,0.101138,0,0.10206,9790.43,-44661.1,0,45721.6,441357
step02_gravity_refstate-mantle.xmf,892,-2.09582e-06,4.27987e-06,0,-2.644e-06,-1.26624e+09,-1.26539e+09,-1.26596e+09,-353370,0.0103313,0.0908271,0,0.0914128,10727.7,-45171.7,0,46428.1,353370
step02_gravity_refstate-mantle.xmf,893,-1.9947e-06,4.70958e-06,0,-1.35641e-06,-1.29841e+09,-1.29752e+09,-1.29815e+09,-181284,0.0028954,0.0723047,0,0.0723626,12591.1,-46167.2,0,47853.4,181284
step02_gravity_refstate-mantle.xmf,894,-2.11518e-06,4.57254e-06,0,-1.98575e-06,-1.28211e+09,-1.28122e+09,-1.28183e+09,-265396,0.00671802,0.0812598,0,0.081537,11655.8,-45662.6,0,47126.7,265396
step02_gravity_refstate-mantle.xmf,895,1.46149e-06,2.40193e-06,0,6.94071e-07,-1.52244e+09,-1.52232e+09,-1.52264e+09,92762.6,-0.0208739,0.0158782,-0,0.0262266,25284.6,-53104.7,0,58816.8,92762.6
step02_gravity_refstate-mantle.xmf,896,1.83399e-06,2.21807e-06,0,4.47162e-07,-1.60719e+09,-1.60714e+09,-1.60743e+09,59763.3,-0.022215,0.00950594,-0,0.0241634,26672.5,-55724.5,0,61779,59763.3
step02_gravity_refstate-mantle.xmf,897,1.26479e-07,9.93527e-06,0,-2.67217e-07,-1.60687e+09,-1.60556e+09,-1.60689e+09,-35713.6,0.0564137,0.0443338,0,0.0717494,-7531.27,-55723.1,-0,56229.7,35713.6
step02_gravity_refstate-mantle.xmf,898,-7.99104e-07,1.09645e-05,0,4.30231e-07,-1.59351e+09,-1.59194e+09,-1.5934e+09,57500.4,0.0520585,0.0554892,0,0.0760864,-6856.59,-55306.8,-0,55730.2,57500.4
step02_gravity_refstate-mantle.xmf,899,1.58839e-06,9.34446e-06,0,-4.86018e-07,-1.65096e+09,-1.64993e+09,-1.65118e+09,-64956.3,0.0669073,0.0276587,0,0.0723989,-8010.38,-57093.3,-0,57652.5,64956.3
step02_gravity_refstate-mantle.xmf,900,2.17498e-06,8.24239e-06,0,-6.95084e-07,-1.66437e+09,-1.66356e+09,-1.66466e+09,-92898,0.0680746,0.0207616,0,0.0711702,-8700.83,-57508.5,-0,58163,92898
step02_gravity_refstate-mantle.xmf,901,2.55947e-06,8.11855e-06,0,-5.40915e-07,-1.68726e+09,-1.68652e+09,-1.6876e+09,-72293.3,0.0711286,0.0146412,0,0.0726198,-8784.03,-58217.8,-0,58876.8,72293.3
step02_gravity_refstate-mantle.xmf,902,2.83631e-06,8.26148e-06,0,-2.56645e-07,-1.71763e+09,-1.7169e+09,-1.71801e+09,-34300.6,0.0739643,0.00700575,0,0.0742953,-8731.16,-59158.2,-0,59799,34300.6
step02_gravity_refstate-mantle.xmf,903,3.04735e-06,7.73471e-06,0,5.03781e-09,-1.74488e+09,-1.74425e+09,-1.74529e+09,673.304,0.0736031,-1.17908e-19,0,0.0736031,-9118.31,-60000,-0,60688.9,673.304
step02_gravity_refstate-mantle.xmf,904,1.53191e-05,-2.74107e-05,0,-8.17721e-06,-1.39775e+09,-1.40346e+09,-1.3998e+09,-1.09288e+06,0.00757005,0.257931,0,0.258042,464.672,-49269.3,0,49271.5,1.09288e+06
step02_gravity_refstate-mantle.xmf,905,-5.4381e-06,1.03491e-05,0,1.04387e-05,-1.50725e+09,-1.50514e+09,-1.50653e+09,1.39513e+06,0.00666475,0.155225,0,0.155368,-3724.36,-52609.7,-0,52741.3,1.39513e+06
step02_gravity_refstate-mantle.xmf,906,-5.09099e-06,8.39319e-06,0,1.34726e-05,-1.4981e+09,-1.4963e+09,-1.49742e+09,1.80061e+06,1.9227e-05,0.178633,0,0.178633,-3162.57,-52324.2,-0,52419.7,1.80061e+06
step02_gravity_refstate-mantle.xmf,907,-4.11375e-06,5.37273e-06,0,1.65418e-05,-1.48859e+09,-1.48733e+09,-1.48804e+09,2.21081e+06,-0.00595191,0.202408,-0,0.202496,-2649.86,-52029.4,-0,52096.8,2.21081e+06
step02_gravity_refstate-mantle.xmf,908,-2.53672e-06,1.44555e-06,0,1.9416e-05,-1.47958e+09,-1.47905e+09,-1.47924e+09,2.59495e+06,-0.0106179,0.224828,-0,0.225079,-2198.43,-51751.4,-0,51798.1,2.59495e+06
step02_gravity_refstate-mantle.xmf,909,-2.81741e-07,-3.46427e-06,0,2.2214e-05,-1.47133e+09,-1.47176e+09,-1.4713e+09,2.96891e+06,-0.0138459,0.246176,-0,0.246565,-1785.58,-51499.2,-0,51530.2,2.96891e+06
step02_gravity_refstate-mantle.xmf,910,1.80765e-05,-3.46794e-05,0,-6.66024e-06,-1.41145e+09,-1.4185e+09,-1.41387e+09,-890141,0.00551353,0.272964,0,0.27302,301.5,-49692.3,0,49693.2,890141
step02_gravity_refstate-mantle.xmf,911,2.82504e-06,-9.77666e-06,0,2.49295e-05,-1.46315e+09,-1.46483e+09,-1.46353e+09,3.33183e+06,-0.0157499,0.266098,-0,0.266564,-1406.51,-51251,-0,51270.3,3.33183e+06
step02_gravity_refstate-mantle.xmf,912,-4.20514e-07,7.71445e-07,0,-6.61853e-06,-1.27682e+09,-1.27666e+09,-1.27676e+09,-884567,0.0189453,0.14865,0,0.149853,5385.15,-45500.7,0,45818.2,884567
step02_gravity_refstate-mantle.xmf,913,4.08965e-06,-7.49179e-06,0,-9.38663e-06,-1.33775e+09,-1.33929e+09,-1.33829e+09,-1.25452e+06,0.0174849,0.199386,0,0.200152,2306.57,-47391.7,0,47447.8,1.25452e+06
step02_gravity_refstate-mantle.xmf,914,2.93776e-06,-5.3172e-06,0,-8.85963e-06,-1.32323e+09,-1.32434e+09,-1.32363e+09,-1.18409e+06,0.0181311,0.188912,0,0.18978,2787.98,-46941.3,0,47024,1.18409e+06
step02_gravity_refstate-mantle.xmf,915,1.73773e-06,-3.23697e-06,0,-8.45344e-06,-1.31185e+09,-1.31251e+09,-1.31208e+09,-1.1298e+06,0.018855,0.178236,0,0.17923,3385.48,-46586.8,0,46709.7,1.1298e+06
step02_gravity_refstate-mantle.xmf,916,8.91382e-08,-2.49343e-07,0,-7.30998e-06,-1.28893e+09,-1.28897e+09,-1.28894e+09,-976978,0.0191715,0.158069,0,0.159228,4684.86,-45875.4,0,46114,976978
step02_gravity_refstate-mantle.xmf,917,7.89216e-07,-1.55271e-06,0,-7.92071e-06,-1.30046e+09,-1.30077e+09,-1.30056e+09,-1.0586e+06,0.0191775,0.167838,0,0.16893,4025.32,-46233,0,46407.9,1.0586e+06
step02_gravity_refstate-mantle.xmf,918,-1.77349e-06,2.85115e-06,0,-5.73638e-06,-1.2856e+09,-1.28498e+09,-1.28536e+09,-766667,0.017193,0.12995,0,0.131083,6780.98,-45768,0,46267.6,766667
step02_gravity_refstate-mantle.xmf,919,-1.31533e-06,4.29425e-06,0,-2.37683e-07,-1.31047e+09,-1.30973e+09,-1.3103e+09,-31766.3,-0.00319272,0.0555546,-0,0.0556463,15350,-46543.3,0,49009.2,31766.3
step02_gravity_refstate-mantle.xmf,920,-1.77078e-06,4.71007e-06,0,-8.01508e-07,-1.31409e+09,-1.31322e+09,-1.31385e+09,-107122,-0.000818563,0.0642827,-0,0.0642879,13521,-46653,0,48572.8,107122
step02_gravity_refstate-mantle.xmf,921,1.26202e-06,2.58506e-06,0,8.0709e-07,-1.49342e+09,-1.49324e+09,-1.49359e+09,107868,-0.0210811,0.0187773,-0,0.0282312,23852.6,-52207.3,0,57398.1,107868
step02_gravity_refstate-mantle.xmf,922,9.8951e-07,2.81187e-06,0,8.85397e-07,-1.46311e+09,-1.46287e+09,-1.46324e+09,118333,-0.0203778,0.0222512,-0,0.0301724,22501.6,-51269.8,0,55990.3,118333
step02_gravity_refstate-mantle.xmf,923,1.7479e-06,2.32466e-06,0,5.9557e-07,-1.57662e+09,-1.57654e+09,-1.57685e+09,79598,-0.02367,0.0119404,-0,0.0265111,25215.3,-54779.9,0,60304.6,79598
step02_gravity_refstate-mantle.xmf,924,1.99986e-06,2.20411e-06,0,2.90429e-07,-1.661e+09,-1.66097e+09,-1.66126e+09,38815.8,-0.0237269,0.00583385,-0,0.0244335,26626.7,-57387.7,0,63264,38815.8
step02_gravity_refstate-mantle.xmf,925,2.05237e-06,2.25418e-06,0,-2.26092e-09,-1.74555e+09,-1.74552e+09,-1.74582e+09,-302.172,-0.0229941,-2.53188e-19,-0,0.0229941,27403,-60000,0,65961.6,302.172
step02_gravity_refstate-mantle.xmf,926,-1.81088e-06,1.19391e-05,0,1.46297e-06,-1.58064e+09,-1.5788e+09,-1.5804e+09,195527,0.0467057,0.0688376,0,0.0831867,-6185.64,-54904.9,-0,55252.2,195527
step02_gravity_refstate-mantle.xmf,927,-2.94049e-06,1.28507e-05,0,3.06925e-06,-1.56864e+09,-1.56653e+09,-1.56824e+09,410205,0.0403029,0.0860861,0,0.0950533,-5439.56,-54528.9,-0,54799.6,410205
step02_gravity_refstate-mantle.xmf,928,-4.08327e-06,1.30498e-05,0,4.97137e-06,-1.55051e+09,-1.54822e+09,-1.54996e+09,664424,0.0307607,0.105617,0,0.110006,-4872.8,-53961.7,-0,54181.3,664424
step02_gravity_refstate-mantle.xmf,929,7.72848e-07,1.0221e-05,0,-2.17034e-07,-1.63155e+09,-1.63029e+09,-1.63166e+09,-29006.6,0.0631556,0.0373234,0,0.0733598,-7441.02,-56490.5,-0,56978.5,29006.6
step02_gravity_refstate-mantle.xmf,930,2.07183e-06,9.2236e-06,0,-4.27907e-07,-1.67629e+09,-1.67534e+09,-1.67657e+09,-57189.8,0.0712821,0.0200116,0,0.0740378,-8075.48,-57878.6,-0,58439.3,57189.8
step02_gravity_refstate-mantle.xmf,931,-4.89815e-06,1.30436e-05,0,7.32794e-06,-1.5382e+09,-1.5358e+09,-1.53754e+09,979380,0.0228388,0.125701,0,0.127759,-4298.27,-53576,-0,53748.1,979380
step02_gravity_refstate-mantle.xmf,932,-5.3213e-06,1.2415e-05,0,1.02949e-05,-1.52824e+09,-1.52587e+09,-1.52753e+09,1.37591e+06,0.0154439,0.14833,0,0.149132,-3708.28,-53264.2,-0,53393.1,1.37591e+06
step02_gravity_refstate-mantle.xmf,933,1.54871e-05,-2.97266e-05,0,-1.20508e-05,-1.40953e+09,-1.41557e+09,-1.4116e+09,-1.61058e+06,0.0105987,0.265555,0,0.265766,611.829,-49628.4,0,49632.1,1.61058e+06
step02_gravity_refstate-mantle.xmf,934,7.4245e-06,-1.90941e-05,0,2.89488e-05,-1.45479e+09,-1.45833e+09,-1.45578e+09,3.86901e+06,-0.0157744,0.287776,-0,0.288208,-1000,-50999.8,-0,51009.6,3.86901e+06
step02_gravity_refstate-mantle.xmf,935,1.70642e-05,-3.5708e-05,0,-1.09628e-05,-1.42171e+09,-1.42877e+09,-1.42399e+09,-1.46517e+06,0.00865341,0.280224,0,0.280357,500,-50000,0,50002.5,1.46517e+06
step02_gravity_refstate-mantle.xmf,936,-1.36641e-06,2.07938e-06,0,-6.40662e-06,-1.2893e+09,-1.28884e+09,-1.28911e+09,-856244,0.0182297,0.139283,0,0.140471,6044.79,-45883.1,0,46279.6,856244
step02_gravity_refstate-mantle.xmf,937,1.08332e-05,-1.99445e-05,0,-1.10073e-05,-1.38852e+09,-1.39264e+09,-1.38997e+09,-1.47113e+06,0.0129852,0.2431,0,0.243446,951.144,-48973.4,0,48982.6,1.47113e+06
step02_gravity_refstate-mantle.xmf,938,7.55732e-06,-1.4631e-05,0,-1.18942e-05,-1.37996e+09,-1.38292e+09,-1.38097e+09,-1.58966e+06,0.0163142,0.229289,0,0.229869,1418.83,-48700.5,0,48721.2,1.58966e+06
step02_gravity_refstate-mantle.xmf,939,3.26296e-06,-7.15306e-06,0,-1.1087e-05,-1.35751e+09,-1.3589e+09,-1.35794e+09,-1.48177e+06,0.0193216,0.202206,0,0.203127,2396.87,-47997.4,0,48057.2,1.48177e+06
step02_gravity_refstate-mantle.xmf,940,5.06209e-06,-1.03817e-05,0,-1.17349e-05,-1.36938e+09,-1.37144e+09,-1.37006e+09,-1.56836e+06,0.018289,0.215288,0,0.216063,1903.21,-48367.9,0,48405.4,1.56836e+06
step02_gravity_refstate-mantle.xmf,941,6.70396e-07,3.06301e-06,0,9.03977e-07,-1.43499e+09,-1.43467e+09,-1.43508e+09,120817,-0.0189865,0.0260684,-0,0.0322498,21255,-50399.6,0,54698.2,120817
step02_gravity_refstate-mantle.xmf,942,-1.4769e-06,4.59835e-06,0,-3.32436e-07,-1.32838e+09,-1.32756e+09,-1.32818e+09,-44430.1,-0.00422835,0.057153,-0,0.0573092,14477.5,-47095.9,0,49270.9,44430.1
step02_gravity_refstate-mantle.xmf,943,3.336e-07,3.32852e-06,0,8.70121e-07,-1.41144e+09,-1.41104e+09,-1.41148e+09,116292,-0.0172906,0.0300748,-0,0.0346909,20050.5,-49670.6,0,53564.8,116292
step02_gravity_refstate-mantle.xmf,944,-1.15085e-06,4.40178e-06,0,3.95703e-08,-1.34031e+09,-1.33957e+09,-1.34016e+09,5288.57,-0.00711302,0.0509621,-0,0.0514561,15485.8,-47466.4,0,49928.6,5288.57
step02_gravity_refstate-mantle.xmf,945,-2.47141e-08,3.59866e-06,0,7.71792e-07,-1.38984e+09,-1.38936e+09,-1.38984e+09,103150,-0.0151423,0.0344957,-0,0.0376729,18908.3,-49001.7,0,52523.2,103150
step02_gravity_refstate-mantle.xmf,946,-3.95207e-07,3.87572e-06,0,6.06552e-07,-1.37122e+09,-1.37065e+09,-1.37116e+09,81065.6,-0.0127399,0.0393827,-0,0.0413921,17757.6,-48424.7,0,51577.9,81065.6
step02_gravity_refstate-mantle.xmf,947,-7.77725e-07,4.14588e-06,0,3.61102e-07,-1.35412e+09,-1.35346e+09,-1.35402e+09,48261.3,-0.00997323,0.0449122,-0,0.0460062,16621.9,-47894.7,0,50697,48261.3
step02_gravity_refstate-mantle.xmf,948,-2.10345e-06,3.8785e-06,0,-3.87702e-06,-1.26756e+09,-1.26676e+09,-1.26728e+09,-518164,0.0139127,0.106818,0,0.10772,8982.25,-45211.4,0,46095,518164
step02_gravity_refstate-mantle.xmf,949,-2.41832e-06,3.8508e-06,0,-5.18621e-06,-1.30019e+09,-1.29935e+09,-1.29987e+09,-693137,0.0150542,0.120025,0,0.120966,7451.68,-46217.2,0,46814,693137
step02_gravity_refstate-mantle.xmf,950,-2.27989e-06,3.92499e-06,0,-4.49281e-06,-1.28501e+09,-1.28418e+09,-1.2847e+09,-600465,0.0143256,0.112992,0,0.113897,8204.84,-45749.2,0,46479.2,600465
step02_gravity_refstate-mantle.xmf,951,-2.31838e-06,4.47549e-06,0,-3.13753e-06,-1.28354e+09,-1.28263e+09,-1.28323e+09,-419331,0.0105846,0.0960925,0,0.0966737,9869.59,-45705,0,46758.5,419331
step02_gravity_refstate-mantle.xmf,952,-2.03297e-06,5.0811e-06,0,-1.02372e-06,-1.33166e+09,-1.33071e+09,-1.33139e+09,-136820,-0.00132614,0.0673731,-0,0.0673861,12576,-47194.9,0,48841.7,136820
step02_gravity_refstate-mantle.xmf,953,-2.37924e-06,4.861e-06,0,-2.38849e-06,-1.29967e+09,-1.2987e+09,-1.29935e+09,-319221,0.00677276,0.0857701,0,0.0860371,10768.3,-46203.7,0,47441.9,319221
step02_gravity_refstate-mantle.xmf,954,-2.27097e-06,5.05197e-06,0,-1.67341e-06,-1.3157e+09,-1.31472e+09,-1.31539e+09,-223651,0.00274565,0.0761898,0,0.0762392,11666.2,-46700.1,0,48135.3,223651
step02_gravity_refstate-mantle.xmf,955,1.60844e-06,2.48227e-06,0,7.42247e-07,-1.54743e+09,-1.54731e+09,-1.54765e+09,99201.3,-0.0245964,0.0145805,-0,0.0285933,23779.6,-53877.8,0,58892.2,99201.3
step02_gravity_refstate-mantle.xmf,956,1.97813e-06,2.27631e-06,0,4.46719e-07,-1.63035e+09,-1.63031e+09,-1.63062e+09,59704.1,-0.0258854,0.00813317,-0,0.0271331,25140.6,-56441.2,0,61787.2,59704.1
step02_gravity_refstate-mantle.xmf,957,2.08415e-06,2.22892e-06,0,1.36054e-07,-1.70805e+09,-1.70803e+09,-1.70833e+09,18183.6,-0.0245303,0.00261091,-0,0.0246688,26578.9,-58841.7,0,64566.1,18183.6
step02_gravity_refstate-mantle.xmf,958,-8.84341e-08,1.12935e-05,0,3.83569e-07,-1.61727e+09,-1.61575e+09,-1.61726e+09,51264,0.0594631,0.047866,0,0.0763349,-6799.25,-56046.4,-0,56457.3,51264
step02_gravity_refstate-mantle.xmf,959,-1.01757e-06,1.24425e-05,0,1.27416e-06,-1.60495e+09,-1.60315e+09,-1.60481e+09,170291,0.0552248,0.0598899,0,0.0814652,-6165,-55662.4,-0,56002.8,170291
step02_gravity_refstate-mantle.xmf,960,1.05026e-06,1.08128e-05,0,4.04809e-09,-1.65045e+09,-1.64915e+09,-1.65059e+09,541.027,0.0678246,0.0327352,0,0.0753112,-7225.69,-57077.6,-0,57533.2,541.027
step02_gravity_refstate-mantle.xmf,961,3.91862e-07,1.176e-05,0,4.46771e-07,-1.63929e+09,-1.63777e+09,-1.63935e+09,59711,0.0655433,0.0408442,0,0.077228,-6706.56,-56731,-0,57126,59711
step02_gravity_refstate-mantle.xmf,962,2.30913e-06,9.4813e-06,0,-2.7247e-07,-1.70022e+09,-1.69926e+09,-1.70053e+09,-36415.6,0.0744119,0.0132102,0,0.0755754,-8024.78,-58620,-0,59166.7,36415.6
step02_gravity_refstate-mantle.xmf,963,2.65525e-06,9.19163e-06,0,6.41113e-10,-1.74484e+09,-1.74397e+09,-1.7452e+09,85.6847,0.0761411,-1.3106e-19,0,0.0761411,-8227.38,-60000,-0,60561.5,85.6847
step02_gravity_refstate-mantle.xmf,964,-5.23931e-06,1.09353e-05,0,1.35498e-05,-1.51821e+09,-1.51605e+09,-1.51751e+09,1.81093e+06,0.00825616,0.172249,0,0.172447,-3170.71,-52951,-0,53045.8,1.81093e+06
step02_gravity_refstate-mantle.xmf,965,-4.49361e-06,8.33682e-06,0,1.7222e-05,-1.508e+09,-1.50629e+09,-1.5074e+09,2.30172e+06,0.0014632,0.19859,0,0.198596,-2642.91,-52634,-0,52700.3,2.30172e+06
step02_gravity_refstate-mantle.xmf,966,-3.00567e-06,4.51404e-06,0,2.06992e-05,-1.49727e+09,-1.49627e+09,-1.49687e+09,2.76645e+06,-0.00437596,0.223787,-0,0.22383,-2186.51,-52302.7,-0,52348.4,2.76645e+06
step02_gravity_refstate-mantle.xmf,967,-8.82364e-07,5.3297e-09,0,2.40653e-05,-1.48765e+09,-1.48753e+09,-1.48753e+09,3.21632e+06,-0.00855004,0.247246,-0,0.247394,-1782.26,-52008,-0,52038.5,3.21632e+06
step02_gravity_refstate-mantle.xmf,968,1.87927e-06,-5.36096e-06,0,2.75029e-05,-1.4792e+09,-1.48017e+09,-1.47945e+09,3.67576e+06,-0.0110751,0.269365,-0,0.269592,-1414.79,-51751.9,-0,51771.3,3.67576e+06
step02_gravity_refstate-mantle.xmf,969,1.05528e-05,-2.11039e-05,0,-1.42173e-05,-1.40482e+09,-1.40905e+09,-1.40623e+09,-1.90015e+06,0.0149999,0.252749,0,0.253194,983.677,-49472.1,0,49481.9,1.90015e+06
step02_gravity_refstate-mantle.xmf,970,5.61637e-06,-1.27176e-05,0,3.25784e-05,-1.47086e+09,-1.47331e+09,-1.47161e+09,4.35411e+06,-0.0118401,0.295766,-0,0.296003,-1000,-51500.3,-0,51510,4.35411e+06
step02_gravity_refstate-mantle.xmf,971,1.05863e-05,-2.7225e-05,0,-2.13802e-05,-1.42241e+09,-1.42747e+09,-1.42383e+09,-2.85746e+06,0.0167809,0.263587,0,0.264121,1000,-50000,0,50010,2.85746e+06
step02_gravity_refstate-mantle.xmf,972,-1.03719e-06,1.28963e-06,0,-7.1439e-06,-1.30082e+09,-1.30051e+09,-1.30068e+09,-954782,0.0189276,0.148584,0,0.149785,5334.85,-46239.3,0,46546,954782
step02_gravity_refstate-mantle.xmf,973,2.04755e-06,-4.84445e-06,0,-1.03218e-05,-1.34544e+09,-1.34636e+09,-1.34571e+09,-1.37951e+06,0.0197426,0.190929,0,0.191947,2872.4,-47622.4,0,47708.9,1.37951e+06
step02_gravity_refstate-mantle.xmf,974,9.9194e-07,-2.83327e-06,0,-9.56218e-06,-1.33396e+09,-1.33448e+09,-1.3341e+09,-1.27799e+06,0.0199397,0.17988,0,0.180981,3410.76,-47266.1,0,47389,1.27799e+06
step02_gravity_refstate-mantle.xmf,975,5.53257e-08,-1.06406e-06,0,-8.79823e-06,-1.32347e+09,-1.32361e+09,-1.32347e+09,-1.17588e+06,0.0198778,0.168774,0,0.16994,4024.84,-46940,0,47112.2,1.17588e+06
step02_gravity_refstate-mantle.xmf,976,-6.43357e-07,3.12174e-07,0,-8.00707e-06,-1.31319e+09,-1.31306e+09,-1.3131e+09,-1.07015e+06,0.0195039,0.158247,0,0.159444,4671.48,-46621.4,0,46854.9,1.07015e+06
step02_gravity_refstate-mantle.xmf,977,-2.38313e-06,3.53306e-06,0,-6.00583e-06,-1.3133e+09,-1.31251e+09,-1.31298e+09,-802679,0.0162435,0.129157,0,0.130175,6635.53,-46621.6,0,47091.4,802679
step02_gravity_refstate-mantle.xmf,978,-1.70001e-06,4.97423e-06,0,-4.60655e-07,-1.34712e+09,-1.34622e+09,-1.34689e+09,-61566.5,-0.00524371,0.0593442,-0,0.0595754,13519.8,-47674.3,0,49554.3,61566.5
step02_gravity_refstate-mantle.xmf,979,1.03591e-06,2.97258e-06,0,9.55525e-07,-1.47985e+09,-1.47959e+09,-1.47999e+09,127706,-0.0231758,0.0219933,-0,0.0319504,21150.6,-51787.6,0,55940.2,127706
step02_gravity_refstate-mantle.xmf,980,1.40472e-06,2.70973e-06,0,8.80972e-07,-1.51848e+09,-1.51831e+09,-1.51867e+09,117742,-0.0250379,0.0177269,-0,0.0306781,22219.7,-52982.8,0,57453.4,117742
step02_gravity_refstate-mantle.xmf,981,1.90777e-06,2.39575e-06,0,6.08709e-07,-1.60105e+09,-1.60099e+09,-1.60131e+09,81354,-0.027484,0.0105503,-0,0.0294394,23736.8,-55535.9,0,60396,81354
step02_gravity_refstate-mantle.xmf,982,2.15549e-06,2.27985e-06,0,2.26022e-07,-1.69287e+09,-1.69286e+09,-1.69316e+09,30207.9,-0.0277869,0.0037533,-0,0.0280392,24954.9,-58373.7,0,63484.1,30207.9
step02_gravity_refstate-mantle.xmf,983,2.15987e-06,2.30724e-06,0,-6.23973e-09,-1.74552e+09,-1.7455e+09,-1.74581e+09,-833.94,-0.0267,-3.6378e-19,-0,0.0267,25642.2,-60000,0,65249.7,833.94
step02_gravity_refstate-mantle.xmf,984,-4.56755e-06,1.46039e-05,0,7.16988e-06,-1.5586e+09,-1.55603e+09,-1.55798e+09,958255,0.0314466,0.118932,0,0.123019,-4227.88,-54212.4,-0,54377,958255
step02_gravity_refstate-mantle.xmf,985,-2.02127e-06,1.35497e-05,0,2.51413e-06,-1.59369e+09,-1.59161e+09,-1.59342e+09,336014,0.0502861,0.0739003,0,0.0893865,-5539.93,-55310.7,-0,55587.4,336014
step02_gravity_refstate-mantle.xmf,986,-3.69229e-06,1.45038e-05,0,5.14111e-06,-1.57202e+09,-1.56959e+09,-1.57153e+09,687110,0.0391605,0.100865,0,0.1082,-4682.89,-54632.7,-0,54833.1,687110
step02_gravity_refstate-mantle.xmf,987,1.4854e-06,1.08047e-05,0,-2.0002e-08,-1.67128e+09,-1.67003e+09,-1.67147e+09,-2673.26,0.0718124,0.0251735,0,0.0760968,-7317.64,-57723.8,-0,58185.8,2673.26
step02_gravity_refstate-mantle.xmf,988,7.22863e-07,1.2253e-05,0,5.13378e-07,-1.65991e+09,-1.65836e+09,-1.66e+09,68612.9,0.070365,0.0336422,0,0.0779938,-6647.12,-57371.2,-0,57755,68612.9
step02_gravity_refstate-mantle.xmf,989,2.2581e-06,1.01948e-05,0,-7.55321e-08,-1.72332e+09,-1.72226e+09,-1.72362e+09,-10094.9,0.0768514,0.00681603,0,0.0771531,-7720.61,-59335,-0,59835.2,10094.9
step02_gravity_refstate-mantle.xmf,990,1.74912e-06,1.10584e-05,0,2.53364e-08,-1.69627e+09,-1.69503e+09,-1.69651e+09,3386.21,0.0754815,0.016853,0,0.07734,-7285.18,-58498.3,-0,58950.2,3386.21
step02_gravity_refstate-mantle.xmf,991,-5.27327e-06,1.44853e-05,0,9.88777e-06,-1.54795e+09,-1.54531e+09,-1.54724e+09,1.3215e+06,0.0241429,0.13996,0,0.142027,-3711.6,-53878.4,-0,54006.1,1.3215e+06
step02_gravity_refstate-mantle.xmf,992,-5.53516e-06,1.37031e-05,0,1.34402e-05,-1.5381e+09,-1.53553e+09,-1.53736e+09,1.79628e+06,0.0168213,0.164561,0,0.165419,-3172.08,-53570.5,-0,53664.3,1.79628e+06
step02_gravity_refstate-mantle.xmf,993,-1.9026e-06,2.56636e-06,0,-6.79104e-06,-1.31219e+09,-1.31159e+09,-1.31193e+09,-907623,0.0178805,0.139662,0,0.140802,5901.04,-46587.9,0,46960.1,907623
step02_gravity_refstate-mantle.xmf,994,7.1702e-06,-1.53143e-05,0,-1.44455e-05,-1.39695e+09,-1.39996e+09,-1.39791e+09,-1.93064e+06,0.0181454,0.236722,0,0.237416,1434.64,-49221.1,0,49242,1.93064e+06
step02_gravity_refstate-mantle.xmf,995,4.32943e-06,-1.05181e-05,0,-1.39119e-05,-1.38763e+09,-1.38961e+09,-1.38821e+09,-1.85933e+06,0.0198999,0.221112,0,0.222005,1903.83,-48926.4,0,48963.4,1.85933e+06
step02_gravity_refstate-mantle.xmf,996,1.01369e-06,-4.20012e-06,0,-1.17228e-05,-1.36623e+09,-1.36692e+09,-1.36636e+09,-1.56675e+06,0.0209411,0.193251,0,0.194383,2900.2,-48259.2,0,48346.3,1.56675e+06
step02_gravity_refstate-mantle.xmf,997,2.33456e-06,-6.83669e-06,0,-1.28635e-05,-1.37726e+09,-1.37849e+09,-1.37758e+09,-1.71921e+06,0.0207443,0.206349,0,0.207389,2401.22,-48602.3,0,48661.6,1.71921e+06
step02_gravity_refstate-mantle.xmf,998,7.21327e-07,3.2444e-06,0,9.80942e-07,-1.45632e+09,-1.45599e+09,-1.45642e+09,131103,-0.0219534,0.0256024,-0,0.0337258,19987.9,-51059.5,0,54832.4,131103
step02_gravity_refstate-mantle.xmf,999,-1.31984e-06,4.77573e-06,0,-5.07007e-09,-1.36212e+09,-1.36131e+09,-1.36195e+09,-677.615,-0.0088228,0.0522559,-0,0.0529955,14478.4,-48139.9,0,50270,677.615
step02_gravity_refstate-mantle.xmf,1000,3.65626e-07,3.54561e-06,0,9.47981e-07,-1.43484e+09,-1.43441e+09,-1.43488e+09,126698,-0.0202656,0.0296617,-0,0.0359237,18836.2,-50394.1,0,53799.3,126698
step02_gravity_refstate-mantle.xmf,1001,-8.98684e-07,4.50056e-06,0,3.65595e-07,-1.37741e+09,-1.37669e+09,-1.37729e+09,48861.7,-0.0121317,0.0457067,-0,0.0472893,15522.8,-48614.4,0,51032.5,48861.7
step02_gravity_refstate-mantle.xmf,1002,-3.29885e-08,3.86379e-06,0,8.40978e-07,-1.41412e+09,-1.4136e+09,-1.41412e+09,112397,-0.0179884,0.0343443,-0,0.03877,17717.8,-49752.4,0,52813.1,112397
step02_gravity_refstate-mantle.xmf,1003,-4.60843e-07,4.18663e-06,0,6.48521e-07,-1.39469e+09,-1.39407e+09,-1.39463e+09,86674.8,-0.0152215,0.0396983,-0,0.0425164,16616.5,-49150.2,0,51883.1,86674.8
step02_gravity_refstate-mantle.xmf,1004,-3.08033e-06,4.74218e-06,0,-5.07764e-06,-1.32907e+09,-1.32802e+09,-1.32866e+09,-678626,0.0128257,0.115885,0,0.116592,7476.69,-47107,0,47696.6,678626
step02_gravity_refstate-mantle.xmf,1005,-2.61552e-06,4.64919e-06,0,-3.71054e-06,-1.30039e+09,-1.29942e+09,-1.30004e+09,-495914,0.0110188,0.101841,0,0.102436,9046.4,-46224,0,47101,495914
step02_gravity_refstate-mantle.xmf,1006,-2.86819e-06,4.74983e-06,0,-4.36139e-06,-1.31569e+09,-1.31468e+09,-1.31531e+09,-582900,0.0118074,0.10858,0,0.10922,8232.06,-46695.3,0,47415.4,582900
step02_gravity_refstate-mantle.xmf,1007,-2.68106e-06,5.15501e-06,0,-2.83911e-06,-1.31675e+09,-1.31571e+09,-1.3164e+09,-379448,0.00699654,0.090735,0,0.0910044,9914.49,-46730.3,0,47770.5,379448
step02_gravity_refstate-mantle.xmf,1008,-1.96946e-06,5.39276e-06,0,-6.1477e-07,-1.36493e+09,-1.36394e+09,-1.36466e+09,-82164,-0.00611743,0.0619826,-0,0.0622838,12576.5,-48223.7,0,49836.7,82164
step02_gravity_refstate-mantle.xmf,1009,-2.33553e-06,5.48559e-06,0,-1.26865e-06,-1.3489e+09,-1.34786e+09,-1.34859e+09,-169555,-0.00176019,0.0707576,-0,0.0707795,11669.5,-47726.5,0,49132.5,169555
step02_gravity_refstate-mantle.xmf,1010,-2.58762e-06,5.41711e-06,0,-2.0226e-06,-1.33268e+09,-1.33161e+09,-1.33234e+09,-270321,0.00270048,0.080401,0,0.0804463,10783.6,-47223.7,0,48439.3,270321
step02_gravity_refstate-mantle.xmf,1011,1.77854e-06,2.57023e-06,0,7.7163e-07,-1.57278e+09,-1.57267e+09,-1.57302e+09,103128,-0.0285238,0.0132097,-0,0.0314341,22361,-54662.1,0,59059,103128
step02_gravity_refstate-mantle.xmf,1012,2.13964e-06,2.35453e-06,0,4.21946e-07,-1.65413e+09,-1.6541e+09,-1.65442e+09,56393.1,-0.0298302,0.0066826,-0,0.0305696,23593.3,-57177,0,61853.4,56393.1
step02_gravity_refstate-mantle.xmf,1013,-2.88884e-06,1.45433e-05,0,3.88511e-06,-1.58669e+09,-1.58436e+09,-1.5863e+09,519244,0.0462727,0.0869761,0,0.0985191,-5006.77,-55091.2,-0,55318.2,519244
step02_gravity_refstate-mantle.xmf,1014,-4.49807e-07,1.29702e-05,0,1.22882e-06,-1.6275e+09,-1.62571e+09,-1.62744e+09,164231,0.0622863,0.0516713,0,0.0809291,-6107.99,-56364.2,-0,56694.2,164231
step02_gravity_refstate-mantle.xmf,1015,-1.40284e-06,1.43065e-05,0,2.34881e-06,-1.61621e+09,-1.61411e+09,-1.61602e+09,313919,0.058186,0.0646518,0,0.0869797,-5507.44,-56012.4,-0,56282.5,313919
step02_gravity_refstate-mantle.xmf,1016,-9.66303e-08,1.35873e-05,0,1.22167e-06,-1.64911e+09,-1.64728e+09,-1.6491e+09,163276,0.0680905,0.0433658,0,0.0807274,-6049.3,-57035.7,-0,57355.6,163276
step02_gravity_refstate-mantle.xmf,1017,2.00893e-06,1.10508e-05,0,-2.54189e-09,-1.74483e+09,-1.74362e+09,-1.7451e+09,-339.724,0.078119,-1.44606e-19,0,0.078119,-7377.92,-60000,-0,60451.9,339.724
step02_gravity_refstate-mantle.xmf,1018,-5.16665e-06,1.64695e-05,0,9.49605e-06,-1.56682e+09,-1.56393e+09,-1.56613e+09,1.26915e+06,0.0324735,0.131325,0,0.13528,-3697.61,-54467.1,-0,54592.5,1.26915e+06
step02_gravity_refstate-mantle.xmf,1019,-5.18844e-06,1.1894e-05,0,1.75874e-05,-1.52799e+09,-1.52571e+09,-1.5273e+09,2.35055e+06,0.00961957,0.192109,0,0.19235,-2646.88,-53255.9,-0,53321.6,2.35055e+06
step02_gravity_refstate-mantle.xmf,1020,-3.98917e-06,8.3351e-06,0,2.27676e-05,-1.51695e+09,-1.5153e+09,-1.51641e+09,3.04288e+06,0.00257452,0.225947,0,0.225962,-2076.94,-52913.7,-0,52954.4,3.04288e+06
step02_gravity_refstate-mantle.xmf,1021,-1.939e-06,3.65687e-06,0,2.56105e-05,-1.50285e+09,-1.5021e+09,-1.50259e+09,3.42285e+06,-0.00339276,0.247186,-0,0.247209,-1768.68,-52479.8,-0,52509.6,3.42285e+06
step02_gravity_refstate-mantle.xmf,1022,2.73409e-07,-4.17808e-07,0,2.9707e-05,-1.49558e+09,-1.49567e+09,-1.49561e+09,3.97035e+06,-0.00605365,0.271463,-0,0.27153,-1405.37,-52259.6,-0,52278.5,3.97035e+06
step02_gravity_refstate-mantle.xmf,1023,3.2191e-06,-6.20454e-06,0,3.5019e-05,-1.48703e+09,-1.48829e+09,-1.48746e+09,4.68029e+06,-0.00773326,0.300506,-0,0.300605,-1000,-52000.6,-0,52010.2,4.68029e+06
step02_gravity_refstate-mantle.xmf,1024,6.32298e-06,-1.52763e-05,0,-1.78531e-05,-1.41372e+09,-1.41661e+09,-1.41456e+09,-2.38607e+06,0.0197744,0.244454,0,0.245252,1443.1,-49733.5,0,49754.4,2.38607e+06
step02_gravity_refstate-mantle.xmf,1025,-1.79079e-06,2.0373e-06,0,-7.55376e-06,-1.32408e+09,-1.32357e+09,-1.32384e+09,-1.00956e+06,0.0186392,0.147492,0,0.148665,5328.63,-46954.7,0,47256.1,1.00956e+06
step02_gravity_refstate-mantle.xmf,1026,2.96753e-08,-2.15893e-06,0,-1.06557e-05,-1.35547e+09,-1.35576e+09,-1.35547e+09,-1.42414e+06,0.0207846,0.181338,0,0.182525,3420.82,-47925.6,0,48047.5,1.42414e+06
step02_gravity_refstate-mantle.xmf,1027,-7.47733e-07,-5.08536e-07,0,-9.65486e-06,-1.34486e+09,-1.34483e+09,-1.34476e+09,-1.29037e+06,0.020349,0.170023,0,0.171237,3983.36,-47597,0,47763.4,1.29037e+06
step02_gravity_refstate-mantle.xmf,1028,-1.52456e-06,1.09696e-06,0,-8.6121e-06,-1.33644e+09,-1.33609e+09,-1.33623e+09,-1.15101e+06,0.0195483,0.157727,0,0.158934,4672.62,-47335.7,0,47565.8,1.15101e+06
step02_gravity_refstate-mantle.xmf,1029,-2.66298e-06,3.51462e-06,0,-6.79591e-06,-1.33358e+09,-1.33276e+09,-1.33323e+09,-908273,0.0167114,0.135769,0,0.136794,6027.74,-47246.1,0,47629.1,908273
step02_gravity_refstate-mantle.xmf,1030,-1.53313e-06,5.18292e-06,0,-7.34931e-08,-1.38107e+09,-1.38018e+09,-1.38087e+09,-9822.35,-0.0102439,0.054069,-0,0.0550308,13508.5,-48724.9,0,50562.8,9822.35
step02_gravity_refstate-mantle.xmf,1031,-3.24163e-06,4.69722e-06,0,-5.82281e-06,-1.34318e+09,-1.34212e+09,-1.34274e+09,-778218,0.013842,0.123545,0,0.124318,6765.76,-47541.6,0,48020.6,778218
step02_gravity_refstate-mantle.xmf,1032,1.10177e-06,3.14551e-06,0,1.03099e-06,-1.49826e+09,-1.49799e+09,-1.49841e+09,137791,-0.0262595,0.0215829,-0,0.033991,19885.5,-52357.3,0,56006.4,137791
step02_gravity_refstate-mantle.xmf,1033,1.33259e-06,2.9173e-06,0,9.6753e-07,-1.51689e+09,-1.51668e+09,-1.51707e+09,129310,-0.0267732,0.0188852,-0,0.0327636,20861.5,-52933.6,0,56896.1,129310
step02_gravity_refstate-mantle.xmf,1034,1.6664e-06,2.7711e-06,0,8.96133e-07,-1.55556e+09,-1.55541e+09,-1.55578e+09,119768,-0.0296401,0.0153496,-0,0.0333788,21034.3,-54130,0,58073.2,119768
step02_gravity_refstate-mantle.xmf,1035,2.08876e-06,2.4805e-06,0,5.95497e-07,-1.62552e+09,-1.62547e+09,-1.6258e+09,79588.2,-0.0314561,0.00910687,-0,0.0327479,22312.8,-56293.2,0,60554,79588.2
step02_gravity_refstate-mantle.xmf,1036,2.2973e-06,2.38424e-06,0,2.1972e-07,-1.7024e+09,-1.70238e+09,-1.7027e+09,29365.5,-0.032019,0.00320447,-0,0.0321789,23122.9,-58669,0,63061.2,29365.5
step02_gravity_refstate-mantle.xmf,1037,2.27268e-06,2.38074e-06,0,-4.61666e-09,-1.74549e+09,-1.74548e+09,-1.74579e+09,-617.017,-0.0304172,-3.09656e-19,-0,0.0304172,23965.9,-60000,0,64609.3,617.017
step02_gravity_refstate-mantle.xmf,1038,-4.36837e-06,1.60521e-05,0,7.09698e-06,-1.57516e+09,-1.57243e+09,-1.57457e+09,948512,0.0383447,0.113093,0,0.119417,-4154.27,-54729,-0,54886.4,948512
step02_gravity_refstate-mantle.xmf,1039,-2.46243e-06,1.5568e-05,0,3.8313e-06,-1.60509e+09,-1.60268e+09,-1.60476e+09,512053,0.053132,0.080021,0,0.096054,-4922.86,-55665,-0,55882.2,512053
step02_gravity_refstate-mantle.xmf,1040,-3.61957e-06,1.65644e-05,0,5.74699e-06,-1.59225e+09,-1.58955e+09,-1.59176e+09,768085,0.0464536,0.0984576,0,0.108866,-4378.83,-55263.2,-0,55436.4,768085
step02_gravity_refstate-mantle.xmf,1041,9.45815e-07,1.26866e-05,0,4.98279e-07,-1.68233e+09,-1.68076e+09,-1.68245e+09,66595,0.0744809,0.025214,0,0.078633,-6612.18,-58066.4,-0,58441.7,66595
step02_gravity_refstate-mantle.xmf,1042,7.60974e-08,1.43458e-05,0,1.21292e-06,-1.6708e+09,-1.6689e+09,-1.67081e+09,162107,0.072792,0.0344789,0,0.0805448,-5992.34,-57708.8,-0,58019.1,162107
step02_gravity_refstate-mantle.xmf,1043,1.55608e-06,1.20477e-05,0,9.96563e-08,-1.72335e+09,-1.72195e+09,-1.72356e+09,13319.1,0.0782676,0.00804594,0,0.0786801,-6977.14,-59336.2,-0,59745,13319.1
step02_gravity_refstate-mantle.xmf,1044,-5.9287e-06,1.64644e-05,0,1.29452e-05,-1.55747e+09,-1.55447e+09,-1.55667e+09,1.73012e+06,0.02537,0.155295,0,0.157354,-3176.29,-54173.1,-0,54266.2,1.73012e+06
step02_gravity_refstate-mantle.xmf,1045,-6.13572e-06,1.57107e-05,0,1.7429e-05,-1.54804e+09,-1.54512e+09,-1.54722e+09,2.32938e+06,0.0180538,0.183277,0,0.184164,-2651.89,-53878.8,-0,53944,2.32938e+06
step02_gravity_refstate-mantle.xmf,1046,2.74942e-06,-1.37613e-05,0,-2.10473e-05,-1.43113e+09,-1.43334e+09,-1.4315e+09,-2.81298e+06,0.0210408,0.252507,0,0.253382,1435.35,-50251.4,0,50271.9,2.81298e+06
step02_gravity_refstate-mantle.xmf,1047,8.43196e-06,-2.51738e-05,0,-2.39177e-05,-1.43889e+09,-1.44338e+09,-1.44002e+09,-3.19661e+06,0.0185946,0.276646,0,0.27727,1000,-50499.8,0,50509.7,3.19661e+06
step02_gravity_refstate-mantle.xmf,1048,3.05967e-06,-1.0138e-05,0,-1.63381e-05,-1.40515e+09,-1.40691e+09,-1.40556e+09,-2.18358e+06,0.021204,0.226686,0,0.227675,1901.64,-49460,0,49496.6,2.18358e+06
step02_gravity_refstate-mantle.xmf,1049,-1.11154e-06,-1.20777e-06,0,-1.16351e-05,-1.3763e+09,-1.37631e+09,-1.37615e+09,-1.55503e+06,0.0212067,0.182528,0,0.183756,3415.49,-48563.9,0,48683.9,1.55503e+06
step02_gravity_refstate-mantle.xmf,1050,1.07112e-06,-6.13827e-06,0,-1.46346e-05,-1.39619e+09,-1.39715e+09,-1.39633e+09,-1.95592e+06,0.0217561,0.210445,0,0.211567,2387.86,-49180.3,0,49238.2,1.95592e+06
step02_gravity_refstate-mantle.xmf,1051,-2.35214e-07,-3.28023e-06,0,-1.30461e-05,-1.38636e+09,-1.38677e+09,-1.38633e+09,-1.74361e+06,0.0216796,0.195669,0,0.196866,2895.6,-48875.3,0,48961,1.74361e+06
step02_gravity_refstate-mantle.xmf,1052,7.81043e-07,3.44719e-06,0,1.06159e-06,-1.47743e+09,-1.47708e+09,-1.47754e+09,141881,-0.0251293,0.0251479,-0,0.0355514,18778.1,-51712.5,0,55016.4,141881
step02_gravity_refstate-mantle.xmf,1053,-1.0581e-06,4.88823e-06,0,3.55136e-07,-1.39744e+09,-1.39664e+09,-1.3973e+09,47463.9,-0.0140306,0.0469471,-0,0.0489989,14484.6,-49232.9,0,51319.4,47463.9
step02_gravity_refstate-mantle.xmf,1054,3.86529e-07,3.79529e-06,0,1.02775e-06,-1.45636e+09,-1.4559e+09,-1.45641e+09,137359,-0.0232922,0.029461,-0,0.0375563,17660.9,-51059.8,0,54027.9,137359
step02_gravity_refstate-mantle.xmf,1055,-5.58326e-07,4.54001e-06,0,6.84639e-07,-1.41572e+09,-1.41504e+09,-1.41565e+09,91502.1,-0.017596,0.0403908,-0,0.0440572,15510.4,-49800,0,52159.5,91502.1
step02_gravity_refstate-mantle.xmf,1056,-6.80718e-08,4.16791e-06,0,9.06962e-07,-1.43556e+09,-1.43499e+09,-1.43555e+09,121216,-0.0207408,0.0345495,-0,0.040297,16568.3,-50415.2,0,53067.9,121216
step02_gravity_refstate-mantle.xmf,1057,-3.61907e-06,5.6293e-06,0,-4.7514e-06,-1.35576e+09,-1.35452e+09,-1.35528e+09,-635024,0.00992224,0.110916,0,0.111359,7529.8,-47930.2,0,48518,635024
step02_gravity_refstate-mantle.xmf,1058,-3.36451e-06,5.5794e-06,0,-4.04045e-06,-1.34492e+09,-1.34372e+09,-1.34447e+09,-540006,0.00865215,0.103511,0,0.103872,8267.51,-47596.9,0,48309.5,540006
step02_gravity_refstate-mantle.xmf,1059,-3.06537e-06,5.45082e-06,0,-3.36797e-06,-1.33377e+09,-1.33263e+09,-1.33336e+09,-450129,0.00736649,0.0962025,0,0.0964842,9088.1,-47254,0,48120,450129
step02_gravity_refstate-mantle.xmf,1060,-1.78276e-06,5.62646e-06,0,-1.60834e-07,-1.39848e+09,-1.39749e+09,-1.39824e+09,-21495.5,-0.0115043,0.0562859,-0,0.0574495,12572.4,-49262,0,50841.1,21495.5
step02_gravity_refstate-mantle.xmf,1061,-2.94898e-06,5.80705e-06,0,-2.41104e-06,-1.34971e+09,-1.34854e+09,-1.34932e+09,-322236,0.0027517,0.0850292,0,0.0850738,9928.04,-47748.2,0,48769.5,322236
step02_gravity_refstate-mantle.xmf,1062,-2.27358e-06,5.84342e-06,0,-7.88485e-07,-1.38187e+09,-1.38079e+09,-1.38157e+09,-105381,-0.00688801,0.0649493,-0,0.0653135,11674.1,-48746.3,0,50124.7,105381
step02_gravity_refstate-mantle.xmf,1063,-2.67613e-06,5.91842e-06,0,-1.54085e-06,-1.36565e+09,-1.3645e+09,-1.36529e+09,-205935,-0.00209486,0.0744887,-0,0.0745181,10800.2,-48242.7,0,49436.8,205935
step02_gravity_refstate-mantle.xmf,1064,1.99022e-06,2.66486e-06,0,7.73813e-07,-1.60116e+09,-1.60107e+09,-1.60142e+09,103420,-0.0328353,0.0115267,-0,0.0347998,21002.7,-55540.4,0,59378.8,103420
step02_gravity_refstate-mantle.xmf,1065,2.28068e-06,2.44038e-06,0,3.97951e-07,-1.67059e+09,-1.67057e+09,-1.6709e+09,53186.1,-0.0331949,0.00567854,-0,0.0336771,22297.1,-57686.6,0,61845.8,53186.1
step02_gravity_refstate-mantle.xmf,1066,-1.02031e-06,1.50699e-05,0,2.26651e-06,-1.63796e+09,-1.63581e+09,-1.63782e+09,302919,0.0648123,0.055464,0,0.0853047,-5454.37,-56688.7,-0,56950.5,302919
step02_gravity_refstate-mantle.xmf,1067,-2.05488e-06,1.66479e-05,0,3.6747e-06,-1.62651e+09,-1.62401e+09,-1.62624e+09,491123,0.0604581,0.0701586,0,0.0926144,-4875.2,-56332.4,-0,56542.9,491123
step02_gravity_refstate-mantle.xmf,1068,-8.8847e-07,1.59538e-05,0,2.17735e-06,-1.65927e+09,-1.65702e+09,-1.65915e+09,291003,0.0701493,0.0458322,0,0.0837945,-5400.38,-57350.2,-0,57603.9,291003
step02_gravity_refstate-mantle.xmf,1069,9.4411e-07,1.32899e-05,0,4.26663e-07,-1.70587e+09,-1.70422e+09,-1.706e+09,57023.5,0.0775281,0.0162201,0,0.0792067,-6517.52,-58795.2,-0,59155.3,57023.5
step02_gravity_refstate-mantle.xmf,1070,1.02571e-06,1.33974e-05,0,-2.41289e-09,-1.74485e+09,-1.74319e+09,-1.74498e+09,-322.483,0.079359,-1.08614e-19,0,0.079359,-6567.63,-60000,-0,60358.4,322.483
step02_gravity_refstate-mantle.xmf,1071,-4.95219e-06,1.82017e-05,0,8.75161e-06,-1.58518e+09,-1.58208e+09,-1.58452e+09,1.16965e+06,0.0406463,0.120505,0,0.127175,-3724.83,-55040.2,-0,55166,1.16965e+06
step02_gravity_refstate-mantle.xmf,1072,-6.1327e-06,1.91277e-05,0,1.22758e-05,-1.5764e+09,-1.57302e+09,-1.57558e+09,1.64066e+06,0.033733,0.144701,0,0.148581,-3178.44,-54763.4,-0,54855.5,1.64066e+06
step02_gravity_refstate-mantle.xmf,1073,-5.69851e-06,1.389e-05,0,2.23566e-05,-1.53867e+09,-1.53605e+09,-1.53791e+09,2.98795e+06,0.0112958,0.213224,0,0.213523,-2166.73,-53587.5,-0,53631.3,2.98795e+06
step02_gravity_refstate-mantle.xmf,1074,-2.13593e-06,5.43222e-06,0,3.02433e-05,-1.51366e+09,-1.51265e+09,-1.51338e+09,4.04202e+06,-0.00042265,0.265727,-0,0.265727,-1466.48,-52817.2,-0,52837.6,4.04202e+06
step02_gravity_refstate-mantle.xmf,1075,5.68167e-07,1.14642e-07,0,3.66114e-05,-1.50326e+09,-1.50332e+09,-1.50333e+09,4.89311e+06,-0.00369935,0.302034,-0,0.302057,-1000,-52500.2,-0,52509.7,4.89311e+06
step02_gravity_refstate-mantle.xmf,1076,1.0673e-06,-8.10229e-06,0,-1.81859e-05,-1.42303e+09,-1.42425e+09,-1.42317e+09,-2.43054e+06,0.0219008,0.231869,0,0.232901,1899.18,-50004.3,0,50040.3,2.43054e+06
step02_gravity_refstate-mantle.xmf,1077,2.73034e-06,-1.27144e-05,0,-2.23911e-05,-1.44734e+09,-1.4494e+09,-1.44771e+09,-2.99257e+06,0.0195237,0.260091,0,0.260823,1414.41,-50754.6,0,50774.3,2.99257e+06
step02_gravity_refstate-mantle.xmf,1078,-2.67181e-06,3.05499e-06,0,-7.74397e-06,-1.34689e+09,-1.34613e+09,-1.34653e+09,-1.03498e+06,0.0177768,0.144809,0,0.145896,5383.72,-47656,0,47959.1,1.03498e+06
step02_gravity_refstate-mantle.xmf,1079,-1.84265e-06,5.56081e-07,0,-1.03288e-05,-1.36755e+09,-1.36723e+09,-1.36731e+09,-1.38045e+06,0.0203939,0.16983,0,0.17105,3992.14,-48293.3,0,48458.1,1.38045e+06
step02_gravity_refstate-mantle.xmf,1080,-2.62129e-06,2.3769e-06,0,-8.95769e-06,-1.3613e+09,-1.36063e+09,-1.36095e+09,-1.19719e+06,0.018911,0.155447,0,0.156593,4725.66,-48099.5,0,48331.1,1.19719e+06
step02_gravity_refstate-mantle.xmf,1081,-3.43832e-06,4.53247e-06,0,-6.72546e-06,-1.35725e+09,-1.35619e+09,-1.35679e+09,-898858,0.0149456,0.13198,0,0.132824,6082.26,-47974.6,0,48358.6,898858
step02_gravity_refstate-mantle.xmf,1082,-3.89757e-06,5.72333e-06,0,-5.48267e-06,-1.36907e+09,-1.36778e+09,-1.36855e+09,-732759,0.0109315,0.118351,0,0.118855,6836.67,-48339.7,0,48820.7,732759
step02_gravity_refstate-mantle.xmf,1083,1.48185e-06,3.02286e-06,0,1.01491e-06,-1.5392e+09,-1.539e+09,-1.5394e+09,135643,-0.0301962,0.0177332,-0,0.0350182,19828.2,-53624.1,0,57172.6,135643
step02_gravity_refstate-mantle.xmf,1084,-1.24286e-06,5.3063e-06,0,3.36697e-07,-1.41555e+09,-1.41467e+09,-1.41538e+09,44999.6,-0.0157994,0.0484781,-0,0.0509877,13507.2,-49792,0,51591.6,44999.6
step02_gravity_refstate-mantle.xmf,1085,1.21891e-06,3.31816e-06,0,1.10436e-06,-1.51988e+09,-1.5196e+09,-1.52004e+09,147598,-0.0298379,0.0208009,-0,0.0363727,18706.8,-53026.3,0,56229.2,147598
step02_gravity_refstate-mantle.xmf,1086,1.88359e-06,2.87899e-06,0,9.11869e-07,-1.58331e+09,-1.58318e+09,-1.58356e+09,121871,-0.0339596,0.0137303,-0,0.0366303,19789,-54988.9,0,58441.3,121871
step02_gravity_refstate-mantle.xmf,1087,2.31984e-06,2.57743e-06,0,5.20694e-07,-1.65892e+09,-1.65888e+09,-1.65923e+09,69590.7,-0.0359877,0.00687918,-0,0.0366392,20909.6,-57326.6,0,61020.9,69590.7
step02_gravity_refstate-mantle.xmf,1088,2.42768e-06,2.49952e-06,0,2.36848e-07,-1.70584e+09,-1.70583e+09,-1.70617e+09,31654.7,-0.0357754,0.00308497,-0,0.0359082,21556.5,-58776.6,0,62604.9,31654.7
step02_gravity_refstate-mantle.xmf,1089,2.39664e-06,2.47689e-06,0,-5.95053e-09,-1.74546e+09,-1.74545e+09,-1.74578e+09,-795.288,-0.0341429,-2.97487e-19,-0,0.0341429,22370,-60000,0,64034.5,795.288
step02_gravity_refstate-mantle.xmf,1090,-3.23745e-06,1.8154e-05,0,5.47872e-06,-1.61506e+09,-1.6122e+09,-1.61463e+09,732231,0.0550383,0.0876416,0,0.10349,-4313.67,-55974.6,-0,56140.6,732231
step02_gravity_refstate-mantle.xmf,1091,5.23861e-08,1.50939e-05,0,1.05858e-06,-1.69382e+09,-1.69181e+09,-1.69383e+09,141480,0.0764394,0.0244532,0,0.0802555,-5929.03,-58421.6,-0,58721.7,141480
step02_gravity_refstate-mantle.xmf,1092,-9.75883e-07,1.70163e-05,0,2.0135e-06,-1.68109e+09,-1.67869e+09,-1.68096e+09,269105,0.0742935,0.0352175,0,0.082218,-5346.64,-58026.5,-0,58272.3,269105
step02_gravity_refstate-mantle.xmf,1093,8.03036e-07,1.37641e-05,0,2.33811e-07,-1.72677e+09,-1.72504e+09,-1.72688e+09,31248.9,0.0790935,0.00777973,0,0.0794751,-6404.44,-59441,-0,59785.1,31248.9
step02_gravity_refstate-mantle.xmf,1094,-7.07407e-06,1.9293e-05,0,1.66421e-05,-1.5672e+09,-1.56368e+09,-1.56626e+09,2.22422e+06,0.0262631,0.172335,0,0.174324,-2662.9,-54473.5,-0,54538.6,2.22422e+06
step02_gravity_refstate-mantle.xmf,1095,-4.69678e-06,1.10265e-05,0,2.77288e-05,-1.52996e+09,-1.52785e+09,-1.52933e+09,3.70595e+06,0.00567222,0.245309,0,0.245375,-1702.61,-53317.6,-0,53344.8,3.70595e+06
step02_gravity_refstate-mantle.xmf,1096,-7.26793e-06,1.8552e-05,0,2.15912e-05,-1.55815e+09,-1.5547e+09,-1.55718e+09,2.88567e+06,0.0191813,0.201266,0,0.202178,-2205.25,-54190.6,-0,54235.4,2.88567e+06
step02_gravity_refstate-mantle.xmf,1097,-4.72175e-07,-6.60737e-06,0,-1.9296e-05,-1.44e+09,-1.44082e+09,-1.43994e+09,-2.57891e+06,0.021048,0.237833,0,0.238763,1849.02,-50522,0,50555.9,2.57891e+06
step02_gravity_refstate-mantle.xmf,1098,7.46399e-06,-1.92109e-05,0,-2.8932e-05,-1.45479e+09,-1.45836e+09,-1.45579e+09,-3.86676e+06,0.0157755,0.287768,0,0.2882,1000,-50999.8,0,51009.6,3.86676e+06
step02_gravity_refstate-mantle.xmf,1099,-2.89693e-06,1.61027e-06,0,-1.08772e-05,-1.38748e+09,-1.38688e+09,-1.3871e+09,-1.45374e+06,0.0199245,0.170068,0,0.171231,3951.51,-48904.6,0,49064,1.45374e+06
step02_gravity_refstate-mantle.xmf,1100,-6.26251e-07,-4.71652e-06,0,-1.61191e-05,-1.41483e+09,-1.41538e+09,-1.41475e+09,-2.15432e+06,0.0220773,0.21376,0,0.214897,2380.37,-49748.5,0,49805.4,2.15432e+06
step02_gravity_refstate-mantle.xmf,1101,-2.42458e-06,9.59015e-08,0,-1.2384e-05,-1.39677e+09,-1.39643e+09,-1.39644e+09,-1.65513e+06,0.020956,0.183108,0,0.184303,3406.2,-49190.7,0,49308.4,1.65513e+06
step02_gravity_refstate-mantle.xmf,1102,-1.69184e-06,-1.94282e-06,0,-1.41056e-05,-1.4059e+09,-1.40593e+09,-1.40567e+09,-1.88521e+06,0.0217162,0.197612,0,0.198802,2881.72,-49472.4,0,49556.3,1.88521e+06
step02_gravity_refstate-mantle.xmf,1103,-4.00395e-06,6.45183e-06,0,-4.2615e-06,-1.38019e+09,-1.3788e+09,-1.37966e+09,-569549,0.00635504,0.105337,0,0.105529,7606.29,-48684.4,0,49275,569549
step02_gravity_refstate-mantle.xmf,1104,8.5155e-07,3.67473e-06,0,1.14522e-06,-1.49812e+09,-1.49774e+09,-1.49823e+09,153059,-0.0285142,0.0247302,-0,0.0377444,17607.6,-52352.5,0,55234.2,153059
step02_gravity_refstate-mantle.xmf,1105,-6.85058e-07,4.92417e-06,0,7.10258e-07,-1.43388e+09,-1.43313e+09,-1.43379e+09,94926,-0.0197465,0.0414545,-0,0.0459173,14474,-50361,0,52399.7,94926
step02_gravity_refstate-mantle.xmf,1106,4.00215e-07,4.07863e-06,0,1.11013e-06,-1.47634e+09,-1.47585e+09,-1.47639e+09,148369,-0.026376,0.0294487,-0,0.0395338,16524.7,-51677.8,0,54255.5,148369
step02_gravity_refstate-mantle.xmf,1107,-1.24253e-07,4.50619e-06,0,9.69651e-07,-1.45455e+09,-1.45394e+09,-1.45454e+09,129594,-0.0233809,0.035056,-0,0.0421377,15477.5,-51002.4,0,53299.1,129594
step02_gravity_refstate-mantle.xmf,1108,-3.65859e-06,6.18987e-06,0,-3.79637e-06,-1.36734e+09,-1.36603e+09,-1.36686e+09,-507385,0.00609735,0.100685,0,0.10087,8164.39,-48289.2,0,48974.5,507385
step02_gravity_refstate-mantle.xmf,1109,-3.41081e-06,6.2387e-06,0,-2.95371e-06,-1.36699e+09,-1.3657e+09,-1.36653e+09,-394763,0.00318306,0.0911286,0,0.0911841,9002.58,-48280,0,49112.1,394763
step02_gravity_refstate-mantle.xmf,1110,-1.45055e-06,5.76263e-06,0,3.07402e-07,-1.4325e+09,-1.43153e+09,-1.4323e+09,41084.3,-0.0175025,0.0503299,-0,0.0532864,12564.5,-50315.4,0,51860.5,41084.3
step02_gravity_refstate-mantle.xmf,1111,-2.06007e-06,6.10485e-06,0,-2.66531e-07,-1.4149e+09,-1.41381e+09,-1.41463e+09,-35621.8,-0.012673,0.0588619,-0,0.0602107,11670.9,-49768.7,0,51118.8,35621.8
step02_gravity_refstate-mantle.xmf,1112,-3.05683e-06,6.38905e-06,0,-1.83865e-06,-1.38259e+09,-1.38133e+09,-1.38218e+09,-245736,-0.00243159,0.0785393,-0,0.0785769,9959.55,-48764.7,0,49771.4,245736
step02_gravity_refstate-mantle.xmf,1113,-2.60816e-06,6.32539e-06,0,-9.84325e-07,-1.39822e+09,-1.39703e+09,-1.39787e+09,-131555,-0.00759116,0.0682579,-0,0.0686787,10808.1,-49250.3,0,50422.3,131555
step02_gravity_refstate-mantle.xmf,1114,2.22207e-06,2.77027e-06,0,7.33215e-07,-1.62924e+09,-1.62917e+09,-1.62954e+09,97994.2,-0.037199,0.00973659,-0,0.0384522,19740.1,-56409.7,0,59764,97994.2
step02_gravity_refstate-mantle.xmf,1115,-4.63223e-06,1.98157e-05,0,7.93472e-06,-1.60471e+09,-1.60144e+09,-1.60409e+09,1.06048e+06,0.0488465,0.108255,0,0.118765,-3746.95,-55649.7,-0,55775.7,1.06048e+06
step02_gravity_refstate-mantle.xmf,1116,-1.89691e-06,1.76596e-05,0,3.49895e-06,-1.64773e+09,-1.64511e+09,-1.64747e+09,467635,0.0665471,0.0595524,0,0.0893029,-4831.16,-56991.3,-0,57195.7,467635
step02_gravity_refstate-mantle.xmf,1117,-3.03415e-06,1.95798e-05,0,5.23941e-06,-1.63636e+09,-1.63333e+09,-1.63595e+09,700247,0.0619581,0.0761224,0,0.09815,-4267.52,-56637.4,-0,56797.9,700247
step02_gravity_refstate-mantle.xmf,1118,-2.06637e-06,1.8859e-05,0,3.26234e-06,-1.66887e+09,-1.66607e+09,-1.66859e+09,436012,0.0712354,0.0482092,0,0.0860151,-4782.84,-57646.2,-0,57844.3,436012
step02_gravity_refstate-mantle.xmf,1119,-1.38455e-07,1.57741e-05,0,6.68465e-07,-1.71751e+09,-1.71538e+09,-1.71749e+09,89340.3,0.0787428,0.0134392,0,0.0798814,-5871.67,-59153.9,-0,59444.6,89340.3
step02_gravity_refstate-mantle.xmf,1120,-3.12535e-07,1.62166e-05,0,-2.76623e-08,-1.7449e+09,-1.74269e+09,-1.74486e+09,-3697.07,0.0796368,-1.9175e-19,0,0.0796368,-5794.24,-60000,-0,60279.1,3697.07
step02_gravity_refstate-mantle.xmf,1121,-6.21466e-06,2.15603e-05,0,1.13024e-05,-1.59554e+09,-1.59183e+09,-1.59471e+09,1.51056e+06,0.0419784,0.132423,0,0.138918,-3181.83,-55360.5,-0,55451.9,1.51056e+06
step02_gravity_refstate-mantle.xmf,1122,-7.76315e-06,2.28786e-05,0,1.57117e-05,-1.58635e+09,-1.58225e+09,-1.58531e+09,2.09987e+06,0.0343026,0.160312,0,0.163941,-2650.98,-55069.5,-0,55133.2,2.09987e+06
step02_gravity_refstate-mantle.xmf,1123,-6.87718e-06,1.68558e-05,0,2.69797e-05,-1.54949e+09,-1.54632e+09,-1.54857e+09,3.60584e+06,0.0127954,0.232366,0,0.232718,-1770.68,-53921.4,-0,53950.4,3.60584e+06
step02_gravity_refstate-mantle.xmf,1124,-3.89861e-06,9.73628e-06,0,3.31198e-05,-1.52768e+09,-1.52586e+09,-1.52716e+09,4.42646e+06,0.00329836,0.273782,0,0.273802,-1311.4,-53249.3,-0,53265.5,4.42646e+06
step02_gravity_refstate-mantle.xmf,1125,-2.1597e-06,6.19418e-06,0,3.75946e-05,-1.5195e+09,-1.51839e+09,-1.51922e+09,5.02452e+06,0.000216055,0.300458,0,0.300459,-1000,-52999.4,-0,53008.9,5.02452e+06
step02_gravity_refstate-mantle.xmf,1126,-2.28383e-06,-2.49363e-06,0,-1.67634e-05,-1.43459e+09,-1.43462e+09,-1.43429e+09,-2.24042e+06,0.0209511,0.216161,0,0.217174,2374.66,-50353.5,0,50409.4,2.24042e+06
step02_gravity_refstate-mantle.xmf,1127,-2.96673e-07,-5.78845e-06,0,-2.06052e-05,-1.45556e+09,-1.4563e+09,-1.45553e+09,-2.75388e+06,0.0182272,0.243089,0,0.243772,1801.17,-51006.1,0,51037.9,2.75388e+06
step02_gravity_refstate-mantle.xmf,1128,2.65243e-06,-9.72446e-06,0,-2.50202e-05,-1.46317e+09,-1.46483e+09,-1.46353e+09,-3.34395e+06,0.0157652,0.265809,0,0.266276,1411.35,-51250.8,0,51270.2,3.34395e+06
step02_gravity_refstate-mantle.xmf,1129,-3.51926e-06,4.14375e-06,0,-7.69826e-06,-1.36712e+09,-1.3661e+09,-1.36665e+09,-1.02887e+06,0.0162925,0.141131,0,0.142068,5466.68,-48278.1,0,48586.6,1.02887e+06
step02_gravity_refstate-mantle.xmf,1130,-3.17895e-06,2.67782e-06,0,-9.68462e-06,-1.37989e+09,-1.37911e+09,-1.37947e+09,-1.29435e+06,0.0188021,0.159406,0,0.160511,4457.16,-48671,0,48874.6,1.29435e+06
step02_gravity_refstate-mantle.xmf,1131,-4.23573e-06,5.62616e-06,0,-6.65125e-06,-1.3828e+09,-1.38148e+09,-1.38223e+09,-888939,0.0126417,0.129303,0,0.129919,6004.73,-48761.2,0,49129.5,888939
step02_gravity_refstate-mantle.xmf,1132,-4.37214e-06,6.75829e-06,0,-4.82577e-06,-1.39524e+09,-1.39375e+09,-1.39465e+09,-644965,0.00662576,0.111227,0,0.111424,6975.54,-49147.4,0,49640,644965
step02_gravity_refstate-mantle.xmf,1133,1.65522e-06,3.16918e-06,0,1.06287e-06,-1.56213e+09,-1.56193e+09,-1.56235e+09,142053,-0.0341595,0.0166128,-0,0.0379849,18656.8,-54334,0,57447.9,142053
step02_gravity_refstate-mantle.xmf,1134,-8.28702e-07,5.34317e-06,0,7.27954e-07,-1.45062e+09,-1.44979e+09,-1.45051e+09,97291,-0.0218308,0.0427905,-0,0.0480376,13485.7,-50878.3,0,52635.2,97291
step02_gravity_refstate-mantle.xmf,1135,1.34416e-06,3.51608e-06,0,1.17497e-06,-1.54009e+09,-1.5398e+09,-1.54027e+09,157035,-0.0335326,0.0201288,-0,0.0391102,17560,-53652,0,56452.6,157035
step02_gravity_refstate-mantle.xmf,1136,2.09943e-06,3.00743e-06,0,9.10243e-07,-1.60753e+09,-1.60741e+09,-1.60782e+09,121654,-0.0381845,0.0123098,-0,0.0401196,18603.8,-55739,0,58761.7,121654
step02_gravity_refstate-mantle.xmf,1137,2.47418e-06,2.71614e-06,0,5.11126e-07,-1.66947e+09,-1.66944e+09,-1.6698e+09,68311.9,-0.0394949,0.00636406,-0,0.0400044,19621.2,-57653.9,0,60901.2,68311.9
step02_gravity_refstate-mantle.xmf,1138,2.53905e-06,2.63174e-06,0,2.81058e-07,-1.70428e+09,-1.70427e+09,-1.70462e+09,37563.4,-0.0391805,0.0033697,-0,0.0393252,20173.4,-58729.4,0,62097.6,37563.4
step02_gravity_refstate-mantle.xmf,1139,2.5272e-06,2.60002e-06,0,-6.73371e-09,-1.74542e+09,-1.74541e+09,-1.74576e+09,-899.96,-0.0378825,-3.246e-19,-0,0.0378825,20850.5,-60000,0,63519.6,899.96
step02_gravity_refstate-mantle.xmf,1140,-4.42532e-06,2.15728e-05,0,7.42423e-06,-1.62539e+09,-1.62192e+09,-1.6248e+09,992248,0.0563486,0.0958772,0,0.11121,-3711.38,-56294.5,-0,56416.7,992248
step02_gravity_refstate-mantle.xmf,1141,-1.43468e-06,1.81967e-05,0,1.52596e-06,-1.70611e+09,-1.70349e+09,-1.70592e+09,203944,0.0773052,0.0224235,0,0.0804917,-5235.21,-58799.3,-0,59031.9,203944
step02_gravity_refstate-mantle.xmf,1142,-2.47886e-06,2.02152e-05,0,2.85618e-06,-1.68979e+09,-1.68676e+09,-1.68946e+09,381728,0.0744669,0.0361133,0,0.0827616,-4731.38,-58293.3,-0,58485,381728
step02_gravity_refstate-mantle.xmf,1143,-8.72709e-06,2.29409e-05,0,2.04053e-05,-1.57697e+09,-1.57274e+09,-1.57581e+09,2.72717e+06,0.0267906,0.188398,0,0.190294,-2219.26,-54773.6,-0,54818.5,2.72717e+06
step02_gravity_refstate-mantle.xmf,1144,-6.15758e-06,1.47638e-05,0,3.25668e-05,-1.54255e+09,-1.53975e+09,-1.54172e+09,4.35255e+06,0.00785737,0.264359,0,0.264476,-1362.17,-53706.3,-0,53723.6,4.35255e+06
step02_gravity_refstate-mantle.xmf,1145,-8.94567e-06,2.21382e-05,0,2.59676e-05,-1.56794e+09,-1.56378e+09,-1.56674e+09,3.47057e+06,0.019554,0.219475,0,0.220344,-1798.44,-54490.9,-0,54520.6,3.47057e+06
step02_gravity_refstate-mantle.xmf,1146,-2.11481e-06,-2.73146e-06,0,-1.80827e-05,-1.44887e+09,-1.44895e+09,-1.44858e+09,-2.41675e+06,0.0192316,0.225618,0,0.226436,2166.14,-50794.8,0,50841,2.41675e+06
step02_gravity_refstate-mantle.xmf,1147,5.6115e-06,-1.27112e-05,0,-3.2549e-05,-1.47086e+09,-1.47331e+09,-1.47161e+09,-4.35017e+06,0.0118469,0.295766,0,0.296003,1000,-51500.3,0,51510,4.35017e+06
step02_gravity_refstate-mantle.xmf,1148,-3.79581e-06,6.76863e-06,0,-3.13411e-06,-1.38886e+09,-1.38745e+09,-1.38836e+09,-418874,0.00179023,0.0933579,0,0.0933751,8415.77,-48954.4,0,49672.6,418874
step02_gravity_refstate-mantle.xmf,1149,-4.03692e-06,4.47906e-06,0,-8.33108e-06,-1.38569e+09,-1.38456e+09,-1.38515e+09,-1.11345e+06,0.0159638,0.145183,0,0.146058,5120.56,-48849.1,0,49116.7,1.11345e+06
step02_gravity_refstate-mantle.xmf,1150,-4.13305e-06,3.94203e-06,0,-9.6139e-06,-1.3981e+09,-1.39702e+09,-1.39755e+09,-1.2849e+06,0.017186,0.156351,0,0.157293,4512.34,-49230.4,0,49436.7,1.2849e+06
step02_gravity_refstate-mantle.xmf,1151,-4.03182e-06,3.03791e-06,0,-1.10656e-05,-1.40794e+09,-1.40699e+09,-1.4074e+09,-1.47892e+06,0.0184697,0.168694,0,0.169702,3948.11,-49532.5,0,49689.6,1.47892e+06
step02_gravity_refstate-mantle.xmf,1152,-3.05243e-06,-3.60909e-07,0,-1.47103e-05,-1.42435e+09,-1.42399e+09,-1.42395e+09,-1.96603e+06,0.0207455,0.199061,0,0.200139,2855.9,-50037.5,0,50118.9,1.96603e+06
step02_gravity_refstate-mantle.xmf,1153,-3.72112e-06,1.68027e-06,0,-1.27754e-05,-1.41705e+09,-1.41633e+09,-1.41656e+09,-1.70743e+06,0.0196809,0.182957,0,0.184012,3391.71,-49812.7,0,49928.1,1.70743e+06
step02_gravity_refstate-mantle.xmf,1154,-4.22512e-06,7.20728e-06,0,-3.61524e-06,-1.40498e+09,-1.40345e+09,-1.40442e+09,-483177,0.00177451,0.0988623,0,0.0988782,7699.3,-49450.6,0,50046.4,483177
step02_gravity_refstate-mantle.xmf,1155,9.33034e-07,3.9338e-06,0,1.23117e-06,-1.51815e+09,-1.51775e+09,-1.51827e+09,164546,-0.0321009,0.0243915,-0,0.0403164,16461.1,-52972.4,0,55471.1,164546
step02_gravity_refstate-mantle.xmf,1156,-1.97696e-07,4.88941e-06,0,1.02945e-06,-1.47205e+09,-1.47137e+09,-1.47203e+09,137586,-0.0259936,0.0358793,-0,0.0443056,14410,-51543.4,0,53519.8,137586
step02_gravity_refstate-mantle.xmf,1157,4.03115e-07,4.40654e-06,0,1.19322e-06,-1.49489e+09,-1.49435e+09,-1.49494e+09,159474,-0.0295164,0.0296884,-0,0.0418643,15404.2,-52251.6,0,54475,159474
step02_gravity_refstate-mantle.xmf,1158,-9.93968e-07,5.80096e-06,0,7.2874e-07,-1.4658e+09,-1.46489e+09,-1.46566e+09,97396.1,-0.0237849,0.0445093,-0,0.0504658,12535.8,-51347.2,0,52855.2,97396.1
step02_gravity_refstate-mantle.xmf,1159,-1.70294e-06,6.25378e-06,0,2.35166e-07,-1.44676e+09,-1.44569e+09,-1.44653e+09,31430,-0.018815,0.0528491,-0,0.0560984,11657.4,-50755.4,0,52076.9,31430
step02_gravity_refstate-mantle.xmf,1160,-3.44485e-06,6.92139e-06,0,-2.09495e-06,-1.40181e+09,-1.40042e+09,-1.40135e+09,-279990,-0.00331302,0.0821877,-0,0.0822544,9178.38,-49357.1,0,50203.2,279990
step02_gravity_refstate-mantle.xmf,1161,-2.38158e-06,6.62115e-06,0,-4.20277e-07,-1.42969e+09,-1.42849e+09,-1.42937e+09,-56170,-0.0135722,0.0621074,-0,0.0635731,10787.5,-50224.7,0,51370.1,56170
step02_gravity_refstate-mantle.xmf,1162,-2.96256e-06,6.83933e-06,0,-1.19755e-06,-1.41446e+09,-1.41315e+09,-1.41406e+09,-160052,-0.00834906,0.0718172,-0,0.0723009,9981.88,-49750.8,0,50742.3,160052
step02_gravity_refstate-mantle.xmf,1163,2.4346e-06,2.89267e-06,0,6.78966e-07,-1.6522e+09,-1.65214e+09,-1.65253e+09,90743.7,-0.0411246,0.00821794,-0,0.0419377,18619.6,-57120.8,0,60078.8,90743.7
step02_gravity_refstate-mantle.xmf,1164,-6.13298e-06,2.37601e-05,0,1.03059e-05,-1.61513e+09,-1.61113e+09,-1.61431e+09,1.37738e+06,0.0497626,0.118934,0,0.128925,-3171.36,-55971.5,-0,56061.3,1.37738e+06
step02_gravity_refstate-mantle.xmf,1165,-3.19809e-06,2.0931e-05,0,4.9443e-06,-1.65744e+09,-1.65421e+09,-1.65701e+09,660806,0.0673472,0.0636788,0,0.0926857,-4222.69,-57291,-0,57446.4,660806
step02_gravity_refstate-mantle.xmf,1166,-4.4575e-06,2.3302e-05,0,7.04569e-06,-1.64611e+09,-1.6424e+09,-1.64551e+09,941656,0.0624583,0.0823588,0,0.103363,-3672.81,-56938.6,-0,57056.9,941656
step02_gravity_refstate-mantle.xmf,1167,-3.75332e-06,2.24259e-05,0,4.43573e-06,-1.67827e+09,-1.67477e+09,-1.67777e+09,592836,0.0711352,0.0501044,0,0.0870096,-4192.86,-57934.6,-0,58086.1,592836
step02_gravity_refstate-mantle.xmf,1168,-1.38259e-06,1.81742e-05,0,6.38215e-07,-1.72783e+09,-1.72521e+09,-1.72764e+09,85297.5,0.0789019,0.00968449,0,0.079494,-5347.73,-59470.4,-0,59710.3,85297.5
step02_gravity_refstate-mantle.xmf,1169,-8.1899e-06,2.60881e-05,0,1.43078e-05,-1.60569e+09,-1.60111e+09,-1.6046e+09,1.91224e+06,0.0421993,0.146004,0,0.15198,-2640.59,-55672.3,-0,55734.9,1.91224e+06
step02_gravity_refstate-mantle.xmf,1170,-9.91382e-06,2.73844e-05,0,1.91918e-05,-1.59585e+09,-1.59087e+09,-1.59453e+09,2.56498e+06,0.0340733,0.175141,0,0.178425,-2190.69,-55360.2,-0,55403.5,2.56498e+06
step02_gravity_refstate-mantle.xmf,1171,-8.61116e-06,2.05121e-05,0,3.19459e-05,-1.55972e+09,-1.55583e+09,-1.55857e+09,4.26957e+06,0.0131639,0.253041,0,0.253383,-1388.9,-54235.3,-0,54253.1,4.26957e+06
step02_gravity_refstate-mantle.xmf,1172,-4.94918e-06,1.21965e-05,0,3.80506e-05,-1.53579e+09,-1.5335e+09,-1.53513e+09,5.08546e+06,0.00405831,0.295853,0,0.295881,-1000,-53499.2,-0,53508.6,5.08546e+06
step02_gravity_refstate-mantle.xmf,1173,-2.36276e-06,-9.72769e-07,0,-1.85344e-05,-1.46278e+09,-1.4626e+09,-1.46247e+09,-2.47712e+06,0.0158468,0.225281,0,0.225837,2191.66,-51227.6,0,51274.5,2.47712e+06
step02_gravity_refstate-mantle.xmf,1174,-3.5818e-06,7.31059e-07,0,-1.60457e-05,-1.45163e+09,-1.45105e+09,-1.45115e+09,-2.14451e+06,0.0174492,0.208531,0,0.209259,2585.93,-50879.2,0,50944.8,2.14451e+06
step02_gravity_refstate-mantle.xmf,1175,-3.31535e-07,-3.46215e-06,0,-2.23485e-05,-1.47136e+09,-1.47178e+09,-1.47132e+09,-2.98688e+06,0.0138405,0.246191,0,0.24658,1785.32,-51499.8,0,51530.7,2.98688e+06
step02_gravity_refstate-mantle.xmf,1176,1.67367e-06,-5.36019e-06,0,-2.75612e-05,-1.47925e+09,-1.48019e+09,-1.47947e+09,-3.68356e+06,0.0110744,0.269365,0,0.269592,1414.78,-51751.9,0,51771.2,3.68356e+06
step02_gravity_refstate-mantle.xmf,1177,-4.77709e-06,6.95706e-06,0,-5.67395e-06,-1.40854e+09,-1.40697e+09,-1.4079e+09,-758323,0.00758015,0.119699,0,0.119939,6272.59,-49556.2,0,49951.6,758323
step02_gravity_refstate-mantle.xmf,1178,-4.63165e-06,7.59352e-06,0,-4.21586e-06,-1.41916e+09,-1.41753e+09,-1.41854e+09,-563450,0.00209221,0.105577,0,0.105598,6998.28,-49887,0,50375.4,563450
step02_gravity_refstate-mantle.xmf,1179,1.82801e-06,3.34349e-06,0,1.10541e-06,-1.58234e+09,-1.58214e+09,-1.58259e+09,147738,-0.0381193,0.015697,-0,0.0412247,17513,-54959.9,0,57682.7,147738
step02_gravity_refstate-mantle.xmf,1180,-3.17237e-07,5.30159e-06,0,1.05206e-06,-1.48502e+09,-1.48427e+09,-1.48498e+09,140607,-0.0280057,0.0373426,-0,0.0466775,13429.5,-51944.2,0,53652.1,140607
step02_gravity_refstate-mantle.xmf,1181,1.48309e-06,3.74763e-06,0,1.24098e-06,-1.55937e+09,-1.55906e+09,-1.55956e+09,165857,-0.0374165,0.0195528,-0,0.0422174,16422.1,-54248.8,0,56680,165857
step02_gravity_refstate-mantle.xmf,1182,2.33974e-06,3.17673e-06,0,8.96321e-07,-1.63222e+09,-1.63211e+09,-1.63254e+09,119793,-0.0428039,0.0107762,-0,0.0441395,17374.4,-56503.7,0,59114.6,119793
step02_gravity_refstate-mantle.xmf,1183,2.6566e-06,2.81934e-06,0,3.5415e-07,-1.70009e+09,-1.70007e+09,-1.70044e+09,47332.1,-0.0429249,0.00396569,-0,0.0431077,18694.2,-58601.2,0,61510.8,47332.1
step02_gravity_refstate-mantle.xmf,1184,2.66431e-06,2.75245e-06,0,-9.14205e-09,-1.74538e+09,-1.74536e+09,-1.74573e+09,-1221.83,-0.0416355,-3.80946e-19,-0,0.0416355,19403.8,-60000,0,63059.6,1221.83
step02_gravity_refstate-mantle.xmf,1185,-6.09746e-06,2.5829e-05,0,9.59459e-06,-1.63461e+09,-1.63035e+09,-1.6338e+09,1.28232e+06,0.0562832,0.105106,0,0.119227,-3131.36,-56579.1,-0,56665.6,1.28232e+06
step02_gravity_refstate-mantle.xmf,1186,-4.59551e-06,2.41694e-05,0,3.65537e-06,-1.69934e+09,-1.69549e+09,-1.69872e+09,488540,0.0734023,0.0354907,0,0.0815321,-4145.62,-58584.2,-0,58730.7,488540
step02_gravity_refstate-mantle.xmf,1187,-3.21677e-06,2.15614e-05,0,2.26841e-06,-1.70806e+09,-1.70475e+09,-1.70763e+09,303172,0.0760217,0.0252486,0,0.0801049,-4623.73,-58856.3,-0,59037.6,303172
step02_gravity_refstate-mantle.xmf,1188,-2.98972e-06,2.10864e-05,0,1.12534e-06,-1.72562e+09,-1.7224e+09,-1.72522e+09,150401,0.0775718,0.012815,0,0.0786232,-4782.15,-59398.8,-0,59591,150401
step02_gravity_refstate-mantle.xmf,1189,-2.22712e-06,1.98238e-05,0,-2.61235e-08,-1.74502e+09,-1.74207e+09,-1.74472e+09,-3491.4,0.0787036,-2.11039e-19,0,0.0787036,-5055.41,-60000,-0,60212.6,3491.4
step02_gravity_refstate-mantle.xmf,1190,-1.09027e-05,2.73425e-05,0,2.44229e-05,-1.58616e+09,-1.58105e+09,-1.58471e+09,3.26412e+06,0.0262936,0.20483,0,0.206511,-1810.11,-55054.1,-0,55083.9,3.26412e+06
step02_gravity_refstate-mantle.xmf,1191,-3.87011e-06,1.32182e-06,0,-1.46283e-05,-1.43962e+09,-1.43892e+09,-1.4391e+09,-1.95507e+06,0.0187222,0.19838,0,0.199262,2870.16,-50507.8,0,50589.2,1.95507e+06
step02_gravity_refstate-mantle.xmf,1192,-7.81703e-06,1.82286e-05,0,3.80871e-05,-1.55211e+09,-1.54863e+09,-1.55107e+09,5.09034e+06,0.00788741,0.288244,0,0.288352,-1000,-53999.7,-0,54008.9,5.09034e+06
step02_gravity_refstate-mantle.xmf,1193,-1.10947e-05,2.62581e-05,0,3.08949e-05,-1.57688e+09,-1.57189e+09,-1.5754e+09,4.12911e+06,0.0185368,0.239846,0,0.240561,-1400.51,-54763.4,-0,54781.3,4.12911e+06
step02_gravity_refstate-mantle.xmf,1194,3.2124e-06,-6.19497e-06,0,-3.50233e-05,-1.48703e+09,-1.48829e+09,-1.48746e+09,-4.68087e+06,0.00773321,0.300505,0,0.300604,1000,-52000.6,0,52010.2,4.68087e+06
step02_gravity_refstate-mantle.xmf,1195,-3.85744e-06,7.39978e-06,0,-2.47514e-06,-1.41654e+09,-1.41503e+09,-1.41602e+09,-330803,-0.0034998,0.0870383,-0,0.0871087,8437.63,-49810.4,0,50520,330803
step02_gravity_refstate-mantle.xmf,1196,-4.67145e-06,6.07393e-06,0,-7.04801e-06,-1.40143e+09,-1.4e+09,-1.40081e+09,-941966,0.0117622,0.13261,0,0.133131,5636.41,-49335,0,49656,941966
step02_gravity_refstate-mantle.xmf,1197,-4.85998e-06,5.76815e-06,0,-8.1126e-06,-1.40921e+09,-1.40779e+09,-1.40856e+09,-1.08425e+06,0.0131778,0.142002,0,0.142612,5094.71,-49573.4,0,49834.5,1.08425e+06
step02_gravity_refstate-mantle.xmf,1198,-4.99194e-06,5.33391e-06,0,-9.40996e-06,-1.41938e+09,-1.418e+09,-1.41871e+09,-1.25764e+06,0.0144686,0.153393,0,0.154073,4509.02,-49885.3,0,50088.7,1.25764e+06
step02_gravity_refstate-mantle.xmf,1199,-4.98102e-06,4.59605e-06,0,-1.09825e-05,-1.42943e+09,-1.42815e+09,-1.42876e+09,-1.46781e+06,0.0157152,0.166823,0,0.167562,3923.34,-50194,0,50347.1,1.46781e+06
step02_gravity_refstate-mantle.xmf,1200,-4.70134e-06,3.32457e-06,0,-1.29029e-05,-1.43798e+09,-1.43691e+09,-1.43735e+09,-1.72447e+06,0.0170122,0.18288,0,0.183669,3341.11,-50456.8,0,50567.3,1.72447e+06
step02_gravity_refstate-mantle.xmf,1201,-4.27572e-06,7.87942e-06,0,-2.95365e-06,-1.43035e+09,-1.42872e+09,-1.42978e+09,-394755,-0.00349721,0.0928626,-0,0.0929284,7705.3,-50235.5,0,50823,394755
step02_gravity_refstate-mantle.xmf,1202,1.01719e-06,4.23129e-06,0,1.31401e-06,-1.53675e+09,-1.53632e+09,-1.53688e+09,175618,-0.0357801,0.0242239,-0,0.043209,15344.9,-53548.3,0,55703.5,175618
step02_gravity_refstate-mantle.xmf,1203,3.83415e-07,4.82814e-06,0,1.27285e-06,-1.51336e+09,-1.51277e+09,-1.51341e+09,170116,-0.0329608,0.0303485,-0,0.0448045,14189,-52823.1,0,54695.6,170116
step02_gravity_refstate-mantle.xmf,1204,-4.89913e-07,5.7524e-06,0,1.04745e-06,-1.49523e+09,-1.4944e+09,-1.49516e+09,139992,-0.0295861,0.0393348,-0,0.0492196,12514.8,-52259.6,0,53737.2,139992
step02_gravity_refstate-mantle.xmf,1205,-1.20917e-06,6.29167e-06,0,6.85213e-07,-1.47782e+09,-1.47682e+09,-1.47766e+09,91578.7,-0.0252507,0.0468886,-0,0.0532554,11643.4,-51718.5,0,53012.9,91578.7
step02_gravity_refstate-mantle.xmf,1206,-1.96418e-06,6.778e-06,0,1.42195e-07,-1.46065e+09,-1.45948e+09,-1.46039e+09,19004.4,-0.0201605,0.0556461,-0,0.0591856,10791.9,-51184.3,0,52309.6,19004.4
step02_gravity_refstate-mantle.xmf,1207,-3.32613e-06,7.3756e-06,0,-1.44491e-06,-1.43007e+09,-1.42864e+09,-1.42963e+09,-193112,-0.00910468,0.0757809,-0,0.0763259,9193.32,-50232.1,0,51066.4,193112
step02_gravity_refstate-mantle.xmf,1208,-2.68902e-06,7.15348e-06,0,-5.76095e-07,-1.44455e+09,-1.44323e+09,-1.44419e+09,-76995.1,-0.0146649,0.0653599,-0,0.0669849,9974.39,-50682.9,0,51655,76995.1
step02_gravity_refstate-mantle.xmf,1209,2.62729e-06,3.01148e-06,0,5.92561e-07,-1.67378e+09,-1.67373e+09,-1.67413e+09,79195.7,-0.0445723,0.00662222,-0,0.0450616,17699.5,-57788.9,0,60438.7,79195.7
step02_gravity_refstate-mantle.xmf,1210,-8.32198e-06,2.88283e-05,0,1.29823e-05,-1.62431e+09,-1.61934e+09,-1.62319e+09,1.73509e+06,0.0490377,0.131269,0,0.140129,-2609.39,-56253.5,-0,56314,1.73509e+06
step02_gravity_refstate-mantle.xmf,1211,-5.01094e-06,2.49202e-05,0,6.56092e-06,-1.66662e+09,-1.66262e+09,-1.66595e+09,876867,0.0667703,0.0677264,0,0.0951059,-3638.01,-57572.8,-0,57687.6,876867
step02_gravity_refstate-mantle.xmf,1212,-6.44045e-06,2.79515e-05,0,9.16548e-06,-1.65425e+09,-1.64966e+09,-1.65339e+09,1.22497e+06,0.061142,0.0901391,0,0.108919,-3078.88,-57188.8,-0,57271.6,1.22497e+06
step02_gravity_refstate-mantle.xmf,1213,-6.05533e-06,2.66557e-05,0,5.54e-06,-1.68747e+09,-1.6831e+09,-1.68666e+09,740421,0.069592,0.0509691,0,0.0862606,-3644.47,-58214.1,-0,58328.1,740421
step02_gravity_refstate-mantle.xmf,1214,-1.08167e-05,3.15219e-05,0,1.74806e-05,-1.61462e+09,-1.60897e+09,-1.61318e+09,2.33628e+06,0.0409503,0.160012,0,0.165169,-2148.35,-55944.6,-0,55985.8,2.33628e+06
step02_gravity_refstate-mantle.xmf,1215,-1.25361e-05,3.24862e-05,0,2.27088e-05,-1.60467e+09,-1.59865e+09,-1.60299e+09,3.03503e+06,0.0328217,0.189211,0,0.192037,-1783.95,-55628.1,-0,55656.7,3.03503e+06
step02_gravity_refstate-mantle.xmf,1216,-4.86413e-06,4.16016e-06,0,-1.35081e-05,-1.45688e+09,-1.45567e+09,-1.45623e+09,-1.80536e+06,0.0137887,0.187151,0,0.187659,3147.74,-51041.6,0,51138.6,1.80536e+06
step02_gravity_refstate-mantle.xmf,1217,-1.07156e-05,2.43208e-05,0,3.77125e-05,-1.56844e+09,-1.56375e+09,-1.567e+09,5.04028e+06,0.0117732,0.27761,0,0.27786,-1000,-54500.1,-0,54509.3,5.04028e+06
step02_gravity_refstate-mantle.xmf,1218,-2.55221e-06,1.44853e-06,0,-1.9576e-05,-1.47963e+09,-1.4791e+09,-1.47929e+09,-2.61633e+06,0.0106048,0.224919,0,0.225169,2196.55,-51753.1,0,51799.7,2.61633e+06
step02_gravity_refstate-mantle.xmf,1219,-3.89451e-06,2.83712e-06,0,-1.62517e-05,-1.46991e+09,-1.46901e+09,-1.46939e+09,-2.17204e+06,0.0124362,0.206265,0,0.20664,2616.38,-51447.1,0,51513.6,2.17204e+06
step02_gravity_refstate-mantle.xmf,1220,-9.9537e-07,1.02508e-08,0,-2.41466e-05,-1.48767e+09,-1.48754e+09,-1.48754e+09,-3.2272e+06,0.00854945,0.247247,0,0.247394,1782.24,-52008.1,0,52038.6,3.2272e+06
step02_gravity_refstate-mantle.xmf,1221,8.95457e-08,-4.06612e-07,0,-2.96683e-05,-1.49562e+09,-1.49568e+09,-1.49563e+09,-3.96516e+06,0.00605408,0.271463,0,0.27153,1405.36,-52259.6,0,52278.5,3.96516e+06
step02_gravity_refstate-mantle.xmf,1222,-5.11194e-06,7.08556e-06,0,-6.50518e-06,-1.42088e+09,-1.41925e+09,-1.42019e+09,-869417,0.00818342,0.127646,0,0.127908,5689.46,-49935.3,0,50258.4,869417
step02_gravity_refstate-mantle.xmf,1223,-5.03482e-06,7.9173e-06,0,-4.95345e-06,-1.43199e+09,-1.43026e+09,-1.43131e+09,-662028,0.00256162,0.1133,0,0.113329,6331.2,-50281.2,0,50678.2,662028
step02_gravity_refstate-mantle.xmf,1224,-4.66919e-06,8.35201e-06,0,-3.50221e-06,-1.44384e+09,-1.4421e+09,-1.44321e+09,-468071,-0.00356191,0.0993744,-0,0.0994382,7005.76,-50650.8,0,51133,468071
step02_gravity_refstate-mantle.xmf,1225,2.0084e-06,3.56275e-06,0,1.13051e-06,-1.60065e+09,-1.60044e+09,-1.60092e+09,151093,-0.042199,0.0149576,-0,0.0447715,16360.5,-55527.1,0,57887.2,151093
step02_gravity_refstate-mantle.xmf,1226,5.33919e-08,5.33591e-06,0,1.2319e-06,-1.51138e+09,-1.51067e+09,-1.51139e+09,164643,-0.0328488,0.0339715,-0,0.0472558,13166.3,-52761,0,54379,164643
step02_gravity_refstate-mantle.xmf,1227,1.63265e-06,4.01887e-06,0,1.29611e-06,-1.57739e+09,-1.57707e+09,-1.57761e+09,173225,-0.0414276,0.0190967,-0,0.0456172,15307.8,-54807.4,0,56905,173225
step02_gravity_refstate-mantle.xmf,1228,2.70063e-06,3.27813e-06,0,6.81829e-07,-1.67149e+09,-1.67142e+09,-1.67185e+09,91126.4,-0.0477782,0.00740472,-0,0.0483486,16452.7,-57719.4,0,60018.5,91126.4
step02_gravity_refstate-mantle.xmf,1229,2.82437e-06,3.04559e-06,0,3.17811e-07,-1.71021e+09,-1.71018e+09,-1.71059e+09,42475.4,-0.0469722,0.00332086,-0,0.0470894,17315.6,-58915.7,0,61407.6,42475.4
step02_gravity_refstate-mantle.xmf,1230,2.80031e-06,2.9481e-06,0,-6.21871e-09,-1.74533e+09,-1.74531e+09,-1.7457e+09,-831.131,-0.0454015,-3.18192e-19,-0,0.0454015,18026.3,-60000,0,62649.4,831.131
step02_gravity_refstate-mantle.xmf,1231,-8.49342e-06,3.14148e-05,0,1.20907e-05,-1.64259e+09,-1.63725e+09,-1.64145e+09,1.61592e+06,0.0542896,0.116459,0,0.128492,-2542.12,-56823.6,-0,56880.4,1.61592e+06
step02_gravity_refstate-mantle.xmf,1232,-7.4215e-06,2.88361e-05,0,4.32115e-06,-1.70724e+09,-1.70239e+09,-1.70625e+09,577521,0.0704563,0.0349411,0,0.0786446,-3573.59,-58821.3,-0,58929.7,577521
step02_gravity_refstate-mantle.xmf,1233,-5.5863e-06,2.56534e-05,0,2.08567e-06,-1.72283e+09,-1.71865e+09,-1.72208e+09,278750,0.0744018,0.0179881,0,0.0765454,-4074.75,-59306.9,-0,59446.7,278750
step02_gravity_refstate-mantle.xmf,1234,-4.75532e-06,2.41704e-05,0,-4.70422e-08,-1.74521e+09,-1.74134e+09,-1.74457e+09,-6287.19,0.0762598,-2.95149e-19,0,0.0762598,-4348.74,-60000,-0,60157.4,6287.19
step02_gravity_refstate-mantle.xmf,1235,-1.35903e-05,3.2338e-05,0,2.94646e-05,-1.59403e+09,-1.58789e+09,-1.59221e+09,3.93795e+06,0.0238684,0.225,0,0.226262,-1392.2,-55291.8,-0,55309.4,3.93795e+06
step02_gravity_refstate-mantle.xmf,1236,-1.36579e-05,3.05865e-05,0,3.6908e-05,-1.58473e+09,-1.57882e+09,-1.58291e+09,4.93276e+06,0.0157849,0.263897,0,0.264369,-1000,-54999.9,-0,55009,4.93276e+06
step02_gravity_refstate-mantle.xmf,1237,6.57594e-07,1.99798e-08,0,-3.6581e-05,-1.50324e+09,-1.50333e+09,-1.50333e+09,-4.88905e+06,0.00369879,0.302033,0,0.302056,1000,-52500.2,0,52509.7,4.88905e+06
step02_gravity_refstate-mantle.xmf,1238,-3.70606e-06,7.92187e-06,0,-1.77992e-06,-1.4442e+09,-1.44265e+09,-1.44371e+09,-237887,-0.00964268,0.080564,-0,0.081139,8429.63,-50667.5,0,51363.9,237887
step02_gravity_refstate-mantle.xmf,1239,-5.41801e-06,7.01158e-06,0,-7.65427e-06,-1.43124e+09,-1.42958e+09,-1.43052e+09,-1.02299e+06,0.00927606,0.137832,0,0.138144,5086.68,-50253.2,0,50510,1.02299e+06
step02_gravity_refstate-mantle.xmf,1240,-5.56988e-06,6.70279e-06,0,-9.03214e-06,-1.44082e+09,-1.43918e+09,-1.44007e+09,-1.20715e+06,0.0105115,0.150067,0,0.150434,4482.48,-50547.2,0,50745.6,1.20715e+06
step02_gravity_refstate-mantle.xmf,1241,-5.54288e-06,6.25752e-06,0,-1.06894e-05,-1.45227e+09,-1.45069e+09,-1.45152e+09,-1.42864e+06,0.0111835,0.164541,0,0.16492,3869.95,-50899.9,0,51046.8,1.42864e+06
step02_gravity_refstate-mantle.xmf,1242,-4.08631e-06,8.47318e-06,0,-2.2145e-06,-1.45729e+09,-1.45561e+09,-1.45674e+09,-295967,-0.0100585,0.086196,-0,0.0867809,7693.01,-51070.5,0,51646.7,295967
step02_gravity_refstate-mantle.xmf,1243,1.15414e-06,4.55107e-06,0,1.38325e-06,-1.5564e+09,-1.55595e+09,-1.55656e+09,184872,-0.0399043,0.0238692,-0,0.0464983,14273.7,-54157.2,0,56006.6,184872
step02_gravity_refstate-mantle.xmf,1244,6.18745e-07,5.1244e-06,0,1.37735e-06,-1.5391e+09,-1.5385e+09,-1.53919e+09,184083,-0.0379033,0.0290795,-0,0.0477732,13285,-53620.6,0,55241.9,184083
step02_gravity_refstate-mantle.xmf,1245,5.14819e-08,5.68708e-06,0,1.27624e-06,-1.52446e+09,-1.52371e+09,-1.52447e+09,170569,-0.0354271,0.0345743,-0,0.0495022,12412.4,-53166,0,54595.7,170569
step02_gravity_refstate-mantle.xmf,1246,-6.25997e-07,6.25353e-06,0,1.04325e-06,-1.50807e+09,-1.50715e+09,-1.50798e+09,139430,-0.031763,0.0412206,-0,0.0520387,11602.1,-52656.6,0,53919.6,139430
step02_gravity_refstate-mantle.xmf,1247,-1.42006e-06,6.83899e-06,0,6.23223e-07,-1.49089e+09,-1.48978e+09,-1.4907e+09,83293.8,-0.0270075,0.0494782,-0,0.0563693,10759.1,-52122,0,53220.9,83293.8
step02_gravity_refstate-mantle.xmf,1248,-2.23245e-06,7.34652e-06,0,1.54696e-08,-1.47442e+09,-1.47314e+09,-1.47412e+09,2067.51,-0.021591,0.0588255,-0,0.0626627,9952.05,-51609.1,0,52559.9,2067.51
step02_gravity_refstate-mantle.xmf,1249,-3.00884e-06,7.72539e-06,0,-7.80005e-07,-1.45899e+09,-1.45755e+09,-1.45858e+09,-104248,-0.0157713,0.0691621,-0,0.0709375,9178.09,-51128.2,0,51945.5,104248
step02_gravity_refstate-mantle.xmf,1250,2.41144e-06,3.46187e-06,0,9.56918e-07,-1.63551e+09,-1.63537e+09,-1.63583e+09,127892,-0.0459914,0.0113719,-0,0.0473765,16143.7,-56606.3,0,58863.4,127892
step02_gravity_refstate-mantle.xmf,1251,-1.15808e-05,3.5611e-05,0,1.60746e-05,-1.63233e+09,-1.62602e+09,-1.63078e+09,2.14837e+06,0.0461676,0.145997,0,0.153122,-2047.92,-56496.8,-0,56533.9,2.14837e+06
step02_gravity_refstate-mantle.xmf,1252,-7.79885e-06,3.04755e-05,0,8.46737e-06,-1.67674e+09,-1.67162e+09,-1.67569e+09,1.13166e+06,0.0642521,0.0709492,0,0.095719,-3032.53,-57880.7,-0,57960.1,1.13166e+06
step02_gravity_refstate-mantle.xmf,1253,-9.07309e-06,3.38174e-05,0,1.16749e-05,-1.66034e+09,-1.65461e+09,-1.65913e+09,1.56036e+06,0.0575466,0.1005,0,0.11581,-2476.55,-57374.4,-0,57427.8,1.56036e+06
step02_gravity_refstate-mantle.xmf,1254,-8.61981e-06,3.10094e-05,0,6.3578e-06,-1.69566e+09,-1.69036e+09,-1.6945e+09,849721,0.0669826,0.050085,0,0.0836372,-3207.75,-58461,-0,58549,849721
step02_gravity_refstate-mantle.xmf,1255,-1.43644e-05,3.8062e-05,0,2.12312e-05,-1.62239e+09,-1.61538e+09,-1.62047e+09,2.83755e+06,0.0377966,0.175683,0,0.179703,-1678.38,-56177.5,-0,56202.6,2.83755e+06
step02_gravity_refstate-mantle.xmf,1256,-1.58327e-05,3.81466e-05,0,2.77626e-05,-1.61068e+09,-1.60347e+09,-1.60857e+09,3.71047e+06,0.0287926,0.209184,0,0.211156,-1358.64,-55806.3,-0,55822.9,3.71047e+06
step02_gravity_refstate-mantle.xmf,1257,-5.00143e-06,6.17734e-06,0,-1.35857e-05,-1.47871e+09,-1.47722e+09,-1.47804e+09,-1.81573e+06,0.00726902,0.184255,0,0.184398,3131.19,-51720.3,0,51814.9,1.81573e+06
step02_gravity_refstate-mantle.xmf,1258,-3.06098e-06,4.56529e-06,0,-2.08381e-05,-1.49729e+09,-1.49627e+09,-1.49688e+09,-2.78502e+06,0.00437253,0.223803,0,0.223846,2186.17,-52303.1,0,52348.8,2.78502e+06
step02_gravity_refstate-mantle.xmf,1259,-4.14221e-06,5.37809e-06,0,-1.66665e-05,-1.48862e+09,-1.48735e+09,-1.48807e+09,-2.22748e+06,0.00594544,0.202411,0,0.202499,2649.71,-52030,0,52097.5,2.22748e+06
step02_gravity_refstate-mantle.xmf,1260,-2.10097e-06,6.20965e-06,0,-3.75531e-05,-1.51949e+09,-1.51838e+09,-1.51921e+09,-5.01897e+06,-0.000216222,0.300458,-0,0.300458,1000,-52999.4,0,53008.9,5.01897e+06
step02_gravity_refstate-mantle.xmf,1261,-2.32201e-06,5.78593e-06,0,-3.01759e-05,-1.51368e+09,-1.51259e+09,-1.51337e+09,-4.033e+06,0.000423123,0.265726,0,0.265726,1466.48,-52817.2,0,52837.6,4.033e+06
step02_gravity_refstate-mantle.xmf,1262,-1.963e-06,3.75343e-06,0,-2.56538e-05,-1.50284e+09,-1.50208e+09,-1.50258e+09,-3.42863e+06,0.00339301,0.247185,0,0.247209,1768.67,-52479.8,0,52509.6,3.42863e+06
step02_gravity_refstate-mantle.xmf,1263,-5.3898e-06,8.14586e-06,0,-5.86144e-06,-1.44381e+09,-1.442e+09,-1.44309e+09,-783382,0.00313484,0.122303,0,0.122343,5686.32,-50644.7,0,50962.9,783382
step02_gravity_refstate-mantle.xmf,1264,-4.45399e-06,9.01021e-06,0,-2.76302e-06,-1.46914e+09,-1.46734e+09,-1.46854e+09,-369277,-0.0103201,0.0928277,-0,0.0933996,6988.04,-51435.4,0,51907.9,369277
step02_gravity_refstate-mantle.xmf,1265,-5.05027e-06,8.78519e-06,0,-4.22015e-06,-1.45627e+09,-1.45442e+09,-1.45559e+09,-564023,-0.0034956,0.107124,-0,0.107181,6325.09,-51033.3,0,51423.8,564023
step02_gravity_refstate-mantle.xmf,1266,2.177e-06,3.83931e-06,0,1.15487e-06,-1.61622e+09,-1.616e+09,-1.61652e+09,154348,-0.0462375,0.0144878,-0,0.0484541,15225.7,-56010.1,0,58042.7,154348
step02_gravity_refstate-mantle.xmf,1267,1.7996e-06,4.33345e-06,0,1.33193e-06,-1.59452e+09,-1.59418e+09,-1.59476e+09,178012,-0.0455675,0.018704,-0,0.0492568,14232.7,-55338.3,0,57139.3,178012
step02_gravity_refstate-mantle.xmf,1268,2.60933e-06,3.65283e-06,0,9.07756e-07,-1.6518e+09,-1.65166e+09,-1.65215e+09,121322,-0.0496141,0.0103303,-0,0.0506782,15246.2,-57111.5,0,59111.5,121322
step02_gravity_refstate-mantle.xmf,1269,2.95454e-06,3.32178e-06,0,3.41451e-07,-1.71172e+09,-1.71168e+09,-1.71212e+09,45634.9,-0.0507109,0.0034564,-0,0.0508285,16036.5,-58963.9,0,61105.8,45634.9
step02_gravity_refstate-mantle.xmf,1270,2.94289e-06,3.18729e-06,0,-8.62707e-09,-1.74528e+09,-1.74525e+09,-1.74567e+09,-1153.01,-0.049167,-3.30393e-19,-0,0.049167,16714.6,-60000,0,62284.6,1153.01
step02_gravity_refstate-mantle.xmf,1271,-1.15955e-05,3.85164e-05,0,1.45596e-05,-1.64941e+09,-1.64271e+09,-1.64786e+09,1.94589e+06,0.0504228,0.12846,0,0.138001,-1989.89,-57031.8,-0,57066.5,1.94589e+06
step02_gravity_refstate-mantle.xmf,1272,-1.07989e-05,3.39301e-05,0,5.1227e-06,-1.71118e+09,-1.7052e+09,-1.70974e+09,684649,0.0655366,0.0370001,0,0.0752599,-3023.39,-58933.6,-0,59011.1,684649
step02_gravity_refstate-mantle.xmf,1273,-9.57056e-06,3.17986e-05,0,2.52575e-06,-1.72697e+09,-1.72144e+09,-1.72569e+09,337566,0.0689091,0.0184386,0,0.0713333,-3340.21,-59424.1,-0,59517.9,337566
step02_gravity_refstate-mantle.xmf,1274,-7.95745e-06,2.92572e-05,0,-3.94041e-08,-1.74548e+09,-1.7405e+09,-1.74442e+09,-5266.36,0.0719545,-3.30339e-19,0,0.0719545,-3671.61,-60000,-0,60112.2,5266.36
step02_gravity_refstate-mantle.xmf,1275,-1.6602e-05,3.71734e-05,0,3.54901e-05,-1.60099e+09,-1.5938e+09,-1.59877e+09,4.74325e+06,0.0199816,0.24697,0,0.247777,-1000,-55499.2,-0,55508.2,4.74325e+06
step02_gravity_refstate-mantle.xmf,1276,-5.47014e-06,6.77251e-06,0,-1.14949e-05,-1.46908e+09,-1.46744e+09,-1.46835e+09,-1.53629e+06,0.00799018,0.169908,0,0.170096,3590.35,-51421.2,0,51546.4,1.53629e+06
step02_gravity_refstate-mantle.xmf,1277,-4.95339e-06,1.22027e-05,0,-3.80588e-05,-1.53579e+09,-1.5335e+09,-1.53513e+09,-5.08656e+06,-0.00405919,0.295854,-0,0.295881,1000,-53499.2,0,53508.6,5.08656e+06
step02_gravity_refstate-mantle.xmf,1278,-3.89235e-06,9.75788e-06,0,-3.30835e-05,-1.52767e+09,-1.52585e+09,-1.52715e+09,-4.42161e+06,-0.0032984,0.273781,-0,0.273801,1311.4,-53249.3,0,53265.5,4.42161e+06
step02_gravity_refstate-mantle.xmf,1279,-3.31704e-06,8.33974e-06,0,-1.07187e-06,-1.47305e+09,-1.47149e+09,-1.4726e+09,-143255,-0.016904,0.0737232,-0,0.0756363,8390.5,-51562.1,0,52240.3,143255
step02_gravity_refstate-mantle.xmf,1280,-5.68538e-06,8.18251e-06,0,-7.13745e-06,-1.45371e+09,-1.45186e+09,-1.45295e+09,-953921,0.00416098,0.133593,0,0.133658,5040.38,-50948.6,0,51197.3,953921
step02_gravity_refstate-mantle.xmf,1281,-5.79906e-06,7.83385e-06,0,-8.60876e-06,-1.45863e+09,-1.45681e+09,-1.45785e+09,-1.15056e+06,0.00610875,0.146516,0,0.146643,4465.15,-51098.8,0,51293.5,1.15056e+06
step02_gravity_refstate-mantle.xmf,1282,-3.683e-06,8.94661e-06,0,-1.53526e-06,-1.48384e+09,-1.48216e+09,-1.48335e+09,-205188,-0.0173649,0.0795837,-0,0.0814561,7648.86,-51894.7,0,52455.4,205188
step02_gravity_refstate-mantle.xmf,1283,1.29818e-06,4.90261e-06,0,1.43001e-06,-1.57376e+09,-1.57328e+09,-1.57393e+09,191120,-0.0439084,0.0236791,-0,0.0498863,13289.2,-54695.1,0,56286.4,191120
step02_gravity_refstate-mantle.xmf,1284,7.14343e-07,5.51499e-06,0,1.42424e-06,-1.55554e+09,-1.5549e+09,-1.55564e+09,190350,-0.0415659,0.0292478,-0,0.0508247,12392.2,-54130,0,55530.4,190350
step02_gravity_refstate-mantle.xmf,1285,4.54067e-08,6.14521e-06,0,1.29918e-06,-1.53851e+09,-1.5377e+09,-1.53852e+09,173635,-0.0384085,0.0355882,-0,0.0523616,11554.4,-53601.2,0,54832.4,173635
step02_gravity_refstate-mantle.xmf,1286,-7.34005e-07,6.79734e-06,0,1.01638e-06,-1.5215e+09,-1.52049e+09,-1.5214e+09,135839,-0.0342483,0.0431824,-0,0.055115,10728.7,-53072.1,0,54145.7,135839
step02_gravity_refstate-mantle.xmf,1287,-1.59374e-06,7.42435e-06,0,5.40136e-07,-1.50475e+09,-1.50354e+09,-1.50453e+09,72189.2,-0.0291486,0.0521095,-0,0.059708,9920.57,-52550.5,0,53478.7,72189.2
step02_gravity_refstate-mantle.xmf,1288,-2.48068e-06,7.96648e-06,0,-1.46384e-07,-1.48882e+09,-1.48742e+09,-1.48849e+09,-19564.2,-0.0233541,0.0622871,-0,0.0665214,9136.07,-52054,0,52849.6,19564.2
step02_gravity_refstate-mantle.xmf,1289,2.87768e-06,3.54428e-06,0,6.41789e-07,-1.68361e+09,-1.68352e+09,-1.68399e+09,85775.1,-0.051613,0.00671899,-0,0.0520485,15325.4,-58095.5,0,60082.9,85775.1
step02_gravity_refstate-mantle.xmf,1290,-1.69081e-05,4.48954e-05,0,2.02849e-05,-1.63871e+09,-1.63045e+09,-1.63645e+09,2.71108e+06,0.0400489,0.16531,0,0.170092,-1476.4,-56682.1,-0,56701.3,2.71108e+06
step02_gravity_refstate-mantle.xmf,1291,-1.11586e-05,3.5391e-05,0,8.05663e-06,-1.6951e+09,-1.68888e+09,-1.69361e+09,1.07677e+06,0.0623184,0.0578842,0,0.0850539,-2738.99,-58438.2,-0,58502.3,1.07677e+06
step02_gravity_refstate-mantle.xmf,1292,-1.13495e-05,3.73463e-05,0,1.12747e-05,-1.67941e+09,-1.6729e+09,-1.67789e+09,1.50687e+06,0.0580865,0.0822719,0,0.100711,-2379.01,-57957.1,-0,58005.9,1.50687e+06
step02_gravity_refstate-mantle.xmf,1293,-1.21949e-05,4.10401e-05,0,1.41504e-05,-1.66667e+09,-1.65956e+09,-1.66504e+09,1.8912e+06,0.0523378,0.109089,0,0.120995,-1932.12,-57567.4,-0,57599.8,1.8912e+06
step02_gravity_refstate-mantle.xmf,1294,-1.8034e-05,4.40995e-05,0,2.65547e-05,-1.62488e+09,-1.61658e+09,-1.62247e+09,3.54904e+06,0.0321467,0.195935,0,0.198555,-1284.61,-56245.3,-0,56260,3.54904e+06
step02_gravity_refstate-mantle.xmf,1295,-1.94437e-05,4.41225e-05,0,3.33242e-05,-1.6172e+09,-1.60871e+09,-1.6146e+09,4.45378e+06,0.0244006,0.226638,0,0.227948,-1000,-55998.8,-0,56007.7,4.45378e+06
step02_gravity_refstate-mantle.xmf,1296,-5.75317e-06,8.27754e-06,0,-9.28272e-06,-1.47286e+09,-1.47099e+09,-1.47209e+09,-1.24064e+06,0.00368691,0.151982,0,0.152026,4139.47,-51539.9,0,51705.9,1.24064e+06
step02_gravity_refstate-mantle.xmf,1297,-5.55047e-06,8.43197e-06,0,-1.08833e-05,-1.4863e+09,-1.48443e+09,-1.48556e+09,-1.45455e+06,0.00165202,0.162667,0,0.162675,3685.66,-51956.7,0,52087.3,1.45455e+06
step02_gravity_refstate-mantle.xmf,1298,-5.12186e-06,8.39094e-06,0,-1.35583e-05,-1.49811e+09,-1.4963e+09,-1.49742e+09,-1.81207e+06,-1.90312e-05,0.178633,-0,0.178633,3162.56,-52324.2,0,52419.7,1.81207e+06
step02_gravity_refstate-mantle.xmf,1299,-6.19533e-06,1.47888e-05,0,-3.26186e-05,-1.54255e+09,-1.53975e+09,-1.54172e+09,-4.35948e+06,-0.00785704,0.26436,-0,0.264477,1362.17,-53706.4,0,53723.6,4.35948e+06
step02_gravity_refstate-mantle.xmf,1300,-4.09255e-06,8.56342e-06,0,-2.28891e-05,-1.51695e+09,-1.51526e+09,-1.5164e+09,-3.05913e+06,-0.00257432,0.225947,-0,0.225962,2076.93,-52913.7,0,52954.4,3.05913e+06
step02_gravity_refstate-mantle.xmf,1301,-4.57582e-06,8.33545e-06,0,-1.73305e-05,-1.50802e+09,-1.5063e+09,-1.50741e+09,-2.31622e+06,-0.00146305,0.19859,-0,0.198596,2642.91,-52634,0,52700.3,2.31622e+06
step02_gravity_refstate-mantle.xmf,1302,-4.74732e-06,1.11658e-05,0,-2.7791e-05,-1.52995e+09,-1.52783e+09,-1.52932e+09,-3.71427e+06,-0.00567201,0.245309,-0,0.245375,1702.61,-53317.6,0,53344.8,3.71427e+06
step02_gravity_refstate-mantle.xmf,1303,-5.39298e-06,9.14246e-06,0,-5.18591e-06,-1.46754e+09,-1.46559e+09,-1.46682e+09,-693097,-0.00318973,0.116752,-0,0.116795,5646.03,-51380,0,51689.3,693097
step02_gravity_refstate-mantle.xmf,1304,-4.01221e-06,9.53805e-06,0,-2.09021e-06,-1.49361e+09,-1.4918e+09,-1.49307e+09,-279356,-0.0177261,0.0862262,-0,0.0880294,6957.59,-52195.6,0,52657.3,279356
step02_gravity_refstate-mantle.xmf,1305,-4.78427e-06,9.55399e-06,0,-3.48401e-06,-1.48088e+09,-1.47897e+09,-1.48024e+09,-465638,-0.0107214,0.100504,-0,0.101075,6302.65,-51797.4,0,52179.5,465638
step02_gravity_refstate-mantle.xmf,1306,2.34952e-06,4.14009e-06,0,1.15768e-06,-1.63068e+09,-1.63044e+09,-1.63099e+09,154724,-0.0501727,0.0140128,-0,0.0520928,14196.8,-56458.5,0,58216,154724
step02_gravity_refstate-mantle.xmf,1307,1.938e-06,4.69807e-06,0,1.34598e-06,-1.60828e+09,-1.60791e+09,-1.60854e+09,179890,-0.0493673,0.018646,-0,0.0527712,13242.4,-55765.2,0,57316,179890
step02_gravity_refstate-mantle.xmf,1308,2.84269e-06,4.00443e-06,0,8.36846e-07,-1.67096e+09,-1.6708e+09,-1.67134e+09,111844,-0.0543534,0.00906485,-0,0.0551041,14074.1,-57705.6,0,59397.1,111844
step02_gravity_refstate-mantle.xmf,1309,3.07822e-06,3.66001e-06,0,3.79365e-07,-1.7121e+09,-1.71202e+09,-1.71251e+09,50702.2,-0.0543978,0.0037595,-0,0.0545276,14817.6,-58977.1,0,60810.1,50702.2
step02_gravity_refstate-mantle.xmf,1310,3.07839e-06,3.48487e-06,0,-1.01062e-08,-1.74522e+09,-1.74517e+09,-1.74564e+09,-1350.69,-0.0529263,-3.58494e-19,-0,0.0529263,15465.3,-60000,0,61961.1,1350.69
step02_gravity_refstate-mantle.xmf,1311,-1.62334e-05,4.88332e-05,0,1.67359e-05,-1.65651e+09,-1.64782e+09,-1.65435e+09,2.23675e+06,0.0445358,0.139183,0,0.146135,-1464.2,-57246.7,-0,57265.4,2.23675e+06
step02_gravity_refstate-mantle.xmf,1312,-1.39966e-05,3.8715e-05,0,6.34746e-06,-1.7098e+09,-1.70276e+09,-1.70793e+09,848338,0.0596069,0.0441365,0,0.0741688,-2543.69,-58881.8,-0,58936.8,848338
step02_gravity_refstate-mantle.xmf,1313,-1.4339e-05,3.86541e-05,0,3.23325e-06,-1.72745e+09,-1.72037e+09,-1.72553e+09,432124,0.0605792,0.0223055,0,0.0645552,-2640.94,-59424.4,-0,59483.1,432124
step02_gravity_refstate-mantle.xmf,1314,-1.19544e-05,3.51106e-05,0,-5.13432e-08,-1.74586e+09,-1.73957e+09,-1.74426e+09,-6862.02,0.0654812,-4.19486e-19,0,0.0654812,-3021.02,-60000,-0,60076,6862.02
step02_gravity_refstate-mantle.xmf,1315,-7.81081e-06,1.81992e-05,0,-3.80971e-05,-1.55211e+09,-1.54864e+09,-1.55107e+09,-5.09168e+06,-0.00788879,0.288243,-0,0.288351,1000,-53999.7,0,54008.9,5.09168e+06
step02_gravity_refstate-mantle.xmf,1316,-2.7242e-06,8.72878e-06,0,-4.36824e-07,-1.50511e+09,-1.50358e+09,-1.50474e+09,-58381.6,-0.0257023,0.0666587,-0,0.0714422,8257.35,-52557.4,0,53202.1,58381.6
step02_gravity_refstate-mantle.xmf,1317,-5.66253e-06,9.34469e-06,0,-6.79757e-06,-1.47773e+09,-1.47572e+09,-1.47697e+09,-908495,-0.00221052,0.130699,-0,0.130718,4887.17,-51693.6,0,51924.1,908495
step02_gravity_refstate-mantle.xmf,1318,-3.26727e-06,9.3619e-06,0,-1.12533e-06,-1.50633e+09,-1.50464e+09,-1.50589e+09,-150400,-0.0237774,0.0752476,-0,0.0789149,7486.77,-52593.1,0,53123.3,150400
step02_gravity_refstate-mantle.xmf,1319,1.41143e-06,5.31023e-06,0,1.44582e-06,-1.58797e+09,-1.58745e+09,-1.58816e+09,193234,-0.0475986,0.0238837,-0,0.0532547,12365.7,-55135.9,0,56505.6,193234
step02_gravity_refstate-mantle.xmf,1320,7.80398e-07,5.98284e-06,0,1.43157e-06,-1.56966e+09,-1.56896e+09,-1.56976e+09,191329,-0.0450534,0.0299176,-0,0.0540821,11507.9,-54567.8,0,55768,191329
step02_gravity_refstate-mantle.xmf,1321,3.9723e-08,6.68832e-06,0,1.27637e-06,-1.55232e+09,-1.55143e+09,-1.55232e+09,170587,-0.0415754,0.0369691,-0,0.0556348,10684.1,-54029,0,55075.3,170587
step02_gravity_refstate-mantle.xmf,1322,-8.02268e-07,7.39435e-06,0,9.48864e-07,-1.53553e+09,-1.53443e+09,-1.53542e+09,126816,-0.0371179,0.045224,-0,0.058506,9891.77,-53506.5,0,54413.1,126816
step02_gravity_refstate-mantle.xmf,1323,-1.74459e-06,8.06962e-06,0,3.98226e-07,-1.5187e+09,-1.51739e+09,-1.51847e+09,53222.9,-0.0315637,0.0550514,-0,0.0634581,9112.21,-52982.2,0,53760.1,53222.9
step02_gravity_refstate-mantle.xmf,1324,-2.20655e-05,5.17023e-05,0,2.98674e-05,-1.63333e+09,-1.62348e+09,-1.63039e+09,3.99177e+06,0.0289873,0.202672,0,0.204734,-1000,-56499,-0,56507.8,3.99177e+06
step02_gravity_refstate-mantle.xmf,1325,-2.41522e-05,5.95296e-05,0,2.48647e-05,-1.64934e+09,-1.63816e+09,-1.64611e+09,3.32317e+06,0.0333615,0.174915,0,0.178068,-1000,-56999.5,-0,57008.3,3.32317e+06
step02_gravity_refstate-mantle.xmf,1326,-1.50235e-05,4.13871e-05,0,9.35526e-06,-1.69781e+09,-1.69027e+09,-1.6958e+09,1.25033e+06,0.0557728,0.0630881,0,0.0842064,-2245.57,-58511.2,-0,58554.3,1.25033e+06
step02_gravity_refstate-mantle.xmf,1327,-1.55392e-05,4.49427e-05,0,1.35553e-05,-1.68348e+09,-1.6754e+09,-1.6814e+09,1.81167e+06,0.0510249,0.0890089,0,0.102597,-1871.05,-58074.3,-0,58104.4,1.81167e+06
step02_gravity_refstate-mantle.xmf,1328,-1.36889e-05,5.06069e-05,0,1.82906e-05,-1.67214e+09,-1.66355e+09,-1.67031e+09,2.44454e+06,0.0450743,0.115001,0,0.123519,-1439.64,-57750.9,-0,57768.9,2.44454e+06
step02_gravity_refstate-mantle.xmf,1329,-5.61356e-06,9.82581e-06,0,-8.16903e-06,-1.49296e+09,-1.4909e+09,-1.49221e+09,-1.09179e+06,-0.00448083,0.140607,-0,0.140679,4338.16,-52165.8,0,52345.9,1.09179e+06
step02_gravity_refstate-mantle.xmf,1330,-5.46764e-06,1.03517e-05,0,-1.0491e-05,-1.50726e+09,-1.50515e+09,-1.50653e+09,-1.40212e+06,-0.00666483,0.155225,-0,0.155368,3724.34,-52609.7,0,52741.4,1.40212e+06
step02_gravity_refstate-mantle.xmf,1331,-5.31991e-06,1.09352e-05,0,-1.35974e-05,-1.51823e+09,-1.51606e+09,-1.51752e+09,-1.81729e+06,-0.00825599,0.172249,-0,0.172447,3170.69,-52951,0,53045.8,1.81729e+06
step02_gravity_refstate-mantle.xmf,1332,-8.75057e-06,2.05098e-05,0,-3.19765e-05,-1.55976e+09,-1.55584e+09,-1.55859e+09,-4.27366e+06,-0.0131635,0.253042,-0,0.253384,1388.88,-54235.3,0,54253.1,4.27366e+06
step02_gravity_refstate-mantle.xmf,1333,-7.04094e-06,1.68578e-05,0,-2.69691e-05,-1.54953e+09,-1.54633e+09,-1.54858e+09,-3.60442e+06,-0.0127955,0.232365,-0,0.232717,1770.68,-53921.4,0,53950.5,3.60442e+06
step02_gravity_refstate-mantle.xmf,1334,-5.34245e-06,1.18938e-05,0,-1.76044e-05,-1.52803e+09,-1.52572e+09,-1.52731e+09,-2.35282e+06,-0.0096195,0.192111,-0,0.192352,2646.83,-53255.9,0,53321.7,2.35282e+06
step02_gravity_refstate-mantle.xmf,1335,-5.88086e-06,1.38933e-05,0,-2.23382e-05,-1.53871e+09,-1.53607e+09,-1.53793e+09,-2.9855e+06,-0.0112957,0.213227,-0,0.213526,2166.68,-53587.5,0,53631.3,2.9855e+06
step02_gravity_refstate-mantle.xmf,1336,-5.03905e-06,1.01075e-05,0,-4.43461e-06,-1.49271e+09,-1.49069e+09,-1.49204e+09,-592686,-0.0113962,0.109445,-0,0.110037,5634.58,-52162.6,0,52466,592686
step02_gravity_refstate-mantle.xmf,1337,-3.34304e-06,9.97757e-06,0,-1.47178e-06,-1.51868e+09,-1.5169e+09,-1.51824e+09,-196703,-0.0260823,0.0789317,-0,0.0831295,6935.27,-52975.8,0,53427.8,196703
step02_gravity_refstate-mantle.xmf,1338,-4.25374e-06,1.02176e-05,0,-2.7927e-06,-1.50549e+09,-1.50356e+09,-1.50493e+09,-373244,-0.0189535,0.0932746,-0,0.0951808,6282.83,-52562.9,0,52937.1,373244
step02_gravity_refstate-mantle.xmf,1339,2.47535e-06,4.53459e-06,0,1.14649e-06,-1.64119e+09,-1.64091e+09,-1.64152e+09,153228,-0.0538513,0.0140512,-0,0.0556542,13177.3,-56784.9,0,58293.8,153228
step02_gravity_refstate-mantle.xmf,1340,2.05319e-06,5.12144e-06,0,1.33407e-06,-1.62002e+09,-1.61961e+09,-1.6203e+09,178298,-0.0529589,0.0188136,-0,0.0562014,12320.1,-56129.9,0,57466.1,178298
step02_gravity_refstate-mantle.xmf,1341,3.18525e-06,4.07228e-06,0,3.76471e-07,-1.71493e+09,-1.71481e+09,-1.71536e+09,50315.4,-0.0580638,0.00381649,-0,0.058189,13679.1,-59066.4,0,60629.7,50315.4
step02_gravity_refstate-mantle.xmf,1342,3.20095e-06,3.85773e-06,0,-8.40811e-09,-1.74517e+09,-1.74508e+09,-1.7456e+09,-1123.74,-0.0566612,-3.63258e-19,-0,0.0566612,14275.5,-60000,0,61674.9,1123.74
step02_gravity_refstate-mantle.xmf,1343,-2.35385e-05,6.70713e-05,0,1.63371e-05,-1.66477e+09,-1.65266e+09,-1.66163e+09,2.18346e+06,0.0363713,0.143367,0,0.147909,-1000,-57499.6,-0,57508.3,2.18346e+06
step02_gravity_refstate-mantle.xmf,1344,-1.79541e-05,4.38641e-05,0,5.44456e-06,-1.71736e+09,-1.7091e+09,-1.71497e+09,727665,0.0524944,0.0395069,0,0.0656997,-2117.92,-59102.1,-0,59140,727665
step02_gravity_refstate-mantle.xmf,1345,-1.64786e-05,4.13593e-05,0,-2.64965e-10,-1.74632e+09,-1.73859e+09,-1.74412e+09,-35.4125,0.0565603,-3.11209e-19,0,0.0565603,-2393.33,-60000,-0,60047.7,35.4125
step02_gravity_refstate-mantle.xmf,1346,-1.07073e-05,2.42911e-05,0,-3.77155e-05,-1.56844e+09,-1.56376e+09,-1.56701e+09,-5.04068e+06,-0.0117736,0.277609,-0,0.277858,1000,-54500.1,0,54509.3,5.04068e+06
step02_gravity_refstate-mantle.xmf,1347,-2.42215e-06,9.46766e-06,0,-4.51408e-07,-1.53067e+09,-1.52908e+09,-1.53034e+09,-60330.6,-0.0321256,0.0665034,-0,0.0738563,7619.57,-53350.8,0,53892.2,60330.6
step02_gravity_refstate-mantle.xmf,1348,-5.20689e-06,1.06873e-05,0,-5.86273e-06,-1.50409e+09,-1.50196e+09,-1.50339e+09,-783555,-0.0121044,0.120719,-0,0.121324,4959.77,-52514.3,0,52748,783555
step02_gravity_refstate-mantle.xmf,1349,1.5132e-06,5.79601e-06,0,1.42218e-06,-1.60099e+09,-1.60042e+09,-1.6012e+09,190075,-0.0512812,0.0243284,-0,0.0567594,11468.2,-55540.2,0,56711.8,190075
step02_gravity_refstate-mantle.xmf,1350,8.41135e-07,6.53588e-06,0,1.38457e-06,-1.58295e+09,-1.58218e+09,-1.58306e+09,185048,-0.0486022,0.0308779,-0,0.0575814,10642,-54980,0,56000.5,185048
step02_gravity_refstate-mantle.xmf,1351,7.20837e-08,7.29943e-06,0,1.19377e-06,-1.5665e+09,-1.56553e+09,-1.56651e+09,159548,-0.0450894,0.0383955,-0,0.0592222,9852.23,-54468.9,0,55352.7,159548
step02_gravity_refstate-mantle.xmf,1352,-1.73259e-06,8.71336e-06,0,2.48834e-07,-1.53481e+09,-1.53342e+09,-1.53458e+09,33256.7,-0.0350786,0.0570772,-0,0.0669949,8409.23,-53481.6,0,54138.7,33256.7
step02_gravity_refstate-mantle.xmf,1353,-7.98514e-07,8.04501e-06,0,8.23044e-07,-1.55047e+09,-1.54929e+09,-1.55037e+09,110000,-0.04055,0.0471376,-0,0.0621792,9106.4,-53969.9,0,54732.8,110000
step02_gravity_refstate-mantle.xmf,1354,2.83171e-06,4.50135e-06,0,9.25817e-07,-1.66689e+09,-1.66667e+09,-1.66727e+09,123735,-0.05712,0.0107203,-0,0.0581173,12976.4,-57581.3,0,59025.3,123735
step02_gravity_refstate-mantle.xmf,1355,3.08645e-06,4.35496e-06,0,6.61709e-07,-1.6917e+09,-1.69153e+09,-1.69211e+09,88437.4,-0.0587078,0.00717736,-0,0.0591449,13107.6,-58348.9,0,59803.1,88437.4
step02_gravity_refstate-mantle.xmf,1356,-2.07368e-05,4.82392e-05,0,8.24671e-06,-1.70367e+09,-1.69445e+09,-1.7009e+09,1.10217e+06,0.0463438,0.0634783,0,0.0785955,-1741.88,-58671.6,-0,58697.5,1.10217e+06
step02_gravity_refstate-mantle.xmf,1357,-2.463e-05,5.37722e-05,0,1.01668e-05,-1.69097e+09,-1.68049e+09,-1.68768e+09,1.35879e+06,0.0406951,0.089079,0,0.0979345,-1393.13,-58267.6,-0,58284.2,1.35879e+06
step02_gravity_refstate-mantle.xmf,1358,-3.00639e-05,5.60275e-05,0,9.54944e-06,-1.6833e+09,-1.67179e+09,-1.67928e+09,1.27628e+06,0.0333449,0.10852,0,0.113528,-1000,-58000,-0,58008.6,1.27628e+06
step02_gravity_refstate-mantle.xmf,1359,-1.89455e-05,4.47294e-05,0,2.3156e-06,-1.73382e+09,-1.72531e+09,-1.73129e+09,309480,0.0507563,0.0175987,0,0.0537207,-2057.08,-59606,-0,59641.5,309480
step02_gravity_refstate-mantle.xmf,1360,-5.27031e-06,1.14031e-05,0,-7.67711e-06,-1.51638e+09,-1.51416e+09,-1.51568e+09,-1.02605e+06,-0.0137259,0.132965,-0,0.133671,4334.4,-52895.5,0,53072.8,1.02605e+06
step02_gravity_refstate-mantle.xmf,1361,-5.37726e-06,1.24148e-05,0,-1.03066e-05,-1.52826e+09,-1.52588e+09,-1.52754e+09,-1.37747e+06,-0.0154438,0.14833,-0,0.149132,3708.27,-53264.2,0,53393.1,1.37747e+06
step02_gravity_refstate-mantle.xmf,1362,-5.63586e-06,1.37031e-05,0,-1.34483e-05,-1.53812e+09,-1.53554e+09,-1.53737e+09,-1.79737e+06,-0.0168214,0.164563,-0,0.165421,3172.01,-53570.5,0,53664.4,1.79737e+06
step02_gravity_refstate-mantle.xmf,1363,-1.12538e-05,2.62627e-05,0,-3.09671e-05,-1.57692e+09,-1.5719e+09,-1.57541e+09,-4.13875e+06,-0.0185368,0.239849,-0,0.240564,1400.46,-54763.4,0,54781.3,4.13875e+06
step02_gravity_refstate-mantle.xmf,1364,-9.10347e-06,2.21369e-05,0,-2.59696e-05,-1.56797e+09,-1.5638e+09,-1.56675e+09,-3.47083e+06,-0.0195569,0.219455,-0,0.220324,1798.75,-54490.9,0,54520.6,3.47083e+06
step02_gravity_refstate-mantle.xmf,1365,-7.42322e-06,1.85561e-05,0,-2.1572e-05,-1.55819e+09,-1.55471e+09,-1.55719e+09,-2.8831e+06,-0.0191812,0.201277,-0,0.202189,2204.98,-54190.7,0,54235.6,2.8831e+06
step02_gravity_refstate-mantle.xmf,1366,-6.27716e-06,1.57122e-05,0,-1.7402e-05,-1.54808e+09,-1.54514e+09,-1.54724e+09,-2.32577e+06,-0.0180538,0.183281,-0,0.184168,2651.76,-53878.9,0,53944.1,2.32577e+06
step02_gravity_refstate-mantle.xmf,1367,-4.46182e-06,1.09705e-05,0,-3.8057e-06,-1.51692e+09,-1.51486e+09,-1.51632e+09,-508632,-0.0202378,0.101962,-0,0.103951,5611.46,-52916.4,0,53213.1,508632
step02_gravity_refstate-mantle.xmf,1368,-2.54742e-06,1.03225e-05,0,-9.75939e-07,-1.54307e+09,-1.54135e+09,-1.54273e+09,-130434,-0.0346345,0.0714375,-0,0.0793906,6919.61,-53735.3,0,54179,130434
step02_gravity_refstate-mantle.xmf,1369,-3.53128e-06,1.08144e-05,0,-2.20945e-06,-1.53028e+09,-1.52836e+09,-1.5298e+09,-295293,-0.0279196,0.0856231,-0,0.0900601,6254.9,-53334.8,0,53700.3,295293
step02_gravity_refstate-mantle.xmf,1370,2.57614e-06,4.98782e-06,0,1.11807e-06,-1.65033e+09,-1.65001e+09,-1.65067e+09,149430,-0.0572874,0.0141981,-0,0.0590206,12254.1,-57069.2,0,58370,149430
step02_gravity_refstate-mantle.xmf,1371,2.16226e-06,5.62857e-06,0,1.28145e-06,-1.63152e+09,-1.63105e+09,-1.63181e+09,171265,-0.0566291,0.0190354,-0,0.0597428,11427.9,-56486.9,0,57631.3,171265
step02_gravity_refstate-mantle.xmf,1372,2.9973e-06,4.8116e-06,0,8.10796e-07,-1.68041e+09,-1.68017e+09,-1.68081e+09,108363,-0.0603592,0.00957836,-0,0.0611145,12283.4,-58000.7,0,59287.2,108363
step02_gravity_refstate-mantle.xmf,1373,3.26231e-06,4.67508e-06,0,4.12791e-07,-1.71394e+09,-1.71376e+09,-1.71438e+09,55169.5,-0.0620265,0.00450843,-0,0.0621901,12439,-59038,0,60334.2,55169.5
step02_gravity_refstate-mantle.xmf,1374,3.30474e-06,4.31551e-06,0,-1.27119e-08,-1.74511e+09,-1.74497e+09,-1.74555e+09,-1698.95,-0.0603439,-4.26566e-19,-0,0.0603439,13142.2,-60000,0,61422.4,1698.95
step02_gravity_refstate-mantle.xmf,1375,-2.20913e-05,4.89766e-05,0,4.33971e-06,-1.72111e+09,-1.71162e+09,-1.71816e+09,580003,0.0424139,0.0388258,0,0.0575011,-1622.49,-59203.3,-0,59225.6,580003
step02_gravity_refstate-mantle.xmf,1376,-2.09746e-05,4.72929e-05,0,2.16589e-08,-1.7468e+09,-1.73768e+09,-1.744e+09,2894.72,0.0451551,-2.76586e-19,0,0.0451551,-1783.82,-60000,-0,60026.5,2894.72
step02_gravity_refstate-mantle.xmf,1377,-1.36476e-05,3.05859e-05,0,-3.68798e-05,-1.58473e+09,-1.57882e+09,-1.58291e+09,-4.92898e+06,-0.0157829,0.263894,-0,0.264365,1000,-54999.9,0,55009,4.92898e+06
step02_gravity_refstate-mantle.xmf,1378,-1.60354e-06,9.62509e-06,0,-6.27579e-08,-1.55499e+09,-1.55349e+09,-1.55477e+09,-8387.59,-0.0401602,0.0593874,-0,0.0716918,7609.4,-54108,0,54640.4,8387.59
step02_gravity_refstate-mantle.xmf,1379,-4.65344e-06,1.18645e-05,0,-5.32362e-06,-1.52777e+09,-1.52556e+09,-1.52715e+09,-711501,-0.0215006,0.112821,-0,0.114851,4941.9,-53252.5,0,53481.3,711501
step02_gravity_refstate-mantle.xmf,1380,1.60196e-06,6.37073e-06,0,1.34359e-06,-1.61323e+09,-1.61259e+09,-1.61344e+09,179571,-0.0549604,0.0249369,-0,0.0603531,10610.4,-55920.1,0,56917.8,179571
step02_gravity_refstate-mantle.xmf,1381,9.2387e-07,7.16989e-06,0,1.26731e-06,-1.59642e+09,-1.59558e+09,-1.59654e+09,169376,-0.0523809,0.0318183,-0,0.0612875,9824.59,-55398.3,0,56262.8,169376
step02_gravity_refstate-mantle.xmf,1382,1.36816e-07,8.0101e-06,0,1.0235e-06,-1.58099e+09,-1.57994e+09,-1.58101e+09,136790,-0.0489518,0.0398817,-0,0.0631413,9054.68,-54918.8,0,55660.2,136790
step02_gravity_refstate-mantle.xmf,1383,-7.36261e-07,8.81093e-06,0,5.91906e-07,-1.56616e+09,-1.56489e+09,-1.56606e+09,79108.2,-0.0445351,0.0491365,-0,0.0663157,8341.22,-54456.9,0,55092,79108.2
step02_gravity_refstate-mantle.xmf,1384,-2.50472e-05,5.31017e-05,0,5.35113e-06,-1.70878e+09,-1.69833e+09,-1.70543e+09,715178,0.0336373,0.0619565,0,0.0704988,-1207.37,-58813,-0,58825.4,715178
step02_gravity_refstate-mantle.xmf,1385,-2.71329e-05,5.62193e-05,0,6.60565e-06,-1.69625e+09,-1.68511e+09,-1.69262e+09,882845,0.024998,0.0864206,0,0.0899634,-823.469,-58420,-0,58425.8,882845
step02_gravity_refstate-mantle.xmf,1386,-2.27853e-05,4.97606e-05,0,1.79212e-06,-1.73575e+09,-1.72606e+09,-1.73271e+09,239516,0.0392717,0.0172092,0,0.0428768,-1507.9,-59652.9,-0,59671.9,239516
step02_gravity_refstate-mantle.xmf,1387,-4.90996e-06,1.29871e-05,0,-7.36553e-06,-1.53819e+09,-1.5358e+09,-1.53754e+09,-984403,-0.0228295,0.125732,-0,0.127788,4297.31,-53575.7,0,53747.8,984403
step02_gravity_refstate-mantle.xmf,1388,-5.29962e-06,1.44642e-05,0,-9.91971e-06,-1.54796e+09,-1.54532e+09,-1.54725e+09,-1.32577e+06,-0.0241431,0.139961,-0,0.142028,3711.51,-53878.5,0,54006.2,1.32577e+06
step02_gravity_refstate-mantle.xmf,1389,-5.96597e-06,1.64827e-05,0,-1.29733e-05,-1.55748e+09,-1.55448e+09,-1.55668e+09,-1.73388e+06,-0.025371,0.155301,-0,0.15736,3176.06,-54173.3,0,54266.3,1.73388e+06
step02_gravity_refstate-mantle.xmf,1390,-1.36543e-05,3.20839e-05,0,-2.9521e-05,-1.59394e+09,-1.58783e+09,-1.59211e+09,-3.94549e+06,-0.0239069,0.224724,-0,0.225992,1397.9,-55288.1,0,55305.8,3.94549e+06
step02_gravity_refstate-mantle.xmf,1391,-1.09729e-05,2.72705e-05,0,-2.45121e-05,-1.58619e+09,-1.58108e+09,-1.58472e+09,-3.27604e+06,-0.0262929,0.204839,-0,0.206519,1809.92,-55054.3,0,55084,3.27604e+06
step02_gravity_refstate-mantle.xmf,1392,-8.77886e-06,2.2945e-05,0,-2.04184e-05,-1.57697e+09,-1.57273e+09,-1.5758e+09,-2.72892e+06,-0.0268079,0.188273,-0,0.190172,2221.7,-54773.3,0,54818.3,2.72892e+06
step02_gravity_refstate-mantle.xmf,1393,-7.12682e-06,1.9341e-05,0,-1.66594e-05,-1.56722e+09,-1.56369e+09,-1.56627e+09,-2.22653e+06,-0.0262639,0.172356,-0,0.174345,2662.3,-54473.9,0,54538.9,2.22653e+06
step02_gravity_refstate-mantle.xmf,1394,-3.75227e-06,1.1838e-05,0,-3.32861e-06,-1.54142e+09,-1.53934e+09,-1.54092e+09,-444869,-0.0297062,0.0943022,-0,0.0988704,5558.14,-53680.3,0,53967.2,444869
step02_gravity_refstate-mantle.xmf,1395,-1.67079e-06,1.06437e-05,0,-6.29166e-07,-1.5681e+09,-1.56646e+09,-1.56788e+09,-84088,-0.0434461,0.063628,-0,0.077046,6891.16,-54515.3,0,54949.1,84088
step02_gravity_refstate-mantle.xmf,1396,-2.70787e-06,1.13956e-05,0,-1.78446e-06,-1.55521e+09,-1.55332e+09,-1.55485e+09,-238493,-0.0372327,0.0777267,-0,0.0861842,6209.45,-54111.9,0,54467,238493
step02_gravity_refstate-mantle.xmf,1397,2.71276e-06,5.49169e-06,0,1.01899e-06,-1.66259e+09,-1.66222e+09,-1.66295e+09,136188,-0.0610658,0.0137566,-0,0.0625961,11393.1,-57450.1,0,58568.9,136188
step02_gravity_refstate-mantle.xmf,1398,2.25402e-06,6.23168e-06,0,1.18274e-06,-1.64284e+09,-1.64231e+09,-1.64314e+09,158074,-0.0603264,0.0192537,-0,0.0633244,10576.7,-56838.9,0,57814.6,158074
step02_gravity_refstate-mantle.xmf,1399,3.14721e-06,5.31454e-06,0,6.56054e-07,-1.69534e+09,-1.69505e+09,-1.69576e+09,87681.6,-0.0642043,0.00820762,-0,0.0647268,11423.4,-58464.3,0,59569.8,87681.6
step02_gravity_refstate-mantle.xmf,1400,3.36124e-06,4.90213e-06,0,-5.71299e-09,-1.74505e+09,-1.74484e+09,-1.7455e+09,-763.541,-0.0639409,-3.38655e-19,-0,0.0639409,12062.5,-60000,0,61200.5,763.541
step02_gravity_refstate-mantle.xmf,1401,-3.40101e-05,6.40292e-05,0,8.54529e-06,-1.68349e+09,-1.67039e+09,-1.67895e+09,1.14208e+06,0.0173384,0.114674,0,0.115978,-499.828,-58000,-0,58002.2,1.14208e+06
step02_gravity_refstate-mantle.xmf,1402,-2.49422e-05,5.24601e-05,0,2.55266e-06,-1.72708e+09,-1.71673e+09,-1.72375e+09,341162,0.0308201,0.0325416,0,0.04482,-1141.22,-59377.4,-0,59388.4,341162
step02_gravity_refstate-mantle.xmf,1403,-2.46571e-05,5.20922e-05,0,8.68874e-08,-1.7472e+09,-1.73694e+09,-1.74391e+09,11612.5,0.0315381,-3.68648e-19,0,0.0315381,-1186.26,-60000,-0,60011.7,11612.5
step02_gravity_refstate-mantle.xmf,1404,-1.64851e-05,3.7435e-05,0,-3.53072e-05,-1.60094e+09,-1.59374e+09,-1.59874e+09,-4.7188e+06,-0.0199791,0.246972,-0,0.247779,1000,-55499.2,0,55508.2,4.7188e+06
step02_gravity_refstate-mantle.xmf,1405,-7.0847e-07,9.77712e-06,0,1.86334e-07,-1.58102e+09,-1.57962e+09,-1.58092e+09,24903.6,-0.0485739,0.0518057,-0,0.0710159,7581.89,-54918.5,0,55439.4,24903.6
step02_gravity_refstate-mantle.xmf,1406,-4.09341e-06,1.3085e-05,0,-5.03195e-06,-1.55051e+09,-1.54821e+09,-1.54996e+09,-672521,-0.0307606,0.105618,-0,0.110006,4872.77,-53961.7,0,54181.3,672521
step02_gravity_refstate-mantle.xmf,1407,1.6867e-06,7.02913e-06,0,1.19226e-06,-1.62523e+09,-1.62451e+09,-1.62545e+09,159345,-0.0586464,0.0254897,-0,0.0639463,9818.96,-56293.1,0,57143,159345
step02_gravity_refstate-mantle.xmf,1408,1.00405e-06,7.93602e-06,0,1.06102e-06,-1.61013e+09,-1.60921e+09,-1.61027e+09,141805,-0.0563869,0.0327701,-0,0.0652178,9036.55,-55824.5,0,56551.2,141805
step02_gravity_refstate-mantle.xmf,1409,1.76112e-07,8.87235e-06,0,7.30306e-07,-1.59469e+09,-1.59353e+09,-1.59471e+09,97605.4,-0.0528307,0.0417332,-0,0.0673256,8285.72,-55344.4,0,55961.2,97605.4
step02_gravity_refstate-mantle.xmf,1410,3.32443e-06,5.26184e-06,0,3.0916e-07,-1.72313e+09,-1.72287e+09,-1.72357e+09,41319.3,-0.0654791,0.00357778,-0,0.0655767,11496.1,-59323.5,0,60427.2,41319.3
step02_gravity_refstate-mantle.xmf,1411,-3.19493e-05,6.12469e-05,0,2.9018e-06,-1.69813e+09,-1.68567e+09,-1.69386e+09,387826,0.00816982,0.0881255,0,0.0885034,-255.724,-58458.8,-0,58459.4,387826
step02_gravity_refstate-mantle.xmf,1412,-2.75902e-05,5.6228e-05,0,2.72821e-06,-1.71567e+09,-1.70446e+09,-1.71198e+09,364626,0.017849,0.0541766,0,0.0570412,-626.422,-59016.8,-0,59020.2,364626
step02_gravity_refstate-mantle.xmf,1413,-4.59718e-06,1.46091e-05,0,-7.18605e-06,-1.5586e+09,-1.55603e+09,-1.55799e+09,-960415,-0.0314463,0.118932,-0,0.123019,4227.87,-54212.4,0,54377,960415
step02_gravity_refstate-mantle.xmf,1414,-5.2122e-06,1.64739e-05,0,-9.46054e-06,-1.56683e+09,-1.56393e+09,-1.56614e+09,-1.2644e+06,-0.0324754,0.131325,-0,0.135281,3697.51,-54467.3,0,54592.6,1.2644e+06
step02_gravity_refstate-mantle.xmf,1415,-1.93203e-05,4.43937e-05,0,-3.31264e-05,-1.61715e+09,-1.60864e+09,-1.61457e+09,-4.42735e+06,-0.0244002,0.226641,-0,0.227951,1000,-55998.8,0,56007.7,4.42735e+06
step02_gravity_refstate-mantle.xmf,1416,-1.58662e-05,3.82816e-05,0,-2.77309e-05,-1.61044e+09,-1.6032e+09,-1.60832e+09,-3.70624e+06,-0.0287872,0.209163,-0,0.211135,1363.25,-55798.8,0,55815.5,3.70624e+06
step02_gravity_refstate-mantle.xmf,1417,-6.19288e-06,1.91325e-05,0,-1.22064e-05,-1.57643e+09,-1.57304e+09,-1.5756e+09,-1.63139e+06,-0.0337368,0.144709,-0,0.148589,3177.99,-54763.8,0,54856,1.63139e+06
step02_gravity_refstate-mantle.xmf,1418,-1.26642e-05,3.23439e-05,0,-2.29386e-05,-1.60378e+09,-1.59777e+09,-1.60209e+09,-3.06575e+06,-0.0324089,0.190465,-0,0.193202,1778.33,-55599.4,0,55627.9,3.06575e+06
step02_gravity_refstate-mantle.xmf,1419,-9.92016e-06,2.7225e-05,0,-1.89603e-05,-1.59574e+09,-1.59078e+09,-1.59442e+09,-2.53405e+06,-0.0342036,0.174323,-0,0.177647,2208.75,-55356.4,0,55400.4,2.53405e+06
step02_gravity_refstate-mantle.xmf,1420,-7.83926e-06,2.28991e-05,0,-1.56285e-05,-1.58641e+09,-1.5823e+09,-1.58536e+09,-2.08875e+06,-0.0343033,0.160384,-0,0.164011,2648.7,-55070.8,0,55134.5,2.08875e+06
step02_gravity_refstate-mantle.xmf,1421,-7.99778e-07,1.09612e-05,0,-4.28828e-07,-1.59345e+09,-1.59188e+09,-1.59335e+09,-57312.8,-0.0520408,0.0554886,-0,0.0760739,6858.36,-55305,0,55728.6,57312.8
step02_gravity_refstate-mantle.xmf,1422,-2.9684e-06,1.29669e-05,0,-3.13452e-06,-1.56862e+09,-1.56649e+09,-1.56822e+09,-418928,-0.0402971,0.0860884,-0,0.095053,5439.76,-54528.5,0,54799.1,418928
step02_gravity_refstate-mantle.xmf,1423,-1.81265e-06,1.19371e-05,0,-1.46291e-06,-1.58057e+09,-1.57874e+09,-1.58033e+09,-195518,-0.0466835,0.0688516,-0,0.0831858,6186.29,-54902.9,0,55250.3,195518
step02_gravity_refstate-mantle.xmf,1424,2.82152e-06,6.2104e-06,0,8.70309e-07,-1.67598e+09,-1.67552e+09,-1.67635e+09,116317,-0.0654047,0.0132692,-0,0.0667372,10402.1,-57866.2,0,58793.7,116317
step02_gravity_refstate-mantle.xmf,1425,2.24854e-06,6.87489e-06,0,1.06061e-06,-1.64964e+09,-1.64902e+09,-1.64994e+09,141750,-0.0630907,0.0201136,-0,0.0662193,9845.43,-57050.6,0,57893.9,141750
step02_gravity_refstate-mantle.xmf,1426,3.24387e-06,6.06402e-06,0,3.87731e-07,-1.71607e+09,-1.7157e+09,-1.71651e+09,51820.3,-0.0683732,0.00543589,-0,0.0685889,10526.6,-59107.2,0,60037.2,51820.3
step02_gravity_refstate-mantle.xmf,1427,3.36377e-06,5.63545e-06,0,-1.03347e-08,-1.74498e+09,-1.74468e+09,-1.74543e+09,-1381.23,-0.0673974,-5.13914e-19,-0,0.0673974,11033.6,-60000,0,61006.1,1381.23
step02_gravity_refstate-mantle.xmf,1428,-3.54981e-05,6.72848e-05,0,5.11666e-08,-1.68354e+09,-1.66981e+09,-1.6788e+09,6838.42,8.25967e-06,0.118157,0,0.118157,-1.02887e-10,-58000,-0,58000,6838.42
step02_gravity_refstate-mantle.xmf,1429,-2.65111e-05,5.44476e-05,0,1.2191e-06,-1.73391e+09,-1.72309e+09,-1.73037e+09,162933,0.0202775,0.0226381,0,0.0303918,-739.969,-59583.1,-0,59587.7,162933
step02_gravity_refstate-mantle.xmf,1430,-2.20675e-05,5.17342e-05,0,-2.98384e-05,-1.63333e+09,-1.62347e+09,-1.63038e+09,-3.9879e+06,-0.0289839,0.202672,-0,0.204734,1000,-56499,0,56507.8,3.9879e+06
step02_gravity_refstate-mantle.xmf,1431,-1.80213e-05,4.42008e-05,0,-2.61541e-05,-1.6247e+09,-1.61638e+09,-1.62229e+09,-3.4955e+06,-0.0322651,0.195562,-0,0.198205,1294.21,-56240,0,56254.9,3.4955e+06
step02_gravity_refstate-mantle.xmf,1432,1.18223e-07,9.95755e-06,0,2.73053e-07,-1.60685e+09,-1.60554e+09,-1.60687e+09,36493.6,-0.0564079,0.044321,-0,0.071737,7533.37,-55722.5,0,56229.4,36493.6
step02_gravity_refstate-mantle.xmf,1433,-3.68492e-06,1.45424e-05,0,-5.18326e-06,-1.57201e+09,-1.56958e+09,-1.57152e+09,-692743,-0.0391588,0.100866,-0,0.1082,4682.93,-54632.6,0,54832.9,692743
step02_gravity_refstate-mantle.xmf,1434,1.81587e-06,7.80739e-06,0,9.69125e-07,-1.64075e+09,-1.63995e+09,-1.64099e+09,129524,-0.0630846,0.0251891,-0,0.0679276,9053.06,-56775.3,0,57492.6,129524
step02_gravity_refstate-mantle.xmf,1435,9.86847e-07,8.93423e-06,0,7.3017e-07,-1.62258e+09,-1.62151e+09,-1.62271e+09,97587.2,-0.0602168,0.0343562,-0,0.0693283,8236.43,-56211.4,0,56811.6,97587.2
step02_gravity_refstate-mantle.xmf,1436,-3.44152e-05,6.17703e-05,0,-1.06161e-05,-1.68377e+09,-1.67091e+09,-1.67917e+09,-1.41884e+06,-0.0173167,0.114707,-0,0.116006,499.828,-58000,0,58002.2,1.41884e+06
step02_gravity_refstate-mantle.xmf,1437,-3.10351e-05,6.09455e-05,0,-2.8339e-06,-1.6981e+09,-1.68581e+09,-1.69396e+09,-378751,-0.00787867,0.0878718,-0,0.0882243,247.134,-58463.3,0,58463.9,378751
step02_gravity_refstate-mantle.xmf,1438,-2.95041e-05,5.80215e-05,0,-3.45208e-07,-1.71405e+09,-1.70236e+09,-1.71011e+09,-46137.1,-0.000577465,0.0588434,-0,0.0588463,19.6298,-58958.8,0,58958.8,46137.1
step02_gravity_refstate-mantle.xmf,1439,-2.78815e-05,5.60568e-05,0,4.66243e-07,-1.73148e+09,-1.72026e+09,-1.72775e+09,62313.4,0.00721729,0.0277239,0,0.0286479,-258.913,-59502.8,-0,59503.4,62313.4
step02_gravity_refstate-mantle.xmf,1440,-2.69857e-05,5.49118e-05,0,9.30785e-08,-1.74747e+09,-1.73653e+09,-1.74387e+09,12439.9,0.0162423,-4.10346e-19,0,0.0162423,-593.045,-60000,-0,60002.9,12439.9
step02_gravity_refstate-mantle.xmf,1441,-4.36824e-06,1.6052e-05,0,-7.0969e-06,-1.57516e+09,-1.57243e+09,-1.57457e+09,-948501,-0.0383451,0.113092,-0,0.119416,4154.28,-54729,0,54886.4,948501
step02_gravity_refstate-mantle.xmf,1442,-4.96493e-06,1.82099e-05,0,-8.64769e-06,-1.58519e+09,-1.5821e+09,-1.58453e+09,-1.15576e+06,-0.0406522,0.120492,-0,0.127165,3725.02,-55040.5,0,55166.4,1.15576e+06
step02_gravity_refstate-mantle.xmf,1443,-1.66367e-05,4.50922e-05,0,-2.01511e-05,-1.63846e+09,-1.63021e+09,-1.63624e+09,-2.69319e+06,-0.0400621,0.165335,-0,0.17012,1480.66,-56676.8,0,56696.1,2.69319e+06
step02_gravity_refstate-mantle.xmf,1444,-1.41414e-05,3.77853e-05,0,-2.10347e-05,-1.62175e+09,-1.61481e+09,-1.61986e+09,-2.81129e+06,-0.0379844,0.174868,-0,0.178946,1706.88,-56158.5,0,56184.5,2.81129e+06
step02_gravity_refstate-mantle.xmf,1445,-6.23052e-06,2.15609e-05,0,-1.11941e-05,-1.59558e+09,-1.59186e+09,-1.59475e+09,-1.4961e+06,-0.0419932,0.132388,-0,0.138888,3182.27,-55361.4,0,55452.8,1.4961e+06
step02_gravity_refstate-mantle.xmf,1446,-1.06126e-05,3.11689e-05,0,-1.70717e-05,-1.61447e+09,-1.60889e+09,-1.61306e+09,-2.28163e+06,-0.0412768,0.1585,-0,0.163786,2183.28,-55940.4,0,55983,2.28163e+06
step02_gravity_refstate-mantle.xmf,1447,-8.19199e-06,2.61084e-05,0,-1.41611e-05,-1.60571e+09,-1.60113e+09,-1.60462e+09,-1.89263e+06,-0.0422095,0.145977,-0,0.151957,2640.76,-55673,0,55735.6,1.89263e+06
step02_gravity_refstate-mantle.xmf,1448,-8.59405e-08,1.13194e-05,0,-3.80375e-07,-1.61736e+09,-1.61583e+09,-1.61734e+09,-50837.2,-0.0594887,0.0477771,-0,0.0762991,6804.98,-56049,0,56460.6,50837.2
step02_gravity_refstate-mantle.xmf,1449,-1.01341e-06,1.24338e-05,0,-1.26721e-06,-1.60496e+09,-1.60316e+09,-1.60482e+09,-169362,-0.0552319,0.0598281,-0,0.0814246,6169.38,-55662.7,0,56003.5,169362
step02_gravity_refstate-mantle.xmf,1450,-2.02082e-06,1.35465e-05,0,-2.51217e-06,-1.59366e+09,-1.59158e+09,-1.59339e+09,-335751,-0.0502791,0.0738914,-0,0.0893751,5541.06,-55309.9,0,55586.8,335751
step02_gravity_refstate-mantle.xmf,1451,2.49843e-06,7.29996e-06,0,8.25263e-07,-1.66917e+09,-1.66853e+09,-1.6695e+09,110296,-0.0671605,0.0171724,-0,0.0693211,9409.61,-57656.6,0,58419.3,110296
step02_gravity_refstate-mantle.xmf,1452,2.96996e-06,6.96123e-06,0,5.5097e-07,-1.69893e+09,-1.6984e+09,-1.69933e+09,73637.1,-0.0699655,0.0100075,-0,0.0706776,9639.32,-58578.1,0,59365.9,73637.1
step02_gravity_refstate-mantle.xmf,1453,3.26887e-06,6.55907e-06,0,-4.52365e-09,-1.74493e+09,-1.74449e+09,-1.74537e+09,-604.586,-0.0706496,-4.22485e-19,-0,0.0706496,10053,-60000,0,60836.4,604.586
step02_gravity_refstate-mantle.xmf,1454,-2.80518e-05,5.72098e-05,0,-6.11494e-06,-1.69512e+09,-1.68372e+09,-1.69137e+09,-817262,-0.0210552,0.0898439,-0,0.0922781,674.557,-58381.4,0,58385.3,817262
step02_gravity_refstate-mantle.xmf,1455,-2.41532e-05,5.95471e-05,0,-2.49037e-05,-1.64934e+09,-1.63816e+09,-1.64611e+09,-3.32838e+06,-0.0333565,0.174921,-0,0.178073,1000,-56999.5,0,57008.3,3.32838e+06
step02_gravity_refstate-mantle.xmf,1456,7.72859e-07,1.02207e-05,0,2.26142e-07,-1.63155e+09,-1.63029e+09,-1.63165e+09,30223.9,-0.0631505,0.0372791,-0,0.0733329,7446.84,-56490.4,0,56979.2,30223.9
step02_gravity_refstate-mantle.xmf,1457,-2.88896e-06,1.45428e-05,0,-3.88503e-06,-1.58668e+09,-1.58435e+09,-1.58629e+09,-519234,-0.0462698,0.0869773,-0,0.0985187,5006.87,-55091,0,55318,519234
step02_gravity_refstate-mantle.xmf,1458,-3.61288e-06,1.65578e-05,0,-5.71257e-06,-1.59224e+09,-1.58955e+09,-1.59176e+09,-763485,-0.0464524,0.0984579,-0,0.108866,4378.88,-55263.1,0,55436.3,763485
step02_gravity_refstate-mantle.xmf,1459,1.59039e-06,9.34301e-06,0,4.86329e-07,-1.65104e+09,-1.65e+09,-1.65125e+09,64997.9,-0.0669207,0.0276309,-0,0.0724006,8011.49,-57095.6,0,57655,64997.9
step02_gravity_refstate-mantle.xmf,1460,2.17688e-06,8.24015e-06,0,6.94962e-07,-1.66444e+09,-1.66363e+09,-1.66473e+09,92881.7,-0.0680832,0.020737,-0,0.0711713,8702.32,-57510.8,0,58165.5,92881.7
step02_gravity_refstate-mantle.xmf,1461,3.13469e-06,7.06717e-06,0,2.63051e-07,-1.72455e+09,-1.72402e+09,-1.72497e+09,35156.7,-0.0717515,0.00447626,-0,0.071891,9585.67,-59370.9,0,60139.7,35156.7
step02_gravity_refstate-mantle.xmf,1462,-2.80006e-05,6.28978e-05,0,-9.74463e-06,-1.68228e+09,-1.67014e+09,-1.67854e+09,-1.30237e+06,-0.0333256,0.108547,-0,0.113547,1000,-58000,0,58008.6,1.30237e+06
step02_gravity_refstate-mantle.xmf,1463,-2.77155e-05,5.61465e-05,0,-3.16541e-06,-1.71237e+09,-1.70116e+09,-1.70866e+09,-423057,-0.0178084,0.0599867,-0,0.0625743,617.674,-58913.9,0,58917.1,423057
step02_gravity_refstate-mantle.xmf,1464,-2.78841e-05,5.59832e-05,0,-7.81482e-07,-1.73066e+09,-1.71945e+09,-1.72693e+09,-104445,-0.00870522,0.0291105,-0,0.0303843,311.939,-59477.2,0,59478.1,104445
step02_gravity_refstate-mantle.xmf,1465,-2.78106e-05,5.58996e-05,0,8.33369e-08,-1.74757e+09,-1.73638e+09,-1.74385e+09,11138,-6.08786e-07,-4.03259e-19,-0,6.08786e-07,-4.92291e-08,-60000,-0,60000,11138
step02_gravity_refstate-mantle.xmf,1466,-1.6143e-05,4.92045e-05,0,-1.60783e-05,-1.65573e+09,-1.647e+09,-1.65358e+09,-2.14887e+06,-0.0441228,0.140917,-0,0.147663,1448.28,-57224.1,0,57242.4,2.14887e+06
step02_gravity_refstate-mantle.xmf,1467,-4.6178e-06,1.98054e-05,0,-7.85784e-06,-1.60474e+09,-1.60147e+09,-1.60412e+09,-1.0502e+06,-0.0488628,0.108204,-0,0.118725,3748.14,-55650.6,0,55776.7,1.0502e+06
step02_gravity_refstate-mantle.xmf,1468,-1.09263e-05,3.52446e-05,0,-1.50559e-05,-1.63476e+09,-1.62859e+09,-1.6333e+09,-2.01222e+06,-0.0477701,0.140347,-0,0.148255,2116.55,-56575.5,0,56615.1,2.01222e+06
step02_gravity_refstate-mantle.xmf,1469,-6.0864e-06,2.37358e-05,0,-1.01644e-05,-1.61519e+09,-1.61121e+09,-1.61438e+09,-1.35847e+06,-0.0498253,0.11869,-0,0.128724,3177.19,-55973.8,0,56063.9,1.35847e+06
step02_gravity_refstate-mantle.xmf,1470,-8.04547e-06,2.85441e-05,0,-1.24999e-05,-1.62485e+09,-1.61996e+09,-1.62378e+09,-1.67062e+06,-0.0496016,0.12913,-0,0.138329,2653.21,-56271.5,0,56334,1.67062e+06
step02_gravity_refstate-mantle.xmf,1471,3.92202e-07,1.18169e-05,0,-4.61632e-07,-1.63943e+09,-1.6379e+09,-1.63948e+09,-61697.1,-0.06558,0.0408168,-0,0.0772447,6703.87,-56735.4,0,57130.1,61697.1
step02_gravity_refstate-mantle.xmf,1472,-4.28678e-07,1.30111e-05,0,-1.22545e-06,-1.62794e+09,-1.62615e+09,-1.62789e+09,-163782,-0.0624216,0.051371,-0,0.080842,6118.04,-56378.1,0,56709.1,163782
step02_gravity_refstate-mantle.xmf,1473,-2.46235e-06,1.55665e-05,0,-3.83069e-06,-1.60507e+09,-1.60266e+09,-1.60474e+09,-511972,-0.053127,0.0800212,-0,0.0960514,4923.23,-55664.5,0,55881.8,511972
step02_gravity_refstate-mantle.xmf,1474,-1.39993e-06,1.4298e-05,0,-2.3434e-06,-1.61618e+09,-1.61408e+09,-1.616e+09,-313196,-0.0581816,0.0646192,-0,0.0869525,5510.26,-56011.6,0,56282,313196
step02_gravity_refstate-mantle.xmf,1475,2.55973e-06,8.11815e-06,0,5.40849e-07,-1.68727e+09,-1.68653e+09,-1.68761e+09,72284.5,-0.0711292,0.0146376,-0,0.0726197,8784.27,-58218.2,0,58877.2,72284.5
step02_gravity_refstate-mantle.xmf,1476,2.8363e-06,8.26148e-06,0,2.56641e-07,-1.71763e+09,-1.7169e+09,-1.71801e+09,34300.1,-0.0739641,0.00700574,-0,0.0742951,8731.16,-59158.2,0,59799,34300.1
step02_gravity_refstate-mantle.xmf,1477,3.04734e-06,7.73472e-06,0,-5.03637e-09,-1.74488e+09,-1.74425e+09,-1.74529e+09,-673.11,-0.0736029,-6.6174e-19,-0,0.0736029,9118.31,-60000,0,60688.9,673.11
step02_gravity_refstate-mantle.xmf,1478,-2.61374e-05,5.48054e-05,0,-6.13222e-06,-1.70018e+09,-1.68936e+09,-1.69668e+09,-819572,-0.0312095,0.0775402,-0,0.0835854,1076.18,-58544.4,0,58554.3,819572
step02_gravity_refstate-mantle.xmf,1479,-2.4278e-05,6.35287e-05,0,-1.79142e-05,-1.66523e+09,-1.65349e+09,-1.66198e+09,-2.39423e+06,-0.0363791,0.143359,-0,0.147902,1000,-57499.6,0,57508.3,2.39423e+06
step02_gravity_refstate-mantle.xmf,1480,-1.2766e-05,4.07475e-05,0,-1.52025e-05,-1.64887e+09,-1.64172e+09,-1.64716e+09,-2.03182e+06,-0.0484319,0.134838,-0,0.143272,1840.15,-57013,0,57042.7,2.03182e+06
step02_gravity_refstate-mantle.xmf,1481,1.05882e-06,1.08103e-05,0,-3.2096e-09,-1.65075e+09,-1.64944e+09,-1.65089e+09,-428.963,-0.0678871,0.0326201,-0,0.0753175,7227.92,-57086.8,0,57542.5,428.963
step02_gravity_refstate-mantle.xmf,1482,2.07233e-06,9.22288e-06,0,4.2802e-07,-1.67631e+09,-1.67535e+09,-1.67658e+09,57204.9,-0.0712835,0.0200055,-0,0.0740375,8075.86,-57879.1,0,58439.8,57204.9
step02_gravity_refstate-mantle.xmf,1483,-1.64288e-05,4.91669e-05,0,-1.53382e-05,-1.67244e+09,-1.66367e+09,-1.67024e+09,-2.04995e+06,-0.045322,0.115298,-0,0.123886,1452.61,-57738,0,57756.3,2.04995e+06
step02_gravity_refstate-mantle.xmf,1484,-2.20709e-05,5.17292e-05,0,-1.22658e-05,-1.68993e+09,-1.68007e+09,-1.68698e+09,-1.63932e+06,-0.0426424,0.0888303,-0,0.0985353,1471.84,-58247.2,0,58265.8,1.63932e+06
step02_gravity_refstate-mantle.xmf,1485,-2.48247e-05,5.25896e-05,0,-4.41164e-06,-1.71609e+09,-1.70574e+09,-1.71277e+09,-589615,-0.033248,0.0499459,-0,0.0600002,1215.74,-59039,0,59051.5,589615
step02_gravity_refstate-mantle.xmf,1486,-2.61092e-05,5.38662e-05,0,-1.73643e-06,-1.73116e+09,-1.72047e+09,-1.72767e+09,-232074,-0.0243065,0.0268524,-0,0.0362196,890.897,-59499.4,0,59506,232074
step02_gravity_refstate-mantle.xmf,1487,-2.69699e-05,5.48903e-05,0,4.1349e-08,-1.74747e+09,-1.73653e+09,-1.74387e+09,5526.3,-0.0162375,-3.4535e-19,-0,0.0162375,593.045,-60000,0,60002.9,5526.3
step02_gravity_refstate-mantle.xmf,1488,-1.24945e-05,4.11787e-05,0,-1.42233e-05,-1.66303e+09,-1.65585e+09,-1.66136e+09,-1.90095e+06,-0.0515298,0.115071,-0,0.126082,1889.87,-57453.3,0,57484.4,1.90095e+06
step02_gravity_refstate-mantle.xmf,1489,-3.22784e-06,1.81449e-05,0,-5.42186e-06,-1.61506e+09,-1.61221e+09,-1.61463e+09,-724631,-0.0550397,0.087634,-0,0.103485,4313.97,-55974.7,0,56140.7,724631
step02_gravity_refstate-mantle.xmf,1490,-4.40488e-06,2.15716e-05,0,-7.3442e-06,-1.62545e+09,-1.62198e+09,-1.62486e+09,-981552,-0.0563721,0.0958214,-0,0.111174,3711.93,-56296.5,0,56418.7,981552
step02_gravity_refstate-mantle.xmf,1491,-9.91979e-06,3.53062e-05,0,-1.28964e-05,-1.65267e+09,-1.64663e+09,-1.65135e+09,-1.72361e+06,-0.0541558,0.115138,-0,0.127238,2265.4,-57135.6,0,57180.5,1.72361e+06
step02_gravity_refstate-mantle.xmf,1492,-5.94375e-06,2.56181e-05,0,-9.34075e-06,-1.63485e+09,-1.63063e+09,-1.63405e+09,-1.24839e+06,-0.0565641,0.103939,-0,0.118333,3164.87,-56586.7,0,56675.2,1.24839e+06
step02_gravity_refstate-mantle.xmf,1493,-7.85459e-06,3.03115e-05,0,-1.13238e-05,-1.64319e+09,-1.63808e+09,-1.64214e+09,-1.51342e+06,-0.0555132,0.111758,-0,0.124786,2669.03,-56843.5,0,56906.2,1.51342e+06
step02_gravity_refstate-mantle.xmf,1494,1.48561e-06,1.08049e-05,0,1.95407e-08,-1.67128e+09,-1.67003e+09,-1.67147e+09,2611.61,-0.0718121,0.0251735,-0,0.0760966,7317.64,-57723.8,0,58185.8,2611.61
step02_gravity_refstate-mantle.xmf,1495,7.25517e-07,1.22756e-05,0,-5.17347e-07,-1.66055e+09,-1.65901e+09,-1.66065e+09,-69143.4,-0.0705034,0.0334315,-0,0.0780282,6642.43,-57391.3,0,57774.4,69143.4
step02_gravity_refstate-mantle.xmf,1496,-7.42484e-08,1.36426e-05,0,-1.23688e-06,-1.64935e+09,-1.64752e+09,-1.64934e+09,-165309,-0.0681514,0.04318,-0,0.0806791,6057.14,-57043.4,0,57364.1,165309
step02_gravity_refstate-mantle.xmf,1497,-1.00469e-06,1.51289e-05,0,-2.28145e-06,-1.638e+09,-1.63584e+09,-1.63786e+09,-304916,-0.064832,0.0553661,-0,0.085256,5459.79,-56690.3,0,56952.6,304916
step02_gravity_refstate-mantle.xmf,1498,-2.05234e-06,1.66446e-05,0,-3.67165e-06,-1.62653e+09,-1.62403e+09,-1.62626e+09,-490716,-0.0604665,0.0701279,-0,0.0925965,4876.38,-56333,0,56543.6,490716
step02_gravity_refstate-mantle.xmf,1499,2.3091e-06,9.48134e-06,0,2.72418e-07,-1.70022e+09,-1.69926e+09,-1.70053e+09,36408.7,-0.0744117,0.0132102,-0,0.0755752,8024.78,-58620,0,59166.7,36408.7
step02_gravity_refstate-mantle.xmf,1500,2.65523e-06,9.19163e-06,0,-6.45399e-10,-1.74484e+09,-1.74397e+09,-1.7452e+09,-86.2576,-0.0761409,-6.38885e-19,-0,0.0761409,8227.38,-60000,0,60561.5,86.2576
step02_gravity_refstate-mantle.xmf,1501,-2.29544e-05,5.10045e-05,0,-7.62247e-06,-1.70428e+09,-1.6944e+09,-1.70122e+09,-1.01874e+06,-0.0407675,0.0660729,-0,0.0776377,1485.71,-58682.8,0,58701.6,1.01874e+06
step02_gravity_refstate-mantle.xmf,1502,2.25805e-06,1.01949e-05,0,7.55273e-08,-1.72332e+09,-1.72226e+09,-1.72362e+09,10094.2,-0.0768512,0.00681602,-0,0.0771528,7720.61,-59335,0,59835.2,10094.2
step02_gravity_refstate-mantle.xmf,1503,1.74924e-06,1.10567e-05,0,-2.51261e-08,-1.69628e+09,-1.69503e+09,-1.69651e+09,-3358.1,-0.0754807,0.0168488,-0,0.0773384,7285.84,-58498.5,0,58950.5,3358.1
step02_gravity_refstate-mantle.xmf,1504,-1.46903e-05,4.27298e-05,0,-1.28443e-05,-1.68033e+09,-1.67265e+09,-1.67836e+09,-1.71664e+06,-0.0521911,0.0918932,-0,0.10568,1930.53,-57977,0,58009.1,1.71664e+06
step02_gravity_refstate-mantle.xmf,1505,-1.80929e-05,4.50799e-05,0,-9.68962e-06,-1.69832e+09,-1.68988e+09,-1.69591e+09,-1.29502e+06,-0.0504623,0.0680559,-0,0.0847233,1926.48,-58516.1,0,58547.8,1.29502e+06
step02_gravity_refstate-mantle.xmf,1506,-2.07549e-05,4.74799e-05,0,-5.75926e-06,-1.71565e+09,-1.70653e+09,-1.71287e+09,-769726,-0.0459072,0.0455642,-0,0.0646805,1770.19,-59039.6,0,59066.1,769726
step02_gravity_refstate-mantle.xmf,1507,-2.29316e-05,4.98622e-05,0,-2.46571e-06,-1.73156e+09,-1.72183e+09,-1.72849e+09,-329542,-0.0389628,0.0237521,-0,0.0456318,1489.51,-59522.6,0,59541.2,329542
step02_gravity_refstate-mantle.xmf,1508,-2.46131e-05,5.19579e-05,0,2.64728e-08,-1.7472e+09,-1.73697e+09,-1.74391e+09,3538.08,-0.0315328,-2.80354e-19,-0,0.0315328,1186.26,-60000,0,60011.7,3538.08
step02_gravity_refstate-mantle.xmf,1509,-1.04719e-05,3.60094e-05,0,-1.171e-05,-1.66982e+09,-1.6636e+09,-1.66842e+09,-1.56503e+06,-0.0576517,0.0930696,-0,0.109479,2377.59,-57663.3,0,57712.3,1.56503e+06
step02_gravity_refstate-mantle.xmf,1510,-3.05361e-06,1.95886e-05,0,-5.18559e-06,-1.63643e+09,-1.6334e+09,-1.63602e+09,-693054,-0.0619726,0.0761176,-0,0.0981554,4265.69,-56639.5,0,56799.9,693054
step02_gravity_refstate-mantle.xmf,1511,-4.43907e-06,2.31957e-05,0,-6.92744e-06,-1.64594e+09,-1.64225e+09,-1.64535e+09,-925853,-0.0624818,0.082142,-0,0.103205,3687.95,-56933.3,0,57052.6,925853
step02_gravity_refstate-mantle.xmf,1512,-8.14589e-06,3.1552e-05,0,-1.07472e-05,-1.65864e+09,-1.65333e+09,-1.65755e+09,-1.43637e+06,-0.0591234,0.0963377,-0,0.113033,2689.52,-57322.1,0,57385.1,1.43637e+06
step02_gravity_refstate-mantle.xmf,1513,-6.21984e-06,2.74241e-05,0,-8.83384e-06,-1.65393e+09,-1.64944e+09,-1.6531e+09,-1.18064e+06,-0.0614777,0.0888436,-0,0.10804,3141.68,-57179.1,0,57265.3,1.18064e+06
step02_gravity_refstate-mantle.xmf,1514,9.53409e-07,1.26698e-05,0,-4.83556e-07,-1.6828e+09,-1.68123e+09,-1.68292e+09,-64627.3,-0.0745454,0.0249806,-0,0.0786196,6620.72,-58080.9,0,58457,64627.3
step02_gravity_refstate-mantle.xmf,1515,9.19781e-08,1.43104e-05,0,-1.19729e-06,-1.6709e+09,-1.669e+09,-1.67092e+09,-160017,-0.0728103,0.0343374,-0,0.0805009,6003.7,-57712,0,58023.4,160017
step02_gravity_refstate-mantle.xmf,1516,-8.4193e-07,1.59924e-05,0,-2.19327e-06,-1.65936e+09,-1.65711e+09,-1.65924e+09,-293130,-0.0701842,0.0456129,-0,0.083704,5415.04,-57353.3,0,57608.4,293130
step02_gravity_refstate-mantle.xmf,1517,-1.87794e-06,1.77604e-05,0,-3.53324e-06,-1.64786e+09,-1.64523e+09,-1.64761e+09,-472217,-0.0665873,0.0594469,-0,0.0892625,4832.96,-56995.7,0,57200.2,472217
step02_gravity_refstate-mantle.xmf,1518,2.00895e-06,1.10507e-05,0,2.49532e-09,-1.74483e+09,-1.74362e+09,-1.7451e+09,333.5,-0.0781188,-7.56185e-19,-0,0.0781188,7377.92,-60000,0,60451.9,333.5
step02_gravity_refstate-mantle.xmf,1519,1.55573e-06,1.20476e-05,0,-9.93554e-08,-1.72335e+09,-1.72195e+09,-1.72356e+09,-13278.9,-0.0782672,0.0080455,-0,0.0786796,6977.22,-59336.2,0,59745,13278.9
step02_gravity_refstate-mantle.xmf,1520,9.40073e-07,1.32891e-05,0,-4.23493e-07,-1.70587e+09,-1.70422e+09,-1.706e+09,-56599.8,-0.0775283,0.0162199,-0,0.0792069,6517.52,-58795.2,0,59155.3,56599.8
step02_gravity_refstate-mantle.xmf,1521,-1.21208e-05,3.715e-05,0,-9.67116e-06,-1.68828e+09,-1.6817e+09,-1.68666e+09,-1.29255e+06,-0.0591879,0.0703338,-0,0.0919241,2470.54,-58225.5,0,58277.9,1.29255e+06
step02_gravity_refstate-mantle.xmf,1522,-1.49655e-05,4.00791e-05,0,-6.34425e-06,-1.71095e+09,-1.70359e+09,-1.70895e+09,-847908,-0.0578371,0.0442432,-0,0.0728189,2424.19,-58914.2,0,58964.1,847908
step02_gravity_refstate-mantle.xmf,1523,-1.86475e-05,4.4301e-05,0,-2.58014e-06,-1.73223e+09,-1.72381e+09,-1.72973e+09,-344835,-0.0514074,0.0196077,-0,0.0550198,2090.15,-59557.7,0,59594.3,344835
step02_gravity_refstate-mantle.xmf,1524,-2.09608e-05,4.73166e-05,0,-2.11941e-08,-1.7468e+09,-1.73767e+09,-1.744e+09,-2832.59,-0.0451511,-2.07811e-19,-0,0.0451511,1783.82,-60000,0,60026.5,2832.59
step02_gravity_refstate-mantle.xmf,1525,-8.04514e-06,3.07587e-05,0,-8.66167e-06,-1.67474e+09,-1.66955e+09,-1.67366e+09,-1.15763e+06,-0.0637203,0.0737119,-0,0.0974358,2990.94,-57818,0,57895.3,1.15763e+06
step02_gravity_refstate-mantle.xmf,1526,-3.22881e-06,2.10302e-05,0,-4.91051e-06,-1.65769e+09,-1.65444e+09,-1.65726e+09,-656290,-0.0674337,0.0633553,-0,0.0925267,4232.07,-57298.7,0,57454.8,656290
step02_gravity_refstate-mantle.xmf,1527,-5.08612e-06,2.50615e-05,0,-6.52704e-06,-1.66675e+09,-1.66273e+09,-1.66607e+09,-872338,-0.0668398,0.067457,-0,0.0949632,3647.16,-57576.7,0,57692.1,872338
step02_gravity_refstate-mantle.xmf,1528,8.34415e-08,1.49769e-05,0,-1.0251e-06,-1.69298e+09,-1.69099e+09,-1.69299e+09,-137005,-0.0763308,0.024673,-0,0.0802194,5957,-58395.6,0,58698.6,137005
step02_gravity_refstate-mantle.xmf,1529,-9.24456e-07,1.69113e-05,0,-1.98228e-06,-1.68091e+09,-1.67852e+09,-1.68078e+09,-264932,-0.0742854,0.0351018,-0,0.0821612,5369.64,-58020.9,0,58268.8,264932
step02_gravity_refstate-mantle.xmf,1530,-2.04427e-06,1.90183e-05,0,-3.33617e-06,-1.66925e+09,-1.66644e+09,-1.66898e+09,-445879,-0.0713022,0.0480358,-0,0.0859735,4777.81,-57658.7,0,57856.3,445879
step02_gravity_refstate-mantle.xmf,1531,1.02628e-06,1.33969e-05,0,2.44174e-09,-1.74485e+09,-1.74319e+09,-1.74498e+09,326.338,-0.079359,-7.3889e-19,-0,0.079359,6567.63,-60000,0,60358.4,326.338
step02_gravity_refstate-mantle.xmf,1532,8.03475e-07,1.37683e-05,0,-2.35427e-07,-1.72677e+09,-1.72504e+09,-1.72688e+09,-31464.8,-0.0790931,0.00777949,-0,0.0794747,6404.44,-59441,0,59785.1,31464.8
step02_gravity_refstate-mantle.xmf,1533,-1.13028e-07,1.57276e-05,0,-7.05708e-07,-1.7161e+09,-1.71399e+09,-1.71609e+09,-94317.9,-0.0786479,0.0141031,-0,0.0799023,5876.03,-59110.5,0,59401.8,94317.9
step02_gravity_refstate-mantle.xmf,1534,-9.81522e-06,3.27662e-05,0,-6.76966e-06,-1.69704e+09,-1.69135e+09,-1.69573e+09,-904766,-0.0651698,0.0516798,-0,0.083174,3007.59,-58500.4,0,58577.7,904766
step02_gravity_refstate-mantle.xmf,1535,-1.38515e-05,3.78935e-05,0,-2.66403e-06,-1.72991e+09,-1.723e+09,-1.72806e+09,-356048,-0.0615277,0.0189627,-0,0.0643836,2710.5,-59501.9,0,59563.6,356048
step02_gravity_refstate-mantle.xmf,1536,-1.64717e-05,4.13912e-05,0,-6.2113e-08,-1.74632e+09,-1.73858e+09,-1.74412e+09,-8301.4,-0.0565618,-1.80232e-19,-0,0.0565618,2393.33,-60000,0,60047.7,8301.4
step02_gravity_refstate-mantle.xmf,1537,-3.83577e-06,2.25889e-05,0,-4.35697e-06,-1.67981e+09,-1.67627e+09,-1.67929e+09,-582309,-0.0714197,0.0488336,-0,0.0865187,4207.62,-57981.9,0,58134.3,582309
step02_gravity_refstate-mantle.xmf,1538,-6.40553e-06,2.7216e-05,0,-5.58555e-06,-1.68906e+09,-1.68457e+09,-1.68821e+09,-746509,-0.0695002,0.0502087,-0,0.0857391,3605.9,-58262.5,0,58373.9,746509
step02_gravity_refstate-mantle.xmf,1539,-1.1791e-06,1.77357e-05,0,-1.52127e-06,-1.7023e+09,-1.69977e+09,-1.70214e+09,-203318,-0.0770713,0.0239172,-0,0.0806971,5335.57,-58682,0,58924.1,203318
step02_gravity_refstate-mantle.xmf,1540,-2.42257e-06,2.01241e-05,0,-2.788e-06,-1.69088e+09,-1.68786e+09,-1.69055e+09,-372616,-0.0746733,0.035169,-0,0.0825406,4758.5,-58327,0,58520.8,372616
step02_gravity_refstate-mantle.xmf,1541,-2.96482e-07,1.61967e-05,0,3.67261e-08,-1.7449e+09,-1.7427e+09,-1.74486e+09,4908.44,-0.0796368,-1.14237e-18,-0,0.0796368,5794.24,-60000,0,60279.1,4908.44
step02_gravity_refstate-mantle.xmf,1542,-1.12314e-05,3.43801e-05,0,-4.56224e-06,-1.71536e+09,-1.70926e+09,-1.71386e+09,-609743,-0.0652625,0.0329055,-0,0.0730888,2997.71,-59060.8,0,59136.9,609743
step02_gravity_refstate-mantle.xmf,1543,-1.60086e-06,1.86638e-05,0,-8.79509e-07,-1.72379e+09,-1.72109e+09,-1.72358e+09,-117546,-0.0785605,0.0122929,-0,0.0795165,5242.06,-59345.5,0,59576.6,117546
step02_gravity_refstate-mantle.xmf,1544,-7.88806e-06,2.93549e-05,0,-4.02697e-06,-1.71045e+09,-1.70547e+09,-1.70939e+09,-538204,-0.0701583,0.0326265,-0,0.0773736,3519.58,-58918.5,0,59023.6,538204
step02_gravity_refstate-mantle.xmf,1545,-9.83162e-06,3.20792e-05,0,-2.18764e-06,-1.72897e+09,-1.72337e+09,-1.72766e+09,-292378,-0.0686472,0.0166357,-0,0.0706341,3311.99,-59484.9,0,59577,292378
step02_gravity_refstate-mantle.xmf,1546,-1.19438e-05,3.51073e-05,0,-5.67049e-08,-1.74586e+09,-1.73957e+09,-1.74426e+09,-7578.61,-0.0654818,-1.6228e-19,-0,0.0654818,3021.02,-60000,0,60076,7578.61
step02_gravity_refstate-mantle.xmf,1547,-4.6578e-06,2.39387e-05,0,-3.07528e-06,-1.70556e+09,-1.70174e+09,-1.70494e+09,-411012,-0.0742554,0.0301817,-0,0.0801548,4223.02,-58775.4,0,58926.9,411012
step02_gravity_refstate-mantle.xmf,1548,-2.76072e-06,2.0665e-05,0,-1.94748e-06,-1.70862e+09,-1.70549e+09,-1.70825e+09,-260280,-0.0765682,0.0237731,-0,0.0801738,4787.02,-58874.3,0,59068.6,260280
step02_gravity_refstate-mantle.xmf,1549,-3.60091e-06,2.224e-05,0,-1.27027e-06,-1.7259e+09,-1.72245e+09,-1.72542e+09,-169771,-0.076988,0.013291,-0,0.0781268,4604.11,-59406.5,0,59584.6,169771
step02_gravity_refstate-mantle.xmf,1550,-2.18417e-06,1.97667e-05,0,3.87953e-08,-1.74501e+09,-1.74208e+09,-1.74472e+09,5184.99,-0.0786984,-1.24069e-18,-0,0.0786984,5055.41,-60000,0,60212.6,5184.99
step02_gravity_refstate-mantle.xmf,1551,-6.33763e-06,2.67272e-05,0,-1.72538e-06,-1.72692e+09,-1.7225e+09,-1.72608e+09,-230597,-0.0737553,0.0153256,-0,0.0753307,3948.45,-59431.2,0,59562.2,230597
step02_gravity_refstate-mantle.xmf,1552,-7.9779e-06,2.92576e-05,0,-5.03768e-08,-1.74548e+09,-1.74051e+09,-1.74442e+09,-6732.85,-0.0719548,-1.52935e-19,-0,0.0719548,3671.61,-60000,0,60112.2,6732.85
step02_gravity_refstate-mantle.xmf,1553,-4.85705e-06,2.41224e-05,0,1.5676e-08,-1.74523e+09,-1.74136e+09,-1.74458e+09,2095.1,-0.0762505,6.34998e-19,-0,0.0762505,4348.74,-60000,0,60157.4,2095.1
step02_gravity_refstate-intrusion.xmf,0,1.52539e-05,-4.2148e-05,0,3.08671e-05,-1.42229e+09,-1.42625e+09,-1.42335e+09,2.129e+06,-0.0167643,0.263615,-0,0.264148,-1000,-50000,-0,50010,2.129e+06
step02_gravity_refstate-intrusion.xmf,1,6.85581e-06,-2.51629e-05,0,4.6709e-05,-1.43877e+09,-1.44097e+09,-1.43924e+09,3.22166e+06,-0.0185946,0.276648,-0,0.277272,-1000,-50499.8,-0,50509.7,3.22166e+06
step02_gravity_refstate-intrusion.xmf,2,1.64147e-05,-6.83716e-05,0,1.85236e-05,-1.42305e+09,-1.4289e+09,-1.42418e+09,1.27763e+06,-0.00865075,0.280235,-0,0.280369,-500,-50000,-0,50002.5,1.27763e+06
step02_gravity_refstate-intrusion.xmf,3,1.76449e-05,-7.519e-05,0,-8.08349e-07,-1.42315e+09,-1.42955e+09,-1.42437e+09,-55754.3,3.9513e-05,0.286321,0,0.286321,0,-50000,0,50000,55754.3
step02_gravity_refstate-intrusion.xmf,4,7.10928e-06,-1.99078e-05,0,5.60359e-05,-1.45475e+09,-1.45662e+09,-1.45524e+09,3.86497e+06,-0.0157744,0.287776,-0,0.288208,-1000,-50999.8,-0,51009.6,3.86497e+06
step02_gravity_refstate-intrusion.xmf,5,1.70642e-05,-6.96e-05,0,-2.09892e-05,-1.42302e+09,-1.429e+09,-1.4242e+09,-1.44769e+06,0.00865341,0.280224,0,0.280357,500,-50000,0,50002.5,1.44769e+06
step02_gravity_refstate-intrusion.xmf,6,6.25e-06,-1.27176e-05,0,6.33008e-05,-1.4708e+09,-1.47211e+09,-1.47124e+09,4.36606e+06,-0.0118401,0.295766,-0,0.296003,-1000,-51500.3,-0,51510,4.36606e+06
step02_gravity_refstate-intrusion.xmf,7,5.97328e-06,-2.7225e-05,0,-3.36905e-05,-1.42275e+09,-1.42504e+09,-1.42316e+09,-2.32374e+06,0.0167809,0.263587,0,0.264121,1000,-50000,0,50010,2.32374e+06
step02_gravity_refstate-intrusion.xmf,8,4.29973e-06,-6.20454e-06,0,6.80587e-05,-1.48698e+09,-1.48771e+09,-1.48728e+09,4.69422e+06,-0.00773326,0.300506,-0,0.300605,-1000,-52000.6,-0,52010.2,4.69422e+06
step02_gravity_refstate-intrusion.xmf,9,6.89065e-06,-2.51738e-05,0,-4.67281e-05,-1.43876e+09,-1.44097e+09,-1.43924e+09,-3.22298e+06,0.0185946,0.276646,0,0.27727,1000,-50499.8,0,50509.7,3.22298e+06
step02_gravity_refstate-intrusion.xmf,10,1.59949e-06,1.14642e-07,0,7.11072e-05,-1.50322e+09,-1.50332e+09,-1.50333e+09,4.90449e+06,-0.00369935,0.302034,-0,0.302057,-1000,-52500.2,-0,52509.7,4.90449e+06
step02_gravity_refstate-intrusion.xmf,11,7.51183e-06,-1.92109e-05,0,-5.64672e-05,-1.45469e+09,-1.45653e+09,-1.45521e+09,-3.89472e+06,0.0157755,0.287768,0,0.2882,1000,-50999.8,0,51009.6,3.89472e+06
step02_gravity_refstate-intrusion.xmf,12,-1.32335e-06,6.19418e-06,0,7.28935e-05,-1.51948e+09,-1.51896e+09,-1.51939e+09,5.02769e+06,0.000216055,0.300458,0,0.300459,-1000,-52999.4,-0,53008.9,5.02769e+06
step02_gravity_refstate-intrusion.xmf,13,6.42153e-06,-1.27112e-05,0,-6.33581e-05,-1.47079e+09,-1.47211e+09,-1.47123e+09,-4.37001e+06,0.0118469,0.295766,0,0.296003,1000,-51500.3,0,51510,4.37001e+06
step02_gravity_refstate-intrusion.xmf,14,-4.4629e-06,1.21471e-05,0,7.36424e-05,-1.53578e+09,-1.53464e+09,-1.53547e+09,5.07935e+06,0.00405831,0.295853,0,0.295881,-1000,-53499.2,-0,53508.6,5.07935e+06
step02_gravity_refstate-intrusion.xmf,15,-7.60029e-06,1.81855e-05,0,7.36954e-05,-1.5521e+09,-1.55032e+09,-1.55158e+09,5.083e+06,0.00788741,0.288244,0,0.288352,-1000,-53999.7,-0,54008.9,5.083e+06
step02_gravity_refstate-intrusion.xmf,16,4.24665e-06,-6.19497e-06,0,-6.80563e-05,-1.48699e+09,-1.48771e+09,-1.48728e+09,-4.69405e+06,0.00773321,0.300505,0,0.300604,1000,-52000.6,0,52010.2,4.69405e+06
step02_gravity_refstate-intrusion.xmf,17,-1.06569e-05,2.43208e-05,0,7.29624e-05,-1.56841e+09,-1.566e+09,-1.56768e+09,5.03245e+06,0.0117732,0.27761,0,0.27786,-1000,-54500.1,-0,54509.3,5.03245e+06
step02_gravity_refstate-intrusion.xmf,18,-1.37629e-05,3.05865e-05,0,7.11728e-05,-1.5847e+09,-1.58164e+09,-1.58375e+09,4.90901e+06,0.0157849,0.263897,0,0.264369,-1000,-54999.9,-0,55009,4.90901e+06
step02_gravity_refstate-intrusion.xmf,19,1.59021e-06,1.10103e-07,0,-7.10994e-05,-1.50322e+09,-1.50332e+09,-1.50333e+09,-4.90395e+06,0.00369879,0.302033,0,0.302056,1000,-52500.2,0,52509.7,4.90395e+06
step02_gravity_refstate-intrusion.xmf,20,-1.31613e-06,6.19516e-06,0,-7.28978e-05,-1.51948e+09,-1.51896e+09,-1.51939e+09,-5.02799e+06,-0.000216222,0.300458,-0,0.300458,1000,-52999.4,0,53008.9,5.02799e+06
step02_gravity_refstate-intrusion.xmf,21,-1.68773e-05,3.76908e-05,0,6.8404e-05,-1.60095e+09,-1.59718e+09,-1.59978e+09,4.71804e+06,0.0199816,0.24697,0,0.247777,-1000,-55499.2,-0,55508.2,4.71804e+06
step02_gravity_refstate-intrusion.xmf,22,-4.37522e-06,1.22027e-05,0,-7.3737e-05,-1.53577e+09,-1.53463e+09,-1.53547e+09,-5.08587e+06,-0.00405919,0.295854,-0,0.295881,1000,-53499.2,0,53508.6,5.08587e+06
step02_gravity_refstate-intrusion.xmf,23,-1.93171e-05,4.41225e-05,0,6.41467e-05,-1.61715e+09,-1.61278e+09,-1.61582e+09,4.4244e+06,0.0244006,0.226638,0,0.227948,-1000,-55998.8,-0,56007.7,4.4244e+06
step02_gravity_refstate-intrusion.xmf,24,-7.49454e-06,1.81992e-05,0,-7.37321e-05,-1.55209e+09,-1.55032e+09,-1.55157e+09,-5.08553e+06,-0.00788879,0.288243,-0,0.288351,1000,-53999.7,0,54008.9,5.08553e+06
step02_gravity_refstate-intrusion.xmf,25,-2.18001e-05,5.2624e-05,0,5.77901e-05,-1.63332e+09,-1.62818e+09,-1.63181e+09,3.98596e+06,0.0289873,0.202672,0,0.204734,-1000,-56499,-0,56507.8,3.98596e+06
step02_gravity_refstate-intrusion.xmf,26,-2.28219e-05,6.06715e-05,0,4.86866e-05,-1.64936e+09,-1.6436e+09,-1.64779e+09,3.35807e+06,0.0333615,0.174915,0,0.178068,-1000,-56999.5,-0,57008.3,3.35807e+06
step02_gravity_refstate-intrusion.xmf,27,-2.21917e-05,6.70713e-05,0,3.50483e-05,-1.66527e+09,-1.65911e+09,-1.66374e+09,2.41739e+06,0.0363713,0.143367,0,0.147909,-1000,-57499.6,-0,57508.3,2.41739e+06
step02_gravity_refstate-intrusion.xmf,28,-1.0625e-05,2.42911e-05,0,-7.29182e-05,-1.56841e+09,-1.566e+09,-1.56768e+09,-5.02939e+06,-0.0117736,0.277609,-0,0.277858,1000,-54500.1,0,54509.3,5.02939e+06
step02_gravity_refstate-intrusion.xmf,29,-3.00639e-05,9.01182e-05,0,1.66867e-05,-1.68151e+09,-1.67322e+09,-1.67943e+09,1.15093e+06,0.0333449,0.10852,0,0.113528,-1000,-58000,-0,58008.6,1.15093e+06
step02_gravity_refstate-intrusion.xmf,30,-1.37098e-05,3.05859e-05,0,-7.12206e-05,-1.5847e+09,-1.58164e+09,-1.58375e+09,-4.91231e+06,-0.0157829,0.263894,-0,0.264365,1000,-54999.9,0,55009,4.91231e+06
step02_gravity_refstate-intrusion.xmf,31,-3.40101e-05,0.000118903,0,1.3932e-05,-1.68095e+09,-1.6704e+09,-1.67861e+09,960936,0.0173384,0.114674,0,0.115978,-499.828,-58000,-0,58002.2,960936
step02_gravity_refstate-intrusion.xmf,32,-1.66788e-05,3.71847e-05,0,-6.8424e-05,-1.60094e+09,-1.59723e+09,-1.59979e+09,-4.71942e+06,-0.0199791,0.246972,-0,0.247779,1000,-55499.2,0,55508.2,4.71942e+06
step02_gravity_refstate-intrusion.xmf,33,-1.93075e-05,4.4143e-05,0,-6.41619e-05,-1.61715e+09,-1.61278e+09,-1.61582e+09,-4.42545e+06,-0.0244002,0.226641,-0,0.227951,1000,-55998.8,0,56007.7,4.42545e+06
step02_gravity_refstate-intrusion.xmf,34,-3.53391e-05,0.000126245,0,-1.01164e-06,-1.68084e+09,-1.6697e+09,-1.67841e+09,-69776,8.25967e-06,0.118157,0,0.118157,-1.02887e-10,-58000,-0,58000,69776
step02_gravity_refstate-intrusion.xmf,35,-2.13322e-05,5.17342e-05,0,-5.79987e-05,-1.6333e+09,-1.62826e+09,-1.63183e+09,-4.00035e+06,-0.0289839,0.202672,-0,0.204734,1000,-56499,0,56507.8,4.00035e+06
step02_gravity_refstate-intrusion.xmf,36,-3.44152e-05,0.000121885,0,-1.76488e-05,-1.68089e+09,-1.67011e+09,-1.67852e+09,-1.21729e+06,-0.0173167,0.114707,-0,0.116006,499.828,-58000,0,58002.2,1.21729e+06
step02_gravity_refstate-intrusion.xmf,37,-2.23266e-05,5.95471e-05,0,-4.88583e-05,-1.64935e+09,-1.6437e+09,-1.64781e+09,-3.36991e+06,-0.0333565,0.174921,-0,0.178073,1000,-56999.5,0,57008.3,3.36991e+06
step02_gravity_refstate-intrusion.xmf,38,-2.00455e-05,7.19362e-05,0,-2.07515e-05,-1.68109e+09,-1.67474e+09,-1.67971e+09,-1.43129e+06,-0.0333256,0.108547,-0,0.113547,1000,-58000,0,58008.6,1.43129e+06
step02_gravity_refstate-intrusion.xmf,39,-2.2252e-05,6.71911e-05,0,-3.53068e-05,-1.66527e+09,-1.6591e+09,-1.66374e+09,-2.43522e+06,-0.0363791,0.143359,-0,0.147902,1000,-57499.6,0,57508.3,2.43522e+06
step02_gravity_refstate-intrusion.xmf,40,1.80646e-05,-4.9453e-05,0,2.39058e-05,-1.43401e+09,-1.43867e+09,-1.43526e+09,1.64886e+06,-0.0140952,0.296952,-0,0.297286,-636.59,-50363.3,-0,50367.4,1.64886e+06
step02_gravity_refstate-intrusion.xmf,41,1.77319e-05,-4.05059e-05,0,2.69711e-05,-1.44669e+09,-1.4507e+09,-1.44791e+09,1.86028e+06,-0.0125033,0.316622,-0,0.316869,-598.146,-50763,-0,50766.5,1.86028e+06
step02_gravity_refstate-intrusion.xmf,42,2.3425e-05,-6.01706e-05,0,1.03046e-05,-1.43467e+09,-1.44044e+09,-1.43629e+09,710737,-0.00667007,0.310249,-0,0.31032,-280.8,-50389.7,-0,50390.5,710737
step02_gravity_refstate-intrusion.xmf,43,2.47607e-05,-5.87033e-05,0,-6.90642e-06,-1.43655e+09,-1.44231e+09,-1.43826e+09,-476357,0.00510665,0.315277,0,0.315319,212.705,-50453.3,0,50453.8,476357
step02_gravity_refstate-intrusion.xmf,44,1.19877e-05,-2.47892e-05,0,3.94222e-05,-1.4622e+09,-1.46474e+09,-1.46303e+09,2.71907e+06,-0.0111739,0.323739,-0,0.323932,-703.672,-51240.4,-0,51245.2,2.71907e+06
step02_gravity_refstate-intrusion.xmf,45,2.2948e-05,-4.85717e-05,0,7.29588e-06,-1.44627e+09,-1.45121e+09,-1.44786e+09,503220,-0.00374757,0.332392,-0,0.332413,-162.769,-50758.4,-0,50758.7,503220
step02_gravity_refstate-intrusion.xmf,46,1.952e-05,-4.9738e-05,0,-2.24955e-05,-1.43388e+09,-1.43865e+09,-1.43522e+09,-1.55159e+06,0.0140954,0.296973,0,0.297307,636.493,-50363.4,0,50367.5,1.55159e+06
step02_gravity_refstate-intrusion.xmf,47,1.09984e-05,-1.93939e-05,0,3.21262e-05,-1.47683e+09,-1.47892e+09,-1.47759e+09,2.21584e+06,-0.00634252,0.347851,-0,0.347909,-520.485,-51694.5,-0,51697.1,2.21584e+06
step02_gravity_refstate-intrusion.xmf,48,1.8203e-05,-3.53416e-05,0,1.49867e-05,-1.45976e+09,-1.46346e+09,-1.46102e+09,1.03368e+06,-0.00532756,0.34635,-0,0.346391,-289.596,-51173.8,-0,51174.6,1.03368e+06
step02_gravity_refstate-intrusion.xmf,49,2.04238e-05,-4.01655e-05,0,-7.43998e-06,-1.4541e+09,-1.45828e+09,-1.45551e+09,-513159,0.00339834,0.343069,0,0.343086,166.585,-51000.9,0,51001.2,513159
step02_gravity_refstate-intrusion.xmf,50,1.67992e-05,-3.85127e-05,0,-2.65069e-05,-1.44674e+09,-1.45056e+09,-1.4479e+09,-1.82826e+06,0.012468,0.316772,0,0.317018,596.265,-50763.9,0,50767.4,1.82826e+06
step02_gravity_refstate-intrusion.xmf,51,5.69856e-06,-6.9818e-06,0,3.96523e-05,-1.49523e+09,-1.4961e+09,-1.49562e+09,2.73494e+06,-0.00387021,0.350234,-0,0.350255,-580.523,-52258.9,-0,52262.1,2.73494e+06
step02_gravity_refstate-intrusion.xmf,52,1.44461e-05,-2.41332e-05,0,-4.92881e-06,-1.47294e+09,-1.4756e+09,-1.47394e+09,-339955,0.00125855,0.362768,0,0.36277,88.6637,-51580.5,0,51580.6,339955
step02_gravity_refstate-intrusion.xmf,53,1.35973e-05,-2.66525e-05,0,-3.122e-05,-1.46288e+09,-1.46565e+09,-1.46382e+09,-2.15334e+06,0.0093171,0.33485,0,0.33498,568.378,-51264.3,0,51267.5,2.15334e+06
step02_gravity_refstate-intrusion.xmf,54,8.84111e-06,-1.30632e-05,0,9.07984e-06,-1.48966e+09,-1.49117e+09,-1.49027e+09,626265,-0.00118841,0.371365,-0,0.371367,-136.384,-52090.6,-0,52090.8,626265
step02_gravity_refstate-intrusion.xmf,55,1.57536e-06,1.11862e-06,0,4.28742e-05,-1.51174e+09,-1.51177e+09,-1.51185e+09,2.95717e+06,-0.00131608,0.349747,-0,0.34975,-603.06,-52764.3,-0,52767.7,2.95717e+06
step02_gravity_refstate-intrusion.xmf,56,3.99761e-06,-3.18834e-06,0,1.41857e-05,-1.50601e+09,-1.50651e+09,-1.50629e+09,978435,-0.000815476,0.373679,-0,0.37368,-202.103,-52590.7,-0,52591,978435
step02_gravity_refstate-intrusion.xmf,57,9.45061e-06,-1.43516e-05,0,-1.77843e-05,-1.48706e+09,-1.4887e+09,-1.48771e+09,-1.22664e+06,0.00259558,0.366322,0,0.366331,274.592,-52010.9,0,52011.6,1.22664e+06
step02_gravity_refstate-intrusion.xmf,58,9.58844e-06,-1.61163e-05,0,-3.55026e-05,-1.47867e+09,-1.48045e+09,-1.47933e+09,-2.44872e+06,0.00652738,0.345397,0,0.345458,567.152,-51750.4,0,51753.6,2.44872e+06
step02_gravity_refstate-intrusion.xmf,59,5.37972e-06,-6.10104e-06,0,-1.47141e-05,-1.50118e+09,-1.50197e+09,-1.50155e+09,-1.01488e+06,0.00116643,0.372598,0,0.3726,215.611,-52442.7,0,52443.2,1.01488e+06
step02_gravity_refstate-intrusion.xmf,60,-2.08227e-06,8.04337e-06,0,4.27662e-05,-1.52748e+09,-1.52678e+09,-1.52734e+09,2.94972e+06,0.001086,0.348758,0,0.34876,-589.66,-53246.1,-0,53249.4,2.94972e+06
step02_gravity_refstate-intrusion.xmf,61,2.95941e-07,3.67827e-06,0,1.97738e-05,-1.51941e+09,-1.51918e+09,-1.51943e+09,1.36386e+06,-0.000105857,0.370864,-0,0.370864,-277.129,-52999.8,-0,53000.5,1.36386e+06
step02_gravity_refstate-intrusion.xmf,62,4.67474e-07,3.45915e-06,0,-1.08104e-05,-1.51906e+09,-1.51886e+09,-1.51909e+09,-745625,8.06872e-05,0.374942,0,0.374942,152.905,-52989.4,0,52989.6,745625
step02_gravity_refstate-intrusion.xmf,63,5.64629e-06,-7.55286e-06,0,-4.09922e-05,-1.49466e+09,-1.49557e+09,-1.49505e+09,-2.82736e+06,0.00410073,0.347986,0,0.34801,605.053,-52240.6,0,52244.1,2.82736e+06
step02_gravity_refstate-intrusion.xmf,64,1.78442e-06,3.87264e-07,0,-4.19409e-05,-1.51084e+09,-1.51094e+09,-1.51096e+09,-2.89279e+06,0.00144427,0.350634,0,0.350637,593.413,-52736.5,0,52739.8,2.89279e+06
step02_gravity_refstate-intrusion.xmf,65,-6.38519e-06,1.58213e-05,0,3.8615e-05,-1.54582e+09,-1.54428e+09,-1.54538e+09,2.66339e+06,0.00340208,0.347181,0,0.347198,-530.003,-53806.9,-0,53809.5,2.66339e+06
step02_gravity_refstate-intrusion.xmf,66,-3.03879e-06,9.89305e-06,0,1.04042e-05,-1.53278e+09,-1.53189e+09,-1.53257e+09,717612,0.000439005,0.372356,0,0.372357,-143.725,-53408.7,-0,53408.9,717612
step02_gravity_refstate-intrusion.xmf,67,-2.25642e-06,8.11074e-06,0,-4.32119e-05,-1.52754e+09,-1.52682e+09,-1.52738e+09,-2.98046e+06,-0.00110285,0.34815,-0,0.348151,596.267,-53247.4,0,53250.7,2.98046e+06
step02_gravity_refstate-intrusion.xmf,68,-9.62558e-06,2.18706e-05,0,5.24663e-05,-1.56029e+09,-1.55811e+09,-1.55962e+09,3.61876e+06,0.00720002,0.320393,0,0.320474,-720.738,-54249.9,-0,54254.7,3.61876e+06
step02_gravity_refstate-intrusion.xmf,69,-3.75971e-06,1.10677e-05,0,-1.94258e-05,-1.53515e+09,-1.53412e+09,-1.53489e+09,-1.33986e+06,-0.000988232,0.367695,-0,0.367697,267.673,-53480.7,0,53481.3,1.33986e+06
step02_gravity_refstate-intrusion.xmf,70,-1.31135e-05,2.83085e-05,0,4.80357e-05,-1.57509e+09,-1.57224e+09,-1.57419e+09,3.31317e+06,0.0092582,0.314203,0,0.314339,-671.934,-54702.8,-0,54707,3.31317e+06
step02_gravity_refstate-intrusion.xmf,71,-1.07422e-05,2.36427e-05,0,2.42102e-05,-1.56285e+09,-1.56048e+09,-1.56211e+09,1.66985e+06,0.00363121,0.349795,0,0.349814,-336.33,-54327.4,-0,54328.4,1.66985e+06
step02_gravity_refstate-intrusion.xmf,72,-7.43358e-06,1.76287e-05,0,-6.00418e-06,-1.54953e+09,-1.5478e+09,-1.54902e+09,-414127,-0.000607014,0.366375,-0,0.366375,82.1887,-53920.1,0,53920.2,414127
step02_gravity_refstate-intrusion.xmf,73,-6.06738e-06,1.51194e-05,0,-4.1413e-05,-1.54395e+09,-1.54249e+09,-1.54353e+09,-2.85638e+06,-0.00337422,0.344946,-0,0.344963,566.976,-53749.4,0,53752.4,2.85638e+06
step02_gravity_refstate-intrusion.xmf,74,-1.79135e-05,3.73954e-05,0,3.52758e-05,-1.59144e+09,-1.58762e+09,-1.5902e+09,2.43308e+06,0.00947231,0.311877,0,0.312021,-514.683,-55201.8,-0,55204.2,2.43308e+06
step02_gravity_refstate-intrusion.xmf,75,-1.46037e-05,3.09023e-05,0,1.89469e-05,-1.57718e+09,-1.57404e+09,-1.57617e+09,1.30683e+06,0.00391815,0.341058,0,0.34108,-267.375,-54765.3,-0,54766,1.30683e+06
step02_gravity_refstate-intrusion.xmf,76,-1.24088e-05,2.65431e-05,0,-8.3237e-06,-1.56853e+09,-1.56584e+09,-1.56767e+09,-574112,-0.0014172,0.353064,-0,0.353066,114.996,-54500.4,0,54500.5,574112
step02_gravity_refstate-intrusion.xmf,77,-9.86539e-06,2.20122e-05,0,-4.03794e-05,-1.55988e+09,-1.55768e+09,-1.5592e+09,-2.78509e+06,-0.00552863,0.336914,-0,0.33696,555.258,-54236.6,0,54239.5,2.78509e+06
step02_gravity_refstate-intrusion.xmf,78,-2.2193e-05,4.68771e-05,0,3.75568e-05,-1.60944e+09,-1.60468e+09,-1.60791e+09,2.59041e+06,0.01378,0.28341,0,0.283745,-583.835,-55754.2,-0,55757.3,2.59041e+06
step02_gravity_refstate-intrusion.xmf,79,-1.77786e-05,3.68126e-05,0,-5.5495e-06,-1.58763e+09,-1.58386e+09,-1.5864e+09,-382766,-0.00144932,0.335215,-0,0.335218,82.3661,-55084,0,55084.1,382766
step02_gravity_refstate-intrusion.xmf,80,-2.62849e-05,5.60312e-05,0,3.45546e-05,-1.62517e+09,-1.61949e+09,-1.62336e+09,2.38334e+06,0.017118,0.257612,0,0.25818,-597.896,-56236.7,-0,56239.8,2.38334e+06
step02_gravity_refstate-intrusion.xmf,81,-2.26952e-05,4.63771e-05,0,8.89048e-06,-1.60417e+09,-1.59941e+09,-1.60261e+09,613204,0.0031032,0.313567,0,0.313582,-137.361,-55589.4,-0,55589.6,613204
step02_gravity_refstate-intrusion.xmf,82,-1.40704e-05,2.9762e-05,0,-3.9456e-05,-1.57703e+09,-1.574e+09,-1.57606e+09,-2.7214e+06,-0.00797113,0.323512,-0,0.32361,553.316,-54761,0,54763.8,2.7214e+06
step02_gravity_refstate-intrusion.xmf,83,-2.65536e-05,5.44541e-05,0,1.58534e-05,-1.61764e+09,-1.61205e+09,-1.61581e+09,1.09346e+06,0.0071263,0.289353,0,0.289441,-265.274,-56001.4,-0,56002.1,1.09346e+06
step02_gravity_refstate-intrusion.xmf,84,-2.16164e-05,4.43872e-05,0,-1.81444e-05,-1.60161e+09,-1.59706e+09,-1.60012e+09,-1.25148e+06,-0.00593746,0.313091,-0,0.313147,274.062,-55511.8,0,55512.4,1.25148e+06
step02_gravity_refstate-intrusion.xmf,85,-3.13156e-05,7.05168e-05,0,2.84808e-05,-1.64125e+09,-1.63422e+09,-1.63909e+09,1.96441e+06,0.0200638,0.227658,0,0.22854,-585.884,-56732.2,-0,56735.3,1.96441e+06
step02_gravity_refstate-intrusion.xmf,86,-3.54455e-05,8.60781e-05,0,2.20691e-05,-1.65769e+09,-1.64931e+09,-1.65524e+09,1.52218e+06,0.0235987,0.188072,0,0.189547,-600.238,-57243.1,-0,57246.2,1.52218e+06
step02_gravity_refstate-intrusion.xmf,87,-3.20323e-05,6.56314e-05,0,9.93719e-06,-1.63147e+09,-1.62473e+09,-1.62926e+09,685399,0.00625432,0.266022,0,0.266096,-195.948,-56422.8,-0,56423.2,685399
step02_gravity_refstate-intrusion.xmf,88,-2.73645e-05,5.50264e-05,0,-1.02989e-05,-1.61791e+09,-1.61222e+09,-1.61602e+09,-710346,-0.00445593,0.291862,-0,0.291896,164.263,-56007.8,0,56008,710346
step02_gravity_refstate-intrusion.xmf,89,-1.79631e-05,3.79173e-05,0,-3.8795e-05,-1.59297e+09,-1.58911e+09,-1.59173e+09,-2.67581e+06,-0.0106476,0.305905,-0,0.30609,567.431,-55249.5,0,55252.4,2.67581e+06
step02_gravity_refstate-intrusion.xmf,90,-3.58176e-05,9.78952e-05,0,1.76732e-05,-1.67007e+09,-1.66084e+09,-1.6676e+09,1.21897e+06,0.0256119,0.151016,0,0.153172,-636.534,-57636.5,-0,57640,1.21897e+06
step02_gravity_refstate-intrusion.xmf,91,-2.20066e-05,4.66374e-05,0,-3.87697e-05,-1.60934e+09,-1.6046e+09,-1.60782e+09,-2.67407e+06,-0.0141733,0.282055,-0,0.28241,601.975,-55751.4,0,55754.6,2.67407e+06
step02_gravity_refstate-intrusion.xmf,92,-3.99372e-05,8.75346e-05,0,5.42766e-06,-1.65021e+09,-1.64142e+09,-1.64746e+09,374363,0.00519829,0.223619,0,0.223679,-132.961,-56999.5,-0,56999.6,374363
step02_gravity_refstate-intrusion.xmf,93,-4.21386e-05,0.000108899,0,8.62992e-06,-1.66824e+09,-1.65782e+09,-1.66533e+09,595233,0.0112707,0.166628,0,0.167008,-267.111,-57571.3,-0,57572,595233
step02_gravity_refstate-intrusion.xmf,94,-3.38148e-05,7.03231e-05,0,-1.17786e-05,-1.6365e+09,-1.62932e+09,-1.63417e+09,-812406,-0.00777307,0.254609,-0,0.254727,229.829,-56577.6,0,56578.1,812406
step02_gravity_refstate-intrusion.xmf,95,-2.68021e-05,5.65418e-05,0,-3.52739e-05,-1.62606e+09,-1.62031e+09,-1.62421e+09,-2.43295e+06,-0.017439,0.25569,-0,0.256284,603.337,-56263.1,0,56266.3,2.43295e+06
step02_gravity_refstate-intrusion.xmf,96,-4.28871e-05,0.000107695,0,-6.72193e-06,-1.66607e+09,-1.65568e+09,-1.66311e+09,-463632,-0.00983072,0.174601,-0,0.174878,231.667,-57500.7,0,57501.1,463632
step02_gravity_refstate-intrusion.xmf,97,-3.81197e-05,8.51843e-05,0,-1.28502e-05,-1.65052e+09,-1.64202e+09,-1.64789e+09,-886320,-0.0122212,0.218745,-0,0.219086,316.359,-57012.4,0,57013.2,886320
step02_gravity_refstate-intrusion.xmf,98,-3.08587e-05,6.81944e-05,0,-3.07897e-05,-1.64218e+09,-1.63535e+09,-1.64005e+09,-2.12366e+06,-0.0213919,0.223202,-0,0.224225,623.926,-56760.2,0,56763.6,2.12366e+06
step02_gravity_refstate-intrusion.xmf,99,-3.40603e-05,8.33944e-05,0,-2.31976e-05,-1.65729e+09,-1.64919e+09,-1.65495e+09,-1.60001e+06,-0.0247031,0.187254,-0,0.188876,634.022,-57232.6,0,57236.1,1.60001e+06
step02_gravity_refstate-intrusion.xmf,100,-3.78647e-05,0.000102425,0,-1.67635e-05,-1.67036e+09,-1.66068e+09,-1.66775e+09,-1.15623e+06,-0.0265492,0.14944,-0,0.15178,662.605,-57643.6,0,57647.4,1.15623e+06
step02_gravity_refstate-crust.xmf,0,-1.27475e-08,4.27608e-06,0,-5.01044e-09,-1.09854e+09,-1.09825e+09,-1.09854e+09,-343.716,-3.79668e-20,0.04229,-0,0.04229,-40000,-40000,-0,56568.5,343.716
step02_gravity_refstate-crust.xmf,1,-3.55214e-08,4.30236e-06,0,-3.71697e-08,-1.09854e+09,-1.09824e+09,-1.09854e+09,-2549.84,-5.67874e-05,0.042469,-0,0.042469,-37557.3,-40000,-0,54868.5,2549.84
step02_gravity_refstate-crust.xmf,2,-9.48264e-08,4.36186e-06,0,-5.77336e-08,-1.09855e+09,-1.09824e+09,-1.09854e+09,-3960.52,-0.000208228,0.0429884,-0,0.0429889,-35229,-40000,-0,53301.8,3960.52
step02_gravity_refstate-crust.xmf,3,-1.90167e-07,4.45485e-06,0,-6.40915e-08,-1.09855e+09,-1.09823e+09,-1.09854e+09,-4396.67,-0.000522091,0.0438429,-0,0.043846,-33009.3,-40000,-0,51861.5,4396.67
step02_gravity_refstate-crust.xmf,4,-3.1493e-07,4.57392e-06,0,-4.77411e-08,-1.09856e+09,-1.09823e+09,-1.09854e+09,-3275.04,-0.00105366,0.0450479,-0,0.0450603,-30892.4,-40000,-0,50540.5,3275.04
step02_gravity_refstate-crust.xmf,5,-4.64675e-07,4.71301e-06,0,-1.53283e-09,-1.09857e+09,-1.09822e+09,-1.09854e+09,-105.152,-0.0018395,0.046633,-0,0.0466693,-28873.1,-40000,-0,49332.1,105.152
step02_gravity_refstate-crust.xmf,6,-6.37459e-07,4.86553e-06,0,8.03762e-08,-1.09858e+09,-1.09821e+09,-1.09854e+09,5513.81,-0.00289868,0.0486361,-0,0.0487224,-26946.1,-40000,-0,48229.6,5513.81
step02_gravity_refstate-crust.xmf,7,-8.25014e-07,5.02308e-06,0,2.04103e-07,-1.0986e+09,-1.0982e+09,-1.09854e+09,14001.5,-0.00424083,0.0511027,-0,0.0512784,-25106.5,-40000,-0,47226.4,14001.5
step02_gravity_refstate-crust.xmf,8,-1.02003e-06,5.1739e-06,0,3.75999e-07,-1.09861e+09,-1.09819e+09,-1.09854e+09,25793.5,-0.00585907,0.0540792,-0,0.0543956,-23349.5,-40000,-0,46316.3,25793.5
step02_gravity_refstate-crust.xmf,9,-1.21408e-06,5.30771e-06,0,6.01137e-07,-1.09863e+09,-1.09818e+09,-1.09855e+09,41238,-0.00773263,0.0576115,-0,0.0581281,-21670.5,-40000,-0,45493,41238
step02_gravity_refstate-crust.xmf,10,-1.39609e-06,5.41127e-06,0,8.82233e-07,-1.09864e+09,-1.09818e+09,-1.09855e+09,60521.2,-0.00982512,0.0617408,-0,0.0625177,-20065.1,-40000,-0,44750.5,60521.2
step02_gravity_refstate-crust.xmf,11,-1.55103e-06,5.46739e-06,0,1.22216e-06,-1.09866e+09,-1.09818e+09,-1.09855e+09,83839.9,-0.0120868,0.0665002,-0,0.0675898,-18528.8,-40000,-0,44083.1,83839.9
step02_gravity_refstate-crust.xmf,12,-1.66456e-06,5.45903e-06,0,1.61816e-06,-1.09867e+09,-1.09818e+09,-1.09856e+09,111006,-0.0144504,0.071911,-0,0.0733485,-17057.5,-40000,-0,43485.2,111006
step02_gravity_refstate-crust.xmf,13,-1.71832e-06,5.36657e-06,0,2.06521e-06,-1.09868e+09,-1.0982e+09,-1.09856e+09,141673,-0.0168349,0.0779773,-0,0.0797739,-15647.1,-40000,-0,42951.5,141673
step02_gravity_refstate-crust.xmf,14,-1.69362e-06,5.17026e-06,0,2.55455e-06,-1.09869e+09,-1.09822e+09,-1.09857e+09,175242,-0.0191451,0.0846825,-0,0.0868197,-14293.4,-40000,-0,42477.1,175242
step02_gravity_refstate-crust.xmf,15,-1.57958e-06,4.85581e-06,0,3.06109e-06,-1.09869e+09,-1.09825e+09,-1.09858e+09,209991,-0.0212693,0.0919876,-0,0.0944145,-12992.6,-40000,-0,42057.2,209991
step02_gravity_refstate-crust.xmf,16,-1.34385e-06,4.40086e-06,0,3.5716e-06,-1.09868e+09,-1.09829e+09,-1.09859e+09,245012,-0.0230991,0.0998211,-0,0.102459,-11740.6,-40000,-0,41687.4,245012
step02_gravity_refstate-crust.xmf,17,-9.84943e-07,3.79908e-06,0,4.05298e-06,-1.09867e+09,-1.09834e+09,-1.0986e+09,278034,-0.0245074,0.108081,-0,0.110825,-10533.4,-40000,-0,41363.7,278034
step02_gravity_refstate-crust.xmf,18,-4.9436e-07,3.04654e-06,0,4.47063e-06,-1.09865e+09,-1.0984e+09,-1.09861e+09,306685,-0.0253762,0.11663,-0,0.119359,-9366.97,-40000,-0,41082.1,306685
step02_gravity_refstate-crust.xmf,19,1.20894e-07,2.15537e-06,0,4.77798e-06,-1.09861e+09,-1.09848e+09,-1.09862e+09,327770,-0.0255906,0.125297,-0,0.127884,-8237.32,-40000,-0,40839.4,327770
step02_gravity_refstate-crust.xmf,20,8.57589e-07,1.14063e-06,0,4.9373e-06,-1.09858e+09,-1.09856e+09,-1.09864e+09,338699,-0.0250605,0.133875,-0,0.136201,-7140.25,-40000,-0,40632.3,338699
step02_gravity_refstate-crust.xmf,21,1.67976e-06,4.18495e-08,0,4.90402e-06,-1.09853e+09,-1.09864e+09,-1.09865e+09,336416,-0.0237124,0.142126,-0,0.14409,-6071.51,-40000,-0,40458.2,336416
step02_gravity_refstate-crust.xmf,22,2.54358e-06,-1.07855e-06,0,4.63978e-06,-1.09848e+09,-1.09873e+09,-1.09866e+09,318289,-0.021513,0.149786,-0,0.151323,-5026.7,-40000,-0,40314.6,318289
step02_gravity_refstate-crust.xmf,23,3.39427e-06,-2.15188e-06,0,4.12743e-06,-1.09843e+09,-1.09881e+09,-1.09867e+09,283142,-0.0184752,0.156581,-0,0.157667,-4001.3,-40000,-0,40199.6,283142
step02_gravity_refstate-crust.xmf,24,4.16365e-06,-3.10109e-06,0,3.36777e-06,-1.09839e+09,-1.09889e+09,-1.09867e+09,231029,-0.0146594,0.162236,-0,0.162897,-2990.68,-40000,-0,40111.6,231029
step02_gravity_refstate-crust.xmf,25,4.77915e-06,-3.85914e-06,0,2.38422e-06,-1.09835e+09,-1.09895e+09,-1.09868e+09,163558,-0.0101843,0.1665,-0,0.166811,-1990.05,-40000,-0,40049.5,163558
step02_gravity_refstate-crust.xmf,26,5.18386e-06,-4.34684e-06,0,1.23479e-06,-1.09833e+09,-1.09898e+09,-1.09868e+09,84706.7,-0.00522684,0.169159,-0,0.169239,-994.552,-40000,-0,40012.4,84706.7
step02_gravity_refstate-crust.xmf,27,-1.27554e-08,4.2762e-06,0,4.95275e-09,-1.09854e+09,-1.09825e+09,-1.09854e+09,339.759,1.15054e-20,0.04229,0,0.04229,40000,-40000,0,56568.5,339.759
step02_gravity_refstate-crust.xmf,28,-3.53333e-08,4.3018e-06,0,3.67224e-08,-1.09854e+09,-1.09824e+09,-1.09854e+09,2519.15,5.7067e-05,0.042469,0,0.042469,37557.3,-40000,0,54868.5,2519.15
step02_gravity_refstate-crust.xmf,29,5.32746e-06,-4.5102e-06,0,-1.3812e-08,-1.09832e+09,-1.09899e+09,-1.09869e+09,-947.505,-3.82421e-07,0.170065,-0,0.170065,0,-40000,0,40000,947.505
step02_gravity_refstate-crust.xmf,30,-9.51809e-08,4.36229e-06,0,5.80498e-08,-1.09855e+09,-1.09824e+09,-1.09854e+09,3982.21,0.000207928,0.0429885,0,0.042989,35229,-40000,0,53301.8,3982.21
step02_gravity_refstate-crust.xmf,31,5.18063e-06,-4.32269e-06,0,-1.26337e-06,-1.09833e+09,-1.09898e+09,-1.09868e+09,-86667,0.00522682,0.169159,0,0.16924,994.552,-40000,0,40012.4,86667
step02_gravity_refstate-crust.xmf,32,-1.90066e-07,4.45468e-06,0,6.39867e-08,-1.09855e+09,-1.09823e+09,-1.09854e+09,4389.49,0.000522183,0.0438429,0,0.043846,33009.3,-40000,0,51861.5,4389.49
step02_gravity_refstate-crust.xmf,33,-3.15118e-07,4.57392e-06,0,4.77216e-08,-1.09856e+09,-1.09823e+09,-1.09854e+09,3273.7,0.00105351,0.045048,0,0.0450603,30892.4,-40000,0,50540.5,3273.7
step02_gravity_refstate-crust.xmf,34,4.77955e-06,-3.81937e-06,0,-2.40803e-06,-1.09835e+09,-1.09894e+09,-1.09868e+09,-165191,0.0101845,0.1665,0,0.166811,1990.05,-40000,0,40049.5,165191
step02_gravity_refstate-crust.xmf,35,-4.64699e-07,4.71262e-06,0,1.1676e-09,-1.09857e+09,-1.09822e+09,-1.09854e+09,80.0971,0.00183951,0.0466331,0,0.0466694,28873.1,-40000,0,49332.1,80.0971
step02_gravity_refstate-crust.xmf,36,-6.37656e-07,4.86525e-06,0,-8.06171e-08,-1.09858e+09,-1.09821e+09,-1.09854e+09,-5530.33,0.00289858,0.0486362,0,0.0487225,26946.1,-40000,0,48229.6,5530.33
step02_gravity_refstate-crust.xmf,37,4.15376e-06,-3.04477e-06,0,-3.38386e-06,-1.09839e+09,-1.09888e+09,-1.09867e+09,-232133,0.01466,0.162236,0,0.162897,2990.68,-40000,0,40111.6,232133
step02_gravity_refstate-crust.xmf,38,-8.25238e-07,5.02291e-06,0,-2.04188e-07,-1.0986e+09,-1.0982e+09,-1.09854e+09,-14007.3,0.00424072,0.0511027,0,0.0512784,25106.5,-40000,0,47226.4,14007.3
step02_gravity_refstate-crust.xmf,39,3.3808e-06,-2.07752e-06,0,-4.13297e-06,-1.09843e+09,-1.09881e+09,-1.09866e+09,-283522,0.0184754,0.15658,0,0.157666,4001.3,-40000,0,40199.6,283522
step02_gravity_refstate-crust.xmf,40,-1.02077e-06,5.17548e-06,0,-3.75612e-07,-1.09861e+09,-1.09819e+09,-1.09854e+09,-25767,0.00585887,0.0540791,0,0.0543956,23349.5,-40000,0,46316.3,25767
step02_gravity_refstate-crust.xmf,41,2.52852e-06,-9.91455e-07,0,-4.63287e-06,-1.09848e+09,-1.09872e+09,-1.09865e+09,-317815,0.0215134,0.149784,0,0.151321,5026.7,-40000,0,40314.6,317815
step02_gravity_refstate-crust.xmf,42,-1.2143e-06,5.30939e-06,0,-6.0131e-07,-1.09863e+09,-1.09818e+09,-1.09855e+09,-41249.8,0.0077326,0.0576115,0,0.0581281,21670.5,-40000,0,45493,41249.8
step02_gravity_refstate-crust.xmf,43,-1.39608e-06,5.41253e-06,0,-8.82123e-07,-1.09864e+09,-1.09818e+09,-1.09855e+09,-60513.6,0.00982506,0.0617407,0,0.0625176,20065.1,-40000,0,44750.5,60513.6
step02_gravity_refstate-crust.xmf,44,-1.55111e-06,5.46877e-06,0,-1.22186e-06,-1.09866e+09,-1.09818e+09,-1.09855e+09,-83819.7,0.0120868,0.0665001,0,0.0675896,18528.8,-40000,0,44083.1,83819.7
step02_gravity_refstate-crust.xmf,45,-1.66173e-06,5.44185e-06,0,-1.6138e-06,-1.09867e+09,-1.09819e+09,-1.09856e+09,-110707,0.0144503,0.0719109,0,0.0733484,17057.5,-40000,0,43485.2,110707
step02_gravity_refstate-crust.xmf,46,-1.7182e-06,5.36821e-06,0,-2.06463e-06,-1.09868e+09,-1.0982e+09,-1.09856e+09,-141633,0.0168348,0.0779772,0,0.0797738,15647.1,-40000,0,42951.5,141633
step02_gravity_refstate-crust.xmf,47,-1.69334e-06,5.1701e-06,0,-2.55423e-06,-1.09869e+09,-1.09822e+09,-1.09857e+09,-175220,0.0191451,0.0846825,0,0.0868197,14293.4,-40000,0,42477.1,175220
step02_gravity_refstate-crust.xmf,48,-1.57949e-06,4.85564e-06,0,-3.06144e-06,-1.09869e+09,-1.09825e+09,-1.09858e+09,-210015,0.0212694,0.0919876,0,0.0944145,12992.6,-40000,0,42057.2,210015
step02_gravity_refstate-crust.xmf,49,1.66659e-06,1.13647e-07,0,-4.8853e-06,-1.09853e+09,-1.09864e+09,-1.09864e+09,-335131,0.0237121,0.142125,0,0.144089,6071.51,-40000,0,40458.2,335131
step02_gravity_refstate-crust.xmf,50,-1.34414e-06,4.40151e-06,0,-3.57293e-06,-1.09868e+09,-1.09829e+09,-1.09859e+09,-245103,0.023099,0.0998211,0,0.102459,11740.6,-40000,0,41687.4,245103
step02_gravity_refstate-crust.xmf,51,8.45201e-07,1.1946e-06,0,-4.91492e-06,-1.09858e+09,-1.09855e+09,-1.09863e+09,-337164,0.0250598,0.133875,0,0.1362,7140.25,-40000,0,40632.3,337164
step02_gravity_refstate-crust.xmf,52,-9.85256e-07,3.80293e-06,0,-4.05094e-06,-1.09867e+09,-1.09834e+09,-1.0986e+09,-277894,0.0245071,0.108081,0,0.110824,10533.4,-40000,0,41363.7,277894
step02_gravity_refstate-crust.xmf,53,1.13386e-07,2.19839e-06,0,-4.75616e-06,-1.09861e+09,-1.09847e+09,-1.09862e+09,-326272,0.0255909,0.125297,0,0.127884,8237.32,-40000,0,40839.4,326272
step02_gravity_refstate-crust.xmf,54,-5.0554e-07,3.08018e-06,0,-4.44924e-06,-1.09865e+09,-1.0984e+09,-1.09861e+09,-305218,0.0253765,0.11663,0,0.119359,9366.97,-40000,0,41082.1,305218
step02_gravity_refstate-crust.xmf,55,-6.68111e-07,4.57138e-07,0,2.57905e-08,-6.32779e+07,-6.32007e+07,-6.32321e+07,1769.23,-0.00155086,0.134939,-0,0.134948,-37697.7,-2301.7,-0,37767.9,1769.23
step02_gravity_refstate-crust.xmf,56,-8.14705e-07,3.06708e-07,0,-3.65586e-09,-77494.9,-565.945,-21606.1,-250.792,-3.21225e-19,0.13561,-0,0.13561,-40000,0,-0,40000,250.792
step02_gravity_refstate-crust.xmf,57,-8.00857e-07,3.03322e-07,0,-3.34706e-09,-76099.9,-353.275,-21161.1,-229.608,-0.00294582,0.136108,-0,0.136139,-36401.3,0,-0,36401.3,229.608
step02_gravity_refstate-crust.xmf,58,-6.1387e-07,5.44832e-07,0,-1.91342e-09,-9.53621e+07,-9.52826e+07,-9.532e+07,-131.26,-3.01528e-19,0.134132,-0,0.134132,-40000,-3470.11,-0,40150.2,131.26
step02_gravity_refstate-crust.xmf,59,-5.92498e-07,4.85697e-07,0,8.11085e-08,-7.94549e+07,-7.9381e+07,-7.94143e+07,5564.04,-0.00322699,0.135497,-0,0.135535,-34881.7,-2890.99,-0,35001.3,5564.04
step02_gravity_refstate-crust.xmf,60,-5.41345e-07,6.76546e-07,0,6.84149e-08,-1.39975e+08,-1.39892e+08,-1.39938e+08,4693.26,-0.00149338,0.133443,-0,0.133451,-37285.5,-5094.79,-0,37632,4693.26
step02_gravity_refstate-crust.xmf,61,-7.17861e-07,2.70536e-07,0,-2.74481e-10,-68270.9,-466.86,-19025.6,-18.8294,-0.00561211,0.137512,-0,0.137627,-32904.6,0,-0,32904.6,18.8294
step02_gravity_refstate-crust.xmf,62,-5.03605e-07,8.38412e-07,0,-1.20206e-09,-1.87204e+08,-1.87112e+08,-1.8717e+08,-82.4615,-2.60059e-19,0.131821,-0,0.131821,-40000,-6814.61,-0,40576.3,82.4615
step02_gravity_refstate-crust.xmf,63,-5.06108e-07,4.8075e-07,0,1.41525e-07,-8.80452e+07,-8.79775e+07,-8.80105e+07,9708.59,-0.0051113,0.137288,-0,0.137383,-31298.7,-3204.07,-0,31462.3,9708.59
step02_gravity_refstate-crust.xmf,64,-4.64617e-07,7.93287e-07,0,1.88344e-07,-1.80996e+08,-1.8091e+08,-1.80964e+08,12920.4,-0.00297172,0.133541,-0,0.133574,-33999.5,-6588.7,-0,34632,12920.4
step02_gravity_refstate-crust.xmf,65,-4.61603e-07,9.95431e-07,0,1.02733e-07,-2.32288e+08,-2.32188e+08,-2.32256e+08,7047.48,-0.00131067,0.130646,-0,0.130653,-37224.2,-8456.34,-0,38172.6,7047.48
step02_gravity_refstate-crust.xmf,66,-4.0446e-07,7.65174e-07,0,2.75016e-07,-1.79899e+08,-1.79818e+08,-1.79871e+08,18866.1,-0.00436438,0.135567,-0,0.135637,-30808.6,-6548.93,-0,31497,18866.1
step02_gravity_refstate-crust.xmf,67,-3.96703e-07,1.05197e-06,0,3.03457e-07,-2.55167e+08,-2.55068e+08,-2.5514e+08,20817.1,-0.00351984,0.13221,-0,0.132257,-32036.9,-9289.64,-0,33356.6,20817.1
step02_gravity_refstate-crust.xmf,68,-5.92734e-07,2.24437e-07,0,2.34861e-09,-56326,-268.016,-15664.4,161.115,-0.0078472,0.139675,-0,0.139895,-29500.3,0,-0,29500.3,161.115
step02_gravity_refstate-crust.xmf,69,-4.56852e-07,1.16702e-06,0,-8.98524e-10,-2.7583e+08,-2.75718e+08,-2.75798e+08,-61.6388,-2.35029e-19,0.128585,-0,0.128585,-40000,-10041.8,-0,41241.2,61.6388
step02_gravity_refstate-crust.xmf,70,-4.28986e-07,1.19977e-06,0,2.22942e-07,-2.88172e+08,-2.8806e+08,-2.88142e+08,15293.8,-0.0023476,0.129295,-0,0.129316,-34741.3,-10491.3,-0,36290.8,15293.8
step02_gravity_refstate-crust.xmf,71,-3.40918e-07,9.93062e-07,0,3.94014e-07,-2.48206e+08,-2.48114e+08,-2.48182e+08,27029.3,-0.00458316,0.134686,-0,0.134764,-29210,-9036.33,-0,30575.8,27029.3
step02_gravity_refstate-crust.xmf,72,-3.99512e-07,5.72247e-07,0,2.44822e-07,-1.2841e+08,-1.28343e+08,-1.28383e+08,16794.8,-0.00548749,0.138029,-0,0.138138,-29268.6,-4674.16,-0,29639.4,16794.8
step02_gravity_refstate-crust.xmf,73,-4.10627e-07,3.83453e-07,0,1.57071e-07,-7.0598e+07,-7.05435e+07,-7.05698e+07,10775.1,-0.00699167,0.140234,-0,0.140409,-27856.4,-2569.12,-0,27974.6,10775.1
step02_gravity_refstate-crust.xmf,74,-4.42712e-07,1.34593e-06,0,1.21327e-07,-3.21554e+08,-3.21432e+08,-3.21524e+08,8323.02,-0.00120441,0.126819,-0,0.126824,-37318.8,-11706.8,-0,39111.9,8323.02
step02_gravity_refstate-crust.xmf,75,-4.01274e-07,1.29347e-06,0,3.16998e-07,-3.15417e+08,-3.15301e+08,-3.1539e+08,21746.1,-0.00313089,0.129129,-0,0.129167,-32809.6,-11483.5,-0,34761.2,21746.1
step02_gravity_refstate-crust.xmf,76,-3.63811e-07,1.29057e-06,0,4.20751e-07,-3.20943e+08,-3.2083e+08,-3.20918e+08,28863.5,-0.00407158,0.130687,-0,0.130751,-30354.9,-11684.8,-0,32526.2,28863.5
step02_gravity_refstate-crust.xmf,77,-3.20888e-07,7.35368e-07,0,3.55727e-07,-1.83487e+08,-1.83414e+08,-1.83465e+08,24402.9,-0.00542435,0.137998,-0,0.138104,-27807.8,-6679.87,-0,28598.8,24402.9
step02_gravity_refstate-crust.xmf,78,-4.25445e-07,1.61942e-07,0,2.16847e-09,-40392.9,-98.0662,-11207.3,148.757,-0.00954662,0.142423,-0,0.142743,-26179,0,-0,26179,148.757
step02_gravity_refstate-crust.xmf,79,-4.51798e-07,1.51597e-06,0,-7.57274e-10,-3.61459e+08,-3.61324e+08,-3.61428e+08,-51.949,-2.30889e-19,0.124402,-0,0.124402,-40000,-13159.8,-0,42109.2,51.949
step02_gravity_refstate-crust.xmf,80,-4.25584e-07,1.52593e-06,0,2.63527e-07,-3.68305e+08,-3.68171e+08,-3.68276e+08,18077.9,-0.00242114,0.125408,-0,0.125431,-34561.4,-13409.2,-0,37071.5,18077.9
step02_gravity_refstate-crust.xmf,81,-4.02347e-07,1.50375e-06,0,3.72184e-07,-3.67899e+08,-3.67768e+08,-3.67871e+08,25531.9,-0.0033807,0.126831,-0,0.126876,-32254.8,-13394.4,-0,34925.4,25531.9
step02_gravity_refstate-crust.xmf,82,-2.99029e-07,1.20086e-06,0,5.17834e-07,-3.09862e+08,-3.09759e+08,-3.09841e+08,35523.4,-0.00503177,0.133907,-0,0.134002,-27459.2,-11281.5,-0,29686.4,35523.4
step02_gravity_refstate-crust.xmf,83,-2.60965e-07,9.34083e-07,0,4.76693e-07,-2.45047e+08,-2.44965e+08,-2.45029e+08,32701.2,-0.00548899,0.137693,-0,0.137802,-26240.4,-8921.56,-0,27715.5,32701.2
step02_gravity_refstate-crust.xmf,84,-2.97888e-07,5.17231e-07,0,2.91085e-07,-1.25137e+08,-1.25081e+08,-1.25117e+08,19968.4,-0.00659451,0.14086,-0,0.141015,-26222.4,-4555.33,-0,26615.1,19968.4
step02_gravity_refstate-crust.xmf,85,-2.71453e-07,3.1179e-07,0,1.77008e-07,-6.54305e+07,-6.53905e+07,-6.54119e+07,12142.7,-0.00821234,0.143377,-0,0.143612,-24613.3,-2381.45,-0,24728.2,12142.7
step02_gravity_refstate-crust.xmf,86,-4.5368e-07,1.69947e-06,0,1.33608e-07,-4.05454e+08,-4.05306e+08,-4.05423e+08,9165.52,-0.00119564,0.122149,-0,0.122155,-37391.8,-14761.7,-0,40200.2,9165.52
step02_gravity_refstate-crust.xmf,87,-3.76222e-07,1.53654e-06,0,4.66038e-07,-3.81553e+08,-3.81422e+08,-3.81527e+08,31970.2,-0.0041505,0.127581,-0,0.127649,-30344.2,-13891.7,-0,33372.9,31970.2
step02_gravity_refstate-crust.xmf,88,-3.3584e-07,1.4516e-06,0,5.40279e-07,-3.68484e+08,-3.68361e+08,-3.68461e+08,37063.1,-0.00482084,0.130143,-0,0.130233,-28378.9,-13415.9,-0,31390.3,37063.1
step02_gravity_refstate-crust.xmf,89,-2.18767e-07,6.83457e-07,0,4.19052e-07,-1.83364e+08,-1.83302e+08,-1.83349e+08,28747,-0.00625472,0.141126,-0,0.141264,-24736.8,-6675.71,-0,25621.7,28747
step02_gravity_refstate-crust.xmf,90,-2.31268e-07,8.8691e-08,0,2.98797e-09,-21929.1,20.105,-6064.1,204.975,-0.0106224,0.145564,-0,0.145951,-22931.2,0,-0,22931.2,204.975
step02_gravity_refstate-crust.xmf,91,-4.70681e-07,1.87357e-06,0,-6.00726e-10,-4.44309e+08,-4.44148e+08,-4.44277e+08,-41.2098,-2.38115e-19,0.11929,-0,0.11929,-40000,-16176.5,-0,43147.2,41.2098
step02_gravity_refstate-crust.xmf,92,-4.22709e-07,1.77647e-06,0,4.016e-07,-4.31407e+08,-4.31256e+08,-4.31378e+08,27549.8,-0.00350045,0.123028,-0,0.123077,-32272.1,-15706.9,-0,35891.4,27549.8
step02_gravity_refstate-crust.xmf,93,-3.8445e-07,1.75187e-06,0,5.37755e-07,-4.34944e+08,-4.34797e+08,-4.34917e+08,36890,-0.00462507,0.12513,-0,0.125216,-29532.9,-15835.7,-0,33510.6,36890
step02_gravity_refstate-crust.xmf,94,-2.75697e-07,1.4032e-06,0,6.36144e-07,-3.69272e+08,-3.69157e+08,-3.69253e+08,43639.5,-0.00558818,0.132841,-0,0.132959,-25877,-13444.8,-0,29161.3,43639.5
step02_gravity_refstate-crust.xmf,95,-2.21174e-07,1.1339e-06,0,6.00131e-07,-3.0722e+08,-3.07127e+08,-3.07205e+08,41169,-0.00575058,0.137093,-0,0.137213,-24694.1,-11185.5,-0,27109.3,41169
step02_gravity_refstate-crust.xmf,96,-1.67312e-07,8.73863e-07,0,5.41194e-07,-2.44209e+08,-2.44138e+08,-2.44198e+08,37125.9,-0.00610761,0.140958,-0,0.14109,-23368.2,-8891.36,-0,25002.5,37125.9
step02_gravity_refstate-crust.xmf,97,-1.66037e-07,4.48213e-07,0,3.23509e-07,-1.21506e+08,-1.21464e+08,-1.21495e+08,22192.7,-0.00739819,0.1443,-0,0.144489,-23016.1,-4423.57,-0,23437.4,22192.7
step02_gravity_refstate-crust.xmf,98,-1.05906e-07,2.37891e-07,0,1.91131e-07,-6.26088e+07,-6.25852e+07,-6.26015e+07,13111.6,-0.00889195,0.146831,-0,0.1471,-21394.2,-2279.28,-0,21515.3,13111.6
step02_gravity_refstate-crust.xmf,99,-4.81244e-07,2.05566e-06,0,1.40813e-07,-4.86321e+08,-4.86147e+08,-4.86288e+08,9659.77,-0.0012383,0.116608,-0,0.116615,-37441.9,-17706.2,-0,41417.4,9659.77
step02_gravity_refstate-crust.xmf,100,-4.55193e-07,1.88703e-06,0,2.69252e-07,-4.51176e+08,-4.51015e+08,-4.51144e+08,18470.7,-0.00235694,0.120061,-0,0.120084,-34960.2,-16426.6,-0,38627.1,18470.7
step02_gravity_refstate-crust.xmf,101,-3.35207e-07,1.68234e-06,0,6.51832e-07,-4.3132e+08,-4.31182e+08,-4.31297e+08,44715.7,-0.00551428,0.128022,-0,0.128141,-27025,-15703.9,-0,31256.4,44715.7
step02_gravity_refstate-crust.xmf,102,-1.04325e-07,6.26179e-07,0,4.61724e-07,-1.8367e+08,-1.8362e+08,-1.83663e+08,31674.3,-0.00673248,0.144511,-0,0.144668,-21766,-6687.25,-0,22770.2,31674.3
step02_gravity_refstate-crust.xmf,103,-1.9518e-08,8.6531e-09,0,4.38702e-09,-1801.04,131.496,-462.107,300.95,-0.0110322,0.148899,-0,0.149307,-19747.8,0,-0,19747.8,300.95
step02_gravity_refstate-crust.xmf,104,-5.00058e-07,2.23123e-06,0,-4.47371e-10,-5.24589e+08,-5.24402e+08,-5.24555e+08,-30.6897,-2.69956e-19,0.113291,-0,0.113291,-40000,-19099.6,-0,44326,30.6897
step02_gravity_refstate-crust.xmf,105,-4.60544e-07,2.0521e-06,0,3.79894e-07,-4.91717e+08,-4.91544e+08,-4.91685e+08,26060.7,-0.00330603,0.118246,-0,0.118292,-33092.9,-17902.8,-0,37625.1,26060.7
step02_gravity_refstate-crust.xmf,106,-3.97794e-07,1.9911e-06,0,6.36273e-07,-4.94977e+08,-4.94813e+08,-4.9495e+08,43648.3,-0.0054169,0.122365,-0,0.122485,-28258,-18021.6,-0,33515.6,43648.3
step02_gravity_refstate-crust.xmf,107,-4.3878e-07,2.04473e-06,0,5.0498e-07,-4.96385e+08,-4.96214e+08,-4.96355e+08,34641.7,-0.00435479,0.119704,-0,0.119783,-30800.6,-18072.8,-0,35711.4,34641.7
step02_gravity_refstate-crust.xmf,108,-3.40928e-07,1.89894e-06,0,7.60389e-07,-4.90027e+08,-4.89873e+08,-4.90003e+08,52162.7,-0.00634214,0.12585,-0,0.12601,-25674.5,-17841.5,-0,31265,52162.7
step02_gravity_refstate-crust.xmf,109,-2.66704e-07,1.60615e-06,0,7.53344e-07,-4.30122e+08,-4.29994e+08,-4.30104e+08,51679.4,-0.00627697,0.131262,-0,0.131412,-24466.3,-15660.4,-0,29049.1,51679.4
step02_gravity_refstate-crust.xmf,110,-1.9629e-07,1.33062e-06,0,7.1828e-07,-3.68609e+08,-3.68505e+08,-3.68596e+08,49274,-0.00620608,0.136146,-0,0.136287,-23247.6,-13420.9,-0,26843.4,49274
step02_gravity_refstate-crust.xmf,111,-1.31736e-07,1.06286e-06,0,6.60875e-07,-3.06209e+08,-3.06127e+08,-3.062e+08,45336,-0.00622175,0.140447,-0,0.140584,-22019,-11149,-0,24680.7,45336
step02_gravity_refstate-crust.xmf,112,-6.50306e-08,8.11946e-07,0,5.84312e-07,-2.45064e+08,-2.45004e+08,-2.4506e+08,40083.8,-0.00642524,0.14432,-0,0.144462,-20607.5,-8922.8,-0,22456.3,40083.8
step02_gravity_refstate-crust.xmf,113,-2.23398e-08,3.93516e-07,0,3.50258e-07,-1.23985e+08,-1.23956e+08,-1.23983e+08,24027.7,-0.0076498,0.147801,-0,0.147999,-19918.4,-4514.31,-0,20423.6,24027.7
step02_gravity_refstate-crust.xmf,114,6.94826e-08,1.83841e-07,0,2.13704e-07,-6.73098e+07,-6.7302e+07,-6.73146e+07,14660.1,-0.0088259,0.15035,-0,0.150609,-18217.9,-2451.05,-0,18382.1,14660.1
step02_gravity_refstate-crust.xmf,115,-5.14829e-07,2.42904e-06,0,1.55338e-07,-5.69388e+08,-5.69186e+08,-5.69353e+08,10656.2,-0.00140428,0.109871,-0,0.10988,-37278.2,-20730.8,-0,42654.8,10656.2
step02_gravity_refstate-crust.xmf,116,-4.87418e-07,2.20755e-06,0,2.80573e-07,-5.22787e+08,-5.22602e+08,-5.22754e+08,19247.3,-0.00247899,0.114706,-0,0.114732,-34995.9,-19034,-0,39837.3,19247.3
step02_gravity_refstate-crust.xmf,117,-4.13288e-07,2.20905e-06,0,7.41195e-07,-5.50696e+08,-5.50516e+08,-5.50667e+08,50846,-0.00635239,0.119784,-0,0.119953,-26854.6,-20050.4,-0,33514,50846
step02_gravity_refstate-crust.xmf,118,-3.50372e-07,2.10571e-06,0,8.66648e-07,-5.45616e+08,-5.45447e+08,-5.45592e+08,59452.1,-0.00727118,0.123639,-0,0.123853,-24347.5,-19865.5,-0,31423.5,59452.1
step02_gravity_refstate-crust.xmf,119,-2.61534e-07,1.79564e-06,0,8.6564e-07,-4.87314e+08,-4.87173e+08,-4.87296e+08,59382.9,-0.00709643,0.129618,-0,0.129812,-23095.4,-17742.9,-0,29124,59382.9
step02_gravity_refstate-crust.xmf,120,1.18204e-08,5.84892e-07,0,4.9174e-07,-1.89666e+08,-1.89627e+08,-1.89667e+08,33733.4,-0.0068068,0.147789,-0,0.147945,-18946.6,-6905.93,-0,20165.9,33733.4
step02_gravity_refstate-crust.xmf,121,1.96517e-07,-7.32061e-08,0,5.78172e-09,18725.7,222.709,5244.65,396.626,-0.0107667,0.152227,-0,0.152607,-16619.6,0,-0,16619.6,396.626
step02_gravity_refstate-crust.xmf,122,-5.28467e-07,2.58107e-06,0,3.11011e-11,-6.02507e+08,-6.02294e+08,-6.02471e+08,2.13354,-2.07702e-19,0.106465,-0,0.106465,-40000,-21936.7,-0,45620.4,2.13354
step02_gravity_refstate-crust.xmf,123,-4.89989e-07,2.34061e-06,0,4.30862e-07,-5.56828e+08,-5.56634e+08,-5.56794e+08,29557.2,-0.00382295,0.113516,-0,0.11358,-32435.8,-20273.5,-0,38250.5,29557.2
step02_gravity_refstate-crust.xmf,124,-4.61711e-07,2.3007e-06,0,5.99516e-07,-5.57453e+08,-5.57264e+08,-5.57421e+08,41126.8,-0.00524021,0.116164,-0,0.116282,-29476.3,-20296.3,-0,35788.2,41126.8
step02_gravity_refstate-crust.xmf,125,-4.32419e-07,2.41155e-06,0,8.45716e-07,-6.03069e+08,-6.02874e+08,-6.03039e+08,58016.1,-0.00734415,0.117239,-0,0.117469,-25495.3,-21957.3,-0,33647.2,58016.1
step02_gravity_refstate-crust.xmf,126,-2.61174e-07,1.97898e-06,0,9.74511e-07,-5.42258e+08,-5.42105e+08,-5.4224e+08,66851.5,-0.00800381,0.12778,-0,0.128031,-21838.6,-19743.5,-0,29440.3,66851.5
step02_gravity_refstate-crust.xmf,127,-1.77215e-07,1.506e-06,0,8.34945e-07,-4.28268e+08,-4.28153e+08,-4.28256e+08,57277.2,-0.00684636,0.134992,-0,0.135165,-21842.4,-15593.1,-0,26837.2,57277.2
step02_gravity_refstate-crust.xmf,128,-1.01582e-07,1.24103e-06,0,7.76134e-07,-3.67632e+08,-3.6754e+08,-3.67625e+08,53242.8,-0.00659179,0.139743,-0,0.139898,-20625.9,-13385.5,-0,24588.6,53242.8
step02_gravity_refstate-crust.xmf,129,-3.14313e-08,9.85356e-07,0,6.98111e-07,-3.0648e+08,-3.0641e+08,-3.06478e+08,47890.4,-0.00643842,0.143928,-0,0.144072,-19365.9,-11159.1,-0,22350.9,47890.4
step02_gravity_refstate-crust.xmf,130,3.81864e-08,7.60776e-07,0,6.09604e-07,-2.50588e+08,-2.50538e+08,-2.5059e+08,41818.8,-0.00644343,0.147493,-0,0.147634,-17991.7,-9124.23,-0,20173.1,41818.8
step02_gravity_refstate-crust.xmf,131,1.24711e-07,3.83462e-07,0,3.921e-07,-1.40882e+08,-1.40864e+08,-1.4089e+08,26898,-0.00721542,0.151374,-0,0.151546,-16671.2,-5130.03,-0,17442.6,26898
step02_gravity_refstate-crust.xmf,132,2.3588e-07,1.23149e-07,0,2.1415e-07,-6.92985e+07,-6.93062e+07,-6.93146e+07,14690.7,-0.00830794,0.153728,-0,0.153952,-15157.6,-2524.02,-0,15366.3,14690.7
step02_gravity_refstate-crust.xmf,133,-5.37487e-07,2.72265e-06,0,1.13437e-07,-6.34545e+08,-6.34322e+08,-6.34508e+08,7781.77,-0.00107554,0.103582,-0,0.103588,-37998.3,-23103.3,-0,44470.6,7781.77
step02_gravity_refstate-crust.xmf,134,-5.14638e-07,2.47394e-06,0,3.00851e-07,-5.81896e+08,-5.81691e+08,-5.8186e+08,20638.4,-0.00273478,0.109807,-0,0.109841,-34730.9,-21186.2,-0,40682.8,20638.4
step02_gravity_refstate-crust.xmf,135,-4.83663e-07,2.51633e-06,0,7.02512e-07,-6.10135e+08,-6.09929e+08,-6.10102e+08,48192.3,-0.00625247,0.113263,-0,0.113436,-27974.2,-22214.5,-0,35721.7,48192.3
step02_gravity_refstate-crust.xmf,136,-3.64581e-07,2.29517e-06,0,9.75011e-07,-5.98723e+08,-5.98541e+08,-5.98698e+08,66885.7,-0.00826016,0.121329,-0,0.12161,-23101.4,-21799.2,-0,31762.9,66885.7
step02_gravity_refstate-crust.xmf,137,-5.48886e-07,2.91781e-06,0,8.48191e-10,-6.78266e+08,-6.78029e+08,-6.78229e+08,58.1859,-1.96546e-19,0.0988816,-0,0.0988816,-40000,-24695.3,-0,47009.1,58.1859
step02_gravity_refstate-crust.xmf,138,-1.68535e-07,1.68702e-06,0,9.45592e-07,-4.8741e+08,-4.87283e+08,-4.87399e+08,64867.6,-0.00762039,0.133314,-0,0.133532,-20667.8,-17746.6,-0,27241.5,64867.6
step02_gravity_refstate-crust.xmf,139,1.00878e-07,5.8566e-07,0,5.23491e-07,-2.05561e+08,-2.05528e+08,-2.05568e+08,35911.5,-0.00655719,0.150159,-0,0.150302,-16739.6,-7484.97,-0,18336.8,35911.5
step02_gravity_refstate-crust.xmf,140,4.03916e-07,-1.51716e-07,0,6.28449e-09,38435.2,318.863,10726.6,431.116,-0.00985217,0.155355,-0,0.155667,-13537.5,0,-0,13537.5,431.116
step02_gravity_refstate-crust.xmf,141,-5.37514e-07,2.71287e-06,0,2.42015e-07,-6.33536e+08,-6.33313e+08,-6.33499e+08,16602.2,-0.00228577,0.104426,-0,0.104451,-35745.1,-23066.5,-0,42541.5,16602.2
step02_gravity_refstate-crust.xmf,142,-5.34684e-07,2.68361e-06,0,3.89038e-07,-6.29826e+08,-6.29605e+08,-6.29789e+08,26688,-0.00363108,0.106256,-0,0.106318,-33222.8,-22931.4,-0,40368.3,26688
step02_gravity_refstate-crust.xmf,143,-5.16904e-07,2.61062e-06,0,5.43801e-07,-6.19906e+08,-6.19692e+08,-6.19871e+08,37304.8,-0.00496319,0.109403,-0,0.109515,-30634.4,-22570.3,-0,38051.1,37304.8
step02_gravity_refstate-crust.xmf,144,-5.09772e-07,2.71699e-06,0,8.05423e-07,-6.59432e+08,-6.5921e+08,-6.59397e+08,55252,-0.00729666,0.110511,-0,0.110752,-26512.6,-24009.4,-0,35768.2,55252
step02_gravity_refstate-crust.xmf,145,-4.56084e-07,2.60439e-06,0,9.52902e-07,-6.53318e+08,-6.53109e+08,-6.53287e+08,65369.1,-0.00838461,0.114698,-0,0.115004,-24174.5,-23786.9,-0,33914.9,65369.1
step02_gravity_refstate-crust.xmf,146,-5.49807e-07,2.96078e-06,0,1.68392e-07,-6.88782e+08,-6.88541e+08,-6.88744e+08,11551.7,-0.00167093,0.0982511,-0,0.0982653,-36951.4,-25078.2,-0,44657.8,11551.7
step02_gravity_refstate-crust.xmf,147,-2.72473e-07,2.16039e-06,0,1.08384e-06,-5.96529e+08,-5.96362e+08,-5.9651e+08,74351.4,-0.0089633,0.125451,-0,0.125771,-20810.2,-21719.5,-0,30079.9,74351.4
step02_gravity_refstate-crust.xmf,148,-1.66196e-07,1.86284e-06,0,1.05269e-06,-5.43551e+08,-5.43412e+08,-5.4354e+08,72214.7,-0.00848743,0.131358,-0,0.131632,-19653.4,-19790.7,-0,27891.4,72214.7
step02_gravity_refstate-crust.xmf,149,-7.54318e-08,1.40563e-06,0,8.92519e-07,-4.30578e+08,-4.30477e+08,-4.30573e+08,61226.8,-0.00718877,0.13862,-0,0.138806,-19308.5,-15677.5,-0,24871.7,61226.8
step02_gravity_refstate-crust.xmf,150,3.9575e-09,1.14795e-06,0,8.08393e-07,-3.69307e+08,-3.69228e+08,-3.69307e+08,55455.8,-0.00672852,0.143335,-0,0.143493,-18035.1,-13446.8,-0,22496.2,55455.8
step02_gravity_refstate-crust.xmf,151,7.48698e-08,9.03854e-07,0,7.07804e-07,-3.07925e+08,-3.07868e+08,-3.0793e+08,48555.3,-0.00638499,0.147361,-0,0.147499,-16768.4,-11212,-0,20171.5,48555.3
step02_gravity_refstate-crust.xmf,152,1.39418e-07,6.95034e-07,0,6.02871e-07,-2.51941e+08,-2.51903e+08,-2.51951e+08,41356.9,-0.00622192,0.150568,-0,0.150696,-15536.7,-9173.82,-0,18042.9,41356.9
step02_gravity_refstate-crust.xmf,153,1.9766e-07,4.9937e-07,0,4.88101e-07,-1.94729e+08,-1.94708e+08,-1.94742e+08,33483.7,-0.006304,0.152987,-0,0.153117,-14551.8,-7090.87,-0,16187.5,33483.7
step02_gravity_refstate-crust.xmf,154,2.75685e-07,2.85674e-07,0,3.49784e-07,-1.31737e+08,-1.31736e+08,-1.31756e+08,23995.2,-0.00670086,0.155096,-0,0.155241,-13460.4,-4797.56,-0,14289.8,23995.2
step02_gravity_refstate-crust.xmf,155,4.00116e-07,4.84455e-08,0,1.8835e-07,-6.63669e+07,-6.6391e+07,-6.63943e+07,12920.8,-0.00738295,0.156927,-0,0.157101,-12040.9,-2417.85,-0,12281.2,12920.8
step02_gravity_refstate-crust.xmf,156,-5.42929e-07,2.81992e-06,0,6.5347e-07,-6.69585e+08,-6.69354e+08,-6.69548e+08,44828.1,-0.00610569,0.106404,-0,0.106579,-28868.9,-24379.1,-0,37785.7,44828.1
step02_gravity_refstate-crust.xmf,157,-3.86439e-07,2.48332e-06,0,1.08578e-06,-6.50845e+08,-6.50648e+08,-6.50818e+08,74484.2,-0.00929637,0.11879,-0,0.119153,-21955.9,-23696.9,-0,32304.9,74484.2
step02_gravity_refstate-crust.xmf,158,-5.4822e-07,3.16437e-06,0,9.66771e-08,-7.36121e+08,-7.35867e+08,-7.36084e+08,6632.05,-0.00101062,0.0926566,-0,0.0926621,-38154.7,-26801.9,-0,46627.5,6632.05
step02_gravity_refstate-crust.xmf,159,-5.4649e-07,3.23219e-06,0,9.87714e-10,-7.52067e+08,-7.51808e+08,-7.52029e+08,67.7572,-2.20676e-19,0.09062,-0,0.09062,-40000,-27382.5,-0,48474.8,67.7572
step02_gravity_refstate-crust.xmf,160,-6.42919e-08,1.57998e-06,0,1.00129e-06,-4.91874e+08,-4.91761e+08,-4.91869e+08,68688.4,-0.00794415,0.136773,-0,0.137004,-18361.7,-17909.3,-0,25649.5,68688.4
step02_gravity_refstate-crust.xmf,161,5.89812e-07,-2.22054e-07,0,6.28398e-09,56102.6,408.622,15641.5,431.081,-0.00834837,0.158104,-0,0.158324,-10492.7,0,-0,10492.7,431.081
step02_gravity_refstate-crust.xmf,162,-5.57873e-07,2.97615e-06,0,3.16481e-07,-6.93345e+08,-6.93103e+08,-6.93307e+08,21710.6,-0.00313842,0.0989918,-0,0.0990415,-34307.3,-25244.3,-0,42594.2,21710.6
step02_gravity_refstate-crust.xmf,163,-5.68449e-07,2.96275e-06,0,4.93014e-07,-6.93304e+08,-6.93062e+08,-6.93265e+08,33820.7,-0.00477861,0.101238,-0,0.101351,-31386.7,-25242.7,-0,40278.1,33820.7
step02_gravity_refstate-crust.xmf,164,-5.73956e-07,3.00953e-06,0,7.46882e-07,-7.13867e+08,-7.13621e+08,-7.13827e+08,51236.1,-0.00710665,0.103575,-0,0.103819,-27412.1,-25991.4,-0,37775.3,51236.1
step02_gravity_refstate-crust.xmf,165,-5.45555e-07,2.92168e-06,0,9.00298e-07,-7.08007e+08,-7.07769e+08,-7.0797e+08,61760.4,-0.00829534,0.10746,-0,0.107779,-25240.4,-25778,-0,36077.5,61760.4
step02_gravity_refstate-crust.xmf,166,-4.9427e-07,2.81556e-06,0,1.05667e-06,-7.05349e+08,-7.05122e+08,-7.05315e+08,72487.5,-0.00942886,0.111556,-0,0.111954,-23033,-25681.3,-0,34497.1,72487.5
step02_gravity_refstate-crust.xmf,167,-5.5792e-07,3.25909e-06,0,2.20554e-07,-7.58149e+08,-7.57887e+08,-7.58111e+08,15130,-0.00235754,0.0908834,-0,0.090914,-35701.3,-27604,-0,45128.3,15130
step02_gravity_refstate-crust.xmf,168,-5.37411e-07,3.39795e-06,0,1.00572e-07,-7.92376e+08,-7.92106e+08,-7.92339e+08,6899.24,-0.00112577,0.085991,-0,0.0859984,-37892,-28850.3,-0,47625,6899.24
step02_gravity_refstate-crust.xmf,169,-2.85058e-07,2.32774e-06,0,1.1996e-06,-6.48121e+08,-6.47942e+08,-6.48101e+08,82292.7,-0.00998646,0.123165,-0,0.12357,-19789.4,-23597.9,-0,30797.5,82292.7
step02_gravity_refstate-crust.xmf,170,-1.63011e-07,2.01306e-06,0,1.16525e-06,-5.96091e+08,-5.95941e+08,-5.9608e+08,79936,-0.00942249,0.129429,-0,0.129772,-18672.7,-21703.7,-0,28630.8,79936
step02_gravity_refstate-crust.xmf,171,-5.99756e-08,1.7367e-06,0,1.10478e-06,-5.4573e+08,-5.45607e+08,-5.45726e+08,75787.8,-0.00874866,0.134795,-0,0.135079,-17618.1,-19870.3,-0,26556.1,75787.8
step02_gravity_refstate-crust.xmf,172,4.32639e-08,1.3162e-06,0,9.29714e-07,-4.40145e+08,-4.40058e+08,-4.40148e+08,63778.4,-0.00733358,0.142146,-0,0.142335,-16700.9,-16026.1,-0,23146.4,63778.4
step02_gravity_refstate-crust.xmf,173,5.36092e-07,-9.39283e-09,0,1.55888e-07,-6.51698e+07,-6.52072e+07,-6.52066e+07,10693.9,-0.00602147,0.159518,-0,0.159631,-9082.28,-2374.73,-0,9387.61,10693.9
step02_gravity_refstate-crust.xmf,174,1.17469e-07,1.04106e-06,0,8.04188e-07,-3.69749e+08,-3.69685e+08,-3.69757e+08,55167.3,-0.00657727,0.146915,-0,0.147062,-15498.4,-13463.2,-0,20529.4,55167.3
step02_gravity_refstate-crust.xmf,175,1.82486e-07,8.15675e-07,0,6.84501e-07,-3.08465e+08,-3.08422e+08,-3.08478e+08,46956.7,-0.00606095,0.150653,-0,0.150775,-14239.1,-11232,-0,18135.8,46956.7
step02_gravity_refstate-crust.xmf,176,2.41169e-07,6.18949e-07,0,5.65315e-07,-2.50443e+08,-2.50418e+08,-2.5046e+08,38780.6,-0.00575393,0.153581,-0,0.153688,-13066.3,-9119.58,-0,15934.1,38780.6
step02_gravity_refstate-crust.xmf,177,3.08777e-07,4.24378e-07,0,4.38193e-07,-1.9092e+08,-1.90912e+08,-1.90941e+08,30060,-0.00564527,0.156036,-0,0.156138,-11851.3,-6952.54,-0,13740.1,30060
step02_gravity_refstate-crust.xmf,178,3.99393e-07,2.19325e-07,0,3.01657e-07,-1.28891e+08,-1.28903e+08,-1.28919e+08,20693.7,-0.00576246,0.158008,-0,0.158113,-10572.4,-4694.37,-0,11567.7,20693.7
step02_gravity_refstate-crust.xmf,179,7.20718e-07,-2.76415e-07,0,2.8725e-09,68338.4,-64.9493,18897.1,197.054,-0.00634651,0.160318,-0,0.160443,-7476.13,0,-0,7476.13,197.054
step02_gravity_refstate-crust.xmf,180,6.22787e-07,-4.95769e-08,0,1.11042e-07,-6.6273e+07,-6.63191e+07,-6.63157e+07,7617.45,-0.00429054,0.161498,-0,0.161555,-6161.36,-2415.18,-0,6617.81,7617.45
step02_gravity_refstate-crust.xmf,181,8.24261e-07,-3.16135e-07,0,2.38295e-09,78156,-75.2335,21611.6,163.47,-0.00396612,0.161869,-0,0.161917,-4478.91,0,-0,4478.91,163.47
step02_gravity_refstate-crust.xmf,182,6.80341e-07,-6.45269e-08,0,6.34083e-08,-6.96093e+07,-6.96604e+07,-6.9656e+07,4349.81,-0.00227424,0.162802,-0,0.162818,-3193.99,-2536.85,-0,4078.87,4349.81
step02_gravity_refstate-crust.xmf,183,8.77743e-07,-3.36622e-07,0,1.0753e-09,83228.1,-77.2659,23015,73.7658,-0.00134911,0.162668,-0,0.162674,-1492.16,0,-0,1492.16,73.7658
step02_gravity_refstate-crust.xmf,184,7.00239e-07,-6.8049e-08,0,2.68833e-09,-7.15891e+07,-7.16418e+07,-7.16372e+07,184.42,-0.000122151,0.163295,-0,0.163295,-169.637,-2609,-0,2614.51,184.42
step02_gravity_refstate-crust.xmf,185,9.02906e-07,-3.40222e-07,0,2.47003e-09,85871.4,592.86,23932.1,169.444,0.00135001,0.162668,0,0.162674,1492.16,0,0,1492.16,169.444
step02_gravity_refstate-crust.xmf,186,-5.85384e-07,3.07341e-06,0,6.17119e-07,-7.20807e+08,-7.20556e+08,-7.20767e+08,42334.4,-0.00603898,0.10041,-0,0.100591,-29292.7,-26244.1,-0,39329.6,42334.4
step02_gravity_refstate-crust.xmf,187,-4.07517e-07,2.66189e-06,0,1.20341e-06,-7.01261e+08,-7.0105e+08,-7.01233e+08,82554.1,-0.0103806,0.116224,-0,0.116687,-20843.3,-25532.6,-0,32959.9,82554.1
step02_gravity_refstate-crust.xmf,188,-5.17219e-07,3.51901e-06,0,1.93777e-09,-8.24106e+08,-8.23829e+08,-8.24071e+08,132.931,-2.4206e-19,0.0817654,-0,0.0817654,-40000,-30005.8,-0,50003.5,132.931
step02_gravity_refstate-crust.xmf,189,1.98254e-08,1.51762e-06,0,1.03877e-06,-5.02801e+08,-5.02698e+08,-5.02802e+08,71259.7,-0.00812928,0.139002,-0,0.139239,-16653.8,-18307.4,-0,24748.9,71259.7
step02_gravity_refstate-crust.xmf,190,6.97155e-07,-5.38435e-08,0,-5.54278e-08,-7.35782e+07,-7.36297e+07,-7.3626e+07,-3802.35,0.00201232,0.162909,0,0.162921,2851.05,-2681.43,0,3913.89,3802.35
step02_gravity_refstate-crust.xmf,191,-5.79944e-07,3.25523e-06,0,3.80301e-07,-7.56474e+08,-7.56211e+08,-7.56435e+08,26088.6,-0.00398826,0.0928456,-0,0.0929312,-32836.5,-27542.9,-0,42858.4,26088.6
step02_gravity_refstate-crust.xmf,192,-6.04896e-07,3.28157e-06,0,5.22398e-07,-7.6259e+08,-7.62324e+08,-7.62549e+08,35836.5,-0.00538639,0.0942716,-0,0.0944254,-30467.7,-27765.5,-0,41221.4,35836.5
step02_gravity_refstate-crust.xmf,193,-6.19309e-07,3.27715e-06,0,6.6563e-07,-7.64687e+08,-7.64419e+08,-7.64644e+08,45662.2,-0.0066934,0.0965305,-0,0.0967623,-28328,-27841.7,-0,39719.5,45662.2
step02_gravity_refstate-crust.xmf,194,-6.1635e-07,3.21589e-06,0,8.26002e-07,-7.59497e+08,-7.59234e+08,-7.59455e+08,56663.7,-0.0080039,0.100199,-0,0.100519,-26190.3,-27652.7,-0,38086.8,56663.7
step02_gravity_refstate-crust.xmf,195,-5.97501e-07,3.14831e-06,0,9.89184e-07,-7.58527e+08,-7.5827e+08,-7.58486e+08,67858.1,-0.00925897,0.1038,-0,0.104212,-24118.5,-27617.4,-0,36666.3,67858.1
step02_gravity_refstate-crust.xmf,196,-5.49317e-07,3.04929e-06,0,1.16855e-06,-7.6104e+08,-7.60794e+08,-7.61003e+08,80162.8,-0.0105587,0.107827,-0,0.108343,-21900,-27708.9,-0,35318.5,80162.8
step02_gravity_refstate-crust.xmf,197,-5.42707e-07,3.5265e-06,0,1.79383e-07,-8.22963e+08,-8.22684e+08,-8.22925e+08,12305.7,-0.00210999,0.0827544,-0,0.0827813,-35973.5,-29964,-0,46818.1,12305.7
step02_gravity_refstate-crust.xmf,198,-4.89769e-07,3.68329e-06,0,9.65527e-08,-8.68078e+08,-8.67792e+08,-8.68044e+08,6623.52,-0.00121709,0.0763193,-0,0.076329,-37491.4,-31607,-0,49036.8,6623.52
step02_gravity_refstate-crust.xmf,199,-5.67414e-07,3.52136e-06,0,2.89166e-07,-8.18932e+08,-8.18652e+08,-8.18894e+08,19836.8,-0.00332574,0.0844463,-0,0.0845118,-33792.4,-29817.2,-0,45066.5,19836.8
step02_gravity_refstate-crust.xmf,200,-2.92954e-07,2.4705e-06,0,1.32751e-06,-6.96381e+08,-6.96192e+08,-6.96361e+08,91067.3,-0.0110638,0.121216,-0,0.121719,-18706.7,-25355.1,-0,31509,91067.3
step02_gravity_refstate-crust.xmf,201,-4.30955e-07,2.80979e-06,0,1.33241e-06,-7.45829e+08,-7.45607e+08,-7.458e+08,91403.1,-0.0114834,0.114307,-0,0.114882,-19675,-27155.3,-0,33533.8,91403.1
step02_gravity_refstate-crust.xmf,202,8.44034e-07,-3.17855e-07,0,1.56749e-09,80280.2,574.577,22379.4,107.53,0.00396932,0.161869,0,0.161918,4478.91,0,0,4478.91,107.53
step02_gravity_refstate-crust.xmf,203,-1.56271e-07,2.14304e-06,0,1.28585e-06,-6.45814e+08,-6.45656e+08,-6.45803e+08,88209.4,-0.0104141,0.127642,-0,0.128066,-17680.9,-23514.2,-0,29419.9,88209.4
step02_gravity_refstate-crust.xmf,204,-3.66374e-08,1.84663e-06,0,1.21437e-06,-5.95183e+08,-5.95054e+08,-5.9518e+08,83306.1,-0.00960902,0.13337,-0,0.133716,-16653.5,-21670.9,-0,27330.7,83306.1
step02_gravity_refstate-crust.xmf,205,5.70799e-08,1.59114e-06,0,1.1223e-06,-5.44754e+08,-5.44649e+08,-5.44758e+08,76989.7,-0.00873576,0.138251,-0,0.138526,-15721.1,-19835,-0,25309.7,76989.7
step02_gravity_refstate-crust.xmf,206,1.22581e-07,1.36396e-06,0,1.01259e-06,-4.89662e+08,-4.89577e+08,-4.89671e+08,69463.9,-0.00782274,0.142476,-0,0.14269,-14973.6,-17829.2,-0,23282.9,69463.9
step02_gravity_refstate-crust.xmf,207,1.76067e-07,1.14146e-06,0,8.89334e-07,-4.28918e+08,-4.28851e+08,-4.2893e+08,61008.3,-0.00693019,0.146493,-0,0.146657,-14157.6,-15617.7,-0,21079.6,61008.3
step02_gravity_refstate-crust.xmf,208,4.9857e-07,1.73418e-07,0,2.41979e-07,-1.29458e+08,-1.2948e+08,-1.29492e+08,16599.7,-0.00449458,0.160327,-0,0.16039,-7760.56,-4715.34,-0,9080.79,16599.7
step02_gravity_refstate-crust.xmf,209,2.31729e-07,9.23666e-07,0,7.59267e-07,-3.67316e+08,-3.67268e+08,-3.67332e+08,52085.7,-0.00612941,0.150349,-0,0.150474,-13035.5,-13374.9,-0,18676.5,52085.7
step02_gravity_refstate-crust.xmf,210,2.85964e-07,7.27377e-07,0,6.28866e-07,-3.0844e+08,-3.08409e+08,-3.08459e+08,43140.2,-0.00548193,0.153667,-0,0.153765,-11766.8,-11231.3,-0,16266.6,43140.2
step02_gravity_refstate-crust.xmf,211,3.40522e-07,5.4355e-07,0,4.97991e-07,-2.49015e+08,-2.49001e+08,-2.49038e+08,34162.2,-0.00500519,0.156416,-0,0.156496,-10487,-9067.86,-0,13863.8,34162.2
step02_gravity_refstate-crust.xmf,212,4.05651e-07,3.64115e-07,0,3.70151e-07,-1.8972e+08,-1.89723e+08,-1.89748e+08,25392.4,-0.00470578,0.158596,-0,0.158665,-9201.12,-6909.17,-0,11506.4,25392.4
step02_gravity_refstate-crust.xmf,213,5.56375e-07,1.46378e-07,0,1.62932e-07,-1.33626e+08,-1.33654e+08,-1.33664e+08,11177.2,-0.00296786,0.16201,-0,0.162037,-4952.27,-4867.27,-0,6943.73,11177.2
step02_gravity_refstate-crust.xmf,214,5.85347e-07,1.66326e-07,0,7.45653e-08,-1.47879e+08,-1.47907e+08,-1.47919e+08,5115.18,-0.00115158,0.162972,-0,0.162976,-1924.68,-5386.29,-0,5719.84,5115.18
step02_gravity_refstate-crust.xmf,215,5.95529e-07,1.4313e-07,0,-4.22839e-08,-1.4147e+08,-1.41501e+08,-1.41511e+08,-2900.67,0.00071654,0.163125,0,0.163126,1180.67,-5152.98,0,5286.51,2900.67
step02_gravity_refstate-crust.xmf,216,-4.53936e-07,3.76655e-06,0,6.50755e-10,-8.9458e+08,-8.94291e+08,-8.94549e+08,44.6418,-2.05917e-19,0.0724113,-0,0.0724113,-40000,-32572.1,-0,51584.3,44.6418
step02_gravity_refstate-crust.xmf,217,-5.28467e-07,3.72518e-06,0,1.96925e-07,-8.72436e+08,-8.72144e+08,-8.724e+08,13509.1,-0.00250912,0.0767255,-0,0.0767665,-34906.8,-31765.5,-0,47196.8,13509.1
step02_gravity_refstate-crust.xmf,218,-2.92529e-07,2.58057e-06,0,1.47061e-06,-7.41049e+08,-7.40852e+08,-7.41029e+08,100884,-0.0121729,0.119738,-0,0.120355,-17572.8,-26981.4,-0,32199.4,100884
step02_gravity_refstate-crust.xmf,219,-4.45037e-07,2.91571e-06,0,1.4789e-06,-7.8443e+08,-7.84199e+08,-7.84399e+08,101452,-0.0125643,0.113078,-0,0.113773,-18510.4,-28560.7,-0,34034.5,101452
step02_gravity_refstate-crust.xmf,220,5.89751e-07,2.02817e-08,0,-1.35246e-07,-8.61294e+07,-8.61685e+07,-8.61699e+07,-9277.9,0.0040178,0.16155,0,0.1616,6092.94,-3138.04,0,6853.56,9277.9
step02_gravity_refstate-crust.xmf,221,5.7299e-07,1.68593e-07,0,-1.40506e-07,-1.44875e+08,-1.44903e+08,-1.44914e+08,-9638.72,0.00234161,0.162389,0,0.162406,3950,-5276.9,0,6591.52,9638.72
step02_gravity_refstate-crust.xmf,222,-6.021e-07,3.51856e-06,0,4.16451e-07,-8.15176e+08,-8.14893e+08,-8.15135e+08,28568.5,-0.00464114,0.086682,-0,0.0868061,-31561.9,-29680.3,-0,43325.2,28568.5
step02_gravity_refstate-crust.xmf,223,-6.39949e-07,3.52414e-06,0,5.59874e-07,-8.14251e+08,-8.13966e+08,-8.14207e+08,38407.4,-0.00601715,0.0891253,-0,0.0893282,-29346.1,-29646.5,-0,41714.6,38407.4
step02_gravity_refstate-crust.xmf,224,-6.65584e-07,3.5031e-06,0,7.18351e-07,-8.11739e+08,-8.11453e+08,-8.11693e+08,49278.9,-0.00741726,0.0922783,-0,0.0925759,-27203.2,-29554.9,-0,40168.5,49278.9
step02_gravity_refstate-crust.xmf,225,-6.74783e-07,3.45827e-06,0,8.84375e-07,-8.0919e+08,-8.08907e+08,-8.09144e+08,60668.1,-0.0087632,0.0958018,-0,0.0962017,-25193.8,-29462,-0,38765.2,60668.1
step02_gravity_refstate-crust.xmf,226,-6.64642e-07,3.39266e-06,0,1.05608e-06,-8.0824e+08,-8.07961e+08,-8.08194e+08,72447.1,-0.0100416,0.0994698,-0,0.0999753,-23282.7,-29427.3,-0,37524,72447.1
step02_gravity_refstate-crust.xmf,227,-5.51921e-07,3.10512e-06,0,1.30722e-06,-7.86845e+08,-7.86594e+08,-7.86807e+08,89675.6,-0.0116185,0.108093,-0,0.108716,-20459.3,-28648.4,-0,35203.9,89675.6
step02_gravity_refstate-crust.xmf,228,-3.52594e-07,3.98649e-06,0,2.05779e-09,-9.63682e+08,-9.63385e+08,-9.63658e+08,141.164,-1.09991e-19,0.0626492,-0,0.0626492,-40000,-35088.6,-0,53209.1,141.164
step02_gravity_refstate-crust.xmf,229,-4.05618e-07,3.91193e-06,0,5.24932e-08,-9.37317e+08,-9.37021e+08,-9.37289e+08,3601.03,-0.000813695,0.0666291,-0,0.0666341,-37955.6,-34128.4,-0,51042.9,3601.03
step02_gravity_refstate-crust.xmf,230,-5.70731e-07,3.74425e-06,0,3.06796e-07,-8.70672e+08,-8.70376e+08,-8.70632e+08,21046.2,-0.0037856,0.078466,-0,0.0785573,-32586.5,-31701.2,-0,45462.5,21046.2
step02_gravity_refstate-crust.xmf,231,-1.41702e-07,2.24826e-06,0,1.42066e-06,-6.93472e+08,-6.93308e+08,-6.93463e+08,97457.2,-0.0114612,0.126118,-0,0.126638,-16638,-25249.5,-0,30238.4,97457.2
step02_gravity_refstate-crust.xmf,232,-3.17924e-07,2.74032e-06,0,1.64184e-06,-7.92007e+08,-7.91798e+08,-7.91986e+08,112630,-0.0134404,0.117403,-0,0.11817,-16573.2,-28836.8,-0,33260.1,112630
step02_gravity_refstate-crust.xmf,233,7.38657e-07,-2.79946e-07,0,-1.51029e-09,70181.7,305.6,19509.9,-103.606,0.00634408,0.160318,0,0.160444,7476.13,0,0,7476.13,103.606
step02_gravity_refstate-crust.xmf,234,-4.66968e-09,1.93466e-06,0,1.33557e-06,-6.43593e+08,-6.4346e+08,-6.43592e+08,91620.3,-0.0105361,0.132079,-0,0.132499,-15650.6,-23433.6,-0,28179.3,91620.3
step02_gravity_refstate-crust.xmf,235,1.06154e-07,1.65862e-06,0,1.22525e-06,-5.92578e+08,-5.92472e+08,-5.92585e+08,84052,-0.00949352,0.137347,-0,0.137675,-14687.8,-21576.4,-0,26101.2,84052
step02_gravity_refstate-crust.xmf,236,2.50945e-07,1.19602e-06,0,9.61469e-07,-4.82025e+08,-4.8196e+08,-4.82043e+08,65956.7,-0.00731478,0.146234,-0,0.146417,-12826.6,-17551.5,-0,21738.8,65956.7
step02_gravity_refstate-crust.xmf,237,1.88617e-07,1.41441e-06,0,1.09641e-06,-5.38302e+08,-5.38218e+08,-5.38315e+08,75213.9,-0.00839015,0.142028,-0,0.142275,-13778,-19600.4,-0,23958.5,75213.9
step02_gravity_refstate-crust.xmf,238,2.97235e-07,9.9493e-07,0,8.18809e-07,-4.22619e+08,-4.22571e+08,-4.22639e+08,56170.3,-0.00630577,0.150049,-0,0.150182,-11808.5,-15388.6,-0,19397.2,56170.3
step02_gravity_refstate-crust.xmf,239,4.81003e-07,3.25775e-07,0,2.87372e-07,-1.93069e+08,-1.93079e+08,-1.93102e+08,19713.7,-0.00353653,0.160561,-0,0.1606,-6593.96,-7031.3,-0,9639.48,19713.7
step02_gravity_refstate-crust.xmf,240,3.40044e-07,8.10801e-07,0,6.78796e-07,-3.64671e+08,-3.64639e+08,-3.64694e+08,46565.4,-0.00541957,0.153428,-0,0.153524,-10617.4,-13278.8,-0,17001.7,46565.4
step02_gravity_refstate-crust.xmf,241,3.81717e-07,6.42694e-07,0,5.4061e-07,-3.07595e+08,-3.07577e+08,-3.07621e+08,37085.8,-0.00465314,0.156348,-0,0.156417,-9291.21,-11200.8,-0,14552.9,37085.8
step02_gravity_refstate-crust.xmf,242,4.24384e-07,4.85009e-07,0,4.10461e-07,-2.5041e+08,-2.50405e+08,-2.50439e+08,28157.6,-0.00404632,0.158695,-0,0.158747,-7980.32,-9118.88,-0,12117.7,28157.6
step02_gravity_refstate-crust.xmf,243,5.21606e-07,3.06123e-07,0,1.86167e-07,-1.99359e+08,-1.99374e+08,-1.99395e+08,12771,-0.00225265,0.161862,-0,0.161878,-4085.99,-7260.45,-0,8331.23,12771
step02_gravity_refstate-crust.xmf,244,5.52793e-07,2.95142e-07,0,7.85608e-09,-2.04833e+08,-2.04851e+08,-2.04871e+08,538.927,-7.81239e-05,0.162687,-0,0.162687,-140.166,-7459.85,-0,7461.17,538.927
step02_gravity_refstate-crust.xmf,245,5.39304e-07,3.06313e-07,0,-1.1978e-07,-2.06197e+08,-2.06213e+08,-2.06234e+08,-8216.89,0.00138764,0.162338,0,0.162344,2499.11,-7509.45,0,7914.38,8216.89
step02_gravity_refstate-crust.xmf,246,-6.57866e-07,3.3748e-06,0,1.21341e-06,-8.19707e+08,-8.1943e+08,-8.19662e+08,83239.9,-0.0112337,0.101671,-0,0.102289,-21574.2,-29844.8,-0,36826.1,83239.9
step02_gravity_refstate-crust.xmf,247,-6.14647e-07,3.29745e-06,0,1.39729e-06,-8.26904e+08,-8.26636e+08,-8.26862e+08,95853.8,-0.0124177,0.104984,-0,0.105716,-19813.4,-30106.9,-0,36041.6,95853.8
step02_gravity_refstate-crust.xmf,248,-5.41539e-07,3.17069e-06,0,1.5558e-06,-8.302e+08,-8.29945e+08,-8.30163e+08,106728,-0.0133421,0.108579,-0,0.109396,-18293.3,-30227,-0,35331.5,106728
step02_gravity_refstate-crust.xmf,249,-2.90636e-07,4.08858e-06,0,2.33178e-08,-9.99468e+08,-9.99168e+08,-9.99448e+08,1599.6,-0.000519618,0.0575331,-0,0.0575354,-38163.4,-36391.8,-0,52733.4,1599.6
step02_gravity_refstate-crust.xmf,250,-4.47809e-07,3.90574e-06,0,1.19641e-07,-9.27776e+08,-9.27478e+08,-9.27746e+08,8207.39,-0.00176159,0.0686066,-0,0.0686292,-35832.6,-33780.9,-0,49245.5,8207.39
step02_gravity_refstate-crust.xmf,251,-5.08785e-07,3.94948e-06,0,1.98177e-07,-9.28102e+08,-9.27796e+08,-9.28067e+08,13594.9,-0.00282339,0.0697094,-0,0.0697666,-33587.3,-33792.5,-0,47645,13594.9
step02_gravity_refstate-crust.xmf,252,-2.05035e-07,4.15572e-06,0,1.16554e-09,-1.0316e+09,-1.03131e+09,-1.03159e+09,79.9557,-6.16265e-20,0.0525769,-0,0.0525769,-40000,-37562.2,-0,54871.9,79.9557
step02_gravity_refstate-crust.xmf,253,-1.22155e-07,2.33093e-06,0,1.56949e-06,-7.3869e+08,-7.38521e+08,-7.38681e+08,107667,-0.012531,0.124819,-0,0.125447,-15618,-26895.9,-0,31101.6,107667
step02_gravity_refstate-crust.xmf,254,5.13512e-07,1.98306e-08,0,-1.67476e-07,-7.43128e+07,-7.43467e+07,-7.4348e+07,-11488.9,0.00597081,0.159352,0,0.159464,9288.59,-2707.54,0,9675.16,11488.9
step02_gravity_refstate-crust.xmf,255,5.03428e-07,2.37626e-07,0,-2.31935e-07,-1.61048e+08,-1.61066e+08,-1.61082e+08,-15910.8,0.00348095,0.161141,0,0.161179,6194.47,-5865.51,0,8530.86,15910.8
step02_gravity_refstate-crust.xmf,256,5.40331e-07,3.27829e-07,0,1.05557e-07,-2.16704e+08,-2.16718e+08,-2.16741e+08,7241.2,-0.00116567,0.162316,-0,0.16232,-2109.28,-7892.01,-0,8169.02,7241.2
step02_gravity_refstate-crust.xmf,257,5.09411e-07,3.39178e-07,0,-2.35765e-07,-2.10675e+08,-2.10687e+08,-2.1071e+08,-16173.5,0.00269984,0.161299,0,0.161321,4992.83,-7672.41,0,9153.92,16173.5
step02_gravity_refstate-crust.xmf,258,-6.26798e-07,3.75895e-06,0,4.35942e-07,-8.67301e+08,-8.67e+08,-8.67258e+08,29905.6,-0.00514229,0.0809581,-0,0.0811213,-30354.8,-31578.2,-0,43801.8,29905.6
step02_gravity_refstate-crust.xmf,259,-6.8285e-07,3.76477e-06,0,5.89014e-07,-8.63436e+08,-8.63131e+08,-8.6339e+08,40406.4,-0.00657775,0.0840515,-0,0.0843085,-28194.2,-31437.3,-0,42228.2,40406.4
step02_gravity_refstate-crust.xmf,260,-7.23439e-07,3.75016e-06,0,7.55322e-07,-8.6035e+08,-8.60043e+08,-8.603e+08,51815.1,-0.00801809,0.087464,-0,0.0878308,-26162.7,-31324.8,-0,40813.4,51815.1
step02_gravity_refstate-crust.xmf,261,-7.45979e-07,3.71513e-06,0,9.29446e-07,-8.58288e+08,-8.57982e+08,-8.58237e+08,63760,-0.00939956,0.0910329,-0,0.0915169,-24289.5,-31249.6,-0,39579.2,63760
step02_gravity_refstate-crust.xmf,262,-7.57714e-07,3.68946e-06,0,1.10881e-06,-8.62821e+08,-8.62515e+08,-8.62769e+08,76064.2,-0.0107472,0.094078,-0,0.0946899,-22496.3,-31414.5,-0,38638.8,76064.2
step02_gravity_refstate-crust.xmf,263,-4.37543e-07,3.01423e-06,0,1.74042e-06,-8.39374e+08,-8.39137e+08,-8.39344e+08,119393,-0.0143297,0.112371,-0,0.113281,-16602.4,-30561.1,-0,34779.6,119393
step02_gravity_refstate-crust.xmf,264,-3.57779e-07,4.04799e-06,0,6.28374e-08,-9.76969e+08,-9.76667e+08,-9.76944e+08,4310.64,-0.00116448,0.0612308,-0,0.0612419,-36539.2,-35572.4,-0,50995.2,4310.64
step02_gravity_refstate-crust.xmf,265,-5.76823e-07,3.97362e-06,0,3.04455e-07,-9.22595e+08,-9.22283e+08,-9.22556e+08,20885.6,-0.00408944,0.0722112,-0,0.0723269,-31334,-33591.8,-0,45937.2,20885.6
step02_gravity_refstate-crust.xmf,266,-1.65859e-07,4.20401e-06,0,-1.93488e-09,-1.05071e+09,-1.05041e+09,-1.0507e+09,-132.732,-0.000277093,0.0497829,-0,0.0497837,-38256.5,-38257.9,-0,54103.9,132.732
step02_gravity_refstate-crust.xmf,267,3.75558e-08,1.9978e-06,0,1.47282e-06,-6.91184e+08,-6.9105e+08,-6.91187e+08,101036,-0.0115189,0.130944,-0,0.131449,-14631.8,-25166.5,-0,29110.9,101036
step02_gravity_refstate-crust.xmf,268,-8.54898e-08,2.37649e-06,0,1.73403e-06,-7.80844e+08,-7.80675e+08,-7.80838e+08,118954,-0.0136042,0.124016,-0,0.12476,-14569.4,-28430.8,-0,31946.4,118954
step02_gravity_refstate-crust.xmf,269,-2.46986e-07,2.69627e-06,0,1.86669e-06,-8.30607e+08,-8.30405e+08,-8.3059e+08,128055,-0.0147284,0.11838,-0,0.119292,-14928.1,-30242.2,-0,33726,128055
step02_gravity_refstate-crust.xmf,270,5.69443e-07,-2.18621e-07,0,-4.98332e-09,53984.9,-76.2247,14921.2,-341.856,0.00834736,0.158105,0,0.158325,10492.7,0,0,10492.7,341.856
step02_gravity_refstate-crust.xmf,271,4.45175e-07,2.44534e-07,0,-2.87667e-07,-1.51055e+08,-1.51068e+08,-1.51085e+08,-19733.9,0.00467088,0.159585,0,0.159653,8523.87,-5501.48,0,10145.1,19733.9
step02_gravity_refstate-crust.xmf,272,3.73006e-07,5.70974e-08,0,-1.91216e-07,-6.76468e+07,-6.76685e+07,-6.76724e+07,-13117.4,0.0074715,0.156636,0,0.156814,12340.1,-2464.35,0,12583.7,13117.4
step02_gravity_refstate-crust.xmf,273,3.9068e-07,-1.50014e-07,0,-4.21469e-09,37036.7,-54.9575,10236,-289.128,0.00985178,0.155355,0,0.155667,13537.5,0,0,13537.5,289.128
step02_gravity_refstate-crust.xmf,274,2.3783e-07,8.68486e-08,0,-1.84277e-07,-5.90456e+07,-5.9056e+07,-5.90619e+07,-12641.4,0.00856219,0.153774,0,0.154012,15150.8,-2150.71,0,15302.6,12641.4
step02_gravity_refstate-crust.xmf,275,1.90562e-07,-7.29521e-08,0,-2.89702e-09,18074.8,-2.31174,5002.2,-198.736,0.0107668,0.152226,0,0.152607,16619.6,0,0,16619.6,198.736
step02_gravity_refstate-crust.xmf,276,7.21298e-08,1.54545e-07,0,-1.89057e-07,-5.91244e+07,-5.91187e+07,-5.91293e+07,-12969.3,0.00904082,0.150438,0,0.150709,18183.7,-2153.01,0,18310.7,12969.3
step02_gravity_refstate-crust.xmf,277,-1.946e-08,7.44444e-09,0,-3.30983e-09,-1846.01,-0.359085,-511.047,-227.054,0.0110319,0.148898,0,0.149306,19747.8,0,0,19747.8,227.054
step02_gravity_refstate-crust.xmf,278,3.91399e-07,1.02131e-06,0,8.63122e-07,-4.7839e+08,-4.78347e+08,-4.78417e+08,59210.2,-0.00647396,0.149947,-0,0.150086,-10373,-17419.4,-0,20274,59210.2
step02_gravity_refstate-crust.xmf,279,1.69898e-07,1.70258e-06,0,1.34214e-06,-6.41301e+08,-6.41196e+08,-6.41313e+08,92070.9,-0.0103217,0.136515,-0,0.136905,-13622.4,-23350.5,-0,27033.6,92070.9
step02_gravity_refstate-crust.xmf,280,2.64531e-07,1.45161e-06,0,1.19233e-06,-5.88877e+08,-5.88796e+08,-5.88895e+08,81793.6,-0.00905232,0.141351,-0,0.141641,-12684.7,-21442,-0,24913,81793.6
step02_gravity_refstate-crust.xmf,281,3.25807e-07,1.23362e-06,0,1.03125e-06,-5.31916e+08,-5.31854e+08,-5.31938e+08,70743.7,-0.00776887,0.145688,-0,0.145895,-11774.1,-19368.2,-0,22666.2,70743.7
step02_gravity_refstate-crust.xmf,282,4.06248e-07,8.62068e-07,0,7.15755e-07,-4.16226e+08,-4.16195e+08,-4.16254e+08,49100.8,-0.00546015,0.153067,-0,0.153164,-9580.63,-15156.1,-0,17930.3,49100.8
step02_gravity_refstate-crust.xmf,283,4.88593e-07,4.47099e-07,0,3.06273e-07,-2.55866e+08,-2.55868e+08,-2.55899e+08,21010.3,-0.0029355,0.160342,-0,0.160369,-5545.71,-9317.71,-0,10843.2,21010.3
step02_gravity_refstate-crust.xmf,284,4.37874e-07,7.09962e-07,0,5.64395e-07,-3.62337e+08,-3.62318e+08,-3.62367e+08,38717.5,-0.00446088,0.156074,-0,0.156138,-8189.12,-13194.1,-0,15528.9,38717.5
step02_gravity_refstate-crust.xmf,285,4.64448e-07,5.7601e-07,0,4.25826e-07,-3.10611e+08,-3.10604e+08,-3.10643e+08,29211.6,-0.00360268,0.158484,-0,0.158525,-6784.85,-11310.9,-0,13189.8,29211.6
step02_gravity_refstate-crust.xmf,286,5.22724e-07,4.27025e-07,0,1.88332e-07,-2.63618e+08,-2.63624e+08,-2.63653e+08,12919.6,-0.00178098,0.161326,-0,0.161336,-3273.7,-9600.04,-0,10142.9,12919.6
step02_gravity_refstate-crust.xmf,287,5.43226e-07,4.17831e-07,0,6.68023e-08,-2.67828e+08,-2.67837e+08,-2.67866e+08,4582.63,-0.000618167,0.161798,-0,0.161799,-1121.88,-9753.41,-0,9817.72,4582.63
step02_gravity_refstate-crust.xmf,288,5.42796e-07,4.15719e-07,0,-6.96926e-08,-2.66725e+08,-2.66734e+08,-2.66762e+08,-4780.91,0.000653046,0.161806,0,0.161807,1185.15,-9713.24,0,9785.27,4780.91
step02_gravity_refstate-crust.xmf,289,5.16733e-07,4.39825e-07,0,-2.16079e-07,-2.68334e+08,-2.68339e+08,-2.68369e+08,-14823,0.00201352,0.161079,0,0.161091,3712.79,-9771.73,0,10453.3,14823
step02_gravity_refstate-crust.xmf,290,-7.54647e-07,3.64317e-06,0,1.29104e-06,-8.68887e+08,-8.68585e+08,-8.68835e+08,88565.6,-0.0120314,0.09717,-0,0.097912,-20818.6,-31635.3,-0,37870.9,88565.6
step02_gravity_refstate-crust.xmf,291,-7.03554e-07,3.53198e-06,0,1.49581e-06,-8.71173e+08,-8.70882e+08,-8.71124e+08,102612,-0.0132772,0.101267,-0,0.102134,-19136,-31718.5,-0,37043.9,102612
step02_gravity_refstate-crust.xmf,292,-6.12168e-07,3.3595e-06,0,1.70453e-06,-8.72874e+08,-8.72601e+08,-8.72832e+08,116931,-0.0144191,0.105945,-0,0.106922,-17446.9,-31780.6,-0,36254.6,116931
step02_gravity_refstate-crust.xmf,293,-2.33375e-07,4.20377e-06,0,1.65956e-08,-1.03624e+09,-1.03594e+09,-1.03623e+09,1138.46,-0.000768655,0.0523891,-0,0.0523948,-36306.2,-37731,-0,52361.9,1138.46
step02_gravity_refstate-crust.xmf,294,-3.92908e-07,4.1069e-06,0,9.87142e-08,-9.83471e+08,-9.83163e+08,-9.83444e+08,6771.8,-0.00183944,0.0610264,-0,0.0610541,-34592.1,-35809,-0,49788.6,6771.8
step02_gravity_refstate-crust.xmf,295,-4.66105e-07,4.19049e-06,0,1.54919e-07,-9.88641e+08,-9.88322e+08,-9.88609e+08,10627.4,-0.00273887,0.0615746,-0,0.0616355,-32343.9,-35997.1,-0,48393.4,10627.4
step02_gravity_refstate-crust.xmf,296,7.48129e-08,2.03798e-06,0,1.61858e-06,-7.35599e+08,-7.35465e+08,-7.35604e+08,111035,-0.0125039,0.129737,-0,0.130338,-13788.9,-26783.7,-0,30124.7,111035
step02_gravity_refstate-crust.xmf,297,-4.64955e-07,3.11297e-06,0,1.9001e-06,-8.72739e+08,-8.72494e+08,-8.72707e+08,130347,-0.0153271,0.111202,-0,0.112254,-15785.3,-31775.9,-0,35480.8,130347
step02_gravity_refstate-crust.xmf,298,3.42036e-07,2.93421e-07,0,-3.53971e-07,-1.48836e+08,-1.48839e+08,-1.48859e+08,-24282.4,0.00589224,0.156911,0,0.157022,11527.4,-5420.35,0,12738.2,24282.4
step02_gravity_refstate-crust.xmf,299,-9.65818e-08,2.43101e-07,0,-1.99002e-07,-6.56698e+07,-6.56465e+07,-6.56632e+07,-13651.6,0.00882063,0.146896,0,0.147161,21310.4,-2390.76,0,21444.1,13651.6
step02_gravity_refstate-crust.xmf,300,-2.25376e-07,8.63917e-08,0,-3.59964e-09,-21372.1,15.1922,-5911.28,-246.935,0.0106222,0.145564,0,0.145951,22931.2,0,0,22931.2,246.935
step02_gravity_refstate-crust.xmf,301,-2.54217e-07,3.17018e-07,0,-1.87952e-07,-6.88087e+07,-6.87695e+07,-6.87912e+07,-12893.5,0.00816479,0.143467,0,0.143699,24487,-2504.51,0,24614.8,12893.5
step02_gravity_refstate-crust.xmf,302,-4.14891e-07,1.58536e-07,0,-3.54639e-09,-39364.8,-27.7159,-10903.3,-243.282,0.00954589,0.142423,0,0.142743,26179,0,0,26179,243.282
step02_gravity_refstate-crust.xmf,303,-4.12765e-07,3.96502e-07,0,-1.71065e-07,-7.56286e+07,-7.55731e+07,-7.56003e+07,-11735,0.0068047,0.139976,0,0.140142,28071.3,-2752.28,0,28205.9,11735
step02_gravity_refstate-crust.xmf,304,-5.82911e-07,2.22989e-07,0,-3.91096e-10,-55295.9,-11.1422,-15308.2,-26.8292,0.00785165,0.139677,0,0.139897,29500.3,0,0,29500.3,26.8292
step02_gravity_refstate-crust.xmf,305,-5.59358e-07,3.78739e-07,0,-9.66281e-08,-5.24542e+07,-5.23898e+07,-5.24158e+07,-6628.69,0.00572157,0.137908,0,0.138027,31202.5,-1907.97,0,31260.8,6628.69
step02_gravity_refstate-crust.xmf,306,-7.21463e-07,2.71856e-07,0,-6.27742e-09,-68615.1,-473.364,-19122.7,-430.631,0.00560813,0.137512,0,0.137626,32904.6,0,0,32904.6,430.631
step02_gravity_refstate-crust.xmf,307,4.42816e-07,3.83584e-07,0,-3.36287e-07,-2.12502e+08,-2.12506e+08,-2.12532e+08,-23069.3,0.00385635,0.159736,0,0.159782,7412.7,-7738.72,0,10716.1,23069.3
step02_gravity_refstate-crust.xmf,308,4.74602e-07,4.8156e-07,0,-3.46865e-07,-2.70684e+08,-2.70684e+08,-2.70717e+08,-23794.9,0.00322861,0.159713,0,0.159746,6141.89,-9857.21,0,11614.1,23794.9
step02_gravity_refstate-crust.xmf,309,-6.58222e-07,3.99477e-06,0,4.40824e-07,-9.16129e+08,-9.1581e+08,-9.16084e+08,30240.5,-0.00550163,0.0753945,-0,0.0755949,-29155.4,-33356.1,-0,44302,30240.5
step02_gravity_refstate-crust.xmf,310,-7.36103e-07,4.01405e-06,0,6.04235e-07,-9.11521e+08,-9.11195e+08,-9.1147e+08,41450.5,-0.00700445,0.0788334,-0,0.0791439,-27063.6,-33188.1,-0,42823.9,41450.5
step02_gravity_refstate-crust.xmf,311,-7.95291e-07,4.01648e-06,0,7.79322e-07,-9.09236e+08,-9.08906e+08,-9.09181e+08,53461.5,-0.00849629,0.0822976,-0,0.082735,-25137.9,-33104.6,-0,41567.2,53461.5
step02_gravity_refstate-crust.xmf,312,-8.37656e-07,4.00509e-06,0,9.67193e-07,-9.0945e+08,-9.09118e+08,-9.09393e+08,66349.5,-0.00997072,0.0857603,-0,0.086338,-23330,-33112.3,-0,40505.7,66349.5
step02_gravity_refstate-crust.xmf,313,-8.61622e-07,3.97799e-06,0,1.16432e-06,-9.12112e+08,-9.1178e+08,-9.12053e+08,79872.4,-0.0113984,0.0891667,-0,0.0898922,-21640,-33209,-0,39637.4,79872.4
step02_gravity_refstate-crust.xmf,314,-5.92529e-07,4.19285e-06,0,2.88103e-07,-9.69318e+08,-9.6899e+08,-9.69277e+08,19763.9,-0.0042305,0.066454,-0,0.0665885,-30072,-35293.1,-0,46367.3,19763.9
step02_gravity_refstate-crust.xmf,315,2.62625e-07,1.70803e-06,0,1.48618e-06,-6.93488e+08,-6.93389e+08,-6.93506e+08,101952,-0.0112511,0.135838,-0,0.136303,-12458.1,-25250.8,-0,28156.9,101952
step02_gravity_refstate-crust.xmf,316,1.16544e-07,2.07776e-06,0,1.75865e-06,-7.73297e+08,-7.73162e+08,-7.73305e+08,120643,-0.0133917,0.128878,-0,0.129572,-13051.3,-28156.3,-0,31034.1,120643
step02_gravity_refstate-crust.xmf,317,5.54648e-09,2.30761e-06,0,1.89274e-06,-8.11323e+08,-8.11165e+08,-8.11324e+08,129842,-0.0144293,0.124881,-0,0.125712,-13385.3,-29540.6,-0,32431.7,129842
step02_gravity_refstate-crust.xmf,318,-2.86516e-07,2.83061e-06,0,2.07261e-06,-8.74195e+08,-8.73982e+08,-8.74176e+08,142181,-0.0159604,0.11639,-0,0.117479,-14199.3,-31829.2,-0,34852.8,142181
step02_gravity_refstate-crust.xmf,319,3.65814e-07,4.40321e-07,0,-4.23547e-07,-2.15104e+08,-2.15098e+08,-2.15129e+08,-29055.3,0.00486098,0.157612,0,0.157687,9880.04,-7833.22,0,12608.5,29055.3
step02_gravity_refstate-crust.xmf,320,2.32975e-07,2.85582e-07,0,-3.44212e-07,-1.26592e+08,-1.26589e+08,-1.26608e+08,-23612.9,0.00702159,0.154102,0,0.154262,14423.9,-4610.1,0,15142.7,23612.9
step02_gravity_refstate-crust.xmf,321,-5.89436e-07,4.69801e-07,0,-8.84592e-08,-7.58414e+07,-7.57687e+07,-7.58009e+07,-6068.3,0.00360019,0.135804,0,0.135852,34312.9,-2759.42,0,34423.6,6068.3
step02_gravity_refstate-crust.xmf,322,1.11792e-07,3.45936e-07,0,-3.6085e-07,-1.27538e+08,-1.27522e+08,-1.27546e+08,-24754.3,0.00746072,0.151131,0,0.151315,17030.6,-4644.15,0,17652.5,24754.3
step02_gravity_refstate-crust.xmf,323,-1.84623e-08,4.15558e-07,0,-3.64259e-07,-1.30459e+08,-1.30429e+08,-1.30458e+08,-24988.2,0.00754309,0.147803,0,0.147995,19835.2,-4750.06,0,20396,24988.2
step02_gravity_refstate-crust.xmf,324,4.97209e-07,8.44295e-07,0,6.93814e-07,-4.52609e+08,-4.52585e+08,-4.52643e+08,47595.7,-0.00517022,0.153579,-0,0.153666,-8131.6,-16481,-0,18377.9,47595.7
step02_gravity_refstate-crust.xmf,325,4.70382e-07,1.08592e-06,0,9.64045e-07,-5.42978e+08,-5.42936e+08,-5.4301e+08,66133.5,-0.00714838,0.148337,-0,0.148509,-9766.42,-19771.2,-0,22051.9,66133.5
step02_gravity_refstate-crust.xmf,326,3.64118e-07,1.44815e-06,0,1.29319e-06,-6.3856e+08,-6.38486e+08,-6.38585e+08,88712.9,-0.00971245,0.140895,-0,0.14123,-11558.8,-23251.1,-0,25965.8,88712.9
step02_gravity_refstate-crust.xmf,327,4.27061e-07,1.24841e-06,0,1.12062e-06,-5.88368e+08,-5.88312e+08,-5.88397e+08,76874.5,-0.00835427,0.144943,-0,0.145183,-10692.1,-21423.8,-0,23943.7,76874.5
step02_gravity_refstate-crust.xmf,328,5.07454e-07,7.37691e-07,0,5.62097e-07,-4.08961e+08,-4.08945e+08,-4.08996e+08,38559.8,-0.00426088,0.155878,-0,0.155936,-7089.28,-14891.8,-0,16493.2,38559.8
step02_gravity_refstate-crust.xmf,329,5.23827e-07,5.37615e-07,0,3.04247e-07,-3.183e+08,-3.18299e+08,-3.18336e+08,20871.3,-0.00251029,0.159802,-0,0.159822,-4531.44,-11591,-0,12445.3,20871.3
step02_gravity_refstate-crust.xmf,330,5.20628e-07,6.3513e-07,0,4.26839e-07,-3.66124e+08,-3.66116e+08,-3.6616e+08,29281.2,-0.00332847,0.158007,-0,0.158042,-5779.58,-13332.2,-0,14531,29281.2
step02_gravity_refstate-crust.xmf,331,5.57122e-07,5.1116e-07,0,1.5401e-07,-3.25417e+08,-3.2542e+08,-3.25455e+08,10565.1,-0.00126959,0.160604,-0,0.160609,-2225.58,-11850.2,-0,12057.4,10565.1
step02_gravity_refstate-crust.xmf,332,5.69689e-07,5.00905e-07,0,-6.93824e-09,-3.26395e+08,-3.264e+08,-3.26434e+08,-475.964,5.81897e-05,0.160889,0,0.160889,101.076,-11885.8,0,11886.2,475.964
step02_gravity_refstate-crust.xmf,333,5.55511e-07,5.14641e-07,0,-1.69645e-07,-3.26631e+08,-3.26634e+08,-3.26669e+08,-11637.6,0.00139646,0.160517,0,0.160523,2448.64,-11894.4,0,12143.8,11637.6
step02_gravity_refstate-crust.xmf,334,5.14526e-07,5.56382e-07,0,-3.29896e-07,-3.28306e+08,-3.28303e+08,-3.28342e+08,-22630.8,0.00271869,0.159408,0,0.159431,4881.38,-11955.3,0,12913.4,22630.8
step02_gravity_refstate-crust.xmf,335,-8.0372e-07,3.03115e-07,0,-2.31984e-09,-76426.9,-498.013,-21291.7,-159.141,0.00294446,0.136107,0,0.136139,36401.3,0,0,36401.3,159.141
step02_gravity_refstate-crust.xmf,336,-8.5933e-07,3.8964e-06,0,1.38221e-06,-9.12807e+08,-9.12481e+08,-9.12748e+08,94819.7,-0.0128369,0.0933483,-0,0.0942268,-19970,-33234.2,-0,38772.6,94819.7
step02_gravity_refstate-crust.xmf,337,-7.97363e-07,3.74878e-06,0,1.62553e-06,-9.12113e+08,-9.11801e+08,-9.12058e+08,111511,-0.0142374,0.09832,-0,0.0993455,-18283.6,-33209,-0,37909.4,111511
step02_gravity_refstate-crust.xmf,338,-6.84687e-07,3.52752e-06,0,1.87693e-06,-9.11831e+08,-9.11542e+08,-9.11784e+08,128757,-0.0155282,0.103901,-0,0.105055,-16560.6,-33198.8,-0,37100.1,128757
step02_gravity_refstate-crust.xmf,339,-2.75813e-07,4.29309e-06,0,2.06864e-08,-1.0481e+09,-1.04779e+09,-1.04808e+09,1419.09,-0.00119363,0.0513797,-0,0.0513935,-34073.8,-38162.6,-0,51160.6,1419.09
step02_gravity_refstate-crust.xmf,340,-5.02046e-07,4.33502e-06,0,1.60233e-07,-1.01527e+09,-1.01494e+09,-1.01524e+09,10992,-0.0030683,0.0586977,-0,0.0587778,-30733.6,-36966.7,-0,48073.8,10992
step02_gravity_refstate-crust.xmf,341,2.47556e-07,1.81288e-06,0,1.61906e-06,-7.33654e+08,-7.33547e+08,-7.33671e+08,111068,-0.0122203,0.133546,-0,0.134104,-12345,-26713.2,-0,29427.8,111068
step02_gravity_refstate-crust.xmf,342,-8.62307e-08,2.497e-06,0,2.02745e-06,-8.45899e+08,-8.45721e+08,-8.45893e+08,139083,-0.0153621,0.121715,-0,0.122681,-13433,-30799.3,-0,33601.2,139083
step02_gravity_refstate-crust.xmf,343,-5.08168e-07,3.22594e-06,0,2.10062e-06,-9.09883e+08,-9.09627e+08,-9.09848e+08,144102,-0.0164813,0.10985,-0,0.111079,-14935.4,-33128.1,-0,36339.2,144102
step02_gravity_refstate-crust.xmf,344,2.71554e-07,5.27456e-07,0,-5.09432e-07,-2.25574e+08,-2.25557e+08,-2.25593e+08,-34947.1,0.00565489,0.154784,0,0.154888,12459.8,-8214.18,0,14923.8,34947.1
step02_gravity_refstate-crust.xmf,345,-1.48389e-07,4.83469e-07,0,-3.47728e-07,-1.33013e+08,-1.3297e+08,-1.33003e+08,-23854.1,0.00724701,0.144369,0,0.144551,22778.2,-4842.63,0,23287.3,23854.1
step02_gravity_refstate-crust.xmf,346,-2.65861e-07,5.51559e-07,0,-3.16756e-07,-1.3747e+08,-1.37414e+08,-1.37452e+08,-21729.5,0.00654767,0.141091,0,0.141243,25751.8,-5004.51,0,26233.6,21729.5
step02_gravity_refstate-crust.xmf,347,-4.4841e-07,5.85137e-07,0,-1.97089e-07,-1.24712e+08,-1.24641e+08,-1.24681e+08,-13520.3,0.00469681,0.136634,0,0.136715,31211.3,-4539.34,0,31539.7,13520.3
step02_gravity_refstate-crust.xmf,348,3.98605e-07,5.45637e-07,0,-4.59624e-07,-2.73351e+08,-2.73341e+08,-2.73378e+08,-31530.2,0.00429862,0.15776,0,0.157818,8572.17,-9954.07,0,13136.4,31530.2
step02_gravity_refstate-crust.xmf,349,5.12167e-07,9.38779e-07,0,8.09133e-07,-5.02293e+08,-5.02264e+08,-5.02329e+08,55506.5,-0.00598171,0.151427,-0,0.151545,-8596.36,-18290,-0,20209.5,55506.5
step02_gravity_refstate-crust.xmf,350,4.55884e-07,6.18473e-07,0,-4.73355e-07,-3.30941e+08,-3.3093e+08,-3.30972e+08,-32472.1,0.00389925,0.157647,0,0.157695,7279.48,-12051,0,14079,32472.1
step02_gravity_refstate-crust.xmf,351,-6.5697e-07,4.70282e-07,0,-3.36755e-08,-6.77581e+07,-6.76807e+07,-6.7713e+07,-2310.14,0.00166254,0.134902,0,0.134913,37496.9,-2464.87,0,37577.8,2310.14
step02_gravity_refstate-crust.xmf,352,-8.13214e-07,3.05918e-07,0,3.70455e-09,-77362.8,-590.353,-21576.3,254.132,1.24035e-19,0.13561,0,0.13561,40000,0,0,40000,254.132
step02_gravity_refstate-crust.xmf,353,-6.9844e-07,4.2333e-06,0,4.29719e-07,-9.62506e+08,-9.62168e+08,-9.62458e+08,29478.7,-0.00568978,0.0699026,-0,0.0701338,-27975.3,-35044.7,-0,44841.4,29478.7
step02_gravity_refstate-crust.xmf,354,-8.0353e-07,4.28176e-06,0,6.02543e-07,-9.59498e+08,-9.59149e+08,-9.59443e+08,41334.5,-0.00725974,0.0733308,-0,0.0736893,-25942.4,-34934.9,-0,43513.8,41334.5
step02_gravity_refstate-crust.xmf,355,-8.86248e-07,4.30311e-06,0,7.97897e-07,-9.57399e+08,-9.57043e+08,-9.57338e+08,54735.7,-0.00889708,0.0770718,-0,0.0775837,-24036.5,-34858.1,-0,42342,54735.7
step02_gravity_refstate-crust.xmf,356,-9.4136e-07,4.27861e-06,0,1.01544e-06,-9.5379e+08,-9.53432e+08,-9.53725e+08,69659,-0.0105303,0.0813442,-0,0.082023,-22300.1,-34726.5,-0,41270.1,69659
step02_gravity_refstate-crust.xmf,357,-9.73145e-07,4.2342e-06,0,1.24688e-06,-9.53273e+08,-9.52916e+08,-9.53207e+08,85536,-0.0121233,0.0855327,-0,0.0863876,-20646.8,-34707.5,-0,40384.4,85536
step02_gravity_refstate-crust.xmf,358,-3.68443e-07,4.38173e-06,0,5.20698e-08,-1.04938e+09,-1.04905e+09,-1.04935e+09,3571.99,-0.00185806,0.0523585,-0,0.0523915,-31950.8,-38209,-0,49807.4,3571.99
step02_gravity_refstate-crust.xmf,359,-6.13582e-07,4.39919e-06,0,2.56322e-07,-1.01048e+09,-1.01014e+09,-1.01044e+09,17583.7,-0.00418696,0.0612393,-0,0.0613823,-28901,-36792,-0,46785.8,17583.7
step02_gravity_refstate-crust.xmf,360,4.91779e-07,1.38818e-06,0,1.38391e-06,-6.82737e+08,-6.82675e+08,-6.82771e+08,94936.6,-0.0102272,0.140955,-0,0.141325,-10419.6,-24859.9,-0,26955.2,94936.6
step02_gravity_refstate-crust.xmf,361,3.14184e-07,1.79929e-06,0,1.74255e-06,-7.6751e+08,-7.67408e+08,-7.67532e+08,119539,-0.0129364,0.133114,-0,0.133741,-11661.7,-27946,-0,30281.6,119539
step02_gravity_refstate-crust.xmf,362,4.2276e-07,1.57089e-06,0,1.56537e-06,-7.26219e+08,-7.2614e+08,-7.26248e+08,107384,-0.0115804,0.13729,-0,0.137778,-11012.8,-26442.9,-0,28644.5,107384
step02_gravity_refstate-crust.xmf,363,1.96655e-07,2.01277e-06,0,1.8701e-06,-7.98252e+08,-7.98127e+08,-7.98265e+08,128289,-0.0139507,0.129386,-0,0.130136,-12226.7,-29065.1,-0,31532.1,128289
step02_gravity_refstate-crust.xmf,364,1.62919e-07,2.13046e-06,0,2.03963e-06,-8.34782e+08,-8.34647e+08,-8.34793e+08,139919,-0.0149859,0.12726,-0,0.12814,-12026.3,-30395,-0,32687.8,139919
step02_gravity_refstate-crust.xmf,365,-3.65053e-08,2.47119e-06,0,2.1983e-06,-8.74006e+08,-8.73834e+08,-8.74003e+08,150803,-0.016209,0.121909,-0,0.122981,-12639,-31822.7,-0,34240.8,150803
step02_gravity_refstate-crust.xmf,366,-2.76006e-07,2.85951e-06,0,2.27989e-06,-9.06258e+08,-9.06043e+08,-9.06239e+08,156401,-0.0170176,0.116079,-0,0.11732,-13373.7,-32996.6,-0,35603.8,156401
step02_gravity_refstate-crust.xmf,367,2.29227e-07,4.42728e-07,0,-4.55541e-07,-1.82894e+08,-1.82879e+08,-1.8291e+08,-31250.1,0.0062547,0.153935,0,0.154062,13901,-6660.05,0,15414.1,31250.1
step02_gravity_refstate-crust.xmf,368,3.12769e-07,6.23945e-07,0,-5.53794e-07,-2.7744e+08,-2.77419e+08,-2.77462e+08,-37990.3,0.00518756,0.155252,0,0.155339,11026.7,-10102.7,0,14955.1,37990.3
step02_gravity_refstate-crust.xmf,369,1.37049e-07,5.18601e-07,0,-4.89061e-07,-1.90573e+08,-1.90547e+08,-1.90582e+08,-33549.6,0.00657849,0.151352,0,0.151494,16002.4,-6939.36,0,17442.2,33549.6
step02_gravity_refstate-crust.xmf,370,-3.48482e-07,6.21671e-07,0,-2.86773e-07,-1.47291e+08,-1.47225e+08,-1.47267e+08,-19672.6,0.00562761,0.138457,0,0.138571,28285.9,-5361.83,0,28789.6,19672.6
step02_gravity_refstate-crust.xmf,371,-4.89141e-07,6.82462e-07,0,-1.53913e-07,-1.46758e+08,-1.46677e+08,-1.46724e+08,-10558.5,0.00313582,0.134427,0,0.134464,34071.1,-5341.94,0,34487.3,10558.5
step02_gravity_refstate-crust.xmf,372,2.85448e-08,5.89188e-07,0,-5.00142e-07,-1.93506e+08,-1.93468e+08,-1.93508e+08,-34309.7,0.00676575,0.148186,0,0.14834,18556,-7045.82,0,19848.7,34309.7
step02_gravity_refstate-crust.xmf,373,-8.28053e-08,6.6231e-07,0,-4.89163e-07,-1.96836e+08,-1.96785e+08,-1.9683e+08,-33556.6,0.00665925,0.144786,0,0.144939,21277,-7166.69,0,22451.6,33556.6
step02_gravity_refstate-crust.xmf,374,5.8658e-07,7.37321e-07,0,5.37314e-07,-4.49512e+08,-4.49502e+08,-4.49552e+08,36859.8,-0.00397664,0.155765,-0,0.155816,-5982.38,-16368.4,-0,17427.4,36859.8
step02_gravity_refstate-crust.xmf,375,5.97281e-07,8.24723e-07,0,6.74784e-07,-4.94531e+08,-4.94516e+08,-4.94572e+08,46290.2,-0.00494779,0.153625,-0,0.153704,-6901.48,-18007.6,-0,19284.8,46290.2
step02_gravity_refstate-crust.xmf,376,6.01933e-07,9.28864e-07,0,8.3316e-07,-5.42959e+08,-5.42936e+08,-5.43e+08,57154.8,-0.00609838,0.151042,-0,0.151165,-7809.29,-19770.8,-0,21257.2,57154.8
step02_gravity_refstate-crust.xmf,377,5.85812e-07,1.05528e-06,0,1.00669e-06,-5.89332e+08,-5.893e+08,-5.89372e+08,69059.1,-0.00738345,0.14808,-0,0.148264,-8739.79,-21459.2,-0,23170.7,69059.1
step02_gravity_refstate-crust.xmf,378,5.51414e-07,1.20525e-06,0,1.18968e-06,-6.35751e+08,-6.35706e+08,-6.35789e+08,81611.9,-0.00875731,0.144755,-0,0.14502,-9600.38,-23149.3,-0,25061,81611.9
step02_gravity_refstate-crust.xmf,379,5.76502e-07,6.61152e-07,0,4.14963e-07,-4.09805e+08,-4.09799e+08,-4.09844e+08,28466.4,-0.00314069,0.15751,-0,0.157541,-5013.46,-14922.7,-0,15742.4,28466.4
step02_gravity_refstate-crust.xmf,380,5.84594e-07,5.99025e-07,0,2.8053e-07,-3.84772e+08,-3.84771e+08,-3.84812e+08,19244.3,-0.00213583,0.158946,-0,0.15896,-3489.54,-14011.3,-0,14439.3,19244.3
step02_gravity_refstate-crust.xmf,381,6.14506e-07,5.6351e-07,0,8.16482e-08,-3.83308e+08,-3.83312e+08,-3.8335e+08,5601.07,-0.000624698,0.159718,-0,0.159719,-1005.48,-13958.1,-0,13994.2,5601.07
step02_gravity_refstate-crust.xmf,382,6.1308e-07,5.65977e-07,0,-1.04693e-07,-3.83767e+08,-3.8377e+08,-3.83809e+08,-7181.97,0.000805043,0.159664,0,0.159666,1296.33,-13974.8,0,14034.8,7181.97
step02_gravity_refstate-crust.xmf,383,5.81669e-07,6.00328e-07,0,-2.89193e-07,-3.84559e+08,-3.84558e+08,-3.84599e+08,-19838.6,0.00222557,0.158878,0,0.158893,3643.76,-14003.6,0,14469.8,19838.6
step02_gravity_refstate-crust.xmf,384,5.21837e-07,6.66667e-07,0,-4.61065e-07,-3.86596e+08,-3.86586e+08,-3.86632e+08,-31629,0.00356176,0.157344,0,0.157384,6021.55,-14077.6,0,15311.3,31629
step02_gravity_refstate-crust.xmf,385,-5.38132e-07,6.78082e-07,0,-8.25441e-08,-1.41121e+08,-1.41037e+08,-1.41084e+08,-5662.53,0.00170864,0.133512,0,0.133523,36881.2,-5136.51,0,37237.2,5662.53
step02_gravity_refstate-crust.xmf,386,-6.13755e-07,5.4472e-07,0,1.8405e-09,-9.53621e+07,-9.52827e+07,-9.532e+07,126.258,1.22359e-19,0.134133,0,0.134133,40000,-3470.11,0,40150.2,126.258
step02_gravity_refstate-crust.xmf,387,-9.71039e-07,4.12778e-06,0,1.50553e-06,-9.51986e+08,-9.51637e+08,-9.5192e+08,103279,-0.0137463,0.0904614,-0,0.0914999,-18986.1,-34660.5,-0,39519.9,103279
step02_gravity_refstate-crust.xmf,388,-9.08859e-07,3.9692e-06,0,1.79098e-06,-9.52064e+08,-9.51729e+08,-9.52002e+08,122861,-0.015306,0.095782,-0,0.0969972,-17334.5,-34663.3,-0,38756,122861
step02_gravity_refstate-crust.xmf,389,-7.75326e-07,3.69553e-06,0,2.1295e-06,-9.53692e+08,-9.53385e+08,-9.53639e+08,146084,-0.016907,0.102312,-0,0.103699,-15475.8,-34722.7,-0,38015.3,146084
step02_gravity_refstate-crust.xmf,390,-4.84821e-07,4.50348e-06,0,9.9146e-08,-1.05432e+09,-1.05397e+09,-1.05428e+09,6801.42,-0.00263352,0.0531591,-0,0.0532243,-29872,-38388.4,-0,48641.6,6801.42
step02_gravity_refstate-crust.xmf,391,-5.13627e-07,3.25006e-06,0,2.33427e-06,-9.40237e+08,-9.39979e+08,-9.40202e+08,160131,-0.017655,0.110086,-0,0.111493,-13940.7,-34233.2,-0,36962.9,160131
step02_gravity_refstate-crust.xmf,392,2.16658e-07,7.13885e-07,0,-6.26709e-07,-2.82769e+08,-2.82735e+08,-2.82784e+08,-42992.3,0.00585348,0.152292,0,0.152405,13493.7,-10296.5,0,16973.4,42992.3
step02_gravity_refstate-crust.xmf,393,1.59985e-07,6.55913e-07,0,-5.86507e-07,-2.45507e+08,-2.45473e+08,-2.45518e+08,-40234.3,0.00616514,0.151299,0,0.151424,15073.1,-8939.6,0,17524.7,40234.3
step02_gravity_refstate-crust.xmf,394,-1.87703e-07,7.26885e-07,0,-4.53566e-07,-1.98904e+08,-1.98842e+08,-1.98891e+08,-31114.6,0.00625555,0.141473,0,0.141612,24062,-7241.68,0,25128.1,31114.6
step02_gravity_refstate-crust.xmf,395,-2.79952e-07,7.87151e-07,0,-4.00741e-07,-2.02005e+08,-2.01932e+08,-2.01986e+08,-27490.8,0.00556359,0.138403,0,0.138515,26857.8,-7354.28,0,27846.4,27490.8
step02_gravity_refstate-crust.xmf,396,-3.58533e-07,8.23132e-07,0,-3.2682e-07,-2.00613e+08,-2.00532e+08,-2.00588e+08,-22419.9,0.00465118,0.135848,0,0.135928,29688,-7303.34,0,30573.2,22419.9
step02_gravity_refstate-crust.xmf,397,-4.21731e-07,8.53267e-07,0,-2.4005e-07,-2.0026e+08,-2.00173e+08,-2.00231e+08,-16467.4,0.00348825,0.133732,0,0.133777,32622.1,-7290.29,0,33426.8,16467.4
step02_gravity_refstate-crust.xmf,398,3.68142e-07,7.03447e-07,0,-5.87596e-07,-3.33048e+08,-3.33025e+08,-3.33073e+08,-40309.1,0.0048926,0.155356,0,0.155433,9656.53,-12127.5,0,15502.4,40309.1
step02_gravity_refstate-crust.xmf,399,2.76798e-07,7.91107e-07,0,-6.70798e-07,-3.34251e+08,-3.34216e+08,-3.3427e+08,-46016.8,0.00564146,0.152753,0,0.152857,11938.8,-12171.1,0,17049,46016.8
step02_gravity_refstate-crust.xmf,400,4.43643e-07,7.5233e-07,0,-6.0804e-07,-3.88502e+08,-3.88481e+08,-3.88533e+08,-41711.5,0.00470878,0.155212,0,0.155283,8357.54,-14146.8,0,16431.1,41711.5
step02_gravity_refstate-crust.xmf,401,-7.46145e-07,4.48303e-06,0,3.96283e-07,-1.0078e+09,-1.00744e+09,-1.00774e+09,27185,-0.00564041,0.0642377,-0,0.0644849,-26848.8,-36693.7,-0,45467.5,27185
step02_gravity_refstate-crust.xmf,402,-8.98526e-07,4.58989e-06,0,5.82176e-07,-1.00996e+09,-1.00958e+09,-1.0099e+09,39937.3,-0.00731835,0.0672434,-0,0.0676405,-24736.3,-36772.1,-0,44317.8,39937.3
step02_gravity_refstate-crust.xmf,403,-9.95064e-07,4.55766e-06,0,8.35056e-07,-9.96316e+08,-9.95935e+08,-9.96248e+08,57284.9,-0.00937225,0.0732353,-0,0.0738326,-22861.8,-36274.9,-0,42878.1,57284.9
step02_gravity_refstate-crust.xmf,404,-1.06185e-06,4.54349e-06,0,1.07585e-06,-9.92637e+08,-9.92252e+08,-9.92564e+08,73803,-0.0110881,0.0776525,-0,0.0784402,-21255.4,-36140.7,-0,41927.8,73803
step02_gravity_refstate-crust.xmf,405,-1.10142e-06,4.48797e-06,0,1.3456e-06,-9.90516e+08,-9.90132e+08,-9.9044e+08,92308.2,-0.0128581,0.0824297,-0,0.0834266,-19648.5,-36063.2,-0,41068.4,92308.2
step02_gravity_refstate-crust.xmf,406,-6.30775e-07,4.62038e-06,0,1.9277e-07,-1.05339e+09,-1.05303e+09,-1.05335e+09,13224,-0.00377633,0.0553557,-0,0.0554844,-27866.9,-38354.3,-0,47409,13224
step02_gravity_refstate-crust.xmf,407,6.97347e-07,1.11955e-06,0,1.25021e-06,-6.79548e+08,-6.79519e+08,-6.79596e+08,85764.3,-0.00904468,0.144839,-0,0.145121,-8552.6,-24744.2,-0,26180.6,85764.3
step02_gravity_refstate-crust.xmf,408,6.40635e-07,1.28396e-06,0,1.46675e-06,-7.22857e+08,-7.22812e+08,-7.229e+08,100619,-0.0106023,0.141359,-0,0.141756,-9335.03,-26320.9,-0,27927.3,100619
step02_gravity_refstate-crust.xmf,409,3.9301e-07,1.75849e-06,0,1.88187e-06,-8.00601e+08,-8.00508e+08,-8.00628e+08,129097,-0.0136463,0.132955,-0,0.133654,-10958.9,-29151,-0,31142.9,129097
step02_gravity_refstate-crust.xmf,410,5.4056e-07,1.49597e-06,0,1.68305e-06,-7.6351e+08,-7.63445e+08,-7.63547e+08,115457,-0.0121725,0.137402,-0,0.13794,-10135.2,-27800.9,-0,29590.7,115457
step02_gravity_refstate-crust.xmf,411,2.52303e-07,2.06702e-06,0,2.25353e-06,-8.71954e+08,-8.71829e+08,-8.71971e+08,154592,-0.0159843,0.127432,-0,0.12843,-11145.6,-31748.6,-0,33648.1,154592
step02_gravity_refstate-crust.xmf,412,-2.46551e-07,2.83452e-06,0,2.48393e-06,-9.32377e+08,-9.32166e+08,-9.32361e+08,170398,-0.0179521,0.116346,-0,0.117723,-12626.8,-33947.5,-0,36219.8,170398
step02_gravity_refstate-crust.xmf,413,7.71283e-09,2.44757e-06,0,2.41635e-06,-9.06336e+08,-9.06168e+08,-9.06336e+08,165761,-0.0172258,0.12193,-0,0.123141,-11863,-32999.9,-0,35067.4,165761
step02_gravity_refstate-crust.xmf,414,6.35741e-08,7.53988e-07,0,-6.14639e-07,-2.55263e+08,-2.55216e+08,-2.55268e+08,-42164.2,0.00640114,0.148172,0,0.14831,17361.9,-9294.54,0,19693.2,42164.2
step02_gravity_refstate-crust.xmf,415,-4.66937e-07,8.65091e-07,0,-1.62021e-07,-1.98007e+08,-1.97915e+08,-1.97975e+08,-11114.6,0.00240462,0.132534,0,0.132556,35062.4,-7208.08,0,35795.6,11114.6
step02_gravity_refstate-crust.xmf,416,-3.86721e-08,8.34879e-07,0,-6.10817e-07,-2.58297e+08,-2.58237e+08,-2.58295e+08,-41902.1,0.00642401,0.14481,0,0.144952,19909.7,-9404.71,0,22019.2,41902.1
step02_gravity_refstate-crust.xmf,417,-1.37833e-07,9.09069e-07,0,-5.79117e-07,-2.60267e+08,-2.60195e+08,-2.60258e+08,-39727.4,0.00617793,0.141402,0,0.141537,22569,-9476.14,0,24477.7,39727.4
step02_gravity_refstate-crust.xmf,418,1.91052e-07,8.75707e-07,0,-7.22066e-07,-3.36286e+08,-3.36239e+08,-3.36299e+08,-49533.7,0.00612483,0.150172,0,0.150297,13948.6,-12245,0,18560.8,49533.7
step02_gravity_refstate-crust.xmf,419,6.47767e-07,6.60309e-07,0,3.66152e-07,-4.45738e+08,-4.45737e+08,-4.45782e+08,25118,-0.00269268,0.157312,-0,0.157335,-3947.46,-16231.2,-0,16704.3,25118
step02_gravity_refstate-crust.xmf,420,6.8342e-07,7.21812e-07,0,5.02862e-07,-4.93173e+08,-4.9317e+08,-4.9322e+08,34496.3,-0.00365578,0.15548,-0,0.155523,-4904.9,-17958.3,-0,18616.1,34496.3
step02_gravity_refstate-crust.xmf,421,7.13471e-07,7.92481e-07,0,6.62987e-07,-5.4147e+08,-5.41464e+08,-5.41519e+08,45480.9,-0.00479996,0.153307,-0,0.153382,-5864.03,-19716.9,-0,20570.4,45480.9
step02_gravity_refstate-crust.xmf,422,7.29312e-07,8.79243e-07,0,8.44993e-07,-5.89046e+08,-5.89036e+08,-5.89096e+08,57966.5,-0.00611244,0.150794,-0,0.150918,-6813.37,-21449.1,-0,22505.3,57966.5
step02_gravity_refstate-crust.xmf,423,7.24578e-07,9.88015e-07,0,1.04375e-06,-6.35213e+08,-6.35195e+08,-6.35263e+08,71601.4,-0.00755149,0.147947,-0,0.14814,-7725.73,-23130,-0,24386.2,71601.4
step02_gravity_refstate-crust.xmf,424,6.76179e-07,6.10749e-07,0,1.79962e-07,-4.40497e+08,-4.40501e+08,-4.40543e+08,12345.4,-0.00133101,0.1583,-0,0.158305,-1933.53,-16040.4,-0,16156.5,12345.4
step02_gravity_refstate-crust.xmf,425,6.86063e-07,5.96054e-07,0,-1.99781e-08,-4.38784e+08,-4.3879e+08,-4.38831e+08,-1370.5,0.000149003,0.15861,0,0.15861,215.938,-15978.1,0,15979.5,1370.5
step02_gravity_refstate-crust.xmf,426,6.67416e-07,6.19377e-07,0,-2.27267e-07,-4.40236e+08,-4.40239e+08,-4.40282e+08,-15590.5,0.00168781,0.158135,0,0.158144,2462.26,-16030.9,0,16218.9,15590.5
step02_gravity_refstate-crust.xmf,427,6.13465e-07,6.82671e-07,0,-4.3045e-07,-4.41619e+08,-4.41615e+08,-4.41661e+08,-29528.9,0.00320566,0.156876,0,0.156909,4797.92,-16081.1,0,16781.6,29528.9
step02_gravity_refstate-crust.xmf,428,5.29517e-07,7.77738e-07,0,-6.06516e-07,-4.42228e+08,-4.42211e+08,-4.42264e+08,-41607,0.00455091,0.15493,0,0.154997,7121.77,-16103.1,0,17607.6,41607
step02_gravity_refstate-crust.xmf,429,-5.03335e-07,8.3802e-07,0,7.75516e-10,-1.87204e+08,-1.87112e+08,-1.8717e+08,53.2004,9.02394e-20,0.13182,0,0.13182,40000,-6814.61,0,40576.3,53.2004
step02_gravity_refstate-crust.xmf,430,-7.08203e-07,3.57883e-06,0,2.41659e-06,-9.72609e+08,-9.72315e+08,-9.72561e+08,165778,-0.0182452,0.105329,-0,0.106898,-14116.8,-35411.5,-0,38121.6,165778
step02_gravity_refstate-crust.xmf,431,-1.1098e-06,4.38466e-06,0,1.63595e-06,-9.90504e+08,-9.90127e+08,-9.90428e+08,112226,-0.014613,0.0874521,-0,0.0886645,-18063.9,-36062.6,-0,40333.8,112226
step02_gravity_refstate-crust.xmf,432,-1.05519e-06,4.22634e-06,0,1.96685e-06,-9.91927e+08,-9.91565e+08,-9.91855e+08,134926,-0.0163338,0.0929372,-0,0.0943616,-16479.7,-36114.4,-0,39696.7,134926
step02_gravity_refstate-crust.xmf,433,-4.2517e-07,3.13387e-06,0,2.64475e-06,-9.66596e+08,-9.66352e+08,-9.66567e+08,181430,-0.0189221,0.112327,-0,0.113909,-12697.1,-35193,-0,37413.4,181430
step02_gravity_refstate-crust.xmf,434,4.76032e-07,1.71026e-06,0,2.04929e-06,-8.36314e+08,-8.36229e+08,-8.36347e+08,140582,-0.0144864,0.132701,-0,0.133489,-10307.4,-30451.4,-0,32148.6,140582
step02_gravity_refstate-crust.xmf,435,1.12435e-07,8.81178e-07,0,-7.14269e-07,-3.14433e+08,-3.1438e+08,-3.14441e+08,-48998.8,0.00631869,0.148371,0,0.148506,15850.8,-11449.1,0,19553.3,48998.8
step02_gravity_refstate-crust.xmf,436,-2.28095e-07,9.78173e-07,0,-5.24497e-07,-2.62869e+08,-2.62786e+08,-2.62853e+08,-35980.5,0.00566167,0.138103,0,0.138219,25295.6,-9570.6,0,27045.6,35980.5
step02_gravity_refstate-crust.xmf,437,-4.67029e-07,9.91312e-07,0,-1.00971e-07,-2.30819e+08,-2.30719e+08,-2.30787e+08,-6926.59,0.00127728,0.130682,0,0.130688,37302.3,-8402.85,0,38237,6926.59
step02_gravity_refstate-crust.xmf,438,-3.07444e-07,1.03998e-06,0,-4.47214e-07,-2.65777e+08,-2.65685e+08,-2.65756e+08,-30678.9,0.00487549,0.135016,0,0.135104,28148.5,-9676.26,0,29765.2,30678.9
step02_gravity_refstate-crust.xmf,439,-3.72332e-07,1.09058e-06,0,-3.48757e-07,-2.68334e+08,-2.68234e+08,-2.68308e+08,-23924.7,0.00383645,0.132344,0,0.132399,31134.7,-9769.15,0,32631.4,23924.7
step02_gravity_refstate-crust.xmf,440,-4.21939e-07,1.1303e-06,0,-2.24503e-07,-2.71075e+08,-2.70968e+08,-2.71046e+08,-15400.9,0.00249824,0.130168,0,0.130192,34435.1,-9868.79,0,35821.4,15400.9
step02_gravity_refstate-crust.xmf,441,3.43e-07,8.56882e-07,0,-7.12908e-07,-3.8867e+08,-3.88634e+08,-3.88693e+08,-48905.5,0.00560528,0.152691,0,0.152794,10626.3,-14152.6,0,17697.9,48905.5
step02_gravity_refstate-crust.xmf,442,2.40325e-07,9.59321e-07,0,-7.83668e-07,-3.8729e+08,-3.8724e+08,-3.87306e+08,-53759.6,0.00624269,0.149925,0,0.150055,12839.1,-14102.1,0,19071.2,53759.6
step02_gravity_refstate-crust.xmf,443,4.28724e-07,8.92478e-07,0,-7.51295e-07,-4.44086e+08,-4.44054e+08,-4.44115e+08,-51538.8,0.00566098,0.152401,0,0.152506,9389.64,-16170.5,0,18698.9,51538.8
step02_gravity_refstate-crust.xmf,444,-7.78599e-07,4.74726e-06,0,3.06703e-07,-1.05583e+09,-1.05545e+09,-1.05577e+09,21039.8,-0.00500115,0.0573387,-0,0.0575564,-26026.3,-38442.6,-0,46424.2,21039.8
step02_gravity_refstate-crust.xmf,445,-1.01233e-06,4.78051e-06,0,6.70072e-07,-1.03232e+09,-1.03192e+09,-1.03225e+09,45967,-0.00815458,0.0662396,-0,0.0667397,-23273.4,-37585.8,-0,44207.9,45967
step02_gravity_refstate-crust.xmf,446,-1.10893e-06,4.80082e-06,0,8.7469e-07,-1.02943e+09,-1.02903e+09,-1.02936e+09,60003.7,-0.00975436,0.069961,-0,0.0706377,-21830,-37480.4,-0,43374.3,60003.7
step02_gravity_refstate-crust.xmf,447,-1.19693e-06,4.81101e-06,0,1.13627e-06,-1.02777e+09,-1.02736e+09,-1.02769e+09,77948.5,-0.0115585,0.0742471,-0,0.0751414,-20297.5,-37419.7,-0,42570.2,77948.5
step02_gravity_refstate-crust.xmf,448,-9.60862e-07,4.01653e-06,0,2.30317e-06,-9.96945e+08,-9.96603e+08,-9.96879e+08,157997,-0.0179177,0.0983455,-0,0.0999644,-14959.7,-36297.1,-0,39259,157997
step02_gravity_refstate-crust.xmf,449,-1.25589e-06,4.77156e-06,0,1.44119e-06,-1.02722e+09,-1.0268e+09,-1.02713e+09,98865.5,-0.0134921,0.0791048,-0,0.0802471,-18731.9,-37399.2,-0,41828,98865.5
step02_gravity_refstate-crust.xmf,450,8.86001e-07,8.81847e-07,0,1.07087e-06,-6.79161e+08,-6.79162e+08,-6.79222e+08,73461.6,-0.00760979,0.147999,-0,0.148195,-6749.45,-24730.5,-0,25635,73461.6
step02_gravity_refstate-crust.xmf,451,8.63072e-07,9.99513e-07,0,1.31114e-06,-7.21932e+08,-7.21923e+08,-7.21992e+08,89944.3,-0.00927442,0.145045,-0,0.145342,-7597.85,-26287.7,-0,27363.7,89944.3
step02_gravity_refstate-crust.xmf,452,8.02651e-07,1.15694e-06,0,1.56205e-06,-7.63022e+08,-7.62998e+08,-7.63077e+08,107157,-0.010997,0.141714,-0,0.14214,-8403.74,-27783.6,-0,29026.8,107157
step02_gravity_refstate-crust.xmf,453,6.83687e-07,1.37143e-06,0,1.80354e-06,-7.98863e+08,-7.98816e+08,-7.9891e+08,123723,-0.0126799,0.137895,-0,0.138477,-9259.74,-29088.3,-0,30526.6,123723
step02_gravity_refstate-crust.xmf,454,6.20686e-09,2.4928e-06,0,2.68432e-06,-9.42456e+08,-9.42285e+08,-9.42456e+08,184144,-0.0184508,0.121204,-0,0.1226,-11259.6,-34314.9,-0,36115,184144
step02_gravity_refstate-crust.xmf,455,5.80317e-07,1.6273e-06,0,2.25057e-06,-8.72306e+08,-8.72235e+08,-8.72346e+08,154389,-0.015368,0.132777,-0,0.133664,-9632.94,-31762.1,-0,33190.7,154389
step02_gravity_refstate-crust.xmf,456,3.38677e-07,1.99379e-06,0,2.48741e-06,-9.06449e+08,-9.06335e+08,-9.06472e+08,170636,-0.0169759,0.127715,-0,0.128838,-10394.7,-33004.6,-0,34602.8,170636
step02_gravity_refstate-crust.xmf,457,-6.31326e-10,9.9403e-07,0,-7.19548e-07,-3.18396e+08,-3.18328e+08,-3.18396e+08,-49361,0.00648084,0.144582,0,0.144727,18563,-11593.1,0,21885.7,49361
step02_gravity_refstate-crust.xmf,458,-1.01267e-07,1.08594e-06,0,-6.95755e-07,-3.20959e+08,-3.20878e+08,-3.20952e+08,-47728.8,0.0063514,0.141026,0,0.141169,21133.8,-11686.1,0,24149.6,47728.8
step02_gravity_refstate-crust.xmf,459,-1.91884e-07,1.16828e-06,0,-6.45148e-07,-3.23506e+08,-3.23413e+08,-3.23493e+08,-44257.1,0.00596933,0.137585,0,0.137714,23726.5,-11778.6,0,26489.3,44257.1
step02_gravity_refstate-crust.xmf,460,1.37885e-07,1.05175e-06,0,-8.16944e-07,-3.82807e+08,-3.82744e+08,-3.82817e+08,-56042.4,0.00661811,0.147089,0,0.147237,15021.8,-13938.7,0,20492.4,56042.4
step02_gravity_refstate-crust.xmf,461,7.44506e-07,6.48387e-07,0,3.06681e-07,-4.9226e+08,-4.92266e+08,-4.92311e+08,21038.3,-0.00221368,0.156754,-0,0.15677,-2894.1,-17925.2,-0,18157.4,21038.3
step02_gravity_refstate-crust.xmf,462,8.02348e-07,6.85162e-07,0,4.58125e-07,-5.40999e+08,-5.41007e+08,-5.41054e+08,31427.4,-0.00328661,0.155011,-0,0.155046,-3873.56,-19699.9,-0,20077.1,31427.4
step02_gravity_refstate-crust.xmf,463,8.49423e-07,7.31479e-07,0,6.39287e-07,-5.88326e+08,-5.88334e+08,-5.88384e+08,43855.1,-0.00457164,0.15298,-0,0.153048,-4873.16,-21423.2,-0,21970.4,43855.1
step02_gravity_refstate-crust.xmf,464,8.79522e-07,7.95138e-07,0,8.45974e-07,-6.34665e+08,-6.34671e+08,-6.34726e+08,58033.8,-0.00603225,0.150635,-0,0.150755,-5842.47,-23110.4,-0,23837.5,58033.8
step02_gravity_refstate-crust.xmf,465,7.67239e-07,6.10164e-07,0,8.93586e-08,-4.90737e+08,-4.90748e+08,-4.9079e+08,6130,-0.000650835,0.157413,-0,0.157414,-842.26,-17869.8,-0,17889.7,6130
step02_gravity_refstate-crust.xmf,466,7.65781e-07,6.14114e-07,0,-1.36665e-07,-4.91825e+08,-4.91836e+08,-4.91878e+08,-9375.23,0.000991282,0.157312,0,0.157315,1281.69,-17909.4,0,17955.2,9375.23
step02_gravity_refstate-crust.xmf,467,7.3811e-07,6.73123e-07,0,-3.79854e-07,-5.01525e+08,-5.0153e+08,-5.01576e+08,-26058,0.00279153,0.156158,0,0.156183,3601.6,-18262.6,0,18614.3,26058
step02_gravity_refstate-crust.xmf,468,6.39825e-07,7.67938e-07,0,-5.90197e-07,-4.94571e+08,-4.94562e+08,-4.94615e+08,-40487.5,0.00435131,0.154569,0,0.154631,5936.56,-18009.1,0,18962.4,40487.5
step02_gravity_refstate-crust.xmf,469,5.28442e-07,8.9878e-07,0,-7.64586e-07,-4.95529e+08,-4.95503e+08,-4.95565e+08,-52450.6,0.00568004,0.152162,0,0.152268,8180.68,-18043.7,0,19811.6,52450.6
step02_gravity_refstate-crust.xmf,470,-4.57275e-07,1.16737e-06,0,8.84766e-10,-2.7583e+08,-2.75718e+08,-2.75798e+08,60.695,8.40555e-20,0.128585,0,0.128585,40000,-10041.8,0,41241.2,60.695
step02_gravity_refstate-crust.xmf,471,-9.47369e-07,4.88332e-06,0,4.65833e-07,-1.05853e+09,-1.05813e+09,-1.05847e+09,31956.1,-0.00648805,0.0598381,-0,0.0601888,-24197.3,-38540.7,-0,45507.1,31956.1
step02_gravity_refstate-crust.xmf,472,-1.10168e-06,5.01179e-06,0,6.47837e-07,-1.06345e+09,-1.06303e+09,-1.06337e+09,44441.6,-0.00803006,0.06228,-0,0.0627956,-22525.3,-38719.3,-0,44794.8,44441.6
step02_gravity_refstate-crust.xmf,473,-7.8048e-07,3.69528e-06,0,2.64684e-06,-1.00076e+09,-1.00045e+09,-1.0007e+09,181573,-0.0193038,0.104554,-0,0.106321,-13461.8,-36436.1,-0,38843.4,181573
step02_gravity_refstate-crust.xmf,474,-5.09496e-07,3.26555e-06,0,2.93946e-06,-1.0019e+09,-1.00165e+09,-1.00187e+09,201647,-0.0202395,0.111126,-0,0.112954,-12087.6,-36478.3,-0,38428.9,201647
step02_gravity_refstate-crust.xmf,475,-1.9377e-07,2.7879e-06,0,2.89622e-06,-9.76139e+08,-9.75934e+08,-9.76126e+08,198681,-0.0196333,0.117307,-0,0.118939,-11408.2,-35540.8,-0,37326.9,198681
step02_gravity_refstate-crust.xmf,476,-1.27888e-06,4.67265e-06,0,1.7742e-06,-1.02813e+09,-1.02772e+09,-1.02804e+09,121710,-0.0154297,0.0843439,-0,0.0857436,-17197,-37432.2,-0,41193.6,121710
step02_gravity_refstate-crust.xmf,477,-1.23346e-06,4.51481e-06,0,2.14688e-06,-1.02991e+09,-1.02951e+09,-1.02982e+09,147276,-0.0172944,0.0900051,-0,0.0916516,-15712.6,-37496.8,-0,40655.8,147276
step02_gravity_refstate-crust.xmf,478,7.71165e-07,1.31999e-06,0,1.98121e-06,-8.37145e+08,-8.37107e+08,-8.37198e+08,135911,-0.0135793,0.137326,-0,0.137996,-8811.47,-30482.3,-0,31730.3,135911
step02_gravity_refstate-crust.xmf,479,-2.74843e-07,1.25232e-06,0,-5.69319e-07,-3.2852e+08,-3.28415e+08,-3.28501e+08,-39055.3,0.00531157,0.134069,0,0.134174,26527.6,-11960.9,0,29099.4,39055.3
step02_gravity_refstate-crust.xmf,480,-4.44313e-07,1.32983e-06,0,-1.21687e-07,-3.17564e+08,-3.17442e+08,-3.17533e+08,-8347.74,0.00120166,0.127011,0,0.127017,37326.1,-11561.5,0,39075.6,8347.74
step02_gravity_refstate-crust.xmf,481,-3.45692e-07,1.3289e-06,0,-4.65219e-07,-3.34141e+08,-3.34026e+08,-3.34117e+08,-31914,0.00437526,0.130788,0,0.130861,29518.9,-12165.4,0,31927.4,31914
step02_gravity_refstate-crust.xmf,482,-3.95928e-07,1.38591e-06,0,-3.46468e-07,-3.38996e+08,-3.38874e+08,-3.38969e+08,-23767.7,0.00327777,0.128217,0,0.128259,32447.9,-12342,0,34715.9,23767.7
step02_gravity_refstate-crust.xmf,483,3.21415e-08,1.14102e-06,0,-8.27414e-07,-3.79358e+08,-3.79281e+08,-3.7936e+08,-56760.6,0.00678654,0.143941,0,0.144101,17320.6,-13812.8,0,22154,56760.6
step02_gravity_refstate-crust.xmf,484,3.11513e-07,1.02239e-06,0,-8.43587e-07,-4.42964e+08,-4.42915e+08,-4.42985e+08,-57870,0.00646916,0.149581,0,0.14972,11604,-16129.4,0,19869.8,57870
step02_gravity_refstate-crust.xmf,485,1.91185e-07,1.14888e-06,0,-8.99961e-07,-4.40176e+08,-4.4011e+08,-4.40189e+08,-61737.3,0.00700236,0.146474,0,0.146641,13852.9,-16027.6,0,21184.6,61737.3
step02_gravity_refstate-crust.xmf,486,4.03505e-07,1.04359e-06,0,-8.98834e-07,-4.96571e+08,-4.96527e+08,-4.96599e+08,-61660,0.00672008,0.149259,0,0.14941,10375.6,-18081.4,0,20846.8,61660
step02_gravity_refstate-crust.xmf,487,-1.23869e-06,5.07614e-06,0,8.86476e-07,-1.06351e+09,-1.06307e+09,-1.06342e+09,60812.2,-0.00987589,0.0660554,-0,0.0667896,-20942.8,-38720.9,-0,44021.7,60812.2
step02_gravity_refstate-crust.xmf,488,-1.35934e-06,5.11327e-06,0,1.19149e-06,-1.06304e+09,-1.0626e+09,-1.06295e+09,81736.1,-0.0119198,0.0705929,-0,0.0715922,-19379.7,-38703.5,-0,43284.3,81736.1
step02_gravity_refstate-crust.xmf,489,-1.50543e-07,2.72419e-06,0,3.15551e-06,-9.99281e+08,-9.99084e+08,-9.99271e+08,216468,-0.0205997,0.11827,-0,0.12005,-10756,-36383.4,-0,37940,216468
step02_gravity_refstate-crust.xmf,490,-1.12484e-06,4.26369e-06,0,2.53562e-06,-1.03255e+09,-1.03218e+09,-1.03247e+09,173943,-0.0190402,0.0961668,-0,0.0980336,-14257.5,-37593,-0,40205.8,173943
step02_gravity_refstate-crust.xmf,491,-1.44178e-06,5.09226e-06,0,1.53402e-06,-1.06344e+09,-1.06299e+09,-1.06334e+09,105233,-0.0140253,0.0755728,-0,0.0768632,-17871.1,-38717.7,-0,42643.1,105233
step02_gravity_refstate-crust.xmf,492,1.04877e-06,6.7831e-07,0,8.36506e-07,-6.78808e+08,-6.78833e+08,-6.7888e+08,57384.3,-0.00585999,0.150572,-0,0.150686,-4946.51,-24718,-0,25208.1,57384.3
step02_gravity_refstate-crust.xmf,493,1.07117e-06,7.37523e-07,0,1.09231e-06,-7.22189e+08,-7.22212e+08,-7.22263e+08,74932.6,-0.00758394,0.148193,-0,0.148386,-5843.01,-26297.5,-0,26938.8,74932.6
step02_gravity_refstate-crust.xmf,494,1.05424e-06,8.36777e-07,0,1.36686e-06,-7.62651e+08,-7.62666e+08,-7.62724e+08,93766.7,-0.00940645,0.145487,-0,0.145791,-6700.07,-27770.7,-0,28567.5,93766.7
step02_gravity_refstate-crust.xmf,495,1.00574e-06,9.73407e-07,0,1.68784e-06,-8.06762e+08,-8.06765e+08,-8.06831e+08,115786,-0.011442,0.142222,-0,0.142681,-7503.26,-29376.6,-0,30319.7,115786
step02_gravity_refstate-crust.xmf,496,1.63758e-07,2.28272e-06,0,2.97697e-06,-9.70453e+08,-9.70308e+08,-9.70464e+08,204220,-0.0194359,0.123464,-0,0.124984,-10240.5,-35334.5,-0,36788.5,204220
step02_gravity_refstate-crust.xmf,497,9.23816e-07,1.1766e-06,0,2.16592e-06,-8.73069e+08,-8.73052e+08,-8.73132e+08,148582,-0.0142951,0.137738,-0,0.138478,-8169.33,-31790.5,-0,32823.4,148582
step02_gravity_refstate-crust.xmf,498,7.25666e-07,1.47572e-06,0,2.46338e-06,-9.05843e+08,-9.05791e+08,-9.05892e+08,168988,-0.0161599,0.133567,-0,0.134541,-8902.18,-32983.3,-0,34163.6,168988
step02_gravity_refstate-crust.xmf,499,4.56419e-07,1.86577e-06,0,2.73994e-06,-9.38613e+08,-9.38516e+08,-9.38644e+08,187960,-0.017932,0.128589,-0,0.129833,-9640.72,-34175.9,-0,35509.6,187960
step02_gravity_refstate-crust.xmf,500,-6.99958e-08,1.24963e-06,0,-8.0547e-07,-3.80363e+08,-3.80272e+08,-3.80358e+08,-55255.3,0.00674485,0.14039,0,0.140552,19758.6,-13849.1,0,24128.9,55255.3
step02_gravity_refstate-crust.xmf,501,-4.27126e-07,1.44536e-06,0,-2.37305e-07,-3.48337e+08,-3.48209e+08,-3.48308e+08,-16279.1,0.00223806,0.126293,0,0.126313,34962.1,-12682.1,0,37191.2,16279.1
step02_gravity_refstate-crust.xmf,502,-1.63185e-07,1.34391e-06,0,-7.60268e-07,-3.81864e+08,-3.8176e+08,-3.81853e+08,-52154.4,0.00646221,0.136895,0,0.137048,22204.4,-13903.6,0,26198.2,52154.4
step02_gravity_refstate-crust.xmf,503,-2.42283e-07,1.42872e-06,0,-6.96089e-07,-3.84576e+08,-3.84462e+08,-3.8456e+08,-47751.7,0.00598982,0.133645,0,0.133779,24571,-14002.1,0,28280.6,47751.7
step02_gravity_refstate-crust.xmf,504,7.33614e-08,1.27105e-06,0,-9.19723e-07,-4.37384e+08,-4.37301e+08,-4.37389e+08,-63093,0.00727016,0.143142,0,0.143327,16138.3,-15925.6,0,22673.1,63093
step02_gravity_refstate-crust.xmf,505,8.57433e-07,6.17002e-07,0,2.27856e-07,-5.40221e+08,-5.40238e+08,-5.4028e+08,15630.9,-0.00162101,0.156063,-0,0.156072,-1872.33,-19671.7,-0,19760.6,15630.9
step02_gravity_refstate-crust.xmf,506,9.39771e-07,6.2308e-07,0,3.97463e-07,-5.89135e+08,-5.89156e+08,-5.89199e+08,27265.9,-0.00281188,0.15449,-0,0.154515,-2898.22,-21452.8,-0,21647.7,27265.9
step02_gravity_refstate-crust.xmf,507,1.00525e-06,6.41483e-07,0,6.04129e-07,-6.34693e+08,-6.34718e+08,-6.34762e+08,41443.2,-0.00425069,0.152675,-0,0.152734,-3950.36,-23111.7,-0,23446.9,41443.2
step02_gravity_refstate-crust.xmf,508,8.67937e-07,5.94769e-07,0,-1.90894e-08,-5.40332e+08,-5.40351e+08,-5.40391e+08,-1309.53,0.000135445,0.156378,0,0.156378,155.334,-19675.8,0,19676.4,1309.53
step02_gravity_refstate-crust.xmf,509,8.467e-07,6.23089e-07,0,-2.64489e-07,-5.41359e+08,-5.41374e+08,-5.41417e+08,-18143.9,0.00189306,0.155921,0,0.155933,2186,-19713.1,0,19833.9,18143.9
step02_gravity_refstate-crust.xmf,510,7.56532e-07,7.47688e-07,0,-5.95428e-07,-5.47858e+08,-5.47858e+08,-5.4791e+08,-40846.4,0.00433931,0.153821,0,0.153882,5140.5,-19949.5,0,20601.2,40846.4
step02_gravity_refstate-crust.xmf,511,6.4994e-07,8.7025e-07,0,-7.71608e-07,-5.45864e+08,-5.45849e+08,-5.45909e+08,-52932.3,0.00566543,0.151874,0,0.15198,7053.06,-19876.7,0,21091,52932.3
step02_gravity_refstate-crust.xmf,512,5.12842e-07,1.03641e-06,0,-9.32254e-07,-5.46831e+08,-5.46795e+08,-5.46866e+08,-63952.6,0.00692365,0.149038,0,0.149199,9184.59,-19911.6,0,21927.8,63952.6
step02_gravity_refstate-crust.xmf,513,-4.52345e-07,1.51633e-06,0,1.00117e-09,-3.6146e+08,-3.61324e+08,-3.61428e+08,68.6803,9.74798e-20,0.124403,0,0.124403,40000,-13159.8,0,42109.2,68.6803
step02_gravity_refstate-crust.xmf,514,-5.79903e-07,3.33979e-06,0,3.31718e-06,-1.03533e+09,-1.03506e+09,-1.03529e+09,227559,-0.0216893,0.11092,-0,0.113021,-11376.3,-37694.9,-0,39374.2,227559
step02_gravity_refstate-crust.xmf,515,-9.16574e-07,3.88605e-06,0,2.9258e-06,-1.03401e+09,-1.03368e+09,-1.03395e+09,200710,-0.0205307,0.10307,-0,0.105095,-12840.2,-37646.5,-0,39775.9,200710
step02_gravity_refstate-crust.xmf,516,-1.48326e-06,4.99883e-06,0,1.91383e-06,-1.06461e+09,-1.06417e+09,-1.06451e+09,131289,-0.0161641,0.081098,-0,0.0826932,-16396.8,-38760,-0,42085.6,131289
step02_gravity_refstate-crust.xmf,517,-1.43971e-06,4.8245e-06,0,2.34169e-06,-1.06528e+09,-1.06485e+09,-1.06518e+09,160640,-0.0182298,0.087281,-0,0.0891644,-14984.9,-38784.2,-0,41578.4,160640
step02_gravity_refstate-crust.xmf,518,2.80176e-07,2.12041e-06,0,3.2866e-06,-9.97996e+08,-9.9787e+08,-9.98015e+08,225461,-0.0204648,0.125064,-0,0.126728,-9489.37,-36337.5,-0,37556.1,225461
step02_gravity_refstate-crust.xmf,519,1.05756e-06,9.63136e-07,0,1.90611e-06,-8.45738e+08,-8.45744e+08,-8.4581e+08,130759,-0.0126448,0.140929,-0,0.141496,-7476.99,-30795.7,-0,31690.4,130759
step02_gravity_refstate-crust.xmf,520,-3.36801e-07,1.57357e-06,0,-5.83581e-07,-4.00543e+08,-4.00412e+08,-4.0052e+08,-40033.7,0.00505914,0.128803,0,0.128902,27968.7,-14583.2,0,31542.3,40033.7
step02_gravity_refstate-crust.xmf,521,-4.51091e-07,1.70157e-06,0,-1.56714e-07,-4.06164e+08,-4.06017e+08,-4.06133e+08,-10750.6,0.00140351,0.122229,0,0.122237,36935.2,-14787.6,0,39785.5,10750.6
step02_gravity_refstate-crust.xmf,522,-4.2894e-07,1.69606e-06,0,-3.23936e-07,-4.09632e+08,-4.09486e+08,-4.09602e+08,-22222,0.00286151,0.123482,0,0.123515,33657.4,-14913.9,0,36813.7,22222
step02_gravity_refstate-crust.xmf,523,-3.92862e-07,1.63236e-06,0,-4.50186e-07,-4.01884e+08,-4.01745e+08,-4.01857e+08,-30882.8,0.00395477,0.125871,0,0.125933,30976.7,-14631.9,0,34258.6,30882.8
step02_gravity_refstate-crust.xmf,524,-4.17186e-08,1.38847e-06,0,-9.13705e-07,-4.37047e+08,-4.36949e+08,-4.37044e+08,-62680.2,0.00730158,0.139569,0,0.13976,18469.9,-15913.1,0,24379.6,62680.2
step02_gravity_refstate-crust.xmf,525,2.6563e-07,1.20938e-06,0,-9.78604e-07,-4.96449e+08,-4.96384e+08,-4.96467e+08,-67132.3,0.00746443,0.145942,0,0.146133,12608.3,-18076.7,0,22039.4,67132.3
step02_gravity_refstate-crust.xmf,526,1.25232e-07,1.36432e-06,0,-1.01247e-06,-4.92284e+08,-4.92199e+08,-4.92293e+08,-69455.6,0.00785496,0.142411,0,0.142628,14934,-17924.7,0,23330.6,69455.6
step02_gravity_refstate-crust.xmf,527,8.35519e-07,6.68039e-07,0,-4.38064e-07,-5.55327e+08,-5.55339e+08,-5.55385e+08,-30051.2,0.00315907,0.154858,0,0.15489,3578.87,-20221.7,0,20535.9,30051.2
step02_gravity_refstate-crust.xmf,528,3.62345e-07,1.21837e-06,0,-1.05393e-06,-5.48785e+08,-5.48726e+08,-5.4881e+08,-72299.4,0.00789552,0.145661,0,0.145874,11326,-19982.4,0,22969,72299.4
step02_gravity_refstate-crust.xmf,529,-8.79285e-08,2.62403e-06,0,3.50074e-06,-1.02628e+09,-1.0261e+09,-1.02628e+09,240151,-0.0218027,0.119642,-0,0.121613,-10031.5,-37366.6,-0,38689.7,240151
step02_gravity_refstate-crust.xmf,530,-1.32512e-06,4.5444e-06,0,2.78141e-06,-1.06644e+09,-1.06604e+09,-1.06635e+09,190805,-0.0201329,0.0939486,-0,0.0960816,-13622.5,-38826.5,-0,41146.9,190805
step02_gravity_refstate-crust.xmf,531,1.17197e-06,5.27144e-07,0,5.67306e-07,-6.80243e+08,-6.80287e+08,-6.80323e+08,38917.2,-0.00394438,0.152355,-0,0.152406,-3204.08,-24770.5,-0,24976.8,38917.2
step02_gravity_refstate-crust.xmf,532,1.24067e-06,5.23978e-07,0,8.12337e-07,-7.21916e+08,-7.21965e+08,-7.22001e+08,55726.3,-0.00556377,0.150662,-0,0.150765,-4099.64,-26287.9,-0,26605.6,55726.3
step02_gravity_refstate-crust.xmf,533,1.27382e-06,5.58664e-07,0,1.10429e-06,-7.62483e+08,-7.62532e+08,-7.62571e+08,75754.1,-0.0074637,0.148563,-0,0.14875,-5032.95,-27765,-0,28217.5,75754.1
step02_gravity_refstate-crust.xmf,534,1.28926e-06,6.05779e-07,0,1.39762e-06,-8.01451e+08,-8.01497e+08,-8.01539e+08,95876.7,-0.00929237,0.146412,-0,0.146707,-5757.37,-29183.8,-0,29746.2,95876.7
step02_gravity_refstate-crust.xmf,535,6.06776e-07,1.67552e-06,0,3.01543e-06,-9.68701e+08,-9.68627e+08,-9.68742e+08,206859,-0.0188452,0.130037,-0,0.131396,-8897.82,-35271.6,-0,36376.6,206859
step02_gravity_refstate-crust.xmf,536,1.31915e-06,6.23823e-07,0,1.66807e-06,-8.39248e+08,-8.39295e+08,-8.39338e+08,114430,-0.0108634,0.144676,-0,0.145083,-6153.68,-30560,-0,31173.4,114430
step02_gravity_refstate-crust.xmf,537,1.26531e-06,7.36968e-07,0,1.98253e-06,-8.72465e+08,-8.72501e+08,-8.72552e+08,136002,-0.0127163,0.14225,-0,0.142817,-6747.18,-31769.2,-0,32477.8,136002
step02_gravity_refstate-crust.xmf,538,1.12535e-06,9.53571e-07,0,2.33262e-06,-9.04849e+08,-9.0486e+08,-9.04926e+08,160018,-0.0147846,0.138957,-0,0.139741,-7457.68,-32947.9,-0,33781.4,160018
step02_gravity_refstate-crust.xmf,539,9.02559e-07,1.26897e-06,0,2.6916e-06,-9.37351e+08,-9.37326e+08,-9.37413e+08,184644,-0.016897,0.134835,-0,0.135889,-8192.71,-34130.8,-0,35100.3,184644
step02_gravity_refstate-crust.xmf,540,-1.4212e-07,1.50891e-06,0,-8.69381e-07,-4.38569e+08,-4.38456e+08,-4.38559e+08,-59639.6,0.00709374,0.135874,0,0.136059,20853.1,-15968.3,0,26264.7,59639.6
step02_gravity_refstate-crust.xmf,541,-2.31911e-07,1.617e-06,0,-8.05279e-07,-4.4197e+08,-4.41843e+08,-4.41954e+08,-55242.2,0.00666816,0.132226,0,0.132394,23242.5,-16091.9,0,28269.5,55242.2
step02_gravity_refstate-crust.xmf,542,-3.1156e-07,1.72814e-06,0,-7.16877e-07,-4.49383e+08,-4.49244e+08,-4.49362e+08,-49177.7,0.00602633,0.128413,0,0.128554,25770,-16361.7,0,30525.4,49177.7
step02_gravity_refstate-crust.xmf,543,-4.75142e-09,1.51567e-06,0,-1.01176e-06,-4.91865e+08,-4.91761e+08,-4.91865e+08,-69407.1,0.00798315,0.138592,0,0.138822,17260.4,-17909.2,0,24872.9,69407.1
step02_gravity_refstate-crust.xmf,544,9.85692e-07,5.642e-07,0,1.25185e-07,-5.88618e+08,-5.88646e+08,-5.88685e+08,8587.72,-0.000878249,0.155279,-0,0.155282,-891.768,-21434.1,-0,21452.6,8587.72
step02_gravity_refstate-crust.xmf,545,1.11631e-06,5.12823e-07,0,3.11794e-07,-6.43109e+08,-6.43151e+08,-6.43186e+08,21389,-0.00216169,0.153882,-0,0.153897,-1912.3,-23418.3,-0,23496.3,21389
step02_gravity_refstate-crust.xmf,546,9.75366e-07,5.66873e-07,0,-1.49128e-07,-5.88747e+08,-5.88775e+08,-5.88814e+08,-10230.2,0.00106054,0.155238,0,0.155242,1077.72,-21438.8,0,21465.8,10230.2
step02_gravity_refstate-crust.xmf,547,9.43214e-07,6.14845e-07,0,-3.8852e-07,-5.92497e+08,-5.9252e+08,-5.92562e+08,-26652.4,0.00277715,0.154451,0,0.154476,2835.45,-21575.2,0,21760.7,26652.4
step02_gravity_refstate-crust.xmf,548,8.77732e-07,6.9994e-07,0,-5.97455e-07,-5.94511e+08,-5.94524e+08,-5.94572e+08,-40985.4,0.00430069,0.153185,0,0.153245,4478.52,-21648.4,0,22106.8,40985.4
step02_gravity_refstate-crust.xmf,549,7.73832e-07,8.26695e-07,0,-7.91435e-07,-5.94149e+08,-5.94145e+08,-5.94202e+08,-54292.5,0.00574728,0.151358,0,0.151467,6227.52,-21635,0,22513.4,54292.5
step02_gravity_refstate-crust.xmf,550,6.37635e-07,9.94032e-07,0,-9.65151e-07,-5.94325e+08,-5.943e+08,-5.94369e+08,-66209.4,0.00709069,0.148823,0,0.148992,8119.96,-21641.1,0,23114.3,66209.4
step02_gravity_refstate-crust.xmf,551,4.80999e-07,1.1923e-06,0,-1.1046e-06,-5.96551e+08,-5.96503e+08,-5.96584e+08,-75775.3,0.00823358,0.145613,0,0.145846,10086.5,-21721.8,0,23949.4,75775.3
step02_gravity_refstate-crust.xmf,552,-4.70294e-07,1.8732e-06,0,3.11717e-10,-4.44309e+08,-4.44148e+08,-4.44277e+08,21.3838,7.92677e-20,0.11929,0,0.11929,40000,-16176.5,0,43147.2,21.3838
step02_gravity_refstate-crust.xmf,553,-4.34475e-07,3.09917e-06,0,3.64447e-06,-1.05139e+09,-1.05115e+09,-1.05136e+09,250011,-0.0227527,0.114433,-0,0.116673,-10466.3,-38280,-0,39685,250011
step02_gravity_refstate-crust.xmf,554,-1.14064e-06,4.19236e-06,0,3.20667e-06,-1.06942e+09,-1.06905e+09,-1.06934e+09,219977,-0.0217419,0.100506,-0,0.102831,-12366.6,-38935.1,-0,40851.9,219977
step02_gravity_refstate-crust.xmf,555,-1.63826e-08,2.49114e-06,0,3.86836e-06,-1.05049e+09,-1.05032e+09,-1.05049e+09,265370,-0.0229646,0.121353,-0,0.123507,-9380.12,-38247.9,-0,39381.4,265370
step02_gravity_refstate-crust.xmf,556,7.69287e-07,1.45778e-06,0,3.32882e-06,-9.98032e+08,-9.97985e+08,-9.98085e+08,228357,-0.0198102,0.131695,-0,0.133177,-8233.01,-36339.7,-0,37260.7,228357
step02_gravity_refstate-crust.xmf,557,3.98643e-07,1.94424e-06,0,3.63894e-06,-1.02536e+09,-1.02526e+09,-1.02539e+09,249631,-0.0215739,0.126754,-0,0.128577,-8824.21,-37334,-0,38362.7,249631
step02_gravity_refstate-crust.xmf,558,-4.04146e-07,1.86155e-06,0,-5.32724e-07,-4.58396e+08,-4.5824e+08,-4.58368e+08,-36544.9,0.00456297,0.123208,0,0.123293,29930,-16689.6,0,34268.7,36544.9
step02_gravity_refstate-crust.xmf,559,-4.65927e-07,1.9924e-06,0,-2.7435e-07,-4.74636e+08,-4.74467e+08,-4.74604e+08,-18820.4,0.00239712,0.118402,0,0.118426,34965.8,-17280.8,0,39003,18820.4
step02_gravity_refstate-crust.xmf,560,-4.40772e-07,1.939e-06,0,-4.09751e-07,-4.68008e+08,-4.67845e+08,-4.67978e+08,-28108.9,0.00354726,0.120457,0,0.120509,32402.7,-17039.5,0,36609.8,28108.9
step02_gravity_refstate-crust.xmf,561,-3.70917e-07,1.85229e-06,0,-6.372e-07,-4.65829e+08,-4.65676e+08,-4.65803e+08,-43711.9,0.00540473,0.124848,0,0.124965,27861.5,-16960.3,0,32617.7,43711.9
step02_gravity_refstate-crust.xmf,562,-1.24087e-07,1.65249e-06,0,-9.82792e-07,-4.93438e+08,-4.93316e+08,-4.93429e+08,-67419.5,0.00785198,0.134725,0,0.134954,19556.9,-17966.2,0,26556.7,67419.5
step02_gravity_refstate-crust.xmf,563,1.94701e-07,1.4478e-06,0,-1.13182e-06,-5.55245e+08,-5.55159e+08,-5.55259e+08,-77643.1,0.0086644,0.141293,0,0.141559,13694.2,-20217.3,0,24418.6,77643.1
step02_gravity_refstate-crust.xmf,564,3.47561e-08,1.61963e-06,0,-1.11832e-06,-5.45384e+08,-5.45276e+08,-5.45387e+08,-76716.8,0.00876448,0.1375,0,0.137779,16119.8,-19857.9,0,25577,76716.8
step02_gravity_refstate-crust.xmf,565,1.26225e-06,4.28002e-07,0,3.61685e-07,-6.90219e+08,-6.90276e+08,-6.90305e+08,24811.6,-0.00249554,0.15305,-0,0.153071,-1941.68,-25133.9,-0,25208.8,24811.6
step02_gravity_refstate-crust.xmf,566,3.16103e-07,1.40142e-06,0,-1.20102e-06,-5.99598e+08,-5.99523e+08,-5.99619e+08,-82390.1,0.00908029,0.141949,0,0.142239,12061.7,-21832.4,0,24942.7,82390.1
step02_gravity_refstate-crust.xmf,567,-4.83785e-07,2.06427e-06,0,-1.31209e-07,-4.88088e+08,-4.87913e+08,-4.88055e+08,-9000.94,0.00114923,0.116429,0,0.116435,37630.6,-17770.6,0,41615.5,9000.94
step02_gravity_refstate-crust.xmf,568,-8.3776e-07,3.68817e-06,0,3.61945e-06,-1.0707e+09,-1.07039e+09,-1.07064e+09,248294,-0.0230233,0.107886,-0,0.110316,-11129.5,-38982.1,-0,40539.8,248294
step02_gravity_refstate-crust.xmf,569,1.35876e-06,3.78515e-07,0,5.19593e-07,-7.23941e+08,-7.24008e+08,-7.24034e+08,35644.1,-0.00352514,0.15219,-0,0.15223,-2512.11,-26361.9,-0,26481.3,35644.1
step02_gravity_refstate-crust.xmf,570,1.44406e-06,3.44827e-07,0,7.96686e-07,-7.63106e+08,-7.63181e+08,-7.63205e+08,54652.7,-0.00531176,0.150793,-0,0.150886,-3439.94,-27788,-0,28000.1,54652.7
step02_gravity_refstate-crust.xmf,571,-4.47791e-07,3.08739e-06,0,3.99965e-06,-1.07387e+09,-1.07363e+09,-1.07384e+09,274376,-0.0239402,0.115333,-0,0.117792,-9936.61,-39098.2,-0,40341.1,274376
step02_gravity_refstate-crust.xmf,572,1.51228e-06,3.21318e-07,0,1.07351e-06,-8.0017e+08,-8.00252e+08,-8.00274e+08,73642.5,-0.00702065,0.149371,-0,0.149536,-4155.89,-29137.6,-0,29432.5,73642.5
step02_gravity_refstate-crust.xmf,573,1.57598e-06,2.96136e-07,0,1.36566e-06,-8.37563e+08,-8.37651e+08,-8.37671e+08,93684.1,-0.00873431,0.147958,-0,0.148215,-4715.51,-30499.2,-0,30861.5,93684.1
step02_gravity_refstate-crust.xmf,574,1.08265e-06,1.04462e-06,0,2.95849e-06,-9.69059e+08,-9.69061e+08,-9.69133e+08,202952,-0.0177629,0.136135,-0,0.137289,-7591.66,-35285.6,-0,36093,202952
step02_gravity_refstate-crust.xmf,575,1.58073e-06,3.35045e-07,0,1.70898e-06,-8.71654e+08,-8.71739e+08,-8.71762e+08,117236,-0.010707,0.146131,-0,0.146522,-5353.8,-31740.3,-0,32188.7,117236
step02_gravity_refstate-crust.xmf,576,1.51917e-06,4.47938e-07,0,2.09505e-06,-9.04487e+08,-9.04561e+08,-9.04592e+08,143721,-0.0128789,0.143777,-0,0.144353,-6026.68,-32935.6,-0,33482.5,143721
step02_gravity_refstate-crust.xmf,577,1.37692e-06,6.44572e-07,0,2.49573e-06,-9.34988e+08,-9.35038e+08,-9.35082e+08,171207,-0.0151127,0.140805,-0,0.141614,-6716.66,-34045.7,-0,34701.9,171207
step02_gravity_refstate-crust.xmf,578,-2.21212e-07,1.78629e-06,0,-9.16196e-07,-4.96733e+08,-4.96595e+08,-4.96717e+08,-62851,0.00748307,0.130822,0,0.131036,21886,-18085.9,0,28391.8,62851
step02_gravity_refstate-crust.xmf,579,-3.07496e-07,1.90389e-06,0,-8.26869e-07,-5.01048e+08,-5.00896e+08,-5.01027e+08,-56723.2,0.00687548,0.126944,0,0.12713,24308.6,-18242.8,0,30392.6,56723.2
step02_gravity_refstate-crust.xmf,580,-4.2356e-07,2.09393e-06,0,-6.11551e-07,-5.14589e+08,-5.14417e+08,-5.1456e+08,-41952.4,0.00524578,0.120161,0,0.120275,28940.8,-18735.7,0,34476,41952.4
step02_gravity_refstate-crust.xmf,581,-3.75075e-07,2.00872e-06,0,-7.22249e-07,-5.07623e+08,-5.0746e+08,-5.07598e+08,-49546.3,0.00610684,0.123298,0,0.12345,26690,-18482.1,0,32464.6,49546.3
step02_gravity_refstate-crust.xmf,582,-9.80505e-08,1.78577e-06,0,-1.08743e-06,-5.45874e+08,-5.45745e+08,-5.45868e+08,-74597.7,0.00869153,0.133451,0,0.133734,18368.9,-19875.5,0,27063.9,74597.7
step02_gravity_refstate-crust.xmf,583,1.12279e-06,4.92657e-07,0,-1.32333e-08,-6.35979e+08,-6.36022e+08,-6.36056e+08,-907.804,0.000107197,0.154445,0,0.154445,96.0569,-23158.8,0,23159,907.804
step02_gravity_refstate-crust.xmf,584,1.27252e-06,4.01771e-07,0,1.1168e-07,-6.8324e+08,-6.83299e+08,-6.83327e+08,7661.22,-0.000755705,0.153621,-0,0.153622,-594.597,-24879.8,-0,24886.9,7661.22
step02_gravity_refstate-crust.xmf,585,1.08498e-06,5.30614e-07,0,-3.06653e-07,-6.35714e+08,-6.35752e+08,-6.35789e+08,-21036.4,0.00216579,0.154004,0,0.154019,1955.16,-23149,0,23231.4,21036.4
step02_gravity_refstate-crust.xmf,586,1.0201e-06,6.15112e-07,0,-5.63584e-07,-6.37569e+08,-6.37596e+08,-6.37639e+08,-38661.8,0.0040031,0.152848,0,0.152901,3675.11,-23216.4,0,23505.5,38661.8
step02_gravity_refstate-crust.xmf,587,9.15419e-07,7.47354e-07,0,-7.94699e-07,-6.38592e+08,-6.38603e+08,-6.38654e+08,-54516.3,0.00569432,0.151067,0,0.151174,5399.67,-23253.4,0,23872.1,54516.3
step02_gravity_refstate-crust.xmf,588,7.77346e-07,9.2284e-07,0,-9.97709e-07,-6.40219e+08,-6.40209e+08,-6.40272e+08,-68442.8,0.00723059,0.148618,0,0.148794,7175.49,-23312.4,0,24391.7,68442.8
step02_gravity_refstate-crust.xmf,589,6.09543e-07,1.13452e-06,0,-1.15911e-06,-6.40955e+08,-6.40919e+08,-6.40997e+08,-79514.7,0.00853026,0.145561,0,0.145811,9024.53,-23338.8,0,25022.9,79514.7
step02_gravity_refstate-crust.xmf,590,4.3134e-07,1.36542e-06,0,-1.27444e-06,-6.43361e+08,-6.43297e+08,-6.43391e+08,-87426.7,0.00954726,0.141987,0,0.142308,10881,-23426.1,0,25829.8,87426.7
step02_gravity_refstate-crust.xmf,591,-4.99892e-07,2.23111e-06,0,2.68327e-10,-5.24589e+08,-5.24402e+08,-5.24555e+08,18.4073,7.64577e-20,0.113291,0,0.113291,40000,-19099.6,0,44326,18.4073
step02_gravity_refstate-crust.xmf,592,4.34016e-08,2.36271e-06,0,4.28715e-06,-1.075e+09,-1.07484e+09,-1.075e+09,294098,-0.0242416,0.123096,-0,0.125461,-8797.91,-39140.3,-0,40116.9,294098
step02_gravity_refstate-crust.xmf,593,5.28579e-07,1.73912e-06,0,4.02452e-06,-1.05103e+09,-1.05094e+09,-1.05106e+09,276082,-0.0227004,0.128728,-0,0.130714,-8224.21,-38268.5,-0,39142.2,276082
step02_gravity_refstate-crust.xmf,594,1.29503e-06,7.65962e-07,0,3.24133e-06,-9.97651e+08,-9.97688e+08,-9.9774e+08,222355,-0.0185334,0.13797,-0,0.13921,-7012.79,-36326.9,-0,36997.6,222355
step02_gravity_refstate-crust.xmf,595,9.52024e-07,1.20112e-06,0,3.66534e-06,-1.02511e+09,-1.0251e+09,-1.02518e+09,251442,-0.0207577,0.133698,-0,0.1353,-7631.24,-37326,-0,38098.1,251442
step02_gravity_refstate-crust.xmf,596,-4.94289e-07,2.23766e-06,0,-2.25833e-07,-5.28166e+08,-5.27978e+08,-5.28132e+08,-15492.2,0.00200247,0.113819,0,0.113837,35985.8,-19229.9,0,40801.6,15492.2
step02_gravity_refstate-crust.xmf,597,-5.12874e-07,2.38705e-06,0,-1.23062e-07,-5.5981e+08,-5.59611e+08,-5.59775e+08,-8442.04,0.00110583,0.110568,0,0.110574,37842.7,-20382.1,0,42982.5,8442.04
step02_gravity_refstate-crust.xmf,598,-4.60195e-07,2.17332e-06,0,-4.8705e-07,-5.23231e+08,-5.23051e+08,-5.232e+08,-33411.6,0.00424191,0.117208,0,0.117285,31295.4,-19050.3,0,36637.6,33411.6
step02_gravity_refstate-crust.xmf,599,-4.88319e-07,2.27938e-06,0,-3.60354e-07,-5.4097e+08,-5.4078e+08,-5.40936e+08,-24720.3,0.00318759,0.114003,0,0.114047,33634.3,-19696.1,0,38977,24720.3
step02_gravity_refstate-crust.xmf,600,-2.15595e-07,1.9335e-06,0,-1.03344e-06,-5.48866e+08,-5.48718e+08,-5.48851e+08,-70894.3,0.00837936,0.129374,0,0.129645,20596.9,-19984.1,0,28698.4,70894.3
step02_gravity_refstate-crust.xmf,601,6.57736e-08,1.71932e-06,0,-1.22926e-06,-5.9658e+08,-5.96467e+08,-5.96584e+08,-84327.5,0.00961563,0.136031,0,0.13637,15240.4,-21722,0,26535.2,84327.5
step02_gravity_refstate-crust.xmf,602,-7.38917e-08,1.89847e-06,0,-1.20093e-06,-5.96269e+08,-5.96134e+08,-5.96264e+08,-82383.5,0.00959399,0.132111,0,0.132459,17265.7,-21710.4,0,27738.9,82383.5
step02_gravity_refstate-crust.xmf,603,1.79569e-07,1.59856e-06,0,-1.25133e-06,-6.07312e+08,-6.07215e+08,-6.07325e+08,-85841.5,0.00963746,0.138389,0,0.138724,13703.3,-22113,0,26014.7,85841.5
step02_gravity_refstate-crust.xmf,604,1.42171e-06,3.00003e-07,0,2.46896e-07,-7.25647e+08,-7.25724e+08,-7.25744e+08,16937.1,-0.00166038,0.152928,-0,0.152937,-1162.28,-26424.1,-0,26449.7,16937.1
step02_gravity_refstate-crust.xmf,605,2.54766e-07,1.59034e-06,0,-1.34313e-06,-6.45667e+08,-6.45575e+08,-6.45684e+08,-92138.9,0.0102182,0.138192,0,0.138569,12694.2,-23509.6,0,26717.9,92138.9
step02_gravity_refstate-crust.xmf,606,1.5544e-06,2.05306e-07,0,4.51873e-07,-7.63261e+08,-7.63354e+08,-7.63368e+08,30998.5,-0.00298341,0.152218,-0,0.152247,-1885.52,-27793.9,-0,27857.8,30998.5
step02_gravity_refstate-crust.xmf,607,1.67292e-06,1.18968e-07,0,7.17718e-07,-8.00236e+08,-8.00342e+08,-8.0035e+08,49235.5,-0.00463281,0.151351,-0,0.151422,-2655.35,-29140.3,-0,29261.1,49235.5
step02_gravity_refstate-crust.xmf,608,1.77603e-06,4.30746e-08,0,1.01385e-06,-8.36185e+08,-8.36304e+08,-8.36307e+08,69550.2,-0.00638926,0.150396,-0,0.150531,-3334.2,-30449.4,-0,30631.4,69550.2
step02_gravity_refstate-crust.xmf,609,1.85629e-06,-1.39163e-08,0,1.34955e-06,-8.71213e+08,-8.71341e+08,-8.7134e+08,92578.9,-0.0082921,0.149313,-0,0.149544,-3955.48,-31724.9,-0,31970.5,92578.9
step02_gravity_refstate-crust.xmf,610,1.54662e-06,4.37483e-07,0,2.77617e-06,-9.68694e+08,-9.6877e+08,-9.688e+08,190445,-0.0161265,0.14158,-0,0.142495,-6360.63,-35273.2,-0,35842.1,190445
step02_gravity_refstate-crust.xmf,611,1.88666e-06,-1.8416e-08,0,1.74326e-06,-9.04576e+08,-9.04707e+08,-9.04706e+08,119588,-0.0104481,0.147889,-0,0.148258,-4596.75,-32939.6,-0,33258.8,119588
step02_gravity_refstate-crust.xmf,612,1.8753e-06,1.16176e-08,0,2.24751e-06,-9.42089e+08,-9.42216e+08,-9.42217e+08,154179,-0.0130195,0.146009,-0,0.146588,-5241.36,-34305.3,-0,34703.4,154179
step02_gravity_refstate-crust.xmf,613,-5.18456e-07,2.49856e-06,0,-2.43834e-07,-5.86173e+08,-5.85966e+08,-5.86138e+08,-16727,0.0022288,0.108928,0,0.108951,35724.7,-21342,0,41614.1,16727
step02_gravity_refstate-crust.xmf,614,-3.12718e-07,2.09623e-06,0,-9.41277e-07,-5.57174e+08,-5.57009e+08,-5.57153e+08,-64571.6,0.00784949,0.124872,0,0.125118,22961.7,-20286.5,0,30639.6,64571.6
step02_gravity_refstate-crust.xmf,615,-4.79238e-07,2.37493e-06,0,-5.67781e-07,-5.71153e+08,-5.70957e+08,-5.7112e+08,-38949.8,0.005016,0.114358,0,0.114468,30098.2,-20795.1,0,36583.3,38949.8
step02_gravity_refstate-crust.xmf,616,-3.8796e-07,2.20649e-06,0,-8.25101e-07,-5.60131e+08,-5.59953e+08,-5.60104e+08,-56601.9,0.00702183,0.121013,0,0.121217,25378.9,-20394,0,32557.6,56601.9
step02_gravity_refstate-crust.xmf,617,-4.4223e-07,2.29893e-06,0,-6.99395e-07,-5.65082e+08,-5.64894e+08,-5.65052e+08,-47978.5,0.00606749,0.117484,0,0.11764,27751.3,-20574.2,0,34546.1,47978.5
step02_gravity_refstate-crust.xmf,618,-2.03601e-07,2.07691e-06,0,-1.14195e-06,-5.99336e+08,-5.99179e+08,-5.99322e+08,-78337.8,0.00934044,0.127822,0,0.128163,19398.5,-21821.8,0,29197.5,78337.8
step02_gravity_refstate-crust.xmf,619,1.25408e-06,4.1778e-07,0,-1.91668e-07,-6.7959e+08,-6.79647e+08,-6.79676e+08,-13148.4,0.00133713,0.153571,0,0.153577,1064.39,-24746.9,0,24769.8,13148.4
step02_gravity_refstate-crust.xmf,620,1.42649e-06,2.87636e-07,0,-6.79033e-08,-7.23047e+08,-7.23125e+08,-7.23145e+08,-4658.16,0.00047102,0.153148,0,0.153148,330.912,-26329.5,0,26331.5,4658.16
step02_gravity_refstate-crust.xmf,621,1.18603e-06,4.95444e-07,0,-4.98102e-07,-6.80013e+08,-6.80061e+08,-6.80095e+08,-34169.8,0.00347754,0.152668,0,0.152708,2810.92,-24762.1,0,24921.2,34169.8
step02_gravity_refstate-crust.xmf,622,1.08113e-06,6.29777e-07,0,-7.79113e-07,-6.8168e+08,-6.81711e+08,-6.81754e+08,-53447.2,0.00548205,0.150978,0,0.151078,4550.67,-24822.6,0,25236.3,53447.2
step02_gravity_refstate-crust.xmf,623,9.35349e-07,8.16013e-07,0,-1.02026e-06,-6.83222e+08,-6.8323e+08,-6.83286e+08,-69990.2,0.0072642,0.148601,0,0.148779,6284.04,-24878.4,0,25659.8,69990.2
step02_gravity_refstate-crust.xmf,624,7.56852e-07,1.04464e-06,0,-1.21543e-06,-6.84609e+08,-6.84589e+08,-6.84661e+08,-83378.3,0.00879,0.145577,0,0.145842,8048.53,-24928.6,0,26195.6,83378.3
step02_gravity_refstate-crust.xmf,625,5.58844e-07,1.30121e-06,0,-1.3579e-06,-6.86347e+08,-6.86296e+08,-6.86385e+08,-93152,0.0100085,0.14199,0,0.142342,9840.41,-24991.4,0,26859,93152
step02_gravity_refstate-crust.xmf,626,3.5448e-07,1.56981e-06,0,-1.44395e-06,-6.88318e+08,-6.88235e+08,-6.88343e+08,-99054.8,0.0108798,0.137972,0,0.1384,11653.1,-25062.8,0,27639.4,99054.8
step02_gravity_refstate-crust.xmf,627,-5.28213e-07,2.58094e-06,0,6.45171e-11,-6.02507e+08,-6.02294e+08,-6.02471e+08,4.42587,8.33146e-20,0.106465,0,0.106465,40000,-21936.7,0,45620.4,4.42587
step02_gravity_refstate-crust.xmf,628,6.77523e-07,1.4935e-06,0,4.44394e-06,-1.07508e+09,-1.07502e+09,-1.07512e+09,304854,-0.0238434,0.131068,-0,0.133219,-7670.26,-39144.3,-0,39888.7,304854
step02_gravity_refstate-crust.xmf,629,1.16882e-06,8.85732e-07,0,4.02317e-06,-1.05011e+09,-1.05013e+09,-1.05019e+09,275989,-0.021663,0.136172,-0,0.137884,-7063.4,-38236.3,-0,38883.3,275989
step02_gravity_refstate-crust.xmf,630,1.83569e-06,6.68502e-08,0,3.02301e-06,-9.98066e+08,-9.98187e+08,-9.98192e+08,207379,-0.0166647,0.143769,-0,0.144731,-5803.85,-36343.1,-0,36803.6,207379
step02_gravity_refstate-crust.xmf,631,1.56256e-06,4.02744e-07,0,3.53819e-06,-1.02457e+09,-1.02465e+09,-1.02468e+09,242720,-0.0192192,0.140445,-0,0.141754,-6429.87,-37307.5,-0,37857.6,242720
step02_gravity_refstate-crust.xmf,632,-5.38041e-07,2.69489e-06,0,-1.27551e-07,-6.28321e+08,-6.28099e+08,-6.28284e+08,-8750.02,0.00120166,0.10425,0,0.104257,37756.3,-22876.7,0,44146.1,8750.02
step02_gravity_refstate-crust.xmf,633,-5.00228e-07,2.42617e-06,0,-4.62517e-07,-5.76606e+08,-5.76405e+08,-5.76572e+08,-31728.7,0.00413768,0.112197,0,0.112273,31938.3,-20993.7,0,38220.3,31728.7
step02_gravity_refstate-crust.xmf,634,-3.29856e-07,2.31062e-06,0,-1.07539e-06,-6.19741e+08,-6.1956e+08,-6.19718e+08,-73771.9,0.00903028,0.122134,0,0.122468,21607,-22564.5,0,31241.3,73771.9
step02_gravity_refstate-crust.xmf,635,9.94278e-08,1.80237e-06,0,-1.35031e-06,-6.46039e+08,-6.45922e+08,-6.46045e+08,-92631.1,0.0105294,0.134508,0,0.134919,14430,-23522.9,0,27596.2,92631.1
step02_gravity_refstate-crust.xmf,636,-4.94858e-08,1.99854e-06,0,-1.32291e-06,-6.45228e+08,-6.45087e+08,-6.45224e+08,-90751.4,0.010551,0.13066,0,0.131086,16265.1,-23493.1,0,28574.1,90751.4
step02_gravity_refstate-crust.xmf,637,-1.84536e-07,2.18161e-06,0,-1.26254e-06,-6.45213e+08,-6.45051e+08,-6.452e+08,-86610.2,0.0103148,0.126612,0,0.127031,18201.7,-23492.3,0,29718.5,86610.2
step02_gravity_refstate-crust.xmf,638,1.60334e-06,1.41425e-07,0,1.0018e-07,-7.63678e+08,-7.63779e+08,-7.63788e+08,6872.32,-0.00064998,0.152812,-0,0.152813,-406.313,-27809.2,-0,27812.2,6872.32
step02_gravity_refstate-crust.xmf,639,1.58174e-07,1.81953e-06,0,-1.4789e-06,-6.89371e+08,-6.89257e+08,-6.89382e+08,-101452,0.0113591,0.133846,0,0.134327,13436.1,-25100.7,0,28470.6,101452
step02_gravity_refstate-crust.xmf,640,1.76797e-06,-2.0909e-09,0,3.20314e-07,-8.00257e+08,-8.00378e+08,-8.00378e+08,21973.5,-0.0020469,0.152494,-0,0.152508,-1152.02,-29141.3,-0,29164.1,21973.5
step02_gravity_refstate-crust.xmf,641,1.92781e-06,-1.48921e-07,0,5.93697e-07,-8.36499e+08,-8.36642e+08,-8.36631e+08,40727.6,-0.00369734,0.152117,-0,0.152162,-1877.72,-30461.2,-0,30519,40727.6
step02_gravity_refstate-crust.xmf,642,2.0708e-06,-2.85207e-07,0,9.12232e-07,-8.71234e+08,-8.71395e+08,-8.71376e+08,62579.1,-0.00552235,0.151668,-0,0.151768,-2544.45,-31726.1,-0,31827.9,62579.1
step02_gravity_refstate-crust.xmf,643,2.17801e-06,-3.88086e-07,0,1.2985e-06,-9.04189e+08,-9.04365e+08,-9.04338e+08,89077.3,-0.00763409,0.150998,-0,0.151191,-3216.55,-32926.1,-0,33082.9,89077.3
step02_gravity_refstate-crust.xmf,644,2.00094e-06,-1.45616e-07,0,2.56876e-06,-9.74603e+08,-9.7475e+08,-9.7474e+08,176217,-0.0143736,0.146185,-0,0.14689,-5216.97,-35489.2,-0,35870.7,176217
step02_gravity_refstate-crust.xmf,645,2.27478e-06,-4.90296e-07,0,1.71076e-06,-9.37058e+08,-9.37247e+08,-9.37214e+08,117358,-0.00973637,0.150366,-0,0.150681,-3746.94,-34123,-0,34328.1,117358
step02_gravity_refstate-crust.xmf,646,-5.3181e-07,2.64523e-06,0,-3.71893e-07,-6.20968e+08,-6.20751e+08,-6.20932e+08,-25511.8,0.00344483,0.106899,0,0.106954,33534.5,-22608.9,0,40444.1,25511.8
step02_gravity_refstate-crust.xmf,647,-5.3987e-07,2.74531e-06,0,-2.46161e-07,-6.40837e+08,-6.40611e+08,-6.408e+08,-16886.6,0.00234291,0.103741,0,0.103767,35656.1,-23332.4,0,42611.7,16886.6
step02_gravity_refstate-crust.xmf,648,-4.14141e-07,2.43345e-06,0,-9.36001e-07,-6.18881e+08,-6.18686e+08,-6.18853e+08,-64209.7,0.00808253,0.117973,0,0.11825,24101.2,-22533.1,0,32994.1,64209.7
step02_gravity_refstate-crust.xmf,649,-5.25817e-07,2.64887e-06,0,-5.14436e-07,-6.26706e+08,-6.26489e+08,-6.2667e+08,-35290.3,0.00473111,0.10828,0,0.108383,31129,-22817.8,0,38596.2,35290.3
step02_gravity_refstate-crust.xmf,650,-5.05664e-07,2.59686e-06,0,-6.53338e-07,-6.23224e+08,-6.23011e+08,-6.23189e+08,-44819,0.00589952,0.111011,0,0.111167,28836.9,-22691.1,0,36694,44819
step02_gravity_refstate-crust.xmf,651,-4.69226e-07,2.52207e-06,0,-7.96281e-07,-6.19631e+08,-6.19426e+08,-6.19599e+08,-54624.8,0.00703449,0.114362,0,0.114579,26471.9,-22560.3,0,34781.1,54624.8
step02_gravity_refstate-crust.xmf,652,-2.85334e-07,2.31838e-06,0,-1.18248e-06,-6.44098e+08,-6.43919e+08,-6.44078e+08,-81118.1,0.0098709,0.123119,0,0.123514,19985.2,-23451.4,0,30812,81118.1
step02_gravity_refstate-crust.xmf,653,1.37982e-06,3.4088e-07,0,-3.98653e-07,-7.21373e+08,-7.21445e+08,-7.21468e+08,-27347.6,0.00272034,0.152609,0,0.152634,1939.5,-26268.4,0,26339.9,27347.6
step02_gravity_refstate-crust.xmf,654,1.57973e-06,1.65916e-07,0,-2.69647e-07,-7.61771e+08,-7.61868e+08,-7.61879e+08,-18497.8,0.00179973,0.152625,0,0.152635,1134.82,-27739.7,0,27762.9,18497.8
step02_gravity_refstate-crust.xmf,655,1.27091e-06,4.7154e-07,0,-7.28e-07,-7.22248e+08,-7.22303e+08,-7.22336e+08,-49940.8,0.00501257,0.15116,0,0.151243,3656.99,-26300,0,26553.1,49940.8
step02_gravity_refstate-crust.xmf,656,1.11952e-06,6.65341e-07,0,-1.02119e-06,-7.23887e+08,-7.23918e+08,-7.23964e+08,-70053.7,0.00711058,0.148876,0,0.149046,5380.23,-26359.4,0,26902.9,70053.7
step02_gravity_refstate-crust.xmf,657,9.26231e-07,9.14047e-07,0,-1.26183e-06,-7.25409e+08,-7.2541e+08,-7.25472e+08,-86561.3,0.00892633,0.145852,0,0.146125,7117.61,-26414.4,0,27356.5,86561.3
step02_gravity_refstate-crust.xmf,658,7.03426e-07,1.20406e-06,0,-1.44409e-06,-7.2748e+08,-7.27445e+08,-7.27528e+08,-99064.8,0.0104212,0.142134,0,0.142516,8889.43,-26489.3,0,27941.1,99064.8
step02_gravity_refstate-crust.xmf,659,4.69988e-07,1.51217e-06,0,-1.55934e-06,-7.29805e+08,-7.29734e+08,-7.29837e+08,-106971,0.0115207,0.13792,0,0.1384,10667.6,-26573.5,0,28634.8,106971
step02_gravity_refstate-crust.xmf,660,2.44738e-07,1.81266e-06,0,-1.60622e-06,-7.31453e+08,-7.31345e+08,-7.31469e+08,-110187,0.0121843,0.133491,0,0.134046,12424.6,-26633.1,0,29388.6,110187
step02_gravity_refstate-crust.xmf,661,-5.45896e-07,2.91645e-06,0,-3.38631e-10,-6.78266e+08,-6.78029e+08,-6.78229e+08,-23.2301,9.89964e-20,0.098881,0,0.098881,40000,-24695.3,0,47009.1,23.2301
step02_gravity_refstate-crust.xmf,662,1.41496e-06,5.14311e-07,0,4.42554e-06,-1.07452e+09,-1.07459e+09,-1.07462e+09,303592,-0.022626,0.13902,-0,0.140849,-6537.5,-39125.7,-0,39668.1,303592
step02_gravity_refstate-crust.xmf,663,2.39179e-06,-6.34032e-07,0,2.12259e-06,-9.70101e+08,-9.70309e+08,-9.70265e+08,145610,-0.0116507,0.150153,-0,0.150605,-4066.28,-35326.2,-0,35559.4,145610
step02_gravity_refstate-crust.xmf,664,1.87649e-06,-3.32279e-08,0,3.84145e-06,-1.04925e+09,-1.04938e+09,-1.04938e+09,263523,-0.019808,0.143401,-0,0.144762,-5878.62,-38206.5,-0,38656.2,263523
step02_gravity_refstate-crust.xmf,665,2.3608e-06,-6.00824e-07,0,2.65282e-06,-9.98416e+08,-9.9862e+08,-9.98578e+08,181984,-0.0141747,0.148895,-0,0.149568,-4608.17,-36357,-0,36647.8,181984
step02_gravity_refstate-crust.xmf,666,2.19556e-06,-4.07711e-07,0,3.22444e-06,-1.02376e+09,-1.02394e+09,-1.02391e+09,221197,-0.0168854,0.146732,-0,0.147701,-5211.8,-37279.1,-0,37641.7,221197
step02_gravity_refstate-crust.xmf,667,-5.54004e-07,3.03035e-06,0,-1.41883e-07,-7.04249e+08,-7.04003e+08,-7.04211e+08,-9733.15,0.00143137,0.0964313,0,0.096442,37393.4,-25641.3,0,45340.4,9733.15
step02_gravity_refstate-crust.xmf,668,-3.87379e-07,2.57649e-06,0,-1.17152e-06,-6.81942e+08,-6.81738e+08,-6.81915e+08,-80366.4,0.0100486,0.117681,0,0.118109,21034.9,-24829.2,0,32541.6,80366.4
step02_gravity_refstate-crust.xmf,669,-1.52852e-08,2.07044e-06,0,-1.45658e-06,-6.91731e+08,-6.91588e+08,-6.9173e+08,-99921.6,0.0115364,0.129462,0,0.129975,15251.3,-25186.3,0,29444.1,99921.6
step02_gravity_refstate-crust.xmf,670,-1.76795e-07,2.2995e-06,0,-1.39552e-06,-6.93428e+08,-6.93258e+08,-6.93416e+08,-95732.5,0.0113751,0.124907,0,0.125424,17170,-25247.8,0,30532.9,95732.5
step02_gravity_refstate-crust.xmf,671,-3.00795e-07,2.46919e-06,0,-1.29501e-06,-6.90187e+08,-6.89997e+08,-6.90167e+08,-88838,0.010847,0.120927,0,0.121413,19095.6,-25129.6,0,31561.6,88838
step02_gravity_refstate-crust.xmf,672,1.78605e-06,-2.7415e-08,0,-9.42248e-08,-7.99824e+08,-7.99949e+08,-7.99947e+08,-6463.82,0.000624508,0.152737,0,0.152738,350.497,-29125.6,0,29127.7,6463.82
step02_gravity_refstate-crust.xmf,673,3.22938e-08,2.09129e-06,0,-1.60306e-06,-7.33026e+08,-7.32884e+08,-7.33028e+08,-109970,0.0124645,0.128917,0,0.129519,14185.9,-26689.9,0,30225.7,109970
step02_gravity_refstate-crust.xmf,674,1.99348e-06,-2.33117e-07,0,1.39149e-07,-8.35931e+08,-8.36084e+08,-8.36068e+08,9545.64,-0.000846014,0.152888,-0,0.15289,-425.479,-30440.6,-0,30443.6,9545.64
step02_gravity_refstate-crust.xmf,675,2.19508e-06,-4.4286e-07,0,4.26004e-07,-8.70659e+08,-8.7084e+08,-8.70809e+08,29223.9,-0.00254657,0.153024,-0,0.153045,-1152.69,-31705.4,-0,31726.3,29223.9
step02_gravity_refstate-crust.xmf,676,2.3825e-06,-6.4663e-07,0,7.73661e-07,-9.04028e+08,-9.04236e+08,-9.04191e+08,53073.1,-0.00448477,0.153098,-0,0.153164,-1836.36,-32920.7,-0,32971.8,53073.1
step02_gravity_refstate-crust.xmf,677,2.55919e-06,-8.50243e-07,0,1.16339e-06,-9.36708e+08,-9.36942e+08,-9.36884e+08,79808.7,-0.00651638,0.153175,-0,0.153314,-2417.96,-34110.8,-0,34196.4,79808.7
step02_gravity_refstate-crust.xmf,678,2.73903e-06,-1.07239e-06,0,1.58086e-06,-9.6931e+08,-9.69571e+08,-9.69497e+08,108447,-0.00852856,0.153438,-0,0.153675,-2860.25,-35298.1,-0,35413.8,108447
step02_gravity_refstate-crust.xmf,679,-4.53923e-07,2.66715e-06,0,-1.04067e-06,-6.76555e+08,-6.76341e+08,-6.76524e+08,-71390.3,0.00913891,0.114437,0,0.114801,23028.3,-24633,0,33720.7,71390.3
step02_gravity_refstate-crust.xmf,680,-5.57496e-07,2.97755e-06,0,-2.91347e-07,-6.93342e+08,-6.931e+08,-6.93304e+08,-19986.4,0.00289488,0.098736,0,0.0987784,34743.9,-25244.2,0,42946.5,19986.4
step02_gravity_refstate-crust.xmf,681,-5.06998e-07,2.75716e-06,0,-8.92492e-07,-6.75553e+08,-6.75329e+08,-6.75518e+08,-61225,0.00805213,0.110787,0,0.111079,25256.6,-24596.4,0,35254.5,61225
step02_gravity_refstate-crust.xmf,682,-5.60804e-07,2.9279e-06,0,-4.37405e-07,-6.84316e+08,-6.84077e+08,-6.84278e+08,-30006,0.00424441,0.101395,0,0.101484,32307.7,-24915.5,0,40799.1,30006
step02_gravity_refstate-crust.xmf,683,-5.57209e-07,2.88978e-06,0,-5.85409e-07,-6.80869e+08,-6.80633e+08,-6.80831e+08,-40159,0.00556259,0.104024,0,0.104172,29932.4,-24789.9,0,38865,40159
step02_gravity_refstate-crust.xmf,684,-5.40254e-07,2.82993e-06,0,-7.40668e-07,-6.77044e+08,-6.76813e+08,-6.77007e+08,-50809.8,0.00685878,0.107307,0,0.107526,27544.9,-24650.7,0,36964.5,50809.8
step02_gravity_refstate-crust.xmf,685,1.49647e-06,2.67778e-07,0,-6.52029e-07,-7.62747e+08,-7.62832e+08,-7.6285e+08,-44729.2,0.00435153,0.151491,0,0.151553,2788.06,-27775,0,27914.6,44729.2
step02_gravity_refstate-crust.xmf,686,1.7322e-06,4.13033e-08,0,-5.14633e-07,-8.00361e+08,-8.00477e+08,-8.0048e+08,-35303.8,0.0033455,0.152038,0,0.152074,1895.76,-29145,0,29206.6,35303.8
step02_gravity_refstate-crust.xmf,687,1.33331e-06,4.70512e-07,0,-1.00494e-06,-7.64213e+08,-7.64272e+08,-7.64304e+08,-68938.7,0.00680687,0.149359,0,0.149514,4502.99,-27828.1,0,28190,68938.7
step02_gravity_refstate-crust.xmf,688,1.12042e-06,7.41195e-07,0,-1.29986e-06,-7.648e+08,-7.64826e+08,-7.64877e+08,-89170.1,0.00894899,0.146361,0,0.146635,6230.51,-27849,0,28537.4,89170.1
step02_gravity_refstate-crust.xmf,689,8.72213e-07,1.06471e-06,0,-1.53209e-06,-7.67336e+08,-7.67323e+08,-7.67396e+08,-105101,0.0107638,0.142523,0,0.142929,7983.56,-27940.8,0,29059,105101
step02_gravity_refstate-crust.xmf,690,5.97286e-07,1.42808e-06,0,-1.68288e-06,-7.69231e+08,-7.69174e+08,-7.69272e+08,-115445,0.0121387,0.137993,0,0.138526,9788.47,-28009.2,0,29670.4,115445
step02_gravity_refstate-crust.xmf,691,3.3714e-07,1.77427e-06,0,-1.74778e-06,-7.70424e+08,-7.70326e+08,-7.70447e+08,-119898,0.0129721,0.133309,0,0.133938,11520.4,-28052.2,0,30325.6,119898
step02_gravity_refstate-crust.xmf,692,1.11454e-07,2.07755e-06,0,-1.74278e-06,-7.70383e+08,-7.70248e+08,-7.70391e+08,-119555,0.013326,0.128821,0,0.129508,13150.8,-28050.2,0,30980,119555
step02_gravity_refstate-crust.xmf,693,-5.45218e-07,3.23163e-06,0,-6.49793e-10,-7.52067e+08,-7.51808e+08,-7.52029e+08,-44.5758,7.88935e-20,0.0906197,0,0.0906197,40000,-27382.5,0,48474.8,44.5758
step02_gravity_refstate-crust.xmf,694,2.20898e-06,-5.17456e-07,0,4.18111e-06,-1.07361e+09,-1.07379e+09,-1.07376e+09,286824,-0.0205098,0.146565,-0,0.147993,-5402.89,-39093.8,-0,39465.4,286824
step02_gravity_refstate-crust.xmf,695,2.81045e-06,-1.1667e-06,0,2.11865e-06,-9.9709e+08,-9.97363e+08,-9.97283e+08,145339,-0.0110683,0.153045,-0,0.153444,-3429.09,-36309.6,-0,36471.2,145339
step02_gravity_refstate-crust.xmf,696,2.62692e-06,-1.00146e-06,0,3.40485e-06,-1.04805e+09,-1.0483e+09,-1.04823e+09,233572,-0.0168986,0.150313,-0,0.15126,-4619.01,-38164.3,-0,38442.8,233572
step02_gravity_refstate-crust.xmf,697,2.79487e-06,-1.16828e-06,0,2.74326e-06,-1.02429e+09,-1.02456e+09,-1.02448e+09,188187,-0.0139058,0.152159,-0,0.152793,-4005.57,-37299.7,-0,37514.1,188187
step02_gravity_refstate-crust.xmf,698,-5.59384e-07,3.26616e-06,0,-2.22391e-07,-7.59655e+08,-7.59392e+08,-7.59616e+08,-15256,0.00238924,0.0907319,0,0.0907634,35642.1,-27658.8,0,45115.1,15256
step02_gravity_refstate-crust.xmf,699,-5.06033e-07,2.90405e-06,0,-1.14207e-06,-7.32037e+08,-7.31803e+08,-7.32002e+08,-78346.2,0.0101821,0.110633,0,0.1111,22066.3,-26653,0,34602.1,78346.2
step02_gravity_refstate-crust.xmf,700,-4.31399e-07,2.78667e-06,0,-1.29163e-06,-7.3558e+08,-7.35359e+08,-7.3555e+08,-88606.1,0.0111608,0.114422,0,0.114965,20089.3,-26782.1,0,33479.3,88606.1
step02_gravity_refstate-crust.xmf,701,-1.61528e-07,2.40034e-06,0,-1.56591e-06,-7.44052e+08,-7.43877e+08,-7.44041e+08,-107422,0.0125905,0.123356,0,0.123997,16012.2,-27091,0,31469.3,107422
step02_gravity_refstate-crust.xmf,702,-3.22146e-07,2.62832e-06,0,-1.43577e-06,-7.4025e+08,-7.40048e+08,-7.40228e+08,-98493.7,0.0119977,0.118553,0,0.119159,18094.5,-26952.3,0,32462.9,98493.7
step02_gravity_refstate-crust.xmf,703,1.96733e-06,-2.17681e-07,0,-3.29494e-07,-8.36916e+08,-8.37066e+08,-8.37051e+08,-22603.3,0.00205863,0.152688,0,0.152702,1035.16,-30476.4,0,30494,22603.3
step02_gravity_refstate-crust.xmf,704,-5.7313e-08,2.3082e-06,0,-1.69839e-06,-7.69481e+08,-7.69319e+08,-7.69477e+08,-116510,0.0133334,0.125048,0,0.125756,14545.2,-28017.1,0,31567.7,116510
step02_gravity_refstate-crust.xmf,705,-5.40728e-07,3.37479e-06,0,-1.02006e-07,-7.86512e+08,-7.86243e+08,-7.86474e+08,-6997.61,0.0011374,0.0867167,0,0.0867242,37879.6,-28636.8,0,47486.1,6997.61
step02_gravity_refstate-crust.xmf,706,2.23203e-06,-4.90754e-07,0,-8.65256e-08,-8.71297e+08,-8.71483e+08,-8.7145e+08,-5935.66,0.000542975,0.153376,0,0.153377,244.078,-31728.7,0,31729.6,5935.66
step02_gravity_refstate-crust.xmf,707,2.48205e-06,-7.7356e-07,0,2.1162e-07,-9.04334e+08,-9.04557e+08,-9.04504e+08,14517.1,-0.00120201,0.154077,-0,0.154082,-485.228,-32932,-0,32935.6,14517.1
step02_gravity_refstate-crust.xmf,708,2.72592e-06,-1.06012e-06,0,5.63762e-07,-9.36226e+08,-9.36485e+08,-9.36413e+08,38674.1,-0.0031154,0.154783,-0,0.154814,-1133.69,-34093.6,-0,34112.5,38674.1
step02_gravity_refstate-crust.xmf,709,2.95726e-06,-1.3441e-06,0,9.77088e-07,-9.66997e+08,-9.67292e+08,-9.672e+08,67028.2,-0.00520669,0.155489,-0,0.155576,-1713.68,-35214.4,-0,35256.1,67028.2
step02_gravity_refstate-crust.xmf,710,2.91708e-06,-1.42686e-06,0,3.80081e-06,-1.07461e+09,-1.07491e+09,-1.07481e+09,260735,-0.017993,0.152721,-0,0.153777,-4393.33,-39131.8,-0,39377.7,260735
step02_gravity_refstate-crust.xmf,711,3.15916e-06,-1.60509e-06,0,1.47477e-06,-9.96414e+08,-9.96741e+08,-9.96631e+08,101169,-0.00757064,0.156099,-0,0.156282,-2264.74,-36285.8,-0,36356.4,101169
step02_gravity_refstate-crust.xmf,712,-5.55367e-07,2.99459e-06,0,-9.85992e-07,-7.29958e+08,-7.29715e+08,-7.2992e+08,-67639.1,0.00906599,0.106987,0,0.107371,24121.3,-26577.2,0,35891.3,67639.1
step02_gravity_refstate-crust.xmf,713,-5.75384e-07,3.2142e-06,0,-3.54697e-07,-7.47111e+08,-7.46851e+08,-7.47072e+08,-24332.2,0.00370166,0.0935728,0,0.093646,33340.5,-27202,0,43029.5,24332.2
step02_gravity_refstate-crust.xmf,714,-5.84453e-07,3.07059e-06,0,-8.22472e-07,-7.30816e+08,-7.30565e+08,-7.30776e+08,-56421.6,0.00781141,0.103277,0,0.103572,26322.1,-26608.5,0,37428.1,56421.6
step02_gravity_refstate-crust.xmf,715,-5.9051e-07,3.17783e-06,0,-5.0033e-07,-7.39799e+08,-7.3954e+08,-7.39758e+08,-34322.6,0.005064,0.0964123,0,0.0965452,30999.1,-26935.6,0,41066.7,34322.6
step02_gravity_refstate-crust.xmf,716,-5.95427e-07,3.134e-06,0,-6.57829e-07,-7.34831e+08,-7.34575e+08,-7.3479e+08,-45127.1,0.00645794,0.099622,0,0.0998311,28634.7,-26754.7,0,39188.8,45127.1
step02_gravity_refstate-crust.xmf,717,1.60044e-06,2.16943e-07,0,-9.73703e-07,-8.07634e+08,-8.07729e+08,-8.07744e+08,-66796,0.0063819,0.150064,0,0.1502,3651.19,-29409.5,0,29635.3,66796
step02_gravity_refstate-crust.xmf,718,1.89856e-06,-1.1087e-07,0,-7.69002e-07,-8.40103e+08,-8.40241e+08,-8.40233e+08,-52753.6,0.00483264,0.151563,0,0.15164,2448.52,-30592.3,0,30690.1,52753.6
step02_gravity_refstate-crust.xmf,719,2.16539e-06,-4.25084e-07,0,-5.87551e-07,-8.73101e+08,-8.73279e+08,-8.73249e+08,-40306,0.00355593,0.152727,0,0.152769,1604.74,-31794.2,0,31834.7,40306
step02_gravity_refstate-crust.xmf,720,1.35045e-06,5.16514e-07,0,-1.3235e-06,-8.03191e+08,-8.03248e+08,-8.03284e+08,-90791.9,0.00882313,0.147165,0,0.147429,5367.78,-29247.2,0,29735.7,90791.9
step02_gravity_refstate-crust.xmf,721,1.07987e-06,8.61221e-07,0,-1.60181e-06,-8.04767e+08,-8.04782e+08,-8.04841e+08,-109884,0.0108919,0.143458,0,0.143871,7030.89,-29304,0,30135.7,109884
step02_gravity_refstate-crust.xmf,722,7.57488e-07,1.30247e-06,0,-1.85049e-06,-8.12834e+08,-8.12797e+08,-8.12886e+08,-126943,0.012869,0.138171,0,0.138769,8917.67,-29597.1,0,30911.4,126943
step02_gravity_refstate-crust.xmf,723,4.27544e-07,1.73034e-06,0,-1.90949e-06,-8.08734e+08,-8.08645e+08,-8.08763e+08,-130991,0.013814,0.133023,0,0.133738,10761.7,-29447.2,0,31352,130991
step02_gravity_refstate-crust.xmf,724,1.63083e-07,2.08371e-06,0,-1.90423e-06,-8.07529e+08,-8.07398e+08,-8.07541e+08,-130630,0.0142439,0.128207,0,0.128996,12389.8,-29402.8,0,31906.6,130630
step02_gravity_refstate-crust.xmf,725,-5.036e-08,2.37284e-06,0,-1.83822e-06,-8.03913e+08,-8.03747e+08,-8.0391e+08,-126102,0.0142203,0.123827,0,0.124641,13944.8,-29270.7,0,32422.7,126102
step02_gravity_refstate-crust.xmf,726,-5.1689e-07,3.51874e-06,0,-1.32787e-09,-8.24106e+08,-8.23829e+08,-8.24071e+08,-91.0917,7.3896e-20,0.0817655,0,0.0817655,40000,-30005.8,0,50003.5,91.0917
step02_gravity_refstate-crust.xmf,727,-5.41351e-07,3.50697e-06,0,-1.68927e-07,-8.18457e+08,-8.1818e+08,-8.1842e+08,-11588.4,0.00197603,0.0832223,0,0.0832458,36240.6,-29800,0,46919.3,11588.4
step02_gravity_refstate-crust.xmf,728,3.30422e-06,-1.80966e-06,0,2.07978e-06,-1.02448e+09,-1.02483e+09,-1.02471e+09,142673,-0.0102842,0.156436,-0,0.156774,-2814.29,-37307.9,-0,37413.9,142673
step02_gravity_refstate-crust.xmf,729,3.35725e-06,-1.93208e-06,0,2.87987e-06,-1.05369e+09,-1.05405e+09,-1.05392e+09,197559,-0.0136525,0.156238,-0,0.156833,-3421.65,-38371.1,-0,38523.3,197559
step02_gravity_refstate-crust.xmf,730,-5.64072e-07,3.47424e-06,0,-2.72035e-07,-8.08256e+08,-8.07979e+08,-8.08217e+08,-18661.6,0.00309325,0.0855131,0,0.085569,34254.8,-29428.5,0,45160,18661.6
step02_gravity_refstate-crust.xmf,731,-6.14817e-07,3.23224e-06,0,-1.07558e-06,-7.81653e+08,-7.81389e+08,-7.81611e+08,-73784.8,0.0100358,0.103093,0,0.10358,23071.7,-28459.4,0,36636.6,73784.8
step02_gravity_refstate-crust.xmf,732,-5.64226e-07,3.12566e-06,0,-1.25014e-06,-7.82655e+08,-7.82402e+08,-7.82616e+08,-85759.5,0.0112238,0.107149,0,0.107735,21085,-28495.9,0,35448.4,85759.5
step02_gravity_refstate-crust.xmf,733,-4.81963e-07,2.98392e-06,0,-1.4199e-06,-7.84932e+08,-7.84695e+08,-7.84899e+08,-97405,0.0122665,0.111392,0,0.112066,19164.9,-28578.9,0,34410,97405
step02_gravity_refstate-crust.xmf,734,-3.62067e-07,2.79678e-06,0,-1.57668e-06,-7.87336e+08,-7.87119e+08,-7.87311e+08,-108160,0.0131026,0.115897,0,0.116635,17305.4,-28666.6,0,33485.1,108160
step02_gravity_refstate-crust.xmf,735,-2.174e-07,2.59684e-06,0,-1.7253e-06,-7.95908e+08,-7.95715e+08,-7.95893e+08,-118356,0.0138057,0.11997,0,0.120761,15518.7,-28979,0,32872.6,118356
step02_gravity_refstate-crust.xmf,736,2.04344e-06,-2.60044e-07,0,-1.03975e-06,-8.74628e+08,-8.74786e+08,-8.74768e+08,-71326.7,0.00632334,0.151186,0,0.151318,2904.42,-31849.6,0,31981.7,71326.7
step02_gravity_refstate-crust.xmf,737,-5.02711e-07,3.65947e-06,0,-8.59039e-08,-8.6063e+08,-8.60345e+08,-8.60596e+08,-5893.01,0.00105814,0.0772326,0,0.0772398,37844,-31335.7,0,49133.4,5893.01
step02_gravity_refstate-crust.xmf,738,2.4709e-06,-7.63059e-07,0,-3.6414e-07,-9.04942e+08,-9.05164e+08,-9.05112e+08,-24980,0.00213229,0.153936,0,0.153951,860.918,-32954.1,0,32965.4,24980
step02_gravity_refstate-crust.xmf,739,2.77995e-06,-1.13092e-06,0,-7.56211e-08,-9.36765e+08,-9.37033e+08,-9.36956e+08,-5187.61,0.000447933,0.155261,0,0.155261,161.708,-34113.4,0,34113.8,5187.61
step02_gravity_refstate-crust.xmf,740,3.08526e-06,-1.50589e-06,0,2.91292e-07,-9.66942e+08,-9.67257e+08,-9.67154e+08,19982.7,-0.00152261,0.156614,-0,0.156621,-494.282,-35212.6,-0,35216.1,19982.7
step02_gravity_refstate-crust.xmf,741,3.38262e-06,-1.88747e-06,0,7.50192e-07,-9.96391e+08,-9.96752e+08,-9.96623e+08,51463.1,-0.00379795,0.157978,-0,0.158023,-1111.14,-36285.4,-0,36302.4,51463.1
step02_gravity_refstate-crust.xmf,742,3.58439e-06,-2.28801e-06,0,3.37272e-06,-1.07995e+09,-1.08035e+09,-1.08019e+09,231369,-0.01536,0.158012,-0,0.158757,-3476.14,-39327.5,-0,39480.8,231369
step02_gravity_refstate-crust.xmf,743,3.64477e-06,-2.24038e-06,0,1.27859e-06,-1.02346e+09,-1.02386e+09,-1.02371e+09,87711.2,-0.00622756,0.159219,-0,0.159341,-1655.79,-37271.2,-0,37308,87711.2
step02_gravity_refstate-crust.xmf,744,-5.28567e-07,3.69915e-06,0,-1.87861e-07,-8.66263e+08,-8.65973e+08,-8.66227e+08,-12887.3,0.00237505,0.077404,0,0.0774404,35216.1,-31540.8,0,47275.7,12887.3
step02_gravity_refstate-crust.xmf,745,-6.38058e-07,3.30919e-06,0,-9.02077e-07,-7.82126e+08,-7.81855e+08,-7.82082e+08,-61882.5,0.00874504,0.0992515,0,0.099636,25125.8,-28476.6,0,37976.6,61882.5
step02_gravity_refstate-crust.xmf,746,-5.95066e-07,3.44834e-06,0,-4.02162e-07,-7.99681e+08,-7.99403e+08,-7.9964e+08,-27588.3,0.00441523,0.0882506,0,0.088361,32008.2,-29116.1,0,43269.8,27588.3
step02_gravity_refstate-crust.xmf,747,-6.40816e-07,3.37536e-06,0,-7.25932e-07,-7.86436e+08,-7.8616e+08,-7.86392e+08,-49798.9,0.00733332,0.0952497,0,0.0955316,27338.2,-28633.6,0,39588.7,49798.9
step02_gravity_refstate-crust.xmf,748,-6.26159e-07,3.43051e-06,0,-5.52994e-07,-7.94439e+08,-7.94161e+08,-7.94396e+08,-37935.4,0.00583931,0.0912328,0,0.0914195,29689.5,-28925.1,0,41450.3,37935.4
step02_gravity_refstate-crust.xmf,749,1.78698e-06,2.70381e-08,0,-1.12953e-06,-8.46466e+08,-8.46587e+08,-8.46589e+08,-77485.7,0.00708353,0.149952,0,0.150119,3608.2,-30823.7,0,31034.2,77485.7
step02_gravity_refstate-crust.xmf,750,2.34364e-06,-6.21364e-07,0,-9.06615e-07,-9.0645e+08,-9.06653e+08,-9.06611e+08,-62193.8,0.00531378,0.152742,0,0.152834,2170.87,-33008.7,0,33080,62193.8
step02_gravity_refstate-crust.xmf,751,1.58048e-06,2.79648e-07,0,-1.34953e-06,-8.38623e+08,-8.38712e+08,-8.38731e+08,-92577.5,0.00871119,0.148013,0,0.148269,4683.21,-30537.7,0,30894.8,92577.5
step02_gravity_refstate-crust.xmf,752,1.31768e-06,6.11502e-07,0,-1.65606e-06,-8.39388e+08,-8.39436e+08,-8.39478e+08,-113605,0.0108646,0.14468,0,0.145087,6151.15,-30565,0,31177.8,113605
step02_gravity_refstate-crust.xmf,753,1.01755e-06,9.997e-07,0,-1.89926e-06,-8.42561e+08,-8.42562e+08,-8.42631e+08,-130289,0.0127365,0.140496,0,0.141072,7665.94,-30679.9,0,31623.2,130289
step02_gravity_refstate-crust.xmf,754,4.84959e-07,1.71571e-06,0,-2.10019e-06,-8.46406e+08,-8.46322e+08,-8.46439e+08,-144073,0.0147884,0.132296,0,0.13312,10238.7,-30818.9,0,32475.1,144073
step02_gravity_refstate-crust.xmf,755,2.04091e-07,2.09393e-06,0,-2.09289e-06,-8.4526e+08,-8.4513e+08,-8.45274e+08,-143572,0.0152532,0.127434,0,0.128344,11729.1,-30776.6,0,32935.9,143572
step02_gravity_refstate-crust.xmf,756,-3.98224e-08,2.42955e-06,0,-2.02061e-06,-8.42433e+08,-8.42264e+08,-8.4243e+08,-138614,0.0152802,0.122668,0,0.123617,13238,-30673.2,0,33407.9,138614
step02_gravity_refstate-crust.xmf,757,-2.44848e-07,2.71848e-06,0,-1.89574e-06,-8.37743e+08,-8.37539e+08,-8.37726e+08,-130047,0.0149192,0.117995,0,0.118935,14826.3,-30502.1,0,33914.5,130047
step02_gravity_refstate-crust.xmf,758,-4.55499e-07,3.77236e-06,0,-9.11851e-10,-8.9458e+08,-8.9429e+08,-8.94549e+08,-62.553,4.77262e-20,0.0724109,0,0.0724109,40000,-32572.1,0,51584.3,62.553
step02_gravity_refstate-crust.xmf,759,3.89026e-06,-2.58522e-06,0,1.85387e-06,-1.04964e+09,-1.05008e+09,-1.04991e+09,127175,-0.00866802,0.160524,-0,0.160758,-2097.53,-38224.9,-0,38282.4,127175
step02_gravity_refstate-crust.xmf,760,4.07041e-06,-2.86873e-06,0,2.60468e-06,-1.07545e+09,-1.07592e+09,-1.07573e+09,178681,-0.0116751,0.161538,-0,0.16196,-2579.83,-39164.7,-0,39249.6,178681
step02_gravity_refstate-crust.xmf,761,-5.67387e-07,3.6973e-06,0,-2.97609e-07,-8.60225e+08,-8.59933e+08,-8.60186e+08,-20416,0.00362533,0.0795912,0,0.0796737,32970.6,-31320.8,0,45475.9,20416
step02_gravity_refstate-crust.xmf,762,-7.04573e-07,3.55078e-06,0,-9.79123e-07,-8.31238e+08,-8.30946e+08,-8.3119e+08,-67167.9,0.00963419,0.0952173,0,0.0957035,23971.1,-30264.7,0,38607.9,67167.9
step02_gravity_refstate-crust.xmf,763,-6.85694e-07,3.467e-06,0,-1.17085e-06,-8.30281e+08,-8.29996e+08,-8.30234e+08,-80320.5,0.0109984,0.099374,0,0.0999808,22014.4,-30229.8,0,37396.2,80320.5
step02_gravity_refstate-crust.xmf,764,-6.32144e-07,3.34101e-06,0,-1.3673e-06,-8.29885e+08,-8.29613e+08,-8.29842e+08,-93796.9,0.0122626,0.103891,0,0.104613,20106.9,-30215.4,0,36294.1,93796.9
step02_gravity_refstate-crust.xmf,765,-5.40597e-07,3.17256e-06,0,-1.55905e-06,-8.30704e+08,-8.30449e+08,-8.30667e+08,-106951,0.0133647,0.108597,0,0.109416,18265.6,-30245.3,0,35332.9,106951
step02_gravity_refstate-crust.xmf,766,-4.0912e-07,2.95991e-06,0,-1.73688e-06,-8.32665e+08,-8.32434e+08,-8.32637e+08,-119150,0.0142504,0.113411,0,0.114303,16498.3,-30316.9,0,34515.4,119150
step02_gravity_refstate-crust.xmf,767,1.83977e-06,-1.23241e-08,0,-1.41499e-06,-8.74747e+08,-8.74874e+08,-8.74874e+08,-97068,0.00870391,0.148961,0,0.149215,4129.2,-31853.5,0,32120,97068
step02_gravity_refstate-crust.xmf,768,2.15007e-06,-3.73826e-07,0,-1.39207e-06,-9.07146e+08,-9.07319e+08,-9.07293e+08,-95496,0.00821046,0.150578,0,0.150802,3449.18,-33033.7,0,33213.2,95496
step02_gravity_refstate-crust.xmf,769,7.5153e-07,1.36422e-06,0,-2.07646e-06,-8.51413e+08,-8.51371e+08,-8.51464e+08,-142445,0.0141603,0.136241,0,0.136975,8936.4,-31001.7,0,32264,142445
step02_gravity_refstate-crust.xmf,770,-4.13949e-07,3.88581e-06,0,-4.60282e-08,-9.28689e+08,-9.28394e+08,-9.28661e+08,-3157.54,0.000675334,0.0677865,0,0.0677899,38349,-33814.2,0,51127.8,3157.54
step02_gravity_refstate-crust.xmf,771,-4.50363e-07,3.91447e-06,0,-1.09232e-07,-9.30173e+08,-9.29873e+08,-9.30142e+08,-7493.34,0.00165508,0.0681858,0,0.0682058,36042,-33868.1,0,49457.8,7493.34
step02_gravity_refstate-crust.xmf,772,-3.50686e-07,3.985e-06,0,-2.54227e-09,-9.63682e+08,-9.63385e+08,-9.63658e+08,-174.399,4.48976e-20,0.0626479,0,0.0626479,40000,-35088.6,0,53209.1,174.399
step02_gravity_refstate-crust.xmf,773,2.70617e-06,-1.04618e-06,0,-7.22103e-07,-9.37717e+08,-9.37975e+08,-9.37903e+08,-49536.2,0.00404196,0.154525,0,0.154578,1469.34,-34147.9,0,34179.5,49536.2
step02_gravity_refstate-crust.xmf,774,3.08185e-06,-1.50736e-06,0,-4.47387e-07,-9.68236e+08,-9.68551e+08,-9.68447e+08,-30690.8,0.00240794,0.156532,0,0.15655,779.293,-35259.7,0,35268.3,30690.8
step02_gravity_refstate-crust.xmf,775,3.45467e-06,-1.97467e-06,0,-2.97028e-08,-9.96041e+08,-9.96414e+08,-9.96278e+08,-2037.61,0.000181662,0.158557,0,0.158557,52.9468,-36272.8,0,36272.8,2037.61
step02_gravity_refstate-crust.xmf,776,3.80754e-06,-2.45439e-06,0,4.53091e-07,-1.02285e+09,-1.02328e+09,-1.02311e+09,31082.1,-0.00218446,0.160535,-0,0.16055,-573.201,-37249.4,-0,37253.8,31082.1
step02_gravity_refstate-crust.xmf,777,4.16557e-06,-2.93214e-06,0,9.551e-07,-1.04872e+09,-1.04921e+09,-1.04901e+09,65519.9,-0.00440713,0.162592,-0,0.162651,-1045.8,-38192.1,-0,38206.4,65519.9
step02_gravity_refstate-crust.xmf,778,-5.06844e-07,3.9193e-06,0,-1.9394e-07,-9.21024e+08,-9.2072e+08,-9.20989e+08,-13304.3,0.00273565,0.0705427,0,0.0705957,33879.5,-33534.8,0,47669.7,13304.3
step02_gravity_refstate-crust.xmf,779,-6.96614e-07,3.6044e-06,0,-7.96766e-07,-8.3342e+08,-8.33125e+08,-8.33372e+08,-54658.1,0.00821684,0.0913546,0,0.0917234,25986.6,-30344.3,0,39950.9,54658.1
step02_gravity_refstate-crust.xmf,780,-6.20124e-07,3.69919e-06,0,-4.32521e-07,-8.54561e+08,-8.54265e+08,-8.54518e+08,-29670.9,0.00503092,0.0823813,0,0.0825348,30653.7,-31114.4,0,43677.8,29670.9
step02_gravity_refstate-crust.xmf,781,-6.8256e-07,3.70863e-06,0,-6.09737e-07,-8.52072e+08,-8.51771e+08,-8.52025e+08,-41828,0.00668088,0.0856843,0,0.0859443,28129.1,-31023.5,0,41877.3,41828
step02_gravity_refstate-crust.xmf,782,2.48978e-06,-7.89391e-07,0,-1.31319e-06,-9.38375e+08,-9.386e+08,-9.38546e+08,-90085.1,0.00744357,0.152584,0,0.152765,2770.05,-34171.3,0,34283.4,90085.1
step02_gravity_refstate-crust.xmf,783,1.56765e-06,3.36124e-07,0,-1.72189e-06,-8.73332e+08,-8.73416e+08,-8.73439e+08,-118122,0.0108686,0.145934,0,0.146338,5422.83,-31801.4,0,32260.4,118122
step02_gravity_refstate-crust.xmf,784,1.24938e-06,7.45236e-07,0,-1.997e-06,-8.74384e+08,-8.74419e+08,-8.7447e+08,-136994,0.0128896,0.141947,0,0.142531,6830.98,-31839,0,32563.6,136994
step02_gravity_refstate-crust.xmf,785,9.12058e-07,1.18842e-06,0,-2.1931e-06,-8.77301e+08,-8.77282e+08,-8.77364e+08,-150447,0.0145167,0.137319,0,0.138084,8240.55,-31944.6,0,32990.3,150447
step02_gravity_refstate-crust.xmf,786,5.83928e-07,1.62617e-06,0,-2.27995e-06,-8.7796e+08,-8.77889e+08,-8.78e+08,-156405,0.0155646,0.132492,0,0.133403,9619.18,-31967.9,0,33383.8,156405
step02_gravity_refstate-crust.xmf,787,-4.60364e-07,3.1089e-06,0,-1.91541e-06,-8.74492e+08,-8.74247e+08,-8.74461e+08,-131397,0.0154044,0.111311,0,0.112372,15691.6,-31839.7,0,35496.4,131397
step02_gravity_refstate-crust.xmf,788,2.67613e-07,2.05674e-06,0,-2.28871e-06,-8.78532e+08,-8.78409e+08,-8.7855e+08,-157006,0.0161797,0.127308,0,0.128332,11043.5,-31988.1,0,33840.8,157006
step02_gravity_refstate-crust.xmf,789,-2.182e-08,2.46029e-06,0,-2.21997e-06,-8.77993e+08,-8.77823e+08,-8.77992e+08,-152290,0.0163308,0.121914,0,0.123003,12538.2,-31967.9,0,34338.8,152290
step02_gravity_refstate-crust.xmf,790,-2.66214e-07,2.81294e-06,0,-2.08724e-06,-8.76156e+08,-8.75945e+08,-8.76138e+08,-143184,0.0160391,0.116558,0,0.117656,14093.2,-31900.6,0,34875,143184
step02_gravity_refstate-crust.xmf,791,-3.112e-07,4.07666e-06,0,-3.14736e-08,-9.93495e+08,-9.93194e+08,-9.93474e+08,-2159.09,0.000639014,0.0584736,0,0.0584771,37845.9,-36174.2,0,52353.5,2159.09
step02_gravity_refstate-crust.xmf,792,4.49844e-06,-3.39774e-06,0,1.61761e-06,-1.07404e+09,-1.07458e+09,-1.07435e+09,110968,-0.00714009,0.164612,-0,0.164767,-1534.48,-39114.5,-0,39144.6,110968
step02_gravity_refstate-crust.xmf,793,-5.72171e-07,3.92862e-06,0,-3.01581e-07,-9.13063e+08,-9.12755e+08,-9.13024e+08,-20688.4,0.00398397,0.0732826,0,0.0733908,31678.2,-33244.8,0,45920.8,20688.4
step02_gravity_refstate-crust.xmf,794,-7.6592e-07,3.8304e-06,0,-8.65846e-07,-8.76958e+08,-8.76642e+08,-8.76905e+08,-59397,0.00902613,0.0876767,0,0.08814,24713.5,-31929.4,0,40376.2,59397
step02_gravity_refstate-crust.xmf,795,-7.84791e-07,3.79374e-06,0,-1.05626e-06,-8.77309e+08,-8.76995e+08,-8.77255e+08,-72459.1,0.0104654,0.0913188,0,0.0919165,22859.6,-31942,0,39279.2,72459.1
step02_gravity_refstate-crust.xmf,796,-7.69663e-07,3.70064e-06,0,-1.2722e-06,-8.75641e+08,-8.75334e+08,-8.75588e+08,-87273.2,0.0119321,0.0958683,0,0.096608,20980.5,-31881.2,0,38165.3,87273.2
step02_gravity_refstate-crust.xmf,797,-7.14435e-07,3.55963e-06,0,-1.49796e-06,-8.75097e+08,-8.74804e+08,-8.75048e+08,-102760,0.0133133,0.100775,0,0.101651,19130.9,-31861.4,0,37163.7,102760
step02_gravity_refstate-crust.xmf,798,-6.09308e-07,3.35624e-06,0,-1.71309e-06,-8.7353e+08,-8.73258e+08,-8.73488e+08,-117518,0.0144666,0.106054,0,0.107037,17384.4,-31804.5,0,36245.6,117518
step02_gravity_refstate-crust.xmf,799,1.85883e-06,-1.27367e-08,0,-1.79407e-06,-9.06366e+08,-9.06495e+08,-9.06494e+08,-123073,0.0107746,0.147513,0,0.147906,4740.33,-33004.7,0,33343.4,123073
step02_gravity_refstate-crust.xmf,800,2.19384e-06,-4.18651e-07,0,-1.83671e-06,-9.38483e+08,-9.38662e+08,-9.38634e+08,-125999,0.0105241,0.149516,0,0.149886,4079.82,-34174.6,0,34417.3,125999
step02_gravity_refstate-crust.xmf,801,-3.86424e-07,4.11584e-06,0,-8.49426e-08,-9.88551e+08,-9.88242e+08,-9.88525e+08,-5827.07,0.00170478,0.0601656,0,0.0601897,34806.7,-35994,0,50070.7,5827.07
step02_gravity_refstate-crust.xmf,802,-2.05038e-07,4.15614e-06,0,-6.8707e-10,-1.0316e+09,-1.03131e+09,-1.03159e+09,-47.133,1.77522e-20,0.0525774,0,0.0525774,40000,-37562.2,0,54871.9,47.133
step02_gravity_refstate-crust.xmf,803,3.41826e-06,-1.97429e-06,0,-9.20023e-07,-1.00169e+09,-1.00206e+09,-1.00192e+09,-63113.6,0.00467678,0.15806,0,0.15813,1345.57,-36478.1,0,36503,63113.6
step02_gravity_refstate-crust.xmf,804,2.91212e-06,-1.31111e-06,0,-1.18481e-06,-9.68938e+08,-9.69228e+08,-9.69138e+08,-81278.3,0.00635214,0.154986,0,0.155116,2091.97,-35284.9,0,35346.9,81278.3
step02_gravity_refstate-crust.xmf,805,3.77035e-06,-2.40559e-06,0,-2.93065e-07,-1.0202e+09,-1.02062e+09,-1.02046e+09,-20104.3,0.00143757,0.160404,0,0.160411,381.636,-37152.9,0,37154.8,20104.3
step02_gravity_refstate-crust.xmf,806,4.2325e-06,-3.00185e-06,0,-9.74728e-08,-1.04722e+09,-1.04772e+09,-1.04751e+09,-6686.64,0.000491442,0.163144,0,0.163145,116.523,-38137.6,0,38137.8,6686.64
step02_gravity_refstate-crust.xmf,807,4.72813e-06,-3.68448e-06,0,5.46182e-07,-1.07378e+09,-1.07436e+09,-1.0741e+09,37468.1,-0.00235888,0.166204,-0,0.166221,-499.132,-39105.4,-0,39108.6,37468.1
step02_gravity_refstate-crust.xmf,808,-4.92696e-07,4.11199e-06,0,-1.86372e-07,-9.67267e+08,-9.66951e+08,-9.67233e+08,-12785.1,0.00295111,0.0646935,0,0.0647608,32499.1,-35218.7,0,47922.3,12785.1
step02_gravity_refstate-crust.xmf,809,-7.34101e-07,3.83664e-06,0,-7.13946e-07,-8.76433e+08,-8.76119e+08,-8.76383e+08,-48976.7,0.00777792,0.084888,0,0.0852436,26385,-31910.4,0,41405.8,48976.7
step02_gravity_refstate-crust.xmf,810,-6.46362e-07,3.96239e-06,0,-4.28468e-07,-9.10474e+08,-9.10158e+08,-9.1043e+08,-29392.9,0.00532971,0.0758074,0,0.0759945,29508.1,-33150.2,0,44380.9,29392.9
step02_gravity_refstate-crust.xmf,811,-6.86417e-07,3.53234e-06,0,-1.89142e-06,-9.13849e+08,-9.1356e+08,-9.13802e+08,-129752,0.0156065,0.103892,0,0.105058,16487,-33272.3,0,37133.1,129752
step02_gravity_refstate-crust.xmf,812,2.57413e-06,-8.91736e-07,0,-1.81419e-06,-9.68615e+08,-9.68853e+08,-9.68791e+08,-124453,0.00996055,0.152038,0,0.152364,3407.82,-35272.4,0,35436.7,124453
step02_gravity_refstate-crust.xmf,813,1.50516e-06,4.49265e-07,0,-2.11551e-06,-9.06995e+08,-9.07067e+08,-9.07098e+08,-145124,0.0130859,0.143501,0,0.144096,6100.98,-33026.8,0,33585.6,145124
step02_gravity_refstate-crust.xmf,814,1.12445e-06,9.45188e-07,0,-2.35249e-06,-9.08423e+08,-9.08435e+08,-9.085e+08,-161381,0.014954,0.138751,0,0.139554,7481,-33078.1,0,33913.5,161381
step02_gravity_refstate-crust.xmf,815,7.31948e-07,1.46537e-06,0,-2.48231e-06,-9.09671e+08,-9.09621e+08,-9.09721e+08,-170286,0.0163047,0.133403,0,0.134396,8891.74,-33122.7,0,34295.4,170286
step02_gravity_refstate-crust.xmf,816,3.55382e-07,1.97594e-06,0,-2.50984e-06,-9.10822e+08,-9.1071e+08,-9.10846e+08,-172175,0.0171156,0.127669,0,0.128811,10326.9,-33163.9,0,34734.5,172175
step02_gravity_refstate-crust.xmf,817,-5.10716e-07,3.23617e-06,0,-2.12007e-06,-9.13007e+08,-9.1275e+08,-9.12972e+08,-145437,0.0165848,0.109756,0,0.111002,14860.5,-33241.9,0,36412.3,145437
step02_gravity_refstate-crust.xmf,818,1.43292e-08,2.4522e-06,0,-2.44759e-06,-9.11799e+08,-9.11631e+08,-9.118e+08,-167905,0.0174035,0.121719,0,0.122957,11793.4,-33198.8,0,35231.3,167905
step02_gravity_refstate-crust.xmf,819,-2.77724e-07,2.87717e-06,0,-2.31179e-06,-9.12622e+08,-9.12405e+08,-9.12603e+08,-158588,0.0172097,0.115687,0,0.11696,13303.2,-33228.2,0,35792.3,158588
step02_gravity_refstate-crust.xmf,820,-1.63459e-07,4.2056e-06,0,1.07827e-09,-1.05139e+09,-1.05109e+09,-1.05138e+09,73.9694,0.000269179,0.049675,0,0.0496757,38282.6,-38282.8,0,54139.9,73.9694
step02_gravity_refstate-crust.xmf,821,-5.86794e-07,4.15197e-06,0,-2.91291e-07,-9.61104e+08,-9.60778e+08,-9.61063e+08,-19982.6,0.00420653,0.067457,0,0.067588,30321.1,-34994,0,46302.8,19982.6
step02_gravity_refstate-crust.xmf,822,-7.27762e-07,4.01763e-06,0,-5.7975e-07,-9.13233e+08,-9.12907e+08,-9.13183e+08,-39770.9,0.00679487,0.0781978,0,0.0784925,27328.1,-33250.4,0,43039.7,39770.9
step02_gravity_refstate-crust.xmf,823,-7.95459e-07,4.07045e-06,0,-7.30044e-07,-9.19159e+08,-9.18825e+08,-9.19104e+08,-50081,0.00814937,0.0802682,0,0.0806809,25462.6,-33466,0,42051.4,50081
step02_gravity_refstate-crust.xmf,824,-8.50679e-07,4.08138e-06,0,-9.15242e-07,-9.211e+08,-9.20761e+08,-9.21041e+08,-62785.6,0.00964114,0.0834335,0,0.0839887,23626.6,-33536.4,0,41023.3,62785.6
step02_gravity_refstate-crust.xmf,825,-8.81113e-07,4.04339e-06,0,-1.13485e-06,-9.20775e+08,-9.20438e+08,-9.20715e+08,-77851,0.0112351,0.0875389,0,0.0882569,21791.8,-33524.4,0,39984.6,77851
step02_gravity_refstate-crust.xmf,826,-8.69533e-07,3.93915e-06,0,-1.38409e-06,-9.1853e+08,-9.182e+08,-9.18471e+08,-94948.5,0.0128545,0.0925676,0,0.0934558,19957.1,-33442.6,0,38944.8,94948.5
step02_gravity_refstate-crust.xmf,827,-8.0495e-07,3.76551e-06,0,-1.64194e-06,-9.156e+08,-9.15286e+08,-9.15545e+08,-112637,0.014343,0.0981522,0,0.0991946,18183,-33335.9,0,37972.4,112637
step02_gravity_refstate-crust.xmf,828,2.16994e-06,-3.87337e-07,0,-2.34886e-06,-9.69523e+08,-9.69699e+08,-9.69672e+08,-161132,0.0130898,0.148006,0,0.148584,4708.53,-35304.6,0,35617.2,161132
step02_gravity_refstate-crust.xmf,829,1.80685e-06,6.84346e-08,0,-2.2517e-06,-9.38993e+08,-9.39112e+08,-9.39117e+08,-154466,0.0131984,0.145458,0,0.146055,5407.14,-34192.4,0,34617.3,154466
step02_gravity_refstate-crust.xmf,830,-4.01975e-07,4.24742e-06,0,-9.47145e-08,-1.01422e+09,-1.0139e+09,-1.01419e+09,-6497.42,0.00209461,0.0572491,0,0.0572874,32951.1,-36928.5,0,49492.3,6497.42
step02_gravity_refstate-crust.xmf,831,-2.18447e-07,4.22629e-06,0,-5.74899e-09,-1.04632e+09,-1.04601e+09,-1.0463e+09,-394.381,0.000672799,0.0508412,0,0.0508456,36309.9,-38097.8,0,52629.4,394.381
step02_gravity_refstate-crust.xmf,832,3.89177e-06,-2.57433e-06,0,-9.1211e-07,-1.03366e+09,-1.0341e+09,-1.03392e+09,-62570.7,0.0044464,0.160975,0,0.161036,1123.9,-37643.1,0,37659.8,62570.7
step02_gravity_refstate-crust.xmf,833,3.04068e-06,-1.49797e-06,0,-1.77382e-06,-9.9841e+08,-9.98721e+08,-9.98618e+08,-121684,0.00917822,0.155016,0,0.155288,2764.78,-36358.1,0,36463.1,121684
step02_gravity_refstate-crust.xmf,834,4.77076e-06,-3.75496e-06,0,-5.25876e-07,-1.07563e+09,-1.07621e+09,-1.07596e+09,-36075.1,0.00232979,0.166463,0,0.166479,489.202,-39172.8,0,39175.9,36075.1
step02_gravity_refstate-crust.xmf,835,-4.97227e-07,4.30437e-06,0,-1.61626e-07,-1.00955e+09,-1.00923e+09,-1.00952e+09,-11087.5,0.00299979,0.0593008,0,0.0593766,31087,-36758.5,0,48141.4,11087.5
step02_gravity_refstate-crust.xmf,836,-6.84315e-07,4.2086e-06,0,-4.18449e-07,-9.59037e+08,-9.58701e+08,-9.5899e+08,-28705.6,0.00555011,0.0700774,0,0.0702969,28255.9,-34918.4,0,44918.8,28705.6
step02_gravity_refstate-crust.xmf,837,-9.12392e-07,3.97679e-06,0,-1.81036e-06,-9.54516e+08,-9.54181e+08,-9.54454e+08,-124191,0.0154181,0.0957953,0,0.0970281,17227.4,-34752.6,0,38788.2,124191
step02_gravity_refstate-crust.xmf,838,-7.74824e-07,3.70425e-06,0,-2.09977e-06,-9.52132e+08,-9.51825e+08,-9.52079e+08,-144044,0.0167991,0.102101,0,0.103474,15585.6,-34665.9,0,38008.4,144044
step02_gravity_refstate-crust.xmf,839,2.584e-06,-9.13884e-07,0,-2.39272e-06,-9.97964e+08,-9.98204e+08,-9.98141e+08,-164141,0.0127299,0.151056,0,0.151591,4031.76,-36340.9,0,36563.9,164141
step02_gravity_refstate-crust.xmf,840,1.373e-06,6.4286e-07,0,-2.53903e-06,-9.40456e+08,-9.40506e+08,-9.40551e+08,-174178,0.0154082,0.140516,0,0.141359,6759.07,-34244.8,0,34905.5,174178
step02_gravity_refstate-crust.xmf,841,9.17016e-07,1.24437e-06,0,-2.72063e-06,-9.4222e+08,-9.42198e+08,-9.42283e+08,-186635,0.0170752,0.134781,0,0.135858,8152.87,-34308.1,0,35263.5,186635
step02_gravity_refstate-crust.xmf,842,4.72588e-07,1.84429e-06,0,-2.77518e-06,-9.43854e+08,-9.4376e+08,-9.43886e+08,-190377,0.0181177,0.128531,0,0.129802,9573.12,-34366.7,0,35675.1,190377
step02_gravity_refstate-crust.xmf,843,6.54143e-08,2.41045e-06,0,-2.71907e-06,-9.45606e+08,-9.45445e+08,-9.45611e+08,-186528,0.0185566,0.121959,0,0.123363,11024.4,-34429.7,0,36151.7,186528
step02_gravity_refstate-crust.xmf,844,-5.65332e-07,3.35062e-06,0,-2.36073e-06,-9.49883e+08,-9.49614e+08,-9.49844e+08,-161946,0.017832,0.108617,0,0.110071,14016.5,-34584.3,0,37316.7,161946
step02_gravity_refstate-crust.xmf,845,-2.84567e-07,2.91762e-06,0,-2.57309e-06,-9.47597e+08,-9.47378e+08,-9.47578e+08,-176514,0.0184385,0.115272,0,0.116738,12503.7,-34501.6,0,36697.4,176514
step02_gravity_refstate-crust.xmf,846,-2.85533e-07,4.2921e-06,0,-2.03245e-08,-1.04736e+09,-1.04705e+09,-1.04735e+09,-1394.26,0.00119301,0.0514739,0,0.0514877,34119.1,-38135.9,0,51170.9,1394.26
step02_gravity_refstate-crust.xmf,847,3.52958e-06,-2.14512e-06,0,-1.71354e-06,-1.0271e+09,-1.02749e+09,-1.02734e+09,-117549,0.00839652,0.158246,0,0.158468,2232.28,-37403.5,0,37470.1,117549
step02_gravity_refstate-crust.xmf,848,4.30958e-06,-3.15393e-06,0,-9.55978e-07,-1.05702e+09,-1.05753e+09,-1.05732e+09,-65580.1,0.00435745,0.163578,0,0.163636,997.489,-38494.5,0,38507.4,65580.1
step02_gravity_refstate-crust.xmf,849,-6.05762e-07,4.37912e-06,0,-2.55172e-07,-1.00742e+09,-1.00708e+09,-1.00738e+09,-17504.8,0.0041425,0.061536,0,0.0616752,29078.6,-36680.5,0,46808.3,17504.8
step02_gravity_refstate-crust.xmf,850,-3.74197e-07,4.39145e-06,0,-4.76525e-08,-1.0516e+09,-1.05128e+09,-1.05158e+09,-3268.96,0.00180646,0.0519938,0,0.0520252,31965.4,-38289.9,0,49878.9,3268.96
step02_gravity_refstate-crust.xmf,851,-7.87297e-07,4.28709e-06,0,-5.64294e-07,-9.62337e+08,-9.61989e+08,-9.62283e+08,-38710.6,0.0069362,0.0723263,0,0.0726582,26295.3,-35038.3,0,43807.8,38710.6
step02_gravity_refstate-crust.xmf,852,-8.79578e-07,4.34228e-06,0,-7.3847e-07,-9.6489e+08,-9.64532e+08,-9.6483e+08,-50659,0.0084453,0.0751408,0,0.0756139,24427.2,-35130.9,0,42788.7,50659
step02_gravity_refstate-crust.xmf,853,-9.59287e-07,4.36548e-06,0,-9.55968e-07,-9.66327e+08,-9.65962e+08,-9.66262e+08,-65579.4,0.0101426,0.0787872,0,0.0794373,22556.1,-35183,0,41792.6,65579.4
step02_gravity_refstate-crust.xmf,854,-9.98261e-07,4.31122e-06,0,-1.21888e-06,-9.63037e+08,-9.62673e+08,-9.62969e+08,-83615.2,0.0119699,0.0837922,0,0.0846428,20730.4,-35063,0,40732.8,83615.2
step02_gravity_refstate-crust.xmf,855,-9.83097e-07,4.17294e-06,0,-1.51294e-06,-9.57575e+08,-9.57221e+08,-9.57508e+08,-103787,0.0137861,0.0897622,0,0.0908147,18938.5,-34864,0,39675.7,103787
step02_gravity_refstate-crust.xmf,856,2.0871e-06,-2.85839e-07,0,-2.88129e-06,-9.99308e+08,-9.99471e+08,-9.99452e+08,-197656,0.0156445,0.146247,0,0.147082,5249.32,-36388.8,0,36765.5,197656
step02_gravity_refstate-crust.xmf,857,1.68817e-06,2.24666e-07,0,-2.7475e-06,-9.71635e+08,-9.71735e+08,-9.71751e+08,-188478,0.0157182,0.142967,0,0.143828,6020.85,-35380.5,0,35889.2,188478
step02_gravity_refstate-crust.xmf,858,4.02897e-06,-2.79691e-06,0,-1.66856e-06,-1.05416e+09,-1.05463e+09,-1.05443e+09,-114463,0.00781201,0.161629,0,0.161818,1842.08,-38389.6,0,38433.8,114463
step02_gravity_refstate-crust.xmf,859,3.05501e-06,-1.54584e-06,0,-2.44993e-06,-1.02511e+09,-1.02542e+09,-1.02532e+09,-168065,0.0122848,0.154391,0,0.154879,3436.47,-37330,0,37487.9,168065
step02_gravity_refstate-crust.xmf,860,4.56946e-06,-3.53377e-06,0,-1.56766e-06,-1.07682e+09,-1.07738e+09,-1.07714e+09,-107541,0.00692089,0.165119,0,0.165264,1466.97,-39215.8,0,39243.2,107541
step02_gravity_refstate-crust.xmf,861,-4.90325e-07,4.5008e-06,0,-1.00515e-07,-1.05327e+09,-1.05292e+09,-1.05323e+09,-6895.33,0.00262137,0.0532617,0,0.0533262,29951,-38350.2,0,48660,6895.33
step02_gravity_refstate-crust.xmf,862,-7.26288e-07,4.46706e-06,0,-3.755e-07,-1.00743e+09,-1.00707e+09,-1.00738e+09,-25759.3,0.00542605,0.0638778,0,0.0641078,27151.1,-36680.5,0,45636,25759.3
step02_gravity_refstate-crust.xmf,863,-8.71204e-07,3.86514e-06,0,-2.34238e-06,-9.87735e+08,-9.8741e+08,-9.87675e+08,-160687,0.0180431,0.100807,0,0.102409,14693.3,-35961.9,0,38847.8,160687
step02_gravity_refstate-crust.xmf,864,-1.11755e-06,4.41428e-06,0,-1.66084e-06,-9.94299e+08,-9.93919e+08,-9.94222e+08,-113934,0.0147339,0.0872598,0,0.088495,17941.9,-36200.7,0,40403,113934
step02_gravity_refstate-crust.xmf,865,-1.04218e-06,4.19894e-06,0,-2.00869e-06,-9.92107e+08,-9.91748e+08,-9.92036e+08,-137796,0.0165504,0.0936979,0,0.0951484,16275.1,-36120.9,0,39618.2,137796
step02_gravity_refstate-crust.xmf,866,2.52944e-06,-8.62484e-07,0,-2.95948e-06,-1.02389e+09,-1.02412e+09,-1.02406e+09,-203020,0.0153257,0.14983,0,0.150612,4547.5,-37284.6,0,37560.9,203020
step02_gravity_refstate-crust.xmf,867,1.16054e-06,9.32261e-07,0,-2.98152e-06,-9.73923e+08,-9.73939e+08,-9.74003e+08,-204533,0.0177721,0.136897,0,0.138046,7387.96,-35462.8,0,36224.2,204533
step02_gravity_refstate-crust.xmf,868,6.25009e-07,1.65035e-06,0,-3.07732e-06,-9.75875e+08,-9.75805e+08,-9.75918e+08,-211104,0.019129,0.129986,0,0.131385,8818.77,-35532.8,0,36610.8,211104
step02_gravity_refstate-crust.xmf,869,1.36111e-07,2.3239e-06,0,-3.03419e-06,-9.7828e+08,-9.7813e+08,-9.7829e+08,-208145,0.0197585,0.122768,0,0.124348,10249.2,-35619.4,0,37064.7,208145
step02_gravity_refstate-crust.xmf,870,-2.90061e-07,2.93705e-06,0,-2.87876e-06,-9.81489e+08,-9.81267e+08,-9.81469e+08,-197483,0.0197415,0.115261,0,0.116939,11717.2,-35735.4,0,37607.4,197483
step02_gravity_refstate-crust.xmf,871,-6.17023e-07,3.4371e-06,0,-2.63614e-06,-9.83527e+08,-9.83249e+08,-9.83485e+08,-180839,0.0191159,0.108124,0,0.109801,13175.1,-35809.1,0,38156,180839
step02_gravity_refstate-crust.xmf,872,3.56748e-06,-2.23546e-06,0,-2.48778e-06,-1.05131e+09,-1.05171e+09,-1.05156e+09,-170662,0.0118011,0.158043,0,0.158483,2919.8,-38285,0,38396.2,170662
step02_gravity_refstate-crust.xmf,873,-6.2262e-07,4.60958e-06,0,-1.88145e-07,-1.05269e+09,-1.05233e+09,-1.05265e+09,-12906.7,0.00372177,0.055337,0,0.055462,27985.3,-38328.9,0,47458.2,12906.7
step02_gravity_refstate-crust.xmf,874,-8.59515e-07,4.56526e-06,0,-5.3269e-07,-1.0091e+09,-1.00873e+09,-1.00904e+09,-36542.5,0.00688345,0.066481,0,0.0668364,25257.9,-36741,0,44585.4,36542.5
step02_gravity_refstate-crust.xmf,875,-9.87644e-07,4.64493e-06,0,-7.33045e-07,-1.011e+09,-1.01062e+09,-1.01094e+09,-50286.9,0.00857303,0.0696972,0,0.0702224,23368.7,-36809.8,0,43601.1,50286.9
step02_gravity_refstate-crust.xmf,876,-1.09678e-06,4.68742e-06,0,-9.97154e-07,-1.01322e+09,-1.01282e+09,-1.01314e+09,-68404.7,0.0106091,0.0738929,0,0.0746506,21373,-36890.1,0,42634.3,68404.7
step02_gravity_refstate-crust.xmf,877,-1.13166e-06,4.56186e-06,0,-1.33569e-06,-9.99464e+08,-9.99073e+08,-9.99386e+08,-91628.5,0.0128262,0.0811273,0,0.0821349,19591.3,-36389,0,41327.7,91628.5
step02_gravity_refstate-crust.xmf,878,2.04413e-06,-2.32942e-07,0,-3.285e-06,-1.02276e+09,-1.02292e+09,-1.0229e+09,-225351,0.017464,0.145235,0,0.146281,5513.03,-37242.5,0,37648.4,225351
step02_gravity_refstate-crust.xmf,879,1.50677e-06,4.32762e-07,0,-3.30481e-06,-1.00677e+09,-1.00684e+09,-1.00687e+09,-226710,0.0183563,0.140186,0,0.141382,6531.58,-36659.2,0,37236.6,226710
step02_gravity_refstate-crust.xmf,880,-9.55e-07,3.97584e-06,0,-2.61569e-06,-1.01747e+09,-1.01713e+09,-1.0174e+09,-179437,0.0193156,0.100603,0,0.102441,13802.8,-37044.2,0,39532.1,179437
step02_gravity_refstate-crust.xmf,881,4.11759e-06,-2.97025e-06,0,-2.46697e-06,-1.07566e+09,-1.07615e+09,-1.07595e+09,-169234,0.0111621,0.162041,0,0.162425,2451.76,-39172.7,0,39249.3,169234
step02_gravity_refstate-crust.xmf,882,2.98412e-06,-1.49967e-06,0,-3.1238e-06,-1.04908e+09,-1.04939e+09,-1.04928e+09,-214293,0.0152406,0.153354,0,0.15411,4005.79,-38202.5,0,38411.9,214293
step02_gravity_refstate-crust.xmf,883,-7.72429e-07,4.72991e-06,0,-3.07005e-07,-1.05347e+09,-1.05309e+09,-1.05341e+09,-21060.5,0.00500088,0.0576122,0,0.0578288,26119.3,-38356.7,0,46405.3,21060.5
step02_gravity_refstate-crust.xmf,884,-1.279e-06,4.81116e-06,0,-1.45493e-06,-1.03191e+09,-1.03149e+09,-1.03182e+09,-99807.9,0.0135824,0.0787029,0,0.0798663,18605.9,-37569.9,0,41924.7,99807.9
step02_gravity_refstate-crust.xmf,885,-1.21408e-06,4.44667e-06,0,-2.25704e-06,-1.03005e+09,-1.02967e+09,-1.02997e+09,-154833,0.0177745,0.091679,0,0.0933861,15320.9,-37502.1,0,40511,154833
step02_gravity_refstate-crust.xmf,886,-1.28101e-06,4.67959e-06,0,-1.82155e-06,-1.02968e+09,-1.02928e+09,-1.0296e+09,-124958,0.0156457,0.0847555,0,0.0861875,17019.1,-37488.8,0,41171,124958
step02_gravity_refstate-crust.xmf,887,2.35344e-06,-6.56667e-07,0,-3.52723e-06,-1.04606e+09,-1.04627e+09,-1.04622e+09,-241968,0.0179203,0.147838,0,0.14892,5081.06,-38091.4,0,38428.8,241968
step02_gravity_refstate-crust.xmf,888,8.35611e-07,1.36324e-06,0,-3.4172e-06,-1.00658e+09,-1.00655e+09,-1.00664e+09,-234420,0.0201056,0.132258,0,0.133777,8044.63,-36651.2,0,37523.7,234420
step02_gravity_refstate-crust.xmf,889,2.4952e-07,2.16213e-06,0,-3.39228e-06,-1.00899e+09,-1.00886e+09,-1.00901e+09,-232711,0.020967,0.12439,0,0.126144,9456.25,-36737.7,0,37935.2,232711
step02_gravity_refstate-crust.xmf,890,-2.56681e-07,2.88281e-06,0,-3.22096e-06,-1.01128e+09,-1.01106e+09,-1.01126e+09,-220958,0.0210333,0.116299,0,0.118185,10897.3,-36820.1,0,38398.8,220958
step02_gravity_refstate-crust.xmf,891,-6.59274e-07,3.48974e-06,0,-2.94982e-06,-1.01415e+09,-1.01387e+09,-1.01411e+09,-202358,0.0204356,0.108276,0,0.110188,12351.5,-36924,0,38935.1,202358
step02_gravity_refstate-crust.xmf,892,3.52263e-06,-2.23917e-06,0,-3.28187e-06,-1.07467e+09,-1.07506e+09,-1.07491e+09,-225136,0.0151029,0.157484,0,0.158207,3495.03,-39135.2,0,39291,225136
step02_gravity_refstate-crust.xmf,893,-9.42098e-07,4.85763e-06,0,-4.75914e-07,-1.05439e+09,-1.05399e+09,-1.05432e+09,-32647.7,0.00655082,0.0604436,0,0.0607975,24269.1,-38389.8,0,45417.7,32647.7
step02_gravity_refstate-crust.xmf,894,-1.09679e-06,4.95529e-06,0,-6.88163e-07,-1.05479e+09,-1.05438e+09,-1.05472e+09,-47208,0.00830956,0.0638664,0,0.0644047,22517.7,-38404,0,44518.8,47208
step02_gravity_refstate-crust.xmf,895,-1.2379e-06,4.86602e-06,0,-1.17401e-06,-1.03459e+09,-1.03417e+09,-1.03451e+09,-80537.4,0.0118256,0.0740001,0,0.074939,19964.7,-37667.9,0,42631.6,80537.4
step02_gravity_refstate-crust.xmf,896,-1.23357e-06,4.43349e-06,0,-2.5417e-06,-1.04592e+09,-1.04554e+09,-1.04584e+09,-174361,0.0191269,0.0939203,0,0.0958481,14284.5,-38079.8,0,40670.9,174361
step02_gravity_refstate-crust.xmf,897,1.71482e-06,1.84024e-07,0,-3.68253e-06,-1.03778e+09,-1.03788e+09,-1.0379e+09,-252622,0.0195732,0.141832,0,0.143176,6155.67,-37788.6,0,38286.7,252622
step02_gravity_refstate-crust.xmf,898,-1.02537e-06,4.05356e-06,0,-2.91402e-06,-1.0434e+09,-1.04305e+09,-1.04332e+09,-199902,0.0205683,0.100913,0,0.102988,12991.6,-37988,0,40148.1,199902
step02_gravity_refstate-crust.xmf,899,2.79686e-06,-1.32045e-06,0,-3.86018e-06,-1.07296e+09,-1.07324e+09,-1.07315e+09,-264808,0.0183562,0.151677,0,0.152784,4560.46,-39071.5,0,39336.8,264808
step02_gravity_refstate-crust.xmf,900,-1.23819e-06,5.06199e-06,0,-9.08147e-07,-1.06153e+09,-1.0611e+09,-1.06144e+09,-62298.9,0.0100286,0.0666174,0,0.0673681,20867.8,-38648.8,0,43922.6,62298.9
step02_gravity_refstate-crust.xmf,901,-1.37178e-06,5.13221e-06,0,-1.19697e-06,-1.06516e+09,-1.06472e+09,-1.06507e+09,-82111.9,0.011959,0.0704131,0,0.0714215,19310.1,-38780.7,0,43322.4,82111.9
step02_gravity_refstate-crust.xmf,902,-1.45267e-06,5.10356e-06,0,-1.54957e-06,-1.0648e+09,-1.06435e+09,-1.0647e+09,-106301,0.0141137,0.0756115,0,0.0769175,17790.9,-38767.3,0,42654.6,106301
step02_gravity_refstate-crust.xmf,903,-1.48063e-06,5.00207e-06,0,-1.94558e-06,-1.06505e+09,-1.06461e+09,-1.06495e+09,-133467,0.0162799,0.0813635,0,0.0829762,16314.5,-38776,0,42068.3,133467
step02_gravity_refstate-crust.xmf,904,-1.45453e-06,4.84652e-06,0,-2.3443e-06,-1.0673e+09,-1.06687e+09,-1.0672e+09,-160819,0.0182446,0.0869946,0,0.0888871,14970.3,-38857.7,0,41641.7,160819
step02_gravity_refstate-crust.xmf,905,1.05716e-06,1.00814e-06,0,-3.80824e-06,-1.03503e+09,-1.03504e+09,-1.03511e+09,-261246,0.0210552,0.134941,0,0.136573,7350.59,-37687.2,0,38397.4,261246
step02_gravity_refstate-crust.xmf,906,1.96035e-06,-2.10802e-07,0,-4.15884e-06,-1.0691e+09,-1.06925e+09,-1.06923e+09,-285296,0.0209242,0.144238,0,0.145748,5757.39,-38929.3,0,39352.7,285296
step02_gravity_refstate-crust.xmf,907,3.78669e-07,1.94248e-06,0,-3.7966e-06,-1.03856e+09,-1.03846e+09,-1.03859e+09,-260447,0.0222211,0.126565,0,0.128501,8700.85,-37814.5,0,38802.6,260447
step02_gravity_refstate-crust.xmf,908,-2.12031e-07,2.77953e-06,0,-3.68841e-06,-1.04389e+09,-1.04368e+09,-1.04387e+09,-253025,0.0225785,0.117909,0,0.120051,10032.9,-38007.2,0,39309.1,253025
step02_gravity_refstate-crust.xmf,909,-6.84167e-07,3.5021e-06,0,-3.2914e-06,-1.04087e+09,-1.04058e+09,-1.04082e+09,-225790,0.0217397,0.109086,0,0.111231,11576.8,-37896.5,0,39625.3,225790
step02_gravity_refstate-crust.xmf,910,-1.35063e-06,4.58552e-06,0,-2.77584e-06,-1.06892e+09,-1.06851e+09,-1.06883e+09,-190422,0.020124,0.0934223,0,0.0955652,13643.9,-38916.8,0,41239.2,190422
step02_gravity_refstate-crust.xmf,911,1.34175e-06,6.30519e-07,0,-4.0765e-06,-1.05511e+09,-1.05516e+09,-1.0552e+09,-279648,0.0215906,0.138034,0,0.139712,6746.96,-38418.6,0,39006.6,279648
step02_gravity_refstate-crust.xmf,912,-1.14124e-06,4.19058e-06,0,-3.22402e-06,-1.07019e+09,-1.06983e+09,-1.07012e+09,-221168,0.0218063,0.100637,0,0.102972,12324.4,-38963.3,0,40866,221168
step02_gravity_refstate-crust.xmf,913,7.53958e-07,1.41606e-06,0,-4.29298e-06,-1.06726e+09,-1.06721e+09,-1.06731e+09,-294498,0.0233417,0.131457,0,0.133514,7673.26,-38859.8,0,39610.1,294498
step02_gravity_refstate-crust.xmf,914,1.32617e-06,6.15429e-07,0,-4.46765e-06,-1.07669e+09,-1.07674e+09,-1.07678e+09,-306481,0.0229624,0.138038,0,0.139935,6672.77,-39204.4,0,39768.2,306481
step02_gravity_refstate-crust.xmf,915,9.0149e-08,2.3187e-06,0,-4.20109e-06,-1.07018e+09,-1.07003e+09,-1.07019e+09,-288195,0.023978,0.123181,0,0.125493,8844.2,-38965.1,0,39956.2,288195
step02_gravity_refstate-crust.xmf,916,-8.06124e-07,3.63756e-06,0,-3.65595e-06,-1.07057e+09,-1.07027e+09,-1.07052e+09,-250799,0.0231102,0.108593,0,0.111025,11021.3,-38977.7,0,40505.9,250799
step02_gravity_refstate-crust.xmf,917,-4.81945e-07,3.12751e-06,0,-4.02086e-06,-1.07639e+09,-1.07614e+09,-1.07636e+09,-275831,0.0240391,0.114888,0,0.117376,9959.76,-39190,0,40435.8,275831
