Block Name,Point ID,cauchy_strain_0,cauchy_strain_1,cauchy_strain_2,cauchy_strain_3,cauchy_stress_0,cauchy_stress_1,cauchy_stress_2,cauchy_stress_3,displacement_0,displacement_1,displacement_2,displacement_Magnitude,Points_0,Points_1,Points_2,Points_Magnitude,stress_xy
step02_gravity_refstate-mantle.xmf,0,1.10181e-06,2.15721e-06,0,-7.72256e-10,-1.38365e+09,-1.38351e+09,-1.3838e+09,-103.212,-1.84647e-19,0.024901,-0,0.024901,-40000,-48814.3,-0,63109.7,103.212
step02_gravity_refstate-mantle.xmf,1,1.29305e-06,2.1597e-06,0,3.04512e-10,-1.45506e+09,-1.45494e+09,-1.45523e+09,40.6981,-3.95922e-20,0.020137,-0,0.020137,-40000,-51021.4,-0,64831.9,40.6981
step02_gravity_refstate-mantle.xmf,2,1.21519e-06,2.16206e-06,0,-4.6057e-08,-1.42523e+09,-1.4251e+09,-1.42539e+09,-6155.52,0.00212325,0.0221779,0,0.0222793,-38251.1,-50099.5,-0,63032.6,6155.52
step02_gravity_refstate-mantle.xmf,3,1.38376e-06,2.17271e-06,0,-3.85884e-08,-1.49388e+09,-1.49377e+09,-1.49406e+09,-5157.34,0.00230599,0.0175748,0,0.0177255,-38331,-52221.3,-0,64779.1,5157.34
step02_gravity_refstate-mantle.xmf,4,1.45347e-06,2.17941e-06,0,2.0061e-10,-1.52677e+09,-1.52667e+09,-1.52696e+09,26.8115,-4.05535e-20,0.0153282,-0,0.0153282,-40000,-53237.6,-0,66590.1,26.8115
step02_gravity_refstate-mantle.xmf,5,1.00954e-06,2.16426e-06,0,-4.95182e-08,-1.35258e+09,-1.35242e+09,-1.35271e+09,-6618.1,0.00183793,0.02704,0,0.0271024,-38181,-47853.9,-0,61219.1,6618.1
step02_gravity_refstate-mantle.xmf,6,1.12564e-06,2.17632e-06,0,-9.43254e-08,-1.39406e+09,-1.39392e+09,-1.39421e+09,-12606.6,0.00393931,0.0244271,0,0.0247427,-36507.7,-49136.1,-0,61214.1,12606.6
step02_gravity_refstate-mantle.xmf,7,1.04638e-06,2.20291e-06,0,-1.40387e-07,-1.3701e+09,-1.36995e+09,-1.37024e+09,-18762.8,0.00551051,0.0263414,0,0.0269116,-34785,-48395.6,-0,59599.8,18762.8
step02_gravity_refstate-mantle.xmf,8,8.93989e-07,2.18636e-06,0,-1.02703e-07,-1.31701e+09,-1.31683e+09,-1.31713e+09,-13726.3,0.00342459,0.0296689,0,0.0298659,-36199.1,-46754.4,-0,59129.9,13726.3
step02_gravity_refstate-mantle.xmf,9,1.31377e-06,2.1799e-06,0,-8.21376e-08,-1.4645e+09,-1.46439e+09,-1.46468e+09,-10977.7,0.00439141,0.0196678,0,0.0201521,-36656,-51313.4,-0,63061.3,10977.7
step02_gravity_refstate-mantle.xmf,10,1.52086e-06,2.20239e-06,0,-2.99855e-08,-1.56336e+09,-1.56326e+09,-1.56356e+09,-4007.57,0.00253188,0.0128778,0,0.0131243,-38332.3,-54368.4,-0,66522.8,4007.57
step02_gravity_refstate-mantle.xmf,11,8.92414e-07,2.16254e-06,0,-1.03618e-09,-1.31235e+09,-1.31218e+09,-1.31247e+09,-138.486,-1.48513e-19,0.0296603,-0,0.0296603,-40000,-46610.6,-0,61421.1,138.486
step02_gravity_refstate-mantle.xmf,12,8.77472e-07,2.21453e-06,0,-1.4696e-07,-1.31655e+09,-1.31637e+09,-1.31667e+09,-19641.2,0.00498027,0.0300824,0,0.0304919,-34432.2,-46740.3,-0,58053.7,19641.2
step02_gravity_refstate-mantle.xmf,13,9.56277e-07,2.23859e-06,0,-1.79773e-07,-1.34581e+09,-1.34564e+09,-1.34594e+09,-24026.6,0.00668208,0.0284297,0,0.0292045,-33180.4,-47644.8,-0,58060,24026.6
step02_gravity_refstate-mantle.xmf,14,1.23445e-06,2.19949e-06,0,-1.28134e-07,-1.43495e+09,-1.43482e+09,-1.43511e+09,-17125.1,0.0062204,0.0218928,0,0.0227594,-34974,-50400,-0,61346,17125.1
step02_gravity_refstate-mantle.xmf,15,1.45887e-06,2.1984e-06,0,-6.74594e-08,-1.52936e+09,-1.52926e+09,-1.52956e+09,-9015.94,0.00477806,0.0152741,0,0.016004,-36719.2,-53317.8,-0,64738.6,9015.94
step02_gravity_refstate-mantle.xmf,16,1.57543e-06,2.22177e-06,0,1.8713e-10,-1.59897e+09,-1.59888e+09,-1.59918e+09,25.01,-4.10666e-20,0.0104181,-0,0.0104181,-40000,-55468.9,-0,68387.1,25.01
step02_gravity_refstate-mantle.xmf,17,7.88411e-07,2.17157e-06,0,-4.65302e-08,-1.27978e+09,-1.27959e+09,-1.27988e+09,-6218.76,0.00146028,0.0319198,0,0.0319532,-38155,-45603.7,-0,59460.1,6218.76
step02_gravity_refstate-mantle.xmf,18,7.61616e-07,2.24795e-06,0,-1.72642e-07,-1.28621e+09,-1.28601e+09,-1.28631e+09,-23073.6,0.00546186,0.0325824,0,0.033037,-33123.7,-45802.3,-0,56524.6,23073.6
step02_gravity_refstate-mantle.xmf,19,7.19876e-07,2.21228e-06,0,-1.25014e-07,-1.26649e+09,-1.26629e+09,-1.26659e+09,-16708.2,0.0038001,0.0333917,0,0.0336072,-34872.1,-45192.9,-0,57083,16708.2
step02_gravity_refstate-mantle.xmf,20,8.40328e-07,2.28683e-06,0,-2.13189e-07,-1.31777e+09,-1.31757e+09,-1.31788e+09,-28492.8,0.00749355,0.0310084,0,0.031901,-31539.8,-46777.8,-0,56417.4,28492.8
step02_gravity_refstate-mantle.xmf,21,6.9768e-07,2.35388e-06,0,-2.37955e-07,-1.28814e+09,-1.28792e+09,-1.28823e+09,-31802.6,0.00801448,0.0341068,0,0.0350358,-29702.2,-45861.9,-0,54640,31802.6
step02_gravity_refstate-mantle.xmf,22,6.25303e-07,2.29854e-06,0,-1.91707e-07,-1.25783e+09,-1.25761e+09,-1.25791e+09,-25621.7,0.00590263,0.0352804,0,0.0357707,-31488,-44924.9,-0,54861.1,25621.7
step02_gravity_refstate-mantle.xmf,23,1.15028e-06,2.23138e-06,0,-1.72176e-07,-1.40771e+09,-1.40756e+09,-1.40786e+09,-23011.3,0.00775081,0.0241111,0,0.0253263,-33327.9,-49558.1,-0,59722.3,23011.3
step02_gravity_refstate-mantle.xmf,24,1.04889e-06,2.27576e-06,0,-2.12742e-07,-1.37894e+09,-1.37877e+09,-1.37908e+09,-28432.9,0.00894775,0.0266394,0,0.028102,-31674.4,-48668.7,-0,58068.1,28432.9
step02_gravity_refstate-mantle.xmf,25,1.39495e-06,2.20999e-06,0,-1.09162e-07,-1.49925e+09,-1.49914e+09,-1.49943e+09,-14589.5,0.00684684,0.0174941,0,0.0187863,-35087.1,-52387.2,-0,63051.8,14589.5
step02_gravity_refstate-mantle.xmf,26,1.61973e-06,2.25579e-06,0,-1.87869e-08,-1.63362e+09,-1.63353e+09,-1.63383e+09,-2510.87,0.00271712,0.00803815,0,0.00848497,-38318.4,-56539.5,-0,68300.9,2510.87
step02_gravity_refstate-mantle.xmf,27,1.57637e-06,2.23998e-06,0,-4.97865e-08,-1.59825e+09,-1.59816e+09,-1.59846e+09,-6653.96,0.0052577,0.0105535,0,0.0117907,-36657.2,-55446.8,-0,66468.8,6653.96
step02_gravity_refstate-mantle.xmf,28,1.65102e-06,2.29241e-06,0,1.74148e-10,-1.67186e+09,-1.67177e+09,-1.67208e+09,23.2748,-3.76962e-20,0.00533652,-0,0.00533652,-40000,-57721,-0,70226.2,23.2748
step02_gravity_refstate-mantle.xmf,29,7.13806e-07,2.18822e-06,0,-8.39156e-08,-1.25948e+09,-1.25928e+09,-1.25958e+09,-11215.3,0.00253027,0.0335033,0,0.0335987,-36513.2,-44976.3,-0,57931.7,11215.3
step02_gravity_refstate-mantle.xmf,30,6.7607e-07,2.1676e-06,0,-1.42941e-09,-1.24106e+09,-1.24086e+09,-1.24115e+09,-191.041,-1.20899e-19,0.0344312,-0,0.0344312,-40000,-44407.1,-0,59766.1,191.041
step02_gravity_refstate-mantle.xmf,31,5.09133e-07,2.34955e-06,0,-1.99212e-07,-1.23606e+09,-1.23582e+09,-1.23613e+09,-26624.6,0.00605423,0.0376495,0,0.0381332,-30084.6,-44252,-0,53510,26624.6
step02_gravity_refstate-mantle.xmf,32,4.79518e-07,2.40612e-06,0,-2.21519e-07,-1.23985e+09,-1.23959e+09,-1.23992e+09,-29606,0.00690767,0.0384147,0,0.0390308,-28631.9,-44368.9,-0,52805.2,29606
step02_gravity_refstate-mantle.xmf,33,6.32635e-07,2.42475e-06,0,-2.57103e-07,-1.2824e+09,-1.28216e+09,-1.28248e+09,-34361.8,0.00890456,0.0357014,0,0.0367951,-28048.6,-45684.2,-0,53607.5,34361.8
step02_gravity_refstate-mantle.xmf,34,9.34563e-07,2.33446e-06,0,-2.46365e-07,-1.35113e+09,-1.35094e+09,-1.35125e+09,-32926.7,0.009854,0.0293832,0,0.0309915,-29977.5,-47809.1,-0,56430.1,32926.7
step02_gravity_refstate-mantle.xmf,35,1.32346e-06,2.23537e-06,0,-1.52972e-07,-1.47028e+09,-1.47016e+09,-1.47046e+09,-20444.7,0.00869818,0.0197653,0,0.0215946,-33440.3,-51492,-0,61397.8,20444.7
step02_gravity_refstate-mantle.xmf,36,1.52262e-06,2.23855e-06,0,-8.66894e-08,-1.56281e+09,-1.56272e+09,-1.56302e+09,-11586,0.00746889,0.0131249,0,0.0151013,-35082,-54351.7,-0,64690.4,11586
step02_gravity_refstate-mantle.xmf,37,1.6649e-06,2.32213e-06,0,-1.03003e-08,-1.6937e+09,-1.69361e+09,-1.69392e+09,-1376.64,0.00265946,0.00378554,0,0.00462634,-38401,-58396,-0,69890.8,1376.64
step02_gravity_refstate-mantle.xmf,38,1.676e-06,2.3916e-06,0,3.27485e-09,-1.74562e+09,-1.74552e+09,-1.74584e+09,437.684,2.4915e-19,-4.84124e-20,0,2.5381e-19,-40000,-60000,-0,72111,437.684
step02_gravity_refstate-mantle.xmf,39,4.40169e-07,2.48975e-06,0,-2.43021e-07,-1.24613e+09,-1.24586e+09,-1.24619e+09,-32479.8,0.0080138,0.0395729,0,0.0403762,-26801.9,-44562.8,-0,52001.8,32479.8
step02_gravity_refstate-mantle.xmf,40,5.68361e-07,2.1743e-06,0,-4.24933e-08,-1.20813e+09,-1.20791e+09,-1.2082e+09,-5679.23,0.00116967,0.0367522,0,0.0367708,-37964.5,-43388.9,-0,57653.3,5679.23
step02_gravity_refstate-mantle.xmf,41,5.4188e-07,2.20176e-06,0,-8.62044e-08,-1.20816e+09,-1.20794e+09,-1.20823e+09,-11521.2,0.00246734,0.0371721,0,0.0372539,-35641.5,-43389.8,-0,56151.5,11521.2
step02_gravity_refstate-mantle.xmf,42,5.26742e-07,2.2508e-06,0,-1.3515e-07,-1.21759e+09,-1.21736e+09,-1.21766e+09,-18062.8,0.00389656,0.0372941,0,0.0374971,-33282.5,-43681.1,-0,54915.9,18062.8
step02_gravity_refstate-mantle.xmf,43,4.1408e-07,2.31263e-06,0,-1.53784e-07,-1.20106e+09,-1.20081e+09,-1.20112e+09,-20553.2,0.00448393,0.0394764,0,0.0397302,-31211,-43170,-0,53270.8,20553.2
step02_gravity_refstate-mantle.xmf,44,8.21441e-07,2.4038e-06,0,-2.68961e-07,-1.32817e+09,-1.32795e+09,-1.32828e+09,-35946.6,0.0105015,0.0320717,0,0.0337472,-28333.4,-47099.2,-0,54964.7,35946.6
step02_gravity_refstate-mantle.xmf,45,6.86643e-07,2.48079e-06,0,-2.77196e-07,-1.30363e+09,-1.30339e+09,-1.30372e+09,-37047.3,0.010659,0.0351832,0,0.0367624,-26771.9,-46340.4,-0,53517.9,37047.3
step02_gravity_refstate-mantle.xmf,46,3.03875e-07,2.5871e-06,0,-2.29469e-07,-1.23234e+09,-1.23203e+09,-1.23238e+09,-30668.6,0.00798867,0.0426535,0,0.0433952,-25043.5,-44136,-0,50746.1,30668.6
step02_gravity_refstate-mantle.xmf,47,5.6181e-07,2.56257e-06,0,-2.73146e-07,-1.28492e+09,-1.28466e+09,-1.285e+09,-36505.9,0.0106704,0.0381553,0,0.0396192,-25299.9,-45762.1,-0,52290.1,36505.9
step02_gravity_refstate-mantle.xmf,48,1.23633e-06,2.27519e-06,0,-1.97103e-07,-1.44007e+09,-1.43993e+09,-1.44024e+09,-26342.8,0.0102892,0.0223122,0,0.0245703,-31752.3,-50558.4,-0,59702.3,26342.8
step02_gravity_refstate-mantle.xmf,49,1.13818e-06,2.32896e-06,0,-2.3575e-07,-1.41118e+09,-1.41102e+09,-1.41133e+09,-31508,0.0115452,0.0250022,0,0.0275391,-30084.7,-49665.4,-0,58066.7,31508
step02_gravity_refstate-mantle.xmf,50,1.46527e-06,2.25376e-06,0,-1.25905e-07,-1.53168e+09,-1.53157e+09,-1.53188e+09,-16827.2,0.00945653,0.0154888,0,0.0181474,-33531.4,-53389.7,-0,63046.1,16827.2
step02_gravity_refstate-mantle.xmf,51,1.65639e-06,2.31541e-06,0,-2.83461e-08,-1.67579e+09,-1.6757e+09,-1.67601e+09,-3788.46,0.00577273,0.00510195,0,0.00770417,-36509.6,-57842.6,-0,68401.1,3788.46
step02_gravity_refstate-mantle.xmf,52,1.61594e-06,2.29004e-06,0,-6.19643e-08,-1.62687e+09,-1.62678e+09,-1.62709e+09,-8281.53,0.00825338,0.00865908,0,0.0119624,-34875.8,-56331.3,-0,66253.6,8281.53
step02_gravity_refstate-mantle.xmf,53,1.6787e-06,2.40154e-06,0,3.62006e-09,-1.74562e+09,-1.74552e+09,-1.74584e+09,483.821,0.00409165,-6.39021e-20,0,0.00409165,-37559.4,-60000,-0,70786.4,483.821
step02_gravity_refstate-mantle.xmf,54,3.22228e-07,2.37916e-06,0,-1.65173e-07,-1.19315e+09,-1.19287e+09,-1.19319e+09,-22075.3,0.00490903,0.0412541,0,0.0415452,-29421.8,-42925.1,-0,52040.5,22075.3
step02_gravity_refstate-mantle.xmf,55,2.51431e-07,2.45234e-06,0,-1.76755e-07,-1.19309e+09,-1.1928e+09,-1.19313e+09,-23623.3,0.00539341,0.0426982,0,0.0430375,-27748.1,-42923.2,-0,51111.2,23623.3
step02_gravity_refstate-mantle.xmf,56,4.6625e-07,2.16253e-06,0,-3.90003e-10,-1.16978e+09,-1.16955e+09,-1.16984e+09,-52.1239,-6.84881e-20,0.0392021,-0,0.0392021,-40000,-42203.5,-0,58147.6,52.1239
step02_gravity_refstate-mantle.xmf,57,4.41006e-07,2.65215e-06,0,-2.55993e-07,-1.2702e+09,-1.2699e+09,-1.27026e+09,-34213.5,0.0105859,0.041215,0,0.0425528,-23837.2,-45306.6,-0,51194.8,34213.5
step02_gravity_refstate-mantle.xmf,58,1.91498e-07,2.67539e-06,0,-2.07509e-07,-1.22342e+09,-1.22309e+09,-1.22345e+09,-27733.6,0.007844,0.0454374,0,0.0461095,-23588.8,-43860.2,-0,49801.1,27733.6
step02_gravity_refstate-mantle.xmf,59,6.23199e-08,2.76267e-06,0,-1.66491e-07,-1.21179e+09,-1.21143e+09,-1.2118e+09,-22251.6,0.00726673,0.0486915,0,0.0492307,-22253.4,-43500.3,-0,48862,22251.6
step02_gravity_refstate-mantle.xmf,60,2.94332e-07,2.74356e-06,0,-2.22029e-07,-1.25261e+09,-1.25229e+09,-1.25265e+09,-29674.1,0.00998437,0.0448354,0,0.0459336,-22465.1,-44762.8,-0,50083.8,29674.1
step02_gravity_refstate-mantle.xmf,61,1.52483e-07,2.53837e-06,0,-1.73403e-07,-1.18952e+09,-1.1892e+09,-1.18954e+09,-23175.3,0.0055862,0.0448052,0,0.0451521,-26045,-42812.3,-0,50112.2,23175.3
step02_gravity_refstate-mantle.xmf,62,1.02638e-07,2.83563e-06,0,-1.66192e-07,-1.22984e+09,-1.22947e+09,-1.22985e+09,-22211.5,0.00863934,0.0492664,0,0.0500182,-21168.2,-44058.1,-0,48879.6,22211.5
step02_gravity_refstate-mantle.xmf,63,1.03107e-06,2.3949e-06,0,-2.65007e-07,-1.38432e+09,-1.38414e+09,-1.38446e+09,-35418.2,0.0124559,0.0278233,0,0.0304842,-28459.4,-48835.1,-0,56522.6,35418.2
step02_gravity_refstate-mantle.xmf,64,1.39729e-06,2.28726e-06,0,-1.68942e-07,-1.50132e+09,-1.5012e+09,-1.50151e+09,-22579.1,0.0114089,0.0179688,0,0.0212848,-31838.9,-52451.5,-0,61358.5,22579.1
step02_gravity_refstate-mantle.xmf,65,1.57292e-06,2.29176e-06,0,-9.53661e-08,-1.59181e+09,-1.59171e+09,-1.59202e+09,-12745.7,0.0102161,0.0112729,0,0.0152134,-33476.6,-55247.9,-0,64598.9,12745.7
step02_gravity_refstate-mantle.xmf,66,3.91369e-07,2.17994e-06,0,-4.51703e-08,-1.15311e+09,-1.15287e+09,-1.15316e+09,-6037.01,0.00139241,0.0406729,0,0.0406967,-36617.5,-41688.2,-0,55486.4,6037.01
step02_gravity_refstate-mantle.xmf,67,4.02417e-07,2.16257e-06,0,-2.10468e-08,-1.15003e+09,-1.14979e+09,-1.15008e+09,-2812.91,0.000663296,0.040601,0,0.0406065,-38381.4,-41593.2,-0,56596.2,2812.91
step02_gravity_refstate-mantle.xmf,68,3.56715e-07,2.21749e-06,0,-7.26458e-08,-1.15535e+09,-1.1551e+09,-1.15539e+09,-9709.1,0.00223014,0.0411324,0,0.0411928,-34485.2,-41757.2,-0,54156.2,9709.1
step02_gravity_refstate-mantle.xmf,69,2.94101e-07,2.26865e-06,0,-9.15781e-08,-1.15343e+09,-1.15317e+09,-1.15347e+09,-12239.4,0.00286214,0.0421532,0,0.0422502,-32468,-41697.8,-0,52847.7,12239.4
step02_gravity_refstate-mantle.xmf,70,2.02254e-07,2.33519e-06,0,-9.91691e-08,-1.14833e+09,-1.14805e+09,-1.14836e+09,-13254,0.00324294,0.0437441,0,0.0438641,-30470.8,-41539.8,-0,51517.2,13254
step02_gravity_refstate-mantle.xmf,71,3.2365e-08,2.631e-06,0,-1.5315e-07,-1.18333e+09,-1.18298e+09,-1.18333e+09,-20468.5,0.00542481,0.0474589,0,0.0477679,-24425.6,-42620.5,-0,49123.5,20468.5
step02_gravity_refstate-mantle.xmf,72,-1.90885e-07,2.83756e-06,0,-8.576e-08,-1.1803e+09,-1.17989e+09,-1.18027e+09,-11461.8,0.00499991,0.0534237,0,0.0536571,-21257,-42525.8,-0,47542.7,11461.8
step02_gravity_refstate-mantle.xmf,73,-1.14948e-07,2.72915e-06,0,-1.10067e-07,-1.17384e+09,-1.17346e+09,-1.17382e+09,-14710.4,0.00480977,0.050779,0,0.0510063,-22874.4,-42326.6,-0,48112.2,14710.4
step02_gravity_refstate-mantle.xmf,74,9.16664e-07,2.47021e-06,0,-2.81999e-07,-1.35969e+09,-1.35948e+09,-1.35981e+09,-37689.2,0.0130225,0.0307823,0,0.0334236,-26898.9,-48073.8,-0,55087.6,37689.2
step02_gravity_refstate-mantle.xmf,75,7.9966e-07,2.55339e-06,0,-2.85267e-07,-1.3381e+09,-1.33786e+09,-1.33821e+09,-38125.9,0.0133228,0.0338457,0,0.0363735,-25394.5,-47406.3,-0,53779.5,38125.9
step02_gravity_refstate-mantle.xmf,76,6.80311e-07,2.6426e-06,0,-2.74431e-07,-1.31916e+09,-1.3189e+09,-1.31925e+09,-36677.7,0.013384,0.037053,0,0.0393962,-23950.3,-46820.6,-0,52590.8,36677.7
step02_gravity_refstate-mantle.xmf,77,5.44331e-07,2.7334e-06,0,-2.48444e-07,-1.29914e+09,-1.29885e+09,-1.29921e+09,-33204.6,0.0130009,0.0406835,0,0.0427103,-22592.3,-46201.6,-0,51429.6,33204.6
step02_gravity_refstate-mantle.xmf,78,3.83576e-07,2.82735e-06,0,-2.0496e-07,-1.27729e+09,-1.27696e+09,-1.27734e+09,-27392.9,0.0121192,0.0449152,0,0.0465215,-21265.1,-45525.8,-0,50247.5,27392.9
step02_gravity_refstate-mantle.xmf,79,1.99207e-07,2.92266e-06,0,-1.42823e-07,-1.25462e+09,-1.25425e+09,-1.25465e+09,-19088.3,0.0107537,0.0497001,0,0.0508502,-19976.5,-44824.5,-0,49074.4,19088.3
step02_gravity_refstate-mantle.xmf,80,-9.43804e-08,2.93107e-06,0,-8.77019e-08,-1.20791e+09,-1.20751e+09,-1.2079e+09,-11721.4,0.00692785,0.0541615,0,0.0546028,-19880.3,-43379.8,-0,47718.3,11721.4
step02_gravity_refstate-mantle.xmf,81,1.31532e-06,2.33667e-06,0,-2.09869e-07,-1.47101e+09,-1.47087e+09,-1.47119e+09,-28049,0.0130562,0.0206615,0,0.024441,-30147.7,-51514.8,-0,59688,28049
step02_gravity_refstate-mantle.xmf,82,1.22226e-06,2.39907e-06,0,-2.4314e-07,-1.44227e+09,-1.44211e+09,-1.44243e+09,-32495.7,0.0143085,0.0234884,0,0.0275034,-28530.6,-50626.6,-0,58112.3,32495.7
step02_gravity_refstate-mantle.xmf,83,1.52746e-06,2.31721e-06,0,-1.32193e-07,-1.56318e+09,-1.56307e+09,-1.56338e+09,-17667.6,0.0123518,0.0135583,0,0.018341,-31880.6,-54363.2,-0,63021.7,17667.6
step02_gravity_refstate-mantle.xmf,84,1.64195e-06,2.34033e-06,0,-6.58917e-08,-1.6426e+09,-1.6425e+09,-1.64282e+09,-8806.42,0.0109336,0.00765552,0,0.0133473,-33289.4,-56817.3,-0,65851.2,8806.42
step02_gravity_refstate-mantle.xmf,85,1.67219e-06,2.37096e-06,0,-3.51493e-08,-1.68951e+09,-1.68941e+09,-1.68973e+09,-4697.7,0.00963231,0.00418259,0,0.0105012,-34214,-58266.6,-0,67569.2,4697.7
step02_gravity_refstate-mantle.xmf,86,1.68367e-06,2.43198e-06,0,1.63756e-09,-1.74561e+09,-1.74551e+09,-1.74584e+09,218.86,0.00800725,-5.43284e-20,0,0.00800725,-35231.4,-60000,-0,69579.1,218.86
step02_gravity_refstate-mantle.xmf,87,-3.85386e-07,3.02615e-06,0,2.57646e-08,-1.1779e+09,-1.17744e+09,-1.17785e+09,3443.44,0.00406703,0.0601633,0,0.0603006,-18688,-42451.1,-0,46382.5,3443.44
step02_gravity_refstate-mantle.xmf,88,-1.89523e-08,3.01502e-06,0,-6.06387e-08,-1.23013e+09,-1.22972e+09,-1.23012e+09,-8104.36,0.00877467,0.0551215,0,0.0558155,-18744.7,-44066.8,-0,47887.8,8104.36
step02_gravity_refstate-mantle.xmf,89,1.07555e-07,2.40866e-06,0,-9.95729e-08,-1.1453e+09,-1.14499e+09,-1.14531e+09,-13307.9,0.00343628,0.0454207,0,0.0455505,-28676.3,-41445.8,-0,50399.2,13307.9
step02_gravity_refstate-mantle.xmf,90,7.04953e-09,2.49292e-06,0,-9.45433e-08,-1.14452e+09,-1.14419e+09,-1.14452e+09,-12635.7,0.0035162,0.0472772,0,0.0474078,-26923.3,-41421.3,-0,49402.3,12635.7
step02_gravity_refstate-mantle.xmf,91,2.81016e-07,2.13247e-06,0,2.7574e-09,-1.09848e+09,-1.09824e+09,-1.09852e+09,368.527,1.78724e-19,0.0439401,0,0.0439401,-40000,-40000,-0,56568.5,368.527
step02_gravity_refstate-mantle.xmf,92,2.67036e-07,2.14463e-06,0,-9.59001e-09,-1.09848e+09,-1.09823e+09,-1.09852e+09,-1281.7,0.000628058,0.0441211,0,0.0441255,-37707.6,-40000,-0,54971.4,1281.7
step02_gravity_refstate-mantle.xmf,93,-1.08506e-07,2.58302e-06,0,-7.61796e-08,-1.14228e+09,-1.14192e+09,-1.14227e+09,-10181.4,0.00334055,0.0495541,0,0.0496666,-25268.8,-41351.6,-0,48461,10181.4
step02_gravity_refstate-mantle.xmf,94,-1.13872e-07,3.19469e-06,0,1.142e-07,-1.23074e+09,-1.2303e+09,-1.23072e+09,15262.9,0.00869418,0.0621484,0,0.0627535,-16544.8,-44085.5,-0,47087.8,15262.9
step02_gravity_refstate-mantle.xmf,95,9.37532e-08,3.10867e-06,0,8.26193e-09,-1.25099e+09,-1.25058e+09,-1.251e+09,1104.21,0.0107637,0.0563935,0,0.0574115,-17652.9,-44712.1,-0,48070.7,1104.21
step02_gravity_refstate-mantle.xmf,96,-2.40171e-07,3.10824e-06,0,4.59172e-08,-1.20688e+09,-1.20643e+09,-1.20685e+09,6136.83,0.00643316,0.0608698,0,0.0612088,-17580,-43347.4,-0,46776.7,6136.83
step02_gravity_refstate-mantle.xmf,97,3.20596e-08,3.29913e-06,0,2.28002e-07,-1.25323e+09,-1.25279e+09,-1.25323e+09,30472.5,0.0111162,0.0637396,0,0.0647017,-15552.9,-44781.3,-0,47405.3,30472.5
step02_gravity_refstate-mantle.xmf,98,-3.29398e-07,3.29104e-06,0,2.60874e-07,-1.21124e+09,-1.21076e+09,-1.2112e+09,34865.8,0.00625207,0.0689103,0,0.0691933,-15340.9,-43482,-0,46108.9,34865.8
step02_gravity_refstate-mantle.xmf,99,1.11774e-06,2.4725e-06,0,-2.66012e-07,-1.4148e+09,-1.41462e+09,-1.41495e+09,-35552.5,0.0151745,0.0265129,0,0.0305483,-26975.8,-49777.6,-0,56617.1,35552.5
step02_gravity_refstate-mantle.xmf,100,1.46632e-06,2.35889e-06,0,-1.71083e-07,-1.53284e+09,-1.53272e+09,-1.53303e+09,-22865.2,0.014296,0.0161439,0,0.0215639,-30240.4,-53425.7,-0,61390.5,22865.2
step02_gravity_refstate-mantle.xmf,101,1.61557e-06,2.36159e-06,0,-9.36087e-08,-1.62014e+09,-1.62004e+09,-1.62036e+09,-12510.8,0.0130034,0.00943704,0,0.0160669,-31902.1,-56123.5,-0,64556.9,12510.8
step02_gravity_refstate-mantle.xmf,102,-3.67638e-07,2.9316e-06,0,-3.95184e-09,-1.16734e+09,-1.16689e+09,-1.16729e+09,-528.163,0.00366293,0.0576259,0,0.0577422,-19965.3,-42124.6,-0,46616.4,528.163
step02_gravity_refstate-mantle.xmf,103,-4.36758e-07,3.19497e-06,0,1.68387e-07,-1.19129e+09,-1.1908e+09,-1.19123e+09,22504.9,0.0044329,0.0664545,0,0.0666022,-16436.6,-42864.7,-0,45908,22504.9
step02_gravity_refstate-mantle.xmf,104,2.29042e-07,2.17515e-06,0,-1.85291e-08,-1.09849e+09,-1.09823e+09,-1.09852e+09,-2476.42,0.00117042,0.0446399,0,0.0446552,-35524.6,-40000,-0,53497.6,2476.42
step02_gravity_refstate-mantle.xmf,105,9.37071e-08,2.28348e-06,0,-2.60112e-08,-1.09851e+09,-1.09822e+09,-1.09852e+09,-3476.4,0.0018476,0.0466128,0,0.0466494,-31466.4,-40000,-0,50893.4,3476.4
step02_gravity_refstate-mantle.xmf,106,1.70206e-07,2.22139e-06,0,-2.3593e-08,-1.0985e+09,-1.09822e+09,-1.09852e+09,-3153.21,0.0015864,0.0454734,0,0.0455011,-33445.9,-40000,-0,52140.4,3153.21
step02_gravity_refstate-mantle.xmf,107,-9.70443e-10,2.3537e-06,0,-1.58872e-08,-1.09853e+09,-1.09821e+09,-1.09853e+09,-2123.32,0.00193525,0.0480583,0,0.0480972,-29581.4,-40000,-0,49750,2123.32
step02_gravity_refstate-mantle.xmf,108,-2.4089e-07,2.67893e-06,0,-4.18958e-08,-1.13865e+09,-1.13826e+09,-1.13862e+09,-5599.37,0.00288259,0.0523161,0,0.0523954,-23676.8,-41238.8,-0,47552.4,5599.37
step02_gravity_refstate-mantle.xmf,109,-3.76073e-07,2.78127e-06,0,1.40528e-09,-1.13688e+09,-1.13646e+09,-1.13683e+09,187.816,0.00230528,0.055372,0,0.05542,-22122.8,-41183.4,-0,46749.2,187.816
step02_gravity_refstate-mantle.xmf,110,-1.06826e-07,3.38609e-06,0,3.77609e-07,-1.23987e+09,-1.2394e+09,-1.23985e+09,50467.5,0.00950758,0.0698823,0,0.0705261,-14473.1,-44368,-0,46668.9,50467.5
step02_gravity_refstate-mantle.xmf,111,1.00659e-06,2.55565e-06,0,-2.7486e-07,-1.38957e+09,-1.38937e+09,-1.38971e+09,-36735,0.0157184,0.0297082,0,0.0336102,-25467.3,-48997.7,-0,55221,36735
step02_gravity_refstate-mantle.xmf,112,9.03685e-07,2.64897e-06,0,-2.66782e-07,-1.37019e+09,-1.36996e+09,-1.37031e+09,-35655.4,0.0161672,0.0328223,0,0.036588,-23995.6,-48398.5,-0,54020.4,35655.4
step02_gravity_refstate-mantle.xmf,113,7.77891e-07,2.73831e-06,0,-2.47128e-07,-1.3475e+09,-1.34724e+09,-1.34761e+09,-33028.7,0.0159915,0.0364728,0,0.0398245,-22669.8,-47697.1,-0,52810.3,33028.7
step02_gravity_refstate-mantle.xmf,114,1.83041e-07,3.21473e-06,0,1.0672e-07,-1.26972e+09,-1.26932e+09,-1.26975e+09,14263.1,0.0127689,0.0579848,0,0.0593741,-16627.4,-45291.7,-0,48247.4,14263.1
step02_gravity_refstate-mantle.xmf,115,6.40826e-07,2.83239e-06,0,-2.10608e-07,-1.32535e+09,-1.32506e+09,-1.32543e+09,-28147.7,0.015486,0.0405311,0,0.0433888,-21359.7,-47012.1,-0,51636.9,28147.7
step02_gravity_refstate-mantle.xmf,116,4.91649e-07,2.9261e-06,0,-1.57766e-07,-1.30327e+09,-1.30295e+09,-1.30334e+09,-21085.5,0.0145841,0.0450141,0,0.0473177,-20101.9,-46329.3,-0,50502.4,21085.5
step02_gravity_refstate-mantle.xmf,117,3.34404e-07,3.03497e-06,0,-7.27981e-08,-1.28246e+09,-1.2821e+09,-1.2825e+09,-9729.47,0.0134483,0.0503725,0,0.0521368,-18690.4,-45685.7,-0,49361,9729.47
step02_gravity_refstate-mantle.xmf,118,1.2998e-06,2.49021e-06,0,-2.32359e-07,-1.47301e+09,-1.47285e+09,-1.47319e+09,-31054.8,0.0171922,0.0220135,0,0.0279315,-27027.8,-51577,-0,58229.6,31054.8
step02_gravity_refstate-mantle.xmf,119,1.39119e-06,2.41704e-06,0,-2.05768e-07,-1.50297e+09,-1.50284e+09,-1.50316e+09,-27500.9,0.015926,0.0189255,0,0.0247348,-28623.8,-52502.9,-0,59798.6,27500.9
step02_gravity_refstate-mantle.xmf,120,1.58071e-06,2.39746e-06,0,-1.25335e-07,-1.59356e+09,-1.59345e+09,-1.59377e+09,-16751,0.0152102,0.0116605,0,0.0191655,-30318.8,-55302.3,-0,63068,16751
step02_gravity_refstate-mantle.xmf,121,1.67458e-06,2.42633e-06,0,-4.95142e-08,-1.68327e+09,-1.68317e+09,-1.68349e+09,-6617.57,0.0134008,0.00476134,0,0.0142215,-31946.6,-58074.1,-0,66281.1,6617.57
step02_gravity_refstate-mantle.xmf,122,1.69184e-06,2.48154e-06,0,2.68711e-09,-1.74561e+09,-1.7455e+09,-1.74583e+09,359.132,0.0117561,-6.27449e-20,0,0.0117561,-33009.9,-60000,-0,68481,359.132
step02_gravity_refstate-mantle.xmf,123,-5.07483e-07,2.88183e-06,0,5.43827e-08,-1.13613e+09,-1.13567e+09,-1.13606e+09,7268.24,0.00162258,0.058655,0,0.0586775,-20679.3,-41159.5,-0,46062.3,7268.24
step02_gravity_refstate-mantle.xmf,124,-3.83657e-07,3.37203e-06,0,4.09564e-07,-1.20964e+09,-1.20914e+09,-1.20959e+09,54738.3,0.00566754,0.0740519,0,0.0742685,-14265.1,-43432.3,-0,45715,54738.3
step02_gravity_refstate-mantle.xmf,125,-6.46697e-07,2.9811e-06,0,1.23877e-07,-1.13444e+09,-1.13395e+09,-1.13435e+09,16556.2,0.000717025,0.0623677,0,0.0623718,-19321.9,-41106.7,-0,45421.3,16556.2
step02_gravity_refstate-mantle.xmf,126,-5.8194e-07,3.13135e-06,0,1.4853e-07,-1.1667e+09,-1.16621e+09,-1.16663e+09,19851.1,0.00234556,0.0656644,0,0.0657062,-17309.6,-42104.2,-0,45523.4,19851.1
step02_gravity_refstate-mantle.xmf,127,-6.74886e-07,3.26447e-06,0,3.01296e-07,-1.17199e+09,-1.17146e+09,-1.1719e+09,40268.2,0.00176383,0.072168,0,0.0721895,-15507.6,-42267.1,-0,45022.2,40268.2
step02_gravity_refstate-mantle.xmf,128,-6.68805e-07,3.34295e-06,0,4.03001e-07,-1.18049e+09,-1.17995e+09,-1.1804e+09,53861,0.00213107,0.0757097,0,0.0757397,-14545.1,-42529.8,-0,44948.2,53861
step02_gravity_refstate-mantle.xmf,129,-2.47724e-07,3.45647e-06,0,5.30968e-07,-1.2262e+09,-1.22571e+09,-1.22617e+09,70963.8,0.00758628,0.0761717,0,0.0765486,-13515.2,-43945.1,-0,45976.4,70963.8
step02_gravity_refstate-mantle.xmf,130,-2.27753e-07,2.52792e-06,0,1.97256e-08,-1.09856e+09,-1.09819e+09,-1.09853e+09,2636.33,0.00154988,0.0518969,0,0.05192,-26077.3,-40000,-0,47749.6,2636.33
step02_gravity_refstate-mantle.xmf,131,-1.09441e-07,2.43588e-06,0,-7.92453e-10,-1.09854e+09,-1.0982e+09,-1.09853e+09,-105.911,0.00183805,0.0498162,0,0.0498501,-27786.5,-40000,-0,48704.1,105.911
step02_gravity_refstate-mantle.xmf,132,-3.60124e-07,2.62041e-06,0,5.56731e-08,-1.09858e+09,-1.09818e+09,-1.09853e+09,7440.71,0.0010714,0.0543131,0,0.0543236,-24449.7,-40000,-0,46880.6,7440.71
step02_gravity_refstate-mantle.xmf,133,6.0099e-08,3.511e-06,0,5.55494e-07,-1.26117e+09,-1.26071e+09,-1.26118e+09,74241.8,0.0121501,0.0718883,0,0.0729078,-13612,-45027.5,-0,47040,74241.8
step02_gravity_refstate-mantle.xmf,134,1.91039e-07,3.43439e-06,0,3.97211e-07,-1.27645e+09,-1.27602e+09,-1.27648e+09,53087.3,0.0138789,0.0654762,0,0.066931,-14590.5,-45500.2,-0,47782.3,53087.3
step02_gravity_refstate-mantle.xmf,135,3.23886e-07,3.14977e-06,0,2.91839e-08,-1.28707e+09,-1.28669e+09,-1.28711e+09,3900.43,0.0142514,0.0533491,0,0.0552198,-17509.9,-45828.3,-0,49059.4,3900.43
step02_gravity_refstate-mantle.xmf,136,3.1272e-07,3.34795e-06,0,2.53825e-07,-1.29169e+09,-1.29129e+09,-1.29173e+09,33923.7,0.0153071,0.0594803,0,0.0614183,-15628.5,-45971.6,-0,48555.5,33923.7
step02_gravity_refstate-mantle.xmf,137,1.18921e-06,2.57138e-06,0,-2.48773e-07,-1.44211e+09,-1.44193e+09,-1.44227e+09,-33248.5,0.0179286,0.025494,0,0.031167,-25524.3,-50621.9,-0,56692.7,33248.5
step02_gravity_refstate-mantle.xmf,138,1.52851e-06,2.45194e-06,0,-1.57391e-07,-1.56579e+09,-1.56567e+09,-1.566e+09,-21035.3,0.0172027,0.0141585,0,0.02228,-28732.2,-54444.3,-0,61560.7,21035.3
step02_gravity_refstate-mantle.xmf,139,1.64406e-06,2.43543e-06,0,-8.65317e-08,-1.64484e+09,-1.64474e+09,-1.64506e+09,-11565,0.015416,0.00778582,0,0.0172706,-30568.3,-56886.9,-0,64579.7,11565
step02_gravity_refstate-mantle.xmf,140,-7.75646e-07,3.0791e-06,0,2.00785e-07,-1.13351e+09,-1.13299e+09,-1.13341e+09,26834.9,-0.000270001,0.066363,-0,0.0663636,-18042.9,-41077.3,-0,44865.3,26834.9
step02_gravity_refstate-mantle.xmf,141,-7.25269e-07,3.20152e-06,0,2.55921e-07,-1.1595e+09,-1.15898e+09,-1.15941e+09,34203.8,0.000968271,0.0699923,0,0.069999,-16336,-41880.9,-0,44954.2,34203.8
step02_gravity_refstate-mantle.xmf,142,-9.15016e-07,3.31726e-06,0,4.33928e-07,-1.15443e+09,-1.15386e+09,-1.15431e+09,57994.5,-0.000860276,0.0771495,-0,0.0771543,-14804,-41723.3,-0,44271.8,57994.5
step02_gravity_refstate-mantle.xmf,143,-6.4381e-07,3.42671e-06,0,5.43471e-07,-1.18826e+09,-1.18772e+09,-1.18817e+09,72635,0.00244933,0.080347,0,0.0803844,-13490,-42770.4,-0,44847.3,72635
step02_gravity_refstate-mantle.xmf,144,-4.15113e-07,3.52114e-06,0,7.08934e-07,-1.21234e+09,-1.21181e+09,-1.21228e+09,94749,0.00535324,0.0829289,0,0.0831015,-12598.5,-43515.8,-0,45302.9,94749
step02_gravity_refstate-mantle.xmf,145,-7.60916e-08,3.57822e-06,0,7.31078e-07,-1.24575e+09,-1.24527e+09,-1.24574e+09,97708.6,0.0101017,0.0787843,0,0.0794293,-12677.2,-44550.5,-0,46319.1,97708.6
step02_gravity_refstate-mantle.xmf,146,-2.31546e-07,3.6386e-06,0,9.36655e-07,-1.23129e+09,-1.23078e+09,-1.23126e+09,125184,0.00788083,0.0860934,0,0.0864533,-11777,-44102.9,-0,45648.3,125184
step02_gravity_refstate-mantle.xmf,147,-5.828e-08,3.7945e-06,0,1.22121e-06,-1.2481e+09,-1.24759e+09,-1.2481e+09,163214,0.0103216,0.0897716,0,0.090363,-10982.4,-44623.8,-0,45955.3,163214
step02_gravity_refstate-mantle.xmf,148,-3.62968e-07,3.69107e-06,0,1.17226e-06,-1.21868e+09,-1.21814e+09,-1.21864e+09,156673,0.00565137,0.0938031,0,0.0939732,-10899.6,-43712.7,-0,45051.1,156673
step02_gravity_refstate-mantle.xmf,149,-4.99835e-07,2.71934e-06,0,9.98269e-08,-1.0986e+09,-1.09817e+09,-1.09854e+09,13341.9,0.000406567,0.0570781,0,0.0570795,-22899.8,-40000,-0,46091.2,13341.9
step02_gravity_refstate-mantle.xmf,150,-6.46478e-07,2.82035e-06,0,1.55357e-07,-1.09863e+09,-1.09816e+09,-1.09854e+09,20763.4,-0.000437604,0.0602059,-0,0.0602075,-21423.9,-40000,-0,45376,20763.4
step02_gravity_refstate-mantle.xmf,151,7.2955e-08,3.73475e-06,0,9.90605e-07,-1.26257e+09,-1.26208e+09,-1.26258e+09,132394,0.0124461,0.0820975,0,0.0830356,-11841.3,-45071.2,-0,46600.8,132394
step02_gravity_refstate-mantle.xmf,152,1.08938e-06,2.66199e-06,0,-2.45094e-07,-1.41864e+09,-1.41843e+09,-1.41879e+09,-32756.8,0.0184995,0.028712,0,0.0341557,-24113.5,-49896.5,-0,55417.6,32756.8
step02_gravity_refstate-mantle.xmf,153,9.81495e-07,2.75766e-06,0,-2.26454e-07,-1.39599e+09,-1.39576e+09,-1.39612e+09,-30265.5,0.018741,0.0322365,0,0.0372883,-22752.3,-49196.4,-0,54202.9,30265.5
step02_gravity_refstate-mantle.xmf,154,8.63547e-07,2.85718e-06,0,-1.91021e-07,-1.37352e+09,-1.37325e+09,-1.37363e+09,-25530,0.0186304,0.0361787,0,0.0406939,-21425.9,-48501.5,-0,53023.3,25530
step02_gravity_refstate-mantle.xmf,155,4.37248e-07,3.26012e-06,0,1.32084e-07,-1.30868e+09,-1.3083e+09,-1.30874e+09,17653,0.0166227,0.0538473,0,0.0563546,-16695.6,-46497,-0,49403.6,17653
step02_gravity_refstate-mantle.xmf,156,7.3933e-07,2.95133e-06,0,-1.42194e-07,-1.35158e+09,-1.35129e+09,-1.35168e+09,-19004.2,0.0181274,0.0404004,0,0.0442809,-20207.2,-47823.4,-0,51917.4,19004.2
step02_gravity_refstate-mantle.xmf,157,6.04697e-07,3.04004e-06,0,-8.05111e-08,-1.32908e+09,-1.32875e+09,-1.32916e+09,-10760.3,0.0171962,0.0450693,0,0.0482385,-19049.6,-47127.5,-0,50832,10760.3
step02_gravity_refstate-mantle.xmf,158,5.47199e-07,3.16506e-06,0,2.67099e-08,-1.32414e+09,-1.32379e+09,-1.32421e+09,3569.78,0.0174985,0.0488572,0,0.0518963,-17801.2,-46974.9,-0,50234.7,3569.78
step02_gravity_refstate-mantle.xmf,159,1.3671e-06,2.62028e-06,0,-2.00289e-07,-1.50392e+09,-1.50376e+09,-1.50411e+09,-26768.6,0.0203707,0.0206142,0,0.0289813,-25417.9,-52532.6,-0,58358.7,26768.6
step02_gravity_refstate-mantle.xmf,160,1.4565e-06,2.5209e-06,0,-1.85636e-07,-1.53491e+09,-1.53477e+09,-1.5351e+09,-24810.2,0.0188378,0.0171475,0,0.0254735,-27162.6,-53490.1,-0,59991.6,24810.2
step02_gravity_refstate-mantle.xmf,161,1.63044e-06,2.50807e-06,0,-1.01116e-07,-1.63501e+09,-1.6349e+09,-1.63523e+09,-13514.2,0.0181089,0.00881884,0,0.0201421,-28858.4,-56583.4,-0,63517.7,13514.2
step02_gravity_refstate-mantle.xmf,162,1.68113e-06,2.52652e-06,0,-4.91041e-08,-1.69223e+09,-1.69212e+09,-1.69246e+09,-6562.76,0.0170229,0.00423321,0,0.0175414,-29815.6,-58351.4,-0,65527.5,6562.76
step02_gravity_refstate-mantle.xmf,163,1.69585e-06,2.55519e-06,0,1.8119e-09,-1.7456e+09,-1.74549e+09,-1.74583e+09,242.161,0.0153487,-5.8012e-20,0,0.0153487,-30889.1,-60000,-0,67484.3,242.161
step02_gravity_refstate-mantle.xmf,164,-7.98488e-07,2.92135e-06,0,2.23382e-07,-1.09865e+09,-1.09815e+09,-1.09854e+09,29854.9,-0.00145112,0.0637102,-0,0.0637267,-20018.5,-40000,-0,44729.6,29854.9
step02_gravity_refstate-mantle.xmf,165,-9.54283e-07,3.02053e-06,0,3.05138e-07,-1.09868e+09,-1.09815e+09,-1.09855e+09,40781.6,-0.002622,0.0676037,-0,0.0676545,-18680.2,-40000,-0,44146.9,40781.6
step02_gravity_refstate-mantle.xmf,166,-9.29548e-07,3.17473e-06,0,3.08838e-07,-1.13114e+09,-1.1306e+09,-1.13102e+09,41276.2,-0.00157459,0.0710891,-0,0.0711065,-16774,-41003.5,-0,44301.9,41276.2
step02_gravity_refstate-mantle.xmf,167,-1.02677e-06,3.25914e-06,0,4.09971e-07,-1.135e+09,-1.13442e+09,-1.13486e+09,54792.7,-0.00233871,0.0755749,-0,0.0756111,-15582.8,-41122,-0,43975.5,54792.7
step02_gravity_refstate-mantle.xmf,168,-9.69824e-07,3.38085e-06,0,5.4214e-07,-1.15576e+09,-1.15518e+09,-1.15563e+09,72457.1,-0.00151828,0.0813989,-0,0.081413,-13928.8,-41764.2,-0,44025.7,72457.1
step02_gravity_refstate-mantle.xmf,169,-1.80828e-07,3.85097e-06,0,1.48413e-06,-1.23484e+09,-1.2343e+09,-1.23481e+09,198354,0.00809999,0.0979568,0,0.0982911,-10142.4,-44213.3,-0,45361.7,198354
step02_gravity_refstate-mantle.xmf,170,-5.60529e-07,3.58134e-06,0,9.44989e-07,-1.20181e+09,-1.20126e+09,-1.20174e+09,126298,0.00329219,0.0904545,0,0.0905144,-11621.2,-43189.9,-0,44726,126298
step02_gravity_refstate-mantle.xmf,171,1.0109e-07,4.01047e-06,0,1.57701e-06,-1.26473e+09,-1.2642e+09,-1.26474e+09,210767,0.0129004,0.0938241,0,0.0947069,-10202.4,-45138.9,-0,46277.5,210767
step02_gravity_refstate-mantle.xmf,172,2.01311e-07,3.9386e-06,0,1.31076e-06,-1.27843e+09,-1.27793e+09,-1.27846e+09,175183,0.0148033,0.0857813,0,0.0870492,-11031.6,-45562.7,-0,46879.2,175183
step02_gravity_refstate-mantle.xmf,173,2.1231e-07,3.67643e-06,0,7.92438e-07,-1.2804e+09,-1.27994e+09,-1.28043e+09,105909,0.0147238,0.0744961,0,0.0759372,-12745.4,-45623,-0,47369.8,105909
step02_gravity_refstate-mantle.xmf,174,4.38576e-07,3.52177e-06,0,4.53957e-07,-1.31405e+09,-1.31364e+09,-1.31411e+09,60671.4,0.0180505,0.0611152,0,0.0637251,-14661.2,-46663.4,-0,48912.4,60671.4
step02_gravity_refstate-mantle.xmf,175,3.35868e-07,3.60911e-06,0,6.22903e-07,-1.29836e+09,-1.29792e+09,-1.2984e+09,83250.9,0.0166767,0.0674931,0,0.0695229,-13670.3,-46178.3,-0,48159.3,83250.9
step02_gravity_refstate-mantle.xmf,176,5.38077e-07,3.42532e-06,0,3.01761e-07,-1.32983e+09,-1.32944e+09,-1.3299e+09,40330.4,0.0191536,0.0551916,0,0.0584207,-15704.8,-47151.2,-0,49697.9,40330.4
step02_gravity_refstate-mantle.xmf,177,1.24543e-06,2.6954e-06,0,-2.11211e-07,-1.46754e+09,-1.46735e+09,-1.46771e+09,-28228.4,0.0206746,0.0246443,0,0.032168,-24131.2,-51408.1,-0,56790,28228.4
step02_gravity_refstate-mantle.xmf,178,1.57754e-06,2.56562e-06,0,-1.30345e-07,-1.601e+09,-1.60086e+09,-1.60121e+09,-17420.6,0.0199512,0.0118629,0,0.0232116,-27390.5,-55532.4,-0,61920,17420.6
step02_gravity_refstate-mantle.xmf,179,-1.11208e-06,3.11575e-06,0,4.01777e-07,-1.0987e+09,-1.09814e+09,-1.09855e+09,53697.5,-0.00393678,0.0718988,-0,0.0720065,-17405.7,-40000,-0,43622.9,53697.5
step02_gravity_refstate-mantle.xmf,180,-1.21511e-06,3.33633e-06,0,5.73347e-07,-1.12817e+09,-1.12756e+09,-1.128e+09,76627.8,-0.0043708,0.081515,-0,0.0816321,-14463.6,-40910,-0,43391.5,76627.8
step02_gravity_refstate-mantle.xmf,181,-7.98398e-07,3.50322e-06,0,7.84945e-07,-1.18e+09,-1.17942e+09,-1.17989e+09,104908,0.000402279,0.0883619,0,0.0883629,-12291.9,-42514.2,-0,44255.5,104908
step02_gravity_refstate-mantle.xmf,182,-1.10324e-07,4.1483e-06,0,2.24405e-06,-1.24012e+09,-1.23955e+09,-1.2401e+09,299917,0.00879042,0.111489,0,0.111835,-8617.03,-44377.7,-0,45206.5,299917
step02_gravity_refstate-mantle.xmf,183,-3.57013e-09,4.08105e-06,0,1.88815e-06,-1.25192e+09,-1.25138e+09,-1.25192e+09,252351,0.0108839,0.102421,0,0.102998,-9393.75,-44742.9,-0,45718.4,252351
step02_gravity_refstate-mantle.xmf,184,-3.01388e-07,3.90035e-06,0,1.81821e-06,-1.2234e+09,-1.22283e+09,-1.22336e+09,243004,0.00592097,0.106707,0,0.106871,-9312.22,-43859.2,-0,44836.9,243004
step02_gravity_refstate-mantle.xmf,185,-5.59039e-07,3.71001e-06,0,1.45016e-06,-1.2023e+09,-1.20173e+09,-1.20222e+09,193814,0.00248038,0.102594,0,0.102624,-10044.8,-43205.3,-0,44357.6,193814
step02_gravity_refstate-mantle.xmf,186,-6.6906e-07,3.62235e-06,0,1.17157e-06,-1.1938e+09,-1.19322e+09,-1.19371e+09,156580,0.0015055,0.0971841,0,0.0971958,-10826.4,-42941.8,-0,44285.5,156580
step02_gravity_refstate-mantle.xmf,187,1.34538e-07,4.39502e-06,0,2.35562e-06,-1.26797e+09,-1.2674e+09,-1.26799e+09,314828,0.0135988,0.107289,0,0.108147,-8667.7,-45240.3,-0,46063.1,314828
step02_gravity_refstate-mantle.xmf,188,3.06253e-07,3.86859e-06,0,1.08066e-06,-1.29354e+09,-1.29306e+09,-1.29358e+09,144430,0.0166454,0.0782345,0,0.0799856,-11874.9,-46029.9,-0,47537,144430
step02_gravity_refstate-mantle.xmf,189,1.14731e-06,2.79342e-06,0,-1.94348e-07,-1.44321e+09,-1.44299e+09,-1.44337e+09,-25974.6,0.0211565,0.0281194,0,0.0351894,-22803.6,-50656.2,-0,55552.3,25974.6
step02_gravity_refstate-mantle.xmf,190,1.04581e-06,2.8973e-06,0,-1.5972e-07,-1.42084e+09,-1.4206e+09,-1.42098e+09,-21346.6,0.0213929,0.031835,0,0.0383552,-21509.7,-49964.8,-0,54398.1,21346.6
step02_gravity_refstate-mantle.xmf,191,9.38729e-07,3.00281e-06,0,-1.07167e-07,-1.39905e+09,-1.39877e+09,-1.39917e+09,-14322.9,0.0213147,0.0359305,0,0.041777,-20258.8,-49291,-0,53291.9,14322.9
step02_gravity_refstate-mantle.xmf,192,6.399e-07,3.32563e-06,0,1.70927e-07,-1.34662e+09,-1.34626e+09,-1.3467e+09,22844.5,0.0200791,0.049693,0,0.0535963,-16784.1,-47670.3,-0,50538.7,22844.5
step02_gravity_refstate-mantle.xmf,193,8.30319e-07,3.10505e-06,0,-3.81801e-08,-1.37829e+09,-1.37799e+09,-1.3784e+09,-5102.78,0.0209386,0.0403282,0,0.04544,-19076.9,-48649.5,-0,52256.1,5102.78
step02_gravity_refstate-mantle.xmf,194,7.34099e-07,3.21777e-06,0,5.73137e-08,-1.36206e+09,-1.36173e+09,-1.36216e+09,7659.97,0.0206176,0.0448375,0,0.0493506,-17900.1,-48147.8,-0,51367.6,7659.97
step02_gravity_refstate-mantle.xmf,195,1.3498e-06,2.75242e-06,0,-1.72607e-07,-1.5082e+09,-1.50802e+09,-1.50839e+09,-23069,0.0225078,0.0213792,0,0.031043,-23952.1,-52665,-0,57855.9,23069
step02_gravity_refstate-mantle.xmf,196,1.50646e-06,2.65101e-06,0,-1.50675e-07,-1.5677e+09,-1.56755e+09,-1.5679e+09,-20137.7,0.0216986,0.0151933,0,0.026489,-25795.4,-54503.6,-0,60299.6,20137.7
step02_gravity_refstate-mantle.xmf,197,1.63769e-06,2.63181e-06,0,-8.60482e-08,-1.64884e+09,-1.64871e+09,-1.64906e+09,-11500.3,0.0209886,0.00807129,0,0.022487,-27198.2,-57011,-0,63166.4,11500.3
step02_gravity_refstate-mantle.xmf,198,1.67441e-06,2.63525e-06,0,-4.99456e-08,-1.6936e+09,-1.69347e+09,-1.69382e+09,-6675.23,0.0201543,0.00430093,0,0.0206081,-27953.9,-58393.7,-0,64739.8,6675.23
step02_gravity_refstate-mantle.xmf,199,1.6931e-06,2.65638e-06,0,1.55463e-09,-1.74559e+09,-1.74546e+09,-1.74582e+09,207.776,0.018781,-5.93382e-20,0,0.018781,-28863.5,-60000,-0,66581.5,207.776
step02_gravity_refstate-mantle.xmf,200,2.73426e-08,4.47372e-06,0,2.76962e-06,-1.25558e+09,-1.25498e+09,-1.25558e+09,370160,0.011535,0.117022,0,0.117589,-7914.02,-44856.9,-0,45549.7,370160
step02_gravity_refstate-mantle.xmf,201,-2.23215e-07,4.1819e-06,0,2.66553e-06,-1.22872e+09,-1.22813e+09,-1.22869e+09,356249,0.0065398,0.121012,0,0.121188,-7880.96,-44024.9,-0,44724.7,356249
step02_gravity_refstate-mantle.xmf,202,-1.10971e-06,3.44768e-06,0,7.32161e-07,-1.15133e+09,-1.15072e+09,-1.15118e+09,97853.3,-0.00323582,0.0879284,-0,0.0879879,-12856.1,-41626.4,-0,43566.5,97853.3
step02_gravity_refstate-mantle.xmf,203,-1.27141e-06,3.20529e-06,0,5.14133e-07,-1.09873e+09,-1.09813e+09,-1.09856e+09,68713.9,-0.0053803,0.0766065,-0,0.0767952,-16192.1,-40000,-0,43153.1,68713.9
step02_gravity_refstate-mantle.xmf,204,-1.34696e-06,3.40674e-06,0,7.28985e-07,-1.12638e+09,-1.12574e+09,-1.1262e+09,97428.9,-0.00594326,0.0873244,-0,0.0875264,-13410.5,-40854,-0,42998.7,97428.9
step02_gravity_refstate-mantle.xmf,205,-1.4275e-06,3.28676e-06,0,6.44058e-07,-1.09876e+09,-1.09813e+09,-1.09857e+09,86078.4,-0.00693791,0.0817383,-0,0.0820322,-15036.5,-40000,-0,42732.8,86078.4
step02_gravity_refstate-mantle.xmf,206,-4.002e-07,3.94162e-06,0,2.18733e-06,-1.21389e+09,-1.21331e+09,-1.21383e+09,292337,0.00388279,0.115627,0,0.115693,-8535.52,-43564.9,-0,44393.2,292337
step02_gravity_refstate-mantle.xmf,207,-9.02575e-07,3.55197e-06,0,1.02798e-06,-1.17498e+09,-1.17438e+09,-1.17486e+09,137389,-0.00120637,0.0955511,-0,0.0955588,-11321.9,-42358.7,-0,43845.7,137389
step02_gravity_refstate-mantle.xmf,208,2.28858e-07,4.30574e-06,0,2.00784e-06,-1.28097e+09,-1.28042e+09,-1.281e+09,268348,0.015518,0.0983288,0,0.0995458,-9429.27,-45642.1,-0,46605.9,268348
step02_gravity_refstate-mantle.xmf,209,3.13018e-07,4.21219e-06,0,1.69526e-06,-1.29452e+09,-1.29399e+09,-1.29456e+09,226571,0.0172751,0.0897546,0,0.091402,-10237.1,-46061,-0,47184.9,226571
step02_gravity_refstate-mantle.xmf,210,3.8968e-07,4.1197e-06,0,1.42034e-06,-1.30851e+09,-1.30801e+09,-1.30856e+09,189828,0.0188588,0.0817617,0,0.0839084,-11069.5,-46493.6,-0,47793.1,189828
step02_gravity_refstate-mantle.xmf,211,4.68273e-07,3.82915e-06,0,8.88637e-07,-1.32068e+09,-1.32023e+09,-1.32074e+09,118766,0.0195879,0.0692209,0,0.071939,-12851.8,-46869.3,-0,48599.4,118766
step02_gravity_refstate-mantle.xmf,212,6.2341e-07,3.64261e-06,0,5.21722e-07,-1.35183e+09,-1.35143e+09,-1.35191e+09,69728.2,0.0218438,0.0566087,0,0.060677,-14736.5,-47832.1,-0,50050.7,69728.2
step02_gravity_refstate-mantle.xmf,213,5.44503e-07,3.74361e-06,0,7.00693e-07,-1.33632e+09,-1.3359e+09,-1.3364e+09,93647.6,0.0208519,0.0627339,0,0.0661086,-13760.1,-47352.8,-0,49311.6,93647.6
step02_gravity_refstate-mantle.xmf,214,7.10768e-07,3.53581e-06,0,3.61405e-07,-1.36882e+09,-1.36844e+09,-1.36891e+09,48301.8,0.0227138,0.0507511,0,0.0556021,-15771.5,-48357.1,-0,50864.1,48301.8
step02_gravity_refstate-mantle.xmf,215,1.27434e-06,2.84279e-06,0,-1.58372e-07,-1.48771e+09,-1.4875e+09,-1.48788e+09,-21166.4,0.0231788,0.0242256,0,0.0335281,-22819.5,-52031.6,-0,56815.6,21166.4
step02_gravity_refstate-mantle.xmf,216,1.44141e-06,2.75386e-06,0,-1.5037e-07,-1.54609e+09,-1.54591e+09,-1.54628e+09,-20097,0.02317,0.0178217,0,0.0292311,-24390.3,-53835.8,-0,59103.1,20097
step02_gravity_refstate-mantle.xmf,217,1.5924e-06,2.71232e-06,0,-1.01469e-07,-1.62549e+09,-1.62534e+09,-1.6257e+09,-13561.3,0.0227845,0.0103716,0,0.0250341,-25873,-56289.5,-0,61950.9,13561.3
step02_gravity_refstate-mantle.xmf,218,2.15071e-07,4.81602e-06,0,2.89415e-06,-1.28328e+09,-1.28267e+09,-1.28331e+09,386803,0.0162075,0.112596,0,0.113756,-7953.09,-45714.9,-0,46401.5,386803
step02_gravity_refstate-mantle.xmf,219,-9.91767e-08,4.54079e-06,0,3.24008e-06,-1.24278e+09,-1.24216e+09,-1.24277e+09,433037,0.00914456,0.127209,0,0.127537,-7213.05,-44461,-0,45042.3,433037
step02_gravity_refstate-mantle.xmf,220,-1.58132e-06,3.35695e-06,0,7.93444e-07,-1.09878e+09,-1.09812e+09,-1.09857e+09,106044,-0.00859172,0.0873038,-0,0.0877255,-13936,-40000,-0,42358.1,106044
step02_gravity_refstate-mantle.xmf,221,-1.18771e-06,3.50088e-06,0,9.2765e-07,-1.15105e+09,-1.15043e+09,-1.15089e+09,123980,-0.00439988,0.0942292,-0,0.0943319,-11879.3,-41617.6,-0,43279.8,123980
step02_gravity_refstate-mantle.xmf,222,-6.28439e-07,3.76117e-06,0,1.82796e-06,-1.19679e+09,-1.1962e+09,-1.1967e+09,244307,0.000929151,0.11155,0,0.111554,-9136.78,-43034.7,-0,43993.9,244307
step02_gravity_refstate-mantle.xmf,223,-5.15446e-07,3.93275e-06,0,2.59985e-06,-1.20305e+09,-1.20246e+09,-1.20298e+09,347470,0.00140804,0.124941,0,0.124949,-7821.3,-43229.5,-0,43931.3,347470
step02_gravity_refstate-mantle.xmf,224,-9.47015e-07,3.59785e-06,0,1.30302e-06,-1.17367e+09,-1.17306e+09,-1.17354e+09,174149,-0.00228726,0.102887,-0,0.102912,-10394.7,-42318.1,-0,43576.1,174149
step02_gravity_refstate-mantle.xmf,225,-3.3751e-07,4.18834e-06,0,3.14763e-06,-1.21725e+09,-1.21664e+09,-1.2172e+09,420681,0.00405514,0.131042,0,0.131105,-7184.16,-43669.8,-0,44256.7,420681
step02_gravity_refstate-mantle.xmf,226,3.00722e-07,4.68872e-06,0,2.48863e-06,-1.29627e+09,-1.29569e+09,-1.29631e+09,332606,0.0180037,0.103128,0,0.104687,-8686.09,-46116.4,-0,46927.3,332606
step02_gravity_refstate-mantle.xmf,227,4.58027e-07,4.02591e-06,0,1.17798e-06,-1.322e+09,-1.32153e+09,-1.32206e+09,157437,0.0201677,0.0745182,0,0.0771991,-11913.2,-46910.6,-0,48399.7,157437
step02_gravity_refstate-mantle.xmf,228,1.18508e-06,2.95326e-06,0,-1.23631e-07,-1.46592e+09,-1.46568e+09,-1.46608e+09,-16523.3,0.0237263,0.0276886,0,0.0364636,-21558.7,-51358.3,-0,55699.7,16523.3
step02_gravity_refstate-mantle.xmf,229,1.0896e-06,3.07249e-06,0,-6.73311e-08,-1.44467e+09,-1.44441e+09,-1.44482e+09,-8998.8,0.0240321,0.0315731,0,0.0396787,-20299.5,-50701.6,-0,54614.3,8998.8
step02_gravity_refstate-mantle.xmf,230,9.91018e-07,3.19062e-06,0,8.4658e-09,-1.42376e+09,-1.42347e+09,-1.42389e+09,1131.45,0.024022,0.0358601,0,0.0431625,-19096.6,-50055.3,-0,53574.4,1131.45
step02_gravity_refstate-mantle.xmf,231,8.01332e-07,3.42432e-06,0,2.22989e-07,-1.3863e+09,-1.38595e+09,-1.38641e+09,29802.5,0.0233658,0.0453829,0,0.0510447,-16838.3,-48897.5,-0,51715.5,29802.5
step02_gravity_refstate-mantle.xmf,232,8.94218e-07,3.30728e-06,0,1.04355e-07,-1.40423e+09,-1.40391e+09,-1.40435e+09,13947.1,0.0237779,0.0404552,0,0.0469256,-17949.4,-49451.6,-0,52608.4,13947.1
step02_gravity_refstate-mantle.xmf,233,1.37438e-06,2.88914e-06,0,-1.26083e-07,-1.53035e+09,-1.53015e+09,-1.53054e+09,-16851,0.0247141,0.0203471,0,0.0320123,-22921.5,-53349.8,-0,58065.4,16851
step02_gravity_refstate-mantle.xmf,234,1.52966e-06,2.81358e-06,0,-1.08476e-07,-1.59833e+09,-1.59815e+09,-1.59853e+09,-14497.8,0.0244595,0.0132884,0,0.0278361,-24455.5,-55450.2,-0,60603.6,14497.8
step02_gravity_refstate-mantle.xmf,235,1.6476e-06,2.78541e-06,0,-5.08301e-08,-1.6871e+09,-1.68695e+09,-1.68732e+09,-6793.44,0.0234422,0.00511731,0,0.0239943,-25945.4,-58193.3,-0,63715.1,6793.44
step02_gravity_refstate-mantle.xmf,236,1.67834e-06,2.78888e-06,0,1.76982e-09,-1.74559e+09,-1.74544e+09,-1.74581e+09,236.537,0.0220437,-7.27202e-20,0,0.0220437,-26927.8,-60000,-0,65765.5,236.537
step02_gravity_refstate-mantle.xmf,237,9.95874e-08,4.99304e-06,0,3.44693e-06,-1.27065e+09,-1.26999e+09,-1.27066e+09,460683,0.0142339,0.123947,0,0.124762,-7144.85,-45324.2,-0,45883.9,460683
step02_gravity_refstate-mantle.xmf,238,-1.47343e-06,3.46088e-06,0,9.1396e-07,-1.12517e+09,-1.12451e+09,-1.12498e+09,122151,-0.00754845,0.0936278,-0,0.0939316,-12390.1,-40816.2,-0,42655.3,122151
step02_gravity_refstate-mantle.xmf,239,-1.73003e-06,3.41399e-06,0,9.63497e-07,-1.09881e+09,-1.09812e+09,-1.09858e+09,128771,-0.0103247,0.0933133,-0,0.0938827,-12888,-40000,-0,42025,128771
step02_gravity_refstate-mantle.xmf,240,-7.21153e-07,3.76061e-06,0,2.17032e-06,-1.1889e+09,-1.1883e+09,-1.1888e+09,290064,-0.00108501,0.119718,-0,0.119723,-8431.97,-42790.4,-0,43613.3,290064
step02_gravity_refstate-mantle.xmf,241,-9.43131e-07,3.63129e-06,0,1.59557e-06,-1.1744e+09,-1.17378e+09,-1.17427e+09,213248,-0.00291821,0.109785,-0,0.109824,-9593.33,-42340.6,-0,43413.8,213248
step02_gravity_refstate-mantle.xmf,242,-1.26922e-06,3.53208e-06,0,1.17474e-06,-1.14955e+09,-1.1489e+09,-1.14938e+09,157004,-0.00582458,0.101376,-0,0.101543,-10917.7,-41570.6,-0,42980.3,157004
step02_gravity_refstate-mantle.xmf,243,-6.20624e-07,3.87193e-06,0,3.07689e-06,-1.19216e+09,-1.19156e+09,-1.19208e+09,411227,-0.00127431,0.134807,-0,0.134813,-7136.1,-42892.2,-0,43481.8,411227
step02_gravity_refstate-mantle.xmf,244,3.78307e-07,4.57536e-06,0,2.14702e-06,-1.31028e+09,-1.30972e+09,-1.31033e+09,286949,0.0197113,0.0941491,0,0.0961904,-9446.56,-46549.2,-0,47498.1,286949
step02_gravity_refstate-mantle.xmf,245,4.4837e-07,4.45828e-06,0,1.82772e-06,-1.32472e+09,-1.32419e+09,-1.32478e+09,244274,0.0212365,0.0855177,0,0.0881151,-10260.8,-46995.7,-0,48102.8,244274
step02_gravity_refstate-mantle.xmf,246,5.05157e-07,4.33345e-06,0,1.52797e-06,-1.33838e+09,-1.33787e+09,-1.33845e+09,204214,0.0224518,0.077576,0,0.0807596,-11110.3,-47417.7,-0,48701.9,204214
step02_gravity_refstate-mantle.xmf,247,5.59034e-07,4.2334e-06,0,1.29037e-06,-1.35233e+09,-1.35184e+09,-1.35241e+09,172459,0.0235584,0.0707164,0,0.0745373,-11901.8,-47848.7,-0,49306.7,172459
step02_gravity_refstate-mantle.xmf,248,7.44171e-07,3.79606e-06,0,5.885e-07,-1.38943e+09,-1.38902e+09,-1.38953e+09,78653,0.0251902,0.052041,0,0.0578171,-14797.1,-48994.7,-0,51180.4,78653
step02_gravity_refstate-mantle.xmf,249,6.10232e-07,4.04654e-06,0,1.00279e-06,-1.35978e+09,-1.35932e+09,-1.35986e+09,134023,0.0237591,0.0643552,0,0.068601,-12871.2,-48078.4,-0,49771.5,134023
step02_gravity_refstate-mantle.xmf,250,6.71017e-07,3.91751e-06,0,7.82374e-07,-1.37318e+09,-1.37275e+09,-1.37327e+09,104564,0.0244485,0.0581269,0,0.0630592,-13811.8,-48492.6,-0,50421.2,104564
step02_gravity_refstate-mantle.xmf,251,8.27115e-07,3.67391e-06,0,4.18316e-07,-1.40752e+09,-1.40714e+09,-1.40763e+09,55907.9,0.025842,0.0462526,0,0.0529822,-15825.6,-49553.6,-0,52019.3,55907.9
step02_gravity_refstate-mantle.xmf,252,1.29207e-06,3.01646e-06,0,-9.02931e-08,-1.50986e+09,-1.50963e+09,-1.51003e+09,-12067.7,0.0256473,0.0235527,0,0.0348212,-21623.8,-52716.4,-0,56979,12067.7
step02_gravity_refstate-mantle.xmf,253,1.45776e-06,2.94148e-06,0,-9.53459e-08,-1.57584e+09,-1.57565e+09,-1.57604e+09,-12743,0.0259801,0.0161416,0,0.0305862,-23053.6,-54755.6,-0,59410.8,12743
step02_gravity_refstate-mantle.xmf,254,1.58602e-06,2.88567e-06,0,-6.95836e-08,-1.6496e+09,-1.64942e+09,-1.64981e+09,-9299.85,0.0254197,0.00877324,0,0.0268911,-24456.1,-57034.6,-0,62056.8,9299.85
step02_gravity_refstate-mantle.xmf,255,3.15204e-07,5.16329e-06,0,3.01765e-06,-1.31081e+09,-1.31016e+09,-1.31085e+09,403309,0.0202871,0.107888,0,0.109779,-7995.71,-46566.8,-0,47248.3,403309
step02_gravity_refstate-mantle.xmf,256,2.27379e-07,5.34101e-06,0,3.45598e-06,-1.29847e+09,-1.29779e+09,-1.2985e+09,461891,0.0186976,0.117537,0,0.119015,-7306.66,-46185.4,-0,46759.8,461891
step02_gravity_refstate-mantle.xmf,257,-5.74129e-08,4.99109e-06,0,3.87735e-06,-1.2544e+09,-1.25372e+09,-1.25439e+09,518208,0.0113063,0.134068,0,0.134544,-6566.61,-44821.2,-0,45299.7,518208
step02_gravity_refstate-mantle.xmf,258,-2.25512e-07,4.56894e-06,0,3.80094e-06,-1.23058e+09,-1.22994e+09,-1.23055e+09,507996,0.00661829,0.137925,0,0.138084,-6543.95,-44083.4,-0,44566.5,507996
step02_gravity_refstate-mantle.xmf,259,1.88312e-08,5.4069e-06,0,4.10002e-06,-1.27215e+09,-1.27143e+09,-1.27215e+09,547968,0.0145344,0.133068,0,0.13386,-6432.17,-45371.2,-0,45824.8,547968
step02_gravity_refstate-mantle.xmf,260,-1.58002e-06,3.49783e-06,0,1.12365e-06,-1.12464e+09,-1.12396e+09,-1.12443e+09,150175,-0.00911653,0.100345,-0,0.100758,-11416.9,-40799.1,-0,42366.3,150175
step02_gravity_refstate-mantle.xmf,261,-9.3027e-07,3.65124e-06,0,1.89561e-06,-1.17488e+09,-1.17426e+09,-1.17475e+09,253348,-0.00347438,0.116357,-0,0.116409,-8906.74,-42355.6,-0,43281.9,253348
step02_gravity_refstate-mantle.xmf,262,-8.46581e-07,3.69399e-06,0,2.55419e-06,-1.17791e+09,-1.17731e+09,-1.1778e+09,341368,-0.00388061,0.128643,-0,0.128702,-7759.81,-42450.1,-0,43153.5,341368
step02_gravity_refstate-mantle.xmf,263,-1.31812e-06,3.54905e-06,0,1.45441e-06,-1.14898e+09,-1.14833e+09,-1.14881e+09,194381,-0.00710522,0.108921,-0,0.109152,-10005.5,-41552.9,-0,42740.6,194381
step02_gravity_refstate-mantle.xmf,264,-4.28765e-07,4.15193e-06,0,3.72295e-06,-1.20675e+09,-1.20614e+09,-1.20669e+09,497572,0.00157433,0.141616,0,0.141625,-6511.93,-43344.8,-0,43831.2,497572
step02_gravity_refstate-mantle.xmf,265,3.77386e-07,5.00502e-06,0,2.63512e-06,-1.32293e+09,-1.32231e+09,-1.32298e+09,352184,0.0216593,0.0991718,0,0.101509,-8681.62,-46941.1,-0,47737.2,352184
step02_gravity_refstate-mantle.xmf,266,1.20123e-06,3.15046e-06,0,-3.30313e-08,-1.48866e+09,-1.4884e+09,-1.48882e+09,-4414.64,0.0262648,0.0272453,0,0.0378437,-20360.6,-52061.3,-0,55901.1,4414.64
step02_gravity_refstate-mantle.xmf,267,1.10555e-06,3.28905e-06,0,4.85708e-08,-1.46751e+09,-1.46722e+09,-1.46766e+09,6491.49,0.0265876,0.0314119,0,0.0411534,-19130.4,-51407.7,-0,54851.8,6491.49
step02_gravity_refstate-mantle.xmf,268,1.00927e-06,3.42581e-06,0,1.52652e-07,-1.44699e+09,-1.44667e+09,-1.44713e+09,20401.9,0.0266195,0.0359763,0,0.0447537,-17961.1,-50773.7,-0,53856.9,20401.9
step02_gravity_refstate-mantle.xmf,269,9.16802e-07,3.55144e-06,0,2.73629e-07,-1.42704e+09,-1.42669e+09,-1.42716e+09,36570.5,0.026348,0.0408669,0,0.0486243,-16881,-50157,-0,52921.6,36570.5
step02_gravity_refstate-mantle.xmf,270,1.37474e-06,3.0873e-06,0,-6.10743e-08,-1.55444e+09,-1.55421e+09,-1.55462e+09,-8162.58,0.0272448,0.0192777,0,0.0333753,-21689.6,-54094.1,-0,58280.5,8162.58
step02_gravity_refstate-mantle.xmf,271,1.52113e-06,3.00982e-06,0,-6.33593e-08,-1.62433e+09,-1.62413e+09,-1.62453e+09,-8467.97,0.0270641,0.0116466,0,0.0294637,-23111.8,-56253.8,-0,60816.5,8467.97
step02_gravity_refstate-mantle.xmf,272,1.60745e-06,2.99918e-06,0,-3.16178e-08,-1.69965e+09,-1.69946e+09,-1.69987e+09,-4225.72,0.0265323,0.00431128,0,0.0268803,-24106.6,-58581.1,-0,63347.3,4225.72
step02_gravity_refstate-mantle.xmf,273,1.64491e-06,2.95928e-06,0,7.1366e-10,-1.74558e+09,-1.7454e+09,-1.7458e+09,95.3806,0.0251187,-6.41537e-20,0,0.0251187,-25077,-60000,-0,65029.6,95.3806
step02_gravity_refstate-mantle.xmf,274,1.10016e-07,5.64944e-06,0,4.02561e-06,-1.29081e+09,-1.29007e+09,-1.29082e+09,538022,0.0176359,0.127687,0,0.128899,-6594.22,-45948.7,-0,46419.5,538022
step02_gravity_refstate-mantle.xmf,275,-1.11004e-07,5.56267e-06,0,4.58452e-06,-1.26359e+09,-1.26283e+09,-1.26357e+09,612722,0.0129703,0.14177,0,0.142362,-5931.85,-45106.2,-0,45494.6,612722
step02_gravity_refstate-mantle.xmf,276,-3.88093e-08,5.97963e-06,0,4.62917e-06,-1.28376e+09,-1.28296e+09,-1.28376e+09,618688,0.0165131,0.137748,0,0.138734,-5959.73,-45731,-0,46117.7,618688
step02_gravity_refstate-mantle.xmf,277,-1.86923e-06,3.4536e-06,0,1.15677e-06,-1.09884e+09,-1.09813e+09,-1.09859e+09,154603,-0.0121183,0.0997766,-0,0.10051,-11890.1,-40000,-0,41729.8,154603
step02_gravity_refstate-mantle.xmf,278,-1.08503e-06,3.59364e-06,0,2.15674e-06,-1.16387e+09,-1.16324e+09,-1.16372e+09,288248,-0.00623437,0.123318,-0,0.123476,-8363.33,-42014.3,-0,42838.6,288248
step02_gravity_refstate-mantle.xmf,279,-1.32861e-06,3.54689e-06,0,1.79939e-06,-1.14937e+09,-1.14872e+09,-1.1492e+09,240488,-0.00826765,0.117505,-0,0.117796,-9076.03,-41564.9,-0,42544.3,240488
step02_gravity_refstate-mantle.xmf,280,-1.6735e-06,3.50498e-06,0,1.37528e-06,-1.12396e+09,-1.12326e+09,-1.12373e+09,183806,-0.0107508,0.107634,-0,0.108169,-10481.7,-40777.3,-0,42102.9,183806
step02_gravity_refstate-mantle.xmf,281,-6.57916e-07,3.75837e-06,0,3.67337e-06,-1.183e+09,-1.18241e+09,-1.18291e+09,490946,-0.00375298,0.145494,-0,0.145542,-6446.06,-42608.7,-0,43093.5,490946
step02_gravity_refstate-mantle.xmf,282,-9.44482e-07,3.56148e-06,0,3.03097e-06,-1.167e+09,-1.1664e+09,-1.16687e+09,405089,-0.00689623,0.138771,-0,0.138942,-7055.6,-42111.9,-0,42698.9,405089
step02_gravity_refstate-mantle.xmf,283,5.00805e-07,4.73541e-06,0,1.93153e-06,-1.35534e+09,-1.35477e+09,-1.3554e+09,258149,0.0247018,0.080709,0,0.0844045,-10322.2,-47942.4,-0,49041,258149
step02_gravity_refstate-mantle.xmf,284,4.44698e-07,4.94483e-06,0,2.34621e-06,-1.3419e+09,-1.3413e+09,-1.34196e+09,313571,0.0236645,0.0900706,0,0.0931275,-9378.69,-47527.4,-0,48443.9,313571
step02_gravity_refstate-mantle.xmf,285,3.20971e-07,5.5071e-06,0,3.1387e-06,-1.3347e+09,-1.334e+09,-1.33474e+09,419488,0.0233445,0.103901,0,0.106491,-8000.13,-47305.6,-0,47977.3,419488
step02_gravity_refstate-mantle.xmf,286,5.49554e-07,4.58604e-06,0,1.62572e-06,-1.36895e+09,-1.36841e+09,-1.36903e+09,217277,0.0256571,0.0730998,0,0.0774717,-11150,-48362.9,-0,49631.6,217277
step02_gravity_refstate-mantle.xmf,287,6.01455e-07,4.44968e-06,0,1.35607e-06,-1.38317e+09,-1.38265e+09,-1.38325e+09,181239,0.026523,0.0661037,0,0.0712261,-11983.6,-48802,-0,50251.8,181239
step02_gravity_refstate-mantle.xmf,288,8.09493e-07,3.97452e-06,0,6.3979e-07,-1.42708e+09,-1.42666e+09,-1.42719e+09,85508,0.0280926,0.0473038,0,0.0550168,-14854.3,-50158.6,-0,52311.9,85508
step02_gravity_refstate-mantle.xmf,289,7.31985e-07,4.1162e-06,0,8.47368e-07,-1.40913e+09,-1.40868e+09,-1.40923e+09,113251,0.0274924,0.0534552,0,0.0601107,-13858.8,-49604.1,-0,51503.7,113251
step02_gravity_refstate-mantle.xmf,290,6.65253e-07,4.26544e-06,0,1.07766e-06,-1.39453e+09,-1.39404e+09,-1.39461e+09,144029,0.0269343,0.059618,0,0.0654199,-12925,-49152.8,-0,50823.7,144029
step02_gravity_refstate-mantle.xmf,291,8.95715e-07,3.83769e-06,0,4.60884e-07,-1.44731e+09,-1.44691e+09,-1.44743e+09,61597.2,0.0286193,0.0414705,0,0.0503871,-15876.8,-50783.7,-0,53207.7,61597.2
step02_gravity_refstate-mantle.xmf,292,1.28227e-06,3.2386e-06,0,-4.87399e-09,-1.53224e+09,-1.53198e+09,-1.53241e+09,-651.409,0.028132,0.0228839,0,0.036264,-20402.8,-53408.3,-0,57172.7,651.409
step02_gravity_refstate-mantle.xmf,293,1.4371e-06,3.16709e-06,0,-3.66499e-08,-1.60134e+09,-1.60111e+09,-1.60153e+09,-4898.27,0.0285581,0.0146971,0,0.032118,-21745.2,-55543.7,-0,59648.6,4898.27
step02_gravity_refstate-mantle.xmf,294,1.55482e-06,3.06597e-06,0,-4.45499e-08,-1.66637e+09,-1.66617e+09,-1.66658e+09,-5954.09,0.0276677,0.00766971,0,0.028711,-23174.2,-57553.1,-0,62043.5,5954.09
step02_gravity_refstate-mantle.xmf,295,2.48008e-07,5.74714e-06,0,3.56287e-06,-1.32511e+09,-1.32437e+09,-1.32514e+09,476178,0.0223564,0.112515,0,0.114715,-7346.16,-47009.5,-0,47580.1,476178
step02_gravity_refstate-mantle.xmf,296,1.4759e-07,6.01588e-06,0,4.05333e-06,-1.3142e+09,-1.31342e+09,-1.31422e+09,541727,0.0210597,0.12234,0,0.12414,-6681.95,-46672.6,-0,47148.5,541727
step02_gravity_refstate-mantle.xmf,297,-2.02007e-07,5.07105e-06,0,4.525e-06,-1.2426e+09,-1.24189e+09,-1.24257e+09,604767,0.00892639,0.145243,0,0.145517,-5931.23,-44456,-0,44849.9,604767
step02_gravity_refstate-mantle.xmf,298,-3.27089e-07,4.57102e-06,0,4.47357e-06,-1.22015e+09,-1.2195e+09,-1.22011e+09,597892,0.00425214,0.149021,0,0.149082,-5905.03,-43760.6,-0,44157.2,597892
step02_gravity_refstate-mantle.xmf,299,-2.33538e-07,6.2592e-06,0,5.30433e-06,-1.27498e+09,-1.27411e+09,-1.27495e+09,708924,0.0149276,0.148643,0,0.149391,-5361.98,-45459.2,-0,45774.3,708924
step02_gravity_refstate-mantle.xmf,300,-4.73938e-07,4.05722e-06,0,4.41862e-06,-1.19735e+09,-1.19675e+09,-1.19729e+09,590548,-0.000812019,0.152863,-0,0.152865,-5856.27,-43054,-0,43450.5,590548
step02_gravity_refstate-mantle.xmf,301,-1.99549e-06,3.47082e-06,0,1.3758e-06,-1.09886e+09,-1.09813e+09,-1.0986e+09,183876,-0.0139516,0.106704,-0,0.107612,-10939.7,-40000,-0,41469,183876
step02_gravity_refstate-mantle.xmf,302,-1.21929e-06,3.48433e-06,0,2.52016e-06,-1.15301e+09,-1.15238e+09,-1.15285e+09,336820,-0.00928224,0.132055,-0,0.132381,-7706.43,-41677.8,-0,42384.3,336820
step02_gravity_refstate-mantle.xmf,303,-1.73905e-06,3.48995e-06,0,1.65758e-06,-1.12349e+09,-1.12279e+09,-1.12325e+09,221535,-0.0123552,0.11541,-0,0.116069,-9591.43,-40762.3,-0,41875.6,221535
step02_gravity_refstate-mantle.xmf,304,3.71924e-07,5.32656e-06,0,2.80725e-06,-1.34363e+09,-1.34297e+09,-1.34368e+09,375189,0.0241765,0.096785,0,0.099759,-8582.51,-47581.5,-0,48349.4,375189
step02_gravity_refstate-mantle.xmf,305,1.18598e-06,3.3963e-06,0,7.64843e-08,-1.51122e+09,-1.51093e+09,-1.51138e+09,10222.1,0.0287354,0.0268095,0,0.0392998,-19179.4,-52758.8,-0,56136.8,10222.1
step02_gravity_refstate-mantle.xmf,306,1.08733e-06,3.55807e-06,0,1.85835e-07,-1.49063e+09,-1.4903e+09,-1.49078e+09,24836.8,0.029066,0.031189,0,0.0426332,-17996.6,-52122.5,-0,55141.9,24836.8
step02_gravity_refstate-mantle.xmf,307,9.87745e-07,3.70605e-06,0,3.1315e-07,-1.4692e+09,-1.46884e+09,-1.46933e+09,41852.5,0.0290121,0.0360787,0,0.0462966,-16903.5,-51460.3,-0,54165.4,41852.5
step02_gravity_refstate-mantle.xmf,308,1.34111e-06,3.3328e-06,0,1.3743e-08,-1.57715e+09,-1.57688e+09,-1.57733e+09,1836.75,0.0296699,0.0182719,0,0.0348449,-20447.6,-54796.1,-0,58486.9,1836.75
step02_gravity_refstate-mantle.xmf,309,1.48054e-06,3.26385e-06,0,-1.88225e-08,-1.65533e+09,-1.65509e+09,-1.65553e+09,-2515.63,0.0296891,0.00933505,0,0.0311221,-21735.4,-57211.9,-0,61201.5,2515.63
step02_gravity_refstate-mantle.xmf,310,1.53979e-06,3.23003e-06,0,-1.62634e-08,-1.70297e+09,-1.70275e+09,-1.70318e+09,-2173.61,0.0291458,0.00430302,0,0.0294617,-22461.1,-58683.9,-0,62835.5,2173.61
step02_gravity_refstate-mantle.xmf,311,1.58648e-06,3.17529e-06,0,2.58897e-10,-1.74557e+09,-1.74536e+09,-1.74579e+09,34.6016,0.0279787,-6.43291e-20,0,0.0279787,-23306.5,-60000,-0,64367.6,34.6016
step02_gravity_refstate-mantle.xmf,312,1.7869e-09,6.37242e-06,0,4.6249e-06,-1.3053e+09,-1.30445e+09,-1.3053e+09,618119,0.0198601,0.132596,0,0.134075,-6032.29,-46397.5,-0,46788,618119
step02_gravity_refstate-mantle.xmf,313,-1.98133e-07,6.77593e-06,0,5.27667e-06,-1.29616e+09,-1.29523e+09,-1.29613e+09,705227,0.018435,0.143558,0,0.144737,-5412.06,-46115,-0,46431.5,705227
step02_gravity_refstate-mantle.xmf,314,-9.23209e-07,3.35929e-06,0,3.63964e-06,-1.1591e+09,-1.15852e+09,-1.15897e+09,486438,-0.00939681,0.149839,-0,0.150134,-6330.73,-41867.5,-0,42343.4,486438
step02_gravity_refstate-mantle.xmf,315,-6.37819e-07,3.56755e-06,0,4.35692e-06,-1.17545e+09,-1.17489e+09,-1.17537e+09,582302,-0.00594044,0.156644,-0,0.156756,-5783.45,-42375.1,-0,42767.9,582302
step02_gravity_refstate-mantle.xmf,316,-2.87106e-07,5.75444e-06,0,5.31129e-06,-1.25382e+09,-1.25302e+09,-1.25379e+09,709854,0.011005,0.152925,0,0.153321,-5341.95,-44804,-0,45121.3,709854
step02_gravity_refstate-mantle.xmf,317,-1.4833e-06,3.45738e-06,0,2.16958e-06,-1.13927e+09,-1.13861e+09,-1.13907e+09,289964,-0.0113863,0.126703,-0,0.127214,-8299.86,-41251.5,-0,42078.2,289964
step02_gravity_refstate-mantle.xmf,318,-1.81336e-06,3.43929e-06,0,1.97187e-06,-1.1208e+09,-1.1201e+09,-1.12056e+09,263540,-0.014309,0.1236,-0,0.124425,-8777.72,-40678.7,-0,41615,263540
step02_gravity_refstate-mantle.xmf,319,-2.10103e-06,3.45915e-06,0,1.62239e-06,-1.09889e+09,-1.09815e+09,-1.09861e+09,216832,-0.0158026,0.114105,-0,0.115194,-10034.7,-40000,-0,41239.5,216832
step02_gravity_refstate-mantle.xmf,320,-1.36351e-06,3.27644e-06,0,3.01276e-06,-1.13946e+09,-1.13884e+09,-1.13928e+09,402655,-0.0133076,0.143366,-0,0.143983,-6929.5,-41257.8,-0,41835.7,402655
step02_gravity_refstate-mantle.xmf,321,4.73824e-07,5.03674e-06,0,2.00756e-06,-1.38547e+09,-1.38486e+09,-1.38553e+09,268310,0.0275854,0.0757656,0,0.0806312,-10377.8,-48873.7,-0,49963.4,268310
step02_gravity_refstate-mantle.xmf,322,1.85918e-07,6.12139e-06,0,3.64739e-06,-1.34791e+09,-1.34712e+09,-1.34793e+09,487474,0.0249785,0.10808,0,0.110929,-7369.23,-47714.4,-0,48280.1,487474
step02_gravity_refstate-mantle.xmf,323,4.16184e-07,5.24689e-06,0,2.36818e-06,-1.37313e+09,-1.37248e+09,-1.37318e+09,316507,0.0268183,0.0836703,0,0.0878632,-9562.56,-48492.6,-0,49426.4,316507
step02_gravity_refstate-mantle.xmf,324,2.674e-07,5.82226e-06,0,3.20926e-06,-1.3565e+09,-1.35576e+09,-1.35654e+09,428918,0.0257157,0.0997147,0,0.102977,-8037.38,-47979.5,-0,48648.1,428918
step02_gravity_refstate-mantle.xmf,325,3.44511e-07,5.52457e-06,0,2.78737e-06,-1.36396e+09,-1.36326e+09,-1.364e+09,372532,0.0262421,0.0918388,0,0.0955145,-8754.03,-48209.6,-0,48997.9,372532
step02_gravity_refstate-mantle.xmf,326,5.29594e-07,4.8592e-06,0,1.69263e-06,-1.39917e+09,-1.39859e+09,-1.39924e+09,226220,0.028353,0.0684143,0,0.0740568,-11194.2,-49296.8,-0,50551.8,226220
step02_gravity_refstate-mantle.xmf,327,5.93329e-07,4.6814e-06,0,1.39787e-06,-1.41351e+09,-1.41296e+09,-1.41358e+09,186826,0.0290213,0.0614091,0,0.0679214,-12059.4,-49739.6,-0,51180.7,186826
step02_gravity_refstate-mantle.xmf,328,8.27417e-07,4.17399e-06,0,6.68919e-07,-1.46492e+09,-1.46447e+09,-1.46503e+09,89401,0.0305756,0.0424059,0,0.0522793,-14892.9,-51328,-0,53444.9,89401
step02_gravity_refstate-mantle.xmf,329,7.41937e-07,4.33471e-06,0,8.84624e-07,-1.44532e+09,-1.44484e+09,-1.44542e+09,118230,0.0300926,0.0485255,0,0.057099,-13908.6,-50722.6,-0,52595,118230
step02_gravity_refstate-mantle.xmf,330,6.64554e-07,4.50319e-06,0,1.12735e-06,-1.42841e+09,-1.42789e+09,-1.4285e+09,150671,0.0295734,0.0548361,0,0.0623024,-12965.2,-50200,-0,51847.2,150671
step02_gravity_refstate-mantle.xmf,331,9.15765e-07,4.02749e-06,0,4.91024e-07,-1.48603e+09,-1.48562e+09,-1.48616e+09,65625.3,0.0309646,0.0368384,0,0.0481236,-15850.9,-51980.5,-0,54343.6,65625.3
step02_gravity_refstate-mantle.xmf,332,1.23753e-06,3.51394e-06,0,9.19103e-08,-1.55558e+09,-1.55528e+09,-1.55575e+09,12283.8,0.0305308,0.0220308,0,0.0376496,-19207.6,-54129.7,-0,57436.6,12283.8
step02_gravity_refstate-mantle.xmf,333,1.37763e-06,3.43832e-06,0,2.23177e-08,-1.62424e+09,-1.62397e+09,-1.62443e+09,2982.77,0.0309336,0.0133462,0,0.0336899,-20446.2,-56251.4,-0,59852.1,2982.77
step02_gravity_refstate-mantle.xmf,334,9.37174e-08,6.42975e-06,0,4.11992e-06,-1.33776e+09,-1.33691e+09,-1.33777e+09,550627,0.0239643,0.117316,0,0.119738,-6722.39,-47401,-0,47875.4,550627
step02_gravity_refstate-mantle.xmf,335,-3.14432e-08,6.79041e-06,0,4.64669e-06,-1.32772e+09,-1.3268e+09,-1.32771e+09,621030,0.0228177,0.12724,0,0.12927,-6090.87,-47090.8,-0,47483.1,621030
step02_gravity_refstate-mantle.xmf,336,-4.75123e-07,7.23803e-06,0,6.03699e-06,-1.28643e+09,-1.2854e+09,-1.28637e+09,806844,0.0166814,0.155611,0,0.156503,-4807.16,-45813.8,-0,46065.4,806844
step02_gravity_refstate-mantle.xmf,337,-8.2623e-07,3.10066e-06,0,4.28779e-06,-1.15415e+09,-1.15362e+09,-1.15404e+09,573063,-0.0111603,0.160551,-0,0.160938,-5679.98,-41714.6,-0,42099.5,573063
step02_gravity_refstate-mantle.xmf,338,-3.33003e-07,5.12692e-06,0,5.30906e-06,-1.2321e+09,-1.23137e+09,-1.23205e+09,709555,0.00660508,0.156954,0,0.157093,-5320.96,-44130.9,-0,44450.5,709555
step02_gravity_refstate-mantle.xmf,339,-3.88152e-07,4.50244e-06,0,5.28694e-06,-1.21027e+09,-1.20962e+09,-1.21022e+09,706600,0.00186224,0.160874,0,0.160885,-5283.94,-43454.7,-0,43774.8,706600
step02_gravity_refstate-mantle.xmf,340,-4.8315e-07,6.57228e-06,0,6.16955e-06,-1.26499e+09,-1.26405e+09,-1.26493e+09,824560,0.0129055,0.160967,0,0.161483,-4765.06,-45149.7,-0,45400.4,824560
step02_gravity_refstate-mantle.xmf,341,-4.50118e-07,3.86846e-06,0,5.21903e-06,-1.18866e+09,-1.18808e+09,-1.1886e+09,697524,-0.00310789,0.164525,-0,0.164554,-5237,-42785,-0,43104.3,697524
step02_gravity_refstate-mantle.xmf,342,-1.6457e-06,3.30188e-06,0,2.52479e-06,-1.12747e+09,-1.12681e+09,-1.12725e+09,337438,-0.0149404,0.135705,-0,0.136525,-7626.58,-40885.7,-0,41590.9,337438
step02_gravity_refstate-mantle.xmf,343,-2.17907e-06,3.41184e-06,0,1.90089e-06,-1.09891e+09,-1.09816e+09,-1.09862e+09,254054,-0.017645,0.121989,-0,0.123259,-9172.9,-40000,-0,41038.3,254054
step02_gravity_refstate-mantle.xmf,344,-1.17538e-06,2.98006e-06,0,3.7045e-06,-1.13741e+09,-1.13685e+09,-1.13725e+09,495107,-0.0148545,0.155518,-0,0.156226,-6095.69,-41194.9,-0,41643.4,495107
step02_gravity_refstate-mantle.xmf,345,1.13086e-06,3.69798e-06,0,1.96747e-07,-1.53468e+09,-1.53434e+09,-1.53483e+09,26295.3,0.0310826,0.0261634,0,0.0406282,-18042.5,-53483.9,-0,56445.2,26295.3
step02_gravity_refstate-mantle.xmf,346,1.01316e-06,3.91528e-06,0,3.4992e-07,-1.51544e+09,-1.51505e+09,-1.51558e+09,46766.8,0.031538,0.0308494,0,0.0441172,-16812.3,-52889.3,-0,55497.1,46766.8
step02_gravity_refstate-mantle.xmf,347,1.27006e-06,3.63477e-06,0,9.14506e-08,-1.60194e+09,-1.60162e+09,-1.60211e+09,12222.4,0.0319831,0.0168814,0,0.0361649,-19231.2,-55562.2,-0,58796.3,12222.4
step02_gravity_refstate-mantle.xmf,348,1.3852e-06,3.55029e-06,0,2.37875e-08,-1.66573e+09,-1.66545e+09,-1.66592e+09,3179.2,0.0318844,0.00895049,0,0.0331168,-20313.2,-57533.4,-0,61014.1,3179.2
step02_gravity_refstate-mantle.xmf,349,1.44168e-06,3.49969e-06,0,3.53017e-09,-1.70238e+09,-1.70211e+09,-1.70258e+09,471.807,0.0314751,0.00472802,0,0.0318282,-20895.3,-58665.7,-0,62275.9,471.807
step02_gravity_refstate-mantle.xmf,350,1.49614e-06,3.44259e-06,0,-2.4295e-10,-1.74557e+09,-1.74531e+09,-1.74577e+09,-32.4703,0.0305917,-6.99591e-20,0,0.0305917,-21611.7,-60000,-0,63773.6,32.4703
step02_gravity_refstate-mantle.xmf,351,-2.11122e-07,7.2271e-06,0,5.24822e-06,-1.31784e+09,-1.31685e+09,-1.31782e+09,701425,0.0215134,0.137982,0,0.139649,-5470.29,-46785.8,-0,47104.5,701425
step02_gravity_refstate-mantle.xmf,352,-4.78792e-07,7.77335e-06,0,5.97517e-06,-1.30787e+09,-1.30677e+09,-1.30781e+09,798582,0.0199598,0.149955,0,0.151278,-4847.07,-46477.3,-0,46729.4,798582
step02_gravity_refstate-mantle.xmf,353,-5.30464e-07,3.25981e-06,0,5.11241e-06,-1.16766e+09,-1.16716e+09,-1.16759e+09,683273,-0.00817395,0.168039,-0,0.168238,-5171.02,-42134.4,-0,42450.6,683273
step02_gravity_refstate-mantle.xmf,354,-4.81374e-07,5.89249e-06,0,6.25265e-06,-1.24316e+09,-1.24231e+09,-1.24309e+09,835667,0.00866054,0.165599,0,0.165825,-4743.56,-44473.5,-0,44725.8,835667
step02_gravity_refstate-mantle.xmf,355,-1.86015e-06,3.34835e-06,0,2.25606e-06,-1.11754e+09,-1.11685e+09,-1.11729e+09,301523,-0.0160854,0.130463,-0,0.131451,-8167.4,-40577.6,-0,41391.4,301523
step02_gravity_refstate-mantle.xmf,356,-2.22181e-06,3.3208e-06,0,2.2145e-06,-1.09893e+09,-1.09819e+09,-1.09863e+09,295968,-0.019449,0.130367,-0,0.13181,-8352.15,-40000,-0,40862.7,295968
step02_gravity_refstate-mantle.xmf,357,-1.7952e-06,3.11829e-06,0,2.84365e-06,-1.11661e+09,-1.11595e+09,-1.11637e+09,380053,-0.0182884,0.143608,-0,0.144768,-7081.79,-40548.6,-0,41162.4,380053
step02_gravity_refstate-mantle.xmf,358,-9.74492e-07,2.71561e-06,0,4.28503e-06,-1.13729e+09,-1.13679e+09,-1.13716e+09,572695,-0.0154966,0.164597,-0,0.165325,-5528.08,-41191.7,-0,41561,572695
step02_gravity_refstate-mantle.xmf,359,-6.44541e-07,2.71469e-06,0,4.95745e-06,-1.14777e+09,-1.14732e+09,-1.14768e+09,662563,-0.0131799,0.171239,-0,0.171746,-5095.9,-41517.7,-0,41829.3,662563
step02_gravity_refstate-mantle.xmf,360,3.82401e-07,5.36555e-06,0,2.05515e-06,-1.41524e+09,-1.41457e+09,-1.41529e+09,274671,0.0299544,0.0708133,0,0.0768882,-10403.3,-49793.5,-0,50868.6,274671
step02_gravity_refstate-mantle.xmf,361,3.19502e-07,5.57608e-06,0,2.40959e-06,-1.4008e+09,-1.4001e+09,-1.40084e+09,322041,0.0291502,0.0786628,0,0.0838903,-9613.12,-49347.7,-0,50275.3,322041
step02_gravity_refstate-mantle.xmf,362,-4.30956e-08,6.85038e-06,0,4.16973e-06,-1.36011e+09,-1.35919e+09,-1.3601e+09,557284,0.0262055,0.112465,0,0.115478,-6745.46,-48091.5,-0,48562.3,557284
step02_gravity_refstate-mantle.xmf,363,6.44184e-08,6.48124e-06,0,3.68314e-06,-1.36984e+09,-1.36898e+09,-1.36985e+09,492251,0.0270578,0.103357,0,0.10684,-7412.78,-48392,-0,48956.4,492251
step02_gravity_refstate-mantle.xmf,364,2.48676e-07,5.83092e-06,0,2.80117e-06,-1.38883e+09,-1.38808e+09,-1.38886e+09,374376,0.0284193,0.0866856,0,0.0912253,-8847.58,-48977.9,-0,49770.7,374376
step02_gravity_refstate-mantle.xmf,365,1.61456e-07,6.14136e-06,0,3.23186e-06,-1.37899e+09,-1.37819e+09,-1.37901e+09,431938,0.0277591,0.0949182,0,0.098894,-8105.58,-48674.3,-0,49344.6,431938
step02_gravity_refstate-mantle.xmf,366,4.5229e-07,5.16792e-06,0,1.72634e-06,-1.43117e+09,-1.43054e+09,-1.43123e+09,230725,0.0307287,0.0632397,0,0.0703101,-11231.5,-50285.5,-0,51524.6,230725
step02_gravity_refstate-mantle.xmf,367,5.2904e-07,4.96872e-06,0,1.42283e-06,-1.44707e+09,-1.44648e+09,-1.44714e+09,190161,0.031356,0.0562399,0,0.0643904,-12091.9,-50776.8,-0,52196.8,190161
step02_gravity_refstate-mantle.xmf,368,8.07467e-07,4.38097e-06,0,6.76188e-07,-1.5006e+09,-1.50012e+09,-1.5007e+09,90372.6,0.0325585,0.0377068,0,0.0498183,-14887.4,-52430.6,-0,54503.2,90372.6
step02_gravity_refstate-mantle.xmf,369,7.09417e-07,4.56853e-06,0,8.9538e-07,-1.48092e+09,-1.48041e+09,-1.48102e+09,119667,0.0322428,0.0435628,0,0.054197,-13926.2,-51822.6,-0,53661.2,119667
step02_gravity_refstate-mantle.xmf,370,6.14652e-07,4.76972e-06,0,1.1476e-06,-1.46341e+09,-1.46285e+09,-1.46349e+09,153377,0.0318568,0.0497444,0,0.0590708,-12982.9,-51281.4,-0,52899.4,153377
step02_gravity_refstate-mantle.xmf,371,8.9663e-07,4.22157e-06,0,5.1319e-07,-1.51874e+09,-1.5183e+09,-1.51886e+09,68587.9,0.032718,0.0329792,0,0.0464553,-15732.7,-52991.3,-0,55277.4,68587.9
step02_gravity_refstate-mantle.xmf,372,1.15385e-06,3.83361e-06,0,1.84993e-07,-1.57952e+09,-1.57916e+09,-1.57967e+09,24724.4,0.0326787,0.0208537,0,0.0387657,-18101.7,-54869.3,-0,57778.1,24724.4
step02_gravity_refstate-mantle.xmf,373,1.28328e-06,3.74761e-06,0,7.16876e-08,-1.64767e+09,-1.64734e+09,-1.64784e+09,9581.05,0.0329976,0.0116461,0,0.0349925,-19254.1,-56975.3,-0,60140.7,9581.05
step02_gravity_refstate-mantle.xmf,374,-8.6e-07,8.33255e-06,0,6.83336e-06,-1.29713e+09,-1.2959e+09,-1.29702e+09,913278,0.0180018,0.163,0,0.163991,-4253.93,-46144.5,-0,46340.2,913278
step02_gravity_refstate-mantle.xmf,375,-1.62899e-07,7.24149e-06,0,4.67842e-06,-1.35006e+09,-1.34907e+09,-1.35003e+09,625270,0.0252096,0.121983,0,0.124561,-6123.26,-47781.2,-0,48172,625270
step02_gravity_refstate-mantle.xmf,376,-3.19892e-07,7.69898e-06,0,5.24077e-06,-1.34001e+09,-1.33893e+09,-1.33996e+09,700428,0.024072,0.132215,0,0.134389,-5516.4,-47470.9,-0,47790.3,700428
step02_gravity_refstate-mantle.xmf,377,-8.25459e-07,7.72064e-06,0,7.00184e-06,-1.27658e+09,-1.27543e+09,-1.27646e+09,935795,0.0146402,0.16849,0,0.169125,-4234.72,-45508.2,-0,45704.8,935795
step02_gravity_refstate-mantle.xmf,378,-4.24419e-07,5.08814e-06,0,6.25993e-06,-1.22158e+09,-1.22085e+09,-1.22153e+09,836640,0.00413444,0.169547,0,0.169598,-4729.27,-43805.5,-0,44060,836640
step02_gravity_refstate-mantle.xmf,379,-3.71909e-07,4.3029e-06,0,6.23572e-06,-1.20054e+09,-1.19992e+09,-1.20049e+09,833404,-0.000564396,0.173375,-0,0.173376,-4690.7,-43153.9,-0,43408,833404
step02_gravity_refstate-mantle.xmf,380,-7.80508e-07,6.94469e-06,0,7.38792e-06,-1.25412e+09,-1.25309e+09,-1.25402e+09,987396,0.0104411,0.175826,0,0.176136,-4124.7,-44812.9,-0,45002.3,987396
step02_gravity_refstate-mantle.xmf,381,-3.23394e-07,3.52456e-06,0,6.13565e-06,-1.17994e+09,-1.17943e+09,-1.1799e+09,820029,-0.00540736,0.176859,-0,0.176942,-4641.44,-42515.7,-0,42768.3,820029
step02_gravity_refstate-mantle.xmf,382,-2.21461e-06,3.17317e-06,0,2.56021e-06,-1.09894e+09,-1.09822e+09,-1.09864e+09,342172,-0.0211807,0.139243,-0,0.140845,-7570.51,-40000,-0,40710.1,342172
step02_gravity_refstate-mantle.xmf,383,-1.64702e-06,2.93102e-06,0,3.26289e-06,-1.11825e+09,-1.11764e+09,-1.11803e+09,436085,-0.018984,0.151951,-0,0.153132,-6456.26,-40599.7,-0,41109.8,436085
step02_gravity_refstate-mantle.xmf,384,-1.34559e-06,2.53835e-06,0,3.88866e-06,-1.11862e+09,-1.1181e+09,-1.11844e+09,519720,-0.0200419,0.16347,-0,0.164694,-5689.94,-40612.3,-0,41009,519720
step02_gravity_refstate-mantle.xmf,385,-8.68299e-07,2.26735e-06,0,4.67973e-06,-1.12847e+09,-1.12805e+09,-1.12836e+09,625445,-0.0181713,0.173029,-0,0.17398,-5078.87,-40919.1,-0,41233.1,625445
step02_gravity_refstate-mantle.xmf,386,1.0463e-06,4.01195e-06,0,3.02699e-07,-1.55726e+09,-1.55687e+09,-1.5574e+09,40455.7,0.0330051,0.0251557,0,0.0414988,-17096.4,-54181.6,-0,56814.9,40455.7
step02_gravity_refstate-mantle.xmf,387,9.2295e-07,4.27118e-06,0,4.46748e-07,-1.54868e+09,-1.54823e+09,-1.5488e+09,59707.9,0.0336941,0.0282927,0,0.0439974,-16058.3,-53916.3,-0,56256.9,59707.9
step02_gravity_refstate-mantle.xmf,388,1.13689e-06,4.01919e-06,0,1.62651e-07,-1.62764e+09,-1.62726e+09,-1.6278e+09,21738.3,0.0341881,0.0152209,0,0.0374233,-17930.6,-56356.3,-0,59140,21738.3
step02_gravity_refstate-mantle.xmf,389,1.29372e-06,3.8509e-06,0,3.90479e-08,-1.69802e+09,-1.69768e+09,-1.69819e+09,5218.75,0.033684,0.00573105,0,0.034168,-19252.5,-58530.9,-0,61615.9,5218.75
step02_gravity_refstate-mantle.xmf,390,1.36767e-06,3.76717e-06,0,-1.07334e-09,-1.74557e+09,-1.74525e+09,-1.74575e+09,-143.452,0.0329184,-8.66662e-20,0,0.0329184,-19987.9,-60000,-0,63241.7,143.452
step02_gravity_refstate-mantle.xmf,391,-5.39134e-07,8.24964e-06,0,5.86848e-06,-1.32998e+09,-1.3288e+09,-1.32991e+09,784322,0.0227532,0.14326,0,0.145055,-4923.93,-47161,-0,47417.4,784322
step02_gravity_refstate-mantle.xmf,392,-9.50438e-07,9.07467e-06,0,6.75185e-06,-1.31919e+09,-1.31785e+09,-1.31907e+09,902385,0.0209813,0.157656,0,0.159046,-4218.45,-46827.3,-0,47016.9,902385
step02_gravity_refstate-mantle.xmf,393,-1.31562e-06,8.97123e-06,0,7.85518e-06,-1.28788e+09,-1.28651e+09,-1.2877e+09,1.04984e+06,0.0159854,0.175841,0,0.176566,-3729.04,-45857.3,-0,46008.7,1.04984e+06
step02_gravity_refstate-mantle.xmf,394,-3.07065e-07,2.7896e-06,0,5.93382e-06,-1.15983e+09,-1.15942e+09,-1.15979e+09,793055,-0.0103549,0.179813,-0,0.180111,-4591.93,-41892.9,-0,42143.8,793055
step02_gravity_refstate-mantle.xmf,395,-6.19692e-07,5.88227e-06,0,7.37418e-06,-1.23213e+09,-1.23126e+09,-1.23204e+09,985559,0.00609335,0.179008,0,0.179111,-4180.37,-44131.8,-0,44329.4,985559
step02_gravity_refstate-mantle.xmf,396,-2.1389e-06,2.942e-06,0,2.95213e-06,-1.09894e+09,-1.09826e+09,-1.09865e+09,394552,-0.0227976,0.148625,-0,0.150363,-6826.09,-40000,-0,40578.3,394552
step02_gravity_refstate-mantle.xmf,397,-3.58498e-07,2.12119e-06,0,5.61664e-06,-1.13971e+09,-1.13938e+09,-1.13967e+09,750664,-0.0155313,0.182289,-0,0.18295,-4543.8,-41269.4,-0,41518.8,750664
step02_gravity_refstate-mantle.xmf,398,2.19695e-07,5.75991e-06,0,2.07063e-06,-1.44855e+09,-1.44781e+09,-1.44858e+09,276740,0.0320794,0.0651499,0,0.0726195,-10393.8,-50822.3,-0,51874.3,276740
step02_gravity_refstate-mantle.xmf,399,-3.80212e-07,7.70394e-06,0,4.68121e-06,-1.37173e+09,-1.37065e+09,-1.37168e+09,625644,0.027008,0.11678,0,0.119863,-6140.09,-48450.4,-0,48837.9,625644
step02_gravity_refstate-mantle.xmf,400,1.72559e-07,5.92001e-06,0,2.42142e-06,-1.42751e+09,-1.42675e+09,-1.42754e+09,323622,0.0309889,0.0738451,0,0.0800838,-9623.76,-50172.7,-0,51087.4,323622
step02_gravity_refstate-mantle.xmf,401,9.04486e-08,6.18781e-06,0,2.80904e-06,-1.41436e+09,-1.41354e+09,-1.41437e+09,375428,0.0302521,0.0817081,0,0.0871286,-8877.78,-49766.4,-0,50552,375428
step02_gravity_refstate-mantle.xmf,402,-2.4768e-07,7.27213e-06,0,4.16748e-06,-1.38241e+09,-1.3814e+09,-1.38237e+09,556984,0.027965,0.10727,0,0.110856,-6776.1,-48780,-0,49248.4,556984
step02_gravity_refstate-mantle.xmf,403,-1.23877e-07,6.87274e-06,0,3.68367e-06,-1.39281e+09,-1.39188e+09,-1.3928e+09,492322,0.0288042,0.0982819,0,0.102416,-7447.32,-49101.3,-0,49662.9,492322
step02_gravity_refstate-mantle.xmf,404,-9.11793e-09,6.50727e-06,0,3.23093e-06,-1.4031e+09,-1.40222e+09,-1.40309e+09,431814,0.0295418,0.0898266,0,0.0945597,-8148.9,-49418.7,-0,50086.1,431814
step02_gravity_refstate-mantle.xmf,405,3.26452e-07,5.49446e-06,0,1.70553e-06,-1.46477e+09,-1.46408e+09,-1.46481e+09,227944,0.0327323,0.0574591,0,0.0661283,-11277.6,-51323.4,-0,52547.8,227944
step02_gravity_refstate-mantle.xmf,406,7.75683e-07,4.56338e-06,0,6.46806e-07,-1.53481e+09,-1.53431e+09,-1.53492e+09,86445.6,0.0340901,0.0328646,0,0.0473521,-14927.9,-53487.8,-0,55531.8,86445.6
step02_gravity_refstate-mantle.xmf,407,4.207e-07,5.27533e-06,0,1.40294e-06,-1.4819e+09,-1.48125e+09,-1.48195e+09,187503,0.033317,0.0506289,0,0.0606079,-12113.7,-51852.7,-0,53248.9,187503
step02_gravity_refstate-mantle.xmf,408,6.50305e-07,4.802e-06,0,8.71241e-07,-1.51617e+09,-1.51562e+09,-1.51626e+09,116441,0.0339866,0.0384183,0,0.0512938,-13938.7,-52911.7,-0,54716.8,116441
step02_gravity_refstate-mantle.xmf,409,5.28234e-07,5.04594e-06,0,1.12652e-06,-1.49883e+09,-1.49822e+09,-1.4989e+09,150560,0.0337375,0.0443439,0,0.0557189,-12990.6,-52375.7,-0,53962.7,150560
step02_gravity_refstate-mantle.xmf,410,1.03668e-06,4.15286e-06,0,2.56057e-07,-1.5994e+09,-1.59898e+09,-1.59953e+09,34222,0.0343462,0.019788,0,0.0396387,-17126,-55483.4,-0,58066.4,34222
step02_gravity_refstate-mantle.xmf,411,1.1729e-06,4.03831e-06,0,9.80086e-08,-1.66791e+09,-1.66753e+09,-1.66807e+09,13098.8,0.0345334,0.00990367,0,0.0359255,-18276.2,-57600.4,-0,60430.4,13098.8
step02_gravity_refstate-mantle.xmf,412,-1.40719e-06,9.7022e-06,0,7.65859e-06,-1.30546e+09,-1.30397e+09,-1.30527e+09,1.02357e+06,0.0185868,0.171214,0,0.17222,-3705.1,-46401.5,-0,46549.2,1.02357e+06
step02_gravity_refstate-mantle.xmf,413,-5.37795e-07,8.19205e-06,0,5.22316e-06,-1.36162e+09,-1.36045e+09,-1.36155e+09,698075,0.025983,0.126578,0,0.129217,-5541.52,-48138.4,-0,48456.3,698075
step02_gravity_refstate-mantle.xmf,414,-7.36058e-07,8.76611e-06,0,5.81832e-06,-1.35156e+09,-1.35029e+09,-1.35146e+09,777619,0.0248203,0.137078,0,0.139307,-4958.59,-47827.6,-0,48084,777619
step02_gravity_refstate-mantle.xmf,415,-1.24056e-06,8.30598e-06,0,8.18759e-06,-1.26988e+09,-1.2686e+09,-1.26971e+09,1.09427e+06,0.0129017,0.181526,0,0.181984,-3689.28,-45300.1,-0,45450,1.09427e+06
step02_gravity_refstate-mantle.xmf,416,-4.24784e-07,4.89421e-06,0,7.38567e-06,-1.21146e+09,-1.21075e+09,-1.21141e+09,987095,0.00168117,0.182888,0,0.182896,-4160.6,-43492.3,-0,43690.8,987095
step02_gravity_refstate-mantle.xmf,417,-2.31088e-07,3.92124e-06,0,7.34117e-06,-1.19117e+09,-1.19062e+09,-1.19114e+09,981147,-0.00289454,0.186677,-0,0.1867,-4114.68,-42864.3,-0,43061.4,981147
step02_gravity_refstate-mantle.xmf,418,-9.03095e-07,6.73021e-06,0,8.56427e-06,-1.24001e+09,-1.23899e+09,-1.23989e+09,1.14461e+06,0.00729549,0.189114,0,0.189254,-3662.21,-44375.7,-0,44526.5,1.14461e+06
step02_gravity_refstate-mantle.xmf,419,-5.54566e-08,2.99672e-06,0,7.1515e-06,-1.17168e+09,-1.17127e+09,-1.17167e+09,955798,-0.00750563,0.189617,-0,0.189765,-4076.34,-42261,-0,42457.2,955798
step02_gravity_refstate-mantle.xmf,420,-1.97305e-06,2.61956e-06,0,3.38141e-06,-1.09893e+09,-1.09832e+09,-1.09867e+09,451925,-0.024253,0.158511,-0,0.160356,-6117.1,-40000,-0,40465,451925
step02_gravity_refstate-mantle.xmf,421,-1.19029e-06,2.06563e-06,0,4.32761e-06,-1.11168e+09,-1.11125e+09,-1.11152e+09,578385,-0.0225685,0.173428,-0,0.17489,-5120.14,-40397.7,-0,40720.9,578385
step02_gravity_refstate-mantle.xmf,422,-6.07228e-07,1.54381e-06,0,5.1529e-06,-1.11748e+09,-1.1172e+09,-1.1174e+09,688686,-0.0215275,0.184287,-0,0.18554,-4504.99,-40579.5,-0,40828.8,688686
step02_gravity_refstate-mantle.xmf,423,6.56888e-08,6.04963e-06,0,1.90206e-06,-1.48599e+09,-1.48519e+09,-1.486e+09,254211,0.0338633,0.056954,0,0.0662607,-10640.5,-51978.7,-0,53056.6,254211
step02_gravity_refstate-mantle.xmf,424,8.97713e-07,4.43149e-06,0,3.98149e-07,-1.5866e+09,-1.58613e+09,-1.58672e+09,53212.6,0.0349742,0.0231374,0,0.0419349,-16087.4,-55087.9,-0,57388.9,53212.6
step02_gravity_refstate-mantle.xmf,425,7.34759e-07,4.73831e-06,0,5.80716e-07,-1.57124e+09,-1.5707e+09,-1.57134e+09,77612.6,0.0353786,0.0274717,0,0.0447922,-14993.9,-54613.1,-0,56634,77612.6
step02_gravity_refstate-mantle.xmf,426,9.14368e-07,4.50768e-06,0,2.89466e-07,-1.63062e+09,-1.63014e+09,-1.63074e+09,38687.1,0.0358391,0.0166111,0,0.0395015,-16381.9,-56448,-0,58777.1,38687.1
step02_gravity_refstate-mantle.xmf,427,1.04117e-06,4.30889e-06,0,1.64204e-07,-1.66116e+09,-1.66072e+09,-1.6613e+09,21945.9,0.0355171,0.011507,0,0.0373346,-17293.8,-57391.6,-0,59940.6,21945.9
step02_gravity_refstate-mantle.xmf,428,1.06856e-06,4.3401e-06,0,8.19135e-08,-1.7014e+09,-1.70096e+09,-1.70154e+09,10947.7,0.0357569,0.00598572,0,0.0362545,-17521.6,-58635,-0,61197,10947.7
step02_gravity_refstate-mantle.xmf,429,1.19508e-06,4.15257e-06,0,-1.42473e-09,-1.74558e+09,-1.74518e+09,-1.74574e+09,-190.415,0.0349134,-9.85848e-20,0,0.0349134,-18430.4,-60000,-0,62766.9,190.415
step02_gravity_refstate-mantle.xmf,430,-1.0177e-06,9.49344e-06,0,6.50513e-06,-1.34162e+09,-1.34022e+09,-1.34149e+09,869410,0.0234649,0.148652,0,0.150492,-4371.78,-47520.8,-0,47721.4,869410
step02_gravity_refstate-mantle.xmf,431,-1.53859e-06,1.04284e-05,0,7.58819e-06,-1.32093e+09,-1.31933e+09,-1.32072e+09,1.01416e+06,0.0204662,0.167524,0,0.168769,-3645.92,-46880.3,-0,47021.9,1.01416e+06
step02_gravity_refstate-mantle.xmf,432,-8.44134e-07,8.68885e-06,0,5.14469e-06,-1.38327e+09,-1.382e+09,-1.38316e+09,687587,0.0273594,0.120674,0,0.123737,-5563.01,-48806.3,-0,49122.3,687587
step02_gravity_refstate-mantle.xmf,433,-1.97501e-06,1.05328e-05,0,8.69492e-06,-1.29795e+09,-1.29628e+09,-1.29769e+09,1.16208e+06,0.0167327,0.183208,0,0.183971,-3245.76,-46168,-0,46282,1.16208e+06
step02_gravity_refstate-mantle.xmf,434,-1.83488e-06,9.69295e-06,0,9.06788e-06,-1.28113e+09,-1.27959e+09,-1.28088e+09,1.21192e+06,0.0141271,0.188494,0,0.189022,-3246.35,-45647.1,-0,45762.3,1.21192e+06
step02_gravity_refstate-mantle.xmf,435,-1.1583e-06,7.64705e-06,0,8.64407e-06,-1.25495e+09,-1.25377e+09,-1.25479e+09,1.15528e+06,0.0100674,0.187576,0,0.187846,-3585.53,-44837.7,-0,44980.9,1.15528e+06
step02_gravity_refstate-mantle.xmf,436,8.12428e-08,2.11868e-06,0,6.85189e-06,-1.15223e+09,-1.15196e+09,-1.15224e+09,915755,-0.0123362,0.192322,-0,0.192718,-4023.1,-41658.9,-0,41852.7,915755
step02_gravity_refstate-mantle.xmf,437,-6.5404e-07,5.73997e-06,0,8.64085e-06,-1.22241e+09,-1.22155e+09,-1.22232e+09,1.15485e+06,0.00375461,0.192521,0,0.192558,-3661.9,-43831.1,-0,43983.8,1.15485e+06
step02_gravity_refstate-mantle.xmf,438,-1.69691e-06,2.19357e-06,0,3.85982e-06,-1.09891e+09,-1.09839e+09,-1.09868e+09,515865,-0.025487,0.168899,-0,0.170811,-5441.79,-40000,-0,40368.5,515865
step02_gravity_refstate-mantle.xmf,439,1.41033e-07,1.31386e-06,0,6.38401e-06,-1.13274e+09,-1.13259e+09,-1.13276e+09,853223,-0.0174395,0.194454,-0,0.195235,-3971.85,-41055.3,-0,41247,853223
step02_gravity_refstate-mantle.xmf,440,1.5394e-08,6.19907e-06,0,2.37612e-06,-1.45147e+09,-1.45065e+09,-1.45148e+09,317569,0.0323167,0.0691658,0,0.0763432,-9652.39,-50912.5,-0,51819.4,317569
step02_gravity_refstate-mantle.xmf,441,-6.6608e-07,8.16586e-06,0,4.61218e-06,-1.39404e+09,-1.39286e+09,-1.39395e+09,616418,0.0283751,0.111011,0,0.114581,-6167.36,-49138.8,-0,49524.3,616418
step02_gravity_refstate-mantle.xmf,442,-1.0506e-07,6.54948e-06,0,2.7907e-06,-1.43858e+09,-1.43769e+09,-1.43857e+09,372978,0.031631,0.0770415,0,0.0832821,-8864.62,-50514.4,-0,51286.3,372978
step02_gravity_refstate-mantle.xmf,443,-2.29392e-07,6.89433e-06,0,3.18977e-06,-1.42788e+09,-1.42693e+09,-1.42785e+09,426312,0.0309709,0.0845196,0,0.0900153,-8170.63,-50183.9,-0,50844.7,426312
step02_gravity_refstate-mantle.xmf,444,-5.1124e-07,7.70447e-06,0,4.10939e-06,-1.40534e+09,-1.40424e+09,-1.40527e+09,549220,0.0293262,0.101699,0,0.105843,-6802.88,-49487.7,-0,49953.1,549220
step02_gravity_refstate-mantle.xmf,445,-3.66884e-07,7.28273e-06,0,3.63402e-06,-1.4167e+09,-1.41568e+09,-1.41665e+09,485686,0.030196,0.0928278,0,0.0976156,-7473.14,-49838.5,-0,50395.7,485686
step02_gravity_refstate-mantle.xmf,446,-7.09896e-08,6.36349e-06,0,2.25195e-06,-1.47282e+09,-1.47196e+09,-1.47281e+09,300973,0.0333005,0.0638033,0,0.0719707,-9851.61,-51571.7,-0,52504.2,300973
step02_gravity_refstate-mantle.xmf,447,1.78327e-07,5.79994e-06,0,1.61079e-06,-1.4997e+09,-1.49895e+09,-1.49972e+09,215283,0.0343499,0.0509404,0,0.0614397,-11365.9,-52402.2,-0,53620.7,215283
step02_gravity_refstate-mantle.xmf,448,5.72869e-07,5.03695e-06,0,8.04111e-07,-1.55346e+09,-1.55286e+09,-1.55354e+09,107469,0.0354504,0.0326991,0,0.0482282,-13956.3,-54063.6,-0,55835.9,107469
step02_gravity_refstate-mantle.xmf,449,2.81446e-07,5.58679e-06,0,1.33794e-06,-1.51678e+09,-1.51608e+09,-1.51682e+09,178815,0.0348692,0.0448038,0,0.0567736,-12107.8,-52930.2,-0,54297.3,178815
step02_gravity_refstate-mantle.xmf,450,4.15457e-07,5.33199e-06,0,1.06813e-06,-1.53494e+09,-1.53428e+09,-1.535e+09,142755,0.0352667,0.0386465,0,0.0523192,-12964.9,-53491.3,-0,55040,142755
step02_gravity_refstate-mantle.xmf,451,-2.03717e-06,1.12663e-05,0,8.33824e-06,-1.31449e+09,-1.31271e+09,-1.31422e+09,1.11441e+06,0.0190001,0.177365,0,0.17838,-3257.03,-46680.4,-0,46793.8,1.11441e+06
step02_gravity_refstate-mantle.xmf,452,-1.49804e-06,1.0489e-05,0,7.22908e-06,-1.33596e+09,-1.33435e+09,-1.33576e+09,966167,0.0222251,0.160016,0,0.161552,-3791.1,-47345.1,-0,47496.6,966167
step02_gravity_refstate-mantle.xmf,453,-1.05793e-06,9.29949e-06,0,5.71789e-06,-1.37296e+09,-1.37157e+09,-1.37281e+09,764195,0.0262564,0.1308,0,0.133409,-4981.6,-48487.8,-0,48743.1,764195
step02_gravity_refstate-mantle.xmf,454,-1.32825e-06,1.00363e-05,0,6.34272e-06,-1.36329e+09,-1.36177e+09,-1.36311e+09,847705,0.0250489,0.141418,0,0.143619,-4418.47,-48189.3,-0,48391.5,847705
step02_gravity_refstate-mantle.xmf,455,-1.64513e-06,8.83658e-06,0,9.44862e-06,-1.26477e+09,-1.26337e+09,-1.26455e+09,1.26281e+06,0.0113333,0.193673,0,0.194004,-3226.42,-45140.9,-0,45256.1,1.26281e+06
step02_gravity_refstate-mantle.xmf,456,-3.13153e-07,4.58181e-06,0,8.71048e-06,-1.20316e+09,-1.20251e+09,-1.20312e+09,1.16416e+06,-0.000335959,0.196932,-0,0.196933,-3606.97,-43235.9,-0,43386.1,1.16416e+06
step02_gravity_refstate-mantle.xmf,457,5.28932e-08,3.41654e-06,0,8.6187e-06,-1.18369e+09,-1.18324e+09,-1.1837e+09,1.15189e+06,-0.00466088,0.20054,-0,0.200594,-3558.55,-42633.8,-0,42782.1,1.15189e+06
step02_gravity_refstate-mantle.xmf,458,-1.36201e-06,7.82703e-06,0,9.7303e-06,-1.24908e+09,-1.24785e+09,-1.24889e+09,1.30045e+06,0.00850673,0.198077,0,0.19826,-3212.28,-44655.4,-0,44770.8,1.30045e+06
step02_gravity_refstate-mantle.xmf,459,-1.01113e-06,6.7373e-06,0,9.89941e-06,-1.2328e+09,-1.23176e+09,-1.23266e+09,1.32306e+06,0.00545334,0.20187,0,0.201944,-3207.76,-44152.1,-0,44268.5,1.32306e+06
step02_gravity_refstate-mantle.xmf,460,3.82662e-07,2.20945e-06,0,8.33791e-06,-1.16353e+09,-1.16328e+09,-1.16358e+09,1.11436e+06,-0.00937889,0.203267,-0,0.203483,-3519.08,-42010.1,-0,42157.2,1.11436e+06
step02_gravity_refstate-mantle.xmf,461,-1.26084e-06,1.5902e-06,0,4.36313e-06,-1.09886e+09,-1.09848e+09,-1.09869e+09,583132,-0.0264377,0.179774,-0,0.181708,-4798.49,-40000,-0,40286.8,583132
step02_gravity_refstate-mantle.xmf,462,9.32409e-08,6.10874e-07,0,5.9107e-06,-1.11442e+09,-1.11435e+09,-1.11443e+09,789965,-0.0225195,0.197112,-0,0.198395,-3871.88,-40487.2,-0,40671.9,789965
step02_gravity_refstate-mantle.xmf,463,-2.59557e-07,6.75303e-06,0,2.65364e-06,-1.46107e+09,-1.46013e+09,-1.46103e+09,354659,0.032669,0.0714934,0,0.0786039,-8998.31,-51208.4,-0,51993,354659
step02_gravity_refstate-mantle.xmf,464,-1.15564e-07,6.36238e-06,0,1.77749e-06,-1.51747e+09,-1.5166e+09,-1.51745e+09,237561,0.0350135,0.0507762,0,0.061678,-10670.5,-52950.6,-0,54015,237561
step02_gravity_refstate-mantle.xmf,465,-2.81047e-07,6.70308e-06,0,2.11383e-06,-1.50364e+09,-1.50271e+09,-1.5036e+09,282513,0.0344202,0.0573737,0,0.0669066,-9890.13,-52523.3,-0,53446.3,282513
step02_gravity_refstate-mantle.xmf,466,6.8675e-07,4.91356e-06,0,4.8282e-07,-1.61097e+09,-1.61041e+09,-1.61106e+09,64528.9,0.0364566,0.021445,0,0.0422962,-15046.1,-55840.6,-0,57832.2,64528.9
step02_gravity_refstate-mantle.xmf,467,4.8204e-07,5.2715e-06,0,6.98467e-07,-1.59223e+09,-1.59159e+09,-1.59229e+09,93350.2,0.0366243,0.0265504,0,0.0452357,-13947.1,-55261.1,-0,56993.9,93350.2
step02_gravity_refstate-mantle.xmf,468,8.42155e-07,4.73238e-06,0,2.07876e-07,-1.67425e+09,-1.67373e+09,-1.67436e+09,27782.6,0.036781,0.0106269,0,0.0382854,-16146.1,-57795.8,-0,60008.8,27782.6
step02_gravity_refstate-mantle.xmf,469,9.68284e-07,4.60842e-06,0,-9.55488e-10,-1.74559e+09,-1.7451e+09,-1.74572e+09,-127.701,0.0365288,-7.56192e-20,0,0.0365288,-16934.8,-60000,-0,62344.1,127.701
step02_gravity_refstate-mantle.xmf,470,-2.05256e-06,1.17191e-05,0,8.02308e-06,-1.33044e+09,-1.3286e+09,-1.33017e+09,1.07228e+06,0.0208231,0.171023,0,0.172286,-3290.45,-47174.1,-0,47288.7,1.07228e+06
step02_gravity_refstate-mantle.xmf,471,-2.78651e-06,1.30185e-05,0,8.89609e-06,-1.32396e+09,-1.32185e+09,-1.32359e+09,1.18896e+06,0.0190951,0.182424,0,0.183421,-2846.52,-46972.3,-0,47058.5,1.18896e+06
step02_gravity_refstate-mantle.xmf,472,-2.74929e-06,1.23211e-05,0,9.38404e-06,-1.30744e+09,-1.30542e+09,-1.30707e+09,1.25418e+06,0.0170784,0.189204,0,0.189973,-2833.33,-46460.4,-0,46546.7,1.25418e+06
step02_gravity_refstate-mantle.xmf,473,-1.69918e-06,1.09681e-05,0,7.02618e-06,-1.35475e+09,-1.35306e+09,-1.35452e+09,939048,0.0237213,0.152488,0,0.154322,-3868.41,-47925.4,-0,48081.3,939048
step02_gravity_refstate-mantle.xmf,474,-1.21906e-06,9.19198e-06,0,4.9914e-06,-1.40545e+09,-1.40406e+09,-1.40529e+09,667101,0.0282729,0.114487,0,0.117926,-5569.44,-49490.3,-0,49802.6,667101
step02_gravity_refstate-mantle.xmf,475,-1.45674e-06,9.82106e-06,0,5.53639e-06,-1.39423e+09,-1.39272e+09,-1.39404e+09,739938,0.0271466,0.124393,0,0.127321,-4992.55,-49143.7,-0,49396.6,739938
step02_gravity_refstate-mantle.xmf,476,-2.58381e-06,1.1332e-05,0,9.94431e-06,-1.29095e+09,-1.28909e+09,-1.29061e+09,1.32906e+06,0.0147348,0.195386,0,0.195941,-2827.89,-45949.8,-0,46036.7,1.32906e+06
step02_gravity_refstate-mantle.xmf,477,-2.3158e-06,1.0281e-05,0,1.04387e-05,-1.27461e+09,-1.27292e+09,-1.2743e+09,1.39513e+06,0.0121783,0.201066,0,0.201434,-2820.34,-45444,-0,45531.4,1.39513e+06
step02_gravity_refstate-mantle.xmf,478,7.62347e-07,1.04344e-06,0,7.93717e-06,-1.14292e+09,-1.14288e+09,-1.14302e+09,1.0608e+06,-0.0144557,0.206792,-0,0.207297,-3415.95,-41373.2,-0,41514,1.0608e+06
step02_gravity_refstate-mantle.xmf,479,-5.88249e-07,5.53055e-06,0,1.00771e-05,-1.21482e+09,-1.21401e+09,-1.21475e+09,1.3468e+06,0.00190679,0.206375,0,0.206384,-3166.18,-43596.7,-0,43711.5,1.3468e+06
step02_gravity_refstate-mantle.xmf,480,1.09817e-06,1.1268e-06,0,9.45334e-06,-1.15463e+09,-1.15463e+09,-1.15478e+09,1.26344e+06,-0.011126,0.216699,-0,0.216984,-3012.06,-41737.4,-0,41846,1.26344e+06
step02_gravity_refstate-mantle.xmf,481,5.93654e-07,2.50929e-06,0,1.01545e-05,-1.1748e+09,-1.17454e+09,-1.17488e+09,1.35715e+06,-0.00646921,0.216408,-0,0.216505,-2981.31,-42360.4,-0,42465.2,1.35715e+06
step02_gravity_refstate-mantle.xmf,482,-6.4344e-07,8.20054e-07,0,4.91974e-06,-1.09879e+09,-1.0986e+09,-1.09871e+09,657523,-0.0270173,0.191117,-0,0.193017,-4185.58,-40000,-0,40218.4,657523
step02_gravity_refstate-mantle.xmf,483,7.44328e-07,3.83094e-07,0,7.02141e-06,-1.12635e+09,-1.12639e+09,-1.12644e+09,938411,-0.0189701,0.204864,-0,0.20574,-3511.85,-40859.3,-0,41009.9,938411
step02_gravity_refstate-mantle.xmf,484,-1.02179e-06,8.65657e-06,0,4.48006e-06,-1.41742e+09,-1.41613e+09,-1.41728e+09,598760,0.0293283,0.104948,0,0.108969,-6167.18,-49860,-0,50239.9,598760
step02_gravity_refstate-mantle.xmf,485,-4.68276e-07,7.26056e-06,0,3.08818e-06,-1.45292e+09,-1.45189e+09,-1.45286e+09,412735,0.0320604,0.0787977,0,0.0850702,-8203.52,-50956.7,-0,51612.8,412735
step02_gravity_refstate-mantle.xmf,486,-6.59619e-07,7.71441e-06,0,3.52791e-06,-1.44194e+09,-1.44083e+09,-1.44186e+09,471506,0.0312524,0.0869419,0,0.0923883,-7478.37,-50617.5,-0,51167,471506
step02_gravity_refstate-mantle.xmf,487,-8.30269e-07,8.15598e-06,0,3.98834e-06,-1.42946e+09,-1.42826e+09,-1.42935e+09,533041,0.0303255,0.0957135,0,0.100403,-6811.8,-50231.9,-0,50691.7,533041
step02_gravity_refstate-mantle.xmf,488,-4.9453e-07,7.14007e-06,0,2.5106e-06,-1.49081e+09,-1.48979e+09,-1.49074e+09,335541,0.0337015,0.0648396,0,0.0730751,-9040.58,-52126.6,-0,52904.8,335541
step02_gravity_refstate-mantle.xmf,489,2.10577e-08,6.08124e-06,0,1.492e-06,-1.53129e+09,-1.53048e+09,-1.53129e+09,199406,0.035487,0.0450601,0,0.0573563,-11385.4,-53377.8,-0,54578.5,199406
step02_gravity_refstate-mantle.xmf,490,2.84262e-07,5.62025e-06,0,9.55079e-07,-1.57308e+09,-1.57237e+09,-1.57312e+09,127646,0.0364965,0.032307,0,0.0487415,-12928.5,-54669.3,-0,56177.2,127646
step02_gravity_refstate-mantle.xmf,491,6.31827e-08,6.01573e-06,0,1.2801e-06,-1.55363e+09,-1.55283e+09,-1.55364e+09,171086,0.0361336,0.0390906,0,0.0532326,-11868,-54067.9,-0,55355.1,171086
step02_gravity_refstate-mantle.xmf,492,6.19356e-07,5.11146e-06,0,3.61108e-07,-1.65258e+09,-1.65198e+09,-1.65266e+09,48262.1,0.0373117,0.0150852,0,0.0402458,-14991.5,-57125.9,-0,59060.3,48262.1
step02_gravity_refstate-mantle.xmf,493,8.31354e-07,4.80855e-06,0,8.65566e-08,-1.71429e+09,-1.71376e+09,-1.7144e+09,11568.3,0.0370994,0.00468901,0,0.0373945,-16201.6,-59032.8,-0,61215.7,11568.3
step02_gravity_refstate-mantle.xmf,494,-3.76442e-06,1.44762e-05,0,1.01779e-05,-1.31662e+09,-1.31418e+09,-1.31612e+09,1.36028e+06,0.0168693,0.195224,0,0.195952,-2418.81,-46742.8,-0,46805.4,1.36028e+06
step02_gravity_refstate-mantle.xmf,495,-2.20477e-06,1.20053e-05,0,7.69397e-06,-1.34741e+09,-1.34551e+09,-1.34712e+09,1.0283e+06,0.0222715,0.163646,0,0.165155,-3352.77,-47698,-0,47815.7,1.0283e+06
step02_gravity_refstate-mantle.xmf,496,-1.75759e-06,1.05806e-05,0,6.11509e-06,-1.38401e+09,-1.38236e+09,-1.38378e+09,817282,0.0259369,0.1346,0,0.137076,-4435.57,-48827.9,-0,49029,817282
step02_gravity_refstate-mantle.xmf,497,-2.14536e-06,1.15199e-05,0,6.73772e-06,-1.3749e+09,-1.37307e+09,-1.37461e+09,900496,0.0246107,0.145107,0,0.147179,-3894.88,-48546.3,-0,48702.3,900496
step02_gravity_refstate-mantle.xmf,498,-1.98716e-06,9.19893e-06,0,1.08625e-05,-1.25894e+09,-1.25745e+09,-1.25868e+09,1.45178e+06,0.00956429,0.206203,0,0.206424,-2804.95,-44959.5,-0,45047,1.45178e+06
step02_gravity_refstate-mantle.xmf,499,-5.68347e-08,4.2288e-06,0,1.04828e-05,-1.19688e+09,-1.19631e+09,-1.19687e+09,1.40102e+06,-0.00178053,0.213632,-0,0.213639,-2998.63,-43042.6,-0,43146.9,1.40102e+06
step02_gravity_refstate-mantle.xmf,500,-1.5266e-06,7.93202e-06,0,1.11405e-05,-1.24269e+09,-1.24142e+09,-1.24248e+09,1.48893e+06,0.00675674,0.210649,0,0.210757,-2799.84,-44457.2,-0,44545.3,1.48893e+06
step02_gravity_refstate-mantle.xmf,501,-1.0216e-06,6.62233e-06,0,1.13239e-05,-1.22628e+09,-1.22526e+09,-1.22615e+09,1.51344e+06,0.00380382,0.214653,0,0.214687,-2788.83,-43950.5,-0,44038.9,1.51344e+06
step02_gravity_refstate-mantle.xmf,502,1.18934e-06,1.43435e-06,0,1.07118e-05,-1.16372e+09,-1.16368e+09,-1.16388e+09,1.43164e+06,-0.00869332,0.224078,-0,0.224247,-2732.29,-42019.4,-0,42108.1,1.43164e+06
step02_gravity_refstate-mantle.xmf,503,-3.57674e-06,1.33648e-05,0,1.09155e-05,-1.30024e+09,-1.29798e+09,-1.29977e+09,1.45885e+06,0.0147785,0.202454,0,0.202993,-2412.32,-46235.4,-0,46298.2,1.45885e+06
step02_gravity_refstate-mantle.xmf,504,1.05536e-06,-5.17042e-07,0,6.77882e-06,-1.11314e+09,-1.11335e+09,-1.11328e+09,905990,-0.0225302,0.209632,-0,0.210839,-3303.06,-40451.1,-0,40585.7,905990
step02_gravity_refstate-mantle.xmf,505,2.38686e-07,-2.06603e-07,0,5.49959e-06,-1.09869e+09,-1.09874e+09,-1.09872e+09,735020,-0.0271354,0.202898,-0,0.204705,-3601.4,-40000,-0,40161.8,735020
step02_gravity_refstate-mantle.xmf,506,-7.50197e-07,7.6215e-06,0,2.91003e-06,-1.48035e+09,-1.47923e+09,-1.48025e+09,388926,0.0329074,0.0723684,0,0.079499,-8220.98,-51803,-0,52451.3,388926
step02_gravity_refstate-mantle.xmf,507,-2.63091e-07,6.60073e-06,0,1.59793e-06,-1.54815e+09,-1.54723e+09,-1.54811e+09,213564,0.0358753,0.0442576,0,0.0569717,-10758.8,-53897.9,-0,54961.2,213564
step02_gravity_refstate-mantle.xmf,508,-4.87977e-07,7.01707e-06,0,1.93472e-06,-1.53422e+09,-1.53322e+09,-1.53415e+09,258576,0.0352308,0.0507966,0,0.0618184,-9910.76,-53467.2,-0,54378,258576
step02_gravity_refstate-mantle.xmf,509,-7.2574e-07,7.46465e-06,0,2.30655e-06,-1.52027e+09,-1.51917e+09,-1.52017e+09,308271,0.0344276,0.0579961,0,0.0674448,-9077.2,-53035.8,-0,53807,308271
step02_gravity_refstate-mantle.xmf,510,3.88915e-07,5.49553e-06,0,5.55716e-07,-1.63205e+09,-1.63136e+09,-1.6321e+09,74271.4,0.0375063,0.0200064,0,0.0425086,-13907.8,-56491.1,-0,58177.9,74271.4
step02_gravity_refstate-mantle.xmf,511,1.61294e-07,5.87236e-06,0,7.93201e-07,-1.61147e+09,-1.61071e+09,-1.61149e+09,106011,0.0373916,0.0255546,0,0.0452899,-12904.6,-55854.9,-0,57326.2,106011
step02_gravity_refstate-mantle.xmf,512,5.46853e-07,5.3215e-06,0,1.81902e-07,-1.70262e+09,-1.70199e+09,-1.7027e+09,24311.2,0.0379524,0.00713871,0,0.0386179,-14854.2,-58671.8,-0,60523,24311.2
step02_gravity_refstate-mantle.xmf,513,6.79836e-07,5.14534e-06,0,-3.81924e-09,-1.74561e+09,-1.74501e+09,-1.7457e+09,-510.441,0.0377162,-1.11148e-19,0,0.0377162,-15496.7,-60000,-0,61968.9,510.441
step02_gravity_refstate-mantle.xmf,514,-2.79476e-06,1.34675e-05,0,8.50891e-06,-1.34023e+09,-1.33805e+09,-1.33985e+09,1.13722e+06,0.0206112,0.175132,0,0.176341,-2877.23,-47476,-0,47563.1,1.13722e+06
step02_gravity_refstate-mantle.xmf,515,-3.79397e-06,1.52697e-05,0,9.42183e-06,-1.33283e+09,-1.33028e+09,-1.33232e+09,1.25923e+06,0.0185681,0.187454,0,0.188371,-2431.5,-47245.2,-0,47307.7,1.25923e+06
step02_gravity_refstate-mantle.xmf,516,-2.62332e-06,1.26555e-05,0,7.41323e-06,-1.36594e+09,-1.3639e+09,-1.36559e+09,990778,0.0231334,0.156083,0,0.157788,-3382.76,-48269.3,-0,48387.7,990778
step02_gravity_refstate-mantle.xmf,517,-1.62507e-06,9.62929e-06,0,4.7438e-06,-1.42787e+09,-1.42636e+09,-1.42765e+09,634009,0.0287716,0.108043,0,0.111808,-5562.74,-50181.2,-0,50488.6,634009
step02_gravity_refstate-mantle.xmf,518,-1.88347e-06,1.03022e-05,0,5.26173e-06,-1.41594e+09,-1.41431e+09,-1.41569e+09,703230,0.0276096,0.117615,0,0.120812,-4996.64,-49812.7,-0,50062.7,703230
step02_gravity_refstate-mantle.xmf,519,-2.21295e-06,1.10694e-05,0,5.79263e-06,-1.40472e+09,-1.40294e+09,-1.40442e+09,774185,0.0263445,0.127601,0,0.130292,-4443.17,-49465.8,-0,49664.9,774185
step02_gravity_refstate-mantle.xmf,520,-3.19525e-06,1.20738e-05,0,1.15503e-05,-1.28407e+09,-1.28203e+09,-1.28365e+09,1.54369e+06,0.0125006,0.208874,0,0.209248,-2410.32,-45735.1,-0,45798.6,1.54369e+06
step02_gravity_refstate-mantle.xmf,521,-2.72236e-06,1.07024e-05,0,1.20792e-05,-1.26778e+09,-1.26598e+09,-1.26741e+09,1.61439e+06,0.0100511,0.214736,0,0.214971,-2406.11,-45231.4,-0,45295.3,1.61439e+06
step02_gravity_refstate-mantle.xmf,522,1.62029e-06,-4.82092e-07,0,8.23285e-06,-1.12851e+09,-1.12879e+09,-1.12872e+09,1.10032e+06,-0.0177376,0.217305,-0,0.218027,-2996.52,-40929.8,-0,41039.3,1.10032e+06
step02_gravity_refstate-mantle.xmf,523,-5.55997e-07,5.49967e-06,0,1.1448e-05,-1.21227e+09,-1.21146e+09,-1.2122e+09,1.53002e+06,0.00118317,0.218062,0,0.218066,-2761.41,-43518,-0,43605.5,1.53002e+06
step02_gravity_refstate-mantle.xmf,524,1.20779e-06,1.76084e-06,0,1.20444e-05,-1.1712e+09,-1.17113e+09,-1.17136e+09,1.60973e+06,-0.00672808,0.232606,-0,0.232704,-2432.32,-42251.5,-0,42321.5,1.60973e+06
step02_gravity_refstate-mantle.xmf,525,1.62984e-06,5.55523e-09,0,9.38199e-06,-1.14211e+09,-1.14233e+09,-1.14233e+09,1.2539e+06,-0.0139747,0.220913,-0,0.221354,-2862.75,-41351.3,-0,41450.3,1.2539e+06
step02_gravity_refstate-mantle.xmf,526,1.78571e-06,3.28711e-07,0,1.11655e-05,-1.15425e+09,-1.15444e+09,-1.15449e+09,1.49226e+06,-0.0104532,0.230995,-0,0.231232,-2503.47,-41728.1,-0,41803.1,1.49226e+06
step02_gravity_refstate-mantle.xmf,527,-5.21638e-06,1.72963e-05,0,1.11105e-05,-1.32498e+09,-1.32197e+09,-1.32428e+09,1.48492e+06,0.0158868,0.201566,0,0.202191,-2000,-46998.5,-0,47041,1.48492e+06
step02_gravity_refstate-mantle.xmf,528,-4.76087e-06,1.57333e-05,0,1.21285e-05,-1.30881e+09,-1.30607e+09,-1.30817e+09,1.62098e+06,0.0141401,0.209825,0,0.210301,-2000,-46498.1,-0,46541.1,1.62098e+06
step02_gravity_refstate-mantle.xmf,529,-1.38117e-06,9.09785e-06,0,4.2703e-06,-1.44074e+09,-1.43934e+09,-1.44055e+09,570725,0.0298986,0.0985331,0,0.102969,-6170.75,-50578.9,-0,50953.9,570725
step02_gravity_refstate-mantle.xmf,530,-9.60657e-07,8.11547e-06,0,3.35147e-06,-1.46773e+09,-1.46651e+09,-1.4676e+09,447924,0.0319798,0.08057,0,0.0866846,-7488.23,-51412.9,-0,51955.4,447924
step02_gravity_refstate-mantle.xmf,531,-1.17257e-06,8.59782e-06,0,3.80132e-06,-1.45441e+09,-1.45311e+09,-1.45426e+09,508046,0.030968,0.0893205,0,0.0945366,-6805.61,-51001.5,-0,51453.6,508046
step02_gravity_refstate-mantle.xmf,532,-9.84509e-07,7.95599e-06,0,2.70026e-06,-1.50722e+09,-1.50603e+09,-1.50709e+09,360889,0.033496,0.0656,0,0.0736569,-8268.73,-52632.4,-0,53278,360889
step02_gravity_refstate-mantle.xmf,533,-8.87366e-08,6.29377e-06,0,1.07078e-06,-1.59342e+09,-1.59257e+09,-1.59341e+09,143110,0.0370703,0.0314224,0,0.048596,-11901.8,-55296.9,-0,56563.2,143110
step02_gravity_refstate-mantle.xmf,534,2.86228e-07,5.72583e-06,0,3.84886e-07,-1.67211e+09,-1.67138e+09,-1.67215e+09,51440,0.0381204,0.0132477,0,0.0403568,-13777.8,-57728.5,-0,59349.8,51440
step02_gravity_refstate-mantle.xmf,535,-3.21529e-06,1.38468e-05,0,8.07931e-06,-1.35718e+09,-1.3549e+09,-1.35675e+09,1.0798e+06,0.0214858,0.167481,0,0.168854,-2904.1,-47997.8,-0,48085.6,1.0798e+06
step02_gravity_refstate-mantle.xmf,536,-2.63942e-06,1.19931e-05,0,6.32533e-06,-1.39458e+09,-1.39262e+09,-1.39423e+09,845381,0.0249748,0.137742,0,0.139987,-3912.97,-49152.1,-0,49307.6,845381
step02_gravity_refstate-mantle.xmf,537,-3.3004e-06,1.32654e-05,0,6.83087e-06,-1.38704e+09,-1.38483e+09,-1.3866e+09,912946,0.0233264,0.147965,0,0.149793,-3362.61,-48918.1,-0,49033.5,912946
step02_gravity_refstate-mantle.xmf,538,-2.19225e-06,9.28847e-06,0,1.24747e-05,-1.25181e+09,-1.25028e+09,-1.25152e+09,1.66724e+06,0.00755368,0.21974,0,0.21987,-2403.64,-44738.2,-0,44802.7,1.66724e+06
step02_gravity_refstate-mantle.xmf,539,4.89801e-07,3.25561e-06,0,1.22127e-05,-1.18701e+09,-1.18664e+09,-1.18707e+09,1.63223e+06,-0.00364482,0.229884,-0,0.229913,-2481.19,-42738.7,-0,42810.7,1.63223e+06
step02_gravity_refstate-mantle.xmf,540,-1.55239e-06,7.79581e-06,0,1.27249e-05,-1.23547e+09,-1.23422e+09,-1.23527e+09,1.70069e+06,0.00490271,0.224213,0,0.224267,-2398.18,-44233.9,-0,44298.8,1.70069e+06
step02_gravity_refstate-mantle.xmf,541,-8.96536e-07,6.31506e-06,0,1.28164e-05,-1.21964e+09,-1.21867e+09,-1.21952e+09,1.71291e+06,0.00224967,0.227614,0,0.227625,-2399.64,-43745.2,-0,43811,1.71291e+06
step02_gravity_refstate-mantle.xmf,542,-2.0096e-07,4.79298e-06,0,1.26335e-05,-1.20358e+09,-1.20291e+09,-1.20355e+09,1.68847e+06,-0.000549587,0.22932,-0,0.229321,-2433,-43250,-0,43318.4,1.68847e+06
step02_gravity_refstate-mantle.xmf,543,-4.23739e-06,1.41263e-05,0,1.29023e-05,-1.29265e+09,-1.29019e+09,-1.29208e+09,1.72439e+06,0.0121477,0.21729,0,0.217629,-2000,-45998.2,-0,46041.6,1.72439e+06
step02_gravity_refstate-mantle.xmf,544,2.28732e-06,-1.94973e-06,0,7.73364e-06,-1.11181e+09,-1.11238e+09,-1.11211e+09,1.0336e+06,-0.0219886,0.222165,-0,0.223251,-2777.61,-40414.6,-0,40510,1.0336e+06
step02_gravity_refstate-mantle.xmf,545,1.46356e-06,-1.57626e-06,0,6.10661e-06,-1.09853e+09,-1.09894e+09,-1.09873e+09,816149,-0.0266641,0.215076,-0,0.216723,-3044.18,-40000,-0,40115.7,816149
step02_gravity_refstate-mantle.xmf,546,-1.98933e-06,1.00583e-05,0,4.45142e-06,-1.45039e+09,-1.44878e+09,-1.45012e+09,594933,0.0289758,0.101172,0,0.10524,-5565.39,-50875.4,-0,51178.9,594933
step02_gravity_refstate-mantle.xmf,547,-1.26285e-06,8.45932e-06,0,3.10226e-06,-1.49433e+09,-1.49303e+09,-1.49416e+09,414617,0.0324387,0.0737062,0,0.0805287,-7495.86,-52233.4,-0,52768.6,414617
step02_gravity_refstate-mantle.xmf,548,-3.73566e-07,6.7768e-06,0,1.37745e-06,-1.57876e+09,-1.57781e+09,-1.57871e+09,184097,0.0365585,0.037419,0,0.0523135,-10900.2,-54843.4,-0,55916.1,184097
step02_gravity_refstate-mantle.xmf,549,-6.66073e-07,7.27664e-06,0,1.7069e-06,-1.56495e+09,-1.56389e+09,-1.56486e+09,228128,0.0358319,0.0438113,0,0.0565982,-9958.96,-54416,-0,55319.8,228128
step02_gravity_refstate-mantle.xmf,550,-9.50116e-07,7.77057e-06,0,2.06539e-06,-1.55017e+09,-1.549e+09,-1.55004e+09,276039,0.0349145,0.0509107,0,0.0617327,-9088.37,-53958.8,-0,54718.8,276039
step02_gravity_refstate-mantle.xmf,551,-1.23572e-06,8.27535e-06,0,2.4364e-06,-1.53588e+09,-1.53461e+09,-1.53571e+09,325625,0.0338675,0.0583707,0,0.0674844,-8278.28,-53516.7,-0,54153.2,325625
step02_gravity_refstate-mantle.xmf,552,5.08826e-08,6.09551e-06,0,5.98668e-07,-1.64944e+09,-1.64863e+09,-1.64945e+09,80012,0.0380021,0.0186294,0,0.0423227,-12856,-57027.7,-0,58458.9,80012
step02_gravity_refstate-mantle.xmf,553,-2.23297e-07,6.53489e-06,0,8.44644e-07,-1.63079e+09,-1.62989e+09,-1.63076e+09,112887,0.0376721,0.0240554,0,0.0446973,-11887.8,-56450.8,-0,57688.9,112887
step02_gravity_refstate-mantle.xmf,554,1.07706e-07,6.07464e-06,0,2.01028e-07,-1.71139e+09,-1.71059e+09,-1.7114e+09,26867.4,0.0385061,0.00647362,0,0.0390465,-13317.9,-58941.6,-0,60427.5,26867.4
step02_gravity_refstate-mantle.xmf,555,3.34684e-07,5.74878e-06,0,-3.00002e-09,-1.74563e+09,-1.74491e+09,-1.74568e+09,-400.953,0.0384165,-1.09432e-19,0,0.0384165,-14111.6,-60000,-0,61637.2,400.953
step02_gravity_refstate-mantle.xmf,556,-3.64278e-06,1.57385e-05,0,9.14202e-06,-1.34903e+09,-1.34644e+09,-1.34855e+09,1.22183e+06,0.0196026,0.179347,0,0.180415,-2446.67,-47748,-0,47810.7,1.22183e+06
step02_gravity_refstate-mantle.xmf,557,-5.33765e-06,1.8721e-05,0,9.71718e-06,-1.34107e+09,-1.33785e+09,-1.34035e+09,1.2987e+06,0.017174,0.192563,0,0.193327,-2000,-47498.2,-0,47540.3,1.2987e+06
step02_gravity_refstate-mantle.xmf,558,-3.84958e-06,1.45589e-05,0,7.52211e-06,-1.3747e+09,-1.37224e+09,-1.37418e+09,1.00533e+06,0.0216821,0.159873,0,0.161336,-2899.04,-48536.4,-0,48622.9,1.00533e+06
step02_gravity_refstate-mantle.xmf,559,-2.30118e-06,1.06817e-05,0,4.89252e-06,-1.43813e+09,-1.4364e+09,-1.43783e+09,653885,0.0277301,0.110457,0,0.113884,-4994.01,-50496.4,-0,50742.8,653885
step02_gravity_refstate-mantle.xmf,560,-2.67182e-06,1.15083e-05,0,5.37982e-06,-1.42627e+09,-1.42438e+09,-1.42591e+09,719013,0.0263599,0.12024,0,0.123096,-4431.33,-50129.6,-0,50325.1,719013
step02_gravity_refstate-mantle.xmf,561,-3.10088e-06,1.2409e-05,0,5.85842e-06,-1.41498e+09,-1.41291e+09,-1.41456e+09,782977,0.0249193,0.130159,0,0.132523,-3906.4,-49780.2,-0,49933.3,782977
step02_gravity_refstate-mantle.xmf,562,-3.62483e-06,1.24808e-05,0,1.35171e-05,-1.27648e+09,-1.27433e+09,-1.276e+09,1.80657e+06,0.0100151,0.223933,0,0.224157,-2000,-45498.8,-0,45542.7,1.80657e+06
step02_gravity_refstate-mantle.xmf,563,-2.93887e-06,1.08094e-05,0,1.39827e-05,-1.26032e+09,-1.25848e+09,-1.25993e+09,1.86879e+06,0.00779218,0.229744,0,0.229877,-2000,-44999.8,-0,45044.2,1.86879e+06
step02_gravity_refstate-mantle.xmf,564,2.55471e-06,-1.20239e-06,0,1.04261e-05,-1.13755e+09,-1.13806e+09,-1.1379e+09,1.39345e+06,-0.0142268,0.232184,-0,0.23262,-2454.79,-41213.6,-0,41286.7,1.39345e+06
step02_gravity_refstate-mantle.xmf,565,1.21479e-06,2.19868e-06,0,1.4112e-05,-1.17925e+09,-1.17911e+09,-1.17941e+09,1.88607e+06,-0.00467079,0.246075,-0,0.24612,-2000,-42501.2,-0,42548.2,1.88607e+06
step02_gravity_refstate-mantle.xmf,566,2.1471e-06,4.17292e-07,0,1.36177e-05,-1.16303e+09,-1.16326e+09,-1.16331e+09,1.82e+06,-0.00761221,0.24673,-0,0.246848,-2000,-42001.8,-0,42049.4,1.82e+06
step02_gravity_refstate-mantle.xmf,567,3.103e-06,-2.40001e-06,0,9.37349e-06,-1.12212e+09,-1.12285e+09,-1.12253e+09,1.25277e+06,-0.018092,0.23193,-0,0.232635,-2432.4,-40737.3,-0,40809.9,1.25277e+06
step02_gravity_refstate-mantle.xmf,568,-1.77875e-06,9.56342e-06,0,3.99948e-06,-1.46548e+09,-1.46396e+09,-1.46524e+09,534531,0.0301013,0.0918085,0,0.0966172,-6125.47,-51341.7,-0,51705.8,534531
step02_gravity_refstate-mantle.xmf,569,-1.52915e-06,9.03364e-06,0,3.5589e-06,-1.48021e+09,-1.4788e+09,-1.48001e+09,475646,0.0312673,0.0826167,0,0.0883355,-6765.72,-51797.2,-0,52237.2,475646
step02_gravity_refstate-mantle.xmf,570,-1.53668e-06,8.81516e-06,0,2.82521e-06,-1.52172e+09,-1.52034e+09,-1.52152e+09,377589,0.0326806,0.0663718,0,0.0739814,-7499.48,-53078.8,-0,53606,377589
step02_gravity_refstate-mantle.xmf,571,-5.2551e-07,7.02143e-06,0,1.12845e-06,-1.6136e+09,-1.61259e+09,-1.61353e+09,150817,0.0370848,0.0299597,0,0.0476746,-10912.8,-55919.1,-0,56974,150817
step02_gravity_refstate-mantle.xmf,572,-3.82823e-08,6.26576e-06,0,4.01629e-07,-1.68281e+09,-1.68197e+09,-1.68281e+09,53677.7,0.038343,0.012364,0,0.0402872,-12774.2,-58058.3,-0,59447,53677.7
step02_gravity_refstate-mantle.xmf,573,-4.76107e-06,1.63102e-05,0,8.0695e-06,-1.36604e+09,-1.36323e+09,-1.36541e+09,1.07849e+06,0.0198588,0.170684,0,0.171835,-2466.36,-48267.5,-0,48330.5,1.07849e+06
step02_gravity_refstate-mantle.xmf,574,-4.33538e-06,1.49105e-05,0,6.85391e-06,-1.3905e+09,-1.38792e+09,-1.38992e+09,916025,0.0214089,0.153195,0,0.154683,-2865.08,-49022.1,-0,49105.8,916025
step02_gravity_refstate-mantle.xmf,575,-2.65143e-06,1.10305e-05,0,4.49969e-06,-1.4602e+09,-1.45837e+09,-1.45984e+09,601384,0.0276342,0.103012,0,0.106654,-4999.24,-51176.6,-0,51420.2,601384
step02_gravity_refstate-mantle.xmf,576,-3.46324e-06,1.31948e-05,0,6.26657e-06,-1.40464e+09,-1.40242e+09,-1.40418e+09,837528,0.0237472,0.138802,0,0.140819,-3517.55,-49460.6,-0,49585.5,837528
step02_gravity_refstate-mantle.xmf,577,-4.29404e-06,1.448e-05,0,6.31657e-06,-1.40437e+09,-1.40186e+09,-1.4038e+09,844209,0.0219032,0.144721,0,0.146369,-3039.18,-49449.9,-0,49543.2,844209
step02_gravity_refstate-mantle.xmf,578,-2.19232e-06,9.11924e-06,0,1.43069e-05,-1.24412e+09,-1.24261e+09,-1.24383e+09,1.91212e+06,0.00549331,0.234722,0,0.234786,-2000,-44500.2,-0,44545.1,1.91212e+06
step02_gravity_refstate-mantle.xmf,579,2.57017e-07,3.95852e-06,0,1.43996e-05,-1.19546e+09,-1.19497e+09,-1.1955e+09,1.92451e+06,-0.00193445,0.24454,-0,0.244548,-2000,-43000.2,-0,43046.7,1.92451e+06
step02_gravity_refstate-mantle.xmf,580,-1.39949e-06,7.41619e-06,0,1.44848e-05,-1.2279e+09,-1.22672e+09,-1.22771e+09,1.9359e+06,0.00311676,0.238856,0,0.238876,-2000,-44000,-0,44045.4,1.9359e+06
step02_gravity_refstate-mantle.xmf,581,-6.04254e-07,5.685e-06,0,1.45269e-05,-1.21168e+09,-1.21084e+09,-1.2116e+09,1.94152e+06,0.000649077,0.242132,0,0.242133,-2000,-43499.8,-0,43545.8,1.94152e+06
step02_gravity_refstate-mantle.xmf,582,3.11893e-06,-1.38391e-06,0,1.28818e-05,-1.14678e+09,-1.14738e+09,-1.1472e+09,1.72165e+06,-0.0108229,0.246492,-0,0.24673,-2000,-41501.9,-0,41550,1.72165e+06
step02_gravity_refstate-mantle.xmf,583,3.52179e-06,-3.46652e-06,0,8.58105e-06,-1.10999e+09,-1.11092e+09,-1.11046e+09,1.14686e+06,-0.0212369,0.232599,-0,0.233566,-2365.5,-40362.8,-0,40432,1.14686e+06
step02_gravity_refstate-mantle.xmf,584,3.27229e-06,-3.45624e-06,0,6.83639e-06,-1.0983e+09,-1.0992e+09,-1.09874e+09,913684,-0.0254177,0.22761,-0,0.229024,-2511.47,-40000,-0,40078.8,913684
step02_gravity_refstate-mantle.xmf,585,-2.30706e-06,1.03713e-05,0,4.14767e-06,-1.46992e+09,-1.46822e+09,-1.46961e+09,554336,0.0289096,0.0952386,0,0.0995297,-5540.13,-51477.4,-0,51774.7,554336
step02_gravity_refstate-mantle.xmf,586,-1.86383e-06,9.38088e-06,0,3.22474e-06,-1.50741e+09,-1.50591e+09,-1.50716e+09,430986,0.0313461,0.0750494,0,0.0813326,-6741.65,-52636,-0,53066,430986
step02_gravity_refstate-mantle.xmf,587,-8.30937e-07,7.51628e-06,0,1.43995e-06,-1.59713e+09,-1.59601e+09,-1.59702e+09,192449,0.0362709,0.0363391,0,0.0513431,-9993.96,-55409.4,-0,56303.5,192449
step02_gravity_refstate-mantle.xmf,588,-1.15202e-06,8.04083e-06,0,1.77829e-06,-1.58128e+09,-1.58006e+09,-1.58113e+09,237668,0.0352396,0.0432624,0,0.0557984,-9101.67,-54919.3,-0,55668.3,237668
step02_gravity_refstate-mantle.xmf,589,-1.4735e-06,8.57357e-06,0,2.13067e-06,-1.56585e+09,-1.56451e+09,-1.56565e+09,284764,0.0340516,0.0506244,0,0.061011,-8268.63,-54441.7,-0,55066.1,284764
step02_gravity_refstate-mantle.xmf,590,-1.79691e-06,9.11853e-06,0,2.49569e-06,-1.55031e+09,-1.54885e+09,-1.55007e+09,333548,0.0327352,0.0585325,0,0.0670645,-7486.58,-53960.9,-0,54477.8,333548
step02_gravity_refstate-mantle.xmf,591,-3.22172e-07,6.71999e-06,0,5.92507e-07,-1.66744e+09,-1.6665e+09,-1.6674e+09,79188.5,0.0380578,0.0165598,0,0.0415044,-11883.9,-57582.8,-0,58796.3,79188.5
step02_gravity_refstate-mantle.xmf,592,-6.48872e-07,7.22652e-06,0,8.48329e-07,-1.64905e+09,-1.64799e+09,-1.64896e+09,113379,0.0374396,0.0221461,0,0.0434991,-10919.9,-57013.7,-0,58050,113379
step02_gravity_refstate-mantle.xmf,593,-3.40233e-07,6.79779e-06,0,2.84678e-07,-1.70817e+09,-1.70721e+09,-1.70812e+09,38047.2,0.0383398,0.00793078,0,0.0391515,-12000.4,-58840.9,-0,60052.1,38047.2
step02_gravity_refstate-mantle.xmf,594,-8.1434e-08,6.43426e-06,0,-4.64065e-09,-1.74566e+09,-1.74479e+09,-1.74565e+09,-620.223,0.038585,-1.33939e-19,0,0.038585,-12775.3,-60000,-0,61345,620.223
step02_gravity_refstate-mantle.xmf,595,-6.79705e-06,1.90311e-05,0,8.74263e-06,-1.3576e+09,-1.35415e+09,-1.35669e+09,1.16845e+06,0.0173988,0.182886,0,0.183711,-2000,-48000,-0,48041.6,1.16845e+06
step02_gravity_refstate-mantle.xmf,596,-5.1713e-06,1.64678e-05,0,7.0967e-06,-1.38434e+09,-1.38145e+09,-1.38365e+09,948475,0.0195265,0.161803,0,0.162977,-2444.32,-48830.4,-0,48891.5,948475
step02_gravity_refstate-mantle.xmf,597,-3.07466e-06,1.1807e-05,0,4.88254e-06,-1.44873e+09,-1.44674e+09,-1.44832e+09,652552,0.0261163,0.112254,0,0.115252,-4422.38,-50821.4,-0,51013.5,652552
step02_gravity_refstate-mantle.xmf,598,-5.14805e-06,1.58957e-05,0,6.32666e-06,-1.40204e+09,-1.39922e+09,-1.40135e+09,845558,0.0198013,0.151289,0,0.152579,-2580.27,-49375.7,-0,49443.1,845558
step02_gravity_refstate-mantle.xmf,599,-4.25571e-06,1.40318e-05,0,5.6845e-06,-1.42385e+09,-1.42141e+09,-1.42328e+09,759734,0.0224203,0.133633,0,0.135501,-3264.9,-50050.7,-0,50157.1,759734
step02_gravity_refstate-mantle.xmf,600,-3.59178e-06,1.28083e-05,0,5.27857e-06,-1.43698e+09,-1.43479e+09,-1.4365e+09,705481,0.0244145,0.122205,0,0.12462,-3851.4,-50457.6,-0,50604.4,705481
step02_gravity_refstate-mantle.xmf,601,4.11418e-06,-3.19764e-06,0,1.18136e-05,-1.13052e+09,-1.13149e+09,-1.13107e+09,1.57889e+06,-0.0143835,0.245347,-0,0.245768,-2000,-41001.5,-0,41050.3,1.57889e+06
step02_gravity_refstate-mantle.xmf,602,5.07754e-06,-5.03134e-06,0,1.01904e-05,-1.11428e+09,-1.11563e+09,-1.11496e+09,1.36194e+06,-0.0183952,0.243284,-0,0.243978,-2000,-40501.8,-0,40551.1,1.36194e+06
step02_gravity_refstate-mantle.xmf,603,-2.25966e-06,1.01349e-05,0,3.71674e-06,-1.49072e+09,-1.48906e+09,-1.49041e+09,496743,0.0297063,0.0856591,0,0.0906639,-5929.43,-52119.5,-0,52455.7,496743
step02_gravity_refstate-mantle.xmf,604,-2.89543e-06,1.11772e-05,0,4.04143e-06,-1.48336e+09,-1.48148e+09,-1.48297e+09,540137,0.027566,0.0945082,0,0.0984463,-5069.28,-51890.7,-0,52137.7,540137
step02_gravity_refstate-mantle.xmf,605,-2.13681e-06,9.69695e-06,0,2.86128e-06,-1.53541e+09,-1.53383e+09,-1.53512e+09,382410,0.0312994,0.0667896,0,0.0737598,-6743.15,-53499.8,-0,53923.1,382410
step02_gravity_refstate-mantle.xmf,606,-9.83433e-07,7.7441e-06,0,1.14026e-06,-1.63085e+09,-1.62968e+09,-1.63072e+09,152396,0.0365519,0.0283911,0,0.0462827,-9995.41,-56450.6,-0,57328.7,152396
step02_gravity_refstate-mantle.xmf,607,-5.85058e-06,1.78436e-05,0,7.43037e-06,-1.37417e+09,-1.371e+09,-1.37339e+09,993069,0.0179993,0.171509,0,0.17245,-2132.11,-48515.2,-0,48562,993069
step02_gravity_refstate-mantle.xmf,608,-3.39306e-06,1.20469e-05,0,4.36002e-06,-1.47226e+09,-1.4702e+09,-1.47181e+09,582717,0.025749,0.10351,0,0.106665,-4431.38,-51546.9,-0,51737,582717
step02_gravity_refstate-mantle.xmf,609,-5.29645e-06,1.5694e-05,0,5.64636e-06,-1.41838e+09,-1.41558e+09,-1.41767e+09,754636,0.0195525,0.142834,0,0.144166,-2626.04,-49879.1,-0,49948.1,754636
step02_gravity_refstate-mantle.xmf,610,6.27617e-06,-6.35509e-06,0,7.65779e-06,-1.09789e+09,-1.09958e+09,-1.09873e+09,1.02346e+06,-0.0229758,0.240308,-0,0.241404,-2000,-40000,-0,40050,1.02346e+06
step02_gravity_refstate-mantle.xmf,611,-2.52623e-06,1.03438e-05,0,3.22745e-06,-1.52083e+09,-1.51911e+09,-1.5205e+09,431349,0.0296621,0.075668,0,0.0812741,-5999.44,-53048.7,-0,53386.9,431349
step02_gravity_refstate-mantle.xmf,612,-1.32898e-06,8.28049e-06,0,1.45873e-06,-1.61331e+09,-1.61202e+09,-1.61313e+09,194959,0.0354237,0.0351936,0,0.0499342,-9102.27,-55907.8,-0,56643.9,194959
step02_gravity_refstate-mantle.xmf,613,-1.68697e-06,8.84108e-06,0,1.78622e-06,-1.59711e+09,-1.5957e+09,-1.59689e+09,238729,0.034091,0.0423118,0,0.0543368,-8246.36,-55406.6,-0,56016.9,238729
step02_gravity_refstate-mantle.xmf,614,-2.04807e-06,9.41485e-06,0,2.13079e-06,-1.58049e+09,-1.57895e+09,-1.58021e+09,284780,0.0325884,0.0501487,0,0.0598072,-7433.02,-54892.1,-0,55393.1,284780
step02_gravity_refstate-mantle.xmf,615,-2.3774e-06,9.95237e-06,0,2.47767e-06,-1.56342e+09,-1.56177e+09,-1.5631e+09,331140,0.0310916,0.0584222,0,0.0661804,-6719.17,-54364.2,-0,54777.9,331140
step02_gravity_refstate-mantle.xmf,616,-7.42469e-07,7.39596e-06,0,5.43181e-07,-1.68528e+09,-1.68419e+09,-1.68518e+09,72596.1,0.0376508,0.0139771,0,0.0401614,-10911.1,-58132.8,-0,59147.9,72596.1
step02_gravity_refstate-mantle.xmf,617,-1.12932e-06,7.97411e-06,0,8.0447e-07,-1.66679e+09,-1.66557e+09,-1.66663e+09,107517,0.0366684,0.0197833,0,0.0416647,-9941.56,-57560.4,-0,58412.6,107517
step02_gravity_refstate-mantle.xmf,618,-5.59834e-07,7.1875e-06,0,-1.76416e-09,-1.74571e+09,-1.74467e+09,-1.74563e+09,-235.78,0.0381686,-1.01768e-19,0,0.0381686,-11483.3,-60000,-0,61089,235.78
step02_gravity_refstate-mantle.xmf,619,-6.50717e-06,1.85023e-05,0,6.54322e-06,-1.38642e+09,-1.38307e+09,-1.38555e+09,874501,0.0165583,0.167173,0,0.167991,-1944.02,-48890.7,-0,48929.4,874501
step02_gravity_refstate-mantle.xmf,620,-7.2384e-06,2.01324e-05,0,6.92099e-06,-1.37314e+09,-1.36948e+09,-1.37217e+09,924990,0.0152376,0.178051,0,0.178702,-1705.74,-48479.9,-0,48509.9,924990
step02_gravity_refstate-mantle.xmf,621,-5.99417e-06,1.73665e-05,0,6.27913e-06,-1.39648e+09,-1.39335e+09,-1.39567e+09,839205,0.0177118,0.158877,0,0.159862,-2175.64,-49202,-0,49250.1,839205
step02_gravity_refstate-mantle.xmf,622,-3.9398e-06,1.2989e-05,0,4.64364e-06,-1.46064e+09,-1.45838e+09,-1.46012e+09,620622,0.0237939,0.113022,0,0.115499,-3826.48,-51186.7,-0,51329.5,620622
step02_gravity_refstate-mantle.xmf,623,-6.36415e-06,1.7553e-05,0,5.44743e-06,-1.41122e+09,-1.40803e+09,-1.41037e+09,728049,0.0164675,0.152286,0,0.153173,-2051.95,-49655.5,-0,49697.9,728049
step02_gravity_refstate-mantle.xmf,624,-4.61139e-06,1.41414e-05,0,4.85572e-06,-1.44908e+09,-1.44658e+09,-1.44847e+09,648967,0.0215938,0.122971,0,0.124853,-3235.05,-50828.1,-0,50930.9,648967
step02_gravity_refstate-mantle.xmf,625,-2.98842e-06,1.11317e-05,0,3.56923e-06,-1.5078e+09,-1.50592e+09,-1.5074e+09,477027,0.0277951,0.0847028,0,0.0891467,-5264.29,-52645.1,-0,52907.6,477027
step02_gravity_refstate-mantle.xmf,626,-3.63514e-06,1.2169e-05,0,3.82328e-06,-1.49659e+09,-1.49448e+09,-1.4961e+09,510981,0.025279,0.094366,0,0.0976932,-4439.35,-52297,-0,52485.1,510981
step02_gravity_refstate-mantle.xmf,627,-2.76776e-06,1.05821e-05,0,2.7939e-06,-1.54878e+09,-1.547e+09,-1.54841e+09,373405,0.0293568,0.0666797,0,0.0728561,-5992.45,-53910.9,-0,54242.9,373405
step02_gravity_refstate-mantle.xmf,628,-1.48691e-06,8.50505e-06,0,1.10989e-06,-1.64668e+09,-1.64535e+09,-1.64649e+09,148337,0.0354743,0.0266272,0,0.0443557,-9071.3,-56938.4,-0,57656.5,148337
step02_gravity_refstate-mantle.xmf,629,-8.14747e-07,7.53222e-06,0,2.40754e-07,-1.71888e+09,-1.71777e+09,-1.71877e+09,32176.8,0.0377101,0.00627674,0,0.0382289,-10857.3,-59170.6,-0,60158.4,32176.8
step02_gravity_refstate-mantle.xmf,630,-8.15886e-06,2.23842e-05,0,6.9318e-06,-1.35762e+09,-1.35353e+09,-1.35653e+09,926436,0.0136491,0.191041,0,0.191528,-1499.28,-48000,-0,48023.4,926436
step02_gravity_refstate-mantle.xmf,631,-4.1878e-06,1.30843e-05,0,4.02689e-06,-1.48476e+09,-1.48246e+09,-1.4842e+09,538194,0.0231257,0.103419,0,0.105973,-3813.71,-51930.4,-0,52070.2,538194
step02_gravity_refstate-mantle.xmf,632,-6.32536e-06,1.69395e-05,0,4.65345e-06,-1.43047e+09,-1.42736e+09,-1.42963e+09,621933,0.0160181,0.141767,0,0.142669,-2087.08,-50248.9,-0,50292.2,621933
step02_gravity_refstate-mantle.xmf,633,-5.41311e-06,1.54694e-05,0,4.90138e-06,-1.43875e+09,-1.43596e+09,-1.43803e+09,655069,0.0190185,0.132812,0,0.134167,-2651.23,-50507,-0,50576.5,655069
step02_gravity_refstate-mantle.xmf,634,-3.20319e-06,1.12796e-05,0,3.0849e-06,-1.5348e+09,-1.53287e+09,-1.53437e+09,412297,0.0274096,0.0753016,0,0.080135,-5274.69,-53478,-0,53737.5,412297
step02_gravity_refstate-mantle.xmf,635,-1.86211e-06,9.0652e-06,0,1.41412e-06,-1.62919e+09,-1.62773e+09,-1.62894e+09,188998,0.0340444,0.0335219,0,0.047778,-8222.71,-56396.9,-0,56993.1,188998
step02_gravity_refstate-mantle.xmf,636,-2.26164e-06,9.66715e-06,0,1.72771e-06,-1.61229e+09,-1.6107e+09,-1.61199e+09,230908,0.0323483,0.040988,0,0.0522152,-7377.97,-55873.8,-0,56358.8,230908
step02_gravity_refstate-mantle.xmf,637,-2.61274e-06,1.02098e-05,0,2.04896e-06,-1.59438e+09,-1.59267e+09,-1.59403e+09,273844,0.0306918,0.0490788,0,0.0578854,-6652.01,-55319.6,-0,55718.1,273844
step02_gravity_refstate-mantle.xmf,638,-2.98365e-06,1.07882e-05,0,2.35126e-06,-1.57753e+09,-1.57569e+09,-1.57713e+09,314246,0.028894,0.0574125,0,0.0642733,-5948.27,-54798,-0,55119.9,314246
step02_gravity_refstate-mantle.xmf,639,-1.65919e-06,8.76518e-06,0,7.39628e-07,-1.68116e+09,-1.67977e+09,-1.68094e+09,98851.3,0.0352899,0.0176932,0,0.0394769,-8934.09,-58003,-0,58687,98851.3
step02_gravity_refstate-mantle.xmf,640,-1.28785e-06,8.24136e-06,0,3.97151e-07,-1.70828e+09,-1.70701e+09,-1.70811e+09,53079.2,0.0365563,0.00959945,0,0.0377957,-9775.71,-58841.9,-0,59648.4,53079.2
step02_gravity_refstate-mantle.xmf,641,-1.10333e-06,8.01152e-06,0,-4.51614e-09,-1.74576e+09,-1.74454e+09,-1.74561e+09,-603.582,0.0371304,-1.43863e-19,0,0.0371304,-10231.2,-60000,-0,60866.1,603.582
step02_gravity_refstate-mantle.xmf,642,-8.59989e-06,2.23391e-05,0,5.36423e-06,-1.37254e+09,-1.3684e+09,-1.37139e+09,716929,0.0114807,0.184172,0,0.18453,-1229.67,-48457.8,-0,48473.4,716929
step02_gravity_refstate-mantle.xmf,643,-8.98963e-06,2.43119e-05,0,4.64421e-06,-1.35764e+09,-1.35319e+09,-1.35643e+09,620699,0.00936087,0.197176,0,0.197399,-999.317,-48000,-0,48010.4,620699
step02_gravity_refstate-mantle.xmf,644,-7.02389e-06,1.87637e-05,0,5.42774e-06,-1.4005e+09,-1.39705e+09,-1.39956e+09,725417,0.0148274,0.161239,0,0.161919,-1751.25,-49322.9,-0,49354,725417
step02_gravity_refstate-mantle.xmf,645,-7.862e-06,2.03392e-05,0,5.18588e-06,-1.3901e+09,-1.38633e+09,-1.38905e+09,693092,0.0127339,0.170694,0,0.171169,-1425.83,-49000.2,-0,49020.9,693092
step02_gravity_refstate-mantle.xmf,646,-4.80321e-06,1.41136e-05,0,4.16088e-06,-1.47276e+09,-1.47023e+09,-1.47211e+09,556102,0.0207503,0.112883,0,0.114775,-3207.11,-51557.9,-0,51657.6,556102
step02_gravity_refstate-mantle.xmf,647,-7.08065e-06,1.82131e-05,0,4.22827e-06,-1.42393e+09,-1.42055e+09,-1.42299e+09,565109,0.0132581,0.148829,0,0.149419,-1640.57,-50045.1,-0,50072,565109
step02_gravity_refstate-mantle.xmf,648,-5.54063e-06,1.52904e-05,0,4.12772e-06,-1.46126e+09,-1.45848e+09,-1.46052e+09,551670,0.0180557,0.122446,0,0.12377,-2612.45,-51201.1,-0,51267.7,551670
step02_gravity_refstate-mantle.xmf,649,-3.74279e-06,1.21355e-05,0,3.31227e-06,-1.5219e+09,-1.51977e+09,-1.5214e+09,442685,0.0250692,0.084299,0,0.0879477,-4529.01,-53077.9,-0,53270.8,442685
step02_gravity_refstate-mantle.xmf,650,-4.3253e-06,1.30549e-05,0,3.45778e-06,-1.50936e+09,-1.50704e+09,-1.50878e+09,462132,0.0225267,0.0934425,0,0.0961195,-3822.76,-52689.1,-0,52827.6,462132
step02_gravity_refstate-mantle.xmf,651,-3.38845e-06,1.142e-05,0,2.61704e-06,-1.56198e+09,-1.56e+09,-1.56153e+09,349767,0.0269249,0.0658541,0,0.0711457,-5260.31,-54316.7,-0,54570.8,349767
step02_gravity_refstate-mantle.xmf,652,-2.01359e-06,9.27199e-06,0,1.03987e-06,-1.66077e+09,-1.65927e+09,-1.66051e+09,138979,0.0338797,0.0247318,0,0.0419464,-8160.04,-57372.1,-0,57949.5,138979
step02_gravity_refstate-mantle.xmf,653,-9.35518e-06,2.37472e-05,0,3.28387e-06,-1.37236e+09,-1.36793e+09,-1.37111e+09,438889,0.00704903,0.188487,0,0.188619,-736.008,-48450.9,-0,48456.4,438889
step02_gravity_refstate-mantle.xmf,654,-9.44023e-06,2.53367e-05,0,2.33218e-06,-1.35765e+09,-1.353e+09,-1.35639e+09,311695,0.00475567,0.200897,0,0.200953,-499.831,-48000,-0,48002.6,311695
step02_gravity_refstate-mantle.xmf,655,-7.64205e-06,1.94166e-05,0,4.329e-06,-1.4104e+09,-1.40678e+09,-1.40937e+09,578571,0.0120618,0.158361,0,0.15882,-1416.98,-49626.2,-0,49646.5,578571
step02_gravity_refstate-mantle.xmf,656,-4.93404e-06,1.40191e-05,0,3.51091e-06,-1.4969e+09,-1.49436e+09,-1.49624e+09,469234,0.0198891,0.102614,0,0.104524,-3176.5,-52302.5,-0,52398.9,469234
step02_gravity_refstate-mantle.xmf,657,-7.17537e-06,1.79206e-05,0,3.34805e-06,-1.44052e+09,-1.43717e+09,-1.43956e+09,447466,0.0116268,0.140617,0,0.141096,-1484.76,-50556,-0,50577.8,447466
step02_gravity_refstate-mantle.xmf,658,-6.32338e-06,1.65569e-05,0,3.90926e-06,-1.45047e+09,-1.44742e+09,-1.44963e+09,522472,0.0150957,0.131717,0,0.132579,-2049.3,-50865.7,-0,50907,522472
step02_gravity_refstate-mantle.xmf,659,-3.86686e-06,1.21661e-05,0,2.81768e-06,-1.54823e+09,-1.54609e+09,-1.54772e+09,376582,0.0245684,0.0743605,0,0.078314,-4540.38,-53890.8,-0,54081.7,376582
step02_gravity_refstate-mantle.xmf,660,-2.41507e-06,9.85271e-06,0,1.31507e-06,-1.64413e+09,-1.64249e+09,-1.6438e+09,175759,0.032127,0.0314905,0,0.0449866,-7345.19,-56856.6,-0,57329.1,175759
step02_gravity_refstate-mantle.xmf,661,-2.80623e-06,1.04267e-05,0,1.60811e-06,-1.62613e+09,-1.62437e+09,-1.62576e+09,214923,0.0302251,0.0392317,0,0.0495245,-6573.59,-56299.7,-0,56682.2,214923
step02_gravity_refstate-mantle.xmf,662,-3.17801e-06,1.09823e-05,0,1.88701e-06,-1.60843e+09,-1.60654e+09,-1.60801e+09,252199,0.0282953,0.0473269,0,0.0551404,-5871.12,-55751.9,-0,56060.2,252199
step02_gravity_refstate-mantle.xmf,663,-3.55074e-06,1.15489e-05,0,2.14995e-06,-1.59059e+09,-1.58857e+09,-1.59012e+09,287340,0.0263023,0.0559373,0,0.0618125,-5208.1,-55199.7,-0,55444.8,287340
step02_gravity_refstate-mantle.xmf,664,-2.15483e-06,9.47109e-06,0,7.06438e-07,-1.68837e+09,-1.68682e+09,-1.68808e+09,94415.4,0.0335772,0.0169552,0,0.0376152,-8037.42,-58224.1,-0,58776.3,94415.4
step02_gravity_refstate-mantle.xmf,665,-1.94179e-06,9.19503e-06,0,3.84875e-07,-1.71376e+09,-1.71227e+09,-1.7135e+09,51438.6,0.0344925,0.00914737,0,0.0356849,-8496.89,-59009,-0,59617.6,51438.6
step02_gravity_refstate-mantle.xmf,666,-1.69125e-06,8.87608e-06,0,-2.01293e-09,-1.74581e+09,-1.7444e+09,-1.74558e+09,-269.029,0.0354308,-1.41477e-19,0,0.0354308,-9014.66,-60000,-0,60673.4,269.029
step02_gravity_refstate-mantle.xmf,667,-8.80212e-06,2.20566e-05,0,4.02091e-06,-1.38463e+09,-1.3805e+09,-1.38345e+09,537395,0.00930899,0.177987,0,0.17823,-999.327,-48829.2,-0,48839.4,537395
step02_gravity_refstate-mantle.xmf,668,-9.69099e-06,2.44315e-05,0,1.10645e-06,-1.37195e+09,-1.36739e+09,-1.37065e+09,147877,0.00237698,0.190914,0,0.190928,-245.296,-48437.7,-0,48438.4,147877
step02_gravity_refstate-mantle.xmf,669,-9.59418e-06,2.56694e-05,0,2.37314e-08,-1.35765e+09,-1.35294e+09,-1.35637e+09,3171.7,9.21074e-07,0.202143,0,0.202143,2.07592e-10,-48000,0,48000,3171.7
step02_gravity_refstate-mantle.xmf,670,-7.66882e-06,1.8998e-05,0,3.34357e-06,-1.42686e+09,-1.42329e+09,-1.42583e+09,446868,0.0103146,0.149743,0,0.150098,-1252.48,-50133.4,-0,50149.1,446868
step02_gravity_refstate-mantle.xmf,671,-5.5567e-06,1.5057e-05,0,3.48522e-06,-1.48412e+09,-1.48136e+09,-1.48338e+09,465800,0.0171702,0.111946,0,0.113256,-2583.13,-51906.3,-0,51970.5,465800
step02_gravity_refstate-mantle.xmf,672,-6.29958e-06,1.61958e-05,0,3.17537e-06,-1.47235e+09,-1.46935e+09,-1.47151e+09,424389,0.0138616,0.121187,0,0.121977,-1962.53,-51540.9,-0,51578.2,424389
step02_gravity_refstate-mantle.xmf,673,-4.40749e-06,1.29886e-05,0,2.93384e-06,-1.53458e+09,-1.53226e+09,-1.53399e+09,392108,0.0219495,0.0832503,0,0.0860952,-3832.6,-53467.6,-0,53604.7,392108
step02_gravity_refstate-mantle.xmf,674,-4.98302e-06,1.38729e-05,0,2.94399e-06,-1.52154e+09,-1.51902e+09,-1.52087e+09,393465,0.0190877,0.0921511,0,0.0941072,-3150.69,-53063.1,-0,53156.5,393465
step02_gravity_refstate-mantle.xmf,675,-3.97888e-06,1.21933e-05,0,2.33537e-06,-1.57534e+09,-1.57318e+09,-1.57481e+09,312122,0.0239884,0.0642415,0,0.0685741,-4524.76,-54727.4,-0,54914.1,312122
step02_gravity_refstate-mantle.xmf,676,-2.52979e-06,1.0005e-05,0,9.07881e-07,-1.67554e+09,-1.67386e+09,-1.6752e+09,121338,0.031896,0.0219458,0,0.0387166,-7304.02,-57826.6,-0,58286,121338
step02_gravity_refstate-mantle.xmf,677,-8.62223e-06,2.10771e-05,0,3.26418e-06,-1.40055e+09,-1.39658e+09,-1.3994e+09,436258,0.00835961,0.167882,0,0.16809,-927.073,-49319.9,-0,49328.6,436258
step02_gravity_refstate-mantle.xmf,678,-9.37154e-06,2.27306e-05,0,1.79339e-06,-1.38909e+09,-1.3848e+09,-1.38783e+09,239687,0.00434232,0.177881,0,0.177934,-459.86,-48964.9,-0,48967,239687
step02_gravity_refstate-mantle.xmf,679,-9.68558e-06,2.43919e-05,0,-1.18729e-06,-1.37213e+09,-1.36758e+09,-1.37084e+09,-158682,-0.00260378,0.190722,-0,0.19074,268.76,-48443.4,0,48444.1,158682
step02_gravity_refstate-mantle.xmf,680,-9.4475e-06,2.53439e-05,0,-2.29614e-06,-1.35765e+09,-1.353e+09,-1.35639e+09,-306880,-0.00475714,0.200897,-0,0.200953,499.831,-48000,0,48002.6,306880
step02_gravity_refstate-mantle.xmf,681,-8.2819e-06,2.01111e-05,0,2.63248e-06,-1.41921e+09,-1.41542e+09,-1.41811e+09,351831,0.00750041,0.15632,0,0.1565,-874.106,-49896.1,-0,49903.8,351831
step02_gravity_refstate-mantle.xmf,682,-5.59e-06,1.48113e-05,0,2.83043e-06,-1.50824e+09,-1.50552e+09,-1.5075e+09,378287,0.0160233,0.101279,0,0.102538,-2500.85,-52650.7,-0,52710.1,378287
step02_gravity_refstate-mantle.xmf,683,-7.88641e-06,1.90999e-05,0,2.23443e-06,-1.43721e+09,-1.4336e+09,-1.43615e+09,298632,0.00719712,0.145443,0,0.145621,-884.149,-50452,-0,50459.8,298632
step02_gravity_refstate-mantle.xmf,684,-6.91119e-06,1.72718e-05,0,2.88564e-06,-1.4599e+09,-1.45667e+09,-1.45897e+09,385666,0.0111146,0.130059,0,0.130534,-1490.82,-51154.7,-0,51176.5,385666
step02_gravity_refstate-mantle.xmf,685,-4.45739e-06,1.29329e-05,0,2.4501e-06,-1.56086e+09,-1.55854e+09,-1.56027e+09,327456,0.0213189,0.0727856,0,0.0758435,-3822.65,-54278.9,-0,54413.3,327456
step02_gravity_refstate-mantle.xmf,686,-4.05076e-06,1.22106e-05,0,1.90037e-06,-1.60251e+09,-1.60034e+09,-1.60197e+09,253985,0.0234574,0.0540742,0,0.058943,-4506.92,-55566.3,-0,55748.8,253985
step02_gravity_refstate-mantle.xmf,687,-2.93819e-06,1.05784e-05,0,1.15758e-06,-1.65886e+09,-1.65705e+09,-1.65846e+09,154710,0.0298595,0.0287377,0,0.0414421,-6527.62,-57310,-0,57680.6,154710
step02_gravity_refstate-mantle.xmf,688,-3.34462e-06,1.11597e-05,0,1.42227e-06,-1.64032e+09,-1.63838e+09,-1.63987e+09,190086,0.0276193,0.0367415,0,0.0459649,-5766.17,-56736.2,-0,57028.4,190086
step02_gravity_refstate-mantle.xmf,689,-3.72295e-06,1.17123e-05,0,1.66721e-06,-1.62164e+09,-1.61958e+09,-1.62115e+09,222822,0.0254022,0.0452256,0,0.0518712,-5078.55,-56158.2,-0,56387.3,222822
step02_gravity_refstate-mantle.xmf,690,-2.59775e-06,1.01212e-05,0,4.61963e-07,-1.71027e+09,-1.70857e+09,-1.70993e+09,61741.4,0.0317475,0.0111761,0,0.0336572,-7284.77,-58899.3,-0,59348.1,61741.4
step02_gravity_refstate-mantle.xmf,691,-2.3184e-06,9.76987e-06,0,-2.68202e-09,-1.74587e+09,-1.74426e+09,-1.74556e+09,-358.452,0.033055,-1.73718e-19,0,0.033055,-7829.03,-60000,-0,60508.6,358.452
step02_gravity_refstate-mantle.xmf,692,-9.6125e-06,2.33993e-05,0,-4.88164e-08,-1.38436e+09,-1.37995e+09,-1.38308e+09,-6524.31,-4.64508e-07,0.182055,-0,0.182055,-0.0385542,-48819,-0,48819,6524.31
step02_gravity_refstate-mantle.xmf,693,-9.32089e-06,2.3699e-05,0,-3.4316e-06,-1.37197e+09,-1.36756e+09,-1.37073e+09,-458633,-0.00739069,0.188524,-0,0.188669,772.639,-48439.1,0,48445.3,458633
step02_gravity_refstate-mantle.xmf,694,-6.20631e-06,1.58304e-05,0,2.55013e-06,-1.49582e+09,-1.49287e+09,-1.49499e+09,340825,0.0126362,0.110053,0,0.110776,-1868.87,-52265.3,-0,52298.7,340825
step02_gravity_refstate-mantle.xmf,695,-7.46736e-06,1.80486e-05,0,1.89743e-06,-1.45718e+09,-1.45377e+09,-1.45618e+09,253592,0.00706565,0.133893,0,0.134079,-918.693,-51069,-0,51077.3,253592
step02_gravity_refstate-mantle.xmf,696,-6.9255e-06,1.6931e-05,0,1.96105e-06,-1.47973e+09,-1.47654e+09,-1.4788e+09,262094,0.00860385,0.120798,0,0.121104,-1195.69,-51766.3,-0,51780.1,262094
step02_gravity_refstate-mantle.xmf,697,-9.00274e-06,2.43038e-05,0,-4.6026e-06,-1.35764e+09,-1.35319e+09,-1.35644e+09,-615137,-0.00935921,0.197176,-0,0.197398,999.317,-48000,0,48010.4,615137
step02_gravity_refstate-mantle.xmf,698,-4.984e-06,1.3703e-05,0,2.43781e-06,-1.54713e+09,-1.54463e+09,-1.54646e+09,325813,0.0183624,0.0813531,0,0.0833997,-3130.22,-53853,-0,53943.9,325813
step02_gravity_refstate-mantle.xmf,699,-5.52396e-06,1.4519e-05,0,2.30469e-06,-1.5337e+09,-1.53102e+09,-1.53296e+09,308022,0.0151476,0.0899416,0,0.0912082,-2456.89,-53436.7,-0,53493.2,308022
step02_gravity_refstate-mantle.xmf,700,-4.48651e-06,1.28458e-05,0,2.00863e-06,-1.58681e+09,-1.58449e+09,-1.58621e+09,268453,0.0207872,0.0624879,0,0.0658548,-3817.14,-55079.8,-0,55211.9,268453
step02_gravity_refstate-mantle.xmf,701,-2.99076e-06,1.06539e-05,0,7.66002e-07,-1.68815e+09,-1.68633e+09,-1.68775e+09,102376,0.0297261,0.0191208,0,0.0353447,-6536.01,-58214.7,-0,58580.5,102376
step02_gravity_refstate-mantle.xmf,702,-8.92564e-06,2.12167e-05,0,1.30869e-06,-1.40959e+09,-1.40556e+09,-1.40839e+09,174907,0.00356309,0.16416,0,0.164199,-397.32,-49597.2,-0,49598.8,174907
step02_gravity_refstate-mantle.xmf,703,-9.28779e-06,2.21051e-05,0,-3.7515e-07,-1.39998e+09,-1.39578e+09,-1.39873e+09,-50138.8,-0.00079604,0.17107,-0,0.171072,86.0448,-49300.2,0,49300.3,50138.8
step02_gravity_refstate-mantle.xmf,704,-9.2977e-06,2.26072e-05,0,-2.37265e-06,-1.38869e+09,-1.38443e+09,-1.38745e+09,-317104,-0.00533247,0.177753,-0,0.177833,565.918,-48952.8,0,48956.1,317104
step02_gravity_refstate-mantle.xmf,705,-8.43682e-06,2.00857e-05,0,1.07306e-06,-1.42878e+09,-1.42497e+09,-1.42765e+09,143414,0.00320713,0.151983,0,0.152017,-378.759,-50190.6,-0,50192,143414
step02_gravity_refstate-mantle.xmf,706,-6.06637e-06,1.53481e-05,0,2.01166e-06,-1.52046e+09,-1.5176e+09,-1.51965e+09,268858,0.0116722,0.0984536,0,0.0991431,-1804.06,-53026.2,-0,53056.9,268858
step02_gravity_refstate-mantle.xmf,707,-7.97433e-06,1.89961e-05,0,8.94923e-07,-1.44784e+09,-1.44423e+09,-1.44677e+09,119607,0.00304003,0.14054,0,0.140573,-380.003,-50779.5,-0,50780.9,119607
step02_gravity_refstate-mantle.xmf,708,-8.55094e-06,2.22206e-05,0,-5.49037e-06,-1.37172e+09,-1.36761e+09,-1.37058e+09,-733788,-0.0116543,0.184522,-0,0.18489,1249.3,-48432.8,0,48448.9,733788
step02_gravity_refstate-mantle.xmf,709,-4.94182e-06,1.3545e-05,0,2.01101e-06,-1.57323e+09,-1.57076e+09,-1.57257e+09,268771,0.017804,0.0703875,0,0.0726043,-3128.5,-54659.1,-0,54748.5,268771
step02_gravity_refstate-mantle.xmf,710,-4.50478e-06,1.28067e-05,0,1.65145e-06,-1.60991e+09,-1.6076e+09,-1.60931e+09,220716,0.0202588,0.0534355,0,0.0571469,-3785.55,-55793.3,-0,55921.6,220716
step02_gravity_refstate-mantle.xmf,711,-4.27569e-06,1.24333e-05,0,1.38464e-06,-1.63396e+09,-1.63172e+09,-1.63339e+09,185057,0.0217137,0.0429965,0,0.0481683,-4194.83,-56536.7,-0,56692.1,185057
step02_gravity_refstate-mantle.xmf,712,-3.47987e-06,1.13283e-05,0,8.77903e-07,-1.67963e+09,-1.67765e+09,-1.67916e+09,117332,0.0269366,0.023317,0,0.0356267,-5658.62,-57949.9,-0,58225.5,117332
step02_gravity_refstate-mantle.xmf,713,-3.86023e-06,1.18488e-05,0,1.16755e-06,-1.65593e+09,-1.65383e+09,-1.65541e+09,156043,0.0245116,0.0330875,0,0.0411776,-4944.79,-57216.6,-0,57429.9,156043
step02_gravity_refstate-mantle.xmf,714,-3.25543e-06,1.1035e-05,0,4.22517e-07,-1.7141e+09,-1.71219e+09,-1.71367e+09,56469.4,0.0283202,0.0108833,0,0.0303395,-6116.61,-59015.7,-0,59331.8,56469.4
step02_gravity_refstate-mantle.xmf,715,-2.95863e-06,1.06622e-05,0,-7.12666e-10,-1.74594e+09,-1.74412e+09,-1.74554e+09,-95.2478,0.0299961,-1.68891e-19,0,0.0299961,-6669.73,-60000,-0,60369.6,95.2478
step02_gravity_refstate-mantle.xmf,716,-8.7233e-06,2.19309e-05,0,-4.35825e-06,-1.38375e+09,-1.37965e+09,-1.38258e+09,-582480,-0.00981017,0.178153,-0,0.178423,1054.66,-48802.3,0,48813.7,582480
step02_gravity_refstate-mantle.xmf,717,-6.58639e-06,1.62493e-05,0,1.5444e-06,-1.50691e+09,-1.50386e+09,-1.50603e+09,206409,0.00785661,0.106995,0,0.107283,-1158.58,-52606.6,-0,52619.4,206409
step02_gravity_refstate-mantle.xmf,718,-7.45639e-06,1.77876e-05,0,8.43469e-07,-1.47114e+09,-1.46777e+09,-1.47014e+09,112730,0.0034763,0.127216,0,0.127263,-464.234,-51499.7,-0,51501.8,112730
step02_gravity_refstate-mantle.xmf,719,-8.17737e-06,2.22102e-05,0,-7.05545e-06,-1.35763e+09,-1.35357e+09,-1.35654e+09,-942961,-0.0136491,0.191043,-0,0.19153,1499.28,-48000,0,48023.4,942961
step02_gravity_refstate-mantle.xmf,720,-5.43438e-06,1.4241e-05,0,1.86951e-06,-1.55934e+09,-1.55671e+09,-1.55862e+09,249860,0.0144425,0.0786584,0,0.0799733,-2426.7,-54228.7,-0,54283,249860
step02_gravity_refstate-mantle.xmf,721,-5.89943e-06,1.49437e-05,0,1.60728e-06,-1.54555e+09,-1.54277e+09,-1.54477e+09,214813,0.0109134,0.0868518,0,0.0875348,-1757.14,-53801.5,-0,53830.1,214813
step02_gravity_refstate-mantle.xmf,722,-4.89278e-06,1.33507e-05,0,1.6198e-06,-1.59935e+09,-1.59692e+09,-1.5987e+09,216486,0.017425,0.0594931,0,0.0619925,-3145.82,-55466,-0,55555.1,216486
step02_gravity_refstate-mantle.xmf,723,-8.76318e-06,2.06924e-05,0,-4.65304e-07,-1.41906e+09,-1.41512e+09,-1.41789e+09,-62187.8,-0.0011866,0.158421,-0,0.158425,135.692,-49889.6,0,49889.8,62187.8
step02_gravity_refstate-mantle.xmf,724,-8.74592e-06,2.09853e-05,0,-2.20363e-06,-1.40894e+09,-1.40496e+09,-1.40777e+09,-294516,-0.00569782,0.163832,-0,0.163931,638.632,-49577.8,0,49581.9,294516
step02_gravity_refstate-mantle.xmf,725,-8.27417e-06,2.06257e-05,0,-4.06821e-06,-1.39923e+09,-1.39537e+09,-1.39812e+09,-543716,-0.0102163,0.167296,-0,0.167608,1143.77,-49280.2,0,49293.4,543716
step02_gravity_refstate-mantle.xmf,726,-7.50809e-06,1.99749e-05,0,-5.83414e-06,-1.38603e+09,-1.38236e+09,-1.38503e+09,-779732,-0.0138652,0.17186,-0,0.172419,1558.69,-48876,0,48900.8,779732
step02_gravity_refstate-mantle.xmf,727,-8.25254e-06,1.95849e-05,0,-3.9082e-07,-1.43877e+09,-1.43505e+09,-1.43767e+09,-52233.2,-0.00122601,0.146175,-0,0.14618,148.911,-50499,0,50499.2,52233.2
step02_gravity_refstate-mantle.xmf,728,-6.32855e-06,1.56109e-05,0,1.18818e-06,-1.53178e+09,-1.52885e+09,-1.53094e+09,158801,0.00719285,0.0948873,0,0.0951595,-1112.41,-53374.9,-0,53386.5,158801
step02_gravity_refstate-mantle.xmf,729,-7.7557e-06,1.84724e-05,0,-3.02805e-07,-1.45995e+09,-1.45645e+09,-1.45892e+09,-40469.9,-0.0010899,0.133791,-0,0.133796,140.705,-51153.9,0,51154.1,40469.9
step02_gravity_refstate-mantle.xmf,730,-7.02824e-06,1.68935e-05,0,7.48794e-07,-1.49469e+09,-1.49149e+09,-1.49375e+09,100076,0.00357192,0.114532,0,0.114588,-506.107,-52227.8,-0,52230.2,100076
step02_gravity_refstate-mantle.xmf,731,-7.40153e-06,2.04436e-05,0,-6.99825e-06,-1.36971e+09,-1.36599e+09,-1.36872e+09,-935316,-0.014956,0.180793,-0,0.18141,1660.48,-48373.8,0,48402.3,935316
step02_gravity_refstate-mantle.xmf,732,-5.32286e-06,1.4011e-05,0,1.51673e-06,-1.58588e+09,-1.5833e+09,-1.58517e+09,202711,0.0139489,0.0671041,0,0.0685385,-2421.47,-55048.7,-0,55101.9,202711
step02_gravity_refstate-mantle.xmf,733,-4.78703e-06,1.31361e-05,0,1.29346e-06,-1.62658e+09,-1.62419e+09,-1.62594e+09,172871,0.0176162,0.0480563,0,0.0511834,-3267.82,-56307.2,-0,56401.9,172871
step02_gravity_refstate-mantle.xmf,734,-4.31647e-06,1.24522e-05,0,8.84256e-07,-1.67164e+09,-1.6694e+09,-1.67107e+09,118181,0.0210119,0.0286519,0,0.0355307,-4123.29,-57700.6,-0,57847.7,118181
step02_gravity_refstate-mantle.xmf,735,-3.95251e-06,1.19623e-05,0,7.33115e-07,-1.68775e+09,-1.68562e+09,-1.68722e+09,97980.8,0.0237844,0.0215888,0,0.0321212,-4823.52,-58199.3,-0,58398.9,97980.8
step02_gravity_refstate-mantle.xmf,736,-3.82617e-06,1.18131e-05,0,4.08857e-07,-1.71418e+09,-1.71209e+09,-1.71367e+09,54643.8,0.0246455,0.011633,0,0.027253,-5078.58,-59016.1,-0,59234.2,54643.8
step02_gravity_refstate-mantle.xmf,737,-3.5875e-06,1.15212e-05,0,3.61121e-10,-1.746e+09,-1.74398e+09,-1.74552e+09,48.2638,0.026272,-1.73312e-19,0,0.026272,-5532.04,-60000,-0,60254.5,48.2638
step02_gravity_refstate-mantle.xmf,738,-6.67979e-06,1.62589e-05,0,5.8659e-07,-1.51864e+09,-1.51558e+09,-1.51775e+09,78397.8,0.00315184,0.102319,0,0.102367,-470.327,-52968.3,-0,52970.4,78397.8
step02_gravity_refstate-mantle.xmf,739,-7.30301e-06,1.74239e-05,0,-2.36796e-07,-1.48248e+09,-1.47917e+09,-1.4815e+09,-31647.8,-0.000902739,0.12134,-0,0.121343,123.707,-51850,0,51850.2,31647.8
step02_gravity_refstate-mantle.xmf,740,-6.31817e-06,1.88766e-05,0,-8.45163e-06,-1.35751e+09,-1.35414e+09,-1.35666e+09,-1.12956e+06,-0.0173997,0.182886,-0,0.183712,2000,-48000,0,48041.6,1.12956e+06
step02_gravity_refstate-mantle.xmf,741,-6.1083e-06,1.8143e-05,0,-7.20038e-06,-1.37645e+09,-1.37321e+09,-1.37563e+09,-962331,-0.0174405,0.171469,-0,0.172354,2045.85,-48584.6,0,48627.6,962331
step02_gravity_refstate-mantle.xmf,742,-6.10035e-06,1.5152e-05,0,9.2993e-07,-1.55656e+09,-1.55372e+09,-1.55575e+09,124285,0.006567,0.0831994,0,0.0834582,-1058.52,-54140.8,-0,54151.1,124285
step02_gravity_refstate-mantle.xmf,743,-5.74656e-06,1.45949e-05,0,1.26623e-06,-1.5714e+09,-1.56868e+09,-1.57063e+09,169232,0.0102386,0.0751729,0,0.0758669,-1710.27,-54599.8,-0,54626.6,169232
step02_gravity_refstate-mantle.xmf,744,-5.21307e-06,1.37333e-05,0,1.18693e-06,-1.6137e+09,-1.61116e+09,-1.613e+09,158633,0.0137247,0.055127,0,0.0568098,-2454.42,-55907.8,-0,55961.7,158633
step02_gravity_refstate-mantle.xmf,745,-4.71075e-06,1.29897e-05,0,9.60836e-07,-1.65563e+09,-1.65326e+09,-1.655e+09,128416,0.0176633,0.0361812,0,0.0402625,-3347.9,-57204.6,-0,57302.5,128416
step02_gravity_refstate-mantle.xmf,746,-8.23686e-06,1.97085e-05,0,-1.94171e-06,-1.42838e+09,-1.42464e+09,-1.42728e+09,-259510,-0.00574395,0.151451,-0,0.151559,682.845,-50178.4,0,50183.1,259510
step02_gravity_refstate-mantle.xmf,747,-7.84466e-06,1.94373e-05,0,-3.55651e-06,-1.41794e+09,-1.4143e+09,-1.41689e+09,-475328,-0.0101952,0.155309,-0,0.155643,1204.79,-49858.1,0,49872.6,475328
step02_gravity_refstate-mantle.xmf,748,-7.10722e-06,1.86948e-05,0,-5.0683e-06,-1.40663e+09,-1.40318e+09,-1.40568e+09,-677379,-0.0141495,0.158332,-0,0.158963,1684.03,-49511.6,0,49540.2,677379
step02_gravity_refstate-mantle.xmf,749,-7.78563e-06,1.87182e-05,0,-1.61952e-06,-1.4489e+09,-1.44536e+09,-1.44786e+09,-216449,-0.00555167,0.139236,-0,0.139347,701.027,-50813,0,50817.8,216449
step02_gravity_refstate-mantle.xmf,750,-6.39676e-06,1.56399e-05,0,4.47034e-07,-1.54191e+09,-1.53896e+09,-1.54105e+09,59746.1,0.00286282,0.0908939,0,0.0909389,-446.548,-53687.3,-0,53689.2,59746.1
step02_gravity_refstate-mantle.xmf,751,-7.356e-06,1.77491e-05,0,-1.34968e-06,-1.47056e+09,-1.46721e+09,-1.46958e+09,-180384,-0.00533585,0.127058,-0,0.12717,714.821,-51482.4,0,51487.4,180384
step02_gravity_refstate-mantle.xmf,752,-6.91368e-06,1.66324e-05,0,-2.10112e-07,-1.50555e+09,-1.50241e+09,-1.50463e+09,-28081.4,-0.000949113,0.109187,-0,0.109191,137.387,-52563.4,0,52563.5,28081.4
step02_gravity_refstate-mantle.xmf,753,-6.11405e-06,1.75618e-05,0,-6.27996e-06,-1.395e+09,-1.39183e+09,-1.39418e+09,-839317,-0.0173766,0.160411,-0,0.161349,2112.44,-49156.1,0,49201.4,839317
step02_gravity_refstate-mantle.xmf,754,-5.5974e-06,1.43345e-05,0,9.85665e-07,-1.59919e+09,-1.59653e+09,-1.59844e+09,131734,0.00962295,0.0628581,0,0.0635905,-1662.19,-55458.7,-0,55483.6,131734
step02_gravity_refstate-mantle.xmf,755,-5.09916e-06,1.35219e-05,0,9.0526e-07,-1.64271e+09,-1.64023e+09,-1.64203e+09,120988,0.0137591,0.0427867,0,0.0449445,-2524.81,-56804.4,-0,56860.5,120988
step02_gravity_refstate-mantle.xmf,756,-4.67125e-06,1.2933e-05,0,6.39846e-07,-1.68495e+09,-1.68259e+09,-1.68432e+09,85515.4,0.0175151,0.0244176,0,0.03005,-3367.29,-58110.4,-0,58207.8,85515.4
step02_gravity_refstate-mantle.xmf,757,-4.39257e-06,1.25635e-05,0,4.25995e-07,-1.70876e+09,-1.7065e+09,-1.70817e+09,56934.3,0.0201349,0.0144869,0,0.024805,-3974.87,-58846.9,-0,58981,56934.3
step02_gravity_refstate-mantle.xmf,758,-4.17205e-06,1.2306e-05,0,2.55434e-09,-1.74606e+09,-1.74386e+09,-1.74551e+09,341.387,0.0219209,-2.12838e-19,0,0.0219209,-4411.14,-60000,-0,60161.9,341.387
step02_gravity_refstate-mantle.xmf,759,-5.43116e-06,1.83012e-05,0,-9.91056e-06,-1.34112e+09,-1.33795e+09,-1.34039e+09,-1.32455e+06,-0.017173,0.192562,-0,0.193326,2000,-47498.2,0,47540.3,1.32455e+06
step02_gravity_refstate-mantle.xmf,760,-3.94413e-06,1.55978e-05,0,-8.84547e-06,-1.34902e+09,-1.34641e+09,-1.34849e+09,-1.1822e+06,-0.0195863,0.179455,-0,0.180521,2443.18,-47745.4,0,47807.8,1.1822e+06
step02_gravity_refstate-mantle.xmf,761,-5.18619e-06,1.71628e-05,0,-1.11261e-05,-1.32498e+09,-1.32199e+09,-1.32429e+09,-1.48701e+06,-0.0158878,0.201566,-0,0.202191,2000,-46998.5,0,47041,1.48701e+06
step02_gravity_refstate-mantle.xmf,762,-3.81316e-06,1.51051e-05,0,-9.38467e-06,-1.33278e+09,-1.33025e+09,-1.33227e+09,-1.25426e+06,-0.0185617,0.187491,-0,0.188408,2431.08,-47243.3,0,47305.9,1.25426e+06
step02_gravity_refstate-mantle.xmf,763,-6.5916e-06,1.60547e-05,0,-1.83929e-07,-1.52849e+09,-1.52547e+09,-1.52761e+09,-24582.1,-0.00104752,0.0976088,-0,0.0976144,159.12,-53272.6,0,53272.9,24582.1
step02_gravity_refstate-mantle.xmf,764,-6.96312e-06,1.68443e-05,0,-1.15094e-06,-1.493e+09,-1.48982e+09,-1.49207e+09,-153823,-0.00521475,0.115043,-0,0.115162,738.56,-52175.9,0,52181.2,153823
step02_gravity_refstate-mantle.xmf,765,-4.7245e-06,1.61508e-05,0,-8.07277e-06,-1.36631e+09,-1.36352e+09,-1.36568e+09,-1.07893e+06,-0.019831,0.170642,-0,0.17179,2460.83,-48275.6,0,48338.3,1.07893e+06
step02_gravity_refstate-mantle.xmf,766,-5.01922e-06,1.61413e-05,0,-7.08363e-06,-1.38459e+09,-1.38177e+09,-1.38392e+09,-946728,-0.0198282,0.160865,-0,0.162083,2504.29,-48838.4,0,48902.5,946728
step02_gravity_refstate-mantle.xmf,767,-6.18343e-06,1.52517e-05,0,4.01487e-07,-1.56129e+09,-1.55843e+09,-1.56046e+09,53658.7,0.002901,0.0816262,0,0.0816777,-467.419,-54286.4,-0,54288.5,53658.7
step02_gravity_refstate-mantle.xmf,768,-5.94296e-06,1.48119e-05,0,5.71058e-07,-1.58225e+09,-1.57948e+09,-1.58146e+09,76321.9,0.00495944,0.0715899,0,0.0717615,-827.282,-54934.4,-0,54940.7,76321.9
step02_gravity_refstate-mantle.xmf,769,-5.44625e-06,1.40057e-05,0,7.46385e-07,-1.62845e+09,-1.62585e+09,-1.62772e+09,99754.3,0.00953361,0.0500225,0,0.0509229,-1697.43,-56362.6,-0,56388.2,99754.3
step02_gravity_refstate-mantle.xmf,770,-5.01018e-06,1.33737e-05,0,6.2562e-07,-1.67336e+09,-1.6709e+09,-1.67269e+09,83614.1,0.0138052,0.0299784,0,0.0330043,-2584.57,-57751.3,-0,57809.1,83614.1
step02_gravity_refstate-mantle.xmf,771,-4.77691e-06,1.5693e-05,0,-1.2099e-05,-1.30882e+09,-1.30608e+09,-1.30818e+09,-1.61703e+06,-0.0141411,0.209825,-0,0.210301,2000,-46498.1,0,46541.1,1.61703e+06
step02_gravity_refstate-mantle.xmf,772,-3.76502e-06,1.4365e-05,0,-1.01492e-05,-1.31663e+09,-1.31421e+09,-1.31613e+09,-1.35644e+06,-0.0168705,0.195215,-0,0.195943,2419.18,-46742.8,0,46805.4,1.35644e+06
step02_gravity_refstate-mantle.xmf,773,-4.25824e-06,1.41127e-05,0,-1.28815e-05,-1.29265e+09,-1.2902e+09,-1.29208e+09,-1.72161e+06,-0.0121478,0.21729,-0,0.217629,2000,-45998.2,0,46041.6,1.72161e+06
step02_gravity_refstate-mantle.xmf,774,-3.54863e-06,1.32995e-05,0,-1.09102e-05,-1.30026e+09,-1.29801e+09,-1.29978e+09,-1.45815e+06,-0.0147809,0.202445,-0,0.202983,2412.43,-46235.8,0,46298.7,1.45815e+06
step02_gravity_refstate-mantle.xmf,775,-7.46542e-06,1.84297e-05,0,-3.04836e-06,-1.43767e+09,-1.43421e+09,-1.43667e+09,-407413,-0.00999727,0.143512,-0,0.14386,1250.5,-50467.4,0,50482.9,407413
step02_gravity_refstate-mantle.xmf,776,-6.80942e-06,1.77581e-05,0,-4.38873e-06,-1.4267e+09,-1.42342e+09,-1.42579e+09,-586554,-0.0141437,0.146226,-0,0.146908,1781.07,-50131.3,0,50163,586554
step02_gravity_refstate-mantle.xmf,777,-5.8274e-06,1.66102e-05,0,-5.54324e-06,-1.4152e+09,-1.4122e+09,-1.41442e+09,-740854,-0.0179427,0.14757,-0,0.148657,2316.6,-49779.6,0,49833.5,740854
step02_gravity_refstate-mantle.xmf,778,-7.12946e-06,1.76204e-05,0,-2.57079e-06,-1.4588e+09,-1.45549e+09,-1.45785e+09,-343586,-0.00970618,0.1316,-0,0.131957,1285.76,-51120.2,0,51136.4,343586
step02_gravity_refstate-mantle.xmf,779,-6.32037e-06,1.5483e-05,0,-1.49646e-07,-1.55118e+09,-1.54827e+09,-1.55034e+09,-20000.2,-0.000931598,0.0865753,-0,0.0865803,147.541,-53973.9,0,53974.1,20000.2
step02_gravity_refstate-mantle.xmf,780,-6.79948e-06,1.68366e-05,0,-2.17787e-06,-1.48064e+09,-1.47748e+09,-1.47973e+09,-291072,-0.00947155,0.119861,-0,0.120235,1325.28,-51795.1,0,51812.1,291072
step02_gravity_refstate-mantle.xmf,781,-6.63055e-06,1.61659e-05,0,-9.90983e-07,-1.51562e+09,-1.51257e+09,-1.51473e+09,-132445,-0.00520091,0.103442,-0,0.103573,774.445,-52875,0,52880.6,132445
step02_gravity_refstate-mantle.xmf,782,-5.19237e-06,1.59603e-05,0,-6.30859e-06,-1.40159e+09,-1.39876e+09,-1.40089e+09,-843143,-0.0196743,0.151834,-0,0.153104,2552.81,-49361.6,0,49427.6,843143
step02_gravity_refstate-mantle.xmf,783,-3.64725e-06,1.24783e-05,0,-1.35008e-05,-1.27649e+09,-1.27433e+09,-1.276e+09,-1.80439e+06,-0.0100146,0.223933,-0,0.224157,2000,-45498.8,0,45542.7,1.80439e+06
step02_gravity_refstate-mantle.xmf,784,-3.18373e-06,1.20447e-05,0,-1.15462e-05,-1.28408e+09,-1.28205e+09,-1.28366e+09,-1.54314e+06,-0.012505,0.208843,-0,0.209217,2411.33,-45735.4,0,45798.9,1.54314e+06
step02_gravity_refstate-mantle.xmf,785,-2.96071e-06,1.08112e-05,0,-1.39692e-05,-1.26032e+09,-1.25848e+09,-1.25993e+09,-1.86699e+06,-0.00779138,0.229744,-0,0.229876,2000,-44999.8,0,45044.2,1.86699e+06
step02_gravity_refstate-mantle.xmf,786,-2.7196e-06,1.06953e-05,0,-1.20675e-05,-1.26796e+09,-1.26616e+09,-1.26759e+09,-1.61282e+06,-0.0100822,0.214639,-0,0.214876,2407.38,-45236.9,0,45300.9,1.61282e+06
step02_gravity_refstate-mantle.xmf,787,-2.21316e-06,9.11986e-06,0,-1.4293e-05,-1.24413e+09,-1.24261e+09,-1.24383e+09,-1.91025e+06,-0.00549285,0.234722,-0,0.234786,2000,-44500.2,0,44545.1,1.91025e+06
step02_gravity_refstate-mantle.xmf,788,-2.17021e-06,9.27414e-06,0,-1.2459e-05,-1.25183e+09,-1.2503e+09,-1.25154e+09,-1.66515e+06,-0.00755747,0.219729,-0,0.219859,2403.8,-44738.8,0,44803.3,1.66515e+06
step02_gravity_refstate-mantle.xmf,789,-1.39754e-06,7.41322e-06,0,-1.44877e-05,-1.2279e+09,-1.22672e+09,-1.22771e+09,-1.93627e+06,-0.00311636,0.238856,-0,0.238876,2000,-44000,0,44045.4,1.93627e+06
step02_gravity_refstate-mantle.xmf,790,-1.54819e-06,7.78516e-06,0,-1.27241e-05,-1.23548e+09,-1.23423e+09,-1.23527e+09,-1.70058e+06,-0.00490391,0.224211,-0,0.224264,2398.22,-44234.1,0,44299,1.70058e+06
step02_gravity_refstate-mantle.xmf,791,-5.72238e-06,1.44567e-05,0,4.64429e-07,-1.614e+09,-1.61131e+09,-1.61324e+09,62070.9,0.00499351,0.05722,0,0.0574375,-865.908,-55915.8,-0,55922.5,62070.9
step02_gravity_refstate-mantle.xmf,792,-5.32546e-06,1.38e-05,0,5.45948e-07,-1.65816e+09,-1.6556e+09,-1.65745e+09,72966,0.00955864,0.0372098,0,0.0384179,-1742.87,-57280.8,-0,57307.3,72966
step02_gravity_refstate-mantle.xmf,793,-4.93808e-06,1.32741e-05,0,3.1417e-07,-1.7096e+09,-1.70716e+09,-1.70894e+09,41988.8,0.0141211,0.014988,0,0.0205923,-2685.96,-58870.9,-0,58932.1,41988.8
step02_gravity_refstate-mantle.xmf,794,-4.68202e-06,1.29819e-05,0,4.4445e-09,-1.74612e+09,-1.74376e+09,-1.74549e+09,594.007,0.0170105,-2.25084e-19,0,0.0170105,-3302.13,-60000,-0,60090.8,594.007
step02_gravity_refstate-mantle.xmf,795,-3.22269e-06,1.38837e-05,0,-8.06279e-06,-1.35716e+09,-1.35487e+09,-1.35673e+09,-1.07759e+06,-0.0214881,0.167474,-0,0.168847,2905.03,-47997.2,0,48085,1.07759e+06
step02_gravity_refstate-mantle.xmf,796,-2.82791e-06,1.33729e-05,0,-8.44743e-06,-1.34019e+09,-1.33802e+09,-1.33981e+09,-1.129e+06,-0.0206095,0.175142,-0,0.17635,2877.92,-47474.2,0,47561.4,1.129e+06
step02_gravity_refstate-mantle.xmf,797,-2.787e-06,1.29199e-05,0,-8.86858e-06,-1.32395e+09,-1.32185e+09,-1.32357e+09,-1.18529e+06,-0.0190946,0.182419,-0,0.183416,2847.19,-46971.6,0,47057.8,1.18529e+06
step02_gravity_refstate-mantle.xmf,798,-6.35305e-06,1.56547e-05,0,-8.31259e-07,-1.53883e+09,-1.53589e+09,-1.53798e+09,-111098,-0.00512631,0.0920061,-0,0.0921488,798.499,-53592.7,0,53598.6,111098
step02_gravity_refstate-mantle.xmf,799,-6.49048e-06,1.61054e-05,0,-1.84734e-06,-1.50332e+09,-1.5003e+09,-1.50245e+09,-246897,-0.00925987,0.108211,-0,0.108607,1363.67,-52495.9,0,52513.7,246897
step02_gravity_refstate-mantle.xmf,800,-3.80358e-06,1.4389e-05,0,-7.47538e-06,-1.37495e+09,-1.37252e+09,-1.37445e+09,-999084,-0.0217526,0.159483,-0,0.16096,2917.51,-48544.3,0,48631.9,999084
step02_gravity_refstate-mantle.xmf,801,-4.23776e-06,1.46452e-05,0,-6.75209e-06,-1.39328e+09,-1.39075e+09,-1.39271e+09,-902417,-0.0216707,0.15099,-0,0.152537,2936.33,-49108,0,49195.7,902417
step02_gravity_refstate-mantle.xmf,802,-8.76243e-07,6.31131e-06,0,-1.28312e-05,-1.21963e+09,-1.21867e+09,-1.21951e+09,-1.71488e+06,-0.00224967,0.227617,-0,0.227628,2399.54,-43745.2,0,43811,1.71488e+06
step02_gravity_refstate-mantle.xmf,803,-5.62334e-07,5.69021e-06,0,-1.45192e-05,-1.21167e+09,-1.21083e+09,-1.21159e+09,-1.9405e+06,-0.000648723,0.242132,-0,0.242133,2000,-43499.8,0,43545.8,1.9405e+06
step02_gravity_refstate-mantle.xmf,804,-6.10153e-06,1.50701e-05,0,-6.01916e-08,-1.5739e+09,-1.57107e+09,-1.57309e+09,-8044.6,-0.000363112,0.0758641,-0,0.075865,59.6614,-54676.2,0,54676.2,8044.6
step02_gravity_refstate-mantle.xmf,805,-5.56555e-06,1.41372e-05,0,3.41358e-07,-1.64373e+09,-1.6411e+09,-1.64299e+09,45622.5,0.00503728,0.0440898,0,0.0443766,-898.408,-56834.4,-0,56841.5,45622.5
step02_gravity_refstate-mantle.xmf,806,-5.24069e-06,1.3671e-05,0,3.57004e-07,-1.68803e+09,-1.6855e+09,-1.68733e+09,47713.6,0.00958708,0.0245064,0,0.026315,-1777.74,-58203.7,-0,58230.8,47713.6
step02_gravity_refstate-mantle.xmf,807,-2.74423e-06,1.22408e-05,0,-9.40344e-06,-1.30747e+09,-1.30547e+09,-1.3071e+09,-1.25677e+06,-0.0170811,0.1892,-0,0.18997,2833.04,-46461.2,0,46547.5,1.25677e+06
step02_gravity_refstate-mantle.xmf,808,-2.57723e-06,1.13217e-05,0,-9.93832e-06,-1.29099e+09,-1.28913e+09,-1.29065e+09,-1.32826e+06,-0.0147471,0.19531,-0,0.195866,2830.41,-45951,0,46038.1,1.32826e+06
step02_gravity_refstate-mantle.xmf,809,-4.69972e-06,1.49463e-05,0,-6.03348e-06,-1.41157e+09,-1.40894e+09,-1.41094e+09,-806374,-0.0210134,0.143322,-0,0.144854,2878.78,-49670.7,0,49754.1,806374
step02_gravity_refstate-mantle.xmf,810,-6.57709e-06,1.70064e-05,0,-3.76261e-06,-1.44748e+09,-1.44433e+09,-1.4466e+09,-502872,-0.0138849,0.13462,-0,0.135334,1845.84,-50772.7,0,50806.2,502872
step02_gravity_refstate-mantle.xmf,811,-5.78325e-06,1.60818e-05,0,-4.77856e-06,-1.43663e+09,-1.43371e+09,-1.43586e+09,-638655,-0.0176267,0.136102,-0,0.137239,2389.11,-50440.5,0,50497.1,638655
step02_gravity_refstate-mantle.xmf,812,-6.36859e-06,1.63951e-05,0,-3.21314e-06,-1.46911e+09,-1.46607e+09,-1.46826e+09,-429436,-0.0135861,0.123134,-0,0.123881,1903.57,-51440.8,0,51476,429436
step02_gravity_refstate-mantle.xmf,813,-6.11204e-06,1.51415e-05,0,-6.87911e-07,-1.56259e+09,-1.55975e+09,-1.56177e+09,-91939.3,-0.00491673,0.080724,-0,0.0808736,796.853,-54326.8,0,54332.6,91939.3
step02_gravity_refstate-mantle.xmf,814,-6.16074e-06,1.58195e-05,0,-2.72563e-06,-1.49138e+09,-1.48844e+09,-1.49056e+09,-364280,-0.0132364,0.111866,-0,0.112646,1947.53,-52128.5,0,52164.8,364280
step02_gravity_refstate-mantle.xmf,815,-6.227e-06,1.55373e-05,0,-1.5752e-06,-1.52644e+09,-1.52353e+09,-1.52561e+09,-210526,-0.00914197,0.0967744,-0,0.0972053,1410.43,-53210.4,0,53229.1,210526
step02_gravity_refstate-mantle.xmf,816,-2.29928e-06,1.02498e-05,0,-1.04139e-05,-1.27459e+09,-1.27291e+09,-1.27428e+09,-1.39181e+06,-0.0121938,0.200865,-0,0.201235,2828.25,-45443.4,0,45531.4,1.39181e+06
step02_gravity_refstate-mantle.xmf,817,-1.95848e-06,9.1415e-06,0,-1.08309e-05,-1.25881e+09,-1.25733e+09,-1.25855e+09,-1.44756e+06,-0.00955568,0.206056,-0,0.206277,2811.71,-44955.5,0,45043.4,1.44756e+06
step02_gravity_refstate-mantle.xmf,818,-1.52112e-06,7.91532e-06,0,-1.11338e-05,-1.24266e+09,-1.2414e+09,-1.24245e+09,-1.48803e+06,-0.00675381,0.210615,-0,0.210723,2801.31,-44456.3,0,44544.5,1.48803e+06
step02_gravity_refstate-mantle.xmf,819,-1.01229e-06,6.60753e-06,0,-1.1324e-05,-1.22628e+09,-1.22526e+09,-1.22614e+09,-1.51346e+06,-0.00380285,0.214661,-0,0.214694,2788.6,-43950.4,0,44038.8,1.51346e+06
step02_gravity_refstate-mantle.xmf,820,-1.85728e-07,4.781e-06,0,-1.26424e-05,-1.20358e+09,-1.20291e+09,-1.20355e+09,-1.68965e+06,0.00054967,0.229339,0,0.229339,2432.41,-43250,0,43318.4,1.68965e+06
step02_gravity_refstate-mantle.xmf,821,-5.89141e-06,1.46774e-05,0,1.78618e-08,-1.59999e+09,-1.59724e+09,-1.5992e+09,2387.23,0.000322011,0.063876,0,0.0638768,-54.7945,-55482.3,-0,55482.3,2387.23
step02_gravity_refstate-mantle.xmf,822,-5.70934e-06,1.43976e-05,0,3.43316e-08,-1.62941e+09,-1.62672e+09,-1.62864e+09,4588.42,0.000427456,0.0506768,0,0.0506786,-74.9558,-56391.6,-0,56391.6,4588.42
step02_gravity_refstate-mantle.xmf,823,-5.44979e-06,1.39563e-05,0,2.50811e-07,-1.6727e+09,-1.67011e+09,-1.67197e+09,33520.9,0.00525843,0.0314883,0,0.0319243,-957.311,-57729.5,-0,57737.5,33520.9
step02_gravity_refstate-mantle.xmf,824,-5.25441e-06,1.37018e-05,0,1.55302e-07,-1.71742e+09,-1.71488e+09,-1.71672e+09,20756.1,0.00839838,0.0121712,0,0.0147875,-1566.92,-59111.5,-0,59132.2,20756.1
step02_gravity_refstate-mantle.xmf,825,-5.08209e-06,1.35111e-05,0,4.07523e-09,-1.74616e+09,-1.74368e+09,-1.74548e+09,544.654,0.0116348,-1.77638e-19,0,0.0116348,-2200.02,-60000,-0,60040.3,544.654
step02_gravity_refstate-mantle.xmf,826,-2.62349e-06,1.25323e-05,0,-7.35735e-06,-1.3654e+09,-1.36337e+09,-1.36505e+09,-983310,-0.0231296,0.156229,-0,0.157932,3387.18,-48252.3,0,48371,983310
step02_gravity_refstate-mantle.xmf,827,-2.20183e-06,1.20183e-05,0,-7.68341e-06,-1.34725e+09,-1.34535e+09,-1.34696e+09,-1.02689e+06,-0.0222708,0.163635,-0,0.165144,3356.81,-47693.1,0,47811.1,1.02689e+06
step02_gravity_refstate-mantle.xmf,828,-2.06523e-06,1.16657e-05,0,-7.99144e-06,-1.3304e+09,-1.32857e+09,-1.33012e+09,-1.06806e+06,-0.0208172,0.171054,-0,0.172317,3289.71,-47172.6,0,47287.2,1.06806e+06
step02_gravity_refstate-mantle.xmf,829,-2.03821e-06,1.12073e-05,0,-8.32663e-06,-1.3145e+09,-1.31273e+09,-1.31422e+09,-1.11285e+06,-0.0189986,0.177381,-0,0.178395,3256.26,-46680.4,0,46793.8,1.11285e+06
step02_gravity_refstate-mantle.xmf,830,-5.03631e-06,1.51555e-05,0,-5.44255e-06,-1.42652e+09,-1.42382e+09,-1.42584e+09,-727397,-0.0201836,0.137223,-0,0.1387,2798.25,-50130.7,0,50208.8,727397
step02_gravity_refstate-mantle.xmf,831,-5.99257e-06,1.50956e-05,0,-1.34498e-06,-1.55022e+09,-1.54741e+09,-1.54942e+09,-179757,-0.00915776,0.0853805,-0,0.0858702,1473.98,-53945.5,0,53965.6,179757
step02_gravity_refstate-mantle.xmf,832,-5.96046e-06,1.52925e-05,0,-2.30552e-06,-1.51405e+09,-1.51121e+09,-1.51325e+09,-308133,-0.01288,0.100841,-0,0.10166,1981.58,-52828.8,0,52865.9,308133
step02_gravity_refstate-mantle.xmf,833,-3.1413e-06,1.30309e-05,0,-6.89176e-06,-1.38411e+09,-1.38195e+09,-1.38369e+09,-921084,-0.0234358,0.148663,-0,0.150498,3398.03,-48828.1,0,48946.2,921084
step02_gravity_refstate-mantle.xmf,834,-3.65091e-06,1.34556e-05,0,-6.31007e-06,-1.4037e+09,-1.40141e+09,-1.40321e+09,-843340,-0.0232776,0.140834,-0,0.142745,3382.97,-49430.8,0,49546.4,843340
step02_gravity_refstate-mantle.xmf,835,2.14774e-06,4.12537e-07,0,-1.36146e-05,-1.16303e+09,-1.16326e+09,-1.16331e+09,-1.81959e+06,0.00761154,0.246731,0,0.246848,2000,-42001.8,0,42049.4,1.81959e+06
step02_gravity_refstate-mantle.xmf,836,1.1826e-06,2.20012e-06,0,-1.40801e-05,-1.17925e+09,-1.17912e+09,-1.17941e+09,-1.8818e+06,0.00466976,0.246075,0,0.24612,2000,-42501.2,0,42548.2,1.8818e+06
step02_gravity_refstate-mantle.xmf,837,1.20061e-06,1.74707e-06,0,-1.2028e-05,-1.1712e+09,-1.17113e+09,-1.17136e+09,-1.60755e+06,0.0067281,0.232606,0,0.232704,2432.32,-42251.5,0,42321.5,1.60755e+06
step02_gravity_refstate-mantle.xmf,838,2.88372e-07,3.95256e-06,0,-1.43757e-05,-1.19546e+09,-1.19497e+09,-1.1955e+09,-1.92132e+06,0.00193393,0.24454,0,0.244548,2000,-43000.2,0,43046.7,1.92132e+06
step02_gravity_refstate-mantle.xmf,839,4.93097e-07,3.25143e-06,0,-1.22241e-05,-1.187e+09,-1.18664e+09,-1.18707e+09,-1.63375e+06,0.00364491,0.229888,0,0.229917,2481.08,-42738.7,0,42810.7,1.63375e+06
step02_gravity_refstate-mantle.xmf,840,1.82532e-06,2.8912e-07,0,-1.11395e-05,-1.15424e+09,-1.15444e+09,-1.15448e+09,-1.48879e+06,0.0104532,0.231022,0,0.231258,2502.58,-41727.9,0,41802.8,1.48879e+06
step02_gravity_refstate-mantle.xmf,841,3.05231e-06,-1.37572e-06,0,-1.28328e-05,-1.14679e+09,-1.14739e+09,-1.1472e+09,-1.7151e+06,0.0108227,0.246493,0,0.24673,2000,-41501.9,0,41550,1.7151e+06
step02_gravity_refstate-mantle.xmf,842,5.00317e-06,-4.84041e-06,0,-1.01326e-05,-1.11428e+09,-1.1156e+09,-1.11495e+09,-1.35422e+06,0.0183953,0.243285,0,0.243979,2000,-40501.8,0,40551.1,1.35422e+06
step02_gravity_refstate-mantle.xmf,843,4.02192e-06,-3.17025e-06,0,-1.17436e-05,-1.13053e+09,-1.1315e+09,-1.13107e+09,-1.56953e+06,0.0143835,0.245346,0,0.245767,2000,-41001.5,0,41050.3,1.56953e+06
step02_gravity_refstate-mantle.xmf,844,3.11848e-06,-2.44321e-06,0,-9.4009e-06,-1.12215e+09,-1.1229e+09,-1.12257e+09,-1.25643e+06,0.0180849,0.231914,0,0.232618,2433.09,-40738.4,0,40811,1.25643e+06
step02_gravity_refstate-mantle.xmf,845,2.54997e-06,-1.17069e-06,0,-1.04136e-05,-1.13762e+09,-1.13812e+09,-1.13796e+09,-1.39177e+06,0.0142144,0.232134,0,0.232569,2456.61,-41215.8,0,41288.9,1.39177e+06
step02_gravity_refstate-mantle.xmf,846,-5.41202e-07,5.45766e-06,0,-1.14351e-05,-1.21227e+09,-1.21147e+09,-1.2122e+09,-1.5283e+06,-0.00118304,0.218065,-0,0.218068,2761.33,-43518,0,43605.5,1.5283e+06
step02_gravity_refstate-mantle.xmf,847,-5.91067e-06,1.4755e-05,0,-5.34409e-07,-1.58772e+09,-1.58496e+09,-1.58693e+09,-71423.8,-0.00454863,0.069147,-0,0.0692965,763.787,-55103.5,0,55108.8,71423.8
step02_gravity_refstate-mantle.xmf,848,-5.56815e-06,1.4124e-05,0,2.6814e-08,-1.6592e+09,-1.65657e+09,-1.65845e+09,3583.69,0.000621938,0.0375704,0,0.0375755,-111.723,-57312,-0,57312.2,3583.69
step02_gravity_refstate-mantle.xmf,849,-5.37696e-06,1.38706e-05,0,1.87454e-07,-1.69718e+09,-1.69461e+09,-1.69647e+09,25053.3,0.00563587,0.0209387,0,0.0216839,-1038.82,-58486.1,-0,58495.3,25053.3
step02_gravity_refstate-mantle.xmf,850,-1.97682e-06,1.0541e-05,0,-8.69735e-06,-1.29805e+09,-1.29638e+09,-1.29779e+09,-1.1624e+06,-0.0167439,0.183217,-0,0.18398,3243.87,-46171.2,0,46285,1.1624e+06
step02_gravity_refstate-mantle.xmf,851,-1.819e-06,9.66973e-06,0,-9.03994e-06,-1.28123e+09,-1.27969e+09,-1.28098e+09,-1.20819e+06,-0.0141615,0.188235,-0,0.188767,3256.09,-45650.2,0,45766.2,1.20819e+06
step02_gravity_refstate-mantle.xmf,852,-4.17656e-06,1.38765e-05,0,-5.64398e-06,-1.42466e+09,-1.42225e+09,-1.4241e+09,-754319,-0.0225659,0.13287,-0,0.134773,3304.2,-50075.8,0,50184.7,754319
step02_gravity_refstate-mantle.xmf,853,-4.72709e-06,1.44204e-05,0,-4.94778e-06,-1.44452e+09,-1.44196e+09,-1.44389e+09,-661270,-0.0211123,0.126151,-0,0.127905,3102.54,-50687,0,50781.9,661270
step02_gravity_refstate-mantle.xmf,854,-5.66512e-06,1.55628e-05,0,-4.14642e-06,-1.45768e+09,-1.45484e+09,-1.45692e+09,-554169,-0.0174712,0.12506,-0,0.126275,2486.79,-51090.1,0,51150.6,554169
step02_gravity_refstate-mantle.xmf,855,-5.59937e-06,1.51693e-05,0,-3.56705e-06,-1.47962e+09,-1.47684e+09,-1.47887e+09,-476736,-0.0170801,0.114289,-0,0.115558,2542.27,-51767.4,0,51829.8,476736
step02_gravity_refstate-mantle.xmf,856,-5.78531e-06,1.46475e-05,0,-1.12846e-06,-1.57498e+09,-1.57225e+09,-1.57421e+09,-150818,-0.00909144,0.0739303,-0,0.0744872,1519.25,-54710.4,0,54731.5,150818
step02_gravity_refstate-mantle.xmf,857,-5.52561e-06,1.48138e-05,0,-3.01957e-06,-1.50262e+09,-1.4999e+09,-1.50188e+09,-403565,-0.0165358,0.103524,-0,0.104836,2565.61,-52477.3,0,52540,403565
step02_gravity_refstate-mantle.xmf,858,-5.7631e-06,1.48235e-05,0,-1.98117e-06,-1.53765e+09,-1.5349e+09,-1.53688e+09,-264783,-0.0127978,0.0895997,-0,0.0905091,2055.08,-53557.8,0,53597.3,264783
step02_gravity_refstate-mantle.xmf,859,6.28481e-06,-6.36547e-06,0,-7.65826e-06,-1.09789e+09,-1.09958e+09,-1.09873e+09,-1.02353e+06,0.0229758,0.240307,0,0.241403,2000,-40000,0,40050,1.02353e+06
step02_gravity_refstate-mantle.xmf,860,3.74278e-06,-3.5919e-06,0,-8.47067e-06,-1.10993e+09,-1.11092e+09,-1.11044e+09,-1.13211e+06,0.02124,0.232609,0,0.233577,2365.01,-40362.3,0,40431.5,1.13211e+06
step02_gravity_refstate-mantle.xmf,861,1.19092e-06,1.43159e-06,0,-1.07127e-05,-1.16371e+09,-1.16368e+09,-1.16387e+09,-1.43175e+06,0.00869347,0.224084,0,0.224253,2732.08,-42019.3,0,42108,1.43175e+06
step02_gravity_refstate-mantle.xmf,862,-1.6018e-06,8.72411e-06,0,-9.37725e-06,-1.26447e+09,-1.26309e+09,-1.26425e+09,-1.25327e+06,-0.0113227,0.193115,-0,0.193447,3252.58,-45131.5,0,45248.6,1.25327e+06
step02_gravity_refstate-mantle.xmf,863,-1.34541e-06,7.7792e-06,0,-9.6941e-06,-1.24872e+09,-1.2475e+09,-1.24854e+09,-1.29562e+06,-0.00845825,0.197842,-0,0.198023,3224.94,-44644.3,0,44760.7,1.29562e+06
step02_gravity_refstate-mantle.xmf,864,-1.01204e-06,6.73281e-06,0,-9.90744e-06,-1.2328e+09,-1.23176e+09,-1.23266e+09,-1.32413e+06,-0.00545071,0.201946,-0,0.202019,3204.83,-44152.1,0,44268.3,1.32413e+06
step02_gravity_refstate-mantle.xmf,865,-5.78161e-07,5.48929e-06,0,-1.00719e-05,-1.21482e+09,-1.21401e+09,-1.21475e+09,-1.34611e+06,-0.00190655,0.206371,-0,0.20638,3166.37,-43596.6,0,43711.4,1.34611e+06
step02_gravity_refstate-mantle.xmf,866,-7.32921e-08,4.19399e-06,0,-1.04813e-05,-1.19688e+09,-1.19631e+09,-1.19687e+09,-1.40083e+06,0.00178091,0.213634,0,0.213642,2998.55,-43042.5,0,43146.9,1.40083e+06
step02_gravity_refstate-mantle.xmf,867,-5.73107e-06,1.44216e-05,0,-3.97929e-07,-1.61551e+09,-1.61281e+09,-1.61474e+09,-53183.2,-0.00420506,0.0566461,-0,0.056802,729.376,-55962.1,0,55966.9,53183.2
step02_gravity_refstate-mantle.xmf,868,-5.58718e-06,1.42035e-05,0,-2.78378e-07,-1.64475e+09,-1.64211e+09,-1.644e+09,-37205.3,-0.00398212,0.0437402,-0,0.0439211,709.666,-56865.9,0,56870.3,37205.3
step02_gravity_refstate-mantle.xmf,869,-5.46961e-06,1.39855e-05,0,3.53874e-08,-1.68902e+09,-1.68642e+09,-1.68829e+09,4729.53,0.00108003,0.024615,0,0.0246387,-197.283,-58233.7,-0,58234,4729.53
step02_gravity_refstate-mantle.xmf,870,-5.40715e-06,1.39126e-05,0,5.62918e-08,-1.71781e+09,-1.71523e+09,-1.71709e+09,7523.4,0.00299507,0.0121853,0,0.012548,-553.577,-59123.2,-0,59125.8,7523.4
step02_gravity_refstate-mantle.xmf,871,-5.32962e-06,1.38355e-05,0,5.79159e-09,-1.74619e+09,-1.74363e+09,-1.74548e+09,774.046,0.00590997,-1.71884e-19,0,0.00590997,-1099.99,-60000,-0,60010.1,774.046
step02_gravity_refstate-mantle.xmf,872,-2.14355e-06,1.14274e-05,0,-6.70356e-06,-1.37418e+09,-1.37237e+09,-1.37389e+09,-895930,-0.0245973,0.145322,-0,0.147389,3897.94,-48523.8,0,48680.1,895930
step02_gravity_refstate-mantle.xmf,873,-1.71899e-06,1.08994e-05,0,-6.97873e-06,-1.35463e+09,-1.35295e+09,-1.3544e+09,-932708,-0.0237139,0.152533,-0,0.154365,3868.28,-47921.5,0,48077.4,932708
step02_gravity_refstate-mantle.xmf,874,-1.49754e-06,1.05029e-05,0,-7.22088e-06,-1.33591e+09,-1.33431e+09,-1.33571e+09,-965071,-0.0222183,0.160062,-0,0.161597,3789.34,-47343.6,0,47495,965071
step02_gravity_refstate-mantle.xmf,875,-1.55806e-06,1.04377e-05,0,-7.57514e-06,-1.3209e+09,-1.3193e+09,-1.32069e+09,-1.01242e+06,-0.0204604,0.167563,-0,0.168808,3644.33,-46879.4,0,47020.9,1.01242e+06
step02_gravity_refstate-mantle.xmf,876,-1.40607e-06,9.7143e-06,0,-7.67196e-06,-1.30542e+09,-1.30394e+09,-1.30524e+09,-1.02536e+06,-0.0185776,0.171292,-0,0.172296,3701.65,-46400.6,0,46548,1.02536e+06
step02_gravity_refstate-mantle.xmf,877,-5.52182e-06,1.43952e-05,0,-1.75478e-06,-1.56138e+09,-1.55872e+09,-1.56064e+09,-234526,-0.0134548,0.0782832,-0,0.079431,2253.15,-54291.5,0,54338.2,234526
step02_gravity_refstate-mantle.xmf,878,-5.46829e-06,1.45433e-05,0,-2.57957e-06,-1.523e+09,-1.52032e+09,-1.52226e+09,-344760,-0.0159256,0.0943532,-0,0.0956877,2551.82,-53106.5,0,53167.8,344760
step02_gravity_refstate-mantle.xmf,879,-2.6345e-06,1.19399e-05,0,-6.32604e-06,-1.39395e+09,-1.392e+09,-1.39359e+09,-845476,-0.0249409,0.138119,-0,0.140353,3901.85,-49132.5,0,49287.2,845476
step02_gravity_refstate-mantle.xmf,880,-3.13008e-06,1.23997e-05,0,-5.84874e-06,-1.41447e+09,-1.4124e+09,-1.41405e+09,-781684,-0.0248444,0.130645,-0,0.132987,3881,-49764.4,0,49915.5,781684
step02_gravity_refstate-mantle.xmf,881,6.04755e-07,2.53096e-06,0,-1.01552e-05,-1.17479e+09,-1.17454e+09,-1.17487e+09,-1.35724e+06,0.0064692,0.216407,0,0.216503,2981.36,-42360.4,0,42465.2,1.35724e+06
step02_gravity_refstate-mantle.xmf,882,3.21078e-06,-3.3987e-06,0,-6.85813e-06,-1.09831e+09,-1.09919e+09,-1.09874e+09,-916589,0.0254191,0.227611,0,0.229026,2511.47,-40000,0,40078.8,916589
step02_gravity_refstate-mantle.xmf,883,1.11261e-06,1.11481e-06,0,-9.46373e-06,-1.15463e+09,-1.15463e+09,-1.15478e+09,-1.26483e+06,0.0111261,0.216699,0,0.216984,3012.06,-41737.4,0,41846,1.26483e+06
step02_gravity_refstate-mantle.xmf,884,1.62473e-06,-4.145e-09,0,-9.36204e-06,-1.14215e+09,-1.14237e+09,-1.14237e+09,-1.25124e+06,0.0139656,0.220919,0,0.22136,2862.5,-41352.4,0,41451.4,1.25124e+06
step02_gravity_refstate-mantle.xmf,885,2.32161e-06,-1.99346e-06,0,-7.64898e-06,-1.11185e+09,-1.11242e+09,-1.11216e+09,-1.02229e+06,0.0219789,0.222138,0,0.223222,2778.81,-40415.9,0,40511.4,1.02229e+06
step02_gravity_refstate-mantle.xmf,886,1.61973e-06,-5.72346e-07,0,-8.27897e-06,-1.12863e+09,-1.12892e+09,-1.12884e+09,-1.10648e+06,0.0177099,0.217267,0,0.217988,2998.08,-40933.2,0,41042.9,1.10648e+06
step02_gravity_refstate-mantle.xmf,887,-5.62241e-06,1.43251e-05,0,-8.93561e-07,-1.60171e+09,-1.59904e+09,-1.60096e+09,-119424,-0.00877702,0.06197,-0,0.0625885,1516.01,-55536.4,0,55557.1,119424
step02_gravity_refstate-mantle.xmf,888,-5.47712e-06,1.39899e-05,0,-1.85229e-07,-1.67534e+09,-1.67274e+09,-1.67461e+09,-24755.8,-0.00366895,0.0304529,-0,0.0306731,667.431,-57810.9,0,57814.8,24755.8
step02_gravity_refstate-mantle.xmf,889,-1.32196e-06,8.98922e-06,0,-7.88381e-06,-1.2877e+09,-1.28632e+09,-1.28752e+09,-1.05367e+06,-0.0159397,0.176144,-0,0.176863,3717.04,-45851.6,0,46002,1.05367e+06
step02_gravity_refstate-mantle.xmf,890,-1.2232e-06,8.24773e-06,0,-8.14218e-06,-1.27065e+09,-1.26938e+09,-1.27048e+09,-1.0882e+06,-0.0130578,0.180937,-0,0.181408,3707.05,-45323.8,0,45475.1,1.0882e+06
step02_gravity_refstate-mantle.xmf,891,-3.60104e-06,1.28038e-05,0,-5.30316e-06,-1.43573e+09,-1.43354e+09,-1.43525e+09,-708767,-0.0243439,0.122963,-0,0.12535,3824.91,-50418.9,0,50563.7,708767
step02_gravity_refstate-mantle.xmf,892,-4.83552e-06,1.4235e-05,0,-4.24778e-06,-1.4684e+09,-1.46585e+09,-1.46775e+09,-567716,-0.0205995,0.115224,-0,0.117051,3148.28,-51423.4,0,51519.7,567716
step02_gravity_refstate-mantle.xmf,893,-4.8947e-06,1.40342e-05,0,-3.6555e-06,-1.49163e+09,-1.4891e+09,-1.49098e+09,-488558,-0.020089,0.104829,-0,0.106737,3186.26,-52140.2,0,52237.5,488558
step02_gravity_refstate-mantle.xmf,894,-5.3738e-06,1.40483e-05,0,-1.42526e-06,-1.58815e+09,-1.58556e+09,-1.58744e+09,-190486,-0.0131774,0.0664571,-0,0.0677509,2283.74,-55118.6,0,55165.9,190486
step02_gravity_refstate-mantle.xmf,895,-4.94354e-06,1.38736e-05,0,-3.0701e-06,-1.51665e+09,-1.51414e+09,-1.51599e+09,-410319,-0.0193511,0.0941015,-0,0.0960706,3177.98,-52912.3,0,53007.6,410319
step02_gravity_refstate-mantle.xmf,896,-5.11561e-06,1.39267e-05,0,-2.44209e-06,-1.5436e+09,-1.54105e+09,-1.54291e+09,-326385,-0.0175464,0.083597,-0,0.0854186,2952.2,-53743.7,0,53824.7,326385
step02_gravity_refstate-mantle.xmf,897,-1.08876e-06,7.48491e-06,0,-8.40256e-06,-1.25441e+09,-1.25327e+09,-1.25427e+09,-1.123e+06,-0.010075,0.185532,-0,0.185805,3679.49,-44821.2,0,44972,1.123e+06
step02_gravity_refstate-mantle.xmf,898,-8.99162e-07,6.67646e-06,0,-8.59947e-06,-1.23887e+09,-1.23785e+09,-1.23875e+09,-1.14932e+06,-0.00706299,0.18956,-0,0.189692,3653.33,-44340.2,0,44490.5,1.14932e+06
step02_gravity_refstate-mantle.xmf,899,-6.3497e-07,5.70256e-06,0,-8.64195e-06,-1.22205e+09,-1.2212e+09,-1.22196e+09,-1.155e+06,-0.00367796,0.192665,-0,0.1927,3658.56,-43819.9,0,43972.4,1.155e+06
step02_gravity_refstate-mantle.xmf,900,-3.14089e-07,4.59488e-06,0,-8.71656e-06,-1.20315e+09,-1.2025e+09,-1.20311e+09,-1.16497e+06,0.000338292,0.196944,0,0.196944,3606.58,-43235.6,0,43385.8,1.16497e+06
step02_gravity_refstate-mantle.xmf,901,-5.48667e-06,1.40668e-05,0,-6.74608e-07,-1.63031e+09,-1.6277e+09,-1.62958e+09,-90161.4,-0.00845295,0.0494402,-0,0.0501576,1502.3,-56420.2,0,56440.2,90161.4
step02_gravity_refstate-mantle.xmf,902,-5.38509e-06,1.39139e-05,0,-4.70885e-07,-1.65975e+09,-1.65717e+09,-1.65903e+09,-62933.7,-0.0081495,0.0367492,-0,0.0376419,1481.15,-57329.8,0,57348.9,62933.7
step02_gravity_refstate-mantle.xmf,903,-5.41642e-06,1.38989e-05,0,-8.75691e-08,-1.71066e+09,-1.70808e+09,-1.70993e+09,-11703.6,-0.00331104,0.0152543,-0,0.0156095,610.98,-58902,0,58905.2,11703.6
step02_gravity_refstate-mantle.xmf,904,-5.41468e-06,1.39454e-05,0,8.29705e-09,-1.7462e+09,-1.74361e+09,-1.74547e+09,1108.9,-1.26192e-06,-2.09149e-19,-0,1.26192e-06,-6.37519e-08,-60000,-0,60000,1108.9
step02_gravity_refstate-mantle.xmf,905,-1.76676e-06,1.05241e-05,0,-6.08971e-06,-1.38374e+09,-1.3821e+09,-1.3835e+09,-813890,-0.0259247,0.13472,-0,0.137192,4433.32,-48819.3,0,49020.2,813890
step02_gravity_refstate-mantle.xmf,906,-1.3454e-06,9.97812e-06,0,-6.30793e-06,-1.36308e+09,-1.36157e+09,-1.3629e+09,-843055,-0.0250369,0.141487,-0,0.143685,4418.32,-48182.7,0,48384.8,843055
step02_gravity_refstate-mantle.xmf,907,-9.57385e-07,9.06417e-06,0,-6.75781e-06,-1.31915e+09,-1.31781e+09,-1.31902e+09,-903181,-0.0209729,0.157719,-0,0.159107,4215.6,-46825.8,0,47015.2,903181
step02_gravity_refstate-mantle.xmf,908,-1.03317e-06,9.43815e-06,0,-6.47347e-06,-1.34161e+09,-1.34021e+09,-1.34147e+09,-865180,-0.023463,0.148662,-0,0.150502,4371.45,-47520.2,0,47720.8,865180
step02_gravity_refstate-mantle.xmf,909,-8.58825e-07,8.34453e-06,0,-6.84153e-06,-1.29731e+09,-1.29608e+09,-1.2972e+09,-914370,-0.0180247,0.16305,-0,0.164043,4248.7,-46150.2,0,46345.3,914370
step02_gravity_refstate-mantle.xmf,910,-3.9558e-06,1.30834e-05,0,-4.71214e-06,-1.45747e+09,-1.4552e+09,-1.45695e+09,-629777,-0.0236864,0.114698,-0,0.117118,3779.58,-51088.9,0,51228.5,629777
step02_gravity_refstate-mantle.xmf,911,-5.00545e-06,1.36283e-05,0,-1.95777e-06,-1.57397e+09,-1.57148e+09,-1.5733e+09,-261655,-0.0172606,0.0704316,-0,0.0725157,3021.98,-54681.9,0,54765.4,261655
step02_gravity_refstate-mantle.xmf,912,-2.23033e-06,1.10387e-05,0,-5.78142e-06,-1.40439e+09,-1.40261e+09,-1.40409e+09,-772687,-0.026308,0.127893,-0,0.13057,4428.35,-49455.3,0,49653.2,772687
step02_gravity_refstate-mantle.xmf,913,-2.68309e-06,1.14848e-05,0,-5.37912e-06,-1.4257e+09,-1.4238e+09,-1.42534e+09,-718920,-0.0263185,0.120621,-0,0.123459,4414.89,-50111.7,0,50305.8,718920
step02_gravity_refstate-mantle.xmf,914,4.97666e-08,3.419e-06,0,-8.61963e-06,-1.18369e+09,-1.18324e+09,-1.1837e+09,-1.15201e+06,0.00466108,0.200541,0,0.200596,3558.47,-42633.8,0,42782.1,1.15201e+06
step02_gravity_refstate-mantle.xmf,915,1.46585e-06,-1.54701e-06,0,-6.16435e-06,-1.09853e+09,-1.09893e+09,-1.09873e+09,-823865,0.0266621,0.215076,0,0.216723,3044.18,-40000,0,40115.7,823865
step02_gravity_refstate-mantle.xmf,916,7.85966e-07,1.01199e-06,0,-7.89675e-06,-1.14297e+09,-1.14294e+09,-1.14308e+09,-1.0554e+06,0.0144446,0.206733,0,0.207237,3418.32,-41374.7,0,41515.7,1.0554e+06
step02_gravity_refstate-mantle.xmf,917,4.09615e-07,2.22454e-06,0,-8.30588e-06,-1.16352e+09,-1.16328e+09,-1.16358e+09,-1.11008e+06,0.00937894,0.203248,0,0.203465,3519.81,-42010.1,0,42157.3,1.11008e+06
step02_gravity_refstate-mantle.xmf,918,1.04947e-06,-5.27153e-07,0,-6.72354e-06,-1.11325e+09,-1.11346e+09,-1.11339e+09,-898601,0.022503,0.209503,0,0.210709,3308.75,-40454.6,0,40589.7,898601
step02_gravity_refstate-mantle.xmf,919,-5.27088e-06,1.38185e-05,0,-1.1087e-06,-1.6162e+09,-1.61365e+09,-1.6155e+09,-148178,-0.0127568,0.0543997,-0,0.0558754,2275.54,-55985.2,0,56031.4,148178
step02_gravity_refstate-mantle.xmf,920,-5.30356e-06,1.37545e-05,0,-3.09696e-07,-1.68942e+09,-1.68687e+09,-1.68871e+09,-41390.8,-0.00809948,0.0240726,-0,0.0253987,1496.04,-58246.4,0,58265.6,41390.8
step02_gravity_refstate-mantle.xmf,921,-8.28881e-07,7.69921e-06,0,-7.02688e-06,-1.27751e+09,-1.27637e+09,-1.2774e+09,-939143,-0.0147933,0.168437,-0,0.169086,4226.12,-45536.9,0,45732.6,939143
step02_gravity_refstate-mantle.xmf,922,-7.88333e-07,7.05934e-06,0,-7.26304e-06,-1.25944e+09,-1.2584e+09,-1.25934e+09,-970705,-0.0114885,0.173694,-0,0.174073,4171.6,-44977.6,0,45170.6,970705
step02_gravity_refstate-mantle.xmf,923,-3.10503e-06,1.18751e-05,0,-4.93018e-06,-1.44706e+09,-1.44506e+09,-1.44664e+09,-658919,-0.0259923,0.113313,-0,0.116256,4374.64,-50769.8,0,50957.9,658919
step02_gravity_refstate-mantle.xmf,924,-4.14232e-06,1.30914e-05,0,-4.13437e-06,-1.48014e+09,-1.47783e+09,-1.47958e+09,-552559,-0.0232168,0.105336,-0,0.107864,3806.58,-51787.8,0,51927.5,552559
step02_gravity_refstate-mantle.xmf,925,-4.29085e-06,1.3051e-05,0,-3.55835e-06,-1.50519e+09,-1.50287e+09,-1.50461e+09,-475574,-0.0226484,0.0950996,-0,0.0977593,3826.33,-52560.4,0,52699.5,475574
step02_gravity_refstate-mantle.xmf,926,-4.93749e-06,1.34168e-05,0,-1.56016e-06,-1.60204e+09,-1.59959e+09,-1.60138e+09,-208516,-0.0168457,0.0586729,-0,0.0610434,3036.6,-55549,0,55631.9,208516
step02_gravity_refstate-mantle.xmf,927,-4.40852e-06,1.30175e-05,0,-2.98426e-06,-1.53226e+09,-1.52993e+09,-1.53167e+09,-398846,-0.0219179,0.084285,-0,0.0870882,3812.97,-53395.7,0,53531.7,398846
step02_gravity_refstate-mantle.xmf,928,-4.48565e-06,1.29708e-05,0,-2.45136e-06,-1.56024e+09,-1.5579e+09,-1.55964e+09,-327624,-0.0211426,0.073216,-0,0.0762076,3780.2,-54259.4,0,54390.9,327624
step02_gravity_refstate-mantle.xmf,929,7.33102e-07,3.93585e-07,0,-7.02307e-06,-1.12653e+09,-1.12658e+09,-1.12663e+09,-938633,0.0189262,0.204658,0,0.205531,3520.72,-40865,0,41016.4,938633
step02_gravity_refstate-mantle.xmf,930,-7.55627e-07,6.55864e-06,0,-7.57998e-06,-1.24462e+09,-1.24364e+09,-1.24452e+09,-1.01306e+06,-0.00854253,0.17906,-0,0.179264,4066.16,-44518.5,0,44703.8,1.01306e+06
step02_gravity_refstate-mantle.xmf,931,-5.94325e-07,5.8079e-06,0,-7.40753e-06,-1.23023e+09,-1.22938e+09,-1.23015e+09,-990016,-0.00569059,0.179691,-0,0.179781,4164.53,-44073.3,0,44269.6,990016
step02_gravity_refstate-mantle.xmf,932,-4.26104e-07,4.90364e-06,0,-7.39694e-06,-1.2114e+09,-1.21069e+09,-1.21135e+09,-988601,-0.00166667,0.182978,-0,0.182986,4156.89,-43490.5,0,43688.7,988601
step02_gravity_refstate-mantle.xmf,933,-2.33269e-07,3.93106e-06,0,-7.34191e-06,-1.19117e+09,-1.19062e+09,-1.19114e+09,-981247,0.0028941,0.186677,0,0.1867,4114.67,-42864.4,0,43061.4,981247
step02_gravity_refstate-mantle.xmf,934,-5.18602e-06,1.36449e-05,0,-8.24274e-07,-1.645e+09,-1.64248e+09,-1.64431e+09,-110164,-0.0123986,0.0422018,-0,0.0439855,2264.22,-56874.8,0,56919.9,110164
step02_gravity_refstate-mantle.xmf,935,-5.12759e-06,1.35557e-05,0,-5.63658e-07,-1.67367e+09,-1.67118e+09,-1.67299e+09,-75332.9,-0.0120946,0.0301829,-0,0.0325159,2247.22,-57760.7,0,57804.4,75332.9
step02_gravity_refstate-mantle.xmf,936,-5.21374e-06,1.36487e-05,0,-1.65937e-07,-1.71875e+09,-1.71623e+09,-1.71805e+09,-22177.5,-0.00923533,0.0115652,-0,0.0148002,1727.64,-59152.7,0,59177.9,22177.5
step02_gravity_refstate-mantle.xmf,937,-5.33443e-06,1.38429e-05,0,3.3933e-09,-1.74619e+09,-1.74362e+09,-1.74547e+09,453.515,-0.00590786,-1.51992e-19,-0,0.00590786,1099.99,-60000,0,60010.1,453.515
step02_gravity_refstate-mantle.xmf,938,-1.4686e-06,9.77877e-06,0,-5.51487e-06,-1.39406e+09,-1.39256e+09,-1.39386e+09,-737063,-0.0271354,0.124494,-0,0.127417,4988.61,-49138.3,0,49390.8,737063
step02_gravity_refstate-mantle.xmf,939,-1.0731e-06,9.25585e-06,0,-5.69086e-06,-1.37286e+09,-1.37148e+09,-1.37272e+09,-760584,-0.02625,0.130843,-0,0.133451,4980.44,-48484.8,0,48739.9,760584
step02_gravity_refstate-mantle.xmf,940,-7.51962e-07,8.72449e-06,0,-5.79233e-06,-1.35152e+09,-1.35025e+09,-1.35142e+09,-774145,-0.0248168,0.137091,-0,0.139319,4958.49,-47826.3,0,48082.7,774145
step02_gravity_refstate-mantle.xmf,941,-5.48057e-07,8.20594e-06,0,-5.85334e-06,-1.32998e+09,-1.32881e+09,-1.32991e+09,-782299,-0.0227529,0.143262,-0,0.145058,4923.79,-47161,0,47417.3,782299
step02_gravity_refstate-mantle.xmf,942,-4.86144e-07,7.73592e-06,0,-5.96224e-06,-1.30794e+09,-1.30684e+09,-1.30787e+09,-796854,-0.0199669,0.149997,-0,0.15132,4843.63,-46479.3,0,46731,796854
step02_gravity_refstate-mantle.xmf,943,-4.80059e-07,7.20171e-06,0,-6.06372e-06,-1.28662e+09,-1.28559e+09,-1.28655e+09,-810416,-0.0167071,0.155713,-0,0.156607,4799.03,-45819.4,0,46070.1,810416
step02_gravity_refstate-mantle.xmf,944,-3.38776e-06,1.20901e-05,0,-4.43971e-06,-1.46845e+09,-1.46638e+09,-1.46799e+09,-593367,-0.0256655,0.105307,-0,0.108389,4385.32,-51429.2,0,51615.8,593367
step02_gravity_refstate-mantle.xmf,945,-4.51089e-06,1.28947e-05,0,-1.9891e-06,-1.58776e+09,-1.58544e+09,-1.58716e+09,-265843,-0.0205531,0.0622717,-0,0.0655759,3768.91,-55109.4,0,55238.1,265843
step02_gravity_refstate-mantle.xmf,946,-1.88604e-06,1.02567e-05,0,-5.25119e-06,-1.41537e+09,-1.41375e+09,-1.41512e+09,-701821,-0.0275914,0.11786,-0,0.121047,4990.89,-49795,0,50044.5,701821
step02_gravity_refstate-mantle.xmf,947,-2.32563e-06,1.07346e-05,0,-4.91884e-06,-1.4376e+09,-1.43585e+09,-1.43729e+09,-657403,-0.0276419,0.11101,-0,0.1144,4955.73,-50479.8,0,50722.5,657403
step02_gravity_refstate-mantle.xmf,948,-5.643e-08,2.99951e-06,0,-7.15282e-06,-1.17168e+09,-1.17127e+09,-1.17168e+09,-955974,0.00750467,0.189616,0,0.189764,4076.36,-42261.1,0,42457.3,955974
step02_gravity_refstate-mantle.xmf,949,2.43588e-07,-1.8766e-07,0,-5.53484e-06,-1.09868e+09,-1.09874e+09,-1.09872e+09,-739731,0.0271349,0.202898,0,0.204704,3601.4,-40000,0,40161.8,739731
step02_gravity_refstate-mantle.xmf,950,8.63977e-08,2.10875e-06,0,-6.84867e-06,-1.15223e+09,-1.15196e+09,-1.15224e+09,-915324,0.012336,0.192322,0,0.192718,4023.09,-41658.9,0,41852.7,915324
step02_gravity_refstate-mantle.xmf,951,1.34621e-07,1.30368e-06,0,-6.37039e-06,-1.13258e+09,-1.13242e+09,-1.1326e+09,-851402,0.0174847,0.194315,0,0.1951,3978.65,-41050.2,0,41242.6,851402
step02_gravity_refstate-mantle.xmf,952,9.12309e-08,6.18292e-07,0,-5.85691e-06,-1.11453e+09,-1.11446e+09,-1.11454e+09,-782776,0.0224901,0.196656,0,0.197938,3893.49,-40490.6,0,40677.4,782776
step02_gravity_refstate-mantle.xmf,953,-4.8806e-06,1.32662e-05,0,-1.19951e-06,-1.63077e+09,-1.62835e+09,-1.63012e+09,-160315,-0.0164959,0.0468103,-0,0.0496318,3046.84,-56436.4,0,56518.5,160315
step02_gravity_refstate-mantle.xmf,954,-5.08865e-06,1.34878e-05,0,-3.56766e-07,-1.69872e+09,-1.69624e+09,-1.69804e+09,-47681.8,-0.0118985,0.0197423,-0,0.0230506,2233.74,-58534.4,0,58577,47681.8
step02_gravity_refstate-mantle.xmf,955,-4.92285e-07,6.62393e-06,0,-6.19378e-06,-1.26604e+09,-1.26509e+09,-1.26597e+09,-827799,-0.0130925,0.161008,-0,0.161539,4751.1,-45182.1,0,45431.2,827799
step02_gravity_refstate-mantle.xmf,956,-5.01104e-07,5.96981e-06,0,-6.41559e-06,-1.24405e+09,-1.24318e+09,-1.24398e+09,-857443,-0.00879137,0.167362,-0,0.167593,4643.33,-44501.1,0,44742.7,857443
step02_gravity_refstate-mantle.xmf,957,-2.75506e-06,1.12237e-05,0,-4.605e-06,-1.45682e+09,-1.45495e+09,-1.45645e+09,-615458,-0.0272408,0.105555,-0,0.109014,4842.09,-51072,0,51301,615458
step02_gravity_refstate-mantle.xmf,958,-3.58177e-06,1.21514e-05,0,-3.9219e-06,-1.492e+09,-1.48989e+09,-1.49152e+09,-524161,-0.0253678,0.0961048,-0,0.0993964,4436.98,-52155.4,0,52343.8,524161
step02_gravity_refstate-mantle.xmf,959,-3.71594e-06,1.21218e-05,0,-3.37818e-06,-1.51871e+09,-1.51659e+09,-1.51821e+09,-451494,-0.0251249,0.0855093,-0,0.0891241,4525.9,-52979.7,0,53172.6,451494
step02_gravity_refstate-mantle.xmf,960,-4.48417e-06,1.27657e-05,0,-1.58435e-06,-1.6158e+09,-1.61349e+09,-1.6152e+09,-211748,-0.0202804,0.0510437,-0,0.054925,3810.32,-55975.1,0,56104.7,211748
step02_gravity_refstate-mantle.xmf,961,-3.98683e-06,1.22127e-05,0,-2.34776e-06,-1.57473e+09,-1.57256e+09,-1.57419e+09,-313778,-0.0239084,0.0645672,-0,0.0688515,4501.79,-54708.4,0,54893.3,313778
step02_gravity_refstate-mantle.xmf,962,-3.86466e-06,1.21641e-05,0,-2.83619e-06,-1.54713e+09,-1.54499e+09,-1.54662e+09,-379056,-0.0245683,0.0748026,-0,0.0787339,4534.6,-53856.8,0,54047.4,379056
step02_gravity_refstate-mantle.xmf,963,-4.24427e-07,5.13161e-06,0,-6.29494e-06,-1.22271e+09,-1.22197e+09,-1.22265e+09,-841318,-0.00437147,0.169691,-0,0.169747,4712.82,-43840.4,0,44092.9,841318
step02_gravity_refstate-mantle.xmf,964,-3.69979e-07,4.30781e-06,0,-6.24059e-06,-1.20072e+09,-1.2001e+09,-1.20067e+09,-834055,0.000523486,0.173379,0,0.17338,4689.33,-43159.5,0,43413.5,834055
step02_gravity_refstate-mantle.xmf,965,-3.22255e-07,3.52344e-06,0,-6.13593e-06,-1.17996e+09,-1.17945e+09,-1.17992e+09,-820067,0.00540145,0.176859,0,0.176942,4641.31,-42516.5,0,42769.1,820067
step02_gravity_refstate-mantle.xmf,966,-4.83844e-06,1.31669e-05,0,-8.58821e-07,-1.66054e+09,-1.65813e+09,-1.65989e+09,-114781,-0.0161413,0.0346728,-0,0.0382458,3038.55,-57355.8,0,57436.2,114781
step02_gravity_refstate-mantle.xmf,967,-4.83361e-06,1.3157e-05,0,-5.27145e-07,-1.69123e+09,-1.68883e+09,-1.69059e+09,-70452.9,-0.0156371,0.0222691,-0,0.0272109,2980.08,-58304,0,58380.1,70452.9
step02_gravity_refstate-mantle.xmf,968,-4.91071e-06,1.32623e-05,0,-2.25748e-07,-1.72051e+09,-1.71808e+09,-1.71986e+09,-30171.2,-0.0142449,0.0104984,-0,0.0176956,2717.75,-59208.3,0,59270.6,30171.2
step02_gravity_refstate-mantle.xmf,969,-5.07634e-06,1.35062e-05,0,3.03997e-09,-1.74616e+09,-1.74368e+09,-1.74548e+09,406.291,-0.0116331,-1.36504e-19,-0,0.0116331,2200.02,-60000,0,60040.3,406.291
step02_gravity_refstate-mantle.xmf,970,-1.21477e-06,9.13318e-06,0,-4.96919e-06,-1.40491e+09,-1.40353e+09,-1.40475e+09,-664132,-0.0282645,0.114562,-0,0.117997,5576.69,-49473.4,0,49786.7,664132
step02_gravity_refstate-mantle.xmf,971,-8.56819e-07,8.65162e-06,0,-5.12149e-06,-1.38319e+09,-1.38192e+09,-1.38308e+09,-684487,-0.0273543,0.120708,-0,0.123769,5562,-48803.8,0,49119.7,684487
step02_gravity_refstate-mantle.xmf,972,-5.50126e-07,8.15493e-06,0,-5.19913e-06,-1.36159e+09,-1.36042e+09,-1.36151e+09,-694863,-0.0259807,0.126573,-0,0.129212,5542.63,-48137.2,0,48455.2,694863
step02_gravity_refstate-mantle.xmf,973,-3.29595e-07,7.66455e-06,0,-5.22136e-06,-1.34e+09,-1.33893e+09,-1.33995e+09,-697834,-0.0240706,0.132219,-0,0.134392,5516.36,-47470.5,0,47789.9,697834
step02_gravity_refstate-mantle.xmf,974,-2.16649e-07,7.19355e-06,0,-5.23453e-06,-1.31787e+09,-1.31688e+09,-1.31784e+09,-699595,-0.0215157,0.137997,-0,0.139664,5468.99,-46786.4,0,47105,699595
step02_gravity_refstate-mantle.xmf,975,-2.02387e-07,6.7455e-06,0,-5.26692e-06,-1.29623e+09,-1.2953e+09,-1.29621e+09,-703923,-0.0184449,0.143595,-0,0.144774,5408.78,-46117.1,0,46433.2,703923
step02_gravity_refstate-mantle.xmf,976,-2.38618e-07,6.27711e-06,0,-5.31106e-06,-1.27524e+09,-1.27437e+09,-1.27521e+09,-709823,-0.0149715,0.148669,-0,0.149421,5357.32,-45467.1,0,45781.7,709823
step02_gravity_refstate-mantle.xmf,977,-2.84724e-06,1.11823e-05,0,-4.19552e-06,-1.47576e+09,-1.47389e+09,-1.47538e+09,-560732,-0.0275024,0.0975704,-0,0.101372,5012.72,-51656.4,0,51899,560732
step02_gravity_refstate-mantle.xmf,978,-4.09419e-06,1.22773e-05,0,-1.94132e-06,-1.59907e+09,-1.59688e+09,-1.59852e+09,-259457,-0.023143,0.05568,-0,0.0602981,4416.05,-55459.8,0,55635.4,259457
step02_gravity_refstate-mantle.xmf,979,-1.57383e-06,9.56447e-06,0,-4.75029e-06,-1.42616e+09,-1.42467e+09,-1.42595e+09,-634876,-0.0287829,0.108316,-0,0.112075,5586.21,-50128.4,0,50438.7,634876
step02_gravity_refstate-mantle.xmf,980,-2.13858e-06,1.02214e-05,0,-4.40698e-06,-1.45524e+09,-1.45359e+09,-1.45496e+09,-588993,-0.0288117,0.100396,-0,0.104449,5482.03,-51024.9,0,51318.5,588993
step02_gravity_refstate-mantle.xmf,981,-3.07894e-07,2.79031e-06,0,-5.93026e-06,-1.15987e+09,-1.15945e+09,-1.15983e+09,-792579,0.0103456,0.17976,0,0.180057,4594.45,-41893.9,0,42145.1,792579
step02_gravity_refstate-mantle.xmf,982,-6.30523e-07,8.35308e-07,0,-4.94345e-06,-1.09879e+09,-1.09859e+09,-1.0987e+09,-660693,0.0270173,0.191117,0,0.193017,4185.58,-40000,0,40218.4,660693
step02_gravity_refstate-mantle.xmf,983,-3.65575e-07,2.13439e-06,0,-5.60988e-06,-1.13975e+09,-1.13941e+09,-1.1397e+09,-749761,0.015521,0.182176,0,0.182836,4549.42,-41270.3,0,41520.3,749761
step02_gravity_refstate-mantle.xmf,984,-5.82286e-07,1.5645e-06,0,-5.13829e-06,-1.1175e+09,-1.11722e+09,-1.11743e+09,-686733,0.0215177,0.184192,0,0.185445,4509.85,-40580.3,0,40830.2,686733
step02_gravity_refstate-mantle.xmf,985,-4.44602e-06,1.26613e-05,0,-1.19889e-06,-1.64483e+09,-1.64254e+09,-1.64423e+09,-160232,-0.0201562,0.0395074,-0,0.0443521,3867.45,-56871.9,0,57003.2,160232
step02_gravity_refstate-mantle.xmf,986,-2.84207e-07,5.74057e-06,0,-5.32603e-06,-1.25422e+09,-1.25341e+09,-1.25418e+09,-711823,-0.0110788,0.152967,-0,0.153368,5335.35,-44816.1,0,45132.6,711823
step02_gravity_refstate-mantle.xmf,987,-2.91464e-06,1.10468e-05,0,-3.65885e-06,-1.50219e+09,-1.50033e+09,-1.5018e+09,-489005,-0.0279071,0.0865504,-0,0.0909383,5275.16,-52472,0,52736.5,489005
step02_gravity_refstate-mantle.xmf,988,-3.19649e-06,1.12714e-05,0,-3.10616e-06,-1.5335e+09,-1.53157e+09,-1.53307e+09,-415138,-0.0274134,0.0757861,-0,0.0805917,5269.36,-53437.8,0,53696.9,415138
step02_gravity_refstate-mantle.xmf,989,-3.92179e-06,1.19795e-05,0,-1.61172e-06,-1.62405e+09,-1.62192e+09,-1.62352e+09,-215406,-0.0241729,0.0452489,-0,0.0513009,4764.55,-56231.8,0,56433.3,215406
step02_gravity_refstate-mantle.xmf,990,-3.53708e-06,1.15282e-05,0,-2.15128e-06,-1.5905e+09,-1.58848e+09,-1.59003e+09,-287518,-0.0263347,0.0559374,-0,0.0618265,5216.7,-55196.8,0,55442.8,287518
step02_gravity_refstate-mantle.xmf,991,-3.3873e-06,1.1415e-05,0,-2.61711e-06,-1.56202e+09,-1.56005e+09,-1.56157e+09,-349777,-0.0269033,0.065868,-0,0.0711504,5254.18,-54318,0,54571.5,349777
step02_gravity_refstate-mantle.xmf,992,-3.35406e-07,5.14286e-06,0,-5.33643e-06,-1.23234e+09,-1.23161e+09,-1.23229e+09,-713214,-0.00664937,0.157239,-0,0.15738,5302.42,-44138.4,0,44455.8,713214
step02_gravity_refstate-mantle.xmf,993,-3.8646e-07,4.50797e-06,0,-5.29506e-06,-1.2105e+09,-1.20984e+09,-1.21045e+09,-707685,-0.00191128,0.160923,-0,0.160935,5279.39,-43461.8,0,43781.3,707685
step02_gravity_refstate-mantle.xmf,994,-5.28879e-07,3.25791e-06,0,-5.10796e-06,-1.16775e+09,-1.16725e+09,-1.16768e+09,-682679,0.00815033,0.167969,0,0.168167,5174.39,-42137.2,0,42453.7,682679
step02_gravity_refstate-mantle.xmf,995,-4.47976e-07,3.86672e-06,0,-5.21969e-06,-1.1887e+09,-1.18813e+09,-1.18864e+09,-697612,0.00309671,0.164512,0,0.164542,5237.39,-42786.5,0,43105.8,697612
step02_gravity_refstate-mantle.xmf,996,-4.45914e-06,1.26481e-05,0,-7.85468e-07,-1.67769e+09,-1.67541e+09,-1.6771e+09,-104978,-0.0196577,0.0267317,-0,0.0331814,3825.5,-57887,0,58013.2,104978
step02_gravity_refstate-mantle.xmf,997,-4.46132e-06,1.26541e-05,0,-3.63159e-07,-1.71379e+09,-1.7115e+09,-1.71319e+09,-48536.2,-0.0193971,0.0126413,-0,0.0231528,3812.26,-59001.9,0,59125,48536.2
step02_gravity_refstate-mantle.xmf,998,-4.67914e-06,1.29829e-05,0,2.47665e-09,-1.74612e+09,-1.74376e+09,-1.74549e+09,331.005,-0.0170117,-1.60556e-19,-0,0.0170117,3302.13,-60000,0,60090.8,331.005
step02_gravity_refstate-mantle.xmf,999,-1.0155e-06,8.60203e-06,0,-4.45942e-06,-1.41687e+09,-1.41558e+09,-1.41673e+09,-596001,-0.0293196,0.10501,-0,0.109026,6175.93,-49842.7,0,50223.9,596001
step02_gravity_refstate-mantle.xmf,1000,-6.73741e-07,8.12713e-06,0,-4.58937e-06,-1.39384e+09,-1.39266e+09,-1.39375e+09,-613370,-0.0283665,0.111038,-0,0.114604,6169.65,-49132.5,0,49518.4,613370
step02_gravity_refstate-mantle.xmf,1001,-3.89249e-07,7.66569e-06,0,-4.65166e-06,-1.37188e+09,-1.3708e+09,-1.37183e+09,-621694,-0.0270227,0.11662,-0,0.11971,6150.87,-48454.9,0,48843.7,621694
step02_gravity_refstate-mantle.xmf,1002,-1.73015e-07,7.21227e-06,0,-4.6602e-06,-1.35005e+09,-1.34906e+09,-1.35003e+09,-622835,-0.0252087,0.121983,-0,0.124561,6123.41,-47780.9,0,48171.7,622835
step02_gravity_refstate-mantle.xmf,1003,-3.82818e-08,6.76143e-06,0,-4.63153e-06,-1.32772e+09,-1.32681e+09,-1.32771e+09,-619004,-0.0228172,0.127244,-0,0.129274,6090.61,-47090.7,0,47483,619004
step02_gravity_refstate-mantle.xmf,1004,-1.78462e-09,6.34262e-06,0,-4.61102e-06,-1.30531e+09,-1.30446e+09,-1.30531e+09,-616262,-0.0198613,0.132604,-0,0.134083,6031.57,-46397.8,0,46788.2,616262
step02_gravity_refstate-mantle.xmf,1005,-4.45416e-08,5.95604e-06,0,-4.61651e-06,-1.28376e+09,-1.28296e+09,-1.28376e+09,-616997,-0.0165125,0.137763,-0,0.138749,5958.73,-45730.9,0,46117.4,616997
step02_gravity_refstate-mantle.xmf,1006,-1.13093e-07,5.55017e-06,0,-4.59358e-06,-1.2637e+09,-1.26294e+09,-1.26368e+09,-613931,-0.0129901,0.141783,-0,0.142377,5929.73,-45109.6,0,45497.6,613931
step02_gravity_refstate-mantle.xmf,1007,-2.35219e-06,1.03642e-05,0,-3.96831e-06,-1.47964e+09,-1.47795e+09,-1.47933e+09,-530365,-0.0290674,0.0914282,-0,0.0959376,5627.63,-51777.5,0,52082.5,530365
step02_gravity_refstate-mantle.xmf,1008,-1.42252e-06,9.11577e-06,0,-4.25547e-06,-1.44184e+09,-1.44043e+09,-1.44165e+09,-568743,-0.0298797,0.0984618,-0,0.102896,6144.5,-50612.8,0,50984.4,568743
step02_gravity_refstate-mantle.xmf,1009,-6.45269e-07,2.71295e-06,0,-4.94646e-06,-1.14782e+09,-1.14737e+09,-1.14773e+09,-661094,0.0131625,0.171122,0,0.171627,5102.15,-41519.3,0,41831.6,661094
step02_gravity_refstate-mantle.xmf,1010,-1.25997e-06,1.62372e-06,0,-4.38225e-06,-1.09886e+09,-1.09847e+09,-1.09869e+09,-585687,0.0264379,0.179774,0,0.181708,4798.49,-40000,0,40286.8,585687
step02_gravity_refstate-mantle.xmf,1011,-8.61037e-07,2.30073e-06,0,-4.65501e-06,-1.12864e+09,-1.12821e+09,-1.12852e+09,-622142,0.0181188,0.172835,0,0.173782,5089.09,-40924.3,0,41239.5,622142
step02_gravity_refstate-mantle.xmf,1012,-3.98339e-06,1.20214e-05,0,-1.10111e-06,-1.66007e+09,-1.65793e+09,-1.65954e+09,-147163,-0.0235959,0.0320014,-0,0.0397599,4721.07,-57344.3,0,57538.3,147163
step02_gravity_refstate-mantle.xmf,1013,-2.02992e-07,5.07526e-06,0,-4.52736e-06,-1.2426e+09,-1.2419e+09,-1.24257e+09,-605082,-0.00892696,0.145245,-0,0.145519,5931.04,-44456.1,0,44850,605082
step02_gravity_refstate-mantle.xmf,1014,-1.80548e-06,9.55067e-06,0,-3.95155e-06,-1.46797e+09,-1.46645e+09,-1.46773e+09,-528125,-0.0301356,0.0909753,-0,0.0958367,6137.7,-51418.5,0,51783.5,528125
step02_gravity_refstate-mantle.xmf,1015,-2.24131e-06,1.00581e-05,0,-3.62162e-06,-1.49473e+09,-1.49308e+09,-1.49443e+09,-484030,-0.0298664,0.0838382,-0,0.0889991,6008.78,-52243.4,0,52587.8,484030
step02_gravity_refstate-mantle.xmf,1016,-2.51562e-06,1.03243e-05,0,-3.22395e-06,-1.52077e+09,-1.51905e+09,-1.52043e+09,-430880,-0.0296899,0.0756217,-0,0.0812412,6010.43,-53046.6,0,53386,430880
step02_gravity_refstate-mantle.xmf,1017,-2.76298e-06,1.05619e-05,0,-2.79134e-06,-1.54873e+09,-1.54695e+09,-1.54836e+09,-373062,-0.0293631,0.0666845,-0,0.072863,5994.56,-53909.4,0,54241.7,373062
step02_gravity_refstate-mantle.xmf,1018,-3.29827e-06,1.11347e-05,0,-1.81441e-06,-1.61356e+09,-1.61163e+09,-1.61312e+09,-242496,-0.0277246,0.0461065,-0,0.0538002,5712.85,-55909.8,0,56200.9,242496
step02_gravity_refstate-mantle.xmf,1019,-2.973e-06,1.07655e-05,0,-2.35868e-06,-1.57685e+09,-1.57502e+09,-1.57646e+09,-315237,-0.0289139,0.0576194,-0,0.0644672,5952.19,-54777.2,0,55099.7,315237
step02_gravity_refstate-mantle.xmf,1020,-1.1808e-06,2.04097e-06,0,-4.33655e-06,-1.11168e+09,-1.11125e+09,-1.11152e+09,-579580,0.0225685,0.173428,0,0.17489,5120.14,-40397.7,0,40720.9,579580
step02_gravity_refstate-mantle.xmf,1021,-3.26348e-07,4.57362e-06,0,-4.47763e-06,-1.22022e+09,-1.21956e+09,-1.22017e+09,-598435,-0.00426498,0.149045,-0,0.149106,5902.98,-43762.5,0,44158.8,598435
step02_gravity_refstate-mantle.xmf,1022,-4.70287e-07,4.06444e-06,0,-4.4238e-06,-1.19769e+09,-1.19708e+09,-1.19763e+09,-591241,0.000736877,0.152856,0,0.152858,5854.08,-43064.4,0,43460.5,591241
step02_gravity_refstate-mantle.xmf,1023,-8.22585e-07,3.09608e-06,0,-4.27231e-06,-1.15427e+09,-1.15375e+09,-1.15416e+09,-570994,0.0111192,0.160324,0,0.160709,5692.98,-41718.4,0,42105.1,570994
step02_gravity_refstate-mantle.xmf,1024,-6.37502e-07,3.56081e-06,0,-4.34688e-06,-1.17533e+09,-1.17476e+09,-1.17524e+09,-580961,0.00596548,0.156537,0,0.15665,5790.82,-42371.2,0,42765.1,580961
step02_gravity_refstate-mantle.xmf,1025,-3.44116e-06,1.12913e-05,0,-1.36998e-06,-1.64415e+09,-1.64218e+09,-1.64369e+09,-183098,-0.0270727,0.0357903,-0,0.0448763,5615.68,-56854.1,0,57130.8,183098
step02_gravity_refstate-mantle.xmf,1026,-4.01838e-06,1.20558e-05,0,-6.8912e-07,-1.69136e+09,-1.68921e+09,-1.69082e+09,-92100.8,-0.0232385,0.0204142,-0,0.0309317,4692.07,-58310.5,0,58498.9,92100.8
step02_gravity_refstate-mantle.xmf,1027,-4.17191e-06,1.23087e-05,0,-6.4563e-10,-1.74606e+09,-1.74386e+09,-1.74551e+09,-86.2885,-0.0219217,-1.29224e-19,-0,0.0219217,4411.14,-60000,0,60161.9,86.2885
step02_gravity_refstate-mantle.xmf,1028,-8.4236e-07,8.13302e-06,0,-3.97246e-06,-1.42957e+09,-1.42837e+09,-1.42945e+09,-530919,-0.0303249,0.0957285,-0,0.100417,6807.31,-50235,0,50694.2,530919
step02_gravity_refstate-mantle.xmf,1029,-5.1883e-07,7.67091e-06,0,-4.08903e-06,-1.40516e+09,-1.40406e+09,-1.40509e+09,-546499,-0.0293179,0.101726,-0,0.105867,6804.58,-49482,0,49947.7,546499
step02_gravity_refstate-mantle.xmf,1030,-2.57101e-07,7.24281e-06,0,-4.14802e-06,-1.38234e+09,-1.38134e+09,-1.38231e+09,-554382,-0.0279606,0.107277,-0,0.110861,6776.91,-48777.9,0,49246.4,554382
step02_gravity_refstate-mantle.xmf,1031,-5.05045e-08,6.81726e-06,0,-4.14591e-06,-1.36005e+09,-1.35913e+09,-1.36005e+09,-554101,-0.0262006,0.112389,-0,0.115403,6753.37,-48089.6,0,48561.5,554101
step02_gravity_refstate-mantle.xmf,1032,8.53607e-08,6.406e-06,0,-4.10563e-06,-1.33776e+09,-1.33692e+09,-1.33777e+09,-548718,-0.0239641,0.117316,-0,0.119739,6722.34,-47401,0,47875.3,548718
step02_gravity_refstate-mantle.xmf,1033,1.43097e-07,5.99025e-06,0,-4.04079e-06,-1.3142e+09,-1.31342e+09,-1.31422e+09,-540052,-0.0210598,0.122343,-0,0.124142,6681.74,-46672.6,0,47148.5,540052
step02_gravity_refstate-mantle.xmf,1034,1.08223e-07,5.62054e-06,0,-4.00761e-06,-1.29081e+09,-1.29008e+09,-1.29083e+09,-535617,-0.0176365,0.12769,-0,0.128903,6593.91,-45948.8,0,46419.6,535617
step02_gravity_refstate-mantle.xmf,1035,7.88854e-09,5.4052e-06,0,-4.08383e-06,-1.27216e+09,-1.27144e+09,-1.27216e+09,-545804,-0.0145354,0.133072,-0,0.133863,6431.84,-45371.4,0,45825,545804
step02_gravity_refstate-mantle.xmf,1036,-5.90022e-08,4.99708e-06,0,-3.88546e-06,-1.2544e+09,-1.25372e+09,-1.25439e+09,-519292,-0.0113063,0.134068,-0,0.134544,6566.61,-44821.2,0,45299.7,519292
step02_gravity_refstate-mantle.xmf,1037,-1.19527e-06,8.59231e-06,0,-3.78811e-06,-1.45488e+09,-1.45357e+09,-1.45472e+09,-506281,-0.0309583,0.089326,-0,0.0945386,6790.13,-51015.7,0,51465.6,506281
step02_gravity_refstate-mantle.xmf,1038,-9.78097e-07,2.71001e-06,0,-4.25716e-06,-1.13736e+09,-1.13686e+09,-1.13723e+09,-568969,0.0154712,0.16446,0,0.165186,5535.92,-41193.9,0,41564.2,568969
step02_gravity_refstate-mantle.xmf,1039,-1.68157e-06,2.1956e-06,0,-3.87049e-06,-1.0989e+09,-1.09838e+09,-1.09868e+09,-517292,0.025487,0.168899,0,0.170811,5441.79,-40000,0,40368.5,517292
step02_gravity_refstate-mantle.xmf,1040,-1.3789e-06,2.53171e-06,0,-3.86684e-06,-1.11858e+09,-1.11805e+09,-1.11839e+09,-516804,0.0200487,0.163393,0,0.164618,5695.03,-40610.6,0,41008,516804
step02_gravity_refstate-mantle.xmf,1041,-3.51608e-06,1.13767e-05,0,-9.2589e-07,-1.67601e+09,-1.67402e+09,-1.67554e+09,-123745,-0.0266832,0.0247105,-0,0.0363676,5579.19,-57838.2,0,58106.6,123745
step02_gravity_refstate-mantle.xmf,1042,-4.00017e-06,1.20506e-05,0,-3.2611e-07,-1.71976e+09,-1.71761e+09,-1.71922e+09,-43584.6,-0.0233365,0.00979271,-0,0.0253079,4748.27,-59187.9,0,59378.1,43584.6
step02_gravity_refstate-mantle.xmf,1043,-2.25811e-07,4.57187e-06,0,-3.80229e-06,-1.23058e+09,-1.22994e+09,-1.23055e+09,-508176,-0.00661829,0.137925,-0,0.138084,6543.95,-44083.4,0,44566.5,508176
step02_gravity_refstate-mantle.xmf,1044,-1.54248e-06,9.00926e-06,0,-3.52548e-06,-1.48127e+09,-1.47986e+09,-1.48107e+09,-471180,-0.0312936,0.0822399,-0,0.0879926,6777.01,-51829.8,0,52271,471180
step02_gravity_refstate-mantle.xmf,1045,-1.86361e-06,9.37711e-06,0,-3.2097e-06,-1.50822e+09,-1.50671e+09,-1.50797e+09,-428977,-0.0313743,0.0747218,-0,0.0810413,6756.26,-52660.8,0,53092.5,428977
step02_gravity_refstate-mantle.xmf,1046,-2.84645e-06,1.04745e-05,0,-1.57756e-06,-1.62858e+09,-1.6268e+09,-1.6282e+09,-210840,-0.0300538,0.0386024,-0,0.0489222,6519.66,-56375,0,56750.8,210840
step02_gravity_refstate-mantle.xmf,1047,-2.13637e-06,9.6746e-06,0,-2.85138e-06,-1.53557e+09,-1.53399e+09,-1.53529e+09,-381087,-0.0313049,0.0667251,-0,0.0737037,6746.03,-53504.8,0,53928.4,381087
step02_gravity_refstate-mantle.xmf,1048,-2.36742e-06,9.92301e-06,0,-2.478e-06,-1.56288e+09,-1.56124e+09,-1.56256e+09,-331184,-0.0311097,0.0585599,-0,0.0663105,6725.24,-54347.5,0,54762,331184
step02_gravity_refstate-mantle.xmf,1049,-2.63819e-06,1.023e-05,0,-2.02782e-06,-1.59588e+09,-1.59416e+09,-1.59553e+09,-271018,-0.0306062,0.0487116,-0,0.0575288,6624.09,-55365.9,0,55760.7,271018
step02_gravity_refstate-mantle.xmf,1050,-4.27379e-07,4.15677e-06,0,-3.72945e-06,-1.20688e+09,-1.20627e+09,-1.20683e+09,-498441,-0.00160161,0.141658,-0,0.141667,6507.88,-43348.9,0,43834.7,498441
step02_gravity_refstate-mantle.xmf,1051,-6.634e-07,3.75137e-06,0,-3.66464e-06,-1.18312e+09,-1.18253e+09,-1.18304e+09,-489779,0.00372473,0.145458,0,0.145506,6447.54,-42612.4,0,43097.4,489779
step02_gravity_refstate-mantle.xmf,1052,-1.19356e-06,2.96109e-06,0,-3.67758e-06,-1.13748e+09,-1.13692e+09,-1.13732e+09,-491509,0.0148338,0.155441,0,0.156148,6100.33,-41196.8,0,41646,491509
step02_gravity_refstate-mantle.xmf,1053,-9.29606e-07,3.35508e-06,0,-3.62547e-06,-1.15951e+09,-1.15894e+09,-1.15938e+09,-484544,0.00929484,0.149707,0,0.149995,6336.75,-41880.1,0,42356.8,484544
step02_gravity_refstate-mantle.xmf,1054,-2.97731e-06,1.06333e-05,0,-1.14078e-06,-1.66038e+09,-1.65856e+09,-1.65999e+09,-152465,-0.029653,0.0283775,-0,0.0410437,6461.03,-57357.1,0,57719.8,152465
step02_gravity_refstate-mantle.xmf,1055,-3.56247e-06,1.14444e-05,0,-5.03536e-07,-1.70758e+09,-1.70557e+09,-1.7071e+09,-67297.6,-0.0264208,0.0136191,-0,0.0297244,5552.89,-58813.1,0,59074.6,67297.6
step02_gravity_refstate-mantle.xmf,1056,-3.58784e-06,1.15255e-05,0,-8.94338e-10,-1.746e+09,-1.74398e+09,-1.74552e+09,-119.528,-0.0262724,-9.09937e-20,-0,0.0262724,5532.04,-60000,0,60254.5,119.528
step02_gravity_refstate-mantle.xmf,1057,-6.68465e-07,7.68775e-06,0,-3.51017e-06,-1.44196e+09,-1.44084e+09,-1.44187e+09,-469134,-0.0312531,0.0869342,-0,0.0923813,7479.1,-50617.8,0,51167.3,469134
step02_gravity_refstate-mantle.xmf,1058,-3.76768e-07,7.25709e-06,0,-3.61614e-06,-1.41669e+09,-1.41567e+09,-1.41664e+09,-483298,-0.0301951,0.0928329,-0,0.0976201,7472.97,-49838,0,50395.1,483298
step02_gravity_refstate-mantle.xmf,1059,-1.33583e-07,6.8473e-06,0,-3.66568e-06,-1.39277e+09,-1.39184e+09,-1.39276e+09,-489918,-0.0288012,0.0982879,-0,0.102421,7447.72,-49099.9,0,49661.6,489918
step02_gravity_refstate-mantle.xmf,1060,5.43125e-08,6.45777e-06,0,-3.66516e-06,-1.36982e+09,-1.36896e+09,-1.36982e+09,-489849,-0.0270553,0.103348,-0,0.106831,7414.26,-48391.1,0,48955.8,489849
step02_gravity_refstate-mantle.xmf,1061,1.76898e-07,6.10104e-06,0,-3.63285e-06,-1.34791e+09,-1.34712e+09,-1.34794e+09,-485531,-0.0249785,0.10808,-0,0.110929,7369.22,-47714.3,0,48280.1,485531
step02_gravity_refstate-mantle.xmf,1062,2.41648e-07,5.72742e-06,0,-3.55135e-06,-1.32511e+09,-1.32438e+09,-1.32515e+09,-474638,-0.0223564,0.112515,-0,0.114715,7346.14,-47009.5,0,47580.1,474638
step02_gravity_refstate-mantle.xmf,1063,9.34195e-08,4.97203e-06,0,-3.4277e-06,-1.27059e+09,-1.26993e+09,-1.2706e+09,-458112,-0.0142231,0.123946,-0,0.124759,7145.74,-45322.3,0,45882.2,458112
step02_gravity_refstate-mantle.xmf,1064,2.21956e-07,5.32135e-06,0,-3.447e-06,-1.29847e+09,-1.29779e+09,-1.2985e+09,-460691,-0.0186976,0.117537,-0,0.119015,7306.64,-46185.4,0,46759.8,460691
step02_gravity_refstate-mantle.xmf,1065,-9.81831e-08,4.53961e-06,0,-3.24239e-06,-1.24278e+09,-1.24216e+09,-1.24277e+09,-433346,-0.00914456,0.127209,-0,0.127537,7213.05,-44461,0,45042.3,433346
step02_gravity_refstate-mantle.xmf,1066,-9.67449e-07,8.08958e-06,0,-3.33626e-06,-1.4677e+09,-1.46649e+09,-1.46757e+09,-445891,-0.0319791,0.0805773,-0,0.0866912,7488.33,-51411.9,0,51954.4,445891
step02_gravity_refstate-mantle.xmf,1067,-1.96649e-06,2.63734e-06,0,-3.3919e-06,-1.09893e+09,-1.09831e+09,-1.09866e+09,-453327,0.024253,0.158511,0,0.160356,6117.1,-40000,0,40465,453327
step02_gravity_refstate-mantle.xmf,1068,-3.06148e-06,1.07508e-05,0,-7.1288e-07,-1.69208e+09,-1.69023e+09,-1.69167e+09,-95276.4,-0.0293597,0.0179778,-0,0.0344266,6420.55,-58335.9,0,58688.2,95276.4
step02_gravity_refstate-mantle.xmf,1069,-3.37396e-07,4.19093e-06,0,-3.14884e-06,-1.21729e+09,-1.21669e+09,-1.21725e+09,-420843,-0.0040645,0.131032,-0,0.131095,7184.49,-43671.1,0,44258.2,420843
step02_gravity_refstate-mantle.xmf,1070,-1.26435e-06,8.46116e-06,0,-3.09822e-06,-1.4945e+09,-1.4932e+09,-1.49433e+09,-414077,-0.0324433,0.0736486,-0,0.0804779,7497.75,-52238.8,0,52774.1,414077
step02_gravity_refstate-mantle.xmf,1071,-1.53936e-06,8.79171e-06,0,-2.81243e-06,-1.52189e+09,-1.52051e+09,-1.52168e+09,-375882,-0.0326858,0.0663114,-0,0.0739295,7502.23,-53083.9,0,53611.4,375882
step02_gravity_refstate-mantle.xmf,1072,-2.42015e-06,9.85158e-06,0,-1.30546e-06,-1.64483e+09,-1.64319e+09,-1.64451e+09,-174475,-0.0321085,0.0312924,-0,0.0448349,7338.82,-56878.3,0,57349.8,174475
step02_gravity_refstate-mantle.xmf,1073,-2.25588e-06,9.64528e-06,0,-1.71774e-06,-1.61272e+09,-1.61113e+09,-1.61242e+09,-229575,-0.0323771,0.0408157,-0,0.052098,7391.55,-55887,0,56373.7,229575
step02_gravity_refstate-mantle.xmf,1074,-1.79612e-06,9.09489e-06,0,-2.48557e-06,-1.5504e+09,-1.54895e+09,-1.55016e+09,-332196,-0.0327428,0.0584866,-0,0.0670281,7490.74,-53963.7,0,54481.1,332196
step02_gravity_refstate-mantle.xmf,1075,-2.03809e-06,9.38106e-06,0,-2.11741e-06,-1.58079e+09,-1.57926e+09,-1.58052e+09,-282992,-0.0326314,0.0499715,-0,0.0596822,7454.53,-54901.5,0,55405.3,282992
step02_gravity_refstate-mantle.xmf,1076,-1.64684e-06,2.90728e-06,0,-3.25416e-06,-1.11833e+09,-1.11772e+09,-1.11811e+09,-434918,0.0189606,0.151907,0,0.153085,6458.88,-40602.2,0,41112.7,434918
step02_gravity_refstate-mantle.xmf,1077,-6.20017e-07,3.8639e-06,0,-3.07828e-06,-1.19201e+09,-1.19141e+09,-1.19193e+09,-411412,0.0013078,0.134844,0,0.13485,7134.63,-42887.5,0,43476.9,411412
step02_gravity_refstate-mantle.xmf,1078,-9.38892e-07,3.56501e-06,0,-3.02859e-06,-1.16733e+09,-1.16673e+09,-1.16721e+09,-404771,0.0068155,0.138661,0,0.138828,7061.07,-42122.3,0,42710.1,404771
step02_gravity_refstate-mantle.xmf,1079,-1.35258e-06,3.26338e-06,0,-3.00926e-06,-1.13954e+09,-1.13893e+09,-1.13936e+09,-402187,0.0132863,0.143332,0,0.143947,6931.41,-41260.3,0,41838.5,402187
step02_gravity_refstate-mantle.xmf,1080,-2.53967e-06,1.00204e-05,0,-8.95435e-07,-1.67647e+09,-1.67479e+09,-1.67613e+09,-119675,-0.0318541,0.0216837,-0,0.038534,7288.82,-57855.3,0,58312.7,119675
step02_gravity_refstate-mantle.xmf,1081,-3.13072e-06,1.08654e-05,0,-3.38909e-07,-1.72022e+09,-1.71835e+09,-1.7198e+09,-45295.1,-0.0290343,0.00865679,-0,0.0302974,6344.97,-59204.9,0,59544,45295.1
step02_gravity_refstate-mantle.xmf,1082,-4.79496e-07,7.23836e-06,0,-3.06999e-06,-1.45292e+09,-1.45189e+09,-1.45286e+09,-410305,-0.0320604,0.0787971,-0,0.0850697,8203.71,-50956.6,0,51612.7,410305
step02_gravity_refstate-mantle.xmf,1083,-2.39441e-07,6.87329e-06,0,-3.1744e-06,-1.42788e+09,-1.42693e+09,-1.42785e+09,-424259,-0.0309707,0.084519,-0,0.0900147,8170.77,-50183.8,0,50844.6,424259
step02_gravity_refstate-mantle.xmf,1084,-1.88458e-08,6.48561e-06,0,-3.21501e-06,-1.40309e+09,-1.40223e+09,-1.40309e+09,-429686,-0.0295415,0.0898264,-0,0.0945594,8149.04,-49418.6,0,50086,429686
step02_gravity_refstate-mantle.xmf,1085,1.51264e-07,6.12113e-06,0,-3.21559e-06,-1.37899e+09,-1.37819e+09,-1.37901e+09,-429763,-0.027759,0.0949202,-0,0.098896,8105.39,-48674.2,0,49344.5,429763
step02_gravity_refstate-mantle.xmf,1086,2.5593e-07,5.80777e-06,0,-3.19475e-06,-1.3565e+09,-1.35576e+09,-1.35653e+09,-426979,-0.0257152,0.0997174,-0,0.10298,8037.2,-47979.4,0,48647.9,426979
step02_gravity_refstate-mantle.xmf,1087,3.12727e-07,5.49452e-06,0,-3.12977e-06,-1.3347e+09,-1.33401e+09,-1.33474e+09,-418294,-0.0233445,0.103902,-0,0.106492,8000.05,-47305.5,0,47977.2,418294
step02_gravity_refstate-mantle.xmf,1088,3.10202e-07,5.14934e-06,0,-3.0097e-06,-1.31081e+09,-1.31017e+09,-1.31085e+09,-402247,-0.0202872,0.107888,-0,0.109779,7995.71,-46566.8,0,47248.3,402247
step02_gravity_refstate-mantle.xmf,1089,2.11738e-07,4.80118e-06,0,-2.88822e-06,-1.28329e+09,-1.28268e+09,-1.28332e+09,-386011,-0.0162086,0.112591,-0,0.113751,7953.47,-45715.1,0,46401.8,386011
step02_gravity_refstate-mantle.xmf,1090,-2.2397e-07,4.18148e-06,0,-2.6646e-06,-1.22865e+09,-1.22806e+09,-1.22862e+09,-356123,-0.00652666,0.121001,-0,0.121177,7882.71,-44022.7,0,44722.9,356123
step02_gravity_refstate-mantle.xmf,1091,2.66633e-08,4.47611e-06,0,-2.76844e-06,-1.2556e+09,-1.255e+09,-1.2556e+09,-370003,-0.0115391,0.117005,-0,0.117573,7915.2,-44857.6,0,45550.6,370003
step02_gravity_refstate-mantle.xmf,1092,-7.49158e-07,7.62031e-06,0,-2.90901e-06,-1.48036e+09,-1.47924e+09,-1.48026e+09,-388790,-0.0329076,0.0723663,-0,0.0794971,8221.07,-51803.2,0,52451.5,388790
step02_gravity_refstate-mantle.xmf,1093,-2.12942e-06,2.95392e-06,0,-2.95802e-06,-1.09894e+09,-1.09826e+09,-1.09865e+09,-395339,0.0227976,0.148625,0,0.150363,6826.09,-40000,0,40578.3,395339
step02_gravity_refstate-mantle.xmf,1094,-2.59041e-06,1.01103e-05,0,-4.36822e-07,-1.71181e+09,-1.71011e+09,-1.71146e+09,-58381.3,-0.0317746,0.0106856,-0,0.0335233,7296.4,-58946.9,0,59396.8,58381.3
step02_gravity_refstate-mantle.xmf,1095,-2.95869e-06,1.06633e-05,0,-3.7345e-09,-1.74594e+09,-1.74412e+09,-1.74554e+09,-499.117,-0.029996,-1.19834e-19,-0,0.029996,6669.73,-60000,0,60369.6,499.117
step02_gravity_refstate-mantle.xmf,1096,-5.1467e-07,3.92518e-06,0,-2.59878e-06,-1.2031e+09,-1.20251e+09,-1.20303e+09,-347327,-0.00142031,0.124879,-0,0.124887,7826.01,-43230.9,0,43933.6,347327
step02_gravity_refstate-mantle.xmf,1097,-2.01445e-06,9.26254e-06,0,-1.03351e-06,-1.66109e+09,-1.65958e+09,-1.66082e+09,-138129,-0.0338784,0.0246439,-0,0.0418935,8159.59,-57381.7,0,57958.9,138129
step02_gravity_refstate-mantle.xmf,1098,-9.88848e-07,7.93287e-06,0,-2.68673e-06,-1.5073e+09,-1.50611e+09,-1.50717e+09,-359081,-0.0334985,0.065574,-0,0.0736349,8269.95,-52634.8,0,53280.5,359081
step02_gravity_refstate-mantle.xmf,1099,-1.23868e-06,8.25378e-06,0,-2.42541e-06,-1.53592e+09,-1.53465e+09,-1.53576e+09,-324155,-0.0338693,0.0583539,-0,0.0674708,8279.42,-53518,0,54154.7,324155
step02_gravity_refstate-mantle.xmf,1100,-1.86235e-06,9.051e-06,0,-1.40948e-06,-1.62919e+09,-1.62773e+09,-1.62894e+09,-188377,-0.0340444,0.0335218,-0,0.047778,8222.71,-56396.9,0,56993.1,188377
step02_gravity_refstate-mantle.xmf,1101,-1.68647e-06,8.82193e-06,0,-1.77856e-06,-1.59716e+09,-1.59575e+09,-1.59693e+09,-237704,-0.0340977,0.0422854,-0,0.0543204,8250.3,-55408,0,56018.9,237704
step02_gravity_refstate-mantle.xmf,1102,-1.47412e-06,8.55204e-06,0,-2.12047e-06,-1.56591e+09,-1.56457e+09,-1.56571e+09,-283401,-0.0340579,0.0505914,-0,0.0609871,8272.75,-54443.5,0,55068.4,283401
step02_gravity_refstate-mantle.xmf,1103,-1.79891e-06,3.12349e-06,0,-2.84393e-06,-1.11665e+09,-1.11599e+09,-1.11641e+09,-380091,0.0182782,0.143591,0,0.14475,7082.78,-40549.8,0,41163.7,380091
step02_gravity_refstate-mantle.xmf,1104,-8.45652e-07,3.6935e-06,0,-2.5551e-06,-1.17801e+09,-1.1774e+09,-1.17789e+09,-341489,0.00385938,0.128615,0,0.128672,7761.31,-42453,0,43156.6,341489
step02_gravity_refstate-mantle.xmf,1105,-1.2198e-06,3.48755e-06,0,-2.52245e-06,-1.15305e+09,-1.15242e+09,-1.15288e+09,-337125,0.00927438,0.132049,0,0.132374,7706.6,-41678.9,0,42385.4,337125
step02_gravity_refstate-mantle.xmf,1106,-2.14595e-06,9.46226e-06,0,-7.0347e-07,-1.68874e+09,-1.68719e+09,-1.68846e+09,-94018.7,-0.0335936,0.0168351,-0,0.0375759,8045.33,-58235.7,0,58788.8,94018.7
step02_gravity_refstate-mantle.xmf,1107,-2.62131e-07,6.75792e-06,0,-2.64972e-06,-1.46107e+09,-1.46013e+09,-1.46103e+09,-354135,-0.032669,0.0714934,-0,0.0786039,8998.31,-51208.4,0,51993,354135
step02_gravity_refstate-mantle.xmf,1108,-1.13368e-07,6.53366e-06,0,-2.77832e-06,-1.43859e+09,-1.4377e+09,-1.43857e+09,-371322,-0.0316309,0.0770414,-0,0.083282,8864.65,-50514.4,0,51286.3,371322
step02_gravity_refstate-mantle.xmf,1109,8.18195e-08,6.16982e-06,0,-2.79641e-06,-1.41436e+09,-1.41354e+09,-1.41437e+09,-373740,-0.030252,0.0817079,-0,0.0871285,8877.84,-49766.4,0,50552,373740
step02_gravity_refstate-mantle.xmf,1110,2.39646e-07,5.81309e-06,0,-2.78843e-06,-1.38883e+09,-1.38809e+09,-1.38886e+09,-372673,-0.0284197,0.0866979,-0,0.0912371,8846.06,-48978,0,49770.4,372673
step02_gravity_refstate-mantle.xmf,1111,3.37288e-07,5.50611e-06,0,-2.77136e-06,-1.36396e+09,-1.36327e+09,-1.36401e+09,-370392,-0.0262428,0.0918573,-0,0.0955324,8751.89,-48209.6,0,48997.6,370392
step02_gravity_refstate-mantle.xmf,1112,3.57492e-07,5.32932e-06,0,-2.79603e-06,-1.34364e+09,-1.34297e+09,-1.34369e+09,-373689,-0.0241766,0.0967862,-0,0.0997601,8582.38,-47581.5,0,48349.3,373689
step02_gravity_refstate-mantle.xmf,1113,3.76124e-07,4.99985e-06,0,-2.63841e-06,-1.32293e+09,-1.32231e+09,-1.32298e+09,-352623,-0.0216594,0.0991763,-0,0.101514,8681.14,-46941.1,0,47737.1,352623
step02_gravity_refstate-mantle.xmf,1114,3.01668e-07,4.67791e-06,0,-2.4909e-06,-1.29627e+09,-1.29569e+09,-1.29631e+09,-332909,-0.0180037,0.103128,-0,0.104688,8686.04,-46116.4,0,46927.3,332909
step02_gravity_refstate-mantle.xmf,1115,1.33402e-07,4.38498e-06,0,-2.35148e-06,-1.26799e+09,-1.26743e+09,-1.26801e+09,-314276,-0.0136022,0.107274,-0,0.108133,8668.89,-45241,0,46064,314276
step02_gravity_refstate-mantle.xmf,1116,-3.99388e-07,3.92978e-06,0,-2.18536e-06,-1.21396e+09,-1.21338e+09,-1.2139e+09,-292073,-0.00389945,0.115533,-0,0.115598,8543.67,-43567.1,0,44396.9,292073
step02_gravity_refstate-mantle.xmf,1117,-1.09617e-07,4.13651e-06,0,-2.24539e-06,-1.24024e+09,-1.23967e+09,-1.24023e+09,-300096,-0.00881271,0.111412,-0,0.11176,8622.92,-44381.4,0,45211.3,300096
step02_gravity_refstate-mantle.xmf,1118,-5.00599e-07,7.11724e-06,0,-2.49698e-06,-1.49081e+09,-1.48979e+09,-1.49075e+09,-333721,-0.0337015,0.0648396,-0,0.0730751,9040.58,-52126.6,0,52904.8,333721
step02_gravity_refstate-mantle.xmf,1119,-1.65113e-06,3.31204e-06,0,-2.53047e-06,-1.1275e+09,-1.12683e+09,-1.12728e+09,-338197,0.0149347,0.135698,0,0.136517,7627,-40886.4,0,41591.7,338197
step02_gravity_refstate-mantle.xmf,1120,-2.20904e-06,3.18876e-06,0,-2.57037e-06,-1.09893e+09,-1.09821e+09,-1.09864e+09,-343530,0.0211807,0.139243,0,0.140845,7570.51,-40000,0,40710.1,343530
step02_gravity_refstate-mantle.xmf,1121,-1.66217e-06,8.75534e-06,0,-7.37241e-07,-1.68107e+09,-1.67968e+09,-1.68085e+09,-98532.2,-0.0352808,0.0177263,-0,0.0394836,8928.67,-58000.2,0,58683.4,98532.2
step02_gravity_refstate-mantle.xmf,1122,-1.94047e-06,9.19014e-06,0,-3.77188e-07,-1.714e+09,-1.71251e+09,-1.71374e+09,-50411.1,-0.0344994,0.00907518,-0,0.0356731,8500.49,-59016.6,0,59625.6,50411.1
step02_gravity_refstate-mantle.xmf,1123,-2.31654e-06,9.76873e-06,0,-4.03491e-09,-1.74587e+09,-1.74426e+09,-1.74556e+09,-539.266,-0.0330549,-9.75429e-20,-0,0.0330549,7829.03,-60000,0,60508.6,539.266
step02_gravity_refstate-mantle.xmf,1124,-7.2281e-07,3.75323e-06,0,-2.16561e-06,-1.18887e+09,-1.18827e+09,-1.18878e+09,-289433,0.00108308,0.119609,0,0.119614,8442.29,-42789.6,0,43614.4,289433
step02_gravity_refstate-mantle.xmf,1125,-1.48732e-06,8.4879e-06,0,-1.10345e-06,-1.64668e+09,-1.64535e+09,-1.64648e+09,-147476,-0.0354753,0.0266266,-0,0.0443562,9071.98,-56938.3,0,57656.5,147476
step02_gravity_refstate-mantle.xmf,1126,-7.30576e-07,7.44323e-06,0,-2.29384e-06,-1.52034e+09,-1.51925e+09,-1.52024e+09,-306571,-0.0344301,0.0579718,-0,0.0674252,9078.67,-53038,0,53809.4,306571
step02_gravity_refstate-mantle.xmf,1127,-9.53837e-07,7.75111e-06,0,-2.05514e-06,-1.55017e+09,-1.54901e+09,-1.55004e+09,-274670,-0.0349145,0.0509107,-0,0.0617327,9088.37,-53958.8,0,54718.8,274670
step02_gravity_refstate-mantle.xmf,1128,-1.33023e-06,8.26323e-06,0,-1.45155e-06,-1.61331e+09,-1.61202e+09,-1.61313e+09,-194000,-0.0354237,0.0351935,-0,0.0499342,9102.27,-55907.8,0,56643.9,194000
step02_gravity_refstate-mantle.xmf,1129,-1.15441e-06,8.02256e-06,0,-1.76968e-06,-1.58129e+09,-1.58006e+09,-1.58113e+09,-236518,-0.0352398,0.0432611,-0,0.0557975,9101.85,-54919.3,0,55668.5,236518
step02_gravity_refstate-mantle.xmf,1130,-8.02888e-08,6.35039e-06,0,-2.23631e-06,-1.47282e+09,-1.47196e+09,-1.47281e+09,-298883,-0.0333005,0.0638033,-0,0.0719707,9851.61,-51571.7,0,52504.2,298883
step02_gravity_refstate-mantle.xmf,1131,-1.08588e-06,3.60023e-06,0,-2.15193e-06,-1.16411e+09,-1.16348e+09,-1.16397e+09,-287605,0.00617015,0.12315,0,0.123305,8376.17,-42021.9,0,42848.5,287605
step02_gravity_refstate-mantle.xmf,1132,-1.48416e-06,3.45549e-06,0,-2.17091e-06,-1.13927e+09,-1.13861e+09,-1.13907e+09,-290142,0.0113863,0.126703,0,0.127214,8299.86,-41251.5,0,42078.2,290142
step02_gravity_refstate-mantle.xmf,1133,1.04319e-08,6.21895e-06,0,-2.3834e-06,-1.45147e+09,-1.45064e+09,-1.45148e+09,-318541,-0.0323167,0.0691658,-0,0.0763432,9652.39,-50912.5,0,51819.4,318541
step02_gravity_refstate-mantle.xmf,1134,1.67235e-07,5.90829e-06,0,-2.414e-06,-1.42752e+09,-1.42675e+09,-1.42754e+09,-322631,-0.0309889,0.0738451,-0,0.0800838,9623.76,-50172.7,0,51087.4,322631
step02_gravity_refstate-mantle.xmf,1135,3.11881e-07,5.56122e-06,0,-2.39906e-06,-1.40081e+09,-1.4001e+09,-1.40085e+09,-320634,-0.0291507,0.0786726,-0,0.0838996,9611.75,-49347.7,0,50275.1,320634
step02_gravity_refstate-mantle.xmf,1136,4.06875e-07,5.23266e-06,0,-2.35727e-06,-1.37334e+09,-1.3727e+09,-1.3734e+09,-315049,-0.0268386,0.083638,-0,0.0878387,9562.21,-48499.3,0,49432.9,315049
step02_gravity_refstate-mantle.xmf,1137,4.33437e-07,4.92999e-06,0,-2.32918e-06,-1.3419e+09,-1.3413e+09,-1.34195e+09,-311295,-0.0236648,0.0900902,-0,0.0931465,9376.46,-47527.2,0,48443.3,311295
step02_gravity_refstate-mantle.xmf,1138,3.77997e-07,4.56539e-06,0,-2.14374e-06,-1.31028e+09,-1.30972e+09,-1.31033e+09,-286511,-0.0197115,0.094152,-0,0.0961933,9446.22,-46549.2,0,47498,286511
step02_gravity_refstate-mantle.xmf,1139,2.27639e-07,4.29735e-06,0,-2.00396e-06,-1.28097e+09,-1.28042e+09,-1.281e+09,-267829,-0.015518,0.0983268,-0,0.0995438,9429.49,-45642.1,0,46606,267829
step02_gravity_refstate-mantle.xmf,1140,-2.45981e-09,4.0734e-06,0,-1.88355e-06,-1.25205e+09,-1.25151e+09,-1.25205e+09,-251737,-0.0109055,0.102341,-0,0.10292,9400.71,-44746.9,0,45723.7,251737
step02_gravity_refstate-mantle.xmf,1141,-6.24906e-07,3.74989e-06,0,-1.80711e-06,-1.19724e+09,-1.19666e+09,-1.19716e+09,-241521,-0.00103166,0.111245,-0,0.11125,9162.61,-43048.8,0,44013.1,241521
step02_gravity_refstate-mantle.xmf,1142,-2.9204e-07,3.89306e-06,0,-1.81116e-06,-1.22409e+09,-1.22353e+09,-1.22405e+09,-242061,-0.00604839,0.106517,-0,0.106689,9323.47,-43880.6,0,44860.2,242061
step02_gravity_refstate-mantle.xmf,1143,-2.88937e-07,6.68664e-06,0,-2.10224e-06,-1.50364e+09,-1.50271e+09,-1.50361e+09,-280965,-0.0344202,0.0573736,-0,0.0669065,9890.13,-52523.3,0,53446.3,280965
step02_gravity_refstate-mantle.xmf,1144,-1.86512e-06,3.34477e-06,0,-2.24973e-06,-1.11754e+09,-1.11685e+09,-1.11729e+09,-300676,0.0160854,0.130463,0,0.131451,8167.4,-40577.6,0,41391.4,300676
step02_gravity_refstate-mantle.xmf,1145,-1.12854e-06,7.95176e-06,0,-7.98156e-07,-1.6666e+09,-1.66539e+09,-1.66645e+09,-106674,-0.0366714,0.0198241,-0,0.0416867,9944.71,-57554.6,0,58407.4,106674
step02_gravity_refstate-mantle.xmf,1146,-1.2911e-06,8.24481e-06,0,-3.88423e-07,-1.70829e+09,-1.70701e+09,-1.70811e+09,-51912.8,-0.0365563,0.00959944,-0,0.0377957,9775.71,-58841.9,0,59648.4,51912.8
step02_gravity_refstate-mantle.xmf,1147,-1.69086e-06,8.87506e-06,0,-5.79464e-09,-1.74581e+09,-1.7444e+09,-1.74558e+09,-774.454,-0.0354308,-9.52878e-20,-0,0.0354308,9014.66,-60000,0,60673.4,774.454
step02_gravity_refstate-mantle.xmf,1148,-9.37546e-07,3.64784e-06,0,-1.87261e-06,-1.17492e+09,-1.17431e+09,-1.1748e+09,-250274,0.00343451,0.116021,0,0.116072,8939.41,-42357,0,43290.1,250274
step02_gravity_refstate-mantle.xmf,1149,-9.83497e-07,7.72315e-06,0,-1.13355e-06,-1.63067e+09,-1.6295e+09,-1.63054e+09,-151499,-0.0365532,0.0284282,-0,0.0463066,9998,-56445,0,57323.6,151499
step02_gravity_refstate-mantle.xmf,1150,-4.9181e-07,6.99681e-06,0,-1.92327e-06,-1.53414e+09,-1.53314e+09,-1.53407e+09,-257046,-0.0352312,0.0507943,-0,0.0618166,9915.12,-53464.7,0,54376.3,257046
step02_gravity_refstate-mantle.xmf,1151,-6.68527e-07,7.25621e-06,0,-1.69658e-06,-1.56485e+09,-1.56379e+09,-1.56476e+09,-226748,-0.0358326,0.0438215,-0,0.0566065,9962.46,-54412.7,0,55317.2,226748
step02_gravity_refstate-mantle.xmf,1152,-8.33209e-07,7.49774e-06,0,-1.43159e-06,-1.59712e+09,-1.59601e+09,-1.59701e+09,-191331,-0.0362706,0.0363421,-0,0.051345,9993.7,-55409.2,0,56303.2,191331
step02_gravity_refstate-mantle.xmf,1153,5.43998e-08,6.04144e-06,0,-1.89779e-06,-1.48569e+09,-1.48489e+09,-1.4857e+09,-253640,-0.0338513,0.0570869,-0,0.0663689,10625.7,-51969.3,0,53044.5,253640
step02_gravity_refstate-mantle.xmf,1154,2.14272e-07,5.74321e-06,0,-2.05419e-06,-1.44851e+09,-1.44777e+09,-1.44854e+09,-274542,-0.0320774,0.0651608,-0,0.0726284,10393.1,-50821.1,0,51873,274542
step02_gravity_refstate-mantle.xmf,1155,-2.21737e-06,3.3341e-06,0,-2.21787e-06,-1.09892e+09,-1.09818e+09,-1.09863e+09,-296418,0.0194491,0.130367,0,0.131809,8352.15,-40000,0,40862.7,296418
step02_gravity_refstate-mantle.xmf,1156,-1.3154e-06,3.53801e-06,0,-1.78184e-06,-1.15055e+09,-1.1499e+09,-1.15037e+09,-238142,0.00799841,0.117065,0,0.117338,9107.58,-41601.3,0,42586.6,238142
step02_gravity_refstate-mantle.xmf,1157,-1.80022e-06,3.42808e-06,0,-1.96315e-06,-1.12145e+09,-1.12075e+09,-1.12121e+09,-262375,0.0141661,0.123441,0,0.124251,8786.49,-40698.9,0,41636.6,262375
step02_gravity_refstate-mantle.xmf,1158,3.78945e-07,5.34575e-06,0,-2.04478e-06,-1.41469e+09,-1.41403e+09,-1.41474e+09,-273284,-0.0299161,0.0709211,-0,0.0769725,10400.6,-49776.6,0,50851.6,273284
step02_gravity_refstate-mantle.xmf,1159,4.65024e-07,5.02536e-06,0,-1.99885e-06,-1.38536e+09,-1.38475e+09,-1.38542e+09,-267146,-0.027578,0.0758157,-0,0.0806757,10373,-48870.3,0,49959.1,267146
step02_gravity_refstate-mantle.xmf,1160,4.90804e-07,4.72792e-06,0,-1.92654e-06,-1.35535e+09,-1.35478e+09,-1.35541e+09,-257482,-0.0247065,0.0807729,-0,0.084467,10313.3,-47942.5,0,49039.3,257482
step02_gravity_refstate-mantle.xmf,1161,4.42017e-07,4.44883e-06,0,-1.81819e-06,-1.32467e+09,-1.32413e+09,-1.32473e+09,-243002,-0.0212281,0.0855006,-0,0.0880965,10264.1,-46993.9,0,48101.8,243002
step02_gravity_refstate-mantle.xmf,1162,3.10682e-07,4.20535e-06,0,-1.69172e-06,-1.29445e+09,-1.29393e+09,-1.29449e+09,-226098,-0.0172664,0.0897653,-0,0.0914109,10236.8,-46059,0,47182.9,226098
step02_gravity_refstate-mantle.xmf,1163,1.01561e-07,4.00501e-06,0,-1.57424e-06,-1.2648e+09,-1.26428e+09,-1.26481e+09,-210397,-0.0129108,0.0937802,-0,0.0946648,10206.7,-45141.1,0,46280.6,210397
step02_gravity_refstate-mantle.xmf,1164,-9.37918e-07,3.62391e-06,0,-1.56907e-06,-1.17528e+09,-1.17467e+09,-1.17515e+09,-209706,0.00271688,0.109317,0,0.109351,9633.56,-42367.9,0,43449.3,209706
step02_gravity_refstate-mantle.xmf,1165,-1.8186e-07,3.84322e-06,0,-1.48249e-06,-1.23503e+09,-1.23449e+09,-1.235e+09,-198134,-0.0081351,0.0977553,-0,0.0980932,10163.8,-44219.1,0,45372.1,198134
step02_gravity_refstate-mantle.xmf,1166,-5.59567e-07,3.71157e-06,0,-1.43274e-06,-1.20287e+09,-1.2023e+09,-1.2028e+09,-191486,-0.00260506,0.102159,-0,0.102192,10088,-43222.9,0,44384.6,191486
step02_gravity_refstate-mantle.xmf,1167,-1.20377e-07,6.34742e-06,0,-1.76941e-06,-1.51724e+09,-1.51638e+09,-1.51723e+09,-236482,-0.0350066,0.0508105,-0,0.0617022,10672.8,-52943.6,0,54008.6,236482
step02_gravity_refstate-mantle.xmf,1168,-6.41024e-07,7.19267e-06,0,-8.46612e-07,-1.64808e+09,-1.64703e+09,-1.64799e+09,-113150,-0.0374424,0.0223315,-0,0.0435962,10935.8,-56983.7,0,58023.6,113150
step02_gravity_refstate-mantle.xmf,1169,-7.44696e-07,7.37951e-06,0,-5.35126e-07,-1.68528e+09,-1.6842e+09,-1.68518e+09,-71519.6,-0.0376508,0.0139771,-0,0.0401614,10911.1,-58132.8,0,59147.9,71519.6
step02_gravity_refstate-mantle.xmf,1170,-1.09854e-06,8.00476e-06,0,-2.13534e-09,-1.74575e+09,-1.74454e+09,-1.74561e+09,-285.388,-0.0371304,-6.88441e-20,-0,0.0371304,10231.2,-60000,0,60866.1,285.388
step02_gravity_refstate-mantle.xmf,1171,-5.27651e-07,7.00111e-06,0,-1.12111e-06,-1.61355e+09,-1.61254e+09,-1.61347e+09,-149836,-0.0370831,0.0299771,-0,0.0476842,10911.1,-55917.3,0,56971.9,149836
step02_gravity_refstate-mantle.xmf,1172,-2.61913e-07,6.57603e-06,0,-1.587e-06,-1.5476e+09,-1.54668e+09,-1.54756e+09,-212103,-0.0358667,0.0443034,-0,0.0570019,10775.5,-53880.9,0,54947.8,212103
step02_gravity_refstate-mantle.xmf,1173,-3.75641e-07,6.75509e-06,0,-1.36611e-06,-1.57877e+09,-1.57781e+09,-1.57872e+09,-182580,-0.0365584,0.0374189,-0,0.0523134,10900.2,-54843.4,0,55916.1,182580
step02_gravity_refstate-mantle.xmf,1174,1.70811e-07,5.78881e-06,0,-1.59967e-06,-1.50007e+09,-1.49932e+09,-1.50009e+09,-213795,-0.0343641,0.0508535,-0,0.0613756,11370.6,-52413.6,0,53632.7,213795
step02_gravity_refstate-mantle.xmf,1175,3.18603e-07,5.47861e-06,0,-1.69718e-06,-1.46426e+09,-1.46357e+09,-1.46431e+09,-226829,-0.0327076,0.0575834,-0,0.0662241,11270.2,-51307.7,0,52531,226829
step02_gravity_refstate-mantle.xmf,1176,-2.17471e-06,3.42516e-06,0,-1.90146e-06,-1.09891e+09,-1.09816e+09,-1.09862e+09,-254130,0.017645,0.12199,0,0.123259,9172.9,-40000,0,41038.3,254130
step02_gravity_refstate-mantle.xmf,1177,-1.72785e-06,3.48383e-06,0,-1.64248e-06,-1.1242e+09,-1.1235e+09,-1.12397e+09,-219518,0.0121999,0.115195,0,0.11584,9606.39,-40784.4,0,41900.4,219518
step02_gravity_refstate-mantle.xmf,1178,-8.14137e-07,7.53118e-06,0,-2.4349e-07,-1.71888e+09,-1.71777e+09,-1.71877e+09,-32542.5,-0.0377101,0.00627674,-0,0.0382289,10857.3,-59170.6,0,60158.4,32542.5
step02_gravity_refstate-mantle.xmf,1179,-1.29953e-06,3.54378e-06,0,-1.4328e-06,-1.15041e+09,-1.14976e+09,-1.15024e+09,-191493,0.00680713,0.10848,0,0.108693,10038.3,-41597.1,0,42791.1,191493
step02_gravity_refstate-mantle.xmf,1180,4.44332e-07,5.15296e-06,0,-1.71593e-06,-1.43075e+09,-1.43012e+09,-1.43081e+09,-229334,-0.0307027,0.0633351,-0,0.0703846,11226.4,-50272.6,0,51510.8,229334
step02_gravity_refstate-mantle.xmf,1181,5.22833e-07,4.84435e-06,0,-1.68251e-06,-1.39877e+09,-1.39819e+09,-1.39884e+09,-224868,-0.0283212,0.0684926,-0,0.074117,11191.3,-49284.3,0,50539,224868
step02_gravity_refstate-mantle.xmf,1182,5.40086e-07,4.58289e-06,0,-1.62437e-06,-1.36871e+09,-1.36817e+09,-1.36878e+09,-217098,-0.025644,0.0732687,-0,0.0776268,11129.1,-48355.3,0,49619.5,217098
step02_gravity_refstate-mantle.xmf,1183,4.98958e-07,4.32955e-06,0,-1.5242e-06,-1.33839e+09,-1.33787e+09,-1.33845e+09,-203710,-0.0224518,0.0775759,-0,0.0807596,11110.3,-47417.7,0,48701.9,203710
step02_gravity_refstate-mantle.xmf,1184,3.8822e-07,4.11581e-06,0,-1.41572e-06,-1.30886e+09,-1.30836e+09,-1.30891e+09,-189212,-0.0189009,0.0816727,-0,0.0838312,11075.9,-46504.3,0,47805.1,189212
step02_gravity_refstate-mantle.xmf,1185,2.02526e-07,3.93492e-06,0,-1.30845e-06,-1.27863e+09,-1.27813e+09,-1.27866e+09,-174874,-0.0148303,0.0857105,-0,0.0869841,11038,-45568.9,0,46886.7,174874
step02_gravity_refstate-mantle.xmf,1186,-5.67941e-08,3.79073e-06,0,-1.21986e-06,-1.24811e+09,-1.2476e+09,-1.2481e+09,-163034,-0.0103231,0.0897193,-0,0.0903113,10989.4,-44624,0,45957.2,163034
step02_gravity_refstate-mantle.xmf,1187,-9.30785e-07,3.58922e-06,0,-1.27187e-06,-1.17503e+09,-1.17443e+09,-1.17491e+09,-169985,0.00198384,0.102154,0,0.102174,10465.5,-42360.3,0,43633.9,169985
step02_gravity_refstate-mantle.xmf,1188,-3.64135e-07,3.68503e-06,0,-1.16572e-06,-1.21897e+09,-1.21843e+09,-1.21892e+09,-155799,-0.00571066,0.0935014,-0,0.0936757,10935.1,-43721.6,0,45068.3,155799
step02_gravity_refstate-mantle.xmf,1189,2.34419e-08,6.07202e-06,0,-1.49747e-06,-1.53034e+09,-1.52954e+09,-1.53035e+09,-200137,-0.0354571,0.0452391,-0,0.0574786,11385.1,-53348.6,0,54549.9,200137
step02_gravity_refstate-mantle.xmf,1190,-3.14885e-07,6.68873e-06,0,-5.93679e-07,-1.6662e+09,-1.66526e+09,-1.66615e+09,-79345.2,-0.0380538,0.0167894,-0,0.0415929,11903.8,-57544.3,0,58762.6,79345.2
step02_gravity_refstate-mantle.xmf,1191,-2.03365e-07,6.47838e-06,0,-8.48186e-07,-1.62805e+09,-1.62715e+09,-1.62802e+09,-113360,-0.0376443,0.0245206,-0,0.044926,11928.7,-56366,0,57614.4,113360
step02_gravity_refstate-mantle.xmf,1192,-3.37838e-07,6.7895e-06,0,-2.76988e-07,-1.70804e+09,-1.70709e+09,-1.708e+09,-37019.4,-0.0383406,0.00795383,-0,0.0391569,12004.1,-58837.1,0,60049.2,37019.4
step02_gravity_refstate-mantle.xmf,1193,-5.63128e-07,7.19281e-06,0,-5.03165e-09,-1.74571e+09,-1.74467e+09,-1.74563e+09,-672.48,-0.0381686,-9.12814e-20,-0,0.0381686,11483.3,-60000,0,61089,672.48
step02_gravity_refstate-mantle.xmf,1194,-6.60507e-07,3.6113e-06,0,-1.13675e-06,-1.1944e+09,-1.19383e+09,-1.19431e+09,-151926,-0.00167548,0.0963186,-0,0.0963332,10930.1,-42960.5,0,44329.1,151926
step02_gravity_refstate-mantle.xmf,1195,-7.34022e-08,6.23929e-06,0,-1.06523e-06,-1.59123e+09,-1.59039e+09,-1.59122e+09,-142367,-0.03703,0.0317497,-0,0.0487777,11937.1,-55229.1,0,56504.4,142367
step02_gravity_refstate-mantle.xmf,1196,6.17751e-08,5.99107e-06,0,-1.2663e-06,-1.55297e+09,-1.55218e+09,-1.55298e+09,-169241,-0.0361153,0.0392245,-0,0.0533186,11864.6,-54047.6,0,55334.6,169241
step02_gravity_refstate-mantle.xmf,1197,2.79985e-07,5.567e-06,0,-1.32527e-06,-1.51705e+09,-1.51634e+09,-1.51709e+09,-177123,-0.0348761,0.0447115,-0,0.0567051,12119.8,-52938.3,0,54307.9,177123
step02_gravity_refstate-mantle.xmf,1198,4.16808e-07,5.25441e-06,0,-1.38934e-06,-1.48165e+09,-1.481e+09,-1.48171e+09,-185686,-0.0332998,0.0506207,-0,0.0605915,12124.9,-51844.9,0,53243.8,185686
step02_gravity_refstate-mantle.xmf,1199,5.22404e-07,4.95299e-06,0,-1.41252e-06,-1.44664e+09,-1.44605e+09,-1.44671e+09,-188783,-0.0313295,0.0563162,-0,0.0644442,12089.9,-50763.4,0,52183.2,188783
step02_gravity_refstate-mantle.xmf,1200,-2.09544e-06,3.47103e-06,0,-1.62152e-06,-1.09889e+09,-1.09814e+09,-1.09861e+09,-216716,0.0158026,0.114105,0,0.115194,10034.7,-40000,0,41239.5,216716
step02_gravity_refstate-mantle.xmf,1201,-1.6608e-06,3.49898e-06,0,-1.36153e-06,-1.12469e+09,-1.12401e+09,-1.12447e+09,-181968,0.0106003,0.107424,0,0.107945,10497.6,-40800.2,0,42129,181968
step02_gravity_refstate-mantle.xmf,1202,-1.25786e-06,3.52503e-06,0,-1.1588e-06,-1.15029e+09,-1.14965e+09,-1.15012e+09,-154874,0.00566201,0.101058,0,0.101216,10948.4,-41593.6,0,43010.5,154874
step02_gravity_refstate-mantle.xmf,1203,5.84718e-07,4.6718e-06,0,-1.39501e-06,-1.41276e+09,-1.41222e+09,-1.41284e+09,-186443,-0.0289787,0.0616534,-0,0.0681242,12033.6,-49716.7,0,51152.3,186443
step02_gravity_refstate-mantle.xmf,1204,5.96422e-07,4.41947e-06,0,-1.34202e-06,-1.38082e+09,-1.38031e+09,-1.3809e+09,-179361,-0.0263145,0.0664777,-0,0.0714964,11974.5,-48729.4,0,50179.1,179361
step02_gravity_refstate-mantle.xmf,1205,5.47519e-07,4.26877e-06,0,-1.32469e-06,-1.35316e+09,-1.35266e+09,-1.35323e+09,-177045,-0.0237118,0.0713433,-0,0.0751805,11779.2,-47874.3,0,49302.1,177045
step02_gravity_refstate-mantle.xmf,1206,4.57975e-07,4.03274e-06,0,-1.17875e-06,-1.32332e+09,-1.32284e+09,-1.32338e+09,-157540,-0.0203204,0.0743255,-0,0.0770532,11917.8,-46951.3,0,48440.3,157540
step02_gravity_refstate-mantle.xmf,1207,3.06063e-07,3.86602e-06,0,-1.07659e-06,-1.29437e+09,-1.29389e+09,-1.29441e+09,-143887,-0.0167431,0.0779416,-0,0.0797196,11905.5,-46055.4,0,47569.3,143887
step02_gravity_refstate-mantle.xmf,1208,6.86153e-08,3.73104e-06,0,-9.90749e-07,-1.2625e+09,-1.26201e+09,-1.26251e+09,-132414,-0.0124365,0.0820386,-0,0.0829759,11851.4,-45069.3,0,46601.4,132414
step02_gravity_refstate-mantle.xmf,1209,-2.26092e-07,3.63388e-06,0,-9.35152e-07,-1.23138e+09,-1.23087e+09,-1.23135e+09,-124983,-0.00789719,0.0860019,-0,0.0863637,11789.1,-44105.8,0,45654.1,124983
step02_gravity_refstate-mantle.xmf,1210,-8.95661e-07,3.5442e-06,0,-1.01542e-06,-1.17543e+09,-1.17483e+09,-1.17531e+09,-135711,0.00110802,0.0952907,0,0.0952971,11350.9,-42372.5,0,43866.5,135711
step02_gravity_refstate-mantle.xmf,1211,-5.53959e-07,3.57329e-06,0,-9.36213e-07,-1.20204e+09,-1.20149e+09,-1.20197e+09,-125125,-0.0033448,0.0902293,-0,0.0902912,11650,-43197.1,0,44740.5,125125
step02_gravity_refstate-mantle.xmf,1212,-3.57179e-08,6.27468e-06,0,-4.08418e-07,-1.6832e+09,-1.68236e+09,-1.6832e+09,-54585,-0.0383463,0.0122812,-0,0.0402649,12780.3,-58070.5,0,59460.2,54585
step02_gravity_refstate-mantle.xmf,1213,5.50915e-08,6.06768e-06,0,-5.96084e-07,-1.64847e+09,-1.64767e+09,-1.64848e+09,-79666.6,-0.0379888,0.0187863,-0,0.0423801,12871.9,-56997.8,0,58433.1,79666.6
step02_gravity_refstate-mantle.xmf,1214,1.68758e-07,5.83313e-06,0,-7.86857e-07,-1.60995e+09,-1.6092e+09,-1.60998e+09,-105163,-0.037358,0.0257721,-0,0.0453852,12930.5,-55808,0,57286.4,105163
step02_gravity_refstate-mantle.xmf,1215,-8.24869e-08,6.43665e-06,0,-2.54189e-09,-1.74566e+09,-1.74479e+09,-1.74565e+09,-339.724,-0.038585,-7.40703e-20,-0,0.038585,12775.3,-60000,0,61345,339.724
step02_gravity_refstate-mantle.xmf,1216,2.83765e-07,5.59084e-06,0,-9.4491e-07,-1.57216e+09,-1.57145e+09,-1.5722e+09,-126287,-0.0364678,0.0324325,-0,0.0488034,12940.8,-54640.9,0,56152.4,126287
step02_gravity_refstate-mantle.xmf,1217,4.09785e-07,5.3135e-06,0,-1.05433e-06,-1.5348e+09,-1.53415e+09,-1.53486e+09,-140911,-0.0352593,0.0386514,-0,0.0523178,12970.4,-53486.9,0,55037.1,140911
step02_gravity_refstate-mantle.xmf,1218,5.19458e-07,5.03739e-06,0,-1.12155e-06,-1.49847e+09,-1.49787e+09,-1.49854e+09,-149895,-0.0337307,0.0444739,-0,0.0558183,12971,-52364.6,0,53947.2,149895
step02_gravity_refstate-mantle.xmf,1219,6.08257e-07,4.75609e-06,0,-1.1372e-06,-1.46322e+09,-1.46267e+09,-1.46331e+09,-151986,-0.0318447,0.0497635,-0,0.0590804,12984.9,-51275.8,0,52894.3,151986
step02_gravity_refstate-mantle.xmf,1220,6.56276e-07,4.4954e-06,0,-1.12215e-06,-1.42812e+09,-1.4276e+09,-1.4282e+09,-149976,-0.0295616,0.054943,-0,0.0623909,12950.8,-50190.9,0,51834.8,149976
step02_gravity_refstate-mantle.xmf,1221,-1.575e-06,3.4852e-06,0,-1.1208e-06,-1.12491e+09,-1.12424e+09,-1.1247e+09,-149795,0.00905549,0.100229,0,0.100638,11428.7,-40807.5,0,42377.7,149795
step02_gravity_refstate-mantle.xmf,1222,-1.98937e-06,3.48095e-06,0,-1.37397e-06,-1.09886e+09,-1.09813e+09,-1.0986e+09,-183631,0.0139518,0.106704,0,0.107612,10939.7,-40000,0,41469,183631
step02_gravity_refstate-mantle.xmf,1223,1.08557e-07,6.06854e-06,0,-1.98441e-07,-1.71139e+09,-1.71059e+09,-1.7114e+09,-26521.7,-0.0385061,0.00647363,-0,0.0390465,13317.9,-58941.6,0,60427.5,26521.7
step02_gravity_refstate-mantle.xmf,1224,-1.17874e-06,3.48911e-06,0,-9.24848e-07,-1.15164e+09,-1.15102e+09,-1.15148e+09,-123606,0.00429969,0.0941043,0,0.0942025,11888.3,-41635.7,0,43299.7,123606
step02_gravity_refstate-mantle.xmf,1225,6.55083e-07,4.25367e-06,0,-1.07692e-06,-1.39277e+09,-1.39229e+09,-1.39286e+09,-143931,-0.0268079,0.0600297,-0,0.0657436,12888.4,-49098.6,0,50762,143931
step02_gravity_refstate-mantle.xmf,1226,5.81413e-07,4.0353e-06,0,-1.02201e-06,-1.35337e+09,-1.35291e+09,-1.35345e+09,-136592,-0.0232058,0.0659892,-0,0.0699506,12714,-47880.3,0,49539.5,136592
step02_gravity_refstate-mantle.xmf,1227,4.33898e-07,3.80488e-06,0,-8.68301e-07,-1.31617e+09,-1.31572e+09,-1.31623e+09,-116048,-0.0190628,0.0696867,-0,0.072247,12864.3,-46729.7,0,48468.1,116048
step02_gravity_refstate-mantle.xmf,1228,2.00481e-07,3.66699e-06,0,-7.87891e-07,-1.27927e+09,-1.27881e+09,-1.2793e+09,-105302,-0.0145748,0.0745085,-0,0.0759206,12765.6,-45588.1,0,47341.7,105302
step02_gravity_refstate-mantle.xmf,1229,-8.19158e-08,3.57506e-06,0,-7.32933e-07,-1.24553e+09,-1.24504e+09,-1.24551e+09,-97956.5,-0.0100708,0.0787612,-0,0.0794025,12685.4,-44543.4,0,46314.5,97956.5
step02_gravity_refstate-mantle.xmf,1230,-4.16674e-07,3.51597e-06,0,-7.17705e-07,-1.21239e+09,-1.21187e+09,-1.21234e+09,-95921.3,-0.00535729,0.0829832,-0,0.083156,12588.5,-43517.6,0,45301.8,95921.3
step02_gravity_refstate-mantle.xmf,1231,-7.88056e-07,3.49082e-06,0,-7.80896e-07,-1.1807e+09,-1.18013e+09,-1.1806e+09,-104367,-0.000523722,0.0881582,-0,0.0881598,12311.7,-42536.1,0,44282,104367
step02_gravity_refstate-mantle.xmf,1232,2.89494e-07,5.72547e-06,0,-3.86846e-07,-1.67242e+09,-1.6717e+09,-1.67246e+09,-51702,-0.038124,0.0131922,-0,0.040342,13777.2,-57738.3,0,59359.3,51702
step02_gravity_refstate-mantle.xmf,1233,3.88691e-07,5.46946e-06,0,-5.50168e-07,-1.63102e+09,-1.63034e+09,-1.63108e+09,-73530,-0.0374868,0.0201752,-0,0.0425711,13910.8,-56459.4,0,58147.9,73530
step02_gravity_refstate-mantle.xmf,1234,4.80892e-07,5.2456e-06,0,-6.88634e-07,-1.59152e+09,-1.59088e+09,-1.59158e+09,-92036,-0.0366017,0.0266457,-0,0.0452734,13956.1,-55239.2,0,56974.9,92036
step02_gravity_refstate-mantle.xmf,1235,3.3149e-07,5.7526e-06,0,-4.15736e-09,-1.74563e+09,-1.74491e+09,-1.74568e+09,-555.631,-0.0384165,-7.18645e-20,-0,0.0384165,14111.6,-60000,0,61637.2,555.631
step02_gravity_refstate-mantle.xmf,1236,5.67376e-07,5.01955e-06,0,-7.92884e-07,-1.55326e+09,-1.55266e+09,-1.55333e+09,-105969,-0.0354409,0.0327194,-0,0.048235,13960.6,-54057.3,0,55830.9,105969
step02_gravity_refstate-mantle.xmf,1237,6.43198e-07,4.79091e-06,0,-8.61674e-07,-1.51617e+09,-1.51562e+09,-1.51626e+09,-115163,-0.0339874,0.0384227,-0,0.0512977,13937.3,-52911.6,0,54716.4,115163
step02_gravity_refstate-mantle.xmf,1238,7.03108e-07,4.55924e-06,0,-8.87636e-07,-1.48087e+09,-1.48036e+09,-1.48097e+09,-118633,-0.032241,0.0435759,-0,0.0542064,13924.6,-51821,0,53659.2,118633
step02_gravity_refstate-mantle.xmf,1239,7.35514e-07,4.32669e-06,0,-8.78584e-07,-1.44511e+09,-1.44463e+09,-1.44521e+09,-117423,-0.0300832,0.0485803,-0,0.0571405,13902,-50716,0,52586.8,117423
step02_gravity_refstate-mantle.xmf,1240,7.25968e-07,4.10875e-06,0,-8.40612e-07,-1.40908e+09,-1.40863e+09,-1.40918e+09,-112348,-0.02749,0.0534733,-0,0.0601256,13856.2,-49602.4,0,51501.4,112348
step02_gravity_refstate-mantle.xmf,1241,-1.47578e-06,3.44981e-06,0,-9.17044e-07,-1.12492e+09,-1.12427e+09,-1.12473e+09,-122563,0.00758292,0.0936492,0,0.0939557,12391,-40808.4,0,42648.1,122563
step02_gravity_refstate-mantle.xmf,1242,-1.86409e-06,3.46253e-06,0,-1.155e-06,-1.09884e+09,-1.09812e+09,-1.09859e+09,-154366,0.0121183,0.0997764,0,0.10051,11890.1,-40000,0,41729.8,154366
step02_gravity_refstate-mantle.xmf,1243,5.40354e-07,5.30917e-06,0,-1.78733e-07,-1.70271e+09,-1.70208e+09,-1.70279e+09,-23887.7,-0.0379532,0.00712473,-0,0.0386161,14853.7,-58674.5,0,60525.5,23887.7
step02_gravity_refstate-mantle.xmf,1244,-1.07012e-06,3.43628e-06,0,-7.14013e-07,-1.15432e+09,-1.15372e+09,-1.15417e+09,-95427.9,0.00275929,0.087308,0,0.0873516,12906.3,-41719,0,43669.8,95427.9
step02_gravity_refstate-mantle.xmf,1245,6.62347e-07,3.90946e-06,0,-7.77567e-07,-1.37221e+09,-1.37178e+09,-1.3723e+09,-103922,-0.0243699,0.058319,-0,0.063206,13795.4,-48462.5,0,50387.8,103922
step02_gravity_refstate-mantle.xmf,1246,5.28985e-07,3.7298e-06,0,-6.89861e-07,-1.33401e+09,-1.33358e+09,-1.33408e+09,-92199.9,-0.0206084,0.0630047,-0,0.0662895,13759.6,-47281.1,0,49242.6,92199.9
step02_gravity_refstate-mantle.xmf,1247,3.22312e-07,3.59606e-06,0,-6.10227e-07,-1.2964e+09,-1.29596e+09,-1.29644e+09,-81556.8,-0.0164376,0.0675755,-0,0.069546,13697.5,-46117.6,0,48108.7,81556.8
step02_gravity_refstate-mantle.xmf,1248,6.10418e-08,3.50863e-06,0,-5.57057e-07,-1.26096e+09,-1.2605e+09,-1.26097e+09,-74450.6,-0.0121233,0.0719146,-0,0.0729293,13611.3,-45020.9,0,47033.5,74450.6
step02_gravity_refstate-mantle.xmf,1249,-2.48801e-07,3.45587e-06,0,-5.38421e-07,-1.22653e+09,-1.22604e+09,-1.2265e+09,-71960,-0.00762921,0.07616,-0,0.0765411,13510.8,-43955.3,0,45984.9,71960
step02_gravity_refstate-mantle.xmf,1250,-6.469e-07,3.42471e-06,0,-5.52767e-07,-1.18839e+09,-1.18785e+09,-1.18831e+09,-73877.4,-0.00246487,0.0803534,-0,0.0803912,13486.3,-42774.4,0,44850.1,73877.4
step02_gravity_refstate-mantle.xmf,1251,6.22025e-07,5.10839e-06,0,-3.60837e-07,-1.65258e+09,-1.65198e+09,-1.65266e+09,-48225.8,-0.0373116,0.0150854,-0,0.0402458,14991.5,-57125.9,0,59060.3,48225.8
step02_gravity_refstate-mantle.xmf,1252,6.83873e-07,4.89095e-06,0,-4.71189e-07,-1.61057e+09,-1.61e+09,-1.61066e+09,-62974.4,-0.0364438,0.0214994,-0,0.0423128,15050.6,-55828,0,57821.1,62974.4
step02_gravity_refstate-mantle.xmf,1253,7.30556e-07,4.72066e-06,0,-5.7048e-07,-1.57108e+09,-1.57055e+09,-1.57118e+09,-76244.6,-0.0353718,0.0274898,-0,0.044798,14996.2,-54608.2,0,56629.9,76244.6
step02_gravity_refstate-mantle.xmf,1254,6.82929e-07,5.13963e-06,0,-7.62718e-10,-1.74561e+09,-1.74501e+09,-1.7457e+09,-101.937,-0.0377162,-5.06626e-20,-0,0.0377162,15496.7,-60000,0,61968.9,101.937
step02_gravity_refstate-mantle.xmf,1255,7.6892e-07,4.55228e-06,0,-6.36748e-07,-1.53475e+09,-1.53425e+09,-1.53485e+09,-85101.4,-0.034087,0.0328719,-0,0.0473549,14928.6,-53485.8,0,55530.1,85101.4
step02_gravity_refstate-mantle.xmf,1256,8.0271e-07,4.37404e-06,0,-6.70656e-07,-1.50058e+09,-1.5001e+09,-1.50069e+09,-89633.2,-0.0325585,0.0377127,-0,0.0498227,14886.3,-52430,0,54502.3,89633.2
step02_gravity_refstate-mantle.xmf,1257,8.23001e-07,4.16721e-06,0,-6.64017e-07,-1.46485e+09,-1.4644e+09,-1.46496e+09,-88745.9,-0.0305733,0.0424226,-0,0.0522915,14890.5,-51325.9,0,53442.2,88745.9
step02_gravity_refstate-mantle.xmf,1258,8.04832e-07,3.96791e-06,0,-6.34463e-07,-1.427e+09,-1.42658e+09,-1.42711e+09,-84795.9,-0.028089,0.0473252,-0,0.0550333,14851.2,-50156,0,52308.6,84795.9
step02_gravity_refstate-mantle.xmf,1259,7.39557e-07,3.7893e-06,0,-5.82606e-07,-1.38924e+09,-1.38883e+09,-1.38934e+09,-77865.3,-0.025174,0.0520615,-0,0.0578284,14797.5,-48988.8,0,51174.9,77865.3
step02_gravity_refstate-mantle.xmf,1260,-1.34289e-06,3.39753e-06,0,-7.2971e-07,-1.12675e+09,-1.12612e+09,-1.12657e+09,-97525.8,0.00589611,0.0872936,0,0.0874925,13408.9,-40865.6,0,43009.3,97525.8
step02_gravity_refstate-mantle.xmf,1261,-1.72569e-06,3.42214e-06,0,-9.61822e-07,-1.09881e+09,-1.09812e+09,-1.09858e+09,-128547,0.0103247,0.0933132,0,0.0938826,12888,-40000,0,42025,128547
step02_gravity_refstate-mantle.xmf,1262,8.36613e-07,4.7198e-06,0,-1.97511e-07,-1.67425e+09,-1.67373e+09,-1.67436e+09,-26397.4,-0.036781,0.0106267,-0,0.0382854,16146.1,-57795.8,0,60008.8,26397.4
step02_gravity_refstate-mantle.xmf,1263,8.31577e-07,4.8092e-06,0,-9.20395e-08,-1.71429e+09,-1.71376e+09,-1.7144e+09,-12301.1,-0.0370994,0.00468901,-0,0.0373945,16201.6,-59032.8,0,61215.7,12301.1
step02_gravity_refstate-mantle.xmf,1264,-9.77826e-07,3.37196e-06,0,-5.45084e-07,-1.15511e+09,-1.15453e+09,-1.15498e+09,-72850.4,0.0015922,0.0814097,0,0.0814252,13939.7,-41744.1,0,44010,72850.4
step02_gravity_refstate-mantle.xmf,1265,6.17501e-07,3.63387e-06,0,-5.13959e-07,-1.35114e+09,-1.35073e+09,-1.35122e+09,-68690.7,-0.0217704,0.0566415,-0,0.0606812,14747.5,-47810.6,0,50033.4,68690.7
step02_gravity_refstate-mantle.xmf,1266,4.30727e-07,3.51404e-06,0,-4.47747e-07,-1.31289e+09,-1.31247e+09,-1.31294e+09,-59841.3,-0.0179221,0.0612008,-0,0.063771,14670.7,-46627.5,0,48881,59841.3
step02_gravity_refstate-mantle.xmf,1267,1.89991e-07,3.43093e-06,0,-3.96371e-07,-1.27615e+09,-1.27571e+09,-1.27617e+09,-52974.9,-0.0138425,0.0654843,-0,0.0669313,14595.9,-45490.7,0,47775,52974.9
step02_gravity_refstate-mantle.xmf,1268,-8.47517e-08,3.38801e-06,0,-3.84485e-07,-1.2421e+09,-1.24164e+09,-1.24209e+09,-51386.4,-0.00977831,0.069831,-0,0.0705123,14434.5,-44437.1,0,46722.7,51386.4
step02_gravity_refstate-mantle.xmf,1269,-3.88641e-07,3.37717e-06,0,-4.06955e-07,-1.20993e+09,-1.20943e+09,-1.20988e+09,-54389.5,-0.00570561,0.0740079,-0,0.0742275,14267.9,-43441.3,0,45724.4,54389.5
step02_gravity_refstate-mantle.xmf,1270,9.12283e-07,4.49614e-06,0,-2.84785e-07,-1.63056e+09,-1.63008e+09,-1.63068e+09,-38061.6,-0.035837,0.0166191,-0,0.039503,16382.6,-56446,0,58775.4,38061.6
step02_gravity_refstate-mantle.xmf,1271,8.93459e-07,4.41963e-06,0,-3.90732e-07,-1.58656e+09,-1.58609e+09,-1.58668e+09,-52221.4,-0.0349726,0.023142,-0,0.041936,16087.9,-55086.7,0,57387.9,52221.4
step02_gravity_refstate-mantle.xmf,1272,9.17573e-07,4.26054e-06,0,-4.3693e-07,-1.54868e+09,-1.54824e+09,-1.5488e+09,-58395.7,-0.0336941,0.0282928,-0,0.0439974,16058.3,-53916.3,0,56256.9,58395.7
step02_gravity_refstate-mantle.xmf,1273,9.6525e-07,4.6132e-06,0,-2.35334e-09,-1.74559e+09,-1.7451e+09,-1.74572e+09,-314.524,-0.0365288,-6.80464e-20,-0,0.0365288,16934.8,-60000,0,62344.1,314.524
step02_gravity_refstate-mantle.xmf,1274,-6.72536e-07,3.34148e-06,0,-4.0544e-07,-1.18005e+09,-1.17951e+09,-1.17996e+09,-54187.1,-0.00207352,0.0757755,-0,0.0758039,14540.8,-42516.3,0,44934,54187.1
step02_gravity_refstate-mantle.xmf,1275,8.91045e-07,4.22361e-06,0,-5.10013e-07,-1.51874e+09,-1.5183e+09,-1.51886e+09,-68163.2,-0.032718,0.0329797,-0,0.0464556,15732.6,-52991.2,0,55277.4,68163.2
step02_gravity_refstate-mantle.xmf,1276,9.13157e-07,4.02338e-06,0,-4.88854e-07,-1.48601e+09,-1.4856e+09,-1.48613e+09,-65335.4,-0.0309642,0.0368436,-0,0.0481273,15850.1,-51979.8,0,54342.7,65335.4
step02_gravity_refstate-mantle.xmf,1277,8.92517e-07,3.83145e-06,0,-4.56689e-07,-1.44727e+09,-1.44688e+09,-1.44739e+09,-61036.4,-0.028618,0.041479,-0,0.0503934,15875.5,-50782.5,0,53206.1,61036.4
step02_gravity_refstate-mantle.xmf,1278,8.23685e-07,3.66815e-06,0,-4.13649e-07,-1.40746e+09,-1.40708e+09,-1.40757e+09,-55284.2,-0.0258384,0.0462618,-0,0.0529884,15824.8,-49551.9,0,52017.4,55284.2
step02_gravity_refstate-mantle.xmf,1279,7.07704e-07,3.5304e-06,0,-3.57123e-07,-1.36865e+09,-1.36827e+09,-1.36875e+09,-47729.5,-0.0226981,0.0507643,-0,0.0556077,15772.9,-48351.9,0,50859.6,47729.5
step02_gravity_refstate-mantle.xmf,1280,-1.21072e-06,3.33212e-06,0,-5.72991e-07,-1.12803e+09,-1.12743e+09,-1.12787e+09,-76580.3,0.00439205,0.0815515,0,0.0816697,14459,-40905.9,0,43386.1,76580.3
step02_gravity_refstate-mantle.xmf,1281,-1.57795e-06,3.36403e-06,0,-7.91706e-07,-1.09878e+09,-1.09812e+09,-1.09857e+09,-105811,0.0085915,0.0873037,0,0.0877255,13936,-40000,0,42358.1,105811
step02_gravity_refstate-mantle.xmf,1282,1.06892e-06,4.33196e-06,0,-8.28364e-08,-1.7014e+09,-1.70097e+09,-1.70155e+09,-11071.1,-0.0357571,0.00598549,-0,0.0362546,17521.5,-58635.1,0,61197,11071.1
step02_gravity_refstate-mantle.xmf,1283,1.03781e-06,4.30616e-06,0,-1.58043e-07,-1.66115e+09,-1.66071e+09,-1.66129e+09,-21122.4,-0.0355169,0.0115081,-0,0.0373348,17293.9,-57391.4,0,59940.4,21122.4
step02_gravity_refstate-mantle.xmf,1284,-9.10903e-07,3.312e-06,0,-4.32553e-07,-1.15395e+09,-1.15338e+09,-1.15383e+09,-57810.7,0.000877841,0.0769896,0,0.0769946,14848.2,-41708.3,0,44272.5,57810.7
step02_gravity_refstate-mantle.xmf,1285,-3.25108e-07,3.28624e-06,0,-2.63387e-07,-1.21155e+09,-1.21107e+09,-1.21151e+09,-35201.6,-0.00628753,0.0688882,-0,0.0691745,15338.7,-43491.6,0,46117.1,35201.6
step02_gravity_refstate-mantle.xmf,1286,5.36166e-07,3.42191e-06,0,-2.99348e-07,-1.32973e+09,-1.32935e+09,-1.3298e+09,-40007.9,-0.0191435,0.0551936,-0,0.0584192,15706.9,-47148.3,0,49695.8,40007.9
step02_gravity_refstate-mantle.xmf,1287,3.09795e-07,3.3452e-06,0,-2.52932e-07,-1.29117e+09,-1.29077e+09,-1.29122e+09,-33804.4,-0.0152509,0.0595165,-0,0.0614394,15632.9,-45955.5,0,48541.7,33804.4
step02_gravity_refstate-mantle.xmf,1288,3.7928e-08,3.29878e-06,0,-2.30859e-07,-1.25363e+09,-1.25319e+09,-1.25363e+09,-30854.4,-0.0111613,0.0637098,-0,0.0646801,15550.2,-44793.7,0,47416.1,30854.4
step02_gravity_refstate-mantle.xmf,1289,1.13548e-06,4.01304e-06,0,-1.59878e-07,-1.62765e+09,-1.62726e+09,-1.6278e+09,-21367.7,-0.0341881,0.0152209,-0,0.0374232,17930.6,-56356.3,0,59140,21367.7
step02_gravity_refstate-mantle.xmf,1290,1.03931e-06,4.16112e-06,0,-2.65711e-07,-1.59939e+09,-1.59897e+09,-1.59953e+09,-35512.2,-0.0343459,0.0197888,-0,0.0396388,17126,-55483.2,0,58066.2,35512.2
step02_gravity_refstate-mantle.xmf,1291,1.04149e-06,4.00252e-06,0,-2.95298e-07,-1.55727e+09,-1.55687e+09,-1.5574e+09,-39466.5,-0.0330051,0.0251558,-0,0.0414988,17096.4,-54181.6,0,56814.9,39466.5
step02_gravity_refstate-mantle.xmf,1292,1.00994e-06,3.90445e-06,0,-3.39217e-07,-1.51544e+09,-1.51506e+09,-1.51558e+09,-45336.4,-0.031538,0.0308494,-0,0.0441172,16812.3,-52889.3,0,55497.1,45336.4
step02_gravity_refstate-mantle.xmf,1293,1.19413e-06,4.15351e-06,0,-1.0043e-09,-1.74558e+09,-1.74518e+09,-1.74574e+09,-134.224,-0.0349134,-5.91115e-20,-0,0.0349134,18430.4,-60000,0,62766.9,134.224
step02_gravity_refstate-mantle.xmf,1294,-6.77823e-07,3.26355e-06,0,-3.03663e-07,-1.17219e+09,-1.17167e+09,-1.1721e+09,-40584.5,-0.00180115,0.0720585,-0,0.072081,15528.1,-42273.4,0,45035.2,40584.5
step02_gravity_refstate-mantle.xmf,1295,9.86002e-07,3.69823e-06,0,-3.08473e-07,-1.46919e+09,-1.46883e+09,-1.46933e+09,-41227.4,-0.0290118,0.0360805,-0,0.0462979,16903.2,-51460,0,54165,41227.4
step02_gravity_refstate-mantle.xmf,1296,9.14024e-07,3.5454e-06,0,-2.691e-07,-1.42702e+09,-1.42667e+09,-1.42714e+09,-35965.2,-0.0263468,0.04087,-0,0.0486263,16880.7,-50156.4,0,52920.9,35965.2
step02_gravity_refstate-mantle.xmf,1297,7.99085e-07,3.41906e-06,0,-2.19138e-07,-1.38626e+09,-1.38591e+09,-1.38637e+09,-29287.8,-0.0233628,0.0453867,-0,0.0510468,16838.4,-48896.3,0,51714.4,29287.8
step02_gravity_refstate-mantle.xmf,1298,6.38549e-07,3.32143e-06,0,-1.68462e-07,-1.34659e+09,-1.34623e+09,-1.34668e+09,-22514.9,-0.0200768,0.0496951,-0,0.0535974,16784.2,-47669.5,0,50538,22514.9
step02_gravity_refstate-mantle.xmf,1299,-1.02132e-06,3.25533e-06,0,-4.0615e-07,-1.13519e+09,-1.13462e+09,-1.13505e+09,-54281.9,0.0023107,0.0755255,0,0.0755608,15589.7,-41128,0,43983.5,54281.9
step02_gravity_refstate-mantle.xmf,1300,-1.4243e-06,3.2933e-06,0,-6.40803e-07,-1.09876e+09,-1.09812e+09,-1.09857e+09,-85643.4,0.0069379,0.0817384,0,0.0820323,15036.5,-40000,0,42732.8,85643.4
step02_gravity_refstate-mantle.xmf,1301,1.1757e-06,4.03443e-06,0,-1.00594e-07,-1.66791e+09,-1.66753e+09,-1.66807e+09,-13444.4,-0.0345337,0.00990348,-0,0.0359257,18276,-57600.5,0,60430.4,13444.4
step02_gravity_refstate-mantle.xmf,1302,1.29121e-06,3.84655e-06,0,-3.77912e-08,-1.69804e+09,-1.6977e+09,-1.69821e+09,-5050.8,-0.0336855,0.00572916,-0,0.0341692,19251.4,-58531.5,0,61616.2,5050.8
step02_gravity_refstate-mantle.xmf,1303,-4.39819e-07,3.19283e-06,0,-1.71703e-07,-1.19149e+09,-1.191e+09,-1.19143e+09,-22948.1,-0.00445735,0.0664075,-0,0.0665569,16443.8,-42870.8,0,45916.3,22948.1
step02_gravity_refstate-mantle.xmf,1304,4.38201e-07,3.2573e-06,0,-1.3123e-07,-1.30868e+09,-1.3083e+09,-1.30874e+09,-17538.8,-0.0166228,0.0538484,-0,0.0563557,16695.4,-46496.9,0,49403.4,17538.8
step02_gravity_refstate-mantle.xmf,1305,1.85032e-07,3.21556e-06,0,-1.09607e-07,-1.26976e+09,-1.26935e+09,-1.26978e+09,-14649,-0.0127723,0.0579797,-0,0.0593698,16627.9,-45292.8,0,48248.6,14649
step02_gravity_refstate-mantle.xmf,1306,-1.07325e-07,3.19451e-06,0,-1.1835e-07,-1.23096e+09,-1.23052e+09,-1.23094e+09,-15817.4,-0.00871738,0.0621292,-0,0.0627378,16544.1,-44092.3,0,47093.9,15817.4
step02_gravity_refstate-mantle.xmf,1307,1.15522e-06,3.83173e-06,0,-1.84781e-07,-1.57952e+09,-1.57916e+09,-1.57967e+09,-24695.9,-0.0326787,0.0208537,-0,0.0387657,18101.7,-54869.3,0,57778.1,24695.9
step02_gravity_refstate-mantle.xmf,1308,1.28284e-06,3.73576e-06,0,-6.90405e-08,-1.64768e+09,-1.64735e+09,-1.64785e+09,-9227.27,-0.0329978,0.011646,-0,0.0349926,19254,-56975.3,0,60140.7,9227.27
step02_gravity_refstate-mantle.xmf,1309,1.12775e-06,3.68729e-06,0,-1.90851e-07,-1.53468e+09,-1.53434e+09,-1.53483e+09,-25507.2,-0.0310826,0.0261634,-0,0.0406282,18042.5,-53483.9,0,56445.2,25507.2
step02_gravity_refstate-mantle.xmf,1310,1.36949e-06,3.76322e-06,0,4.49398e-11,-1.74557e+09,-1.74525e+09,-1.74575e+09,6.0062,-0.0329184,-4.92032e-20,-0,0.0329184,19987.9,-60000,0,63241.7,6.0062
step02_gravity_refstate-mantle.xmf,1311,-7.24145e-07,3.19928e-06,0,-2.52922e-07,-1.15964e+09,-1.15911e+09,-1.15954e+09,-33803.1,-0.000991893,0.0699278,-0,0.0699348,16349,-41885.1,0,44962.7,33803.1
step02_gravity_refstate-mantle.xmf,1312,1.08279e-06,3.55011e-06,0,-1.79031e-07,-1.49063e+09,-1.4903e+09,-1.49078e+09,-23927.5,-0.029066,0.0311891,-0,0.0426332,17996.6,-52122.5,0,55141.9,23927.5
step02_gravity_refstate-mantle.xmf,1313,1.00654e-06,3.41935e-06,0,-1.47678e-07,-1.44699e+09,-1.44667e+09,-1.44713e+09,-19737.2,-0.0266194,0.0359766,-0,0.0447539,17961,-50773.6,0,53856.9,19737.2
step02_gravity_refstate-mantle.xmf,1314,8.92144e-07,3.30241e-06,0,-1.00974e-07,-1.40422e+09,-1.4039e+09,-1.40434e+09,-13495.2,-0.0237775,0.0404559,-0,0.046926,17949.3,-49451.4,0,52608.2,13495.2
step02_gravity_refstate-mantle.xmf,1315,7.33281e-07,3.21225e-06,0,-5.41509e-08,-1.36207e+09,-1.36174e+09,-1.36217e+09,-7237.27,-0.0206183,0.0448369,-0,0.0493504,17900,-48148.1,0,51367.8,7237.27
step02_gravity_refstate-mantle.xmf,1316,5.4745e-07,3.1572e-06,0,-2.00943e-08,-1.32419e+09,-1.32384e+09,-1.32426e+09,-2685.6,-0.0175032,0.0488521,-0,0.051893,17801.1,-46976.5,0,50236.2,2685.6
step02_gravity_refstate-mantle.xmf,1317,-1.26705e-06,3.21053e-06,0,-5.11614e-07,-1.09873e+09,-1.09813e+09,-1.09856e+09,-68377.3,0.00538047,0.0766065,0,0.0767953,16192.1,-40000,0,43153.1,68377.3
step02_gravity_refstate-mantle.xmf,1318,1.26659e-06,3.62426e-06,0,-8.48282e-08,-1.60194e+09,-1.60163e+09,-1.60211e+09,-11337.3,-0.0319832,0.0168814,-0,0.0361649,19231.2,-55562.3,0,58796.3,11337.3
step02_gravity_refstate-mantle.xmf,1319,1.44076e-06,3.50164e-06,0,-3.80798e-09,-1.70248e+09,-1.7022e+09,-1.70267e+09,-508.937,-0.0314832,0.00471906,-0,0.0318349,20890.2,-58668.7,0,62276.9,508.937
step02_gravity_refstate-mantle.xmf,1320,-9.21291e-07,3.16593e-06,0,-3.06885e-07,-1.13162e+09,-1.13107e+09,-1.1315e+09,-41015.2,0.00150462,0.0709475,0,0.0709635,16798.9,-41018.2,0,44324.9,41015.2
step02_gravity_refstate-mantle.xmf,1321,-5.78475e-07,3.12511e-06,0,-1.49721e-07,-1.16712e+09,-1.16663e+09,-1.16705e+09,-20010.2,-0.00239048,0.0656023,-0,0.0656458,17315.7,-42117.1,0,45537.8,20010.2
step02_gravity_refstate-mantle.xmf,1322,-2.39011e-07,3.10572e-06,0,-5.15877e-08,-1.20766e+09,-1.20721e+09,-1.20763e+09,-6894.69,-0.00650872,0.0608083,-0,0.0611556,17576,-43371.4,0,46797.4,6894.69
step02_gravity_refstate-mantle.xmf,1323,3.21967e-07,3.14788e-06,0,-2.1663e-08,-1.2873e+09,-1.28692e+09,-1.28734e+09,-2895.27,-0.0142733,0.0533284,-0,0.0552055,17509.4,-45835.4,0,49065.9,2895.27
step02_gravity_refstate-mantle.xmf,1324,8.78018e-08,3.11097e-06,0,-1.14206e-08,-1.25116e+09,-1.25076e+09,-1.25117e+09,-1526.36,-0.0107811,0.0563898,-0,0.0574112,17648.7,-44717.5,0,48074.2,1526.36
step02_gravity_refstate-mantle.xmf,1325,1.2373e-06,3.51343e-06,0,-9.09695e-08,-1.55558e+09,-1.55528e+09,-1.55575e+09,-12158.1,-0.0305308,0.0220308,-0,0.0376496,19207.6,-54129.7,0,57436.5,12158.1
step02_gravity_refstate-mantle.xmf,1326,1.38313e-06,3.55246e-06,0,-2.47791e-08,-1.66562e+09,-1.66533e+09,-1.6658e+09,-3311.73,-0.0318787,0.00896204,-0,0.0331145,20316,-57529.7,0,61011.5,3311.73
step02_gravity_refstate-mantle.xmf,1327,1.37648e-06,3.42864e-06,0,-1.88287e-08,-1.62424e+09,-1.62397e+09,-1.62443e+09,-2516.45,-0.0309336,0.0133462,-0,0.0336899,20446.2,-56251.4,0,59852.1,2516.45
step02_gravity_refstate-mantle.xmf,1328,1.18271e-06,3.38813e-06,0,-7.11437e-08,-1.51122e+09,-1.51093e+09,-1.51138e+09,-9508.36,-0.0287354,0.0268095,-0,0.0392998,19179.4,-52758.8,0,56136.8,9508.36
step02_gravity_refstate-mantle.xmf,1329,1.49697e-06,3.44055e-06,0,3.81236e-10,-1.74557e+09,-1.74531e+09,-1.74577e+09,50.9521,-0.0305917,-4.73408e-20,-0,0.0305917,21611.7,-60000,0,63773.6,50.9521
step02_gravity_refstate-mantle.xmf,1330,1.1027e-06,3.28262e-06,0,-4.39517e-08,-1.46751e+09,-1.46722e+09,-1.46766e+09,-5874.14,-0.0265876,0.0314119,-0,0.0411535,19130.4,-51407.7,0,54851.8,5874.14
step02_gravity_refstate-mantle.xmf,1331,9.89188e-07,3.18585e-06,0,-5.15366e-09,-1.42376e+09,-1.42347e+09,-1.4239e+09,-688.786,-0.024022,0.0358601,-0,0.0431625,19096.6,-50055.3,0,53574.4,688.786
step02_gravity_refstate-mantle.xmf,1332,8.2898e-07,3.10228e-06,0,3.99092e-08,-1.37831e+09,-1.378e+09,-1.37842e+09,5333.87,-0.0209399,0.0403279,-0,0.0454403,19076.6,-48649.9,0,52256.3,5333.87
step02_gravity_refstate-mantle.xmf,1333,6.02088e-07,3.03975e-06,0,7.8652e-08,-1.32908e+09,-1.32875e+09,-1.32916e+09,10511.8,-0.0171963,0.0450693,-0,0.0482385,19049.6,-47127.5,0,50832,10511.8
step02_gravity_refstate-mantle.xmf,1334,3.3404e-07,3.03426e-06,0,7.34631e-08,-1.28301e+09,-1.28265e+09,-1.28306e+09,9818.34,-0.0134973,0.0503232,-0,0.0521018,18689.3,-45702.8,0,49376.5,9818.34
step02_gravity_refstate-mantle.xmf,1335,-1.1089e-06,3.12089e-06,0,-3.99087e-07,-1.0987e+09,-1.09814e+09,-1.09855e+09,-53338,0.00393671,0.0718987,0,0.0720064,17405.7,-40000,0,43622.9,53338
step02_gravity_refstate-mantle.xmf,1336,1.33853e-06,3.32353e-06,0,-8.63461e-09,-1.57715e+09,-1.57688e+09,-1.57733e+09,-1154.02,-0.0296699,0.0182719,-0,0.0348449,20447.6,-54796.1,0,58486.9,1154.02
step02_gravity_refstate-mantle.xmf,1337,1.47911e-06,3.25866e-06,0,1.95031e-08,-1.65565e+09,-1.65541e+09,-1.65585e+09,2606.59,-0.0296905,0.00930145,-0,0.0311134,21737.9,-57221.8,0,61211.7,2606.59
step02_gravity_refstate-mantle.xmf,1338,1.53917e-06,3.2326e-06,0,1.56212e-08,-1.70327e+09,-1.70304e+09,-1.70348e+09,2087.78,-0.029171,0.0042761,-0,0.0294827,22446.2,-58693.1,0,62838.8,2087.78
step02_gravity_refstate-mantle.xmf,1339,1.58584e-06,3.17578e-06,0,7.81949e-10,-1.74557e+09,-1.74536e+09,-1.74579e+09,104.507,-0.0279787,-4.88639e-20,-0,0.0279787,23306.5,-60000,0,64367.6,104.507
step02_gravity_refstate-mantle.xmf,1340,-7.7601e-07,3.07306e-06,0,-2.04368e-07,-1.1335e+09,-1.13299e+09,-1.1334e+09,-27313.8,0.000270212,0.0663611,0,0.0663617,18043.8,-41077.1,0,44865.4,27313.8
step02_gravity_refstate-mantle.xmf,1341,-3.84379e-07,3.02464e-06,0,-3.15004e-08,-1.17884e+09,-1.17839e+09,-1.17879e+09,-4210.03,-0.00414898,0.0600905,-0,0.0602335,18682.9,-42480.2,0,46407.1,4210.03
step02_gravity_refstate-mantle.xmf,1342,-8.52475e-09,3.01499e-06,0,5.46819e-08,-1.23054e+09,-1.23014e+09,-1.23054e+09,7308.24,-0.00881236,0.0550633,-0,0.055764,18751.5,-44079.7,0,47902.4,7308.24
step02_gravity_refstate-mantle.xmf,1343,1.28123e-06,3.23868e-06,0,5.97173e-09,-1.53224e+09,-1.53198e+09,-1.53241e+09,798.122,-0.028132,0.0228839,-0,0.0362641,20402.7,-53408.3,0,57172.7,798.122
step02_gravity_refstate-mantle.xmf,1344,1.43583e-06,3.15802e-06,0,4.07532e-08,-1.60139e+09,-1.60116e+09,-1.60159e+09,5446.66,-0.0285638,0.0146945,-0,0.032122,21742,-55545.3,0,59648.9,5446.66
step02_gravity_refstate-mantle.xmf,1345,1.19912e-06,3.14402e-06,0,3.67887e-08,-1.48866e+09,-1.4884e+09,-1.48882e+09,4916.81,-0.0262648,0.0272453,-0,0.0378437,20360.6,-52061.3,0,55901.1,4916.81
step02_gravity_refstate-mantle.xmf,1346,1.6061e-06,3.00675e-06,0,2.94615e-08,-1.70057e+09,-1.70038e+09,-1.70078e+09,3937.53,-0.0265932,0.00423196,-0,0.0269278,24072.8,-58609.5,0,63360.6,3937.53
step02_gravity_refstate-mantle.xmf,1347,1.08814e-06,3.06742e-06,0,7.03922e-08,-1.44467e+09,-1.44441e+09,-1.44482e+09,9407.91,-0.0240321,0.0315731,-0,0.0396787,20299.5,-50701.6,0,54614.3,9407.91
step02_gravity_refstate-mantle.xmf,1348,9.38265e-07,2.99928e-06,0,1.0899e-07,-1.39906e+09,-1.39879e+09,-1.39919e+09,14566.5,-0.0213156,0.0359289,-0,0.0417761,20258.9,-49291.5,0,53292.4,14566.5
step02_gravity_refstate-mantle.xmf,1349,7.40501e-07,2.94935e-06,0,1.42225e-07,-1.35164e+09,-1.35135e+09,-1.35174e+09,19008.4,-0.0181334,0.0403997,-0,0.0442827,20204.9,-47825.3,0,51918.1,19008.4
step02_gravity_refstate-mantle.xmf,1350,4.95174e-07,2.92502e-06,0,1.56035e-07,-1.30358e+09,-1.30326e+09,-1.30365e+09,20854.1,-0.0146099,0.0449933,-0,0.0473059,20098.5,-46339,0,50509.9,20854.1
step02_gravity_refstate-mantle.xmf,1351,-9.51219e-07,3.02493e-06,0,-3.02576e-07,-1.09868e+09,-1.09814e+09,-1.09855e+09,-40439.2,0.00262198,0.0676037,0,0.0676545,18680.2,-40000,0,44146.9,40439.2
step02_gravity_refstate-mantle.xmf,1352,1.37302e-06,3.07954e-06,0,6.5194e-08,-1.55445e+09,-1.55422e+09,-1.55463e+09,8713.18,-0.0272458,0.0192774,-0,0.0333759,21689.1,-54094.4,0,58280.5,8713.18
step02_gravity_refstate-mantle.xmf,1353,1.55874e-06,3.06241e-06,0,3.93813e-08,-1.66749e+09,-1.66729e+09,-1.6677e+09,5263.31,-0.0275781,0.00754149,-0,0.0285906,23241.1,-57587.5,0,62100.5,5263.31
step02_gravity_refstate-mantle.xmf,1354,1.64444e-06,2.96007e-06,0,1.91613e-09,-1.74558e+09,-1.7454e+09,-1.7458e+09,256.091,-0.0251187,-5.79067e-20,-0,0.0251187,25077,-60000,0,65029.6,256.091
step02_gravity_refstate-mantle.xmf,1355,-6.31326e-07,2.97729e-06,0,-1.17684e-07,-1.13578e+09,-1.1353e+09,-1.1357e+09,-15728.4,-0.000830407,0.062218,-0,0.0622236,19330.9,-41148.3,0,45462.8,15728.4
step02_gravity_refstate-mantle.xmf,1356,-1.01689e-07,2.93029e-06,0,8.34237e-08,-1.20791e+09,-1.2075e+09,-1.2079e+09,11149.6,-0.00692769,0.0541582,-0,0.0545995,19881.8,-43379.7,0,47718.8,11149.6
step02_gravity_refstate-mantle.xmf,1357,2.08231e-07,2.92196e-06,0,1.39013e-07,-1.25526e+09,-1.25489e+09,-1.25528e+09,18579.1,-0.0108077,0.0496658,-0,0.0508282,19966.5,-44844.2,0,49088.4,18579.1
step02_gravity_refstate-mantle.xmf,1358,1.29103e-06,3.01665e-06,0,9.1188e-08,-1.50986e+09,-1.50963e+09,-1.51003e+09,12187.3,-0.0256475,0.0235527,-0,0.0348213,21623.7,-52716.5,0,56979,12187.3
step02_gravity_refstate-mantle.xmf,1359,1.51853e-06,3.00659e-06,0,6.60906e-08,-1.62488e+09,-1.62468e+09,-1.62508e+09,8833.01,-0.0271073,0.0116063,-0,0.0294875,23090.7,-56270.8,0,60824.2,8833.01
step02_gravity_refstate-mantle.xmf,1360,1.45676e-06,2.93387e-06,0,9.89252e-08,-1.57588e+09,-1.57568e+09,-1.57607e+09,13221.4,-0.0259841,0.0161402,-0,0.0305889,23051.5,-54756.6,0,59410.9,13221.4
step02_gravity_refstate-mantle.xmf,1361,1.18385e-06,2.94854e-06,0,1.25971e-07,-1.46592e+09,-1.46569e+09,-1.46608e+09,16836,-0.0237263,0.0276886,-0,0.0364636,21558.7,-51358.3,0,55699.7,16836
step02_gravity_refstate-mantle.xmf,1362,1.58697e-06,2.88547e-06,0,6.84962e-08,-1.6496e+09,-1.64942e+09,-1.64981e+09,9154.51,-0.025416,0.00877272,-0,0.0268874,24458.4,-57034.5,0,62057.6,9154.51
step02_gravity_refstate-mantle.xmf,1363,1.64941e-06,2.78584e-06,0,4.86505e-08,-1.6866e+09,-1.68645e+09,-1.68682e+09,6502.14,-0.0234135,0.00515814,-0,0.023975,25960.3,-58177.7,0,63707,6502.14
step02_gravity_refstate-mantle.xmf,1364,-3.57129e-07,2.93606e-06,0,5.74427e-09,-1.16958e+09,-1.16914e+09,-1.16953e+09,767.721,-0.00380718,0.0576689,-0,0.0577944,19869.2,-42194.1,0,46638.2,767.721
step02_gravity_refstate-mantle.xmf,1365,1.04552e-06,2.89341e-06,0,1.61262e-07,-1.42085e+09,-1.4206e+09,-1.42099e+09,21552.7,-0.021393,0.0318348,-0,0.0383551,21509.7,-49964.9,0,54398.2,21552.7
step02_gravity_refstate-mantle.xmf,1366,8.64343e-07,2.85417e-06,0,1.91727e-07,-1.37352e+09,-1.37325e+09,-1.37363e+09,25624.3,-0.0186304,0.0361787,-0,0.0406939,21425.9,-48501.5,0,53023.2,25624.3
step02_gravity_refstate-mantle.xmf,1367,6.42942e-07,2.83119e-06,0,2.09124e-07,-1.32536e+09,-1.32507e+09,-1.32545e+09,27949.4,-0.0154939,0.040549,-0,0.0434083,21349.1,-47012.6,0,51633,27949.4
step02_gravity_refstate-mantle.xmf,1368,3.88885e-07,2.82576e-06,0,2.02521e-07,-1.27754e+09,-1.27721e+09,-1.27759e+09,27066.9,-0.0121379,0.0448962,-0,0.0465081,21263.7,-45533.5,0,50253.8,27066.9
step02_gravity_refstate-mantle.xmf,1369,-7.95646e-07,2.92544e-06,0,-2.20494e-07,-1.09865e+09,-1.09815e+09,-1.09854e+09,-29469,0.00145101,0.0637102,0,0.0637267,20018.5,-40000,0,44729.6,29469
step02_gravity_refstate-mantle.xmf,1370,1.37221e-06,2.88359e-06,0,1.30137e-07,-1.53036e+09,-1.53016e+09,-1.53055e+09,17392.9,-0.024715,0.0203469,-0,0.0320129,22921,-53350,0,58065.4,17392.9
step02_gravity_refstate-mantle.xmf,1371,1.67801e-06,2.7883e-06,0,1.87928e-09,-1.74559e+09,-1.74544e+09,-1.74581e+09,251.166,-0.0220437,-4.88057e-20,-0,0.0220437,26927.8,-60000,0,65765.5,251.166
step02_gravity_refstate-mantle.xmf,1372,-4.93368e-07,2.88095e-06,0,-4.98249e-08,-1.13791e+09,-1.13746e+09,-1.13785e+09,-6659.1,-0.00173557,0.0585667,-0,0.0585924,20650,-41214.8,0,46098.6,6659.1
step02_gravity_refstate-mantle.xmf,1373,-1.95691e-07,2.85327e-06,0,7.74151e-08,-1.18176e+09,-1.18135e+09,-1.18173e+09,10346.5,-0.00505739,0.0538558,-0,0.0540928,21002,-42571,0,47469.7,10346.5
step02_gravity_refstate-mantle.xmf,1374,1.08102e-07,2.8349e-06,0,1.62104e-07,-1.22991e+09,-1.22954e+09,-1.22992e+09,21665.2,-0.00864663,0.0492981,-0,0.0500507,21149.9,-44060.4,0,48873.7,21665.2
step02_gravity_refstate-mantle.xmf,1375,1.2731e-06,2.84276e-06,0,1.59172e-07,-1.48771e+09,-1.4875e+09,-1.48788e+09,21273.3,-0.0231788,0.0242256,-0,0.0335281,22819.5,-52031.6,0,56815.6,21273.3
step02_gravity_refstate-mantle.xmf,1376,1.52885e-06,2.80719e-06,0,1.11234e-07,-1.59832e+09,-1.59815e+09,-1.59852e+09,14866.4,-0.0244623,0.01329,-0,0.0278393,24453.6,-55450,0,60602.7,14866.4
step02_gravity_refstate-mantle.xmf,1377,1.44067e-06,2.74816e-06,0,1.54146e-07,-1.54609e+09,-1.54591e+09,-1.54628e+09,20601.6,-0.0231701,0.0178216,-0,0.0292312,24390.2,-53835.8,0,59103.1,20601.6
step02_gravity_refstate-mantle.xmf,1378,1.14733e-06,2.78967e-06,0,1.95363e-07,-1.44321e+09,-1.44299e+09,-1.44337e+09,26110.3,-0.0211565,0.0281193,-0,0.0351894,22803.6,-50656.2,0,55552.3,26110.3
step02_gravity_refstate-mantle.xmf,1379,1.67422e-06,2.63716e-06,0,4.97985e-08,-1.69396e+09,-1.69383e+09,-1.69418e+09,6655.57,-0.0201667,0.00427204,-0,0.0206142,27947.9,-58404.9,0,64747.3,6655.57
step02_gravity_refstate-mantle.xmf,1380,1.59104e-06,2.70968e-06,0,1.02701e-07,-1.62427e+09,-1.62412e+09,-1.62448e+09,13725.9,-0.0227496,0.010471,-0,0.0250437,25881.9,-56251.7,0,61920.3,13725.9
step02_gravity_refstate-mantle.xmf,1381,1.69302e-06,2.65615e-06,0,2.02543e-09,-1.74559e+09,-1.74546e+09,-1.74582e+09,270.699,-0.018781,-4.972e-20,-0,0.018781,28863.5,-60000,0,66581.5,270.699
step02_gravity_refstate-mantle.xmf,1382,9.82223e-07,2.7545e-06,0,2.2691e-07,-1.39599e+09,-1.39576e+09,-1.39612e+09,30326.6,-0.018741,0.0322364,-0,0.0372883,22752.3,-49196.4,0,54202.9,30326.6
step02_gravity_refstate-mantle.xmf,1383,7.79709e-07,2.73599e-06,0,2.46527e-07,-1.3475e+09,-1.34724e+09,-1.34761e+09,32948.3,-0.0159915,0.0364728,-0,0.0398245,22669.8,-47697.1,0,52810.3,32948.3
step02_gravity_refstate-mantle.xmf,1384,5.47536e-07,2.73125e-06,0,2.46842e-07,-1.29912e+09,-1.29883e+09,-1.29919e+09,32990.4,-0.0130008,0.0406887,-0,0.0427152,22590.1,-46201,0,51428.1,32990.4
step02_gravity_refstate-mantle.xmf,1385,2.90654e-07,2.73998e-06,0,2.18701e-07,-1.25089e+09,-1.25057e+09,-1.25093e+09,29229.4,-0.00986357,0.0449461,-0,0.0460157,22485.4,-44709.6,0,50045.4,29229.4
step02_gravity_refstate-mantle.xmf,1386,-6.44115e-07,2.82503e-06,0,-1.51043e-07,-1.09863e+09,-1.09816e+09,-1.09854e+09,-20186.9,0.000437849,0.0602061,0,0.0602077,21423.9,-40000,0,45376,20186.9
step02_gravity_refstate-mantle.xmf,1387,1.34629e-06,2.75283e-06,0,1.75996e-07,-1.50821e+09,-1.50802e+09,-1.50839e+09,23521.9,-0.0225078,0.0213792,-0,0.031043,23952.1,-52665,0,57855.9,23521.9
step02_gravity_refstate-mantle.xmf,1388,1.63121e-06,2.62664e-06,0,8.90999e-08,-1.64706e+09,-1.64693e+09,-1.64728e+09,11908.2,-0.0208317,0.00819754,-0,0.0223866,27280.8,-56955.9,0,63152.3,11908.2
step02_gravity_refstate-mantle.xmf,1389,1.68034e-06,2.52933e-06,0,4.77403e-08,-1.69267e+09,-1.69255e+09,-1.69289e+09,6380.49,-0.0170595,0.00420114,-0,0.0175692,29795.2,-58364.7,0,65530.1,6380.49
step02_gravity_refstate-mantle.xmf,1390,1.69616e-06,2.55492e-06,0,3.01829e-09,-1.7456e+09,-1.74549e+09,-1.74583e+09,403.394,-0.0153487,-5.60224e-20,-0,0.0153487,30889.1,-60000,0,67484.3,403.394
step02_gravity_refstate-mantle.xmf,1391,-3.02887e-07,2.77718e-06,0,3.46022e-08,-1.14845e+09,-1.14804e+09,-1.14841e+09,4624.59,-0.00306502,0.0542273,-0,0.0543139,22197.2,-41541.3,0,47099.8,4624.59
step02_gravity_refstate-mantle.xmf,1392,3.84202e-09,2.76078e-06,0,1.50409e-07,-1.20124e+09,-1.20087e+09,-1.20124e+09,20102.2,-0.00655367,0.0495202,-0,0.049952,22292.8,-43173.8,0,48589.6,20102.2
step02_gravity_refstate-mantle.xmf,1393,1.24459e-06,2.6963e-06,0,2.11071e-07,-1.46754e+09,-1.46735e+09,-1.46771e+09,28209.6,-0.0206746,0.0246443,-0,0.032168,24131.2,-51408.1,0,56790,28209.6
step02_gravity_refstate-mantle.xmf,1394,1.5071e-06,2.64373e-06,0,1.53328e-07,-1.56813e+09,-1.56798e+09,-1.56833e+09,20492.3,-0.0216519,0.0151394,-0,0.0264198,25833.5,-54516.8,0,60327.9,20492.3
step02_gravity_refstate-mantle.xmf,1395,1.36475e-06,2.61554e-06,0,2.03101e-07,-1.50393e+09,-1.50376e+09,-1.50411e+09,27144.4,-0.0203707,0.0206143,-0,0.0289813,25417.9,-52532.6,0,58358.7,27144.4
step02_gravity_refstate-mantle.xmf,1396,1.09034e-06,2.65854e-06,0,2.45316e-07,-1.41864e+09,-1.41843e+09,-1.41879e+09,32786.5,-0.0184995,0.028712,-0,0.0341557,24113.5,-49896.5,0,55417.6,32786.5
step02_gravity_refstate-mantle.xmf,1397,1.63185e-06,2.51011e-06,0,9.99905e-08,-1.63365e+09,-1.63353e+09,-1.63387e+09,13363.7,-0.0181517,0.00893198,-0,0.0202303,28821.8,-56541.3,0,63463.5,13363.7
step02_gravity_refstate-mantle.xmf,1398,1.57004e-06,2.56677e-06,0,1.33808e-07,-1.59618e+09,-1.59604e+09,-1.59639e+09,17883.4,-0.0200018,0.0122743,-0,0.0234677,27302,-55383.4,0,61747.3,17883.4
step02_gravity_refstate-mantle.xmf,1399,1.6749e-06,2.42571e-06,0,5.00747e-08,-1.68308e+09,-1.68298e+09,-1.6833e+09,6692.48,-0.0133987,0.00477536,-0,0.0142242,31947.3,-58068.3,0,66276.4,6692.48
step02_gravity_refstate-mantle.xmf,1400,9.05379e-07,2.64545e-06,0,2.67456e-07,-1.37019e+09,-1.36996e+09,-1.37031e+09,35745.5,-0.0161672,0.0328223,-0,0.036588,23995.6,-48398.5,0,54020.4,35745.5
step02_gravity_refstate-mantle.xmf,1401,6.78464e-07,2.63874e-06,0,2.73336e-07,-1.31802e+09,-1.31776e+09,-1.31811e+09,36531.3,-0.0133047,0.037118,-0,0.0394304,23971.7,-46785.5,0,52569.3,36531.3
step02_gravity_refstate-mantle.xmf,1402,1.75198e-07,2.67274e-06,0,2.01279e-07,-1.21947e+09,-1.21914e+09,-1.2195e+09,26900.9,-0.00760117,0.0457402,-0,0.0463675,23604.3,-43738,0,49700.9,26900.9
step02_gravity_refstate-mantle.xmf,1403,4.34005e-07,2.64973e-06,0,2.53019e-07,-1.26799e+09,-1.26769e+09,-1.26804e+09,33816,-0.0104545,0.0413965,-0,0.0426962,23837,-45238.3,0,51134.2,33816
step02_gravity_refstate-mantle.xmf,1404,-4.97422e-07,2.7224e-06,0,-9.67106e-08,-1.0986e+09,-1.09817e+09,-1.09854e+09,-12925.4,-0.000406769,0.0570779,-0,0.0570794,22899.8,-40000,0,46091.2,12925.4
step02_gravity_refstate-mantle.xmf,1405,1.6444e-06,2.43838e-06,0,8.35903e-08,-1.64455e+09,-1.64445e+09,-1.64477e+09,11171.8,-0.0154558,0.00781105,-0,0.0173174,30542.5,-56878,0,64559.7,11171.8
step02_gravity_refstate-mantle.xmf,1406,1.69138e-06,2.48143e-06,0,2.65408e-09,-1.74561e+09,-1.7455e+09,-1.74583e+09,354.718,-0.0117562,-5.05668e-20,-0,0.0117562,33009.9,-60000,0,68481,354.718
step02_gravity_refstate-mantle.xmf,1407,-4.98343e-08,2.6971e-06,0,1.31233e-07,-1.17974e+09,-1.17937e+09,-1.17973e+09,17539.4,-0.00520953,0.0494683,-0,0.0497419,23342,-42509.1,0,48496.2,17539.4
step02_gravity_refstate-mantle.xmf,1408,-2.15902e-07,2.67437e-06,0,5.40547e-08,-1.14129e+09,-1.1409e+09,-1.14126e+09,7224.41,-0.00304876,0.0519406,-0,0.05203,23769.8,-41320.3,0,47669.4,7224.41
step02_gravity_refstate-mantle.xmf,1409,1.18842e-06,2.57213e-06,0,2.4834e-07,-1.44211e+09,-1.44193e+09,-1.44227e+09,33190.7,-0.0179286,0.025494,-0,0.031167,25524.3,-50621.9,0,56692.7,33190.7
step02_gravity_refstate-mantle.xmf,1410,1.44787e-06,2.51923e-06,0,1.89249e-07,-1.53149e+09,-1.53135e+09,-1.53168e+09,25293.1,-0.0188578,0.0174505,-0,0.0256931,27086.6,-53384.4,0,59863,25293.1
step02_gravity_refstate-mantle.xmf,1411,1.00772e-06,2.55298e-06,0,2.74457e-07,-1.38957e+09,-1.38937e+09,-1.38971e+09,36681.2,-0.0157184,0.0297082,-0,0.0336102,25467.3,-48997.7,0,55221,36681.2
step02_gravity_refstate-mantle.xmf,1412,1.52579e-06,2.45257e-06,0,1.58797e-07,-1.56493e+09,-1.5648e+09,-1.56513e+09,21223.2,-0.0172265,0.0142329,-0,0.0223456,28705.3,-54417.5,0,61524.5,21223.2
step02_gravity_refstate-mantle.xmf,1413,1.57742e-06,2.39919e-06,0,1.27132e-07,-1.59288e+09,-1.59277e+09,-1.59309e+09,16991.2,-0.0152549,0.0117182,-0,0.0192361,30284.2,-55281.3,0,63033,16991.2
step02_gravity_refstate-mantle.xmf,1414,1.6148e-06,2.36095e-06,0,9.39224e-08,-1.61967e+09,-1.61957e+09,-1.61989e+09,12552.7,-0.0130031,0.00947168,-0,0.0160871,31899.3,-56109,0,64542.9,12552.7
step02_gravity_refstate-mantle.xmf,1415,1.67164e-06,2.37095e-06,0,3.60798e-08,-1.68901e+09,-1.68892e+09,-1.68923e+09,4822.07,-0.00962069,0.00421895,-0,0.0105051,34220.1,-58251.3,0,67559.1,4822.07
step02_gravity_refstate-mantle.xmf,1416,8.02487e-07,2.55023e-06,0,2.84541e-07,-1.33817e+09,-1.33794e+09,-1.33828e+09,38028.9,-0.0133167,0.0338269,-0,0.0363537,25406.9,-47408.6,0,53787.4,38028.9
step02_gravity_refstate-mantle.xmf,1417,5.538e-08,2.62055e-06,0,1.58553e-07,-1.18539e+09,-1.18504e+09,-1.18539e+09,21190.5,-0.00553052,0.0470727,-0,0.0473965,24575.5,-42684.2,0,49253.4,21190.5
step02_gravity_refstate-mantle.xmf,1418,5.62778e-07,2.55855e-06,0,2.70992e-07,-1.28418e+09,-1.28391e+09,-1.28425e+09,36218,-0.0106118,0.0381738,-0,0.0396214,25335,-45739.2,0,52287,36218
step02_gravity_refstate-mantle.xmf,1419,3.07238e-07,2.58127e-06,0,2.28806e-07,-1.2316e+09,-1.23129e+09,-1.23164e+09,30579.9,-0.00793396,0.0426497,-0,0.0433814,25092.9,-44113.2,0,50750.6,30579.9
step02_gravity_refstate-mantle.xmf,1420,-3.5834e-07,2.62334e-06,0,-5.29088e-08,-1.09858e+09,-1.09818e+09,-1.09853e+09,-7071.26,-0.00107151,0.054313,-0,0.0543235,24449.7,-40000,0,46880.6,7071.26
step02_gravity_refstate-mantle.xmf,1421,1.29968e-06,2.4871e-06,0,2.33068e-07,-1.47275e+09,-1.47259e+09,-1.47292e+09,31149.5,-0.0171911,0.0220377,-0,0.0279499,27021.9,-51568.7,0,58219.5,31149.5
step02_gravity_refstate-mantle.xmf,1422,1.63702e-06,2.34246e-06,0,6.69347e-08,-1.64334e+09,-1.64325e+09,-1.64356e+09,8945.82,-0.0108754,0.00759814,-0,0.0132667,33328,-56840.4,0,65890.7,8945.82
step02_gravity_refstate-mantle.xmf,1423,1.68445e-06,2.43126e-06,0,2.83846e-09,-1.74561e+09,-1.74551e+09,-1.74584e+09,379.36,-0.00800656,-5.07055e-20,-0,0.00800656,35231.4,-60000,0,69579.1,379.36
step02_gravity_refstate-mantle.xmf,1424,-9.76162e-08,2.58202e-06,0,8.09719e-08,-1.14297e+09,-1.14261e+09,-1.14296e+09,10821.9,-0.0033775,0.0494449,-0,0.0495601,25307.5,-41372.9,0,48499.3,10821.9
step02_gravity_refstate-mantle.xmf,1425,1.11661e-06,2.4729e-06,0,2.66236e-07,-1.41471e+09,-1.41453e+09,-1.41486e+09,35582.4,-0.0151735,0.0265218,-0,0.0305556,26973.5,-49774.6,0,56613.4,35582.4
step02_gravity_refstate-mantle.xmf,1426,1.38922e-06,2.4147e-06,0,2.06966e-07,-1.50209e+09,-1.50196e+09,-1.50228e+09,27661,-0.0159347,0.019001,-0,0.0247983,28601,-52475.7,0,59763.8,27661
step02_gravity_refstate-mantle.xmf,1427,9.19146e-07,2.46726e-06,0,2.81022e-07,-1.35974e+09,-1.35953e+09,-1.35986e+09,37558.6,-0.0130145,0.03077,-0,0.0334091,26909.7,-48075.2,0,55094.1,37558.6
step02_gravity_refstate-mantle.xmf,1428,1.46398e-06,2.36021e-06,0,1.72514e-07,-1.53222e+09,-1.5321e+09,-1.53241e+09,23056.5,-0.0143359,0.0161997,-0,0.0216321,30204.8,-53406.5,0,61356.2,23056.5
step02_gravity_refstate-mantle.xmf,1429,1.52452e-06,2.31624e-06,0,1.33384e-07,-1.56181e+09,-1.56171e+09,-1.56202e+09,17826.8,-0.0123284,0.0136556,-0,0.0183975,31883.2,-54321,0,62986.6,17826.8
step02_gravity_refstate-mantle.xmf,1430,1.57203e-06,2.28964e-06,0,9.45834e-08,-1.59122e+09,-1.59113e+09,-1.59143e+09,12641.1,-0.0100908,0.0113055,-0,0.0151539,33552.8,-55229.7,0,64622.8,12641.1
step02_gravity_refstate-mantle.xmf,1431,1.61552e-06,2.28234e-06,0,5.78403e-08,-1.62759e+09,-1.6275e+09,-1.6278e+09,7730.35,-0.00752742,0.00857914,-0,0.0114133,35327.7,-56353.3,0,66511.2,7730.35
step02_gravity_refstate-mantle.xmf,1432,1.66588e-06,2.33247e-06,0,2.35623e-08,-1.6891e+09,-1.68901e+09,-1.68932e+09,3149.1,-0.00590083,0.00414637,-0,0.00721194,36449.8,-58253.9,0,68717.6,3149.1
step02_gravity_refstate-mantle.xmf,1433,1.67762e-06,2.40275e-06,0,1.58008e-09,-1.74562e+09,-1.74552e+09,-1.74584e+09,211.177,-0.00409233,-4.82357e-20,-0,0.00409233,37559.4,-60000,0,70786.4,211.177
step02_gravity_refstate-mantle.xmf,1434,6.96932e-07,2.47535e-06,0,2.75783e-07,-1.30491e+09,-1.30467e+09,-1.305e+09,36858.5,-0.0106739,0.0350284,-0,0.0366186,26834,-46380.1,0,53583.4,36858.5
step02_gravity_refstate-mantle.xmf,1435,1.59367e-07,2.5341e-06,0,1.73774e-07,-1.18955e+09,-1.18924e+09,-1.18957e+09,23224.9,-0.00557925,0.0447367,-0,0.0450833,26100.1,-42813.4,0,50141.8,23224.9
step02_gravity_refstate-mantle.xmf,1436,4.35604e-07,2.48581e-06,0,2.41834e-07,-1.2444e+09,-1.24412e+09,-1.24445e+09,32321.1,-0.00790572,0.0396407,-0,0.0404214,26867.8,-44509.2,0,51989.9,32321.1
step02_gravity_refstate-mantle.xmf,1437,-2.27795e-07,2.52776e-06,0,-1.98686e-08,-1.09856e+09,-1.09819e+09,-1.09853e+09,-2655.44,-0.00154992,0.0518969,-0,0.05192,26077.3,-40000,0,47749.6,2655.44
step02_gravity_refstate-mantle.xmf,1438,1.22307e-06,2.39642e-06,0,2.42903e-07,-1.44216e+09,-1.442e+09,-1.44232e+09,32464,-0.014308,0.023498,-0,0.0275114,28528.2,-50623.1,0,58108.1,32464
step02_gravity_refstate-mantle.xmf,1439,1.66482e-06,2.32377e-06,0,8.01437e-09,-1.69297e+09,-1.69288e+09,-1.69319e+09,1071.12,-0.00278563,0.00383908,-0,0.00474323,38324.8,-58373.3,0,69830,1071.12
step02_gravity_refstate-mantle.xmf,1440,1.68275e-06,2.39081e-06,0,-2.40332e-10,-1.74562e+09,-1.74552e+09,-1.74584e+09,-32.1204,3.68501e-20,3.23344e-19,0,3.25437e-19,40000,-60000,0,72111,32.1204
step02_gravity_refstate-mantle.xmf,1441,9.25811e-09,2.49215e-06,0,9.47551e-08,-1.14331e+09,-1.14298e+09,-1.14331e+09,12664,-0.00346613,0.0473386,-0,0.0474653,26951.5,-41383.7,0,49386.2,12664
step02_gravity_refstate-mantle.xmf,1442,1.03034e-06,2.39522e-06,0,2.65102e-07,-1.38431e+09,-1.38413e+09,-1.38445e+09,35430.9,-0.012455,0.0278234,-0,0.030484,28460,-48834.9,0,56522.7,35430.9
step02_gravity_refstate-mantle.xmf,1443,1.31614e-06,2.33413e-06,0,2.09703e-07,-1.471e+09,-1.47086e+09,-1.47117e+09,28026.8,-0.0130564,0.0206626,-0,0.024442,30147.3,-51514.4,0,59687.5,28026.8
step02_gravity_refstate-mantle.xmf,1444,8.24112e-07,2.40135e-06,0,2.67965e-07,-1.32817e+09,-1.32796e+09,-1.32828e+09,35813.5,-0.010505,0.0320739,-0,0.0337504,28329.4,-47099.5,0,54962.8,35813.5
step02_gravity_refstate-mantle.xmf,1445,1.39658e-06,2.28756e-06,0,1.69279e-07,-1.50125e+09,-1.50113e+09,-1.50144e+09,22624.1,-0.0114152,0.017975,-0,0.0212933,31833.5,-52449.4,0,61354,22624.1
step02_gravity_refstate-mantle.xmf,1446,1.46481e-06,2.25373e-06,0,1.2584e-07,-1.53146e+09,-1.53135e+09,-1.53166e+09,16818.5,-0.00945403,0.0155041,-0,0.0181592,33531.2,-53382.9,0,63040.2,16818.5
step02_gravity_refstate-mantle.xmf,1447,1.51948e-06,2.23585e-06,0,8.52657e-08,-1.56069e+09,-1.5606e+09,-1.56089e+09,11395.8,-0.00730197,0.0132619,-0,0.0151392,35180.2,-54286.2,0,64688.8,11395.8
step02_gravity_refstate-mantle.xmf,1448,1.61758e-06,2.25795e-06,0,2.52029e-08,-1.63284e+09,-1.63276e+09,-1.63306e+09,3368.37,-0.00342489,0.00810184,-0,0.00879601,37879.4,-56515.6,0,68035.8,3368.37
step02_gravity_refstate-mantle.xmf,1449,1.65337e-06,2.2907e-06,0,5.88648e-10,-1.67185e+09,-1.67177e+09,-1.67208e+09,78.6729,4.36403e-20,0.00533657,0,0.00533657,40000,-57721,0,70226.2,78.6729
step02_gravity_refstate-mantle.xmf,1450,6.26379e-07,2.42066e-06,0,2.55485e-07,-1.27991e+09,-1.27967e+09,-1.28e+09,34145.6,-0.00877292,0.0358478,-0,0.0369057,28098.6,-45607.4,0,53568.3,34145.6
step02_gravity_refstate-mantle.xmf,1451,2.44891e-07,2.44868e-06,0,1.7191e-07,-1.18997e+09,-1.18968e+09,-1.19e+09,22975.8,-0.00525472,0.0428853,-0,0.043206,27799.8,-42826.6,0,51058.3,22975.8
step02_gravity_refstate-mantle.xmf,1452,-1.07723e-07,2.43793e-06,0,3.60568e-09,-1.09854e+09,-1.0982e+09,-1.09853e+09,481.899,-0.0018378,0.0498161,-0,0.04985,27786.5,-40000,0,48704.1,481.899
step02_gravity_refstate-mantle.xmf,1453,1.13979e-06,2.32656e-06,0,2.35007e-07,-1.41117e+09,-1.41101e+09,-1.41132e+09,31408.7,-0.0115453,0.0250032,-0,0.0275401,30084.3,-49665,0,58066.2,31408.7
step02_gravity_refstate-mantle.xmf,1454,1.55399e-06,2.23062e-06,0,5.31167e-08,-1.58408e+09,-1.58399e+09,-1.58429e+09,7099.04,-0.005129,0.0115303,-0,0.0126196,36695.6,-55009,0,66125.3,7099.04
step02_gravity_refstate-mantle.xmf,1455,4.68673e-07,2.40274e-06,0,2.17951e-07,-1.23634e+09,-1.23609e+09,-1.23641e+09,29129.1,-0.0067393,0.0386163,-0,0.0391999,28706.9,-44260.5,0,52754.9,29129.1
step02_gravity_refstate-mantle.xmf,1456,1.11772e-07,2.40861e-06,0,1.01031e-07,-1.14475e+09,-1.14445e+09,-1.14477e+09,13502.8,-0.00341622,0.0454506,-0,0.0455788,28688.2,-41428.8,0,50392.1,13502.8
step02_gravity_refstate-mantle.xmf,1457,9.33404e-07,2.33501e-06,0,2.46823e-07,-1.35106e+09,-1.35087e+09,-1.35119e+09,32988,-0.0098497,0.0293868,-0,0.0309936,29979.8,-47807,0,56429.6,32988
step02_gravity_refstate-mantle.xmf,1458,1.23775e-06,2.27306e-06,0,1.9653e-07,-1.44013e+09,-1.43999e+09,-1.4403e+09,26266.2,-0.0102893,0.0223076,-0,0.0245662,31753.3,-50560.3,0,59704.4,26266.2
step02_gravity_refstate-mantle.xmf,1459,6.93812e-07,2.35027e-06,0,2.34534e-07,-1.28629e+09,-1.28607e+09,-1.28639e+09,31345.5,-0.00791791,0.0342104,-0,0.0351147,29751.5,-45804.8,0,54619,31345.5
step02_gravity_refstate-mantle.xmf,1460,1.32342e-06,2.23532e-06,0,1.52967e-07,-1.47031e+09,-1.47018e+09,-1.47048e+09,20444.1,-0.00869823,0.0197635,-0,0.0215929,33440.6,-51492.8,0,61398.6,20444.1
step02_gravity_refstate-mantle.xmf,1461,1.39486e-06,2.20976e-06,0,1.08683e-07,-1.49913e+09,-1.49902e+09,-1.49932e+09,14525.5,-0.00682572,0.0174999,-0,0.018784,35101.4,-52383.7,0,63056.8,14525.5
step02_gravity_refstate-mantle.xmf,1462,1.45529e-06,2.19819e-06,0,6.76766e-08,-1.52767e+09,-1.52757e+09,-1.52786e+09,9044.98,-0.00478153,0.0153898,-0,0.0161155,36709.3,-53265.6,0,64690,9044.98
step02_gravity_refstate-mantle.xmf,1463,1.51744e-06,2.20191e-06,0,3.11018e-08,-1.56155e+09,-1.56146e+09,-1.56175e+09,4156.75,-0.00261971,0.0130028,-0,0.0132641,38270.9,-54312.5,0,66441.8,4156.75
step02_gravity_refstate-mantle.xmf,1464,1.576e-06,2.22154e-06,0,4.06906e-10,-1.59897e+09,-1.59888e+09,-1.59918e+09,54.383,3.12631e-20,0.0104182,0,0.0104182,40000,-55468.9,0,68387.1,54.383
step02_gravity_refstate-mantle.xmf,1465,3.23278e-07,2.37316e-06,0,1.61676e-07,-1.19115e+09,-1.19088e+09,-1.1912e+09,21608,-0.00481003,0.0413251,-0,0.0416041,29520.8,-42863.5,0,52045.7,21608
step02_gravity_refstate-mantle.xmf,1466,9.25647e-11,2.35578e-06,0,1.85738e-08,-1.09852e+09,-1.09821e+09,-1.09852e+09,2482.39,-0.00193526,0.0480581,-0,0.0480971,29581.4,-40000,0,49750,2482.39
step02_gravity_refstate-mantle.xmf,1467,1.05051e-06,2.27368e-06,0,2.11748e-07,-1.37887e+09,-1.37871e+09,-1.37901e+09,28300.1,-0.00894781,0.0266444,-0,0.0281067,31672.9,-48666.7,0,58065.7,28300.1
step02_gravity_refstate-mantle.xmf,1468,4.98541e-07,2.34382e-06,0,1.9366e-07,-1.23164e+09,-1.2314e+09,-1.23171e+09,25882.6,-0.00585466,0.0378961,-0,0.0383456,30199.1,-44115.4,0,53461.7,25882.6
step02_gravity_refstate-mantle.xmf,1469,2.04952e-07,2.33484e-06,0,1.00178e-07,-1.14701e+09,-1.14673e+09,-1.14704e+09,13388.9,-0.00320239,0.0438257,-0,0.0439426,30489.2,-41499.2,0,51495.4,13388.9
step02_gravity_refstate-mantle.xmf,1470,8.39738e-07,2.28611e-06,0,2.12362e-07,-1.3175e+09,-1.31731e+09,-1.31762e+09,28382.2,-0.00746904,0.0310179,-0,0.0319045,31560.6,-46769.7,0,56422.3,28382.2
step02_gravity_refstate-mantle.xmf,1471,1.15309e-06,2.22928e-06,0,1.71342e-07,-1.4082e+09,-1.40806e+09,-1.40835e+09,22899.9,-0.00774442,0.0240737,-0,0.0252887,33341.5,-49573.2,0,59742.4,22899.9
step02_gravity_refstate-mantle.xmf,1472,1.23687e-06,2.19936e-06,0,1.27452e-07,-1.43585e+09,-1.43573e+09,-1.43602e+09,17034,-0.00621139,0.0218284,-0,0.0226949,34990.9,-50428,0,61378.7,17034
step02_gravity_refstate-mantle.xmf,1473,1.30974e-06,2.17971e-06,0,8.22308e-08,-1.46288e+09,-1.46276e+09,-1.46305e+09,10990.2,-0.00437625,0.0197774,-0,0.0202558,36657.4,-51263.1,0,63021.2,10990.2
step02_gravity_refstate-mantle.xmf,1474,1.38315e-06,2.17285e-06,0,3.84057e-08,-1.49362e+09,-1.49351e+09,-1.4938e+09,5132.92,-0.00231312,0.0175929,-0,0.0177443,38325.2,-52213.1,0,64769,5132.92
step02_gravity_refstate-mantle.xmf,1475,1.45299e-06,2.17987e-06,0,4.02942e-10,-1.52677e+09,-1.52667e+09,-1.52696e+09,53.8532,2.66304e-20,0.0153283,0,0.0153283,40000,-53237.6,0,66590.1,53.8532
step02_gravity_refstate-mantle.xmf,1476,6.34457e-07,2.29786e-06,0,1.93208e-07,-1.26e+09,-1.25978e+09,-1.26009e+09,25822.2,-0.0060282,0.0351786,-0,0.0356914,31383.9,-44992.1,0,54856.6,25822.2
step02_gravity_refstate-mantle.xmf,1477,4.12258e-07,2.30898e-06,0,1.50961e-07,-1.19886e+09,-1.1986e+09,-1.19891e+09,20175.9,-0.00441587,0.039623,-0,0.0398683,31229.3,-43101.9,0,53226.3,20175.9
step02_gravity_refstate-mantle.xmf,1478,9.40365e-08,2.28333e-06,0,2.59024e-08,-1.09851e+09,-1.09822e+09,-1.09852e+09,3461.85,-0.00184784,0.0466128,-0,0.0466494,31466.4,-40000,0,50893.4,3461.85
step02_gravity_refstate-mantle.xmf,1479,9.60797e-07,2.23536e-06,0,1.77587e-07,-1.34653e+09,-1.34636e+09,-1.34666e+09,23734.5,-0.00664147,0.0283621,-0,0.0291293,33238.2,-47666.9,0,58111.2,23734.5
step02_gravity_refstate-mantle.xmf,1480,2.95891e-07,2.27017e-06,0,9.34749e-08,-1.15223e+09,-1.15197e+09,-1.15227e+09,12492.9,-0.0028396,0.0422433,-0,0.0423386,32456.1,-41660.8,0,52811.2,12492.9
step02_gravity_refstate-mantle.xmf,1481,7.68125e-07,2.24602e-06,0,1.70428e-07,-1.28916e+09,-1.28896e+09,-1.28926e+09,22777.7,-0.0054717,0.0323522,-0,0.0328117,33194,-45893.5,0,56639.7,22777.7
step02_gravity_refstate-mantle.xmf,1482,1.05626e-06,2.19986e-06,0,1.38729e-07,-1.37291e+09,-1.37276e+09,-1.37306e+09,18541.2,-0.00548263,0.0261357,-0,0.0267046,34852.1,-48482.5,0,59709.5,18541.2
step02_gravity_refstate-mantle.xmf,1483,1.13047e-06,2.17633e-06,0,9.31443e-08,-1.39589e+09,-1.39575e+09,-1.39604e+09,12448.7,-0.00391639,0.0242993,-0,0.0246129,36543.8,-49192.7,0,61281.1,12448.7
step02_gravity_refstate-mantle.xmf,1484,1.21475e-06,2.1621e-06,0,4.52812e-08,-1.4251e+09,-1.42498e+09,-1.42527e+09,6051.83,-0.00209483,0.0221849,-0,0.0222835,38274,-50095.6,0,63043.4,6051.83
step02_gravity_refstate-mantle.xmf,1485,1.29196e-06,2.16055e-06,0,5.04835e-10,-1.45506e+09,-1.45494e+09,-1.45523e+09,67.4712,2.32994e-20,0.020137,0,0.020137,40000,-51021.4,0,64831.9,67.4712
step02_gravity_refstate-mantle.xmf,1486,5.39498e-07,2.24836e-06,0,1.34825e-07,-1.21961e+09,-1.21938e+09,-1.21968e+09,18019.4,-0.0039036,0.037127,-0,0.0373317,33347.7,-43743.7,0,55005.3,18019.4
step02_gravity_refstate-mantle.xmf,1487,1.71234e-07,2.22242e-06,0,2.64473e-08,-1.0985e+09,-1.09822e+09,-1.09852e+09,3534.68,-0.00158637,0.0454735,-0,0.0455011,33445.9,-40000,0,52140.4,3534.68
step02_gravity_refstate-mantle.xmf,1488,8.8901e-07,2.21293e-06,0,1.4537e-07,-1.32056e+09,-1.32039e+09,-1.32068e+09,19428.7,-0.00498272,0.0297884,-0,0.0302022,34506.7,-46864.4,0,58197.8,19428.7
step02_gravity_refstate-mantle.xmf,1489,3.63401e-07,2.21687e-06,0,7.40453e-08,-1.15545e+09,-1.1552e+09,-1.1555e+09,9896.15,-0.00222889,0.0411223,-0,0.0411827,34493.3,-41760.5,0,54163.9,9896.15
step02_gravity_refstate-mantle.xmf,1490,7.36513e-07,2.21095e-06,0,1.23874e-07,-1.2717e+09,-1.2715e+09,-1.2718e+09,16555.8,-0.00381183,0.0330102,-0,0.0332295,34968.9,-45353.9,0,57269.5,16555.8
step02_gravity_refstate-mantle.xmf,1491,9.09279e-07,2.18537e-06,0,9.96413e-08,-1.32252e+09,-1.32235e+09,-1.32264e+09,13317.1,-0.00341439,0.0292827,-0,0.0294811,36280.2,-46924.9,0,59314.4,13317.1
step02_gravity_refstate-mantle.xmf,1492,1.01419e-06,2.16403e-06,0,4.88395e-08,-1.35412e+09,-1.35396e+09,-1.35425e+09,6527.41,-0.00182052,0.0269351,-0,0.0269966,38206.3,-47901.5,0,61272.1,6527.41
step02_gravity_refstate-mantle.xmf,1493,1.10172e-06,2.15726e-06,0,7.16415e-10,-1.38365e+09,-1.38351e+09,-1.3838e+09,95.7489,1.85918e-20,0.024901,0,0.024901,40000,-48814.3,0,63109.7,95.7489
step02_gravity_refstate-mantle.xmf,1494,2.29901e-07,2.17559e-06,0,2.156e-08,-1.09849e+09,-1.09823e+09,-1.09852e+09,2881.49,-0.00117042,0.0446399,-0,0.0446553,35524.6,-40000,0,53497.6,2881.49
step02_gravity_refstate-mantle.xmf,1495,5.51723e-07,2.20055e-06,0,8.51372e-08,-1.20988e+09,-1.20966e+09,-1.20995e+09,11378.6,-0.00245299,0.0370381,-0,0.0371193,35708.6,-43443,0,56235.2,11378.6
step02_gravity_refstate-mantle.xmf,1496,4.00094e-07,2.17939e-06,0,4.67007e-08,-1.15438e+09,-1.15414e+09,-1.15443e+09,6241.55,-0.0013994,0.0405843,-0,0.0406084,36630,-41727.6,0,55524.3,6241.55
step02_gravity_refstate-mantle.xmf,1497,7.12264e-07,2.18566e-06,0,8.21449e-08,-1.25825e+09,-1.25806e+09,-1.25835e+09,10978.7,-0.00246645,0.0335739,-0,0.0336644,36584.3,-44938.3,0,57947.1,10978.7
step02_gravity_refstate-mantle.xmf,1498,7.94707e-07,2.17134e-06,0,4.63443e-08,-1.28183e+09,-1.28165e+09,-1.28194e+09,6193.92,-0.00146185,0.0317809,-0,0.0318145,38167.5,-45667.2,0,59516.8,6193.92
step02_gravity_refstate-mantle.xmf,1499,8.92344e-07,2.16257e-06,0,9.71356e-10,-1.31235e+09,-1.31218e+09,-1.31247e+09,129.822,1.25701e-20,0.0296603,0,0.0296603,40000,-46610.6,0,61421.1,129.822
step02_gravity_refstate-mantle.xmf,1500,2.66961e-07,2.14572e-06,0,1.19292e-08,-1.09848e+09,-1.09823e+09,-1.09852e+09,1594.33,-0.000628099,0.0441211,-0,0.0441255,37707.6,-40000,0,54971.4,1594.33
step02_gravity_refstate-mantle.xmf,1501,5.71699e-07,2.17072e-06,0,4.0606e-08,-1.20857e+09,-1.20835e+09,-1.20864e+09,5426.99,-0.00117171,0.0367223,-0,0.036741,37965.5,-43402.6,0,57664.2,5426.99
step02_gravity_refstate-mantle.xmf,1502,4.06462e-07,2.16112e-06,0,2.12305e-08,-1.14995e+09,-1.14971e+09,-1.15e+09,2837.46,-0.00066191,0.0406064,-0,0.0406118,38383.9,-41590.6,0,56596,2837.46
step02_gravity_refstate-mantle.xmf,1503,2.74778e-07,2.13779e-06,0,-2.20543e-09,-1.09848e+09,-1.09823e+09,-1.09852e+09,-294.756,5.7619e-20,0.0439401,0,0.0439401,40000,-40000,0,56568.5,294.756
step02_gravity_refstate-mantle.xmf,1504,6.76117e-07,2.16757e-06,0,1.4269e-09,-1.24106e+09,-1.24086e+09,-1.24115e+09,190.705,6.64602e-21,0.0344313,0,0.0344313,40000,-44407.1,0,59766.1,190.705
step02_gravity_refstate-mantle.xmf,1505,4.65594e-07,2.16262e-06,0,-1.50141e-09,-1.16978e+09,-1.16955e+09,-1.16984e+09,-200.663,1.0618e-19,0.0392021,0,0.0392021,40000,-42203.5,0,58147.6,200.663
step02_gravity_refstate-intrusion.xmf,0,-5.03909e-06,1.72963e-05,0,1.34827e-05,-1.32497e+09,-1.3225e+09,-1.32442e+09,1.49312e+06,0.0158868,0.201566,0,0.202191,-2000,-46998.5,-0,47041,1.49312e+06
step02_gravity_refstate-intrusion.xmf,1,-4.68063e-06,1.57333e-05,0,1.46296e-05,-1.30882e+09,-1.30656e+09,-1.3083e+09,1.62014e+06,0.0141401,0.209825,0,0.210301,-2000,-46498.1,-0,46541.1,1.62014e+06
step02_gravity_refstate-intrusion.xmf,2,-4.15864e-06,1.41263e-05,0,1.5572e-05,-1.29266e+09,-1.29063e+09,-1.29219e+09,1.72451e+06,0.0121477,0.21729,0,0.217629,-2000,-45998.2,-0,46041.6,1.72451e+06
step02_gravity_refstate-intrusion.xmf,3,-5.44248e-06,1.8721e-05,0,1.19212e-05,-1.34113e+09,-1.33845e+09,-1.34052e+09,1.3202e+06,0.017174,0.192563,0,0.193327,-2000,-47498.2,-0,47540.3,1.3202e+06
step02_gravity_refstate-intrusion.xmf,4,-3.51503e-06,1.25031e-05,0,1.6296e-05,-1.27649e+09,-1.27471e+09,-1.2761e+09,1.80468e+06,0.0100151,0.223933,0,0.224157,-2000,-45498.8,-0,45542.7,1.80468e+06
step02_gravity_refstate-intrusion.xmf,5,-2.80731e-06,1.08363e-05,0,1.68609e-05,-1.26032e+09,-1.25881e+09,-1.26001e+09,1.86724e+06,0.00779218,0.229744,0,0.229877,-2000,-44999.8,-0,45044.2,1.86724e+06
step02_gravity_refstate-intrusion.xmf,6,1.56706e-06,2.17693e-06,0,1.69994e-05,-1.17925e+09,-1.17919e+09,-1.17943e+09,1.88258e+06,-0.00467079,0.246075,-0,0.24612,-2000,-42501.2,-0,42548.2,1.88258e+06
step02_gravity_refstate-intrusion.xmf,7,2.55287e-06,3.99547e-07,0,1.64034e-05,-1.16303e+09,-1.16327e+09,-1.16332e+09,1.81657e+06,-0.00761221,0.24673,-0,0.246848,-2000,-42001.8,-0,42049.4,1.81657e+06
step02_gravity_refstate-intrusion.xmf,8,-2.05006e-06,9.11924e-06,0,1.72712e-05,-1.24413e+09,-1.2429e+09,-1.24391e+09,1.91268e+06,0.00549331,0.234722,0,0.234786,-2000,-44500.2,-0,44545.1,1.91268e+06
step02_gravity_refstate-intrusion.xmf,9,6.07417e-07,3.94491e-06,0,1.73569e-05,-1.19546e+09,-1.19509e+09,-1.19553e+09,1.92217e+06,-0.00193445,0.24454,-0,0.244548,-2000,-43000.2,-0,43046.7,1.92217e+06
step02_gravity_refstate-intrusion.xmf,10,-1.19726e-06,7.43022e-06,0,1.74611e-05,-1.2279e+09,-1.22695e+09,-1.22777e+09,1.93371e+06,0.00311676,0.238856,0,0.238876,-2000,-44000,-0,44045.4,1.93371e+06
step02_gravity_refstate-intrusion.xmf,11,-3.07643e-07,5.70896e-06,0,1.74983e-05,-1.21167e+09,-1.21101e+09,-1.21164e+09,1.93783e+06,0.000649077,0.242132,0,0.242133,-2000,-43499.8,-0,43545.8,1.93783e+06
step02_gravity_refstate-intrusion.xmf,12,3.51461e-06,-1.38391e-06,0,1.55394e-05,-1.1468e+09,-1.14734e+09,-1.14719e+09,1.72089e+06,-0.0108229,0.246492,-0,0.24673,-2000,-41501.9,-0,41550,1.72089e+06
step02_gravity_refstate-intrusion.xmf,13,-6.79705e-06,2.16923e-05,0,9.89041e-06,-1.35741e+09,-1.35425e+09,-1.35665e+09,1.0953e+06,0.0173988,0.182886,0,0.183711,-2000,-48000,-0,48041.6,1.0953e+06
step02_gravity_refstate-intrusion.xmf,14,4.62064e-06,-3.27283e-06,0,1.41719e-05,-1.13054e+09,-1.13141e+09,-1.13105e+09,1.56945e+06,-0.0143835,0.245347,-0,0.245768,-2000,-41001.5,-0,41050.3,1.56945e+06
step02_gravity_refstate-intrusion.xmf,15,5.75935e-06,-5.22244e-06,0,1.21981e-05,-1.11429e+09,-1.1155e+09,-1.11493e+09,1.35087e+06,-0.0183952,0.243284,-0,0.243978,-2000,-40501.8,-0,40551.1,1.35087e+06
step02_gravity_refstate-intrusion.xmf,16,7.80628e-06,-8.12095e-06,0,8.99685e-06,-1.09788e+09,-1.09964e+09,-1.09874e+09,996347,-0.0229758,0.240308,-0,0.241404,-2000,-40000,-0,40050,996347
step02_gravity_refstate-intrusion.xmf,17,-8.15886e-06,2.6165e-05,0,8.19386e-06,-1.35734e+09,-1.35354e+09,-1.35643e+09,907420,0.0136491,0.191041,0,0.191528,-1499.28,-48000,-0,48023.4,907420
step02_gravity_refstate-intrusion.xmf,18,-8.98963e-06,2.8419e-05,0,5.49844e-06,-1.35733e+09,-1.35319e+09,-1.35633e+09,608919,0.00936087,0.197176,0,0.197399,-999.317,-48000,-0,48010.4,608919
step02_gravity_refstate-intrusion.xmf,19,-9.44023e-06,2.96226e-05,0,2.76054e-06,-1.35733e+09,-1.353e+09,-1.35628e+09,305713,0.00475567,0.200897,0,0.200953,-499.831,-48000,-0,48002.6,305713
step02_gravity_refstate-intrusion.xmf,20,-9.59418e-06,3.00059e-05,0,-4.55907e-08,-1.35733e+09,-1.35294e+09,-1.35626e+09,-5048.89,9.21074e-07,0.202143,0,0.202143,2.07592e-10,-48000,0,48000,5048.89
step02_gravity_refstate-intrusion.xmf,21,-9.4475e-06,2.96377e-05,0,-2.82013e-06,-1.35733e+09,-1.353e+09,-1.35628e+09,-312313,-0.00475714,0.200897,-0,0.200953,499.831,-48000,0,48002.6,312313
step02_gravity_refstate-intrusion.xmf,22,-9.00274e-06,2.8455e-05,0,-5.62692e-06,-1.35733e+09,-1.35318e+09,-1.35633e+09,-623147,-0.00935921,0.197176,-0,0.197398,999.317,-48000,0,48010.4,623147
step02_gravity_refstate-intrusion.xmf,23,-8.17737e-06,2.63888e-05,0,-8.49888e-06,-1.35732e+09,-1.3535e+09,-1.35642e+09,-941199,-0.0136491,0.191043,-0,0.19153,1499.28,-48000,0,48023.4,941199
step02_gravity_refstate-intrusion.xmf,24,-5.75838e-06,1.9832e-05,0,-1.02616e-05,-1.35735e+09,-1.35451e+09,-1.35671e+09,-1.13642e+06,-0.0173997,0.182886,-0,0.183712,2000,-48000,0,48041.6,1.13642e+06
step02_gravity_refstate-intrusion.xmf,25,-5.45581e-06,1.87407e-05,0,-1.20529e-05,-1.34113e+09,-1.33845e+09,-1.34052e+09,-1.33478e+06,-0.017173,0.192562,-0,0.193326,2000,-47498.2,0,47540.3,1.33478e+06
step02_gravity_refstate-intrusion.xmf,26,-5.11293e-06,1.72796e-05,0,-1.34815e-05,-1.32499e+09,-1.32251e+09,-1.32442e+09,-1.49299e+06,-0.0158878,0.201566,-0,0.202191,2000,-46998.5,0,47041,1.49299e+06
step02_gravity_refstate-intrusion.xmf,27,-4.68674e-06,1.57314e-05,0,-1.4635e-05,-1.30882e+09,-1.30656e+09,-1.3083e+09,-1.62074e+06,-0.0141411,0.209825,-0,0.210301,2000,-46498.1,0,46541.1,1.62074e+06
step02_gravity_refstate-intrusion.xmf,28,-4.15537e-06,1.41254e-05,0,-1.55718e-05,-1.29265e+09,-1.29063e+09,-1.29219e+09,-1.72449e+06,-0.0121478,0.21729,-0,0.217629,2000,-45998.2,0,46041.6,1.72449e+06
step02_gravity_refstate-intrusion.xmf,29,-3.52986e-06,1.24816e-05,0,-1.63158e-05,-1.27649e+09,-1.27472e+09,-1.2761e+09,-1.80688e+06,-0.0100146,0.223933,-0,0.224157,2000,-45498.8,0,45542.7,1.80688e+06
step02_gravity_refstate-intrusion.xmf,30,-2.82484e-06,1.08119e-05,0,-1.68795e-05,-1.26033e+09,-1.25882e+09,-1.26001e+09,-1.86931e+06,-0.00779138,0.229744,-0,0.229876,2000,-44999.8,0,45044.2,1.86931e+06
step02_gravity_refstate-intrusion.xmf,31,-2.05048e-06,9.12127e-06,0,-1.72683e-05,-1.24413e+09,-1.2429e+09,-1.24391e+09,-1.91236e+06,-0.00549285,0.234722,-0,0.234786,2000,-44500.2,0,44545.1,1.91236e+06
step02_gravity_refstate-intrusion.xmf,32,-1.2183e-06,7.41322e-06,0,-1.74848e-05,-1.22791e+09,-1.22695e+09,-1.22777e+09,-1.93633e+06,-0.00311636,0.238856,-0,0.238876,2000,-44000,0,44045.4,1.93633e+06
step02_gravity_refstate-intrusion.xmf,33,-3.40648e-07,5.69021e-06,0,-1.75252e-05,-1.21168e+09,-1.21101e+09,-1.21164e+09,-1.94081e+06,-0.000648723,0.242132,-0,0.242133,2000,-43499.8,0,43545.8,1.94081e+06
step02_gravity_refstate-intrusion.xmf,34,2.50669e-06,4.12537e-07,0,-1.64394e-05,-1.16304e+09,-1.16327e+09,-1.16332e+09,-1.82056e+06,0.00761154,0.246731,0,0.246848,2000,-42001.8,0,42049.4,1.82056e+06
step02_gravity_refstate-intrusion.xmf,35,1.59134e-06,2.20056e-06,0,-1.70242e-05,-1.17925e+09,-1.17918e+09,-1.17942e+09,-1.88533e+06,0.00466976,0.246075,0,0.24612,2000,-42501.2,0,42548.2,1.88533e+06
step02_gravity_refstate-intrusion.xmf,36,6.36909e-07,3.95127e-06,0,-1.73753e-05,-1.19545e+09,-1.19509e+09,-1.19552e+09,-1.92421e+06,0.00193393,0.24454,0,0.244548,2000,-43000.2,0,43046.7,1.92421e+06
step02_gravity_refstate-intrusion.xmf,37,3.52221e-06,-1.38322e-06,0,-1.55336e-05,-1.1468e+09,-1.14734e+09,-1.14719e+09,-1.72025e+06,0.0108227,0.246493,0,0.24673,2000,-41501.9,0,41550,1.72025e+06
step02_gravity_refstate-intrusion.xmf,38,5.65582e-06,-5.03532e-06,0,-1.23025e-05,-1.11429e+09,-1.11548e+09,-1.11492e+09,-1.36242e+06,0.0183953,0.243285,0,0.243979,2000,-40501.8,0,40551.1,1.36242e+06
step02_gravity_refstate-intrusion.xmf,39,4.70215e-06,-3.20092e-06,0,-1.42609e-05,-1.13052e+09,-1.13139e+09,-1.13104e+09,-1.57931e+06,0.0143835,0.245346,0,0.245767,2000,-41001.5,0,41050.3,1.57931e+06
step02_gravity_refstate-intrusion.xmf,40,7.18156e-06,-6.83329e-06,0,-9.33073e-06,-1.0979e+09,-1.09945e+09,-1.0987e+09,-1.03332e+06,0.0229758,0.240307,0,0.241403,2000,-40000,0,40050,1.03332e+06
step02_gravity_refstate-intrusion.xmf,41,1.0553e-05,-1.19439e-05,0,6.94298e-06,-1.09765e+09,-1.10014e+09,-1.09882e+09,768893,-0.0183834,0.252426,-0,0.253094,-1499.28,-40000,-0,40028.1,768893
step02_gravity_refstate-intrusion.xmf,42,1.20652e-05,-1.39125e-05,0,4.62672e-06,-1.09751e+09,-1.10039e+09,-1.09885e+09,512381,-0.0127271,0.261236,-0,0.261545,-999.317,-40000,-0,40012.5,512381
step02_gravity_refstate-intrusion.xmf,43,1.28766e-05,-1.49618e-05,0,2.31457e-06,-1.09744e+09,-1.10052e+09,-1.09887e+09,256325,-0.00649871,0.26653,-0,0.266609,-499.831,-40000,-0,40003.1,256325
step02_gravity_refstate-intrusion.xmf,44,1.31378e-05,-1.52933e-05,0,1.12761e-08,-1.09742e+09,-1.10057e+09,-1.09887e+09,1248.76,-5.01116e-07,0.268299,-0,0.268299,-2.07592e-10,-40000,-0,40000,1248.76
step02_gravity_refstate-intrusion.xmf,45,1.28861e-05,-1.49575e-05,0,-2.29048e-06,-1.09744e+09,-1.10052e+09,-1.09887e+09,-253657,0.00649809,0.266531,0,0.26661,499.831,-40000,0,40003.1,253657
step02_gravity_refstate-intrusion.xmf,46,1.20854e-05,-1.39206e-05,0,-4.60157e-06,-1.09751e+09,-1.10039e+09,-1.09885e+09,-509596,0.0127266,0.261236,0,0.261546,999.317,-40000,0,40012.5,509596
step02_gravity_refstate-intrusion.xmf,47,1.05323e-05,-1.19613e-05,0,-7.01653e-06,-1.09765e+09,-1.10015e+09,-1.09882e+09,-777038,0.0183816,0.252426,0,0.253094,1499.28,-40000,0,40028.1,777038
step02_gravity_refstate-intrusion.xmf,48,-6.45966e-06,1.9203e-05,0,1.02739e-05,-1.31954e+09,-1.3167e+09,-1.31882e+09,1.13777e+06,0.0130139,0.215578,0,0.215971,-1594,-46826.7,-0,46853.9,1.13777e+06
step02_gravity_refstate-intrusion.xmf,49,-6.86812e-06,2.06893e-05,0,9.69075e-06,-1.33316e+09,-1.3301e+09,-1.3324e+09,1.07319e+06,0.0144841,0.20588,0,0.206389,-1650.88,-47248.4,-0,47277.2,1.07319e+06
step02_gravity_refstate-intrusion.xmf,50,-5.72818e-06,1.70272e-05,0,1.11346e-05,-1.30306e+09,-1.30054e+09,-1.30242e+09,1.23309e+06,0.0112798,0.22526,0,0.225542,-1575.24,-46317,-0,46343.8,1.23309e+06
step02_gravity_refstate-intrusion.xmf,51,-8.42504e-06,2.37041e-05,0,6.97694e-06,-1.33413e+09,-1.33057e+09,-1.3332e+09,772653,0.0112617,0.213196,0,0.213493,-1222.44,-47276.3,-0,47292.1,772653
step02_gravity_refstate-intrusion.xmf,52,-7.51721e-06,2.06778e-05,0,7.16274e-06,-1.31486e+09,-1.31174e+09,-1.31403e+09,793230,0.00942898,0.227694,0,0.227889,-1136.35,-46679.6,-0,46693.4,793230
step02_gravity_refstate-intrusion.xmf,53,-4.83783e-06,1.48334e-05,0,1.20455e-05,-1.28606e+09,-1.28388e+09,-1.28552e+09,1.33396e+06,0.00946817,0.233426,0,0.233618,-1582.63,-45792.1,-0,45819.4,1.33396e+06
step02_gravity_refstate-intrusion.xmf,54,-7.66542e-06,2.29898e-05,0,8.91169e-06,-1.34571e+09,-1.34231e+09,-1.34486e+09,986916,0.0149663,0.197688,0,0.198254,-1636.94,-47636.7,-0,47664.8,986916
step02_gravity_refstate-intrusion.xmf,55,-3.82544e-06,1.26759e-05,0,1.28067e-05,-1.26845e+09,-1.26662e+09,-1.26802e+09,1.41826e+06,0.0075039,0.240486,0,0.240603,-1596.46,-45249,-0,45277.2,1.41826e+06
step02_gravity_refstate-intrusion.xmf,56,-2.80506e-06,1.05428e-05,0,1.33767e-05,-1.25113e+09,-1.24965e+09,-1.25082e+09,1.48139e+06,0.00547761,0.246326,0,0.246387,-1607.61,-44715.2,-0,44744,1.48139e+06
step02_gravity_refstate-intrusion.xmf,57,1.24188e-06,2.98958e-06,0,1.32201e-05,-1.18919e+09,-1.189e+09,-1.18933e+09,1.46404e+06,-0.00249761,0.260282,-0,0.260294,-1575.69,-42808.2,-0,42837.2,1.46404e+06
step02_gravity_refstate-intrusion.xmf,58,2.47361e-06,8.65785e-07,0,1.29012e-05,-1.17235e+09,-1.17253e+09,-1.17262e+09,1.42873e+06,-0.00496866,0.260925,-0,0.260972,-1587.81,-42290.1,-0,42319.9,1.42873e+06
step02_gravity_refstate-intrusion.xmf,59,3.79374e-06,-1.36244e-06,0,1.22756e-05,-1.1554e+09,-1.15597e+09,-1.15582e+09,1.35944e+06,-0.00769102,0.260582,-0,0.260696,-1595.55,-41769,-0,41799.5,1.35944e+06
step02_gravity_refstate-intrusion.xmf,60,-6.33292e-06,1.76002e-05,0,7.98561e-06,-1.29634e+09,-1.29369e+09,-1.29564e+09,884358,0.00800503,0.238565,0,0.238699,-1138.49,-46107.3,-0,46121.4,884358
step02_gravity_refstate-intrusion.xmf,61,-8.78084e-06,2.58374e-05,0,6.92007e-06,-1.34723e+09,-1.34339e+09,-1.34625e+09,766355,0.0117381,0.202896,0,0.203235,-1242.16,-47683.5,-0,47699.7,766355
step02_gravity_refstate-intrusion.xmf,62,-1.89091e-06,8.6749e-06,0,1.35034e-05,-1.23562e+09,-1.23445e+09,-1.23541e+09,1.49542e+06,0.00354559,0.25143,0,0.251455,-1590.8,-44237.3,-0,44265.9,1.49542e+06
step02_gravity_refstate-intrusion.xmf,63,2.47278e-07,4.72948e-06,0,1.41443e-05,-1.20311e+09,-1.20262e+09,-1.20314e+09,1.56639e+06,-0.000625152,0.256075,-0,0.256075,-1655.33,-43236.4,-0,43268,1.56639e+06
step02_gravity_refstate-intrusion.xmf,64,-7.37805e-07,6.57842e-06,0,1.27903e-05,-1.2175e+09,-1.21669e+09,-1.21742e+09,1.41645e+06,0.00121081,0.258319,0,0.258321,-1503.61,-43679.4,-0,43705.2,1.41645e+06
step02_gravity_refstate-intrusion.xmf,65,5.14289e-06,-3.5402e-06,0,1.13121e-05,-1.13939e+09,-1.14036e+09,-1.13996e+09,1.25275e+06,-0.0105026,0.259413,-0,0.259625,-1594.69,-41277.5,-0,41308.3,1.25275e+06
step02_gravity_refstate-intrusion.xmf,66,-8.79959e-06,2.35858e-05,0,4.3247e-06,-1.32412e+09,-1.32053e+09,-1.32314e+09,478935,0.00667605,0.226684,0,0.226783,-737.088,-46964.6,-0,46970.4,478935
step02_gravity_refstate-intrusion.xmf,67,-7.60383e-06,2.0252e-05,0,4.83857e-06,-1.30539e+09,-1.30231e+09,-1.30455e+09,535843,0.00590618,0.239143,0,0.239216,-748.171,-46385.6,-0,46391.7,535843
step02_gravity_refstate-intrusion.xmf,68,-5.04192e-06,1.47656e-05,0,8.92345e-06,-1.27752e+09,-1.27532e+09,-1.27696e+09,988218,0.00658131,0.247247,0,0.247334,-1174.52,-45527,-0,45542.1,988218
step02_gravity_refstate-intrusion.xmf,69,-9.45221e-06,2.67347e-05,0,4.20732e-06,-1.34273e+09,-1.33873e+09,-1.34169e+09,465936,0.00725244,0.212074,0,0.212198,-751.346,-47542.9,-0,47548.8,465936
step02_gravity_refstate-intrusion.xmf,70,-3.80421e-06,1.23397e-05,0,9.52819e-06,-1.25982e+09,-1.25803e+09,-1.2594e+09,1.05519e+06,0.00505288,0.254175,0,0.254226,-1195.02,-44982,-0,44997.9,1.05519e+06
step02_gravity_refstate-intrusion.xmf,71,-2.60862e-06,1.00191e-05,0,9.96104e-06,-1.2428e+09,-1.2414e+09,-1.24251e+09,1.10312e+06,0.00348647,0.259678,0,0.259702,-1209.49,-44457.9,-0,44474.4,1.10312e+06
step02_gravity_refstate-intrusion.xmf,72,7.09306e-06,-6.46628e-06,0,9.45513e-06,-1.12264e+09,-1.12414e+09,-1.12342e+09,1.0471e+06,-0.0133982,0.258391,-0,0.258738,-1538.78,-40764.5,-0,40793.5,1.0471e+06
step02_gravity_refstate-intrusion.xmf,73,8.19961e-06,-8.3388e-06,0,8.77839e-06,-1.1096e+09,-1.11143e+09,-1.11051e+09,972153,-0.0169558,0.252933,-0,0.253501,-1636.36,-40363.9,-0,40397.1,972153
step02_gravity_refstate-intrusion.xmf,74,4.86449e-07,4.41805e-06,0,1.02205e-05,-1.20109e+09,-1.20066e+09,-1.20114e+09,1.13186e+06,-0.000717206,0.268591,-0,0.268592,-1223.93,-43174.6,-0,43191.9,1.13186e+06
step02_gravity_refstate-intrusion.xmf,75,1.97094e-06,1.92868e-06,0,9.42162e-06,-1.18313e+09,-1.18314e+09,-1.18335e+09,1.04339e+06,-0.00258967,0.271835,-0,0.271847,-1160.41,-42622.7,-0,42638.5,1.04339e+06
step02_gravity_refstate-intrusion.xmf,76,3.59559e-06,-7.61448e-07,0,9.18292e-06,-1.16447e+09,-1.16496e+09,-1.16487e+09,1.01695e+06,-0.00484689,0.271542,-0,0.271585,-1189.27,-42049.6,-0,42066.4,1.01695e+06
step02_gravity_refstate-intrusion.xmf,77,5.25255e-06,-3.42163e-06,0,8.6089e-06,-1.14727e+09,-1.14823e+09,-1.14785e+09,953383,-0.00715478,0.270186,-0,0.270281,-1201.95,-41521.5,-0,41538.9,953383
step02_gravity_refstate-intrusion.xmf,78,-6.21429e-06,1.69155e-05,0,5.47824e-06,-1.2864e+09,-1.28383e+09,-1.28571e+09,606682,0.0049409,0.249797,0,0.249846,-763.504,-45799.4,-0,45805.7,606682
step02_gravity_refstate-intrusion.xmf,79,-1.57476e-06,8.09605e-06,0,1.01875e-05,-1.22833e+09,-1.22726e+09,-1.22815e+09,1.12821e+06,0.00209098,0.263476,0,0.263485,-1218.81,-44012.4,-0,44029.3,1.12821e+06
step02_gravity_refstate-intrusion.xmf,80,6.6108e-06,-5.53129e-06,0,8.15944e-06,-1.13389e+09,-1.13524e+09,-1.13463e+09,903608,-0.00930764,0.267629,-0,0.267791,-1235.76,-41111.5,-0,41130.1,903608
step02_gravity_refstate-intrusion.xmf,81,-9.58162e-06,2.58138e-05,0,1.4499e-06,-1.33211e+09,-1.32819e+09,-1.33105e+09,160567,0.00242347,0.223714,0,0.223727,-254.165,-47212,-0,47212.7,160567
step02_gravity_refstate-intrusion.xmf,82,-8.6534e-06,2.25746e-05,0,1.60499e-06,-1.31423e+09,-1.31077e+09,-1.31327e+09,177743,0.00227286,0.236981,0,0.236991,-263.24,-46657.9,-0,46658.7,177743
step02_gravity_refstate-intrusion.xmf,83,-7.30595e-06,1.92119e-05,0,1.90871e-06,-1.2955e+09,-1.29256e+09,-1.29469e+09,211378,0.00208087,0.248868,0,0.248877,-284.812,-46079.5,-0,46080.4,211378
step02_gravity_refstate-intrusion.xmf,84,-4.82062e-06,1.4054e-05,0,5.9207e-06,-1.26798e+09,-1.26589e+09,-1.26744e+09,655681,0.00386515,0.258481,0,0.25851,-771.019,-45232,-0,45238.6,655681
step02_gravity_refstate-intrusion.xmf,85,-9.77925e-06,2.8163e-05,0,1.45637e-06,-1.34631e+09,-1.34211e+09,-1.34523e+09,161284,0.00246204,0.211825,0,0.21184,-251.964,-47654.8,-0,47655.5,161284
step02_gravity_refstate-intrusion.xmf,86,-3.42532e-06,1.14677e-05,0,6.24082e-06,-1.2501e+09,-1.24845e+09,-1.24972e+09,691133,0.0027851,0.265335,0,0.26535,-781.354,-44681.9,-0,44688.8,691133
step02_gravity_refstate-intrusion.xmf,87,-2.0447e-06,8.93383e-06,0,6.60398e-06,-1.2327e+09,-1.23148e+09,-1.23247e+09,731350,0.0017118,0.270402,0,0.270407,-805.659,-44146.6,-0,44153.9,731350
step02_gravity_refstate-intrusion.xmf,88,-5.14122e-07,6.21965e-06,0,7.56294e-06,-1.21386e+09,-1.21311e+09,-1.2138e+09,837550,0.0004751,0.272971,0,0.272972,-913.907,-43567.4,-0,43576.9,837550
step02_gravity_refstate-intrusion.xmf,89,9.65052e-06,-1.02052e-05,0,6.59086e-06,-1.11021e+09,-1.11241e+09,-1.11128e+09,729897,-0.0132468,0.261945,-0,0.26228,-1238.14,-40386.8,-0,40405.7,729897
step02_gravity_refstate-intrusion.xmf,90,1.26496e-06,3.19614e-06,0,6.60798e-06,-1.19304e+09,-1.19282e+09,-1.19318e+09,731794,-0.00109874,0.27769,-0,0.277692,-812.556,-42927.6,-0,42935.2,731794
step02_gravity_refstate-intrusion.xmf,91,3.08276e-06,2.22947e-07,0,6.22104e-06,-1.17357e+09,-1.17389e+09,-1.17391e+09,688942,-0.00259736,0.278958,-0,0.27897,-798.336,-42329.8,-0,42337.3,688942
step02_gravity_refstate-intrusion.xmf,92,4.98116e-06,-2.79768e-06,0,5.75548e-06,-1.15514e+09,-1.156e+09,-1.15569e+09,637385,-0.00414423,0.278374,-0,0.278405,-791.551,-41764.6,-0,41772.1,637385
step02_gravity_refstate-intrusion.xmf,93,6.94526e-06,-5.86285e-06,0,5.51586e-06,-1.13756e+09,-1.13898e+09,-1.13833e+09,610847,-0.0060994,0.275471,-0,0.275538,-834.35,-41226,-0,41234.5,610847
step02_gravity_refstate-intrusion.xmf,94,8.47616e-06,-8.26318e-06,0,6.06106e-06,-1.12295e+09,-1.1248e+09,-1.12389e+09,671226,-0.00925809,0.269491,-0,0.26965,-1016.82,-40777.9,-0,40790.5,671226
step02_gravity_refstate-intrusion.xmf,95,-5.795e-06,1.58541e-05,0,2.27576e-06,-1.27662e+09,-1.27422e+09,-1.27598e+09,252026,0.00178302,0.258913,0,0.25892,-306.856,-45497.5,-0,45498.5,252026
step02_gravity_refstate-intrusion.xmf,96,-9.80521e-06,2.75497e-05,0,-1.3817e-06,-1.34197e+09,-1.33783e+09,-1.34089e+09,-153015,-0.00239549,0.215602,-0,0.215616,245.522,-47519.2,0,47519.8,153015
step02_gravity_refstate-intrusion.xmf,97,-9.1798e-06,2.42101e-05,0,-1.4087e-06,-1.32312e+09,-1.31942e+09,-1.3221e+09,-156005,-0.00221402,0.230673,-0,0.230684,242.052,-46933,0,46933.7,156005
step02_gravity_refstate-intrusion.xmf,98,-8.03194e-06,2.0918e-05,0,-1.45097e-06,-1.30485e+09,-1.30164e+09,-1.30396e+09,-160686,-0.00184074,0.243349,-0,0.243356,229.998,-46368,0,46368.5,160686
step02_gravity_refstate-intrusion.xmf,99,-6.57588e-06,1.75778e-05,0,-1.43787e-06,-1.28576e+09,-1.28309e+09,-1.28504e+09,-159235,-0.00134361,0.254665,-0,0.254668,204.96,-45779.3,0,45779.7,159235
step02_gravity_refstate-intrusion.xmf,100,-4.27325e-06,1.29001e-05,0,2.56482e-06,-1.25804e+09,-1.25614e+09,-1.25757e+09,284038,0.00140277,0.267021,0,0.267025,-327.298,-44925.6,-0,44926.8,284038
step02_gravity_refstate-intrusion.xmf,101,-2.77572e-06,1.02179e-05,0,2.63626e-06,-1.24003e+09,-1.23859e+09,-1.23973e+09,291949,0.000913253,0.273401,0,0.273403,-328.122,-44371.9,-0,44373.1,291949
step02_gravity_refstate-intrusion.xmf,102,-1.20257e-06,7.43712e-06,0,2.92074e-06,-1.2216e+09,-1.22064e+09,-1.22147e+09,323454,0.000430575,0.278188,0,0.278189,-357.643,-43805.3,-0,43806.7,323454
step02_gravity_refstate-intrusion.xmf,103,1.05565e-05,-1.13595e-05,0,3.8863e-06,-1.11128e+09,-1.11371e+09,-1.11245e+09,430384,-0.00798053,0.269946,-0,0.270064,-733.7,-40422.4,-0,40429.1,430384
step02_gravity_refstate-intrusion.xmf,104,4.94082e-07,4.54517e-06,0,2.95937e-06,-1.20244e+09,-1.202e+09,-1.2025e+09,327733,-0.000184154,0.281665,-0,0.281666,-364.325,-43216.7,-0,43218.3,327733
step02_gravity_refstate-intrusion.xmf,105,2.32703e-06,1.52995e-06,0,2.77929e-06,-1.18312e+09,-1.1832e+09,-1.18337e+09,307790,-0.000828142,0.28357,-0,0.283571,-352.357,-42623.3,-0,42624.8,307790
step02_gravity_refstate-intrusion.xmf,106,4.3137e-06,-1.64035e-06,0,2.53123e-06,-1.164e+09,-1.16465e+09,-1.16447e+09,280318,-0.00147733,0.283661,-0,0.283665,-339.931,-42036.9,-0,42038.3,280318
step02_gravity_refstate-intrusion.xmf,107,6.39626e-06,-4.8996e-06,0,2.45984e-06,-1.14578e+09,-1.14703e+09,-1.14649e+09,272412,-0.00231904,0.281767,-0,0.281777,-359.832,-41478.7,-0,41480.3,272412
step02_gravity_refstate-intrusion.xmf,108,8.73454e-06,-8.54234e-06,0,2.71786e-06,-1.12687e+09,-1.12878e+09,-1.12783e+09,300987,-0.00394168,0.277354,-0,0.277382,-446.289,-40899.7,-0,40902.2,300987
step02_gravity_refstate-intrusion.xmf,109,-5.01109e-06,1.43156e-05,0,-1.2479e-06,-1.26668e+09,-1.26454e+09,-1.26613e+09,-138197,-0.000846726,0.264108,-0,0.26411,168.885,-45191.5,0,45191.8,138197
step02_gravity_refstate-intrusion.xmf,110,-9.16662e-06,2.49381e-05,0,-4.2118e-06,-1.33157e+09,-1.32779e+09,-1.33055e+09,-466432,-0.00695795,0.221088,-0,0.221198,741.25,-47195.6,0,47201.5,466432
step02_gravity_refstate-intrusion.xmf,111,-9.47164e-06,2.7369e-05,0,-4.06513e-06,-1.34615e+09,-1.34207e+09,-1.3451e+09,-450188,-0.00719519,0.209259,-0,0.209383,744.1,-47649.6,0,47655.4,450188
step02_gravity_refstate-intrusion.xmf,112,-8.24844e-06,2.19467e-05,0,-4.42132e-06,-1.31477e+09,-1.31143e+09,-1.31386e+09,-489634,-0.0061606,0.233365,-0,0.233446,722.031,-46675.4,0,46681,489634
step02_gravity_refstate-intrusion.xmf,113,-6.8773e-06,1.8413e-05,0,-5.2542e-06,-1.29553e+09,-1.29273e+09,-1.29477e+09,-581871,-0.00554189,0.244698,-0,0.244761,773.438,-46081.1,0,46087.6,581871
step02_gravity_refstate-intrusion.xmf,114,-5.4631e-06,1.54004e-05,0,-4.99858e-06,-1.27555e+09,-1.27324e+09,-1.27495e+09,-553563,-0.00382197,0.256259,-0,0.256287,676.572,-45465.3,0,45470.4,553563
step02_gravity_refstate-intrusion.xmf,115,-3.46315e-06,1.14134e-05,0,-1.20213e-06,-1.24803e+09,-1.24638e+09,-1.24765e+09,-133129,-0.00053302,0.271535,-0,0.271536,153.81,-44617.6,0,44617.9,133129
step02_gravity_refstate-intrusion.xmf,116,-1.93374e-06,8.70951e-06,0,-1.17548e-06,-1.22989e+09,-1.22871e+09,-1.22968e+09,-130177,-0.00027984,0.277161,-0,0.277161,145.156,-44060,0,44060.3,130177
step02_gravity_refstate-intrusion.xmf,117,-2.96946e-07,5.8853e-06,0,-1.15058e-06,-1.21124e+09,-1.21056e+09,-1.21121e+09,-127420,-4.1199e-05,0.281344,-0,0.281344,141.341,-43486.9,0,43487.2,127420
step02_gravity_refstate-intrusion.xmf,118,1.09948e-05,-1.19164e-05,0,1.31356e-06,-1.11158e+09,-1.11411e+09,-1.11279e+09,145469,-0.00274712,0.273704,-0,0.273718,-249.916,-40432.7,-0,40433.5,145469
step02_gravity_refstate-intrusion.xmf,119,1.43456e-06,3.00165e-06,0,-1.16359e-06,-1.19254e+09,-1.19237e+09,-1.1927e+09,-128861,0.000209312,0.283891,0,0.283892,145.373,-42912.7,0,42913,128861
step02_gravity_refstate-intrusion.xmf,120,3.33879e-06,-7.43204e-08,0,-1.11876e-06,-1.17352e+09,-1.17389e+09,-1.17389e+09,-123896,0.000487791,0.284773,0,0.284773,146.003,-42329,0,42329.2,123896
step02_gravity_refstate-intrusion.xmf,121,5.41354e-06,-3.34363e-06,0,-9.97996e-07,-1.15472e+09,-1.15569e+09,-1.15532e+09,-110522,0.000757066,0.283854,0,0.283855,140.124,-41752.8,0,41753,110522
step02_gravity_refstate-intrusion.xmf,122,7.6094e-06,-6.75172e-06,0,-4.77053e-07,-1.13675e+09,-1.13834e+09,-1.1376e+09,-52830.7,0.000571431,0.281264,0,0.281264,75.1292,-41202.8,0,41202.8,52830.7
step02_gravity_refstate-intrusion.xmf,123,-3.98385e-06,1.24645e-05,0,-5.03073e-06,-1.2565e+09,-1.25467e+09,-1.25605e+09,-557123,-0.00264553,0.264814,-0,0.264827,642.995,-44878.6,0,44883.2,557123
step02_gravity_refstate-intrusion.xmf,124,-8.77683e-06,2.53304e-05,0,-6.74396e-06,-1.34336e+09,-1.33958e+09,-1.34238e+09,-746852,-0.0115469,0.20622,-0,0.206543,1223.49,-47562.9,0,47578.6,746852
step02_gravity_refstate-intrusion.xmf,125,-7.99299e-06,2.2217e-05,0,-7.01246e-06,-1.32481e+09,-1.32146e+09,-1.32392e+09,-776588,-0.0104008,0.220469,-0,0.220714,1177.32,-46987.5,0,47002.2,776588
step02_gravity_refstate-intrusion.xmf,126,9.50088e-06,-9.63175e-06,0,1.32693e-08,-1.12247e+09,-1.12459e+09,-1.12352e+09,1469.49,1.07096e-06,0.277765,0,0.277765,0.0332432,-40765.8,0,40765.8,1469.49
step02_gravity_refstate-intrusion.xmf,127,-7.0354e-06,1.95617e-05,0,-7.67954e-06,-1.30898e+09,-1.30603e+09,-1.3082e+09,-850462,-0.00927826,0.230636,-0,0.230822,1176.04,-46498.1,0,46512.9,850462
step02_gravity_refstate-intrusion.xmf,128,-5.30099e-06,1.53757e-05,0,-8.66323e-06,-1.28136e+09,-1.27907e+09,-1.28077e+09,-959400,-0.00686878,0.245675,-0,0.245771,1164.11,-45645.4,0,45660.3,959400
step02_gravity_refstate-intrusion.xmf,129,-4.17993e-06,1.30293e-05,0,-8.80579e-06,-1.26419e+09,-1.26228e+09,-1.26372e+09,-975187,-0.00515782,0.25403,-0,0.254083,1122.18,-45116.3,0,45130.2,975187
step02_gravity_refstate-intrusion.xmf,130,-2.52629e-06,9.7751e-06,0,-5.11825e-06,-1.23822e+09,-1.23686e+09,-1.23794e+09,-566815,-0.00164547,0.271203,-0,0.271208,631.546,-44316.2,0,44320.7,566815
step02_gravity_refstate-intrusion.xmf,131,-1.05936e-06,7.17645e-06,0,-5.17336e-06,-1.2202e+09,-1.21929e+09,-1.22008e+09,-572918,-0.000677519,0.275913,-0,0.275914,630.003,-43762.3,0,43766.8,572918
step02_gravity_refstate-intrusion.xmf,132,5.0868e-07,4.49749e-06,0,-5.09143e-06,-1.202e+09,-1.20156e+09,-1.20206e+09,-563844,0.00033583,0.279253,0,0.279253,623.69,-43203,0,43207.5,563844
step02_gravity_refstate-intrusion.xmf,133,1.10134e-05,-1.19734e-05,0,-1.40117e-06,-1.11129e+09,-1.11383e+09,-1.11251e+09,-155171,0.00289612,0.273549,0,0.273564,262.532,-40423.8,0,40424.7,155171
step02_gravity_refstate-intrusion.xmf,134,2.23172e-06,1.65106e-06,0,-4.89526e-06,-1.18326e+09,-1.18332e+09,-1.18351e+09,-542120,0.00142605,0.281115,0,0.281118,616.969,-42627.5,0,42632,542120
step02_gravity_refstate-intrusion.xmf,135,4.17133e-06,-1.46812e-06,0,-4.65699e-06,-1.164e+09,-1.16462e+09,-1.16446e+09,-515733,0.00266904,0.281159,0,0.281171,620.975,-42036.5,0,42041.1,515733
step02_gravity_refstate-intrusion.xmf,136,8.80466e-06,-8.61851e-06,0,-2.83367e-06,-1.12619e+09,-1.12812e+09,-1.12717e+09,-313812,0.00423232,0.276963,0,0.276995,474.608,-40879.2,0,40882,313812
step02_gravity_refstate-intrusion.xmf,137,6.41925e-06,-5.0058e-06,0,-4.02765e-06,-1.14433e+09,-1.1456e+09,-1.14504e+09,-446038,0.00388836,0.279593,0,0.27962,592.882,-41434.1,0,41438.3,446038
step02_gravity_refstate-intrusion.xmf,138,-6.02082e-06,1.71462e-05,0,-8.90091e-06,-1.29515e+09,-1.29258e+09,-1.29448e+09,-985722,-0.00861463,0.236915,-0,0.237072,1254.32,-46071.2,0,46088.3,985722
step02_gravity_refstate-intrusion.xmf,139,-2.89754e-06,1.05497e-05,0,-9.00302e-06,-1.24625e+09,-1.24476e+09,-1.24593e+09,-997029,-0.00351285,0.260916,-0,0.26094,1103.8,-44563.8,0,44577.5,997029
step02_gravity_refstate-intrusion.xmf,140,-7.04117e-06,2.11146e-05,0,-9.45245e-06,-1.33299e+09,-1.32988e+09,-1.33221e+09,-1.0468e+06,-0.0141804,0.206908,-0,0.207393,1608.02,-47243.3,0,47270.6,1.0468e+06
step02_gravity_refstate-intrusion.xmf,141,-6.31826e-06,1.88649e-05,0,-1.04135e-05,-1.31704e+09,-1.31425e+09,-1.31634e+09,-1.15323e+06,-0.0127805,0.217063,-0,0.217439,1593.11,-46749.7,0,46776.8,1.15323e+06
step02_gravity_refstate-intrusion.xmf,142,-7.77133e-06,2.34964e-05,0,-8.93209e-06,-1.3465e+09,-1.34304e+09,-1.34564e+09,-989175,-0.0151687,0.19665,-0,0.197234,1661.78,-47661.7,0,47690.6,989175
step02_gravity_refstate-intrusion.xmf,143,-5.55597e-06,1.67737e-05,0,-1.14028e-05,-1.30163e+09,-1.29915e+09,-1.30101e+09,-1.26279e+06,-0.011273,0.225338,-0,0.22562,1600.72,-46273.2,0,46300.9,1.26279e+06
step02_gravity_refstate-intrusion.xmf,144,-4.81093e-06,1.48805e-05,0,-1.20915e-05,-1.28658e+09,-1.2844e+09,-1.28605e+09,-1.33906e+06,-0.00958407,0.232853,-0,0.23305,1594.48,-45808.4,0,45836.2,1.33906e+06
step02_gravity_refstate-intrusion.xmf,145,-3.98034e-06,1.29595e-05,0,-1.25197e-05,-1.27062e+09,-1.26875e+09,-1.27018e+09,-1.38648e+06,-0.00766592,0.240309,-0,0.240431,1573.12,-45316.1,0,45343.4,1.38648e+06
step02_gravity_refstate-intrusion.xmf,146,-3.01604e-06,1.09278e-05,0,-1.28369e-05,-1.25376e+09,-1.25222e+09,-1.25343e+09,-1.42161e+06,-0.005641,0.24702,-0,0.247084,1555.75,-44796.2,0,44823.2,1.42161e+06
step02_gravity_refstate-intrusion.xmf,147,-1.60411e-06,8.16437e-06,0,-9.18209e-06,-1.22864e+09,-1.22755e+09,-1.22846e+09,-1.01686e+06,-0.00193407,0.266009,-0,0.266016,1102.76,-44021.9,0,44035.7,1.01686e+06
step02_gravity_refstate-intrusion.xmf,148,-2.98296e-07,5.81675e-06,0,-9.1619e-06,-1.21123e+09,-1.21056e+09,-1.2112e+09,-1.01462e+06,-0.000319926,0.269839,-0,0.269839,1098.6,-43486.5,0,43500.4,1.01462e+06
step02_gravity_refstate-intrusion.xmf,149,1.15612e-06,3.32658e-06,0,-8.9106e-06,-1.19322e+09,-1.19298e+09,-1.19335e+09,-986795,0.0014162,0.272661,0,0.272664,1085.01,-42932.8,0,42946.6,986795
step02_gravity_refstate-intrusion.xmf,150,1.04985e-05,-1.12851e-05,0,-4.02688e-06,-1.11162e+09,-1.11403e+09,-1.11278e+09,-445952,0.00811491,0.269881,0,0.270003,749.574,-40432.6,0,40439.5,445952
step02_gravity_refstate-intrusion.xmf,151,2.841e-06,5.66485e-07,0,-8.41879e-06,-1.17398e+09,-1.17423e+09,-1.17429e+09,-932330,0.00336676,0.274133,0,0.274154,1069.6,-42341.9,0,42355.4,932330
step02_gravity_refstate-intrusion.xmf,152,4.6597e-06,-2.50569e-06,0,-8.63144e-06,-1.15385e+09,-1.15464e+09,-1.15436e+09,-955880,0.00609822,0.271542,0,0.27161,1166.26,-41723.5,0,41739.8,955880
step02_gravity_refstate-intrusion.xmf,153,7.43813e-06,-6.79905e-06,0,-6.7471e-06,-1.1301e+09,-1.13168e+09,-1.13093e+09,-747201,0.0087293,0.270122,0,0.270263,1074.16,-40996.2,0,41010.3,747201
step02_gravity_refstate-intrusion.xmf,154,-1.93894e-06,8.84529e-06,0,-1.3136e-05,-1.23675e+09,-1.23556e+09,-1.23654e+09,-1.45473e+06,-0.00361267,0.252269,-0,0.252295,1553.39,-44272.2,0,44299.4,1.45473e+06
step02_gravity_refstate-intrusion.xmf,155,-8.42821e-07,6.78666e-06,0,-1.33084e-05,-1.21982e+09,-1.21897e+09,-1.21972e+09,-1.47383e+06,-0.00154119,0.256203,-0,0.256208,1558,-43750.8,0,43778.5,1.47383e+06
step02_gravity_refstate-intrusion.xmf,156,2.73237e-07,4.72738e-06,0,-1.31753e-05,-1.20295e+09,-1.20245e+09,-1.20298e+09,-1.45909e+06,0.000619598,0.259378,0,0.259379,1551.92,-43231.4,0,43259.3,1.45909e+06
step02_gravity_refstate-intrusion.xmf,157,1.5053e-06,2.58203e-06,0,-1.28602e-05,-1.1858e+09,-1.18568e+09,-1.18596e+09,-1.42419e+06,0.00292881,0.261493,0,0.26151,1545.72,-42703.8,0,42731.8,1.42419e+06
step02_gravity_refstate-intrusion.xmf,158,9.44438e-06,-9.87263e-06,0,-6.82192e-06,-1.11147e+09,-1.11361e+09,-1.11252e+09,-755486,0.013215,0.261936,0,0.262269,1258.66,-40425.3,0,40444.9,755486
step02_gravity_refstate-intrusion.xmf,159,2.69739e-06,5.52398e-07,0,-1.26215e-05,-1.16991e+09,-1.17014e+09,-1.1702e+09,-1.39775e+06,0.00528407,0.26159,0,0.261643,1567.77,-42215.2,0,42244.3,1.39775e+06
step02_gravity_refstate-intrusion.xmf,160,5.15684e-06,-3.61893e-06,0,-1.11541e-05,-1.13982e+09,-1.14079e+09,-1.14039e+09,-1.23525e+06,0.0103229,0.260043,0,0.260247,1574.23,-41290.6,0,41320.6,1.23525e+06
step02_gravity_refstate-intrusion.xmf,161,6.86338e-06,-6.3014e-06,0,-9.85381e-06,-1.12263e+09,-1.12409e+09,-1.12339e+09,-1.09125e+06,0.0137709,0.257002,0,0.25737,1591.5,-40763.4,0,40794.5,1.09125e+06
step02_gravity_refstate-intrusion.xmf,162,3.73324e-06,-1.29076e-06,0,-1.2854e-05,-1.15468e+09,-1.15523e+09,-1.15509e+09,-1.4235e+06,0.00806237,0.258527,0,0.258653,1661.65,-41746.6,0,41779.7,1.4235e+06
step02_gravity_refstate-intrusion.xmf,163,8.39451e-06,-8.87354e-06,0,-8.76597e-06,-1.10961e+09,-1.11152e+09,-1.11053e+09,-970778,0.0169563,0.252931,0,0.253499,1636.36,-40363.9,0,40397.1,970778
step02_gravity_refstate-crust.xmf,0,2.76802e-07,4.26199e-06,0,-2.86616e-09,-1.09851e+09,-1.09823e+09,-1.09853e+09,-196.618,2.05486e-20,0.0439401,0,0.0439401,-40000,-40000,-0,56568.5,196.618
step02_gravity_refstate-crust.xmf,1,2.63598e-07,4.27493e-06,0,-2.15809e-08,-1.09851e+09,-1.09823e+09,-1.09853e+09,-1480.45,0.000628058,0.0441211,0,0.0441255,-37707.6,-40000,-0,54971.4,1480.45
step02_gravity_refstate-crust.xmf,2,2.25544e-07,4.31947e-06,0,-3.72931e-08,-1.09851e+09,-1.09823e+09,-1.09853e+09,-2558.31,0.00117042,0.0446399,0,0.0446552,-35524.6,-40000,-0,53497.6,2558.31
step02_gravity_refstate-crust.xmf,3,8.94759e-08,4.47859e-06,0,-4.37299e-08,-1.09852e+09,-1.09822e+09,-1.09853e+09,-2999.87,0.0018476,0.0466128,0,0.0466494,-31466.4,-40000,-0,50893.4,2999.87
step02_gravity_refstate-crust.xmf,4,1.66531e-07,4.38883e-06,0,-4.575e-08,-1.09851e+09,-1.09823e+09,-1.09853e+09,-3138.45,0.0015864,0.0454734,0,0.0455011,-33445.9,-40000,-0,52140.4,3138.45
step02_gravity_refstate-crust.xmf,5,-3.7165e-09,4.58537e-06,0,-2.87868e-08,-1.09853e+09,-1.09821e+09,-1.09853e+09,-1974.78,0.00193525,0.0480583,0,0.0480972,-29581.4,-40000,-0,49750,1974.78
step02_gravity_refstate-crust.xmf,6,-2.34076e-07,4.83837e-06,0,4.76001e-08,-1.09854e+09,-1.09819e+09,-1.09852e+09,3265.37,0.00154988,0.0518969,0,0.05192,-26077.3,-40000,-0,47749.6,3265.37
step02_gravity_refstate-crust.xmf,7,-1.13343e-07,4.70767e-06,0,4.55967e-10,-1.09853e+09,-1.0982e+09,-1.09852e+09,31.2793,0.00183805,0.0498162,0,0.0498501,-27786.5,-40000,-0,48704.1,31.2793
step02_gravity_refstate-crust.xmf,8,-3.64275e-07,4.97646e-06,0,1.12881e-07,-1.09855e+09,-1.09818e+09,-1.09852e+09,7743.65,0.0010714,0.0543131,0,0.0543236,-24449.7,-40000,-0,46880.6,7743.65
step02_gravity_refstate-crust.xmf,9,-5.0427e-07,5.11962e-06,0,1.9899e-07,-1.09856e+09,-1.09817e+09,-1.09852e+09,13650.7,0.000406567,0.0570781,0,0.0570795,-22899.8,-40000,-0,46091.2,13650.7
step02_gravity_refstate-crust.xmf,10,-6.51051e-07,5.26365e-06,0,3.08188e-07,-1.09857e+09,-1.09816e+09,-1.09852e+09,21141.7,-0.000437604,0.0602059,-0,0.0602075,-21423.9,-40000,-0,45376,21141.7
step02_gravity_refstate-crust.xmf,11,-8.0383e-07,5.40613e-06,0,4.41816e-07,-1.09858e+09,-1.09815e+09,-1.09852e+09,30308.6,-0.00145112,0.0637102,-0,0.0637267,-20018.5,-40000,-0,44729.6,30308.6
step02_gravity_refstate-crust.xmf,12,-9.60123e-07,5.54347e-06,0,6.02234e-07,-1.09859e+09,-1.09814e+09,-1.09853e+09,41313.3,-0.002622,0.0676037,-0,0.0676545,-18680.2,-40000,-0,44146.9,41313.3
step02_gravity_refstate-crust.xmf,13,-1.11208e-06,5.67792e-06,0,7.84536e-07,-1.0986e+09,-1.09814e+09,-1.09853e+09,53819.1,-0.00393678,0.0718988,-0,0.0720065,-17405.7,-40000,-0,43622.9,53819.1
step02_gravity_refstate-crust.xmf,14,-1.27141e-06,5.79827e-06,0,1.00308e-06,-1.09861e+09,-1.09813e+09,-1.09853e+09,68811.6,-0.0053803,0.0766065,-0,0.0767952,-16192.1,-40000,-0,43153.1,68811.6
step02_gravity_refstate-crust.xmf,15,-1.43426e-06,5.89054e-06,0,1.26734e-06,-1.09863e+09,-1.09813e+09,-1.09853e+09,86939.4,-0.00693791,0.0817383,-0,0.0820322,-15036.5,-40000,-0,42732.8,86939.4
step02_gravity_refstate-crust.xmf,16,-1.58499e-06,5.97232e-06,0,1.55789e-06,-1.09864e+09,-1.09812e+09,-1.09853e+09,106871,-0.00859172,0.0873038,-0,0.0877255,-13936,-40000,-0,42358.1,106871
step02_gravity_refstate-crust.xmf,17,-1.73003e-06,6.04134e-06,0,1.88076e-06,-1.09866e+09,-1.09812e+09,-1.09854e+09,129020,-0.0103247,0.0933133,-0,0.0938827,-12888,-40000,-0,42025,129020
step02_gravity_refstate-crust.xmf,18,-1.86923e-06,6.07346e-06,0,2.25832e-06,-1.09867e+09,-1.09812e+09,-1.09854e+09,154921,-0.0121183,0.0997766,-0,0.10051,-11890.1,-40000,-0,41729.8,154921
step02_gravity_refstate-crust.xmf,19,-1.99549e-06,6.06613e-06,0,2.68456e-06,-1.09868e+09,-1.09813e+09,-1.09855e+09,184161,-0.0139516,0.106704,-0,0.107612,-10939.7,-40000,-0,41469,184161
step02_gravity_refstate-crust.xmf,20,-2.11051e-06,5.99102e-06,0,3.1845e-06,-1.0987e+09,-1.09814e+09,-1.09855e+09,218457,-0.0158026,0.114105,-0,0.115194,-10034.7,-40000,-0,41239.5,218457
step02_gravity_refstate-crust.xmf,21,-2.1837e-06,5.87043e-06,0,3.72697e-06,-1.09871e+09,-1.09816e+09,-1.09856e+09,255670,-0.017645,0.121989,-0,0.123259,-9172.9,-40000,-0,41038.3,255670
step02_gravity_refstate-crust.xmf,22,-2.22181e-06,5.6892e-06,0,4.32536e-06,-1.09872e+09,-1.09818e+09,-1.09857e+09,296720,-0.019449,0.130367,-0,0.13181,-8352.15,-40000,-0,40862.7,296720
step02_gravity_refstate-crust.xmf,23,-2.22037e-06,5.39151e-06,0,5.0249e-06,-1.09874e+09,-1.09822e+09,-1.09859e+09,344708,-0.0211807,0.139243,-0,0.140845,-7570.51,-40000,-0,40710.1,344708
step02_gravity_refstate-crust.xmf,24,-2.14222e-06,4.98076e-06,0,5.78797e-06,-1.09875e+09,-1.09826e+09,-1.0986e+09,397054,-0.0227976,0.148625,-0,0.150363,-6826.09,-40000,-0,40578.3,397054
step02_gravity_refstate-crust.xmf,25,-1.97305e-06,4.43488e-06,0,6.61978e-06,-1.09875e+09,-1.09831e+09,-1.09862e+09,454117,-0.024253,0.158511,-0,0.160356,-6117.1,-40000,-0,40465,454117
step02_gravity_refstate-crust.xmf,26,-1.69214e-06,3.67366e-06,0,7.5506e-06,-1.09875e+09,-1.09838e+09,-1.09864e+09,517971,-0.025487,0.168899,-0,0.170811,-5441.79,-40000,-0,40368.5,517971
step02_gravity_refstate-crust.xmf,27,-1.26084e-06,2.71395e-06,0,8.54592e-06,-1.09874e+09,-1.09847e+09,-1.09866e+09,586250,-0.0264377,0.179774,-0,0.181708,-4798.49,-40000,-0,40286.8,586250
step02_gravity_refstate-crust.xmf,28,-6.4344e-07,1.42993e-06,0,9.62615e-06,-1.09873e+09,-1.09859e+09,-1.09869e+09,660354,-0.0270173,0.191117,-0,0.193017,-4185.58,-40000,-0,40218.4,660354
step02_gravity_refstate-crust.xmf,29,2.38686e-07,-2.75971e-07,0,1.07809e-05,-1.09871e+09,-1.09874e+09,-1.09872e+09,739568,-0.0271354,0.202898,-0,0.204705,-3601.4,-40000,-0,40161.8,739568
step02_gravity_refstate-crust.xmf,30,1.46356e-06,-2.50757e-06,0,1.20124e-05,-1.09866e+09,-1.09894e+09,-1.09876e+09,824052,-0.0266641,0.215076,-0,0.216723,-3044.18,-40000,-0,40115.7,824052
step02_gravity_refstate-crust.xmf,31,3.27229e-06,-5.67377e-06,0,1.33847e-05,-1.0986e+09,-1.09921e+09,-1.09882e+09,918190,-0.0254177,0.22761,-0,0.229024,-2511.47,-40000,-0,40078.8,918190
step02_gravity_refstate-crust.xmf,32,7.80628e-06,-1.14324e-05,0,1.48463e-05,-1.09834e+09,-1.09966e+09,-1.09887e+09,1.01845e+06,-0.0229758,0.240308,-0,0.241404,-2000,-40000,-0,40050,1.01845e+06
step02_gravity_refstate-crust.xmf,33,6.28481e-06,-1.00561e-05,0,-1.41481e-05,-1.09845e+09,-1.09957e+09,-1.09888e+09,-970561,0.0229758,0.240307,0,0.241403,2000,-40000,0,40050,970561
step02_gravity_refstate-crust.xmf,34,3.21078e-06,-5.48915e-06,0,-1.32415e-05,-1.0986e+09,-1.09919e+09,-1.09882e+09,-908369,0.0254191,0.227611,0,0.229026,2511.47,-40000,0,40078.8,908369
step02_gravity_refstate-crust.xmf,35,1.46585e-06,-2.48854e-06,0,-1.19534e-05,-1.09866e+09,-1.09893e+09,-1.09876e+09,-820001,0.0266621,0.215076,0,0.216723,3044.18,-40000,0,40115.7,820001
step02_gravity_refstate-crust.xmf,36,2.43588e-07,-2.92729e-07,0,-1.07534e-05,-1.09871e+09,-1.09874e+09,-1.09872e+09,-737681,0.0271349,0.202898,0,0.204704,3601.4,-40000,0,40161.8,737681
step02_gravity_refstate-crust.xmf,37,-6.30523e-07,1.37586e-06,0,-9.61102e-06,-1.09873e+09,-1.09859e+09,-1.09869e+09,-659316,0.0270173,0.191117,0,0.193017,4185.58,-40000,0,40218.4,659316
step02_gravity_refstate-crust.xmf,38,-1.25997e-06,2.66985e-06,0,-8.54104e-06,-1.09875e+09,-1.09848e+09,-1.09866e+09,-585916,0.0264379,0.179774,0,0.181708,4798.49,-40000,0,40286.8,585916
step02_gravity_refstate-crust.xmf,39,-1.68157e-06,3.65019e-06,0,-7.53485e-06,-1.09875e+09,-1.09839e+09,-1.09864e+09,-516890,0.025487,0.168899,0,0.170811,5441.79,-40000,0,40368.5,516890
step02_gravity_refstate-crust.xmf,40,-1.96649e-06,4.40171e-06,0,-6.61588e-06,-1.09875e+09,-1.09831e+09,-1.09862e+09,-453849,0.024253,0.158511,0,0.160356,6117.1,-40000,0,40465,453849
step02_gravity_refstate-crust.xmf,41,-2.12942e-06,4.96128e-06,0,-5.77523e-06,-1.09875e+09,-1.09826e+09,-1.0986e+09,-396181,0.0227976,0.148625,0,0.150363,6826.09,-40000,0,40578.3,396181
step02_gravity_refstate-crust.xmf,42,-2.20904e-06,5.377e-06,0,-5.01465e-06,-1.09874e+09,-1.09822e+09,-1.09859e+09,-344005,0.0211807,0.139243,0,0.140845,7570.51,-40000,0,40710.1,344005
step02_gravity_refstate-crust.xmf,43,-2.21737e-06,5.67069e-06,0,-4.33042e-06,-1.09873e+09,-1.09818e+09,-1.09857e+09,-297067,0.0194491,0.130367,0,0.131809,8352.15,-40000,0,40862.7,297067
step02_gravity_refstate-crust.xmf,44,-2.17471e-06,5.86162e-06,0,-3.71947e-06,-1.09871e+09,-1.09816e+09,-1.09856e+09,-255156,0.017645,0.12199,0,0.123259,9172.9,-40000,0,41038.3,255156
step02_gravity_refstate-crust.xmf,45,-2.09544e-06,5.98032e-06,0,-3.175e-06,-1.0987e+09,-1.09814e+09,-1.09855e+09,-217805,0.0158026,0.114105,0,0.115194,10034.7,-40000,0,41239.5,217805
step02_gravity_refstate-crust.xmf,46,-1.98937e-06,6.03988e-06,0,-2.69198e-06,-1.09868e+09,-1.09813e+09,-1.09855e+09,-184670,0.0139518,0.106704,0,0.107612,10939.7,-40000,0,41469,184670
step02_gravity_refstate-crust.xmf,47,-1.86409e-06,6.05148e-06,0,-2.26455e-06,-1.09867e+09,-1.09813e+09,-1.09854e+09,-155348,0.0121183,0.0997764,0,0.10051,11890.1,-40000,0,41729.8,155348
step02_gravity_refstate-crust.xmf,48,-1.72569e-06,6.02399e-06,0,-1.88779e-06,-1.09866e+09,-1.09812e+09,-1.09854e+09,-129502,0.0103247,0.0933132,0,0.0938826,12888,-40000,0,42025,129502
step02_gravity_refstate-crust.xmf,49,-1.57795e-06,5.96722e-06,0,-1.55464e-06,-1.09864e+09,-1.09812e+09,-1.09853e+09,-106649,0.0085915,0.0873037,0,0.0877255,13936,-40000,0,42358.1,106649
step02_gravity_refstate-crust.xmf,50,-1.4243e-06,5.88524e-06,0,-1.26379e-06,-1.09863e+09,-1.09813e+09,-1.09853e+09,-86696.3,0.0069379,0.0817384,0,0.0820323,15036.5,-40000,0,42732.8,86696.3
step02_gravity_refstate-crust.xmf,51,-1.26705e-06,5.78364e-06,0,-1.00872e-06,-1.09861e+09,-1.09813e+09,-1.09853e+09,-69198.2,0.00538047,0.0766065,0,0.0767953,16192.1,-40000,0,43153.1,69198.2
step02_gravity_refstate-crust.xmf,52,-1.1089e-06,5.66645e-06,0,-7.88916e-07,-1.0986e+09,-1.09814e+09,-1.09853e+09,-54119.6,0.00393671,0.0718987,0,0.0720064,17405.7,-40000,0,43622.9,54119.6
step02_gravity_refstate-crust.xmf,53,-9.51219e-07,5.5377e-06,0,-6.00184e-07,-1.09859e+09,-1.09815e+09,-1.09852e+09,-41172.6,0.00262198,0.0676037,0,0.0676545,18680.2,-40000,0,44146.9,41172.6
step02_gravity_refstate-crust.xmf,54,-7.95646e-07,5.40096e-06,0,-4.40103e-07,-1.09858e+09,-1.09815e+09,-1.09852e+09,-30191,0.00145101,0.0637102,0,0.0637267,20018.5,-40000,0,44729.6,30191
step02_gravity_refstate-crust.xmf,55,-6.44115e-07,5.25947e-06,0,-3.07073e-07,-1.09857e+09,-1.09816e+09,-1.09852e+09,-21065.2,0.000437849,0.0602061,0,0.0602077,21423.9,-40000,0,45376,21065.2
step02_gravity_refstate-crust.xmf,56,-4.97422e-07,5.11659e-06,0,-1.9745e-07,-1.09856e+09,-1.09817e+09,-1.09852e+09,-13545.1,-0.000406769,0.0570779,-0,0.0570794,22899.8,-40000,0,46091.2,13545.1
step02_gravity_refstate-crust.xmf,57,-3.5834e-07,4.97468e-06,0,-1.11483e-07,-1.09855e+09,-1.09818e+09,-1.09852e+09,-7647.72,-0.00107151,0.054313,-0,0.0543235,24449.7,-40000,0,46880.6,7647.72
step02_gravity_refstate-crust.xmf,58,-2.27795e-07,4.83661e-06,0,-4.62677e-08,-1.09854e+09,-1.09819e+09,-1.09852e+09,-3173.96,-0.00154992,0.0518969,-0,0.05192,26077.3,-40000,0,47749.6,3173.96
step02_gravity_refstate-crust.xmf,59,-1.07723e-07,4.70561e-06,0,-2.16176e-10,-1.09853e+09,-1.0982e+09,-1.09852e+09,-14.8297,-0.0018378,0.0498161,-0,0.04985,27786.5,-40000,0,48704.1,14.8297
step02_gravity_refstate-crust.xmf,60,9.25647e-11,4.58494e-06,0,2.88057e-08,-1.09852e+09,-1.09821e+09,-1.09852e+09,1976.07,-0.00193526,0.0480581,-0,0.0480971,29581.4,-40000,0,49750,1976.07
step02_gravity_refstate-crust.xmf,61,9.40365e-08,4.47701e-06,0,4.32426e-08,-1.09852e+09,-1.09822e+09,-1.09853e+09,2966.44,-0.00184784,0.0466128,-0,0.0466494,31466.4,-40000,0,50893.4,2966.44
step02_gravity_refstate-crust.xmf,62,1.71234e-07,4.38753e-06,0,4.46242e-08,-1.09851e+09,-1.09823e+09,-1.09853e+09,3061.22,-0.00158637,0.0454735,-0,0.0455011,33445.9,-40000,0,52140.4,3061.22
step02_gravity_refstate-crust.xmf,63,2.29901e-07,4.31889e-06,0,3.60959e-08,-1.09851e+09,-1.09823e+09,-1.09853e+09,2476.18,-0.00117042,0.0446399,-0,0.0446553,35524.6,-40000,0,53497.6,2476.18
step02_gravity_refstate-crust.xmf,64,2.66961e-07,4.27518e-06,0,2.04704e-08,-1.09851e+09,-1.09823e+09,-1.09853e+09,1404.27,-0.000628099,0.0441211,-0,0.0441255,37707.6,-40000,0,54971.4,1404.27
step02_gravity_refstate-crust.xmf,65,2.81012e-07,4.25697e-06,0,2.54042e-09,-1.09851e+09,-1.09823e+09,-1.09853e+09,174.272,-1.23963e-20,0.0439401,-0,0.0439401,40000,-40000,0,56568.5,174.272
step02_gravity_refstate-crust.xmf,66,1.41609e-07,4.19451e-06,0,-5.95771e-09,-1.05618e+09,-1.0559e+09,-1.05619e+09,-408.699,0.000233428,0.0505508,0,0.0505514,-38399.3,-38458.4,-0,54346.6,408.699
step02_gravity_refstate-crust.xmf,67,9.97416e-08,4.21012e-06,0,-2.44392e-09,-1.05132e+09,-1.05104e+09,-1.05133e+09,-167.653,0.000424517,0.0516665,0,0.0516682,-36539.6,-38281.4,-0,52920.8,167.653
step02_gravity_refstate-crust.xmf,68,5.52175e-08,4.27141e-06,0,6.26653e-10,-1.05378e+09,-1.05349e+09,-1.05378e+09,42.9884,0.000637044,0.0520966,0,0.0521005,-34354.9,-38370.6,-0,51503,42.9884
step02_gravity_refstate-crust.xmf,69,8.00097e-08,4.14265e-06,0,-3.06753e-09,-1.03313e+09,-1.03285e+09,-1.03314e+09,-210.433,9.48571e-22,0.0539464,0,0.0539464,-40000,-37619,-0,54910.7,210.433
step02_gravity_refstate-crust.xmf,70,-9.59165e-08,4.4553e-06,0,3.53235e-08,-1.05758e+09,-1.05727e+09,-1.05758e+09,2423.19,0.000680478,0.0541744,0,0.0541787,-30297.9,-38508.9,-0,48998.9,2423.19
step02_gravity_refstate-crust.xmf,71,-1.77867e-08,4.35228e-06,0,1.45227e-08,-1.0542e+09,-1.0539e+09,-1.0542e+09,996.26,0.000695336,0.0532113,0,0.0532158,-32259.1,-38385.7,-0,50140.9,996.26
step02_gravity_refstate-crust.xmf,72,-1.52593e-07,4.56803e-06,0,4.76337e-08,-1.06648e+09,-1.06616e+09,-1.06647e+09,3267.67,0.000771231,0.0542176,0,0.054223,-28730.2,-38832.8,-0,48305.4,3267.67
step02_gravity_refstate-crust.xmf,73,-4.26099e-07,4.80247e-06,0,1.93212e-07,-1.06001e+09,-1.05966e+09,-1.05999e+09,13254.3,-0.000492264,0.060007,-0,0.060009,-25169.5,-38596.6,-0,46078.2,13254.3
step02_gravity_refstate-crust.xmf,74,-3.06906e-07,4.63958e-06,0,1.29787e-07,-1.05181e+09,-1.05147e+09,-1.05179e+09,8903.38,-0.000136643,0.058607,-0,0.0586071,-27093.1,-38298.2,-0,46912.6,8903.38
step02_gravity_refstate-crust.xmf,75,-2.85014e-08,4.08454e-06,0,1.55439e-08,-9.99437e+08,-9.99155e+08,-9.99435e+08,1066.31,-3.96285e-05,0.0592108,-0,0.0592108,-37749.3,-36391.7,-0,52434.4,1066.31
step02_gravity_refstate-crust.xmf,76,-4.65687e-08,4.14756e-06,0,3.56003e-08,-1.00878e+09,-1.00849e+09,-1.00878e+09,2442.18,-3.40641e-05,0.0585791,-0,0.0585792,-35291.8,-36732,-0,50938.7,2442.18
step02_gravity_refstate-crust.xmf,77,-5.4025e-07,4.94542e-06,0,2.65388e-07,-1.06561e+09,-1.06523e+09,-1.06557e+09,18205.6,-0.000974574,0.0617472,-0,0.0617548,-23611.9,-38799.9,-0,45419.8,18205.6
step02_gravity_refstate-crust.xmf,78,-1.03218e-07,4.21969e-06,0,6.12013e-08,-1.01172e+09,-1.01142e+09,-1.01171e+09,4198.41,-0.000141976,0.0592756,-0,0.0592757,-33130.4,-36838.6,-0,49545.1,4198.41
step02_gravity_refstate-crust.xmf,79,-9.58466e-08,3.99745e-06,0,-1.96448e-09,-9.67519e+08,-9.67238e+08,-9.67512e+08,-134.763,-2.31493e-20,0.0636713,-0,0.0636713,-40000,-35229.3,-0,53302,134.763
step02_gravity_refstate-crust.xmf,80,-2.65259e-07,4.45236e-06,0,1.32071e-07,-1.02494e+09,-1.02462e+09,-1.02493e+09,9060.09,-0.000556037,0.0608664,-0,0.0608689,-28892,-37320,-0,47196.7,9060.09
step02_gravity_refstate-crust.xmf,81,-2.09729e-07,4.30052e-06,0,1.10919e-07,-1.00587e+09,-1.00556e+09,-1.00586e+09,7609.07,-0.000607671,0.0618756,-0,0.0618786,-30910.4,-36625.5,-0,47925.8,7609.07
step02_gravity_refstate-crust.xmf,82,-6.79066e-07,5.07149e-06,0,3.73961e-07,-1.06539e+09,-1.06499e+09,-1.06534e+09,25653.7,-0.00187264,0.0648086,-0,0.0648357,-22147.4,-38791.6,-0,44668.7,25653.7
step02_gravity_refstate-crust.xmf,83,-8.1446e-07,5.19524e-06,0,4.99021e-07,-1.06655e+09,-1.06613e+09,-1.06649e+09,34232.8,-0.00282665,0.0678956,-0,0.0679544,-20774.5,-38833.4,-0,44041,34232.8
step02_gravity_refstate-crust.xmf,84,-5.92213e-07,4.78113e-06,0,3.50435e-07,-1.03e+09,-1.02963e+09,-1.02995e+09,24039.8,-0.00236642,0.0671325,-0,0.0671742,-24097,-37503,-0,44577.4,24039.8
step02_gravity_refstate-crust.xmf,85,-9.59951e-07,5.31509e-06,0,6.51944e-07,-1.06683e+09,-1.0664e+09,-1.06677e+09,44723.4,-0.00398625,0.0715579,-0,0.0716689,-19438.8,-38843.5,-0,43436,44723.4
step02_gravity_refstate-crust.xmf,86,-1.10496e-06,5.42266e-06,0,8.34068e-07,-1.067e+09,-1.06655e+09,-1.06693e+09,57217.1,-0.00528604,0.075618,-0,0.0758026,-18161.3,-38849.2,-0,42884.7,57217.1
step02_gravity_refstate-crust.xmf,87,-5.02203e-07,4.6235e-06,0,2.93719e-07,-1.01612e+09,-1.01576e+09,-1.01608e+09,20149.1,-0.00207972,0.0667308,-0,0.0667632,-25668.8,-36997.8,-0,45030.3,20149.1
step02_gravity_refstate-crust.xmf,88,-1.89369e-07,3.9163e-06,0,4.10733e-08,-9.32212e+08,-9.31931e+08,-9.32199e+08,2817.63,-0.000379355,0.0689737,-0,0.0689747,-37900.8,-33943.4,-0,50878.5,2817.63
step02_gravity_refstate-crust.xmf,89,-1.59621e-07,4.10286e-06,0,8.65426e-08,-9.76747e+08,-9.76455e+08,-9.76737e+08,5936.82,-0.000599317,0.0639924,-0,0.0639952,-34091.1,-35565.2,-0,49265.5,5936.82
step02_gravity_refstate-crust.xmf,90,-1.64913e-07,4.01073e-06,0,6.86892e-08,-9.56807e+08,-9.56521e+08,-9.56796e+08,4712.08,-0.000566134,0.066082,-0,0.0660844,-35817.2,-34839.1,-0,49966.3,4712.08
step02_gravity_refstate-crust.xmf,91,-4.32467e-07,4.46096e-06,0,2.5865e-07,-9.97364e+08,-9.97028e+08,-9.97334e+08,17743.4,-0.00198175,0.0673437,-0,0.0673729,-27303.9,-36315.2,-0,45434.5,17743.4
step02_gravity_refstate-crust.xmf,92,-6.69852e-07,4.91648e-06,0,4.03772e-07,-1.04113e+09,-1.04075e+09,-1.04109e+09,27698.8,-0.00263526,0.0676681,-0,0.0677194,-22857.1,-37908.4,-0,44266.2,27698.8
step02_gravity_refstate-crust.xmf,93,-1.2461e-06,5.5476e-06,0,1.03709e-06,-1.06983e+09,-1.06937e+09,-1.06975e+09,71144.3,-0.00662511,0.0798382,-0,0.0801126,-16860.6,-38951.9,-0,42444.5,71144.3
step02_gravity_refstate-crust.xmf,94,-2.3447e-07,4.1549e-06,0,1.34764e-07,-9.73163e+08,-9.72862e+08,-9.73147e+08,9244.81,-0.00102248,0.0657956,-0,0.0658035,-32232.2,-35434.5,-0,47901.1,9244.81
step02_gravity_refstate-crust.xmf,95,-2.42459e-07,3.82074e-06,0,-1.75022e-09,-9.01461e+08,-9.01182e+08,-9.01444e+08,-120.065,-4.20614e-20,0.073075,-0,0.073075,-40000,-32823.5,-0,51743.4,120.065
step02_gravity_refstate-crust.xmf,96,-3.82026e-07,4.30004e-06,0,2.35897e-07,-9.74823e+08,-9.74501e+08,-9.74796e+08,16182.5,-0.0019646,0.0687486,-0,0.0687767,-28983.4,-35494.5,-0,45824.7,16182.5
step02_gravity_refstate-crust.xmf,97,-9.39931e-07,5.11908e-06,0,6.89888e-07,-1.03943e+09,-1.03901e+09,-1.03936e+09,47326.3,-0.00493817,0.074832,-0,0.0749948,-20099.2,-37845.6,-0,42851.7,47326.3
step02_gravity_refstate-crust.xmf,98,-8.21959e-07,4.97362e-06,0,5.6609e-07,-1.03056e+09,-1.03016e+09,-1.0305e+09,38833.8,-0.00414746,0.0726631,-0,0.0727814,-21520.4,-37522.9,-0,43256.2,38833.8
step02_gravity_refstate-crust.xmf,99,-7.39365e-07,4.77288e-06,0,5.20257e-07,-1.00743e+09,-1.00706e+09,-1.00738e+09,35689.6,-0.00413206,0.0735013,-0,0.0736174,-22909.3,-36681,-0,43247.3,35689.6
step02_gravity_refstate-crust.xmf,100,-6.55411e-07,4.60464e-06,0,4.60857e-07,-9.89196e+08,-9.88835e+08,-9.89151e+08,31614.8,-0.00384944,0.0735889,-0,0.0736895,-24365.7,-36017.1,-0,43484.7,31614.8
step02_gravity_refstate-crust.xmf,101,-1.07918e-06,5.15899e-06,0,8.93179e-07,-1.03121e+09,-1.03078e+09,-1.03113e+09,61272.1,-0.00660631,0.0800867,-0,0.0803587,-18885.8,-37545.8,-0,42028.1,61272.1
step02_gravity_refstate-crust.xmf,102,-1.22507e-06,5.30426e-06,0,1.09088e-06,-1.04042e+09,-1.03998e+09,-1.04034e+09,74834.5,-0.0077393,0.083372,-0,0.0837305,-17450.3,-37880.9,-0,41707,74834.5
step02_gravity_refstate-crust.xmf,103,-1.42041e-06,5.61609e-06,0,1.33439e-06,-1.06751e+09,-1.06702e+09,-1.06741e+09,91538.9,-0.00853723,0.0859009,-0,0.0863241,-15543,-38866.5,-0,41859.2,91538.9
step02_gravity_refstate-crust.xmf,104,-1.56034e-06,5.7457e-06,0,1.59137e-06,-1.07594e+09,-1.07544e+09,-1.07583e+09,109168,-0.00970875,0.0899538,-0,0.0904762,-14350.9,-39173.3,-0,41719.2,109168
step02_gravity_refstate-crust.xmf,105,-5.8538e-07,4.44317e-06,0,4.15742e-07,-9.69452e+08,-9.69107e+08,-9.69412e+08,28519.9,-0.00362991,0.0741679,-0,0.0742566,-25828.4,-35298.4,-0,43738.8,28519.9
step02_gravity_refstate-crust.xmf,106,-3.51241e-07,4.15714e-06,0,2.19138e-07,-9.51688e+08,-9.51379e+08,-9.51664e+08,15032.8,-0.00193923,0.0705496,-0,0.0705763,-30565.8,-34652.2,-0,46206.5,15032.8
step02_gravity_refstate-crust.xmf,107,-3.15323e-07,3.72529e-06,0,6.49872e-08,-8.67262e+08,-8.66985e+08,-8.6724e+08,4458.12,-0.000639975,0.0780067,-0,0.0780093,-37920.9,-31578,-0,49347.4,4458.12
step02_gravity_refstate-crust.xmf,108,-2.84906e-07,3.9769e-06,0,1.49225e-07,-9.27224e+08,-9.26931e+08,-9.27204e+08,10236.8,-0.00137363,0.0715015,-0,0.0715147,-33734,-33761.5,-0,47726.6,10236.8
step02_gravity_refstate-crust.xmf,109,-2.89638e-07,3.84252e-06,0,1.1287e-07,-8.97418e+08,-8.97135e+08,-8.97398e+08,7742.89,-0.00108048,0.0745473,-0,0.0745551,-35880.3,-32676.2,-0,48529.7,7742.89
step02_gravity_refstate-crust.xmf,110,-5.26687e-07,4.2813e-06,0,3.78628e-07,-9.47092e+08,-9.46762e+08,-9.47055e+08,25973.9,-0.00343728,0.0752592,-0,0.0753376,-27364.3,-34484.3,-0,44022.4,25973.9
step02_gravity_refstate-crust.xmf,111,-1.33495e-06,5.40451e-06,0,1.27032e-06,-1.04647e+09,-1.046e+09,-1.04638e+09,87144.1,-0.00874364,0.0864465,-0,0.0868875,-16382.2,-38100.6,-0,41473.3,87144.1
step02_gravity_refstate-crust.xmf,112,-1.67092e-06,5.84979e-06,0,1.82598e-06,-1.083e+09,-1.08248e+09,-1.08288e+09,125262,-0.0106992,0.0936096,-0,0.0942191,-13409.4,-39430,-0,41647.7,125262
step02_gravity_refstate-crust.xmf,113,-3.42138e-07,4.03806e-06,0,2.10138e-07,-9.29253e+08,-9.28952e+08,-9.29229e+08,14415.5,-0.0019248,0.0726639,-0,0.0726894,-31854.6,-33835.2,-0,46470.8,14415.5
step02_gravity_refstate-crust.xmf,114,-3.57735e-07,3.61229e-06,0,-1.37205e-09,-8.34756e+08,-8.34483e+08,-8.34731e+08,-94.1225,-5.68773e-20,0.0821032,-0,0.0821032,-40000,-30394.3,-0,50237.5,94.1225
step02_gravity_refstate-crust.xmf,115,-4.80539e-07,4.12983e-06,0,3.44793e-07,-9.24085e+08,-9.23769e+08,-9.24052e+08,23652.8,-0.00321959,0.0766203,-0,0.0766879,-28916.6,-33646.7,-0,44365.2,23652.8
step02_gravity_refstate-crust.xmf,116,-9.74357e-07,4.9313e-06,0,8.1361e-07,-1.00593e+09,-1.00552e+09,-1.00586e+09,55813.7,-0.00647515,0.0805433,-0,0.0808032,-20245.1,-36625.5,-0,41848.5,55813.7
step02_gravity_refstate-crust.xmf,117,-8.80063e-07,4.75768e-06,0,7.21654e-07,-9.87576e+08,-9.8719e+08,-9.87516e+08,49505.5,-0.00601254,0.080052,-0,0.0802775,-21610.2,-35957.5,-0,41951.6,49505.5
step02_gravity_refstate-crust.xmf,118,-7.93255e-07,4.57901e-06,0,6.53575e-07,-9.66285e+08,-9.65916e+08,-9.6623e+08,44835.2,-0.00568096,0.0803338,-0,0.0805344,-22987,-35182.4,-0,42026.3,44835.2
step02_gravity_refstate-crust.xmf,119,-7.15818e-07,4.41084e-06,0,5.91942e-07,-9.44878e+08,-9.44527e+08,-9.44829e+08,40607.2,-0.00532358,0.0807853,-0,0.0809605,-24405.5,-34403.2,-0,42180.6,40607.2
step02_gravity_refstate-crust.xmf,120,-1.20355e-06,5.05726e-06,0,1.1809e-06,-1.00761e+09,-1.00718e+09,-1.00753e+09,81009.6,-0.00902628,0.0881757,-0,0.0886365,-17822.4,-36686,-0,40786,81009.6
step02_gravity_refstate-crust.xmf,121,-1.32275e-06,5.19231e-06,0,1.36715e-06,-1.02025e+09,-1.0198e+09,-1.02016e+09,93786.8,-0.00996341,0.0907032,-0,0.0912488,-16573.9,-37145.9,-0,40675.8,93786.8
step02_gravity_refstate-crust.xmf,122,-1.43673e-06,5.33734e-06,0,1.54326e-06,-1.03432e+09,-1.03385e+09,-1.03422e+09,105867,-0.0106988,0.092795,-0,0.0934098,-15483.1,-37657.9,-0,40716.6,105867
step02_gravity_refstate-crust.xmf,123,-1.55155e-06,5.47832e-06,0,1.73886e-06,-1.04782e+09,-1.04734e+09,-1.04772e+09,119286,-0.0114398,0.0951856,-0,0.0958706,-14450.5,-38149.3,-0,40794.4,119286
step02_gravity_refstate-crust.xmf,124,-1.80253e-06,5.77042e-06,0,2.23736e-06,-1.07489e+09,-1.07437e+09,-1.07477e+09,153483,-0.01302,0.101367,-0,0.1022,-12419.7,-39134.1,-0,41057.6,153483
step02_gravity_refstate-crust.xmf,125,-1.67209e-06,5.60548e-06,0,1.98108e-06,-1.05976e+09,-1.05926e+09,-1.05964e+09,135902,-0.0123333,0.0983894,-0,0.0991594,-13421.4,-38583.4,-0,40851.1,135902
step02_gravity_refstate-crust.xmf,126,-6.49328e-07,4.24678e-06,0,5.38933e-07,-9.22064e+08,-9.21728e+08,-9.22019e+08,36970.8,-0.00497728,0.0816068,-0,0.0817585,-25862.5,-33572.6,-0,42379.1,36970.8
step02_gravity_refstate-crust.xmf,127,-4.42246e-07,3.99785e-06,0,3.06081e-07,-9.03268e+08,-9.02963e+08,-9.03238e+08,20997.2,-0.00290812,0.0778158,-0,0.0778701,-30493.9,-32888.8,-0,44850.3,20997.2
step02_gravity_refstate-crust.xmf,128,-4.10829e-07,3.5047e-06,0,8.71887e-08,-8.01816e+08,-8.01548e+08,-8.01788e+08,5981.14,-0.000843011,0.0866237,-0,0.0866278,-37915.2,-29194.7,-0,47852.9,5981.14
step02_gravity_refstate-crust.xmf,129,-3.91773e-07,3.63746e-06,0,1.55354e-07,-8.3446e+08,-8.34184e+08,-8.34433e+08,10657.3,-0.00150662,0.0831096,-0,0.0831232,-35907.7,-30383.4,-0,47037.4,10657.3
step02_gravity_refstate-crust.xmf,130,-4.11757e-07,3.88314e-06,0,2.62832e-07,-8.84424e+08,-8.8413e+08,-8.84396e+08,18030.3,-0.00252324,0.0789076,-0,0.0789479,-32102.5,-32202.7,-0,45470.7,18030.3
step02_gravity_refstate-crust.xmf,131,-3.87066e-07,3.77528e-06,0,2.07221e-07,-8.65485e+08,-8.652e+08,-8.65459e+08,14215.4,-0.00200797,0.0800537,-0,0.0800789,-33973.7,-31513.1,-0,46338.8,14215.4
step02_gravity_refstate-crust.xmf,132,-5.94045e-07,4.08795e-06,0,4.91282e-07,-8.97989e+08,-8.97667e+08,-8.97948e+08,33701.9,-0.0046225,0.0827585,-0,0.0828875,-27353.7,-32696.1,-0,42629.3,33701.9
step02_gravity_refstate-crust.xmf,133,-1.10159e-06,4.90517e-06,0,1.06311e-06,-9.91167e+08,-9.90755e+08,-9.91092e+08,72929.6,-0.00849796,0.0872549,-0,0.0876677,-18937.1,-36087.6,-0,40754.5,72929.6
step02_gravity_refstate-crust.xmf,134,-4.41691e-07,3.37249e-06,0,-9.44665e-10,-7.67199e+08,-7.66938e+08,-7.67169e+08,-64.804,-6.75812e-20,0.0906953,-0,0.0906953,-40000,-27934.1,-0,48788.5,64.804
step02_gravity_refstate-crust.xmf,135,-5.50333e-07,3.94026e-06,0,4.45644e-07,-8.7391e+08,-8.73602e+08,-8.73872e+08,30571.2,-0.00423779,0.084086,-0,0.0841927,-28847.1,-31819.4,-0,42949.2,30571.2
step02_gravity_refstate-crust.xmf,136,-1.19106e-06,4.82845e-06,0,1.32106e-06,-9.76491e+08,-9.76078e+08,-9.76409e+08,90624.9,-0.010406,0.0938477,-0,0.0944229,-17803.3,-35552.8,-0,39761.3,90624.9
step02_gravity_refstate-crust.xmf,137,-1.01678e-06,4.69077e-06,0,1.00269e-06,-9.6415e+08,-9.63759e+08,-9.6408e+08,68784.3,-0.00836401,0.0883195,-0,0.0887147,-20091.4,-35104,-0,40446.9,68784.3
step02_gravity_refstate-crust.xmf,138,-9.09105e-07,4.52454e-06,0,8.72741e-07,-9.44633e+08,-9.44261e+08,-9.44571e+08,59870,-0.00758115,0.0872906,-0,0.0876192,-21617.6,-34393.6,-0,40623.2,59870
step02_gravity_refstate-crust.xmf,139,-8.23941e-07,4.35827e-06,0,7.88083e-07,-9.22679e+08,-9.22324e+08,-9.22623e+08,54062.5,-0.00705142,0.0873891,-0,0.0876731,-23004.6,-33594.5,-0,40716.1,54062.5
step02_gravity_refstate-crust.xmf,140,-7.50767e-07,4.19313e-06,0,7.17609e-07,-8.99065e+08,-8.98726e+08,-8.99013e+08,49228,-0.00656569,0.0879605,-0,0.0882052,-24406.6,-32734.8,-0,40832,49228
step02_gravity_refstate-crust.xmf,141,-1.29033e-06,4.93861e-06,0,1.48584e-06,-9.8926e+08,-9.88833e+08,-9.89172e+08,101929,-0.0112429,0.0958731,-0,0.0965301,-16705.9,-36017.4,-0,39703.2,101929
step02_gravity_refstate-crust.xmf,142,-1.91118e-06,5.77783e-06,0,2.65783e-06,-1.07772e+09,-1.07719e+09,-1.07759e+09,182327,-0.0147964,0.108124,-0,0.109131,-11350.6,-39236.6,-0,40845.4,182327
step02_gravity_refstate-crust.xmf,143,-1.39682e-06,5.05362e-06,0,1.68446e-06,-1.00303e+09,-1.00259e+09,-1.00294e+09,115554,-0.0121603,0.0983094,-0,0.0990586,-15570.7,-36518.5,-0,39699.5,115554
step02_gravity_refstate-crust.xmf,144,-1.5096e-06,5.1747e-06,0,1.90716e-06,-1.01762e+09,-1.01717e+09,-1.01752e+09,130831,-0.0130804,0.10099,-0,0.101834,-14460.8,-37049.5,-0,39771.6,130831
step02_gravity_refstate-crust.xmf,145,-1.62113e-06,5.28906e-06,0,2.14669e-06,-1.03154e+09,-1.03106e+09,-1.03143e+09,147263,-0.0139618,0.103862,-0,0.104797,-13443.1,-37555.8,-0,39889.3,147263
step02_gravity_refstate-crust.xmf,146,-1.73049e-06,5.39454e-06,0,2.40511e-06,-1.04464e+09,-1.04415e+09,-1.04452e+09,164990,-0.014813,0.10697,-0,0.107991,-12505.2,-38032.4,-0,40035.6,164990
step02_gravity_refstate-crust.xmf,147,-6.88189e-07,4.03271e-06,0,6.54414e-07,-8.74463e+08,-8.74139e+08,-8.74415e+08,44892.8,-0.00607894,0.0888329,-0,0.0890407,-25835.1,-31839.1,-0,41002.3,44892.8
step02_gravity_refstate-crust.xmf,148,-5.12162e-07,3.80825e-06,0,3.91071e-07,-8.51805e+08,-8.51509e+08,-8.5177e+08,26827.5,-0.00373955,0.0851898,-0,0.0852718,-30441.5,-31014.7,-0,43457.9,26827.5
step02_gravity_refstate-crust.xmf,149,-4.76777e-07,3.25802e-06,0,1.06331e-07,-7.36191e+08,-7.35935e+08,-7.36159e+08,7294.29,-0.000988039,0.0947073,-0,0.0947124,-37903.9,-26804.9,-0,46424.2,7294.29
step02_gravity_refstate-crust.xmf,150,-4.65881e-07,3.40455e-06,0,1.94662e-07,-7.70643e+08,-7.70378e+08,-7.70611e+08,13353.8,-0.00183541,0.0913023,-0,0.0913208,-35887,-28059.4,-0,45554.5,13353.8
step02_gravity_refstate-crust.xmf,151,-4.67153e-07,3.54777e-06,0,2.67904e-07,-8.02228e+08,-8.01953e+08,-8.02196e+08,18378.2,-0.00255322,0.0885001,-0,0.088537,-33957.1,-29209.5,-0,44791.5,18378.2
step02_gravity_refstate-crust.xmf,152,-4.82838e-07,3.68298e-06,0,3.31365e-07,-8.29402e+08,-8.29117e+08,-8.29369e+08,22731.7,-0.00317279,0.0864551,-0,0.0865133,-32137.7,-30199,-0,44100,22731.7
step02_gravity_refstate-crust.xmf,153,-6.36026e-07,3.87768e-06,0,5.95131e-07,-8.49037e+08,-8.48727e+08,-8.48993e+08,40826,-0.00557453,0.0899555,-0,0.0901281,-27293.2,-30913.5,-0,41237.9,40826
step02_gravity_refstate-crust.xmf,154,-1.11287e-06,4.71696e-06,0,1.2107e-06,-9.62848e+08,-9.62448e+08,-9.62771e+08,83054.4,-0.00983187,0.0928414,-0,0.0933605,-18751.3,-35056.2,-0,39756.1,83054.4
step02_gravity_refstate-crust.xmf,155,-1.228e-06,4.7174e-06,0,1.54649e-06,-9.62551e+08,-9.62143e+08,-9.62467e+08,106089,-0.0119915,0.099714,-0,0.100432,-16915.1,-35045,-0,38913.6,106089
step02_gravity_refstate-crust.xmf,156,-1.82725e-06,5.46192e-06,0,2.69487e-06,-1.05492e+09,-1.05442e+09,-1.05479e+09,184868,-0.0157414,0.110672,-0,0.111785,-11645.6,-38406.4,-0,40133.2,184868
step02_gravity_refstate-crust.xmf,157,-2.00429e-06,5.63255e-06,0,3.17658e-06,-1.07517e+09,-1.07465e+09,-1.07503e+09,217913,-0.0168813,0.116216,-0,0.117436,-10374.6,-39143.2,-0,40494.7,217913
step02_gravity_refstate-crust.xmf,158,-4.96932e-07,3.10103e-06,0,3.23135e-10,-6.98588e+08,-6.98341e+08,-6.98554e+08,22.1671,-1.70634e-19,0.0987862,-0,0.0987862,-40000,-25435.6,-0,47402.2,22.1671
step02_gravity_refstate-crust.xmf,159,-5.95851e-07,3.72956e-06,0,5.39064e-07,-8.22989e+08,-8.22693e+08,-8.22948e+08,36979.8,-0.00505967,0.0913358,-0,0.0914758,-28748.2,-29965.1,-0,41525.5,36979.8
step02_gravity_refstate-crust.xmf,160,-1.15699e-06,4.61057e-06,0,1.42637e-06,-9.48103e+08,-9.47708e+08,-9.48024e+08,97849,-0.0113717,0.0986184,-0,0.0992718,-17832.3,-34519.1,-0,38853.1,97849
step02_gravity_refstate-crust.xmf,161,-1.07321e-06,4.52737e-06,0,1.25394e-06,-9.36594e+08,-9.3621e+08,-9.3652e+08,86020.2,-0.010353,0.0961893,-0,0.0967449,-19069,-34100.3,-0,39069.9,86020.2
step02_gravity_refstate-crust.xmf,162,-9.87381e-07,4.41626e-06,0,1.11096e-06,-9.21649e+08,-9.21278e+08,-9.21581e+08,76212.1,-0.00947342,0.0945959,-0,0.0950691,-20348.6,-33556.4,-0,39244.1,76212.1
step02_gravity_refstate-crust.xmf,163,-9.03784e-07,4.27127e-06,0,1.00224e-06,-9.01113e+08,-9.00758e+08,-9.01051e+08,68753.7,-0.00878281,0.0941704,-0,0.094579,-21651.5,-32808.9,-0,39309.2,68753.7
step02_gravity_refstate-crust.xmf,164,-8.26935e-07,4.11699e-06,0,9.08845e-07,-8.78076e+08,-8.77737e+08,-8.78019e+08,62346.8,-0.00813562,0.0942658,-0,0.0946162,-23007.3,-31970.3,-0,39388.2,62346.8
step02_gravity_refstate-crust.xmf,165,-7.58716e-07,3.96379e-06,0,8.23865e-07,-8.54017e+08,-8.53693e+08,-8.53965e+08,56517.1,-0.00748723,0.0946369,-0,0.0949326,-24413.3,-31094.4,-0,39533.1,56517.1
step02_gravity_refstate-crust.xmf,166,-1.30721e-06,4.71397e-06,0,1.80416e-06,-9.65899e+08,-9.65486e+08,-9.65809e+08,123765,-0.0133971,0.104251,-0,0.105109,-15715.3,-35166.5,-0,38518.2,123765
step02_gravity_refstate-crust.xmf,167,-1.89342e-06,5.458e-06,0,2.99477e-06,-1.06002e+09,-1.05951e+09,-1.05989e+09,205441,-0.0167604,0.114866,-0,0.116082,-10932.4,-38591.8,-0,40110.4,205441
step02_gravity_refstate-crust.xmf,168,-1.4215e-06,4.83738e-06,0,2.05328e-06,-9.85599e+08,-9.85169e+08,-9.85501e+08,140855,-0.0144125,0.106776,-0,0.107744,-14471.1,-35883.4,-0,38691.5,140855
step02_gravity_refstate-crust.xmf,169,-1.52401e-06,4.93366e-06,0,2.30713e-06,-1.00158e+09,-1.00114e+09,-1.00148e+09,158269,-0.0153619,0.10959,-0,0.110662,-13416.5,-36465,-0,38854.8,158269
step02_gravity_refstate-crust.xmf,170,-1.62153e-06,5.01539e-06,0,2.57574e-06,-1.01609e+09,-1.01564e+09,-1.01598e+09,176696,-0.016264,0.112613,-0,0.113781,-12468.6,-36993,-0,39037.8,176696
step02_gravity_refstate-crust.xmf,171,-1.71363e-06,5.09306e-06,0,2.8367e-06,-1.02948e+09,-1.02901e+09,-1.02936e+09,194598,-0.0170298,0.115458,-0,0.116708,-11660.4,-37480.2,-0,39252.1,194598
step02_gravity_refstate-crust.xmf,172,-2.08453e-06,5.58015e-06,0,3.676e-06,-1.08128e+09,-1.08076e+09,-1.08114e+09,252174,-0.0183158,0.122863,-0,0.124221,-9465.35,-39365.4,-0,40487.4,252174
step02_gravity_refstate-crust.xmf,173,-6.99768e-07,3.81463e-06,0,7.45096e-07,-8.29324e+08,-8.29014e+08,-8.29276e+08,51113.6,-0.00683851,0.0952553,-0,0.0955004,-25849.6,-30195.4,-0,39748.8,51113.6
step02_gravity_refstate-crust.xmf,174,-5.1607e-07,2.98539e-06,0,1.16609e-07,-6.6991e+08,-6.69669e+08,-6.69874e+08,7999.41,-0.00103833,0.102226,-0,0.102231,-37975.1,-24391.3,-0,45133.6,7999.41
step02_gravity_refstate-crust.xmf,175,-5.27563e-07,2.80796e-06,0,4.29246e-10,-6.28716e+08,-6.28488e+08,-6.2868e+08,29.4463,-5.82947e-20,0.106309,-0,0.106309,-40000,-22891.3,-0,46087,29.4463
step02_gravity_refstate-crust.xmf,176,-5.3541e-07,2.70172e-06,0,1.18311e-07,-6.04065e+08,-6.03843e+08,-6.04028e+08,8116.15,-0.00101738,0.109017,-0,0.109022,-38093.5,-21993.6,-0,43986.7,8116.15
step02_gravity_refstate-crust.xmf,177,-5.39638e-07,2.4943e-06,0,5.9018e-12,-5.5738e+08,-5.57172e+08,-5.57343e+08,0.404864,-6.43616e-20,0.113199,-0,0.113199,-40000,-20293.6,-0,44853.5,0.404864
step02_gravity_refstate-crust.xmf,178,-5.61715e-07,3.58617e-06,0,4.74227e-07,-7.96722e+08,-7.96438e+08,-7.96684e+08,32532,-0.00444141,0.0927267,-0,0.092833,-30340.1,-29008.7,-0,41976.5,32532
step02_gravity_refstate-crust.xmf,179,-5.13365e-07,3.14433e-06,0,2.25217e-07,-7.05627e+08,-7.05376e+08,-7.05592e+08,15449.9,-0.00204158,0.0990471,-0,0.0990682,-35901.9,-25691.8,-0,44147.7,15449.9
step02_gravity_refstate-crust.xmf,180,-5.18547e-07,3.29906e-06,0,3.19478e-07,-7.39391e+08,-7.39129e+08,-7.39355e+08,21916.2,-0.00294085,0.0963647,-0,0.0964096,-33915.6,-26921.3,-0,43301.5,21916.2
step02_gravity_refstate-crust.xmf,181,-5.34658e-07,3.44776e-06,0,4.00753e-07,-7.70123e+08,-7.6985e+08,-7.70086e+08,27491.6,-0.0037319,0.0942292,-0,0.0943031,-32058,-28040.3,-0,42590.8,27491.6
step02_gravity_refstate-crust.xmf,182,-6.51956e-07,3.64931e-06,0,6.80176e-07,-7.99333e+08,-7.99038e+08,-7.99288e+08,46660.1,-0.00625765,0.0967848,-0,0.0969869,-27281.8,-29103.5,-0,39891.3,46660.1
step02_gravity_refstate-crust.xmf,183,-1.18396e-06,4.4624e-06,0,1.71378e-06,-9.34353e+08,-9.33966e+08,-9.34272e+08,117565,-0.0131879,0.105659,-0,0.106479,-16612.8,-34018.2,-0,37857.9,117565
step02_gravity_refstate-crust.xmf,184,-1.79069e-06,5.14416e-06,0,3.09134e-06,-1.04009e+09,-1.03962e+09,-1.03997e+09,212066,-0.0177314,0.118358,-0,0.119679,-10979.2,-37866.4,-0,39426,212066
step02_gravity_refstate-crust.xmf,185,-1.86633e-06,5.17458e-06,0,3.38822e-06,-1.05e+09,-1.04951e+09,-1.04987e+09,232432,-0.0185036,0.121841,-0,0.123238,-10292.1,-38226.7,-0,39587.9,232432
step02_gravity_refstate-crust.xmf,186,-2.13034e-06,5.51319e-06,0,4.11861e-06,-1.08655e+09,-1.08603e+09,-1.08641e+09,282537,-0.0194351,0.128567,-0,0.130027,-8762.52,-39556.9,-0,40515.8,282537
step02_gravity_refstate-crust.xmf,187,-5.41136e-07,2.44439e-06,0,1.09845e-07,-5.46236e+08,-5.46031e+08,-5.46199e+08,7535.33,-0.000927432,0.114391,-0,0.114395,-38284.7,-19887.9,-0,43142.1,7535.33
step02_gravity_refstate-crust.xmf,188,-6.21135e-07,3.47514e-06,0,6.37478e-07,-7.65921e+08,-7.6564e+08,-7.65878e+08,43731,-0.00580751,0.0991847,-0,0.0993546,-28501.5,-27887,-0,39875.1,43731
step02_gravity_refstate-crust.xmf,189,-1.1e-06,4.35558e-06,0,1.52803e-06,-9.15778e+08,-9.15404e+08,-9.15703e+08,104823,-0.0122365,0.103859,-0,0.104577,-17842.3,-33342.1,-0,37815.9,104823
step02_gravity_refstate-crust.xmf,190,-1.02338e-06,4.25521e-06,0,1.36964e-06,-8.9858e+08,-8.98218e+08,-8.9851e+08,93957.2,-0.0113307,0.102294,-0,0.10292,-19061.2,-32716.2,-0,37863.9,93957.2
step02_gravity_refstate-crust.xmf,191,-9.47887e-07,4.14164e-06,0,1.23049e-06,-8.79742e+08,-8.79393e+08,-8.79677e+08,84411.6,-0.0104692,0.101181,-0,0.101721,-20329.9,-32030.5,-0,37937.5,84411.6
step02_gravity_refstate-crust.xmf,192,-8.75347e-07,4.00892e-06,0,1.11599e-06,-8.579e+08,-8.57564e+08,-8.57839e+08,76557,-0.00970188,0.100797,-0,0.101263,-21609.9,-31235.4,-0,37982,76557
step02_gravity_refstate-crust.xmf,193,-7.42664e-07,3.72985e-06,0,8.97133e-07,-8.10078e+08,-8.09771e+08,-8.10027e+08,61543.3,-0.0080326,0.100514,-0,0.100834,-24544,-29494.5,-0,38371,61543.3
step02_gravity_refstate-crust.xmf,194,-8.04191e-07,3.86967e-06,0,9.98731e-07,-8.3436e+08,-8.3404e+08,-8.34305e+08,68513,-0.00884136,0.100454,-0,0.100842,-23077.9,-30378.5,-0,38150.2,68513
step02_gravity_refstate-crust.xmf,195,-1.30116e-06,4.48866e-06,0,2.17712e-06,-9.53501e+08,-9.53103e+08,-9.53411e+08,149350,-0.0154272,0.112462,-0,0.113515,-14424.3,-34714.8,-0,37592.3,149350
step02_gravity_refstate-crust.xmf,196,-1.21363e-06,4.38014e-06,0,1.99117e-06,-9.33913e+08,-9.33529e+08,-9.3383e+08,136595,-0.0146929,0.111141,-0,0.112108,-15362.8,-34001.9,-0,37311.5,136595
step02_gravity_refstate-crust.xmf,197,-1.38744e-06,4.56581e-06,0,2.42899e-06,-9.71259e+08,-9.7085e+08,-9.71164e+08,166628,-0.0163706,0.114988,-0,0.116148,-13389.1,-35361.1,-0,37811,166628
step02_gravity_refstate-crust.xmf,198,-1.46494e-06,4.61945e-06,0,2.69049e-06,-9.86493e+08,-9.86075e+08,-9.86392e+08,184567,-0.0172649,0.117774,-0,0.119033,-12473.4,-35915.5,-0,38019.8,184567
step02_gravity_refstate-crust.xmf,199,-1.53974e-06,4.6655e-06,0,2.96126e-06,-1.00085e+09,-1.00042e+09,-1.00074e+09,203143,-0.0180932,0.120627,-0,0.121977,-11648.4,-36437.8,-0,38254.4,203143
step02_gravity_refstate-crust.xmf,200,-1.61338e-06,4.71597e-06,0,3.21355e-06,-1.01398e+09,-1.01355e+09,-1.01387e+09,220450,-0.0187686,0.123149,-0,0.124571,-10965.2,-36915.9,-0,38509.9,220450
step02_gravity_refstate-crust.xmf,201,-1.93456e-06,5.16808e-06,0,3.75416e-06,-1.05937e+09,-1.05888e+09,-1.05924e+09,257536,-0.0194024,0.12622,-0,0.127702,-9568.27,-38567.7,-0,39736.8,257536
step02_gravity_refstate-crust.xmf,202,-2.05966e-06,5.07748e-06,0,4.7481e-06,-1.07983e+09,-1.07934e+09,-1.07969e+09,325719,-0.0213881,0.137618,-0,0.13927,-8026.13,-39312,-0,40122.9,325719
step02_gravity_refstate-crust.xmf,203,-1.99234e-06,5.11264e-06,0,4.21849e-06,-1.06838e+09,-1.06789e+09,-1.06824e+09,289389,-0.0204545,0.131786,-0,0.133364,-8792.35,-38895.1,-0,39876.5,289389
step02_gravity_refstate-crust.xmf,204,-6.95194e-07,3.61247e-06,0,8.12513e-07,-7.88962e+08,-7.88666e+08,-7.88914e+08,55738.4,-0.0073203,0.100683,-0,0.100949,-25864.8,-28725.7,-0,38654.3,55738.4
step02_gravity_refstate-crust.xmf,205,-5.42681e-07,2.16516e-06,0,4.85992e-10,-4.84396e+08,-4.8421e+08,-4.84359e+08,33.3391,-9.26957e-20,0.119391,-0,0.119391,-40000,-17636.1,-0,43715.3,33.3391
step02_gravity_refstate-crust.xmf,206,-5.34478e-07,2.87241e-06,0,2.3781e-07,-6.42162e+08,-6.41928e+08,-6.42125e+08,16313.8,-0.00208442,0.105928,-0,0.105949,-36041.1,-23380.8,-0,42960.7,16313.8
step02_gravity_refstate-crust.xmf,207,-5.4257e-07,2.57713e-06,0,2.28321e-07,-5.75642e+08,-5.75428e+08,-5.75604e+08,15662.8,-0.00194054,0.112353,-0,0.11237,-36400.7,-20958.6,-0,42003.2,15662.8
step02_gravity_refstate-crust.xmf,208,-5.874e-07,3.33733e-06,0,5.49067e-07,-7.39552e+08,-7.39283e+08,-7.39512e+08,37666,-0.00497853,0.100112,-0,0.100236,-30196.1,-26926.9,-0,40458.2,37666
step02_gravity_refstate-crust.xmf,209,-5.45669e-07,2.99679e-06,0,3.65396e-07,-6.68469e+08,-6.68226e+08,-6.68432e+08,25066.1,-0.0032286,0.10456,-0,0.10461,-33831.2,-24338.7,-0,41676.4,25066.1
step02_gravity_refstate-crust.xmf,210,-5.61927e-07,3.18805e-06,0,4.60373e-07,-7.09379e+08,-7.09122e+08,-7.09341e+08,31581.6,-0.00413726,0.101685,-0,0.101769,-31943.2,-25828.3,-0,41078.8,31581.6
step02_gravity_refstate-crust.xmf,211,-6.66419e-07,3.39871e-06,0,8.08345e-07,-7.47577e+08,-7.47298e+08,-7.47531e+08,55452.5,-0.00716278,0.104606,-0,0.104851,-26600.9,-27218.8,-0,38058.8,55452.5
step02_gravity_refstate-crust.xmf,212,-1.0843e-06,4.16614e-06,0,1.77558e-06,-8.99281e+08,-8.98921e+08,-8.99207e+08,121805,-0.0137451,0.110589,-0,0.11144,-16755.8,-32741.3,-0,36779.7,121805
step02_gravity_refstate-crust.xmf,213,-1.14049e-06,4.25772e-06,0,1.89458e-06,-9.15778e+08,-9.15408e+08,-9.157e+08,129968,-0.0143188,0.111248,-0,0.112166,-15984,-33341.8,-0,36975.2,129968
step02_gravity_refstate-crust.xmf,214,-1.67859e-06,4.73566e-06,0,3.50108e-06,-1.0256e+09,-1.02516e+09,-1.02548e+09,240174,-0.0195001,0.126257,-0,0.127754,-10290.3,-37338.4,-0,38730.5,240174
step02_gravity_refstate-crust.xmf,215,-1.7271e-06,4.69748e-06,0,3.86756e-06,-1.03597e+09,-1.03553e+09,-1.03585e+09,265315,-0.0203932,0.130499,-0,0.132083,-9559.54,-37715.7,-0,38908.3,265315
step02_gravity_refstate-crust.xmf,216,-1.97657e-06,4.68233e-06,0,5.49446e-06,-1.0818e+09,-1.08134e+09,-1.08166e+09,376920,-0.0229775,0.147022,-0,0.148806,-7184.93,-39383.2,-0,40033.3,376920
step02_gravity_refstate-crust.xmf,217,-5.42055e-07,2.27916e-06,0,1.98255e-07,-5.09699e+08,-5.09506e+08,-5.09662e+08,13600.3,-0.00166419,0.117954,-0,0.117965,-36929.1,-18557.4,-0,41329.6,13600.3
step02_gravity_refstate-crust.xmf,218,-6.21939e-07,3.22178e-06,0,7.07749e-07,-7.12503e+08,-7.12239e+08,-7.1246e+08,48551.6,-0.00623972,0.105935,-0,0.106119,-28345.3,-25941.9,-0,38424.4,48551.6
step02_gravity_refstate-crust.xmf,219,-7.12131e-07,3.48712e-06,0,9.471e-07,-7.65038e+08,-7.6475e+08,-7.64989e+08,64971,-0.00831083,0.106002,-0,0.106327,-24748.2,-27854.5,-0,37260.5,64971
step02_gravity_refstate-crust.xmf,220,-1.01813e-06,4.07265e-06,0,1.6149e-06,-8.80033e+08,-8.79684e+08,-8.79963e+08,110782,-0.0129014,0.109324,-0,0.110083,-17847.6,-32040.7,-0,36676.2,110782
step02_gravity_refstate-crust.xmf,221,-9.5356e-07,3.97627e-06,0,1.46325e-06,-8.60327e+08,-8.59989e+08,-8.60262e+08,100379,-0.0120245,0.108146,-0,0.108813,-19025.1,-31323.4,-0,36648.4,100379
step02_gravity_refstate-crust.xmf,222,-8.90001e-07,3.87088e-06,0,1.32189e-06,-8.39354e+08,-8.39028e+08,-8.39293e+08,90681.4,-0.0111294,0.107186,-0,0.107762,-20291.9,-30559.9,-0,36683.4,90681.4
step02_gravity_refstate-crust.xmf,223,-8.26583e-07,3.75131e-06,0,1.19036e-06,-8.16171e+08,-8.15857e+08,-8.16115e+08,81658.8,-0.0102193,0.106555,-0,0.107044,-21661.2,-29716,-0,36772.9,81658.8
step02_gravity_refstate-crust.xmf,224,-7.60448e-07,3.60923e-06,0,1.05238e-06,-7.88765e+08,-7.88465e+08,-7.88713e+08,72193.6,-0.00917742,0.106113,-0,0.10651,-23310,-28718.3,-0,36987.8,72193.6
step02_gravity_refstate-crust.xmf,225,-1.1675e-06,4.16105e-06,0,2.27043e-06,-9.24003e+08,-9.23637e+08,-9.23923e+08,155751,-0.0160968,0.117589,-0,0.118686,-14326.8,-33641,-0,36564.6,155751
step02_gravity_refstate-crust.xmf,226,-1.22388e-06,4.19896e-06,0,2.50058e-06,-9.40434e+08,-9.40062e+08,-9.4035e+08,171540,-0.0169847,0.119925,-0,0.121122,-13385.7,-34239,-0,36762.5,171540
step02_gravity_refstate-crust.xmf,227,-1.12109e-06,4.12585e-06,0,2.0993e-06,-9.10571e+08,-9.10211e+08,-9.10494e+08,144012,-0.0153788,0.115876,-0,0.116892,-15116.8,-33152.1,-0,36436,144012
step02_gravity_refstate-crust.xmf,228,-1.02236e-06,3.93764e-06,0,2.0392e-06,-8.84601e+08,-8.84261e+08,-8.84531e+08,139889,-0.0151993,0.117768,-0,0.118745,-15547.9,-32206.8,-0,35763.3,139889
step02_gravity_refstate-crust.xmf,229,-1.27844e-06,4.21895e-06,0,2.77137e-06,-9.56736e+08,-9.56359e+08,-9.56649e+08,190116,-0.0179299,0.122786,-0,0.124089,-12436,-34832.3,-0,36985.7,190116
step02_gravity_refstate-crust.xmf,230,-1.32763e-06,4.22295e-06,0,3.0571e-06,-9.71818e+08,-9.71437e+08,-9.71727e+08,209717,-0.018824,0.125812,-0,0.127213,-11574.4,-35381.2,-0,37226.2,209717
step02_gravity_refstate-crust.xmf,231,-1.37394e-06,4.23764e-06,0,3.3078e-06,-9.85514e+08,-9.85129e+08,-9.8542e+08,226915,-0.0195366,0.128326,-0,0.129805,-10890.1,-35879.6,-0,37495.9,226915
step02_gravity_refstate-crust.xmf,232,-1.44471e-06,4.27633e-06,0,3.58078e-06,-1.00044e+09,-1.00005e+09,-1.00034e+09,245642,-0.0201941,0.130731,-0,0.132281,-10245.4,-36422.9,-0,37836.4,245642
step02_gravity_refstate-crust.xmf,233,-1.76738e-06,4.62805e-06,0,4.29351e-06,-1.0464e+09,-1.04596e+09,-1.04628e+09,294535,-0.0213202,0.135369,-0,0.137038,-8824.78,-38095.2,-0,39103.9,294535
step02_gravity_refstate-crust.xmf,234,-1.79434e-06,4.51616e-06,0,4.80409e-06,-1.05705e+09,-1.05662e+09,-1.05693e+09,329561,-0.0222875,0.141059,-0,0.142809,-8075.98,-38482.8,-0,39321,329561
step02_gravity_refstate-crust.xmf,235,-1.80626e-06,4.15904e-06,0,6.23743e-06,-1.08287e+09,-1.08246e+09,-1.08275e+09,427888,-0.0242778,0.156011,-0,0.157888,-6471.26,-39422.1,-0,39949.7,427888
step02_gravity_refstate-crust.xmf,236,-5.42268e-07,1.96937e-06,0,1.5774e-07,-4.41415e+08,-4.41242e+08,-4.41377e+08,10821,-0.00133476,0.123016,-0,0.123023,-37541.5,-16071,-0,40836.7,10821
step02_gravity_refstate-crust.xmf,237,-5.47124e-07,2.72422e-06,0,3.37622e-07,-6.07867e+08,-6.07643e+08,-6.0783e+08,23160.9,-0.00290311,0.110298,-0,0.110336,-34595.7,-22132,-0,41069.3,23160.9
step02_gravity_refstate-crust.xmf,238,-5.44504e-07,2.42399e-06,0,3.42477e-07,-5.41992e+08,-5.41789e+08,-5.41955e+08,23493.9,-0.00287371,0.116399,-0,0.116435,-34697.7,-19733.3,-0,39916.6,23493.9
step02_gravity_refstate-crust.xmf,239,-5.45445e-07,1.8285e-06,0,8.13711e-10,-4.09562e+08,-4.09399e+08,-4.09525e+08,55.8206,-9.24009e-20,0.124833,-0,0.124833,-40000,-14911.1,-0,42688.9,55.8206
step02_gravity_refstate-crust.xmf,240,-5.91736e-07,3.07623e-06,0,6.11821e-07,-6.82777e+08,-6.82525e+08,-6.82736e+08,41970.9,-0.00535798,0.107003,-0,0.107137,-29993.3,-24859.5,-0,38956.3,41970.9
step02_gravity_refstate-crust.xmf,241,-5.70343e-07,2.9227e-06,0,5.21462e-07,-6.50468e+08,-6.50228e+08,-6.50428e+08,35772.3,-0.00451714,0.108617,-0,0.108711,-31587.8,-23683.1,-0,39480.1,35772.3
step02_gravity_refstate-crust.xmf,242,-6.34557e-07,3.09005e-06,0,8.68558e-07,-6.87209e+08,-6.86953e+08,-6.87165e+08,59583.1,-0.00744243,0.111816,-0,0.112063,-26557.3,-25020.7,-0,36487.4,59583.1
step02_gravity_refstate-crust.xmf,243,-9.71773e-07,3.85335e-06,0,1.85177e-06,-8.63466e+08,-8.63135e+08,-8.63399e+08,127031,-0.0142524,0.116139,-0,0.11701,-16674.4,-31437.4,-0,35585.7,127031
step02_gravity_refstate-crust.xmf,244,-1.46929e-06,4.211e-06,0,3.92074e-06,-1.01129e+09,-1.0109e+09,-1.01119e+09,268962,-0.021007,0.134535,-0,0.136165,-9555.33,-36817.7,-0,38037.4,268962
step02_gravity_refstate-crust.xmf,245,-1.21181e-06,3.87583e-06,0,3.60674e-06,-9.77858e+08,-9.77509e+08,-9.77775e+08,247422,-0.020522,0.134513,-0,0.13607,-10187.5,-35601,-0,37029.9,247422
step02_gravity_refstate-crust.xmf,246,-1.48457e-06,4.10893e-06,0,4.33428e-06,-1.02294e+09,-1.02256e+09,-1.02284e+09,297332,-0.0218904,0.139118,-0,0.14083,-8822.63,-37241.6,-0,38272.4,297332
step02_gravity_refstate-crust.xmf,247,-1.7785e-06,4.37573e-06,0,5.27645e-06,-1.06558e+09,-1.06516e+09,-1.06546e+09,361965,-0.0230971,0.146395,-0,0.148206,-7463.21,-38793.2,-0,39504.5,361965
step02_gravity_refstate-crust.xmf,248,-1.53287e-06,3.47798e-06,0,7.0463e-06,-1.08377e+09,-1.08343e+09,-1.08367e+09,483376,-0.0254055,0.165638,-0,0.167575,-5778.77,-39454.9,-0,39875.9,483376
step02_gravity_refstate-crust.xmf,249,-1.57858e-06,3.79834e-06,0,5.94292e-06,-1.06459e+09,-1.06422e+09,-1.06448e+09,407684,-0.024311,0.155009,-0,0.156904,-6753.1,-38756.9,-0,39340.9,407684
step02_gravity_refstate-crust.xmf,250,-6.71929e-07,3.2204e-06,0,9.90775e-07,-7.15512e+08,-7.15245e+08,-7.15466e+08,67967.2,-0.00847631,0.111824,-0,0.112145,-24857.6,-26051.2,-0,36007.9,67967.2
step02_gravity_refstate-crust.xmf,251,-5.36906e-07,2.12118e-06,0,3.32175e-07,-4.75893e+08,-4.75711e+08,-4.75856e+08,22787.2,-0.0027832,0.121761,-0,0.121793,-34853.3,-17326.5,-0,38922.5,22787.2
step02_gravity_refstate-crust.xmf,252,-5.48366e-07,1.64886e-06,0,1.47547e-07,-3.69351e+08,-3.69201e+08,-3.69314e+08,10121.7,-0.00133139,0.127751,-0,0.127758,-37581.9,-13446.9,-0,39915.2,10121.7
step02_gravity_refstate-crust.xmf,253,-5.61333e-07,1.49321e-06,0,1.17562e-09,-3.32666e+08,-3.32525e+08,-3.32628e+08,80.6474,-9.68986e-20,0.129484,-0,0.129484,-40000,-12111.1,-0,41793.3,80.6474
step02_gravity_refstate-crust.xmf,254,-5.57911e-07,2.78033e-06,0,4.46398e-07,-6.20067e+08,-6.19838e+08,-6.20029e+08,30622.9,-0.00382064,0.110442,-0,0.110508,-32909.3,-22576.2,-0,39908.8,30622.9
step02_gravity_refstate-crust.xmf,255,-6.03968e-07,2.95843e-06,0,7.61629e-07,-6.58931e+08,-6.58687e+08,-6.5889e+08,52247.8,-0.00650976,0.112261,-0,0.11245,-28152.6,-23991.2,-0,36988.5,52247.8
step02_gravity_refstate-crust.xmf,256,-7.11237e-07,3.34873e-06,0,1.10033e-06,-7.43068e+08,-7.4279e+08,-7.4302e+08,75482.6,-0.00939733,0.111722,-0,0.112117,-23387.9,-27054.5,-0,35762.3,75482.6
step02_gravity_refstate-crust.xmf,257,-9.20653e-07,3.78084e-06,0,1.68423e-06,-8.43277e+08,-8.42954e+08,-8.43214e+08,115538,-0.0133511,0.114771,-0,0.115545,-17794.3,-30702.5,-0,35486.3,115538
step02_gravity_refstate-crust.xmf,258,-8.70872e-07,3.69879e-06,0,1.53337e-06,-8.22409e+08,-8.22096e+08,-8.2235e+08,105189,-0.0124589,0.113665,-0,0.114346,-18957.5,-29942.8,-0,35439.6,105189
step02_gravity_refstate-crust.xmf,259,-8.20999e-07,3.60644e-06,0,1.38708e-06,-8.00048e+08,-7.99744e+08,-7.99992e+08,95153.7,-0.0115138,0.112672,-0,0.113259,-20246.1,-29128.8,-0,35473.8,95153.7
step02_gravity_refstate-crust.xmf,260,-7.68708e-07,3.50541e-06,0,1.22316e-06,-7.74755e+08,-7.74462e+08,-7.74703e+08,83909.1,-0.0103671,0.111459,-0,0.11194,-21876.1,-28208.1,-0,35696.8,83909.1
step02_gravity_refstate-crust.xmf,261,-8.70242e-07,3.57135e-06,0,2.07622e-06,-8.45947e+08,-8.45642e+08,-8.45887e+08,142429,-0.0153818,0.123163,-0,0.124119,-15519.4,-30799.5,-0,34488.6,142429
step02_gravity_refstate-crust.xmf,262,-1.02804e-06,3.86044e-06,0,2.29785e-06,-8.94559e+08,-8.94223e+08,-8.94488e+08,157632,-0.0163397,0.121714,-0,0.122805,-14362.7,-32569.1,-0,35595.4,157632
step02_gravity_refstate-crust.xmf,263,-1.05317e-06,3.85256e-06,0,2.53325e-06,-9.10312e+08,-9.09976e+08,-9.1024e+08,173781,-0.0172798,0.124404,-0,0.125599,-13373.3,-33142.5,-0,35738.9,173781
step02_gravity_refstate-crust.xmf,264,-1.07659e-06,3.83197e-06,0,2.80009e-06,-9.26694e+08,-9.26357e+08,-9.2662e+08,192086,-0.0182297,0.127348,-0,0.128646,-12408.6,-33738.8,-0,35948.3,192086
step02_gravity_refstate-crust.xmf,265,-1.09427e-06,3.79058e-06,0,3.09791e-06,-9.42908e+08,-9.42573e+08,-9.42833e+08,212517,-0.0191738,0.130605,-0,0.132005,-11484.1,-34328.9,-0,36198.9,212517
step02_gravity_refstate-crust.xmf,266,-1.0942e-06,3.70709e-06,0,3.4408e-06,-9.58276e+08,-9.57947e+08,-9.58201e+08,236039,-0.0201326,0.134438,-0,0.135937,-10578,-34888.3,-0,36456.7,236039
step02_gravity_refstate-crust.xmf,267,-1.20185e-06,3.76162e-06,0,3.92632e-06,-9.87955e+08,-9.87615e+08,-9.87873e+08,269346,-0.0212742,0.138167,-0,0.139796,-9524.82,-35968.5,-0,37208.2,269346
step02_gravity_refstate-crust.xmf,268,-1.48271e-06,3.9537e-06,0,4.83307e-06,-1.03497e+09,-1.0346e+09,-1.03487e+09,331548,-0.0228218,0.144571,-0,0.146362,-8065.45,-37679.3,-0,38532.8,331548
step02_gravity_refstate-crust.xmf,269,-1.43283e-06,3.74419e-06,0,5.44172e-06,-1.04699e+09,-1.04663e+09,-1.04689e+09,373302,-0.0238146,0.151308,-0,0.153171,-7270.89,-38116.6,-0,38803.9,373302
step02_gravity_refstate-crust.xmf,270,-1.40506e-06,3.33672e-06,0,6.63927e-06,-1.07075e+09,-1.07042e+09,-1.07065e+09,455454,-0.0251753,0.162688,-0,0.164625,-6100.37,-38981.2,-0,39455.7,455454
step02_gravity_refstate-crust.xmf,271,-1.10102e-06,2.51842e-06,0,7.94796e-06,-1.08407e+09,-1.08383e+09,-1.084e+09,545230,-0.0262827,0.175904,-0,0.177857,-5109.73,-39466.2,-0,39795.6,545230
step02_gravity_refstate-crust.xmf,272,-5.34888e-07,1.80533e-06,0,3.01696e-07,-4.06431e+08,-4.06271e+08,-4.06395e+08,20696.4,-0.00260612,0.12651,-0,0.126537,-35191.8,-14797.2,-0,38176.1,20696.4
step02_gravity_refstate-crust.xmf,273,-5.51184e-07,2.55598e-06,0,4.69367e-07,-5.71236e+08,-5.71023e+08,-5.71198e+08,32198.6,-0.00394893,0.115354,-0,0.115422,-32728.1,-20798.2,-0,38777.5,32198.6
step02_gravity_refstate-crust.xmf,274,-5.37082e-07,2.26035e-06,0,4.7333e-07,-5.07775e+08,-5.07584e+08,-5.07739e+08,32470.4,-0.00393022,0.12091,-0,0.120974,-32732.6,-18487.4,-0,37592.6,32470.4
step02_gravity_refstate-crust.xmf,275,-5.74337e-07,1.32556e-06,0,1.33423e-07,-2.93213e+08,-2.93083e+08,-2.93174e+08,9152.84,-0.00139941,0.131875,-0,0.131883,-37579.7,-10674.5,-0,39066.4,9152.84
step02_gravity_refstate-crust.xmf,276,-5.79896e-07,2.81163e-06,0,6.72073e-07,-6.27464e+08,-6.27232e+08,-6.27425e+08,46104.2,-0.00570048,0.113483,-0,0.113626,-29580.5,-22845.5,-0,37375.4,46104.2
step02_gravity_refstate-crust.xmf,277,-5.62887e-07,2.65005e-06,0,5.82747e-07,-5.92615e+08,-5.92395e+08,-5.92576e+08,39976.4,-0.00488721,0.115114,-0,0.115217,-31033.6,-21576.6,-0,37797.2,39976.4
step02_gravity_refstate-crust.xmf,278,-5.95664e-07,2.81675e-06,0,9.03579e-07,-6.34234e+08,-6.34e+08,-6.34193e+08,61985.5,-0.00752456,0.117672,-0,0.117913,-26467.6,-23091.9,-0,35125,61985.5
step02_gravity_refstate-crust.xmf,279,-6.18776e-07,2.9229e-06,0,1.02771e-06,-6.60395e+08,-6.60152e+08,-6.60353e+08,70501.1,-0.00854181,0.118064,-0,0.118372,-24820.7,-24044.4,-0,34557.2,70501.1
step02_gravity_refstate-crust.xmf,280,-8.44504e-07,3.54196e-06,0,1.89166e-06,-8.26636e+08,-8.26335e+08,-8.26578e+08,129768,-0.0144613,0.121358,-0,0.122217,-16606.7,-30096.6,-0,34374.2,129768
step02_gravity_refstate-crust.xmf,281,-8.73821e-07,3.56972e-06,0,2.28432e-06,-8.62791e+08,-8.62486e+08,-8.62731e+08,156704,-0.016353,0.125757,-0,0.126816,-14415.5,-31412.8,-0,34562.5,156704
step02_gravity_refstate-crust.xmf,282,-1.17052e-06,3.59703e-06,0,4.3198e-06,-9.99056e+08,-9.98729e+08,-9.98976e+08,296338,-0.0221098,0.142699,-0,0.144402,-8796.4,-36372.5,-0,37421,296338
step02_gravity_refstate-crust.xmf,283,-9.58049e-07,3.38705e-06,0,3.84966e-06,-9.64765e+08,-9.64467e+08,-9.64699e+08,264086,-0.0211729,0.140779,-0,0.142362,-9576.99,-35124.6,-0,36406.8,264086
step02_gravity_refstate-crust.xmf,284,-1.12986e-06,3.39936e-06,0,4.78248e-06,-1.01156e+09,-1.01125e+09,-1.01148e+09,328078,-0.0229587,0.147753,-0,0.149526,-8060.4,-36827.6,-0,37699.3,328078
step02_gravity_refstate-crust.xmf,285,-9.12158e-07,2.31082e-06,0,7.38653e-06,-1.06741e+09,-1.06719e+09,-1.06735e+09,506716,-0.0259588,0.172434,-0,0.174377,-5432.37,-38860.1,-0,39237.9,506716
step02_gravity_refstate-crust.xmf,286,-1.02874e-06,2.71121e-06,0,6.60812e-06,-1.0553e+09,-1.05505e+09,-1.05523e+09,453317,-0.0253116,0.165249,-0,0.167177,-6035.9,-38419.4,-0,38890.7,453317
step02_gravity_refstate-crust.xmf,287,-3.9473e-07,1.0655e-06,0,9.03222e-06,-1.08407e+09,-1.08397e+09,-1.08404e+09,619610,-0.0268241,0.187999,-0,0.189903,-4390.16,-39466.7,-0,39710.1,619610
step02_gravity_refstate-crust.xmf,288,-6.45455e-07,3.04879e-06,0,1.17029e-06,-6.90815e+08,-6.90562e+08,-6.90771e+08,80282.2,-0.00970908,0.118656,-0,0.119053,-23017.7,-25151.9,-0,34094.5,80282.2
step02_gravity_refstate-crust.xmf,289,-5.22255e-07,1.95785e-06,0,4.5861e-07,-4.42299e+08,-4.42129e+08,-4.42263e+08,31460.7,-0.00385996,0.125862,-0,0.125921,-32809.6,-16103.3,-0,36548.3,31460.7
step02_gravity_refstate-crust.xmf,290,-5.42924e-07,1.4922e-06,0,2.78396e-07,-3.35111e+08,-3.34971e+08,-3.35074e+08,19098,-0.00264829,0.130771,-0,0.130798,-35227.6,-12200.2,-0,37280.4,19098
step02_gravity_refstate-crust.xmf,291,-6.0575e-07,1.16977e-06,0,1.63203e-09,-2.53493e+08,-2.53371e+08,-2.53452e+08,111.958,-1.08048e-19,0.133323,-0,0.133323,-40000,-9228.03,-0,41050.7,111.958
step02_gravity_refstate-crust.xmf,292,-5.79298e-07,2.73496e-06,0,8.00032e-07,-6.14216e+08,-6.13988e+08,-6.14176e+08,54882.2,-0.00667852,0.117308,-0,0.117498,-27889.5,-22363,-0,35748.1,54882.2
step02_gravity_refstate-crust.xmf,293,-6.98289e-07,3.24434e-06,0,1.23303e-06,-7.30138e+08,-7.29867e+08,-7.3009e+08,84585.5,-0.0103061,0.116268,-0,0.116724,-22138.4,-26583.6,-0,34594.7,84585.5
step02_gravity_refstate-crust.xmf,294,-8.11815e-07,3.48696e-06,0,1.73243e-06,-8.05915e+08,-8.0562e+08,-8.05859e+08,118844,-0.0135839,0.120089,-0,0.120855,-17688,-29342.2,-0,34261.2,118844
step02_gravity_refstate-crust.xmf,295,-7.76675e-07,3.41612e-06,0,1.58752e-06,-7.83801e+08,-7.83513e+08,-7.83748e+08,108904,-0.0127095,0.119136,-0,0.119812,-18811.4,-28537.2,-0,34179.5,108904
step02_gravity_refstate-crust.xmf,296,-7.44037e-07,3.34135e-06,0,1.45381e-06,-7.61727e+08,-7.61447e+08,-7.61676e+08,99731.2,-0.0118331,0.118286,-0,0.118876,-19983.7,-27733.6,-0,34183.4,99731.2
step02_gravity_refstate-crust.xmf,297,-7.24715e-07,3.26114e-06,0,2.07146e-06,-8.09725e+08,-8.09452e+08,-8.09676e+08,142102,-0.0152923,0.12781,-0,0.128722,-15484.3,-29481,-0,33300,142102
step02_gravity_refstate-crust.xmf,298,-7.23371e-07,3.2514e-06,0,2.26821e-06,-8.29425e+08,-8.29153e+08,-8.29376e+08,155600,-0.0161974,0.129892,-0,0.130898,-14415.5,-30198.2,-0,33462.5,155600
step02_gravity_refstate-crust.xmf,299,-8.80405e-07,3.52429e-06,0,2.52889e-06,-8.79966e+08,-8.79664e+08,-8.79906e+08,173482,-0.0173098,0.128527,-0,0.129687,-13363.8,-32037.9,-0,34713.4,173482
step02_gravity_refstate-crust.xmf,300,-8.72752e-07,3.4684e-06,0,2.78187e-06,-8.96212e+08,-8.95914e+08,-8.96152e+08,190836,-0.0182206,0.131489,-0,0.132745,-12392.3,-32629.3,-0,34903.3,190836
step02_gravity_refstate-crust.xmf,301,-8.56673e-07,3.38989e-06,0,3.06164e-06,-9.1253e+08,-9.12238e+08,-9.12471e+08,210028,-0.0191147,0.13469,-0,0.136039,-11465.2,-33223.3,-0,35146,210028
step02_gravity_refstate-crust.xmf,302,-8.2362e-07,3.27377e-06,0,3.37652e-06,-9.28513e+08,-9.28232e+08,-9.28457e+08,231629,-0.0200003,0.138309,-0,0.139748,-10564.6,-33805.2,-0,35417.5,231629
step02_gravity_refstate-crust.xmf,303,-8.6966e-07,3.14697e-06,0,4.24081e-06,-9.75916e+08,-9.7564e+08,-9.75856e+08,290919,-0.0219936,0.145667,-0,0.147318,-8781.05,-35530.6,-0,36599.5,290919
step02_gravity_refstate-crust.xmf,304,-7.19609e-07,3.03714e-06,0,3.72741e-06,-9.40386e+08,-9.40128e+08,-9.40336e+08,255701,-0.0208491,0.143121,-0,0.144631,-9647.06,-34237.5,-0,35570.6,255701
step02_gravity_refstate-crust.xmf,305,-1.05411e-06,3.12907e-06,0,5.31326e-06,-1.02362e+09,-1.02333e+09,-1.02355e+09,364490,-0.0237886,0.153494,-0,0.155326,-7337.45,-37266.5,-0,37982,364490
step02_gravity_refstate-crust.xmf,306,-1.17183e-06,3.09719e-06,0,6.08425e-06,-1.04894e+09,-1.04865e+09,-1.04886e+09,417379,-0.0247423,0.159529,-0,0.161436,-6544.6,-38187.7,-0,38744.4,417379
step02_gravity_refstate-crust.xmf,307,-4.69751e-07,1.40518e-06,0,8.23254e-06,-1.07236e+09,-1.07223e+09,-1.07233e+09,564752,-0.026454,0.181757,-0,0.183672,-4795.72,-39040.6,-0,39334.1,564752
step02_gravity_refstate-crust.xmf,308,1.51661e-07,5.6938e-09,0,9.97491e-06,-1.08913e+09,-1.08914e+09,-1.08914e+09,684279,-0.0269834,0.197168,-0,0.199006,-3884.51,-39651.4,-0,39841.2,684279
step02_gravity_refstate-crust.xmf,309,-5.16945e-07,1.65264e-06,0,4.30775e-07,-3.75203e+08,-3.75054e+08,-3.75167e+08,29551.1,-0.00381889,0.130174,-0,0.13023,-32916.1,-13660.1,-0,35638,29551.1
step02_gravity_refstate-crust.xmf,310,-5.40992e-07,2.38108e-06,0,6.07613e-07,-5.35835e+08,-5.35634e+08,-5.35798e+08,41682.2,-0.00502173,0.120656,-0,0.120761,-30741,-19509.1,-0,36409,41682.2
step02_gravity_refstate-crust.xmf,311,-5.15769e-07,2.08939e-06,0,6.04378e-07,-4.74307e+08,-4.74129e+08,-4.74272e+08,41460.3,-0.00498593,0.125731,-0,0.125829,-30679.2,-17268.8,-0,35205.5,41460.3
step02_gravity_refstate-crust.xmf,312,-6.38499e-07,1.01028e-06,0,1.10496e-07,-2.12197e+08,-2.12083e+08,-2.12153e+08,7580.03,-0.00156907,0.135325,-0,0.135334,-37567.9,-7724.21,-0,38353.8,7580.03
step02_gravity_refstate-crust.xmf,313,-5.76861e-07,1.16742e-06,0,2.48137e-07,-2.56464e+08,-2.56345e+08,-2.56425e+08,17022.2,-0.00291626,0.134654,-0,0.134686,-35101,-9336.32,-0,36321.4,17022.2
step02_gravity_refstate-crust.xmf,314,-6.99009e-07,8.72063e-07,0,1.95866e-09,-1.71825e+08,-1.71717e+08,-1.71777e+08,134.364,-1.25876e-19,0.136361,-0,0.136361,-40000,-6253.97,-0,40485.9,134.364
step02_gravity_refstate-crust.xmf,315,-5.54369e-07,2.51391e-06,0,7.52012e-07,-5.67933e+08,-5.67722e+08,-5.67894e+08,51588,-0.00616624,0.120485,-0,0.120643,-28709.3,-20677.8,-0,35380.7,51588
step02_gravity_refstate-crust.xmf,316,-5.53376e-07,2.55398e-06,0,9.08215e-07,-5.82517e+08,-5.82304e+08,-5.82479e+08,62303.5,-0.00739034,0.122605,-0,0.122828,-26537.5,-21208.8,-0,33971.3,62303.5
step02_gravity_refstate-crust.xmf,317,-5.59137e-07,2.62833e-06,0,1.03953e-06,-6.04819e+08,-6.046e+08,-6.0478e+08,71311.5,-0.00842143,0.123729,-0,0.124015,-24796.3,-22020.8,-0,33162.9,71311.5
step02_gravity_refstate-crust.xmf,318,-5.7112e-07,2.72164e-06,0,1.17129e-06,-6.32263e+08,-6.32037e+08,-6.32223e+08,80350.4,-0.00944722,0.124467,-0,0.124825,-23164.8,-23020.1,-0,32657.8,80350.4
step02_gravity_refstate-crust.xmf,319,-7.19911e-07,3.28821e-06,0,1.33283e-06,-7.44191e+08,-7.43916e+08,-7.44142e+08,91432.4,-0.0109994,0.117169,-0,0.117684,-21142.2,-27095.2,-0,34367.8,91432.4
step02_gravity_refstate-crust.xmf,320,-7.18142e-07,3.25019e-06,0,1.90633e-06,-7.90959e+08,-7.90687e+08,-7.9091e+08,130775,-0.0144562,0.126166,-0,0.126992,-16500.2,-28797.8,-0,33189.9,130775
step02_gravity_refstate-crust.xmf,321,-7.03617e-07,3.2206e-06,0,2.48084e-06,-8.47676e+08,-8.47407e+08,-8.47628e+08,170186,-0.0170965,0.132452,-0,0.133551,-13370.1,-30862.6,-0,33634.2,170186
step02_gravity_refstate-crust.xmf,322,-7.67381e-07,2.87408e-06,0,4.67568e-06,-9.88023e+08,-9.87773e+08,-9.8797e+08,320752,-0.0227701,0.150777,-0,0.152487,-8023.64,-35971.3,-0,36855.3,320752
step02_gravity_refstate-crust.xmf,323,-5.7618e-07,2.73431e-06,0,4.1022e-06,-9.51695e+08,-9.51468e+08,-9.51656e+08,281411,-0.0216077,0.148302,-0,0.149868,-8775.5,-34649.3,-0,35743.3,281411
step02_gravity_refstate-crust.xmf,324,-8.48975e-07,2.71064e-06,0,5.88442e-06,-1.03216e+09,-1.03191e+09,-1.0321e+09,403671,-0.0245563,0.160485,-0,0.162353,-6612.75,-37577.4,-0,38154.8,403671
step02_gravity_refstate-crust.xmf,325,-6.46912e-07,2.55957e-06,0,5.15822e-06,-1.00064e+09,-1.00042e+09,-1.00059e+09,353854,-0.0234968,0.156152,-0,0.15791,-7309.79,-36430.5,-0,37156.6,353854
step02_gravity_refstate-crust.xmf,326,-6.13046e-07,2.11715e-06,0,6.49241e-06,-1.03927e+09,-1.03908e+09,-1.03923e+09,445379,-0.0251366,0.167364,-0,0.169242,-5980.2,-37836.4,-0,38306.1,445379
step02_gravity_refstate-crust.xmf,327,-3.57778e-07,1.53521e-06,0,7.14782e-06,-1.04819e+09,-1.04806e+09,-1.04817e+09,490340,-0.025634,0.174345,-0,0.176219,-5391.99,-38161.4,-0,38540.4,490340
step02_gravity_refstate-crust.xmf,328,3.50938e-07,-3.83203e-09,0,8.76009e-06,-1.06729e+09,-1.06731e+09,-1.06731e+09,600942,-0.0263233,0.190201,-0,0.192014,-4279.35,-38857.1,-0,39092,600942
step02_gravity_refstate-crust.xmf,329,-2.45688e-08,8.11212e-07,0,7.9087e-06,-1.05744e+09,-1.05738e+09,-1.05744e+09,542537,-0.0260334,0.182097,-0,0.183949,-4812.92,-38498.3,-0,38798,542537
step02_gravity_refstate-crust.xmf,330,7.26038e-07,-7.0606e-07,0,9.62403e-06,-1.07719e+09,-1.07729e+09,-1.07724e+09,660209,-0.0265221,0.197987,-0,0.199755,-3831.4,-39218.2,-0,39404.9,660209
step02_gravity_refstate-crust.xmf,331,1.11843e-06,-1.72341e-06,0,1.07183e-05,-1.08692e+09,-1.08711e+09,-1.08699e+09,735273,-0.0265962,0.206312,-0,0.208019,-3414.04,-39572.1,-0,39719.1,735273
step02_gravity_refstate-crust.xmf,332,-6.43352e-07,3.03771e-06,0,1.33488e-06,-7.01088e+08,-7.00835e+08,-7.01044e+08,91572.6,-0.0108661,0.121831,-0,0.122315,-21254.3,-25525.9,-0,33216.2,91572.6
step02_gravity_refstate-crust.xmf,333,-4.93637e-07,1.79452e-06,0,5.82437e-07,-4.10776e+08,-4.10619e+08,-4.10742e+08,39955.2,-0.00494856,0.130247,-0,0.130341,-30652.6,-14955.5,-0,34106.4,39955.2
step02_gravity_refstate-crust.xmf,334,-5.22836e-07,1.37269e-06,0,3.98891e-07,-3.11154e+08,-3.11023e+08,-3.11118e+08,27364,-0.0039365,0.133717,-0,0.133775,-32903.2,-11327.9,-0,34798.6,27364
step02_gravity_refstate-crust.xmf,335,-7.60443e-07,7.36363e-07,0,7.55302e-08,-1.30445e+08,-1.30342e+08,-1.30393e+08,5181.37,-0.00183704,0.137911,-0,0.137923,-37616.9,-4747.03,-0,37915.2,5181.37
step02_gravity_refstate-crust.xmf,336,-8.69968e-07,6.20242e-07,0,1.17203e-09,-8.74388e+07,-8.73366e+07,-8.73791e+07,80.4015,-1.47523e-19,0.138651,-0,0.138651,-40000,-3180.74,-0,40126.3,80.4015
step02_gravity_refstate-crust.xmf,337,-5.71516e-07,2.78743e-06,0,1.3121e-06,-6.55914e+08,-6.55684e+08,-6.55875e+08,90009.9,-0.0105173,0.125999,-0,0.126437,-21495.9,-23881.2,-0,32130.8,90009.9
step02_gravity_refstate-crust.xmf,338,-6.5738e-07,3.07441e-06,0,1.4796e-06,-7.2112e+08,-7.20864e+08,-7.21075e+08,101501,-0.0118334,0.123353,-0,0.12392,-19870.8,-26255.2,-0,32926.9,101501
step02_gravity_refstate-crust.xmf,339,-6.93537e-07,3.19148e-06,0,1.76522e-06,-7.68296e+08,-7.6803e+08,-7.68249e+08,121094,-0.0136555,0.125392,-0,0.126133,-17475.8,-27972.7,-0,32983,121094
step02_gravity_refstate-crust.xmf,340,-6.71466e-07,3.12312e-06,0,1.62952e-06,-7.43778e+08,-7.43518e+08,-7.43732e+08,111785,-0.0128017,0.124708,-0,0.125363,-18555.1,-27080.1,-0,32827.2,111785
step02_gravity_refstate-crust.xmf,341,-5.91167e-07,2.98227e-06,0,2.04515e-06,-7.7503e+08,-7.74785e+08,-7.7499e+08,140297,-0.0150293,0.131974,-0,0.132827,-15427.2,-28218,-0,32159.8,140297
step02_gravity_refstate-crust.xmf,342,-5.73961e-07,2.96056e-06,0,2.22225e-06,-7.95076e+08,-7.94834e+08,-7.95037e+08,152446,-0.0158627,0.133871,-0,0.134808,-14392.8,-28947.8,-0,32328.5,152446
step02_gravity_refstate-crust.xmf,343,-5.46806e-07,2.91775e-06,0,2.41802e-06,-8.15011e+08,-8.14773e+08,-8.14974e+08,165876,-0.0166915,0.13602,-0,0.13704,-13386.1,-29673.6,-0,32553.2,165876
step02_gravity_refstate-crust.xmf,344,-6.76287e-07,3.13196e-06,0,2.7243e-06,-8.65053e+08,-8.64792e+08,-8.65007e+08,186887,-0.0179602,0.13528,-0,0.136467,-12383.1,-31495.2,-0,33842.2,186887
step02_gravity_refstate-crust.xmf,345,-6.30859e-07,3.02555e-06,0,2.98412e-06,-8.81962e+08,-8.81711e+08,-8.81919e+08,204711,-0.0187957,0.138406,-0,0.139676,-11439.5,-32110.8,-0,34087.7,204711
step02_gravity_refstate-crust.xmf,346,-5.63044e-07,2.87562e-06,0,3.26993e-06,-8.98167e+08,-8.97931e+08,-8.98128e+08,224317,-0.0195976,0.141928,-0,0.143274,-10529,-32700.8,-0,34354.1,224317
step02_gravity_refstate-crust.xmf,347,-4.54149e-07,2.65469e-06,0,3.58497e-06,-9.1293e+08,-9.12717e+08,-9.12899e+08,245929,-0.0203468,0.146082,-0,0.147493,-9629.74,-33238.4,-0,34605.2,245929
step02_gravity_refstate-crust.xmf,348,-4.21648e-07,2.40661e-06,0,4.50037e-06,-9.63993e+08,-9.63799e+08,-9.63965e+08,308725,-0.0222807,0.153383,-0,0.154993,-7988.96,-35097.2,-0,35994.9,308725
step02_gravity_refstate-crust.xmf,349,-3.03283e-07,2.36484e-06,0,3.91594e-06,-9.26261e+08,-9.26078e+08,-9.2624e+08,268633,-0.020996,0.150651,-0,0.152107,-8777.06,-33723.9,-0,34847.3,268633
step02_gravity_refstate-crust.xmf,350,-4.56201e-07,2.12815e-06,0,5.6876e-06,-1.01172e+09,-1.01154e+09,-1.01169e+09,390169,-0.0241357,0.162235,-0,0.164021,-6615.78,-36834,-0,37423.5,390169
step02_gravity_refstate-crust.xmf,351,-4.85852e-07,1.49049e-06,0,5.39917e-07,-3.43291e+08,-3.43155e+08,-3.43258e+08,37038.3,-0.004955,0.134196,-0,0.134288,-30725.4,-12498.2,-0,33170.1,37038.3
step02_gravity_refstate-crust.xmf,352,-5.11361e-07,2.20111e-06,0,7.47675e-07,-5.02888e+08,-5.02701e+08,-5.02852e+08,51290.5,-0.00608795,0.12619,-0,0.126337,-28621.7,-18309.5,-0,33977,51290.5
step02_gravity_refstate-crust.xmf,353,-4.77412e-07,1.90775e-06,0,7.23125e-07,-4.41117e+08,-4.40954e+08,-4.41084e+08,49606.4,-0.00595822,0.130788,-0,0.130923,-28631.6,-16060.3,-0,32828.4,49606.4
step02_gravity_refstate-crust.xmf,354,-6.6457e-07,8.50011e-07,0,1.83615e-07,-1.70116e+08,-1.70012e+08,-1.7007e+08,12596,-0.00330502,0.137757,-0,0.137797,-35222.8,-6191.86,-0,35762.9,12596
step02_gravity_refstate-crust.xmf,355,-5.60976e-07,9.78702e-07,0,3.28676e-07,-2.12427e+08,-2.12322e+08,-2.12389e+08,22547.2,-0.00458992,0.138194,-0,0.138271,-32614,-7732.88,-0,33518.2,22547.2
step02_gravity_refstate-crust.xmf,356,-9.27852e-07,5.52682e-07,0,3.798e-08,-6.19768e+07,-6.18752e+07,-6.19132e+07,2605.43,-0.00209767,0.139484,-0,0.1395,-37762.5,-2253.43,-0,37829.7,2605.43
step02_gravity_refstate-crust.xmf,357,-1.15647e-06,4.4198e-07,0,-7.95378e-09,-109722,-68.652,-30388.5,-545.629,-1.07132e-19,0.140319,-0,0.140319,-40000,0,-0,40000,545.629
step02_gravity_refstate-crust.xmf,358,-5.03288e-07,2.25762e-06,0,8.97827e-07,-5.23119e+08,-5.2293e+08,-5.23085e+08,61590.9,-0.00719989,0.127807,-0,0.12801,-26538.4,-19046.1,-0,32665.6,61590.9
step02_gravity_refstate-crust.xmf,359,-5.02476e-07,2.35393e-06,0,1.02881e-06,-5.51486e+08,-5.5129e+08,-5.51452e+08,70576.1,-0.00818827,0.128559,-0,0.128819,-24800.4,-20079,-0,31909.7,70576.1
step02_gravity_refstate-crust.xmf,360,-4.99983e-07,2.43421e-06,0,1.16122e-06,-5.78628e+08,-5.78426e+08,-5.78593e+08,79659.5,-0.0091771,0.1296,-0,0.129924,-23119.8,-21067.3,-0,31278.7,79659.5
step02_gravity_refstate-crust.xmf,361,-4.94727e-07,2.50024e-06,0,1.29628e-06,-6.05374e+08,-6.05169e+08,-6.05341e+08,88925.1,-0.0101623,0.130825,-0,0.131219,-21509.4,-22041.1,-0,30797.2,88925.1
step02_gravity_refstate-crust.xmf,362,-6.04756e-07,3.00261e-06,0,1.90258e-06,-7.59444e+08,-7.59196e+08,-7.59402e+08,130517,-0.0143183,0.130279,-0,0.131063,-16354.1,-27650.5,-0,32124.9,130517
step02_gravity_refstate-crust.xmf,363,-4.953e-07,2.84444e-06,0,2.6296e-06,-8.33367e+08,-8.33137e+08,-8.33333e+08,180391,-0.0174979,0.138702,-0,0.139801,-12386.5,-30341.9,-0,32772.8,180391
step02_gravity_refstate-crust.xmf,364,-2.46309e-07,2.03433e-06,0,4.93849e-06,-9.76962e+08,-9.76806e+08,-9.76945e+08,338781,-0.0228938,0.158639,-0,0.160282,-7255.44,-35569.4,-0,36301.9,338781
step02_gravity_refstate-crust.xmf,365,-1.1105e-07,2.00711e-06,0,4.27117e-06,-9.3933e+08,-9.39185e+08,-9.39323e+08,293002,-0.0215558,0.155579,-0,0.157065,-7961.92,-34199.9,-0,35114.5,293002
step02_gravity_refstate-crust.xmf,366,-1.63815e-07,1.60574e-06,0,6.21987e-06,-1.02081e+09,-1.02069e+09,-1.0208e+09,426683,-0.0246199,0.168937,-0,0.170722,-5951.67,-37165.4,-0,37638.9,426683
step02_gravity_refstate-crust.xmf,367,-2.37327e-08,1.58132e-06,0,5.41381e-06,-9.89543e+08,-9.89433e+08,-9.89541e+08,371387,-0.0234209,0.164285,-0,0.165946,-6561.56,-36027.7,-0,36620.3,371387
step02_gravity_refstate-crust.xmf,368,1.696e-07,8.76696e-07,0,6.8279e-06,-1.02975e+09,-1.0297e+09,-1.02976e+09,468394,-0.0249664,0.175836,-0,0.1776,-5339.36,-37491.1,-0,37869.4,468394
step02_gravity_refstate-crust.xmf,369,5.58314e-07,1.04876e-07,0,7.48128e-06,-1.03941e+09,-1.03944e+09,-1.03945e+09,513216,-0.0252152,0.183032,-0,0.184761,-4768.16,-37843.2,-0,38142.5,513216
step02_gravity_refstate-crust.xmf,370,1.51753e-06,-1.82984e-06,0,9.14257e-06,-1.06195e+09,-1.06218e+09,-1.06206e+09,627181,-0.0255108,0.199142,-0,0.20077,-3722.12,-38664.8,-0,38843.5,627181
step02_gravity_refstate-crust.xmf,371,1.04322e-06,-8.58363e-07,0,8.28458e-06,-1.05038e+09,-1.05051e+09,-1.05045e+09,568322,-0.0253726,0.191224,-0,0.1929,-4196.67,-38242.8,-0,38472.4,568322
step02_gravity_refstate-crust.xmf,372,1.99177e-06,-2.71032e-06,0,1.01323e-05,-1.07382e+09,-1.07414e+09,-1.07396e+09,695079,-0.0256063,0.207357,-0,0.208932,-3303.1,-39097.3,-0,39236.6,695079
step02_gravity_refstate-crust.xmf,373,2.83483e-06,-4.41867e-06,0,1.14001e-05,-1.08354e+09,-1.08404e+09,-1.08374e+09,782047,-0.0252491,0.217422,-0,0.218883,-2846.53,-39452,-0,39554.6,782047
step02_gravity_refstate-crust.xmf,374,-5.65175e-07,2.81408e-06,0,1.46559e-06,-6.77036e+08,-6.76805e+08,-6.76998e+08,100540,-0.0115718,0.128045,-0,0.128566,-19880.4,-24650.3,-0,31668.1,100540
step02_gravity_refstate-crust.xmf,375,-4.51321e-07,1.61797e-06,0,6.79322e-07,-3.77754e+08,-3.77612e+08,-3.77723e+08,46601.5,-0.0058871,0.134806,-0,0.134935,-28660.5,-13753.2,-0,31789.6,46601.5
step02_gravity_refstate-crust.xmf,376,-4.9125e-07,1.19132e-06,0,4.82189e-07,-2.72664e+08,-2.72548e+08,-2.7263e+08,33078.2,-0.00525696,0.137796,-0,0.137896,-30591.6,-9926.45,-0,32161.8,33078.2
step02_gravity_refstate-crust.xmf,377,-8.46431e-07,5.81334e-07,0,1.03356e-07,-7.98824e+07,-7.97845e+07,-7.98243e+07,7090.21,-0.00414688,0.140087,-0,0.140148,-35258.3,-2905.67,-0,35377.8,7090.21
step02_gravity_refstate-crust.xmf,378,-1.12571e-06,4.27339e-07,0,-4.79758e-09,-106927,-387.716,-29703.2,-329.114,-0.00357262,0.140845,-0,0.14089,-36874.5,0,-0,36874.5,329.114
step02_gravity_refstate-crust.xmf,379,-4.7894e-07,2.54822e-06,0,1.43344e-06,-6.30326e+08,-6.30118e+08,-6.30293e+08,98334.1,-0.011144,0.132448,-0,0.132916,-19933.5,-22949.6,-0,30397.9,98334.1
step02_gravity_refstate-crust.xmf,380,-5.59007e-07,2.82727e-06,0,1.62626e-06,-6.99953e+08,-6.99721e+08,-6.99915e+08,111561,-0.012581,0.129895,-0,0.130503,-18411.3,-25484.6,-0,31439.5,111561
step02_gravity_refstate-crust.xmf,381,-5.448e-07,2.84108e-06,0,1.80594e-06,-7.25879e+08,-7.25647e+08,-7.25841e+08,123887,-0.0136409,0.131825,-0,0.132529,-16945.8,-26428.5,-0,31394.7,123887
step02_gravity_refstate-crust.xmf,382,-4.65732e-07,2.71436e-06,0,1.98689e-06,-7.36947e+08,-7.36728e+08,-7.36915e+08,136301,-0.0145386,0.135875,-0,0.136651,-15439.6,-26831.6,-0,30956.7,136301
step02_gravity_refstate-crust.xmf,383,-4.32191e-07,2.68475e-06,0,2.1602e-06,-7.60307e+08,-7.60093e+08,-7.60277e+08,148190,-0.015393,0.137709,-0,0.138567,-14326.5,-27682.1,-0,31169.7,148190
step02_gravity_refstate-crust.xmf,384,-4.00415e-07,2.65147e-06,0,2.33161e-06,-7.81785e+08,-7.81576e+08,-7.81758e+08,159949,-0.0161525,0.139415,-0,0.140348,-13379.8,-28464.2,-0,31452,159949
step02_gravity_refstate-crust.xmf,385,-3.38746e-07,2.56082e-06,0,2.52153e-06,-8.00676e+08,-8.00477e+08,-8.00652e+08,172977,-0.0168744,0.141817,-0,0.142817,-12406.3,-29152,-0,31682.1,172977
step02_gravity_refstate-crust.xmf,386,-4.278e-07,2.70396e-06,0,2.86565e-06,-8.50346e+08,-8.50131e+08,-8.50316e+08,196584,-0.0182444,0.141686,-0,0.142856,-11442.6,-30960.1,-0,33007,196584
step02_gravity_refstate-crust.xmf,387,-3.34679e-07,2.53498e-06,0,3.12459e-06,-8.67637e+08,-8.6744e+08,-8.67614e+08,214347,-0.0189724,0.145058,-0,0.146293,-10507.7,-31589.8,-0,33291.5,214347
step02_gravity_refstate-crust.xmf,388,-2.11079e-07,2.31296e-06,0,3.40705e-06,-8.84407e+08,-8.84233e+08,-8.84392e+08,233724,-0.0196433,0.148825,-0,0.150116,-9603.69,-32200.4,-0,33602.1,233724
step02_gravity_refstate-crust.xmf,389,-3.95995e-08,2.01419e-06,0,3.70369e-06,-8.99515e+08,-8.99374e+08,-8.99513e+08,254073,-0.0202037,0.15312,-0,0.154447,-8727.4,-32750.7,-0,33893.6,254073
step02_gravity_refstate-crust.xmf,390,1.16413e-07,1.58768e-06,0,4.65234e-06,-9.52544e+08,-9.52443e+08,-9.52552e+08,319151,-0.0220274,0.160724,-0,0.162226,-7200.17,-34681.3,-0,35420.8,319151
step02_gravity_refstate-crust.xmf,391,1.66407e-07,1.66025e-06,0,4.00673e-06,-9.13701e+08,-9.13599e+08,-9.13713e+08,274861,-0.0206476,0.15759,-0,0.158937,-7920.74,-33267.4,-0,34197.4,274861
step02_gravity_refstate-crust.xmf,392,2.73508e-07,1.01368e-06,0,5.90704e-06,-1.00072e+09,-1.00067e+09,-1.00074e+09,405223,-0.0238023,0.170402,-0,0.172057,-5903.92,-36435,-0,36910.2,405223
step02_gravity_refstate-crust.xmf,393,2.68156e-06,-3.48097e-06,0,9.26359e-06,-1.05894e+09,-1.05936e+09,-1.05912e+09,635482,-0.0243103,0.20642,-0,0.207847,-3258.12,-38557.1,-0,38694.5,635482
step02_gravity_refstate-crust.xmf,394,3.45213e-06,-4.78262e-06,0,9.98518e-06,-1.06675e+09,-1.06732e+09,-1.06699e+09,684983,-0.023877,0.213869,-0,0.215197,-2883.57,-38842.7,-0,38949.6,684983
step02_gravity_refstate-crust.xmf,395,-4.40465e-07,1.32758e-06,0,6.22713e-07,-3.12196e+08,-3.12074e+08,-3.12165e+08,42718.1,-0.00599782,0.138361,-0,0.138491,-28628.5,-11366.1,-0,30802.3,42718.1
step02_gravity_refstate-crust.xmf,396,-4.61405e-07,2.00048e-06,0,8.61479e-07,-4.68592e+08,-4.68424e+08,-4.68561e+08,59097.4,-0.00694439,0.131806,-0,0.131989,-26673,-17060.8,-0,31662.6,59097.4
step02_gravity_refstate-crust.xmf,397,-4.23102e-07,1.72286e-06,0,8.18715e-07,-4.09228e+08,-4.09081e+08,-4.09199e+08,56163.8,-0.00678315,0.135817,-0,0.135986,-26675.5,-14899.3,-0,30554.4,56163.8
step02_gravity_refstate-crust.xmf,398,-5.10249e-07,9.47985e-07,0,4.23234e-07,-2.10661e+08,-2.10561e+08,-2.10626e+08,29033.9,-0.00591395,0.140654,-0,0.140778,-30190.3,-7668.74,-0,31149,29033.9
step02_gravity_refstate-crust.xmf,399,-6.86729e-07,7.04266e-07,0,2.09689e-07,-1.29863e+08,-1.29767e+08,-1.29816e+08,14384.7,-0.00504617,0.140215,-0,0.140305,-33243.8,-4726.1,-0,33578,14384.7
step02_gravity_refstate-crust.xmf,400,-3.93345e-07,2.27529e-06,0,1.38953e-06,-5.81586e+08,-5.81403e+08,-5.81559e+08,95322,-0.0106523,0.136786,-0,0.137201,-19907.5,-21175.2,-0,29063.6,95322
step02_gravity_refstate-crust.xmf,401,-4.47986e-07,2.07871e-06,0,1.00101e-06,-4.96044e+08,-4.95871e+08,-4.96014e+08,68669.4,-0.00790749,0.133035,-0,0.13327,-24799.1,-18060.4,-0,30678.5,68669.4
step02_gravity_refstate-crust.xmf,402,-4.33699e-07,2.15868e-06,0,1.13272e-06,-5.24976e+08,-5.24799e+08,-5.24947e+08,77704.6,-0.00883749,0.134184,-0,0.134474,-23073.3,-19113.9,-0,29962,77704.6
step02_gravity_refstate-crust.xmf,403,-4.1882e-07,2.22915e-06,0,1.26223e-06,-5.54166e+08,-5.53984e+08,-5.54137e+08,86588.7,-0.00975072,0.135341,-0,0.135692,-21463.3,-20176.7,-0,29458,86588.7
step02_gravity_refstate-crust.xmf,404,-2.50522e-07,2.43915e-06,0,2.72481e-06,-8.18775e+08,-8.1859e+08,-8.18758e+08,186922,-0.017558,0.144668,-0,0.14573,-11435.3,-29811.1,-0,31929.1,186922
step02_gravity_refstate-crust.xmf,405,3.9888e-07,1.07146e-06,0,5.07667e-06,-9.65976e+08,-9.6593e+08,-9.66003e+08,348259,-0.022405,0.166355,-0,0.167857,-6461.41,-35170.6,-0,35759.2,348259
step02_gravity_refstate-crust.xmf,406,4.23175e-07,1.22677e-06,0,4.32677e-06,-9.27576e+08,-9.2752e+08,-9.27605e+08,296816,-0.0209802,0.162443,-0,0.163792,-7143.94,-33772.9,-0,34520.2,296816
step02_gravity_refstate-crust.xmf,407,6.43551e-07,3.966e-07,0,6.4004e-06,-1.01107e+09,-1.01108e+09,-1.01111e+09,439067,-0.0240333,0.176811,-0,0.178437,-5292.24,-36812.1,-0,37190.6,439067
step02_gravity_refstate-crust.xmf,408,7.20218e-07,4.8523e-07,0,5.52631e-06,-9.79647e+08,-9.79663e+08,-9.79696e+08,379105,-0.0227038,0.172118,-0,0.173609,-5790.79,-35668.7,-0,36135.7,379105
step02_gravity_refstate-crust.xmf,409,1.10397e-06,-4.89812e-07,0,6.95919e-06,-1.02094e+09,-1.02105e+09,-1.02101e+09,477401,-0.0240939,0.183716,-0,0.18529,-4704.82,-37172,-0,37468.6,477401
step02_gravity_refstate-crust.xmf,410,1.68413e-06,-1.52448e-06,0,7.5855e-06,-1.03174e+09,-1.03196e+09,-1.03186e+09,520366,-0.0240195,0.191396,-0,0.192897,-4126.89,-37566.1,-0,37792.1,520366
step02_gravity_refstate-crust.xmf,411,2.52545e-06,-2.96562e-06,0,8.38858e-06,-1.0443e+09,-1.04468e+09,-1.04448e+09,575456,-0.0237264,0.200838,-0,0.202234,-3512.26,-38024.5,-0,38186.4,575456
step02_gravity_refstate-crust.xmf,412,3.83272e-06,-5.00011e-06,0,8.78921e-06,-1.05065e+09,-1.05126e+09,-1.05092e+09,602940,-0.02239,0.210708,-0,0.211895,-2900.33,-38257.9,-0,38367.7,602940
step02_gravity_refstate-crust.xmf,413,5.21981e-06,-8.27501e-06,0,1.21009e-05,-1.08576e+09,-1.08668e+09,-1.08611e+09,830120,-0.0231138,0.230135,-0,0.231293,-2259.37,-39536.3,-0,39600.8,830120
step02_gravity_refstate-crust.xmf,414,-4.56157e-07,2.56519e-06,0,1.58111e-06,-6.54591e+08,-6.54383e+08,-6.54559e+08,108464,-0.012107,0.134315,-0,0.13486,-18419.7,-23833.2,-0,30121.5,108464
step02_gravity_refstate-crust.xmf,415,-3.639e-07,2.30349e-06,0,1.52548e-06,-6.07801e+08,-6.07619e+08,-6.07777e+08,104648,-0.011535,0.138488,-0,0.138967,-18404.8,-22129.7,-0,28783,104648
step02_gravity_refstate-crust.xmf,416,-3.9349e-07,1.44499e-06,0,7.58093e-07,-3.47174e+08,-3.47048e+08,-3.47147e+08,52005.2,-0.00674873,0.13942,-0,0.139583,-26653.7,-12639.9,-0,29498.9,52005.2
step02_gravity_refstate-crust.xmf,417,-4.44333e-07,1.05362e-06,0,5.45902e-07,-2.45521e+08,-2.45418e+08,-2.45491e+08,37448.9,-0.00641464,0.141438,-0,0.141583,-28486.7,-8938.28,-0,29856,37448.9
step02_gravity_refstate-crust.xmf,418,-5.99177e-07,7.06488e-07,0,3.05351e-07,-1.40659e+08,-1.40569e+08,-1.40618e+08,20947.1,-0.00654916,0.142257,-0,0.142408,-30661.1,-5119.49,-0,31085.6,20947.1
step02_gravity_refstate-crust.xmf,419,-7.91598e-07,5.16005e-07,0,1.38721e-07,-6.68914e+07,-6.68017e+07,-6.68371e+07,9516.28,-0.00679587,0.142383,-0,0.142545,-32286,-2432.84,-0,32377.5,9516.28
step02_gravity_refstate-crust.xmf,420,-1.04891e-06,3.97714e-07,0,-5.61622e-10,-99652.3,-413.631,-27696.8,-38.5273,-0.00686335,0.142331,-0,0.142497,-33847.7,0,-0,33847.7,38.5273
step02_gravity_refstate-crust.xmf,421,-4.20057e-07,2.53785e-06,0,1.73811e-06,-6.76947e+08,-6.76744e+08,-6.76919e+08,119234,-0.0130193,0.13651,-0,0.137129,-16979,-24647.2,-0,29929.4,119234
step02_gravity_refstate-crust.xmf,422,-3.51775e-07,2.461e-06,0,1.89891e-06,-6.95771e+08,-6.95578e+08,-6.95747e+08,130265,-0.0138664,0.139477,-0,0.140165,-15519.6,-25332.6,-0,29708.6,130265
step02_gravity_refstate-crust.xmf,423,-2.69128e-07,2.3788e-06,0,2.09486e-06,-7.21617e+08,-7.21436e+08,-7.21599e+08,143708,-0.0148014,0.142448,-0,0.143214,-14012.5,-26273.8,-0,29776.9,143708
step02_gravity_refstate-crust.xmf,424,-2.81496e-07,2.43817e-06,0,2.2447e-06,-7.52302e+08,-7.52115e+08,-7.52282e+08,153986,-0.0156009,0.142338,-0,0.14319,-13331.8,-27390.9,-0,30463.1,153986
step02_gravity_refstate-crust.xmf,425,-2.06108e-07,2.32928e-06,0,2.39484e-06,-7.67841e+08,-7.67668e+08,-7.67827e+08,164286,-0.0161525,0.144588,-0,0.145487,-12441.4,-27956.8,-0,30600.2,164286
step02_gravity_refstate-crust.xmf,426,-1.00916e-07,2.17817e-06,0,2.57641e-06,-7.86015e+08,-7.85859e+08,-7.86008e+08,176742,-0.016748,0.147412,-0,0.148361,-11435.2,-28618.6,-0,30818.7,176742
step02_gravity_refstate-crust.xmf,427,-1.39353e-07,2.24346e-06,0,2.95278e-06,-8.36349e+08,-8.36186e+08,-8.3634e+08,202561,-0.0181838,0.147838,-0,0.148952,-10496.8,-30451,-0,32209.4,202561
step02_gravity_refstate-crust.xmf,428,4.7665e-10,2.01685e-06,0,3.20037e-06,-8.54495e+08,-8.54356e+08,-8.54495e+08,219546,-0.0187708,0.151327,-0,0.152486,-9578.8,-31111.9,-0,32553.1,219546
step02_gravity_refstate-crust.xmf,429,1.81652e-07,1.72426e-06,0,3.46338e-06,-8.71807e+08,-8.71701e+08,-8.71819e+08,237588,-0.0192619,0.155247,-0,0.156437,-8688.54,-31742.4,-0,32910,237588
step02_gravity_refstate-crust.xmf,430,4.01563e-07,1.3712e-06,0,3.72366e-06,-8.87429e+08,-8.87363e+08,-8.87457e+08,255443,-0.0196111,0.159408,-0,0.16061,-7865.4,-32311.5,-0,33255,255443
step02_gravity_refstate-crust.xmf,431,7.52953e-07,6.8229e-07,0,4.66471e-06,-9.41282e+08,-9.41287e+08,-9.41334e+08,319999,-0.0211719,0.167833,-0,0.169164,-6379.47,-34272.4,-0,34861.1,319999
step02_gravity_refstate-crust.xmf,432,6.68574e-07,9.46715e-07,0,3.98638e-06,-9.02246e+08,-9.02227e+08,-9.02292e+08,273466,-0.0198265,0.163867,-0,0.165062,-7084.47,-32851.3,-0,33606.6,273466
step02_gravity_refstate-crust.xmf,433,1.05178e-06,-1.10974e-07,0,5.97921e-06,-9.92794e+08,-9.92874e+08,-9.92866e+08,410174,-0.0229356,0.177674,-0,0.179148,-5219.94,-36147.7,-0,36522.7,410174
step02_gravity_refstate-crust.xmf,434,4.64139e-06,-6.87408e-06,0,1.06811e-05,-1.07345e+09,-1.07424e+09,-1.07377e+09,732721,-0.0228935,0.222582,-0,0.223756,-2474.09,-39088.3,-0,39166.5,732721
step02_gravity_refstate-crust.xmf,435,5.11309e-06,-7.01267e-06,0,9.31796e-06,-1.05992e+09,-1.06075e+09,-1.06027e+09,639212,-0.0212036,0.220071,-0,0.221091,-2419.72,-38597.1,-0,38672.9,639212
step02_gravity_refstate-crust.xmf,436,-2.8049e-07,2.04528e-06,0,1.46177e-06,-5.60009e+08,-5.59849e+08,-5.59989e+08,100277,-0.0109213,0.142446,-0,0.142864,-18335.1,-20389.7,-0,27421.1,100277
step02_gravity_refstate-crust.xmf,437,-3.80103e-07,1.1653e-06,0,6.81768e-07,-2.82309e+08,-2.82203e+08,-2.82283e+08,46769.3,-0.00695702,0.142613,-0,0.142783,-26577.9,-10278,-0,28496,46769.3
step02_gravity_refstate-crust.xmf,438,-3.95881e-07,1.81199e-06,0,9.54156e-07,-4.39158e+08,-4.39007e+08,-4.39131e+08,65455.1,-0.00765192,0.137109,-0,0.137323,-24771.6,-15989.2,-0,29483.7,65455.1
step02_gravity_refstate-crust.xmf,439,-3.53002e-07,1.53997e-06,0,8.92513e-07,-3.79576e+08,-3.79446e+08,-3.79552e+08,61226.4,-0.00748039,0.140795,-0,0.140993,-24737.7,-13819.8,-0,28336.2,61226.4
step02_gravity_refstate-crust.xmf,440,-4.79764e-07,8.04202e-07,0,4.39311e-07,-1.78831e+08,-1.78743e+08,-1.78798e+08,30136.7,-0.00713833,0.143703,-0,0.14388,-28479.7,-6509.82,-0,29214.2,30136.7
step02_gravity_refstate-crust.xmf,441,-3.20703e-07,2.03139e-06,0,1.33465e-06,-5.33708e+08,-5.33546e+08,-5.33686e+08,91557,-0.0101393,0.140648,-0,0.141013,-19862.8,-19432,-0,27787.3,91557
step02_gravity_refstate-crust.xmf,442,-3.70423e-07,1.88589e-06,0,1.09247e-06,-4.69824e+08,-4.69669e+08,-4.69798e+08,74943.6,-0.00851519,0.138524,-0,0.138786,-22935.8,-17105.8,-0,28612.2,74943.6
step02_gravity_refstate-crust.xmf,443,-3.45108e-07,1.96009e-06,0,1.21568e-06,-5.01318e+08,-5.0116e+08,-5.01294e+08,83395.7,-0.00932853,0.139669,-0,0.13998,-21330.6,-18252.6,-0,28074,83395.7
step02_gravity_refstate-crust.xmf,444,2.85455e-08,2.0057e-06,0,2.77115e-06,-8.05096e+08,-8.0496e+08,-8.05098e+08,190101,-0.0173073,0.150462,-0,0.151455,-10452.8,-29313.5,-0,31121.5,190101
step02_gravity_refstate-crust.xmf,445,1.23659e-06,-8.24552e-08,0,5.04424e-06,-9.55801e+08,-9.55891e+08,-9.55885e+08,346035,-0.0211369,0.174498,-0,0.175773,-5546.36,-34801.8,-0,35240.9,346035
step02_gravity_refstate-crust.xmf,446,9.99122e-07,4.28795e-07,0,4.24841e-06,-9.16416e+08,-9.16455e+08,-9.16484e+08,291441,-0.0198785,0.168724,-0,0.169891,-6328.02,-33367.7,-0,33962.5,291441
step02_gravity_refstate-crust.xmf,447,1.49905e-06,-8.24819e-07,0,6.39616e-06,-1.00312e+09,-1.00328e+09,-1.00322e+09,438777,-0.0228861,0.183713,-0,0.185133,-4667.1,-36524.4,-0,36821.3,438777
step02_gravity_refstate-crust.xmf,448,1.49031e-06,-6.12447e-07,0,5.54178e-06,-9.74714e+08,-9.74859e+08,-9.74817e+08,380166,-0.0215754,0.179328,-0,0.180621,-5027.43,-35490.5,-0,35844.8,380166
step02_gravity_refstate-crust.xmf,449,2.12976e-06,-1.89938e-06,0,6.83862e-06,-1.01294e+09,-1.01322e+09,-1.01309e+09,469129,-0.0225442,0.190717,-0,0.192045,-4087.19,-36882.9,-0,37108.7,469129
step02_gravity_refstate-crust.xmf,450,2.95401e-06,-3.23059e-06,0,7.30779e-06,-1.02375e+09,-1.02418e+09,-1.02395e+09,501314,-0.0219421,0.198697,-0,0.199905,-3499.39,-37277.6,-0,37441.5,501314
step02_gravity_refstate-crust.xmf,451,4.05525e-06,-4.94606e-06,0,7.64686e-06,-1.03345e+09,-1.03407e+09,-1.03373e+09,524575,-0.0207861,0.207441,-0,0.20848,-2911.78,-37632.6,-0,37745,524575
step02_gravity_refstate-crust.xmf,452,5.36932e-06,-6.98205e-06,0,7.86398e-06,-1.04336e+09,-1.04421e+09,-1.04373e+09,539469,-0.0192815,0.216412,-0,0.217269,-2378.75,-37995.6,-0,38070,539469
step02_gravity_refstate-crust.xmf,453,8.36415e-06,-1.28106e-05,0,1.13284e-05,-1.08643e+09,-1.08789e+09,-1.08701e+09,777126,-0.0197746,0.240969,-0,0.241779,-1749.64,-39566.7,-0,39605.4,777126
step02_gravity_refstate-crust.xmf,454,6.83888e-06,-1.00255e-05,0,9.9464e-06,-1.07128e+09,-1.07244e+09,-1.07175e+09,682323,-0.01972,0.230975,-0,0.231815,-1961.25,-39013.1,-0,39062.4,682323
step02_gravity_refstate-crust.xmf,455,-3.18768e-07,2.29335e-06,0,1.66442e-06,-6.32582e+08,-6.32403e+08,-6.32561e+08,114180,-0.0123793,0.140469,-0,0.141014,-16957.2,-23032.1,-0,28601.1,114180
step02_gravity_refstate-crust.xmf,456,-2.28965e-07,2.04969e-06,0,1.58394e-06,-5.86695e+08,-5.86539e+08,-5.8668e+08,108658,-0.011677,0.144242,-0,0.144714,-16900.4,-21361.5,-0,27238.5,108658
step02_gravity_refstate-crust.xmf,457,-3.20155e-07,1.26976e-06,0,8.11721e-07,-3.17287e+08,-3.17178e+08,-3.17265e+08,55684.1,-0.00749794,0.144085,-0,0.14428,-24670.9,-11551.8,-0,27241.5,55684.1
step02_gravity_refstate-crust.xmf,458,-3.83644e-07,8.9862e-07,0,5.7765e-07,-2.14922e+08,-2.14834e+08,-2.14896e+08,39626.8,-0.00755171,0.145363,-0,0.145559,-26430.2,-7824.28,-0,27564,39626.8
step02_gravity_refstate-crust.xmf,459,-5.24368e-07,6.06593e-07,0,3.22965e-07,-1.20696e+08,-1.20618e+08,-1.2066e+08,22155.4,-0.00824348,0.145404,-0,0.145638,-28314.7,-4392.88,-0,28653.4,22155.4
step02_gravity_refstate-crust.xmf,460,-6.79004e-07,4.68764e-07,0,1.79775e-07,-6.54924e+07,-6.54137e+07,-6.54458e+07,12332.6,-0.00887847,0.145106,-0,0.145378,-29498.2,-2382.3,-0,29594.2,12332.6
step02_gravity_refstate-crust.xmf,461,-9.21326e-07,3.49547e-07,0,5.71569e-11,-87521.9,-340.004,-24318.9,3.92097,-0.00976198,0.144645,-0,0.144974,-30911.6,0,-0,30911.6,3.92097
step02_gravity_refstate-crust.xmf,462,-2.16748e-07,1.83027e-06,0,1.38249e-06,-5.13612e+08,-5.13472e+08,-5.13597e+08,94839.1,-0.0102993,0.145609,-0,0.145973,-18379.3,-18700.5,-0,26220.4,94839.1
step02_gravity_refstate-crust.xmf,463,-2.53742e-07,2.23074e-06,0,1.80873e-06,-6.54986e+08,-6.54815e+08,-6.54968e+08,124079,-0.0131518,0.142849,-0,0.143453,-15554.3,-23847.8,-0,28472,124079
step02_gravity_refstate-crust.xmf,464,-1.61573e-07,2.13542e-06,0,1.95668e-06,-6.76949e+08,-6.76791e+08,-6.76938e+08,134228,-0.0138663,0.145615,-0,0.146274,-14154.4,-24647.6,-0,28422.8,134228
step02_gravity_refstate-crust.xmf,465,-9.89171e-08,2.1349e-06,0,2.24864e-06,-7.3237e+08,-7.32217e+08,-7.32363e+08,154257,-0.0153104,0.147116,-0,0.147911,-12528.2,-26665.6,-0,29462,154257
step02_gravity_refstate-crust.xmf,466,1.0553e-05,-1.68121e-05,0,1.12399e-05,-1.09826e+09,-1.10014e+09,-1.09899e+09,771054,-0.0183834,0.252426,-0,0.253094,-1499.28,-40000,-0,40028.1,771054
step02_gravity_refstate-crust.xmf,467,2.30384e-08,1.96684e-06,0,2.41127e-06,-7.51842e+08,-7.51709e+08,-7.51844e+08,165413,-0.0158462,0.149919,-0,0.150754,-11451.9,-27374.7,-0,29673.6,165413
step02_gravity_refstate-crust.xmf,468,1.72176e-07,1.76272e-06,0,2.58794e-06,-7.72475e+08,-7.72366e+08,-7.72487e+08,177533,-0.016332,0.15299,-0,0.153859,-10386.7,-28126.1,-0,29982.7,177533
step02_gravity_refstate-crust.xmf,469,1.79551e-07,1.76266e-06,0,2.98904e-06,-8.24594e+08,-8.24485e+08,-8.24606e+08,205048,-0.0178137,0.153674,-0,0.154703,-9524.23,-30023.6,-0,31498.1,205048
step02_gravity_refstate-crust.xmf,470,3.67847e-07,1.47827e-06,0,3.2144e-06,-8.43443e+08,-8.43366e+08,-8.43468e+08,220508,-0.0182236,0.157241,-0,0.158293,-8628.71,-30710.1,-0,31899.3,220508
step02_gravity_refstate-crust.xmf,471,5.95757e-07,1.13223e-06,0,3.43006e-06,-8.60192e+08,-8.60155e+08,-8.60233e+08,235302,-0.0184733,0.161077,-0,0.162132,-7794.62,-31320.3,-0,32275.7,235302
step02_gravity_refstate-crust.xmf,472,8.60285e-07,7.30614e-07,0,3.64275e-06,-8.76212e+08,-8.76221e+08,-8.76271e+08,249893,-0.0185989,0.165099,-0,0.166143,-7016.09,-31904,-0,32666.4,249893
step02_gravity_refstate-crust.xmf,473,1.4193e-06,-2.14633e-07,0,4.49456e-06,-9.29744e+08,-9.29856e+08,-9.29842e+08,308327,-0.0196961,0.174089,-0,0.1752,-5580.12,-33853.7,-0,34310.5,308327
step02_gravity_refstate-crust.xmf,474,1.18129e-06,2.48336e-07,0,3.84669e-06,-8.9146e+08,-8.91524e+08,-8.91541e+08,263883,-0.0185597,0.169458,-0,0.170471,-6264.63,-32459.6,-0,33058.6,263883
step02_gravity_refstate-crust.xmf,475,1.75555e-06,-1.07921e-06,0,5.924e-06,-9.87986e+08,-9.8818e+08,-9.88106e+08,406386,-0.0218224,0.183442,-0,0.184735,-4641.93,-35974,-0,36272.3,406386
step02_gravity_refstate-crust.xmf,476,6.93631e-06,-9.45004e-06,0,7.88599e-06,-1.05344e+09,-1.05457e+09,-1.05392e+09,540979,-0.0173025,0.225827,-0,0.226489,-1883.54,-38365.1,-0,38411.3,540979
step02_gravity_refstate-crust.xmf,477,-1.53131e-07,1.81557e-06,0,1.4962e-06,-5.39753e+08,-5.39618e+08,-5.39742e+08,102640,-0.0109515,0.147688,-0,0.148093,-16843.5,-19652.4,-0,25882.8,102640
step02_gravity_refstate-crust.xmf,478,-3.025e-07,1.00292e-06,0,7.17174e-07,-2.53675e+08,-2.53586e+08,-2.53655e+08,49198.1,-0.00783355,0.146961,-0,0.14717,-24521.4,-9235.64,-0,26203,49198.1
step02_gravity_refstate-crust.xmf,479,-3.12328e-07,1.61774e-06,0,1.02314e-06,-4.10694e+08,-4.10561e+08,-4.10672e+08,70187.1,-0.00820301,0.142428,-0,0.142664,-22865.1,-14953,-0,27320.4,70187.1
step02_gravity_refstate-crust.xmf,480,-2.6799e-07,1.35758e-06,0,9.41118e-07,-3.5143e+08,-3.51318e+08,-3.51411e+08,64560.7,-0.00803177,0.145713,-0,0.145934,-22819.1,-12795.2,-0,26161.6,64560.7
step02_gravity_refstate-crust.xmf,481,-4.15192e-07,6.58368e-07,0,4.40418e-07,-1.48011e+08,-1.47937e+08,-1.47982e+08,30212.7,-0.00859579,0.147341,-0,0.147591,-26373.8,-5387.82,-0,26918.5,30212.7
step02_gravity_refstate-crust.xmf,482,-2.64697e-07,1.83195e-06,0,1.2809e-06,-4.92248e+08,-4.92104e+08,-4.9223e+08,87869.7,-0.00970985,0.143724,-0,0.144052,-19793.5,-17922.6,-0,26702,87869.7
step02_gravity_refstate-crust.xmf,483,-2.62955e-07,1.68846e-06,0,1.17341e-06,-4.47703e+08,-4.47569e+08,-4.47685e+08,80496,-0.00903644,0.144413,-0,0.144695,-20779.4,-16300.6,-0,26410.1,80496
step02_gravity_refstate-crust.xmf,484,-3.72148e-08,1.99419e-06,0,2.1025e-06,-6.973e+08,-6.97161e+08,-6.97298e+08,144231,-0.0144576,0.14881,-0,0.149511,-12780.6,-25388.8,-0,28424.2,144231
step02_gravity_refstate-crust.xmf,485,1.07866e-05,-1.64496e-05,0,8.509e-06,-1.08629e+09,-1.08816e+09,-1.08703e+09,583717,-0.0148851,0.249894,-0,0.250337,-1239.63,-39565.6,-0,39585,583717
step02_gravity_refstate-crust.xmf,486,3.36895e-07,1.55024e-06,0,2.76255e-06,-7.93008e+08,-7.92925e+08,-7.93031e+08,189511,-0.0167442,0.156011,-0,0.156907,-9433.1,-28874,-0,30375.8,189511
step02_gravity_refstate-crust.xmf,487,1.90714e-06,-1.04934e-06,0,5.10459e-06,-9.59015e+08,-9.59217e+08,-9.59145e+08,350175,-0.0200913,0.1813,-0,0.18241,-4750.52,-34920,-0,35241.6,350175
step02_gravity_refstate-crust.xmf,488,1.95592e-06,-1.01681e-06,0,4.66959e-06,-9.41254e+08,-9.41458e+08,-9.41388e+08,320334,-0.019123,0.179988,-0,0.181001,-4829.79,-34273.6,-0,34612.3,320334
step02_gravity_refstate-crust.xmf,489,1.57868e-06,-3.42557e-07,0,4.02357e-06,-9.0566e+08,-9.05792e+08,-9.05768e+08,276017,-0.0182796,0.174255,-0,0.175211,-5521.61,-32977.3,-0,33436.4,276017
step02_gravity_refstate-crust.xmf,490,2.37476e-06,-2.00745e-06,0,6.15265e-06,-9.9493e+08,-9.9523e+08,-9.95093e+08,422072,-0.0211594,0.18953,-0,0.190707,-4077.69,-36227.9,-0,36456.7,422072
step02_gravity_refstate-crust.xmf,491,2.37427e-06,-1.81675e-06,0,5.48672e-06,-9.7437e+08,-9.74657e+08,-9.74533e+08,376389,-0.0199939,0.18674,-0,0.187807,-4217.5,-35479.7,-0,35729.5,376389
step02_gravity_refstate-crust.xmf,492,3.21728e-06,-3.32839e-06,0,6.40904e-06,-1.0051e+09,-1.00555e+09,-1.00532e+09,439660,-0.0202594,0.196891,-0,0.19793,-3462.77,-36599.5,-0,36763,439660
step02_gravity_refstate-crust.xmf,493,4.19561e-06,-4.82318e-06,0,6.59469e-06,-1.0157e+09,-1.01632e+09,-1.01599e+09,452396,-0.0190667,0.204559,-0,0.205446,-2888.74,-36987.1,-0,37099.7,452396
step02_gravity_refstate-crust.xmf,494,5.38884e-06,-6.62567e-06,0,6.60686e-06,-1.02616e+09,-1.02699e+09,-1.02653e+09,453231,-0.0173971,0.212668,-0,0.213378,-2335.56,-37370.1,-0,37443,453231
step02_gravity_refstate-crust.xmf,495,6.80247e-06,-8.75409e-06,0,6.34497e-06,-1.03665e+09,-1.03772e+09,-1.03712e+09,435265,-0.0151973,0.221115,-0,0.221637,-1810.41,-37754.3,-0,37797.7,435265
step02_gravity_refstate-crust.xmf,496,9.07358e-06,-1.3273e-05,0,8.8496e-06,-1.07582e+09,-1.07736e+09,-1.07644e+09,607083,-0.0165353,0.240325,-0,0.240894,-1499.01,-39182.5,-0,39211.2,607083
step02_gravity_refstate-crust.xmf,497,-1.61305e-07,2.01222e-06,0,1.70948e-06,-6.11985e+08,-6.11836e+08,-6.11974e+08,117270,-0.0123813,0.146303,-0,0.146826,-15508.2,-22282.4,-0,27147.9,117270
step02_gravity_refstate-crust.xmf,498,-7.89225e-08,1.79173e-06,0,1.60644e-06,-5.67086e+08,-5.66958e+08,-5.67081e+08,110202,-0.0115753,0.149681,-0,0.150128,-15407.4,-20647.8,-0,25762.7,110202
step02_gravity_refstate-crust.xmf,499,-2.33085e-07,1.10016e-06,0,8.40201e-07,-2.89559e+08,-2.89468e+08,-2.89543e+08,57637.8,-0.00811556,0.14866,-0,0.148881,-22715.5,-10542.5,-0,25042.8,57637.8
step02_gravity_refstate-crust.xmf,500,-2.8126e-07,7.2283e-07,0,5.85004e-07,-1.8209e+08,-1.82021e+08,-1.82071e+08,40131.2,-0.00881537,0.150107,-0,0.150365,-23967,-6629.15,-0,24866.9,40131.2
step02_gravity_refstate-crust.xmf,501,-5.10395e-07,4.30676e-07,0,2.50384e-07,-7.40536e+07,-7.3989e+07,-7.40186e+07,17176.3,-0.0103801,0.148575,-0,0.148937,-26542.3,-2694.6,-0,26678.8,17176.3
step02_gravity_refstate-crust.xmf,502,-7.53672e-07,2.85527e-07,0,9.11516e-10,-71613,-323.95,-19911.1,62.53,-0.0121621,0.147633,-0,0.148133,-28058.3,0,-0,28058.3,62.53
step02_gravity_refstate-crust.xmf,503,-9.18597e-08,1.6078e-06,0,1.39702e-06,-4.91402e+08,-4.91286e+08,-4.91396e+08,95835.2,-0.0102398,0.150728,-0,0.151076,-16832.3,-17892.1,-0,24565.3,95835.2
step02_gravity_refstate-crust.xmf,504,-1.72594e-07,1.63328e-06,0,1.2883e-06,-4.649e+08,-4.64776e+08,-4.64888e+08,88377.2,-0.00967226,0.148127,-0,0.148443,-18615.2,-16927,-0,25160.5,88377.2
step02_gravity_refstate-crust.xmf,505,-7.32813e-08,1.9261e-06,0,1.83527e-06,-6.3534e+08,-6.35203e+08,-6.35335e+08,125900,-0.0129974,0.14864,-0,0.149207,-14170.6,-23132.9,-0,27128.1,125900
step02_gravity_refstate-crust.xmf,506,4.2345e-08,1.8054e-06,0,1.95796e-06,-6.57829e+08,-6.57708e+08,-6.57832e+08,134316,-0.0135208,0.151301,-0,0.151904,-12849.1,-23951.9,-0,27180.8,134316
step02_gravity_refstate-crust.xmf,507,1.15286e-07,1.8002e-06,0,2.23901e-06,-7.15982e+08,-7.15867e+08,-7.1599e+08,153596,-0.0148841,0.152151,-0,0.152878,-11508.2,-26069.3,-0,28496.4,153596
step02_gravity_refstate-crust.xmf,508,1.20652e-05,-1.96805e-05,0,7.46022e-06,-1.09822e+09,-1.10039e+09,-1.09904e+09,511771,-0.0127271,0.261236,-0,0.261545,-999.317,-40000,-0,40012.5,511771
step02_gravity_refstate-crust.xmf,509,2.90294e-07,1.56673e-06,0,2.37754e-06,-7.36037e+08,-7.35949e+08,-7.36057e+08,163099,-0.0152225,0.155394,-0,0.156138,-10339.2,-26799.7,-0,28725,163099
step02_gravity_refstate-crust.xmf,510,5.04013e-07,1.28694e-06,0,2.52157e-06,-7.57649e+08,-7.57595e+08,-7.57683e+08,172979,-0.0154584,0.158889,-0,0.159639,-9188.96,-27587,-0,29077.1,172979
step02_gravity_refstate-crust.xmf,511,5.20816e-07,1.27299e-06,0,2.95356e-06,-8.13427e+08,-8.13375e+08,-8.13463e+08,202614,-0.0170877,0.159114,-0,0.160029,-8556.87,-29617.7,-0,30829,202614
step02_gravity_refstate-crust.xmf,512,7.61909e-07,9.23255e-07,0,3.13133e-06,-8.31556e+08,-8.31545e+08,-8.31609e+08,214809,-0.0172272,0.16279,-0,0.163699,-7676.41,-30278.2,-0,31236.1,214809
step02_gravity_refstate-crust.xmf,513,1.01751e-06,5.46069e-07,0,3.30707e-06,-8.49638e+08,-8.4967e+08,-8.49707e+08,226865,-0.0173099,0.166351,-0,0.16725,-6905.57,-30936.9,-0,31698.2,226865
step02_gravity_refstate-crust.xmf,514,6.26309e-07,1.13426e-06,0,2.71426e-06,-7.84809e+08,-7.84774e+08,-7.84852e+08,186199,-0.0160062,0.16068,-0,0.161475,-8489,-28576.1,-0,29810.3,186199
step02_gravity_refstate-crust.xmf,515,1.31027e-06,1.24454e-07,0,3.47151e-06,-8.6659e+08,-8.66671e+08,-8.6668e+08,238146,-0.0172539,0.170098,-0,0.17097,-6185.95,-31554.6,-0,32155.2,238146
step02_gravity_refstate-crust.xmf,516,2.55422e-06,-1.90122e-06,0,4.80065e-06,-9.52803e+08,-9.53108e+08,-9.52978e+08,329325,-0.0183193,0.185912,-0,0.186812,-4139.29,-34695.1,-0,34941.2,329325
step02_gravity_refstate-crust.xmf,517,2.05363e-06,-1.04157e-06,0,4.15313e-06,-9.18872e+08,-9.19084e+08,-9.19013e+08,284905,-0.0177245,0.179356,-0,0.18023,-4801.08,-33459.2,-0,33801.9,284905
step02_gravity_refstate-crust.xmf,518,1.6789e-06,-4.06019e-07,0,3.58517e-06,-8.81055e+08,-8.81198e+08,-8.8117e+08,245943,-0.0168848,0.174319,-0,0.175135,-5456.99,-32081.8,-0,32542.6,245943
step02_gravity_refstate-crust.xmf,519,8.79746e-06,-1.2431e-05,0,7.27035e-06,-1.06272e+09,-1.06417e+09,-1.06332e+09,498746,-0.0145085,0.235436,-0,0.235883,-1408.96,-38705.6,-0,38731.3,498746
step02_gravity_refstate-crust.xmf,520,8.35819e-06,-1.12727e-05,0,5.66592e-06,-1.04685e+09,-1.04819e+09,-1.04742e+09,388682,-0.0123076,0.229696,-0,0.230025,-1309.29,-38127.9,-0,38150.3,388682
step02_gravity_refstate-crust.xmf,521,1.07512e-05,-1.55487e-05,0,5.66535e-06,-1.07282e+09,-1.07463e+09,-1.07356e+09,388643,-0.0107563,0.245739,-0,0.245974,-940.932,-39076.7,-0,39088,388643
step02_gravity_refstate-crust.xmf,522,-4.41557e-09,1.57002e-06,0,1.49857e-06,-5.20054e+08,-5.19946e+08,-5.20053e+08,102802,-0.0107601,0.153011,-0,0.153389,-15232.4,-18935.5,-0,24301.8,102802
step02_gravity_refstate-crust.xmf,523,-2.09119e-07,8.68535e-07,0,7.28551e-07,-2.31536e+08,-2.31462e+08,-2.31521e+08,49978.6,-0.00852718,0.151034,-0,0.151274,-22545.1,-8429.78,-0,24069.5,49978.6
step02_gravity_refstate-crust.xmf,524,-2.1034e-07,1.41687e-06,0,1.06582e-06,-3.83167e+08,-3.83055e+08,-3.83152e+08,73115.5,-0.00858341,0.147766,-0,0.148015,-20917.9,-13950.9,-0,25143.3,73115.5
step02_gravity_refstate-crust.xmf,525,-1.68109e-07,1.17081e-06,0,9.6033e-07,-3.23094e+08,-3.23002e+08,-3.23083e+08,65878.7,-0.00842734,0.15063,-0,0.150865,-20895.5,-11763.7,-0,23979.3,65878.7
step02_gravity_refstate-crust.xmf,526,-3.36882e-07,5.23584e-07,0,4.12689e-07,-1.20216e+08,-1.20157e+08,-1.20193e+08,28310.5,-0.0099242,0.150686,-0,0.151013,-24499.4,-4376.04,-0,24887.1,28310.5
step02_gravity_refstate-crust.xmf,527,1.82235e-07,1.65144e-06,0,2.07389e-06,-6.79227e+08,-6.79127e+08,-6.7924e+08,142269,-0.013917,0.154149,-0,0.154776,-11592.1,-24731.2,-0,27313.2,142269
step02_gravity_refstate-crust.xmf,528,1.2034e-05,-1.85263e-05,0,5.21762e-06,-1.08629e+09,-1.08839e+09,-1.08711e+09,357929,-0.00930002,0.255901,-0,0.25607,-749.574,-39567.4,-0,39574.5,357929
step02_gravity_refstate-crust.xmf,529,7.23957e-07,9.81514e-07,0,2.53292e-06,-7.62927e+08,-7.62909e+08,-7.62977e+08,173759,-0.0150953,0.16234,-0,0.16304,-8296.15,-27779.6,-0,28991.9,173759
step02_gravity_refstate-crust.xmf,530,2.60653e-06,-1.84923e-06,0,4.22838e-06,-9.31843e+08,-9.32149e+08,-9.32022e+08,290067,-0.0169073,0.18468,-0,0.185453,-4110.93,-33932.4,-0,34180.5,290067
step02_gravity_refstate-crust.xmf,531,2.12011e-06,-1.04126e-06,0,3.66225e-06,-8.95421e+08,-8.95638e+08,-8.95567e+08,251230,-0.0162676,0.178912,-0,0.17965,-4730.27,-32605.7,-0,32947,251230
step02_gravity_refstate-crust.xmf,532,3.37997e-06,-3.32646e-06,0,5.59289e-06,-9.86559e+08,-9.87019e+08,-9.86791e+08,383673,-0.0185483,0.19532,-0,0.196198,-3393.41,-35925.2,-0,36085.1,383673
step02_gravity_refstate-crust.xmf,533,4.25539e-06,-4.63017e-06,0,5.63409e-06,-9.9739e+08,-9.97999e+08,-9.97682e+08,386498,-0.0172951,0.201937,-0,0.202677,-2835.64,-36321,-0,36431.5,386498
step02_gravity_refstate-crust.xmf,534,5.2938e-06,-6.17562e-06,0,5.52239e-06,-1.00843e+09,-1.00922e+09,-1.00879e+09,378836,-0.0155827,0.209056,-0,0.209636,-2282.46,-36724.8,-0,36795.6,378836
step02_gravity_refstate-crust.xmf,535,6.50593e-06,-7.97297e-06,0,5.13442e-06,-1.0194e+09,-1.02039e+09,-1.01985e+09,352222,-0.0133022,0.216499,-0,0.216908,-1741.23,-37126.3,-0,37167.1,352222
step02_gravity_refstate-crust.xmf,536,7.82664e-06,-9.95241e-06,0,4.33682e-06,-1.03003e+09,-1.03125e+09,-1.03057e+09,297506,-0.010365,0.223951,-0,0.224191,-1218.93,-37515.7,-0,37535.5,297506
step02_gravity_refstate-crust.xmf,537,5.93965e-09,1.73562e-06,0,1.71495e-06,-5.93488e+08,-5.93369e+08,-5.93488e+08,117646,-0.0121324,0.151653,-0,0.152137,-14093.6,-21609.2,-0,25799,117646
step02_gravity_refstate-crust.xmf,538,7.81187e-08,1.53822e-06,0,1.59022e-06,-5.48758e+08,-5.48657e+08,-5.48763e+08,109089,-0.0112336,0.154714,-0,0.155122,-13945.4,-19980.8,-0,24366.1,109089
step02_gravity_refstate-crust.xmf,539,-1.35956e-07,9.26451e-07,0,8.33877e-07,-2.60026e+08,-2.59953e+08,-2.60017e+08,57204,-0.00859609,0.153084,-0,0.153325,-20865.9,-9467.39,-0,22913.3,57204
step02_gravity_refstate-crust.xmf,540,-1.31231e-07,6.63281e-07,0,6.64292e-07,-1.87442e+08,-1.87388e+08,-1.87433e+08,45570.4,-0.00932625,0.15483,-0,0.15511,-21064.5,-6824.52,-0,22142.5,45570.4
step02_gravity_refstate-crust.xmf,541,-2.15288e-07,4.89911e-07,0,4.68913e-07,-1.25657e+08,-1.25609e+08,-1.25643e+08,32167.5,-0.0103553,0.153833,-0,0.154181,-22431.5,-4574.57,-0,22893.2,32167.5
step02_gravity_refstate-crust.xmf,542,-3.43451e-07,3.31446e-07,0,2.51602e-07,-6.37935e+07,-6.37472e+07,-6.37699e+07,17259.9,-0.0119182,0.152694,-0,0.153158,-23753.8,-2321.59,-0,23867,17259.9
step02_gravity_refstate-crust.xmf,543,-5.55227e-07,2.10462e-07,0,2.98781e-09,-52752.2,-225.885,-14663.6,204.963,-0.0139869,0.151136,-0,0.151782,-25280.2,0,-0,25280.2,204.963
step02_gravity_refstate-crust.xmf,544,-1.41746e-07,1.44044e-06,0,1.18099e-06,-4.12118e+08,-4.12009e+08,-4.12108e+08,81015.9,-0.00910608,0.150218,-0,0.150493,-19004.8,-15005.2,-0,24214.4,81015.9
step02_gravity_refstate-crust.xmf,545,5.38278e-08,1.36957e-06,0,1.37825e-06,-4.69235e+08,-4.69145e+08,-4.69238e+08,94548.2,-0.00995344,0.156018,-0,0.156335,-15114.3,-17085.3,-0,22811.2,94548.2
step02_gravity_refstate-crust.xmf,546,-4.57983e-08,1.41117e-06,0,1.28839e-06,-4.40143e+08,-4.40043e+08,-4.40139e+08,88383.3,-0.0095779,0.153346,-0,0.153645,-16917.6,-16025.8,-0,23303.1,88383.3
step02_gravity_refstate-crust.xmf,547,1.16473e-07,1.62518e-06,0,1.81635e-06,-6.17097e+08,-6.16994e+08,-6.17105e+08,124601,-0.0125684,0.153978,-0,0.15449,-12806.7,-22469,-0,25862.5,124601
step02_gravity_refstate-crust.xmf,548,2.51826e-07,1.48319e-06,0,1.90911e-06,-6.39786e+08,-6.39702e+08,-6.39803e+08,130965,-0.0128896,0.15651,-0,0.15704,-11556.4,-23295.4,-0,26004.3,130965
step02_gravity_refstate-crust.xmf,549,3.59902e-07,1.4323e-06,0,2.17788e-06,-6.99117e+08,-6.99044e+08,-6.99142e+08,149402,-0.0141365,0.157337,-0,0.157971,-10357.1,-25455.7,-0,27482.1,149402
step02_gravity_refstate-crust.xmf,550,1.28766e-05,-2.11912e-05,0,3.72757e-06,-1.09819e+09,-1.10053e+09,-1.09907e+09,255712,-0.00649871,0.26653,-0,0.266609,-499.831,-40000,-0,40003.1,255712
step02_gravity_refstate-crust.xmf,551,5.69392e-07,1.1643e-06,0,2.27282e-06,-7.19558e+08,-7.19517e+08,-7.19597e+08,155915,-0.014223,0.160569,-0,0.161198,-9193.92,-26200.3,-0,27766.6,155915
step02_gravity_refstate-crust.xmf,552,1.40118e-06,4.08591e-08,0,3.15408e-06,-8.4471e+08,-8.44803e+08,-8.44806e+08,216370,-0.0160971,0.170724,-0,0.171481,-6081.4,-30758.2,-0,31353.7,216370
step02_gravity_refstate-crust.xmf,553,8.832e-07,7.73439e-07,0,2.82803e-06,-8.01659e+08,-8.01667e+08,-8.0172e+08,194003,-0.0159495,0.16424,-0,0.165012,-7568.42,-29190,-0,30155.2,194003
step02_gravity_refstate-crust.xmf,554,1.23597e-06,2.92508e-07,0,2.93857e-06,-8.21214e+08,-8.21279e+08,-8.21299e+08,201586,-0.0156645,0.168651,-0,0.169376,-6535.73,-29902.6,-0,30608.5,201586
step02_gravity_refstate-crust.xmf,555,9.50127e-07,6.78065e-07,0,2.54544e-06,-7.71106e+08,-7.71125e+08,-7.71171e+08,174617,-0.0147056,0.165451,-0,0.166104,-7474.87,-28077.8,-0,29055.7,174617
step02_gravity_refstate-crust.xmf,556,8.06852e-07,8.52274e-07,0,2.35987e-06,-7.39719e+08,-7.39716e+08,-7.39775e+08,161887,-0.014121,0.163982,-0,0.164589,-8074.9,-26934.8,-0,28119.2,161887
step02_gravity_refstate-crust.xmf,557,3.27262e-06,-2.98467e-06,0,4.90259e-06,-9.65785e+08,-9.66214e+08,-9.66009e+08,336318,-0.0172859,0.192248,-0,0.193023,-3474.4,-35169,-0,35340.2,336318
step02_gravity_refstate-crust.xmf,558,1.72877e-06,-4.18788e-07,0,3.19127e-06,-8.56464e+08,-8.56611e+08,-8.56582e+08,218921,-0.015568,0.174308,-0,0.175002,-5391.04,-31186.8,-0,31649.3,218921
step02_gravity_refstate-crust.xmf,559,3.2409e-06,-2.78499e-06,0,4.23911e-06,-9.44732e+08,-9.45145e+08,-9.44954e+08,290803,-0.0157711,0.190275,-0,0.190928,-3441.45,-34402.7,-0,34574.4,290803
step02_gravity_refstate-crust.xmf,560,2.6224e-06,-1.76159e-06,0,3.6783e-06,-9.09154e+08,-9.09455e+08,-9.09334e+08,252332,-0.0153899,0.183654,-0,0.184297,-4037.34,-33106.5,-0,33351.8,252332
step02_gravity_refstate-crust.xmf,561,2.13653e-06,-9.91786e-07,0,3.21139e-06,-8.71019e+08,-8.71233e+08,-8.71165e+08,220301,-0.0148524,0.178434,-0,0.179051,-4652.53,-31717.4,-0,32056.8,220301
step02_gravity_refstate-crust.xmf,562,9.92955e-06,-1.38372e-05,0,4.25007e-06,-1.05649e+09,-1.05812e+09,-1.05717e+09,291555,-0.00859585,0.237973,-0,0.238128,-827.876,-38481.3,-0,38490.2,291555
step02_gravity_refstate-crust.xmf,563,9.1117e-06,-1.21366e-05,0,3.06726e-06,-1.04044e+09,-1.0419e+09,-1.04107e+09,210414,-0.0067289,0.231121,-0,0.231219,-717.382,-37896.4,-0,37903.2,210414
step02_gravity_refstate-crust.xmf,564,1.182e-05,-1.74629e-05,0,3.17863e-06,-1.07703e+09,-1.07903e+09,-1.07784e+09,218054,-0.00598376,0.251701,-0,0.251772,-499.812,-39231,-0,39234.2,218054
step02_gravity_refstate-crust.xmf,565,1.41245e-07,1.34208e-06,0,1.46554e-06,-5.02717e+08,-5.02635e+08,-5.02727e+08,100536,-0.0103592,0.157685,-0,0.158025,-13724.8,-18304.6,-0,22878.5,100536
step02_gravity_refstate-crust.xmf,566,-9.55261e-08,1.21169e-06,0,1.07111e-06,-3.54663e+08,-3.54573e+08,-3.54656e+08,73478.5,-0.00874926,0.15299,-0,0.15324,-19000.8,-12913.3,-0,22973.6,73478.5
step02_gravity_refstate-crust.xmf,567,-5.85377e-08,9.89731e-07,0,9.49429e-07,-2.95761e+08,-2.95689e+08,-2.95757e+08,65130.9,-0.00865216,0.15533,-0,0.155571,-19007,-10768.8,-0,21845.7,65130.9
step02_gravity_refstate-crust.xmf,568,4.14778e-07,1.30231e-06,0,1.98956e-06,-6.61312e+08,-6.61251e+08,-6.6134e+08,136484,-0.0130569,0.15928,-0,0.159815,-10335.9,-24079.4,-0,26204,136484
step02_gravity_refstate-crust.xmf,569,1.26249e-05,-1.95486e-05,0,1.56702e-06,-1.08656e+09,-1.08877e+09,-1.08743e+09,107497,-0.00282132,0.259295,-0,0.259311,-223.71,-39578.2,-0,39578.9,107497
step02_gravity_refstate-crust.xmf,570,1.7223e-06,-3.69189e-07,0,2.8244e-06,-8.30017e+08,-8.3016e+08,-8.30135e+08,193754,-0.0143152,0.17409,-0,0.174678,-5357.11,-30224,-0,30695.1,193754
step02_gravity_refstate-crust.xmf,571,3.19714e-06,-2.58028e-06,0,3.61226e-06,-9.22582e+08,-9.22979e+08,-9.22802e+08,247801,-0.0142044,0.188582,-0,0.189116,-3365.56,-33596.5,-0,33764.6,247801
step02_gravity_refstate-crust.xmf,572,2.60203e-06,-1.64568e-06,0,3.1723e-06,-8.85499e+08,-8.85791e+08,-8.85678e+08,217620,-0.0138782,0.182744,-0,0.18327,-3934.17,-32245.5,-0,32484.6,217620
step02_gravity_refstate-crust.xmf,573,4.15601e-06,-4.28658e-06,0,4.80551e-06,-9.77598e+08,-9.78178e+08,-9.77883e+08,329658,-0.0156403,0.199022,-0,0.199636,-2800.19,-35600.6,-0,35710.6,329658
step02_gravity_refstate-crust.xmf,574,5.12301e-06,-5.67165e-06,0,4.54373e-06,-9.8939e+08,-9.90131e+08,-9.89742e+08,311700,-0.013736,0.20558,-0,0.206039,-2203.63,-36031.7,-0,36099,311700
step02_gravity_refstate-crust.xmf,575,7.22585e-06,-8.78221e-06,0,3.3187e-06,-1.01233e+09,-1.01342e+09,-1.01282e+09,227663,-0.00862275,0.218469,-0,0.218639,-1125.77,-36870.4,-0,36887.5,227663
step02_gravity_refstate-crust.xmf,576,6.13776e-06,-7.16224e-06,0,4.09279e-06,-1.00087e+09,-1.00178e+09,-1.00129e+09,280766,-0.0114613,0.212008,-0,0.212318,-1656.51,-36451.2,-0,36488.9,280766
step02_gravity_refstate-crust.xmf,577,8.27578e-06,-1.05441e-05,0,2.16229e-06,-1.02351e+09,-1.02481e+09,-1.02408e+09,148333,-0.00515581,0.224637,-0,0.224696,-612.463,-37279.2,-0,37284.3,148333
step02_gravity_refstate-crust.xmf,578,1.11786e-05,-1.57979e-05,0,2.03157e-06,-1.06527e+09,-1.06712e+09,-1.06604e+09,139366,-0.00405121,0.245194,-0,0.245227,-361.371,-38803,-0,38804.7,139366
step02_gravity_refstate-crust.xmf,579,1.78949e-07,1.46234e-06,0,1.67624e-06,-5.75282e+08,-5.75194e+08,-5.75294e+08,114990,-0.0116196,0.156625,-0,0.157055,-12701.6,-20946.7,-0,24496.9,114990
step02_gravity_refstate-crust.xmf,580,2.2967e-07,1.30469e-06,0,1.54066e-06,-5.32731e+08,-5.32657e+08,-5.32747e+08,105690,-0.0107061,0.159133,-0,0.159493,-12560.2,-19397.6,-0,23109,105690
step02_gravity_refstate-crust.xmf,581,-2.34624e-08,7.59641e-07,0,8.05112e-07,-2.325e+08,-2.32446e+08,-2.32499e+08,55230.7,-0.0089484,0.157494,-0,0.157748,-18923.7,-8465.48,-0,20730.9,55230.7
step02_gravity_refstate-crust.xmf,582,-5.61178e-08,4.0473e-07,0,4.86155e-07,-1.21025e+08,-1.20993e+08,-1.21021e+08,33350.2,-0.0108154,0.158102,-0,0.158472,-19913.8,-4406.43,-0,20395.5,33350.2
step02_gravity_refstate-crust.xmf,583,-1.5925e-07,2.56409e-07,0,2.71669e-07,-6.27528e+07,-6.27242e+07,-6.27418e+07,18636.5,-0.0125981,0.156682,-0,0.157188,-21199.6,-2284.33,-0,21322.3,18636.5
step02_gravity_refstate-crust.xmf,584,-3.25859e-07,1.23617e-07,0,3.61758e-09,-30955.7,-121.623,-8601.75,248.166,-0.0151912,0.154994,-0,0.155736,-22569.7,0,-0,22569.7,248.166
step02_gravity_refstate-crust.xmf,585,-7.73239e-09,1.21647e-06,0,1.16923e-06,-3.85009e+08,-3.84925e+08,-3.85008e+08,80209.2,-0.00903602,0.155734,-0,0.155996,-17029.9,-14018.5,-0,22057.5,80209.2
step02_gravity_refstate-crust.xmf,586,2.19219e-07,1.13085e-06,0,1.32062e-06,-4.50688e+08,-4.50626e+08,-4.50703e+08,90594.3,-0.00941773,0.161274,-0,0.161549,-13190.6,-16410.4,-0,21054.5,90594.3
step02_gravity_refstate-crust.xmf,587,1.02482e-07,1.17612e-06,0,1.24804e-06,-4.1486e+08,-4.14786e+08,-4.14867e+08,85615.7,-0.00923213,0.158786,-0,0.159054,-15004.1,-15105.6,-0,21290.9,85615.7
step02_gravity_refstate-crust.xmf,588,3.04381e-07,1.33956e-06,0,1.752e-06,-5.99825e+08,-5.99754e+08,-5.99846e+08,120187,-0.0118873,0.158777,-0,0.159222,-11484.9,-21840.5,-0,24676.1,120187
step02_gravity_refstate-crust.xmf,589,4.60343e-07,1.17393e-06,0,1.80929e-06,-6.2239e+08,-6.22341e+08,-6.22422e+08,124117,-0.0119817,0.161282,-0,0.161727,-10253.4,-22662.4,-0,24874,124117
step02_gravity_refstate-crust.xmf,590,6.07838e-07,1.0709e-06,0,2.05609e-06,-6.82467e+08,-6.82435e+08,-6.82508e+08,141047,-0.0130687,0.162174,-0,0.162699,-9165.33,-24850,-0,26486.3,141047
step02_gravity_refstate-crust.xmf,591,1.31378e-05,-2.16847e-05,0,1.07967e-08,-1.09818e+09,-1.10057e+09,-1.09908e+09,740.651,-5.01116e-07,0.268299,-0,0.268299,-2.07592e-10,-40000,-0,40000,740.651
step02_gravity_refstate-crust.xmf,592,1.19211e-05,-1.74379e-05,0,-5.45223e-07,-1.07413e+09,-1.07615e+09,-1.07495e+09,-37402.3,0.000914829,0.251208,0,0.251209,76.6991,-39126.2,0,39126.2,37402.3
step02_gravity_refstate-crust.xmf,593,8.42131e-07,7.8087e-07,0,2.09519e-06,-7.02913e+08,-7.02917e+08,-7.0297e+08,143730,-0.0128678,0.165287,-0,0.165787,-8015.31,-25594.9,-0,26820.5,143730
step02_gravity_refstate-crust.xmf,594,1.24007e-06,2.96828e-07,0,2.58999e-06,-7.87533e+08,-7.87597e+08,-7.87618e+08,177673,-0.0143325,0.168906,-0,0.169513,-6559.74,-28676.4,-0,29417.1,177673
step02_gravity_refstate-crust.xmf,595,1.21433e-06,3.16863e-07,0,2.3046e-06,-7.55136e+08,-7.55197e+08,-7.55219e+08,158096,-0.0131492,0.169215,-0,0.169725,-6573.64,-27496.9,-0,28271.7,158096
step02_gravity_refstate-crust.xmf,596,4.00994e-06,-3.90567e-06,0,4.07937e-06,-9.57071e+08,-9.57614e+08,-9.57346e+08,279845,-0.0141115,0.196221,-0,0.196728,-2763.83,-34853.3,-0,34962.7,279845
step02_gravity_refstate-crust.xmf,597,2.09221e-06,-8.79537e-07,0,2.81462e-06,-8.4533e+08,-8.45534e+08,-8.45473e+08,193083,-0.0135723,0.177756,-0,0.178273,-4611.09,-30782.2,-0,31125.6,193083
step02_gravity_refstate-crust.xmf,598,3.8384e-06,-3.5242e-06,0,3.43835e-06,-9.35659e+08,-9.36164e+08,-9.35922e+08,235871,-0.0126161,0.193692,-0,0.194103,-2702.97,-34073.7,-0,34180.7,235871
step02_gravity_refstate-crust.xmf,599,3.10286e-06,-2.35167e-06,0,3.08508e-06,-9.00183e+08,-9.00557e+08,-9.00396e+08,211636,-0.0127497,0.187031,-0,0.187465,-3278,-32781,-0,32944.5,211636
step02_gravity_refstate-crust.xmf,600,2.53116e-06,-1.48356e-06,0,2.72644e-06,-8.6072e+08,-8.60996e+08,-8.60894e+08,187034,-0.0124759,0.181776,-0,0.182204,-3837.88,-31343.3,-0,31577.4,187034
step02_gravity_refstate-crust.xmf,601,1.02101e-05,-1.4016e-05,0,1.16404e-06,-1.05051e+09,-1.05217e+09,-1.05121e+09,79853.5,-0.00241686,0.237544,-0,0.237556,-236.965,-38264.5,-0,38265.3,79853.5
step02_gravity_refstate-crust.xmf,602,9.18604e-06,-1.20765e-05,0,4.91104e-07,-1.03451e+09,-1.03597e+09,-1.03514e+09,33689.7,-0.00111156,0.230188,-0,0.23019,-121.331,-37680.8,-0,37681,33689.7
step02_gravity_refstate-crust.xmf,603,2.70953e-07,1.16814e-06,0,1.42436e-06,-4.95631e+08,-4.9557e+08,-4.9565e+08,97711.3,-0.00995033,0.161322,-0,0.161629,-12346.6,-18046.9,-0,21866.1,97711.3
step02_gravity_refstate-crust.xmf,604,2.2844e-08,5.31729e-07,0,6.51011e-07,-1.71721e+08,-1.71686e+08,-1.71722e+08,44659.3,-0.00972009,0.159679,-0,0.159975,-18503.8,-6252.58,-0,19531.6,44659.3
step02_gravity_refstate-crust.xmf,605,2.58083e-08,1.01635e-06,0,1.04389e-06,-3.27651e+08,-3.27583e+08,-3.27653e+08,71611,-0.00871589,0.157877,-0,0.158118,-17117.8,-11930.2,-0,20865,71611
step02_gravity_refstate-crust.xmf,606,6.03349e-08,8.12021e-07,0,9.07377e-07,-2.68255e+08,-2.68203e+08,-2.68259e+08,62246.1,-0.00870849,0.159869,-0,0.160106,-17107.3,-9767.59,-0,19699.4,62246.1
step02_gravity_refstate-crust.xmf,607,6.36425e-07,9.79446e-07,0,1.85414e-06,-6.4479e+08,-6.44766e+08,-6.44833e+08,127194,-0.0119423,0.163823,-0,0.164258,-9084.8,-23478.3,-0,25174.7,127194
step02_gravity_refstate-crust.xmf,608,1.25417e-05,-1.93535e-05,0,-2.15992e-06,-1.08577e+09,-1.08796e+09,-1.08663e+09,-148171,0.00391618,0.25844,0,0.25847,311.9,-39549.3,0,39550.5,148171
step02_gravity_refstate-crust.xmf,609,1.12124e-06,4.21285e-07,0,2.09533e-06,-7.22394e+08,-7.22442e+08,-7.22471e+08,143739,-0.0123312,0.168793,-0,0.169243,-6824.39,-26304.7,-0,27175.5,143739
step02_gravity_refstate-crust.xmf,610,1.59756e-06,-1.81473e-07,0,2.57127e-06,-8.03298e+08,-8.0342e+08,-8.03408e+08,176389,-0.0135697,0.172888,-0,0.17342,-5576.55,-29251.1,-0,29777.9,176389
step02_gravity_refstate-crust.xmf,611,1.99282e-06,-7.12488e-07,0,2.48033e-06,-8.18074e+08,-8.1826e+08,-8.18211e+08,170150,-0.0124839,0.17686,-0,0.1773,-4636.6,-29789.8,-0,30148.4,170150
step02_gravity_refstate-crust.xmf,612,3.65961e-06,-3.13326e-06,0,2.86094e-06,-9.13439e+08,-9.13905e+08,-9.1369e+08,196261,-0.0111731,0.191422,-0,0.191748,-2617.76,-33264.6,-0,33367.4,196261
step02_gravity_refstate-crust.xmf,613,2.96822e-06,-2.09044e-06,0,2.59529e-06,-8.75332e+08,-8.75679e+08,-8.75535e+08,178037,-0.0112887,0.185491,-0,0.185834,-3171.7,-31876.1,-0,32033.5,178037
step02_gravity_refstate-crust.xmf,614,4.85107e-06,-5.13381e-06,0,3.75811e-06,-9.69397e+08,-9.70082e+08,-9.6973e+08,257806,-0.0120789,0.202134,-0,0.202494,-2130.25,-35303.6,-0,35367.8,257806
step02_gravity_refstate-crust.xmf,615,5.75038e-06,-6.38251e-06,0,3.20796e-06,-9.81504e+08,-9.82336e+08,-9.81898e+08,220066,-0.00969701,0.207852,-0,0.208078,-1548.19,-35746,-0,35779.5,220066
step02_gravity_refstate-crust.xmf,616,7.51684e-06,-9.06149e-06,0,1.3727e-06,-1.00612e+09,-1.00726e+09,-1.00664e+09,94167.1,-0.00361465,0.218828,-0,0.218858,-478.222,-36645.3,-0,36648.4,94167.1
step02_gravity_refstate-crust.xmf,617,6.64526e-06,-7.70653e-06,0,2.5092e-06,-9.93915e+08,-9.949e+08,-9.94371e+08,172131,-0.00709217,0.213387,-0,0.213505,-1028.59,-36199.4,-0,36214,172131
step02_gravity_refstate-crust.xmf,618,8.23094e-06,-1.0363e-05,0,2.81278e-08,-1.01786e+09,-1.01914e+09,-1.01843e+09,1929.57,-7.03189e-05,0.223513,-0,0.223513,-8.41606,-37073.6,-0,37073.6,1929.57
step02_gravity_refstate-crust.xmf,619,1.09299e-05,-1.5208e-05,0,-1.40604e-06,-1.06066e+09,-1.06246e+09,-1.06141e+09,-96454.3,0.00263576,0.242923,0,0.242937,241.514,-38635.2,0,38635.9,96454.3
step02_gravity_refstate-crust.xmf,620,3.43882e-07,1.20978e-06,0,1.59802e-06,-5.5793e+08,-5.5787e+08,-5.57953e+08,109624,-0.0108932,0.161026,-0,0.161394,-11371.6,-20315.3,-0,23281.4,109624
step02_gravity_refstate-crust.xmf,621,3.68766e-07,1.09146e-06,0,1.45615e-06,-5.16067e+08,-5.16018e+08,-5.16093e+08,99891.9,-0.00999083,0.163023,-0,0.163329,-11271.4,-18791.1,-0,21912.3,99891.9
step02_gravity_refstate-crust.xmf,622,3.63724e-07,9.96456e-07,0,1.31732e-06,-4.67718e+08,-4.67675e+08,-4.67743e+08,90368.3,-0.00916563,0.164571,-0,0.164826,-11397.5,-17030.8,-0,20492.7,90368.3
step02_gravity_refstate-crust.xmf,623,9.85552e-08,6.14447e-07,0,7.63173e-07,-2.10838e+08,-2.10803e+08,-2.10845e+08,52353.7,-0.00908075,0.161627,-0,0.161882,-16960.9,-7677.13,-0,18617.5,52353.7
step02_gravity_refstate-crust.xmf,624,1.10681e-07,3.1561e-07,0,4.82801e-07,-1.16091e+08,-1.16077e+08,-1.16099e+08,33120.2,-0.0108825,0.162281,-0,0.162646,-17502.3,-4227.35,-0,18005.6,33120.2
step02_gravity_refstate-crust.xmf,625,3.76483e-08,1.71959e-07,0,2.75776e-07,-6.04732e+07,-6.0464e+07,-6.04758e+07,18918.2,-0.0128399,0.160797,-0,0.161309,-18684.5,-2202.01,-0,18813.8,18918.2
step02_gravity_refstate-crust.xmf,626,-7.88253e-08,3.00094e-08,0,4.906e-09,-7483.65,-17.5974,-2076.24,336.552,-0.0157382,0.159039,-0,0.159815,-19919.3,0,-0,19919.3,336.552
step02_gravity_refstate-crust.xmf,627,1.26448e-07,1.00388e-06,0,1.11571e-06,-3.57664e+08,-3.57604e+08,-3.57673e+08,76537.4,-0.00871916,0.160753,-0,0.16099,-15146.6,-13023.2,-0,19975.6,76537.4
step02_gravity_refstate-crust.xmf,628,2.41464e-07,9.60156e-07,0,1.16437e-06,-3.88428e+08,-3.88379e+08,-3.88445e+08,79875.8,-0.00863587,0.16358,-0,0.163808,-13220.2,-14143.6,-0,19360.2,79875.8
step02_gravity_refstate-crust.xmf,629,4.86521e-07,1.06924e-06,0,1.64076e-06,-5.82305e+08,-5.82265e+08,-5.82338e+08,112556,-0.0109508,0.163163,-0,0.16353,-10165.6,-21203,-0,23514,112556
step02_gravity_refstate-crust.xmf,630,6.52532e-07,8.94883e-07,0,1.6655e-06,-6.06024e+08,-6.06007e+08,-6.06068e+08,114253,-0.0108559,0.165447,-0,0.165802,-8976.07,-22066.9,-0,23822.7,114253
step02_gravity_refstate-crust.xmf,631,8.42576e-07,7.36309e-07,0,1.87666e-06,-6.66637e+08,-6.66644e+08,-6.66695e+08,128739,-0.0117241,0.166484,-0,0.166896,-7952.49,-24274.1,-0,25543.6,128739
step02_gravity_refstate-crust.xmf,632,1.28861e-05,-2.12324e-05,0,-3.71009e-06,-1.09819e+09,-1.10053e+09,-1.09907e+09,-254512,0.00649809,0.266531,0,0.26661,499.831,-40000,0,40003.1,254512
step02_gravity_refstate-crust.xmf,633,1.12002e-05,-1.61453e-05,0,-4.27499e-06,-1.07173e+09,-1.0736e+09,-1.0725e+09,-293264,0.00782987,0.24731,0,0.247434,678.676,-39037.7,0,39043.6,293264
step02_gravity_refstate-crust.xmf,634,1.08582e-06,4.44916e-07,0,1.85919e-06,-6.87385e+08,-6.87429e+08,-6.8746e+08,127540,-0.0112549,0.169327,-0,0.169701,-6830.9,-25030,-0,25945.4,127540
step02_gravity_refstate-crust.xmf,635,1.52661e-06,-8.18287e-08,0,2.28108e-06,-7.72786e+08,-7.72897e+08,-7.72891e+08,156482,-0.0124949,0.172541,-0,0.172993,-5629.24,-28140.1,-0,28697.6,156482
step02_gravity_refstate-crust.xmf,636,1.44234e-06,9.64634e-09,0,2.02642e-06,-7.40633e+08,-7.40731e+08,-7.40732e+08,139012,-0.0114497,0.172372,-0,0.172752,-5667.82,-26969.3,-0,27558.5,139012
step02_gravity_refstate-crust.xmf,637,4.56027e-06,-4.56958e-06,0,3.08349e-06,-9.48561e+08,-9.49187e+08,-9.48874e+08,211527,-0.0105817,0.198879,-0,0.199161,-2053.76,-34544.7,-0,34605.7,211527
step02_gravity_refstate-crust.xmf,638,2.40046e-06,-1.26242e-06,0,2.35572e-06,-8.34071e+08,-8.34322e+08,-8.34235e+08,161603,-0.0112916,0.180584,-0,0.180937,-3802.19,-30372.9,-0,30610,161603
step02_gravity_refstate-crust.xmf,639,4.2571e-06,-4.02367e-06,0,2.51875e-06,-9.26882e+08,-9.2745e+08,-9.27174e+08,172786,-0.00920773,0.195887,-0,0.196103,-1966.7,-33755.1,-0,33812.3,172786
step02_gravity_refstate-crust.xmf,640,3.44456e-06,-2.75347e-06,0,2.3785e-06,-8.89915e+08,-8.9034e+08,-8.90151e+08,163165,-0.00982142,0.189287,-0,0.189541,-2522.44,-32407.9,-0,32505.9,163165
step02_gravity_refstate-crust.xmf,641,2.80753e-06,-1.81622e-06,0,2.1762e-06,-8.49302e+08,-8.49619e+08,-8.49494e+08,149287,-0.00995358,0.184037,-0,0.184306,-3063.8,-30928.2,-0,31079.6,149287
step02_gravity_refstate-crust.xmf,642,7.47312e-06,-9.01107e-06,0,-3.34732e-07,-1.0034e+09,-1.00453e+09,-1.00391e+09,-22962.6,0.00086317,0.218411,0,0.218413,116.103,-36546,0,36546.2,22962.6
step02_gravity_refstate-crust.xmf,643,9.75736e-06,-1.32013e-05,0,-1.61599e-06,-1.04497e+09,-1.04655e+09,-1.04564e+09,-110857,0.00341355,0.23458,0,0.234605,348.443,-38062.3,0,38063.9,110857
step02_gravity_refstate-crust.xmf,644,8.65543e-06,-1.1207e-05,0,-1.75991e-06,-1.02848e+09,-1.02984e+09,-1.02907e+09,-120730,0.00406714,0.227036,0,0.227072,465.538,-37460.5,0,37463.4,120730
step02_gravity_refstate-crust.xmf,645,7.70748e-06,-9.55587e-06,0,-1.7926e-06,-1.01183e+09,-1.01302e+09,-1.01236e+09,-122972,0.00452086,0.220509,0,0.220555,578.529,-36853.2,0,36857.7,122972
step02_gravity_refstate-crust.xmf,646,3.59666e-07,8.95717e-07,0,1.18615e-06,-4.17128e+08,-4.17091e+08,-4.17153e+08,81370,-0.0084619,0.166066,-0,0.166282,-11513.7,-15188.8,-0,19059.5,81370
step02_gravity_refstate-crust.xmf,647,1.46084e-07,4.37418e-07,0,6.2212e-07,-1.61037e+08,-1.61017e+08,-1.61047e+08,42677.5,-0.00975058,0.163185,-0,0.163477,-16620.2,-5863.99,-0,17624.3,42677.5
step02_gravity_refstate-crust.xmf,648,1.52272e-07,8.27447e-07,0,9.81697e-07,-3.00204e+08,-3.00158e+08,-3.00215e+08,67344.4,-0.00848402,0.162504,-0,0.162725,-15228.5,-10931.1,-0,18745.6,67344.4
step02_gravity_refstate-crust.xmf,649,1.85913e-07,6.41328e-07,0,8.3549e-07,-2.40643e+08,-2.40612e+08,-2.40656e+08,57314.6,-0.00859167,0.164148,-0,0.164373,-15199.3,-8762.59,-0,17544.3,57314.6
step02_gravity_refstate-crust.xmf,650,8.3385e-07,6.9788e-07,0,1.67919e-06,-6.30121e+08,-6.3013e+08,-6.30178e+08,115192,-0.0106551,0.167664,-0,0.168002,-7870.21,-22944.6,-0,24256.9,115192
step02_gravity_refstate-crust.xmf,651,1.19037e-05,-1.8325e-05,0,-5.67815e-06,-1.08633e+09,-1.0884e+09,-1.08714e+09,-389521,0.0100955,0.255275,0,0.255474,816.443,-39568.6,0,39577,389521
step02_gravity_refstate-crust.xmf,652,1.36018e-06,9.6501e-08,0,1.79643e-06,-7.07351e+08,-7.07438e+08,-7.07444e+08,123235,-0.0104589,0.172367,-0,0.172684,-5693.34,-25757.5,-0,26379.2,123235
step02_gravity_refstate-crust.xmf,653,1.87328e-06,-5.37386e-07,0,2.19846e-06,-7.89654e+08,-7.89819e+08,-7.89782e+08,150814,-0.0115226,0.176007,-0,0.176384,-4693.24,-28754.9,-0,29135.4,150814
step02_gravity_refstate-crust.xmf,654,2.25181e-06,-1.03755e-06,0,2.04021e-06,-8.06077e+08,-8.06303e+08,-8.06231e+08,139959,-0.0102245,0.17949,-0,0.17978,-3779.42,-29353.5,-0,29595.9,139959
step02_gravity_refstate-crust.xmf,655,3.96274e-06,-3.47878e-06,0,2.03794e-06,-9.04529e+08,-9.0504e+08,-9.04801e+08,139802,-0.00797953,0.19317,-0,0.193335,-1874.11,-32940.9,-0,32994.2,139802
step02_gravity_refstate-crust.xmf,656,3.21969e-06,-2.3861e-06,0,1.96609e-06,-8.65242e+08,-8.65626e+08,-8.65463e+08,134874,-0.00856355,0.18734,-0,0.187536,-2414.03,-31509.3,-0,31601.7,134874
step02_gravity_refstate-crust.xmf,657,5.31485e-06,-5.67324e-06,0,2.52314e-06,-9.61199e+08,-9.61952e+08,-9.61563e+08,173087,-0.00810311,0.203931,-0,0.204092,-1430.91,-35006.1,-0,35035.3,173087
step02_gravity_refstate-crust.xmf,658,6.0811e-06,-6.70875e-06,0,1.66386e-06,-9.73681e+08,-9.74559e+08,-9.74098e+08,114141,-0.00511104,0.208731,-0,0.208794,-825.204,-35462.1,-0,35471.7,114141
step02_gravity_refstate-crust.xmf,659,6.78169e-06,-7.80846e-06,0,3.44619e-07,-9.87433e+08,-9.88434e+08,-9.87898e+08,23640.8,-0.00109971,0.21349,-0,0.213493,-162.213,-35963.8,-0,35964.2,23640.8
step02_gravity_refstate-crust.xmf,660,6.87158e-06,-8.06138e-06,0,-1.66136e-06,-9.93764e+08,-9.94788e+08,-9.94235e+08,-113970,0.00454214,0.214572,0,0.21462,650.837,-36194.3,0,36200.1,113970
step02_gravity_refstate-crust.xmf,661,9.88755e-06,-1.35227e-05,0,-4.10538e-06,-1.05533e+09,-1.05694e+09,-1.05601e+09,-281629,0.00822721,0.237609,0,0.237751,797.181,-38439.4,0,38447.7,281629
step02_gravity_refstate-crust.xmf,662,4.96535e-07,9.79738e-07,0,1.48393e-06,-5.40508e+08,-5.40475e+08,-5.40542e+08,101797,-0.00997428,0.164937,-0,0.165239,-10078.8,-19681.3,-0,22111.8,101797
step02_gravity_refstate-crust.xmf,663,5.00567e-07,8.87048e-07,0,1.32884e-06,-4.95313e+08,-4.95286e+08,-4.95347e+08,91158.7,-0.0090282,0.166732,-0,0.166976,-9963,-18035.7,-0,20604.6,91158.7
step02_gravity_refstate-crust.xmf,664,4.89371e-07,8.08865e-07,0,1.19153e-06,-4.48291e+08,-4.48269e+08,-4.48324e+08,81738.9,-0.00823916,0.16821,-0,0.168412,-9948.87,-16323.7,-0,19116.6,81738.9
step02_gravity_refstate-crust.xmf,665,2.29608e-07,4.58071e-07,0,6.82318e-07,-1.83828e+08,-1.83813e+08,-1.83844e+08,46807,-0.00909265,0.165552,-0,0.165802,-15048.3,-6694.1,-0,16470,46807
step02_gravity_refstate-crust.xmf,666,2.77655e-07,2.52051e-07,0,4.91324e-07,-1.19929e+08,-1.1993e+08,-1.19948e+08,33704.8,-0.0102947,0.166443,-0,0.166761,-15011,-4367.64,-0,15633.5,33704.8
step02_gravity_refstate-crust.xmf,667,2.43068e-07,8.68282e-08,0,2.71992e-07,-5.91067e+07,-5.91174e+07,-5.91234e+07,18658.6,-0.0125402,0.164921,-0,0.165397,-16169.8,-2152.96,-0,16312.5,18658.6
step02_gravity_refstate-crust.xmf,668,1.77855e-07,-6.70693e-08,0,5.77995e-09,16912.8,110.996,4711.95,396.504,-0.0156204,0.163106,-0,0.163852,-17321.5,0,-0,17321.5,396.504
step02_gravity_refstate-crust.xmf,669,2.5834e-07,8.05184e-07,0,1.02443e-06,-3.29833e+08,-3.29795e+08,-3.29851e+08,70275.8,-0.00818695,0.165347,-0,0.16555,-13279.3,-12010.2,-0,17904.9,70275.8
step02_gravity_refstate-crust.xmf,670,3.85896e-07,7.49057e-07,0,1.03063e-06,-3.61214e+08,-3.6119e+08,-3.61241e+08,70701,-0.00774233,0.168323,-0,0.168501,-11206.8,-13153.1,-0,17279.9,70701
step02_gravity_refstate-crust.xmf,671,4.81984e-07,7.28746e-07,0,1.06687e-06,-4.01779e+08,-4.01762e+08,-4.01812e+08,73187.1,-0.00759185,0.169607,-0,0.169776,-9897.71,-14630.3,-0,17663.8,73187.1
step02_gravity_refstate-crust.xmf,672,6.59147e-07,8.16176e-07,0,1.48398e-06,-5.64676e+08,-5.64666e+08,-5.64722e+08,101801,-0.00976469,0.167174,-0,0.167459,-8800.4,-20561.5,-0,22365.7,101801
step02_gravity_refstate-crust.xmf,673,8.27359e-07,6.4588e-07,0,1.48787e-06,-5.92104e+08,-5.92117e+08,-5.92161e+08,102068,-0.00956837,0.169046,-0,0.169317,-7688.27,-21560.5,-0,22890.3,102068
step02_gravity_refstate-crust.xmf,674,1.04291e-06,4.54413e-07,0,1.65817e-06,-6.52401e+08,-6.52441e+08,-6.52472e+08,113750,-0.0102241,0.170038,-0,0.170345,-6781.07,-23756.2,-0,24705.1,113750
step02_gravity_refstate-crust.xmf,675,9.98439e-07,4.64461e-07,0,1.47646e-06,-6.16943e+08,-6.16979e+08,-6.17011e+08,101285,-0.00926661,0.170797,-0,0.171048,-6713.93,-22465.2,-0,23447,101285
step02_gravity_refstate-crust.xmf,676,1.20854e-05,-1.97394e-05,0,-7.44609e-06,-1.09822e+09,-1.1004e+09,-1.09905e+09,-510802,0.0127266,0.261236,0,0.261546,999.317,-40000,0,40012.5,510802
step02_gravity_refstate-crust.xmf,677,1.05113e-05,-1.5564e-05,0,-7.09668e-06,-1.07699e+09,-1.07878e+09,-1.07771e+09,-486832,0.0129157,0.24617,0,0.246509,1117.49,-39227.3,0,39243.2,486832
step02_gravity_refstate-crust.xmf,678,9.43376e-06,-1.32661e-05,0,-6.76988e-06,-1.06513e+09,-1.06669e+09,-1.06578e+09,-464414,0.0131254,0.238605,0,0.238966,1233.2,-38794.9,0,38814.5,464414
step02_gravity_refstate-crust.xmf,679,1.2835e-06,1.74815e-07,0,1.58294e-06,-6.72862e+08,-6.72938e+08,-6.7295e+08,108590,-0.00949346,0.172567,-0,0.172828,-5683.42,-24501.7,-0,25152.2,108590
step02_gravity_refstate-crust.xmf,680,1.7661e-06,-3.93979e-07,0,1.9222e-06,-7.58937e+08,-7.59085e+08,-7.59058e+08,131863,-0.0104631,0.17553,-0,0.175841,-4679.66,-27636.4,-0,28029.8,131863
step02_gravity_refstate-crust.xmf,681,1.65053e-06,-2.68682e-07,0,1.67951e-06,-7.26302e+08,-7.26434e+08,-7.26416e+08,115214,-0.0094243,0.175248,-0,0.175501,-4641.16,-26448,-0,26852.2,115214
step02_gravity_refstate-crust.xmf,682,4.8868e-06,-4.93764e-06,0,1.96587e-06,-9.39952e+08,-9.40626e+08,-9.40287e+08,134859,-0.00677041,0.200232,-0,0.200347,-1323.82,-34232,-0,34257.6,134859
step02_gravity_refstate-crust.xmf,683,2.6299e-06,-1.54132e-06,0,1.82292e-06,-8.22012e+08,-8.22298e+08,-8.22192e+08,125053,-0.00874741,0.182698,-0,0.182908,-2956.78,-29934.4,-0,30080.1,125053
step02_gravity_refstate-crust.xmf,684,4.47649e-06,-4.26339e-06,0,1.54044e-06,-9.18164e+08,-9.18764e+08,-9.18471e+08,105674,-0.00566666,0.196883,-0,0.196965,-1224.68,-33438.2,-0,33460.6,105674
step02_gravity_refstate-crust.xmf,685,3.65487e-06,-2.99003e-06,0,1.65637e-06,-8.80771e+08,-8.81227e+08,-8.81022e+08,113627,-0.0068737,0.19064,-0,0.190764,-1779.04,-32075.5,-0,32124.8,113627
step02_gravity_refstate-crust.xmf,686,2.993e-06,-2.03437e-06,0,1.56149e-06,-8.37517e+08,-8.37861e+08,-8.37722e+08,107118,-0.00717743,0.185594,-0,0.185732,-2234.8,-30499.6,-0,30581.4,107118
step02_gravity_refstate-crust.xmf,687,8.72553e-06,-1.16182e-05,0,-3.83571e-06,-1.03922e+09,-1.04061e+09,-1.03982e+09,-263129,0.0084975,0.229463,0,0.22962,923.544,-37851.1,0,37862.4,263129
step02_gravity_refstate-crust.xmf,688,7.7122e-06,-9.80469e-06,0,-3.56137e-06,-1.02257e+09,-1.02377e+09,-1.0231e+09,-244310,0.00865611,0.222287,0,0.222455,1056.32,-37243.6,0,37258.6,244310
step02_gravity_refstate-crust.xmf,689,6.86735e-06,-8.32696e-06,0,-3.22327e-06,-1.00523e+09,-1.00628e+09,-1.0057e+09,-221116,0.00856017,0.216042,0,0.216211,1169.5,-36611.4,0,36630.1,221116
step02_gravity_refstate-crust.xmf,690,2.79232e-07,6.48296e-07,0,8.85326e-07,-2.71412e+08,-2.71387e+08,-2.71431e+08,60733.3,-0.00806612,0.166772,-0,0.166967,-13344.9,-9883.16,-0,16606.2,60733.3
step02_gravity_refstate-crust.xmf,691,3.1523e-07,4.81332e-07,0,7.37734e-07,-2.13106e+08,-2.13094e+08,-2.13127e+08,50608.6,-0.00829756,0.168074,-0,0.168279,-13286.3,-7760.34,-0,15386.6,50608.6
step02_gravity_refstate-crust.xmf,692,5.06061e-07,6.35842e-07,0,9.52706e-07,-3.67428e+08,-3.67419e+08,-3.67463e+08,65355.6,-0.00700232,0.171277,-0,0.17142,-9425.29,-13379.6,-0,16366.1,65355.6
step02_gravity_refstate-crust.xmf,693,9.59444e-07,4.62524e-07,0,1.31305e-06,-5.82427e+08,-5.82462e+08,-5.82493e+08,90075.4,-0.00837024,0.171662,-0,0.171866,-6585.3,-21208.5,-0,22207.3,90075.4
step02_gravity_refstate-crust.xmf,694,1.06122e-05,-1.61405e-05,0,-9.06875e-06,-1.0874e+09,-1.08924e+09,-1.08813e+09,-622116,0.0156288,0.249581,0,0.25007,1302.08,-39605.9,0,39627.3,622116
step02_gravity_refstate-crust.xmf,695,8.38959e-06,-1.23979e-05,0,-9.75957e-06,-1.07649e+09,-1.07792e+09,-1.07707e+09,-669507,0.0179215,0.238252,0,0.238926,1649.85,-39205.6,0,39240.3,669507
step02_gravity_refstate-crust.xmf,696,1.54183e-06,-1.50814e-07,0,1.46099e-06,-6.92844e+08,-6.9296e+08,-6.9295e+08,100224,-0.00845183,0.175145,-0,0.175349,-4581.69,-25229.7,-0,25642.3,100224
step02_gravity_refstate-crust.xmf,697,2.09696e-06,-8.21628e-07,0,1.77136e-06,-7.76744e+08,-7.76944e+08,-7.76888e+08,121515,-0.00925661,0.178542,-0,0.178782,-3764.14,-28285.3,-0,28534.7,121515
step02_gravity_refstate-crust.xmf,698,2.44546e-06,-1.27624e-06,0,1.53356e-06,-7.93892e+08,-7.94147e+08,-7.9406e+08,105202,-0.00769707,0.181507,-0,0.18167,-2859.2,-28910.4,-0,29051.4,105202
step02_gravity_refstate-crust.xmf,699,4.09405e-06,-3.60522e-06,0,1.18192e-06,-8.95239e+08,-8.95767e+08,-8.9552e+08,81079.8,-0.00469362,0.19383,-0,0.193887,-1121.55,-32603,-0,32622.3,81079.8
step02_gravity_refstate-crust.xmf,700,3.37118e-06,-2.56523e-06,0,1.34906e-06,-8.56587e+08,-8.56995e+08,-8.56819e+08,92545.6,-0.00589168,0.188434,-0,0.188526,-1676.43,-31194.6,-0,31239.6,92545.6
step02_gravity_refstate-crust.xmf,701,5.49418e-06,-5.84169e-06,0,1.18869e-06,-9.52873e+08,-9.5365e+08,-9.5325e+08,81543.9,-0.00386569,0.204283,-0,0.204319,-695.519,-34703.5,-0,34710.4,81543.9
step02_gravity_refstate-crust.xmf,702,6.00913e-06,-6.5346e-06,0,1.25408e-07,-9.6549e+08,-9.66351e+08,-9.65903e+08,8603.01,-0.0004811,0.207779,-0,0.20778,-80.276,-35163.8,-0,35163.9,8603.01
step02_gravity_refstate-crust.xmf,703,6.27072e-06,-6.99688e-06,0,-1.12521e-06,-9.75989e+08,-9.76899e+08,-9.76419e+08,-77189.2,0.0032557,0.209976,0,0.210001,514.884,-35546.4,0,35550.1,77189.2
step02_gravity_refstate-crust.xmf,704,6.1571e-06,-7.03037e-06,0,-2.88228e-06,-9.8723e+08,-9.88135e+08,-9.87653e+08,-197725,0.0082896,0.210606,0,0.210769,1263.07,-35955.1,0,35977.3,197725
step02_gravity_refstate-crust.xmf,705,8.29196e-06,-1.11594e-05,0,-6.11468e-06,-1.04992e+09,-1.05125e+09,-1.05049e+09,-419467,0.0130613,0.230371,0,0.230741,1370.19,-38239.6,0,38264.1,419467
step02_gravity_refstate-crust.xmf,706,6.53845e-07,7.47247e-07,0,1.31643e-06,-5.21937e+08,-5.21931e+08,-5.21982e+08,90307.3,-0.00874248,0.168848,-0,0.169074,-8594.54,-19005.4,-0,20858.4,90307.3
step02_gravity_refstate-crust.xmf,707,6.31014e-07,6.92117e-07,0,1.16753e-06,-4.76534e+08,-4.7653e+08,-4.76577e+08,80092.8,-0.00787013,0.170243,-0,0.170424,-8491.83,-17352.3,-0,19318.7,80092.8
step02_gravity_refstate-crust.xmf,708,6.06608e-07,6.4004e-07,0,1.04078e-06,-4.32171e+08,-4.32169e+08,-4.32213e+08,71397.8,-0.00717048,0.171457,-0,0.171607,-8416.55,-15737.1,-0,17846.4,71397.8
step02_gravity_refstate-crust.xmf,709,3.67902e-07,3.06554e-07,0,5.77855e-07,-1.55722e+08,-1.55726e+08,-1.55747e+08,39640.9,-0.00894821,0.169129,-0,0.169366,-13145.9,-5671.17,-0,14317,39640.9
step02_gravity_refstate-crust.xmf,710,4.44177e-07,3.54735e-09,0,2.56777e-07,-5.78968e+07,-5.79271e+07,-5.79273e+07,17614.9,-0.0117386,0.168822,-0,0.16923,-13701.5,-2109.59,-0,13862.9,17614.9
step02_gravity_refstate-crust.xmf,711,4.33494e-07,-1.63776e-07,0,6.325e-09,41209.3,236.58,11471.6,433.895,-0.0148508,0.167035,-0,0.167693,-14769.1,0,-0,14769.1,433.895
step02_gravity_refstate-crust.xmf,712,3.81896e-07,6.25219e-07,0,8.99627e-07,-3.0074e+08,-3.00723e+08,-3.00766e+08,61714.4,-0.00747253,0.16943,-0,0.169595,-11437.7,-10951.2,-0,15835.1,61714.4
step02_gravity_refstate-crust.xmf,713,5.79179e-07,6.03004e-07,0,9.52909e-07,-3.93858e+08,-3.93856e+08,-3.93898e+08,65369.6,-0.00675509,0.172212,-0,0.172344,-8486.92,-14342.1,-0,16665,65369.6
step02_gravity_refstate-crust.xmf,714,4.88375e-07,5.7856e-07,0,8.71321e-07,-3.26046e+08,-3.2604e+08,-3.2608e+08,59772.6,-0.00679588,0.171872,-0,0.172006,-9622.19,-11872.9,-0,15282.4,59772.6
step02_gravity_refstate-crust.xmf,715,8.43846e-07,5.64181e-07,0,1.26661e-06,-5.50332e+08,-5.50351e+08,-5.5039e+08,86889.5,-0.0082367,0.171092,-0,0.17129,-7166.58,-20039.7,-0,21282.6,86889.5
step02_gravity_refstate-crust.xmf,716,1.20148e-06,2.2986e-07,0,1.4051e-06,-6.37953e+08,-6.38019e+08,-6.38035e+08,96389.6,-0.00859092,0.172911,-0,0.173124,-5647.59,-23230.5,-0,23907.2,96389.6
step02_gravity_refstate-crust.xmf,717,1.11691e-06,2.89558e-07,0,1.25324e-06,-6.02262e+08,-6.02319e+08,-6.02338e+08,85972.2,-0.00781682,0.173247,-0,0.173424,-5651.93,-21930.9,-0,22647.5,85972.2
step02_gravity_refstate-crust.xmf,718,1.05323e-05,-1.6771e-05,0,-1.12548e-05,-1.09826e+09,-1.10014e+09,-1.09899e+09,-772082,0.0183816,0.252426,0,0.253094,1499.28,-40000,0,40028.1,772082
step02_gravity_refstate-crust.xmf,719,7.31704e-06,-1.01842e-05,0,-8.336e-06,-1.06067e+09,-1.06187e+09,-1.06117e+09,-571849,0.0173955,0.229621,0,0.230279,1792.79,-38628.5,0,38670.1,571849
step02_gravity_refstate-crust.xmf,720,1.43385e-06,-3.1913e-08,0,1.27086e-06,-6.58384e+08,-6.58485e+08,-6.58482e+08,87180.9,-0.00758694,0.175137,-0,0.175301,-4533.26,-23974.9,-0,24399.7,87180.9
step02_gravity_refstate-crust.xmf,721,1.95632e-06,-6.40054e-07,0,1.50737e-06,-7.4543e+08,-7.45608e+08,-7.45564e+08,103405,-0.00818787,0.177958,-0,0.178146,-3665.08,-27145,-0,27391.3,103405
step02_gravity_refstate-crust.xmf,722,1.80863e-06,-4.80588e-07,0,1.28797e-06,-7.12621e+08,-7.12778e+08,-7.12745e+08,88355,-0.007207,0.17752,-0,0.177666,-3559.35,-25950.2,-0,26193.2,88355
step02_gravity_refstate-crust.xmf,723,4.97395e-06,-4.99769e-06,0,8.18972e-07,-9.31601e+08,-9.32285e+08,-9.31942e+08,56181.5,-0.00286349,0.200322,-0,0.200342,-572.243,-33928.2,-0,33933.1,56181.5
step02_gravity_refstate-crust.xmf,724,2.78712e-06,-1.72618e-06,0,1.23015e-06,-8.10764e+08,-8.11073e+08,-8.10955e+08,84388.6,-0.00593896,0.184203,-0,0.184299,-2028.02,-29525.3,-0,29594.8,84388.6
step02_gravity_refstate-crust.xmf,725,4.49801e-06,-4.2478e-06,0,5.67452e-07,-9.09477e+08,-9.10077e+08,-9.09786e+08,38927.2,-0.00212109,0.196748,-0,0.196759,-470.218,-33122.1,-0,33125.4,38927.2
step02_gravity_refstate-crust.xmf,726,3.74573e-06,-3.0781e-06,0,9.18263e-07,-8.72238e+08,-8.72706e+08,-8.72495e+08,62992.9,-0.00385524,0.191203,-0,0.191242,-1014.04,-31765.1,-0,31781.3,62992.9
step02_gravity_refstate-crust.xmf,727,3.15157e-06,-2.26269e-06,0,8.23842e-07,-8.30156e+08,-8.30528e+08,-8.30372e+08,56515.6,-0.00377246,0.18695,-0,0.186988,-1176.88,-30231.9,-0,30254.8,56515.6
step02_gravity_refstate-crust.xmf,728,7.34456e-06,-9.59056e-06,0,-5.4688e-06,-1.03381e+09,-1.03497e+09,-1.03431e+09,-375160,0.012881,0.222963,0,0.223334,1515.82,-37651.8,0,37682.3,375160
step02_gravity_refstate-crust.xmf,729,6.5342e-06,-8.10213e-06,0,-4.86224e-06,-1.01674e+09,-1.01774e+09,-1.01718e+09,-333550,0.0125728,0.216364,0,0.216729,1659.9,-37029.2,0,37066.4,333550
step02_gravity_refstate-crust.xmf,730,5.87687e-06,-6.91292e-06,0,-4.31227e-06,-9.99279e+08,-1.00016e+09,-9.99682e+08,-295822,0.0121333,0.210743,0,0.211092,1786.42,-36392.8,0,36436.6,295822
step02_gravity_refstate-crust.xmf,731,4.42423e-07,1.37035e-07,0,4.15402e-07,-1.05033e+08,-1.05054e+08,-1.05064e+08,28496.6,-0.00988487,0.170028,-0,0.170315,-12834.7,-3825.85,-0,13392.8,28496.6
step02_gravity_refstate-crust.xmf,732,4.01857e-07,4.89276e-07,0,7.66069e-07,-2.43516e+08,-2.4351e+08,-2.43544e+08,52552.4,-0.00748003,0.170538,-0,0.170702,-11471.9,-8867.83,-0,14499.7,52552.4
step02_gravity_refstate-crust.xmf,733,4.45935e-07,3.33534e-07,0,6.20039e-07,-1.8557e+08,-1.85578e+08,-1.856e+08,42534.7,-0.0078238,0.17156,-0,0.171738,-11375.3,-6758.18,-0,13231.4,42534.7
step02_gravity_refstate-crust.xmf,734,5.95138e-07,5.20647e-07,0,8.19096e-07,-3.54242e+08,-3.54247e+08,-3.54283e+08,56190,-0.00605898,0.173895,-0,0.174001,-7912.87,-12899.7,-0,15133.3,56190
step02_gravity_refstate-crust.xmf,735,1.01877e-06,3.56288e-07,0,1.12968e-06,-5.63215e+08,-5.6326e+08,-5.63285e+08,77496.1,-0.0071769,0.173516,-0,0.173664,-5760.9,-20509.1,-0,21302.8,77496.1
step02_gravity_refstate-crust.xmf,736,8.59188e-06,-1.32518e-05,0,-1.18207e-05,-1.08917e+09,-1.09067e+09,-1.08976e+09,-810897,0.0198876,0.242619,0,0.243433,1730.92,-39666.7,0,39704.5,810897
step02_gravity_refstate-crust.xmf,737,5.80275e-06,-8.45667e-06,0,-1.02111e-05,-1.07091e+09,-1.07189e+09,-1.07131e+09,-700481,0.0211617,0.226884,0,0.227869,2194.49,-38998.1,0,39059.8,700481
step02_gravity_refstate-crust.xmf,738,1.66742e-06,-3.24288e-07,0,1.09699e-06,-6.78693e+08,-6.7883e+08,-6.78808e+08,75253.6,-0.00633274,0.177226,-0,0.177339,-3454.76,-24714.8,-0,24955,75253.6
step02_gravity_refstate-crust.xmf,739,2.2567e-06,-1.02302e-06,0,1.2853e-06,-7.63834e+08,-7.64059e+08,-7.63989e+08,88171.8,-0.00673332,0.180464,-0,0.180589,-2759.1,-27815.7,-0,27952.2,88171.8
step02_gravity_refstate-crust.xmf,740,2.55395e-06,-1.4071e-06,0,9.89283e-07,-7.81777e+08,-7.82049e+08,-7.81952e+08,67864.8,-0.00500489,0.182786,-0,0.182854,-1887.76,-28469.5,-0,28532,67864.8
step02_gravity_refstate-crust.xmf,741,4.07293e-06,-3.54418e-06,0,3.46654e-07,-8.86372e+08,-8.86894e+08,-8.86651e+08,23780.4,-0.00142855,0.193573,-0,0.193578,-350.865,-32280.2,-0,32282.1,23780.4
step02_gravity_refstate-crust.xmf,742,3.48159e-06,-2.71949e-06,0,6.94851e-07,-8.52243e+08,-8.52669e+08,-8.52482e+08,47666.8,-0.00303164,0.189288,-0,0.189312,-862.85,-31036.7,-0,31048.6,47666.8
step02_gravity_refstate-crust.xmf,743,5.37427e-06,-5.62151e-06,0,-8.83209e-08,-9.44529e+08,-9.45283e+08,-9.44897e+08,-6058.82,0.000289828,0.203167,0,0.203167,54.1122,-34399.6,0,34399.6,6058.82
step02_gravity_refstate-crust.xmf,744,5.61474e-06,-5.95559e-06,0,-1.21926e-06,-9.57142e+08,-9.57935e+08,-9.57527e+08,-83641.2,0.00383487,0.205236,0,0.205272,674.544,-34859.2,0,34865.7,83641.2
step02_gravity_refstate-crust.xmf,745,5.61288e-06,-6.06848e-06,0,-2.41262e-06,-9.68382e+08,-9.69184e+08,-9.68767e+08,-165505,0.00745739,0.206117,0,0.206252,1258.88,-35268.2,0,35290.7,165505
step02_gravity_refstate-crust.xmf,746,5.31333e-06,-5.85132e-06,0,-3.84088e-06,-9.81534e+08,-9.823e+08,-9.81898e+08,-263484,0.011661,0.205897,0,0.206227,1903.97,-35746.2,0,35796.8,263484
step02_gravity_refstate-crust.xmf,747,6.49015e-06,-8.58244e-06,0,-7.35277e-06,-1.04519e+09,-1.04622e+09,-1.04563e+09,-504400,0.01701,0.222123,0,0.222773,1963.14,-38064,0,38114.6,504400
step02_gravity_refstate-crust.xmf,748,7.86445e-07,5.4694e-07,0,1.10653e-06,-5.02037e+08,-5.02054e+08,-5.02091e+08,75907.7,-0.00729028,0.172241,-0,0.172395,-7076.85,-18281.2,-0,19603.2,75907.7
step02_gravity_refstate-crust.xmf,749,6.87374e-07,5.02643e-07,0,8.51014e-07,-4.03974e+08,-4.03987e+08,-4.04021e+08,58379.6,-0.00590101,0.174308,-0,0.174408,-6968.04,-14710.6,-0,16277.5,58379.6
step02_gravity_refstate-crust.xmf,750,7.37882e-07,5.27963e-07,0,9.71991e-07,-4.56091e+08,-4.56106e+08,-4.56142e+08,66678.6,-0.00653113,0.1733,-0,0.173423,-6984.44,-16608.3,-0,18017.1,66678.6
step02_gravity_refstate-crust.xmf,751,5.16371e-07,1.62324e-07,0,4.60364e-07,-1.28503e+08,-1.28527e+08,-1.28538e+08,31581,-0.00857707,0.172333,-0,0.172547,-11203.5,-4680.61,-0,12142,31581
step02_gravity_refstate-crust.xmf,752,6.27732e-07,-5.43101e-08,0,2.53541e-07,-6.3115e+07,-6.31618e+07,-6.31581e+07,17392.9,-0.0101657,0.172595,-0,0.172894,-11111.6,-2300.22,-0,11347.2,17392.9
step02_gravity_refstate-crust.xmf,753,6.76533e-07,-2.54973e-07,0,7.66556e-09,64339.9,438.646,17929.8,525.858,-0.0134637,0.17067,-0,0.1712,-12254.7,0,-0,12254.7,525.858
step02_gravity_refstate-crust.xmf,754,4.91407e-07,4.75486e-07,0,7.58187e-07,-2.73041e+08,-2.73042e+08,-2.73075e+08,52011.7,-0.00663796,0.17284,-0,0.172968,-9655.54,-9943.05,-0,13859.8,52011.7
step02_gravity_refstate-crust.xmf,755,5.79696e-07,4.46447e-07,0,7.12651e-07,-2.99433e+08,-2.99442e+08,-2.99472e+08,48887.8,-0.00578381,0.174804,-0,0.1749,-7953.45,-10904.2,-0,13496.6,48887.8
step02_gravity_refstate-crust.xmf,756,9.53467e-07,3.88147e-07,0,9.96859e-07,-5.25077e+08,-5.25116e+08,-5.25143e+08,68384.5,-0.00646124,0.174154,-0,0.174273,-5689.79,-19120.4,-0,19949,68384.5
step02_gravity_refstate-crust.xmf,757,1.31975e-06,5.88874e-08,0,1.11985e-06,-6.22761e+08,-6.22847e+08,-6.22851e+08,76822,-0.00681507,0.175232,-0,0.175364,-4494.2,-22677.7,-0,23118.7,76822
step02_gravity_refstate-crust.xmf,758,1.21031e-06,1.48285e-07,0,9.89889e-07,-5.8579e+08,-5.85863e+08,-5.85873e+08,67906.4,-0.00614968,0.1754,-0,0.175507,-4483.62,-21331.4,-0,21797.5,67906.4
step02_gravity_refstate-crust.xmf,759,5.50331e-06,-8.64412e-06,0,-1.20317e-05,-1.08535e+09,-1.08632e+09,-1.08573e+09,-825376,0.0227683,0.231193,0,0.232312,2203.37,-39522.1,0,39583.4,825376
step02_gravity_refstate-crust.xmf,760,5.26729e-06,-7.21079e-06,0,-9.0165e-06,-1.05712e+09,-1.05798e+09,-1.05748e+09,-618532,0.0206556,0.2201,0,0.221067,2370.32,-38495.7,0,38568.7,618532
step02_gravity_refstate-crust.xmf,761,1.53351e-06,-1.73254e-07,0,9.33678e-07,-6.4387e+08,-6.43988e+08,-6.43976e+08,64050.3,-0.00557399,0.177063,-0,0.177151,-3360.49,-23446.7,-0,23686.3,64050.3
step02_gravity_refstate-crust.xmf,762,2.07529e-06,-7.94522e-07,0,1.06134e-06,-7.31986e+08,-7.32183e+08,-7.32128e+08,72808.1,-0.00578721,0.179656,-0,0.179749,-2621.33,-26655.8,-0,26784.4,72808.1
step02_gravity_refstate-crust.xmf,763,1.89831e-06,-6.04073e-07,0,8.76366e-07,-6.9885e+08,-6.99022e+08,-6.9898e+08,60118.7,-0.00491347,0.179054,-0,0.179121,-2462.44,-25449.1,-0,25567.9,60118.7
step02_gravity_refstate-crust.xmf,764,4.82523e-06,-4.75341e-06,0,-2.38278e-07,-9.23054e+08,-9.23711e+08,-9.23385e+08,-16345.9,0.000850626,0.199132,0,0.199134,176.591,-33616.9,0,33617.3,16345.9
step02_gravity_refstate-crust.xmf,765,2.83457e-06,-1.77548e-06,0,6.13234e-07,-7.99402e+08,-7.99718e+08,-7.99596e+08,42067.9,-0.00300847,0.18485,-0,0.184874,-1050.37,-29111.7,-0,29130.7,42067.9
step02_gravity_refstate-crust.xmf,766,4.34143e-06,-4.00416e-06,0,-3.33983e-07,-9.00787e+08,-9.01359e+08,-9.01085e+08,-22911.2,0.00128074,0.195574,0,0.195578,295.031,-32805.4,0,32806.7,22911.2
step02_gravity_refstate-crust.xmf,767,3.70972e-06,-3.00902e-06,0,1.77589e-07,-8.63883e+08,-8.64344e+08,-8.64138e+08,12182.6,-0.000795008,0.190943,-0,0.190945,-214.589,-31460.9,-0,31461.6,12182.6
step02_gravity_refstate-crust.xmf,768,3.37597e-06,-2.56724e-06,0,1.15768e-07,-8.40523e+08,-8.40931e+08,-8.40755e+08,7941.65,-0.000521665,0.188601,-0,0.188602,-154.662,-30609.8,-0,30610.2,7941.65
step02_gravity_refstate-crust.xmf,769,5.828e-06,-7.39012e-06,0,-6.48357e-06,-1.02856e+09,-1.02946e+09,-1.02896e+09,-444773,0.0164893,0.215401,0,0.216031,2133.83,-37457.7,0,37518.5,444773
step02_gravity_refstate-crust.xmf,770,5.2825e-06,-6.30256e-06,0,-5.69435e-06,-1.0111e+09,-1.01189e+09,-1.01146e+09,-390632,0.015817,0.209629,0,0.210225,2285.56,-36821.6,0,36892.5,390632
step02_gravity_refstate-crust.xmf,771,4.8185e-06,-5.4055e-06,0,-5.0439e-06,-9.93474e+08,-9.94175e+08,-9.93805e+08,-346012,0.0151592,0.204674,0,0.205235,2431.14,-36179.5,0,36261.1,346012
step02_gravity_refstate-crust.xmf,772,5.20016e-07,3.4868e-07,0,6.30211e-07,-2.16535e+08,-2.16547e+08,-2.16571e+08,43232.5,-0.00671514,0.173808,-0,0.173937,-9575.94,-7885.83,-0,12405,43232.5
step02_gravity_refstate-crust.xmf,773,5.76704e-07,2.00188e-07,0,4.92602e-07,-1.59367e+08,-1.59393e+08,-1.59407e+08,33792.5,-0.00713431,0.174557,-0,0.174703,-9448,-5804.56,-0,11088.6,33792.5
step02_gravity_refstate-crust.xmf,774,6.89855e-07,4.34399e-07,0,7.05405e-07,-3.63101e+08,-3.63119e+08,-3.63149e+08,48390.8,-0.00510043,0.175855,-0,0.175929,-6320.56,-13222.5,-0,14655.5,48390.8
step02_gravity_refstate-crust.xmf,775,6.59665e-07,4.05125e-07,0,6.41841e-07,-3.21288e+08,-3.21306e+08,-3.21334e+08,44030.3,-0.00494526,0.176334,-0,0.176403,-6456.73,-11700.1,-0,13363.5,44030.3
step02_gravity_refstate-crust.xmf,776,1.1138e-06,2.13792e-07,0,8.6028e-07,-5.46763e+08,-5.46824e+08,-5.46839e+08,59015.2,-0.00544444,0.175804,-0,0.175889,-4387.76,-19910.3,-0,20388,59015.2
step02_gravity_refstate-crust.xmf,777,4.3056e-06,-6.46623e-06,0,-1.10526e-05,-1.07771e+09,-1.07845e+09,-1.07801e+09,-758210,0.0235917,0.222489,0,0.223736,2533.93,-39242.6,0,39324.4,758210
step02_gravity_refstate-crust.xmf,778,4.13166e-06,-5.85318e-06,0,-1.00577e-05,-1.06755e+09,-1.06824e+09,-1.06784e+09,-689955,0.0230894,0.217999,0,0.219219,2654.62,-38873,0,38963.6,689955
step02_gravity_refstate-crust.xmf,779,1.73394e-06,-4.22203e-07,0,7.18952e-07,-6.64756e+08,-6.64904e+08,-6.64875e+08,49320.1,-0.00415862,0.178621,-0,0.178669,-2306.82,-24207.5,-0,24317.1,49320.1
step02_gravity_refstate-crust.xmf,780,2.33226e-06,-1.11872e-06,0,7.84767e-07,-7.51319e+08,-7.51556e+08,-7.51479e+08,53835,-0.00414621,0.181597,-0,0.181644,-1730.01,-27360.2,-0,27414.9,53835
step02_gravity_refstate-crust.xmf,781,3.05466e-06,-2.11471e-06,0,1.29669e-07,-8.14826e+08,-8.15181e+08,-8.15036e+08,8895.28,-0.000600924,0.186434,-0,0.186435,-197.087,-29673.7,-0,29674.3,8895.28
step02_gravity_refstate-crust.xmf,782,2.57424e-06,-1.42858e-06,0,4.44584e-07,-7.7047e+08,-7.70745e+08,-7.70647e+08,30498.5,-0.00228863,0.183294,-0,0.183308,-884.097,-28057.9,-0,28071.9,30498.5
step02_gravity_refstate-crust.xmf,783,3.92842e-06,-3.33611e-06,0,-4.17069e-07,-8.78671e+08,-8.79169e+08,-8.7894e+08,-28611,0.0016799,0.19256,0,0.192567,426.689,-31999.6,0,32002.5,28611
step02_gravity_refstate-crust.xmf,784,5.02386e-06,-5.1082e-06,0,-1.20808e-06,-9.3657e+08,-9.37265e+08,-9.36915e+08,-82874.6,0.00415475,0.200854,0,0.200897,814.018,-34109.2,0,34118.9,82874.6
step02_gravity_refstate-crust.xmf,785,5.01501e-06,-5.12179e-06,0,-2.28348e-06,-9.49042e+08,-9.49738e+08,-9.49386e+08,-156647,0.0076193,0.201548,0,0.201692,1430.66,-34563.2,0,34592.8,156647
step02_gravity_refstate-crust.xmf,786,4.79336e-06,-4.95596e-06,0,-3.41912e-06,-9.61978e+08,-9.62646e+08,-9.62306e+08,-234551,0.0112056,0.201289,0,0.2016,2036.97,-35033.5,0,35092.6,234551
step02_gravity_refstate-crust.xmf,787,4.37253e-06,-4.54203e-06,0,-4.4896e-06,-9.74895e+08,-9.75506e+08,-9.75195e+08,-307987,0.0145584,0.200123,0,0.200652,2590.84,-35502.7,0,35597.1,307987
step02_gravity_refstate-crust.xmf,788,4.71953e-06,-6.05465e-06,0,-7.92075e-06,-1.04106e+09,-1.0418e+09,-1.04139e+09,-543364,0.0201405,0.213033,0,0.213983,2595.87,-37910.7,0,37999.5,543364
step02_gravity_refstate-crust.xmf,789,8.85289e-07,3.94303e-07,0,8.69377e-07,-4.82198e+08,-4.82232e+08,-4.82259e+08,59639.2,-0.00571001,0.174988,-0,0.175081,-5540.28,-17559.1,-0,18412.4,59639.2
step02_gravity_refstate-crust.xmf,790,8.22211e-07,3.97989e-07,0,7.54478e-07,-4.36749e+08,-4.36778e+08,-4.36805e+08,51757.2,-0.00507153,0.175819,-0,0.175892,-5412.39,-15904.2,-0,16799.9,51757.2
step02_gravity_refstate-crust.xmf,791,6.68853e-07,3.03211e-08,0,3.4295e-07,-1.03132e+08,-1.03176e+08,-1.03178e+08,23526.4,-0.00792295,0.175046,-0,0.175225,-9253.58,-3757.38,-0,9987.32,23526.4
step02_gravity_refstate-crust.xmf,792,8.96529e-07,-3.40276e-07,0,6.17224e-09,85160.4,315.601,23658.5,423.416,-0.0115204,0.173867,-0,0.174249,-9771.03,0,-0,9771.03,423.416
step02_gravity_refstate-crust.xmf,793,5.92068e-07,3.46643e-07,0,6.01874e-07,-2.4603e+08,-2.46047e+08,-2.4607e+08,41288.6,-0.0056441,0.175756,-0,0.175846,-7814.66,-8959.89,-0,11889,41288.6
step02_gravity_refstate-crust.xmf,794,7.72673e-07,3.84771e-07,0,6.48627e-07,-3.90821e+08,-3.90848e+08,-3.90874e+08,44495.8,-0.00451383,0.176689,-0,0.176747,-5231.65,-14232,-0,15163.1,44495.8
step02_gravity_refstate-crust.xmf,795,7.38706e-07,3.5521e-07,0,5.48803e-07,-3.44811e+08,-3.44838e+08,-3.44862e+08,37647.9,-0.0040289,0.177574,-0,0.17762,-4978.54,-12556.7,-0,13507.7,37647.9
step02_gravity_refstate-crust.xmf,796,6.58494e-07,3.37008e-07,0,5.44009e-07,-2.73438e+08,-2.7346e+08,-2.73484e+08,37319,-0.00465636,0.177231,-0,0.177292,-6230.11,-9957.98,-0,11746.3,37319
step02_gravity_refstate-crust.xmf,797,1.03041e-06,2.65325e-07,0,7.29734e-07,-5.05922e+08,-5.05975e+08,-5.05993e+08,50059.8,-0.00472938,0.17639,-0,0.176453,-4206.35,-18423.2,-0,18897.3,50059.8
step02_gravity_refstate-crust.xmf,798,1.3986e-06,-6.0063e-08,0,8.08769e-07,-6.07644e+08,-6.07744e+08,-6.0774e+08,55481.5,-0.00491642,0.177022,-0,0.17709,-3280.92,-22127.5,-0,22369.4,55481.5
step02_gravity_refstate-crust.xmf,799,1.27466e-06,4.57825e-08,0,6.97238e-07,-5.6984e+08,-5.69924e+08,-5.69927e+08,47830.5,-0.00432688,0.177119,-0,0.177172,-3199.6,-20750.8,-0,20996,47830.5
step02_gravity_refstate-crust.xmf,800,2.87371e-06,-4.53963e-06,0,-1.16567e-05,-1.08692e+09,-1.08743e+09,-1.08712e+09,-799648,0.0253808,0.218977,0,0.220443,2798.04,-39575.1,0,39673.9,799648
step02_gravity_refstate-crust.xmf,801,3.26973e-06,-4.34858e-06,0,-9.27185e-06,-1.057e+09,-1.05752e+09,-1.05723e+09,-636049,0.0234785,0.2097,0,0.21101,3036.26,-38487.7,0,38607.3,636049
step02_gravity_refstate-crust.xmf,802,2.66887e-06,-3.83007e-06,0,-1.03888e-05,-1.07414e+09,-1.07459e+09,-1.07433e+09,-712670,0.0250538,0.211972,0,0.213447,3054.29,-39110.1,0,39229.2,712670
step02_gravity_refstate-crust.xmf,803,1.57875e-06,-2.45918e-07,0,5.89482e-07,-6.29294e+08,-6.29419e+08,-6.29403e+08,40438.5,-0.0035383,0.178328,-0,0.178363,-2175.99,-22916.1,-0,23019.2,40438.5
step02_gravity_refstate-crust.xmf,804,2.12365e-06,-8.60152e-07,0,6.06335e-07,-7.19104e+08,-7.19308e+08,-7.19249e+08,41594.5,-0.00334206,0.180631,-0,0.180662,-1546.09,-26186.9,-0,26232.5,41594.5
step02_gravity_refstate-crust.xmf,805,1.92661e-06,-6.51545e-07,0,4.52267e-07,-6.85592e+08,-6.85769e+08,-6.85724e+08,31025.5,-0.00254703,0.179912,-0,0.17993,-1306.76,-24966.5,-0,25000.6,31025.5
step02_gravity_refstate-crust.xmf,806,4.50092e-06,-4.28583e-06,0,-1.1576e-06,-9.14603e+08,-9.15205e+08,-9.14911e+08,-79411.6,0.00428082,0.196931,0,0.196977,933.806,-33308.6,0,33321.7,79411.6
step02_gravity_refstate-crust.xmf,807,2.77486e-06,-1.69327e-06,0,2.24548e-08,-7.88197e+08,-7.88504e+08,-7.88388e+08,1540.4,-0.000147394,0.18462,-0,0.18462,-53.2349,-28703.7,-0,28703.8,1540.4
step02_gravity_refstate-crust.xmf,808,4.05776e-06,-3.59855e-06,0,-1.10547e-06,-8.92552e+08,-8.93077e+08,-8.92831e+08,-75835.3,0.00436608,0.193596,0,0.193646,1054.18,-32505.1,0,32522.2,75835.3
step02_gravity_refstate-crust.xmf,809,3.54674e-06,-2.80362e-06,0,-5.6776e-07,-8.55197e+08,-8.55632e+08,-8.5544e+08,-38948.3,0.00240887,0.18976,0,0.189776,676.36,-31144.3,0,31151.6,38948.3
step02_gravity_refstate-crust.xmf,810,3.20196e-06,-2.32233e-06,0,-4.72819e-07,-8.29647e+08,-8.30026e+08,-8.29867e+08,-32435.4,0.00214375,0.187411,0,0.187423,665.473,-30213.5,0,30220.8,32435.4
step02_gravity_refstate-crust.xmf,811,4.39016e-06,-5.28751e-06,0,-6.95174e-06,-1.02346e+09,-1.02413e+09,-1.02377e+09,-476890,0.0192575,0.207287,0,0.20818,2769.9,-37269.8,0,37372.6,476890
step02_gravity_refstate-crust.xmf,812,4.11028e-06,-4.60243e-06,0,-6.10712e-06,-1.00549e+09,-1.00609e+09,-1.00577e+09,-418948,0.0183033,0.202521,0,0.203346,2917.25,-36615.4,0,36731.5,418948
step02_gravity_refstate-crust.xmf,813,3.82381e-06,-3.97699e-06,0,-5.41311e-06,-9.872e+08,-9.87736e+08,-9.87463e+08,-371339,0.0174518,0.19823,0,0.198997,3074.63,-35949.3,0,36080.6,371339
step02_gravity_refstate-crust.xmf,814,8.39836e-07,-1.77626e-07,0,1.67556e-07,-4.9067e+07,-4.91368e+07,-4.91246e+07,11494.3,-0.00864142,0.17584,-0,0.176052,-8459.14,-1789.46,-0,8646.34,11494.3
step02_gravity_refstate-crust.xmf,815,6.31544e-07,2.24923e-07,0,4.8493e-07,-1.8979e+08,-1.89818e+08,-1.89834e+08,33266.2,-0.00577542,0.176517,-0,0.176611,-7672.02,-6912.42,-0,10326.7,33266.2
step02_gravity_refstate-crust.xmf,816,7.06097e-07,7.75859e-08,0,3.61615e-07,-1.33433e+08,-1.33476e+08,-1.33481e+08,24806.8,-0.00622704,0.176999,-0,0.177109,-7523.53,-4860.74,-0,8957.14,24806.8
step02_gravity_refstate-crust.xmf,817,7.18497e-07,3.19161e-07,0,4.68109e-07,-2.99592e+08,-2.9962e+08,-2.99642e+08,32112.3,-0.00373491,0.178282,-0,0.178321,-4813.49,-10910.4,-0,11925,32112.3
step02_gravity_refstate-crust.xmf,818,1.16746e-06,1.23801e-07,0,5.74139e-07,-5.30187e+08,-5.30259e+08,-5.30267e+08,39385.9,-0.00363128,0.177477,-0,0.177514,-2970.83,-19306.9,-0,19534.1,39385.9
step02_gravity_refstate-crust.xmf,819,1.74363e-06,-4.48711e-07,0,3.41055e-07,-6.51263e+08,-6.51413e+08,-6.51383e+08,23396.4,-0.00198408,0.179351,-0,0.179362,-1129.31,-23716.2,-0,23743.1,23396.4
step02_gravity_refstate-crust.xmf,820,2.3372e-06,-1.12871e-06,0,2.99406e-07,-7.40748e+08,-7.40986e+08,-7.40908e+08,20539.2,-0.00159639,0.182023,-0,0.18203,-681.681,-26975.4,-0,26984,20539.2
step02_gravity_refstate-crust.xmf,821,2.91369e-06,-1.91969e-06,0,-4.70293e-07,-8.04834e+08,-8.05165e+08,-8.05034e+08,-32262.1,0.00224147,0.185449,0,0.185463,764.786,-29309.6,0,29319.6,32262.1
step02_gravity_refstate-crust.xmf,822,2.51468e-06,-1.35403e-06,0,-5.56884e-08,-7.60389e+08,-7.60655e+08,-7.60562e+08,-3820.22,0.000264077,0.183072,0,0.183073,105.323,-27690.8,0,27691,3820.22
step02_gravity_refstate-crust.xmf,823,3.74293e-06,-3.10703e-06,0,-1.01815e-06,-8.73854e+08,-8.74324e+08,-8.74111e+08,-69845,0.00424156,0.19124,0,0.191287,1110.36,-31823.9,0,31843.2,69845
step02_gravity_refstate-crust.xmf,824,4.50245e-06,-4.37353e-06,0,-2.10302e-06,-9.28184e+08,-9.28793e+08,-9.28493e+08,-144267,0.00756069,0.197462,0,0.197607,1578.65,-33802.9,0,33839.8,144267
step02_gravity_refstate-crust.xmf,825,3.94416e-06,-3.78804e-06,0,-4.04377e-06,-9.55044e+08,-9.55574e+08,-9.55314e+08,-277403,0.0140881,0.19577,0,0.196277,2790.02,-34779.4,0,34891.1,277403
step02_gravity_refstate-crust.xmf,826,4.30812e-06,-4.16061e-06,0,-3.09199e-06,-9.41649e+08,-9.4223e+08,-9.41945e+08,-212111,0.0109012,0.197063,0,0.197365,2204.19,-34292.7,0,34363.4,212111
step02_gravity_refstate-crust.xmf,827,3.52134e-06,-3.33976e-06,0,-4.8434e-06,-9.68705e+08,-9.69176e+08,-9.68946e+08,-332257,0.0167419,0.194306,0,0.195026,3253.32,-35275.7,0,35425.4,332257
step02_gravity_refstate-crust.xmf,828,3.16064e-06,-3.798e-06,0,-7.97848e-06,-1.03729e+09,-1.03777e+09,-1.03751e+09,-547324,0.0224035,0.203466,0,0.204695,3261.86,-37770.6,0,37911.2,547324
step02_gravity_refstate-crust.xmf,829,9.47949e-07,2.89459e-07,0,6.20047e-07,-4.62692e+08,-4.62737e+08,-4.62757e+08,42535.2,-0.0040757,0.177055,-0,0.177102,-3996.3,-16849.1,-0,17316.5,42535.2
step02_gravity_refstate-crust.xmf,830,8.76191e-07,3.06264e-07,0,5.20593e-07,-4.17368e+08,-4.17407e+08,-4.17428e+08,35712.7,-0.00351953,0.177751,-0,0.177786,-3785.11,-15198.7,-0,15663,35712.7
step02_gravity_refstate-crust.xmf,831,8.13181e-07,-7.54683e-08,0,2.41073e-07,-8.54882e+07,-8.55491e+07,-8.5544e+07,16537.6,-0.00676843,0.177313,-0,0.177442,-7227.21,-3115.46,-0,7870.11,16537.6
step02_gravity_refstate-crust.xmf,832,1.08017e-06,-4.10083e-07,0,5.72619e-09,102600,368.489,28500.2,392.817,-0.00909495,0.176503,-0,0.176737,-7310.9,0,-0,7310.9,392.817
step02_gravity_refstate-crust.xmf,833,6.80388e-07,2.39639e-07,0,4.4154e-07,-2.19894e+08,-2.19924e+08,-2.1994e+08,30289.6,-0.00451032,0.178072,-0,0.178129,-5955.51,-8008.57,-0,9980.24,30289.6
step02_gravity_refstate-crust.xmf,834,8.15706e-07,3.07814e-07,0,4.38618e-07,-3.70059e+08,-3.70093e+08,-3.70115e+08,30089.2,-0.00309739,0.178425,-0,0.178452,-3614.81,-13476.1,-0,13952.5,30089.2
step02_gravity_refstate-crust.xmf,835,7.76089e-07,2.89612e-07,0,3.67836e-07,-3.24169e+08,-3.24202e+08,-3.24222e+08,25233.6,-0.00277395,0.179061,-0,0.179082,-3432.37,-11805.3,-0,12294.1,25233.6
step02_gravity_refstate-crust.xmf,836,7.23539e-07,2.53804e-07,0,3.75497e-07,-2.51873e+08,-2.51905e+08,-2.51923e+08,25759.1,-0.00340161,0.179088,-0,0.17912,-4433.2,-9173.01,-0,10188.1,25759.1
step02_gravity_refstate-crust.xmf,837,1.07252e-06,1.89238e-07,0,4.51691e-07,-4.88566e+08,-4.88627e+08,-4.8864e+08,30986,-0.00294154,0.177968,-0,0.177992,-2659.51,-17791.4,-0,17989.1,30986
step02_gravity_refstate-crust.xmf,838,1.42944e-06,-1.18349e-07,0,4.90377e-07,-5.92227e+08,-5.92333e+08,-5.92325e+08,33639.8,-0.00298769,0.178201,-0,0.178226,-2039.73,-21566.2,-0,21662.5,33639.8
step02_gravity_refstate-crust.xmf,839,1.29795e-06,-4.45281e-09,0,3.90029e-07,-5.53923e+08,-5.54012e+08,-5.54012e+08,26756,-0.00242516,0.178266,-0,0.178283,-1836.1,-20171.4,-0,20254.8,26756
step02_gravity_refstate-crust.xmf,840,1.46079e-06,-2.16427e-06,0,-1.07454e-05,-1.08522e+09,-1.08546e+09,-1.08532e+09,-737132,0.0263737,0.20817,0,0.209834,3314.91,-39510.9,0,39649.7,737132
step02_gravity_refstate-crust.xmf,841,1.73053e-06,-2.27312e-06,0,-9.66285e-06,-1.06829e+09,-1.06856e+09,-1.06841e+09,-662872,0.0255899,0.203262,0,0.204867,3504.9,-38895.6,0,39053.2,662872
step02_gravity_refstate-crust.xmf,842,1.57265e-06,-2.54837e-07,0,2.50181e-07,-6.14743e+08,-6.14868e+08,-6.14851e+08,17162.4,-0.0015253,0.178967,-0,0.178973,-966.369,-22386.3,-0,22407.1,17162.4
step02_gravity_refstate-crust.xmf,843,2.12126e-06,-8.86544e-07,0,7.79039e-08,-7.0939e+08,-7.09596e+08,-7.09535e+08,5344.21,-0.000451472,0.181018,-0,0.181018,-213.293,-25833.3,-0,25834.1,5344.21
step02_gravity_refstate-crust.xmf,844,1.88613e-06,-6.12816e-07,0,3.42149e-08,-6.72454e+08,-6.72626e+08,-6.72584e+08,2347.14,-0.000193524,0.180049,-0,0.180049,-102.687,-24488.1,-0,24488.3,2347.14
step02_gravity_refstate-crust.xmf,845,4.05423e-06,-3.65982e-06,0,-1.89831e-06,-9.05839e+08,-9.06368e+08,-9.06117e+08,-130224,0.00730855,0.193879,0,0.194017,1695.45,-32988.7,0,33032.3,130224
step02_gravity_refstate-crust.xmf,846,2.63473e-06,-1.51358e-06,0,-5.02778e-07,-7.78171e+08,-7.78455e+08,-7.78351e+08,-34490.6,0.00248883,0.183671,0,0.183688,936.443,-28338.4,0,28353.9,34490.6
step02_gravity_refstate-crust.xmf,847,3.67431e-06,-3.06067e-06,0,-1.68259e-06,-8.82564e+08,-8.83026e+08,-8.82816e+08,-115426,0.00690614,0.190849,0,0.190974,1774.16,-32140.8,0,32189.7,115426
step02_gravity_refstate-crust.xmf,848,3.42637e-06,-2.66081e-06,0,-1.34458e-06,-8.60293e+08,-8.60711e+08,-8.60528e+08,-92238.3,0.00578787,0.188901,0,0.188989,1620.43,-31329.6,0,31371.5,92238.3
step02_gravity_refstate-crust.xmf,849,3.24794e-06,-2.37507e-06,0,-1.02803e-06,-8.41684e+08,-8.4207e+08,-8.41907e+08,-70522.8,0.00456351,0.187654,0,0.187709,1366.29,-30651.8,0,30682.3,70522.8
step02_gravity_refstate-crust.xmf,850,2.98221e-06,-2.02748e-06,0,-1.0272e-06,-8.21139e+08,-8.21483e+08,-8.21344e+08,-70466.1,0.00477962,0.185725,0,0.185787,1553.83,-29903.3,0,29943.7,70466.1
step02_gravity_refstate-crust.xmf,851,3.15963e-06,-3.44849e-06,0,-7.00539e-06,-1.01801e+09,-1.01847e+09,-1.01823e+09,-480570,0.0211857,0.199037,0,0.200162,3412.34,-37069.2,0,37225.9,480570
step02_gravity_refstate-crust.xmf,852,3.09307e-06,-3.10239e-06,0,-6.19721e-06,-9.99329e+08,-9.99754e+08,-9.99541e+08,-425129,0.0200676,0.195306,0,0.196335,3550.99,-36389.3,0,36562.1,425129
step02_gravity_refstate-crust.xmf,853,2.96498e-06,-2.72723e-06,0,-5.54783e-06,-9.81309e+08,-9.817e+08,-9.81513e+08,-380581,0.0191339,0.191933,0,0.192884,3704.26,-35733.3,0,35924.8,380581
step02_gravity_refstate-crust.xmf,854,1.65704e-06,-1.75893e-06,0,-8.65672e-06,-1.05322e+09,-1.05345e+09,-1.05333e+09,-593851,0.0250239,0.197334,0,0.198915,3799.95,-38347.4,0,38535.2,593851
step02_gravity_refstate-crust.xmf,855,9.77775e-07,-2.40332e-07,0,1.19535e-07,-4.6122e+07,-4.62056e+07,-4.61891e+07,8200.12,-0.00655761,0.178139,-0,0.17826,-6088.99,-1682.7,-0,6317.22,8200.12
step02_gravity_refstate-crust.xmf,856,7.36638e-07,1.14007e-07,0,3.38436e-07,-1.62667e+08,-1.6271e+08,-1.62717e+08,23216.7,-0.00465602,0.178628,-0,0.178689,-5758.5,-5925.21,-0,8262.47,23216.7
step02_gravity_refstate-crust.xmf,857,8.3805e-07,-4.7392e-08,0,2.31298e-07,-1.03783e+08,-1.03844e+08,-1.0384e+08,15867.1,-0.00519373,0.178776,-0,0.178851,-5678.84,-3781.63,-0,6822.75,15867.1
step02_gravity_refstate-crust.xmf,858,7.5524e-07,2.60124e-07,0,3.1794e-07,-2.81975e+08,-2.82009e+08,-2.82027e+08,21810.7,-0.00262231,0.17954,-0,0.179559,-3349.97,-10269,-0,10801.6,21810.7
step02_gravity_refstate-crust.xmf,859,1.18375e-06,8.42116e-08,0,2.87825e-07,-5.15312e+08,-5.15387e+08,-5.15393e+08,19744.8,-0.00181622,0.178497,-0,0.178506,-1518.25,-18765.4,-0,18826.7,19744.8
step02_gravity_refstate-crust.xmf,860,1.69362e-06,-4.00573e-07,0,-2.29792e-08,-6.37102e+08,-6.37246e+08,-6.37218e+08,-1576.37,0.000133577,0.179422,0,0.179422,79.0089,-23200.6,0,23200.7,1576.37
step02_gravity_refstate-crust.xmf,861,2.31573e-06,-1.11819e-06,0,-1.06262e-07,-7.36089e+08,-7.36324e+08,-7.36247e+08,-7289.61,0.000569726,0.181967,0,0.181968,247.015,-26805.7,0,26806.8,7289.61
step02_gravity_refstate-crust.xmf,862,2.6913e-06,-1.62662e-06,0,-9.97274e-07,-7.95359e+08,-7.95656e+08,-7.95544e+08,-68413,0.00487483,0.183742,0,0.183806,1747.84,-28964.2,0,29016.9,68413
step02_gravity_refstate-crust.xmf,863,2.38297e-06,-1.19059e-06,0,-4.81496e-07,-7.49821e+08,-7.50066e+08,-7.49984e+08,-33030.7,0.00249814,0.182199,0,0.182216,1037.73,-27305.8,0,27325.5,33030.7
step02_gravity_refstate-crust.xmf,864,3.89425e-06,-3.52835e-06,0,-2.77244e-06,-9.19711e+08,-9.2022e+08,-9.19978e+08,-190189,0.010475,0.193322,0,0.193606,2355.47,-33493.3,0,33576,190189
step02_gravity_refstate-crust.xmf,865,3.04095e-06,-2.55847e-06,0,-4.44392e-06,-9.4835e+08,-9.48734e+08,-9.48558e+08,-304853,0.0166083,0.189302,0,0.190029,3633.77,-34534,0,34724.6,304853
step02_gravity_refstate-crust.xmf,866,3.55816e-06,-3.13729e-06,0,-3.6332e-06,-9.33955e+08,-9.34414e+08,-9.34199e+08,-249238,0.0135931,0.191883,0,0.192364,2993.13,-34011.1,0,34142.5,249238
step02_gravity_refstate-crust.xmf,867,2.82677e-06,-2.38093e-06,0,-5.06175e-06,-9.65553e+08,-9.6591e+08,-9.65747e+08,-347236,0.0184271,0.189175,0,0.19007,3854.62,-35159.7,0,35370.3,347236
step02_gravity_refstate-crust.xmf,868,1.99673e-06,-1.98915e-06,0,-7.60482e-06,-1.03125e+09,-1.03152e+09,-1.03139e+09,-521691,0.0236305,0.19388,0,0.195314,3935.08,-37548.7,0,37754.3,521691
step02_gravity_refstate-crust.xmf,869,9.78983e-07,2.25156e-07,0,3.59109e-07,-4.44304e+08,-4.44356e+08,-4.44371e+08,24634.9,-0.00237239,0.178496,-0,0.178512,-2367.85,-16179.6,-0,16352,24634.9
step02_gravity_refstate-crust.xmf,870,8.97581e-07,2.54421e-07,0,2.89018e-07,-3.98065e+08,-3.98109e+08,-3.98126e+08,19826.7,-0.00197687,0.179021,-0,0.179032,-2163.46,-14496,-0,14656.5,19826.7
step02_gravity_refstate-crust.xmf,871,1.21825e-06,-4.60589e-07,0,7.87216e-09,115797,628.323,32224.7,540.03,-0.00628531,0.17847,-0,0.17858,-4867.07,0,-0,4867.07,540.03
step02_gravity_refstate-crust.xmf,872,7.5568e-07,1.5283e-07,0,2.84585e-07,-1.95943e+08,-1.95985e+08,-1.95995e+08,19522.5,-0.0032032,0.179781,-0,0.179809,-4041.9,-7136.81,-0,8201.89,19522.5
step02_gravity_refstate-crust.xmf,873,8.31803e-07,2.6195e-07,0,2.34025e-07,-3.48225e+08,-3.48264e+08,-3.48282e+08,16054.1,-0.00169235,0.179572,-0,0.17958,-2005.98,-12681.3,-0,12838.9,16054.1
step02_gravity_refstate-crust.xmf,874,7.91479e-07,2.4265e-07,0,1.89481e-07,-2.97828e+08,-2.97866e+08,-2.97883e+08,12998.4,-0.00150329,0.180096,-0,0.180102,-1877.83,-10846.3,-0,11007.7,12998.4
step02_gravity_refstate-crust.xmf,875,7.70998e-07,1.91866e-07,0,1.95487e-07,-2.38072e+08,-2.38111e+08,-2.38125e+08,13410.4,-0.00184043,0.180409,-0,0.180419,-2345.04,-8670.66,-0,8982.18,13410.4
step02_gravity_refstate-crust.xmf,876,1.0811e-06,1.46034e-07,0,1.45872e-07,-4.73159e+08,-4.73223e+08,-4.73233e+08,10006.8,-0.000962843,0.178896,-0,0.178899,-890.015,-17230.4,-0,17253.4,10006.8
step02_gravity_refstate-crust.xmf,877,1.41693e-06,-1.2188e-07,0,1.75684e-07,-5.77165e+08,-5.77271e+08,-5.77263e+08,12051.9,-0.00107688,0.178784,-0,0.178788,-758.651,-21017.8,-0,21031.5,12051.9
step02_gravity_refstate-crust.xmf,878,1.28334e-06,-6.33534e-09,0,9.93174e-08,-5.39742e+08,-5.3983e+08,-5.3983e+08,6813.17,-0.000620576,0.178769,-0,0.17877,-483.674,-19655,-0,19661,6813.17
step02_gravity_refstate-crust.xmf,879,4.30299e-07,-3.65593e-07,0,-9.85598e-06,-1.08406e+09,-1.08411e+09,-1.08409e+09,-676120,0.026811,0.198034,0,0.199841,3836.93,-39467.4,0,39653.4,676120
step02_gravity_refstate-crust.xmf,880,6.92881e-07,-5.682e-07,0,-9.19531e-06,-1.0709e+09,-1.07098e+09,-1.07094e+09,-630798,0.0263294,0.195233,0,0.197001,3979.52,-38988.9,0,39191.5,630798
step02_gravity_refstate-crust.xmf,881,1.52496e-06,-2.10154e-07,0,-6.74777e-08,-6.00855e+08,-6.00974e+08,-6.00959e+08,-4628.97,0.000370673,0.179019,0,0.179019,243.814,-21880.6,0,21881.9,4628.97
step02_gravity_refstate-crust.xmf,882,2.1672e-06,-9.41005e-07,0,-3.98689e-07,-7.20098e+08,-7.20311e+08,-7.20246e+08,-27350.1,0.002154,0.181092,0,0.181104,986.998,-26223.2,0,26241.8,27350.1
step02_gravity_refstate-crust.xmf,883,1.78356e-06,-4.93939e-07,0,-3.37806e-07,-6.58696e+08,-6.58853e+08,-6.58819e+08,-23173.5,0.00195533,0.179496,0,0.179507,1087.77,-23987,0,24011.6,23173.5
step02_gravity_refstate-crust.xmf,884,1.9799e-06,-7.18384e-07,0,-3.4422e-07,-6.91681e+08,-6.91866e+08,-6.91817e+08,-23613.5,0.00192269,0.180265,0,0.180276,964.593,-25188.2,0,25206.7,23613.5
step02_gravity_refstate-crust.xmf,885,3.53397e-06,-2.93865e-06,0,-2.43717e-06,-8.9576e+08,-8.96204e+08,-8.96003e+08,-167190,0.00983726,0.190121,0,0.190375,2459.91,-32620.8,0,32713.4,167190
step02_gravity_refstate-crust.xmf,886,2.42866e-06,-1.24981e-06,0,-9.31718e-07,-7.67361e+08,-7.67614e+08,-7.67528e+08,-63915.9,0.00475425,0.182091,0,0.182153,1884.46,-27944.4,0,28007.9,63915.9
step02_gravity_refstate-crust.xmf,887,3.25686e-06,-2.48745e-06,0,-2.08251e-06,-8.70843e+08,-8.71237e+08,-8.71067e+08,-142860,0.00889714,0.187696,0,0.187907,2458.52,-31713.2,0,31808.4,142860
step02_gravity_refstate-crust.xmf,888,3.00876e-06,-2.10394e-06,0,-1.67402e-06,-8.42155e+08,-8.42506e+08,-8.42362e+08,-114838,0.00754702,0.185742,0,0.185895,2315.38,-30668.4,0,30755.7,114838
step02_gravity_refstate-crust.xmf,889,2.67588e-06,-1.62698e-06,0,-1.54206e-06,-8.13404e+08,-8.137e+08,-8.13588e+08,-105785,0.00739876,0.183276,0,0.183426,2540.64,-29621.1,0,29729.9,105785
step02_gravity_refstate-crust.xmf,890,2.15719e-06,-1.91628e-06,0,-6.8043e-06,-1.01206e+09,-1.01234e+09,-1.01221e+09,-466775,0.0224412,0.190856,0,0.192171,4069.83,-36851,0,37075,466775
step02_gravity_refstate-crust.xmf,891,2.23679e-06,-1.81418e-06,0,-6.08837e-06,-9.92805e+08,-9.93083e+08,-9.92958e+08,-417662,0.0212782,0.188165,0,0.189364,4197.1,-36150.3,0,36393.1,417662
step02_gravity_refstate-crust.xmf,892,2.24986e-06,-1.65462e-06,0,-5.4866e-06,-9.7431e+08,-9.74577e+08,-9.74464e+08,-376381,0.0202413,0.185755,0,0.186855,4326.24,-35477.3,0,35740.1,376381
step02_gravity_refstate-crust.xmf,893,8.23397e-07,-3.16809e-07,0,-7.84562e-06,-1.0448e+09,-1.04488e+09,-1.04486e+09,-538210,0.0252975,0.187216,0,0.188917,4466.15,-38039.9,0,38301.2,538210
step02_gravity_refstate-crust.xmf,894,1.01897e-06,-2.17116e-07,0,1.08403e-07,-6.1859e+07,-6.19438e+07,-6.19289e+07,7436.43,-0.00389303,0.179926,-0,0.179969,-3693.14,-2255.82,-0,4327.59,7436.43
step02_gravity_refstate-crust.xmf,895,8.37113e-07,9.8145e-09,0,2.00599e-07,-1.33932e+08,-1.33989e+08,-1.33989e+08,13761.1,-0.00334628,0.180103,-0,0.180134,-3835.6,-4879.33,-0,6206.42,13761.1
step02_gravity_refstate-crust.xmf,896,1.1807e-06,7.53613e-08,0,4.40157e-08,-5.07027e+08,-5.07103e+08,-5.07108e+08,3019.48,-0.000279375,0.178848,-0,0.178849,-236.514,-18463.7,-0,18465.2,3019.48
step02_gravity_refstate-crust.xmf,897,3.28482e-07,2.17266e-07,0,-8.44637e-06,-1.06327e+09,-1.06328e+09,-1.06329e+09,-579421,0.0261974,0.188094,0,0.18991,4411.91,-38711.1,0,38961.7,579421
step02_gravity_refstate-crust.xmf,898,1.60107e-06,-2.95699e-07,0,-3.6318e-07,-6.24602e+08,-6.24732e+08,-6.24712e+08,-24914.2,0.00217245,0.178889,0,0.178902,1340.83,-22745.3,0,22784.8,24914.2
step02_gravity_refstate-crust.xmf,899,2.41002e-06,-1.25734e-06,0,-1.42073e-06,-7.85626e+08,-7.85877e+08,-7.85791e+08,-97462.2,0.0071578,0.181434,0,0.181576,2723.15,-28609.3,0,28738.6,97462.2
step02_gravity_refstate-crust.xmf,900,2.20036e-06,-9.60051e-07,0,-8.48311e-07,-7.38176e+08,-7.38392e+08,-7.38326e+08,-58194.2,0.00451203,0.180794,0,0.18085,1975.32,-26881.4,0,26953.9,58194.2
step02_gravity_refstate-crust.xmf,901,3.25523e-06,-2.64291e-06,0,-3.23345e-06,-9.10979e+08,-9.11384e+08,-9.11202e+08,-221815,0.0128929,0.188627,0,0.189067,3151.84,-33174.2,0,33323.6,221815
step02_gravity_refstate-crust.xmf,902,2.32842e-06,-1.61036e-06,0,-4.92511e-06,-9.55093e+08,-9.55364e+08,-9.55253e+08,-337863,0.0189989,0.184354,0,0.185331,4355.48,-34778.1,0,35049.7,337863
step02_gravity_refstate-crust.xmf,903,2.8121e-06,-2.10522e-06,0,-3.95111e-06,-9.25475e+08,-9.25812e+08,-9.25668e+08,-271046,0.0157431,0.186099,0,0.186763,3822.52,-33701,0,33917.1,271046
step02_gravity_refstate-crust.xmf,904,1.1335e-06,-5.90456e-07,0,-7.11938e-06,-1.0253e+09,-1.02541e+09,-1.02537e+09,-488390,0.0242535,0.185058,0,0.18664,4602.79,-37330.6,0,37613.3,488390
step02_gravity_refstate-crust.xmf,905,9.66723e-07,2.09186e-07,0,1.07136e-07,-4.23244e+08,-4.23296e+08,-4.2331e+08,7349.56,-0.000717419,0.179269,-0,0.179271,-740.998,-15412.9,-0,15430.7,7349.56
step02_gravity_refstate-crust.xmf,906,8.86588e-07,2.38201e-07,0,6.66741e-08,-3.76521e+08,-3.76566e+08,-3.76582e+08,4573.84,-0.000466062,0.179695,-0,0.179696,-525.37,-13711.6,-0,13721.6,4573.84
step02_gravity_refstate-crust.xmf,907,1.30851e-06,-4.96769e-07,0,3.96805e-09,124288,446.382,34524.8,272.208,-0.00321589,0.179684,-0,0.179713,-2432.35,0,-0,2432.35,272.208
step02_gravity_refstate-crust.xmf,908,8.18172e-07,7.69802e-08,0,1.35527e-07,-1.71092e+08,-1.71142e+08,-1.71148e+08,9297.16,-0.00173067,0.18085,-0,0.180858,-2086.53,-6232.19,-0,6572.2,9297.16
step02_gravity_refstate-crust.xmf,909,8.23955e-07,2.40652e-07,0,4.17856e-08,-3.24264e+08,-3.24304e+08,-3.2432e+08,2866.49,-0.000314329,0.180179,-0,0.18018,-381.043,-11808.8,-0,11815,2866.49
step02_gravity_refstate-crust.xmf,910,7.90389e-07,2.06658e-07,0,3.31276e-08,-2.65385e+08,-2.65425e+08,-2.65439e+08,2272.55,-0.000282656,0.180677,-0,0.180678,-357.164,-9665.13,-0,9671.72,2272.55
step02_gravity_refstate-crust.xmf,911,1.10906e-06,1.26763e-07,0,-1.53191e-07,-4.842e+08,-4.84267e+08,-4.84276e+08,-10508.9,0.000983241,0.17884,0,0.178842,885.383,-17632.5,0,17654.7,10508.9
step02_gravity_refstate-crust.xmf,912,1.22399e-06,4.23406e-08,0,-1.6621e-07,-5.23389e+08,-5.2347e+08,-5.23473e+08,-11402,0.00104746,0.17871,0,0.178713,854.149,-19059.5,0,19078.6,11402
step02_gravity_refstate-crust.xmf,913,1.36244e-06,-7.63165e-08,0,-1.38771e-07,-5.62297e+08,-5.62395e+08,-5.6239e+08,-9519.7,0.000858182,0.178767,0,0.178769,630.013,-20476.4,0,20486.1,9519.7
step02_gravity_refstate-crust.xmf,914,-3.8556e-07,1.12105e-06,0,-8.88915e-06,-1.08197e+09,-1.08187e+09,-1.08195e+09,-609796,0.0267729,0.18726,0,0.189164,4437.34,-39390.4,0,39639.6,609796
step02_gravity_refstate-crust.xmf,915,1.41851e-06,-1.07166e-07,0,-4.56581e-07,-5.86976e+08,-5.87081e+08,-5.87074e+08,-31321.5,0.00276186,0.178274,0,0.178295,1910.6,-21375,0,21460.3,31321.5
step02_gravity_refstate-crust.xmf,916,2.00925e-06,-7.45444e-07,0,-7.56343e-07,-7.09152e+08,-7.09341e+08,-7.0929e+08,-51885.1,0.00417192,0.179865,0,0.179913,2006.85,-25824.4,0,25902.2,51885.1
step02_gravity_refstate-crust.xmf,917,1.65089e-06,-3.37364e-07,0,-6.52083e-07,-6.46609e+08,-6.46746e+08,-6.46722e+08,-44732.9,0.00382809,0.178448,0,0.178489,2239.49,-23546.6,0,23652.9,44732.9
step02_gravity_refstate-crust.xmf,918,1.82377e-06,-5.29087e-07,0,-6.94923e-07,-6.78535e+08,-6.78696e+08,-6.7866e+08,-47671.7,0.00396004,0.179075,0,0.179118,2099.11,-24709.3,0,24798.3,47671.7
step02_gravity_refstate-crust.xmf,919,2.99947e-06,-2.20422e-06,0,-2.83202e-06,-8.86147e+08,-8.86504e+08,-8.86353e+08,-194277,0.0119967,0.186004,0,0.18639,3249.58,-32269.8,0,32433,194277
step02_gravity_refstate-crust.xmf,920,2.17669e-06,-9.3032e-07,0,-1.30599e-06,-7.57024e+08,-7.57237e+08,-7.57173e+08,-89591.1,0.0068621,0.179969,0,0.1801,2886.3,-27567.6,0,27718.3,89591.1
step02_gravity_refstate-crust.xmf,921,2.76582e-06,-1.8216e-06,0,-2.46664e-06,-8.597e+08,-8.60014e+08,-8.5989e+08,-169212,0.0110594,0.183813,0,0.184145,3318.02,-31306.6,0,31481.9,169212
step02_gravity_refstate-crust.xmf,922,2.55149e-06,-1.48989e-06,0,-2.14034e-06,-8.31981e+08,-8.32258e+08,-8.32156e+08,-146827,0.0101175,0.182023,0,0.182304,3358.23,-30297.1,0,30482.7,146827
step02_gravity_refstate-crust.xmf,923,2.31915e-06,-1.15236e-06,0,-1.91272e-06,-8.03712e+08,-8.0395e+08,-8.03871e+08,-131213,0.00951345,0.180241,0,0.180492,3501.78,-29267.5,0,29476.3,131213
step02_gravity_refstate-crust.xmf,924,-1.67264e-07,1.15491e-06,0,-7.69636e-06,-1.05695e+09,-1.05686e+09,-1.05693e+09,-527971,0.0260032,0.179816,0,0.181687,4969.94,-38480.3,0,38799.9,527971
step02_gravity_refstate-crust.xmf,925,2.36665e-06,-1.54838e-06,0,-4.42183e-06,-9.35851e+08,-9.3612e+08,-9.36014e+08,-303337,0.017785,0.183168,0,0.18403,4364.66,-34077.8,0,34356.1,303337
step02_gravity_refstate-crust.xmf,926,1.36258e-06,-6.68866e-07,0,-6.46749e-06,-1.00579e+09,-1.00593e+09,-1.00588e+09,-443670,0.023165,0.183004,0,0.184464,4738.2,-36621.3,0,36926.5,443670
step02_gravity_refstate-crust.xmf,927,1.51363e-06,-7.01614e-07,0,-5.8554e-06,-9.8603e+08,-9.86182e+08,-9.86133e+08,-401680,0.0220697,0.181072,0,0.182412,4873.82,-35902.4,0,36231.7,401680
step02_gravity_refstate-crust.xmf,928,1.64115e-06,-7.19837e-07,0,-5.28152e-06,-9.65236e+08,-9.65398e+08,-9.65348e+08,-362312,0.0209014,0.179522,0,0.180735,4980.62,-35145.9,0,35497.1,362312
step02_gravity_refstate-crust.xmf,929,1.71143e-07,8.25282e-07,0,-7.15802e-06,-1.03868e+09,-1.03863e+09,-1.03869e+09,-491040,0.0253148,0.178252,0,0.18004,5128.67,-37816,0,38162.2,491040
step02_gravity_refstate-crust.xmf,930,9.24635e-07,-7.64474e-08,0,8.68954e-08,-1.09385e+08,-1.09454e+08,-1.09449e+08,5961.03,-0.00173362,0.180934,-0,0.180942,-1854.77,-3985.9,-0,4396.31,5961.03
step02_gravity_refstate-crust.xmf,931,1.10708e-06,-2.78145e-07,0,3.48442e-08,-5.13124e+07,-5.14074e+07,-5.13883e+07,2390.31,-0.0013466,0.180714,-0,0.180719,-1216.17,-1872.13,-0,2232.47,2390.31
step02_gravity_refstate-crust.xmf,932,8.01596e-07,1.31848e-07,0,2.31291e-08,-2.05889e+08,-2.05935e+08,-2.05944e+08,1586.66,-0.000240117,0.181061,-0,0.181061,-299.173,-7499.03,-0,7504.99,1586.66
step02_gravity_refstate-crust.xmf,933,1.01175e-06,1.84356e-07,0,-9.01551e-08,-4.43668e+08,-4.43725e+08,-4.43738e+08,-6184.64,0.000591613,0.179141,0,0.179142,584.181,-16156.6,0,16167.1,6184.64
step02_gravity_refstate-crust.xmf,934,-4.84864e-07,1.50283e-06,0,-8.08031e-06,-1.07112e+09,-1.07098e+09,-1.07108e+09,-554309,0.026396,0.180678,0,0.182596,4868.4,-38995.4,0,39298.2,554309
step02_gravity_refstate-crust.xmf,935,1.50188e-06,-1.75584e-07,0,-6.52308e-07,-6.17504e+08,-6.17619e+08,-6.17607e+08,-44748.3,0.00392951,0.177916,0,0.17796,2514.17,-22486.7,0,22626.8,44748.3
step02_gravity_refstate-crust.xmf,936,2.10482e-06,-8.56652e-07,0,-1.72454e-06,-7.74754e+08,-7.74958e+08,-7.74899e+08,-118303,0.00898111,0.178759,0,0.178985,3660.61,-28212.9,0,28449.4,118303
step02_gravity_refstate-crust.xmf,937,1.98372e-06,-6.87292e-07,0,-1.17802e-06,-7.2762e+08,-7.27803e+08,-7.27756e+08,-80812.2,0.00642523,0.178929,0,0.179044,2978.27,-26496.7,0,26663.5,80812.2
step02_gravity_refstate-crust.xmf,938,2.62088e-06,-1.76145e-06,0,-3.52942e-06,-9.02305e+08,-9.02605e+08,-9.02485e+08,-242118,0.0148946,0.183479,0,0.184083,3991.17,-32857.2,0,33098.7,242118
step02_gravity_refstate-crust.xmf,939,1.82344e-06,-8.32852e-07,0,-4.71646e-06,-9.42496e+08,-9.42678e+08,-9.42621e+08,-323549,0.0194564,0.178984,0,0.180038,4965.97,-34318.6,0,34676,323549
step02_gravity_refstate-crust.xmf,940,2.08808e-06,-1.08915e-06,0,-4.17055e-06,-9.19784e+08,-9.20002e+08,-9.19927e+08,-286100,0.0176551,0.179789,0,0.180654,4741.73,-33492.4,0,33826.4,286100
step02_gravity_refstate-crust.xmf,941,4.81527e-07,5.08606e-07,0,-6.59563e-06,-1.01918e+09,-1.01917e+09,-1.01921e+09,-452460,0.0244475,0.176838,0,0.17852,5278.83,-37106.8,0,37480.4,452460
step02_gravity_refstate-crust.xmf,942,9.27408e-07,2.26865e-07,0,-1.27672e-07,-4.03322e+08,-4.0337e+08,-4.03386e+08,-8758.27,0.000863704,0.179397,0,0.179399,928.753,-14687.4,0,14716.8,8758.27
step02_gravity_refstate-crust.xmf,943,8.50541e-07,2.48219e-07,0,-1.36664e-07,-3.53877e+08,-3.53919e+08,-3.53936e+08,-9375.12,0.000979125,0.179793,0,0.179796,1145.87,-12887.1,0,12937.9,9375.12
step02_gravity_refstate-crust.xmf,944,1.33556e-06,-5.067e-07,0,3.76681e-09,126872,493.236,35252.9,258.403,2.58884e-07,0.180096,0,0.180096,7.08969e-08,0,0,7.08969e-08,258.403
step02_gravity_refstate-crust.xmf,945,8.68775e-07,1.04203e-08,0,7.03493e-09,-1.44927e+08,-1.44985e+08,-1.44986e+08,482.596,-9.62147e-05,0.18124,-0,0.18124,-110.265,-5279.73,-0,5280.88,482.596
step02_gravity_refstate-crust.xmf,946,7.98214e-07,2.36515e-07,0,-1.32252e-07,-2.98918e+08,-2.98957e+08,-2.98973e+08,-9072.49,0.00104427,0.180257,0,0.18026,1300.02,-10886,0,10963.4,9072.49
step02_gravity_refstate-crust.xmf,947,7.82269e-07,1.86713e-07,0,-1.22704e-07,-2.41062e+08,-2.41103e+08,-2.41116e+08,-8417.52,0.00114294,0.180681,0,0.180685,1449.57,-8779.56,0,8898.42,8417.52
step02_gravity_refstate-crust.xmf,948,1.03141e-06,1.93189e-07,0,-3.63106e-07,-4.6634e+08,-4.66398e+08,-4.66411e+08,-24909.1,0.00236223,0.178395,0,0.17841,2240.54,-16982.1,0,17129.2,24909.1
step02_gravity_refstate-crust.xmf,949,1.13339e-06,1.28299e-07,0,-4.0938e-07,-5.06331e+08,-5.064e+08,-5.06409e+08,-28083.4,0.00261304,0.178139,0,0.178158,2250.13,-18438.3,0,18575.1,28083.4
step02_gravity_refstate-crust.xmf,950,1.26229e-06,2.60895e-08,0,-4.16102e-07,-5.46028e+08,-5.46113e+08,-5.46115e+08,-28544.6,0.0025998,0.178162,0,0.178181,2014.08,-19883.8,0,19985.6,28544.6
step02_gravity_refstate-crust.xmf,951,-1.11961e-06,2.56355e-06,0,-7.92124e-06,-1.08439e+09,-1.08414e+09,-1.08432e+09,-543397,0.02627,0.175716,0,0.177669,5119.55,-39477.9,0,39808.5,543397
step02_gravity_refstate-crust.xmf,952,1.32641e-06,1.29894e-08,0,-8.4585e-07,-5.95726e+08,-5.95816e+08,-5.95817e+08,-58025.3,0.00520179,0.176594,0,0.176671,3614.04,-21693.4,0,21992.4,58025.3
step02_gravity_refstate-crust.xmf,953,1.47784e-06,-1.32566e-07,0,-9.30875e-07,-6.33611e+08,-6.33721e+08,-6.33712e+08,-63858,0.00556728,0.176858,0,0.176945,3465.9,-23073,0,23331.9,63858
step02_gravity_refstate-crust.xmf,954,1.80713e-06,-4.9419e-07,0,-1.07985e-06,-6.98036e+08,-6.98193e+08,-6.9816e+08,-74077.6,0.00609223,0.178081,0,0.178185,3106.63,-25419.2,0,25608.4,74077.6
step02_gravity_refstate-crust.xmf,955,1.63808e-06,-3.03244e-07,0,-9.9832e-07,-6.66702e+08,-6.66835e+08,-6.66814e+08,-68484.8,0.00580656,0.177393,0,0.177488,3267.02,-24278.1,0,24496.9,68484.8
step02_gravity_refstate-crust.xmf,956,2.45675e-06,-1.45677e-06,0,-3.10733e-06,-8.76744e+08,-8.77013e+08,-8.76913e+08,-213163,0.0138609,0.181449,0,0.181978,4097.41,-31926.4,0,32188.3,213163
step02_gravity_refstate-crust.xmf,957,1.90438e-06,-5.84344e-07,0,-1.58119e-06,-7.45814e+08,-7.45984e+08,-7.45944e+08,-108470,0.0085718,0.177507,0,0.177714,3859.11,-27158.9,0,27431.7,108470
step02_gravity_refstate-crust.xmf,958,2.29859e-06,-1.18543e-06,0,-2.73208e-06,-8.49736e+08,-8.49975e+08,-8.49894e+08,-187420,0.012836,0.179762,0,0.18022,4186.55,-30943,0,31224.9,187420
step02_gravity_refstate-crust.xmf,959,2.13638e-06,-9.30052e-07,0,-2.41802e-06,-8.221e+08,-8.22311e+08,-8.22247e+08,-165876,0.0119262,0.178306,0,0.178705,4288.69,-29936.6,0,30242.2,165876
step02_gravity_refstate-crust.xmf,960,1.96468e-06,-6.80822e-07,0,-2.15158e-06,-7.92748e+08,-7.92929e+08,-7.92882e+08,-147599,0.011119,0.17698,0,0.177329,4424.95,-28867.7,0,29204.8,147599
step02_gravity_refstate-crust.xmf,961,-9.15885e-07,2.36783e-06,0,-7.39879e-06,-1.06899e+09,-1.06876e+09,-1.06892e+09,-507557,0.0259947,0.172726,0,0.174671,5403.24,-38917.5,0,39290.8,507557
step02_gravity_refstate-crust.xmf,962,-6.37891e-07,2.07187e-06,0,-6.9501e-06,-1.05182e+09,-1.05164e+09,-1.05178e+09,-476777,0.0256073,0.17097,0,0.172877,5625.71,-38293.3,0,38704.3,476777
step02_gravity_refstate-crust.xmf,963,7.37467e-07,3.45751e-07,0,-6.06472e-06,-9.9926e+08,-9.99287e+08,-9.99311e+08,-416040,0.0234849,0.175538,0,0.177102,5421.56,-36382.6,0,36784.3,416040
step02_gravity_refstate-crust.xmf,964,9.50777e-07,1.94054e-07,0,-5.53622e-06,-9.78186e+08,-9.78237e+08,-9.78251e+08,-379785,0.0224242,0.174403,0,0.175839,5552.99,-35616,0,36046.3,379785
step02_gravity_refstate-crust.xmf,965,1.16628e-06,2.4648e-08,0,-5.02914e-06,-9.55681e+08,-9.55759e+08,-9.55761e+08,-344999,0.0212169,0.173879,0,0.175169,5619.25,-34797.3,0,35248.1,344999
step02_gravity_refstate-crust.xmf,966,-3.2547e-07,1.74162e-06,0,-6.50529e-06,-1.03278e+09,-1.03264e+09,-1.03275e+09,-446263,0.0250427,0.169802,0,0.171639,5818.34,-37600.7,0,38048.2,446263
step02_gravity_refstate-crust.xmf,967,9.75687e-07,-1.27227e-07,0,-1.60622e-09,-9.41018e+07,-9.41774e+07,-9.41687e+07,-110.187,1.00728e-06,0.181137,0,0.181137,1.27546,-3429.62,0,3429.62,110.187
step02_gravity_refstate-crust.xmf,968,1.10504e-06,-2.7332e-07,0,-2.05729e-08,-5.19671e+07,-5.20617e+07,-5.20429e+07,-1411.3,0.00123722,0.180738,0,0.180742,1119.03,-1895.96,0,2201.57,1411.3
step02_gravity_refstate-crust.xmf,969,8.14598e-07,9.03697e-08,0,-1.11306e-07,-1.78899e+08,-1.78948e+08,-1.78955e+08,-7635.58,0.00138643,0.180948,0,0.180953,1684.96,-6516.43,0,6730.74,7635.58
step02_gravity_refstate-crust.xmf,970,9.42415e-07,2.38703e-07,0,-3.27453e-07,-4.24878e+08,-4.24927e+08,-4.24943e+08,-22463.3,0.00218898,0.178717,0,0.17873,2275.04,-15472.3,0,15638.7,22463.3
step02_gravity_refstate-crust.xmf,971,1.25905e-06,6.65121e-08,0,-6.70632e-07,-5.63465e+08,-5.63547e+08,-5.63551e+08,-46005.3,0.00415356,0.177217,0,0.177266,3119.74,-20518.7,0,20754.5,46005.3
step02_gravity_refstate-crust.xmf,972,1.8053e-06,-4.63197e-07,0,-1.9266e-06,-7.62971e+08,-7.63126e+08,-7.63095e+08,-132165,0.0103832,0.17594,0,0.176246,4562.75,-27783.3,0,28155.5,132165
step02_gravity_refstate-crust.xmf,973,1.74411e-06,-3.85067e-07,0,-1.45638e-06,-7.17954e+08,-7.181e+08,-7.18074e+08,-99907.9,0.00814535,0.176647,0,0.176834,4017.32,-26144.3,0,26451.2,99907.9
step02_gravity_refstate-crust.xmf,974,2.02956e-06,-9.30016e-07,0,-3.67134e-06,-8.93635e+08,-8.93838e+08,-8.93774e+08,-251854,0.0164177,0.178155,0,0.17891,4848.79,-32540.4,0,32899.7,251854
step02_gravity_refstate-crust.xmf,975,1.37824e-06,-1.5765e-07,0,-4.51748e-06,-9.30788e+08,-9.30893e+08,-9.30882e+08,-309899,0.0198032,0.173829,0,0.174954,5615.89,-33891.6,0,34353.7,309899
step02_gravity_refstate-crust.xmf,976,-1.65876e-08,1.38808e-06,0,-6.06077e-06,-1.01271e+09,-1.01262e+09,-1.01271e+09,-415769,0.0243185,0.169067,0,0.170807,5978.76,-36870.9,0,37352.5,415769
step02_gravity_refstate-crust.xmf,977,8.62338e-07,2.72972e-07,0,-3.3902e-07,-3.83478e+08,-3.83518e+08,-3.83537e+08,-23256.8,0.00235049,0.17891,0,0.178925,2652.71,-13964.8,0,14214.5,23256.8
step02_gravity_refstate-crust.xmf,978,7.96655e-07,2.76546e-07,0,-3.14899e-07,-3.31769e+08,-3.31805e+08,-3.31824e+08,-21602.1,0.00233996,0.179331,0,0.179346,2853.12,-12082,0,12414.3,21602.1
step02_gravity_refstate-crust.xmf,979,1.3044e-06,-4.9505e-07,0,2.3967e-09,123905,462.916,34423.3,164.414,0.00321462,0.179684,0,0.179713,2432.35,0,0,2432.35,164.414
step02_gravity_refstate-crust.xmf,980,9.21131e-07,-6.16618e-08,0,-1.04013e-07,-1.12914e+08,-1.12981e+08,-1.12977e+08,-7135.32,0.00191565,0.180879,0,0.180889,2068.55,-4114.38,0,4605.11,7135.32
step02_gravity_refstate-crust.xmf,981,7.59828e-07,2.45883e-07,0,-2.85598e-07,-2.76388e+08,-2.76424e+08,-2.76441e+08,-19592.1,0.00238893,0.179765,0,0.17978,3049.87,-10065.7,0,10517.6,19592.1
step02_gravity_refstate-crust.xmf,982,7.59259e-07,1.78986e-07,0,-2.53898e-07,-2.19122e+08,-2.19162e+08,-2.19174e+08,-17417.4,0.00258236,0.180089,0,0.180107,3291.17,-7980.71,0,8632.7,17417.4
step02_gravity_refstate-crust.xmf,983,9.3002e-07,2.87303e-07,0,-5.71542e-07,-4.4888e+08,-4.48925e+08,-4.48944e+08,-39207.7,0.0037813,0.17738,0,0.17742,3810.51,-16346.2,0,16784.4,39207.7
step02_gravity_refstate-crust.xmf,984,1.0258e-06,2.34134e-07,0,-6.15128e-07,-4.90086e+08,-4.90141e+08,-4.90157e+08,-42197.8,0.00397941,0.177135,0,0.17718,3637.99,-17846.6,0,18213.6,42197.8
step02_gravity_refstate-crust.xmf,985,1.13879e-06,1.55179e-07,0,-6.57382e-07,-5.29991e+08,-5.30059e+08,-5.3007e+08,-45096.4,0.00416748,0.177033,0,0.177082,3438.19,-19299.7,0,19603.6,45096.4
step02_gravity_refstate-crust.xmf,986,-1.51927e-06,3.4625e-06,0,-7.03955e-06,-1.08333e+09,-1.08299e+09,-1.08323e+09,-482913,0.0254138,0.165679,0,0.167617,5779.66,-39439,0,39860.3,482913
step02_gravity_refstate-crust.xmf,987,1.12286e-06,2.18899e-07,0,-9.38125e-07,-5.58593e+08,-5.58655e+08,-5.5867e+08,-64355.4,0.00589012,0.175371,0,0.17547,4631.85,-20341,0,20861.7,64355.4
step02_gravity_refstate-crust.xmf,988,1.28513e-06,9.5634e-08,0,-1.15113e-06,-6.20222e+08,-6.20304e+08,-6.2031e+08,-78967.7,0.00703203,0.174885,0,0.175026,4698.06,-22585.1,0,23068.6,78967.7
step02_gravity_refstate-crust.xmf,989,1.42311e-06,-4.05599e-08,0,-1.25338e-06,-6.54917e+08,-6.55017e+08,-6.55014e+08,-85981.7,0.00746156,0.175202,0,0.175361,4497.36,-23848.6,0,24268.9,85981.7
step02_gravity_refstate-crust.xmf,990,1.5796e-06,-2.10663e-07,0,-1.36062e-06,-6.88253e+08,-6.88376e+08,-6.88362e+08,-93338.6,0.00785833,0.175786,0,0.175962,4271.21,-25062.6,0,25424,93338.6
step02_gravity_refstate-crust.xmf,991,1.94545e-06,-7.48212e-07,0,-3.26054e-06,-8.67446e+08,-8.67631e+08,-8.67579e+08,-223673,0.015325,0.176693,0,0.177356,4970.39,-31586.9,0,31975.6,223673
step02_gravity_refstate-crust.xmf,992,1.66522e-06,-2.82154e-07,0,-1.73523e-06,-7.33833e+08,-7.33966e+08,-7.33947e+08,-119037,0.00970461,0.175218,0,0.175487,4680.65,-26722.2,0,27129.1,119037
step02_gravity_refstate-crust.xmf,993,1.8476e-06,-5.6835e-07,0,-2.8968e-06,-8.39924e+08,-8.4009e+08,-8.40051e+08,-198721,0.0142755,0.175457,0,0.176037,5091.07,-30584.9,0,31005.7,198721
step02_gravity_refstate-crust.xmf,994,1.74586e-06,-4.03093e-07,0,-2.57431e-06,-8.11114e+08,-8.11261e+08,-8.11233e+08,-176597,0.0132551,0.174492,0,0.174995,5199.85,-29535.8,0,29990.1,176597
step02_gravity_refstate-crust.xmf,995,1.62626e-06,-2.30982e-07,0,-2.29743e-06,-7.80844e+08,-7.80972e+08,-7.80956e+08,-157604,0.0123444,0.173593,0,0.174032,5347.4,-28433.6,0,28932.1,157604
step02_gravity_refstate-crust.xmf,996,-1.2904e-06,3.18226e-06,0,-6.60445e-06,-1.06596e+09,-1.06566e+09,-1.06588e+09,-453065,0.02524,0.163412,0,0.165349,6088.73,-38807.2,0,39282,453065
step02_gravity_refstate-crust.xmf,997,1.53037e-06,-2.89627e-07,0,-4.10828e-06,-9.09506e+08,-9.09631e+08,-9.09611e+08,-281828,0.0185423,0.174066,0,0.175051,5556.91,-33117.2,0,33580.2,281828
step02_gravity_refstate-crust.xmf,998,-1.0073e-06,2.83948e-06,0,-6.2356e-06,-1.04706e+09,-1.04679e+09,-1.04699e+09,-427762,0.0249609,0.162272,0,0.164181,6336.52,-38119.5,0,38642.5,427762
step02_gravity_refstate-crust.xmf,999,2.59841e-07,1.15433e-06,0,-5.62573e-06,-9.91803e+08,-9.91742e+08,-9.91821e+08,-385925,0.0234609,0.168506,0,0.170132,6122.8,-36110.4,0,36625.8,385925
step02_gravity_refstate-crust.xmf,1000,5.03377e-07,9.24185e-07,0,-5.19243e-06,-9.70023e+08,-9.69994e+08,-9.70058e+08,-356201,0.0224963,0.168149,0,0.169647,6244.6,-35318.1,0,35865.9,356201
step02_gravity_refstate-crust.xmf,1001,7.07721e-07,7.3867e-07,0,-4.76181e-06,-9.46976e+08,-9.46974e+08,-9.47024e+08,-326660,0.0214351,0.1679,0,0.169263,6352.79,-34479.6,0,35060,326660
step02_gravity_refstate-crust.xmf,1002,-6.94781e-07,2.46649e-06,0,-5.88896e-06,-1.02676e+09,-1.02655e+09,-1.02671e+09,-403982,0.0245289,0.16188,0,0.163728,6533.8,-37381.3,0,37948,403982
step02_gravity_refstate-crust.xmf,1003,1.04859e-06,-2.43896e-07,0,-8.57738e-08,-5.49735e+07,-5.50622e+07,-5.50455e+07,-5884.08,0.00387725,0.17992,0,0.179962,3596.08,-2005.23,0,4117.38,5884.08
step02_gravity_refstate-crust.xmf,1004,8.03658e-07,7.1064e-08,0,-2.18227e-07,-1.59665e+08,-1.59715e+08,-1.5972e+08,-14970.4,0.00306821,0.180152,0,0.180178,3680.65,-5816.11,0,6882.9,14970.4
step02_gravity_refstate-crust.xmf,1005,8.47263e-07,3.21167e-07,0,-5.38619e-07,-4.06397e+08,-4.06433e+08,-4.06455e+08,-36949.2,0.00367658,0.177644,0,0.177682,4055.96,-14799.2,0,15344.9,36949.2
step02_gravity_refstate-crust.xmf,1006,1.16894e-06,2.08806e-07,0,-1.10022e-06,-5.91165e+08,-5.91231e+08,-5.91245e+08,-75475.3,0.00686505,0.174519,0,0.174654,5007.61,-21527,0,22101.8,75475.3
step02_gravity_refstate-crust.xmf,1007,1.53268e-06,-1.08414e-07,0,-2.0381e-06,-7.49441e+08,-7.49554e+08,-7.49546e+08,-139813,0.0113513,0.173206,0,0.173578,5407.68,-27290.2,0,27820.8,139813
step02_gravity_refstate-crust.xmf,1008,1.47249e-06,-5.16035e-08,0,-1.75298e-06,-7.14095e+08,-7.142e+08,-7.14196e+08,-120254,0.0100379,0.173554,0,0.173844,5257.42,-26003.2,0,26529.4,120254
step02_gravity_refstate-crust.xmf,1009,1.50825e-06,-1.89631e-07,0,-3.68843e-06,-8.84365e+08,-8.84481e+08,-8.84468e+08,-253026,0.0174778,0.172786,0,0.173668,5724.28,-32202,0,32706.8,253026
step02_gravity_refstate-crust.xmf,1010,9.0064e-07,5.49203e-07,0,-4.39223e-06,-9.25221e+08,-9.25245e+08,-9.25282e+08,-301307,0.0203594,0.168283,0,0.16951,6367.53,-33688.1,0,34284.6,301307
step02_gravity_refstate-crust.xmf,1011,-3.92651e-07,2.0872e-06,0,-5.5421e-06,-1.006e+09,-1.00583e+09,-1.00597e+09,-380188,0.023943,0.161807,0,0.163569,6698.84,-36626.1,0,37233.6,380188
step02_gravity_refstate-crust.xmf,1012,7.78879e-07,3.34043e-07,0,-5.09178e-07,-3.61833e+08,-3.61863e+08,-3.61886e+08,-34929.6,0.00364126,0.177931,0,0.177968,4349.92,-13176.6,0,13876,34929.6
step02_gravity_refstate-crust.xmf,1013,7.30229e-07,3.16008e-07,0,-4.64566e-07,-3.11005e+08,-3.11034e+08,-3.11055e+08,-31869.2,0.00360477,0.178342,0,0.178378,4588.47,-11325.9,0,12220.1,31869.2
step02_gravity_refstate-crust.xmf,1014,1.21586e-06,-4.62051e-07,0,1.88854e-09,115469,364.292,32061,129.554,0.00628827,0.17847,0,0.178581,4867.07,0,0,4867.07,129.554
step02_gravity_refstate-crust.xmf,1015,7.0934e-07,2.65086e-07,0,-4.12617e-07,-2.56452e+08,-2.56483e+08,-2.56501e+08,-28305.6,0.00367702,0.178742,0,0.17878,4816.86,-9339.69,0,10508.7,28305.6
step02_gravity_refstate-crust.xmf,1016,8.66129e-07,-4.71998e-08,0,-2.05163e-07,-1.08382e+08,-1.08444e+08,-1.08441e+08,-14074.2,0.00426733,0.179557,0,0.179608,4659.33,-3949.17,0,6107.81,14074.2
step02_gravity_refstate-crust.xmf,1017,7.23833e-07,1.79243e-07,0,-3.54077e-07,-1.99996e+08,-2.00034e+08,-2.00046e+08,-24289.7,0.00395053,0.179005,0,0.179049,5069.11,-7284.27,0,8874.48,24289.7
step02_gravity_refstate-crust.xmf,1018,8.10417e-07,4.00137e-07,0,-7.51613e-07,-4.31616e+08,-4.31644e+08,-4.31672e+08,-51560.7,0.0050716,0.175815,0,0.175888,5477.38,-15717.3,0,16644.4,51560.7
step02_gravity_refstate-crust.xmf,1019,8.97603e-07,3.6229e-07,0,-8.00552e-07,-4.73809e+08,-4.73845e+08,-4.7387e+08,-54917.9,0.00526213,0.175616,0,0.175695,5154.54,-17253.7,0,18007.2,54917.9
step02_gravity_refstate-crust.xmf,1020,9.96821e-07,3.07054e-07,0,-8.67446e-07,-5.1606e+08,-5.16107e+08,-5.16128e+08,-59506.8,0.00558351,0.175386,0,0.175475,4924.01,-18792.2,0,19426.6,59506.8
step02_gravity_refstate-crust.xmf,1021,-1.79237e-06,4.1606e-06,0,-6.21814e-06,-1.08237e+09,-1.08196e+09,-1.08225e+09,-426565,0.0242924,0.156062,0,0.157941,6473,-39404.1,0,39932.2,426565
step02_gravity_refstate-crust.xmf,1022,1.00783e-06,3.86733e-07,0,-1.21608e-06,-5.75026e+08,-5.75068e+08,-5.75095e+08,-83423.4,0.00770895,0.172799,0,0.172971,6065.94,-20939.1,0,21800,83423.4
step02_gravity_refstate-crust.xmf,1023,1.08853e-06,3.31775e-07,0,-1.32753e-06,-6.08266e+08,-6.08318e+08,-6.08341e+08,-91068.6,0.00828365,0.172562,0,0.17276,5960.82,-22149.4,0,22937.5,91068.6
step02_gravity_refstate-crust.xmf,1024,1.194e-06,2.39196e-07,0,-1.4435e-06,-6.4213e+08,-6.42195e+08,-6.42212e+08,-99024,0.00881268,0.172646,0,0.172871,5751.25,-23382.6,0,24079.5,99024
step02_gravity_refstate-crust.xmf,1025,1.31868e-06,1.16071e-07,0,-1.58509e-06,-6.77612e+08,-6.77694e+08,-6.77702e+08,-108737,0.00941499,0.172922,0,0.173178,5527.6,-24674.6,0,25286.2,108737
step02_gravity_refstate-crust.xmf,1026,1.47767e-06,-9.41015e-08,0,-3.30704e-06,-8.57564e+08,-8.57672e+08,-8.57666e+08,-226863,0.0163909,0.171813,0,0.172593,5873.13,-31226.3,0,31773.8,226863
step02_gravity_refstate-crust.xmf,1027,1.42587e-06,1.16382e-08,0,-2.96444e-06,-8.29249e+08,-8.29346e+08,-8.29347e+08,-203360,0.0153412,0.170981,0,0.171668,6031.73,-30195.4,0,30792,203360
step02_gravity_refstate-crust.xmf,1028,1.30108e-06,2.00177e-07,0,-2.38233e-06,-7.68585e+08,-7.6866e+08,-7.68674e+08,-163428,0.0133098,0.170035,0,0.170555,6316.25,-27986.7,0,28690.6,163428
step02_gravity_refstate-crust.xmf,1029,1.36676e-06,1.09668e-07,0,-2.65816e-06,-7.99702e+08,-7.99788e+08,-7.99795e+08,-182350,0.0143158,0.170398,0,0.170998,6178.61,-29119.6,0,29767.9,182350
step02_gravity_refstate-crust.xmf,1030,-1.5536e-06,3.8261e-06,0,-5.85091e-06,-1.06279e+09,-1.06242e+09,-1.06268e+09,-401372,0.0242313,0.154347,0,0.156237,6826.99,-38691.5,0,39289.2,401372
step02_gravity_refstate-crust.xmf,1031,1.00482e-06,4.75951e-07,0,-3.99535e-06,-9.00743e+08,-9.00779e+08,-9.00812e+08,-274081,0.0192492,0.167961,0,0.169061,6477.1,-32797.2,0,33430.7,274081
step02_gravity_refstate-crust.xmf,1032,-1.28192e-06,3.45975e-06,0,-5.57063e-06,-1.04263e+09,-1.04231e+09,-1.04255e+09,-382145,0.0241019,0.153978,0,0.155853,7083.63,-37958.3,0,38613.6,382145
step02_gravity_refstate-crust.xmf,1033,-1.10379e-07,1.80389e-06,0,-5.19647e-06,-9.84251e+08,-9.84119e+08,-9.84243e+08,-356478,0.02321,0.161971,0,0.163626,6837.35,-35835,0,36481.4,356478
step02_gravity_refstate-crust.xmf,1034,3.04936e-07,1.37499e-06,0,-4.50716e-06,-9.40693e+08,-9.40619e+08,-9.40714e+08,-309191,0.0215276,0.162079,0,0.163503,7110.56,-34250.2,0,34980.5,309191
step02_gravity_refstate-crust.xmf,1035,1.10692e-07,1.5732e-06,0,-4.85107e-06,-9.62986e+08,-9.62886e+08,-9.62994e+08,-332783,0.0224114,0.161968,0,0.163511,6980.7,-35061.4,0,35749.5,332783
step02_gravity_refstate-crust.xmf,1036,-9.69237e-07,3.04649e-06,0,-5.31068e-06,-1.02074e+09,-1.02046e+09,-1.02067e+09,-364313,0.0238219,0.154388,0,0.156215,7282.39,-37161.8,0,37868.6,364313
step02_gravity_refstate-crust.xmf,1037,9.15914e-07,-1.80781e-07,0,-1.58589e-07,-5.9029e+07,-5.91042e+07,-5.90918e+07,-10879.2,0.00655162,0.177997,0,0.178118,6370.33,-2152.43,0,6724.14,10879.2
step02_gravity_refstate-crust.xmf,1038,7.67933e-07,7.79597e-08,0,-2.97715e-07,-1.51292e+08,-1.51339e+08,-1.51344e+08,-20423.2,0.00442648,0.179021,0,0.179076,5339.96,-5511.15,0,7673.85,20423.2
step02_gravity_refstate-crust.xmf,1039,7.4048e-07,4.12597e-07,0,-6.99444e-07,-3.87695e+08,-3.87718e+08,-3.87746e+08,-47981.8,0.00489582,0.176128,0,0.176196,5770.17,-14118.1,0,15251.7,47981.8
step02_gravity_refstate-crust.xmf,1040,9.26967e-07,4.31154e-07,0,-1.11391e-06,-5.39526e+08,-5.3956e+08,-5.39589e+08,-76414.6,0.00717405,0.173107,0,0.173255,6192.85,-19646.4,0,20599.3,76414.6
step02_gravity_refstate-crust.xmf,1041,1.23622e-06,2.73235e-07,0,-2.12987e-06,-7.3562e+08,-7.35686e+08,-7.35705e+08,-146109,0.0122902,0.169961,0,0.170405,6419.81,-26786.4,0,27545,146109
step02_gravity_refstate-crust.xmf,1042,1.04739e-06,4.73162e-07,0,-3.62123e-06,-8.74896e+08,-8.74935e+08,-8.74968e+08,-248416,0.0181793,0.167386,0,0.16837,6638.99,-31856.4,0,32540.9,248416
step02_gravity_refstate-crust.xmf,1043,4.71485e-07,1.20705e-06,0,-4.16817e-06,-9.17215e+08,-9.17165e+08,-9.17248e+08,-285936,0.0205696,0.1623,0,0.163598,7226.5,-33395.9,0,34168.8,285936
step02_gravity_refstate-crust.xmf,1044,-6.86584e-07,2.66044e-06,0,-5.05117e-06,-9.99619e+08,-9.99389e+08,-9.99572e+08,-346510,0.0233865,0.154925,0,0.15668,7447.03,-36393.5,0,37147.6,346510
step02_gravity_refstate-crust.xmf,1045,1.0783e-06,-4.12287e-07,0,-1.42831e-09,102298,44.0321,28327,-97.9823,0.00909227,0.176503,0,0.176737,7310.9,0,0,7310.9,97.9823
step02_gravity_refstate-crust.xmf,1046,6.87014e-07,4.01277e-07,0,-6.46471e-07,-3.41628e+08,-3.41648e+08,-3.41675e+08,-44347.9,0.00479202,0.176474,0,0.176539,6072.63,-12440.7,0,13843.7,44347.9
step02_gravity_refstate-crust.xmf,1047,6.54517e-07,3.58832e-07,0,-5.8105e-07,-2.90287e+08,-2.90307e+08,-2.90332e+08,-39860,0.00475579,0.176906,0,0.176969,6333.74,-10571.4,0,12323.6,39860
step02_gravity_refstate-crust.xmf,1048,6.50441e-07,2.8275e-07,0,-5.04325e-07,-2.35044e+08,-2.3507e+08,-2.35089e+08,-34596.7,0.00488067,0.177317,0,0.177384,6561.85,-8560.09,0,10785.8,34596.7
step02_gravity_refstate-crust.xmf,1049,7.59411e-07,2.96992e-08,0,-3.08804e-07,-1.23343e+08,-1.23394e+08,-1.23396e+08,-21183.9,0.00575739,0.177859,0,0.177952,6705.61,-4493.56,0,8072,21183.9
step02_gravity_refstate-crust.xmf,1050,6.80253e-07,1.76868e-07,0,-4.18836e-07,-1.80127e+08,-1.80161e+08,-1.80173e+08,-28732.1,0.00522952,0.177599,0,0.177676,6742.19,-6560.72,0,9407.45,28732.1
step02_gravity_refstate-crust.xmf,1051,6.8257e-07,5.19609e-07,0,-8.90972e-07,-4.14692e+08,-4.14703e+08,-4.14739e+08,-61120.7,0.00614703,0.173829,0,0.173938,7160.96,-15100.8,0,16712.7,61120.7
step02_gravity_refstate-crust.xmf,1052,7.51422e-07,5.14065e-07,0,-9.70084e-07,-4.59893e+08,-4.5991e+08,-4.59945e+08,-66547.8,0.00649712,0.173406,0,0.173527,6869.79,-16746.7,0,18101,66547.8
step02_gravity_refstate-crust.xmf,1053,8.35927e-07,4.80214e-07,0,-1.04168e-06,-5.01704e+08,-5.01728e+08,-5.01761e+08,-71459.5,0.00682404,0.173213,0,0.173348,6508.42,-18269.1,0,19393.8,71459.5
step02_gravity_refstate-crust.xmf,1054,-1.95188e-06,4.66428e-06,0,-5.47013e-06,-1.0806e+09,-1.08015e+09,-1.08047e+09,-375251,0.0229957,0.146998,0,0.148786,7203.53,-39339.7,0,39993.8,375251
step02_gravity_refstate-crust.xmf,1055,8.23975e-07,5.94079e-07,0,-1.32771e-06,-5.59013e+08,-5.59029e+08,-5.5907e+08,-91081.1,0.00859961,0.170449,0,0.170666,7392.33,-20355.7,0,21656.4,91081.1
step02_gravity_refstate-crust.xmf,1056,8.92003e-07,5.6147e-07,0,-1.44114e-06,-5.93593e+08,-5.93615e+08,-5.93654e+08,-98862.4,0.00919219,0.170109,0,0.170358,7210.18,-21614.8,0,22785.7,98862.4
step02_gravity_refstate-crust.xmf,1057,9.67572e-07,5.14365e-07,0,-1.573e-06,-6.28704e+08,-6.28735e+08,-6.28771e+08,-107908,0.00985303,0.169861,0,0.170146,7019.54,-22893.3,0,23945.3,107908
step02_gravity_refstate-crust.xmf,1058,1.0546e-06,4.4759e-07,0,-1.73233e-06,-6.65319e+08,-6.6536e+08,-6.65391e+08,-118838,0.0106037,0.169747,0,0.170078,6810.13,-24226.6,0,25165.5,118838
step02_gravity_refstate-crust.xmf,1059,1.1514e-06,3.57691e-07,0,-1.91185e-06,-7.0096e+08,-7.01014e+08,-7.01039e+08,-131153,0.0113784,0.16987,0,0.170251,6578.22,-25524.3,0,26358.4,131153
step02_gravity_refstate-crust.xmf,1060,1.05001e-06,5.08192e-07,0,-3.27655e-06,-8.47384e+08,-8.47421e+08,-8.47456e+08,-224772,0.0171371,0.166774,0,0.167653,6834.79,-30854.9,0,31602.8,224772
step02_gravity_refstate-crust.xmf,1061,1.03539e-06,5.52673e-07,0,-2.96707e-06,-8.18793e+08,-8.18826e+08,-8.18864e+08,-203541,0.0161262,0.166323,0,0.167103,7033.66,-29814,0,30632.5,203541
step02_gravity_refstate-crust.xmf,1062,9.81129e-07,6.26383e-07,0,-2.42315e-06,-7.56656e+08,-7.5668e+08,-7.56723e+08,-166228,0.014101,0.166125,0,0.166723,7391.3,-27551.8,0,28526,166228
step02_gravity_refstate-crust.xmf,1063,1.01543e-06,5.87667e-07,0,-2.682e-06,-7.88571e+08,-7.886e+08,-7.88641e+08,-183985,0.0151011,0.166161,0,0.166846,7208.41,-28713.7,0,29604.7,183985
step02_gravity_refstate-crust.xmf,1064,-1.77018e-06,4.42335e-06,0,-5.10837e-06,-1.06175e+09,-1.06133e+09,-1.06163e+09,-350434,0.0228852,0.144875,0,0.146672,7652.04,-38653.8,0,39403.9,350434
step02_gravity_refstate-crust.xmf,1065,5.91264e-07,1.09327e-06,0,-3.82567e-06,-8.92022e+08,-8.91988e+08,-8.92063e+08,-262441,0.0195591,0.162335,0,0.163509,7375.03,-32479,0,33305.8,262441
step02_gravity_refstate-crust.xmf,1066,-1.44262e-06,3.90201e-06,0,-4.95445e-06,-1.03668e+09,-1.03632e+09,-1.03659e+09,-339875,0.0230823,0.14631,0,0.148119,7870.02,-37741.7,0,38553.5,339875
step02_gravity_refstate-crust.xmf,1067,-4.70741e-08,1.95181e-06,0,-4.203e-06,-9.33602e+08,-9.33465e+08,-9.33599e+08,-288326,0.0213644,0.156007,0,0.157464,7959.62,-33991.6,0,34911.1,288326
step02_gravity_refstate-crust.xmf,1068,-4.5097e-07,2.41104e-06,0,-4.77357e-06,-9.78485e+08,-9.78289e+08,-9.78454e+08,-327467,0.02281,0.155202,0,0.156869,7627.7,-35624.6,0,36432.1,327467
step02_gravity_refstate-crust.xmf,1069,-2.38337e-07,2.16645e-06,0,-4.49516e-06,-9.56849e+08,-9.56684e+08,-9.56833e+08,-308368,0.0221421,0.155586,0,0.157154,7792.53,-34837.4,0,35698.3,308368
step02_gravity_refstate-crust.xmf,1070,-1.16442e-06,3.5003e-06,0,-4.77117e-06,-1.01449e+09,-1.01417e+09,-1.01441e+09,-327302,0.0229564,0.14733,0,0.149107,8066.29,-36934.4,0,37804.9,327302
step02_gravity_refstate-crust.xmf,1071,8.51947e-07,-2.05838e-07,0,-1.46042e-07,-4.09937e+07,-4.10663e+07,-4.10521e+07,-10018.5,0.00894618,0.175691,0,0.175919,8540.96,-1495.54,0,8670.91,10018.5
step02_gravity_refstate-crust.xmf,1072,6.2712e-07,5.05881e-07,0,-8.21239e-07,-3.68944e+08,-3.68953e+08,-3.68987e+08,-56337,0.00592519,0.174202,0,0.174303,7503.03,-13435.1,0,15388.2,56337
step02_gravity_refstate-crust.xmf,1073,8.87951e-07,-3.39313e-07,0,-2.15446e-09,84248.1,57.7657,23334.7,-147.796,0.0115209,0.173867,0,0.174248,9771.03,0,0,9771.03,147.796
step02_gravity_refstate-crust.xmf,1074,7.63298e-07,6.21724e-07,0,-1.23788e-06,-5.27501e+08,-5.2751e+08,-5.27553e+08,-84918.5,0.00813816,0.170746,0,0.17094,7591.02,-19208.2,0,20653.8,84918.5
step02_gravity_refstate-crust.xmf,1075,9.35241e-07,6.65829e-07,0,-2.19235e-06,-7.23322e+08,-7.2334e+08,-7.23386e+08,-150395,0.0131424,0.16621,0,0.166729,7583.85,-26338.1,0,27408.2,150395
step02_gravity_refstate-crust.xmf,1076,6.64103e-07,1.02837e-06,0,-3.50311e-06,-8.65582e+08,-8.65557e+08,-8.65628e+08,-240313,0.0185416,0.162283,0,0.163339,7548.94,-31516.7,0,32408.1,240313
step02_gravity_refstate-crust.xmf,1077,1.28407e-07,1.74772e-06,0,-3.91977e-06,-9.09288e+08,-9.09177e+08,-9.09297e+08,-268896,0.0205108,0.156653,0,0.15799,8096.31,-33106.8,0,34082.4,268896
step02_gravity_refstate-crust.xmf,1078,-9.17555e-07,3.14029e-06,0,-4.58489e-06,-9.93788e+08,-9.9351e+08,-9.93725e+08,-314523,0.0226686,0.148268,0,0.149991,8234.87,-36181,0,37106.3,314523
step02_gravity_refstate-crust.xmf,1079,7.16925e-07,-9.91087e-09,0,-3.04175e-07,-9.50612e+07,-9.5111e+07,-9.51103e+07,-20866.4,0.00760822,0.175877,0,0.176041,8565.32,-3463.68,0,9239.14,20866.4
step02_gravity_refstate-crust.xmf,1080,5.88948e-07,4.67118e-07,0,-7.48083e-07,-3.20878e+08,-3.20886e+08,-3.20918e+08,-51318.5,0.00580052,0.174614,0,0.17471,7828.58,-11685,0,14065.1,51318.5
step02_gravity_refstate-crust.xmf,1081,5.72585e-07,3.98039e-07,0,-6.63434e-07,-2.68802e+08,-2.68813e+08,-2.68841e+08,-45511.6,0.00580866,0.175075,0,0.175172,8106.22,-9788.92,0,12709.6,45511.6
step02_gravity_refstate-crust.xmf,1082,5.84192e-07,2.96808e-07,0,-5.64544e-07,-2.13492e+08,-2.13511e+08,-2.13532e+08,-38727.7,0.00603457,0.175512,0,0.175616,8318.93,-7775.19,0,11386.8,38727.7
step02_gravity_refstate-crust.xmf,1083,6.29907e-07,1.61084e-07,0,-4.47347e-07,-1.55365e+08,-1.55397e+08,-1.55408e+08,-30688,0.00660471,0.175792,0,0.175916,8493.23,-5659,0,10205.8,30688
step02_gravity_refstate-crust.xmf,1084,6.41602e-07,-6.56222e-08,0,-2.45568e-07,-6.19745e+07,-6.2023e+07,-6.20185e+07,-16845.9,0.00999912,0.173022,0,0.17331,10795.4,-2258.74,0,11029.1,16845.9
step02_gravity_refstate-crust.xmf,1085,5.49704e-07,6.38102e-07,0,-9.9125e-07,-3.96875e+08,-3.96869e+08,-3.96913e+08,-67999.8,0.00702727,0.171446,0,0.17159,8911.92,-14451.8,0,16978.8,67999.8
step02_gravity_refstate-crust.xmf,1086,5.98056e-07,6.66551e-07,0,-1.08396e-06,-4.43055e+08,-4.4305e+08,-4.43096e+08,-74359.3,0.00742441,0.170891,0,0.171052,8592.19,-16133.3,0,18278.7,74359.3
step02_gravity_refstate-crust.xmf,1087,6.58893e-07,6.89632e-07,0,-1.20983e-06,-4.94527e+08,-4.94525e+08,-4.94572e+08,-82994.5,0.00807037,0.170089,0,0.17028,8334.5,-18007.5,0,19842.7,82994.5
step02_gravity_refstate-crust.xmf,1088,-2.07494e-06,5.08826e-06,0,-4.90336e-06,-1.08327e+09,-1.08278e+09,-1.08313e+09,-336370,0.0216586,0.139481,0,0.141152,7802.38,-39437.1,0,40201.5,336370
step02_gravity_refstate-crust.xmf,1089,6.47186e-07,7.88749e-07,0,-1.39356e-06,-5.41053e+08,-5.41043e+08,-5.41097e+08,-95598.5,0.00923665,0.16794,0,0.168194,8767.23,-19701.4,0,21564.1,95598.5
step02_gravity_refstate-crust.xmf,1090,6.99136e-07,7.83755e-07,0,-1.5141e-06,-5.78024e+08,-5.78019e+08,-5.78072e+08,-103867,0.00988202,0.167429,0,0.16772,8528.32,-21047.6,0,22709.8,103867
step02_gravity_refstate-crust.xmf,1091,7.52725e-07,7.73682e-07,0,-1.65311e-06,-6.15209e+08,-6.15207e+08,-6.1526e+08,-113403,0.0106209,0.166911,0,0.167249,8310.73,-22401.5,0,23893.4,113403
step02_gravity_refstate-crust.xmf,1092,8.11696e-07,7.50214e-07,0,-1.81213e-06,-6.5241e+08,-6.52414e+08,-6.52466e+08,-124312,0.0114223,0.166518,0,0.16691,8073.66,-23756.1,0,25090.6,124312
step02_gravity_refstate-crust.xmf,1093,8.74332e-07,7.12782e-07,0,-1.99155e-06,-6.88719e+08,-6.8873e+08,-6.88779e+08,-136620,0.0122666,0.166289,0,0.16674,7824.92,-25078.2,0,26270.6,136620
step02_gravity_refstate-crust.xmf,1094,6.5467e-07,1.07358e-06,0,-3.19403e-06,-8.37885e+08,-8.37856e+08,-8.3793e+08,-219110,0.0176344,0.161437,0,0.162397,7892.12,-30508.3,0,31512.6,219110
step02_gravity_refstate-crust.xmf,1095,6.8048e-07,1.05124e-06,0,-2.91214e-06,-8.08439e+08,-8.08413e+08,-8.08485e+08,-199773,0.0166293,0.161508,0,0.162362,8104.48,-29436.4,0,30531.7,199773
step02_gravity_refstate-crust.xmf,1096,6.94427e-07,1.01065e-06,0,-2.41156e-06,-7.44538e+08,-7.44517e+08,-7.44586e+08,-165433,0.0146061,0.162187,0,0.162843,8502.06,-27110,0,28412,165433
step02_gravity_refstate-crust.xmf,1097,6.94717e-07,1.02847e-06,0,-2.6516e-06,-7.7738e+08,-7.77357e+08,-7.77428e+08,-181900,0.0156156,0.161782,0,0.162534,8303.02,-28305.7,0,29498.4,181900
step02_gravity_refstate-crust.xmf,1098,-1.77684e-06,4.62571e-06,0,-4.50056e-06,-1.05222e+09,-1.05178e+09,-1.05209e+09,-308739,0.0217449,0.137809,0,0.139514,8472.68,-38307,0,39232.8,308739
step02_gravity_refstate-crust.xmf,1099,2.51584e-07,1.59721e-06,0,-3.63067e-06,-8.83018e+08,-8.82925e+08,-8.83035e+08,-249064,0.0195771,0.157062,0,0.158277,8278.06,-32150.6,0,33199.2,249064
step02_gravity_refstate-crust.xmf,1100,-1.52633e-06,4.20081e-06,0,-4.41124e-06,-1.02955e+09,-1.02916e+09,-1.02944e+09,-302611,0.0220122,0.139562,0,0.141287,8666.12,-37482.1,0,38470.9,302611
step02_gravity_refstate-crust.xmf,1101,-3.16446e-07,2.41446e-06,0,-3.88548e-06,-9.25712e+08,-9.25524e+08,-9.2569e+08,-266544,0.0209648,0.150314,0,0.151769,8831.64,-33703.9,0,34841.8,266544
step02_gravity_refstate-crust.xmf,1102,-5.31009e-07,2.68945e-06,0,-4.11416e-06,-9.50587e+08,-9.50366e+08,-9.50551e+08,-282231,0.0216316,0.149063,0,0.150624,8690.04,-34609.1,0,35683.4,282231
step02_gravity_refstate-crust.xmf,1103,-7.28526e-07,2.92789e-06,0,-4.35373e-06,-9.7341e+08,-9.7316e+08,-9.7336e+08,-298666,0.0222025,0.148464,0,0.150115,8473.73,-35439.6,0,36438.5,298666
step02_gravity_refstate-crust.xmf,1104,-1.28656e-06,3.82935e-06,0,-4.28768e-06,-1.00759e+09,-1.00724e+09,-1.0075e+09,-294135,0.0220066,0.14101,0,0.142716,8858.52,-36683,0,37737.5,294135
step02_gravity_refstate-crust.xmf,1105,5.11568e-07,5.93546e-07,0,-9.05213e-07,-3.4972e+08,-3.49714e+08,-3.49755e+08,-62097.6,0.00677744,0.171925,0,0.172058,9270.78,-12734.9,0,15752,62097.6
step02_gravity_refstate-crust.xmf,1106,6.69816e-07,-2.55646e-07,0,-4.61902e-09,63564.8,78.1005,17615.4,-316.865,0.0134639,0.170669,0,0.1712,12254.7,0,0,12254.7,316.865
step02_gravity_refstate-crust.xmf,1107,-2.01253e-06,5.09912e-06,0,-4.49982e-06,-1.07447e+09,-1.07398e+09,-1.07433e+09,-308688,0.0210287,0.135193,0,0.136818,8344.98,-39116.7,0,39997,308688
step02_gravity_refstate-crust.xmf,1108,6.75435e-07,1.00579e-06,0,-2.20137e-06,-7.11229e+08,-7.11206e+08,-7.11275e+08,-151014,0.0136695,0.162576,0,0.16315,8727.44,-25897.3,0,27328.3,151014
step02_gravity_refstate-crust.xmf,1109,2.27531e-07,1.67703e-06,0,-3.32775e-06,-8.58338e+08,-8.58239e+08,-8.58354e+08,-228284,0.0188089,0.155458,0,0.156591,8795.89,-31252.2,0,32466.4,228284
step02_gravity_refstate-crust.xmf,1110,-1.40212e-07,2.18099e-06,0,-3.68805e-06,-9.032e+08,-9.03041e+08,-9.03191e+08,-253000,0.0203036,0.151633,0,0.152986,8912.57,-32884.7,0,34071.1,253000
step02_gravity_refstate-crust.xmf,1111,-1.0808e-06,3.51494e-06,0,-4.18134e-06,-9.88602e+08,-9.88287e+08,-9.88528e+08,-286840,0.0218789,0.142399,0,0.14407,8992.04,-35992.1,0,37098.4,286840
step02_gravity_refstate-crust.xmf,1112,5.51841e-07,1.48333e-07,0,-4.48152e-07,-1.30003e+08,-1.30031e+08,-1.30041e+08,-30743.2,0.0081625,0.173343,0,0.173535,10483.8,-4735.35,0,11503.7,30743.2
step02_gravity_refstate-crust.xmf,1113,4.87693e-07,5.26698e-07,0,-8.15975e-07,-3.00054e+08,-3.00052e+08,-3.00088e+08,-55975.9,0.00668564,0.172374,0,0.172503,9636.59,-10926.6,0,14568.9,55975.9
step02_gravity_refstate-crust.xmf,1114,4.84782e-07,4.30401e-07,0,-7.13581e-07,-2.46747e+08,-2.4675e+08,-2.4678e+08,-48951.6,0.00679355,0.172848,0,0.172981,9944.53,-8985.69,0,13402.8,48951.6
step02_gravity_refstate-crust.xmf,1115,5.05885e-07,3.03994e-07,0,-5.93041e-07,-1.89834e+08,-1.89848e+08,-1.89869e+08,-40682.6,0.00723314,0.173212,0,0.173363,10223.1,-6913.62,0,12341.4,40682.6
step02_gravity_refstate-crust.xmf,1116,4.69421e-07,-1.33973e-08,0,-2.47156e-07,-5.57644e+07,-5.57975e+07,-5.57966e+07,-16954.9,0.0116895,0.16925,0,0.169653,13420.1,-2032.04,0,13573.1,16954.9
step02_gravity_refstate-crust.xmf,1117,4.23422e-07,7.41351e-07,0,-1.05011e-06,-3.78779e+08,-3.78757e+08,-3.78808e+08,-72037.3,0.00768141,0.168857,0,0.169032,10651.2,-13792.7,0,17426.6,72037.3
step02_gravity_refstate-crust.xmf,1118,4.53238e-07,7.99707e-07,0,-1.14874e-06,-4.24604e+08,-4.2458e+08,-4.24635e+08,-78803.7,0.0080742,0.168193,0,0.168387,10315.7,-15461.2,0,18586.6,78803.7
step02_gravity_refstate-crust.xmf,1119,4.83644e-07,8.5526e-07,0,-1.26236e-06,-4.70675e+08,-4.70649e+08,-4.70708e+08,-86598.1,0.00865301,0.167285,0,0.167509,10071.6,-17138.7,0,19878.9,86598.1
step02_gravity_refstate-crust.xmf,1120,5.07412e-07,9.20475e-07,0,-1.40216e-06,-5.18485e+08,-5.18457e+08,-5.1852e+08,-96188.3,0.00945929,0.166003,0,0.166272,9947.71,-18879.4,0,21339.9,96188.3
step02_gravity_refstate-crust.xmf,1121,5.22528e-07,9.8304e-07,0,-1.54821e-06,-5.61961e+08,-5.61929e+08,-5.61997e+08,-106207,0.0103337,0.164679,0,0.165003,9869.16,-20462.4,0,22718,106207
step02_gravity_refstate-crust.xmf,1122,5.52928e-07,1.01159e-06,0,-1.68985e-06,-6.0105e+08,-6.01019e+08,-6.01088e+08,-115924,0.011132,0.163845,0,0.164223,9641.33,-21885.6,0,23915.2,115924
step02_gravity_refstate-crust.xmf,1123,5.89551e-07,1.02459e-06,0,-1.84516e-06,-6.39279e+08,-6.39249e+08,-6.39319e+08,-126578,0.0119629,0.163204,0,0.163642,9363.57,-23277.6,0,25090.3,126578
step02_gravity_refstate-crust.xmf,1124,6.35982e-07,1.01518e-06,0,-2.01319e-06,-6.76021e+08,-6.75995e+08,-6.76065e+08,-138105,0.012792,0.16287,0,0.163372,9026.37,-24615.4,0,26218.2,138105
step02_gravity_refstate-crust.xmf,1125,3.14346e-07,1.57228e-06,0,-3.06074e-06,-8.28738e+08,-8.28651e+08,-8.28759e+08,-209967,0.0178247,0.156094,0,0.157108,9001.07,-30174.7,0,31488.6,209967
step02_gravity_refstate-crust.xmf,1126,3.8093e-07,1.47801e-06,0,-2.8088e-06,-7.97777e+08,-7.97701e+08,-7.97803e+08,-192683,0.0168221,0.156823,0,0.157723,9201.37,-29047.7,0,30470.2,192683
step02_gravity_refstate-crust.xmf,1127,4.49854e-07,1.33919e-06,0,-2.35737e-06,-7.31857e+08,-7.31796e+08,-7.31887e+08,-161715,0.01483,0.158396,0,0.159089,9623.24,-26647.9,0,28332.2,161715
step02_gravity_refstate-crust.xmf,1128,4.25375e-07,1.40076e-06,0,-2.5716e-06,-7.65123e+08,-7.65056e+08,-7.65152e+08,-176412,0.0158088,0.1576,0,0.158391,9410.31,-27859,0,29405.4,176412
step02_gravity_refstate-crust.xmf,1129,-1.97105e-06,5.17969e-06,0,-4.03424e-06,-1.06658e+09,-1.06609e+09,-1.06645e+09,-276749,0.0200482,0.129673,0,0.131214,9045.29,-38830,0,39869.6,276749
step02_gravity_refstate-crust.xmf,1130,-1.78131e-06,4.80463e-06,0,-3.97985e-06,-1.04485e+09,-1.0444e+09,-1.04473e+09,-273018,0.0205526,0.131337,0,0.132935,9290.3,-38039,0,39157.1,273018
step02_gravity_refstate-crust.xmf,1131,-2.00748e-07,2.32067e-06,0,-3.40314e-06,-8.83817e+08,-8.83644e+08,-8.83803e+08,-233456,0.0196317,0.149014,0,0.150302,9580.58,-32179,0,33574.9,233456
step02_gravity_refstate-crust.xmf,1132,-1.56648e-06,4.42005e-06,0,-3.91966e-06,-1.0219e+09,-1.02149e+09,-1.0218e+09,-268888,0.0208776,0.133311,0,0.134936,9502.94,-37203.9,0,38398.4,268888
step02_gravity_refstate-crust.xmf,1133,-4.94529e-07,2.74629e-06,0,-3.56326e-06,-9.15116e+08,-9.14894e+08,-9.15082e+08,-244440,0.0203567,0.145342,0,0.14676,9710.11,-33318,0,34704.1,244440
step02_gravity_refstate-crust.xmf,1134,-7.24114e-07,3.07118e-06,0,-3.74175e-06,-9.42556e+08,-9.42295e+08,-9.42506e+08,-256684,0.0209164,0.143231,0,0.14475,9597.35,-34316.5,0,35633.3,256684
step02_gravity_refstate-crust.xmf,1135,-9.98993e-07,3.47018e-06,0,-3.90077e-06,-9.71279e+08,-9.70972e+08,-9.7121e+08,-267593,0.0213202,0.140811,0,0.142416,9466.07,-35361.7,0,36606.8,267593
step02_gravity_refstate-crust.xmf,1136,-1.327e-06,4.01909e-06,0,-3.85027e-06,-9.97206e+08,-9.96839e+08,-9.97115e+08,-264128,0.0210321,0.135701,0,0.137321,9670.82,-36305.1,0,37571.1,264128
step02_gravity_refstate-crust.xmf,1137,4.4905e-07,1.51583e-07,0,-4.36871e-07,-1.12128e+08,-1.12148e+08,-1.12158e+08,-29969.3,0.00957977,0.170434,0,0.170703,12544.9,-4084.17,0,13193,29969.3
step02_gravity_refstate-crust.xmf,1138,3.98226e-07,6.70598e-07,0,-9.55202e-07,-3.31017e+08,-3.30998e+08,-3.31044e+08,-65526.9,0.00746658,0.169352,0,0.169516,11067.4,-12053.6,0,16363.9,65526.9
step02_gravity_refstate-crust.xmf,1139,4.25547e-07,-1.63404e-07,0,-4.98578e-09,40342,-60.0566,11149.5,-342.025,0.0148511,0.167034,0,0.167693,14769.1,0,0,14769.1,342.025
step02_gravity_refstate-crust.xmf,1140,-2.10828e-06,5.50314e-06,0,-4.03788e-06,-1.08414e+09,-1.08362e+09,-1.084e+09,-276999,0.0193545,0.127907,0,0.129363,8876.65,-39469.3,0,40455.2,276999
step02_gravity_refstate-crust.xmf,1141,4.46384e-07,1.30383e-06,0,-2.16805e-06,-6.98322e+08,-6.98263e+08,-6.98352e+08,-148728,0.0139299,0.158982,0,0.159591,9902.67,-25426.9,0,27287.2,148728
step02_gravity_refstate-crust.xmf,1142,-6.67523e-08,2.13734e-06,0,-3.12219e-06,-8.50407e+08,-8.50256e+08,-8.50403e+08,-214182,0.018639,0.149892,0,0.151046,9896.65,-30963,0,32506.1,214182
step02_gravity_refstate-crust.xmf,1143,3.21296e-07,1.88427e-07,0,-4.34626e-07,-1.04601e+08,-1.0461e+08,-1.04623e+08,-29815.4,0.0105777,0.167215,0,0.167549,14615,-3809.7,0,15103.4,29815.4
step02_gravity_refstate-crust.xmf,1144,4.1168e-07,3.12938e-07,0,-5.95361e-07,-1.68203e+08,-1.6821e+08,-1.68231e+08,-40841.8,0.00838249,0.170513,0,0.170719,12185.5,-6125.74,0,13638.6,40841.8
step02_gravity_refstate-crust.xmf,1145,3.85e-07,5.77011e-07,0,-8.52222e-07,-2.7974e+08,-2.79727e+08,-2.79766e+08,-58462.5,0.00745223,0.169793,0,0.169957,11495.8,-10186.7,0,15359.7,58462.5
step02_gravity_refstate-crust.xmf,1146,3.87972e-07,4.55562e-07,0,-7.33211e-07,-2.24317e+08,-2.24312e+08,-2.24343e+08,-50298.3,0.00773972,0.170148,0,0.170324,11918.8,-8168.74,0,14449.5,50298.3
step02_gravity_refstate-crust.xmf,1147,3.05161e-07,8.27639e-07,0,-1.07477e-06,-3.60781e+08,-3.60745e+08,-3.60802e+08,-73729,0.00815232,0.166098,0,0.166298,12401.9,-13137.1,0,18066.3,73729
step02_gravity_refstate-crust.xmf,1148,2.698e-07,6.5215e-08,0,-2.59435e-07,-5.56414e+07,-5.56554e+07,-5.56599e+07,-17797.2,0.0125924,0.165465,0,0.165944,15838.5,-2026.87,0,15967.7,17797.2
step02_gravity_refstate-crust.xmf,1149,3.25242e-07,9.08719e-07,0,-1.17703e-06,-4.07353e+08,-4.07313e+08,-4.07375e+08,-80744.4,0.00849842,0.165455,0,0.165673,11977.6,-14832.8,0,19065,80744.4
step02_gravity_refstate-crust.xmf,1150,3.41397e-07,9.88933e-07,0,-1.28755e-06,-4.53068e+08,-4.53023e+08,-4.53091e+08,-88326.2,0.00903264,0.164486,0,0.164734,11682,-16497.3,0,20214.6,88326.2
step02_gravity_refstate-crust.xmf,1151,3.54477e-07,1.07154e-06,0,-1.41284e-06,-4.99507e+08,-4.99457e+08,-4.99531e+08,-96920.7,0.0097394,0.163267,0,0.163557,11445.6,-18188.1,0,21489.8,96920.7
step02_gravity_refstate-crust.xmf,1152,3.6659e-07,1.14777e-06,0,-1.54676e-06,-5.43979e+08,-5.43926e+08,-5.44004e+08,-106108,0.0105377,0.162023,0,0.162366,11214.9,-19807.4,0,22761.9,106108
step02_gravity_refstate-crust.xmf,1153,3.71983e-07,1.22281e-06,0,-1.69019e-06,-5.86164e+08,-5.86106e+08,-5.8619e+08,-115947,0.0114054,0.160723,0,0.161127,11015.5,-21343.3,0,24018.3,115947
step02_gravity_refstate-crust.xmf,1154,3.82151e-07,1.2816e-06,0,-1.84605e-06,-6.27012e+08,-6.2695e+08,-6.27038e+08,-126639,0.0123055,0.159637,0,0.16011,10742.2,-22830.5,0,25231.5,126639
step02_gravity_refstate-crust.xmf,1155,4.07886e-07,1.30467e-06,0,-2.00536e-06,-6.64325e+08,-6.64263e+08,-6.64353e+08,-137567,0.0131429,0.159115,0,0.159657,10343,-24189.1,0,26307.6,137567
step02_gravity_refstate-crust.xmf,1156,5.22106e-08,1.96485e-06,0,-2.89293e-06,-8.18852e+08,-8.18721e+08,-8.18856e+08,-198455,0.0176997,0.151218,0,0.15225,10092.5,-29814.4,0,31476.3,198455
step02_gravity_refstate-crust.xmf,1157,2.495e-07,1.60655e-06,0,-2.27203e-06,-7.18013e+08,-7.1792e+08,-7.18031e+08,-155861,0.0148005,0.154908,0,0.155613,10737.8,-26143.5,0,28262.7,155861
step02_gravity_refstate-crust.xmf,1158,1.37028e-07,1.82971e-06,0,-2.67163e-06,-7.86329e+08,-7.86213e+08,-7.86338e+08,-183274,0.016739,0.152395,0,0.153311,10316.6,-28630.5,0,30432.5,183274
step02_gravity_refstate-crust.xmf,1159,2.01505e-07,1.71211e-06,0,-2.46365e-06,-7.5259e+08,-7.52486e+08,-7.52604e+08,-169006,0.0157659,0.153618,0,0.154425,10536,-27402.3,0,29358,169006
step02_gravity_refstate-crust.xmf,1160,-2.06796e-06,5.62003e-06,0,-3.58593e-06,-1.08133e+09,-1.08081e+09,-1.08119e+09,-245995,0.0180808,0.121832,0,0.123167,9577.03,-39367.4,0,40515.6,245995
step02_gravity_refstate-crust.xmf,1161,-1.93271e-06,5.29763e-06,0,-3.54169e-06,-1.06089e+09,-1.06039e+09,-1.06075e+09,-242960,0.0187245,0.123217,0,0.124631,9878.98,-38623,0,39866.4,242960
step02_gravity_refstate-crust.xmf,1162,-1.76496e-06,4.94404e-06,0,-3.50674e-06,-1.03808e+09,-1.03762e+09,-1.03796e+09,-240562,0.0192808,0.125145,0,0.126622,10155,-37792.7,0,39133.3,240562
step02_gravity_refstate-crust.xmf,1163,-4.33391e-07,2.71465e-06,0,-3.08799e-06,-8.72889e+08,-8.72673e+08,-8.7286e+08,-211836,0.018982,0.142998,0,0.144252,10786.4,-31780.9,0,33561.4,211836
step02_gravity_refstate-crust.xmf,1164,-1.56693e-06,4.56038e-06,0,-3.49148e-06,-1.01345e+09,-1.01302e+09,-1.01334e+09,-239515,0.0197556,0.127829,0,0.129346,10351.8,-36896.2,0,38320.9,239515
step02_gravity_refstate-crust.xmf,1165,-6.28816e-07,3.00938e-06,0,-3.25422e-06,-9.03821e+08,-9.03571e+08,-9.03778e+08,-223240,0.0196249,0.140633,0,0.141996,10642.9,-32906.6,0,34584.9,223240
step02_gravity_refstate-crust.xmf,1166,-8.48761e-07,3.3425e-06,0,-3.38977e-06,-9.32932e+08,-9.32645e+08,-9.32874e+08,-232538,0.0200751,0.13804,0,0.139492,10524.3,-33966.1,0,35559.2,232538
step02_gravity_refstate-crust.xmf,1167,-1.0766e-06,3.69953e-06,0,-3.49042e-06,-9.60147e+08,-9.59819e+08,-9.60073e+08,-239443,0.020312,0.135344,0,0.13686,10410.8,-34956.5,0,36473.8,239443
step02_gravity_refstate-crust.xmf,1168,-1.33621e-06,4.14477e-06,0,-3.48106e-06,-9.86903e+08,-9.86527e+08,-9.86812e+08,-238801,0.0200965,0.131191,0,0.132721,10460.8,-35930.2,0,37422,238801
step02_gravity_refstate-crust.xmf,1169,3.33185e-07,3.01661e-07,0,-5.65353e-07,-1.47456e+08,-1.47458e+08,-1.47479e+08,-38783.2,0.00933373,0.168113,0,0.168372,13827.7,-5370.09,0,14833.9,38783.2
step02_gravity_refstate-crust.xmf,1170,2.84349e-07,7.41461e-07,0,-9.76421e-07,-3.13684e+08,-3.13653e+08,-3.13703e+08,-66982.5,0.00802426,0.16641,0,0.166603,12954.2,-11422.3,0,17270.8,66982.5
step02_gravity_refstate-crust.xmf,1171,1.69077e-07,-6.71799e-08,0,-7.50956e-09,15932.6,-274.643,4333.9,-515.156,0.0156198,0.163105,0,0.163851,17321.5,0,0,17321.5,515.156
step02_gravity_refstate-crust.xmf,1172,1.92405e-07,2.47313e-07,0,-4.41371e-07,-1.05068e+08,-1.05064e+08,-1.05081e+08,-30278.1,0.0110335,0.164187,0,0.164557,16444.3,-3826.26,0,16883.6,30278.1
step02_gravity_refstate-crust.xmf,1173,2.67723e-07,1.54252e-06,0,-2.12156e-06,-6.88485e+08,-6.88398e+08,-6.88503e+08,-145539,0.0140246,0.155798,0,0.156428,10958.3,-25068.5,0,27358.9,145539
step02_gravity_refstate-crust.xmf,1174,-2.7627e-07,2.47484e-06,0,-2.89452e-06,-8.4046e+08,-8.40272e+08,-8.40441e+08,-198564,0.0181855,0.144927,0,0.146064,10994.1,-30600.5,0,32515.6,198564
step02_gravity_refstate-crust.xmf,1175,2.18581e-07,3.68078e-07,0,-5.91238e-07,-1.50785e+08,-1.50775e+08,-1.508e+08,-40558.9,0.00975855,0.1651,0,0.165389,15600.3,-5490.94,0,16538.4,40558.9
step02_gravity_refstate-crust.xmf,1176,2.69967e-07,4.76635e-07,0,-7.24619e-07,-2.01563e+08,-2.01548e+08,-2.01581e+08,-49708.9,0.00866803,0.166728,0,0.166953,14192.9,-7339.92,0,15978.6,49708.9
step02_gravity_refstate-crust.xmf,1177,2.77262e-07,6.18607e-07,0,-8.60616e-07,-2.59813e+08,-2.59789e+08,-2.59832e+08,-59038.3,0.00811818,0.166816,0,0.167013,13471.2,-9460.83,0,16461.5,59038.3
step02_gravity_refstate-crust.xmf,1178,2.0118e-07,8.91353e-07,0,-1.06964e-06,-3.43119e+08,-3.43072e+08,-3.43133e+08,-73377.2,0.0084489,0.16338,0,0.163599,14084.7,-12493.8,0,18827.4,73377.2
step02_gravity_refstate-crust.xmf,1179,2.06767e-07,9.98716e-07,0,-1.17604e-06,-3.89835e+08,-3.8978e+08,-3.89849e+08,-80676.6,0.00875581,0.162565,0,0.162801,13690.6,-14194.7,0,19721.1,80676.6
step02_gravity_refstate-crust.xmf,1180,6.04954e-08,1.98078e-07,0,-3.21463e-07,-7.17925e+07,-7.1783e+07,-7.17966e+07,-22052.3,0.0123867,0.161193,0,0.161668,18398.2,-2614.23,0,18583,22052.3
step02_gravity_refstate-crust.xmf,1181,2.12947e-07,1.10041e-06,0,-1.28436e-06,-4.35672e+08,-4.35611e+08,-4.35686e+08,-88107,0.00923315,0.161576,0,0.161839,13330.5,-15863.6,0,20720.9,88107
step02_gravity_refstate-crust.xmf,1182,2.14465e-07,1.2071e-06,0,-1.40358e-06,-4.82579e+08,-4.82511e+08,-4.82593e+08,-96285.8,0.0098886,0.160281,0,0.160586,13030.5,-17571.5,0,21875.8,96285.8
step02_gravity_refstate-crust.xmf,1183,2.15465e-07,1.30716e-06,0,-1.52915e-06,-5.27794e+08,-5.27719e+08,-5.27809e+08,-104900,0.0106453,0.158955,0,0.159311,12723.7,-19217.8,0,23048.1,104900
step02_gravity_refstate-crust.xmf,1184,2.10855e-07,1.40586e-06,0,-1.66256e-06,-5.71092e+08,-5.7101e+08,-5.71107e+08,-114052,0.0114783,0.15755,0,0.157968,12443.4,-20794.2,0,24233,114052
step02_gravity_refstate-crust.xmf,1185,1.97457e-07,1.5098e-06,0,-1.81019e-06,-6.14015e+08,-6.13925e+08,-6.14029e+08,-124179,0.0123976,0.156038,0,0.15653,12174.4,-22357,0,25456.8,124179
step02_gravity_refstate-crust.xmf,1186,1.80393e-07,1.62112e-06,0,-1.99329e-06,-6.60499e+08,-6.604e+08,-6.60511e+08,-136740,0.0134723,0.154516,0,0.155102,11814.6,-24049.4,0,26794.7,136740
step02_gravity_refstate-crust.xmf,1187,-1.55602e-07,2.28211e-06,0,-2.70319e-06,-8.07956e+08,-8.07789e+08,-8.07946e+08,-185439,0.0173362,0.146604,0,0.147626,11222.7,-29417.4,0,31485.4,185439
step02_gravity_refstate-crust.xmf,1188,7.9107e-08,1.83025e-06,0,-2.15887e-06,-7.01872e+08,-7.01752e+08,-7.01877e+08,-148098,0.0145538,0.15152,0,0.152217,11933.9,-25555.5,0,28204.6,148098
step02_gravity_refstate-crust.xmf,1189,1.51878e-08,1.97049e-06,0,-2.33233e-06,-7.38808e+08,-7.38674e+08,-7.38809e+08,-159998,0.015506,0.149789,0,0.150589,11717.5,-26900.2,0,29341.4,159998
step02_gravity_refstate-crust.xmf,1190,-6.37072e-08,2.12255e-06,0,-2.51453e-06,-7.7443e+08,-7.7428e+08,-7.74426e+08,-172496,0.0164442,0.148121,0,0.149031,11480.5,-28196.9,0,30444.5,172496
step02_gravity_refstate-crust.xmf,1191,-5.75998e-07,2.97157e-06,0,-2.81544e-06,-8.61999e+08,-8.61756e+08,-8.6196e+08,-193139,0.0182313,0.138206,0,0.139403,11881.6,-31384.2,0,33558,193139
step02_gravity_refstate-crust.xmf,1192,-1.99893e-06,5.70851e-06,0,-3.10546e-06,-1.07849e+09,-1.07796e+09,-1.07835e+09,-213035,0.0165313,0.115032,0,0.116213,10435.7,-39264.2,0,40627.3,213035
step02_gravity_refstate-crust.xmf,1193,-1.87694e-06,5.38547e-06,0,-3.08661e-06,-1.05598e+09,-1.05548e+09,-1.05585e+09,-211741,0.0172973,0.116903,0,0.118176,10770.5,-38444.7,0,39924.9,211741
step02_gravity_refstate-crust.xmf,1194,-1.7265e-06,5.03659e-06,0,-3.08503e-06,-1.03141e+09,-1.03095e+09,-1.03129e+09,-211633,0.0179851,0.11941,0,0.120756,11054.2,-37550.3,0,39143.6,211633
step02_gravity_refstate-crust.xmf,1195,-7.50247e-07,3.25324e-06,0,-2.95311e-06,-8.93957e+08,-8.93683e+08,-8.93906e+08,-202584,0.0187859,0.135736,0,0.13703,11672.4,-32547.4,0,34577.1,202584
step02_gravity_refstate-crust.xmf,1196,-1.55041e-06,4.6674e-06,0,-3.09525e-06,-1.00525e+09,-1.00483e+09,-1.00515e+09,-212334,0.0185611,0.122523,0,0.123921,11261.9,-36598.2,0,38291.7,212334
step02_gravity_refstate-crust.xmf,1197,-9.37811e-07,3.55808e-06,0,-3.05557e-06,-9.23039e+08,-9.2273e+08,-9.22974e+08,-209612,0.0191292,0.133073,0,0.134441,11513.9,-33605.9,0,35523.6,209612
step02_gravity_refstate-crust.xmf,1198,-1.13912e-06,3.89388e-06,0,-3.12922e-06,-9.51318e+08,-9.50973e+08,-9.5124e+08,-214664,0.0192756,0.130181,0,0.131601,11365.4,-34635.1,0,36452.2,214664
step02_gravity_refstate-crust.xmf,1199,-1.35293e-06,4.28384e-06,0,-3.11338e-06,-9.78303e+08,-9.77917e+08,-9.7821e+08,-213578,0.019003,0.126183,0,0.127606,11365.8,-35617.3,0,37386.8,213578
step02_gravity_refstate-crust.xmf,1200,8.28947e-08,4.13596e-07,0,-5.70512e-07,-1.43614e+08,-1.43592e+08,-1.4362e+08,-39137.1,0.0102319,0.161473,0,0.161797,17757.9,-5229.39,0,18511.9,39137.1
step02_gravity_refstate-crust.xmf,1201,2.02373e-07,7.73071e-07,0,-9.60339e-07,-2.95622e+08,-2.95583e+08,-2.95636e+08,-65879.3,0.00833342,0.164178,0,0.164389,14418,-10764.4,0,17993.1,65879.3
step02_gravity_refstate-crust.xmf,1202,-8.72265e-08,3.11045e-08,0,-7.6271e-09,-8370.71,-253.21,-2386.98,-523.219,0.0157381,0.159039,0,0.159816,19919.3,0,0,19919.3,523.219
step02_gravity_refstate-crust.xmf,1203,-4.34074e-07,2.73692e-06,0,-2.66469e-06,-8.29913e+08,-8.29695e+08,-8.29883e+08,-182797,0.0175595,0.140328,0,0.141422,12120.6,-30216.3,0,32556.6,182797
step02_gravity_refstate-crust.xmf,1204,1.18739e-07,5.6172e-07,0,-7.34497e-07,-1.98812e+08,-1.98782e+08,-1.9882e+08,-50386.5,0.00919133,0.162313,0,0.162573,16723.4,-7239.31,0,18223,50386.5
step02_gravity_refstate-crust.xmf,1205,1.46136e-07,7.19811e-07,0,-8.86755e-07,-2.59518e+08,-2.59479e+08,-2.59529e+08,-60831.4,0.00859043,0.162774,0,0.163001,15692.2,-9449.74,0,18317.8,60831.4
step02_gravity_refstate-crust.xmf,1206,1.11765e-07,9.13412e-07,0,-1.02785e-06,-3.19234e+08,-3.19179e+08,-3.19241e+08,-70510.2,0.00859453,0.160918,0,0.161147,15734.6,-11623.9,0,19562.5,70510.2
step02_gravity_refstate-crust.xmf,1207,9.95126e-08,1.06488e-06,0,-1.14749e-06,-3.71356e+08,-3.7129e+08,-3.71363e+08,-78717.5,0.00885496,0.15962,0,0.159865,15447.6,-13521.6,0,20529.5,78717.5
step02_gravity_refstate-crust.xmf,1208,9.5938e-08,1.19264e-06,0,-1.2578e-06,-4.18925e+08,-4.1885e+08,-4.18932e+08,-86285,0.00928377,0.158512,0,0.158784,15049.1,-15253.6,0,21427.8,86285
step02_gravity_refstate-crust.xmf,1209,-1.65992e-07,2.69616e-07,0,-2.83371e-07,-6.59402e+07,-6.59103e+07,-6.59288e+07,-19439.3,0.0124543,0.156452,0,0.156947,21324.3,-2400.37,0,21458.9,19439.3
step02_gravity_refstate-crust.xmf,1210,-7.20062e-08,4.49331e-07,0,-5.19287e-07,-1.32294e+08,-1.32258e+08,-1.32289e+08,-35623.1,0.0105089,0.157471,0,0.157821,20181.5,-4816.7,0,20748.4,35623.1
step02_gravity_refstate-crust.xmf,1211,8.91088e-08,1.32103e-06,0,-1.37155e-06,-4.66417e+08,-4.66332e+08,-4.66423e+08,-94088,0.00988098,0.157166,0,0.157476,14682.6,-16982.8,0,22449.8,94088
step02_gravity_refstate-crust.xmf,1212,8.22013e-08,1.44215e-06,0,-1.48969e-06,-5.12384e+08,-5.12291e+08,-5.12389e+08,-102193,0.0105915,0.155796,0,0.156156,14291.2,-18656.4,0,23501.1,102193
step02_gravity_refstate-crust.xmf,1213,6.78475e-08,1.56331e-06,0,-1.61178e-06,-5.56165e+08,-5.56062e+08,-5.56169e+08,-110568,0.0113784,0.154271,0,0.15469,13955.1,-20250.4,0,24593.2,110568
step02_gravity_refstate-crust.xmf,1214,4.39938e-08,1.68987e-06,0,-1.7422e-06,-5.9891e+08,-5.98797e+08,-5.98913e+08,-119515,0.0122341,0.152598,0,0.153087,13648.2,-21806.7,0,25725.6,119515
step02_gravity_refstate-crust.xmf,1215,3.49539e-09,1.8363e-06,0,-1.88727e-06,-6.42549e+08,-6.42423e+08,-6.42549e+08,-129467,0.0131813,0.150628,0,0.151204,13375.2,-23395.5,0,26948.9,129467
step02_gravity_refstate-crust.xmf,1216,-3.22796e-07,2.54319e-06,0,-2.5076e-06,-7.97409e+08,-7.97212e+08,-7.97387e+08,-172021,0.0168086,0.142143,0,0.143133,12401.2,-29033.1,0,31570.7,172021
step02_gravity_refstate-crust.xmf,1217,-6.15508e-08,2.00856e-06,0,-2.03796e-06,-6.85233e+08,-6.85091e+08,-6.85229e+08,-139804,0.0141564,0.148307,0,0.148981,13175.6,-24949.5,0,28214.7,139804
step02_gravity_refstate-crust.xmf,1218,-1.45349e-07,2.19502e-06,0,-2.19046e-06,-7.25703e+08,-7.25543e+08,-7.25693e+08,-150265,0.0151008,0.145912,0,0.146692,12983.5,-26422.8,0,29440.3,150265
step02_gravity_refstate-crust.xmf,1219,-2.30435e-07,2.36928e-06,0,-2.34679e-06,-7.62798e+08,-7.62619e+08,-7.62782e+08,-160990,0.0159811,0.143902,0,0.144787,12712.5,-27773.1,0,30544.3,160990
step02_gravity_refstate-crust.xmf,1220,-6.77475e-07,3.16602e-06,0,-2.56499e-06,-8.51568e+08,-8.51304e+08,-8.51521e+08,-175959,0.0174042,0.133854,0,0.134981,12981.2,-31004.3,0,33612.2,175959
step02_gravity_refstate-crust.xmf,1221,-8.27432e-07,3.42764e-06,0,-2.66906e-06,-8.82921e+08,-8.8263e+08,-8.82865e+08,-183098,0.0178511,0.131298,0,0.132506,12743.1,-32145.6,0,34579.3,183098
step02_gravity_refstate-crust.xmf,1222,-1.90727e-06,5.75816e-06,0,-2.65804e-06,-1.07606e+09,-1.07553e+09,-1.07593e+09,-182342,0.0148789,0.108333,0,0.10935,11369.5,-39176.1,0,40792.6,182342
step02_gravity_refstate-crust.xmf,1223,-1.80097e-06,5.43112e-06,0,-2.67466e-06,-1.05106e+09,-1.05057e+09,-1.05094e+09,-183481,0.0158355,0.110935,0,0.112059,11717.3,-38266.1,0,40019.9,183481
step02_gravity_refstate-crust.xmf,1224,-1.66984e-06,5.08807e-06,0,-2.70607e-06,-1.02457e+09,-1.02411e+09,-1.02446e+09,-185637,0.016675,0.114083,0,0.115295,11998.8,-37301.7,0,39184,185637
step02_gravity_refstate-crust.xmf,1225,-9.92637e-07,3.71642e-06,0,-2.74651e-06,-9.12864e+08,-9.12541e+08,-9.12796e+08,-188410,0.018115,0.128466,0,0.129737,12547.7,-33235.5,0,35525.2,188410
step02_gravity_refstate-crust.xmf,1226,-1.51396e-06,4.73129e-06,0,-2.7387e-06,-9.96723e+08,-9.96294e+08,-9.96619e+08,-187874,0.0173517,0.117634,0,0.118906,12216.4,-36287.9,0,38289,187874
step02_gravity_refstate-crust.xmf,1227,-1.16594e-06,4.02919e-06,0,-2.78724e-06,-9.41204e+08,-9.40848e+08,-9.41124e+08,-191205,0.0181485,0.125312,0,0.12662,12402.3,-34267,0,36442.3,191205
step02_gravity_refstate-crust.xmf,1228,-1.34453e-06,4.37359e-06,0,-2.77822e-06,-9.69012e+08,-9.6862e+08,-9.6892e+08,-190586,0.0178818,0.121581,0,0.122889,12317.6,-35279.2,0,37367.7,190586
step02_gravity_refstate-crust.xmf,1229,-2.9595e-08,6.64456e-07,0,-7.32513e-07,-2.03699e+08,-2.03651e+08,-2.03697e+08,-50250.4,0.00924296,0.157738,0,0.158009,19199.6,-7416.77,0,20582.4,50250.4
step02_gravity_refstate-crust.xmf,1230,-3.33745e-07,1.2483e-07,0,-7.48401e-09,-31780.5,-322.241,-8885.57,-513.403,0.0151912,0.154994,0,0.155737,22569.7,0,0,22569.7,513.403
step02_gravity_refstate-crust.xmf,1231,-5.50197e-07,2.93791e-06,0,-2.44968e-06,-8.20082e+08,-8.19842e+08,-8.20044e+08,-168048,0.0168427,0.13612,0,0.137158,13242.8,-29858.2,0,32663.2,168048
step02_gravity_refstate-crust.xmf,1232,3.65236e-08,7.59124e-07,0,-8.51018e-07,-2.46045e+08,-2.45995e+08,-2.46047e+08,-58379.8,0.00884029,0.159393,0,0.159638,17697.9,-8958.83,0,19836.2,58379.8
step02_gravity_refstate-crust.xmf,1233,2.18675e-08,9.2553e-07,0,-9.70225e-07,-2.96474e+08,-2.96412e+08,-2.96476e+08,-66557.5,0.00867936,0.158194,0,0.158432,17515.6,-10795,0,20574.9,66557.5
step02_gravity_refstate-crust.xmf,1234,1.53402e-09,1.10772e-06,0,-1.09478e-06,-3.51783e+08,-3.51707e+08,-3.51783e+08,-75102,0.00881784,0.156634,0,0.156882,17271.7,-12808.7,0,21502.9,75102
step02_gravity_refstate-crust.xmf,1235,-1.40982e-08,1.27572e-06,0,-1.2131e-06,-4.0476e+08,-4.04672e+08,-4.0476e+08,-83219,0.00920811,0.155135,0,0.155408,16891.4,-14737.6,0,22416.9,83219
step02_gravity_refstate-crust.xmf,1236,-2.34676e-08,1.41142e-06,0,-1.31782e-06,-4.50191e+08,-4.50092e+08,-4.50189e+08,-90402.8,0.0097148,0.15393,0,0.154236,16432.9,-16391.7,0,23210.5,90402.8
step02_gravity_refstate-crust.xmf,1237,-3.56999e-07,3.43296e-07,0,-2.55933e-07,-6.55194e+07,-6.54714e+07,-6.54949e+07,-17557,0.0117762,0.152333,0,0.152787,23980.1,-2384.39,0,24098.3,17557
step02_gravity_refstate-crust.xmf,1238,-1.605e-07,7.00934e-07,0,-6.66343e-07,-1.93197e+08,-1.93138e+08,-1.93186e+08,-45711.2,0.00915742,0.153698,0,0.15397,21635.6,-7033.98,0,22750.3,45711.2
step02_gravity_refstate-crust.xmf,1239,-2.29538e-07,5.15741e-07,0,-4.7949e-07,-1.31167e+08,-1.31116e+08,-1.31151e+08,-32893,0.0101535,0.153263,0,0.153599,22721.3,-4775.13,0,23217.6,32893
step02_gravity_refstate-crust.xmf,1240,-5.60735e-07,2.11099e-07,0,-7.04275e-09,-53337.2,-389.305,-14870.7,-483.132,0.0139885,0.151137,0,0.151783,25280.2,0,0,25280.2,483.132
step02_gravity_refstate-crust.xmf,1241,-3.09166e-08,1.54944e-06,0,-1.431e-06,-4.97546e+08,-4.97438e+08,-4.97544e+08,-98166.8,0.0103879,0.152673,0,0.153026,15883.7,-18115.9,0,24093.1,98166.8
step02_gravity_refstate-crust.xmf,1242,-5.03416e-08,1.68581e-06,0,-1.54248e-06,-5.4126e+08,-5.41141e+08,-5.41256e+08,-105814,0.0111156,0.151123,0,0.151532,15478.3,-19707.5,0,25059.2,105814
step02_gravity_refstate-crust.xmf,1243,-8.28847e-08,1.83378e-06,0,-1.65852e-06,-5.84495e+08,-5.84363e+08,-5.84489e+08,-113775,0.0119153,0.149253,0,0.149727,15147.1,-21281.6,0,26121.7,113775
step02_gravity_refstate-crust.xmf,1244,-1.287e-07,1.99445e-06,0,-1.78005e-06,-6.2724e+08,-6.27094e+08,-6.27231e+08,-122112,0.0127653,0.147147,0,0.1477,14848.9,-22837.9,0,27240.8,122112
step02_gravity_refstate-crust.xmf,1245,-1.92622e-07,2.17557e-06,0,-1.90748e-06,-6.70014e+08,-6.69852e+08,-6.70001e+08,-130853,0.0136507,0.144749,0,0.145391,14581.6,-24395.1,0,28420.9,130853
step02_gravity_refstate-crust.xmf,1246,-4.61187e-07,2.76532e-06,0,-2.31138e-06,-7.88335e+08,-7.88114e+08,-7.88304e+08,-158561,0.0161483,0.13764,0,0.138584,13650.9,-28702.6,0,31783.4,158561
step02_gravity_refstate-crust.xmf,1247,-2.74234e-07,2.37389e-06,0,-2.03712e-06,-7.11699e+08,-7.11517e+08,-7.1168e+08,-139747,0.014524,0.142176,0,0.142915,14326.7,-25912.7,0,29609.5,139747
step02_gravity_refstate-crust.xmf,1248,-3.70272e-07,2.58278e-06,0,-2.17179e-06,-7.52272e+08,-7.52069e+08,-7.52246e+08,-148985,0.0153725,0.139609,0,0.140453,14033.7,-27389.7,0,30775.6,148985
step02_gravity_refstate-crust.xmf,1249,-7.41225e-07,3.29939e-06,0,-2.33563e-06,-8.40493e+08,-8.40215e+08,-8.40442e+08,-160225,0.0165246,0.130049,0,0.131095,14079.6,-30601.1,0,33684.7,160225
step02_gravity_refstate-crust.xmf,1250,-8.79556e-07,3.56224e-06,0,-2.4062e-06,-8.72475e+08,-8.72171e+08,-8.72415e+08,-165065,0.016859,0.127099,0,0.128213,13856.5,-31765.3,0,34656,165065
step02_gravity_refstate-crust.xmf,1251,-1.02708e-06,3.84123e-06,0,-2.46171e-06,-9.03548e+08,-9.03214e+08,-9.03477e+08,-168873,0.0170477,0.124052,0,0.125218,13627.1,-32896.3,0,35607.1,168873
step02_gravity_refstate-crust.xmf,1252,-1.79721e-06,5.76082e-06,0,-2.26096e-06,-1.07315e+09,-1.07263e+09,-1.07303e+09,-155102,0.0132614,0.102153,0,0.10301,12354.6,-39070.9,0,40977.6,155102
step02_gravity_refstate-crust.xmf,1253,-1.70918e-06,5.43623e-06,0,-2.30686e-06,-1.04565e+09,-1.04516e+09,-1.04553e+09,-158251,0.0143846,0.105411,0,0.106388,12721.8,-38069.5,0,40138.9,158251
step02_gravity_refstate-crust.xmf,1254,-1.59062e-06,5.08356e-06,0,-2.37141e-06,-1.01593e+09,-1.01547e+09,-1.01582e+09,-162679,0.0154207,0.109396,0,0.110478,12999.8,-36987.2,0,39205.2,162679
step02_gravity_refstate-crust.xmf,1255,-1.16935e-06,4.11627e-06,0,-2.49484e-06,-9.31821e+08,-9.31459e+08,-9.31741e+08,-171146,0.0170569,0.121054,0,0.12225,13417.9,-33925.5,0,36482.6,171146
step02_gravity_refstate-crust.xmf,1256,-1.45721e-06,4.74729e-06,0,-2.41961e-06,-9.86837e+08,-9.86411e+08,-9.86737e+08,-165985,0.0161588,0.113268,0,0.114415,13226.2,-35928.2,0,38285.4,165985
step02_gravity_refstate-crust.xmf,1257,-1.31381e-06,4.4134e-06,0,-2.48435e-06,-9.58739e+08,-9.58346e+08,-9.58649e+08,-170427,0.0167908,0.117581,0,0.118774,13290,-34905.4,0,37349.8,170427
step02_gravity_refstate-crust.xmf,1258,-6.67283e-08,9.13286e-07,0,-8.92481e-07,-2.7172e+08,-2.71653e+08,-2.71715e+08,-61224.2,0.00869061,0.155493,0,0.155735,19358.6,-9893.38,0,21740.2,61224.2
step02_gravity_refstate-crust.xmf,1259,-1.36862e-07,8.65719e-07,0,-7.9968e-07,-2.43902e+08,-2.43833e+08,-2.43893e+08,-54858.1,0.00869129,0.153427,0,0.153673,20967.1,-8880.29,0,22770.1,54858.1
step02_gravity_refstate-crust.xmf,1260,-5.27988e-07,4.09327e-07,0,-2.22034e-07,-6.53837e+07,-6.53194e+07,-6.53475e+07,-15231.5,0.010594,0.148546,0,0.148923,26663.7,-2378.86,0,26769.6,15231.5
step02_gravity_refstate-crust.xmf,1261,-7.60395e-07,2.87121e-07,0,-6.25664e-09,-72292.4,-432.828,-20129.3,-429.205,0.0121613,0.147632,0,0.148132,28058.3,0,0,28058.3,429.205
step02_gravity_refstate-crust.xmf,1262,-6.28109e-07,3.07763e-06,0,-2.27083e-06,-8.11987e+08,-8.11733e+08,-8.11944e+08,-155779,0.0161543,0.132661,0,0.133641,14237.6,-29563.4,0,32813.2,155779
step02_gravity_refstate-crust.xmf,1263,-1.05832e-07,1.59886e-06,0,-1.3642e-06,-4.81478e+08,-4.81361e+08,-4.81471e+08,-93584.2,0.0100691,0.150416,0,0.150753,17206.3,-17530.7,0,24563.9,93584.2
step02_gravity_refstate-crust.xmf,1264,-9.05532e-08,1.1292e-06,0,-1.01909e-06,-3.31077e+08,-3.30993e+08,-3.31071e+08,-69909.6,0.00865514,0.153562,0,0.153805,19216.5,-12054.6,0,22684.5,69909.6
step02_gravity_refstate-crust.xmf,1265,-1.12877e-07,1.33485e-06,0,-1.14193e-06,-3.89029e+08,-3.8893e+08,-3.89022e+08,-78336.6,0.00895623,0.151746,0,0.152011,18832.3,-14164.6,0,23564.6,78336.6
step02_gravity_refstate-crust.xmf,1266,-1.3713e-07,1.54135e-06,0,-1.26665e-06,-4.47278e+08,-4.47163e+08,-4.47268e+08,-86892,0.00952912,0.149822,0,0.150125,18314.6,-16285.4,0,24507.9,86892
step02_gravity_refstate-crust.xmf,1267,-2.2481e-07,9.57643e-07,0,-7.75157e-07,-2.54004e+08,-2.53923e+08,-2.53989e+08,-53175.8,0.00830061,0.149973,0,0.150202,22726,-9247.85,0,24535.6,53175.8
step02_gravity_refstate-crust.xmf,1268,-3.75922e-07,5.77201e-07,0,-4.25422e-07,-1.30544e+08,-1.30479e+08,-1.30518e+08,-29183.9,0.00938143,0.149251,0,0.149546,25321.2,-4751.97,0,25763.3,29183.9
step02_gravity_refstate-crust.xmf,1269,-2.79866e-07,7.70081e-07,0,-6.14604e-07,-1.95229e+08,-1.95157e+08,-1.9521e+08,-42161.8,0.00860772,0.149698,0,0.149945,23998.5,-7107.56,0,25028.9,42161.8
step02_gravity_refstate-crust.xmf,1270,-6.7672e-07,4.66776e-07,0,-1.81665e-07,-6.52414e+07,-6.51629e+07,-6.51949e+07,-12462.2,0.00896678,0.145241,0,0.145518,29379.7,-2373.16,0,29475.4,12462.2
step02_gravity_refstate-crust.xmf,1271,-9.24451e-07,3.48337e-07,0,-7.44687e-09,-87920.7,-607.419,-24503.3,-510.855,0.00975985,0.144644,0,0.144973,30911.6,0,0,30911.6,510.855
step02_gravity_refstate-crust.xmf,1272,-1.41153e-07,1.763e-06,0,-1.45671e-06,-5.24043e+08,-5.23912e+08,-5.24033e+08,-99930,0.0106944,0.148366,0,0.148751,16979.4,-19080.5,0,25541.4,99930
step02_gravity_refstate-crust.xmf,1273,-1.83201e-07,1.9377e-06,0,-1.56144e-06,-5.69287e+08,-5.69141e+08,-5.69274e+08,-107115,0.0114477,0.146146,0,0.146594,16662.2,-20727.7,0,26594.5,107115
step02_gravity_refstate-crust.xmf,1274,-2.31694e-07,2.11134e-06,0,-1.66603e-06,-6.12167e+08,-6.12007e+08,-6.12151e+08,-114290,0.0122225,0.143903,0,0.144421,16333.5,-22288.9,0,27632.9,114290
step02_gravity_refstate-crust.xmf,1275,-2.96351e-07,2.30519e-06,0,-1.77312e-06,-6.55482e+08,-6.55304e+08,-6.55462e+08,-121636,0.0130292,0.141323,0,0.141922,16033.1,-23865.8,0,28751.3,121636
step02_gravity_refstate-crust.xmf,1276,-3.74985e-07,2.51257e-06,0,-1.88097e-06,-6.9788e+08,-6.97682e+08,-6.97854e+08,-129034,0.0138246,0.138586,0,0.139274,15730.2,-25409.4,0,29884.3,129034
step02_gravity_refstate-crust.xmf,1277,-5.95804e-07,3.01354e-06,0,-2.10568e-06,-7.85199e+08,-7.84951e+08,-7.85158e+08,-144449,0.0153611,0.132299,0,0.133187,15054.5,-28588.2,0,32309.8,144449
step02_gravity_refstate-crust.xmf,1278,-4.72632e-07,2.74333e-06,0,-1.98779e-06,-7.40093e+08,-7.39872e+08,-7.4006e+08,-136363,0.0145868,0.135587,0,0.136369,15433.2,-26946.2,0,31052.8,136363
step02_gravity_refstate-crust.xmf,1279,-7.64228e-07,3.35839e-06,0,-2.12888e-06,-8.25824e+08,-8.25541e+08,-8.25772e+08,-146041,0.0156234,0.127183,0,0.128139,15160.2,-30067.1,0,33672.8,146041
step02_gravity_refstate-crust.xmf,1280,-9.01318e-07,3.64374e-06,0,-2.16668e-06,-8.60861e+08,-8.60549e+08,-8.60799e+08,-148634,0.0158367,0.123425,0,0.124437,14997.2,-31342.5,0,34745.8,148634
step02_gravity_refstate-crust.xmf,1281,-1.03987e-06,3.9318e-06,0,-2.19527e-06,-8.9433e+08,-8.93989e+08,-8.94258e+08,-150595,0.0159203,0.119835,0,0.120888,14771.9,-32560.8,0,35755,150595
step02_gravity_refstate-crust.xmf,1282,-1.17314e-06,4.21004e-06,0,-2.21713e-06,-9.25445e+08,-9.25076e+08,-9.25365e+08,-152095,0.0158817,0.116554,0,0.117631,14493.9,-33693.5,0,36678.7,152095
step02_gravity_refstate-crust.xmf,1283,-1.65937e-06,5.70643e-06,0,-1.87528e-06,-1.06881e+09,-1.06831e+09,-1.0687e+09,-128645,0.0115199,0.095841,0,0.0965308,13540.8,-38913.4,0,41202,128645
step02_gravity_refstate-crust.xmf,1284,-1.59803e-06,5.36471e-06,0,-2.01088e-06,-1.03638e+09,-1.0359e+09,-1.03627e+09,-137946,0.0132154,0.101218,0,0.102077,13745.7,-37732.2,0,40158,137946
step02_gravity_refstate-crust.xmf,1285,-1.49657e-06,5.03424e-06,0,-2.07707e-06,-1.00493e+09,-1.00448e+09,-1.00483e+09,-142487,0.0142471,0.105408,0,0.106367,14067.1,-36587.3,0,39198.4,142487
step02_gravity_refstate-crust.xmf,1286,-1.27534e-06,4.4089e-06,0,-2.26362e-06,-9.49125e+08,-9.48735e+08,-9.49037e+08,-155284,0.0158816,0.114574,0,0.11567,14146.3,-34555.5,0,37339,155284
step02_gravity_refstate-crust.xmf,1287,-1.38325e-06,4.70649e-06,0,-2.15527e-06,-9.7419e+08,-9.73772e+08,-9.74095e+08,-147852,0.0151101,0.109928,0,0.110961,14242.2,-35468.1,0,38220.7,147852
step02_gravity_refstate-crust.xmf,1288,-1.78004e-07,1.10884e-06,0,-9.13028e-07,-3.04041e+08,-3.03953e+08,-3.04029e+08,-62633.7,0.00836297,0.150596,0,0.150828,21332,-11069.9,0,24033.2,62633.7
step02_gravity_refstate-crust.xmf,1289,-2.06423e-07,1.78626e-06,0,-1.36098e-06,-5.028e+08,-5.02663e+08,-5.02786e+08,-93363.6,0.0101499,0.146167,0,0.146519,18443.7,-18306.9,0,25986.7,93363.6
step02_gravity_refstate-crust.xmf,1290,-5.02432e-07,6.3355e-07,0,-3.62767e-07,-1.31407e+08,-1.31329e+08,-1.31372e+08,-24885.8,0.00819027,0.145572,0,0.145802,27985.5,-4782.95,0,28391.3,24885.8
step02_gravity_refstate-crust.xmf,1291,-7.65972e-07,5.48135e-07,0,-1.55621e-07,-7.77185e+07,-7.76283e+07,-7.76659e+07,-10675.6,0.00652611,0.142118,0,0.142267,32351.6,-2827.17,0,32474.9,10675.6
step02_gravity_refstate-crust.xmf,1292,-1.96762e-07,1.35496e-06,0,-1.04616e-06,-3.6973e+08,-3.69624e+08,-3.69717e+08,-71766.6,0.00853965,0.148586,0,0.148831,20845.9,-13461.7,0,24814.7,71766.6
step02_gravity_refstate-crust.xmf,1293,-2.25096e-07,1.57696e-06,0,-1.1558e-06,-4.2682e+08,-4.26697e+08,-4.26805e+08,-79288.1,0.0089622,0.146422,0,0.146696,20414.6,-15540.4,0,25656.5,79288.1
step02_gravity_refstate-crust.xmf,1294,-2.66923e-07,1.79965e-06,0,-1.24963e-06,-4.80472e+08,-4.80331e+08,-4.80454e+08,-85724.8,0.00950384,0.14377,0,0.144084,20118.6,-17493.8,0,26660.7,85724.8
step02_gravity_refstate-crust.xmf,1295,-2.66735e-07,1.16993e-06,0,-8.37358e-07,-3.01975e+08,-3.01876e+08,-3.01956e+08,-57442.8,0.00790628,0.146938,0,0.14715,23401.9,-10994.4,0,25855.9,57442.8
step02_gravity_refstate-crust.xmf,1296,-3.26037e-07,1.06118e-06,0,-7.08477e-07,-2.6371e+08,-2.63615e+08,-2.63688e+08,-48601.5,0.00756006,0.14554,0,0.145736,25169.9,-9600.96,0,26938.9,48601.5
step02_gravity_refstate-crust.xmf,1297,-3.97263e-07,8.26653e-07,0,-5.34398e-07,-1.94605e+08,-1.94521e+08,-1.94577e+08,-36659.7,0.00774483,0.145783,0,0.145989,26582.9,-7084.44,0,27510.7,36659.7
step02_gravity_refstate-crust.xmf,1298,-6.03285e-07,6.67392e-07,0,-2.87482e-07,-1.28337e+08,-1.2825e+08,-1.28296e+08,-19721.3,0.00693822,0.142884,0,0.143052,30358,-4670.84,0,30715.2,19721.3
step02_gravity_refstate-crust.xmf,1299,-1.05158e-06,3.98256e-07,0,-4.95144e-09,-99925.9,-466.951,-27787.3,-339.669,0.00686767,0.142332,0,0.142497,33847.7,0,0,33847.7,339.669
step02_gravity_refstate-crust.xmf,1300,-2.59378e-07,1.99953e-06,0,-1.45348e-06,-5.51885e+08,-5.5173e+08,-5.51867e+08,-99708.5,0.0108473,0.14338,0,0.14379,18202.6,-20094,0,27112.7,99708.5
step02_gravity_refstate-crust.xmf,1301,-4.51103e-07,2.61464e-06,0,-1.72327e-06,-6.84056e+08,-6.83845e+08,-6.84025e+08,-118217,0.0130151,0.13514,0,0.135765,17206.7,-24906,0,30271.7,118217
step02_gravity_refstate-crust.xmf,1302,-3.13722e-07,2.19728e-06,0,-1.54489e-06,-5.97178e+08,-5.97005e+08,-5.97156e+08,-105979,0.0115676,0.140764,0,0.141238,17882.9,-21743,0,28152.3,105979
step02_gravity_refstate-crust.xmf,1303,-3.76409e-07,2.39988e-06,0,-1.6352e-06,-6.41051e+08,-6.4086e+08,-6.41025e+08,-112175,0.0122991,0.138046,0,0.138593,17544.2,-23340.3,0,29198.8,112175
step02_gravity_refstate-crust.xmf,1304,-5.39415e-07,2.84468e-06,0,-1.80711e-06,-7.2627e+08,-7.26038e+08,-7.26233e+08,-123967,0.0136843,0.132025,0,0.132732,16873.2,-26442.8,0,31367.6,123967
step02_gravity_refstate-crust.xmf,1305,-6.4292e-07,3.09525e-06,0,-1.88563e-06,-7.68186e+08,-7.67929e+08,-7.68142e+08,-129354,0.0142828,0.128672,0,0.129463,16533.8,-27968.8,0,32490.3,129354
step02_gravity_refstate-crust.xmf,1306,-7.67625e-07,3.38018e-06,0,-1.93253e-06,-8.09101e+08,-8.08817e+08,-8.09049e+08,-132571,0.0146632,0.124631,0,0.12549,16325,-29458.3,0,33679.3,132571
step02_gravity_refstate-crust.xmf,1307,-9.00773e-07,3.68193e-06,0,-1.95023e-06,-8.48046e+08,-8.47732e+08,-8.47984e+08,-133786,0.0148061,0.120248,0,0.121156,16168.6,-30876,0,34853.3,133786
step02_gravity_refstate-crust.xmf,1308,-1.02567e-06,3.97089e-06,0,-1.95436e-06,-8.83493e+08,-8.83151e+08,-8.83423e+08,-134069,0.0147854,0.116166,0,0.117103,15962.7,-32166.5,0,35909.5,134069
step02_gravity_refstate-crust.xmf,1309,-1.28455e-06,4.59187e-06,0,-1.94203e-06,-9.54849e+08,-9.54446e+08,-9.54761e+08,-133223,0.0142921,0.108119,0,0.109059,15278.2,-34764.2,0,37973.3,133223
step02_gravity_refstate-crust.xmf,1310,-1.15368e-06,4.2772e-06,0,-1.94096e-06,-9.19039e+08,-9.18666e+08,-9.1896e+08,-133150,0.0145667,0.111903,0,0.112847,15716,-33460.5,0,36967.5,133150
step02_gravity_refstate-crust.xmf,1311,-1.52762e-06,5.51636e-06,0,-1.66095e-06,-1.05103e+09,-1.05054e+09,-1.05092e+09,-113941,0.0109737,0.0936532,0,0.0942939,14624.9,-38266,0,40965.6,113941
step02_gravity_refstate-crust.xmf,1312,-1.47193e-06,5.25566e-06,0,-1.72806e-06,-1.02385e+09,-1.02339e+09,-1.02375e+09,-118545,0.012036,0.0973389,0,0.0980802,14952.9,-37276.5,0,40163.7,118545
step02_gravity_refstate-crust.xmf,1313,-1.39359e-06,4.95693e-06,0,-1.80883e-06,-9.92407e+08,-9.91971e+08,-9.92311e+08,-124086,0.0130802,0.101808,0,0.102645,15235.7,-36131.6,0,39212.5,124086
step02_gravity_refstate-crust.xmf,1314,-3.19576e-07,2.02527e-06,0,-1.3385e-06,-5.32717e+08,-5.32556e+08,-5.32695e+08,-91820.9,0.0101393,0.140803,0,0.141167,19828.4,-19395.9,0,27737.5,91820.9
step02_gravity_refstate-crust.xmf,1315,-2.71526e-07,1.36677e-06,0,-9.45129e-07,-3.54053e+08,-3.53941e+08,-3.54034e+08,-64835.8,0.0080271,0.145525,0,0.145746,22850.9,-12890.7,0,26236.1,64835.8
step02_gravity_refstate-crust.xmf,1316,-5.03287e-07,9.27616e-07,0,-4.42347e-07,-2.07212e+08,-2.07114e+08,-2.07178e+08,-30345,0.00618539,0.141303,0,0.141438,29723.5,-7543.17,0,30665.7,30345
step02_gravity_refstate-crust.xmf,1317,-6.21446e-07,7.92344e-07,0,-2.76916e-07,-1.60112e+08,-1.60015e+08,-1.60069e+08,-18996.5,0.00525448,0.140115,0,0.140214,32349.8,-5827.74,0,32870.5,18996.5
step02_gravity_refstate-crust.xmf,1318,-8.80736e-07,5.49186e-07,0,-8.5213e-08,-6.58971e+07,-6.5799e+07,-6.58366e+07,-5845.61,0.00421246,0.14031,0,0.140373,35386.6,-2396.34,0,35467.6,5845.61
step02_gravity_refstate-crust.xmf,1319,-1.12835e-06,4.27791e-07,0,-2.29038e-09,-107200,-449.518,-29796,-157.12,0.00357042,0.140845,0,0.14089,36874.5,0,0,36874.5,157.12
step02_gravity_refstate-crust.xmf,1320,-1.53326e-06,5.76424e-06,0,-1.52559e-06,-1.07803e+09,-1.07753e+09,-1.07793e+09,-104656,0.00930731,0.0886895,0,0.0891765,14511.7,-39249.6,0,41846.4,104656
step02_gravity_refstate-crust.xmf,1321,-2.9263e-07,1.58759e-06,0,-1.04401e-06,-4.08815e+08,-4.08686e+08,-4.08795e+08,-71619.1,0.00833797,0.143458,0,0.1437,22388.8,-14884.6,0,26885.1,71619.1
step02_gravity_refstate-crust.xmf,1322,-3.28066e-07,1.81885e-06,0,-1.1336e-06,-4.63541e+08,-4.63394e+08,-4.63519e+08,-77764.9,0.00880071,0.140868,0,0.141143,21990.4,-16877.2,0,27720.3,77764.9
step02_gravity_refstate-crust.xmf,1323,-3.70019e-07,2.04437e-06,0,-1.21533e-06,-5.15183e+08,-5.15018e+08,-5.15158e+08,-83371.6,0.00936679,0.138149,0,0.138466,21563.5,-18757.4,0,28580.2,83371.6
step02_gravity_refstate-crust.xmf,1324,-3.35642e-07,1.34581e-06,0,-8.24771e-07,-3.34065e+08,-3.33949e+08,-3.34042e+08,-56579.3,0.00738943,0.142852,0,0.143043,24930.8,-12162.7,0,27739.4,56579.3
step02_gravity_refstate-crust.xmf,1325,-4.12165e-07,1.06091e-06,0,-5.9088e-07,-2.51001e+08,-2.509e+08,-2.50973e+08,-40534.4,0.00677213,0.142484,0,0.142645,27550.6,-9137.91,0,29026.5,40534.4
step02_gravity_refstate-crust.xmf,1326,-7.25327e-07,7.02622e-07,0,-1.71569e-07,-1.25153e+08,-1.25055e+08,-1.25103e+08,-11769.7,0.0043066,0.139547,0,0.139613,34366.2,-4554.46,0,34666.7,11769.7
step02_gravity_refstate-crust.xmf,1327,-9.32893e-07,5.54365e-07,0,-3.38867e-08,-6.07488e+07,-6.06468e+07,-6.06848e+07,-2324.63,0.0020798,0.139501,0,0.139517,37791.1,-2208.71,0,37855.6,2324.63
step02_gravity_refstate-crust.xmf,1328,-1.1362e-06,4.29231e-07,0,4.01297e-09,-108012,-623.427,-30068.7,275.29,1.54036e-19,0.14032,0,0.14032,40000,0,0,40000,275.29
step02_gravity_refstate-crust.xmf,1329,-3.75088e-07,2.24786e-06,0,-1.41782e-06,-5.8098e+08,-5.808e+08,-5.80954e+08,-97262.7,0.0108046,0.13787,0,0.138293,19493.9,-21153.1,0,28765.7,97262.7
step02_gravity_refstate-crust.xmf,1330,-5.84478e-07,2.91302e-06,0,-1.6352e-06,-7.13114e+08,-7.12874e+08,-7.13074e+08,-112175,0.0127251,0.128686,0,0.129314,18356.4,-25963.8,0,31797.4,112175
step02_gravity_refstate-crust.xmf,1331,-5.03805e-07,2.68075e-06,0,-1.5714e-06,-6.70456e+08,-6.70237e+08,-6.70421e+08,-107798,0.0121436,0.131995,0,0.132552,18703.2,-24410.7,0,30752.2,107798
step02_gravity_refstate-crust.xmf,1332,-4.37755e-07,2.46784e-06,0,-1.49502e-06,-6.27176e+08,-6.26976e+08,-6.27146e+08,-102558,0.0114796,0.134861,0,0.135349,19129.1,-22835,0,29788.6,102558
step02_gravity_refstate-crust.xmf,1333,-6.73333e-07,3.15224e-06,0,-1.69399e-06,-7.54305e+08,-7.54042e+08,-7.54258e+08,-116208,0.0132387,0.12533,0,0.126028,17981.3,-27463.4,0,32826.3,116208
step02_gravity_refstate-crust.xmf,1334,-7.72191e-07,3.40477e-06,0,-1.73905e-06,-7.94165e+08,-7.93878e+08,-7.94112e+08,-119299,0.0136229,0.12175,0,0.12251,17633.3,-28914.5,0,33867.1,119299
step02_gravity_refstate-crust.xmf,1335,-8.82047e-07,3.68134e-06,0,-1.75205e-06,-8.33186e+08,-8.32873e+08,-8.33125e+08,-120191,0.0137628,0.117558,0,0.11836,17399.7,-30335.1,0,34970.9,120191
step02_gravity_refstate-crust.xmf,1336,-9.93492e-07,3.96884e-06,0,-1.74001e-06,-8.71001e+08,-8.7066e+08,-8.70933e+08,-119365,0.0136751,0.113076,0,0.1139,17192,-31711.8,0,36072.2,119365
step02_gravity_refstate-crust.xmf,1337,-1.10054e-06,4.25884e-06,0,-1.71068e-06,-9.07446e+08,-9.07078e+08,-9.0737e+08,-117353,0.0133874,0.108555,0,0.109378,16953.1,-33038.6,0,37134.3,117353
step02_gravity_refstate-crust.xmf,1338,-1.2023e-06,4.55768e-06,0,-1.66323e-06,-9.4362e+08,-9.43225e+08,-9.43537e+08,-114097,0.0128696,0.103888,0,0.104682,16673.9,-34355.6,0,38188,114097
step02_gravity_refstate-crust.xmf,1339,-1.41164e-06,5.66745e-06,0,-1.30534e-06,-1.07305e+09,-1.07256e+09,-1.07295e+09,-89546,0.00821299,0.0849624,0,0.0853584,15499.3,-39068.4,0,42030.6,89546
step02_gravity_refstate-crust.xmf,1340,-1.39299e-06,5.42207e-06,0,-1.39108e-06,-1.04447e+09,-1.04401e+09,-1.04438e+09,-95428.4,0.00959499,0.0891612,0,0.089676,15845.5,-38027.8,0,41197.1,95428.4
step02_gravity_refstate-crust.xmf,1341,-1.35119e-06,5.15803e-06,0,-1.47675e-06,-1.01384e+09,-1.0134e+09,-1.01375e+09,-101305,0.0108071,0.0935596,0,0.0941817,16185,-36912.5,0,40304.9,101305
step02_gravity_refstate-crust.xmf,1342,-1.28947e-06,4.86608e-06,0,-1.57829e-06,-9.79784e+08,-9.79361e+08,-9.79695e+08,-108270,0.0119749,0.0987018,0,0.0994256,16432.8,-35672.3,0,39275.3,108270
step02_gravity_refstate-crust.xmf,1343,-4.22566e-07,2.27051e-06,0,-1.29054e-06,-5.65023e+08,-5.64838e+08,-5.64994e+08,-88530.7,0.00997142,0.135126,0,0.135494,21169.7,-20572,0,29518.9,88530.7
step02_gravity_refstate-crust.xmf,1344,-3.52493e-07,1.58406e-06,0,-9.24186e-07,-3.92198e+08,-3.92065e+08,-3.92174e+08,-63399.2,0.00761189,0.140591,0,0.140797,24444.7,-14279.4,0,28309.8,63399.2
step02_gravity_refstate-crust.xmf,1345,-3.94759e-07,1.29872e-06,0,-6.96516e-07,-3.11471e+08,-3.11355e+08,-3.11444e+08,-47781,0.00665862,0.140605,0,0.140762,27049.8,-11339.8,0,29330.6,47781
step02_gravity_refstate-crust.xmf,1346,-4.52739e-07,1.23798e-06,0,-5.66736e-07,-2.88398e+08,-2.88282e+08,-2.88367e+08,-38878.1,0.00583549,0.13874,0,0.138862,29198.4,-10499.5,0,31028.8,38878.1
step02_gravity_refstate-crust.xmf,1347,-5.55776e-07,1.05562e-06,0,-3.45605e-07,-2.3229e+08,-2.3218e+08,-2.32252e+08,-23708.5,0.00443317,0.137434,0,0.137505,32639.9,-8456.15,0,33717.5,23708.5
step02_gravity_refstate-crust.xmf,1348,-6.32767e-07,9.23589e-07,0,-2.21343e-07,-1.91661e+08,-1.91554e+08,-1.91617e+08,-15184.1,0.00348762,0.137363,0,0.137408,34706.7,-6976.46,0,35401,15184.1
step02_gravity_refstate-crust.xmf,1349,-7.56827e-07,7.35494e-07,0,-9.28898e-08,-1.31167e+08,-1.31065e+08,-1.31115e+08,-6372.24,0.0022313,0.138052,0,0.13807,37094.8,-4773.34,0,37400.6,6372.24
step02_gravity_refstate-crust.xmf,1350,-8.67007e-07,6.18566e-07,0,2.2128e-09,-8.74385e+07,-8.73366e+07,-8.73791e+07,151.798,1.60083e-19,0.138652,0,0.138652,40000,-3180.74,0,40126.3,151.798
step02_gravity_refstate-crust.xmf,1351,-4.54763e-07,2.27916e-06,0,-1.16168e-06,-5.49993e+08,-5.49805e+08,-5.49962e+08,-79690.9,0.00911098,0.132624,0,0.132937,22853.5,-20024.7,0,30385.4,79690.9
step02_gravity_refstate-crust.xmf,1352,-3.82576e-07,1.8363e-06,0,-1.01072e-06,-4.50412e+08,-4.5026e+08,-4.50386e+08,-69335.7,0.00801114,0.137815,0,0.138048,23980.7,-16399,0,29051.7,69335.7
step02_gravity_refstate-crust.xmf,1353,-4.14441e-07,2.05023e-06,0,-1.08768e-06,-4.99601e+08,-4.99432e+08,-4.99573e+08,-74615.1,0.00851135,0.135381,0,0.135649,23441.4,-18190,0,29671.1,74615.1
step02_gravity_refstate-crust.xmf,1354,-4.03754e-07,1.56856e-06,0,-7.92189e-07,-3.75784e+08,-3.75649e+08,-3.75756e+08,-54344.2,0.00676958,0.137935,0,0.138101,26600.5,-13681.6,0,29912.7,54344.2
step02_gravity_refstate-crust.xmf,1355,-5.03557e-07,1.20315e-06,0,-4.54159e-07,-2.73092e+08,-2.72974e+08,-2.73057e+08,-31155.3,0.00497179,0.137164,0,0.137255,31163.7,-9942,0,32711.1,31155.3
step02_gravity_refstate-crust.xmf,1356,-4.81292e-07,2.50602e-06,0,-1.35195e-06,-6.12782e+08,-6.12577e+08,-6.12749e+08,-92743.6,0.0105669,0.131856,0,0.132279,20803.1,-22310.9,0,30504.8,92743.6
step02_gravity_refstate-crust.xmf,1357,-6.87006e-07,3.18241e-06,0,-1.51933e-06,-7.41429e+08,-7.41163e+08,-7.41381e+08,-104226,0.0121885,0.122269,0,0.122875,19447.5,-26994.6,0,33270.3,104226
step02_gravity_refstate-crust.xmf,1358,-6.10061e-07,2.94887e-06,0,-1.47538e-06,-7.00089e+08,-6.99845e+08,-7.00047e+08,-101211,0.0117403,0.125707,0,0.126254,19853.2,-25489.5,0,32308.9,101211
step02_gravity_refstate-crust.xmf,1359,-5.43722e-07,2.72891e-06,0,-1.41223e-06,-6.57225e+08,-6.57001e+08,-6.57188e+08,-96879.3,0.01115,0.128716,0,0.129198,20375.7,-23929,0,31428.7,96879.3
step02_gravity_refstate-crust.xmf,1360,-7.69848e-07,3.42109e-06,0,-1.552e-06,-7.80914e+08,-7.80627e+08,-7.80862e+08,-106467,0.0125211,0.118718,0,0.119376,19057.8,-28432.2,0,34228.5,106467
step02_gravity_refstate-crust.xmf,1361,-8.59357e-07,3.67494e-06,0,-1.56178e-06,-8.19644e+08,-8.19333e+08,-8.19585e+08,-107138,0.0126612,0.114738,0,0.115435,18742,-29842.2,0,35239.5,107138
step02_gravity_refstate-crust.xmf,1362,-9.50788e-07,3.94091e-06,0,-1.54607e-06,-8.57612e+08,-8.57277e+08,-8.57547e+08,-106060,0.0125718,0.11035,0,0.111064,18484.1,-31224.5,0,36285.4,106060
step02_gravity_refstate-crust.xmf,1363,-1.03939e-06,4.2138e-06,0,-1.51016e-06,-8.94858e+08,-8.94498e+08,-8.94787e+08,-103597,0.0122661,0.105738,0,0.106447,18224.3,-32580.5,0,37331.2,103597
step02_gravity_refstate-crust.xmf,1364,-1.12062e-06,4.49506e-06,0,-1.44975e-06,-9.31995e+08,-9.3161e+08,-9.31918e+08,-99452.9,0.0116905,0.10079,0,0.101466,17966.9,-33932.6,0,38395.8,99452.9
step02_gravity_refstate-crust.xmf,1365,-1.18793e-06,4.7766e-06,0,-1.36799e-06,-9.68601e+08,-9.68191e+08,-9.68519e+08,-93844.3,0.0108328,0.0956266,0,0.0962382,17696.2,-35265.5,0,39456.4,93844.3
step02_gravity_refstate-crust.xmf,1366,-1.26897e-06,5.56433e-06,0,-1.06894e-06,-1.07003e+09,-1.06956e+09,-1.06994e+09,-73329.4,0.00683761,0.0805123,0,0.0808021,16681.4,-38958.8,0,42380,73329.4
step02_gravity_refstate-crust.xmf,1367,-1.25649e-06,5.31613e-06,0,-1.15213e-06,-1.03834e+09,-1.03789e+09,-1.03826e+09,-79036.1,0.00825468,0.0849989,0,0.0853988,17131,-37805,0,41505.3,79036.1
step02_gravity_refstate-crust.xmf,1368,-1.23229e-06,5.05089e-06,0,-1.26035e-06,-1.00402e+09,-1.00359e+09,-1.00394e+09,-86460.3,0.00963749,0.0901968,0,0.0907102,17459.6,-36555.3,0,40510.8,86460.3
step02_gravity_refstate-crust.xmf,1369,-5.12267e-07,2.51885e-06,0,-1.21497e-06,-5.99338e+08,-5.9913e+08,-5.99303e+08,-83346.8,0.00961872,0.129074,0,0.129432,22507.8,-21821.3,0,31349.2,83346.8
step02_gravity_refstate-crust.xmf,1370,-4.2885e-07,1.83318e-06,0,-8.76049e-07,-4.36594e+08,-4.36439e+08,-4.36565e+08,-60097,0.00708948,0.134955,0,0.135141,26115.8,-15895.8,0,30573.1,60097
step02_gravity_refstate-crust.xmf,1371,-4.47668e-07,1.52101e-06,0,-6.53377e-07,-3.55665e+08,-3.5553e+08,-3.55634e+08,-44821.7,0.00583684,0.135884,0,0.136009,28797,-12948.9,0,31574.4,44821.7
step02_gravity_refstate-crust.xmf,1372,-4.87653e-07,1.44211e-06,0,-5.18806e-07,-3.31291e+08,-3.31158e+08,-3.31257e+08,-35590.1,0.00488976,0.134635,0,0.134724,30909,-12061.2,0,33178.9,35590.1
step02_gravity_refstate-crust.xmf,1373,-5.25414e-07,1.33846e-06,0,-3.8852e-07,-3.0214e+08,-3.02012e+08,-3.02104e+08,-26652.5,0.00395369,0.134149,0,0.134207,32919.9,-10999.7,0,34709,26652.5
step02_gravity_refstate-crust.xmf,1374,-5.72626e-07,1.19095e-06,0,-2.5264e-07,-2.62273e+08,-2.62152e+08,-2.62234e+08,-17331.1,0.00292143,0.134432,0,0.134464,35055.6,-9547.83,0,36332.6,17331.1
step02_gravity_refstate-crust.xmf,1375,-6.34596e-07,1.02187e-06,0,-1.17517e-07,-2.15451e+08,-2.15337e+08,-2.15407e+08,-8061.68,0.00165958,0.135251,0,0.135261,37412.8,-7842.72,0,38225.9,8061.68
step02_gravity_refstate-crust.xmf,1376,-6.98304e-07,8.71915e-07,0,8.20191e-10,-1.71825e+08,-1.71717e+08,-1.71777e+08,56.2651,1.17985e-19,0.13636,0,0.13636,40000,-6253.97,0,40485.9,56.2651
step02_gravity_refstate-crust.xmf,1377,-7.59461e-07,3.42538e-06,0,-1.38474e-06,-7.69903e+08,-7.69616e+08,-7.69851e+08,-94993.4,0.0114494,0.115851,0,0.116415,20481.1,-28031.3,0,34716.4,94993.4
step02_gravity_refstate-crust.xmf,1378,-5.22473e-07,2.4989e-06,0,-1.08517e-06,-5.83179e+08,-5.82971e+08,-5.83143e+08,-74442.8,0.008697,0.127119,0,0.127416,24112.1,-21233,0,32128.4,74442.8
step02_gravity_refstate-crust.xmf,1379,-4.74038e-07,2.26106e-06,0,-1.05369e-06,-5.35509e+08,-5.35321e+08,-5.35476e+08,-72283.3,0.00834718,0.130866,0,0.131132,24301.8,-19497.3,0,31156.4,72283.3
step02_gravity_refstate-crust.xmf,1380,-4.65855e-07,2.13173e-06,0,-9.55405e-07,-5.01723e+08,-5.01544e+08,-5.01691e+08,-65540.8,0.0076141,0.131318,0,0.131538,25503.2,-18267.1,0,31370.4,65540.8
step02_gravity_refstate-crust.xmf,1381,-4.61249e-07,1.79734e-06,0,-7.28976e-07,-4.18659e+08,-4.18504e+08,-4.18628e+08,-50007.7,0.00606725,0.132731,0,0.132869,28326.6,-15242.6,0,32167.2,50007.7
step02_gravity_refstate-crust.xmf,1382,-5.69608e-07,2.76086e-06,0,-1.25643e-06,-6.46138e+08,-6.45909e+08,-6.46099e+08,-86190.8,0.0101088,0.125479,0,0.125886,22118.5,-23525.3,0,32290.4,86190.8
step02_gravity_refstate-crust.xmf,1383,-6.92083e-07,3.2012e-06,0,-1.35978e-06,-7.31126e+08,-7.30859e+08,-7.31078e+08,-93280.8,0.0111453,0.119281,0,0.1198,20930.3,-26619.5,0,33862.6,93280.8
step02_gravity_refstate-crust.xmf,1384,-6.33573e-07,3.00029e-06,0,-1.29733e-06,-6.91759e+08,-6.91509e+08,-6.91715e+08,-88997.1,0.0105835,0.12184,0,0.122299,21652.6,-25186.2,0,33214.2,88997.1
step02_gravity_refstate-crust.xmf,1385,-8.31766e-07,3.66027e-06,0,-1.387e-06,-8.07788e+08,-8.07479e+08,-8.07731e+08,-95147.9,0.0115581,0.111981,0,0.112576,20133.3,-29410.6,0,35641.8,95147.9
step02_gravity_refstate-crust.xmf,1386,-9.04641e-07,3.90294e-06,0,-1.37068e-06,-8.45057e+08,-8.44728e+08,-8.44995e+08,-94028.5,0.0114818,0.107802,0,0.108412,19821.1,-30767.5,0,36599.4,94028.5
step02_gravity_refstate-crust.xmf,1387,-9.74445e-07,4.15272e-06,0,-1.33266e-06,-8.81924e+08,-8.81573e+08,-8.81857e+08,-91420.7,0.0111841,0.103283,0,0.103887,19540.7,-32109.8,0,37588.3,91420.7
step02_gravity_refstate-crust.xmf,1388,-1.03804e-06,4.41637e-06,0,-1.26812e-06,-9.19828e+08,-9.19454e+08,-9.19757e+08,-86993,0.0106022,0.0982243,0,0.0987949,19279.1,-33489.9,0,38642.7,86993
step02_gravity_refstate-crust.xmf,1389,-1.08899e-06,4.67682e-06,0,-1.18844e-06,-9.56922e+08,-9.56527e+08,-9.56847e+08,-81526.9,0.00978352,0.0930591,0,0.093572,18986.8,-34840.5,0,39678.2,81526.9
step02_gravity_refstate-crust.xmf,1390,-1.12165e-06,4.92056e-06,0,-1.09839e-06,-9.91871e+08,-9.91457e+08,-9.91794e+08,-75349.5,0.00874868,0.0879807,0,0.0884146,18683.9,-36113.2,0,40660.1,75349.5
step02_gravity_refstate-crust.xmf,1391,-1.11565e-06,5.44489e-06,0,-8.49345e-07,-1.06751e+09,-1.06706e+09,-1.06743e+09,-58265.1,0.0054354,0.0760863,0,0.0762802,17996.8,-38867.7,0,42832.1,58265.1
step02_gravity_refstate-crust.xmf,1392,-1.10752e-06,5.17603e-06,0,-9.35857e-07,-1.02999e+09,-1.02956e+09,-1.02992e+09,-64199.8,0.00696969,0.0812196,0,0.0815181,18613,-37501.4,0,41866.4,64199.8
step02_gravity_refstate-crust.xmf,1393,-5.80475e-07,2.75103e-06,0,-1.11483e-06,-6.33119e+08,-6.32891e+08,-6.33079e+08,-76477.5,0.00906646,0.122925,0,0.123258,23836.4,-23051.2,0,33159.2,76477.5
step02_gravity_refstate-crust.xmf,1394,-5.25325e-07,2.44424e-06,0,-9.65437e-07,-5.63659e+08,-5.63455e+08,-5.63623e+08,-66229,0.00779357,0.125859,0,0.1261,25674.7,-20522.2,0,32868.7,66229
step02_gravity_refstate-crust.xmf,1395,-4.91127e-07,2.07967e-06,0,-7.9491e-07,-4.80956e+08,-4.8078e+08,-4.80922e+08,-54530.8,0.00642187,0.129039,0,0.129198,27848.5,-17510.9,0,32896.3,54530.8
step02_gravity_refstate-crust.xmf,1396,-4.88381e-07,1.72868e-06,0,-5.8123e-07,-3.96705e+08,-3.96553e+08,-3.96671e+08,-39872.3,0.00499467,0.131262,0,0.131357,30554.3,-14443.1,0,33796,39872.3
step02_gravity_refstate-crust.xmf,1397,-5.15226e-07,1.63735e-06,0,-4.34211e-07,-3.71744e+08,-3.71596e+08,-3.71709e+08,-29786.9,0.00387108,0.130466,0,0.130523,32820.9,-13534.2,0,35501.9,29786.9
step02_gravity_refstate-crust.xmf,1398,-5.4138e-07,1.5033e-06,0,-2.84402e-07,-3.37692e+08,-3.37551e+08,-3.37654e+08,-19510,0.00269712,0.130689,0,0.130717,35129.5,-12294.1,0,37218.6,19510
step02_gravity_refstate-crust.xmf,1399,-5.72702e-07,1.33514e-06,0,-1.35621e-07,-2.95493e+08,-2.95363e+08,-2.95454e+08,-9303.58,0.00142539,0.13178,0,0.131788,37529.4,-10757.5,0,39040.7,9303.58
step02_gravity_refstate-crust.xmf,1400,-6.05452e-07,1.17011e-06,0,7.43945e-10,-2.53493e+08,-2.53371e+08,-2.53452e+08,51.0346,1.00336e-19,0.133323,0,0.133323,40000,-9228.03,0,41050.7,51.0346
step02_gravity_refstate-crust.xmf,1401,-7.50381e-07,3.42697e-06,0,-1.25004e-06,-7.62921e+08,-7.62634e+08,-7.62869e+08,-85752.4,0.0105101,0.113262,0,0.113749,21756.1,-27777.2,0,35283.1,85752.4
step02_gravity_refstate-crust.xmf,1402,-8.00506e-07,3.6369e-06,0,-1.23187e-06,-7.97404e+08,-7.971e+08,-7.97349e+08,-84506.3,0.010505,0.109466,0,0.109969,21515.6,-29032.7,0,36136.1,84506.3
step02_gravity_refstate-crust.xmf,1403,-5.74642e-07,2.71589e-06,0,-9.7993e-07,-6.17454e+08,-6.17228e+08,-6.17414e+08,-67223.2,0.00806283,0.121142,0,0.12141,25498.5,-22480.9,0,33993.6,67223.2
step02_gravity_refstate-crust.xmf,1404,-5.04424e-07,2.02243e-06,0,-6.42089e-07,-4.61689e+08,-4.61515e+08,-4.61654e+08,-44047.3,0.005293,0.127441,0,0.127551,30047.2,-16809.3,0,34429.4,44047.3
step02_gravity_refstate-crust.xmf,1405,-6.34791e-07,3.00869e-06,0,-1.13479e-06,-6.81497e+08,-6.81247e+08,-6.81453e+08,-77846.5,0.0094296,0.11873,0,0.119103,23437,-24812.7,0,34131.6,77846.5
step02_gravity_refstate-crust.xmf,1406,-7.01492e-07,3.28903e-06,0,-1.15584e-06,-7.33423e+08,-7.33149e+08,-7.33375e+08,-79290.6,0.009793,0.114105,0,0.114525,22866.6,-26703.3,0,35156,79290.6
step02_gravity_refstate-crust.xmf,1407,-8.57277e-07,3.86097e-06,0,-1.21374e-06,-8.34236e+08,-8.33912e+08,-8.34177e+08,-83262.4,0.010427,0.105388,0,0.105903,21169.6,-30373.7,0,37023.1,83262.4
step02_gravity_refstate-crust.xmf,1408,-9.10986e-07,4.08898e-06,0,-1.17543e-06,-8.70272e+08,-8.69929e+08,-8.70209e+08,-80634.3,0.0101389,0.101003,0,0.10151,20877.2,-31685.8,0,37945.3,80634.3
step02_gravity_refstate-crust.xmf,1409,-9.56267e-07,4.32818e-06,0,-1.10925e-06,-9.07464e+08,-9.07102e+08,-9.07399e+08,-76094.3,0.009571,0.0960169,0,0.0964927,20632.4,-33040,0,38953,76094.3
step02_gravity_refstate-crust.xmf,1410,-9.91988e-07,4.57206e-06,0,-1.02909e-06,-9.45218e+08,-9.44837e+08,-9.4515e+08,-70595.7,0.00877524,0.0907753,0,0.0911985,20337.2,-34414.7,0,39974.6,70595.7
step02_gravity_refstate-crust.xmf,1411,-1.01724e-06,4.80059e-06,0,-9.50604e-07,-9.80403e+08,-9.80003e+08,-9.80333e+08,-65211.4,0.00786305,0.0858939,0,0.086253,19965.1,-35695.9,0,40899.9,65211.4
step02_gravity_refstate-crust.xmf,1412,-1.03447e-06,4.98203e-06,0,-8.92556e-07,-1.00767e+09,-1.00726e+09,-1.0076e+09,-61229.3,0.00706216,0.0822224,0,0.0825252,19579.6,-36688.8,0,41586.4,61229.3
step02_gravity_refstate-crust.xmf,1413,-9.63412e-07,5.32065e-06,0,-6.61423e-07,-1.06585e+09,-1.06542e+09,-1.06579e+09,-45373.6,0.00412553,0.0719958,0,0.072114,19356.1,-38807.8,0,43367.1,45373.6
step02_gravity_refstate-crust.xmf,1414,-6.25748e-07,2.97192e-06,0,-9.90381e-07,-6.67915e+08,-6.67668e+08,-6.67872e+08,-67940.1,0.00830019,0.116462,0,0.116757,25219.3,-24318.2,0,35034.1,67940.1
step02_gravity_refstate-crust.xmf,1415,-5.26861e-07,2.37789e-06,0,-8.31638e-07,-5.42994e+08,-5.42795e+08,-5.42958e+08,-57050.3,0.00676166,0.124533,0,0.124717,27510.4,-19769.8,0,33877.2,57050.3
step02_gravity_refstate-crust.xmf,1416,-5.67905e-07,2.66305e-06,0,-8.47828e-07,-6.00997e+08,-6.00775e+08,-6.00958e+08,-58161,0.00702135,0.119615,0,0.119821,27266.4,-21881.7,0,34960.9,58161
step02_gravity_refstate-crust.xmf,1417,-5.3312e-07,2.31297e-06,0,-6.86984e-07,-5.24313e+08,-5.24118e+08,-5.24277e+08,-47127.1,0.0056133,0.123065,0,0.123193,29609.7,-19089.6,0,35229.9,47127.1
step02_gravity_refstate-crust.xmf,1418,-5.18266e-07,1.94396e-06,0,-4.84623e-07,-4.40129e+08,-4.3996e+08,-4.40093e+08,-33245.2,0.00407357,0.126401,0,0.126467,32397.6,-16024.2,0,36143.9,33245.2
step02_gravity_refstate-crust.xmf,1419,-5.35087e-07,1.86259e-06,0,-3.08966e-07,-4.19006e+08,-4.18841e+08,-4.18969e+08,-21195,0.00264625,0.12572,0,0.125748,35110.1,-15255,0,38281,21195
step02_gravity_refstate-crust.xmf,1420,-5.47765e-07,1.65776e-06,0,-1.47402e-07,-3.71388e+08,-3.71236e+08,-3.7135e+08,-10111.8,0.00133218,0.127629,0,0.127636,37578.6,-13521.1,0,39937.1,10111.8
step02_gravity_refstate-crust.xmf,1421,-5.61225e-07,1.4936e-06,0,4.51298e-10,-3.32666e+08,-3.32525e+08,-3.32628e+08,30.959,9.3028e-20,0.129484,0,0.129484,40000,-12111.1,0,41793.3,30.959
step02_gravity_refstate-crust.xmf,1422,-7.63555e-07,3.57423e-06,0,-1.09552e-06,-7.83179e+08,-7.82882e+08,-7.83127e+08,-75152.5,0.00947763,0.107639,0,0.108056,22974,-28514.9,0,36618.3,75152.5
step02_gravity_refstate-crust.xmf,1423,-9.46634e-07,5.10431e-06,0,-7.03469e-07,-1.03536e+09,-1.03494e+09,-1.03529e+09,-48258,0.00515128,0.075577,0,0.0757523,20103.7,-37697.2,0,42722.8,48258
step02_gravity_refstate-crust.xmf,1424,-8.10935e-07,3.82807e-06,0,-1.06304e-06,-8.26397e+08,-8.26078e+08,-8.26341e+08,-72924.3,0.00935085,0.102782,0,0.103207,22579.7,-30088.4,0,37618.5,72924.3
step02_gravity_refstate-crust.xmf,1425,-6.05263e-07,2.92452e-06,0,-8.53881e-07,-6.53423e+08,-6.53181e+08,-6.53382e+08,-58576.2,0.00723793,0.114816,0,0.115044,26954.1,-23790.6,0,35951.6,58576.2
step02_gravity_refstate-crust.xmf,1426,-5.32528e-07,2.23991e-06,0,-5.36265e-07,-5.04699e+08,-5.04509e+08,-5.04663e+08,-36787.8,0.00443463,0.122103,0,0.122183,31785.7,-18375.4,0,36714.9,36787.8
step02_gravity_refstate-crust.xmf,1427,-6.696e-07,3.23444e-06,0,-9.88096e-07,-7.17282e+08,-7.17014e+08,-7.17236e+08,-67783.4,0.00849918,0.111703,0,0.112026,24815.5,-26115.7,0,36025.5,67783.4
step02_gravity_refstate-crust.xmf,1428,-7.15487e-07,3.50206e-06,0,-9.64506e-07,-7.67075e+08,-7.66786e+08,-7.67026e+08,-66165.1,0.00848903,0.106314,0,0.106653,24477,-27928.7,0,37136.7,66165.1
step02_gravity_refstate-crust.xmf,1429,-8.55246e-07,4.01845e-06,0,-1.05759e-06,-8.5954e+08,-8.59206e+08,-8.59482e+08,-72550.8,0.00928558,0.0993707,0,0.0998036,22059.4,-31295.2,0,38288.5,72550.8
step02_gravity_refstate-crust.xmf,1430,-8.76087e-07,4.22998e-06,0,-9.69161e-07,-8.94654e+08,-8.94304e+08,-8.94594e+08,-66484.5,0.00858419,0.0941281,0,0.0945187,22048.4,-32573.8,0,39334.3,66484.5
step02_gravity_refstate-crust.xmf,1431,-8.95774e-07,4.46427e-06,0,-8.83974e-07,-9.34078e+08,-9.3371e+08,-9.34016e+08,-60640.6,0.00777149,0.0886037,0,0.0889439,21775.1,-34009.3,0,40383,60640.6
step02_gravity_refstate-crust.xmf,1432,-9.19383e-07,4.90407e-06,0,-7.33819e-07,-1.00645e+09,-1.00605e+09,-1.00638e+09,-50340,0.00589476,0.0787966,0,0.0790168,20832.2,-36644.5,0,42152.1,50340
step02_gravity_refstate-crust.xmf,1433,-9.0757e-07,4.69441e-06,0,-7.97685e-07,-9.72612e+08,-9.72227e+08,-9.72549e+08,-54721.2,0.00680552,0.0832143,0,0.0834921,21384.7,-35412.5,0,41368.5,54721.2
step02_gravity_refstate-crust.xmf,1434,-8.14478e-07,5.19873e-06,0,-5.00292e-07,-1.06566e+09,-1.06525e+09,-1.0656e+09,-34320,0.00290299,0.0681437,0,0.0682055,20743.3,-38801.2,0,43997.9,34320
step02_gravity_refstate-crust.xmf,1435,-6.44326e-07,3.17471e-06,0,-8.53506e-07,-7.03641e+08,-7.03379e+08,-7.03597e+08,-58550.5,0.00738332,0.109894,0,0.110142,26583.7,-25619.1,0,36919.3,58550.5
step02_gravity_refstate-crust.xmf,1436,-5.87606e-07,2.86881e-06,0,-7.20297e-07,-6.39492e+08,-6.39255e+08,-6.39451e+08,-49412.4,0.0061403,0.113328,0,0.113494,28810.4,-23283.4,0,37042.6,49412.4
step02_gravity_refstate-crust.xmf,1437,-5.6e-07,2.60267e-06,0,-7.10804e-07,-5.84541e+08,-5.84324e+08,-5.84503e+08,-48761.2,0.00591718,0.118249,0,0.118397,29191.7,-21282.6,0,36126.2,48761.2
step02_gravity_refstate-crust.xmf,1438,-5.54878e-07,2.52861e-06,0,-5.72413e-07,-5.66777e+08,-5.66566e+08,-5.66739e+08,-39267.5,0.00476291,0.117299,0,0.117396,31251.4,-20635.8,0,37449.7,39267.5
step02_gravity_refstate-crust.xmf,1439,-5.35829e-07,2.16422e-06,0,-3.8421e-07,-4.86002e+08,-4.85817e+08,-4.85965e+08,-26356.8,0.00320217,0.121526,0,0.121568,34075.4,-17694.6,0,38395.7,26356.8
step02_gravity_refstate-crust.xmf,1440,-5.42326e-07,1.98898e-06,0,-1.43178e-07,-4.45651e+08,-4.45477e+08,-4.45614e+08,-9821.99,0.00121431,0.122644,0,0.12265,37763.4,-16225.3,0,41101.5,9821.99
step02_gravity_refstate-crust.xmf,1441,-5.45357e-07,1.82883e-06,0,1.37642e-10,-4.09562e+08,-4.09399e+08,-4.09525e+08,9.44225,8.4403e-20,0.124832,0,0.124832,40000,-14911.1,0,42688.9,9.44225
step02_gravity_refstate-crust.xmf,1442,-7.61645e-07,3.76934e-06,0,-9.2646e-07,-8.16867e+08,-8.16556e+08,-8.16815e+08,-63555.1,0.00826433,0.100496,0,0.100835,24122.5,-29741.6,0,38294.4,63555.1
step02_gravity_refstate-crust.xmf,1443,-8.07613e-07,5.00385e-06,0,-5.44139e-07,-1.03625e+09,-1.03585e+09,-1.0362e+09,-37328,0.00387954,0.0716801,0,0.071785,21500,-37730.3,0,43426.1,37328
step02_gravity_refstate-crust.xmf,1444,-7.98012e-07,4.06246e-06,0,-8.74381e-07,-8.68688e+08,-8.68355e+08,-8.68633e+08,-59982.6,0.00792466,0.0945086,0,0.0948403,23500.9,-31628.5,0,39403.8,59982.6
step02_gravity_refstate-crust.xmf,1445,-6.11146e-07,3.1191e-06,0,-7.17806e-07,-6.90933e+08,-6.90677e+08,-6.90891e+08,-49241.5,0.00628222,0.108326,0,0.108508,28409.3,-25156.5,0,37946.5,49241.5
step02_gravity_refstate-crust.xmf,1446,-5.45773e-07,2.45457e-06,0,-4.26464e-07,-5.49194e+08,-5.48988e+08,-5.49156e+08,-29255.4,0.00357251,0.116747,0,0.116802,33415.3,-19995.5,0,38941,29255.4
step02_gravity_refstate-crust.xmf,1447,-5.40819e-07,2.14259e-06,0,-2.53976e-07,-4.80081e+08,-4.79897e+08,-4.80044e+08,-17422.8,0.00212596,0.120724,0,0.120742,36075.2,-17479,0,40086.5,17422.8
step02_gravity_refstate-crust.xmf,1448,-6.70977e-07,3.42734e-06,0,-8.29787e-07,-7.52439e+08,-7.52157e+08,-7.52393e+08,-56923.4,0.00738715,0.104704,0,0.104964,26215.3,-27395.9,0,37918,56923.4
step02_gravity_refstate-crust.xmf,1449,-6.96498e-07,3.68349e-06,0,-7.91705e-07,-8.02326e+08,-8.02026e+08,-8.02279e+08,-54310.9,0.00720604,0.0989899,0,0.0992518,25822.6,-29212.4,0,38989.4,54310.9
step02_gravity_refstate-crust.xmf,1450,-8.03806e-07,4.33139e-06,0,-7.65308e-07,-9.1868e+08,-9.18328e+08,-9.18625e+08,-52500.1,0.00692092,0.0873321,0,0.0876059,23302.3,-33448.9,0,40765.5,52500.1
step02_gravity_refstate-crust.xmf,1451,-7.96964e-07,4.56467e-06,0,-6.67408e-07,-9.6221e+08,-9.61842e+08,-9.62155e+08,-45784.2,0.00585945,0.0811137,0,0.0813251,22942.6,-35034.1,0,41877.8,45784.2
step02_gravity_refstate-crust.xmf,1452,-7.77041e-07,4.79929e-06,0,-5.60965e-07,-1.00638e+09,-1.006e+09,-1.00633e+09,-38482.2,0.0045171,0.074703,0,0.0748394,22460,-36642.6,0,42978.3,38482.2
step02_gravity_refstate-crust.xmf,1453,-6.71888e-07,5.08482e-06,0,-3.6586e-07,-1.0674e+09,-1.06701e+09,-1.06736e+09,-25098,0.00178605,0.0645107,0,0.0645354,22113.9,-38865.1,0,44716,25098
step02_gravity_refstate-crust.xmf,1454,-6.34552e-07,3.35461e-06,0,-7.08657e-07,-7.3974e+08,-7.39467e+08,-7.39697e+08,-48613.9,0.00632997,0.103263,0,0.103456,27968.4,-26933.6,0,38828.5,48613.9
step02_gravity_refstate-crust.xmf,1455,-5.84246e-07,3.06491e-06,0,-5.8635e-07,-6.80136e+08,-6.79886e+08,-6.80096e+08,-40223.6,0.00516236,0.106852,0,0.106977,30341,-24763.4,0,39163.8,40223.6
step02_gravity_refstate-crust.xmf,1456,-5.7036e-07,2.80606e-06,0,-5.86318e-07,-6.25295e+08,-6.25063e+08,-6.25256e+08,-40221.4,0.00501448,0.112171,0,0.112283,30778.4,-22766.5,0,38283.4,40221.4
step02_gravity_refstate-crust.xmf,1457,-5.58692e-07,2.73134e-06,0,-4.52671e-07,-6.09366e+08,-6.09141e+08,-6.09328e+08,-31053.2,0.00385527,0.111557,0,0.111623,32865.2,-22186.6,0,39653.1,31053.2
step02_gravity_refstate-crust.xmf,1458,-5.42975e-07,2.3933e-06,0,-2.80522e-07,-5.35088e+08,-5.34886e+08,-5.3505e+08,-19243.8,0.00235734,0.11641,0,0.116434,35648.8,-19481.9,0,40624.9,19243.8
step02_gravity_refstate-crust.xmf,1459,-5.43112e-07,2.30394e-06,0,-1.40814e-07,-5.15127e+08,-5.14931e+08,-5.15089e+08,-9659.84,0.00117828,0.117197,0,0.117202,37825.5,-18755.1,0,42219.9,9659.84
step02_gravity_refstate-crust.xmf,1460,-5.4252e-07,2.16542e-06,0,-2.94244e-11,-4.84396e+08,-4.8421e+08,-4.84358e+08,-2.01852,8.17597e-20,0.119391,0,0.119391,40000,-17636.1,0,43715.3,2.01852
step02_gravity_refstate-crust.xmf,1461,-7.18956e-07,3.93728e-06,0,-7.40254e-07,-8.52437e+08,-8.52117e+08,-8.52387e+08,-50781.4,0.00679817,0.0928763,0,0.0931248,25389.5,-31037,0,40098.9,50781.4
step02_gravity_refstate-crust.xmf,1462,-6.94637e-07,4.93045e-06,0,-4.26406e-07,-1.0397e+09,-1.03932e+09,-1.03966e+09,-29251.4,0.00285147,0.0683912,0,0.0684506,22641.7,-37856.3,0,44110.6,29251.4
step02_gravity_refstate-crust.xmf,1463,-5.92178e-07,3.29506e-06,0,-5.82625e-07,-7.2938e+08,-7.29113e+08,-7.29339e+08,-39968,0.00526373,0.101835,0,0.101971,29813.4,-26556.5,0,39926,39968
step02_gravity_refstate-crust.xmf,1464,-5.44792e-07,2.65095e-06,0,-3.14021e-07,-5.91922e+08,-5.91703e+08,-5.91885e+08,-21541.8,0.00268117,0.11157,0,0.111602,35023.3,-21551.4,0,41122.9,21541.8
step02_gravity_refstate-crust.xmf,1465,-6.42334e-07,3.59077e-06,0,-6.74096e-07,-7.87703e+08,-7.87413e+08,-7.87659e+08,-46243,0.00619428,0.0978385,0,0.0980343,27571.7,-28680.1,0,39783.7,46243
step02_gravity_refstate-crust.xmf,1466,-6.44755e-07,3.83122e-06,0,-6.24152e-07,-8.37619e+08,-8.37312e+08,-8.37575e+08,-42816.8,0.00584491,0.0917969,0,0.0919828,27147.9,-30497.7,0,40830.3,42816.8
step02_gravity_refstate-crust.xmf,1467,-7.15592e-07,4.19149e-06,0,-6.59075e-07,-9.01743e+08,-9.01406e+08,-9.01694e+08,-45212.5,0.00610442,0.0864461,0,0.0866614,24950.2,-32832.4,0,41236.9,45212.5
step02_gravity_refstate-crust.xmf,1468,-6.97074e-07,4.42337e-06,0,-5.63489e-07,-9.48827e+08,-9.48476e+08,-9.48779e+08,-38655.3,0.0050865,0.0798212,0,0.0799831,24569.8,-34547,0,42393.1,38655.3
step02_gravity_refstate-crust.xmf,1469,-6.62384e-07,4.62996e-06,0,-4.63828e-07,-9.91939e+08,-9.91576e+08,-9.91893e+08,-31818.6,0.00387315,0.073506,0,0.073608,24172.9,-36117,0,43459.9,31818.6
step02_gravity_refstate-crust.xmf,1470,-6.136e-07,4.80456e-06,0,-3.66604e-07,-1.02987e+09,-1.0295e+09,-1.02983e+09,-25149,0.00254189,0.0676993,0,0.067747,23814.8,-37498.4,0,44421.5,25149
step02_gravity_refstate-crust.xmf,1471,-5.49663e-07,4.96167e-06,0,-2.69806e-07,-1.06569e+09,-1.06531e+09,-1.06565e+09,-18508.7,0.00104542,0.0619962,0,0.0620051,23474.5,-38802.8,0,45350.9,18508.7
step02_gravity_refstate-crust.xmf,1472,-6.00191e-07,3.50526e-06,0,-5.71176e-07,-7.74709e+08,-7.74427e+08,-7.74668e+08,-39182.7,0.00525179,0.0969294,0,0.0970716,29292.4,-28207,0,40665.5,39182.7
step02_gravity_refstate-crust.xmf,1473,-5.53914e-07,3.26374e-06,0,-4.41945e-07,-7.26859e+08,-7.26597e+08,-7.26821e+08,-30317.4,0.00403836,0.0995978,0,0.0996796,31976.5,-26464.9,0,41507.6,30317.4
step02_gravity_refstate-crust.xmf,1474,-5.59864e-07,2.99948e-06,0,-4.58114e-07,-6.67738e+08,-6.67494e+08,-6.677e+08,-31426.6,0.00403924,0.105946,0,0.106023,32366.3,-24312.1,0,40480.3,31426.6
step02_gravity_refstate-crust.xmf,1475,-5.45716e-07,2.91904e-06,0,-3.36113e-07,-6.51623e+08,-6.51385e+08,-6.51586e+08,-23057.3,0.00293989,0.105924,0,0.105965,34425.1,-23725.3,0,41808.8,23057.3
step02_gravity_refstate-crust.xmf,1476,-5.39752e-07,2.63354e-06,0,-1.57983e-07,-5.882e+08,-5.87982e+08,-5.88163e+08,-10837.6,0.00135356,0.110734,0,0.110743,37478.4,-21415.9,0,43165.6,10837.6
step02_gravity_refstate-crust.xmf,1477,-5.39614e-07,2.49457e-06,0,-3.74095e-10,-5.5738e+08,-5.57172e+08,-5.57343e+08,-25.6629,9.38111e-20,0.113198,0,0.113198,40000,-20293.6,0,44853.5,25.6629
step02_gravity_refstate-crust.xmf,1478,-6.38795e-07,4.0636e-06,0,-5.60414e-07,-8.87267e+08,-8.86944e+08,-8.87223e+08,-38444.4,0.00524473,0.0854044,0,0.0855652,26706,-32305.5,0,41914.9,38444.4
step02_gravity_refstate-crust.xmf,1479,-5.61949e-07,3.43584e-06,0,-4.7859e-07,-7.63903e+08,-7.63629e+08,-7.63865e+08,-32831.3,0.00441334,0.0962645,0,0.0963656,30892.8,-27813.7,0,41568.8,32831.3
step02_gravity_refstate-crust.xmf,1480,-5.36352e-07,2.82743e-06,0,-2.29283e-07,-6.31979e+08,-6.31748e+08,-6.31942e+08,-15728.8,0.0019919,0.106888,0,0.106907,36235.3,-23010,0,42923.8,15728.8
step02_gravity_refstate-crust.xmf,1481,-5.87109e-07,3.72457e-06,0,-5.26389e-07,-8.22587e+08,-8.22292e+08,-8.22547e+08,-36110.3,0.00496565,0.0911526,0,0.0912877,28915.9,-29950.5,0,41631.2,36110.3
step02_gravity_refstate-crust.xmf,1482,-5.65102e-07,3.94587e-06,0,-4.69123e-07,-8.72355e+08,-8.72046e+08,-8.72316e+08,-32181.9,0.00447275,0.0848311,0,0.0849489,28473.1,-31762.8,0,42656.7,32181.9
step02_gravity_refstate-crust.xmf,1483,-6.07189e-07,4.28563e-06,0,-4.75418e-07,-9.34937e+08,-9.34602e+08,-9.34896e+08,-32613.7,0.00439091,0.0789216,0,0.0790436,26256.1,-34041.5,0,42990.8,32613.7
step02_gravity_refstate-crust.xmf,1484,-5.60625e-07,4.48764e-06,0,-3.80272e-07,-9.80904e+08,-9.80558e+08,-9.80866e+08,-26086.7,0.00324544,0.0722756,0,0.0723484,25846.5,-35715.5,0,44086.7,26086.7
step02_gravity_refstate-crust.xmf,1485,-5.00349e-07,4.66723e-06,0,-2.84026e-07,-1.02329e+09,-1.02294e+09,-1.02326e+09,-19484.2,0.00192417,0.065925,0,0.065953,25421.6,-37259.2,0,45105.5,19484.2
step02_gravity_refstate-crust.xmf,1486,-4.30967e-07,4.82748e-06,0,-1.92021e-07,-1.06218e+09,-1.06182e+09,-1.06215e+09,-13172.6,0.000476518,0.05994,0,0.0599419,24977.3,-38675.5,0,46039.8,13172.6
step02_gravity_refstate-crust.xmf,1487,-5.46733e-07,3.61937e-06,0,-4.45407e-07,-8.06099e+08,-8.05813e+08,-8.06062e+08,-30554.9,0.00419138,0.0911598,0,0.0912561,30622.2,-29350.2,0,42416.5,30554.9
step02_gravity_refstate-crust.xmf,1488,-5.19265e-07,3.48848e-06,0,-3.723e-07,-7.81231e+08,-7.80956e+08,-7.81195e+08,-25539.8,0.00349054,0.0925299,0,0.0925957,32363,-28444.8,0,43086.8,25539.8
step02_gravity_refstate-crust.xmf,1489,-5.29327e-07,3.17148e-06,0,-3.27793e-07,-7.09406e+08,-7.09152e+08,-7.0937e+08,-22486.6,0.00298366,0.0997816,0,0.0998262,34066.1,-25829.4,0,42751.1,22486.6
step02_gravity_refstate-crust.xmf,1490,-5.19369e-07,3.08165e-06,0,-2.21331e-07,-6.90887e+08,-6.90639e+08,-6.90851e+08,-15183.3,0.00198705,0.10063,0,0.10065,36072.9,-25155.1,0,43977.7,15183.3
step02_gravity_refstate-crust.xmf,1491,-5.23284e-07,2.92882e-06,0,-1.20986e-07,-6.55948e+08,-6.55711e+08,-6.55912e+08,-8299.61,0.00107401,0.103741,0,0.103747,37929.5,-23882.8,0,44822.3,8299.61
step02_gravity_refstate-crust.xmf,1492,-5.27122e-07,2.80945e-06,0,-4.1863e-10,-6.28716e+08,-6.28487e+08,-6.2868e+08,-28.718,7.44094e-20,0.106309,0,0.106309,40000,-22891.3,0,46087,28.718
step02_gravity_refstate-crust.xmf,1493,-5.31559e-07,4.15686e-06,0,-3.99568e-07,-9.21892e+08,-9.2157e+08,-9.21856e+08,-27410.3,0.00372341,0.0781833,0,0.0782719,28011.5,-33566.7,0,43719.2,27410.3
step02_gravity_refstate-crust.xmf,1494,-5.02821e-07,3.37083e-06,0,-3.02377e-07,-7.57387e+08,-7.57122e+08,-7.57353e+08,-20743,0.00282494,0.0941391,0,0.0941815,33968.9,-27576.6,0,43753.4,20743
step02_gravity_refstate-crust.xmf,1495,-5.10916e-07,3.82792e-06,0,-3.9305e-07,-8.5588e+08,-8.55583e+08,-8.55845e+08,-26963.2,0.00377203,0.0848293,0,0.0849131,30265.6,-31163,0,43441.2,26963.2
step02_gravity_refstate-crust.xmf,1496,-4.61727e-07,4.036e-06,0,-3.29757e-07,-9.07582e+08,-9.07274e+08,-9.07551e+08,-22621.4,0.00313704,0.0779658,0,0.0780289,29810.1,-33045.8,0,44504.7,22621.4
step02_gravity_refstate-crust.xmf,1497,-4.73381e-07,4.35478e-06,0,-3.13539e-07,-9.69606e+08,-9.69275e+08,-9.69574e+08,-21508.8,0.00272821,0.071477,0,0.071529,27530.4,-35304.3,0,44769.6,21508.8
step02_gravity_refstate-crust.xmf,1498,-3.96219e-07,4.53144e-06,0,-2.1749e-07,-1.01604e+09,-1.0157e+09,-1.01601e+09,-14919.8,0.00142622,0.0645212,0,0.0645369,27136.6,-36995.3,0,45880.8,14919.8
step02_gravity_refstate-crust.xmf,1499,-3.10956e-07,4.69305e-06,0,-1.24904e-07,-1.05951e+09,-1.05917e+09,-1.05949e+09,-8568.43,-3.00473e-05,0.0578892,-0,0.0578892,26652.4,-38578.6,0,46889.9,8568.43
step02_gravity_refstate-crust.xmf,1500,-4.79106e-07,3.70144e-06,0,-3.27416e-07,-8.3431e+08,-8.34023e+08,-8.34277e+08,-22460.8,0.0031309,0.0858158,0,0.0858729,32116.5,-30377.7,0,44207.2,22460.8
step02_gravity_refstate-crust.xmf,1501,-4.51018e-07,3.5689e-06,0,-2.48668e-07,-8.08788e+08,-8.08512e+08,-8.08757e+08,-17058.6,0.00239837,0.0874817,0,0.0875146,34193.2,-29448.4,0,45126.3,17058.6
step02_gravity_refstate-crust.xmf,1502,-4.78254e-07,3.35852e-06,0,-2.07242e-07,-7.58096e+08,-7.57833e+08,-7.58063e+08,-14216.8,0.00195132,0.092918,0,0.0929385,35747.5,-27602.5,0,45164,14216.8
step02_gravity_refstate-crust.xmf,1503,-4.81704e-07,3.23138e-06,0,-1.0502e-07,-7.29524e+08,-7.29269e+08,-7.29491e+08,-7204.37,0.000977533,0.095483,0,0.095488,37948.7,-26562.1,0,46321.2,7204.37
step02_gravity_refstate-crust.xmf,1504,-4.96249e-07,3.10352e-06,0,-9.71339e-10,-6.98588e+08,-6.98341e+08,-6.98554e+08,-66.6339,6.79852e-20,0.0987859,0,0.0987859,40000,-25435.6,0,47402.2,66.6339
step02_gravity_refstate-crust.xmf,1505,-4.01756e-07,4.22636e-06,0,-2.59506e-07,-9.57331e+08,-9.57014e+08,-9.57303e+08,-17802.1,0.00227873,0.0710709,0,0.0711074,29312.8,-34857.5,0,45544.3,17802.1
step02_gravity_refstate-crust.xmf,1506,-4.12434e-07,3.9213e-06,0,-2.70222e-07,-8.92124e+08,-8.91827e+08,-8.92096e+08,-18537.2,0.00259492,0.0782281,0,0.0782711,31657.2,-32483.1,0,45357.8,18537.2
step02_gravity_refstate-crust.xmf,1507,-3.42228e-07,4.10195e-06,0,-2.1251e-07,-9.42095e+08,-9.4179e+08,-9.42071e+08,-14578.2,0.00192567,0.071397,0,0.071423,31166.2,-34302.9,0,46346.7,14578.2
step02_gravity_refstate-crust.xmf,1508,-3.12839e-07,4.40022e-06,0,-1.71823e-07,-1.00641e+09,-1.00609e+09,-1.00639e+09,-11787,0.00112178,0.0638795,0,0.0638894,28869.1,-36645,0,46650.6,11787
step02_gravity_refstate-crust.xmf,1509,-2.02169e-07,4.55973e-06,0,-7.61673e-08,-1.05565e+09,-1.05532e+09,-1.05563e+09,-5225.08,-0.000350638,0.0562979,-0,0.056299,28470.5,-38438.2,0,47833.7,5225.08
step02_gravity_refstate-crust.xmf,1510,-3.88288e-07,3.80406e-06,0,-2.17449e-07,-8.71971e+08,-8.71683e+08,-8.71944e+08,-14917,0.00209696,0.0794475,0,0.0794752,33568.4,-31749.3,0,46204.5,14917
step02_gravity_refstate-crust.xmf,1511,-4.06506e-07,3.574e-06,0,-1.52035e-07,-8.18231e+08,-8.17958e+08,-8.18203e+08,-10429.6,0.00146134,0.0850866,0,0.0850991,36243.8,-29792.4,0,46916.9,10429.6
step02_gravity_refstate-crust.xmf,1512,-4.18957e-07,3.48165e-06,0,-8.71989e-08,-7.95421e+08,-7.95154e+08,-7.95392e+08,-5981.84,0.000841781,0.0874268,0,0.0874308,37956.7,-28961.8,0,47744.1,5981.84
step02_gravity_refstate-crust.xmf,1513,-4.41056e-07,3.37221e-06,0,-1.10906e-09,-7.67199e+08,-7.66938e+08,-7.67169e+08,-76.0815,5.85519e-20,0.0906952,0,0.0906952,40000,-27934.1,0,48788.5,76.0815
step02_gravity_refstate-crust.xmf,1514,-2.59129e-07,4.26986e-06,0,-1.46327e-07,-9.91214e+08,-9.90903e+08,-9.91196e+08,-10038,0.00102536,0.0644173,0,0.0644255,30633.9,-36091.7,0,47339.7,10038
step02_gravity_refstate-crust.xmf,1515,-3.49697e-07,3.74114e-06,0,-1.48333e-07,-8.64295e+08,-8.64014e+08,-8.64271e+08,-10175.7,0.0014446,0.0792833,0,0.0792964,35537.7,-31469.9,0,47468.8,10175.7
step02_gravity_refstate-crust.xmf,1516,-3.01827e-07,3.9939e-06,0,-1.69596e-07,-9.27127e+08,-9.26832e+08,-9.27106e+08,-11634.3,0.00157106,0.0719893,0,0.0720064,33062.3,-33758,0,47251.6,11634.3
step02_gravity_refstate-crust.xmf,1517,-2.17236e-07,4.15414e-06,0,-1.21578e-07,-9.75857e+08,-9.75557e+08,-9.75842e+08,-8340.25,0.000923616,0.0652226,0,0.0652291,32445.7,-35532.6,0,48117.4,8340.25
step02_gravity_refstate-crust.xmf,1518,-1.16637e-07,4.42039e-06,0,-4.89816e-08,-1.04589e+09,-1.04557e+09,-1.04588e+09,-3360.14,-0.000367687,0.0558926,-0,0.0558938,30494.2,-38082.9,0,48787.4,3360.14
step02_gravity_refstate-crust.xmf,1519,-2.75784e-07,3.91441e-06,0,-1.27965e-07,-9.15909e+08,-9.15621e+08,-9.1589e+08,-8778.37,0.00118731,0.0724255,0,0.0724352,34893.4,-33349.5,0,48267.4,8778.37
step02_gravity_refstate-crust.xmf,1520,-3.20717e-07,3.71866e-06,0,-6.97091e-08,-8.64554e+08,-8.64277e+08,-8.64532e+08,-4782.04,0.000693458,0.0784064,0,0.0784095,37783.7,-31479.4,0,49178.9,4782.04
step02_gravity_refstate-crust.xmf,1521,-3.56549e-07,3.6117e-06,0,-1.67971e-09,-8.34755e+08,-8.34483e+08,-8.34731e+08,-115.228,4.86307e-20,0.0821028,0,0.0821028,40000,-30394.3,0,50237.5,115.228
step02_gravity_refstate-crust.xmf,1522,-1.39949e-07,4.28338e-06,0,-7.48974e-08,-1.01599e+09,-1.01569e+09,-1.01598e+09,-5137.96,0.000208629,0.0595132,0,0.0595136,31850,-36994.2,0,48815.9,5137.96
step02_gravity_refstate-crust.xmf,1523,-2.59259e-07,3.85817e-06,0,-8.94508e-08,-9.06622e+08,-9.0634e+08,-9.06605e+08,-6136.33,0.000840023,0.0730008,0,0.0730056,36506.7,-33011.4,0,49218.9,6136.33
step02_gravity_refstate-crust.xmf,1524,-1.78108e-07,4.06858e-06,0,-9.12626e-08,-9.66132e+08,-9.65841e+08,-9.6612e+08,-6260.61,0.000710807,0.065438,0,0.0654418,34325.6,-35178.6,0,49150.6,6260.61
step02_gravity_refstate-crust.xmf,1525,-8.57748e-08,4.20791e-06,0,-5.27238e-08,-1.01198e+09,-1.01169e+09,-1.01198e+09,-3616.86,9.84216e-05,0.0589805,0,0.0589806,33542.6,-36848.4,0,49828.9,3616.86
step02_gravity_refstate-crust.xmf,1526,-1.17223e-09,4.34037e-06,0,-1.00404e-08,-1.05404e+09,-1.05374e+09,-1.05404e+09,-688.773,-0.000693951,0.0530414,-0,0.0530459,32559.4,-38380,0,50330.3,688.773
step02_gravity_refstate-crust.xmf,1527,-1.63185e-07,3.99737e-06,0,-6.41301e-08,-9.5489e+08,-9.54605e+08,-9.54879e+08,-4399.33,0.000517951,0.0662011,0,0.0662031,36224.1,-34769.3,0,50210.4,4399.33
step02_gravity_refstate-crust.xmf,1528,-1.83975e-07,3.91722e-06,0,-3.73121e-08,-9.33464e+08,-9.33183e+08,-9.33452e+08,-2559.61,0.000337537,0.0687558,0,0.0687566,38094.7,-33989,0,51053.5,2559.61
step02_gravity_refstate-crust.xmf,1529,-2.42017e-07,3.82065e-06,0,-1.37119e-09,-9.01461e+08,-9.01182e+08,-9.01444e+08,-94.0636,2.47081e-20,0.0730755,0,0.0730755,40000,-32823.5,0,51743.4,94.0636
step02_gravity_refstate-crust.xmf,1530,-4.48086e-08,4.13722e-06,0,-3.39896e-08,-1.00632e+09,-1.00604e+09,-1.00632e+09,-2331.69,5.37982e-05,0.0588522,0,0.0588522,35527.5,-36642.5,0,51037.9,2331.69
step02_gravity_refstate-crust.xmf,1531,6.42589e-08,4.26612e-06,0,1.7878e-09,-1.05356e+09,-1.05327e+09,-1.05356e+09,122.643,-0.000621761,0.0520423,-0,0.052046,34547.6,-38362.8,0,51625.9,122.643
step02_gravity_refstate-crust.xmf,1532,-2.25414e-08,4.08396e-06,0,-1.4915e-08,-9.99849e+08,-9.99567e+08,-9.99847e+08,-1023.17,3.32028e-05,0.0591185,0,0.0591185,37908.3,-36406.7,0,52559.4,1023.17
step02_gravity_refstate-crust.xmf,1533,-9.48343e-08,3.99642e-06,0,-2.09644e-09,-9.67519e+08,-9.67238e+08,-9.67512e+08,-143.816,4.11412e-21,0.0636712,0,0.0636712,40000,-35229.3,0,53302,143.816
step02_gravity_refstate-crust.xmf,1534,1.05441e-07,4.21003e-06,0,4.40084e-09,-1.05148e+09,-1.0512e+09,-1.05149e+09,301.898,-0.000420019,0.0516256,-0,0.0516273,36600.2,-38287.2,0,52966.8,301.898
step02_gravity_refstate-crust.xmf,1535,7.98271e-08,4.14286e-06,0,-5.0732e-10,-1.03313e+09,-1.03285e+09,-1.03314e+09,-34.8022,-1.58339e-20,0.0539461,-0,0.0539461,40000,-37619,0,54910.7,34.8022
step02_gravity_refstate-crust.xmf,1536,1.36923e-07,4.19108e-06,0,3.17973e-09,-1.05521e+09,-1.05493e+09,-1.05522e+09,218.129,-0.000225803,0.0506966,-0,0.0506971,38420.4,-38423.1,0,54336.5,218.129
