Block Name,Point ID,cauchy_strain_0,cauchy_strain_1,cauchy_strain_2,cauchy_strain_3,cauchy_stress_0,cauchy_stress_1,cauchy_stress_2,cauchy_stress_3,displacement_0,displacement_1,displacement_2,displacement_Magnitude,Points_0,Points_1,Points_2,Points_Magnitude,stress_xy
step02_gravity_refstate-mantle.xmf,0,3.7961e-06,1.53887e-06,0,-3.85975e-10,-1.74523e+09,-1.74553e+09,-1.74574e+09,-51.5856,0.0242608,1.47425e-19,0,0.0242608,-33334.3,-60000,-0,68638,51.5856
step02_gravity_refstate-mantle.xmf,1,3.93659e-06,1.57465e-06,0,-2.99554e-10,-1.7452e+09,-1.74551e+09,-1.74572e+09,-40.0354,0.0319724,7.10504e-19,0,0.0319724,-31323.8,-60000,-0,67684.4,40.0354
step02_gravity_refstate-mantle.xmf,2,3.80074e-06,1.50592e-06,0,-2.0317e-07,-1.69086e+09,-1.69116e+09,-1.69136e+09,-27153.6,0.027594,0.00257043,0,0.0277135,-32361,-58320.3,-0,66697,27153.6
step02_gravity_refstate-mantle.xmf,3,3.6934e-06,1.51611e-06,0,-2.39398e-09,-1.74525e+09,-1.74555e+09,-1.74575e+09,-319.956,0.0164149,8.88652e-19,0,0.0164149,-35446.9,-60000,-0,69688.5,319.956
step02_gravity_refstate-mantle.xmf,4,3.6823e-06,1.47637e-06,0,-1.46167e-07,-1.69027e+09,-1.69056e+09,-1.69076e+09,-19535.3,0.0200446,0.002548,0,0.0202059,-34390.6,-58301.3,-0,67688.7,19535.3
step02_gravity_refstate-mantle.xmf,5,3.5919e-06,1.49639e-06,0,4.29042e-09,-1.74528e+09,-1.74556e+09,-1.74576e+09,573.415,-5.25674e-19,1.00289e-18,-0,1.13231e-18,-40000,-60000,-0,72111,573.415
step02_gravity_refstate-mantle.xmf,6,3.6216e-06,1.50617e-06,0,2.93835e-09,-1.74527e+09,-1.74555e+09,-1.74576e+09,392.711,0.00835549,1.82738e-19,0,0.00835549,-37667,-60000,-0,70843.5,392.711
step02_gravity_refstate-mantle.xmf,7,3.54543e-06,1.45417e-06,0,-2.99877e-08,-1.69609e+09,-1.69637e+09,-1.69657e+09,-4007.85,0.00538493,0.00224475,0,0.00583407,-38479.3,-58480.3,-0,70004.3,4007.85
step02_gravity_refstate-mantle.xmf,8,3.57097e-06,1.4485e-06,0,-1.10574e-07,-1.6792e+09,-1.67949e+09,-1.67968e+09,-14778.2,0.0123151,0.00301944,0,0.0126799,-36507.5,-57958.7,-0,68498.2,14778.2
step02_gravity_refstate-mantle.xmf,9,3.50699e-06,1.43764e-06,0,1.46205e-09,-1.67369e+09,-1.67396e+09,-1.67415e+09,195.403,-5.84821e-19,0.00324906,-0,0.00324906,-40000,-57787.8,-0,70281.1,195.403
step02_gravity_refstate-mantle.xmf,10,4.06918e-06,1.63117e-06,0,8.14558e-09,-1.74516e+09,-1.74549e+09,-1.74571e+09,1088.66,0.0396015,-3.55027e-20,0,0.0396015,-29410.7,-60000,-0,66820.6,1088.66
step02_gravity_refstate-mantle.xmf,11,3.92001e-06,1.55273e-06,0,-2.53463e-07,-1.69062e+09,-1.69093e+09,-1.69114e+09,-33875.3,0.035197,0.00266129,0,0.0352974,-30382.9,-58313.9,-0,65754.3,33875.3
step02_gravity_refstate-mantle.xmf,12,3.41844e-06,1.45044e-06,0,-8.42055e-08,-1.63704e+09,-1.63731e+09,-1.6375e+09,-11254.1,0.00595381,0.00489643,0,0.00770863,-38251.5,-56655.3,-0,68359.4,11254.1
step02_gravity_refstate-mantle.xmf,13,4.09772e-06,1.62907e-06,0,-3.05927e-07,-1.69572e+09,-1.69605e+09,-1.69627e+09,-40887.1,0.0428427,0.00252047,0,0.0429168,-28500.3,-58472.9,-0,65048.9,40887.1
step02_gravity_refstate-mantle.xmf,14,3.68015e-06,1.55463e-06,0,-4.43964e-07,-1.63956e+09,-1.63984e+09,-1.64005e+09,-59335.9,0.0302416,0.00504902,0,0.0306602,-31362.4,-56735,-0,64826.4,59335.9
step02_gravity_refstate-mantle.xmf,15,3.58751e-06,1.5054e-06,0,-3.42643e-07,-1.63643e+09,-1.6367e+09,-1.63691e+09,-45794.3,0.0232622,0.00506729,0,0.0238077,-33267,-56637.6,-0,65684.9,45794.3
step02_gravity_refstate-mantle.xmf,16,3.49991e-06,1.48034e-06,0,-2.44397e-07,-1.63691e+09,-1.63718e+09,-1.63738e+09,-32663.7,0.017218,0.00496909,0,0.0179207,-34982.2,-56651.8,-0,66582.2,32663.7
step02_gravity_refstate-mantle.xmf,17,3.2816e-06,1.47727e-06,0,5.15127e-10,-1.60216e+09,-1.6024e+09,-1.6026e+09,68.8467,-5.75079e-19,0.00647072,-0,0.00647072,-40000,-55576.9,-0,68474.7,68.8467
step02_gravity_refstate-mantle.xmf,18,3.82181e-06,1.63361e-06,0,-5.79091e-07,-1.63462e+09,-1.63491e+09,-1.63513e+09,-77395.5,0.0374948,0.00551137,0,0.0378977,-29376.6,-56583.7,-0,63755,77395.5
step02_gravity_refstate-mantle.xmf,19,4.297e-06,1.73154e-06,0,-3.45068e-07,-1.69876e+09,-1.69911e+09,-1.69934e+09,-46118.3,0.050408,0.00250561,0,0.0504702,-26714.5,-58568.5,-0,64373.4,46118.3
step02_gravity_refstate-mantle.xmf,20,4.05882e-06,1.73349e-06,0,-6.36762e-07,-1.64863e+09,-1.64894e+09,-1.64917e+09,-85103.3,0.0458984,0.00509899,0,0.0461808,-27380.2,-57018.3,-0,63251.6,85103.3
step02_gravity_refstate-mantle.xmf,21,4.25875e-06,1.71219e-06,0,9.0473e-09,-1.74512e+09,-1.74546e+09,-1.74569e+09,1209.17,0.0471827,-3.66714e-20,0,0.0471827,-27590,-60000,-0,66039.4,1209.17
step02_gravity_refstate-mantle.xmf,22,3.33052e-06,1.49237e-06,0,-2.23027e-07,-1.60446e+09,-1.60471e+09,-1.6049e+09,-29807.6,0.0118178,0.00641707,0,0.0134477,-36417,-55648.4,-0,66505.2,29807.6
step02_gravity_refstate-mantle.xmf,23,3.13201e-06,1.53519e-06,0,-1.39849e-07,-1.56675e+09,-1.56696e+09,-1.56717e+09,-18690.8,0.00580809,0.00814083,0,0.0100003,-38137.8,-54482.3,-0,66504.2,18690.8
step02_gravity_refstate-mantle.xmf,24,3.54373e-06,1.65275e-06,0,-6.48723e-07,-1.59884e+09,-1.59909e+09,-1.59931e+09,-86701.8,0.0318437,0.00716811,0,0.0326405,-30504.4,-55476.6,-0,63310.1,86701.8
step02_gravity_refstate-mantle.xmf,25,4.24296e-06,1.84767e-06,0,-6.80818e-07,-1.65833e+09,-1.65865e+09,-1.65889e+09,-90991.3,0.0531451,0.00489339,0,0.0533699,-25738.1,-57319.3,-0,62832.7,90991.3
step02_gravity_refstate-mantle.xmf,26,3.37998e-06,1.61125e-06,0,-5.6016e-07,-1.58724e+09,-1.58748e+09,-1.58769e+09,-74865.4,0.0256567,0.00752909,0,0.0267386,-32155.7,-55117.2,-0,63811.4,74865.4
step02_gravity_refstate-mantle.xmf,27,3.25886e-06,1.5721e-06,0,-4.20145e-07,-1.5742e+09,-1.57442e+09,-1.57463e+09,-56152.3,0.0180353,0.00796185,0,0.0197145,-34329.1,-54713.3,-0,64591.3,56152.3
step02_gravity_refstate-mantle.xmf,28,2.92929e-06,1.60133e-06,0,-6.17592e-10,-1.53065e+09,-1.53083e+09,-1.53104e+09,-82.5411,-5.05226e-19,0.00987297,-0,0.00987297,-40000,-53365.9,-0,66692.8,82.5411
step02_gravity_refstate-mantle.xmf,29,3.44568e-06,1.78495e-06,0,-8.47533e-07,-1.57287e+09,-1.5731e+09,-1.57333e+09,-113273,0.034832,0.00880013,0,0.0359265,-29258.6,-54674.2,-0,62010.8,113273
step02_gravity_refstate-mantle.xmf,30,3.6893e-06,1.83104e-06,0,-8.95438e-07,-1.59471e+09,-1.59496e+09,-1.5952e+09,-119675,0.0415415,0.00798469,0,0.0423019,-27747.1,-55350.5,-0,61915.9,119675
step02_gravity_refstate-mantle.xmf,31,3.91409e-06,1.92946e-06,0,-9.60751e-07,-1.61014e+09,-1.61041e+09,-1.61067e+09,-128404,0.0486121,0.00759224,0,0.0492014,-26147.8,-55829,-0,61648.9,128404
step02_gravity_refstate-mantle.xmf,32,4.51016e-06,1.86365e-06,0,-3.82407e-07,-1.70153e+09,-1.70188e+09,-1.70213e+09,-51108.7,0.0577709,0.00252812,0,0.0578262,-25058.7,-58655.6,-0,63784.2,51108.7
step02_gravity_refstate-mantle.xmf,33,4.46803e-06,1.82556e-06,0,9.03038e-09,-1.74506e+09,-1.74541e+09,-1.74566e+09,1206.91,0.0547432,-3.79016e-20,0,0.0547432,-25857.2,-60000,-0,65334.5,1206.91
step02_gravity_refstate-mantle.xmf,34,3.20569e-06,1.76519e-06,0,-7.77912e-07,-1.54872e+09,-1.54891e+09,-1.54914e+09,-103968,0.0282745,0.00975794,0,0.029911,-30824.3,-53926.3,-0,62114.3,103968
step02_gravity_refstate-mantle.xmf,35,2.96673e-06,1.62355e-06,0,-3.15275e-07,-1.53348e+09,-1.53366e+09,-1.53388e+09,-42136.5,0.0109202,0.00984128,0,0.0147004,-36296.4,-53453.8,-0,64612.2,42136.5
step02_gravity_refstate-mantle.xmf,36,2.72683e-06,1.6943e-06,0,-1.74987e-07,-1.49614e+09,-1.49628e+09,-1.49651e+09,-23387,0.00505592,0.0116656,0,0.0127141,-38139.4,-52298.9,-0,64728.6,23387
step02_gravity_refstate-mantle.xmf,37,4.15519e-06,2.04462e-06,0,-9.95308e-07,-1.62578e+09,-1.62606e+09,-1.62633e+09,-133023,0.0555785,0.00716989,0,0.0560391,-24689.6,-56313.8,-0,61488.4,133023
step02_gravity_refstate-mantle.xmf,38,4.43851e-06,1.96767e-06,0,-7.08595e-07,-1.66512e+09,-1.66545e+09,-1.66571e+09,-94703.7,0.0591296,0.00480712,0,0.0593247,-24437.7,-57530.7,-0,62505.8,94703.7
step02_gravity_refstate-mantle.xmf,39,2.9731e-06,1.74745e-06,0,-6.5587e-07,-1.52572e+09,-1.52588e+09,-1.52612e+09,-87657,0.0215038,0.0106503,0,0.0239967,-32647,-53214.4,-0,62430.7,87657
step02_gravity_refstate-mantle.xmf,40,2.7673e-06,1.76324e-06,0,-5.23222e-07,-1.49751e+09,-1.49764e+09,-1.49788e+09,-69928.6,0.0151334,0.0119013,0,0.0192525,-34466.1,-52341.6,-0,62670.2,69928.6
step02_gravity_refstate-mantle.xmf,41,2.47523e-06,1.78976e-06,0,-1.57178e-09,-1.45916e+09,-1.45925e+09,-1.45949e+09,-210.068,-4.23145e-19,0.0136204,-0,0.0136204,-40000,-51155,-0,64937.2,210.068
step02_gravity_refstate-mantle.xmf,42,2.98889e-06,1.97031e-06,0,-1.00473e-06,-1.51684e+09,-1.51698e+09,-1.51724e+09,-134282,0.0307955,0.012026,0,0.0330604,-29351.2,-52940.7,-0,60532.7,134282
step02_gravity_refstate-mantle.xmf,43,3.22943e-06,2.01756e-06,0,-1.10512e-06,-1.53984e+09,-1.54001e+09,-1.54027e+09,-147700,0.0373387,0.011229,0,0.0389907,-27807.5,-53653,-0,60431,147700
step02_gravity_refstate-mantle.xmf,44,3.46744e-06,2.10008e-06,0,-1.19607e-06,-1.55995e+09,-1.56013e+09,-1.56041e+09,-159855,0.0441142,0.0106623,0,0.0453845,-26284.8,-54275.9,-0,60305.6,159855
step02_gravity_refstate-mantle.xmf,45,3.71952e-06,2.20859e-06,0,-1.2682e-06,-1.57898e+09,-1.57918e+09,-1.57948e+09,-169495,0.0510728,0.0101824,0,0.0520779,-24827.3,-54865.8,-0,60221.7,169495
step02_gravity_refstate-mantle.xmf,46,4.01444e-06,2.33679e-06,0,-1.30756e-06,-1.5994e+09,-1.59963e+09,-1.59994e+09,-174756,0.0584653,0.00959871,0,0.059248,-23422.5,-55498.8,-0,60239,174756
step02_gravity_refstate-mantle.xmf,47,4.43031e-06,2.17077e-06,0,-9.59313e-07,-1.64584e+09,-1.64614e+09,-1.64643e+09,-128212,0.0629437,0.00642009,0,0.0632702,-23310.2,-56935.6,-0,61522.6,128212
step02_gravity_refstate-mantle.xmf,48,4.7277e-06,2.05492e-06,0,-4.88148e-07,-1.6974e+09,-1.69775e+09,-1.69803e+09,-65240.9,0.0654805,0.00303678,0,0.0655509,-23362.6,-58530,-0,63020.4,65240.9
step02_gravity_refstate-mantle.xmf,49,4.69822e-06,1.97214e-06,0,1.33064e-08,-1.745e+09,-1.74536e+09,-1.74563e+09,1778.4,0.0622975,-4.86067e-20,0,0.0622975,-24208.2,-60000,-0,64699.6,1778.4
step02_gravity_refstate-mantle.xmf,50,2.74359e-06,1.94789e-06,0,-8.79323e-07,-1.49054e+09,-1.49064e+09,-1.4909e+09,-117521,0.0242333,0.0130458,0,0.0275217,-31023.4,-52126.5,-0,60659.9,117521
step02_gravity_refstate-mantle.xmf,51,2.49275e-06,1.82183e-06,0,-3.6642e-07,-1.46208e+09,-1.46217e+09,-1.46241e+09,-48972,0.00924201,0.0136451,0,0.0164804,-36291.3,-51245.4,-0,62794.5,48972
step02_gravity_refstate-mantle.xmf,52,2.2352e-06,1.90527e-06,0,-1.94186e-07,-1.42543e+09,-1.42547e+09,-1.42572e+09,-25952.9,0.00418775,0.0156017,0,0.016154,-38123,-50111.8,-0,62964.7,25952.9
step02_gravity_refstate-mantle.xmf,53,4.32779e-06,2.48621e-06,0,-1.28789e-06,-1.62213e+09,-1.62237e+09,-1.62271e+09,-172127,0.0664279,0.00879547,0,0.0670077,-22055.7,-56203.3,-0,60376,172127
step02_gravity_refstate-mantle.xmf,54,2.4883e-06,1.95003e-06,0,-7.29346e-07,-1.4624e+09,-1.46247e+09,-1.46273e+09,-97477.1,0.0181308,0.0142516,0,0.0230615,-32732.9,-51255.7,-0,60816.1,97477.1
step02_gravity_refstate-mantle.xmf,55,2.24889e-06,1.98517e-06,0,-5.67511e-07,-1.42946e+09,-1.4295e+09,-1.42976e+09,-75847.8,0.0124106,0.0158403,0,0.0201231,-34494.6,-50236.7,-0,60939.3,75847.8
step02_gravity_refstate-mantle.xmf,56,1.95414e-06,2.01583e-06,0,-2.60564e-09,-1.38767e+09,-1.38766e+09,-1.38793e+09,-348.243,-3.35534e-19,0.0178269,-0,0.0178269,-40000,-48943.8,-0,63209.9,348.243
step02_gravity_refstate-mantle.xmf,57,2.45131e-06,2.19631e-06,0,-1.08784e-06,-1.45934e+09,-1.45937e+09,-1.45967e+09,-145390,0.0260603,0.0156934,0,0.0304207,-29437.8,-51161.5,-0,59026.2,145390
step02_gravity_refstate-mantle.xmf,58,2.6991e-06,2.24391e-06,0,-1.2297e-06,-1.48608e+09,-1.48614e+09,-1.48644e+09,-164349,0.0324893,0.0147526,0,0.0356818,-27847.9,-51989.3,-0,58977.9,164349
step02_gravity_refstate-mantle.xmf,59,2.92335e-06,2.33048e-06,0,-1.35733e-06,-1.50808e+09,-1.50816e+09,-1.50847e+09,-181407,0.0388821,0.0141835,0,0.0413883,-26341.7,-52670.7,-0,58890.5,181407
step02_gravity_refstate-mantle.xmf,60,3.16703e-06,2.4414e-06,0,-1.46798e-06,-1.52959e+09,-1.52969e+09,-1.53001e+09,-196196,0.0456018,0.0136853,0,0.0476111,-24900.8,-53337,-0,58863.3,196196
step02_gravity_refstate-mantle.xmf,61,3.44062e-06,2.58059e-06,0,-1.56215e-06,-1.5511e+09,-1.55121e+09,-1.55156e+09,-208782,0.0528011,0.0132248,0,0.0544321,-23487.6,-54003.5,-0,58890.1,208782
step02_gravity_refstate-mantle.xmf,62,3.7548e-06,2.73879e-06,0,-1.62915e-06,-1.57292e+09,-1.57306e+09,-1.57342e+09,-217736,0.060337,0.0126938,0,0.0616578,-22152.9,-54680.1,-0,58997.2,217736
step02_gravity_refstate-mantle.xmf,63,4.77881e-06,2.3247e-06,0,-8.56839e-07,-1.66852e+09,-1.66885e+09,-1.66916e+09,-114517,0.07077,0.00539476,0,0.0709753,-21950.2,-57639.1,-0,61677.2,114517
step02_gravity_refstate-mantle.xmf,64,4.11776e-06,2.93128e-06,0,-1.66917e-06,-1.59514e+09,-1.5953e+09,-1.5957e+09,-223084,0.0684299,0.0120953,0,0.0694907,-20833.5,-55369.6,-0,59159.3,223084
step02_gravity_refstate-mantle.xmf,65,4.72578e-06,2.66732e-06,0,-1.21426e-06,-1.64622e+09,-1.6465e+09,-1.64685e+09,-162286,0.0748301,0.00776323,0,0.0752317,-20723.3,-56950.8,-0,60604,162286
step02_gravity_refstate-mantle.xmf,66,4.93537e-06,2.1743e-06,0,5.65017e-09,-1.74493e+09,-1.7453e+09,-1.74559e+09,755.146,0.0698615,-3.75144e-20,0,0.0698615,-22638.7,-60000,-0,64128.8,755.146
step02_gravity_refstate-mantle.xmf,67,2.20858e-06,2.17591e-06,0,-9.27786e-07,-1.43048e+09,-1.43048e+09,-1.43077e+09,-123999,0.0200461,0.0168545,0,0.0261901,-31081.7,-50268.3,-0,59101.4,123999
step02_gravity_refstate-mantle.xmf,68,1.97905e-06,2.04516e-06,0,-3.81602e-07,-1.39442e+09,-1.39441e+09,-1.39468e+09,-51001.1,0.00744019,0.0176938,0,0.0191945,-36270.7,-49152.6,-0,61086.3,51001.1
step02_gravity_refstate-mantle.xmf,69,1.68798e-06,2.14389e-06,0,-1.98373e-07,-1.35388e+09,-1.35382e+09,-1.35411e+09,-26512.5,0.00326841,0.0200843,0,0.0203485,-38066.3,-47898.6,-0,61182.7,26512.5
step02_gravity_refstate-mantle.xmf,70,4.52262e-06,3.14806e-06,0,-1.63415e-06,-1.62013e+09,-1.62032e+09,-1.62074e+09,-218404,0.0774163,0.0111474,0,0.0782148,-19524,-56144.8,-0,59442.6,218404
step02_gravity_refstate-mantle.xmf,71,3.63317e-06,3.5403e-06,0,-2.03219e-06,-1.56534e+09,-1.56536e+09,-1.56583e+09,-271602,0.068414,0.0166724,0,0.0704162,-19639.3,-54447.3,-0,57881,271602
step02_gravity_refstate-mantle.xmf,72,5.00675e-06,2.25768e-06,0,-4.03103e-07,-1.71087e+09,-1.71124e+09,-1.71154e+09,-53874.7,0.0728714,0.0023907,0,0.0729106,-21934.5,-58948.6,-0,62897.2,53874.7
step02_gravity_refstate-mantle.xmf,73,3.31273e-06,3.27042e-06,0,-1.93047e-06,-1.54476e+09,-1.54477e+09,-1.5452e+09,-258008,0.0605195,0.0168245,0,0.0628146,-20920.7,-53808.7,-0,57732.6,258008
step02_gravity_refstate-mantle.xmf,74,1.94988e-06,2.18145e-06,0,-7.45248e-07,-1.39927e+09,-1.39924e+09,-1.39953e+09,-99602.5,0.014541,0.0182724,0,0.0233522,-32774.6,-49302.6,-0,59202.3,99602.5
step02_gravity_refstate-mantle.xmf,75,1.72248e-06,2.21277e-06,0,-5.63674e-07,-1.36582e+09,-1.36576e+09,-1.36605e+09,-75335,0.00971619,0.0199741,0,0.0222119,-34485,-48268,-0,59321.3,75335
step02_gravity_refstate-mantle.xmf,76,1.40443e-06,2.25053e-06,0,-4.7216e-09,-1.31605e+09,-1.31594e+09,-1.31624e+09,-631.042,-2.60457e-19,0.0225529,-0,0.0225529,-40000,-46728.6,-0,61510.7,631.042
step02_gravity_refstate-mantle.xmf,77,1.85361e-06,2.44881e-06,0,-1.09444e-06,-1.40018e+09,-1.4001e+09,-1.40043e+09,-146273,0.0208998,0.0199246,0,0.0288754,-29470.2,-49330.8,-0,57463.2,146273
step02_gravity_refstate-mantle.xmf,78,2.0867e-06,2.5003e-06,0,-1.26583e-06,-1.42935e+09,-1.42929e+09,-1.42963e+09,-169178,0.0267455,0.0188758,0,0.0327356,-27905.9,-50233.4,-0,57464.2,169178
step02_gravity_refstate-mantle.xmf,79,2.31381e-06,2.58834e-06,0,-1.42417e-06,-1.45569e+09,-1.45566e+09,-1.456e+09,-190341,0.0329572,0.0181385,0,0.0376189,-26381.2,-51048.9,-0,57462.7,190341
step02_gravity_refstate-mantle.xmf,80,2.51611e-06,2.72216e-06,0,-1.5714e-06,-1.47795e+09,-1.47792e+09,-1.47829e+09,-210018,0.0392199,0.0178022,0,0.0430711,-24911.3,-51738.2,-0,57423.1,210018
step02_gravity_refstate-mantle.xmf,81,2.76657e-06,2.86496e-06,0,-1.69995e-06,-1.50151e+09,-1.50149e+09,-1.50188e+09,-227198,0.0459844,0.0173366,0,0.0491439,-23552.1,-52467.9,-0,57511.6,227198
step02_gravity_refstate-mantle.xmf,82,3.03222e-06,3.04537e-06,0,-1.81913e-06,-1.52386e+09,-1.52386e+09,-1.52426e+09,-243127,0.0531061,0.0170064,0,0.0557626,-22222.6,-53160.6,-0,57618.5,243127
step02_gravity_refstate-mantle.xmf,83,3.90391e-06,3.84685e-06,0,-2.08051e-06,-1.58502e+09,-1.58503e+09,-1.58554e+09,-278061,0.0764884,0.0164953,0,0.0782469,-18430.5,-55057.7,-0,58060.6,278061
step02_gravity_refstate-mantle.xmf,84,5.10414e-06,2.84327e-06,0,-1.05798e-06,-1.66971e+09,-1.67001e+09,-1.67039e+09,-141398,0.0822029,0.00643665,0,0.0824545,-19653.7,-57679.3,-0,60935.8,141398
step02_gravity_refstate-mantle.xmf,85,5.16478e-06,2.52738e-06,0,-6.24284e-07,-1.69864e+09,-1.69899e+09,-1.69933e+09,-83435.6,0.0792364,0.00361313,0,0.0793188,-20592.5,-58572.5,-0,62087,83435.6
step02_gravity_refstate-mantle.xmf,86,5.19601e-06,2.41864e-06,0,1.50455e-08,-1.74485e+09,-1.74523e+09,-1.74555e+09,2010.82,0.0774236,-5.63484e-20,0,0.0774236,-21144.8,-60000,-0,63616.8,2010.82
step02_gravity_refstate-mantle.xmf,87,2.66894e-06,3.92987e-06,0,-2.15368e-06,-1.51607e+09,-1.5159e+09,-1.51643e+09,-287839,0.0588251,0.0222014,0,0.0628753,-19730,-52919.9,-0,56478.2,287839
step02_gravity_refstate-mantle.xmf,88,2.79886e-06,4.36391e-06,0,-2.31136e-06,-1.53198e+09,-1.53177e+09,-1.53235e+09,-308913,0.0657875,0.0233324,0,0.0698026,-18396.4,-53413.3,-0,56492.5,308913
step02_gravity_refstate-mantle.xmf,89,1.62996e-06,2.42099e-06,0,-9.08607e-07,-1.36954e+09,-1.36944e+09,-1.36976e+09,-121435,0.0156079,0.0211821,0,0.0263113,-31091.9,-48382.8,-0,57511.8,121435
step02_gravity_refstate-mantle.xmf,90,1.46034e-06,2.26771e-06,0,-3.70933e-07,-1.33006e+09,-1.32995e+09,-1.33026e+09,-49575.2,0.00573085,0.0220079,0,0.0227418,-36164.8,-47161.7,-0,59431.7,49575.2
step02_gravity_refstate-mantle.xmf,91,1.07748e-06,2.39558e-06,0,-1.99626e-07,-1.27675e+09,-1.27658e+09,-1.2769e+09,-26680,0.00244676,0.0255367,0,0.0256536,-37766.3,-45512.8,-0,59141.4,26680
step02_gravity_refstate-mantle.xmf,92,4.70206e-06,3.54124e-06,0,-1.71965e-06,-1.62779e+09,-1.62794e+09,-1.62842e+09,-229831,0.0840679,0.0117796,0,0.0848892,-18314.3,-56383.4,-0,59283.2,229831
step02_gravity_refstate-mantle.xmf,93,4.94915e-06,3.17174e-06,0,-1.40604e-06,-1.64655e+09,-1.64679e+09,-1.64722e+09,-187918,0.0834325,0.0091299,0,0.0839306,-18952,-56963.8,-0,60033.7,187918
step02_gravity_refstate-mantle.xmf,94,2.47532e-06,3.6105e-06,0,-2.00968e-06,-1.49688e+09,-1.49672e+09,-1.49721e+09,-268593,0.0519137,0.0217979,0,0.0563043,-20996.3,-52324.8,-0,56380.2,268593
step02_gravity_refstate-mantle.xmf,95,3.29178e-06,4.61351e-06,0,-2.38114e-06,-1.56147e+09,-1.5613e+09,-1.56191e+09,-318239,0.0756195,0.021944,0,0.0787391,-17338.7,-54328.3,-0,57028,318239
step02_gravity_refstate-mantle.xmf,96,1.40069e-06,2.41389e-06,0,-7.07624e-07,-1.3379e+09,-1.33776e+09,-1.33808e+09,-94573.9,0.0109869,0.0226412,0,0.0251662,-32759.4,-47403.7,-0,57621.9,94573.9
step02_gravity_refstate-mantle.xmf,97,1.19488e-06,2.43356e-06,0,-5.19577e-07,-1.30363e+09,-1.30347e+09,-1.30379e+09,-69441.5,0.00708042,0.0244681,0,0.025472,-34413.5,-46343.9,-0,57723.9,69441.5
step02_gravity_refstate-mantle.xmf,98,3.67636e-07,2.61916e-06,0,1.44062e-09,-1.17167e+09,-1.17137e+09,-1.17172e+09,192.538,6.91488e-20,0.0335105,0,0.0335105,-40000,-42262.6,-0,58190.5,192.538
step02_gravity_refstate-mantle.xmf,99,8.61138e-07,2.45403e-06,0,-4.06679e-10,-1.24412e+09,-1.24391e+09,-1.24424e+09,-54.3526,1.69719e-19,0.0277981,0,0.0277981,-40000,-44503.5,-0,59837.8,54.3526
step02_gravity_refstate-mantle.xmf,100,5.59824e-07,2.57496e-06,0,-1.21054e-07,-1.20403e+09,-1.20376e+09,-1.20411e+09,-16178.9,0.00105809,0.0310705,0,0.0310885,-38157.5,-43263.5,-0,57686.4,16178.9
step02_gravity_refstate-mantle.xmf,101,1.23315e-06,2.70068e-06,0,-1.02143e-06,-1.34024e+09,-1.34005e+09,-1.34041e+09,-136514,0.0155068,0.0246953,0,0.0291602,-29474.7,-47475.8,-0,55881.2,136514
step02_gravity_refstate-mantle.xmf,102,1.44259e-06,2.75954e-06,0,-1.21107e-06,-1.37162e+09,-1.37144e+09,-1.37181e+09,-161859,0.0206173,0.0235388,0,0.0312913,-27944.2,-48446.4,-0,55927.9,161859
step02_gravity_refstate-mantle.xmf,103,1.65567e-06,2.85313e-06,0,-1.39383e-06,-1.40131e+09,-1.40115e+09,-1.40154e+09,-186285,0.0263526,0.0226744,0,0.0347648,-26421.8,-49365.5,-0,55991.7,186285
step02_gravity_refstate-mantle.xmf,104,1.85089e-06,2.98749e-06,0,-1.56107e-06,-1.42728e+09,-1.42713e+09,-1.42753e+09,-208637,0.0322505,0.0222,0,0.0391527,-24976.5,-50169.3,-0,56042.7,208637
step02_gravity_refstate-mantle.xmf,105,2.04825e-06,3.15784e-06,0,-1.71761e-06,-1.45165e+09,-1.45151e+09,-1.45193e+09,-229558,0.0384802,0.0219273,0,0.0442892,-23593.9,-50923.9,-0,56124.1,229558
step02_gravity_refstate-mantle.xmf,106,2.26159e-06,3.3622e-06,0,-1.86664e-06,-1.47519e+09,-1.47504e+09,-1.47549e+09,-249477,0.0451032,0.0217633,0,0.0500794,-22269.4,-51652.8,-0,56248.9,249477
step02_gravity_refstate-mantle.xmf,107,4.26416e-06,4.1709e-06,0,-2.11209e-06,-1.60334e+09,-1.60336e+09,-1.60391e+09,-282280,0.0842947,0.0161878,0,0.0858349,-17360.6,-55627,-0,58273.1,282280
step02_gravity_refstate-mantle.xmf,108,5.28433e-06,3.26968e-06,0,-1.21368e-06,-1.66861e+09,-1.66888e+09,-1.66932e+09,-162208,0.0890639,0.00747159,0,0.0893768,-18315.9,-57647.7,-0,60487.4,162208
step02_gravity_refstate-mantle.xmf,109,5.47901e-06,2.90525e-06,0,-6.06774e-07,-1.70599e+09,-1.70633e+09,-1.70672e+09,-81095.3,0.087739,0.00348627,0,0.0878082,-19061,-58802.6,-0,61814.8,81095.3
step02_gravity_refstate-mantle.xmf,110,5.45535e-06,2.72829e-06,0,1.09022e-08,-1.74477e+09,-1.74514e+09,-1.7455e+09,1457.08,0.0850011,-5.86769e-20,0,0.0850011,-19722.9,-60000,-0,63158.5,1457.08
step02_gravity_refstate-mantle.xmf,111,1.77931e-06,4.25874e-06,0,-2.09309e-06,-1.47081e+09,-1.47048e+09,-1.47105e+09,-279742,0.0492356,0.0277461,0,0.0565154,-19810.4,-51516.7,-0,55194.4,279742
step02_gravity_refstate-mantle.xmf,112,2.25729e-06,5.18347e-06,0,-2.45315e-06,-1.52261e+09,-1.52222e+09,-1.52291e+09,-327863,0.0668817,0.0286345,0,0.0727536,-17079.3,-53122.3,-0,55800.4,327863
step02_gravity_refstate-mantle.xmf,113,2.71653e-06,5.40743e-06,0,-2.54844e-06,-1.54614e+09,-1.54578e+09,-1.54651e+09,-340599,0.0750419,0.0275196,0,0.0799288,-16279.8,-53852.9,-0,56259.8,340599
step02_gravity_refstate-mantle.xmf,114,1.85225e-06,4.6597e-06,0,-2.23867e-06,-1.48753e+09,-1.48715e+09,-1.48778e+09,-299199,0.0550613,0.0288532,0,0.0621631,-18646.5,-52034.6,-0,55274.6,299199
step02_gravity_refstate-mantle.xmf,115,1.04824e-06,2.65592e-06,0,-8.21956e-07,-1.30888e+09,-1.30867e+09,-1.30902e+09,-109854,0.0111289,0.0259566,0,0.0282418,-31075.9,-46505.8,-0,55933,109854
step02_gravity_refstate-mantle.xmf,116,1.00365e-06,2.46164e-06,0,-3.57152e-07,-1.27344e+09,-1.27325e+09,-1.27357e+09,-47733.3,0.00438602,0.0262435,0,0.0266075,-35830.2,-45410.1,-0,57843.6,47733.3
step02_gravity_refstate-mantle.xmf,117,-2.7896e-08,2.70439e-06,0,9.68319e-09,-1.0985e+09,-1.09814e+09,-1.0985e+09,1294.16,-6.39831e-20,0.0395635,-0,0.0395635,-40000,-40000,-0,56568.5,1294.16
step02_gravity_refstate-mantle.xmf,118,2.26376e-07,2.67671e-06,0,-6.97885e-08,-1.15105e+09,-1.15072e+09,-1.15108e+09,-9327.23,0.000395036,0.0353425,0,0.0353447,-38346.3,-41624.7,-0,56595.5,9327.23
step02_gravity_refstate-mantle.xmf,119,3.70215e-06,4.95241e-06,0,-2.43485e-06,-1.58254e+09,-1.58238e+09,-1.58304e+09,-325418,0.0839348,0.0214138,0,0.0866233,-16356.7,-54982.7,-0,57364.1,325418
step02_gravity_refstate-mantle.xmf,120,5.03967e-06,3.84934e-06,0,-1.67682e-06,-1.64307e+09,-1.64323e+09,-1.64374e+09,-224107,0.091243,0.011346,0,0.0919457,-17300.2,-56858.5,-0,59432.2,224107
step02_gravity_refstate-mantle.xmf,121,1.65289e-06,3.92767e-06,0,-1.94199e-06,-1.45059e+09,-1.45028e+09,-1.45081e+09,-259547,0.0430442,0.02714,0,0.050886,-21025,-50890.3,-0,55062.4,259547
step02_gravity_refstate-mantle.xmf,122,1.8257e-06,5.85723e-06,0,-2.51907e-06,-1.51642e+09,-1.51588e+09,-1.51667e+09,-336674,0.0671155,0.0332677,0,0.0749081,-16140.9,-52930,-0,55336.4,336674
step02_gravity_refstate-mantle.xmf,123,1.7847e-06,5.10298e-06,0,-2.34776e-06,-1.49626e+09,-1.49581e+09,-1.4965e+09,-313778,0.0589598,0.0308095,0,0.0665243,-17661.9,-52304.9,-0,55206.4,313778
step02_gravity_refstate-mantle.xmf,124,8.49691e-07,2.63011e-06,0,-6.08471e-07,-1.27539e+09,-1.27515e+09,-1.27551e+09,-81322.2,0.00733143,0.0275068,0,0.028467,-32779.3,-45469.8,-0,56053.4,81322.2
step02_gravity_refstate-mantle.xmf,125,6.803e-07,2.62879e-06,0,-4.23798e-07,-1.24036e+09,-1.2401e+09,-1.24045e+09,-56640.6,0.00435153,0.0294155,0,0.0297357,-34431.1,-44386.5,-0,56175.3,56640.6
step02_gravity_refstate-mantle.xmf,126,5.73989e-07,2.60902e-06,0,-2.60759e-07,-1.21568e+09,-1.2154e+09,-1.21575e+09,-34850.4,0.00243608,0.0306709,0,0.0307675,-36145,-43623.3,-0,56652,34850.4
step02_gravity_refstate-mantle.xmf,127,-7.1484e-08,2.73778e-06,0,-2.82232e-08,-1.09851e+09,-1.09813e+09,-1.0985e+09,-3772.03,-0.000116634,0.0399147,-0,0.0399149,-37637.7,-40000,-0,54923.5,3772.03
step02_gravity_refstate-mantle.xmf,128,1.98628e-07,2.71025e-06,0,-1.46586e-07,-1.15548e+09,-1.15514e+09,-1.1555e+09,-19591.2,0.000818868,0.0354329,0,0.0354424,-36672.4,-41761.5,-0,55577.8,19591.2
step02_gravity_refstate-mantle.xmf,129,5.84025e-07,2.94545e-06,0,-8.64465e-07,-1.27674e+09,-1.27642e+09,-1.27682e+09,-115536,0.00988733,0.0303219,0,0.0318932,-29397,-45510.4,-0,54179.2,115536
step02_gravity_refstate-mantle.xmf,130,7.95963e-07,3.00401e-06,0,-1.07257e-06,-1.31329e+09,-1.31299e+09,-1.3134e+09,-143349,0.0144204,0.0287563,0,0.0321695,-27929.2,-46641.1,-0,54363.9,143349
step02_gravity_refstate-mantle.xmf,131,9.83344e-07,3.10121e-06,0,-1.26647e-06,-1.34532e+09,-1.34504e+09,-1.34545e+09,-169263,0.0193772,0.0277791,0,0.0338697,-26463.1,-47632,-0,54489.5,169263
step02_gravity_refstate-mantle.xmf,132,1.15972e-06,3.24636e-06,0,-1.45248e-06,-1.37496e+09,-1.37468e+09,-1.37512e+09,-194124,0.0248658,0.0272238,0,0.0368707,-24992.7,-48549.2,-0,54604.6,194124
step02_gravity_refstate-mantle.xmf,133,1.30499e-06,3.44098e-06,0,-1.62103e-06,-1.4003e+09,-1.40001e+09,-1.40047e+09,-216651,0.0303839,0.0271702,0,0.0407603,-23597.2,-49333.2,-0,54686.3,216651
step02_gravity_refstate-mantle.xmf,134,1.48787e-06,3.66351e-06,0,-1.78963e-06,-1.4269e+09,-1.42661e+09,-1.4271e+09,-239184,0.0366843,0.0269881,0,0.0455422,-22282.3,-50156.9,-0,54883.7,239184
step02_gravity_refstate-mantle.xmf,135,1.9624e-06,6.26463e-06,0,-2.62534e-06,-1.53062e+09,-1.53004e+09,-1.53088e+09,-350877,0.0727909,0.0340407,0,0.0803573,-15351.7,-53370.4,-0,55534.5,350877
step02_gravity_refstate-mantle.xmf,136,3.03491e-06,5.82598e-06,0,-2.64062e-06,-1.56442e+09,-1.56405e+09,-1.56483e+09,-352919,0.0826479,0.0276004,0,0.0871347,-15366.1,-54420.7,-0,56548.4,352919
step02_gravity_refstate-mantle.xmf,137,4.6433e-06,4.5572e-06,0,-2.11194e-06,-1.62078e+09,-1.62079e+09,-1.6214e+09,-282261,0.0923031,0.0158712,0,0.0936577,-16314,-56169.1,-0,58490.3,282261
step02_gravity_refstate-mantle.xmf,138,5.59831e-06,3.67349e-06,0,-1.17448e-06,-1.6775e+09,-1.67775e+09,-1.67824e+09,-156969,0.0961117,0.00745694,0,0.0964005,-17181.6,-57925.2,-0,60419.7,156969
step02_gravity_refstate-mantle.xmf,139,5.75637e-06,3.34185e-06,0,-6.2114e-07,-1.70966e+09,-1.70998e+09,-1.71043e+09,-83015.3,0.0954275,0.00362018,0,0.0954961,-17725.1,-58919,-0,61527.4,83015.3
step02_gravity_refstate-mantle.xmf,140,5.72597e-06,3.1162e-06,0,1.28878e-08,-1.74468e+09,-1.74503e+09,-1.74545e+09,1722.46,0.092569,-6.22315e-20,0,0.092569,-18369.3,-60000,-0,62749,1722.46
step02_gravity_refstate-mantle.xmf,141,9.61781e-07,4.53972e-06,0,-1.90388e-06,-1.4281e+09,-1.42762e+09,-1.42823e+09,-254454,0.03994,0.0335358,0,0.0521522,-19821.5,-50192.7,-0,53964.8,254454
step02_gravity_refstate-mantle.xmf,142,9.92222e-07,4.94971e-06,0,-2.04093e-06,-1.44695e+09,-1.44642e+09,-1.44709e+09,-272770,0.0453624,0.0347747,0,0.0571579,-18682.7,-50776.2,-0,54104.2,272770
step02_gravity_refstate-mantle.xmf,143,1.14472e-06,5.88675e-06,0,-2.35631e-06,-1.48563e+09,-1.48499e+09,-1.48578e+09,-314920,0.0576817,0.0370067,0,0.0685323,-16569.7,-51974.3,-0,54551.6,314920
step02_gravity_refstate-mantle.xmf,144,9.9036e-07,5.41897e-06,0,-2.17179e-06,-1.4636e+09,-1.46301e+09,-1.46373e+09,-290259,0.0505957,0.0363893,0,0.0623226,-17596.9,-51291.6,-0,54226.1,290259
step02_gravity_refstate-mantle.xmf,145,4.8564e-07,2.85954e-06,0,-6.72223e-07,-1.25069e+09,-1.25037e+09,-1.25076e+09,-89842.7,0.00697167,0.0309956,0,0.0317699,-30988.2,-44704.9,-0,54394.9,89842.7
step02_gravity_refstate-mantle.xmf,146,9.73387e-07,6.60574e-06,0,-2.45133e-06,-1.49712e+09,-1.49637e+09,-1.49725e+09,-327620,0.0622992,0.0403986,0,0.0742512,-15424.2,-52330,-0,54555.8,327620
step02_gravity_refstate-mantle.xmf,147,4.06869e-06,5.42281e-06,0,-2.4699e-06,-1.60009e+09,-1.59991e+09,-1.60063e+09,-330103,0.0921084,0.0214508,0,0.0945732,-15336.2,-55528.4,-0,57607.3,330103
step02_gravity_refstate-mantle.xmf,148,5.4904e-06,4.27928e-06,0,-1.56849e-06,-1.66125e+09,-1.66141e+09,-1.66198e+09,-209629,0.0998095,0.0105772,0,0.100368,-16163.5,-57424.1,-0,59655.6,209629
step02_gravity_refstate-mantle.xmf,149,8.86358e-07,4.19859e-06,0,-1.75744e-06,-1.40643e+09,-1.40599e+09,-1.40655e+09,-234882,0.0343322,0.0327709,0,0.0474619,-20997.5,-49521.8,-0,53789.4,234882
step02_gravity_refstate-mantle.xmf,150,3.21743e-07,2.81281e-06,0,-4.55446e-07,-1.21194e+09,-1.2116e+09,-1.21198e+09,-60870.3,0.00386265,0.0328477,0,0.033074,-32780.2,-43506.6,-0,54473.5,60870.3
step02_gravity_refstate-mantle.xmf,151,1.52451e-07,2.79839e-06,0,-2.7031e-07,-1.16745e+09,-1.1671e+09,-1.16747e+09,-36126.9,0.00154113,0.0355439,0,0.0355773,-34419.2,-42131.3,-0,54403.4,36126.9
step02_gravity_refstate-mantle.xmf,152,-1.90962e-07,2.82204e-06,0,-5.25698e-08,-1.09853e+09,-1.09812e+09,-1.0985e+09,-7025.95,-0.000405738,0.040935,-0,0.040937,-35384.1,-40000,-0,53404.5,7025.95
step02_gravity_refstate-mantle.xmf,153,1.58976e-07,3.22318e-06,0,-8.54371e-07,-1.25388e+09,-1.25348e+09,-1.25391e+09,-114187,0.00829838,0.0346134,0,0.0355943,-27833.2,-44802.3,-0,52744.1,114187
step02_gravity_refstate-mantle.xmf,154,-4.4073e-08,3.1518e-06,0,-6.20298e-07,-1.21072e+09,-1.2103e+09,-1.21072e+09,-82902.8,0.00431615,0.036674,0,0.0369272,-29297,-43467.6,-0,52418.9,82902.8
step02_gravity_refstate-mantle.xmf,155,3.28573e-07,3.30966e-06,0,-1.04828e-06,-1.28781e+09,-1.28741e+09,-1.28785e+09,-140102,0.012333,0.0333839,0,0.0355891,-26525.8,-45851.5,-0,52971.5,140102
step02_gravity_refstate-mantle.xmf,156,4.54628e-07,3.46404e-06,0,-1.23338e-06,-1.3181e+09,-1.3177e+09,-1.31816e+09,-164841,0.0167817,0.032951,0,0.0369783,-25089.1,-46788.6,-0,53090.8,164841
step02_gravity_refstate-mantle.xmf,157,5.69271e-07,3.67555e-06,0,-1.40883e-06,-1.3475e+09,-1.34709e+09,-1.34758e+09,-188291,0.0218915,0.0329085,0,0.0395248,-23633.5,-47698,-0,53232,188291
step02_gravity_refstate-mantle.xmf,158,5.80583e-07,3.98635e-06,0,-1.55164e-06,-1.37077e+09,-1.37031e+09,-1.37085e+09,-207377,0.0267135,0.0340168,0,0.0432522,-22131.6,-48417.7,-0,53236.1,207377
step02_gravity_refstate-mantle.xmf,159,9.59503e-07,7.25931e-06,0,-2.57221e-06,-1.51321e+09,-1.51237e+09,-1.51334e+09,-343776,0.0684956,0.0423567,0,0.0805341,-14454,-52828.6,-0,54770.2,343776
step02_gravity_refstate-mantle.xmf,160,2.15955e-06,6.83289e-06,0,-2.74307e-06,-1.54705e+09,-1.54642e+09,-1.54733e+09,-366611,0.0798654,0.0351113,0,0.0872426,-14419.6,-53880.7,-0,55776.8,366611
step02_gravity_refstate-mantle.xmf,161,3.34881e-06,6.3885e-06,0,-2.70954e-06,-1.58138e+09,-1.58098e+09,-1.58183e+09,-362130,0.0906323,0.0281629,0,0.0949072,-14387.4,-54948.1,-0,56800.5,362130
step02_gravity_refstate-mantle.xmf,162,4.98568e-06,5.066e-06,0,-2.08261e-06,-1.63499e+09,-1.63498e+09,-1.63566e+09,-278341,0.100093,0.0159234,0,0.101351,-15275,-56611.7,-0,58636.2,278341
step02_gravity_refstate-mantle.xmf,163,5.97256e-06,3.92488e-06,0,-7.84327e-07,-1.70496e+09,-1.70524e+09,-1.70576e+09,-104825,0.102914,0.00479317,0,0.103025,-16403.5,-58776.8,-0,61022.8,104825
step02_gravity_refstate-mantle.xmf,164,5.99887e-06,3.58747e-06,0,2.13449e-08,-1.74458e+09,-1.74491e+09,-1.74539e+09,2852.74,0.100117,-8.72978e-20,0,0.100117,-17080.8,-60000,-0,62383.9,2852.74
step02_gravity_refstate-mantle.xmf,165,2.34514e-07,4.75115e-06,0,-1.62503e-06,-1.38771e+09,-1.38711e+09,-1.38774e+09,-217185,0.0310732,0.0394601,0,0.0502259,-19791,-48940.6,-0,52790.8,217185
step02_gravity_refstate-mantle.xmf,166,1.93974e-07,5.17666e-06,0,-1.72867e-06,-1.40677e+09,-1.4061e+09,-1.40679e+09,-231037,0.0356773,0.0411169,0,0.0544378,-18674.3,-49530.1,-0,52933.5,231037
step02_gravity_refstate-mantle.xmf,167,-1.02706e-07,7.56722e-06,0,-2.19396e-06,-1.47896e+09,-1.47793e+09,-1.47894e+09,-293222,0.0566822,0.0500405,0,0.0756103,-14486.6,-51764.2,-0,53753,293222
step02_gravity_refstate-mantle.xmf,168,1.27405e-07,5.67169e-06,0,-1.83299e-06,-1.4251e+09,-1.42436e+09,-1.42511e+09,-244980,0.0404503,0.0430757,0,0.0590909,-17582.7,-50097.1,-0,53093.1,244980
step02_gravity_refstate-mantle.xmf,169,-1.09838e-08,6.85984e-06,0,-2.07814e-06,-1.46191e+09,-1.46099e+09,-1.46191e+09,-277744,0.0511454,0.0473727,0,0.0697138,-15492.4,-51236.4,-0,53527.4,277744
step02_gravity_refstate-mantle.xmf,170,6.92178e-08,6.22474e-06,0,-1.95399e-06,-1.44384e+09,-1.44301e+09,-1.44385e+09,-261151,0.0456932,0.0450498,0,0.0641666,-16531.6,-50677,-0,53305.3,261151
step02_gravity_refstate-mantle.xmf,171,2.421e-08,2.9949e-06,0,-4.76344e-07,-1.19516e+09,-1.19476e+09,-1.19516e+09,-63663.4,0.0032129,0.0359063,0,0.0360497,-31100.2,-42986.9,-0,53057.5,63663.4
step02_gravity_refstate-mantle.xmf,172,-1.47596e-07,8.32838e-06,0,-2.31737e-06,-1.49618e+09,-1.49505e+09,-1.49616e+09,-309717,0.0627433,0.0526566,0,0.0819112,-13532.6,-52297.9,-0,54020.3,309717
step02_gravity_refstate-mantle.xmf,173,1.04771e-06,7.98413e-06,0,-2.69726e-06,-1.52987e+09,-1.52894e+09,-1.53001e+09,-360488,0.0753884,0.0443558,0,0.0874691,-13498,-53345.5,-0,55026.7,360488
step02_gravity_refstate-mantle.xmf,174,4.43775e-06,6.0006e-06,0,-2.45997e-06,-1.61623e+09,-1.61602e+09,-1.61682e+09,-328775,0.100371,0.021626,0,0.102674,-14335,-56030.8,-0,57835.5,328775
step02_gravity_refstate-mantle.xmf,175,5.6042e-06,4.8742e-06,0,-1.67001e-06,-1.66267e+09,-1.66277e+09,-1.66342e+09,-223197,0.105606,0.0118773,0,0.106271,-15154.6,-57470.4,-0,59434.9,223197
step02_gravity_refstate-mantle.xmf,176,5.90834e-06,4.51636e-06,0,-1.23618e-06,-1.68487e+09,-1.68505e+09,-1.68566e+09,-165216,0.106521,0.00816441,0,0.106833,-15503.5,-58157.1,-0,60188.1,165216
step02_gravity_refstate-mantle.xmf,177,2.25122e-07,4.42354e-06,0,-1.51417e-06,-1.36857e+09,-1.36801e+09,-1.3686e+09,-202369,0.0268224,0.0384285,0,0.0468635,-20812,-48348.5,-0,52637.6,202369
step02_gravity_refstate-mantle.xmf,178,-4.37056e-07,3.16504e-06,0,-3.07015e-07,-1.15097e+09,-1.15049e+09,-1.15092e+09,-41032.6,0.000241104,0.0412975,0,0.0412982,-30155.1,-41619.3,-0,51395.5,41032.6
step02_gravity_refstate-mantle.xmf,179,-1.75432e-07,2.97843e-06,0,-2.86206e-07,-1.15387e+09,-1.15345e+09,-1.15385e+09,-38251.5,0.000964516,0.0386199,0,0.0386319,-32139.7,-41710.1,-0,52656.3,38251.5
step02_gravity_refstate-mantle.xmf,180,-3.72058e-07,2.94328e-06,0,-6.25666e-08,-1.09856e+09,-1.09811e+09,-1.09851e+09,-8362.02,-0.00101045,0.0426095,-0,0.0426214,-33233.9,-40000,-0,52004.7,8362.02
step02_gravity_refstate-mantle.xmf,181,-2.17217e-07,3.45986e-06,0,-7.98044e-07,-1.23858e+09,-1.23809e+09,-1.23855e+09,-106659,0.00662509,0.0386348,0,0.0391987,-26476.5,-44327.7,-0,51632.8,106659
step02_gravity_refstate-mantle.xmf,182,-4.56582e-07,3.42908e-06,0,-5.83361e-07,-1.19783e+09,-1.19731e+09,-1.19777e+09,-77966.2,0.00268483,0.0412266,0,0.0413139,-27351.4,-43067.2,-0,51018.5,77966.2
step02_gravity_refstate-mantle.xmf,183,-1.84889e-07,3.62377e-06,0,-9.45913e-07,-1.26215e+09,-1.26165e+09,-1.26213e+09,-126421,0.00921865,0.0389242,0,0.040001,-25165.1,-45056.5,-0,51607.9,126421
step02_gravity_refstate-mantle.xmf,184,-1.27999e-07,3.83615e-06,0,-1.10156e-06,-1.29086e+09,-1.29033e+09,-1.29084e+09,-147223,0.013032,0.0391897,0,0.0412997,-23754.2,-45944.1,-0,51721.6,147223
step02_gravity_refstate-mantle.xmf,185,-1.02524e-07,4.08066e-06,0,-1.22571e-06,-1.31523e+09,-1.31467e+09,-1.31522e+09,-163816,0.0168108,0.0398948,0,0.043292,-22490.1,-46697.9,-0,51831.4,163816
step02_gravity_refstate-mantle.xmf,186,2.38612e-06,7.52334e-06,0,-2.82909e-06,-1.56336e+09,-1.56268e+09,-1.56368e+09,-378107,0.0875171,0.0364717,0,0.0948126,-13461.5,-54388,-0,56029.2,378107
step02_gravity_refstate-mantle.xmf,187,-2.41252e-07,9.19384e-06,0,-2.40323e-06,-1.51293e+09,-1.51167e+09,-1.5129e+09,-321191,0.0691488,0.0557207,0,0.0888051,-12586.2,-52817,-0,54295.9,321191
step02_gravity_refstate-mantle.xmf,188,3.67611e-06,7.06185e-06,0,-2.72577e-06,-1.59733e+09,-1.59688e+09,-1.59782e+09,-364299,0.0988082,0.0288947,0,0.102946,-13427.4,-55444.8,-0,57047.5,364299
step02_gravity_refstate-mantle.xmf,189,5.3384e-06,5.6191e-06,0,-2.00248e-06,-1.64897e+09,-1.64893e+09,-1.64968e+09,-267631,0.107644,0.0156909,0,0.108782,-14346.6,-57047.3,-0,58823.6,267631
step02_gravity_refstate-mantle.xmf,190,6.01544e-06,5.21025e-06,0,-1.36837e-06,-1.68325e+09,-1.68336e+09,-1.68405e+09,-182883,0.112371,0.00966608,0,0.112786,-14492.2,-58109.6,-0,59889.5,182883
step02_gravity_refstate-mantle.xmf,191,6.24581e-06,4.53589e-06,0,-7.00739e-07,-1.71272e+09,-1.71295e+09,-1.71356e+09,-93653.8,0.110339,0.00445309,0,0.110429,-15269.9,-59019.8,-0,60963.2,93653.8
step02_gravity_refstate-mantle.xmf,192,6.24507e-06,4.18479e-06,0,1.20063e-08,-1.74448e+09,-1.74476e+09,-1.74532e+09,1604.64,0.10763,-7.86813e-20,0,0.10763,-15854,-60000,-0,62059.2,1604.64
step02_gravity_refstate-mantle.xmf,193,-1.2945e-06,8.53783e-06,0,-1.70437e-06,-1.46147e+09,-1.46015e+09,-1.46129e+09,-227789,0.0497344,0.0614677,0,0.0790683,-13568.6,-51218.4,-0,52985.2,227789
step02_gravity_refstate-mantle.xmf,194,-1.46549e-06,9.41861e-06,0,-1.78754e-06,-1.4795e+09,-1.47804e+09,-1.4793e+09,-238904,0.0554258,0.0649604,0,0.0853925,-12634.6,-51776.5,-0,53295.8,238904
step02_gravity_refstate-mantle.xmf,195,-2.48734e-07,4.44173e-06,0,-1.25929e-06,-1.33044e+09,-1.32981e+09,-1.33041e+09,-168304,0.0193225,0.0425996,0,0.0467769,-21108.5,-47167.5,-0,51675.4,168304
step02_gravity_refstate-mantle.xmf,196,-3.95951e-07,4.85793e-06,0,-1.28452e-06,-1.34731e+09,-1.34661e+09,-1.34726e+09,-171676,0.0223188,0.0453646,0,0.0505577,-19818.2,-47688.8,-0,51642.8,171676
step02_gravity_refstate-mantle.xmf,197,-5.07807e-07,5.30245e-06,0,-1.33341e-06,-1.36646e+09,-1.36568e+09,-1.36639e+09,-178211,0.0260806,0.0476653,0,0.0543339,-18673.9,-48280.6,-0,51766.1,178211
step02_gravity_refstate-mantle.xmf,198,-6.54345e-07,5.81844e-06,0,-1.37691e-06,-1.38519e+09,-1.38433e+09,-1.38511e+09,-184024,0.0300309,0.0502839,0,0.058569,-17563.7,-48859.6,-0,51920.6,184024
step02_gravity_refstate-mantle.xmf,199,-1.14137e-06,7.76146e-06,0,-1.60289e-06,-1.44265e+09,-1.44146e+09,-1.44249e+09,-214226,0.0442457,0.0585129,0,0.0733583,-14510.2,-50636.1,-0,52674.1,214226
step02_gravity_refstate-mantle.xmf,200,-8.19569e-07,6.4029e-06,0,-1.43073e-06,-1.40395e+09,-1.40299e+09,-1.40384e+09,-191218,0.0342849,0.0530477,0,0.0631626,-16499.9,-49439.5,-0,52120.2,191218
step02_gravity_refstate-mantle.xmf,201,-9.8811e-07,7.06073e-06,0,-1.50753e-06,-1.42337e+09,-1.4223e+09,-1.42324e+09,-201481,0.0390673,0.0558211,0,0.068134,-15473.4,-50040,-0,52377.7,201481
step02_gravity_refstate-mantle.xmf,202,-7.19112e-07,3.38453e-06,0,-3.00025e-07,-1.14832e+09,-1.14777e+09,-1.14822e+09,-40098.4,-0.00101027,0.0446444,-0,0.0446559,-28283.1,-41535.9,-0,50251,40098.4
step02_gravity_refstate-mantle.xmf,203,-1.83327e-06,1.05566e-05,0,-1.72914e-06,-1.49358e+09,-1.49193e+09,-1.49334e+09,-231099,0.0597413,0.0712114,0,0.0929521,-11614,-52212,-0,53488.1,231099
step02_gravity_refstate-mantle.xmf,204,-2.18687e-07,1.01345e-05,0,-2.44838e-06,-1.52949e+09,-1.52811e+09,-1.52946e+09,-327227,0.0760831,0.0589086,0,0.096223,-11683.7,-53331.1,-0,54595.9,327227
step02_gravity_refstate-mantle.xmf,205,1.18365e-06,8.79926e-06,0,-2.78061e-06,-1.54627e+09,-1.54525e+09,-1.54643e+09,-371629,0.0827489,0.0465308,0,0.0949342,-12566.9,-53855.2,-0,55302,371629
step02_gravity_refstate-mantle.xmf,206,4.81573e-06,6.68681e-06,0,-2.38217e-06,-1.63168e+09,-1.63143e+09,-1.63233e+09,-318377,0.108717,0.0217258,0,0.110866,-13379,-56512.5,-0,58074.6,318377
step02_gravity_refstate-mantle.xmf,207,-9.07327e-07,3.30808e-06,0,-1.46571e-08,-1.09864e+09,-1.09808e+09,-1.09852e+09,-1958.93,-0.00351487,0.0480408,-0,0.0481692,-29222.3,-40000,-0,49537.3,1958.93
step02_gravity_refstate-mantle.xmf,208,-6.16807e-07,3.10618e-06,0,-4.68863e-08,-1.0986e+09,-1.0981e+09,-1.09851e+09,-6266.36,-0.00202173,0.0449608,-0,0.0450062,-31181.6,-40000,-0,50717.8,6266.36
step02_gravity_refstate-mantle.xmf,209,-7.7973e-07,3.72345e-06,0,-5.79217e-07,-1.20096e+09,-1.20036e+09,-1.20085e+09,-77412.3,0.00178784,0.045346,0,0.0453813,-25379.2,-43162.4,-0,50071,77412.3
step02_gravity_refstate-mantle.xmf,210,-1.05905e-06,3.6275e-06,0,-2.48924e-07,-1.14752e+09,-1.14689e+09,-1.14737e+09,-33268.7,-0.00272823,0.0487418,-0,0.0488181,-26431.5,-41509.5,-0,49210.4,33268.7
step02_gravity_refstate-mantle.xmf,211,-7.56528e-07,3.93323e-06,0,-7.35017e-07,-1.23578e+09,-1.23515e+09,-1.23568e+09,-98235,0.00499007,0.0457402,0,0.0460116,-23783.5,-44238.8,-0,50226.8,98235
step02_gravity_refstate-mantle.xmf,212,-7.58849e-07,4.19378e-06,0,-8.46055e-07,-1.26219e+09,-1.26152e+09,-1.26208e+09,-113075,0.00795875,0.0467902,0,0.0474622,-22459.8,-45055.1,-0,50342.9,113075
step02_gravity_refstate-mantle.xmf,213,-8.23286e-07,4.50237e-06,0,-8.99722e-07,-1.28513e+09,-1.28442e+09,-1.28502e+09,-120248,0.0108598,0.0486844,0,0.049881,-21157.2,-45764.2,-0,50418.1,120248
step02_gravity_refstate-mantle.xmf,214,2.6445e-06,8.32384e-06,0,-2.85159e-06,-1.57913e+09,-1.57837e+09,-1.57948e+09,-381115,0.0954996,0.037996,0,0.102781,-12529.5,-54878.9,-0,56291,381115
step02_gravity_refstate-mantle.xmf,215,-1.66699e-06,1.14638e-05,0,-1.85371e-06,-1.51598e+09,-1.51423e+09,-1.51576e+09,-247748,0.0689115,0.0727869,0,0.100233,-10824.2,-52907.5,-0,54003.4,247748
step02_gravity_refstate-mantle.xmf,216,3.99224e-06,7.86264e-06,0,-2.66822e-06,-1.612e+09,-1.61149e+09,-1.61254e+09,-356608,0.106942,0.0297893,0,0.111014,-12508.2,-55902.1,-0,57284.4,356608
step02_gravity_refstate-mantle.xmf,217,5.71737e-06,6.26373e-06,0,-1.82523e-06,-1.66396e+09,-1.66388e+09,-1.66472e+09,-243941,0.115507,0.0150374,0,0.116482,-13447.2,-57514.4,-0,59065.5,243941
step02_gravity_refstate-mantle.xmf,218,6.46096e-06,5.37255e-06,0,-6.93877e-07,-1.7155e+09,-1.71564e+09,-1.71636e+09,-92736.7,0.117961,0.00479468,0,0.118059,-14098.8,-59109.1,-0,60767.3,92736.7
step02_gravity_refstate-mantle.xmf,219,6.47777e-06,4.91237e-06,0,1.52732e-08,-1.74437e+09,-1.74458e+09,-1.74524e+09,2041.27,0.115061,-8.72444e-20,0,0.115061,-14685.8,-60000,-0,61771.1,2041.27
step02_gravity_refstate-mantle.xmf,220,-2.26004e-06,8.56119e-06,0,-9.12768e-07,-1.42508e+09,-1.42363e+09,-1.42478e+09,-121991,0.036603,0.0707755,0,0.0796803,-13607.7,-50088.1,-0,51903.6,121991
step02_gravity_refstate-mantle.xmf,221,-2.53784e-06,9.44625e-06,0,-9.61305e-07,-1.44484e+09,-1.44324e+09,-1.4445e+09,-128478,0.0416862,0.0745626,0,0.0854244,-12690.1,-50698.8,-0,52262.9,128478
step02_gravity_refstate-mantle.xmf,222,-2.89689e-06,1.03831e-05,0,-9.1895e-07,-1.46069e+09,-1.45892e+09,-1.46031e+09,-122818,0.0457526,0.0795079,0,0.0917322,-11822.3,-51188.5,-0,52536,122818
step02_gravity_refstate-mantle.xmf,223,-3.10447e-06,1.18531e-05,0,-9.9156e-07,-1.48797e+09,-1.48597e+09,-1.48755e+09,-132522,0.0546678,0.0851392,0,0.101179,-10657.6,-52033.4,-0,53113.6,132522
step02_gravity_refstate-mantle.xmf,224,-3.0819e-06,1.26557e-05,0,-1.03491e-06,-1.50477e+09,-1.50266e+09,-1.50435e+09,-138316,0.0613424,0.0873957,0,0.106775,-10058.8,-52554.5,-0,53508.5,138316
step02_gravity_refstate-mantle.xmf,225,-9.42513e-07,4.88086e-06,0,-9.09829e-07,-1.30593e+09,-1.30515e+09,-1.3058e+09,-121599,0.0137381,0.0512995,0,0.0531072,-19885.9,-46406.8,-0,50488,121599
step02_gravity_refstate-mantle.xmf,226,-1.10214e-06,5.31888e-06,0,-8.91704e-07,-1.32522e+09,-1.32436e+09,-1.32507e+09,-119176,0.0166396,0.0543106,0,0.0568024,-18701,-47002.8,-0,50586.4,119176
step02_gravity_refstate-mantle.xmf,227,-1.29833e-06,5.8312e-06,0,-8.62032e-07,-1.34467e+09,-1.34372e+09,-1.3445e+09,-115211,0.0198342,0.0575912,0,0.0609109,-17565.1,-47603.8,-0,50741,115211
step02_gravity_refstate-mantle.xmf,228,-1.53757e-06,6.42117e-06,0,-8.26726e-07,-1.36396e+09,-1.3629e+09,-1.36376e+09,-110492,0.0232418,0.0611346,0,0.0654035,-16479.3,-48199.5,-0,50938.8,110492
step02_gravity_refstate-mantle.xmf,229,-2.08138e-06,7.81003e-06,0,-8.03554e-07,-1.40357e+09,-1.40224e+09,-1.40329e+09,-107395,0.031283,0.0681517,0,0.0749886,-14486.6,-49422.8,-0,51502.1,107395
step02_gravity_refstate-mantle.xmf,230,-1.85324e-06,7.11455e-06,0,-7.60267e-07,-1.38219e+09,-1.38099e+09,-1.38194e+09,-101610,0.0265102,0.0654769,0,0.0706401,-15393.8,-48762.3,-0,51134.4,101610
step02_gravity_refstate-mantle.xmf,231,-1.24814e-06,3.51347e-06,0,7.1293e-08,-1.0987e+09,-1.09806e+09,-1.09853e+09,9528.31,-0.00553119,0.0519171,-0,0.0522109,-27351,-40000,-0,48457,9528.31
step02_gravity_refstate-mantle.xmf,232,-3.19338e-06,1.37807e-05,0,-8.38177e-07,-1.5192e+09,-1.51693e+09,-1.51877e+09,-112022,0.0670299,0.0928762,0,0.114538,-9340.13,-53002.5,-0,53819.2,112022
step02_gravity_refstate-mantle.xmf,233,-4.49954e-06,1.3701e-05,0,7.23936e-08,-1.49363e+09,-1.4912e+09,-1.49303e+09,9675.4,0.0525794,0.103621,0,0.116198,-9353.46,-52203.8,-0,53035.2,9675.4
step02_gravity_refstate-mantle.xmf,234,-1.61963e-06,1.25182e-05,0,-1.78028e-06,-1.53188e+09,-1.52999e+09,-1.53167e+09,-237935,0.075818,0.0766784,0,0.107833,-10062.4,-53401.6,-0,54341.3,237935
step02_gravity_refstate-mantle.xmf,235,-7.75237e-08,1.11359e-05,0,-2.42878e-06,-1.5461e+09,-1.5446e+09,-1.54609e+09,-324606,0.0837135,0.0619308,0,0.104132,-10844.3,-53847.5,-0,54928.6,324606
step02_gravity_refstate-mantle.xmf,236,1.3614e-06,9.72669e-06,0,-2.7848e-06,-1.56208e+09,-1.56096e+09,-1.56226e+09,-372188,0.0904528,0.0489648,0,0.102856,-11666.9,-54347.2,-0,55585.4,372188
step02_gravity_refstate-mantle.xmf,237,5.1298e-06,7.51626e-06,0,-2.25539e-06,-1.64502e+09,-1.6447e+09,-1.6457e+09,-301433,0.116607,0.021997,0,0.118664,-12479.7,-56928.6,-0,58280.4,301433
step02_gravity_refstate-mantle.xmf,238,6.26594e-06,5.97921e-06,0,-1.26083e-06,-1.69215e+09,-1.69218e+09,-1.69298e+09,-168510,0.119544,0.00955534,0,0.119925,-13508.1,-58388.1,-0,59930.3,168510
step02_gravity_refstate-mantle.xmf,239,-3.37737e-06,1.12443e-05,0,-6.77034e-07,-1.46862e+09,-1.46666e+09,-1.46816e+09,-90485.5,0.0469169,0.0861611,0,0.0981067,-11090.3,-51432.3,-0,52614.4,90485.5
step02_gravity_refstate-mantle.xmf,240,-4.82109e-06,1.49105e-05,0,4.94588e-07,-1.50697e+09,-1.50433e+09,-1.50632e+09,66101.7,0.0569392,0.111428,0,0.125133,-8640.07,-52616.6,-0,53321.3,66101.7
step02_gravity_refstate-mantle.xmf,241,-4.26458e-06,1.27012e-05,0,-8.86917e-08,-1.48041e+09,-1.47814e+09,-1.47984e+09,-11853.6,0.0483707,0.0980528,0,0.109335,-9993.78,-51794.4,-0,52749.8,11853.6
step02_gravity_refstate-mantle.xmf,242,-1.32259e-06,4.04209e-06,0,-3.46672e-07,-1.18455e+09,-1.18384e+09,-1.18438e+09,-46332.7,-0.00212149,0.052781,-0,0.0528236,-23564.9,-42652.9,-0,48729.6,46332.7
step02_gravity_refstate-mantle.xmf,243,-1.61668e-06,3.73951e-06,0,1.87251e-07,-1.09876e+09,-1.09804e+09,-1.09854e+09,25026,-0.0080877,0.0566686,-0,0.0572428,-25563.1,-40000,-0,47470.8,25026
step02_gravity_refstate-mantle.xmf,244,-1.44515e-06,3.88216e-06,0,-1.23404e-07,-1.14447e+09,-1.14376e+09,-1.14428e+09,-16493,-0.00524307,0.0540343,-0,0.0542881,-24667.2,-41413.5,-0,48203.2,16493
step02_gravity_refstate-mantle.xmf,245,-1.3178e-06,4.24253e-06,0,-4.48017e-07,-1.21335e+09,-1.21261e+09,-1.21318e+09,-59877.5,0.00025486,0.0535819,0,0.0535825,-22350.1,-43543.1,-0,48944.2,59877.5
step02_gravity_refstate-mantle.xmf,246,-1.36972e-06,4.52001e-06,0,-4.92025e-07,-1.23763e+09,-1.23684e+09,-1.23745e+09,-65759.2,0.0024639,0.0554702,0,0.0555249,-21121.8,-44293.3,-0,49071.7,65759.2
step02_gravity_refstate-mantle.xmf,247,-1.45614e-06,4.84883e-06,0,-4.89226e-07,-1.26144e+09,-1.26059e+09,-1.26124e+09,-65385,0.00501678,0.0579023,0,0.0581192,-19906,-45028.9,-0,49232.7,65385
step02_gravity_refstate-mantle.xmf,248,2.89882e-06,9.25984e-06,0,-2.78256e-06,-1.59368e+09,-1.59283e+09,-1.59406e+09,-371889,0.103465,0.0397904,0,0.110853,-11640.4,-55332.3,-0,56543.4,371889
step02_gravity_refstate-mantle.xmf,249,-3.34521e-06,1.50743e-05,0,-4.09192e-07,-1.53206e+09,-1.5296e+09,-1.53161e+09,-54688.5,0.0723484,0.100019,0,0.123443,-8621.23,-53402.1,-0,54093.5,54688.5
step02_gravity_refstate-mantle.xmf,250,-5.11295e-06,1.62684e-05,0,1.14442e-06,-1.51957e+09,-1.51671e+09,-1.51889e+09,152951,0.0613628,0.120809,0,0.1355,-7934.5,-53007.4,-0,53598,152951
step02_gravity_refstate-mantle.xmf,251,4.25136e-06,8.88849e-06,0,-2.52361e-06,-1.62526e+09,-1.62464e+09,-1.62582e+09,-337281,0.115029,0.0311161,0,0.119163,-11593.1,-56315.9,-0,57496.8,337281
step02_gravity_refstate-mantle.xmf,252,6.11989e-06,7.15212e-06,0,-1.54272e-06,-1.68237e+09,-1.68224e+09,-1.68319e+09,-206185,0.124555,0.0135004,0,0.125284,-12473.3,-58088.3,-0,59412.4,206185
step02_gravity_refstate-mantle.xmf,253,6.59557e-06,6.36485e-06,0,-7.32869e-07,-1.71571e+09,-1.71574e+09,-1.71659e+09,-97948,0.124964,0.00562232,0,0.12509,-13028.9,-59119.1,-0,60537.8,97948
step02_gravity_refstate-mantle.xmf,254,6.6587e-06,5.81612e-06,0,1.69934e-08,-1.74426e+09,-1.74437e+09,-1.74515e+09,2271.16,0.122365,-1.02338e-19,0,0.122365,-13573.4,-60000,-0,61516.1,2271.16
step02_gravity_refstate-mantle.xmf,255,-2.94978e-06,8.28241e-06,0,-2.14267e-09,-1.38577e+09,-1.38427e+09,-1.38538e+09,-286.368,0.0235374,0.0801665,0,0.0835504,-13698.1,-48868.5,-0,50752,286.368
step02_gravity_refstate-mantle.xmf,256,-3.32869e-06,9.31923e-06,0,-6.11631e-08,-1.41217e+09,-1.41048e+09,-1.41172e+09,-8174.45,0.0293878,0.0840522,0,0.0890417,-12692.9,-49683.9,-0,51279.6,8174.45
step02_gravity_refstate-mantle.xmf,257,-3.77534e-06,1.02347e-05,0,4.77753e-08,-1.42918e+09,-1.42731e+09,-1.42868e+09,6385.17,0.032804,0.0893487,0,0.0951803,-11842.9,-50209,-0,51586.8,6385.17
step02_gravity_refstate-mantle.xmf,258,-4.26288e-06,1.11844e-05,0,2.36076e-07,-1.44366e+09,-1.44159e+09,-1.44309e+09,31551.5,0.0355587,0.0955624,0,0.101964,-11041,-50655.2,-0,51844.5,31551.5
step02_gravity_refstate-mantle.xmf,259,-4.67644e-06,1.22048e-05,0,3.58645e-07,-1.4599e+09,-1.45765e+09,-1.45928e+09,47933,0.0395377,0.101251,0,0.108697,-10286.1,-51156.9,-0,52180.8,47933
step02_gravity_refstate-mantle.xmf,260,-6.03706e-06,1.4556e-05,0,1.55911e-06,-1.48179e+09,-1.47904e+09,-1.48098e+09,208376,0.0422326,0.12231,0,0.129396,-8674.07,-51829.8,-0,52550.6,208376
step02_gravity_refstate-mantle.xmf,261,-5.48389e-06,1.33795e-05,0,1.03369e-06,-1.46928e+09,-1.46676e+09,-1.46855e+09,138152,0.0397303,0.112789,0,0.119582,-9414.19,-51444.1,-0,52298.4,138152
step02_gravity_refstate-mantle.xmf,262,-6.55065e-06,1.58508e-05,0,2.27777e-06,-1.49454e+09,-1.49155e+09,-1.49367e+09,304424,0.0451626,0.133341,0,0.140781,-7937.09,-52223.7,-0,52823.4,304424
step02_gravity_refstate-mantle.xmf,263,-1.60802e-06,5.25192e-06,0,-4.27752e-07,-1.28292e+09,-1.282e+09,-1.2827e+09,-57169,0.00747314,0.061196,0,0.0616506,-18708.1,-45692.5,-0,49374.1,57169
step02_gravity_refstate-mantle.xmf,264,-2.87843e-06,7.73219e-06,0,1.60399e-07,-1.36281e+09,-1.36139e+09,-1.36242e+09,21437.3,0.0181372,0.0798324,0,0.0818668,-14289.6,-48158.2,-0,50233.5,21437.3
step02_gravity_refstate-mantle.xmf,265,-1.80872e-06,5.72916e-06,0,-3.34426e-07,-1.30377e+09,-1.30277e+09,-1.30353e+09,-44696.1,0.0101087,0.0649131,0,0.0656954,-17565.5,-46336.7,-0,49554.3,44696.1
step02_gravity_refstate-mantle.xmf,266,-2.0682e-06,6.29026e-06,0,-2.16609e-07,-1.32428e+09,-1.32316e+09,-1.324e+09,-28949.8,0.0129125,0.069033,0,0.0702303,-16468,-46969.8,-0,49773.1,28949.8
step02_gravity_refstate-mantle.xmf,267,-2.41293e-06,6.9396e-06,0,-5.49984e-08,-1.34333e+09,-1.34208e+09,-1.34301e+09,-7350.54,0.0155084,0.0738913,0,0.0755012,-15399.8,-47557.7,-0,49988.9,7350.54
step02_gravity_refstate-mantle.xmf,268,-1.75228e-06,4.27185e-06,0,-9.34666e-08,-1.17269e+09,-1.17188e+09,-1.17245e+09,-12491.8,-0.0057834,0.0595264,-0,0.0598067,-22206.8,-42284.1,-0,47760.7,12491.8
step02_gravity_refstate-mantle.xmf,269,-1.61653e-06,1.37407e-05,0,-1.52197e-06,-1.54586e+09,-1.5438e+09,-1.54564e+09,-203411,0.0823281,0.0819619,0,0.116171,-9304.88,-53836.4,-0,54634.6,203411
step02_gravity_refstate-mantle.xmf,270,5.05791e-08,1.23067e-05,0,-2.25968e-06,-1.56121e+09,-1.55958e+09,-1.56122e+09,-302006,0.0912862,0.0657626,0,0.112507,-10026.2,-54318.3,-0,55235.9,302006
step02_gravity_refstate-mantle.xmf,271,1.54158e-06,1.07944e-05,0,-2.67266e-06,-1.57665e+09,-1.57541e+09,-1.57686e+09,-357201,0.0981515,0.0518147,0,0.110989,-10810,-54801.2,-0,55857.2,357201
step02_gravity_refstate-mantle.xmf,272,-3.50882e-06,1.65457e-05,0,2.77799e-07,-1.54387e+09,-1.54119e+09,-1.5434e+09,37127.8,0.0775518,0.108552,0,0.133409,-7923.34,-53769.5,-0,54350.1,37127.8
step02_gravity_refstate-mantle.xmf,273,5.31119e-06,8.72675e-06,0,-2.05988e-06,-1.65588e+09,-1.65543e+09,-1.65659e+09,-275303,0.124576,0.0231776,0,0.126714,-11495.8,-57268.6,-0,58411,275303
step02_gravity_refstate-mantle.xmf,274,-7.6209e-06,1.51212e-05,0,3.57831e-06,-1.46895e+09,-1.46591e+09,-1.46793e+09,478241,0.0300416,0.144662,0,0.147749,-7979.2,-51424.2,-0,52039.6,478241
step02_gravity_refstate-mantle.xmf,275,-3.55513e-06,8.41193e-06,0,7.99596e-07,-1.36526e+09,-1.36366e+09,-1.36479e+09,106866,0.0155892,0.0902827,0,0.0916187,-13263.9,-48231.2,-0,50021.8,106866
step02_gravity_refstate-mantle.xmf,276,-1.85902e-06,4.13125e-06,0,7.69333e-08,-1.14008e+09,-1.13928e+09,-1.13983e+09,10282.1,-0.00848594,0.0604876,-0,0.0610799,-23002.7,-41275.7,-0,47252.6,10282.1
step02_gravity_refstate-mantle.xmf,277,-2.00376e-06,3.96656e-06,0,3.49359e-07,-1.09883e+09,-1.09803e+09,-1.09856e+09,46691.8,-0.0111765,0.0623789,-0,0.0633723,-23854.1,-40000,-0,46572.7,46691.8
step02_gravity_refstate-mantle.xmf,278,-1.92588e-06,4.50989e-06,0,-1.24294e-08,-1.1858e+09,-1.18494e+09,-1.18554e+09,-1661.19,-0.0061882,0.0634988,-0,0.0637996,-20954.2,-42688.4,-0,47554,1661.19
step02_gravity_refstate-mantle.xmf,279,-1.91216e-06,4.7762e-06,0,-6.4974e-08,-1.21735e+09,-1.21645e+09,-1.21709e+09,-8683.77,-0.00311166,0.0647263,-0,0.0648011,-19858.1,-43663.8,-0,47967.4,8683.77
step02_gravity_refstate-mantle.xmf,280,-2.03486e-06,5.11784e-06,0,2.75449e-08,-1.24001e+09,-1.23906e+09,-1.23974e+09,3681.38,-0.00122308,0.0681759,-0,0.0681868,-18693,-44364,-0,48141.4,3681.38
step02_gravity_refstate-mantle.xmf,281,-8.45329e-06,1.64957e-05,0,4.9335e-06,-1.48225e+09,-1.47892e+09,-1.48112e+09,659362,0.0313301,0.161312,0,0.164326,-7148.97,-51833,-0,52323.6,659362
step02_gravity_refstate-mantle.xmf,282,-6.96614e-06,1.72819e-05,0,3.18716e-06,-1.50839e+09,-1.50515e+09,-1.50746e+09,425964,0.0494598,0.144999,0,0.153202,-7232.73,-52652.3,-0,53146.7,425964
step02_gravity_refstate-mantle.xmf,283,3.14036e-06,1.03916e-05,0,-2.58732e-06,-1.60761e+09,-1.60664e+09,-1.60803e+09,-345795,0.111593,0.041849,0,0.119182,-10775.9,-55767.1,-0,56798.7,345795
step02_gravity_refstate-mantle.xmf,284,-1.72606e-06,1.51275e-05,0,-9.85958e-07,-1.5567e+09,-1.55445e+09,-1.55647e+09,-131773,0.087573,0.0889069,0,0.124794,-8591.14,-54174.2,-0,54851.2,131773
step02_gravity_refstate-mantle.xmf,285,-5.37235e-06,1.78265e-05,0,2.12392e-06,-1.53179e+09,-1.52869e+09,-1.53107e+09,283862,0.0660718,0.131906,0,0.147529,-7239.36,-53387.1,-0,53875.7,283862
step02_gravity_refstate-mantle.xmf,286,4.45566e-06,1.01547e-05,0,-2.25046e-06,-1.638e+09,-1.63724e+09,-1.6386e+09,-300774,0.123124,0.0325355,0,0.12735,-10710.1,-56714.2,-0,57716.6,300774
step02_gravity_refstate-mantle.xmf,287,6.15364e-06,8.74304e-06,0,-1.36967e-06,-1.68901e+09,-1.68866e+09,-1.68983e+09,-183056,0.132747,0.0147934,0,0.133569,-11324.6,-58297.5,-0,59387.2,183056
step02_gravity_refstate-mantle.xmf,288,6.6253e-06,7.63446e-06,0,-7.50492e-07,-1.71542e+09,-1.71528e+09,-1.7163e+09,-100303,0.131845,0.00678556,0,0.13202,-11985.5,-59113.6,-0,60316.4,100303
step02_gravity_refstate-mantle.xmf,289,6.76314e-06,6.93797e-06,0,1.70605e-08,-1.74414e+09,-1.74412e+09,-1.74504e+09,2280.14,0.129473,-1.25407e-19,0,0.129473,-12513.8,-60000,-0,61291.1,2280.14
step02_gravity_refstate-mantle.xmf,290,-3.85384e-06,9.03043e-06,0,8.40702e-07,-1.38124e+09,-1.37951e+09,-1.38072e+09,112360,0.018463,0.0933362,0,0.0951448,-12653.4,-48724.2,-0,50340.4,112360
step02_gravity_refstate-mantle.xmf,291,-4.37523e-06,9.90172e-06,0,1.05996e-06,-1.39812e+09,-1.39621e+09,-1.39753e+09,141664,0.0209469,0.0991598,0,0.101348,-11835.4,-49244.4,-0,50646.7,141664
step02_gravity_refstate-mantle.xmf,292,-4.95101e-06,1.0842e-05,0,1.3344e-06,-1.41431e+09,-1.4122e+09,-1.41364e+09,178342,0.0232588,0.10591,0,0.108434,-11020.7,-49743.1,-0,50949.3,178342
step02_gravity_refstate-mantle.xmf,293,-5.55456e-06,1.18352e-05,0,1.65862e-06,-1.42965e+09,-1.42733e+09,-1.42891e+09,221674,0.0254895,0.113317,0,0.116149,-10241,-50215.5,-0,51249.2,221674
step02_gravity_refstate-mantle.xmf,294,-6.9249e-06,1.39699e-05,0,2.77649e-06,-1.45626e+09,-1.45347e+09,-1.45534e+09,371077,0.0285088,0.132824,0,0.135849,-8712.33,-51033.9,-0,51772.3,371077
step02_gravity_refstate-mantle.xmf,295,-6.22118e-06,1.28851e-05,0,2.12884e-06,-1.44364e+09,-1.44109e+09,-1.44281e+09,284520,0.0272327,0.122287,0,0.125283,-9465.4,-50645.9,-0,51522.9,284520
step02_gravity_refstate-mantle.xmf,296,-2.20684e-06,5.53774e-06,0,1.69548e-07,-1.26256e+09,-1.26153e+09,-1.26227e+09,22660,0.000958228,0.0721838,0,0.0721902,-17553.9,-45060.5,-0,48359,22660
step02_gravity_refstate-mantle.xmf,297,-3.6823e-06,7.93884e-06,0,1.34452e-06,-1.3368e+09,-1.33524e+09,-1.33631e+09,179696,0.00765533,0.0957156,0,0.0960212,-13414.8,-47349.9,-0,49213.5,179696
step02_gravity_refstate-mantle.xmf,298,-2.44743e-06,6.03648e-06,0,3.62832e-07,-1.28398e+09,-1.28285e+09,-1.28366e+09,48492.5,0.00318014,0.0767888,0,0.0768547,-16460,-45721.9,-0,48594.4,48492.5
step02_gravity_refstate-mantle.xmf,299,-2.77541e-06,6.62273e-06,0,6.14933e-07,-1.30425e+09,-1.30299e+09,-1.30387e+09,82185.8,0.00527529,0.0821789,0,0.082348,-15391.1,-46347.1,-0,48835.8,82185.8
step02_gravity_refstate-mantle.xmf,300,-3.18844e-06,7.27229e-06,0,9.24662e-07,-1.32248e+09,-1.32108e+09,-1.32205e+09,123581,0.00698835,0.088314,0,0.08859,-14376.6,-46909.2,-0,49062.9,123581
step02_gravity_refstate-mantle.xmf,301,-2.21972e-06,4.35787e-06,0,3.00286e-07,-1.13982e+09,-1.13894e+09,-1.13952e+09,40133.3,-0.0116506,0.067261,-0,0.0682626,-21469.3,-41265.9,-0,46516.7,40133.3
step02_gravity_refstate-mantle.xmf,302,-8.4984e-06,1.80203e-05,0,5.67287e-06,-1.50096e+09,-1.49741e+09,-1.49982e+09,758178,0.0388201,0.170741,0,0.175099,-6545.92,-52414.4,-0,52821.6,758178
step02_gravity_refstate-mantle.xmf,303,1.65793e-07,1.38643e-05,0,-1.79928e-06,-1.57626e+09,-1.57443e+09,-1.57628e+09,-240474,0.0994557,0.0711492,0,0.122285,-9147.79,-54787.8,-0,55546.2,240474
step02_gravity_refstate-mantle.xmf,304,1.78716e-06,1.20476e-05,0,-2.4005e-06,-1.59164e+09,-1.59027e+09,-1.59188e+09,-320827,0.106535,0.0546533,0,0.119736,-9984.65,-55269.1,-0,56163.7,320827
step02_gravity_refstate-mantle.xmf,305,-1.81894e-06,1.67655e-05,0,-2.23348e-07,-1.56787e+09,-1.56539e+09,-1.56763e+09,-29850.5,0.0933894,0.0966779,0,0.134418,-7891.37,-54522.8,-0,55091,29850.5
step02_gravity_refstate-mantle.xmf,306,-3.66068e-06,1.82748e-05,0,1.30062e-06,-1.55536e+09,-1.55243e+09,-1.55487e+09,173827,0.0830278,0.11849,0,0.144684,-7240.56,-54128,-0,54610.1,173827
step02_gravity_refstate-mantle.xmf,307,5.44689e-06,1.00861e-05,0,-1.74939e-06,-1.66755e+09,-1.66693e+09,-1.66827e+09,-233806,0.132213,0.0236035,0,0.134304,-10637.3,-57633.2,-0,58606.7,233806
step02_gravity_refstate-mantle.xmf,308,-9.00137e-06,1.51628e-05,0,6.06922e-06,-1.45574e+09,-1.45252e+09,-1.45454e+09,811151,0.0169453,0.169528,0,0.170373,-7310.17,-51007.1,-0,51528.3,811151
step02_gravity_refstate-mantle.xmf,309,-4.21662e-06,8.65332e-06,0,1.77224e-06,-1.35124e+09,-1.34952e+09,-1.35068e+09,236860,0.00842771,0.10311,0,0.103454,-12533.7,-47794.3,-0,49410.4,236860
step02_gravity_refstate-mantle.xmf,310,-8.19176e-06,1.41631e-05,0,4.89075e-06,-1.44359e+09,-1.4406e+09,-1.4425e+09,653649,0.016782,0.154891,0,0.155797,-8030.93,-50634.5,-0,51267.4,653649
step02_gravity_refstate-mantle.xmf,311,-2.39309e-06,4.18094e-06,0,5.61699e-07,-1.09889e+09,-1.09801e+09,-1.09857e+09,75071.1,-0.0147645,0.069131,-0,0.0706901,-22219.5,-40000,-0,45757,75071.1
step02_gravity_refstate-mantle.xmf,312,-2.54836e-06,4.55786e-06,0,5.79505e-07,-1.14079e+09,-1.13984e+09,-1.14045e+09,77450.8,-0.0149836,0.0748512,-0,0.0763362,-20017.9,-41294.1,-0,45890.3,77450.8
step02_gravity_refstate-mantle.xmf,313,-2.52735e-06,5.28818e-06,0,6.26868e-07,-1.22085e+09,-1.2198e+09,-1.22051e+09,83780.9,-0.00763044,0.0793841,-0,0.07975,-17525.4,-43769.2,-0,47147.4,83780.9
step02_gravity_refstate-mantle.xmf,314,-2.28693e-06,4.6986e-06,0,3.15341e-07,-1.17861e+09,-1.17767e+09,-1.1783e+09,42145.4,-0.00987711,0.0710587,-0,0.0717419,-19742.6,-42464.4,-0,46829.4,42145.4
step02_gravity_refstate-mantle.xmf,315,-2.42683e-06,4.93897e-06,0,4.81578e-07,-1.19513e+09,-1.19414e+09,-1.1948e+09,64362.9,-0.00972523,0.0756395,-0,0.0762621,-18620.1,-42974.4,-0,46834.9,64362.9
step02_gravity_refstate-mantle.xmf,316,-9.85474e-06,1.5997e-05,0,7.85251e-06,-1.46494e+09,-1.46148e+09,-1.46362e+09,1.04949e+06,0.0152797,0.188758,0,0.189376,-6579.68,-51287.5,-0,51707.8,1.04949e+06
step02_gravity_refstate-mantle.xmf,317,-9.53161e-06,1.71857e-05,0,7.25406e-06,-1.48249e+09,-1.47892e+09,-1.48122e+09,969504,0.0249219,0.185058,0,0.186728,-6428.08,-51834.9,-0,52231.9,969504
step02_gravity_refstate-mantle.xmf,318,-7.18614e-06,1.8821e-05,0,4.39126e-06,-1.52159e+09,-1.51812e+09,-1.52063e+09,586892,0.0543802,0.157408,0,0.166537,-6587.46,-53062.7,-0,53470,586892
step02_gravity_refstate-mantle.xmf,319,3.35275e-06,1.1765e-05,0,-2.22529e-06,-1.62143e+09,-1.62031e+09,-1.62188e+09,-297411,0.119929,0.0439043,0,0.127713,-9948.08,-56199.1,-0,57072.8,297411
step02_gravity_refstate-mantle.xmf,320,-6.03843e-07,1.54134e-05,0,-1.10167e-06,-1.57547e+09,-1.57333e+09,-1.57539e+09,-147238,0.0988487,0.0821736,0,0.128544,-8461.78,-54762.3,-0,55412.1,147238
step02_gravity_refstate-mantle.xmf,321,-5.56421e-06,1.96099e-05,0,3.4501e-06,-1.54371e+09,-1.54034e+09,-1.54296e+09,461105,0.0713045,0.144018,0,0.160703,-6587.78,-53758.6,-0,54160.7,461105
step02_gravity_refstate-mantle.xmf,322,4.53142e-06,1.16847e-05,0,-1.84765e-06,-1.64963e+09,-1.64867e+09,-1.65024e+09,-246938,0.13072,0.0340211,0,0.135075,-9888.52,-57077.8,-0,57928.1,246938
step02_gravity_refstate-mantle.xmf,323,6.02955e-06,1.04763e-05,0,-1.13343e-06,-1.69491e+09,-1.69431e+09,-1.69571e+09,-151482,0.139538,0.0158901,0,0.140439,-10378.6,-58483.4,-0,59397.1,151482
step02_gravity_refstate-mantle.xmf,324,6.53785e-06,9.25312e-06,0,-6.59886e-07,-1.71789e+09,-1.71753e+09,-1.71877e+09,-88193.8,0.13874,0.00748604,0,0.138942,-10970.9,-59193.6,-0,60201.7,88193.8
step02_gravity_refstate-mantle.xmf,325,6.74866e-06,8.33644e-06,0,1.41484e-08,-1.74403e+09,-1.74382e+09,-1.74493e+09,1890.93,0.13629,-1.42446e-19,0,0.13629,-11504.3,-60000,-0,61093,1890.93
step02_gravity_refstate-mantle.xmf,326,-4.68696e-06,9.39392e-06,0,2.0402e-06,-1.3673e+09,-1.36542e+09,-1.36668e+09,272672,0.0102007,0.108853,0,0.10933,-11801.6,-48289.2,-0,49710.4,272672
step02_gravity_refstate-mantle.xmf,327,-5.32268e-06,1.02498e-05,0,2.46241e-06,-1.38358e+09,-1.3815e+09,-1.38287e+09,329102,0.011667,0.116289,0,0.116872,-11000.2,-48789.8,-0,50014.5,329102
step02_gravity_refstate-mantle.xmf,328,-6.00522e-06,1.12055e-05,0,2.90838e-06,-1.40037e+09,-1.39807e+09,-1.39957e+09,388705,0.0133019,0.124441,0,0.12515,-10204.3,-49306.4,-0,50351.3,388705
step02_gravity_refstate-mantle.xmf,329,-6.71778e-06,1.2178e-05,0,3.43875e-06,-1.4158e+09,-1.41327e+09,-1.4149e+09,459589,0.0146647,0.133433,0,0.134236,-9450.16,-49780.8,-0,50669.9,459589
step02_gravity_refstate-mantle.xmf,330,-7.43877e-06,1.31626e-05,0,4.073e-06,-1.43021e+09,-1.42746e+09,-1.42922e+09,544357,0.015874,0.143358,0,0.144234,-8732.59,-50223.7,-0,50977.2,544357
step02_gravity_refstate-mantle.xmf,331,-4.22566e-06,7.95037e-06,0,2.52379e-06,-1.31709e+09,-1.31546e+09,-1.31652e+09,337305,-0.00105974,0.111099,-0,0.111104,-12592,-46737.4,-0,48403.9,337305
step02_gravity_refstate-mantle.xmf,332,-2.71239e-06,5.70668e-06,0,8.70265e-07,-1.2438e+09,-1.24267e+09,-1.24344e+09,116311,-0.0057806,0.084266,-0,0.0844641,-16439.4,-44478,-0,47418.8,116311
step02_gravity_refstate-mantle.xmf,333,-3.75406e-06,7.3342e-06,0,2.04159e-06,-1.3011e+09,-1.29961e+09,-1.30059e+09,272858,-0.00183229,0.103727,-0,0.103743,-13450.3,-46245.1,-0,48161.4,272858
step02_gravity_refstate-mantle.xmf,334,-2.98558e-06,6.20219e-06,0,1.1979e-06,-1.26505e+09,-1.26382e+09,-1.26465e+09,160099,-0.00411555,0.0900958,-0,0.0901897,-15376.9,-45133.8,-0,47681.3,160099
step02_gravity_refstate-mantle.xmf,335,-3.3393e-06,6.7555e-06,0,1.59206e-06,-1.28431e+09,-1.28296e+09,-1.28386e+09,212779,-0.00274462,0.096628,-0,0.096667,-14374.3,-45727.7,-0,47933.7,212779
step02_gravity_refstate-mantle.xmf,336,-2.76231e-06,4.36463e-06,0,8.26527e-07,-1.09896e+09,-1.098e+09,-1.09859e+09,110465,-0.0187938,0.0770026,-0,0.0792629,-20655.1,-40000,-0,45018.2,110465
step02_gravity_refstate-mantle.xmf,337,-1.0511e-05,1.66159e-05,0,9.77721e-06,-1.47297e+09,-1.46935e+09,-1.47157e+09,1.30672e+06,0.0136976,0.208703,0,0.209152,-5941.43,-51532.8,-0,51874.2,1.30672e+06
step02_gravity_refstate-mantle.xmf,338,-9.92576e-06,1.81331e-05,0,8.68769e-06,-1.4921e+09,-1.48835e+09,-1.49077e+09,1.16111e+06,0.026514,0.199412,0,0.201167,-5914.51,-52131.5,-0,52465.9,1.16111e+06
step02_gravity_refstate-mantle.xmf,339,-8.84982e-06,1.93717e-05,0,7.33198e-06,-1.51177e+09,-1.508e+09,-1.51059e+09,979919,0.041662,0.186345,0,0.190945,-5952.38,-52749.6,-0,53084.4,979919
step02_gravity_refstate-mantle.xmf,340,2.0571e-06,1.35595e-05,0,-1.90518e-06,-1.60703e+09,-1.60549e+09,-1.6073e+09,-254627,0.115498,0.0573025,0,0.128932,-9197.44,-55750,-0,56503.6,254627
step02_gravity_refstate-mantle.xmf,341,7.4066e-07,1.53693e-05,0,-1.24849e-06,-1.59597e+09,-1.59401e+09,-1.59606e+09,-166860,0.110748,0.0721846,0,0.132196,-8468.43,-55404.2,-0,56047.6,166860
step02_gravity_refstate-mantle.xmf,342,-5.83082e-07,1.71639e-05,0,-2.82337e-07,-1.58737e+09,-1.585e+09,-1.58729e+09,-37734.3,0.105729,0.0883027,0,0.137754,-7790.67,-55134.5,-0,55682.2,37734.3
step02_gravity_refstate-mantle.xmf,343,-2.10598e-06,1.87928e-05,0,9.72411e-07,-1.57725e+09,-1.57446e+09,-1.57697e+09,129963,0.098269,0.107118,0,0.145365,-7184.75,-54815.8,-0,55284.6,129963
step02_gravity_refstate-mantle.xmf,344,-3.88875e-06,2.03866e-05,0,2.78047e-06,-1.56621e+09,-1.56297e+09,-1.5657e+09,371610,0.0884386,0.130379,0,0.157544,-6570.21,-54467.1,-0,54861.9,371610
step02_gravity_refstate-mantle.xmf,345,5.30163e-06,1.19082e-05,0,-1.37099e-06,-1.67563e+09,-1.67474e+09,-1.67634e+09,-183233,0.138924,0.0251769,0,0.141187,-9772.25,-57886.5,-0,58705.6,183233
step02_gravity_refstate-mantle.xmf,346,-9.14999e-06,1.38355e-05,0,7.32942e-06,-1.4313e+09,-1.42823e+09,-1.43008e+09,979578,0.00502843,0.178615,0,0.178686,-7374.63,-50247.7,-0,50786,979578
step02_gravity_refstate-mantle.xmf,347,-9.96126e-06,1.4555e-05,0,8.86141e-06,-1.44302e+09,-1.43974e+09,-1.44169e+09,1.18433e+06,0.00413958,0.195559,0,0.195603,-6684.16,-50605.9,-0,51045.5,1.18433e+06
step02_gravity_refstate-mantle.xmf,348,-1.07138e-05,1.5048e-05,0,1.08886e-05,-1.45297e+09,-1.44953e+09,-1.45154e+09,1.45526e+06,0.00238867,0.215977,0,0.21599,-6006.39,-50909.6,-0,51262.7,1.45526e+06
step02_gravity_refstate-mantle.xmf,349,-4.75275e-06,8.62905e-06,0,3.01411e-06,-1.33336e+09,-1.33157e+09,-1.33272e+09,402836,-0.000180365,0.118556,-0,0.118556,-11785.9,-47238.2,-0,48686.3,402836
step02_gravity_refstate-mantle.xmf,350,-8.30292e-06,1.30506e-05,0,6.12497e-06,-1.41909e+09,-1.41623e+09,-1.41798e+09,818602,0.00550328,0.164619,0,0.164711,-8054.56,-49874,-0,50520.3,818602
step02_gravity_refstate-mantle.xmf,351,-2.9055e-06,5.35715e-06,0,1.28014e-06,-1.20427e+09,-1.20317e+09,-1.20388e+09,171091,-0.0139933,0.0915546,-0,0.0926178,-16379.4,-43254.7,-0,46252.1,171091
step02_gravity_refstate-mantle.xmf,352,-3.09194e-06,4.49908e-06,0,1.14733e-06,-1.09902e+09,-1.098e+09,-1.0986e+09,153341,-0.0231787,0.0860566,-0,0.0891235,-19156.9,-40000,-0,44350.7,153341
step02_gravity_refstate-mantle.xmf,353,-2.83116e-06,4.74758e-06,0,9.27645e-07,-1.14636e+09,-1.14535e+09,-1.14599e+09,123980,-0.0181522,0.0835721,-0,0.0855207,-18527,-41465,-0,45415.8,123980
step02_gravity_refstate-mantle.xmf,354,-2.83003e-06,5.02431e-06,0,1.05255e-06,-1.17801e+09,-1.17696e+09,-1.17763e+09,140673,-0.0159299,0.0870232,-0,0.0884692,-17421.2,-42443.1,-0,45879.4,140673
step02_gravity_refstate-mantle.xmf,355,-7.45295e-06,2.05505e-05,0,6.15273e-06,-1.53288e+09,-1.52914e+09,-1.53188e+09,822312,0.0586034,0.172544,0,0.182224,-5966.61,-53413.9,-0,53746.2,822312
step02_gravity_refstate-mantle.xmf,356,3.43516e-06,1.34492e-05,0,-1.67826e-06,-1.63428e+09,-1.63294e+09,-1.63473e+09,-224299,0.127886,0.0461203,0,0.135949,-9166.34,-56600.7,-0,57338.1,224299
step02_gravity_refstate-mantle.xmf,357,-5.84035e-06,2.1747e-05,0,5.31367e-06,-1.55457e+09,-1.55089e+09,-1.55379e+09,710171,0.0762562,0.15842,0,0.175818,-5957.29,-54097.9,-0,54424.9,710171
step02_gravity_refstate-mantle.xmf,358,4.42858e-06,1.35456e-05,0,-1.30702e-06,-1.66038e+09,-1.65916e+09,-1.66097e+09,-174684,0.137744,0.0355465,0,0.142257,-9113.42,-57413.8,-0,58132.6,174684
step02_gravity_refstate-mantle.xmf,359,5.66899e-06,1.2525e-05,0,-8.56104e-07,-1.69912e+09,-1.6982e+09,-1.69988e+09,-114418,0.145307,0.0174312,0,0.146349,-9517.92,-58616.2,-0,59383.9,114418
step02_gravity_refstate-mantle.xmf,360,6.26105e-06,1.11621e-05,0,-5.30094e-07,-1.72026e+09,-1.7196e+09,-1.72109e+09,-70847,0.144813,0.00819052,0,0.145044,-10054.4,-59269.7,-0,60116.4,70847
step02_gravity_refstate-mantle.xmf,361,6.56045e-06,1.00906e-05,0,9.59977e-09,-1.74392e+09,-1.74345e+09,-1.7448e+09,1283.01,0.142687,-1.5403e-19,0,0.142687,-10542.4,-60000,-0,60919.1,1283.01
step02_gravity_refstate-mantle.xmf,362,-1.12885e-05,1.53336e-05,0,1.32922e-05,-1.46269e+09,-1.45913e+09,-1.46118e+09,1.77651e+06,0.000932395,0.238603,0,0.238605,-5368.85,-51206.7,-0,51487.4,1.77651e+06
step02_gravity_refstate-mantle.xmf,363,-5.34166e-06,9.41291e-06,0,3.50895e-06,-1.35088e+09,-1.34891e+09,-1.35016e+09,468971,0.000890984,0.126547,0,0.12655,-10981.6,-47777.5,-0,49023.3,468971
step02_gravity_refstate-mantle.xmf,364,-6.08996e-06,1.03301e-05,0,4.09638e-06,-1.37036e+09,-1.36816e+09,-1.36954e+09,547481,0.00234065,0.13526,0,0.13528,-10160.8,-48376.6,-0,49432.1,547481
step02_gravity_refstate-mantle.xmf,365,-6.85763e-06,1.12527e-05,0,4.74832e-06,-1.38782e+09,-1.3854e+09,-1.38691e+09,634613,0.00335063,0.144858,0,0.144897,-9389.34,-48913.3,-0,49806.4,634613
step02_gravity_refstate-mantle.xmf,366,-7.56499e-06,1.21011e-05,0,5.43683e-06,-1.40269e+09,-1.40006e+09,-1.40168e+09,726632,0.00396419,0.154787,0,0.154837,-8704.97,-49369.9,-0,50131.5,726632
step02_gravity_refstate-mantle.xmf,367,-4.5315e-06,7.70815e-06,0,3.76506e-06,-1.29858e+09,-1.29695e+09,-1.29798e+09,503200,-0.00931069,0.127237,-0,0.127577,-11792.5,-46163.1,-0,47645.6,503200
step02_gravity_refstate-mantle.xmf,368,-4.08065e-06,7.14865e-06,0,3.20809e-06,-1.2814e+09,-1.27989e+09,-1.28085e+09,428762,-0.0101001,0.119675,-0,0.1201,-12574.6,-45633.8,-0,47334.6,428762
step02_gravity_refstate-mantle.xmf,369,-3.09962e-06,5.73284e-06,0,1.66814e-06,-1.22607e+09,-1.22489e+09,-1.22565e+09,222947,-0.0127038,0.0976524,-0,0.0984752,-15340.7,-43927.7,-0,46529.3,222947
step02_gravity_refstate-mantle.xmf,370,-3.69621e-06,6.63355e-06,0,2.66723e-06,-1.26371e+09,-1.26233e+09,-1.26321e+09,356475,-0.0109544,0.112252,-0,0.112785,-13414.5,-45088.7,-0,47041.8,356475
step02_gravity_refstate-mantle.xmf,371,-3.36552e-06,6.16492e-06,0,2.13918e-06,-1.24572e+09,-1.24445e+09,-1.24527e+09,285901,-0.0117225,0.104723,-0,0.105377,-14339.9,-44534.1,-0,46785.9,285901
step02_gravity_refstate-mantle.xmf,372,-3.09176e-06,5.02732e-06,0,1.70135e-06,-1.16691e+09,-1.16582e+09,-1.16649e+09,227385,-0.0217842,0.0998538,-0,0.102202,-16126.3,-42098.5,-0,45081.5,227385
step02_gravity_refstate-mantle.xmf,373,-1.09915e-05,1.72642e-05,0,1.20003e-05,-1.48254e+09,-1.47876e+09,-1.48107e+09,1.60384e+06,0.0136956,0.229315,0,0.229724,-5351.1,-51826.8,-0,52102.3,1.60384e+06
step02_gravity_refstate-mantle.xmf,374,-1.02672e-05,1.91773e-05,0,1.08436e-05,-1.50197e+09,-1.49804e+09,-1.5006e+09,1.44925e+06,0.0281499,0.218234,0,0.220042,-5351.06,-52436.9,-0,52709.2,1.44925e+06
step02_gravity_refstate-mantle.xmf,375,-9.15086e-06,2.09378e-05,0,9.63291e-06,-1.52232e+09,-1.5183e+09,-1.5211e+09,1.28744e+06,0.0447827,0.204886,0,0.209723,-5363.08,-53077.5,-0,53347.7,1.28744e+06
step02_gravity_refstate-mantle.xmf,376,2.14689e-06,1.54595e-05,0,-1.16248e-06,-1.62074e+09,-1.61896e+09,-1.62102e+09,-155366,0.123811,0.0605859,0,0.13784,-8444.3,-56179,-0,56810.1,155366
step02_gravity_refstate-mantle.xmf,377,7.84175e-07,1.74191e-05,0,-3.1041e-07,-1.60927e+09,-1.60704e+09,-1.60937e+09,-41486.3,0.118767,0.0768912,0,0.141485,-7766.04,-55820.6,-0,56358.2,41486.3
step02_gravity_refstate-mantle.xmf,378,-6.94628e-07,1.93619e-05,0,8.99614e-07,-1.5987e+09,-1.59602e+09,-1.59861e+09,120233,0.112449,0.0955789,0,0.147581,-7127.91,-55489.2,-0,55945.2,120233
step02_gravity_refstate-mantle.xmf,379,-2.36448e-06,2.12692e-05,0,2.56135e-06,-1.58798e+09,-1.58482e+09,-1.58767e+09,342325,0.104273,0.117748,0,0.157282,-6513.35,-55151.9,-0,55535.2,342325
step02_gravity_refstate-mantle.xmf,380,-4.24118e-06,2.29881e-05,0,4.7738e-06,-1.57654e+09,-1.5729e+09,-1.57598e+09,638019,0.0937532,0.143947,0,0.171786,-5928.46,-54790.4,-0,55110.2,638019
step02_gravity_refstate-mantle.xmf,381,5.01522e-06,1.36569e-05,0,-9.96348e-07,-1.68192e+09,-1.68076e+09,-1.68259e+09,-133162,0.143972,0.0264928,0,0.146389,-9097.77,-58083.4,-0,58791.6,133162
step02_gravity_refstate-mantle.xmf,382,-8.8624e-06,1.23392e-05,0,8.52192e-06,-1.40591e+09,-1.40308e+09,-1.40473e+09,1.13895e+06,-0.00547084,0.187767,-0,0.187847,-7412.37,-49461.5,-0,50013.9,1.13895e+06
step02_gravity_refstate-mantle.xmf,383,-9.69433e-06,1.29151e-05,0,1.00207e-05,-1.41999e+09,-1.41697e+09,-1.4187e+09,1.33927e+06,-0.00616237,0.203866,-0,0.203959,-6728.23,-49892.4,-0,50344,1.33927e+06
step02_gravity_refstate-mantle.xmf,384,-1.04157e-05,1.32705e-05,0,1.18223e-05,-1.43158e+09,-1.42842e+09,-1.43019e+09,1.58004e+06,-0.00751293,0.222111,-0,0.222238,-6090.01,-50246.4,-0,50614.2,1.58004e+06
step02_gravity_refstate-mantle.xmf,385,-1.10601e-05,1.326e-05,0,1.43532e-05,-1.44203e+09,-1.43878e+09,-1.44055e+09,1.91831e+06,-0.00984518,0.245755,-0,0.245952,-5413.55,-50564.8,-0,50853.7,1.91831e+06
step02_gravity_refstate-mantle.xmf,386,-5.1217e-06,8.4143e-06,0,4.59683e-06,-1.31662e+09,-1.31481e+09,-1.31593e+09,614367,-0.00941192,0.138491,-0,0.138811,-10834.7,-46718.2,-0,47958.1,614367
step02_gravity_refstate-mantle.xmf,387,-8.1636e-06,1.20457e-05,0,7.00241e-06,-1.39949e+09,-1.39679e+09,-1.3984e+09,935872,-0.00207788,0.171128,-0,0.17114,-8096.59,-49267.1,-0,49928,935872
step02_gravity_refstate-mantle.xmf,388,-3.16865e-06,5.31134e-06,0,2.01369e-06,-1.18992e+09,-1.18878e+09,-1.18949e+09,269129,-0.0202777,0.104929,-0,0.106871,-15231.3,-42809.4,-0,45438.3,269129
step02_gravity_refstate-mantle.xmf,389,-3.3576e-06,4.56829e-06,0,1.52747e-06,-1.09907e+09,-1.09801e+09,-1.09862e+09,204147,-0.0278052,0.0963374,-0,0.10027,-17720.9,-40000,-0,43749.6,204147
step02_gravity_refstate-mantle.xmf,390,-3.17006e-06,4.78933e-06,0,1.53253e-06,-1.13691e+09,-1.13585e+09,-1.13649e+09,204822,-0.0243681,0.0969631,-0,0.0999782,-16967.1,-41170.9,-0,44530,204822
step02_gravity_refstate-mantle.xmf,391,-1.15827e-05,1.56876e-05,0,1.59793e-05,-1.47281e+09,-1.46916e+09,-1.47126e+09,2.13564e+06,0.000568016,0.262674,0,0.262675,-4783.94,-51518.2,-0,51739.9,2.13564e+06
step02_gravity_refstate-mantle.xmf,392,-1.13987e-05,1.29513e-05,0,1.71129e-05,-1.45229e+09,-1.44903e+09,-1.45077e+09,2.28714e+06,-0.0114368,0.270614,-0,0.270856,-4806,-50878.7,-0,51105.1,2.28714e+06
step02_gravity_refstate-mantle.xmf,393,-7.78995e-06,2.26429e-05,0,8.60732e-06,-1.54332e+09,-1.53925e+09,-1.54228e+09,1.15037e+06,0.0626388,0.190648,0,0.200674,-5359.4,-53739.5,-0,54006,1.15037e+06
step02_gravity_refstate-mantle.xmf,394,3.29172e-06,1.56091e-05,0,-9.10439e-07,-1.64642e+09,-1.64477e+09,-1.64686e+09,-121680,0.135403,0.0485666,0,0.14385,-8406.61,-56980.4,-0,57597.1,121680
step02_gravity_refstate-mantle.xmf,395,-6.32672e-06,2.44885e-05,0,7.89581e-06,-1.56475e+09,-1.56063e+09,-1.56391e+09,1.05528e+06,0.080874,0.175925,0,0.193624,-5331.32,-54416,-0,54676.6,1.05528e+06
step02_gravity_refstate-mantle.xmf,396,4.13207e-06,1.59967e-05,0,-5.70788e-07,-1.67449e+09,-1.6729e+09,-1.67504e+09,-76285.8,0.145391,0.035234,0,0.149599,-8349.05,-57854,-0,58453.3,76285.8
step02_gravity_refstate-mantle.xmf,397,4.98302e-06,1.49912e-05,0,-5.32969e-07,-1.69959e+09,-1.69825e+09,-1.70025e+09,-71231.3,0.149731,0.0207489,0,0.151161,-8704.72,-58632.4,-0,59275,71231.3
step02_gravity_refstate-mantle.xmf,398,5.68234e-06,1.36035e-05,0,-3.65402e-07,-1.72137e+09,-1.72032e+09,-1.72213e+09,-48836,0.150257,0.00948546,0,0.150556,-9159.91,-59306.6,-0,60009.8,48836
step02_gravity_refstate-mantle.xmf,399,6.12923e-06,1.22847e-05,0,4.86098e-09,-1.74383e+09,-1.74301e+09,-1.74465e+09,649.67,0.148501,-1.78998e-19,0,0.148501,-9625.39,-60000,-0,60767.2,649.67
step02_gravity_refstate-mantle.xmf,400,-5.84841e-06,9.31981e-06,0,5.10152e-06,-1.3407e+09,-1.33867e+09,-1.33992e+09,681819,-0.00705758,0.145498,-0,0.145669,-10095.8,-47459.5,-0,48521.4,681819
step02_gravity_refstate-mantle.xmf,401,-4.57573e-06,7.18825e-06,0,5.05974e-06,-1.28083e+09,-1.27926e+09,-1.28022e+09,676234,-0.0170792,0.144446,-0,0.145452,-10987.3,-45613.2,-0,46917.8,676234
step02_gravity_refstate-mantle.xmf,402,-6.63673e-06,1.00894e-05,0,5.92982e-06,-1.35921e+09,-1.35697e+09,-1.35832e+09,792520,-0.00653652,0.155756,-0,0.155893,-9321.35,-48028,-0,48924.2,792520
step02_gravity_refstate-mantle.xmf,403,-7.52488e-06,1.0889e-05,0,7.01357e-06,-1.37697e+09,-1.37451e+09,-1.37597e+09,937363,-0.0067752,0.168824,-0,0.168959,-8502.16,-48572.8,-0,49311.3,937363
step02_gravity_refstate-mantle.xmf,404,-8.14978e-06,1.10365e-05,0,8.6252e-06,-1.38371e+09,-1.38114e+09,-1.38262e+09,1.15276e+06,-0.010559,0.186444,-0,0.186743,-7737.86,-48776.9,-0,49386.9,1.15276e+06
step02_gravity_refstate-mantle.xmf,405,-4.15616e-06,6.74983e-06,0,4.32395e-06,-1.26411e+09,-1.26265e+09,-1.26356e+09,577895,-0.0173608,0.135524,-0,0.136631,-11754.5,-45098.4,-0,46605.1,577895
step02_gravity_refstate-mantle.xmf,406,-3.24178e-06,4.96336e-06,0,2.25965e-06,-1.1599e+09,-1.1588e+09,-1.15947e+09,302002,-0.0263432,0.111099,-0,0.114179,-15094.7,-41880.8,-0,44518,302002
step02_gravity_refstate-mantle.xmf,407,-3.77754e-06,6.22438e-06,0,3.80495e-06,-1.24266e+09,-1.24133e+09,-1.24216e+09,508532,-0.0191505,0.129496,-0,0.130905,-12446.7,-44437,-0,46147.3,508532
step02_gravity_refstate-mantle.xmf,408,-3.32762e-06,5.58182e-06,0,2.53004e-06,-1.20902e+09,-1.20783e+09,-1.20857e+09,338140,-0.0196287,0.112201,-0,0.113905,-14268.9,-43399.1,-0,45684.7,338140
step02_gravity_refstate-mantle.xmf,409,-3.54452e-06,5.9086e-06,0,3.15684e-06,-1.22701e+09,-1.22575e+09,-1.22654e+09,421912,-0.0192726,0.120818,-0,0.122345,-13301,-43954.3,-0,45922.7,421912
step02_gravity_refstate-mantle.xmf,410,-3.28994e-06,4.71932e-06,0,2.09526e-06,-1.13262e+09,-1.13155e+09,-1.13218e+09,280031,-0.0293263,0.109428,-0,0.113289,-15664.1,-41037.3,-0,43925.2,280031
step02_gravity_refstate-mantle.xmf,411,-1.12126e-05,1.78551e-05,0,1.47714e-05,-1.49246e+09,-1.48857e+09,-1.49096e+09,1.9742e+06,0.0146234,0.25221,0,0.252634,-4787.94,-52133.2,-0,52352.6,1.9742e+06
step02_gravity_refstate-mantle.xmf,412,-1.14583e-05,1.24406e-05,0,2.01019e-05,-1.46306e+09,-1.45987e+09,-1.46153e+09,2.68662e+06,-0.0118183,0.29729,-0,0.297525,-4246.4,-51209.6,-0,51385.4,2.68662e+06
step02_gravity_refstate-mantle.xmf,413,-1.04578e-05,2.03853e-05,0,1.37367e-05,-1.51213e+09,-1.50801e+09,-1.51073e+09,1.8359e+06,0.0305289,0.24011,0,0.242043,-4793.55,-52752.5,-0,52969.8,1.8359e+06
step02_gravity_refstate-mantle.xmf,414,-9.47966e-06,2.28056e-05,0,1.27896e-05,-1.53204e+09,-1.52773e+09,-1.53077e+09,1.70933e+06,0.047723,0.226953,0,0.231916,-4787.71,-53380.2,-0,53594.5,1.70933e+06
step02_gravity_refstate-mantle.xmf,415,1.95427e-06,1.78404e-05,0,-1.40756e-07,-1.6326e+09,-1.63048e+09,-1.63286e+09,-18812,0.131083,0.0647085,0,0.146185,-7724.26,-56550.2,-0,57075.3,18812
step02_gravity_refstate-mantle.xmf,416,5.47137e-07,1.99719e-05,0,9.65494e-07,-1.62084e+09,-1.61824e+09,-1.62091e+09,129038,0.12574,0.0826932,0,0.150495,-7091.74,-56183.1,-0,56628.9,129038
step02_gravity_refstate-mantle.xmf,417,-1.02416e-06,2.21207e-05,0,2.49261e-06,-1.60947e+09,-1.60638e+09,-1.60933e+09,333137,0.118775,0.103932,0,0.157827,-6482.26,-55826.8,-0,56201.9,333137
step02_gravity_refstate-mantle.xmf,418,-2.805e-06,2.42641e-05,0,4.55156e-06,-1.59819e+09,-1.59458e+09,-1.59782e+09,608316,0.109967,0.129126,0,0.169606,-5889.89,-55472.1,-0,55783.9,608316
step02_gravity_refstate-mantle.xmf,419,-4.8503e-06,2.63811e-05,0,7.39993e-06,-1.58679e+09,-1.58261e+09,-1.58614e+09,989000,0.0989945,0.159508,0,0.187731,-5300.71,-55111.5,-0,55365.8,989000
step02_gravity_refstate-mantle.xmf,420,-9.06746e-06,1.11048e-05,0,1.12332e-05,-1.39739e+09,-1.3947e+09,-1.39618e+09,1.50132e+06,-0.0151418,0.213888,-0,0.214423,-6679.5,-49193.8,-0,49645.2,1.50132e+06
step02_gravity_refstate-mantle.xmf,421,-9.66792e-06,1.12061e-05,0,1.29123e-05,-1.4089e+09,-1.40611e+09,-1.40761e+09,1.72573e+06,-0.0166438,0.230532,-0,0.231132,-6094.25,-49545.6,-0,49919,1.72573e+06
step02_gravity_refstate-mantle.xmf,422,-1.0181e-05,1.10106e-05,0,1.50415e-05,-1.41996e+09,-1.41713e+09,-1.4186e+09,2.01029e+06,-0.0185633,0.250671,-0,0.251358,-5491.04,-49883.3,-0,50184.6,2.01029e+06
step02_gravity_refstate-mantle.xmf,423,-1.06935e-05,9.47888e-06,0,2.11171e-05,-1.44371e+09,-1.44101e+09,-1.44228e+09,2.8223e+06,-0.0218831,0.303919,-0,0.304706,-4245.78,-50609.4,-0,50787.2,2.8223e+06
step02_gravity_refstate-mantle.xmf,424,-1.0356e-05,1.00263e-05,0,1.81915e-05,-1.4289e+09,-1.42618e+09,-1.42752e+09,2.43129e+06,-0.0222505,0.279311,-0,0.280195,-4797.29,-50155.7,-0,50384.6,2.43129e+06
step02_gravity_refstate-mantle.xmf,425,-5.49702e-06,8.34499e-06,0,5.93002e-06,-1.31607e+09,-1.31422e+09,-1.31533e+09,792547,-0.0141746,0.154748,-0,0.155396,-9964.8,-46698.4,-0,47749.8,792547
step02_gravity_refstate-mantle.xmf,426,-4.98458e-06,7.66156e-06,0,5.8392e-06,-1.2959e+09,-1.29421e+09,-1.29524e+09,780410,-0.0173725,0.154506,-0,0.15548,-10235,-46077.2,-0,47200.3,780410
step02_gravity_refstate-mantle.xmf,427,-8.5555e-06,1.09258e-05,0,1.00248e-05,-1.38796e+09,-1.38535e+09,-1.38681e+09,1.33982e+06,-0.0138332,0.201185,-0,0.20166,-7179.99,-48905.2,-0,49429.5,1.33982e+06
step02_gravity_refstate-mantle.xmf,428,-3.99676e-06,6.13657e-06,0,5.35981e-06,-1.24791e+09,-1.24656e+09,-1.24738e+09,716338,-0.0236934,0.150921,-0,0.152769,-11004.4,-44597.5,-0,45935.1,716338
step02_gravity_refstate-mantle.xmf,429,-3.26793e-06,5.08113e-06,0,2.74458e-06,-1.17418e+09,-1.17306e+09,-1.17374e+09,366813,-0.0266663,0.118941,-0,0.121894,-14181.1,-42322,-0,44634.7,366813
step02_gravity_refstate-mantle.xmf,430,-3.52033e-06,4.54695e-06,0,1.95997e-06,-1.09911e+09,-1.09803e+09,-1.09863e+09,261951,-0.0325369,0.107866,-0,0.112666,-16343,-40000,-0,43209.9,261951
step02_gravity_refstate-mantle.xmf,431,-3.32201e-06,4.58596e-06,0,2.77707e-06,-1.13586e+09,-1.13481e+09,-1.13542e+09,371156,-0.0333842,0.123616,-0,0.128045,-14270.6,-41136.9,-0,43541.9,371156
step02_gravity_refstate-mantle.xmf,432,-1.03399e-05,7.57808e-06,0,2.46812e-05,-1.45196e+09,-1.44957e+09,-1.45058e+09,3.29864e+06,-0.0237393,0.334693,-0,0.335534,-3703.51,-50861.9,-0,50996.5,3.29864e+06
step02_gravity_refstate-mantle.xmf,433,-1.1522e-05,1.5689e-05,0,1.93031e-05,-1.48299e+09,-1.47936e+09,-1.48145e+09,2.57986e+06,0.00129008,0.28889,0,0.288893,-4241.7,-51833.3,-0,52006.5,2.57986e+06
step02_gravity_refstate-mantle.xmf,434,-8.40971e-06,2.52459e-05,0,1.21047e-05,-1.55232e+09,-1.54782e+09,-1.5512e+09,1.6178e+06,0.0655317,0.213826,0,0.223642,-4746.19,-54020.1,-0,54228.2,1.6178e+06
step02_gravity_refstate-mantle.xmf,435,2.78652e-06,1.83056e-05,0,6.32943e-08,-1.65667e+09,-1.6546e+09,-1.65705e+09,8459.28,0.141659,0.0516977,0,0.150797,-7682.01,-57300.6,-0,57813.3,8459.28
step02_gravity_refstate-mantle.xmf,436,-7.35638e-06,2.83724e-05,0,1.19584e-05,-1.57532e+09,-1.57054e+09,-1.57433e+09,1.59824e+06,0.0851267,0.200421,0,0.21775,-4628.88,-54745.5,-0,54940.9,1.59824e+06
step02_gravity_refstate-mantle.xmf,437,3.76731e-06,1.86216e-05,0,1.25745e-07,-1.69897e+09,-1.69699e+09,-1.69947e+09,16805.8,0.153572,0.0261833,0,0.155788,-7801.26,-58614.6,-0,59131.4,16805.8
step02_gravity_refstate-mantle.xmf,438,4.73504e-06,1.66249e-05,0,-1.16735e-07,-1.72169e+09,-1.7201e+09,-1.72232e+09,-15601.6,0.154704,0.0114131,0,0.155124,-8311.96,-59317.7,-0,59897.2,15601.6
step02_gravity_refstate-mantle.xmf,439,5.36416e-06,1.50291e-05,0,-2.62596e-09,-1.74377e+09,-1.74248e+09,-1.74449e+09,-350.96,0.153523,-2.14462e-19,0,0.153523,-8750.83,-60000,-0,60634.8,350.96
step02_gravity_refstate-mantle.xmf,440,-9.1327e-06,5.60702e-06,0,2.39943e-05,-1.43473e+09,-1.43276e+09,-1.43351e+09,3.20684e+06,-0.0293533,0.32868,-0,0.329988,-3855.94,-50332.5,-0,50480,3.20684e+06
step02_gravity_refstate-mantle.xmf,441,-6.04923e-06,8.89383e-06,0,6.69837e-06,-1.33103e+09,-1.32904e+09,-1.33022e+09,895238,-0.0143286,0.16432,-0,0.164943,-9305.54,-47158.4,-0,48067.8,895238
step02_gravity_refstate-mantle.xmf,442,-4.3162e-06,6.38101e-06,0,6.26996e-06,-1.26348e+09,-1.26205e+09,-1.26291e+09,837981,-0.0239653,0.1617,-0,0.163466,-10224.1,-45077,-0,46221.9,837981
step02_gravity_refstate-mantle.xmf,443,-6.74968e-06,9.27865e-06,0,7.89056e-06,-1.34611e+09,-1.34397e+09,-1.34521e+09,1.05457e+06,-0.0154033,0.177458,-0,0.178125,-8542.11,-47620.5,-0,48380.5,1.05457e+06
step02_gravity_refstate-mantle.xmf,444,-7.8924e-06,9.52991e-06,0,1.08803e-05,-1.36998e+09,-1.36765e+09,-1.36892e+09,1.45416e+06,-0.0197913,0.209559,-0,0.210492,-7090.84,-48350.7,-0,48867.9,1.45416e+06
step02_gravity_refstate-mantle.xmf,445,-7.36516e-06,9.50593e-06,0,9.30338e-06,-1.35866e+09,-1.3564e+09,-1.35767e+09,1.2434e+06,-0.0174385,0.192932,-0,0.193718,-7790.92,-48004.5,-0,48632.6,1.2434e+06
step02_gravity_refstate-mantle.xmf,446,-3.74004e-06,5.907e-06,0,4.64539e-06,-1.23366e+09,-1.23238e+09,-1.23316e+09,620857,-0.0238183,0.142578,-0,0.144554,-11683,-44158.5,-0,45677.9,620857
step02_gravity_refstate-mantle.xmf,447,-3.47027e-06,5.37682e-06,0,4.30705e-06,-1.20948e+09,-1.2083e+09,-1.20902e+09,575637,-0.026763,0.139779,-0,0.142318,-12147.7,-43412,-0,45079.6,575637
step02_gravity_refstate-mantle.xmf,448,-3.35792e-06,5.21599e-06,0,3.41719e-06,-1.19191e+09,-1.19076e+09,-1.19146e+09,456707,-0.0265059,0.128036,-0,0.130751,-13209.6,-42869.5,-0,44858.5,456707
step02_gravity_refstate-mantle.xmf,449,-3.54693e-06,4.40407e-06,0,2.43107e-06,-1.09912e+09,-1.09806e+09,-1.09865e+09,324912,-0.0372135,0.120628,-0,0.126238,-15019.5,-40000,-0,42726.9,324912
step02_gravity_refstate-mantle.xmf,450,-1.10164e-05,1.14734e-05,0,2.38212e-05,-1.47318e+09,-1.47017e+09,-1.47171e+09,3.1837e+06,-0.0112927,0.326344,-0,0.32654,-3734.08,-51522.7,-0,51657.9,3.1837e+06
step02_gravity_refstate-mantle.xmf,451,-1.11299e-05,1.8423e-05,0,1.83987e-05,-1.50232e+09,-1.49837e+09,-1.50083e+09,2.45898e+06,0.0163545,0.278225,0,0.278706,-4248.09,-52439.9,-0,52611.7,2.45898e+06
step02_gravity_refstate-mantle.xmf,452,-1.0579e-05,2.17494e-05,0,1.77006e-05,-1.52152e+09,-1.5172e+09,-1.52011e+09,2.36568e+06,0.0328526,0.266096,0,0.268117,-4248.32,-53045.2,-0,53215.1,2.36568e+06
step02_gravity_refstate-mantle.xmf,453,-9.97953e-06,2.49912e-05,0,1.70903e-05,-1.5403e+09,-1.53563e+09,-1.53897e+09,2.28412e+06,0.0496733,0.253635,0,0.258453,-4227.95,-53637.6,-0,53804,2.28412e+06
step02_gravity_refstate-mantle.xmf,454,3.10547e-06,1.91388e-05,0,3.25777e-07,-1.67767e+09,-1.67552e+09,-1.67808e+09,43540,0.149097,0.0405733,0,0.154519,-7579.14,-57953.4,-0,58446.9,43540
step02_gravity_refstate-mantle.xmf,455,1.43828e-06,2.0776e-05,0,1.15753e-06,-1.6436e+09,-1.64102e+09,-1.64379e+09,154704,0.137451,0.0690385,0,0.153815,-7046.76,-56894.1,-0,57328.9,154704
step02_gravity_refstate-mantle.xmf,456,-3.55391e-08,2.31677e-05,0,2.61092e-06,-1.63148e+09,-1.62838e+09,-1.63148e+09,348949,0.131777,0.0892983,0,0.159184,-6441.65,-56516.1,-0,56882,348949
step02_gravity_refstate-mantle.xmf,457,-1.68732e-06,2.56032e-05,0,4.53717e-06,-1.6197e+09,-1.61605e+09,-1.61947e+09,606393,0.12439,0.11337,0,0.168303,-5854.59,-56147.2,-0,56451.6,606393
step02_gravity_refstate-mantle.xmf,458,-5.74728e-06,3.0766e-05,0,1.04443e-05,-1.59824e+09,-1.59336e+09,-1.59747e+09,1.39588e+06,0.105034,0.174164,0,0.203384,-4724.3,-55470.3,-0,55671.2,1.39588e+06
step02_gravity_refstate-mantle.xmf,459,-3.59265e-06,2.80475e-05,0,7.05586e-06,-1.60788e+09,-1.60365e+09,-1.6074e+09,943015,0.114968,0.141966,0,0.18268,-5286.76,-55775.6,-0,56025.6,943015
step02_gravity_refstate-mantle.xmf,460,-8.085e-06,9.1049e-06,0,1.23653e-05,-1.37529e+09,-1.373e+09,-1.37421e+09,1.65262e+06,-0.022707,0.225012,-0,0.226155,-6551.42,-48512.6,-0,48953,1.65262e+06
step02_gravity_refstate-mantle.xmf,461,-8.5526e-06,9.05982e-06,0,1.38166e-05,-1.38692e+09,-1.38456e+09,-1.38577e+09,1.84659e+06,-0.0238991,0.239268,-0,0.240459,-6043.4,-48868.4,-0,49240.6,1.84659e+06
step02_gravity_refstate-mantle.xmf,462,-8.91603e-06,8.69853e-06,0,1.56495e-05,-1.39782e+09,-1.39547e+09,-1.39663e+09,2.09155e+06,-0.0255586,0.256513,-0,0.257783,-5512.34,-49201.8,-0,49509.6,2.09155e+06
step02_gravity_refstate-mantle.xmf,463,-9.06016e-06,7.83437e-06,0,1.79968e-05,-1.40791e+09,-1.40565e+09,-1.4067e+09,2.40527e+06,-0.0277158,0.27762,-0,0.279,-4954.94,-49510.4,-0,49757.7,2.40527e+06
step02_gravity_refstate-mantle.xmf,464,-9.05725e-06,6.16419e-06,0,2.19566e-05,-1.42456e+09,-1.42252e+09,-1.42335e+09,2.9345e+06,-0.0297933,0.312306,-0,0.313724,-4177.46,-50020.2,-0,50194.4,2.9345e+06
step02_gravity_refstate-mantle.xmf,465,-7.62968e-06,1.1484e-06,0,2.78807e-05,-1.43372e+09,-1.43254e+09,-1.4327e+09,3.72626e+06,-0.0337063,0.358747,-0,0.360327,-3372.67,-50299.9,-0,50412.8,3.72626e+06
step02_gravity_refstate-mantle.xmf,466,-5.42264e-06,7.69793e-06,0,7.17468e-06,-1.30571e+09,-1.30396e+09,-1.30499e+09,958896,-0.0199043,0.170012,-0,0.171174,-9341.12,-46377.4,-0,47308.7,958896
step02_gravity_refstate-mantle.xmf,467,-4.59869e-06,6.59507e-06,0,7.32267e-06,-1.27795e+09,-1.27646e+09,-1.27734e+09,978674,-0.024967,0.174834,-0,0.176608,-9401.54,-45522.6,-0,46483.3,978674
step02_gravity_refstate-mantle.xmf,468,-3.4425e-06,5.19864e-06,0,5.37418e-06,-1.21559e+09,-1.21444e+09,-1.21513e+09,718259,-0.0293377,0.155438,-0,0.158183,-11072,-43600.5,-0,44984.3,718259
step02_gravity_refstate-mantle.xmf,469,-3.58211e-06,5.26074e-06,0,6.36553e-06,-1.23152e+09,-1.23034e+09,-1.23105e+09,850753,-0.0295724,0.167495,-0,0.170085,-10220.8,-44091.8,-0,45261,850753
step02_gravity_refstate-mantle.xmf,470,-3.1866e-06,4.67838e-06,0,3.51555e-06,-1.15999e+09,-1.15894e+09,-1.15957e+09,469853,-0.0328897,0.134702,-0,0.13866,-13070,-41883.4,-0,43875.3,469853
step02_gravity_refstate-mantle.xmf,471,-3.41655e-06,4.13661e-06,0,2.94357e-06,-1.09912e+09,-1.09811e+09,-1.09866e+09,393409,-0.0416435,0.134574,-0,0.14087,-13746.6,-40000,-0,42296.2,393409
step02_gravity_refstate-mantle.xmf,472,-8.63378e-06,3.13711e-06,0,2.90308e-05,-1.44971e+09,-1.44814e+09,-1.44856e+09,3.87996e+06,-0.0293897,0.368907,-0,0.370076,-3209.24,-50792.3,-0,50893.6,3.87996e+06
step02_gravity_refstate-mantle.xmf,473,-9.61955e-06,6.30656e-06,0,2.8337e-05,-1.46501e+09,-1.46288e+09,-1.46373e+09,3.78724e+06,-0.0212444,0.362969,-0,0.363591,-3260.43,-51266.6,-0,51370.2,3.78724e+06
step02_gravity_refstate-mantle.xmf,474,-1.09675e-05,1.53731e-05,0,2.36993e-05,-1.49268e+09,-1.48916e+09,-1.49121e+09,3.16742e+06,0.00272625,0.319069,0,0.319081,-3721.98,-52135.3,-0,52268,3.16742e+06
step02_gravity_refstate-mantle.xmf,475,-9.579e-06,2.82692e-05,0,1.71613e-05,-1.55773e+09,-1.55267e+09,-1.55645e+09,2.29361e+06,0.0648691,0.244985,0,0.253428,-4134.71,-54187,-0,54344.5,2.29361e+06
step02_gravity_refstate-mantle.xmf,476,1.89022e-06,2.15281e-05,0,1.22567e-06,-1.66618e+09,-1.66356e+09,-1.66644e+09,163811,0.146762,0.0546815,0,0.156618,-7011.3,-57596.7,-0,58021.8,163811
step02_gravity_refstate-mantle.xmf,477,-8.33055e-06,3.4258e-05,0,1.51937e-05,-1.59258e+09,-1.58689e+09,-1.59147e+09,2.03063e+06,0.0960612,0.211058,0,0.23189,-4123.79,-55287.4,-0,55441,2.03063e+06
step02_gravity_refstate-mantle.xmf,478,2.1539e-06,2.20385e-05,0,1.05174e-06,-1.68813e+09,-1.68547e+09,-1.68842e+09,140565,0.153366,0.0393866,0,0.158343,-7038.8,-58277.7,-0,58701.2,140565
step02_gravity_refstate-mantle.xmf,479,3.35392e-06,2.02565e-05,0,2.23863e-07,-1.72305e+09,-1.72079e+09,-1.72349e+09,29919.3,0.158007,0.0130688,0,0.158546,-7522.88,-59359.7,-0,59834.5,29919.3
step02_gravity_refstate-mantle.xmf,480,4.15105e-06,1.84518e-05,0,-1.03361e-08,-1.74375e+09,-1.74184e+09,-1.74431e+09,-1381.42,0.157492,-2.39463e-19,0,0.157492,-7916.27,-60000,-0,60520,1381.42
step02_gravity_refstate-mantle.xmf,481,-8.61704e-06,6.12431e-06,0,2.03754e-05,-1.41245e+09,-1.41048e+09,-1.4113e+09,2.72318e+06,-0.0306625,0.299129,-0,0.300697,-4477.02,-49649.2,-0,49850.6,2.72318e+06
step02_gravity_refstate-mantle.xmf,482,-7.54082e-06,2.61513e-06,0,2.47016e-05,-1.42201e+09,-1.42065e+09,-1.421e+09,3.30136e+06,-0.0340481,0.336601,-0,0.338318,-3747.57,-49942.6,-0,50083,3.30136e+06
step02_gravity_refstate-mantle.xmf,483,-5.83033e-06,7.93252e-06,0,8.34318e-06,-1.31839e+09,-1.31655e+09,-1.31761e+09,1.11507e+06,-0.0215965,0.184145,-0,0.185407,-8568.13,-46767,-0,47545.4,1.11507e+06
step02_gravity_refstate-mantle.xmf,484,-3.75665e-06,5.28485e-06,0,7.4428e-06,-1.24747e+09,-1.24626e+09,-1.24697e+09,994730,-0.029978,0.180281,-0,0.182756,-9406.41,-44583.2,-0,45564.7,994730
step02_gravity_refstate-mantle.xmf,485,-6.32039e-06,7.86141e-06,0,9.82071e-06,-1.33155e+09,-1.32965e+09,-1.3307e+09,1.31254e+06,-0.0235352,0.199776,-0,0.201157,-7806.18,-47169.8,-0,47811.4,1.31254e+06
step02_gravity_refstate-mantle.xmf,486,-6.97379e-06,7.31152e-06,0,1.30102e-05,-1.35566e+09,-1.35375e+09,-1.35473e+09,1.73881e+06,-0.0277915,0.233244,-0,0.234894,-6450.85,-47909.1,-0,48341.4,1.73881e+06
step02_gravity_refstate-mantle.xmf,487,-6.70059e-06,7.66503e-06,0,1.14181e-05,-1.34378e+09,-1.34186e+09,-1.34289e+09,1.52602e+06,-0.0257797,0.216701,-0,0.218229,-7083.6,-47544.8,-0,48069.6,1.52602e+06
step02_gravity_refstate-mantle.xmf,488,-3.16111e-06,4.19308e-06,0,3.36234e-06,-1.1257e+09,-1.12472e+09,-1.12528e+09,449376,-0.038903,0.138608,-0,0.143964,-13130.1,-40822.9,-0,42882.6,449376
step02_gravity_refstate-mantle.xmf,489,-3.10979e-06,4.56118e-06,0,4.264e-06,-1.17244e+09,-1.17141e+09,-1.17202e+09,569884,-0.0335185,0.14542,-0,0.149233,-12151.2,-42268,-0,43980,569884
step02_gravity_refstate-mantle.xmf,490,-6.11e-06,-2.54268e-06,0,3.20366e-05,-1.44072e+09,-1.44024e+09,-1.4399e+09,4.2817e+06,-0.0350514,0.393716,-0,0.395273,-2867.27,-50517,-0,50598.3,4.2817e+06
step02_gravity_refstate-mantle.xmf,491,-7.33369e-06,4.03813e-07,0,3.25794e-05,-1.45687e+09,-1.45584e+09,-1.45589e+09,4.35423e+06,-0.0290808,0.396893,-0,0.397957,-2837.66,-51015.2,-0,51094.1,4.35423e+06
step02_gravity_refstate-mantle.xmf,492,-9.87783e-06,1.01924e-05,0,2.84126e-05,-1.48276e+09,-1.48007e+09,-1.48144e+09,3.79734e+06,-0.00944131,0.35714,-0,0.357265,-3276.22,-51822.9,-0,51926.4,3.79734e+06
step02_gravity_refstate-mantle.xmf,493,-1.0813e-05,1.91268e-05,0,2.34203e-05,-1.5118e+09,-1.5078e+09,-1.51036e+09,3.13012e+06,0.018547,0.30901,0,0.309566,-3719.03,-52736.8,-0,52867.8,3.13012e+06
step02_gravity_refstate-mantle.xmf,494,-1.07583e-05,2.34563e-05,0,2.27138e-05,-1.53034e+09,-1.52577e+09,-1.52891e+09,3.03569e+06,0.0353877,0.29474,0,0.296856,-3743.86,-53320.9,-0,53452.2,3.03569e+06
step02_gravity_refstate-mantle.xmf,495,-1.07586e-05,2.77257e-05,0,2.23496e-05,-1.5478e+09,-1.54265e+09,-1.54636e+09,2.98702e+06,0.0512532,0.282801,0,0.287408,-3716.05,-53870.9,-0,53999,2.98702e+06
step02_gravity_refstate-mantle.xmf,496,-9.32749e-06,3.19038e-05,0,1.71926e-05,-1.57483e+09,-1.56932e+09,-1.57358e+09,2.29779e+06,0.0796749,0.234688,0,0.247844,-4041.17,-54726.3,-0,54875.3,2.29779e+06
step02_gravity_refstate-mantle.xmf,497,4.57045e-07,2.44518e-05,0,2.74957e-06,-1.654e+09,-1.6508e+09,-1.65406e+09,367480,0.142696,0.0735229,0,0.160523,-6396.5,-57218.3,-0,57574.7,367480
step02_gravity_refstate-mantle.xmf,498,-1.07253e-06,2.7142e-05,0,4.62727e-06,-1.64147e+09,-1.6377e+09,-1.64133e+09,618435,0.136654,0.0964223,0,0.167247,-5817.77,-56827.9,-0,57124.9,618435
step02_gravity_refstate-mantle.xmf,499,-2.78979e-06,2.99554e-05,0,7.00768e-06,-1.62959e+09,-1.62521e+09,-1.62922e+09,936576,0.129043,0.123398,0,0.178547,-5252.84,-56456.6,-0,56700.4,936576
step02_gravity_refstate-mantle.xmf,500,-7.4817e-06,3.70518e-05,0,1.41955e-05,-1.61053e+09,-1.60458e+09,-1.60953e+09,1.89723e+06,0.110581,0.190475,0,0.220247,-4129.34,-55854.7,-0,56007.1,1.89723e+06
step02_gravity_refstate-mantle.xmf,501,-4.87078e-06,3.30697e-05,0,1.00755e-05,-1.61849e+09,-1.61342e+09,-1.61784e+09,1.34658e+06,0.119833,0.155144,0,0.196034,-4694.16,-56107.6,-0,56303.6,1.34658e+06
step02_gravity_refstate-mantle.xmf,502,2.27902e-06,2.23605e-05,0,6.87581e-07,-1.7083e+09,-1.70561e+09,-1.7086e+09,91895.2,0.157364,0.0249811,0,0.159334,-7092.56,-58902.3,-0,59327.7,91895.2
step02_gravity_refstate-mantle.xmf,503,-7.19701e-06,6.937e-06,0,1.44364e-05,-1.36617e+09,-1.36428e+09,-1.36521e+09,1.92943e+06,-0.0293271,0.247722,-0,0.249452,-5949.31,-48231.2,-0,48596.8,1.92943e+06
step02_gravity_refstate-mantle.xmf,504,-7.44783e-06,6.47929e-06,0,1.60288e-05,-1.37715e+09,-1.37529e+09,-1.37616e+09,2.14225e+06,-0.030664,0.262734,-0,0.264518,-5476.5,-48567.5,-0,48875.3,2.14225e+06
step02_gravity_refstate-mantle.xmf,505,-7.4126e-06,5.42732e-06,0,1.80515e-05,-1.38694e+09,-1.38522e+09,-1.38595e+09,2.41258e+06,-0.032574,0.281557,-0,0.283435,-4962.54,-48867.3,-0,49118.6,2.41258e+06
step02_gravity_refstate-mantle.xmf,506,-7.05036e-06,3.70095e-06,0,2.05433e-05,-1.39667e+09,-1.39524e+09,-1.39573e+09,2.74562e+06,-0.0346604,0.304399,-0,0.306366,-4417.02,-49166.1,-0,49364.1,2.74562e+06
step02_gravity_refstate-mantle.xmf,507,-6.47778e-06,1.59069e-06,0,2.3304e-05,-1.40708e+09,-1.406e+09,-1.40622e+09,3.11458e+06,-0.0360964,0.328287,-0,0.330265,-3916.62,-49486,-0,49640.8,3.11458e+06
step02_gravity_refstate-mantle.xmf,508,-4.73372e-06,-2.42574e-06,0,2.66919e-05,-1.41442e+09,-1.41411e+09,-1.41379e+09,3.56737e+06,-0.0378974,0.358764,-0,0.36076,-3365.93,-49714.1,-0,49827.9,3.56737e+06
step02_gravity_refstate-mantle.xmf,509,-4.9259e-06,6.49281e-06,0,8.64079e-06,-1.29128e+09,-1.28975e+09,-1.29062e+09,1.15484e+06,-0.0264988,0.189596,-0,0.191438,-8591.33,-45931.9,-0,46728.4,1.15484e+06
step02_gravity_refstate-mantle.xmf,510,-3.88907e-06,5.2737e-06,0,8.57951e-06,-1.26262e+09,-1.2614e+09,-1.2621e+09,1.14665e+06,-0.0307627,0.194255,-0,0.196676,-8613.47,-45050.4,-0,45866.5,1.14665e+06
step02_gravity_refstate-mantle.xmf,511,-2.99184e-06,4.42694e-06,0,5.16533e-06,-1.18465e+09,-1.18366e+09,-1.18425e+09,690346,-0.0343349,0.158371,-0,0.16205,-11175.1,-42645.7,-0,44085.6,690346
step02_gravity_refstate-mantle.xmf,512,-2.89042e-06,4.24633e-06,0,6.20418e-06,-1.19886e+09,-1.1979e+09,-1.19847e+09,829188,-0.034757,0.172087,-0,0.175562,-10231.8,-43084.8,-0,44283,829188
step02_gravity_refstate-mantle.xmf,513,-2.89854e-06,4.15267e-06,0,7.27385e-06,-1.21638e+09,-1.21544e+09,-1.21599e+09,972151,-0.0345353,0.184953,-0,0.188149,-9398.65,-43625.7,-0,44626.7,972151
step02_gravity_refstate-mantle.xmf,514,-2.88378e-06,3.87703e-06,0,4.10611e-06,-1.13446e+09,-1.13355e+09,-1.13407e+09,548782,-0.0406002,0.151888,-0,0.157221,-12042.9,-41094.5,-0,42822.8,548782
step02_gravity_refstate-mantle.xmf,515,-3.07604e-06,3.68389e-06,0,3.45815e-06,-1.09908e+09,-1.09818e+09,-1.09867e+09,462182,-0.0456349,0.149606,-0,0.156411,-12520.4,-40000,-0,41913.7,462182
step02_gravity_refstate-mantle.xmf,516,-2.75092e-06,-6.40702e-06,0,3.046e-05,-1.42351e+09,-1.424e+09,-1.42314e+09,4.07097e+06,-0.0382452,0.38845,-0,0.390328,-2905.45,-49997.9,-0,50082.2,4.07097e+06
step02_gravity_refstate-mantle.xmf,517,-7.70561e-06,3.57732e-06,0,3.32403e-05,-1.47353e+09,-1.47202e+09,-1.4725e+09,4.44257e+06,-0.0195565,0.395575,-0,0.396058,-2843.2,-51535.4,-0,51613.8,4.44257e+06
step02_gravity_refstate-mantle.xmf,518,-1.01008e-05,1.51507e-05,0,2.90328e-05,-1.50156e+09,-1.49819e+09,-1.50021e+09,3.88024e+06,0.0051254,0.350438,0,0.350476,-3267.6,-52414.9,-0,52516.7,3.88024e+06
step02_gravity_refstate-mantle.xmf,519,-1.08372e-05,3.21166e-05,0,2.21572e-05,-1.5652e+09,-1.55946e+09,-1.56375e+09,2.96131e+06,0.0668325,0.270826,0,0.27895,-3656.85,-54419.3,-0,54542,2.96131e+06
step02_gravity_refstate-mantle.xmf,520,-1.0778e-05,3.64127e-05,0,2.07967e-05,-1.58342e+09,-1.57711e+09,-1.58198e+09,2.77948e+06,0.0833563,0.251819,0,0.265256,-3646.99,-54993.4,-0,55114.2,2.77948e+06
step02_gravity_refstate-mantle.xmf,521,4.63792e-07,2.55307e-05,0,2.52782e-06,-1.67616e+09,-1.67281e+09,-1.67622e+09,337843,0.150842,0.0566384,0,0.161125,-6376.37,-57905.5,-0,58255.5,337843
step02_gravity_refstate-mantle.xmf,522,-1.0388e-05,4.01341e-05,0,1.92152e-05,-1.60113e+09,-1.59438e+09,-1.59974e+09,2.56811e+06,0.0986518,0.230455,0,0.250683,-3644.75,-55552.6,-0,55672.1,2.56811e+06
step02_gravity_refstate-mantle.xmf,523,2.66903e-07,2.68535e-05,0,1.97927e-06,-1.70147e+09,-1.69791e+09,-1.7015e+09,264529,0.157075,0.0361542,0,0.161183,-6363.63,-58689.3,-0,59033.3,264529
step02_gravity_refstate-mantle.xmf,524,1.2488e-06,2.49259e-05,0,7.0698e-07,-1.72421e+09,-1.72105e+09,-1.72438e+09,94487.8,0.159907,0.015234,0,0.160632,-6739.8,-59393.5,-0,59774.7,94487.8
step02_gravity_refstate-mantle.xmf,525,2.35303e-06,2.27042e-05,0,-2.50798e-08,-1.74379e+09,-1.74107e+09,-1.7441e+09,-3351.92,0.160084,-2.79471e-19,0,0.160084,-7119.24,-60000,-0,60420.9,3351.92
step02_gravity_refstate-mantle.xmf,526,-5.75486e-06,4.86655e-06,0,1.49044e-05,-1.34735e+09,-1.34593e+09,-1.34658e+09,1.99197e+06,-0.0333475,0.256832,-0,0.258988,-5783.86,-47654.1,-0,48003.8,1.99197e+06
step02_gravity_refstate-mantle.xmf,527,-5.15195e-06,6.4447e-06,0,9.93618e-06,-1.30448e+09,-1.30293e+09,-1.3038e+09,1.32797e+06,-0.0281636,0.205006,-0,0.206932,-7832.54,-46338.1,-0,46995.4,1.32797e+06
step02_gravity_refstate-mantle.xmf,528,-2.92771e-06,3.9839e-06,0,8.39242e-06,-1.23298e+09,-1.23206e+09,-1.23259e+09,1.12165e+06,-0.0345763,0.198213,-0,0.201206,-8624.25,-44137.9,-0,44972.6,1.12165e+06
step02_gravity_refstate-mantle.xmf,529,-5.36059e-06,5.91223e-06,0,1.1548e-05,-1.31733e+09,-1.31582e+09,-1.31661e+09,1.54339e+06,-0.0301634,0.222177,-0,0.224215,-7085.16,-46732,-0,47266.1,1.54339e+06
step02_gravity_refstate-mantle.xmf,530,-5.2928e-06,4.98957e-06,0,1.34941e-05,-1.32991e+09,-1.32854e+09,-1.3292e+09,1.80349e+06,-0.0327645,0.243409,-0,0.245604,-6282.26,-47118.8,-0,47535.8,1.80349e+06
step02_gravity_refstate-mantle.xmf,531,-2.67671e-06,3.85108e-06,0,4.79229e-06,-1.15509e+09,-1.15422e+09,-1.15473e+09,640489,-0.039012,0.160173,-0,0.164855,-11302.6,-41733.2,-0,43236.6,640489
step02_gravity_refstate-mantle.xmf,532,-1.74578e-06,-9.52893e-06,0,3.57868e-05,-1.43172e+09,-1.43276e+09,-1.43149e+09,4.7829e+06,-0.038136,0.422641,-0,0.424358,-2445.64,-50250.3,-0,50309.8,4.7829e+06
step02_gravity_refstate-mantle.xmf,533,-4.01334e-06,-7.42671e-06,0,3.6036e-05,-1.44822e+09,-1.44868e+09,-1.44769e+09,4.81621e+06,-0.0348156,0.429018,-0,0.430428,-2432.91,-50750.2,-0,50808.5,4.81621e+06
step02_gravity_refstate-mantle.xmf,534,-4.10289e-06,-4.80666e-06,0,3.80463e-05,-1.46422e+09,-1.46431e+09,-1.46367e+09,5.08488e+06,-0.0275332,0.433523,-0,0.434396,-2424.18,-51250.4,-0,51307.7,5.08488e+06
step02_gravity_refstate-mantle.xmf,535,-8.18919e-06,8.67224e-06,0,3.45313e-05,-1.49108e+09,-1.48883e+09,-1.48999e+09,4.61511e+06,-0.00705038,0.391929,-0,0.391993,-2846.03,-52087.5,-0,52165.2,4.61511e+06
step02_gravity_refstate-mantle.xmf,536,-1.05971e-05,2.03589e-05,0,2.97627e-05,-1.52186e+09,-1.51773e+09,-1.52045e+09,3.97779e+06,0.0221205,0.342597,0,0.343311,-3227.93,-53052.1,-0,53150.2,3.97779e+06
step02_gravity_refstate-mantle.xmf,537,-1.11583e-05,2.55956e-05,0,2.76234e-05,-1.53848e+09,-1.53357e+09,-1.53699e+09,3.69187e+06,0.0385117,0.319781,0,0.322092,-3351.31,-53575.2,-0,53679.9,3.69187e+06
step02_gravity_refstate-mantle.xmf,538,-1.21762e-05,3.10908e-05,0,2.94454e-05,-1.55477e+09,-1.54898e+09,-1.55314e+09,3.93537e+06,0.0515856,0.319323,0,0.323463,-3189.24,-54085.4,-0,54179.3,3.93537e+06
step02_gravity_refstate-mantle.xmf,539,-1.11229e-06,2.89264e-05,0,4.60927e-06,-1.66299e+09,-1.65897e+09,-1.66284e+09,616029,0.14608,0.0786733,0,0.165918,-5774.84,-57496.8,-0,57786.1,616029
step02_gravity_refstate-mantle.xmf,540,-2.728e-06,3.21073e-05,0,7.02723e-06,-1.65097e+09,-1.64631e+09,-1.6506e+09,939189,0.139998,0.103942,0,0.174366,-5213.08,-57122.8,-0,57360.2,939189
step02_gravity_refstate-mantle.xmf,541,-9.90633e-06,4.38243e-05,0,1.78733e-05,-1.61898e+09,-1.6118e+09,-1.61765e+09,2.38877e+06,0.112383,0.207607,0,0.236073,-3630.1,-56116.7,-0,56234,2.38877e+06
step02_gravity_refstate-mantle.xmf,542,-4.52931e-06,3.54876e-05,0,9.90492e-06,-1.63951e+09,-1.63416e+09,-1.6389e+09,1.32379e+06,0.13241,0.133675,0,0.188153,-4666.58,-56765.4,-0,56956.9,1.32379e+06
step02_gravity_refstate-mantle.xmf,543,-6.84573e-06,3.94328e-05,0,1.34189e-05,-1.62898e+09,-1.62279e+09,-1.62806e+09,1.79344e+06,0.123316,0.168222,0,0.20858,-4130.68,-56434.8,-0,56585.7,1.79344e+06
step02_gravity_refstate-mantle.xmf,544,-6.11974e-06,4.85493e-06,0,1.59771e-05,-1.36018e+09,-1.35871e+09,-1.35936e+09,2.13534e+06,-0.0336358,0.266716,-0,0.268829,-5448.4,-48047.8,-0,48355.8,2.13534e+06
step02_gravity_refstate-mantle.xmf,545,-5.68816e-06,3.30463e-06,0,1.77579e-05,-1.36619e+09,-1.36499e+09,-1.36543e+09,2.37334e+06,-0.0357409,0.284445,-0,0.286682,-4959.5,-48232.5,-0,48486.8,2.37334e+06
step02_gravity_refstate-mantle.xmf,546,-5.17149e-06,1.43638e-06,0,1.99315e-05,-1.37643e+09,-1.37555e+09,-1.37574e+09,2.66384e+06,-0.0374857,0.305651,-0,0.307941,-4424.58,-48547.7,-0,48748.9,2.66384e+06
step02_gravity_refstate-mantle.xmf,547,-4.3493e-06,-9.27343e-07,0,2.2266e-05,-1.38674e+09,-1.38629e+09,-1.38616e+09,2.97585e+06,-0.0388478,0.328338,-0,0.330628,-3919.82,-48865.6,-0,49022.6,2.97585e+06
step02_gravity_refstate-mantle.xmf,548,-3.03045e-06,-4.07853e-06,0,2.48265e-05,-1.39665e+09,-1.39679e+09,-1.39624e+09,3.31806e+06,-0.0397533,0.353171,-0,0.355402,-3435.15,-49172.2,-0,49292.1,3.31806e+06
step02_gravity_refstate-mantle.xmf,549,-5.92531e-07,-8.82381e-06,0,2.76938e-05,-1.40613e+09,-1.40723e+09,-1.40605e+09,3.70128e+06,-0.0399671,0.382309,-0,0.384392,-2937.63,-49469.4,-0,49556.5,3.70128e+06
step02_gravity_refstate-mantle.xmf,550,-4.03233e-06,4.91322e-06,0,9.92147e-06,-1.2769e+09,-1.2757e+09,-1.27636e+09,1.326e+06,-0.0318863,0.209314,-0,0.211729,-7851.58,-45489.6,-0,46162.2,1.326e+06
step02_gravity_refstate-mantle.xmf,551,-2.8787e-06,3.7183e-06,0,9.55901e-06,-1.24842e+09,-1.24754e+09,-1.24804e+09,1.27756e+06,-0.035025,0.212792,-0,0.215655,-7862.83,-44614.6,-0,45302.2,1.27756e+06
step02_gravity_refstate-mantle.xmf,552,-2.02098e-06,2.93353e-06,0,7.96951e-06,-1.20364e+09,-1.20297e+09,-1.20337e+09,1.06513e+06,-0.0381025,0.201692,-0,0.20526,-8606.71,-43234.9,-0,44083.2,1.06513e+06
step02_gravity_refstate-mantle.xmf,553,-4.27931e-06,2.84993e-06,0,1.52375e-05,-1.33109e+09,-1.33014e+09,-1.33052e+09,2.0365e+06,-0.0361235,0.266456,-0,0.268894,-5552.84,-47156.6,-0,47482.4,2.0365e+06
step02_gravity_refstate-mantle.xmf,554,-2.25714e-06,3.2886e-06,0,5.78143e-06,-1.16188e+09,-1.16114e+09,-1.16158e+09,772688,-0.0405418,0.17658,-0,0.181175,-10219.9,-41944.3,-0,43171.5,772688
step02_gravity_refstate-mantle.xmf,555,-2.09723e-06,3.12514e-06,0,6.91484e-06,-1.18506e+09,-1.18437e+09,-1.18478e+09,924169,-0.0389788,0.189505,-0,0.193473,-9343.18,-42661.1,-0,43672.3,924169
step02_gravity_refstate-mantle.xmf,556,-2.52884e-06,3.06914e-06,0,3.97438e-06,-1.09901e+09,-1.09827e+09,-1.09868e+09,531176,-0.0489562,0.165571,-0,0.172657,-11337.1,-40000,-0,41575.6,531176
step02_gravity_refstate-mantle.xmf,557,-2.25044e-06,3.07657e-06,0,4.82912e-06,-1.12953e+09,-1.12882e+09,-1.12923e+09,645412,-0.0446664,0.17066,-0,0.176408,-10792.2,-40944.6,-0,42343,645412
step02_gravity_refstate-mantle.xmf,558,3.57792e-06,-1.61469e-05,0,3.04758e-05,-1.41459e+09,-1.41722e+09,-1.41507e+09,4.07309e+06,-0.0389371,0.413061,-0,0.414892,-2479.33,-49739.7,-0,49801.5,4.07309e+06
step02_gravity_refstate-mantle.xmf,559,-4.7603e-06,8.49864e-08,0,4.05638e-05,-1.48091e+09,-1.48027e+09,-1.48028e+09,5.42135e+06,-0.0171194,0.435434,-0,0.43577,-2419.42,-51774.3,-0,51830.8,5.42135e+06
step02_gravity_refstate-mantle.xmf,560,-9.24943e-06,1.54057e-05,0,3.56125e-05,-1.50967e+09,-1.50637e+09,-1.50843e+09,4.75961e+06,0.00788967,0.384731,0,0.384812,-2848.89,-52671.8,-0,52748.8,4.75961e+06
step02_gravity_refstate-mantle.xmf,561,-1.27898e-05,3.75617e-05,0,2.77308e-05,-1.57433e+09,-1.5676e+09,-1.57262e+09,3.70622e+06,0.0697707,0.296585,0,0.304681,-3206.62,-54702.1,-0,54796,3.70622e+06
step02_gravity_refstate-mantle.xmf,562,-1.34429e-05,4.31393e-05,0,2.59967e-05,-1.59212e+09,-1.58456e+09,-1.59033e+09,3.47445e+06,0.0852919,0.275903,0,0.288786,-3183.2,-55261.8,-0,55353.4,3.47445e+06
step02_gravity_refstate-mantle.xmf,563,-1.93698e-06,3.09661e-05,0,4.24001e-06,-1.68384e+09,-1.67945e+09,-1.68358e+09,566677,0.152515,0.0610135,0,0.164267,-5687.28,-58140.7,-0,58418.2,566677
step02_gravity_refstate-mantle.xmf,564,-1.35901e-05,4.78627e-05,0,2.3917e-05,-1.6094e+09,-1.60119e+09,-1.60758e+09,3.19651e+06,0.0994615,0.252408,0,0.271298,-3164.82,-55806.5,-0,55896.2,3.19651e+06
step02_gravity_refstate-mantle.xmf,565,-1.63142e-06,3.06745e-05,0,1.40043e-06,-1.72458e+09,-1.72026e+09,-1.72436e+09,187168,0.159773,0.0185376,0,0.160845,-5987.17,-59400.3,-0,59701.3,187168
step02_gravity_refstate-mantle.xmf,566,-1.84649e-07,2.79327e-05,0,-4.22231e-08,-1.74391e+09,-1.74015e+09,-1.74388e+09,-5643.11,0.160913,-3.40916e-19,0,0.160913,-6357.24,-60000,-0,60335.8,5643.11
step02_gravity_refstate-mantle.xmf,567,-4.28271e-06,2.19534e-06,0,1.67702e-05,-1.34497e+09,-1.34411e+09,-1.3444e+09,2.24133e+06,-0.0370981,0.28153,-0,0.283963,-5082.98,-47583.7,-0,47854.4,2.24133e+06
step02_gravity_refstate-mantle.xmf,568,-4.01451e-06,4.51189e-06,0,1.12682e-05,-1.29033e+09,-1.28919e+09,-1.28979e+09,1.50599e+06,-0.0333024,0.225663,-0,0.228107,-7114.43,-45903.4,-0,46451.4,1.50599e+06
step02_gravity_refstate-mantle.xmf,569,-1.84423e-06,2.49425e-06,0,9.08742e-06,-1.2193e+09,-1.21872e+09,-1.21905e+09,1.21453e+06,-0.0378703,0.215653,-0,0.218953,-7857.43,-43718.8,-0,44419.3,1.21453e+06
step02_gravity_refstate-mantle.xmf,570,-3.8291e-06,3.44723e-06,0,1.2896e-05,-1.30254e+09,-1.30157e+09,-1.30203e+09,1.72355e+06,-0.0350473,0.244142,-0,0.246644,-6377.27,-46279.2,-0,46716.6,1.72355e+06
step02_gravity_refstate-mantle.xmf,571,-3.26351e-06,1.95451e-06,0,1.45201e-05,-1.31244e+09,-1.31175e+09,-1.31201e+09,1.94061e+06,-0.0369004,0.264308,-0,0.266872,-5663.63,-46585.1,-0,46928.1,1.94061e+06
step02_gravity_refstate-mantle.xmf,572,3.43011e-06,-1.53965e-05,0,2.75952e-05,-1.39835e+09,-1.40086e+09,-1.39881e+09,3.6881e+06,-0.0396023,0.404678,-0,0.406611,-2491.25,-49239,-0,49302,3.6881e+06
step02_gravity_refstate-mantle.xmf,573,1.58448e-05,-2.5487e-05,0,3.69609e-05,-1.42113e+09,-1.42666e+09,-1.42325e+09,4.93983e+06,-0.0350537,0.448482,-0,0.44985,-2000,-50000,-0,50040,4.93983e+06
step02_gravity_refstate-mantle.xmf,574,3.54513e-06,-2.51274e-05,0,3.86233e-05,-1.43996e+09,-1.44379e+09,-1.44043e+09,5.16201e+06,-0.0371084,0.461066,-0,0.462557,-2000,-50500.3,-0,50539.9,5.16201e+06
step02_gravity_refstate-mantle.xmf,575,2.03129e-06,-1.87758e-05,0,4.36404e-05,-1.45594e+09,-1.45873e+09,-1.45622e+09,5.83254e+06,-0.0320315,0.472102,-0,0.473188,-2000,-51000.2,-0,51039.4,5.83254e+06
step02_gravity_refstate-mantle.xmf,576,2.39704e-07,-1.11374e-05,0,4.76935e-05,-1.4719e+09,-1.47342e+09,-1.47193e+09,6.37424e+06,-0.0236956,0.47961,-0,0.480195,-2000,-51500.6,-0,51539.4,6.37424e+06
step02_gravity_refstate-mantle.xmf,577,-6.2576e-06,7.05423e-06,0,4.26908e-05,-1.49785e+09,-1.49607e+09,-1.49702e+09,5.70563e+06,-0.00482986,0.433386,-0,0.433413,-2420.86,-52305.4,-0,52361.4,5.70563e+06
step02_gravity_refstate-mantle.xmf,578,-1.00364e-05,1.97403e-05,0,3.75239e-05,-1.52284e+09,-1.51886e+09,-1.5215e+09,5.01507e+06,0.0183386,0.384956,0,0.385393,-2775.13,-53084.5,-0,53157,5.01507e+06
step02_gravity_refstate-mantle.xmf,579,-1.14608e-05,2.57906e-05,0,3.5371e-05,-1.5376e+09,-1.53262e+09,-1.53607e+09,4.72734e+06,0.0323394,0.363914,0,0.365348,-2879.48,-53546.4,-0,53623.8,4.72734e+06
step02_gravity_refstate-mantle.xmf,580,-1.43691e-05,3.77266e-05,0,3.56913e-05,-1.56691e+09,-1.55995e+09,-1.56499e+09,4.77015e+06,0.0571752,0.344364,0,0.349078,-2785.35,-54462.9,-0,54534.1,4.77015e+06
step02_gravity_refstate-mantle.xmf,581,-3.03781e-06,3.34005e-05,0,3.33074e-06,-1.70623e+09,-1.70136e+09,-1.70582e+09,445153,0.156742,0.0400029,0,0.161766,-5596.79,-58831,-0,59096.6,445153
step02_gravity_refstate-mantle.xmf,582,-3.5237e-06,3.46106e-05,0,6.80746e-06,-1.67175e+09,-1.66665e+09,-1.67128e+09,909817,0.147596,0.0839216,0,0.169787,-5158.01,-57765.8,-0,57995.7,909817
step02_gravity_refstate-mantle.xmf,583,-5.22827e-06,3.83347e-05,0,9.84856e-06,-1.65971e+09,-1.65389e+09,-1.65901e+09,1.31626e+06,0.141116,0.112256,0,0.180319,-4616.35,-57392.1,-0,57577.5,1.31626e+06
step02_gravity_refstate-mantle.xmf,584,-1.33741e-05,5.2305e-05,0,2.17251e-05,-1.62671e+09,-1.61793e+09,-1.62492e+09,2.90356e+06,0.112028,0.22597,0,0.252215,-3148.67,-56354.1,-0,56442,2.90356e+06
step02_gravity_refstate-mantle.xmf,585,-9.76764e-06,4.73013e-05,0,1.70816e-05,-1.6374e+09,-1.62977e+09,-1.63609e+09,2.28295e+06,0.123611,0.183866,0,0.221555,-3582.02,-56695.5,-0,56808.6,2.28295e+06
step02_gravity_refstate-mantle.xmf,586,-7.12162e-06,4.24225e-05,0,1.32665e-05,-1.64815e+09,-1.64153e+09,-1.6472e+09,1.77307e+06,0.133162,0.145708,0,0.19739,-4085.61,-57032.9,-0,57179,1.77307e+06
step02_gravity_refstate-mantle.xmf,587,-2.50027e-06,9.93351e-08,0,1.61097e-05,-1.32229e+09,-1.32194e+09,-1.32195e+09,2.15306e+06,-0.038358,0.284407,-0,0.286982,-5020.1,-46889.5,-0,47157.4,2.15306e+06
step02_gravity_refstate-mantle.xmf,588,-3.31389e-06,-5.35591e-07,0,1.90468e-05,-1.35564e+09,-1.35527e+09,-1.35519e+09,2.54561e+06,-0.0390099,0.306264,-0,0.308738,-4416.49,-47912.6,-0,48115.8,2.54561e+06
step02_gravity_refstate-mantle.xmf,589,-2.39015e-06,-2.94099e-06,0,2.09934e-05,-1.3663e+09,-1.36637e+09,-1.36598e+09,2.80577e+06,-0.0400451,0.327201,-0,0.329642,-3918.37,-48241.9,-0,48400.8,2.80577e+06
step02_gravity_refstate-mantle.xmf,590,-1.48407e-06,-5.33584e-06,0,2.2872e-05,-1.37685e+09,-1.37736e+09,-1.37665e+09,3.05684e+06,-0.0405755,0.346519,-0,0.348886,-3512.77,-48567.8,-0,48694.7,3.05684e+06
step02_gravity_refstate-mantle.xmf,591,6.3202e-07,-9.84403e-06,0,2.54249e-05,-1.38879e+09,-1.39019e+09,-1.38888e+09,3.39804e+06,-0.0406582,0.375664,-0,0.377858,-2968.74,-48939.3,-0,49029.3,3.39804e+06
step02_gravity_refstate-mantle.xmf,592,-2.78702e-06,3.03736e-06,0,1.09004e-05,-1.26308e+09,-1.2623e+09,-1.26271e+09,1.45684e+06,-0.0357589,0.228538,-0,0.231319,-7123.73,-45066.3,-0,45625.8,1.45684e+06
step02_gravity_refstate-mantle.xmf,593,-1.26387e-06,2.12955e-06,0,7.43185e-06,-1.17766e+09,-1.1772e+09,-1.17749e+09,993266,-0.0412414,0.204571,-0,0.208686,-8562.33,-42435.3,-0,43290.5,993266
step02_gravity_refstate-mantle.xmf,594,-1.59631e-06,1.95e-06,0,1.02396e-05,-1.2351e+09,-1.23462e+09,-1.23488e+09,1.36852e+06,-0.0378359,0.230787,-0,0.233868,-7117.68,-44207,-0,44776.3,1.36852e+06
step02_gravity_refstate-mantle.xmf,595,-9.44256e-07,1.58637e-06,0,8.38482e-06,-1.19032e+09,-1.18998e+09,-1.19019e+09,1.12063e+06,-0.0406158,0.21732,-0,0.221083,-7864.78,-42827.2,-0,43543.4,1.12063e+06
step02_gravity_refstate-mantle.xmf,596,-1.26503e-06,2.09889e-06,0,6.52224e-06,-1.15464e+09,-1.15419e+09,-1.15447e+09,871697,-0.0436455,0.196972,-0,0.201749,-9063.38,-41724.1,-0,42697.2,871697
step02_gravity_refstate-mantle.xmf,597,-1.73034e-06,2.26801e-06,0,4.44118e-06,-1.09891e+09,-1.09837e+09,-1.09868e+09,593564,-0.0514009,0.182268,-0,0.189377,-10193,-40000,-0,41278.3,593564
step02_gravity_refstate-mantle.xmf,598,-1.42359e-06,2.1546e-06,0,5.49798e-06,-1.12832e+09,-1.12785e+09,-1.12813e+09,734805,-0.0469478,0.188777,-0,0.194527,-9649.97,-40910.4,-0,42033.2,734805
step02_gravity_refstate-mantle.xmf,599,6.15686e-06,-2.04379e-05,0,2.89406e-05,-1.40628e+09,-1.40983e+09,-1.4071e+09,3.86791e+06,-0.037678,0.429435,-0,0.431085,-2135.92,-49489.3,-0,49535.4,3.86791e+06
step02_gravity_refstate-mantle.xmf,600,-2.07354e-06,-2.788e-06,0,5.08282e-05,-1.4879e+09,-1.48799e+09,-1.48762e+09,6.79318e+06,-0.0136007,0.483109,-0,0.483301,-2000,-52000.7,-0,52039.1,6.79318e+06
step02_gravity_refstate-mantle.xmf,601,-8.16804e-06,1.43471e-05,0,4.41773e-05,-1.51375e+09,-1.51075e+09,-1.51266e+09,5.9043e+06,0.0075425,0.428705,0,0.428772,-2415.57,-52802.5,-0,52857.7,5.9043e+06
step02_gravity_refstate-mantle.xmf,602,-1.31099e-05,3.21297e-05,0,3.78504e-05,-1.55269e+09,-1.54664e+09,-1.55094e+09,5.05871e+06,0.0438864,0.365207,0,0.367835,-2733.42,-54017.7,-0,54086.8,5.05871e+06
step02_gravity_refstate-mantle.xmf,603,-1.5696e-05,4.45268e-05,0,3.394e-05,-1.58371e+09,-1.57566e+09,-1.58161e+09,4.53608e+06,0.0718328,0.323343,0,0.331226,-2778.2,-54990.2,-0,55060.4,4.53608e+06
step02_gravity_refstate-mantle.xmf,604,-1.7897e-05,5.22077e-05,0,3.33412e-05,-1.6005e+09,-1.59113e+09,-1.59811e+09,4.45605e+06,0.0838999,0.309287,0,0.320465,-2658.05,-55513.8,-0,55577.4,4.45605e+06
step02_gravity_refstate-mantle.xmf,605,-1.76907e-05,5.72868e-05,0,2.88991e-05,-1.61687e+09,-1.60685e+09,-1.61451e+09,3.86237e+06,0.0984979,0.272989,0,0.290215,-2744.91,-56033.9,-0,56101.1,3.86237e+06
step02_gravity_refstate-mantle.xmf,606,-5.02435e-06,3.69948e-05,0,5.74026e-06,-1.69247e+09,-1.68686e+09,-1.6918e+09,767185,0.152346,0.0623263,0,0.164603,-5096.33,-58402,-0,58624,767185
step02_gravity_refstate-mantle.xmf,607,-5.50231e-06,3.74669e-05,0,1.93933e-06,-1.72756e+09,-1.72181e+09,-1.72682e+09,259192,0.157447,0.0194919,0,0.158649,-5285.55,-59483.8,-0,59718.2,259192
step02_gravity_refstate-mantle.xmf,608,-3.63266e-06,3.42776e-05,0,-4.58285e-08,-1.74413e+09,-1.73906e+09,-1.74364e+09,-6124.98,0.159519,-3.53664e-19,0,0.159519,-5628.36,-60000,-0,60263.4,6124.98
step02_gravity_refstate-mantle.xmf,609,-1.62587e-06,-1.83907e-06,0,1.7734e-05,-1.33378e+09,-1.33381e+09,-1.33357e+09,2.37015e+06,-0.0394065,0.304594,-0,0.307132,-4438.34,-47245.5,-0,47453.5,2.37015e+06
step02_gravity_refstate-mantle.xmf,610,-2.47718e-06,2.22944e-06,0,1.22106e-05,-1.27643e+09,-1.2758e+09,-1.2761e+09,1.63195e+06,-0.0367183,0.245576,-0,0.248306,-6406.35,-45478.6,-0,45927.6,1.63195e+06
step02_gravity_refstate-mantle.xmf,611,-5.67691e-07,8.88823e-07,0,9.47833e-06,-1.20643e+09,-1.20624e+09,-1.20636e+09,1.26678e+06,-0.039808,0.232123,-0,0.235512,-7112.09,-43325.8,-0,43905.6,1.26678e+06
step02_gravity_refstate-mantle.xmf,612,-1.96416e-06,7.76038e-07,0,1.36603e-05,-1.28871e+09,-1.28834e+09,-1.28845e+09,1.8257e+06,-0.0377283,0.263886,-0,0.266569,-5711.81,-45857.6,-0,46211.9,1.8257e+06
step02_gravity_refstate-mantle.xmf,613,-1.15398e-06,-1.02438e-06,0,1.50569e-05,-1.30013e+09,-1.30011e+09,-1.29997e+09,2.01235e+06,-0.0385824,0.28321,-0,0.285826,-5048.17,-46211.1,-0,46486.1,2.01235e+06
step02_gravity_refstate-mantle.xmf,614,4.83136e-06,-1.62626e-05,0,2.50414e-05,-1.3816e+09,-1.38442e+09,-1.38225e+09,3.34679e+06,-0.0391628,0.397032,-0,0.398958,-2483.14,-48728.9,-0,48792.2,3.34679e+06
step02_gravity_refstate-mantle.xmf,615,9.10361e-06,-2.45175e-05,0,2.6819e-05,-1.39222e+09,-1.39672e+09,-1.39344e+09,3.58435e+06,-0.036021,0.430668,-0,0.432172,-1940.2,-49064.4,-0,49102.8,3.58435e+06
step02_gravity_refstate-mantle.xmf,616,1.23708e-05,-3.15044e-05,0,3.00899e-05,-1.40822e+09,-1.41409e+09,-1.40988e+09,4.02152e+06,-0.0339302,0.455953,-0,0.457214,-1730.04,-49562.6,-0,49592.8,4.02152e+06
step02_gravity_refstate-mantle.xmf,617,1.56239e-05,-4.24052e-05,0,2.69249e-05,-1.42258e+09,-1.43034e+09,-1.42467e+09,3.59851e+06,-0.0269788,0.48703,-0,0.487777,-1499.83,-50000,-0,50022.5,3.59851e+06
step02_gravity_refstate-mantle.xmf,618,-4.81984e-06,6.00032e-06,0,5.30807e-05,-1.50393e+09,-1.50249e+09,-1.50329e+09,7.09424e+06,-0.00252085,0.482322,-0,0.482329,-2000,-52500.1,-0,52538.2,7.09424e+06
step02_gravity_refstate-mantle.xmf,619,-1.01918e-05,2.14749e-05,0,4.48261e-05,-1.52914e+09,-1.52491e+09,-1.52778e+09,5.99101e+06,0.0200405,0.419879,0,0.420357,-2418,-53282.5,-0,53337.3,5.99101e+06
step02_gravity_refstate-mantle.xmf,620,-1.24699e-05,2.88085e-05,0,4.46928e-05,-1.54413e+09,-1.53861e+09,-1.54246e+09,5.9732e+06,0.0324642,0.407932,0,0.409222,-2419.94,-53749.1,-0,53803.5,5.9732e+06
step02_gravity_refstate-mantle.xmf,621,-1.49538e-05,3.67781e-05,0,4.45733e-05,-1.56005e+09,-1.55313e+09,-1.55805e+09,5.95722e+06,0.0453752,0.394843,0,0.397442,-2393.07,-54244.5,-0,54297.2,5.95722e+06
step02_gravity_refstate-mantle.xmf,622,-1.72211e-05,4.4552e-05,0,4.26745e-05,-1.57584e+09,-1.56758e+09,-1.57354e+09,5.70345e+06,0.0587804,0.3732,0,0.377801,-2407.28,-54737,-0,54789.9,5.70345e+06
step02_gravity_refstate-mantle.xmf,623,-1.77488e-05,6.12347e-05,0,2.62961e-05,-1.63032e+09,-1.61977e+09,-1.62795e+09,3.51447e+06,0.107843,0.248213,0,0.270628,-2739.22,-56459.3,-0,56525.7,3.51447e+06
step02_gravity_refstate-mantle.xmf,624,-6.75707e-06,3.97131e-05,0,4.32881e-06,-1.71087e+09,-1.70466e+09,-1.70997e+09,578546,0.154409,0.0419341,0,0.160002,-5008.53,-58965.7,-0,59178.1,578546
step02_gravity_refstate-mantle.xmf,625,-6.99896e-06,4.16275e-05,0,9.23734e-06,-1.67991e+09,-1.67341e+09,-1.67898e+09,1.23457e+06,0.146497,0.0891099,0,0.17147,-4557.89,-58012.7,-0,58191.5,1.23457e+06
step02_gravity_refstate-mantle.xmf,626,-8.75276e-06,4.60511e-05,0,1.3119e-05,-1.66712e+09,-1.6598e+09,-1.66595e+09,1.75336e+06,0.139186,0.122155,0,0.185188,-4024.49,-57617.3,-0,57757.7,1.75336e+06
step02_gravity_refstate-mantle.xmf,627,-1.44749e-05,5.87246e-05,0,2.16812e-05,-1.64392e+09,-1.63414e+09,-1.64199e+09,2.8977e+06,0.119546,0.206386,0,0.238509,-2979.25,-56894.7,-0,56972.7,2.8977e+06
step02_gravity_refstate-mantle.xmf,628,-1.06982e-05,5.116e-05,0,1.70045e-05,-1.6559e+09,-1.64763e+09,-1.65447e+09,2.27265e+06,0.130924,0.158938,0,0.205918,-3511.78,-57270.6,-0,57378.2,2.27265e+06
step02_gravity_refstate-mantle.xmf,629,-8.20645e-08,-3.28507e-06,0,1.64425e-05,-1.3116e+09,-1.31203e+09,-1.31159e+09,2.19754e+06,-0.0391159,0.303243,-0,0.305755,-4424.95,-46566.8,-0,46776.6,2.19754e+06
step02_gravity_refstate-mantle.xmf,630,-4.46374e-07,-4.75047e-06,0,1.95498e-05,-1.34508e+09,-1.34565e+09,-1.34502e+09,2.61283e+06,-0.0401038,0.326218,-0,0.328674,-3881,-47594.9,-0,47752.8,2.61283e+06
step02_gravity_refstate-mantle.xmf,631,4.65843e-07,-7.10221e-06,0,2.11051e-05,-1.35677e+09,-1.35778e+09,-1.35683e+09,2.82069e+06,-0.0404252,0.344121,-0,0.346488,-3480.95,-47955.9,-0,48082.1,2.82069e+06
step02_gravity_refstate-mantle.xmf,632,1.81422e-06,-1.04984e-05,0,2.34048e-05,-1.37224e+09,-1.37389e+09,-1.37249e+09,3.12805e+06,-0.0404575,0.368377,-0,0.370592,-3013.64,-48434.4,-0,48528,3.12805e+06
step02_gravity_refstate-mantle.xmf,633,-1.24006e-06,9.42725e-07,0,1.14816e-05,-1.24966e+09,-1.24936e+09,-1.24949e+09,1.53452e+06,-0.0380233,0.246886,-0,0.249797,-6404.31,-44656.5,-0,45113.4,1.53452e+06
step02_gravity_refstate-mantle.xmf,634,-2.12133e-07,8.56718e-07,0,7.37595e-06,-1.15753e+09,-1.15739e+09,-1.1575e+09,985796,-0.0440745,0.21694,-0,0.221372,-7949.38,-41817.4,-0,42566.2,985796
step02_gravity_refstate-mantle.xmf,635,-1.09411e-07,5.9867e-08,0,1.05405e-05,-1.22232e+09,-1.2223e+09,-1.22231e+09,1.40874e+06,-0.0391584,0.247602,-0,0.250679,-6390.33,-43817.4,-0,44281,1.40874e+06
step02_gravity_refstate-mantle.xmf,636,3.26976e-07,1.04744e-07,0,8.54121e-06,-1.17735e+09,-1.17738e+09,-1.1774e+09,1.14153e+06,-0.0420004,0.232799,-0,0.236557,-7100.75,-42431.4,-0,43021.4,1.14153e+06
step02_gravity_refstate-mantle.xmf,637,-3.25723e-07,1.00362e-06,0,6.06325e-06,-1.12715e+09,-1.12697e+09,-1.1271e+09,810353,-0.048088,0.207429,-0,0.21293,-8536.03,-40878.5,-0,41760.2,810353
step02_gravity_refstate-mantle.xmf,638,-6.83257e-07,1.27667e-06,0,4.83526e-06,-1.09876e+09,-1.0985e+09,-1.09867e+09,646232,-0.052748,0.199428,-0,0.206286,-9083.97,-40000,-0,41018.5,646232
step02_gravity_refstate-mantle.xmf,639,1.84588e-05,-4.33021e-05,0,2.36272e-05,-1.40869e+09,-1.41694e+09,-1.41115e+09,3.15777e+06,-0.0265995,0.48357,-0,0.484301,-1260.58,-49587.5,-0,49603.5,3.15777e+06
step02_gravity_refstate-mantle.xmf,640,-7.88771e-06,1.50859e-05,0,5.44782e-05,-1.52e+09,-1.51693e+09,-1.51895e+09,7.28101e+06,0.00911603,0.477074,0,0.477161,-2000,-52999.3,-0,53037,7.28101e+06
step02_gravity_refstate-mantle.xmf,641,-1.91688e-05,5.11328e-05,0,4.17645e-05,-1.58901e+09,-1.57961e+09,-1.58645e+09,5.58182e+06,0.0688931,0.357777,0,0.36435,-2368.71,-55147.7,-0,55198.6,5.58182e+06
step02_gravity_refstate-mantle.xmf,642,-2.22041e-05,6.30273e-05,0,3.73938e-05,-1.6118e+09,-1.60041e+09,-1.60883e+09,4.99768e+06,0.0866569,0.318283,0,0.329869,-2356.57,-55861.8,-0,55911.5,4.99768e+06
step02_gravity_refstate-mantle.xmf,643,-2.26537e-05,6.78566e-05,0,3.36752e-05,-1.62455e+09,-1.61246e+09,-1.62153e+09,4.50069e+06,0.0964594,0.289771,0,0.305404,-2379.87,-56265.2,-0,56315.5,4.50069e+06
step02_gravity_refstate-mantle.xmf,644,-9.91787e-06,4.54433e-05,0,7.18483e-06,-1.70194e+09,-1.69454e+09,-1.70061e+09,960253,0.148813,0.0621867,0,0.161284,-4448.54,-58683.4,-0,58851.7,960253
step02_gravity_refstate-mantle.xmf,645,-1.0598e-05,4.59634e-05,0,3.45403e-06,-1.7252e+09,-1.71764e+09,-1.72378e+09,461631,0.151558,0.0278188,0,0.15409,-4569.04,-59398.7,-0,59574.2,461631
step02_gravity_refstate-mantle.xmf,646,-8.17545e-06,4.18881e-05,0,-9.38688e-08,-1.74448e+09,-1.73779e+09,-1.74339e+09,-12545.6,0.155416,-5.1407e-19,0,0.155416,-4930.91,-60000,-0,60202.3,12545.6
step02_gravity_refstate-mantle.xmf,647,1.27815e-06,-5.90186e-06,0,1.77911e-05,-1.32349e+09,-1.32444e+09,-1.32366e+09,2.37778e+06,-0.0392442,0.32433,-0,0.326696,-3834.4,-46936.4,-0,47092.8,2.37778e+06
step02_gravity_refstate-mantle.xmf,648,5.98598e-06,-1.63267e-05,0,2.24054e-05,-1.36428e+09,-1.36726e+09,-1.36508e+09,2.99449e+06,-0.0379861,0.387464,-0,0.389322,-2504.98,-48201.3,-0,48266.4,2.99449e+06
step02_gravity_refstate-mantle.xmf,649,-6.72146e-07,-2.20454e-07,0,1.26552e-05,-1.26333e+09,-1.26327e+09,-1.26324e+09,1.69137e+06,-0.0382768,0.263984,-0,0.266745,-5714.76,-45079.9,-0,45440.7,1.69137e+06
step02_gravity_refstate-mantle.xmf,650,8.5854e-07,-7.93311e-07,0,9.56441e-06,-1.19476e+09,-1.19498e+09,-1.19487e+09,1.27828e+06,-0.0403905,0.247794,-0,0.251065,-6365.8,-42970.3,-0,43439.2,1.27828e+06
step02_gravity_refstate-mantle.xmf,651,1.38797e-07,-2.01092e-06,0,1.38593e-05,-1.27613e+09,-1.27642e+09,-1.27615e+09,1.85229e+06,-0.0384372,0.28203,-0,0.284637,-5050.48,-45476,-0,45755.6,1.85229e+06
step02_gravity_refstate-mantle.xmf,652,1.23555e-06,-4.16432e-06,0,1.4966e-05,-1.28846e+09,-1.28918e+09,-1.28863e+09,2.00021e+06,-0.038337,0.300877,-0,0.30331,-4416.01,-45858.7,-0,46070.9,2.00021e+06
step02_gravity_refstate-mantle.xmf,653,9.90898e-06,-2.3222e-05,0,2.28943e-05,-1.37351e+09,-1.37794e+09,-1.37484e+09,3.05982e+06,-0.0348751,0.415226,-0,0.416688,-1980.01,-48495.2,-0,48535.6,3.05982e+06
step02_gravity_refstate-mantle.xmf,654,1.49698e-05,-3.45839e-05,0,2.49896e-05,-1.39716e+09,-1.40379e+09,-1.39917e+09,3.33986e+06,-0.0308561,0.45819,-0,0.459227,-1492.26,-49230.5,-0,49253.1,3.33986e+06
step02_gravity_refstate-mantle.xmf,655,1.76322e-05,-5.13744e-05,0,1.80328e-05,-1.42289e+09,-1.43211e+09,-1.42525e+09,2.41009e+06,-0.0186461,0.515838,-0,0.516174,-1000,-50000,-0,50010,2.41009e+06
step02_gravity_refstate-mantle.xmf,656,-1.1189e-05,2.4376e-05,0,5.50566e-05,-1.53612e+09,-1.53137e+09,-1.53463e+09,7.35831e+06,0.0210908,0.467227,0,0.467703,-2000,-53498.9,-0,53536.3,7.35831e+06
step02_gravity_refstate-mantle.xmf,657,-1.45819e-05,3.37852e-05,0,5.4815e-05,-1.55227e+09,-1.54581e+09,-1.55033e+09,7.32603e+06,0.0332597,0.452677,0,0.453897,-2000,-53999.2,-0,54036.2,7.32603e+06
step02_gravity_refstate-mantle.xmf,658,-1.80362e-05,4.34141e-05,0,5.37282e-05,-1.56842e+09,-1.56021e+09,-1.56601e+09,7.18077e+06,0.0454989,0.433373,0,0.435755,-2000,-54499.5,-0,54536.2,7.18077e+06
step02_gravity_refstate-mantle.xmf,659,-2.13013e-05,5.29763e-05,0,5.17894e-05,-1.58451e+09,-1.57458e+09,-1.58166e+09,6.92165e+06,0.0576864,0.409302,0,0.413347,-2000,-54999.2,-0,55035.5,6.92165e+06
step02_gravity_refstate-mantle.xmf,660,-2.44698e-05,6.25048e-05,0,4.88984e-05,-1.60057e+09,-1.58894e+09,-1.5973e+09,6.53527e+06,0.0696209,0.380415,0,0.386734,-2000,-55498.3,-0,55534.3,6.53527e+06
step02_gravity_refstate-mantle.xmf,661,-2.73564e-05,7.22721e-05,0,4.50815e-05,-1.61655e+09,-1.60323e+09,-1.61289e+09,6.02515e+06,0.0810232,0.346768,0,0.356108,-2000,-55997.8,-0,56033.5,6.02515e+06
step02_gravity_refstate-mantle.xmf,662,-2.20711e-05,7.19034e-05,0,2.846e-05,-1.63973e+09,-1.62717e+09,-1.63678e+09,3.80368e+06,0.10725,0.251596,0,0.273501,-2432.99,-56748,-0,56800.2,3.80368e+06
step02_gravity_refstate-mantle.xmf,663,-1.18568e-05,5.04515e-05,0,1.20944e-05,-1.68583e+09,-1.6775e+09,-1.68424e+09,1.61641e+06,0.141475,0.0974743,0,0.171803,-3936.11,-58185.6,-0,58318.6,1.61641e+06
step02_gravity_refstate-mantle.xmf,664,-1.35772e-05,5.56524e-05,0,1.67299e-05,-1.67404e+09,-1.66479e+09,-1.67223e+09,2.23595e+06,0.133882,0.131971,0,0.187991,-3449.09,-57823.4,-0,57926.1,2.23595e+06
step02_gravity_refstate-mantle.xmf,665,-1.52168e-05,6.20997e-05,0,2.10052e-05,-1.66333e+09,-1.65299e+09,-1.66129e+09,2.80734e+06,0.125363,0.170928,0,0.211972,-2960.6,-57497.8,-0,57574,2.80734e+06
step02_gravity_refstate-mantle.xmf,666,-1.40987e-05,5.16028e-05,0,6.2737e-06,-1.71538e+09,-1.7066e+09,-1.71349e+09,838480,0.145549,0.0478197,0,0.153203,-4113.05,-59086.3,-0,59229.3,838480
step02_gravity_refstate-mantle.xmf,667,2.67006e-06,-6.86403e-06,0,1.59624e-05,-1.30054e+09,-1.30182e+09,-1.3009e+09,2.13338e+06,-0.0378213,0.320608,-0,0.322831,-3808.47,-46234.6,-0,46391.2,2.13338e+06
step02_gravity_refstate-mantle.xmf,668,3.1745e-06,-9.86954e-06,0,1.94221e-05,-1.33756e+09,-1.3393e+09,-1.33798e+09,2.59576e+06,-0.0388272,0.349212,-0,0.351364,-3219.69,-47373.7,-0,47483,2.59576e+06
step02_gravity_refstate-mantle.xmf,669,3.47544e-06,-1.16343e-05,0,2.13364e-05,-1.35573e+09,-1.35775e+09,-1.35619e+09,2.85161e+06,-0.0393775,0.364963,-0,0.367081,-2963.6,-47932.4,-0,48023.9,2.85161e+06
step02_gravity_refstate-mantle.xmf,670,4.38256e-07,-1.16476e-06,0,1.1613e-05,-1.23737e+09,-1.23758e+09,-1.23743e+09,1.55207e+06,-0.0386367,0.263315,-0,0.266135,-5717.91,-44282.7,-0,44650.4,1.55207e+06
step02_gravity_refstate-mantle.xmf,671,1.1436e-06,-5.33341e-07,0,7.50367e-06,-1.15002e+09,-1.15024e+09,-1.15017e+09,1.00287e+06,-0.0444699,0.233936,-0,0.238125,-7031.67,-41590.9,-0,42181.1,1.00287e+06
step02_gravity_refstate-mantle.xmf,672,9.96909e-07,-3.16254e-07,0,6.40376e-06,-1.12524e+09,-1.12541e+09,-1.12537e+09,855862,-0.0479916,0.225679,-0,0.230725,-7476.88,-40824.9,-0,41504,855862
step02_gravity_refstate-mantle.xmf,673,1.39477e-06,-1.75197e-06,0,1.04795e-05,-1.21129e+09,-1.21171e+09,-1.21148e+09,1.40058e+06,-0.0390609,0.262272,-0,0.265165,-5711.55,-43482.2,-0,43855.7,1.40058e+06
step02_gravity_refstate-mantle.xmf,674,1.93856e-06,-1.62915e-06,0,8.4114e-06,-1.16493e+09,-1.1654e+09,-1.16518e+09,1.12418e+06,-0.0419102,0.2498,-0,0.253291,-6208.81,-42053.9,-0,42509.7,1.12418e+06
step02_gravity_refstate-mantle.xmf,675,1.49278e-05,-3.24274e-05,0,2.18257e-05,-1.38273e+09,-1.38906e+09,-1.38473e+09,2.917e+06,-0.029613,0.444523,-0,0.445509,-1468.87,-48789.9,-0,48812,2.917e+06
step02_gravity_refstate-mantle.xmf,676,6.01182e-07,1.10593e-07,0,5.11777e-06,-1.09858e+09,-1.09865e+09,-1.09866e+09,683990,-0.0527999,0.216723,-0,0.223062,-8006.22,-40000,-0,40793.4,683990
step02_gravity_refstate-mantle.xmf,677,1.94888e-05,-4.18889e-05,0,1.88325e-05,-1.39413e+09,-1.40233e+09,-1.39673e+09,2.51697e+06,-0.0233568,0.473533,-0,0.474109,-1061.62,-49148.2,-0,49159.7,2.51697e+06
step02_gravity_refstate-mantle.xmf,678,2.12063e-05,-5.03262e-05,0,1.47276e-05,-1.40853e+09,-1.41809e+09,-1.41136e+09,1.96835e+06,-0.0170894,0.503291,-0,0.503581,-779.598,-49583,-0,49589.1,1.96835e+06
step02_gravity_refstate-mantle.xmf,679,-2.97234e-05,8.17939e-05,0,3.99766e-05,-1.63246e+09,-1.61756e+09,-1.62849e+09,5.34287e+06,0.0913789,0.308274,0,0.321532,-2000,-56497.8,-0,56533.2,5.34287e+06
step02_gravity_refstate-mantle.xmf,680,-2.04334e-05,7.38242e-05,0,2.41319e-05,-1.65506e+09,-1.64247e+09,-1.65233e+09,3.22522e+06,0.114969,0.212793,0,0.241865,-2479.47,-57237.7,-0,57291.4,3.22522e+06
step02_gravity_refstate-mantle.xmf,681,-1.56878e-05,5.4527e-05,0,9.49822e-06,-1.70355e+09,-1.69417e+09,-1.70145e+09,1.26944e+06,0.140761,0.0723102,0,0.158248,-3814.77,-58717.8,-0,58841.6,1.26944e+06
step02_gravity_refstate-mantle.xmf,682,-1.67166e-05,5.507e-05,0,3.61897e-06,-1.72965e+09,-1.72006e+09,-1.72742e+09,483675,0.142995,0.0265945,0,0.145447,-3935.97,-59518.6,-0,59648.6,483675
step02_gravity_refstate-mantle.xmf,683,-1.37917e-05,5.05898e-05,0,-4.97047e-08,-1.74497e+09,-1.73637e+09,-1.74313e+09,-6643.04,0.14806,-4.76218e-19,0,0.14806,-4262.05,-60000,-0,60151.2,6643.04
step02_gravity_refstate-mantle.xmf,684,4.51829e-06,-1.01764e-05,0,1.68016e-05,-1.3127e+09,-1.31466e+09,-1.3133e+09,2.24554e+06,-0.0366853,0.341721,-0,0.343684,-3213.96,-46613.9,-0,46724.6,2.24554e+06
step02_gravity_refstate-mantle.xmf,685,6.90167e-06,-1.59275e-05,0,1.96191e-05,-1.34523e+09,-1.34828e+09,-1.34615e+09,2.62209e+06,-0.0361437,0.377446,-0,0.379172,-2521.59,-47620.1,-0,47686.8,2.62209e+06
step02_gravity_refstate-mantle.xmf,686,1.04676e-05,-2.20051e-05,0,1.94455e-05,-1.35456e+09,-1.3589e+09,-1.35596e+09,2.59889e+06,-0.0326619,0.402223,-0,0.403547,-1977.96,-47916.4,-0,47957.3,2.59889e+06
step02_gravity_refstate-mantle.xmf,687,1.24119e-06,-2.65225e-06,0,1.2574e-05,-1.25124e+09,-1.25176e+09,-1.25141e+09,1.68052e+06,-0.0380916,0.280228,-0,0.282805,-5050.24,-44712.9,-0,44997.2,1.68052e+06
step02_gravity_refstate-mantle.xmf,688,2.14622e-06,-2.23507e-06,0,9.43842e-06,-1.18764e+09,-1.18822e+09,-1.18792e+09,1.26144e+06,-0.0396957,0.261006,-0,0.264008,-5702.06,-42755.3,-0,43133.8,1.26144e+06
step02_gravity_refstate-mantle.xmf,689,2.32323e-06,-4.71952e-06,0,1.34364e-05,-1.26415e+09,-1.26509e+09,-1.26446e+09,1.79577e+06,-0.0373312,0.297762,-0,0.300093,-4408.88,-45113.7,-0,45328.6,1.79577e+06
step02_gravity_refstate-mantle.xmf,690,3.73275e-06,-7.24046e-06,0,1.41224e-05,-1.27686e+09,-1.27833e+09,-1.27736e+09,1.88745e+06,-0.0361521,0.316322,-0,0.318381,-3778.78,-45509.3,-0,45665.9,1.88745e+06
step02_gravity_refstate-mantle.xmf,691,1.47693e-05,-2.92942e-05,0,1.78964e-05,-1.36417e+09,-1.37006e+09,-1.36615e+09,2.39185e+06,-0.027336,0.427849,-0,0.428722,-1448.41,-48223.7,-0,48245.4,2.39185e+06
step02_gravity_refstate-mantle.xmf,692,1.87342e-05,-5.59348e-05,0,8.97109e-06,-1.42303e+09,-1.43301e+09,-1.42553e+09,1.19899e+06,-0.00950601,0.53327,-0,0.533355,-500.172,-50000,-0,50002.5,1.19899e+06
step02_gravity_refstate-mantle.xmf,693,-3.15787e-05,9.10982e-05,0,3.33134e-05,-1.64829e+09,-1.6319e+09,-1.64407e+09,4.45234e+06,0.0996894,0.265081,0,0.283207,-2000,-56998.3,-0,57033.3,4.45234e+06
step02_gravity_refstate-mantle.xmf,694,-1.84929e-05,6.07859e-05,0,1.41924e-05,-1.69268e+09,-1.68208e+09,-1.69021e+09,1.89681e+06,0.133081,0.102145,0,0.167762,-3369.7,-58379.3,-0,58476.4,1.89681e+06
step02_gravity_refstate-mantle.xmf,695,-2.04856e-05,6.75406e-05,0,1.99289e-05,-1.68098e+09,-1.66921e+09,-1.67824e+09,2.6635e+06,0.124695,0.138905,0,0.186664,-2915.52,-58021.8,-0,58095,2.6635e+06
step02_gravity_refstate-mantle.xmf,696,-1.85771e-05,7.65901e-05,0,2.65213e-05,-1.67087e+09,-1.65815e+09,-1.66839e+09,3.54457e+06,0.115511,0.176361,0,0.210822,-2444.53,-57745.4,-0,57797.1,3.54457e+06
step02_gravity_refstate-mantle.xmf,697,-1.85456e-05,5.80413e-05,0,6.97365e-06,-1.71685e+09,-1.70662e+09,-1.71437e+09,932028,0.138629,0.0517929,0,0.147988,-3688.38,-59118.6,-0,59233.5,932028
step02_gravity_refstate-mantle.xmf,698,5.49923e-06,-1.03139e-05,0,1.45531e-05,-1.28935e+09,-1.29146e+09,-1.29008e+09,1.94502e+06,-0.0343909,0.335518,-0,0.337276,-3173.29,-45898.8,-0,46008.4,1.94502e+06
step02_gravity_refstate-mantle.xmf,699,2.16536e-06,-3.19052e-06,0,1.12835e-05,-1.22539e+09,-1.22611e+09,-1.22568e+09,1.50804e+06,-0.0378149,0.277637,-0,0.2802,-5060.54,-43919.2,-0,44209.8,1.50804e+06
step02_gravity_refstate-mantle.xmf,700,2.48604e-06,-1.83932e-06,0,6.83481e-06,-1.12965e+09,-1.13022e+09,-1.12998e+09,913472,-0.0454744,0.245016,-0,0.249201,-6370.4,-40967.2,-0,41459.6,913472
step02_gravity_refstate-mantle.xmf,701,2.10182e-06,-1.20818e-06,0,5.24305e-06,-1.09837e+09,-1.09881e+09,-1.09865e+09,700733,-0.0513918,0.233767,-0,0.239349,-6955.6,-40000,-0,40600.2,700733
step02_gravity_refstate-mantle.xmf,702,2.91005e-06,-3.42164e-06,0,9.98046e-06,-1.19885e+09,-1.19969e+09,-1.19924e+09,1.33389e+06,-0.0378861,0.274444,-0,0.277047,-5083.32,-43103.6,-0,43402.3,1.33389e+06
step02_gravity_refstate-mantle.xmf,703,3.47044e-06,-3.4707e-06,0,8.61749e-06,-1.16941e+09,-1.17034e+09,-1.16987e+09,1.15173e+06,-0.0389366,0.269116,-0,0.271918,-5197.98,-42197.9,-0,42516.8,1.15173e+06
step02_gravity_refstate-mantle.xmf,704,1.96851e-05,-3.89227e-05,0,1.35405e-05,-1.37513e+09,-1.38297e+09,-1.37776e+09,1.80969e+06,-0.0188229,0.455808,-0,0.456196,-882.927,-48570.4,-0,48578.4,1.80969e+06
step02_gravity_refstate-mantle.xmf,705,2.27747e-05,-4.83543e-05,0,8.86295e-06,-1.39387e+09,-1.40338e+09,-1.39692e+09,1.18453e+06,-0.011366,0.488954,-0,0.489086,-493.865,-49145.9,-0,49148.3,1.18453e+06
step02_gravity_refstate-mantle.xmf,706,2.19622e-05,-5.35015e-05,0,6.68273e-06,-1.41025e+09,-1.42034e+09,-1.41319e+09,893148,-0.00803633,0.515787,-0,0.515849,-364.496,-49633.1,-0,49634.4,893148
step02_gravity_refstate-mantle.xmf,707,-3.12507e-05,9.99862e-05,0,2.28517e-05,-1.66367e+09,-1.64613e+09,-1.65949e+09,3.05413e+06,0.104038,0.217414,0,0.241024,-2000,-57498.2,-0,57532.9,3.05413e+06
step02_gravity_refstate-mantle.xmf,708,-2.24899e-05,6.4038e-05,0,9.71223e-06,-1.71005e+09,-1.69849e+09,-1.70705e+09,1.29804e+06,0.130686,0.0715239,0,0.148978,-3290.6,-58897.5,-0,58989.4,1.29804e+06
step02_gravity_refstate-mantle.xmf,709,-2.39232e-05,6.52485e-05,0,4.58447e-06,-1.7287e+09,-1.71678e+09,-1.7255e+09,612715,0.129784,0.0347816,0,0.134364,-3282.32,-59467,-0,59557.5,612715
step02_gravity_refstate-mantle.xmf,710,-2.04436e-05,6.018e-05,0,-4.88469e-08,-1.74562e+09,-1.73484e+09,-1.74289e+09,-6528.39,0.137056,-6.18671e-19,0,0.137056,-3618.49,-60000,-0,60109,6528.39
step02_gravity_refstate-mantle.xmf,711,7.01508e-06,-1.45896e-05,0,1.72062e-05,-1.32382e+09,-1.32671e+09,-1.32476e+09,2.29961e+06,-0.0344412,0.364198,-0,0.365823,-2619.23,-46962.9,-0,47035.9,2.29961e+06
step02_gravity_refstate-mantle.xmf,712,7.68664e-06,-1.40778e-05,0,1.45602e-05,-1.30121e+09,-1.30412e+09,-1.30224e+09,1.94597e+06,-0.0316527,0.355585,-0,0.356991,-2572.22,-46270.3,-0,46341.7,1.94597e+06
step02_gravity_refstate-mantle.xmf,713,1.06005e-05,-2.03436e-05,0,1.63812e-05,-1.33427e+09,-1.33841e+09,-1.33569e+09,2.18935e+06,-0.0301812,0.388976,-0,0.390145,-1980.78,-47295,-0,47336.5,2.18935e+06
step02_gravity_refstate-mantle.xmf,714,1.4283e-05,-2.6465e-05,0,1.45325e-05,-1.34457e+09,-1.35001e+09,-1.34647e+09,1.94227e+06,-0.0246034,0.411886,-0,0.41262,-1419.8,-47621.9,-0,47643.1,1.94227e+06
step02_gravity_refstate-mantle.xmf,715,3.16063e-06,-4.96066e-06,0,1.19797e-05,-1.23973e+09,-1.24082e+09,-1.24015e+09,1.60109e+06,-0.0363831,0.294252,-0,0.296493,-4403.39,-44364.3,-0,44582.3,1.60109e+06
step02_gravity_refstate-mantle.xmf,716,3.29048e-06,-2.85542e-06,0,7.62005e-06,-1.14699e+09,-1.14781e+09,-1.14743e+09,1.01842e+06,-0.0416375,0.25934,-0,0.262661,-5620.91,-41505.8,-0,41884.6,1.01842e+06
step02_gravity_refstate-mantle.xmf,717,4.51742e-06,-7.28746e-06,0,1.23822e-05,-1.25247e+09,-1.25405e+09,-1.25307e+09,1.65488e+06,-0.0345208,0.311481,-0,0.313388,-3754.41,-44760.9,-0,44918.1,1.65488e+06
step02_gravity_refstate-mantle.xmf,718,6.15481e-06,-1.00536e-05,0,1.25082e-05,-1.26544e+09,-1.26761e+09,-1.26627e+09,1.67172e+06,-0.0321013,0.329287,-0,0.330848,-3122.51,-45165.5,-0,45273.3,1.67172e+06
step02_gravity_refstate-mantle.xmf,719,1.77198e-05,-3.23769e-05,0,1.11376e-05,-1.35379e+09,-1.36048e+09,-1.35616e+09,1.48854e+06,-0.017644,0.431903,-0,0.432264,-917.878,-47914.7,-0,47923.5,1.48854e+06
step02_gravity_refstate-mantle.xmf,720,1.93061e-05,-5.77397e-05,0,2.40276e-07,-1.42305e+09,-1.43335e+09,-1.42563e+09,32112.9,-8.06594e-06,0.539102,-0,0.539102,0,-50000,0,50000,32112.9
step02_gravity_refstate-mantle.xmf,721,-2.79313e-05,7.22453e-05,0,1.32705e-05,-1.70013e+09,-1.68675e+09,-1.6964e+09,1.7736e+06,0.120135,0.102733,0,0.158071,-2828.7,-58575.8,-0,58644,1.7736e+06
step02_gravity_refstate-mantle.xmf,722,-3.46564e-05,8.06675e-05,0,1.44772e-05,-1.69055e+09,-1.67513e+09,-1.68592e+09,1.93488e+06,0.110016,0.136962,0,0.175676,-2419.7,-58256.2,-0,58306.4,1.93488e+06
step02_gravity_refstate-mantle.xmf,723,-4.01977e-05,7.98867e-05,0,1.28181e-05,-1.68352e+09,-1.66747e+09,-1.67815e+09,1.71314e+06,0.098609,0.165772,0,0.192884,-2000,-58000,-0,58034.5,1.71314e+06
step02_gravity_refstate-mantle.xmf,724,8.11884e-06,-1.33108e-05,0,1.21764e-05,-1.27806e+09,-1.28092e+09,-1.27914e+09,1.62738e+06,-0.0288789,0.347348,-0,0.348546,-2508.68,-45559.9,-0,45628.9,1.62738e+06
step02_gravity_refstate-mantle.xmf,725,3.89051e-06,-5.09113e-06,0,1.05137e-05,-1.21342e+09,-1.21462e+09,-1.21394e+09,1.40516e+06,-0.0356714,0.290142,-0,0.292327,-4404.75,-43556,-0,43778.2,1.40516e+06
step02_gravity_refstate-mantle.xmf,726,4.20503e-06,-3.4231e-06,0,6.42187e-06,-1.12351e+09,-1.12453e+09,-1.12407e+09,858282,-0.0427862,0.261318,-0,0.264797,-5370.97,-40785.1,-0,41137.2,858282
step02_gravity_refstate-mantle.xmf,727,3.74906e-06,-2.62717e-06,0,5.1763e-06,-1.09813e+09,-1.09898e+09,-1.09863e+09,691813,-0.0483963,0.250113,-0,0.254752,-5927.94,-40000,-0,40436.9,691813
step02_gravity_refstate-mantle.xmf,728,4.46925e-06,-5.01204e-06,0,9.10944e-06,-1.18593e+09,-1.1872e+09,-1.18653e+09,1.21748e+06,-0.0355242,0.285515,-0,0.287716,-4423.04,-42711.1,-0,42939.5,1.21748e+06
step02_gravity_refstate-mantle.xmf,729,4.44179e-06,-3.97546e-06,0,7.2516e-06,-1.14339e+09,-1.14452e+09,-1.14399e+09,969176,-0.0393501,0.270201,-0,0.273051,-4966.61,-41399.5,-0,41696.3,969176
step02_gravity_refstate-mantle.xmf,730,2.0368e-05,-3.78474e-05,0,6.06414e-06,-1.36142e+09,-1.3692e+09,-1.36414e+09,810472,-0.0089891,0.447722,-0,0.447813,-434.635,-48154.1,-0,48156,810472
step02_gravity_refstate-mantle.xmf,731,2.2182e-05,-4.31572e-05,0,5.90453e-06,-1.3772e+09,-1.38593e+09,-1.38016e+09,789140,-0.00814169,0.467926,-0,0.467997,-364.743,-48640,-0,48641.4,789140
step02_gravity_refstate-mantle.xmf,732,2.31874e-05,-5.31047e-05,0,-2.92999e-07,-1.40535e+09,-1.41555e+09,-1.40845e+09,-39159.4,-3.80534e-07,0.511011,-0,0.511011,0,-49491.1,0,49491.1,39159.4
step02_gravity_refstate-mantle.xmf,733,-2.97819e-05,7.38364e-05,0,7.52816e-06,-1.71823e+09,-1.70438e+09,-1.71425e+09,1.00614e+06,0.116226,0.063962,0,0.132664,-2754.17,-59126.3,-0,59190.4,1.00614e+06
step02_gravity_refstate-mantle.xmf,734,-2.73508e-05,6.97081e-05,0,2.81643e-09,-1.74633e+09,-1.73335e+09,-1.74267e+09,376.416,0.122187,-4.85752e-19,0,0.122187,-2996.03,-60000,-0,60074.8,376.416
step02_gravity_refstate-mantle.xmf,735,1.04348e-05,-1.87148e-05,0,1.37675e-05,-1.31267e+09,-1.31657e+09,-1.31407e+09,1.84003e+06,-0.0275318,0.376316,-0,0.377322,-1970.46,-46630.9,-0,46672.5,1.84003e+06
step02_gravity_refstate-mantle.xmf,736,1.03307e-05,-1.71456e-05,0,1.12826e-05,-1.29042e+09,-1.29409e+09,-1.2918e+09,1.50792e+06,-0.0246069,0.365408,-0,0.366235,-1910.84,-45946.7,-0,45986.4,1.50792e+06
step02_gravity_refstate-mantle.xmf,737,1.36345e-05,-2.37313e-05,0,1.16709e-05,-1.32406e+09,-1.32905e+09,-1.32588e+09,1.55981e+06,-0.0217526,0.396995,-0,0.39759,-1377.78,-46991.1,-0,47011.2,1.55981e+06
step02_gravity_refstate-mantle.xmf,738,1.64067e-05,-2.8529e-05,0,8.67801e-06,-1.33449e+09,-1.34049e+09,-1.33668e+09,1.15982e+06,-0.0151063,0.414651,-0,0.414926,-865.631,-47319.6,-0,47327.5,1.15982e+06
step02_gravity_refstate-mantle.xmf,739,5.04725e-06,-7.06665e-06,0,1.08141e-05,-1.2273e+09,-1.22892e+09,-1.22798e+09,1.4453e+06,-0.0332038,0.306055,-0,0.307851,-3748.51,-43987.5,-0,44147,1.4453e+06
step02_gravity_refstate-mantle.xmf,740,5.08534e-06,-5.00075e-06,0,7.71008e-06,-1.15792e+09,-1.15927e+09,-1.1586e+09,1.03045e+06,-0.0359265,0.281612,-0,0.283894,-4399.39,-41850,-0,42080.6,1.03045e+06
step02_gravity_refstate-mantle.xmf,741,8.26365e-06,-1.23359e-05,0,1.01676e-05,-1.25399e+09,-1.25674e+09,-1.2551e+09,1.3589e+06,-0.0263592,0.339118,-0,0.340141,-2444.62,-44820,-0,44886.6,1.3589e+06
step02_gravity_refstate-mantle.xmf,742,6.55877e-06,-9.52401e-06,0,1.06935e-05,-1.24064e+09,-1.24279e+09,-1.24152e+09,1.42918e+06,-0.030103,0.322645,-0,0.324047,-3083.39,-44403.5,-0,44510.4,1.42918e+06
step02_gravity_refstate-mantle.xmf,743,1.84484e-05,-3.22215e-05,0,4.89005e-06,-1.34253e+09,-1.3493e+09,-1.345e+09,653555,-0.00825356,0.427412,-0,0.427491,-441.34,-47572.2,-0,47574.3,653555
step02_gravity_refstate-mantle.xmf,744,2.32862e-05,-4.75669e-05,0,7.60213e-08,-1.3876e+09,-1.39707e+09,-1.39071e+09,10160.3,-8.16354e-08,0.48428,-0,0.48428,0,-48957.5,0,48957.5,10160.3
step02_gravity_refstate-mantle.xmf,745,2.18318e-05,-4.1277e-05,0,-5.65709e-08,-1.36925e+09,-1.37768e+09,-1.37217e+09,-7560.69,-1.02561e-08,0.459668,-0,0.459668,0,-48397,0,48397,7560.69
step02_gravity_refstate-mantle.xmf,746,2.18414e-05,-5.34587e-05,0,-6.75135e-06,-1.41027e+09,-1.42034e+09,-1.41319e+09,-902318,0.00803656,0.515787,0,0.51585,364.496,-49633.1,0,49634.4,902318
step02_gravity_refstate-mantle.xmf,747,1.88664e-05,-5.61482e-05,0,-8.72463e-06,-1.42302e+09,-1.43304e+09,-1.42554e+09,-1.16605e+06,0.00952203,0.53327,0,0.533355,500.172,-50000,0,50002.5,1.16605e+06
step02_gravity_refstate-mantle.xmf,748,-3.49852e-05,8.05319e-05,0,9.0041e-06,-1.70763e+09,-1.69219e+09,-1.70295e+09,1.2034e+06,0.100558,0.0977641,0,0.140249,-2236.81,-58781.3,-0,58823.8,1.2034e+06
step02_gravity_refstate-mantle.xmf,749,-3.83174e-05,8.41471e-05,0,1.27873e-05,-1.69679e+09,-1.68042e+09,-1.69166e+09,1.70902e+06,0.084336,0.133872,0,0.158222,-1749.64,-58433.3,-0,58459.5,1.70902e+06
step02_gravity_refstate-mantle.xmf,750,-3.05648e-05,7.41931e-05,0,3.29705e-06,-1.73396e+09,-1.71996e+09,-1.72987e+09,440651,0.113596,0.0290265,0,0.117246,-2692.61,-59607.9,-0,59668.7,440651
step02_gravity_refstate-mantle.xmf,751,1.01408e-05,-1.54442e-05,0,9.0927e-06,-1.26725e+09,-1.27067e+09,-1.26861e+09,1.21524e+06,-0.0218364,0.355166,-0,0.355837,-1834.75,-45234.2,-0,45271.4,1.21524e+06
step02_gravity_refstate-mantle.xmf,752,5.5372e-06,-6.77413e-06,0,9.31426e-06,-1.20113e+09,-1.20277e+09,-1.20187e+09,1.24485e+06,-0.0322788,0.300654,-0,0.302382,-3739.65,-43183.1,-0,43344.7,1.24485e+06
step02_gravity_refstate-mantle.xmf,753,5.73003e-06,-4.96637e-06,0,6.19299e-06,-1.12712e+09,-1.12855e+09,-1.12789e+09,827693,-0.0375775,0.277046,-0,0.279583,-4391.24,-40902.9,-0,41137.9,827693
step02_gravity_refstate-mantle.xmf,754,5.47208e-06,-4.08287e-06,0,4.88267e-06,-1.09787e+09,-1.09915e+09,-1.0986e+09,652569,-0.0437584,0.265272,-0,0.268857,-4918.91,-40000,-0,40301.3,652569
step02_gravity_refstate-mantle.xmf,755,6.01419e-06,-6.48853e-06,0,7.87589e-06,-1.17337e+09,-1.17505e+09,-1.17418e+09,1.05261e+06,-0.0317917,0.295595,-0,0.2973,-3704.28,-42329.7,-0,42491.5,1.05261e+06
step02_gravity_refstate-mantle.xmf,756,1.97782e-05,-3.54593e-05,0,-1.35531e-08,-1.35015e+09,-1.35753e+09,-1.35279e+09,-1811.37,1.41635e-08,0.437352,0,0.437352,0,-47808.1,0,47808.1,1811.37
step02_gravity_refstate-mantle.xmf,757,2.27466e-05,-4.79093e-05,0,-9.07501e-06,-1.39384e+09,-1.40329e+09,-1.39688e+09,-1.21287e+06,0.0113659,0.488954,0,0.489086,493.868,-49145.9,0,49148.3,1.21287e+06
step02_gravity_refstate-mantle.xmf,758,2.114e-05,-5.03561e-05,0,-1.47657e-05,-1.40855e+09,-1.4181e+09,-1.41137e+09,-1.97343e+06,0.0170892,0.503291,0,0.503581,779.598,-49583,0,49589.1,1.97343e+06
step02_gravity_refstate-mantle.xmf,759,-4.66404e-05,9.24209e-05,0,1.83015e-05,-1.68387e+09,-1.66529e+09,-1.67764e+09,2.44599e+06,0.07685,0.177767,0,0.193667,-1499.28,-58000,-0,58019.4,2.44599e+06
step02_gravity_refstate-mantle.xmf,760,-3.56482e-05,8.09456e-05,0,4.28591e-06,-1.72859e+09,-1.71301e+09,-1.72383e+09,572811,0.0964877,0.0464749,0,0.107097,-2169.34,-59425.5,-0,59465.1,572811
step02_gravity_refstate-mantle.xmf,761,-3.36543e-05,7.8162e-05,0,-3.32849e-09,-1.74699e+09,-1.73205e+09,-1.74249e+09,-444.853,0.103662,-7.06851e-19,0,0.103662,-2389.19,-60000,-0,60047.6,444.853
step02_gravity_refstate-mantle.xmf,762,1.27551e-05,-2.12461e-05,0,9.46293e-06,-1.30229e+09,-1.30684e+09,-1.304e+09,1.26472e+06,-0.0191351,0.382693,-0,0.383171,-1336.61,-46319.2,-0,46338.5,1.26472e+06
step02_gravity_refstate-mantle.xmf,763,1.2018e-05,-1.88501e-05,0,7.4601e-06,-1.28011e+09,-1.28423e+09,-1.28171e+09,997042,-0.0165245,0.370136,-0,0.370504,-1264.68,-45635.2,-0,45652.7,997042
step02_gravity_refstate-mantle.xmf,764,1.68293e-05,-2.85281e-05,0,4.07673e-06,-1.3257e+09,-1.33176e+09,-1.32794e+09,544855,-0.00728066,0.4117,-0,0.411764,-426.709,-47050.8,-0,47052.7,544855
step02_gravity_refstate-mantle.xmf,765,1.51827e-05,-2.50943e-05,0,6.40517e-06,-1.31388e+09,-1.31926e+09,-1.3159e+09,856051,-0.0123105,0.398677,-0,0.398867,-781.309,-46683.4,-0,46690,856051
step02_gravity_refstate-mantle.xmf,766,6.7967e-06,-8.90616e-06,0,9.14672e-06,-1.21518e+09,-1.21727e+09,-1.21608e+09,1.22246e+06,-0.0285525,0.315976,-0,0.317264,-3053.66,-43620,-0,43726.7,1.22246e+06
step02_gravity_refstate-mantle.xmf,767,6.52182e-06,-6.25818e-06,0,6.57213e-06,-1.14716e+09,-1.14887e+09,-1.14803e+09,878366,-0.0319915,0.291141,-0,0.292894,-3659.6,-41523.9,-0,41684.9,878366
step02_gravity_refstate-mantle.xmf,768,9.84741e-06,-1.38929e-05,0,7.28935e-06,-1.24305e+09,-1.24622e+09,-1.24437e+09,974222,-0.0192647,0.345571,-0,0.346107,-1740.03,-44488.6,-0,44522.7,974222
step02_gravity_refstate-mantle.xmf,769,8.29026e-06,-1.12708e-05,0,8.44483e-06,-1.22892e+09,-1.23153e+09,-1.23003e+09,1.12865e+06,-0.0242129,0.331053,-0,0.331937,-2381.47,-44048.5,-0,44112.8,1.12865e+06
step02_gravity_refstate-mantle.xmf,770,1.76492e-05,-2.99029e-05,0,-4.89227e-08,-1.33012e+09,-1.33648e+09,-1.33248e+09,-6538.52,2.96134e-08,0.417281,0,0.417281,0,-47189.4,0,47189.4,6538.52
step02_gravity_refstate-mantle.xmf,771,2.20076e-05,-4.26136e-05,0,-6.10669e-06,-1.37719e+09,-1.38583e+09,-1.38013e+09,-816159,0.00814169,0.467926,0,0.467997,364.745,-48640,0,48641.4,816159
step02_gravity_refstate-mantle.xmf,772,2.04421e-05,-3.79523e-05,0,-6.13744e-06,-1.36141e+09,-1.36922e+09,-1.36414e+09,-820269,0.0089893,0.447722,0,0.447812,434.645,-48154.1,0,48156,820269
step02_gravity_refstate-mantle.xmf,773,1.77953e-05,-5.15815e-05,0,-1.74916e-05,-1.42287e+09,-1.43214e+09,-1.42525e+09,-2.33775e+06,0.018629,0.515836,0,0.516172,1000,-50000,0,50010,2.33775e+06
step02_gravity_refstate-mantle.xmf,774,-4.65165e-05,9.48232e-05,0,1.37669e-05,-1.69302e+09,-1.67413e+09,-1.68681e+09,1.83994e+06,0.0641588,0.157622,0,0.170179,-1251.87,-58289.6,-0,58303,1.83994e+06
step02_gravity_refstate-mantle.xmf,775,-3.95817e-05,8.63414e-05,0,7.53265e-06,-1.71456e+09,-1.69773e+09,-1.70927e+09,1.00674e+06,0.0797866,0.0881693,0,0.118911,-1697.49,-58979.7,-0,59004.1,1.00674e+06
step02_gravity_refstate-mantle.xmf,776,1.13444e-05,-1.65047e-05,0,5.73593e-06,-1.25705e+09,-1.26077e+09,-1.25856e+09,766608,-0.0141009,0.358634,-0,0.358911,-1174.85,-44924.3,-0,44939.7,766608
step02_gravity_refstate-mantle.xmf,777,7.07341e-06,-8.19802e-06,0,7.66526e-06,-1.18823e+09,-1.19027e+09,-1.18917e+09,1.02446e+06,-0.0274782,0.309403,-0,0.31062,-3021.96,-42791.2,-0,42897.8,1.02446e+06
step02_gravity_refstate-mantle.xmf,778,7.15383e-06,-5.49446e-06,0,4.33436e-06,-1.09763e+09,-1.09932e+09,-1.09858e+09,579288,-0.0374938,0.278722,-0,0.281232,-3924.05,-40000,-0,40192,579288
step02_gravity_refstate-mantle.xmf,779,7.36166e-06,-7.66921e-06,0,6.41679e-06,-1.16181e+09,-1.16382e+09,-1.1628e+09,857604,-0.0270486,0.30345,-0,0.304653,-2987.6,-41978.5,-0,42084.7,857604
step02_gravity_refstate-mantle.xmf,780,7.41135e-06,-6.41771e-06,0,5.09633e-06,-1.12139e+09,-1.12324e+09,-1.12238e+09,681124,-0.0314691,0.289591,-0,0.291296,-3400.03,-40733.5,-0,40875.2,681124
step02_gravity_refstate-mantle.xmf,781,1.84423e-05,-3.26421e-05,0,-5.06268e-06,-1.34257e+09,-1.34939e+09,-1.34503e+09,-676627,0.00825388,0.427411,0,0.427491,441.358,-47572.2,0,47574.2,676627
step02_gravity_refstate-mantle.xmf,782,1.95145e-05,-4.18496e-05,0,-1.88457e-05,-1.39412e+09,-1.40232e+09,-1.39673e+09,-2.51873e+06,0.023357,0.473533,0,0.474108,1061.62,-49148.2,0,49159.7,2.51873e+06
step02_gravity_refstate-mantle.xmf,783,1.96132e-05,-3.8719e-05,0,-1.38143e-05,-1.37513e+09,-1.38293e+09,-1.37775e+09,-1.84628e+06,0.0188232,0.455807,0,0.456196,882.941,-48570.4,0,48578.4,1.84628e+06
step02_gravity_refstate-mantle.xmf,784,1.85783e-05,-4.39397e-05,0,-2.40454e-05,-1.40871e+09,-1.41707e+09,-1.4112e+09,-3.21366e+06,0.0265997,0.48357,0,0.484301,1260.58,-49587.5,0,49603.5,3.21366e+06
step02_gravity_refstate-mantle.xmf,785,-5.04484e-05,0.000101976,0,1.26807e-05,-1.68391e+09,-1.66354e+09,-1.67716e+09,1.69477e+06,0.0525421,0.192188,0,0.199241,-999.317,-58000,-0,58008.6,1.69477e+06
step02_gravity_refstate-mantle.xmf,786,-4.46386e-05,9.2482e-05,0,1.04275e-05,-1.70555e+09,-1.68723e+09,-1.69959e+09,1.39363e+06,0.0627859,0.120564,0,0.135932,-1261.17,-58683.3,-0,58696.8,1.39363e+06
step02_gravity_refstate-mantle.xmf,787,-3.91701e-05,8.5415e-05,0,-5.66009e-09,-1.74758e+09,-1.73093e+09,-1.74235e+09,-756.471,0.0818631,-6.14485e-19,0,0.0818631,-1790.83,-60000,-0,60026.7,756.471
step02_gravity_refstate-mantle.xmf,788,1.38282e-05,-2.20808e-05,0,5.14899e-06,-1.29199e+09,-1.29679e+09,-1.29384e+09,688163,-0.0105469,0.383191,-0,0.383336,-743.477,-46006.1,-0,46012.1,688163
step02_gravity_refstate-mantle.xmf,789,1.2802e-05,-1.94153e-05,0,3.54639e-06,-1.27106e+09,-1.27536e+09,-1.27277e+09,473974,-0.00801024,0.370878,-0,0.370965,-616.763,-45359.3,-0,45363.5,473974
step02_gravity_refstate-mantle.xmf,790,1.57667e-05,-2.55868e-05,0,-2.13666e-07,-1.30913e+09,-1.31465e+09,-1.31123e+09,-28556.4,3.28501e-07,0.399259,0,0.399259,0,-46539.4,0,46539.4,28556.4
step02_gravity_refstate-mantle.xmf,791,8.23417e-06,-1.02481e-05,0,7.0575e-06,-1.20268e+09,-1.20516e+09,-1.20379e+09,943235,-0.022675,0.322996,-0,0.323791,-2338.06,-43240.3,-0,43303.5,943235
step02_gravity_refstate-mantle.xmf,792,7.76652e-06,-7.32489e-06,0,5.33328e-06,-1.1392e+09,-1.14122e+09,-1.14024e+09,712793,-0.0269573,0.299125,-0,0.300337,-2918.34,-41283.7,-0,41386.7,712793
step02_gravity_refstate-mantle.xmf,793,1.07044e-05,-1.45227e-05,0,4.32396e-06,-1.2323e+09,-1.23567e+09,-1.23373e+09,577897,-0.0117374,0.347809,-0,0.348007,-1056.47,-44160.7,-0,44173.3,577897
step02_gravity_refstate-mantle.xmf,794,9.53585e-06,-1.23405e-05,0,5.82131e-06,-1.21711e+09,-1.22003e+09,-1.21838e+09,778018,-0.0172193,0.336026,-0,0.336467,-1658.56,-43689.1,-0,43720.6,778018
step02_gravity_refstate-mantle.xmf,795,1.68681e-05,-2.86228e-05,0,-4.04616e-06,-1.32569e+09,-1.33177e+09,-1.32795e+09,-540769,0.00728071,0.4117,0,0.411764,426.716,-47050.8,0,47052.7,540769
step02_gravity_refstate-mantle.xmf,796,1.76624e-05,-3.28259e-05,0,-1.13577e-05,-1.35384e+09,-1.36059e+09,-1.3562e+09,-1.51796e+06,0.0176446,0.431902,0,0.432262,917.917,-47914.7,0,47923.5,1.51796e+06
step02_gravity_refstate-mantle.xmf,797,1.51745e-05,-3.50839e-05,0,-2.52116e-05,-1.39716e+09,-1.40388e+09,-1.39919e+09,-3.36953e+06,0.0308564,0.458189,0,0.459227,1492.27,-49230.5,0,49253.1,3.36953e+06
step02_gravity_refstate-mantle.xmf,798,1.64191e-05,-4.24407e-05,0,-2.69156e-05,-1.42241e+09,-1.43028e+09,-1.42461e+09,-3.59727e+06,0.0269897,0.487025,0,0.487772,1499.83,-50000,0,50022.5,3.59727e+06
step02_gravity_refstate-mantle.xmf,799,-5.04938e-05,0.000101158,0,8.55413e-06,-1.69847e+09,-1.6782e+09,-1.69172e+09,1.14326e+06,0.0410251,0.150953,0,0.156428,-786.525,-58447.4,-0,58452.6,1.14326e+06
step02_gravity_refstate-mantle.xmf,800,-4.0759e-05,8.7585e-05,0,3.43722e-06,-1.73226e+09,-1.7151e+09,-1.72681e+09,459384,0.0747152,0.0418811,0,0.0856527,-1603.03,-59521.5,-0,59543.1,459384
step02_gravity_refstate-mantle.xmf,801,-4.49311e-05,9.28321e-05,0,5.21181e-06,-1.72288e+09,-1.70446e+09,-1.71687e+09,696558,0.0556839,0.0724486,0,0.0913756,-1143.52,-59217.3,-0,59228.3,696558
step02_gravity_refstate-mantle.xmf,802,1.18014e-05,-1.66914e-05,0,2.59737e-06,-1.24851e+09,-1.25232e+09,-1.25009e+09,347139,-0.00655936,0.358743,-0,0.358803,-550.521,-44663.3,-0,44666.7,347139
step02_gravity_refstate-mantle.xmf,803,8.30241e-06,-9.16981e-06,0,5.7627e-06,-1.17542e+09,-1.17776e+09,-1.17653e+09,770184,-0.0217005,0.315377,-0,0.316123,-2296.97,-42401.4,-0,42463.6,770184
step02_gravity_refstate-mantle.xmf,804,8.66211e-06,-6.74973e-06,0,3.54199e-06,-1.0974e+09,-1.09946e+09,-1.09856e+09,473387,-0.029714,0.289936,-0,0.291455,-2938.83,-40000,-0,40107.8,473387
step02_gravity_refstate-mantle.xmf,805,8.48313e-06,-8.38564e-06,0,4.70839e-06,-1.14705e+09,-1.14931e+09,-1.14819e+09,629276,-0.0217026,0.307791,-0,0.308555,-2293.3,-41528.2,-0,41591.5,629276
step02_gravity_refstate-mantle.xmf,806,8.69925e-06,-7.5989e-06,0,3.96276e-06,-1.12029e+09,-1.12247e+09,-1.12146e+09,529623,-0.0239702,0.299641,-0,0.300598,-2462.64,-40705.1,-0,40779.6,529623
step02_gravity_refstate-mantle.xmf,807,1.64012e-05,-2.88701e-05,0,-8.84341e-06,-1.33452e+09,-1.34057e+09,-1.33671e+09,-1.18192e+06,0.0151071,0.414649,0,0.414924,865.691,-47319.6,0,47327.5,1.18192e+06
step02_gravity_refstate-mantle.xmf,808,1.48421e-05,-3.22102e-05,0,-2.18821e-05,-1.38273e+09,-1.38902e+09,-1.38471e+09,-2.92454e+06,0.0296132,0.444522,0,0.445508,1468.89,-48789.9,0,48812,2.92454e+06
step02_gravity_refstate-mantle.xmf,809,1.17987e-05,-3.08011e-05,0,-3.03489e-05,-1.40829e+09,-1.41398e+09,-1.40987e+09,-4.05612e+06,0.0339307,0.455952,0,0.457213,1730.04,-49562.6,0,49592.8,4.05612e+06
step02_gravity_refstate-mantle.xmf,810,-5.29732e-05,0.000107447,0,6.4869e-06,-1.684e+09,-1.66256e+09,-1.67692e+09,866975,0.0266889,0.201579,0,0.203338,-499.831,-58000,-0,58002.2,866975
step02_gravity_refstate-mantle.xmf,811,-4.7548e-05,9.66364e-05,0,7.41023e-06,-1.71044e+09,-1.69117e+09,-1.70408e+09,990377,0.0472338,0.111654,0,0.121234,-936.018,-58825.2,-0,58832.7,990377
step02_gravity_refstate-mantle.xmf,812,-4.43928e-05,9.20887e-05,0,1.22177e-07,-1.74816e+09,-1.72992e+09,-1.74223e+09,16329,0.0569613,-7.10318e-19,0,0.0569613,-1193.88,-60000,-0,60011.9,16329
step02_gravity_refstate-mantle.xmf,813,1.41552e-05,-2.21515e-05,0,3.87072e-09,-1.28708e+09,-1.29193e+09,-1.28897e+09,517.322,7.8209e-07,0.383031,0,0.383031,0,-45856.3,0,45856.3,517.322
step02_gravity_refstate-mantle.xmf,814,1.27385e-05,-1.8894e-05,0,1.08138e-09,-1.26388e+09,-1.26811e+09,-1.26558e+09,144.526,-1.17673e-06,0.368476,-0,0.368476,0,-45138.7,0,45138.7,144.526
step02_gravity_refstate-mantle.xmf,815,1.5164e-05,-2.53605e-05,0,-6.58395e-06,-1.3139e+09,-1.31932e+09,-1.31593e+09,-879945,0.0123104,0.398677,0,0.398867,781.309,-46683.4,0,46690,879945
step02_gravity_refstate-mantle.xmf,816,1.10502e-05,-1.48141e-05,0,1.84557e-06,-1.22745e+09,-1.23091e+09,-1.22893e+09,246661,-0.00507257,0.348858,-0,0.348895,-455.041,-44012.4,-0,44014.8,246661
step02_gravity_refstate-mantle.xmf,817,9.28764e-06,-1.10516e-05,0,4.67004e-06,-1.19008e+09,-1.1928e+09,-1.19133e+09,624151,-0.0156508,0.327098,-0,0.327472,-1578.06,-42856.1,-0,42885.1,624151
step02_gravity_refstate-mantle.xmf,818,1.02875e-05,-1.28299e-05,0,2.66289e-06,-1.20627e+09,-1.20936e+09,-1.20765e+09,355896,-0.00833478,0.33843,-0,0.338532,-795.681,-43358.2,-0,43365.5,355896
step02_gravity_refstate-mantle.xmf,819,1.45742e-05,-2.93658e-05,0,-1.8081e-05,-1.36422e+09,-1.37009e+09,-1.36617e+09,-2.41653e+06,0.0273366,0.427847,0,0.428719,1448.46,-48223.6,0,48245.4,2.41653e+06
step02_gravity_refstate-mantle.xmf,820,1.41486e-05,-2.65965e-05,0,-1.47249e-05,-1.3446e+09,-1.35005e+09,-1.34649e+09,-1.96799e+06,0.0246053,0.41188,0,0.412614,1419.95,-47621.9,0,47643,1.96799e+06
step02_gravity_refstate-mantle.xmf,821,9.11133e-06,-2.39267e-05,0,-2.65205e-05,-1.39217e+09,-1.39659e+09,-1.39339e+09,-3.54446e+06,0.0360211,0.430668,0,0.432172,1940.21,-49064.4,0,49102.8,3.54446e+06
step02_gravity_refstate-mantle.xmf,822,1.42425e-05,-2.61699e-05,0,-3.34212e-05,-1.42153e+09,-1.42694e+09,-1.42344e+09,-4.46674e+06,0.0350522,0.448484,0,0.449852,2000,-50000,0,50040,4.46674e+06
step02_gravity_refstate-mantle.xmf,823,-5.2908e-05,0.000104911,0,2.83083e-06,-1.69964e+09,-1.67854e+09,-1.69257e+09,378341,0.013496,0.153081,0,0.153675,-255.106,-58477,-0,58477.5,378341
step02_gravity_refstate-mantle.xmf,824,-4.99378e-05,9.96987e-05,0,4.16991e-06,-1.71623e+09,-1.69623e+09,-1.70956e+09,557309,0.0299628,0.0980496,0,0.102526,-590.294,-58996.2,-0,58999.1,557309
step02_gravity_refstate-mantle.xmf,825,1.15988e-05,-1.60477e-05,0,-3.39738e-08,-1.23948e+09,-1.24318e+09,-1.24103e+09,-4540.59,-2.75471e-07,0.355365,-0,0.355365,0,-44384.6,0,44384.6,4540.59
step02_gravity_refstate-mantle.xmf,826,1.37136e-05,-2.17905e-05,0,-5.09951e-06,-1.29214e+09,-1.29688e+09,-1.29397e+09,-681550,0.0105968,0.383259,0,0.383406,746.431,-46010.6,0,46016.7,681550
step02_gravity_refstate-mantle.xmf,827,9.2145e-06,-9.58956e-06,0,3.65868e-06,-1.16006e+09,-1.16257e+09,-1.16129e+09,488983,-0.0150262,0.317861,-0,0.318216,-1547.41,-41931.8,-0,41960.3,488983
step02_gravity_refstate-mantle.xmf,828,9.86735e-06,-7.73833e-06,0,2.53757e-06,-1.09722e+09,-1.09958e+09,-1.09854e+09,339146,-0.0206294,0.298416,-0,0.299128,-1958.59,-40000,-0,40047.9,339146
step02_gravity_refstate-mantle.xmf,829,9.59435e-06,-8.6059e-06,0,2.68717e-06,-1.126e+09,-1.12843e+09,-1.12728e+09,359140,-0.0149974,0.308653,-0,0.309017,-1504.34,-40884.7,-0,40912.4,359140
step02_gravity_refstate-mantle.xmf,830,1.35349e-05,-2.38885e-05,0,-1.18547e-05,-1.32408e+09,-1.32908e+09,-1.32589e+09,-1.58438e+06,0.0217569,0.396981,0,0.397577,1378.15,-46990.8,0,47011,1.58438e+06
step02_gravity_refstate-mantle.xmf,831,9.71596e-06,-2.29131e-05,0,-2.2908e-05,-1.37353e+09,-1.37789e+09,-1.37483e+09,-3.06166e+06,0.0348753,0.415224,0,0.416686,1980.03,-48495.2,0,48535.6,3.06166e+06
step02_gravity_refstate-mantle.xmf,832,5.9986e-06,-2.01011e-05,0,-2.8884e-05,-1.40628e+09,-1.40977e+09,-1.40709e+09,-3.86034e+06,0.0376782,0.429436,0,0.431085,2135.91,-49489.3,0,49535.4,3.86034e+06
step02_gravity_refstate-mantle.xmf,833,-5.38304e-05,0.000109228,0,8.90933e-08,-1.68404e+09,-1.66225e+09,-1.67684e+09,11907.3,-3.90798e-07,0.204798,-0,0.204798,-2.07592e-10,-58000,-0,58000,11907.3
step02_gravity_refstate-mantle.xmf,834,-4.75259e-05,9.61375e-05,0,2.29134e-06,-1.73368e+09,-1.71448e+09,-1.72733e+09,306238,0.0372437,0.0438807,0,0.0575553,-758.223,-59542.2,-0,59547.1,306238
step02_gravity_refstate-mantle.xmf,835,1.3133e-05,-1.99822e-05,0,-3.03465e-06,-1.27466e+09,-1.27908e+09,-1.27641e+09,-405581,0.00658247,0.37372,0,0.373778,497.288,-45471.4,0,45474.1,405581
step02_gravity_refstate-mantle.xmf,836,1.19142e-05,-1.70978e-05,0,-2.40067e-06,-1.25052e+09,-1.2544e+09,-1.25211e+09,-320850,0.00590544,0.360034,0,0.360082,491.412,-44725,0,44727.7,320850
step02_gravity_refstate-mantle.xmf,837,1.07878e-05,-1.37986e-05,0,-6.20268e-08,-1.21382e+09,-1.21711e+09,-1.21526e+09,-8289.88,9.54686e-08,0.343559,0,0.343559,0,-43592.2,0,43592.2,8289.88
step02_gravity_refstate-mantle.xmf,838,1.27352e-05,-2.11735e-05,0,-9.48124e-06,-1.30232e+09,-1.30685e+09,-1.30402e+09,-1.26717e+06,0.0191479,0.382695,0,0.383174,1337.42,-46320,0,46339.3,1.26717e+06
step02_gravity_refstate-mantle.xmf,839,9.8404e-06,-1.11528e-05,0,2.28274e-06,-1.17642e+09,-1.17923e+09,-1.17774e+09,305088,-0.00820717,0.327343,-0,0.327446,-821.633,-42437.4,-0,42445.4,305088
step02_gravity_refstate-mantle.xmf,840,1.0315e-05,-2.19029e-05,0,-1.95411e-05,-1.35458e+09,-1.35889e+09,-1.35596e+09,-2.61167e+06,0.0326627,0.402219,0,0.403543,1978.04,-47916.4,0,47957.2,2.61167e+06
step02_gravity_refstate-mantle.xmf,841,1.04699e-05,-2.03545e-05,0,-1.64974e-05,-1.3343e+09,-1.33842e+09,-1.3357e+09,-2.20488e+06,0.0301844,0.388966,0,0.390135,1981.1,-47295,0,47336.4,2.20488e+06
step02_gravity_refstate-mantle.xmf,842,4.83143e-06,-1.59744e-05,0,-2.4973e-05,-1.38158e+09,-1.38436e+09,-1.38223e+09,-3.33764e+06,0.0391628,0.397032,0,0.398959,2483.12,-48728.9,0,48792.2,3.33764e+06
step02_gravity_refstate-mantle.xmf,843,3.51228e-06,-1.52115e-05,0,-2.73766e-05,-1.39832e+09,-1.40082e+09,-1.39878e+09,-3.65888e+06,0.0396022,0.40468,0,0.406613,2491.21,-49239,0,49302,3.65888e+06
step02_gravity_refstate-mantle.xmf,844,3.12444e-06,-1.48613e-05,0,-3.07487e-05,-1.41458e+09,-1.41698e+09,-1.415e+09,-4.10957e+06,0.0389366,0.413066,0,0.414897,2479.26,-49739.8,0,49801.5,4.10957e+06
step02_gravity_refstate-mantle.xmf,845,-5.28871e-05,0.000104893,0,-2.94232e-06,-1.69966e+09,-1.67857e+09,-1.69259e+09,-393242,-0.0138928,0.15296,-0,0.15359,262.675,-58477.8,0,58478.4,393242
step02_gravity_refstate-mantle.xmf,846,-5.16308e-05,0.000101848,0,-1.8589e-07,-1.71578e+09,-1.69527e+09,-1.70888e+09,-24844.2,-0.000510098,0.10206,-0,0.102061,9.97254,-58976.5,0,58976.5,24844.2
step02_gravity_refstate-mantle.xmf,847,-4.99448e-05,9.90979e-05,0,8.65643e-07,-1.73252e+09,-1.7126e+09,-1.72585e+09,115693,0.0133063,0.0495045,0,0.0512616,-266.482,-59497.7,-0,59498.3,115693
step02_gravity_refstate-mantle.xmf,848,-4.83751e-05,9.70129e-05,0,1.4695e-07,-1.74862e+09,-1.72918e+09,-1.74215e+09,19639.9,0.0293135,-7.33689e-19,0,0.0293135,-596.939,-60000,-0,60003,19639.9
step02_gravity_refstate-mantle.xmf,849,1.1053e-05,-1.48011e-05,0,-1.77972e-06,-1.2272e+09,-1.23065e+09,-1.22867e+09,-237859,0.00488578,0.348795,0,0.348829,438.53,-44004.7,0,44006.9,237859
step02_gravity_refstate-mantle.xmf,850,1.20343e-05,-1.88794e-05,0,-7.36398e-06,-1.28082e+09,-1.28496e+09,-1.28243e+09,-984196,0.016236,0.370904,0,0.371259,1236.69,-45657.3,0,45674.1,984196
step02_gravity_refstate-mantle.xmf,851,1.02286e-05,-1.18912e-05,0,-4.28919e-08,-1.18683e+09,-1.18979e+09,-1.1882e+09,-5732.5,-6.55548e-07,0.332867,-0,0.332867,0,-42759.7,0,42759.7,5732.5
step02_gravity_refstate-mantle.xmf,852,9.79942e-06,-9.61235e-06,0,1.70388e-06,-1.14539e+09,-1.14799e+09,-1.1467e+09,227724,-0.00784017,0.317637,-0,0.317733,-790.118,-41482.6,-0,41490.1,227724
step02_gravity_refstate-mantle.xmf,853,1.06619e-05,-8.40499e-06,0,1.31001e-06,-1.09711e+09,-1.09966e+09,-1.09853e+09,175082,-0.0105792,0.303716,-0,0.3039,-979.295,-40000,-0,40012,175082
step02_gravity_refstate-mantle.xmf,854,1.04e-05,-1.86094e-05,0,-1.37656e-05,-1.31268e+09,-1.31656e+09,-1.31407e+09,-1.83978e+06,0.0275397,0.376304,0,0.37731,1971.15,-46631.1,0,46672.7,1.83978e+06
step02_gravity_refstate-mantle.xmf,855,5.91556e-06,-1.63318e-05,0,-2.23204e-05,-1.36429e+09,-1.36727e+09,-1.36508e+09,-2.98312e+06,0.037986,0.387465,0,0.389323,2504.96,-48201.3,0,48266.4,2.98312e+06
step02_gravity_refstate-mantle.xmf,856,2.63852e-06,-2.15626e-05,0,-3.83673e-05,-1.43986e+09,-1.4431e+09,-1.44021e+09,-5.12779e+06,0.0371048,0.461058,0,0.462549,2000,-50500.3,0,50539.9,5.12779e+06
step02_gravity_refstate-mantle.xmf,857,-8.72838e-07,-1.1993e-05,0,-3.51215e-05,-1.43175e+09,-1.43323e+09,-1.43163e+09,-4.69399e+06,0.0381352,0.422679,0,0.424396,2445.18,-50250.6,0,50310.1,4.69399e+06
step02_gravity_refstate-mantle.xmf,858,1.96769e-06,-1.77014e-05,0,-4.3348e-05,-1.45587e+09,-1.4585e+09,-1.45613e+09,-5.79346e+06,0.0320374,0.472097,0,0.473183,2000,-51000.2,0,51039.4,5.79346e+06
step02_gravity_refstate-mantle.xmf,859,-3.61514e-06,-8.55705e-06,0,-3.62369e-05,-1.44835e+09,-1.44901e+09,-1.44786e+09,-4.84307e+06,0.0347939,0.429472,0,0.430879,2427.87,-50753.9,0,50811.9,4.84307e+06
step02_gravity_refstate-mantle.xmf,860,-5.32955e-05,0.00010744,0,-6.40517e-06,-1.68407e+09,-1.66259e+09,-1.67695e+09,-856052,-0.0266881,0.201579,-0,0.203338,499.831,-58000,0,58002.2,856052
step02_gravity_refstate-mantle.xmf,861,1.14258e-05,-1.68378e-05,0,-5.71996e-06,-1.25836e+09,-1.26214e+09,-1.25989e+09,-764473,0.0137591,0.359657,0,0.35992,1138.76,-44964.6,0,44979,764473
step02_gravity_refstate-mantle.xmf,862,1.07526e-05,-1.4748e-05,0,-4.35027e-06,-1.23351e+09,-1.23691e+09,-1.23494e+09,-581414,0.011626,0.348458,0,0.348652,1042.03,-44197.7,0,44210,581414
step02_gravity_refstate-mantle.xmf,863,1.03085e-05,-1.29889e-05,0,-2.77701e-06,-1.20618e+09,-1.20929e+09,-1.20756e+09,-371147,0.0082853,0.338411,0,0.338512,791.023,-43355.1,0,43362.3,371147
step02_gravity_refstate-mantle.xmf,864,1.03093e-05,-1.70653e-05,0,-1.12941e-05,-1.29042e+09,-1.29408e+09,-1.2918e+09,-1.50946e+06,0.0246063,0.365411,0,0.366238,1910.79,-45946.8,0,45986.5,1.50946e+06
step02_gravity_refstate-mantle.xmf,865,9.97416e-06,-1.05069e-05,0,1.93579e-09,-1.15845e+09,-1.16119e+09,-1.15979e+09,258.719,5.59882e-07,0.323133,0,0.323133,0,-41884.9,0,41884.9,258.719
step02_gravity_refstate-mantle.xmf,866,1.01382e-05,-8.97812e-06,0,1.25767e-06,-1.12082e+09,-1.12337e+09,-1.12217e+09,168088,-0.00736314,0.310866,-0,0.310953,-720.088,-40727.4,-0,40733.8,168088
step02_gravity_refstate-mantle.xmf,867,6.80484e-06,-1.59147e-05,0,-1.97177e-05,-1.34525e+09,-1.34829e+09,-1.34616e+09,-2.63527e+06,0.0361434,0.377448,0,0.379174,2521.54,-47620.1,0,47686.8,2.63527e+06
step02_gravity_refstate-mantle.xmf,868,6.99283e-06,-1.45234e-05,0,-1.7125e-05,-1.32382e+09,-1.3267e+09,-1.32476e+09,-2.28876e+06,0.0344447,0.364186,0,0.365811,2619.67,-46963,0,47036,2.28876e+06
step02_gravity_refstate-mantle.xmf,869,1.77943e-06,-1.02008e-05,0,-2.33298e-05,-1.37223e+09,-1.37383e+09,-1.37246e+09,-3.11803e+06,0.0404574,0.368378,0,0.370593,3013.6,-48434.4,0,48528.1,3.11803e+06
step02_gravity_refstate-mantle.xmf,870,6.09626e-07,-9.59188e-06,0,-2.53504e-05,-1.38877e+09,-1.39014e+09,-1.38886e+09,-3.38808e+06,0.0406582,0.375664,0,0.377858,2968.73,-48939.3,0,49029.3,3.38808e+06
step02_gravity_refstate-mantle.xmf,871,-7.16886e-07,-8.4758e-06,0,-2.77077e-05,-1.40613e+09,-1.40717e+09,-1.40604e+09,-3.70313e+06,0.0399669,0.382319,0,0.384402,2937.47,-49469.5,0,49556.7,3.70313e+06
step02_gravity_refstate-mantle.xmf,872,-2.81627e-06,-6.29772e-06,0,-3.04185e-05,-1.42353e+09,-1.424e+09,-1.42316e+09,-4.06543e+06,0.0382444,0.388512,0,0.39039,2904.57,-49998.5,0,50082.8,4.06543e+06
step02_gravity_refstate-mantle.xmf,873,2.91392e-07,-1.06995e-05,0,-4.75016e-05,-1.47185e+09,-1.47332e+09,-1.47189e+09,-6.34859e+06,0.0237004,0.479609,0,0.480194,2000,-51500.6,0,51539.4,6.34859e+06
step02_gravity_refstate-mantle.xmf,874,-3.97869e-06,-5.01679e-06,0,-3.8301e-05,-1.46435e+09,-1.46449e+09,-1.46382e+09,-5.11893e+06,0.0274943,0.434593,0,0.435462,2413.1,-51255,0,51311.8,5.11893e+06
step02_gravity_refstate-mantle.xmf,875,-1.97558e-06,-2.53103e-06,0,-5.06747e-05,-1.48786e+09,-1.48793e+09,-1.48759e+09,-6.77267e+06,0.0136004,0.483109,0,0.4833,2000,-52000.7,0,52039.1,6.77267e+06
step02_gravity_refstate-mantle.xmf,876,-4.69867e-06,6.18483e-06,0,-5.29421e-05,-1.50389e+09,-1.50244e+09,-1.50326e+09,-7.07571e+06,0.00251838,0.482322,0,0.482328,2000,-52500.1,0,52538.2,7.07571e+06
step02_gravity_refstate-mantle.xmf,877,-6.35403e-06,7.36099e-06,0,-4.27552e-05,-1.49779e+09,-1.49596e+09,-1.49694e+09,-5.71423e+06,0.00488918,0.433717,0,0.433745,2417.95,-52303.7,0,52359.6,5.71423e+06
step02_gravity_refstate-mantle.xmf,878,-4.83378e-06,4.86442e-07,0,-4.07159e-05,-1.48085e+09,-1.48014e+09,-1.4802e+09,-5.44168e+06,0.0171765,0.436005,0,0.436343,2413.91,-51772.9,0,51829.1,5.44168e+06
step02_gravity_refstate-mantle.xmf,879,-7.76601e-06,1.52035e-05,0,-5.4366e-05,-1.51997e+09,-1.5169e+09,-1.51893e+09,-7.26601e+06,-0.00912014,0.477072,-0,0.477159,2000,-52999.3,0,53037,7.26601e+06
step02_gravity_refstate-mantle.xmf,880,-8.17525e-06,1.44137e-05,0,-4.4159e-05,-1.51379e+09,-1.51077e+09,-1.51269e+09,-5.90185e+06,-0.0075718,0.428684,-0,0.428751,2415.63,-52803.6,0,52858.8,5.90185e+06
step02_gravity_refstate-mantle.xmf,881,-1.10615e-05,2.44383e-05,0,-5.49453e-05,-1.53609e+09,-1.53135e+09,-1.53461e+09,-7.34344e+06,-0.0210945,0.467226,-0,0.467702,2000,-53498.9,0,53536.3,7.34344e+06
step02_gravity_refstate-mantle.xmf,882,-1.02874e-05,2.15644e-05,0,-4.48168e-05,-1.52916e+09,-1.5249e+09,-1.52779e+09,-5.98977e+06,-0.020027,0.420086,-0,0.420563,2416.18,-53282.7,0,53337.4,5.98977e+06
step02_gravity_refstate-mantle.xmf,883,-1.44762e-05,3.38665e-05,0,-5.47151e-05,-1.55224e+09,-1.54578e+09,-1.55031e+09,-7.31268e+06,-0.0332624,0.452676,-0,0.453896,2000,-53999.2,0,54036.2,7.31268e+06
step02_gravity_refstate-mantle.xmf,884,-1.24842e-05,2.8889e-05,0,-4.4713e-05,-1.54413e+09,-1.5386e+09,-1.54246e+09,-5.97589e+06,-0.0324644,0.407932,-0,0.409222,2419.94,-53749.1,0,53803.5,5.97589e+06
step02_gravity_refstate-mantle.xmf,885,-1.80194e-05,4.33647e-05,0,-5.37415e-05,-1.56842e+09,-1.56022e+09,-1.56601e+09,-7.18256e+06,-0.0455024,0.433371,-0,0.435753,2000,-54499.5,0,54536.2,7.18256e+06
step02_gravity_refstate-mantle.xmf,886,-1.49492e-05,3.67443e-05,0,-4.45641e-05,-1.56005e+09,-1.55314e+09,-1.55805e+09,-5.95599e+06,-0.0453747,0.394852,-0,0.397451,2392.98,-54244.5,0,54297.3,5.95599e+06
step02_gravity_refstate-mantle.xmf,887,-5.07683e-05,0.000101974,0,-1.25512e-05,-1.68398e+09,-1.66356e+09,-1.67719e+09,-1.67747e+06,-0.0525455,0.192182,-0,0.199236,999.317,-58000,0,58008.6,1.67747e+06
step02_gravity_refstate-mantle.xmf,888,-5.06112e-05,0.000101535,0,-8.44448e-06,-1.69798e+09,-1.67765e+09,-1.69122e+09,-1.1286e+06,-0.0391984,0.152966,-0,0.157909,749.574,-58432.6,0,58437.4,1.1286e+06
step02_gravity_refstate-mantle.xmf,889,-5.00216e-05,9.95918e-05,0,-4.43956e-06,-1.71534e+09,-1.69535e+09,-1.70866e+09,-593347,-0.0288759,0.101015,-0,0.105061,567.307,-58967.8,0,58970.5,593347
step02_gravity_refstate-mantle.xmf,890,-4.98922e-05,9.89645e-05,0,-1.26209e-06,-1.73227e+09,-1.71238e+09,-1.72561e+09,-168678,-0.0150076,0.0502056,-0,0.0524007,300.574,-59490.1,0,59490.8,168678
step02_gravity_refstate-mantle.xmf,891,-4.98662e-05,9.88541e-05,0,1.21446e-07,-1.74879e+09,-1.72891e+09,-1.74212e+09,16231.2,9.86881e-07,-6.94982e-19,0,9.86881e-07,-5.11427e-08,-60000,-0,60000,16231.2
step02_gravity_refstate-mantle.xmf,892,1.00592e-05,-1.55239e-05,0,-9.11645e-06,-1.26753e+09,-1.27095e+09,-1.26887e+09,-1.21841e+06,0.0217211,0.355496,0,0.356159,1821.43,-45241.9,0,45278.6,1.21841e+06
step02_gravity_refstate-mantle.xmf,893,9.80236e-06,-1.09052e-05,0,-2.28479e-06,-1.17487e+09,-1.17764e+09,-1.17618e+09,-305362,0.00816166,0.326837,0,0.326939,818.184,-42389.9,0,42397.8,305362
step02_gravity_refstate-mantle.xmf,894,1.0149e-05,-9.24473e-06,0,-1.18212e-08,-1.12855e+09,-1.13115e+09,-1.12991e+09,-1579.9,1.7134e-08,0.31413,0,0.31413,0,-40965.8,0,40965.8,1579.9
step02_gravity_refstate-mantle.xmf,895,1.09457e-05,-8.69478e-06,0,6.16109e-08,-1.09707e+09,-1.0997e+09,-1.09853e+09,8234.3,-2.47131e-07,0.305525,-0,0.305525,0,-40000,0,40000,8234.3
step02_gravity_refstate-mantle.xmf,896,7.64967e-06,-1.39923e-05,0,-1.45606e-05,-1.30128e+09,-1.30417e+09,-1.3023e+09,-1.94603e+06,0.0316764,0.355559,0,0.356968,2574.39,-46272.4,0,46343.9,1.94603e+06
step02_gravity_refstate-mantle.xmf,897,3.4204e-06,-1.15507e-05,0,-2.14185e-05,-1.35574e+09,-1.35774e+09,-1.35619e+09,-2.86258e+06,0.0393769,0.364977,0,0.367095,2963.29,-47932.6,0,48024.1,2.86258e+06
step02_gravity_refstate-mantle.xmf,898,-5.93918e-06,-2.99611e-06,0,-3.19733e-05,-1.44073e+09,-1.44034e+09,-1.43994e+09,-4.27323e+06,0.0350718,0.394026,0,0.395584,2863.06,-50517.4,0,50598.5,4.27323e+06
step02_gravity_refstate-mantle.xmf,899,-7.14835e-06,-5.10202e-08,0,-3.27624e-05,-1.4569e+09,-1.45595e+09,-1.45594e+09,-4.37869e+06,0.0291405,0.397753,0,0.398819,2827.03,-51016.2,0,51094.5,4.37869e+06
step02_gravity_refstate-mantle.xmf,900,-1.72872e-05,4.45102e-05,0,-4.27854e-05,-1.57586e+09,-1.5676e+09,-1.57354e+09,-5.71827e+06,-0.0587802,0.3732,-0,0.377801,2407.28,-54737,0,54789.9,5.71827e+06
step02_gravity_refstate-mantle.xmf,901,-2.12946e-05,5.29622e-05,0,-5.17524e-05,-1.58451e+09,-1.57459e+09,-1.58166e+09,-6.91671e+06,-0.0576836,0.409299,-0,0.413344,2000,-54999.2,0,55035.5,6.91671e+06
step02_gravity_refstate-mantle.xmf,902,-4.63837e-05,9.4801e-05,0,-1.27167e-05,-1.69669e+09,-1.67782e+09,-1.69049e+09,-1.69958e+06,-0.0617544,0.147702,-0,0.160092,1211.62,-58403.7,0,58416.2,1.69958e+06
step02_gravity_refstate-mantle.xmf,903,9.80622e-06,-1.39732e-05,0,-7.39261e-06,-1.24325e+09,-1.24643e+09,-1.24456e+09,-988022,0.0193107,0.345603,0,0.346142,1743.69,-44494.3,0,44528.5,988022
step02_gravity_refstate-mantle.xmf,904,9.49334e-06,-1.24234e-05,0,-5.90768e-06,-1.21723e+09,-1.22016e+09,-1.2185e+09,-789562,0.017244,0.336044,0,0.336486,1660.73,-43692.3,0,43723.9,789562
step02_gravity_refstate-mantle.xmf,905,8.04805e-06,-1.32765e-05,0,-1.22369e-05,-1.27801e+09,-1.28086e+09,-1.27908e+09,-1.63546e+06,0.0288784,0.347309,0,0.348507,2509.33,-45558,0,45627.1,1.63546e+06
step02_gravity_refstate-mantle.xmf,906,9.27056e-06,-1.10029e-05,0,-4.67103e-06,-1.18985e+09,-1.19256e+09,-1.19109e+09,-624283,0.0156429,0.327021,0,0.327395,1577.69,-42848.8,0,42877.8,624283
step02_gravity_refstate-mantle.xmf,907,9.79229e-06,-9.69523e-06,0,-1.75349e-06,-1.14528e+09,-1.14789e+09,-1.14659e+09,-234354,0.00790709,0.317577,0,0.317675,796.899,-41479,0,41486.6,234354
step02_gravity_refstate-mantle.xmf,908,4.49873e-06,-1.01212e-05,0,-1.67857e-05,-1.31273e+09,-1.31468e+09,-1.31333e+09,-2.24341e+06,0.0366794,0.341791,0,0.343753,3212,-46614.9,0,46725.5,2.24341e+06
step02_gravity_refstate-mantle.xmf,909,3.18614e-06,-9.70951e-06,0,-1.93179e-05,-1.33755e+09,-1.33927e+09,-1.33798e+09,-2.58184e+06,0.0388259,0.349234,0,0.351386,3219.13,-47373.9,0,47483.2,2.58184e+06
step02_gravity_refstate-mantle.xmf,910,4.6005e-07,-6.85957e-06,0,-2.10407e-05,-1.35675e+09,-1.35773e+09,-1.35681e+09,-2.81209e+06,0.0404252,0.344125,0,0.346491,3480.87,-47956,0,48082.2,2.81209e+06
step02_gravity_refstate-mantle.xmf,911,-1.50258e-06,-5.26249e-06,0,-2.28606e-05,-1.37685e+09,-1.37735e+09,-1.37665e+09,-3.05532e+06,0.0405755,0.346519,0,0.348886,3512.77,-48567.8,0,48694.7,3.05532e+06
step02_gravity_refstate-mantle.xmf,912,-3.0558e-06,-3.80271e-06,0,-2.47618e-05,-1.39663e+09,-1.39673e+09,-1.39622e+09,-3.30941e+06,0.0397533,0.353173,0,0.355403,3435.12,-49172.3,0,49292.1,3.30941e+06
step02_gravity_refstate-mantle.xmf,913,-4.64845e-06,-2.17558e-06,0,-2.65736e-05,-1.41438e+09,-1.41405e+09,-1.41376e+09,-3.55156e+06,0.0378972,0.358763,0,0.360759,3365.93,-49714.1,0,49827.9,3.55156e+06
step02_gravity_refstate-mantle.xmf,914,-7.4773e-06,1.41968e-06,0,-2.76027e-05,-1.4337e+09,-1.43252e+09,-1.43271e+09,-3.6891e+06,0.0337057,0.358856,0,0.360435,3370.96,-50301.3,0,50414.1,3.6891e+06
step02_gravity_refstate-mantle.xmf,915,-7.65065e-06,3.96758e-06,0,-3.35337e-05,-1.47358e+09,-1.47203e+09,-1.47256e+09,-4.48178e+06,0.0195571,0.396268,0,0.39675,2835.18,-51538.3,0,51616.3,4.48178e+06
step02_gravity_refstate-mantle.xmf,916,-9.22114e-06,1.51311e-05,0,-3.57876e-05,-1.50927e+09,-1.50602e+09,-1.50804e+09,-4.78301e+06,-0.00746451,0.38581,-0,0.385883,2839.86,-52658.9,0,52735.4,4.78301e+06
step02_gravity_refstate-mantle.xmf,917,-8.20576e-06,8.97887e-06,0,-3.47014e-05,-1.491e+09,-1.4887e+09,-1.4899e+09,-4.63784e+06,0.00714613,0.392527,0,0.392592,2839.83,-52085.6,0,52163,4.63784e+06
step02_gravity_refstate-mantle.xmf,918,-1.00963e-05,1.984e-05,0,-3.7396e-05,-1.52293e+09,-1.51893e+09,-1.52158e+09,-4.99798e+06,-0.0183922,0.385055,-0,0.385494,2773.69,-53087,0,53159.4,4.99798e+06
step02_gravity_refstate-mantle.xmf,919,-1.14933e-05,2.60258e-05,0,-3.55257e-05,-1.53763e+09,-1.53262e+09,-1.5361e+09,-4.74801e+06,-0.0323481,0.364136,-0,0.36557,2876.9,-53547.8,0,53625,4.74801e+06
step02_gravity_refstate-mantle.xmf,920,-1.30545e-05,3.21044e-05,0,-3.77441e-05,-1.5527e+09,-1.54666e+09,-1.55096e+09,-5.0445e+06,-0.0438943,0.365267,-0,0.367894,2732.65,-54018.3,0,54087.4,5.0445e+06
step02_gravity_refstate-mantle.xmf,921,-1.4298e-05,3.76342e-05,0,-3.57182e-05,-1.56692e+09,-1.55998e+09,-1.56501e+09,-4.77373e+06,-0.0571799,0.344381,-0,0.349095,2785.06,-54463.3,0,54534.4,4.77373e+06
step02_gravity_refstate-mantle.xmf,922,-1.94053e-05,5.17601e-05,0,-4.16907e-05,-1.58901e+09,-1.5795e+09,-1.58642e+09,-5.57196e+06,-0.0688938,0.35778,-0,0.364353,2368.67,-55147.7,0,55198.6,5.57196e+06
step02_gravity_refstate-mantle.xmf,923,-2.43517e-05,6.31493e-05,0,-4.84883e-05,-1.60049e+09,-1.58879e+09,-1.59723e+09,-6.48046e+06,-0.0696146,0.380416,-0,0.386733,2000,-55498.3,0,55534.3,6.48046e+06
step02_gravity_refstate-mantle.xmf,924,-4.50656e-05,8.37916e-05,0,-2.20495e-05,-1.68425e+09,-1.66703e+09,-1.67823e+09,-2.94692e+06,-0.0769351,0.177672,-0,0.193614,1499.28,-58000,0,58019.4,2.94692e+06
step02_gravity_refstate-mantle.xmf,925,-4.48611e-05,9.27552e-05,0,-8.01239e-06,-1.71299e+09,-1.69459e+09,-1.70699e+09,-1.07086e+06,-0.0581675,0.10051,-0,0.116128,1178.65,-58912,0,58923.8,1.07086e+06
step02_gravity_refstate-mantle.xmf,926,-4.68237e-05,9.5067e-05,0,-3.04805e-06,-1.73179e+09,-1.71282e+09,-1.72553e+09,-407372,-0.0435908,0.0487908,-0,0.0654271,891.234,-59485.5,0,59492.2,407372
step02_gravity_refstate-mantle.xmf,927,-4.83133e-05,9.69509e-05,0,6.45965e-08,-1.74861e+09,-1.72919e+09,-1.74215e+09,8633.33,-0.0293084,-6.30138e-19,-0,0.0293084,596.939,-60000,0,60003,8633.33
step02_gravity_refstate-mantle.xmf,928,8.15725e-06,-1.23459e-05,0,-1.02113e-05,-1.25421e+09,-1.25695e+09,-1.2553e+09,-1.36474e+06,0.0263834,0.339173,0,0.340198,2445.75,-44826.1,0,44892.8,1.36474e+06
step02_gravity_refstate-mantle.xmf,929,9.1955e-06,-9.58192e-06,0,-3.71267e-06,-1.15974e+09,-1.16225e+09,-1.16097e+09,-496198,0.0150303,0.317762,0,0.318118,1547.91,-41921.8,0,41950.4,496198
step02_gravity_refstate-mantle.xmf,930,1.01189e-05,-8.89557e-06,0,-1.28058e-06,-1.12081e+09,-1.12336e+09,-1.12217e+09,-171150,0.00736316,0.310866,0,0.310953,720.088,-40727.4,0,40733.8,171150
step02_gravity_refstate-mantle.xmf,931,5.45803e-06,-1.02309e-05,0,-1.45581e-05,-1.28924e+09,-1.29134e+09,-1.28997e+09,-1.94569e+06,0.034359,0.335591,0,0.337345,3169.2,-45895.5,0,46004.8,1.94569e+06
step02_gravity_refstate-mantle.xmf,932,-8.44162e-06,2.70685e-06,0,-2.91025e-05,-1.44979e+09,-1.4483e+09,-1.44866e+09,-3.88955e+06,0.0294088,0.36936,0,0.370529,3202.85,-50794.9,0,50895.8,3.88955e+06
step02_gravity_refstate-mantle.xmf,933,-9.55661e-06,6.60027e-06,0,-2.86513e-05,-1.46526e+09,-1.4631e+09,-1.46398e+09,-3.82925e+06,0.021173,0.363658,0,0.364274,3250.61,-51275.4,0,51378.3,3.82925e+06
step02_gravity_refstate-mantle.xmf,934,-1.58371e-05,4.45644e-05,0,-3.4008e-05,-1.58373e+09,-1.57566e+09,-1.58162e+09,-4.54517e+06,-0.071832,0.323347,-0,0.33123,2778.16,-54990.2,0,55060.3,4.54517e+06
step02_gravity_refstate-mantle.xmf,935,-2.73646e-05,7.23116e-05,0,-4.5053e-05,-1.61655e+09,-1.60323e+09,-1.61289e+09,-6.02133e+06,-0.0810186,0.346771,-0,0.356109,2000,-55997.8,0,56033.5,6.02133e+06
step02_gravity_refstate-mantle.xmf,936,-2.18565e-05,6.21689e-05,0,-3.73642e-05,-1.6118e+09,-1.60057e+09,-1.60888e+09,-4.99372e+06,-0.0866596,0.318277,-0,0.329864,2356.56,-55861.9,0,55911.6,4.99372e+06
step02_gravity_refstate-mantle.xmf,937,-1.80469e-05,5.30639e-05,0,-3.33992e-05,-1.60046e+09,-1.59096e+09,-1.59805e+09,-4.4638e+06,-0.0839008,0.309294,-0,0.320471,2657.93,-55513.9,0,55577.5,4.4638e+06
step02_gravity_refstate-mantle.xmf,938,-2.2677e-05,6.79129e-05,0,-3.34238e-05,-1.62457e+09,-1.61246e+09,-1.62154e+09,-4.46709e+06,-0.0964739,0.289724,-0,0.305364,2380.04,-56265.7,0,56316,4.46709e+06
step02_gravity_refstate-mantle.xmf,939,-2.97191e-05,8.17801e-05,0,-3.99914e-05,-1.63246e+09,-1.61756e+09,-1.62849e+09,-5.34485e+06,-0.0913794,0.308282,-0,0.32154,2000,-56497.8,0,56533.2,5.34485e+06
step02_gravity_refstate-mantle.xmf,940,-4.06375e-05,8.68377e-05,0,-1.2221e-05,-1.70185e+09,-1.68481e+09,-1.69641e+09,-1.63334e+06,-0.075816,0.124837,-0,0.146056,1553.58,-58581,0,58601.6,1.63334e+06
step02_gravity_refstate-mantle.xmf,941,8.24329e-06,-1.1306e-05,0,-8.51076e-06,-1.22895e+09,-1.23156e+09,-1.23005e+09,-1.13746e+06,0.0242166,0.331054,0,0.331939,2381.79,-44049,0,44113.4,1.13746e+06
step02_gravity_refstate-mantle.xmf,942,8.22181e-06,-1.02166e-05,0,-7.06525e-06,-1.20272e+09,-1.20518e+09,-1.20382e+09,-944270,0.0226816,0.322998,0,0.323793,2338.72,-43241.3,0,43304.5,944270
step02_gravity_refstate-mantle.xmf,943,6.10289e-06,-1.00011e-05,0,-1.25445e-05,-1.26546e+09,-1.26761e+09,-1.26627e+09,-1.67657e+06,0.0320999,0.329295,0,0.330856,3122.21,-45165.7,0,45273.5,1.67657e+06
step02_gravity_refstate-mantle.xmf,944,8.27833e-06,-9.22364e-06,0,-5.80389e-06,-1.1754e+09,-1.17774e+09,-1.17651e+09,-775690,0.0217007,0.315367,0,0.316113,2297.05,-42400.4,0,42462.6,775690
step02_gravity_refstate-mantle.xmf,945,9.59265e-06,-8.54818e-06,0,-2.76895e-06,-1.12599e+09,-1.12842e+09,-1.12728e+09,-370070,0.0149974,0.308653,0,0.309018,1504.34,-40884.7,0,40912.4,370070
step02_gravity_refstate-mantle.xmf,946,1.06591e-05,-8.4475e-06,0,-1.2613e-06,-1.09711e+09,-1.09967e+09,-1.09854e+09,-168573,0.010579,0.303716,0,0.3039,979.295,-40000,0,40012,168573
step02_gravity_refstate-mantle.xmf,947,2.64309e-06,-6.72788e-06,0,-1.59464e-05,-1.30055e+09,-1.30181e+09,-1.30091e+09,-2.13124e+06,0.0378194,0.320644,0,0.322866,3807.36,-46235.1,0,46391.6,2.13124e+06
step02_gravity_refstate-mantle.xmf,948,1.29588e-06,-5.91818e-06,0,-1.77805e-05,-1.32345e+09,-1.32441e+09,-1.32362e+09,-2.37636e+06,0.0392411,0.324352,0,0.326717,3833.56,-46935.3,0,47091.6,2.37636e+06
step02_gravity_refstate-mantle.xmf,949,-2.38155e-06,-2.71584e-06,0,-2.0908e-05,-1.36628e+09,-1.36632e+09,-1.36596e+09,-2.79435e+06,0.0400451,0.327201,0,0.329642,3918.36,-48241.9,0,48400.8,2.79435e+06
step02_gravity_refstate-mantle.xmf,950,-4.18042e-07,-4.55067e-06,0,-1.94287e-05,-1.34506e+09,-1.34561e+09,-1.345e+09,-2.59665e+06,0.0401038,0.326218,0,0.328674,3881,-47594.9,0,47752.8,2.59665e+06
step02_gravity_refstate-mantle.xmf,951,-4.39783e-06,-9.11597e-07,0,-2.22975e-05,-1.38675e+09,-1.38629e+09,-1.38617e+09,-2.98006e+06,0.0388476,0.328338,0,0.330628,3919.82,-48865.6,0,49022.6,2.98006e+06
step02_gravity_refstate-mantle.xmf,952,-7.43556e-06,2.55029e-06,0,-2.46407e-05,-1.422e+09,-1.42066e+09,-1.421e+09,-3.29323e+06,0.03405,0.336633,0,0.33835,3747,-49942.8,0,50083.2,3.29323e+06
step02_gravity_refstate-mantle.xmf,953,-6.50909e-06,1.9365e-06,0,-2.30972e-05,-1.40717e+09,-1.40604e+09,-1.4063e+09,-3.08695e+06,0.0360489,0.32806,0,0.330034,3920.85,-49489.4,0,49644.5,3.08695e+06
step02_gravity_refstate-mantle.xmf,954,-1.02671e-05,7.54244e-06,0,-2.4934e-05,-1.45209e+09,-1.44971e+09,-1.45072e+09,-3.33243e+06,0.0237294,0.335031,0,0.33587,3697.82,-50866.2,0,51000.4,3.33243e+06
step02_gravity_refstate-mantle.xmf,955,-9.86568e-06,1.05162e-05,0,-2.86418e-05,-1.48278e+09,-1.48006e+09,-1.48146e+09,-3.82798e+06,0.0094846,0.357777,0,0.357903,3268.09,-51824.5,0,51927.4,3.82798e+06
step02_gravity_refstate-mantle.xmf,956,-1.06411e-05,2.07187e-05,0,-2.9765e-05,-1.52184e+09,-1.51765e+09,-1.52042e+09,-3.97809e+06,-0.022087,0.342875,-0,0.343586,3224.78,-53052.1,0,53150,3.97809e+06
step02_gravity_refstate-mantle.xmf,957,-1.00923e-05,1.51269e-05,0,-2.90789e-05,-1.50157e+09,-1.4982e+09,-1.50022e+09,-3.8864e+06,-0.00509994,0.350735,-0,0.350772,3264.03,-52415.3,0,52516.9,3.8864e+06
step02_gravity_refstate-mantle.xmf,958,-1.2096e-05,3.13815e-05,0,-2.93831e-05,-1.55477e+09,-1.54896e+09,-1.55315e+09,-3.92706e+06,-0.0516182,0.319354,-0,0.323499,3188.37,-54086.8,0,54180.7,3.92706e+06
step02_gravity_refstate-mantle.xmf,959,-1.28714e-05,3.74794e-05,0,-2.76592e-05,-1.57436e+09,-1.56763e+09,-1.57264e+09,-3.69665e+06,-0.0697721,0.296595,-0,0.304691,3206.44,-54702.3,0,54796.2,3.69665e+06
step02_gravity_refstate-mantle.xmf,960,-1.76941e-05,5.69645e-05,0,-2.88389e-05,-1.6169e+09,-1.60692e+09,-1.61453e+09,-3.85432e+06,-0.0984955,0.272997,-0,0.290222,2744.86,-56033.9,0,56101.1,3.85432e+06
step02_gravity_refstate-mantle.xmf,961,-2.18818e-05,7.20532e-05,0,-2.75851e-05,-1.63967e+09,-1.62712e+09,-1.63675e+09,-3.68675e+06,-0.107255,0.251583,-0,0.273492,2433.18,-56748,0,56800.2,3.68675e+06
step02_gravity_refstate-mantle.xmf,962,-3.12885e-05,8.95398e-05,0,-3.33867e-05,-1.64836e+09,-1.63221e+09,-1.64418e+09,-4.46213e+06,-0.0996879,0.265082,-0,0.283207,2000,-56998.3,0,57033.3,4.46213e+06
step02_gravity_refstate-mantle.xmf,963,-3.13137e-05,0.00010001,0,-2.29117e-05,-1.66368e+09,-1.64613e+09,-1.6595e+09,-3.06215e+06,-0.104037,0.217436,-0,0.241044,2000,-57498.2,0,57532.9,3.06215e+06
step02_gravity_refstate-mantle.xmf,964,-2.06104e-05,7.22725e-05,0,-2.39304e-05,-1.65523e+09,-1.64281e+09,-1.65247e+09,-3.1983e+06,-0.114965,0.212803,-0,0.241873,2479.54,-57237.6,0,57291.3,3.1983e+06
step02_gravity_refstate-mantle.xmf,965,-3.75527e-05,8.3933e-05,0,-9.89224e-06,-1.69873e+09,-1.68249e+09,-1.69371e+09,-1.3221e+06,-0.0938271,0.124373,-0,0.155795,2016.77,-58498,0,58532.7,1.3221e+06
step02_gravity_refstate-mantle.xmf,966,-3.8798e-05,8.54999e-05,0,-7.02665e-06,-1.71532e+09,-1.69871e+09,-1.71014e+09,-939112,-0.0825166,0.0850163,-0,0.118477,1768.79,-59006.2,0,59032.7,939112
step02_gravity_refstate-mantle.xmf,967,-4.17869e-05,8.88613e-05,0,-3.58792e-06,-1.73137e+09,-1.71391e+09,-1.72579e+09,-479526,-0.0698197,0.045252,-0,0.0832018,1483.41,-59490.6,0,59509.1,479526
step02_gravity_refstate-mantle.xmf,968,-4.42849e-05,9.19664e-05,0,-1.5259e-08,-1.74815e+09,-1.72994e+09,-1.74223e+09,-2039.36,-0.0569523,-5.52318e-19,-0,0.0569523,1193.88,-60000,0,60011.9,2039.36
step02_gravity_refstate-mantle.xmf,969,6.48024e-06,-9.52486e-06,0,-1.07023e-05,-1.24066e+09,-1.2428e+09,-1.24153e+09,-1.43036e+06,0.0301024,0.322648,0,0.324049,3083.29,-44403.6,0,44510.5,1.43036e+06
step02_gravity_refstate-mantle.xmf,970,8.46781e-06,-8.27362e-06,0,-4.73933e-06,-1.14705e+09,-1.14928e+09,-1.14818e+09,-633411,0.0217026,0.307791,0,0.308555,2293.3,-41528.2,0,41591.5,633411
step02_gravity_refstate-mantle.xmf,971,3.69812e-06,-7.14522e-06,0,-1.41264e-05,-1.27687e+09,-1.27832e+09,-1.27737e+09,-1.88799e+06,0.0361506,0.316339,0,0.318398,3778.18,-45509.6,0,45666.2,1.88799e+06
step02_gravity_refstate-mantle.xmf,972,-5.14307e-06,1.66279e-06,0,-1.98293e-05,-1.37641e+09,-1.3755e+09,-1.37572e+09,-2.65019e+06,0.0374855,0.305649,0,0.307939,4424.61,-48547.7,0,48748.9,2.65019e+06
step02_gravity_refstate-mantle.xmf,973,-9.20916e-06,5.73865e-06,0,-2.40439e-05,-1.43481e+09,-1.43281e+09,-1.43358e+09,-3.21347e+06,0.0293546,0.328846,0,0.330154,3852.93,-50334.8,0,50482,3.21347e+06
step02_gravity_refstate-mantle.xmf,974,-1.09893e-05,1.17936e-05,0,-2.39986e-05,-1.47334e+09,-1.47029e+09,-1.47187e+09,-3.20741e+06,0.0112189,0.326586,0,0.326779,3729.61,-51528.5,0,51663.3,3.20741e+06
step02_gravity_refstate-mantle.xmf,975,-1.12256e-05,2.59008e-05,0,-2.77839e-05,-1.53862e+09,-1.53365e+09,-1.53712e+09,-3.71332e+06,-0.0386414,0.319662,-0,0.32199,3351.38,-53579.6,0,53684.3,3.71332e+06
step02_gravity_refstate-mantle.xmf,976,-1.34449e-05,4.32022e-05,0,-2.59766e-05,-1.59213e+09,-1.58456e+09,-1.59033e+09,-3.47177e+06,-0.0852927,0.275925,-0,0.288807,3182.81,-55262,0,55353.6,3.47177e+06
step02_gravity_refstate-mantle.xmf,977,-1.78984e-05,6.14848e-05,0,-2.61604e-05,-1.63045e+09,-1.61984e+09,-1.62806e+09,-3.49634e+06,-0.107889,0.248101,-0,0.270544,2737.83,-56462.7,0,56529.1,3.49634e+06
step02_gravity_refstate-mantle.xmf,978,-2.38482e-05,7.61757e-05,0,-2.35725e-05,-1.67201e+09,-1.65864e+09,-1.66882e+09,-3.15047e+06,-0.115542,0.176377,-0,0.210852,2446.27,-57744.4,0,57796.2,3.15047e+06
step02_gravity_refstate-mantle.xmf,979,-3.62062e-05,8.33805e-05,0,-1.31043e-05,-1.68236e+09,-1.66638e+09,-1.67752e+09,-1.75139e+06,-0.0986047,0.165671,-0,0.192794,2000,-58000,0,58034.5,1.75139e+06
step02_gravity_refstate-mantle.xmf,980,6.78695e-06,-8.87559e-06,0,-9.14914e-06,-1.21517e+09,-1.21727e+09,-1.21608e+09,-1.22278e+06,0.0285524,0.315976,0,0.317264,3053.64,-43620,0,43726.7,1.22278e+06
step02_gravity_refstate-mantle.xmf,981,7.04539e-06,-8.21426e-06,0,-7.69549e-06,-1.18824e+09,-1.19028e+09,-1.18918e+09,-1.0285e+06,0.0274787,0.309402,0,0.31062,3022.03,-42791.4,0,42897.9,1.0285e+06
step02_gravity_refstate-mantle.xmf,982,4.48215e-06,-7.23033e-06,0,-1.2401e-05,-1.25248e+09,-1.25404e+09,-1.25307e+09,-1.65739e+06,0.0345202,0.311486,0,0.313393,3754.24,-44761,0,44918.1,1.65739e+06
step02_gravity_refstate-mantle.xmf,983,7.34659e-06,-7.63529e-06,0,-6.41763e-06,-1.16181e+09,-1.16381e+09,-1.16279e+09,-857717,0.0270489,0.303449,0,0.304652,2987.64,-41978.5,0,42084.7,857717
step02_gravity_refstate-mantle.xmf,984,9.87398e-06,-7.81992e-06,0,-2.49157e-06,-1.09723e+09,-1.09959e+09,-1.09855e+09,-332998,0.0206293,0.298416,0,0.299128,1958.59,-40000,0,40047.9,332998
step02_gravity_refstate-mantle.xmf,985,8.69975e-06,-7.51351e-06,0,-3.99408e-06,-1.12029e+09,-1.12245e+09,-1.12145e+09,-533808,0.0239702,0.299641,0,0.300598,2462.64,-40705.1,0,40779.6,533808
step02_gravity_refstate-mantle.xmf,986,1.21874e-06,-4.04055e-06,0,-1.49417e-05,-1.28846e+09,-1.28916e+09,-1.28862e+09,-1.99695e+06,0.0383369,0.300886,0,0.303319,4415.72,-45858.9,0,46071,1.99695e+06
step02_gravity_refstate-mantle.xmf,987,-8.35226e-08,-3.13396e-06,0,-1.63973e-05,-1.3116e+09,-1.31201e+09,-1.31159e+09,-2.1915e+06,0.0391163,0.303259,0,0.305771,4424.5,-46567.4,0,46777.1,2.1915e+06
step02_gravity_refstate-mantle.xmf,988,-1.63946e-06,-1.82337e-06,0,-1.77302e-05,-1.33381e+09,-1.33384e+09,-1.33359e+09,-2.36964e+06,0.0394068,0.304605,0,0.307143,4438.07,-47246.4,0,47454.4,2.36964e+06
step02_gravity_refstate-mantle.xmf,989,-3.2828e-06,-3.43546e-07,0,-1.89455e-05,-1.35561e+09,-1.35522e+09,-1.35518e+09,-2.53206e+06,0.0390099,0.306264,0,0.308738,4416.49,-47912.6,0,48115.8,2.53206e+06
step02_gravity_refstate-mantle.xmf,990,-7.08341e-06,3.71962e-06,0,-2.05274e-05,-1.39668e+09,-1.39524e+09,-1.39574e+09,-2.74349e+06,0.0346583,0.30439,0,0.306357,4417.19,-49166.2,0,49364.2,2.74349e+06
step02_gravity_refstate-mantle.xmf,991,-9.03965e-06,6.22153e-06,0,-2.19616e-05,-1.42459e+09,-1.42255e+09,-1.42338e+09,-2.93517e+06,0.0297908,0.312365,0,0.313782,4176.21,-50021.6,0,50195.6,2.93517e+06
step02_gravity_refstate-mantle.xmf,992,-1.06686e-05,9.69471e-06,0,-2.10939e-05,-1.44387e+09,-1.44115e+09,-1.44244e+09,-2.8192e+06,0.0218806,0.304293,0,0.305079,4238.21,-50615,0,50792.2,2.8192e+06
step02_gravity_refstate-mantle.xmf,993,-1.09574e-05,1.53843e-05,0,-2.36926e-05,-1.49286e+09,-1.48934e+09,-1.49139e+09,-3.16652e+06,-0.00286157,0.319033,-0,0.319046,3721.28,-52141,0,52273.6,3.16652e+06
step02_gravity_refstate-mantle.xmf,994,-1.08444e-05,1.93495e-05,0,-2.33613e-05,-1.51195e+09,-1.50792e+09,-1.5105e+09,-3.12224e+06,-0.0187383,0.308542,-0,0.309111,3724.03,-52741.8,0,52873.1,3.12224e+06
step02_gravity_refstate-mantle.xmf,995,-1.07855e-05,2.35625e-05,0,-2.27172e-05,-1.53049e+09,-1.5259e+09,-1.52905e+09,-3.03616e+06,-0.0355048,0.294731,-0,0.296861,3742.55,-53325.5,0,53456.6,3.03616e+06
step02_gravity_refstate-mantle.xmf,996,-1.07545e-05,2.78203e-05,0,-2.22409e-05,-1.54827e+09,-1.54311e+09,-1.54683e+09,-2.9725e+06,-0.0517783,0.281781,-0,0.286499,3724.28,-53885.7,0,54014.2,2.9725e+06
step02_gravity_refstate-mantle.xmf,997,-1.08956e-05,3.21842e-05,0,-2.20538e-05,-1.56521e+09,-1.55945e+09,-1.56375e+09,-2.94748e+06,-0.0668312,0.270825,-0,0.278949,3656.85,-54419.3,0,54542,2.94748e+06
step02_gravity_refstate-mantle.xmf,998,-1.07796e-05,3.64057e-05,0,-2.07956e-05,-1.58344e+09,-1.57713e+09,-1.582e+09,-2.77934e+06,-0.0833661,0.251842,-0,0.265282,3646.36,-54994,0,55114.7,2.77934e+06
step02_gravity_refstate-mantle.xmf,999,-1.35758e-05,4.82305e-05,0,-2.38408e-05,-1.60939e+09,-1.60113e+09,-1.60757e+09,-3.18633e+06,-0.0994726,0.252405,-0,0.271299,3164.44,-55807.2,0,55896.8,3.18633e+06
step02_gravity_refstate-mantle.xmf,1000,-1.33001e-05,5.19549e-05,0,-2.18499e-05,-1.62672e+09,-1.618e+09,-1.62494e+09,-2.92024e+06,-0.112024,0.225984,-0,0.252227,3148.53,-56354,0,56441.8,2.92024e+06
step02_gravity_refstate-mantle.xmf,1001,-1.43868e-05,5.80299e-05,0,-2.14301e-05,-1.64455e+09,-1.63487e+09,-1.64263e+09,-2.86413e+06,-0.119805,0.205381,-0,0.23777,2977.92,-56913,0,56990.9,2.86413e+06
step02_gravity_refstate-mantle.xmf,1002,-1.60261e-05,6.2336e-05,0,-2.09173e-05,-1.66335e+09,-1.65288e+09,-1.66121e+09,-2.79559e+06,-0.124786,0.172769,-0,0.213121,2925.88,-57493.7,0,57568.1,2.79559e+06
step02_gravity_refstate-mantle.xmf,1003,-3.1418e-05,7.98199e-05,0,-1.81544e-05,-1.68919e+09,-1.67432e+09,-1.68499e+09,-2.42633e+06,-0.111728,0.137528,-0,0.177192,2465.73,-58233.7,0,58285.9,2.42633e+06
step02_gravity_refstate-mantle.xmf,1004,-2.1465e-05,6.74557e-05,0,-1.93145e-05,-1.68059e+09,-1.6687e+09,-1.67772e+09,-2.58138e+06,-0.124377,0.140787,-0,0.187858,2897.52,-58003,0,58075.3,2.58138e+06
step02_gravity_refstate-mantle.xmf,1005,-3.45156e-05,7.98311e-05,0,-7.51346e-06,-1.71563e+09,-1.70034e+09,-1.71101e+09,-1.00417e+06,-0.101937,0.0770308,-0,0.127769,2300.75,-59029.7,0,59074.5,1.00417e+06
step02_gravity_refstate-mantle.xmf,1006,-3.66998e-05,8.23356e-05,0,-3.60493e-06,-1.73138e+09,-1.71547e+09,-1.72648e+09,-481799,-0.092422,0.0404356,-0,0.10088,2060.24,-59508.2,0,59543.9,481799
step02_gravity_refstate-mantle.xmf,1007,-3.91751e-05,8.54165e-05,0,5.7246e-10,-1.74758e+09,-1.73093e+09,-1.74235e+09,76.5093,-0.0818631,-4.90523e-19,-0,0.0818631,1790.83,-60000,0,60026.7,76.5093
step02_gravity_refstate-mantle.xmf,1008,5.02067e-06,-7.07727e-06,0,-1.07844e-05,-1.22731e+09,-1.22893e+09,-1.22798e+09,-1.44133e+06,0.0332036,0.306057,0,0.307852,3748.45,-43987.6,0,44147,1.44133e+06
step02_gravity_refstate-mantle.xmf,1009,7.7422e-06,-7.2602e-06,0,-5.33816e-06,-1.1392e+09,-1.14121e+09,-1.14024e+09,-713445,0.0269572,0.299125,0,0.300337,2918.34,-41283.7,0,41386.7,713445
step02_gravity_refstate-mantle.xmf,1010,2.30174e-06,-4.62914e-06,0,-1.34279e-05,-1.26416e+09,-1.26508e+09,-1.26446e+09,-1.79464e+06,0.037331,0.297767,0,0.300098,4408.7,-45113.9,0,45328.8,1.79464e+06
step02_gravity_refstate-mantle.xmf,1011,-5.63078e-06,3.42084e-06,0,-1.76953e-05,-1.36617e+09,-1.36496e+09,-1.36542e+09,-2.36497e+06,0.0357408,0.284445,0,0.286682,4959.5,-48232.5,0,48486.8,2.36497e+06
step02_gravity_refstate-mantle.xmf,1012,-7.36055e-06,5.61644e-06,0,-1.79486e-05,-1.38691e+09,-1.38518e+09,-1.38593e+09,-2.39883e+06,0.0325734,0.281557,0,0.283435,4962.5,-48867.4,0,49118.8,2.39883e+06
step02_gravity_refstate-mantle.xmf,1013,-8.58628e-06,6.25702e-06,0,-2.01948e-05,-1.41245e+09,-1.41046e+09,-1.4113e+09,-2.69904e+06,0.0306604,0.299139,0,0.300706,4476.76,-49649.7,0,49851.1,2.69904e+06
step02_gravity_refstate-mantle.xmf,1014,-1.14299e-05,1.24337e-05,0,-2.02927e-05,-1.46318e+09,-1.45999e+09,-1.46165e+09,-2.71212e+06,0.011821,0.297647,0,0.297881,4239.59,-51213.6,0,51388.8,2.71212e+06
step02_gravity_refstate-mantle.xmf,1015,-1.14975e-05,1.56274e-05,0,-1.93269e-05,-1.48306e+09,-1.47944e+09,-1.48153e+09,-2.58304e+06,-0.00131183,0.289014,-0,0.289017,4239.13,-51835.5,0,52008.5,2.58304e+06
step02_gravity_refstate-mantle.xmf,1016,-1.03551e-05,4.03949e-05,0,-1.9128e-05,-1.60113e+09,-1.59434e+09,-1.59974e+09,-2.55645e+06,-0.0986586,0.230515,-0,0.250741,3643.32,-55553.4,0,55672.8,2.55645e+06
step02_gravity_refstate-mantle.xmf,1017,-1.54698e-05,5.83393e-05,0,-1.75687e-05,-1.67408e+09,-1.66422e+09,-1.67202e+09,-2.34806e+06,-0.131465,0.138225,-0,0.190759,3285.04,-57818.8,0,57912.1,2.34806e+06
step02_gravity_refstate-mantle.xmf,1018,-3.21221e-05,7.76064e-05,0,-1.17735e-05,-1.7029e+09,-1.68824e+09,-1.69861e+09,-1.57353e+06,-0.110581,0.103797,-0,0.151665,2518.1,-58646.9,0,58701,1.57353e+06
step02_gravity_refstate-mantle.xmf,1019,5.50946e-06,-6.75491e-06,0,-9.32805e-06,-1.20113e+09,-1.20277e+09,-1.20187e+09,-1.24669e+06,0.0322788,0.300654,0,0.302382,3739.66,-43183.1,0,43344.7,1.24669e+06
step02_gravity_refstate-mantle.xmf,1020,6.00835e-06,-6.47496e-06,0,-7.87597e-06,-1.17337e+09,-1.17504e+09,-1.17418e+09,-1.05262e+06,0.0317917,0.295595,0,0.2973,3704.28,-42329.7,0,42491.5,1.05262e+06
step02_gravity_refstate-mantle.xmf,1021,3.15288e-06,-4.93779e-06,0,-1.19766e-05,-1.23973e+09,-1.24081e+09,-1.24015e+09,-1.60067e+06,0.0363831,0.294253,0,0.296493,4403.37,-44364.3,0,44582.3,1.60067e+06
step02_gravity_refstate-mantle.xmf,1022,6.50449e-06,-6.22442e-06,0,-6.56522e-06,-1.14716e+09,-1.14886e+09,-1.14803e+09,-877441,0.0319915,0.291141,0,0.292893,3659.61,-41523.9,0,41684.9,877441
step02_gravity_refstate-mantle.xmf,1023,7.38613e-06,-6.32825e-06,0,-5.11329e-06,-1.12139e+09,-1.12322e+09,-1.12238e+09,-683392,0.0314691,0.289591,0,0.291296,3400.03,-40733.5,0,40875.2,683392
step02_gravity_refstate-mantle.xmf,1024,8.63787e-06,-6.81299e-06,0,-3.52082e-06,-1.09741e+09,-1.09948e+09,-1.09857e+09,-470557,0.0297141,0.289936,0,0.291455,2938.83,-40000,0,40107.8,470557
step02_gravity_refstate-mantle.xmf,1025,1.29194e-07,-1.89463e-06,0,-1.38303e-05,-1.27613e+09,-1.2764e+09,-1.27615e+09,-1.84841e+06,0.0384373,0.28203,0,0.284637,5050.47,-45476.3,0,45755.9,1.84841e+06
step02_gravity_refstate-mantle.xmf,1026,-1.15735e-06,-8.88057e-07,0,-1.50072e-05,-1.30017e+09,-1.30014e+09,-1.30002e+09,-2.00571e+06,0.0385819,0.283201,0,0.285817,5048.52,-46212.8,0,46487.7,2.00571e+06
step02_gravity_refstate-mantle.xmf,1027,-2.47107e-06,2.22055e-07,0,-1.60519e-05,-1.32233e+09,-1.32197e+09,-1.322e+09,-2.14534e+06,0.0383552,0.284392,0,0.286966,5020.56,-46891.5,0,47159.5,2.14534e+06
step02_gravity_refstate-mantle.xmf,1028,-4.30294e-06,2.14747e-06,0,-1.6743e-05,-1.34502e+09,-1.34416e+09,-1.34445e+09,-2.2377e+06,0.037093,0.281509,0,0.283942,5083.48,-47585,0,47855.8,2.2377e+06
step02_gravity_refstate-mantle.xmf,1029,-9.07639e-06,7.86647e-06,0,-1.79609e-05,-1.40791e+09,-1.40565e+09,-1.4067e+09,-2.40047e+06,0.0277157,0.27762,0,0.279,4954.94,-49510.4,0,49757.7,2.40047e+06
step02_gravity_refstate-mantle.xmf,1030,-1.03101e-05,1.0139e-05,0,-1.81229e-05,-1.42901e+09,-1.42627e+09,-1.42763e+09,-2.42212e+06,0.022255,0.279526,0,0.28041,4792.1,-50159.5,0,50387.9,2.42212e+06
step02_gravity_refstate-mantle.xmf,1031,-1.1372e-05,1.31694e-05,0,-1.70643e-05,-1.45256e+09,-1.44928e+09,-1.45104e+09,-2.28064e+06,0.0114232,0.271153,0,0.271394,4793.18,-50887.9,0,51113.1,2.28064e+06
step02_gravity_refstate-mantle.xmf,1032,-1.11297e-05,1.86145e-05,0,-1.84744e-05,-1.50238e+09,-1.49841e+09,-1.5009e+09,-2.4691e+06,-0.0163947,0.278322,-0,0.278804,4245.83,-52442.4,0,52614,2.4691e+06
step02_gravity_refstate-mantle.xmf,1033,-1.05682e-05,2.17719e-05,0,-1.76782e-05,-1.52177e+09,-1.51745e+09,-1.52036e+09,-2.3627e+06,-0.0330961,0.2658,-0,0.267853,4250.28,-53053.1,0,53223.1,2.3627e+06
step02_gravity_refstate-mantle.xmf,1034,-9.95432e-06,2.50754e-05,0,-1.6971e-05,-1.54094e+09,-1.53626e+09,-1.53961e+09,-2.26818e+06,-0.0503803,0.252399,-0,0.257378,4239.43,-53657.9,0,53825.1,2.26818e+06
step02_gravity_refstate-mantle.xmf,1035,-9.4511e-06,2.8611e-05,0,-1.6627e-05,-1.5596e+09,-1.55451e+09,-1.55833e+09,-2.2222e+06,-0.0670173,0.24062,-0,0.249779,4176.97,-54246.5,0,54407.1,2.2222e+06
step02_gravity_refstate-mantle.xmf,1036,-9.29431e-06,3.20656e-05,0,-1.69134e-05,-1.57524e+09,-1.56971e+09,-1.574e+09,-2.26048e+06,-0.0801311,0.233767,-0,0.247119,4049.02,-54739.6,0,54889.1,2.26048e+06
step02_gravity_refstate-mantle.xmf,1037,-8.23689e-06,3.40901e-05,0,-1.5163e-05,-1.59258e+09,-1.58692e+09,-1.59148e+09,-2.02654e+06,-0.0960588,0.211069,-0,0.2319,4123.57,-55287.4,0,55440.9,2.02654e+06
step02_gravity_refstate-mantle.xmf,1038,-9.77827e-06,4.38254e-05,0,-1.76615e-05,-1.61909e+09,-1.61193e+09,-1.61779e+09,-2.36046e+06,-0.112483,0.207423,-0,0.235959,3629.92,-56121.1,0,56238.4,2.36046e+06
step02_gravity_refstate-mantle.xmf,1039,-9.69903e-06,4.69346e-05,0,-1.69698e-05,-1.63805e+09,-1.63048e+09,-1.63675e+09,-2.26801e+06,-0.124,0.182663,-0,0.220776,3587.51,-56715,0,56828.3,2.26801e+06
step02_gravity_refstate-mantle.xmf,1040,-1.10069e-05,5.10928e-05,0,-1.65708e-05,-1.65953e+09,-1.65123e+09,-1.65806e+09,-2.21469e+06,-0.132194,0.152474,-0,0.201801,3530.66,-57380.6,0,57489.1,2.21469e+06
step02_gravity_refstate-mantle.xmf,1041,-1.78852e-05,5.98638e-05,0,-1.47407e-05,-1.68863e+09,-1.67824e+09,-1.68624e+09,-1.9701e+06,-0.133238,0.109435,-0,0.172419,3374.14,-58255.9,0,58353.6,1.9701e+06
step02_gravity_refstate-mantle.xmf,1042,-2.57545e-05,7.02269e-05,0,-1.43309e-05,-1.69721e+09,-1.68439e+09,-1.69377e+09,-1.91533e+06,-0.122743,0.106432,-0,0.162461,2914.22,-58495,0,58567.5,1.91533e+06
step02_gravity_refstate-mantle.xmf,1043,-2.84239e-05,7.18808e-05,0,-8.91311e-06,-1.7139e+09,-1.7005e+09,-1.7101e+09,-1.19124e+06,-0.119022,0.0721844,-0,0.139201,2839.97,-58996.8,0,59065.1,1.19124e+06
step02_gravity_refstate-mantle.xmf,1044,-3.12707e-05,7.50924e-05,0,-4.01377e-06,-1.73098e+09,-1.71676e+09,-1.7268e+09,-536440,-0.111599,0.0364864,-0,0.117412,2624.72,-59513.6,0,59571.4,536440
step02_gravity_refstate-mantle.xmf,1045,-3.36725e-05,7.81678e-05,0,1.18985e-08,-1.74699e+09,-1.73205e+09,-1.74249e+09,1590.23,-0.103663,-4.45931e-19,-0,0.103663,2389.19,-60000,0,60047.6,1590.23
step02_gravity_refstate-mantle.xmf,1046,3.86467e-06,-5.0917e-06,0,-1.05009e-05,-1.21342e+09,-1.21462e+09,-1.21394e+09,-1.40345e+06,0.0356714,0.290142,0,0.292327,4404.74,-43556,0,43778.2,1.40345e+06
step02_gravity_refstate-mantle.xmf,1047,1.23548e-06,-2.64038e-06,0,-1.25733e-05,-1.25125e+09,-1.25176e+09,-1.25141e+09,-1.68042e+06,0.0380916,0.280228,0,0.282805,5050.23,-44713,0,44997.3,1.68042e+06
step02_gravity_refstate-mantle.xmf,1048,-6.14433e-06,4.89608e-06,0,-1.60045e-05,-1.36036e+09,-1.35888e+09,-1.35954e+09,-2.139e+06,0.0335819,0.266515,0,0.268622,5453.19,-48053.4,0,48361.8,2.139e+06
step02_gravity_refstate-mantle.xmf,1049,-7.39583e-06,6.61377e-06,0,-1.59477e-05,-1.37709e+09,-1.37522e+09,-1.3761e+09,-2.13142e+06,0.0306477,0.262619,0,0.264402,5479.7,-48566.4,0,48874.6,2.13142e+06
step02_gravity_refstate-mantle.xmf,1050,-8.85377e-06,8.85479e-06,0,-1.55544e-05,-1.3978e+09,-1.39543e+09,-1.39661e+09,-2.07885e+06,0.0255583,0.256515,0,0.257786,5512.26,-49201.9,0,49509.7,2.07885e+06
step02_gravity_refstate-mantle.xmf,1051,-1.15649e-05,1.54845e-05,0,-1.60531e-05,-1.47306e+09,-1.46944e+09,-1.47151e+09,-2.14549e+06,-0.000626567,0.263006,-0,0.263007,4775.58,-51525.5,0,51746.4,2.14549e+06
step02_gravity_refstate-mantle.xmf,1052,-1.11925e-05,1.80175e-05,0,-1.4827e-05,-1.49264e+09,-1.48873e+09,-1.49114e+09,-1.98163e+06,-0.0147545,0.252192,-0,0.252623,4786.25,-52139.4,0,52358.6,1.98163e+06
step02_gravity_refstate-mantle.xmf,1053,-7.31071e-06,3.66867e-05,0,-1.38539e-05,-1.60986e+09,-1.60398e+09,-1.60888e+09,-1.85157e+06,-0.110291,0.1898,-0,0.219518,4156.77,-55834.1,0,55988.6,1.85157e+06
step02_gravity_refstate-mantle.xmf,1054,-1.28045e-05,5.24682e-05,0,-1.4228e-05,-1.67859e+09,-1.66987e+09,-1.67688e+09,-1.90158e+06,-0.137688,0.116123,-0,0.180118,3697,-57960.8,0,58078.6,1.90158e+06
step02_gravity_refstate-mantle.xmf,1055,4.46531e-06,-5.00506e-06,0,-9.10505e-06,-1.18593e+09,-1.1872e+09,-1.18653e+09,-1.21689e+06,0.0355242,0.285515,0,0.287716,4423.04,-42711.1,0,42939.5,1.21689e+06
step02_gravity_refstate-mantle.xmf,1056,5.08091e-06,-4.97508e-06,0,-7.7066e-06,-1.15792e+09,-1.15927e+09,-1.1586e+09,-1.02999e+06,0.0359265,0.281612,0,0.283894,4399.39,-41850,0,42080.6,1.02999e+06
step02_gravity_refstate-mantle.xmf,1057,2.15531e-06,-3.12997e-06,0,-1.12762e-05,-1.22539e+09,-1.2261e+09,-1.22568e+09,-1.50706e+06,0.0378149,0.277637,0,0.2802,5060.53,-43919.2,0,44209.8,1.50706e+06
step02_gravity_refstate-mantle.xmf,1058,5.72199e-06,-4.86726e-06,0,-6.19929e-06,-1.12711e+09,-1.12853e+09,-1.12788e+09,-828535,0.0375775,0.277046,0,0.279583,4391.24,-40902.9,0,41137.9,828535
step02_gravity_refstate-mantle.xmf,1059,7.12133e-06,-5.55962e-06,0,-4.33228e-06,-1.09764e+09,-1.09933e+09,-1.09859e+09,-579009,0.0374939,0.278722,0,0.281232,3924.05,-40000,0,40192,579009
step02_gravity_refstate-mantle.xmf,1060,-6.78135e-07,-2.1293e-07,0,-1.26536e-05,-1.26335e+09,-1.26328e+09,-1.26326e+09,-1.69115e+06,0.0382765,0.263983,0,0.266744,5714.8,-45080.2,0,45441,1.69115e+06
step02_gravity_refstate-mantle.xmf,1061,-1.96518e-06,9.09595e-07,0,-1.36073e-05,-1.28876e+09,-1.28837e+09,-1.2885e+09,-1.81861e+06,0.037726,0.263877,0,0.26656,5712.06,-45859.5,0,46213.8,1.81861e+06
step02_gravity_refstate-mantle.xmf,1062,-3.26488e-06,2.08044e-06,0,-1.44523e-05,-1.31251e+09,-1.31179e+09,-1.31207e+09,-1.93155e+06,0.0368948,0.264289,0,0.266852,5664.13,-46587.4,0,46930.5,1.93155e+06
step02_gravity_refstate-mantle.xmf,1063,-4.26373e-06,2.86936e-06,0,-1.52003e-05,-1.33134e+09,-1.33038e+09,-1.33077e+09,-2.03152e+06,0.0360685,0.266158,0,0.268591,5561.24,-47164.3,0,47491,2.03152e+06
step02_gravity_refstate-mantle.xmf,1064,-5.80223e-06,5.03541e-06,0,-1.48445e-05,-1.34776e+09,-1.34631e+09,-1.34698e+09,-1.98397e+06,0.0332296,0.256388,0,0.258532,5795.12,-47666.8,0,48017.8,1.98397e+06
step02_gravity_refstate-mantle.xmf,1065,-1.01822e-05,1.1041e-05,0,-1.50486e-05,-1.41996e+09,-1.41713e+09,-1.4186e+09,-2.01124e+06,0.0185633,0.250671,0,0.251357,5491.04,-49883.3,0,50184.6,2.01124e+06
step02_gravity_refstate-mantle.xmf,1066,-1.09773e-05,1.34306e-05,0,-1.4273e-05,-1.44245e+09,-1.43919e+09,-1.44098e+09,-1.90759e+06,0.00980341,0.246303,0,0.246498,5397.04,-50578.8,0,50865.9,1.90759e+06
step02_gravity_refstate-mantle.xmf,1067,-1.12498e-05,1.55107e-05,0,-1.32043e-05,-1.46306e+09,-1.45948e+09,-1.46155e+09,-1.76476e+06,-0.00111712,0.238623,-0,0.238625,5364.35,-51218.8,0,51499,1.76476e+06
step02_gravity_refstate-mantle.xmf,1068,-1.04376e-05,2.03545e-05,0,-1.37303e-05,-1.51226e+09,-1.50814e+09,-1.51086e+09,-1.83506e+06,-0.0306542,0.239936,-0,0.241886,4795.25,-52756.5,0,52974,1.83506e+06
step02_gravity_refstate-mantle.xmf,1069,-9.44016e-06,2.27877e-05,0,-1.27633e-05,-1.53244e+09,-1.52813e+09,-1.53118e+09,-1.70582e+06,-0.0481122,0.226448,-0,0.231503,4791.8,-53392.7,0,53607.3,1.70582e+06
step02_gravity_refstate-mantle.xmf,1070,-8.30145e-06,2.53653e-05,0,-1.19625e-05,-1.55331e+09,-1.54881e+09,-1.5522e+09,-1.59879e+06,-0.0666199,0.211838,-0,0.222066,4768.7,-54051.6,0,54261.6,1.59879e+06
step02_gravity_refstate-mantle.xmf,1071,-7.33028e-06,2.85338e-05,0,-1.18149e-05,-1.57546e+09,-1.57067e+09,-1.57448e+09,-1.57906e+06,-0.08536,0.199628,-0,0.217112,4641.35,-54750.6,0,54947,1.57906e+06
step02_gravity_refstate-mantle.xmf,1072,-5.77018e-06,3.06443e-05,0,-1.04612e-05,-1.59838e+09,-1.59352e+09,-1.59761e+09,-1.39814e+06,-0.105088,0.174429,-0,0.20364,4715.78,-55474.5,0,55674.5,1.39814e+06
step02_gravity_refstate-mantle.xmf,1073,-6.77355e-06,3.94282e-05,0,-1.32322e-05,-1.62922e+09,-1.62305e+09,-1.62832e+09,-1.76848e+06,-0.123493,0.167781,-0,0.208329,4133.26,-56442.9,0,56594,1.76848e+06
step02_gravity_refstate-mantle.xmf,1074,-7.07357e-06,4.20599e-05,0,-1.29954e-05,-1.64928e+09,-1.64272e+09,-1.64834e+09,-1.73683e+06,-0.133814,0.143299,-0,0.196064,4109.26,-57067.3,0,57215,1.73683e+06
step02_gravity_refstate-mantle.xmf,1075,-8.74352e-06,4.53353e-05,0,-1.23309e-05,-1.66971e+09,-1.66249e+09,-1.66855e+09,-1.64802e+06,-0.140444,0.116228,-0,0.1823,4094.92,-57695.6,0,57840.7,1.64802e+06
step02_gravity_refstate-mantle.xmf,1076,-1.26357e-05,5.06072e-05,0,-1.10062e-05,-1.69036e+09,-1.68191e+09,-1.68867e+09,-1.47098e+06,-0.14238,0.0896229,-0,0.168239,3975.48,-58320.8,0,58456.2,1.47098e+06
step02_gravity_refstate-mantle.xmf,1077,-2.08454e-05,6.20612e-05,0,-9.98603e-06,-1.70761e+09,-1.69653e+09,-1.70482e+09,-1.33463e+06,-0.132797,0.074238,-0,0.152139,3382.76,-58827.9,0,58925.1,1.33463e+06
step02_gravity_refstate-mantle.xmf,1078,-2.41123e-05,6.54569e-05,0,-4.53139e-06,-1.72875e+09,-1.71678e+09,-1.72553e+09,-605620,-0.129183,0.0349235,-0,0.13382,3257.63,-59468,0,59557.1,605620
step02_gravity_refstate-mantle.xmf,1079,-2.73398e-05,6.97245e-05,0,-4.57551e-08,-1.74632e+09,-1.73335e+09,-1.74267e+09,-6115.17,-0.122186,-3.89536e-19,-0,0.122186,2996.03,-60000,0,60074.8,6115.17
step02_gravity_refstate-mantle.xmf,1080,2.91245e-06,-3.44834e-06,0,-9.97744e-06,-1.19885e+09,-1.1997e+09,-1.19924e+09,-1.33349e+06,0.037886,0.274444,0,0.277047,5083.32,-43103.6,0,43402.3,1.33349e+06
step02_gravity_refstate-mantle.xmf,1081,4.34939e-07,-1.07849e-06,0,-1.15894e-05,-1.23736e+09,-1.23757e+09,-1.23742e+09,-1.54893e+06,0.0386366,0.263315,0,0.266135,5717.91,-44282.9,0,44650.5,1.54893e+06
step02_gravity_refstate-mantle.xmf,1082,-7.23416e-06,7.15048e-06,0,-1.43401e-05,-1.36677e+09,-1.36484e+09,-1.3658e+09,-1.91655e+06,0.0291231,0.247163,0,0.248872,5961.57,-48249.9,0,48616.8,1.91655e+06
step02_gravity_refstate-mantle.xmf,1083,-8.51088e-06,9.19489e-06,0,-1.37336e-05,-1.38699e+09,-1.38462e+09,-1.38585e+09,-1.83549e+06,0.0238625,0.23919,0,0.240378,6044.84,-48871.2,0,49243.6,1.83549e+06
step02_gravity_refstate-mantle.xmf,1084,-9.60885e-06,1.13314e-05,0,-1.28306e-05,-1.40892e+09,-1.40612e+09,-1.40764e+09,-1.71481e+06,0.0166392,0.230556,0,0.231155,6093.24,-49546.8,0,49920.1,1.71481e+06
step02_gravity_refstate-mantle.xmf,1085,-1.09572e-05,1.72941e-05,0,-1.20329e-05,-1.48285e+09,-1.47907e+09,-1.48138e+09,-1.6082e+06,-0.0139339,0.229066,-0,0.229489,5352.84,-51836.6,0,52112.2,1.6082e+06
step02_gravity_refstate-mantle.xmf,1086,-1.02462e-05,1.91645e-05,0,-1.08433e-05,-1.50222e+09,-1.49829e+09,-1.50085e+09,-1.4492e+06,-0.028315,0.218204,-0,0.220033,5348.57,-52444.5,0,52716.6,1.4492e+06
step02_gravity_refstate-mantle.xmf,1087,-4.81585e-06,3.31112e-05,0,-9.93919e-06,-1.61904e+09,-1.61397e+09,-1.6184e+09,-1.32837e+06,-0.120216,0.154535,-0,0.195788,4694.79,-56125.2,0,56321.2,1.32837e+06
step02_gravity_refstate-mantle.xmf,1088,3.45355e-06,-3.37987e-06,0,-8.61676e-06,-1.1694e+09,-1.17032e+09,-1.16987e+09,-1.15163e+06,0.0389366,0.269116,0,0.271918,5197.98,-42197.9,0,42516.8,1.15163e+06
step02_gravity_refstate-mantle.xmf,1089,4.43494e-06,-3.93715e-06,0,-7.27325e-06,-1.14339e+09,-1.14451e+09,-1.14398e+09,-972070,0.0393501,0.270201,0,0.273051,4966.61,-41399.5,0,41696.3,972070
step02_gravity_refstate-mantle.xmf,1090,1.38868e-06,-1.73638e-06,0,-1.04818e-05,-1.21129e+09,-1.21171e+09,-1.21148e+09,-1.4009e+06,0.0390608,0.262272,0,0.265165,5711.55,-43482.2,0,43855.7,1.4009e+06
step02_gravity_refstate-mantle.xmf,1091,5.44284e-06,-4.15148e-06,0,-4.88651e-06,-1.09789e+09,-1.09917e+09,-1.09861e+09,-653082,0.0437585,0.265272,0,0.268857,4918.91,-40000,0,40301.3,653082
step02_gravity_refstate-mantle.xmf,1092,-1.23269e-06,1.04373e-06,0,-1.14425e-05,-1.24965e+09,-1.24935e+09,-1.24949e+09,-1.52928e+06,0.038023,0.246886,0,0.249797,6404.28,-44656.7,0,45113.6,1.52928e+06
step02_gravity_refstate-mantle.xmf,1093,-2.48363e-06,2.23324e-06,0,-1.22062e-05,-1.27646e+09,-1.27583e+09,-1.27613e+09,-1.63135e+06,0.0367173,0.245578,0,0.248308,6406.18,-45479.4,0,45928.4,1.63135e+06
step02_gravity_refstate-mantle.xmf,1094,-3.8219e-06,3.59611e-06,0,-1.28295e-05,-1.30263e+09,-1.30163e+09,-1.30212e+09,-1.71466e+06,0.0350374,0.244118,0,0.24662,6377.73,-46282.3,0,46719.6,1.71466e+06
step02_gravity_refstate-mantle.xmf,1095,-5.29397e-06,5.16718e-06,0,-1.33724e-05,-1.32993e+09,-1.32853e+09,-1.32922e+09,-1.78722e+06,0.0327423,0.243297,0,0.24549,6285.73,-47119.8,0,47537.2,1.78722e+06
step02_gravity_refstate-mantle.xmf,1096,-6.95046e-06,7.47775e-06,0,-1.28584e-05,-1.3552e+09,-1.35327e+09,-1.35427e+09,-1.71852e+06,0.0277347,0.23269,0,0.234337,6471.32,-47895.4,0,48330.6,1.71852e+06
step02_gravity_refstate-mantle.xmf,1097,-1.04021e-05,1.3278e-05,0,-1.18486e-05,-1.43174e+09,-1.42857e+09,-1.43035e+09,-1.58357e+06,0.00755661,0.222476,0,0.222604,6078.78,-50251.3,0,50617.7,1.58357e+06
step02_gravity_refstate-mantle.xmf,1098,-1.067e-05,1.51913e-05,0,-1.0805e-05,-1.45328e+09,-1.44983e+09,-1.45186e+09,-1.44408e+06,-0.00252553,0.216002,-0,0.216016,6001.8,-50920,0,51272.5,1.44408e+06
step02_gravity_refstate-mantle.xmf,1099,-1.04957e-05,1.67429e-05,0,-9.77275e-06,-1.47329e+09,-1.46965e+09,-1.47188e+09,-1.30613e+06,-0.0138974,0.208573,-0,0.209036,5940.46,-51543,0,51884.2,1.30613e+06
step02_gravity_refstate-mantle.xmf,1100,-9.13414e-06,2.09051e-05,0,-9.63666e-06,-1.5224e+09,-1.51838e+09,-1.52118e+09,-1.28794e+06,-0.0448535,0.204796,-0,0.20965,5363.96,-53079.8,0,53350.2,1.28794e+06
step02_gravity_refstate-mantle.xmf,1101,-7.77695e-06,2.26628e-05,0,-8.64098e-06,-1.54335e+09,-1.53928e+09,-1.54231e+09,-1.15487e+06,-0.062668,0.190618,-0,0.200655,5359.54,-53740.5,0,54007.1,1.15487e+06
step02_gravity_refstate-mantle.xmf,1102,-6.30879e-06,2.44812e-05,0,-7.91785e-06,-1.56494e+09,-1.56082e+09,-1.56409e+09,-1.05822e+06,-0.0810255,0.175827,-0,0.193598,5330.25,-54421.9,0,54682.3,1.05822e+06
step02_gravity_refstate-mantle.xmf,1103,-4.85021e-06,2.62909e-05,0,-7.39196e-06,-1.58686e+09,-1.5827e+09,-1.58621e+09,-987936,-0.0990471,0.159457,-0,0.187715,5300.62,-55113.5,0,55367.8,987936
step02_gravity_refstate-mantle.xmf,1104,-3.57992e-06,2.79637e-05,0,-7.03605e-06,-1.60823e+09,-1.60402e+09,-1.60775e+09,-940368,-0.115212,0.141674,-0,0.182607,5286.47,-55786.4,0,56036.3,940368
step02_gravity_refstate-mantle.xmf,1105,-4.57239e-06,3.54751e-05,0,-9.8087e-06,-1.63943e+09,-1.63408e+09,-1.63882e+09,-1.31093e+06,-0.132364,0.133792,-0,0.188204,4665.88,-56762.9,0,56954.3,1.31093e+06
step02_gravity_refstate-mantle.xmf,1106,-5.24055e-06,3.80207e-05,0,-9.58883e-06,-1.66034e+09,-1.65456e+09,-1.65964e+09,-1.28155e+06,-0.141445,0.110898,-0,0.179736,4637.13,-57410.8,0,57597.7,1.28155e+06
step02_gravity_refstate-mantle.xmf,1107,-7.02946e-06,4.11616e-05,0,-8.75141e-06,-1.68118e+09,-1.67474e+09,-1.68024e+09,-1.16963e+06,-0.147,0.0866834,-0,0.170655,4592.56,-58050.4,0,58231.8,1.16963e+06
step02_gravity_refstate-mantle.xmf,1108,-1.51843e-05,5.3321e-05,0,-7.95007e-06,-1.70869e+09,-1.69953e+09,-1.70666e+09,-1.06253e+06,-0.14307,0.0611642,-0,0.155596,3955.91,-58876.8,0,59009.5,1.06253e+06
step02_gravity_refstate-mantle.xmf,1109,-1.68187e-05,5.51729e-05,0,-4.05905e-06,-1.72733e+09,-1.7177e+09,-1.72508e+09,-542492,-0.142641,0.0307371,-0,0.145915,3915.6,-59446.3,0,59575.2,542492
step02_gravity_refstate-mantle.xmf,1110,-2.04199e-05,6.02087e-05,0,-9.22454e-08,-1.74561e+09,-1.73484e+09,-1.74288e+09,-12328.6,-0.137052,-3.02182e-19,-0,0.137052,3618.49,-60000,0,60109,12328.6
step02_gravity_refstate-mantle.xmf,1111,4.18355e-06,-3.33359e-06,0,-6.40777e-06,-1.12351e+09,-1.12451e+09,-1.12406e+09,-856399,0.0427862,0.261317,0,0.264797,5370.97,-40785.1,0,41137.2,856399
step02_gravity_refstate-mantle.xmf,1112,2.12154e-06,-2.17452e-06,0,-9.45343e-06,-1.18764e+09,-1.18821e+09,-1.18792e+09,-1.26345e+06,0.0396957,0.261006,0,0.264008,5702.06,-42755.3,0,43133.8,1.26345e+06
step02_gravity_refstate-mantle.xmf,1113,-1.14401e-07,6.59232e-08,0,-1.05406e-05,-1.22232e+09,-1.2223e+09,-1.22231e+09,-1.40876e+06,0.0391583,0.247602,0,0.250679,6390.33,-43817.5,0,44281,1.40876e+06
step02_gravity_refstate-mantle.xmf,1114,-8.06335e-06,9.27436e-06,0,-1.22392e-05,-1.37574e+09,-1.37342e+09,-1.37466e+09,-1.63577e+06,0.0225405,0.224683,0,0.225811,6557.46,-48526.9,0,48968,1.63577e+06
step02_gravity_refstate-mantle.xmf,1115,-9.01364e-06,1.11837e-05,0,-1.11669e-05,-1.39739e+09,-1.39469e+09,-1.39619e+09,-1.49246e+06,0.0151336,0.213875,0,0.21441,6679.69,-49194.4,0,49645.8,1.49246e+06
step02_gravity_refstate-mantle.xmf,1116,-9.64809e-06,1.30005e-05,0,-9.964e-06,-1.42001e+09,-1.41698e+09,-1.41872e+09,-1.33169e+06,0.0061575,0.203883,0,0.203976,6727.35,-49893.3,0,50344.8,1.33169e+06
step02_gravity_refstate-mantle.xmf,1117,-9.87286e-06,1.80706e-05,0,-8.64456e-06,-1.49239e+09,-1.48865e+09,-1.49107e+09,-1.15535e+06,-0.0267548,0.199118,-0,0.200907,5917.76,-52140.5,0,52475.3,1.15535e+06
step02_gravity_refstate-mantle.xmf,1118,-8.83355e-06,1.9356e-05,0,-7.34696e-06,-1.51197e+09,-1.5082e+09,-1.51079e+09,-981922,-0.0417798,0.186378,-0,0.191003,5948.54,-52755.8,0,53090.1,981922
step02_gravity_refstate-mantle.xmf,1119,-2.79465e-06,2.99488e-05,0,-6.91596e-06,-1.62976e+09,-1.62539e+09,-1.62939e+09,-924319,-0.129146,0.123189,-0,0.178478,5254.42,-56461.8,0,56705.8,924319
step02_gravity_refstate-mantle.xmf,1120,-9.43834e-06,4.44819e-05,0,-6.82825e-06,-1.70229e+09,-1.69508e+09,-1.70103e+09,-912596,-0.149805,0.059959,-0,0.161359,4546.85,-58695,0,58870.8,912596
step02_gravity_refstate-mantle.xmf,1121,3.30265e-06,-2.83134e-06,0,-7.58205e-06,-1.14699e+09,-1.14781e+09,-1.14743e+09,-1.01334e+06,0.0416375,0.25934,0,0.262661,5620.91,-41505.8,0,41884.6,1.01334e+06
step02_gravity_refstate-mantle.xmf,1122,8.58415e-07,-7.07438e-07,0,-9.53364e-06,-1.19475e+09,-1.19496e+09,-1.19486e+09,-1.27417e+06,0.0403905,0.247794,0,0.251065,6365.79,-42970.3,0,43439.3,1.27417e+06
step02_gravity_refstate-mantle.xmf,1123,1.94443e-06,-1.56795e-06,0,-8.38484e-06,-1.16492e+09,-1.16539e+09,-1.16518e+09,-1.12063e+06,0.0419102,0.2498,0,0.253291,6208.81,-42053.9,0,42509.7,1.12063e+06
step02_gravity_refstate-mantle.xmf,1124,3.72759e-06,-2.69603e-06,0,-5.1979e-06,-1.09814e+09,-1.09899e+09,-1.09863e+09,-694699,0.0483963,0.250112,0,0.254752,5927.94,-40000,0,40436.9,694699
step02_gravity_refstate-mantle.xmf,1125,-1.59807e-06,1.94824e-06,0,-1.02368e-05,-1.2351e+09,-1.23463e+09,-1.23489e+09,-1.36815e+06,0.0378358,0.230787,0,0.233868,7117.68,-44207.1,0,44776.4,1.36815e+06
step02_gravity_refstate-mantle.xmf,1126,-2.76622e-06,3.13802e-06,0,-1.0847e-05,-1.26307e+09,-1.26229e+09,-1.2627e+09,-1.4497e+06,0.0357584,0.228539,0,0.231319,7123.7,-45066.4,0,45626,1.4497e+06
step02_gravity_refstate-mantle.xmf,1127,-4.02621e-06,4.51361e-06,0,-1.12686e-05,-1.2906e+09,-1.28945e+09,-1.29006e+09,-1.50604e+06,0.0332764,0.225639,0,0.22808,7113.91,-45911.7,0,46459.5,1.50604e+06
step02_gravity_refstate-mantle.xmf,1128,-5.32443e-06,6.04421e-06,0,-1.14747e-05,-1.31744e+09,-1.31592e+09,-1.31672e+09,-1.5336e+06,0.0301494,0.222176,0,0.224212,7084.36,-46736,0,47269.8,1.5336e+06
step02_gravity_refstate-mantle.xmf,1129,-7.81845e-06,9.61628e-06,0,-1.07437e-05,-1.36936e+09,-1.36703e+09,-1.36831e+09,-1.43589e+06,0.0198331,0.209294,0,0.210232,7105.47,-48332.3,0,48851.8,1.43589e+06
step02_gravity_refstate-mantle.xmf,1130,-6.63883e-06,7.79089e-06,0,-1.13e-05,-1.34375e+09,-1.34182e+09,-1.34286e+09,-1.51025e+06,0.025757,0.216595,0,0.218121,7087.31,-47544.5,0,48069.8,1.51025e+06
step02_gravity_refstate-mantle.xmf,1131,-9.95761e-06,1.45706e-05,0,-8.8685e-06,-1.4432e+09,-1.43992e+09,-1.44186e+09,-1.18527e+06,-0.00415712,0.195736,-0,0.195781,6676.59,-50611.5,0,51050,1.18527e+06
step02_gravity_refstate-mantle.xmf,1132,-9.82792e-06,1.61274e-05,0,-7.75687e-06,-1.4652e+09,-1.46173e+09,-1.46388e+09,-1.03671e+06,-0.0154478,0.188606,-0,0.189237,6580.16,-51296,0,51716.3,1.03671e+06
step02_gravity_refstate-mantle.xmf,1133,-9.48398e-06,1.71751e-05,0,-7.16628e-06,-1.48284e+09,-1.47928e+09,-1.48157e+09,-957773,-0.0251369,0.184948,-0,0.186649,6425.85,-51845.9,0,52242.6,957773
step02_gravity_refstate-mantle.xmf,1134,-7.42748e-06,2.05579e-05,0,-6.18822e-06,-1.53293e+09,-1.52919e+09,-1.53194e+09,-827055,-0.0586447,0.172531,-0,0.182225,5965.98,-53415.7,0,53747.9,827055
step02_gravity_refstate-mantle.xmf,1135,-5.83766e-06,2.17395e-05,0,-5.32843e-06,-1.55458e+09,-1.55089e+09,-1.5538e+09,-712145,-0.0762597,0.15842,-0,0.17582,5957.18,-54098,0,54425,712145
step02_gravity_refstate-mantle.xmf,1136,-4.22632e-06,2.29445e-05,0,-4.79071e-06,-1.57654e+09,-1.57291e+09,-1.57598e+09,-640278,-0.0937535,0.143947,-0,0.171786,5928.46,-54790.4,0,55110.2,640278
step02_gravity_refstate-mantle.xmf,1137,-2.79449e-06,2.4174e-05,0,-4.54594e-06,-1.59811e+09,-1.59451e+09,-1.59774e+09,-607565,-0.109913,0.129119,-0,0.169566,5892.11,-55469.4,0,55781.5,607565
step02_gravity_refstate-mantle.xmf,1138,-1.68482e-06,2.55036e-05,0,-4.51244e-06,-1.61973e+09,-1.6161e+09,-1.61951e+09,-603088,-0.12441,0.113318,-0,0.168283,5855.57,-56148.1,0,56452.6,603088
step02_gravity_refstate-mantle.xmf,1139,-2.81719e-06,3.2063e-05,0,-6.92097e-06,-1.651e+09,-1.64633e+09,-1.65062e+09,-924988,-0.140013,0.10382,-0,0.174305,5217.19,-57123,0,57360.8,924988
step02_gravity_refstate-mantle.xmf,1140,-3.59937e-06,3.44206e-05,0,-6.63112e-06,-1.67211e+09,-1.66703e+09,-1.67163e+09,-886249,-0.147718,0.0834339,-0,0.169652,5163.82,-57776,0,58006.3,886249
step02_gravity_refstate-mantle.xmf,1141,-5.03131e-06,3.69954e-05,0,-5.68961e-06,-1.69269e+09,-1.68707e+09,-1.69202e+09,-760416,-0.152444,0.0618818,-0,0.164525,5107.47,-58408.8,0,58631.7,760416
step02_gravity_refstate-mantle.xmf,1142,-1.06132e-05,4.59898e-05,0,-3.4553e-06,-1.72403e+09,-1.71646e+09,-1.72261e+09,-461801,-0.151418,0.0295589,-0,0.154276,4560.38,-59362.4,0,59537.3,461801
step02_gravity_refstate-mantle.xmf,1143,-1.38209e-05,5.06465e-05,0,-1.0258e-07,-1.74498e+09,-1.73636e+09,-1.74313e+09,-13709.8,-0.14806,-2.79143e-19,-0,0.14806,4262.05,-60000,0,60151.2,13709.8
step02_gravity_refstate-mantle.xmf,1144,2.49346e-06,-1.80944e-06,0,-6.81852e-06,-1.12965e+09,-1.13022e+09,-1.12998e+09,-911296,0.0454741,0.245015,0,0.2492,6370.48,-40967.4,0,41459.7,911296
step02_gravity_refstate-mantle.xmf,1145,-5.53597e-07,9.6061e-07,0,-9.44226e-06,-1.20643e+09,-1.20622e+09,-1.20635e+09,-1.26196e+06,0.0398079,0.232123,0,0.235512,7112.07,-43325.8,0,43905.7,1.26196e+06
step02_gravity_refstate-mantle.xmf,1146,-8.47195e-06,1.09487e-05,0,-9.9269e-06,-1.38793e+09,-1.38533e+09,-1.38679e+09,-1.32673e+06,0.013819,0.201126,0,0.2016,7182.04,-48904.9,0,49429.5,1.32673e+06
step02_gravity_refstate-mantle.xmf,1147,-8.81067e-06,1.23694e-05,0,-8.47665e-06,-1.4059e+09,-1.40307e+09,-1.40473e+09,-1.1329e+06,0.005458,0.187727,0,0.187807,7413.67,-49461.6,0,50014.2,1.1329e+06
step02_gravity_refstate-mantle.xmf,1148,-9.11611e-06,1.38999e-05,0,-7.28533e-06,-1.43137e+09,-1.42829e+09,-1.43015e+09,-973685,-0.00504894,0.178634,-0,0.178706,7372.86,-50250.1,0,50788.1,973685
step02_gravity_refstate-mantle.xmf,1149,-8.4535e-06,1.79998e-05,0,-5.64763e-06,-1.50095e+09,-1.49741e+09,-1.49982e+09,-754806,-0.0388202,0.170741,-0,0.175099,6545.92,-52414.4,0,52821.6,754806
step02_gravity_refstate-mantle.xmf,1150,-7.1541e-06,1.88147e-05,0,-4.43009e-06,-1.52164e+09,-1.51817e+09,-1.52068e+09,-592082,-0.0544119,0.157411,-0,0.16655,6586.46,-53064.3,0,53471.5,592082
step02_gravity_refstate-mantle.xmf,1151,-1.11038e-06,2.7112e-05,0,-4.5427e-06,-1.6415e+09,-1.63773e+09,-1.64135e+09,-607132,-0.136669,0.0963116,-0,0.167196,5821.43,-56828.5,0,57125.9,607132
step02_gravity_refstate-mantle.xmf,1152,-6.63884e-06,3.9544e-05,0,-4.19923e-06,-1.71136e+09,-1.70519e+09,-1.71048e+09,-561228,-0.154591,0.0410805,-0,0.159956,5028.12,-58981.4,0,59195.3,561228
step02_gravity_refstate-mantle.xmf,1153,3.49684e-07,1.65239e-07,0,-8.49722e-06,-1.17734e+09,-1.17737e+09,-1.17739e+09,-1.13565e+06,0.0420003,0.232799,0,0.236557,7100.75,-42431.4,0,43021.4,1.13565e+06
step02_gravity_refstate-mantle.xmf,1154,2.07832e-06,-1.26256e-06,0,-5.26755e-06,-1.09837e+09,-1.09882e+09,-1.09865e+09,-704008,0.0513921,0.233767,0,0.239349,6955.6,-40000,0,40600.2,704008
step02_gravity_refstate-mantle.xmf,1155,-1.824e-06,2.56493e-06,0,-9.04869e-06,-1.21929e+09,-1.21871e+09,-1.21905e+09,-1.20936e+06,0.0378701,0.215654,0,0.218953,7857.38,-43718.9,0,44419.3,1.20936e+06
step02_gravity_refstate-mantle.xmf,1156,-2.87927e-06,3.71231e-06,0,-9.55722e-06,-1.24845e+09,-1.24757e+09,-1.24806e+09,-1.27732e+06,0.0350248,0.212807,0,0.21567,7862.03,-44615.3,0,45302.8,1.27732e+06
step02_gravity_refstate-mantle.xmf,1157,-4.00416e-06,5.00694e-06,0,-9.86901e-06,-1.277e+09,-1.27579e+09,-1.27646e+09,-1.31899e+06,0.0318878,0.209386,0,0.211801,7847.82,-45493,0,46164.9,1.31899e+06
step02_gravity_refstate-mantle.xmf,1158,-5.15116e-06,6.42888e-06,0,-9.94556e-06,-1.30462e+09,-1.30307e+09,-1.30393e+09,-1.32922e+06,0.0281784,0.205156,0,0.207082,7825.47,-46342.3,0,46998.4,1.32922e+06
step02_gravity_refstate-mantle.xmf,1159,-6.27356e-06,7.96655e-06,0,-9.74242e-06,-1.33162e+09,-1.32972e+09,-1.33078e+09,-1.30207e+06,0.0235205,0.19977,0,0.20115,7805.54,-47172.7,0,47814.1,1.30207e+06
step02_gravity_refstate-mantle.xmf,1160,-8.08207e-06,1.11049e-05,0,-8.51134e-06,-1.38384e+09,-1.38127e+09,-1.38276e+09,-1.13754e+06,0.0104796,0.186289,0,0.186584,7741.61,-48781.6,0,49392.1,1.13754e+06
step02_gravity_refstate-mantle.xmf,1161,-7.31532e-06,9.61756e-06,0,-9.20796e-06,-1.35871e+09,-1.35644e+09,-1.35773e+09,-1.23064e+06,0.0174106,0.192874,0,0.193658,7792.31,-48006.6,0,48634.9,1.23064e+06
step02_gravity_refstate-mantle.xmf,1162,-8.98325e-06,1.51673e-05,0,-6.06935e-06,-1.45586e+09,-1.45263e+09,-1.45466e+09,-811169,-0.0169752,0.169593,-0,0.170441,7306.1,-51010.8,0,51531.4,811169
step02_gravity_refstate-mantle.xmf,1163,-8.41017e-06,1.65373e-05,0,-4.87406e-06,-1.48236e+09,-1.47903e+09,-1.48124e+09,-651418,-0.0313851,0.161336,-0,0.16436,7146.07,-51836.8,0,52327.1,651418
step02_gravity_refstate-mantle.xmf,1164,-5.56119e-06,1.96052e-05,0,-3.46154e-06,-1.54373e+09,-1.54037e+09,-1.54299e+09,-462634,-0.0713173,0.144029,-0,0.160719,6586.97,-53759.3,0,54161.3,462634
step02_gravity_refstate-mantle.xmf,1165,-3.86548e-06,2.03654e-05,0,-2.81146e-06,-1.56621e+09,-1.56297e+09,-1.56569e+09,-375752,-0.0884388,0.130378,-0,0.157543,6570.21,-54467.1,0,54861.9,375752
step02_gravity_refstate-mantle.xmf,1166,-2.32345e-06,2.1178e-05,0,-2.53079e-06,-1.58803e+09,-1.58489e+09,-1.58772e+09,-338240,-0.104337,0.117349,-0,0.157026,6526.6,-55153.3,0,55538.2,338240
step02_gravity_refstate-mantle.xmf,1167,-1.00747e-06,2.20386e-05,0,-2.47799e-06,-1.60953e+09,-1.60645e+09,-1.60939e+09,-331184,-0.118814,0.103807,-0,0.157774,6485.69,-55828.5,0,56204,331184
step02_gravity_refstate-mantle.xmf,1168,-4.03975e-08,2.30706e-05,0,-2.5758e-06,-1.63153e+09,-1.62844e+09,-1.63152e+09,-344255,-0.131796,0.089236,-0,0.159164,6443.3,-56517.1,0,56883.2,344255
step02_gravity_refstate-mantle.xmf,1169,-1.20882e-06,2.88813e-05,0,-4.50434e-06,-1.66307e+09,-1.65905e+09,-1.66291e+09,-602005,-0.146107,0.0785429,-0,0.16588,5778.46,-57498.7,0,57788.3,602005
step02_gravity_refstate-mantle.xmf,1170,-1.9182e-06,3.09548e-05,0,-4.21329e-06,-1.68384e+09,-1.67945e+09,-1.68359e+09,-563107,-0.152518,0.0609834,-0,0.164258,5688.84,-58140.9,0,58418.5,563107
step02_gravity_refstate-mantle.xmf,1171,-3.03508e-06,3.32407e-05,0,-3.2606e-06,-1.70588e+09,-1.70103e+09,-1.70547e+09,-435779,-0.156732,0.0402127,-0,0.161809,5611.01,-58819.9,0,59086.9,435779
step02_gravity_refstate-mantle.xmf,1172,-5.52266e-06,3.75202e-05,0,-1.82982e-06,-1.728e+09,-1.72225e+09,-1.72726e+09,-244556,-0.15747,0.018976,-0,0.158609,5285.82,-59497.5,0,59731.9,244556
step02_gravity_refstate-mantle.xmf,1173,-8.12333e-06,4.18131e-05,0,-4.60799e-08,-1.74447e+09,-1.7378e+09,-1.74339e+09,-6158.58,-0.155418,-1.6065e-19,-0,0.155418,4930.91,-60000,0,60202.3,6158.58
step02_gravity_refstate-mantle.xmf,1174,1.11457e-06,-4.9785e-07,0,-7.52557e-06,-1.15002e+09,-1.15024e+09,-1.15017e+09,-1.00579e+06,0.0444699,0.233936,0,0.238125,7031.67,-41590.9,0,42181.1,1.00579e+06
step02_gravity_refstate-mantle.xmf,1175,9.84684e-07,-3.13252e-07,0,-6.42002e-06,-1.12528e+09,-1.12545e+09,-1.12541e+09,-858036,0.047987,0.225669,0,0.230715,7477.45,-40826.1,0,41505.2,858036
step02_gravity_refstate-mantle.xmf,1176,-8.87372e-07,1.57053e-06,0,-8.34584e-06,-1.18985e+09,-1.18952e+09,-1.18973e+09,-1.11542e+06,0.0406602,0.217328,0,0.221099,7865.48,-42813.1,0,43529.6,1.11542e+06
step02_gravity_refstate-mantle.xmf,1177,-8.30954e-06,1.30727e-05,0,-6.12545e-06,-1.41913e+09,-1.41628e+09,-1.41802e+09,-818667,-0.00552473,0.164595,-0,0.164687,8054.79,-49875.4,0,50521.7,818667
step02_gravity_refstate-mantle.xmf,1178,-8.16704e-06,1.41902e-05,0,-4.869e-06,-1.44363e+09,-1.44064e+09,-1.44254e+09,-650742,-0.0167968,0.154898,-0,0.155806,8029.86,-50635.9,0,51268.7,650742
step02_gravity_refstate-mantle.xmf,1179,-6.89226e-06,1.72841e-05,0,-3.18203e-06,-1.5084e+09,-1.50517e+09,-1.50748e+09,-425278,-0.049476,0.145001,-0,0.15321,7232.07,-52653.2,0,53147.6,425278
step02_gravity_refstate-mantle.xmf,1180,-5.37239e-06,1.78274e-05,0,-2.12922e-06,-1.53179e+09,-1.52869e+09,-1.53107e+09,-284570,-0.0660748,0.131906,-0,0.14753,7239.27,-53387.2,0,53875.8,284570
step02_gravity_refstate-mantle.xmf,1181,4.0653e-07,2.4413e-05,0,-2.65795e-06,-1.65396e+09,-1.65075e+09,-1.65402e+09,-355235,-0.142671,0.0734626,-0,0.160473,6401.83,-57216.6,0,57573.6,355235
step02_gravity_refstate-mantle.xmf,1182,-2.06702e-07,9.19411e-07,0,-7.33711e-06,-1.15756e+09,-1.15741e+09,-1.15754e+09,-980605,0.0440696,0.216958,0,0.221388,7948.34,-41818.7,0,42567.3,980605
step02_gravity_refstate-mantle.xmf,1183,5.86596e-07,6.73712e-08,0,-5.14847e-06,-1.09859e+09,-1.09866e+09,-1.09867e+09,-688093,0.0528006,0.216723,0,0.223063,8006.22,-40000,0,40793.4,688093
step02_gravity_refstate-mantle.xmf,1184,-2.00029e-06,2.99117e-06,0,-7.93806e-06,-1.20366e+09,-1.20299e+09,-1.20339e+09,-1.06092e+06,0.0381,0.201701,0,0.205268,8606.13,-43235.8,0,44084,1.06092e+06
step02_gravity_refstate-mantle.xmf,1185,-2.90229e-06,4.05518e-06,0,-8.34734e-06,-1.23299e+09,-1.23206e+09,-1.2326e+09,-1.11562e+06,0.0345758,0.198221,0,0.201214,8623.76,-44138.4,0,44973,1.11562e+06
step02_gravity_refstate-mantle.xmf,1186,-3.89183e-06,5.27038e-06,0,-8.57799e-06,-1.26265e+09,-1.26142e+09,-1.26213e+09,-1.14645e+06,0.0307628,0.194271,0,0.196691,8612.54,-45051.2,0,45867,1.14645e+06
step02_gravity_refstate-mantle.xmf,1187,-4.88829e-06,6.57381e-06,0,-8.57987e-06,-1.29131e+09,-1.28978e+09,-1.29065e+09,-1.1467e+06,0.0265007,0.189628,0,0.191471,8589.51,-45933.1,0,46729.4,1.1467e+06
step02_gravity_refstate-mantle.xmf,1188,-5.82282e-06,7.91443e-06,0,-8.34179e-06,-1.31845e+09,-1.31661e+09,-1.31767e+09,-1.11488e+06,0.0215945,0.184169,0,0.18543,8566.55,-46768.6,0,47546.7,1.11488e+06
step02_gravity_refstate-mantle.xmf,1189,-8.10976e-06,1.20258e-05,0,-6.9857e-06,-1.39959e+09,-1.3969e+09,-1.39851e+09,-933639,0.00201793,0.171026,0,0.171038,8098.94,-49270.5,0,49931.7,933639
step02_gravity_refstate-mantle.xmf,1190,-6.69534e-06,9.34555e-06,0,-7.82543e-06,-1.34613e+09,-1.34399e+09,-1.34524e+09,-1.04587e+06,0.0153908,0.177439,0,0.178105,8542.43,-47621.7,0,48381.8,1.04587e+06
step02_gravity_refstate-mantle.xmf,1191,-7.46766e-06,1.09405e-05,0,-6.92715e-06,-1.37702e+09,-1.37456e+09,-1.37602e+09,-925814,0.00674723,0.168777,0,0.168911,8503.24,-48574.7,0,49313.3,925814
step02_gravity_refstate-mantle.xmf,1192,-7.59235e-06,1.51218e-05,0,-3.56604e-06,-1.469e+09,-1.46596e+09,-1.46798e+09,-476601,-0.030061,0.144671,-0,0.147762,7977.9,-51425.8,0,52040.9,476601
step02_gravity_refstate-mantle.xmf,1193,-6.56573e-06,1.58517e-05,0,-2.29481e-06,-1.49458e+09,-1.49159e+09,-1.4937e+09,-306701,-0.04518,0.133343,-0,0.14079,7936.25,-52224.8,0,52824.4,306701
step02_gravity_refstate-mantle.xmf,1194,-3.63238e-06,1.82723e-05,0,-1.34328e-06,-1.55547e+09,-1.55254e+09,-1.55499e+09,-179529,-0.0830904,0.118549,-0,0.144768,7235.71,-54131.5,0,54612.9,179529
step02_gravity_refstate-mantle.xmf,1195,-1.95582e-06,1.87554e-05,0,-9.5118e-07,-1.57881e+09,-1.57604e+09,-1.57854e+09,-127125,-0.0993606,0.105951,-0,0.145252,7195.08,-54864.7,0,55334.5,127125
step02_gravity_refstate-mantle.xmf,1196,-6.65983e-07,1.93247e-05,0,-9.07279e-07,-1.599e+09,-1.59632e+09,-1.59891e+09,-121258,-0.112635,0.095492,-0,0.147666,7123.71,-55498.5,0,55953.8,121258
step02_gravity_refstate-mantle.xmf,1197,5.53097e-07,1.98994e-05,0,-9.52714e-07,-1.6209e+09,-1.61831e+09,-1.62097e+09,-127330,-0.125768,0.0826613,-0,0.150501,7091.76,-56184.6,0,56630.4,127330
step02_gravity_refstate-mantle.xmf,1198,1.42622e-06,2.06806e-05,0,-1.11661e-06,-1.64362e+09,-1.64105e+09,-1.64381e+09,-149235,-0.137453,0.0690095,-0,0.153804,7048.15,-56894.4,0,57329.3,149235
step02_gravity_refstate-mantle.xmf,1199,4.18305e-07,2.56893e-05,0,-2.50911e-06,-1.67621e+09,-1.67283e+09,-1.67626e+09,-335343,-0.150858,0.0565771,-0,0.161118,6377.67,-57907.1,0,58257.2,335343
step02_gravity_refstate-mantle.xmf,1200,1.40061e-07,2.7035e-05,0,-1.91717e-06,-1.70155e+09,-1.69796e+09,-1.70157e+09,-256229,-0.157089,0.0361272,-0,0.16119,6360.16,-58691.6,0,59035.2,256229
step02_gravity_refstate-mantle.xmf,1201,-1.67383e-06,3.07298e-05,0,-1.30286e-06,-1.72466e+09,-1.72033e+09,-1.72443e+09,-174127,-0.159772,0.0184883,-0,0.160838,5983.3,-59402.6,0,59703.2,174127
step02_gravity_refstate-mantle.xmf,1202,-3.64436e-06,3.42725e-05,0,-5.44369e-08,-1.74413e+09,-1.73906e+09,-1.74364e+09,-7275.49,-0.159517,-1.57627e-19,-0,0.159517,5628.36,-60000,0,60263.4,7275.49
step02_gravity_refstate-mantle.xmf,1203,-3.31799e-07,1.0189e-06,0,-6.05473e-06,-1.12721e+09,-1.12703e+09,-1.12716e+09,-809215,0.0480778,0.207382,0,0.212882,8538.67,-40880.3,0,41762.6,809215
step02_gravity_refstate-mantle.xmf,1204,-1.28264e-06,2.15046e-06,0,-7.44419e-06,-1.1777e+09,-1.17724e+09,-1.17753e+09,-994916,0.041239,0.204612,0,0.208727,8559.95,-42436.7,0,43291.4,994916
step02_gravity_refstate-mantle.xmf,1205,-7.42486e-06,1.31758e-05,0,-4.05743e-06,-1.43022e+09,-1.42747e+09,-1.42923e+09,-542276,-0.0158805,0.143355,-0,0.144232,8732.42,-50224.2,0,50977.7,542276
step02_gravity_refstate-mantle.xmf,1206,-7.57447e-06,1.21148e-05,0,-5.43688e-06,-1.40269e+09,-1.40006e+09,-1.40168e+09,-726639,-0.00396425,0.154787,-0,0.154837,8704.97,-49369.9,0,50131.5,726639
step02_gravity_refstate-mantle.xmf,1207,-6.91446e-06,1.39794e-05,0,-2.76721e-06,-1.45627e+09,-1.45347e+09,-1.45534e+09,-369838,-0.0285112,0.132824,-0,0.13585,8712.19,-51034.1,0,51772.4,369838
step02_gravity_refstate-mantle.xmf,1208,-5.07111e-06,1.62801e-05,0,-1.11314e-06,-1.51957e+09,-1.51672e+09,-1.51889e+09,-148771,-0.0613701,0.120809,-0,0.135504,7934.21,-53007.8,0,53598.3,148771
step02_gravity_refstate-mantle.xmf,1209,-3.47063e-06,1.65291e-05,0,-3.103e-07,-1.54396e+09,-1.54129e+09,-1.5435e+09,-41471.6,-0.0776189,0.1085,-0,0.133405,7923.34,-53772.6,0,54353.2,41471.6
step02_gravity_refstate-mantle.xmf,1210,1.85434e-06,2.16716e-05,0,-1.20511e-06,-1.66621e+09,-1.66356e+09,-1.66645e+09,-161063,-0.146769,0.0546444,-0,0.156612,7012.62,-57597.5,0,58022.8,161063
step02_gravity_refstate-mantle.xmf,1211,-6.97895e-07,1.24953e-06,0,-4.8713e-06,-1.09877e+09,-1.09851e+09,-1.09867e+09,-651050,0.0527476,0.199427,0,0.206285,9083.97,-40000,0,41018.5,651050
step02_gravity_refstate-mantle.xmf,1212,-2.08738e-06,3.19659e-06,0,-6.87867e-06,-1.18518e+09,-1.18447e+09,-1.1849e+09,-919334,0.0389631,0.189504,0,0.193468,9342.58,-42664.9,0,43675.8,919334
step02_gravity_refstate-mantle.xmf,1213,-1.2645e-06,2.13778e-06,0,-6.50063e-06,-1.15479e+09,-1.15433e+09,-1.15462e+09,-868809,0.043631,0.197069,0,0.201841,9057.3,-41729,0,42700.6,868809
step02_gravity_refstate-mantle.xmf,1214,-2.87304e-06,4.21872e-06,0,-7.22735e-06,-1.21637e+09,-1.21543e+09,-1.21599e+09,-965935,0.0345354,0.184958,0,0.188155,9398.31,-43625.9,0,44626.8,965935
step02_gravity_refstate-mantle.xmf,1215,-3.72635e-06,5.35267e-06,0,-7.39275e-06,-1.24746e+09,-1.24625e+09,-1.24696e+09,-988040,0.0299779,0.180284,0,0.18276,9406.17,-44583.4,0,45564.8,988040
step02_gravity_refstate-mantle.xmf,1216,-4.60635e-06,6.59228e-06,0,-7.32141e-06,-1.27796e+09,-1.27647e+09,-1.27735e+09,-978506,0.024967,0.174841,0,0.176615,9401.08,-45522.9,0,46483.5,978506
step02_gravity_refstate-mantle.xmf,1217,-5.3691e-06,7.74576e-06,0,-7.11125e-06,-1.3057e+09,-1.30395e+09,-1.30498e+09,-950419,0.0199042,0.170017,0,0.171178,9340.84,-46377.6,0,47308.9,950419
step02_gravity_refstate-mantle.xmf,1218,-6.03695e-06,8.8629e-06,0,-6.6987e-06,-1.33105e+09,-1.32906e+09,-1.33025e+09,-895281,0.0143251,0.164319,0,0.164942,9305.32,-47159,0,48068.3,895281
step02_gravity_refstate-mantle.xmf,1219,-6.59692e-06,1.01141e-05,0,-5.88422e-06,-1.35921e+09,-1.35698e+09,-1.35833e+09,-786426,0.00653151,0.155748,0,0.155885,9321.52,-48028.4,0,48924.6,786426
step02_gravity_refstate-mantle.xmf,1220,-6.01789e-06,1.45529e-05,0,-1.54774e-06,-1.48179e+09,-1.47904e+09,-1.48099e+09,-206856,-0.0422365,0.12231,-0,0.129397,8673.89,-51830.1,0,52550.9,206856
step02_gravity_refstate-mantle.xmf,1221,-4.81796e-06,1.49017e-05,0,-4.99479e-07,-1.50697e+09,-1.50434e+09,-1.50633e+09,-66755.3,-0.0569424,0.111427,-0,0.125134,8639.94,-52616.8,0,53321.4,66755.3
step02_gravity_refstate-mantle.xmf,1222,-1.74525e-06,1.67236e-05,0,2.13732e-07,-1.56842e+09,-1.56596e+09,-1.56819e+09,28565.3,-0.09377,0.0961682,-0,0.134317,7902.07,-54540.2,0,55109.7,28565.3
step02_gravity_refstate-mantle.xmf,1223,-5.56623e-07,1.7122e-05,0,2.78783e-07,-1.58749e+09,-1.58513e+09,-1.58742e+09,37259.3,-0.105804,0.0883021,-0,0.13781,7787.27,-55138.3,0,55685.5,37259.3
step02_gravity_refstate-mantle.xmf,1224,7.99222e-07,1.73572e-05,0,3.10975e-07,-1.6093e+09,-1.60708e+09,-1.6094e+09,41561.8,-0.118785,0.0768935,-0,0.141501,7764.98,-55821.5,0,56359,41561.8
step02_gravity_refstate-mantle.xmf,1225,1.94572e-06,1.77766e-05,0,1.53017e-07,-1.63248e+09,-1.63036e+09,-1.63274e+09,20450.7,-0.13103,0.0648376,-0,0.146194,7720.4,-56546.3,0,57070.9,20450.7
step02_gravity_refstate-mantle.xmf,1226,2.78425e-06,1.83282e-05,0,-7.91668e-08,-1.65668e+09,-1.6546e+09,-1.65705e+09,-10580.6,-0.141665,0.0517206,-0,0.150811,7680.05,-57300.7,0,57813.1,10580.6
step02_gravity_refstate-mantle.xmf,1227,2.12797e-06,2.22277e-05,0,-9.99462e-07,-1.68831e+09,-1.68562e+09,-1.6886e+09,-133578,-0.153408,0.0392318,-0,0.158345,7041.23,-58283.6,0,58707.4,133578
step02_gravity_refstate-mantle.xmf,1228,1.18214e-06,2.51084e-05,0,-6.99716e-07,-1.72353e+09,-1.72033e+09,-1.72369e+09,-93517.1,-0.159877,0.0158635,-0,0.160662,6714.99,-59372.6,0,59751.1,93517.1
step02_gravity_refstate-mantle.xmf,1229,-1.84714e-07,2.79135e-05,0,-2.49922e-08,-1.74391e+09,-1.74015e+09,-1.74388e+09,-3340.2,-0.160911,-1.39584e-19,-0,0.160911,6357.24,-60000,0,60335.8,3340.2
step02_gravity_refstate-mantle.xmf,1230,-1.42022e-06,2.1598e-06,0,-5.50166e-06,-1.12851e+09,-1.12803e+09,-1.12832e+09,-735297,0.0469156,0.188758,0,0.194501,9650.35,-40916.3,0,42038.9,735297
step02_gravity_refstate-mantle.xmf,1231,-6.83761e-06,1.12644e-05,0,-4.71965e-06,-1.38791e+09,-1.38549e+09,-1.387e+09,-630781,-0.00338463,0.144826,-0,0.144865,9389.29,-48916.3,0,49809.2,630781
step02_gravity_refstate-mantle.xmf,1232,-6.21058e-06,1.2886e-05,0,-2.12435e-06,-1.44365e+09,-1.44109e+09,-1.44282e+09,-283919,-0.0272369,0.122284,-0,0.12528,9465.39,-50646.2,0,51523.1,283919
step02_gravity_refstate-mantle.xmf,1233,-6.70054e-06,1.21787e-05,0,-3.42379e-06,-1.4158e+09,-1.41328e+09,-1.41491e+09,-457589,-0.0146677,0.13343,-0,0.134234,9450.17,-49781,0,50670.1,457589
step02_gravity_refstate-mantle.xmf,1234,-5.48529e-06,1.33947e-05,0,-1.02748e-06,-1.46928e+09,-1.46676e+09,-1.46855e+09,-137323,-0.039733,0.112788,-0,0.119582,9414.13,-51444.3,0,52298.6,137323
step02_gravity_refstate-mantle.xmf,1235,-3.26953e-06,1.50739e-05,0,4.16588e-07,-1.53206e+09,-1.52961e+09,-1.53163e+09,55677,-0.0723609,0.10001,-0,0.123443,8621.18,-53402.7,0,54094.1,55677
step02_gravity_refstate-mantle.xmf,1236,-1.71011e-06,1.51384e-05,0,9.56505e-07,-1.5567e+09,-1.55444e+09,-1.55647e+09,127837,-0.0875731,0.0889069,-0,0.124794,8591.14,-54174.2,0,54851.2,127837
step02_gravity_refstate-mantle.xmf,1237,3.04677e-06,1.92906e-05,0,-3.16512e-07,-1.67759e+09,-1.67541e+09,-1.67799e+09,-42301.8,-0.149075,0.040629,-0,0.154512,7578.47,-57950.9,0,58444.3,42301.8
step02_gravity_refstate-mantle.xmf,1238,2.26765e-06,2.24147e-05,0,-7.71435e-07,-1.70842e+09,-1.70573e+09,-1.70872e+09,-103102,-0.15739,0.0249172,-0,0.159351,7089,-58906.1,0,59331.2,103102
step02_gravity_refstate-mantle.xmf,1239,-1.74302e-06,2.25779e-06,0,-4.47499e-06,-1.09891e+09,-1.09838e+09,-1.09868e+09,-598083,0.0514006,0.182267,0,0.189376,10193,-40000,0,41278.3,598083
step02_gravity_refstate-mantle.xmf,1240,-2.86137e-06,4.30796e-06,0,-6.15069e-06,-1.19893e+09,-1.19797e+09,-1.19854e+09,-822040,0.0347414,0.172059,0,0.175532,10232.8,-43087.3,0,44285.7,822040
step02_gravity_refstate-mantle.xmf,1241,-2.23149e-06,3.3504e-06,0,-5.75588e-06,-1.16242e+09,-1.16167e+09,-1.16212e+09,-769274,0.0404516,0.176494,0,0.181071,10221.7,-41961.2,0,43188.3,769274
step02_gravity_refstate-mantle.xmf,1242,-3.58344e-06,5.26103e-06,0,-6.3619e-06,-1.23153e+09,-1.23034e+09,-1.23105e+09,-850268,0.0295723,0.167496,0,0.170086,10220.8,-44091.9,0,45261,850268
step02_gravity_refstate-mantle.xmf,1243,-4.99333e-06,7.63684e-06,0,-5.84323e-06,-1.29591e+09,-1.29422e+09,-1.29524e+09,-780947,0.0173724,0.154506,0,0.15548,10235,-46077.2,0,47200.3,780947
step02_gravity_refstate-mantle.xmf,1244,-4.27582e-06,6.42772e-06,0,-6.2223e-06,-1.26347e+09,-1.26204e+09,-1.2629e+09,-831611,0.0239652,0.161701,0,0.163468,10224,-45077.1,0,46222,831611
step02_gravity_refstate-mantle.xmf,1245,-5.46562e-06,8.33142e-06,0,-5.91225e-06,-1.31606e+09,-1.31422e+09,-1.31533e+09,-790173,0.0141746,0.154748,0,0.155396,9964.8,-46698.4,0,47749.8,790173
step02_gravity_refstate-mantle.xmf,1246,-5.83839e-06,9.29861e-06,0,-5.10382e-06,-1.3407e+09,-1.33868e+09,-1.33992e+09,-682126,0.00705652,0.145496,0,0.145667,10095.8,-47459.6,0,48521.5,682126
step02_gravity_refstate-mantle.xmf,1247,-6.0708e-06,1.0336e-05,0,-4.07438e-06,-1.37035e+09,-1.36816e+09,-1.36954e+09,-544541,-0.00234069,0.13526,-0,0.13528,10160.8,-48376.6,0,49432.1,544541
step02_gravity_refstate-mantle.xmf,1248,-4.48219e-06,1.36997e-05,0,-5.69819e-08,-1.49364e+09,-1.49121e+09,-1.49304e+09,-7615.64,-0.0525836,0.103618,-0,0.116197,9353.45,-52204.1,0,53035.4,7615.64
step02_gravity_refstate-mantle.xmf,1249,-3.15682e-06,1.37556e-05,0,8.07326e-07,-1.5192e+09,-1.51694e+09,-1.51878e+09,107899,-0.0670333,0.0928738,-0,0.114538,9340.12,-53002.7,0,53819.4,107899
step02_gravity_refstate-mantle.xmf,1250,-5.88906e-07,1.54133e-05,0,1.12914e-06,-1.57547e+09,-1.57333e+09,-1.57539e+09,150910,-0.0988488,0.0821735,-0,0.128544,8461.78,-54762.3,0,55412.1,150910
step02_gravity_refstate-mantle.xmf,1251,7.67824e-07,1.53082e-05,0,1.24592e-06,-1.59596e+09,-1.59402e+09,-1.59606e+09,166517,-0.110747,0.0722123,-0,0.13221,8466.75,-55404.1,0,56047.3,166517
step02_gravity_refstate-mantle.xmf,1252,2.14465e-06,1.54114e-05,0,1.15904e-06,-1.62056e+09,-1.61879e+09,-1.62085e+09,154906,-0.123735,0.0607588,-0,0.137848,8437.97,-56173.3,0,56803.6,154906
step02_gravity_refstate-mantle.xmf,1253,3.2857e-06,1.56275e-05,0,9.02912e-07,-1.64638e+09,-1.64473e+09,-1.64681e+09,120674,-0.135403,0.0486465,-0,0.143877,8401.31,-56979,0,57595.1,120674
step02_gravity_refstate-mantle.xmf,1254,4.08115e-06,1.61566e-05,0,5.61789e-07,-1.67435e+09,-1.67274e+09,-1.6749e+09,75083,-0.145357,0.0353092,-0,0.149584,8347.89,-57849.9,0,58449.1,75083
step02_gravity_refstate-mantle.xmf,1255,3.7554e-06,1.86276e-05,0,-1.02236e-07,-1.69909e+09,-1.6971e+09,-1.69959e+09,-13663.9,-0.153614,0.0261476,-0,0.155823,7796.21,-58618.3,0,59134.4,13663.9
step02_gravity_refstate-mantle.xmf,1256,3.29626e-06,2.03562e-05,0,-2.10478e-07,-1.72331e+09,-1.72103e+09,-1.72375e+09,-28130.4,-0.158069,0.0129441,-0,0.158598,7511.11,-59367.8,0,59841,28130.4
step02_gravity_refstate-mantle.xmf,1257,2.35253e-06,2.26888e-05,0,-1.1929e-08,-1.74379e+09,-1.74107e+09,-1.7441e+09,-1594.31,-0.160084,-1.09967e-19,-0,0.160084,7119.24,-60000,0,60420.9,1594.31
step02_gravity_refstate-mantle.xmf,1258,-2.26795e-06,3.10521e-06,0,-4.81801e-06,-1.12991e+09,-1.12919e+09,-1.12961e+09,-643928,0.0445837,0.17051,0,0.176242,10799.7,-40956.3,0,42356.2,643928
step02_gravity_refstate-mantle.xmf,1259,-5.98939e-06,1.1202e-05,0,-2.89368e-06,-1.40037e+09,-1.39808e+09,-1.39957e+09,-386741,-0.0133051,0.124438,-0,0.125147,10204.3,-49306.7,0,50351.5,386741
step02_gravity_refstate-mantle.xmf,1260,-4.67198e-06,1.21707e-05,0,-3.88914e-07,-1.45991e+09,-1.45765e+09,-1.45928e+09,-51978.3,-0.0395379,0.101251,-0,0.108697,10286.1,-51156.9,0,52180.8,51978.3
step02_gravity_refstate-mantle.xmf,1261,-5.54414e-06,1.18183e-05,0,-1.65656e-06,-1.42965e+09,-1.42733e+09,-1.42891e+09,-221399,-0.0254909,0.113316,-0,0.116148,10241,-50215.6,0,51249.3,221399
step02_gravity_refstate-mantle.xmf,1262,-4.22938e-06,1.27115e-05,0,1.41239e-07,-1.4804e+09,-1.47814e+09,-1.47984e+09,18876.6,-0.0483718,0.0980518,-0,0.109334,9993.8,-51794.5,0,52749.8,18876.6
step02_gravity_refstate-mantle.xmf,1263,-1.52548e-06,1.37386e-05,0,1.5202e-06,-1.54584e+09,-1.5438e+09,-1.54563e+09,203174,-0.0823287,0.0819602,-0,0.11617,9304.97,-53836.4,0,54634.6,203174
step02_gravity_refstate-mantle.xmf,1264,2.50222e-07,1.38703e-05,0,1.85563e-06,-1.57624e+09,-1.57442e+09,-1.57627e+09,248004,-0.0994557,0.0711518,-0,0.122287,9147.6,-54787.8,0,55546.2,248004
step02_gravity_refstate-mantle.xmf,1265,-2.53624e-06,3.07076e-06,0,-4.00944e-06,-1.09901e+09,-1.09827e+09,-1.09868e+09,-535862,0.0489553,0.165571,0,0.172656,11337.1,-40000,0,41575.6,535862
step02_gravity_refstate-mantle.xmf,1266,-3.40175e-06,5.22401e-06,0,-5.33702e-06,-1.21558e+09,-1.21443e+09,-1.21513e+09,-713293,0.0293375,0.155438,0,0.158183,11072,-43600.5,0,44984.3,713293
step02_gravity_refstate-mantle.xmf,1267,-2.98761e-06,4.50534e-06,0,-5.12025e-06,-1.18556e+09,-1.18456e+09,-1.18516e+09,-684322,0.0341249,0.15796,0,0.161604,11193.1,-42674.1,0,44117.6,684322
step02_gravity_refstate-mantle.xmf,1268,-3.99566e-06,6.13367e-06,0,-5.36121e-06,-1.24791e+09,-1.24656e+09,-1.24738e+09,-716526,0.0236933,0.150921,0,0.152769,11004.4,-44597.5,0,45935.1,716526
step02_gravity_refstate-mantle.xmf,1269,-5.13153e-06,8.40693e-06,0,-4.57517e-06,-1.31662e+09,-1.31481e+09,-1.31594e+09,-611471,0.00941173,0.138491,0,0.138811,10834.7,-46718.2,0,47958.1,611471
step02_gravity_refstate-mantle.xmf,1270,-4.53751e-06,7.22444e-06,0,-5.02087e-06,-1.28082e+09,-1.27925e+09,-1.28021e+09,-671039,0.0170792,0.144446,0,0.145452,10987.3,-45613.2,0,46917.9,671039
step02_gravity_refstate-mantle.xmf,1271,-5.34326e-06,9.41589e-06,0,-3.51076e-06,-1.35088e+09,-1.34891e+09,-1.35016e+09,-469213,-0.000891038,0.126546,-0,0.12655,10981.6,-47777.5,0,49023.3,469213
step02_gravity_refstate-mantle.xmf,1272,-5.30627e-06,1.02468e-05,0,-2.44518e-06,-1.38357e+09,-1.3815e+09,-1.38286e+09,-326798,-0.0116673,0.116288,-0,0.116872,11000.2,-48789.9,0,50014.5,326798
step02_gravity_refstate-mantle.xmf,1273,-3.01004e-06,1.26559e-05,0,1.05425e-06,-1.50475e+09,-1.50266e+09,-1.50435e+09,140900,-0.0613425,0.0873956,-0,0.106775,10058.8,-52554.5,0,53508.5,140900
step02_gravity_refstate-mantle.xmf,1274,-1.57762e-06,1.24853e-05,0,1.74935e-06,-1.53188e+09,-1.53e+09,-1.53167e+09,233801,-0.0758183,0.076678,-0,0.107833,10062.4,-53401.6,0,54341.4,233801
step02_gravity_refstate-mantle.xmf,1275,2.08547e-06,1.35031e-05,0,1.89599e-06,-1.60703e+09,-1.6055e+09,-1.6073e+09,253399,-0.115498,0.0573025,-0,0.128932,9197.44,-55750,0,56503.6,253399
step02_gravity_refstate-mantle.xmf,1276,3.42726e-06,1.34736e-05,0,1.66941e-06,-1.63421e+09,-1.63287e+09,-1.63467e+09,223117,-0.127877,0.0461907,-0,0.135963,9161.84,-56598.8,0,57335.5,223117
step02_gravity_refstate-mantle.xmf,1277,4.40414e-06,1.35956e-05,0,1.29697e-06,-1.66026e+09,-1.65903e+09,-1.66085e+09,173340,-0.137732,0.0356382,-0,0.142268,9107.88,-57410.3,0,58128.3,173340
step02_gravity_refstate-mantle.xmf,1278,4.96596e-06,1.50762e-05,0,5.02211e-07,-1.69914e+09,-1.69779e+09,-1.6998e+09,67120.4,-0.1497,0.0210068,-0,0.151167,8694.44,-58618.6,0,59259.9,67120.4
step02_gravity_refstate-mantle.xmf,1279,4.72126e-06,1.66557e-05,0,1.22008e-07,-1.72165e+09,-1.72005e+09,-1.72228e+09,16306.4,-0.154721,0.0114487,-0,0.155144,8307.26,-59316.4,0,59895.3,16306.4
step02_gravity_refstate-mantle.xmf,1280,4.14405e-06,1.84505e-05,0,-7.63517e-10,-1.74375e+09,-1.74184e+09,-1.74431e+09,-102.044,-0.157491,-1.02456e-19,-0,0.157491,7916.27,-60000,0,60520,102.044
step02_gravity_refstate-mantle.xmf,1281,-2.69473e-06,3.89091e-06,0,-4.78203e-06,-1.15552e+09,-1.15464e+09,-1.15516e+09,-639118,0.0388951,0.159879,0,0.164542,11318.6,-41746.4,0,43253.6,639118
step02_gravity_refstate-mantle.xmf,1282,-2.86842e-06,3.92642e-06,0,-4.08143e-06,-1.1356e+09,-1.13469e+09,-1.13522e+09,-545483,0.0403319,0.151451,0,0.156729,12064.3,-41130.1,0,42862.9,545483
step02_gravity_refstate-mantle.xmf,1283,-3.74503e-06,5.89379e-06,0,-4.66863e-06,-1.23367e+09,-1.23238e+09,-1.23317e+09,-623962,0.0238181,0.142578,0,0.144554,11683,-44158.6,0,45677.9,623962
step02_gravity_refstate-mantle.xmf,1284,-4.94132e-06,1.08272e-05,0,-1.33071e-06,-1.41431e+09,-1.4122e+09,-1.41365e+09,-177850,-0.0232592,0.10591,-0,0.108433,11020.7,-49743.1,0,50949.3,177850
step02_gravity_refstate-mantle.xmf,1285,-3.09638e-06,1.18328e-05,0,1.00304e-06,-1.48797e+09,-1.48597e+09,-1.48755e+09,134056,-0.0546679,0.0851392,-0,0.101179,10657.6,-52033.4,0,53113.6,134056
step02_gravity_refstate-mantle.xmf,1286,-4.26605e-06,1.11671e-05,0,-2.44739e-07,-1.44366e+09,-1.4416e+09,-1.44309e+09,-32709.3,-0.0355589,0.0955622,-0,0.101964,11041,-50655.2,0,51844.5,32709.3
step02_gravity_refstate-mantle.xmf,1287,1.47167e-07,1.23047e-05,0,2.27759e-06,-1.5612e+09,-1.55957e+09,-1.56121e+09,304400,-0.0912868,0.0657605,-0,0.112507,10026.4,-54318.3,0,55235.9,304400
step02_gravity_refstate-mantle.xmf,1288,4.97962e-06,1.37394e-05,0,9.42773e-07,-1.6817e+09,-1.68053e+09,-1.68236e+09,126002,-0.143969,0.0266479,-0,0.146414,9087.51,-58076.6,0,58783.3,126002
step02_gravity_refstate-mantle.xmf,1289,-3.09191e-06,3.70726e-06,0,-3.491e-06,-1.09908e+09,-1.09817e+09,-1.09867e+09,-466572,0.0456332,0.149606,0,0.156411,12520.4,-40000,0,41913.7,466572
step02_gravity_refstate-mantle.xmf,1290,-3.09216e-06,4.61329e-06,0,-4.24068e-06,-1.17273e+09,-1.1717e+09,-1.17232e+09,-566767,0.0334927,0.145508,0,0.149313,12142.1,-42277.3,0,43986.3,566767
step02_gravity_refstate-mantle.xmf,1291,-3.4483e-06,5.41938e-06,0,-4.24939e-06,-1.2093e+09,-1.20811e+09,-1.20884e+09,-567931,0.026808,0.139857,0,0.142404,12144.4,-43406.5,0,45073.4,567931
step02_gravity_refstate-mantle.xmf,1292,-4.1611e-06,6.75199e-06,0,-4.33158e-06,-1.26411e+09,-1.26265e+09,-1.26356e+09,-578916,0.0173607,0.135524,0,0.136631,11754.5,-45098.4,0,46605.1,578916
step02_gravity_refstate-mantle.xmf,1293,-4.49467e-06,7.72823e-06,0,-3.73316e-06,-1.29857e+09,-1.29694e+09,-1.29797e+09,-498937,0.00931064,0.127237,0,0.127577,11792.5,-46163.1,0,47645.6,498937
step02_gravity_refstate-mantle.xmf,1294,-4.72139e-06,8.63731e-06,0,-2.98345e-06,-1.33335e+09,-1.33156e+09,-1.33272e+09,-398738,0.000180318,0.118555,0,0.118556,11785.9,-47238.2,0,48686.3,398738
step02_gravity_refstate-mantle.xmf,1295,-4.68574e-06,9.38217e-06,0,-2.04226e-06,-1.3673e+09,-1.36542e+09,-1.36668e+09,-272948,-0.0102008,0.108853,-0,0.10933,11801.6,-48289.2,0,49710.4,272948
step02_gravity_refstate-mantle.xmf,1296,-4.36439e-06,9.88351e-06,0,-1.0573e-06,-1.39812e+09,-1.39621e+09,-1.39753e+09,-141308,-0.020947,0.0991597,-0,0.101348,11835.4,-49244.4,0,50646.7,141308
step02_gravity_refstate-mantle.xmf,1297,-3.41309e-06,1.12665e-05,0,6.56907e-07,-1.46862e+09,-1.46666e+09,-1.46817e+09,87795.6,-0.046917,0.086161,-0,0.0981067,11090.2,-51432.3,0,52614.4,87795.6
step02_gravity_refstate-mantle.xmf,1298,-1.58026e-06,1.1465e-05,0,1.88233e-06,-1.51597e+09,-1.51422e+09,-1.51575e+09,251573,-0.0689116,0.0727868,-0,0.100233,10824.2,-52907.5,0,54003.4,251573
step02_gravity_refstate-mantle.xmf,1299,-3.48926e-08,1.10985e-05,0,2.39917e-06,-1.54609e+09,-1.54461e+09,-1.54609e+09,320650,-0.0837135,0.0619308,-0,0.104132,10844.3,-53847.5,0,54928.6,320650
step02_gravity_refstate-mantle.xmf,1300,1.8681e-06,1.20452e-05,0,2.42583e-06,-1.59162e+09,-1.59026e+09,-1.59187e+09,324212,-0.106535,0.0546514,-0,0.119735,9984.8,-55269.1,0,56163.8,324212
step02_gravity_refstate-mantle.xmf,1301,3.35413e-06,1.17717e-05,0,2.2192e-06,-1.62143e+09,-1.62031e+09,-1.62188e+09,296597,-0.119929,0.0439043,-0,0.127713,9948.08,-56199.1,0,57072.8,296597
step02_gravity_refstate-mantle.xmf,1302,4.5288e-06,1.1701e-05,0,1.83938e-06,-1.64958e+09,-1.64862e+09,-1.65019e+09,245833,-0.130722,0.0340686,-0,0.135088,9884.4,-57076.3,0,57925.8,245833
step02_gravity_refstate-mantle.xmf,1303,5.29759e-06,1.1897e-05,0,1.34784e-06,-1.67545e+09,-1.67457e+09,-1.67616e+09,180139,-0.138922,0.0252835,-0,0.141204,9764.34,-57881.2,0,58699,180139
step02_gravity_refstate-mantle.xmf,1304,5.66229e-06,1.25322e-05,0,8.33353e-07,-1.69875e+09,-1.69783e+09,-1.69951e+09,111378,-0.145249,0.017579,-0,0.146309,9516.83,-58604.8,0,59372.5,111378
step02_gravity_refstate-mantle.xmf,1305,5.67134e-06,1.36291e-05,0,3.50158e-07,-1.7212e+09,-1.72013e+09,-1.72196e+09,46798.6,-0.15027,0.0095707,-0,0.150574,9154.8,-59301.1,0,60003.6,46798.6
step02_gravity_refstate-mantle.xmf,1306,5.35518e-06,1.50325e-05,0,7.30568e-09,-1.74377e+09,-1.74248e+09,-1.74449e+09,976.404,-0.153523,-8.81256e-20,-0,0.153523,8750.83,-60000,0,60634.8,976.404
step02_gravity_refstate-mantle.xmf,1307,-3.20133e-06,4.35401e-06,0,-3.29099e-06,-1.13314e+09,-1.13213e+09,-1.13271e+09,-439841,0.0369113,0.135056,0,0.140009,13336.3,-41052.8,0,43164.7,439841
step02_gravity_refstate-mantle.xmf,1308,-3.41732e-06,4.14847e-06,0,-2.96311e-06,-1.09912e+09,-1.0981e+09,-1.09866e+09,-396020,0.0416462,0.134576,0,0.140873,13746.6,-40000,0,42296.2,396020
step02_gravity_refstate-mantle.xmf,1309,-3.8061e-06,6.23833e-06,0,-3.81202e-06,-1.24267e+09,-1.24132e+09,-1.24216e+09,-509477,0.0191503,0.129496,0,0.130904,12446.7,-44437,0,46147.3,509477
step02_gravity_refstate-mantle.xmf,1310,-3.77242e-06,1.02104e-05,0,-5.58082e-08,-1.42919e+09,-1.42732e+09,-1.42868e+09,-7458.77,-0.0328042,0.0893486,-0,0.0951803,11842.9,-50209,0,51586.8,7458.77
step02_gravity_refstate-mantle.xmf,1311,-1.86645e-06,1.05145e-05,0,1.69126e-06,-1.49359e+09,-1.49194e+09,-1.49334e+09,226037,-0.0597414,0.0712113,-0,0.0929521,11614,-52212,0,53488.1,226037
step02_gravity_refstate-mantle.xmf,1312,-2.89532e-06,1.03563e-05,0,8.99629e-07,-1.4607e+09,-1.45892e+09,-1.46031e+09,120235,-0.0457527,0.0795078,-0,0.0917322,11822.3,-51188.5,0,52536,120235
step02_gravity_refstate-mantle.xmf,1313,1.63007e-06,1.07926e-05,0,2.69551e-06,-1.57663e+09,-1.57541e+09,-1.57685e+09,360255,-0.0981515,0.0518147,-0,0.110989,10810,-54801.2,0,55857.2,360255
step02_gravity_refstate-mantle.xmf,1314,-3.17513e-06,4.60294e-06,0,-3.61827e-06,-1.15988e+09,-1.15884e+09,-1.15945e+09,-483582,0.0332807,0.136243,0,0.140249,12952.9,-41879.8,0,43837.1,483582
step02_gravity_refstate-mantle.xmf,1315,-3.3218e-06,5.2088e-06,0,-3.43286e-06,-1.19072e+09,-1.18958e+09,-1.19027e+09,-458801,0.026923,0.128981,0,0.131761,13151.6,-42832.8,0,44806.4,458801
step02_gravity_refstate-mantle.xmf,1316,-3.33398e-06,4.59312e-06,0,-2.65851e-06,-1.13142e+09,-1.13036e+09,-1.13098e+09,-355310,0.033452,0.121807,0,0.126317,14488.9,-40999.6,0,43484.4,355310
step02_gravity_refstate-mantle.xmf,1317,-3.54659e-06,4.42362e-06,0,-2.45006e-06,-1.09912e+09,-1.09806e+09,-1.09865e+09,-327451,0.037213,0.120629,0,0.126239,15019.5,-40000,0,42726.9,327451
step02_gravity_refstate-mantle.xmf,1318,-3.51472e-06,5.92632e-06,0,-3.12412e-06,-1.22683e+09,-1.22557e+09,-1.22636e+09,-417539,0.0193167,0.120883,0,0.122416,13298.4,-43949,0,45916.9,417539
step02_gravity_refstate-mantle.xmf,1319,-4.08043e-06,7.1553e-06,0,-3.19971e-06,-1.28139e+09,-1.27989e+09,-1.28085e+09,-427642,0.0101,0.119675,0,0.1201,12574.6,-45633.8,0,47334.6,427642
step02_gravity_refstate-mantle.xmf,1320,-4.19503e-06,7.96572e-06,0,-2.49385e-06,-1.31708e+09,-1.31545e+09,-1.31652e+09,-333303,0.0010597,0.111099,0,0.111104,12592,-46737.4,0,48403.9,333303
step02_gravity_refstate-mantle.xmf,1321,-4.19178e-06,8.65509e-06,0,-1.74435e-06,-1.35123e+09,-1.34952e+09,-1.35067e+09,-233133,-0.00842775,0.10311,-0,0.103454,12533.7,-47794.3,0,49410.4,233133
step02_gravity_refstate-mantle.xmf,1322,-3.84509e-06,9.01108e-06,0,-8.44109e-07,-1.38123e+09,-1.37952e+09,-1.38072e+09,-112815,-0.0184631,0.0933362,-0,0.0951448,12653.4,-48724.2,0,50340.4,112815
step02_gravity_refstate-mantle.xmf,1323,-3.32482e-06,9.28568e-06,0,4.85356e-08,-1.41217e+09,-1.41048e+09,-1.41172e+09,6486.78,-0.0293878,0.0840522,-0,0.0890416,12692.9,-49683.9,0,51279.6,6486.78
step02_gravity_refstate-mantle.xmf,1324,-1.30286e-07,1.01337e-05,0,2.47009e-06,-1.52947e+09,-1.5281e+09,-1.52946e+09,330128,-0.0760832,0.0589086,-0,0.096223,11683.7,-53331.1,0,54595.9,330128
step02_gravity_refstate-mantle.xmf,1325,1.39965e-06,9.68842e-06,0,2.75687e-06,-1.56208e+09,-1.56097e+09,-1.56226e+09,368456,-0.0904528,0.0489648,-0,0.102856,11666.9,-54347.2,0,55585.4,368456
step02_gravity_refstate-mantle.xmf,1326,3.18575e-06,1.04342e-05,0,2.62803e-06,-1.60759e+09,-1.60663e+09,-1.60802e+09,351236,-0.111593,0.0418491,-0,0.119182,10775.9,-55767.1,0,56798.7,351236
step02_gravity_refstate-mantle.xmf,1327,4.4571e-06,1.01565e-05,0,2.2456e-06,-1.638e+09,-1.63724e+09,-1.6386e+09,300124,-0.123124,0.0325355,-0,0.12735,10710.1,-56714.2,0,57716.6,300124
step02_gravity_refstate-mantle.xmf,1328,5.45314e-06,1.00744e-05,0,1.72157e-06,-1.66741e+09,-1.66679e+09,-1.66814e+09,230087,-0.132243,0.0237016,-0,0.13435,10625.5,-57629,0,58600.4,230087
step02_gravity_refstate-mantle.xmf,1329,6.03024e-06,1.04803e-05,0,1.10337e-06,-1.69495e+09,-1.69436e+09,-1.69576e+09,147466,-0.139609,0.0159102,-0,0.140513,10367.9,-58484.8,0,59396.7,147466
step02_gravity_refstate-mantle.xmf,1330,6.24242e-06,1.12192e-05,0,5.03808e-07,-1.72015e+09,-1.71948e+09,-1.72098e+09,67333.9,-0.144943,0.00826748,-0,0.145179,10032,-59266.3,0,60109.4,67333.9
step02_gravity_refstate-mantle.xmf,1331,6.1184e-06,1.22949e-05,0,1.15737e-08,-1.74384e+09,-1.74301e+09,-1.74465e+09,1546.83,-0.148501,-7.97539e-20,-0,0.148501,9625.39,-60000,0,60767.2,1546.83
step02_gravity_refstate-mantle.xmf,1332,-3.28425e-06,4.93885e-06,0,-2.86633e-06,-1.16719e+09,-1.16609e+09,-1.16675e+09,-383085,0.0283331,0.121312,0,0.124577,14070.4,-42105.7,0,44394.5,383085
step02_gravity_refstate-mantle.xmf,1333,-3.32819e-06,4.72305e-06,0,-2.09812e-06,-1.13169e+09,-1.13061e+09,-1.13124e+09,-280413,0.0294778,0.109534,0,0.113431,15667.2,-41008.2,0,43899.1,280413
step02_gravity_refstate-mantle.xmf,1334,-3.69256e-06,6.63688e-06,0,-2.66146e-06,-1.26368e+09,-1.2623e+09,-1.26318e+09,-355705,0.0109624,0.112263,0,0.112797,13414,-45087.8,0,47040.9,355705
step02_gravity_refstate-mantle.xmf,1335,-2.54419e-06,9.41452e-06,0,9.42608e-07,-1.44484e+09,-1.44325e+09,-1.4445e+09,125980,-0.0416863,0.0745625,-0,0.0854243,12690.1,-50698.8,0,52262.9,125980
step02_gravity_refstate-mantle.xmf,1336,-1.4731e-06,9.3796e-06,0,1.76121e-06,-1.4795e+09,-1.47805e+09,-1.47931e+09,235386,-0.0554259,0.0649604,-0,0.0853925,12634.6,-51776.5,0,53295.8,235386
step02_gravity_refstate-mantle.xmf,1337,-2.07804e-07,9.15688e-06,0,2.37546e-06,-1.51293e+09,-1.51168e+09,-1.5129e+09,317480,-0.0691488,0.0557207,-0,0.0888051,12586.2,-52817,0,54295.9,317480
step02_gravity_refstate-mantle.xmf,1338,2.94618e-06,9.29829e-06,0,2.82625e-06,-1.59366e+09,-1.59281e+09,-1.59406e+09,377728,-0.103465,0.0397904,-0,0.110853,11640.4,-55332.3,0,56543.4,377728
step02_gravity_refstate-mantle.xmf,1339,-3.30634e-06,5.58423e-06,0,-2.52062e-06,-1.20795e+09,-1.20676e+09,-1.20751e+09,-336881,0.0198924,0.112558,0,0.114302,14253.9,-43366.2,0,45648.7,336881
step02_gravity_refstate-mantle.xmf,1340,-3.25491e-06,4.9151e-06,0,-2.31388e-06,-1.15755e+09,-1.15645e+09,-1.15711e+09,-309250,0.0269402,0.111997,0,0.115191,15043.3,-41807.9,0,44432,309250
step02_gravity_refstate-mantle.xmf,1341,-3.51277e-06,4.5616e-06,0,-1.97045e-06,-1.0991e+09,-1.09802e+09,-1.09863e+09,-263351,0.0325371,0.107866,0,0.112666,16343,-40000,0,43209.9,263351
step02_gravity_refstate-mantle.xmf,1342,-3.33891e-06,6.17579e-06,0,-2.11201e-06,-1.24571e+09,-1.24444e+09,-1.24527e+09,-282270,0.0117226,0.104723,0,0.105378,14339.9,-44534.1,0,46785.9,282270
step02_gravity_refstate-mantle.xmf,1343,-3.75056e-06,7.33774e-06,0,-2.03425e-06,-1.3011e+09,-1.29961e+09,-1.30059e+09,-271878,0.00183226,0.103727,0,0.103743,13450.3,-46245.1,0,48161.4,271878
step02_gravity_refstate-mantle.xmf,1344,-3.66104e-06,7.95726e-06,0,-1.3183e-06,-1.33679e+09,-1.33524e+09,-1.3363e+09,-176191,-0.00765537,0.0957155,-0,0.0960212,13414.8,-47349.9,0,49213.5,176191
step02_gravity_refstate-mantle.xmf,1345,-3.53823e-06,8.43483e-06,0,-7.61387e-07,-1.36526e+09,-1.36366e+09,-1.36478e+09,-101759,-0.0155893,0.0902827,-0,0.0916187,13263.9,-48231.2,0,50021.8,101759
step02_gravity_refstate-mantle.xmf,1346,-2.95678e-06,8.29505e-06,0,7.24792e-09,-1.38577e+09,-1.38427e+09,-1.38538e+09,968.685,-0.0235374,0.0801664,-0,0.0835504,13698.1,-48868.5,0,50752,968.685
step02_gravity_refstate-mantle.xmf,1347,-2.26631e-06,8.53155e-06,0,8.9644e-07,-1.42509e+09,-1.42364e+09,-1.42478e+09,119809,-0.036603,0.0707755,-0,0.0796803,13607.7,-50088.1,0,51903.6,119809
step02_gravity_refstate-mantle.xmf,1348,1.26152e-06,8.79787e-06,0,2.79811e-06,-1.54625e+09,-1.54524e+09,-1.54642e+09,373967,-0.0827489,0.0465308,-0,0.0949342,12566.9,-53855.2,0,55302,373967
step02_gravity_refstate-mantle.xmf,1349,2.6445e-06,8.32594e-06,0,2.84844e-06,-1.57913e+09,-1.57837e+09,-1.57948e+09,380695,-0.0954996,0.037996,-0,0.102781,12529.5,-54878.9,0,56291,380695
step02_gravity_refstate-mantle.xmf,1350,4.29897e-06,8.92657e-06,0,2.56477e-06,-1.62524e+09,-1.62463e+09,-1.62582e+09,342781,-0.115029,0.0311163,-0,0.119163,11593,-56315.9,0,57496.8,342781
step02_gravity_refstate-mantle.xmf,1351,5.34853e-06,8.66344e-06,0,2.03193e-06,-1.65616e+09,-1.65571e+09,-1.65687e+09,271568,-0.124622,0.0230827,-0,0.126742,11500.5,-57277.2,0,58420.3,271568
step02_gravity_refstate-mantle.xmf,1352,6.1602e-06,8.69293e-06,0,1.33472e-06,-1.68894e+09,-1.68861e+09,-1.68977e+09,178386,-0.132607,0.0147523,-0,0.133425,11345.5,-58295.5,0,59389.2,178386
step02_gravity_refstate-mantle.xmf,1353,6.53359e-06,9.26855e-06,0,6.28651e-07,-1.71786e+09,-1.7175e+09,-1.71874e+09,84019.3,-0.138808,0.00750979,-0,0.139011,10960.2,-59192.8,0,60198.9,84019.3
step02_gravity_refstate-mantle.xmf,1354,6.5502e-06,1.01027e-05,0,1.59247e-08,-1.74392e+09,-1.74345e+09,-1.7448e+09,2128.34,-0.142686,-7.47545e-20,-0,0.142686,10542.4,-60000,0,60919.1,2128.34
step02_gravity_refstate-mantle.xmf,1355,-3.17465e-06,5.2843e-06,0,-2.0262e-06,-1.18923e+09,-1.1881e+09,-1.18881e+09,-270802,0.0203478,0.104841,0,0.106797,15250.9,-42788.2,0,45424.8,270802
step02_gravity_refstate-mantle.xmf,1356,-3.12065e-06,5.02456e-06,0,-1.70828e-06,-1.16625e+09,-1.16516e+09,-1.16584e+09,-228311,0.0219138,0.0999857,0,0.102359,16123.2,-42078.1,0,45061.3,228311
step02_gravity_refstate-mantle.xmf,1357,-3.16689e-06,4.78543e-06,0,-1.52782e-06,-1.13677e+09,-1.13571e+09,-1.13635e+09,-204193,0.0243648,0.0969129,0,0.0999287,16975.5,-41166.5,0,44529.2,204193
step02_gravity_refstate-mantle.xmf,1358,-3.33275e-06,6.75809e-06,0,-1.58506e-06,-1.2843e+09,-1.28295e+09,-1.28386e+09,-211844,0.00274459,0.096628,0,0.0966669,14374.3,-45727.7,0,47933.7,211844
step02_gravity_refstate-mantle.xmf,1359,-1.30846e-06,8.50353e-06,0,1.67889e-06,-1.46147e+09,-1.46016e+09,-1.4613e+09,224384,-0.0497344,0.0614677,-0,0.0790683,13568.6,-51218.4,0,52985.2,224384
step02_gravity_refstate-mantle.xmf,1360,-1.7023e-07,8.29237e-06,0,2.28356e-06,-1.49619e+09,-1.49506e+09,-1.49617e+09,305197,-0.0627433,0.0526566,-0,0.0819112,13532.6,-52297.9,0,54020.3,305197
step02_gravity_refstate-mantle.xmf,1361,1.08036e-06,7.94983e-06,0,2.67341e-06,-1.52986e+09,-1.52894e+09,-1.53001e+09,357301,-0.0753884,0.0443558,-0,0.0874691,13498,-53345.5,0,55026.7,357301
step02_gravity_refstate-mantle.xmf,1362,4.03477e-06,7.9002e-06,0,2.71201e-06,-1.61192e+09,-1.6114e+09,-1.61245e+09,362460,-0.106904,0.0297907,-0,0.110977,12511.7,-55899.8,0,57282.9,362460
step02_gravity_refstate-mantle.xmf,1363,-3.07976e-06,5.73764e-06,0,-1.64869e-06,-1.22606e+09,-1.22488e+09,-1.22565e+09,-220347,0.0127042,0.0976519,0,0.0984748,15340.7,-43927.5,0,46529.2,220347
step02_gravity_refstate-mantle.xmf,1364,-3.34899e-06,4.58967e-06,0,-1.53446e-06,-1.09906e+09,-1.098e+09,-1.09862e+09,-205081,0.0278047,0.0963371,0,0.100269,17720.9,-40000,0,43749.6,205081
step02_gravity_refstate-mantle.xmf,1365,-2.96469e-06,6.20204e-06,0,-1.17863e-06,-1.26504e+09,-1.26382e+09,-1.26465e+09,-157525,0.00411552,0.0900957,0,0.0901897,15376.9,-45133.8,0,47681.3,157525
step02_gravity_refstate-mantle.xmf,1366,-3.17898e-06,7.27305e-06,0,-9.19801e-07,-1.32248e+09,-1.32108e+09,-1.32205e+09,-122931,-0.00698839,0.0883139,-0,0.08859,14376.6,-46909.2,0,49062.9,122931
step02_gravity_refstate-mantle.xmf,1367,-2.85235e-06,7.71831e-06,0,-1.44239e-07,-1.3628e+09,-1.36139e+09,-1.36242e+09,-19277.6,-0.0181373,0.0798324,-0,0.0818668,14289.6,-48158.2,0,50233.5,19277.6
step02_gravity_refstate-mantle.xmf,1368,-2.06633e-06,7.77502e-06,0,8.05967e-07,-1.40357e+09,-1.40225e+09,-1.40329e+09,107717,-0.0312831,0.0681517,-0,0.0749886,14486.6,-49422.8,0,51502.1,107717
step02_gravity_refstate-mantle.xmf,1369,-1.15161e-06,7.72363e-06,0,1.57922e-06,-1.44265e+09,-1.44146e+09,-1.4425e+09,211063,-0.0442457,0.0585128,-0,0.0733583,14510.2,-50636.1,0,52674.1,211063
step02_gravity_refstate-mantle.xmf,1370,2.42545e-06,7.55775e-06,0,2.869e-06,-1.56335e+09,-1.56267e+09,-1.56368e+09,383442,-0.0875171,0.0364717,-0,0.0948126,13461.5,-54388,0,56029.2,383442
step02_gravity_refstate-mantle.xmf,1371,3.67427e-06,7.0669e-06,0,2.72281e-06,-1.59733e+09,-1.59688e+09,-1.59782e+09,363904,-0.0988082,0.0288948,-0,0.102946,13427.4,-55444.8,0,57047.5,363904
step02_gravity_refstate-mantle.xmf,1372,5.19386e-06,7.51384e-06,0,2.28274e-06,-1.64497e+09,-1.64466e+09,-1.64566e+09,305088,-0.116591,0.0219994,-0,0.118648,12481.2,-56927.5,0,58279.7,305088
step02_gravity_refstate-mantle.xmf,1373,6.13285e-06,7.17705e-06,0,1.51057e-06,-1.68246e+09,-1.68232e+09,-1.68328e+09,201888,-0.124626,0.0135015,-0,0.125355,12464.1,-58091.1,0,59413.3,201888
step02_gravity_refstate-mantle.xmf,1374,6.62062e-06,7.66274e-06,0,7.18031e-07,-1.7153e+09,-1.71516e+09,-1.71618e+09,95964.8,-0.131945,0.00683415,-0,0.132122,11968.9,-59110,0,60309.6,95964.8
step02_gravity_refstate-mantle.xmf,1375,6.74138e-06,8.34567e-06,0,2.01802e-08,-1.74403e+09,-1.74381e+09,-1.74493e+09,2697.08,-0.13629,-6.69429e-20,-0,0.13629,11504.3,-60000,0,61093,2697.08
step02_gravity_refstate-mantle.xmf,1376,-2.91243e-06,5.35251e-06,0,-1.29514e-06,-1.20427e+09,-1.20316e+09,-1.20388e+09,-173096,0.0139931,0.0915525,0,0.0926157,16379.6,-43254.6,0,46252.1,173096
step02_gravity_refstate-mantle.xmf,1377,-2.82653e-06,5.01817e-06,0,-1.0555e-06,-1.17801e+09,-1.17696e+09,-1.17763e+09,-141067,0.0159258,0.0870118,0,0.0884573,17422.6,-42443.1,0,45879.9,141067
step02_gravity_refstate-mantle.xmf,1378,-2.81883e-06,4.74692e-06,0,-9.19374e-07,-1.14638e+09,-1.14537e+09,-1.146e+09,-122874,0.0181293,0.0835203,0,0.0854653,18534,-41465.6,0,45419.2,122874
step02_gravity_refstate-mantle.xmf,1379,-2.76734e-06,6.62387e-06,0,-6.0743e-07,-1.30424e+09,-1.30299e+09,-1.30387e+09,-81183,-0.00527532,0.0821789,-0,0.082348,15391.1,-46347.1,0,48835.8,81183
step02_gravity_refstate-mantle.xmf,1380,-1.22596e-07,7.5346e-06,0,2.16368e-06,-1.47896e+09,-1.47794e+09,-1.47895e+09,289176,-0.0566822,0.0500405,-0,0.0756103,14486.6,-51764.2,0,53753,289176
step02_gravity_refstate-mantle.xmf,1381,9.86272e-07,7.22857e-06,0,2.55285e-06,-1.51321e+09,-1.51237e+09,-1.51334e+09,341189,-0.0684956,0.0423567,-0,0.0805341,14454,-52828.6,0,54770.2,341189
step02_gravity_refstate-mantle.xmf,1382,2.15909e-06,6.83533e-06,0,2.74134e-06,-1.54705e+09,-1.54642e+09,-1.54733e+09,366380,-0.0798653,0.0351112,-0,0.0872425,14419.6,-53880.7,0,55776.8,366380
step02_gravity_refstate-mantle.xmf,1383,4.8572e-06,6.67411e-06,0,2.4085e-06,-1.63125e+09,-1.63101e+09,-1.6319e+09,321896,-0.108515,0.021747,-0,0.110673,13398.5,-56499.3,0,58066.3,321896
step02_gravity_refstate-mantle.xmf,1384,-2.69785e-06,5.70447e-06,0,-8.57182e-07,-1.2438e+09,-1.24267e+09,-1.24343e+09,-114562,0.00578064,0.0842657,0,0.0844637,16439.4,-44477.9,0,47418.8,114562
step02_gravity_refstate-mantle.xmf,1385,-3.08841e-06,4.52475e-06,0,-1.15159e-06,-1.09901e+09,-1.098e+09,-1.0986e+09,-153910,0.0231781,0.0860562,0,0.0891229,19156.9,-40000,0,44350.7,153910
step02_gravity_refstate-mantle.xmf,1386,-2.43369e-06,6.02828e-06,0,-3.52315e-07,-1.28398e+09,-1.28285e+09,-1.28366e+09,-47086.9,-0.00318016,0.0767888,-0,0.0768546,16460,-45721.9,0,48594.4,47086.9
step02_gravity_refstate-mantle.xmf,1387,-2.39999e-06,6.93853e-06,0,6.54452e-08,-1.34333e+09,-1.34208e+09,-1.34301e+09,8746.76,-0.0155085,0.0738913,-0,0.0755012,15399.8,-47557.7,0,49988.9,8746.76
step02_gravity_refstate-mantle.xmf,1388,-1.85736e-06,7.09245e-06,0,7.57504e-07,-1.3822e+09,-1.381e+09,-1.38195e+09,101240,-0.0265102,0.0654769,-0,0.07064,15393.8,-48762.3,0,51134.4,101240
step02_gravity_refstate-mantle.xmf,1389,-9.9664e-07,7.02276e-06,0,1.48574e-06,-1.42338e+09,-1.42231e+09,-1.42325e+09,198569,-0.0390673,0.0558211,-0,0.068134,15473.4,-50040,0,52377.7,198569
step02_gravity_refstate-mantle.xmf,1390,-2.41502e-08,6.82248e-06,0,2.04984e-06,-1.46192e+09,-1.461e+09,-1.46191e+09,273961,-0.0511454,0.0473726,-0,0.0697138,15492.4,-51236.4,0,53527.4,273961
step02_gravity_refstate-mantle.xmf,1391,3.38417e-06,6.41987e-06,0,2.74556e-06,-1.58137e+09,-1.58097e+09,-1.58182e+09,366945,-0.0906323,0.0281629,-0,0.0949071,14387.4,-54948.1,0,56800.5,366945
step02_gravity_refstate-mantle.xmf,1392,4.46237e-06,5.97134e-06,0,2.44166e-06,-1.61622e+09,-1.61602e+09,-1.61682e+09,326328,-0.100371,0.0216261,-0,0.102674,14335,-56030.8,0,57835.5,326328
step02_gravity_refstate-mantle.xmf,1393,5.75034e-06,6.26699e-06,0,1.85165e-06,-1.66401e+09,-1.66394e+09,-1.66478e+09,247473,-0.115522,0.0150269,-0,0.116495,13446.6,-57516.3,0,59067.2,247473
step02_gravity_refstate-mantle.xmf,1394,6.59208e-06,6.39009e-06,0,6.88958e-07,-1.71602e+09,-1.71605e+09,-1.7169e+09,92079.2,-0.125092,0.00557457,-0,0.125216,13012.9,-59128.9,0,60543.9,92079.2
step02_gravity_refstate-mantle.xmf,1395,6.75709e-06,6.94391e-06,0,1.76858e-08,-1.74414e+09,-1.74412e+09,-1.74504e+09,2363.71,-0.129473,-5.47996e-20,-0,0.129473,12513.8,-60000,0,61291.1,2363.71
step02_gravity_refstate-mantle.xmf,1396,-2.52512e-06,5.28809e-06,0,-6.24898e-07,-1.22085e+09,-1.2198e+09,-1.22051e+09,-83517.6,0.00763042,0.0793841,0,0.07975,17525.4,-43769.2,0,47147.4,83517.6
step02_gravity_refstate-mantle.xmf,1397,-2.42494e-06,4.94001e-06,0,-4.75317e-07,-1.19524e+09,-1.19425e+09,-1.19491e+09,-63526.1,0.00969147,0.0755836,0,0.0762024,18625.9,-42977.8,0,46840.3,63526.1
step02_gravity_refstate-mantle.xmf,1398,-2.54015e-06,4.5555e-06,0,-5.72802e-07,-1.14087e+09,-1.13992e+09,-1.14053e+09,-76555,0.0149129,0.0747046,0,0.0761785,20041.3,-41296.5,0,45902.7,76555
step02_gravity_refstate-mantle.xmf,1399,-2.75719e-06,4.38473e-06,0,-8.26993e-07,-1.09895e+09,-1.098e+09,-1.09859e+09,-110528,0.0187932,0.0770028,0,0.079263,20655.1,-40000,0,45018.2,110528
step02_gravity_refstate-mantle.xmf,1400,-2.06034e-06,6.29009e-06,0,2.23054e-07,-1.32428e+09,-1.32316e+09,-1.324e+09,29811.2,-0.0129125,0.069033,-0,0.0702303,16468,-46969.8,0,49773.1,29811.2
step02_gravity_refstate-mantle.xmf,1401,9.43244e-07,6.59364e-06,0,2.42422e-06,-1.49713e+09,-1.49637e+09,-1.49726e+09,323997,-0.0622992,0.0403986,-0,0.0742512,15424.2,-52330,0,54555.8,323997
step02_gravity_refstate-mantle.xmf,1402,1.96134e-06,6.26885e-06,0,2.62577e-06,-1.53062e+09,-1.53004e+09,-1.53088e+09,350934,-0.072791,0.0340405,-0,0.0803572,15351.7,-53370.5,0,55534.5,350934
step02_gravity_refstate-mantle.xmf,1403,3.0345e-06,5.82944e-06,0,2.6407e-06,-1.56442e+09,-1.56405e+09,-1.56483e+09,352929,-0.0826474,0.0275996,-0,0.087134,15366.3,-54420.7,0,56548.5,352929
step02_gravity_refstate-mantle.xmf,1404,5.36674e-06,5.61637e-06,0,2.01249e-06,-1.64901e+09,-1.64897e+09,-1.64972e+09,268969,-0.107623,0.0156704,-0,0.108757,14352.2,-57048.6,0,58826.3,268969
step02_gravity_refstate-mantle.xmf,1405,6.26744e-06,5.9871e-06,0,1.21466e-06,-1.69253e+09,-1.69257e+09,-1.69337e+09,162339,-0.119615,0.00948998,-0,0.119991,13504.3,-58399.9,0,59941,162339
step02_gravity_refstate-mantle.xmf,1406,-2.19709e-06,5.53065e-06,0,-1.61665e-07,-1.26256e+09,-1.26153e+09,-1.26227e+09,-21606.5,-0.000958257,0.0721838,-0,0.0721902,17553.9,-45060.5,0,48359,21606.5
step02_gravity_refstate-mantle.xmf,1407,-2.28107e-06,4.68779e-06,0,-3.11855e-07,-1.17861e+09,-1.17767e+09,-1.1783e+09,-41679.4,0.00987702,0.0710587,0,0.0717419,19742.6,-42464.4,0,46829.4,41679.4
step02_gravity_refstate-mantle.xmf,1408,-2.21528e-06,4.3528e-06,0,-3.00155e-07,-1.13985e+09,-1.13898e+09,-1.13956e+09,-40115.7,0.0116308,0.067223,0,0.0682217,21476.1,-41267,0,46520.8,40115.7
step02_gravity_refstate-mantle.xmf,1409,-2.38614e-06,4.19784e-06,0,-5.58203e-07,-1.09889e+09,-1.09801e+09,-1.09857e+09,-74603.8,0.0147644,0.0691319,0,0.0706909,22219.5,-40000,0,45757,74603.8
step02_gravity_refstate-mantle.xmf,1410,-1.80096e-06,5.71627e-06,0,3.38173e-07,-1.30377e+09,-1.30277e+09,-1.30353e+09,45196.8,-0.0101087,0.064913,-0,0.0656954,17565.5,-46336.7,0,49554.3,45196.8
step02_gravity_refstate-mantle.xmf,1411,-1.5283e-06,6.42054e-06,0,8.33909e-07,-1.36396e+09,-1.3629e+09,-1.36376e+09,111452,-0.0232419,0.0611345,-0,0.0654035,16479.3,-48199.5,0,50938.8,111452
step02_gravity_refstate-mantle.xmf,1412,-8.26589e-07,6.37359e-06,0,1.41529e-06,-1.40396e+09,-1.40299e+09,-1.40385e+09,189154,-0.0342849,0.0530477,-0,0.0631626,16499.9,-49439.5,0,52120.2,189154
step02_gravity_refstate-mantle.xmf,1413,5.3037e-08,6.19189e-06,0,1.92963e-06,-1.44384e+09,-1.44302e+09,-1.44385e+09,257895,-0.0456932,0.0450498,-0,0.0641666,16531.6,-50677,0,53305.3,257895
step02_gravity_refstate-mantle.xmf,1414,1.14617e-06,5.87785e-06,0,2.34649e-06,-1.48563e+09,-1.485e+09,-1.48578e+09,313609,-0.0576817,0.0370067,-0,0.0685323,16569.7,-51974.3,0,54551.6,313609
step02_gravity_refstate-mantle.xmf,1415,4.12839e-06,5.42047e-06,0,2.48258e-06,-1.60008e+09,-1.59991e+09,-1.60063e+09,331796,-0.0921043,0.021447,-0,0.0945683,15337.4,-55528.5,0,57607.7,331796
step02_gravity_refstate-mantle.xmf,1416,5.00828e-06,5.03821e-06,0,2.06459e-06,-1.63507e+09,-1.63506e+09,-1.63574e+09,275933,-0.100077,0.0158974,-0,0.101332,15281.3,-56614.1,0,58640.2,275933
step02_gravity_refstate-mantle.xmf,1417,6.02798e-06,5.19773e-06,0,1.33099e-06,-1.68363e+09,-1.68374e+09,-1.68443e+09,177887,-0.112413,0.0096028,-0,0.112823,14493.3,-58121.4,0,59901.2,177887
step02_gravity_refstate-mantle.xmf,1418,6.46639e-06,5.38234e-06,0,6.53764e-07,-1.71575e+09,-1.7159e+09,-1.71661e+09,87375.6,-0.118061,0.00476128,-0,0.118157,14085.9,-59117.1,0,60772,87375.6
step02_gravity_refstate-mantle.xmf,1419,6.65425e-06,5.82152e-06,0,1.74801e-08,-1.74426e+09,-1.74437e+09,-1.74515e+09,2336.21,-0.122365,-4.83117e-20,-0,0.122365,13573.4,-60000,0,61516.1,2336.21
step02_gravity_refstate-mantle.xmf,1420,-2.0313e-06,5.1176e-06,0,-2.37478e-08,-1.24003e+09,-1.23908e+09,-1.23976e+09,-3173.89,0.00121749,0.0681668,0,0.0681777,18694,-44364.6,0,48142.3,3173.89
step02_gravity_refstate-mantle.xmf,1421,-1.9076e-06,4.77416e-06,0,6.60212e-08,-1.21735e+09,-1.21645e+09,-1.21709e+09,8823.73,0.00311162,0.0647263,0,0.0648011,19858.1,-43663.8,0,47967.4,8823.73
step02_gravity_refstate-mantle.xmf,1422,-1.92402e-06,4.49959e-06,0,1.53995e-08,-1.18582e+09,-1.18496e+09,-1.18556e+09,2058.14,0.00617283,0.0634647,0,0.0637642,20960.5,-42689.1,0,47557.3,2058.14
step02_gravity_refstate-mantle.xmf,1423,-1.85439e-06,4.12766e-06,0,-7.2948e-08,-1.1401e+09,-1.13931e+09,-1.13986e+09,-9749.51,0.00847154,0.0604604,0,0.061051,23008.7,-41276.5,0,47256.2,9749.51
step02_gravity_refstate-mantle.xmf,1424,-1.29236e-06,5.83135e-06,0,8.67373e-07,-1.34467e+09,-1.34372e+09,-1.3445e+09,115924,-0.0198342,0.0575912,-0,0.0609109,17565.1,-47603.8,0,50741,115924
step02_gravity_refstate-mantle.xmf,1425,1.82314e-06,5.87095e-06,0,2.53797e-06,-1.51642e+09,-1.51588e+09,-1.51667e+09,339200,-0.0671156,0.0332677,-0,0.0749082,16140.9,-52930,0,55336.4,339200
step02_gravity_refstate-mantle.xmf,1426,2.71372e-06,5.41199e-06,0,2.55103e-06,-1.54615e+09,-1.54578e+09,-1.54651e+09,340945,-0.0750424,0.0275194,-0,0.0799292,16279.8,-53852.9,0,56259.8,340945
step02_gravity_refstate-mantle.xmf,1427,3.72917e-06,4.93218e-06,0,2.41625e-06,-1.58254e+09,-1.58238e+09,-1.58304e+09,322932,-0.083934,0.0214131,-0,0.0866224,16356.9,-54982.7,0,57364.2,322932
step02_gravity_refstate-mantle.xmf,1428,5.59252e-06,4.88259e-06,0,1.64947e-06,-1.66302e+09,-1.66311e+09,-1.66377e+09,220452,-0.105589,0.0118049,-0,0.106247,15167,-57481,0,59448.4,220452
step02_gravity_refstate-mantle.xmf,1429,-1.60234e-06,5.24131e-06,0,4.29931e-07,-1.28292e+09,-1.282e+09,-1.2827e+09,57460.3,-0.00747316,0.061196,-0,0.0616506,18708.1,-45692.5,0,49374.1,57460.3
step02_gravity_refstate-mantle.xmf,1430,-1.74314e-06,4.26489e-06,0,9.86706e-08,-1.17269e+09,-1.17188e+09,-1.17245e+09,13187.3,0.00578337,0.0595263,0,0.0598066,22206.8,-42284.1,0,47760.7,13187.3
step02_gravity_refstate-mantle.xmf,1431,-1.99809e-06,3.98337e-06,0,-3.42918e-07,-1.09882e+09,-1.09802e+09,-1.09856e+09,-45831,0.0111766,0.0623797,0,0.0633731,23854.1,-40000,0,46572.7,45831
step02_gravity_refstate-mantle.xmf,1432,-1.09935e-06,5.30395e-06,0,8.891e-07,-1.32522e+09,-1.32436e+09,-1.32507e+09,118828,-0.0166397,0.0543106,-0,0.0568024,18701,-47002.8,0,50586.4,118828
step02_gravity_refstate-mantle.xmf,1433,-6.47242e-07,5.81825e-06,0,1.38248e-06,-1.38519e+09,-1.38433e+09,-1.3851e+09,184768,-0.0300309,0.0502839,-0,0.058569,17563.7,-48859.6,0,51920.6,184768
step02_gravity_refstate-mantle.xmf,1434,1.16536e-07,5.64261e-06,0,1.81349e-06,-1.4251e+09,-1.42436e+09,-1.42512e+09,242373,-0.0404503,0.0430757,-0,0.0590909,17582.7,-50097.1,0,53093.1,242373
step02_gravity_refstate-mantle.xmf,1435,9.72978e-07,5.39147e-06,0,2.14449e-06,-1.4636e+09,-1.46301e+09,-1.46373e+09,286610,-0.0505957,0.0363893,-0,0.0623226,17596.9,-51291.6,0,54226.1,286610
step02_gravity_refstate-mantle.xmf,1436,2.28956e-06,5.18722e-06,0,2.4747e-06,-1.5226e+09,-1.52222e+09,-1.52291e+09,330744,-0.0668821,0.0286345,-0,0.0727541,17079.2,-53122.3,0,55800.4,330744
step02_gravity_refstate-mantle.xmf,1437,4.70229e-06,4.55488e-06,0,2.11958e-06,-1.62077e+09,-1.62079e+09,-1.62139e+09,283282,-0.092303,0.0158713,-0,0.0936576,16314,-56169.1,0,58490.3,283282
step02_gravity_refstate-mantle.xmf,1438,5.49308e-06,4.26905e-06,0,1.56663e-06,-1.66133e+09,-1.66149e+09,-1.66207e+09,209381,-0.0997211,0.0105414,-0,0.100277,16181.8,-57426.7,0,59663,209381
step02_gravity_refstate-mantle.xmf,1439,5.94145e-06,4.49372e-06,0,1.23241e-06,-1.68515e+09,-1.68534e+09,-1.68594e+09,164712,-0.10641,0.00809808,-0,0.106718,15527.5,-58166,0,60202.9,164712
step02_gravity_refstate-mantle.xmf,1440,6.25787e-06,4.55722e-06,0,6.53678e-07,-1.71336e+09,-1.71359e+09,-1.71419e+09,87364.1,-0.110587,0.00438301,-0,0.110674,15236.4,-59039.6,0,60974,87364.1
step02_gravity_refstate-mantle.xmf,1441,6.4753e-06,4.91707e-06,0,1.86021e-08,-1.74437e+09,-1.74458e+09,-1.74524e+09,2486.17,-0.11506,-4.47137e-20,-0,0.11506,14685.8,-60000,0,61771.1,2486.17
step02_gravity_refstate-mantle.xmf,1442,-1.45266e-06,4.84767e-06,0,4.90898e-07,-1.26144e+09,-1.2606e+09,-1.26124e+09,65608.6,-0.00501763,0.057901,-0,0.058118,19906.2,-45029,0,49232.8,65608.6
step02_gravity_refstate-mantle.xmf,1443,-1.36701e-06,4.51792e-06,0,4.92782e-07,-1.23763e+09,-1.23685e+09,-1.23745e+09,65860.3,-0.00246607,0.0554648,-0,0.0555196,21122.9,-44293.4,0,49072.2,65860.3
step02_gravity_refstate-mantle.xmf,1444,-1.31051e-06,4.25001e-06,0,4.567e-07,-1.21345e+09,-1.21271e+09,-1.21328e+09,61038,-0.000273248,0.0535587,-0,0.0535594,22352.7,-43546.2,0,48948.1,61038
step02_gravity_refstate-mantle.xmf,1445,-1.30641e-06,4.03226e-06,0,3.58144e-07,-1.18511e+09,-1.1844e+09,-1.18494e+09,47866,0.00202063,0.0526351,0,0.0526739,23587,-42670.3,0,48755.5,47866
step02_gravity_refstate-mantle.xmf,1446,-1.43057e-06,3.876e-06,0,1.36781e-07,-1.14526e+09,-1.14455e+09,-1.14507e+09,18280.7,0.0051009,0.0538095,0,0.0540507,24708.6,-41437.9,0,48245.4,18280.7
step02_gravity_refstate-mantle.xmf,1447,-5.01659e-07,5.30204e-06,0,1.33779e-06,-1.36646e+09,-1.36568e+09,-1.36639e+09,178796,-0.0260806,0.0476653,-0,0.0543339,18673.9,-48280.6,0,51766.1,178796
step02_gravity_refstate-mantle.xmf,1448,1.76917e-06,5.09452e-06,0,2.31967e-06,-1.49626e+09,-1.49582e+09,-1.4965e+09,310025,-0.0589598,0.0308095,-0,0.0665243,17661.8,-52304.9,0,55206.4,310025
step02_gravity_refstate-mantle.xmf,1449,3.32089e-06,4.59571e-06,0,2.36712e-06,-1.56148e+09,-1.56131e+09,-1.56192e+09,316366,-0.0756226,0.0219442,-0,0.0787421,17338.3,-54328.5,0,57028.1,316366
step02_gravity_refstate-mantle.xmf,1450,4.28803e-06,4.15527e-06,0,2.09373e-06,-1.60338e+09,-1.6034e+09,-1.60396e+09,279827,-0.0843155,0.0161882,-0,0.0858555,17357.6,-55628.3,0,58273.5,279827
step02_gravity_refstate-mantle.xmf,1451,-9.40067e-07,4.86804e-06,0,9.06614e-07,-1.30593e+09,-1.30515e+09,-1.3058e+09,121169,-0.0137381,0.0512995,-0,0.0531072,19885.9,-46406.8,0,50488,121169
step02_gravity_refstate-mantle.xmf,1452,-1.61164e-06,3.75409e-06,0,-1.79287e-07,-1.09876e+09,-1.09804e+09,-1.09854e+09,-23961.7,0.00808772,0.056669,0,0.0572433,25563.1,-40000,0,47470.8,23961.7
step02_gravity_refstate-mantle.xmf,1453,-3.99008e-07,4.84709e-06,0,1.27903e-06,-1.34731e+09,-1.34661e+09,-1.34726e+09,170942,-0.0223189,0.0453646,-0,0.0505577,19818.2,-47688.8,0,51642.8,170942
step02_gravity_refstate-mantle.xmf,1454,1.99579e-07,5.17535e-06,0,1.73194e-06,-1.40676e+09,-1.4061e+09,-1.40679e+09,231473,-0.0356773,0.0411169,-0,0.0544378,18674.3,-49530.1,0,52933.5,231473
step02_gravity_refstate-mantle.xmf,1455,9.78563e-07,4.92213e-06,0,2.01908e-06,-1.44696e+09,-1.44643e+09,-1.44709e+09,269850,-0.0453624,0.0347747,-0,0.0571579,18682.7,-50776.2,0,54104.2,269850
step02_gravity_refstate-mantle.xmf,1456,1.83613e-06,4.63147e-06,0,2.21295e-06,-1.48753e+09,-1.48716e+09,-1.48778e+09,295760,-0.0550613,0.0288532,-0,0.0621631,18646.5,-52034.6,0,55274.6,295760
step02_gravity_refstate-mantle.xmf,1457,2.82906e-06,4.37069e-06,0,2.32355e-06,-1.53197e+09,-1.53177e+09,-1.53235e+09,310543,-0.0657875,0.0233324,-0,0.0698026,18396.4,-53413.3,0,56492.5,310543
step02_gravity_refstate-mantle.xmf,1458,5.08699e-06,3.84898e-06,0,1.68361e-06,-1.64316e+09,-1.64333e+09,-1.64384e+09,225015,-0.0912865,0.0113413,-0,0.0919883,17294.5,-56861.7,0,59433.6,225015
step02_gravity_refstate-mantle.xmf,1459,5.97865e-06,3.92497e-06,0,7.51429e-07,-1.70519e+09,-1.70546e+09,-1.70599e+09,100428,-0.102961,0.00476883,-0,0.103071,16398.1,-58783.8,0,61028.1,100428
step02_gravity_refstate-mantle.xmf,1460,6.24956e-06,4.18457e-06,0,2.35089e-08,-1.74448e+09,-1.74476e+09,-1.74532e+09,3141.96,-0.10763,-5.17963e-20,-0,0.10763,15854,-60000,0,62059.2,3141.96
step02_gravity_refstate-mantle.xmf,1461,-8.19758e-07,4.50037e-06,0,9.00736e-07,-1.28513e+09,-1.28442e+09,-1.28502e+09,120383,-0.0108598,0.0486844,-0,0.049881,21157.2,-45764.2,0,50418.1,120383
step02_gravity_refstate-mantle.xmf,1462,-7.52639e-07,4.19254e-06,0,8.49107e-07,-1.2625e+09,-1.26184e+09,-1.2624e+09,113483,-0.00800804,0.0467582,-0,0.047439,22457.2,-45064.9,0,50350.5,113483
step02_gravity_refstate-mantle.xmf,1463,-7.4325e-07,3.94401e-06,0,7.46158e-07,-1.23629e+09,-1.23566e+09,-1.23619e+09,99724.1,-0.00506355,0.0456712,-0,0.045951,23785.6,-44254.7,0,50241.7,99724.1
step02_gravity_refstate-mantle.xmf,1464,-7.70827e-07,3.71804e-06,0,5.87805e-07,-1.20285e+09,-1.20225e+09,-1.20275e+09,78560.1,-0.00198121,0.0452118,-0,0.0452551,25347.3,-43221,0,50105.3,78560.1
step02_gravity_refstate-mantle.xmf,1465,-1.04694e-06,3.62474e-06,0,2.58381e-07,-1.14896e+09,-1.14834e+09,-1.14882e+09,34532.6,0.00259425,0.0485742,0,0.0486434,26433.8,-41554.3,0,49249.4,34532.6
step02_gravity_refstate-mantle.xmf,1466,2.39878e-07,4.75005e-06,0,1.63028e-06,-1.38771e+09,-1.38711e+09,-1.38774e+09,217887,-0.0310732,0.0394601,-0,0.0502259,19791,-48940.6,0,52790.8,217887
step02_gravity_refstate-mantle.xmf,1467,3.93656e-06,3.82588e-06,0,2.06366e-06,-1.58505e+09,-1.58506e+09,-1.58557e+09,275808,-0.076505,0.0164962,-0,0.0782633,18427.8,-55058.7,0,58060.7,275808
step02_gravity_refstate-mantle.xmf,1468,4.70991e-06,3.5379e-06,0,1.70252e-06,-1.6278e+09,-1.62795e+09,-1.62843e+09,227542,-0.0840982,0.0117865,-0,0.0849201,18308.2,-56383.7,0,59281.6,227542
step02_gravity_refstate-mantle.xmf,1469,5.57101e-06,3.67833e-06,0,1.16644e-06,-1.67767e+09,-1.67792e+09,-1.67841e+09,155895,-0.0961676,0.00744395,-0,0.0964552,17174.6,-57930.4,0,60422.7,155895
step02_gravity_refstate-mantle.xmf,1470,-2.52485e-07,4.43911e-06,0,1.25347e-06,-1.33044e+09,-1.32981e+09,-1.33041e+09,167527,-0.0193225,0.0425996,-0,0.0467769,21108.5,-47167.5,0,51675.4,167527
step02_gravity_refstate-mantle.xmf,1471,-1.24341e-06,3.52545e-06,0,-6.16624e-08,-1.0987e+09,-1.09806e+09,-1.09853e+09,-8241.18,0.00553111,0.0519174,0,0.0522112,27351,-40000,0,48457,8241.18
step02_gravity_refstate-mantle.xmf,1472,2.24289e-07,4.43174e-06,0,1.52695e-06,-1.36857e+09,-1.36801e+09,-1.3686e+09,204076,-0.0268226,0.0384284,-0,0.0468636,20812,-48348.5,0,52637.6,204076
step02_gravity_refstate-mantle.xmf,1473,9.67187e-07,4.53733e-06,0,1.90688e-06,-1.4281e+09,-1.42763e+09,-1.42823e+09,254854,-0.03994,0.0335358,-0,0.0521522,19821.5,-50192.7,0,53964.8,254854
step02_gravity_refstate-mantle.xmf,1474,1.76163e-06,4.23271e-06,0,2.06984e-06,-1.47082e+09,-1.47049e+09,-1.47105e+09,276635,-0.0492356,0.0277461,-0,0.0565154,19810.4,-51516.7,0,55194.4,276635
step02_gravity_refstate-mantle.xmf,1475,2.64259e-06,3.90446e-06,0,2.12745e-06,-1.51608e+09,-1.51591e+09,-1.51643e+09,284333,-0.0588252,0.0222013,-0,0.0628753,19730,-52919.9,0,56478.2,284333
step02_gravity_refstate-mantle.xmf,1476,5.29546e-06,3.27184e-06,0,1.18709e-06,-1.66873e+09,-1.669e+09,-1.66944e+09,158655,-0.089163,0.00747204,-0,0.0894755,18299.5,-57651.5,0,60486.1,158655
step02_gravity_refstate-mantle.xmf,1477,5.76371e-06,3.3513e-06,0,5.85683e-07,-1.70996e+09,-1.71028e+09,-1.71073e+09,78276.6,-0.0955924,0.00359947,-0,0.0956601,17699,-58928.3,0,61528.9,78276.6
step02_gravity_refstate-mantle.xmf,1478,5.98923e-06,3.59726e-06,0,1.40858e-08,-1.74459e+09,-1.7449e+09,-1.74539e+09,1882.57,-0.100117,-3.76061e-20,-0,0.100117,17080.8,-60000,0,62383.9,1882.57
step02_gravity_refstate-mantle.xmf,1479,-9.86835e-08,4.07371e-06,0,1.21917e-06,-1.31524e+09,-1.31468e+09,-1.31523e+09,162941,-0.016812,0.0398943,-0,0.0432921,22489.9,-46698.1,0,51831.5,162941
step02_gravity_refstate-mantle.xmf,1480,-1.22396e-07,3.83443e-06,0,1.10389e-06,-1.29111e+09,-1.29058e+09,-1.29109e+09,147534,-0.0130694,0.0391664,-0,0.0412895,23752,-45951.8,0,51727.4,147534
step02_gravity_refstate-mantle.xmf,1481,-1.62585e-07,3.62557e-06,0,9.6192e-07,-1.26478e+09,-1.26428e+09,-1.26476e+09,128561,-0.00955477,0.0387325,-0,0.0398936,25121.3,-45137.8,0,51657.6,128561
step02_gravity_refstate-mantle.xmf,1482,-7.07922e-07,3.38264e-06,0,3.10909e-07,-1.14937e+09,-1.14882e+09,-1.14927e+09,41553,0.000918382,0.0445026,0,0.0445121,28300.3,-41568.4,0,50287.5,41553
step02_gravity_refstate-mantle.xmf,1483,-4.34565e-07,3.42641e-06,0,6.01543e-07,-1.20025e+09,-1.19973e+09,-1.20019e+09,80396.3,-0.00289982,0.0410451,-0,0.0411474,27313.3,-43142,0,51061.2,80396.3
step02_gravity_refstate-mantle.xmf,1484,8.93811e-07,4.19422e-06,0,1.76434e-06,-1.40643e+09,-1.40599e+09,-1.40655e+09,235804,-0.0343322,0.0327709,-0,0.0474619,20997.5,-49521.8,0,53789.4,235804
step02_gravity_refstate-mantle.xmf,1485,3.63131e-06,3.53914e-06,0,2.03129e-06,-1.56535e+09,-1.56536e+09,-1.56583e+09,271482,-0.0684141,0.0166722,-0,0.0704162,19639.3,-54447.4,0,57881.1,271482
step02_gravity_refstate-mantle.xmf,1486,4.54002e-06,3.15059e-06,0,1.62823e-06,-1.62013e+09,-1.62032e+09,-1.62074e+09,217613,-0.0774166,0.0111477,-0,0.0782151,19524,-56144.8,0,59442.6,217613
step02_gravity_refstate-mantle.xmf,1487,4.94738e-06,3.17449e-06,0,1.41094e-06,-1.64634e+09,-1.64658e+09,-1.647e+09,188573,-0.0834394,0.009157,-0,0.0839403,18945.6,-56957.2,0,60025.5,188573
step02_gravity_refstate-mantle.xmf,1488,5.83542e-07,3.96792e-06,0,1.54213e-06,-1.3708e+09,-1.37035e+09,-1.37088e+09,206106,-0.0267189,0.0340157,-0,0.0432547,22130.8,-48418.5,0,53236.5,206106
step02_gravity_refstate-mantle.xmf,1489,-9.32105e-07,3.3062e-06,0,5.9724e-09,-1.09865e+09,-1.09808e+09,-1.09852e+09,798.211,0.00351507,0.0480411,0,0.0481696,29222.3,-40000,0,49537.3,798.211
step02_gravity_refstate-mantle.xmf,1490,-1.71752e-07,3.45514e-06,0,8.31633e-07,-1.24222e+09,-1.24173e+09,-1.2422e+09,111148,-0.00702941,0.0383114,-0,0.0389509,26443.9,-44440.4,0,51712.9,111148
step02_gravity_refstate-mantle.xmf,1491,1.65762e-06,3.92463e-06,0,1.94349e-06,-1.45059e+09,-1.45028e+09,-1.45081e+09,259748,-0.0430442,0.02714,-0,0.050886,21025,-50890.3,0,55062.4,259748
step02_gravity_refstate-mantle.xmf,1492,2.45297e-06,3.58843e-06,0,1.98485e-06,-1.49688e+09,-1.49673e+09,-1.49721e+09,265275,-0.0519132,0.0217983,-0,0.0563041,20996.3,-52324.7,0,56380.1,265275
step02_gravity_refstate-mantle.xmf,1493,3.28109e-06,3.25255e-06,0,1.90216e-06,-1.54475e+09,-1.54475e+09,-1.54519e+09,254223,-0.0605173,0.0168269,-0,0.0628132,20920.4,-53808,0,57731.9,254223
step02_gravity_refstate-mantle.xmf,1494,5.08526e-06,2.8356e-06,0,1.0679e-06,-1.66729e+09,-1.66759e+09,-1.66797e+09,142725,-0.0817931,0.00662635,-0,0.0820611,19694,-57604.2,0,60877.8,142725
step02_gravity_refstate-mantle.xmf,1495,5.4961e-06,2.91747e-06,0,5.54893e-07,-1.70754e+09,-1.70789e+09,-1.70828e+09,74161.5,-0.0880563,0.00336125,-0,0.0881204,19016.5,-58850.8,0,61846.9,74161.5
step02_gravity_refstate-mantle.xmf,1496,5.72638e-06,3.11749e-06,0,1.6225e-08,-1.74468e+09,-1.74503e+09,-1.74545e+09,2168.47,-0.0925686,-3.59637e-20,-0,0.0925686,18369.3,-60000,0,62749,2168.47
step02_gravity_refstate-mantle.xmf,1497,-6.39235e-07,3.11204e-06,0,4.91135e-08,-1.0986e+09,-1.0981e+09,-1.09852e+09,6564.01,0.00202132,0.0449607,0,0.0450061,31181.6,-40000,0,50717.8,6564.01
step02_gravity_refstate-mantle.xmf,1498,-4.04001e-07,3.15065e-06,0,3.17887e-07,-1.15333e+09,-1.15285e+09,-1.15327e+09,42485.6,-0.000425434,0.0409386,-0,0.0409408,30247.4,-41692.2,0,51508.7,42485.6
step02_gravity_refstate-mantle.xmf,1499,5.78487e-07,3.67285e-06,0,1.41393e-06,-1.34761e+09,-1.34719e+09,-1.34768e+09,188971,-0.02191,0.0329026,-0,0.0395301,23630.9,-47701.3,0,53233.8,188971
step02_gravity_refstate-mantle.xmf,1500,4.80665e-07,3.46574e-06,0,1.24971e-06,-1.32088e+09,-1.32048e+09,-1.32095e+09,167024,-0.0171983,0.0327846,-0,0.0370218,25024.6,-46874.7,0,53136.3,167024
step02_gravity_refstate-mantle.xmf,1501,3.5936e-07,3.30829e-06,0,1.06917e-06,-1.29135e+09,-1.29095e+09,-1.29139e+09,142895,-0.0127806,0.0331504,-0,0.0355288,26453.3,-45961,0,53030.1,142895
step02_gravity_refstate-mantle.xmf,1502,2.01199e-07,3.20586e-06,0,8.71061e-07,-1.25769e+09,-1.25729e+09,-1.25771e+09,116417,-0.00868342,0.0342331,-0,0.0353172,27834.9,-44920,0,52845,116417
step02_gravity_refstate-mantle.xmf,1503,-9.59851e-09,3.13726e-06,0,6.35031e-07,-1.21508e+09,-1.21466e+09,-1.21508e+09,84871.9,-0.00466886,0.0362209,-0,0.0365205,29319.2,-43602.2,0,52543.1,84871.9
step02_gravity_refstate-mantle.xmf,1504,1.49188e-06,3.65726e-06,0,1.78465e-06,-1.4269e+09,-1.42661e+09,-1.4271e+09,238519,-0.0366843,0.0269881,-0,0.0455422,22282.3,-50156.9,0,54883.7,238519
step02_gravity_refstate-mantle.xmf,1505,4.10086e-06,2.9349e-06,0,1.66103e-06,-1.59494e+09,-1.59509e+09,-1.59548e+09,221997,-0.0684184,0.0121192,-0,0.0694835,20829.4,-55363,0,59151.8,221997
step02_gravity_refstate-mantle.xmf,1506,-3.9972e-07,2.95053e-06,0,6.59211e-08,-1.09856e+09,-1.09811e+09,-1.09851e+09,8810.35,0.00101047,0.0426095,0,0.0426215,33233.9,-40000,0,52004.7,8810.35
step02_gravity_refstate-mantle.xmf,1507,-1.60995e-07,2.96945e-06,0,2.87924e-07,-1.15411e+09,-1.1537e+09,-1.15409e+09,38481,-0.000981784,0.0385679,-0,0.0385804,32168.8,-41717.6,0,52680.1,38481
step02_gravity_refstate-mantle.xmf,1508,1.28962e-06,3.42352e-06,0,1.60147e-06,-1.40038e+09,-1.40009e+09,-1.40055e+09,214036,-0.0303995,0.0271677,-0,0.0407702,23594.4,-49335.5,0,54687.2,214036
step02_gravity_refstate-mantle.xmf,1509,2.26421e-06,3.35983e-06,0,1.86626e-06,-1.47519e+09,-1.47504e+09,-1.47549e+09,249426,-0.0451032,0.0217633,-0,0.0500794,22269.4,-51652.8,0,56248.9,249426
step02_gravity_refstate-mantle.xmf,1510,3.00867e-06,3.02835e-06,0,1.79474e-06,-1.52387e+09,-1.52386e+09,-1.52427e+09,239867,-0.0531061,0.0170064,-0,0.0557627,22222.6,-53160.6,0,57618.5,239867
step02_gravity_refstate-mantle.xmf,1511,3.72876e-06,2.72512e-06,0,1.60335e-06,-1.57297e+09,-1.5731e+09,-1.57346e+09,214287,-0.0603374,0.0126892,-0,0.0616572,22154.2,-54681.3,0,58998.8,214287
step02_gravity_refstate-mantle.xmf,1512,4.69067e-06,2.67198e-06,0,1.25087e-06,-1.64146e+09,-1.64173e+09,-1.64209e+09,167179,-0.074004,0.00810475,-0,0.0744465,20800.9,-56803.4,0,60492.2,167179
step02_gravity_refstate-mantle.xmf,1513,5.25739e-06,2.57043e-06,0,4.76089e-07,-1.70865e+09,-1.70901e+09,-1.70935e+09,63629.3,-0.0808734,0.00288389,-0,0.0809248,20359.8,-58882.5,0,62303.1,63629.3
step02_gravity_refstate-mantle.xmf,1514,5.45587e-06,2.73338e-06,0,1.17473e-08,-1.74477e+09,-1.74514e+09,-1.7455e+09,1570.03,-0.0849982,-3.18882e-20,-0,0.0849982,19722.9,-60000,0,63158.5,1570.03
step02_gravity_refstate-mantle.xmf,1515,-2.11669e-07,2.82319e-06,0,5.60817e-08,-1.09853e+09,-1.09813e+09,-1.0985e+09,7495.31,0.000405915,0.0409351,0,0.0409371,35384.1,-40000,0,53404.5,7495.31
step02_gravity_refstate-mantle.xmf,1516,1.35632e-07,2.80015e-06,0,2.64012e-07,-1.16683e+09,-1.16648e+09,-1.16685e+09,35285.2,-0.00151805,0.0355937,-0,0.035626,34425.7,-42112.1,0,54392.6,35285.2
step02_gravity_refstate-mantle.xmf,1517,-9.19443e-08,2.74014e-06,0,3.16897e-08,-1.09851e+09,-1.09813e+09,-1.0985e+09,4235.33,0.000116501,0.0399148,0,0.039915,37637.7,-40000,0,54923.5,4235.33
step02_gravity_refstate-mantle.xmf,1518,1.92303e-07,2.70783e-06,0,1.43699e-07,-1.15549e+09,-1.15515e+09,-1.15551e+09,19205.4,-0.000818417,0.035431,-0,0.0354404,36675.6,-41761.8,0,55580.1,19205.4
step02_gravity_refstate-mantle.xmf,1519,1.55644e-07,2.94069e-06,0,5.18464e-07,-1.20764e+09,-1.20727e+09,-1.20766e+09,69292.8,-0.00397987,0.0345368,-0,0.0347654,31314.6,-43373,0,53496,69292.8
step02_gravity_refstate-mantle.xmf,1520,1.16414e-06,3.24583e-06,0,1.4541e-06,-1.37521e+09,-1.37493e+09,-1.37536e+09,194340,-0.0249108,0.0272145,-0,0.0368941,24983.8,-48556.8,0,54607.2,194340
step02_gravity_refstate-mantle.xmf,1521,9.97768e-07,3.10275e-06,0,1.27606e-06,-1.34696e+09,-1.34668e+09,-1.3471e+09,170546,-0.0196364,0.0277065,-0,0.0339594,26406.2,-47682.8,0,54506.3,170546
step02_gravity_refstate-mantle.xmf,1522,8.17346e-07,2.99849e-06,0,1.08209e-06,-1.31554e+09,-1.31524e+09,-1.31564e+09,144621,-0.0146907,0.0286006,-0,0.032153,27888.7,-46710.6,0,54402.7,144621
step02_gravity_refstate-mantle.xmf,1523,6.15616e-07,2.93548e-06,0,8.74762e-07,-1.28015e+09,-1.27984e+09,-1.28023e+09,116912,-0.0101981,0.030032,-0,0.0317163,29379.7,-45615.9,0,54258.4,116912
step02_gravity_refstate-mantle.xmf,1524,2.05004e-06,3.15599e-06,0,1.71629e-06,-1.45165e+09,-1.45151e+09,-1.45193e+09,229382,-0.0384803,0.0219273,-0,0.0442892,23593.8,-50923.9,0,56124.1,229382
step02_gravity_refstate-mantle.xmf,1525,4.33579e-06,2.48859e-06,0,1.30313e-06,-1.62012e+09,-1.62036e+09,-1.6207e+09,174163,-0.0660819,0.00892744,-0,0.0666823,22089,-56141.3,0,60330.5,174163
step02_gravity_refstate-mantle.xmf,1526,4.99276e-06,2.50293e-06,0,8.28352e-07,-1.67785e+09,-1.67819e+09,-1.67852e+09,110709,-0.0763966,0.00511716,-0,0.0765678,20922.1,-57929.2,0,61591.6,110709
step02_gravity_refstate-mantle.xmf,1527,-4.92888e-08,2.72084e-06,0,-6.8396e-09,-1.09851e+09,-1.09813e+09,-1.0985e+09,-914.113,2.3661e-20,0.0395636,0,0.0395636,40000,-40000,0,56568.5,914.113
step02_gravity_refstate-mantle.xmf,1528,2.2887e-07,2.67185e-06,0,6.80901e-08,-1.15105e+09,-1.15072e+09,-1.15108e+09,9100.25,-0.000395038,0.0353425,-0,0.0353447,38346.3,-41624.7,0,56595.5,9100.25
step02_gravity_refstate-mantle.xmf,1529,3.13536e-07,2.80506e-06,0,4.30616e-07,-1.2066e+09,-1.20627e+09,-1.20665e+09,57551.8,-0.00352941,0.0331597,-0,0.033347,32976.6,-43341.8,0,54460.7,57551.8
step02_gravity_refstate-mantle.xmf,1530,5.52142e-07,2.85015e-06,0,7.14651e-07,-1.25854e+09,-1.25823e+09,-1.25861e+09,95513.1,-0.00761997,0.0304578,-0,0.0313965,30825.2,-44947.8,0,54502.2,95513.1
step02_gravity_refstate-mantle.xmf,1531,1.8375e-06,2.9717e-06,0,1.54329e-06,-1.42738e+09,-1.42723e+09,-1.42763e+09,206261,-0.0322729,0.0221985,-0,0.0391703,24971.3,-50172.2,0,56043,206261
step02_gravity_refstate-mantle.xmf,1532,2.76853e-06,2.86268e-06,0,1.69911e-06,-1.50151e+09,-1.5015e+09,-1.50188e+09,227086,-0.0459846,0.0173365,-0,0.049144,23552.1,-52467.9,0,57511.6,227086
step02_gravity_refstate-mantle.xmf,1533,3.41949e-06,2.5665e-06,0,1.53916e-06,-1.5511e+09,-1.55122e+09,-1.55156e+09,205709,-0.0528012,0.0132248,-0,0.0544321,23487.6,-54003.5,0,58890.1,205709
step02_gravity_refstate-mantle.xmf,1534,3.99446e-06,2.32636e-06,0,1.2855e-06,-1.5995e+09,-1.59972e+09,-1.60003e+09,171807,-0.0584677,0.00959094,-0,0.0592491,23424.2,-55501.7,0,60242.2,171807
step02_gravity_refstate-mantle.xmf,1535,4.76331e-06,2.31981e-06,0,8.95929e-07,-1.66488e+09,-1.66521e+09,-1.66552e+09,119741,-0.0701371,0.0056237,-0,0.0703622,22032.2,-57526.5,0,61601.3,119741
step02_gravity_refstate-mantle.xmf,1536,5.02411e-06,2.29524e-06,0,4.34583e-07,-1.70701e+09,-1.70737e+09,-1.70768e+09,58082.1,-0.0738067,0.00270465,-0,0.0738562,21723.4,-58829.4,0,62712.1,58082.1
step02_gravity_refstate-mantle.xmf,1537,5.19176e-06,2.42263e-06,0,1.05892e-08,-1.74486e+09,-1.74523e+09,-1.74555e+09,1415.24,-0.0774263,-3.16324e-20,-0,0.0774263,21144.8,-60000,0,63616.8,1415.24
step02_gravity_refstate-mantle.xmf,1538,3.66343e-07,2.6306e-06,0,-3.36358e-09,-1.17167e+09,-1.17137e+09,-1.17172e+09,-449.542,8.84875e-20,0.0335105,0,0.0335105,40000,-42262.6,0,58190.5,449.542
step02_gravity_refstate-mantle.xmf,1539,5.60203e-07,2.57885e-06,0,1.19692e-07,-1.20405e+09,-1.20378e+09,-1.20413e+09,15996.9,-0.00105777,0.0310688,-0,0.0310868,38158.5,-43264,0,57687.5,15996.9
step02_gravity_refstate-mantle.xmf,1540,5.74032e-07,2.61006e-06,0,2.64615e-07,-1.21568e+09,-1.2154e+09,-1.21575e+09,35365.8,-0.00243625,0.0306707,-0,0.0307673,36145,-43623.3,0,56652,35365.8
step02_gravity_refstate-mantle.xmf,1541,6.56124e-07,2.63743e-06,0,4.18884e-07,-1.23779e+09,-1.23753e+09,-1.23788e+09,55983.8,-0.00426287,0.0296372,-0,0.0299422,34404.5,-44307.1,0,56096.3,55983.8
step02_gravity_refstate-mantle.xmf,1542,7.67697e-07,2.67896e-06,0,6.15343e-07,-1.26573e+09,-1.26547e+09,-1.26583e+09,82240.5,-0.00696501,0.0284528,-0,0.0292928,32543.6,-45170.9,0,55673.1,82240.5
step02_gravity_refstate-mantle.xmf,1543,1.05198e-06,2.65523e-06,0,8.25921e-07,-1.30948e+09,-1.30926e+09,-1.30962e+09,110384,-0.011206,0.0259323,-0,0.0282499,31043.6,-46524.1,0,55930.3,110384
step02_gravity_refstate-mantle.xmf,1544,1.65883e-06,2.85191e-06,0,1.39432e-06,-1.40146e+09,-1.4013e+09,-1.40168e+09,186351,-0.0263812,0.0226699,-0,0.0347835,26415.1,-49369.9,0,55992.4,186351
step02_gravity_refstate-mantle.xmf,1545,1.45167e-06,2.75708e-06,0,1.21394e-06,-1.37248e+09,-1.3723e+09,-1.37267e+09,162243,-0.0207418,0.023489,-0,0.0313362,27921.4,-48473.1,0,55939.7,162243
step02_gravity_refstate-mantle.xmf,1546,1.24042e-06,2.6975e-06,0,1.0225e-06,-1.34102e+09,-1.34082e+09,-1.34118e+09,136657,-0.0155984,0.0246465,-0,0.0291678,29457,-47499.8,0,55892.3,136657
step02_gravity_refstate-mantle.xmf,1547,2.51923e-06,2.72091e-06,0,1.57143e-06,-1.47796e+09,-1.47793e+09,-1.4783e+09,210021,-0.0392227,0.017802,-0,0.0430735,24910.7,-51738.5,0,57423.1,210021
step02_gravity_refstate-mantle.xmf,1548,4.4476e-06,2.17088e-06,0,9.59107e-07,-1.64602e+09,-1.64633e+09,-1.64662e+09,128185,-0.0629496,0.00640692,-0,0.0632748,23311.8,-56941.4,0,61528.6,128185
step02_gravity_refstate-mantle.xmf,1549,2.30142e-06,2.57455e-06,0,1.40737e-06,-1.45587e+09,-1.45583e+09,-1.45617e+09,188095,-0.0329864,0.0181288,-0,0.0376398,26377.1,-51054.2,0,57465.5,188095
step02_gravity_refstate-mantle.xmf,1550,3.16697e-06,2.43734e-06,0,1.46399e-06,-1.52958e+09,-1.52968e+09,-1.53e+09,195663,-0.0455648,0.0136767,-0,0.0475732,24912.2,-53336.7,0,58867.8,195663
step02_gravity_refstate-mantle.xmf,1551,3.70252e-06,2.19325e-06,0,1.2439e-06,-1.57925e+09,-1.57945e+09,-1.57974e+09,166247,-0.0510193,0.0101523,-0,0.0520196,24848.5,-54873.9,0,60237.8,166247
step02_gravity_refstate-mantle.xmf,1552,4.13806e-06,2.03471e-06,0,9.72479e-07,-1.6261e+09,-1.62638e+09,-1.62666e+09,129972,-0.0555131,0.00714132,-0,0.0559705,24711,-56323.7,0,61506,129972
step02_gravity_refstate-mantle.xmf,1553,4.72747e-06,2.05489e-06,0,4.76522e-07,-1.69655e+09,-1.69691e+09,-1.69719e+09,63687.1,-0.0654816,0.00309179,-0,0.0655545,23356,-58503.9,0,62993.8,63687.1
step02_gravity_refstate-mantle.xmf,1554,4.93973e-06,2.16963e-06,0,1.55058e-08,-1.74493e+09,-1.7453e+09,-1.74559e+09,2072.35,-0.0698607,-3.52529e-20,-0,0.0698607,22638.7,-60000,0,64128.8,2072.35
step02_gravity_refstate-mantle.xmf,1555,8.62691e-07,2.46403e-06,0,-3.55592e-09,-1.24412e+09,-1.24391e+09,-1.24424e+09,-475.249,2.18514e-19,0.0277981,0,0.0277981,40000,-44503.5,0,59837.8,475.249
step02_gravity_refstate-mantle.xmf,1556,9.96747e-07,2.46653e-06,0,3.59753e-07,-1.27285e+09,-1.27266e+09,-1.27299e+09,48081,-0.00437861,0.0262919,-0,0.026654,35818.8,-45391.9,0,57822.3,48081
step02_gravity_refstate-mantle.xmf,1557,1.07597e-06,2.39475e-06,0,1.92088e-07,-1.27667e+09,-1.2765e+09,-1.27682e+09,25672.6,-0.00244701,0.025543,-0,0.0256599,37764.8,-45510.3,0,59138.5,25672.6
step02_gravity_refstate-mantle.xmf,1558,1.17435e-06,2.44369e-06,0,5.21425e-07,-1.30146e+09,-1.30129e+09,-1.30162e+09,69688.4,-0.0070414,0.0246517,-0,0.0256376,34364.9,-46276.8,0,57641,69688.4
step02_gravity_refstate-mantle.xmf,1559,1.41002e-06,2.41644e-06,0,7.12876e-07,-1.33712e+09,-1.33698e+09,-1.3373e+09,95275.9,-0.0109568,0.0227043,-0,0.0252098,32748.7,-47379.6,0,57596.1,95275.9
step02_gravity_refstate-mantle.xmf,1560,1.63036e-06,2.42004e-06,0,9.08027e-07,-1.36957e+09,-1.36947e+09,-1.36979e+09,121358,-0.0156139,0.0211815,-0,0.0263144,31089.5,-48383.7,0,57511.2,121358
step02_gravity_refstate-mantle.xmf,1561,2.09073e-06,2.49857e-06,0,1.26601e-06,-1.42967e+09,-1.42961e+09,-1.42995e+09,169203,-0.0267992,0.0188593,-0,0.03277,27895.8,-50243.3,0,57468,169203
step02_gravity_refstate-mantle.xmf,1562,1.85467e-06,2.44759e-06,0,1.0939e-06,-1.40023e+09,-1.40016e+09,-1.40048e+09,146200,-0.0209134,0.019924,-0,0.0288849,29465.3,-49332.4,0,57462.1,146200
step02_gravity_refstate-mantle.xmf,1563,2.92043e-06,2.33064e-06,0,1.35513e-06,-1.50804e+09,-1.50812e+09,-1.50843e+09,181113,-0.0388841,0.0141885,-0,0.0413918,26339.4,-52669.3,0,58888.2,181113
step02_gravity_refstate-mantle.xmf,1564,4.43436e-06,1.9663e-06,0,6.91965e-07,-1.66577e+09,-1.6661e+09,-1.66636e+09,92481.1,-0.0590684,0.00476207,-0,0.0592601,24459,-57550.7,0,62532.6,92481.1
step02_gravity_refstate-mantle.xmf,1565,2.68352e-06,2.23452e-06,0,1.21379e-06,-1.48601e+09,-1.48607e+09,-1.48637e+09,162223,-0.0324841,0.0147583,-0,0.0356795,27847.2,-51986.9,0,58975.5,162223
step02_gravity_refstate-mantle.xmf,1566,3.45836e-06,2.09058e-06,0,1.18847e-06,-1.55931e+09,-1.55949e+09,-1.55977e+09,158840,-0.0437798,0.0106637,-0,0.0450598,26365.3,-54255.9,0,60322.8,158840
step02_gravity_refstate-mantle.xmf,1567,3.88413e-06,1.91142e-06,0,9.33347e-07,-1.61e+09,-1.61026e+09,-1.61052e+09,124742,-0.0481719,0.00756328,-0,0.048762,26258.3,-55824.3,0,61691.6,124742
step02_gravity_refstate-mantle.xmf,1568,4.24166e-06,1.83981e-06,0,6.5999e-07,-1.65835e+09,-1.65867e+09,-1.65892e+09,88207.7,-0.0529065,0.00487961,-0,0.053131,25794.5,-57320,0,62856.5,88207.7
step02_gravity_refstate-mantle.xmf,1569,4.50326e-06,1.85798e-06,0,3.5913e-07,-1.70181e+09,-1.70217e+09,-1.70242e+09,47997.8,-0.0574956,0.00250385,-0,0.05755,25121.4,-58664.4,0,63817,47997.8
step02_gravity_refstate-mantle.xmf,1570,4.69388e-06,1.97666e-06,0,1.09107e-08,-1.745e+09,-1.74536e+09,-1.74563e+09,1458.21,-0.0622973,-2.7148e-20,-0,0.0622973,24208.2,-60000,0,64699.6,1458.21
step02_gravity_refstate-mantle.xmf,1571,1.40238e-06,2.25109e-06,0,-1.32355e-09,-1.31606e+09,-1.31594e+09,-1.31624e+09,-176.892,2.98517e-19,0.0225529,0,0.0225529,40000,-46728.6,0,61510.7,176.892
step02_gravity_refstate-mantle.xmf,1572,1.46925e-06,2.26842e-06,0,3.76835e-07,-1.33006e+09,-1.32995e+09,-1.33026e+09,50364,-0.00573078,0.0220079,-0,0.0227418,36164.8,-47161.7,0,59431.7,50364
step02_gravity_refstate-mantle.xmf,1573,1.71677e-06,2.2148e-06,0,5.64143e-07,-1.36522e+09,-1.36515e+09,-1.36544e+09,75397.7,-0.00971847,0.0200207,-0,0.0222548,34468.2,-48249.2,0,59296.2,75397.7
step02_gravity_refstate-mantle.xmf,1574,1.96625e-06,2.18127e-06,0,7.51143e-07,-1.39929e+09,-1.39926e+09,-1.39955e+09,100390,-0.0145665,0.0182752,-0,0.0233702,32762.3,-49303.4,0,59196.2,100390
step02_gravity_refstate-mantle.xmf,1575,2.20955e-06,2.17504e-06,0,9.27717e-07,-1.43057e+09,-1.43058e+09,-1.43087e+09,123989,-0.0200732,0.0168523,-0,0.0262095,31072.3,-50271.2,0,59098.9,123989
step02_gravity_refstate-mantle.xmf,1576,2.44892e-06,2.19613e-06,0,1.08625e-06,-1.45912e+09,-1.45915e+09,-1.45944e+09,145178,-0.0260526,0.0157108,-0,0.0304231,29433.5,-51154.6,0,59018,145178
step02_gravity_refstate-mantle.xmf,1577,3.19071e-06,2.02997e-06,0,1.10917e-06,-1.53667e+09,-1.53683e+09,-1.5371e+09,148241,-0.037021,0.0114205,-0,0.0387425,27825.9,-53554.9,0,60352.4,148241
step02_gravity_refstate-mantle.xmf,1578,1.68289e-06,2.14165e-06,0,1.92911e-07,-1.35388e+09,-1.35382e+09,-1.35411e+09,25782.5,-0.00326841,0.0200843,-0,0.0203486,38066.3,-47898.6,0,61182.7,25782.5
step02_gravity_refstate-mantle.xmf,1579,2.95677e-06,1.97097e-06,0,9.94655e-07,-1.51465e+09,-1.51478e+09,-1.51505e+09,132936,-0.0306395,0.01216,-0,0.0329643,29350,-52872.9,0,60472.9,132936
step02_gravity_refstate-mantle.xmf,1580,3.63339e-06,1.81115e-06,0,8.67989e-07,-1.59233e+09,-1.59257e+09,-1.59282e+09,116007,-0.040441,0.00804617,-0,0.0412337,28007.3,-55276.5,0,61967,116007
step02_gravity_refstate-mantle.xmf,1581,4.02582e-06,1.72349e-06,0,6.15307e-07,-1.6486e+09,-1.64891e+09,-1.64914e+09,82235.8,-0.0455932,0.00508807,-0,0.0458763,27455.6,-57017.1,0,63283.1,82235.8
step02_gravity_refstate-mantle.xmf,1582,4.29124e-06,1.72771e-06,0,3.31329e-07,-1.69781e+09,-1.69815e+09,-1.69838e+09,44282.1,-0.0501938,0.00255265,-0,0.0502587,26759.1,-58538.9,0,64365,44282.1
step02_gravity_refstate-mantle.xmf,1583,4.46852e-06,1.82567e-06,0,1.20292e-08,-1.74506e+09,-1.74541e+09,-1.74566e+09,1607.7,-0.0547434,-2.89599e-20,-0,0.0547434,25857.2,-60000,0,65334.5,1607.7
step02_gravity_refstate-mantle.xmf,1584,1.95387e-06,2.01493e-06,0,-9.18521e-10,-1.38767e+09,-1.38766e+09,-1.38793e+09,-122.76,3.88556e-19,0.0178269,0,0.0178269,40000,-48943.8,0,63209.9,122.76
step02_gravity_refstate-mantle.xmf,1585,1.98547e-06,2.04554e-06,0,3.85321e-07,-1.39417e+09,-1.39416e+09,-1.39443e+09,51498.2,-0.00743159,0.0177095,-0,0.0192056,36271.5,-49144.8,0,61080.6,51498.2
step02_gravity_refstate-mantle.xmf,1586,2.24685e-06,1.98504e-06,0,5.66557e-07,-1.4292e+09,-1.42924e+09,-1.4295e+09,75720.3,-0.0123949,0.0158557,-0,0.0201256,34496.9,-50228.7,0,60934,75720.3
step02_gravity_refstate-mantle.xmf,1587,2.50457e-06,1.94931e-06,0,7.31983e-07,-1.46217e+09,-1.46225e+09,-1.46251e+09,97829.6,-0.0181073,0.014264,-0,0.0230508,32737.6,-51248.8,0,60812.7,97829.6
step02_gravity_refstate-mantle.xmf,1588,2.75311e-06,1.94234e-06,0,8.77372e-07,-1.49148e+09,-1.49159e+09,-1.49185e+09,117261,-0.0242822,0.0129876,-0,0.0275373,31027.3,-52155.8,0,60687,117261
step02_gravity_refstate-mantle.xmf,1589,3.32312e-06,1.83974e-06,0,8.96843e-07,-1.55868e+09,-1.55888e+09,-1.55913e+09,119863,-0.0344089,0.00963477,-0,0.0357324,29122.7,-54235.2,0,61559.6,119863
step02_gravity_refstate-mantle.xmf,1590,2.22854e-06,1.90504e-06,0,1.91148e-07,-1.4252e+09,-1.42525e+09,-1.4255e+09,25546.9,-0.00418035,0.0156148,-0,0.0161647,38125,-50104.9,0,62960.4,25546.9
step02_gravity_refstate-mantle.xmf,1591,3.25235e-06,1.73875e-06,0,7.52236e-07,-1.55596e+09,-1.55616e+09,-1.55639e+09,100536,-0.0286012,0.00936084,-0,0.0300941,30843.2,-54150.2,0,62318.1,100536
step02_gravity_refstate-mantle.xmf,1592,3.55485e-06,1.69967e-06,0,7.30155e-07,-1.59327e+09,-1.59352e+09,-1.59374e+09,97585.3,-0.0342536,0.007588,-0,0.035084,29747.3,-55304.7,0,62797.4,97585.3
step02_gravity_refstate-mantle.xmf,1593,3.83717e-06,1.63204e-06,0,5.45253e-07,-1.64102e+09,-1.64131e+09,-1.64153e+09,72873.1,-0.0382623,0.00520517,-0,0.0386147,29241,-56781.3,0,63868.2,72873.1
step02_gravity_refstate-mantle.xmf,1594,4.09971e-06,1.6293e-06,0,2.92148e-07,-1.69488e+09,-1.69521e+09,-1.69543e+09,39045.6,-0.042904,0.00256416,-0,0.0429805,28481,-58447,0,65017,39045.6
step02_gravity_refstate-mantle.xmf,1595,4.25839e-06,1.7133e-06,0,1.0767e-08,-1.74512e+09,-1.74546e+09,-1.74569e+09,1439.01,-0.0471827,-2.99931e-20,-0,0.0471827,27590,-60000,0,66039.4,1439.01
step02_gravity_refstate-mantle.xmf,1596,2.47511e-06,1.78883e-06,0,-5.37276e-11,-1.45916e+09,-1.45925e+09,-1.45949e+09,-7.18069,4.76082e-19,0.0136204,0,0.0136204,40000,-51155,0,64937.2,7.18069
step02_gravity_refstate-mantle.xmf,1597,2.495e-06,1.82367e-06,0,3.6753e-07,-1.46122e+09,-1.46131e+09,-1.46156e+09,49120.4,-0.00919388,0.0136922,-0,0.0164925,36301.8,-51219,0,62779,49120.4
step02_gravity_refstate-mantle.xmf,1598,2.752e-06,1.76762e-06,0,5.22489e-07,-1.49571e+09,-1.49584e+09,-1.49608e+09,69830.7,-0.015009,0.0119966,-0,0.0192143,34487.8,-52286,0,62635.7,69830.7
step02_gravity_refstate-mantle.xmf,1599,2.99098e-06,1.74502e-06,0,6.53829e-07,-1.52518e+09,-1.52535e+09,-1.52558e+09,87384.3,-0.02141,0.0106757,-0,0.023924,32670.5,-53197.9,0,62429,87384.3
step02_gravity_refstate-mantle.xmf,1600,2.71406e-06,1.69704e-06,0,1.74743e-07,-1.49501e+09,-1.49515e+09,-1.49538e+09,23354.4,-0.00505527,0.0117251,-0,0.0127684,38134.6,-52264,0,64697.6,23354.4
step02_gravity_refstate-mantle.xmf,1601,3.63105e-06,1.57035e-06,0,4.86723e-07,-1.62597e+09,-1.62624e+09,-1.62645e+09,65050.5,-0.0303713,0.0057226,-0,0.0309057,31209.6,-56314.9,0,64384.8,65050.5
step02_gravity_refstate-mantle.xmf,1602,3.92467e-06,1.55488e-06,0,2.48204e-07,-1.69173e+09,-1.69204e+09,-1.69225e+09,33172.5,-0.0353558,0.00260934,-0,0.035452,30347.8,-58348.2,0,65768.6,33172.5
step02_gravity_refstate-mantle.xmf,1603,4.06957e-06,1.63125e-06,0,1.06012e-08,-1.74516e+09,-1.74549e+09,-1.74571e+09,1416.86,-0.0396012,-3.10183e-20,-0,0.0396012,29410.7,-60000,0,66820.6,1416.86
step02_gravity_refstate-mantle.xmf,1604,2.92828e-06,1.60127e-06,0,5.97116e-10,-1.53065e+09,-1.53083e+09,-1.53104e+09,79.8046,5.42902e-19,0.00987304,0,0.00987304,40000,-53365.9,0,66692.8,79.8046
step02_gravity_refstate-mantle.xmf,1605,2.94205e-06,1.63544e-06,0,3.16512e-07,-1.52854e+09,-1.52871e+09,-1.52893e+09,42301.9,-0.0107617,0.0100898,-0,0.0147519,36314.3,-53301,0,64495.9,42301.9
step02_gravity_refstate-mantle.xmf,1606,3.34015e-06,1.60782e-06,0,5.33173e-07,-1.58159e+09,-1.58182e+09,-1.58204e+09,71258.5,-0.0242408,0.00776909,-0,0.0254553,32514.3,-54942.3,0,63842.3,71258.5
step02_gravity_refstate-mantle.xmf,1607,3.22685e-06,1.57927e-06,0,4.17468e-07,-1.56873e+09,-1.56895e+09,-1.56916e+09,55794.6,-0.0174,0.0082175,-0,0.0192428,34478.9,-54544.1,0,64527.9,55794.6
step02_gravity_refstate-mantle.xmf,1608,3.1091e-06,1.54029e-06,0,1.42049e-07,-1.56349e+09,-1.5637e+09,-1.56391e+09,18984.9,-0.00570386,0.0082957,-0,0.0100674,38161.3,-54381.6,0,66435.3,18984.9
step02_gravity_refstate-mantle.xmf,1609,3.53513e-06,1.50654e-06,0,3.39022e-07,-1.63108e+09,-1.63135e+09,-1.63155e+09,45310.2,-0.022653,0.00530949,-0,0.0232669,33404,-56472,0,65611.8,45310.2
step02_gravity_refstate-mantle.xmf,1610,3.76904e-06,1.50484e-06,0,2.03659e-07,-1.68815e+09,-1.68846e+09,-1.68866e+09,27219,-0.0277075,0.00269896,-0,0.0278386,32320.8,-58236.6,0,66604.4,27219
step02_gravity_refstate-mantle.xmf,1611,3.9047e-06,1.57477e-06,0,1.03187e-08,-1.7452e+09,-1.74552e+09,-1.74573e+09,1379.1,-0.0319732,-3.24316e-20,-0,0.0319732,31323.8,-60000,0,67684.4,1379.1
step02_gravity_refstate-mantle.xmf,1612,3.27903e-06,1.47824e-06,0,1.17245e-09,-1.60216e+09,-1.6024e+09,-1.6026e+09,156.697,6.94649e-19,0.00647166,0,0.00647166,40000,-55576.9,0,68474.7,156.697
step02_gravity_refstate-mantle.xmf,1613,3.25837e-06,1.51576e-06,0,2.42705e-07,-1.58575e+09,-1.58598e+09,-1.58619e+09,32437.6,-0.0113423,0.00728734,-0,0.0134816,36474.6,-55070,0,66053.8,32437.6
step02_gravity_refstate-mantle.xmf,1614,3.43013e-06,1.45227e-06,0,1.08255e-07,-1.63461e+09,-1.63488e+09,-1.63507e+09,14468.2,-0.00724027,0.00500956,-0,0.00880438,37870,-56580.4,0,68084.3,14468.2
step02_gravity_refstate-mantle.xmf,1615,3.48498e-06,1.47299e-06,0,2.26614e-07,-1.63339e+09,-1.63366e+09,-1.63385e+09,30287,-0.0151953,0.00511263,-0,0.0160323,35548.5,-56542.9,0,66789.2,30287
step02_gravity_refstate-mantle.xmf,1616,3.65336e-06,1.47232e-06,0,1.40576e-07,-1.68887e+09,-1.68916e+09,-1.68936e+09,18787.9,-0.019876,0.00261244,-0,0.0200469,34432.9,-58257.9,0,67672.8,18787.9
step02_gravity_refstate-mantle.xmf,1617,3.76675e-06,1.53884e-06,0,9.35872e-09,-1.74524e+09,-1.74553e+09,-1.74574e+09,1250.79,-0.0242606,-3.15858e-20,-0,0.0242606,33334.3,-60000,0,68638,1250.79
step02_gravity_refstate-mantle.xmf,1618,3.50079e-06,1.44156e-06,0,2.02758e-11,-1.67369e+09,-1.67396e+09,-1.67415e+09,2.70986,5.56572e-19,0.00324907,0,0.00324907,40000,-57787.8,0,70281.1,2.70986
step02_gravity_refstate-mantle.xmf,1619,3.54495e-06,1.44917e-06,0,4.32097e-08,-1.69379e+09,-1.69407e+09,-1.69427e+09,5774.98,-0.00575301,0.00234927,-0,0.00621419,38373.9,-58409.2,0,69887,5774.98
step02_gravity_refstate-mantle.xmf,1620,3.60205e-06,1.45465e-06,0,8.93994e-08,-1.69011e+09,-1.6904e+09,-1.6906e+09,11948.2,-0.0122572,0.00252754,-0,0.0125151,36543.1,-58296,0,68802.8,11948.2
step02_gravity_refstate-mantle.xmf,1621,3.57055e-06,1.50425e-06,0,-1.16827e-08,-1.74528e+09,-1.74556e+09,-1.74576e+09,-1561.4,-2.56845e-18,-2.29095e-19,-0,2.57865e-18,40000,-60000,0,72111,1561.4
step02_gravity_refstate-mantle.xmf,1622,3.66173e-06,1.5175e-06,0,8.42833e-09,-1.74526e+09,-1.74555e+09,-1.74575e+09,1126.45,-0.0164127,-3.08926e-20,-0,0.0164127,35446.9,-60000,0,69688.5,1126.45
step02_gravity_refstate-mantle.xmf,1623,3.59493e-06,1.50611e-06,0,-8.96613e-09,-1.74528e+09,-1.74556e+09,-1.74576e+09,-1198.32,-0.00835755,-2.46212e-19,-0,0.00835755,37667,-60000,0,70843.5,1198.32
step02_gravity_refstate-intrusion.xmf,0,1.58448e-05,-4.50324e-05,0,5.65264e-05,-1.42233e+09,-1.42653e+09,-1.42342e+09,3.89881e+06,-0.0350537,0.448482,-0,0.44985,-2000,-50000,-0,50040,3.89881e+06
step02_gravity_refstate-intrusion.xmf,1,-3.9196e-06,-2.55256e-05,0,7.40561e-05,-1.4399e+09,-1.44139e+09,-1.43963e+09,5.10788e+06,-0.0371084,0.461066,-0,0.462557,-2000,-50500.3,-0,50539.9,5.10788e+06
step02_gravity_refstate-intrusion.xmf,2,-4.16434e-06,-1.83349e-05,0,8.43334e-05,-1.45587e+09,-1.45684e+09,-1.45558e+09,5.81674e+06,-0.0320315,0.472102,-0,0.473188,-2000,-51000.2,-0,51039.4,5.81674e+06
step02_gravity_refstate-intrusion.xmf,3,-4.49128e-06,-1.08368e-05,0,9.21634e-05,-1.47185e+09,-1.47229e+09,-1.47154e+09,6.3568e+06,-0.0236956,0.47961,-0,0.480195,-2000,-51500.6,-0,51539.4,6.3568e+06
step02_gravity_refstate-intrusion.xmf,4,-5.17361e-06,-2.788e-06,0,9.8423e-05,-1.48784e+09,-1.48768e+09,-1.48748e+09,6.78854e+06,-0.0136007,0.483109,-0,0.483301,-2000,-52000.7,-0,52039.1,6.78854e+06
step02_gravity_refstate-intrusion.xmf,5,1.56239e-05,-8.21106e-05,0,4.99076e-05,-1.42359e+09,-1.43033e+09,-1.42467e+09,3.44228e+06,-0.0269788,0.48703,-0,0.487777,-1499.83,-50000,-0,50022.5,3.44228e+06
step02_gravity_refstate-intrusion.xmf,6,-6.77216e-06,6.00032e-06,0,0.000102818,-1.50388e+09,-1.503e+09,-1.50341e+09,7.09167e+06,-0.00252085,0.482322,-0,0.482329,-2000,-52500.1,-0,52538.2,7.09167e+06
step02_gravity_refstate-intrusion.xmf,7,-9.06382e-06,1.49973e-05,0,0.000105446,-1.51997e+09,-1.51831e+09,-1.51935e+09,7.27293e+06,0.00911603,0.477074,0,0.477161,-2000,-52999.3,-0,53037,7.27293e+06
step02_gravity_refstate-intrusion.xmf,8,1.76322e-05,-0.000100219,0,3.35978e-05,-1.42399e+09,-1.43211e+09,-1.4252e+09,2.31734e+06,-0.0186461,0.515838,-0,0.516174,-1000,-50000,-0,50010,2.31734e+06
step02_gravity_refstate-intrusion.xmf,9,-1.14e-05,2.4376e-05,0,0.000106688,-1.53607e+09,-1.53361e+09,-1.53529e+09,7.35862e+06,0.0210908,0.467227,0,0.467703,-2000,-53498.9,-0,53536.3,7.35862e+06
step02_gravity_refstate-intrusion.xmf,10,-1.42434e-05,3.38437e-05,0,0.000106007,-1.55225e+09,-1.54893e+09,-1.55126e+09,7.31164e+06,0.0332597,0.452677,0,0.453897,-2000,-53999.2,-0,54036.2,7.31164e+06
step02_gravity_refstate-intrusion.xmf,11,-1.69188e-05,4.32944e-05,0,0.000103911,-1.5684e+09,-1.56425e+09,-1.56723e+09,7.16706e+06,0.0454989,0.433373,0,0.435755,-2000,-54499.5,-0,54536.2,7.16706e+06
step02_gravity_refstate-intrusion.xmf,12,-1.9324e-05,5.32881e-05,0,0.000100147,-1.58449e+09,-1.57948e+09,-1.58316e+09,6.90746e+06,0.0576864,0.409302,0,0.413347,-2000,-54999.2,-0,55035.5,6.90746e+06
step02_gravity_refstate-intrusion.xmf,13,-2.13543e-05,6.31055e-05,0,9.46459e-05,-1.60053e+09,-1.5947e+09,-1.59906e+09,6.52803e+06,0.0696209,0.380415,0,0.386734,-2000,-55498.3,-0,55534.3,6.52803e+06
step02_gravity_refstate-intrusion.xmf,14,-2.2696e-05,7.26677e-05,0,8.71892e-05,-1.61652e+09,-1.60994e+09,-1.61495e+09,6.01371e+06,0.0810232,0.346768,0,0.356108,-2000,-55997.8,-0,56033.5,6.01371e+06
step02_gravity_refstate-intrusion.xmf,15,-2.30566e-05,8.17939e-05,0,7.77936e-05,-1.63244e+09,-1.62521e+09,-1.63085e+09,5.36567e+06,0.0913789,0.308274,0,0.321532,-2000,-56497.8,-0,56533.2,5.36567e+06
step02_gravity_refstate-intrusion.xmf,16,1.87342e-05,-0.000109508,0,1.6907e-05,-1.42418e+09,-1.43303e+09,-1.42547e+09,1.16613e+06,-0.00950601,0.53327,-0,0.533355,-500.172,-50000,-0,50002.5,1.16613e+06
step02_gravity_refstate-intrusion.xmf,17,-2.30346e-05,9.10982e-05,0,6.55012e-05,-1.64833e+09,-1.64045e+09,-1.64674e+09,4.51782e+06,0.0996894,0.265081,0,0.283207,-2000,-56998.3,-0,57033.3,4.51782e+06
step02_gravity_refstate-intrusion.xmf,18,-2.36713e-05,9.99862e-05,0,4.87402e-05,-1.66428e+09,-1.65575e+09,-1.66265e+09,3.36176e+06,0.104038,0.217414,0,0.241024,-2000,-57498.2,-0,57532.9,3.36176e+06
step02_gravity_refstate-intrusion.xmf,19,1.93061e-05,-0.000112562,0,-5.43997e-07,-1.42423e+09,-1.43332e+09,-1.42556e+09,-37521.2,-8.06594e-06,0.539102,-0,0.539102,0,-50000,0,50000,37521.2
step02_gravity_refstate-intrusion.xmf,20,-4.01977e-05,0.00012949,0,2.45682e-05,-1.68123e+09,-1.66953e+09,-1.67846e+09,1.69455e+06,0.098609,0.165772,0,0.192884,-2000,-58000,-0,58034.5,1.69455e+06
step02_gravity_refstate-intrusion.xmf,21,1.88664e-05,-0.00010969,0,-1.76811e-05,-1.42417e+09,-1.43304e+09,-1.42548e+09,-1.21952e+06,0.00952203,0.53327,0,0.533355,500.172,-50000,0,50002.5,1.21952e+06
step02_gravity_refstate-intrusion.xmf,22,-4.66404e-05,0.000171825,0,3.29799e-05,-1.68048e+09,-1.66541e+09,-1.67726e+09,2.27473e+06,0.07685,0.177767,0,0.193667,-1499.28,-58000,-0,58019.4,2.27473e+06
step02_gravity_refstate-intrusion.xmf,23,1.77953e-05,-0.000100539,0,-3.5082e-05,-1.42398e+09,-1.43214e+09,-1.42521e+09,-2.41971e+06,0.018629,0.515836,0,0.516172,1000,-50000,0,50010,2.41971e+06
step02_gravity_refstate-intrusion.xmf,24,-5.04484e-05,0.000191446,0,2.34776e-05,-1.68022e+09,-1.66353e+09,-1.67674e+09,1.61933e+06,0.0525421,0.192188,0,0.199241,-999.317,-58000,-0,58008.6,1.61933e+06
step02_gravity_refstate-intrusion.xmf,25,1.64191e-05,-8.3685e-05,0,-5.18874e-05,-1.42356e+09,-1.43046e+09,-1.42469e+09,-3.57883e+06,0.0269897,0.487025,0,0.487772,1499.83,-50000,0,50022.5,3.57883e+06
step02_gravity_refstate-intrusion.xmf,26,-5.29732e-05,0.000201938,0,1.18373e-05,-1.68012e+09,-1.66254e+09,-1.67647e+09,816453,0.0266889,0.201579,0,0.203338,-499.831,-58000,-0,58002.2,816453
step02_gravity_refstate-intrusion.xmf,27,1.45348e-06,-2.54898e-05,0,-5.88565e-05,-1.42315e+09,-1.42501e+09,-1.42325e+09,-4.05952e+06,0.0350522,0.448484,0,0.449852,2000,-50000,0,50040,4.05952e+06
step02_gravity_refstate-intrusion.xmf,28,-5.38304e-05,0.000205349,0,-4.12414e-07,-1.6801e+09,-1.66222e+09,-1.67639e+09,-28445.5,-3.90798e-07,0.204798,-0,0.204798,-2.07592e-10,-58000,-0,58000,28445.5
step02_gravity_refstate-intrusion.xmf,29,-3.43058e-06,-2.52636e-05,0,-7.42089e-05,-1.43984e+09,-1.44134e+09,-1.4396e+09,-5.11842e+06,0.0371048,0.461058,0,0.462549,2000,-50500.3,0,50539.9,5.11842e+06
step02_gravity_refstate-intrusion.xmf,30,-3.92945e-06,-1.87999e-05,0,-8.43883e-05,-1.45586e+09,-1.45688e+09,-1.45559e+09,-5.82053e+06,0.0320374,0.472097,0,0.473183,2000,-51000.2,0,51039.4,5.82053e+06
step02_gravity_refstate-intrusion.xmf,31,-5.30605e-05,0.000202183,0,-1.27509e-05,-1.68013e+09,-1.66252e+09,-1.67647e+09,-879467,-0.0266881,0.201579,-0,0.203338,499.831,-58000,0,58002.2,879467
step02_gravity_refstate-intrusion.xmf,32,-4.25645e-06,-1.11354e-05,0,-9.23271e-05,-1.47184e+09,-1.47231e+09,-1.47154e+09,-6.36809e+06,0.0237004,0.479609,0,0.480194,2000,-51500.6,0,51539.4,6.36809e+06
step02_gravity_refstate-intrusion.xmf,33,-5.57829e-06,-2.86248e-06,0,-9.84843e-05,-1.48788e+09,-1.4877e+09,-1.4875e+09,-6.79277e+06,0.0136004,0.483109,0,0.4833,2000,-52000.7,0,52039.1,6.79277e+06
step02_gravity_refstate-intrusion.xmf,34,-6.80766e-06,5.99055e-06,0,-0.000102778,-1.50388e+09,-1.503e+09,-1.50341e+09,-7.08892e+06,0.00251838,0.482322,0,0.482328,2000,-52500.1,0,52538.2,7.08892e+06
step02_gravity_refstate-intrusion.xmf,35,-8.92099e-06,1.50628e-05,0,-0.000105523,-1.51996e+09,-1.5183e+09,-1.51934e+09,-7.27828e+06,-0.00912014,0.477072,-0,0.477159,2000,-52999.3,0,53037,7.27828e+06
step02_gravity_refstate-intrusion.xmf,36,-1.13978e-05,2.43589e-05,0,-0.000106651,-1.53608e+09,-1.53361e+09,-1.53529e+09,-7.35608e+06,-0.0210945,0.467226,-0,0.467702,2000,-53498.9,0,53536.3,7.35608e+06
step02_gravity_refstate-intrusion.xmf,37,-1.40453e-05,3.38002e-05,0,-0.000106169,-1.55223e+09,-1.54893e+09,-1.55126e+09,-7.32282e+06,-0.0332624,0.452676,-0,0.453896,2000,-53999.2,0,54036.2,7.32282e+06
step02_gravity_refstate-intrusion.xmf,38,-1.6663e-05,4.33647e-05,0,-0.000104054,-1.56837e+09,-1.56423e+09,-1.56722e+09,-7.17695e+06,-0.0455024,0.433371,-0,0.435753,2000,-54499.5,0,54536.2,7.17695e+06
step02_gravity_refstate-intrusion.xmf,39,-5.07683e-05,0.000192468,0,-2.4833e-05,-1.68021e+09,-1.66344e+09,-1.67671e+09,-1.71281e+06,-0.0525455,0.192182,-0,0.199236,999.317,-58000,0,58008.6,1.71281e+06
step02_gravity_refstate-intrusion.xmf,40,-1.90551e-05,5.29622e-05,0,-0.000100256,-1.58447e+09,-1.57951e+09,-1.58316e+09,-6.91499e+06,-0.0576836,0.409299,-0,0.413344,2000,-54999.2,0,55035.5,6.91499e+06
step02_gravity_refstate-intrusion.xmf,41,-2.09803e-05,6.24951e-05,0,-9.4768e-05,-1.60051e+09,-1.59475e+09,-1.59906e+09,-6.53644e+06,-0.0696146,0.380416,-0,0.386733,2000,-55498.3,0,55534.3,6.53644e+06
step02_gravity_refstate-intrusion.xmf,42,-4.50656e-05,0.000175163,0,-3.65914e-05,-1.68021e+09,-1.66502e+09,-1.6771e+09,-2.52382e+06,-0.0769351,0.177672,-0,0.193614,1499.28,-58000,0,58019.4,2.52382e+06
step02_gravity_refstate-intrusion.xmf,43,-2.24136e-05,7.23116e-05,0,-8.73854e-05,-1.6165e+09,-1.60997e+09,-1.61495e+09,-6.02724e+06,-0.0810186,0.346771,-0,0.356109,2000,-55997.8,0,56033.5,6.02724e+06
step02_gravity_refstate-intrusion.xmf,44,-2.312e-05,8.17801e-05,0,-7.77249e-05,-1.63244e+09,-1.62521e+09,-1.63085e+09,-5.36093e+06,-0.0913794,0.308282,-0,0.32154,2000,-56497.8,0,56533.2,5.36093e+06
step02_gravity_refstate-intrusion.xmf,45,-2.37375e-05,9.08697e-05,0,-6.59994e-05,-1.64841e+09,-1.6405e+09,-1.64677e+09,-4.55218e+06,-0.0996879,0.265082,-0,0.283207,2000,-56998.3,0,57033.3,4.55218e+06
step02_gravity_refstate-intrusion.xmf,46,-2.37851e-05,0.00010001,0,-4.87539e-05,-1.66429e+09,-1.65575e+09,-1.66265e+09,-3.36271e+06,-0.104037,0.217436,-0,0.241044,2000,-57498.2,0,57532.9,3.36271e+06
step02_gravity_refstate-intrusion.xmf,47,-4.1489e-05,0.000129318,0,-2.57978e-05,-1.68137e+09,-1.66959e+09,-1.67851e+09,-1.77936e+06,-0.0986047,0.165671,-0,0.192794,2000,-58000,0,58034.5,1.77936e+06
step02_gravity_refstate-intrusion.xmf,48,1.28519e-05,-5.97952e-05,0,5.17477e-05,-1.43503e+09,-1.44004e+09,-1.43591e+09,3.5692e+06,-0.0354738,0.501994,-0,0.503246,-1628.39,-50367.6,-0,50393.9,3.5692e+06
step02_gravity_refstate-intrusion.xmf,49,6.13059e-06,-4.06545e-05,0,5.96079e-05,-1.44755e+09,-1.45078e+09,-1.44797e+09,4.11135e+06,-0.0347642,0.513687,-0,0.514862,-1689.07,-50752.8,-0,50780.9,4.11135e+06
step02_gravity_refstate-intrusion.xmf,50,5.90087e-06,-3.34595e-05,0,6.21343e-05,-1.46091e+09,-1.46363e+09,-1.46132e+09,4.2856e+06,-0.02911,0.541985,-0,0.542767,-1594.12,-51172.3,-0,51197.1,4.2856e+06
step02_gravity_refstate-intrusion.xmf,51,3.01569e-06,-2.08912e-05,0,6.87924e-05,-1.47767e+09,-1.47932e+09,-1.47788e+09,4.74483e+06,-0.0203524,0.557886,-0,0.558257,-1581.82,-51693.9,-0,51718.1,4.74483e+06
step02_gravity_refstate-intrusion.xmf,52,-5.61423e-07,-7.23583e-06,0,7.50931e-05,-1.49472e+09,-1.49518e+09,-1.49468e+09,5.1794e+06,-0.0101674,0.563891,-0,0.563983,-1589.9,-52223.1,-0,52247.3,5.1794e+06
step02_gravity_refstate-intrusion.xmf,53,1.95019e-05,-7.99569e-05,0,3.95058e-05,-1.43336e+09,-1.44022e+09,-1.43471e+09,2.72483e+06,-0.0287034,0.53055,-0,0.531326,-1242.74,-50316.5,-0,50331.8,2.72483e+06
step02_gravity_refstate-intrusion.xmf,54,1.86977e-05,-6.64061e-05,0,3.99343e-05,-1.44618e+09,-1.45205e+09,-1.44747e+09,2.75439e+06,-0.0292169,0.561477,-0,0.562237,-1222.83,-50723.8,-0,50738.5,2.75439e+06
step02_gravity_refstate-intrusion.xmf,55,1.40032e-05,-4.55635e-05,0,4.24673e-05,-1.4656e+09,-1.46971e+09,-1.46657e+09,2.9291e+06,-0.0224338,0.60174,-0,0.602158,-1141.96,-51330.3,-0,51343,2.9291e+06
step02_gravity_refstate-intrusion.xmf,56,7.34618e-06,-2.47779e-05,0,4.92625e-05,-1.48499e+09,-1.4872e+09,-1.48549e+09,3.39779e+06,-0.014122,0.619963,-0,0.620124,-1162.69,-51929.5,-0,51942.5,3.39779e+06
step02_gravity_refstate-intrusion.xmf,57,-4.40197e-06,4.88739e-06,0,7.92574e-05,-1.51076e+09,-1.51012e+09,-1.51046e+09,5.46663e+06,1.95073e-05,0.562831,0,0.562831,-1599.31,-52719.1,-0,52743.3,5.46663e+06
step02_gravity_refstate-intrusion.xmf,58,1.2611e-06,-6.83146e-06,0,5.45236e-05,-1.5029e+09,-1.50346e+09,-1.50299e+09,3.76067e+06,-0.00525702,0.626502,-0,0.626524,-1179.15,-52482.1,-0,52495.3,3.76067e+06
step02_gravity_refstate-intrusion.xmf,59,-9.35405e-06,1.85113e-05,0,8.18687e-05,-1.52927e+09,-1.52735e+09,-1.52862e+09,5.64674e+06,0.0121627,0.554047,0,0.55418,-1610.8,-53289.1,-0,53313.5,5.64674e+06
step02_gravity_refstate-intrusion.xmf,60,2.4475e-05,-9.06483e-05,0,2.38766e-05,-1.43776e+09,-1.4457e+09,-1.43945e+09,1.64684e+06,-0.018895,0.570397,-0,0.57071,-751.739,-50456.9,-0,50462.5,1.64684e+06
step02_gravity_refstate-intrusion.xmf,61,2.23569e-05,-6.73576e-05,0,2.4414e-05,-1.45606e+09,-1.46225e+09,-1.4576e+09,1.68391e+06,-0.0176567,0.616467,-0,0.61672,-732.631,-51039.5,-0,51044.7,1.68391e+06
step02_gravity_refstate-intrusion.xmf,62,1.56595e-05,-4.33969e-05,0,2.80873e-05,-1.47521e+09,-1.47928e+09,-1.47629e+09,1.93727e+06,-0.0130715,0.648099,-0,0.648231,-739.851,-51634.5,-0,51639.8,1.93727e+06
step02_gravity_refstate-intrusion.xmf,63,7.96271e-06,-2.18393e-05,0,3.1568e-05,-1.494e+09,-1.49605e+09,-1.49455e+09,2.17734e+06,-0.00709116,0.666095,-0,0.666133,-743.483,-52212.8,-0,52218.1,2.17734e+06
step02_gravity_refstate-intrusion.xmf,64,-5.0223e-06,9.23024e-06,0,5.84457e-05,-1.52057e+09,-1.51959e+09,-1.52023e+09,4.03118e+06,0.00401967,0.622215,0,0.622228,-1207.05,-53024.7,-0,53038.4,4.03118e+06
step02_gravity_refstate-intrusion.xmf,65,-1.32418e-05,2.97877e-05,0,8.10927e-05,-1.5446e+09,-1.54163e+09,-1.54368e+09,5.59322e+06,0.0220703,0.546308,0,0.546753,-1590.79,-53761.9,-0,53785.5,5.59322e+06
step02_gravity_refstate-intrusion.xmf,66,-1.87353e-05,4.36375e-05,0,7.43832e-05,-1.56276e+09,-1.55846e+09,-1.56147e+09,5.13044e+06,0.0324675,0.541167,0,0.54214,-1503.61,-54320,-0,54340.8,5.13044e+06
step02_gravity_refstate-intrusion.xmf,67,-2.16161e-05,5.3486e-05,0,8.08424e-05,-1.57707e+09,-1.57189e+09,-1.57558e+09,5.57595e+06,0.0450845,0.492501,0,0.49456,-1655.32,-54763,-0,54788,5.57595e+06
step02_gravity_refstate-intrusion.xmf,68,-2.60965e-05,6.6353e-05,0,7.27161e-05,-1.59097e+09,-1.58459e+09,-1.58917e+09,5.01545e+06,0.0525362,0.480985,0,0.483846,-1575.66,-55191.3,-0,55213.8,5.01545e+06
step02_gravity_refstate-intrusion.xmf,69,-3.00386e-05,7.98636e-05,0,6.74163e-05,-1.60769e+09,-1.60011e+09,-1.60562e+09,4.64992e+06,0.0638468,0.441487,0,0.44608,-1587.79,-55709.4,-0,55732.1,4.64992e+06
step02_gravity_refstate-intrusion.xmf,70,-3.35619e-05,9.41966e-05,0,5.985e-05,-1.62445e+09,-1.61564e+09,-1.62213e+09,4.12804e+06,0.0745983,0.395395,0,0.40237,-1595.53,-56230.6,-0,56253.3,4.12804e+06
step02_gravity_refstate-intrusion.xmf,71,7.96396e-08,-1.5168e-06,0,3.54119e-05,-1.51237e+09,-1.51249e+09,-1.51238e+09,2.44247e+06,-0.000793897,0.670329,-0,0.670329,-770.264,-52776.5,-0,52782.1,2.44247e+06
step02_gravity_refstate-intrusion.xmf,72,-1.11235e-05,2.38369e-05,0,5.92931e-05,-1.53744e+09,-1.53503e+09,-1.53667e+09,4.08963e+06,0.0130022,0.61352,0,0.613658,-1207.89,-53541.3,-0,53554.9,4.08963e+06
step02_gravity_refstate-intrusion.xmf,73,-3.68549e-05,0.000107817,0,4.99793e-05,-1.64025e+09,-1.63027e+09,-1.6377e+09,3.44723e+06,0.0832202,0.34601,0,0.355877,-1594.66,-56722.2,-0,56744.6,3.44723e+06
step02_gravity_refstate-intrusion.xmf,74,2.46904e-05,-9.9628e-05,0,8.40521e-06,-1.43442e+09,-1.44299e+09,-1.43612e+09,579734,-0.00623571,0.574057,-0,0.574091,-252.011,-50345.2,-0,50345.8,579734
step02_gravity_refstate-intrusion.xmf,75,2.67602e-05,-8.41125e-05,0,8.17912e-06,-1.44804e+09,-1.45569e+09,-1.44989e+09,564140,-0.00667096,0.614468,-0,0.614504,-253.613,-50788.6,-0,50789.2,564140
step02_gravity_refstate-intrusion.xmf,76,2.24093e-05,-6.09549e-05,0,9.4768e-06,-1.46566e+09,-1.47141e+09,-1.46721e+09,653644,-0.00606463,0.653431,-0,0.653459,-272.56,-51342.8,-0,51343.6,653644
step02_gravity_refstate-intrusion.xmf,77,1.46171e-05,-3.70158e-05,0,1.1305e-05,-1.48447e+09,-1.48803e+09,-1.48547e+09,779740,-0.00421294,0.680658,-0,0.680672,-288.248,-51923.8,-0,51924.6,779740
step02_gravity_refstate-intrusion.xmf,78,5.70984e-06,-1.44183e-05,0,1.31939e-05,-1.50345e+09,-1.50484e+09,-1.50385e+09,910021,-0.00176227,0.694497,-0,0.694499,-305.363,-52505.4,-0,52506.3,910021
step02_gravity_refstate-intrusion.xmf,79,-7.55928e-06,1.62738e-05,0,3.71159e-05,-1.53012e+09,-1.52848e+09,-1.5296e+09,2.56e+06,0.00566016,0.665393,0,0.665417,-781.321,-53318.9,-0,53324.6,2.56e+06
step02_gravity_refstate-intrusion.xmf,80,-1.62156e-05,3.63554e-05,0,5.96604e-05,-1.55196e+09,-1.54834e+09,-1.55085e+09,4.11497e+06,0.0209748,0.598518,0,0.598886,-1218.74,-53986.9,-0,54000.6,4.11497e+06
step02_gravity_refstate-intrusion.xmf,81,-2.59636e-05,6.08689e-05,0,5.65846e-05,-1.57927e+09,-1.57328e+09,-1.57748e+09,3.90282e+06,0.0360714,0.556946,0,0.558112,-1223.92,-54824.8,-0,54838.5,3.90282e+06
step02_gravity_refstate-intrusion.xmf,82,-3.31557e-05,7.96573e-05,0,4.93431e-05,-1.59725e+09,-1.58947e+09,-1.59496e+09,3.40335e+06,0.0438738,0.526202,0,0.528028,-1160.37,-55376.7,-0,55388.9,3.40335e+06
step02_gravity_refstate-intrusion.xmf,83,-3.9356e-05,9.85168e-05,0,4.45973e-05,-1.61581e+09,-1.6063e+09,-1.6131e+09,3.07601e+06,0.0546324,0.472322,0,0.475471,-1189.24,-55949.9,-0,55962.5,3.07601e+06
step02_gravity_refstate-intrusion.xmf,84,-4.48944e-05,0.000117577,0,3.82455e-05,-1.63284e+09,-1.62163e+09,-1.62974e+09,2.63791e+06,0.0634319,0.414527,0,0.419352,-1201.9,-56478.1,-0,56490.9,2.63791e+06
step02_gravity_refstate-intrusion.xmf,85,-4.37359e-05,0.000131501,0,3.71179e-05,-1.65677e+09,-1.64469e+09,-1.65376e+09,2.56014e+06,0.0869586,0.290663,0,0.303392,-1538.73,-57235.3,-0,57256,2.56014e+06
step02_gravity_refstate-intrusion.xmf,86,-3.22711e-06,6.83932e-06,0,1.51178e-05,-1.52206e+09,-1.52137e+09,-1.52184e+09,1.04272e+06,0.0010394,0.695676,0,0.695677,-327.478,-53073.8,-0,53074.8,1.04272e+06
step02_gravity_refstate-intrusion.xmf,87,-1.5254e-05,3.34738e-05,0,3.83456e-05,-1.54763e+09,-1.54427e+09,-1.54658e+09,2.64482e+06,0.0124342,0.64996,0,0.650079,-805.723,-53853,-0,53859,2.64482e+06
step02_gravity_refstate-intrusion.xmf,88,-2.30324e-05,5.20131e-05,0,4.25228e-05,-1.56655e+09,-1.56137e+09,-1.56496e+09,2.93293e+06,0.0221271,0.615032,0,0.61543,-913.956,-54432,-0,54439.7,2.93293e+06
step02_gravity_refstate-intrusion.xmf,89,-4.80132e-05,0.000131892,0,3.37858e-05,-1.64596e+09,-1.63355e+09,-1.64265e+09,2.33031e+06,0.0701275,0.360755,0,0.367508,-1235.71,-56888.2,-0,56901.6,2.33031e+06
step02_gravity_refstate-intrusion.xmf,90,-4.38591e-05,0.000143066,0,3.31052e-05,-1.66937e+09,-1.65648e+09,-1.66635e+09,2.28337e+06,0.0910103,0.229061,0,0.246479,-1636.38,-57636.1,-0,57659.3,2.28337e+06
step02_gravity_refstate-intrusion.xmf,91,2.62879e-05,-9.63743e-05,0,-8.0999e-06,-1.43853e+09,-1.44699e+09,-1.44034e+09,-558675,0.00633829,0.587286,0,0.587321,245.479,-50480.5,0,50481.1,558675
step02_gravity_refstate-intrusion.xmf,92,2.51722e-05,-7.27266e-05,0,-7.9018e-06,-1.45682e+09,-1.46357e+09,-1.45856e+09,-545012,0.00601397,0.636008,0,0.636036,241.785,-51066.4,0,51067,545012
step02_gravity_refstate-intrusion.xmf,93,1.89385e-05,-4.92308e-05,0,-8.30524e-06,-1.47499e+09,-1.47969e+09,-1.4763e+09,-572838,0.0042944,0.669843,0,0.669857,229.252,-51632.1,0,51632.6,572838
step02_gravity_refstate-intrusion.xmf,94,1.03588e-05,-2.56145e-05,0,-8.45865e-06,-1.49413e+09,-1.49661e+09,-1.49485e+09,-583420,0.00209833,0.691621,0,0.691625,204.992,-52220.6,0,52221,583420
step02_gravity_refstate-intrusion.xmf,95,1.14146e-06,-3.42918e-06,0,-7.49205e-06,-1.51335e+09,-1.51366e+09,-1.51343e+09,-516750,0.000186284,0.700388,0,0.700388,168.673,-52807.9,0,52808.1,516750
step02_gravity_refstate-intrusion.xmf,96,-1.19305e-05,2.60838e-05,0,1.5356e-05,-1.54024e+09,-1.53762e+09,-1.53942e+09,1.05915e+06,0.00392154,0.686538,0,0.68655,-328.222,-53627.8,-0,53628.8,1.05915e+06
step02_gravity_refstate-intrusion.xmf,97,-3.23832e-05,7.36816e-05,0,3.48626e-05,-1.5875e+09,-1.58018e+09,-1.58527e+09,2.40459e+06,0.027874,0.584268,0,0.584932,-812.584,-55071.9,-0,55077.9,2.40459e+06
step02_gravity_refstate-intrusion.xmf,98,-4.89764e-05,0.000119585,0,2.57825e-05,-1.62532e+09,-1.61369e+09,-1.62194e+09,1.7783e+06,0.0410882,0.474817,0,0.476591,-791.529,-56234.9,-0,56240.5,1.7783e+06
step02_gravity_refstate-intrusion.xmf,99,-4.11474e-05,9.67633e-05,0,3.05704e-05,-1.60698e+09,-1.59747e+09,-1.60414e+09,2.10854e+06,0.0348143,0.534776,0,0.535908,-798.344,-55669.6,-0,55675.4,2.10854e+06
step02_gravity_refstate-intrusion.xmf,100,-5.48985e-05,0.000142005,0,2.27278e-05,-1.64261e+09,-1.62903e+09,-1.63883e+09,1.5676e+06,0.0484688,0.402669,0,0.405575,-834.294,-56773.6,-0,56779.7,1.5676e+06
step02_gravity_refstate-intrusion.xmf,101,-5.56861e-05,0.000156663,0,2.44063e-05,-1.65672e+09,-1.64207e+09,-1.65288e+09,1.68338e+06,0.0609616,0.326743,0,0.332382,-1016.81,-57221.9,-0,57230.9,1.68338e+06
step02_gravity_refstate-intrusion.xmf,102,-5.33277e-05,0.000166623,0,2.77342e-05,-1.66881e+09,-1.65364e+09,-1.66514e+09,1.91291e+06,0.0717948,0.253284,0,0.263263,-1238.13,-57613.1,-0,57626.4,1.91291e+06
step02_gravity_refstate-intrusion.xmf,103,-8.09466e-06,1.74433e-05,0,-7.10446e-06,-1.53217e+09,-1.53041e+09,-1.53162e+09,-490017,-0.00122975,0.696487,-0,0.696488,153.646,-53381.7,0,53381.9,490017
step02_gravity_refstate-intrusion.xmf,104,-2.09011e-05,4.5991e-05,0,1.6461e-05,-1.55883e+09,-1.55422e+09,-1.55739e+09,1.13537e+06,0.00750051,0.665124,0,0.665166,-357.742,-54194.1,-0,54195.3,1.13537e+06
step02_gravity_refstate-intrusion.xmf,105,-3.02352e-05,6.73216e-05,0,1.59347e-05,-1.57813e+09,-1.5714e+09,-1.57604e+09,1.09907e+06,0.0110795,0.631835,0,0.631932,-364.391,-54782.7,-0,54783.9,1.09907e+06
step02_gravity_refstate-intrusion.xmf,106,2.36315e-05,-9.31329e-05,0,-2.34731e-05,-1.43447e+09,-1.44252e+09,-1.4361e+09,-1.61901e+06,0.0181384,0.560992,0,0.561286,744.373,-50350.1,0,50355.6,1.61901e+06
step02_gravity_refstate-intrusion.xmf,107,2.40614e-05,-7.71192e-05,0,-2.37728e-05,-1.44858e+09,-1.45556e+09,-1.45024e+09,-1.63968e+06,0.0188343,0.599415,0,0.599711,740.973,-50803.8,0,50809.2,1.63968e+06
step02_gravity_refstate-intrusion.xmf,108,1.94614e-05,-5.60175e-05,0,-2.53653e-05,-1.46518e+09,-1.47039e+09,-1.46652e+09,-1.74953e+06,0.015508,0.63419,0,0.63438,721.789,-51323.7,0,51328.8,1.74953e+06
step02_gravity_refstate-intrusion.xmf,109,1.17593e-05,-3.12705e-05,0,-3.1052e-05,-1.48435e+09,-1.48731e+09,-1.48516e+09,-2.14175e+06,0.0106123,0.656185,0,0.65627,772.721,-51917,0,51922.7,2.14175e+06
step02_gravity_refstate-intrusion.xmf,110,3.79385e-06,-1.06958e-05,0,-2.97913e-05,-1.50445e+09,-1.50545e+09,-1.50471e+09,-2.0548e+06,0.0033006,0.676033,0,0.676041,676.348,-52533.9,0,52538.3,2.0548e+06
step02_gravity_refstate-intrusion.xmf,111,-4.55984e-06,9.15643e-06,0,-2.98308e-05,-1.52364e+09,-1.52269e+09,-1.52332e+09,-2.05752e+06,-0.002632,0.678734,-0,0.678739,642.828,-53120.7,0,53124.6,2.05752e+06
step02_gravity_refstate-intrusion.xmf,112,-1.70338e-05,3.69476e-05,0,-6.81933e-06,-1.55049e+09,-1.54677e+09,-1.54932e+09,-470351,-0.0024534,0.681471,-0,0.681476,145.042,-53939.4,0,53939.6,470351
step02_gravity_refstate-intrusion.xmf,113,-3.98001e-05,8.90122e-05,0,1.36373e-05,-1.5976e+09,-1.58871e+09,-1.59485e+09,940606,0.0141015,0.586108,0,0.586277,-352.397,-55376.1,-0,55377.2,940606
step02_gravity_refstate-intrusion.xmf,114,-5.67218e-05,0.000139337,0,1.03499e-05,-1.63471e+09,-1.62119e+09,-1.6308e+09,713867,0.0204851,0.456683,0,0.457143,-359.814,-56520.8,-0,56522,713867
step02_gravity_refstate-intrusion.xmf,115,-4.90798e-05,0.000114618,0,1.16483e-05,-1.61668e+09,-1.60538e+09,-1.61329e+09,803419,0.0167513,0.527236,0,0.527502,-339.935,-55962.5,-0,55963.5,803419
step02_gravity_refstate-intrusion.xmf,116,-6.10249e-05,0.00016389,0,1.08054e-05,-1.65308e+09,-1.63757e+09,-1.64887e+09,745279,0.0274375,0.367337,0,0.368361,-446.273,-57100,-0,57101.8,745279
step02_gravity_refstate-intrusion.xmf,117,-5.8481e-05,0.000180764,0,1.72538e-05,-1.66772e+09,-1.65121e+09,-1.66368e+09,1.19005e+06,0.0438848,0.277763,0,0.281208,-733.669,-57577.5,-0,57582.2,1.19005e+06
step02_gravity_refstate-intrusion.xmf,118,-1.30128e-05,2.79981e-05,0,-2.99176e-05,-1.54208e+09,-1.53925e+09,-1.54118e+09,-2.06351e+06,-0.00809457,0.669047,-0,0.669096,631.415,-53683.1,0,53686.8,2.06351e+06
step02_gravity_refstate-intrusion.xmf,119,-2.6206e-05,5.77972e-05,0,-6.2964e-06,-1.56929e+09,-1.56349e+09,-1.56748e+09,-434282,-0.00369523,0.654533,-0,0.654543,141.251,-54512.4,0,54512.6,434282
step02_gravity_refstate-intrusion.xmf,120,-3.55845e-05,7.94564e-05,0,-6.01895e-06,-1.58811e+09,-1.58018e+09,-1.58566e+09,-415146,-0.00515937,0.615454,-0,0.615476,145.314,-55086.7,0,55086.8,415146
step02_gravity_refstate-intrusion.xmf,121,2.02552e-05,-7.72949e-05,0,-3.83755e-05,-1.43708e+09,-1.44381e+09,-1.43848e+09,-2.64688e+06,0.029219,0.541259,0,0.542047,1223.9,-50436.4,0,50451.2,2.64688e+06
step02_gravity_refstate-intrusion.xmf,122,1.64303e-05,-5.61987e-05,0,-4.03823e-05,-1.4554e+09,-1.46041e+09,-1.45654e+09,-2.78529e+06,0.0263699,0.582909,0,0.583505,1173.85,-51012,0,51025.5,2.78529e+06
step02_gravity_refstate-intrusion.xmf,123,1.14248e-05,-3.84136e-05,0,-4.56214e-05,-1.47114e+09,-1.47458e+09,-1.47193e+09,-3.14665e+06,0.0206125,0.60527,0,0.605621,1175.91,-51500.7,0,51514.1,3.14665e+06
step02_gravity_refstate-intrusion.xmf,124,2.69585e-06,-1.10052e-05,0,-5.25366e-05,-1.49873e+09,-1.49968e+09,-1.49892e+09,-3.62361e+06,0.00734001,0.627238,0,0.627281,1163.86,-52353.5,0,52366.4,3.62361e+06
step02_gravity_refstate-intrusion.xmf,125,-3.14781e-06,4.43034e-06,0,-5.31573e-05,-1.51595e+09,-1.51543e+09,-1.51574e+09,-3.66643e+06,-0.00128093,0.634116,-0,0.634117,1122.03,-52882.9,0,52894.8,3.66643e+06
step02_gravity_refstate-intrusion.xmf,126,-9.76766e-06,2.07406e-05,0,-5.35508e-05,-1.53397e+09,-1.53187e+09,-1.5333e+09,-3.69357e+06,-0.0101304,0.629444,-0,0.629525,1103.68,-53435.4,0,53446.8,3.69357e+06
step02_gravity_refstate-intrusion.xmf,127,-2.12543e-05,4.64823e-05,0,-2.94526e-05,-1.56024e+09,-1.55557e+09,-1.55878e+09,-2.03144e+06,-0.0135348,0.648526,-0,0.648668,629.901,-54237.1,0,54240.7,2.03144e+06
step02_gravity_refstate-intrusion.xmf,128,-4.52163e-05,0.000101887,0,-5.7956e-06,-1.60725e+09,-1.5971e+09,-1.60413e+09,-399740,-0.00656098,0.562776,-0,0.562815,145.976,-55670.4,0,55670.6,399740
step02_gravity_refstate-intrusion.xmf,129,-6.05925e-05,0.000153944,0,-1.73527e-06,-1.64356e+09,-1.62876e+09,-1.63938e+09,-119687,-0.00452287,0.420654,-0,0.420678,75.1286,-56796.9,0,56797,119687
step02_gravity_refstate-intrusion.xmf,130,-5.40122e-05,0.000128369,0,-4.28149e-06,-1.62592e+09,-1.61334e+09,-1.6222e+09,-295308,-0.00751566,0.496966,-0,0.497023,140.122,-56246.7,0,56246.9,295308
step02_gravity_refstate-intrusion.xmf,131,-6.05575e-05,0.000187133,0,6.16013e-06,-1.66739e+09,-1.6503e+09,-1.66321e+09,424883,0.0151331,0.288552,0,0.288948,-249.916,-57567.3,-0,57567.8,424883
step02_gravity_refstate-intrusion.xmf,132,6.09338e-06,-2.24791e-05,0,-5.39935e-05,-1.48498e+09,-1.48695e+09,-1.4854e+09,-3.7241e+06,0.0147437,0.609012,0,0.60919,1254.09,-51927.6,0,51942.7,3.7241e+06
step02_gravity_refstate-intrusion.xmf,133,-1.66923e-05,3.67229e-05,0,-5.36229e-05,-1.55169e+09,-1.54801e+09,-1.55054e+09,-3.69854e+06,-0.018931,0.61401,-0,0.614302,1102.66,-53977.4,0,53988.6,3.69854e+06
step02_gravity_refstate-intrusion.xmf,134,-2.95007e-05,6.62991e-05,0,-2.75057e-05,-1.57853e+09,-1.57192e+09,-1.5765e+09,-1.89715e+06,-0.0189131,0.617571,-0,0.61786,623.617,-54796.3,0,54799.9,1.89715e+06
step02_gravity_refstate-intrusion.xmf,135,-3.82415e-05,8.75629e-05,0,-2.48049e-05,-1.59735e+09,-1.58867e+09,-1.59471e+09,-1.71087e+06,-0.0243541,0.574127,-0,0.574643,616.924,-55371.8,0,55375.3,1.71087e+06
step02_gravity_refstate-intrusion.xmf,136,-6.24096e-05,0.000173471,0,4.01965e-07,-1.65725e+09,-1.64098e+09,-1.65294e+09,27724.8,-1.00566e-05,0.349696,-0,0.349696,0.0332396,-57234.2,0,57234.2,27724.8
step02_gravity_refstate-intrusion.xmf,137,1.37981e-05,-6.21636e-05,0,-5.07025e-05,-1.43488e+09,-1.44012e+09,-1.43583e+09,-3.49711e+06,0.0355466,0.500973,0,0.502233,1636.51,-50363.5,0,50390.1,3.49711e+06
step02_gravity_refstate-intrusion.xmf,138,8.89513e-06,-4.59418e-05,0,-5.44207e-05,-1.4474e+09,-1.45118e+09,-1.44801e+09,-3.75357e+06,0.0340472,0.526406,0,0.527505,1586.17,-50751.4,0,50776.2,3.75357e+06
step02_gravity_refstate-intrusion.xmf,139,2.30264e-06,-1.91936e-05,0,-7.02751e-05,-1.47872e+09,-1.4802e+09,-1.47887e+09,-4.84709e+06,0.0198162,0.555545,0,0.555899,1600.64,-51725.6,0,51750.3,4.84709e+06
step02_gravity_refstate-intrusion.xmf,140,5.37956e-06,-3.17452e-05,0,-6.3005e-05,-1.46337e+09,-1.46593e+09,-1.46374e+09,-4.34565e+06,0.0279547,0.545146,0,0.545863,1589.43,-51248.4,0,51273,4.34565e+06
step02_gravity_refstate-intrusion.xmf,141,-6.47416e-07,-7.87816e-06,0,-7.48237e-05,-1.49369e+09,-1.49419e+09,-1.49365e+09,-5.16083e+06,0.010812,0.562884,0,0.562988,1594.37,-52190.5,0,52214.9,5.16083e+06
step02_gravity_refstate-intrusion.xmf,142,-4.14779e-06,3.77624e-06,0,-7.7184e-05,-1.5096e+09,-1.50906e+09,-1.50932e+09,-5.32362e+06,0.000840269,0.567648,0,0.567649,1573.02,-52683,0,52706.5,5.32362e+06
step02_gravity_refstate-intrusion.xmf,143,-8.44578e-06,1.63009e-05,0,-7.83171e-05,-1.52646e+09,-1.52475e+09,-1.52588e+09,-5.40177e+06,-0.00984735,0.565566,-0,0.565651,1555.68,-53202.9,0,53225.7,5.40177e+06
step02_gravity_refstate-intrusion.xmf,144,-1.3147e-05,2.91741e-05,0,-7.87159e-05,-1.54348e+09,-1.54056e+09,-1.54257e+09,-5.42928e+06,-0.0208274,0.554129,-0,0.55452,1553.33,-53727.1,0,53749.5,5.42928e+06
step02_gravity_refstate-intrusion.xmf,145,-2.33756e-05,5.28289e-05,0,-5.19466e-05,-1.56917e+09,-1.56392e+09,-1.56756e+09,-3.58292e+06,-0.0276121,0.59054,-0,0.591185,1098.53,-54512.8,0,54523.8,3.58292e+06
step02_gravity_refstate-intrusion.xmf,146,-4.71818e-05,0.000110004,0,-2.21096e-05,-1.61665e+09,-1.60581e+09,-1.61339e+09,-1.52497e+06,-0.0301812,0.515812,-0,0.516694,620.959,-55962.9,0,55966.3,1.52497e+06
step02_gravity_refstate-intrusion.xmf,147,-6.09902e-05,0.000165212,0,-1.07372e-05,-1.6537e+09,-1.6381e+09,-1.64949e+09,-740576,-0.0292061,0.363291,-0,0.364463,474.598,-57120.6,0,57122.6,740576
step02_gravity_refstate-intrusion.xmf,148,-5.5776e-05,0.000138791,0,-1.65586e-05,-1.63608e+09,-1.62266e+09,-1.63223e+09,-1.1421e+06,-0.0336787,0.442893,-0,0.444172,592.876,-56565.5,0,56568.6,1.1421e+06
step02_gravity_refstate-intrusion.xmf,149,-6.04658e-05,0.000187368,0,-5.76184e-06,-1.66766e+09,-1.65056e+09,-1.66349e+09,-397412,-0.0158772,0.286773,-0,0.287213,262.513,-57576.2,0,57576.8,397412
step02_gravity_refstate-intrusion.xmf,150,-1.81282e-05,4.19565e-05,0,-7.81592e-05,-1.56044e+09,-1.5563e+09,-1.55919e+09,-5.39089e+06,-0.0319586,0.534785,-0,0.535739,1557.95,-54248.5,0,54270.9,5.39089e+06
step02_gravity_refstate-intrusion.xmf,151,-3.01533e-05,7.07474e-05,0,-4.79076e-05,-1.5872e+09,-1.58024e+09,-1.58512e+09,-3.30433e+06,-0.0363144,0.55804,-0,0.559221,1084.96,-55066.5,0,55077.2,3.30433e+06
step02_gravity_refstate-intrusion.xmf,152,-3.76734e-05,9.06214e-05,0,-4.20786e-05,-1.60643e+09,-1.59758e+09,-1.60383e+09,-2.90229e+06,-0.0453129,0.512255,-0,0.514255,1069.56,-55657.4,0,55667.7,2.90229e+06
step02_gravity_refstate-intrusion.xmf,153,-2.28551e-05,5.51562e-05,0,-7.50696e-05,-1.5773e+09,-1.57192e+09,-1.57573e+09,-5.17778e+06,-0.0429094,0.510622,-0,0.512422,1551.88,-54767.9,0,54789.9,5.17778e+06
step02_gravity_refstate-intrusion.xmf,154,-4.35849e-05,0.000111978,0,-3.93326e-05,-1.62635e+09,-1.61562e+09,-1.62335e+09,-2.71289e+06,-0.0588859,0.440758,-0,0.444674,1166.24,-56276,0,56288.1,2.71289e+06
step02_gravity_refstate-intrusion.xmf,155,-5.87163e-05,0.000179967,0,-1.67181e-05,-1.66744e+09,-1.65098e+09,-1.66339e+09,-1.1531e+06,-0.0448666,0.279125,-0,0.282708,749.574,-57567.4,0,57572.3,1.1531e+06
step02_gravity_refstate-intrusion.xmf,156,-5.28459e-05,0.000143442,0,-2.71411e-05,-1.6498e+09,-1.63626e+09,-1.64616e+09,-1.872e+06,-0.0630391,0.356165,-0,0.3617,1074.14,-57003.5,0,57013.7,1.872e+06
step02_gravity_refstate-intrusion.xmf,157,-2.729e-05,6.92229e-05,0,-6.98525e-05,-1.59437e+09,-1.58771e+09,-1.59249e+09,-4.81794e+06,-0.053946,0.478878,-0,0.481907,1545.69,-55295.6,0,55317.2,4.81794e+06
step02_gravity_refstate-intrusion.xmf,158,-3.10506e-05,8.20939e-05,0,-6.5155e-05,-1.61015e+09,-1.60234e+09,-1.608e+09,-4.49394e+06,-0.0647654,0.43854,-0,0.443297,1567.72,-55784.3,0,55806.3,4.49394e+06
step02_gravity_refstate-intrusion.xmf,159,-3.21845e-05,9.13311e-05,0,-6.34599e-05,-1.62513e+09,-1.61661e+09,-1.62291e+09,-4.37703e+06,-0.0771802,0.38391,-0,0.391591,1661.64,-56253,0,56277.6,4.37703e+06
step02_gravity_refstate-intrusion.xmf,160,-3.713e-05,0.000109777,0,-4.95801e-05,-1.63979e+09,-1.62965e+09,-1.63722e+09,-3.4197e+06,-0.082307,0.349813,-0,0.359366,1574.21,-56709.1,0,56731,3.4197e+06
step02_gravity_refstate-intrusion.xmf,161,-5.29319e-05,0.000163016,0,-2.69061e-05,-1.66765e+09,-1.65275e+09,-1.664e+09,-1.8558e+06,-0.0732125,0.258624,-0,0.268787,1258.65,-57574.7,0,57588.4,1.8558e+06
step02_gravity_refstate-intrusion.xmf,162,-4.12396e-05,0.000126744,0,-3.93293e-05,-1.65671e+09,-1.64512e+09,-1.65387e+09,-2.71267e+06,-0.0891774,0.286055,-0,0.299633,1591.5,-57236.4,0,57258.5,2.71267e+06
step02_gravity_refstate-intrusion.xmf,163,-4.68776e-05,0.000144658,0,-3.47068e-05,-1.66963e+09,-1.65642e+09,-1.66639e+09,-2.39384e+06,-0.0910387,0.229033,-0,0.246463,1636.38,-57636.1,0,57659.3,2.39384e+06
step02_gravity_refstate-crust.xmf,0,-4.50181e-08,5.27479e-06,0,-8.73176e-09,-1.0985e+09,-1.09814e+09,-1.0985e+09,-598.999,-2.60642e-20,0.0395635,-0,0.0395635,-40000,-40000,-0,56568.5,598.999
step02_gravity_refstate-crust.xmf,1,-7.1484e-08,5.30871e-06,0,-7.05574e-08,-1.0985e+09,-1.09813e+09,-1.0985e+09,-4840.23,-0.000116634,0.0399147,-0,0.0399149,-37637.7,-40000,-0,54923.5,4840.23
step02_gravity_refstate-crust.xmf,2,-1.90962e-07,5.4292e-06,0,-1.17792e-07,-1.09851e+09,-1.09812e+09,-1.0985e+09,-8080.53,-0.000405738,0.040935,-0,0.040937,-35384.1,-40000,-0,53404.5,8080.53
step02_gravity_refstate-crust.xmf,3,-3.72058e-07,5.60857e-06,0,-1.31079e-07,-1.09852e+09,-1.09811e+09,-1.0985e+09,-8992.05,-0.00101045,0.0426095,-0,0.0426214,-33233.9,-40000,-0,52004.7,8992.05
step02_gravity_refstate-crust.xmf,4,-9.28063e-07,6.10154e-06,0,-1.52763e-09,-1.09856e+09,-1.09808e+09,-1.0985e+09,-104.796,-0.00351487,0.0480408,-0,0.0481692,-29222.3,-40000,-0,49537.3,104.796
step02_gravity_refstate-crust.xmf,5,-6.34728e-07,5.83024e-06,0,-8.71283e-08,-1.09854e+09,-1.0981e+09,-1.0985e+09,-5977,-0.00202173,0.0449608,-0,0.0450062,-31181.6,-40000,-0,50717.8,5977
step02_gravity_refstate-crust.xmf,6,-1.24814e-06,6.41337e-06,0,1.34164e-07,-1.09859e+09,-1.09806e+09,-1.0985e+09,9203.66,-0.00553119,0.0519171,-0,0.0522109,-27351,-40000,-0,48457,9203.66
step02_gravity_refstate-crust.xmf,7,-1.61668e-06,6.72652e-06,0,3.63111e-07,-1.09861e+09,-1.09804e+09,-1.0985e+09,24909.4,-0.0080877,0.0566686,-0,0.0572428,-25563.1,-40000,-0,47470.8,24909.4
step02_gravity_refstate-crust.xmf,8,-2.00376e-06,7.03495e-06,0,6.81021e-07,-1.09864e+09,-1.09802e+09,-1.09851e+09,46718,-0.0111765,0.0623789,-0,0.0633723,-23854.1,-40000,-0,46572.7,46718
step02_gravity_refstate-crust.xmf,9,-2.39309e-06,7.31765e-06,0,1.0969e-06,-1.09867e+09,-1.09801e+09,-1.09851e+09,75247.6,-0.0147645,0.069131,-0,0.0706901,-22219.5,-40000,-0,45757,75247.6
step02_gravity_refstate-crust.xmf,10,-2.76231e-06,7.53993e-06,0,1.62227e-06,-1.09871e+09,-1.098e+09,-1.09852e+09,111288,-0.0187938,0.0770026,-0,0.0792629,-20655.1,-40000,-0,45018.2,111288
step02_gravity_refstate-crust.xmf,11,-3.09194e-06,7.68368e-06,0,2.25764e-06,-1.09874e+09,-1.098e+09,-1.09852e+09,154874,-0.0231787,0.0860566,-0,0.0891235,-19156.9,-40000,-0,44350.7,154874
step02_gravity_refstate-crust.xmf,12,-3.3576e-06,7.72621e-06,0,3.00056e-06,-1.09876e+09,-1.098e+09,-1.09853e+09,205839,-0.0278052,0.0963374,-0,0.10027,-17720.9,-40000,-0,43749.6,205839
step02_gravity_refstate-crust.xmf,13,-3.52033e-06,7.62895e-06,0,3.84126e-06,-1.09879e+09,-1.09802e+09,-1.09855e+09,263510,-0.0325369,0.107866,-0,0.112666,-16343,-40000,-0,43209.9,263510
step02_gravity_refstate-crust.xmf,14,-3.53952e-06,7.32719e-06,0,4.774e-06,-1.0988e+09,-1.09806e+09,-1.09856e+09,327497,-0.0372135,0.120628,-0,0.126238,-15019.5,-40000,-0,42726.9,327497
step02_gravity_refstate-crust.xmf,15,-3.41655e-06,6.82468e-06,0,5.75988e-06,-1.09881e+09,-1.09811e+09,-1.09858e+09,395128,-0.0416435,0.134574,-0,0.14087,-13746.6,-40000,-0,42296.2,395128
step02_gravity_refstate-crust.xmf,16,-3.07604e-06,6.07194e-06,0,6.78143e-06,-1.0988e+09,-1.09818e+09,-1.09859e+09,465206,-0.0456349,0.149606,-0,0.156411,-12520.4,-40000,-0,41913.7,465206
step02_gravity_refstate-crust.xmf,17,-2.52884e-06,5.06153e-06,0,7.77361e-06,-1.09879e+09,-1.09827e+09,-1.09861e+09,533270,-0.0489562,0.165571,-0,0.172657,-11337.1,-40000,-0,41575.6,533270
step02_gravity_refstate-crust.xmf,18,-1.73034e-06,3.76418e-06,0,8.68775e-06,-1.09875e+09,-1.09838e+09,-1.09863e+09,595980,-0.0514009,0.182268,-0,0.189377,-10193,-40000,-0,41278.3,595980
step02_gravity_refstate-crust.xmf,19,-6.83257e-07,2.18567e-06,0,9.45057e-06,-1.0987e+09,-1.09851e+09,-1.09866e+09,648309,-0.052748,0.199428,-0,0.206286,-9083.97,-40000,-0,41018.5,648309
step02_gravity_refstate-crust.xmf,20,6.01182e-07,3.58308e-07,0,9.97907e-06,-1.09864e+09,-1.09865e+09,-1.09868e+09,684564,-0.0527999,0.216723,-0,0.223062,-8006.22,-40000,-0,40793.4,684564
step02_gravity_refstate-crust.xmf,21,2.10182e-06,-1.69736e-06,0,1.02113e-05,-1.09856e+09,-1.09882e+09,-1.0987e+09,700493,-0.0513918,0.233767,-0,0.239349,-6955.6,-40000,-0,40600.2,700493
step02_gravity_refstate-crust.xmf,22,3.74906e-06,-3.89129e-06,0,1.00564e-05,-1.09847e+09,-1.09899e+09,-1.09873e+09,689871,-0.0483963,0.250113,-0,0.254752,-5927.94,-40000,-0,40436.9,689871
step02_gravity_refstate-crust.xmf,23,5.47208e-06,-6.13091e-06,0,9.45934e-06,-1.09837e+09,-1.09917e+09,-1.09875e+09,648910,-0.0437584,0.265272,-0,0.268857,-4918.91,-40000,-0,40301.3,648910
step02_gravity_refstate-crust.xmf,24,7.15383e-06,-8.27639e-06,0,8.38108e-06,-1.09828e+09,-1.09934e+09,-1.09877e+09,574942,-0.0374938,0.278722,-0,0.281232,-3924.05,-40000,-0,40192,574942
step02_gravity_refstate-crust.xmf,25,8.66211e-06,-1.01545e-05,0,6.81742e-06,-1.09819e+09,-1.09948e+09,-1.09878e+09,467675,-0.029714,0.289936,-0,0.291455,-2938.83,-40000,-0,40107.8,467675
step02_gravity_refstate-crust.xmf,26,9.86735e-06,-1.16218e-05,0,4.80905e-06,-1.09812e+09,-1.09959e+09,-1.09879e+09,329901,-0.0206294,0.298416,-0,0.299128,-1958.59,-40000,-0,40047.9,329901
step02_gravity_refstate-crust.xmf,27,1.06619e-05,-1.25836e-05,0,2.49323e-06,-1.09807e+09,-1.09966e+09,-1.0988e+09,171036,-0.0105792,0.303716,-0,0.3039,-979.295,-40000,-0,40012,171036
step02_gravity_refstate-crust.xmf,28,1.09457e-05,-1.29108e-05,0,-3.09775e-08,-1.09805e+09,-1.09969e+09,-1.0988e+09,-2125.05,-2.47131e-07,0.305525,-0,0.305525,0,-40000,0,40000,2125.05
step02_gravity_refstate-crust.xmf,29,1.06591e-05,-1.25456e-05,0,-2.55058e-06,-1.09807e+09,-1.09966e+09,-1.0988e+09,-174970,0.010579,0.303716,0,0.3039,979.295,-40000,0,40012,174970
step02_gravity_refstate-crust.xmf,30,9.87398e-06,-1.15647e-05,0,-4.86152e-06,-1.09811e+09,-1.09959e+09,-1.09879e+09,-333500,0.0206293,0.298416,0,0.299128,1958.59,-40000,0,40047.9,333500
step02_gravity_refstate-crust.xmf,31,8.63787e-06,-1.00308e-05,0,-6.84676e-06,-1.09819e+09,-1.09947e+09,-1.09878e+09,-469688,0.0297141,0.289936,0,0.291455,2938.83,-40000,0,40107.8,469688
step02_gravity_refstate-crust.xmf,32,7.12133e-06,-8.12071e-06,0,-8.39202e-06,-1.09827e+09,-1.09932e+09,-1.09876e+09,-575692,0.0374939,0.278722,0,0.281232,3924.05,-40000,0,40192,575692
step02_gravity_refstate-crust.xmf,33,5.44284e-06,-5.9823e-06,0,-9.4543e-06,-1.09837e+09,-1.09915e+09,-1.09874e+09,-648565,0.0437585,0.265272,0,0.268857,4918.91,-40000,0,40301.3,648565
step02_gravity_refstate-crust.xmf,34,3.72759e-06,-3.76356e-06,0,-1.00335e-05,-1.09847e+09,-1.09898e+09,-1.09872e+09,-688297,0.0483963,0.250112,0,0.254752,5927.94,-40000,0,40436.9,688297
step02_gravity_refstate-crust.xmf,35,2.07832e-06,-1.5884e-06,0,-1.01778e-05,-1.09856e+09,-1.09881e+09,-1.0987e+09,-698199,0.0513921,0.233767,0,0.239349,6955.6,-40000,0,40600.2,698199
step02_gravity_refstate-crust.xmf,36,5.86596e-07,4.40335e-07,0,-9.94075e-06,-1.09864e+09,-1.09865e+09,-1.09868e+09,-681935,0.0528006,0.216723,0,0.223063,8006.22,-40000,0,40793.4,681935
step02_gravity_refstate-crust.xmf,37,-6.97895e-07,2.25497e-06,0,-9.40341e-06,-1.0987e+09,-1.0985e+09,-1.09865e+09,-645074,0.0527476,0.199427,0,0.206285,9083.97,-40000,0,41018.5,645074
step02_gravity_refstate-crust.xmf,38,-1.74302e-06,3.81253e-06,0,-8.64317e-06,-1.09875e+09,-1.09837e+09,-1.09863e+09,-592921,0.0514006,0.182267,0,0.189376,10193,-40000,0,41278.3,592921
step02_gravity_refstate-crust.xmf,39,-2.53624e-06,5.08658e-06,0,-7.73155e-06,-1.09879e+09,-1.09826e+09,-1.09861e+09,-530385,0.0489553,0.165571,0,0.172656,11337.1,-40000,0,41575.6,530385
step02_gravity_refstate-crust.xmf,40,-3.09191e-06,6.08368e-06,0,-6.75073e-06,-1.0988e+09,-1.09818e+09,-1.09859e+09,-463100,0.0456332,0.149606,0,0.156411,12520.4,-40000,0,41913.7,463100
step02_gravity_refstate-crust.xmf,41,-3.41732e-06,6.81682e-06,0,-5.74182e-06,-1.09881e+09,-1.09811e+09,-1.09858e+09,-393889,0.0416462,0.134576,0,0.140873,13746.6,-40000,0,42296.2,393889
step02_gravity_refstate-crust.xmf,42,-3.54659e-06,7.30844e-06,0,-4.75573e-06,-1.0988e+09,-1.09806e+09,-1.09856e+09,-326243,0.037213,0.120629,0,0.126239,15019.5,-40000,0,42726.9,326243
step02_gravity_refstate-crust.xmf,43,-3.51277e-06,7.58818e-06,0,-3.83158e-06,-1.09879e+09,-1.09803e+09,-1.09855e+09,-262846,0.0325371,0.107866,0,0.112666,16343,-40000,0,43209.9,262846
step02_gravity_refstate-crust.xmf,44,-3.34899e-06,7.68878e-06,0,-2.99521e-06,-1.09877e+09,-1.09801e+09,-1.09854e+09,-205471,0.0278047,0.0963371,0,0.100269,17720.9,-40000,0,43749.6,205471
step02_gravity_refstate-crust.xmf,45,-3.08841e-06,7.65064e-06,0,-2.25934e-06,-1.09874e+09,-1.098e+09,-1.09853e+09,-154991,0.0231781,0.0860562,0,0.0891229,19156.9,-40000,0,44350.7,154991
step02_gravity_refstate-crust.xmf,46,-2.75719e-06,7.50216e-06,0,-1.6285e-06,-1.09871e+09,-1.098e+09,-1.09852e+09,-111715,0.0187932,0.0770028,0,0.079263,20655.1,-40000,0,45018.2,111715
step02_gravity_refstate-crust.xmf,47,-2.38614e-06,7.27574e-06,0,-1.10759e-06,-1.09868e+09,-1.09801e+09,-1.09851e+09,-75980.7,0.0147644,0.0691319,0,0.0706909,22219.5,-40000,0,45757,75980.7
step02_gravity_refstate-crust.xmf,48,-1.99809e-06,6.99847e-06,0,-6.93025e-07,-1.09864e+09,-1.09803e+09,-1.09851e+09,-47541.5,0.0111766,0.0623797,0,0.0633731,23854.1,-40000,0,46572.7,47541.5
step02_gravity_refstate-crust.xmf,49,-1.61164e-06,6.69585e-06,0,-3.76125e-07,-1.09861e+09,-1.09804e+09,-1.0985e+09,-25802.2,0.00808772,0.056669,0,0.0572433,25563.1,-40000,0,47470.8,25802.2
step02_gravity_refstate-crust.xmf,50,-1.24341e-06,6.38775e-06,0,-1.47768e-07,-1.09859e+09,-1.09806e+09,-1.0985e+09,-10136.9,0.00553111,0.0519174,0,0.0522112,27351,-40000,0,48457,10136.9
step02_gravity_refstate-crust.xmf,51,-9.07423e-07,6.09226e-06,0,2.38499e-09,-1.09856e+09,-1.09808e+09,-1.0985e+09,163.61,0.00351507,0.0480411,0,0.0481696,29222.3,-40000,0,49537.3,163.61
step02_gravity_refstate-crust.xmf,52,-6.12975e-07,5.82334e-06,0,8.69223e-08,-1.09854e+09,-1.0981e+09,-1.0985e+09,5962.87,0.00202132,0.0449607,0,0.0450061,31181.6,-40000,0,50717.8,5962.87
step02_gravity_refstate-crust.xmf,53,-3.71418e-07,5.59587e-06,0,1.13727e-07,-1.09852e+09,-1.09811e+09,-1.0985e+09,7801.67,0.00101047,0.0426095,0,0.0426215,33233.9,-40000,0,52004.7,7801.67
step02_gravity_refstate-crust.xmf,54,-1.85187e-07,5.41781e-06,0,1.0237e-07,-1.09851e+09,-1.09813e+09,-1.0985e+09,7022.56,0.000405915,0.0409351,0,0.0409371,35384.1,-40000,0,53404.5,7022.56
step02_gravity_refstate-crust.xmf,55,-7.07199e-08,5.3064e-06,0,6.04306e-08,-1.0985e+09,-1.09813e+09,-1.0985e+09,4145.54,0.000116501,0.0399148,0,0.039915,37637.7,-40000,0,54923.5,4145.54
step02_gravity_refstate-crust.xmf,56,-2.79123e-08,5.25989e-06,0,9.93299e-09,-1.0985e+09,-1.09814e+09,-1.0985e+09,681.403,2.32286e-20,0.0395636,0,0.0395636,40000,-40000,0,56568.5,681.403
step02_gravity_refstate-crust.xmf,57,-3.28119e-07,5.27025e-06,0,-1.19638e-08,-1.05333e+09,-1.05295e+09,-1.05331e+09,-820.716,-0.000516297,0.0484195,-0,0.0484222,-38367.1,-38354.5,-0,54250.3,820.716
step02_gravity_refstate-crust.xmf,58,-4.31685e-07,5.23432e-06,0,-6.54664e-09,-1.03191e+09,-1.03152e+09,-1.03188e+09,-449.099,-8.15422e-20,0.052308,-0,0.052308,-40000,-37574.1,-0,54880,449.099
step02_gravity_refstate-crust.xmf,59,-4.09798e-07,5.32943e-06,0,-2.9358e-09,-1.04997e+09,-1.04958e+09,-1.04994e+09,-201.396,-0.00126263,0.0498016,-0,0.0498176,-36480.6,-38231.8,-0,52844.2,201.396
step02_gravity_refstate-crust.xmf,60,-6.39762e-07,5.19445e-06,0,5.03099e-08,-9.94443e+08,-9.94042e+08,-9.94399e+08,3451.26,-0.00127991,0.0597799,-0,0.0597936,-37919.5,-36209.1,-0,52430.8,3451.26
step02_gravity_refstate-crust.xmf,61,-7.3312e-07,5.10476e-06,0,-4.23071e-09,-9.64302e+08,-9.63902e+08,-9.64252e+08,-290.226,-1.2241e-19,0.0650381,-0,0.0650381,-40000,-35111.3,-0,53224.1,290.226
step02_gravity_refstate-crust.xmf,62,-6.92894e-07,5.30859e-06,0,1.15141e-07,-1.00447e+09,-1.00406e+09,-1.00443e+09,7898.68,-0.0028466,0.0594121,-0,0.0594803,-35311,-36574.3,-0,50838.4,7898.68
step02_gravity_refstate-crust.xmf,63,-5.48278e-07,5.46277e-06,0,2.21826e-08,-1.05063e+09,-1.05022e+09,-1.05059e+09,1521.73,-0.0023066,0.0512822,-0,0.0513341,-34264.7,-38255.6,-0,51357.2,1521.73
step02_gravity_refstate-crust.xmf,64,-8.71813e-07,5.0248e-06,0,1.13378e-07,-9.29857e+08,-9.29453e+08,-9.29798e+08,7777.71,-0.00182988,0.0718223,-0,0.0718456,-37860.6,-33856.6,-0,50790.7,7777.71
step02_gravity_refstate-crust.xmf,65,-8.2867e-07,5.14833e-06,0,1.66827e-07,-9.57922e+08,-9.57512e+08,-9.57865e+08,11444.4,-0.00294611,0.0675684,-0,0.0676326,-36218.3,-34878.7,-0,50282.1,11444.4
step02_gravity_refstate-crust.xmf,66,-9.4585e-07,4.88902e-06,0,-4.12426e-09,-8.95475e+08,-8.95075e+08,-8.9541e+08,-282.924,-1.83368e-19,0.0775667,-0,0.0775667,-40000,-32604.4,-0,51604.7,282.924
step02_gravity_refstate-crust.xmf,67,-9.33948e-07,5.21907e-06,0,2.8865e-07,-9.5486e+08,-9.54438e+08,-9.54796e+08,19801.4,-0.00471864,0.0699402,-0,0.0700992,-34265.5,-34766.9,-0,48814.6,19801.4
step02_gravity_refstate-crust.xmf,68,-8.6026e-07,5.4395e-06,0,2.24243e-07,-1.0021e+09,-1.00166e+09,-1.00204e+09,15383,-0.00463905,0.0622166,-0,0.0623893,-33080.3,-36487.3,-0,49250.6,15383
step02_gravity_refstate-crust.xmf,69,-7.55141e-07,5.64727e-06,0,9.21795e-08,-1.05022e+09,-1.04978e+09,-1.05017e+09,6323.51,-0.00373096,0.0538107,-0,0.0539399,-32098.6,-38239.9,-0,49926.1,6323.51
step02_gravity_refstate-crust.xmf,70,-9.90106e-07,5.0048e-06,0,2.85903e-07,-9.09624e+08,-9.09212e+08,-9.09556e+08,19612.9,-0.00410179,0.0769792,-0,0.0770884,-35616.2,-33119.5,-0,48635.5,19612.9
step02_gravity_refstate-crust.xmf,71,-1.05893e-06,4.7552e-06,0,2.12738e-07,-8.57901e+08,-8.57503e+08,-8.57829e+08,14593.8,-0.00271097,0.0848795,-0,0.0849228,-37374.3,-31235.8,-0,48708.5,14593.8
step02_gravity_refstate-crust.xmf,72,-1.07977e-06,4.59881e-06,0,-8.04818e-10,-8.25233e+08,-8.24844e+08,-8.25159e+08,-55.2105,-1.72066e-19,0.0896999,-0,0.0896999,-40000,-30046.2,-0,50027.7,55.2105
step02_gravity_refstate-crust.xmf,73,-1.10855e-06,5.05327e-06,0,4.88603e-07,-9.03219e+08,-9.02796e+08,-9.03143e+08,33518.2,-0.00658881,0.080784,-0,0.0810523,-33328.4,-32885.9,-0,46821.7,33518.2
step02_gravity_refstate-crust.xmf,74,-1.25781e-06,6.08929e-06,0,3.54462e-07,-1.05577e+09,-1.05526e+09,-1.05568e+09,24316.1,-0.00723803,0.0595287,-0,0.0599671,-28262.9,-38440.6,-0,47712.4,24316.1
step02_gravity_refstate-crust.xmf,75,-9.94963e-07,5.84753e-06,0,1.99144e-07,-1.05302e+09,-1.05255e+09,-1.05295e+09,13661.3,-0.00523859,0.0561828,-0,0.0564265,-30202,-38341.3,-0,48807.9,13661.3
step02_gravity_refstate-crust.xmf,76,-1.09277e-06,5.32762e-06,0,4.66746e-07,-9.52406e+08,-9.51966e+08,-9.52331e+08,32018.8,-0.00701648,0.0734519,-0,0.0737863,-32051.5,-34677.1,-0,47220.8,32018.8
step02_gravity_refstate-crust.xmf,77,-1.08137e-06,5.61149e-06,0,3.89988e-07,-1.00061e+09,-1.00015e+09,-1.00054e+09,26753.2,-0.00688696,0.066009,-0,0.0663673,-30812.6,-36432.7,-0,47715.3,26753.2
step02_gravity_refstate-crust.xmf,78,-1.12358e-06,4.78558e-06,0,4.59066e-07,-8.53982e+08,-8.53577e+08,-8.53905e+08,31491.9,-0.00568974,0.0878886,-0,0.0880726,-34650,-31092.9,-0,46555.2,31491.9
step02_gravity_refstate-crust.xmf,79,-1.13117e-06,4.42974e-06,0,2.20663e-07,-7.89308e+08,-7.88926e+08,-7.8923e+08,15137.5,-0.0025038,0.0961508,-0,0.0961834,-37759.2,-28737.8,-0,47451.2,15137.5
step02_gravity_refstate-crust.xmf,80,-1.53627e-06,6.3659e-06,0,5.41526e-07,-1.05969e+09,-1.05914e+09,-1.05958e+09,37148.7,-0.00950126,0.063291,-0,0.0640001,-26460.5,-38582.6,-0,46784.3,37148.7
step02_gravity_refstate-crust.xmf,81,-1.14272e-06,4.51849e-06,0,4.14283e-07,-8.04475e+08,-8.04086e+08,-8.04396e+08,28419.8,-0.00475988,0.0951353,-0,0.0952543,-35732.1,-29290.1,-0,46202.7,28419.8
step02_gravity_refstate-crust.xmf,82,-1.13722e-06,4.23924e-06,0,-3.88869e-11,-7.53378e+08,-7.53009e+08,-7.533e+08,-2.66764,-1.52857e-19,0.101265,-0,0.101265,-40000,-27429.4,-0,48501.3,2.66764
step02_gravity_refstate-crust.xmf,83,-1.22016e-06,4.8159e-06,0,7.15871e-07,-8.4964e+08,-8.49226e+08,-8.49557e+08,49108.8,-0.0085054,0.0920477,-0,0.0924399,-32282.1,-30934.5,-0,44711.1,49108.8
step02_gravity_refstate-crust.xmf,84,-1.24503e-06,5.12334e-06,0,7.2851e-07,-9.00039e+08,-8.99602e+08,-8.99953e+08,49975.8,-0.00927204,0.0851335,-0,0.085637,-31093.7,-32769.7,-0,45173.8,49975.8
step02_gravity_refstate-crust.xmf,85,-1.47138e-06,6.06156e-06,0,6.61828e-07,-1.02581e+09,-1.02529e+09,-1.02571e+09,45401.4,-0.0102303,0.0686475,-0,0.0694056,-27279,-37349.1,-0,46250.4,45401.4
step02_gravity_refstate-crust.xmf,86,-1.33168e-06,5.81219e-06,0,6.05113e-07,-1.00217e+09,-1.00168e+09,-1.00208e+09,41510.7,-0.00938809,0.0701553,-0,0.0707807,-28679.4,-36488.6,-0,46410.4,41510.7
step02_gravity_refstate-crust.xmf,87,-1.28004e-06,5.44515e-06,0,6.99398e-07,-9.49627e+08,-9.49165e+08,-9.49539e+08,47978.7,-0.0096519,0.0781092,-0,0.0787033,-29892.8,-34575.4,-0,45706,47978.7
step02_gravity_refstate-crust.xmf,88,-1.72486e-06,6.24262e-06,0,9.38602e-07,-1.02403e+09,-1.02348e+09,-1.02391e+09,64388.1,-0.012997,0.0741292,-0,0.0752599,-25606.1,-37283.5,-0,45229.8,64388.1
step02_gravity_refstate-crust.xmf,89,-1.85909e-06,6.61586e-06,0,8.42776e-07,-1.0605e+09,-1.05992e+09,-1.06037e+09,57814.5,-0.0124296,0.0687292,-0,0.0698441,-24704.5,-38611.4,-0,45838.3,57814.5
step02_gravity_refstate-crust.xmf,90,-1.19532e-06,4.52086e-06,0,6.44805e-07,-7.99657e+08,-7.99265e+08,-7.99575e+08,44233.7,-0.00723378,0.0984048,-0,0.0986703,-33633.9,-29114.5,-0,44484.7,44233.7
step02_gravity_refstate-crust.xmf,91,-1.17594e-06,4.22498e-06,0,4.90227e-07,-7.49177e+08,-7.48806e+08,-7.49096e+08,33629.6,-0.00517548,0.104173,-0,0.104302,-35492.9,-27276.3,-0,44763.2,33629.6
step02_gravity_refstate-crust.xmf,92,-1.1472e-06,4.13275e-06,0,2.08095e-07,-7.33259e+08,-7.32896e+08,-7.3318e+08,14275.3,-0.0022072,0.104744,-0,0.104767,-38069.8,-26696.8,-0,46497.6,14275.3
step02_gravity_refstate-crust.xmf,93,-1.14318e-06,3.831e-06,0,-3.84642e-10,-6.79711e+08,-6.79369e+08,-6.79632e+08,-26.3865,-1.53811e-19,0.112092,-0,0.112092,-40000,-24746.9,-0,47036.2,26.3865
step02_gravity_refstate-crust.xmf,94,-1.6021e-06,5.88446e-06,0,9.9335e-07,-9.87086e+08,-9.86572e+08,-9.86976e+08,68143.8,-0.0130119,0.0789647,-0,0.0800295,-26631.7,-35938.5,-0,44730.5,68143.8
step02_gravity_refstate-crust.xmf,95,-1.1471e-06,3.85604e-06,0,3.60551e-07,-6.84416e+08,-6.84072e+08,-6.84337e+08,24733.8,-0.00360567,0.112541,-0,0.112599,-36844.9,-24918.2,-0,44479.9,24733.8
step02_gravity_refstate-crust.xmf,96,-1.26008e-06,4.51961e-06,0,9.35143e-07,-7.96392e+08,-7.95996e+08,-7.96306e+08,64150.8,-0.010137,0.102953,-0,0.103451,-31280.7,-28995.4,-0,42652.2,64150.8
step02_gravity_refstate-crust.xmf,97,-1.31833e-06,4.84704e-06,0,9.92108e-07,-8.47589e+08,-8.47166e+08,-8.47499e+08,68058.6,-0.0113024,0.0967665,-0,0.0974243,-30094.9,-30859.5,-0,43104.7,68058.6
step02_gravity_refstate-crust.xmf,98,-1.39012e-06,5.18751e-06,0,1.01487e-06,-8.9752e+08,-8.97069e+08,-8.97425e+08,69620.2,-0.0121687,0.0904729,-0,0.0912876,-28930.1,-32677.5,-0,43643.7,69620.2
step02_gravity_refstate-crust.xmf,99,-1.47952e-06,5.54021e-06,0,1.00412e-06,-9.45007e+08,-9.44525e+08,-9.44906e+08,68882.7,-0.0126871,0.0842797,-0,0.0852293,-27789.6,-34406.5,-0,44227.5,68882.7
step02_gravity_refstate-crust.xmf,100,-1.82548e-06,6.02089e-06,0,1.34776e-06,-9.86742e+08,-9.86204e+08,-9.86617e+08,92456.1,-0.0162531,0.0855202,-0,0.0870509,-24745.1,-35925.3,-0,43622.8,92456.1
step02_gravity_refstate-crust.xmf,101,-2.00277e-06,6.42079e-06,0,1.31952e-06,-1.02469e+09,-1.02411e+09,-1.02455e+09,90519.2,-0.0163307,0.0806861,-0,0.0823222,-23798.9,-37306.7,-0,44251.3,90519.2
step02_gravity_refstate-crust.xmf,102,-2.19569e-06,6.85694e-06,0,1.23914e-06,-1.06225e+09,-1.06163e+09,-1.0621e+09,85005.1,-0.0158553,0.0752019,-0,0.0768551,-22956.4,-38674,-0,44974.2,85005.1
step02_gravity_refstate-crust.xmf,103,-1.21104e-06,4.19274e-06,0,8.57865e-07,-7.432e+08,-7.4283e+08,-7.43117e+08,58849.5,-0.00884786,0.109286,-0,0.109643,-32409.3,-27058.5,-0,42220,58849.5
step02_gravity_refstate-crust.xmf,104,-1.12015e-06,3.54682e-06,0,2.32442e-07,-6.31931e+08,-6.3161e+08,-6.31854e+08,15945.5,-0.00220468,0.11894,-0,0.11896,-38031.3,-23007,-0,44448.9,15945.5
step02_gravity_refstate-crust.xmf,105,-1.10405e-06,3.38372e-06,0,8.69272e-10,-6.04028e+08,-6.0372e+08,-6.03952e+08,59.6321,-1.6924e-19,0.122034,-0,0.122034,-40000,-21991,-0,45646.5,59.6321
step02_gravity_refstate-crust.xmf,106,-1.67096e-06,5.61415e-06,0,1.36882e-06,-9.43934e+08,-9.43434e+08,-9.43819e+08,93901.2,-0.0158965,0.0908503,-0,0.0922306,-25766.9,-34366.8,-0,42953.6,93901.2
step02_gravity_refstate-crust.xmf,107,-1.16808e-06,3.8756e-06,0,7.01664e-07,-6.89915e+08,-6.89569e+08,-6.89834e+08,48134.2,-0.0068988,0.114672,-0,0.114879,-34001,-25118.3,-0,42272.9,48134.2
step02_gravity_refstate-crust.xmf,108,-1.11383e-06,3.46244e-06,0,5.29498e-07,-6.20107e+08,-6.19793e+08,-6.20031e+08,36323.6,-0.0049321,0.122185,-0,0.122284,-35566,-22576.5,-0,42126.4,36323.6
step02_gravity_refstate-crust.xmf,109,-1.07815e-06,3.18085e-06,0,2.69207e-07,-5.71391e+08,-5.71099e+08,-5.71317e+08,18467.6,-0.00243159,0.126488,-0,0.126511,-37745.7,-20802.6,-0,43098.6,18467.6
step02_gravity_refstate-crust.xmf,110,-1.23901e-06,4.16793e-06,0,1.14237e-06,-7.42106e+08,-7.41735e+08,-7.42021e+08,78366.6,-0.0115065,0.113741,-0,0.114321,-30238.3,-27018.6,-0,40550.7,78366.6
step02_gravity_refstate-crust.xmf,111,-1.31734e-06,4.50638e-06,0,1.23823e-06,-7.94717e+08,-7.94318e+08,-7.94627e+08,84942.8,-0.0129746,0.108205,-0,0.108981,-29082.9,-28934.1,-0,41024.3,84942.8
step02_gravity_refstate-crust.xmf,112,-1.41117e-06,4.85472e-06,0,1.30952e-06,-8.45611e+08,-8.45181e+08,-8.45514e+08,89832.8,-0.0142525,0.102618,-0,0.103603,-27946.7,-30787.1,-0,41579.6,89832.8
step02_gravity_refstate-crust.xmf,113,-1.52581e-06,5.22559e-06,0,1.35019e-06,-8.95477e+08,-8.95014e+08,-8.95372e+08,92622.9,-0.0152439,0.0968074,-0,0.0980003,-26845.3,-32602.7,-0,42232.7,92622.9
step02_gravity_refstate-crust.xmf,114,-1.83242e-06,5.69439e-06,0,1.75536e-06,-9.47278e+08,-9.46761e+08,-9.47152e+08,120418,-0.0191791,0.0975463,-0,0.0994139,-23839.8,-34488,-0,41925.6,120418
step02_gravity_refstate-crust.xmf,115,-2.04175e-06,6.11746e-06,0,1.79052e-06,-9.88731e+08,-9.88171e+08,-9.88591e+08,122830,-0.0197926,0.092892,-0,0.0949772,-22875.4,-35996.9,-0,42650.5,122830
step02_gravity_refstate-crust.xmf,116,-2.51777e-06,7.05693e-06,0,1.72919e-06,-1.06477e+09,-1.06411e+09,-1.06459e+09,118622,-0.0196274,0.0825912,-0,0.0848913,-21284,-38764.6,-0,44223.3,118622
step02_gravity_refstate-crust.xmf,117,-2.27644e-06,6.56209e-06,0,1.81098e-06,-1.02651e+09,-1.0259e+09,-1.02635e+09,124233,-0.0201817,0.0885971,-0,0.0908666,-21956.1,-37372,-0,43344.5,124233
step02_gravity_refstate-crust.xmf,118,-1.04502e-06,2.91348e-06,0,1.81087e-09,-5.26125e+08,-5.25853e+08,-5.26053e+08,124.225,-1.96233e-19,0.130965,-0,0.130965,-40000,-19154.4,-0,44349.6,124.225
step02_gravity_refstate-crust.xmf,119,-1.17334e-06,3.84145e-06,0,1.01656e-06,-6.88774e+08,-6.8843e+08,-6.88693e+08,69735.8,-0.00984747,0.118945,-0,0.119352,-31474.5,-25076.7,-0,40242.9,69735.8
step02_gravity_refstate-crust.xmf,120,-1.63912e-06,5.22038e-06,0,1.74192e-06,-8.95155e+08,-8.94685e+08,-8.95043e+08,119495,-0.0184416,0.10392,-0,0.105544,-24826.3,-32590.5,-0,40969.3,119495
step02_gravity_refstate-crust.xmf,121,-2.79026e-06,7.21494e-06,0,2.18803e-06,-1.07198e+09,-1.07129e+09,-1.07179e+09,150099,-0.0227469,0.0883747,-0,0.0912552,-19933.6,-39026.4,-0,43822.4,150099
step02_gravity_refstate-crust.xmf,122,-1.01036e-06,2.70635e-06,0,3.21555e-07,-4.92786e+08,-4.92531e+08,-4.92716e+08,22058.7,-0.00281167,0.135186,-0,0.135215,-37229,-17940.5,-0,41326.2,22058.7
step02_gravity_refstate-crust.xmf,123,-1.11427e-06,3.49612e-06,0,8.62836e-07,-6.30847e+08,-6.30531e+08,-6.30771e+08,59190.6,-0.00802225,0.124318,-0,0.124577,-32826,-22967.5,-0,40063.2,59190.6
step02_gravity_refstate-crust.xmf,124,-1.05338e-06,3.05645e-06,0,5.08972e-07,-5.53024e+08,-5.52742e+08,-5.52951e+08,34915.5,-0.00456171,0.130016,-0,0.130096,-35700.2,-20133.9,-0,40986.3,34915.5
step02_gravity_refstate-crust.xmf,125,-1.1692e-06,3.78915e-06,0,1.31345e-06,-6.88852e+08,-6.88512e+08,-6.88772e+08,90102.4,-0.0124699,0.123791,-0,0.124418,-29236.1,-25079.5,-0,38519.2,90102.4
step02_gravity_refstate-crust.xmf,126,-1.25265e-06,4.11428e-06,0,1.4554e-06,-7.41497e+08,-7.41129e+08,-7.41411e+08,99840.7,-0.014254,0.119352,-0,0.1202,-28031.6,-26996.2,-0,38917.5,99840.7
step02_gravity_refstate-crust.xmf,127,-1.35537e-06,4.45704e-06,0,1.5705e-06,-7.93248e+08,-7.92849e+08,-7.93155e+08,107737,-0.0158491,0.114519,-0,0.11561,-26932.4,-28880.4,-0,39489.6,107737
step02_gravity_refstate-crust.xmf,128,-1.48447e-06,4.82564e-06,0,1.67215e-06,-8.44757e+08,-8.44324e+08,-8.44655e+08,114709,-0.0173301,0.109479,-0,0.110842,-25824.2,-30755.7,-0,40159.7,114709
step02_gravity_refstate-crust.xmf,129,-1.76445e-06,5.31858e-06,0,2.1179e-06,-9.11215e+08,-9.10729e+08,-9.11094e+08,145288,-0.0215326,0.108913,-0,0.111021,-22892.1,-33174.8,-0,40306.5,145288
step02_gravity_refstate-crust.xmf,130,-1.96314e-06,5.69693e-06,0,2.2089e-06,-9.50347e+08,-9.49822e+08,-9.50212e+08,151531,-0.0225492,0.105178,-0,0.107568,-22028.3,-34599.2,-0,41016.5,151531
step02_gravity_refstate-crust.xmf,131,-2.21002e-06,6.12197e-06,0,2.32403e-06,-9.89534e+08,-9.88962e+08,-9.89382e+08,159429,-0.0236,0.101732,-0,0.104434,-21072.4,-36025.5,-0,41735.9,159429
step02_gravity_refstate-crust.xmf,132,-2.55914e-06,6.67151e-06,0,2.44376e-06,-1.03275e+09,-1.03211e+09,-1.03257e+09,167642,-0.0245139,0.0976281,-0,0.100659,-20040.4,-37598.1,-0,42605.6,167642
step02_gravity_refstate-crust.xmf,133,-2.94439e-06,7.11341e-06,0,2.86923e-06,-1.06493e+09,-1.06424e+09,-1.06473e+09,196829,-0.0271658,0.0994431,-0,0.103087,-18531.4,-38769.1,-0,42970.4,196829
step02_gravity_refstate-crust.xmf,134,-9.83322e-07,2.44038e-06,0,-1.21738e-10,-4.45793e+08,-4.45559e+08,-4.45726e+08,-8.35125,-3.5823e-19,0.138788,-0,0.138788,-40000,-16229.4,-0,43167,8.35125
step02_gravity_refstate-crust.xmf,135,-9.50843e-07,2.19703e-06,0,2.48036e-07,-4.04786e+08,-4.0457e+08,-4.04721e+08,17015.2,-0.00221155,0.142784,-0,0.142801,-37689.4,-14736.2,-0,40467.8,17015.2
step02_gravity_refstate-crust.xmf,136,-9.4317e-07,1.97039e-06,0,4.69606e-10,-3.62823e+08,-3.62623e+08,-3.62758e+08,32.2149,-1.19592e-19,0.145432,-0,0.145432,-40000,-13208.2,-0,42124.3,32.2149
step02_gravity_refstate-crust.xmf,137,-9.26128e-07,1.74497e-06,0,2.41027e-07,-3.22305e+08,-3.22122e+08,-3.22241e+08,16534.5,-0.00238398,0.148797,-0,0.148816,-37458.1,-11732.8,-0,39252.6,16534.5
step02_gravity_refstate-crust.xmf,138,-9.5381e-07,1.51967e-06,0,3.93321e-09,-2.76998e+08,-2.76828e+08,-2.76932e+08,269.818,-2.00934e-19,0.150875,-0,0.150875,-40000,-10082.9,-0,41251.2,269.818
step02_gravity_refstate-crust.xmf,139,-1.10009e-06,3.47197e-06,0,1.16109e-06,-6.35252e+08,-6.34938e+08,-6.35177e+08,79650.5,-0.0106843,0.128133,-0,0.128578,-30446.9,-23127.9,-0,38235,79650.5
step02_gravity_refstate-crust.xmf,140,-1.06263e-06,3.16927e-06,0,7.23129e-07,-5.75635e+08,-5.75345e+08,-5.75562e+08,49606.7,-0.00649581,0.12938,-0,0.129543,-33964.1,-20957.2,-0,39909.5,49606.7
step02_gravity_refstate-crust.xmf,141,-1.6322e-06,5.02474e-06,0,2.06976e-06,-8.78738e+08,-8.78281e+08,-8.78626e+08,141986,-0.0208311,0.112529,-0,0.11444,-23458.1,-31992.5,-0,39671.2,141986
step02_gravity_refstate-crust.xmf,142,-9.59685e-07,1.29759e-06,0,2.31719e-07,-2.31444e+08,-2.31289e+08,-2.31378e+08,15895.9,-0.00289546,0.154023,-0,0.15405,-37063.3,-8424.07,-0,38008.6,15895.9
step02_gravity_refstate-crust.xmf,143,-1.04663e-06,1.12506e-06,0,3.28209e-09,-1.88096e+08,-1.87947e+08,-1.88024e+08,225.151,-1.99995e-19,0.155162,-0,0.155162,-40000,-6845.33,-0,40581.5,225.151
step02_gravity_refstate-crust.xmf,144,-9.95928e-07,2.75792e-06,0,7.08417e-07,-5.08633e+08,-5.08375e+08,-5.08564e+08,48597.4,-0.00615574,0.136628,-0,0.136766,-33950.2,-18517.5,-0,38671.9,48597.4
step02_gravity_refstate-crust.xmf,145,-1.02831e-06,3.0714e-06,0,1.01852e-06,-5.68468e+08,-5.68187e+08,-5.68397e+08,69870.5,-0.00899499,0.133983,-0,0.134284,-31526,-20696.2,-0,37712.3,69870.5
step02_gravity_refstate-crust.xmf,146,-1.0706e-06,3.41153e-06,0,1.44043e-06,-6.38174e+08,-6.37867e+08,-6.38101e+08,98813.2,-0.0130471,0.13278,-0,0.13342,-28296.2,-23234.3,-0,36613,98813.2
step02_gravity_refstate-crust.xmf,147,-1.14411e-06,3.70652e-06,0,1.61346e-06,-6.89594e+08,-6.89261e+08,-6.89516e+08,110683,-0.0149752,0.12946,-0,0.130323,-27076.2,-25106.5,-0,36925,110683
step02_gravity_refstate-crust.xmf,148,-1.23857e-06,4.01938e-06,0,1.77924e-06,-7.41208e+08,-7.40847e+08,-7.41123e+08,122056,-0.0169018,0.125841,-0,0.126971,-25904.4,-26985.6,-0,37406.7,122056
step02_gravity_refstate-crust.xmf,149,-1.49938e-06,4.67987e-06,0,2.08227e-06,-8.38071e+08,-8.37648e+08,-8.37969e+08,142844,-0.0204284,0.118481,-0,0.12023,-23750.4,-30512,-0,38666,142844
step02_gravity_refstate-crust.xmf,150,-1.35651e-06,4.34718e-06,0,1.92977e-06,-7.91126e+08,-7.90735e+08,-7.91033e+08,132382,-0.0186936,0.121996,-0,0.12342,-24828.1,-28803,-0,38026.9,132382
step02_gravity_refstate-crust.xmf,151,-1.62333e-06,4.89695e-06,0,2.35663e-06,-8.73749e+08,-8.73302e+08,-8.73638e+08,161665,-0.0228247,0.118888,-0,0.121059,-22240.2,-31810.7,-0,38814.3,161665
step02_gravity_refstate-crust.xmf,152,-1.79858e-06,5.21224e-06,0,2.54103e-06,-9.11779e+08,-9.11298e+08,-9.11655e+08,174315,-0.0244723,0.116831,-0,0.119366,-21239.4,-33195,-0,39408.4,174315
step02_gravity_refstate-crust.xmf,153,-2.01858e-06,5.5748e-06,0,2.72757e-06,-9.50131e+08,-9.4961e+08,-9.49992e+08,187111,-0.026003,0.114461,-0,0.117378,-20294.6,-34590.9,-0,40104.9,187111
step02_gravity_refstate-crust.xmf,154,-2.28883e-06,5.97771e-06,0,2.94617e-06,-9.87863e+08,-9.87296e+08,-9.87706e+08,202107,-0.0275736,0.112414,-0,0.115746,-19321.7,-35964.1,-0,40825.8,202107
step02_gravity_refstate-crust.xmf,155,-2.61336e-06,6.40006e-06,0,3.25599e-06,-1.02408e+09,-1.02346e+09,-1.0239e+09,223361,-0.0295008,0.111695,-0,0.115526,-18221.5,-37282.1,-0,41496.7,223361
step02_gravity_refstate-crust.xmf,156,-2.9873e-06,6.88197e-06,0,3.68607e-06,-1.0591e+09,-1.05843e+09,-1.0589e+09,252864,-0.031972,0.112693,-0,0.11714,-16992.6,-38556.3,-0,42134.7,252864
step02_gravity_refstate-crust.xmf,157,-9.02557e-07,1.5584e-06,0,4.2218e-07,-2.90078e+08,-2.89909e+08,-2.90016e+08,28961.6,-0.00446718,0.152293,-0,0.152359,-35217.1,-10559.3,-0,36766,28961.6
step02_gravity_refstate-crust.xmf,158,-9.12831e-07,1.26464e-06,0,4.54793e-07,-2.30926e+08,-2.30777e+08,-2.30864e+08,31198.8,-0.00567883,0.156406,-0,0.156509,-34120.1,-8405.37,-0,35140.2,31198.8
step02_gravity_refstate-crust.xmf,159,-1.12849e-06,9.47553e-07,0,1.40638e-07,-1.40709e+08,-1.40566e+08,-1.40631e+08,9647.76,-0.00291927,0.157536,-0,0.157563,-37457.1,-5119.54,-0,37805.4,9647.76
step02_gravity_refstate-crust.xmf,160,-1.28384e-06,8.22203e-07,0,2.46756e-09,-9.5895e+07,-9.57505e+07,-9.58069e+07,169.274,-2.39573e-19,0.158426,-0,0.158426,-40000,-3487.23,-0,40151.7,169.274
step02_gravity_refstate-crust.xmf,161,-9.52797e-07,2.38061e-06,0,5.12737e-07,-4.41646e+08,-4.41417e+08,-4.4158e+08,35173.8,-0.00445244,0.141294,-0,0.141364,-35416.1,-16078.4,-0,38894.9,35173.8
step02_gravity_refstate-crust.xmf,162,-9.00122e-07,1.95274e-06,0,5.34922e-07,-3.66471e+08,-3.66275e+08,-3.66409e+08,36695.7,-0.00492666,0.14792,-0,0.148002,-34698.4,-13341.1,-0,37174.8,36695.7
step02_gravity_refstate-crust.xmf,163,-1.01846e-06,3.1584e-06,0,1.28941e-06,-5.93086e+08,-5.92799e+08,-5.93016e+08,88453.2,-0.0114314,0.13559,-0,0.136071,-29365.4,-21592.7,-0,36449.5,88453.2
step02_gravity_refstate-crust.xmf,164,-8.40389e-07,1.56537e-06,0,6.46071e-07,-2.99246e+08,-2.99081e+08,-2.99188e+08,44320.5,-0.00660434,0.154533,-0,0.154674,-32745.4,-10893.4,-0,34509.8,44320.5
step02_gravity_refstate-crust.xmf,165,-1.02533e-06,1.03497e-06,0,3.03923e-07,-1.70513e+08,-1.70372e+08,-1.70443e+08,20849.1,-0.0051113,0.157907,-0,0.157989,-35203.2,-6205.16,-0,35745.9,20849.1
step02_gravity_refstate-crust.xmf,166,-1.36919e-06,7.45355e-07,0,7.35673e-08,-6.74649e+07,-6.73198e+07,-6.7371e+07,5046.71,-0.0034021,0.159765,-0,0.159801,-37548.2,-2451.74,-0,37628.2,5046.71
step02_gravity_refstate-crust.xmf,167,-1.73771e-06,6.64168e-07,0,-1.53127e-08,-164867,-97.9392,-45659.9,-1050.45,-1.70753e-19,0.160974,-0,0.160974,-40000,0,-0,40000,1050.45
step02_gravity_refstate-crust.xmf,168,-9.06912e-07,2.30708e-06,0,7.92635e-07,-4.36919e+08,-4.36699e+08,-4.36857e+08,54374.7,-0.00684948,0.144778,-0,0.14494,-32812.2,-15906.4,-0,36464.4,54374.7
step02_gravity_refstate-crust.xmf,169,-9.29776e-07,2.81433e-06,0,1.30043e-06,-5.41485e+08,-5.41229e+08,-5.41422e+08,89209.4,-0.0112084,0.142051,-0,0.142492,-28993.3,-19713.9,-0,35060.6,89209.4
step02_gravity_refstate-crust.xmf,170,-9.18055e-07,2.59009e-06,0,1.05646e-06,-4.93987e+08,-4.93746e+08,-4.93924e+08,72473.2,-0.00905149,0.14297,-0,0.143257,-30814.6,-17984.4,-0,35678.8,72473.2
step02_gravity_refstate-crust.xmf,171,-9.54206e-07,3.02661e-06,0,1.51231e-06,-5.85943e+08,-5.8567e+08,-5.85878e+08,103744,-0.0131868,0.140985,-0,0.1416,-27495.1,-21332.7,-0,34800.3,103744
step02_gravity_refstate-crust.xmf,172,-1.00896e-06,3.29261e-06,0,1.71714e-06,-6.37688e+08,-6.37393e+08,-6.37619e+08,117796,-0.0152469,0.138743,-0,0.139579,-26174.3,-23216.7,-0,34987.3,117796
step02_gravity_refstate-crust.xmf,173,-1.08443e-06,3.57245e-06,0,1.91444e-06,-6.8951e+08,-6.8919e+08,-6.89436e+08,131331,-0.0173221,0.13611,-0,0.137208,-24969,-25103.4,-0,35406.7,131331
step02_gravity_refstate-crust.xmf,174,-1.1828e-06,3.866e-06,0,2.11123e-06,-7.40772e+08,-7.40425e+08,-7.4069e+08,144830,-0.0194091,0.133261,-0,0.134667,-23828.7,-26969.7,-0,35988.5,144830
step02_gravity_refstate-crust.xmf,175,-1.42408e-06,4.41811e-06,0,2.53412e-06,-8.31239e+08,-8.30838e+08,-8.31141e+08,173840,-0.0235137,0.129084,-0,0.131208,-21606,-30263.2,-0,37184.4,173840
step02_gravity_refstate-crust.xmf,176,-1.30009e-06,4.15688e-06,0,2.30843e-06,-7.88477e+08,-7.88103e+08,-7.88388e+08,158358,-0.0214271,0.130631,-0,0.132377,-22749,-28706.5,-0,36627.6,158358
step02_gravity_refstate-crust.xmf,177,-1.56779e-06,4.68001e-06,0,2.78251e-06,-8.71448e+08,-8.7102e+08,-8.71341e+08,190880,-0.0255963,0.127989,-0,0.130523,-20495.3,-31726.8,-0,37771,190880
step02_gravity_refstate-crust.xmf,178,-1.74847e-06,4.97756e-06,0,3.02616e-06,-9.10233e+08,-9.09772e+08,-9.10113e+08,207595,-0.0274975,0.126542,-0,0.129495,-19532.1,-33138.6,-0,38466.4,207595
step02_gravity_refstate-crust.xmf,179,-1.96522e-06,5.30088e-06,0,3.28906e-06,-9.47449e+08,-9.4695e+08,-9.47314e+08,225629,-0.029352,0.125235,-0,0.128628,-18617.4,-34493.1,-0,39196.7,225629
step02_gravity_refstate-crust.xmf,180,-2.22251e-06,5.64595e-06,0,3.60233e-06,-9.83493e+08,-9.82953e+08,-9.8334e+08,247120,-0.0313171,0.124501,-0,0.128379,-17678.7,-35804.8,-0,39931.4,247120
step02_gravity_refstate-crust.xmf,181,-2.50771e-06,5.99246e-06,0,3.96803e-06,-1.01654e+09,-1.01595e+09,-1.01636e+09,272207,-0.0333768,0.124623,-0,0.129015,-16748.4,-37007.1,-0,40620.6,272207
step02_gravity_refstate-crust.xmf,182,-3.12034e-06,6.80588e-06,0,4.51594e-06,-1.07066e+09,-1.06998e+09,-1.07045e+09,309793,-0.0361394,0.12271,-0,0.127921,-15536.6,-38976.5,-0,41958.9,309793
step02_gravity_refstate-crust.xmf,183,-8.15712e-07,1.20748e-06,0,6.51321e-07,-2.30108e+08,-2.29969e+08,-2.30052e+08,44680.6,-0.00810286,0.160055,-0,0.16026,-31321.6,-8375.87,-0,32422.2,44680.6
step02_gravity_refstate-crust.xmf,184,-9.60664e-07,9.55501e-07,0,4.27374e-07,-1.60286e+08,-1.60154e+08,-1.6022e+08,29317.9,-0.00765645,0.160834,-0,0.161016,-32760.9,-5832.96,-0,33276.1,29317.9
step02_gravity_refstate-crust.xmf,185,-1.22421e-06,7.64498e-07,0,2.05528e-07,-8.85359e+07,-8.83995e+07,-8.84519e+07,14099.2,-0.00676242,0.161011,-0,0.161153,-34720.9,-3219.47,-0,34869.9,14099.2
step02_gravity_refstate-crust.xmf,186,-1.67146e-06,6.32799e-07,0,-8.40111e-09,-158838,-766.18,-44176.2,-576.316,-0.00613216,0.162006,-0,0.162122,-36412.7,0,-0,36412.7,576.316
step02_gravity_refstate-crust.xmf,187,-2.70622e-06,6.20075e-06,0,4.39029e-06,-1.03995e+09,-1.03934e+09,-1.03977e+09,301174,-0.0355904,0.127099,-0,0.131988,-15846.1,-37859.1,-0,41041.6,301174
step02_gravity_refstate-crust.xmf,188,-3.11496e-06,6.5371e-06,0,5.26986e-06,-1.07727e+09,-1.07661e+09,-1.07706e+09,361513,-0.0395509,0.132347,-0,0.13813,-14418.4,-39216.7,-0,41783.2,361513
step02_gravity_refstate-crust.xmf,189,-8.17082e-07,1.90166e-06,0,8.61992e-07,-3.69403e+08,-3.69216e+08,-3.69347e+08,59132.7,-0.00779457,0.152165,-0,0.152364,-31364.6,-13448.1,-0,34126.1,59132.7
step02_gravity_refstate-crust.xmf,190,-7.39436e-07,1.50323e-06,0,8.76549e-07,-2.99769e+08,-2.99615e+08,-2.99718e+08,60131.2,-0.00882122,0.158912,-0,0.159157,-29935.7,-10912.7,-0,31862.7,60131.2
step02_gravity_refstate-crust.xmf,191,-8.08202e-07,2.16223e-06,0,1.10521e-06,-4.2767e+08,-4.27466e+08,-4.27614e+08,75817.5,-0.00946559,0.150882,-0,0.151178,-29688.8,-15569.8,-0,33523.8,75817.5
step02_gravity_refstate-crust.xmf,192,-8.25427e-07,2.64223e-06,0,1.56263e-06,-5.33591e+08,-5.33354e+08,-5.33535e+08,107196,-0.01323,0.148861,-0,0.149448,-26566.5,-19426.7,-0,32911.6,107196
step02_gravity_refstate-crust.xmf,193,-8.02058e-07,2.39545e-06,0,1.35128e-06,-4.80743e+08,-4.80523e+08,-4.80688e+08,92697.8,-0.0114076,0.15031,-0,0.150743,-27917.4,-17502.4,-0,32950.2,92697.8
step02_gravity_refstate-crust.xmf,194,-8.56576e-07,2.87733e-06,0,1.78189e-06,-5.8549e+08,-5.85233e+08,-5.85431e+08,122238,-0.015248,0.147523,-0,0.148309,-25210.6,-21316.3,-0,33014.6,122238
step02_gravity_refstate-crust.xmf,195,-1.28429e-06,4.10702e-06,0,2.94343e-06,-8.2838e+08,-8.2801e+08,-8.28292e+08,201919,-0.0260346,0.139036,-0,0.141452,-19709.2,-30159.2,-0,36028.1,201919
step02_gravity_refstate-crust.xmf,196,-9.07857e-07,3.12483e-06,0,1.99995e-06,-6.3823e+08,-6.37954e+08,-6.38168e+08,137196,-0.0173628,0.14574,-0,0.146771,-23977.4,-23236.6,-0,33389.4,137196
step02_gravity_refstate-crust.xmf,197,-9.79816e-07,3.38117e-06,0,2.2194e-06,-6.9038e+08,-6.90081e+08,-6.90313e+08,152251,-0.0195318,0.143667,-0,0.144988,-22844.3,-25135.3,-0,33965.3,152251
step02_gravity_refstate-crust.xmf,198,-1.07051e-06,3.63854e-06,0,2.44208e-06,-7.40053e+08,-7.3973e+08,-7.3998e+08,167526,-0.0216909,0.141579,-0,0.143231,-21791.2,-26943.7,-0,34652.8,167526
step02_gravity_refstate-crust.xmf,199,-1.17074e-06,3.87769e-06,0,2.68597e-06,-7.86146e+08,-7.858e+08,-7.86066e+08,184257,-0.0238919,0.140101,-0,0.142124,-20720.2,-28621.7,-0,35334.5,184257
step02_gravity_refstate-crust.xmf,200,-1.42397e-06,4.34959e-06,0,3.22295e-06,-8.6911e+08,-8.68714e+08,-8.69012e+08,221094,-0.0281696,0.138107,-0,0.140951,-18751.1,-31641.8,-0,36780.5,221094
step02_gravity_refstate-crust.xmf,201,-1.59607e-06,4.61369e-06,0,3.52219e-06,-9.08072e+08,-9.07646e+08,-9.07962e+08,241622,-0.0302559,0.137232,-0,0.140527,-17865.6,-33059.9,-0,37578.4,241622
step02_gravity_refstate-crust.xmf,202,-1.79639e-06,4.88787e-06,0,3.85749e-06,-9.44926e+08,-9.44467e+08,-9.44802e+08,264624,-0.0323629,0.136787,-0,0.140563,-17002.4,-34401.3,-0,38373.5,264624
step02_gravity_refstate-crust.xmf,203,-2.01681e-06,5.15615e-06,0,4.24977e-06,-9.79381e+08,-9.78889e+08,-9.79243e+08,291535,-0.0345756,0.137173,-0,0.141463,-16126.8,-35655.2,-0,39132.6,291535
step02_gravity_refstate-crust.xmf,204,-2.25894e-06,5.4242e-06,0,4.70265e-06,-1.01159e+09,-1.01106e+09,-1.01143e+09,322602,-0.0368848,0.138281,-0,0.143116,-15267.1,-36827.1,-0,39866.3,322602
step02_gravity_refstate-crust.xmf,205,-2.60715e-06,5.79429e-06,0,5.23125e-06,-1.04605e+09,-1.04547e+09,-1.04587e+09,358863,-0.0393483,0.139148,-0,0.144605,-14437.5,-38080.8,-0,40725.8,358863
step02_gravity_refstate-crust.xmf,206,-2.78552e-06,5.85233e-06,0,6.01529e-06,-1.07203e+09,-1.07143e+09,-1.07183e+09,412649,-0.0426554,0.145308,-0,0.151439,-13352,-39026,-0,41246.8,412649
step02_gravity_refstate-crust.xmf,207,-6.78876e-07,1.13394e-06,0,8.34769e-07,-2.30533e+08,-2.30409e+08,-2.30486e+08,57265.2,-0.0102237,0.164945,-0,0.165261,-28476.9,-8391.8,-0,29687.6,57265.2
step02_gravity_refstate-crust.xmf,208,-8.20507e-07,8.9195e-07,0,5.74936e-07,-1.59808e+08,-1.59691e+08,-1.59752e+08,39440.6,-0.0102213,0.165027,-0,0.165344,-29890.1,-5816.04,-0,30450.7,39440.6
step02_gravity_refstate-crust.xmf,209,-1.07654e-06,6.81514e-07,0,2.9646e-07,-8.17546e+07,-8.1634e+07,-8.16808e+07,20337.2,-0.0108348,0.16508,-0,0.165435,-31321.6,-2973.06,-0,31462.4,20337.2
step02_gravity_refstate-crust.xmf,210,-1.50362e-06,5.66946e-07,0,7.87708e-10,-142986,-945.898,-39838.4,54.0368,-0.0116781,0.164922,-0,0.165335,-32925.8,0,-0,32925.8,54.0368
step02_gravity_refstate-crust.xmf,211,-6.95911e-07,1.76872e-06,0,1.11894e-06,-3.62429e+08,-3.6226e+08,-3.62381e+08,76759,-0.0100487,0.158285,-0,0.158604,-28349.1,-13194.5,-0,31269.3,76759
step02_gravity_refstate-crust.xmf,212,-5.96395e-07,1.3927e-06,0,1.08278e-06,-2.97022e+08,-2.96886e+08,-2.96981e+08,74278.9,-0.0107718,0.164887,-0,0.165238,-27021,-10813.1,-0,29104.2,74278.9
step02_gravity_refstate-crust.xmf,213,-6.65302e-07,1.98329e-06,0,1.37197e-06,-4.19247e+08,-4.19065e+08,-4.19201e+08,94117,-0.0116325,0.158274,-0,0.158701,-26646.4,-15263.5,-0,30708.4,94117
step02_gravity_refstate-crust.xmf,214,-6.88116e-07,2.4575e-06,0,1.8153e-06,-5.32261e+08,-5.32045e+08,-5.32213e+08,124529,-0.0150867,0.156149,-0,0.156876,-24082.5,-19378.5,-0,30911,124529
step02_gravity_refstate-crust.xmf,215,-6.736e-07,2.23482e-06,0,1.59581e-06,-4.77946e+08,-4.77747e+08,-4.779e+08,109473,-0.0132665,0.157128,-0,0.157687,-25345.4,-17400.8,-0,30743.7,109473
step02_gravity_refstate-crust.xmf,216,-1.06579e-06,3.70929e-06,0,3.33077e-06,-8.27429e+08,-8.27102e+08,-8.27356e+08,228491,-0.0281498,0.149254,-0,0.151886,-17888.1,-30124.8,-0,35035.5,228491
step02_gravity_refstate-crust.xmf,217,-7.16551e-07,2.67992e-06,0,2.03865e-06,-5.86524e+08,-5.86291e+08,-5.86475e+08,139852,-0.0170913,0.15491,-0,0.15585,-22896.1,-21354.3,-0,31308.7,139852
step02_gravity_refstate-crust.xmf,218,-9.68426e-07,3.51757e-06,0,3.03563e-06,-7.84904e+08,-7.84596e+08,-7.84837e+08,208245,-0.0259198,0.149877,-0,0.152102,-18794.4,-28576.7,-0,34203.2,208245
step02_gravity_refstate-crust.xmf,219,-7.61663e-07,2.90314e-06,0,2.26583e-06,-6.39772e+08,-6.3952e+08,-6.39719e+08,155436,-0.0192071,0.1534,-0,0.154598,-21812.1,-23292.9,-0,31911.2,155436
step02_gravity_refstate-crust.xmf,220,-8.19459e-07,3.11933e-06,0,2.5035e-06,-6.90875e+08,-6.90605e+08,-6.90819e+08,171740,-0.0214025,0.151928,-0,0.153428,-20779.4,-25153.5,-0,32626.4,171740
step02_gravity_refstate-crust.xmf,221,-8.93086e-07,3.33351e-06,0,2.7601e-06,-7.40345e+08,-7.40056e+08,-7.40284e+08,189343,-0.0236735,0.150563,-0,0.152412,-19780,-26954.6,-0,33433.5,189343
step02_gravity_refstate-crust.xmf,222,-1.18758e-06,3.91123e-06,0,3.65074e-06,-8.67989e+08,-8.67639e+08,-8.67908e+08,250441,-0.0303702,0.148765,-0,0.151834,-17043.7,-31601.3,-0,35904.4,250441
step02_gravity_refstate-crust.xmf,223,-1.33432e-06,4.12149e-06,0,4.001e-06,-9.06302e+08,-9.05928e+08,-9.06211e+08,274469,-0.0325835,0.148544,-0,0.152076,-16245.9,-32995.8,-0,36778.4,274469
step02_gravity_refstate-crust.xmf,224,-1.49852e-06,4.32402e-06,0,4.40611e-06,-9.42677e+08,-9.42277e+08,-9.42574e+08,302259,-0.0348863,0.149013,-0,0.153042,-15436.2,-34319.7,-0,37631.4,302259
step02_gravity_refstate-crust.xmf,225,-1.68015e-06,4.51905e-06,0,4.87359e-06,-9.7706e+08,-9.76635e+08,-9.76945e+08,334328,-0.0372883,0.150213,-0,0.154772,-14627.8,-35571,-0,38461.3,334328
step02_gravity_refstate-crust.xmf,226,-1.89006e-06,4.71253e-06,0,5.42711e-06,-1.01039e+09,-1.00994e+09,-1.01026e+09,372299,-0.0398715,0.152206,-0,0.157342,-13811.3,-36784.1,-0,39291.5,372299
step02_gravity_refstate-crust.xmf,227,-2.26529e-06,4.91011e-06,0,6.89583e-06,-1.07025e+09,-1.06975e+09,-1.07009e+09,473054,-0.0458005,0.160852,-0,0.167245,-12084.5,-38961.8,-0,40792.8,473054
step02_gravity_refstate-crust.xmf,228,-2.07426e-06,4.8257e-06,0,6.10307e-06,-1.04107e+09,-1.0406e+09,-1.04093e+09,418671,-0.04273,0.156004,-0,0.16175,-12937.1,-37900.3,-0,40047.5,418671
step02_gravity_refstate-crust.xmf,229,-5.0485e-07,1.03882e-06,0,9.94248e-07,-2.31586e+08,-2.3148e+08,-2.31551e+08,68205.4,-0.0119081,0.170916,-0,0.17133,-25613,-8430.67,-0,26964.8,68205.4
step02_gravity_refstate-crust.xmf,230,-6.34594e-07,8.26426e-07,0,7.22345e-07,-1.64496e+08,-1.64396e+08,-1.64453e+08,49552.9,-0.0122188,0.170213,-0,0.170651,-27007.7,-5987.36,-0,27663.4,49552.9
step02_gravity_refstate-crust.xmf,231,-8.48986e-07,5.91273e-07,0,3.86193e-07,-8.15645e+07,-8.14657e+07,-8.15062e+07,26492.8,-0.0139418,0.170258,-0,0.170828,-28101.5,-2966.92,-0,28257.7,26492.8
step02_gravity_refstate-crust.xmf,232,-1.23434e-06,4.65389e-07,0,4.02809e-09,-117381,-779.492,-32705.2,276.327,-0.0163503,0.169419,-0,0.170206,-29529.6,0,-0,29529.6,276.327
step02_gravity_refstate-crust.xmf,233,-7.55343e-07,3.2086e-06,0,3.67292e-06,-8.26831e+08,-8.26559e+08,-8.26779e+08,251962,-0.0297291,0.159845,-0,0.162586,-16132.3,-30103.5,-0,34153.6,251962
step02_gravity_refstate-crust.xmf,234,-5.46994e-07,1.62672e-06,0,1.32848e-06,-3.58999e+08,-3.5885e+08,-3.58962e+08,91133.4,-0.0117753,0.164945,-0,0.165364,-25541.4,-13070,-0,28691.2,91133.4
step02_gravity_refstate-crust.xmf,235,-4.25962e-07,1.2688e-06,0,1.24826e-06,-2.96384e+08,-2.96268e+08,-2.96355e+08,85630.6,-0.0121961,0.17147,-0,0.171903,-24235.5,-10790.4,-0,26529.1,85630.6
step02_gravity_refstate-crust.xmf,236,-5.21555e-07,1.83829e-06,0,1.57337e-06,-4.19703e+08,-4.19541e+08,-4.19667e+08,107933,-0.0131302,0.164799,-0,0.165321,-24132,-15280.5,-0,28563,107933
step02_gravity_refstate-crust.xmf,237,-5.06016e-07,2.22701e-06,0,2.03101e-06,-5.32452e+08,-5.32264e+08,-5.32417e+08,139327,-0.0165672,0.164106,-0,0.164941,-21614.6,-19385.8,-0,29034.5,139327
step02_gravity_refstate-crust.xmf,238,-5.06791e-07,2.03675e-06,0,1.80319e-06,-4.76612e+08,-4.76438e+08,-4.76578e+08,123699,-0.0147439,0.164628,-0,0.165286,-22804.9,-17352.7,-0,28656.2,123699
step02_gravity_refstate-crust.xmf,239,-1.54712e-06,3.74687e-06,0,7.68874e-06,-1.06927e+09,-1.06891e+09,-1.06917e+09,527447,-0.0480593,0.176703,-0,0.183122,-10870.8,-38927.6,-0,40416.9,527447
step02_gravity_refstate-crust.xmf,240,-6.91055e-07,3.07466e-06,0,3.34024e-06,-7.84442e+08,-7.84184e+08,-7.84395e+08,229141,-0.027429,0.159856,-0,0.162192,-16957.3,-28560.4,-0,33215.1,229141
step02_gravity_refstate-crust.xmf,241,-5.32423e-07,2.43065e-06,0,2.25564e-06,-5.87767e+08,-5.87564e+08,-5.87731e+08,154737,-0.0185188,0.162774,-0,0.163824,-20663.6,-21399.9,-0,29747.9,154737
step02_gravity_refstate-crust.xmf,242,-6.48511e-07,2.95212e-06,0,3.03693e-06,-7.41e+08,-7.40753e+08,-7.40956e+08,208334,-0.0251782,0.159856,-0,0.161826,-17858,-26978.8,-0,32353.7,208334
step02_gravity_refstate-crust.xmf,243,-5.62565e-07,2.61665e-06,0,2.49557e-06,-6.41008e+08,-6.4079e+08,-6.4097e+08,171196,-0.0206391,0.161614,-0,0.162926,-19705.4,-23338.3,-0,30544.7,171196
step02_gravity_refstate-crust.xmf,244,-6.01873e-07,2.79248e-06,0,2.75169e-06,-6.92019e+08,-6.91786e+08,-6.91978e+08,188766,-0.0228592,0.160566,-0,0.162185,-18782.1,-25195.5,-0,31425.8,188766
step02_gravity_refstate-crust.xmf,245,-8.53121e-07,3.36382e-06,0,4.03249e-06,-8.67432e+08,-8.67143e+08,-8.67373e+08,276629,-0.0320262,0.159741,-0,0.16292,-15401.1,-31581.5,-0,35136.6,276629
step02_gravity_refstate-crust.xmf,246,-9.65674e-07,3.50925e-06,0,4.43445e-06,-9.0548e+08,-9.05173e+08,-9.05413e+08,304203,-0.0343468,0.160146,-0,0.163788,-14684.3,-32966.4,-0,36089,304203
step02_gravity_refstate-crust.xmf,247,-1.06586e-06,3.60554e-06,0,4.90745e-06,-9.4117e+08,-9.4085e+08,-9.41097e+08,336651,-0.0367875,0.161747,-0,0.165878,-13906.6,-34265.5,-0,36980,336651
step02_gravity_refstate-crust.xmf,248,-1.19231e-06,3.70765e-06,0,5.44818e-06,-9.75766e+08,-9.7543e+08,-9.75684e+08,373745,-0.0393421,0.163806,-0,0.168464,-13159.2,-35524.7,-0,37883.6,373745
step02_gravity_refstate-crust.xmf,249,-1.3028e-06,3.74916e-06,0,6.0894e-06,-1.00846e+09,-1.00811e+09,-1.00837e+09,417733,-0.0420806,0.167215,-0,0.172429,-12372.1,-36714.4,-0,38743,417733
step02_gravity_refstate-crust.xmf,250,-1.3963e-06,3.72919e-06,0,6.84127e-06,-1.03928e+09,-1.03893e+09,-1.03919e+09,469311,-0.045,0.171901,-0,0.177693,-11577.8,-37836.3,-0,39568,469311
step02_gravity_refstate-crust.xmf,251,-4.20148e-07,7.28792e-07,0,8.22093e-07,-1.64795e+08,-1.64716e+08,-1.64766e+08,56395.6,-0.013706,0.176351,-0,0.176883,-24172.7,-5998.94,-0,24905.9,56395.6
step02_gravity_refstate-crust.xmf,252,-3.08699e-07,9.29003e-07,0,1.11596e-06,-2.33393e+08,-2.33308e+08,-2.33372e+08,76554.6,-0.0130112,0.177431,-0,0.177908,-22854.4,-8497.11,-0,24382.9,76554.6
step02_gravity_refstate-crust.xmf,253,-5.48382e-07,4.7548e-07,0,4.73739e-07,-8.33567e+07,-8.32865e+07,-8.33191e+07,32498.5,-0.016272,0.177106,-0,0.177852,-24636.6,-3033.2,-0,24822.6,32498.5
step02_gravity_refstate-crust.xmf,254,-8.88808e-07,3.35697e-07,0,7.45494e-09,-84497.2,-496.108,-23524.9,511.409,-0.0198964,0.175133,-0,0.17626,-26214.4,0,-0,26214.4,511.409
step02_gravity_refstate-crust.xmf,255,-3.18799e-07,2.5247e-06,0,3.59193e-06,-7.84761e+08,-7.84566e+08,-7.8474e+08,246407,-0.0283804,0.170375,-0,0.172722,-15113.6,-28572.6,-0,32323.6,246407
step02_gravity_refstate-crust.xmf,256,-3.77933e-07,2.64994e-06,0,3.95842e-06,-8.2939e+08,-8.29182e+08,-8.29364e+08,271547,-0.0307954,0.170162,-0,0.172926,-14465.2,-30197.4,-0,33483.1,271547
step02_gravity_refstate-crust.xmf,257,-3.73878e-07,1.47713e-06,0,1.49487e-06,-3.5921e+08,-3.59083e+08,-3.59184e+08,102548,-0.0130098,0.171932,-0,0.172423,-22864.2,-13078.2,-0,26340.2,102548
step02_gravity_refstate-crust.xmf,258,-2.33994e-07,1.13258e-06,0,1.37045e-06,-2.97855e+08,-2.97761e+08,-2.97839e+08,94012.9,-0.0130833,0.178398,-0,0.178877,-21549.3,-10844.5,-0,24124.1,94012.9
step02_gravity_refstate-crust.xmf,259,-3.10955e-07,1.99183e-06,0,2.18722e-06,-5.35715e+08,-5.35557e+08,-5.35693e+08,150044,-0.0175368,0.171379,-0,0.172274,-19456.2,-19505.1,-0,27549.8,150044
step02_gravity_refstate-crust.xmf,260,-3.32742e-07,1.6424e-06,0,1.73469e-06,-4.19242e+08,-4.19106e+08,-4.19219e+08,118999,-0.0142422,0.172383,-0,0.17297,-21517.4,-15264.1,-0,26381.7,118999
step02_gravity_refstate-crust.xmf,261,-3.14422e-07,1.82221e-06,0,1.96215e-06,-4.78737e+08,-4.7859e+08,-4.78715e+08,134603,-0.0157772,0.172104,-0,0.172825,-20404.2,-17430.4,-0,26835.7,134603
step02_gravity_refstate-crust.xmf,262,-6.22367e-07,2.54673e-06,0,7.42732e-06,-1.03942e+09,-1.0392e+09,-1.03937e+09,509514,-0.0462303,0.186595,-0,0.192237,-10369.7,-37842.4,-0,39237.5,509514
step02_gravity_refstate-crust.xmf,263,-5.95629e-07,2.31125e-06,0,8.37325e-06,-1.06916e+09,-1.06896e+09,-1.06912e+09,574405,-0.0493519,0.193272,-0,0.199474,-9662.47,-38924.9,-0,40106.3,574405
step02_gravity_refstate-crust.xmf,264,-3.54628e-07,2.52052e-06,0,3.25283e-06,-7.42405e+08,-7.42208e+08,-7.42381e+08,223144,-0.0261259,0.168913,-0,0.170921,-16079.1,-27030.5,-0,31451.3,223144
step02_gravity_refstate-crust.xmf,265,-3.10358e-07,2.13975e-06,0,2.42197e-06,-5.89978e+08,-5.8981e+08,-5.89957e+08,166147,-0.0194796,0.170686,-0,0.171794,-18548.1,-21480.8,-0,28380.6,166147
step02_gravity_refstate-crust.xmf,266,-3.38914e-07,2.42503e-06,0,2.95082e-06,-6.95438e+08,-6.95249e+08,-6.95415e+08,202427,-0.0238754,0.169027,-0,0.170705,-16899.9,-25320.5,-0,30442.3,202427
step02_gravity_refstate-crust.xmf,267,-3.14596e-07,2.27701e-06,0,2.6787e-06,-6.43446e+08,-6.43268e+08,-6.43424e+08,183758,-0.0216186,0.169987,-0,0.171356,-17670,-23427.5,-0,29344.2,183758
step02_gravity_refstate-crust.xmf,268,-4.4077e-07,2.73747e-06,0,4.34588e-06,-8.68392e+08,-8.68174e+08,-8.68362e+08,298127,-0.0330755,0.170531,-0,0.173709,-13851,-31617.1,-0,34518,298127
step02_gravity_refstate-crust.xmf,269,-4.7097e-07,2.75341e-06,0,4.79194e-06,-9.04437e+08,-9.04216e+08,-9.04405e+08,328727,-0.0353953,0.172207,-0,0.175807,-13151.5,-32929.3,-0,35458.4,328727
step02_gravity_refstate-crust.xmf,270,-5.01061e-07,2.74359e-06,0,5.31469e-06,-9.39987e+08,-9.39764e+08,-9.39953e+08,364588,-0.0378788,0.174669,-0,0.178729,-12432.1,-34223.4,-0,36411.5,364588
step02_gravity_refstate-crust.xmf,271,-5.41343e-07,2.71936e-06,0,5.92031e-06,-9.74835e+08,-9.74611e+08,-9.74798e+08,406133,-0.0405289,0.17776,-0,0.182321,-11729.8,-35491.9,-0,37379.9,406133
step02_gravity_refstate-crust.xmf,272,-5.79621e-07,2.64966e-06,0,6.62149e-06,-1.0079e+09,-1.00768e+09,-1.00786e+09,454234,-0.0433042,0.181783,-0,0.18687,-11035.2,-36695.5,-0,38318.9,454234
step02_gravity_refstate-crust.xmf,273,-3.14966e-07,5.16389e-07,0,6.82234e-07,-1.21812e+08,-1.21755e+08,-1.2179e+08,46801.2,-0.0155367,0.180754,-0,0.181421,-22696.1,-4434.2,-0,23125.2,46801.2
step02_gravity_refstate-crust.xmf,274,-9.54645e-08,8.02945e-07,0,1.19404e-06,-2.35311e+08,-2.3525e+08,-2.35305e+08,81911,-0.0135366,0.184275,-0,0.184771,-20165.3,-8567.61,-0,21909.9,81911
step02_gravity_refstate-crust.xmf,275,-1.89613e-07,6.46287e-07,0,9.35579e-07,-1.74619e+08,-1.74562e+08,-1.74606e+08,64180.7,-0.0143127,0.182676,-0,0.183236,-21426.5,-6357.43,-0,22349.7,64180.7
step02_gravity_refstate-crust.xmf,276,-4.88642e-07,1.85757e-07,0,9.35911e-09,-46403.1,-139.331,-12882.3,642.035,-0.0221505,0.181671,-0,0.183016,-22970.9,0,-0,22970.9,642.035
step02_gravity_refstate-crust.xmf,277,-9.34744e-08,1.73305e-06,0,2.29155e-06,-5.40027e+08,-5.39901e+08,-5.4002e+08,157200,-0.0180752,0.178461,-0,0.179374,-17433.8,-19662.5,-0,26278.3,157200
step02_gravity_refstate-crust.xmf,278,5.13749e-08,1.96074e-06,0,3.38001e-06,-7.39308e+08,-7.39177e+08,-7.39312e+08,231869,-0.0262658,0.179159,-0,0.181074,-14208.7,-26918.5,-0,30438.4,231869
step02_gravity_refstate-crust.xmf,279,1.40071e-07,1.91729e-06,0,3.80812e-06,-7.92061e+08,-7.91939e+08,-7.9207e+08,261237,-0.0289372,0.181215,-0,0.183511,-13199.3,-28839.3,-0,31716.4,261237
step02_gravity_refstate-crust.xmf,280,-2.05011e-08,2.14328e-06,0,4.18652e-06,-8.37061e+08,-8.36912e+08,-8.37059e+08,287195,-0.0314841,0.178535,-0,0.181289,-13102.7,-30477.3,-0,33174.5,287195
step02_gravity_refstate-crust.xmf,281,-1.74147e-07,1.3e-06,0,1.60797e-06,-3.5976e+08,-3.59659e+08,-3.59748e+08,110307,-0.0137323,0.179306,-0,0.179831,-20249.4,-13098.7,-0,24116.7,110307
step02_gravity_refstate-crust.xmf,282,-2.05831e-07,2.9326e-07,0,4.36652e-07,-6.90537e+07,-6.90195e+07,-6.90396e+07,29954.4,-0.0182243,0.184745,-0,0.185642,-21319.7,-2513.59,-0,21467.4,29954.4
step02_gravity_refstate-crust.xmf,283,-2.7239e-08,9.77967e-07,0,1.43761e-06,-2.99107e+08,-2.99038e+08,-2.99105e+08,98619.8,-0.0134234,0.185443,-0,0.185929,-18966,-10890.7,-0,21870.4,98619.8
step02_gravity_refstate-crust.xmf,284,-9.92747e-08,1.59467e-06,0,2.07248e-06,-4.84972e+08,-4.84856e+08,-4.84966e+08,142172,-0.016408,0.179377,-0,0.180125,-18118.8,-17658,-0,25300.1,142172
step02_gravity_refstate-crust.xmf,285,-1.21368e-07,1.43469e-06,0,1.847e-06,-4.23159e+08,-4.23052e+08,-4.2315e+08,126705,-0.014887,0.179898,-0,0.180513,-19006.4,-15407.2,-0,24466.8,126705
step02_gravity_refstate-crust.xmf,286,3.00413e-07,1.37854e-06,0,7.0007e-06,-1.00794e+09,-1.00787e+09,-1.00796e+09,480248,-0.0434918,0.196352,-0,0.201111,-9740.99,-36698.5,-0,37969.3,480248
step02_gravity_refstate-crust.xmf,287,4.53424e-07,1.00632e-06,0,7.86446e-06,-1.039e+09,-1.03896e+09,-1.03903e+09,539502,-0.0463089,0.203018,-0,0.208232,-9071.86,-37829.1,-0,38901.7,539502
step02_gravity_refstate-crust.xmf,288,5.59515e-07,6.66166e-07,0,8.85969e-06,-1.06991e+09,-1.0699e+09,-1.06995e+09,607775,-0.049469,0.209872,-0,0.215624,-8493.04,-38954.5,-0,39869.6,607775
step02_gravity_refstate-crust.xmf,289,-9.64319e-08,2.10725e-06,0,3.09561e-06,-7.03251e+08,-7.031e+08,-7.03244e+08,212359,-0.024534,0.17567,-0,0.177375,-15403.6,-25605.4,-0,29881.6,212359
step02_gravity_refstate-crust.xmf,290,-5.32273e-08,1.80608e-06,0,2.52727e-06,-5.91834e+08,-5.91707e+08,-5.9183e+08,173371,-0.0199105,0.178567,-0,0.179673,-16536.5,-21548.9,-0,27162.7,173371
step02_gravity_refstate-crust.xmf,291,9.15905e-10,1.85914e-06,0,2.82373e-06,-6.49606e+08,-6.49479e+08,-6.49606e+08,193708,-0.0222018,0.178873,-0,0.180246,-15548.1,-23652.5,-0,28305.2,193708
step02_gravity_refstate-crust.xmf,292,5.73437e-08,2.01665e-06,0,4.55962e-06,-8.68256e+08,-8.68121e+08,-8.6826e+08,312790,-0.0333503,0.181175,-0,0.184219,-12392.3,-31613.1,-0,33955.2,312790
step02_gravity_refstate-crust.xmf,293,1.24172e-07,1.89248e-06,0,5.03753e-06,-9.03817e+08,-9.03696e+08,-9.03826e+08,345575,-0.0356139,0.184175,-0,0.187587,-11674.4,-32907.8,-0,34917.3,345575
step02_gravity_refstate-crust.xmf,294,1.97294e-07,1.73224e-06,0,5.61256e-06,-9.39891e+08,-9.39786e+08,-9.39905e+08,385021,-0.0380994,0.187812,-0,0.191637,-10970.8,-34221.2,-0,35936.7,385021
step02_gravity_refstate-crust.xmf,295,1.85301e-07,1.65651e-06,0,6.28329e-06,-9.76831e+08,-9.7673e+08,-9.76844e+08,431034,-0.0409207,0.190906,-0,0.195242,-10409.4,-35565.8,-0,37057.8,431034
step02_gravity_refstate-crust.xmf,296,-6.4907e-08,4.1349e-07,0,7.11285e-07,-1.21528e+08,-1.21495e+08,-1.21523e+08,48794.1,-0.0160465,0.187059,-0,0.187746,-20058.9,-4424.72,-0,20541.1,48794.1
step02_gravity_refstate-crust.xmf,297,1.16569e-07,6.7269e-07,0,1.21772e-06,-2.36722e+08,-2.36684e+08,-2.3673e+08,83535.8,-0.0134982,0.190864,-0,0.19134,-17653.9,-8619.62,-0,19645.8,83535.8
step02_gravity_refstate-crust.xmf,298,5.20255e-08,5.10951e-07,0,9.58056e-07,-1.70957e+08,-1.70926e+08,-1.70961e+08,65722.7,-0.0145815,0.189546,-0,0.190106,-18719.3,-6224.88,-0,19727.2,65722.7
step02_gravity_refstate-crust.xmf,299,-4.32367e-08,1.91407e-08,0,1.29324e-08,-3990.89,288.199,-1024.85,887.164,-0.0230249,0.188627,-0,0.190027,-19789.7,0,-0,19789.7,887.164
step02_gravity_refstate-crust.xmf,300,7.4474e-08,1.42765e-06,0,2.14816e-06,-4.97476e+08,-4.97383e+08,-4.97481e+08,147364,-0.0167771,0.184507,-0,0.185268,-16431.8,-18113.6,-0,24456.2,147364
step02_gravity_refstate-crust.xmf,301,2.18797e-07,1.64628e-06,0,3.06654e-06,-6.87341e+08,-6.87243e+08,-6.87356e+08,210365,-0.0237203,0.183551,-0,0.185077,-14015.3,-25026.8,-0,28683.9,210365
step02_gravity_refstate-crust.xmf,302,1.49903e-07,1.43088e-06,0,2.321e-06,-5.39455e+08,-5.39367e+08,-5.39465e+08,159220,-0.0180022,0.185533,-0,0.186405,-15534.1,-19642.2,-0,25042.4,159220
step02_gravity_refstate-crust.xmf,303,4.05424e-07,1.50054e-06,0,3.49632e-06,-7.50663e+08,-7.50588e+08,-7.50691e+08,239847,-0.0265061,0.186847,-0,0.188717,-12664.9,-27332.6,-0,30124.3,239847
step02_gravity_refstate-crust.xmf,304,1.06542e-06,4.45327e-07,0,6.42857e-06,-9.76725e+08,-9.76767e+08,-9.76798e+08,441000,-0.0400872,0.20433,-0,0.208225,-9098.74,-35563.6,-0,36709.1,441000
step02_gravity_refstate-crust.xmf,305,5.10506e-07,1.41188e-06,0,4.20822e-06,-8.28159e+08,-8.28098e+08,-8.28194e+08,288684,-0.0305898,0.188868,-0,0.191329,-11649.1,-30154.2,-0,32326.1,288684
step02_gravity_refstate-crust.xmf,306,4.21631e-08,1.11209e-06,0,1.66904e-06,-3.63253e+08,-3.63179e+08,-3.63256e+08,114496,-0.0139423,0.186621,-0,0.187141,-17709.8,-13226.5,-0,22103.8,114496
step02_gravity_refstate-crust.xmf,307,1.7975e-07,8.18836e-07,0,1.44986e-06,-3.00909e+08,-3.00865e+08,-3.00921e+08,99460.6,-0.0132426,0.192147,-0,0.192603,-16532.2,-10956.9,-0,19833.5,99460.6
step02_gravity_refstate-crust.xmf,308,1.4143e-07,2.2096e-07,0,5.56293e-07,-8.71179e+07,-8.71125e+07,-8.71276e+07,38161.7,-0.0174105,0.192062,-0,0.19285,-18146.4,-3172.53,-0,18421.6,38161.7
step02_gravity_refstate-crust.xmf,309,1.23396e-07,1.20082e-06,0,1.92035e-06,-4.34295e+08,-4.34221e+08,-4.34304e+08,131736,-0.0151273,0.187558,-0,0.188167,-16427,-15813.3,-0,22801.5,131736
step02_gravity_refstate-crust.xmf,310,1.73089e-06,-9.81131e-07,0,9.21508e-06,-1.07461e+09,-1.0748e+09,-1.07473e+09,632154,-0.0488672,0.225214,-0,0.230455,-7438.84,-39127.8,-0,39828.7,632154
step02_gravity_refstate-crust.xmf,311,1.35329e-06,-7.28454e-08,0,7.13908e-06,-1.00705e+09,-1.00715e+09,-1.00714e+09,489741,-0.0423398,0.211023,-0,0.215229,-8453.35,-36667.9,-0,37629.7,489741
step02_gravity_refstate-crust.xmf,312,1.8152e-06,-8.48205e-07,0,8.07024e-06,-1.0405e+09,-1.04068e+09,-1.04063e+09,553619,-0.0449719,0.220405,-0,0.224947,-7711.59,-37886.5,-0,38663.4,553619
step02_gravity_refstate-crust.xmf,313,3.97708e-07,1.45546e-06,0,3.25366e-06,-7.16131e+08,-7.16059e+08,-7.16159e+08,223201,-0.024819,0.187028,-0,0.188667,-12981.6,-26075.3,-0,29128.1,223201
step02_gravity_refstate-crust.xmf,314,2.47409e-07,1.41513e-06,0,2.53974e-06,-5.89042e+08,-5.88962e+08,-5.89059e+08,174226,-0.019611,0.186715,-0,0.187742,-14550.8,-21447.9,-0,25917.9,174226
step02_gravity_refstate-crust.xmf,315,2.85011e-07,1.14511e-06,0,2.09144e-06,-4.85133e+08,-4.85074e+08,-4.85153e+08,143473,-0.0161154,0.190839,-0,0.191519,-14754.9,-17664.7,-0,23016.3,143473
step02_gravity_refstate-crust.xmf,316,7.03643e-07,1.13977e-06,0,3.71059e-06,-7.77029e+08,-7.76999e+08,-7.77077e+08,254546,-0.0273423,0.192348,-0,0.194282,-11465.3,-28293.1,-0,30527.9,254546
step02_gravity_refstate-crust.xmf,317,6.3001e-07,1.21838e-06,0,4.6661e-06,-8.68961e+08,-8.68921e+08,-8.69004e+08,320094,-0.0328979,0.191853,-0,0.194654,-10941,-31639.8,-0,33478.1,320094
step02_gravity_refstate-crust.xmf,318,8.31947e-07,9.09243e-07,0,5.14126e-06,-9.03409e+08,-9.03404e+08,-9.03466e+08,352690,-0.0348766,0.196283,-0,0.199358,-10192.1,-32894.3,-0,34437.1,352690
step02_gravity_refstate-crust.xmf,319,1.11886e-06,4.72018e-07,0,5.73998e-06,-9.40442e+08,-9.40486e+08,-9.40518e+08,393762,-0.0371276,0.202153,-0,0.205534,-9391.77,-34243,-0,35507.6,393762
step02_gravity_refstate-crust.xmf,320,2.85193e-07,5.8634e-07,0,1.23169e-06,-2.45435e+08,-2.45414e+08,-2.45454e+08,84493.8,-0.0130251,0.196056,-0,0.196488,-15595.2,-8937.37,-0,17974.6,84493.8
step02_gravity_refstate-crust.xmf,321,2.95704e-07,3.8403e-07,0,9.51837e-07,-1.7128e+08,-1.71274e+08,-1.713e+08,65296,-0.014091,0.196363,-0,0.196868,-15993.5,-6237.41,-0,17166.7,65296
step02_gravity_refstate-crust.xmf,322,4.05946e-07,-1.52334e-07,0,1.58609e-08,38634.5,336.504,10786.6,1088.06,-0.0224877,0.195573,-0,0.196862,-16661.6,0,-0,16661.6,1088.06
step02_gravity_refstate-crust.xmf,323,3.13029e-06,-2.86504e-06,0,9.18705e-06,-1.07601e+09,-1.07642e+09,-1.07622e+09,630231,-0.0465744,0.240229,-0,0.244702,-6409.68,-39181.4,-0,39702.2,630231
step02_gravity_refstate-crust.xmf,324,2.04832e-06,-8.8637e-07,0,6.40906e-06,-9.78595e+08,-9.78797e+08,-9.78736e+08,439662,-0.0382832,0.217282,-0,0.220628,-7820.13,-35633.7,-0,36481.7,439662
step02_gravity_refstate-crust.xmf,325,3.91273e-07,1.32416e-06,0,2.7709e-06,-6.36611e+08,-6.36547e+08,-6.36638e+08,190084,-0.0212391,0.188793,-0,0.189984,-13471.1,-23180.1,-0,26810.2,190084
step02_gravity_refstate-crust.xmf,326,5.93232e-07,1.13466e-06,0,2.9992e-06,-6.7987e+08,-6.79832e+08,-6.7991e+08,205745,-0.0226699,0.192045,-0,0.193379,-12303.5,-24755.5,-0,27644.4,205745
step02_gravity_refstate-crust.xmf,327,7.89261e-07,9.44342e-07,0,3.28014e-06,-7.25931e+08,-7.2592e+08,-7.25985e+08,225018,-0.0244013,0.1947,-0,0.196223,-11388.1,-26432.9,-0,28781.7,225018
step02_gravity_refstate-crust.xmf,328,4.19575e-07,1.09091e-06,0,2.26646e-06,-5.34794e+08,-5.34748e+08,-5.34823e+08,155479,-0.0172941,0.192772,-0,0.193546,-13606,-19473.1,-0,23755.5,155479
step02_gravity_refstate-crust.xmf,329,1.68144e-06,-3.19081e-07,0,5.99443e-06,-9.56232e+08,-9.5637e+08,-9.56348e+08,411218,-0.0372053,0.211054,-0,0.214308,-8417.21,-34818.9,-0,35821.9,411218
step02_gravity_refstate-crust.xmf,330,1.02995e-06,7.23719e-07,0,4.31576e-06,-8.40882e+08,-8.40903e+08,-8.40953e+08,296061,-0.0303199,0.198067,-0,0.200374,-10199.1,-30618.4,-0,32272.5,296061
step02_gravity_refstate-crust.xmf,331,1.12921e-06,5.86534e-07,0,3.90209e-06,-8.04444e+08,-8.04481e+08,-8.04521e+08,267683,-0.0277869,0.199598,-0,0.201523,-10091.7,-29292.1,-0,30981.7,267683
step02_gravity_refstate-crust.xmf,332,4.10287e-07,6.17143e-07,0,1.36848e-06,-2.94173e+08,-2.94159e+08,-2.94201e+08,93877.4,-0.012446,0.19927,-0,0.199659,-13946.4,-10712.3,-0,17585.6,93877.4
step02_gravity_refstate-crust.xmf,333,2.76624e-07,8.92168e-07,0,1.64928e-06,-3.6335e+08,-3.63307e+08,-3.63369e+08,113140,-0.0135435,0.193975,-0,0.194447,-15200.3,-13230.6,-0,20151.9,113140
step02_gravity_refstate-crust.xmf,334,4.59621e-07,4.08914e-07,0,1.09085e-06,-2.19884e+08,-2.19888e+08,-2.19916e+08,74832.5,-0.0125139,0.201097,-0,0.201486,-13766.4,-8007.6,-0,15925.9,74832.5
step02_gravity_refstate-crust.xmf,335,5.09306e-07,4.40825e-08,0,4.98076e-07,-7.90553e+07,-7.90872e+07,-7.90902e+07,34168,-0.0167106,0.199768,-0,0.200466,-14852.8,-2880.22,-0,15129.5,34168
step02_gravity_refstate-crust.xmf,336,3.97034e-07,8.85063e-07,0,1.82987e-06,-4.24758e+08,-4.24725e+08,-4.24785e+08,125529,-0.0142529,0.195841,-0,0.196359,-13892.1,-15466.7,-0,20789.7,125529
step02_gravity_refstate-crust.xmf,337,2.69886e-06,-2.11695e-06,0,8.48166e-06,-1.05539e+09,-1.05572e+09,-1.05558e+09,581842,-0.0449154,0.232588,-0,0.236885,-6832.35,-38430.3,-0,39033,581842
step02_gravity_refstate-crust.xmf,338,2.51994e-06,-1.62413e-06,0,6.99614e-06,-1.00617e+09,-1.00646e+09,-1.00635e+09,479935,-0.0397991,0.225061,-0,0.228553,-7188.12,-36638.5,-0,37336.9,479935
step02_gravity_refstate-crust.xmf,339,5.72997e-07,9.97314e-07,0,2.45583e-06,-5.84169e+08,-5.8414e+08,-5.84209e+08,168470,-0.018606,0.194704,-0,0.195591,-12564.8,-21271.1,-0,24705,168470
step02_gravity_refstate-crust.xmf,340,5.44498e-07,8.3238e-07,0,1.98301e-06,-4.79439e+08,-4.79419e+08,-4.79476e+08,136034,-0.0150796,0.197932,-0,0.198506,-12652.3,-17458,-0,21560.7,136034
step02_gravity_refstate-crust.xmf,341,1.26525e-06,3.50342e-07,0,3.41054e-06,-7.58388e+08,-7.58451e+08,-7.58475e+08,233963,-0.0244951,0.202629,-0,0.204105,-9689.66,-27615.6,-0,29266.2,233963
step02_gravity_refstate-crust.xmf,342,1.29913e-06,3.18318e-07,0,4.61925e-06,-8.68373e+08,-8.6844e+08,-8.68462e+08,316881,-0.0314421,0.202574,-0,0.204999,-9473.53,-31619.7,-0,33008.4,316881
step02_gravity_refstate-crust.xmf,343,1.62877e-06,-1.51305e-07,0,5.01529e-06,-9.00535e+08,-9.00658e+08,-9.00647e+08,344049,-0.0328426,0.208038,-0,0.210614,-8722.16,-32791.2,-0,33931.4,344049
step02_gravity_refstate-crust.xmf,344,2.07078e-06,-7.76847e-07,0,5.39582e-06,-9.29479e+08,-9.29674e+08,-9.29621e+08,370153,-0.0338483,0.214831,-0,0.217481,-7932.04,-33845.8,-0,34762.8,370153
step02_gravity_refstate-crust.xmf,345,1.63402e-06,-1.04463e-07,0,4.04407e-06,-8.30412e+08,-8.30531e+08,-8.30524e+08,277423,-0.0276847,0.207469,-0,0.209308,-8763.06,-30238.4,-0,31482.6,277423
step02_gravity_refstate-crust.xmf,346,5.74345e-07,4.00477e-07,0,1.15023e-06,-2.55494e+08,-2.55506e+08,-2.55534e+08,78905.9,-0.0115059,0.204375,-0,0.204698,-12163.2,-9304.46,-0,15313.9,78905.9
step02_gravity_refstate-crust.xmf,347,8.39487e-07,-3.16281e-07,0,1.54856e-08,79841.9,556.161,22253,1062.31,-0.020596,0.202115,-0,0.203161,-13577.4,0,-0,13577.4,1062.31
step02_gravity_refstate-crust.xmf,348,3.19803e-06,-2.6382e-06,0,7.58086e-06,-1.03189e+09,-1.03229e+09,-1.03211e+09,520047,-0.0408544,0.234902,-0,0.238428,-6485.36,-37575.8,-0,38131.3,520047
step02_gravity_refstate-crust.xmf,349,3.85519e-06,-3.64698e-06,0,8.10904e-06,-1.05322e+09,-1.05374e+09,-1.05349e+09,556280,-0.0416423,0.244091,-0,0.247618,-5920.29,-38353.6,-0,38807.8,556280
step02_gravity_refstate-crust.xmf,350,4.65367e-06,-4.86389e-06,0,8.71831e-06,-1.07574e+09,-1.07639e+09,-1.07606e+09,598076,-0.0424955,0.254615,-0,0.258137,-5367.6,-39174.6,-0,39540.6,598076
step02_gravity_refstate-crust.xmf,351,2.56511e-06,-1.48692e-06,0,5.7203e-06,-9.53937e+08,-9.54215e+08,-9.54113e+08,392413,-0.034408,0.222053,-0,0.224703,-7199.47,-34737.1,-0,35475.3,392413
step02_gravity_refstate-crust.xmf,352,3.10034e-06,-2.26971e-06,0,6.09213e-06,-9.79027e+08,-9.79395e+08,-9.7924e+08,417920,-0.0350684,0.229577,-0,0.23224,-6551.36,-35651.5,-0,36248.4,417920
step02_gravity_refstate-crust.xmf,353,7.68552e-07,8.35373e-07,0,2.65977e-06,-6.33209e+08,-6.33204e+08,-6.33261e+08,182460,-0.0199553,0.197185,-0,0.198192,-11512.1,-23057,-0,25771.2,182460
step02_gravity_refstate-crust.xmf,354,1.00732e-06,5.98835e-07,0,2.86755e-06,-6.79254e+08,-6.79282e+08,-6.79323e+08,196714,-0.021192,0.200267,-0,0.201386,-10488.8,-24733.9,-0,26866,196714
step02_gravity_refstate-crust.xmf,355,7.09005e-07,7.35187e-07,0,2.13429e-06,-5.31527e+08,-5.31525e+08,-5.31575e+08,146412,-0.0160397,0.199893,-0,0.200536,-11579.3,-19354.8,-0,22554.1,146412
step02_gravity_refstate-crust.xmf,356,1.23034e-06,3.65447e-07,0,3.03938e-06,-7.15476e+08,-7.15535e+08,-7.1556e+08,208501,-0.0221665,0.203082,-0,0.204288,-9716.66,-26053.2,-0,27806.1,208501
step02_gravity_refstate-crust.xmf,357,1.60777e-06,-7.15283e-08,0,3.58993e-06,-7.90825e+08,-7.90941e+08,-7.90936e+08,246269,-0.0251016,0.207423,-0,0.208936,-8753.35,-28797.2,-0,30098.2,246269
step02_gravity_refstate-crust.xmf,358,5.13882e-07,6.62647e-07,0,1.55205e-06,-3.62846e+08,-3.62836e+08,-3.62881e+08,106471,-0.0125554,0.200931,-0,0.201323,-12715.8,-13212.9,-0,18337.7,106471
step02_gravity_refstate-crust.xmf,359,6.25697e-07,4.60511e-07,0,1.28547e-06,-3.06979e+08,-3.06991e+08,-3.07022e+08,88183.6,-0.0112073,0.205328,-0,0.205634,-11414.6,-11179.1,-0,15977.1,88183.6
step02_gravity_refstate-crust.xmf,360,5.85486e-07,1.77948e-07,0,7.82401e-07,-1.47192e+08,-1.4722e+08,-1.47233e+08,53672.7,-0.0133644,0.203405,-0,0.203844,-13108,-5361.33,-0,14162.1,53672.7
step02_gravity_refstate-crust.xmf,361,6.62007e-07,2.46343e-07,0,9.32268e-07,-2.02147e+08,-2.02175e+08,-2.02192e+08,63953.6,-0.0114153,0.206492,-0,0.206807,-11501,-7362.41,-0,13655.7,63953.6
step02_gravity_refstate-crust.xmf,362,8.34219e-07,-1.06479e-07,0,4.19424e-07,-7.20603e+07,-7.21248e+07,-7.21175e+07,28772.5,-0.0150373,0.206052,-0,0.206599,-11900.6,-2626.64,-0,12187,28772.5
step02_gravity_refstate-crust.xmf,363,6.46574e-07,6.13512e-07,0,1.68989e-06,-4.22863e+08,-4.22865e+08,-4.22908e+08,115926,-0.0129975,0.202662,-0,0.203078,-11564.2,-15398.3,-0,19257.2,115926
step02_gravity_refstate-crust.xmf,364,3.73577e-06,-3.20373e-06,0,6.52178e-06,-1.00524e+09,-1.00571e+09,-1.00549e+09,447394,-0.0357642,0.238117,-0,0.240788,-5928.26,-36606.8,-0,37083.8,447394
step02_gravity_refstate-crust.xmf,365,9.07135e-07,5.83125e-07,0,2.30081e-06,-5.84233e+08,-5.84256e+08,-5.84296e+08,157835,-0.0171377,0.202031,-0,0.202757,-10575,-21274.2,-0,23757.5,157835
step02_gravity_refstate-crust.xmf,366,8.10963e-07,5.2462e-07,0,1.80968e-06,-4.78614e+08,-4.78634e+08,-4.7867e+08,124144,-0.0135841,0.204526,-0,0.204977,-10477.6,-17428.5,-0,20335.5,124144
step02_gravity_refstate-crust.xmf,367,1.56182e-06,-4.02254e-08,0,2.9589e-06,-7.28172e+08,-7.28282e+08,-7.28279e+08,202980,-0.0211773,0.20841,-0,0.209483,-8530.52,-26516.1,-0,27854.5,202980
step02_gravity_refstate-crust.xmf,368,1.99279e-06,-5.93362e-07,0,4.38306e-06,-8.67028e+08,-8.67206e+08,-8.67165e+08,300678,-0.0289633,0.212624,-0,0.214588,-8027.03,-31572.2,-0,32576.6,300678
step02_gravity_refstate-crust.xmf,369,2.43287e-06,-1.1975e-06,0,4.69123e-06,-8.9864e+08,-8.9889e+08,-8.98807e+08,321818,-0.0297821,0.218725,-0,0.220743,-7287.45,-32723.9,-0,33525.5,321818
step02_gravity_refstate-crust.xmf,370,2.94873e-06,-1.91596e-06,0,4.95427e-06,-9.26706e+08,-9.2704e+08,-9.26909e+08,339863,-0.030165,0.225613,-0,0.22762,-6558.11,-33746.6,-0,34378,339863
step02_gravity_refstate-crust.xmf,371,1.79643e-06,-3.3425e-07,0,3.14034e-06,-7.60569e+08,-7.60715e+08,-7.60692e+08,215427,-0.0220226,0.211097,-0,0.212243,-7991.43,-27696,-0,28825.9,215427
step02_gravity_refstate-crust.xmf,372,2.17737e-06,-8.07153e-07,0,3.35659e-06,-8.00317e+08,-8.00521e+08,-8.00466e+08,230262,-0.022816,0.215586,-0,0.21679,-7230.88,-29143.9,-0,30027.5,230262
step02_gravity_refstate-crust.xmf,373,7.30836e-07,2.81079e-07,0,1.02892e-06,-2.54285e+08,-2.54316e+08,-2.54335e+08,70583.8,-0.0102185,0.208754,-0,0.209004,-10187.8,-9260.88,-0,13767.9,70583.8
step02_gravity_refstate-crust.xmf,374,1.22815e-06,-4.62754e-07,0,1.47144e-08,116805,808.805,32553.7,1009.41,-0.0174666,0.207874,-0,0.208606,-10528.1,0,-0,10528.1,1009.41
step02_gravity_refstate-crust.xmf,375,4.49934e-06,-4.32161e-06,0,6.95845e-06,-1.03075e+09,-1.03135e+09,-1.03106e+09,477349,-0.0362361,0.247787,-0,0.250422,-5317.74,-37536.9,-0,37911.7,477349
step02_gravity_refstate-crust.xmf,376,6.20698e-06,-6.85961e-06,0,7.82481e-06,-1.0762e+09,-1.0771e+09,-1.07663e+09,536782,-0.0368275,0.26805,-0,0.270568,-4308.26,-39194.6,-0,39430.7,536782
step02_gravity_refstate-crust.xmf,377,5.35573e-06,-5.57258e-06,0,7.28737e-06,-1.05245e+09,-1.0532e+09,-1.05282e+09,499913,-0.0360949,0.257903,-0,0.260416,-4735.16,-38328.7,-0,38620.1,499913
step02_gravity_refstate-crust.xmf,378,3.53013e-06,-2.73226e-06,0,5.17592e-06,-9.52297e+08,-9.52727e+08,-9.52539e+08,355068,-0.0302041,0.233019,-0,0.234968,-5868.13,-34679.4,-0,35172.4,355068
step02_gravity_refstate-crust.xmf,379,4.16986e-06,-3.64134e-06,0,5.42372e-06,-9.78198e+08,-9.78734e+08,-9.78484e+08,372067,-0.0302768,0.240877,-0,0.242772,-5253.78,-35623.5,-0,36008.8,372067
step02_gravity_refstate-crust.xmf,380,1.15657e-06,3.4846e-07,0,2.46346e-06,-6.34594e+08,-6.34649e+08,-6.34673e+08,168993,-0.0181325,0.204846,-0,0.205647,-9553.61,-23108.2,-0,25005.2,168993
step02_gravity_refstate-crust.xmf,381,1.48979e-06,-1.89165e-10,0,2.63152e-06,-6.85638e+08,-6.8574e+08,-6.8574e+08,180522,-0.0190128,0.208583,-0,0.209447,-8486.22,-24967.4,-0,26370.2,180522
step02_gravity_refstate-crust.xmf,382,1.0027e-06,3.86851e-07,0,1.93418e-06,-5.33297e+08,-5.33339e+08,-5.33366e+08,132685,-0.0143395,0.206369,-0,0.206867,-9523.06,-19419.9,-0,21629.1,132685
step02_gravity_refstate-crust.xmf,383,2.24863e-06,-8.69473e-07,0,3.83513e-06,-8.39092e+08,-8.39306e+08,-8.39246e+08,263090,-0.0254883,0.216239,-0,0.217736,-7327.78,-30555.7,-0,31422.1,263090
step02_gravity_refstate-crust.xmf,384,7.40187e-07,4.46266e-07,0,1.39135e-06,-3.65717e+08,-3.65737e+08,-3.65767e+08,95446.5,-0.0110657,0.207075,-0,0.207371,-10272.1,-13318,-0,16819.2,95446.5
step02_gravity_refstate-crust.xmf,385,8.19493e-07,2.962e-07,0,1.10707e-06,-3.09998e+08,-3.10034e+08,-3.10054e+08,75945.2,-0.0094692,0.210631,-0,0.210844,-8979.76,-11289.6,-0,14425.3,75945.2
step02_gravity_refstate-crust.xmf,386,8.36219e-07,3.30777e-08,0,6.39882e-07,-1.36793e+08,-1.36848e+08,-1.36851e+08,43895.9,-0.0116544,0.209151,-0,0.209476,-10356.5,-4983.53,-0,11493.2,43895.9
step02_gravity_refstate-crust.xmf,387,8.5718e-07,1.17679e-07,0,7.66228e-07,-1.96635e+08,-1.96686e+08,-1.96694e+08,52563.3,-0.00951874,0.211607,-0,0.211821,-8930.73,-7162.35,-0,11448,52563.3
step02_gravity_refstate-crust.xmf,388,1.11656e-06,-2.27916e-07,0,3.37805e-07,-6.87654e+07,-6.88577e+07,-6.8842e+07,23173.4,-0.0122982,0.211373,-0,0.21173,-8961.31,-2507.64,-0,9305.55,23173.4
step02_gravity_refstate-crust.xmf,389,8.87418e-07,3.56656e-07,0,1.4797e-06,-4.24379e+08,-4.24416e+08,-4.2444e+08,101507,-0.0112381,0.208696,-0,0.208998,-9227.44,-15454.1,-0,17999.3,101507
step02_gravity_refstate-crust.xmf,390,4.90317e-06,-4.68996e-06,0,5.69201e-06,-1.00435e+09,-1.00501e+09,-1.00469e+09,390472,-0.0302932,0.249562,-0,0.251394,-4681.26,-36577.1,-0,36875.4,390472
step02_gravity_refstate-crust.xmf,391,1.23642e-06,1.83163e-07,0,2.0571e-06,-5.86177e+08,-5.86249e+08,-5.86261e+08,141117,-0.0150992,0.208587,-0,0.209133,-8604.18,-21345.6,-0,23014.5,141117
step02_gravity_refstate-crust.xmf,392,1.06857e-06,2.34176e-07,0,1.56887e-06,-4.8216e+08,-4.82217e+08,-4.82233e+08,107625,-0.0116351,0.210275,-0,0.210596,-8304.07,-17558.2,-0,19422.9,107625
step02_gravity_refstate-crust.xmf,393,1.90478e-06,-4.9074e-07,0,2.60845e-06,-7.20228e+08,-7.20393e+08,-7.20359e+08,178940,-0.0184015,0.2141,-0,0.214889,-7157.28,-26227.6,-0,27186.6,178940
step02_gravity_refstate-crust.xmf,394,2.67834e-06,-1.4693e-06,0,3.95968e-06,-8.65575e+08,-8.6586e+08,-8.65759e+08,271634,-0.0255162,0.221664,-0,0.223128,-6596.08,-31520.7,-0,32203.4,271634
step02_gravity_refstate-crust.xmf,395,3.80672e-06,-3.00772e-06,0,4.28872e-06,-9.26176e+08,-9.26644e+08,-9.26437e+08,294206,-0.0254317,0.235303,-0,0.236673,-5167.29,-33729.1,-0,34122.6,294206
step02_gravity_refstate-crust.xmf,396,3.21473e-06,-2.19676e-06,0,4.16623e-06,-8.98217e+08,-8.98588e+08,-8.98438e+08,285804,-0.0257492,0.228251,-0,0.229699,-5868.18,-32710.1,-0,33232.3,285804
step02_gravity_refstate-crust.xmf,397,2.76188e-06,-1.51259e-06,0,3.33084e-06,-8.32134e+08,-8.32427e+08,-8.32324e+08,228496,-0.0217722,0.222977,-0,0.224037,-6021.87,-30303.5,-0,30896,228496
step02_gravity_refstate-crust.xmf,398,2.29162e-06,-9.59429e-07,0,2.6811e-06,-7.58433e+08,-7.58656e+08,-7.5859e+08,183923,-0.0184528,0.218473,-0,0.219251,-6298.88,-27619.3,-0,28328.5,183923
step02_gravity_refstate-crust.xmf,399,9.02875e-07,1.52482e-07,0,8.28591e-07,-2.53732e+08,-2.53783e+08,-2.53793e+08,56841.3,-0.00816477,0.213481,-0,0.213637,-7673.39,-9241.24,-0,12011.7,56841.3
step02_gravity_refstate-crust.xmf,400,1.54589e-06,-5.8237e-07,0,1.40159e-08,147028,1029.72,40980.3,961.492,-0.0132888,0.212518,-0,0.212933,-7504.6,0,-0,7504.6,961.492
step02_gravity_refstate-crust.xmf,401,5.75614e-06,-5.91569e-06,0,5.93406e-06,-1.02961e+09,-1.03041e+09,-1.03e+09,407076,-0.0300075,0.259201,-0,0.260932,-4126.13,-37498.1,-0,37724.4,407076
step02_gravity_refstate-crust.xmf,402,7.65648e-06,-8.70708e-06,0,6.52547e-06,-1.07781e+09,-1.07894e+09,-1.07834e+09,447647,-0.0298223,0.279774,-0,0.281359,-3264.94,-39256.4,-0,39391.9,447647
step02_gravity_refstate-crust.xmf,403,6.71803e-06,-7.31764e-06,0,6.17373e-06,-1.05422e+09,-1.05519e+09,-1.05468e+09,423518,-0.0295999,0.269607,-0,0.271227,-3620.99,-38395.9,-0,38566.2,423518
step02_gravity_refstate-crust.xmf,404,4.44722e-06,-3.89125e-06,0,4.33744e-06,-9.51218e+08,-9.5179e+08,-9.51523e+08,297548,-0.0246856,0.242667,-0,0.243919,-4506.7,-34642,-0,34933.9,297548
step02_gravity_refstate-crust.xmf,405,5.12662e-06,-4.8449e-06,0,4.45055e-06,-9.77406e+08,-9.7809e+08,-9.77757e+08,305308,-0.0242612,0.250274,-0,0.251447,-3973.78,-35596.7,-0,35817.8,305308
step02_gravity_refstate-crust.xmf,406,1.53179e-06,-1.13858e-07,0,2.14082e-06,-6.34578e+08,-6.34691e+08,-6.34683e+08,146860,-0.0155117,0.211668,-0,0.212236,-7602.29,-23108.5,-0,24326.8,146860
step02_gravity_refstate-crust.xmf,407,1.27877e-06,6.53152e-08,0,1.67096e-06,-5.38646e+08,-5.38729e+08,-5.38733e+08,114628,-0.0122463,0.211825,-0,0.212179,-7544.77,-19615.2,-0,21016.2,114628
step02_gravity_refstate-crust.xmf,408,1.89914e-06,-5.20218e-07,0,2.13855e-06,-6.77271e+08,-6.77437e+08,-6.77401e+08,146705,-0.0152063,0.215826,-0,0.216361,-6450.83,-24663.6,-0,25493.3,146705
step02_gravity_refstate-crust.xmf,409,2.78258e-06,-1.56825e-06,0,2.65671e-06,-7.94696e+08,-7.94994e+08,-7.94887e+08,182250,-0.0177109,0.224101,-0,0.2248,-5295.87,-28940.5,-0,29421.1,182250
step02_gravity_refstate-crust.xmf,410,9.42434e-07,2.49796e-07,0,1.1601e-06,-3.68528e+08,-3.68575e+08,-3.68592e+08,79582.5,-0.00908924,0.212244,-0,0.212438,-7876.5,-13420.8,-0,15561.4,79582.5
step02_gravity_refstate-crust.xmf,411,9.81884e-07,1.54648e-07,0,8.68261e-07,-3.12101e+08,-3.12158e+08,-3.12168e+08,59562.7,-0.00731234,0.214927,-0,0.215051,-6569.82,-11366.6,-0,13128.6,59562.7
step02_gravity_refstate-crust.xmf,412,1.04469e-06,-7.19336e-08,0,4.90701e-07,-1.34615e+08,-1.34691e+08,-1.34686e+08,33662.1,-0.00900805,0.214003,-0,0.214192,-7496.41,-4904.9,-0,8958.47,33662.1
step02_gravity_refstate-crust.xmf,413,1.01869e-06,1.86209e-08,0,5.6646e-07,-1.97333e+08,-1.97402e+08,-1.97403e+08,38859.2,-0.00695255,0.215856,-0,0.215968,-6200.12,-7188.26,-0,9492.76,38859.2
step02_gravity_refstate-crust.xmf,414,1.3301e-06,-3.14116e-07,0,2.47239e-07,-6.87722e+07,-6.8885e+07,-6.88635e+07,16960.6,-0.00867955,0.2155,-0,0.215675,-6004.58,-2508.62,-0,6507.54,16960.6
step02_gravity_refstate-crust.xmf,415,1.10798e-06,1.23422e-07,0,1.19493e-06,-4.28484e+08,-4.28551e+08,-4.2856e+08,81972.4,-0.00896275,0.213768,-0,0.213956,-6869.9,-15604,-0,17049.4,81972.4
step02_gravity_refstate-crust.xmf,416,5.91206e-06,-5.95394e-06,0,4.56822e-06,-1.00413e+09,-1.00494e+09,-1.00453e+09,313380,-0.0237695,0.2588,-0,0.25989,-3477.45,-36571,-0,36736,313380
step02_gravity_refstate-crust.xmf,417,1.53266e-06,-1.73377e-07,0,1.72568e-06,-5.87887e+08,-5.88005e+08,-5.87993e+08,118381,-0.0125165,0.214073,-0,0.214439,-6696.4,-21408.6,-0,22431.4,118381
step02_gravity_refstate-crust.xmf,418,1.30333e-06,-2.88947e-08,0,1.25957e-06,-4.88883e+08,-4.88975e+08,-4.88973e+08,86406.5,-0.00924669,0.214992,-0,0.215191,-6160.49,-17803.5,-0,18839.2,86406.5
step02_gravity_refstate-crust.xmf,419,2.28196e-06,-9.66244e-07,0,2.13321e-06,-7.17859e+08,-7.18082e+08,-7.18015e+08,146338,-0.0148447,0.219901,-0,0.220402,-5506.57,-26142.1,-0,26715.8,146338
step02_gravity_refstate-crust.xmf,420,3.2995e-06,-2.258e-06,0,3.37259e-06,-8.64393e+08,-8.64774e+08,-8.64619e+08,231360,-0.0212809,0.229271,-0,0.230256,-5204.19,-31478.9,-0,31906.2,231360
step02_gravity_refstate-crust.xmf,421,4.5404e-06,-3.92756e-06,0,3.37173e-06,-9.25e+08,-9.25581e+08,-9.25312e+08,231300,-0.0196044,0.243067,-0,0.243857,-3789.72,-33687.8,-0,33900.3,231300
step02_gravity_refstate-crust.xmf,422,3.90926e-06,-3.07128e-06,0,3.41249e-06,-8.96918e+08,-8.97397e+08,-8.97186e+08,234097,-0.020658,0.236135,-0,0.237037,-4462.33,-32664.2,-0,32967.6,234097
step02_gravity_refstate-crust.xmf,423,3.28236e-06,-2.16985e-06,0,2.66664e-06,-8.30017e+08,-8.30391e+08,-8.30242e+08,182932,-0.0171223,0.229554,-0,0.230192,-4520.89,-30227.5,-0,30563.7,182932
step02_gravity_refstate-crust.xmf,424,2.71398e-06,-1.48745e-06,0,2.08988e-06,-7.56935e+08,-7.57223e+08,-7.57121e+08,143366,-0.0141653,0.224423,-0,0.22487,-4611.24,-27565.7,-0,27948.7,143366
step02_gravity_refstate-crust.xmf,425,1.02851e-06,5.68498e-08,0,5.9454e-07,-2.54333e+08,-2.54399e+08,-2.54403e+08,40785.4,-0.00581858,0.216956,-0,0.217034,-5248.06,-9263.48,-0,10646.8,40785.4
step02_gravity_refstate-crust.xmf,426,1.77111e-06,-6.6749e-07,0,1.22145e-08,168437,1149.38,46939.2,837.914,-0.00831166,0.215777,-0,0.215937,-4497.88,0,-0,4497.88,837.914
step02_gravity_refstate-crust.xmf,427,8.76969e-06,-1.00497e-05,0,5.21282e-06,-1.08191e+09,-1.0832e+09,-1.08251e+09,357600,-0.0233163,0.288614,-0,0.289554,-2416.72,-39408,-0,39482,357600
step02_gravity_refstate-crust.xmf,428,6.91529e-06,-7.36131e-06,0,4.56403e-06,-1.03143e+09,-1.03241e+09,-1.03191e+09,313092,-0.0225366,0.269158,-0,0.270099,-2917.44,-37566.9,-0,37680,313092
step02_gravity_refstate-crust.xmf,429,8.11496e-06,-9.02858e-06,0,4.4522e-06,-1.05813e+09,-1.0593e+09,-1.05868e+09,305421,-0.0208204,0.280653,-0,0.281425,-2379.22,-38541,-0,38614.4,305421
step02_gravity_refstate-crust.xmf,430,5.17357e-06,-4.80042e-06,0,3.31862e-06,-9.5094e+08,-9.51624e+08,-9.51295e+08,227657,-0.0185563,0.249898,-0,0.250586,-3236.39,-34633.4,-0,34784.3,227657
step02_gravity_refstate-crust.xmf,431,5.86691e-06,-5.75961e-06,0,3.29499e-06,-9.77241e+08,-9.78038e+08,-9.77643e+08,226036,-0.0176777,0.257161,-0,0.257768,-2777.87,-35592.2,-0,35700.5,226036
step02_gravity_refstate-crust.xmf,432,1.84497e-06,-4.99199e-07,0,1.71401e-06,-6.32908e+08,-6.33068e+08,-6.33034e+08,117581,-0.0122643,0.217137,-0,0.217483,-5712.18,-23048.3,-0,23745.6,117581
step02_gravity_refstate-crust.xmf,433,1.51333e-06,-2.08815e-07,0,1.32802e-06,-5.42282e+08,-5.424e+08,-5.42386e+08,91102.2,-0.00965185,0.216258,-0,0.216473,-5618.93,-19748.1,-0,20531.9,91102.2
step02_gravity_refstate-crust.xmf,434,2.20524e-06,-9.01039e-07,0,1.65033e-06,-6.75934e+08,-6.76147e+08,-6.76085e+08,113213,-0.0116041,0.2207,-0,0.221005,-4717.7,-24615.6,-0,25063.6,113213
step02_gravity_refstate-crust.xmf,435,3.18854e-06,-2.07738e-06,0,2.00294e-06,-7.94337e+08,-7.94698e+08,-7.94556e+08,137402,-0.0131746,0.229334,-0,0.229712,-3780.94,-28928.3,-0,29174.4,137402
step02_gravity_refstate-crust.xmf,436,1.11213e-06,8.48569e-08,0,8.68003e-07,-3.73477e+08,-3.73547e+08,-3.73553e+08,59545,-0.00669155,0.216291,-0,0.216394,-5487.59,-13601.4,-0,14666.7,59545
step02_gravity_refstate-crust.xmf,437,1.10213e-06,4.71222e-08,0,5.93174e-07,-3.16355e+08,-3.16428e+08,-3.16431e+08,40691.8,-0.00491819,0.217949,-0,0.218005,-4250.04,-11521.8,-0,12280.6,40691.8
step02_gravity_refstate-crust.xmf,438,1.18914e-06,-1.36704e-07,0,3.16574e-07,-1.37388e+08,-1.37479e+08,-1.37469e+08,21717,-0.00572193,0.217549,-0,0.217624,-4592.33,-5006.34,-0,6793.6,21717
step02_gravity_refstate-crust.xmf,439,1.12833e-06,-3.70134e-08,0,3.17728e-07,-2.07294e+08,-2.07374e+08,-2.07371e+08,21796.1,-0.00375312,0.218873,-0,0.218905,-3259.81,-7551.24,-0,8224.81,21796.1
step02_gravity_refstate-crust.xmf,440,1.46575e-06,-3.69416e-07,0,1.36835e-07,-6.91429e+07,-6.92688e+07,-6.92435e+07,9386.85,-0.00452656,0.218125,-0,0.218172,-3038.44,-2522.57,-0,3949.11,9386.85
step02_gravity_refstate-crust.xmf,441,1.324e-06,-8.7939e-08,0,8.08724e-07,-4.40866e+08,-4.40962e+08,-4.40956e+08,55478.4,-0.00601623,0.217912,-0,0.217995,-4293.81,-16055.4,-0,16619.6,55478.4
step02_gravity_refstate-crust.xmf,442,6.70048e-06,-6.91704e-06,0,3.15987e-06,-1.00371e+09,-1.00464e+09,-1.00417e+09,216767,-0.0162104,0.265598,-0,0.266092,-2282.7,-36557.5,-0,36628.7,216767
step02_gravity_refstate-crust.xmf,443,1.77319e-06,-4.60228e-07,0,1.32e-06,-5.88771e+08,-5.88924e+08,-5.88893e+08,90551.7,-0.00948993,0.218333,-0,0.218539,-4849.75,-21441.3,-0,21982.9,90551.7
step02_gravity_refstate-crust.xmf,444,1.51996e-06,-2.58869e-07,0,9.11435e-07,-5.05139e+08,-5.05261e+08,-5.05244e+08,62524.4,-0.00661254,0.218559,-0,0.218659,-4088.28,-18395.8,-0,18844.7,62524.4
step02_gravity_refstate-crust.xmf,445,2.60673e-06,-1.36835e-06,0,1.55532e-06,-7.18051e+08,-7.18324e+08,-7.1823e+08,106695,-0.0107044,0.224573,-0,0.224828,-3809.25,-26149.8,-0,26425.8,106695
step02_gravity_refstate-crust.xmf,446,3.84443e-06,-2.94074e-06,0,2.59974e-06,-8.63805e+08,-8.64271e+08,-8.64069e+08,178342,-0.0161438,0.235596,-0,0.236149,-3774.12,-31458.7,-0,31684.3,178342
step02_gravity_refstate-crust.xmf,447,5.09049e-06,-4.62057e-06,0,2.31937e-06,-9.25402e+08,-9.26069e+08,-9.25752e+08,159109,-0.0133132,0.248688,-0,0.249045,-2478.68,-33703.6,-0,33794.7,159109
step02_gravity_refstate-crust.xmf,448,4.47083e-06,-3.77358e-06,0,2.47003e-06,-8.96061e+08,-8.96627e+08,-8.96368e+08,169444,-0.0147193,0.242198,-0,0.242645,-3055.36,-32634.2,-0,32777,169444
step02_gravity_refstate-crust.xmf,449,3.70659e-06,-2.70591e-06,0,1.88955e-06,-8.30458e+08,-8.30898e+08,-8.30712e+08,129623,-0.011946,0.234612,-0,0.234916,-3033.4,-30244.5,-0,30396.2,129623
step02_gravity_refstate-crust.xmf,450,3.03863e-06,-1.89076e-06,0,1.40965e-06,-7.57539e+08,-7.57877e+08,-7.57748e+08,96702.2,-0.00945559,0.228736,-0,0.228932,-2966.39,-27588.3,-0,27747.4,96702.2
step02_gravity_refstate-crust.xmf,451,1.10072e-06,1.21245e-08,0,4.07667e-07,-2.66197e+08,-2.66272e+08,-2.66272e+08,27966,-0.00379373,0.218831,-0,0.218864,-3344.05,-9695.64,-0,10256.1,27966
step02_gravity_refstate-crust.xmf,452,1.88667e-06,-7.11125e-07,0,9.51438e-09,179424,1215.04,49998.2,652.686,-0.00282836,0.217458,-0,0.217477,-1498.97,0,-0,1498.97,652.686
step02_gravity_refstate-crust.xmf,453,9.41161e-06,-1.08071e-05,0,3.35472e-06,-1.07748e+09,-1.07886e+09,-1.07812e+09,230134,-0.0149355,0.292538,-0,0.292919,-1534.47,-39248,-0,39278,230134
step02_gravity_refstate-crust.xmf,454,7.70289e-06,-8.30271e-06,0,2.74976e-06,-1.0296e+09,-1.0307e+09,-1.03013e+09,188634,-0.0134539,0.275333,-0,0.275662,-1691.08,-37501.9,-0,37540,188634
step02_gravity_refstate-crust.xmf,455,5.68337e-06,-5.42523e-06,0,2.27823e-06,-9.52217e+08,-9.52979e+08,-9.52607e+08,156287,-0.012611,0.254753,-0,0.255064,-2128.16,-34681,-0,34746.2,156287
step02_gravity_refstate-crust.xmf,456,6.35848e-06,-6.35161e-06,0,1.99934e-06,-9.76613e+08,-9.77485e+08,-9.7705e+08,137155,-0.010659,0.261527,-0,0.261745,-1634.68,-35570.5,-0,35608,137155
step02_gravity_refstate-crust.xmf,457,2.09012e-06,-7.96975e-07,0,1.21828e-06,-6.32832e+08,-6.33031e+08,-6.32976e+08,83574,-0.00864741,0.221171,-0,0.22134,-3874.54,-23046.1,-0,23369.5,83574
step02_gravity_refstate-crust.xmf,458,1.70182e-06,-4.11628e-07,0,9.85691e-07,-5.50906e+08,-5.51051e+08,-5.51023e+08,67618.4,-0.00711042,0.219331,-0,0.219447,-3929.93,-20062.5,-0,20443.8,67618.4
step02_gravity_refstate-crust.xmf,459,1.5257e-06,-2.73473e-07,0,5.45425e-07,-4.80892e+08,-4.81015e+08,-4.80997e+08,37416.2,-0.00392659,0.220066,-0,0.220101,-2520.27,-17513.1,-0,17693.5,37416.2
step02_gravity_refstate-crust.xmf,460,2.44782e-06,-1.19717e-06,0,1.07651e-06,-6.76688e+08,-6.76938e+08,-6.76856e+08,73848.7,-0.00751846,0.224315,-0,0.224441,-2952.84,-24643.6,-0,24819.8,73848.7
step02_gravity_refstate-crust.xmf,461,3.50298e-06,-2.468e-06,0,1.2263e-06,-7.95673e+08,-7.96083e+08,-7.95913e+08,84124.4,-0.00800137,0.233182,-0,0.233319,-2221.93,-28977.6,-0,29062.7,84124.4
step02_gravity_refstate-crust.xmf,462,1.2335e-06,-3.89172e-08,0,5.1721e-07,-3.77172e+08,-3.7726e+08,-3.77257e+08,35480.6,-0.00394718,0.219017,-0,0.219052,-3119.78,-13736.3,-0,14086.1,35480.6
step02_gravity_refstate-crust.xmf,463,1.17065e-06,-3.09423e-08,0,2.41381e-07,-3.14852e+08,-3.14934e+08,-3.14932e+08,16558.7,-0.00204344,0.219832,-0,0.219841,-1730.92,-11467.2,-0,11597.1,16558.7
step02_gravity_refstate-crust.xmf,464,1.1387e-06,-2.57306e-08,0,1.80615e-07,-2.5256e+08,-2.52639e+08,-2.52638e+08,12390.2,-0.00176654,0.219858,-0,0.219865,-1541.45,-9199.25,-0,9327.5,12390.2
step02_gravity_refstate-crust.xmf,465,1.27225e-06,-1.76627e-07,0,1.08553e-07,-1.37467e+08,-1.37567e+08,-1.37555e+08,7446.74,-0.00207728,0.219474,-0,0.219484,-1630.62,-5009.51,-0,5268.22,7446.74
step02_gravity_refstate-crust.xmf,466,1.50631e-06,-3.84439e-07,0,1.47949e-08,-7.08698e+07,-7.09995e+07,-7.09731e+07,1014.93,-0.000120637,0.219073,-0,0.219073,-80.5328,-2585.59,-0,2586.84,1014.93
step02_gravity_refstate-crust.xmf,467,8.76396e-06,-9.7802e-06,0,1.85855e-06,-1.05279e+09,-1.05407e+09,-1.05339e+09,127497,-0.00867001,0.285404,-0,0.285535,-979.295,-38348.3,-0,38360.8,127497
step02_gravity_refstate-crust.xmf,468,7.18383e-06,-7.49538e-06,0,1.55128e-06,-1.00318e+09,-1.00418e+09,-1.00367e+09,106418,-0.00793895,0.269632,-0,0.269749,-1094.24,-36539.1,-0,36555.5,106418
step02_gravity_refstate-crust.xmf,469,5.38044e-06,-4.95968e-06,0,1.45611e-06,-9.26679e+08,-9.27388e+08,-9.27048e+08,99889.2,-0.00828078,0.251626,-0,0.251763,-1509.07,-33750.8,-0,33784.5,99889.2
step02_gravity_refstate-crust.xmf,470,1.9451e-06,-6.62705e-07,0,8.30322e-07,-5.87714e+08,-5.87893e+08,-5.87847e+08,56960.1,-0.00595046,0.221376,-0,0.221456,-2958.38,-21403.2,-0,21606.6,56960.1
step02_gravity_refstate-crust.xmf,471,1.40414e-06,-1.8242e-07,0,3.59697e-07,-4.33866e+08,-4.33975e+08,-4.33962e+08,24675.2,-0.0026775,0.220118,-0,0.220134,-1891.02,-15800.7,-0,15913.5,24675.2
step02_gravity_refstate-crust.xmf,472,1.74677e-06,-4.72259e-07,0,5.32942e-07,-5.33118e+08,-5.33271e+08,-5.33238e+08,36559.8,-0.00378053,0.221085,-0,0.221118,-2137.78,-19415,-0,19532.4,36559.8
step02_gravity_refstate-crust.xmf,473,2.83807e-06,-1.65078e-06,0,8.79853e-07,-7.19045e+08,-7.19353e+08,-7.1924e+08,60357.9,-0.00602736,0.227753,-0,0.227832,-2082.76,-26186.5,-0,26269.2,60357.9
step02_gravity_refstate-crust.xmf,474,4.26208e-06,-3.45464e-06,0,1.66495e-06,-8.64034e+08,-8.64564e+08,-8.64327e+08,114216,-0.0102515,0.240246,-0,0.240464,-2317.91,-31467.9,-0,31553.2,114216
step02_gravity_refstate-crust.xmf,475,4.92156e-06,-4.31088e-06,0,1.31755e-06,-8.98596e+08,-8.99229e+08,-8.98933e+08,90384.1,-0.00780852,0.246784,-0,0.246907,-1563.1,-32727.5,-0,32764.8,90384.1
step02_gravity_refstate-crust.xmf,476,3.97708e-06,-3.04993e-06,0,1.00882e-06,-8.30503e+08,-8.30985e+08,-8.30776e+08,69205.3,-0.006318,0.237743,-0,0.237827,-1567.66,-30246.7,-0,30287.3,69205.3
step02_gravity_refstate-crust.xmf,477,3.25659e-06,-2.15794e-06,0,6.22965e-07,-7.59849e+08,-7.6022e+08,-7.60072e+08,42735.4,-0.00415902,0.231465,-0,0.231503,-1269.75,-27672.9,-0,27702,42735.4
step02_gravity_refstate-crust.xmf,478,1.17457e-06,-6.91612e-08,0,7.18855e-09,-2.01528e+08,-2.01614e+08,-2.01609e+08,493.135,-0.000181484,0.220042,-0,0.220042,-156.284,-7341.48,-0,7343.14,493.135
step02_gravity_refstate-crust.xmf,479,1.88439e-06,-7.10759e-07,0,5.31925e-09,179186,1158.78,49916.8,364.9,0.0028298,0.217458,0,0.217477,1498.97,0,0,1498.97,364.9
step02_gravity_refstate-crust.xmf,480,9.83776e-06,-1.13166e-05,0,1.07435e-06,-1.07591e+09,-1.07736e+09,-1.07658e+09,73700.2,-0.00483907,0.295348,-0,0.295387,-492.113,-39191.8,-0,39194.9,73700.2
step02_gravity_refstate-crust.xmf,481,8.06124e-06,-8.72561e-06,0,8.04267e-07,-1.02839e+09,-1.02954e+09,-1.02894e+09,55172.7,-0.00397467,0.278133,-0,0.278162,-493.568,-37458.7,-0,37461.9,55172.7
step02_gravity_refstate-crust.xmf,482,5.93837e-06,-5.71912e-06,0,1.11096e-06,-9.50129e+08,-9.50928e+08,-9.50536e+08,76211.7,-0.00616457,0.257095,-0,0.257169,-1030.48,-34605.6,-0,34620.9,76211.7
step02_gravity_refstate-crust.xmf,483,6.58342e-06,-6.61351e-06,0,5.93874e-07,-9.7541e+08,-9.76316e+08,-9.75862e+08,40739.7,-0.00320884,0.263462,-0,0.263481,-487.935,-35527.2,-0,35530.5,40739.7
step02_gravity_refstate-crust.xmf,484,2.25983e-06,-1.00067e-06,0,6.56719e-07,-6.33917e+08,-6.34141e+08,-6.34072e+08,45050.9,-0.00465333,0.223796,-0,0.223844,-2029,-23086,-0,23175,45050.9
step02_gravity_refstate-crust.xmf,485,1.59849e-06,-3.48073e-07,0,1.89037e-07,-4.87133e+08,-4.87267e+08,-4.87243e+08,12968,-0.00133621,0.221084,-0,0.221088,-837.143,-17740.5,-0,17760.2,12968
step02_gravity_refstate-crust.xmf,486,2.59139e-06,-1.36913e-06,0,4.34742e-07,-6.77745e+08,-6.78016e+08,-6.77922e+08,29823.3,-0.00304933,0.22637,-0,0.226391,-1173.15,-24682.3,-0,24710.2,29823.3
step02_gravity_refstate-crust.xmf,487,3.6734e-06,-2.68461e-06,0,3.87262e-07,-7.97697e+08,-7.98133e+08,-7.97949e+08,26566.1,-0.0025475,0.235209,-0,0.235222,-693.165,-29051.6,-0,29059.9,26566.1
step02_gravity_refstate-crust.xmf,488,5.44938e-06,-5.03532e-06,0,5.37671e-07,-9.22095e+08,-9.22815e+08,-9.22469e+08,36884.2,-0.00300758,0.252187,-0,0.252204,-551.98,-33584.1,-0,33588.6,36884.2
step02_gravity_refstate-crust.xmf,489,1.29316e-06,-9.98712e-08,0,1.47358e-07,-3.80686e+08,-3.80782e+08,-3.80775e+08,10108.8,-0.00110271,0.220266,-0,0.220269,-854.141,-13864.3,-0,13890.6,10108.8
step02_gravity_refstate-crust.xmf,490,1.15663e-06,-3.15383e-08,0,-9.24481e-08,-2.72924e+08,-2.73006e+08,-2.73004e+08,-6341.94,0.000903893,0.220087,0,0.220089,783.795,-9940.71,0,9971.56,6341.94
step02_gravity_refstate-crust.xmf,491,1.27449e-06,-1.75552e-07,0,-1.08361e-07,-1.38111e+08,-1.38211e+08,-1.38199e+08,-7433.55,0.00167004,0.219577,0,0.219583,1311.38,-5032.97,0,5201.01,7433.55
step02_gravity_refstate-crust.xmf,492,1.45961e-06,-3.65757e-07,0,-1.11812e-07,-7.17843e+07,-7.19096e+07,-7.18845e+07,-7670.3,0.00426553,0.218253,0,0.218295,2882.1,-2618.72,0,3894.12,7670.3
step02_gravity_refstate-crust.xmf,493,8.9398e-06,-9.98898e-06,0,-1.50195e-07,-1.05252e+09,-1.05382e+09,-1.05313e+09,-10303.4,0.00059282,0.286652,0,0.286652,66.5437,-38338.6,0,38338.7,10303.4
step02_gravity_refstate-crust.xmf,494,7.32163e-06,-7.6488e-06,0,-1.39211e-07,-1.00272e+09,-1.00375e+09,-1.00322e+09,-9549.89,0.000606623,0.270765,0,0.270766,83.1797,-36522.8,0,36522.9,9549.89
step02_gravity_refstate-crust.xmf,495,2.05127e-06,-7.86007e-07,0,2.76128e-07,-5.89057e+08,-5.89252e+08,-5.89198e+08,18942.4,-0.00198901,0.223074,-0,0.223083,-969.341,-21452.3,-0,21474.2,18942.4
step02_gravity_refstate-crust.xmf,496,1.43814e-06,-2.1548e-07,0,-4.51137e-08,-4.37157e+08,-4.3727e+08,-4.37256e+08,-3094.8,0.000303345,0.220682,0,0.220682,211.552,-15920.6,0,15922,3094.8
step02_gravity_refstate-crust.xmf,497,1.81927e-06,-5.55352e-07,0,-1.07818e-08,-5.3921e+08,-5.39372e+08,-5.39334e+08,-739.63,0.000103174,0.222059,0,0.222059,57.042,-19637,0,19637,739.63
step02_gravity_refstate-crust.xmf,498,2.95147e-06,-1.78189e-06,0,1.39847e-07,-7.20918e+08,-7.21243e+08,-7.21121e+08,9593.51,-0.00100764,0.229201,-0,0.229203,-342.71,-26254.9,-0,26257.2,9593.51
step02_gravity_refstate-crust.xmf,499,4.47908e-06,-3.71279e-06,0,6.68682e-07,-8.63202e+08,-8.63764e+08,-8.63509e+08,45871.6,-0.00413624,0.242563,-0,0.242599,-921.643,-31438.1,-0,31451.6,45871.6
step02_gravity_refstate-crust.xmf,500,4.07837e-06,-3.18548e-06,0,1.03542e-07,-8.30687e+08,-8.31185e+08,-8.30967e+08,7102.95,-0.000635056,0.238914,-0,0.238915,-156.028,-30253.6,-0,30254,7102.95
step02_gravity_refstate-crust.xmf,501,3.35031e-06,-2.28874e-06,0,-2.64747e-07,-7.65779e+08,-7.66165e+08,-7.66008e+08,-18161.7,0.00176964,0.23243,0,0.232437,528.997,-27888.9,0,27894,18161.7
step02_gravity_refstate-crust.xmf,502,4.96995e-06,-4.35949e-06,0,8.92743e-08,-8.92871e+08,-8.93511e+08,-8.93212e+08,6124.21,-0.000581458,0.247389,-0,0.24739,-117.437,-32519.2,-0,32519.4,6124.21
step02_gravity_refstate-crust.xmf,503,1.2124e-06,-5.11156e-08,0,-5.47261e-08,-3.36403e+08,-3.3649e+08,-3.36487e+08,-3754.21,0.000453955,0.220228,0,0.220229,373.158,-12251.9,0,12257.6,3754.21
step02_gravity_refstate-crust.xmf,504,1.14489e-06,-4.63575e-08,0,-2.60159e-07,-2.05139e+08,-2.05221e+08,-2.05217e+08,-17846.9,0.00290603,0.219352,0,0.219372,2506.95,-7472.85,0,7882.15,17846.9
step02_gravity_refstate-crust.xmf,505,1.76394e-06,-6.65962e-07,0,1.33584e-09,167705,1014.19,46699.2,91.6388,0.00831237,0.215777,0,0.215937,4497.88,0,0,4497.88,91.6388
step02_gravity_refstate-crust.xmf,506,9.82818e-06,-1.12965e-05,0,-1.2466e-06,-1.07606e+09,-1.07751e+09,-1.07673e+09,-85516.5,0.00537148,0.295316,0,0.295365,546.228,-39197.2,0,39201,85516.5
step02_gravity_refstate-crust.xmf,507,8.03208e-06,-8.67726e-06,0,-1.09785e-06,-1.02842e+09,-1.02956e+09,-1.02897e+09,-75312.4,0.00519303,0.277931,0,0.277979,645.508,-37459.6,0,37465.1,75312.4
step02_gravity_refstate-crust.xmf,508,6.00717e-06,-5.79117e-06,0,-1.16177e-07,-9.48922e+08,-9.49732e+08,-9.49334e+08,-7969.75,0.000565003,0.257686,0,0.257687,94.2889,-34561.8,0,34561.9,7969.75
step02_gravity_refstate-crust.xmf,509,6.56336e-06,-6.57699e-06,0,-8.56934e-07,-9.75459e+08,-9.76361e+08,-9.7591e+08,-58785.7,0.0044352,0.263274,0,0.263311,675.021,-35528.9,0,35535.4,58785.7
step02_gravity_refstate-crust.xmf,510,2.32591e-06,-1.07755e-06,0,5.21803e-08,-6.34467e+08,-6.347e+08,-6.34626e+08,3579.57,-0.00040686,0.224808,-0,0.224808,-175.609,-23106.1,-0,23106.8,3579.57
step02_gravity_refstate-crust.xmf,511,1.60946e-06,-3.59097e-07,0,-2.6217e-07,-4.91511e+08,-4.91646e+08,-4.91622e+08,-17984.8,0.00192773,0.221017,0,0.221025,1196.58,-17899.9,0,17939.9,17984.8
step02_gravity_refstate-crust.xmf,512,2.6213e-06,-1.39887e-06,0,-2.23797e-07,-6.79081e+08,-6.79356e+08,-6.79261e+08,-15352.5,0.00149613,0.226729,0,0.226734,572.106,-24731.1,0,24737.7,15352.5
step02_gravity_refstate-crust.xmf,513,3.729e-06,-2.75007e-06,0,-3.24474e-07,-8.02701e+08,-8.03145e+08,-8.02957e+08,-22258.9,0.0020538,0.235778,0,0.235787,550.579,-29234,0,29239.1,22258.9
step02_gravity_refstate-crust.xmf,514,5.4287e-06,-5.01089e-06,0,-6.13613e-07,-9.21137e+08,-9.21853e+08,-9.2151e+08,-42093.9,0.00352768,0.251929,0,0.251954,649.56,-33549.1,0,33555.4,42093.9
step02_gravity_refstate-crust.xmf,515,1.29497e-06,-1.02815e-07,0,-2.22517e-07,-3.85271e+08,-3.85367e+08,-3.8536e+08,-15264.7,0.00172266,0.220139,0,0.220146,1326.96,-14031.3,0,14093.9,15264.7
step02_gravity_refstate-crust.xmf,516,1.17665e-06,-2.20459e-08,0,-3.47465e-07,-3.28597e+08,-3.28679e+08,-3.28677e+08,-23836.1,0.00286549,0.219488,0,0.219506,2403.32,-11967.6,0,12206.5,23836.1
step02_gravity_refstate-crust.xmf,517,1.09732e-06,1.69303e-08,0,-4.43004e-07,-2.70184e+08,-2.70258e+08,-2.70259e+08,-30390.1,0.00412237,0.218583,0,0.218622,3640.21,-9840.78,0,10492.5,30390.1
step02_gravity_refstate-crust.xmf,518,1.19162e-06,-1.34314e-07,0,-3.2109e-07,-1.38609e+08,-1.387e+08,-1.38691e+08,-22026.7,0.00541581,0.217782,0,0.217849,4344.74,-5050.83,0,6662.4,22026.7
step02_gravity_refstate-crust.xmf,519,1.32171e-06,-3.08658e-07,0,-2.33002e-07,-7.22036e+07,-7.23155e+07,-7.22943e+07,-15984,0.00847332,0.215647,0,0.215813,5910.89,-2633.52,0,6471.02,15984
step02_gravity_refstate-crust.xmf,520,8.71587e-06,-9.71283e-06,0,-2.26849e-06,-1.05356e+09,-1.05483e+09,-1.05416e+09,-155618,0.0103848,0.285093,0,0.285282,1172.5,-38376.3,0,38394.2,155618
step02_gravity_refstate-crust.xmf,521,7.11474e-06,-7.37926e-06,0,-1.78642e-06,-1.00229e+09,-1.00328e+09,-1.00278e+09,-122548,0.00895738,0.26903,0,0.26918,1241.26,-36506.7,0,36527.8,122548
step02_gravity_refstate-crust.xmf,522,2.05471e-06,-7.8987e-07,0,-2.76425e-07,-5.89504e+08,-5.89699e+08,-5.89645e+08,-18962.7,0.00192947,0.223099,0,0.223107,939.244,-21468.6,0,21489.1,18962.7
step02_gravity_refstate-crust.xmf,523,1.41141e-06,-1.80442e-07,0,-4.61843e-07,-4.41569e+08,-4.41678e+08,-4.41666e+08,-31682.4,0.00337185,0.219871,0,0.219897,2351.85,-16081.2,0,16252.2,31682.4
step02_gravity_refstate-crust.xmf,524,1.79319e-06,-5.239e-07,0,-5.35588e-07,-5.43984e+08,-5.44143e+08,-5.44107e+08,-36741.4,0.00385845,0.221293,0,0.221326,2123.57,-19810.7,0,19924.2,36741.4
step02_gravity_refstate-crust.xmf,525,2.90386e-06,-1.71532e-06,0,-5.97169e-07,-7.20022e+08,-7.20338e+08,-7.20221e+08,-40965.8,0.00400207,0.228585,0,0.22862,1370.58,-26222.2,0,26258,40965.8
step02_gravity_refstate-crust.xmf,526,4.48199e-06,-3.70764e-06,0,-3.72745e-07,-8.61586e+08,-8.62148e+08,-8.61893e+08,-25570.3,0.00220531,0.242672,0,0.242682,493.022,-31379.3,0,31383.2,25570.3
step02_gravity_refstate-crust.xmf,527,4.00622e-06,-3.10795e-06,0,-7.42508e-07,-8.29527e+08,-8.30015e+08,-8.29802e+08,-50936,0.00467945,0.238157,0,0.238203,1160.19,-30211.2,0,30233.4,50936
step02_gravity_refstate-crust.xmf,528,3.55726e-06,-2.54172e-06,0,-9.51484e-07,-7.95023e+08,-7.95442e+08,-7.95267e+08,-65271.8,0.00618163,0.233948,0,0.23403,1708.87,-28954.1,0,29004.5,65271.8
step02_gravity_refstate-crust.xmf,529,4.86273e-06,-4.2196e-06,0,-1.03139e-06,-8.91846e+08,-8.92469e+08,-8.92179e+08,-70753.5,0.00602313,0.246314,0,0.246387,1227.83,-32481.7,0,32504.9,70753.5
step02_gravity_refstate-crust.xmf,530,1.0542e-06,1.10173e-08,0,-5.08662e-07,-2.09803e+08,-2.09874e+08,-2.09875e+08,-34894.2,0.0057603,0.217171,0,0.217248,5111.84,-7642.37,0,9194.38,34894.2
step02_gravity_refstate-crust.xmf,531,1.53477e-06,-5.80943e-07,0,-2.85787e-09,145853,715.439,40568.1,-196.05,0.0132889,0.212518,0,0.212933,7504.6,0,0,7504.6,196.05
step02_gravity_refstate-crust.xmf,532,9.3693e-06,-1.07568e-05,0,-3.48446e-06,-1.07742e+09,-1.0788e+09,-1.07807e+09,-239034,0.0153469,0.292295,0,0.292698,1578.81,-39245.9,0,39277.7,239034
step02_gravity_refstate-crust.xmf,533,7.62127e-06,-8.15462e-06,0,-2.98207e-06,-1.02944e+09,-1.03052e+09,-1.02997e+09,-204570,0.014382,0.274766,0,0.275143,1813.95,-37496.1,0,37539.9,204570
step02_gravity_refstate-crust.xmf,534,5.85814e-06,-5.59634e-06,0,-1.4219e-06,-9.48687e+08,-9.49473e+08,-9.49089e+08,-97542.7,0.00773505,0.25629,0,0.256406,1303.36,-34552.9,0,34577.5,97542.7
step02_gravity_refstate-crust.xmf,535,6.25619e-06,-6.18743e-06,0,-2.31031e-06,-9.7586e+08,-9.76714e+08,-9.76289e+08,-158487,0.0121713,0.260577,0,0.260861,1880.09,-35542.9,0,35592.6,158487
step02_gravity_refstate-crust.xmf,536,2.29001e-06,-1.0365e-06,0,-5.34733e-07,-6.3542e+08,-6.35648e+08,-6.35577e+08,-36682.7,0.00372604,0.224218,0,0.224249,1613.02,-23140.8,0,23196.9,36682.7
step02_gravity_refstate-crust.xmf,537,1.55138e-06,-2.89494e-07,0,-7.07428e-07,-4.96744e+08,-4.9687e+08,-4.9685e+08,-48529.6,0.00515787,0.219563,0,0.219623,3214.45,-18090.3,0,18373.6,48529.6
step02_gravity_refstate-crust.xmf,538,3.12951e-06,-2.01069e-06,0,-1.0925e-06,-7.57028e+08,-7.57381e+08,-7.57243e+08,-74945.6,0.00730559,0.229982,0,0.230098,2271.45,-27569.9,0,27663.3,74945.6
step02_gravity_refstate-crust.xmf,539,2.52118e-06,-1.27433e-06,0,-8.33843e-07,-6.77367e+08,-6.77628e+08,-6.7754e+08,-57201.6,0.00575203,0.225357,0,0.225431,2235.07,-24668.5,0,24769.5,57201.6
step02_gravity_refstate-crust.xmf,540,5.19255e-06,-4.72587e-06,0,-1.80866e-06,-9.21091e+08,-9.21771e+08,-9.21447e+08,-124074,0.0103694,0.249607,0,0.249823,1938.01,-33546.9,0,33602.9,124074
step02_gravity_refstate-crust.xmf,541,1.23379e-06,-4.12671e-08,0,-5.94616e-07,-3.86795e+08,-3.86883e+08,-3.8688e+08,-40790.7,0.00455988,0.218623,0,0.21867,3564.51,-14086.6,0,14530.6,40790.7
step02_gravity_refstate-crust.xmf,542,1.09163e-06,5.60831e-08,0,-6.83686e-07,-3.29827e+08,-3.29898e+08,-3.29902e+08,-46900.8,0.00560487,0.217289,0,0.217361,4814.22,-12012.2,0,12941,46900.8
step02_gravity_refstate-crust.xmf,543,9.97025e-07,9.79435e-08,0,-7.178e-07,-2.73647e+08,-2.73709e+08,-2.73716e+08,-49241.1,0.00662331,0.2159,0,0.216002,6025.63,-9966.59,0,11646.5,49241.1
step02_gravity_refstate-crust.xmf,544,1.01901e-06,-3.84116e-08,0,-5.34166e-07,-1.53157e+08,-1.5323e+08,-1.53227e+08,-36643.8,0.0085263,0.214306,0,0.214475,7314.11,-5579.91,0,9199.54,36643.8
step02_gravity_refstate-crust.xmf,545,1.10929e-06,-2.24692e-07,0,-3.37363e-07,-7.23658e+07,-7.24573e+07,-7.24419e+07,-23143.1,0.0121376,0.211452,0,0.2118,8931.82,-2638.69,0,9313.44,23143.1
step02_gravity_refstate-crust.xmf,546,8.02515e-06,-8.99175e-06,0,-4.48409e-06,-1.05729e+09,-1.05846e+09,-1.05784e+09,-307609,0.0208191,0.28032,0,0.281092,2388.13,-38510.3,0,38584.3,307609
step02_gravity_refstate-crust.xmf,547,6.59818e-06,-6.72803e-06,0,-3.34523e-06,-1.00264e+09,-1.00356e+09,-1.0031e+09,-229483,0.0170408,0.264682,0,0.26523,2418.1,-36518.5,0,36598.5,229483
step02_gravity_refstate-crust.xmf,548,1.97513e-06,-7.0667e-07,0,-8.80118e-07,-5.95041e+08,-5.95225e+08,-5.95177e+08,-60376.1,0.00626547,0.221424,0,0.221513,3060.34,-21670,0,21885,60376.1
step02_gravity_refstate-crust.xmf,549,1.31749e-06,-8.47271e-08,0,-8.95229e-07,-4.49594e+08,-4.4969e+08,-4.49684e+08,-61412.7,0.00660745,0.217447,0,0.217547,4657.47,-16373.1,0,17022.7,61412.7
step02_gravity_refstate-crust.xmf,550,1.68189e-06,-3.96439e-07,0,-1.05775e-06,-5.50794e+08,-5.50937e+08,-5.50909e+08,-72561.7,0.00759401,0.218885,0,0.219017,4218.29,-20058.4,0,20497.2,72561.7
step02_gravity_refstate-crust.xmf,551,2.70906e-06,-1.47436e-06,0,-1.26224e-06,-7.16392e+08,-7.16679e+08,-7.16578e+08,-86589.4,0.00859025,0.226109,0,0.226272,3028.6,-26089.6,0,26264.8,86589.4
step02_gravity_refstate-crust.xmf,552,4.30385e-06,-3.47797e-06,0,-1.35026e-06,-8.60291e+08,-8.60825e+08,-8.60586e+08,-92628,0.00820862,0.240778,0,0.240918,1864.56,-31331.8,0,31387.2,92628
step02_gravity_refstate-crust.xmf,553,3.77362e-06,-2.82331e-06,0,-1.56032e-06,-8.26685e+08,-8.27138e+08,-8.26944e+08,-107038,0.00990538,0.235536,0,0.235744,2519.5,-30107.2,0,30212.4,107038
step02_gravity_refstate-crust.xmf,554,3.29395e-06,-2.21531e-06,0,-1.68083e-06,-7.91049e+08,-7.91427e+08,-7.91275e+08,-115305,0.0110149,0.2308,0,0.231062,3148.64,-28808.8,0,28980.4,115305
step02_gravity_refstate-crust.xmf,555,4.55619e-06,-3.83118e-06,0,-2.10227e-06,-8.91623e+08,-8.92198e+08,-8.91935e+08,-144216,0.0124547,0.243137,0,0.243456,2594.77,-32472.9,0,32576.4,144216
step02_gravity_refstate-crust.xmf,556,9.394e-07,9.7441e-08,0,-7.20527e-07,-2.25053e+08,-2.25111e+08,-2.25117e+08,-49428.2,0.00780908,0.214338,0,0.21448,7223.77,-8197.23,0,10926,49428.2
step02_gravity_refstate-crust.xmf,557,1.21419e-06,-4.61148e-07,0,-6.37481e-09,115322,393.503,32028.3,-437.312,0.0174649,0.207874,0,0.208607,10528.1,0,0,10528.1,437.312
step02_gravity_refstate-crust.xmf,558,8.75e-06,-1.00854e-05,0,-5.2703e-06,-1.08152e+09,-1.08281e+09,-1.08212e+09,-361542,0.0233717,0.288384,0,0.289329,2427.6,-39393.5,0,39468.2,361542
step02_gravity_refstate-crust.xmf,559,6.81459e-06,-7.13629e-06,0,-4.60842e-06,-1.02912e+09,-1.03008e+09,-1.02959e+09,-316138,0.0227001,0.268189,0,0.269148,2970.36,-37482.6,0,37600.2,316138
step02_gravity_refstate-crust.xmf,560,5.44419e-06,-5.07275e-06,0,-2.72531e-06,-9.48946e+08,-9.49667e+08,-9.49319e+08,-186956,0.0150415,0.252407,0,0.252855,2594.21,-34561.5,0,34658.7,186956
step02_gravity_refstate-crust.xmf,561,5.65404e-06,-5.43676e-06,0,-3.68758e-06,-9.76867e+08,-9.77628e+08,-9.77255e+08,-252968,0.019762,0.255188,0,0.255952,3144.85,-35578.3,0,35717,252968
step02_gravity_refstate-crust.xmf,562,2.22543e-06,-9.5789e-07,0,-1.01186e-06,-6.42531e+08,-6.4275e+08,-6.42684e+08,-69413.7,0.00709226,0.222831,0,0.222943,3058.76,-23399.5,0,23598.6,69413.7
step02_gravity_refstate-crust.xmf,563,1.47025e-06,-1.93649e-07,0,-1.06247e-06,-5.06148e+08,-5.06262e+08,-5.06249e+08,-72885.2,0.0077375,0.21744,0,0.217578,4831.66,-18432.5,0,19055.2,72885.2
step02_gravity_refstate-crust.xmf,564,2.84449e-06,-1.65817e-06,0,-1.77032e-06,-7.53301e+08,-7.5361e+08,-7.53496e+08,-121444,0.0119406,0.226372,0,0.226686,3856.83,-27433.6,0,27703.4,121444
step02_gravity_refstate-crust.xmf,565,2.32301e-06,-1.02905e-06,0,-1.37471e-06,-6.74222e+08,-6.74452e+08,-6.74382e+08,-94305.1,0.00956994,0.222609,0,0.222815,3838.83,-24553.5,0,24851.8,94305.1
step02_gravity_refstate-crust.xmf,566,4.71114e-06,-4.13289e-06,0,-2.96291e-06,-9.21291e+08,-9.21898e+08,-9.21614e+08,-203256,0.0171787,0.244776,0,0.245378,3311.31,-33553.2,0,33716.2,203256
step02_gravity_refstate-crust.xmf,567,1.108e-06,8.54579e-08,0,-9.55945e-07,-3.87699e+08,-3.87769e+08,-3.87775e+08,-65577.8,0.00733803,0.215577,0,0.215702,5930.74,-14119.2,0,15314.2,65577.8
step02_gravity_refstate-crust.xmf,568,9.56777e-07,1.81057e-07,0,-9.81871e-07,-3.32176e+08,-3.32229e+08,-3.32241e+08,-67356.4,0.00806797,0.213767,0,0.213919,7202.56,-12097.3,0,14079.2,67356.4
step02_gravity_refstate-crust.xmf,569,8.59942e-07,2.05973e-07,0,-9.44541e-07,-2.75179e+08,-2.75224e+08,-2.75238e+08,-64795.5,0.00874734,0.212229,0,0.212409,8309.76,-10022,0,13018.9,64795.5
step02_gravity_refstate-crust.xmf,570,8.31966e-07,-1.17916e-07,0,-4.03765e-07,-7.04427e+07,-7.05079e+07,-7.04998e+07,-27698.3,0.015176,0.20588,0,0.206438,11983.5,-2567.72,0,12255.5,27698.3
step02_gravity_refstate-crust.xmf,571,8.11345e-07,1.65944e-07,0,-8.47029e-07,-2.13475e+08,-2.13519e+08,-2.1353e+08,-58106.2,0.00973895,0.210736,0,0.210961,9357.5,-7775.3,0,12166.3,58106.2
step02_gravity_refstate-crust.xmf,572,8.14999e-07,5.03474e-08,0,-6.70928e-07,-1.43116e+08,-1.43169e+08,-1.43172e+08,-46025.7,0.0116309,0.208868,0,0.209191,10498.5,-5213.66,0,11721.8,46025.7
step02_gravity_refstate-crust.xmf,573,7.6068e-06,-8.63823e-06,0,-6.51498e-06,-1.07657e+09,-1.07768e+09,-1.07709e+09,-446927,0.0297375,0.279301,0,0.280879,3273.63,-39211,0,39347.4,446927
step02_gravity_refstate-crust.xmf,574,6.70064e-06,-7.28161e-06,0,-6.01457e-06,-1.05121e+09,-1.05217e+09,-1.05167e+09,-412600,0.0289871,0.269191,0,0.270747,3579.71,-38286.2,0,38453.2,412600
step02_gravity_refstate-crust.xmf,575,5.79247e-06,-5.72137e-06,0,-4.72345e-06,-1.00357e+09,-1.00436e+09,-1.00397e+09,-324028,0.0245547,0.257695,0,0.258862,3620.37,-36550.7,0,36729.5,324028
step02_gravity_refstate-crust.xmf,576,1.99488e-06,-6.9208e-07,0,-1.40292e-06,-6.30605e+08,-6.3079e+08,-6.30742e+08,-96240.5,0.00996394,0.219802,0,0.220028,4546.53,-22964.8,0,23410.5,96240.5
step02_gravity_refstate-crust.xmf,577,1.29174e-06,-6.50308e-09,0,-1.24098e-06,-4.84745e+08,-4.84834e+08,-4.84833e+08,-85130.9,0.00913489,0.215034,0,0.215228,6137.77,-17652.8,0,18689.4,85130.9
step02_gravity_refstate-crust.xmf,578,1.42636e-06,-1.09944e-07,0,-1.43247e-06,-5.35398e+08,-5.35503e+08,-5.35495e+08,-98267.2,0.0104281,0.214871,0,0.215124,6260.95,-19497.3,0,20477.9,98267.2
step02_gravity_refstate-crust.xmf,579,1.71113e-06,-3.95108e-07,0,-1.42362e-06,-5.87079e+08,-5.87224e+08,-5.87197e+08,-97660.4,0.0102393,0.217369,0,0.21761,5304.83,-21379.5,0,22027.8,97660.4
step02_gravity_refstate-crust.xmf,580,2.41875e-06,-1.11493e-06,0,-1.84265e-06,-7.12903e+08,-7.13145e+08,-7.13069e+08,-126406,0.0127186,0.222154,0,0.222518,4678.57,-25962,0,26380.2,126406
step02_gravity_refstate-crust.xmf,581,3.95337e-06,-3.03374e-06,0,-2.2698e-06,-8.59401e+08,-8.5988e+08,-8.59672e+08,-155708,0.014001,0.236913,0,0.237326,3274.9,-31298.6,0,31469.5,155708
step02_gravity_refstate-crust.xmf,582,3.39879e-06,-2.35787e-06,0,-2.3369e-06,-8.24386e+08,-8.24781e+08,-8.24619e+08,-160311,0.0150225,0.231129,0,0.231617,3969.96,-30022.7,0,30284,160311
step02_gravity_refstate-crust.xmf,583,2.90968e-06,-1.73646e-06,0,-2.3588e-06,-7.88237e+08,-7.88556e+08,-7.88437e+08,-161813,0.0156754,0.225989,0,0.226532,4685.46,-28705.6,0,29085.5,161813
step02_gravity_refstate-crust.xmf,584,4.05221e-06,-3.19477e-06,0,-3.08655e-06,-8.9208e+08,-8.92577e+08,-8.92358e+08,-211737,0.0185907,0.237743,0,0.238469,4014.86,-32488.5,0,32735.6,211737
step02_gravity_refstate-crust.xmf,585,8.22948e-07,-3.1423e-07,0,-8.97628e-09,78091.1,80.6154,21636.8,-615.773,0.0205949,0.202116,0,0.203163,13577.4,0,0,13577.4,615.773
step02_gravity_refstate-crust.xmf,586,1.11727e-06,1.3023e-07,0,-1.2506e-06,-4.40587e+08,-4.40655e+08,-4.40664e+08,-85791.5,0.00935084,0.2134,0,0.213604,7027.34,-16044.7,0,17516.2,85791.5
step02_gravity_refstate-crust.xmf,587,5.6931e-06,-5.72474e-06,0,-5.93793e-06,-1.02827e+09,-1.02905e+09,-1.02866e+09,-407342,0.0300967,0.258554,0,0.2603,4167.26,-37449.3,0,37680.5,407342
step02_gravity_refstate-crust.xmf,588,4.86996e-06,-4.47992e-06,0,-4.85659e-06,-9.80119e+08,-9.8076e+08,-9.80453e+08,-333162,0.0265211,0.247901,0,0.249316,4381.08,-35695,0,35962.8,333162
step02_gravity_refstate-crust.xmf,589,4.74825e-06,-4.20616e-06,0,-3.94141e-06,-9.49898e+08,-9.50512e+08,-9.50224e+08,-270381,0.0222073,0.245675,0,0.246676,3987.64,-34594.7,0,34823.8,270381
step02_gravity_refstate-crust.xmf,590,2.46137e-06,-1.18049e-06,0,-2.35712e-06,-7.50294e+08,-7.50544e+08,-7.50463e+08,-161698,0.0161367,0.221227,0,0.221815,5481.96,-27323.3,0,27867.8,161698
step02_gravity_refstate-crust.xmf,591,2.04412e-06,-6.84254e-07,0,-1.86045e-06,-6.70758e+08,-6.70945e+08,-6.70898e+08,-127627,0.0131147,0.218485,0,0.218878,5509.96,-24426.8,0,25040.5,127627
step02_gravity_refstate-crust.xmf,592,4.02505e-06,-3.28478e-06,0,-4.0114e-06,-9.23939e+08,-9.2444e+08,-9.24215e+08,-275182,0.0236377,0.237637,0,0.238809,4750.71,-33648.1,0,33981.8,275182
step02_gravity_refstate-crust.xmf,593,5.08042e-07,1.23085e-08,0,-4.49855e-07,-7.05597e+07,-7.05937e+07,-7.05946e+07,-30860.1,0.0171979,0.199431,0,0.200171,15006.9,-2570.87,0,15225.5,30860.1
step02_gravity_refstate-crust.xmf,594,9.30802e-07,2.67967e-07,0,-1.26689e-06,-3.89767e+08,-3.89813e+08,-3.89831e+08,-86908.5,0.00979222,0.211166,0,0.211393,8309.65,-14194,0,16447.5,86908.5
step02_gravity_refstate-crust.xmf,595,7.85337e-07,3.39111e-07,0,-1.22454e-06,-3.33948e+08,-3.33978e+08,-3.34001e+08,-84003.3,0.0101239,0.209179,0,0.209424,9543.58,-12161.4,0,15459,84003.3
step02_gravity_refstate-crust.xmf,596,6.8005e-07,3.44208e-07,0,-1.13138e-06,-2.73187e+08,-2.7321e+08,-2.73233e+08,-77613,0.0106495,0.207257,0,0.20753,10785.4,-9948.91,0,14673.3,77613
step02_gravity_refstate-crust.xmf,597,5.6725e-07,1.6675e-07,0,-7.62599e-07,-1.40308e+08,-1.40336e+08,-1.40347e+08,-52314.3,0.0137307,0.202711,0,0.203176,13438.1,-5110.62,0,14377.1,52314.3
step02_gravity_refstate-crust.xmf,598,6.15053e-07,2.82851e-07,0,-9.81586e-07,-2.08695e+08,-2.08717e+08,-2.08737e+08,-67336.8,0.0116824,0.205281,0,0.205613,12025.4,-7600.66,0,14226,67336.8
step02_gravity_refstate-crust.xmf,599,6.18136e-06,-6.82182e-06,0,-7.79576e-06,-1.07527e+09,-1.07616e+09,-1.07569e+09,-534789,0.036719,0.26778,0,0.270285,4311.74,-39160.6,0,39397.2,534789
step02_gravity_refstate-crust.xmf,600,5.29341e-06,-5.49197e-06,0,-7.30117e-06,-1.05186e+09,-1.0526e+09,-1.05223e+09,-500860,0.036249,0.257306,0,0.259847,4778.68,-38307.1,0,38604,500860
step02_gravity_refstate-crust.xmf,601,4.82233e-06,-4.51005e-06,0,-5.79838e-06,-1.00539e+09,-1.00603e+09,-1.00573e+09,-397769,0.0308966,0.248849,0,0.25076,4783.93,-36614.9,0,36926.1,397769
step02_gravity_refstate-crust.xmf,602,1.71606e-06,-3.54205e-07,0,-1.85272e-06,-6.27446e+08,-6.27588e+08,-6.27564e+08,-127097,0.0132891,0.21525,0,0.215659,6389.32,-22849.2,0,23725.7,127097
step02_gravity_refstate-crust.xmf,603,1.11888e-06,1.97107e-07,0,-1.55006e-06,-4.89191e+08,-4.89254e+08,-4.89268e+08,-106334,0.0114553,0.211006,0,0.211317,7980.33,-17814.3,0,19520.1,106334
step02_gravity_refstate-crust.xmf,604,1.42253e-06,-4.84852e-08,0,-1.83046e-06,-5.83195e+08,-5.83296e+08,-5.83292e+08,-125570,0.0133369,0.212288,0,0.212706,7353.56,-21237.5,0,22474.5,125570
step02_gravity_refstate-crust.xmf,605,2.06264e-06,-6.70844e-07,0,-2.3237e-06,-7.1018e+08,-7.10368e+08,-7.10322e+08,-159406,0.0162938,0.216968,0,0.217579,6321.16,-25862.1,0,26623.4,159406
step02_gravity_refstate-crust.xmf,606,3.44444e-06,-2.39083e-06,0,-3.07856e-06,-8.58681e+08,-8.59081e+08,-8.58917e+08,-211189,0.019347,0.231065,0,0.231873,4729.98,-31271.4,0,31627.1,211189
step02_gravity_refstate-crust.xmf,607,2.90787e-06,-1.74238e-06,0,-3.01268e-06,-8.23238e+08,-8.23557e+08,-8.23438e+08,-206670,0.0196995,0.225058,0,0.225918,5471.36,-29979.9,0,30475.1,206670
step02_gravity_refstate-crust.xmf,608,2.44077e-06,-1.14653e-06,0,-2.92233e-06,-7.86602e+08,-7.86848e+08,-7.86769e+08,-200472,0.0197673,0.219753,0,0.220641,6244.97,-28645.1,0,29318,200472
step02_gravity_refstate-crust.xmf,609,3.37593e-06,-2.33877e-06,0,-3.90866e-06,-8.92731e+08,-8.93123e+08,-8.92963e+08,-268134,0.0240841,0.230133,0,0.23139,5482.78,-32510.8,0,32969.9,268134
step02_gravity_refstate-crust.xmf,610,3.88285e-07,-1.506e-07,0,-1.15149e-08,36745.5,-221.996,10109.2,-789.921,0.0224886,0.195574,0,0.196862,16661.6,0,0,16661.6,789.921
step02_gravity_refstate-crust.xmf,611,8.98543e-07,3.74739e-07,0,-1.5625e-06,-4.43874e+08,-4.4391e+08,-4.43936e+08,-107187,0.0117636,0.208119,0,0.208451,9353.85,-16163.9,0,18675.3,107187
step02_gravity_refstate-crust.xmf,612,4.46438e-06,-4.17199e-06,0,-6.898e-06,-1.02883e+09,-1.02942e+09,-1.02913e+09,-473203,0.0360691,0.247339,0,0.249955,5332.27,-37467.1,0,37844.7,473203
step02_gravity_refstate-crust.xmf,613,4.12502e-06,-3.56919e-06,0,-5.72321e-06,-9.87286e+08,-9.87814e+08,-9.87569e+08,-392612,0.0317114,0.240967,0,0.243045,5384.29,-35954.3,0,36355.2,392612
step02_gravity_refstate-crust.xmf,614,3.83441e-06,-3.15747e-06,0,-5.14765e-06,-9.5944e+08,-9.59919e+08,-9.59703e+08,-353129,0.0294794,0.236686,0,0.238515,5493.71,-34940,0,35369.2,353129
step02_gravity_refstate-crust.xmf,615,1.15153e-06,2.28876e-07,0,-1.82312e-06,-5.38734e+08,-5.38797e+08,-5.38813e+08,-125066,0.0134438,0.209176,0,0.209608,8531.51,-19618.2,0,21393,125066
step02_gravity_refstate-crust.xmf,616,2.0334e-06,-6.42371e-07,0,-2.8128e-06,-7.48547e+08,-7.48731e+08,-7.48687e+08,-192958,0.0195924,0.215075,0,0.215966,7056.6,-27258.8,0,28157.4,192958
step02_gravity_refstate-crust.xmf,617,1.69219e-06,-2.4694e-07,0,-2.29753e-06,-6.69698e+08,-6.69831e+08,-6.69814e+08,-157610,0.0164603,0.212828,0,0.213463,7321.39,-24387.5,0,25462.8,157610
step02_gravity_refstate-crust.xmf,618,3.15516e-06,-2.19478e-06,0,-4.83426e-06,-9.26918e+08,-9.27285e+08,-9.27134e+08,-331630,0.0291799,0.228065,0,0.229924,6229.21,-33754.7,0,34324.7,331630
step02_gravity_refstate-crust.xmf,619,1.57751e-07,1.55752e-07,0,-4.77117e-07,-7.20383e+07,-7.20384e+07,-7.20491e+07,-32730.2,0.0181414,0.192403,0,0.193257,18045.5,-2623.51,0,18235.2,32730.2
step02_gravity_refstate-crust.xmf,620,2.93407e-07,2.99639e-07,0,-8.15842e-07,-1.40684e+08,-1.40683e+08,-1.40704e+08,-55966.8,0.0149678,0.195913,0,0.196484,16335.3,-5123.38,0,17119.9,55966.8
step02_gravity_refstate-crust.xmf,621,7.16531e-07,4.88774e-07,0,-1.51266e-06,-3.91988e+08,-3.92004e+08,-3.92037e+08,-103769,0.0117921,0.205601,0,0.205939,10691.9,-14274.4,0,17834.7,103769
step02_gravity_refstate-crust.xmf,622,5.72229e-07,5.3413e-07,0,-1.41496e-06,-3.34443e+08,-3.34446e+08,-3.34482e+08,-97065.9,0.0118325,0.203274,0,0.203618,12052.5,-12178.9,0,17134.4,97065.9
step02_gravity_refstate-crust.xmf,623,4.6347e-07,5.11887e-07,0,-1.273e-06,-2.73378e+08,-2.73375e+08,-2.7341e+08,-87327.9,0.0121585,0.201029,0,0.201396,13423.4,-9955.27,0,16712.1,87327.9
step02_gravity_refstate-crust.xmf,624,3.80542e-07,4.25189e-07,0,-1.07375e-06,-2.07553e+08,-2.0755e+08,-2.07579e+08,-73659.1,0.0130853,0.198719,0,0.19915,14818.3,-7558.37,0,16634.6,73659.1
step02_gravity_refstate-crust.xmf,625,4.61368e-06,-4.80593e-06,0,-8.71212e-06,-1.0753e+09,-1.07594e+09,-1.07561e+09,-597651,0.042526,0.25426,0,0.257792,5388.5,-39158.5,0,39527.5,597651
step02_gravity_refstate-crust.xmf,626,3.88585e-06,-3.6758e-06,0,-8.05612e-06,-1.05232e+09,-1.05284e+09,-1.05259e+09,-552650,0.0414133,0.244318,0,0.247803,5892.59,-38320.9,0,38771.3,552650
step02_gravity_refstate-crust.xmf,627,3.80036e-06,-3.21641e-06,0,-6.52675e-06,-1.00702e+09,-1.0075e+09,-1.00728e+09,-447735,0.0357252,0.238953,0,0.241609,5864.85,-36672,0,37138,447735
step02_gravity_refstate-crust.xmf,628,1.32103e-06,1.44637e-07,0,-2.30472e-06,-6.28996e+08,-6.29077e+08,-6.29087e+08,-158104,0.0167758,0.208178,0,0.208853,8645.19,-22904.8,0,24482,158104
step02_gravity_refstate-crust.xmf,629,8.53387e-07,5.1309e-07,0,-1.90283e-06,-5.03708e+08,-5.03732e+08,-5.03767e+08,-130534,0.0141849,0.204438,0,0.20493,10340.5,-18342.2,0,21056.2,130534
step02_gravity_refstate-crust.xmf,630,1.15802e-06,2.86352e-07,0,-2.09048e-06,-5.81355e+08,-5.81415e+08,-5.81435e+08,-143407,0.0154274,0.207306,0,0.207879,9022.32,-21169.9,0,23012.4,143407
step02_gravity_refstate-crust.xmf,631,1.67289e-06,-1.83745e-07,0,-2.69986e-06,-7.09432e+08,-7.09559e+08,-7.09547e+08,-185210,0.0192868,0.210837,0,0.211717,7942.68,-25834.1,0,27027.5,185210
step02_gravity_refstate-crust.xmf,632,2.8223e-06,-1.6011e-06,0,-3.73991e-06,-8.59153e+08,-8.59456e+08,-8.59346e+08,-256558,0.0240324,0.223506,0,0.224794,6216.09,-31287.3,0,31898.8,256558
step02_gravity_refstate-crust.xmf,633,2.33754e-06,-1.02008e-06,0,-3.54883e-06,-8.23289e+08,-8.23519e+08,-8.23449e+08,-243450,0.0236941,0.217555,0,0.218841,6993.68,-29980.5,0,30785.4,243450
step02_gravity_refstate-crust.xmf,634,1.92564e-06,-4.92522e-07,0,-3.34656e-06,-7.85921e+08,-7.86087e+08,-7.86053e+08,-229574,0.0231105,0.212418,0,0.213672,7794.54,-28619.3,0,29661.7,229574
step02_gravity_refstate-crust.xmf,635,2.60706e-06,-1.35752e-06,0,-4.51031e-06,-8.93977e+08,-8.94249e+08,-8.94156e+08,-309407,0.0285499,0.220903,0,0.22274,6944.95,-32554.6,0,33287.1,309407
step02_gravity_refstate-crust.xmf,636,-6.23368e-08,1.83942e-08,0,-1.53542e-08,-6145.28,-607.13,-1868.97,-1053.3,0.0230224,0.188624,0,0.190024,19789.7,0,0,19789.7,1053.3
step02_gravity_refstate-crust.xmf,637,6.36131e-07,6.68347e-07,0,-1.80191e-06,-4.48004e+08,-4.48002e+08,-4.48048e+08,-123611,0.0137178,0.201471,0,0.201937,11773.4,-16313.7,0,20118.3,123611
step02_gravity_refstate-crust.xmf,638,3.25774e-06,-2.62908e-06,0,-7.47498e-06,-1.02983e+09,-1.03023e+09,-1.03005e+09,-512783,0.040401,0.235409,0,0.238851,6424.69,-37501.1,0,38047.5,512783
step02_gravity_refstate-crust.xmf,639,3.2334e-06,-2.38937e-06,0,-6.16695e-06,-9.8446e+08,-9.84846e+08,-9.84682e+08,-423052,0.0351514,0.231479,0,0.234132,6397.87,-35849.6,0,36416.1,423052
step02_gravity_refstate-crust.xmf,640,2.7044e-06,-1.69158e-06,0,-5.77244e-06,-9.58634e+08,-9.58936e+08,-9.5882e+08,-395989,0.0343655,0.223972,0,0.226593,7011.62,-34908.4,0,35605.6,395989
step02_gravity_refstate-crust.xmf,641,9.42515e-07,4.89429e-07,0,-2.0718e-06,-5.4816e+08,-5.48191e+08,-5.48225e+08,-142125,0.0153828,0.204365,0,0.204944,10093.7,-19960.9,0,22367.8,142125
step02_gravity_refstate-crust.xmf,642,1.57523e-06,-5.81748e-08,0,-3.15713e-06,-7.48348e+08,-7.4846e+08,-7.48456e+08,-216579,0.0224248,0.207963,0,0.209169,8633.74,-27250.6,0,28585.6,216579
step02_gravity_refstate-crust.xmf,643,1.31866e-06,2.16284e-07,0,-2.65496e-06,-6.74243e+08,-6.74319e+08,-6.74334e+08,-182130,0.0193537,0.206132,0,0.207039,9111.93,-24552.2,0,26188.5,182130
step02_gravity_refstate-crust.xmf,644,2.23358e-06,-9.9897e-07,0,-5.30875e-06,-9.27666e+08,-9.27888e+08,-9.27819e+08,-364181,0.0331161,0.216957,0,0.21947,7666.76,-33780.1,0,34639.2,364181
step02_gravity_refstate-crust.xmf,645,2.17621e-08,4.41098e-07,0,-8.38261e-07,-1.44678e+08,-1.44649e+08,-1.44679e+08,-57504.7,0.0152916,0.18901,0,0.189628,19117.4,-5267.9,0,19829.9,57504.7
step02_gravity_refstate-crust.xmf,646,-2.19411e-07,3.48946e-07,0,-5.13234e-07,-8.37187e+07,-8.36797e+07,-8.37037e+07,-35207.8,0.0174434,0.184103,0,0.184928,21521,-3047.52,0,21735.7,35207.8
step02_gravity_refstate-crust.xmf,647,1.34733e-07,5.75812e-07,0,-1.1123e-06,-2.08463e+08,-2.08433e+08,-2.08472e+08,-76303.5,0.0137922,0.191636,0,0.192131,17606.5,-7590.74,0,19173.1,76303.5
step02_gravity_refstate-crust.xmf,648,4.66089e-07,7.4571e-07,0,-1.6839e-06,-3.92671e+08,-3.92652e+08,-3.92703e+08,-115516,0.0132985,0.198786,0,0.199231,13216.3,-14298.6,0,19471.1,115516
step02_gravity_refstate-crust.xmf,649,3.31709e-07,7.49605e-07,0,-1.53136e-06,-3.33652e+08,-3.33623e+08,-3.33674e+08,-105051,0.0130221,0.196266,0,0.196698,14702.4,-12149.4,0,19072.7,105051
step02_gravity_refstate-crust.xmf,650,2.28534e-07,6.87182e-07,0,-1.34287e-06,-2.72193e+08,-2.72161e+08,-2.72208e+08,-92121,0.0131005,0.193979,0,0.194421,16147.3,-9911.43,0,18946.6,92121
step02_gravity_refstate-crust.xmf,651,3.08194e-06,-2.80011e-06,0,-9.17427e-06,-1.07551e+09,-1.07591e+09,-1.07572e+09,-629355,0.0466075,0.239692,0,0.244182,6443.76,-39163.2,0,39689.7,629355
step02_gravity_refstate-crust.xmf,652,2.52873e-06,-1.88987e-06,0,-8.4019e-06,-1.05259e+09,-1.05289e+09,-1.05276e+09,-576371,0.0449296,0.230437,0,0.234776,6980.67,-38327.8,0,38958.3,576371
step02_gravity_refstate-crust.xmf,653,2.82879e-06,-1.98953e-06,0,-6.93243e-06,-1.00773e+09,-1.00806e+09,-1.00792e+09,-475565,0.0391311,0.22858,0,0.231905,6871.09,-36695.8,0,37333.5,475565
step02_gravity_refstate-crust.xmf,654,9.02937e-07,6.2265e-07,0,-2.44628e-06,-6.07735e+08,-6.07754e+08,-6.07797e+08,-167815,0.0181987,0.200996,0,0.201818,10714.2,-22129.8,0,24587,167815
step02_gravity_refstate-crust.xmf,655,5.23429e-07,9.01084e-07,0,-2.09549e-06,-5.03638e+08,-5.03612e+08,-5.03674e+08,-143751,0.0159083,0.196533,0,0.197176,12844.9,-18339,0,22389.9,143751
step02_gravity_refstate-crust.xmf,656,6.90254e-07,7.9746e-07,0,-2.26355e-06,-5.55062e+08,-5.55054e+08,-5.55109e+08,-155279,0.0170085,0.19852,0,0.199247,11785.9,-20211.6,0,23396.9,155279
step02_gravity_refstate-crust.xmf,657,1.32266e-06,2.47286e-07,0,-2.98884e-06,-7.14999e+08,-7.15073e+08,-7.15089e+08,-205034,0.0216844,0.204719,0,0.205864,9360.46,-26036,0,27667.5,205034
step02_gravity_refstate-crust.xmf,658,2.12175e-06,-7.01654e-07,0,-4.21534e-06,-8.59758e+08,-8.59952e+08,-8.59903e+08,-289172,0.02783,0.214363,0,0.216162,7735.46,-31307.8,0,32249.3,289172
step02_gravity_refstate-crust.xmf,659,1.36855e-06,2.24879e-07,0,-3.63994e-06,-7.8589e+08,-7.85968e+08,-7.85984e+08,-249700,0.0257661,0.203828,0,0.205451,9409.11,-28617,0,30124.1,249700
step02_gravity_refstate-crust.xmf,660,1.70928e-06,-2.11969e-07,0,-3.92628e-06,-8.23698e+08,-8.2383e+08,-8.23815e+08,-269343,0.0268993,0.208639,0,0.210366,8565.04,-29994.1,0,31193.1,269343
step02_gravity_refstate-crust.xmf,661,1.79911e-06,-3.09812e-07,0,-4.88308e-06,-8.9544e+08,-8.95585e+08,-8.95564e+08,-334979,0.0319088,0.210327,0,0.212733,8417.29,-32606.2,0,33675.1,334979
step02_gravity_refstate-crust.xmf,662,-4.79493e-07,1.83378e-07,0,-9.35637e-09,-45487.5,-14.5738,-12594.3,-641.847,0.022154,0.181674,0,0.18302,22970.9,0,0,22970.9,641.847
step02_gravity_refstate-crust.xmf,663,-5.64257e-07,4.46757e-07,0,-3.99801e-07,-7.02051e+07,-7.01357e+07,-7.01664e+07,-27426.3,0.0167994,0.176987,0,0.177783,24797.4,-2554.29,0,24928.6,27426.3
step02_gravity_refstate-crust.xmf,664,-9.03732e-07,3.39212e-07,0,-1.51399e-08,-86006.2,-740.212,-24010.2,-1038.6,0.0198955,0.175133,0,0.17626,26214.4,0,0,26214.4,1038.6
step02_gravity_refstate-crust.xmf,665,-9.95911e-08,7.24214e-07,0,-1.10276e-06,-2.11449e+08,-2.11393e+08,-2.11443e+08,-75649.1,0.0137986,0.184573,0,0.185089,20307.8,-7698.75,0,21718.2,75649.1
step02_gravity_refstate-crust.xmf,666,3.57808e-07,9.83817e-07,0,-1.93818e-06,-4.50557e+08,-4.50514e+08,-4.50582e+08,-132959,0.0149922,0.193982,0,0.19456,14205.8,-16405.9,0,21701.6,132959
step02_gravity_refstate-crust.xmf,667,2.07835e-06,-1.09635e-06,0,-7.67318e-06,-1.02869e+09,-1.02891e+09,-1.02883e+09,-526380,0.0431843,0.222316,0,0.226471,7524.49,-37457.1,0,38205.4,526380
step02_gravity_refstate-crust.xmf,668,2.08888e-06,-1.0019e-06,0,-6.76869e-06,-9.93598e+08,-9.9381e+08,-9.93742e+08,-464332,0.0395962,0.219033,0,0.222583,7697.84,-36179.8,0,36989.7,464332
step02_gravity_refstate-crust.xmf,669,1.68767e-06,-3.58243e-07,0,-6.08875e-06,-9.60935e+08,-9.61075e+08,-9.61051e+08,-417688,0.0375803,0.211499,0,0.214812,8375.84,-34990.1,0,35978.6,417688
step02_gravity_refstate-crust.xmf,670,1.00934e-06,5.71116e-07,0,-2.68934e-06,-6.54271e+08,-6.54301e+08,-6.54341e+08,-184489,0.0199062,0.20125,0,0.202232,10385.7,-23824.4,0,25989.7,184489
step02_gravity_refstate-crust.xmf,671,1.09438e-06,5.56828e-07,0,-3.36597e-06,-7.46382e+08,-7.46419e+08,-7.46457e+08,-230905,0.0244558,0.199985,0,0.201475,10240.6,-27178.1,0,29043.4,230905
step02_gravity_refstate-crust.xmf,672,9.25748e-07,7.21936e-07,0,-3.04536e-06,-6.98932e+08,-6.98946e+08,-6.98995e+08,-208912,0.0225213,0.198156,0,0.199432,10848.9,-25450.2,0,27666,208912
step02_gravity_refstate-crust.xmf,673,1.34939e-06,1.7302e-07,0,-5.53267e-06,-9.29395e+08,-9.29476e+08,-9.29488e+08,-379542,0.0357775,0.205152,0,0.208249,9069.28,-33841.3,0,35035.5,379542
step02_gravity_refstate-crust.xmf,674,-2.04918e-07,6.0264e-07,0,-8.62514e-07,-1.59206e+08,-1.59151e+08,-1.59192e+08,-59168.4,0.0146495,0.182523,0,0.183109,21632.5,-5796.16,0,22395.6,59168.4
step02_gravity_refstate-crust.xmf,675,-8.65523e-07,5.73063e-07,0,-3.58961e-07,-7.47831e+07,-7.46845e+07,-7.47238e+07,-24624.7,0.01423,0.170442,0,0.171035,28079.9,-2719.94,0,28211.3,24624.7
step02_gravity_refstate-crust.xmf,676,-6.48245e-09,8.63044e-07,0,-1.34935e-06,-2.72908e+08,-2.72849e+08,-2.72908e+08,-92565.7,0.0134037,0.186543,0,0.187024,18885.2,-9936.81,0,21339.9,92565.7
step02_gravity_refstate-crust.xmf,677,1.96137e-07,1.02396e-06,0,-1.7686e-06,-3.93128e+08,-3.93071e+08,-3.93141e+08,-121326,0.014197,0.190888,0,0.191415,15895.9,-14314.6,0,21391.3,121326
step02_gravity_refstate-crust.xmf,678,8.68608e-08,9.72607e-07,0,-1.57716e-06,-3.35521e+08,-3.35461e+08,-3.35527e+08,-108193,0.0136051,0.188576,0,0.189066,17399.9,-12216.8,0,21260.5,108193
step02_gravity_refstate-crust.xmf,679,1.67367e-06,-9.08867e-07,0,-9.23677e-06,-1.0752e+09,-1.07538e+09,-1.07532e+09,-633642,0.0490316,0.224541,0,0.229832,7486.15,-39149.1,0,39858.5,633642
step02_gravity_refstate-crust.xmf,680,1.32781e-06,-2.70713e-07,0,-8.47184e-06,-1.05429e+09,-1.0544e+09,-1.05439e+09,-581168,0.0471088,0.216864,0,0.221922,8001.16,-38387.6,0,39212.6,581168
step02_gravity_refstate-crust.xmf,681,2.29869e-07,1.25665e-06,0,-2.18565e-06,-5.07081e+08,-5.0701e+08,-5.07097e+08,-149935,0.0168658,0.188687,0,0.189439,15100.3,-18463.7,0,23852.2,149935
step02_gravity_refstate-crust.xmf,682,6.79872e-07,9.80201e-07,0,-2.82597e-06,-6.55197e+08,-6.55176e+08,-6.55243e+08,-193862,0.0212655,0.194626,0,0.195785,11943.8,-23857.4,0,26680.1,193862
step02_gravity_refstate-crust.xmf,683,3.68845e-07,1.19615e-06,0,-2.38086e-06,-5.57505e+08,-5.57449e+08,-5.57531e+08,-163327,0.0182151,0.190766,0,0.191633,13893.9,-20299.9,0,24599.3,163327
step02_gravity_refstate-crust.xmf,684,5.16155e-07,1.10774e-06,0,-2.59407e-06,-6.07444e+08,-6.07403e+08,-6.07479e+08,-177953,0.0197129,0.192629,0,0.193635,12863.8,-22118.4,0,25587.1,177953
step02_gravity_refstate-crust.xmf,685,1.38049e-06,2.65156e-07,0,-4.51087e-06,-8.61682e+08,-8.61759e+08,-8.61777e+08,-309446,0.0307359,0.203773,0,0.206078,9314.18,-31376.4,0,32729.7,309446
step02_gravity_refstate-crust.xmf,686,8.06007e-07,9.65802e-07,0,-3.78695e-06,-7.86308e+08,-7.86297e+08,-7.86363e+08,-259785,0.0276032,0.194261,0,0.196212,11075.6,-28631.1,0,30698.7,259785
step02_gravity_refstate-crust.xmf,687,1.05386e-06,6.47934e-07,0,-4.14484e-06,-8.25268e+08,-8.25296e+08,-8.2534e+08,-284336,0.0292773,0.198377,0,0.200526,10211.9,-30050,0,31737.7,284336
step02_gravity_refstate-crust.xmf,688,1.01674e-06,7.26398e-07,0,-5.04394e-06,-8.9791e+08,-8.9793e+08,-8.9798e+08,-346015,0.0341693,0.198902,0,0.201816,9886.2,-32694.5,0,34156.6,346015
step02_gravity_refstate-crust.xmf,689,-4.33569e-07,6.55361e-07,0,-7.47784e-07,-1.44973e+08,-1.44898e+08,-1.44943e+08,-51298,0.0142233,0.17681,0,0.177381,24191.8,-5277.15,0,24760.7,51298
step02_gravity_refstate-crust.xmf,690,-3.20109e-07,8.49994e-07,0,-1.03439e-06,-2.11214e+08,-2.11134e+08,-2.11192e+08,-70959.4,0.0132312,0.177734,0,0.178226,23024.5,-7689.47,0,24274.6,70959.4
step02_gravity_refstate-crust.xmf,691,-1.24673e-06,4.68985e-07,0,-1.47121e-08,-118604,-906.635,-33079,-1009.25,0.016349,0.169419,0,0.170206,29529.6,0,0,29529.6,1009.25
step02_gravity_refstate-crust.xmf,692,-6.27537e-07,7.62526e-07,0,-6.57992e-07,-1.46877e+08,-1.46782e+08,-1.46834e+08,-45138.3,0.0127308,0.171005,0,0.171478,26869.7,-5345.86,0,27396.3,45138.3
step02_gravity_refstate-crust.xmf,693,-2.24833e-07,1.02541e-06,0,-1.29739e-06,-2.74449e+08,-2.74363e+08,-2.74434e+08,-89000.9,0.0130899,0.179242,0,0.17972,21577.2,-9992.28,0,23778.6,89000.9
step02_gravity_refstate-crust.xmf,694,1.15449e-07,1.27073e-06,0,-1.99896e-06,-4.57047e+08,-4.56968e+08,-4.57055e+08,-137129,0.0156665,0.186744,0,0.1874,16359.3,-16641.7,0,23336.1,137129
step02_gravity_refstate-crust.xmf,695,1.0756e-06,3.01016e-07,0,-7.48077e-06,-1.02163e+09,-1.02168e+09,-1.0217e+09,-513181,0.0441048,0.209017,0,0.21362,8620.63,-37198.1,0,38184,513181
step02_gravity_refstate-crust.xmf,696,7.45649e-07,9.18096e-07,0,-6.12605e-06,-9.62791e+08,-9.62779e+08,-9.62842e+08,-420247,0.0393909,0.198422,0,0.202294,9725.4,-35055.8,0,36379.8,420247
step02_gravity_refstate-crust.xmf,697,9.52834e-07,5.35202e-07,0,-6.78209e-06,-9.93108e+08,-9.93137e+08,-9.93174e+08,-465251,0.0416524,0.204189,0,0.208394,9083.35,-36159.8,0,37283.2,465251
step02_gravity_refstate-crust.xmf,698,6.00351e-07,1.20623e-06,0,-3.46714e-06,-7.46059e+08,-7.46018e+08,-7.461e+08,-237846,0.0259035,0.190865,0,0.192615,11968.5,-27165.3,0,29685,237846
step02_gravity_refstate-crust.xmf,699,5.60134e-07,1.24795e-06,0,-5.54927e-06,-9.31724e+08,-9.31677e+08,-9.31763e+08,-380680,0.0372483,0.193297,0,0.196853,10410.5,-33924.6,0,35486,380680
step02_gravity_refstate-crust.xmf,700,-1.08437e-06,6.72605e-07,0,-2.87296e-07,-7.82465e+07,-7.8126e+07,-7.81721e+07,-19708.5,0.0109891,0.165227,0,0.165592,31278.1,-2845.3,0,31407.3,19708.5
step02_gravity_refstate-crust.xmf,701,-8.34438e-07,8.60733e-07,0,-5.53375e-07,-1.51146e+08,-1.51029e+08,-1.51088e+08,-37961.5,0.0104248,0.16536,0,0.165688,29857.3,-5500.56,0,30359.7,37961.5
step02_gravity_refstate-crust.xmf,702,-1.46242e-06,5.61517e-07,0,-4.70796e-09,-138639,203.043,-38317,-322.966,0.0116803,0.164923,0,0.165336,32925.8,0,0,32925.8,322.966
step02_gravity_refstate-crust.xmf,703,-1.22095e-06,7.39766e-07,0,-1.75301e-07,-7.8276e+07,-7.81415e+07,-7.81922e+07,-12025.6,0.00715882,0.161436,0,0.161595,34559.7,-2845.92,0,34676.7,12025.6
step02_gravity_refstate-crust.xmf,704,-1.67782e-06,6.32668e-07,0,-4.65681e-09,-159551,-1051.53,-44452.6,-319.457,0.0061273,0.162007,0,0.162123,36412.7,0,0,36412.7,319.457
step02_gravity_refstate-crust.xmf,705,-1.48371e-07,1.17945e-06,0,-1.53851e-06,-3.35867e+08,-3.35776e+08,-3.35857e+08,-105542,0.0135232,0.180676,0,0.181182,20147.6,-12228.8,0,23568.4,105542
step02_gravity_refstate-crust.xmf,706,-6.96265e-08,1.33215e-06,0,-1.8064e-06,-4.06748e+08,-4.06652e+08,-4.06744e+08,-123919,0.0146188,0.182085,0,0.182671,18571.5,-14809.9,0,23753.6,123919
step02_gravity_refstate-crust.xmf,707,4.06714e-07,8.46034e-07,0,-8.99481e-06,-1.07491e+09,-1.07488e+09,-1.07493e+09,-617044,0.0500867,0.208941,0,0.214861,8547.16,-39136,0,40058.4,617044
step02_gravity_refstate-crust.xmf,708,3.02037e-07,1.16814e-06,0,-8.11736e-06,-1.04938e+09,-1.04932e+09,-1.0494e+09,-556851,0.0474056,0.202711,0,0.208181,9063.09,-38206.7,0,39266.9,556851
step02_gravity_refstate-crust.xmf,709,-3.47538e-08,1.58814e-06,0,-2.19643e-06,-5.12576e+08,-5.12465e+08,-5.12574e+08,-150675,0.0172422,0.180831,0,0.181651,17239.6,-18663.2,0,25407,150675
step02_gravity_refstate-crust.xmf,710,4.38396e-07,1.36626e-06,0,-3.16206e-06,-7.02098e+08,-7.02035e+08,-7.02129e+08,-216917,0.0240625,0.188302,0,0.189833,12872.4,-25564.5,0,28622.4,216917
step02_gravity_refstate-crust.xmf,711,5.56393e-08,1.59418e-06,0,-2.40899e-06,-5.60932e+08,-5.60827e+08,-5.60936e+08,-165257,0.0187987,0.182355,0,0.183321,16062.1,-20424,0,25983.3,165257
step02_gravity_refstate-crust.xmf,712,2.84878e-07,1.49738e-06,0,-2.89426e-06,-6.57465e+08,-6.57382e+08,-6.57484e+08,-198546,0.0223099,0.185856,0,0.18719,13890.7,-23939.1,0,27677.3,198546
step02_gravity_refstate-crust.xmf,713,1.6206e-07,1.56565e-06,0,-2.64148e-06,-6.09799e+08,-6.09702e+08,-6.0981e+08,-181206,0.0205136,0.184008,0,0.185147,14936.9,-22203.4,0,26760.1,181206
step02_gravity_refstate-crust.xmf,714,5.79086e-07,1.30181e-06,0,-4.66373e-06,-8.68025e+08,-8.67975e+08,-8.68064e+08,-319932,0.0329127,0.190952,0,0.193767,11069.2,-31605.7,0,33488,319932
step02_gravity_refstate-crust.xmf,715,2.67989e-07,1.6956e-06,0,-3.8023e-06,-7.8815e+08,-7.88052e+08,-7.88169e+08,-260838,0.0286341,0.183932,0,0.186148,12792.3,-28697.1,0,31419.2,260838
step02_gravity_refstate-crust.xmf,716,4.32024e-07,1.48968e-06,0,-4.17601e-06,-8.26223e+08,-8.2615e+08,-8.26252e+08,-286474,0.0305743,0.187496,0,0.189972,11872.1,-30083.5,0,32341.4,286474
step02_gravity_refstate-crust.xmf,717,3.78549e-07,1.55708e-06,0,-5.11293e-06,-9.05685e+08,-9.05605e+08,-9.05711e+08,-350747,0.035602,0.18864,0,0.19197,11114.1,-32976.3,0,34798.9,350747
step02_gravity_refstate-crust.xmf,718,-5.14003e-07,9.72888e-07,0,-9.40912e-07,-2.14916e+08,-2.14814e+08,-2.14881e+08,-64546.5,0.0120698,0.171361,0,0.171786,25688.1,-7823.67,0,26853.1,64546.5
step02_gravity_refstate-crust.xmf,719,-4.22992e-07,1.17892e-06,0,-1.19888e-06,-2.78237e+08,-2.78127e+08,-2.78208e+08,-82243.4,0.0122051,0.172162,0,0.172594,24282.7,-10129.6,0,26310.8,82243.4
step02_gravity_refstate-crust.xmf,720,-6.66824e-07,1.09107e-06,0,-8.03281e-07,-2.19727e+08,-2.19606e+08,-2.19681e+08,-55105,0.0103764,0.165486,0,0.165811,28423.7,-7998.38,0,29527.7,55105
step02_gravity_refstate-crust.xmf,721,-1.3575e-06,7.60959e-07,0,-7.58426e-08,-7.08766e+07,-7.07313e+07,-7.07835e+07,-5202.8,0.00357521,0.159734,0,0.159774,37397.2,-2576.02,0,37485.8,5202.8
step02_gravity_refstate-crust.xmf,722,-1.69525e-06,6.37267e-07,0,8.23408e-09,-161292,-1281.52,-44998,564.858,2.68159e-19,0.160974,0,0.160974,40000,0,0,40000,564.858
step02_gravity_refstate-crust.xmf,723,-3.5436e-07,1.36461e-06,0,-1.44294e-06,-3.38277e+08,-3.38159e+08,-3.38252e+08,-98986,0.0128705,0.173146,0,0.173623,22815.7,-12316,0,25927.6,98986
step02_gravity_refstate-crust.xmf,724,-1.06735e-07,1.56099e-06,0,-2.01457e-06,-4.69657e+08,-4.69542e+08,-4.69649e+08,-138200,0.0159868,0.179361,0,0.180072,18384.7,-17100.3,0,25108.1,138200
step02_gravity_refstate-crust.xmf,725,1.35831e-07,1.60977e-06,0,-7.28924e-06,-1.02253e+09,-1.02243e+09,-1.02254e+09,-500042,0.0448571,0.195854,0,0.200925,9716.01,-37229.2,0,38476.2,500042
step02_gravity_refstate-crust.xmf,726,-8.00786e-08,2.0722e-06,0,-5.95947e-06,-9.65063e+08,-9.64915e+08,-9.65057e+08,-408820,0.0400202,0.185226,0,0.1895,11058.6,-35136.9,0,36836.1,408820
step02_gravity_refstate-crust.xmf,727,7.55018e-09,1.84758e-06,0,-6.61458e-06,-9.95402e+08,-9.95276e+08,-9.95402e+08,-453760,0.0424778,0.190184,0,0.19487,10363.9,-36241.5,0,37694.2,453760
step02_gravity_refstate-crust.xmf,728,1.32462e-07,1.84245e-06,0,-3.45961e-06,-7.47867e+08,-7.4775e+08,-7.47876e+08,-237329,0.0266553,0.181032,0,0.182984,13754,-27230.2,0,30506.7,237329
step02_gravity_refstate-crust.xmf,729,-1.50523e-07,2.2494e-06,0,-5.38256e-06,-9.33677e+08,-9.33513e+08,-9.33667e+08,-369244,0.0376693,0.181019,0,0.184897,11779.7,-33994.3,0,35977.4,369244
step02_gravity_refstate-crust.xmf,730,-9.80241e-07,9.49548e-07,0,-4.03738e-07,-1.56306e+08,-1.56173e+08,-1.56238e+08,-27696.4,0.00744727,0.160635,0,0.160807,33037.7,-5687.97,0,33523.8,27696.4
step02_gravity_refstate-crust.xmf,731,-8.21399e-07,1.19989e-06,0,-6.4336e-07,-2.27941e+08,-2.27803e+08,-2.27885e+08,-44134.5,0.00807189,0.16006,0,0.160263,31382.1,-8296.96,0,32460.3,44134.5
step02_gravity_refstate-crust.xmf,732,-1.09749e-06,9.78654e-07,0,-1.9214e-07,-1.52118e+08,-1.51976e+08,-1.52043e+08,-13180.8,0.00367393,0.157517,0,0.15756,36708.3,-5535.09,0,37123.2,13180.8
step02_gravity_refstate-crust.xmf,733,-1.27543e-06,8.17303e-07,0,4.51696e-09,-9.58942e+07,-9.57507e+07,-9.58068e+07,309.864,2.66685e-19,0.158427,0,0.158427,40000,-3487.23,0,40151.7,309.864
step02_gravity_refstate-crust.xmf,734,-3.0543e-07,1.5402e-06,0,-1.6798e-06,-3.98294e+08,-3.98167e+08,-3.98273e+08,-115235,0.0139444,0.173845,0,0.174403,21435.7,-14501.4,0,25880.1,115235
step02_gravity_refstate-crust.xmf,735,-6.63649e-07,2.39073e-06,0,-8.47226e-06,-1.07321e+09,-1.073e+09,-1.07317e+09,-581197,0.0497569,0.193206,0,0.19951,9642.37,-39072.3,0,40244.5,581197
step02_gravity_refstate-crust.xmf,736,-2.86532e-07,1.72429e-06,0,-1.90457e-06,-4.58334e+08,-4.58196e+08,-4.58314e+08,-130653,0.0153306,0.173496,0,0.174172,20382.6,-16687.6,0,26342.5,130653
step02_gravity_refstate-crust.xmf,737,-2.67114e-07,1.87613e-06,0,-2.12765e-06,-5.14874e+08,-5.14727e+08,-5.14856e+08,-145957,0.0169881,0.17323,0,0.174061,19349.2,-18746.3,0,26941,145957
step02_gravity_refstate-crust.xmf,738,-6.97741e-07,2.61005e-06,0,-7.66615e-06,-1.04946e+09,-1.04923e+09,-1.04941e+09,-525898,0.0471791,0.187321,0,0.193171,10237.6,-38207.8,0,39555.6,525898
step02_gravity_refstate-crust.xmf,739,-2.24134e-07,1.96011e-06,0,-2.35388e-06,-5.65008e+08,-5.64858e+08,-5.64992e+08,-161476,0.0187553,0.173869,0,0.174877,18208.3,-20571.8,0,27472.5,161476
step02_gravity_refstate-crust.xmf,740,1.98433e-08,1.93404e-06,0,-3.14605e-06,-7.04863e+08,-7.04731e+08,-7.04864e+08,-215819,0.0246326,0.1787,0,0.18039,14770.4,-25664.3,0,29611.1,215819
step02_gravity_refstate-crust.xmf,741,-1.6752e-07,2.00638e-06,0,-2.60041e-06,-6.14293e+08,-6.14144e+08,-6.14281e+08,-178388,0.020682,0.174844,0,0.176063,17063.1,-22366.4,0,28131.9,178388
step02_gravity_refstate-crust.xmf,742,-8.49547e-08,1.9955e-06,0,-2.86445e-06,-6.60792e+08,-6.6065e+08,-6.60787e+08,-196501,0.0226572,0.176542,0,0.17799,15889.5,-24059.6,0,28832.9,196501
step02_gravity_refstate-crust.xmf,743,-1.53886e-07,2.30476e-06,0,-4.86726e-06,-8.98728e+08,-8.98559e+08,-8.98717e+08,-333894,0.0352673,0.178411,0,0.181863,12438.8,-32722,0,35006.5,333894
step02_gravity_refstate-crust.xmf,744,-3.15931e-08,2.1402e-06,0,-4.46218e-06,-8.61375e+08,-8.61226e+08,-8.61372e+08,-306106,0.0329341,0.179314,0,0.182314,12719.7,-31362.4,0,33843.6,306106
step02_gravity_refstate-crust.xmf,745,-2.14269e-07,2.37472e-06,0,-3.68062e-06,-7.89464e+08,-7.89286e+08,-7.89449e+08,-252490,0.0287523,0.173183,0,0.175553,14566.6,-28744,0,32224.3,252490
step02_gravity_refstate-crust.xmf,746,-1.31057e-07,2.27818e-06,0,-4.06276e-06,-8.27598e+08,-8.27432e+08,-8.27589e+08,-278705,0.0309171,0.176001,0,0.178696,13597.4,-30132.5,0,33058.4,278705
step02_gravity_refstate-crust.xmf,747,-5.94838e-07,1.32811e-06,0,-1.05974e-06,-2.85378e+08,-2.85246e+08,-2.85337e+08,-72698.1,0.0107853,0.165429,0,0.165781,27036.6,-10389.1,0,28963.9,72698.1
step02_gravity_refstate-crust.xmf,748,-5.31271e-07,1.53046e-06,0,-1.30081e-06,-3.42664e+08,-3.42522e+08,-3.42627e+08,-89235.4,0.0117259,0.166081,0,0.166494,25460.9,-12475.2,0,28352.9,89235.4
step02_gravity_refstate-crust.xmf,749,-7.16715e-07,1.45421e-06,0,-8.79246e-07,-2.92114e+08,-2.91965e+08,-2.92065e+08,-60316.2,0.00900213,0.159734,0,0.159988,29708.8,-10634.1,0,31554.6,60316.2
step02_gravity_refstate-crust.xmf,750,-4.95711e-07,1.74086e-06,0,-1.53649e-06,-4.01521e+08,-4.01368e+08,-4.01487e+08,-105403,0.0129451,0.166238,0,0.166741,24040.8,-14618.5,0,28136.4,105403
step02_gravity_refstate-crust.xmf,751,-7.86514e-07,2.92577e-06,0,-6.9365e-06,-1.02621e+09,-1.02595e+09,-1.02615e+09,-475844,0.0447788,0.181166,0,0.186617,10927.5,-37361.4,0,38926.7,475844
step02_gravity_refstate-crust.xmf,752,-7.95617e-07,3.12186e-06,0,-5.60524e-06,-9.67057e+08,-9.66788e+08,-9.67002e+08,-384519,0.039547,0.171604,0,0.176102,12450.3,-35208.3,0,37344.8,384519
step02_gravity_refstate-crust.xmf,753,-8.35673e-07,3.06777e-06,0,-6.25605e-06,-9.99115e+08,-9.98847e+08,-9.99058e+08,-429165,0.0422074,0.175504,0,0.180508,11699.3,-36375.1,0,38210.3,429165
step02_gravity_refstate-crust.xmf,754,-2.74443e-07,2.41494e-06,0,-3.3396e-06,-7.49215e+08,-7.4903e+08,-7.49196e+08,-229097,0.0265945,0.171142,0,0.173196,15547.4,-27278.5,0,31398.1,229097
step02_gravity_refstate-crust.xmf,755,-7.49714e-07,3.13424e-06,0,-5.04709e-06,-9.33853e+08,-9.33587e+08,-9.33802e+08,-346230,0.0370339,0.168574,0,0.172594,13209,-33999.7,0,36475.4,346230
step02_gravity_refstate-crust.xmf,756,-9.20308e-07,1.28313e-06,0,-4.3614e-07,-2.34116e+08,-2.33965e+08,-2.34053e+08,-29919.2,0.00538609,0.155951,0,0.156044,34418.6,-8521.48,0,35457.8,29919.2
step02_gravity_refstate-crust.xmf,757,-8.32963e-07,1.5674e-06,0,-6.79197e-07,-3.01768e+08,-3.01603e+08,-3.0171e+08,-46592.9,0.00682986,0.154765,0,0.154916,32469.3,-10985.2,0,34277.2,46592.9
step02_gravity_refstate-crust.xmf,758,-1.04136e-06,1.12316e-06,0,2.27914e-09,-1.88096e+08,-1.87947e+08,-1.88024e+08,156.349,1.81593e-19,0.155157,0,0.155157,40000,-6845.33,0,40581.5,156.349
step02_gravity_refstate-crust.xmf,759,-4.78472e-07,1.94247e-06,0,-1.76607e-06,-4.59454e+08,-4.59288e+08,-4.59421e+08,-121152,0.0144511,0.166062,0,0.16669,22743.1,-16727.9,0,28232.5,121152
step02_gravity_refstate-crust.xmf,760,-1.56262e-06,3.75804e-06,0,-7.80846e-06,-1.07331e+09,-1.07294e+09,-1.0732e+09,-535660,0.0485051,0.177497,0,0.184005,10770.7,-39074.3,0,40531.6,535660
step02_gravity_refstate-crust.xmf,761,-4.7099e-07,2.12655e-06,0,-1.99349e-06,-5.15407e+08,-5.15228e+08,-5.15374e+08,-136753,0.0161948,0.165721,0,0.16651,21537,-18765.3,0,28565.3,136753
step02_gravity_refstate-crust.xmf,762,-4.61225e-07,2.27755e-06,0,-2.22729e-06,-5.68264e+08,-5.68076e+08,-5.68232e+08,-152792,0.0181231,0.165631,0,0.16662,20343.1,-20689.9,0,29015.7,152792
step02_gravity_refstate-crust.xmf,763,-1.44908e-06,3.77649e-06,0,-7.14888e-06,-1.05197e+09,-1.05161e+09,-1.05187e+09,-490413,0.0462502,0.173755,0,0.179805,11282.6,-38298,0,39925.4,490413
step02_gravity_refstate-crust.xmf,764,-4.51332e-07,2.40238e-06,0,-2.47307e-06,-6.18956e+08,-6.1876e+08,-6.18925e+08,-169653,0.0201845,0.165694,0,0.166919,19198.7,-22535.6,0,29604.8,169653
step02_gravity_refstate-crust.xmf,765,-3.46634e-07,2.4489e-06,0,-3.04298e-06,-7.09489e+08,-7.09297e+08,-7.09465e+08,-208749,0.0245369,0.169023,0,0.170794,16643.3,-25832.1,0,30729.4,208749
step02_gravity_refstate-crust.xmf,766,-4.40408e-07,2.50629e-06,0,-2.74739e-06,-6.69424e+08,-6.69222e+08,-6.69394e+08,-188471,0.0224203,0.165935,0,0.167443,18075.6,-24373.1,0,30344.3,188471
step02_gravity_refstate-crust.xmf,767,-6.10134e-07,2.96256e-06,0,-3.43862e-06,-7.88656e+08,-7.88411e+08,-7.88614e+08,-235889,0.0279569,0.162517,0,0.164905,16403.6,-28713.9,0,33069.2,235889
step02_gravity_refstate-crust.xmf,768,-6.46966e-07,3.02465e-06,0,-4.60312e-06,-8.98584e+08,-8.98332e+08,-8.9854e+08,-315774,0.0347181,0.167779,0,0.171334,13795.5,-32715.9,0,35505.6,315774
step02_gravity_refstate-crust.xmf,769,-6.16768e-07,2.9972e-06,0,-4.17885e-06,-8.63115e+08,-8.62867e+08,-8.63073e+08,-286669,0.0324296,0.165973,0,0.169112,14572.5,-31424.7,0,34639.2,286669
step02_gravity_refstate-crust.xmf,770,-6.13638e-07,2.99127e-06,0,-3.79833e-06,-8.27588e+08,-8.2734e+08,-8.27546e+08,-260566,0.0302306,0.164086,0,0.166848,15440.4,-30131.3,0,33857.1,260566
step02_gravity_refstate-crust.xmf,771,-6.79426e-07,1.69239e-06,0,-1.12217e-06,-3.51456e+08,-3.51293e+08,-3.51409e+08,-76980.6,0.0101534,0.159445,0,0.159768,28127.4,-12795,0,30900.8,76980.6
step02_gravity_refstate-crust.xmf,772,-6.51649e-07,1.91888e-06,0,-1.35297e-06,-4.07435e+08,-4.07259e+08,-4.07391e+08,-92813.9,0.0115382,0.159208,0,0.159626,26608,-14833.4,0,30463.3,92813.9
step02_gravity_refstate-crust.xmf,773,-7.82801e-07,1.84561e-06,0,-9.11287e-07,-3.63431e+08,-3.63251e+08,-3.63377e+08,-62514.3,0.00827501,0.153621,0,0.153844,30740.9,-13230.8,0,33467.3,62514.3
step02_gravity_refstate-crust.xmf,774,-9.63489e-07,1.372e-06,0,-2.13267e-07,-2.47327e+08,-2.47167e+08,-2.47261e+08,-14630.1,0.00255383,0.153088,0,0.153109,37375,-9002.42,0,38443.9,14630.1
step02_gravity_refstate-crust.xmf,775,-6.43927e-07,2.14363e-06,0,-1.58189e-06,-4.63478e+08,-4.63286e+08,-4.63433e+08,-108518,0.0131498,0.158724,0,0.159268,25184.8,-16874.1,0,30315.1,108518
step02_gravity_refstate-crust.xmf,776,-1.71547e-06,4.27922e-06,0,-6.41967e-06,-1.03679e+09,-1.03638e+09,-1.03667e+09,-440389,0.0438006,0.164305,0,0.170043,12261.6,-37745,0,39686.7,440389
step02_gravity_refstate-crust.xmf,777,-1.36802e-06,4.01983e-06,0,-5.11448e-06,-9.6903e+08,-9.68661e+08,-9.68937e+08,-350853,0.0380925,0.15802,0,0.162546,13890.6,-35279.2,0,37915.3,350853
step02_gravity_refstate-crust.xmf,778,-1.51922e-06,4.13142e-06,0,-5.70003e-06,-1.00208e+09,-1.0017e+09,-1.00198e+09,-391022,0.0407355,0.160662,0,0.165746,13096.4,-36482.1,0,38761.6,391022
step02_gravity_refstate-crust.xmf,779,-5.90311e-07,2.8989e-06,0,-3.14725e-06,-7.51345e+08,-7.51106e+08,-7.51305e+08,-215901,0.0259549,0.161937,0,0.164004,17237.3,-27355.6,0,32333.5,215901
step02_gravity_refstate-crust.xmf,780,-1.22515e-06,3.88001e-06,0,-4.62879e-06,-9.34888e+08,-9.34538e+08,-9.34804e+08,-317535,0.0356675,0.156501,0,0.160514,14645.1,-34036.6,0,37053.6,317535
step02_gravity_refstate-crust.xmf,781,-9.00369e-07,1.66744e-06,0,-4.51065e-07,-3.12492e+08,-3.12316e+08,-3.1243e+08,-30943.1,0.00447917,0.151014,0,0.151081,35172.4,-11375.5,0,36966.2,30943.1
step02_gravity_refstate-crust.xmf,782,-8.73641e-07,1.97765e-06,0,-6.89138e-07,-3.76757e+08,-3.76561e+08,-3.76697e+08,-47274.9,0.00619975,0.148833,0,0.148963,33281.6,-13715.7,0,35997,47274.9
step02_gravity_refstate-crust.xmf,783,-9.49235e-07,1.51871e-06,0,2.01505e-09,-2.76997e+08,-2.76828e+08,-2.76932e+08,138.233,1.49465e-19,0.150874,0,0.150874,40000,-10082.9,0,41251.2,138.233
step02_gravity_refstate-crust.xmf,784,-6.48706e-07,2.35998e-06,0,-1.80984e-06,-5.18823e+08,-5.18616e+08,-5.18778e+08,-124155,0.0149796,0.158067,0,0.158775,23842,-18889.3,0,30417.9,124155
step02_gravity_refstate-crust.xmf,785,-2.19954e-06,4.8238e-06,0,-7.00171e-06,-1.07122e+09,-1.07074e+09,-1.07107e+09,-480317,0.0461904,0.162634,0,0.169066,11928.8,-38997.5,0,40781.2,480317
step02_gravity_refstate-crust.xmf,786,-6.58194e-07,2.55019e-06,0,-2.0406e-06,-5.7113e+08,-5.7091e+08,-5.71085e+08,-139985,0.0169644,0.157565,0,0.158476,22548.5,-20793.9,0,30672.8,139985
step02_gravity_refstate-crust.xmf,787,-6.77142e-07,2.72977e-06,0,-2.27912e-06,-6.22358e+08,-6.22124e+08,-6.22311e+08,-156348,0.0190813,0.156993,0,0.158148,21336.6,-22659.1,0,31123.7,156348
step02_gravity_refstate-crust.xmf,788,-7.07503e-07,2.90315e-06,0,-2.53047e-06,-6.72676e+08,-6.72428e+08,-6.72628e+08,-173590,0.0213059,0.156342,0,0.157787,20206.7,-24491.1,0,31751,173590
step02_gravity_refstate-crust.xmf,789,-7.37086e-07,3.06491e-06,0,-2.85911e-06,-7.27048e+08,-7.26787e+08,-7.26997e+08,-196135,0.0240048,0.156506,0,0.158337,18852.3,-26470.7,0,32497.8,196135
step02_gravity_refstate-crust.xmf,790,-8.96757e-07,3.40546e-06,0,-3.09028e-06,-7.81464e+08,-7.81169e+08,-7.81402e+08,-211993,0.0261733,0.152365,0,0.154596,18402.4,-28451.6,0,33884.2,211993
step02_gravity_refstate-crust.xmf,791,-9.78739e-07,3.56498e-06,0,-3.4022e-06,-8.23574e+08,-8.23262e+08,-8.23507e+08,-233391,0.0284515,0.15222,0,0.154856,17465.9,-29984.6,0,34700.6,233391
step02_gravity_refstate-crust.xmf,792,-1.11534e-06,3.75738e-06,0,-4.19823e-06,-9.00027e+08,-8.99693e+08,-8.99951e+08,-287998,0.033333,0.155205,0,0.158744,15445.5,-32767.7,0,36225.5,287998
step02_gravity_refstate-crust.xmf,793,-1.04887e-06,3.67858e-06,0,-3.77806e-06,-8.63513e+08,-8.63189e+08,-8.63441e+08,-259175,0.0308912,0.153313,0,0.156394,16436.5,-31438.5,0,35475.9,259175
step02_gravity_refstate-crust.xmf,794,-7.71349e-07,2.06086e-06,0,-1.14601e-06,-4.13635e+08,-4.13441e+08,-4.13582e+08,-78616.6,0.00984257,0.153213,0,0.153529,29071.4,-15058.9,0,32740.1,78616.6
step02_gravity_refstate-crust.xmf,795,-7.81462e-07,2.33123e-06,0,-1.36044e-06,-4.71153e+08,-4.70939e+08,-4.71099e+08,-93326.2,0.0114808,0.151703,0,0.152137,27678.3,-17153.2,0,32562.6,93326.2
step02_gravity_refstate-crust.xmf,796,-8.66251e-07,2.2742e-06,0,-9.09849e-07,-4.35902e+08,-4.35687e+08,-4.35843e+08,-62415.6,0.00789304,0.146684,0,0.146896,31630.6,-15869.5,0,35388.4,62415.6
step02_gravity_refstate-crust.xmf,797,-9.3275e-07,1.78134e-06,0,-2.209e-07,-3.29852e+08,-3.29665e+08,-3.29788e+08,-15153.7,0.00214213,0.148191,0,0.148207,37717.8,-12007.6,0,39583,15153.7
step02_gravity_refstate-crust.xmf,798,-7.79367e-07,2.55246e-06,0,-1.58816e-06,-5.22893e+08,-5.22664e+08,-5.22839e+08,-108948,0.0134197,0.151084,0,0.151679,26119.8,-19037.2,0,32321.2,108948
step02_gravity_refstate-crust.xmf,799,-2.62573e-06,5.60904e-06,0,-6.16699e-06,-1.06783e+09,-1.06726e+09,-1.06765e+09,-423056,0.0432349,0.149081,0,0.155224,13100.7,-38873.3,0,41021.5,423056
step02_gravity_refstate-crust.xmf,800,-2.26105e-06,5.22746e-06,0,-5.58207e-06,-1.03604e+09,-1.03553e+09,-1.03589e+09,-382930,0.0408273,0.148278,0,0.153796,13742.2,-37717,0,40142.5,382930
step02_gravity_refstate-crust.xmf,801,-1.78531e-06,4.7388e-06,0,-4.54859e-06,-9.71255e+08,-9.70808e+08,-9.71133e+08,-312033,0.035866,0.144974,0,0.149345,15353.7,-35359.6,0,38549.2,312033
step02_gravity_refstate-crust.xmf,802,-2.00465e-06,4.96781e-06,0,-5.0393e-06,-1.00431e+09,-1.00383e+09,-1.00417e+09,-345696,0.0382922,0.146386,0,0.151312,14531.3,-36562.5,0,39344.3,345696
step02_gravity_refstate-crust.xmf,803,-1.604e-06,4.53428e-06,0,-4.11311e-06,-9.37239e+08,-9.36818e+08,-9.37129e+08,-282159,0.0335211,0.143868,0,0.147721,16219.6,-34121.6,0,37780.5,282159
step02_gravity_refstate-crust.xmf,804,-9.24262e-07,2.06417e-06,0,-4.42247e-07,-3.85138e+08,-3.84933e+08,-3.85075e+08,-30338.2,0.00398093,0.145555,0,0.145609,35772.2,-14020.8,0,38421.8,30338.2
step02_gravity_refstate-crust.xmf,805,-9.39325e-07,2.39528e-06,0,-6.49672e-07,-4.47114e+08,-4.46886e+08,-4.4705e+08,-44567.5,0.00564793,0.142131,0,0.142243,34170.3,-16277.6,0,37849.3,44567.5
step02_gravity_refstate-crust.xmf,806,-9.42955e-07,1.96444e-06,0,7.5686e-10,-3.62823e+08,-3.62624e+08,-3.62759e+08,51.9206,1.28562e-19,0.145432,0,0.145432,40000,-13208.2,0,42124.3,51.9206
step02_gravity_refstate-crust.xmf,807,-8.08173e-07,2.76829e-06,0,-1.81478e-06,-5.73793e+08,-5.73547e+08,-5.73737e+08,-124494,0.0154047,0.150124,0,0.150912,24754.8,-20890.5,0,32391.5,124494
step02_gravity_refstate-crust.xmf,808,-8.49582e-07,2.99666e-06,0,-2.03979e-06,-6.25886e+08,-6.25622e+08,-6.25828e+08,-139930,0.0175165,0.148756,0,0.149784,23501.3,-22787.2,0,32734.8,139930
step02_gravity_refstate-crust.xmf,809,-9.02385e-07,3.21617e-06,0,-2.27202e-06,-6.76087e+08,-6.75805e+08,-6.76026e+08,-155860,0.0197113,0.147465,0,0.148776,22304.2,-24615,0,33217.1,155860
step02_gravity_refstate-crust.xmf,810,-2.96141e-06,6.32352e-06,0,-5.26895e-06,-1.0684e+09,-1.06776e+09,-1.06819e+09,-361450,0.0396107,0.134606,0,0.140313,14401.1,-38893.9,0,41474.4,361450
step02_gravity_refstate-crust.xmf,811,-9.76943e-07,3.44975e-06,0,-2.51735e-06,-7.26589e+08,-7.26285e+08,-7.26522e+08,-172690,0.0219989,0.145954,0,0.147602,21177.9,-26453.6,0,33886.5,172690
step02_gravity_refstate-crust.xmf,812,-1.08715e-06,3.71919e-06,0,-2.76971e-06,-7.77562e+08,-7.77233e+08,-7.77488e+08,-190002,0.0242891,0.143846,0,0.145882,20187.3,-28309.3,0,34769.9,190002
step02_gravity_refstate-crust.xmf,813,-1.21669e-06,3.97963e-06,0,-3.02842e-06,-8.23745e+08,-8.23389e+08,-8.23662e+08,-207750,0.0264709,0.142043,0,0.144489,19273,-29990.5,0,35649.4,207750
step02_gravity_refstate-crust.xmf,814,-1.33717e-06,4.18237e-06,0,-3.3473e-06,-8.64648e+08,-8.64269e+08,-8.64556e+08,-229625,0.0287938,0.141934,0,0.144826,18223.4,-31479.4,0,36373.7,229625
step02_gravity_refstate-crust.xmf,815,-1.46187e-06,4.36016e-06,0,-3.71336e-06,-9.02314e+08,-9.01915e+08,-9.02214e+08,-254737,0.0311749,0.142722,0,0.146087,17177.9,-32850.5,0,37070.7,254737
step02_gravity_refstate-crust.xmf,816,-8.64137e-07,2.65531e-06,0,-1.38447e-06,-5.22328e+08,-5.22086e+08,-5.22269e+08,-94974.4,0.0118372,0.14622,0,0.146698,28027.7,-19016.5,0,33870,94974.4
step02_gravity_refstate-crust.xmf,817,-8.98496e-07,2.6156e-06,0,-1.15875e-06,-5.02534e+08,-5.02293e+08,-5.02472e+08,-79490.1,0.00993482,0.14389,0,0.144232,29928,-18295.7,0,35077.3,79490.1
step02_gravity_refstate-crust.xmf,818,-9.70575e-07,2.74579e-06,0,-8.63697e-07,-5.10918e+08,-5.10663e+08,-5.10852e+08,-59249.6,0.00752316,0.13833,0,0.138534,32572,-18600.8,0,37509,59249.6
step02_gravity_refstate-crust.xmf,819,-9.46723e-07,2.13704e-06,0,-2.04963e-07,-3.94577e+08,-3.94366e+08,-3.94512e+08,-14060.4,0.00185043,0.143432,0,0.143444,38059.4,-14364.5,0,40679.9,14060.4
step02_gravity_refstate-crust.xmf,820,-9.05883e-07,2.92268e-06,0,-1.57143e-06,-5.74824e+08,-5.74561e+08,-5.74762e+08,-107800,0.0135978,0.143841,0,0.144482,26877.8,-20927.9,0,34064.6,107800
step02_gravity_refstate-crust.xmf,821,-2.59092e-06,5.89899e-06,0,-4.80709e-06,-1.03776e+09,-1.03717e+09,-1.03758e+09,-329766,0.0375558,0.134416,0,0.139564,15102.6,-37779.2,0,40686.1,329766
step02_gravity_refstate-crust.xmf,822,-2.07202e-06,5.32074e-06,0,-3.93124e-06,-9.75448e+08,-9.74941e+08,-9.75306e+08,-269683,0.032999,0.132044,0,0.136105,16878.4,-35512,0,39319,269683
step02_gravity_refstate-crust.xmf,823,-2.33126e-06,5.61324e-06,0,-4.35234e-06,-1.00832e+09,-1.00777e+09,-1.00816e+09,-298571,0.0352539,0.132838,0,0.137436,15966.2,-36708.1,0,40030,298571
step02_gravity_refstate-crust.xmf,824,-1.84948e-06,5.04493e-06,0,-3.5449e-06,-9.40384e+08,-9.39911e+08,-9.40257e+08,-243180,0.0307789,0.131722,0,0.13527,17841.5,-34236,0,38606,243180
step02_gravity_refstate-crust.xmf,825,-9.74333e-07,2.44385e-06,0,-3.58053e-07,-4.49281e+08,-4.49047e+08,-4.49214e+08,-24562.5,0.00313343,0.139522,0,0.139557,36806.8,-16356.4,0,40277.5,24562.5
step02_gravity_refstate-crust.xmf,826,-1.0208e-06,2.85379e-06,0,-5.32584e-07,-5.20103e+08,-5.19837e+08,-5.20033e+08,-36535.3,0.00469732,0.133789,0,0.133871,35451.6,-18935.2,0,40191.5,36535.3
step02_gravity_refstate-crust.xmf,827,-9.81852e-07,2.43507e-06,0,2.12485e-09,-4.45794e+08,-4.45559e+08,-4.45726e+08,145.765,1.46348e-19,0.138788,0,0.138788,40000,-16229.4,0,43167,145.765
step02_gravity_refstate-crust.xmf,828,-9.68644e-07,3.19675e-06,0,-1.77606e-06,-6.28679e+08,-6.28394e+08,-6.28613e+08,-121838,0.0156189,0.141406,0,0.142266,25648.4,-22888.7,0,34376.4,121838
step02_gravity_refstate-crust.xmf,829,-9.74324e-07,3.0096e-06,0,-1.32773e-06,-5.72237e+08,-5.71964e+08,-5.7217e+08,-91082.2,0.0116238,0.138922,0,0.139408,28934.9,-20833.6,0,35654.8,91082.2
step02_gravity_refstate-crust.xmf,830,-1.03856e-06,3.46214e-06,0,-1.98157e-06,-6.80033e+08,-6.79724e+08,-6.79961e+08,-135936,0.0177175,0.139121,0,0.140245,24444,-24758.4,0,34792,135936
step02_gravity_refstate-crust.xmf,831,-1.12367e-06,3.72477e-06,0,-2.19298e-06,-7.29307e+08,-7.28975e+08,-7.2923e+08,-150439,0.0198564,0.136974,0,0.138406,23274.3,-26552.4,0,35309,150439
step02_gravity_refstate-crust.xmf,832,-3.10494e-06,6.79731e-06,0,-4.40573e-06,-1.06873e+09,-1.06805e+09,-1.06852e+09,-302233,0.0356263,0.121521,0,0.126635,15713.4,-38906.2,0,41959.5,302233
step02_gravity_refstate-crust.xmf,833,-1.23451e-06,4.0062e-06,0,-2.40816e-06,-7.78093e+08,-7.77734e+08,-7.78009e+08,-165200,0.0219884,0.134618,0,0.136402,22179.3,-28328.5,0,35978.1,165200
step02_gravity_refstate-crust.xmf,834,-1.37414e-06,4.30499e-06,0,-2.63289e-06,-8.25601e+08,-8.25212e+08,-8.25507e+08,-180616,0.024093,0.13223,0,0.134407,21136,-30057.9,0,36745.2,180616
step02_gravity_refstate-crust.xmf,835,-1.5275e-06,4.58059e-06,0,-2.89431e-06,-8.68528e+08,-8.68109e+08,-8.68423e+08,-198550,0.026255,0.130888,0,0.133496,20045.8,-31620.5,0,37439.2,198550
step02_gravity_refstate-crust.xmf,836,-1.67739e-06,4.80396e-06,0,-3.2123e-06,-9.05371e+08,-9.04926e+08,-9.05256e+08,-220363,0.0285369,0.131207,0,0.134275,18895.9,-32961.6,0,37993.7,220363
step02_gravity_refstate-crust.xmf,837,-1.02148e-06,3.08276e-06,0,-1.05553e-06,-5.71141e+08,-5.70859e+08,-5.7107e+08,-72409.6,0.00936145,0.134303,0,0.134629,31188.9,-20793.6,0,37484.9,72409.6
step02_gravity_refstate-crust.xmf,838,-1.05978e-06,3.17213e-06,0,-7.72434e-07,-5.76959e+08,-5.76669e+08,-5.76886e+08,-52989,0.00695363,0.129799,0,0.129985,33538.9,-21005.4,0,39573.8,52989
step02_gravity_refstate-crust.xmf,839,-1.03828e-06,3.32721e-06,0,-1.502e-06,-6.29013e+08,-6.28713e+08,-6.28942e+08,-103037,0.0134797,0.135247,0,0.135917,27781.3,-22900.8,0,36003.5,103037
step02_gravity_refstate-crust.xmf,840,-2.75003e-06,6.33694e-06,0,-4.16284e-06,-1.04022e+09,-1.03959e+09,-1.04003e+09,-285571,0.0344825,0.123461,0,0.128186,16253,-37868.8,0,41209.2,285571
step02_gravity_refstate-crust.xmf,841,-2.18985e-06,5.6832e-06,0,-3.30985e-06,-9.75903e+08,-9.75363e+08,-9.75753e+08,-227056,0.0296836,0.120754,0,0.124349,18437.4,-35528.7,0,40027.8,227056
step02_gravity_refstate-crust.xmf,842,-2.56459e-06,6.22578e-06,0,-3.61947e-06,-1.01964e+09,-1.01903e+09,-1.01946e+09,-248296,0.0315748,0.118418,0,0.122555,17450.6,-37120.1,0,41017.4,248296
step02_gravity_refstate-crust.xmf,843,-1.96922e-06,5.39078e-06,0,-2.99817e-06,-9.43886e+08,-9.43381e+08,-9.43751e+08,-205675,0.0276951,0.120611,0,0.12375,19463.4,-34363.5,0,39492.7,205675
step02_gravity_refstate-crust.xmf,844,-1.07725e-06,3.22288e-06,0,-5.13715e-07,-5.80616e+08,-5.80321e+08,-5.80542e+08,-35240.8,0.00467595,0.126877,0,0.126964,35684.4,-21138.5,0,41475.5,35240.8
step02_gravity_refstate-crust.xmf,845,-1.02376e-06,2.77967e-06,0,-2.43563e-07,-5.04627e+08,-5.04366e+08,-5.04557e+08,-16708.4,0.00213742,0.133654,0,0.133672,37915.4,-18371.6,0,42131.9,16708.4
step02_gravity_refstate-crust.xmf,846,-1.11838e-06,3.63035e-06,0,-1.68197e-06,-6.82443e+08,-6.82117e+08,-6.82366e+08,-115383,0.0154538,0.131895,0,0.132797,26576.9,-24846.1,0,36382.2,115383
step02_gravity_refstate-crust.xmf,847,-1.08768e-06,3.42517e-06,0,-1.22566e-06,-6.30448e+08,-6.30139e+08,-6.30374e+08,-84080,0.0111958,0.129824,0,0.130305,29941.2,-22953,0,37726.9,84080
step02_gravity_refstate-crust.xmf,848,-1.20811e-06,3.92419e-06,0,-1.86307e-06,-7.32721e+08,-7.32369e+08,-7.32638e+08,-127806,0.0174615,0.128849,0,0.130027,25372.1,-26676.6,0,36815.5,127806
step02_gravity_refstate-crust.xmf,849,-1.31794e-06,4.2247e-06,0,-2.04337e-06,-7.8116e+08,-7.8078e+08,-7.8107e+08,-140175,0.0194415,0.125877,0,0.127369,24207.2,-28440.1,0,37347.4,140175
step02_gravity_refstate-crust.xmf,850,-3.07346e-06,7.03019e-06,0,-3.62396e-06,-1.06663e+09,-1.06594e+09,-1.06642e+09,-248604,0.0316087,0.110468,0,0.114901,17031.9,-38830.3,0,42401.4,248604
step02_gravity_refstate-crust.xmf,851,-1.45478e-06,4.54304e-06,0,-2.22334e-06,-8.28336e+08,-8.27924e+08,-8.28236e+08,-152521,0.0213539,0.122864,0,0.124706,23092.9,-30157.5,0,37983.7,152521
step02_gravity_refstate-crust.xmf,852,-1.62293e-06,4.87252e-06,0,-2.43118e-06,-8.73926e+08,-8.7348e+08,-8.73815e+08,-166779,0.0233329,0.12035,0,0.122591,21925.1,-31817.1,0,38639.9,166779
step02_gravity_refstate-crust.xmf,853,-1.79984e-06,5.14473e-06,0,-2.71189e-06,-9.11774e+08,-9.11297e+08,-9.1165e+08,-186036,0.0255724,0.120094,0,0.122786,20624.6,-33194.7,0,39080.2,186036
step02_gravity_refstate-crust.xmf,854,-2.21441e-06,5.95782e-06,0,-2.68914e-06,-9.80757e+08,-9.80197e+08,-9.80605e+08,-184475,0.0260029,0.10929,0,0.112341,20081.5,-35705.7,0,40965.4,184475
step02_gravity_refstate-crust.xmf,855,-1.11709e-06,3.51516e-06,0,-9.41023e-07,-6.35558e+08,-6.35241e+08,-6.35482e+08,-64554.2,0.00875138,0.124758,0,0.125065,32194.5,-23139.1,0,39647.2,64554.2
step02_gravity_refstate-crust.xmf,856,-1.13153e-06,3.58258e-06,0,-6.88267e-07,-6.41609e+08,-6.41286e+08,-6.41532e+08,-47215.1,0.00649476,0.120926,0,0.1211,34232.2,-23359.4,0,41442.8,47215.1
step02_gravity_refstate-crust.xmf,857,-1.0773e-06,3.17277e-06,0,-2.88025e-07,-5.69944e+08,-5.69652e+08,-5.6987e+08,-19758.5,0.00260474,0.126738,0,0.126764,37582,-20749.9,0,42929.8,19758.5
step02_gravity_refstate-crust.xmf,858,-1.04459e-06,2.91391e-06,0,9.07591e-10,-5.26125e+08,-5.25853e+08,-5.26053e+08,62.2607,1.79452e-19,0.130966,0,0.130966,40000,-19154.4,0,44349.6,62.2607
step02_gravity_refstate-crust.xmf,859,-1.15762e-06,3.7451e-06,0,-1.38561e-06,-6.84927e+08,-6.84591e+08,-6.84848e+08,-95052.7,0.0130416,0.125615,0,0.12629,28718,-24936.6,0,38033.6,95052.7
step02_gravity_refstate-crust.xmf,860,-2.51527e-06,6.41604e-06,0,-2.86936e-06,-1.01781e+09,-1.0172e+09,-1.01764e+09,-196838,0.0272419,0.106643,0,0.110067,19172.7,-37054.2,0,41720.5,196838
step02_gravity_refstate-crust.xmf,861,-1.9979e-06,5.6151e-06,0,-2.53775e-06,-9.48578e+08,-9.48055e+08,-9.48441e+08,-174089,0.0248325,0.111457,0,0.11419,20889.2,-34534.5,0,40360.8,174089
step02_gravity_refstate-crust.xmf,862,-1.11987e-06,3.52962e-06,0,-4.71073e-07,-6.30605e+08,-6.30286e+08,-6.30529e+08,-32315.6,0.00443332,0.120412,0,0.120493,36038.5,-22958.8,0,42730.3,32315.6
step02_gravity_refstate-crust.xmf,863,-1.24357e-06,4.0611e-06,0,-1.536e-06,-7.36457e+08,-7.36093e+08,-7.36371e+08,-105370,0.014882,0.121595,0,0.122502,27504.1,-26812.7,0,38410.9,105370
step02_gravity_refstate-crust.xmf,864,-1.17638e-06,3.84141e-06,0,-1.081e-06,-6.90088e+08,-6.89744e+08,-6.90007e+08,-74156.4,0.0104425,0.119752,0,0.120206,30972.3,-25124.5,0,39881.4,74156.4
step02_gravity_refstate-crust.xmf,865,-1.3441e-06,4.37273e-06,0,-1.68547e-06,-7.85095e+08,-7.84703e+08,-7.85003e+08,-115623,0.0167056,0.117902,0,0.11908,26282.2,-28583.5,0,38830,115623
step02_gravity_refstate-crust.xmf,866,-1.46771e-06,4.69719e-06,0,-1.82972e-06,-8.31987e+08,-8.31564e+08,-8.31886e+08,-125519,0.018452,0.114329,0,0.115809,25085.9,-30290.7,0,39329.7,125519
step02_gravity_refstate-crust.xmf,867,-2.8833e-06,6.99234e-06,0,-2.97093e-06,-1.05685e+09,-1.05617e+09,-1.05665e+09,-203806,0.027844,0.102269,0,0.105992,18425.3,-38474.7,0,42659.1,203806
step02_gravity_refstate-crust.xmf,868,-1.6253e-06,5.05328e-06,0,-1.96891e-06,-8.78486e+08,-8.78028e+08,-8.78375e+08,-135067,0.0200976,0.110673,0,0.112483,23910.9,-31983.4,0,39933.3,135067
step02_gravity_refstate-crust.xmf,869,-1.84858e-06,5.4819e-06,0,-2.16151e-06,-9.27568e+08,-9.27065e+08,-9.27441e+08,-148280,0.0220422,0.107547,0,0.109782,22494.5,-33770,0,40576.1,148280
step02_gravity_refstate-crust.xmf,870,-2.37937e-06,6.48899e-06,0,-2.23247e-06,-1.0186e+09,-1.018e+09,-1.01844e+09,-153148,0.0231351,0.0963647,0,0.0991029,20839.1,-37083.7,0,42537.9,153148
step02_gravity_refstate-crust.xmf,871,-2.09907e-06,6.00311e-06,0,-2.1593e-06,-9.77814e+08,-9.77258e+08,-9.7767e+08,-148128,0.0224481,0.10068,0,0.103152,21762.2,-35599.1,0,41723.9,148128
step02_gravity_refstate-crust.xmf,872,-1.18226e-06,3.94945e-06,0,-7.61263e-07,-7.02531e+08,-7.02179e+08,-7.0245e+08,-52222.7,0.00757094,0.113655,0,0.113906,33446.9,-25577.7,0,42106,52222.7
step02_gravity_refstate-crust.xmf,873,-1.1569e-06,3.87448e-06,0,-4.90576e-07,-6.88423e+08,-6.88078e+08,-6.88344e+08,-33653.5,0.00485502,0.112869,0,0.112973,35762.1,-25064,0,43670.8,33653.5
step02_gravity_refstate-crust.xmf,874,-1.12921e-06,3.60804e-06,0,-2.18056e-07,-6.4187e+08,-6.41545e+08,-6.41792e+08,-14958.6,0.00207724,0.117593,0,0.117612,38153.5,-23368.9,0,44741.4,14958.6
step02_gravity_refstate-crust.xmf,875,-1.10422e-06,3.38418e-06,0,-1.85184e-11,-6.04028e+08,-6.0372e+08,-6.03952e+08,-1.27036,1.43514e-19,0.122034,0,0.122034,40000,-21991,0,45646.5,1.27036
step02_gravity_refstate-crust.xmf,876,-1.24382e-06,4.14684e-06,0,-1.22133e-06,-7.40498e+08,-7.40128e+08,-7.40413e+08,-83783.3,0.0121799,0.11524,0,0.115882,29692.1,-26960,0,40105.6,83783.3
step02_gravity_refstate-crust.xmf,877,-2.70801e-06,7.03448e-06,0,-2.28902e-06,-1.05788e+09,-1.05722e+09,-1.0577e+09,-157026,0.0235491,0.0919677,0,0.0949348,19943.2,-38513.2,0,43370.5,157026
step02_gravity_refstate-crust.xmf,878,-1.32716e-06,4.47169e-06,0,-1.33934e-06,-7.9074e+08,-7.90342e+08,-7.90649e+08,-91878.9,0.0138427,0.110568,0,0.111431,28430.6,-28789.2,0,40461.3,91878.9
step02_gravity_refstate-crust.xmf,879,-1.22353e-06,4.21882e-06,0,-9.2059e-07,-7.47578e+08,-7.47205e+08,-7.47494e+08,-63152.4,0.00948708,0.109553,0,0.109963,31883.5,-27217.9,0,41921,63152.4
step02_gravity_refstate-crust.xmf,880,-1.43014e-06,4.78199e-06,0,-1.46556e-06,-8.3624e+08,-8.35814e+08,-8.36142e+08,-100538,0.0155068,0.106748,0,0.107869,27109.8,-30445.8,0,40766.2,100538
step02_gravity_refstate-crust.xmf,881,-1.55724e-06,5.12629e-06,0,-1.55778e-06,-8.82084e+08,-8.81626e+08,-8.81978e+08,-106864,0.0168647,0.102392,0,0.103772,25920.9,-32114.8,0,41270.5,106864
step02_gravity_refstate-crust.xmf,882,-1.72215e-06,5.51482e-06,0,-1.63738e-06,-9.28052e+08,-9.27555e+08,-9.27934e+08,-112324,0.0180535,0.0979003,0,0.099551,24723.3,-33788.2,0,41867.5,112324
step02_gravity_refstate-crust.xmf,883,-2.44218e-06,6.94896e-06,0,-1.68637e-06,-1.05838e+09,-1.05774e+09,-1.05821e+09,-115685,0.0193077,0.0826921,0,0.0849163,21577.9,-38532.2,0,44162.6,115685
step02_gravity_refstate-crust.xmf,884,-2.16138e-06,6.42695e-06,0,-1.69209e-06,-1.01736e+09,-1.01677e+09,-1.01721e+09,-116078,0.0192286,0.087728,0,0.0898105,22582.6,-37039.3,0,43380.7,116078
step02_gravity_refstate-crust.xmf,885,-1.92263e-06,5.95109e-06,0,-1.67994e-06,-9.73794e+08,-9.73254e+08,-9.73662e+08,-115244,0.0188395,0.0928882,0,0.0947795,23615.9,-35453.4,0,42598.8,115244
step02_gravity_refstate-crust.xmf,886,-1.17708e-06,4.21021e-06,0,-4.84556e-07,-7.46425e+08,-7.46055e+08,-7.46344e+08,-33240.5,0.00510663,0.104535,0,0.10466,35553.8,-27176.1,0,44750.5,33240.5
step02_gravity_refstate-crust.xmf,887,-1.15329e-06,4.05289e-06,0,-2.40633e-07,-7.18826e+08,-7.18468e+08,-7.18746e+08,-16507.4,0.00247667,0.107,0,0.107028,37837.6,-26171.2,0,46006.7,16507.4
step02_gravity_refstate-crust.xmf,888,-1.14128e-06,3.83127e-06,0,-9.14196e-10,-6.7971e+08,-6.79369e+08,-6.79632e+08,-62.7139,1.7141e-19,0.112092,0,0.112092,40000,-24746.9,0,47036.2,62.7139
step02_gravity_refstate-crust.xmf,889,-1.28162e-06,4.52174e-06,0,-1.01852e-06,-7.96931e+08,-7.96533e+08,-7.96843e+08,-69870.4,0.0109105,0.104128,0,0.104698,30669,-29014.9,0,42219.1,69870.4
step02_gravity_refstate-crust.xmf,890,-1.20409e-06,4.28508e-06,0,-6.89119e-07,-7.58776e+08,-7.584e+08,-7.58694e+08,-47273.5,0.00729394,0.104875,0,0.105129,33689.2,-27625.8,0,43567.7,47273.5
step02_gravity_refstate-crust.xmf,891,-1.35171e-06,4.83793e-06,0,-1.09993e-06,-8.44547e+08,-8.44123e+08,-8.44454e+08,-75455,0.0123104,0.0990398,0,0.0998019,29361.5,-30748.6,0,42515.6,75455
step02_gravity_refstate-crust.xmf,892,-1.21619e-06,4.56221e-06,0,-7.28108e-07,-8.05581e+08,-8.05184e+08,-8.05497e+08,-49948.2,0.00816637,0.0986366,0,0.0989741,32836.1,-29330.1,0,44028,49948.2
step02_gravity_refstate-crust.xmf,893,-1.4582e-06,5.14682e-06,0,-1.20614e-06,-8.87394e+08,-8.86941e+08,-8.87294e+08,-82741.5,0.01383,0.0951993,0,0.0961986,27885.1,-32308.5,0,42678.1,82741.5
step02_gravity_refstate-crust.xmf,894,-1.57107e-06,5.49225e-06,0,-1.23957e-06,-9.31222e+08,-9.30738e+08,-9.31115e+08,-85034.5,0.0146984,0.0902589,0,0.0914478,26716,-33904.2,0,43165.3,85034.5
step02_gravity_refstate-crust.xmf,895,-1.7136e-06,5.86975e-06,0,-1.24058e-06,-9.74628e+08,-9.74107e+08,-9.7451e+08,-85103.7,0.0152054,0.0850328,0,0.0863816,25597.5,-35484.4,0,43753.6,85103.7
step02_gravity_refstate-crust.xmf,896,-2.13456e-06,6.78058e-06,0,-1.19638e-06,-1.05859e+09,-1.05798e+09,-1.05845e+09,-82071.7,0.0154653,0.0748488,0,0.0764298,23249.7,-38541,0,45010.6,82071.7
step02_gravity_refstate-crust.xmf,897,-1.89638e-06,6.29147e-06,0,-1.22599e-06,-1.01699e+09,-1.01642e+09,-1.01686e+09,-84102.7,0.0154536,0.0798799,0,0.081361,24450.7,-37026.5,0,44371.1,84102.7
step02_gravity_refstate-crust.xmf,898,-1.16897e-06,4.54471e-06,0,-4.88201e-07,-8.07609e+08,-8.07217e+08,-8.07528e+08,-33490.6,0.00556568,0.0953438,0,0.0955061,35020.6,-29404.1,0,45727.9,33490.6
step02_gravity_refstate-crust.xmf,899,-1.11976e-06,4.47973e-06,0,-2.34103e-07,-7.98672e+08,-7.98287e+08,-7.98595e+08,-16059.5,0.00269585,0.0947292,0,0.0947675,37572,-29078.8,0,47510.4,16059.5
step02_gravity_refstate-crust.xmf,900,-1.1389e-06,4.24118e-06,0,-2.14087e-09,-7.53378e+08,-7.53009e+08,-7.533e+08,-146.864,1.87848e-19,0.101265,0,0.101265,40000,-27429.4,0,48501.3,146.864
step02_gravity_refstate-crust.xmf,901,-1.25518e-06,4.8522e-06,0,-7.88014e-07,-8.54411e+08,-8.53992e+08,-8.54324e+08,-54057.8,0.009249,0.0923646,0,0.0928266,31638.7,-31108.1,0,44370.3,54057.8
step02_gravity_refstate-crust.xmf,902,-1.31392e-06,5.20194e-06,0,-8.14504e-07,-9.09287e+08,-9.0884e+08,-9.09197e+08,-55875,0.0102204,0.0852303,0,0.0858409,30208.3,-33106.2,0,44817,55875
step02_gravity_refstate-crust.xmf,903,-1.14256e-06,4.83904e-06,0,-5.19358e-07,-8.61344e+08,-8.60934e+08,-8.61266e+08,-35628,0.0064777,0.0875377,0,0.087777,33896,-31361,0,46178.5,35628
step02_gravity_refstate-crust.xmf,904,-1.42718e-06,5.43443e-06,0,-9.45151e-07,-9.35341e+08,-9.3487e+08,-9.35243e+08,-64837.3,0.0119057,0.0842448,0,0.0850819,28514.6,-34054.7,0,44416.2,64837.3
step02_gravity_refstate-crust.xmf,905,-1.49325e-06,5.76271e-06,0,-8.68629e-07,-9.79788e+08,-9.7929e+08,-9.79685e+08,-59587.9,0.0117692,0.0775882,0,0.0784758,27627.1,-35673,0,45120.1,59587.9
step02_gravity_refstate-crust.xmf,906,-1.63454e-06,6.14872e-06,0,-8.58688e-07,-1.02051e+09,-1.01998e+09,-1.0204e+09,-58906,0.0121544,0.0729426,0,0.0739483,26216.8,-37155.6,0,45473.8,58906
step02_gravity_refstate-crust.xmf,907,-1.80759e-06,6.56289e-06,0,-8.02019e-07,-1.05913e+09,-1.05856e+09,-1.05901e+09,-55018.5,0.0120075,0.0680769,0,0.0691278,24984.5,-38561.6,0,45948.1,55018.5
step02_gravity_refstate-crust.xmf,908,-1.07442e-06,4.80119e-06,0,-3.03377e-07,-8.64689e+08,-8.64286e+08,-8.64615e+08,-20811.6,0.00384886,0.0844535,0,0.0845412,36258.9,-31482.9,0,48019.6,20811.6
step02_gravity_refstate-crust.xmf,909,-1.0809e-06,4.59916e-06,0,-1.24092e-09,-8.25233e+08,-8.24844e+08,-8.25159e+08,-85.1271,1.19434e-19,0.0897027,0,0.0897027,40000,-30046.2,0,50027.7,85.1271
step02_gravity_refstate-crust.xmf,910,-1.14563e-06,5.10589e-06,0,-5.43328e-07,-9.10715e+08,-9.10286e+08,-9.10636e+08,-37272.3,0.00722015,0.0803997,0,0.0807232,32655.6,-33158.8,0,46539.2,37272.3
step02_gravity_refstate-crust.xmf,911,-1.03553e-06,4.75543e-06,0,-1.35642e-07,-8.60356e+08,-8.59959e+08,-8.60285e+08,-9305.06,0.0017054,0.08402,0,0.0840374,38330.6,-31325.3,0,49502.6,9305.06
step02_gravity_refstate-crust.xmf,912,-1.28035e-06,5.53992e-06,0,-6.48026e-07,-9.68374e+08,-9.67906e+08,-9.68286e+08,-44454.6,0.00927378,0.074692,0,0.0752655,29743.3,-35258,0,46128,44454.6
step02_gravity_refstate-crust.xmf,913,-9.93059e-07,5.06048e-06,0,-3.16417e-07,-9.19363e+08,-9.18948e+08,-9.19295e+08,-21706.2,0.0046307,0.0758238,0,0.0759651,34962.5,-33474.2,0,48403.5,21706.2
step02_gravity_refstate-crust.xmf,914,-1.11499e-06,5.37604e-06,0,-4.76865e-07,-9.61242e+08,-9.60797e+08,-9.61166e+08,-32713,0.00715776,0.0722943,0,0.0726477,31713,-34998.8,0,47229.6,32713
step02_gravity_refstate-crust.xmf,915,-1.4255e-06,5.98895e-06,0,-6.33516e-07,-1.02063e+09,-1.02012e+09,-1.02053e+09,-43459.2,0.00985372,0.0685952,0,0.0692994,27722.2,-37160.4,0,46361.8,43459.2
step02_gravity_refstate-crust.xmf,916,-1.50376e-06,6.34221e-06,0,-5.12863e-07,-1.06027e+09,-1.05973e+09,-1.06017e+09,-35182.4,0.00919216,0.0626488,0,0.0633195,26638.8,-38604,0,46903.1,35182.4
step02_gravity_refstate-crust.xmf,917,-8.8723e-07,5.0227e-06,0,-1.26211e-07,-9.26971e+08,-9.26566e+08,-9.26911e+08,-8658.09,0.00201108,0.0724291,0,0.072457,37677,-33751.5,0,50583.8,8658.09
step02_gravity_refstate-crust.xmf,918,-9.4424e-07,4.888e-06,0,-4.88229e-09,-8.95475e+08,-8.95075e+08,-8.9541e+08,-334.925,1.40285e-19,0.0775636,0,0.0775636,40000,-32604.4,0,51604.7,334.925
step02_gravity_refstate-crust.xmf,919,-9.77676e-07,5.25485e-06,0,-3.39941e-07,-9.5728e+08,-9.56852e+08,-9.57213e+08,-23320,0.00532982,0.0703109,0,0.0705126,33571,-34854.9,0,48392.9,23320
step02_gravity_refstate-crust.xmf,920,-1.25557e-06,5.79876e-06,0,-5.06704e-07,-1.01232e+09,-1.01183e+09,-1.01223e+09,-34759.9,0.00833271,0.0669056,0,0.0674225,29159.5,-36858.3,0,46998,34759.9
step02_gravity_refstate-crust.xmf,921,-1.0469e-06,5.61539e-06,0,-3.45841e-07,-1.00944e+09,-1.00899e+09,-1.00937e+09,-23724.7,0.00633249,0.063829,0,0.0641424,31024.6,-36754.3,0,48097.9,23724.7
step02_gravity_refstate-crust.xmf,922,-7.76213e-07,5.254e-06,0,-1.59574e-07,-9.86715e+08,-9.86301e+08,-9.86662e+08,-10946.8,0.00308711,0.0626995,0,0.0627754,35463.9,-35927.3,0,50482.3,10946.8
step02_gravity_refstate-crust.xmf,923,-8.57518e-07,5.44343e-06,0,-2.17694e-07,-1.00673e+09,-1.0063e+09,-1.00667e+09,-14933.8,0.00447497,0.0612621,0,0.0614253,33109.8,-36656.1,0,49395.6,14933.8
step02_gravity_refstate-crust.xmf,924,-1.23697e-06,6.08642e-06,0,-3.29462e-07,-1.05743e+09,-1.05692e+09,-1.05734e+09,-22601.1,0.00700076,0.0589042,0,0.0593187,28375.6,-38501.1,0,47827.9,22601.1
step02_gravity_refstate-crust.xmf,925,-7.33445e-07,5.1055e-06,0,-3.75292e-09,-9.64302e+08,-9.63901e+08,-9.64252e+08,-257.45,8.46266e-20,0.0650395,0,0.0650395,40000,-35111.3,0,53224.1,257.45
step02_gravity_refstate-crust.xmf,926,-9.77646e-07,5.85027e-06,0,-1.85649e-07,-1.05514e+09,-1.05468e+09,-1.05508e+09,-12735.5,0.0051178,0.0557071,0,0.0559417,30215.5,-38418.7,0,48877.1,12735.5
step02_gravity_refstate-crust.xmf,927,-5.99851e-07,5.20799e-06,0,-4.47713e-08,-1.00129e+09,-1.00089e+09,-1.00125e+09,-3071.31,0.00116134,0.0584539,0,0.0584654,38009.8,-36458.6,0,52668.5,3071.31
step02_gravity_refstate-crust.xmf,928,-7.47756e-07,5.63325e-06,0,-8.77977e-08,-1.05285e+09,-1.05242e+09,-1.0528e+09,-6022.92,0.00354123,0.0531267,0,0.0532446,32206.6,-38335.9,0,50069,6022.92
step02_gravity_refstate-crust.xmf,929,-5.65815e-07,5.44793e-06,0,-3.41882e-08,-1.04939e+09,-1.04898e+09,-1.04935e+09,-2345.31,0.0022995,0.0514514,0,0.0515027,34349.9,-38210.2,0,51380.3,2345.31
step02_gravity_refstate-crust.xmf,930,-4.46329e-07,5.31846e-06,0,-1.33788e-08,-1.04597e+09,-1.04557e+09,-1.04594e+09,-917.785,0.00130037,0.0505315,0,0.0505482,36567,-38086,0,52798.6,917.785
step02_gravity_refstate-crust.xmf,931,-4.27768e-07,5.23215e-06,0,-1.84119e-09,-1.03191e+09,-1.03152e+09,-1.03188e+09,-126.305,3.59968e-20,0.0523081,0,0.0523081,40000,-37574.1,0,54880,126.305
step02_gravity_refstate-crust.xmf,932,-3.47396e-07,5.26941e-06,0,3.78986e-09,-1.05203e+09,-1.05165e+09,-1.05201e+09,259.985,0.000542748,0.0486796,0,0.0486827,38325.9,-38307,0,54187.6,259.985
