Block Name,Point ID,cauchy_strain_0,cauchy_strain_1,cauchy_strain_2,cauchy_strain_3,cauchy_stress_0,cauchy_stress_1,cauchy_stress_2,cauchy_stress_3,displacement_0,displacement_1,displacement_2,displacement_Magnitude,Points_0,Points_1,Points_2,Points_Magnitude,stress_xy
step02_gravity_refstate-mantle.xmf,0,1.82866e-06,2.16829e-06,0,-1.85466e-10,-1.7456e+09,-1.74556e+09,-1.74585e+09,-24.7875,0.0116881,2.05059e-19,0,0.0116881,-33334.3,-60000,-0,68638,24.7875
step02_gravity_refstate-mantle.xmf,1,1.89616e-06,2.18557e-06,0,-1.43791e-10,-1.74559e+09,-1.74555e+09,-1.74584e+09,-19.2177,0.0154028,9.98112e-19,0,0.0154028,-31323.8,-60000,-0,67684.4,19.2177
step02_gravity_refstate-mantle.xmf,2,1.83087e-06,2.10794e-06,0,-9.76591e-08,-1.69123e+09,-1.6912e+09,-1.69148e+09,-13052.1,0.0132941,0.00359778,0,0.0137723,-32361,-58320.3,-0,66697,13052.1
step02_gravity_refstate-mantle.xmf,3,1.77931e-06,2.15729e-06,0,-1.15108e-09,-1.74562e+09,-1.74557e+09,-1.74585e+09,-153.842,0.00790841,1.27025e-18,0,0.00790841,-35446.9,-60000,-0,69688.5,153.842
step02_gravity_refstate-mantle.xmf,4,1.77396e-06,2.09317e-06,0,-7.0266e-08,-1.69063e+09,-1.69059e+09,-1.69087e+09,-9391.06,0.00965723,0.00361318,0,0.010311,-34390.6,-58301.3,-0,67688.7,9391.06
step02_gravity_refstate-mantle.xmf,5,1.73053e-06,2.14777e-06,0,2.06199e-09,-1.74563e+09,-1.74557e+09,-1.74586e+09,275.585,-2.53267e-19,1.43809e-18,-0,1.46022e-18,-40000,-60000,-0,72111,275.585
step02_gravity_refstate-mantle.xmf,6,1.74481e-06,2.15248e-06,0,1.41271e-09,-1.74562e+09,-1.74557e+09,-1.74586e+09,188.809,0.00402558,2.60138e-19,0,0.00402558,-37667,-60000,-0,70843.5,188.809
step02_gravity_refstate-mantle.xmf,7,1.70818e-06,2.08719e-06,0,-1.44173e-08,-1.69644e+09,-1.69639e+09,-1.69667e+09,-1926.87,0.00259446,0.0032193,0,0.00413462,-38479.3,-58480.3,-0,70004.3,1926.87
step02_gravity_refstate-mantle.xmf,8,1.72045e-06,2.07065e-06,0,-5.31579e-08,-1.67955e+09,-1.67951e+09,-1.67978e+09,-7104.55,0.00593345,0.00431218,0,0.0073349,-36507.5,-57958.7,-0,68498.2,7104.55
step02_gravity_refstate-mantle.xmf,9,1.6897e-06,2.06088e-06,0,7.02329e-10,-1.67403e+09,-1.67398e+09,-1.67425e+09,93.8663,-2.81782e-19,0.004657,-0,0.004657,-40000,-57787.8,-0,70281.1,93.8663
step02_gravity_refstate-mantle.xmf,10,1.95983e-06,2.21285e-06,0,3.91376e-09,-1.74557e+09,-1.74554e+09,-1.74583e+09,523.074,0.0190774,-4.45615e-20,0,0.0190774,-29410.7,-60000,-0,66820.6,523.074
step02_gravity_refstate-mantle.xmf,11,1.88817e-06,2.13037e-06,0,-1.21821e-07,-1.69101e+09,-1.69098e+09,-1.69126e+09,-16281.3,0.0169564,0.00365052,0,0.0173449,-30382.9,-58313.9,-0,65754.3,16281.3
step02_gravity_refstate-mantle.xmf,12,1.64712e-06,2.03702e-06,0,-4.04843e-08,-1.63738e+09,-1.63733e+09,-1.6376e+09,-5410.73,0.00286876,0.00698319,0,0.00754949,-38251.5,-56655.3,-0,68359.4,5410.73
step02_gravity_refstate-mantle.xmf,13,1.97352e-06,2.1714e-06,0,-1.47012e-07,-1.69614e+09,-1.69611e+09,-1.6964e+09,-19648.2,0.0206389,0.00336255,0,0.020911,-28500.3,-58472.9,-0,65048.9,19648.2
step02_gravity_refstate-mantle.xmf,14,1.77289e-06,2.08935e-06,0,-2.134e-07,-1.63992e+09,-1.63988e+09,-1.64016e+09,-28521,0.0145705,0.00695025,0,0.0161433,-31362.4,-56735,-0,64826.4,28521
step02_gravity_refstate-mantle.xmf,15,1.72838e-06,2.06304e-06,0,-1.64714e-07,-1.63678e+09,-1.63674e+09,-1.63701e+09,-22014,0.0112081,0.00708939,0,0.0132621,-33267,-56637.6,-0,65684.9,22014
step02_gravity_refstate-mantle.xmf,16,1.68627e-06,2.05134e-06,0,-1.17492e-07,-1.63726e+09,-1.63721e+09,-1.63748e+09,-15702.8,0.00829612,0.00702291,0,0.0108695,-34982.2,-56651.8,-0,66582.2,15702.8
step02_gravity_refstate-mantle.xmf,17,1.58131e-06,2.02133e-06,0,2.47475e-10,-1.60248e+09,-1.60242e+09,-1.60269e+09,33.075,-2.77133e-19,0.00916942,-0,0.00916942,-40000,-55576.9,-0,68474.7,33.075
step02_gravity_refstate-mantle.xmf,18,1.84094e-06,2.1234e-06,0,-2.78316e-07,-1.63501e+09,-1.63497e+09,-1.63526e+09,-37196.9,0.0180647,0.00737552,0,0.0195123,-29376.6,-56583.7,-0,63755,37196.9
step02_gravity_refstate-mantle.xmf,19,2.06921e-06,2.22337e-06,0,-1.65793e-07,-1.6992e+09,-1.69918e+09,-1.69948e+09,-22158.2,0.0242821,0.00322291,0,0.0244951,-26714.5,-58568.5,-0,64373.4,22158.2
step02_gravity_refstate-mantle.xmf,20,1.95479e-06,2.18309e-06,0,-3.05974e-07,-1.64905e+09,-1.64902e+09,-1.64931e+09,-40893.4,0.0221119,0.00659373,0,0.023074,-27380.2,-57018.3,-0,63251.6,40893.4
step02_gravity_refstate-mantle.xmf,21,2.05087e-06,2.25195e-06,0,4.34618e-09,-1.74555e+09,-1.74552e+09,-1.74582e+09,580.866,0.0227285,-4.35717e-20,0,0.0227285,-27590,-60000,-0,66039.4,580.866
step02_gravity_refstate-mantle.xmf,22,1.60483e-06,2.0305e-06,0,-1.07226e-07,-1.60479e+09,-1.60473e+09,-1.605e+09,-14330.7,0.00569461,0.00904991,0,0.0106925,-36417,-55648.4,-0,66505.2,14330.7
step02_gravity_refstate-mantle.xmf,23,1.50937e-06,2.02017e-06,0,-6.72402e-08,-1.56706e+09,-1.56699e+09,-1.56726e+09,-8986.66,0.00279905,0.0113916,0,0.0117305,-38137.8,-54482.3,-0,66504.2,8986.66
step02_gravity_refstate-mantle.xmf,24,1.7073e-06,2.10317e-06,0,-3.11816e-07,-1.5992e+09,-1.59915e+09,-1.59943e+09,-41674.3,0.0153437,0.00963686,0,0.018119,-30504.4,-55476.6,-0,63310.1,41674.3
step02_gravity_refstate-mantle.xmf,25,2.0432e-06,2.24614e-06,0,-3.27083e-07,-1.65877e+09,-1.65874e+09,-1.65904e+09,-43714.6,0.0256014,0.0060879,0,0.0263153,-25738.1,-57319.3,-0,62832.7,43714.6
step02_gravity_refstate-mantle.xmf,26,1.62859e-06,2.07364e-06,0,-2.69279e-07,-1.58758e+09,-1.58752e+09,-1.5878e+09,-35989.1,0.0123632,0.0102787,0,0.016078,-32155.7,-55117.2,-0,63811.4,35989.1
step02_gravity_refstate-mantle.xmf,27,1.57037e-06,2.04407e-06,0,-2.0199e-07,-1.57452e+09,-1.57446e+09,-1.57473e+09,-26996,0.00869123,0.0110089,0,0.0140262,-34329.1,-54713.3,-0,64591.3,26996
step02_gravity_refstate-mantle.xmf,28,1.41188e-06,2.02238e-06,0,-2.96699e-10,-1.53094e+09,-1.53086e+09,-1.53113e+09,-39.6538,-2.43538e-19,0.0136391,-0,0.0136391,-40000,-53365.9,-0,66692.8,39.6538
step02_gravity_refstate-mantle.xmf,29,1.66016e-06,2.14547e-06,0,-4.07357e-07,-1.57323e+09,-1.57317e+09,-1.57345e+09,-54443.2,0.0167848,0.0114633,0,0.0203258,-29258.6,-54674.2,-0,62010.8,54443.2
step02_gravity_refstate-mantle.xmf,30,1.77723e-06,2.18566e-06,0,-4.30312e-07,-1.5951e+09,-1.59504e+09,-1.59533e+09,-57511.2,0.020016,0.0101951,0,0.0224628,-27747.1,-55350.5,-0,61915.9,57511.2
step02_gravity_refstate-mantle.xmf,31,1.88521e-06,2.24581e-06,0,-4.61613e-07,-1.61056e+09,-1.61051e+09,-1.61081e+09,-61694.6,0.0234209,0.00937934,0,0.0252291,-26147.8,-55829,-0,61648.9,61694.6
step02_gravity_refstate-mantle.xmf,32,2.17152e-06,2.2894e-06,0,-1.83702e-07,-1.702e+09,-1.70198e+09,-1.70229e+09,-24551.8,0.0278274,0.00311266,0,0.0280009,-25058.7,-58655.6,-0,63784.2,24551.8
step02_gravity_refstate-mantle.xmf,33,2.15133e-06,2.30664e-06,0,4.33735e-09,-1.74552e+09,-1.7455e+09,-1.74581e+09,579.686,0.0263691,-4.27285e-20,0,0.0263691,-25857.2,-60000,-0,65334.5,579.686
step02_gravity_refstate-mantle.xmf,34,1.5448e-06,2.11608e-06,0,-3.73949e-07,-1.54905e+09,-1.54897e+09,-1.54925e+09,-49978.2,0.0136265,0.0128787,0,0.0187494,-30824.3,-53926.3,-0,62114.3,49978.2
step02_gravity_refstate-mantle.xmf,35,1.42989e-06,2.0354e-06,0,-1.51589e-07,-1.53378e+09,-1.5337e+09,-1.53397e+09,-20259.9,0.00526333,0.0135139,0,0.0145027,-36296.4,-53453.8,-0,64612.2,20259.9
step02_gravity_refstate-mantle.xmf,36,1.31451e-06,2.03881e-06,0,-8.41426e-08,-1.49642e+09,-1.49632e+09,-1.49659e+09,-11245.7,0.0024373,0.0158224,0,0.016009,-38139.4,-52298.9,-0,64728.6,11245.7
step02_gravity_refstate-mantle.xmf,37,2.00097e-06,2.31422e-06,0,-4.78127e-07,-1.62622e+09,-1.62618e+09,-1.62649e+09,-63901.6,0.0267749,0.00853474,0,0.0281023,-24689.6,-56313.8,-0,61488.4,63901.6
step02_gravity_refstate-mantle.xmf,38,2.13706e-06,2.30961e-06,0,-3.40379e-07,-1.66559e+09,-1.66556e+09,-1.66587e+09,-45491.6,0.0284827,0.00575929,0,0.0290591,-24437.7,-57530.7,-0,62505.8,45491.6
step02_gravity_refstate-mantle.xmf,39,1.43297e-06,2.08865e-06,0,-3.15323e-07,-1.52603e+09,-1.52594e+09,-1.52622e+09,-42143,0.0103646,0.0142029,0,0.0175826,-32647,-53214.4,-0,62430.7,42143
step02_gravity_refstate-mantle.xmf,40,1.33399e-06,2.0731e-06,0,-2.51577e-07,-1.49779e+09,-1.49769e+09,-1.49797e+09,-33623.2,0.00729527,0.0158837,0,0.0174789,-34466.1,-52341.6,-0,62670.2,33623.2
step02_gravity_refstate-mantle.xmf,41,1.1935e-06,2.0544e-06,0,-7.55144e-10,-1.45941e+09,-1.4593e+09,-1.45957e+09,-100.925,-2.04066e-19,0.0181452,-0,0.0181452,-40000,-51155,-0,64937.2,100.925
step02_gravity_refstate-mantle.xmf,42,1.44059e-06,2.18857e-06,0,-4.82967e-07,-1.51716e+09,-1.51706e+09,-1.51735e+09,-64548.6,0.0148436,0.0152058,0,0.0212497,-29351.2,-52940.7,-0,60532.7,64548.6
step02_gravity_refstate-mantle.xmf,43,1.55622e-06,2.23023e-06,0,-5.31134e-07,-1.54019e+09,-1.5401e+09,-1.5404e+09,-70986.1,0.0179951,0.0139323,0,0.0227582,-27807.5,-53653,-0,60431,70986.1
step02_gravity_refstate-mantle.xmf,44,1.6706e-06,2.28652e-06,0,-5.7473e-07,-1.56032e+09,-1.56024e+09,-1.56055e+09,-76812.6,0.0212581,0.0128704,0,0.0248506,-26284.8,-54275.9,-0,60305.6,76812.6
step02_gravity_refstate-mantle.xmf,45,1.79168e-06,2.35449e-06,0,-6.09259e-07,-1.57939e+09,-1.57931e+09,-1.57963e+09,-81427.5,0.0246086,0.0118828,0,0.0273273,-24827.3,-54865.8,-0,60221.7,81427.5
step02_gravity_refstate-mantle.xmf,46,1.93327e-06,2.43315e-06,0,-6.28031e-07,-1.59984e+09,-1.59978e+09,-1.6001e+09,-83936.4,0.0281672,0.0107794,0,0.0301594,-23422.5,-55498.8,-0,60239,83936.4
step02_gravity_refstate-mantle.xmf,47,2.13302e-06,2.39162e-06,0,-4.60746e-07,-1.64632e+09,-1.64628e+09,-1.6466e+09,-61578.7,0.0303201,0.00734205,0,0.0311963,-23310.2,-56935.6,-0,61522.6,61578.7
step02_gravity_refstate-mantle.xmf,48,2.27588e-06,2.3783e-06,0,-2.34457e-07,-1.6979e+09,-1.69789e+09,-1.6982e+09,-31335.1,0.0315391,0.00353254,0,0.0317364,-23362.6,-58530,-0,63020.4,31335.1
step02_gravity_refstate-mantle.xmf,49,2.2618e-06,2.37736e-06,0,6.39106e-09,-1.74549e+09,-1.74548e+09,-1.7458e+09,854.165,0.0300062,-4.9954e-20,0,0.0300062,-24208.2,-60000,-0,64699.6,854.165
step02_gravity_refstate-mantle.xmf,50,1.32263e-06,2.15618e-06,0,-4.22752e-07,-1.49083e+09,-1.49072e+09,-1.491e+09,-56500.8,0.0116825,0.0166975,0,0.0203786,-31023.4,-52126.5,-0,60659.9,56500.8
step02_gravity_refstate-mantle.xmf,51,1.20195e-06,2.07222e-06,0,-1.76202e-07,-1.46234e+09,-1.46222e+09,-1.4625e+09,-23549.4,0.00445624,0.0180491,0,0.0185911,-36291.3,-51245.4,-0,62794.5,23549.4
step02_gravity_refstate-mantle.xmf,52,1.07806e-06,2.08231e-06,0,-9.33865e-08,-1.42566e+09,-1.42553e+09,-1.42581e+09,-12481.1,0.0020198,0.020329,0,0.0204291,-38123,-50111.8,-0,62964.7,12481.1
step02_gravity_refstate-mantle.xmf,53,2.08363e-06,2.52401e-06,0,-6.18454e-07,-1.62261e+09,-1.62255e+09,-1.62289e+09,-82656.4,0.0319993,0.00946504,0,0.0333698,-22055.7,-56203.3,-0,60376,82656.4
step02_gravity_refstate-mantle.xmf,54,1.19985e-06,2.13412e-06,0,-3.50697e-07,-1.46266e+09,-1.46254e+09,-1.46282e+09,-46870.6,0.00874225,0.0183289,0,0.020307,-32732.9,-51255.7,-0,60816.1,46870.6
step02_gravity_refstate-mantle.xmf,55,1.08468e-06,2.12402e-06,0,-2.72912e-07,-1.4297e+09,-1.42956e+09,-1.42985e+09,-36474.7,0.00598566,0.0202981,0,0.0211622,-34494.6,-50236.7,-0,60939.3,36474.7
step02_gravity_refstate-mantle.xmf,56,9.42869e-07,2.10453e-06,0,-1.25204e-09,-1.38788e+09,-1.38772e+09,-1.38801e+09,-167.336,-1.61942e-19,0.0227429,-0,0.0227429,-40000,-48943.8,-0,63209.9,167.336
step02_gravity_refstate-mantle.xmf,57,1.18215e-06,2.25001e-06,0,-5.23004e-07,-1.45961e+09,-1.45947e+09,-1.45977e+09,-69899.5,0.0125663,0.0191355,0,0.0228928,-29437.8,-51161.5,-0,59026.2,69899.5
step02_gravity_refstate-mantle.xmf,58,1.30132e-06,2.29485e-06,0,-5.91091e-07,-1.48638e+09,-1.48624e+09,-1.48655e+09,-78999.3,0.0156632,0.0176863,0,0.023625,-27847.9,-51989.3,-0,58977.9,78999.3
step02_gravity_refstate-mantle.xmf,59,1.40915e-06,2.35459e-06,0,-6.52305e-07,-1.50841e+09,-1.50828e+09,-1.5086e+09,-87180.5,0.0187424,0.0165787,0,0.0250226,-26341.7,-52670.7,-0,58890.5,87180.5
step02_gravity_refstate-mantle.xmf,60,1.52625e-06,2.42568e-06,0,-7.05314e-07,-1.52995e+09,-1.52983e+09,-1.53015e+09,-94265.2,0.0219783,0.0155119,0,0.026901,-24900.8,-53337,-0,58863.3,94265.2
step02_gravity_refstate-mantle.xmf,61,1.65766e-06,2.51045e-06,0,-7.5036e-07,-1.55149e+09,-1.55137e+09,-1.55171e+09,-100286,0.0254445,0.0144513,0,0.0292619,-23487.6,-54003.5,-0,58890.1,100286
step02_gravity_refstate-mantle.xmf,62,1.80845e-06,2.60475e-06,0,-7.82339e-07,-1.57335e+09,-1.57325e+09,-1.57359e+09,-104560,0.0290717,0.0133321,0,0.0319829,-22152.9,-54680.1,-0,58997.2,104560
step02_gravity_refstate-mantle.xmf,63,2.30025e-06,2.48462e-06,0,-4.11474e-07,-1.66905e+09,-1.66902e+09,-1.66936e+09,-54993.5,0.0340864,0.00589488,0,0.0345924,-21950.2,-57639.1,-0,61677.2,54993.5
step02_gravity_refstate-mantle.xmf,64,1.98254e-06,2.71601e-06,0,-8.01387e-07,-1.59563e+09,-1.59553e+09,-1.59589e+09,-107105,0.032966,0.0121514,0,0.0351342,-20833.5,-55369.6,-0,59159.3,107105
step02_gravity_refstate-mantle.xmf,65,2.27454e-06,2.63134e-06,0,-5.83046e-07,-1.64676e+09,-1.64671e+09,-1.64706e+09,-77924.1,0.036042,0.00796914,0,0.0369125,-20723.3,-56950.8,-0,60604,77924.1
step02_gravity_refstate-mantle.xmf,66,2.37556e-06,2.47484e-06,0,2.71451e-09,-1.74546e+09,-1.74545e+09,-1.74578e+09,362.795,0.0336473,-3.7581e-20,0,0.0336473,-22638.7,-60000,-0,64128.8,362.795
step02_gravity_refstate-mantle.xmf,67,1.06538e-06,2.21654e-06,0,-4.46126e-07,-1.43072e+09,-1.43057e+09,-1.43086e+09,-59624.7,0.00966863,0.0207493,0,0.0228914,-31081.7,-50268.3,-0,59101.4,59624.7
step02_gravity_refstate-mantle.xmf,68,9.54877e-07,2.12416e-06,0,-1.83532e-07,-1.39463e+09,-1.39448e+09,-1.39476e+09,-24529,0.00358968,0.0224414,0,0.0227267,-36270.7,-49152.6,-0,61086.3,24529
step02_gravity_refstate-mantle.xmf,69,8.14845e-07,2.13843e-06,0,-9.54167e-08,-1.35407e+09,-1.35389e+09,-1.35418e+09,-12752.4,0.00157776,0.0250004,0,0.0250502,-38066.3,-47898.6,-0,61182.7,12752.4
step02_gravity_refstate-mantle.xmf,70,2.17661e-06,2.84137e-06,0,-7.84504e-07,-1.62067e+09,-1.62058e+09,-1.62096e+09,-104849,0.037289,0.010676,0,0.0387872,-19524,-56144.8,-0,59442.6,104849
step02_gravity_refstate-mantle.xmf,71,1.74956e-06,2.9844e-06,0,-9.75348e-07,-1.5658e+09,-1.56563e+09,-1.56603e+09,-130355,0.032963,0.0155475,0,0.0364456,-19639.3,-54447.3,-0,57881,130355
step02_gravity_refstate-mantle.xmf,72,2.40975e-06,2.48718e-06,0,-1.93593e-07,-1.71142e+09,-1.71141e+09,-1.71174e+09,-25873.7,0.0350964,0.00263784,0,0.0351953,-21934.5,-58948.6,-0,62897.2,25873.7
step02_gravity_refstate-mantle.xmf,73,1.59603e-06,2.83718e-06,0,-9.26795e-07,-1.54517e+09,-1.545e+09,-1.54538e+09,-123866,0.0291643,0.0164319,0,0.0334748,-20920.7,-53808.7,-0,57732.6,123866
step02_gravity_refstate-mantle.xmf,74,9.40919e-07,2.19363e-06,0,-3.58406e-07,-1.39949e+09,-1.39932e+09,-1.39961e+09,-47901,0.00701561,0.0225486,0,0.0236148,-32774.6,-49302.6,-0,59202.3,47901
step02_gravity_refstate-mantle.xmf,75,8.31496e-07,2.18131e-06,0,-2.71115e-07,-1.36602e+09,-1.36584e+09,-1.36613e+09,-36234.5,0.00468973,0.0245367,0,0.0249809,-34485,-48268,-0,59321.3,36234.5
step02_gravity_refstate-mantle.xmf,76,6.78439e-07,2.15873e-06,0,-2.26932e-09,-1.31622e+09,-1.31602e+09,-1.31631e+09,-303.295,-1.25908e-19,0.0274651,-0,0.0274651,-40000,-46728.6,-0,61510.7,303.295
step02_gravity_refstate-mantle.xmf,77,8.94756e-07,2.32286e-06,0,-5.26291e-07,-1.4004e+09,-1.40021e+09,-1.40052e+09,-70338.8,0.0100844,0.0233113,0,0.025399,-29470.2,-49330.8,-0,57463.2,70338.8
step02_gravity_refstate-mantle.xmf,78,1.00692e-06,2.37151e-06,0,-6.08587e-07,-1.42959e+09,-1.42941e+09,-1.42973e+09,-81337.6,0.012901,0.0217628,0,0.0252993,-27905.9,-50233.4,-0,57464.2,81337.6
step02_gravity_refstate-mantle.xmf,79,1.1162e-06,2.43544e-06,0,-6.84562e-07,-1.45596e+09,-1.45579e+09,-1.45611e+09,-91491.7,0.0158934,0.0204466,0,0.0258972,-26381.2,-51048.9,-0,57462.7,91491.7
step02_gravity_refstate-mantle.xmf,80,1.21351e-06,2.51807e-06,0,-7.55137e-07,-1.47825e+09,-1.47807e+09,-1.47841e+09,-100924,0.0189101,0.0194587,0,0.0271336,-24911.3,-51738.2,-0,57423.1,100924
step02_gravity_refstate-mantle.xmf,81,1.33389e-06,2.60617e-06,0,-8.16665e-07,-1.50184e+09,-1.50167e+09,-1.50202e+09,-109147,0.0221675,0.0183465,0,0.0287748,-23552.1,-52467.9,-0,57511.6,109147
step02_gravity_refstate-mantle.xmf,82,1.46146e-06,2.71147e-06,0,-8.73632e-07,-1.52423e+09,-1.52406e+09,-1.52442e+09,-116761,0.0255961,0.0173316,0,0.0309119,-22222.6,-53160.6,-0,57618.5,116761
step02_gravity_refstate-mantle.xmf,83,1.87906e-06,3.14873e-06,0,-9.98348e-07,-1.58552e+09,-1.58535e+09,-1.58577e+09,-133429,0.0368469,0.0146767,0,0.0396623,-18430.5,-55057.7,-0,58060.6,133429
step02_gravity_refstate-mantle.xmf,84,2.45606e-06,2.73563e-06,0,-5.08036e-07,-1.67029e+09,-1.67026e+09,-1.67062e+09,-67899,0.0395886,0.00634224,0,0.0400934,-19653.7,-57679.3,-0,60935.8,67899
step02_gravity_refstate-mantle.xmf,85,2.48544e-06,2.6072e-06,0,-2.99803e-07,-1.69921e+09,-1.6992e+09,-1.69955e+09,-40068.7,0.0381599,0.00375131,0,0.0383439,-20592.5,-58572.5,-0,62087,40068.7
step02_gravity_refstate-mantle.xmf,86,2.50055e-06,2.59264e-06,0,7.22915e-09,-1.74542e+09,-1.74541e+09,-1.74576e+09,966.176,0.0372869,-5.29884e-20,0,0.0372869,-21144.8,-60000,-0,63616.8,966.176
step02_gravity_refstate-mantle.xmf,87,1.28683e-06,3.13043e-06,0,-1.03358e-06,-1.51644e+09,-1.51619e+09,-1.51661e+09,-138138,0.0283551,0.0201327,0,0.0347755,-19730,-52919.9,-0,56478.2,138138
step02_gravity_refstate-mantle.xmf,88,1.34882e-06,3.35281e-06,0,-1.1087e-06,-1.53238e+09,-1.53211e+09,-1.53256e+09,-148178,0.0317061,0.0200638,0,0.0375211,-18396.4,-53413.3,-0,56492.5,148178
step02_gravity_refstate-mantle.xmf,89,7.87116e-07,2.28441e-06,0,-4.36997e-07,-1.36974e+09,-1.36954e+09,-1.36984e+09,-58404.7,0.00753395,0.0249896,0,0.0261006,-31091.9,-48382.8,-0,57511.8,58404.7
step02_gravity_refstate-mantle.xmf,90,7.05373e-07,2.17845e-06,0,-1.78436e-07,-1.33023e+09,-1.33004e+09,-1.33033e+09,-23848,0.00276776,0.0267344,0,0.0268773,-36164.8,-47161.7,-0,59431.7,23848
step02_gravity_refstate-mantle.xmf,91,5.21167e-07,2.19629e-06,0,-9.60465e-08,-1.27689e+09,-1.27667e+09,-1.27696e+09,-12836.6,0.00118334,0.0301893,0,0.0302125,-37766.3,-45512.8,-0,59141.4,12836.6
step02_gravity_refstate-mantle.xmf,92,2.2623e-06,3.03731e-06,0,-8.25579e-07,-1.62836e+09,-1.62825e+09,-1.62866e+09,-110339,0.040489,0.0106637,0,0.0418697,-18314.3,-56383.4,-0,59283.2,110339
step02_gravity_refstate-mantle.xmf,93,2.38134e-06,2.87477e-06,0,-6.75115e-07,-1.64713e+09,-1.64707e+09,-1.64745e+09,-90229.1,0.0401818,0.00861011,0,0.0410939,-18952,-56963.8,-0,60033.7,90229.1
step02_gravity_refstate-mantle.xmf,94,1.19402e-06,2.96078e-06,0,-9.6492e-07,-1.49721e+09,-1.49697e+09,-1.49737e+09,-128962,0.0250281,0.0206701,0,0.0324601,-20996.3,-52324.8,-0,56380.2,128962
step02_gravity_refstate-mantle.xmf,95,1.58457e-06,3.49824e-06,0,-1.14187e-06,-1.56194e+09,-1.56168e+09,-1.56215e+09,-152611,0.0364332,0.0182394,0,0.0407438,-17338.7,-54328.3,-0,57028,152611
step02_gravity_refstate-mantle.xmf,96,6.7677e-07,2.2551e-06,0,-3.40386e-07,-1.33807e+09,-1.33785e+09,-1.33816e+09,-45492.6,0.00530608,0.0267752,0,0.0272959,-32759.4,-47403.7,-0,57621.9,45492.6
step02_gravity_refstate-mantle.xmf,97,5.77709e-07,2.23653e-06,0,-2.49963e-07,-1.30378e+09,-1.30356e+09,-1.30386e+09,-33407.6,0.00342202,0.0287985,0,0.0290011,-34413.5,-46343.9,-0,57723.9,33407.6
step02_gravity_refstate-mantle.xmf,98,1.796e-07,2.2178e-06,0,6.923e-10,-1.17175e+09,-1.17147e+09,-1.17177e+09,92.5258,3.35584e-20,0.0372781,0,0.0372781,-40000,-42262.6,-0,58190.5,92.5258
step02_gravity_refstate-mantle.xmf,99,4.17064e-07,2.19769e-06,0,-1.95347e-10,-1.24424e+09,-1.244e+09,-1.2443e+09,-26.1081,8.20139e-20,0.0323172,0,0.0323172,-40000,-44503.5,-0,59837.8,26.1081
step02_gravity_refstate-mantle.xmf,100,2.72093e-07,2.22302e-06,0,-5.8269e-08,-1.20412e+09,-1.20386e+09,-1.20416e+09,-7787.65,0.000514125,0.0351324,0,0.0351362,-38157.5,-43263.5,-0,57686.4,7787.65
step02_gravity_refstate-mantle.xmf,101,5.9636e-07,2.39482e-06,0,-4.91317e-07,-1.34041e+09,-1.34017e+09,-1.34049e+09,-65664.5,0.00749042,0.0276843,0,0.0286797,-29474.7,-47475.8,-0,55881.2,65664.5
step02_gravity_refstate-mantle.xmf,102,6.97209e-07,2.44876e-06,0,-5.82423e-07,-1.3718e+09,-1.37157e+09,-1.3719e+09,-77840.9,0.00995354,0.0260521,0,0.0278888,-27944.2,-48446.4,-0,55927.9,77840.9
step02_gravity_refstate-mantle.xmf,103,7.99815e-07,2.51805e-06,0,-6.70161e-07,-1.40153e+09,-1.4013e+09,-1.40163e+09,-89567,0.0127172,0.0245947,0,0.0276881,-26421.8,-49365.5,-0,55991.7,89567
step02_gravity_refstate-mantle.xmf,104,8.93808e-07,2.60389e-06,0,-7.50371e-07,-1.42752e+09,-1.42729e+09,-1.42764e+09,-100287,0.0155588,0.0234375,0,0.0281317,-24976.5,-50169.3,-0,56042.7,100287
step02_gravity_refstate-mantle.xmf,105,9.88792e-07,2.70578e-06,0,-8.2535e-07,-1.45192e+09,-1.45169e+09,-1.45205e+09,-110308,0.0185596,0.0224189,0,0.0291044,-23593.9,-50923.9,-0,56124.1,110308
step02_gravity_refstate-mantle.xmf,106,1.09138e-06,2.82342e-06,0,-8.96623e-07,-1.47549e+09,-1.47525e+09,-1.47563e+09,-119834,0.0217491,0.0214689,0,0.0305603,-22269.4,-51652.8,-0,56248.9,119834
step02_gravity_refstate-mantle.xmf,107,2.05129e-06,3.32049e-06,0,-1.0136e-06,-1.60389e+09,-1.60372e+09,-1.60417e+09,-135467,0.0406006,0.0137865,0,0.0428775,-17360.6,-55627,-0,58273.1,135467
step02_gravity_refstate-mantle.xmf,108,2.54221e-06,2.94027e-06,0,-5.8293e-07,-1.66923e+09,-1.66918e+09,-1.66957e+09,-77908.5,0.0428898,0.0068838,0,0.0434387,-18315.9,-57647.7,-0,60487.4,77908.5
step02_gravity_refstate-mantle.xmf,109,2.63611e-06,2.79537e-06,0,-2.91452e-07,-1.70661e+09,-1.70659e+09,-1.70697e+09,-38952.6,0.042251,0.0033698,0,0.0423851,-19061,-58802.6,-0,61814.8,38952.6
step02_gravity_refstate-mantle.xmf,110,2.62491e-06,2.74184e-06,0,5.24527e-09,-1.74538e+09,-1.74537e+09,-1.74574e+09,701.031,0.0409332,-5.0274e-20,0,0.0409332,-19722.9,-60000,-0,63158.5,701.031
step02_gravity_refstate-mantle.xmf,111,8.5992e-07,3.25061e-06,0,-1.00468e-06,-1.47109e+09,-1.47078e+09,-1.47121e+09,-134276,0.0237465,0.0245131,0,0.034129,-19810.4,-51516.7,-0,55194.4,134276
step02_gravity_refstate-mantle.xmf,112,1.08839e-06,3.73927e-06,0,-1.17566e-06,-1.52298e+09,-1.52263e+09,-1.52313e+09,-157126,0.0322373,0.0229807,0,0.0395899,-17079.3,-53122.3,-0,55800.4,157126
step02_gravity_refstate-mantle.xmf,113,1.30767e-06,3.86756e-06,0,-1.22111e-06,-1.54658e+09,-1.54623e+09,-1.54675e+09,-163201,0.0361593,0.0215289,0,0.0420831,-16279.8,-53852.9,-0,56259.8,163201
step02_gravity_refstate-mantle.xmf,114,8.94843e-07,3.45733e-06,0,-1.07388e-06,-1.48783e+09,-1.48749e+09,-1.48795e+09,-143524,0.0265517,0.0244213,0,0.0360748,-18646.5,-52034.6,-0,55274.6,143524
step02_gravity_refstate-mantle.xmf,115,5.07309e-07,2.34767e-06,0,-3.95432e-07,-1.30903e+09,-1.30878e+09,-1.3091e+09,-52849.4,0.00537948,0.0293415,0,0.0298306,-31075.9,-46505.8,-0,55933,52849.4
step02_gravity_refstate-mantle.xmf,116,4.85676e-07,2.22533e-06,0,-1.71847e-07,-1.27357e+09,-1.27334e+09,-1.27364e+09,-22967.4,0.00212174,0.0306363,0,0.0307097,-35830.2,-45410.1,-0,57843.6,22967.4
step02_gravity_refstate-mantle.xmf,117,-1.07809e-08,2.19893e-06,0,4.65504e-09,-1.09854e+09,-1.09824e+09,-1.09854e+09,622.147,-2.88733e-20,0.0422894,-0,0.0422894,-40000,-40000,-0,56568.5,622.147
step02_gravity_refstate-mantle.xmf,118,1.11625e-07,2.22859e-06,0,-3.362e-08,-1.15111e+09,-1.15082e+09,-1.15112e+09,-4493.31,0.000194535,0.038765,0,0.0387655,-38346.3,-41624.7,-0,56595.5,4493.31
step02_gravity_refstate-mantle.xmf,119,1.78042e-06,3.67985e-06,0,-1.16775e-06,-1.58307e+09,-1.58281e+09,-1.5833e+09,-156069,0.0404301,0.0171431,0,0.0439145,-16356.7,-54982.7,-0,57364.1,156069
step02_gravity_refstate-mantle.xmf,120,2.42397e-06,3.1986e-06,0,-8.05312e-07,-1.64369e+09,-1.64359e+09,-1.64401e+09,-107630,0.0439395,0.00981894,0,0.0450232,-17300.2,-56858.5,-0,59432.2,107630
step02_gravity_refstate-mantle.xmf,121,7.99145e-07,3.07474e-06,0,-9.32674e-07,-1.45084e+09,-1.45054e+09,-1.45095e+09,-124652,0.0207648,0.024968,0,0.0324743,-21025,-50890.3,-0,55062.4,124652
step02_gravity_refstate-mantle.xmf,122,8.80767e-07,4.05822e-06,0,-1.20615e-06,-1.51678e+09,-1.51635e+09,-1.51689e+09,-161202,0.0323535,0.0254513,0,0.0411645,-16140.9,-52930,-0,55336.4,161202
step02_gravity_refstate-mantle.xmf,123,8.62231e-07,3.67787e-06,0,-1.12551e-06,-1.49658e+09,-1.4962e+09,-1.49669e+09,-150424,0.0284294,0.0250346,0,0.0378809,-17661.9,-52304.9,-0,55206.4,150424
step02_gravity_refstate-mantle.xmf,124,4.11709e-07,2.30788e-06,0,-2.9278e-07,-1.27551e+09,-1.27526e+09,-1.27557e+09,-39130,0.00354752,0.0311817,0,0.0313828,-32779.3,-45469.8,-0,56053.4,39130
step02_gravity_refstate-mantle.xmf,125,3.30146e-07,2.2786e-06,0,-2.03956e-07,-1.24046e+09,-1.2402e+09,-1.24051e+09,-27258.7,0.00210909,0.033214,0,0.0332809,-34431.1,-44386.5,-0,56175.3,27258.7
step02_gravity_refstate-mantle.xmf,126,2.78949e-07,2.24891e-06,0,-1.25513e-07,-1.21577e+09,-1.21551e+09,-1.21581e+09,-16774.9,0.00118269,0.0345842,0,0.0346044,-36145,-43623.3,-0,56652,16774.9
step02_gravity_refstate-mantle.xmf,127,-3.17381e-08,2.21499e-06,0,-1.36687e-08,-1.09854e+09,-1.09824e+09,-1.09854e+09,-1826.82,-4.98616e-05,0.0424583,-0,0.0424583,-37637.7,-40000,-0,54923.5,1826.82
step02_gravity_refstate-mantle.xmf,128,9.83005e-08,2.24834e-06,0,-7.06114e-08,-1.15554e+09,-1.15525e+09,-1.15555e+09,-9437.21,0.000403018,0.0386794,0,0.0386815,-36672.4,-41761.5,-0,55577.8,9437.21
step02_gravity_refstate-mantle.xmf,129,2.84105e-07,2.4605e-06,0,-4.15985e-07,-1.27684e+09,-1.27655e+09,-1.27688e+09,-55596.4,0.00478736,0.0324932,0,0.032844,-29397,-45510.4,-0,54179.2,55596.4
step02_gravity_refstate-mantle.xmf,130,3.86202e-07,2.5185e-06,0,-5.16008e-07,-1.31342e+09,-1.31313e+09,-1.31347e+09,-68964.4,0.0069728,0.0305431,0,0.031329,-27929.2,-46641.1,-0,54363.9,68964.4
step02_gravity_refstate-mantle.xmf,131,4.76506e-07,2.59138e-06,0,-6.09154e-07,-1.34547e+09,-1.34519e+09,-1.34554e+09,-81413.4,0.00936219,0.0289963,0,0.0304702,-26463.1,-47632,-0,54489.5,81413.4
step02_gravity_refstate-mantle.xmf,132,5.61535e-07,2.68534e-06,0,-6.98436e-07,-1.37514e+09,-1.37486e+09,-1.37521e+09,-93345.9,0.0120074,0.0277096,0,0.0301993,-24992.7,-48549.2,-0,54604.6,93345.9
step02_gravity_refstate-mantle.xmf,133,6.31601e-07,2.79956e-06,0,-7.79234e-07,-1.4005e+09,-1.40021e+09,-1.40058e+09,-104145,0.0146666,0.0267949,0,0.0305463,-23597.2,-49333.2,-0,54686.3,104145
step02_gravity_refstate-mantle.xmf,134,7.19704e-07,2.9283e-06,0,-8.59918e-07,-1.42713e+09,-1.42683e+09,-1.42723e+09,-114928,0.0177016,0.0257564,0,0.0312528,-22282.3,-50156.9,-0,54883.7,114928
step02_gravity_refstate-mantle.xmf,135,9.4515e-07,4.26698e-06,0,-1.25634e-06,-1.531e+09,-1.53056e+09,-1.53113e+09,-167910,0.0350813,0.0252766,0,0.0432389,-15351.7,-53370.4,-0,55534.5,167910
step02_gravity_refstate-mantle.xmf,136,1.45875e-06,4.08556e-06,0,-1.26517e-06,-1.56491e+09,-1.56455e+09,-1.5651e+09,-169091,0.0398139,0.0208464,0,0.0449412,-15366.1,-54420.7,-0,56548.4,169091
step02_gravity_refstate-mantle.xmf,137,2.23245e-06,3.52158e-06,0,-1.01406e-06,-1.62139e+09,-1.62121e+09,-1.62169e+09,-135529,0.0444506,0.0129187,0,0.0462898,-16314,-56169.1,-0,58490.3,135529
step02_gravity_refstate-mantle.xmf,138,2.69278e-06,3.1421e-06,0,-5.64415e-07,-1.67817e+09,-1.67811e+09,-1.67853e+09,-75434,0.0462797,0.00649643,0,0.0467335,-17181.6,-57925.2,-0,60419.7,75434
step02_gravity_refstate-mantle.xmf,139,2.76916e-06,3.00865e-06,0,-2.98506e-07,-1.71034e+09,-1.7103e+09,-1.71071e+09,-39895.3,0.0459498,0.00327145,0,0.0460661,-17725.1,-58919,-0,61527.4,39895.3
step02_gravity_refstate-mantle.xmf,140,2.75473e-06,2.92862e-06,0,6.21094e-09,-1.74534e+09,-1.74532e+09,-1.74571e+09,830.092,0.0445743,-4.99909e-20,0,0.0445743,-18369.3,-60000,-0,62749,830.092
step02_gravity_refstate-mantle.xmf,141,4.67482e-07,3.35003e-06,0,-9.14225e-07,-1.42831e+09,-1.42792e+09,-1.42837e+09,-122186,0.0192785,0.0288659,0,0.0347117,-19821.5,-50192.7,-0,53964.8,122186
step02_gravity_refstate-mantle.xmf,142,4.82293e-07,3.56256e-06,0,-9.79305e-07,-1.44718e+09,-1.44677e+09,-1.44724e+09,-130884,0.0218908,0.0287782,0,0.0361578,-18682.7,-50776.2,-0,54104.2,130884
step02_gravity_refstate-mantle.xmf,143,5.55046e-07,4.04548e-06,0,-1.12845e-06,-1.48591e+09,-1.48544e+09,-1.48598e+09,-150817,0.0278212,0.0284214,0,0.0397717,-16569.7,-51974.3,-0,54551.6,150817
step02_gravity_refstate-mantle.xmf,144,4.81414e-07,3.80191e-06,0,-1.04117e-06,-1.46384e+09,-1.4634e+09,-1.46391e+09,-139152,0.0244116,0.0289442,0,0.0378641,-17596.9,-51291.6,-0,54226.1,139152
step02_gravity_refstate-mantle.xmf,145,2.36653e-07,2.39793e-06,0,-3.23528e-07,-1.25078e+09,-1.25049e+09,-1.25081e+09,-43239.5,0.00337973,0.0336495,0,0.0338188,-30988.2,-44704.9,-0,54394.9,43239.5
step02_gravity_refstate-mantle.xmf,146,4.72083e-07,4.4012e-06,0,-1.17221e-06,-1.49741e+09,-1.49689e+09,-1.49748e+09,-156666,0.0300444,0.0296233,0,0.0421925,-15424.2,-52330,-0,54555.8,156666
step02_gravity_refstate-mantle.xmf,147,1.95475e-06,3.92214e-06,0,-1.18518e-06,-1.60067e+09,-1.60041e+09,-1.60093e+09,-158399,0.0443578,0.01645,0,0.0473097,-15336.2,-55528.4,-0,57607.3,158399
step02_gravity_refstate-mantle.xmf,148,2.64013e-06,3.42071e-06,0,-7.5416e-07,-1.66194e+09,-1.66183e+09,-1.66229e+09,-100794,0.0480586,0.00868303,0,0.0488367,-16163.5,-57424.1,-0,59655.6,100794
step02_gravity_refstate-mantle.xmf,149,4.3096e-07,3.16837e-06,0,-8.44428e-07,-1.40661e+09,-1.40625e+09,-1.40667e+09,-112858,0.0165766,0.0292738,0,0.0336413,-20997.5,-49521.8,-0,53789.4,112858
step02_gravity_refstate-mantle.xmf,150,1.57694e-07,2.34379e-06,0,-2.19257e-07,-1.21201e+09,-1.21172e+09,-1.21203e+09,-29303.7,0.00187856,0.0357469,0,0.0357962,-32780.2,-43506.6,-0,54473.5,29303.7
step02_gravity_refstate-mantle.xmf,151,7.61459e-08,2.3005e-06,0,-1.30192e-07,-1.16751e+09,-1.16721e+09,-1.16752e+09,-17400.1,0.000756792,0.0383816,0,0.038389,-34419.2,-42131.3,-0,54403.4,17400.1
step02_gravity_refstate-mantle.xmf,152,-8.91838e-08,2.25551e-06,0,-2.54725e-08,-1.09855e+09,-1.09824e+09,-1.09854e+09,-3404.39,-0.000182933,0.0429489,-0,0.0429493,-35384.1,-40000,-0,53404.5,3404.39
step02_gravity_refstate-mantle.xmf,153,7.97454e-08,2.57526e-06,0,-4.11257e-07,-1.25396e+09,-1.25362e+09,-1.25397e+09,-54964.4,0.00402788,0.0352896,0,0.0355188,-27833.2,-44802.3,-0,52744.1,54964.4
step02_gravity_refstate-mantle.xmf,154,-1.81141e-08,2.5057e-06,0,-2.98697e-07,-1.21077e+09,-1.21043e+09,-1.21077e+09,-39920.8,0.00210714,0.0376256,0,0.0376845,-29297,-43467.6,-0,52418.9,39920.8
step02_gravity_refstate-mantle.xmf,155,1.6152e-07,2.6445e-06,0,-5.04467e-07,-1.2879e+09,-1.28756e+09,-1.28792e+09,-67422,0.00597334,0.0336082,0,0.0341349,-26525.8,-45851.5,-0,52971.5,67422
step02_gravity_refstate-mantle.xmf,156,2.22407e-07,2.74338e-06,0,-5.93404e-07,-1.31821e+09,-1.31787e+09,-1.31824e+09,-79308.4,0.00811862,0.0324019,0,0.0334036,-25089.1,-46788.6,-0,53090.8,79308.4
step02_gravity_refstate-mantle.xmf,157,2.77871e-07,2.86896e-06,0,-6.7761e-07,-1.34763e+09,-1.34728e+09,-1.34767e+09,-90562.6,0.0105821,0.031391,0,0.0331266,-23633.5,-47698,-0,53232,90562.6
step02_gravity_refstate-mantle.xmf,158,2.83722e-07,3.03721e-06,0,-7.46025e-07,-1.37091e+09,-1.37054e+09,-1.37095e+09,-99706.2,0.0129077,0.0311251,0,0.0336954,-22131.6,-48417.7,-0,53236.1,99706.2
step02_gravity_refstate-mantle.xmf,159,4.64137e-07,4.73027e-06,0,-1.22812e-06,-1.51353e+09,-1.51296e+09,-1.51359e+09,-164138,0.0330226,0.029956,0,0.0445854,-14454,-52828.6,-0,54770.2,164138
step02_gravity_refstate-mantle.xmf,160,1.03724e-06,4.55599e-06,0,-1.31193e-06,-1.54748e+09,-1.54701e+09,-1.54762e+09,-175339,0.038479,0.0251517,0,0.04597,-14419.6,-53880.7,-0,55776.8,175339
step02_gravity_refstate-mantle.xmf,161,1.60673e-06,4.37244e-06,0,-1.29865e-06,-1.58193e+09,-1.58156e+09,-1.58214e+09,-173564,0.0436481,0.0204382,0,0.0481962,-14387.4,-54948.1,-0,56800.5,173564
step02_gravity_refstate-mantle.xmf,162,2.39586e-06,3.77894e-06,0,-1.00107e-06,-1.63566e+09,-1.63547e+09,-1.63598e+09,-133793,0.0481948,0.0123528,0,0.0497527,-15275,-56611.7,-0,58636.2,133793
step02_gravity_refstate-mantle.xmf,163,2.87286e-06,3.28533e-06,0,-3.77366e-07,-1.70569e+09,-1.70563e+09,-1.70607e+09,-50435,0.049551,0.00403446,0,0.049715,-16403.5,-58776.8,-0,61022.8,50435
step02_gravity_refstate-mantle.xmf,164,2.88581e-06,3.15527e-06,0,1.03135e-08,-1.74529e+09,-1.74526e+09,-1.74568e+09,1378.4,0.0482055,-6.44742e-20,0,0.0482055,-17080.8,-60000,-0,62383.9,1378.4
step02_gravity_refstate-mantle.xmf,165,1.18169e-07,3.41817e-06,0,-7.80835e-07,-1.38785e+09,-1.3874e+09,-1.38786e+09,-104359,0.0150157,0.033155,0,0.0363968,-19791,-48940.6,-0,52790.8,104359
step02_gravity_refstate-mantle.xmf,166,9.91688e-08,3.63805e-06,0,-8.29994e-07,-1.40691e+09,-1.40644e+09,-1.40693e+09,-110929,0.0172356,0.0332804,0,0.0374787,-18674.3,-49530.1,-0,52933.5,110929
step02_gravity_refstate-mantle.xmf,167,-4.32302e-08,4.84675e-06,0,-1.04663e-06,-1.47917e+09,-1.47852e+09,-1.47916e+09,-139882,0.0273534,0.0349532,0,0.044384,-14486.6,-51764.2,-0,53753,139882
step02_gravity_refstate-mantle.xmf,168,6.763e-08,3.89078e-06,0,-8.79176e-07,-1.42526e+09,-1.42475e+09,-1.42527e+09,-117502,0.0195366,0.0335687,0,0.0388398,-17582.7,-50097.1,-0,53093.1,117502
step02_gravity_refstate-mantle.xmf,169,1.42437e-09,4.49213e-06,0,-9.93639e-07,-1.4621e+09,-1.4615e+09,-1.4621e+09,-132800,0.0246887,0.0342989,0,0.0422605,-15492.4,-51236.4,-0,53527.4,132800
step02_gravity_refstate-mantle.xmf,170,3.99597e-08,4.17189e-06,0,-9.35937e-07,-1.44401e+09,-1.44346e+09,-1.44402e+09,-125088,0.0220628,0.0338415,0,0.0403982,-16531.6,-50677,-0,53305.3,125088
step02_gravity_refstate-mantle.xmf,171,1.46167e-08,2.41759e-06,0,-2.29397e-07,-1.19521e+09,-1.19489e+09,-1.19521e+09,-30658.9,0.0015708,0.0377293,0,0.037762,-31100.2,-42986.9,-0,53057.5,30658.9
step02_gravity_refstate-mantle.xmf,172,-6.65923e-08,5.22834e-06,0,-1.1024e-06,-1.49642e+09,-1.49571e+09,-1.49641e+09,-147336,0.0302666,0.0355692,0,0.0467037,-13532.6,-52297.9,-0,54020.3,147336
step02_gravity_refstate-mantle.xmf,173,5.03267e-07,5.09547e-06,0,-1.2857e-06,-1.53022e+09,-1.52961e+09,-1.53029e+09,-171833,0.0363314,0.030279,0,0.0472947,-13498,-53345.5,-0,55026.7,171833
step02_gravity_refstate-mantle.xmf,174,2.12989e-06,4.21514e-06,0,-1.18208e-06,-1.61688e+09,-1.6166e+09,-1.61716e+09,-157985,0.0483269,0.0158709,0,0.0508662,-14335,-56030.8,-0,57835.5,157985
step02_gravity_refstate-mantle.xmf,175,2.69428e-06,3.70853e-06,0,-8.03855e-07,-1.6634e+09,-1.66326e+09,-1.66376e+09,-107435,0.0508455,0.00924454,0,0.0516791,-15154.6,-57470.4,-0,59434.9,107435
step02_gravity_refstate-mantle.xmf,176,2.84156e-06,3.55372e-06,0,-5.95179e-07,-1.68561e+09,-1.68552e+09,-1.68599e+09,-79545.7,0.0512861,0.0065164,0,0.0516984,-15503.5,-58157.1,-0,60188.1,79545.7
step02_gravity_refstate-mantle.xmf,177,1.13239e-07,3.24525e-06,0,-7.27973e-07,-1.36869e+09,-1.36827e+09,-1.36871e+09,-97293.6,0.0129663,0.0333248,0,0.0357584,-20812,-48348.5,-0,52637.6,97293.6
step02_gravity_refstate-mantle.xmf,178,-2.07312e-07,2.46325e-06,0,-1.48068e-07,-1.15098e+09,-1.15063e+09,-1.15095e+09,-19789.2,0.000143453,0.0416338,0,0.041634,-30155.1,-41619.3,-0,51395.5,19789.2
step02_gravity_refstate-mantle.xmf,179,-8.15269e-08,2.37592e-06,0,-1.3795e-07,-1.1539e+09,-1.15357e+09,-1.15389e+09,-18437,0.000485747,0.0402606,0,0.0402635,-32139.7,-41710.1,-0,52656.3,18437
step02_gravity_refstate-mantle.xmf,180,-1.76255e-07,2.31381e-06,0,-3.0379e-08,-1.09857e+09,-1.09823e+09,-1.09854e+09,-4060.15,-0.000468025,0.0437542,-0,0.0437567,-33233.9,-40000,-0,52004.7,4060.15
step02_gravity_refstate-mantle.xmf,181,-1.01108e-07,2.67647e-06,0,-3.84306e-07,-1.23862e+09,-1.23825e+09,-1.23861e+09,-51362.5,0.00322727,0.0377071,0,0.0378449,-26476.5,-44327.7,-0,51632.8,51362.5
step02_gravity_refstate-mantle.xmf,182,-2.16445e-07,2.62842e-06,0,-2.81089e-07,-1.19785e+09,-1.19746e+09,-1.19782e+09,-37567.6,0.00132832,0.040209,0,0.0402309,-27351.4,-43067.2,-0,51018.5,37567.6
step02_gravity_refstate-mantle.xmf,183,-8.53262e-08,2.77444e-06,0,-4.55446e-07,-1.2622e+09,-1.26182e+09,-1.26219e+09,-60870.3,0.00447978,0.0371012,0,0.0373707,-25165.1,-45056.5,-0,51607.9,60870.3
step02_gravity_refstate-mantle.xmf,184,-5.7623e-08,2.89984e-06,0,-5.30259e-07,-1.29092e+09,-1.29053e+09,-1.29091e+09,-70869.1,0.00631981,0.0363027,0,0.0368487,-23754.2,-45944.1,-0,51721.6,70869.1
step02_gravity_refstate-mantle.xmf,185,-4.49769e-08,3.0371e-06,0,-5.89866e-07,-1.31531e+09,-1.3149e+09,-1.3153e+09,-78835.6,0.00814295,0.0358391,0,0.0367525,-22490.1,-46697.9,-0,51831.4,78835.6
step02_gravity_refstate-mantle.xmf,186,1.14181e-06,4.905e-06,0,-1.35277e-06,-1.56385e+09,-1.56335e+09,-1.564e+09,-180797,0.0421503,0.025162,0,0.0490895,-13461.5,-54388,-0,56029.2,180797
step02_gravity_refstate-mantle.xmf,187,-1.14068e-07,5.66127e-06,0,-1.13897e-06,-1.5132e+09,-1.51243e+09,-1.51318e+09,-152223,0.0333404,0.0364122,0,0.0493703,-12586.2,-52817,-0,54295.9,152223
step02_gravity_refstate-mantle.xmf,188,1.76015e-06,4.71253e-06,0,-1.30811e-06,-1.59794e+09,-1.59755e+09,-1.59818e+09,-174828,0.0475718,0.0201421,0,0.0516602,-13427.4,-55444.8,-0,57047.5,174828
step02_gravity_refstate-mantle.xmf,189,2.56453e-06,4.057e-06,0,-9.64654e-07,-1.6497e+09,-1.6495e+09,-1.65004e+09,-128926,0.0518244,0.0116525,0,0.0531183,-14346.6,-57047.3,-0,58823.6,128926
step02_gravity_refstate-mantle.xmf,190,2.89274e-06,3.8862e-06,0,-6.60284e-07,-1.68403e+09,-1.6839e+09,-1.68442e+09,-88246.9,0.0540997,0.00730271,0,0.0545904,-14492.2,-58109.6,-0,59889.5,88246.9
step02_gravity_refstate-mantle.xmf,191,3.00469e-06,3.58511e-06,0,-3.37835e-07,-1.7135e+09,-1.71342e+09,-1.7139e+09,-45151.7,0.0531229,0.00352983,0,0.0532401,-15269.9,-59019.8,-0,60963.2,45151.7
step02_gravity_refstate-mantle.xmf,192,3.00443e-06,3.44217e-06,0,5.83701e-09,-1.74524e+09,-1.74519e+09,-1.74565e+09,780.116,0.05182,-5.61279e-20,0,0.05182,-15854,-60000,-0,62059.2,780.116
step02_gravity_refstate-mantle.xmf,193,-6.12695e-07,5.29607e-06,0,-8.09663e-07,-1.46159e+09,-1.4608e+09,-1.46151e+09,-108211,0.0240261,0.0411088,0,0.047615,-13568.6,-51218.4,-0,52985.2,108211
step02_gravity_refstate-mantle.xmf,194,-6.9566e-07,5.73494e-06,0,-8.44452e-07,-1.47964e+09,-1.47878e+09,-1.47954e+09,-112861,0.0267631,0.0421273,0,0.0499097,-12634.6,-51776.5,-0,53295.8,112861
step02_gravity_refstate-mantle.xmf,195,-1.14793e-07,3.22281e-06,0,-6.05944e-07,-1.33051e+09,-1.33007e+09,-1.3305e+09,-80984.4,0.00935749,0.0366324,0,0.0378087,-21108.5,-47167.5,-0,51675.4,80984.4
step02_gravity_refstate-mantle.xmf,196,-1.84951e-07,3.43629e-06,0,-6.17876e-07,-1.34738e+09,-1.3469e+09,-1.34736e+09,-82579.1,0.0108054,0.0373924,0,0.0389224,-19818.2,-47688.8,-0,51642.8,82579.1
step02_gravity_refstate-mantle.xmf,197,-2.38005e-07,3.66518e-06,0,-6.40958e-07,-1.36653e+09,-1.36601e+09,-1.3665e+09,-85664,0.0126213,0.0378438,0,0.039893,-18673.9,-48280.6,-0,51766.1,85664
step02_gravity_refstate-mantle.xmf,198,-3.07612e-07,3.928e-06,0,-6.61179e-07,-1.38527e+09,-1.38471e+09,-1.38523e+09,-88366.5,0.0145282,0.038454,0,0.0411069,-17563.7,-48859.6,-0,51920.6,88366.5
step02_gravity_refstate-mantle.xmf,199,-5.3923e-07,4.90745e-06,0,-7.64503e-07,-1.44275e+09,-1.44202e+09,-1.44268e+09,-102176,0.0213833,0.0403714,0,0.0456847,-14510.2,-50636.1,-0,52674.1,102176
step02_gravity_refstate-mantle.xmf,200,-3.86122e-07,4.22371e-06,0,-6.85956e-07,-1.40404e+09,-1.40342e+09,-1.40399e+09,-91678,0.016581,0.0391251,0,0.0424936,-16499.9,-49439.5,-0,52120.2,91678
step02_gravity_refstate-mantle.xmf,201,-4.66226e-07,4.55522e-06,0,-7.21156e-07,-1.42347e+09,-1.4228e+09,-1.42341e+09,-96382.5,0.0188876,0.0397694,0,0.0440266,-15473.4,-50040,-0,52377.7,96382.5
step02_gravity_refstate-mantle.xmf,202,-3.42919e-07,2.56657e-06,0,-1.44831e-07,-1.1483e+09,-1.14792e+09,-1.14826e+09,-19356.7,-0.000453005,0.0433215,-0,0.0433239,-28283.1,-41535.9,-0,50251,19356.7
step02_gravity_refstate-mantle.xmf,203,-8.74168e-07,6.29538e-06,0,-8.08396e-07,-1.49373e+09,-1.49277e+09,-1.49361e+09,-108042,0.0288365,0.0446176,0,0.0531251,-11614,-52212,-0,53488.1,108042
step02_gravity_refstate-mantle.xmf,204,-1.09858e-07,6.133e-06,0,-1.15522e-06,-1.5298e+09,-1.52897e+09,-1.52979e+09,-154396,0.0366602,0.0373141,0,0.0523098,-11683.7,-53331.1,-0,54595.9,154396
step02_gravity_refstate-mantle.xmf,205,5.62881e-07,5.50594e-06,0,-1.32335e-06,-1.54668e+09,-1.54601e+09,-1.54675e+09,-176866,0.0398592,0.0306878,0,0.050304,-12566.9,-53855.2,-0,55302,176866
step02_gravity_refstate-mantle.xmf,206,2.30938e-06,4.55954e-06,0,-1.14805e-06,-1.6324e+09,-1.6321e+09,-1.63271e+09,-153437,0.0523353,0.0152738,0,0.0545185,-13379,-56512.5,-0,58074.6,153437
step02_gravity_refstate-mantle.xmf,207,-4.33625e-07,2.48924e-06,0,-7.56774e-09,-1.09861e+09,-1.09822e+09,-1.09855e+09,-1011.43,-0.00166162,0.0463659,-0,0.0463957,-29222.3,-40000,-0,49537.3,1011.43
step02_gravity_refstate-mantle.xmf,208,-2.93934e-07,2.39215e-06,0,-2.29463e-08,-1.09859e+09,-1.09823e+09,-1.09855e+09,-3066.77,-0.000948854,0.0448849,-0,0.0448949,-31181.6,-40000,-0,50717.8,3066.77
step02_gravity_refstate-mantle.xmf,209,-3.71709e-07,2.77241e-06,0,-2.79285e-07,-1.20095e+09,-1.20053e+09,-1.2009e+09,-37326.4,0.000903349,0.0420964,0,0.0421061,-25379.2,-43162.4,-0,50071,37326.4
step02_gravity_refstate-mantle.xmf,210,-5.06357e-07,2.68271e-06,0,-1.20419e-07,-1.14747e+09,-1.14705e+09,-1.14741e+09,-16094,-0.00127379,0.0453165,-0,0.0453344,-26431.5,-41509.5,-0,49210.4,16094
step02_gravity_refstate-mantle.xmf,211,-3.60209e-07,2.90158e-06,0,-3.54286e-07,-1.23578e+09,-1.23535e+09,-1.23573e+09,-47350.3,0.00245022,0.0412136,0,0.0412864,-23783.5,-44238.8,-0,50226.8,47350.3
step02_gravity_refstate-mantle.xmf,212,-3.60912e-07,3.04821e-06,0,-4.0775e-07,-1.26219e+09,-1.26174e+09,-1.26215e+09,-54495.7,0.00388408,0.040885,0,0.0410691,-22459.8,-45055.1,-0,50342.9,54495.7
step02_gravity_refstate-mantle.xmf,213,-3.91388e-07,3.21501e-06,0,-4.33586e-07,-1.28514e+09,-1.28466e+09,-1.28509e+09,-57948.8,0.00528584,0.0410578,0,0.0413967,-21157.2,-45764.2,-0,50418.1,57948.8
step02_gravity_refstate-mantle.xmf,214,1.25956e-06,5.3081e-06,0,-1.36448e-06,-1.57968e+09,-1.57914e+09,-1.57985e+09,-182362,0.0459758,0.0252629,0,0.0524594,-12529.5,-54878.9,-0,56291,182362
step02_gravity_refstate-mantle.xmf,215,-8.0146e-07,6.75697e-06,0,-8.58967e-07,-1.51619e+09,-1.51518e+09,-1.51608e+09,-114801,0.0332237,0.0445328,0,0.0555606,-10824.2,-52907.5,-0,54003.4,114801
step02_gravity_refstate-mantle.xmf,216,1.90738e-06,5.11337e-06,0,-1.28424e-06,-1.61268e+09,-1.61226e+09,-1.61294e+09,-171638,0.0514732,0.019966,0,0.0552099,-12508.2,-55902.1,-0,57284.4,171638
step02_gravity_refstate-mantle.xmf,217,2.74687e-06,4.37887e-06,0,-8.82601e-07,-1.66476e+09,-1.66454e+09,-1.66512e+09,-117960,0.0556049,0.0106999,0,0.056625,-13447.2,-57514.4,-0,59065.5,117960
step02_gravity_refstate-mantle.xmf,218,3.10951e-06,3.98845e-06,0,-3.35737e-07,-1.71634e+09,-1.71622e+09,-1.71675e+09,-44871.3,0.0567907,0.00356726,0,0.0569027,-14098.8,-59109.1,-0,60767.3,44871.3
step02_gravity_refstate-mantle.xmf,219,3.11736e-06,3.79095e-06,0,7.48845e-09,-1.74519e+09,-1.7451e+09,-1.74561e+09,1000.83,0.0553952,-5.86367e-20,0,0.0553952,-14685.8,-60000,-0,61771.1,1000.83
step02_gravity_refstate-mantle.xmf,220,-1.07346e-06,5.27465e-06,0,-4.33015e-07,-1.4251e+09,-1.42425e+09,-1.42495e+09,-57872.5,0.0177226,0.0469116,0,0.0501477,-13607.7,-50088.1,-0,51903.6,57872.5
step02_gravity_refstate-mantle.xmf,221,-1.20533e-06,5.71503e-06,0,-4.51884e-07,-1.44486e+09,-1.44394e+09,-1.4447e+09,-60394.4,0.0201737,0.0480259,0,0.0520909,-12690.1,-50698.8,-0,52262.9,60394.4
step02_gravity_refstate-mantle.xmf,222,-1.37616e-06,6.17705e-06,0,-4.25467e-07,-1.46071e+09,-1.4597e+09,-1.46053e+09,-56863.6,0.0221344,0.0498339,0,0.0545284,-11822.3,-51188.5,-0,52536,56863.6
step02_gravity_refstate-mantle.xmf,223,-1.47867e-06,6.90788e-06,0,-4.45471e-07,-1.48802e+09,-1.4869e+09,-1.48783e+09,-59537.3,0.0264139,0.0515476,0,0.0579211,-10657.6,-52033.4,-0,53113.6,59537.3
step02_gravity_refstate-mantle.xmf,224,-1.47225e-06,7.31263e-06,0,-4.54879e-07,-1.50486e+09,-1.50369e+09,-1.50466e+09,-60794.5,0.0296043,0.0520112,0,0.0598463,-10058.8,-52554.5,-0,53508.5,60794.5
step02_gravity_refstate-mantle.xmf,225,-4.48063e-07,3.41355e-06,0,-4.38419e-07,-1.30594e+09,-1.30543e+09,-1.30588e+09,-58594.6,0.00667714,0.0416352,0,0.0421672,-19885.9,-46406.8,-0,50488,58594.6
step02_gravity_refstate-mantle.xmf,226,-5.24001e-07,3.63937e-06,0,-4.29574e-07,-1.32523e+09,-1.32468e+09,-1.32516e+09,-57412.5,0.00807997,0.042443,0,0.0432053,-18701,-47002.8,-0,50586.4,57412.5
step02_gravity_refstate-mantle.xmf,227,-6.17295e-07,3.90087e-06,0,-4.1499e-07,-1.34469e+09,-1.34408e+09,-1.3446e+09,-55463.4,0.00962436,0.0433662,0,0.0444213,-17565.1,-47603.8,-0,50741,55463.4
step02_gravity_refstate-mantle.xmf,228,-7.31024e-07,4.19938e-06,0,-3.97418e-07,-1.36397e+09,-1.36331e+09,-1.36388e+09,-53114.9,0.0112718,0.0444129,0,0.0458209,-16479.3,-48199.5,-0,50938.8,53114.9
step02_gravity_refstate-mantle.xmf,229,-9.89152e-07,4.8971e-06,0,-3.83551e-07,-1.40357e+09,-1.40278e+09,-1.40344e+09,-51261.5,0.0151569,0.046412,0,0.0488242,-14486.6,-49422.8,-0,51502.1,51261.5
step02_gravity_refstate-mantle.xmf,230,-8.81154e-07,4.54647e-06,0,-3.6449e-07,-1.38219e+09,-1.38147e+09,-1.38208e+09,-48714.1,0.0128533,0.0458727,0,0.0476394,-15393.8,-48762.3,-0,51134.4,48714.1
step02_gravity_refstate-mantle.xmf,231,-5.97507e-07,2.58803e-06,0,3.36294e-08,-1.09863e+09,-1.09821e+09,-1.09856e+09,4494.57,-0.00262619,0.0482299,-0,0.0483013,-27351,-40000,-0,48457,4494.57
step02_gravity_refstate-mantle.xmf,232,-1.53586e-06,7.87321e-06,0,-3.43501e-07,-1.51933e+09,-1.51807e+09,-1.51913e+09,-45908.9,0.0323102,0.0541138,0,0.0630258,-9340.13,-53002.5,-0,53819.2,45908.9
step02_gravity_refstate-mantle.xmf,233,-2.14015e-06,7.79257e-06,0,8.61812e-08,-1.49361e+09,-1.49229e+09,-1.49333e+09,11518.1,0.0254248,0.0602588,0,0.0654029,-9353.46,-52203.8,-0,53035.2,11518.1
step02_gravity_refstate-mantle.xmf,234,-7.91049e-07,7.28704e-06,0,-8.13169e-07,-1.53214e+09,-1.53106e+09,-1.53203e+09,-108680,0.0365146,0.0458012,0,0.0585753,-10062.4,-53401.6,-0,54341.3,108680
step02_gravity_refstate-mantle.xmf,235,-5.37502e-08,6.63795e-06,0,-1.14052e-06,-1.54647e+09,-1.54557e+09,-1.54646e+09,-152431,0.0403033,0.0381241,0,0.055478,-10844.3,-53847.5,-0,54928.6,152431
step02_gravity_refstate-mantle.xmf,236,6.39035e-07,5.97276e-06,0,-1.32395e-06,-1.56255e+09,-1.56184e+09,-1.56263e+09,-176946,0.0435444,0.0312345,0,0.0535883,-11666.9,-54347.2,-0,55585.4,176946
step02_gravity_refstate-mantle.xmf,237,2.45874e-06,4.97049e-06,0,-1.09261e-06,-1.6458e+09,-1.64547e+09,-1.64613e+09,-146027,0.0561254,0.0148384,0,0.0580538,-12479.7,-56928.6,-0,58280.4,146027
step02_gravity_refstate-mantle.xmf,238,3.01486e-06,4.26204e-06,0,-6.10716e-07,-1.69299e+09,-1.69283e+09,-1.69339e+09,-81622.2,0.0575508,0.00686111,0,0.0579584,-13508.1,-58388.1,-0,59930.3,81622.2
step02_gravity_refstate-mantle.xmf,239,-1.60483e-06,6.59563e-06,0,-3.03088e-07,-1.46862e+09,-1.46752e+09,-1.4684e+09,-40507.7,0.0227011,0.0527524,0,0.0574296,-11090.3,-51432.3,-0,52614.4,40507.7
step02_gravity_refstate-mantle.xmf,240,-2.29851e-06,8.38944e-06,0,3.10803e-07,-1.50696e+09,-1.50553e+09,-1.50665e+09,41538.9,0.0275001,0.0635364,0,0.0692324,-8640.07,-52616.6,-0,53321.3,41538.9
step02_gravity_refstate-mantle.xmf,241,-2.02537e-06,7.30107e-06,0,-7.34604e-09,-1.48037e+09,-1.47913e+09,-1.4801e+09,-981.799,0.0234103,0.0580572,0,0.0625993,-9993.78,-51794.4,-0,52749.8,981.799
step02_gravity_refstate-mantle.xmf,242,-6.32765e-07,2.91216e-06,0,-1.67742e-07,-1.1845e+09,-1.18403e+09,-1.18441e+09,-22418.7,-0.0009715,0.0461682,-0,0.0461785,-23564.9,-42652.9,-0,48729.6,22418.7
step02_gravity_refstate-mantle.xmf,243,-7.74745e-07,2.69676e-06,0,8.9236e-08,-1.09866e+09,-1.0982e+09,-1.09856e+09,11926.4,-0.00385075,0.0505145,-0,0.0506611,-25563.1,-40000,-0,47470.8,11926.4
step02_gravity_refstate-mantle.xmf,244,-6.92011e-07,2.80263e-06,0,-6.02593e-08,-1.1444e+09,-1.14393e+09,-1.1443e+09,-8053.65,-0.00247811,0.0479513,-0,0.0480153,-24667.2,-41413.5,-0,48203.2,8053.65
step02_gravity_refstate-mantle.xmf,245,-6.30136e-07,3.0319e-06,0,-2.16606e-07,-1.21331e+09,-1.21282e+09,-1.21322e+09,-28949.4,0.000177052,0.0456805,0,0.0456809,-22350.1,-43543.1,-0,48944.2,28949.4
step02_gravity_refstate-mantle.xmf,246,-6.54651e-07,3.1849e-06,0,-2.37955e-07,-1.23759e+09,-1.23707e+09,-1.2375e+09,-31802.7,0.00124557,0.0458368,0,0.0458538,-21121.8,-44293.3,-0,49071.7,31802.7
step02_gravity_refstate-mantle.xmf,247,-6.95613e-07,3.36208e-06,0,-2.36748e-07,-1.26139e+09,-1.26085e+09,-1.2613e+09,-31641.3,0.00248016,0.0462549,0,0.0463213,-19906,-45028.9,-0,49232.7,31641.3
step02_gravity_refstate-mantle.xmf,248,1.37303e-06,5.77708e-06,0,-1.3347e-06,-1.5943e+09,-1.59371e+09,-1.59448e+09,-178383,0.0497882,0.0255319,0,0.055953,-11640.4,-55332.3,-0,56543.4,178383
step02_gravity_refstate-mantle.xmf,249,-1.62646e-06,8.51881e-06,0,-1.161e-07,-1.53223e+09,-1.53088e+09,-1.53201e+09,-15516.8,0.034821,0.0570741,0,0.0668577,-8621.23,-53402.1,-0,54093.5,15516.8
step02_gravity_refstate-mantle.xmf,250,-2.4506e-06,9.05993e-06,0,6.53903e-07,-1.51959e+09,-1.51805e+09,-1.51926e+09,87394.1,0.0295862,0.0676003,0,0.0737912,-7934.5,-53007.4,-0,53598,87394.1
step02_gravity_refstate-mantle.xmf,251,2.02637e-06,5.62181e-06,0,-1.2219e-06,-1.62601e+09,-1.62553e+09,-1.62628e+09,-163307,0.0553498,0.0200453,0,0.0588677,-11593.1,-56315.9,-0,57496.8,163307
step02_gravity_refstate-mantle.xmf,252,2.94368e-06,4.81859e-06,0,-7.51943e-07,-1.68326e+09,-1.68301e+09,-1.68365e+09,-100497,0.0599596,0.00916676,0,0.0606563,-12473.3,-58088.3,-0,59412.4,100497
step02_gravity_refstate-mantle.xmf,253,3.17714e-06,4.46322e-06,0,-3.56791e-07,-1.71661e+09,-1.71643e+09,-1.71703e+09,-47685.1,0.0601623,0.00394854,0,0.0602917,-13028.9,-59119.1,-0,60537.8,47685.1
step02_gravity_refstate-mantle.xmf,254,3.20683e-06,4.22312e-06,0,8.44764e-09,-1.74514e+09,-1.745e+09,-1.74556e+09,1129.03,0.0589117,-6.56623e-20,0,0.0589117,-13573.4,-60000,-0,61516.1,1129.03
step02_gravity_refstate-mantle.xmf,255,-1.40452e-06,5.10816e-06,0,-1.61712e-12,-1.3857e+09,-1.38483e+09,-1.38551e+09,-0.216128,0.0114436,0.0528193,0,0.0540447,-13698.1,-48868.5,-0,50752,0.216128
step02_gravity_refstate-mantle.xmf,256,-1.58295e-06,5.62521e-06,0,-2.46066e-08,-1.41209e+09,-1.41113e+09,-1.41188e+09,-3288.67,0.0142699,0.0537647,0,0.0556262,-12692.9,-49683.9,-0,51279.6,3288.67
step02_gravity_refstate-mantle.xmf,257,-1.79379e-06,6.0763e-06,0,3.19135e-08,-1.4291e+09,-1.42805e+09,-1.42886e+09,4265.24,0.0159244,0.0557115,0,0.0579427,-11842.9,-50209,-0,51586.8,4265.24
step02_gravity_refstate-mantle.xmf,258,-2.02363e-06,6.54108e-06,0,1.28188e-07,-1.44356e+09,-1.44241e+09,-1.44329e+09,17132.3,0.0172608,0.0581874,0,0.0606935,-11041,-50655.2,-0,51844.5,17132.3
step02_gravity_refstate-mantle.xmf,259,-2.21775e-06,7.04102e-06,0,1.96815e-07,-1.4598e+09,-1.45856e+09,-1.4595e+09,26304.3,0.0191818,0.0603444,0,0.0633197,-10286.1,-51156.9,-0,52180.8,26304.3
step02_gravity_refstate-mantle.xmf,260,-2.8542e-06,8.1744e-06,0,8.04241e-07,-1.48163e+09,-1.48015e+09,-1.48125e+09,107487,0.0205033,0.0697093,0,0.072662,-8674.07,-51829.8,-0,52550.6,107487
step02_gravity_refstate-mantle.xmf,261,-2.59625e-06,7.60579e-06,0,5.3265e-07,-1.46913e+09,-1.46777e+09,-1.46879e+09,71188.7,0.0192928,0.0655687,0,0.0683481,-9414.19,-51444.1,-0,52298.4,71188.7
step02_gravity_refstate-mantle.xmf,262,-3.09488e-06,8.80049e-06,0,1.17924e-06,-1.49438e+09,-1.49279e+09,-1.49396e+09,157606,0.02191,0.0745716,0,0.0777237,-7937.09,-52223.7,-0,52823.4,157606
step02_gravity_refstate-mantle.xmf,263,-7.67859e-07,3.57292e-06,0,-2.07312e-07,-1.28287e+09,-1.28229e+09,-1.28277e+09,-27707.3,0.00366904,0.0471489,0,0.0472914,-18708.1,-45692.5,-0,49374.1,27707.3
step02_gravity_refstate-mantle.xmf,264,-1.37189e-06,4.82602e-06,0,7.64016e-08,-1.36272e+09,-1.36189e+09,-1.36254e+09,10211.1,0.00883893,0.0534513,0,0.0541772,-14289.6,-48158.2,-0,50233.5,10211.1
step02_gravity_refstate-mantle.xmf,265,-8.63328e-07,3.81872e-06,0,-1.62476e-07,-1.30373e+09,-1.3031e+09,-1.30361e+09,-21714.9,0.0049449,0.0482559,0,0.0485086,-17565.5,-46336.7,-0,49554.3,21714.9
step02_gravity_refstate-mantle.xmf,266,-9.86721e-07,4.10431e-06,0,-1.05721e-07,-1.32423e+09,-1.32355e+09,-1.3241e+09,-14129.7,0.0063027,0.0495582,0,0.0499574,-16468,-46969.8,-0,49773.1,14129.7
step02_gravity_refstate-mantle.xmf,267,-1.15068e-06,4.43083e-06,0,-2.7753e-08,-1.34327e+09,-1.34252e+09,-1.34311e+09,-3709.18,0.00756173,0.0512554,0,0.0518102,-15399.8,-47557.7,-0,49988.9,3709.18
step02_gravity_refstate-mantle.xmf,268,-8.39466e-07,3.01294e-06,0,-4.62375e-08,-1.1726e+09,-1.17208e+09,-1.17248e+09,-6179.64,-0.00272883,0.0497669,-0,0.0498417,-22206.8,-42284.1,-0,47760.7,6179.64
step02_gravity_refstate-mantle.xmf,269,-8.09465e-07,7.90214e-06,0,-6.76616e-07,-1.54617e+09,-1.545e+09,-1.54606e+09,-90429.7,0.0395989,0.0478074,0,0.0620775,-9304.88,-53836.4,-0,54634.6,90429.7
step02_gravity_refstate-mantle.xmf,270,-1.05154e-08,7.22835e-06,0,-1.055e-06,-1.56165e+09,-1.56068e+09,-1.56165e+09,-141001,0.0439049,0.0393715,0,0.0589725,-10026.2,-54318.3,-0,55235.9,141001
step02_gravity_refstate-mantle.xmf,271,7.11875e-07,6.50949e-06,0,-1.27087e-06,-1.57718e+09,-1.57641e+09,-1.57728e+09,-169852,0.0472181,0.0320195,0,0.0570508,-10810,-54801.2,-0,55857.2,169852
step02_gravity_refstate-mantle.xmf,272,-1.73371e-06,9.25653e-06,0,2.39912e-07,-1.54409e+09,-1.54262e+09,-1.54386e+09,32064.3,0.0372508,0.0607408,0,0.0712536,-7923.34,-53769.5,-0,54350.1,32064.3
step02_gravity_refstate-mantle.xmf,273,2.54472e-06,5.56202e-06,0,-1.00791e-06,-1.65674e+09,-1.65634e+09,-1.65708e+09,-134707,0.0599543,0.0149337,0,0.0617862,-11495.8,-57268.6,-0,58411,134707
step02_gravity_refstate-mantle.xmf,274,-3.58074e-06,8.41112e-06,0,1.7665e-06,-1.46863e+09,-1.46703e+09,-1.46816e+09,236093,0.0147195,0.0809414,0,0.0822689,-7979.2,-51424.2,-0,52039.6,236093
step02_gravity_refstate-mantle.xmf,275,-1.69468e-06,5.15297e-06,0,3.82958e-07,-1.36513e+09,-1.36421e+09,-1.3649e+09,51182.4,0.00762746,0.0583955,0,0.0588916,-13263.9,-48231.2,-0,50021.8,51182.4
step02_gravity_refstate-mantle.xmf,276,-8.9107e-07,2.91881e-06,0,3.58408e-08,-1.13997e+09,-1.13946e+09,-1.13985e+09,4790.13,-0.00403295,0.0511828,-0,0.0513415,-23002.7,-41275.7,-0,47252.6,4790.13
step02_gravity_refstate-mantle.xmf,277,-9.60922e-07,2.806e-06,0,1.67012e-07,-1.0987e+09,-1.09819e+09,-1.09857e+09,22321.1,-0.00533156,0.0532603,-0,0.0535264,-23854.1,-40000,-0,46572.7,22321.1
step02_gravity_refstate-mantle.xmf,278,-9.22754e-07,3.13799e-06,0,-7.56892e-09,-1.18569e+09,-1.18515e+09,-1.18557e+09,-1011.59,-0.00291843,0.0512869,-0,0.0513698,-20954.2,-42688.4,-0,47554,1011.59
step02_gravity_refstate-mantle.xmf,279,-9.15597e-07,3.29151e-06,0,-3.30782e-08,-1.21725e+09,-1.21669e+09,-1.21713e+09,-4420.91,-0.00143228,0.0509186,-0,0.0509388,-19858.1,-43663.8,-0,47967.4,4420.91
step02_gravity_refstate-mantle.xmf,280,-9.73959e-07,3.4739e-06,0,1.10807e-08,-1.23992e+09,-1.23933e+09,-1.23979e+09,1480.94,-0.000516936,0.0518738,-0,0.0518764,-18693,-44364,-0,48141.4,1480.94
step02_gravity_refstate-mantle.xmf,281,-3.94811e-06,9.06011e-06,0,2.45052e-06,-1.48189e+09,-1.48015e+09,-1.48136e+09,327512,0.0153761,0.0884959,0,0.0898218,-7148.97,-51833,-0,52323.6,327512
step02_gravity_refstate-mantle.xmf,282,-3.2895e-06,9.49867e-06,0,1.65904e-06,-1.50824e+09,-1.50653e+09,-1.5078e+09,221731,0.0239466,0.0797003,0,0.08322,-7232.73,-52652.3,-0,53146.7,221731
step02_gravity_refstate-mantle.xmf,283,1.47772e-06,6.34156e-06,0,-1.24868e-06,-1.6083e+09,-1.60765e+09,-1.6085e+09,-166886,0.0536735,0.0259402,0,0.0596132,-10775.9,-55767.1,-0,56798.7,166886
step02_gravity_refstate-mantle.xmf,284,-8.89582e-07,8.5977e-06,0,-4.07235e-07,-1.55706e+09,-1.55579e+09,-1.55694e+09,-54426.9,0.0420589,0.0507307,0,0.0658981,-8591.14,-54174.2,-0,54851.2,54426.9
step02_gravity_refstate-mantle.xmf,285,-2.6005e-06,9.83442e-06,0,1.16481e-06,-1.53185e+09,-1.53019e+09,-1.5315e+09,155677,0.0317771,0.0725045,0,0.0791624,-7239.36,-53387.1,-0,53875.7,155677
step02_gravity_refstate-mantle.xmf,286,2.11953e-06,6.24476e-06,0,-1.10314e-06,-1.63883e+09,-1.63828e+09,-1.63911e+09,-147434,0.0592312,0.0201777,0,0.0625737,-10710.1,-56714.2,-0,57716.6,147434
step02_gravity_refstate-mantle.xmf,287,2.96506e-06,5.58413e-06,0,-6.78109e-07,-1.68996e+09,-1.68961e+09,-1.69036e+09,-90629.3,0.0639069,0.00948725,0,0.0646073,-11324.6,-58297.5,-0,59387.2,90629.3
step02_gravity_refstate-mantle.xmf,288,3.19651e-06,5.06877e-06,0,-3.69486e-07,-1.71637e+09,-1.71612e+09,-1.7168e+09,-49381.8,0.0634799,0.00451066,0,0.0636399,-11985.5,-59113.6,-0,60316.4,49381.8
step02_gravity_refstate-mantle.xmf,289,3.2619e-06,4.75802e-06,0,8.69929e-09,-1.74508e+09,-1.74488e+09,-1.74552e+09,1162.66,0.0623375,-7.67562e-20,0,0.0623375,-12513.8,-60000,-0,61291.1,1162.66
step02_gravity_refstate-mantle.xmf,290,-1.83564e-06,5.46149e-06,0,4.04099e-07,-1.38109e+09,-1.38012e+09,-1.38085e+09,54007.9,0.00901997,0.0593149,0,0.0599968,-12653.4,-48724.2,-0,50340.4,54007.9
step02_gravity_refstate-mantle.xmf,291,-2.08143e-06,5.89048e-06,0,5.11314e-07,-1.39795e+09,-1.39689e+09,-1.39767e+09,68337.2,0.0102301,0.0615307,0,0.0623754,-11835.4,-49244.4,-0,50646.7,68337.2
step02_gravity_refstate-mantle.xmf,292,-2.35194e-06,6.35106e-06,0,6.46339e-07,-1.41412e+09,-1.41295e+09,-1.4138e+09,86383.3,0.0113597,0.0642124,0,0.0652095,-11020.7,-49743.1,-0,50949.3,86383.3
step02_gravity_refstate-mantle.xmf,293,-2.63386e-06,6.83479e-06,0,8.07214e-07,-1.42943e+09,-1.42817e+09,-1.42908e+09,107884,0.0124522,0.0672371,0,0.0683804,-10241,-50215.5,-0,51249.2,107884
step02_gravity_refstate-mantle.xmf,294,-3.26623e-06,7.86263e-06,0,1.3631e-06,-1.45598e+09,-1.45449e+09,-1.45554e+09,182179,0.0139538,0.0756875,0,0.0769631,-8712.33,-51033.9,-0,51772.3,182179
step02_gravity_refstate-mantle.xmf,295,-2.94304e-06,7.34235e-06,0,1.04079e-06,-1.44339e+09,-1.44201e+09,-1.443e+09,139101,0.0133135,0.0710606,0,0.0722971,-9465.4,-50645.9,-0,51522.9,139101
step02_gravity_refstate-mantle.xmf,296,-1.05577e-06,3.69364e-06,0,7.9047e-08,-1.26247e+09,-1.26183e+09,-1.26233e+09,10564.6,0.00054025,0.0530886,0,0.0530913,-17553.9,-45060.5,-0,48359,10564.6
step02_gravity_refstate-mantle.xmf,297,-1.75786e-06,4.90386e-06,0,6.4262e-07,-1.33663e+09,-1.33574e+09,-1.3364e+09,85886.2,0.00380638,0.0619751,0,0.0620919,-13414.8,-47349.9,-0,49213.5,85886.2
step02_gravity_refstate-mantle.xmf,298,-1.17026e-06,3.95015e-06,0,1.71684e-07,-1.28388e+09,-1.2832e+09,-1.28372e+09,22945.6,0.00161805,0.0546149,0,0.0546388,-16460,-45721.9,-0,48594.4,22945.6
step02_gravity_refstate-mantle.xmf,299,-1.32635e-06,4.24751e-06,0,2.9261e-07,-1.30413e+09,-1.30338e+09,-1.30395e+09,39107.4,0.00263635,0.0565461,0,0.0566075,-15391.1,-46347.1,-0,48835.8,39107.4
step02_gravity_refstate-mantle.xmf,300,-1.52287e-06,4.57333e-06,0,4.41246e-07,-1.32234e+09,-1.32153e+09,-1.32214e+09,58972.5,0.00347225,0.0588938,0,0.058996,-14376.6,-46909.2,-0,49062.9,58972.5
step02_gravity_refstate-mantle.xmf,301,-1.06459e-06,3.02759e-06,0,1.42964e-07,-1.13968e+09,-1.13913e+09,-1.13954e+09,19107.2,-0.00555041,0.0544486,-0,0.0547308,-21469.3,-41265.9,-0,46516.7,19107.2
step02_gravity_refstate-mantle.xmf,302,-3.97223e-06,9.80722e-06,0,2.86501e-06,-1.50066e+09,-1.49882e+09,-1.50013e+09,382909,0.0189398,0.0923873,0,0.0943087,-6545.92,-52414.4,-0,52821.6,382909
step02_gravity_refstate-mantle.xmf,303,1.07663e-08,8.01478e-06,0,-8.32199e-07,-1.57678e+09,-1.57571e+09,-1.57678e+09,-111223,0.0477687,0.0413557,0,0.0631834,-9147.79,-54787.8,-0,55546.2,111223
step02_gravity_refstate-mantle.xmf,304,8.09829e-07,7.14035e-06,0,-1.14671e-06,-1.59226e+09,-1.59141e+09,-1.59237e+09,-153258,0.05121,0.0327666,0,0.0607957,-9984.65,-55269.1,-0,56163.7,153258
step02_gravity_refstate-mantle.xmf,305,-9.76569e-07,9.4251e-06,0,-2.75756e-08,-1.5683e+09,-1.56691e+09,-1.56817e+09,-3685.47,0.0447629,0.0540292,0,0.0701631,-7891.37,-54522.8,-0,55091,3685.47
step02_gravity_refstate-mantle.xmf,306,-1.85339e-06,1.0129e-05,0,7.59946e-07,-1.55565e+09,-1.55404e+09,-1.5554e+09,101567,0.0397728,0.0650895,0,0.0762792,-7240.56,-54128,-0,54610.1,101567
step02_gravity_refstate-mantle.xmf,307,2.61353e-06,6.22223e-06,0,-8.71869e-07,-1.66848e+09,-1.668e+09,-1.66883e+09,-116525,0.0636314,0.0146241,0,0.0652903,-10637.3,-57633.2,-0,58606.7,116525
step02_gravity_refstate-mantle.xmf,308,-4.20835e-06,8.39922e-06,0,2.93861e-06,-1.45527e+09,-1.45358e+09,-1.45471e+09,392746,0.00851627,0.0933693,0,0.0937568,-7310.17,-51007.1,-0,51528.3,392746
step02_gravity_refstate-mantle.xmf,309,-2.0115e-06,5.25695e-06,0,8.47795e-07,-1.35104e+09,-1.35007e+09,-1.35077e+09,113308,0.00419298,0.0650445,0,0.0651795,-12533.7,-47794.3,-0,49410.4,113308
step02_gravity_refstate-mantle.xmf,310,-3.85261e-06,7.93139e-06,0,2.36169e-06,-1.44317e+09,-1.44159e+09,-1.44265e+09,315640,0.00838048,0.0867525,0,0.0871563,-8030.93,-50634.5,-0,51267.4,315640
step02_gravity_refstate-mantle.xmf,311,-1.14824e-06,2.90918e-06,0,2.68917e-07,-1.09873e+09,-1.09819e+09,-1.09857e+09,35940.8,-0.00705269,0.0565068,-0,0.0569452,-22219.5,-40000,-0,45757,35940.8
step02_gravity_refstate-mantle.xmf,312,-1.22274e-06,3.12461e-06,0,2.76892e-07,-1.14062e+09,-1.14004e+09,-1.14046e+09,37006.6,-0.00714907,0.0580715,-0,0.0585099,-20017.9,-41294.1,-0,45890.3,37006.6
step02_gravity_refstate-mantle.xmf,313,-1.21107e-06,3.54031e-06,0,2.98559e-07,-1.22071e+09,-1.22007e+09,-1.22055e+09,39902.4,-0.00359541,0.0578604,-0,0.057972,-17525.4,-43769.2,-0,47147.4,39902.4
step02_gravity_refstate-mantle.xmf,314,-1.09649e-06,3.22288e-06,0,1.49707e-07,-1.17847e+09,-1.17789e+09,-1.17832e+09,20008.3,-0.00468901,0.055138,-0,0.0553371,-19742.6,-42464.4,-0,46829.4,20008.3
step02_gravity_refstate-mantle.xmf,315,-1.16343e-06,3.3518e-06,0,2.2918e-07,-1.19498e+09,-1.19438e+09,-1.19483e+09,30629.9,-0.00461036,0.0568453,-0,0.0570319,-18620.1,-42974.4,-0,46834.9,30629.9
step02_gravity_refstate-mantle.xmf,316,-4.57182e-06,8.7778e-06,0,3.80608e-06,-1.46439e+09,-1.46261e+09,-1.46378e+09,508683,0.00779806,0.102298,0,0.102595,-6579.68,-51287.5,-0,51707.8,508683
step02_gravity_refstate-mantle.xmf,317,-4.41956e-06,9.36047e-06,0,3.57356e-06,-1.48203e+09,-1.48019e+09,-1.48144e+09,477606,0.0123927,0.0999211,0,0.100687,-6428.08,-51834.9,-0,52231.9,477606
step02_gravity_refstate-mantle.xmf,318,-3.41188e-06,1.02585e-05,0,2.29342e-06,-1.52149e+09,-1.51966e+09,-1.52103e+09,306516,0.0262438,0.0852129,0,0.0891626,-6587.46,-53062.7,-0,53470,306516
step02_gravity_refstate-mantle.xmf,319,1.56682e-06,7.02307e-06,0,-1.09e-06,-1.62221e+09,-1.62148e+09,-1.62242e+09,-145678,0.0576561,0.0263349,0,0.0633858,-9948.08,-56199.1,-0,57072.8,145678
step02_gravity_refstate-mantle.xmf,320,-3.80936e-07,8.77447e-06,0,-4.82182e-07,-1.57597e+09,-1.57475e+09,-1.57592e+09,-64443.6,0.0474238,0.0467073,0,0.0665627,-8461.78,-54762.3,-0,55412.1,64443.6
step02_gravity_refstate-mantle.xmf,321,-2.73879e-06,1.07295e-05,0,1.84768e-06,-1.54383e+09,-1.54203e+09,-1.54346e+09,246942,0.0341723,0.0779023,0,0.0850677,-6587.78,-53758.6,-0,54160.7,246942
step02_gravity_refstate-mantle.xmf,322,2.15343e-06,6.99159e-06,0,-9.2858e-07,-1.65053e+09,-1.64989e+09,-1.65082e+09,-124105,0.0628779,0.0203761,0,0.066097,-9888.52,-57077.8,-0,57928.1,124105
step02_gravity_refstate-mantle.xmf,323,2.9157e-06,6.41372e-06,0,-5.76836e-07,-1.69592e+09,-1.69545e+09,-1.69631e+09,-77094.2,0.0671889,0.009741,0,0.0678914,-10378.6,-58483.4,-0,59397.1,77094.2
step02_gravity_refstate-mantle.xmf,324,3.16498e-06,5.83997e-06,0,-3.31682e-07,-1.71891e+09,-1.71855e+09,-1.71933e+09,-44329.3,0.066813,0.00472763,0,0.06698,-10970.9,-59193.6,-0,60201.7,44329.3
step02_gravity_refstate-mantle.xmf,325,3.26362e-06,5.42272e-06,0,7.5515e-09,-1.74502e+09,-1.74474e+09,-1.74546e+09,1009.26,0.0656296,-8.33463e-20,0,0.0656296,-11504.3,-60000,-0,61093,1009.26
step02_gravity_refstate-mantle.xmf,326,-2.23388e-06,5.62334e-06,0,9.77049e-07,-1.36708e+09,-1.36603e+09,-1.36678e+09,130583,0.00506159,0.0672593,0,0.0674495,-11801.6,-48289.2,-0,49710.4,130583
step02_gravity_refstate-mantle.xmf,327,-2.53306e-06,6.04371e-06,0,1.18004e-06,-1.38332e+09,-1.38217e+09,-1.38298e+09,157712,0.00578747,0.0702766,0,0.0705146,-11000.2,-48789.8,-0,50014.5,157712
step02_gravity_refstate-mantle.xmf,328,-2.85243e-06,6.5106e-06,0,1.39561e-06,-1.40007e+09,-1.39882e+09,-1.39969e+09,186524,0.00659911,0.0736161,0,0.0739112,-10204.3,-49306.4,-0,50351.3,186524
step02_gravity_refstate-mantle.xmf,329,-3.183e-06,6.98217e-06,0,1.65282e-06,-1.41547e+09,-1.41411e+09,-1.41504e+09,220899,0.00728427,0.0774032,0,0.0777452,-9450.16,-49780.8,-0,50669.9,220899
step02_gravity_refstate-mantle.xmf,330,-3.51343e-06,7.45562e-06,0,1.96169e-06,-1.42983e+09,-1.42837e+09,-1.42936e+09,262180,0.00790094,0.0816732,0,0.0820545,-8732.59,-50223.7,-0,50977.2,262180
step02_gravity_refstate-mantle.xmf,331,-2.01959e-06,4.89397e-06,0,1.20665e-06,-1.31686e+09,-1.31594e+09,-1.31659e+09,161269,-0.000379187,0.0700312,-0,0.0700322,-12592,-46737.4,-0,48403.9,161269
step02_gravity_refstate-mantle.xmf,332,-1.29912e-06,3.75972e-06,0,4.15034e-07,-1.24365e+09,-1.24298e+09,-1.24348e+09,55469.3,-0.0026972,0.0594935,-0,0.0595546,-16439.4,-44478,-0,47418.8,55469.3
step02_gravity_refstate-mantle.xmf,333,-1.79528e-06,4.58616e-06,0,9.75897e-07,-1.3009e+09,-1.30005e+09,-1.30066e+09,130429,-0.0007648,0.0670127,-0,0.0670171,-13450.3,-46245.1,-0,48161.4,130429
step02_gravity_refstate-mantle.xmf,334,-1.42925e-06,4.01456e-06,0,5.71918e-07,-1.26489e+09,-1.26416e+09,-1.2647e+09,76436.8,-0.00188649,0.0616239,-0,0.0616528,-15376.9,-45133.8,-0,47681.3,76436.8
step02_gravity_refstate-mantle.xmf,335,-1.59775e-06,4.29536e-06,0,7.60675e-07,-1.28413e+09,-1.28334e+09,-1.28392e+09,101664,-0.00121593,0.0641461,-0,0.0641576,-14374.3,-45727.7,-0,47933.7,101664
step02_gravity_refstate-mantle.xmf,336,-1.32598e-06,2.99766e-06,0,3.96036e-07,-1.09876e+09,-1.09818e+09,-1.09858e+09,52930.2,-0.00898644,0.0602916,-0,0.0609576,-20655.1,-40000,-0,45018.2,52930.2
step02_gravity_refstate-mantle.xmf,337,-4.83581e-06,9.0471e-06,0,4.74826e-06,-1.47237e+09,-1.47051e+09,-1.47172e+09,634604,0.00713299,0.11161,0,0.111838,-5941.43,-51532.8,-0,51874.2,634604
step02_gravity_refstate-mantle.xmf,338,-4.57698e-06,9.80252e-06,0,4.30441e-06,-1.49163e+09,-1.48971e+09,-1.49102e+09,575284,0.0131887,0.106502,0,0.107316,-5914.51,-52131.5,-0,52465.9,575284
step02_gravity_refstate-mantle.xmf,339,-4.13515e-06,1.04591e-05,0,3.72111e-06,-1.51149e+09,-1.50954e+09,-1.51094e+09,497327,0.0202778,0.0995305,0,0.101575,-5952.38,-52749.6,-0,53084.4,497327
step02_gravity_refstate-mantle.xmf,340,9.14102e-07,7.89926e-06,0,-9.25795e-07,-1.60774e+09,-1.60681e+09,-1.60787e+09,-123732,0.0554719,0.033385,0,0.0647432,-9197.44,-55750,-0,56503.6,123732
step02_gravity_refstate-mantle.xmf,341,2.48592e-07,8.78437e-06,0,-5.8964e-07,-1.59662e+09,-1.59548e+09,-1.59665e+09,-78805.4,0.0531215,0.0410192,0,0.0671153,-8468.43,-55404.2,-0,56047.6,78805.4
step02_gravity_refstate-mantle.xmf,342,-4.20705e-07,9.66252e-06,0,-9.40462e-08,-1.58796e+09,-1.58661e+09,-1.5879e+09,-12569.3,0.0506325,0.0491578,0,0.0705701,-7790.67,-55134.5,-0,55682.2,12569.3
step02_gravity_refstate-mantle.xmf,343,-1.17433e-06,1.04482e-05,0,5.60414e-07,-1.57774e+09,-1.57619e+09,-1.57758e+09,74899.3,0.04698,0.0586777,0,0.0751678,-7184.75,-54815.8,-0,55284.6,74899.3
step02_gravity_refstate-mantle.xmf,344,-2.0321e-06,1.11962e-05,0,1.50039e-06,-1.56657e+09,-1.56481e+09,-1.5663e+09,200528,0.0422133,0.0703922,0,0.0820793,-6570.21,-54467.1,-0,54861.9,200528
step02_gravity_refstate-mantle.xmf,345,2.55084e-06,7.0988e-06,0,-7.09647e-07,-1.67662e+09,-1.67601e+09,-1.67696e+09,-94844.3,0.0668701,0.0150086,0,0.0685337,-9772.25,-57886.5,-0,58705.6,94844.3
step02_gravity_refstate-mantle.xmf,346,-4.29757e-06,7.75841e-06,0,3.50518e-06,-1.43076e+09,-1.42914e+09,-1.43018e+09,468467,0.00279341,0.0985802,0,0.0986198,-7374.63,-50247.7,-0,50786,468467
step02_gravity_refstate-mantle.xmf,347,-4.64575e-06,8.08842e-06,0,4.23847e-06,-1.4424e+09,-1.4407e+09,-1.44178e+09,566472,0.00244981,0.106313,0,0.106341,-6684.16,-50605.9,-0,51045.5,566472
step02_gravity_refstate-mantle.xmf,348,-4.94921e-06,8.3004e-06,0,5.20779e-06,-1.45228e+09,-1.45051e+09,-1.45162e+09,696021,0.00172015,0.115772,0,0.115785,-6006.39,-50909.6,-0,51262.7,696021
step02_gravity_refstate-mantle.xmf,349,-2.26969e-06,5.23148e-06,0,1.44111e-06,-1.3331e+09,-1.3321e+09,-1.3328e+09,192604,6.03032e-05,0.0730748,0,0.0730748,-11785.9,-47238.2,-0,48686.3,192604
step02_gravity_refstate-mantle.xmf,350,-3.9217e-06,7.38892e-06,0,2.92999e-06,-1.41861e+09,-1.4171e+09,-1.41809e+09,391593,0.00296019,0.0922802,0,0.0923276,-8054.56,-49874,-0,50520.3,391593
step02_gravity_refstate-mantle.xmf,351,-1.39349e-06,3.56027e-06,0,6.12047e-07,-1.20409e+09,-1.20343e+09,-1.20391e+09,81800.1,-0.00665331,0.0642213,-0,0.064565,-16379.4,-43254.7,-0,46252.1,81800.1
step02_gravity_refstate-mantle.xmf,352,-1.48479e-06,3.06255e-06,0,5.50057e-07,-1.09879e+09,-1.09818e+09,-1.09859e+09,73515.2,-0.0110918,0.0646449,-0,0.0655895,-19156.9,-40000,-0,44350.7,73515.2
step02_gravity_refstate-mantle.xmf,353,-1.35884e-06,3.22049e-06,0,4.43806e-07,-1.14617e+09,-1.14556e+09,-1.14599e+09,59314.7,-0.00866826,0.0621045,-0,0.0627065,-18527,-41465,-0,45415.8,59314.7
step02_gravity_refstate-mantle.xmf,354,-1.35781e-06,3.37917e-06,0,5.03236e-07,-1.17782e+09,-1.17719e+09,-1.17764e+09,67257.4,-0.0075924,0.0628336,-0,0.0632907,-17421.2,-42443.1,-0,45879.4,67257.4
step02_gravity_refstate-mantle.xmf,355,-3.57187e-06,1.11157e-05,0,3.20199e-06,-1.53282e+09,-1.53086e+09,-1.53234e+09,427946,0.0281668,0.0921043,0,0.096315,-5966.61,-53413.9,-0,53746.2,427946
step02_gravity_refstate-mantle.xmf,356,1.5944e-06,7.85215e-06,0,-8.52124e-07,-1.63514e+09,-1.6343e+09,-1.63535e+09,-113886,0.0614592,0.0268304,0,0.0670604,-9166.34,-56600.7,-0,57338.1,113886
step02_gravity_refstate-mantle.xmf,357,-2.93969e-06,1.18031e-05,0,2.79051e-06,-1.55477e+09,-1.5528e+09,-1.55438e+09,372952,0.0363775,0.0844326,0,0.0919358,-5957.29,-54097.9,-0,54424.9,372952
step02_gravity_refstate-mantle.xmf,358,2.10721e-06,7.89262e-06,0,-6.95759e-07,-1.66135e+09,-1.66057e+09,-1.66163e+09,-92988.1,0.0662606,0.0206184,0,0.0693944,-9113.42,-57413.8,-0,58132.6,92988.1
step02_gravity_refstate-mantle.xmf,359,2.75903e-06,7.3893e-06,0,-4.60248e-07,-1.70017e+09,-1.69955e+09,-1.70054e+09,-61512.1,0.0699914,0.0102759,0,0.0707418,-9517.92,-58616.2,-0,59383.9,61512.1
step02_gravity_refstate-mantle.xmf,360,3.04909e-06,6.74569e-06,0,-2.77226e-07,-1.72132e+09,-1.72082e+09,-1.72173e+09,-37051.3,0.0697622,0.00494955,0,0.0699375,-10054.4,-59269.7,-0,60116.4,37051.3
step02_gravity_refstate-mantle.xmf,361,3.18796e-06,6.25355e-06,0,5.70003e-09,-1.74497e+09,-1.74456e+09,-1.7454e+09,761.81,0.0687306,-8.73501e-20,0,0.0687306,-10542.4,-60000,-0,60919.1,761.81
step02_gravity_refstate-mantle.xmf,362,-5.14741e-06,8.40476e-06,0,6.36553e-06,-1.46193e+09,-1.46012e+09,-1.46124e+09,850753,0.00116271,0.126298,0,0.126303,-5368.85,-51206.7,-0,51487.4,850753
step02_gravity_refstate-mantle.xmf,363,-2.5484e-06,5.61956e-06,0,1.67796e-06,-1.35059e+09,-1.3495e+09,-1.35025e+09,224259,0.000596544,0.0763269,0,0.0763292,-10981.6,-47777.5,-0,49023.3,224259
step02_gravity_refstate-mantle.xmf,364,-2.90009e-06,6.0714e-06,0,1.95823e-06,-1.37002e+09,-1.36882e+09,-1.36963e+09,261718,0.00132155,0.0798532,0,0.0798642,-10160.8,-48376.6,-0,49432.1,261718
step02_gravity_refstate-mantle.xmf,365,-3.25849e-06,6.52215e-06,0,2.26963e-06,-1.38744e+09,-1.38613e+09,-1.387e+09,303336,0.00184055,0.0838671,0,0.0838873,-9389.34,-48913.3,-0,49806.4,303336
step02_gravity_refstate-mantle.xmf,366,-3.58573e-06,6.93323e-06,0,2.59881e-06,-1.40226e+09,-1.40085e+09,-1.40178e+09,347331,0.00217329,0.0881246,0,0.0881514,-8704.97,-49369.9,-0,50131.5,347331
step02_gravity_refstate-mantle.xmf,367,-2.16852e-06,4.76423e-06,0,1.80077e-06,-1.29831e+09,-1.29739e+09,-1.29802e+09,240672,-0.00434508,0.0783994,-0,0.0785197,-11792.5,-46163.1,-0,47645.6,240672
step02_gravity_refstate-mantle.xmf,368,-1.95384e-06,4.48229e-06,0,1.53462e-06,-1.28116e+09,-1.2803e+09,-1.28089e+09,205102,-0.00473921,0.0753223,-0,0.0754712,-12574.6,-45633.8,-0,47334.6,205102
step02_gravity_refstate-mantle.xmf,369,-1.48599e-06,3.75832e-06,0,7.97728e-07,-1.22588e+09,-1.22518e+09,-1.22568e+09,106616,-0.0060246,0.066484,-0,0.0667564,-15340.7,-43927.7,-0,46529.3,106616
step02_gravity_refstate-mantle.xmf,370,-1.7706e-06,4.22099e-06,0,1.27595e-06,-1.26349e+09,-1.26269e+09,-1.26325e+09,170531,-0.0051626,0.0723207,-0,0.0725048,-13414.5,-45088.7,-0,47041.8,170531
step02_gravity_refstate-mantle.xmf,371,-1.61283e-06,3.9816e-06,0,1.02323e-06,-1.24552e+09,-1.24477e+09,-1.24531e+09,136754,-0.00554292,0.0692705,-0,0.0694919,-14339.9,-44534.1,-0,46785.9,136754
step02_gravity_refstate-mantle.xmf,372,-1.48444e-06,3.37201e-06,0,8.14707e-07,-1.1667e+09,-1.16605e+09,-1.1665e+09,108886,-0.0104058,0.0693327,-0,0.0701092,-16126.3,-42098.5,-0,45081.5,108886
step02_gravity_refstate-mantle.xmf,373,-5.00056e-06,9.33215e-06,0,5.85528e-06,-1.4819e+09,-1.47998e+09,-1.48123e+09,782559,0.00723009,0.121192,0,0.121407,-5351.1,-51826.8,-0,52102.3,782559
step02_gravity_refstate-mantle.xmf,374,-4.71129e-06,1.0294e-05,0,5.39888e-06,-1.50151e+09,-1.4995e+09,-1.50088e+09,721560,0.0139979,0.115221,0,0.116068,-5351.06,-52436.9,-0,52709.2,721560
step02_gravity_refstate-mantle.xmf,375,-4.29185e-06,1.12234e-05,0,4.89562e-06,-1.52208e+09,-1.52e+09,-1.5215e+09,654300,0.0217067,0.108089,0,0.110247,-5363.08,-53077.5,-0,53347.7,654300
step02_gravity_refstate-mantle.xmf,376,9.28969e-07,8.84478e-06,0,-5.99572e-07,-1.62155e+09,-1.62049e+09,-1.62167e+09,-80132.8,0.0594179,0.034355,0,0.0686349,-8444.3,-56179,-0,56810.1,80132.8
step02_gravity_refstate-mantle.xmf,377,2.22805e-07,9.81468e-06,0,-1.68426e-07,-1.61002e+09,-1.60874e+09,-1.61005e+09,-22510.1,0.05689,0.0426939,0,0.0711283,-7766.04,-55820.6,-0,56358.2,22510.1
step02_gravity_refstate-mantle.xmf,378,-5.40282e-07,1.07739e-05,0,4.55743e-07,-1.59938e+09,-1.59787e+09,-1.59931e+09,60910,0.0537348,0.0521631,0,0.0748894,-7127.91,-55489.2,-0,55945.2,60910
step02_gravity_refstate-mantle.xmf,379,-1.38483e-06,1.17017e-05,0,1.3241e-06,-1.58856e+09,-1.58681e+09,-1.58838e+09,176966,0.0496857,0.0633407,0,0.0805029,-6513.35,-55151.9,-0,55535.2,176966
step02_gravity_refstate-mantle.xmf,380,-2.29594e-06,1.25068e-05,0,2.48121e-06,-1.57699e+09,-1.57501e+09,-1.57668e+09,331613,0.0445479,0.076508,0,0.0885324,-5928.46,-54790.4,-0,55110.2,331613
step02_gravity_refstate-mantle.xmf,381,2.42702e-06,7.93534e-06,0,-5.49465e-07,-1.68295e+09,-1.68221e+09,-1.68328e+09,-73436,0.0693186,0.015344,0,0.0709966,-9097.77,-58083.4,-0,58791.6,73436
step02_gravity_refstate-mantle.xmf,382,-4.18938e-06,7.04247e-06,0,4.05702e-06,-1.40534e+09,-1.40384e+09,-1.40478e+09,542221,-0.0022827,0.103853,-0,0.103878,-7412.37,-49461.5,-0,50013.9,542221
step02_gravity_refstate-mantle.xmf,383,-4.55715e-06,7.31471e-06,0,4.76311e-06,-1.41935e+09,-1.41776e+09,-1.41874e+09,636589,-0.0025345,0.111091,-0,0.11112,-6728.23,-49892.4,-0,50344,636589
step02_gravity_refstate-mantle.xmf,384,-4.8601e-06,7.47319e-06,0,5.60983e-06,-1.43086e+09,-1.42921e+09,-1.43021e+09,749754,-0.00308282,0.119441,-0,0.119481,-6090.01,-50246.4,-0,50614.2,749754
step02_gravity_refstate-mantle.xmf,385,-5.10229e-06,7.44691e-06,0,6.79681e-06,-1.44122e+09,-1.43954e+09,-1.44054e+09,908394,-0.00405911,0.130416,-0,0.130479,-5413.55,-50564.8,-0,50853.7,908394
step02_gravity_refstate-mantle.xmf,386,-2.44939e-06,5.11676e-06,0,2.19779e-06,-1.31631e+09,-1.3153e+09,-1.31599e+09,293735,-0.00437306,0.0832161,-0,0.0833309,-10834.7,-46718.2,-0,47958.1,293735
step02_gravity_refstate-mantle.xmf,387,-3.86908e-06,6.90316e-06,0,3.34006e-06,-1.39899e+09,-1.39755e+09,-1.39847e+09,446398,-0.000701718,0.0960858,-0,0.0960884,-8096.59,-49267.1,-0,49928,446398
step02_gravity_refstate-mantle.xmf,388,-1.52086e-06,3.5271e-06,0,9.64117e-07,-1.18971e+09,-1.18903e+09,-1.1895e+09,128854,-0.00967444,0.0710873,-0,0.0717426,-15231.3,-42809.4,-0,45438.3,128854
step02_gravity_refstate-mantle.xmf,389,-1.61299e-06,3.09615e-06,0,7.32604e-07,-1.09881e+09,-1.09818e+09,-1.0986e+09,97912.6,-0.0133139,0.0695881,-0,0.0708503,-17720.9,-40000,-0,43749.6,97912.6
step02_gravity_refstate-mantle.xmf,390,-1.52245e-06,3.23327e-06,0,7.34253e-07,-1.13669e+09,-1.13605e+09,-1.13648e+09,98132.9,-0.011655,0.0688174,-0,0.0697974,-16967.1,-41170.9,-0,44530,98132.9
step02_gravity_refstate-mantle.xmf,391,-5.20106e-06,8.53958e-06,0,7.68863e-06,-1.47202e+09,-1.47018e+09,-1.47132e+09,1.02759e+06,0.00115206,0.137504,0,0.137509,-4783.94,-51518.2,-0,51739.9,1.02759e+06
step02_gravity_refstate-mantle.xmf,392,-5.17171e-06,7.26864e-06,0,8.09947e-06,-1.45141e+09,-1.44975e+09,-1.45072e+09,1.08249e+06,-0.00463666,0.141976,-0,0.142052,-4806,-50878.7,-0,51105.1,1.08249e+06
step02_gravity_refstate-mantle.xmf,393,-3.78867e-06,1.2154e-05,0,4.44453e-06,-1.54332e+09,-1.54119e+09,-1.54281e+09,594012,0.0299406,0.100442,0,0.104809,-5359.4,-53739.5,-0,54006,594012
step02_gravity_refstate-mantle.xmf,394,1.51807e-06,8.90524e-06,0,-5.21841e-07,-1.64736e+09,-1.64637e+09,-1.64756e+09,-69744.1,0.0650603,0.0274463,0,0.0706126,-8406.61,-56980.4,-0,57597.1,69744.1
step02_gravity_refstate-mantle.xmf,395,-3.26575e-06,1.31703e-05,0,4.07512e-06,-1.56503e+09,-1.56283e+09,-1.56459e+09,544639,0.0383502,0.0924658,0,0.100103,-5331.32,-54416,-0,54676.6,544639
step02_gravity_refstate-mantle.xmf,396,1.98769e-06,9.06742e-06,0,-3.84116e-07,-1.67552e+09,-1.67458e+09,-1.67579e+09,-51337,0.069981,0.019819,0,0.0727333,-8349.05,-57854,-0,58453.3,51337
step02_gravity_refstate-mantle.xmf,397,2.45048e-06,8.56013e-06,0,-3.32214e-07,-1.70067e+09,-1.69985e+09,-1.70099e+09,-44400.4,0.0721554,0.0118162,0,0.0731165,-8704.72,-58632.4,-0,59275,44400.4
step02_gravity_refstate-mantle.xmf,398,2.79869e-06,7.89838e-06,0,-2.11089e-07,-1.72247e+09,-1.72179e+09,-1.72284e+09,-28212,0.072428,0.00550502,0,0.0726369,-9159.91,-59306.6,-0,60009.8,28212
step02_gravity_refstate-mantle.xmf,399,3.00492e-06,7.28845e-06,0,4.07064e-09,-1.74493e+09,-1.74435e+09,-1.74533e+09,544.041,0.0715681,-9.83865e-20,0,0.0715681,-9625.39,-60000,-0,60767.2,544.041
step02_gravity_refstate-mantle.xmf,400,-2.79282e-06,5.56809e-06,0,2.43799e-06,-1.34035e+09,-1.33923e+09,-1.33998e+09,325837,-0.00321368,0.0857805,-0,0.0858406,-10095.8,-47459.5,-0,48521.4,325837
step02_gravity_refstate-mantle.xmf,401,-2.19305e-06,4.50261e-06,0,2.42132e-06,-1.28054e+09,-1.27964e+09,-1.28024e+09,323609,-0.00808304,0.0872499,-0,0.0876235,-10987.3,-45613.2,-0,46917.8,323609
step02_gravity_refstate-mantle.xmf,402,-3.16404e-06,5.94936e-06,0,2.83117e-06,-1.3588e+09,-1.35758e+09,-1.35838e+09,378385,-0.00293142,0.0900843,-0,0.090132,-9321.35,-48028,-0,48924.2,378385
step02_gravity_refstate-mantle.xmf,403,-3.58011e-06,6.34247e-06,0,3.34463e-06,-1.3765e+09,-1.37517e+09,-1.37602e+09,447009,-0.00300315,0.0957558,-0,0.0958029,-8502.16,-48572.8,-0,49311.3,447009
step02_gravity_refstate-mantle.xmf,404,-3.87406e-06,6.41731e-06,0,4.10735e-06,-1.38316e+09,-1.38179e+09,-1.38264e+09,548947,-0.00478259,0.103987,-0,0.104097,-7737.86,-48776.9,-0,49386.9,548947
step02_gravity_refstate-mantle.xmf,405,-1.99255e-06,4.27845e-06,0,2.06974e-06,-1.26385e+09,-1.26301e+09,-1.26358e+09,276621,-0.00823244,0.0834972,-0,0.0839021,-11754.5,-45098.4,-0,46605.1,276621
step02_gravity_refstate-mantle.xmf,406,-1.55723e-06,3.336e-06,0,1.08279e-06,-1.15967e+09,-1.15901e+09,-1.15946e+09,144715,-0.0125975,0.0749464,-0,0.0759977,-15094.7,-41880.8,-0,44518,144715
step02_gravity_refstate-mantle.xmf,407,-1.81197e-06,4.00892e-06,0,1.8218e-06,-1.24242e+09,-1.24164e+09,-1.24218e+09,243484,-0.00910626,0.0812778,-0,0.0817863,-12446.7,-44437,-0,46147.3,243484
step02_gravity_refstate-mantle.xmf,408,-1.59677e-06,3.67266e-06,0,1.21136e-06,-1.2088e+09,-1.2081e+09,-1.20859e+09,161898,-0.00935464,0.0740043,-0,0.0745932,-14268.9,-43399.1,-0,45684.7,161898
step02_gravity_refstate-mantle.xmf,409,-1.70049e-06,3.84435e-06,0,1.51152e-06,-1.22678e+09,-1.22604e+09,-1.22655e+09,202015,-0.00917442,0.0775934,-0,0.0781339,-13301,-43954.3,-0,45922.7,202015
step02_gravity_refstate-mantle.xmf,410,-1.58093e-06,3.19659e-06,0,1.00452e-06,-1.13238e+09,-1.13174e+09,-1.13217e+09,134254,-0.0140379,0.0749346,-0,0.0762382,-15664.1,-41037.3,-0,43925.2,134254
step02_gravity_refstate-mantle.xmf,411,-5.04689e-06,9.60534e-06,0,7.24875e-06,-1.49181e+09,-1.48985e+09,-1.49113e+09,968795,0.00776405,0.131852,0,0.132081,-4787.94,-52133.2,-0,52352.6,968795
step02_gravity_refstate-mantle.xmf,412,-5.08198e-06,6.98848e-06,0,9.5616e-06,-1.46213e+09,-1.46052e+09,-1.46145e+09,1.27791e+06,-0.00458493,0.154396,-0,0.154464,-4246.4,-51209.6,-0,51385.4,1.27791e+06
step02_gravity_refstate-mantle.xmf,413,-4.79532e-06,1.08808e-05,0,6.85844e-06,-1.51169e+09,-1.5096e+09,-1.51105e+09,916631,0.0151216,0.125383,0,0.126291,-4793.55,-52752.5,-0,52969.8,916631
step02_gravity_refstate-mantle.xmf,414,-4.48426e-06,1.21403e-05,0,6.47564e-06,-1.53184e+09,-1.52962e+09,-1.53124e+09,865469,0.0229942,0.118346,0,0.120559,-4787.71,-53380.2,-0,53594.5,865469
step02_gravity_refstate-mantle.xmf,415,8.0703e-07,1.00196e-05,0,-1.55041e-07,-1.6335e+09,-1.63226e+09,-1.6336e+09,-20721.2,0.0628649,0.035784,0,0.072336,-7724.26,-56550.2,-0,57075.3,20721.2
step02_gravity_refstate-mantle.xmf,416,5.50082e-08,1.10879e-05,0,3.97633e-07,-1.62168e+09,-1.62021e+09,-1.62169e+09,53143.6,0.0601464,0.0449442,0,0.0750837,-7091.74,-56183.1,-0,56628.9,53143.6
step02_gravity_refstate-mantle.xmf,417,-7.80555e-07,1.21609e-05,0,1.18503e-06,-1.61024e+09,-1.60851e+09,-1.61014e+09,158379,0.0566194,0.0556866,0,0.0794151,-6482.26,-55826.8,-0,56201.9,158379
step02_gravity_refstate-mantle.xmf,418,-1.70262e-06,1.32087e-05,0,2.26515e-06,-1.59887e+09,-1.59688e+09,-1.59864e+09,302737,0.0522001,0.0683634,0,0.086014,-5889.89,-55472.1,-0,55783.9,302737
step02_gravity_refstate-mantle.xmf,419,-2.71126e-06,1.41984e-05,0,3.75372e-06,-1.58733e+09,-1.58507e+09,-1.58697e+09,501685,0.046773,0.0835655,0,0.0957649,-5300.71,-55111.5,-0,55365.8,501685
step02_gravity_refstate-mantle.xmf,420,-4.29846e-06,6.45928e-06,0,5.33394e-06,-1.39675e+09,-1.39531e+09,-1.39617e+09,712881,-0.00690323,0.116685,-0,0.116889,-6679.5,-49193.8,-0,49645.2,712881
step02_gravity_refstate-mantle.xmf,421,-4.5658e-06,6.51147e-06,0,6.11683e-06,-1.40819e+09,-1.40671e+09,-1.40758e+09,817515,-0.00754802,0.124267,-0,0.124496,-6094.25,-49545.6,-0,49919,817515
step02_gravity_refstate-mantle.xmf,422,-4.78131e-06,6.41948e-06,0,7.10461e-06,-1.41918e+09,-1.41768e+09,-1.41854e+09,949531,-0.0083649,0.133534,-0,0.133796,-5491.04,-49883.3,-0,50184.6,949531
step02_gravity_refstate-mantle.xmf,423,-4.84694e-06,5.65373e-06,0,9.91612e-06,-1.44276e+09,-1.44135e+09,-1.44211e+09,1.32529e+06,-0.00955824,0.158212,-0,0.158501,-4245.78,-50609.4,-0,50787.2,1.32529e+06
step02_gravity_refstate-mantle.xmf,424,-4.82278e-06,5.9493e-06,0,8.55492e-06,-1.42804e+09,-1.4266e+09,-1.4274e+09,1.14336e+06,-0.00998945,0.146942,-0,0.147281,-4797.29,-50155.7,-0,50384.6,1.14336e+06
step02_gravity_refstate-mantle.xmf,425,-2.63066e-06,5.08471e-06,0,2.83515e-06,-1.31572e+09,-1.31469e+09,-1.31536e+09,378918,-0.0066524,0.091049,-0,0.0912917,-9964.8,-46698.4,-0,47749.8,378918
step02_gravity_refstate-mantle.xmf,426,-2.38841e-06,4.74203e-06,0,2.79333e-06,-1.29558e+09,-1.29463e+09,-1.29526e+09,373329,-0.00820823,0.091596,-0,0.0919631,-10235,-46077.2,-0,47200.3,373329
step02_gravity_refstate-mantle.xmf,427,-4.06463e-06,6.36869e-06,0,4.76796e-06,-1.38736e+09,-1.38597e+09,-1.38682e+09,637237,-0.00632371,0.110917,-0,0.111097,-7179.99,-48905.2,-0,49429.5,637237
step02_gravity_refstate-mantle.xmf,428,-1.91887e-06,3.97271e-06,0,2.56728e-06,-1.24764e+09,-1.24685e+09,-1.24739e+09,343116,-0.0112827,0.0914135,-0,0.0921071,-11004.4,-44597.5,-0,45935.1,343116
step02_gravity_refstate-mantle.xmf,429,-1.56983e-06,3.40442e-06,0,1.31519e-06,-1.17395e+09,-1.17328e+09,-1.17374e+09,175775,-0.012748,0.0782953,-0,0.0793263,-14181.1,-42322,-0,44634.7,175775
step02_gravity_refstate-mantle.xmf,430,-1.69189e-06,3.08632e-06,0,9.40351e-07,-1.09883e+09,-1.09819e+09,-1.0986e+09,125678,-0.0155875,0.0751313,-0,0.0767312,-16343,-40000,-0,43209.9,125678
step02_gravity_refstate-mantle.xmf,431,-1.59713e-06,3.13577e-06,0,1.33182e-06,-1.13561e+09,-1.13498e+09,-1.1354e+09,177998,-0.0159876,0.0816644,-0,0.0832147,-14270.6,-41136.9,-0,43541.9,177998
step02_gravity_refstate-mantle.xmf,432,-4.5307e-06,4.7133e-06,0,1.16127e-05,-1.45094e+09,-1.44971e+09,-1.45034e+09,1.55203e+06,-0.0101694,0.17268,-0,0.172979,-3703.51,-50861.9,-0,50996.5,1.55203e+06
step02_gravity_refstate-mantle.xmf,433,-5.08854e-06,8.52909e-06,0,9.3453e-06,-1.48219e+09,-1.48037e+09,-1.48151e+09,1.249e+06,0.00166155,0.149731,0,0.14974,-4241.7,-51833.3,-0,52006.5,1.249e+06
step02_gravity_refstate-mantle.xmf,434,-4.1566e-06,1.34298e-05,0,6.17804e-06,-1.55238e+09,-1.55003e+09,-1.55182e+09,825695,0.0311066,0.111244,0,0.115511,-4746.19,-54020.1,-0,54228.2,825695
step02_gravity_refstate-mantle.xmf,435,1.27412e-06,1.02102e-05,0,-1.06862e-07,-1.65767e+09,-1.65648e+09,-1.65784e+09,-14282.1,0.068071,0.0284548,0,0.073779,-7682.01,-57300.6,-0,57813.3,14282.1
step02_gravity_refstate-mantle.xmf,436,-3.88567e-06,1.50752e-05,0,6.06919e-06,-1.57567e+09,-1.57313e+09,-1.57515e+09,811147,0.0400191,0.103819,0,0.111265,-4628.88,-54745.5,-0,54940.9,811147
step02_gravity_refstate-mantle.xmf,437,1.89307e-06,1.02814e-05,0,-6.63703e-08,-1.70007e+09,-1.69895e+09,-1.70032e+09,-8870.4,0.0740632,0.0143993,0,0.0754499,-7801.26,-58614.6,-0,59131.4,8870.4
step02_gravity_refstate-mantle.xmf,438,2.38447e-06,9.31953e-06,0,-1.12604e-07,-1.7228e+09,-1.72188e+09,-1.72312e+09,-15049.6,0.0746406,0.00639359,0,0.0749139,-8311.96,-59317.7,-0,59897.2,15049.6
step02_gravity_refstate-mantle.xmf,439,2.67506e-06,8.57784e-06,0,1.43495e-09,-1.74489e+09,-1.7441e+09,-1.74525e+09,191.781,0.07405,-1.14846e-19,0,0.07405,-8750.83,-60000,-0,60634.8,191.781
step02_gravity_refstate-mantle.xmf,440,-4.21847e-06,3.89338e-06,0,1.12242e-05,-1.4338e+09,-1.43272e+09,-1.43324e+09,1.50011e+06,-0.0131843,0.170399,-0,0.170909,-3855.94,-50332.5,-0,50480,1.50011e+06
step02_gravity_refstate-mantle.xmf,441,-2.89312e-06,5.35927e-06,0,3.20058e-06,-1.33064e+09,-1.32954e+09,-1.33026e+09,427758,-0.00670415,0.0951505,-0,0.0953863,-9305.54,-47158.4,-0,48067.8,427758
step02_gravity_refstate-mantle.xmf,442,-2.07241e-06,4.10368e-06,0,3.00268e-06,-1.26319e+09,-1.26236e+09,-1.26291e+09,401308,-0.0114014,0.0961021,-0,0.096776,-10224.1,-45077,-0,46221.9,401308
step02_gravity_refstate-mantle.xmf,443,-3.22576e-06,5.55651e-06,0,3.76643e-06,-1.34566e+09,-1.34448e+09,-1.34522e+09,503384,-0.00719088,0.100957,-0,0.101212,-8542.11,-47620.5,-0,48380.5,503384
step02_gravity_refstate-mantle.xmf,444,-3.7693e-06,5.69996e-06,0,5.18072e-06,-1.3694e+09,-1.36814e+09,-1.3689e+09,692404,-0.00922659,0.11556,-0,0.115927,-7090.84,-48350.7,-0,48867.9,692404
step02_gravity_refstate-mantle.xmf,445,-3.51832e-06,5.67667e-06,0,4.43578e-06,-1.35814e+09,-1.35691e+09,-1.35767e+09,592842,-0.008135,0.107963,-0,0.108269,-7790.92,-48004.5,-0,48632.6,592842
step02_gravity_refstate-mantle.xmf,446,-1.7957e-06,3.85034e-06,0,2.22538e-06,-1.23341e+09,-1.23266e+09,-1.23317e+09,297422,-0.0113521,0.0878491,-0,0.0885795,-11683,-44158.5,-0,45677.9,297422
step02_gravity_refstate-mantle.xmf,447,-1.6672e-06,3.57617e-06,0,2.06402e-06,-1.20924e+09,-1.20854e+09,-1.20902e+09,275857,-0.0127796,0.0872503,-0,0.0881812,-12147.7,-43412,-0,45079.6,275857
step02_gravity_refstate-mantle.xmf,448,-1.61302e-06,3.48402e-06,0,1.6375e-06,-1.19167e+09,-1.19099e+09,-1.19146e+09,218852,-0.0126641,0.0821379,-0,0.0831085,-13209.6,-42869.5,-0,44858.5,218852
step02_gravity_refstate-mantle.xmf,449,-1.70557e-06,3.01819e-06,0,1.16672e-06,-1.09884e+09,-1.09821e+09,-1.09861e+09,155932,-0.0178357,0.0812682,-0,0.0832024,-15019.5,-40000,-0,42726.9,155932
step02_gravity_refstate-mantle.xmf,450,-4.7458e-06,6.54555e-06,0,1.14302e-05,-1.47223e+09,-1.47072e+09,-1.4716e+09,1.52764e+06,-0.00408408,0.167976,-0,0.168026,-3734.08,-51522.7,-0,51657.9,1.52764e+06
step02_gravity_refstate-mantle.xmf,451,-4.98382e-06,9.9056e-06,0,9.06212e-06,-1.50169e+09,-1.4997e+09,-1.50103e+09,1.21115e+06,0.00864376,0.143983,0,0.144243,-4248.09,-52439.9,-0,52611.7,1.21115e+06
step02_gravity_refstate-mantle.xmf,452,-4.87859e-06,1.15648e-05,0,8.81405e-06,-1.52113e+09,-1.51893e+09,-1.52048e+09,1.178e+06,0.0161635,0.137496,0,0.138443,-4248.32,-53045.2,-0,53215.1,1.178e+06
step02_gravity_refstate-mantle.xmf,453,-4.77243e-06,1.32056e-05,0,8.5726e-06,-1.54015e+09,-1.53775e+09,-1.53951e+09,1.14573e+06,0.0237596,0.130815,0,0.132956,-4227.95,-53637.6,-0,53804,1.14573e+06
step02_gravity_refstate-mantle.xmf,454,1.50728e-06,1.05692e-05,0,-3.0278e-09,-1.67872e+09,-1.67751e+09,-1.67892e+09,-404.666,0.0717878,0.0221903,0,0.0751392,-7579.14,-57953.4,-0,58446.9,404.666
step02_gravity_refstate-mantle.xmf,455,5.34985e-07,1.14545e-05,0,4.01456e-07,-1.64457e+09,-1.64311e+09,-1.64464e+09,53654.6,0.0658923,0.0373275,0,0.0757307,-7046.76,-56894.1,-0,57328.9,53654.6
step02_gravity_refstate-mantle.xmf,456,-2.82883e-07,1.26685e-05,0,1.11793e-06,-1.63241e+09,-1.63067e+09,-1.63237e+09,149411,0.0629524,0.047597,0,0.0789207,-6441.65,-56516.1,-0,56882,149411
step02_gravity_refstate-mantle.xmf,457,-1.19511e-06,1.38969e-05,0,2.10862e-06,-1.62056e+09,-1.61854e+09,-1.6204e+09,281818,0.0591399,0.059733,0,0.0840569,-5854.59,-56147.2,-0,56451.6,281818
step02_gravity_refstate-mantle.xmf,458,-3.28892e-06,1.63556e-05,0,5.19688e-06,-1.5989e+09,-1.59627e+09,-1.59846e+09,694563,0.0493132,0.090109,0,0.10272,-4724.3,-55470.3,-0,55671.2,694563
step02_gravity_refstate-mantle.xmf,459,-2.20756e-06,1.50918e-05,0,3.43692e-06,-1.60865e+09,-1.60634e+09,-1.60836e+09,459344,0.0543357,0.0740964,0,0.0918839,-5286.76,-55775.6,-0,56025.6,459344
step02_gravity_refstate-mantle.xmf,460,-3.86372e-06,5.50654e-06,0,5.88276e-06,-1.37468e+09,-1.37343e+09,-1.37416e+09,786231,-0.0106013,0.122795,-0,0.123252,-6551.42,-48512.6,-0,48953,786231
step02_gravity_refstate-mantle.xmf,461,-4.08349e-06,5.49848e-06,0,6.56088e-06,-1.38624e+09,-1.38496e+09,-1.3857e+09,876861,-0.0111215,0.129232,-0,0.12971,-6043.4,-48868.4,-0,49240.6,876861
step02_gravity_refstate-mantle.xmf,462,-4.2537e-06,5.34166e-06,0,7.41387e-06,-1.39709e+09,-1.39581e+09,-1.39652e+09,990863,-0.0118528,0.137122,-0,0.137634,-5512.34,-49201.8,-0,49509.6,990863
step02_gravity_refstate-mantle.xmf,463,-4.32163e-06,4.95075e-06,0,8.50014e-06,-1.40713e+09,-1.40589e+09,-1.40655e+09,1.13604e+06,-0.0128052,0.146887,-0,0.147444,-4954.94,-49510.4,-0,49757.7,1.13604e+06
step02_gravity_refstate-mantle.xmf,464,-4.27079e-06,4.18246e-06,0,1.02974e-05,-1.42368e+09,-1.42255e+09,-1.42311e+09,1.37625e+06,-0.0135915,0.162919,-0,0.163485,-4177.46,-50020.2,-0,50194.4,1.37625e+06
step02_gravity_refstate-mantle.xmf,465,-3.51764e-06,1.84567e-06,0,1.29828e-05,-1.43277e+09,-1.43205e+09,-1.4323e+09,1.73516e+06,-0.0152284,0.184902,-0,0.185528,-3372.67,-50299.9,-0,50412.8,1.73516e+06
step02_gravity_refstate-mantle.xmf,466,-2.59936e-06,4.76939e-06,0,3.43143e-06,-1.30534e+09,-1.30436e+09,-1.30499e+09,458611,-0.00941011,0.0987282,-0,0.0991757,-9341.12,-46377.4,-0,47308.7,458611
step02_gravity_refstate-mantle.xmf,467,-2.20878e-06,4.21959e-06,0,3.50604e-06,-1.27763e+09,-1.27677e+09,-1.27734e+09,468583,-0.0118697,0.101952,-0,0.10264,-9401.54,-45522.6,-0,46483.3,468583
step02_gravity_refstate-mantle.xmf,468,-1.65507e-06,3.49674e-06,0,2.57621e-06,-1.21535e+09,-1.21466e+09,-1.21513e+09,344310,-0.0140139,0.0945923,-0,0.0956248,-11072,-43600.5,-0,44984.3,344310
step02_gravity_refstate-mantle.xmf,469,-1.72286e-06,3.54074e-06,0,3.05135e-06,-1.23126e+09,-1.23056e+09,-1.23103e+09,407813,-0.0141181,0.0998966,-0,0.100889,-10220.8,-44091.8,-0,45261,407813
step02_gravity_refstate-mantle.xmf,470,-1.53228e-06,3.20028e-06,0,1.68581e-06,-1.15976e+09,-1.15912e+09,-1.15955e+09,225308,-0.0157435,0.0862932,-0,0.0877176,-13070,-41883.4,-0,43875.3,225308
step02_gravity_refstate-mantle.xmf,471,-1.64399e-06,2.89025e-06,0,1.41308e-06,-1.09884e+09,-1.09823e+09,-1.09862e+09,188858,-0.0199666,0.0879752,-0,0.0902125,-13746.6,-40000,-0,42296.2,188858
step02_gravity_refstate-mantle.xmf,472,-3.68198e-06,2.65228e-06,0,1.36536e-05,-1.44868e+09,-1.44783e+09,-1.44819e+09,1.8248e+06,-0.0127071,0.189202,-0,0.189628,-3209.24,-50792.3,-0,50893.6,1.8248e+06
step02_gravity_refstate-mantle.xmf,473,-4.01035e-06,4.15566e-06,0,1.35314e-05,-1.46398e+09,-1.46289e+09,-1.46344e+09,1.80848e+06,-0.00861423,0.185806,-0,0.186006,-3260.43,-51266.6,-0,51370.2,1.80848e+06
step02_gravity_refstate-mantle.xmf,474,-4.79944e-06,8.43966e-06,0,1.15283e-05,-1.49192e+09,-1.49015e+09,-1.49127e+09,1.54075e+06,0.00247475,0.163833,0,0.163851,-3721.98,-52135.3,-0,52268,1.54075e+06
step02_gravity_refstate-mantle.xmf,475,-4.7579e-06,1.48571e-05,0,8.6186e-06,-1.55779e+09,-1.55517e+09,-1.55716e+09,1.15188e+06,0.030572,0.125965,0,0.129622,-4134.71,-54187,-0,54344.5,1.15188e+06
step02_gravity_refstate-mantle.xmf,476,8.60218e-07,1.1755e-05,0,3.84328e-07,-1.66722e+09,-1.66576e+09,-1.66733e+09,51365.4,0.0705603,0.0294122,0,0.076445,-7011.3,-57596.7,-0,58021.8,51365.4
step02_gravity_refstate-mantle.xmf,477,-4.53882e-06,1.79396e-05,0,7.58025e-06,-1.59311e+09,-1.59011e+09,-1.59251e+09,1.0131e+06,0.0447491,0.108166,0,0.117057,-4123.79,-55287.4,-0,55441,1.0131e+06
step02_gravity_refstate-mantle.xmf,478,1.10865e-06,1.19301e-05,0,3.05229e-07,-1.6892e+09,-1.68775e+09,-1.68934e+09,40793.8,0.0739488,0.0211281,0,0.0769079,-7038.8,-58277.7,-0,58701.2,40793.8
step02_gravity_refstate-mantle.xmf,479,1.77995e-06,1.10236e-05,0,2.69415e-08,-1.72415e+09,-1.72292e+09,-1.72439e+09,3600.73,0.0763422,0.00710446,0,0.076672,-7522.88,-59359.7,-0,59834.5,3600.73
step02_gravity_refstate-mantle.xmf,480,2.14885e-06,1.01808e-05,0,-1.6816e-09,-1.74487e+09,-1.7438e+09,-1.74516e+09,-224.746,0.0760618,-1.25707e-19,0,0.0760618,-7916.27,-60000,-0,60520,224.746
step02_gravity_refstate-mantle.xmf,481,-4.1216e-06,4.16338e-06,0,9.60333e-06,-1.41164e+09,-1.41053e+09,-1.41109e+09,1.28348e+06,-0.0141682,0.157046,-0,0.157684,-4477.02,-49649.2,-0,49850.6,1.28348e+06
step02_gravity_refstate-mantle.xmf,482,-3.63906e-06,2.55099e-06,0,1.16e-05,-1.42117e+09,-1.42034e+09,-1.42068e+09,1.55035e+06,-0.0156631,0.174694,-0,0.175395,-3747.57,-49942.6,-0,50083,1.55035e+06
step02_gravity_refstate-mantle.xmf,483,-2.79545e-06,4.89372e-06,0,3.98836e-06,-1.31799e+09,-1.31696e+09,-1.31761e+09,533045,-0.010204,0.1051,-0,0.105595,-8568.13,-46767,-0,47545.4,533045
step02_gravity_refstate-mantle.xmf,484,-1.80787e-06,3.56693e-06,0,3.56753e-06,-1.24719e+09,-1.24647e+09,-1.24695e+09,476800,-0.0143033,0.105545,-0,0.10651,-9406.41,-44583.2,-0,45564.7,476800
step02_gravity_refstate-mantle.xmf,485,-3.03211e-06,4.8741e-06,0,4.69172e-06,-1.33108e+09,-1.33002e+09,-1.33068e+09,627049,-0.0111121,0.112172,-0,0.112721,-7806.18,-47169.8,-0,47811.4,627049
step02_gravity_refstate-mantle.xmf,486,-3.3531e-06,4.64309e-06,0,6.20542e-06,-1.3551e+09,-1.35403e+09,-1.35465e+09,829354,-0.0131018,0.127432,-0,0.128104,-6450.85,-47909.1,-0,48341.4,829354
step02_gravity_refstate-mantle.xmf,487,-3.21773e-06,4.7952e-06,0,5.45098e-06,-1.34327e+09,-1.3422e+09,-1.34284e+09,728524,-0.0121647,0.119891,-0,0.120507,-7083.6,-47544.8,-0,48069.6,728524
step02_gravity_refstate-mantle.xmf,488,-1.52115e-06,2.9394e-06,0,1.61341e-06,-1.12545e+09,-1.12485e+09,-1.12524e+09,215633,-0.0186441,0.0891649,-0,0.0910933,-13130.1,-40822.9,-0,42882.6,215633
step02_gravity_refstate-mantle.xmf,489,-1.49588e-06,3.15473e-06,0,2.04494e-06,-1.17221e+09,-1.17158e+09,-1.17201e+09,273306,-0.0160421,0.0910794,-0,0.0924814,-12151.2,-42268,-0,43980,273306
step02_gravity_refstate-mantle.xmf,490,-2.58736e-06,1.43876e-08,0,1.49838e-05,-1.43974e+09,-1.4394e+09,-1.4394e+09,2.00259e+06,-0.0155502,0.201543,-0,0.202142,-2867.27,-50517,-0,50598.3,2.00259e+06
step02_gravity_refstate-mantle.xmf,491,-2.89187e-06,1.38434e-06,0,1.55174e-05,-1.45583e+09,-1.45526e+09,-1.45544e+09,2.0739e+06,-0.0122184,0.20245,-0,0.202818,-2837.66,-51015.2,-0,51094.1,2.0739e+06
step02_gravity_refstate-mantle.xmf,492,-4.19112e-06,6.07799e-06,0,1.37391e-05,-1.48187e+09,-1.48049e+09,-1.48131e+09,1.83623e+06,-0.00301041,0.182368,-0,0.182392,-3276.22,-51822.9,-0,51926.4,1.83623e+06
step02_gravity_refstate-mantle.xmf,493,-4.87054e-06,1.03211e-05,0,1.1507e-05,-1.51125e+09,-1.50922e+09,-1.5106e+09,1.53791e+06,0.0096725,0.158333,0,0.158629,-3719.03,-52736.8,-0,52867.8,1.53791e+06
step02_gravity_refstate-mantle.xmf,494,-5.02607e-06,1.24322e-05,0,1.12179e-05,-1.53002e+09,-1.52768e+09,-1.52935e+09,1.49927e+06,0.0172286,0.150814,0,0.151795,-3743.86,-53320.9,-0,53452.2,1.49927e+06
step02_gravity_refstate-mantle.xmf,495,-5.1991e-06,1.45127e-05,0,1.10701e-05,-1.54769e+09,-1.54505e+09,-1.54699e+09,1.47952e+06,0.024294,0.144415,0,0.146444,-3716.05,-53870.9,-0,53999,1.47952e+06
step02_gravity_refstate-mantle.xmf,496,-4.82558e-06,1.6677e-05,0,8.60805e-06,-1.57512e+09,-1.57224e+09,-1.57447e+09,1.15047e+06,0.0372097,0.120301,0,0.125924,-4041.17,-54726.3,-0,54875.3,1.15047e+06
step02_gravity_refstate-mantle.xmf,497,5.36357e-08,1.32332e-05,0,1.07502e-06,-1.65502e+09,-1.65326e+09,-1.65503e+09,143677,0.0684118,0.0389528,0,0.0787241,-6396.5,-57218.3,-0,57574.7,143677
step02_gravity_refstate-mantle.xmf,498,-8.3539e-07,1.46156e-05,0,1.99003e-06,-1.64246e+09,-1.64039e+09,-1.64235e+09,265967,0.0652156,0.0505102,0,0.0824885,-5817.77,-56827.9,-0,57124.9,265967
step02_gravity_refstate-mantle.xmf,499,-1.8284e-06,1.6044e-05,0,3.21087e-06,-1.63053e+09,-1.62815e+09,-1.63029e+09,429132,0.0611915,0.0640646,0,0.0885928,-5252.84,-56456.6,-0,56700.4,429132
step02_gravity_refstate-mantle.xmf,500,-4.28084e-06,1.93783e-05,0,6.96579e-06,-1.6113e+09,-1.60814e+09,-1.61073e+09,930978,0.0515433,0.0974158,0,0.110211,-4129.34,-55854.7,-0,56007.1,930978
step02_gravity_refstate-mantle.xmf,501,-2.96557e-06,1.75562e-05,0,4.82965e-06,-1.61936e+09,-1.61662e+09,-1.61896e+09,645482,0.0563672,0.079942,0,0.0978161,-4694.16,-56107.6,-0,56303.6,645482
step02_gravity_refstate-mantle.xmf,502,1.26315e-06,1.2031e-05,0,1.77966e-07,-1.70937e+09,-1.70793e+09,-1.70954e+09,23785.1,0.0760315,0.0133906,0,0.0772016,-7092.56,-58902.3,-0,59327.7,23785.1
step02_gravity_refstate-mantle.xmf,503,-3.46547e-06,4.48074e-06,0,6.87963e-06,-1.36557e+09,-1.36451e+09,-1.36511e+09,919463,-0.0138087,0.134023,-0,0.134733,-5949.31,-48231.2,-0,48596.8,919463
step02_gravity_refstate-mantle.xmf,504,-3.59483e-06,4.28237e-06,0,7.62928e-06,-1.3765e+09,-1.37545e+09,-1.37602e+09,1.01965e+06,-0.0144116,0.14085,-0,0.141585,-5476.5,-48567.5,-0,48875.3,1.01965e+06
step02_gravity_refstate-mantle.xmf,505,-3.59664e-06,3.80775e-06,0,8.58238e-06,-1.38624e+09,-1.38526e+09,-1.38576e+09,1.14703e+06,-0.0152882,0.149546,-0,0.150325,-4962.54,-48867.3,-0,49118.6,1.14703e+06
step02_gravity_refstate-mantle.xmf,506,-3.45789e-06,3.02496e-06,0,9.75579e-06,-1.39595e+09,-1.39508e+09,-1.39549e+09,1.30386e+06,-0.016244,0.160175,-0,0.160996,-4417.02,-49166.1,-0,49364.1,1.30386e+06
step02_gravity_refstate-mantle.xmf,507,-3.23637e-06,2.07738e-06,0,1.10402e-05,-1.40634e+09,-1.40563e+09,-1.40591e+09,1.47552e+06,-0.0168657,0.171281,-0,0.17211,-3916.62,-49486,-0,49640.8,1.47552e+06
step02_gravity_refstate-mantle.xmf,508,-2.51314e-06,2.51459e-07,0,1.26476e-05,-1.41372e+09,-1.41335e+09,-1.41338e+09,1.69036e+06,-0.0176989,0.185707,-0,0.186549,-3365.93,-49714.1,-0,49827.9,1.69036e+06
step02_gravity_refstate-mantle.xmf,509,-2.36779e-06,4.18407e-06,0,4.13646e-06,-1.29092e+09,-1.29004e+09,-1.2906e+09,552838,-0.0125922,0.108616,-0,0.109343,-8591.33,-45931.9,-0,46728.4,552838
step02_gravity_refstate-mantle.xmf,510,-1.87323e-06,3.57614e-06,0,4.11199e-06,-1.26233e+09,-1.2616e+09,-1.26208e+09,549567,-0.0146702,0.111783,-0,0.112741,-8613.47,-45050.4,-0,45866.5,549567
step02_gravity_refstate-mantle.xmf,511,-1.44003e-06,3.10105e-06,0,2.47761e-06,-1.18442e+09,-1.18382e+09,-1.18423e+09,331133,-0.0164309,0.0969426,-0,0.0983252,-11175.1,-42645.7,-0,44085.6,331133
step02_gravity_refstate-mantle.xmf,512,-1.39232e-06,3.02703e-06,0,2.97634e-06,-1.19863e+09,-1.19804e+09,-1.19845e+09,397788,-0.016629,0.10311,-0,0.104442,-10231.8,-43084.8,-0,44283,397788
step02_gravity_refstate-mantle.xmf,513,-1.39741e-06,2.99776e-06,0,3.48962e-06,-1.21615e+09,-1.21556e+09,-1.21596e+09,466388,-0.0165152,0.108762,-0,0.110008,-9398.65,-43625.7,-0,44626.7,466388
step02_gravity_refstate-mantle.xmf,514,-1.38872e-06,2.79537e-06,0,1.97066e-06,-1.13422e+09,-1.13366e+09,-1.13404e+09,263378,-0.0194596,0.0953,-0,0.0972665,-12042.9,-41094.5,-0,42822.8,263378
step02_gravity_refstate-mantle.xmf,515,-1.48155e-06,2.67333e-06,0,1.66061e-06,-1.09882e+09,-1.09826e+09,-1.09862e+09,221941,-0.021888,0.095205,-0,0.0976887,-12520.4,-40000,-0,41913.7,221941
step02_gravity_refstate-mantle.xmf,516,-1.67524e-06,-1.46344e-06,0,1.43183e-05,-1.42286e+09,-1.42284e+09,-1.42264e+09,1.91365e+06,-0.0177468,0.199724,-0,0.200511,-2905.45,-49997.9,-0,50082.2,1.91365e+06
step02_gravity_refstate-mantle.xmf,517,-3.125e-06,3.12028e-06,0,1.60377e-05,-1.47257e+09,-1.47174e+09,-1.47216e+09,2.14344e+06,-0.00755649,0.201121,-0,0.201262,-2843.2,-51535.4,-0,51613.8,2.14344e+06
step02_gravity_refstate-mantle.xmf,518,-4.457e-06,8.47816e-06,0,1.4107e-05,-1.50089e+09,-1.49916e+09,-1.5003e+09,1.8854e+06,0.00364349,0.178431,0,0.178468,-3267.6,-52414.9,-0,52516.7,1.8854e+06
step02_gravity_refstate-mantle.xmf,519,-5.41476e-06,1.6651e-05,0,1.09779e-05,-1.56531e+09,-1.56236e+09,-1.56458e+09,1.4672e+06,0.0312087,0.137976,0,0.141461,-3656.85,-54419.3,-0,54542,1.4672e+06
step02_gravity_refstate-mantle.xmf,520,-5.58889e-06,1.87816e-05,0,1.03157e-05,-1.58375e+09,-1.5805e+09,-1.58301e+09,1.37869e+06,0.0386148,0.128128,0,0.13382,-3646.99,-54993.4,-0,55114.2,1.37869e+06
step02_gravity_refstate-mantle.xmf,521,2.23731e-07,1.3652e-05,0,9.29734e-07,-1.67719e+09,-1.6754e+09,-1.67722e+09,124259,0.0726223,0.02985,0,0.0785177,-6376.37,-57905.5,-0,58255.5,124259
step02_gravity_refstate-mantle.xmf,522,-5.60615e-06,2.06725e-05,0,9.50644e-06,-1.60171e+09,-1.59819e+09,-1.60096e+09,1.27054e+06,0.0455855,0.117131,0,0.125689,-3644.75,-55552.6,-0,55672.1,1.27054e+06
step02_gravity_refstate-mantle.xmf,523,3.14617e-07,1.41741e-05,0,6.92025e-07,-1.70251e+09,-1.70065e+09,-1.70255e+09,92489.1,0.0759609,0.0189643,0,0.0782924,-6363.63,-58689.3,-0,59033.3,92489.1
step02_gravity_refstate-mantle.xmf,524,8.60415e-07,1.32083e-05,0,2.23342e-07,-1.72527e+09,-1.72362e+09,-1.72538e+09,29849.7,0.0774273,0.0080645,0,0.0778462,-6739.8,-59393.5,-0,59774.7,29849.7
step02_gravity_refstate-mantle.xmf,525,1.36747e-06,1.21672e-05,0,-7.28533e-09,-1.74488e+09,-1.74343e+09,-1.74506e+09,-973.684,0.0774631,-1.43791e-19,0,0.0774631,-7119.24,-60000,-0,60420.9,973.684
step02_gravity_refstate-mantle.xmf,526,-2.78944e-06,3.47754e-06,0,7.12544e-06,-1.34682e+09,-1.34598e+09,-1.34645e+09,952315,-0.0158039,0.139063,-0,0.139958,-5783.86,-47654.1,-0,48003.8,952315
step02_gravity_refstate-mantle.xmf,527,-2.47891e-06,4.17512e-06,0,4.75519e-06,-1.30409e+09,-1.3032e+09,-1.30376e+09,635532,-0.0133771,0.11559,-0,0.116362,-7832.54,-46338.1,-0,46995.4,635532
step02_gravity_refstate-mantle.xmf,528,-1.41315e-06,2.93206e-06,0,4.02643e-06,-1.23274e+09,-1.23216e+09,-1.23255e+09,538132,-0.0165274,0.114624,-0,0.11581,-8624.25,-44137.9,-0,44972.6,538132
step02_gravity_refstate-mantle.xmf,529,-2.58469e-06,3.93564e-06,0,5.52611e-06,-1.31689e+09,-1.31602e+09,-1.31654e+09,738565,-0.0143222,0.123419,-0,0.124247,-7085.16,-46732,-0,47266.1,738565
step02_gravity_refstate-mantle.xmf,530,-2.56194e-06,3.51173e-06,0,6.45862e-06,-1.32944e+09,-1.32863e+09,-1.3291e+09,863195,-0.0155573,0.133205,-0,0.134111,-6282.26,-47118.8,-0,47535.8,863195
step02_gravity_refstate-mantle.xmf,531,-1.28944e-06,2.80027e-06,0,2.29974e-06,-1.15488e+09,-1.15433e+09,-1.1547e+09,307361,-0.018691,0.0986852,-0,0.10044,-11302.6,-41733.2,-0,43236.6,307361
step02_gravity_refstate-mantle.xmf,532,-7.21485e-07,-3.53113e-06,0,1.65989e-05,-1.431e+09,-1.43138e+09,-1.4309e+09,2.21844e+06,-0.0173962,0.216145,-0,0.216844,-2445.64,-50250.3,-0,50309.8,2.21844e+06
step02_gravity_refstate-mantle.xmf,533,-1.25217e-06,-2.40713e-06,0,1.72836e-05,-1.44721e+09,-1.44736e+09,-1.44704e+09,2.30996e+06,-0.0149582,0.218508,-0,0.219019,-2432.91,-50750.2,-0,50808.5,2.30996e+06
step02_gravity_refstate-mantle.xmf,534,-1.47873e-06,-6.28953e-07,0,1.83915e-05,-1.4633e+09,-1.46319e+09,-1.4631e+09,2.45802e+06,-0.0111637,0.219835,-0,0.220118,-2424.18,-51250.4,-0,51307.7,2.45802e+06
step02_gravity_refstate-mantle.xmf,535,-3.52237e-06,5.62913e-06,0,1.66857e-05,-1.49032e+09,-1.4891e+09,-1.48985e+09,2.23004e+06,-0.00179495,0.198581,-0,0.198589,-2846.03,-52087.5,-0,52165.2,2.23004e+06
step02_gravity_refstate-mantle.xmf,536,-4.87617e-06,1.10317e-05,0,1.44888e-05,-1.5214e+09,-1.51927e+09,-1.52075e+09,1.93643e+06,0.0112231,0.173851,0,0.174213,-3227.93,-53052.1,-0,53150.2,1.93643e+06
step02_gravity_refstate-mantle.xmf,537,-5.29137e-06,1.34991e-05,0,1.35155e-05,-1.53822e+09,-1.5357e+09,-1.53751e+09,1.80634e+06,0.0185026,0.162341,0,0.163392,-3351.31,-53575.2,-0,53679.9,1.80634e+06
step02_gravity_refstate-mantle.xmf,538,-5.90828e-06,1.60901e-05,0,1.43493e-05,-1.55465e+09,-1.55171e+09,-1.55386e+09,1.91778e+06,0.0241886,0.161405,0,0.163207,-3189.24,-54085.4,-0,54179.3,1.91778e+06
step02_gravity_refstate-mantle.xmf,539,-6.93098e-07,1.53825e-05,0,1.85864e-06,-1.66402e+09,-1.66187e+09,-1.66393e+09,248408,0.0700781,0.0409552,0,0.0811682,-5774.84,-57496.8,-0,57786.1,248408
step02_gravity_refstate-mantle.xmf,540,-1.67159e-06,1.70239e-05,0,3.01839e-06,-1.65199e+09,-1.64949e+09,-1.65176e+09,403407,0.0667794,0.0536336,0,0.0856508,-5213.08,-57122.8,-0,57360.2,403407
step02_gravity_refstate-mantle.xmf,541,-5.54785e-06,2.2537e-05,0,8.73651e-06,-1.6198e+09,-1.61604e+09,-1.61906e+09,1.16763e+06,0.0520225,0.105357,0,0.1175,-3630.1,-56116.7,-0,56234,1.16763e+06
step02_gravity_refstate-mantle.xmf,542,-2.76292e-06,1.87397e-05,0,4.49096e-06,-1.64051e+09,-1.63764e+09,-1.64014e+09,600216,0.0626454,0.0685255,0,0.092845,-4666.58,-56765.4,-0,56956.9,600216
step02_gravity_refstate-mantle.xmf,543,-4.05312e-06,2.06248e-05,0,6.36678e-06,-1.62993e+09,-1.62663e+09,-1.62939e+09,850920,0.0577388,0.0857797,0,0.103402,-4130.68,-56434.8,-0,56585.7,850920
step02_gravity_refstate-mantle.xmf,544,-2.9715e-06,3.49242e-06,0,7.63006e-06,-1.35961e+09,-1.35874e+09,-1.35921e+09,1.01976e+06,-0.0159099,0.143369,-0,0.144249,-5448.4,-48047.8,-0,48355.8,1.01976e+06
step02_gravity_refstate-mantle.xmf,545,-2.78724e-06,2.76835e-06,0,8.49008e-06,-1.36561e+09,-1.36486e+09,-1.36523e+09,1.1347e+06,-0.0169171,0.151689,-0,0.15263,-4959.5,-48232.5,-0,48486.8,1.1347e+06
step02_gravity_refstate-mantle.xmf,546,-2.5739e-06,1.90573e-06,0,9.53723e-06,-1.37583e+09,-1.37523e+09,-1.37549e+09,1.27465e+06,-0.0177406,0.161537,-0,0.162509,-4424.58,-48547.7,-0,48748.9,1.27465e+06
step02_gravity_refstate-mantle.xmf,547,-2.23443e-06,8.15917e-07,0,1.06709e-05,-1.38614e+09,-1.38573e+09,-1.38584e+09,1.42617e+06,-0.018384,0.172105,-0,0.173084,-3919.82,-48865.6,-0,49022.6,1.42617e+06
step02_gravity_refstate-mantle.xmf,548,-1.69448e-06,-6.36167e-07,0,1.19362e-05,-1.39607e+09,-1.39593e+09,-1.39585e+09,1.59528e+06,-0.01882,0.183745,-0,0.184706,-3435.15,-49172.2,-0,49292.1,1.59528e+06
step02_gravity_refstate-mantle.xmf,549,-7.23214e-07,-2.83468e-06,0,1.34222e-05,-1.40566e+09,-1.40595e+09,-1.40557e+09,1.79388e+06,-0.0189559,0.19754,-0,0.198447,-2937.63,-49469.4,-0,49556.5,1.79388e+06
step02_gravity_refstate-mantle.xmf,550,-1.94521e-06,3.41775e-06,0,4.75538e-06,-1.27657e+09,-1.27586e+09,-1.27631e+09,635557,-0.0151999,0.118566,-0,0.119536,-7851.58,-45489.6,-0,46162.2,635557
step02_gravity_refstate-mantle.xmf,551,-1.39191e-06,2.81959e-06,0,4.58637e-06,-1.24818e+09,-1.24761e+09,-1.24799e+09,612968,-0.016736,0.121151,-0,0.122302,-7862.83,-44614.6,-0,45302.2,612968
step02_gravity_refstate-mantle.xmf,552,-9.77945e-07,2.40252e-06,0,3.82629e-06,-1.20346e+09,-1.203e+09,-1.20332e+09,511384,-0.0182418,0.117204,-0,0.118616,-8606.71,-43234.9,-0,44083.2,511384
step02_gravity_refstate-mantle.xmf,553,-2.08807e-06,2.49338e-06,0,7.30513e-06,-1.33065e+09,-1.33003e+09,-1.33037e+09,976331,-0.0171859,0.144257,-0,0.145277,-5552.84,-47156.6,-0,47482.4,976331
step02_gravity_refstate-mantle.xmf,554,-1.08912e-06,2.53653e-06,0,2.77546e-06,-1.16169e+09,-1.16121e+09,-1.16154e+09,370940,-0.0194273,0.106377,-0,0.108136,-10219.9,-41944.3,-0,43171.5,370940
step02_gravity_refstate-mantle.xmf,555,-1.01323e-06,2.47807e-06,0,3.31969e-06,-1.18488e+09,-1.18442e+09,-1.18475e+09,443676,-0.0186691,0.111904,-0,0.113451,-9343.18,-42661.1,-0,43672.3,443676
step02_gravity_refstate-mantle.xmf,556,-1.21979e-06,2.37846e-06,0,1.90913e-06,-1.09879e+09,-1.09831e+09,-1.09862e+09,255156,-0.0234888,0.102885,-0,0.105532,-11337.1,-40000,-0,41575.6,255156
step02_gravity_refstate-mantle.xmf,557,-1.08586e-06,2.40749e-06,0,2.31893e-06,-1.12934e+09,-1.12887e+09,-1.12919e+09,309925,-0.0214199,0.104469,-0,0.106643,-10792.2,-40944.6,-0,42343,309925
step02_gravity_refstate-mantle.xmf,558,8.78643e-07,-5.77816e-06,0,1.48804e-05,-1.41431e+09,-1.4152e+09,-1.41443e+09,1.98877e+06,-0.0185429,0.212301,-0,0.213109,-2479.33,-49739.7,-0,49801.5,1.98877e+06
step02_gravity_refstate-mantle.xmf,559,-1.98961e-06,1.95516e-06,0,1.95375e-05,-1.48016e+09,-1.47963e+09,-1.47989e+09,2.61119e+06,-0.00628574,0.219771,-0,0.219861,-2419.42,-51774.3,-0,51830.8,2.61119e+06
step02_gravity_refstate-mantle.xmf,560,-4.18842e-06,8.78117e-06,0,1.71675e-05,-1.50912e+09,-1.50739e+09,-1.50856e+09,2.29444e+06,0.00487378,0.194281,0,0.194343,-2848.89,-52671.8,-0,52748.8,2.29444e+06
step02_gravity_refstate-mantle.xmf,561,-6.38536e-06,1.91291e-05,0,1.35583e-05,-1.57447e+09,-1.57106e+09,-1.57362e+09,1.81207e+06,0.032223,0.149809,0,0.153235,-3206.62,-54702.1,-0,54796,1.81207e+06
step02_gravity_refstate-mantle.xmf,562,-6.87657e-06,2.18054e-05,0,1.27571e-05,-1.59247e+09,-1.58864e+09,-1.59155e+09,1.70498e+06,0.0391252,0.139263,0,0.144654,-3183.2,-55261.8,-0,55353.4,1.70498e+06
step02_gravity_refstate-mantle.xmf,563,-8.58356e-07,1.62296e-05,0,1.64892e-06,-1.68483e+09,-1.68255e+09,-1.68472e+09,220378,0.0735808,0.0315462,0,0.0800581,-5687.28,-58140.7,-0,58418.2,220378
step02_gravity_refstate-mantle.xmf,564,-7.15551e-06,2.41502e-05,0,1.17685e-05,-1.60997e+09,-1.60579e+09,-1.60902e+09,1.57285e+06,0.0455537,0.127384,0,0.135284,-3164.82,-55806.5,-0,55896.2,1.57285e+06
step02_gravity_refstate-mantle.xmf,565,-4.07084e-07,1.59026e-05,0,5.07195e-07,-1.72554e+09,-1.72336e+09,-1.72548e+09,67786.6,0.0776048,0.00960125,0,0.0781965,-5987.17,-59400.3,-0,59701.3,67786.6
step02_gravity_refstate-mantle.xmf,566,2.63209e-07,1.46085e-05,0,-1.36539e-08,-1.74491e+09,-1.743e+09,-1.74495e+09,-1824.85,0.0780851,-1.72692e-19,0,0.0780851,-6357.24,-60000,-0,60335.8,1824.85
step02_gravity_refstate-mantle.xmf,567,-2.10175e-06,2.20484e-06,0,8.03801e-06,-1.3445e+09,-1.34392e+09,-1.34422e+09,1.07428e+06,-0.0176363,0.151037,-0,0.152063,-5082.98,-47583.7,-0,47854.4,1.07428e+06
step02_gravity_refstate-mantle.xmf,568,-1.94068e-06,3.24048e-06,0,5.40086e-06,-1.28998e+09,-1.28929e+09,-1.28972e+09,721825,-0.0158709,0.125991,-0,0.126987,-7114.43,-45903.4,-0,46451.4,721825
step02_gravity_refstate-mantle.xmf,569,-8.94915e-07,2.20582e-06,0,4.36381e-06,-1.21912e+09,-1.2187e+09,-1.219e+09,583223,-0.0181257,0.12344,-0,0.124763,-7857.43,-43718.8,-0,44419.3,583223
step02_gravity_refstate-mantle.xmf,570,-1.85866e-06,2.7437e-06,0,6.18411e-06,-1.30217e+09,-1.30156e+09,-1.30192e+09,826506,-0.0167025,0.13448,-0,0.135513,-6377.27,-46279.2,-0,46716.6,826506
step02_gravity_refstate-mantle.xmf,571,-1.595e-06,2.03966e-06,0,6.96894e-06,-1.31208e+09,-1.31159e+09,-1.31186e+09,931399,-0.0175924,0.143857,-0,0.144928,-5663.63,-46585.1,-0,46928.1,931399
step02_gravity_refstate-mantle.xmf,572,1.49933e-06,-6.4164e-06,0,1.36278e-05,-1.39802e+09,-1.39908e+09,-1.39822e+09,1.82136e+06,-0.0189626,0.208868,-0,0.209727,-2491.25,-49239,-0,49302,1.82136e+06
step02_gravity_refstate-mantle.xmf,573,5.65317e-06,-1.20453e-05,0,1.79071e-05,-1.42222e+09,-1.42459e+09,-1.42298e+09,2.39328e+06,-0.0169795,0.230084,-0,0.23071,-2000,-50000,-0,50040,2.39328e+06
step02_gravity_refstate-mantle.xmf,574,1.83755e-06,-9.4202e-06,0,1.92459e-05,-1.43903e+09,-1.44053e+09,-1.43927e+09,2.57222e+06,-0.0162391,0.235282,-0,0.235841,-2000,-50500.3,-0,50539.9,2.57222e+06
step02_gravity_refstate-mantle.xmf,575,1.03956e-06,-6.19805e-06,0,2.12664e-05,-1.45512e+09,-1.45608e+09,-1.45526e+09,2.84225e+06,-0.013262,0.239202,-0,0.239569,-2000,-51000.2,-0,51039.4,2.84225e+06
step02_gravity_refstate-mantle.xmf,576,8.24466e-08,-2.62896e-06,0,2.28715e-05,-1.47123e+09,-1.47159e+09,-1.47124e+09,3.05677e+06,-0.00925836,0.241414,-0,0.241592,-2000,-51500.6,-0,51539.4,3.05677e+06
step02_gravity_refstate-mantle.xmf,577,-2.84039e-06,5.214e-06,0,2.04215e-05,-1.49727e+09,-1.49619e+09,-1.49689e+09,2.72933e+06,-0.000782864,0.217795,-0,0.217796,-2420.86,-52305.4,-0,52361.4,2.72933e+06
step02_gravity_refstate-mantle.xmf,578,-4.67859e-06,1.08555e-05,0,1.80149e-05,-1.52242e+09,-1.52034e+09,-1.52179e+09,2.40769e+06,0.00945094,0.193733,0,0.193964,-2775.13,-53084.5,-0,53157,2.40769e+06
step02_gravity_refstate-mantle.xmf,579,-5.43607e-06,1.36099e-05,0,1.70402e-05,-1.53731e+09,-1.53476e+09,-1.53658e+09,2.27743e+06,0.015605,0.183148,0,0.183812,-2879.48,-53546.4,-0,53623.8,2.27743e+06
step02_gravity_refstate-mantle.xmf,580,-6.99344e-06,1.90902e-05,0,1.71675e-05,-1.56686e+09,-1.56338e+09,-1.56593e+09,2.29444e+06,0.0263806,0.172629,0,0.174633,-2785.35,-54462.9,-0,54534.1,2.29444e+06
step02_gravity_refstate-mantle.xmf,581,-1.14725e-06,1.72527e-05,0,1.26259e-06,-1.70715e+09,-1.7047e+09,-1.707e+09,168745,0.0760611,0.0205575,0,0.0787902,-5596.79,-58831,-0,59096.6,168745
step02_gravity_refstate-mantle.xmf,582,-1.80784e-06,1.80902e-05,0,2.78217e-06,-1.67275e+09,-1.67009e+09,-1.6725e+09,371836,0.0709249,0.0430272,0,0.0829559,-5158.01,-57765.8,-0,57995.7,371836
step02_gravity_refstate-mantle.xmf,583,-2.89025e-06,2.00173e-05,0,4.22764e-06,-1.66072e+09,-1.65766e+09,-1.66034e+09,565024,0.0673304,0.0572061,0,0.0883511,-4616.35,-57392.1,-0,57577.5,565024
step02_gravity_refstate-mantle.xmf,584,-7.25488e-06,2.63653e-05,0,1.06577e-05,-1.62754e+09,-1.62304e+09,-1.62657e+09,1.4244e+06,0.0514745,0.11405,0,0.125128,-3148.67,-56354.1,-0,56442,1.4244e+06
step02_gravity_refstate-mantle.xmf,585,-5.58346e-06,2.43366e-05,0,8.10863e-06,-1.6384e+09,-1.6344e+09,-1.63765e+09,1.08372e+06,0.057573,0.0930762,0,0.109443,-3582.02,-56695.5,-0,56808.6,1.08372e+06
step02_gravity_refstate-mantle.xmf,586,-4.10542e-06,2.20813e-05,0,5.99461e-06,-1.64918e+09,-1.64569e+09,-1.64864e+09,801180,0.0628604,0.0739629,0,0.0970667,-4085.61,-57032.9,-0,57179,801180
step02_gravity_refstate-mantle.xmf,587,-1.23708e-06,1.15979e-06,0,7.7409e-06,-1.32193e+09,-1.3216e+09,-1.32176e+09,1.03457e+06,-0.0182947,0.153207,-0,0.154295,-5020.1,-46889.5,-0,47157.4,1.03457e+06
step02_gravity_refstate-mantle.xmf,588,-1.66198e-06,9.08987e-07,0,9.15317e-06,-1.35516e+09,-1.35482e+09,-1.35494e+09,1.22332e+06,-0.0185589,0.162589,-0,0.163645,-4416.49,-47912.6,-0,48115.8,1.22332e+06
step02_gravity_refstate-mantle.xmf,589,-1.24464e-06,-2.29924e-07,0,1.01138e-05,-1.36582e+09,-1.36569e+09,-1.36566e+09,1.35171e+06,-0.0190601,0.172322,-0,0.173373,-3918.37,-48241.9,-0,48400.8,1.35171e+06
step02_gravity_refstate-mantle.xmf,590,-8.45385e-07,-1.36483e-06,0,1.10521e-05,-1.37638e+09,-1.37645e+09,-1.37627e+09,1.47712e+06,-0.0193206,0.18129,-0,0.182317,-3512.77,-48567.8,-0,48694.7,1.47712e+06
step02_gravity_refstate-mantle.xmf,591,1.22052e-07,-3.55148e-06,0,1.23865e-05,-1.38838e+09,-1.38887e+09,-1.3884e+09,1.65546e+06,-0.0193986,0.195016,-0,0.195978,-2968.74,-48939.3,-0,49029.3,1.65546e+06
step02_gravity_refstate-mantle.xmf,592,-1.3515e-06,2.50698e-06,0,5.2314e-06,-1.26282e+09,-1.2623e+09,-1.26263e+09,699176,-0.0170824,0.12826,-0,0.129393,-7123.73,-45066.3,-0,45625.8,699176
step02_gravity_refstate-mantle.xmf,593,-6.14041e-07,1.99405e-06,0,3.56988e-06,-1.17753e+09,-1.17718e+09,-1.17744e+09,477115,-0.0197649,0.119373,-0,0.120998,-8562.33,-42435.3,-0,43290.5,477115
step02_gravity_refstate-mantle.xmf,594,-7.7804e-07,1.95935e-06,0,4.91795e-06,-1.23492e+09,-1.23455e+09,-1.23482e+09,657284,-0.0181049,0.13023,-0,0.131483,-7117.68,-44207,-0,44776.3,657284
step02_gravity_refstate-mantle.xmf,595,-4.61743e-07,1.74421e-06,0,4.02861e-06,-1.1902e+09,-1.18991e+09,-1.19014e+09,538424,-0.0194626,0.125127,-0,0.126632,-7864.78,-42827.2,-0,43543.4,538424
step02_gravity_refstate-mantle.xmf,596,-6.139e-07,1.95954e-06,0,3.1332e-06,-1.15451e+09,-1.15416e+09,-1.15442e+09,418752,-0.020928,0.116398,-0,0.118265,-9063.38,-41724.1,-0,42697.2,418752
step02_gravity_refstate-mantle.xmf,597,-8.37128e-07,1.99383e-06,0,2.13412e-06,-1.09874e+09,-1.09836e+09,-1.09862e+09,285226,-0.0246694,0.110919,-0,0.113629,-10193,-40000,-0,41278.3,285226
step02_gravity_refstate-mantle.xmf,598,-6.8969e-07,1.96397e-06,0,2.64141e-06,-1.12818e+09,-1.12783e+09,-1.12809e+09,353024,-0.0225223,0.113218,-0,0.115436,-9649.97,-40910.4,-0,42033.2,353024
step02_gravity_refstate-mantle.xmf,599,3.02121e-06,-9.42949e-06,0,1.45183e-05,-1.40604e+09,-1.40771e+09,-1.40645e+09,1.94038e+06,-0.0181153,0.220794,-0,0.221536,-2135.92,-49489.3,-0,49535.4,1.94038e+06
step02_gravity_refstate-mantle.xmf,600,-1.08071e-06,1.14733e-06,0,2.41063e-05,-1.48736e+09,-1.48706e+09,-1.48721e+09,3.2218e+06,-0.00470766,0.241788,-0,0.241833,-2000,-52000.7,-0,52039.1,3.2218e+06
step02_gravity_refstate-mantle.xmf,601,-3.83428e-06,8.52601e-06,0,2.10176e-05,-1.5133e+09,-1.51165e+09,-1.51279e+09,2.809e+06,0.00463839,0.214673,0,0.214723,-2415.57,-52802.5,-0,52857.7,2.809e+06
step02_gravity_refstate-mantle.xmf,602,-6.30715e-06,1.65217e-05,0,1.81294e-05,-1.55251e+09,-1.54946e+09,-1.55167e+09,2.423e+06,0.0205574,0.18303,0,0.184181,-2733.42,-54017.7,-0,54086.8,2.423e+06
step02_gravity_refstate-mantle.xmf,603,-7.7486e-06,2.22127e-05,0,1.6392e-05,-1.58384e+09,-1.57983e+09,-1.5828e+09,2.19079e+06,0.0328011,0.162055,0,0.165341,-2778.2,-54990.2,-0,55060.4,2.19079e+06
step02_gravity_refstate-mantle.xmf,604,-8.88887e-06,2.57403e-05,0,1.6166e-05,-1.60074e+09,-1.59611e+09,-1.59955e+09,2.16059e+06,0.0380471,0.154831,0,0.159438,-2658.05,-55513.8,-0,55577.4,2.16059e+06
step02_gravity_refstate-mantle.xmf,605,-9.018e-06,2.81947e-05,0,1.41385e-05,-1.6174e+09,-1.61243e+09,-1.6162e+09,1.88961e+06,0.0447461,0.137095,0,0.144213,-2744.91,-56033.9,-0,56101.1,1.88961e+06
step02_gravity_refstate-mantle.xmf,606,-2.20496e-06,1.90621e-05,0,2.28526e-06,-1.69335e+09,-1.6905e+09,-1.69305e+09,305425,0.0737814,0.0317724,0,0.0803317,-5096.33,-58402,-0,58624,305425
step02_gravity_refstate-mantle.xmf,607,-2.1014e-06,1.90937e-05,0,7.40412e-07,-1.72834e+09,-1.72551e+09,-1.72806e+09,98956.1,0.0768329,0.0099289,0,0.0774718,-5285.55,-59483.8,-0,59718.2,98956.1
step02_gravity_refstate-mantle.xmf,608,-1.24469e-06,1.75832e-05,0,-1.60558e-08,-1.74499e+09,-1.74248e+09,-1.74483e+09,-2145.86,0.077726,-1.77257e-19,0,0.077726,-5628.36,-60000,-0,60263.4,2145.86
step02_gravity_refstate-mantle.xmf,609,-8.25029e-07,2.42962e-07,0,8.5324e-06,-1.33344e+09,-1.33329e+09,-1.33333e+09,1.14036e+06,-0.0188,0.162548,-0,0.163632,-4438.34,-47245.5,-0,47453.5,1.14036e+06
step02_gravity_refstate-mantle.xmf,610,-1.20656e-06,2.13349e-06,0,5.86187e-06,-1.27616e+09,-1.27572e+09,-1.276e+09,783439,-0.0175392,0.136028,-0,0.137154,-6406.35,-45478.6,-0,45927.6,783439
step02_gravity_refstate-mantle.xmf,611,-2.82404e-07,1.42316e-06,0,4.55508e-06,-1.20633e+09,-1.2061e+09,-1.20629e+09,608787,-0.0190717,0.131761,-0,0.133134,-7112.09,-43325.8,-0,43905.6,608787
step02_gravity_refstate-mantle.xmf,612,-9.65217e-07,1.4465e-06,0,6.56268e-06,-1.28844e+09,-1.28811e+09,-1.28831e+09,877102,-0.0180229,0.144443,-0,0.145563,-5711.81,-45857.6,-0,46211.9,877102
step02_gravity_refstate-mantle.xmf,613,-5.80084e-07,5.90585e-07,0,7.24016e-06,-1.29987e+09,-1.29971e+09,-1.29979e+09,967647,-0.0184345,0.153375,-0,0.154478,-5048.17,-46211.1,-0,46486.1,967647
step02_gravity_refstate-mantle.xmf,614,2.36842e-06,-6.89178e-06,0,1.21973e-05,-1.38136e+09,-1.3826e+09,-1.38168e+09,1.63017e+06,-0.0187227,0.205684,-0,0.206534,-2483.14,-48728.9,-0,48792.2,1.63017e+06
step02_gravity_refstate-mantle.xmf,615,4.62665e-06,-1.12774e-05,0,1.28544e-05,-1.3921e+09,-1.39422e+09,-1.39271e+09,1.71799e+06,-0.0171901,0.221661,-0,0.222326,-1940.2,-49064.4,-0,49102.8,1.71799e+06
step02_gravity_refstate-mantle.xmf,616,6.06185e-06,-1.47005e-05,0,1.41947e-05,-1.4082e+09,-1.41097e+09,-1.40901e+09,1.89713e+06,-0.0162821,0.233489,-0,0.234056,-1730.04,-49562.6,-0,49592.8,1.89713e+06
step02_gravity_refstate-mantle.xmf,617,7.50509e-06,-1.95303e-05,0,1.3224e-05,-1.42244e+09,-1.42606e+09,-1.42345e+09,1.76738e+06,-0.0136458,0.247781,-0,0.248156,-1499.83,-50000,-0,50022.5,1.76738e+06
step02_gravity_refstate-mantle.xmf,618,-2.40934e-06,5.05992e-06,0,2.49842e-05,-1.50349e+09,-1.50249e+09,-1.50317e+09,3.33913e+06,0.000142843,0.24024,0,0.24024,-2000,-52500.1,-0,52538.2,3.33913e+06
step02_gravity_refstate-mantle.xmf,619,-4.85472e-06,1.17571e-05,0,2.12608e-05,-1.52879e+09,-1.52657e+09,-1.52814e+09,2.84151e+06,0.0100593,0.209693,0,0.209934,-2418,-53282.5,-0,53337.3,2.84151e+06
step02_gravity_refstate-mantle.xmf,620,-5.9714e-06,1.50387e-05,0,2.11709e-05,-1.54387e+09,-1.54106e+09,-1.54307e+09,2.82948e+06,0.0154236,0.20334,0,0.203924,-2419.94,-53749.1,-0,53803.5,2.82948e+06
step02_gravity_refstate-mantle.xmf,621,-7.18242e-06,1.85997e-05,0,2.10995e-05,-1.55987e+09,-1.55642e+09,-1.55891e+09,2.81995e+06,0.0209747,0.196469,0,0.197585,-2393.07,-54244.5,-0,54297.2,2.81995e+06
step02_gravity_refstate-mantle.xmf,622,-8.30225e-06,2.20756e-05,0,2.02673e-05,-1.57577e+09,-1.57171e+09,-1.57466e+09,2.70873e+06,0.026787,0.185702,0,0.187624,-2407.28,-54737,-0,54789.9,2.70873e+06
step02_gravity_refstate-mantle.xmf,623,-9.24401e-06,3.01926e-05,0,1.2935e-05,-1.63106e+09,-1.62578e+09,-1.62982e+09,1.72876e+06,0.0491625,0.12489,0,0.134218,-2739.22,-56459.3,-0,56525.7,1.72876e+06
step02_gravity_refstate-mantle.xmf,624,-2.76683e-06,2.02296e-05,0,1.71294e-06,-1.71162e+09,-1.70855e+09,-1.71125e+09,228935,0.0752536,0.0212815,0,0.0782049,-5008.53,-58965.7,-0,59178.1,228935
step02_gravity_refstate-mantle.xmf,625,-3.3757e-06,2.14077e-05,0,3.81199e-06,-1.6808e+09,-1.67749e+09,-1.68035e+09,509473,0.0706241,0.0451518,0,0.0838239,-4557.89,-58012.7,-0,58191.5,509473
step02_gravity_refstate-mantle.xmf,626,-4.57665e-06,2.36994e-05,0,5.65431e-06,-1.66807e+09,-1.66429e+09,-1.66746e+09,755698,0.0664781,0.0617043,0,0.0907015,-4024.49,-57617.3,-0,57757.7,755698
step02_gravity_refstate-mantle.xmf,627,-7.95112e-06,2.95313e-05,0,1.04611e-05,-1.64493e+09,-1.63992e+09,-1.64386e+09,1.39813e+06,0.0552291,0.104102,0,0.117845,-2979.25,-56894.7,-0,56972.7,1.39813e+06
step02_gravity_refstate-mantle.xmf,628,-5.91713e-06,2.62377e-05,0,7.71111e-06,-1.65693e+09,-1.65263e+09,-1.65614e+09,1.03059e+06,0.0616818,0.080198,0,0.101175,-3511.78,-57270.6,-0,57378.2,1.03059e+06
step02_gravity_refstate-mantle.xmf,629,-6.68208e-08,-4.91274e-07,0,7.91523e-06,-1.31136e+09,-1.31142e+09,-1.31135e+09,1.05787e+06,-0.0186932,0.162649,-0,0.16372,-4424.95,-46566.8,-0,46776.6,1.05787e+06
step02_gravity_refstate-mantle.xmf,630,-2.65983e-07,-1.1608e-06,0,9.43024e-06,-1.34474e+09,-1.34486e+09,-1.34471e+09,1.26035e+06,-0.019141,0.172601,-0,0.173659,-3881,-47594.9,-0,47752.8,1.26035e+06
step02_gravity_refstate-mantle.xmf,631,1.65439e-07,-2.29731e-06,0,1.02039e-05,-1.35643e+09,-1.35676e+09,-1.35645e+09,1.36375e+06,-0.0192981,0.180853,-0,0.18188,-3480.95,-47955.9,-0,48082.1,1.36375e+06
step02_gravity_refstate-mantle.xmf,632,8.13573e-07,-3.9597e-06,0,1.13671e-05,-1.37192e+09,-1.37256e+09,-1.37203e+09,1.51922e+06,-0.0193233,0.192072,-0,0.193041,-3013.64,-48434.4,-0,48528,1.51922e+06
step02_gravity_refstate-mantle.xmf,633,-6.09759e-07,1.4883e-06,0,5.51668e-06,-1.24947e+09,-1.24919e+09,-1.24939e+09,737304,-0.018192,0.137519,-0,0.138717,-6404.31,-44656.5,-0,45113.4,737304
step02_gravity_refstate-mantle.xmf,634,-1.0903e-07,1.36519e-06,0,3.54528e-06,-1.15746e+09,-1.15727e+09,-1.15745e+09,473827,-0.02114,0.125921,-0,0.127683,-7949.38,-41817.4,-0,42566.2,473827
step02_gravity_refstate-mantle.xmf,635,-6.38102e-08,1.03885e-06,0,5.06679e-06,-1.22223e+09,-1.22208e+09,-1.22222e+09,677176,-0.0187572,0.138722,-0,0.139984,-6390.33,-43817.4,-0,44281,677176
step02_gravity_refstate-mantle.xmf,636,1.48928e-07,1.02061e-06,0,4.10632e-06,-1.17731e+09,-1.1772e+09,-1.17733e+09,548810,-0.0201406,0.132966,-0,0.134482,-7100.75,-42431.4,-0,43021.4,548810
step02_gravity_refstate-mantle.xmf,637,-1.62873e-07,1.40998e-06,0,2.91446e-06,-1.12708e+09,-1.12687e+09,-1.12706e+09,389517,-0.0230773,0.122225,-0,0.124384,-8536.03,-40878.5,-0,41760.2,389517
step02_gravity_refstate-mantle.xmf,638,-3.34646e-07,1.51748e-06,0,2.32435e-06,-1.09867e+09,-1.09842e+09,-1.09862e+09,310649,-0.0253233,0.119177,-0,0.121838,-9083.97,-40000,-0,41018.5,310649
step02_gravity_refstate-mantle.xmf,639,8.77758e-06,-1.96669e-05,0,1.09565e-05,-1.40883e+09,-1.41263e+09,-1.41e+09,1.46434e+06,-0.0127729,0.246097,-0,0.246428,-1260.58,-49587.5,-0,49603.5,1.46434e+06
step02_gravity_refstate-mantle.xmf,640,-3.85948e-06,9.07029e-06,0,2.55128e-05,-1.51963e+09,-1.5179e+09,-1.51911e+09,3.40979e+06,0.00516121,0.236717,0,0.236773,-2000,-52999.3,-0,53037,3.40979e+06
step02_gravity_refstate-mantle.xmf,641,-9.27245e-06,2.50324e-05,0,1.98783e-05,-1.58903e+09,-1.58445e+09,-1.58779e+09,2.65674e+06,0.0311618,0.178003,0,0.18071,-2368.71,-55147.7,-0,55198.6,2.65674e+06
step02_gravity_refstate-mantle.xmf,642,-1.08081e-05,3.03449e-05,0,1.8013e-05,-1.61204e+09,-1.60654e+09,-1.6106e+09,2.40743e+06,0.0390231,0.158832,0,0.163555,-2356.57,-55861.8,-0,55911.5,2.40743e+06
step02_gravity_refstate-mantle.xmf,643,-1.11775e-05,3.2632e-05,0,1.64109e-05,-1.62499e+09,-1.61913e+09,-1.6235e+09,2.19332e+06,0.0435298,0.145113,0,0.151501,-2379.87,-56265.2,-0,56315.5,2.19332e+06
step02_gravity_refstate-mantle.xmf,644,-4.3269e-06,2.30448e-05,0,2.93157e-06,-1.70258e+09,-1.69893e+09,-1.70201e+09,391805,0.0725692,0.0313465,0,0.07905,-4448.54,-58683.4,-0,58851.7,391805
step02_gravity_refstate-mantle.xmf,645,-4.38954e-06,2.31527e-05,0,1.3956e-06,-1.72575e+09,-1.72207e+09,-1.72516e+09,186522,0.0744112,0.0140123,0,0.075719,-4569.04,-59398.7,-0,59574.2,186522
step02_gravity_refstate-mantle.xmf,646,-3.24761e-06,2.11835e-05,0,-3.60743e-08,-1.74513e+09,-1.74186e+09,-1.74469e+09,-4821.33,0.0761649,-2.56469e-19,0,0.0761649,-4930.91,-60000,-0,60202.3,4821.33
step02_gravity_refstate-mantle.xmf,647,5.89733e-07,-1.7497e-06,0,8.57503e-06,-1.32329e+09,-1.3236e+09,-1.32337e+09,1.14605e+06,-0.0187571,0.172424,-0,0.173442,-3834.4,-46936.4,-0,47092.8,1.14605e+06
step02_gravity_refstate-mantle.xmf,648,2.93782e-06,-6.88489e-06,0,1.08239e-05,-1.36416e+09,-1.36547e+09,-1.36455e+09,1.44662e+06,-0.0181384,0.201579,-0,0.202394,-2504.98,-48201.3,-0,48266.4,1.44662e+06
step02_gravity_refstate-mantle.xmf,649,-3.39358e-07,9.41981e-07,0,6.08308e-06,-1.26317e+09,-1.26299e+09,-1.26312e+09,813003,-0.0183124,0.145314,-0,0.146464,-5714.76,-45079.9,-0,45440.7,813003
step02_gravity_refstate-mantle.xmf,650,4.03342e-07,6.03441e-07,0,4.59927e-06,-1.19474e+09,-1.19471e+09,-1.19479e+09,614692,-0.0193649,0.13966,-0,0.140996,-6365.8,-42970.3,-0,43439.2,614692
step02_gravity_refstate-mantle.xmf,651,4.85111e-08,8.9522e-08,0,6.66628e-06,-1.27598e+09,-1.27597e+09,-1.27598e+09,890948,-0.0183896,0.153593,-0,0.15469,-5050.48,-45476,-0,45755.6,890948
step02_gravity_refstate-mantle.xmf,652,5.7625e-07,-9.4072e-07,0,7.20322e-06,-1.28834e+09,-1.28854e+09,-1.28842e+09,962710,-0.0183421,0.162274,-0,0.163307,-4416.01,-45858.7,-0,46070.9,962710
step02_gravity_refstate-mantle.xmf,653,4.90303e-06,-1.03056e-05,0,1.09323e-05,-1.37353e+09,-1.37556e+09,-1.37418e+09,1.4611e+06,-0.0166027,0.214662,-0,0.215303,-1980.01,-48495.2,-0,48535.6,1.4611e+06
step02_gravity_refstate-mantle.xmf,654,7.31168e-06,-1.58294e-05,0,1.16075e-05,-1.39727e+09,-1.40036e+09,-1.39825e+09,1.55135e+06,-0.0146533,0.234525,-0,0.234983,-1492.26,-49230.5,-0,49253.1,1.55135e+06
step02_gravity_refstate-mantle.xmf,655,8.90295e-06,-2.34389e-05,0,8.80429e-06,-1.42246e+09,-1.42679e+09,-1.42365e+09,1.17669e+06,-0.00953807,0.260679,-0,0.260854,-1000,-50000,-0,50010,1.17669e+06
step02_gravity_refstate-mantle.xmf,656,-5.40011e-06,1.31531e-05,0,2.57067e-05,-1.5358e+09,-1.53332e+09,-1.53508e+09,3.4357e+06,0.010287,0.231167,0,0.231396,-2000,-53498.9,-0,53536.3,3.4357e+06
step02_gravity_refstate-mantle.xmf,657,-6.97597e-06,1.72799e-05,0,2.55633e-05,-1.552e+09,-1.54875e+09,-1.55106e+09,3.41653e+06,0.0154832,0.223552,0,0.224087,-2000,-53999.2,-0,54036.2,3.41653e+06
step02_gravity_refstate-mantle.xmf,658,-8.57439e-06,2.14866e-05,0,2.50733e-05,-1.56819e+09,-1.56417e+09,-1.56704e+09,3.35104e+06,0.0207183,0.213855,0,0.214856,-2000,-54499.5,-0,54536.2,3.35104e+06
step02_gravity_refstate-mantle.xmf,659,-1.00976e-05,2.56681e-05,0,2.42327e-05,-1.58435e+09,-1.57957e+09,-1.583e+09,3.23871e+06,0.025962,0.202076,0,0.203737,-2000,-54999.2,-0,55035.5,3.23871e+06
step02_gravity_refstate-mantle.xmf,660,-1.15844e-05,2.98392e-05,0,2.30147e-05,-1.60048e+09,-1.59495e+09,-1.59893e+09,3.07591e+06,0.0311581,0.188198,0,0.19076,-2000,-55498.3,-0,55534.3,3.07591e+06
step02_gravity_refstate-mantle.xmf,661,-1.29503e-05,3.40891e-05,0,2.14146e-05,-1.61659e+09,-1.61031e+09,-1.61486e+09,2.86206e+06,0.0362267,0.172233,0,0.176001,-2000,-55997.8,-0,56033.5,2.86206e+06
step02_gravity_refstate-mantle.xmf,662,-1.11859e-05,3.47599e-05,0,1.40978e-05,-1.64045e+09,-1.63431e+09,-1.63895e+09,1.88416e+06,0.0487647,0.126684,0,0.135746,-2432.99,-56748,-0,56800.2,1.88416e+06
step02_gravity_refstate-mantle.xmf,663,-5.57284e-06,2.55872e-05,0,5.0936e-06,-1.68653e+09,-1.68236e+09,-1.68578e+09,680760,0.0685078,0.0490388,0,0.0842503,-3936.11,-58185.6,-0,58318.6,680760
step02_gravity_refstate-mantle.xmf,664,-6.82123e-06,2.82292e-05,0,7.27161e-06,-1.67485e+09,-1.67017e+09,-1.67394e+09,971851,0.0641358,0.0664117,0,0.0923251,-3449.09,-57823.4,-0,57926.1,971851
step02_gravity_refstate-mantle.xmf,665,-8.204e-06,3.13722e-05,0,9.6003e-06,-1.66435e+09,-1.65906e+09,-1.66326e+09,1.28308e+06,0.0590286,0.0862276,0,0.104497,-2960.6,-57497.8,-0,57574,1.28308e+06
step02_gravity_refstate-mantle.xmf,666,-6.06964e-06,2.5934e-05,0,2.62053e-06,-1.71577e+09,-1.71149e+09,-1.71496e+09,350233,0.0716157,0.0240156,0,0.0755352,-4113.05,-59086.3,-0,59229.3,350233
step02_gravity_refstate-mantle.xmf,667,1.27079e-06,-2.24005e-06,0,7.68636e-06,-1.30046e+09,-1.30093e+09,-1.30063e+09,1.02728e+06,-0.0180941,0.171389,-0,0.172341,-3808.47,-46234.6,-0,46391.2,1.02728e+06
step02_gravity_refstate-mantle.xmf,668,1.51596e-06,-3.6884e-06,0,9.37721e-06,-1.33741e+09,-1.3381e+09,-1.33761e+09,1.25326e+06,-0.0185561,0.183967,-0,0.1849,-3219.69,-47373.7,-0,47483,1.25326e+06
step02_gravity_refstate-mantle.xmf,669,1.66841e-06,-4.54549e-06,0,1.03177e-05,-1.35553e+09,-1.35636e+09,-1.35575e+09,1.37896e+06,-0.0188132,0.190977,-0,0.191901,-2963.6,-47932.4,-0,48023.9,1.37896e+06
step02_gravity_refstate-mantle.xmf,670,1.97786e-07,4.62089e-07,0,5.58433e-06,-1.23728e+09,-1.23725e+09,-1.23731e+09,746345,-0.0185049,0.145817,-0,0.146987,-5717.91,-44282.7,-0,44650.4,746345
step02_gravity_refstate-mantle.xmf,671,5.4258e-07,6.90171e-07,0,3.60844e-06,-1.15005e+09,-1.15003e+09,-1.15012e+09,482269,-0.0213396,0.134319,-0,0.136003,-7031.67,-41590.9,-0,42181.1,482269
step02_gravity_refstate-mantle.xmf,672,4.72599e-07,7.73628e-07,0,3.07956e-06,-1.12526e+09,-1.12522e+09,-1.12532e+09,411584,-0.0230384,0.13106,-0,0.13307,-7476.88,-40824.9,-0,41504,411584
step02_gravity_refstate-mantle.xmf,673,6.60142e-07,1.56224e-07,0,5.04024e-06,-1.21129e+09,-1.21136e+09,-1.21138e+09,673629,-0.0187239,0.146125,-0,0.14732,-5711.55,-43482.2,-0,43855.7,673629
step02_gravity_refstate-mantle.xmf,674,9.24182e-07,1.75345e-07,0,4.04607e-06,-1.165e+09,-1.1651e+09,-1.16512e+09,540757,-0.0201095,0.141517,-0,0.142939,-6208.81,-42053.9,-0,42509.7,540757
step02_gravity_refstate-mantle.xmf,675,7.26654e-06,-1.47017e-05,0,1.0161e-05,-1.38292e+09,-1.38586e+09,-1.38389e+09,1.35801e+06,-0.0140094,0.228314,-0,0.228743,-1468.87,-48789.9,-0,48812,1.35801e+06
step02_gravity_refstate-mantle.xmf,676,2.82454e-07,9.56698e-07,0,2.46106e-06,-1.09858e+09,-1.09849e+09,-1.09862e+09,328921,-0.0253551,0.127503,-0,0.13,-8006.22,-40000,-0,40793.4,328921
step02_gravity_refstate-mantle.xmf,677,9.2703e-06,-1.88701e-05,0,8.61092e-06,-1.39443e+09,-1.39819e+09,-1.39567e+09,1.15085e+06,-0.0110268,0.241542,-0,0.241793,-1061.62,-49148.2,-0,49159.7,1.15085e+06
step02_gravity_refstate-mantle.xmf,678,1.01555e-05,-2.26513e-05,0,6.84099e-06,-1.40863e+09,-1.41301e+09,-1.40999e+09,914298,-0.00822809,0.254935,-0,0.255068,-779.598,-49583,-0,49589.1,914298
step02_gravity_refstate-mantle.xmf,679,-1.41118e-05,3.8256e-05,0,1.93195e-05,-1.63269e+09,-1.62569e+09,-1.6308e+09,2.58205e+06,0.0410069,0.154147,0,0.159508,-2000,-56497.8,-0,56533.2,2.58205e+06
step02_gravity_refstate-mantle.xmf,680,-1.07747e-05,3.61539e-05,0,1.19686e-05,-1.65609e+09,-1.64982e+09,-1.65465e+09,1.5996e+06,0.0530365,0.107738,0,0.120085,-2479.47,-57237.7,-0,57291.4,1.5996e+06
step02_gravity_refstate-mantle.xmf,681,-6.94132e-06,2.74195e-05,0,4.0451e-06,-1.7039e+09,-1.69931e+09,-1.70298e+09,540627,0.0690683,0.0363109,0,0.0780315,-3814.77,-58717.8,-0,58841.6,540627
step02_gravity_refstate-mantle.xmf,682,-7.16653e-06,2.76024e-05,0,1.54022e-06,-1.72986e+09,-1.72521e+09,-1.7289e+09,205850,0.0708554,0.0133508,0,0.0721022,-3935.97,-59518.6,-0,59648.6,205850
step02_gravity_refstate-mantle.xmf,683,-5.78128e-06,2.53988e-05,0,-2.27097e-08,-1.74533e+09,-1.74116e+09,-1.74455e+09,-3035.15,0.0731396,-2.38759e-19,0,0.0731396,-4262.05,-60000,-0,60151.2,3035.15
step02_gravity_refstate-mantle.xmf,684,2.17034e-06,-3.84673e-06,0,8.09078e-06,-1.31268e+09,-1.31349e+09,-1.31297e+09,1.08133e+06,-0.0175443,0.181168,-0,0.182015,-3213.96,-46613.9,-0,46724.6,1.08133e+06
step02_gravity_refstate-mantle.xmf,685,3.35797e-06,-6.6533e-06,0,9.43464e-06,-1.34523e+09,-1.34657e+09,-1.34568e+09,1.26094e+06,-0.0172549,0.197334,-0,0.198087,-2521.59,-47620.1,-0,47686.8,1.26094e+06
step02_gravity_refstate-mantle.xmf,686,5.10136e-06,-9.60918e-06,0,9.26699e-06,-1.35469e+09,-1.35666e+09,-1.35537e+09,1.23853e+06,-0.015546,0.208939,-0,0.209516,-1977.96,-47916.4,-0,47957.3,1.23853e+06
step02_gravity_refstate-mantle.xmf,687,5.83001e-07,-2.42752e-07,0,6.04863e-06,-1.25118e+09,-1.25129e+09,-1.25126e+09,808400,-0.0182425,0.153524,-0,0.154604,-5050.24,-44712.9,-0,44997.2,808400
step02_gravity_refstate-mantle.xmf,688,1.02308e-06,-9.71406e-08,0,4.54024e-06,-1.1877e+09,-1.18785e+09,-1.18784e+09,606803,-0.01904,0.146235,-0,0.147469,-5702.06,-42755.3,-0,43133.8,606803
step02_gravity_refstate-mantle.xmf,689,1.10413e-06,-1.23077e-06,0,6.4656e-06,-1.26413e+09,-1.26444e+09,-1.26428e+09,864128,-0.017877,0.161558,-0,0.162544,-4408.88,-45113.7,-0,45328.6,864128
step02_gravity_refstate-mantle.xmf,690,1.78527e-06,-2.44025e-06,0,6.79594e-06,-1.27689e+09,-1.27745e+09,-1.27713e+09,908277,-0.017309,0.170091,-0,0.17097,-3778.78,-45509.3,-0,45665.9,908277
step02_gravity_refstate-mantle.xmf,691,7.12398e-06,-1.30534e-05,0,8.37973e-06,-1.36448e+09,-1.36718e+09,-1.36544e+09,1.11995e+06,-0.0129381,0.220839,-0,0.221217,-1448.41,-48223.7,-0,48245.4,1.11995e+06
step02_gravity_refstate-mantle.xmf,692,9.62879e-06,-2.54417e-05,0,4.3785e-06,-1.42247e+09,-1.42716e+09,-1.42376e+09,585187,-0.00488982,0.268442,-0,0.268486,-500.172,-50000,-0,50002.5,585187
step02_gravity_refstate-mantle.xmf,693,-1.50585e-05,4.23413e-05,0,1.66558e-05,-1.64876e+09,-1.64109e+09,-1.64674e+09,2.22605e+06,0.0451752,0.133994,0,0.141404,-2000,-56998.3,-0,57033.3,2.22605e+06
step02_gravity_refstate-mantle.xmf,694,-8.44916e-06,3.04783e-05,0,6.19744e-06,-1.69302e+09,-1.68781e+09,-1.69189e+09,828288,0.0650083,0.0513786,0,0.0828604,-3369.7,-58379.3,-0,58476.4,828288
step02_gravity_refstate-mantle.xmf,695,-9.80443e-06,3.37194e-05,0,8.86288e-06,-1.68147e+09,-1.67565e+09,-1.68016e+09,1.18452e+06,0.0601887,0.0701632,0,0.0924422,-2915.52,-58021.8,-0,58095,1.18452e+06
step02_gravity_refstate-mantle.xmf,696,-1.0387e-05,3.79932e-05,0,1.19909e-05,-1.67229e+09,-1.66583e+09,-1.67091e+09,1.60259e+06,0.0546854,0.0898598,0,0.105192,-2444.53,-57745.4,-0,57797.1,1.60259e+06
step02_gravity_refstate-mantle.xmf,697,-8.09679e-06,2.90863e-05,0,3.03411e-06,-1.71699e+09,-1.71202e+09,-1.71591e+09,405509,0.0686407,0.026017,0,0.0734059,-3688.38,-59118.6,-0,59233.5,405509
step02_gravity_refstate-mantle.xmf,698,2.64088e-06,-3.91924e-06,0,6.99858e-06,-1.28944e+09,-1.29031e+09,-1.28979e+09,935360,-0.0164582,0.178934,-0,0.17969,-3173.29,-45898.8,-0,46008.4,935360
step02_gravity_refstate-mantle.xmf,699,1.03021e-06,-5.25477e-07,0,5.42828e-06,-1.22542e+09,-1.22562e+09,-1.22555e+09,725489,-0.0181245,0.153087,-0,0.154157,-5060.54,-43919.2,-0,44209.8,725489
step02_gravity_refstate-mantle.xmf,700,1.1886e-06,4.42318e-08,0,3.28818e-06,-1.12977e+09,-1.12992e+09,-1.12993e+09,439466,-0.0218341,0.14024,-0,0.14193,-6370.4,-40967.2,-0,41459.6,439466
step02_gravity_refstate-mantle.xmf,701,1.00413e-06,3.21999e-07,0,2.52214e-06,-1.09848e+09,-1.09857e+09,-1.09861e+09,337084,-0.024685,0.135709,-0,0.137936,-6955.6,-40000,-0,40600.2,337084
step02_gravity_refstate-mantle.xmf,702,1.3902e-06,-6.59555e-07,0,4.80176e-06,-1.19895e+09,-1.19922e+09,-1.19913e+09,641755,-0.0181708,0.152365,-0,0.153445,-5083.32,-43103.6,-0,43402.3,641755
step02_gravity_refstate-mantle.xmf,703,1.66112e-06,-7.08122e-07,0,4.14642e-06,-1.16957e+09,-1.16989e+09,-1.16979e+09,554170,-0.0186859,0.150683,-0,0.151837,-5197.98,-42197.9,-0,42516.8,554170
step02_gravity_refstate-mantle.xmf,704,9.31669e-06,-1.73827e-05,0,6.20402e-06,-1.37559e+09,-1.37916e+09,-1.37684e+09,829167,-0.0088455,0.233621,-0,0.233788,-882.927,-48570.4,-0,48578.4,829167
step02_gravity_refstate-mantle.xmf,705,1.07164e-05,-2.15925e-05,0,4.05749e-06,-1.39427e+09,-1.39859e+09,-1.3957e+09,542284,-0.00535316,0.248494,-0,0.248552,-493.865,-49145.9,-0,49148.3,542284
step02_gravity_refstate-mantle.xmf,706,1.06257e-05,-2.40642e-05,0,3.13958e-06,-1.41027e+09,-1.4149e+09,-1.41169e+09,419605,-0.00389444,0.260518,-0,0.260547,-364.496,-49633.1,-0,49634.4,419605
step02_gravity_refstate-mantle.xmf,707,-1.52351e-05,4.62421e-05,0,1.27534e-05,-1.66465e+09,-1.65644e+09,-1.66262e+09,1.70449e+06,0.0481024,0.111856,0,0.121761,-2000,-57498.2,-0,57532.9,1.70449e+06
step02_gravity_refstate-mantle.xmf,708,-9.9858e-06,3.2064e-05,0,4.40272e-06,-1.70999e+09,-1.70437e+09,-1.70866e+09,588424,0.0648588,0.0360607,0,0.0742094,-3290.6,-58897.5,-0,58989.4,588424
step02_gravity_refstate-mantle.xmf,709,-1.06155e-05,3.28927e-05,0,2.1702e-06,-1.7285e+09,-1.72268e+09,-1.72708e+09,290047,0.0650329,0.0175779,0,0.0673666,-3282.32,-59467,-0,59557.5,290047
step02_gravity_refstate-mantle.xmf,710,-8.91339e-06,3.02579e-05,0,-3.3015e-08,-1.7456e+09,-1.74037e+09,-1.74441e+09,-4412.45,0.0684162,-3.15801e-19,0,0.0684162,-3618.49,-60000,-0,60109,4412.45
step02_gravity_refstate-mantle.xmf,711,3.3888e-06,-5.99529e-06,0,8.26862e-06,-1.32389e+09,-1.32515e+09,-1.32435e+09,1.1051e+06,-0.0164537,0.191632,-0,0.192337,-2619.23,-46962.9,-0,47035.9,1.1051e+06
step02_gravity_refstate-mantle.xmf,712,3.69914e-06,-5.73796e-06,0,6.98836e-06,-1.30138e+09,-1.30264e+09,-1.30188e+09,933995,-0.0151328,0.188207,-0,0.188815,-2572.22,-46270.3,-0,46341.7,933995
step02_gravity_refstate-mantle.xmf,713,5.12069e-06,-8.75565e-06,0,7.8103e-06,-1.3345e+09,-1.33635e+09,-1.33518e+09,1.04385e+06,-0.0143804,0.20319,-0,0.203698,-1980.78,-47295,-0,47336.5,1.04385e+06
step02_gravity_refstate-mantle.xmf,714,6.85194e-06,-1.16467e-05,0,6.84403e-06,-1.34495e+09,-1.34742e+09,-1.34586e+09,914705,-0.0116711,0.213789,-0,0.214108,-1419.8,-47621.9,-0,47643.1,914705
step02_gravity_refstate-mantle.xmf,715,1.50921e-06,-1.36789e-06,0,5.76407e-06,-1.23979e+09,-1.24018e+09,-1.23999e+09,770368,-0.0174356,0.160641,-0,0.161585,-4403.39,-44364.3,-0,44582.3,770368
step02_gravity_refstate-mantle.xmf,716,1.57524e-06,-4.30521e-07,0,3.66645e-06,-1.14716e+09,-1.14743e+09,-1.14737e+09,490021,-0.0199888,0.146634,-0,0.14799,-5620.91,-41505.8,-0,41884.6,490021
step02_gravity_refstate-mantle.xmf,717,2.16356e-06,-2.48115e-06,0,5.95675e-06,-1.25258e+09,-1.2532e+09,-1.25287e+09,796120,-0.0165396,0.168537,-0,0.169346,-3754.41,-44760.9,-0,44918.1,796120
step02_gravity_refstate-mantle.xmf,718,2.95345e-06,-3.80677e-06,0,6.01288e-06,-1.26562e+09,-1.26652e+09,-1.26601e+09,803622,-0.0153735,0.176697,-0,0.177365,-3122.51,-45165.5,-0,45273.3,803622
step02_gravity_refstate-mantle.xmf,719,8.41229e-06,-1.4362e-05,0,5.17153e-06,-1.35431e+09,-1.35736e+09,-1.35544e+09,691175,-0.00832541,0.222959,-0,0.223114,-917.878,-47914.7,-0,47923.5,691175
step02_gravity_refstate-mantle.xmf,720,9.93122e-06,-2.62289e-05,0,6.95485e-08,-1.42247e+09,-1.42731e+09,-1.4238e+09,9295.15,-2.42399e-06,0.271033,-0,0.271033,0,-50000,0,50000,9295.15
step02_gravity_refstate-mantle.xmf,721,-1.24127e-05,3.61302e-05,0,6.49708e-06,-1.69977e+09,-1.69328e+09,-1.69811e+09,868335,0.0595663,0.0522139,0,0.0792113,-2828.7,-58575.8,-0,58644,868335
step02_gravity_refstate-mantle.xmf,722,-1.51385e-05,4.0226e-05,0,8.21885e-06,-1.68967e+09,-1.68227e+09,-1.68765e+09,1.09845e+06,0.0541695,0.0703872,0,0.0888183,-2419.7,-58256.2,-0,58306.4,1.09845e+06
step02_gravity_refstate-mantle.xmf,723,-1.88508e-05,4.35471e-05,0,9.57414e-06,-1.68191e+09,-1.67357e+09,-1.67939e+09,1.27958e+06,0.0479347,0.0878515,0,0.100078,-2000,-58000,-0,58034.5,1.27958e+06
step02_gravity_refstate-mantle.xmf,724,3.89871e-06,-5.36718e-06,0,5.84275e-06,-1.27831e+09,-1.27955e+09,-1.27883e+09,780884,-0.0138187,0.184982,-0,0.185498,-2508.68,-45559.9,-0,45628.9,780884
step02_gravity_refstate-mantle.xmf,725,1.86187e-06,-1.4525e-06,0,5.05857e-06,-1.21356e+09,-1.214e+09,-1.21381e+09,676078,-0.0171059,0.159478,-0,0.160393,-4404.75,-43556,-0,43778.2,676078
step02_gravity_refstate-mantle.xmf,726,2.01599e-06,-7.23613e-07,0,3.09035e-06,-1.12376e+09,-1.12412e+09,-1.12403e+09,413026,-0.0205496,0.148261,-0,0.149678,-5370.97,-40785.1,-0,41137.2,413026
step02_gravity_refstate-mantle.xmf,727,1.79685e-06,-3.61314e-07,0,2.49072e-06,-1.09836e+09,-1.09865e+09,-1.0986e+09,332884,-0.023251,0.143582,-0,0.145452,-5927.94,-40000,-0,40436.9,332884
step02_gravity_refstate-mantle.xmf,728,2.14143e-06,-1.43726e-06,0,4.38322e-06,-1.18614e+09,-1.18662e+09,-1.18643e+09,585817,-0.0170454,0.158085,-0,0.159001,-4423.04,-42711.1,-0,42939.5,585817
step02_gravity_refstate-mantle.xmf,729,2.12947e-06,-9.73074e-07,0,3.4896e-06,-1.14364e+09,-1.14406e+09,-1.14393e+09,466385,-0.0188943,0.151966,-0,0.153136,-4966.61,-41399.5,-0,41696.3,466385
step02_gravity_refstate-mantle.xmf,730,9.58118e-06,-1.68007e-05,0,2.78212e-06,-1.36201e+09,-1.36554e+09,-1.36329e+09,371830,-0.00422289,0.230129,-0,0.230168,-434.635,-48154.1,-0,48156,371830
step02_gravity_refstate-mantle.xmf,731,1.0393e-05,-1.92047e-05,0,2.68791e-06,-1.37776e+09,-1.38172e+09,-1.37915e+09,359240,-0.0038134,0.239123,-0,0.239154,-364.743,-48640,-0,48641.4,359240
step02_gravity_refstate-mantle.xmf,732,1.10494e-05,-2.37789e-05,0,-1.2614e-07,-1.40555e+09,-1.41021e+09,-1.40703e+09,-16858.6,-1.30927e-07,0.258361,-0,0.258361,0,-49491.1,0,49491.1,16858.6
step02_gravity_refstate-mantle.xmf,733,-1.36077e-05,3.73598e-05,0,3.92522e-06,-1.71775e+09,-1.71094e+09,-1.71593e+09,524605,0.0586096,0.032766,0,0.0671468,-2754.17,-59126.3,-0,59190.4,524605
step02_gravity_refstate-mantle.xmf,734,-1.2453e-05,3.54902e-05,0,-6.5438e-09,-1.74594e+09,-1.73953e+09,-1.74427e+09,-874.578,0.0617656,-2.57419e-19,0,0.0617656,-2996.03,-60000,-0,60074.8,874.578
step02_gravity_refstate-mantle.xmf,735,5.01843e-06,-7.96118e-06,0,6.57485e-06,-1.31295e+09,-1.31469e+09,-1.31363e+09,878728,-0.013137,0.19779,-0,0.198226,-1970.46,-46630.9,-0,46672.5,878728
step02_gravity_refstate-mantle.xmf,736,4.95685e-06,-7.20155e-06,0,5.39521e-06,-1.29076e+09,-1.29238e+09,-1.29142e+09,721069,-0.0117575,0.193259,-0,0.193616,-1910.84,-45946.7,-0,45986.4,721069
step02_gravity_refstate-mantle.xmf,737,6.52455e-06,-1.03227e-05,0,5.52494e-06,-1.32448e+09,-1.32674e+09,-1.32536e+09,738409,-0.0103454,0.207306,-0,0.207564,-1377.78,-46991.1,-0,47011.2,738409
step02_gravity_refstate-mantle.xmf,738,7.79872e-06,-1.25493e-05,0,4.06692e-06,-1.33503e+09,-1.33775e+09,-1.33607e+09,543544,-0.0071559,0.215359,-0,0.215478,-865.631,-47319.6,-0,47327.5,543544
step02_gravity_refstate-mantle.xmf,739,2.41881e-06,-2.39459e-06,0,5.20224e-06,-1.22748e+09,-1.22813e+09,-1.22781e+09,695280,-0.0159189,0.166712,-0,0.16747,-3748.51,-43987.5,-0,44147,695280
step02_gravity_refstate-mantle.xmf,740,2.43882e-06,-1.45496e-06,0,3.71027e-06,-1.1582e+09,-1.15872e+09,-1.15853e+09,495877,-0.0172476,0.157036,-0,0.15798,-4399.39,-41850,-0,42080.6,495877
step02_gravity_refstate-mantle.xmf,741,3.96486e-06,-4.91074e-06,0,4.88108e-06,-1.25431e+09,-1.25549e+09,-1.25484e+09,652357,-0.0126242,0.181785,-0,0.182223,-2444.62,-44820,-0,44886.6,652357
step02_gravity_refstate-mantle.xmf,742,3.1463e-06,-3.56808e-06,0,5.14071e-06,-1.24089e+09,-1.24179e+09,-1.24131e+09,687056,-0.0144268,0.174281,-0,0.174877,-3083.39,-44403.5,-0,44510.4,687056
step02_gravity_refstate-mantle.xmf,743,8.71778e-06,-1.42345e-05,0,2.27442e-06,-1.34315e+09,-1.34621e+09,-1.34431e+09,303976,-0.00389626,0.22113,-0,0.221164,-441.34,-47572.2,-0,47574.3,303976
step02_gravity_refstate-mantle.xmf,744,1.09102e-05,-2.11811e-05,0,3.15556e-08,-1.38809e+09,-1.39238e+09,-1.38955e+09,4217.41,-2.74157e-08,0.24642,-0,0.24642,0,-48957.5,0,48957.5,4217.41
step02_gravity_refstate-mantle.xmf,745,1.02229e-05,-1.833e-05,0,-2.3285e-08,-1.36986e+09,-1.37368e+09,-1.37123e+09,-3112.04,-3.48038e-09,0.235471,-0,0.235471,0,-48397,0,48397,3112.04
step02_gravity_refstate-mantle.xmf,746,1.05767e-05,-2.404e-05,0,-3.18025e-06,-1.41027e+09,-1.4149e+09,-1.41169e+09,-425040,0.00389453,0.260518,0,0.260547,364.496,-49633.1,0,49634.4,425040
step02_gravity_refstate-mantle.xmf,747,9.67469e-06,-2.55345e-05,0,-4.30411e-06,-1.42247e+09,-1.42718e+09,-1.42376e+09,-575244,0.00489474,0.268442,0,0.268486,500.172,-50000,0,50002.5,575244
step02_gravity_refstate-mantle.xmf,748,-1.66335e-05,4.19057e-05,0,5.54042e-06,-1.70686e+09,-1.69903e+09,-1.70463e+09,740477,0.050906,0.0511982,0,0.0721988,-2236.81,-58781.3,-0,58823.8,740477
step02_gravity_refstate-mantle.xmf,749,-1.94875e-05,4.60894e-05,0,7.34179e-06,-1.69586e+09,-1.6871e+09,-1.69326e+09,981230,0.0424226,0.0722186,0,0.0837568,-1749.64,-58433.3,-0,58459.5,981230
step02_gravity_refstate-mantle.xmf,750,-1.42548e-05,3.81149e-05,0,1.76291e-06,-1.73341e+09,-1.72642e+09,-1.73151e+09,235613,0.0577192,0.0149485,0,0.0596235,-2692.61,-59607.9,-0,59668.7,235613
step02_gravity_refstate-mantle.xmf,751,4.86125e-06,-6.39058e-06,0,4.35442e-06,-1.26764e+09,-1.26915e+09,-1.26829e+09,581968,-0.0104469,0.189075,-0,0.189363,-1834.75,-45234.2,-0,45271.4,581968
step02_gravity_refstate-mantle.xmf,752,2.65511e-06,-2.27394e-06,0,4.48097e-06,-1.20138e+09,-1.20204e+09,-1.20173e+09,598882,-0.0154847,0.164914,-0,0.165639,-3739.65,-43183.1,-0,43344.7,598882
step02_gravity_refstate-mantle.xmf,753,2.74998e-06,-1.46396e-06,0,2.98054e-06,-1.12748e+09,-1.12804e+09,-1.12784e+09,398350,-0.0180495,0.155728,-0,0.156771,-4391.24,-40902.9,-0,41137.9,398350
step02_gravity_refstate-mantle.xmf,754,2.62642e-06,-1.06258e-06,0,2.34985e-06,-1.09824e+09,-1.09873e+09,-1.09859e+09,314057,-0.0210263,0.150883,-0,0.152341,-4918.91,-40000,-0,40301.3,314057
step02_gravity_refstate-mantle.xmf,755,2.88544e-06,-2.15912e-06,0,3.78952e-06,-1.17369e+09,-1.17437e+09,-1.17408e+09,506469,-0.0152595,0.163311,-0,0.164023,-3704.28,-42329.7,-0,42491.5,506469
step02_gravity_refstate-mantle.xmf,756,9.30831e-06,-1.56931e-05,0,-5.75111e-09,-1.35078e+09,-1.35412e+09,-1.35202e+09,-768.636,6.01131e-09,0.225572,0,0.225572,0,-47808.1,0,47808.1,768.636
step02_gravity_refstate-mantle.xmf,757,1.07127e-05,-2.14162e-05,0,-4.13285e-06,-1.39425e+09,-1.39855e+09,-1.39569e+09,-552355,0.00535314,0.248494,0,0.248552,493.868,-49145.9,0,49148.3,552355
step02_gravity_refstate-mantle.xmf,758,1.01337e-05,-2.26474e-05,0,-6.84291e-06,-1.40863e+09,-1.41301e+09,-1.40999e+09,-914555,0.00822801,0.254935,0,0.255068,779.598,-49583,0,49589.1,914555
step02_gravity_refstate-mantle.xmf,759,-2.24694e-05,5.05438e-05,0,9.11395e-06,-1.68211e+09,-1.67235e+09,-1.67911e+09,1.21808e+06,0.0376003,0.0969567,0,0.103992,-1499.28,-58000,-0,58019.4,1.21808e+06
step02_gravity_refstate-mantle.xmf,760,-1.74127e-05,4.26649e-05,0,2.60817e-06,-1.72782e+09,-1.71979e+09,-1.72549e+09,348582,0.049477,0.0244904,0,0.0552065,-2169.34,-59425.5,-0,59465.1,348582
step02_gravity_refstate-mantle.xmf,761,-1.61641e-05,4.07917e-05,0,-9.47426e-09,-1.7463e+09,-1.73869e+09,-1.74414e+09,-1266.23,0.0530845,-3.80465e-19,0,0.0530845,-2389.19,-60000,-0,60047.6,1266.23
step02_gravity_refstate-mantle.xmf,762,6.10219e-06,-9.13991e-06,0,4.49935e-06,-1.30273e+09,-1.30477e+09,-1.30354e+09,601338,-0.00912283,0.201153,-0,0.20136,-1336.61,-46319.2,-0,46338.5,601338
step02_gravity_refstate-mantle.xmf,763,5.75062e-06,-8.00492e-06,0,3.55908e-06,-1.28057e+09,-1.2824e+09,-1.28133e+09,475671,-0.00789355,0.195843,-0,0.196002,-1264.68,-45635.2,-0,45652.7,475671
step02_gravity_refstate-mantle.xmf,764,7.98413e-06,-1.25251e-05,0,1.91164e-06,-1.32628e+09,-1.32903e+09,-1.32735e+09,255490,-0.00345061,0.214212,-0,0.21424,-426.709,-47050.8,-0,47052.7,255490
step02_gravity_refstate-mantle.xmf,765,7.22842e-06,-1.09347e-05,0,3.02425e-06,-1.31442e+09,-1.31685e+09,-1.31539e+09,404192,-0.00585226,0.208401,-0,0.208484,-781.309,-46683.4,-0,46690,404192
step02_gravity_refstate-mantle.xmf,766,3.26069e-06,-3.29017e-06,0,4.3982e-06,-1.21548e+09,-1.21635e+09,-1.21591e+09,587820,-0.0136927,0.17186,-0,0.172405,-3053.66,-43620,-0,43726.7,587820
step02_gravity_refstate-mantle.xmf,767,3.13049e-06,-2.06956e-06,0,3.16266e-06,-1.14755e+09,-1.14824e+09,-1.14797e+09,422689,-0.0153626,0.161936,-0,0.162663,-3659.6,-41523.9,-0,41684.9,422689
step02_gravity_refstate-mantle.xmf,768,4.72081e-06,-5.66198e-06,0,3.49553e-06,-1.24348e+09,-1.24487e+09,-1.24411e+09,467177,-0.00922676,0.185226,-0,0.185455,-1740.03,-44488.6,-0,44522.7,467177
step02_gravity_refstate-mantle.xmf,769,3.97704e-06,-4.41571e-06,0,4.05651e-06,-1.22929e+09,-1.23041e+09,-1.22982e+09,542152,-0.0116058,0.178688,-0,0.179065,-2381.47,-44048.5,-0,44112.8,542152
step02_gravity_refstate-mantle.xmf,770,8.35223e-06,-1.31548e-05,0,-2.20014e-08,-1.33075e+09,-1.33362e+09,-1.33186e+09,-2940.48,1.36273e-08,0.216713,0,0.216713,0,-47189.4,0,47189.4,2940.48
step02_gravity_refstate-mantle.xmf,771,1.03198e-05,-1.89762e-05,0,-2.77024e-06,-1.37776e+09,-1.38168e+09,-1.37914e+09,-370243,0.00381341,0.239123,0,0.239154,364.745,-48640,0,48641.4,370243
step02_gravity_refstate-mantle.xmf,772,9.61376e-06,-1.68478e-05,0,-2.81324e-06,-1.36201e+09,-1.36554e+09,-1.36329e+09,-375989,0.00422298,0.230129,0,0.230168,434.645,-48154.1,0,48156,375989
step02_gravity_refstate-mantle.xmf,773,8.94916e-06,-2.35222e-05,0,-8.64231e-06,-1.42246e+09,-1.4268e+09,-1.42366e+09,-1.15504e+06,0.00953312,0.260678,0,0.260853,1000,-50000,0,50010,1.15504e+06
step02_gravity_refstate-mantle.xmf,774,-2.32918e-05,5.1855e-05,0,6.68481e-06,-1.69156e+09,-1.68151e+09,-1.68844e+09,893424,0.0319123,0.0860373,0,0.091765,-1251.87,-58289.6,-0,58303,893424
step02_gravity_refstate-mantle.xmf,775,-2.01133e-05,4.66334e-05,0,4.47253e-06,-1.71364e+09,-1.70472e+09,-1.71095e+09,597754,0.0408852,0.0474695,0,0.0626494,-1697.49,-58979.7,-0,59004.1,597754
step02_gravity_refstate-mantle.xmf,776,5.43141e-06,-6.89855e-06,0,2.7442e-06,-1.25753e+09,-1.25918e+09,-1.25826e+09,366762,-0.00674633,0.191056,-0,0.191175,-1174.85,-44924.3,-0,44939.7,366762
step02_gravity_refstate-mantle.xmf,777,3.3943e-06,-2.96992e-06,0,3.68683e-06,-1.18859e+09,-1.18944e+09,-1.18905e+09,492745,-0.0131856,0.169514,-0,0.170026,-3021.96,-42791.2,-0,42897.8,492745
step02_gravity_refstate-mantle.xmf,778,3.43616e-06,-1.74265e-06,0,2.08613e-06,-1.09812e+09,-1.09881e+09,-1.09858e+09,278811,-0.0180183,0.157363,-0,0.158391,-3924.05,-40000,-0,40192,278811
step02_gravity_refstate-mantle.xmf,779,3.53398e-06,-2.73698e-06,0,3.08711e-06,-1.16223e+09,-1.16307e+09,-1.16271e+09,412592,-0.0129862,0.167433,-0,0.167936,-2987.6,-41978.5,-0,42084.7,412592
step02_gravity_refstate-mantle.xmf,780,3.55941e-06,-2.16762e-06,0,2.45269e-06,-1.12188e+09,-1.12264e+09,-1.12235e+09,327802,-0.0151183,0.161928,-0,0.162632,-3400.03,-40733.5,-0,40875.2,327802
step02_gravity_refstate-mantle.xmf,781,8.71622e-06,-1.44229e-05,0,-2.35014e-06,-1.34316e+09,-1.34626e+09,-1.34433e+09,-314096,0.00389642,0.221129,0,0.221164,441.358,-47572.2,0,47574.2,314096
step02_gravity_refstate-mantle.xmf,782,9.2943e-06,-1.89073e-05,0,-8.6227e-06,-1.39443e+09,-1.3982e+09,-1.39567e+09,-1.15242e+06,0.0110269,0.241541,0,0.241793,1061.62,-49148.2,0,49159.7,1.15242e+06
step02_gravity_refstate-mantle.xmf,783,9.29492e-06,-1.73365e-05,0,-6.31821e-06,-1.37559e+09,-1.37915e+09,-1.37684e+09,-844429,0.00884562,0.233621,0,0.233788,882.941,-48570.4,0,48578.4,844429
step02_gravity_refstate-mantle.xmf,784,8.81936e-06,-1.98681e-05,0,-1.10844e-05,-1.40883e+09,-1.41267e+09,-1.41001e+09,-1.48142e+06,0.0127729,0.246097,0,0.246428,1260.58,-49587.5,0,49603.5,1.48142e+06
step02_gravity_refstate-mantle.xmf,785,-2.46987e-05,5.50698e-05,0,6.11735e-06,-1.68222e+09,-1.67156e+09,-1.67892e+09,817584,0.0258006,0.104799,0,0.107928,-999.317,-58000,-0,58008.6,817584
step02_gravity_refstate-mantle.xmf,786,-2.2793e-05,5.06121e-05,0,5.26219e-06,-1.70429e+09,-1.69448e+09,-1.70125e+09,703291,0.0318258,0.0657505,0,0.073048,-1261.17,-58683.3,-0,58696.8,703291
step02_gravity_refstate-mantle.xmf,787,-1.97281e-05,4.57675e-05,0,7.07412e-09,-1.74666e+09,-1.73791e+09,-1.74402e+09,945.456,0.0423392,-3.37211e-19,0,0.0423392,-1790.83,-60000,-0,60026.7,945.456
step02_gravity_refstate-mantle.xmf,788,6.59831e-06,-9.52108e-06,0,2.44359e-06,-1.29251e+09,-1.29467e+09,-1.2934e+09,326586,-0.00502872,0.201706,-0,0.201768,-743.477,-46006.1,-0,46012.1,326586
step02_gravity_refstate-mantle.xmf,789,6.11809e-06,-8.27009e-06,0,1.69066e-06,-1.27158e+09,-1.2735e+09,-1.2724e+09,225957,-0.00382695,0.196479,-0,0.196517,-616.763,-45359.3,-0,45363.5,225957
step02_gravity_refstate-mantle.xmf,790,7.496e-06,-1.11553e-05,0,-9.83348e-08,-1.30972e+09,-1.31221e+09,-1.31072e+09,-13142.4,1.56386e-07,0.208817,0,0.208817,0,-46539.4,0,46539.4,13142.4
step02_gravity_refstate-mantle.xmf,791,3.95117e-06,-3.94456e-06,0,3.39208e-06,-1.20309e+09,-1.20415e+09,-1.20362e+09,453352,-0.0108766,0.175618,-0,0.175954,-2338.06,-43240.3,-0,43303.5,453352
step02_gravity_refstate-mantle.xmf,792,3.72962e-06,-2.58969e-06,0,2.56628e-06,-1.13968e+09,-1.14053e+09,-1.14018e+09,342984,-0.0129474,0.166009,-0,0.166513,-2918.34,-41283.7,-0,41386.7,342984
step02_gravity_refstate-mantle.xmf,793,5.12931e-06,-5.9688e-06,0,2.07273e-06,-1.2328e+09,-1.23428e+09,-1.23348e+09,277020,-0.00562266,0.186633,-0,0.186718,-1056.47,-44160.7,-0,44173.3,277020
step02_gravity_refstate-mantle.xmf,794,4.57338e-06,-4.93658e-06,0,2.79481e-06,-1.21757e+09,-1.21884e+09,-1.21818e+09,373527,-0.00825507,0.181442,-0,0.18163,-1658.56,-43689.1,-0,43720.6,373527
step02_gravity_refstate-mantle.xmf,795,8.00117e-06,-1.25695e-05,0,-1.89672e-06,-1.32628e+09,-1.32903e+09,-1.32735e+09,-253497,0.00345064,0.214212,0,0.21424,426.716,-47050.8,0,47052.7,253497
step02_gravity_refstate-mantle.xmf,796,8.39439e-06,-1.45814e-05,0,-5.26932e-06,-1.35433e+09,-1.3574e+09,-1.35546e+09,-704245,0.00832569,0.222958,0,0.223114,917.917,-47914.7,0,47923.5,704245
step02_gravity_refstate-mantle.xmf,797,7.40208e-06,-1.60769e-05,0,-1.17395e-05,-1.39727e+09,-1.40041e+09,-1.39826e+09,-1.56898e+06,0.0146533,0.234525,0,0.234982,1492.27,-49230.5,0,49253.1,1.56898e+06
step02_gravity_refstate-mantle.xmf,798,7.67272e-06,-1.9532e-05,0,-1.3198e-05,-1.42241e+09,-1.42604e+09,-1.42343e+09,-1.76391e+06,0.0136492,0.247779,0,0.248155,1499.83,-50000,0,50022.5,1.76391e+06
step02_gravity_refstate-mantle.xmf,799,-2.53185e-05,5.48433e-05,0,4.02325e-06,-1.69685e+09,-1.68614e+09,-1.69347e+09,537707,0.0205314,0.0824163,0,0.0849352,-786.525,-58447.4,-0,58452.6,537707
step02_gravity_refstate-mantle.xmf,800,-2.07983e-05,4.73756e-05,0,2.03361e-06,-1.73127e+09,-1.72215e+09,-1.72849e+09,271792,0.0386417,0.0225943,0,0.0447625,-1603.03,-59521.5,-0,59543.1,271792
step02_gravity_refstate-mantle.xmf,801,-2.31727e-05,5.06806e-05,0,2.71913e-06,-1.72166e+09,-1.71179e+09,-1.71856e+09,363412,0.028708,0.0395188,0,0.0488455,-1143.52,-59217.3,-0,59228.3,363412
step02_gravity_refstate-mantle.xmf,802,5.64806e-06,-6.99089e-06,0,1.24248e-06,-1.24904e+09,-1.25073e+09,-1.2498e+09,166057,-0.0031389,0.191374,-0,0.191399,-550.521,-44663.3,-0,44666.7,166057
step02_gravity_refstate-mantle.xmf,803,3.98523e-06,-3.4475e-06,0,2.77121e-06,-1.17588e+09,-1.17688e+09,-1.17642e+09,370372,-0.0104157,0.17277,-0,0.173084,-2296.97,-42401.4,-0,42463.6,370372
step02_gravity_refstate-mantle.xmf,804,4.16224e-06,-2.3473e-06,0,1.70473e-06,-1.09801e+09,-1.09888e+09,-1.09857e+09,227837,-0.0142807,0.162765,-0,0.16339,-2938.83,-40000,-0,40107.8,227837
step02_gravity_refstate-mantle.xmf,805,4.07382e-06,-3.09364e-06,0,2.26506e-06,-1.14757e+09,-1.14853e+09,-1.14811e+09,302726,-0.0104225,0.169952,-0,0.170272,-2293.3,-41528.2,-0,41591.5,302726
step02_gravity_refstate-mantle.xmf,806,4.17913e-06,-2.73713e-06,0,1.90692e-06,-1.12087e+09,-1.12179e+09,-1.12143e+09,254860,-0.0115165,0.166796,-0,0.167193,-2462.64,-40705.1,-0,40779.6,254860
step02_gravity_refstate-mantle.xmf,807,7.80073e-06,-1.27154e-05,0,-4.14049e-06,-1.33504e+09,-1.33778e+09,-1.33608e+09,-553377,0.00715628,0.215358,0,0.215477,865.691,-47319.6,0,47327.5,553377
step02_gravity_refstate-mantle.xmf,808,7.24367e-06,-1.4642e-05,0,-1.02042e-05,-1.38292e+09,-1.38585e+09,-1.38389e+09,-1.3638e+06,0.0140095,0.228313,0,0.228743,1468.89,-48789.9,0,48812,1.3638e+06
step02_gravity_refstate-mantle.xmf,809,5.9337e-06,-1.46678e-05,0,-1.43651e-05,-1.40822e+09,-1.41097e+09,-1.40901e+09,-1.9199e+06,0.0162822,0.233489,0,0.234056,1730.04,-49562.6,0,49592.8,1.9199e+06
step02_gravity_refstate-mantle.xmf,810,-2.60357e-05,5.7638e-05,0,3.07395e-06,-1.6823e+09,-1.67111e+09,-1.67882e+09,410834,0.0131232,0.109643,0,0.110426,-499.831,-58000,-0,58002.2,410834
step02_gravity_refstate-mantle.xmf,811,-2.43301e-05,5.27857e-05,0,3.60468e-06,-1.70904e+09,-1.69874e+09,-1.70579e+09,481766,0.0240434,0.0610185,0,0.0655846,-936.018,-58825.2,-0,58832.7,481766
step02_gravity_refstate-mantle.xmf,812,-2.29668e-05,5.02275e-05,0,7.06402e-08,-1.74699e+09,-1.73721e+09,-1.74392e+09,9441.06,0.0296104,-3.93418e-19,0,0.0296104,-1193.88,-60000,-0,60011.9,9441.06
step02_gravity_refstate-mantle.xmf,813,6.74928e-06,-9.55169e-06,0,2.34002e-09,-1.28764e+09,-1.28982e+09,-1.28854e+09,312.744,3.76189e-07,0.201781,0,0.201781,0,-45856.3,0,45856.3,312.744
step02_gravity_refstate-mantle.xmf,814,6.0887e-06,-8.02616e-06,0,5.06293e-10,-1.26442e+09,-1.26631e+09,-1.26523e+09,67.666,-5.31718e-07,0.195555,-0,0.195555,0,-45138.7,0,45138.7,67.666
step02_gravity_refstate-mantle.xmf,815,7.22173e-06,-1.10628e-05,0,-3.10598e-06,-1.31444e+09,-1.31688e+09,-1.3154e+09,-415115,0.00585221,0.208401,0,0.208484,781.309,-46683.4,0,46690,415115
step02_gravity_refstate-mantle.xmf,816,5.29439e-06,-6.11081e-06,0,8.84471e-07,-1.22797e+09,-1.2295e+09,-1.22868e+09,118210,-0.00243012,0.187287,-0,0.187303,-455.041,-44012.4,-0,44014.8,118210
step02_gravity_refstate-mantle.xmf,817,4.45688e-06,-4.33952e-06,0,2.24399e-06,-1.19057e+09,-1.19175e+09,-1.19117e+09,299910,-0.00750899,0.177971,-0,0.178129,-1578.06,-42856.1,-0,42885.1,299910
step02_gravity_refstate-mantle.xmf,818,4.93338e-06,-5.17861e-06,0,1.27833e-06,-1.2068e+09,-1.20815e+09,-1.20746e+09,170849,-0.00399657,0.182928,-0,0.182971,-795.681,-43358.2,-0,43365.5,170849
step02_gravity_refstate-mantle.xmf,819,7.04735e-06,-1.31384e-05,0,-8.4715e-06,-1.36451e+09,-1.3672e+09,-1.36545e+09,-1.13222e+06,0.0129384,0.220838,0,0.221216,1448.46,-48223.6,0,48245.4,1.13222e+06
step02_gravity_refstate-mantle.xmf,820,6.79731e-06,-1.17344e-05,0,-6.93596e-06,-1.34496e+09,-1.34744e+09,-1.34587e+09,-926991,0.011672,0.213787,0,0.214105,1419.95,-47621.9,0,47643,926991
step02_gravity_refstate-mantle.xmf,821,4.62486e-06,-1.09436e-05,0,-1.28257e-05,-1.39207e+09,-1.39415e+09,-1.39269e+09,-1.71416e+06,0.0171901,0.221661,0,0.222326,1940.21,-49064.4,0,49102.8,1.71416e+06
step02_gravity_refstate-mantle.xmf,822,4.69212e-06,-1.08122e-05,0,-1.68388e-05,-1.42233e+09,-1.4244e+09,-1.42296e+09,-2.25051e+06,0.016979,0.230085,0,0.23071,2000,-50000,0,50040,2.25051e+06
step02_gravity_refstate-mantle.xmf,823,-2.64868e-05,5.66494e-05,0,1.31177e-06,-1.69792e+09,-1.6868e+09,-1.69438e+09,175318,0.00675608,0.0834864,0,0.0837594,-255.106,-58477,-0,58477.5,175318
step02_gravity_refstate-mantle.xmf,824,-2.55843e-05,5.43444e-05,0,2.00329e-06,-1.71472e+09,-1.70404e+09,-1.7113e+09,267740,0.0153308,0.0536327,0,0.0557808,-590.294,-58996.2,-0,58999.1,267740
step02_gravity_refstate-mantle.xmf,825,5.55338e-06,-6.69025e-06,0,-1.61475e-08,-1.24001e+09,-1.24165e+09,-1.24076e+09,-2158.12,-1.24905e-07,0.190036,-0,0.190036,0,-44384.6,0,44384.6,2158.12
step02_gravity_refstate-mantle.xmf,826,6.54601e-06,-9.38498e-06,0,-2.42256e-06,-1.29266e+09,-1.29479e+09,-1.29354e+09,-323775,0.00505239,0.201734,0,0.201797,746.431,-46010.6,0,46016.7,323775
step02_gravity_refstate-mantle.xmf,827,4.42412e-06,-3.66161e-06,0,1.75939e-06,-1.1606e+09,-1.16168e+09,-1.16119e+09,235143,-0.00721433,0.174419,-0,0.174568,-1547.41,-41931.8,-0,41960.3,235143
step02_gravity_refstate-mantle.xmf,828,4.74222e-06,-2.82333e-06,0,1.22122e-06,-1.09793e+09,-1.09894e+09,-1.09856e+09,163216,-0.00991499,0.16685,-0,0.167144,-1958.59,-40000,-0,40047.9,163216
step02_gravity_refstate-mantle.xmf,829,4.6092e-06,-3.21684e-06,0,1.29284e-06,-1.12663e+09,-1.12768e+09,-1.12725e+09,172788,-0.007205,0.17097,-0,0.171122,-1504.34,-40884.7,-0,40912.4,172788
step02_gravity_refstate-mantle.xmf,830,6.48227e-06,-1.041e-05,0,-5.61137e-06,-1.32449e+09,-1.32675e+09,-1.32536e+09,-749960,0.0103475,0.2073,0,0.207558,1378.15,-46990.8,0,47011,749960
step02_gravity_refstate-mantle.xmf,831,4.8071e-06,-1.02082e-05,0,-1.09677e-05,-1.37354e+09,-1.37555e+09,-1.37418e+09,-1.46583e+06,0.0166028,0.214661,0,0.215302,1980.03,-48495.2,0,48535.6,1.46583e+06
step02_gravity_refstate-mantle.xmf,832,2.89338e-06,-9.04979e-06,0,-1.43811e-05,-1.40604e+09,-1.40764e+09,-1.40643e+09,-1.92203e+06,0.0181153,0.220795,0,0.221537,2135.91,-49489.3,0,49535.4,1.92203e+06
step02_gravity_refstate-mantle.xmf,833,-2.64796e-05,5.84827e-05,0,3.23138e-08,-1.68232e+09,-1.67097e+09,-1.67878e+09,4318.74,-7.05517e-09,0.111274,-0,0.111274,-2.07592e-10,-58000,-0,58000,4318.74
step02_gravity_refstate-mantle.xmf,834,-2.46536e-05,5.25989e-05,0,1.15158e-06,-1.73234e+09,-1.72202e+09,-1.72904e+09,153908,0.0193194,0.0240168,0,0.0308228,-758.223,-59542.2,-0,59547.1,153908
step02_gravity_refstate-mantle.xmf,835,6.27343e-06,-8.53755e-06,0,-1.44447e-06,-1.27519e+09,-1.27717e+09,-1.27603e+09,-193053,0.00314356,0.197725,0,0.19775,497.288,-45471.4,0,45474.1,193053
step02_gravity_refstate-mantle.xmf,836,5.70156e-06,-7.1832e-06,0,-1.1476e-06,-1.25104e+09,-1.25277e+09,-1.25181e+09,-153376,0.00282556,0.19193,0,0.191951,491.412,-44725,0,44727.7,153376
step02_gravity_refstate-mantle.xmf,837,5.17109e-06,-5.63579e-06,0,-2.95874e-08,-1.21436e+09,-1.2158e+09,-1.21505e+09,-3954.36,4.6253e-08,0.185161,0,0.185161,0,-43592.2,0,43592.2,3954.36
step02_gravity_refstate-mantle.xmf,838,6.09417e-06,-9.10929e-06,0,-4.50785e-06,-1.30275e+09,-1.30479e+09,-1.30357e+09,-602474,0.00912892,0.201153,0,0.20136,1337.42,-46320,0,46339.3,602474
step02_gravity_refstate-mantle.xmf,839,4.72284e-06,-4.39859e-06,0,1.09695e-06,-1.17697e+09,-1.17819e+09,-1.1776e+09,146608,-0.00393882,0.178497,-0,0.17854,-821.633,-42437.4,-0,42445.4,146608
step02_gravity_refstate-mantle.xmf,840,5.02851e-06,-9.59014e-06,0,-9.32499e-06,-1.3547e+09,-1.35666e+09,-1.35538e+09,-1.24628e+06,0.0155463,0.208937,0,0.209515,1978.04,-47916.4,0,47957.2,1.24628e+06
step02_gravity_refstate-mantle.xmf,841,5.05984e-06,-8.77809e-06,0,-7.87216e-06,-1.33451e+09,-1.33636e+09,-1.33519e+09,-1.05211e+06,0.0143819,0.203185,0,0.203694,1981.1,-47295,0,47336.4,1.05211e+06
step02_gravity_refstate-mantle.xmf,842,2.33662e-06,-6.72328e-06,0,-1.21826e-05,-1.38135e+09,-1.38256e+09,-1.38167e+09,-1.6282e+06,0.0187227,0.205684,0,0.206534,2483.12,-48728.9,0,48792.2,1.6282e+06
step02_gravity_refstate-mantle.xmf,843,1.51542e-06,-6.21999e-06,0,-1.34963e-05,-1.398e+09,-1.39904e+09,-1.39821e+09,-1.80378e+06,0.0189626,0.208869,0,0.209728,2491.21,-49239,0,49302,1.80378e+06
step02_gravity_refstate-mantle.xmf,844,8.09583e-07,-5.58704e-06,0,-1.49608e-05,-1.41431e+09,-1.41517e+09,-1.41442e+09,-1.99951e+06,0.0185427,0.212303,0,0.213111,2479.26,-49739.8,0,49801.5,1.99951e+06
step02_gravity_refstate-mantle.xmf,845,-2.64837e-05,5.66683e-05,0,-1.34207e-06,-1.69794e+09,-1.68683e+09,-1.6944e+09,-179368,-0.00695599,0.083422,-0,0.0837115,262.675,-58477.8,0,58478.4,179368
step02_gravity_refstate-mantle.xmf,846,-2.63717e-05,5.54502e-05,0,-6.44067e-08,-1.71416e+09,-1.70322e+09,-1.71064e+09,-8607.95,-0.000261454,0.0558125,-0,0.0558132,9.97254,-58976.5,0,58976.5,8607.95
step02_gravity_refstate-mantle.xmf,847,-2.58895e-05,5.42449e-05,0,4.33602e-07,-1.73103e+09,-1.72032e+09,-1.72757e+09,57950.9,0.00689679,0.0271203,0,0.0279835,-266.482,-59497.7,-0,59498.3,57950.9
step02_gravity_refstate-mantle.xmf,848,-2.51872e-05,5.31734e-05,0,5.60996e-08,-1.74723e+09,-1.73675e+09,-1.74386e+09,7497.71,0.0152622,-4.00745e-19,0,0.0152622,-596.939,-60000,-0,60003,7497.71
step02_gravity_refstate-mantle.xmf,849,5.29573e-06,-6.10488e-06,0,-8.52783e-07,-1.22772e+09,-1.22925e+09,-1.22843e+09,-113974,0.00234066,0.187264,0,0.187279,438.53,-44004.7,0,44006.9,113974
step02_gravity_refstate-mantle.xmf,850,5.75931e-06,-8.01716e-06,0,-3.51374e-06,-1.28128e+09,-1.28312e+09,-1.28205e+09,-469611,0.00775498,0.196188,0,0.196341,1236.69,-45657.3,0,45674.1,469611
step02_gravity_refstate-mantle.xmf,851,4.90755e-06,-4.74416e-06,0,-2.05622e-08,-1.18739e+09,-1.18868e+09,-1.18805e+09,-2748.14,-3.12659e-07,0.180841,-0,0.180841,0,-42759.7,0,42759.7,2748.14
step02_gravity_refstate-mantle.xmf,852,4.7062e-06,-3.68459e-06,0,8.19423e-07,-1.146e+09,-1.14712e+09,-1.14663e+09,109516,-0.00376524,0.174737,-0,0.174778,-790.118,-41482.6,-0,41490.1,109516
step02_gravity_refstate-mantle.xmf,853,5.1244e-06,-3.14421e-06,0,6.30406e-07,-1.09787e+09,-1.09898e+09,-1.09856e+09,84253.8,-0.00508469,0.169403,-0,0.169479,-979.295,-40000,-0,40012,84253.8
step02_gravity_refstate-mantle.xmf,854,5.00249e-06,-7.91191e-06,0,-6.57481e-06,-1.31296e+09,-1.31469e+09,-1.31363e+09,-878724,0.0131408,0.197784,0,0.19822,1971.15,-46631.1,0,46672.7,878724
step02_gravity_refstate-mantle.xmf,855,2.88428e-06,-6.88678e-06,0,-1.07926e-05,-1.36417e+09,-1.36547e+09,-1.36455e+09,-1.44243e+06,0.0181384,0.20158,0,0.202394,2504.96,-48201.3,0,48266.4,1.44243e+06
step02_gravity_refstate-mantle.xmf,856,1.62968e-06,-8.46268e-06,0,-1.91475e-05,-1.43899e+09,-1.44034e+09,-1.43921e+09,-2.55906e+06,0.016238,0.235278,0,0.235838,2000,-50500.3,0,50539.9,2.55906e+06
step02_gravity_refstate-mantle.xmf,857,-4.57043e-07,-4.28581e-06,0,-1.64876e-05,-1.43102e+09,-1.43153e+09,-1.43096e+09,-2.20357e+06,0.0173952,0.216164,0,0.216862,2445.18,-50250.6,0,50310.1,2.20357e+06
step02_gravity_refstate-mantle.xmf,858,1.04353e-06,-5.9042e-06,0,-2.11657e-05,-1.45509e+09,-1.45602e+09,-1.45523e+09,-2.82879e+06,0.0132647,0.2392,0,0.239568,2000,-51000.2,0,51039.4,2.82879e+06
step02_gravity_refstate-mantle.xmf,859,-1.16143e-06,-2.64361e-06,0,-1.73632e-05,-1.44733e+09,-1.44752e+09,-1.44717e+09,-2.32059e+06,0.0149407,0.218726,0,0.219235,2427.87,-50753.9,0,50811.9,2.32059e+06
step02_gravity_refstate-mantle.xmf,860,-2.61389e-05,5.76451e-05,0,-3.05634e-06,-1.68232e+09,-1.67112e+09,-1.67882e+09,-408480,-0.0131228,0.109643,-0,0.110426,499.831,-58000,0,58002.2,408480
step02_gravity_refstate-mantle.xmf,861,5.47045e-06,-7.05784e-06,0,-2.73519e-06,-1.25884e+09,-1.26051e+09,-1.25957e+09,-365558,0.00658213,0.191506,0,0.191619,1138.76,-44964.6,0,44979,365558
step02_gravity_refstate-mantle.xmf,862,5.15244e-06,-6.0763e-06,0,-2.08472e-06,-1.234e+09,-1.2355e+09,-1.23469e+09,-278623,0.00556896,0.186908,0,0.186991,1042.03,-44197.7,0,44210,278623
step02_gravity_refstate-mantle.xmf,863,4.94352e-06,-5.255e-06,0,-1.33264e-06,-1.2067e+09,-1.20806e+09,-1.20736e+09,-178108,0.00397286,0.182922,0,0.182965,791.023,-43355.1,0,43362.3,178108
step02_gravity_refstate-mantle.xmf,864,4.947e-06,-7.16403e-06,0,-5.40096e-06,-1.29076e+09,-1.29238e+09,-1.29142e+09,-721838,0.0117571,0.19326,0,0.193617,1910.79,-45946.8,0,45986.5,721838
step02_gravity_refstate-mantle.xmf,865,4.78883e-06,-4.10333e-06,0,9.20307e-10,-1.15904e+09,-1.16023e+09,-1.15968e+09,122.999,2.67991e-07,0.177002,0,0.177002,0,-41884.9,0,41884.9,122.999
step02_gravity_refstate-mantle.xmf,866,4.87102e-06,-3.40015e-06,0,6.05062e-07,-1.1215e+09,-1.1226e+09,-1.12215e+09,80866.5,-0.0035377,0.172182,-0,0.172218,-720.088,-40727.4,-0,40733.8,80866.5
step02_gravity_refstate-mantle.xmf,867,3.30437e-06,-6.65604e-06,0,-9.49308e-06,-1.34524e+09,-1.34657e+09,-1.34568e+09,-1.26875e+06,0.0172548,0.197335,0,0.198088,2521.54,-47620.1,0,47686.8,1.26875e+06
step02_gravity_refstate-mantle.xmf,868,3.37728e-06,-5.95841e-06,0,-8.22929e-06,-1.3239e+09,-1.32514e+09,-1.32435e+09,-1.09984e+06,0.0164554,0.191626,0,0.192331,2619.67,-46963,0,47036,1.09984e+06
step02_gravity_refstate-mantle.xmf,869,7.87513e-07,-3.79128e-06,0,-1.13259e-05,-1.37191e+09,-1.37252e+09,-1.37202e+09,-1.51371e+06,0.0193233,0.192073,0,0.193042,3013.6,-48434.4,0,48528.1,1.51371e+06
step02_gravity_refstate-mantle.xmf,870,1.17241e-07,-3.39413e-06,0,-1.23305e-05,-1.38837e+09,-1.38884e+09,-1.38838e+09,-1.64797e+06,0.0193986,0.195016,0,0.195978,2968.73,-48939.3,0,49029.3,1.64797e+06
step02_gravity_refstate-mantle.xmf,871,-7.20843e-07,-2.64611e-06,0,-1.33564e-05,-1.40565e+09,-1.40591e+09,-1.40556e+09,-1.78508e+06,0.0189558,0.197545,0,0.198452,2937.47,-49469.5,0,49556.7,1.78508e+06
step02_gravity_refstate-mantle.xmf,872,-1.67457e-06,-1.50687e-06,0,-1.43152e-05,-1.42289e+09,-1.42287e+09,-1.42267e+09,-1.91322e+06,0.017746,0.199754,0,0.20054,2904.57,-49998.5,0,50082.8,1.91322e+06
step02_gravity_refstate-mantle.xmf,873,1.15456e-07,-2.50439e-06,0,-2.28014e-05,-1.47121e+09,-1.47156e+09,-1.47123e+09,-3.0474e+06,0.00926031,0.241414,0,0.241591,2000,-51500.6,0,51539.4,3.0474e+06
step02_gravity_refstate-mantle.xmf,874,-1.44353e-06,-6.65285e-07,0,-1.85045e-05,-1.46344e+09,-1.46334e+09,-1.46325e+09,-2.47313e+06,0.0111397,0.220345,0,0.220626,2413.1,-51255,0,51311.8,2.47313e+06
step02_gravity_refstate-mantle.xmf,875,-1.03411e-06,1.22836e-06,0,-2.40476e-05,-1.48734e+09,-1.48704e+09,-1.4872e+09,-3.21396e+06,0.00470757,0.241787,0,0.241833,2000,-52000.7,0,52039.1,3.21396e+06
step02_gravity_refstate-mantle.xmf,876,-2.35619e-06,5.12433e-06,0,-2.49288e-05,-1.50347e+09,-1.50247e+09,-1.50316e+09,-3.33173e+06,-0.000143796,0.24024,-0,0.24024,2000,-52500.1,0,52538.2,3.33173e+06
step02_gravity_refstate-mantle.xmf,877,-2.8809e-06,5.31721e-06,0,-2.04431e-05,-1.49721e+09,-1.49612e+09,-1.49683e+09,-2.73222e+06,0.000809318,0.217954,0,0.217956,2417.95,-52303.7,0,52359.6,2.73222e+06
step02_gravity_refstate-mantle.xmf,878,-2.02314e-06,2.08044e-06,0,-1.95889e-05,-1.48011e+09,-1.47956e+09,-1.47984e+09,-2.61806e+06,0.00631079,0.220045,0,0.220136,2413.91,-51772.9,0,51829.1,2.61806e+06
step02_gravity_refstate-mantle.xmf,879,-3.80817e-06,9.11474e-06,0,-2.5467e-05,-1.51961e+09,-1.51789e+09,-1.51911e+09,-3.40366e+06,-0.00516281,0.236716,-0,0.236772,2000,-52999.3,0,53037,3.40366e+06
step02_gravity_refstate-mantle.xmf,880,-3.8383e-06,8.55445e-06,0,-2.10107e-05,-1.51333e+09,-1.51168e+09,-1.51282e+09,-2.80808e+06,-0.00465112,0.214661,-0,0.214712,2415.63,-52803.6,0,52858.8,2.80808e+06
step02_gravity_refstate-mantle.xmf,881,-5.34743e-06,1.31789e-05,0,-2.56604e-05,-1.53579e+09,-1.53331e+09,-1.53507e+09,-3.42951e+06,-0.0102884,0.231166,-0,0.231395,2000,-53498.9,0,53536.3,3.42951e+06
step02_gravity_refstate-mantle.xmf,882,-4.89585e-06,1.17891e-05,0,-2.12553e-05,-1.5288e+09,-1.52657e+09,-1.52815e+09,-2.84077e+06,-0.0100526,0.209789,-0,0.210029,2416.18,-53282.7,0,53337.4,2.84077e+06
step02_gravity_refstate-mantle.xmf,883,-6.93194e-06,1.73132e-05,0,-2.55216e-05,-1.55198e+09,-1.54874e+09,-1.55106e+09,-3.41097e+06,-0.0154842,0.223551,-0,0.224087,2000,-53999.2,0,54036.2,3.41097e+06
step02_gravity_refstate-mantle.xmf,884,-5.97637e-06,1.50702e-05,0,-2.11795e-05,-1.54386e+09,-1.54105e+09,-1.54307e+09,-2.83064e+06,-0.0154237,0.20334,-0,0.203924,2419.94,-53749.1,0,53803.5,2.83064e+06
step02_gravity_refstate-mantle.xmf,885,-8.56791e-06,2.14674e-05,0,-2.50786e-05,-1.56819e+09,-1.56417e+09,-1.56704e+09,-3.35175e+06,-0.0207196,0.213854,-0,0.214856,2000,-54499.5,0,54536.2,3.35175e+06
step02_gravity_refstate-mantle.xmf,886,-7.18125e-06,1.85875e-05,0,-2.10962e-05,-1.55987e+09,-1.55643e+09,-1.55891e+09,-2.8195e+06,-0.0209743,0.196473,-0,0.197589,2392.98,-54244.5,0,54297.3,2.8195e+06
step02_gravity_refstate-mantle.xmf,887,-2.47707e-05,5.51014e-05,0,-6.06621e-06,-1.68223e+09,-1.67156e+09,-1.67892e+09,-810749,-0.0258012,0.104798,-0,0.107927,999.317,-58000,0,58008.6,810749
step02_gravity_refstate-mantle.xmf,888,-2.54395e-05,5.50669e-05,0,-3.98696e-06,-1.69638e+09,-1.68562e+09,-1.69298e+09,-532858,-0.0196006,0.0835048,-0,0.0857743,749.574,-58432.6,0,58437.4,532858
step02_gravity_refstate-mantle.xmf,889,-2.56141e-05,5.43724e-05,0,-2.07073e-06,-1.7138e+09,-1.70311e+09,-1.71038e+09,-276753,-0.0147592,0.0552479,-0,0.0571854,567.307,-58967.8,0,58970.5,276753
step02_gravity_refstate-mantle.xmf,890,-2.58604e-05,5.41922e-05,0,-5.90083e-07,-1.73078e+09,-1.72008e+09,-1.72732e+09,-78864.6,-0.00777886,0.0275027,-0,0.0285816,300.574,-59490.1,0,59490.8,78864.6
step02_gravity_refstate-mantle.xmf,891,-2.59658e-05,5.42106e-05,0,4.5967e-08,-1.74731e+09,-1.73659e+09,-1.74384e+09,6143.49,1.23029e-07,-3.78665e-19,0,1.23029e-07,-5.11427e-08,-60000,-0,60000,6143.49
step02_gravity_refstate-mantle.xmf,892,4.82313e-06,-6.42873e-06,0,-4.3664e-06,-1.26791e+09,-1.26941e+09,-1.26855e+09,-583569,0.0103915,0.189225,0,0.18951,1821.43,-45241.9,0,45278.6,583569
step02_gravity_refstate-mantle.xmf,893,4.70492e-06,-4.28115e-06,0,-1.09806e-06,-1.17542e+09,-1.17663e+09,-1.17605e+09,-146755,0.00391713,0.178299,0,0.178342,818.184,-42389.9,0,42397.8,146755
step02_gravity_refstate-mantle.xmf,894,4.87558e-06,-3.52189e-06,0,-5.68715e-09,-1.12922e+09,-1.13034e+09,-1.12987e+09,-760.087,7.86905e-09,0.173533,0,0.173533,0,-40965.8,0,40965.8,760.087
step02_gravity_refstate-mantle.xmf,895,5.2609e-06,-3.28364e-06,0,2.96095e-08,-1.09785e+09,-1.099e+09,-1.09856e+09,3957.31,-1.20142e-07,0.170274,-0,0.170274,0,-40000,0,40000,3957.31
step02_gravity_refstate-mantle.xmf,896,3.68063e-06,-5.69422e-06,0,-6.98917e-06,-1.30145e+09,-1.3027e+09,-1.30194e+09,-934103,0.0151441,0.188193,0,0.188801,2574.39,-46272.4,0,46343.9,934103
step02_gravity_refstate-mantle.xmf,897,1.63306e-06,-4.49742e-06,0,-1.03638e-05,-1.35554e+09,-1.35636e+09,-1.35576e+09,-1.38512e+06,0.0188129,0.190983,0,0.191908,2963.29,-47932.6,0,48024.1,1.38512e+06
step02_gravity_refstate-mantle.xmf,898,-2.52682e-06,-1.52744e-07,0,-1.4974e-05,-1.43976e+09,-1.43944e+09,-1.43942e+09,-2.00128e+06,0.0155581,0.201693,0,0.202293,2863.06,-50517.4,0,50598.5,2.00128e+06
step02_gravity_refstate-mantle.xmf,899,-2.82016e-06,1.22883e-06,0,-1.55988e-05,-1.45586e+09,-1.45531e+09,-1.45548e+09,-2.08477e+06,0.0122404,0.202865,0,0.203234,2827.03,-51016.2,0,51094.5,2.08477e+06
step02_gravity_refstate-mantle.xmf,900,-8.33227e-06,2.20582e-05,0,-2.03138e-05,-1.57578e+09,-1.57172e+09,-1.57466e+09,-2.71493e+06,-0.0267869,0.185703,-0,0.187625,2407.28,-54737,0,54789.9,2.71493e+06
step02_gravity_refstate-mantle.xmf,901,-1.00948e-05,2.5662e-05,0,-2.42179e-05,-1.58435e+09,-1.57957e+09,-1.583e+09,-3.23673e+06,-0.0259609,0.202075,-0,0.203736,2000,-54999.2,0,55035.5,3.23673e+06
step02_gravity_refstate-mantle.xmf,902,-2.34212e-05,5.18357e-05,0,-6.26661e-06,-1.69528e+09,-1.68522e+09,-1.69215e+09,-837532,-0.0309008,0.0806189,-0,0.086338,1211.62,-58403.7,0,58416.2,837532
step02_gravity_refstate-mantle.xmf,903,4.70159e-06,-5.7017e-06,0,-3.54479e-06,-1.24367e+09,-1.24506e+09,-1.2443e+09,-473762,0.00924875,0.185235,0,0.185466,1743.69,-44494.3,0,44528.5,473762
step02_gravity_refstate-mantle.xmf,904,4.55329e-06,-4.97695e-06,0,-2.8361e-06,-1.21768e+09,-1.21895e+09,-1.21829e+09,-379045,0.00826686,0.181447,0,0.181635,1660.73,-43692.3,0,43723.9,379045
step02_gravity_refstate-mantle.xmf,905,3.86476e-06,-5.35349e-06,0,-5.87273e-06,-1.27826e+09,-1.27949e+09,-1.27877e+09,-784891,0.0138185,0.184965,0,0.185481,2509.33,-45558,0,45627.1,784891
step02_gravity_refstate-mantle.xmf,906,4.44872e-06,-4.31652e-06,0,-2.24446e-06,-1.19034e+09,-1.19151e+09,-1.19093e+09,-299972,0.00750525,0.177941,0,0.178099,1577.69,-42848.8,0,42877.8,299972
step02_gravity_refstate-mantle.xmf,907,4.70284e-06,-3.72455e-06,0,-8.43253e-07,-1.14589e+09,-1.14702e+09,-1.14652e+09,-112701,0.00379739,0.174712,0,0.174753,796.899,-41479,0,41486.6,112701
step02_gravity_refstate-mantle.xmf,908,2.15926e-06,-3.81547e-06,0,-8.0832e-06,-1.31271e+09,-1.31351e+09,-1.313e+09,-1.08032e+06,0.0175414,0.181201,0,0.182048,3212,-46614.9,0,46725.5,1.08032e+06
step02_gravity_refstate-mantle.xmf,909,1.52068e-06,-3.59959e-06,0,-9.32319e-06,-1.3374e+09,-1.33809e+09,-1.33761e+09,-1.24604e+06,0.0185555,0.183977,0,0.184911,3219.13,-47373.9,0,47483.2,1.24604e+06
step02_gravity_refstate-mantle.xmf,910,1.64144e-07,-2.16925e-06,0,-1.01685e-05,-1.35642e+09,-1.35674e+09,-1.35645e+09,-1.35903e+06,0.0192981,0.180855,0,0.181882,3480.87,-47956,0,48082.2,1.35903e+06
step02_gravity_refstate-mantle.xmf,911,-8.61262e-07,-1.32656e-06,0,-1.10517e-05,-1.37638e+09,-1.37645e+09,-1.37627e+09,-1.47706e+06,0.0193206,0.18129,0,0.182317,3512.77,-48567.8,0,48694.7,1.47706e+06
step02_gravity_refstate-mantle.xmf,912,-1.68782e-06,-4.92305e-07,0,-1.18796e-05,-1.39606e+09,-1.3959e+09,-1.39583e+09,-1.58771e+06,0.0188201,0.183746,0,0.184707,3435.12,-49172.3,0,49292.1,1.58771e+06
step02_gravity_refstate-mantle.xmf,913,-2.45795e-06,3.69956e-07,0,-1.25654e-05,-1.41369e+09,-1.41332e+09,-1.41337e+09,-1.67937e+06,0.0176988,0.185707,0,0.186549,3365.93,-49714.1,0,49827.9,1.67937e+06
step02_gravity_refstate-mantle.xmf,914,-3.46847e-06,1.95567e-06,0,-1.28796e-05,-1.43279e+09,-1.43207e+09,-1.43233e+09,-1.72135e+06,0.0152269,0.184952,0,0.185578,3370.96,-50301.3,0,50414.1,1.72135e+06
step02_gravity_refstate-mantle.xmf,915,-3.11751e-06,3.26015e-06,0,-1.61432e-05,-1.47266e+09,-1.4718e+09,-1.47224e+09,-2.15754e+06,0.00755291,0.201449,0,0.20159,2835.18,-51538.3,0,51616.3,2.15754e+06
step02_gravity_refstate-mantle.xmf,916,-4.17508e-06,8.66768e-06,0,-1.7246e-05,-1.50871e+09,-1.507e+09,-1.50816e+09,-2.30493e+06,-0.00468489,0.19481,-0,0.194866,2839.86,-52658.9,0,52735.4,2.30493e+06
step02_gravity_refstate-mantle.xmf,917,-3.53489e-06,5.73451e-06,0,-1.67476e-05,-1.49026e+09,-1.48902e+09,-1.48979e+09,-2.23831e+06,0.00183722,0.198867,0,0.198876,2839.83,-52085.6,0,52163,2.23831e+06
step02_gravity_refstate-mantle.xmf,918,-4.70729e-06,1.08986e-05,0,-1.79629e-05,-1.5225e+09,-1.52042e+09,-1.52187e+09,-2.40074e+06,-0.00947394,0.193775,-0,0.194007,2773.69,-53087,0,53159.4,2.40074e+06
step02_gravity_refstate-mantle.xmf,919,-5.44989e-06,1.37093e-05,0,-1.71064e-05,-1.53735e+09,-1.53478e+09,-1.53662e+09,-2.28627e+06,-0.0156076,0.183251,-0,0.183914,2876.9,-53547.8,0,53625,2.28627e+06
step02_gravity_refstate-mantle.xmf,920,-6.28613e-06,1.65121e-05,0,-1.80893e-05,-1.55253e+09,-1.54948e+09,-1.55169e+09,-2.41764e+06,-0.0205603,0.183057,-0,0.184208,2732.65,-54018.3,0,54087.4,2.41764e+06
step02_gravity_refstate-mantle.xmf,921,-6.96477e-06,1.90538e-05,0,-1.71784e-05,-1.56687e+09,-1.56339e+09,-1.56594e+09,-2.2959e+06,-0.0263824,0.172636,-0,0.17464,2785.06,-54463.3,0,54534.4,2.2959e+06
step02_gravity_refstate-mantle.xmf,922,-9.36191e-06,2.52707e-05,0,-1.98477e-05,-1.58903e+09,-1.5844e+09,-1.58778e+09,-2.65264e+06,-0.031162,0.178005,-0,0.180712,2368.67,-55147.7,0,55198.6,2.65264e+06
step02_gravity_refstate-mantle.xmf,923,-1.15387e-05,3.00905e-05,0,-2.2855e-05,-1.60045e+09,-1.59489e+09,-1.59891e+09,-3.05457e+06,-0.0311556,0.188198,-0,0.19076,2000,-55498.3,0,55534.3,3.05457e+06
step02_gravity_refstate-mantle.xmf,924,-2.22359e-05,4.87451e-05,0,-1.01472e-05,-1.68221e+09,-1.67272e+09,-1.67924e+09,-1.35617e+06,-0.0376193,0.0969433,-0,0.103987,1499.28,-58000,0,58019.4,1.35617e+06
step02_gravity_refstate-mantle.xmf,925,-2.31371e-05,5.08024e-05,0,-4.1478e-06,-1.71176e+09,-1.70188e+09,-1.70867e+09,-554353,-0.0297371,0.0548283,-0,0.0623733,1178.65,-58912,0,58923.8,554353
step02_gravity_refstate-mantle.xmf,926,-2.42773e-05,5.20189e-05,0,-1.55757e-06,-1.73047e+09,-1.72027e+09,-1.72723e+09,-208169,-0.0225951,0.0266773,-0,0.0349603,891.234,-59485.5,0,59492.2,208169
step02_gravity_refstate-mantle.xmf,927,-2.51516e-05,5.31219e-05,0,3.05817e-08,-1.74722e+09,-1.73676e+09,-1.74386e+09,4087.24,-0.0152596,-3.4196e-19,-0,0.0152596,596.939,-60000,0,60003,4087.24
step02_gravity_refstate-mantle.xmf,928,3.91395e-06,-4.91552e-06,0,-4.90282e-06,-1.25452e+09,-1.2557e+09,-1.25504e+09,-655262,0.0126357,0.181805,0,0.182244,2445.75,-44826.1,0,44892.8,655262
step02_gravity_refstate-mantle.xmf,929,4.41523e-06,-3.65821e-06,0,-1.78538e-06,-1.16028e+09,-1.16136e+09,-1.16087e+09,-238616,0.00721633,0.17438,0,0.17453,1547.91,-41921.8,0,41950.4,238616
step02_gravity_refstate-mantle.xmf,930,4.86171e-06,-3.36048e-06,0,-6.16059e-07,-1.12149e+09,-1.12259e+09,-1.12214e+09,-82336.3,0.00353771,0.172182,0,0.172218,720.088,-40727.4,0,40733.8,82336.3
step02_gravity_refstate-mantle.xmf,931,2.61999e-06,-3.88024e-06,0,-7.00227e-06,-1.28933e+09,-1.2902e+09,-1.28968e+09,-935853,0.016443,0.178973,0,0.179727,3169.2,-45895.5,0,46004.8,935853
step02_gravity_refstate-mantle.xmf,932,-3.59762e-06,2.46203e-06,0,-1.36874e-05,-1.44876e+09,-1.44795e+09,-1.44828e+09,-1.82932e+06,0.0127116,0.189417,0,0.189843,3202.85,-50794.9,0,50895.8,1.82932e+06
step02_gravity_refstate-mantle.xmf,933,-3.99459e-06,4.27377e-06,0,-1.36554e-05,-1.46425e+09,-1.46314e+09,-1.46371e+09,-1.82504e+06,0.00857271,0.186127,0,0.186324,3250.61,-51275.4,0,51378.3,1.82504e+06
step02_gravity_refstate-mantle.xmf,934,-7.81315e-06,2.22298e-05,0,-1.64227e-05,-1.58385e+09,-1.57983e+09,-1.5828e+09,-2.1949e+06,-0.0328007,0.162057,-0,0.165343,2778.16,-54990.2,0,55060.3,2.1949e+06
step02_gravity_refstate-mantle.xmf,935,-1.29535e-05,3.4104e-05,0,-2.14035e-05,-1.61659e+09,-1.61031e+09,-1.61486e+09,-2.86058e+06,-0.0362247,0.172234,-0,0.176002,2000,-55997.8,0,56033.5,2.86058e+06
step02_gravity_refstate-mantle.xmf,936,-1.06785e-05,3.00238e-05,0,-1.8006e-05,-1.61204e+09,-1.6066e+09,-1.61061e+09,-2.4065e+06,-0.0390243,0.158829,-0,0.163553,2356.56,-55861.9,0,55911.6,2.4065e+06
step02_gravity_refstate-mantle.xmf,937,-8.95602e-06,2.60592e-05,0,-1.61958e-05,-1.60073e+09,-1.59605e+09,-1.59953e+09,-2.16457e+06,-0.0380474,0.154834,-0,0.159441,2657.93,-55513.9,0,55577.5,2.16457e+06
step02_gravity_refstate-mantle.xmf,938,-1.12028e-05,3.26508e-05,0,-1.63302e-05,-1.62501e+09,-1.61915e+09,-1.62351e+09,-2.18253e+06,-0.0435366,0.14509,-0,0.151481,2380.04,-56265.7,0,56316,2.18253e+06
step02_gravity_refstate-mantle.xmf,939,-1.41111e-05,3.82524e-05,0,-1.93255e-05,-1.63269e+09,-1.62569e+09,-1.6308e+09,-2.58285e+06,-0.0410069,0.15415,-0,0.159511,2000,-56497.8,0,56533.2,2.58285e+06
step02_gravity_refstate-mantle.xmf,940,-2.08175e-05,4.78104e-05,0,-6.50562e-06,-1.70079e+09,-1.69162e+09,-1.69801e+09,-869476,-0.0383323,0.0677209,-0,0.077817,1553.58,-58581,0,58601.6,869476
step02_gravity_refstate-mantle.xmf,941,3.95472e-06,-4.43356e-06,0,-4.08822e-06,-1.22931e+09,-1.23043e+09,-1.22984e+09,-546391,0.0116076,0.178688,0,0.179065,2381.79,-44049,0,44113.4,546391
step02_gravity_refstate-mantle.xmf,942,3.94525e-06,-3.92944e-06,0,-3.39584e-06,-1.20312e+09,-1.20417e+09,-1.20365e+09,-453854,0.0108797,0.175618,0,0.175954,2338.72,-43241.3,0,43304.5,453854
step02_gravity_refstate-mantle.xmf,943,2.92813e-06,-3.78249e-06,0,-6.03103e-06,-1.26563e+09,-1.26653e+09,-1.26602e+09,-806047,0.0153728,0.176701,0,0.177368,3122.21,-45165.7,0,45273.5,806047
step02_gravity_refstate-mantle.xmf,944,3.9738e-06,-3.47365e-06,0,-2.79096e-06,-1.17586e+09,-1.17685e+09,-1.17639e+09,-373012,0.0104158,0.172766,0,0.17308,2297.05,-42400.4,0,42462.6,373012
step02_gravity_refstate-mantle.xmf,945,4.60846e-06,-3.18914e-06,0,-1.33217e-06,-1.12663e+09,-1.12767e+09,-1.12724e+09,-178045,0.00720499,0.17097,0,0.171122,1504.34,-40884.7,0,40912.4,178045
step02_gravity_refstate-mantle.xmf,946,5.12309e-06,-3.16465e-06,0,-6.07e-07,-1.09787e+09,-1.09898e+09,-1.09856e+09,-81125.5,0.00508461,0.169403,0,0.169479,979.295,-40000,0,40012,81125.5
step02_gravity_refstate-mantle.xmf,947,1.25666e-06,-2.17287e-06,0,-7.67927e-06,-1.30048e+09,-1.30094e+09,-1.30065e+09,-1.02633e+06,0.0180932,0.171406,0,0.172358,3807.36,-46235.1,0,46391.6,1.02633e+06
step02_gravity_refstate-mantle.xmf,948,5.98122e-07,-1.75662e-06,0,-8.56977e-06,-1.32325e+09,-1.32357e+09,-1.32333e+09,-1.14535e+06,0.0187557,0.172436,0,0.173453,3833.56,-46935.3,0,47091.6,1.14535e+06
step02_gravity_refstate-mantle.xmf,949,-1.23628e-06,-1.13109e-07,0,-1.0065e-05,-1.36581e+09,-1.36566e+09,-1.36565e+09,-1.34518e+06,0.0190601,0.172322,0,0.173373,3918.36,-48241.9,0,48400.8,1.34518e+06
step02_gravity_refstate-mantle.xmf,950,-2.50491e-07,-1.05805e-06,0,-9.3672e-06,-1.34473e+09,-1.34484e+09,-1.3447e+09,-1.25193e+06,0.019141,0.172601,0,0.173659,3881,-47594.9,0,47752.8,1.25193e+06
step02_gravity_refstate-mantle.xmf,951,-2.25471e-06,8.26776e-07,0,-1.06803e-05,-1.38615e+09,-1.38573e+09,-1.38584e+09,-1.42742e+06,0.0183839,0.172105,0,0.173084,3919.82,-48865.6,0,49022.6,1.42742e+06
step02_gravity_refstate-mantle.xmf,952,-3.5898e-06,2.52294e-06,0,-1.15747e-05,-1.42117e+09,-1.42035e+09,-1.42069e+09,-1.54696e+06,0.0156639,0.174709,0,0.17541,3747,-49942.8,0,50083.2,1.54696e+06
step02_gravity_refstate-mantle.xmf,953,-3.23317e-06,2.23139e-06,0,-1.094e-05,-1.40643e+09,-1.4057e+09,-1.406e+09,-1.46213e+06,0.0168411,0.171167,0,0.171994,3920.85,-49489.4,0,49644.5,1.46213e+06
step02_gravity_refstate-mantle.xmf,954,-4.49584e-06,4.69609e-06,0,-1.17309e-05,-1.45108e+09,-1.44985e+09,-1.45048e+09,-1.56783e+06,0.0101605,0.172837,0,0.173136,3697.82,-50866.2,0,51000.4,1.56783e+06
step02_gravity_refstate-mantle.xmf,955,-4.1966e-06,6.2043e-06,0,-1.3826e-05,-1.48191e+09,-1.48052e+09,-1.48135e+09,-1.84785e+06,0.00302749,0.18267,0,0.182695,3268.09,-51824.5,0,51927.4,1.84785e+06
step02_gravity_refstate-mantle.xmf,956,-4.89731e-06,1.11768e-05,0,-1.44868e-05,-1.52139e+09,-1.51924e+09,-1.52074e+09,-1.93616e+06,-0.0112077,0.173982,-0,0.174343,3224.78,-53052.1,0,53150,1.93616e+06
step02_gravity_refstate-mantle.xmf,957,-4.45379e-06,8.47266e-06,0,-1.41272e-05,-1.5009e+09,-1.49918e+09,-1.50031e+09,-1.8881e+06,-0.0036323,0.178571,-0,0.178608,3264.03,-52415.3,0,52516.9,1.8881e+06
step02_gravity_refstate-mantle.xmf,958,-5.87469e-06,1.62095e-05,0,-1.43225e-05,-1.55468e+09,-1.55173e+09,-1.5539e+09,-1.9142e+06,-0.0242024,0.161417,-0,0.163222,3188.37,-54086.8,0,54180.7,1.9142e+06
step02_gravity_refstate-mantle.xmf,959,-6.42421e-06,1.91037e-05,0,-1.35279e-05,-1.57448e+09,-1.57107e+09,-1.57363e+09,-1.808e+06,-0.0322234,0.149814,-0,0.15324,3206.44,-54702.3,0,54796.2,1.808e+06
step02_gravity_refstate-mantle.xmf,960,-9.02887e-06,2.8095e-05,0,-1.41165e-05,-1.61741e+09,-1.61245e+09,-1.61621e+09,-1.88667e+06,-0.0447449,0.137099,-0,0.144216,2744.86,-56033.9,0,56101.1,1.88667e+06
step02_gravity_refstate-mantle.xmf,961,-1.11379e-05,3.48102e-05,0,-1.38034e-05,-1.64043e+09,-1.63429e+09,-1.63894e+09,-1.84482e+06,-0.0487669,0.126678,-0,0.135741,2433.18,-56748,0,56800.2,1.84482e+06
step02_gravity_refstate-mantle.xmf,962,-1.49619e-05,4.19021e-05,0,-1.66562e-05,-1.64877e+09,-1.64117e+09,-1.64677e+09,-2.2261e+06,-0.0451743,0.133993,-0,0.141403,2000,-56998.3,0,57033.3,2.2261e+06
step02_gravity_refstate-mantle.xmf,963,-1.5225e-05,4.62471e-05,0,-1.27489e-05,-1.66465e+09,-1.65644e+09,-1.66262e+09,-1.70389e+06,-0.0481018,0.111862,-0,0.121766,2000,-57498.2,0,57532.9,1.70389e+06
step02_gravity_refstate-mantle.xmf,964,-1.08269e-05,3.56417e-05,0,-1.19123e-05,-1.65614e+09,-1.64993e+09,-1.6547e+09,-1.59208e+06,-0.0530345,0.107743,-0,0.120088,2479.54,-57237.6,0,57291.3,1.59208e+06
step02_gravity_refstate-mantle.xmf,965,-1.78959e-05,4.3885e-05,0,-6.68544e-06,-1.69779e+09,-1.68954e+09,-1.6954e+09,-893509,-0.047294,0.0659067,-0,0.0811198,2016.77,-58498,0,58532.7,893509
step02_gravity_refstate-mantle.xmf,966,-1.96071e-05,4.59433e-05,0,-4.3652e-06,-1.71445e+09,-1.70569e+09,-1.71183e+09,-583409,-0.0422794,0.0456491,-0,0.0622204,1768.79,-59006.2,0,59032.7,583409
step02_gravity_refstate-mantle.xmf,967,-2.14288e-05,4.8159e-05,0,-2.09261e-06,-1.73034e+09,-1.72104e+09,-1.72747e+09,-279677,-0.0361275,0.0245061,-0,0.0436548,1483.41,-59490.6,0,59509.1,279677
step02_gravity_refstate-mantle.xmf,968,-2.29094e-05,5.01201e-05,0,2.2947e-10,-1.74699e+09,-1.73723e+09,-1.74393e+09,30.6687,-0.0296086,-2.92413e-19,-0,0.0296086,1193.88,-60000,0,60011.9,30.6687
step02_gravity_refstate-mantle.xmf,969,3.10839e-06,-3.56853e-06,0,-5.1454e-06,-1.2409e+09,-1.24179e+09,-1.24131e+09,-687683,0.0144265,0.174282,0,0.174878,3083.29,-44403.6,0,44510.5,687683
step02_gravity_refstate-mantle.xmf,970,4.06649e-06,-3.0397e-06,0,-2.27999e-06,-1.14757e+09,-1.14851e+09,-1.14811e+09,-304721,0.0104224,0.169952,0,0.170272,2293.3,-41528.2,0,41591.5,304721
step02_gravity_refstate-mantle.xmf,971,1.76792e-06,-2.39404e-06,0,-6.79845e-06,-1.2769e+09,-1.27745e+09,-1.27713e+09,-908613,0.0173083,0.170099,0,0.170978,3778.18,-45509.6,0,45666.2,908613
step02_gravity_refstate-mantle.xmf,972,-2.55411e-06,2.01566e-06,0,-9.48126e-06,-1.37582e+09,-1.37521e+09,-1.37548e+09,-1.26717e+06,0.0177405,0.161537,0,0.162508,4424.61,-48547.7,0,48748.9,1.26717e+06
step02_gravity_refstate-mantle.xmf,973,-4.25399e-06,3.94865e-06,0,-1.12553e-05,-1.43388e+09,-1.43279e+09,-1.43331e+09,-1.50427e+06,0.0131832,0.170476,0,0.170985,3852.93,-50334.8,0,50482,1.50427e+06
step02_gravity_refstate-mantle.xmf,974,-4.74458e-06,6.68853e-06,0,-1.15013e-05,-1.47241e+09,-1.47088e+09,-1.47177e+09,-1.53715e+06,0.0040468,0.168086,0,0.168134,3729.61,-51528.5,0,51663.3,1.53715e+06
step02_gravity_refstate-mantle.xmf,975,-5.32006e-06,1.36255e-05,0,-1.35798e-05,-1.53835e+09,-1.53582e+09,-1.53764e+09,-1.81494e+06,-0.0185598,0.162279,-0,0.163337,3351.38,-53579.6,0,53684.3,1.81494e+06
step02_gravity_refstate-mantle.xmf,976,-6.88926e-06,2.18185e-05,0,-1.27621e-05,-1.59248e+09,-1.58864e+09,-1.59156e+09,-1.70566e+06,-0.0391252,0.139273,-0,0.144664,3182.81,-55262,0,55353.6,1.70566e+06
step02_gravity_refstate-mantle.xmf,977,-9.29855e-06,3.03025e-05,0,-1.28726e-05,-1.63117e+09,-1.62588e+09,-1.62993e+09,-1.72043e+06,-0.0491839,0.124835,-0,0.134174,2737.83,-56462.7,0,56529.1,1.72043e+06
step02_gravity_refstate-mantle.xmf,978,-1.18659e-05,3.78781e-05,0,-1.10636e-05,-1.67259e+09,-1.66594e+09,-1.671e+09,-1.47865e+06,-0.054699,0.0898589,-0,0.105198,2446.27,-57744.4,0,57796.2,1.47865e+06
step02_gravity_refstate-mantle.xmf,979,-1.71761e-05,4.37574e-05,0,-9.0744e-06,-1.68153e+09,-1.67338e+09,-1.67923e+09,-1.21279e+06,-0.0479158,0.0878437,-0,0.100062,2000,-58000,0,58034.5,1.21279e+06
step02_gravity_refstate-mantle.xmf,980,3.25594e-06,-3.2753e-06,0,-4.39941e-06,-1.21548e+09,-1.21635e+09,-1.21591e+09,-587981,0.0136927,0.17186,0,0.172405,3053.64,-43620,0,43726.7,587981
step02_gravity_refstate-mantle.xmf,981,3.3809e-06,-2.97801e-06,0,-3.70139e-06,-1.1886e+09,-1.18945e+09,-1.18905e+09,-494690,0.0131858,0.169513,0,0.170026,3022.03,-42791.4,0,42897.9,494690
step02_gravity_refstate-mantle.xmf,982,2.14626e-06,-2.45376e-06,0,-5.96615e-06,-1.25259e+09,-1.2532e+09,-1.25287e+09,-797376,0.0165394,0.168539,0,0.169348,3754.24,-44761,0,44918.1,797376
step02_gravity_refstate-mantle.xmf,983,3.52673e-06,-2.72065e-06,0,-3.08751e-06,-1.16223e+09,-1.16307e+09,-1.1627e+09,-412646,0.0129863,0.167433,0,0.167936,2987.64,-41978.5,0,42084.7,412646
step02_gravity_refstate-mantle.xmf,984,4.74541e-06,-2.86258e-06,0,-1.1991e-06,-1.09793e+09,-1.09895e+09,-1.09856e+09,-160260,0.00991494,0.16685,0,0.167144,1958.59,-40000,0,40047.9,160260
step02_gravity_refstate-mantle.xmf,985,4.17938e-06,-2.69604e-06,0,-1.92201e-06,-1.12087e+09,-1.12178e+09,-1.12142e+09,-256877,0.0115165,0.166796,0,0.167193,2462.64,-40705.1,0,40779.6,256877
step02_gravity_refstate-mantle.xmf,986,5.67758e-07,-8.79635e-07,0,-7.19137e-06,-1.28834e+09,-1.28853e+09,-1.28842e+09,-961127,0.0183421,0.162278,0,0.163311,4415.72,-45858.9,0,46071,961127
step02_gravity_refstate-mantle.xmf,987,-6.75372e-08,-4.15889e-07,0,-7.89259e-06,-1.31137e+09,-1.31142e+09,-1.31137e+09,-1.05484e+06,0.0186934,0.162656,0,0.163727,4424.5,-46567.4,0,46777.1,1.05484e+06
step02_gravity_refstate-mantle.xmf,988,-8.31596e-07,2.49998e-07,0,-8.53019e-06,-1.33347e+09,-1.33332e+09,-1.33336e+09,-1.14006e+06,0.0188002,0.162552,0,0.163636,4438.07,-47246.4,0,47454.4,1.14006e+06
step02_gravity_refstate-mantle.xmf,989,-1.64319e-06,1.00577e-06,0,-9.09843e-06,-1.35515e+09,-1.35479e+09,-1.35493e+09,-1.216e+06,0.0185589,0.162589,0,0.163645,4416.49,-47912.6,0,48115.8,1.216e+06
step02_gravity_refstate-mantle.xmf,990,-3.46543e-06,3.03416e-06,0,-9.74069e-06,-1.39596e+09,-1.39509e+09,-1.39549e+09,-1.30184e+06,0.016243,0.16017,0,0.160992,4417.19,-49166.2,0,49364.2,1.30184e+06
step02_gravity_refstate-mantle.xmf,991,-4.26383e-06,4.19829e-06,0,-1.03123e-05,-1.42372e+09,-1.42259e+09,-1.42315e+09,-1.37824e+06,0.0135896,0.162945,0,0.163511,4176.21,-50021.6,0,50195.6,1.37824e+06
step02_gravity_refstate-mantle.xmf,992,-4.84767e-06,5.75258e-06,0,-9.91855e-06,-1.44293e+09,-1.44152e+09,-1.44229e+09,-1.32561e+06,0.00955304,0.158385,0,0.158673,4238.21,-50615,0,50792.2,1.32561e+06
step02_gravity_refstate-mantle.xmf,993,-4.79801e-06,8.45215e-06,0,-1.15233e-05,-1.4921e+09,-1.49033e+09,-1.49146e+09,-1.54009e+06,-0.00253712,0.163809,-0,0.163829,3721.28,-52141,0,52273.6,1.54009e+06
step02_gravity_refstate-mantle.xmf,994,-4.8935e-06,1.04129e-05,0,-1.14696e-05,-1.51141e+09,-1.50936e+09,-1.51075e+09,-1.53292e+06,-0.00975871,0.158105,-0,0.158406,3724.03,-52741.8,0,52873.1,1.53292e+06
step02_gravity_refstate-mantle.xmf,995,-5.03933e-06,1.24818e-05,0,-1.122e-05,-1.53016e+09,-1.52782e+09,-1.52949e+09,-1.49955e+06,-0.0172805,0.150804,-0,0.151791,3742.55,-53325.5,0,53456.6,1.49955e+06
step02_gravity_refstate-mantle.xmf,996,-5.2033e-06,1.45634e-05,0,-1.10173e-05,-1.54816e+09,-1.54552e+09,-1.54747e+09,-1.47247e+06,-0.0245312,0.14391,-0,0.145986,3724.28,-53885.7,0,54014.2,1.47247e+06
step02_gravity_refstate-mantle.xmf,997,-5.44288e-06,1.66847e-05,0,-1.09308e-05,-1.56531e+09,-1.56235e+09,-1.56458e+09,-1.4609e+06,-0.0312081,0.137975,-0,0.141461,3656.85,-54419.3,0,54542,1.4609e+06
step02_gravity_refstate-mantle.xmf,998,-5.58968e-06,1.87767e-05,0,-1.03157e-05,-1.58377e+09,-1.58052e+09,-1.58303e+09,-1.37869e+06,-0.0386186,0.128138,-0,0.133831,3646.36,-54994,0,55114.7,1.37869e+06
step02_gravity_refstate-mantle.xmf,999,-7.16332e-06,2.42723e-05,0,-1.17521e-05,-1.60999e+09,-1.60578e+09,-1.60903e+09,-1.57066e+06,-0.0455584,0.127382,-0,0.135284,3164.44,-55807.2,0,55896.8,1.57066e+06
step02_gravity_refstate-mantle.xmf,1000,-7.23777e-06,2.62655e-05,0,-1.06976e-05,-1.62754e+09,-1.62306e+09,-1.62657e+09,-1.42973e+06,-0.0514722,0.114058,-0,0.125134,3148.53,-56354,0,56441.8,1.42973e+06
step02_gravity_refstate-mantle.xmf,1001,-7.91795e-06,2.9323e-05,0,-1.03342e-05,-1.64553e+09,-1.64055e+09,-1.64447e+09,-1.38116e+06,-0.0553699,0.103598,-0,0.117467,2977.92,-56913,0,56990.9,1.38116e+06
step02_gravity_refstate-mantle.xmf,1002,-8.52451e-06,3.15366e-05,0,-9.63294e-06,-1.66428e+09,-1.65892e+09,-1.66314e+09,-1.28744e+06,-0.0587127,0.0871787,-0,0.105106,2925.88,-57493.7,0,57568.1,1.28744e+06
step02_gravity_refstate-mantle.xmf,1003,-1.42276e-05,3.95991e-05,0,-8.86988e-06,-1.6888e+09,-1.68161e+09,-1.6869e+09,-1.18546e+06,-0.054864,0.0705144,-0,0.0893439,2465.73,-58233.7,0,58285.9,1.18546e+06
step02_gravity_refstate-mantle.xmf,1004,-1.01772e-05,3.37492e-05,0,-8.67315e-06,-1.68094e+09,-1.67507e+09,-1.67958e+09,-1.15917e+06,-0.0599781,0.0711309,-0,0.0930429,2897.52,-58003,0,58075.3,1.15917e+06
step02_gravity_refstate-mantle.xmf,1005,-1.63879e-05,4.13748e-05,0,-4.43439e-06,-1.71489e+09,-1.70717e+09,-1.7127e+09,-592656,-0.0518412,0.040252,-0,0.0656333,2300.75,-59029.7,0,59074.5,592656
step02_gravity_refstate-mantle.xmf,1006,-1.80798e-05,4.35454e-05,0,-2.20264e-06,-1.73057e+09,-1.72233e+09,-1.72815e+09,-294383,-0.0475168,0.0214179,-0,0.0521207,2060.24,-59508.2,0,59543.9,294383
step02_gravity_refstate-mantle.xmf,1007,-1.97354e-05,4.57892e-05,0,-1.06939e-08,-1.74666e+09,-1.7379e+09,-1.74402e+09,-1429.25,-0.0423408,-2.47338e-19,-0,0.0423408,1790.83,-60000,0,60026.7,1429.25
step02_gravity_refstate-mantle.xmf,1008,2.40585e-06,-2.39918e-06,0,-5.188e-06,-1.22749e+09,-1.22813e+09,-1.22781e+09,-693376,0.0159188,0.166712,0,0.16747,3748.45,-43987.6,0,44147,693376
step02_gravity_refstate-mantle.xmf,1009,3.71792e-06,-2.55856e-06,0,-2.56861e-06,-1.13968e+09,-1.14052e+09,-1.14018e+09,-343295,0.0129474,0.166009,0,0.166513,2918.34,-41283.7,0,41386.7,343295
step02_gravity_refstate-mantle.xmf,1010,1.09347e-06,-1.18661e-06,0,-6.46161e-06,-1.26413e+09,-1.26444e+09,-1.26428e+09,-863594,0.0178769,0.161561,0,0.162547,4408.7,-45113.9,0,45328.8,863594
step02_gravity_refstate-mantle.xmf,1011,-2.75584e-06,2.82421e-06,0,-8.45564e-06,-1.36559e+09,-1.36485e+09,-1.36523e+09,-1.1301e+06,0.016917,0.151689,0,0.15263,4959.5,-48232.5,0,48486.8,1.1301e+06
step02_gravity_refstate-mantle.xmf,1012,-3.56833e-06,3.89444e-06,0,-8.53125e-06,-1.38624e+09,-1.38524e+09,-1.38576e+09,-1.1402e+06,0.0152879,0.149546,0,0.150325,4962.5,-48867.4,0,49118.8,1.1402e+06
step02_gravity_refstate-mantle.xmf,1013,-4.11327e-06,4.2266e-06,0,-9.5233e-06,-1.41165e+09,-1.41053e+09,-1.4111e+09,-1.27279e+06,0.0141671,0.15705,0,0.157688,4476.76,-49649.7,0,49851.1,1.27279e+06
step02_gravity_refstate-mantle.xmf,1014,-5.06495e-06,6.98486e-06,0,-9.65136e-06,-1.46225e+09,-1.46064e+09,-1.46158e+09,-1.2899e+06,0.0045831,0.154562,0,0.15463,4239.59,-51213.6,0,51388.8,1.2899e+06
step02_gravity_refstate-mantle.xmf,1015,-5.07953e-06,8.50816e-06,0,-9.35576e-06,-1.48226e+09,-1.48045e+09,-1.48159e+09,-1.2504e+06,-0.00167249,0.149788,-0,0.149797,4239.13,-51835.5,0,52008.5,1.2504e+06
step02_gravity_refstate-mantle.xmf,1016,-5.60412e-06,2.07636e-05,0,-9.48468e-06,-1.60172e+09,-1.5982e+09,-1.60097e+09,-1.26763e+06,-0.0455873,0.117159,-0,0.125716,3643.32,-55553.4,0,55672.8,1.26763e+06
step02_gravity_refstate-mantle.xmf,1017,-7.66882e-06,2.95356e-05,0,-7.7291e-06,-1.67478e+09,-1.66981e+09,-1.67376e+09,-1.03299e+06,-0.0629216,0.0695809,-0,0.0938117,3285.04,-57818.8,0,57912.1,1.03299e+06
step02_gravity_refstate-mantle.xmf,1018,-1.46315e-05,3.91899e-05,0,-6.31202e-06,-1.7023e+09,-1.6951e+09,-1.70034e+09,-843602,-0.0553731,0.0534585,-0,0.0769675,2518.1,-58646.9,0,58701,843602
step02_gravity_refstate-mantle.xmf,1019,2.64173e-06,-2.26484e-06,0,-4.48767e-06,-1.20138e+09,-1.20204e+09,-1.20173e+09,-599777,0.0154847,0.164914,0,0.165639,3739.66,-43183.1,0,43344.7,599777
step02_gravity_refstate-mantle.xmf,1020,2.8826e-06,-2.15252e-06,0,-3.78956e-06,-1.17369e+09,-1.17437e+09,-1.17408e+09,-506475,0.0152595,0.163311,0,0.164023,3704.28,-42329.7,0,42491.5,506475
step02_gravity_refstate-mantle.xmf,1021,1.50536e-06,-1.35653e-06,0,-5.76257e-06,-1.23979e+09,-1.24018e+09,-1.23999e+09,-770167,0.0174356,0.160641,0,0.161585,4403.37,-44364.3,0,44582.3,770167
step02_gravity_refstate-mantle.xmf,1022,3.12216e-06,-2.05334e-06,0,-3.1593e-06,-1.14755e+09,-1.14824e+09,-1.14797e+09,-422241,0.0153626,0.161936,0,0.162663,3659.61,-41523.9,0,41684.9,422241
step02_gravity_refstate-mantle.xmf,1023,3.54726e-06,-2.12453e-06,0,-2.46087e-06,-1.12187e+09,-1.12263e+09,-1.12235e+09,-328896,0.0151183,0.161928,0,0.162632,3400.03,-40733.5,0,40875.2,328896
step02_gravity_refstate-mantle.xmf,1024,4.15056e-06,-2.37775e-06,0,-1.69455e-06,-1.09802e+09,-1.09889e+09,-1.09857e+09,-226476,0.0142807,0.162765,0,0.16339,2938.83,-40000,0,40107.8,226476
step02_gravity_refstate-mantle.xmf,1025,4.38562e-08,1.46657e-07,0,-6.65193e-06,-1.27598e+09,-1.27597e+09,-1.27599e+09,-889030,0.0183896,0.153593,0,0.15469,5050.47,-45476.3,0,45755.9,889030
step02_gravity_refstate-mantle.xmf,1026,-5.81443e-07,6.58048e-07,0,-7.21525e-06,-1.29992e+09,-1.29975e+09,-1.29984e+09,-964318,0.0184342,0.153368,0,0.154472,5048.52,-46212.8,0,46487.7,964318
step02_gravity_refstate-mantle.xmf,1027,-1.22158e-06,1.22033e-06,0,-7.71122e-06,-1.32198e+09,-1.32166e+09,-1.32182e+09,-1.0306e+06,0.0182933,0.153197,0,0.154285,5020.56,-46891.5,0,47159.5,1.0306e+06
step02_gravity_refstate-mantle.xmf,1028,-2.11094e-06,2.17821e-06,0,-8.02575e-06,-1.34455e+09,-1.34397e+09,-1.34426e+09,-1.07264e+06,0.0176337,0.151025,0,0.152051,5083.48,-47585,0,47855.8,1.07264e+06
step02_gravity_refstate-mantle.xmf,1029,-4.32415e-06,4.96285e-06,0,-8.48302e-06,-1.40713e+09,-1.40588e+09,-1.40655e+09,-1.13376e+06,0.0128053,0.146887,0,0.147444,4954.94,-49510.4,0,49757.7,1.13376e+06
step02_gravity_refstate-mantle.xmf,1030,-4.80931e-06,6.00043e-06,0,-8.53489e-06,-1.42816e+09,-1.42671e+09,-1.42752e+09,-1.14069e+06,0.00998982,0.14704,0,0.147379,4792.1,-50159.5,0,50387.9,1.14069e+06
step02_gravity_refstate-mantle.xmf,1031,-5.16535e-06,7.36948e-06,0,-8.09008e-06,-1.4517e+09,-1.45002e+09,-1.45101e+09,-1.08124e+06,0.0046252,0.142224,0,0.1423,4793.18,-50887.9,0,51113.1,1.08124e+06
step02_gravity_refstate-mantle.xmf,1032,-4.9923e-06,9.98995e-06,0,-9.08815e-06,-1.50177e+09,-1.49977e+09,-1.5011e+09,-1.21463e+06,-0.00866244,0.144027,-0,0.144287,4245.83,-52442.4,0,52614,1.21463e+06
step02_gravity_refstate-mantle.xmf,1033,-4.87723e-06,1.15817e-05,0,-8.80324e-06,-1.52139e+09,-1.51919e+09,-1.52073e+09,-1.17655e+06,-0.016274,0.137345,-0,0.138306,4250.28,-53053.1,0,53223.1,1.17655e+06
step02_gravity_refstate-mantle.xmf,1034,-4.76851e-06,1.32538e-05,0,-8.51454e-06,-1.5408e+09,-1.53839e+09,-1.54016e+09,-1.13797e+06,-0.0240815,0.130199,-0,0.132407,4239.43,-53657.9,0,53825.1,1.13797e+06
step02_gravity_refstate-mantle.xmf,1035,-4.72151e-06,1.5034e-05,0,-8.359e-06,-1.5597e+09,-1.55706e+09,-1.55907e+09,-1.11718e+06,-0.0315596,0.123797,-0,0.127757,4176.97,-54246.5,0,54407.1,1.11718e+06
step02_gravity_refstate-mantle.xmf,1036,-4.81156e-06,1.67442e-05,0,-8.48409e-06,-1.57554e+09,-1.57266e+09,-1.57489e+09,-1.1339e+06,-0.037421,0.119842,-0,0.125548,4049.02,-54739.6,0,54889.1,1.1339e+06
step02_gravity_refstate-mantle.xmf,1037,-4.49506e-06,1.78566e-05,0,-7.56841e-06,-1.59311e+09,-1.59012e+09,-1.59251e+09,-1.01152e+06,-0.0447478,0.108172,-0,0.117062,4123.57,-55287.4,0,55440.9,1.01152e+06
step02_gravity_refstate-mantle.xmf,1038,-5.52321e-06,2.25423e-05,0,-8.65823e-06,-1.61994e+09,-1.61619e+09,-1.6192e+09,-1.15717e+06,-0.0520702,0.105262,-0,0.117437,3629.92,-56121.1,0,56238.4,1.15717e+06
step02_gravity_refstate-mantle.xmf,1039,-5.55448e-06,2.42025e-05,0,-8.04373e-06,-1.63903e+09,-1.63505e+09,-1.63829e+09,-1.07505e+06,-0.057779,0.0924641,-0,0.109032,3587.51,-56715,0,56828.3,1.07505e+06
step02_gravity_refstate-mantle.xmf,1040,-5.96962e-06,2.62115e-05,0,-7.45825e-06,-1.6605e+09,-1.6562e+09,-1.65971e+09,-996795,-0.0624862,0.0768982,-0,0.0990851,3530.66,-57380.6,0,57489.1,996795
step02_gravity_refstate-mantle.xmf,1041,-8.27526e-06,3.00891e-05,0,-6.41859e-06,-1.68902e+09,-1.68389e+09,-1.68791e+09,-857844,-0.0648132,0.0550404,-0,0.0850305,3374.14,-58255.9,0,58353.6,857844
step02_gravity_refstate-mantle.xmf,1042,-1.16232e-05,3.50708e-05,0,-6.68312e-06,-1.69707e+09,-1.69083e+09,-1.69551e+09,-893198,-0.0605704,0.0539352,-0,0.0811036,2914.22,-58495,0,58567.5,893198
step02_gravity_refstate-mantle.xmf,1043,-1.28843e-05,3.63369e-05,0,-4.46865e-06,-1.71348e+09,-1.7069e+09,-1.71176e+09,-597236,-0.0597471,0.0368266,-0,0.0701849,2839.97,-58996.8,0,59065.1,597236
step02_gravity_refstate-mantle.xmf,1044,-1.46154e-05,3.86305e-05,0,-2.18193e-06,-1.7304e+09,-1.72328e+09,-1.72844e+09,-291615,-0.0567456,0.0188292,-0,0.059788,2624.72,-59513.6,0,59571.4,291615
step02_gravity_refstate-mantle.xmf,1045,-1.61591e-05,4.07995e-05,0,-1.52499e-08,-1.7463e+09,-1.73869e+09,-1.74414e+09,-2038.15,-0.0530835,-2.19437e-19,-0,0.0530835,2389.19,-60000,0,60047.6,2038.15
step02_gravity_refstate-mantle.xmf,1046,1.84935e-06,-1.45278e-06,0,-5.05244e-06,-1.21356e+09,-1.214e+09,-1.21381e+09,-675259,0.0171059,0.159479,0,0.160393,4404.74,-43556,0,43778.2,675259
step02_gravity_refstate-mantle.xmf,1047,5.80189e-07,-2.36875e-07,0,-6.04826e-06,-1.25119e+09,-1.2513e+09,-1.25127e+09,-808349,0.0182425,0.153524,0,0.154604,5050.23,-44713,0,44997.3,808349
step02_gravity_refstate-mantle.xmf,1048,-2.98188e-06,3.50927e-06,0,-7.64338e-06,-1.35979e+09,-1.35892e+09,-1.35939e+09,-1.02154e+06,0.0158833,0.143265,0,0.144143,5453.19,-48053.4,0,48361.8,1.02154e+06
step02_gravity_refstate-mantle.xmf,1049,-3.56815e-06,4.34387e-06,0,-7.58986e-06,-1.37645e+09,-1.3754e+09,-1.37598e+09,-1.01438e+06,0.0144039,0.140796,0,0.141531,5479.7,-48566.4,0,48874.6,1.01438e+06
step02_gravity_refstate-mantle.xmf,1050,-4.22477e-06,5.41163e-06,0,-7.37077e-06,-1.39708e+09,-1.39579e+09,-1.39652e+09,-985104,0.0118527,0.137123,0,0.137635,5512.26,-49201.9,0,49509.7,985104
step02_gravity_refstate-mantle.xmf,1051,-5.19224e-06,8.44488e-06,0,-7.72583e-06,-1.47226e+09,-1.47044e+09,-1.47157e+09,-1.03256e+06,-0.0011824,0.137656,-0,0.137661,4775.58,-51525.5,0,51746.4,1.03256e+06
step02_gravity_refstate-mantle.xmf,1052,-5.04425e-06,9.68307e-06,0,-7.27041e-06,-1.492e+09,-1.49003e+09,-1.49132e+09,-971690,-0.00782537,0.131837,-0,0.132069,4786.25,-52139.4,0,52358.6,971690
step02_gravity_refstate-mantle.xmf,1053,-4.21168e-06,1.92048e-05,0,-6.81701e-06,-1.61064e+09,-1.60751e+09,-1.61007e+09,-911093,-0.0514251,0.09712,-0,0.109895,4156.77,-55834.1,0,55988.6,911093
step02_gravity_refstate-mantle.xmf,1054,-6.21397e-06,2.66691e-05,0,-6.13648e-06,-1.6793e+09,-1.67491e+09,-1.67847e+09,-820140,-0.0662892,0.0584212,-0,0.0883589,3697,-57960.8,0,58078.6,820140
step02_gravity_refstate-mantle.xmf,1055,2.1395e-06,-1.4338e-06,0,-4.3811e-06,-1.18614e+09,-1.18662e+09,-1.18643e+09,-585534,0.0170454,0.158085,0,0.159001,4423.04,-42711.1,0,42939.5,585534
step02_gravity_refstate-mantle.xmf,1056,2.43669e-06,-1.44258e-06,0,-3.70857e-06,-1.1582e+09,-1.15872e+09,-1.15853e+09,-495651,0.0172476,0.157036,0,0.15798,4399.39,-41850,0,42080.6,495651
step02_gravity_refstate-mantle.xmf,1057,1.02533e-06,-4.96027e-07,0,-5.42473e-06,-1.22542e+09,-1.22562e+09,-1.22555e+09,-725016,0.0181245,0.153088,0,0.154157,5060.53,-43919.2,0,44209.8,725016
step02_gravity_refstate-mantle.xmf,1058,2.74612e-06,-1.41615e-06,0,-2.98358e-06,-1.12747e+09,-1.12803e+09,-1.12784e+09,-398755,0.0180495,0.155728,0,0.156771,4391.24,-40902.9,0,41137.9,398755
step02_gravity_refstate-mantle.xmf,1059,3.42049e-06,-1.77406e-06,0,-2.08514e-06,-1.09813e+09,-1.09882e+09,-1.09858e+09,-278679,0.0180183,0.157363,0,0.158391,3924.05,-40000,0,40192,278679
step02_gravity_refstate-mantle.xmf,1060,-3.42239e-07,9.45546e-07,0,-6.08224e-06,-1.26318e+09,-1.26301e+09,-1.26313e+09,-812891,0.0183122,0.145314,0,0.146463,5714.8,-45080.2,0,45441,812891
step02_gravity_refstate-mantle.xmf,1061,-9.65315e-07,1.51194e-06,0,-6.53633e-06,-1.28849e+09,-1.28816e+09,-1.28836e+09,-873580,0.0180217,0.144437,0,0.145556,5712.06,-45859.5,0,46213.8,873580
step02_gravity_refstate-mantle.xmf,1062,-1.59506e-06,2.10192e-06,0,-6.93481e-06,-1.31214e+09,-1.31165e+09,-1.31193e+09,-926837,0.0175896,0.143845,0,0.144916,5664.13,-46587.4,0,46930.5,926837
step02_gravity_refstate-mantle.xmf,1063,-2.07903e-06,2.50348e-06,0,-7.2847e-06,-1.33089e+09,-1.33028e+09,-1.33061e+09,-973600,0.0171587,0.144105,0,0.145123,5561.24,-47164.3,0,47491,973600
step02_gravity_refstate-mantle.xmf,1064,-2.81175e-06,3.55684e-06,0,-7.09673e-06,-1.34723e+09,-1.34638e+09,-1.34686e+09,-948478,0.0157459,0.138835,0,0.139725,5795.12,-47666.8,0,48017.8,948478
step02_gravity_refstate-mantle.xmf,1065,-4.7784e-06,6.43184e-06,0,-7.10657e-06,-1.41917e+09,-1.41768e+09,-1.41854e+09,-949794,0.00836493,0.133534,0,0.133796,5491.04,-49883.3,0,50184.6,949794
step02_gravity_refstate-mantle.xmf,1066,-5.07099e-06,7.52656e-06,0,-6.7686e-06,-1.44166e+09,-1.43998e+09,-1.44098e+09,-904624,0.00403416,0.130663,0,0.130725,5397.04,-50578.8,0,50865.9,904624
step02_gravity_refstate-mantle.xmf,1067,-5.13455e-06,8.49034e-06,0,-6.33145e-06,-1.46232e+09,-1.46049e+09,-1.46163e+09,-846198,-0.0012523,0.126295,-0,0.126301,5364.35,-51218.8,0,51499,846198
step02_gravity_refstate-mantle.xmf,1068,-4.78829e-06,1.08716e-05,0,-6.85485e-06,-1.51182e+09,-1.50973e+09,-1.51118e+09,-916150,-0.0151791,0.125295,-0,0.126211,4795.25,-52756.5,0,52974,916150
step02_gravity_refstate-mantle.xmf,1069,-4.47019e-06,1.21382e-05,0,-6.46203e-06,-1.53224e+09,-1.53002e+09,-1.53165e+09,-863650,-0.0231726,0.118089,-0,0.120341,4791.8,-53392.7,0,53607.3,863650
step02_gravity_refstate-mantle.xmf,1070,-4.11909e-06,1.34956e-05,0,-6.09795e-06,-1.55339e+09,-1.55103e+09,-1.55284e+09,-814991,-0.0316105,0.110248,-0,0.11469,4768.7,-54051.6,0,54261.6,814991
step02_gravity_refstate-mantle.xmf,1071,-3.87192e-06,1.51491e-05,0,-5.99054e-06,-1.57582e+09,-1.57328e+09,-1.57531e+09,-800636,-0.0401324,0.10343,-0,0.110944,4641.35,-54750.6,0,54947,800636
step02_gravity_refstate-mantle.xmf,1072,-3.30928e-06,1.6306e-05,0,-5.20178e-06,-1.59904e+09,-1.59642e+09,-1.5986e+09,-695218,-0.0493338,0.090231,-0,0.102837,4715.78,-55474.5,0,55674.5,695218
step02_gravity_refstate-mantle.xmf,1073,-4.03114e-06,2.06252e-05,0,-6.28236e-06,-1.63019e+09,-1.62689e+09,-1.62965e+09,-839638,-0.0578287,0.0855539,-0,0.103265,4133.26,-56442.9,0,56594,839638
step02_gravity_refstate-mantle.xmf,1074,-4.06111e-06,2.19095e-05,0,-5.85681e-06,-1.6503e+09,-1.64683e+09,-1.64976e+09,-782763,-0.0632241,0.072741,-0,0.0963771,4109.26,-57067.3,0,57215,782763
step02_gravity_refstate-mantle.xmf,1075,-4.47816e-06,2.33319e-05,0,-5.29912e-06,-1.67061e+09,-1.6669e+09,-1.67002e+09,-708228,-0.0672221,0.0587151,-0,0.089254,4094.92,-57695.6,0,57840.7,708228
step02_gravity_refstate-mantle.xmf,1076,-5.76362e-06,2.56095e-05,0,-4.61521e-06,-1.69095e+09,-1.68675e+09,-1.69018e+09,-616822,-0.069159,0.0450708,-0,0.082549,3975.48,-58320.8,0,58456.2,616822
step02_gravity_refstate-mantle.xmf,1077,-9.26567e-06,3.11428e-05,0,-4.46667e-06,-1.70766e+09,-1.70226e+09,-1.70642e+09,-596971,-0.0656994,0.0373748,-0,0.0755863,3382.76,-58827.9,0,58925.1,596971
step02_gravity_refstate-mantle.xmf,1078,-1.07518e-05,3.30318e-05,0,-2.12825e-06,-1.72855e+09,-1.7227e+09,-1.72711e+09,-284441,-0.0647659,0.0176584,-0,0.06713,3257.63,-59468,0,59557.1,284441
step02_gravity_refstate-mantle.xmf,1079,-1.24599e-05,3.55209e-05,0,-3.45238e-08,-1.74593e+09,-1.73952e+09,-1.74427e+09,-4614.1,-0.0617662,-1.89425e-19,-0,0.0617662,2996.03,-60000,0,60074.8,4614.1
step02_gravity_refstate-mantle.xmf,1080,1.39136e-06,-6.72457e-07,0,-4.80031e-06,-1.19895e+09,-1.19922e+09,-1.19913e+09,-641561,0.0181708,0.152365,0,0.153445,5083.32,-43103.6,0,43402.3,641561
step02_gravity_refstate-mantle.xmf,1081,1.96235e-07,5.04082e-07,0,-5.5728e-06,-1.23728e+09,-1.23724e+09,-1.23731e+09,-744804,0.0185049,0.145817,0,0.146987,5717.91,-44282.9,0,44650.5,744804
step02_gravity_refstate-mantle.xmf,1082,-3.48235e-06,4.58068e-06,0,-6.83316e-06,-1.36617e+09,-1.36509e+09,-1.3657e+09,-913252,0.0137085,0.133733,0,0.134434,5961.57,-48249.9,0,48616.8,913252
step02_gravity_refstate-mantle.xmf,1083,-4.06416e-06,5.55972e-06,0,-6.52281e-06,-1.38633e+09,-1.38504e+09,-1.38578e+09,-871774,0.0111037,0.129192,0,0.129668,6044.84,-48871.2,0,49243.6,871774
step02_gravity_refstate-mantle.xmf,1084,-4.54075e-06,6.56806e-06,0,-6.08191e-06,-1.40822e+09,-1.40673e+09,-1.40761e+09,-812847,0.00754563,0.124277,0,0.124506,6093.24,-49546.8,0,49920.1,812847
step02_gravity_refstate-mantle.xmf,1085,-4.98854e-06,9.34705e-06,0,-5.87289e-06,-1.48221e+09,-1.4803e+09,-1.48155e+09,-784911,-0.00734207,0.121062,-0,0.121284,5352.84,-51836.6,0,52112.2,784911
step02_gravity_refstate-mantle.xmf,1086,-4.70297e-06,1.02914e-05,0,-5.39961e-06,-1.50175e+09,-1.49975e+09,-1.50112e+09,-721658,-0.0140749,0.115199,-0,0.116055,5348.57,-52444.5,0,52716.6,721658
step02_gravity_refstate-mantle.xmf,1087,-2.94849e-06,1.75776e-05,0,-4.76107e-06,-1.61992e+09,-1.61718e+09,-1.61953e+09,-636317,-0.0565544,0.0796204,-0,0.0976617,4694.79,-56125.2,0,56321.2,636317
step02_gravity_refstate-mantle.xmf,1088,1.65296e-06,-6.64232e-07,0,-4.14605e-06,-1.16957e+09,-1.16988e+09,-1.16979e+09,-554119,0.0186859,0.150683,0,0.151837,5197.98,-42197.9,0,42516.8,554119
step02_gravity_refstate-mantle.xmf,1089,2.12617e-06,-9.54579e-07,0,-3.50004e-06,-1.14364e+09,-1.14406e+09,-1.14393e+09,-467781,0.0188943,0.151966,0,0.153136,4966.61,-41399.5,0,41696.3,467781
step02_gravity_refstate-mantle.xmf,1090,6.572e-07,1.63769e-07,0,-5.04139e-06,-1.21129e+09,-1.21136e+09,-1.21138e+09,-673782,0.0187239,0.146125,0,0.14732,5711.55,-43482.2,0,43855.7,673782
step02_gravity_refstate-mantle.xmf,1091,2.6123e-06,-1.09568e-06,0,-2.35172e-06,-1.09825e+09,-1.09874e+09,-1.09859e+09,-314307,0.0210264,0.150883,0,0.152341,4918.91,-40000,0,40301.3,314307
step02_gravity_refstate-mantle.xmf,1092,-6.06006e-07,1.53734e-06,0,-5.49749e-06,-1.24948e+09,-1.24919e+09,-1.2494e+09,-734740,0.0181919,0.137519,0,0.138717,6404.28,-44656.7,0,45113.6,734740
step02_gravity_refstate-mantle.xmf,1093,-1.20959e-06,2.13505e-06,0,-5.8597e-06,-1.27619e+09,-1.27574e+09,-1.27603e+09,-783149,0.0175387,0.136029,0,0.137155,6406.18,-45479.4,0,45928.4,783149
step02_gravity_refstate-mantle.xmf,1094,-1.8543e-06,2.81583e-06,0,-6.15124e-06,-1.30226e+09,-1.30164e+09,-1.30202e+09,-822113,0.0166977,0.134465,0,0.135498,6377.73,-46282.3,0,46719.6,822113
step02_gravity_refstate-mantle.xmf,1095,-2.56112e-06,3.59694e-06,0,-6.39833e-06,-1.32947e+09,-1.32864e+09,-1.32912e+09,-855136,0.0155465,0.13315,0,0.134055,6285.73,-47119.8,0,47537.2,855136
step02_gravity_refstate-mantle.xmf,1096,-3.34156e-06,4.72022e-06,0,-6.13362e-06,-1.35465e+09,-1.35357e+09,-1.3542e+09,-819758,0.0130757,0.127182,0,0.127852,6471.32,-47895.4,0,48330.6,819758
step02_gravity_refstate-mantle.xmf,1097,-4.85375e-06,7.47616e-06,0,-5.62332e-06,-1.43102e+09,-1.42937e+09,-1.43037e+09,-751557,0.00310189,0.119611,0,0.119651,6078.78,-50251.3,0,50617.7,751557
step02_gravity_refstate-mantle.xmf,1098,-4.9334e-06,8.36915e-06,0,-5.17399e-06,-1.45261e+09,-1.45083e+09,-1.45195e+09,-691504,-0.00178675,0.115772,-0,0.115786,6001.8,-50920,0,51272.5,691504
step02_gravity_refstate-mantle.xmf,1099,-4.82809e-06,9.11035e-06,0,-4.74907e-06,-1.47269e+09,-1.47083e+09,-1.47205e+09,-634713,-0.00722792,0.111537,-0,0.111771,5940.46,-51543,0,51884.2,634713
step02_gravity_refstate-mantle.xmf,1100,-4.28516e-06,1.12106e-05,0,-4.89661e-06,-1.52215e+09,-1.52008e+09,-1.52158e+09,-654432,-0.0217394,0.108043,-0,0.110209,5363.96,-53079.8,0,53350.2,654432
step02_gravity_refstate-mantle.xmf,1101,-3.78926e-06,1.2166e-05,0,-4.45293e-06,-1.54335e+09,-1.54122e+09,-1.54285e+09,-595134,-0.029954,0.100426,-0,0.104798,5359.54,-53740.5,0,54007.1,595134
step02_gravity_refstate-mantle.xmf,1102,-3.25832e-06,1.31659e-05,0,-4.08425e-06,-1.56521e+09,-1.56302e+09,-1.56478e+09,-545860,-0.0384198,0.092411,-0,0.100079,5330.25,-54421.9,0,54682.3,545860
step02_gravity_refstate-mantle.xmf,1103,-2.71819e-06,1.41586e-05,0,-3.74218e-06,-1.58741e+09,-1.58515e+09,-1.58704e+09,-500142,-0.0467975,0.0835378,-0,0.0957526,5300.62,-55113.5,0,55367.8,500142
step02_gravity_refstate-mantle.xmf,1104,-2.2058e-06,1.50524e-05,0,-3.41969e-06,-1.609e+09,-1.6067e+09,-1.60871e+09,-457041,-0.0544522,0.0739389,-0,0.091826,5286.47,-55786.4,0,56036.3,457041
step02_gravity_refstate-mantle.xmf,1105,-2.77673e-06,1.87357e-05,0,-4.44395e-06,-1.64043e+09,-1.63756e+09,-1.64006e+09,-593933,-0.0626209,0.0685861,-0,0.0928732,4665.88,-56762.9,0,56954.3,593933
step02_gravity_refstate-mantle.xmf,1106,-2.87163e-06,1.98586e-05,0,-4.11907e-06,-1.66134e+09,-1.6583e+09,-1.66095e+09,-550514,-0.0675149,0.0565228,-0,0.0880516,4637.13,-57410.8,0,57597.7,550514
step02_gravity_refstate-mantle.xmf,1107,-3.34788e-06,2.11761e-05,0,-3.61925e-06,-1.68204e+09,-1.67876e+09,-1.68159e+09,-483713,-0.0709116,0.043932,-0,0.0834175,4592.56,-58050.4,0,58231.8,483713
step02_gravity_refstate-mantle.xmf,1108,-6.62012e-06,2.67988e-05,0,-3.34242e-06,-1.70903e+09,-1.70456e+09,-1.70815e+09,-446715,-0.0703027,0.0307108,-0,0.0767178,3955.91,-58876.8,0,59009.5,446715
step02_gravity_refstate-mantle.xmf,1109,-7.23579e-06,2.76861e-05,0,-1.74398e-06,-1.72753e+09,-1.72286e+09,-1.72656e+09,-233083,-0.0706606,0.0154307,-0,0.0723259,3915.6,-59446.3,0,59575.2,233083
step02_gravity_refstate-mantle.xmf,1110,-8.90863e-06,3.02677e-05,0,-3.88979e-08,-1.7456e+09,-1.74036e+09,-1.74441e+09,-5198.71,-0.0684141,-1.50266e-19,-0,0.0684141,3618.49,-60000,0,60109,5198.71
step02_gravity_refstate-mantle.xmf,1111,2.00562e-06,-6.80408e-07,0,-3.08354e-06,-1.12376e+09,-1.12412e+09,-1.12403e+09,-412115,0.0205496,0.148261,0,0.149678,5370.97,-40785.1,0,41137.2,412115
step02_gravity_refstate-mantle.xmf,1112,1.01116e-06,-6.78913e-08,0,-4.5475e-06,-1.1877e+09,-1.18785e+09,-1.18784e+09,-607774,0.01904,0.146235,0,0.147469,5702.06,-42755.3,0,43133.8,607774
step02_gravity_refstate-mantle.xmf,1113,-6.62097e-08,1.04174e-06,0,-5.06681e-06,-1.22223e+09,-1.22208e+09,-1.22222e+09,-677180,0.0187572,0.138722,0,0.139984,6390.33,-43817.5,0,44281,677180
step02_gravity_refstate-mantle.xmf,1114,-3.85368e-06,5.58576e-06,0,-5.82321e-06,-1.37513e+09,-1.37387e+09,-1.37462e+09,-778272,0.01052,0.122621,0,0.123071,6557.46,-48526.9,0,48968,778272
step02_gravity_refstate-mantle.xmf,1115,-4.27463e-06,6.49484e-06,0,-5.30513e-06,-1.39676e+09,-1.39532e+09,-1.39618e+09,-709031,0.0068993,0.116678,0,0.116882,6679.69,-49194.4,0,49645.8,709031
step02_gravity_refstate-mantle.xmf,1116,-4.53865e-06,7.35463e-06,0,-4.7395e-06,-1.41937e+09,-1.41778e+09,-1.41876e+09,-633434,0.00253206,0.111098,0,0.111127,6727.35,-49893.3,0,50344.8,633434
step02_gravity_refstate-mantle.xmf,1117,-4.55615e-06,9.7718e-06,0,-4.28838e-06,-1.49192e+09,-1.49001e+09,-1.49131e+09,-573142,-0.0133015,0.106351,-0,0.107179,5917.76,-52140.5,0,52475.3,573142
step02_gravity_refstate-mantle.xmf,1118,-4.12825e-06,1.04531e-05,0,-3.72855e-06,-1.51169e+09,-1.50974e+09,-1.51114e+09,-498321,-0.0203327,0.0995396,-0,0.101595,5948.54,-52755.8,0,53090.1,498321
step02_gravity_refstate-mantle.xmf,1119,-1.82632e-06,1.60403e-05,0,-3.16317e-06,-1.6307e+09,-1.62832e+09,-1.63046e+09,-422758,-0.0612436,0.0639557,-0,0.08855,5254.42,-56461.8,0,56705.8,422758
step02_gravity_refstate-mantle.xmf,1120,-4.08457e-06,2.25714e-05,0,-2.76536e-06,-1.70295e+09,-1.69938e+09,-1.7024e+09,-369590,-0.0730161,0.0302564,-0,0.0790367,4546.85,-58695,0,58870.8,369590
step02_gravity_refstate-mantle.xmf,1121,1.58111e-06,-4.18861e-07,0,-3.64808e-06,-1.14716e+09,-1.14743e+09,-1.14737e+09,-487566,0.0199888,0.146634,0,0.14799,5620.91,-41505.8,0,41884.6,487566
step02_gravity_refstate-mantle.xmf,1122,4.03302e-07,6.45029e-07,0,-4.58434e-06,-1.19474e+09,-1.1947e+09,-1.19479e+09,-612697,0.0193649,0.13966,0,0.140996,6365.79,-42970.3,0,43439.3,612697
step02_gravity_refstate-mantle.xmf,1123,9.27011e-07,2.04938e-07,0,-4.0332e-06,-1.16499e+09,-1.16509e+09,-1.16512e+09,-539037,0.0201095,0.141517,0,0.142939,6208.81,-42053.9,0,42509.7,539037
step02_gravity_refstate-mantle.xmf,1124,1.7865e-06,-3.94545e-07,0,-2.50116e-06,-1.09837e+09,-1.09866e+09,-1.0986e+09,-334280,0.023251,0.143581,0,0.145452,5927.94,-40000,0,40436.9,334280
step02_gravity_refstate-mantle.xmf,1125,-7.78844e-07,1.95838e-06,0,-4.91659e-06,-1.23492e+09,-1.23456e+09,-1.23482e+09,-657102,0.0181048,0.13023,0,0.131482,7117.68,-44207.1,0,44776.4,657102
step02_gravity_refstate-mantle.xmf,1126,-1.34113e-06,2.55557e-06,0,-5.20531e-06,-1.26281e+09,-1.26229e+09,-1.26263e+09,-695690,0.0170822,0.12826,0,0.129393,7123.7,-45066.4,0,45626,695690
step02_gravity_refstate-mantle.xmf,1127,-1.94615e-06,3.24111e-06,0,-5.40099e-06,-1.29025e+09,-1.28956e+09,-1.28999e+09,-721842,0.015858,0.125971,0,0.126966,7113.91,-45911.7,0,46459.5,721842
step02_gravity_refstate-mantle.xmf,1128,-2.56639e-06,3.99859e-06,0,-5.49027e-06,-1.31701e+09,-1.31613e+09,-1.31666e+09,-733775,0.0143153,0.123414,0,0.124242,7084.36,-46736,0,47269.8,733775
step02_gravity_refstate-mantle.xmf,1129,-3.73398e-06,5.73915e-06,0,-5.11693e-06,-1.3688e+09,-1.36753e+09,-1.3683e+09,-683877,0.00924852,0.115453,0,0.115823,7105.47,-48332.3,0,48851.8,683877
step02_gravity_refstate-mantle.xmf,1130,-3.18764e-06,4.85432e-06,0,-5.39443e-06,-1.34325e+09,-1.34217e+09,-1.34282e+09,-720965,0.0121538,0.11984,0,0.120455,7087.31,-47544.5,0,48069.8,720965
step02_gravity_refstate-mantle.xmf,1131,-4.64417e-06,8.09542e-06,0,-4.24296e-06,-1.44258e+09,-1.44088e+09,-1.44196e+09,-567071,-0.00245927,0.106391,-0,0.10642,6676.59,-50611.5,0,51050,567071
step02_gravity_refstate-mantle.xmf,1132,-4.56283e-06,8.84087e-06,0,-3.76409e-06,-1.46466e+09,-1.46287e+09,-1.46405e+09,-503071,-0.00787807,0.102216,-0,0.102519,6580.16,-51296,0,51716.3,503071
step02_gravity_refstate-mantle.xmf,1133,-4.39791e-06,9.35369e-06,0,-3.5356e-06,-1.48239e+09,-1.48055e+09,-1.4818e+09,-472532,-0.0124945,0.0998564,-0,0.100635,6425.85,-51845.9,0,52242.6,472532
step02_gravity_refstate-mantle.xmf,1134,-3.56656e-06,1.11218e-05,0,-3.21271e-06,-1.53288e+09,-1.53091e+09,-1.5324e+09,-429379,-0.0281858,0.0920962,-0,0.0963128,5965.98,-53415.7,0,53747.9,429379
step02_gravity_refstate-mantle.xmf,1135,-2.93805e-06,1.17984e-05,0,-2.79681e-06,-1.55477e+09,-1.5528e+09,-1.55438e+09,-373793,-0.036379,0.0844329,-0,0.0919366,5957.18,-54098,0,54425,373793
step02_gravity_refstate-mantle.xmf,1136,-2.29536e-06,1.24866e-05,0,-2.48208e-06,-1.57699e+09,-1.57502e+09,-1.57669e+09,-331730,-0.0445479,0.0765079,-0,0.0885324,5928.46,-54790.4,0,55110.2,331730
step02_gravity_refstate-mantle.xmf,1137,-1.70122e-06,1.31634e-05,0,-2.25728e-06,-1.59879e+09,-1.5968e+09,-1.59856e+09,-301686,-0.052175,0.0683639,-0,0.0859992,5892.11,-55469.4,0,55781.5,301686
step02_gravity_refstate-mantle.xmf,1138,-1.19407e-06,1.38445e-05,0,-2.09475e-06,-1.62059e+09,-1.61858e+09,-1.62043e+09,-279964,-0.0591499,0.0597066,-0,0.0840452,5855.57,-56148.1,0,56452.6,279964
step02_gravity_refstate-mantle.xmf,1139,-1.69287e-06,1.70024e-05,0,-2.96585e-06,-1.652e+09,-1.6495e+09,-1.65177e+09,-396386,-0.0667879,0.0535747,-0,0.0856205,5217.19,-57123,0,57360.8,396386
step02_gravity_refstate-mantle.xmf,1140,-1.82559e-06,1.79935e-05,0,-2.71651e-06,-1.67309e+09,-1.67044e+09,-1.67284e+09,-363061,-0.070993,0.0427785,-0,0.0828855,5163.82,-57776,0,58006.3,363061
step02_gravity_refstate-mantle.xmf,1141,-2.20237e-06,1.90581e-05,0,-2.26611e-06,-1.69357e+09,-1.69072e+09,-1.69327e+09,-302866,-0.0738321,0.0315508,-0,0.0802909,5107.47,-58408.8,0,58631.7,302866
step02_gravity_refstate-mantle.xmf,1142,-4.40819e-06,2.31823e-05,0,-1.39575e-06,-1.72457e+09,-1.72089e+09,-1.72398e+09,-186542,-0.0743305,0.0148885,-0,0.075807,4560.38,-59362.4,0,59537.3,186542
step02_gravity_refstate-mantle.xmf,1143,-5.79826e-06,2.54251e-05,0,-3.73671e-08,-1.74533e+09,-1.74116e+09,-1.74455e+09,-4994.11,-0.0731399,-1.43248e-19,-0,0.0731399,4262.05,-60000,0,60151.2,4994.11
step02_gravity_refstate-mantle.xmf,1144,1.19221e-06,5.87092e-08,0,-3.2803e-06,-1.12977e+09,-1.12993e+09,-1.12993e+09,-438412,0.0218339,0.140239,0,0.141929,6370.48,-40967.4,0,41459.7,438412
step02_gravity_refstate-mantle.xmf,1145,-2.7551e-07,1.45789e-06,0,-4.53755e-06,-1.20633e+09,-1.20609e+09,-1.20629e+09,-606444,0.0190716,0.131761,0,0.133134,7112.07,-43325.8,0,43905.7,606444
step02_gravity_refstate-mantle.xmf,1146,-4.02657e-06,6.37963e-06,0,-4.72252e-06,-1.38734e+09,-1.38595e+09,-1.3868e+09,-631165,0.00631699,0.110889,0,0.111068,7182.04,-48904.9,0,49429.5,631165
step02_gravity_refstate-mantle.xmf,1147,-4.16729e-06,7.05706e-06,0,-4.03734e-06,-1.40534e+09,-1.40384e+09,-1.40478e+09,-539591,0.00227665,0.103834,0,0.103859,7413.67,-49461.6,0,50014.2,539591
step02_gravity_refstate-mantle.xmf,1148,-4.28396e-06,7.78959e-06,0,-3.48664e-06,-1.43083e+09,-1.42921e+09,-1.43026e+09,-465990,-0.00280343,0.0985869,-0,0.0986268,7372.86,-50250.1,0,50788.1,465990
step02_gravity_refstate-mantle.xmf,1149,-3.95421e-06,9.79509e-06,0,-2.85788e-06,-1.50066e+09,-1.49882e+09,-1.50013e+09,-381955,-0.0189398,0.0923874,-0,0.0943088,6545.92,-52414.4,0,52821.6,381955
step02_gravity_refstate-mantle.xmf,1150,-3.40227e-06,1.02578e-05,0,-2.30732e-06,-1.52154e+09,-1.51971e+09,-1.52108e+09,-308373,-0.0262585,0.0852123,-0,0.0891664,6586.46,-53064.3,0,53471.5,308373
step02_gravity_refstate-mantle.xmf,1151,-8.40662e-07,1.46005e-05,0,-1.94661e-06,-1.64248e+09,-1.64042e+09,-1.64237e+09,-260164,-0.0652242,0.0504562,-0,0.0824622,5821.43,-56828.5,0,57125.9,260164
step02_gravity_refstate-mantle.xmf,1152,-2.72211e-06,2.01507e-05,0,-1.65835e-06,-1.71212e+09,-1.70907e+09,-1.71176e+09,-221639,-0.0753429,0.0208543,-0,0.0781758,5028.12,-58981.4,0,59195.3,221639
step02_gravity_refstate-mantle.xmf,1153,1.5995e-07,1.04986e-06,0,-4.08502e-06,-1.17731e+09,-1.17719e+09,-1.17733e+09,-545962,0.0201406,0.132966,0,0.134482,7100.75,-42431.4,0,43021.4,545962
step02_gravity_refstate-mantle.xmf,1154,9.92791e-07,2.9581e-07,0,-2.53398e-06,-1.09848e+09,-1.09857e+09,-1.09861e+09,-338666,0.0246851,0.135709,0,0.137936,6955.6,-40000,0,40600.2,338666
step02_gravity_refstate-mantle.xmf,1155,-8.85023e-07,2.2399e-06,0,-4.34499e-06,-1.21912e+09,-1.2187e+09,-1.219e+09,-580708,0.0181256,0.12344,0,0.124764,7857.38,-43718.9,0,44419.3,580708
step02_gravity_refstate-mantle.xmf,1156,-1.39214e-06,2.81659e-06,0,-4.58549e-06,-1.2482e+09,-1.24764e+09,-1.24801e+09,-612851,0.0167359,0.121158,0,0.122308,7862.03,-44615.3,0,45302.8,612851
step02_gravity_refstate-mantle.xmf,1157,-1.93134e-06,3.46275e-06,0,-4.72988e-06,-1.27667e+09,-1.27595e+09,-1.27642e+09,-632148,0.0152006,0.118597,0,0.119567,7847.82,-45493,0,46164.9,632148
step02_gravity_refstate-mantle.xmf,1158,-2.47849e-06,4.16745e-06,0,-4.75966e-06,-1.30423e+09,-1.30334e+09,-1.3039e+09,-636129,0.013384,0.115658,0,0.116429,7825.47,-46342.3,0,46998.4,636129
step02_gravity_refstate-mantle.xmf,1159,-3.00932e-06,4.9237e-06,0,-4.65421e-06,-1.33117e+09,-1.3301e+09,-1.33076e+09,-622035,0.0111049,0.112166,0,0.112715,7805.54,-47172.7,0,47814.1,622035
step02_gravity_refstate-mantle.xmf,1160,-3.84244e-06,6.44926e-06,0,-4.05435e-06,-1.3833e+09,-1.38193e+09,-1.38279e+09,-541864,0.0047444,0.103907,0,0.104015,7741.61,-48781.6,0,49392.1,541864
step02_gravity_refstate-mantle.xmf,1161,-3.49456e-06,5.72884e-06,0,-4.39084e-06,-1.3582e+09,-1.35697e+09,-1.35773e+09,-586836,0.00812157,0.107933,0,0.108238,7792.31,-48006.6,0,48634.9,586836
step02_gravity_refstate-mantle.xmf,1162,-4.20067e-06,8.40138e-06,0,-2.93926e-06,-1.45539e+09,-1.4537e+09,-1.45483e+09,-392833,-0.00853086,0.0933964,-0,0.0937852,7306.1,-51010.8,0,51531.4,392833
step02_gravity_refstate-mantle.xmf,1163,-3.93175e-06,9.08368e-06,0,-2.42136e-06,-1.48201e+09,-1.48027e+09,-1.48149e+09,-323615,-0.0154023,0.0885032,-0,0.0898334,7146.07,-51836.8,0,52327.1,323615
step02_gravity_refstate-mantle.xmf,1164,-2.73726e-06,1.07268e-05,0,-1.85268e-06,-1.54385e+09,-1.54205e+09,-1.54349e+09,-247610,-0.0341781,0.077907,-0,0.0850744,6586.97,-53759.3,0,54161.3,247610
step02_gravity_refstate-mantle.xmf,1165,-2.02678e-06,1.11862e-05,0,-1.50893e-06,-1.56657e+09,-1.56481e+09,-1.5663e+09,-201669,-0.0422132,0.0703919,-0,0.0820791,6570.21,-54467.1,0,54861.9,201669
step02_gravity_refstate-mantle.xmf,1166,-1.36761e-06,1.16552e-05,0,-1.303e-06,-1.58861e+09,-1.58687e+09,-1.58843e+09,-174145,-0.0497196,0.0631461,-0,0.0803708,6526.6,-55153.3,0,55538.2,174145
step02_gravity_refstate-mantle.xmf,1167,-7.73232e-07,1.21168e-05,0,-1.175e-06,-1.6103e+09,-1.60858e+09,-1.6102e+09,-157039,-0.0566393,0.0556235,-0,0.079385,6485.69,-55828.5,0,56204,157039
step02_gravity_refstate-mantle.xmf,1168,-2.8195e-07,1.26159e-05,0,-1.10271e-06,-1.63244e+09,-1.63072e+09,-1.63241e+09,-147377,-0.062962,0.0475655,-0,0.0789094,6443.3,-56517.1,0,56883.2,147377
step02_gravity_refstate-mantle.xmf,1169,-7.15546e-07,1.53599e-05,0,-1.80814e-06,-1.66409e+09,-1.66194e+09,-1.66399e+09,-241659,-0.0700927,0.0408902,-0,0.081148,5778.46,-57498.7,0,57788.3,241659
step02_gravity_refstate-mantle.xmf,1170,-8.47616e-07,1.62204e-05,0,-1.63887e-06,-1.68483e+09,-1.68255e+09,-1.68472e+09,-219035,-0.0735826,0.0315317,-0,0.080054,5688.84,-58140.9,0,58418.5,219035
step02_gravity_refstate-mantle.xmf,1171,-1.14628e-06,1.71797e-05,0,-1.24475e-06,-1.7068e+09,-1.70435e+09,-1.70665e+09,-166361,-0.0760461,0.0206732,-0,0.0788061,5611.01,-58819.9,0,59086.9,166361
step02_gravity_refstate-mantle.xmf,1172,-2.1093e-06,1.91238e-05,0,-7.09569e-07,-1.72879e+09,-1.72595e+09,-1.7285e+09,-94833.9,-0.0768488,0.00966594,-0,0.0774543,5285.82,-59497.5,0,59731.9,94833.9
step02_gravity_refstate-mantle.xmf,1173,-3.22887e-06,2.1152e-05,0,-1.44316e-08,-1.74513e+09,-1.74187e+09,-1.74469e+09,-1928.78,-0.0761659,-8.55709e-20,-0,0.0761659,4930.91,-60000,0,60202.3,1928.78
step02_gravity_refstate-mantle.xmf,1174,5.28587e-07,7.07266e-07,0,-3.61899e-06,-1.15005e+09,-1.15002e+09,-1.15012e+09,-483678,0.0213396,0.134319,0,0.136003,7031.67,-41590.9,0,42181.1,483678
step02_gravity_refstate-mantle.xmf,1175,4.66701e-07,7.75126e-07,0,-3.0874e-06,-1.1253e+09,-1.12526e+09,-1.12536e+09,-412631,0.0230362,0.131055,0,0.133064,7477.45,-40826.1,0,41505.2,412631
step02_gravity_refstate-mantle.xmf,1176,-4.3415e-07,1.73618e-06,0,-4.00982e-06,-1.18974e+09,-1.18945e+09,-1.18968e+09,-535912,0.0194842,0.125145,0,0.126653,7865.48,-42813.1,0,43529.6,535912
step02_gravity_refstate-mantle.xmf,1177,-3.92386e-06,7.40011e-06,0,-2.93114e-06,-1.41865e+09,-1.41714e+09,-1.41813e+09,-391747,-0.00297046,0.092267,-0,0.0923148,8054.79,-49875.4,0,50521.7,391747
step02_gravity_refstate-mantle.xmf,1178,-3.84254e-06,7.94582e-06,0,-2.35244e-06,-1.44321e+09,-1.44164e+09,-1.4427e+09,-314404,-0.00838759,0.0867544,-0,0.0871589,8029.86,-50635.9,0,51268.7,314404
step02_gravity_refstate-mantle.xmf,1179,-3.26287e-06,9.49975e-06,0,-1.65794e-06,-1.50826e+09,-1.50656e+09,-1.50783e+09,-221584,-0.0239542,0.0797006,-0,0.0832225,7232.07,-52653.2,0,53147.6,221584
step02_gravity_refstate-mantle.xmf,1180,-2.60052e-06,9.83489e-06,0,-1.16696e-06,-1.53185e+09,-1.53019e+09,-1.53151e+09,-155964,-0.0317784,0.0725043,-0,0.0791627,7239.27,-53387.2,0,53875.8,155964
step02_gravity_refstate-mantle.xmf,1181,4.5551e-08,1.32144e-05,0,-1.02988e-06,-1.65497e+09,-1.65321e+09,-1.65497e+09,-137643,-0.0683998,0.0389268,-0,0.0787009,6401.83,-57216.6,0,57573.6,137643
step02_gravity_refstate-mantle.xmf,1182,-1.0632e-07,1.39531e-06,0,-3.52651e-06,-1.1575e+09,-1.1573e+09,-1.15749e+09,-471318,0.0211377,0.125928,0,0.12769,7948.34,-41818.7,0,42567.3,471318
step02_gravity_refstate-mantle.xmf,1183,2.75435e-07,9.35921e-07,0,-2.47587e-06,-1.09858e+09,-1.09849e+09,-1.09862e+09,-330900,0.0253555,0.127503,0,0.13,8006.22,-40000,0,40793.4,330900
step02_gravity_refstate-mantle.xmf,1184,-9.67875e-07,2.43025e-06,0,-3.81107e-06,-1.20348e+09,-1.20303e+09,-1.20335e+09,-509349,0.0182405,0.117208,0,0.118619,8606.13,-43235.8,0,44084,509349
step02_gravity_refstate-mantle.xmf,1185,-1.40077e-06,2.96628e-06,0,-4.00462e-06,-1.23275e+09,-1.23217e+09,-1.23256e+09,-535217,0.0165271,0.114628,0,0.115813,8623.76,-44138.4,0,44973,535217
step02_gravity_refstate-mantle.xmf,1186,-1.87452e-06,3.57445e-06,0,-4.11124e-06,-1.26235e+09,-1.26162e+09,-1.2621e+09,-549467,0.0146702,0.11179,0,0.112748,8612.54,-45051.2,0,45867,549467
step02_gravity_refstate-mantle.xmf,1187,-2.34952e-06,4.22266e-06,0,-4.10713e-06,-1.29095e+09,-1.29007e+09,-1.29064e+09,-548918,0.0125931,0.10863,0,0.109358,8589.51,-45933.1,0,46729.4,548918
step02_gravity_refstate-mantle.xmf,1188,-2.79185e-06,4.88506e-06,0,-3.98771e-06,-1.31804e+09,-1.31701e+09,-1.31767e+09,-532958,0.010203,0.10511,0,0.105604,8566.55,-46768.6,0,47546.7,532958
step02_gravity_refstate-mantle.xmf,1189,-3.84344e-06,6.89412e-06,0,-3.33245e-06,-1.39909e+09,-1.39766e+09,-1.39858e+09,-445382,0.000672954,0.0960332,0,0.0960355,8098.94,-49270.5,0,49931.7,445382
step02_gravity_refstate-mantle.xmf,1190,-3.20005e-06,5.58784e-06,0,-3.73578e-06,-1.34569e+09,-1.34451e+09,-1.34526e+09,-499286,0.00718484,0.100946,0,0.101201,8542.43,-47621.7,0,48381.8,499286
step02_gravity_refstate-mantle.xmf,1191,-3.55314e-06,6.36639e-06,0,-3.30492e-06,-1.37655e+09,-1.37522e+09,-1.37607e+09,-441703,0.00298971,0.0957312,0,0.0957779,8503.24,-48574.7,0,49313.3,441703
step02_gravity_refstate-mantle.xmf,1192,-3.56878e-06,8.41172e-06,0,-1.76214e-06,-1.46868e+09,-1.46708e+09,-1.46821e+09,-235510,-0.0147288,0.0809441,-0,0.0822732,7977.9,-51425.8,0,52040.9,235510
step02_gravity_refstate-mantle.xmf,1193,-3.10042e-06,8.8034e-06,0,-1.18514e-06,-1.49442e+09,-1.49282e+09,-1.494e+09,-158394,-0.0219182,0.0745717,-0,0.0777261,7936.25,-52224.8,0,52824.4,158394
step02_gravity_refstate-mantle.xmf,1194,-1.84518e-06,1.01284e-05,0,-7.75845e-07,-1.55576e+09,-1.55416e+09,-1.55551e+09,-103692,-0.0398016,0.0651132,-0,0.0763145,7235.71,-54131.5,0,54612.9,103692
step02_gravity_refstate-mantle.xmf,1195,-1.10888e-06,1.0432e-05,0,-5.41003e-07,-1.57931e+09,-1.57777e+09,-1.57916e+09,-72305,-0.0475005,0.0580472,-0,0.0750051,7195.08,-54864.7,0,55334.5,72305
step02_gravity_refstate-mantle.xmf,1196,-5.28555e-07,1.0753e-05,0,-4.55562e-07,-1.59968e+09,-1.59817e+09,-1.59961e+09,-60885.9,-0.053823,0.0521079,-0,0.0749142,7123.71,-55498.5,0,55953.8,60885.9
step02_gravity_refstate-mantle.xmf,1197,5.93432e-08,1.1048e-05,0,-3.91315e-07,-1.62174e+09,-1.62027e+09,-1.62174e+09,-52299.3,-0.0601601,0.0449266,-0,0.0750842,7091.76,-56184.6,0,56630.4,52299.3
step02_gravity_refstate-mantle.xmf,1198,5.33979e-07,1.14036e-05,0,-3.85563e-07,-1.64458e+09,-1.64313e+09,-1.64465e+09,-51530.5,-0.0658935,0.0373133,-0,0.0757247,7048.15,-56894.4,0,57329.3,51530.5
step02_gravity_refstate-mantle.xmf,1199,2.15769e-07,1.37319e-05,0,-9.08233e-07,-1.67724e+09,-1.67544e+09,-1.67727e+09,-121385,-0.0726306,0.0298185,-0,0.0785134,6377.67,-57907.1,0,58257.2,121385
step02_gravity_refstate-mantle.xmf,1200,2.67341e-07,1.42534e-05,0,-6.72331e-07,-1.70258e+09,-1.70071e+09,-1.70262e+09,-89857,-0.0759692,0.018948,-0,0.0782966,6360.16,-58691.6,0,59035.2,89857
step02_gravity_refstate-mantle.xmf,1201,-4.24056e-07,1.59292e-05,0,-4.76405e-07,-1.72561e+09,-1.72343e+09,-1.72556e+09,-63671.6,-0.0776065,0.00957458,-0,0.0781949,5983.3,-59402.6,0,59703.2,63671.6
step02_gravity_refstate-mantle.xmf,1202,-1.24986e-06,1.75813e-05,0,-1.68936e-08,-1.74499e+09,-1.74248e+09,-1.74483e+09,-2257.83,-0.0777258,-8.66911e-20,-0,0.0777258,5628.36,-60000,0,60263.4,2257.83
step02_gravity_refstate-mantle.xmf,1203,-1.65792e-07,1.41742e-06,0,-2.91031e-06,-1.12714e+09,-1.12693e+09,-1.12712e+09,-388963,0.0230724,0.1222,0,0.124359,8538.67,-40880.3,0,41762.6,388963
step02_gravity_refstate-mantle.xmf,1204,-6.2301e-07,2.00407e-06,0,-3.57579e-06,-1.17757e+09,-1.17722e+09,-1.17749e+09,-477904,0.0197637,0.119392,0,0.121017,8559.95,-42436.7,0,43291.4,477904
step02_gravity_refstate-mantle.xmf,1205,-3.5078e-06,7.46285e-06,0,-1.95513e-06,-1.42985e+09,-1.42838e+09,-1.42938e+09,-261303,-0.007904,0.0816713,-0,0.0820528,8732.42,-50224.2,0,50977.7,261303
step02_gravity_refstate-mantle.xmf,1206,-3.59044e-06,6.93985e-06,0,-2.59964e-06,-1.40226e+09,-1.40085e+09,-1.40178e+09,-347442,-0.00217328,0.0881246,-0,0.0881514,8704.97,-49369.9,0,50131.5,347442
step02_gravity_refstate-mantle.xmf,1207,-3.26197e-06,7.86879e-06,0,-1.35888e-06,-1.45598e+09,-1.45449e+09,-1.45555e+09,-181614,-0.0139549,0.0756875,-0,0.0769633,8712.19,-51034.1,0,51772.4,181614
step02_gravity_refstate-mantle.xmf,1208,-2.434e-06,9.06364e-06,0,-6.42299e-07,-1.5196e+09,-1.51806e+09,-1.51927e+09,-85843.3,-0.0295896,0.0675999,-0,0.0737922,7934.21,-53007.8,0,53598.3,85843.3
step02_gravity_refstate-mantle.xmf,1209,-1.71941e-06,9.24928e-06,0,-2.51758e-07,-1.54419e+09,-1.54272e+09,-1.54396e+09,-33647.5,-0.0372826,0.0607117,-0,0.0712454,7923.34,-53772.6,0,54353.2,33647.5
step02_gravity_refstate-mantle.xmf,1210,8.50354e-07,1.18276e-05,0,-3.68216e-07,-1.66724e+09,-1.66577e+09,-1.66735e+09,-49212.1,-0.0705643,0.0293933,-0,0.0764414,7012.62,-57597.5,0,58022.8,49212.1
step02_gravity_refstate-mantle.xmf,1211,-3.41677e-07,1.50449e-06,0,-2.34171e-06,-1.09867e+09,-1.09842e+09,-1.09862e+09,-312970,0.0253232,0.119177,0,0.121838,9083.97,-40000,0,41018.5,312970
step02_gravity_refstate-mantle.xmf,1212,-1.00845e-06,2.51246e-06,0,-3.30225e-06,-1.185e+09,-1.18453e+09,-1.18487e+09,-441346,0.0186615,0.1119,0,0.113445,9342.58,-42664.9,0,43675.8,441346
step02_gravity_refstate-mantle.xmf,1213,-6.13637e-07,1.97825e-06,0,-3.12278e-06,-1.15466e+09,-1.15431e+09,-1.15458e+09,-417360,0.020921,0.11644,0,0.118305,9057.3,-41729,0,42700.6,417360
step02_gravity_refstate-mantle.xmf,1214,-1.38506e-06,3.02944e-06,0,-3.46719e-06,-1.21615e+09,-1.21556e+09,-1.21597e+09,-463390,0.0165153,0.108764,0,0.110011,9398.31,-43625.9,0,44626.8,463390
step02_gravity_refstate-mantle.xmf,1215,-1.79318e-06,3.59934e-06,0,-3.54341e-06,-1.24719e+09,-1.24647e+09,-1.24695e+09,-473577,0.0143032,0.105546,0,0.106511,9406.17,-44583.4,0,45564.8,473577
step02_gravity_refstate-mantle.xmf,1216,-2.21242e-06,4.21819e-06,0,-3.50546e-06,-1.27764e+09,-1.27678e+09,-1.27735e+09,-468505,0.0118698,0.101955,0,0.102643,9401.08,-45522.9,0,46483.5,468505
step02_gravity_refstate-mantle.xmf,1217,-2.5737e-06,4.79207e-06,0,-3.40113e-06,-1.30534e+09,-1.30436e+09,-1.305e+09,-454561,0.0094101,0.09873,0,0.0991775,9340.84,-46377.6,0,47308.9,454561
step02_gravity_refstate-mantle.xmf,1218,-2.88731e-06,5.34465e-06,0,-3.20078e-06,-1.33066e+09,-1.32956e+09,-1.33028e+09,-427784,0.00670245,0.0951495,0,0.0953853,9305.32,-47159,0,48068.3,427784
step02_gravity_refstate-mantle.xmf,1219,-3.14558e-06,5.96095e-06,0,-2.81013e-06,-1.35881e+09,-1.35759e+09,-1.35839e+09,-375574,0.00292904,0.0900802,0,0.0901278,9321.52,-48028.4,0,48924.6,375574
step02_gravity_refstate-mantle.xmf,1220,-2.84573e-06,8.17292e-06,0,-7.99362e-07,-1.48163e+09,-1.48016e+09,-1.48125e+09,-106835,-0.0205051,0.069709,-0,0.0726622,8673.89,-51830.1,0,52550.9,106835
step02_gravity_refstate-mantle.xmf,1221,-2.29683e-06,8.38475e-06,0,-3.1298e-07,-1.50697e+09,-1.50554e+09,-1.50666e+09,-41829.8,-0.0275016,0.063536,-0,0.0692326,8639.94,-52616.8,0,53321.4,41829.8
step02_gravity_refstate-mantle.xmf,1222,-9.45251e-07,9.40485e-06,0,2.7187e-08,-1.56886e+09,-1.56747e+09,-1.56873e+09,3633.55,-0.0449451,0.0537599,-0,0.0700727,7902.07,-54540.2,0,55109.7,3633.55
step02_gravity_refstate-mantle.xmf,1223,-4.09954e-07,9.64006e-06,0,9.52769e-08,-1.58808e+09,-1.58674e+09,-1.58803e+09,12733.8,-0.0506676,0.0491522,-0,0.0705914,7787.27,-55138.3,0,55685.5,12733.8
step02_gravity_refstate-mantle.xmf,1224,2.30588e-07,9.78076e-06,0,1.69705e-07,-1.61005e+09,-1.60877e+09,-1.61008e+09,22681,-0.0568984,0.0426936,-0,0.0711349,7764.98,-55821.5,0,56359,22681
step02_gravity_refstate-mantle.xmf,1225,8.05257e-07,9.98463e-06,0,1.59381e-07,-1.63337e+09,-1.63215e+09,-1.63348e+09,21301.2,-0.0628381,0.0358516,-0,0.0723461,7720.4,-56546.3,0,57070.9,21301.2
step02_gravity_refstate-mantle.xmf,1226,1.27419e-06,1.02204e-05,0,9.90612e-08,-1.65767e+09,-1.65648e+09,-1.65784e+09,13239.5,-0.0680741,0.0284655,-0,0.0737859,7680.05,-57300.7,0,57813.1,13239.5
step02_gravity_refstate-mantle.xmf,1227,1.10275e-06,1.20202e-05,0,-2.76377e-07,-1.68938e+09,-1.68792e+09,-1.68953e+09,-36937.8,-0.0739707,0.0210461,-0,0.0769065,7041.23,-58283.6,0,58707.4,36937.8
step02_gravity_refstate-mantle.xmf,1228,8.28077e-07,1.32948e-05,0,-2.25517e-07,-1.72459e+09,-1.72292e+09,-1.7247e+09,-30140.4,-0.0774159,0.00839148,-0,0.0778694,6714.99,-59372.6,0,59751.1,30140.4
step02_gravity_refstate-mantle.xmf,1229,2.62046e-07,1.46022e-05,0,-6.0199e-09,-1.74491e+09,-1.743e+09,-1.74495e+09,-804.56,-0.0780846,-7.88764e-20,-0,0.0780846,6357.24,-60000,0,60335.8,804.56
step02_gravity_refstate-mantle.xmf,1230,-6.88063e-07,1.96666e-06,0,-2.64313e-06,-1.12837e+09,-1.12801e+09,-1.12828e+09,-353254,0.0225068,0.113203,0,0.115419,9650.35,-40916.3,0,42038.9,353254
step02_gravity_refstate-mantle.xmf,1231,-3.24961e-06,6.52793e-06,0,-2.25677e-06,-1.38753e+09,-1.38622e+09,-1.3871e+09,-301618,-0.00185691,0.0838483,-0,0.0838689,9389.29,-48916.3,0,49809.2,301618
step02_gravity_refstate-mantle.xmf,1232,-2.93864e-06,7.34403e-06,0,-1.03881e-06,-1.4434e+09,-1.44202e+09,-1.443e+09,-138837,-0.0133154,0.0710587,-0,0.0722955,9465.39,-50646.2,0,51523.1,138837
step02_gravity_refstate-mantle.xmf,1233,-3.17558e-06,6.98317e-06,0,-1.6463e-06,-1.41547e+09,-1.41411e+09,-1.41505e+09,-220028,-0.00728564,0.0774016,-0,0.0777438,9450.17,-49781,0,50670.1,220028
step02_gravity_refstate-mantle.xmf,1234,-2.59677e-06,7.6141e-06,0,-5.29261e-07,-1.46914e+09,-1.46777e+09,-1.46879e+09,-70735.7,-0.019294,0.0655679,-0,0.0683477,9414.13,-51444.3,0,52298.6,70735.7
step02_gravity_refstate-mantle.xmf,1235,-1.59577e-06,8.51866e-06,0,1.19739e-07,-1.53224e+09,-1.53089e+09,-1.53203e+09,16003.1,-0.0348269,0.0570692,-0,0.0668566,8621.18,-53402.7,0,54094.1,16003.1
step02_gravity_refstate-mantle.xmf,1236,-8.84839e-07,8.60352e-06,0,3.94825e-07,-1.55706e+09,-1.55579e+09,-1.55694e+09,52768.4,-0.0420589,0.0507308,-0,0.0658981,8591.14,-54174.2,0,54851.2,52768.4
step02_gravity_refstate-mantle.xmf,1237,1.47835e-06,1.06426e-05,0,7.78865e-09,-1.67864e+09,-1.67742e+09,-1.67884e+09,1040.95,-0.0717767,0.0222205,-0,0.0751375,7578.47,-57950.9,0,58444.3,1040.95
step02_gravity_refstate-mantle.xmf,1238,1.2579e-06,1.20553e-05,0,-2.20594e-07,-1.7095e+09,-1.70805e+09,-1.70967e+09,-29482.4,-0.076046,0.0133546,-0,0.0772097,7089,-58906.1,0,59331.2,29482.4
step02_gravity_refstate-mantle.xmf,1239,-8.43214e-07,1.989e-06,0,-2.15039e-06,-1.09874e+09,-1.09836e+09,-1.09863e+09,-287400,0.0246692,0.110918,0,0.113629,10193,-40000,0,41278.3,287400
step02_gravity_refstate-mantle.xmf,1240,-1.37829e-06,3.05668e-06,0,-2.95055e-06,-1.19871e+09,-1.19812e+09,-1.19853e+09,-394341,0.0166215,0.103094,0,0.104425,10232.8,-43087.3,0,44285.7,394341
step02_gravity_refstate-mantle.xmf,1241,-1.0767e-06,2.56663e-06,0,-2.76307e-06,-1.16223e+09,-1.16174e+09,-1.16209e+09,-369285,0.0193837,0.10632,0,0.108072,10221.7,-41961.2,0,43188.3,369285
step02_gravity_refstate-mantle.xmf,1242,-1.72345e-06,3.54089e-06,0,-3.04954e-06,-1.23127e+09,-1.23056e+09,-1.23104e+09,-407571,0.0141181,0.099897,0,0.10089,10220.8,-44091.9,0,45261,407571
step02_gravity_refstate-mantle.xmf,1243,-2.39263e-06,4.73022e-06,0,-2.79542e-06,-1.29558e+09,-1.29463e+09,-1.29527e+09,-373608,0.00820822,0.091596,0,0.0919631,10235,-46077.2,0,47200.3,373608
step02_gravity_refstate-mantle.xmf,1244,-2.05299e-06,4.12589e-06,0,-2.97984e-06,-1.26318e+09,-1.26236e+09,-1.26291e+09,-398255,0.0114014,0.0961027,0,0.0967767,10224,-45077.1,0,46222,398255
step02_gravity_refstate-mantle.xmf,1245,-2.61564e-06,5.07837e-06,0,-2.82644e-06,-1.31571e+09,-1.31469e+09,-1.31536e+09,-377754,0.0066524,0.091049,0,0.0912917,9964.8,-46698.4,0,47749.8,377754
step02_gravity_refstate-mantle.xmf,1246,-2.78811e-06,5.55806e-06,0,-2.43911e-06,-1.34035e+09,-1.33924e+09,-1.33998e+09,-325987,0.0032132,0.0857796,0,0.0858398,10095.8,-47459.6,0,48521.5,325987
step02_gravity_refstate-mantle.xmf,1247,-2.89142e-06,6.07424e-06,0,-1.94827e-06,-1.37002e+09,-1.36882e+09,-1.36963e+09,-260387,-0.00132154,0.0798532,-0,0.0798642,10160.8,-48376.6,0,49432.1,260387
step02_gravity_refstate-mantle.xmf,1248,-2.13217e-06,7.79197e-06,0,-7.91919e-08,-1.49362e+09,-1.49229e+09,-1.49333e+09,-10584,-0.0254268,0.0602571,-0,0.0654021,9353.45,-52204.1,0,53035.4,10584
step02_gravity_refstate-mantle.xmf,1249,-1.52043e-06,7.86164e-06,0,3.30565e-07,-1.51933e+09,-1.51808e+09,-1.51913e+09,44180,-0.0323117,0.0541125,-0,0.0630255,9340.12,-53002.7,0,53819.4,44180
step02_gravity_refstate-mantle.xmf,1250,-3.75062e-07,8.7745e-06,0,4.97247e-07,-1.57597e+09,-1.57475e+09,-1.57592e+09,66457.1,-0.0474238,0.0467073,-0,0.0665627,8461.78,-54762.3,0,55412.1,66457.1
step02_gravity_refstate-mantle.xmf,1251,2.61841e-07,8.75197e-06,0,5.89657e-07,-1.59661e+09,-1.59548e+09,-1.59665e+09,78807.6,-0.0531209,0.0410327,-0,0.0671231,8466.75,-55404.1,0,56047.3,78807.6
step02_gravity_refstate-mantle.xmf,1252,9.29127e-07,8.81807e-06,0,5.97291e-07,-1.62137e+09,-1.62031e+09,-1.62149e+09,79828,-0.0593805,0.034446,-0,0.0686481,8437.97,-56173.3,0,56803.6,79828
step02_gravity_refstate-mantle.xmf,1253,1.51433e-06,8.91525e-06,0,5.18145e-07,-1.64732e+09,-1.64633e+09,-1.64752e+09,69250.1,-0.0650598,0.0274863,-0,0.0706277,8401.31,-56979,0,57595.1,69250.1
step02_gravity_refstate-mantle.xmf,1254,1.96825e-06,9.13763e-06,0,3.78738e-07,-1.67539e+09,-1.67443e+09,-1.67565e+09,50618.3,-0.0699643,0.0198606,-0,0.0727285,8347.89,-57849.9,0,58449.1,50618.3
step02_gravity_refstate-mantle.xmf,1255,1.89187e-06,1.02811e-05,0,7.19435e-08,-1.70019e+09,-1.69907e+09,-1.70044e+09,9615.24,-0.0740845,0.0143768,-0,0.0754666,7796.21,-58618.3,0,59134.4,9615.24
step02_gravity_refstate-mantle.xmf,1256,1.75624e-06,1.10683e-05,0,-2.84456e-08,-1.72442e+09,-1.72317e+09,-1.72465e+09,-3801.76,-0.076375,0.00703357,-0,0.0766982,7511.11,-59367.8,0,59841,3801.76
step02_gravity_refstate-mantle.xmf,1257,1.36665e-06,1.21619e-05,0,-1.4169e-09,-1.74488e+09,-1.74343e+09,-1.74506e+09,-189.368,-0.077463,-6.49813e-20,-0,0.077463,7119.24,-60000,0,60420.9,189.368
step02_gravity_refstate-mantle.xmf,1258,-1.09425e-06,2.42156e-06,0,-2.31355e-06,-1.12971e+09,-1.12924e+09,-1.12957e+09,-309205,0.02138,0.104386,0,0.106553,10799.7,-40956.3,0,42356.2,309205
step02_gravity_refstate-mantle.xmf,1259,-2.8454e-06,6.50936e-06,0,-1.38907e-06,-1.40008e+09,-1.39883e+09,-1.3997e+09,-185649,-0.00660061,0.0736143,-0,0.0739096,10204.3,-49306.7,0,50351.5,185649
step02_gravity_refstate-mantle.xmf,1260,-2.21585e-06,7.02565e-06,0,-2.10434e-07,-1.4598e+09,-1.45856e+09,-1.4595e+09,-28124.5,-0.0191819,0.0603444,-0,0.0633197,10286.1,-51156.9,0,52180.8,28124.5
step02_gravity_refstate-mantle.xmf,1261,-2.62928e-06,6.82753e-06,0,-8.06369e-07,-1.42943e+09,-1.42817e+09,-1.42908e+09,-107771,-0.0124528,0.0672364,-0,0.0683799,10241,-50215.6,0,51249.3,107771
step02_gravity_refstate-mantle.xmf,1262,-2.00905e-06,7.30575e-06,0,3.16028e-08,-1.48037e+09,-1.47913e+09,-1.4801e+09,4223.71,-0.0234108,0.0580566,-0,0.062599,9993.8,-51794.5,0,52749.8,4223.71
step02_gravity_refstate-mantle.xmf,1263,-7.70578e-07,7.90108e-06,0,6.76393e-07,-1.54616e+09,-1.545e+09,-1.54606e+09,90400,-0.0395992,0.0478066,-0,0.062077,9304.97,-53836.4,0,54634.6,90400
step02_gravity_refstate-mantle.xmf,1264,5.0802e-08,8.01794e-06,0,8.61993e-07,-1.57677e+09,-1.5757e+09,-1.57678e+09,115205,-0.0477687,0.041357,-0,0.0631842,9147.6,-54787.8,0,55546.2,115205
step02_gravity_refstate-mantle.xmf,1265,-1.22334e-06,2.37932e-06,0,-1.92597e-06,-1.09879e+09,-1.09831e+09,-1.09862e+09,-257406,0.0234884,0.102885,0,0.105532,11337.1,-40000,0,41575.6,257406
step02_gravity_refstate-mantle.xmf,1266,-1.63542e-06,3.50891e-06,0,-2.55828e-06,-1.21534e+09,-1.21465e+09,-1.21512e+09,-341915,0.0140139,0.0945924,0,0.0956248,11072,-43600.5,0,44984.3,341915
step02_gravity_refstate-mantle.xmf,1267,-1.43784e-06,3.13942e-06,0,-2.45584e-06,-1.18534e+09,-1.18473e+09,-1.18515e+09,-328223,0.0163295,0.0967172,0,0.098086,11193.1,-42674.1,0,44117.6,328223
step02_gravity_refstate-mantle.xmf,1268,-1.91827e-06,3.97132e-06,0,-2.56787e-06,-1.24764e+09,-1.24686e+09,-1.24739e+09,-343196,0.0112827,0.0914136,0,0.0921072,11004.4,-44597.5,0,45935.1,343196
step02_gravity_refstate-mantle.xmf,1269,-2.45422e-06,5.1132e-06,0,-2.18773e-06,-1.31632e+09,-1.3153e+09,-1.31599e+09,-292390,0.00437299,0.083216,0,0.0833308,10834.7,-46718.2,0,47958.1,292390
step02_gravity_refstate-mantle.xmf,1270,-2.17477e-06,4.51975e-06,0,-2.40279e-06,-1.28053e+09,-1.27964e+09,-1.28024e+09,-321133,0.00808302,0.08725,0,0.0876236,10987.3,-45613.2,0,46917.9,321133
step02_gravity_refstate-mantle.xmf,1271,-2.54914e-06,5.62092e-06,0,-1.6788e-06,-1.35059e+09,-1.3495e+09,-1.35025e+09,-224371,-0.000596543,0.0763269,-0,0.0763292,10981.6,-47777.5,0,49023.3,224371
step02_gravity_refstate-mantle.xmf,1272,-2.52559e-06,6.04251e-06,0,-1.17219e-06,-1.38332e+09,-1.38218e+09,-1.38298e+09,-156663,-0.00578758,0.0702765,-0,0.0705144,11000.2,-48789.9,0,50014.5,156663
step02_gravity_refstate-mantle.xmf,1273,-1.4404e-06,7.31271e-06,0,4.63999e-07,-1.50485e+09,-1.50368e+09,-1.50466e+09,62013.5,-0.0296043,0.0520112,-0,0.0598463,10058.8,-52554.5,0,53508.5,62013.5
step02_gravity_refstate-mantle.xmf,1274,-7.72513e-07,7.2709e-06,0,7.99984e-07,-1.53213e+09,-1.53106e+09,-1.53203e+09,106918,-0.0365147,0.045801,-0,0.0585753,10062.4,-53401.6,0,54341.4,106918
step02_gravity_refstate-mantle.xmf,1275,9.28593e-07,7.869e-06,0,9.21787e-07,-1.60774e+09,-1.60681e+09,-1.60787e+09,123197,-0.0554719,0.0333849,-0,0.0647432,9197.44,-55750,0,56503.6,123197
step02_gravity_refstate-mantle.xmf,1276,1.59046e-06,7.86424e-06,0,8.47881e-07,-1.63508e+09,-1.63424e+09,-1.63529e+09,113319,-0.0614541,0.0268667,-0,0.0670703,9161.84,-56598.8,0,57335.5,113319
step02_gravity_refstate-mantle.xmf,1277,2.0957e-06,7.91644e-06,0,6.90767e-07,-1.66123e+09,-1.66046e+09,-1.66151e+09,92321.1,-0.0662542,0.020667,-0,0.0694028,9107.88,-57410.3,0,58128.3,92321.1
step02_gravity_refstate-mantle.xmf,1278,2.44159e-06,8.59779e-06,0,3.16451e-07,-1.70022e+09,-1.6994e+09,-1.70055e+09,42293.7,-0.0721399,0.0119583,-0,0.0731243,8694.44,-58618.6,0,59259.9,42293.7
step02_gravity_refstate-mantle.xmf,1279,2.37788e-06,9.33339e-06,0,1.09565e-07,-1.72276e+09,-1.72183e+09,-1.72308e+09,14643.4,-0.0746496,0.00641233,-0,0.0749245,8307.26,-59316.4,0,59895.3,14643.4
step02_gravity_refstate-mantle.xmf,1280,2.14546e-06,1.01814e-05,0,2.68777e-09,-1.74487e+09,-1.7438e+09,-1.74516e+09,359.221,-0.0760616,-6.23797e-20,-0,0.0760616,7916.27,-60000,0,60520,359.221
step02_gravity_refstate-mantle.xmf,1281,-1.29804e-06,2.81965e-06,0,-2.29484e-06,-1.15531e+09,-1.15475e+09,-1.15513e+09,-306705,0.0186346,0.0985314,0,0.100278,11318.6,-41746.4,0,43253.6,306705
step02_gravity_refstate-mantle.xmf,1282,-1.38125e-06,2.81998e-06,0,-1.95873e-06,-1.13537e+09,-1.13481e+09,-1.13518e+09,-261784,0.0193303,0.0950569,0,0.0970025,12064.3,-41130.1,0,42862.9,261784
step02_gravity_refstate-mantle.xmf,1283,-1.79797e-06,3.844e-06,0,-2.2364e-06,-1.23342e+09,-1.23266e+09,-1.23318e+09,-298895,0.011352,0.087849,0,0.0885794,11683,-44158.6,0,45677.9,298895
step02_gravity_refstate-mantle.xmf,1284,-2.34762e-06,6.34445e-06,0,-6.4474e-07,-1.41412e+09,-1.41295e+09,-1.4138e+09,-86169.5,-0.0113599,0.0642121,-0,0.0652093,11020.7,-49743.1,0,50949.3,86169.5
step02_gravity_refstate-mantle.xmf,1285,-1.47466e-06,6.89821e-06,0,4.51141e-07,-1.48802e+09,-1.48691e+09,-1.48783e+09,60295,-0.0264139,0.0515476,-0,0.0579211,10657.6,-52033.4,0,53113.6,60295
step02_gravity_refstate-mantle.xmf,1286,-2.02518e-06,6.53344e-06,0,-1.32129e-07,-1.44356e+09,-1.44241e+09,-1.44329e+09,-17659,-0.0172608,0.0581873,-0,0.0606935,11041,-50655.2,0,51844.5,17659
step02_gravity_refstate-mantle.xmf,1287,3.30052e-08,7.22728e-06,0,1.0649e-06,-1.56164e+09,-1.56068e+09,-1.56165e+09,142324,-0.0439052,0.0393705,-0,0.058972,10026.4,-54318.3,0,55235.9,142324
step02_gravity_refstate-mantle.xmf,1288,2.41001e-06,7.97259e-06,0,5.23602e-07,-1.68273e+09,-1.68199e+09,-1.68305e+09,69979.4,-0.0693168,0.0154274,-0,0.0710129,9087.51,-58076.6,0,58783.3,69979.4
step02_gravity_refstate-mantle.xmf,1289,-1.48915e-06,2.68462e-06,0,-1.67637e-06,-1.09882e+09,-1.09826e+09,-1.09862e+09,-224046,0.0218872,0.095205,0,0.0976885,12520.4,-40000,0,41913.7,224046
step02_gravity_refstate-mantle.xmf,1290,-1.48738e-06,3.17995e-06,0,-2.03372e-06,-1.1725e+09,-1.17188e+09,-1.1723e+09,-271807,0.0160296,0.0911128,0,0.0925121,12142.1,-42277.3,0,43986.3,271807
step02_gravity_refstate-mantle.xmf,1291,-1.65658e-06,3.59634e-06,0,-2.03639e-06,-1.20906e+09,-1.20836e+09,-1.20884e+09,-272163,0.0128014,0.0872934,0,0.0882271,12144.4,-43406.5,0,45073.4,272163
step02_gravity_refstate-mantle.xmf,1292,-1.99482e-06,4.27947e-06,0,-2.07332e-06,-1.26385e+09,-1.26301e+09,-1.26358e+09,-277100,0.00823241,0.0834972,0,0.0839021,11754.5,-45098.4,0,46605.1,277100
step02_gravity_refstate-mantle.xmf,1293,-2.15103e-06,4.7737e-06,0,-1.78565e-06,-1.29831e+09,-1.29738e+09,-1.29802e+09,-238652,0.00434507,0.0783994,0,0.0785197,11792.5,-46163.1,0,47645.6,238652
step02_gravity_refstate-mantle.xmf,1294,-2.25498e-06,5.23539e-06,0,-1.4267e-06,-1.3331e+09,-1.3321e+09,-1.3328e+09,-190678,-6.03003e-05,0.0730748,-0,0.0730748,11785.9,-47238.2,0,48686.3,190678
step02_gravity_refstate-mantle.xmf,1295,-2.23325e-06,5.61772e-06,0,-9.78059e-07,-1.36708e+09,-1.36603e+09,-1.36678e+09,-130718,-0.00506159,0.0672593,-0,0.0674495,11801.6,-48289.2,0,49710.4,130718
step02_gravity_refstate-mantle.xmf,1296,-2.07647e-06,5.88209e-06,0,-5.10173e-07,-1.39795e+09,-1.39689e+09,-1.39768e+09,-68184.6,-0.0102301,0.0615307,-0,0.0623753,11835.4,-49244.4,0,50646.7,68184.6
step02_gravity_refstate-mantle.xmf,1297,-1.62165e-06,6.6066e-06,0,2.93958e-07,-1.46862e+09,-1.46752e+09,-1.4684e+09,39287.5,-0.0227011,0.0527524,-0,0.0574296,11090.2,-51432.3,0,52614.4,39287.5
step02_gravity_refstate-mantle.xmf,1298,-7.62102e-07,6.75754e-06,0,8.72772e-07,-1.51618e+09,-1.51517e+09,-1.51608e+09,116646,-0.0332237,0.0445328,-0,0.0555606,10824.2,-52907.5,0,54003.4,116646
step02_gravity_refstate-mantle.xmf,1299,-3.44557e-08,6.6193e-06,0,1.12762e-06,-1.54647e+09,-1.54558e+09,-1.54646e+09,150706,-0.0403033,0.0381241,-0,0.055478,10844.3,-53847.5,0,54928.6,150706
step02_gravity_refstate-mantle.xmf,1300,8.48376e-07,7.13907e-06,0,1.16034e-06,-1.59225e+09,-1.59141e+09,-1.59237e+09,155080,-0.0512102,0.0327657,-0,0.0607953,9984.8,-55269.1,0,56163.8,155080
step02_gravity_refstate-mantle.xmf,1301,1.5675e-06,7.0265e-06,0,1.08704e-06,-1.62221e+09,-1.62148e+09,-1.62242e+09,145282,-0.0576562,0.0263349,-0,0.0633858,9948.08,-56199.1,0,57072.8,145282
step02_gravity_refstate-mantle.xmf,1302,2.15229e-06,6.99944e-06,0,9.24574e-07,-1.65048e+09,-1.64984e+09,-1.65077e+09,123569,-0.0628786,0.0204009,-0,0.0661053,9884.4,-57076.3,0,57925.8,123569
step02_gravity_refstate-mantle.xmf,1303,2.54991e-06,7.0919e-06,0,6.96974e-07,-1.67645e+09,-1.67584e+09,-1.67679e+09,93150.6,-0.066869,0.0150669,-0,0.0685454,9764.34,-57881.2,0,58699,93150.6
step02_gravity_refstate-mantle.xmf,1304,2.75596e-06,7.39086e-06,0,4.47928e-07,-1.6998e+09,-1.69918e+09,-1.70017e+09,59865.5,-0.0699632,0.0103626,-0,0.0707264,9516.83,-58604.8,0,59372.5,59865.5
step02_gravity_refstate-mantle.xmf,1305,2.7935e-06,7.9097e-06,0,2.00737e-07,-1.7223e+09,-1.72161e+09,-1.72267e+09,26828.5,-0.0724345,0.00555323,-0,0.072647,9154.8,-59301.1,0,60003.6,26828.5
step02_gravity_refstate-mantle.xmf,1306,2.67055e-06,8.58059e-06,0,5.37682e-09,-1.74489e+09,-1.7441e+09,-1.74525e+09,718.613,-0.07405,-5.57632e-20,-0,0.07405,8750.83,-60000,0,60634.8,718.613
step02_gravity_refstate-mantle.xmf,1307,-1.54003e-06,3.02263e-06,0,-1.57882e-06,-1.13289e+09,-1.13228e+09,-1.13268e+09,-211009,0.0176845,0.0872436,0,0.0890179,13336.3,-41052.8,0,43164.7,211009
step02_gravity_refstate-mantle.xmf,1308,-1.64434e-06,2.89599e-06,0,-1.42244e-06,-1.09884e+09,-1.09823e+09,-1.09862e+09,-190109,0.0199679,0.087976,0,0.0902136,13746.6,-40000,0,42296.2,190109
step02_gravity_refstate-mantle.xmf,1309,-1.82563e-06,4.01562e-06,0,-1.82515e-06,-1.24242e+09,-1.24164e+09,-1.24218e+09,-243931,0.00910619,0.0812777,0,0.0817863,12446.7,-44437,0,46147.3,243931
step02_gravity_refstate-mantle.xmf,1310,-1.79249e-06,6.06515e-06,0,-3.56743e-08,-1.4291e+09,-1.42805e+09,-1.42886e+09,-4767.87,-0.0159245,0.0557114,-0,0.0579427,11842.9,-50209,0,51586.8,4767.87
step02_gravity_refstate-mantle.xmf,1311,-8.89405e-07,6.275e-06,0,7.91073e-07,-1.49373e+09,-1.49277e+09,-1.49361e+09,105727,-0.0288365,0.0446176,-0,0.0531251,11614,-52212,0,53488.1,105727
step02_gravity_refstate-mantle.xmf,1312,-1.37541e-06,6.16484e-06,0,4.16586e-07,-1.46071e+09,-1.45971e+09,-1.46053e+09,55676.7,-0.0221344,0.0498339,-0,0.0545284,11822.3,-51188.5,0,52536,55676.7
step02_gravity_refstate-mantle.xmf,1313,7.53264e-07,6.50858e-06,0,1.28297e-06,-1.57718e+09,-1.57641e+09,-1.57728e+09,171468,-0.0472181,0.0320195,-0,0.0570508,10810,-54801.2,0,55857.2,171468
step02_gravity_refstate-mantle.xmf,1314,-1.52685e-06,3.16405e-06,0,-1.73512e-06,-1.15964e+09,-1.15901e+09,-1.15944e+09,-231899,0.0159317,0.0870375,0,0.0884836,12952.9,-41879.8,0,43837.1,231899
step02_gravity_refstate-mantle.xmf,1315,-1.59578e-06,3.47958e-06,0,-1.6451e-06,-1.19048e+09,-1.18981e+09,-1.19027e+09,-219867,0.012865,0.0826279,0,0.0836235,13151.6,-42832.8,0,44806.4,219867
step02_gravity_refstate-mantle.xmf,1316,-1.60284e-06,3.13548e-06,0,-1.27502e-06,-1.13117e+09,-1.13053e+09,-1.13095e+09,-170406,0.0160212,0.0809221,0,0.0824928,14488.9,-40999.6,0,43484.4,170406
step02_gravity_refstate-mantle.xmf,1317,-1.7054e-06,3.02761e-06,0,-1.1758e-06,-1.09884e+09,-1.09821e+09,-1.09861e+09,-157146,0.0178355,0.081269,0,0.0832031,15019.5,-40000,0,42726.9,157146
step02_gravity_refstate-mantle.xmf,1318,-1.68625e-06,3.85263e-06,0,-1.4959e-06,-1.22661e+09,-1.22587e+09,-1.22638e+09,-199928,0.00919568,0.07763,0,0.0781728,13298.4,-43949,0,45916.9,199928
step02_gravity_refstate-mantle.xmf,1319,-1.95368e-06,4.48544e-06,0,-1.5306e-06,-1.28116e+09,-1.28029e+09,-1.28089e+09,-204565,0.0047392,0.0753222,0,0.0754712,12574.6,-45633.8,0,47334.6,204565
step02_gravity_refstate-mantle.xmf,1320,-2.00512e-06,4.90125e-06,0,-1.19249e-06,-1.31686e+09,-1.31593e+09,-1.31659e+09,-159377,0.000379189,0.0700312,0,0.0700322,12592,-46737.4,0,48403.9,159377
step02_gravity_refstate-mantle.xmf,1321,-1.99985e-06,5.25784e-06,0,-8.34664e-07,-1.35104e+09,-1.35007e+09,-1.35077e+09,-111553,-0.00419297,0.0650445,-0,0.0651795,12533.7,-47794.3,0,49410.4,111553
step02_gravity_refstate-mantle.xmf,1322,-1.83144e-06,5.45217e-06,0,-4.05693e-07,-1.38109e+09,-1.38012e+09,-1.38085e+09,-54220.9,-0.00901997,0.0593149,-0,0.0599968,12653.4,-48724.2,0,50340.4,54220.9
step02_gravity_refstate-mantle.xmf,1323,-1.58118e-06,5.60948e-06,0,1.86388e-08,-1.4121e+09,-1.41113e+09,-1.41188e+09,2491.08,-0.0142699,0.0537647,-0,0.0556261,12692.9,-49683.9,0,51279.6,2491.08
step02_gravity_refstate-mantle.xmf,1324,-6.91737e-08,6.13263e-06,0,1.16598e-06,-1.52979e+09,-1.52896e+09,-1.52978e+09,155834,-0.0366602,0.0373141,-0,0.0523098,11683.7,-53331.1,0,54595.9,155834
step02_gravity_refstate-mantle.xmf,1325,6.56795e-07,5.95359e-06,0,1.31137e-06,-1.56255e+09,-1.56184e+09,-1.56263e+09,175264,-0.0435444,0.0312345,-0,0.0535883,11666.9,-54347.2,0,55585.4,175264
step02_gravity_refstate-mantle.xmf,1326,1.49985e-06,6.3638e-06,0,1.26909e-06,-1.6083e+09,-1.60765e+09,-1.6085e+09,169614,-0.0536735,0.0259402,-0,0.0596132,10775.9,-55767.1,0,56798.7,169614
step02_gravity_refstate-mantle.xmf,1327,2.12017e-06,6.2459e-06,0,1.10073e-06,-1.63883e+09,-1.63828e+09,-1.63911e+09,147112,-0.0592312,0.0201777,-0,0.0625738,10710.1,-56714.2,0,57716.6,147112
step02_gravity_refstate-mantle.xmf,1328,2.61753e-06,6.21518e-06,0,8.5763e-07,-1.66834e+09,-1.66786e+09,-1.66869e+09,114622,-0.0636457,0.0146768,-0,0.065316,10625.5,-57629,0,58600.4,114622
step02_gravity_refstate-mantle.xmf,1329,2.91684e-06,6.41454e-06,0,5.60937e-07,-1.69597e+09,-1.6955e+09,-1.69636e+09,74969.3,-0.0672238,0.00974842,-0,0.067927,10367.9,-58484.8,0,59396.7,74969.3
step02_gravity_refstate-mantle.xmf,1330,3.04104e-06,6.77197e-06,0,2.62664e-07,-1.72121e+09,-1.72071e+09,-1.72162e+09,35105,-0.0698257,0.0049908,-0,0.0700038,10032,-59266.3,0,60109.4,35105
step02_gravity_refstate-mantle.xmf,1331,2.99976e-06,7.29385e-06,0,6.8029e-09,-1.74493e+09,-1.74435e+09,-1.74533e+09,909.207,-0.071568,-5.23605e-20,-0,0.071568,9625.39,-60000,0,60767.2,909.207
step02_gravity_refstate-mantle.xmf,1332,-1.57801e-06,3.33061e-06,0,-1.37376e-06,-1.16695e+09,-1.1663e+09,-1.16674e+09,-183603,0.0135512,0.0796429,0,0.0807875,14070.4,-42105.7,0,44394.5,183603
step02_gravity_refstate-mantle.xmf,1333,-1.59924e-06,3.19762e-06,0,-1.00587e-06,-1.13144e+09,-1.1308e+09,-1.13122e+09,-134435,0.014111,0.0750127,0,0.0763284,15667.2,-41008.2,0,43899.1,134435
step02_gravity_refstate-mantle.xmf,1334,-1.76882e-06,4.22255e-06,0,-1.27318e-06,-1.26346e+09,-1.26266e+09,-1.26322e+09,-170160,0.00516649,0.0723271,0,0.0725114,13414,-45087.8,0,47040.9,170160
step02_gravity_refstate-mantle.xmf,1335,-1.20827e-06,5.70021e-06,0,4.43139e-07,-1.44486e+09,-1.44394e+09,-1.4447e+09,59225.5,-0.0201737,0.0480259,-0,0.0520909,12690.1,-50698.8,0,52262.9,59225.5
step02_gravity_refstate-mantle.xmf,1336,-6.99015e-07,5.71657e-06,0,8.32244e-07,-1.47964e+09,-1.47878e+09,-1.47955e+09,111229,-0.0267631,0.0421273,-0,0.0499097,12634.6,-51776.5,0,53295.8,111229
step02_gravity_refstate-mantle.xmf,1337,-9.86514e-08,5.64352e-06,0,1.12632e-06,-1.5132e+09,-1.51243e+09,-1.51318e+09,150533,-0.0333404,0.0364122,-0,0.0493703,12586.2,-52817,0,54295.9,150533
step02_gravity_refstate-mantle.xmf,1338,1.39578e-06,5.79677e-06,0,1.3561e-06,-1.59429e+09,-1.5937e+09,-1.59448e+09,181243,-0.0497882,0.0255319,-0,0.0559531,11640.4,-55332.3,0,56543.4,181243
step02_gravity_refstate-mantle.xmf,1339,-1.58666e-06,3.67291e-06,0,-1.20691e-06,-1.20773e+09,-1.20703e+09,-1.20752e+09,-161304,0.00948171,0.0742086,0,0.0748119,14253.9,-43366.2,0,45648.7,161304
step02_gravity_refstate-mantle.xmf,1340,-1.56362e-06,3.31097e-06,0,-1.10883e-06,-1.15731e+09,-1.15666e+09,-1.1571e+09,-148195,0.0128849,0.0754474,0,0.0765397,15043.3,-41807.9,0,44432,148195
step02_gravity_refstate-mantle.xmf,1341,-1.68826e-06,3.09338e-06,0,-9.45349e-07,-1.09883e+09,-1.09819e+09,-1.0986e+09,-126346,0.0155876,0.0751314,0,0.0767314,16343,-40000,0,43209.9,126346
step02_gravity_refstate-mantle.xmf,1342,-1.60015e-06,3.98676e-06,0,-1.01028e-06,-1.24552e+09,-1.24477e+09,-1.24531e+09,-135024,0.005543,0.0692706,0,0.069492,14339.9,-44534.1,0,46785.9,135024
step02_gravity_refstate-mantle.xmf,1343,-1.79358e-06,4.58783e-06,0,-9.724e-07,-1.3009e+09,-1.30005e+09,-1.30066e+09,-129961,0.000764809,0.0670127,0,0.0670171,13450.3,-46245.1,0,48161.4,129961
step02_gravity_refstate-mantle.xmf,1344,-1.74785e-06,4.91265e-06,0,-6.30221e-07,-1.33663e+09,-1.33574e+09,-1.3364e+09,-84229.1,-0.00380638,0.0619751,-0,0.0620919,13414.8,-47349.9,0,49213.5,84229.1
step02_gravity_refstate-mantle.xmf,1345,-1.68676e-06,5.16393e-06,0,-3.64803e-07,-1.36513e+09,-1.36421e+09,-1.3649e+09,-48756,-0.00762746,0.0583955,-0,0.0588916,13263.9,-48231.2,0,50021.8,48756
step02_gravity_refstate-mantle.xmf,1346,-1.40781e-06,5.11412e-06,0,2.26746e-09,-1.3857e+09,-1.38483e+09,-1.38551e+09,303.046,-0.0114436,0.0528193,-0,0.0540447,13698.1,-48868.5,0,50752,303.046
step02_gravity_refstate-mantle.xmf,1347,-1.07643e-06,5.26068e-06,0,4.25279e-07,-1.4251e+09,-1.42425e+09,-1.42495e+09,56838.5,-0.0177226,0.0469116,-0,0.0501477,13607.7,-50088.1,0,51903.6,56838.5
step02_gravity_refstate-mantle.xmf,1348,5.99329e-07,5.50524e-06,0,1.33216e-06,-1.54667e+09,-1.54601e+09,-1.54675e+09,178043,-0.0398592,0.0306878,-0,0.050304,12566.9,-53855.2,0,55302,178043
step02_gravity_refstate-mantle.xmf,1349,1.25953e-06,5.30922e-06,0,1.363e-06,-1.57968e+09,-1.57914e+09,-1.57985e+09,182164,-0.0459758,0.0252629,-0,0.0524594,12529.5,-54878.9,0,56291,182164
step02_gravity_refstate-mantle.xmf,1350,2.04991e-06,5.64133e-06,0,1.24252e-06,-1.626e+09,-1.62552e+09,-1.62628e+09,166063,-0.0553499,0.0200453,-0,0.0588679,11593,-56315.9,0,57496.8,166063
step02_gravity_refstate-mantle.xmf,1351,2.56383e-06,5.53064e-06,0,9.93669e-07,-1.65702e+09,-1.65662e+09,-1.65736e+09,132804,-0.0599769,0.0148764,-0,0.0617943,11500.5,-57277.2,0,58420.3,132804
step02_gravity_refstate-mantle.xmf,1352,2.96877e-06,5.55914e-06,0,6.5994e-07,-1.6899e+09,-1.68955e+09,-1.69029e+09,88200.9,-0.0638394,0.00947054,-0,0.064538,11345.5,-58295.5,0,59389.2,88200.9
step02_gravity_refstate-mantle.xmf,1353,3.16344e-06,5.84684e-06,0,3.15143e-07,-1.71888e+09,-1.71852e+09,-1.7193e+09,42118.8,-0.0668456,0.00474015,-0,0.0670135,10960.2,-59192.8,0,60198.9,42118.8
step02_gravity_refstate-mantle.xmf,1354,3.18321e-06,6.25951e-06,0,8.51664e-09,-1.74497e+09,-1.74456e+09,-1.7454e+09,1138.25,-0.0687305,-5.12922e-20,-0,0.0687305,10542.4,-60000,0,60919.1,1138.25
step02_gravity_refstate-mantle.xmf,1355,-1.52372e-06,3.51361e-06,0,-9.70082e-07,-1.18902e+09,-1.18835e+09,-1.18882e+09,-129651,0.00970839,0.0710655,0,0.0717256,15250.9,-42788.2,0,45424.8,129651
step02_gravity_refstate-mantle.xmf,1356,-1.49824e-06,3.37015e-06,0,-8.18006e-07,-1.16604e+09,-1.16539e+09,-1.16584e+09,-109327,0.0104683,0.0694156,0,0.0702005,16123.2,-42078.1,0,45061.3,109327
step02_gravity_refstate-mantle.xmf,1357,-1.52092e-06,3.23127e-06,0,-7.31986e-07,-1.13655e+09,-1.13591e+09,-1.13634e+09,-97830,0.0116535,0.0687974,0,0.0697774,16975.5,-41166.5,0,44529.2,97830
step02_gravity_refstate-mantle.xmf,1358,-1.5946e-06,4.29659e-06,0,-7.57324e-07,-1.28413e+09,-1.28334e+09,-1.28392e+09,-101216,0.00121594,0.0641461,0,0.0641576,14374.3,-45727.7,0,47933.7,101216
step02_gravity_refstate-mantle.xmf,1359,-6.19196e-07,5.27986e-06,0,7.97707e-07,-1.46159e+09,-1.4608e+09,-1.46151e+09,106614,-0.0240261,0.0411088,-0,0.047615,13568.6,-51218.4,0,52985.2,106614
step02_gravity_refstate-mantle.xmf,1360,-7.70875e-08,5.21114e-06,0,1.08655e-06,-1.49642e+09,-1.49572e+09,-1.49641e+09,145218,-0.0302666,0.0355692,-0,0.0467037,13532.6,-52297.9,0,54020.3,145218
step02_gravity_refstate-mantle.xmf,1361,5.18548e-07,5.07881e-06,0,1.27469e-06,-1.53022e+09,-1.52961e+09,-1.53029e+09,170362,-0.0363314,0.030279,-0,0.0472947,13498,-53345.5,0,55026.7,170362
step02_gravity_refstate-mantle.xmf,1362,1.92812e-06,5.13227e-06,0,1.30575e-06,-1.6126e+09,-1.61217e+09,-1.61286e+09,174514,-0.0514549,0.0199699,-0,0.0551942,12511.7,-55899.8,0,57282.9,174514
step02_gravity_refstate-mantle.xmf,1363,-1.47651e-06,3.76059e-06,0,-7.88459e-07,-1.22587e+09,-1.22517e+09,-1.22568e+09,-105378,0.00602483,0.066484,0,0.0667564,15340.7,-43927.5,0,46529.2,105378
step02_gravity_refstate-mantle.xmf,1364,-1.60885e-06,3.10643e-06,0,-7.35924e-07,-1.09881e+09,-1.09818e+09,-1.0986e+09,-98356.2,0.0133137,0.0695879,0,0.0708501,17720.9,-40000,0,43749.6,98356.2
step02_gravity_refstate-mantle.xmf,1365,-1.41931e-06,4.01447e-06,0,-5.6276e-07,-1.26489e+09,-1.26416e+09,-1.2647e+09,-75212.9,0.0018865,0.0616239,0,0.0616528,15376.9,-45133.8,0,47681.3,75212.9
step02_gravity_refstate-mantle.xmf,1366,-1.51835e-06,4.57368e-06,0,-4.38925e-07,-1.32234e+09,-1.32153e+09,-1.32214e+09,-58662.3,-0.00347225,0.0588938,-0,0.0589961,14376.6,-46909.2,0,49062.9,58662.3
step02_gravity_refstate-mantle.xmf,1367,-1.35957e-06,4.81947e-06,0,-6.87503e-08,-1.36272e+09,-1.36189e+09,-1.36254e+09,-9188.48,-0.00883893,0.0534513,-0,0.0541772,14289.6,-48158.2,0,50233.5,9188.48
step02_gravity_refstate-mantle.xmf,1368,-9.8195e-07,4.88049e-06,0,3.84651e-07,-1.40357e+09,-1.40279e+09,-1.40344e+09,51408.6,-0.0151569,0.046412,-0,0.0488242,14486.6,-49422.8,0,51502.1,51408.6
step02_gravity_refstate-mantle.xmf,1369,-5.44056e-07,4.88951e-06,0,7.53306e-07,-1.44275e+09,-1.44203e+09,-1.44268e+09,100679,-0.0213833,0.0403714,-0,0.0456847,14510.2,-50636.1,0,52674.1,100679
step02_gravity_refstate-mantle.xmf,1370,1.16052e-06,4.92201e-06,0,1.37196e-06,-1.56384e+09,-1.56334e+09,-1.564e+09,183362,-0.0421503,0.025162,-0,0.0490895,13461.5,-54388,0,56029.2,183362
step02_gravity_refstate-mantle.xmf,1371,1.75923e-06,4.71508e-06,0,1.30668e-06,-1.59794e+09,-1.59755e+09,-1.59818e+09,174638,-0.0475718,0.0201421,-0,0.0516603,13427.4,-55444.8,0,57047.5,174638
step02_gravity_refstate-mantle.xmf,1372,2.49078e-06,4.9693e-06,0,1.10602e-06,-1.64576e+09,-1.64543e+09,-1.6461e+09,147820,-0.0561176,0.014841,-0,0.0580468,12481.2,-56927.5,0,58279.7,147820
step02_gravity_refstate-mantle.xmf,1373,2.95103e-06,4.82932e-06,0,7.36108e-07,-1.68335e+09,-1.68309e+09,-1.68374e+09,98380.8,-0.0599941,0.00916323,-0,0.0606898,12464.1,-58091.1,0,59413.3,98380.8
step02_gravity_refstate-mantle.xmf,1374,3.19455e-06,5.08176e-06,0,3.52924e-07,-1.71625e+09,-1.716e+09,-1.71668e+09,47168.3,-0.0635281,0.00453898,-0,0.0636901,11968.9,-59110,0,60309.6,47168.3
step02_gravity_refstate-mantle.xmf,1375,3.26021e-06,5.42736e-06,0,1.02629e-08,-1.74502e+09,-1.74473e+09,-1.74546e+09,1371.63,-0.0656295,-4.9024e-20,-0,0.0656295,11504.3,-60000,0,61093,1371.63
step02_gravity_refstate-mantle.xmf,1376,-1.39678e-06,3.55807e-06,0,-6.1919e-07,-1.20409e+09,-1.20343e+09,-1.2039e+09,-82754.7,0.00665321,0.0642204,0,0.0645642,16379.6,-43254.6,0,46252.1,82754.7
step02_gravity_refstate-mantle.xmf,1377,-1.35613e-06,3.37622e-06,0,-5.04655e-07,-1.17783e+09,-1.17719e+09,-1.17764e+09,-67447.1,0.00759041,0.0628282,0,0.063285,17422.6,-42443.1,0,45879.9,67447.1
step02_gravity_refstate-mantle.xmf,1378,-1.35295e-06,3.22018e-06,0,-4.3987e-07,-1.14619e+09,-1.14558e+09,-1.14601e+09,-58788.6,0.00865729,0.0620791,0,0.0626798,18534,-41465.6,0,45419.2,58788.6
step02_gravity_refstate-mantle.xmf,1379,-1.3225e-06,4.24804e-06,0,-2.89032e-07,-1.30413e+09,-1.30338e+09,-1.30395e+09,-38629.1,-0.00263634,0.0565461,-0,0.0566075,15391.1,-46347.1,0,48835.8,38629.1
step02_gravity_refstate-mantle.xmf,1380,-5.25611e-08,4.83121e-06,0,1.03234e-06,-1.47917e+09,-1.47852e+09,-1.47917e+09,137972,-0.0273534,0.0349532,-0,0.044384,14486.6,-51764.2,0,53753,137972
step02_gravity_refstate-mantle.xmf,1381,4.76718e-07,4.71546e-06,0,1.2191e-06,-1.51353e+09,-1.51296e+09,-1.51359e+09,162933,-0.0330226,0.029956,-0,0.0445854,14454,-52828.6,0,54770.2,162933
step02_gravity_refstate-mantle.xmf,1382,1.037e-06,4.55721e-06,0,1.31112e-06,-1.54748e+09,-1.54701e+09,-1.54762e+09,175231,-0.038479,0.0251517,-0,0.04597,14419.6,-53880.7,0,55776.8,175231
step02_gravity_refstate-mantle.xmf,1383,2.32997e-06,4.55309e-06,0,1.16078e-06,-1.63197e+09,-1.63167e+09,-1.63228e+09,155139,-0.0522383,0.0153018,-0,0.0544333,13398.5,-56499.3,0,58066.3,155139
step02_gravity_refstate-mantle.xmf,1384,-1.29221e-06,3.75864e-06,0,-4.08819e-07,-1.24365e+09,-1.24298e+09,-1.24348e+09,-54638.7,0.00269723,0.0594933,0,0.0595545,16439.4,-44477.9,0,47418.8,54638.7
step02_gravity_refstate-mantle.xmf,1385,-1.48308e-06,3.07487e-06,0,-5.52078e-07,-1.09879e+09,-1.09818e+09,-1.09859e+09,-73785.2,0.0110915,0.0646447,0,0.0655893,19156.9,-40000,0,44350.7,73785.2
step02_gravity_refstate-mantle.xmf,1386,-1.16373e-06,3.94622e-06,0,-1.66706e-07,-1.28388e+09,-1.2832e+09,-1.28372e+09,-22280.2,-0.00161805,0.0546149,-0,0.0546388,16460,-45721.9,0,48594.4,22280.2
step02_gravity_refstate-mantle.xmf,1387,-1.14453e-06,4.43032e-06,0,3.27113e-08,-1.34327e+09,-1.34252e+09,-1.34311e+09,4371.87,-0.00756172,0.0512554,-0,0.0518102,15399.8,-47557.7,0,49988.9,4371.87
step02_gravity_refstate-mantle.xmf,1388,-8.8316e-07,4.53598e-06,0,3.63151e-07,-1.3822e+09,-1.38147e+09,-1.38208e+09,48535.1,-0.0128533,0.0458727,-0,0.0476394,15393.8,-48762.3,0,51134.4,48535.1
step02_gravity_refstate-mantle.xmf,1389,-4.70282e-07,4.53716e-06,0,7.10798e-07,-1.42347e+09,-1.4228e+09,-1.42341e+09,94998.1,-0.0188876,0.0397694,-0,0.0440266,15473.4,-50040,0,52377.7,94998.1
step02_gravity_refstate-mantle.xmf,1390,-4.7841e-09,4.47432e-06,0,9.80204e-07,-1.46211e+09,-1.46151e+09,-1.46211e+09,131004,-0.0246887,0.0342989,-0,0.0422605,15492.4,-51236.4,0,53527.4,131004
step02_gravity_refstate-mantle.xmf,1391,1.6237e-06,4.3879e-06,0,1.31606e-06,-1.58192e+09,-1.58155e+09,-1.58214e+09,175891,-0.0436481,0.0204382,-0,0.0481962,14387.4,-54948.1,0,56800.5,175891
step02_gravity_refstate-mantle.xmf,1392,2.14184e-06,4.20078e-06,0,1.17321e-06,-1.61687e+09,-1.6166e+09,-1.61716e+09,156799,-0.0483269,0.0158709,-0,0.0508662,14335,-56030.8,0,57835.5,156799
step02_gravity_refstate-mantle.xmf,1393,2.76357e-06,4.38047e-06,0,8.95229e-07,-1.66481e+09,-1.6646e+09,-1.66518e+09,119647,-0.055612,0.0106922,-0,0.0566306,13446.6,-57516.3,0,59067.2,119647
step02_gravity_refstate-mantle.xmf,1394,3.17547e-06,4.47531e-06,0,3.35201e-07,-1.71692e+09,-1.71675e+09,-1.71735e+09,44799.6,-0.0602243,0.0039118,-0,0.0603512,13012.9,-59128.9,0,60543.9,44799.6
step02_gravity_refstate-mantle.xmf,1395,3.25893e-06,4.76117e-06,0,8.76151e-09,-1.74508e+09,-1.74488e+09,-1.74552e+09,1170.98,-0.0623374,-4.28044e-20,-0,0.0623374,12513.8,-60000,0,61291.1,1170.98
step02_gravity_refstate-mantle.xmf,1396,-1.21e-06,3.54026e-06,0,-2.97618e-07,-1.22071e+09,-1.22007e+09,-1.22055e+09,-39776.7,0.00359541,0.0578605,0,0.0579721,17525.4,-43769.2,0,47147.4,39776.7
step02_gravity_refstate-mantle.xmf,1397,-1.16252e-06,3.35239e-06,0,-2.26187e-07,-1.19509e+09,-1.19449e+09,-1.19494e+09,-30229.9,0.00459414,0.0568151,0,0.0570005,18625.9,-42977.8,0,46840.3,30229.9
step02_gravity_refstate-mantle.xmf,1398,-1.21878e-06,3.12352e-06,0,-2.73673e-07,-1.1407e+09,-1.14012e+09,-1.14054e+09,-36576.4,0.00711516,0.0579988,0,0.0584336,20041.3,-41296.5,0,45902.7,36576.4
step02_gravity_refstate-mantle.xmf,1399,-1.32351e-06,3.00731e-06,0,-3.96243e-07,-1.09876e+09,-1.09818e+09,-1.09858e+09,-52957.8,0.00898619,0.0602917,0,0.0609577,20655.1,-40000,0,45018.2,52957.8
step02_gravity_refstate-mantle.xmf,1400,-9.82979e-07,4.10423e-06,0,1.08788e-07,-1.32423e+09,-1.32355e+09,-1.3241e+09,14539.6,-0.00630269,0.0495582,-0,0.0499574,16468,-46969.8,0,49773.1,14539.6
step02_gravity_refstate-mantle.xmf,1401,4.57818e-07,4.39542e-06,0,1.15936e-06,-1.49742e+09,-1.49689e+09,-1.49748e+09,154948,-0.0300444,0.0296233,-0,0.0421925,15424.2,-52330,0,54555.8,154948
step02_gravity_refstate-mantle.xmf,1402,9.44613e-07,4.26904e-06,0,1.25657e-06,-1.531e+09,-1.53056e+09,-1.53113e+09,167940,-0.0350813,0.0252765,-0,0.0432389,15351.7,-53370.5,0,55534.5,167940
step02_gravity_refstate-mantle.xmf,1403,1.45855e-06,4.08726e-06,0,1.26522e-06,-1.56491e+09,-1.56455e+09,-1.5651e+09,169097,-0.0398136,0.020846,-0,0.0449409,15366.3,-54420.7,0,56548.5,169097
step02_gravity_refstate-mantle.xmf,1404,2.57862e-06,4.05569e-06,0,9.69438e-07,-1.64974e+09,-1.64954e+09,-1.65008e+09,129565,-0.0518139,0.0116409,-0,0.0531055,14352.2,-57048.6,0,58826.3,129565
step02_gravity_refstate-mantle.xmf,1405,3.01569e-06,4.26574e-06,0,5.88478e-07,-1.69337e+09,-1.69321e+09,-1.69378e+09,78650.1,-0.057585,0.00681324,-0,0.0579867,13504.3,-58399.9,0,59941,78650.1
step02_gravity_refstate-mantle.xmf,1406,-1.05114e-06,3.69024e-06,0,-7.53173e-08,-1.26247e+09,-1.26183e+09,-1.26233e+09,-10066.2,-0.00054025,0.0530886,-0,0.0530914,17553.9,-45060.5,0,48359,10066.2
step02_gravity_refstate-mantle.xmf,1407,-1.09367e-06,3.21771e-06,0,-1.4801e-07,-1.17847e+09,-1.17789e+09,-1.17832e+09,-19781.5,0.00468898,0.055138,0,0.0553371,19742.6,-42464.4,0,46829.4,19781.5
step02_gravity_refstate-mantle.xmf,1408,-1.06245e-06,3.02517e-06,0,-1.42904e-07,-1.13971e+09,-1.13917e+09,-1.13957e+09,-19099.2,0.0055409,0.0544293,0,0.0547106,21476.1,-41267,0,46520.8,19099.2
step02_gravity_refstate-mantle.xmf,1409,-1.1449e-06,2.9173e-06,0,-2.67223e-07,-1.09873e+09,-1.09818e+09,-1.09857e+09,-35714.3,0.00705265,0.0565072,0,0.0569456,22219.5,-40000,0,45757,35714.3
step02_gravity_refstate-mantle.xmf,1410,-8.59658e-07,3.81256e-06,0,1.64227e-07,-1.30373e+09,-1.3031e+09,-1.30361e+09,21948.9,-0.0049449,0.0482559,-0,0.0485086,17565.5,-46336.7,0,49554.3,21948.9
step02_gravity_refstate-mantle.xmf,1411,-7.26614e-07,4.19908e-06,0,4.00831e-07,-1.36397e+09,-1.36331e+09,-1.36388e+09,53571,-0.0112718,0.0444129,-0,0.0458209,16479.3,-48199.5,0,50938.8,53571
step02_gravity_refstate-mantle.xmf,1412,-3.89481e-07,4.20974e-06,0,6.78588e-07,-1.40404e+09,-1.40343e+09,-1.40399e+09,90693.3,-0.016581,0.0391251,-0,0.0424936,16499.9,-49439.5,0,52120.2,90693.3
step02_gravity_refstate-mantle.xmf,1413,3.22748e-08,4.15618e-06,0,9.24339e-07,-1.44402e+09,-1.44347e+09,-1.44402e+09,123538,-0.0220628,0.0338415,-0,0.0403982,16531.6,-50677,0,53305.3,123538
step02_gravity_refstate-mantle.xmf,1414,5.55785e-07,4.04131e-06,0,1.1238e-06,-1.48591e+09,-1.48544e+09,-1.48598e+09,150195,-0.0278212,0.0284214,-0,0.0397717,16569.7,-51974.3,0,54551.6,150195
step02_gravity_refstate-mantle.xmf,1415,1.9835e-06,3.921e-06,0,1.19142e-06,-1.60067e+09,-1.60041e+09,-1.60093e+09,159233,-0.0443558,0.016448,-0,0.0473072,15337.4,-55528.5,0,57607.7,159233
step02_gravity_refstate-mantle.xmf,1416,2.40685e-06,3.76544e-06,0,9.92365e-07,-1.63574e+09,-1.63555e+09,-1.63606e+09,132630,-0.0481872,0.012337,-0,0.0497414,15281.3,-56614.1,0,58640.2,132630
step02_gravity_refstate-mantle.xmf,1417,2.89905e-06,3.88021e-06,0,6.42158e-07,-1.68442e+09,-1.68428e+09,-1.6848e+09,85824.5,-0.0541199,0.00725596,-0,0.0546041,14493.3,-58121.4,0,59901.2,85824.5
step02_gravity_refstate-mantle.xmf,1418,3.11224e-06,3.99316e-06,0,3.16189e-07,-1.71659e+09,-1.71647e+09,-1.71701e+09,42258.6,-0.0568388,0.00354003,-0,0.0569489,14085.9,-59117.1,0,60772,42258.6
step02_gravity_refstate-mantle.xmf,1419,3.20468e-06,4.22585e-06,0,8.56924e-09,-1.74514e+09,-1.745e+09,-1.74556e+09,1145.28,-0.0589117,-3.98703e-20,-0,0.0589117,13573.4,-60000,0,61516.1,1145.28
step02_gravity_refstate-mantle.xmf,1420,-9.72252e-07,3.47379e-06,0,-9.26868e-09,-1.23994e+09,-1.23934e+09,-1.23981e+09,-1238.76,0.000514263,0.0518689,0,0.0518714,18694,-44364.6,0,48142.3,1238.76
step02_gravity_refstate-mantle.xmf,1421,-9.13405e-07,3.29053e-06,0,3.35882e-08,-1.21725e+09,-1.21669e+09,-1.21713e+09,4489.06,0.00143227,0.0509187,0,0.0509388,19858.1,-43663.8,0,47967.4,4489.06
step02_gravity_refstate-mantle.xmf,1422,-9.21844e-07,3.13306e-06,0,8.99341e-09,-1.18571e+09,-1.18517e+09,-1.18559e+09,1201.97,0.00291107,0.0512698,0,0.0513524,20960.5,-42689.1,0,47557.3,1201.97
step02_gravity_refstate-mantle.xmf,1423,-8.88847e-07,2.91711e-06,0,-3.39244e-08,-1.14e+09,-1.13949e+09,-1.13988e+09,-4533.99,0.00402605,0.0511689,0,0.0513271,23008.7,-41276.5,0,47256.2,4533.99
step02_gravity_refstate-mantle.xmf,1424,-6.14448e-07,3.90095e-06,0,4.17532e-07,-1.34469e+09,-1.34408e+09,-1.3446e+09,55803.1,-0.00962436,0.0433662,-0,0.0444213,17565.1,-47603.8,0,50741,55803.1
step02_gravity_refstate-mantle.xmf,1425,8.7962e-07,4.0648e-06,0,1.21528e-06,-1.51678e+09,-1.51635e+09,-1.51689e+09,162422,-0.0323536,0.0254512,-0,0.0411645,16140.9,-52930,0,55336.4,162422
step02_gravity_refstate-mantle.xmf,1426,1.30633e-06,3.86976e-06,0,1.22236e-06,-1.54658e+09,-1.54623e+09,-1.54675e+09,163369,-0.0361595,0.0215287,-0,0.0420832,16279.8,-53852.9,0,56259.8,163369
step02_gravity_refstate-mantle.xmf,1427,1.79339e-06,3.66997e-06,0,1.15888e-06,-1.58306e+09,-1.58281e+09,-1.5833e+09,154884,-0.0404298,0.0171428,-0,0.043914,16356.9,-54982.7,0,57364.2,154884
step02_gravity_refstate-mantle.xmf,1428,2.6887e-06,3.71274e-06,0,7.93925e-07,-1.66374e+09,-1.66361e+09,-1.6641e+09,106108,-0.0508375,0.00919523,-0,0.0516624,15167,-57481,0,59448.4,106108
step02_gravity_refstate-mantle.xmf,1429,-7.65177e-07,3.56784e-06,0,2.08319e-07,-1.28287e+09,-1.28229e+09,-1.28277e+09,27841.8,-0.00366904,0.0471489,-0,0.0472914,18708.1,-45692.5,0,49374.1,27841.8
step02_gravity_refstate-mantle.xmf,1430,-8.35061e-07,3.0096e-06,0,4.87538e-08,-1.17259e+09,-1.17208e+09,-1.17248e+09,6515.95,0.00272882,0.0497669,0,0.0498417,22206.8,-42284.1,0,47760.7,6515.95
step02_gravity_refstate-mantle.xmf,1431,-9.58201e-07,2.81407e-06,0,-1.63905e-07,-1.09869e+09,-1.09819e+09,-1.09857e+09,-21905.9,0.00533158,0.0532606,0,0.0535268,23854.1,-40000,0,46572.7,21905.9
step02_gravity_refstate-mantle.xmf,1432,-5.22704e-07,3.63224e-06,0,4.28297e-07,-1.32523e+09,-1.32468e+09,-1.32516e+09,57242,-0.00807998,0.042443,-0,0.0432053,18701,-47002.8,0,50586.4,57242
step02_gravity_refstate-mantle.xmf,1433,-3.04229e-07,3.92792e-06,0,6.63832e-07,-1.38527e+09,-1.38471e+09,-1.38523e+09,88721.1,-0.0145282,0.038454,-0,0.0411069,17563.7,-48859.6,0,51920.6,88721.1
step02_gravity_refstate-mantle.xmf,1434,6.24441e-08,3.87688e-06,0,8.69864e-07,-1.42526e+09,-1.42475e+09,-1.42527e+09,116257,-0.0195366,0.0335687,-0,0.0388398,17582.7,-50097.1,0,53093.1,116257
step02_gravity_refstate-mantle.xmf,1435,4.73133e-07,3.78874e-06,0,1.02814e-06,-1.46385e+09,-1.4634e+09,-1.46391e+09,137411,-0.0244116,0.0289442,-0,0.0378641,17596.9,-51291.6,0,54226.1,137411
step02_gravity_refstate-mantle.xmf,1436,1.10387e-06,3.7411e-06,0,1.18607e-06,-1.52298e+09,-1.52263e+09,-1.52313e+09,158519,-0.0322375,0.0229807,-0,0.03959,17079.2,-53122.3,0,55800.4,158519
step02_gravity_refstate-mantle.xmf,1437,2.2609e-06,3.52045e-06,0,1.01781e-06,-1.62138e+09,-1.62121e+09,-1.62168e+09,136030,-0.0444506,0.0129187,-0,0.0462898,16314,-56169.1,0,58490.3,136030
step02_gravity_refstate-mantle.xmf,1438,2.6416e-06,3.41582e-06,0,7.53205e-07,-1.66202e+09,-1.66192e+09,-1.66237e+09,100666,-0.0480161,0.00866232,-0,0.0487912,16181.8,-57426.7,0,59663,100666
step02_gravity_refstate-mantle.xmf,1439,2.85763e-06,3.54301e-06,0,5.93414e-07,-1.68589e+09,-1.6858e+09,-1.68628e+09,79309.8,-0.0512329,0.00647225,-0,0.0516401,15527.5,-58166,0,60202.9,79309.8
step02_gravity_refstate-mantle.xmf,1440,3.0106e-06,3.59576e-06,0,3.15075e-07,-1.71414e+09,-1.71406e+09,-1.71454e+09,42109.8,-0.0532423,0.0034683,-0,0.0533551,15236.4,-59039.6,0,60974,42109.8
step02_gravity_refstate-mantle.xmf,1441,3.1162e-06,3.79327e-06,0,9.04123e-09,-1.74519e+09,-1.7451e+09,-1.74561e+09,1208.36,-0.055395,-3.94923e-20,-0,0.055395,14685.8,-60000,0,61771.1,1208.36
step02_gravity_refstate-mantle.xmf,1442,-6.93945e-07,3.36152e-06,0,2.37545e-07,-1.2614e+09,-1.26085e+09,-1.2613e+09,31747.9,-0.00248055,0.0462542,-0,0.0463206,19906.2,-45029,0,49232.8,31747.9
step02_gravity_refstate-mantle.xmf,1443,-6.53351e-07,3.1839e-06,0,2.38308e-07,-1.23759e+09,-1.23708e+09,-1.2375e+09,31849.8,-0.0012466,0.0458341,-0,0.0458511,21122.9,-44293.4,0,49072.2,31849.8
step02_gravity_refstate-mantle.xmf,1444,-6.26616e-07,3.03558e-06,0,2.20798e-07,-1.21341e+09,-1.21292e+09,-1.21332e+09,29509.6,-0.000185883,0.0456663,-0,0.0456667,22352.7,-43546.2,0,48948.1,29509.6
step02_gravity_refstate-mantle.xmf,1445,-6.24984e-07,2.9079e-06,0,1.73255e-07,-1.18506e+09,-1.18459e+09,-1.18498e+09,23155.5,0.000923048,0.0460813,0,0.0460905,23587,-42670.3,0,48755.5,23155.5
step02_gravity_refstate-mantle.xmf,1446,-6.84999e-07,2.80031e-06,0,6.66846e-08,-1.14519e+09,-1.14472e+09,-1.14509e+09,8912.39,0.00240984,0.0478203,0,0.047881,24708.6,-41437.9,0,48245.4,8912.39
step02_gravity_refstate-mantle.xmf,1447,-2.35075e-07,3.66498e-06,0,6.43045e-07,-1.36653e+09,-1.36601e+09,-1.3665e+09,85942.9,-0.0126213,0.0378438,-0,0.039893,18673.9,-48280.6,0,51766.1,85942.9
step02_gravity_refstate-mantle.xmf,1448,8.54778e-07,3.67385e-06,0,1.11207e-06,-1.49658e+09,-1.4962e+09,-1.49669e+09,148628,-0.0284294,0.0250346,-0,0.0378809,17661.8,-52304.9,0,55206.4,148628
step02_gravity_refstate-mantle.xmf,1449,1.59855e-06,3.48958e-06,0,1.13521e-06,-1.56194e+09,-1.56169e+09,-1.56215e+09,151721,-0.0364347,0.0182392,-0,0.040745,17338.3,-54328.5,0,57028.1,151721
step02_gravity_refstate-mantle.xmf,1450,2.06277e-06,3.31292e-06,0,1.0048e-06,-1.60393e+09,-1.60377e+09,-1.60421e+09,134292,-0.0406107,0.013785,-0,0.0428865,17357.6,-55628.3,0,58273.5,134292
step02_gravity_refstate-mantle.xmf,1451,-4.46926e-07,3.40742e-06,0,4.3685e-07,-1.30594e+09,-1.30543e+09,-1.30588e+09,58385,-0.00667714,0.0416352,-0,0.0421672,19885.9,-46406.8,0,50488,58385
step02_gravity_refstate-mantle.xmf,1452,-7.72321e-07,2.70376e-06,0,-8.54011e-08,-1.09866e+09,-1.0982e+09,-1.09856e+09,-11413.9,0.00385076,0.0505148,0,0.0506613,25563.1,-40000,0,47470.8,11413.9
step02_gravity_refstate-mantle.xmf,1453,-1.86444e-07,3.43111e-06,0,6.1523e-07,-1.34738e+09,-1.3469e+09,-1.34736e+09,82225.5,-0.0108054,0.0373924,-0,0.0389224,19818.2,-47688.8,0,51642.8,82225.5
step02_gravity_refstate-mantle.xmf,1454,1.01845e-07,3.63742e-06,0,8.31556e-07,-1.40691e+09,-1.40644e+09,-1.40693e+09,111137,-0.0172356,0.0332804,-0,0.0374787,18674.3,-49530.1,0,52933.5,111137
step02_gravity_refstate-mantle.xmf,1455,4.75773e-07,3.54935e-06,0,9.68858e-07,-1.44718e+09,-1.44677e+09,-1.44724e+09,129488,-0.0218908,0.0287782,-0,0.0361578,18682.7,-50776.2,0,54104.2,129488
step02_gravity_refstate-mantle.xmf,1456,8.87156e-07,3.4438e-06,0,1.06158e-06,-1.48784e+09,-1.4875e+09,-1.48796e+09,141880,-0.0265517,0.0244213,-0,0.0360748,18646.5,-52034.6,0,55274.6,141880
step02_gravity_refstate-mantle.xmf,1457,1.36325e-06,3.35606e-06,0,1.11456e-06,-1.53237e+09,-1.53211e+09,-1.53256e+09,148961,-0.0317061,0.0200638,-0,0.0375211,18396.4,-53413.3,0,56492.5,148961
step02_gravity_refstate-mantle.xmf,1458,2.44679e-06,3.19851e-06,0,8.08618e-07,-1.64379e+09,-1.64369e+09,-1.64412e+09,108072,-0.0439604,0.00981236,-0,0.0450422,17294.5,-56861.7,0,59433.6,108072
step02_gravity_refstate-mantle.xmf,1459,2.87589e-06,3.28547e-06,0,3.61464e-07,-1.70591e+09,-1.70586e+09,-1.7063e+09,48309.6,-0.0495737,0.00401297,-0,0.0497358,16398.1,-58783.8,0,61028.1,48309.6
step02_gravity_refstate-mantle.xmf,1460,3.00663e-06,3.44208e-06,0,1.13696e-08,-1.74524e+09,-1.74519e+09,-1.74565e+09,1519.54,-0.05182,-4.73027e-20,-0,0.05182,15854,-60000,0,62059.2,1519.54
step02_gravity_refstate-mantle.xmf,1461,-3.89697e-07,3.21405e-06,0,4.34064e-07,-1.28514e+09,-1.28466e+09,-1.28509e+09,58012.7,-0.00528583,0.0410578,-0,0.0413967,21157.2,-45764.2,0,50418.1,58012.7
step02_gravity_refstate-mantle.xmf,1462,-3.57923e-07,3.04786e-06,0,4.09213e-07,-1.26251e+09,-1.26206e+09,-1.26246e+09,54691.4,-0.0039078,0.0408595,-0,0.0410459,22457.2,-45064.9,0,50350.5,54691.4
step02_gravity_refstate-mantle.xmf,1463,-3.53806e-07,2.90717e-06,0,3.59654e-07,-1.23629e+09,-1.23586e+09,-1.23625e+09,48067.7,-0.00248556,0.0411644,-0,0.0412394,23785.6,-44254.7,0,50241.7,48067.7
step02_gravity_refstate-mantle.xmf,1464,-3.67433e-07,2.77136e-06,0,2.83405e-07,-1.20284e+09,-1.20242e+09,-1.20279e+09,37877.1,-0.00099651,0.0419743,-0,0.0419862,25347.3,-43221,0,50105.3,37877.1
step02_gravity_refstate-mantle.xmf,1465,-5.00524e-07,2.68255e-06,0,1.24963e-07,-1.14892e+09,-1.1485e+09,-1.14886e+09,16701.3,0.00120932,0.0451938,0,0.04521,26433.8,-41554.3,0,49249.4,16701.3
step02_gravity_refstate-mantle.xmf,1466,1.2073e-07,3.41765e-06,0,7.83346e-07,-1.38785e+09,-1.3874e+09,-1.38786e+09,104694,-0.0150157,0.033155,-0,0.0363968,19791,-48940.6,0,52790.8,104694
step02_gravity_refstate-mantle.xmf,1467,1.89472e-06,3.1386e-06,0,9.90283e-07,-1.58555e+09,-1.58538e+09,-1.5858e+09,132351,-0.0368549,0.0146758,-0,0.0396694,18427.8,-55058.7,0,58060.7,132351
step02_gravity_refstate-mantle.xmf,1468,2.26608e-06,3.03568e-06,0,8.17351e-07,-1.62837e+09,-1.62826e+09,-1.62867e+09,109239,-0.0405036,0.0106666,-0,0.0418846,18308.2,-56383.7,0,59281.6,109239
step02_gravity_refstate-mantle.xmf,1469,2.6797e-06,3.14451e-06,0,5.60518e-07,-1.67834e+09,-1.67828e+09,-1.6787e+09,74913.3,-0.0463067,0.00648306,-0,0.0467583,17174.6,-57930.4,0,60422.7,74913.3
step02_gravity_refstate-mantle.xmf,1470,-1.16623e-07,3.22157e-06,0,6.03135e-07,-1.33051e+09,-1.33007e+09,-1.3305e+09,80609,-0.00935749,0.0366324,-0,0.0378087,21108.5,-47167.5,0,51675.4,80609
step02_gravity_refstate-mantle.xmf,1471,-5.95235e-07,2.59378e-06,0,-2.89959e-08,-1.09863e+09,-1.09821e+09,-1.09855e+09,-3875.3,0.00262615,0.04823,0,0.0483015,27351,-40000,0,48457,3875.3
step02_gravity_refstate-mantle.xmf,1472,1.12817e-07,3.2492e-06,0,7.34094e-07,-1.36869e+09,-1.36827e+09,-1.36871e+09,98111.6,-0.0129664,0.0333247,-0,0.0357584,20812,-48348.5,0,52637.6,98111.6
step02_gravity_refstate-mantle.xmf,1473,4.70073e-07,3.34889e-06,0,9.15661e-07,-1.42831e+09,-1.42792e+09,-1.42837e+09,122378,-0.0192785,0.0288659,-0,0.0347117,19821.5,-50192.7,0,53964.8,122378
step02_gravity_refstate-mantle.xmf,1474,8.5147e-07,3.23812e-06,0,9.93551e-07,-1.4711e+09,-1.47078e+09,-1.47121e+09,132788,-0.0237465,0.0245131,-0,0.034129,19810.4,-51516.7,0,55194.4,132788
step02_gravity_refstate-mantle.xmf,1475,1.27423e-06,3.11822e-06,0,1.02102e-06,-1.51644e+09,-1.5162e+09,-1.51661e+09,136459,-0.0283552,0.0201326,-0,0.0347755,19730,-52919.9,0,56478.2,136459
step02_gravity_refstate-mantle.xmf,1476,2.54759e-06,2.94135e-06,0,5.7015e-07,-1.66936e+09,-1.6693e+09,-1.6697e+09,76200.5,-0.0429375,0.00687883,-0,0.043485,18299.5,-57651.5,0,60486.1,76200.5
step02_gravity_refstate-mantle.xmf,1477,2.77269e-06,3.0134e-06,0,2.81451e-07,-1.71064e+09,-1.7106e+09,-1.71101e+09,37615.9,-0.0460291,0.00324839,-0,0.0461436,17699,-58928.3,0,61528.9,37615.9
step02_gravity_refstate-mantle.xmf,1478,2.88117e-06,3.16002e-06,0,6.78358e-09,-1.74529e+09,-1.74526e+09,-1.74568e+09,906.626,-0.0482055,-3.79838e-20,-0,0.0482055,17080.8,-60000,0,62383.9,906.626
step02_gravity_refstate-mantle.xmf,1479,-4.31343e-08,3.03377e-06,0,5.86725e-07,-1.31531e+09,-1.3149e+09,-1.31531e+09,78415.8,-0.00814353,0.0358386,-0,0.0367522,22489.9,-46698.1,0,51831.5,78415.8
step02_gravity_refstate-mantle.xmf,1480,-5.49325e-08,2.89921e-06,0,5.31375e-07,-1.29117e+09,-1.29078e+09,-1.29116e+09,71018.2,-0.00633781,0.0362833,-0,0.0368327,23752,-45951.8,0,51727.4,71018.2
step02_gravity_refstate-mantle.xmf,1481,-7.45884e-08,2.77745e-06,0,4.63128e-07,-1.26483e+09,-1.26445e+09,-1.26482e+09,61897.1,-0.00464166,0.036925,-0,0.0372156,25121.3,-45137.8,0,51657.6,61897.1
step02_gravity_refstate-mantle.xmf,1482,-3.37534e-07,2.56652e-06,0,1.50063e-07,-1.14935e+09,-1.14897e+09,-1.14931e+09,20055.9,0.000408842,0.0432228,0,0.0432248,28300.3,-41568.4,0,50287.5,20055.9
step02_gravity_refstate-mantle.xmf,1483,-2.05845e-07,2.62911e-06,0,2.89833e-07,-1.20026e+09,-1.19988e+09,-1.20023e+09,38736.2,-0.0014319,0.0400484,-0,0.040074,27313.3,-43142,0,51061.2,38736.2
step02_gravity_refstate-mantle.xmf,1484,4.34535e-07,3.16628e-06,0,8.47736e-07,-1.40661e+09,-1.40625e+09,-1.40667e+09,113300,-0.0165766,0.0292738,-0,0.0336413,20997.5,-49521.8,0,53789.4,113300
step02_gravity_refstate-mantle.xmf,1485,1.74869e-06,2.98385e-06,0,9.74932e-07,-1.5658e+09,-1.56563e+09,-1.56603e+09,130300,-0.032963,0.0155473,-0,0.0364456,19639.3,-54447.4,0,57881.1,130300
step02_gravity_refstate-mantle.xmf,1486,2.185e-06,2.84258e-06,0,7.81686e-07,-1.62067e+09,-1.62058e+09,-1.62096e+09,104472,-0.0372891,0.0106762,-0,0.0387874,19524,-56144.8,0,59442.6,104472
step02_gravity_refstate-mantle.xmf,1487,2.38049e-06,2.87593e-06,0,6.77469e-07,-1.64692e+09,-1.64686e+09,-1.64724e+09,90543.8,-0.0401851,0.00863203,-0,0.0411018,18945.6,-56957.2,0,60025.5,90543.8
step02_gravity_refstate-mantle.xmf,1488,2.85107e-07,3.0284e-06,0,7.41459e-07,-1.37094e+09,-1.37057e+09,-1.37098e+09,99096,-0.0129103,0.0311236,-0,0.033695,22130.8,-48418.5,0,53236.5,99096
step02_gravity_refstate-mantle.xmf,1489,-4.45541e-07,2.48834e-06,0,3.39424e-09,-1.09861e+09,-1.09822e+09,-1.09855e+09,453.64,0.00166172,0.0463661,0,0.0463959,29222.3,-40000,0,49537.3,453.64
step02_gravity_refstate-mantle.xmf,1490,-7.92352e-08,2.67717e-06,0,4.00449e-07,-1.24226e+09,-1.2419e+09,-1.24225e+09,53520,-0.00342193,0.0374373,-0,0.0375934,26443.9,-44440.4,0,51712.9,53520
step02_gravity_refstate-mantle.xmf,1491,8.01419e-07,3.07328e-06,0,9.33397e-07,-1.45084e+09,-1.45054e+09,-1.45095e+09,124749,-0.0207648,0.024968,-0,0.0324743,21025,-50890.3,0,55062.4,124749
step02_gravity_refstate-mantle.xmf,1492,1.18332e-06,2.95018e-06,0,9.5302e-07,-1.49721e+09,-1.49697e+09,-1.49737e+09,127371,-0.0250279,0.0206704,-0,0.0324602,20996.3,-52324.7,0,56380.1,127371
step02_gravity_refstate-mantle.xmf,1493,1.58087e-06,2.82856e-06,0,9.13214e-07,-1.54515e+09,-1.54498e+09,-1.54536e+09,122051,-0.0291633,0.0164339,-0,0.0334749,20920.4,-53808,0,57731.9,122051
step02_gravity_refstate-mantle.xmf,1494,2.44703e-06,2.72991e-06,0,5.12805e-07,-1.66787e+09,-1.66783e+09,-1.66819e+09,68536.4,-0.0393916,0.00653601,-0,0.0399302,19694,-57604.2,0,60877.8,68536.4
step02_gravity_refstate-mantle.xmf,1495,2.64432e-06,2.8025e-06,0,2.66523e-07,-1.70817e+09,-1.70815e+09,-1.70852e+09,35620.9,-0.0424036,0.00324225,-0,0.0425274,19016.5,-58850.8,0,61846.9,35620.9
step02_gravity_refstate-mantle.xmf,1496,2.75492e-06,2.92925e-06,0,7.80496e-09,-1.74534e+09,-1.74532e+09,-1.74571e+09,1043.13,-0.0445741,-3.85167e-20,-0,0.0445741,18369.3,-60000,0,62749,1043.13
step02_gravity_refstate-mantle.xmf,1497,-3.04718e-07,2.39496e-06,0,2.40194e-08,-1.09859e+09,-1.09823e+09,-1.09855e+09,3210.19,0.000948661,0.0448848,0,0.0448948,31181.6,-40000,0,50717.8,3210.19
step02_gravity_refstate-mantle.xmf,1498,-1.91407e-07,2.45825e-06,0,1.53289e-07,-1.15334e+09,-1.15298e+09,-1.15331e+09,20487.1,-0.000231885,0.0413925,-0,0.0413932,30247.4,-41692.2,0,51508.7,20487.1
step02_gravity_refstate-mantle.xmf,1499,2.8228e-07,2.86776e-06,0,6.80049e-07,-1.34774e+09,-1.34739e+09,-1.34777e+09,90888.5,-0.0105911,0.0313845,-0,0.0331233,23630.9,-47701.3,0,53233.8,90888.5
step02_gravity_refstate-mantle.xmf,1500,2.34936e-07,2.74647e-06,0,6.01238e-07,-1.32099e+09,-1.32066e+09,-1.32103e+09,80355.5,-0.00831925,0.0322291,-0,0.0332855,25024.6,-46874.7,0,53136.3,80355.5
step02_gravity_refstate-mantle.xmf,1501,1.76339e-07,2.64674e-06,0,5.14503e-07,-1.29144e+09,-1.29111e+09,-1.29146e+09,68763.3,-0.00618894,0.0333804,-0,0.0339493,26453.3,-45961,0,53030.1,68763.3
step02_gravity_refstate-mantle.xmf,1502,1.0006e-07,2.57004e-06,0,4.19273e-07,-1.25776e+09,-1.25743e+09,-1.25778e+09,56035.9,-0.00421312,0.0349859,-0,0.0352387,27834.9,-44920,0,52845,56035.9
step02_gravity_refstate-mantle.xmf,1503,-1.51587e-09,2.50228e-06,0,3.05774e-07,-1.21513e+09,-1.21479e+09,-1.21513e+09,40866.6,-0.00227679,0.0372741,-0,0.0373435,29319.2,-43602.2,0,52543.1,40866.6
step02_gravity_refstate-mantle.xmf,1504,7.21628e-07,2.9253e-06,0,8.57531e-07,-1.42713e+09,-1.42684e+09,-1.42723e+09,114609,-0.0177016,0.0257564,-0,0.0312528,22282.3,-50156.9,0,54883.7,114609
step02_gravity_refstate-mantle.xmf,1505,1.97444e-06,2.71757e-06,0,7.9749e-07,-1.59541e+09,-1.59532e+09,-1.59568e+09,106585,-0.0329605,0.0121714,-0,0.035136,20829.4,-55363,0,59151.8,106585
step02_gravity_refstate-mantle.xmf,1506,-1.89555e-07,2.31729e-06,0,3.19932e-08,-1.09857e+09,-1.09823e+09,-1.09854e+09,4275.89,0.000468034,0.0437542,0,0.0437567,33233.9,-40000,0,52004.7,4275.89
step02_gravity_refstate-mantle.xmf,1507,-7.45841e-08,2.3718e-06,0,1.38775e-07,-1.15414e+09,-1.15382e+09,-1.15413e+09,18547.2,-0.00049397,0.0402285,-0,0.0402315,32168.8,-41717.6,0,52680.1,18547.2
step02_gravity_refstate-mantle.xmf,1508,6.24217e-07,2.79125e-06,0,7.69843e-07,-1.40057e+09,-1.40028e+09,-1.40066e+09,102890,-0.0146741,0.0267911,-0,0.0305466,23594.4,-49335.5,0,54687.2,102890
step02_gravity_refstate-mantle.xmf,1509,1.09264e-06,2.82228e-06,0,8.96443e-07,-1.47549e+09,-1.47525e+09,-1.47563e+09,119810,-0.0217491,0.0214688,-0,0.0305603,22269.4,-51652.8,0,56248.9,119810
step02_gravity_refstate-mantle.xmf,1510,1.45018e-06,2.70328e-06,0,8.61934e-07,-1.52423e+09,-1.52406e+09,-1.52442e+09,115197,-0.0255961,0.0173316,-0,0.0309119,22222.6,-53160.6,0,57618.5,115197
step02_gravity_refstate-mantle.xmf,1511,1.79596e-06,2.59819e-06,0,7.69953e-07,-1.57339e+09,-1.57329e+09,-1.57363e+09,102904,-0.0290719,0.0133283,-0,0.0319815,22154.2,-54681.3,0,58998.8,102904
step02_gravity_refstate-mantle.xmf,1512,2.25771e-06,2.62963e-06,0,6.0063e-07,-1.64199e+09,-1.64194e+09,-1.64229e+09,80274.2,-0.0356448,0.00833178,-0,0.0366056,20800.9,-56803.4,0,60492.2,80274.2
step02_gravity_refstate-mantle.xmf,1513,2.5299e-06,2.63616e-06,0,2.28635e-07,-1.70924e+09,-1.70922e+09,-1.70957e+09,30557,-0.0389474,0.00296799,-0,0.0390604,20359.8,-58882.5,0,62303.1,30557
step02_gravity_refstate-mantle.xmf,1514,2.62516e-06,2.7443e-06,0,5.64558e-09,-1.74538e+09,-1.74537e+09,-1.74574e+09,754.532,-0.0409318,-3.60069e-20,-0,0.0409318,19722.9,-60000,0,63158.5,754.532
step02_gravity_refstate-mantle.xmf,1515,-9.91374e-08,2.25606e-06,0,2.71616e-08,-1.09855e+09,-1.09824e+09,-1.09854e+09,3630.15,0.00018302,0.042949,0,0.0429494,35384.1,-40000,0,53404.5,3630.15
step02_gravity_refstate-mantle.xmf,1516,6.80609e-08,2.30084e-06,0,1.27165e-07,-1.16689e+09,-1.16659e+09,-1.1669e+09,16995.5,-0.000745663,0.0384239,-0,0.0384311,34425.7,-42112.1,0,54392.6,16995.5
step02_gravity_refstate-mantle.xmf,1517,-4.15743e-08,2.21612e-06,0,1.53354e-08,-1.09855e+09,-1.09824e+09,-1.09854e+09,2049.58,4.97987e-05,0.0424583,0,0.0424584,37637.7,-40000,0,54923.5,2049.58
step02_gravity_refstate-mantle.xmf,1518,9.5262e-08,2.24718e-06,0,6.92249e-08,-1.15555e+09,-1.15526e+09,-1.15556e+09,9251.91,-0.000402791,0.0386782,-0,0.0386803,36675.6,-41761.8,0,55580.1,9251.91
step02_gravity_refstate-mantle.xmf,1519,7.78526e-08,2.40173e-06,0,2.49629e-07,-1.2077e+09,-1.20739e+09,-1.20771e+09,33363,-0.00193923,0.0366913,-0,0.0367425,31314.6,-43373,0,53496,33363
step02_gravity_refstate-mantle.xmf,1520,5.63652e-07,2.68528e-06,0,6.99209e-07,-1.37538e+09,-1.3751e+09,-1.37546e+09,93449.2,-0.0120291,0.0276966,-0,0.030196,24983.8,-48556.8,0,54607.2,93449.2
step02_gravity_refstate-mantle.xmf,1521,4.83444e-07,2.59346e-06,0,6.13759e-07,-1.34712e+09,-1.34683e+09,-1.34718e+09,82028.9,-0.00948703,0.0289055,-0,0.0304225,26406.2,-47682.8,0,54506.3,82028.9
step02_gravity_refstate-mantle.xmf,1522,3.96489e-07,2.51769e-06,0,5.20578e-07,-1.31567e+09,-1.31538e+09,-1.31572e+09,69575.2,-0.00710299,0.0303936,-0,0.0312125,27888.7,-46710.6,0,54402.7,69575.2
step02_gravity_refstate-mantle.xmf,1523,2.99305e-07,2.45849e-06,0,4.20927e-07,-1.28025e+09,-1.27996e+09,-1.28029e+09,56256.8,-0.0049369,0.0322436,-0,0.0326193,29379.7,-45615.9,0,54258.4,56256.8
step02_gravity_refstate-mantle.xmf,1524,9.89649e-07,2.70489e-06,0,8.24718e-07,-1.45192e+09,-1.45169e+09,-1.45205e+09,110224,-0.0185596,0.0224189,-0,0.0291044,23593.8,-50923.9,0,56124.1,110224
step02_gravity_refstate-mantle.xmf,1525,2.08747e-06,2.52349e-06,0,6.25789e-07,-1.6206e+09,-1.62054e+09,-1.62088e+09,83636.7,-0.0318329,0.00961086,-0,0.0332521,22089,-56141.3,0,60330.5,83636.7
step02_gravity_refstate-mantle.xmf,1526,2.40286e-06,2.57825e-06,0,3.97776e-07,-1.67841e+09,-1.67839e+09,-1.67873e+09,53162.8,-0.0367941,0.00536428,-0,0.0371831,20922.1,-57929.2,0,61591.6,53162.8
step02_gravity_refstate-mantle.xmf,1527,-2.10657e-08,2.20684e-06,0,-3.28826e-09,-1.09854e+09,-1.09824e+09,-1.09854e+09,-439.475,1.18157e-20,0.0422894,0,0.0422894,40000,-40000,0,56568.5,439.475
step02_gravity_refstate-mantle.xmf,1528,1.12824e-07,2.22626e-06,0,3.28044e-08,-1.15111e+09,-1.15082e+09,-1.15112e+09,4384.31,-0.000194536,0.038765,-0,0.0387655,38346.3,-41624.7,0,56595.5,4384.31
step02_gravity_refstate-mantle.xmf,1529,1.53732e-07,2.33571e-06,0,2.07315e-07,-1.20668e+09,-1.20639e+09,-1.2067e+09,27707.6,-0.00171765,0.0360599,-0,0.0361008,32976.6,-43341.8,0,54460.7,27707.6
step02_gravity_refstate-mantle.xmf,1530,2.68656e-07,2.39983e-06,0,3.4392e-07,-1.25864e+09,-1.25835e+09,-1.25867e+09,45964.9,-0.00369213,0.0331418,-0,0.0333468,30825.2,-44947.8,0,54502.2,45964.9
step02_gravity_refstate-mantle.xmf,1531,8.87379e-07,2.59639e-06,0,7.41836e-07,-1.42762e+09,-1.42739e+09,-1.42774e+09,99146.3,-0.0155696,0.0234334,-0,0.0281343,24971.3,-50172.2,0,56043,99146.3
step02_gravity_refstate-mantle.xmf,1532,1.33483e-06,2.60507e-06,0,8.16266e-07,-1.50184e+09,-1.50167e+09,-1.50202e+09,109094,-0.0221675,0.0183464,-0,0.0287748,23552.1,-52467.9,0,57511.6,109094
step02_gravity_refstate-mantle.xmf,1533,1.64752e-06,2.50368e-06,0,7.39326e-07,-1.55149e+09,-1.55138e+09,-1.55171e+09,98811,-0.0254445,0.0144512,-0,0.0292619,23487.6,-54003.5,0,58890.1,98811
step02_gravity_refstate-mantle.xmf,1534,1.92368e-06,2.4282e-06,0,6.17437e-07,-1.59994e+09,-1.59987e+09,-1.6002e+09,82520.5,-0.0281684,0.010772,-0,0.0301578,23424.2,-55501.7,0,60242.2,82520.5
step02_gravity_refstate-mantle.xmf,1535,2.29282e-06,2.47925e-06,0,4.30261e-07,-1.6654e+09,-1.66538e+09,-1.66571e+09,57504.4,-0.033782,0.0061587,-0,0.0343388,22032.2,-57526.5,0,61601.3,57504.4
step02_gravity_refstate-mantle.xmf,1536,2.41806e-06,2.50212e-06,0,2.08702e-07,-1.70755e+09,-1.70754e+09,-1.70788e+09,27893,-0.0355466,0.00295569,-0,0.0356693,21723.4,-58829.4,0,62712.1,27893
step02_gravity_refstate-mantle.xmf,1537,2.49851e-06,2.59456e-06,0,5.08686e-09,-1.74542e+09,-1.74541e+09,-1.74576e+09,679.859,-0.0372882,-3.67873e-20,-0,0.0372882,21144.8,-60000,0,63616.8,679.859
step02_gravity_refstate-mantle.xmf,1538,1.78978e-07,2.2233e-06,0,-1.61682e-09,-1.17174e+09,-1.17147e+09,-1.17177e+09,-216.088,4.30627e-20,0.0372781,0,0.0372781,40000,-42262.6,0,58190.5,216.088
step02_gravity_refstate-mantle.xmf,1539,2.72277e-07,2.22491e-06,0,5.76163e-08,-1.20414e+09,-1.20388e+09,-1.20418e+09,7700.42,-0.000513967,0.035131,-0,0.0351347,38158.5,-43264,0,57687.5,7700.42
step02_gravity_refstate-mantle.xmf,1540,2.7897e-07,2.24941e-06,0,1.27367e-07,-1.21577e+09,-1.21551e+09,-1.21581e+09,17022.6,-0.00118276,0.0345841,-0,0.0346043,36145,-43623.3,0,56652,17022.6
step02_gravity_refstate-mantle.xmf,1541,3.18516e-07,2.28066e-06,0,2.01594e-07,-1.2379e+09,-1.23763e+09,-1.23794e+09,26943.1,-0.00206651,0.033401,-0,0.0334649,34404.5,-44307.1,0,56096.3,26943.1
step02_gravity_refstate-mantle.xmf,1542,3.72271e-07,2.32345e-06,0,2.96098e-07,-1.26584e+09,-1.26558e+09,-1.26589e+09,39573.5,-0.00337192,0.0319473,-0,0.0321247,32543.6,-45170.9,0,55673.1,39573.5
step02_gravity_refstate-mantle.xmf,1543,5.09109e-07,2.34782e-06,0,3.97338e-07,-1.30962e+09,-1.30937e+09,-1.30969e+09,53104.2,-0.00541664,0.0293103,-0,0.0298066,31043.6,-46524.1,0,55930.3,53104.2
step02_gravity_refstate-mantle.xmf,1544,8.0133e-07,2.51758e-06,0,6.70396e-07,-1.40167e+09,-1.40144e+09,-1.40178e+09,89598.4,-0.012731,0.0245875,-0,0.027688,26415.1,-49369.9,0,55992.4,89598.4
step02_gravity_refstate-mantle.xmf,1545,7.01577e-07,2.44829e-06,0,5.83801e-07,-1.37267e+09,-1.37243e+09,-1.37276e+09,78025.1,-0.0100135,0.0259982,-0,0.02786,27921.4,-48473.1,0,55939.7,78025.1
step02_gravity_refstate-mantle.xmf,1546,5.99854e-07,2.39393e-06,0,4.91829e-07,-1.34118e+09,-1.34094e+09,-1.34126e+09,65732.9,-0.00753454,0.0276346,-0,0.0286433,29457,-47499.8,0,55892.3,65732.9
step02_gravity_refstate-mantle.xmf,1547,1.215e-06,2.51748e-06,0,7.55152e-07,-1.47826e+09,-1.47808e+09,-1.47842e+09,100926,-0.0189114,0.0194582,-0,0.0271342,24910.7,-51738.5,0,57423.1,100926
step02_gravity_refstate-mantle.xmf,1548,2.14132e-06,2.39183e-06,0,4.60657e-07,-1.6465e+09,-1.64647e+09,-1.64679e+09,61566.8,-0.0303229,0.00732792,-0,0.0311958,23311.8,-56941.4,0,61528.6,61566.8
step02_gravity_refstate-mantle.xmf,1549,1.11025e-06,2.42896e-06,0,6.76493e-07,-1.45614e+09,-1.45596e+09,-1.45628e+09,90413.3,-0.0159075,0.0204357,-0,0.0258972,26377.1,-51054.2,0,57465.5,90413.3
step02_gravity_refstate-mantle.xmf,1550,1.52623e-06,2.42372e-06,0,7.03402e-07,-1.52994e+09,-1.52982e+09,-1.53014e+09,94009.7,-0.0219605,0.0155081,-0,0.0268843,24912.2,-53336.7,0,58867.8,94009.7
step02_gravity_refstate-mantle.xmf,1551,1.78352e-06,2.34732e-06,0,5.97592e-07,-1.57965e+09,-1.57958e+09,-1.57989e+09,79868.2,-0.0245828,0.0118578,-0,0.0272933,24848.5,-54873.9,0,60237.8,79868.2
step02_gravity_refstate-mantle.xmf,1552,1.99275e-06,2.30971e-06,0,4.67161e-07,-1.62654e+09,-1.6265e+09,-1.62681e+09,62436.1,-0.0267434,0.00850788,-0,0.0280641,24711,-56323.7,0,61506,62436.1
step02_gravity_refstate-mantle.xmf,1553,2.27577e-06,2.37759e-06,0,2.28875e-07,-1.69706e+09,-1.69704e+09,-1.69736e+09,30589.2,-0.0315397,0.00359517,-0,0.0317439,23356,-58503.9,0,62993.8,30589.2
step02_gravity_refstate-mantle.xmf,1554,2.37765e-06,2.47259e-06,0,7.4472e-09,-1.74546e+09,-1.74545e+09,-1.74578e+09,995.319,-0.0336469,-4.39368e-20,-0,0.0336469,22638.7,-60000,0,64128.8,995.319
step02_gravity_refstate-mantle.xmf,1555,4.1781e-07,2.2025e-06,0,-1.70877e-09,-1.24424e+09,-1.244e+09,-1.2443e+09,-228.377,1.0573e-19,0.0323172,0,0.0323172,40000,-44503.5,0,59837.8,228.377
step02_gravity_refstate-mantle.xmf,1556,4.82354e-07,2.2272e-06,0,1.73096e-07,-1.27298e+09,-1.27275e+09,-1.27305e+09,23134.3,-0.00211821,0.0306785,-0,0.0307515,35818.8,-45391.9,0,57822.3,23134.3
step02_gravity_refstate-mantle.xmf,1557,5.20441e-07,2.19582e-06,0,9.24246e-08,-1.27681e+09,-1.27658e+09,-1.27688e+09,12352.5,-0.00118347,0.0301949,-0,0.0302181,37764.8,-45510.3,0,59138.5,12352.5
step02_gravity_refstate-mantle.xmf,1558,5.67834e-07,2.23962e-06,0,2.50853e-07,-1.30161e+09,-1.30139e+09,-1.30169e+09,33526.6,-0.00340339,0.0289582,-0,0.0291575,34364.9,-46276.8,0,57641,33526.6
step02_gravity_refstate-mantle.xmf,1559,6.81257e-07,2.25569e-06,0,3.42909e-07,-1.33729e+09,-1.33708e+09,-1.33738e+09,45829.8,-0.00529166,0.0268318,-0,0.0273486,32748.7,-47379.6,0,57596.1,45829.8
step02_gravity_refstate-mantle.xmf,1560,7.87308e-07,2.28398e-06,0,4.36718e-07,-1.36976e+09,-1.36956e+09,-1.36987e+09,58367.3,-0.00753686,0.0249883,-0,0.0261002,31089.5,-48383.7,0,57511.2,58367.3
step02_gravity_refstate-mantle.xmf,1561,1.00886e-06,2.37094e-06,0,6.08676e-07,-1.42991e+09,-1.42973e+09,-1.43005e+09,81349.6,-0.0129268,0.0217433,-0,0.0252958,27895.8,-50243.3,0,57468,81349.6
step02_gravity_refstate-mantle.xmf,1562,8.95268e-07,2.32232e-06,0,5.2603e-07,-1.40045e+09,-1.40026e+09,-1.40057e+09,70304,-0.0100909,0.0233092,-0,0.0253997,29465.3,-49332.4,0,57462.1,70304
step02_gravity_refstate-mantle.xmf,1563,1.40774e-06,2.35463e-06,0,6.5125e-07,-1.50836e+09,-1.50824e+09,-1.50855e+09,87039.6,-0.0187434,0.0165828,-0,0.025026,26339.4,-52669.3,0,58888.2,87039.6
step02_gravity_refstate-mantle.xmf,1564,2.13506e-06,2.30949e-06,0,3.3239e-07,-1.66624e+09,-1.66621e+09,-1.66652e+09,44423.9,-0.0284532,0.00571033,-0,0.0290206,24459,-57550.7,0,62532.6,44423.9
step02_gravity_refstate-mantle.xmf,1565,1.29384e-06,2.29028e-06,0,5.83453e-07,-1.4863e+09,-1.48617e+09,-1.48648e+09,77978.4,-0.0156608,0.0176919,-0,0.0236276,27847.2,-51986.9,0,58975.5,77978.4
step02_gravity_refstate-mantle.xmf,1566,1.66624e-06,2.28142e-06,0,5.71088e-07,-1.55968e+09,-1.5596e+09,-1.5599e+09,76326,-0.021097,0.0128965,-0,0.0247266,26365.3,-54255.9,0,60322.8,76326
step02_gravity_refstate-mantle.xmf,1567,1.87082e-06,2.237e-06,0,4.48453e-07,-1.61041e+09,-1.61036e+09,-1.61066e+09,59935.8,-0.0232088,0.00937155,-0,0.0250295,26258.3,-55824.3,0,61691.6,59935.8
step02_gravity_refstate-mantle.xmf,1568,2.04258e-06,2.24237e-06,0,3.17081e-07,-1.65879e+09,-1.65877e+09,-1.65907e+09,42377.8,-0.0254865,0.00608032,-0,0.0262017,25794.5,-57320,0,62856.5,42377.8
step02_gravity_refstate-mantle.xmf,1569,2.16822e-06,2.2869e-06,0,1.72522e-07,-1.70228e+09,-1.70227e+09,-1.70257e+09,23057.6,-0.0276948,0.00308873,-0,0.0278665,25121.4,-58664.4,0,63817,23057.6
step02_gravity_refstate-mantle.xmf,1570,2.25972e-06,2.37952e-06,0,5.24075e-09,-1.74549e+09,-1.74548e+09,-1.7458e+09,700.427,-0.0300061,-3.73957e-20,-0,0.0300061,24208.2,-60000,0,64699.6,700.427
step02_gravity_refstate-mantle.xmf,1571,6.77453e-07,2.159e-06,0,-6.35726e-10,-1.31622e+09,-1.31602e+09,-1.31631e+09,-84.9647,1.44135e-19,0.0274651,0,0.0274651,40000,-46728.6,0,61510.7,84.9647
step02_gravity_refstate-mantle.xmf,1572,7.09655e-07,2.17878e-06,0,1.81271e-07,-1.33023e+09,-1.33004e+09,-1.33033e+09,24226.9,-0.00276772,0.0267344,-0,0.0268773,36164.8,-47161.7,0,59431.7,24226.9
step02_gravity_refstate-mantle.xmf,1573,8.28749e-07,2.18178e-06,0,2.71341e-07,-1.36541e+09,-1.36523e+09,-1.36552e+09,36264.7,-0.00469087,0.0245802,-0,0.0250238,34468.2,-48249.2,0,59296.2,36264.7
step02_gravity_refstate-mantle.xmf,1574,9.48791e-07,2.19357e-06,0,3.61238e-07,-1.39951e+09,-1.39934e+09,-1.39964e+09,48279.4,-0.0070279,0.022549,-0,0.0236188,32762.3,-49303.4,0,59196.2,48279.4
step02_gravity_refstate-mantle.xmf,1575,1.06585e-06,2.21619e-06,0,4.46092e-07,-1.43082e+09,-1.43066e+09,-1.43096e+09,59620.2,-0.0096817,0.0207448,-0,0.0228928,31072.3,-50271.2,0,59098.9,59620.2
step02_gravity_refstate-mantle.xmf,1576,1.181e-06,2.24974e-06,0,5.22241e-07,-1.45939e+09,-1.45924e+09,-1.45954e+09,69797.5,-0.0125626,0.0191521,-0,0.0229046,29433.5,-51154.6,0,59018,69797.5
step02_gravity_refstate-mantle.xmf,1577,1.53761e-06,2.23359e-06,0,5.33087e-07,-1.53701e+09,-1.53692e+09,-1.53722e+09,71247.1,-0.0178423,0.014148,-0,0.0227709,27825.9,-53554.9,0,60352.4,71247.1
step02_gravity_refstate-mantle.xmf,1578,8.12404e-07,2.13735e-06,0,9.27925e-08,-1.35407e+09,-1.35389e+09,-1.35418e+09,12401.7,-0.00157776,0.0250004,-0,0.0250502,38066.3,-47898.6,0,61182.7,12401.7
step02_gravity_refstate-mantle.xmf,1579,1.42515e-06,2.18709e-06,0,4.78132e-07,-1.51497e+09,-1.51486e+09,-1.51516e+09,63902.3,-0.0147686,0.0153543,-0,0.0213042,29350,-52872.9,0,60472.9,63902.3
step02_gravity_refstate-mantle.xmf,1580,1.75037e-06,2.17412e-06,0,4.17134e-07,-1.59271e+09,-1.59265e+09,-1.59294e+09,55750,-0.019486,0.010321,-0,0.0220505,28007.3,-55276.5,0,61967,55750
step02_gravity_refstate-mantle.xmf,1581,1.93894e-06,2.17824e-06,0,2.95668e-07,-1.64901e+09,-1.64898e+09,-1.64927e+09,39516,-0.0219649,0.00659011,-0,0.0229322,27455.6,-57017.1,0,63283.1,39516
step02_gravity_refstate-mantle.xmf,1582,2.06645e-06,2.22074e-06,0,1.59195e-07,-1.69825e+09,-1.69823e+09,-1.69853e+09,21276.4,-0.024179,0.00328658,-0,0.0244014,26759.1,-58538.9,0,64365,21276.4
step02_gravity_refstate-mantle.xmf,1583,2.15157e-06,2.30669e-06,0,5.77862e-09,-1.74552e+09,-1.7455e+09,-1.74581e+09,772.313,-0.0263692,-4.03337e-20,-0,0.0263692,25857.2,-60000,0,65334.5,772.313
step02_gravity_refstate-mantle.xmf,1584,9.42739e-07,2.1041e-06,0,-4.41038e-10,-1.38788e+09,-1.38772e+09,-1.38801e+09,-58.9447,1.87429e-19,0.0227429,0,0.0227429,40000,-48943.8,0,63209.9,58.9447
step02_gravity_refstate-mantle.xmf,1585,9.57961e-07,2.12413e-06,0,1.85319e-07,-1.39438e+09,-1.39423e+09,-1.39451e+09,24767.9,-0.00358554,0.0224578,-0,0.0227422,36271.5,-49144.8,0,61080.6,24767.9
step02_gravity_refstate-mantle.xmf,1586,1.0837e-06,2.12375e-06,0,2.72453e-07,-1.42944e+09,-1.4293e+09,-1.42959e+09,36413.4,-0.00597814,0.0203148,-0,0.0211762,34496.9,-50228.7,0,60934,36413.4
step02_gravity_refstate-mantle.xmf,1587,1.20767e-06,2.13359e-06,0,3.51964e-07,-1.46244e+09,-1.46231e+09,-1.4626e+09,47039.9,-0.00873095,0.0183432,-0,0.0203151,32737.6,-51248.8,0,60812.7,47039.9
step02_gravity_refstate-mantle.xmf,1588,1.32721e-06,2.15429e-06,0,4.21814e-07,-1.49177e+09,-1.49166e+09,-1.49195e+09,56375.4,-0.011706,0.0166338,-0,0.02034,31027.3,-52155.8,0,60687,56375.4
step02_gravity_refstate-mantle.xmf,1589,1.60126e-06,2.16016e-06,0,4.31067e-07,-1.55903e+09,-1.55896e+09,-1.55924e+09,57612,-0.0165819,0.0124272,-0,0.0207218,29122.7,-54235.2,0,61559.6,57612
step02_gravity_refstate-mantle.xmf,1590,1.07486e-06,2.08201e-06,0,9.19271e-08,-1.42544e+09,-1.4253e+09,-1.42558e+09,12286.1,-0.00201624,0.0203433,-0,0.020443,38125,-50104.9,0,62960.4,12286.1
step02_gravity_refstate-mantle.xmf,1591,1.56723e-06,2.10931e-06,0,3.61603e-07,-1.55629e+09,-1.55622e+09,-1.5565e+09,48328.2,-0.0137835,0.0124034,-0,0.0185426,30843.2,-54150.2,0,62318.1,48328.2
step02_gravity_refstate-mantle.xmf,1592,1.71264e-06,2.12119e-06,0,3.50943e-07,-1.59363e+09,-1.59358e+09,-1.59386e+09,46903.5,-0.0165051,0.0100634,-0,0.019331,29747.3,-55304.7,0,62797.4,46903.5
step02_gravity_refstate-mantle.xmf,1593,1.84833e-06,2.12789e-06,0,2.62048e-07,-1.64141e+09,-1.64137e+09,-1.64165e+09,35022.7,-0.0184342,0.00696345,-0,0.0197055,29241,-56781.3,0,63868.2,35022.7
step02_gravity_refstate-mantle.xmf,1594,1.97448e-06,2.17083e-06,0,1.40392e-07,-1.6953e+09,-1.69527e+09,-1.69556e+09,18763.4,-0.0206684,0.00341959,-0,0.0209494,28481,-58447,0,65017,18763.4
step02_gravity_refstate-mantle.xmf,1595,2.0507e-06,2.25248e-06,0,5.17337e-09,-1.74555e+09,-1.74552e+09,-1.74582e+09,691.421,-0.0227285,-4.23212e-20,-0,0.0227285,27590,-60000,0,66039.4,691.421
step02_gravity_refstate-mantle.xmf,1596,1.19345e-06,2.05396e-06,0,-2.56084e-11,-1.45941e+09,-1.4593e+09,-1.45957e+09,-3.42256,2.29523e-19,0.0181452,0,0.0181452,40000,-51155,0,64937.2,3.42256
step02_gravity_refstate-mantle.xmf,1597,1.20303e-06,2.0724e-06,0,1.76735e-07,-1.46148e+09,-1.46136e+09,-1.46164e+09,23620.7,-0.00443307,0.0181034,-0,0.0186383,36301.8,-51219,0,62779,23620.7
step02_gravity_refstate-mantle.xmf,1598,1.32663e-06,2.07373e-06,0,2.51226e-07,-1.496e+09,-1.4959e+09,-1.49617e+09,33576.4,-0.00723537,0.0159976,-0,0.0175577,34487.8,-52286,0,62635.7,33576.4
step02_gravity_refstate-mantle.xmf,1599,1.44156e-06,2.08704e-06,0,3.14344e-07,-1.52549e+09,-1.5254e+09,-1.52568e+09,42012,-0.0103194,0.0142357,-0,0.0175826,32670.5,-53197.9,0,62429,42012
step02_gravity_refstate-mantle.xmf,1600,1.30837e-06,2.03921e-06,0,8.40259e-08,-1.49529e+09,-1.49519e+09,-1.49547e+09,11230.1,-0.00243701,0.0158936,-0,0.0160794,38134.6,-52264,0,64697.6,11230.1
step02_gravity_refstate-mantle.xmf,1601,1.74929e-06,2.08577e-06,0,2.33954e-07,-1.62633e+09,-1.62629e+09,-1.62657e+09,31267.9,-0.0146334,0.00783541,-0,0.0165991,31209.6,-56314.9,0,64384.8,31267.9
step02_gravity_refstate-mantle.xmf,1602,1.89041e-06,2.13231e-06,0,1.19292e-07,-1.69212e+09,-1.69209e+09,-1.69237e+09,15943.4,-0.0170329,0.00357802,-0,0.0174047,30347.8,-58348.2,0,65768.6,15943.4
step02_gravity_refstate-mantle.xmf,1603,1.96003e-06,2.21288e-06,0,5.09482e-09,-1.74557e+09,-1.74554e+09,-1.74583e+09,680.922,-0.0190773,-4.43924e-20,-0,0.0190773,29410.7,-60000,0,66820.6,680.922
step02_gravity_refstate-mantle.xmf,1604,1.4114e-06,2.02236e-06,0,2.86911e-10,-1.53094e+09,-1.53086e+09,-1.53113e+09,38.3456,2.61651e-19,0.0136391,0,0.0136391,40000,-53365.9,0,66692.8,38.3456
step02_gravity_refstate-mantle.xmf,1605,1.41802e-06,2.03707e-06,0,1.52186e-07,-1.52884e+09,-1.52875e+09,-1.52903e+09,20339.7,-0.00518705,0.0138248,-0,0.0147658,36314.3,-53301,0,64495.9,20339.7
step02_gravity_refstate-mantle.xmf,1606,1.60944e-06,2.06735e-06,0,2.56312e-07,-1.58193e+09,-1.58187e+09,-1.58214e+09,34256.1,-0.0116812,0.0106208,-0,0.0157877,32514.3,-54942.3,0,63842.3,34256.1
step02_gravity_refstate-mantle.xmf,1607,1.55498e-06,2.04303e-06,0,2.00706e-07,-1.56905e+09,-1.56899e+09,-1.56926e+09,26824.3,-0.00838525,0.0113494,-0,0.014111,34478.9,-54544.1,0,64527.9,26824.3
step02_gravity_refstate-mantle.xmf,1608,1.49836e-06,2.01996e-06,0,6.82988e-08,-1.5638e+09,-1.56373e+09,-1.564e+09,9128.14,-0.00274885,0.011595,-0,0.0119164,38161.3,-54381.6,0,66435.3,9128.14
step02_gravity_refstate-mantle.xmf,1609,1.70319e-06,2.0592e-06,0,1.62975e-07,-1.63143e+09,-1.63138e+09,-1.63166e+09,21781.6,-0.0109148,0.00742719,-0,0.0132021,33404,-56472,0,65611.8,21781.6
step02_gravity_refstate-mantle.xmf,1610,1.81563e-06,2.10521e-06,0,9.78945e-08,-1.68853e+09,-1.68849e+09,-1.68877e+09,13083.6,-0.0133488,0.00377529,-0,0.0138724,32320.8,-58236.6,0,66604.4,13083.6
step02_gravity_refstate-mantle.xmf,1611,1.88083e-06,2.18562e-06,0,4.96008e-09,-1.74559e+09,-1.74555e+09,-1.74584e+09,662.914,-0.0154032,-4.68274e-20,-0,0.0154032,31323.8,-60000,0,67684.4,662.914
step02_gravity_refstate-mantle.xmf,1612,1.58008e-06,2.0218e-06,0,5.63045e-10,-1.60248e+09,-1.60242e+09,-1.60269e+09,75.2509,3.34716e-19,0.00916987,0,0.00916987,40000,-55576.9,0,68474.7,75.2509
step02_gravity_refstate-mantle.xmf,1613,1.57014e-06,2.02642e-06,0,1.1669e-07,-1.58607e+09,-1.58601e+09,-1.58628e+09,15595.6,-0.00546574,0.0102233,-0,0.0115926,36474.6,-55070,0,66053.8,15595.6
step02_gravity_refstate-mantle.xmf,1614,1.65274e-06,2.03592e-06,0,5.20458e-08,-1.63495e+09,-1.6349e+09,-1.63517e+09,6955.92,-0.00348864,0.00713786,-0,0.00794478,37870,-56580.4,0,68084.3,6955.92
step02_gravity_refstate-mantle.xmf,1615,1.6791e-06,2.04491e-06,0,1.08946e-07,-1.63373e+09,-1.63368e+09,-1.63396e+09,14560.6,-0.00732159,0.00723762,-0,0.0102951,35548.5,-56542.9,0,66789.2,14560.6
step02_gravity_refstate-mantle.xmf,1616,1.76005e-06,2.09008e-06,0,6.75776e-08,-1.68923e+09,-1.68919e+09,-1.68946e+09,9031.75,-0.00957604,0.00370416,-0,0.0102675,34432.9,-58257.9,0,67672.8,9031.75
step02_gravity_refstate-mantle.xmf,1617,1.81455e-06,2.16827e-06,0,4.49935e-09,-1.74561e+09,-1.74556e+09,-1.74585e+09,601.338,-0.011688,-4.60877e-20,-0,0.011688,33334.3,-60000,0,68638,601.338
step02_gravity_refstate-mantle.xmf,1618,1.68672e-06,2.06277e-06,0,9.53323e-12,-1.67403e+09,-1.67398e+09,-1.67425e+09,1.27412,2.68159e-19,0.004657,0,0.004657,40000,-57787.8,0,70281.1,1.27412
step02_gravity_refstate-mantle.xmf,1619,1.70795e-06,2.0829e-06,0,2.07744e-08,-1.69414e+09,-1.69409e+09,-1.69437e+09,2776.5,-0.0027718,0.00336814,-0,0.00436203,38373.9,-58409.2,0,69887,2776.5
step02_gravity_refstate-mantle.xmf,1620,1.7354e-06,2.08255e-06,0,4.29788e-08,-1.69047e+09,-1.69042e+09,-1.6907e+09,5744.11,-0.00590549,0.00361068,-0,0.00692184,36543.1,-58296,0,68802.8,5744.11
step02_gravity_refstate-mantle.xmf,1621,1.72026e-06,2.15155e-06,0,-5.6174e-09,-1.74563e+09,-1.74557e+09,-1.74586e+09,-750.766,-1.23745e-18,-3.28316e-19,-0,1.28026e-18,40000,-60000,0,72111,750.766
step02_gravity_refstate-mantle.xmf,1622,1.76409e-06,2.15796e-06,0,4.05254e-09,-1.74562e+09,-1.74557e+09,-1.74586e+09,541.622,-0.00790736,-4.51575e-20,-0,0.00790736,35446.9,-60000,0,69688.5,541.622
step02_gravity_refstate-mantle.xmf,1623,1.73199e-06,2.15246e-06,0,-4.31113e-09,-1.74563e+09,-1.74557e+09,-1.74586e+09,-576.182,-0.00402658,-3.51883e-19,-0,0.00402658,37667,-60000,0,70843.5,576.182
step02_gravity_refstate-intrusion.xmf,0,5.65317e-06,-1.60527e-05,0,2.21863e-05,-1.4225e+09,-1.42457e+09,-1.42304e+09,2.11569e+06,-0.0169795,0.230084,-0,0.23071,-2000,-50000,-0,50040,2.11569e+06
step02_gravity_refstate-intrusion.xmf,1,1.24635e-06,-9.69038e-06,0,2.67719e-05,-1.43901e+09,-1.44005e+09,-1.43913e+09,2.55297e+06,-0.0162391,0.235282,-0,0.235841,-2000,-50500.3,-0,50539.9,2.55297e+06
step02_gravity_refstate-intrusion.xmf,2,5.79266e-07,-6.11396e-06,0,2.9733e-05,-1.45509e+09,-1.45573e+09,-1.45514e+09,2.83534e+06,-0.013262,0.239202,-0,0.239569,-2000,-51000.2,-0,51039.4,2.83534e+06
step02_gravity_refstate-intrusion.xmf,3,-2.29504e-07,-2.55532e-06,0,3.19718e-05,-1.47121e+09,-1.47143e+09,-1.47119e+09,3.04883e+06,-0.00925836,0.241414,-0,0.241592,-2000,-51500.6,-0,51539.4,3.04883e+06
step02_gravity_refstate-intrusion.xmf,4,-1.18137e-06,1.14733e-06,0,3.37608e-05,-1.48733e+09,-1.48711e+09,-1.48722e+09,3.21943e+06,-0.00470766,0.241788,-0,0.241833,-2000,-52000.7,-0,52039.1,3.21943e+06
step02_gravity_refstate-intrusion.xmf,5,7.50509e-06,-2.65345e-05,0,1.80626e-05,-1.42282e+09,-1.42606e+09,-1.42353e+09,1.72245e+06,-0.0136458,0.247781,-0,0.248156,-1499.83,-50000,-0,50022.5,1.72245e+06
step02_gravity_refstate-intrusion.xmf,6,-2.41497e-06,5.05992e-06,0,3.49984e-05,-1.50347e+09,-1.50275e+09,-1.50324e+09,3.33745e+06,0.000142843,0.24024,0,0.24024,-2000,-52500.1,-0,52538.2,3.33745e+06
step02_gravity_refstate-intrusion.xmf,7,-3.85434e-06,9.05002e-06,0,3.57158e-05,-1.51962e+09,-1.51839e+09,-1.51925e+09,3.40586e+06,0.00516121,0.236717,0,0.236773,-2000,-52999.3,-0,53037,3.40586e+06
step02_gravity_refstate-intrusion.xmf,8,8.90295e-06,-3.18439e-05,0,1.20347e-05,-1.42291e+09,-1.42679e+09,-1.42376e+09,1.14763e+06,-0.00953807,0.260679,-0,0.260854,-1000,-50000,-0,50010,1.14763e+06
step02_gravity_refstate-intrusion.xmf,9,-5.30283e-06,1.31531e-05,0,3.60232e-05,-1.53578e+09,-1.53402e+09,-1.53527e+09,3.43518e+06,0.010287,0.231167,0,0.231396,-2000,-53498.9,-0,53536.3,3.43518e+06
step02_gravity_refstate-intrusion.xmf,10,-6.91075e-06,1.73064e-05,0,3.576e-05,-1.55198e+09,-1.54967e+09,-1.55132e+09,3.41007e+06,0.0154832,0.223552,0,0.224087,-2000,-53999.2,-0,54036.2,3.41007e+06
step02_gravity_refstate-intrusion.xmf,11,-8.4722e-06,2.14557e-05,0,3.50753e-05,-1.56818e+09,-1.56533e+09,-1.56737e+09,3.34478e+06,0.0207183,0.213855,0,0.214856,-2000,-54499.5,-0,54536.2,3.34478e+06
step02_gravity_refstate-intrusion.xmf,12,-9.96651e-06,2.5768e-05,0,3.38946e-05,-1.58434e+09,-1.58093e+09,-1.58339e+09,3.23219e+06,0.025962,0.202076,0,0.203737,-2000,-54999.2,-0,55035.5,3.23219e+06
step02_gravity_refstate-intrusion.xmf,13,-1.13607e-05,3.0032e-05,0,3.22036e-05,-1.60047e+09,-1.59652e+09,-1.59938e+09,3.07094e+06,0.0311581,0.188198,0,0.19076,-2000,-55498.3,-0,55534.3,3.07094e+06
step02_gravity_refstate-intrusion.xmf,14,-1.25612e-05,3.42188e-05,0,2.99405e-05,-1.61658e+09,-1.61212e+09,-1.61538e+09,2.85512e+06,0.0362267,0.172233,0,0.176001,-2000,-55997.8,-0,56033.5,2.85512e+06
step02_gravity_refstate-intrusion.xmf,15,-1.34743e-05,3.8256e-05,0,2.71207e-05,-1.63268e+09,-1.62774e+09,-1.63139e+09,2.58623e+06,0.0410069,0.154147,0,0.159508,-2000,-56497.8,-0,56533.2,2.58623e+06
step02_gravity_refstate-intrusion.xmf,16,9.62879e-06,-3.46025e-05,0,6.02419e-06,-1.42295e+09,-1.42717e+09,-1.42387e+09,574467,-0.00488982,0.268442,-0,0.268486,-500.172,-50000,-0,50002.5,574467
step02_gravity_refstate-intrusion.xmf,17,-1.42535e-05,4.23413e-05,0,2.34858e-05,-1.64876e+09,-1.64337e+09,-1.6474e+09,2.23961e+06,0.0451752,0.133994,0,0.141404,-2000,-56998.3,-0,57033.3,2.23961e+06
step02_gravity_refstate-intrusion.xmf,18,-1.50719e-05,4.62421e-05,0,1.86714e-05,-1.66485e+09,-1.659e+09,-1.66341e+09,1.7805e+06,0.0481024,0.111856,0,0.121761,-2000,-57498.2,-0,57532.9,1.7805e+06
step02_gravity_refstate-intrusion.xmf,19,9.93122e-06,-3.54973e-05,0,-1.30887e-07,-1.42296e+09,-1.42729e+09,-1.42391e+09,-12481.4,-2.42399e-06,0.271033,-0,0.271033,0,-50000,0,50000,12481.4
step02_gravity_refstate-intrusion.xmf,20,-1.88508e-05,5.52511e-05,0,1.23969e-05,-1.68116e+09,-1.67409e+09,-1.67936e+09,1.18217e+06,0.0479347,0.0878515,0,0.100078,-2000,-58000,-0,58034.5,1.18217e+06
step02_gravity_refstate-intrusion.xmf,21,9.67469e-06,-3.46387e-05,0,-6.2047e-06,-1.42295e+09,-1.42718e+09,-1.42387e+09,-591681,0.00489474,0.268442,0,0.268486,500.172,-50000,0,50002.5,591681
step02_gravity_refstate-intrusion.xmf,22,-2.24694e-05,6.78548e-05,0,1.22872e-05,-1.68099e+09,-1.67238e+09,-1.67885e+09,1.17171e+06,0.0376003,0.0969567,0,0.103992,-1499.28,-58000,-0,58019.4,1.17171e+06
step02_gravity_refstate-intrusion.xmf,23,8.94916e-06,-3.18952e-05,0,-1.23807e-05,-1.4229e+09,-1.4268e+09,-1.42376e+09,-1.18062e+06,0.00953312,0.260678,0,0.260853,1000,-50000,0,50010,1.18062e+06
step02_gravity_refstate-intrusion.xmf,24,-2.46987e-05,7.41558e-05,0,8.34294e-06,-1.68097e+09,-1.67154e+09,-1.67862e+09,795583,0.0258006,0.104799,0,0.107928,-999.317,-58000,-0,58008.6,795583
step02_gravity_refstate-intrusion.xmf,25,7.67272e-06,-2.68194e-05,0,-1.85173e-05,-1.42281e+09,-1.4261e+09,-1.42354e+09,-1.76581e+06,0.0136492,0.247779,0,0.248155,1499.83,-50000,0,50022.5,1.76581e+06
step02_gravity_refstate-intrusion.xmf,26,-2.60357e-05,7.75668e-05,0,4.14946e-06,-1.68098e+09,-1.6711e+09,-1.6785e+09,395693,0.0131232,0.109643,0,0.110426,-499.831,-58000,-0,58002.2,395693
step02_gravity_refstate-intrusion.xmf,27,2.54061e-06,-1.14109e-05,0,-2.28948e-05,-1.42271e+09,-1.42404e+09,-1.42296e+09,-2.18325e+06,0.016979,0.230085,0,0.23071,2000,-50000,0,50040,2.18325e+06
step02_gravity_refstate-intrusion.xmf,28,-2.64796e-05,7.86689e-05,0,-9.24865e-08,-1.68099e+09,-1.67096e+09,-1.67846e+09,-8819.51,-7.05517e-09,0.111274,-0,0.111274,-2.07592e-10,-58000,-0,58000,8819.51
step02_gravity_refstate-intrusion.xmf,29,1.35285e-06,-9.47362e-06,0,-2.68666e-05,-1.43898e+09,-1.44001e+09,-1.43911e+09,-2.562e+06,0.016238,0.235278,0,0.235838,2000,-50500.3,0,50539.9,2.562e+06
step02_gravity_refstate-intrusion.xmf,30,6.56745e-07,-6.20682e-06,0,-2.97589e-05,-1.45508e+09,-1.45574e+09,-1.45514e+09,-2.83781e+06,0.0132647,0.2392,0,0.239568,2000,-51000.2,0,51039.4,2.83781e+06
step02_gravity_refstate-intrusion.xmf,31,-2.60564e-05,7.75984e-05,0,-4.35756e-06,-1.68098e+09,-1.6711e+09,-1.6785e+09,-415537,-0.0131228,0.109643,-0,0.110426,499.831,-58000,0,58002.2,415537
step02_gravity_refstate-intrusion.xmf,32,-1.5519e-07,-2.62836e-06,0,-3.20253e-05,-1.4712e+09,-1.47144e+09,-1.47119e+09,-3.05394e+06,0.00926031,0.241414,0,0.241591,2000,-51500.6,0,51539.4,3.05394e+06
step02_gravity_refstate-intrusion.xmf,33,-1.30491e-06,1.1341e-06,0,-3.37731e-05,-1.48735e+09,-1.48712e+09,-1.48723e+09,-3.22061e+06,0.00470757,0.241787,0,0.241833,2000,-52000.7,0,52039.1,3.22061e+06
step02_gravity_refstate-intrusion.xmf,34,-2.42583e-06,5.05638e-06,0,-3.49878e-05,-1.50347e+09,-1.50275e+09,-1.50324e+09,-3.33644e+06,-0.000143796,0.24024,-0,0.24024,2000,-52500.1,0,52538.2,3.33644e+06
step02_gravity_refstate-intrusion.xmf,35,-3.80998e-06,9.0619e-06,0,-3.57409e-05,-1.51961e+09,-1.51838e+09,-1.51925e+09,-3.40825e+06,-0.00516281,0.236716,-0,0.236772,2000,-52999.3,0,53037,3.40825e+06
step02_gravity_refstate-intrusion.xmf,36,-5.30212e-06,1.31465e-05,0,-3.60146e-05,-1.53578e+09,-1.53402e+09,-1.53527e+09,-3.43435e+06,-0.0102884,0.231166,-0,0.231395,2000,-53498.9,0,53536.3,3.43435e+06
step02_gravity_refstate-intrusion.xmf,37,-6.84841e-06,1.72846e-05,0,-3.58094e-05,-1.55197e+09,-1.54967e+09,-1.55132e+09,-3.41479e+06,-0.0154842,0.223551,-0,0.224087,2000,-53999.2,0,54036.2,3.41479e+06
step02_gravity_refstate-intrusion.xmf,38,-8.39322e-06,2.14674e-05,0,-3.51184e-05,-1.56817e+09,-1.56532e+09,-1.56737e+09,-3.34889e+06,-0.0207196,0.213854,-0,0.214856,2000,-54499.5,0,54536.2,3.34889e+06
step02_gravity_refstate-intrusion.xmf,39,-2.47707e-05,7.43522e-05,0,-8.67171e-06,-1.68097e+09,-1.67152e+09,-1.67861e+09,-826935,-0.0258012,0.104798,-0,0.107927,999.317,-58000,0,58008.6,826935
step02_gravity_refstate-intrusion.xmf,40,-9.88124e-06,2.5662e-05,0,-3.39272e-05,-1.58433e+09,-1.58094e+09,-1.58339e+09,-3.2353e+06,-0.0259609,0.202075,-0,0.203736,2000,-54999.2,0,55035.5,3.2353e+06
step02_gravity_refstate-intrusion.xmf,41,-1.1242e-05,2.98362e-05,0,-3.22383e-05,-1.60046e+09,-1.59654e+09,-1.59939e+09,-3.07425e+06,-0.0311556,0.188198,-0,0.19076,2000,-55498.3,0,55534.3,3.07425e+06
step02_gravity_refstate-intrusion.xmf,42,-2.22359e-05,6.85871e-05,0,-1.32582e-05,-1.68091e+09,-1.67225e+09,-1.67879e+09,-1.26431e+06,-0.0376193,0.0969433,-0,0.103987,1499.28,-58000,0,58019.4,1.26431e+06
step02_gravity_refstate-intrusion.xmf,43,-1.24744e-05,3.4104e-05,0,-2.99958e-05,-1.61657e+09,-1.61213e+09,-1.61538e+09,-2.8604e+06,-0.0362247,0.172234,-0,0.176002,2000,-55997.8,0,56033.5,2.8604e+06
step02_gravity_refstate-intrusion.xmf,44,-1.34941e-05,3.82524e-05,0,-2.70978e-05,-1.63268e+09,-1.62775e+09,-1.63139e+09,-2.58404e+06,-0.0410069,0.15415,-0,0.159511,2000,-56497.8,0,56533.2,2.58404e+06
step02_gravity_refstate-intrusion.xmf,45,-1.44485e-05,4.23072e-05,0,-2.3648e-05,-1.6488e+09,-1.64338e+09,-1.64742e+09,-2.25507e+06,-0.0451743,0.133993,-0,0.141403,2000,-56998.3,0,57033.3,2.25507e+06
step02_gravity_refstate-intrusion.xmf,46,-1.51075e-05,4.62471e-05,0,-1.86423e-05,-1.66485e+09,-1.659e+09,-1.66341e+09,-1.77773e+06,-0.0481018,0.111862,-0,0.121766,2000,-57498.2,0,57532.9,1.77773e+06
step02_gravity_refstate-intrusion.xmf,47,-1.88911e-05,5.5201e-05,0,-1.25349e-05,-1.68117e+09,-1.6741e+09,-1.67936e+09,-1.19533e+06,-0.0479158,0.0878437,-0,0.100062,2000,-58000,0,58034.5,1.19533e+06
step02_gravity_refstate-intrusion.xmf,48,6.20249e-06,-1.95075e-05,0,1.94213e-05,-1.43452e+09,-1.43697e+09,-1.43511e+09,1.85202e+06,-0.0152424,0.251553,-0,0.252015,-1628.39,-50367.6,-0,50393.9,1.85202e+06
step02_gravity_refstate-intrusion.xmf,49,3.96077e-06,-1.31747e-05,0,2.18517e-05,-1.44697e+09,-1.4486e+09,-1.44735e+09,2.08378e+06,-0.0141454,0.254937,-0,0.255329,-1689.07,-50752.8,-0,50780.9,2.08378e+06
step02_gravity_refstate-intrusion.xmf,50,3.38035e-06,-9.99273e-06,0,2.22623e-05,-1.46046e+09,-1.46173e+09,-1.46078e+09,2.12294e+06,-0.0112242,0.264574,-0,0.264812,-1594.12,-51172.3,-0,51197.1,2.12294e+06
step02_gravity_refstate-intrusion.xmf,51,1.73193e-06,-4.90996e-06,0,2.40836e-05,-1.4773e+09,-1.47794e+09,-1.47747e+09,2.29661e+06,-0.00732254,0.269086,-0,0.269185,-1581.82,-51693.9,-0,51718.1,2.29661e+06
step02_gravity_refstate-intrusion.xmf,52,-1.56596e-07,5.11011e-07,0,2.58874e-05,-1.49441e+09,-1.49435e+09,-1.4944e+09,2.46862e+06,-0.00298919,0.269743,-0,0.269759,-1589.9,-52223.1,-0,52247.3,2.46862e+06
step02_gravity_refstate-intrusion.xmf,53,8.54728e-06,-2.52771e-05,0,1.47105e-05,-1.43283e+09,-1.43606e+09,-1.43365e+09,1.40279e+06,-0.0123952,0.263729,-0,0.26402,-1242.74,-50316.5,-0,50331.8,1.40279e+06
step02_gravity_refstate-intrusion.xmf,54,7.75814e-06,-2.04511e-05,0,1.48703e-05,-1.44586e+09,-1.44855e+09,-1.4466e+09,1.41803e+06,-0.0115507,0.273552,-0,0.273796,-1222.83,-50723.8,-0,50738.5,1.41803e+06
step02_gravity_refstate-intrusion.xmf,55,5.5357e-06,-1.29311e-05,0,1.53543e-05,-1.46541e+09,-1.46717e+09,-1.46594e+09,1.46419e+06,-0.00822643,0.2862,-0,0.286318,-1141.96,-51330.3,-0,51343,1.46419e+06
step02_gravity_refstate-intrusion.xmf,56,2.63765e-06,-5.32344e-06,0,1.73125e-05,-1.48481e+09,-1.48557e+09,-1.48507e+09,1.65092e+06,-0.00469702,0.290682,-0,0.29072,-1162.69,-51929.5,-0,51942.5,1.65092e+06
step02_gravity_refstate-intrusion.xmf,57,-2.06712e-06,5.39571e-06,0,2.70836e-05,-1.51048e+09,-1.50977e+09,-1.51029e+09,2.58269e+06,0.00128172,0.267699,0,0.267702,-1599.31,-52719.1,-0,52743.3,2.58269e+06
step02_gravity_refstate-intrusion.xmf,58,-3.64801e-08,1.38939e-06,0,1.8836e-05,-1.50273e+09,-1.50259e+09,-1.50273e+09,1.79621e+06,-0.0010498,0.291002,-0,0.291004,-1179.15,-52482.1,-0,52495.3,1.79621e+06
step02_gravity_refstate-intrusion.xmf,59,-4.42018e-06,1.09357e-05,0,2.7824e-05,-1.52898e+09,-1.52752e+09,-1.52856e+09,2.65329e+06,0.00634419,0.262307,0,0.262384,-1610.8,-53289.1,-0,53313.5,2.65329e+06
step02_gravity_refstate-intrusion.xmf,60,1.00743e-05,-2.79756e-05,0,8.85717e-06,-1.4373e+09,-1.44093e+09,-1.43826e+09,844620,-0.00781473,0.2791,-0,0.279209,-751.739,-50456.9,-0,50462.5,844620
step02_gravity_refstate-intrusion.xmf,61,8.45822e-06,-1.98566e-05,0,9.04083e-06,-1.45594e+09,-1.45864e+09,-1.45675e+09,862133,-0.00659551,0.29316,-0,0.293234,-732.631,-51039.5,-0,51044.7,862133
step02_gravity_refstate-intrusion.xmf,62,5.54532e-06,-1.14266e-05,0,1.00979e-05,-1.47517e+09,-1.47679e+09,-1.4757e+09,962931,-0.00453854,0.302059,-0,0.302094,-739.851,-51634.5,-0,51639.8,962931
step02_gravity_refstate-intrusion.xmf,63,2.35701e-06,-3.64593e-06,0,1.10757e-05,-1.49393e+09,-1.49451e+09,-1.49416e+09,1.05617e+06,-0.00209223,0.306155,-0,0.306162,-743.483,-52212.8,-0,52218.1,1.05617e+06
step02_gravity_refstate-intrusion.xmf,64,-2.75229e-06,7.55277e-06,0,2.00083e-05,-1.52036e+09,-1.51937e+09,-1.52009e+09,1.90799e+06,0.0027498,0.287296,0,0.28731,-1207.05,-53024.7,-0,53038.4,1.90799e+06
step02_gravity_refstate-intrusion.xmf,65,-6.30809e-06,1.55346e-05,0,2.75018e-05,-1.54431e+09,-1.54223e+09,-1.54371e+09,2.62257e+06,0.0104469,0.257333,0,0.257544,-1590.79,-53761.9,-0,53785.5,2.62257e+06
step02_gravity_refstate-intrusion.xmf,66,-8.82705e-06,2.11461e-05,0,2.5267e-05,-1.56244e+09,-1.55958e+09,-1.5616e+09,2.40946e+06,0.0146737,0.252449,0,0.252875,-1503.61,-54320,-0,54340.8,2.40946e+06
step02_gravity_refstate-intrusion.xmf,67,-1.03561e-05,2.5234e-05,0,2.74589e-05,-1.57678e+09,-1.57339e+09,-1.5758e+09,2.61848e+06,0.020105,0.232717,0,0.233584,-1655.32,-54763,-0,54788,2.61848e+06
step02_gravity_refstate-intrusion.xmf,68,-1.23928e-05,3.02099e-05,0,2.48367e-05,-1.59067e+09,-1.58661e+09,-1.58949e+09,2.36843e+06,0.0231184,0.225792,0,0.226972,-1575.66,-55191.3,-0,55213.8,2.36843e+06
step02_gravity_refstate-intrusion.xmf,69,-1.44081e-05,3.56081e-05,0,2.32425e-05,-1.60745e+09,-1.60268e+09,-1.60607e+09,2.21641e+06,0.0279166,0.20815,0,0.210014,-1587.79,-55709.4,-0,55732.1,2.21641e+06
step02_gravity_refstate-intrusion.xmf,70,-1.63145e-05,4.12484e-05,0,2.09814e-05,-1.62429e+09,-1.6188e+09,-1.62273e+09,2.00079e+06,0.0325742,0.187835,0,0.190638,-1595.53,-56230.6,-0,56253.3,2.00079e+06
step02_gravity_refstate-intrusion.xmf,71,-8.69923e-07,3.78495e-06,0,1.22259e-05,-1.51225e+09,-1.51181e+09,-1.51217e+09,1.16586e+06,0.000461303,0.3053,0,0.3053,-770.264,-52776.5,-0,52782.1,1.16586e+06
step02_gravity_refstate-intrusion.xmf,72,-5.37584e-06,1.32431e-05,0,2.02191e-05,-1.53716e+09,-1.53538e+09,-1.53664e+09,1.92809e+06,0.00640921,0.281874,0,0.281947,-1207.89,-53541.3,-0,53554.9,1.92809e+06
step02_gravity_refstate-intrusion.xmf,73,-1.80893e-05,4.65827e-05,0,1.80591e-05,-1.64017e+09,-1.634e+09,-1.63844e+09,1.72211e+06,0.036486,0.166337,0,0.170291,-1594.66,-56722.2,-0,56744.6,1.72211e+06
step02_gravity_refstate-intrusion.xmf,74,1.05734e-05,-3.08546e-05,0,3.06741e-06,-1.43377e+09,-1.43772e+09,-1.43478e+09,292508,-0.00266914,0.281769,-0,0.281782,-252.011,-50345.2,-0,50345.8,292508
step02_gravity_refstate-intrusion.xmf,75,1.02381e-05,-2.52553e-05,0,3.03907e-06,-1.44786e+09,-1.45124e+09,-1.44883e+09,289806,-0.00256607,0.294115,-0,0.294126,-253.613,-50788.6,-0,50789.2,289806
step02_gravity_refstate-intrusion.xmf,76,7.99996e-06,-1.71917e-05,0,3.47502e-06,-1.46568e+09,-1.46809e+09,-1.46645e+09,331378,-0.00216884,0.305494,-0,0.305502,-272.56,-51342.8,-0,51343.6,331378
step02_gravity_refstate-intrusion.xmf,77,4.77027e-06,-8.77187e-06,0,4.03222e-06,-1.4845e+09,-1.48579e+09,-1.48496e+09,384513,-0.0013749,0.31266,-0,0.312663,-288.248,-51923.8,-0,51924.6,384513
step02_gravity_refstate-intrusion.xmf,78,1.21415e-06,-6.65266e-07,0,4.60805e-06,-1.50341e+09,-1.50359e+09,-1.50353e+09,439424,-0.000375934,0.315053,-0,0.315053,-305.363,-52505.4,-0,52506.3,439424
step02_gravity_refstate-intrusion.xmf,79,-3.99562e-06,1.04616e-05,0,1.27216e-05,-1.5299e+09,-1.52853e+09,-1.52952e+09,1.21313e+06,0.00306024,0.301108,0,0.301123,-781.321,-53318.9,-0,53324.6,1.21313e+06
step02_gravity_refstate-intrusion.xmf,80,-7.58829e-06,1.81308e-05,0,2.03148e-05,-1.55164e+09,-1.54919e+09,-1.55092e+09,1.93722e+06,0.00966849,0.274336,0,0.274506,-1218.74,-53986.9,-0,54000.6,1.93722e+06
step02_gravity_refstate-intrusion.xmf,81,-1.18282e-05,2.7633e-05,0,1.93461e-05,-1.57887e+09,-1.57511e+09,-1.57774e+09,1.84484e+06,0.0158374,0.254878,0,0.255369,-1223.92,-54824.8,-0,54838.5,1.84484e+06
step02_gravity_refstate-intrusion.xmf,82,-1.4884e-05,3.46861e-05,0,1.70231e-05,-1.5968e+09,-1.59207e+09,-1.59538e+09,1.62332e+06,0.0189612,0.240506,0,0.241253,-1160.37,-55376.7,-0,55388.9,1.62332e+06
step02_gravity_refstate-intrusion.xmf,83,-1.76803e-05,4.17941e-05,0,1.56413e-05,-1.61538e+09,-1.60971e+09,-1.61369e+09,1.49156e+06,0.0234635,0.217556,0,0.218818,-1189.24,-55949.9,-0,55962.5,1.49156e+06
step02_gravity_refstate-intrusion.xmf,84,-2.02131e-05,4.88108e-05,0,1.37672e-05,-1.63246e+09,-1.62588e+09,-1.63054e+09,1.31284e+06,0.0272565,0.193323,0,0.195235,-1201.9,-56478.1,-0,56490.9,1.31284e+06
step02_gravity_refstate-intrusion.xmf,85,-2.0882e-05,5.47882e-05,0,1.41653e-05,-1.65674e+09,-1.64952e+09,-1.65475e+09,1.35081e+06,0.0385818,0.142625,0,0.147752,-1538.73,-57235.3,-0,57256,1.35081e+06
step02_gravity_refstate-intrusion.xmf,86,-2.33799e-06,7.06272e-06,0,5.20633e-06,-1.52191e+09,-1.52102e+09,-1.52169e+09,496476,0.000760999,0.312909,0,0.31291,-327.478,-53073.8,-0,53074.8,496476
step02_gravity_refstate-intrusion.xmf,87,-7.13256e-06,1.69688e-05,0,1.31099e-05,-1.5473e+09,-1.545e+09,-1.54662e+09,1.25016e+06,0.00580396,0.293032,0,0.293089,-805.723,-53853,-0,53859,1.25016e+06
step02_gravity_refstate-intrusion.xmf,88,-1.03647e-05,2.39908e-05,0,1.45445e-05,-1.56614e+09,-1.56286e+09,-1.56515e+09,1.38696e+06,0.00982127,0.277609,0,0.277783,-913.956,-54432,-0,54439.7,1.38696e+06
step02_gravity_refstate-intrusion.xmf,89,-2.17991e-05,5.40709e-05,0,1.25057e-05,-1.64568e+09,-1.63845e+09,-1.6436e+09,1.19255e+06,0.0303764,0.171209,0,0.173883,-1235.71,-56888.2,-0,56901.6,1.19255e+06
step02_gravity_refstate-intrusion.xmf,90,-2.12074e-05,5.89853e-05,0,1.32315e-05,-1.66952e+09,-1.66187e+09,-1.6675e+09,1.26176e+06,0.0417241,0.116954,0,0.124173,-1636.38,-57636.1,-0,57659.3,1.26176e+06
step02_gravity_refstate-intrusion.xmf,91,1.07283e-05,-2.95514e-05,0,-2.94384e-06,-1.43806e+09,-1.4419e+09,-1.43908e+09,-280724,0.0026024,0.285862,0,0.285873,245.479,-50480.5,0,50481.1,280724
step02_gravity_refstate-intrusion.xmf,92,9.27714e-06,-2.12818e-05,0,-2.93484e-06,-1.45677e+09,-1.45969e+09,-1.45766e+09,-279866,0.00222358,0.300533,0,0.300541,241.785,-51066.4,0,51067,279866
step02_gravity_refstate-intrusion.xmf,93,6.51054e-06,-1.30634e-05,0,-3.01488e-06,-1.47504e+09,-1.47691e+09,-1.47566e+09,-287499,0.00147879,0.310088,0,0.310092,229.252,-51632.1,0,51632.6,287499
step02_gravity_refstate-intrusion.xmf,94,3.04007e-06,-4.67746e-06,0,-2.98286e-06,-1.49414e+09,-1.49488e+09,-1.49443e+09,-284446,0.000615765,0.315284,0,0.315285,204.992,-52220.6,0,52221,284446
step02_gravity_refstate-intrusion.xmf,95,-6.21825e-07,3.35638e-06,0,-2.60017e-06,-1.51325e+09,-1.51287e+09,-1.51319e+09,-247952,-0.000106642,0.315794,-0,0.315794,168.673,-52807.9,0,52808.1,247952
step02_gravity_refstate-intrusion.xmf,96,-5.80654e-06,1.42075e-05,0,5.26507e-06,-1.53997e+09,-1.53806e+09,-1.53941e+09,502077,0.00190838,0.307011,0,0.307017,-328.222,-53627.8,-0,53628.8,502077
step02_gravity_refstate-intrusion.xmf,97,-1.42013e-05,3.21204e-05,0,1.20256e-05,-1.58697e+09,-1.58256e+09,-1.58562e+09,1.14676e+06,0.0120307,0.262975,0,0.26325,-812.584,-55071.9,-0,55077.9,1.14676e+06
step02_gravity_refstate-intrusion.xmf,98,-2.11096e-05,4.87771e-05,0,9.24373e-06,-1.62473e+09,-1.61807e+09,-1.62272e+09,881482,0.0174356,0.216889,0,0.217589,-791.529,-56234.9,-0,56240.5,881482
step02_gravity_refstate-intrusion.xmf,99,-1.78134e-05,4.05471e-05,0,1.06954e-05,-1.6064e+09,-1.60083e+09,-1.6047e+09,1.01991e+06,0.0148345,0.241753,0,0.242208,-798.344,-55669.6,-0,55675.4,1.01991e+06
step02_gravity_refstate-intrusion.xmf,100,-2.37931e-05,5.67604e-05,0,8.40021e-06,-1.64212e+09,-1.63444e+09,-1.63985e+09,801044,0.0207117,0.187756,0,0.188895,-834.294,-56773.6,-0,56779.7,801044
step02_gravity_refstate-intrusion.xmf,101,-2.47198e-05,6.21319e-05,0,9.2014e-06,-1.65647e+09,-1.64819e+09,-1.65411e+09,877446,0.0266355,0.157448,0,0.159685,-1016.81,-57221.9,-0,57230.9,877446
step02_gravity_refstate-intrusion.xmf,102,-2.44309e-05,6.5805e-05,0,1.04986e-05,-1.66888e+09,-1.66028e+09,-1.66655e+09,1.00115e+06,0.0326127,0.127905,0,0.131998,-1238.13,-57613.1,-0,57626.4,1.00115e+06
step02_gravity_refstate-intrusion.xmf,103,-4.27769e-06,1.10088e-05,0,-2.44659e-06,-1.53195e+09,-1.53049e+09,-1.53154e+09,-233307,-0.000652898,0.311727,-0,0.311727,153.646,-53381.7,0,53381.9,233307
step02_gravity_refstate-intrusion.xmf,104,-9.38536e-06,2.1606e-05,0,5.64343e-06,-1.55842e+09,-1.55547e+09,-1.55753e+09,538158,0.00336565,0.296514,0,0.296533,-357.742,-54194.1,-0,54195.3,538158
step02_gravity_refstate-intrusion.xmf,105,-1.31234e-05,2.94882e-05,0,5.48734e-06,-1.5776e+09,-1.57353e+09,-1.57635e+09,523273,0.00480216,0.281483,0,0.281524,-364.391,-54782.7,-0,54783.9,523273
step02_gravity_refstate-intrusion.xmf,106,1.00436e-05,-2.89646e-05,0,-8.68062e-06,-1.4339e+09,-1.43762e+09,-1.43486e+09,-827784,0.00774521,0.276216,0,0.276324,744.373,-50350.1,0,50355.6,827784
step02_gravity_refstate-intrusion.xmf,107,9.34558e-06,-2.32453e-05,0,-8.8616e-06,-1.44837e+09,-1.45148e+09,-1.44926e+09,-845042,0.00726284,0.288025,0,0.288116,740.973,-50803.8,0,50809.2,845042
step02_gravity_refstate-intrusion.xmf,108,7.15766e-06,-1.58716e-05,0,-9.28177e-06,-1.46512e+09,-1.46731e+09,-1.4658e+09,-885109,0.00560126,0.298352,0,0.298405,721.789,-51323.7,0,51328.8,885109
step02_gravity_refstate-intrusion.xmf,109,3.95064e-06,-7.19178e-06,0,-1.10244e-05,-1.48432e+09,-1.48538e+09,-1.48469e+09,-1.05129e+06,0.0034958,0.303804,0,0.303824,772.721,-51917,0,51922.7,1.05129e+06
step02_gravity_refstate-intrusion.xmf,110,6.11156e-07,4.65971e-07,0,-1.03685e-05,-1.50436e+09,-1.50437e+09,-1.50442e+09,-988738,0.000626098,0.308359,0,0.30836,676.348,-52533.9,0,52538.3,988738
step02_gravity_refstate-intrusion.xmf,111,-2.79819e-06,7.85633e-06,0,-1.02686e-05,-1.52346e+09,-1.52244e+09,-1.52319e+09,-979209,-0.00171512,0.306723,-0,0.306728,642.828,-53120.7,0,53124.6,979209
step02_gravity_refstate-intrusion.xmf,112,-7.82946e-06,1.82519e-05,0,-2.33674e-06,-1.55013e+09,-1.54764e+09,-1.54938e+09,-222831,-0.00113027,0.303621,-0,0.303623,145.042,-53939.4,0,53939.6,222831
step02_gravity_refstate-intrusion.xmf,113,-1.69599e-05,3.74869e-05,0,4.76881e-06,-1.59694e+09,-1.59175e+09,-1.59532e+09,454754,0.00600109,0.261833,0,0.261902,-352.397,-55376.1,-0,55377.2,454754
step02_gravity_refstate-intrusion.xmf,114,-2.39783e-05,5.53446e-05,0,3.7871e-06,-1.63405e+09,-1.62648e+09,-1.63176e+09,361138,0.00865428,0.209048,0,0.209227,-359.814,-56520.8,-0,56522,361138
step02_gravity_refstate-intrusion.xmf,115,-2.07241e-05,4.66042e-05,0,4.14372e-06,-1.61598e+09,-1.60955e+09,-1.614e+09,395145,0.0070668,0.237449,0,0.237554,-339.935,-55962.5,-0,55963.5,395145
step02_gravity_refstate-intrusion.xmf,116,-2.6325e-05,6.40272e-05,0,4.05025e-06,-1.65266e+09,-1.64405e+09,-1.65015e+09,386232,0.0118233,0.173815,0,0.174217,-446.273,-57100,-0,57101.8,386232
step02_gravity_refstate-intrusion.xmf,117,-2.64105e-05,7.00974e-05,0,6.34513e-06,-1.66779e+09,-1.65858e+09,-1.66527e+09,605072,0.019794,0.138639,0,0.140045,-733.669,-57577.5,-0,57582.2,605072
step02_gravity_refstate-intrusion.xmf,118,-6.20624e-06,1.49039e-05,0,-1.0245e-05,-1.54178e+09,-1.53977e+09,-1.54119e+09,-976959,-0.00388803,0.300596,-0,0.300621,631.415,-53683.1,0,53686.8,976959
step02_gravity_refstate-intrusion.xmf,119,-1.14874e-05,2.59526e-05,0,-2.16511e-06,-1.5688e+09,-1.56523e+09,-1.56771e+09,-206465,-0.00162071,0.291022,-0,0.291026,141.251,-54512.4,0,54512.6,206465
step02_gravity_refstate-intrusion.xmf,120,-1.52273e-05,3.38934e-05,0,-2.08583e-06,-1.58751e+09,-1.58282e+09,-1.58606e+09,-198905,-0.0022093,0.273935,-0,0.273944,145.314,-55086.7,0,55086.8,198905
step02_gravity_refstate-intrusion.xmf,121,8.59988e-06,-2.42482e-05,0,-1.43746e-05,-1.43665e+09,-1.43978e+09,-1.43747e+09,-1.37076e+06,0.0121963,0.267238,0,0.267516,1223.9,-50436.4,0,50451.2,1.37076e+06
step02_gravity_refstate-intrusion.xmf,122,6.72171e-06,-1.68272e-05,0,-1.48652e-05,-1.45515e+09,-1.45739e+09,-1.45579e+09,-1.41755e+06,0.0100341,0.280439,0,0.280618,1173.85,-51012,0,51025.5,1.41755e+06
step02_gravity_refstate-intrusion.xmf,123,4.5157e-06,-1.04312e-05,0,-1.63365e-05,-1.47094e+09,-1.47236e+09,-1.47137e+09,-1.55785e+06,0.00741864,0.286866,0,0.286962,1175.91,-51500.7,0,51514.1,1.55785e+06
step02_gravity_refstate-intrusion.xmf,124,5.91975e-07,-1.7407e-07,0,-1.82287e-05,-1.49856e+09,-1.49863e+09,-1.49862e+09,-1.73829e+06,0.00190984,0.291748,0,0.291755,1163.86,-52353.5,0,52366.4,1.73829e+06
step02_gravity_refstate-intrusion.xmf,125,-1.97863e-06,5.77736e-06,0,-1.82652e-05,-1.51575e+09,-1.51501e+09,-1.51556e+09,-1.74177e+06,-0.00157744,0.292081,-0,0.292085,1122.03,-52882.9,0,52894.8,1.74177e+06
step02_gravity_refstate-intrusion.xmf,126,-4.81569e-06,1.20604e-05,0,-1.82959e-05,-1.53371e+09,-1.5321e+09,-1.53325e+09,-1.7447e+06,-0.00515369,0.287955,-0,0.288002,1103.68,-53435.4,0,53446.8,1.7447e+06
step02_gravity_refstate-intrusion.xmf,127,-9.54647e-06,2.18475e-05,0,-1.00787e-05,-1.55983e+09,-1.55683e+09,-1.55892e+09,-961108,-0.00606439,0.290454,-0,0.290518,629.901,-54237.1,0,54240.7,961108
step02_gravity_refstate-intrusion.xmf,128,-1.90818e-05,4.2077e-05,0,-2.01675e-06,-1.60653e+09,-1.6007e+09,-1.60471e+09,-192318,-0.00277339,0.251836,-0,0.251852,145.976,-55670.4,0,55670.6,192318
step02_gravity_refstate-intrusion.xmf,129,-2.56565e-05,6.0354e-05,0,-6.61302e-07,-1.64296e+09,-1.63475e+09,-1.64051e+09,-63061.7,-0.00191882,0.194758,-0,0.194767,75.1286,-56796.9,0,56797,63061.7
step02_gravity_refstate-intrusion.xmf,130,-2.2699e-05,5.14058e-05,0,-1.55163e-06,-1.6252e+09,-1.61814e+09,-1.62304e+09,-147963,-0.00316451,0.225063,-0,0.225085,140.122,-56246.7,0,56246.9,147963
step02_gravity_refstate-intrusion.xmf,131,-2.72642e-05,7.20803e-05,0,2.21684e-06,-1.66747e+09,-1.658e+09,-1.66487e+09,211398,0.00681309,0.143367,0,0.143529,-249.916,-57567.3,-0,57567.8,211398
step02_gravity_refstate-intrusion.xmf,132,2.27251e-06,-4.67989e-06,0,-1.89229e-05,-1.48477e+09,-1.48543e+09,-1.48499e+09,-1.80449e+06,0.004927,0.286752,0,0.286795,1254.09,-51927.6,0,51942.7,1.80449e+06
step02_gravity_refstate-intrusion.xmf,133,-7.73295e-06,1.82262e-05,0,-1.82775e-05,-1.55135e+09,-1.54887e+09,-1.55061e+09,-1.74294e+06,-0.00872226,0.279798,-0,0.279933,1102.66,-53977.4,0,53988.6,1.74294e+06
step02_gravity_refstate-intrusion.xmf,134,-1.29094e-05,2.92112e-05,0,-9.46085e-06,-1.57802e+09,-1.57401e+09,-1.57679e+09,-902186,-0.00821459,0.276373,-0,0.276495,623.617,-54796.3,0,54799.9,902186
step02_gravity_refstate-intrusion.xmf,135,-1.64671e-05,3.70394e-05,0,-8.6238e-06,-1.59675e+09,-1.59165e+09,-1.59518e+09,-822365,-0.010398,0.257581,-0,0.257791,616.924,-55371.8,0,55375.3,822365
step02_gravity_refstate-intrusion.xmf,136,-2.707e-05,6.72153e-05,0,1.15982e-07,-1.65694e+09,-1.64795e+09,-1.65436e+09,11060.1,-3.43532e-06,0.167067,-0,0.167067,0.0332396,-57234.2,0,57234.2,11060.1
step02_gravity_refstate-intrusion.xmf,137,6.49543e-06,-2.01543e-05,0,-1.91639e-05,-1.43438e+09,-1.43692e+09,-1.435e+09,-1.82747e+06,0.0152935,0.251153,0,0.251618,1636.51,-50363.5,0,50390.1,1.82747e+06
step02_gravity_refstate-intrusion.xmf,138,4.84107e-06,-1.47752e-05,0,-2.00826e-05,-1.44688e+09,-1.44875e+09,-1.44734e+09,-1.91508e+06,0.0137129,0.259801,0,0.260163,1586.17,-50751.4,0,50776.2,1.91508e+06
step02_gravity_refstate-intrusion.xmf,139,1.46931e-06,-4.3318e-06,0,-2.4558e-05,-1.47834e+09,-1.47889e+09,-1.47848e+09,-2.34185e+06,0.00709981,0.268164,0,0.268257,1600.64,-51725.6,0,51750.3,2.34185e+06
step02_gravity_refstate-intrusion.xmf,140,3.11611e-06,-9.29173e-06,0,-2.24765e-05,-1.46292e+09,-1.4641e+09,-1.46322e+09,-2.14336e+06,0.0106861,0.265554,0,0.265769,1589.43,-51248.4,0,51273,2.14336e+06
step02_gravity_refstate-intrusion.xmf,141,-1.32014e-07,2.34205e-07,0,-2.58222e-05,-1.49337e+09,-1.49334e+09,-1.49336e+09,-2.46241e+06,0.00326197,0.269486,0,0.269505,1594.37,-52190.5,0,52214.9,2.46241e+06
step02_gravity_refstate-intrusion.xmf,142,-1.93849e-06,4.97978e-06,0,-2.64147e-05,-1.50932e+09,-1.50866e+09,-1.50913e+09,-2.5189e+06,-0.000917101,0.269521,-0,0.269523,1573.02,-52683,0,52706.5,2.5189e+06
step02_gravity_refstate-intrusion.xmf,143,-4.02232e-06,1.00633e-05,0,-2.66574e-05,-1.52618e+09,-1.52483e+09,-1.52579e+09,-2.54205e+06,-0.00535389,0.266706,-0,0.26676,1555.68,-53202.9,0,53225.7,2.54205e+06
step02_gravity_refstate-intrusion.xmf,144,-6.23202e-06,1.52686e-05,0,-2.67181e-05,-1.54319e+09,-1.54113e+09,-1.54259e+09,-2.54784e+06,-0.0099023,0.260234,-0,0.260422,1553.33,-53727.1,0,53749.5,2.54784e+06
step02_gravity_refstate-intrusion.xmf,145,-1.05761e-05,2.44271e-05,0,-1.77312e-05,-1.56876e+09,-1.56542e+09,-1.56775e+09,-1.69084e+06,-0.0122434,0.268555,-0,0.268834,1098.53,-54512.8,0,54523.8,1.69084e+06
step02_gravity_refstate-intrusion.xmf,146,-2.01357e-05,4.52422e-05,0,-7.81759e-06,-1.61598e+09,-1.60974e+09,-1.61405e+09,-745485,-0.0127785,0.233273,-0,0.233623,620.959,-55962.9,0,55966.3,745485
step02_gravity_refstate-intrusion.xmf,147,-2.63409e-05,6.44807e-05,0,-4.08713e-06,-1.6533e+09,-1.64464e+09,-1.65079e+09,-389748,-0.0125996,0.172221,-0,0.172681,474.598,-57120.6,0,57122.6,389748
step02_gravity_refstate-intrusion.xmf,148,-2.37465e-05,5.52942e-05,0,-6.09256e-06,-1.63546e+09,-1.62793e+09,-1.6332e+09,-580987,-0.0142774,0.203683,-0,0.204183,592.876,-56565.5,0,56568.6,580987
step02_gravity_refstate-intrusion.xmf,149,-2.72456e-05,7.21841e-05,0,-2.15126e-06,-1.66775e+09,-1.65827e+09,-1.66515e+09,-205144,-0.007156,0.142674,-0,0.142853,262.513,-57576.2,0,57576.8,205144
step02_gravity_refstate-intrusion.xmf,150,-8.52721e-06,2.04448e-05,0,-2.65132e-05,-1.56012e+09,-1.55736e+09,-1.55931e+09,-2.5283e+06,-0.01452,0.250645,-0,0.251065,1557.95,-54248.5,0,54270.9,2.5283e+06
step02_gravity_refstate-intrusion.xmf,151,-1.34907e-05,3.1221e-05,0,-1.64603e-05,-1.58674e+09,-1.58248e+09,-1.58546e+09,-1.56966e+06,-0.0157711,0.253744,-0,0.254234,1084.96,-55066.5,0,55077.2,1.56966e+06
step02_gravity_refstate-intrusion.xmf,152,-1.67115e-05,3.8687e-05,0,-1.46598e-05,-1.60594e+09,-1.60066e+09,-1.60435e+09,-1.39796e+06,-0.0194408,0.233748,-0,0.234555,1069.56,-55657.4,0,55667.7,1.39796e+06
step02_gravity_refstate-intrusion.xmf,153,-1.07546e-05,2.57523e-05,0,-2.55298e-05,-1.57697e+09,-1.57349e+09,-1.57595e+09,-2.43452e+06,-0.0190635,0.239016,-0,0.239775,1551.88,-54767.9,0,54789.9,2.43452e+06
step02_gravity_refstate-intrusion.xmf,154,-1.94979e-05,4.66263e-05,0,-1.40277e-05,-1.62594e+09,-1.61963e+09,-1.62408e+09,-1.33768e+06,-0.0252485,0.204112,-0,0.205668,1166.24,-56276,0,56288.1,1.33768e+06
step02_gravity_refstate-intrusion.xmf,155,-2.64407e-05,6.9884e-05,0,-6.26242e-06,-1.66748e+09,-1.65829e+09,-1.66495e+09,-597184,-0.0202117,0.139141,-0,0.140601,749.574,-57567.4,0,57572.3,597184
step02_gravity_refstate-intrusion.xmf,156,-2.35237e-05,5.77861e-05,0,-1.01903e-05,-1.64947e+09,-1.64171e+09,-1.64722e+09,-971748,-0.0272764,0.169197,-0,0.171381,1074.14,-57003.5,0,57013.7,971748
step02_gravity_refstate-intrusion.xmf,157,-1.29213e-05,3.13429e-05,0,-2.39131e-05,-1.59407e+09,-1.58985e+09,-1.59284e+09,-2.28036e+06,-0.0236668,0.224326,-0,0.225571,1545.69,-55295.6,0,55317.2,2.28036e+06
step02_gravity_refstate-intrusion.xmf,158,-1.48403e-05,3.64751e-05,0,-2.2523e-05,-1.60989e+09,-1.60499e+09,-1.60847e+09,-2.14779e+06,-0.0282781,0.20656,-0,0.208487,1567.72,-55784.3,0,55806.3,2.14779e+06
step02_gravity_refstate-intrusion.xmf,159,-1.59241e-05,4.0462e-05,0,-2.21916e-05,-1.625e+09,-1.61962e+09,-1.62348e+09,-2.1162e+06,-0.0338233,0.183509,-0,0.1866,1661.64,-56253,0,56277.6,2.1162e+06
step02_gravity_refstate-intrusion.xmf,160,-1.81639e-05,4.71192e-05,0,-1.78874e-05,-1.63973e+09,-1.6335e+09,-1.63799e+09,-1.70575e+06,-0.0360331,0.167843,-0,0.171667,1574.21,-56709.1,0,56731,1.70575e+06
step02_gravity_refstate-intrusion.xmf,161,-2.42634e-05,6.47977e-05,0,-1.03717e-05,-1.66767e+09,-1.65918e+09,-1.66535e+09,-989049,-0.0331076,0.129972,-0,0.134122,1258.65,-57574.7,0,57588.4,989049
step02_gravity_refstate-intrusion.xmf,162,-2.01579e-05,5.34385e-05,0,-1.49363e-05,-1.65674e+09,-1.64972e+09,-1.65482e+09,-1.42432e+06,-0.0396591,0.140757,-0,0.146237,1591.5,-57236.4,0,57258.5,1.42432e+06
step02_gravity_refstate-intrusion.xmf,163,-2.23132e-05,5.94628e-05,0,-1.37074e-05,-1.66966e+09,-1.66187e+09,-1.66754e+09,-1.30714e+06,-0.0417308,0.116946,-0,0.124168,1636.38,-57636.1,0,57659.3,1.30714e+06
step02_gravity_refstate-crust.xmf,0,-1.90118e-08,4.28789e-06,0,-4.19884e-09,-1.09854e+09,-1.09824e+09,-1.09854e+09,-288.04,-1.22562e-20,0.0422894,-0,0.0422894,-40000,-40000,-0,56568.5,288.04
step02_gravity_refstate-crust.xmf,1,-3.17381e-08,4.3042e-06,0,-3.41153e-08,-1.09854e+09,-1.09824e+09,-1.09854e+09,-2340.31,-4.98616e-05,0.0424583,-0,0.0424583,-37637.7,-40000,-0,54923.5,2340.31
step02_gravity_refstate-crust.xmf,2,-8.91838e-08,4.36215e-06,0,-5.70161e-08,-1.09854e+09,-1.09824e+09,-1.09854e+09,-3911.31,-0.000182933,0.0429489,-0,0.0429493,-35384.1,-40000,-0,53404.5,3911.31
step02_gravity_refstate-crust.xmf,3,-1.76255e-07,4.4484e-06,0,-6.36015e-08,-1.09855e+09,-1.09823e+09,-1.09854e+09,-4363.06,-0.000468025,0.0437542,-0,0.0437567,-33233.9,-40000,-0,52004.7,4363.06
step02_gravity_refstate-crust.xmf,4,-4.43597e-07,4.68549e-06,0,-1.75294e-09,-1.09857e+09,-1.09822e+09,-1.09854e+09,-120.252,-0.00166162,0.0463659,-0,0.0463957,-29222.3,-40000,-0,49537.3,120.252
step02_gravity_refstate-crust.xmf,5,-3.02551e-07,4.55501e-06,0,-4.2682e-08,-1.09856e+09,-1.09823e+09,-1.09854e+09,-2927.98,-0.000948854,0.0448849,-0,0.0448949,-31181.6,-40000,-0,50717.8,2927.98
step02_gravity_refstate-crust.xmf,6,-5.97507e-07,4.83547e-06,0,6.32367e-08,-1.09858e+09,-1.09821e+09,-1.09854e+09,4338.03,-0.00262619,0.0482299,-0,0.0483013,-27351,-40000,-0,48457,4338.03
step02_gravity_refstate-crust.xmf,7,-7.74745e-07,4.98611e-06,0,1.73025e-07,-1.09859e+09,-1.0982e+09,-1.09854e+09,11869.5,-0.00385075,0.0505145,-0,0.0506611,-25563.1,-40000,-0,47470.8,11869.5
step02_gravity_refstate-crust.xmf,8,-9.60922e-07,5.13452e-06,0,3.25548e-07,-1.09861e+09,-1.09819e+09,-1.09854e+09,22332.6,-0.00533156,0.0532603,-0,0.0535264,-23854.1,-40000,-0,46572.7,22332.6
step02_gravity_refstate-crust.xmf,9,-1.14824e-06,5.2706e-06,0,5.25133e-07,-1.09862e+09,-1.09818e+09,-1.09854e+09,36024.1,-0.00705269,0.0565068,-0,0.0569452,-22219.5,-40000,-0,45757,36024.1
step02_gravity_refstate-crust.xmf,10,-1.32598e-06,5.37772e-06,0,7.7732e-07,-1.09864e+09,-1.09818e+09,-1.09855e+09,53324.1,-0.00898644,0.0602916,-0,0.0609576,-20655.1,-40000,-0,45018.2,53324.1
step02_gravity_refstate-crust.xmf,11,-1.48479e-06,5.44719e-06,0,1.08235e-06,-1.09865e+09,-1.09818e+09,-1.09855e+09,74249.3,-0.0110918,0.0646449,-0,0.0655895,-19156.9,-40000,-0,44350.7,74249.3
step02_gravity_refstate-crust.xmf,12,-1.61299e-06,5.46812e-06,0,1.4391e-06,-1.09867e+09,-1.09818e+09,-1.09856e+09,98722.5,-0.0133139,0.0695881,-0,0.0708503,-17720.9,-40000,-0,43749.6,98722.5
step02_gravity_refstate-crust.xmf,13,-1.69189e-06,5.42198e-06,0,1.84293e-06,-1.09868e+09,-1.09819e+09,-1.09856e+09,126425,-0.0155875,0.0751313,-0,0.0767312,-16343,-40000,-0,43209.9,126425
step02_gravity_refstate-crust.xmf,14,-1.70206e-06,5.27764e-06,0,2.29117e-06,-1.09868e+09,-1.09821e+09,-1.09857e+09,157174,-0.0178357,0.0812682,-0,0.0832024,-15019.5,-40000,-0,42726.9,157174
step02_gravity_refstate-crust.xmf,15,-1.64399e-06,5.037e-06,0,2.76507e-06,-1.09869e+09,-1.09823e+09,-1.09858e+09,189684,-0.0199666,0.0879752,-0,0.0902125,-13746.6,-40000,-0,42296.2,189684
step02_gravity_refstate-crust.xmf,16,-1.48155e-06,4.67608e-06,0,3.25647e-06,-1.09869e+09,-1.09826e+09,-1.09858e+09,223394,-0.021888,0.095205,-0,0.0976887,-12520.4,-40000,-0,41913.7,223394
step02_gravity_refstate-crust.xmf,17,-1.21979e-06,4.19118e-06,0,3.73418e-06,-1.09868e+09,-1.09831e+09,-1.09859e+09,256165,-0.0234888,0.102885,-0,0.105532,-11337.1,-40000,-0,41575.6,256165
step02_gravity_refstate-crust.xmf,18,-8.37128e-07,3.56807e-06,0,4.17481e-06,-1.09866e+09,-1.09836e+09,-1.0986e+09,286392,-0.0246694,0.110919,-0,0.113629,-10193,-40000,-0,41278.3,286392
step02_gravity_refstate-crust.xmf,19,-3.34646e-07,2.80929e-06,0,4.54306e-06,-1.09864e+09,-1.09842e+09,-1.09861e+09,311654,-0.0253233,0.119177,-0,0.121838,-9083.97,-40000,-0,41018.5,311654
step02_gravity_refstate-crust.xmf,20,2.82454e-07,1.93019e-06,0,4.79885e-06,-1.09861e+09,-1.09849e+09,-1.09863e+09,329201,-0.0253551,0.127503,-0,0.13,-8006.22,-40000,-0,40793.4,329201
step02_gravity_refstate-crust.xmf,21,1.00413e-06,9.40542e-07,0,4.91213e-06,-1.09857e+09,-1.09857e+09,-1.09864e+09,336972,-0.024685,0.135709,-0,0.137936,-6955.6,-40000,-0,40600.2,336972
step02_gravity_refstate-crust.xmf,22,1.79685e-06,-1.16209e-07,0,4.8389e-06,-1.09853e+09,-1.09866e+09,-1.09865e+09,331948,-0.023251,0.143582,-0,0.145452,-5927.94,-40000,-0,40436.9,331948
step02_gravity_refstate-crust.xmf,23,2.62642e-06,-1.1953e-06,0,4.55237e-06,-1.09848e+09,-1.09874e+09,-1.09866e+09,312293,-0.0210263,0.150883,-0,0.152341,-4918.91,-40000,-0,40301.3,312293
step02_gravity_refstate-crust.xmf,24,3.43616e-06,-2.22906e-06,0,4.03375e-06,-1.09843e+09,-1.09882e+09,-1.09867e+09,276715,-0.0180183,0.157363,-0,0.158391,-3924.05,-40000,-0,40192,276715
step02_gravity_refstate-crust.xmf,25,4.16224e-06,-3.13379e-06,0,3.28114e-06,-1.09839e+09,-1.09889e+09,-1.09868e+09,225086,-0.0142807,0.162765,-0,0.16339,-2938.83,-40000,-0,40107.8,225086
step02_gravity_refstate-crust.xmf,26,4.74222e-06,-3.84043e-06,0,2.31443e-06,-1.09836e+09,-1.09895e+09,-1.09868e+09,158770,-0.00991499,0.16685,-0,0.167144,-1958.59,-40000,-0,40047.9,158770
step02_gravity_refstate-crust.xmf,27,5.1244e-06,-4.30347e-06,0,1.19986e-06,-1.09833e+09,-1.09898e+09,-1.09869e+09,82310.2,-0.00508469,0.169403,-0,0.169479,-979.295,-40000,-0,40012,82310.2
step02_gravity_refstate-crust.xmf,28,5.2609e-06,-4.46098e-06,0,-1.48682e-08,-1.09833e+09,-1.09899e+09,-1.09869e+09,-1019.96,-1.20142e-07,0.170274,-0,0.170274,0,-40000,0,40000,1019.96
step02_gravity_refstate-crust.xmf,29,5.12309e-06,-4.28523e-06,0,-1.22739e-06,-1.09833e+09,-1.09898e+09,-1.09868e+09,-84199.1,0.00508461,0.169403,0,0.169479,979.295,-40000,0,40012,84199.1
step02_gravity_refstate-crust.xmf,30,4.74541e-06,-3.81294e-06,0,-2.33967e-06,-1.09835e+09,-1.09894e+09,-1.09868e+09,-160501,0.00991494,0.16685,0,0.167144,1958.59,-40000,0,40047.9,160501
step02_gravity_refstate-crust.xmf,31,4.15056e-06,-3.0742e-06,0,-3.29529e-06,-1.09839e+09,-1.09889e+09,-1.09867e+09,-226057,0.0142807,0.162765,0,0.16339,2938.83,-40000,0,40107.8,226057
step02_gravity_refstate-crust.xmf,32,3.42049e-06,-2.15401e-06,0,-4.03903e-06,-1.09843e+09,-1.09881e+09,-1.09867e+09,-277077,0.0180183,0.157363,0,0.158391,3924.05,-40000,0,40192,277077
step02_gravity_refstate-crust.xmf,33,2.6123e-06,-1.12363e-06,0,-4.54993e-06,-1.09848e+09,-1.09873e+09,-1.09866e+09,-312125,0.0210264,0.150883,0,0.152341,4918.91,-40000,0,40301.3,312125
step02_gravity_refstate-crust.xmf,34,1.7865e-06,-5.4623e-08,0,-4.82779e-06,-1.09852e+09,-1.09865e+09,-1.09865e+09,-331187,0.023251,0.143581,0,0.145452,5927.94,-40000,0,40436.9,331187
step02_gravity_refstate-crust.xmf,35,9.92791e-07,9.93036e-07,0,-4.89596e-06,-1.09857e+09,-1.09857e+09,-1.09864e+09,-335863,0.0246851,0.135709,0,0.137936,6955.6,-40000,0,40600.2,335863
step02_gravity_refstate-crust.xmf,36,2.75435e-07,1.96963e-06,0,-4.78034e-06,-1.09861e+09,-1.09849e+09,-1.09862e+09,-327932,0.0253555,0.127503,0,0.13,8006.22,-40000,0,40793.4,327932
step02_gravity_refstate-crust.xmf,37,-3.41677e-07,2.84254e-06,0,-4.52033e-06,-1.09864e+09,-1.09842e+09,-1.09861e+09,-310095,0.0253232,0.119177,0,0.121838,9083.97,-40000,0,41018.5,310095
step02_gravity_refstate-crust.xmf,38,-8.43214e-07,3.59122e-06,0,-4.15336e-06,-1.09866e+09,-1.09836e+09,-1.0986e+09,-284920,0.0246692,0.110918,0,0.113629,10193,-40000,0,41278.3,284920
step02_gravity_refstate-crust.xmf,39,-1.22334e-06,4.20312e-06,0,-3.714e-06,-1.09868e+09,-1.0983e+09,-1.09859e+09,-254780,0.0234884,0.102885,0,0.105532,11337.1,-40000,0,41575.6,254780
step02_gravity_refstate-crust.xmf,40,-1.48915e-06,4.68162e-06,0,-3.24177e-06,-1.09869e+09,-1.09826e+09,-1.09858e+09,-222386,0.0218872,0.095205,0,0.0976885,12520.4,-40000,0,41913.7,222386
step02_gravity_refstate-crust.xmf,41,-1.64434e-06,5.03315e-06,0,-2.75644e-06,-1.09869e+09,-1.09823e+09,-1.09858e+09,-189092,0.0199679,0.087976,0,0.0902136,13746.6,-40000,0,42296.2,189092
step02_gravity_refstate-crust.xmf,42,-1.7054e-06,5.26862e-06,0,-2.28239e-06,-1.09869e+09,-1.09821e+09,-1.09857e+09,-156572,0.0178355,0.081269,0,0.0832031,15019.5,-40000,0,42726.9,156572
step02_gravity_refstate-crust.xmf,43,-1.68826e-06,5.40235e-06,0,-1.83833e-06,-1.09868e+09,-1.09819e+09,-1.09856e+09,-126110,0.0155876,0.0751314,0,0.0767314,16343,-40000,0,43209.9,126110
step02_gravity_refstate-crust.xmf,44,-1.60885e-06,5.45011e-06,0,-1.43659e-06,-1.09867e+09,-1.09818e+09,-1.09856e+09,-98550.4,0.0133137,0.0695879,0,0.0708501,17720.9,-40000,0,43749.6,98550.4
step02_gravity_refstate-crust.xmf,45,-1.48308e-06,5.4313e-06,0,-1.08321e-06,-1.09865e+09,-1.09818e+09,-1.09855e+09,-74308,0.0110915,0.0646447,0,0.0655893,19156.9,-40000,0,44350.7,74308
step02_gravity_refstate-crust.xmf,46,-1.32351e-06,5.35957e-06,0,-7.80334e-07,-1.09864e+09,-1.09818e+09,-1.09855e+09,-53530.9,0.00898619,0.0602917,0,0.0609577,20655.1,-40000,0,45018.2,53530.9
step02_gravity_refstate-crust.xmf,47,-1.1449e-06,5.25047e-06,0,-5.3029e-07,-1.09862e+09,-1.09819e+09,-1.09855e+09,-36377.9,0.00705265,0.0565072,0,0.0569456,22219.5,-40000,0,45757,36377.9
step02_gravity_refstate-crust.xmf,48,-9.58201e-07,5.11699e-06,0,-3.31334e-07,-1.09861e+09,-1.09819e+09,-1.09854e+09,-22729.5,0.00533158,0.0532606,0,0.0535268,23854.1,-40000,0,46572.7,22729.5
step02_gravity_refstate-crust.xmf,49,-7.72321e-07,4.97138e-06,0,-1.79291e-07,-1.09859e+09,-1.0982e+09,-1.09854e+09,-12299.4,0.00385076,0.0505148,0,0.0506613,25563.1,-40000,0,47470.8,12299.4
step02_gravity_refstate-crust.xmf,50,-5.95235e-07,4.82316e-06,0,-6.97816e-08,-1.09858e+09,-1.09821e+09,-1.09854e+09,-4787.02,0.00262615,0.04823,0,0.0483015,27351,-40000,0,48457,4787.02
step02_gravity_refstate-crust.xmf,51,-4.33672e-07,4.68104e-06,0,2.16006e-09,-1.09857e+09,-1.09822e+09,-1.09854e+09,148.18,0.00166172,0.0463661,0,0.0463959,29222.3,-40000,0,49537.3,148.18
step02_gravity_refstate-crust.xmf,52,-2.92092e-07,4.5517e-06,0,4.25791e-08,-1.09856e+09,-1.09823e+09,-1.09854e+09,2920.92,0.000948661,0.0448848,0,0.0448948,31181.6,-40000,0,50717.8,2920.92
step02_gravity_refstate-crust.xmf,53,-1.75948e-07,4.44231e-06,0,5.52592e-08,-1.09855e+09,-1.09823e+09,-1.09854e+09,3790.78,0.000468034,0.0437542,0,0.0437567,33233.9,-40000,0,52004.7,3790.78
step02_gravity_refstate-crust.xmf,54,-8.64077e-08,4.35667e-06,0,4.96027e-08,-1.09854e+09,-1.09824e+09,-1.09854e+09,3402.74,0.00018302,0.042949,0,0.0429494,35384.1,-40000,0,53404.5,3402.74
step02_gravity_refstate-crust.xmf,55,-3.13715e-08,4.30309e-06,0,2.92476e-08,-1.09854e+09,-1.09824e+09,-1.09854e+09,2006.39,4.97987e-05,0.0424583,0,0.0424584,37637.7,-40000,0,54923.5,2006.39
step02_gravity_refstate-crust.xmf,56,-1.07892e-08,4.28073e-06,0,4.77499e-09,-1.09854e+09,-1.09824e+09,-1.09854e+09,327.565,1.09724e-20,0.0422894,0,0.0422894,40000,-40000,0,56568.5,327.565
step02_gravity_refstate-crust.xmf,57,-1.55419e-07,4.21379e-06,0,-5.88489e-09,-1.05336e+09,-1.05306e+09,-1.05335e+09,-403.703,-0.000244411,0.0493708,-0,0.0493714,-38367.1,-38354.5,-0,54250.3,403.703
step02_gravity_refstate-crust.xmf,58,-2.05349e-07,4.16241e-06,0,-3.14981e-09,-1.03193e+09,-1.03163e+09,-1.03192e+09,-216.077,-3.89135e-20,0.0525379,-0,0.0525379,-40000,-37574.1,-0,54880,216.077
step02_gravity_refstate-crust.xmf,59,-1.94721e-07,4.2369e-06,0,-1.69843e-09,-1.04999e+09,-1.04969e+09,-1.04998e+09,-116.512,-0.000598919,0.0502411,-0,0.0502447,-36480.6,-38231.8,-0,52844.2,116.512
step02_gravity_refstate-crust.xmf,60,-3.0564e-07,4.08359e-06,0,2.40284e-08,-9.94453e+08,-9.94152e+08,-9.94432e+08,1648.35,-0.000611295,0.0583362,-0,0.0583394,-37919.5,-36209.1,-0,52430.8,1648.35
step02_gravity_refstate-crust.xmf,61,-3.50707e-07,3.99247e-06,0,-2.03672e-09,-9.64307e+08,-9.64009e+08,-9.64283e+08,-139.719,-5.86159e-20,0.0625791,-0,0.0625791,-40000,-35111.3,-0,53224.1,139.719
step02_gravity_refstate-crust.xmf,62,-3.31152e-07,4.15446e-06,0,5.49911e-08,-1.00448e+09,-1.00418e+09,-1.00446e+09,3772.39,-0.00135919,0.0575774,-0,0.0575935,-35311,-36574.3,-0,50838.4,3772.39
step02_gravity_refstate-crust.xmf,63,-2.61319e-07,4.30208e-06,0,1.01861e-08,-1.05065e+09,-1.05034e+09,-1.05063e+09,698.764,-0.00109574,0.0509134,-0,0.0509252,-34264.7,-38255.6,-0,51357.2,698.764
step02_gravity_refstate-crust.xmf,64,-4.1761e-07,3.89918e-06,0,5.43696e-08,-9.29855e+08,-9.29559e+08,-9.29826e+08,3729.76,-0.000876461,0.0677365,-0,0.0677421,-37860.6,-33856.6,-0,50790.7,3729.76
step02_gravity_refstate-crust.xmf,65,-3.96721e-07,4.00329e-06,0,7.99414e-08,-9.57923e+08,-9.57621e+08,-9.57895e+08,5483.98,-0.00140996,0.0641525,-0,0.064168,-36218.3,-34878.7,-0,50282.1,5483.98
step02_gravity_refstate-crust.xmf,66,-4.53395e-07,3.77914e-06,0,-1.98705e-09,-8.95467e+08,-8.95177e+08,-8.95436e+08,-136.312,-8.79425e-20,0.0723214,-0,0.0723214,-40000,-32604.4,-0,51604.7,136.312
step02_gravity_refstate-crust.xmf,67,-4.47404e-07,4.03245e-06,0,1.38375e-07,-9.54856e+08,-9.54549e+08,-9.54826e+08,9492.52,-0.00225902,0.0654637,-0,0.0655027,-34265.5,-34766.9,-0,48814.6,9492.52
step02_gravity_refstate-crust.xmf,68,-4.11689e-07,4.21366e-06,0,1.07263e-07,-1.0021e+09,-1.00178e+09,-1.00207e+09,7358.22,-0.00221672,0.0590654,-0,0.059107,-33080.3,-36487.3,-0,49250.6,7358.22
step02_gravity_refstate-crust.xmf,69,-3.60817e-07,4.39015e-06,0,4.36373e-08,-1.05023e+09,-1.0499e+09,-1.0502e+09,2993.52,-0.00177567,0.0521555,-0,0.0521857,-32098.6,-38239.9,-0,49926.1,2993.52
step02_gravity_refstate-crust.xmf,70,-4.74647e-07,3.85738e-06,0,1.37194e-07,-9.09615e+08,-9.09318e+08,-9.09583e+08,9411.48,-0.00196586,0.0712977,-0,0.0713248,-35616.2,-33119.5,-0,48635.5,9411.48
step02_gravity_refstate-crust.xmf,71,-5.07997e-07,3.65497e-06,0,1.02155e-07,-8.57887e+08,-8.57601e+08,-8.57852e+08,7007.81,-0.00130039,0.0777516,-0,0.0777625,-37374.3,-31235.8,-0,48708.5,7007.81
step02_gravity_refstate-crust.xmf,72,-5.18157e-07,3.52772e-06,0,-3.89022e-10,-8.25216e+08,-8.24939e+08,-8.25181e+08,-26.6869,-8.25949e-20,0.0816663,-0,0.0816663,-40000,-30046.2,-0,50027.7,26.6869
step02_gravity_refstate-crust.xmf,73,-5.31711e-07,3.87054e-06,0,2.34522e-07,-9.03205e+08,-9.02903e+08,-9.03168e+08,16088.2,-0.00315877,0.0734653,-0,0.0735332,-33328.4,-32885.9,-0,46821.7,16088.2
step02_gravity_refstate-crust.xmf,74,-6.02565e-07,4.61158e-06,0,1.6931e-07,-1.05576e+09,-1.0554e+09,-1.05572e+09,11614.7,-0.00345294,0.0545682,-0,0.0546773,-28262.9,-38440.6,-0,47712.4,11614.7
step02_gravity_refstate-crust.xmf,75,-4.76148e-07,4.49092e-06,0,9.48627e-08,-1.05302e+09,-1.05268e+09,-1.05299e+09,6507.58,-0.00249611,0.0531262,-0,0.0531848,-30202,-38341.3,-0,48807.9,6507.58
step02_gravity_refstate-crust.xmf,76,-5.23867e-07,4.08081e-06,0,2.23842e-07,-9.52396e+08,-9.5208e+08,-9.5236e+08,15355.5,-0.00336042,0.0672892,-0,0.0673731,-32051.5,-34677.1,-0,47220.8,15355.5
step02_gravity_refstate-crust.xmf,77,-5.18094e-07,4.29405e-06,0,1.86752e-07,-1.00061e+09,-1.00028e+09,-1.00057e+09,12811.2,-0.00329335,0.0609764,-0,0.0610653,-30812.6,-36432.7,-0,47715.3,12811.2
step02_gravity_refstate-crust.xmf,78,-5.39162e-07,3.66338e-06,0,2.20466e-07,-8.53965e+08,-8.53677e+08,-8.53928e+08,15124,-0.00272967,0.0793941,-0,0.079441,-34650,-31092.9,-0,46555.2,15124
step02_gravity_refstate-crust.xmf,79,-5.43055e-07,3.3892e-06,0,1.06024e-07,-7.89287e+08,-7.89017e+08,-7.89249e+08,7273.27,-0.00120198,0.0864533,-0,0.0864616,-37759.2,-28737.8,-0,47451.2,7273.27
step02_gravity_refstate-crust.xmf,80,-7.36499e-07,4.75087e-06,0,2.59004e-07,-1.05967e+09,-1.05929e+09,-1.05962e+09,17767.7,-0.00453682,0.0561379,-0,0.056321,-26460.5,-38582.6,-0,46784.3,17767.7
step02_gravity_refstate-crust.xmf,81,-5.48578e-07,3.45607e-06,0,1.9904e-07,-8.04454e+08,-8.04179e+08,-8.04416e+08,13654.2,-0.00228479,0.0852632,-0,0.0852938,-35732.1,-29290.1,-0,46202.7,13654.2
step02_gravity_refstate-crust.xmf,82,-5.461e-07,3.24033e-06,0,-1.94662e-11,-7.53355e+08,-7.53095e+08,-7.53318e+08,-1.33538,-7.34145e-20,0.0905224,-0,0.0905224,-40000,-27429.4,-0,48501.3,1.33538
step02_gravity_refstate-crust.xmf,83,-5.85729e-07,3.67112e-06,0,3.43843e-07,-8.49619e+08,-8.49327e+08,-8.49578e+08,23587.6,-0.00408124,0.0816099,-0,0.0817119,-32282.1,-30934.5,-0,44711.1,23587.6
step02_gravity_refstate-crust.xmf,84,-5.97464e-07,3.89926e-06,0,3.49745e-07,-9.00019e+08,-8.9971e+08,-8.99978e+08,23992.5,-0.00444631,0.0757245,-0,0.0758549,-31093.7,-32769.7,-0,45173.8,23992.5
step02_gravity_refstate-crust.xmf,85,-7.05605e-07,4.55067e-06,0,3.1703e-07,-1.02579e+09,-1.02543e+09,-1.02574e+09,21748.3,-0.00489238,0.0607647,-0,0.0609613,-27279,-37349.1,-0,46250.4,21748.3
step02_gravity_refstate-crust.xmf,86,-6.38542e-07,4.39311e-06,0,2.89968e-07,-1.00215e+09,-1.00181e+09,-1.00211e+09,19891.8,-0.00449199,0.0628811,-0,0.0630413,-28679.4,-36488.6,-0,46410.4,19891.8
step02_gravity_refstate-crust.xmf,87,-6.14047e-07,4.13298e-06,0,3.35541e-07,-9.49609e+08,-9.49283e+08,-9.49566e+08,23018.1,-0.00462452,0.0696835,-0,0.0698368,-29892.8,-34575.4,-0,45706,23018.1
step02_gravity_refstate-crust.xmf,88,-8.27627e-07,4.635e-06,0,4.49897e-07,-1.024e+09,-1.02362e+09,-1.02394e+09,30863,-0.00621981,0.0635081,-0,0.0638119,-25606.1,-37283.5,-0,45229.8,30863
step02_gravity_refstate-crust.xmf,89,-8.91827e-07,4.87245e-06,0,4.03571e-07,-1.06047e+09,-1.06007e+09,-1.06041e+09,27685,-0.00594101,0.0587043,-0,0.0590042,-24704.5,-38611.4,-0,45838.3,27685
step02_gravity_refstate-crust.xmf,90,-5.7396e-07,3.44959e-06,0,3.09817e-07,-7.99634e+08,-7.99358e+08,-7.99594e+08,21253.5,-0.00347269,0.0870606,-0,0.0871298,-33633.9,-29114.5,-0,44484.7,21253.5
step02_gravity_refstate-crust.xmf,91,-5.64802e-07,3.22682e-06,0,2.35615e-07,-7.49151e+08,-7.48891e+08,-7.49112e+08,16163.2,-0.00248549,0.0921048,-0,0.0921383,-35492.9,-27276.3,-0,44763.2,16163.2
step02_gravity_refstate-crust.xmf,92,-5.50984e-07,3.15707e-06,0,1.0002e-07,-7.33234e+08,-7.32979e+08,-7.33196e+08,6861.38,-0.00106007,0.093064,-0,0.0930701,-38069.8,-26696.8,-0,46497.6,6861.38
step02_gravity_refstate-crust.xmf,93,-5.49238e-07,2.92662e-06,0,-1.88526e-10,-6.79683e+08,-6.79445e+08,-6.79645e+08,-12.9329,-7.39102e-20,0.0987953,-0,0.0987953,-40000,-24746.9,-0,47036.2,12.9329
step02_gravity_refstate-crust.xmf,94,-7.68883e-07,4.40399e-06,0,4.76479e-07,-9.87056e+08,-9.86702e+08,-9.87004e+08,32686.5,-0.00623243,0.0679902,-0,0.0682753,-26631.7,-35938.5,-0,44730.5,32686.5
step02_gravity_refstate-crust.xmf,95,-5.51123e-07,2.94618e-06,0,1.73335e-07,-6.84388e+08,-6.84148e+08,-6.8435e+08,11890.8,-0.00173229,0.098825,-0,0.0988402,-36844.9,-24918.2,-0,44479.9,11890.8
step02_gravity_refstate-crust.xmf,96,-6.05233e-07,3.44387e-06,0,4.49362e-07,-7.96365e+08,-7.96087e+08,-7.96324e+08,30826.2,-0.00486708,0.0894003,-0,0.0895327,-31280.7,-28995.4,-0,42652.2,30826.2
step02_gravity_refstate-crust.xmf,97,-6.33076e-07,3.68293e-06,0,4.76579e-07,-8.47563e+08,-8.47267e+08,-8.47519e+08,32693.3,-0.00542427,0.0839813,-0,0.0841563,-30094.9,-30859.5,-0,43104.7,32693.3
step02_gravity_refstate-crust.xmf,98,-6.67399e-07,3.92621e-06,0,4.87315e-07,-8.97494e+08,-8.97179e+08,-8.97448e+08,33429.8,-0.0058369,0.0784248,-0,0.0786417,-28930.1,-32677.5,-0,43643.7,33429.8
step02_gravity_refstate-crust.xmf,99,-7.10158e-07,4.17146e-06,0,4.81907e-07,-9.4498e+08,-9.44645e+08,-9.44931e+08,33058.8,-0.00608146,0.0729063,-0,0.0731595,-27789.6,-34406.5,-0,44227.5,33058.8
step02_gravity_refstate-crust.xmf,100,-8.76485e-07,4.46921e-06,0,6.46684e-07,-9.86703e+08,-9.86336e+08,-9.86642e+08,44362.5,-0.00778834,0.0711638,-0,0.0715887,-24745.1,-35925.3,-0,43622.8,44362.5
step02_gravity_refstate-crust.xmf,101,-9.61449e-07,4.72188e-06,0,6.32798e-07,-1.02465e+09,-1.02426e+09,-1.02458e+09,43409.9,-0.00781974,0.0666234,-0,0.0670808,-23798.9,-37306.7,-0,44251.3,43409.9
step02_gravity_refstate-crust.xmf,102,-1.05383e-06,4.99129e-06,0,5.93828e-07,-1.0622e+09,-1.06179e+09,-1.06213e+09,40736.6,-0.00758443,0.0617107,-0,0.062175,-22956.4,-38674,-0,44974.2,40736.6
step02_gravity_refstate-crust.xmf,103,-5.81808e-07,3.20188e-06,0,4.12341e-07,-7.43172e+08,-7.42913e+08,-7.43133e+08,28286.6,-0.00424966,0.0948236,-0,0.0949188,-32409.3,-27058.5,-0,42220,28286.6
step02_gravity_refstate-crust.xmf,104,-5.38309e-07,2.7138e-06,0,1.11768e-07,-6.31901e+08,-6.31678e+08,-6.31864e+08,7667.29,-0.00105949,0.103908,-0,0.103914,-38031.3,-23007,-0,44448.9,7667.29
step02_gravity_refstate-crust.xmf,105,-5.30631e-07,2.59087e-06,0,4.16275e-10,-6.03998e+08,-6.03783e+08,-6.03961e+08,28.5564,-8.13501e-20,0.106398,-0,0.106398,-40000,-21991,-0,45646.5,28.5564
step02_gravity_refstate-crust.xmf,106,-8.02454e-07,4.20546e-06,0,6.57124e-07,-9.43897e+08,-9.43554e+08,-9.43842e+08,45078.7,-0.00762246,0.0761264,-0,0.0765071,-25766.9,-34366.8,-0,42953.6,45078.7
step02_gravity_refstate-crust.xmf,107,-5.61278e-07,2.9644e-06,0,3.37341e-07,-6.89886e+08,-6.89644e+08,-6.89847e+08,23141.6,-0.00331448,0.0996311,-0,0.0996862,-34001,-25118.3,-0,42272.9,23141.6
step02_gravity_refstate-crust.xmf,108,-5.35341e-07,2.6544e-06,0,2.54625e-07,-6.20077e+08,-6.19858e+08,-6.2004e+08,17467.3,-0.00237037,0.1059,-0,0.105926,-35566,-22576.5,-0,42126.4,17467.3
step02_gravity_refstate-crust.xmf,109,-5.18262e-07,2.44128e-06,0,1.29473e-07,-5.71361e+08,-5.71158e+08,-5.71325e+08,8881.87,-0.00116885,0.109654,-0,0.109661,-37745.7,-20802.6,-0,43098.6,8881.87
step02_gravity_refstate-crust.xmf,110,-5.95375e-07,3.18829e-06,0,5.49124e-07,-7.42076e+08,-7.41817e+08,-7.42036e+08,37669.9,-0.00552711,0.0970145,-0,0.0971718,-30238.3,-27018.6,-0,40550.7,37669.9
step02_gravity_refstate-crust.xmf,111,-6.32921e-07,3.43494e-06,0,5.95057e-07,-7.94687e+08,-7.94408e+08,-7.94643e+08,40820.9,-0.00623027,0.0920048,-0,0.0922155,-29082.9,-28934.1,-0,41024.3,40820.9
step02_gravity_refstate-crust.xmf,112,-6.77902e-07,3.6836e-06,0,6.2913e-07,-8.45579e+08,-8.4528e+08,-8.45532e+08,43158.4,-0.00684134,0.0868938,-0,0.0871627,-27946.7,-30787.1,-0,41579.6,43158.4
step02_gravity_refstate-crust.xmf,113,-7.32852e-07,3.94142e-06,0,6.48442e-07,-8.95444e+08,-8.95123e+08,-8.95393e+08,44483.1,-0.00731377,0.0815788,-0,0.081906,-26845.3,-32602.7,-0,42232.7,44483.1
step02_gravity_refstate-crust.xmf,114,-8.80305e-07,4.24957e-06,0,8.4282e-07,-9.47233e+08,-9.46882e+08,-9.47173e+08,57817.4,-0.00919874,0.0791642,-0,0.0796969,-23839.8,-34488,-0,41925.6,57817.4
step02_gravity_refstate-crust.xmf,115,-9.80737e-07,4.51903e-06,0,8.59368e-07,-9.88681e+08,-9.88304e+08,-9.88614e+08,58952.6,-0.00948788,0.0745962,-0,0.0751972,-22875.4,-35996.9,-0,42650.5,58952.6
step02_gravity_refstate-crust.xmf,116,-1.20892e-06,5.09166e-06,0,8.29102e-07,-1.0647e+09,-1.06427e+09,-1.06462e+09,56876.4,-0.00939474,0.0651103,-0,0.0657846,-21284,-38764.6,-0,44223.3,56876.4
step02_gravity_refstate-crust.xmf,117,-1.09331e-06,4.79296e-06,0,8.6882e-07,-1.02645e+09,-1.02605e+09,-1.02638e+09,59601,-0.00966852,0.0703208,-0,0.0709824,-21956.1,-37372,-0,43344.5,59601
step02_gravity_refstate-crust.xmf,118,-5.02416e-07,2.2405e-06,0,8.69201e-10,-5.26093e+08,-5.25905e+08,-5.26058e+08,59.6272,-9.43532e-20,0.11325,-0,0.11325,-40000,-19154.4,-0,44349.6,59.6272
step02_gravity_refstate-crust.xmf,119,-5.63895e-07,2.94623e-06,0,4.88749e-07,-6.88744e+08,-6.88503e+08,-6.88705e+08,33528.2,-0.00473148,0.101733,-0,0.101843,-31474.5,-25076.7,-0,40242.9,33528.2
step02_gravity_refstate-crust.xmf,120,-7.87606e-07,3.93858e-06,0,8.36729e-07,-8.95115e+08,-8.94791e+08,-8.95061e+08,57399.6,-0.00884998,0.0850175,-0,0.0854769,-24826.3,-32590.5,-0,40969.3,57399.6
step02_gravity_refstate-crust.xmf,121,-1.34009e-06,5.17931e-06,0,1.04936e-06,-1.0719e+09,-1.07146e+09,-1.07181e+09,71986.2,-0.0108912,0.0674452,-0,0.0683189,-19933.6,-39026.4,-0,43822.4,71986.2
step02_gravity_refstate-crust.xmf,122,-4.85818e-07,2.08772e-06,0,1.54679e-07,-4.92754e+08,-4.92577e+08,-4.9272e+08,10611,-0.00135194,0.116267,-0,0.116275,-37229,-17940.5,-0,41326.2,10611
step02_gravity_refstate-crust.xmf,123,-5.35598e-07,2.68777e-06,0,4.14923e-07,-6.30817e+08,-6.30596e+08,-6.30781e+08,28463.7,-0.00385548,0.106536,-0,0.106606,-32826,-22967.5,-0,40063.2,28463.7
step02_gravity_refstate-crust.xmf,124,-5.06417e-07,2.35218e-06,0,2.44803e-07,-5.52993e+08,-5.52797e+08,-5.52958e+08,16793.5,-0.00219296,0.111951,-0,0.111973,-35700.2,-20133.9,-0,40986.3,16793.5
step02_gravity_refstate-crust.xmf,125,-5.6202e-07,2.92129e-06,0,6.31522e-07,-6.88821e+08,-6.88582e+08,-6.88783e+08,43322.4,-0.00599192,0.104062,-0,0.104234,-29236.1,-25079.5,-0,38519.2,43322.4
step02_gravity_refstate-crust.xmf,126,-6.02081e-07,3.16162e-06,0,6.99646e-07,-7.41465e+08,-7.41207e+08,-7.41424e+08,47995.7,-0.00684753,0.0997406,-0,0.0999753,-28031.6,-26996.2,-0,38917.5,47995.7
step02_gravity_refstate-crust.xmf,127,-6.51389e-07,3.40901e-06,0,7.54809e-07,-7.93214e+08,-7.92936e+08,-7.9317e+08,51779.9,-0.00761163,0.0951103,-0,0.0954143,-26932.4,-28880.4,-0,39489.6,51779.9
step02_gravity_refstate-crust.xmf,128,-7.13367e-07,3.66841e-06,0,8.0345e-07,-8.4472e+08,-8.4442e+08,-8.44671e+08,55116.7,-0.00832009,0.0902367,-0,0.0906195,-25824.2,-30755.7,-0,40159.7,55116.7
step02_gravity_refstate-crust.xmf,129,-8.48043e-07,4.01158e-06,0,1.01734e-06,-9.11168e+08,-9.10835e+08,-9.1111e+08,69789.8,-0.0103338,0.0865779,-0,0.0871925,-22892.1,-33174.8,-0,40306.5,69789.8
step02_gravity_refstate-crust.xmf,130,-9.43457e-07,4.25592e-06,0,1.06077e-06,-9.50295e+08,-9.49938e+08,-9.5023e+08,72768.7,-0.0108177,0.0826665,-0,0.0833713,-22028.3,-34599.2,-0,41016.5,72768.7
step02_gravity_refstate-crust.xmf,131,-1.06201e-06,4.52277e-06,0,1.11572e-06,-9.89474e+08,-9.89091e+08,-9.89401e+08,76538.2,-0.011317,0.0788028,-0,0.0796113,-21072.4,-36025.5,-0,41735.9,76538.2
step02_gravity_refstate-crust.xmf,132,-1.22959e-06,4.85584e-06,0,1.17273e-06,-1.03268e+09,-1.03226e+09,-1.03259e+09,80449.5,-0.0117484,0.0742926,-0,0.0752158,-20040.4,-37598.1,-0,42605.6,80449.5
step02_gravity_refstate-crust.xmf,133,-1.41476e-06,5.11972e-06,0,1.37666e-06,-1.06485e+09,-1.0644e+09,-1.06475e+09,94438.7,-0.0130156,0.0732061,-0,0.0743542,-18531.4,-38769.1,-0,42970.4,94438.7
step02_gravity_refstate-crust.xmf,134,-4.72884e-07,1.88485e-06,0,-5.80507e-11,-4.4576e+08,-4.45599e+08,-4.45728e+08,-3.98228,-1.72293e-19,0.11928,-0,0.11928,-40000,-16229.4,-0,43167,3.98228
step02_gravity_refstate-crust.xmf,135,-4.57329e-07,1.70241e-06,0,1.19334e-07,-4.04752e+08,-4.04604e+08,-4.04721e+08,8186.33,-0.00106369,0.122216,-0,0.12222,-37689.4,-14736.2,-0,40467.8,8186.33
step02_gravity_refstate-crust.xmf,136,-4.5369e-07,1.52646e-06,0,2.2599e-10,-3.62787e+08,-3.62652e+08,-3.62756e+08,15.5029,-5.75113e-20,0.124424,-0,0.124424,-40000,-13208.2,-0,42124.3,15.5029
step02_gravity_refstate-crust.xmf,137,-4.45547e-07,1.35341e-06,0,1.15976e-07,-3.22268e+08,-3.22145e+08,-3.22238e+08,7955.98,-0.00114689,0.126849,-0,0.126855,-37458.1,-11732.8,-0,39252.6,7955.98
step02_gravity_refstate-crust.xmf,138,-4.58916e-07,1.17277e-06,0,1.89212e-09,-2.76957e+08,-2.76845e+08,-2.76926e+08,129.799,-9.66857e-20,0.128637,-0,0.128637,-40000,-10082.9,-0,41251.2,129.799
step02_gravity_refstate-crust.xmf,139,-5.28849e-07,2.68324e-06,0,5.58357e-07,-6.35222e+08,-6.35002e+08,-6.35186e+08,38303.3,-0.00513505,0.108211,-0,0.108332,-30446.9,-23127.9,-0,38235,38303.3
step02_gravity_refstate-crust.xmf,140,-5.10848e-07,2.44252e-06,0,3.47791e-07,-5.75605e+08,-5.75402e+08,-5.7557e+08,23858.5,-0.00312254,0.110905,-0,0.110949,-33964.1,-20957.2,-0,39909.5,23858.5
step02_gravity_refstate-crust.xmf,141,-7.84548e-07,3.81849e-06,0,9.94433e-07,-8.78695e+08,-8.78379e+08,-8.78641e+08,68218.1,-0.00999985,0.0900045,-0,0.0905583,-23458.1,-31992.5,-0,39671.2,68218.1
step02_gravity_refstate-crust.xmf,142,-4.61797e-07,9.93287e-07,0,1.11508e-07,-2.31401e+08,-2.31302e+08,-2.3137e+08,7649.43,-0.00139327,0.130824,-0,0.130832,-37063.3,-8424.07,-0,38008.6,7649.43
step02_gravity_refstate-crust.xmf,143,-5.03676e-07,8.41151e-07,0,1.57941e-09,-1.88048e+08,-1.87956e+08,-1.88013e+08,108.347,-9.6251e-20,0.1319,-0,0.1319,-40000,-6845.33,-0,40581.5,108.347
step02_gravity_refstate-crust.xmf,144,-4.78892e-07,2.13784e-06,0,3.40772e-07,-5.08602e+08,-5.08422e+08,-5.08569e+08,23377,-0.00295979,0.116501,-0,0.116538,-33950.2,-18517.5,-0,38671.9,23377
step02_gravity_refstate-crust.xmf,145,-4.94427e-07,2.38407e-06,0,4.89886e-07,-5.68438e+08,-5.6824e+08,-5.68404e+08,33606.2,-0.00432418,0.113358,-0,0.11344,-31526,-20696.2,-0,37712.3,33606.2
step02_gravity_refstate-crust.xmf,146,-5.14764e-07,2.65891e-06,0,6.92715e-07,-6.38145e+08,-6.37927e+08,-6.38109e+08,47520.2,-0.00627092,0.110339,-0,0.110517,-28296.2,-23234.3,-0,36613,47520.2
step02_gravity_refstate-crust.xmf,147,-5.50084e-07,2.88282e-06,0,7.75817e-07,-6.89563e+08,-6.89328e+08,-6.89525e+08,53221,-0.0071963,0.10676,-0,0.107002,-27076.2,-25106.5,-0,36925,53221
step02_gravity_refstate-crust.xmf,148,-5.95478e-07,3.11564e-06,0,8.55388e-07,-7.41175e+08,-7.4092e+08,-7.41134e+08,58679.6,-0.00812038,0.102875,-0,0.103195,-25904.4,-26985.6,-0,37406.7,58679.6
step02_gravity_refstate-crust.xmf,149,-7.2082e-07,3.58784e-06,0,1.00068e-06,-8.38031e+08,-8.37736e+08,-8.37982e+08,68646.8,-0.00980976,0.0948947,-0,0.0954004,-23750.4,-30512,-0,38666,68646.8
step02_gravity_refstate-crust.xmf,150,-6.52154e-07,3.35294e-06,0,9.27582e-07,-7.9109e+08,-7.90815e+08,-7.91045e+08,63632.2,-0.00897908,0.0988055,-0,0.0992126,-24828.1,-28803,-0,38026.9,63632.2
step02_gravity_refstate-crust.xmf,151,-7.80498e-07,3.74925e-06,0,1.1324e-06,-8.73704e+08,-8.73393e+08,-8.73651e+08,77682.4,-0.0109587,0.0933179,-0,0.0939591,-22240.2,-31810.7,-0,38814.3,77682.4
step02_gravity_refstate-crust.xmf,152,-8.64757e-07,3.96158e-06,0,1.22078e-06,-9.11728e+08,-9.11397e+08,-9.11669e+08,83745.2,-0.0117469,0.0903571,-0,0.0911175,-21239.4,-33195,-0,39408.4,83745.2
step02_gravity_refstate-crust.xmf,153,-9.705e-07,4.19714e-06,0,1.31011e-06,-9.50073e+08,-9.49718e+08,-9.50006e+08,89873.3,-0.0124779,0.0871446,-0,0.0880334,-20294.6,-34590.9,-0,40104.9,89873.3
step02_gravity_refstate-crust.xmf,154,-1.10038e-06,4.45112e-06,0,1.41477e-06,-9.87796e+08,-9.87415e+08,-9.8772e+08,97053.3,-0.0132272,0.0840372,-0,0.0850718,-19321.7,-35964.1,-0,40825.8,97053.3
step02_gravity_refstate-crust.xmf,155,-1.25638e-06,4.71205e-06,0,1.56319e-06,-1.024e+09,-1.02359e+09,-1.02392e+09,107235,-0.014147,0.0815765,-0,0.0827941,-18221.5,-37282.1,-0,41496.7,107235
step02_gravity_refstate-crust.xmf,156,-1.43617e-06,4.99973e-06,0,1.76926e-06,-1.05901e+09,-1.05857e+09,-1.05891e+09,121371,-0.015327,0.0799384,-0,0.0813945,-16992.6,-38556.3,-0,42134.7,121371
step02_gravity_refstate-crust.xmf,157,-4.3425e-07,1.21228e-06,0,2.03153e-07,-2.90041e+08,-2.89928e+08,-2.90011e+08,13936.3,-0.00214928,0.129105,-0,0.129123,-35217.1,-10559.3,-0,36766,13936.3
step02_gravity_refstate-crust.xmf,158,-4.39258e-07,9.76622e-07,0,2.18858e-07,-2.30886e+08,-2.30789e+08,-2.30856e+08,15013.7,-0.00273264,0.131978,-0,0.132007,-34120.1,-8405.37,-0,35140.2,15013.7
step02_gravity_refstate-crust.xmf,159,-5.43118e-07,6.8018e-07,0,6.76813e-08,-1.40655e+08,-1.40571e+08,-1.40618e+08,4642.94,-0.00140498,0.133495,-0,0.133502,-37457.1,-5119.54,-0,37805.4,4642.94
step02_gravity_refstate-crust.xmf,160,-6.17916e-07,5.48399e-07,0,1.18753e-09,-9.58326e+07,-9.57526e+07,-9.57902e+07,81.4648,-1.15311e-19,0.134231,-0,0.134231,-40000,-3487.23,-0,40151.7,81.4648
step02_gravity_refstate-crust.xmf,161,-4.5823e-07,1.84951e-06,0,2.46673e-07,-4.41613e+08,-4.41455e+08,-4.41582e+08,16921.8,-0.00214125,0.120593,-0,0.120612,-35416.1,-16078.4,-0,38894.9,16921.8
step02_gravity_refstate-crust.xmf,162,-4.32994e-07,1.52381e-06,0,2.57382e-07,-3.66437e+08,-3.66303e+08,-3.66408e+08,17656.4,-0.00236986,0.125545,-0,0.125567,-34698.4,-13341.1,-0,37174.8,17656.4
step02_gravity_refstate-crust.xmf,163,-4.89717e-07,2.46522e-06,0,6.20157e-07,-5.93057e+08,-5.92854e+08,-5.93023e+08,42542.8,-0.00549521,0.113302,-0,0.113435,-29365.4,-21592.7,-0,36449.5,42542.8
step02_gravity_refstate-crust.xmf,164,-4.04343e-07,1.23026e-06,0,3.1089e-07,-2.99212e+08,-2.99099e+08,-2.99184e+08,21327.1,-0.00317748,0.130026,-0,0.130065,-32745.4,-10893.4,-0,34509.8,21327.1
step02_gravity_refstate-crust.xmf,165,-4.93447e-07,7.69777e-07,0,1.46261e-07,-1.70466e+08,-1.70379e+08,-1.70432e+08,10033.5,-0.00245983,0.133404,-0,0.133427,-35203.2,-6205.16,-0,35745.9,10033.5
step02_gravity_refstate-crust.xmf,166,-6.59017e-07,4.66087e-07,0,3.54048e-08,-6.73979e+07,-6.73207e+07,-6.73526e+07,2428.77,-0.00163749,0.135009,-0,0.135019,-37548.2,-2451.74,-0,37628.2,2428.77
step02_gravity_refstate-crust.xmf,167,-8.36428e-07,3.1969e-07,0,-7.36934e-09,-79356.8,-47.1382,-21977.9,-505.537,-8.21866e-20,0.135723,-0,0.135723,-40000,0,-0,40000,505.537
step02_gravity_refstate-crust.xmf,168,-4.36195e-07,1.80663e-06,0,3.81342e-07,-4.36888e+08,-4.36734e+08,-4.36858e+08,26160.1,-0.00329415,0.12239,-0,0.122435,-32812.2,-15906.4,-0,36464.4,26160.1
step02_gravity_refstate-crust.xmf,169,-4.4715e-07,2.21745e-06,0,6.25545e-07,-5.41457e+08,-5.41274e+08,-5.41427e+08,42912.4,-0.00538901,0.11811,-0,0.118232,-28993.3,-19713.9,-0,35060.6,42912.4
step02_gravity_refstate-crust.xmf,170,-4.41522e-07,2.03381e-06,0,5.08228e-07,-4.93957e+08,-4.93788e+08,-4.93927e+08,34864.4,-0.0043525,0.119979,-0,0.120058,-30814.6,-17984.4,-0,35678.8,34864.4
step02_gravity_refstate-crust.xmf,171,-4.58899e-07,2.3905e-06,0,7.27407e-07,-5.85915e+08,-5.8572e+08,-5.85884e+08,49900.1,-0.00633947,0.116142,-0,0.116315,-27495.1,-21332.7,-0,34800.3,49900.1
step02_gravity_refstate-crust.xmf,172,-4.85229e-07,2.60102e-06,0,8.25836e-07,-6.3766e+08,-6.37448e+08,-6.37626e+08,56652.4,-0.00732875,0.113226,-0,0.113463,-26174.3,-23216.7,-0,34987.3,56652.4
step02_gravity_refstate-crust.xmf,173,-5.21528e-07,2.81831e-06,0,9.20608e-07,-6.89479e+08,-6.8925e+08,-6.89444e+08,63153.7,-0.00832481,0.109963,-0,0.110278,-24969,-25103.4,-0,35406.7,63153.7
step02_gravity_refstate-crust.xmf,174,-5.68845e-07,3.04131e-06,0,1.01509e-06,-7.40738e+08,-7.40491e+08,-7.40699e+08,69634.9,-0.00932606,0.106465,-0,0.106872,-23828.7,-26969.7,-0,35988.5,69634.9
step02_gravity_refstate-crust.xmf,175,-6.84935e-07,3.45128e-06,0,1.21805e-06,-8.31198e+08,-8.30914e+08,-8.31151e+08,83558.2,-0.0112939,0.100327,-0,0.100961,-21606,-30263.2,-0,37184.4,83558.2
step02_gravity_refstate-crust.xmf,176,-6.25266e-07,3.25736e-06,0,1.10973e-06,-7.88441e+08,-7.88174e+08,-7.88398e+08,76127.6,-0.0102936,0.103082,-0,0.103595,-22749,-28706.5,-0,36627.6,76127.6
step02_gravity_refstate-crust.xmf,177,-7.54107e-07,3.64147e-06,0,1.33725e-06,-8.71402e+08,-8.711e+08,-8.7135e+08,91735.1,-0.0122918,0.097813,-0,0.0985823,-20495.3,-31726.8,-0,37771,91735.1
step02_gravity_refstate-crust.xmf,178,-8.41038e-07,3.84653e-06,0,1.4541e-06,-9.1018e+08,-9.09859e+08,-9.10123e+08,99751.6,-0.0132019,0.0951109,-0,0.0960228,-19532.1,-33138.6,-0,38466.4,99751.6
step02_gravity_refstate-crust.xmf,179,-9.45303e-07,4.06148e-06,0,1.58015e-06,-9.47388e+08,-9.47044e+08,-9.47323e+08,108398,-0.0140889,0.0924751,-0,0.0935422,-18617.4,-34493.1,-0,39196.7,108398
step02_gravity_refstate-crust.xmf,180,-1.06908e-06,4.28505e-06,0,1.73033e-06,-9.83422e+08,-9.83055e+08,-9.83349e+08,118701,-0.0150282,0.0901018,-0,0.0913465,-17678.7,-35804.8,-0,39931.4,118701
step02_gravity_refstate-crust.xmf,181,-1.20628e-06,4.50454e-06,0,1.90565e-06,-1.01645e+09,-1.01606e+09,-1.01637e+09,130728,-0.0160125,0.088242,-0,0.089683,-16748.4,-37007.1,-0,40620.6,130728
step02_gravity_refstate-crust.xmf,182,-1.50074e-06,4.98216e-06,0,2.16788e-06,-1.07056e+09,-1.07012e+09,-1.07046e+09,148717,-0.0173278,0.0840419,-0,0.0858096,-15536.6,-38976.5,-0,41958.9,148717
step02_gravity_refstate-crust.xmf,183,-3.92536e-07,9.47837e-07,0,3.1344e-07,-2.30072e+08,-2.2998e+08,-2.30045e+08,21502,-0.00389911,0.133746,-0,0.133803,-31321.6,-8375.87,-0,32422.2,21502
step02_gravity_refstate-crust.xmf,184,-4.62341e-07,7.15242e-07,0,2.05675e-07,-1.60241e+08,-1.6016e+08,-1.60209e+08,14109.3,-0.00368477,0.134911,-0,0.134961,-32760.9,-5832.96,-0,33276.1,14109.3
step02_gravity_refstate-crust.xmf,185,-5.89226e-07,5.08908e-07,0,9.8913e-08,-8.84762e+07,-8.84009e+07,-8.84358e+07,6785.43,-0.00325482,0.135514,-0,0.135553,-34720.9,-3219.47,-0,34869.9,6785.43
step02_gravity_refstate-crust.xmf,186,-8.04543e-07,3.04594e-07,0,-4.04327e-09,-76455.5,-368.751,-21263.9,-277.369,-0.00295166,0.13622,-0,0.136252,-36412.7,0,-0,36412.7,277.369
step02_gravity_refstate-crust.xmf,187,-1.30192e-06,4.64229e-06,0,2.10822e-06,-1.03986e+09,-1.03945e+09,-1.03977e+09,144624,-0.0170719,0.0880348,-0,0.0896749,-15846.1,-37859.1,-0,41041.6,144624
step02_gravity_refstate-crust.xmf,188,-1.49882e-06,4.86403e-06,0,2.53022e-06,-1.07716e+09,-1.07673e+09,-1.07706e+09,173573,-0.018967,0.0882648,-0,0.0902797,-14418.4,-39216.7,-0,41783.2,173573
step02_gravity_refstate-crust.xmf,189,-3.93075e-07,1.50395e-06,0,4.14762e-07,-3.69373e+08,-3.69243e+08,-3.69346e+08,28452.7,-0.00374945,0.127525,-0,0.12758,-31364.6,-13448.1,-0,34126.1,28452.7
step02_gravity_refstate-crust.xmf,190,-3.55789e-07,1.20123e-06,0,4.21808e-07,-2.99739e+08,-2.99632e+08,-2.99715e+08,28936,-0.00424413,0.132125,-0,0.132193,-29935.7,-10912.7,-0,31862.7,28936
step02_gravity_refstate-crust.xmf,191,-3.88773e-07,1.72225e-06,0,5.31754e-07,-4.27642e+08,-4.27497e+08,-4.27615e+08,36478.3,-0.00455261,0.12556,-0,0.125643,-29688.8,-15569.8,-0,33523.8,36478.3
step02_gravity_refstate-crust.xmf,192,-3.97047e-07,2.12215e-06,0,7.5172e-07,-5.33566e+08,-5.33393e+08,-5.33539e+08,51568,-0.00636151,0.121633,-0,0.1218,-26566.5,-19426.7,-0,32911.6,51568
step02_gravity_refstate-crust.xmf,193,-3.85809e-07,1.91912e-06,0,6.50102e-07,-4.80717e+08,-4.80559e+08,-4.8069e+08,44597,-0.00548596,0.123886,-0,0.124008,-27917.4,-17502.4,-0,32950.2,44597
step02_gravity_refstate-crust.xmf,194,-4.12043e-07,2.31805e-06,0,8.57125e-07,-5.85464e+08,-5.85277e+08,-5.85436e+08,58798.8,-0.0073309,0.119304,-0,0.119529,-25210.6,-21316.3,-0,33014.6,58798.8
step02_gravity_refstate-crust.xmf,195,-6.18007e-07,3.29731e-06,0,1.41501e-06,-8.28341e+08,-8.28072e+08,-8.28298e+08,97069.4,-0.0125069,0.105253,-0,0.105993,-19709.2,-30159.2,-0,36028.1,97069.4
step02_gravity_refstate-crust.xmf,196,-4.36731e-07,2.52127e-06,0,9.61915e-07,-6.38204e+08,-6.38001e+08,-6.38174e+08,65987.4,-0.00834646,0.116573,-0,0.116872,-23977.4,-23236.6,-0,33389.4,65987.4
step02_gravity_refstate-crust.xmf,197,-4.71374e-07,2.7278e-06,0,1.06734e-06,-6.90352e+08,-6.90132e+08,-6.90319e+08,73219.5,-0.00938764,0.113565,-0,0.113952,-22844.3,-25135.3,-0,33965.3,73219.5
step02_gravity_refstate-crust.xmf,198,-5.1504e-07,2.9309e-06,0,1.17428e-06,-7.40021e+08,-7.39785e+08,-7.39986e+08,80555.6,-0.0104237,0.110498,-0,0.110988,-21791.2,-26943.7,-0,34652.8,80555.6
step02_gravity_refstate-crust.xmf,199,-5.63315e-07,3.11953e-06,0,1.2914e-06,-7.86111e+08,-7.85858e+08,-7.86072e+08,88589.7,-0.0114795,0.107745,-0,0.108355,-20720.2,-28621.7,-0,35334.5,88589.7
step02_gravity_refstate-crust.xmf,200,-6.85281e-07,3.47906e-06,0,1.54917e-06,-8.69065e+08,-8.68779e+08,-8.69018e+08,106273,-0.0135302,0.102799,-0,0.103686,-18751.1,-31641.8,-0,36780.5,106273
step02_gravity_refstate-crust.xmf,201,-7.68158e-07,3.66838e-06,0,1.69277e-06,-9.0802e+08,-9.07716e+08,-9.07967e+08,116124,-0.0145293,0.100368,-0,0.101414,-17865.6,-33059.9,-0,37578.4,116124
step02_gravity_refstate-crust.xmf,202,-8.64618e-07,3.85919e-06,0,1.85364e-06,-9.44866e+08,-9.44542e+08,-9.44807e+08,127160,-0.015538,0.0981713,-0,0.0993933,-17002.4,-34401.3,-0,38373.5,127160
step02_gravity_refstate-crust.xmf,203,-9.7078e-07,4.04339e-06,0,2.04185e-06,-9.79312e+08,-9.78968e+08,-9.79246e+08,140071,-0.0165969,0.0964318,-0,0.0978496,-16126.8,-35655.2,-0,39132.6,140071
step02_gravity_refstate-crust.xmf,204,-1.08741e-06,4.22394e-06,0,2.25911e-06,-1.01151e+09,-1.01114e+09,-1.01143e+09,154975,-0.0177016,0.0951033,-0,0.0967366,-15267.1,-36827.1,-0,39866.3,154975
step02_gravity_refstate-crust.xmf,205,-1.25506e-06,4.45721e-06,0,2.51257e-06,-1.04595e+09,-1.04556e+09,-1.04587e+09,172362,-0.0188788,0.0934613,-0,0.095349,-14437.5,-38080.8,-0,40725.8,172362
step02_gravity_refstate-crust.xmf,206,-1.34137e-06,4.52713e-06,0,2.88896e-06,-1.07192e+09,-1.07152e+09,-1.07183e+09,198183,-0.020463,0.0948262,-0,0.097009,-13352,-39026,-0,41246.8,198183
step02_gravity_refstate-crust.xmf,207,-3.26703e-07,9.13158e-07,0,4.01734e-07,-2.30503e+08,-2.30418e+08,-2.30481e+08,27559,-0.00491969,0.136094,-0,0.136183,-28476.9,-8391.8,-0,29687.6,27559
step02_gravity_refstate-crust.xmf,208,-3.94898e-07,6.83924e-07,0,2.76698e-07,-1.5977e+08,-1.59696e+08,-1.59743e+08,18981.5,-0.00491917,0.136934,-0,0.137023,-29890.1,-5816.04,-0,30450.7,18981.5
step02_gravity_refstate-crust.xmf,209,-5.18169e-07,4.58186e-07,0,1.42679e-07,-8.17021e+07,-8.16351e+07,-8.16665e+07,9787.8,-0.00521495,0.137506,-0,0.137605,-31321.6,-2973.06,-0,31462.4,9787.8
step02_gravity_refstate-crust.xmf,210,-7.23767e-07,2.729e-07,0,3.78912e-10,-68826.6,-455.288,-19176.2,25.9933,-0.00562119,0.137624,-0,0.137738,-32925.8,0,-0,32925.8,25.9933
step02_gravity_refstate-crust.xmf,211,-3.34821e-07,1.42891e-06,0,5.38419e-07,-3.62403e+08,-3.62282e+08,-3.6238e+08,36935.5,-0.00483397,0.130619,-0,0.130709,-28349.1,-13194.5,-0,31269.3,36935.5
step02_gravity_refstate-crust.xmf,212,-2.86989e-07,1.14371e-06,0,5.2107e-07,-2.96999e+08,-2.969e+08,-2.96979e+08,35745.4,-0.00518273,0.135048,-0,0.135148,-27021,-10813.1,-0,29104.2,35745.4
step02_gravity_refstate-crust.xmf,213,-3.20089e-07,1.62278e-06,0,6.60139e-07,-4.19224e+08,-4.19091e+08,-4.19202e+08,45285.5,-0.00559515,0.129325,-0,0.129446,-26646.4,-15263.5,-0,30708.4,45285.5
step02_gravity_refstate-crust.xmf,214,-3.31084e-07,2.03122e-06,0,8.73325e-07,-5.32239e+08,-5.32077e+08,-5.32216e+08,59910.1,-0.00725477,0.125182,-0,0.125392,-24082.5,-19378.5,-0,30911,59910.1
step02_gravity_refstate-crust.xmf,215,-3.24083e-07,1.83743e-06,0,7.67788e-07,-4.77924e+08,-4.77776e+08,-4.77902e+08,52670.3,-0.00638023,0.127246,-0,0.127405,-25345.4,-17400.8,-0,30743.7,52670.3
step02_gravity_refstate-crust.xmf,216,-5.13211e-07,3.10468e-06,0,1.60145e-06,-8.27394e+08,-8.27145e+08,-8.27358e+08,109860,-0.0135252,0.110215,-0,0.111042,-17888.1,-30124.8,-0,35035.5,109860
step02_gravity_refstate-crust.xmf,217,-3.44795e-07,2.22481e-06,0,9.80696e-07,-5.86502e+08,-5.86326e+08,-5.86479e+08,67275.7,-0.00821766,0.122824,-0,0.123099,-22896.1,-21354.3,-0,31308.7,67275.7
step02_gravity_refstate-crust.xmf,218,-4.66253e-07,2.9445e-06,0,1.4597e-06,-7.84872e+08,-7.84638e+08,-7.8484e+08,100136,-0.0124556,0.112506,-0,0.113193,-18794.4,-28576.7,-0,34203.2,100136
step02_gravity_refstate-crust.xmf,219,-3.66542e-07,2.41718e-06,0,1.08988e-06,-6.39748e+08,-6.39557e+08,-6.39723e+08,74765.5,-0.00923376,0.120202,-0,0.120557,-21812.1,-23292.9,-0,31911.2,74765.5
step02_gravity_refstate-crust.xmf,220,-3.94406e-07,2.60275e-06,0,1.20408e-06,-6.9085e+08,-6.90645e+08,-6.90823e+08,82599.7,-0.0102878,0.11752,-0,0.11797,-20779.4,-25153.5,-0,32626.4,82599.7
step02_gravity_refstate-crust.xmf,221,-4.29905e-07,2.78478e-06,0,1.32735e-06,-7.40317e+08,-7.40097e+08,-7.40288e+08,91056,-0.0113777,0.114808,-0,0.115371,-19780,-26954.6,-0,33433.5,91056
step02_gravity_refstate-crust.xmf,222,-5.7194e-07,3.26667e-06,0,1.75509e-06,-8.67948e+08,-8.67685e+08,-8.67909e+08,120399,-0.0145896,0.107984,-0,0.108965,-17043.7,-31601.3,-0,35904.4,120399
step02_gravity_refstate-crust.xmf,223,-6.42689e-07,3.4291e-06,0,1.92325e-06,-9.06255e+08,-9.05975e+08,-9.06211e+08,131935,-0.0156502,0.105904,-0,0.107054,-16245.9,-32995.8,-0,36778.4,131935
step02_gravity_refstate-crust.xmf,224,-7.21881e-07,3.58477e-06,0,2.11773e-06,-9.42622e+08,-9.42326e+08,-9.42572e+08,145276,-0.0167534,0.104176,-0,0.105515,-15436.2,-34319.7,-0,37631.4,145276
step02_gravity_refstate-crust.xmf,225,-8.09501e-07,3.73372e-06,0,2.34214e-06,-9.76997e+08,-9.76685e+08,-9.76941e+08,160671,-0.0179036,0.102837,-0,0.104384,-14627.8,-35571,-0,38461.3,160671
step02_gravity_refstate-crust.xmf,226,-9.10791e-07,3.88033e-06,0,2.60783e-06,-1.01032e+09,-1.00999e+09,-1.01026e+09,178897,-0.0191403,0.101872,-0,0.103654,-13811.3,-36784.1,-0,39291.5,178897
step02_gravity_refstate-crust.xmf,227,-1.09234e-06,4.07201e-06,0,3.31294e-06,-1.07015e+09,-1.0698e+09,-1.07008e+09,227268,-0.0219791,0.102414,-0,0.104745,-12084.5,-38961.8,-0,40792.8,227268
step02_gravity_refstate-crust.xmf,228,-9.9986e-07,3.98421e-06,0,2.93236e-06,-1.04099e+09,-1.04065e+09,-1.04092e+09,201160,-0.0205091,0.101871,-0,0.103915,-12937.1,-37900.3,-0,40047.5,201160
step02_gravity_refstate-crust.xmf,229,-2.42973e-07,8.69099e-07,0,4.78501e-07,-2.31564e+08,-2.31487e+08,-2.31547e+08,32825.2,-0.00573033,0.138954,-0,0.139072,-25613,-8430.67,-0,26964.8,32825.2
step02_gravity_refstate-crust.xmf,230,-3.05433e-07,6.59898e-07,0,3.47652e-07,-1.64467e+08,-1.64401e+08,-1.64446e+08,23848.9,-0.00588054,0.139386,-0,0.13951,-27007.7,-5987.36,-0,27663.4,23848.9
step02_gravity_refstate-crust.xmf,231,-4.08653e-07,4.14489e-07,0,1.85872e-07,-8.15231e+07,-8.14666e+07,-8.1495e+07,12750.8,-0.00671046,0.14,-0,0.140161,-28101.5,-2966.92,-0,28257.7,12750.8
step02_gravity_refstate-crust.xmf,232,-5.94171e-07,2.24022e-07,0,1.93851e-09,-56503.3,-375.238,-15743.2,132.982,-0.00787017,0.139789,-0,0.14001,-29529.6,0,-0,29529.6,132.982
step02_gravity_refstate-crust.xmf,233,-3.64165e-07,2.86305e-06,0,1.76622e-06,-8.26802e+08,-8.26581e+08,-8.26777e+08,121163,-0.0142861,0.11534,-0,0.116221,-16132.3,-30103.5,-0,34153.6,121163
step02_gravity_refstate-crust.xmf,234,-2.63212e-07,1.35516e-06,0,6.39277e-07,-3.58979e+08,-3.58868e+08,-3.58961e+08,43854.4,-0.00566482,0.133896,-0,0.134016,-25541.4,-13070,-0,28691.2,43854.4
step02_gravity_refstate-crust.xmf,235,-2.05004e-07,1.08311e-06,0,6.00728e-07,-2.96367e+08,-2.96279e+08,-2.96353e+08,41210,-0.00586817,0.138228,-0,0.138352,-24235.5,-10790.4,-0,26529.1,41210
step02_gravity_refstate-crust.xmf,236,-2.50981e-07,1.55379e-06,0,7.57081e-07,-4.19685e+08,-4.19561e+08,-4.19668e+08,51935.8,-0.00631578,0.132454,-0,0.132605,-24132,-15280.5,-0,28563,51935.8
step02_gravity_refstate-crust.xmf,237,-2.43568e-07,1.9207e-06,0,9.77166e-07,-5.32436e+08,-5.32287e+08,-5.32419e+08,67033.6,-0.00796723,0.129006,-0,0.129252,-21614.6,-19385.8,-0,29034.5,67033.6
step02_gravity_refstate-crust.xmf,238,-2.43902e-07,1.74006e-06,0,8.67617e-07,-4.76596e+08,-4.7646e+08,-4.76579e+08,59518.5,-0.00709119,0.130892,-0,0.131084,-22804.9,-17352.7,-0,28656.2,59518.5
step02_gravity_refstate-crust.xmf,239,-7.48032e-07,3.51169e-06,0,3.69508e-06,-1.0692e+09,-1.0689e+09,-1.06914e+09,253483,-0.0230699,0.110099,-0,0.11249,-10870.8,-38927.6,-0,40416.9,253483
step02_gravity_refstate-crust.xmf,240,-3.33064e-07,2.73083e-06,0,1.60639e-06,-7.84417e+08,-7.84207e+08,-7.84394e+08,110199,-0.0131826,0.117328,-0,0.118066,-16957.3,-28560.4,-0,33215.1,110199
step02_gravity_refstate-crust.xmf,241,-2.56323e-07,2.10694e-06,0,1.08516e-06,-5.8775e+08,-5.87588e+08,-5.87733e+08,74441.8,-0.00890467,0.126566,-0,0.126879,-20663.6,-21399.9,-0,29747.9,74441.8
step02_gravity_refstate-crust.xmf,242,-3.12451e-07,2.60247e-06,0,1.46064e-06,-7.40978e+08,-7.40778e+08,-7.40956e+08,100200,-0.0121023,0.119252,-0,0.119864,-17858,-26978.8,-0,32353.7,100200
step02_gravity_refstate-crust.xmf,243,-2.70894e-07,2.2814e-06,0,1.20048e-06,-6.4099e+08,-6.40815e+08,-6.40972e+08,82353,-0.00992302,0.124109,-0,0.124505,-19705.4,-23338.3,-0,30544.7,82353
step02_gravity_refstate-crust.xmf,244,-2.89895e-07,2.44744e-06,0,1.32357e-06,-6.91999e+08,-6.91812e+08,-6.91979e+08,90796.8,-0.010989,0.121631,-0,0.122127,-18782.1,-25195.5,-0,31425.8,90796.8
step02_gravity_refstate-crust.xmf,245,-4.11399e-07,3.00267e-06,0,1.93894e-06,-8.67398e+08,-8.67164e+08,-8.6737e+08,133012,-0.0153877,0.113293,-0,0.114333,-15401.1,-31581.5,-0,35136.6,133012
step02_gravity_refstate-crust.xmf,246,-4.6578e-07,3.13355e-06,0,2.13201e-06,-9.0544e+08,-9.05193e+08,-9.05408e+08,146256,-0.0165002,0.111529,-0,0.112743,-14684.3,-32966.4,-0,36089,146256
step02_gravity_refstate-crust.xmf,247,-5.1428e-07,3.2371e-06,0,2.35921e-06,-9.41124e+08,-9.40867e+08,-9.41089e+08,161842,-0.0176701,0.110385,-0,0.111791,-13906.6,-34265.5,-0,36980,161842
step02_gravity_refstate-crust.xmf,248,-5.75483e-07,3.34178e-06,0,2.61892e-06,-9.75713e+08,-9.75445e+08,-9.75674e+08,179658,-0.0188942,0.10945,-0,0.111069,-13159.2,-35524.7,-0,37883.6,179658
step02_gravity_refstate-crust.xmf,249,-6.2912e-07,3.41438e-06,0,2.92692e-06,-1.0084e+09,-1.00812e+09,-1.00835e+09,200786,-0.0202063,0.109206,-0,0.11106,-12372.1,-36714.4,-0,38743,200786
step02_gravity_refstate-crust.xmf,250,-6.74726e-07,3.45456e-06,0,3.28808e-06,-1.03921e+09,-1.03893e+09,-1.03917e+09,225563,-0.021605,0.109626,-0,0.111735,-11577.8,-37836.3,-0,39568,225563
step02_gravity_refstate-crust.xmf,251,-2.02234e-07,6.13423e-07,0,3.95673e-07,-1.64775e+08,-1.64719e+08,-1.64761e+08,27143.2,-0.00659637,0.142338,-0,0.142491,-24172.7,-5998.94,-0,24905.9,27143.2
step02_gravity_refstate-crust.xmf,252,-1.48593e-07,8.19167e-07,0,5.37097e-07,-2.3338e+08,-2.33314e+08,-2.3337e+08,36844.8,-0.00626124,0.142066,-0,0.142204,-22854.4,-8497.11,-0,24382.9,36844.8
step02_gravity_refstate-crust.xmf,253,-2.63978e-07,3.61662e-07,0,2.28019e-07,-8.333e+07,-8.32871e+07,-8.33119e+07,15642.1,-0.00783209,0.143288,-0,0.143502,-24636.6,-3033.2,-0,24822.6,15642.1
step02_gravity_refstate-crust.xmf,254,-4.27865e-07,1.61601e-07,0,3.58814e-09,-40676.2,-238.878,-11324.7,246.147,-0.00957721,0.142539,-0,0.142861,-26214.4,0,-0,26214.4,246.147
step02_gravity_refstate-crust.xmf,255,-1.54198e-07,2.46688e-06,0,1.72768e-06,-7.84746e+08,-7.84566e+08,-7.84735e+08,118519,-0.0136416,0.122375,-0,0.123133,-15113.6,-28572.6,-0,32323.6,118519
step02_gravity_refstate-crust.xmf,256,-1.82864e-07,2.59851e-06,0,1.90378e-06,-8.29371e+08,-8.2918e+08,-8.29358e+08,130600,-0.0148004,0.120181,-0,0.121089,-14465.2,-30197.4,-0,33483.1,130600
step02_gravity_refstate-crust.xmf,257,-1.79952e-07,1.28356e-06,0,7.1938e-07,-3.59197e+08,-3.59096e+08,-3.59184e+08,49349.5,-0.00625889,0.137255,-0,0.137398,-22864.2,-13078.2,-0,26340.2,49349.5
step02_gravity_refstate-crust.xmf,258,-1.12651e-07,1.01994e-06,0,6.59561e-07,-2.97846e+08,-2.97768e+08,-2.97838e+08,45245.9,-0.00629518,0.141537,-0,0.141677,-21549.3,-10844.5,-0,24124.1,45245.9
step02_gravity_refstate-crust.xmf,259,-1.49796e-07,1.8128e-06,0,1.05239e-06,-5.35704e+08,-5.3557e+08,-5.35694e+08,72193.8,-0.00843394,0.132405,-0,0.132674,-19456.2,-19505.1,-0,27549.8,72193.8
step02_gravity_refstate-crust.xmf,260,-1.60184e-07,1.45884e-06,0,8.34749e-07,-4.1923e+08,-4.19119e+08,-4.19219e+08,57263.7,-0.00685098,0.136116,-0,0.136289,-21517.4,-15264.1,-0,26381.7,57263.7
step02_gravity_refstate-crust.xmf,261,-1.5141e-07,1.64027e-06,0,9.44151e-07,-4.78727e+08,-4.78604e+08,-4.78716e+08,64768.7,-0.00758854,0.134431,-0,0.134645,-20404.2,-17430.4,-0,26835.7,64768.7
step02_gravity_refstate-crust.xmf,262,-3.03231e-07,2.8864e-06,0,3.57077e-06,-1.03937e+09,-1.03915e+09,-1.03935e+09,244955,-0.022201,0.116688,-0,0.118781,-10369.7,-37842.4,-0,39237.5,244955
step02_gravity_refstate-crust.xmf,263,-2.91328e-07,2.82144e-06,0,4.02541e-06,-1.0691e+09,-1.06889e+09,-1.06908e+09,276143,-0.0236969,0.118077,-0,0.120432,-9662.47,-38924.9,-0,40106.3,276143
step02_gravity_refstate-crust.xmf,264,-1.71242e-07,2.39716e-06,0,1.56465e-06,-7.4239e+08,-7.42214e+08,-7.42379e+08,107335,-0.0125591,0.12355,-0,0.124187,-16079.1,-27030.5,-0,31451.3,107335
step02_gravity_refstate-crust.xmf,265,-1.49581e-07,1.97056e-06,0,1.16526e-06,-5.89967e+08,-5.89822e+08,-5.89957e+08,79936.8,-0.00936729,0.130299,-0,0.130635,-18548.1,-21480.8,-0,28380.6,79936.8
step02_gravity_refstate-crust.xmf,266,-1.63533e-07,2.27619e-06,0,1.41949e-06,-6.95425e+08,-6.95258e+08,-6.95414e+08,97376.7,-0.0114785,0.125565,-0,0.126089,-16899.9,-25320.5,-0,30442.3,97376.7
step02_gravity_refstate-crust.xmf,267,-1.51715e-07,2.12195e-06,0,1.28868e-06,-6.43434e+08,-6.43278e+08,-6.43424e+08,88403.6,-0.0103948,0.128048,-0,0.128469,-17670,-23427.5,-0,29344.2,88403.6
step02_gravity_refstate-crust.xmf,268,-2.13337e-07,2.70304e-06,0,2.08997e-06,-8.68368e+08,-8.68168e+08,-8.68354e+08,143372,-0.0158942,0.118436,-0,0.119498,-13851,-31617.1,-0,34518,143372
step02_gravity_refstate-crust.xmf,269,-2.28175e-07,2.76848e-06,0,2.30434e-06,-9.0441e+08,-9.04204e+08,-9.04394e+08,158077,-0.0170069,0.117387,-0,0.118612,-13151.5,-32929.3,-0,35458.4,158077
step02_gravity_refstate-crust.xmf,270,-2.43042e-07,2.82081e-06,0,2.55556e-06,-9.39955e+08,-9.39745e+08,-9.39938e+08,175311,-0.0181979,0.116667,-0,0.118078,-12432.1,-34223.4,-0,36411.5,175311
step02_gravity_refstate-crust.xmf,271,-2.62904e-07,2.86518e-06,0,2.84658e-06,-9.74798e+08,-9.74583e+08,-9.7478e+08,195276,-0.0194684,0.116216,-0,0.117835,-11729.8,-35491.9,-0,37379.9,195276
step02_gravity_refstate-crust.xmf,272,-2.81921e-07,2.88495e-06,0,3.18353e-06,-1.00786e+09,-1.00764e+09,-1.00784e+09,218390,-0.0207987,0.116247,-0,0.118093,-11035.2,-36695.5,-0,38318.9,218390
step02_gravity_refstate-crust.xmf,273,-1.51624e-07,4.42688e-07,0,3.28373e-07,-1.21797e+08,-1.21756e+08,-1.21786e+08,22526.4,-0.0074779,0.144815,-0,0.145008,-22696.1,-4434.2,-0,23125.2,22526.4
step02_gravity_refstate-crust.xmf,274,-4.59857e-08,7.61593e-07,0,5.747e-07,-2.35308e+08,-2.35252e+08,-2.35305e+08,39424.4,-0.00651418,0.145334,-0,0.14548,-20165.3,-8567.61,-0,21909.9,39424.4
step02_gravity_refstate-crust.xmf,275,-9.12894e-08,5.89415e-07,0,4.5031e-07,-1.74611e+08,-1.74564e+08,-1.74605e+08,30891.3,-0.00688833,0.145287,-0,0.14545,-21426.5,-6357.43,-0,22349.7,30891.3
step02_gravity_refstate-crust.xmf,276,-2.35255e-07,8.94318e-08,0,4.50504e-09,-22340.7,-67.1431,-6202.16,309.046,-0.0106623,0.145687,-0,0.146077,-22970.9,0,-0,22970.9,309.046
step02_gravity_refstate-crust.xmf,277,-4.52201e-08,1.69519e-06,0,1.10265e-06,-5.40023e+08,-5.39903e+08,-5.4002e+08,75641.8,-0.0086933,0.135679,-0,0.135957,-17433.8,-19662.5,-0,26278.3,75641.8
step02_gravity_refstate-crust.xmf,278,2.39582e-08,2.12294e-06,0,1.62604e-06,-7.39304e+08,-7.3916e+08,-7.39306e+08,111547,-0.0126279,0.128614,-0,0.129233,-14208.7,-26918.5,-0,30438.4,111547
step02_gravity_refstate-crust.xmf,279,6.63519e-08,2.18639e-06,0,1.8319e-06,-7.92057e+08,-7.91912e+08,-7.92062e+08,125668,-0.0139107,0.127258,-0,0.128016,-13199.3,-28839.3,-0,31716.4,125668
step02_gravity_refstate-crust.xmf,280,-1.1124e-08,2.36708e-06,0,2.01371e-06,-8.3705e+08,-8.36887e+08,-8.37049e+08,138141,-0.0151326,0.123839,-0,0.12476,-13102.7,-30477.3,-0,33174.5,138141
step02_gravity_refstate-crust.xmf,281,-8.38763e-08,1.19924e-06,0,7.73846e-07,-3.59754e+08,-3.59666e+08,-3.59748e+08,53085.8,-0.00660672,0.140793,-0,0.140948,-20249.4,-13098.7,-0,24116.7,53085.8
step02_gravity_refstate-crust.xmf,282,-9.91064e-08,2.51209e-07,0,2.10179e-07,-6.90437e+07,-6.90196e+07,-6.90369e+07,14418.3,-0.00877204,0.147029,-0,0.14729,-21319.7,-2513.59,-0,21467.4,14418.3
step02_gravity_refstate-crust.xmf,283,-1.31736e-08,9.47561e-07,0,6.91911e-07,-2.99107e+08,-2.99041e+08,-2.99106e+08,47465.1,-0.006459,0.144907,-0,0.145051,-18966,-10890.7,-0,21870.4,47465.1
step02_gravity_refstate-crust.xmf,284,-4.79454e-08,1.54077e-06,0,9.97292e-07,-4.84969e+08,-4.8486e+08,-4.84966e+08,68414.2,-0.00789224,0.137758,-0,0.137984,-18118.8,-17658,-0,25300.1,68414.2
step02_gravity_refstate-crust.xmf,285,-5.85208e-08,1.36518e-06,0,8.88843e-07,-4.23155e+08,-4.23057e+08,-4.23151e+08,60974.6,-0.00716143,0.139638,-0,0.139821,-19006.4,-15407.2,-0,24466.8,60974.6
step02_gravity_refstate-crust.xmf,286,1.40918e-07,2.27366e-06,0,3.36675e-06,-1.00792e+09,-1.00777e+09,-1.00793e+09,230959,-0.0208933,0.123255,-0,0.125013,-9740.99,-36698.5,-0,37969.3,230959
step02_gravity_refstate-crust.xmf,287,2.13674e-07,2.14482e-06,0,3.78212e-06,-1.03898e+09,-1.03884e+09,-1.03899e+09,259453,-0.0222442,0.124614,-0,0.126584,-9071.86,-37829.1,-0,38901.7,259453
step02_gravity_refstate-crust.xmf,288,2.63663e-07,2.0314e-06,0,4.26063e-06,-1.06989e+09,-1.06977e+09,-1.0699e+09,292280,-0.023759,0.126018,-0,0.128238,-8493.04,-38954.5,-0,39869.6,292280
step02_gravity_refstate-crust.xmf,289,-4.69902e-08,2.13581e-06,0,1.48924e-06,-7.03244e+08,-7.03094e+08,-7.03241e+08,102162,-0.0117958,0.128445,-0,0.128985,-15403.6,-25605.4,-0,29881.6,102162
step02_gravity_refstate-crust.xmf,290,-2.59451e-08,1.81301e-06,0,1.21601e-06,-5.91831e+08,-5.91705e+08,-5.91829e+08,83418.6,-0.00957516,0.134028,-0,0.13437,-16536.5,-21548.9,-0,27162.7,83418.6
step02_gravity_refstate-crust.xmf,291,-3.35475e-11,1.93078e-06,0,1.35858e-06,-6.49603e+08,-6.49471e+08,-6.49603e+08,93198.6,-0.010676,0.132094,-0,0.132524,-15548.1,-23652.5,-0,28305.2,93198.6
step02_gravity_refstate-crust.xmf,292,2.60612e-08,2.35613e-06,0,2.19312e-06,-8.68245e+08,-8.68085e+08,-8.68247e+08,150448,-0.0160284,0.123565,-0,0.1246,-12392.3,-31613.1,-0,33955.2,150448
step02_gravity_refstate-crust.xmf,293,5.78442e-08,2.3534e-06,0,2.4229e-06,-9.03805e+08,-9.03648e+08,-9.03809e+08,166211,-0.0171147,0.123178,-0,0.124362,-11674.4,-32907.8,-0,34917.3,166211
step02_gravity_refstate-crust.xmf,294,9.25569e-08,2.33423e-06,0,2.69938e-06,-9.39877e+08,-9.39724e+08,-9.39884e+08,185177,-0.0183072,0.122996,-0,0.124351,-10970.8,-34221.2,-0,35936.7,185177
step02_gravity_refstate-crust.xmf,295,8.6209e-08,2.35723e-06,0,3.02179e-06,-9.76812e+08,-9.76657e+08,-9.76818e+08,207295,-0.0196601,0.122428,-0,0.123997,-10409.4,-35565.8,-0,37057.8,207295
step02_gravity_refstate-crust.xmf,296,-3.12716e-08,3.92749e-07,0,3.42369e-07,-1.21525e+08,-1.21496e+08,-1.21523e+08,23486.5,-0.00772338,0.147853,-0,0.148054,-20058.9,-4424.72,-0,20541.1,23486.5
step02_gravity_refstate-crust.xmf,297,5.60505e-08,7.01183e-07,0,5.86123e-07,-2.36728e+08,-2.36683e+08,-2.36732e+08,40208,-0.00649581,0.148486,-0,0.148628,-17653.9,-8619.62,-0,19645.8,40208
step02_gravity_refstate-crust.xmf,298,2.50038e-08,5.18477e-07,0,4.6115e-07,-1.7096e+08,-1.70926e+08,-1.70962e+08,31634.9,-0.0070178,0.14863,-0,0.148796,-18719.3,-6224.88,-0,19727.2,31634.9
step02_gravity_refstate-crust.xmf,299,-2.08587e-08,9.23047e-09,0,6.22523e-09,-1925.48,138.636,-494.574,427.051,-0.0110834,0.149036,-0,0.149447,-19789.7,0,-0,19789.7,427.051
step02_gravity_refstate-crust.xmf,300,3.56132e-08,1.48036e-06,0,1.03375e-06,-4.97478e+08,-4.97379e+08,-4.9748e+08,70915.2,-0.00806991,0.139871,-0,0.140103,-16431.8,-18113.6,-0,24456.2,70915.2
step02_gravity_refstate-crust.xmf,301,1.04649e-07,1.88862e-06,0,1.47542e-06,-6.87343e+08,-6.87221e+08,-6.87351e+08,101214,-0.0114059,0.13288,-0,0.133369,-14015.3,-25026.8,-0,28683.9,101214
step02_gravity_refstate-crust.xmf,302,7.18414e-08,1.5489e-06,0,1.11689e-06,-5.39458e+08,-5.39357e+08,-5.39463e+08,76618.8,-0.00865869,0.139101,-0,0.13937,-15534.1,-19642.2,-0,25042.4,76618.8
step02_gravity_refstate-crust.xmf,303,1.9417e-07,1.91968e-06,0,1.68213e-06,-7.50669e+08,-7.5055e+08,-7.50682e+08,115394,-0.0127441,0.131823,-0,0.132437,-12664.9,-27332.6,-0,30124.3,115394
step02_gravity_refstate-crust.xmf,304,5.09374e-07,1.77429e-06,0,3.09235e-06,-9.7673e+08,-9.76643e+08,-9.76765e+08,212136,-0.0192631,0.128894,-0,0.130325,-9098.74,-35563.6,-0,36709.1,212136
step02_gravity_refstate-crust.xmf,305,2.44268e-07,2.00097e-06,0,2.02448e-06,-8.28164e+08,-8.28043e+08,-8.28181e+08,138879,-0.0147049,0.129242,-0,0.130076,-11649.1,-30154.2,-0,32326.1,138879
step02_gravity_refstate-crust.xmf,306,2.01872e-08,1.11441e-06,0,8.03273e-07,-3.63255e+08,-3.6318e+08,-3.63257e+08,55104.5,-0.00670794,0.144241,-0,0.144397,-17709.8,-13226.5,-0,22103.8,55104.5
step02_gravity_refstate-crust.xmf,307,8.64253e-08,8.73876e-07,0,6.97839e-07,-3.00917e+08,-3.00863e+08,-3.00923e+08,47871.8,-0.00637212,0.148103,-0,0.14824,-16532.2,-10956.9,-0,19833.5,47871.8
step02_gravity_refstate-crust.xmf,308,6.80428e-08,2.45257e-07,0,2.67777e-07,-8.7125e+07,-8.71129e+07,-8.71297e+07,18369.5,-0.00838029,0.150469,-0,0.150703,-18146.4,-3172.53,-0,18421.6,18369.5
step02_gravity_refstate-crust.xmf,309,5.92134e-08,1.27043e-06,0,9.24189e-07,-4.34299e+08,-4.34216e+08,-4.34303e+08,63399.4,-0.00727724,0.143048,-0,0.143233,-16427,-15813.3,-0,22801.5,63399.4
step02_gravity_refstate-crust.xmf,310,8.26731e-07,1.24625e-06,0,4.43272e-06,-1.07462e+09,-1.07459e+09,-1.07467e+09,304085,-0.0234743,0.133107,-0,0.135161,-7438.84,-39127.8,-0,39828.7,304085
step02_gravity_refstate-crust.xmf,311,6.47179e-07,1.57381e-06,0,3.4342e-06,-1.00706e+09,-1.00699e+09,-1.0071e+09,235586,-0.020344,0.130367,-0,0.131945,-8453.35,-36667.9,-0,37629.7,235586
step02_gravity_refstate-crust.xmf,312,8.68458e-07,1.25474e-06,0,3.88229e-06,-1.04052e+09,-1.04049e+09,-1.04058e+09,266325,-0.021607,0.13289,-0,0.134636,-7711.59,-37886.5,-0,38663.4,266325
step02_gravity_refstate-crust.xmf,313,1.90607e-07,1.84279e-06,0,1.56546e-06,-7.16138e+08,-7.16025e+08,-7.16151e+08,107390,-0.0119339,0.133381,-0,0.133913,-12981.6,-26075.3,-0,29128.1,107390
step02_gravity_refstate-crust.xmf,314,1.18658e-07,1.62045e-06,0,1.22212e-06,-5.89048e+08,-5.88945e+08,-5.89056e+08,83837.2,-0.00943184,0.138046,-0,0.138368,-14550.8,-21447.9,-0,25917.9,83837.2
step02_gravity_refstate-crust.xmf,315,1.36915e-07,1.32471e-06,0,1.00652e-06,-4.85142e+08,-4.8506e+08,-4.85151e+08,69047.1,-0.00775214,0.143271,-0,0.14348,-14754.9,-17664.7,-0,23016.3,69047.1
step02_gravity_refstate-crust.xmf,316,3.37481e-07,1.78824e-06,0,1.78529e-06,-7.77042e+08,-7.76942e+08,-7.77065e+08,122471,-0.0131461,0.133301,-0,0.133947,-11465.3,-28293.1,-0,30527.9,122471
step02_gravity_refstate-crust.xmf,317,3.01405e-07,1.97319e-06,0,2.24469e-06,-8.68966e+08,-8.68851e+08,-8.68986e+08,153986,-0.015813,0.128668,-0,0.129636,-10941,-31639.8,-0,33478.1,153986
step02_gravity_refstate-crust.xmf,318,3.98168e-07,1.87967e-06,0,2.47327e-06,-9.03416e+08,-9.03314e+08,-9.03443e+08,169667,-0.016763,0.129026,-0,0.130111,-10192.1,-32894.3,-0,34437.1,169667
step02_gravity_refstate-crust.xmf,319,5.3567e-07,1.72873e-06,0,2.76132e-06,-9.40453e+08,-9.40371e+08,-9.4049e+08,189426,-0.0178435,0.129867,-0,0.131087,-9391.77,-34243,-0,35507.6,189426
step02_gravity_refstate-crust.xmf,320,1.37196e-07,6.73536e-07,0,5.9286e-07,-2.45448e+08,-2.45411e+08,-2.45457e+08,40670.2,-0.00626812,0.150864,-0,0.150994,-15595.2,-8937.37,-0,17974.6,40670.2
step02_gravity_refstate-crust.xmf,321,1.42283e-07,4.57935e-07,0,4.58176e-07,-1.71294e+08,-1.71272e+08,-1.71304e+08,31430.9,-0.00678183,0.151909,-0,0.15206,-15993.5,-6237.41,-0,17166.7,31430.9
step02_gravity_refstate-crust.xmf,322,1.95366e-07,-7.33129e-08,0,7.63588e-09,18593.3,161.898,5191.16,523.821,-0.0108249,0.15238,-0,0.152764,-16661.6,0,-0,16661.6,523.821
step02_gravity_refstate-crust.xmf,323,1.5e-06,3.41398e-07,0,4.42032e-06,-1.07605e+09,-1.07613e+09,-1.07616e+09,303234,-0.022377,0.140245,-0,0.142019,-6409.68,-39181.4,-0,39702.2,303234
step02_gravity_refstate-crust.xmf,324,9.82157e-07,1.1363e-06,0,3.08361e-06,-9.78628e+08,-9.78617e+08,-9.78695e+08,211536,-0.0183991,0.13502,-0,0.136268,-7820.13,-35633.7,-0,36481.7,211536
step02_gravity_refstate-crust.xmf,325,1.87757e-07,1.65261e-06,0,1.33332e-06,-6.3662e+08,-6.36519e+08,-6.36633e+08,91466,-0.0102143,0.137353,-0,0.137732,-13471.1,-23180.1,-0,26810.2,91466
step02_gravity_refstate-crust.xmf,326,2.84788e-07,1.63049e-06,0,1.44317e-06,-6.79883e+08,-6.79791e+08,-6.79902e+08,99001.7,-0.0109019,0.137265,-0,0.137697,-12303.5,-24755.5,-0,27644.4,99001.7
step02_gravity_refstate-crust.xmf,327,3.78918e-07,1.61248e-06,0,1.57834e-06,-7.25948e+08,-7.25863e+08,-7.25974e+08,108274,-0.0117337,0.136663,-0,0.137165,-11388.1,-26432.9,-0,28781.7,108274
step02_gravity_refstate-crust.xmf,328,2.01586e-07,1.37786e-06,0,1.09073e-06,-5.34806e+08,-5.34725e+08,-5.3482e+08,74823.9,-0.00831867,0.142731,-0,0.142973,-13606,-19473.1,-0,23755.5,74823.9
step02_gravity_refstate-crust.xmf,329,8.06059e-07,1.37335e-06,0,2.88401e-06,-9.56258e+08,-9.56219e+08,-9.56313e+08,197843,-0.0178816,0.133281,-0,0.134475,-8417.21,-34818.9,-0,35821.9,197843
step02_gravity_refstate-crust.xmf,330,4.94024e-07,1.69017e-06,0,2.07644e-06,-8.40901e+08,-8.40819e+08,-8.40934e+08,142444,-0.0145762,0.133053,-0,0.133849,-10199.1,-30618.4,-0,32272.5,142444
step02_gravity_refstate-crust.xmf,331,5.42054e-07,1.56582e-06,0,1.87754e-06,-8.04467e+08,-8.04397e+08,-8.04504e+08,128799,-0.01336,0.135531,-0,0.136188,-10091.7,-29292.1,-0,30981.7,128799
step02_gravity_refstate-crust.xmf,332,1.97373e-07,7.66083e-07,0,6.58698e-07,-2.9419e+08,-2.94151e+08,-2.94204e+08,45186.7,-0.00598905,0.151648,-0,0.151767,-13946.4,-10712.3,-0,17585.6,45186.7
step02_gravity_refstate-crust.xmf,333,1.33001e-07,1.00875e-06,0,7.93801e-07,-3.63361e+08,-3.633e+08,-3.6337e+08,54454.7,-0.00651632,0.147779,-0,0.147923,-15200.3,-13230.6,-0,20151.9,54454.7
step02_gravity_refstate-crust.xmf,334,2.21159e-07,5.47419e-07,0,5.25094e-07,-2.19905e+08,-2.19883e+08,-2.1992e+08,36021.4,-0.00602242,0.153636,-0,0.153754,-13766.4,-8007.6,-0,15925.9,36021.4
step02_gravity_refstate-crust.xmf,335,2.45122e-07,1.4732e-07,0,2.39767e-07,-7.90803e+07,-7.9087e+07,-7.90971e+07,16448,-0.00804356,0.154218,-0,0.154428,-14852.8,-2880.22,-0,15129.5,16448
step02_gravity_refstate-crust.xmf,336,1.90886e-07,1.10327e-06,0,8.80703e-07,-4.24772e+08,-4.24709e+08,-4.24785e+08,60416.2,-0.00685704,0.147273,-0,0.147433,-13892.1,-15466.7,-0,20789.7,60416.2
step02_gravity_refstate-crust.xmf,337,1.29315e-06,6.68077e-07,0,4.08077e-06,-1.05543e+09,-1.05548e+09,-1.05552e+09,279941,-0.021581,0.137846,-0,0.139525,-6832.35,-38430.3,-0,39033,279941
step02_gravity_refstate-crust.xmf,338,1.20847e-06,8.25621e-07,0,3.36622e-06,-1.00622e+09,-1.00624e+09,-1.0063e+09,230923,-0.0191268,0.137173,-0,0.1385,-7188.12,-36638.5,-0,37336.9,230923
step02_gravity_refstate-crust.xmf,339,2.7531e-07,1.41161e-06,0,1.18184e-06,-5.84185e+08,-5.84107e+08,-5.84204e+08,81074.1,-0.00894916,0.142057,-0,0.142338,-12564.8,-21271.1,-0,24705,81074.1
step02_gravity_refstate-crust.xmf,340,2.61779e-07,1.16513e-06,0,9.54391e-07,-4.79456e+08,-4.79394e+08,-4.79474e+08,65471.2,-0.0072543,0.146844,-0,0.147023,-12652.3,-17458,-0,21560.7,65471.2
step02_gravity_refstate-crust.xmf,341,6.07788e-07,1.37846e-06,0,1.6412e-06,-7.58418e+08,-7.58365e+08,-7.58459e+08,112586,-0.011779,0.13908,-0,0.139578,-9689.66,-27615.6,-0,29266.2,112586
step02_gravity_refstate-crust.xmf,342,6.23273e-07,1.53908e-06,0,2.22252e-06,-8.68396e+08,-8.68333e+08,-8.68439e+08,152465,-0.0151152,0.133857,-0,0.134708,-9473.53,-31619.7,-0,33008.4,152465
step02_gravity_refstate-crust.xmf,343,7.81516e-07,1.36462e-06,0,2.41312e-06,-9.00565e+08,-9.00525e+08,-9.00619e+08,165540,-0.0157878,0.134834,-0,0.135755,-8722.16,-32791.2,-0,33931.4,165540
step02_gravity_refstate-crust.xmf,344,9.93814e-07,1.10996e-06,0,2.59633e-06,-9.29518e+08,-9.2951e+08,-9.29586e+08,178108,-0.0162707,0.136564,-0,0.13753,-7932.04,-33845.8,-0,34762.8,178108
step02_gravity_refstate-crust.xmf,345,7.84759e-07,1.27477e-06,0,1.94602e-06,-8.30448e+08,-8.30414e+08,-8.30501e+08,133497,-0.0133111,0.138086,-0,0.138726,-8763.06,-30238.4,-0,31482.6,133497
step02_gravity_refstate-crust.xmf,346,2.76357e-07,6.0014e-07,0,5.53678e-07,-2.55519e+08,-2.55497e+08,-2.55538e+08,37982.3,-0.00553708,0.154723,-0,0.154822,-12163.2,-9304.46,-0,15313.9,37982.3
step02_gravity_refstate-crust.xmf,347,4.04073e-07,-1.52236e-07,0,7.45564e-09,38430.5,267.688,10711.1,511.457,-0.00991443,0.15553,-0,0.155845,-13577.4,0,-0,13577.4,511.457
step02_gravity_refstate-crust.xmf,348,1.53412e-06,3.78928e-07,0,3.64781e-06,-1.03194e+09,-1.03202e+09,-1.03205e+09,250240,-0.0196333,0.140386,-0,0.141752,-6485.36,-37575.8,-0,38131.3,250240
step02_gravity_refstate-crust.xmf,349,1.84975e-06,-7.22855e-08,0,3.9022e-06,-1.05329e+09,-1.05343e+09,-1.05342e+09,267691,-0.0200114,0.143515,-0,0.144903,-5920.29,-38353.6,-0,38807.8,267691
step02_gravity_refstate-crust.xmf,350,2.23332e-06,-6.21823e-07,0,4.19561e-06,-1.07583e+09,-1.07602e+09,-1.07598e+09,287819,-0.0204207,0.147186,-0,0.148596,-5367.6,-39174.6,-0,39540.6,287819
step02_gravity_refstate-crust.xmf,351,1.23131e-06,8.0743e-07,0,2.75261e-06,-9.53987e+08,-9.54016e+08,-9.54072e+08,188829,-0.0165395,0.138702,-0,0.139684,-7199.47,-34737.1,-0,35475.3,188829
step02_gravity_refstate-crust.xmf,352,1.48843e-06,4.70923e-07,0,2.93168e-06,-9.7909e+08,-9.79159e+08,-9.79192e+08,201113,-0.0168565,0.140913,-0,0.141918,-6551.36,-35651.5,-0,36248.4,201113
step02_gravity_refstate-crust.xmf,353,3.69284e-07,1.41195e-06,0,1.27997e-06,-6.33229e+08,-6.33157e+08,-6.33254e+08,87805.9,-0.00959767,0.141518,-0,0.141843,-11512.1,-23057,-0,25771.2,87805.9
step02_gravity_refstate-crust.xmf,354,4.8403e-07,1.37162e-06,0,1.37996e-06,-6.79279e+08,-6.79218e+08,-6.79312e+08,94665.2,-0.0101919,0.141247,-0,0.141614,-10488.8,-24733.9,-0,26866,94665.2
step02_gravity_refstate-crust.xmf,355,3.40861e-07,1.20145e-06,0,1.02719e-06,-5.31548e+08,-5.31489e+08,-5.31571e+08,70465,-0.00771577,0.14626,-0,0.146463,-11579.3,-19354.8,-0,22554.1,70465
step02_gravity_refstate-crust.xmf,356,5.9121e-07,1.31715e-06,0,1.46264e-06,-7.15507e+08,-7.15457e+08,-7.15547e+08,100337,-0.0106602,0.141135,-0,0.141537,-9716.66,-26053.2,-0,27806.1,100337
step02_gravity_refstate-crust.xmf,357,7.72429e-07,1.22726e-06,0,1.72756e-06,-7.90863e+08,-7.90832e+08,-7.90916e+08,118511,-0.0120704,0.139928,-0,0.140448,-8753.35,-28797.2,-0,30098.2,118511
step02_gravity_refstate-crust.xmf,358,2.47176e-07,8.97492e-07,0,7.47043e-07,-3.62866e+08,-3.62821e+08,-3.62883e+08,51247.1,-0.00604109,0.151138,-0,0.151259,-12715.8,-13212.9,-0,18337.7,51247.1
step02_gravity_refstate-crust.xmf,359,3.01037e-07,7.11126e-07,0,6.18767e-07,-3.07005e+08,-3.06977e+08,-3.07026e+08,42447.4,-0.00539299,0.154341,-0,0.154435,-11414.6,-11179.1,-0,15977.1,42447.4
step02_gravity_refstate-crust.xmf,360,2.81773e-07,3.20379e-07,0,3.76635e-07,-1.4722e+08,-1.47217e+08,-1.47239e+08,25837.2,-0.0064324,0.155522,-0,0.155655,-13108,-5361.33,-0,14162.1,25837.2
step02_gravity_refstate-crust.xmf,361,3.18581e-07,4.40912e-07,0,4.48775e-07,-2.02177e+08,-2.02168e+08,-2.02198e+08,30786,-0.00549395,0.15645,-0,0.156547,-11501,-7362.41,-0,13655.7,30786
step02_gravity_refstate-crust.xmf,362,4.01529e-07,6.37404e-08,0,2.01913e-07,-7.21011e+07,-7.21243e+07,-7.21287e+07,13851.3,-0.00723821,0.157274,-0,0.15744,-11900.6,-2626.64,-0,12187,13851.3
step02_gravity_refstate-crust.xmf,363,3.10975e-07,9.6955e-07,0,8.13376e-07,-4.22885e+08,-4.2284e+08,-4.22907e+08,55797.6,-0.00625337,0.150603,-0,0.150732,-11564.2,-15398.3,-0,19257.2,55797.6
step02_gravity_refstate-crust.xmf,364,1.7937e-06,6.34348e-08,0,3.1386e-06,-1.00531e+09,-1.00543e+09,-1.00544e+09,215308,-0.0171904,0.143512,-0,0.144538,-5928.26,-36606.8,-0,37083.8,215308
step02_gravity_refstate-crust.xmf,365,4.361e-07,1.21236e-06,0,1.10732e-06,-5.84259e+08,-5.84206e+08,-5.84289e+08,75962,-0.00824345,0.145581,-0,0.145815,-10575,-21274.2,-0,23757.5,75962
step02_gravity_refstate-crust.xmf,366,3.90017e-07,1.01568e-06,0,8.7102e-07,-4.7864e+08,-4.78597e+08,-4.78667e+08,59751.9,-0.00653516,0.150042,-0,0.150184,-10477.6,-17428.5,-0,20335.5,59751.9
step02_gravity_refstate-crust.xmf,367,7.50675e-07,1.14214e-06,0,1.424e-06,-7.28212e+08,-7.28185e+08,-7.28263e+08,97686.5,-0.0101848,0.143167,-0,0.143529,-8530.52,-26516.1,-0,27854.5,97686.5
step02_gravity_refstate-crust.xmf,368,9.5707e-07,1.09806e-06,0,2.10918e-06,-8.67071e+08,-8.67062e+08,-8.67137e+08,144690,-0.0139252,0.138762,-0,0.139459,-8027.03,-31572.2,-0,32576.6,144690
step02_gravity_refstate-crust.xmf,369,1.16851e-06,8.57897e-07,0,2.25756e-06,-8.98694e+08,-8.98715e+08,-8.98774e+08,154869,-0.0143184,0.140076,-0,0.140806,-7287.45,-32723.9,-0,33525.5,154869
step02_gravity_refstate-crust.xmf,370,1.41641e-06,5.57027e-07,0,2.38426e-06,-9.26771e+08,-9.2683e+08,-9.26869e+08,163560,-0.0145021,0.141903,-0,0.142642,-6558.11,-33746.6,-0,34378,163560
step02_gravity_refstate-crust.xmf,371,8.63418e-07,1.05237e-06,0,1.51133e-06,-7.60614e+08,-7.60601e+08,-7.60673e+08,103678,-0.0105909,0.14306,-0,0.143451,-7991.43,-27696,-0,28825.9,103678
step02_gravity_refstate-crust.xmf,372,1.04651e-06,8.88268e-07,0,1.61544e-06,-8.0037e+08,-8.00381e+08,-8.00442e+08,110819,-0.010972,0.143418,-0,0.143837,-7230.88,-29143.9,-0,30027.5,110819
step02_gravity_refstate-crust.xmf,373,3.5168e-07,5.40752e-07,0,4.95296e-07,-2.54316e+08,-2.54303e+08,-2.5434e+08,33977.3,-0.0049176,0.156849,-0,0.156926,-10187.8,-9260.88,-0,13767.9,33977.3
step02_gravity_refstate-crust.xmf,374,5.91181e-07,-2.22751e-07,0,7.08469e-09,56225.1,389.353,15670.1,486.01,-0.00840813,0.158302,-0,0.158526,-10528.1,0,-0,10528.1,486.01
step02_gravity_refstate-crust.xmf,375,2.16058e-06,-4.33702e-07,0,3.34891e-06,-1.03084e+09,-1.03102e+09,-1.03099e+09,229735,-0.0174166,0.146656,-0,0.147686,-5317.74,-37536.9,-0,37911.7,229735
step02_gravity_refstate-crust.xmf,376,2.98118e-06,-1.58248e-06,0,3.76608e-06,-1.07633e+09,-1.07665e+09,-1.07654e+09,258353,-0.0176993,0.153623,-0,0.154639,-4308.26,-39194.6,-0,39430.7,258353
step02_gravity_refstate-crust.xmf,377,2.5722e-06,-1.00108e-06,0,3.50737e-06,-1.05257e+09,-1.05281e+09,-1.05274e+09,240606,-0.0173483,0.150209,-0,0.151208,-4735.16,-38328.7,-0,38620.1,240606
step02_gravity_refstate-crust.xmf,378,1.69586e-06,2.0509e-07,0,2.49106e-06,-9.52376e+08,-9.52478e+08,-9.52492e+08,170887,-0.0145207,0.14407,-0,0.1448,-5868.13,-34679.4,-0,35172.4,170887
step02_gravity_refstate-crust.xmf,379,2.00332e-06,-1.91005e-07,0,2.61044e-06,-9.78292e+08,-9.78442e+08,-9.78429e+08,179076,-0.0145552,0.146399,-0,0.147121,-5253.78,-35623.5,-0,36008.8,179076
step02_gravity_refstate-crust.xmf,380,5.56005e-07,1.17978e-06,0,1.1856e-06,-6.34625e+08,-6.34582e+08,-6.34663e+08,81331.9,-0.00872156,0.145155,-0,0.145416,-9553.61,-23108.2,-0,25005.2,81331.9
step02_gravity_refstate-crust.xmf,381,7.16199e-07,1.09345e-06,0,1.26649e-06,-6.85678e+08,-6.85652e+08,-6.85727e+08,86881.5,-0.00914451,0.144996,-0,0.145284,-8486.22,-24967.4,-0,26370.2,86881.5
step02_gravity_refstate-crust.xmf,382,4.82206e-07,1.0366e-06,0,9.30933e-07,-5.33327e+08,-5.33289e+08,-5.3336e+08,63862,-0.00689821,0.149322,-0,0.149482,-9523.06,-19419.9,-0,21629.1,63862
step02_gravity_refstate-crust.xmf,383,1.08048e-06,9.20364e-07,0,1.84567e-06,-8.39146e+08,-8.39157e+08,-8.3922e+08,126613,-0.012256,0.141886,-0,0.142414,-7327.78,-30555.7,-0,31422.1,126613
step02_gravity_refstate-crust.xmf,384,3.5609e-07,7.97925e-07,0,6.6972e-07,-3.65744e+08,-3.65714e+08,-3.65769e+08,45942.8,-0.00532448,0.154035,-0,0.154127,-10272.1,-13318,-0,16819.2,45942.8
step02_gravity_refstate-crust.xmf,385,3.94313e-07,6.36855e-07,0,5.3291e-07,-3.10031e+08,-3.10014e+08,-3.10058e+08,36557.6,-0.0045567,0.15684,-0,0.156906,-8979.76,-11289.6,-0,14425.3,36557.6
step02_gravity_refstate-crust.xmf,386,4.02471e-07,2.34099e-07,0,3.08041e-07,-1.36833e+08,-1.36844e+08,-1.3686e+08,21131.6,-0.00560952,0.158374,-0,0.158473,-10356.5,-4983.53,-0,11493.2,21131.6
step02_gravity_refstate-crust.xmf,387,4.12531e-07,3.70211e-07,0,3.6886e-07,-1.96674e+08,-1.96677e+08,-1.96702e+08,25303.8,-0.00458125,0.158977,-0,0.159043,-8930.73,-7162.35,-0,11448,25303.8
step02_gravity_refstate-crust.xmf,388,5.37447e-07,7.06807e-11,0,1.62628e-07,-6.88201e+07,-6.8857e+07,-6.8857e+07,11156.2,-0.00591985,0.15985,-0,0.159959,-8961.31,-2507.64,-0,9305.55,11156.2
step02_gravity_refstate-crust.xmf,389,4.26891e-07,8.48332e-07,0,7.12239e-07,-4.2441e+08,-4.24381e+08,-4.24439e+08,48859.6,-0.00540708,0.15347,-0,0.153565,-9227.44,-15454.1,-0,17999.3,48859.6
step02_gravity_refstate-crust.xmf,390,2.35577e-06,-6.53858e-07,0,2.73968e-06,-1.00447e+09,-1.00467e+09,-1.00463e+09,187942,-0.0145626,0.149072,-0,0.149781,-4681.26,-36577.1,-0,36875.4,187942
step02_gravity_refstate-crust.xmf,391,5.94577e-07,1.02292e-06,0,9.90091e-07,-5.86212e+08,-5.86183e+08,-5.86253e+08,67920.2,-0.0072633,0.148671,-0,0.148849,-8604.18,-21345.6,-0,23014.5,67920.2
step02_gravity_refstate-crust.xmf,392,5.14001e-07,8.81525e-07,0,7.55155e-07,-4.82194e+08,-4.82169e+08,-4.82229e+08,51803.6,-0.00559773,0.15271,-0,0.152812,-8304.07,-17558.2,-0,19422.9,51803.6
step02_gravity_refstate-crust.xmf,393,9.15797e-07,9.1254e-07,0,1.25544e-06,-7.20279e+08,-7.20279e+08,-7.20341e+08,86123.3,-0.00885045,0.14624,-0,0.146507,-7157.28,-26227.6,-0,27186.6,86123.3
step02_gravity_refstate-crust.xmf,394,1.28706e-06,6.73968e-07,0,1.9057e-06,-8.65639e+08,-8.65681e+08,-8.65727e+08,130731,-0.0122692,0.143186,-0,0.143711,-6596.08,-31520.7,-0,32203.4,130731
step02_gravity_refstate-crust.xmf,395,1.82949e-06,3.03851e-08,0,2.06424e-06,-9.26267e+08,-9.2639e+08,-9.26392e+08,141607,-0.0122278,0.146596,-0,0.147105,-5167.29,-33729.1,-0,34122.6,141607
step02_gravity_refstate-crust.xmf,396,1.54488e-06,3.76026e-07,0,2.00519e-06,-8.98293e+08,-8.98373e+08,-8.98399e+08,137556,-0.0123808,0.144684,-0,0.145212,-5868.18,-32710.1,-0,33232.3,137556
step02_gravity_refstate-crust.xmf,397,1.32763e-06,5.99541e-07,0,1.60314e-06,-8.32204e+08,-8.32254e+08,-8.32295e+08,109975,-0.01047,0.145467,-0,0.145843,-6021.87,-30303.5,-0,30896,109975
step02_gravity_refstate-crust.xmf,398,1.1018e-06,7.4794e-07,0,1.29044e-06,-7.58493e+08,-7.58517e+08,-7.58568e+08,88524.2,-0.00887482,0.146704,-0,0.146972,-6298.88,-27619.3,-0,28328.5,88524.2
step02_gravity_refstate-crust.xmf,399,4.34491e-07,4.77979e-07,0,3.98875e-07,-2.5377e+08,-2.53767e+08,-2.538e+08,27362.8,-0.00392932,0.159133,-0,0.159181,-7673.39,-9241.24,-0,12011.7,27362.8
step02_gravity_refstate-crust.xmf,400,7.44153e-07,-2.80339e-07,0,6.74855e-09,70775.9,495.739,19727,462.95,-0.00639706,0.160538,-0,0.160666,-7504.6,0,-0,7504.6,462.95
step02_gravity_refstate-crust.xmf,401,2.76575e-06,-1.20342e-06,0,2.85627e-06,-1.02974e+09,-1.03001e+09,-1.02993e+09,195940,-0.0144246,0.152218,-0,0.152899,-4126.13,-37498.1,-0,37724.4,195940
step02_gravity_refstate-crust.xmf,402,3.67901e-06,-2.46981e-06,0,3.14084e-06,-1.07799e+09,-1.07841e+09,-1.07824e+09,215461,-0.0143338,0.159164,-0,0.159808,-3264.94,-39256.4,-0,39391.9,215461
step02_gravity_refstate-crust.xmf,403,3.22809e-06,-1.83885e-06,0,2.97165e-06,-1.05438e+09,-1.05472e+09,-1.0546e+09,203855,-0.014228,0.155735,-0,0.156383,-3620.99,-38395.9,-0,38566.2,203855
step02_gravity_refstate-crust.xmf,404,2.13744e-06,-3.54876e-07,0,2.08779e-06,-9.51324e+08,-9.51495e+08,-9.51471e+08,143222,-0.0118689,0.148774,-0,0.149246,-4506.7,-34642,-0,34933.9,143222
step02_gravity_refstate-crust.xmf,405,2.46403e-06,-7.72028e-07,0,2.1423e-06,-9.77528e+08,-9.7775e+08,-9.77697e+08,146962,-0.0116644,0.150967,-0,0.151417,-3973.78,-35596.7,-0,35817.8,146962
step02_gravity_refstate-crust.xmf,406,7.36608e-07,9.57188e-07,0,1.03039e-06,-6.34621e+08,-6.34605e+08,-6.34671e+08,70685.1,-0.0074614,0.148439,-0,0.148626,-7602.29,-23108.5,-0,24326.8,70685.1
step02_gravity_refstate-crust.xmf,407,6.15078e-07,8.90342e-07,0,8.04287e-07,-5.38684e+08,-5.38666e+08,-5.38727e+08,55174.1,-0.00589145,0.151782,-0,0.151897,-7544.77,-19615.2,-0,21016.2,55174.1
step02_gravity_refstate-crust.xmf,408,9.13286e-07,8.29713e-07,0,1.02933e-06,-6.77323e+08,-6.77329e+08,-6.77386e+08,70612,-0.00731432,0.148814,-0,0.148994,-6450.83,-24663.6,-0,25493.3,70612
step02_gravity_refstate-crust.xmf,409,1.33792e-06,5.12771e-07,0,1.27876e-06,-7.94768e+08,-7.94824e+08,-7.9486e+08,87722.6,-0.00851785,0.147778,-0,0.148023,-5295.87,-28940.5,-0,29421.1,87722.6
step02_gravity_refstate-crust.xmf,410,4.53436e-07,7.07836e-07,0,5.58427e-07,-3.68563e+08,-3.68545e+08,-3.68594e+08,38308.1,-0.00437355,0.156464,-0,0.156525,-7876.5,-13420.8,-0,15561.4,38308.1
step02_gravity_refstate-crust.xmf,411,4.72479e-07,5.72072e-07,0,4.17965e-07,-3.1214e+08,-3.12133e+08,-3.12172e+08,28672.4,-0.00351884,0.15887,-0,0.158909,-6569.82,-11366.6,-0,13128.6,28672.4
step02_gravity_refstate-crust.xmf,412,5.02825e-07,1.80102e-07,0,2.36232e-07,-1.34664e+08,-1.34686e+08,-1.34699e+08,16205.5,-0.00433581,0.160727,-0,0.160785,-7496.41,-4904.9,-0,8958.47,16205.5
step02_gravity_refstate-crust.xmf,413,4.90275e-07,3.23654e-07,0,2.72699e-07,-1.97379e+08,-1.9739e+08,-1.97412e+08,18707.1,-0.0033462,0.161015,-0,0.161049,-6200.12,-7188.26,-0,9492.76,18707.1
step02_gravity_refstate-crust.xmf,414,6.40249e-07,-4.13854e-08,0,1.1903e-07,-6.88373e+07,-6.88841e+07,-6.88812e+07,8165.46,-0.00417799,0.161836,-0,0.16189,-6004.58,-2508.62,-0,6507.54,8165.46
step02_gravity_refstate-crust.xmf,415,5.33052e-07,7.42599e-07,0,5.75192e-07,-4.28521e+08,-4.28507e+08,-4.28558e+08,39458.2,-0.00431242,0.15581,-0,0.15587,-6869.9,-15604,-0,17049.4,39458.2
step02_gravity_refstate-crust.xmf,416,2.84158e-06,-1.26311e-06,0,2.19899e-06,-1.00427e+09,-1.00455e+09,-1.00447e+09,150851,-0.0114276,0.153532,-0,0.153956,-3477.45,-36571,-0,36736,150851
step02_gravity_refstate-crust.xmf,417,7.3717e-07,8.54001e-07,0,8.30623e-07,-5.87932e+08,-5.87924e+08,-5.87983e+08,56980.7,-0.00602119,0.151254,-0,0.151374,-6696.4,-21408.6,-0,22431.4,56980.7
step02_gravity_refstate-crust.xmf,418,6.27e-07,7.65599e-07,0,6.06299e-07,-4.88925e+08,-4.88915e+08,-4.88968e+08,41592.1,-0.00444876,0.154791,-0,0.154855,-6160.49,-17803.5,-0,18839.2,41592.1
step02_gravity_refstate-crust.xmf,419,1.09739e-06,6.79792e-07,0,1.02678e-06,-7.17921e+08,-7.17949e+08,-7.17996e+08,70437.3,-0.00714017,0.149131,-0,0.149302,-5506.57,-26142.1,-0,26715.8,70437.3
step02_gravity_refstate-crust.xmf,420,1.58613e-06,2.92251e-07,0,1.62332e-06,-8.64475e+08,-8.64564e+08,-8.64584e+08,111360,-0.0102335,0.146907,-0,0.147263,-5204.19,-31478.9,-0,31906.2,111360
step02_gravity_refstate-crust.xmf,421,2.18279e-06,-4.14574e-07,0,1.62304e-06,-9.25113e+08,-9.25291e+08,-9.25262e+08,111341,-0.00942682,0.150396,-0,0.150691,-3789.72,-33687.8,-0,33900.3,111341
step02_gravity_refstate-crust.xmf,422,1.87931e-06,-4.72556e-08,0,1.6426e-06,-8.97015e+08,-8.97147e+08,-8.97144e+08,112682,-0.00993368,0.148546,-0,0.148878,-4462.33,-32664.2,-0,32967.6,112682
step02_gravity_refstate-crust.xmf,423,1.57824e-06,2.79618e-07,0,1.28358e-06,-8.30103e+08,-8.30192e+08,-8.30211e+08,88053.4,-0.00823451,0.148735,-0,0.148963,-4520.89,-30227.5,-0,30563.7,88053.4
step02_gravity_refstate-crust.xmf,424,1.30516e-06,4.9127e-07,0,1.00596e-06,-7.57007e+08,-7.57063e+08,-7.57097e+08,69008.8,-0.00681317,0.149634,-0,0.149789,-4611.24,-27565.7,-0,27948.7,69008.8
step02_gravity_refstate-crust.xmf,425,4.9497e-07,4.32908e-07,0,2.86211e-07,-2.54376e+08,-2.5438e+08,-2.5441e+08,19634.1,-0.00280024,0.160797,-0,0.160821,-5248.06,-9263.48,-0,10646.8,19634.1
step02_gravity_refstate-crust.xmf,426,8.52588e-07,-3.2132e-07,0,5.88117e-09,81083.5,553.362,22595.9,403.449,-0.00400115,0.162108,-0,0.162157,-4497.88,0,-0,4497.88,403.449
step02_gravity_refstate-crust.xmf,427,4.21469e-06,-3.10976e-06,0,2.509e-06,-1.08212e+09,-1.08262e+09,-1.08241e+09,172117,-0.0112071,0.163161,-0,0.163545,-2416.72,-39408,-0,39482,172117
step02_gravity_refstate-crust.xmf,428,3.32385e-06,-1.89686e-06,0,2.19699e-06,-1.0316e+09,-1.03196e+09,-1.03183e+09,150713,-0.0108343,0.1569,-0,0.157274,-2917.44,-37566.9,-0,37680,150713
step02_gravity_refstate-crust.xmf,429,3.9005e-06,-2.65664e-06,0,2.14309e-06,-1.05832e+09,-1.05877e+09,-1.05859e+09,147016,-0.0100085,0.16081,-0,0.161122,-2379.22,-38541,-0,38614.4,147016
step02_gravity_refstate-crust.xmf,430,2.48722e-06,-7.93282e-07,0,1.59752e-06,-9.51068e+08,-9.51293e+08,-9.51239e+08,109590,-0.00892255,0.15227,-0,0.152531,-3236.39,-34633.4,-0,34784.3,109590
step02_gravity_refstate-crust.xmf,431,2.82053e-06,-1.21294e-06,0,1.58618e-06,-9.77386e+08,-9.77662e+08,-9.77579e+08,108812,-0.00849976,0.154291,-0,0.154525,-2777.87,-35592.2,-0,35700.5,108812
step02_gravity_refstate-crust.xmf,432,8.87377e-07,7.68988e-07,0,8.25019e-07,-6.3296e+08,-6.32968e+08,-6.33021e+08,56596.3,-0.00589966,0.151133,-0,0.151248,-5712.18,-23048.3,-0,23745.6,56596.3
step02_gravity_refstate-crust.xmf,433,7.27984e-07,7.64163e-07,0,6.39243e-07,-5.42328e+08,-5.42326e+08,-5.42378e+08,43852.1,-0.00464345,0.153802,-0,0.153872,-5618.93,-19748.1,-0,20531.9,43852.1
step02_gravity_refstate-crust.xmf,434,1.06066e-06,6.44204e-07,0,7.94384e-07,-6.75996e+08,-6.76024e+08,-6.76068e+08,54494.7,-0.0055819,0.151213,-0,0.151316,-4717.7,-24615.6,-0,25063.6,54494.7
step02_gravity_refstate-crust.xmf,435,1.53339e-06,2.66998e-07,0,9.64143e-07,-7.94421e+08,-7.94508e+08,-7.94527e+08,66140.2,-0.00633648,0.150313,-0,0.150447,-3780.94,-28928.3,-0,29174.4,66140.2
step02_gravity_refstate-crust.xmf,436,5.3512e-07,6.36326e-07,0,4.17836e-07,-3.73517e+08,-3.7351e+08,-3.73554e+08,28663.5,-0.00321988,0.158305,-0,0.158338,-5487.59,-13601.4,-0,14666.7,28663.5
step02_gravity_refstate-crust.xmf,437,5.30358e-07,5.27094e-07,0,2.85548e-07,-3.16398e+08,-3.16399e+08,-3.16435e+08,19588.6,-0.00236675,0.160248,-0,0.160265,-4250.04,-11521.8,-0,12280.6,19588.6
step02_gravity_refstate-crust.xmf,438,5.7236e-07,1.53359e-07,0,1.52408e-07,-1.37444e+08,-1.37473e+08,-1.37483e+08,10455.2,-0.00275412,0.162412,-0,0.162435,-4592.33,-5006.34,-0,6793.6,10455.2
step02_gravity_refstate-crust.xmf,439,5.43051e-07,3.12757e-07,0,1.52959e-07,-2.07344e+08,-2.0736e+08,-2.07381e+08,10493,-0.00180634,0.16235,-0,0.16236,-3259.81,-7551.24,-0,8224.81,10493
step02_gravity_refstate-crust.xmf,440,7.05556e-07,-6.73982e-08,0,6.58781e-08,-6.92145e+07,-6.92676e+07,-6.92629e+07,4519.24,-0.00217892,0.163099,-0,0.163114,-3038.44,-2522.57,-0,3949.11,4519.24
step02_gravity_refstate-crust.xmf,441,6.37026e-07,6.60589e-07,0,3.89299e-07,-4.4091e+08,-4.40908e+08,-4.40954e+08,26705.9,-0.00289474,0.157493,-0,0.15752,-4293.81,-16055.4,-0,16619.6,26705.9
step02_gravity_refstate-crust.xmf,442,3.22126e-06,-1.72774e-06,0,1.52115e-06,-1.00388e+09,-1.00422e+09,-1.0041e+09,104351,-0.00779391,0.156828,-0,0.157021,-2282.7,-36557.5,-0,36628.7,104351
step02_gravity_refstate-crust.xmf,443,8.52964e-07,7.17296e-07,0,6.35384e-07,-5.88823e+08,-5.88832e+08,-5.88882e+08,43587.3,-0.00456537,0.153274,-0,0.153342,-4849.75,-21441.3,-0,21982.9,43587.3
step02_gravity_refstate-crust.xmf,444,7.31258e-07,6.80805e-07,0,4.38734e-07,-5.05187e+08,-5.0519e+08,-5.05237e+08,30097.1,-0.00318144,0.156039,-0,0.156072,-4088.28,-18395.8,-0,18844.7,30097.1
step02_gravity_refstate-crust.xmf,445,1.25376e-06,4.86457e-07,0,7.48668e-07,-7.18122e+08,-7.18175e+08,-7.18208e+08,51358.7,-0.00514892,0.151372,-0,0.15146,-3809.25,-26149.8,-0,26425.8,51358.7
step02_gravity_refstate-crust.xmf,446,1.84853e-06,-3.75273e-08,0,1.25143e-06,-8.63903e+08,-8.64033e+08,-8.6403e+08,85848.1,-0.00776368,0.149981,-0,0.150182,-3774.12,-31458.7,-0,31684.3,85848.1
step02_gravity_refstate-crust.xmf,447,2.4477e-06,-7.47766e-07,0,1.11654e-06,-9.25531e+08,-9.25751e+08,-9.25699e+08,76594.7,-0.00640204,0.15308,-0,0.153214,-2478.68,-33703.6,-0,33794.7,76594.7
step02_gravity_refstate-crust.xmf,448,2.14975e-06,-3.86922e-07,0,1.18904e-06,-8.96175e+08,-8.96349e+08,-8.96322e+08,81568.2,-0.00707841,0.151509,-0,0.151675,-3055.36,-32634.2,-0,32777,81568.2
step02_gravity_refstate-crust.xmf,449,1.78252e-06,2.21252e-08,0,9.09585e-07,-8.30556e+08,-8.30676e+08,-8.30678e+08,62397.6,-0.00574537,0.151149,-0,0.151258,-3033.4,-30244.5,-0,30396.2,62397.6
step02_gravity_refstate-crust.xmf,450,1.46149e-06,2.98e-07,0,6.7857e-07,-7.57621e+08,-7.57701e+08,-7.57722e+08,46549.9,-0.0045481,0.151684,-0,0.151752,-2966.39,-27588.3,-0,27747.4,46549.9
step02_gravity_refstate-crust.xmf,451,5.29723e-07,4.30292e-07,0,1.96251e-07,-2.66243e+08,-2.66249e+08,-2.66279e+08,13462.9,-0.00182575,0.16152,-0,0.161531,-3344.05,-9695.64,-0,10256.1,13462.9
step02_gravity_refstate-crust.xmf,452,9.08225e-07,-3.42329e-07,0,4.58085e-09,86373,584.974,24068.7,314.246,-0.00136155,0.162917,-0,0.162923,-1498.97,0,-0,1498.97,314.246
step02_gravity_refstate-crust.xmf,453,4.52383e-06,-3.48173e-06,0,1.61469e-06,-1.07771e+09,-1.07826e+09,-1.07802e+09,110768,-0.00717922,0.165328,-0,0.165483,-1534.47,-39248,-0,39278,110768
step02_gravity_refstate-crust.xmf,454,3.70314e-06,-2.35331e-06,0,1.32371e-06,-1.02979e+09,-1.03021e+09,-1.03005e+09,90806.4,-0.00646822,0.159982,-0,0.160113,-1691.08,-37501.9,-0,37540,90806.4
step02_gravity_refstate-crust.xmf,455,2.73271e-06,-1.09222e-06,0,1.09676e-06,-9.52361e+08,-9.52623e+08,-9.52548e+08,75237.5,-0.00606412,0.154536,-0,0.154655,-2128.16,-34681,-0,34746.2,75237.5
step02_gravity_refstate-crust.xmf,456,3.05728e-06,-1.49915e-06,0,9.62512e-07,-9.76774e+08,-9.77086e+08,-9.76984e+08,66028.3,-0.00512528,0.156429,-0,0.156513,-1634.68,-35570.5,-0,35608,66028.3
step02_gravity_refstate-crust.xmf,457,1.00541e-06,6.25481e-07,0,5.86431e-07,-6.32892e+08,-6.32919e+08,-6.32961e+08,40229.2,-0.00415991,0.153078,-0,0.153134,-3874.54,-23046.1,-0,23369.5,40229.2
step02_gravity_refstate-crust.xmf,458,8.18706e-07,6.80272e-07,0,4.74473e-07,-5.50958e+08,-5.50967e+08,-5.51014e+08,32548.9,-0.00342083,0.155008,-0,0.155046,-3929.93,-20062.5,-0,20443.8,32548.9
step02_gravity_refstate-crust.xmf,459,7.34068e-07,6.35098e-07,0,2.62554e-07,-4.80941e+08,-4.80948e+08,-4.80992e+08,18011.2,-0.00188924,0.157459,-0,0.15747,-2520.27,-17513.1,-0,17693.5,18011.2
step02_gravity_refstate-crust.xmf,460,1.17746e-06,5.02804e-07,0,5.18199e-07,-6.76757e+08,-6.76803e+08,-6.76838e+08,35548.5,-0.00361669,0.152923,-0,0.152966,-2952.84,-24643.6,-0,24819.8,35548.5
step02_gravity_refstate-crust.xmf,461,1.6848e-06,8.09961e-08,0,5.90327e-07,-7.95767e+08,-7.95877e+08,-7.95882e+08,40496.4,-0.00384849,0.152104,-0,0.152152,-2221.93,-28977.6,-0,29062.7,40496.4
step02_gravity_refstate-crust.xmf,462,5.93543e-07,5.8263e-07,0,2.48976e-07,-3.77217e+08,-3.77218e+08,-3.77258e+08,17079.8,-0.00189935,0.159537,-0,0.159548,-3119.78,-13736.3,-0,14086.1,17079.8
step02_gravity_refstate-crust.xmf,463,5.63348e-07,4.87114e-07,0,1.162e-07,-3.14897e+08,-3.14902e+08,-3.14936e+08,7971.35,-0.000983361,0.161181,-0,0.161184,-1730.92,-11467.2,-0,11597.1,7971.35
step02_gravity_refstate-crust.xmf,464,5.48016e-07,3.90333e-07,0,8.69501e-08,-2.52607e+08,-2.52618e+08,-2.52645e+08,5964.78,-0.000850173,0.16222,-0,0.162222,-1541.45,-9199.25,-0,9327.5,5964.78
step02_gravity_refstate-crust.xmf,465,6.12372e-07,1.34278e-07,0,5.22611e-08,-1.37527e+08,-1.3756e+08,-1.37569e+08,3585.11,-0.000999856,0.163338,-0,0.163341,-1630.62,-5009.51,-0,5268.22,3585.11
step02_gravity_refstate-crust.xmf,466,7.2508e-07,-7.18729e-08,0,7.12251e-09,-7.09433e+07,-7.0998e+07,-7.09931e+07,488.604,-5.80723e-05,0.163548,-0,0.163548,-80.5328,-2585.59,-0,2586.84,488.604
step02_gravity_refstate-crust.xmf,467,4.21312e-06,-3.0273e-06,0,8.94648e-07,-1.05301e+09,-1.05351e+09,-1.0533e+09,61372.9,-0.00416802,0.163424,-0,0.163477,-979.295,-38348.3,-0,38360.8,61372.9
step02_gravity_refstate-crust.xmf,468,3.45404e-06,-2.00721e-06,0,7.4681e-07,-1.00336e+09,-1.00373e+09,-1.00359e+09,51231.2,-0.00381716,0.158801,-0,0.158847,-1094.24,-36539.1,-0,36555.5,51231.2
step02_gravity_refstate-crust.xmf,469,2.58732e-06,-9.0907e-07,0,7.00984e-07,-9.26817e+08,-9.27057e+08,-9.26994e+08,48087.5,-0.00398214,0.154426,-0,0.154477,-1509.07,-33750.8,-0,33784.5,48087.5
step02_gravity_refstate-crust.xmf,470,9.35734e-07,6.18111e-07,0,3.99692e-07,-5.87772e+08,-5.87793e+08,-5.87836e+08,27418.8,-0.00286269,0.154775,-0,0.154802,-2958.38,-21403.2,-0,21606.6,27418.8
step02_gravity_refstate-crust.xmf,471,6.75619e-07,6.03937e-07,0,1.73152e-07,-4.33913e+08,-4.33918e+08,-4.3396e+08,11878.2,-0.00128832,0.158733,-0,0.158738,-1891.02,-15800.7,-0,15913.5,11878.2
step02_gravity_refstate-crust.xmf,472,8.40394e-07,6.22696e-07,0,2.56543e-07,-5.33173e+08,-5.33188e+08,-5.3323e+08,17598.8,-0.00181888,0.156412,-0,0.156423,-2137.78,-19415,-0,19532.4,17598.8
step02_gravity_refstate-crust.xmf,473,1.36515e-06,3.52028e-07,0,4.23543e-07,-7.19124e+08,-7.19193e+08,-7.19217e+08,29055,-0.00289931,0.152861,-0,0.152889,-2082.76,-26186.5,-0,26269.2,29055
step02_gravity_refstate-crust.xmf,474,2.04966e-06,-2.84702e-07,0,8.01501e-07,-8.64145e+08,-8.64305e+08,-8.64286e+08,54982.9,-0.00493027,0.152207,-0,0.152287,-2317.91,-31467.9,-0,31553.2,54982.9
step02_gravity_refstate-crust.xmf,475,2.36678e-06,-6.41678e-07,0,6.34284e-07,-8.98723e+08,-8.9893e+08,-8.98886e+08,43511.9,-0.00375521,0.153584,-0,0.15363,-1563.1,-32727.5,-0,32764.8,43511.9
step02_gravity_refstate-crust.xmf,476,1.91279e-06,-1.43514e-07,0,4.85642e-07,-8.30609e+08,-8.3075e+08,-8.3074e+08,33315,-0.00303871,0.152654,-0,0.152684,-1567.66,-30246.7,-0,30287.3,33315
step02_gravity_refstate-crust.xmf,477,1.56643e-06,1.73011e-07,0,2.9989e-07,-7.59938e+08,-7.60033e+08,-7.60045e+08,20572.5,-0.00200051,0.152896,-0,0.152909,-1269.75,-27672.9,-0,27702,20572.5
step02_gravity_refstate-crust.xmf,478,5.65312e-07,2.88096e-07,0,3.4612e-09,-2.01581e+08,-2.016e+08,-2.0162e+08,237.438,-8.73485e-05,0.162981,-0,0.162981,-156.284,-7341.48,-0,7343.14,237.438
step02_gravity_refstate-crust.xmf,479,9.07127e-07,-3.42152e-07,0,2.56054e-09,86258.4,557.87,24029.5,175.653,0.00136223,0.162917,0,0.162923,1498.97,0,0,1498.97,175.653
step02_gravity_refstate-crust.xmf,480,4.72895e-06,-3.72958e-06,0,5.17117e-07,-1.07615e+09,-1.07673e+09,-1.07648e+09,35474.2,-0.00232612,0.166778,-0,0.166794,-492.113,-39191.8,-0,39194.9,35474.2
step02_gravity_refstate-crust.xmf,481,3.87572e-06,-2.55898e-06,0,3.87181e-07,-1.02859e+09,-1.02903e+09,-1.02886e+09,26560.6,-0.00191096,0.161402,-0,0.161414,-493.568,-37458.7,-0,37461.9,26560.6
step02_gravity_refstate-crust.xmf,482,2.85556e-06,-1.23717e-06,0,5.34839e-07,-9.50281e+08,-9.50562e+08,-9.50477e+08,36690,-0.00296437,0.155779,-0,0.155807,-1030.48,-34605.6,-0,34620.9,36690
step02_gravity_refstate-crust.xmf,483,3.16564e-06,-1.62726e-06,0,2.85909e-07,-9.75578e+08,-9.75907e+08,-9.75795e+08,19613.4,-0.00154297,0.157428,-0,0.157436,-487.935,-35527.2,-0,35530.5,19613.4
step02_gravity_refstate-crust.xmf,484,1.08712e-06,5.29124e-07,0,3.16128e-07,-6.33983e+08,-6.34021e+08,-6.34057e+08,21686.4,-0.00223857,0.154301,-0,0.154317,-2029,-23086,-0,23175,21686.4
step02_gravity_refstate-crust.xmf,485,7.69099e-07,6.09133e-07,0,9.09975e-08,-4.87185e+08,-4.87196e+08,-4.87237e+08,6242.43,-0.000642904,0.157774,-0,0.157775,-837.143,-17740.5,-0,17760.2,6242.43
step02_gravity_refstate-crust.xmf,486,1.24658e-06,4.21679e-07,0,2.09277e-07,-6.77818e+08,-6.77874e+08,-6.77903e+08,14356.4,-0.00146688,0.153871,-0,0.153878,-1173.15,-24682.3,-0,24710.2,14356.4
step02_gravity_refstate-crust.xmf,487,1.76686e-06,-2.00966e-08,0,1.86428e-07,-7.97795e+08,-7.97918e+08,-7.97916e+08,12789,-0.00122531,0.152985,-0,0.15299,-693.165,-29051.6,-0,29059.9,12789
step02_gravity_refstate-crust.xmf,488,2.6206e-06,-9.52889e-07,0,2.58839e-07,-9.22236e+08,-9.22481e+08,-9.22416e+08,17756.4,-0.00144634,0.154942,-0,0.154948,-551.98,-33584.1,-0,33588.6,17756.4
step02_gravity_refstate-crust.xmf,489,6.2226e-07,5.58886e-07,0,7.0936e-08,-3.80733e+08,-3.80737e+08,-3.80775e+08,4866.21,-0.000530615,0.160061,-0,0.160062,-854.141,-13864.3,-0,13890.6,4866.21
step02_gravity_refstate-crust.xmf,490,5.56632e-07,4.19997e-07,0,-4.45062e-08,-2.72972e+08,-2.72981e+08,-2.7301e+08,-3053.12,0.000434999,0.16202,0,0.16202,783.795,-9940.71,0,9971.56,3053.12
step02_gravity_refstate-crust.xmf,491,6.13451e-07,1.35822e-07,0,-5.2168e-08,-1.38172e+08,-1.38204e+08,-1.38214e+08,-3578.72,0.000803836,0.163383,0,0.163385,1311.38,-5032.97,0,5201.01,3578.72
step02_gravity_refstate-crust.xmf,492,7.02596e-07,-6.14289e-08,0,-5.3832e-08,-7.18555e+07,-7.19079e+07,-7.19037e+07,-3692.88,0.00205326,0.16315,0,0.163163,2882.1,-2618.72,0,3894.12,3692.88
step02_gravity_refstate-crust.xmf,493,4.29778e-06,-3.1283e-06,0,-7.22783e-08,-1.05274e+09,-1.05325e+09,-1.05304e+09,-4958.29,0.000284994,0.164042,0,0.164042,66.5437,-38338.6,0,38338.7,4958.29
step02_gravity_refstate-crust.xmf,494,3.5204e-06,-2.08186e-06,0,-6.70093e-08,-1.00291e+09,-1.00329e+09,-1.00315e+09,-4596.84,0.000291676,0.159372,0,0.159373,83.1797,-36522.8,0,36522.9,4596.84
step02_gravity_refstate-crust.xmf,495,9.8685e-07,5.60881e-07,0,1.32922e-07,-5.89118e+08,-5.89147e+08,-5.89186e+08,9118.48,-0.000956898,0.155547,-0,0.15555,-969.341,-21452.3,-0,21474.2,9118.48
step02_gravity_refstate-crust.xmf,496,6.91982e-07,5.93268e-07,0,-2.17162e-08,-4.37205e+08,-4.37212e+08,-4.37253e+08,-1489.73,0.000145959,0.158921,0,0.158921,211.552,-15920.6,0,15922,1489.73
step02_gravity_refstate-crust.xmf,497,8.75283e-07,5.92403e-07,0,-5.19143e-09,-5.39266e+08,-5.39285e+08,-5.39326e+08,-356.132,4.96388e-05,0.156691,0,0.156691,57.042,-19637,0,19637,356.132
step02_gravity_refstate-crust.xmf,498,1.41975e-06,2.91881e-07,0,6.73219e-08,-7.21e+08,-7.21078e+08,-7.21098e+08,4618.28,-0.000484705,0.15348,-0,0.153481,-342.71,-26254.9,-0,26257.2,4618.28
step02_gravity_refstate-crust.xmf,499,2.15418e-06,-4.10388e-07,0,3.21911e-07,-8.6332e+08,-8.63496e+08,-8.63468e+08,22083.1,-0.0019893,0.153365,-0,0.153378,-921.643,-31438.1,-0,31451.6,22083.1
step02_gravity_refstate-crust.xmf,500,1.96157e-06,-2.08515e-07,0,4.98421e-08,-8.30796e+08,-8.30944e+08,-8.3093e+08,3419.17,-0.000305441,0.153209,-0,0.153209,-156.028,-30253.6,-0,30254,3419.17
step02_gravity_refstate-crust.xmf,501,1.61152e-06,1.19497e-07,0,-1.2745e-07,-7.65869e+08,-7.65972e+08,-7.6598e+08,-8743.1,0.000851204,0.153098,0,0.1531,528.997,-27888.9,0,27894,8743.1
step02_gravity_refstate-crust.xmf,502,2.39018e-06,-6.7429e-07,0,4.29805e-08,-8.93001e+08,-8.93211e+08,-8.93165e+08,2948.47,-0.000279637,0.154174,-0,0.154174,-117.437,-32519.2,-0,32519.4,2948.47
step02_gravity_refstate-crust.xmf,503,5.83424e-07,5.11759e-07,0,-2.63456e-08,-3.36449e+08,-3.36454e+08,-3.36489e+08,-1807.31,0.00021845,0.160965,0,0.160965,373.158,-12251.9,0,12257.6,1807.31
step02_gravity_refstate-crust.xmf,504,5.51023e-07,3.04827e-07,0,-1.25244e-07,-2.0519e+08,-2.05207e+08,-2.05228e+08,-8591.74,0.00139865,0.162607,0,0.162613,2506.95,-7472.85,0,7882.15,8591.74
step02_gravity_refstate-crust.xmf,505,8.49135e-07,-3.20585e-07,0,6.42122e-10,80731,488.22,22480.3,44.0496,0.00400148,0.162108,0,0.162157,4497.88,0,0,4497.88,44.0496
step02_gravity_refstate-crust.xmf,506,4.72434e-06,-3.71965e-06,0,-5.99965e-07,-1.0763e+09,-1.07688e+09,-1.07663e+09,-41157.6,0.00258204,0.166754,0,0.166773,546.228,-39197.2,0,39201,41157.6
step02_gravity_refstate-crust.xmf,507,3.86168e-06,-2.53564e-06,0,-5.28483e-07,-1.02862e+09,-1.02906e+09,-1.02888e+09,-36253.9,0.00249672,0.161303,0,0.161323,645.508,-37459.6,0,37465.1,36253.9
step02_gravity_refstate-crust.xmf,508,2.88873e-06,-1.27382e-06,0,-5.59265e-08,-9.49077e+08,-9.49362e+08,-9.49275e+08,-3836.56,0.000271697,0.15613,0,0.15613,94.2889,-34561.8,0,34561.9,3836.56
step02_gravity_refstate-crust.xmf,509,3.15598e-06,-1.60958e-06,0,-4.12538e-07,-9.75627e+08,-9.75954e+08,-9.75843e+08,-28300.1,0.00213266,0.157335,0,0.157349,675.021,-35528.9,0,35535.4,28300.1
step02_gravity_refstate-crust.xmf,510,1.11894e-06,4.92976e-07,0,2.51199e-08,-6.34534e+08,-6.34577e+08,-6.34611e+08,1723.23,-0.000195729,0.154768,-0,0.154768,-175.609,-23106.1,-0,23106.8,1723.23
step02_gravity_refstate-crust.xmf,511,7.74374e-07,6.10807e-07,0,-1.26204e-07,-4.91563e+08,-4.91574e+08,-4.91616e+08,-8657.61,0.000927505,0.157617,0,0.157619,1196.58,-17899.9,0,17939.9,8657.61
step02_gravity_refstate-crust.xmf,512,1.26098e-06,4.09491e-07,0,-1.0773e-07,-6.79155e+08,-6.79213e+08,-6.79241e+08,-7390.27,0.000719715,0.153991,0,0.153993,572.106,-24731.1,0,24737.7,7390.27
step02_gravity_refstate-crust.xmf,513,1.79359e-06,-4.3614e-08,0,-1.56204e-07,-8.02801e+08,-8.02927e+08,-8.02924e+08,-10715.6,0.000987845,0.153027,0,0.15303,550.579,-29234,0,29239.1,10715.6
step02_gravity_refstate-crust.xmf,514,2.61066e-06,-9.42663e-07,0,-2.95413e-07,-9.21277e+08,-9.21521e+08,-9.21457e+08,-20265.3,0.00169646,0.154869,0,0.154879,649.56,-33549.1,0,33555.4,20265.3
step02_gravity_refstate-crust.xmf,515,6.23125e-07,5.64777e-07,0,-1.07118e-07,-3.85317e+08,-3.85321e+08,-3.8536e+08,-7348.32,0.000828925,0.159898,0,0.159901,1326.96,-14031.3,0,14093.9,7348.32
step02_gravity_refstate-crust.xmf,516,5.66224e-07,5.13308e-07,0,-1.67269e-07,-3.28642e+08,-3.28645e+08,-3.2868e+08,-11474.7,0.00137893,0.160759,0,0.160765,2403.32,-11967.6,0,12206.5,11474.7
step02_gravity_refstate-crust.xmf,517,5.28083e-07,4.3896e-07,0,-2.13264e-07,-2.70229e+08,-2.70235e+08,-2.70265e+08,-14629.9,0.00198389,0.161339,0,0.161351,3640.21,-9840.78,0,10492.5,14629.9
step02_gravity_refstate-crust.xmf,518,5.73553e-07,1.56459e-07,0,-1.5458e-07,-1.38666e+08,-1.38694e+08,-1.38705e+08,-10604.2,0.00260677,0.162514,0,0.162535,4344.74,-5050.83,0,6662.4,10604.2
step02_gravity_refstate-crust.xmf,519,6.36208e-07,-3.32918e-08,0,-1.12177e-07,-7.22681e+07,-7.2314e+07,-7.23118e+07,-7695.36,0.00407871,0.161893,0,0.161944,5910.89,-2633.52,0,6471.02,7695.36
step02_gravity_refstate-crust.xmf,520,4.18995e-06,-2.99361e-06,0,-1.09194e-06,-1.05378e+09,-1.05427e+09,-1.05407e+09,-74907,0.00499235,0.163228,0,0.163304,1172.5,-38376.3,0,38394.2,74907
step02_gravity_refstate-crust.xmf,521,3.42079e-06,-1.95271e-06,0,-8.59985e-07,-1.00247e+09,-1.00284e+09,-1.0027e+09,-58995,0.00430683,0.158563,0,0.158621,1241.26,-36506.7,0,36527.8,58995
step02_gravity_refstate-crust.xmf,522,9.88508e-07,5.59736e-07,0,-1.33063e-07,-5.89565e+08,-5.89595e+08,-5.89633e+08,-9128.12,0.000928255,0.155544,0,0.155546,939.244,-21468.6,0,21489.1,9128.12
step02_gravity_refstate-crust.xmf,523,6.79108e-07,6.17175e-07,0,-2.22321e-07,-4.41616e+08,-4.4162e+08,-4.41663e+08,-15251.2,0.0016224,0.158418,0,0.158427,2351.85,-16081.2,0,16252.2,15251.2
step02_gravity_refstate-crust.xmf,524,8.62714e-07,6.15164e-07,0,-2.5782e-07,-5.44039e+08,-5.44056e+08,-5.44098e+08,-17686.4,0.00185635,0.156172,0,0.156183,2123.57,-19810.7,0,19924.2,17686.4
step02_gravity_refstate-crust.xmf,525,1.39683e-06,3.22511e-07,0,-2.87465e-07,-7.20102e+08,-7.20176e+08,-7.20198e+08,-19720.1,0.0019251,0.153221,0,0.153233,1370.58,-26222.2,0,26258,19720.1
step02_gravity_refstate-crust.xmf,526,2.1556e-06,-4.10498e-07,0,-1.79441e-07,-8.61704e+08,-8.6188e+08,-8.61852e+08,-12309.7,0.00106063,0.153498,0,0.153502,493.022,-31379.3,0,31383.2,12309.7
step02_gravity_refstate-crust.xmf,527,1.92683e-06,-1.7303e-07,0,-3.57448e-07,-8.29633e+08,-8.29777e+08,-8.29766e+08,-24520.9,0.00225065,0.1529,0,0.152917,1160.19,-30211.2,0,30233.4,24520.9
step02_gravity_refstate-crust.xmf,528,1.71094e-06,4.44455e-08,0,-4.58039e-07,-7.95118e+08,-7.95233e+08,-7.95236e+08,-31421.5,0.00297326,0.152502,0,0.152531,1708.87,-28954.1,0,29004.5,31421.5
step02_gravity_refstate-crust.xmf,529,2.33856e-06,-6.08544e-07,0,-4.96521e-07,-8.91973e+08,-8.92175e+08,-8.92133e+08,-34061.4,0.00289665,0.153709,0,0.153737,1227.83,-32481.7,0,32504.9,34061.4
step02_gravity_refstate-crust.xmf,530,5.07362e-07,3.39873e-07,0,-2.44873e-07,-2.0985e+08,-2.09861e+08,-2.09884e+08,-16798.3,0.00277235,0.1615,0,0.161524,5111.84,-7642.37,0,9194.38,16798.3
step02_gravity_refstate-crust.xmf,531,7.388e-07,-2.79652e-07,0,-1.37736e-09,70210.2,344.358,19528.5,-94.4868,0.00639708,0.160538,0,0.160666,7504.6,0,0,7504.6,94.4868
step02_gravity_refstate-crust.xmf,532,4.50348e-06,-3.45761e-06,0,-1.67709e-06,-1.07765e+09,-1.0782e+09,-1.07796e+09,-115049,0.00737697,0.165214,0,0.165379,1578.81,-39245.9,0,39277.7,115049
step02_gravity_refstate-crust.xmf,533,3.66385e-06,-2.28222e-06,0,-1.43552e-06,-1.02963e+09,-1.03004e+09,-1.02988e+09,-98476.4,0.00691439,0.159719,0,0.159869,1813.95,-37496.1,0,37539.9,98476.4
step02_gravity_refstate-crust.xmf,534,2.81695e-06,-1.18033e-06,0,-6.84525e-07,-9.48838e+08,-9.49112e+08,-9.49031e+08,-46958.4,0.00371957,0.155471,0,0.155515,1303.36,-34552.9,0,34577.5,46958.4
step02_gravity_refstate-crust.xmf,535,3.00804e-06,-1.42126e-06,0,-1.1122e-06,-9.76018e+08,-9.76322e+08,-9.76225e+08,-76296.6,0.00585243,0.156014,0,0.156124,1880.09,-35542.9,0,35592.6,76296.6
step02_gravity_refstate-crust.xmf,536,1.10165e-06,5.14268e-07,0,-2.57405e-07,-6.35486e+08,-6.35527e+08,-6.35562e+08,-17658,0.00179249,0.154449,0,0.154459,1613.02,-23140.8,0,23196.9,17658
step02_gravity_refstate-crust.xmf,537,7.46398e-07,6.52666e-07,0,-3.40537e-07,-4.96793e+08,-4.96799e+08,-4.96844e+08,-23360.8,0.00248161,0.156767,0,0.156786,3214.45,-18090.3,0,18373.6,23360.8
step02_gravity_refstate-crust.xmf,538,1.50525e-06,2.39419e-07,0,-5.25911e-07,-7.57113e+08,-7.572e+08,-7.57216e+08,-36077.5,0.003514,0.152306,0,0.152347,2271.45,-27569.9,0,27663.3,36077.5
step02_gravity_refstate-crust.xmf,539,1.21278e-06,4.66734e-07,0,-4.01388e-07,-6.77439e+08,-6.7749e+08,-6.77522e+08,-27535.2,0.00276699,0.153399,0,0.153423,2235.07,-24668.5,0,24769.5,27535.2
step02_gravity_refstate-crust.xmf,540,2.49693e-06,-8.05428e-07,0,-8.70709e-07,-9.21224e+08,-9.2145e+08,-9.21395e+08,-59730.6,0.00498653,0.153754,0,0.153835,1938.01,-33546.9,0,33602.9,59730.6
step02_gravity_refstate-crust.xmf,541,5.93672e-07,5.96839e-07,0,-2.8624e-07,-3.86839e+08,-3.86839e+08,-3.8688e+08,-19636,0.00219414,0.159134,0,0.159149,3564.51,-14086.6,0,14530.6,19636
step02_gravity_refstate-crust.xmf,542,5.25292e-07,5.52881e-07,0,-3.29119e-07,-3.29869e+08,-3.29867e+08,-3.29905e+08,-22577.5,0.00269714,0.159677,0,0.1597,4814.22,-12012.2,0,12941,22577.5
step02_gravity_refstate-crust.xmf,543,4.79798e-07,4.83475e-07,0,-3.45544e-07,-2.73688e+08,-2.73688e+08,-2.73721e+08,-23704.3,0.00318743,0.159993,0,0.160024,6025.63,-9966.59,0,11646.5,23704.3
step02_gravity_refstate-crust.xmf,544,4.90457e-07,2.2579e-07,0,-2.57155e-07,-1.53205e+08,-1.53223e+08,-1.53238e+08,-17640.9,0.00410384,0.160718,0,0.16077,7314.11,-5579.91,0,9199.54,17640.9
step02_gravity_refstate-crust.xmf,545,5.33951e-07,7.3583e-09,0,-1.62416e-07,-7.24199e+07,-7.2456e+07,-7.24565e+07,-11141.7,0.00584251,0.159873,0,0.159979,8931.82,-2638.69,0,9313.44,11141.7
step02_gravity_refstate-crust.xmf,546,3.85731e-06,-2.64028e-06,0,-2.15843e-06,-1.05749e+09,-1.05793e+09,-1.05775e+09,-148068,0.0100079,0.160702,0,0.161013,2388.13,-38510.3,0,38584.3,148068
step02_gravity_refstate-crust.xmf,547,3.17203e-06,-1.6384e-06,0,-1.61036e-06,-1.00281e+09,-1.00314e+09,-1.00303e+09,-110471,0.00819311,0.156449,0,0.156663,2418.1,-36518.5,0,36598.5,110471
step02_gravity_refstate-crust.xmf,548,9.50174e-07,6.08635e-07,0,-4.23662e-07,-5.95099e+08,-5.95122e+08,-5.95164e+08,-29063.2,0.00301421,0.154547,0,0.154576,3060.34,-21670,0,21885,29063.2
step02_gravity_refstate-crust.xmf,549,6.33878e-07,6.76054e-07,0,-4.30937e-07,-4.49637e+08,-4.49634e+08,-4.49681e+08,-29562.3,0.00317916,0.157043,0,0.157076,4657.47,-16373.1,0,17022.7,29562.3
step02_gravity_refstate-crust.xmf,550,8.09114e-07,6.87405e-07,0,-5.09161e-07,-5.50845e+08,-5.50853e+08,-5.509e+08,-34928.4,0.00365347,0.154797,0,0.15484,4218.29,-20058.4,0,20497.2,34928.4
step02_gravity_refstate-crust.xmf,551,1.30304e-06,4.32758e-07,0,-6.07599e-07,-7.16467e+08,-7.16527e+08,-7.16557e+08,-41681.3,0.00413208,0.15218,0,0.152237,3028.6,-26089.6,0,26264.8,41681.3
step02_gravity_refstate-crust.xmf,552,2.06982e-06,-3.01934e-07,0,-6.50013e-07,-8.60404e+08,-8.60567e+08,-8.60546e+08,-44590.9,0.00394784,0.152651,0,0.152702,1864.56,-31331.8,0,31387.2,44590.9
step02_gravity_refstate-crust.xmf,553,1.81484e-06,-4.04796e-08,0,-7.5112e-07,-8.26784e+08,-8.26912e+08,-8.26909e+08,-51526.8,0.00476405,0.151775,0,0.15185,2519.5,-30107.2,0,30212.4,51526.8
step02_gravity_refstate-crust.xmf,554,1.58418e-06,1.95303e-07,0,-8.09108e-07,-7.91136e+08,-7.91231e+08,-7.91245e+08,-55504.8,0.00529785,0.15117,0,0.151263,3148.64,-28808.8,0,28980.4,55504.8
step02_gravity_refstate-crust.xmf,555,2.19093e-06,-4.21785e-07,0,-1.01201e-06,-8.9174e+08,-8.9192e+08,-8.91891e+08,-69424.2,0.00598952,0.152192,0,0.152309,2594.77,-32472.9,0,32576.4,69424.2
step02_gravity_refstate-crust.xmf,556,4.52093e-07,4.05773e-07,0,-3.4686e-07,-2.25094e+08,-2.25097e+08,-2.25125e+08,-23794.6,0.00375829,0.159944,0,0.159988,7223.77,-8197.23,0,10926,23794.6
step02_gravity_refstate-crust.xmf,557,5.8446e-07,-2.21978e-07,0,-3.0707e-09,55511,189.343,15417.1,-210.65,0.00840731,0.158303,0,0.158526,10528.1,0,0,10528.1,210.65
step02_gravity_refstate-crust.xmf,558,4.20525e-06,-3.12762e-06,0,-2.53667e-06,-1.08173e+09,-1.08223e+09,-1.08201e+09,-174016,0.0112338,0.163075,0,0.163462,2427.6,-39393.5,0,39468.2,174016
step02_gravity_refstate-crust.xmf,559,3.27543e-06,-1.79219e-06,0,-2.21834e-06,-1.02929e+09,-1.02963e+09,-1.02951e+09,-152178,0.0109129,0.156573,0,0.156952,2970.36,-37482.6,0,37600.2,152178
step02_gravity_refstate-crust.xmf,560,2.61759e-06,-9.27669e-07,0,-1.31195e-06,-9.49083e+08,-9.49327e+08,-9.49263e+08,-89999.8,0.00723274,0.153588,0,0.153758,2594.21,-34561.5,0,34658.7,89999.8
step02_gravity_refstate-crust.xmf,561,2.71803e-06,-1.05799e-06,0,-1.77512e-06,-9.77007e+08,-9.77266e+08,-9.77194e+08,-121773,0.00950177,0.153363,0,0.153657,3144.85,-35578.3,0,35717,121773
step02_gravity_refstate-crust.xmf,562,1.07052e-06,5.63479e-07,0,-4.87077e-07,-6.42595e+08,-6.4263e+08,-6.42668e+08,-33413.5,0.0034118,0.153517,0,0.153555,3058.76,-23399.5,0,23598.6,33413.5
step02_gravity_refstate-crust.xmf,563,7.07323e-07,7.13818e-07,0,-5.11428e-07,-5.06194e+08,-5.06194e+08,-5.06243e+08,-35084,0.00372265,0.155471,0,0.155516,4831.66,-18432.5,0,19055.2,35084
step02_gravity_refstate-crust.xmf,564,1.36803e-06,4.03238e-07,0,-8.52165e-07,-7.53377e+08,-7.53443e+08,-7.53471e+08,-58458.5,0.00574332,0.150732,0,0.150841,3856.83,-27433.6,0,27703.4,58458.5
step02_gravity_refstate-crust.xmf,565,1.11737e-06,5.79831e-07,0,-6.61726e-07,-6.74288e+08,-6.74325e+08,-6.74364e+08,-45394.4,0.00460349,0.152199,0,0.152269,3838.83,-24553.5,0,24851.8,45394.4
step02_gravity_refstate-crust.xmf,566,2.26507e-06,-5.19451e-07,0,-1.42629e-06,-9.21409e+08,-9.216e+08,-9.21564e+08,-97843.8,0.00826067,0.151417,0,0.151643,3311.31,-33553.2,0,33716.2,97843.8
step02_gravity_refstate-crust.xmf,567,5.33112e-07,6.59289e-07,0,-4.60166e-07,-3.87739e+08,-3.8773e+08,-3.87775e+08,-31567.4,0.00353089,0.157648,0,0.157687,5930.74,-14119.2,0,15314.2,31567.4
step02_gravity_refstate-crust.xmf,568,4.60376e-07,6.16785e-07,0,-4.7265e-07,-3.32212e+08,-3.32202e+08,-3.32244e+08,-32423.8,0.00388235,0.157936,0,0.157984,7202.56,-12097.3,0,14079.2,32423.8
step02_gravity_refstate-crust.xmf,569,4.1381e-07,5.37915e-07,0,-4.54685e-07,-2.75215e+08,-2.75206e+08,-2.75243e+08,-31191.4,0.00420954,0.158201,0,0.158257,8309.76,-10022,0,13018.9,31191.4
step02_gravity_refstate-crust.xmf,570,4.00445e-07,5.56545e-08,0,-1.94377e-07,-7.04833e+07,-7.0507e+07,-7.05108e+07,-13334.3,0.007305,0.157198,0,0.157368,11983.5,-2567.72,0,12255.5,13334.3
step02_gravity_refstate-crust.xmf,571,3.90458e-07,4.20282e-07,0,-4.07751e-07,-2.13511e+08,-2.13509e+08,-2.13538e+08,-27971.7,0.00468712,0.158357,0,0.158427,9357.5,-7775.3,0,12166.3,27971.7
step02_gravity_refstate-crust.xmf,572,3.92254e-07,2.52488e-07,0,-3.22985e-07,-1.43155e+08,-1.43164e+08,-1.43181e+08,-22156.8,0.00559814,0.158186,0,0.158285,10498.5,-5213.66,0,11721.8,22156.8
step02_gravity_refstate-crust.xmf,573,3.65514e-06,-2.43868e-06,0,-3.13582e-06,-1.07675e+09,-1.07716e+09,-1.077e+09,-215118,0.0142932,0.159015,0,0.159656,3273.63,-39211,0,39347.4,215118
step02_gravity_refstate-crust.xmf,574,3.21981e-06,-1.82639e-06,0,-2.89507e-06,-1.05137e+09,-1.05171e+09,-1.05159e+09,-198602,0.0139337,0.155718,0,0.15634,3579.71,-38286.2,0,38453.2,198602
step02_gravity_refstate-crust.xmf,575,2.78401e-06,-1.15194e-06,0,-2.27367e-06,-1.00371e+09,-1.00398e+09,-1.0039e+09,-155974,0.0118049,0.153032,0,0.153486,3620.37,-36550.7,0,36729.5,155974
step02_gravity_refstate-crust.xmf,576,9.59562e-07,6.72435e-07,0,-6.75302e-07,-6.30662e+08,-6.30682e+08,-6.30728e+08,-46325.7,0.0047932,0.1525,0,0.152576,4546.53,-22964.8,0,23410.5,46325.7
step02_gravity_refstate-crust.xmf,577,6.21427e-07,7.6978e-07,0,-5.97349e-07,-4.84786e+08,-4.84776e+08,-4.84829e+08,-40978.2,0.00439499,0.154929,0,0.154991,6137.77,-17652.8,0,18689.4,40978.2
step02_gravity_refstate-crust.xmf,578,6.86131e-07,8.00781e-07,0,-6.89513e-07,-5.35441e+08,-5.35433e+08,-5.35488e+08,-47300.6,0.00501689,0.15335,0,0.153432,6260.95,-19497.3,0,20477.9,47300.6
step02_gravity_refstate-crust.xmf,579,8.23092e-07,7.4595e-07,0,-6.85259e-07,-5.8713e+08,-5.87135e+08,-5.87186e+08,-47008.8,0.00492584,0.152868,0,0.152947,5304.83,-21379.5,0,22027.8,47008.8
step02_gravity_refstate-crust.xmf,580,1.16328e-06,6.00278e-07,0,-8.8695e-07,-7.12969e+08,-7.13008e+08,-7.13049e+08,-60844.8,0.00611771,0.150422,0,0.150546,4678.57,-25962,0,26380.2,60844.8
step02_gravity_refstate-crust.xmf,581,1.90104e-06,-8.93766e-08,0,-1.09262e-06,-8.59504e+08,-8.5964e+08,-8.59634e+08,-74954,0.00673341,0.150835,0,0.150985,3274.9,-31298.6,0,31469.5,74954
step02_gravity_refstate-crust.xmf,582,1.63436e-06,1.80024e-07,0,-1.1249e-06,-8.24474e+08,-8.24574e+08,-8.24586e+08,-77167.9,0.00722491,0.149764,0,0.149938,3969.96,-30022.7,0,30284,77167.9
step02_gravity_refstate-crust.xmf,583,1.39916e-06,4.21428e-07,0,-1.1354e-06,-7.88313e+08,-7.8838e+08,-7.88409e+08,-77888.2,0.00753913,0.148983,0,0.149174,4685.46,-28705.6,0,29085.5,77888.2
step02_gravity_refstate-crust.xmf,584,1.94821e-06,-1.1449e-07,0,-1.48574e-06,-8.92183e+08,-8.92324e+08,-8.92316e+08,-101922,0.00893986,0.149571,0,0.149838,4014.86,-32488.5,0,32735.6,101922
step02_gravity_refstate-crust.xmf,585,3.96109e-07,-1.51249e-07,0,-4.32302e-09,37587.5,38.697,10414.4,-296.559,0.0099139,0.15553,0,0.155846,13577.4,0,0,13577.4,296.559
step02_gravity_refstate-crust.xmf,586,5.37505e-07,7.65179e-07,0,-6.01986e-07,-4.40625e+08,-4.40609e+08,-4.40662e+08,-41296.3,0.00449907,0.155328,0,0.155393,7027.34,-16044.7,0,17516.2,41296.3
step02_gravity_refstate-crust.xmf,587,2.73544e-06,-1.11357e-06,0,-2.85811e-06,-1.0284e+09,-1.02867e+09,-1.02859e+09,-196066,0.0144676,0.151986,0,0.152673,4167.26,-37449.3,0,37680.5,196066
step02_gravity_refstate-crust.xmf,588,2.34039e-06,-5.91807e-07,0,-2.33765e-06,-9.80234e+08,-9.80436e+08,-9.80395e+08,-160362,0.0127505,0.14967,0,0.150213,4381.08,-35695,0,35962.8,160362
step02_gravity_refstate-crust.xmf,589,2.28242e-06,-5.08663e-07,0,-1.89723e-06,-9.50015e+08,-9.50206e+08,-9.50171e+08,-130150,0.0106777,0.150294,0,0.150673,3987.64,-34594.7,0,34823.8,130150
step02_gravity_refstate-crust.xmf,590,1.18358e-06,6.28473e-07,0,-1.13455e-06,-7.50359e+08,-7.50397e+08,-7.5044e+08,-77830.2,0.00776126,0.148387,0,0.14859,5481.96,-27323.3,0,27867.8,77830.2
step02_gravity_refstate-crust.xmf,591,9.8311e-07,7.40331e-07,0,-8.95497e-07,-6.70815e+08,-6.70832e+08,-6.70882e+08,-61431.1,0.00630847,0.150349,0,0.150481,5509.96,-24426.8,0,25040.5,61431.1
step02_gravity_refstate-crust.xmf,592,1.93464e-06,-1.06668e-07,0,-1.93084e-06,-9.24036e+08,-9.24176e+08,-9.24169e+08,-132456,0.0113657,0.147839,0,0.148275,4750.71,-33648.1,0,33981.8,132456
step02_gravity_refstate-crust.xmf,593,2.44515e-07,1.18481e-07,0,-2.16556e-07,-7.05845e+07,-7.05931e+07,-7.06013e+07,-14855.7,0.00827816,0.154093,0,0.154315,15006.9,-2570.87,0,15225.5,14855.7
step02_gravity_refstate-crust.xmf,594,4.47814e-07,7.50445e-07,0,-6.09825e-07,-3.898e+08,-3.8978e+08,-3.89831e+08,-41834,0.00471166,0.155477,0,0.155549,8309.65,-14194,0,16447.5,41834
step02_gravity_refstate-crust.xmf,595,3.77852e-07,6.95689e-07,0,-5.89445e-07,-3.33978e+08,-3.33956e+08,-3.34004e+08,-40435.9,0.00487154,0.155694,0,0.15577,9543.58,-12161.4,0,15459,40435.9
step02_gravity_refstate-crust.xmf,596,3.27222e-07,6.01268e-07,0,-5.44612e-07,-2.73215e+08,-2.73196e+08,-2.73237e+08,-37360.4,0.00512487,0.155839,0,0.155923,10785.4,-9948.91,0,14673.3,37360.4
step02_gravity_refstate-crust.xmf,597,2.72998e-07,3.04012e-07,0,-3.67103e-07,-1.40335e+08,-1.40333e+08,-1.40354e+08,-25183.2,0.00660877,0.155245,0,0.155386,13438.1,-5110.62,0,14377.1,25183.2
step02_gravity_refstate-crust.xmf,598,2.95977e-07,4.68918e-07,0,-4.72512e-07,-2.08722e+08,-2.0871e+08,-2.08742e+08,-32414.3,0.0056224,0.15579,0,0.155891,12025.4,-7600.66,0,14226,32414.3
step02_gravity_refstate-crust.xmf,599,2.96888e-06,-1.5658e-06,0,-3.75212e-06,-1.0754e+09,-1.07571e+09,-1.0756e+09,-257395,0.0176473,0.153551,0,0.154562,4311.74,-39160.6,0,39397.2,257395
step02_gravity_refstate-crust.xmf,600,2.54221e-06,-9.63203e-07,0,-3.51401e-06,-1.05198e+09,-1.05222e+09,-1.05215e+09,-241061,0.0174223,0.149958,0,0.150967,4778.68,-38307.1,0,38604,241061
step02_gravity_refstate-crust.xmf,601,2.31682e-06,-5.65473e-07,0,-2.79082e-06,-1.00551e+09,-1.0057e+09,-1.00566e+09,-191450,0.0148524,0.148668,0,0.149408,4783.93,-36614.9,0,36926.1,191450
step02_gravity_refstate-crust.xmf,602,8.25338e-07,8.30082e-07,0,-8.91772e-07,-6.27495e+08,-6.27495e+08,-6.27552e+08,-61175.6,0.00639256,0.150424,0,0.15056,6389.32,-22849.2,0,23725.7,61175.6
step02_gravity_refstate-crust.xmf,603,5.38206e-07,8.74896e-07,0,-7.46103e-07,-4.89227e+08,-4.89204e+08,-4.89264e+08,-51182.7,0.00551123,0.152864,0,0.152963,7980.33,-17814.3,0,19520.1,51182.7
step02_gravity_refstate-crust.xmf,604,6.84171e-07,9.06641e-07,0,-8.81044e-07,-5.83236e+08,-5.83221e+08,-5.83283e+08,-60439.6,0.0064158,0.150554,0,0.150691,7353.56,-21237.5,0,22474.5,60439.6
step02_gravity_refstate-crust.xmf,605,9.91844e-07,8.09772e-07,0,-1.11843e-06,-7.10236e+08,-7.10249e+08,-7.10304e+08,-76724.3,0.00783707,0.148038,0,0.148245,6321.16,-25862.1,0,26623.4,76724.3
step02_gravity_refstate-crust.xmf,606,1.65598e-06,2.19134e-07,0,-1.48183e-06,-8.58769e+08,-8.58867e+08,-8.58882e+08,-101654,0.00930386,0.148056,0,0.148348,4729.98,-31271.4,0,31627.1,101654
step02_gravity_refstate-crust.xmf,607,1.39799e-06,4.74614e-07,0,-1.45008e-06,-8.23312e+08,-8.23375e+08,-8.23408e+08,-99475.3,0.00947368,0.146896,0,0.147202,5471.36,-29979.9,0,30475.1,99475.3
step02_gravity_refstate-crust.xmf,608,1.17341e-06,7.02905e-07,0,-1.40654e-06,-7.86664e+08,-7.86696e+08,-7.86744e+08,-96488.5,0.00950659,0.146056,0,0.146366,6244.97,-28645.1,0,29318,96488.5
step02_gravity_refstate-crust.xmf,609,1.62257e-06,2.98847e-07,0,-1.88127e-06,-8.92814e+08,-8.92905e+08,-8.92925e+08,-129055,0.0115806,0.145875,0,0.146334,5482.78,-32510.8,0,32969.9,129055
step02_gravity_refstate-crust.xmf,610,1.86863e-07,-7.24781e-08,0,-5.54475e-09,17683.8,-106.981,4865.01,-380.37,0.0108254,0.15238,0,0.152764,16661.6,0,0,16661.6,380.37
step02_gravity_refstate-crust.xmf,611,4.32219e-07,8.88126e-07,0,-7.52086e-07,-4.43904e+08,-4.43873e+08,-4.43934e+08,-51593.1,0.00565974,0.152701,0,0.152806,9353.85,-16163.9,0,18675.3,51593.1
step02_gravity_refstate-crust.xmf,612,2.14381e-06,-3.647e-07,0,-3.31979e-06,-1.02892e+09,-1.0291e+09,-1.02907e+09,-227738,0.0173364,0.146555,0,0.147576,5332.27,-37467.1,0,37844.7,227738
step02_gravity_refstate-crust.xmf,613,1.98154e-06,-1.41566e-07,0,-2.7545e-06,-9.87378e+08,-9.87524e+08,-9.87514e+08,-188959,0.0152442,0.145923,0,0.146717,5384.29,-35954.3,0,36355.2,188959
step02_gravity_refstate-crust.xmf,614,1.84221e-06,1.18147e-08,0,-2.47755e-06,-9.59526e+08,-9.59652e+08,-9.59653e+08,-169960,0.0141724,0.145439,0,0.146128,5493.71,-34940,0,35369.2,169960
step02_gravity_refstate-crust.xmf,615,5.53829e-07,9.69226e-07,0,-8.77497e-07,-5.38769e+08,-5.3874e+08,-5.38807e+08,-60196.3,0.0064674,0.150504,0,0.150643,8531.51,-19618.2,0,21393,60196.3
step02_gravity_refstate-crust.xmf,616,9.77555e-07,8.848e-07,0,-1.35378e-06,-7.486e+08,-7.48606e+08,-7.48667e+08,-92869.6,0.00942277,0.145501,0,0.145806,7056.6,-27258.8,0,28157.4,92869.6
step02_gravity_refstate-crust.xmf,617,8.13691e-07,9.49207e-07,0,-1.10581e-06,-6.69745e+08,-6.69736e+08,-6.69801e+08,-75858.4,0.00791738,0.147667,0,0.147879,7321.39,-24387.5,0,25462.8,75858.4
step02_gravity_refstate-crust.xmf,618,1.51578e-06,4.23098e-07,0,-2.32659e-06,-9.26989e+08,-9.27064e+08,-9.27093e+08,-159604,0.0140289,0.143072,0,0.143758,6229.21,-33754.7,0,34324.7,159604
step02_gravity_refstate-crust.xmf,619,7.58979e-08,1.89834e-07,0,-2.29669e-07,-7.20459e+07,-7.20381e+07,-7.20511e+07,-15755.3,0.00873222,0.150703,0,0.150956,18045.5,-2623.51,0,18235.2,15755.3
step02_gravity_refstate-crust.xmf,620,1.41188e-07,3.68539e-07,0,-3.92717e-07,-1.40698e+08,-1.40682e+08,-1.40707e+08,-26940.4,0.00720411,0.151969,0,0.15214,16335.3,-5123.38,0,17119.9,26940.4
step02_gravity_refstate-crust.xmf,621,3.44678e-07,8.60273e-07,0,-7.28099e-07,-3.92014e+08,-3.91978e+08,-3.92037e+08,-49947.6,0.00567376,0.152748,0,0.152853,10691.9,-14274.4,0,17834.7,49947.6
step02_gravity_refstate-crust.xmf,622,2.75281e-07,7.90342e-07,0,-6.81077e-07,-3.34465e+08,-3.3443e+08,-3.34484e+08,-46721.9,0.00569357,0.152841,0,0.152947,12052.5,-12178.9,0,17134.4,46721.9
step02_gravity_refstate-crust.xmf,623,2.22981e-07,6.82268e-07,0,-6.12757e-07,-2.73397e+08,-2.73366e+08,-2.73413e+08,-42035.1,0.0058509,0.152838,0,0.15295,13423.4,-9955.27,0,16712.1,42035.1
step02_gravity_refstate-crust.xmf,624,1.83104e-07,5.35585e-07,0,-5.16856e-07,-2.0757e+08,-2.07546e+08,-2.07583e+08,-35456.3,0.00629751,0.152644,0,0.152774,14818.3,-7558.37,0,16634.6,35456.3
step02_gravity_refstate-crust.xmf,625,2.21408e-06,-5.94616e-07,0,-4.19263e-06,-1.07538e+09,-1.07558e+09,-1.07554e+09,-287614,0.0204353,0.147043,0,0.148456,5388.5,-39158.5,0,39527.5,287614
step02_gravity_refstate-crust.xmf,626,1.86454e-06,-8.76206e-08,0,-3.87674e-06,-1.0524e+09,-1.05253e+09,-1.05252e+09,-265945,0.0199016,0.143679,0,0.145051,5892.59,-38320.9,0,38771.3,265945
step02_gravity_refstate-crust.xmf,627,1.82475e-06,6.02429e-08,0,-3.14097e-06,-1.0071e+09,-1.00722e+09,-1.00723e+09,-215471,0.0171716,0.14381,0,0.144831,5864.85,-36672,0,37138,215471
step02_gravity_refstate-crust.xmf,628,6.35179e-07,1.07273e-06,0,-1.10924e-06,-6.29033e+08,-6.29003e+08,-6.29077e+08,-76094,0.00806931,0.146964,0,0.147185,8645.19,-22904.8,0,24482,76094
step02_gravity_refstate-crust.xmf,629,4.10393e-07,1.05016e-06,0,-9.15845e-07,-5.03735e+08,-5.03691e+08,-5.03763e+08,-62827,0.00682401,0.149283,0,0.149439,10340.5,-18342.2,0,21056.2,62827
step02_gravity_refstate-crust.xmf,630,5.56852e-07,1.06491e-06,0,-1.00615e-06,-5.81389e+08,-5.81354e+08,-5.81427e+08,-69021.6,0.00742114,0.148218,0,0.148404,9022.32,-21169.9,0,23012.4,69021.6
step02_gravity_refstate-crust.xmf,631,8.04232e-07,1.04311e-06,0,-1.29939e-06,-7.09476e+08,-7.0946e+08,-7.09532e+08,-89137.8,0.00927611,0.145117,0,0.145414,7942.68,-25834.1,0,27027.5,89137.8
step02_gravity_refstate-crust.xmf,632,1.35643e-06,6.0022e-07,0,-1.79998e-06,-8.59222e+08,-8.59274e+08,-8.59315e+08,-123478,0.0115561,0.144394,0,0.144856,6216.09,-31287.3,0,31898.8,123478
step02_gravity_refstate-crust.xmf,633,1.12342e-06,8.2252e-07,0,-1.70797e-06,-8.23345e+08,-8.23366e+08,-8.23422e+08,-117166,0.0113939,0.143283,0,0.143735,6993.68,-29980.5,0,30785.4,117166
step02_gravity_refstate-crust.xmf,634,9.25443e-07,1.01672e-06,0,-1.61057e-06,-7.85968e+08,-7.85962e+08,-7.86032e+08,-110485,0.0111136,0.142557,0,0.142989,7794.54,-28619.3,0,29661.7,110485
step02_gravity_refstate-crust.xmf,635,1.25241e-06,7.7338e-07,0,-2.17057e-06,-8.94037e+08,-8.9407e+08,-8.94123e+08,-148901,0.0137265,0.141368,0,0.142032,6944.95,-32554.6,0,33287.1,148901
step02_gravity_refstate-crust.xmf,636,-3.00543e-08,8.87144e-09,0,-7.39276e-09,-2962.68,-292.369,-900.95,-507.143,0.0110822,0.149034,0,0.149446,19789.7,0,0,19789.7,507.143
step02_gravity_refstate-crust.xmf,637,3.05918e-07,1.03604e-06,0,-8.67273e-07,-4.48025e+08,-4.47975e+08,-4.48046e+08,-59495,0.00659964,0.149394,0,0.14954,11773.4,-16313.7,0,20118.3,59495
step02_gravity_refstate-crust.xmf,638,1.56292e-06,3.80016e-07,0,-3.59687e-06,-1.02989e+09,-1.02997e+09,-1.03e+09,-246745,0.0194158,0.140753,0,0.142086,6424.69,-37501.1,0,38047.5,246745
step02_gravity_refstate-crust.xmf,639,1.55236e-06,4.221e-07,0,-2.9677e-06,-9.84528e+08,-9.84605e+08,-9.84634e+08,-203584,0.0168963,0.141518,0,0.142523,6397.87,-35849.6,0,36416.1,203584
step02_gravity_refstate-crust.xmf,640,1.29826e-06,7.1645e-07,0,-2.77775e-06,-9.58688e+08,-9.58728e+08,-9.58777e+08,-190554,0.0165191,0.139364,0,0.14034,7011.62,-34908.4,0,35605.6,190554
step02_gravity_refstate-crust.xmf,641,4.53207e-07,1.10969e-06,0,-9.97146e-07,-5.48188e+08,-5.48143e+08,-5.48219e+08,-68404.2,0.00739985,0.147891,0,0.148076,10093.7,-19960.9,0,22367.8,68404.2
step02_gravity_refstate-crust.xmf,642,7.57025e-07,1.16575e-06,0,-1.51937e-06,-7.48387e+08,-7.48359e+08,-7.48439e+08,-104229,0.0107843,0.142087,0,0.142496,8633.74,-27250.6,0,28585.6,104229
step02_gravity_refstate-crust.xmf,643,6.33881e-07,1.17948e-06,0,-1.27774e-06,-6.74279e+08,-6.74241e+08,-6.74322e+08,-87652.9,0.00930846,0.144267,0,0.144567,9111.93,-24552.2,0,26188.5,87652.9
step02_gravity_refstate-crust.xmf,644,1.07218e-06,1.00011e-06,0,-2.55453e-06,-9.2771e+08,-9.27715e+08,-9.27784e+08,-175241,0.0159192,0.137685,0,0.138603,7666.76,-33780.1,0,34639.2,175241
step02_gravity_refstate-crust.xmf,645,1.04405e-08,4.42955e-07,0,-4.03491e-07,-1.44679e+08,-1.44649e+08,-1.44679e+08,-27679.5,0.00735983,0.148613,0,0.148795,19117.4,-5267.9,0,19829.9,27679.5
step02_gravity_refstate-crust.xmf,646,-1.0564e-07,3.01388e-07,0,-2.47038e-07,-8.37081e+07,-8.36802e+07,-8.37008e+07,-16946.8,0.00839602,0.146655,0,0.146895,21521,-3047.52,0,21735.7,16946.8
step02_gravity_refstate-crust.xmf,647,6.48001e-08,6.09502e-07,0,-5.35388e-07,-2.08469e+08,-2.08432e+08,-2.08474e+08,-36727.6,0.00663761,0.149223,0,0.149371,17606.5,-7590.74,0,19173.1,36727.6
step02_gravity_refstate-crust.xmf,648,2.24148e-07,9.85025e-07,0,-8.10483e-07,-3.92688e+08,-3.92636e+08,-3.92703e+08,-55599.1,0.00639829,0.149452,0,0.149589,13216.3,-14298.6,0,19471.1,55599.1
step02_gravity_refstate-crust.xmf,649,1.5953e-07,8.92777e-07,0,-7.37073e-07,-3.33665e+08,-3.33614e+08,-3.33676e+08,-50563.2,0.00626581,0.149483,0,0.149614,14702.4,-12149.4,0,19072.7,50563.2
step02_gravity_refstate-crust.xmf,650,1.09916e-07,7.64727e-07,0,-6.46361e-07,-2.72202e+08,-2.72158e+08,-2.7221e+08,-44340.3,0.00630408,0.149462,0,0.149595,16147.3,-9911.43,0,18946.6,44340.3
step02_gravity_refstate-crust.xmf,651,1.47674e-06,3.71866e-07,0,-4.41414e-06,-1.07555e+09,-1.07563e+09,-1.07566e+09,-302810,0.0223928,0.140018,0,0.141798,6443.76,-39163.2,0,39689.7,302810
step02_gravity_refstate-crust.xmf,652,1.21137e-06,7.72881e-07,0,-4.04229e-06,-1.05262e+09,-1.05265e+09,-1.0527e+09,-277301,0.0215877,0.136983,0,0.138673,6980.67,-38327.8,0,38958.3,277301
step02_gravity_refstate-crust.xmf,653,1.35708e-06,6.52221e-07,0,-3.33569e-06,-1.00778e+09,-1.00783e+09,-1.00787e+09,-228828,0.0188064,0.138776,0,0.140044,6871.09,-36695.8,0,37333.5,228828
step02_gravity_refstate-crust.xmf,654,4.34019e-07,1.2689e-06,0,-1.1773e-06,-6.07759e+08,-6.07702e+08,-6.07789e+08,-80763,0.00875345,0.14427,0,0.144535,10714.2,-22129.8,0,24587,80763
step02_gravity_refstate-crust.xmf,655,2.51605e-07,1.2368e-06,0,-1.0085e-06,-5.03654e+08,-5.03586e+08,-5.03671e+08,-69183.3,0.00765262,0.14548,0,0.145682,12844.9,-18339,0,22389.9,69183.3
step02_gravity_refstate-crust.xmf,656,3.31792e-07,1.26897e-06,0,-1.08937e-06,-5.55081e+08,-5.55017e+08,-5.55104e+08,-74730.6,0.00818144,0.144856,0,0.145087,11785.9,-20211.6,0,23396.9,74730.6
step02_gravity_refstate-crust.xmf,657,6.35639e-07,1.2595e-06,0,-1.43835e-06,-7.15032e+08,-7.14989e+08,-7.15076e+08,-98671.1,0.0104286,0.141942,0,0.142325,9360.46,-26036,0,27667.5,98671.1
step02_gravity_refstate-crust.xmf,658,1.01921e-06,1.03428e-06,0,-2.02853e-06,-8.59807e+08,-8.59806e+08,-8.59877e+08,-139157,0.0133809,0.139963,0,0.140602,7735.46,-31307.8,0,32249.3,139157
step02_gravity_refstate-crust.xmf,659,6.57335e-07,1.36205e-06,0,-1.75156e-06,-7.8592e+08,-7.85872e+08,-7.85966e+08,-120157,0.0123896,0.138424,0,0.138977,9409.11,-28617,0,30124.1,120157
step02_gravity_refstate-crust.xmf,660,8.21028e-07,1.21225e-06,0,-1.88939e-06,-8.23736e+08,-8.23709e+08,-8.23793e+08,-129612,0.0129339,0.138972,0,0.139572,8565.04,-29994.1,0,31193.1,129612
step02_gravity_refstate-crust.xmf,661,8.63544e-07,1.28015e-06,0,-2.34959e-06,-8.95477e+08,-8.95448e+08,-8.95536e+08,-161182,0.0153396,0.136201,0,0.137062,8417.29,-32606.2,0,33675.1,161182
step02_gravity_refstate-crust.xmf,662,-2.30848e-07,8.8286e-08,0,-4.50404e-09,-21899.6,-7.0128,-6063.43,-308.977,0.010664,0.145689,0,0.146078,22970.9,0,0,22970.9,308.977
step02_gravity_refstate-crust.xmf,663,-2.71621e-07,3.26872e-07,0,-1.92432e-07,-7.01776e+07,-7.01366e+07,-7.0159e+07,-13200.8,0.00808604,0.143289,0,0.143517,24797.4,-2554.29,0,24928.6,13200.8
step02_gravity_refstate-crust.xmf,664,-4.35048e-07,1.63294e-07,0,-7.28788e-09,-41402.6,-356.3,-11558.3,-499.949,0.00957674,0.14254,0,0.142861,26214.4,0,0,26214.4,499.949
step02_gravity_refstate-crust.xmf,665,-4.79686e-08,6.85655e-07,0,-5.30773e-07,-2.11445e+08,-2.11395e+08,-2.11442e+08,-36411,0.00664051,0.145787,0,0.145938,20307.8,-7698.75,0,21718.2,36411
step02_gravity_refstate-crust.xmf,666,1.71982e-07,1.19194e-06,0,-9.32805e-07,-4.50569e+08,-4.50499e+08,-4.50581e+08,-63990.4,0.00721235,0.145722,0,0.145901,14205.8,-16405.9,0,21701.6,63990.4
step02_gravity_refstate-crust.xmf,667,9.95431e-07,1.11614e-06,0,-3.6915e-06,-1.02871e+09,-1.02871e+09,-1.02878e+09,-253237,0.0207502,0.13452,0,0.136111,7524.49,-37457.1,0,38205.4,253237
step02_gravity_refstate-crust.xmf,668,1.00135e-06,1.10491e-06,0,-3.2566e-06,-9.9363e+08,-9.93622e+08,-9.93698e+08,-223403,0.0190291,0.135003,0,0.136338,7697.84,-36179.8,0,36989.7,223403
step02_gravity_refstate-crust.xmf,669,8.08965e-07,1.36209e-06,0,-2.92937e-06,-9.60959e+08,-9.60921e+08,-9.61015e+08,-200955,0.0180615,0.133233,0,0.134452,8375.84,-34990.1,0,35978.6,200955
step02_gravity_refstate-crust.xmf,670,4.85092e-07,1.31838e-06,0,-1.29424e-06,-6.54298e+08,-6.54241e+08,-6.54331e+08,-88784.7,0.00957404,0.142687,0,0.143008,10385.7,-23824.4,0,25989.7,88784.7
step02_gravity_refstate-crust.xmf,671,5.25634e-07,1.45866e-06,0,-1.61971e-06,-7.46407e+08,-7.46343e+08,-7.46443e+08,-111112,0.0117601,0.138332,0,0.138831,10240.6,-27178.1,0,29043.4,111112
step02_gravity_refstate-crust.xmf,672,4.447e-07,1.46231e-06,0,-1.46547e-06,-6.98954e+08,-6.98884e+08,-6.98984e+08,-100531,0.0108307,0.139443,0,0.139863,10848.9,-25450.2,0,27666,100531
step02_gravity_refstate-crust.xmf,673,6.46727e-07,1.56708e-06,0,-2.66178e-06,-9.29414e+08,-9.29351e+08,-9.29459e+08,-182598,0.0171961,0.131911,0,0.133027,9069.28,-33841.3,0,35035.5,182598
step02_gravity_refstate-crust.xmf,674,-9.86555e-08,5.43834e-07,0,-4.15143e-07,-1.59197e+08,-1.59153e+08,-1.5919e+08,-28478.8,0.00705054,0.145362,0,0.145533,21632.5,-5796.16,0,22395.6,28478.8
step02_gravity_refstate-crust.xmf,675,-4.16616e-07,3.94913e-07,0,-1.72766e-07,-7.47408e+07,-7.46852e+07,-7.47122e+07,-11851.7,0.00684921,0.140119,0,0.140286,28079.9,-2719.94,0,28211.3,11851.7
step02_gravity_refstate-crust.xmf,676,-3.17717e-09,8.50479e-07,0,-6.49451e-07,-2.72908e+08,-2.7285e+08,-2.72908e+08,-44552.3,0.00644983,0.145872,0,0.146014,18885.2,-9936.81,0,21339.9,44552.3
step02_gravity_refstate-crust.xmf,677,9.42471e-08,1.11966e-06,0,-8.51199e-07,-3.93135e+08,-3.93065e+08,-3.93141e+08,-58392.3,0.00683032,0.145639,0,0.145799,15895.9,-14314.6,0,21391.3,58392.3
step02_gravity_refstate-crust.xmf,678,4.17093e-08,1.00306e-06,0,-7.59077e-07,-3.35525e+08,-3.35459e+08,-3.35528e+08,-52072.7,0.00654608,0.145745,0,0.145891,17399.9,-12216.8,0,21260.5,52072.7
step02_gravity_refstate-crust.xmf,679,7.9918e-07,1.282e-06,0,-4.44308e-06,-1.07521e+09,-1.07517e+09,-1.07526e+09,-304795,0.0235529,0.132746,0,0.13482,7486.15,-39149.1,0,39858.5,304795
step02_gravity_refstate-crust.xmf,680,6.33619e-07,1.55514e-06,0,-4.07493e-06,-1.05429e+09,-1.05423e+09,-1.05434e+09,-279540,0.0226304,0.130346,0,0.132296,8001.16,-38387.6,0,39212.6,279540
step02_gravity_refstate-crust.xmf,681,1.10356e-07,1.41341e-06,0,-1.05182e-06,-5.07087e+08,-5.06998e+08,-5.07095e+08,-72154.6,0.00811273,0.141603,0,0.141835,15100.3,-18463.7,0,23852.2,72154.6
step02_gravity_refstate-crust.xmf,682,3.2655e-07,1.51676e-06,0,-1.35989e-06,-6.55213e+08,-6.55132e+08,-6.55236e+08,-93288.3,0.0102272,0.139464,0,0.139838,11943.8,-23857.4,0,26680.1,93288.3
step02_gravity_refstate-crust.xmf,683,1.77138e-07,1.46475e-06,0,-1.14574e-06,-5.57515e+08,-5.57427e+08,-5.57527e+08,-78597.6,0.00876122,0.141045,0,0.141317,13893.9,-20299.9,0,24599.3,78597.6
step02_gravity_refstate-crust.xmf,684,2.47908e-07,1.5019e-06,0,-1.24831e-06,-6.07457e+08,-6.07371e+08,-6.07474e+08,-85634.4,0.00948107,0.140253,0,0.140573,12863.8,-22118.4,0,25587.1,85634.4
step02_gravity_refstate-crust.xmf,685,6.6248e-07,1.50279e-06,0,-2.17042e-06,-8.61709e+08,-8.61652e+08,-8.61755e+08,-148890,0.0147762,0.13477,0,0.135578,9314.18,-31376.4,0,32729.7,148890
step02_gravity_refstate-crust.xmf,686,3.86668e-07,1.71934e-06,0,-1.82206e-06,-7.86323e+08,-7.86231e+08,-7.86349e+08,-124994,0.0132715,0.1338,0,0.134457,11075.6,-28631.1,0,30698.7,124994
step02_gravity_refstate-crust.xmf,687,5.05645e-07,1.62869e-06,0,-1.99427e-06,-8.25287e+08,-8.2521e+08,-8.25322e+08,-136807,0.0140757,0.133958,0,0.134695,10211.9,-30050,0,31737.7,136807
step02_gravity_refstate-crust.xmf,688,4.87117e-07,1.78287e-06,0,-2.42656e-06,-8.97924e+08,-8.97835e+08,-8.97957e+08,-166462,0.0164239,0.130574,0,0.131603,9886.2,-32694.5,0,34156.6,166462
step02_gravity_refstate-crust.xmf,689,-2.08699e-07,5.4648e-07,0,-3.59912e-07,-1.44953e+08,-1.44901e+08,-1.44938e+08,-24690,0.00684552,0.142737,0,0.142901,24191.8,-5277.15,0,24760.7,24690
step02_gravity_refstate-crust.xmf,690,-1.54085e-07,7.45778e-07,0,-4.97848e-07,-2.112e+08,-2.11138e+08,-2.11189e+08,-34152.4,0.00636738,0.142498,0,0.14264,23024.5,-7689.47,0,24274.6,34152.4
step02_gravity_refstate-crust.xmf,691,-6.00132e-07,2.25754e-07,0,-7.0812e-09,-57092.1,-436.366,-15923.1,-485.771,0.00786955,0.139789,0,0.14001,29529.6,0,0,29529.6,485.771
step02_gravity_refstate-crust.xmf,692,-3.02044e-07,6.01059e-07,0,-3.16684e-07,-1.46848e+08,-1.46786e+08,-1.46827e+08,-21724.5,0.00612711,0.139927,0,0.140061,26869.7,-5345.86,0,27396.3,21724.5
step02_gravity_refstate-crust.xmf,693,-1.08241e-07,9.31043e-07,0,-6.24411e-07,-2.7444e+08,-2.74369e+08,-2.74433e+08,-42834.6,0.00629866,0.142333,0,0.142472,21577.2,-9992.28,0,23778.6,42834.6
step02_gravity_refstate-crust.xmf,694,5.53686e-08,1.34036e-06,0,-9.61997e-07,-4.57051e+08,-4.56963e+08,-4.57055e+08,-65993,0.00753631,0.142067,0,0.142267,16359.3,-16641.7,0,23336.1,65993
step02_gravity_refstate-crust.xmf,695,5.13286e-07,1.7773e-06,0,-3.59821e-06,-1.02163e+09,-1.02154e+09,-1.02166e+09,-246837,0.0211897,0.128542,0,0.130276,8620.63,-37198.1,0,38184,246837
step02_gravity_refstate-crust.xmf,696,3.55841e-07,1.97935e-06,0,-2.94667e-06,-9.62789e+08,-9.62677e+08,-9.62813e+08,-202141,0.0189284,0.126836,0,0.128241,9725.4,-35055.8,0,36379.8,202141
step02_gravity_refstate-crust.xmf,697,4.549e-07,1.84396e-06,0,-3.26223e-06,-9.93108e+08,-9.93013e+08,-9.93139e+08,-223789,0.0200135,0.127888,0,0.129445,9083.35,-36159.8,0,37283.2,223789
step02_gravity_refstate-crust.xmf,698,2.87949e-07,1.77069e-06,0,-1.6682e-06,-7.4607e+08,-7.45968e+08,-7.4609e+08,-114438,0.0124551,0.133957,0,0.134535,11968.5,-27165.3,0,29685,114438
step02_gravity_refstate-crust.xmf,699,2.67104e-07,2.08812e-06,0,-2.66923e-06,-9.31721e+08,-9.31596e+08,-9.3174e+08,-183109,0.0179002,0.12608,0,0.127344,10410.5,-33924.6,0,35486,183109
step02_gravity_refstate-crust.xmf,700,-5.21939e-07,4.48306e-07,0,-1.38269e-07,-7.81935e+07,-7.8127e+07,-7.81577e+07,-9485.23,0.00528924,0.137593,0,0.137695,31278.1,-2845.3,0,31407.3,9485.23
step02_gravity_refstate-crust.xmf,701,-4.01609e-07,6.5509e-07,0,-2.66322e-07,-1.51106e+08,-1.51034e+08,-1.51079e+08,-18269.7,0.00501721,0.137173,0,0.137264,29857.3,-5500.56,0,30359.7,18269.7
step02_gravity_refstate-crust.xmf,702,-7.03937e-07,2.70287e-07,0,-2.26593e-09,-66734.1,97.7237,-18444,-155.443,0.00562222,0.137624,0,0.137739,32925.8,0,0,32925.8,155.443
step02_gravity_refstate-crust.xmf,703,-5.87667e-07,4.80654e-07,0,-8.43661e-08,-7.82166e+07,-7.81434e+07,-7.81763e+07,-5787.51,0.00344564,0.135768,0,0.135812,34559.7,-2845.92,0,34676.7,5787.51
step02_gravity_refstate-crust.xmf,704,-8.07608e-07,3.04531e-07,0,-2.2411e-09,-76798.8,-506.064,-21396.9,-153.739,0.00294932,0.13622,0,0.136252,36412.7,0,0,36412.7,153.739
step02_gravity_refstate-crust.xmf,705,-7.14678e-08,1.10313e-06,0,-7.40435e-07,-3.35862e+08,-3.35781e+08,-3.35857e+08,-50793.8,0.00650645,0.141935,0,0.142084,20147.6,-12228.8,0,23568.4,50793.8
step02_gravity_refstate-crust.xmf,706,-3.36214e-08,1.28967e-06,0,-8.69325e-07,-4.06746e+08,-4.06655e+08,-4.06744e+08,-59635.7,0.00703272,0.141086,0,0.141261,18571.5,-14809.9,0,23753.6,59635.7
step02_gravity_refstate-crust.xmf,707,1.90027e-07,2.12608e-06,0,-4.32541e-06,-1.07487e+09,-1.07474e+09,-1.07489e+09,-296723,0.0240544,0.125258,0,0.127547,8547.16,-39136,0,40058.4,296723
step02_gravity_refstate-crust.xmf,708,1.40599e-07,2.23952e-06,0,-3.9035e-06,-1.04935e+09,-1.04921e+09,-1.04936e+09,-267780,0.0227693,0.123837,0,0.125913,9063.09,-38206.7,0,39266.9,267780
step02_gravity_refstate-crust.xmf,709,-1.69444e-08,1.58168e-06,0,-1.05693e-06,-5.12575e+08,-5.12465e+08,-5.12573e+08,-72505.1,0.00829323,0.137659,0,0.137908,17239.6,-18663.2,0,25407,72505.1
step02_gravity_refstate-crust.xmf,710,2.10224e-07,1.77746e-06,0,-1.52144e-06,-7.02106e+08,-7.01999e+08,-7.02121e+08,-104371,0.0115706,0.134571,0,0.135068,12872.4,-25564.5,0,28622.4,104371
step02_gravity_refstate-crust.xmf,711,2.64651e-08,1.66175e-06,0,-1.15918e-06,-5.60933e+08,-5.6082e+08,-5.60934e+08,-79519.7,0.00904127,0.136885,0,0.137184,16062.1,-20424,0,25983.3,79519.7
step02_gravity_refstate-crust.xmf,712,1.36521e-07,1.76926e-06,0,-1.39261e-06,-6.5747e+08,-6.57358e+08,-6.57479e+08,-95533,0.0107285,0.135156,0,0.135581,13890.7,-23939.1,0,27677.3,95533
step02_gravity_refstate-crust.xmf,713,7.75614e-08,1.72601e-06,0,-1.27102e-06,-6.09801e+08,-6.09688e+08,-6.09806e+08,-87191.7,0.00986536,0.13602,0,0.136377,14936.9,-22203.4,0,26760.1,87191.7
step02_gravity_refstate-crust.xmf,714,2.76924e-07,2.01186e-06,0,-2.24351e-06,-8.68028e+08,-8.67909e+08,-8.68047e+08,-153905,0.01582,0.128281,0,0.129253,11069.2,-31605.7,0,33488,153905
step02_gravity_refstate-crust.xmf,715,1.27883e-07,2.07346e-06,0,-1.82919e-06,-7.8815e+08,-7.88016e+08,-7.88158e+08,-125482,0.0137656,0.128745,0,0.129479,12792.3,-28697.1,0,31419.2,125482
step02_gravity_refstate-crust.xmf,716,2.06529e-07,2.0353e-06,0,-2.00895e-06,-8.26224e+08,-8.26099e+08,-8.26239e+08,-137814,0.0146974,0.128675,0,0.129512,11872.1,-30083.5,0,32341.4,137814
step02_gravity_refstate-crust.xmf,717,1.80127e-07,2.19505e-06,0,-2.45931e-06,-9.0568e+08,-9.05542e+08,-9.05693e+08,-168709,0.0171098,0.125228,0,0.126392,11114.1,-32976.3,0,34798.9,168709
step02_gravity_refstate-crust.xmf,718,-2.47383e-07,8.10789e-07,0,-4.52837e-07,-2.14894e+08,-2.14821e+08,-2.14877e+08,-31064.6,0.00580831,0.139384,0,0.139505,25688.1,-7823.67,0,26853.1,31064.6
step02_gravity_refstate-crust.xmf,719,-2.03579e-07,1.01092e-06,0,-5.76975e-07,-2.7822e+08,-2.78136e+08,-2.78206e+08,-39580.5,0.00587274,0.138863,0,0.138988,24282.7,-10129.6,0,26310.8,39580.5
step02_gravity_refstate-crust.xmf,720,-3.2091e-07,8.75302e-07,0,-3.86585e-07,-2.19698e+08,-2.19616e+08,-2.19676e+08,-26519.7,0.00499329,0.136496,0,0.136587,28423.7,-7998.38,0,29527.7,26519.7
step02_gravity_refstate-crust.xmf,721,-6.53386e-07,4.79037e-07,0,-3.65e-08,-7.08103e+07,-7.07326e+07,-7.07655e+07,-2503.9,0.00172081,0.134981,0,0.134992,37397.2,-2576.02,0,37485.8,2503.9
step02_gravity_refstate-crust.xmf,722,-8.15993e-07,3.06744e-07,0,3.96267e-09,-77636.5,-616.738,-21659.4,271.839,1.29072e-19,0.135723,0,0.135723,40000,0,0,40000,271.839
step02_gravity_refstate-crust.xmf,723,-1.70561e-07,1.19603e-06,0,-6.94408e-07,-3.38263e+08,-3.3817e+08,-3.38252e+08,-47636.4,0.00619219,0.138263,0,0.138402,22815.7,-12316,0,25927.6,47636.4
step02_gravity_refstate-crust.xmf,724,-5.15185e-08,1.50013e-06,0,-9.69439e-07,-4.69653e+08,-4.69547e+08,-4.6965e+08,-66503.5,0.00768987,0.138174,0,0.138388,18384.7,-17100.3,0,25108.1,66503.5
step02_gravity_refstate-crust.xmf,725,6.14742e-08,2.40845e-06,0,-3.50524e-06,-1.0225e+09,-1.02234e+09,-1.02251e+09,-240459,0.021547,0.122154,0,0.12404,9716.01,-37229.2,0,38476.2,240459
step02_gravity_refstate-crust.xmf,726,-4.11333e-08,2.53823e-06,0,-2.86588e-06,-9.65038e+08,-9.64861e+08,-9.65036e+08,-196599,0.0192271,0.120359,0,0.121885,11058.6,-35136.9,0,36836.1,196599
step02_gravity_refstate-crust.xmf,727,4.29819e-10,2.47905e-06,0,-3.18085e-06,-9.95376e+08,-9.95206e+08,-9.95376e+08,-218206,0.0204059,0.121017,0,0.122725,10363.9,-36241.5,0,37694.2,218206
step02_gravity_refstate-crust.xmf,728,6.29073e-08,2.07971e-06,0,-1.66436e-06,-7.47865e+08,-7.47727e+08,-7.47869e+08,-114175,0.0128151,0.129146,0,0.12978,13754,-27230.2,0,30506.7,114175
step02_gravity_refstate-crust.xmf,729,-7.45308e-08,2.57301e-06,0,-2.5885e-06,-9.33655e+08,-9.33474e+08,-9.3365e+08,-177571,0.0180994,0.120066,0,0.121423,11779.7,-33994.3,0,35977.4,177571
step02_gravity_refstate-crust.xmf,730,-4.71765e-07,7.0603e-07,0,-1.943e-07,-1.56259e+08,-1.56179e+08,-1.56227e+08,-13329,0.00358413,0.134852,0,0.1349,33037.7,-5687.97,0,33523.8,13329
step02_gravity_refstate-crust.xmf,731,-3.95274e-07,9.40728e-07,0,-3.09609e-07,-2.27905e+08,-2.27813e+08,-2.27878e+08,-21239.2,0.00388422,0.133777,0,0.133833,31382.1,-8296.96,0,32460.3,21239.2
step02_gravity_refstate-crust.xmf,732,-5.28187e-07,7.13339e-07,0,-9.24662e-08,-1.52066e+08,-1.51981e+08,-1.5203e+08,-6343.18,0.00176814,0.133389,0,0.1334,36708.3,-5535.09,0,37123.2,6343.18
step02_gravity_refstate-crust.xmf,733,-6.13868e-07,5.46041e-07,0,2.17338e-09,-9.58323e+07,-9.57527e+07,-9.57902e+07,149.094,1.2835e-19,0.134231,0,0.134231,40000,-3487.23,0,40151.7,149.094
step02_gravity_refstate-crust.xmf,734,-1.47041e-07,1.37626e-06,0,-8.08362e-07,-3.98283e+08,-3.98179e+08,-3.98273e+08,-55453.6,0.00670809,0.137317,0,0.137481,21435.7,-14501.4,0,25880.1,55453.6
step02_gravity_refstate-crust.xmf,735,-3.24144e-07,2.86628e-06,0,-4.07288e-06,-1.07315e+09,-1.07293e+09,-1.07313e+09,-279399,0.0238906,0.117793,0,0.120191,9642.37,-39072.3,0,40244.5,279399
step02_gravity_refstate-crust.xmf,736,-1.37984e-07,1.56062e-06,0,-9.16473e-07,-4.58325e+08,-4.58208e+08,-4.58315e+08,-62870.1,0.00737409,0.135657,0,0.135857,20382.6,-16687.6,0,26342.5,62870.1
step02_gravity_refstate-crust.xmf,737,-1.28694e-07,1.72388e-06,0,-1.02376e-06,-5.14865e+08,-5.14738e+08,-5.14857e+08,-70229.9,0.00817047,0.133931,0,0.13418,19349.2,-18746.3,0,26941,70229.9
step02_gravity_refstate-crust.xmf,738,-3.39714e-07,2.93312e-06,0,-3.68543e-06,-1.0494e+09,-1.04918e+09,-1.04938e+09,-252820,0.0226551,0.116427,0,0.118611,10237.6,-38207.8,0,39555.6,252820
step02_gravity_refstate-crust.xmf,739,-1.08089e-07,1.84429e-06,0,-1.13257e-06,-5.65e+08,-5.64866e+08,-5.64992e+08,-77694.1,0.00901968,0.132668,0,0.132974,18208.3,-20571.8,0,27472.5,77694.1
step02_gravity_refstate-crust.xmf,740,8.91384e-09,2.05506e-06,0,-1.51355e-06,-7.04859e+08,-7.04718e+08,-7.04859e+08,-103830,0.0118435,0.129837,0,0.130376,14770.4,-25664.3,0,29611.1,103830
step02_gravity_refstate-crust.xmf,741,-8.09485e-08,1.94523e-06,0,-1.25113e-06,-6.14286e+08,-6.14147e+08,-6.1428e+08,-85827.2,0.00994544,0.13145,0,0.131825,17063.1,-22366.4,0,28131.9,85827.2
step02_gravity_refstate-crust.xmf,742,-4.13519e-08,2.01424e-06,0,-1.37812e-06,-6.60787e+08,-6.60646e+08,-6.60784e+08,-94538.7,0.0108945,0.130546,0,0.131,15889.5,-24059.6,0,28832.9,94538.7
step02_gravity_refstate-crust.xmf,743,-7.57454e-08,2.54356e-06,0,-2.34081e-06,-8.98709e+08,-8.98529e+08,-8.98704e+08,-160580,0.0169472,0.120671,0,0.121855,12438.8,-32722,0,35006.5,160580
step02_gravity_refstate-crust.xmf,744,-1.66439e-08,2.40455e-06,0,-2.14622e-06,-8.61362e+08,-8.61196e+08,-8.61361e+08,-147231,0.0158284,0.123015,0,0.124029,12719.7,-31362.4,0,33843.6,147231
step02_gravity_refstate-crust.xmf,745,-1.03984e-07,2.40227e-06,0,-1.77038e-06,-7.89451e+08,-7.89279e+08,-7.89443e+08,-121448,0.0138206,0.123512,0,0.124283,14566.6,-28744,0,32224.3,121448
step02_gravity_refstate-crust.xmf,746,-6.42063e-08,2.41684e-06,0,-1.95414e-06,-8.27584e+08,-8.27414e+08,-8.2758e+08,-134054,0.01486,0.123077,0,0.123971,13597.4,-30132.5,0,33058.4,134054
step02_gravity_refstate-crust.xmf,747,-2.86246e-07,1.09406e-06,0,-5.09986e-07,-2.85354e+08,-2.85259e+08,-2.85334e+08,-34985.1,0.00518938,0.135506,0,0.135605,27036.6,-10389.1,0,28963.9,34985.1
step02_gravity_refstate-crust.xmf,748,-2.55654e-07,1.2828e-06,0,-6.25975e-07,-3.42644e+08,-3.42538e+08,-3.42626e+08,-42941.9,0.00564127,0.134776,0,0.134894,25460.9,-12475.2,0,28352.9,42941.9
step02_gravity_refstate-crust.xmf,749,-3.44864e-07,1.16545e-06,0,-4.23111e-07,-2.92085e+08,-2.91982e+08,-2.92062e+08,-29025.4,0.00433126,0.132652,0,0.132723,29708.8,-10634.1,0,31554.6,29025.4
step02_gravity_refstate-crust.xmf,750,-2.38551e-07,1.47792e-06,0,-7.39352e-07,-4.01504e+08,-4.01386e+08,-4.01488e+08,-50719.5,0.00622705,0.13358,0,0.133725,24040.8,-14618.5,0,28136.4,50719.5
step02_gravity_refstate-crust.xmf,751,-3.81705e-07,3.04725e-06,0,-3.33465e-06,-1.02616e+09,-1.02592e+09,-1.02613e+09,-228757,0.0215041,0.114868,0,0.116864,10927.5,-37361.4,0,38926.7,228757
step02_gravity_refstate-crust.xmf,752,-3.84903e-07,3.0462e-06,0,-2.69487e-06,-9.67015e+08,-9.66779e+08,-9.66988e+08,-184868,0.0189959,0.113693,0,0.115269,12450.3,-35208.3,0,37344.8,184868
step02_gravity_refstate-crust.xmf,753,-4.04705e-07,3.0718e-06,0,-3.00759e-06,-9.99067e+08,-9.98828e+08,-9.99039e+08,-206321,0.0202711,0.113738,0,0.115531,11699.3,-36375.1,0,38210.3,206321
step02_gravity_refstate-crust.xmf,754,-1.32728e-07,2.35726e-06,0,-1.60642e-06,-7.49201e+08,-7.49031e+08,-7.49192e+08,-110200,0.0127845,0.124328,0,0.124983,15547.4,-27278.5,0,31398.1,110200
step02_gravity_refstate-crust.xmf,755,-3.62394e-07,2.99879e-06,0,-2.42667e-06,-9.33816e+08,-9.33585e+08,-9.33791e+08,-166470,0.0177909,0.114069,0,0.115448,13209,-33999.7,0,36475.4,166470
step02_gravity_refstate-crust.xmf,756,-4.42852e-07,9.90603e-07,0,-2.09881e-07,-2.34075e+08,-2.33977e+08,-2.34045e+08,-14397.9,0.00259175,0.131716,0,0.131742,34418.6,-8521.48,0,35457.8,14397.9
step02_gravity_refstate-crust.xmf,757,-4.0077e-07,1.23527e-06,0,-3.2683e-07,-3.01734e+08,-3.01621e+08,-3.01706e+08,-22420.5,0.00328597,0.130094,0,0.130135,32469.3,-10985.2,0,34277.2,22420.5
step02_gravity_refstate-crust.xmf,758,-5.01141e-07,8.40238e-07,0,1.09609e-09,-1.88048e+08,-1.87956e+08,-1.88013e+08,75.1919,8.73813e-20,0.131898,0,0.131898,40000,-6845.33,0,40581.5,75.1919
step02_gravity_refstate-crust.xmf,759,-2.30279e-07,1.66734e-06,0,-8.49779e-07,-4.59438e+08,-4.59308e+08,-4.59422e+08,-58294.8,0.00695066,0.132048,0,0.132231,22743.1,-16727.9,0,28232.5,58294.8
step02_gravity_refstate-crust.xmf,760,-7.55608e-07,3.52364e-06,0,-3.75255e-06,-1.07323e+09,-1.07293e+09,-1.07317e+09,-257425,0.0232834,0.11023,0,0.112662,10770.7,-39074.3,0,40531.6,257425
step02_gravity_refstate-crust.xmf,761,-2.26717e-07,1.84518e-06,0,-9.59145e-07,-5.15391e+08,-5.15249e+08,-5.15376e+08,-65797.4,0.0077885,0.130301,0,0.130534,21537,-18765.3,0,28565.3,65797.4
step02_gravity_refstate-crust.xmf,762,-2.22078e-07,2.00218e-06,0,-1.07157e-06,-5.68249e+08,-5.68096e+08,-5.68233e+08,-73509.9,0.00871498,0.128596,0,0.128891,20343.1,-20689.9,0,29015.7,73509.9
step02_gravity_refstate-crust.xmf,763,-7.00413e-07,3.49785e-06,0,-3.43579e-06,-1.0519e+09,-1.05161e+09,-1.05185e+09,-235695,0.0222037,0.109747,0,0.111971,11282.6,-38298,0,39925.4,235695
step02_gravity_refstate-crust.xmf,764,-2.17398e-07,2.14315e-06,0,-1.18974e-06,-6.18941e+08,-6.18779e+08,-6.18926e+08,-81616.4,0.00970529,0.126879,0,0.12725,19198.7,-22535.6,0,29604.8,81616.4
step02_gravity_refstate-crust.xmf,765,-1.67295e-07,2.31011e-06,0,-1.46379e-06,-7.09475e+08,-7.09305e+08,-7.09464e+08,-100416,0.0117962,0.12499,0,0.125546,16643.3,-25832.1,0,30729.4,100416
step02_gravity_refstate-crust.xmf,766,-2.1225e-07,2.27371e-06,0,-1.32163e-06,-6.69408e+08,-6.69238e+08,-6.69394e+08,-90663.7,0.0107792,0.125108,0,0.125572,18075.6,-24373.1,0,30344.3,90663.7
step02_gravity_refstate-crust.xmf,767,-2.94211e-07,2.68368e-06,0,-1.65374e-06,-7.88633e+08,-7.88429e+08,-7.88613e+08,-113447,0.0134366,0.118416,0,0.119176,16403.6,-28713.9,0,33069.2,113447
step02_gravity_refstate-crust.xmf,768,-3.12665e-07,2.88953e-06,0,-2.21341e-06,-8.98553e+08,-8.98333e+08,-8.98531e+08,-151840,0.0166809,0.115563,0,0.116761,13795.5,-32715.9,0,35505.6,151840
step02_gravity_refstate-crust.xmf,769,-2.97855e-07,2.8195e-06,0,-2.00952e-06,-8.63087e+08,-8.62874e+08,-8.63067e+08,-137853,0.0155831,0.116508,0,0.117546,14572.5,-31424.7,0,34639.2,137853
step02_gravity_refstate-crust.xmf,770,-2.96106e-07,2.75977e-06,0,-1.82664e-06,-8.27562e+08,-8.27353e+08,-8.27542e+08,-125307,0.0145279,0.117345,0,0.11824,15440.4,-30131.3,0,33857.1,125307
step02_gravity_refstate-crust.xmf,771,-3.269e-07,1.37469e-06,0,-5.39982e-07,-3.5143e+08,-3.51313e+08,-3.51408e+08,-37042.8,0.00488449,0.131405,0,0.131495,28127.4,-12795,0,30900.8,37042.8
step02_gravity_refstate-crust.xmf,772,-3.13528e-07,1.57296e-06,0,-6.51011e-07,-4.07413e+08,-4.07283e+08,-4.07391e+08,-44659.4,0.00555,0.130058,0,0.130177,26608,-14833.4,0,30463.3,44659.4
step02_gravity_refstate-crust.xmf,773,-3.76595e-07,1.46747e-06,0,-4.38488e-07,-3.63402e+08,-3.63276e+08,-3.63376e+08,-30080.3,0.00398065,0.128353,0,0.128415,30740.9,-13230.8,0,33467.3,30080.3
step02_gravity_refstate-crust.xmf,774,-4.6361e-07,1.05442e-06,0,-1.02627e-07,-2.47285e+08,-2.47181e+08,-2.47253e+08,-7040.18,0.00122884,0.130153,0,0.130159,37375,-9002.42,0,38443.9,7040.18
step02_gravity_refstate-crust.xmf,775,-3.09819e-07,1.77049e-06,0,-7.61113e-07,-4.63456e+08,-4.63314e+08,-4.63435e+08,-52212.4,0.00632439,0.128409,0,0.128565,25184.8,-16874.1,0,30315.1,52212.4
step02_gravity_refstate-crust.xmf,776,-8.27757e-07,3.71475e-06,0,-3.08504e-06,-1.03671e+09,-1.0364e+09,-1.03666e+09,-211634,0.0210269,0.106123,0,0.108186,12261.6,-37745,0,39686.7,211634
step02_gravity_refstate-crust.xmf,777,-6.59679e-07,3.48097e-06,0,-2.45832e-06,-9.68975e+08,-9.68691e+08,-9.68929e+08,-168641,0.0182931,0.107046,0,0.108598,13890.6,-35279.2,0,37915.3,168641
step02_gravity_refstate-crust.xmf,778,-7.32817e-07,3.5878e-06,0,-2.7395e-06,-1.00202e+09,-1.00172e+09,-1.00197e+09,-187930,0.0195591,0.106426,0,0.108208,13096.4,-36482.1,0,38761.6,187930
step02_gravity_refstate-crust.xmf,779,-2.84529e-07,2.59342e-06,0,-1.51371e-06,-7.51324e+08,-7.51127e+08,-7.51305e+08,-103840,0.0124756,0.119805,0,0.120453,17237.3,-27355.6,0,32333.5,103840
step02_gravity_refstate-crust.xmf,780,-5.90649e-07,3.35893e-06,0,-2.2251e-06,-9.34839e+08,-9.34569e+08,-9.34799e+08,-152642,0.0171313,0.108203,0,0.109551,14645.1,-34036.6,0,37053.6,152642
step02_gravity_refstate-crust.xmf,781,-4.33174e-07,1.30048e-06,0,-2.17046e-07,-3.12456e+08,-3.12337e+08,-3.12426e+08,-14889.3,0.00215492,0.128097,0,0.128115,35172.4,-11375.5,0,36966.2,14889.3
step02_gravity_refstate-crust.xmf,782,-4.20256e-07,1.55221e-06,0,-3.3158e-07,-3.76724e+08,-3.76589e+08,-3.76696e+08,-22746.4,0.00298219,0.125763,0,0.125798,33281.6,-13715.7,0,35997,22746.4
step02_gravity_refstate-crust.xmf,783,-4.56715e-07,1.17231e-06,0,9.68692e-10,-2.76957e+08,-2.76845e+08,-2.76926e+08,66.4523,7.19063e-20,0.128637,0,0.128637,40000,-10082.9,0,41251.2,66.4523
step02_gravity_refstate-crust.xmf,784,-3.12138e-07,1.96288e-06,0,-8.70729e-07,-5.18802e+08,-5.18646e+08,-5.18781e+08,-59732,0.00720358,0.126515,0,0.12672,23842,-18889.3,0,30417.9,59732
step02_gravity_refstate-crust.xmf,785,-1.06086e-06,4.03218e-06,0,-3.36387e-06,-1.07113e+09,-1.07078e+09,-1.07106e+09,-230762,0.0221668,0.10321,0,0.105563,11928.8,-38997.5,0,40781.2,230762
step02_gravity_refstate-crust.xmf,786,-3.16742e-07,2.13786e-06,0,-9.81675e-07,-5.7111e+08,-5.70942e+08,-5.71088e+08,-67342.9,0.00815714,0.124619,0,0.124886,22548.5,-20793.9,0,30672.8,67342.9
step02_gravity_refstate-crust.xmf,787,-3.25914e-07,2.30601e-06,0,-1.09634e-06,-6.22337e+08,-6.22156e+08,-6.22315e+08,-75208.7,0.00917397,0.122569,0,0.122912,21336.6,-22659.1,0,31123.7,75208.7
step02_gravity_refstate-crust.xmf,788,-3.40596e-07,2.46975e-06,0,-1.21714e-06,-6.72654e+08,-6.72461e+08,-6.7263e+08,-83496.1,0.0102423,0.120365,0,0.1208,20206.7,-24491.1,0,31751,83496.1
step02_gravity_refstate-crust.xmf,789,-3.54954e-07,2.6344e-06,0,-1.37509e-06,-7.27024e+08,-7.26819e+08,-7.26999e+08,-94331.4,0.0115382,0.118235,0,0.118796,18852.3,-26470.7,0,32497.8,94331.4
step02_gravity_refstate-crust.xmf,790,-4.31828e-07,2.88511e-06,0,-1.48604e-06,-7.81434e+08,-7.81207e+08,-7.81405e+08,-101942,0.012578,0.113859,0,0.114551,18402.4,-28451.6,0,33884.2,101942
step02_gravity_refstate-crust.xmf,791,-4.71407e-07,3.02915e-06,0,-1.63588e-06,-8.2354e+08,-8.233e+08,-8.23508e+08,-112221,0.0136709,0.111827,0,0.11266,17465.9,-29984.6,0,34700.6,112221
step02_gravity_refstate-crust.xmf,792,-5.37566e-07,3.24407e-06,0,-2.01831e-06,-8.99985e+08,-8.99725e+08,-8.99948e+08,-138456,0.0160123,0.109438,0,0.110603,15445.5,-32767.7,0,36225.5,138456
step02_gravity_refstate-crust.xmf,793,-5.05342e-07,3.14769e-06,0,-1.81644e-06,-8.63475e+08,-8.63225e+08,-8.6344e+08,-124608,0.0148412,0.110397,0,0.11139,16436.5,-31438.5,0,35475.9,124608
step02_gravity_refstate-crust.xmf,794,-3.71069e-07,1.65111e-06,0,-5.51403e-07,-4.13608e+08,-4.13469e+08,-4.13583e+08,-37826.3,0.00473414,0.127025,0,0.127113,29071.4,-15058.9,0,32740.1,37826.3
step02_gravity_refstate-crust.xmf,795,-3.75918e-07,1.87293e-06,0,-6.54525e-07,-4.71127e+08,-4.70973e+08,-4.71101e+08,-44900.4,0.0055213,0.124822,0,0.124944,27678.3,-17153.2,0,32562.6,44900.4
step02_gravity_refstate-crust.xmf,796,-4.16658e-07,1.78921e-06,0,-4.37744e-07,-4.35873e+08,-4.35721e+08,-4.35844e+08,-30029.3,0.00379609,0.123333,0,0.123392,31630.6,-15869.5,0,35388.4,30029.3
step02_gravity_refstate-crust.xmf,797,-4.48723e-07,1.38295e-06,0,-1.0629e-07,-3.29815e+08,-3.29689e+08,-3.29784e+08,-7291.5,0.00103052,0.126415,0,0.126419,37717.8,-12007.6,0,39583,7291.5
step02_gravity_refstate-crust.xmf,798,-3.74916e-07,2.06191e-06,0,-7.64032e-07,-5.22869e+08,-5.22702e+08,-5.22843e+08,-52412.6,0.00645301,0.123031,0,0.1232,26119.8,-19037.2,0,32321.2,52412.6
step02_gravity_refstate-crust.xmf,799,-1.26477e-06,4.40362e-06,0,-2.96212e-06,-1.06773e+09,-1.06734e+09,-1.06764e+09,-203201,0.0207436,0.0969019,0,0.0990973,13100.7,-38873.3,0,41021.5,203201
step02_gravity_refstate-crust.xmf,800,-1.08915e-06,4.16892e-06,0,-2.68173e-06,-1.03596e+09,-1.03559e+09,-1.03588e+09,-183966,0.0195938,0.0984581,0,0.100389,13742.2,-37717,0,40142.5,183966
step02_gravity_refstate-crust.xmf,801,-8.59785e-07,3.82993e-06,0,-2.1858e-06,-9.71191e+08,-9.70869e+08,-9.71132e+08,-149946,0.0172197,0.100645,0,0.102108,15353.7,-35359.6,0,38549.2,149946
step02_gravity_refstate-crust.xmf,802,-9.65534e-07,3.99312e-06,0,-2.42129e-06,-1.00424e+09,-1.0039e+09,-1.00417e+09,-166101,0.018381,0.0994281,0,0.101113,14531.3,-36562.5,0,39344.3,166101
step02_gravity_refstate-crust.xmf,803,-7.72362e-07,3.67704e-06,0,-1.97677e-06,-9.37183e+08,-9.36877e+08,-9.3713e+08,-135606,0.0160968,0.101998,0,0.10326,16219.6,-34121.6,0,37780.5,135606
step02_gravity_refstate-crust.xmf,804,-4.44578e-07,1.60718e-06,0,-2.12782e-07,-3.85104e+08,-3.84963e+08,-3.85074e+08,-14596.8,0.00191483,0.123999,0,0.124014,35772.2,-14020.8,0,38421.8,14596.8
step02_gravity_refstate-crust.xmf,805,-4.51755e-07,1.8653e-06,0,-3.12552e-07,-4.47083e+08,-4.46924e+08,-4.47052e+08,-21441.1,0.00271617,0.120855,0,0.120885,34170.3,-16277.6,0,37849.3,21441.1
step02_gravity_refstate-crust.xmf,806,-4.53587e-07,1.5236e-06,0,3.63519e-10,-3.62788e+08,-3.62652e+08,-3.62756e+08,24.9374,6.18362e-20,0.124424,0,0.124424,40000,-13208.2,0,42124.3,24.9374
step02_gravity_refstate-crust.xmf,807,-3.88789e-07,2.24696e-06,0,-8.7298e-07,-5.73768e+08,-5.73588e+08,-5.73742e+08,-59886.4,0.00740659,0.120949,0,0.121176,24754.8,-20890.5,0,32391.5,59886.4
step02_gravity_refstate-crust.xmf,808,-4.08738e-07,2.43995e-06,0,-9.81127e-07,-6.25861e+08,-6.25665e+08,-6.25833e+08,-67305.3,0.00842087,0.118478,0,0.118777,23501.3,-22787.2,0,32734.8,67305.3
step02_gravity_refstate-crust.xmf,809,-4.34184e-07,2.62567e-06,0,-1.09272e-06,-6.76061e+08,-6.75851e+08,-6.76031e+08,-74960.5,0.0094747,0.115959,0,0.116346,22304.2,-24615,0,33217.1,74960.5
step02_gravity_refstate-crust.xmf,810,-1.42514e-06,4.74728e-06,0,-2.53003e-06,-1.06829e+09,-1.06787e+09,-1.0682e+09,-173560,0.0189986,0.0899041,0,0.0918896,14401.1,-38893.9,0,41474.4,173560
step02_gravity_refstate-crust.xmf,811,-4.70108e-07,2.81865e-06,0,-1.21057e-06,-7.26559e+08,-7.26333e+08,-7.26527e+08,-83045.4,0.0105727,0.113176,0,0.113669,21177.9,-26453.6,0,33886.5,83045.4
step02_gravity_refstate-crust.xmf,812,-5.23182e-07,3.02965e-06,0,-1.33175e-06,-7.77529e+08,-7.77285e+08,-7.77493e+08,-91357.8,0.0116713,0.109936,0,0.110554,20187.3,-28309.3,0,34769.9,91357.8
step02_gravity_refstate-crust.xmf,813,-5.85569e-07,3.22868e-06,0,-1.45594e-06,-8.23707e+08,-8.23445e+08,-8.23667e+08,-99877.8,0.0127174,0.106922,0,0.107676,19273,-29990.5,0,35649.4,99877.8
step02_gravity_refstate-crust.xmf,814,-6.43649e-07,3.39159e-06,0,-1.60906e-06,-8.64604e+08,-8.64327e+08,-8.6456e+08,-110382,0.0138311,0.104865,0,0.105773,18223.4,-31479.4,0,36373.7,110382
step02_gravity_refstate-crust.xmf,815,-7.038e-07,3.53737e-06,0,-1.78484e-06,-9.02265e+08,-9.01974e+08,-9.02216e+08,-122440,0.0149725,0.103312,0,0.104391,17177.9,-32850.5,0,37070.7,122440
step02_gravity_refstate-crust.xmf,816,-4.15629e-07,2.11043e-06,0,-6.66011e-07,-5.22301e+08,-5.22128e+08,-5.22273e+08,-45688.4,0.00569182,0.120707,0,0.120842,28027.7,-19016.5,0,33870,45688.4
step02_gravity_refstate-crust.xmf,817,-4.32131e-07,2.05972e-06,0,-5.57436e-07,-5.02506e+08,-5.02335e+08,-5.02476e+08,-38240.1,0.0047772,0.120175,0,0.12027,29928,-18295.7,0,35077.3,38240.1
step02_gravity_refstate-crust.xmf,818,-4.66727e-07,2.13567e-06,0,-4.15474e-07,-5.10888e+08,-5.1071e+08,-5.10856e+08,-28501.5,0.0036173,0.117252,0,0.117308,32572,-18600.8,0,37509,28501.5
step02_gravity_refstate-crust.xmf,819,-4.55361e-07,1.65727e-06,0,-9.86135e-08,-3.94543e+08,-3.94398e+08,-3.94512e+08,-6764.88,0.000890025,0.122764,0,0.122767,38059.4,-14364.5,0,40679.9,6764.88
step02_gravity_refstate-crust.xmf,820,-4.35701e-07,2.3228e-06,0,-7.55879e-07,-5.74797e+08,-5.74608e+08,-5.74767e+08,-51853.3,0.00653744,0.117891,0,0.118072,26877.8,-20927.9,0,34064.6,51853.3
step02_gravity_refstate-crust.xmf,821,-1.24692e-06,4.49397e-06,0,-2.30878e-06,-1.03767e+09,-1.03727e+09,-1.03758e+09,-158382,0.0180182,0.0916867,0,0.0934404,15102.6,-37779.2,0,40686.1,158382
step02_gravity_refstate-crust.xmf,822,-9.97059e-07,4.11606e-06,0,-1.88866e-06,-9.7538e+08,-9.75029e+08,-9.75311e+08,-129562,0.0158388,0.0941877,0,0.0955101,16878.4,-35512,0,39319,129562
step02_gravity_refstate-crust.xmf,823,-1.12187e-06,4.30937e-06,0,-2.09066e-06,-1.00824e+09,-1.00787e+09,-1.00816e+09,-143419,0.0169173,0.0926766,0,0.094208,15966.2,-36708.1,0,40030,143419
step02_gravity_refstate-crust.xmf,824,-8.8991e-07,3.92727e-06,0,-1.70332e-06,-9.40325e+08,-9.39995e+08,-9.40264e+08,-116848,0.0147764,0.0959833,0,0.097114,17841.5,-34236,0,38606,116848
step02_gravity_refstate-crust.xmf,825,-4.68564e-07,1.89209e-06,0,-1.72253e-07,-4.49249e+08,-4.49087e+08,-4.49216e+08,-11816.6,0.00150688,0.119543,0,0.119553,36806.8,-16356.4,0,40277.5,11816.6
step02_gravity_refstate-crust.xmf,826,-4.90813e-07,2.20221e-06,0,-2.56179e-07,-5.20072e+08,-5.19887e+08,-5.20038e+08,-17573.9,0.00225843,0.114792,0,0.114814,35451.6,-18935.2,0,40191.5,17573.9
step02_gravity_refstate-crust.xmf,827,-4.72181e-07,1.8823e-06,0,1.01956e-09,-4.4576e+08,-4.45599e+08,-4.45728e+08,69.9421,7.037e-20,0.11928,0,0.11928,40000,-16229.4,0,43167,69.9421
step02_gravity_refstate-crust.xmf,828,-4.65881e-07,2.54056e-06,0,-8.54211e-07,-6.28651e+08,-6.28445e+08,-6.28619e+08,-58598.9,0.00750797,0.114839,0,0.115084,25648.4,-22888.7,0,34376.4,58598.9
step02_gravity_refstate-crust.xmf,829,-4.68536e-07,2.36042e-06,0,-6.38629e-07,-5.72208e+08,-5.72014e+08,-5.72176e+08,-43809.9,0.00558815,0.11561,0,0.115745,28934.9,-20833.6,0,35654.8,43809.9
step02_gravity_refstate-crust.xmf,830,-4.99522e-07,2.75017e-06,0,-9.52937e-07,-6.80003e+08,-6.7978e+08,-6.79969e+08,-65371.5,0.00851539,0.111789,0,0.112113,24444,-24758.4,0,34792,65371.5
step02_gravity_refstate-crust.xmf,831,-5.40479e-07,2.95514e-06,0,-1.05447e-06,-7.29275e+08,-7.29035e+08,-7.29238e+08,-72336.6,0.00954181,0.10874,0,0.109158,23274.3,-26552.4,0,35309,72336.6
step02_gravity_refstate-crust.xmf,832,-1.49325e-06,4.97489e-06,0,-2.11496e-06,-1.06863e+09,-1.06819e+09,-1.06853e+09,-145086,0.0170817,0.0835899,0,0.0853174,15713.4,-38906.2,0,41959.5,145086
step02_gravity_refstate-crust.xmf,833,-5.93815e-07,3.16838e-06,0,-1.15776e-06,-7.78058e+08,-7.778e+08,-7.78017e+08,-79422.6,0.0105643,0.105472,0,0.106,22179.3,-28328.5,0,35978.1,79422.6
step02_gravity_refstate-crust.xmf,834,-6.61004e-07,3.38794e-06,0,-1.2656e-06,-8.25561e+08,-8.25283e+08,-8.25516e+08,-86820.3,0.0115731,0.102112,0,0.102766,21136,-30057.9,0,36745.2,86820.3
step02_gravity_refstate-crust.xmf,835,-7.34821e-07,3.58906e-06,0,-1.39105e-06,-8.68482e+08,-8.68185e+08,-8.68431e+08,-95426.3,0.012609,0.0993554,0,0.100152,20045.8,-31620.5,0,37439.2,95426.3
step02_gravity_refstate-crust.xmf,836,-8.07019e-07,3.75539e-06,0,-1.54369e-06,-9.05318e+08,-9.05005e+08,-9.05263e+08,-105897,0.0137025,0.0976118,0,0.0985689,18895.9,-32961.6,0,37993.7,105897
step02_gravity_refstate-crust.xmf,837,-4.91148e-07,2.3938e-06,0,-5.07691e-07,-5.71111e+08,-5.70913e+08,-5.71077e+08,-34827.6,0.00450034,0.113424,0,0.113513,31188.9,-20793.6,0,37484.9,34827.6
step02_gravity_refstate-crust.xmf,838,-5.09495e-07,2.44601e-06,0,-3.71509e-07,-5.76929e+08,-5.76726e+08,-5.76894e+08,-25485.5,0.00334262,0.111062,0,0.111113,33538.9,-21005.4,0,39573.8,25485.5
step02_gravity_refstate-crust.xmf,839,-4.99268e-07,2.60376e-06,0,-7.22363e-07,-6.28984e+08,-6.28771e+08,-6.2895e+08,-49554.1,0.00647919,0.111863,0,0.11205,27781.3,-22900.8,0,36003.5,49554.1
step02_gravity_refstate-crust.xmf,840,-1.32276e-06,4.708e-06,0,-1.99887e-06,-1.04013e+09,-1.03971e+09,-1.04004e+09,-137123,0.0165389,0.086269,0,0.08784,16253,-37868.8,0,41209.2,137123
step02_gravity_refstate-crust.xmf,841,-1.05317e-06,4.29069e-06,0,-1.58979e-06,-9.75836e+08,-9.7547e+08,-9.75764e+08,-109059,0.0142438,0.0887308,0,0.0898668,18437.4,-35528.7,0,40027.8,109059
step02_gravity_refstate-crust.xmf,842,-1.23328e-06,4.62142e-06,0,-1.73798e-06,-1.01956e+09,-1.01915e+09,-1.01947e+09,-119226,0.0151451,0.085074,0,0.0864116,17450.6,-37120.1,0,41017.4,119226
step02_gravity_refstate-crust.xmf,843,-9.47026e-07,4.09884e-06,0,-1.44031e-06,-9.43827e+08,-9.43481e+08,-9.43762e+08,-98805.4,0.0132924,0.0904465,0,0.0914181,19463.4,-34363.5,0,39492.7,98805.4
step02_gravity_refstate-crust.xmf,844,-5.17834e-07,2.47622e-06,0,-2.47067e-07,-5.80585e+08,-5.8038e+08,-5.8055e+08,-16948.8,0.00224764,0.109534,0,0.109557,35684.4,-21138.5,0,41475.5,16948.8
step02_gravity_refstate-crust.xmf,845,-4.9224e-07,2.14187e-06,0,-1.17161e-07,-5.04595e+08,-5.04414e+08,-5.04561e+08,-8037.22,0.0010277,0.115188,0,0.115192,37915.4,-18371.6,0,42131.9,8037.22
step02_gravity_refstate-crust.xmf,846,-5.37757e-07,2.83481e-06,0,-8.08793e-07,-6.82412e+08,-6.82181e+08,-6.82375e+08,-55483.2,0.00742668,0.108216,0,0.108471,26576.9,-24846.1,0,36382.2,55483.2
step02_gravity_refstate-crust.xmf,847,-5.22916e-07,2.6531e-06,0,-5.89422e-07,-6.30418e+08,-6.30201e+08,-6.30383e+08,-40434.3,0.00538104,0.1092,0,0.109333,29941.2,-22953,0,37726.9,40434.3
step02_gravity_refstate-crust.xmf,848,-5.80895e-07,3.05637e-06,0,-8.9574e-07,-7.32688e+08,-7.32439e+08,-7.32648e+08,-61447.8,0.00838991,0.104686,0,0.105022,25372.1,-26676.6,0,36815.5,61447.8
step02_gravity_refstate-crust.xmf,849,-6.33705e-07,3.2782e-06,0,-9.82266e-07,-7.81124e+08,-7.80856e+08,-7.81081e+08,-67383.5,0.00933928,0.101128,0,0.101558,24207.2,-28440.1,0,37347.4,67383.5
step02_gravity_refstate-crust.xmf,850,-1.47744e-06,5.08293e-06,0,-1.73927e-06,-1.06654e+09,-1.06609e+09,-1.06644e+09,-119314,0.0151505,0.0784039,0,0.0798543,17031.9,-38830.3,0,42401.4,119314
step02_gravity_refstate-crust.xmf,851,-6.99496e-07,3.50659e-06,0,-1.06858e-06,-8.28296e+08,-8.28007e+08,-8.28248e+08,-73304.7,0.0102555,0.0974741,0,0.0980121,23092.9,-30157.5,0,37983.7,73304.7
step02_gravity_refstate-crust.xmf,852,-7.80354e-07,3.73782e-06,0,-1.16825e-06,-8.73881e+08,-8.73571e+08,-8.73827e+08,-80141.6,0.0112031,0.094012,0,0.0946772,21925.1,-31817.1,0,38639.9,80141.6
step02_gravity_refstate-crust.xmf,853,-8.65489e-07,3.92919e-06,0,-1.30294e-06,-9.11722e+08,-9.11393e+08,-9.11662e+08,-89382,0.0122759,0.0919273,0,0.0927433,20624.6,-33194.7,0,39080.2,89382
step02_gravity_refstate-crust.xmf,854,-1.06446e-06,4.43008e-06,0,-1.2913e-06,-9.80694e+08,-9.80318e+08,-9.80621e+08,-88583.3,0.0124733,0.0829406,0,0.0838733,20081.5,-35705.7,0,40965.4,88583.3
step02_gravity_refstate-crust.xmf,855,-5.36966e-07,2.70445e-06,0,-4.52519e-07,-6.35528e+08,-6.35306e+08,-6.35492e+08,-31042.8,0.00420586,0.106575,0,0.106658,32194.5,-23139.1,0,39647.2,31042.8
step02_gravity_refstate-crust.xmf,856,-5.43831e-07,2.74648e-06,0,-3.30958e-07,-6.4158e+08,-6.41354e+08,-6.41542e+08,-22703.7,0.00312113,0.104507,0,0.104553,34232.2,-23359.4,0,41442.8,22703.7
step02_gravity_refstate-crust.xmf,857,-5.17861e-07,2.43509e-06,0,-1.38524e-07,-5.69913e+08,-5.6971e+08,-5.69877e+08,-9502.73,0.00125208,0.109823,0,0.10983,37582,-20749.9,0,42929.8,9502.73
step02_gravity_refstate-crust.xmf,858,-5.02211e-07,2.24071e-06,0,4.34217e-10,-5.26093e+08,-5.25905e+08,-5.26058e+08,29.7873,8.62644e-20,0.113251,0,0.113251,40000,-19154.4,0,44349.6,29.7873
step02_gravity_refstate-crust.xmf,859,-5.56503e-07,2.89386e-06,0,-6.66243e-07,-6.84897e+08,-6.8466e+08,-6.84859e+08,-45704.2,0.00626686,0.105096,0,0.105283,28718,-24936.6,0,38033.6,45704.2
step02_gravity_refstate-crust.xmf,860,-1.20896e-06,4.7095e-06,0,-1.37745e-06,-1.01774e+09,-1.01733e+09,-1.01765e+09,-94493.2,0.0130624,0.0795176,0,0.0805833,19172.7,-37054.2,0,41720.5,94493.2
step02_gravity_refstate-crust.xmf,861,-9.60435e-07,4.21393e-06,0,-1.21887e-06,-9.48522e+08,-9.48167e+08,-9.48456e+08,-83614.8,0.0119154,0.085785,0,0.0866086,20889.2,-34534.5,0,40360.8,83614.8
step02_gravity_refstate-crust.xmf,862,-5.38205e-07,2.70343e-06,0,-2.26522e-07,-6.30576e+08,-6.30353e+08,-6.30539e+08,-15539.4,0.00213054,0.104665,0,0.104687,36038.5,-22958.8,0,42730.3,15539.4
step02_gravity_refstate-crust.xmf,863,-5.9777e-07,3.12804e-06,0,-7.38421e-07,-7.36425e+08,-7.36169e+08,-7.36384e+08,-50655.7,0.0071496,0.101036,0,0.101288,27504.1,-26812.7,0,38410.9,50655.7
step02_gravity_refstate-crust.xmf,864,-5.65377e-07,2.94832e-06,0,-5.19732e-07,-6.90058e+08,-6.89817e+08,-6.90019e+08,-35653.6,0.00501741,0.102068,0,0.102192,30972.3,-25124.5,0,39881.4,35653.6
step02_gravity_refstate-crust.xmf,865,-6.46064e-07,3.35551e-06,0,-8.10125e-07,-7.85061e+08,-7.84786e+08,-7.85016e+08,-55574.6,0.00802378,0.0971116,0,0.0974425,26282.2,-28583.5,0,38830,55574.6
step02_gravity_refstate-crust.xmf,866,-7.05451e-07,3.58636e-06,0,-8.79276e-07,-8.3195e+08,-8.31655e+08,-8.31901e+08,-60318.3,0.0088602,0.0931919,0,0.0936121,25085.9,-30290.7,0,39329.7,60318.3
step02_gravity_refstate-crust.xmf,867,-1.38558e-06,5.04873e-06,0,-1.42565e-06,-1.05676e+09,-1.05632e+09,-1.05667e+09,-97799.9,0.0133434,0.0750632,0,0.07624,18425.3,-38474.7,0,42659.1,97799.9
step02_gravity_refstate-crust.xmf,868,-7.81158e-07,3.83178e-06,0,-9.45938e-07,-8.78444e+08,-8.78128e+08,-8.78391e+08,-64891.4,0.00964736,0.0891246,0,0.0896453,23910.9,-31983.4,0,39933.3,64891.4
step02_gravity_refstate-crust.xmf,869,-8.88453e-07,4.1162e-06,0,-1.03818e-06,-9.27519e+08,-9.27176e+08,-9.27458e+08,-71218.9,0.0105769,0.0850477,0,0.0857029,22494.5,-33770,0,40576.1,71218.9
step02_gravity_refstate-crust.xmf,870,-1.14315e-06,4.74546e-06,0,-1.0714e-06,-1.01854e+09,-1.01814e+09,-1.01846e+09,-73498,0.0110887,0.0745266,0,0.075347,20839.1,-37083.7,0,42537.9,73498
step02_gravity_refstate-crust.xmf,871,-1.00863e-06,4.44687e-06,0,-1.03667e-06,-9.77759e+08,-9.77384e+08,-9.7769e+08,-71115.9,0.0107653,0.0789657,0,0.0796961,21762.2,-35599.1,0,41723.9,71115.9
step02_gravity_refstate-crust.xmf,872,-5.68072e-07,3.02004e-06,0,-3.65972e-07,-7.02503e+08,-7.02257e+08,-7.02464e+08,-25105.7,0.00363719,0.0986318,0,0.0986989,33446.9,-25577.7,0,42106,25105.7
step02_gravity_refstate-crust.xmf,873,-5.55848e-07,2.96145e-06,0,-2.3585e-07,-6.88395e+08,-6.88154e+08,-6.88357e+08,-16179.3,0.00233251,0.0988231,0,0.0988507,35762.1,-25064,0,43670.8,16179.3
step02_gravity_refstate-crust.xmf,874,-5.42642e-07,2.75908e-06,0,-1.04849e-07,-6.41841e+08,-6.41614e+08,-6.41803e+08,-7192.66,0.000998195,0.102893,0,0.102898,38153.5,-23368.9,0,44741.4,7192.66
step02_gravity_refstate-crust.xmf,875,-5.30715e-07,2.59109e-06,0,-1.0452e-11,-6.03998e+08,-6.03783e+08,-6.03961e+08,-0.717005,6.89662e-20,0.106398,0,0.106398,40000,-21991,0,45646.5,0.717005
step02_gravity_refstate-crust.xmf,876,-5.9774e-07,3.17561e-06,0,-5.871e-07,-7.40468e+08,-7.40209e+08,-7.40427e+08,-40275,0.00585078,0.0978051,0,0.0979799,29692.1,-26960,0,40105.6,40275
step02_gravity_refstate-crust.xmf,877,-1.30079e-06,5.07022e-06,0,-1.09806e-06,-1.05781e+09,-1.05737e+09,-1.05772e+09,-75326.6,0.0112797,0.0700446,0,0.070947,19943.2,-38513.2,0,43370.5,75326.6
step02_gravity_refstate-crust.xmf,878,-6.37709e-07,3.41196e-06,0,-6.43678e-07,-7.90708e+08,-7.9043e+08,-7.90664e+08,-44156.3,0.00664758,0.0933246,0,0.0935611,28430.6,-28789.2,0,40461.3,44156.3
step02_gravity_refstate-crust.xmf,879,-5.8782e-07,3.22142e-06,0,-4.42487e-07,-7.4755e+08,-7.47289e+08,-7.4751e+08,-30354.6,0.00455663,0.0947628,0,0.0948723,31883.5,-27217.9,0,41921,30354.6
step02_gravity_refstate-crust.xmf,880,-6.87148e-07,3.63375e-06,0,-7.0418e-07,-8.36207e+08,-8.3591e+08,-8.36159e+08,-48306.7,0.00744454,0.0893384,0,0.0896481,27109.8,-30445.8,0,40766.2,48306.7
step02_gravity_refstate-crust.xmf,881,-7.48148e-07,3.87242e-06,0,-7.48282e-07,-8.82048e+08,-8.81731e+08,-8.81997e+08,-51332.1,0.00809353,0.0849568,0,0.0853414,25920.9,-32114.8,0,41270.5,51332.1
step02_gravity_refstate-crust.xmf,882,-8.27298e-07,4.13254e-06,0,-7.86262e-07,-9.28011e+08,-9.27671e+08,-9.27955e+08,-53937.6,0.00866024,0.0803809,0,0.0808461,24723.3,-33788.2,0,41867.5,53937.6
step02_gravity_refstate-crust.xmf,883,-1.17261e-06,5.02958e-06,0,-8.08614e-07,-1.05832e+09,-1.05789e+09,-1.05824e+09,-55470.9,0.00924264,0.0655522,0,0.0662006,21577.9,-38532.2,0,44162.6,55470.9
step02_gravity_refstate-crust.xmf,884,-1.03799e-06,4.71336e-06,0,-8.11812e-07,-1.01731e+09,-1.01692e+09,-1.01724e+09,-55690.3,0.00921242,0.0704452,0,0.071045,22582.6,-37039.3,0,43380.7,55690.3
step02_gravity_refstate-crust.xmf,885,-9.23483e-07,4.4152e-06,0,-8.06367e-07,-9.73748e+08,-9.73382e+08,-9.73685e+08,-55316.8,0.00903222,0.0754451,0,0.0759838,23615.9,-35453.4,0,42598.8,55316.8
step02_gravity_refstate-crust.xmf,886,-5.65356e-07,3.21534e-06,0,-2.32892e-07,-7.46399e+08,-7.4614e+08,-7.4636e+08,-15976.4,0.00245247,0.0923984,0,0.0924309,35553.8,-27176.1,0,44750.5,15976.4
step02_gravity_refstate-crust.xmf,887,-5.53976e-07,3.09567e-06,0,-1.15668e-07,-7.188e+08,-7.18549e+08,-7.18762e+08,-7934.84,0.00118961,0.0947577,0,0.0947651,37837.6,-26171.2,0,46006.7,7934.84
step02_gravity_refstate-crust.xmf,888,-5.48319e-07,2.92675e-06,0,-4.42796e-10,-6.79683e+08,-6.79445e+08,-6.79645e+08,-30.3758,8.23366e-20,0.098795,0,0.098795,40000,-24746.9,0,47036.2,30.3758
step02_gravity_refstate-crust.xmf,889,-6.15639e-07,3.44578e-06,0,-4.89442e-07,-7.96903e+08,-7.96624e+08,-7.9686e+08,-33575.7,0.0052386,0.0899408,0,0.0900932,30669,-29014.9,0,42219.1,33575.7
step02_gravity_refstate-crust.xmf,890,-5.78362e-07,3.27107e-06,0,-3.312e-07,-7.5875e+08,-7.58486e+08,-7.5871e+08,-22720.3,0.00350278,0.0920226,0,0.0920893,33689.2,-27625.8,0,43567.7,22720.3
step02_gravity_refstate-crust.xmf,891,-6.49195e-07,3.67374e-06,0,-5.28402e-07,-8.44519e+08,-8.44222e+08,-8.44474e+08,-36248.4,0.00590856,0.0852245,0,0.085429,29361.5,-30748.6,0,42515.6,36248.4
step02_gravity_refstate-crust.xmf,892,-5.84008e-07,3.47893e-06,0,-3.49838e-07,-8.05557e+08,-8.05278e+08,-8.05516e+08,-23998.9,0.00392031,0.0868963,0,0.0869847,32836.1,-29330.1,0,44028,23998.9
step02_gravity_refstate-crust.xmf,893,-7.00285e-07,3.89059e-06,0,-5.79267e-07,-8.87363e+08,-8.87048e+08,-8.87315e+08,-39737.7,0.00663539,0.0812233,0,0.0814939,27885.1,-32308.5,0,42678.1,39737.7
step02_gravity_refstate-crust.xmf,894,-7.54387e-07,4.12654e-06,0,-5.95094e-07,-9.3119e+08,-9.30855e+08,-9.31138e+08,-40823.4,0.00704847,0.0765335,0,0.0768574,26716,-33904.2,0,43165.3,40823.4
step02_gravity_refstate-crust.xmf,895,-8.22695e-07,4.3772e-06,0,-5.95295e-07,-9.74592e+08,-9.74235e+08,-9.74536e+08,-40837.2,0.00728696,0.0716188,0,0.0719885,25597.5,-35484.4,0,43753.6,40837.2
step02_gravity_refstate-crust.xmf,896,-1.02445e-06,4.94875e-06,0,-5.73341e-07,-1.05855e+09,-1.05814e+09,-1.05848e+09,-39331.2,0.00739806,0.061766,0,0.0622075,23249.7,-38541,0,45010.6,39331.2
step02_gravity_refstate-crust.xmf,897,-9.10298e-07,4.6474e-06,0,-5.87953e-07,-1.01695e+09,-1.01657e+09,-1.01688e+09,-40333.6,0.00739996,0.0666919,0,0.0671011,24450.7,-37026.5,0,44371.1,40333.6
step02_gravity_refstate-crust.xmf,898,-5.61217e-07,3.47368e-06,0,-2.34557e-07,-8.07587e+08,-8.0731e+08,-8.07548e+08,-16090.6,0.00267156,0.085217,0,0.0852589,35020.6,-29404.1,0,45727.9,16090.6
step02_gravity_refstate-crust.xmf,899,-5.37526e-07,3.42816e-06,0,-1.12476e-07,-7.98652e+08,-7.9838e+08,-7.98615e+08,-7715.84,0.00129406,0.0853377,0,0.0853476,37572,-29078.8,0,47510.4,7715.84
step02_gravity_refstate-crust.xmf,900,-5.46906e-07,3.24127e-06,0,-1.03299e-09,-7.53355e+08,-7.53095e+08,-7.53318e+08,-70.8628,9.01797e-20,0.0905222,0,0.0905222,40000,-27429.4,0,48501.3,70.8628
step02_gravity_refstate-crust.xmf,901,-6.02592e-07,3.6962e-06,0,-3.78498e-07,-8.54387e+08,-8.54092e+08,-8.54346e+08,-25965,0.00443798,0.0815266,0,0.0816473,31638.7,-31108.1,0,44370.3,25965
step02_gravity_refstate-crust.xmf,902,-6.30601e-07,3.95181e-06,0,-3.91015e-07,-9.09264e+08,-9.0895e+08,-9.09221e+08,-26823.6,0.00490075,0.0752857,0,0.075445,30208.3,-33106.2,0,44817,26823.6
step02_gravity_refstate-crust.xmf,903,-5.48278e-07,3.70083e-06,0,-2.49409e-07,-8.61327e+08,-8.61035e+08,-8.61289e+08,-17109.4,0.00310751,0.0788588,0,0.07892,33896,-31361,0,46178.5,17109.4
step02_gravity_refstate-crust.xmf,904,-6.85013e-07,4.10516e-06,0,-4.5365e-07,-9.35315e+08,-9.34987e+08,-9.35268e+08,-31120.4,0.00570737,0.0734169,0,0.0736384,28514.6,-34054.7,0,44416.2,31120.4
step02_gravity_refstate-crust.xmf,905,-7.165e-07,4.33378e-06,0,-4.16632e-07,-9.79762e+08,-9.79416e+08,-9.79713e+08,-28581,0.00563704,0.0677445,0,0.0679786,27627.1,-35673,0,45120.1,28581
step02_gravity_refstate-crust.xmf,906,-7.84178e-07,4.58422e-06,0,-4.11568e-07,-1.02048e+09,-1.02011e+09,-1.02043e+09,-28233.5,0.00581612,0.0631459,0,0.0634132,26216.8,-37155.6,0,45473.8,28233.5
step02_gravity_refstate-crust.xmf,907,-8.67056e-07,4.84479e-06,0,-3.84026e-07,-1.0591e+09,-1.05871e+09,-1.05904e+09,-26344.2,0.00573883,0.0584748,0,0.0587557,24984.5,-38561.6,0,45948.1,26344.2
step02_gravity_refstate-crust.xmf,908,-5.15435e-07,3.6879e-06,0,-1.45678e-07,-8.64674e+08,-8.64386e+08,-8.64639e+08,-9993.52,0.0018461,0.0772074,0,0.0772295,36258.9,-31482.9,0,48019.6,9993.52
step02_gravity_refstate-crust.xmf,909,-5.18702e-07,3.52789e-06,0,-5.97826e-10,-8.25216e+08,-8.24939e+08,-8.25181e+08,-41.0109,5.72916e-20,0.0816677,0,0.0816677,40000,-30046.2,0,50027.7,41.0109
step02_gravity_refstate-crust.xmf,910,-5.49536e-07,3.9078e-06,0,-2.60785e-07,-9.10699e+08,-9.10394e+08,-9.10662e+08,-17889.8,0.00346115,0.072886,0,0.0729681,32655.6,-33158.8,0,46539.2,17889.8
step02_gravity_refstate-crust.xmf,911,-4.96716e-07,3.65898e-06,0,-6.51362e-08,-8.60343e+08,-8.60058e+08,-8.60309e+08,-4468.34,0.000817995,0.0772157,0,0.07722,38330.6,-31325.3,0,49502.6,4468.34
step02_gravity_refstate-crust.xmf,912,-6.14074e-07,4.20838e-06,0,-3.10787e-07,-9.68357e+08,-9.68026e+08,-9.68314e+08,-21320,0.00444126,0.0669961,0,0.0671432,29743.3,-35258,0,46128,21320
step02_gravity_refstate-crust.xmf,913,-4.76026e-07,3.89967e-06,0,-1.51813e-07,-9.19355e+08,-9.19055e+08,-9.19323e+08,-10414.4,0.00221898,0.0702249,0,0.07026,34962.5,-33474.2,0,48403.5,10414.4
step02_gravity_refstate-crust.xmf,914,-5.3451e-07,4.11816e-06,0,-2.28668e-07,-9.61231e+08,-9.60912e+08,-9.61194e+08,-15686.6,0.00342737,0.0662417,0,0.0663303,31713,-34998.8,0,47229.6,15686.6
step02_gravity_refstate-crust.xmf,915,-6.83564e-07,4.50749e-06,0,-3.03485e-07,-1.02061e+09,-1.02025e+09,-1.02056e+09,-20819.1,0.0047126,0.0610475,0,0.0612292,27722.2,-37160.4,0,46361.8,20819.1
step02_gravity_refstate-crust.xmf,916,-7.20853e-07,4.74041e-06,0,-2.4525e-07,-1.06025e+09,-1.05988e+09,-1.0602e+09,-16824.1,0.00438854,0.0557929,0,0.0559653,26638.8,-38604,0,46903.1,16824.1
step02_gravity_refstate-crust.xmf,917,-4.25044e-07,3.89358e-06,0,-6.05304e-08,-9.26968e+08,-9.26672e+08,-9.26939e+08,-4152.39,0.000963337,0.068184,0,0.0681908,37677,-33751.5,0,50583.8,4152.39
step02_gravity_refstate-crust.xmf,918,-4.52622e-07,3.77865e-06,0,-2.35048e-09,-8.95467e+08,-8.95177e+08,-8.95436e+08,-161.243,6.72037e-20,0.0723199,0,0.0723199,40000,-32604.4,0,51604.7,161.243
step02_gravity_refstate-crust.xmf,919,-4.68437e-07,4.05353e-06,0,-1.62984e-07,-9.57274e+08,-9.56964e+08,-9.57242e+08,-11180.7,0.00255166,0.0655079,0,0.0655575,33571,-34854.9,0,48392.9,11180.7
step02_gravity_refstate-crust.xmf,920,-6.01842e-07,4.40277e-06,0,-2.42685e-07,-1.0123e+09,-1.01196e+09,-1.01226e+09,-16648.2,0.00398463,0.0607246,0,0.0608552,29159.5,-36858.3,0,46998,16648.2
step02_gravity_refstate-crust.xmf,921,-5.01449e-07,4.30997e-06,0,-1.65533e-07,-1.00944e+09,-1.00911e+09,-1.0094e+09,-11355.6,0.00302661,0.0594127,0,0.0594897,31024.6,-36754.3,0,48097.9,11355.6
step02_gravity_refstate-crust.xmf,922,-3.71332e-07,4.09994e-06,0,-7.63775e-08,-9.86719e+08,-9.86412e+08,-9.86694e+08,-5239.5,0.00147565,0.0601853,0,0.0602034,35463.9,-35927.3,0,50482.3,5239.5
step02_gravity_refstate-crust.xmf,923,-4.10341e-07,4.22292e-06,0,-1.04114e-07,-1.00673e+09,-1.00642e+09,-1.00671e+09,-7142.19,0.00213769,0.058336,0,0.0583752,33109.8,-36656.1,0,49395.6,7142.19
step02_gravity_refstate-crust.xmf,924,-5.92534e-07,4.61283e-06,0,-1.57304e-07,-1.05742e+09,-1.05706e+09,-1.05738e+09,-10791.1,0.00333897,0.054166,0,0.0542688,28375.6,-38501.1,0,47827.9,10791.1
step02_gravity_refstate-crust.xmf,925,-3.50865e-07,3.99283e-06,0,-1.80544e-09,-9.64307e+08,-9.64009e+08,-9.64283e+08,-123.853,4.04187e-20,0.0625799,0,0.0625799,40000,-35111.3,0,53224.1,123.853
step02_gravity_refstate-crust.xmf,926,-4.67805e-07,4.49562e-06,0,-8.83766e-08,-1.05514e+09,-1.0548e+09,-1.05511e+09,-6062.64,0.00243792,0.0527675,0,0.0528238,30215.5,-38418.7,0,48877.1,6062.64
step02_gravity_refstate-crust.xmf,927,-2.86405e-07,4.101e-06,0,-2.13734e-08,-1.0013e+09,-1.001e+09,-1.00128e+09,-1466.22,0.000554379,0.0573017,0,0.0573043,38009.8,-36458.6,0,52668.5,1466.22
step02_gravity_refstate-crust.xmf,928,-3.57246e-07,4.3876e-06,0,-4.15388e-08,-1.05286e+09,-1.05254e+09,-1.05284e+09,-2849.56,0.00168455,0.0516657,0,0.0516931,32206.6,-38335.9,0,50069,2849.56
step02_gravity_refstate-crust.xmf,929,-2.6976e-07,4.29296e-06,0,-1.59653e-08,-1.04941e+09,-1.04909e+09,-1.04939e+09,-1095.22,0.00109257,0.0510706,0,0.0510823,34349.9,-38210.2,0,51380.3,1095.22
step02_gravity_refstate-crust.xmf,930,-2.12311e-07,4.22525e-06,0,-6.15242e-09,-1.04599e+09,-1.04568e+09,-1.04597e+09,-422.056,0.000617354,0.0508358,0,0.0508395,36567,-38086,0,52798.6,422.056
step02_gravity_refstate-crust.xmf,931,-2.03466e-07,4.16137e-06,0,-8.85418e-10,-1.03193e+09,-1.03163e+09,-1.03192e+09,-60.7397,1.70352e-20,0.0525379,0,0.0525379,40000,-37574.1,0,54880,60.7397
step02_gravity_refstate-crust.xmf,932,-1.64695e-07,4.21132e-06,0,1.95796e-09,-1.05206e+09,-1.05176e+09,-1.05204e+09,134.316,0.000257047,0.0495756,0,0.0495762,38325.9,-38307,0,54187.6,134.316
