Block Name,Point ID,cauchy_strain_0,cauchy_strain_1,cauchy_strain_2,cauchy_strain_3,cauchy_stress_0,cauchy_stress_1,cauchy_stress_2,cauchy_stress_3,displacement_0,displacement_1,displacement_2,displacement_Magnitude,Points_0,Points_1,Points_2,Points_Magnitude,stress_xy
step02_gravity_refstate-mantle.xmf,0,1.17328e-06,2.36844e-06,0,6.7808e-08,-1.09827e+09,-1.09811e+09,-1.09843e+09,9062.54,0.00259276,0.0555236,0,0.0555841,-37797.2,-40000,-0,55033,9062.54
step02_gravity_refstate-mantle.xmf,1,1.18092e-06,2.3586e-06,0,1.14856e-09,-1.09827e+09,-1.09811e+09,-1.09843e+09,153.505,-3.73299e-20,0.0551388,-0,0.0551388,-40000,-40000,-0,56568.5,153.505
step02_gravity_refstate-mantle.xmf,2,1.31363e-06,2.41231e-06,0,4.24061e-08,-1.14504e+09,-1.14489e+09,-1.14521e+09,5667.57,0.00190333,0.0518518,0,0.0518867,-38553.2,-41445.8,-0,56604.8,5667.57
step02_gravity_refstate-mantle.xmf,3,1.37861e-06,2.42831e-06,0,1.18991e-09,-1.16632e+09,-1.16618e+09,-1.1665e+09,159.031,-4.23092e-20,0.0501034,-0,0.0501034,-40000,-42103.5,-0,58075,159.031
step02_gravity_refstate-mantle.xmf,4,1.34986e-06,2.45158e-06,0,9.81228e-08,-1.16091e+09,-1.16076e+09,-1.16109e+09,13114.1,0.00453297,0.0513413,0,0.051541,-36658.6,-41936.3,-0,55700.2,13114.1
step02_gravity_refstate-mantle.xmf,5,1.47096e-06,2.47351e-06,0,4.63601e-08,-1.20143e+09,-1.2013e+09,-1.20163e+09,6196.03,0.00248822,0.0476495,0,0.0477144,-38310.2,-43189,-0,57731.8,6196.03
step02_gravity_refstate-mantle.xmf,6,1.15368e-06,2.40425e-06,0,1.37783e-07,-1.09827e+09,-1.0981e+09,-1.09843e+09,18414.8,0.00503335,0.0566156,0,0.0568389,-35698.5,-40000,-0,53613.3,18414.8
step02_gravity_refstate-mantle.xmf,7,1.56418e-06,2.50105e-06,0,1.86798e-09,-1.23491e+09,-1.23479e+09,-1.23512e+09,249.655,-5.76375e-20,0.0448766,-0,0.0448766,-40000,-44223.8,-0,59630.1,249.655
step02_gravity_refstate-mantle.xmf,8,1.12211e-06,2.45789e-06,0,2.08309e-07,-1.09827e+09,-1.09809e+09,-1.09842e+09,27840.6,0.00730602,0.0583382,0,0.0587939,-33698.8,-40000,-0,52303,27840.6
step02_gravity_refstate-mantle.xmf,9,1.30259e-06,2.48895e-06,0,1.61254e-07,-1.15297e+09,-1.15282e+09,-1.15315e+09,21551.5,0.00703199,0.0532331,0,0.0536955,-34698.6,-41691,-0,54241.4,21551.5
step02_gravity_refstate-mantle.xmf,10,1.53011e-06,2.52227e-06,0,8.93028e-08,-1.22674e+09,-1.2266e+09,-1.22694e+09,11935.3,0.00502797,0.0462466,0,0.0465191,-36726.1,-43971.1,-0,57291,11935.3
step02_gravity_refstate-mantle.xmf,11,1.65733e-06,2.55944e-06,0,5.57052e-08,-1.27456e+09,-1.27444e+09,-1.27478e+09,7444.99,0.00343383,0.0420588,0,0.0421988,-37928.1,-45449.3,-0,59196.1,7444.99
step02_gravity_refstate-mantle.xmf,12,1.0835e-06,2.52704e-06,0,2.82939e-07,-1.09828e+09,-1.09808e+09,-1.09842e+09,37814.9,0.00940411,0.0606335,0,0.0613584,-31793.3,-40000,-0,51096.1,37814.9
step02_gravity_refstate-mantle.xmf,13,1.24984e-06,2.54288e-06,0,2.32227e-07,-1.14531e+09,-1.14513e+09,-1.14547e+09,31037.2,0.00937673,0.0557377,0,0.0565209,-32750.4,-41454,-0,52830.1,31037.2
step02_gravity_refstate-mantle.xmf,14,1.04027e-06,2.60922e-06,0,3.63404e-07,-1.09828e+09,-1.09807e+09,-1.09842e+09,48568.9,0.0113275,0.0634573,0,0.0644604,-29977.6,-40000,-0,49986.5,48568.9
step02_gravity_refstate-mantle.xmf,15,1.21173e-06,2.62122e-06,0,3.09433e-07,-1.14478e+09,-1.14459e+09,-1.14494e+09,41355.7,0.0116407,0.0582177,0,0.0593701,-30896.6,-41437.5,-0,51688.1,41355.7
step02_gravity_refstate-mantle.xmf,16,9.94972e-07,2.70218e-06,0,4.5158e-07,-1.09828e+09,-1.09805e+09,-1.09841e+09,60353.7,0.0130819,0.0667754,0,0.0680448,-28247.1,-40000,-0,48968.3,60353.7
step02_gravity_refstate-mantle.xmf,17,1.16954e-06,2.71571e-06,0,3.98268e-07,-1.14442e+09,-1.14421e+09,-1.14458e+09,53228.5,0.0137893,0.0612712,0,0.0628037,-29077.2,-41426.4,-0,50612.5,53228.5
step02_gravity_refstate-mantle.xmf,18,1.48434e-06,2.55457e-06,0,1.4467e-07,-1.21772e+09,-1.21758e+09,-1.21792e+09,19335.1,0.00768468,0.0480314,0,0.0486422,-34896.4,-43692.3,-0,55917.6,19335.1
step02_gravity_refstate-mantle.xmf,19,1.73095e-06,2.58107e-06,0,1.92409e-09,-1.30423e+09,-1.30412e+09,-1.30446e+09,257.154,-5.68406e-20,0.0394312,-0,0.0394312,-40000,-46366.4,-0,61235.9,257.154
step02_gravity_refstate-mantle.xmf,20,9.4961e-07,2.8043e-06,0,5.49127e-07,-1.09828e+09,-1.09803e+09,-1.09841e+09,73390.8,0.0146774,0.070561,0,0.0720714,-26597.7,-40000,-0,48035.8,73390.8
step02_gravity_refstate-mantle.xmf,21,1.12697e-06,2.82089e-06,0,4.97678e-07,-1.14414e+09,-1.14391e+09,-1.14429e+09,66514.7,0.0157378,0.0647692,0,0.0666538,-27363.6,-41417.7,-0,49640.7,66514.7
step02_gravity_refstate-mantle.xmf,22,1.38274e-06,2.56161e-06,0,1.92738e-07,-1.18728e+09,-1.18713e+09,-1.18747e+09,25759.4,0.00909387,0.0515452,0,0.0523413,-33584.2,-42751.5,-0,54365.3,25759.4
step02_gravity_refstate-mantle.xmf,23,1.64773e-06,2.6041e-06,0,1.13227e-07,-1.27793e+09,-1.27781e+09,-1.27815e+09,15132.8,0.00692756,0.0426392,0,0.0431983,-35824.5,-45553.6,-0,57952.8,15132.8
step02_gravity_refstate-mantle.xmf,24,1.81912e-06,2.64978e-06,0,4.90038e-08,-1.34888e+09,-1.34877e+09,-1.34912e+09,6549.36,0.00344285,0.0360322,0,0.0361963,-38107.6,-47746.3,-0,61089.3,6549.36
step02_gravity_refstate-mantle.xmf,25,9.06044e-07,2.9139e-06,0,6.57906e-07,-1.09828e+09,-1.09801e+09,-1.0984e+09,87929.1,0.0161271,0.0747928,0,0.0765117,-25025.6,-40000,-0,47183.5,87929.1
step02_gravity_refstate-mantle.xmf,26,1.07855e-06,2.92656e-06,0,6.042e-07,-1.14129e+09,-1.14105e+09,-1.14144e+09,80751.3,0.0173238,0.0687495,0,0.0708986,-25811.7,-41329.8,-0,48727.7,80751.3
step02_gravity_refstate-mantle.xmf,27,1.36234e-06,2.63621e-06,0,2.62385e-07,-1.19002e+09,-1.18985e+09,-1.1902e+09,35067.8,0.0115492,0.0532592,0,0.054497,-31833.4,-42836.1,-0,53369.4,35067.8
step02_gravity_refstate-mantle.xmf,28,1.32669e-06,2.73184e-06,0,3.47529e-07,-1.19109e+09,-1.19091e+09,-1.19127e+09,46447.3,0.0140582,0.0557888,0,0.0575328,-29982.3,-42869.3,-0,52313.6,46447.3
step02_gravity_refstate-mantle.xmf,29,1.28399e-06,2.84573e-06,0,4.48746e-07,-1.19139e+09,-1.19118e+09,-1.19156e+09,59974.9,0.0164395,0.0589753,0,0.0612237,-28158.3,-42878.5,-0,51297.7,59974.9
step02_gravity_refstate-mantle.xmf,30,1.49362e-06,2.64793e-06,0,2.14938e-07,-1.23381e+09,-1.23366e+09,-1.23401e+09,28726.4,0.0109864,0.0485253,0,0.0497534,-32849.9,-44189.7,-0,55062.2,28726.4
step02_gravity_refstate-mantle.xmf,31,1.62995e-06,2.67122e-06,0,1.71139e-07,-1.28348e+09,-1.28334e+09,-1.28369e+09,22872.8,0.0100868,0.0434516,0,0.044607,-33934.8,-45724.8,-0,56941.5,22872.8
step02_gravity_refstate-mantle.xmf,32,1.75677e-06,2.6498e-06,0,8.81271e-08,-1.3262e+09,-1.32608e+09,-1.32643e+09,11778.2,0.0060944,0.0383729,0,0.0388538,-36554.7,-47045.2,-0,59577.7,11778.2
step02_gravity_refstate-mantle.xmf,33,1.87268e-06,2.6642e-06,0,-7.36648e-10,-1.37445e+09,-1.37435e+09,-1.3747e+09,-98.4531,2.1244e-19,0.0337315,0,0.0337315,-40000,-48536.8,-0,62895.3,98.4531
step02_gravity_refstate-mantle.xmf,34,1.99153e-06,2.76853e-06,0,2.20746e-09,-1.44576e+09,-1.44566e+09,-1.44603e+09,295.027,-5.58752e-20,0.0277384,-0,0.0277384,-40000,-50740.5,-0,64611.1,295.027
step02_gravity_refstate-mantle.xmf,35,1.94036e-06,2.7363e-06,0,4.17527e-08,-1.41735e+09,-1.41724e+09,-1.41761e+09,5580.25,0.00370811,0.0303294,0,0.0305552,-38090.7,-49862.5,-0,62746.8,5580.25
step02_gravity_refstate-mantle.xmf,36,8.58553e-07,3.02802e-06,0,7.74259e-07,-1.09828e+09,-1.09799e+09,-1.0984e+09,103480,0.0174454,0.0794533,0,0.0813459,-23526.8,-40000,-0,46405.9,103480
step02_gravity_refstate-mantle.xmf,37,1.0248e-06,3.04868e-06,0,7.29026e-07,-1.13857e+09,-1.1383e+09,-1.1387e+09,97434.4,0.0188297,0.073362,0,0.0757399,-24254,-41245.5,-0,47848.2,97434.4
step02_gravity_refstate-mantle.xmf,38,1.23412e-06,2.98397e-06,0,5.75298e-07,-1.19117e+09,-1.19094e+09,-1.19134e+09,76888.6,0.0187736,0.0630076,0,0.065745,-26289.5,-42871.7,-0,50290.4,76888.6
step02_gravity_refstate-mantle.xmf,39,1.76502e-06,2.71437e-06,0,1.36397e-07,-1.33893e+09,-1.3388e+09,-1.33917e+09,18229.4,0.00910502,0.0381526,0,0.039224,-34906.7,-47438.8,-0,58897.6,18229.4
step02_gravity_refstate-mantle.xmf,40,1.87654e-06,2.7512e-06,0,1.00538e-07,-1.39009e+09,-1.38997e+09,-1.39034e+09,13436.9,0.00751667,0.0332622,0,0.0341009,-36021,-49020,-0,60831.6,13436.9
step02_gravity_refstate-mantle.xmf,41,2.03781e-06,2.84222e-06,0,3.7352e-08,-1.48601e+09,-1.4859e+09,-1.48628e+09,4992.09,0.00370616,0.0243887,0,0.0246687,-38183.3,-51984.3,-0,64500.7,4992.09
step02_gravity_refstate-mantle.xmf,42,2.08327e-06,2.87525e-06,0,2.67381e-09,-1.51833e+09,-1.51822e+09,-1.51861e+09,357.355,-5.88785e-20,0.0214095,-0,0.0214095,-40000,-52983,-0,66386.8,357.355
step02_gravity_refstate-mantle.xmf,43,9.69129e-07,3.16289e-06,0,8.59139e-07,-1.13381e+09,-1.13351e+09,-1.13394e+09,114824,0.0200317,0.0785032,0,0.0810187,-22803.3,-41098.4,-0,47000.7,114824
step02_gravity_refstate-mantle.xmf,44,1.17322e-06,3.12539e-06,0,7.13661e-07,-1.18893e+09,-1.18867e+09,-1.18908e+09,95380.9,0.0207604,0.067666,0,0.0707791,-24559.4,-42802.3,-0,49347.8,95380.9
step02_gravity_refstate-mantle.xmf,45,1.4684e-06,2.74924e-06,0,2.98353e-07,-1.23784e+09,-1.23767e+09,-1.23804e+09,39874.8,0.013898,0.050436,0,0.0523158,-30937.1,-44314.4,-0,54045,39874.8
step02_gravity_refstate-mantle.xmf,46,1.42349e-06,2.86748e-06,0,3.96553e-07,-1.23834e+09,-1.23814e+09,-1.23853e+09,52999.4,0.0166432,0.0532323,0,0.0557734,-29041.3,-44329.6,-0,52995.4,52999.4
step02_gravity_refstate-mantle.xmf,47,1.37416e-06,3.00745e-06,0,5.12495e-07,-1.2395e+09,-1.23928e+09,-1.23968e+09,68494.9,0.0192119,0.056485,0,0.0596629,-27222.2,-44365.5,-0,52051.4,68494.9
step02_gravity_refstate-mantle.xmf,48,1.59656e-06,2.76744e-06,0,2.46895e-07,-1.28617e+09,-1.28602e+09,-1.28639e+09,32997.5,0.0133509,0.045102,0,0.0470365,-31938.3,-45808.2,-0,55843,32997.5
step02_gravity_refstate-mantle.xmf,49,1.72389e-06,2.79985e-06,0,2.01319e-07,-1.33934e+09,-1.3392e+09,-1.33957e+09,26906.3,0.0125661,0.0395637,0,0.0415113,-32923.7,-47451.4,-0,57754.7,26906.3
step02_gravity_refstate-mantle.xmf,50,1.98587e-06,2.84274e-06,0,7.60816e-08,-1.46232e+09,-1.4622e+09,-1.46258e+09,10168.3,0.00728038,0.0268851,0,0.0278534,-36363.8,-51252,-0,62841.8,10168.3
step02_gravity_refstate-mantle.xmf,51,2.10976e-06,2.94921e-06,0,3.25371e-08,-1.5554e+09,-1.55529e+09,-1.55568e+09,4348.59,0.00405153,0.0181929,0,0.0186386,-38082.9,-54128.4,-0,66183,4348.59
step02_gravity_refstate-mantle.xmf,52,8.31849e-07,3.15501e-06,0,9.15183e-07,-1.09828e+09,-1.09797e+09,-1.09839e+09,122314,0.0186487,0.0845283,0,0.086561,-22097.7,-40000,-0,45698,122314
step02_gravity_refstate-mantle.xmf,53,1.07968e-06,3.17865e-06,0,8.1103e-07,-1.16555e+09,-1.16527e+09,-1.1657e+09,108394,0.0209719,0.0732637,0,0.0762062,-23445.1,-42079.9,-0,48170.4,108394
step02_gravity_refstate-mantle.xmf,54,1.31446e-06,3.16527e-06,0,6.50109e-07,-1.23874e+09,-1.23849e+09,-1.23892e+09,86887.1,0.0215432,0.0604659,0,0.064189,-25461.8,-44342.1,-0,51132.4,86887.1
step02_gravity_refstate-mantle.xmf,55,1.83545e-06,2.84002e-06,0,1.64965e-07,-1.3909e+09,-1.39077e+09,-1.39115e+09,22047.6,0.0116073,0.0343854,0,0.0362916,-33816.5,-49045.1,-0,59573.3,22047.6
step02_gravity_refstate-mantle.xmf,56,2.05557e-06,2.92719e-06,0,5.91259e-08,-1.5195e+09,-1.51938e+09,-1.51977e+09,7902.18,0.00690816,0.0216968,0,0.02277,-36666.8,-53019.1,-0,64463,7902.18
step02_gravity_refstate-mantle.xmf,57,2.14907e-06,2.98879e-06,0,2.68057e-09,-1.59234e+09,-1.59223e+09,-1.59263e+09,358.258,-5.93788e-20,0.014704,-0,0.014704,-40000,-55270.1,-0,68225.9,358.258
step02_gravity_refstate-mantle.xmf,58,7.57184e-07,3.74083e-06,0,1.65099e-06,-1.09825e+09,-1.09785e+09,-1.09835e+09,220654,0.0226143,0.108748,0,0.111074,-17010.7,-40000,-0,43466.8,220654
step02_gravity_refstate-mantle.xmf,59,7.67331e-07,3.57622e-06,0,1.43411e-06,-1.09826e+09,-1.09788e+09,-1.09836e+09,191669,0.0217236,0.102124,0,0.104409,-18194.5,-40000,-0,43943.6,191669
step02_gravity_refstate-mantle.xmf,60,8.3855e-07,3.76912e-06,0,1.5952e-06,-1.12712e+09,-1.12673e+09,-1.12723e+09,213199,0.0243112,0.102081,0,0.104936,-17594.1,-40892.5,-0,44516.9,213199
step02_gravity_refstate-mantle.xmf,61,7.5012e-07,3.92486e-06,0,1.89473e-06,-1.09823e+09,-1.09781e+09,-1.09833e+09,253230,0.0234544,0.115735,0,0.118088,-15880.5,-40000,-0,43037.1,253230
step02_gravity_refstate-mantle.xmf,62,8.21747e-07,3.97522e-06,0,1.85302e-06,-1.12655e+09,-1.12612e+09,-1.12666e+09,247657,0.0252601,0.109038,0,0.111925,-16396.8,-40875.2,-0,44041.3,247657
step02_gravity_refstate-mantle.xmf,63,7.38873e-07,4.13551e-06,0,2.16642e-06,-1.09822e+09,-1.09776e+09,-1.09832e+09,289542,0.0242482,0.123078,0,0.125444,-14800.9,-40000,-0,42650.5,289542
step02_gravity_refstate-mantle.xmf,64,7.94437e-07,4.19383e-06,0,2.12995e-06,-1.12468e+09,-1.12422e+09,-1.12478e+09,284667,0.0260314,0.11651,0,0.119383,-15258.6,-40817.9,-0,43576.6,284667
step02_gravity_refstate-mantle.xmf,65,8.05012e-07,3.28518e-06,0,1.06872e-06,-1.09827e+09,-1.09794e+09,-1.09838e+09,142835,0.0197533,0.0900052,0,0.0921473,-20734.8,-40000,-0,45054.8,142835
step02_gravity_refstate-mantle.xmf,66,9.42328e-07,3.30651e-06,0,1.02161e-06,-1.13352e+09,-1.1332e+09,-1.13364e+09,136538,0.021356,0.083712,0,0.0863931,-21395.2,-41089.6,-0,46326.2,136538
step02_gravity_refstate-mantle.xmf,67,7.83243e-07,3.42525e-06,0,1.24101e-06,-1.09827e+09,-1.09791e+09,-1.09837e+09,165861,0.0207736,0.0958737,0,0.0980984,-19434.8,-40000,-0,44471.5,165861
step02_gravity_refstate-mantle.xmf,68,8.73744e-07,3.61387e-06,0,1.39409e-06,-1.12975e+09,-1.12938e+09,-1.12987e+09,186320,0.0234819,0.095645,0,0.0984853,-18776.2,-40973.6,-0,45070.9,186320
step02_gravity_refstate-mantle.xmf,69,9.11626e-07,3.46199e-06,0,1.20632e-06,-1.13287e+09,-1.13253e+09,-1.13299e+09,161225,0.0225925,0.0895581,0,0.0923638,-20006.7,-41069.8,-0,45683.7,161225
step02_gravity_refstate-mantle.xmf,70,1.04906e-06,3.32224e-06,0,9.58136e-07,-1.16821e+09,-1.16791e+09,-1.16835e+09,128055,0.0225256,0.0774895,0,0.0806971,-22108,-42162.1,-0,47606.8,128055
step02_gravity_refstate-mantle.xmf,71,1.14782e-06,3.32853e-06,0,8.84971e-07,-1.20127e+09,-1.20098e+09,-1.20142e+09,118276,0.0231973,0.07135,0,0.0750262,-22916.7,-43184,-0,48888,118276
step02_gravity_refstate-mantle.xmf,72,1.24666e-06,3.34283e-06,0,8.04419e-07,-1.23953e+09,-1.23925e+09,-1.2397e+09,107511,0.023713,0.0647767,0,0.0689806,-23786.1,-44366.6,-0,50340.6,107511
step02_gravity_refstate-mantle.xmf,73,1.55451e-06,2.89044e-06,0,3.41171e-07,-1.28758e+09,-1.2874e+09,-1.28779e+09,45597.5,0.016429,0.0473794,0,0.0501469,-29999.8,-45851.7,-0,54793.9,45597.5
step02_gravity_refstate-mantle.xmf,74,1.49883e-06,3.0359e-06,0,4.49843e-07,-1.28885e+09,-1.28864e+09,-1.28905e+09,60121.5,0.0193031,0.0501692,0,0.0537546,-28131,-45890.9,-0,53826.8,60121.5
step02_gravity_refstate-mantle.xmf,75,1.43114e-06,3.20174e-06,0,5.80247e-07,-1.288e+09,-1.28777e+09,-1.2882e+09,77550,0.0219161,0.053676,0,0.0579778,-26324.1,-45864.8,-0,52882.3,77550
step02_gravity_refstate-mantle.xmf,76,1.675e-06,2.91599e-06,0,2.81073e-07,-1.34031e+09,-1.34014e+09,-1.34053e+09,37565.4,0.0158643,0.0413932,0,0.0443291,-30991.8,-47481.2,-0,56700.6,37565.4
step02_gravity_refstate-mantle.xmf,77,1.78283e-06,2.94632e-06,0,2.29307e-07,-1.39132e+09,-1.39117e+09,-1.39156e+09,30646.9,0.0150153,0.0358144,0,0.0388347,-31933.8,-49057.9,-0,58535.8,30646.9
step02_gravity_refstate-mantle.xmf,78,1.93166e-06,2.90384e-06,0,1.35476e-07,-1.44788e+09,-1.44775e+09,-1.44814e+09,18106.3,0.0110435,0.0289848,0,0.0310174,-34393.4,-50805.8,-0,61352.5,18106.3
step02_gravity_refstate-mantle.xmf,79,2.01352e-06,2.98367e-06,0,9.8976e-08,-1.51292e+09,-1.51279e+09,-1.51319e+09,13228.1,0.0105923,0.0228591,0,0.0251939,-34841.3,-52815.8,-0,63272.7,13228.1
step02_gravity_refstate-mantle.xmf,80,2.09951e-06,3.05531e-06,0,6.10068e-08,-1.5828e+09,-1.58267e+09,-1.58308e+09,8153.56,0.00863589,0.016012,0,0.0181924,-35935.1,-54975,-0,65677.9,8153.56
step02_gravity_refstate-mantle.xmf,81,2.16229e-06,3.06184e-06,0,2.25636e-08,-1.62789e+09,-1.62777e+09,-1.62818e+09,3015.62,0.00419359,0.0114613,0,0.0122044,-38062.5,-56368.5,-0,68015.8,3015.62
step02_gravity_refstate-mantle.xmf,82,2.18771e-06,3.10794e-06,0,1.23457e-09,-1.66799e+09,-1.66786e+09,-1.66828e+09,165.001,-5.11392e-20,0.00758122,-0,0.00758122,-40000,-57607.2,-0,70132.6,165.001
step02_gravity_refstate-mantle.xmf,83,7.1629e-07,4.37152e-06,0,2.46031e-06,-1.0982e+09,-1.09771e+09,-1.0983e+09,328820,0.0249953,0.130766,0,0.133133,-13769.1,-40000,-0,42303.5,328820
step02_gravity_refstate-mantle.xmf,84,7.5186e-07,4.38422e-06,0,2.37386e-06,-1.11926e+09,-1.11878e+09,-1.11936e+09,317267,0.0263315,0.123704,0,0.126476,-14328.8,-40650.8,-0,43102.2,317267
step02_gravity_refstate-mantle.xmf,85,9.07141e-07,3.79037e-06,0,1.52825e-06,-1.15267e+09,-1.15229e+09,-1.15279e+09,204251,0.025452,0.0958289,0,0.0991513,-18214.5,-41682.3,-0,45488.3,204251
step02_gravity_refstate-mantle.xmf,86,8.69395e-07,3.99859e-06,0,1.7683e-06,-1.15388e+09,-1.15346e+09,-1.154e+09,236333,0.0265937,0.102073,0,0.10548,-17013.8,-41720,-0,45055.9,236333
step02_gravity_refstate-mantle.xmf,87,1.34732e-06,3.38375e-06,0,7.3074e-07,-1.28405e+09,-1.28378e+09,-1.28423e+09,97663.4,0.024166,0.0579553,0,0.0627918,-24613.4,-45742.6,-0,51944.3,97663.4
step02_gravity_refstate-mantle.xmf,88,1.86664e-06,2.97702e-06,0,1.88215e-07,-1.43574e+09,-1.43559e+09,-1.43598e+09,25154.9,0.0140565,0.0310958,0,0.0341253,-32747.2,-50430.5,-0,60130,25154.9
step02_gravity_refstate-mantle.xmf,89,2.18587e-06,3.15662e-06,0,5.82497e-09,-1.69197e+09,-1.69184e+09,-1.69226e+09,778.507,0.00368604,0.0052892,0,0.0064469,-38317.2,-58348.2,-0,69804.9,778.507
step02_gravity_refstate-mantle.xmf,90,2.20338e-06,3.22132e-06,0,-3.86342e-11,-1.74544e+09,-1.7453e+09,-1.74573e+09,-5.16347,3.42513e-19,-7.00667e-20,0,3.49606e-19,-40000,-60000,-0,72111,5.16347
step02_gravity_refstate-mantle.xmf,91,4.58456e-07,5.87098e-06,0,3.97918e-06,-1.09813e+09,-1.09741e+09,-1.0982e+09,531818,0.0273255,0.16468,0,0.166932,-10064.5,-40000,-0,41246.8,531818
step02_gravity_refstate-mantle.xmf,92,5.79664e-07,5.39146e-06,0,3.56204e-06,-1.09815e+09,-1.0975e+09,-1.09823e+09,476067,0.0268772,0.155765,0,0.158066,-10932.8,-40000,-0,41467.2,476067
step02_gravity_refstate-mantle.xmf,93,4.4556e-07,5.82394e-06,0,3.81902e-06,-1.11483e+09,-1.11412e+09,-1.11489e+09,510412,0.0284189,0.157072,0,0.159622,-10510.5,-40515.6,-0,41856.8,510412
step02_gravity_refstate-mantle.xmf,94,6.60429e-07,4.99014e-06,0,3.17015e-06,-1.09816e+09,-1.09758e+09,-1.09825e+09,423691,0.0263242,0.147125,0,0.149461,-11837.8,-40000,-0,41714.9,423691
step02_gravity_refstate-mantle.xmf,95,5.4673e-07,5.46182e-06,0,3.48265e-06,-1.11948e+09,-1.11882e+09,-1.11955e+09,465457,0.0283786,0.148808,0,0.151489,-11284.3,-40658.8,-0,42195.7,465457
step02_gravity_refstate-mantle.xmf,96,7.10712e-07,4.68862e-06,0,2.68273e-06,-1.12522e+09,-1.12469e+09,-1.12532e+09,358547,0.0274665,0.129842,0,0.132715,-13402,-40835.3,-0,42978.4,358547
step02_gravity_refstate-mantle.xmf,97,8.24393e-07,4.27395e-06,0,2.07438e-06,-1.15457e+09,-1.15411e+09,-1.15468e+09,277241,0.0277078,0.109458,0,0.11291,-15745.9,-41741.6,-0,44612.8,277241
step02_gravity_refstate-mantle.xmf,98,7.55248e-07,4.58104e-06,0,2.43362e-06,-1.14999e+09,-1.14948e+09,-1.15009e+09,325253,0.0284573,0.118844,0,0.122203,-14413.2,-41600.6,-0,44026.7,325253
step02_gravity_refstate-mantle.xmf,99,1.01576e-06,3.5097e-06,0,1.15847e-06,-1.16967e+09,-1.16934e+09,-1.16981e+09,154830,0.0241322,0.0829885,0,0.0864261,-20621,-42207.5,-0,46975.5,154830
step02_gravity_refstate-mantle.xmf,100,9.65378e-07,3.71485e-06,0,1.39835e-06,-1.1672e+09,-1.16683e+09,-1.16733e+09,186890,0.0255121,0.0899597,0,0.0935073,-19077.5,-42131.3,-0,46249.3,186890
step02_gravity_refstate-mantle.xmf,101,9.22875e-07,4.0064e-06,0,1.66754e-06,-1.17968e+09,-1.17927e+09,-1.1798e+09,222867,0.0274931,0.0951098,0,0.0990037,-17716.8,-42517.2,-0,46060.8,222867
step02_gravity_refstate-mantle.xmf,102,1.09745e-06,3.52227e-06,0,1.07236e-06,-1.2038e+09,-1.20348e+09,-1.20395e+09,143320,0.0250093,0.0762585,0,0.0802547,-21404.2,-43262.3,-0,48267.7,143320
step02_gravity_refstate-mantle.xmf,103,1.18059e-06,3.55033e-06,0,9.87015e-07,-1.24161e+09,-1.24129e+09,-1.24177e+09,131915,0.025721,0.0693811,0,0.0739953,-22197.3,-44430.8,-0,49667,131915
step02_gravity_refstate-mantle.xmf,104,1.25849e-06,3.57446e-06,0,8.93346e-07,-1.28049e+09,-1.28018e+09,-1.28066e+09,119396,0.0261276,0.062586,0,0.0678208,-23017,-45632.5,-0,51108.8,119396
step02_gravity_refstate-mantle.xmf,105,1.61564e-06,3.06687e-06,0,3.83146e-07,-1.34118e+09,-1.34099e+09,-1.3414e+09,51207.5,0.0190305,0.0437484,0,0.0477083,-29075.2,-47508.3,-0,55699.2,51207.5
step02_gravity_refstate-mantle.xmf,106,1.42674e-06,3.48523e-06,0,6.70278e-07,-1.33993e+09,-1.33966e+09,-1.34012e+09,89582.7,0.0250444,0.0508853,0,0.0567145,-25106.2,-47469.6,-0,53699.9,89582.7
step02_gravity_refstate-mantle.xmf,107,1.53713e-06,3.24744e-06,0,5.03266e-07,-1.34177e+09,-1.34154e+09,-1.34197e+09,67261.5,0.0220021,0.0466569,0,0.0515845,-27193.4,-47526.3,-0,54756.1,67261.5
step02_gravity_refstate-mantle.xmf,108,1.72092e-06,3.09271e-06,0,3.11035e-07,-1.39459e+09,-1.3944e+09,-1.39482e+09,41569.9,0.018372,0.0374223,0,0.0416888,-30044.9,-49158.7,-0,57613.2,41569.9
step02_gravity_refstate-mantle.xmf,109,1.82186e-06,3.113e-06,0,2.42813e-07,-1.44706e+09,-1.44688e+09,-1.4473e+09,32451.9,0.0172596,0.0313497,0,0.0357868,-31078.7,-50780.3,-0,59535.9,32451.9
step02_gravity_refstate-mantle.xmf,110,1.92884e-06,3.08822e-06,0,1.68278e-07,-1.4953e+09,-1.49515e+09,-1.49556e+09,22490.4,0.0149455,0.0256256,0,0.0296654,-32570.4,-52271.2,-0,61588.2,22490.4
step02_gravity_refstate-mantle.xmf,111,2.02107e-06,3.14622e-06,0,1.05973e-07,-1.56699e+09,-1.56684e+09,-1.56726e+09,14163.3,0.0133864,0.0182065,0,0.0225981,-33598.2,-54486.5,-0,64012.6,14163.3
step02_gravity_refstate-mantle.xmf,112,2.14718e-06,3.19138e-06,0,2.58993e-08,-1.67311e+09,-1.67297e+09,-1.6734e+09,3461.45,0.00848375,0.00726748,0,0.011171,-36095.9,-57765.4,-0,68115.7,3461.45
step02_gravity_refstate-mantle.xmf,113,2.18376e-06,3.25904e-06,0,9.42387e-10,-1.74544e+09,-1.74529e+09,-1.74573e+09,125.95,0.00564051,-9.65403e-20,0,0.00564051,-37427.7,-60000,-0,70716.5,125.95
step02_gravity_refstate-mantle.xmf,114,2.8725e-07,6.4455e-06,0,4.41732e-06,-1.09812e+09,-1.0973e+09,-1.09816e+09,590375,0.0276356,0.173833,0,0.176016,-9230.72,-40000,-0,41051.3,590375
step02_gravity_refstate-mantle.xmf,115,2.40058e-07,6.39719e-06,0,4.19062e-06,-1.1214e+09,-1.12058e+09,-1.12144e+09,560077,0.029124,0.163588,0,0.16616,-9749.19,-40718.7,-0,41869.5,560077
step02_gravity_refstate-mantle.xmf,116,7.04401e-07,4.65439e-06,0,2.80119e-06,-1.09818e+09,-1.09765e+09,-1.09828e+09,374379,0.0256907,0.138786,0,0.141144,-12782.4,-40000,-0,41992.7,374379
step02_gravity_refstate-mantle.xmf,117,6.19933e-07,5.11596e-06,0,3.09024e-06,-1.12903e+09,-1.12843e+09,-1.12911e+09,413011,0.0284809,0.138232,0,0.141135,-12298.9,-40953.6,-0,42760.4,413011
step02_gravity_refstate-mantle.xmf,118,8.49992e-07,4.29197e-06,0,1.95338e-06,-1.18272e+09,-1.18226e+09,-1.18283e+09,261069,0.0288121,0.101752,0,0.105753,-16414.9,-42611.3,-0,45663.6,261069
step02_gravity_refstate-mantle.xmf,119,1.32594e-06,3.59127e-06,0,8.04978e-07,-1.3155e+09,-1.3152e+09,-1.31568e+09,107585,0.0262289,0.0566733,0,0.0624485,-23770.8,-46714.4,-0,52414.6,107585
step02_gravity_refstate-mantle.xmf,120,2.07901e-06,3.20262e-06,0,6.34847e-08,-1.626e+09,-1.62585e+09,-1.62628e+09,8484.73,0.0120222,0.0121825,0,0.0171157,-34376.4,-56309.8,-0,65973.7,8484.73
step02_gravity_refstate-mantle.xmf,121,-3.45207e-08,7.11077e-06,0,4.63832e-06,-1.12006e+09,-1.1191e+09,-1.12006e+09,619912,0.0291393,0.173744,0,0.176171,-8828.85,-40677.2,-0,41624.3,619912
step02_gravity_refstate-mantle.xmf,122,3.12636e-07,6.09049e-06,0,3.84184e-06,-1.13702e+09,-1.13625e+09,-1.13706e+09,513462,0.0298568,0.15288,0,0.155768,-10521.8,-41200.8,-0,42523.1,513462
step02_gravity_refstate-mantle.xmf,123,4.64216e-07,5.60962e-06,0,3.41909e-06,-1.14336e+09,-1.14267e+09,-1.14342e+09,456962,0.029836,0.142427,0,0.145519,-11538,-41396.4,-0,42974.3,456962
step02_gravity_refstate-mantle.xmf,124,6.26652e-07,5.06471e-06,0,2.85175e-06,-1.15778e+09,-1.15719e+09,-1.15786e+09,381136,0.02982,0.126972,0,0.130426,-13137.5,-41841.5,-0,43855.5,381136
step02_gravity_refstate-mantle.xmf,125,7.61166e-07,4.62856e-06,0,2.28493e-06,-1.18339e+09,-1.18287e+09,-1.18349e+09,305381,0.0298788,0.109324,0,0.113334,-15133,-42632.3,-0,45238.5,305381
step02_gravity_refstate-mantle.xmf,126,1.0444e-06,3.75198e-06,0,1.29854e-06,-1.20621e+09,-1.20584e+09,-1.20635e+09,173551,0.0267117,0.0817754,0,0.0860275,-19916.3,-43336.8,-0,47694.2,173551
step02_gravity_refstate-mantle.xmf,127,8.82619e-07,4.32106e-06,0,1.8295e-06,-1.21315e+09,-1.21269e+09,-1.21327e+09,244513,0.0297394,0.0938718,0,0.0984701,-17120.4,-43551.8,-0,46796,244513
step02_gravity_refstate-mantle.xmf,128,9.72797e-07,4.01457e-06,0,1.55192e-06,-1.20901e+09,-1.20861e+09,-1.20914e+09,207415,0.0282931,0.0877688,0,0.0922164,-18474.2,-43423.7,-0,47190.2,207415
step02_gravity_refstate-mantle.xmf,129,1.10496e-06,3.78008e-06,0,1.19295e-06,-1.24311e+09,-1.24275e+09,-1.24326e+09,159437,0.0274993,0.0744306,0,0.0793481,-20693.6,-44477.3,-0,49055.6,159437
step02_gravity_refstate-mantle.xmf,130,1.16761e-06,3.80929e-06,0,1.08468e-06,-1.28116e+09,-1.2808e+09,-1.28131e+09,144968,0.0280085,0.0672052,0,0.0728081,-21484.9,-45653,-0,50455.9,144968
step02_gravity_refstate-mantle.xmf,131,1.23375e-06,3.81907e-06,0,9.6457e-07,-1.31901e+09,-1.31866e+09,-1.31917e+09,128915,0.0281611,0.0601238,0,0.0663922,-22338.8,-46822.7,-0,51878.5,128915
step02_gravity_refstate-mantle.xmf,132,1.31022e-06,3.80024e-06,0,8.33863e-07,-1.35619e+09,-1.35586e+09,-1.35637e+09,111446,0.0279166,0.0532034,0,0.0600828,-23296.9,-47971.8,-0,53329.5,111446
step02_gravity_refstate-mantle.xmf,133,1.6379e-06,3.27762e-06,0,4.18901e-07,-1.39507e+09,-1.39485e+09,-1.39529e+09,55986.2,0.0215889,0.0398021,0,0.0452801,-28132.6,-49173.5,-0,56652.3,55986.2
step02_gravity_refstate-mantle.xmf,134,1.52821e-06,3.50008e-06,0,5.49936e-07,-1.39421e+09,-1.39395e+09,-1.39442e+09,73499,0.0246145,0.0428954,0,0.049456,-26208.3,-49147,-0,55698.3,73499
step02_gravity_refstate-mantle.xmf,135,1.73319e-06,3.29681e-06,0,3.29415e-07,-1.44936e+09,-1.44915e+09,-1.44959e+09,44026.3,0.020779,0.0330503,0,0.0390396,-29115,-50851.4,-0,58596.5,44026.3
step02_gravity_refstate-mantle.xmf,136,1.82628e-06,3.31393e-06,0,2.46563e-07,-1.50442e+09,-1.50422e+09,-1.50467e+09,32953.2,0.0196215,0.0264563,0,0.0329384,-30124.5,-52552.8,-0,60574.6,32953.2
step02_gravity_refstate-mantle.xmf,137,1.92609e-06,3.30758e-06,0,1.62713e-07,-1.56188e+09,-1.5617e+09,-1.56214e+09,21746.6,0.0177265,0.019724,0,0.0265192,-31384.1,-54328.4,-0,62741.9,21746.6
step02_gravity_refstate-mantle.xmf,138,2.00655e-06,3.32618e-06,0,9.36644e-08,-1.62305e+09,-1.62287e+09,-1.62332e+09,12518.3,0.0158826,0.0129848,0,0.0205149,-32482,-56218.5,-0,64927.6,12518.3
step02_gravity_refstate-mantle.xmf,139,2.07964e-06,3.3309e-06,0,3.85962e-08,-1.68239e+09,-1.68222e+09,-1.68267e+09,5158.38,0.0134169,0.00659701,0,0.0149511,-33767.5,-58051.9,-0,67158.5,5158.38
step02_gravity_refstate-mantle.xmf,140,2.12742e-06,3.35999e-06,0,4.17025e-10,-1.74544e+09,-1.74528e+09,-1.74573e+09,55.7354,0.0109677,-9.10965e-20,0,0.0109677,-34956.1,-60000,-0,69440.1,55.7354
step02_gravity_refstate-mantle.xmf,141,3.68722e-08,7.1388e-06,0,4.85705e-06,-1.09812e+09,-1.09717e+09,-1.09813e+09,649144,0.0277658,0.183172,0,0.185264,-8429.03,-40000,-0,40878.5,649144
step02_gravity_refstate-mantle.xmf,142,-7.41466e-07,8.91912e-06,0,5.64386e-06,-1.09814e+09,-1.09685e+09,-1.09804e+09,754302,0.0272863,0.202154,0,0.203987,-6909.43,-40000,-0,40592.4,754302
step02_gravity_refstate-mantle.xmf,143,-2.99752e-07,7.95837e-06,0,5.27662e-06,-1.09813e+09,-1.09702e+09,-1.09809e+09,705220,0.0276687,0.192638,0,0.194615,-7656.37,-40000,-0,40726.2,705220
step02_gravity_refstate-mantle.xmf,144,-7.7225e-07,8.7284e-06,0,5.35187e-06,-1.1187e+09,-1.11743e+09,-1.11859e+09,715277,0.0284878,0.191913,0,0.194016,-7282.9,-40634.3,-0,41281.8,715277
step02_gravity_refstate-mantle.xmf,145,-3.93613e-07,7.90636e-06,0,5.01864e-06,-1.12064e+09,-1.11953e+09,-1.12059e+09,670741,0.0289971,0.182806,0,0.185092,-8015.59,-40694.8,-0,41476.7,670741
step02_gravity_refstate-mantle.xmf,146,-1.06899e-07,7.07851e-06,0,4.40895e-06,-1.14119e+09,-1.14023e+09,-1.14117e+09,589256,0.0302249,0.16501,0,0.167756,-9214.12,-41329.2,-0,42343.8,589256
step02_gravity_refstate-mantle.xmf,147,1.1697e-07,6.56747e-06,0,4.12676e-06,-1.14047e+09,-1.13961e+09,-1.14048e+09,551541,0.0301833,0.158504,0,0.161352,-9874.14,-41307.2,-0,42471,551541
step02_gravity_refstate-mantle.xmf,148,4.74978e-07,5.52176e-06,0,3.22037e-06,-1.16105e+09,-1.16038e+09,-1.16112e+09,430403,0.03057,0.134538,0,0.137968,-12110.2,-41942.7,-0,43656.1,430403
step02_gravity_refstate-mantle.xmf,149,6.34591e-07,5.02525e-06,0,2.64251e-06,-1.18438e+09,-1.18379e+09,-1.18447e+09,353172,0.0307907,0.11733,0,0.121303,-13895.3,-42663.2,-0,44869,353172
step02_gravity_refstate-mantle.xmf,150,7.67376e-07,4.65502e-06,0,2.12951e-06,-1.21433e+09,-1.21381e+09,-1.21443e+09,284609,0.0308645,0.100776,0,0.105397,-15818.2,-43588.2,-0,46369.6,284609
step02_gravity_refstate-mantle.xmf,151,1.39656e-06,3.7864e-06,0,6.96612e-07,-1.4007e+09,-1.40038e+09,-1.40088e+09,93102.2,0.0274622,0.0456437,0,0.0532684,-24345.3,-49347,-0,55025.7,93102.2
step02_gravity_refstate-mantle.xmf,152,-1.29345e-06,1.00253e-05,0,5.92366e-06,-1.09817e+09,-1.09666e+09,-1.098e+09,791697,0.026559,0.211622,0,0.213283,-6184.51,-40000,-0,40475.3,791697
step02_gravity_refstate-mantle.xmf,153,-1.27862e-06,9.71365e-06,0,5.61306e-06,-1.11736e+09,-1.11589e+09,-1.11719e+09,750185,0.0276859,0.201256,0,0.203151,-6541.6,-40592.2,-0,41115.9,750185
step02_gravity_refstate-mantle.xmf,154,-4.41373e-07,7.80002e-06,0,4.72528e-06,-1.14489e+09,-1.14379e+09,-1.14483e+09,631533,0.030169,0.171965,0,0.174591,-8465.42,-41443.2,-0,42299,631533
step02_gravity_refstate-mantle.xmf,155,2.57215e-07,6.08561e-06,0,3.61355e-06,-1.164e+09,-1.16323e+09,-1.16404e+09,482951,0.0311011,0.14277,0,0.146118,-11073.1,-42033.9,-0,43468,482951
step02_gravity_refstate-mantle.xmf,156,-2.5971e-08,6.75689e-06,0,4.0456e-06,-1.16194e+09,-1.16104e+09,-1.16194e+09,540694,0.0311458,0.153063,0,0.1562,-9980.32,-41970.1,-0,43140.4,540694
step02_gravity_refstate-mantle.xmf,157,4.61092e-07,5.50089e-06,0,3.00245e-06,-1.18833e+09,-1.18766e+09,-1.18839e+09,401277,0.0315956,0.124791,0,0.128728,-12764.5,-42785.2,-0,44648.7,401277
step02_gravity_refstate-mantle.xmf,158,6.22409e-07,5.05522e-06,0,2.45744e-06,-1.21628e+09,-1.21568e+09,-1.21636e+09,328437,0.0318113,0.107901,0,0.112492,-14574.8,-43648.4,-0,46017.4,328437
step02_gravity_refstate-mantle.xmf,159,1.01852e-06,4.04939e-06,0,1.43415e-06,-1.24445e+09,-1.24405e+09,-1.24459e+09,191674,0.0291072,0.080028,0,0.085157,-19227.5,-44518.9,-0,48493.6,191674
step02_gravity_refstate-mantle.xmf,160,7.75821e-07,4.69777e-06,0,1.97641e-06,-1.2477e+09,-1.24718e+09,-1.24781e+09,264148,0.0316957,0.0922696,0,0.0975618,-16497.2,-44619.3,-0,47571.4,264148
step02_gravity_refstate-mantle.xmf,161,9.09239e-07,4.35351e-06,0,1.69469e-06,-1.24631e+09,-1.24585e+09,-1.24643e+09,226496,0.0305229,0.0859447,0,0.0912038,-17830.1,-44576.2,-0,48009.9,226496
step02_gravity_refstate-mantle.xmf,162,1.06027e-06,4.08069e-06,0,1.30317e-06,-1.28215e+09,-1.28175e+09,-1.2823e+09,174168,0.0297057,0.0722829,0,0.0781489,-19991.4,-45683.8,-0,49866.5,174168
step02_gravity_refstate-mantle.xmf,163,1.11141e-06,4.10036e-06,0,1.16412e-06,-1.32084e+09,-1.32044e+09,-1.32099e+09,155585,0.0300101,0.0645624,0,0.0711962,-20805.9,-46879.2,-0,51288.9,155585
step02_gravity_refstate-mantle.xmf,164,1.17021e-06,4.10324e-06,0,1.019e-06,-1.35986e+09,-1.35947e+09,-1.36002e+09,136189,0.0300362,0.0570452,0,0.0644696,-21657.3,-48085,-0,52737.1,136189
step02_gravity_refstate-mantle.xmf,165,1.24065e-06,4.09223e-06,0,8.64427e-07,-1.40206e+09,-1.40168e+09,-1.40222e+09,115531,0.0298086,0.0493134,0,0.0576226,-22585.2,-49388.9,-0,54307.9,115531
step02_gravity_refstate-mantle.xmf,166,1.61931e-06,3.52354e-06,0,4.40202e-07,-1.44937e+09,-1.44911e+09,-1.44958e+09,58833,0.0240319,0.0354243,0,0.0428067,-27173.5,-50851.3,-0,57656.3,58833
step02_gravity_refstate-mantle.xmf,167,1.4783e-06,3.79099e-06,0,5.67412e-07,-1.4497e+09,-1.4494e+09,-1.4499e+09,75834.6,0.0269554,0.0381872,0,0.0467425,-25287.9,-50861.5,-0,56801.1,75834.6
step02_gravity_refstate-mantle.xmf,168,1.70912e-06,3.53332e-06,0,3.30231e-07,-1.50533e+09,-1.50509e+09,-1.50556e+09,44135.4,0.0231106,0.0281547,0,0.0364251,-28155.9,-52580.7,-0,59644.6,44135.4
step02_gravity_refstate-mantle.xmf,169,1.80267e-06,3.53049e-06,0,2.28243e-07,-1.56213e+09,-1.5619e+09,-1.56238e+09,30504.7,0.021757,0.0210343,0,0.0302623,-29223,-54335.9,-0,61695.9,30504.7
step02_gravity_refstate-mantle.xmf,170,1.89244e-06,3.52218e-06,0,1.37322e-07,-1.62054e+09,-1.62032e+09,-1.62079e+09,18353.1,0.0200618,0.0140413,0,0.0244875,-30332.6,-56140.5,-0,63810.9,18353.1
step02_gravity_refstate-mantle.xmf,171,1.97202e-06,3.52025e-06,0,5.90914e-08,-1.68279e+09,-1.68259e+09,-1.68306e+09,7897.57,0.018116,0.00692336,0,0.0193939,-31448.2,-58064.2,-0,66033.6,7897.57
step02_gravity_refstate-mantle.xmf,172,2.03539e-06,3.52267e-06,0,-1.05785e-11,-1.74545e+09,-1.74525e+09,-1.74572e+09,-1.41381,0.015916,-9.8083e-20,0,0.015916,-32578.9,-60000,-0,68274.3,1.41381
step02_gravity_refstate-mantle.xmf,173,-1.95128e-06,1.12603e-05,0,6.06621e-06,-1.09821e+09,-1.09644e+09,-1.09795e+09,810749,0.0254239,0.220917,0,0.222375,-5477.46,-40000,-0,40373.3,810749
step02_gravity_refstate-mantle.xmf,174,-1.90826e-06,1.08767e-05,0,5.77143e-06,-1.11652e+09,-1.11481e+09,-1.11626e+09,771352,0.0264711,0.210758,0,0.212414,-5786.68,-40564.9,-0,40975.6,771352
step02_gravity_refstate-mantle.xmf,175,-1.21905e-06,9.40155e-06,0,5.34437e-06,-1.13318e+09,-1.13176e+09,-1.13301e+09,714275,0.028565,0.192279,0,0.19439,-6906.17,-41080.2,-0,41656.7,714275
step02_gravity_refstate-mantle.xmf,176,-1.00183e-06,8.86991e-06,0,5.08245e-06,-1.14402e+09,-1.1427e+09,-1.14389e+09,679269,0.0294159,0.183214,0,0.18556,-7442.12,-41415.4,-0,42078.7,679269
step02_gravity_refstate-mantle.xmf,177,-4.57783e-07,7.62096e-06,0,4.40865e-06,-1.16736e+09,-1.16628e+09,-1.1673e+09,589217,0.0310948,0.161551,0,0.164516,-8966.02,-42136.8,-0,43080.2,589217
step02_gravity_refstate-mantle.xmf,178,2.34337e-07,6.04061e-06,0,3.37207e-06,-1.18988e+09,-1.18911e+09,-1.18991e+09,450677,0.0320414,0.132941,0,0.136748,-11670.2,-42833,-0,44394.4,450677
step02_gravity_refstate-mantle.xmf,179,4.34689e-07,5.51285e-06,0,2.79662e-06,-1.21768e+09,-1.217e+09,-1.21774e+09,373769,0.0324972,0.115424,0,0.119911,-13380.9,-43691.7,-0,45694.8,373769
step02_gravity_refstate-mantle.xmf,180,6.12872e-07,5.08569e-06,0,2.27296e-06,-1.2487e+09,-1.2481e+09,-1.24878e+09,303781,0.032614,0.0989757,0,0.104211,-15222.8,-44650,-0,47173.7,303781
step02_gravity_refstate-mantle.xmf,181,1.31201e-06,4.09444e-06,0,7.13356e-07,-1.449e+09,-1.44863e+09,-1.44918e+09,95340,0.0294553,0.0414493,0,0.0508494,-23488.3,-50839.4,-0,56003.1,95340
step02_gravity_refstate-mantle.xmf,182,-2.6655e-06,1.26103e-05,0,6.04788e-06,-1.09825e+09,-1.09621e+09,-1.0979e+09,808299,0.0238243,0.229885,0,0.231116,-4783.65,-40000,-0,40285,808299
step02_gravity_refstate-mantle.xmf,183,-2.60594e-06,1.21091e-05,0,5.76154e-06,-1.11582e+09,-1.11385e+09,-1.11547e+09,770030,0.0248396,0.219748,0,0.221147,-5064.3,-40541.8,-0,40856.9,770030
step02_gravity_refstate-mantle.xmf,184,-1.81525e-06,1.04705e-05,0,5.49056e-06,-1.13388e+09,-1.13224e+09,-1.13364e+09,733813,0.0274248,0.20085,0,0.202714,-6141.27,-41100.8,-0,41557,733813
step02_gravity_refstate-mantle.xmf,185,-9.3851e-07,8.56589e-06,0,4.72289e-06,-1.16963e+09,-1.16836e+09,-1.1695e+09,631215,0.030479,0.170472,0,0.173175,-8003.2,-42205.9,-0,42958,631215
step02_gravity_refstate-mantle.xmf,186,-6.09042e-08,6.67921e-06,0,3.73839e-06,-1.19137e+09,-1.19047e+09,-1.19137e+09,499636,0.0321913,0.141424,0,0.145042,-10601.8,-42878.8,-0,44170,499636
step02_gravity_refstate-mantle.xmf,187,-4.31001e-07,7.4144e-06,0,4.0777e-06,-1.19236e+09,-1.19131e+09,-1.1923e+09,544985,0.031972,0.150143,0,0.153509,-9570.41,-42908.7,-0,43963,544985
step02_gravity_refstate-mantle.xmf,188,2.02967e-07,6.03804e-06,0,3.13749e-06,-1.21908e+09,-1.2183e+09,-1.21911e+09,419326,0.0329055,0.123106,0,0.127427,-12247.6,-43734.8,-0,45417.3,419326
step02_gravity_refstate-mantle.xmf,189,4.10513e-07,5.53705e-06,0,2.5864e-06,-1.24956e+09,-1.24887e+09,-1.24961e+09,345672,0.03327,0.106036,0,0.111133,-13994.8,-44676.2,-0,46816.9,345672
step02_gravity_refstate-mantle.xmf,190,9.32125e-07,4.39887e-06,0,1.55289e-06,-1.28317e+09,-1.28271e+09,-1.2833e+09,207544,0.0311912,0.077867,0,0.0838818,-18532.7,-45715.2,-0,49328.9,207544
step02_gravity_refstate-mantle.xmf,191,6.02398e-07,5.13174e-06,0,2.08868e-06,-1.28361e+09,-1.283e+09,-1.28369e+09,279152,0.0332787,0.0900795,0,0.0960302,-15857.2,-45728.3,-0,48399.7,279152
step02_gravity_refstate-mantle.xmf,192,7.80803e-07,4.74568e-06,0,1.81334e-06,-1.28379e+09,-1.28326e+09,-1.2839e+09,242352,0.03238,0.0837513,0,0.0897928,-17165.3,-45734.3,-0,48849.5,242352
step02_gravity_refstate-mantle.xmf,193,9.64472e-07,4.42201e-06,0,1.39041e-06,-1.32162e+09,-1.32116e+09,-1.32175e+09,185829,0.031595,0.0696386,0,0.0764707,-19299,-46903.1,-0,50718.4,185829
step02_gravity_refstate-mantle.xmf,194,1.00653e-06,4.43642e-06,0,1.22521e-06,-1.36116e+09,-1.3607e+09,-1.36129e+09,163750,0.0317748,0.0615448,0,0.0692633,-20086.3,-48124.7,-0,52148.3,163750
step02_gravity_refstate-mantle.xmf,195,1.06168e-06,4.43281e-06,0,1.0521e-06,-1.40243e+09,-1.40198e+09,-1.40257e+09,140613,0.031724,0.0534297,0,0.0621381,-20926.6,-49400.1,-0,53649.7,140613
step02_gravity_refstate-mantle.xmf,196,1.12072e-06,4.4354e-06,0,8.75e-07,-1.44839e+09,-1.44795e+09,-1.44854e+09,116944,0.0315463,0.0450818,0,0.0550231,-21762.6,-50820.2,-0,55283.9,116944
step02_gravity_refstate-mantle.xmf,197,1.38457e-06,4.10231e-06,0,5.65224e-07,-1.49959e+09,-1.49923e+09,-1.49977e+09,75542.2,0.0289851,0.033595,0,0.0443707,-24336.4,-52402.6,-0,57777.9,75542.2
step02_gravity_refstate-mantle.xmf,198,1.55966e-06,3.80652e-06,0,4.38701e-07,-1.5047e+09,-1.5044e+09,-1.50491e+09,58632.4,0.0263242,0.0304441,0,0.0402468,-26184.4,-52560.9,-0,58721.9,58632.4
step02_gravity_refstate-mantle.xmf,199,1.64489e-06,3.8068e-06,0,3.08552e-07,-1.56205e+09,-1.56176e+09,-1.56227e+09,41238,0.0253865,0.0227044,0,0.0340582,-27116.9,-54332.9,-0,60723.9,41238
step02_gravity_refstate-mantle.xmf,200,1.74066e-06,3.78582e-06,0,1.8833e-07,-1.62128e+09,-1.62101e+09,-1.62152e+09,25170.3,0.0239721,0.0149939,0,0.028275,-28181.9,-56163.3,-0,62837.4,25170.3
step02_gravity_refstate-mantle.xmf,201,1.82908e-06,3.76485e-06,0,8.46027e-08,-1.68244e+09,-1.68218e+09,-1.68268e+09,11307.1,0.0223311,0.007444,0,0.0235392,-29229.9,-58052.8,-0,64996.3,11307.1
step02_gravity_refstate-mantle.xmf,202,1.90651e-06,3.74539e-06,0,-3.95121e-10,-1.74546e+09,-1.74521e+09,-1.74571e+09,-52.8079,0.0204287,-1.07247e-19,0,0.0204287,-30289.7,-60000,-0,67212.1,52.8079
step02_gravity_refstate-mantle.xmf,203,-3.20434e-06,1.31917e-05,0,5.6405e-06,-1.11341e+09,-1.11122e+09,-1.11299e+09,753852,0.0230648,0.227783,0,0.228948,-4460.08,-40466.2,-0,40711.3,753852
step02_gravity_refstate-mantle.xmf,204,-3.48395e-06,1.39599e-05,0,5.75513e-06,-1.09832e+09,-1.09599e+09,-1.09785e+09,769174,0.0217179,0.238343,0,0.239331,-4097.91,-40000,-0,40209.4,769174
step02_gravity_refstate-mantle.xmf,205,-2.53604e-06,1.17048e-05,0,5.4849e-06,-1.13438e+09,-1.13248e+09,-1.13404e+09,733056,0.025696,0.209751,0,0.211319,-5340.52,-41114.6,-0,41460,733056
step02_gravity_refstate-mantle.xmf,206,-1.67452e-06,1.00191e-05,0,5.21718e-06,-1.15054e+09,-1.14898e+09,-1.15032e+09,697276,0.0283798,0.190781,0,0.19288,-6573.73,-41615.2,-0,42131.2,697276
step02_gravity_refstate-mantle.xmf,207,-9.06179e-07,8.28378e-06,0,4.35858e-06,-1.19445e+09,-1.19322e+09,-1.19433e+09,582524,0.0313399,0.158786,0,0.161849,-8553.3,-42972.3,-0,43815.3,582524
step02_gravity_refstate-mantle.xmf,208,-9.18327e-08,6.63249e-06,0,3.46613e-06,-1.21975e+09,-1.21885e+09,-1.21973e+09,463249,0.0329867,0.131095,0,0.135181,-11159.7,-43754.8,-0,45155.6,463249
step02_gravity_refstate-mantle.xmf,209,1.67311e-07,6.0416e-06,0,2.8986e-06,-1.24984e+09,-1.24905e+09,-1.24986e+09,387398,0.0336193,0.113404,0,0.118283,-12822.5,-44684.6,-0,46488,387398
step02_gravity_refstate-mantle.xmf,210,3.9286e-07,5.56439e-06,0,2.37287e-06,-1.28313e+09,-1.28244e+09,-1.28318e+09,317135,0.033892,0.0967674,0,0.102531,-14601,-45713.2,-0,47988.4,317135
step02_gravity_refstate-mantle.xmf,211,1.19245e-06,4.41312e-06,0,7.088e-07,-1.49224e+09,-1.49181e+09,-1.4924e+09,94731.1,0.0311158,0.037377,0,0.0486336,-22618.1,-52175,-0,56866.6,94731.1
step02_gravity_refstate-mantle.xmf,212,-4.24874e-06,1.52669e-05,0,5.23266e-06,-1.09837e+09,-1.09577e+09,-1.09781e+09,699345,0.0190843,0.246082,0,0.246821,-3414.86,-40000,-0,40145.5,699345
step02_gravity_refstate-mantle.xmf,213,-3.89988e-06,1.41709e-05,0,5.15339e-06,-1.12161e+09,-1.1192e+09,-1.12109e+09,688751,0.02101,0.23069,0,0.231645,-3877.21,-40717.3,-0,40901.5,688751
step02_gravity_refstate-mantle.xmf,214,-3.26522e-06,1.29364e-05,0,5.32011e-06,-1.13278e+09,-1.13061e+09,-1.13234e+09,711032,0.0235039,0.218639,0,0.219899,-4581.97,-41063.3,-0,41318.1,711032
step02_gravity_refstate-mantle.xmf,215,-2.35147e-06,1.11784e-05,0,5.26142e-06,-1.1502e+09,-1.14839e+09,-1.14989e+09,703189,0.0266935,0.199934,0,0.201708,-5730.4,-41603.1,-0,41995.9,703189
step02_gravity_refstate-mantle.xmf,216,-1.54609e-06,9.58586e-06,0,4.89223e-06,-1.17151e+09,-1.17002e+09,-1.1713e+09,653846,0.0293481,0.179286,0,0.181672,-7069.99,-42262.7,-0,42850,653846
step02_gravity_refstate-mantle.xmf,217,-1.43035e-06,9.23496e-06,0,4.56988e-06,-1.19554e+09,-1.19412e+09,-1.19535e+09,610764,0.0302301,0.167314,0,0.170023,-7591.06,-43005,-0,43669.8,610764
step02_gravity_refstate-mantle.xmf,218,-4.46132e-07,7.31093e-06,0,3.77432e-06,-1.21995e+09,-1.21891e+09,-1.21989e+09,504438,0.0327148,0.13936,0,0.143148,-10104.4,-43760.5,-0,44911.9,504438
step02_gravity_refstate-mantle.xmf,219,-8.74086e-07,8.07858e-06,0,4.03121e-06,-1.22059e+09,-1.21939e+09,-1.22047e+09,538771,0.0320608,0.147544,0,0.150987,-9086.83,-43779.4,-0,44712.5,538771
step02_gravity_refstate-mantle.xmf,220,-1.18016e-07,6.61138e-06,0,3.2054e-06,-1.2497e+09,-1.2488e+09,-1.24969e+09,428402,0.0336463,0.121038,0,0.125628,-11696.9,-44680,-0,46185.7,428402
step02_gravity_refstate-mantle.xmf,221,1.37902e-07,6.05729e-06,0,2.65682e-06,-1.28305e+09,-1.28226e+09,-1.28307e+09,355084,0.0342128,0.103638,0,0.109139,-13395.1,-45710.4,-0,47632.6,355084
step02_gravity_refstate-mantle.xmf,222,7.92011e-07,4.78559e-06,0,1.63867e-06,-1.32173e+09,-1.3212e+09,-1.32184e+09,219008,0.032869,0.0751942,0,0.0820642,-17851.6,-46906.4,-0,50188.5,219008
step02_gravity_refstate-mantle.xmf,223,3.80267e-07,5.59096e-06,0,2.1595e-06,-1.31775e+09,-1.31705e+09,-1.3178e+09,288618,0.0343635,0.0876854,0,0.0941785,-15201.5,-46782.7,-0,49190.5,288618
step02_gravity_refstate-mantle.xmf,224,5.95446e-07,5.17859e-06,0,1.89564e-06,-1.32087e+09,-1.32026e+09,-1.32095e+09,253352,0.0337993,0.0811657,0,0.0879219,-16482.8,-46879.6,-0,49692.8,253352
step02_gravity_refstate-mantle.xmf,225,8.16369e-07,4.80702e-06,0,1.45088e-06,-1.36119e+09,-1.36066e+09,-1.3613e+09,193910,0.0331553,0.0666051,0,0.0744011,-18572.3,-48125.6,-0,51584.9,193910
step02_gravity_refstate-mantle.xmf,226,8.55161e-07,4.81277e-06,0,1.25698e-06,-1.40219e+09,-1.40166e+09,-1.4023e+09,167995,0.0332442,0.0580032,0,0.0668546,-19335.7,-49392.1,-0,53041.9,167995
step02_gravity_refstate-mantle.xmf,227,9.0446e-07,4.81018e-06,0,1.05862e-06,-1.44575e+09,-1.44523e+09,-1.44587e+09,141485,0.0331773,0.0493523,0,0.0594675,-20117.1,-50738.2,-0,54580.8,141485
step02_gravity_refstate-mantle.xmf,228,9.70003e-07,4.78728e-06,0,8.6168e-07,-1.49017e+09,-1.48966e+09,-1.4903e+09,115164,0.0329198,0.0409009,0,0.0525033,-20930.6,-52110.8,-0,56157.1,115164
step02_gravity_refstate-mantle.xmf,229,1.26459e-06,4.38265e-06,0,5.62361e-07,-1.53256e+09,-1.53214e+09,-1.53273e+09,75159.5,0.0305747,0.0306531,0,0.0432946,-23394.4,-53421,-0,58318.9,75159.5
step02_gravity_refstate-mantle.xmf,230,1.42868e-06,4.17837e-06,0,4.2271e-07,-1.55995e+09,-1.55958e+09,-1.56014e+09,56495.2,0.0288527,0.0252014,0,0.0383091,-24849.8,-54267.5,-0,59686.4,56495.2
step02_gravity_refstate-mantle.xmf,231,1.54793e-06,4.1099e-06,0,2.53521e-07,-1.62066e+09,-1.62032e+09,-1.62087e+09,33883,0.0274515,0.0163515,0,0.0319524,-26063.4,-56143.5,-0,61898.3,33883
step02_gravity_refstate-mantle.xmf,232,1.64665e-06,4.07039e-06,0,1.14649e-07,-1.68267e+09,-1.68235e+09,-1.68289e+09,15322.8,0.0260727,0.00801349,0,0.0272764,-27077.3,-58059.6,-0,64063.3,15322.8
step02_gravity_refstate-mantle.xmf,233,1.73863e-06,4.02802e-06,0,-8.18371e-10,-1.74547e+09,-1.74516e+09,-1.7457e+09,-109.375,0.0244529,-1.17136e-19,0,0.0244529,-28082.3,-60000,-0,66246.6,109.375
step02_gravity_refstate-mantle.xmf,234,-4.94617e-06,1.64778e-05,0,4.50289e-06,-1.09843e+09,-1.09556e+09,-1.09776e+09,601811,0.0159419,0.252849,0,0.253351,-2731.89,-40000,-0,40093.2,601811
step02_gravity_refstate-mantle.xmf,235,-4.66183e-06,1.54951e-05,0,4.55524e-06,-1.11809e+09,-1.1154e+09,-1.11747e+09,608808,0.0177104,0.239808,0,0.240461,-3103.07,-40606.9,-0,40725.3,608808
step02_gravity_refstate-mantle.xmf,236,-3.0733e-06,1.23669e-05,0,5.11054e-06,-1.1507e+09,-1.14863e+09,-1.15029e+09,683024,0.0245018,0.208158,0,0.209595,-4919.65,-41616.7,-0,41906.4,683024
step02_gravity_refstate-mantle.xmf,237,-2.20632e-06,1.06857e-05,0,4.942e-06,-1.17289e+09,-1.17116e+09,-1.17259e+09,660498,0.0276821,0.187773,0,0.189803,-6172.97,-42303.6,-0,42751.6,660498
step02_gravity_refstate-mantle.xmf,238,-1.37077e-06,8.92545e-06,0,4.21414e-06,-1.22123e+09,-1.21986e+09,-1.22105e+09,563220,0.0309703,0.155626,0,0.158678,-8102.27,-43798.1,-0,44541.2,563220
step02_gravity_refstate-mantle.xmf,239,-4.7035e-07,7.24919e-06,0,3.48582e-06,-1.24905e+09,-1.24802e+09,-1.24899e+09,465880,0.0333197,0.128975,0,0.13321,-10604.9,-44659.1,-0,45901,465880
step02_gravity_refstate-mantle.xmf,240,-1.45226e-07,6.58625e-06,0,2.94107e-06,-1.28046e+09,-1.27956e+09,-1.28044e+09,393074,0.0341743,0.111199,0,0.116332,-12236.4,-45629.9,-0,47242.1,393074
step02_gravity_refstate-mantle.xmf,241,1.33147e-07,6.05094e-06,0,2.41646e-06,-1.31604e+09,-1.31525e+09,-1.31606e+09,322960,0.0346491,0.094169,0,0.100341,-13986.3,-46729.5,-0,48777.7,322960
step02_gravity_refstate-mantle.xmf,242,1.05559e-06,4.72858e-06,0,6.72931e-07,-1.53333e+09,-1.53283e+09,-1.53347e+09,89937.2,0.0324103,0.0329283,0,0.0462028,-21820.9,-53444.1,-0,57727.1,89937.2
step02_gravity_refstate-mantle.xmf,243,-5.24517e-06,1.64693e-05,0,3.81456e-06,-1.11758e+09,-1.11468e+09,-1.11688e+09,509816,0.014433,0.245541,0,0.245965,-2440.75,-40589.8,-0,40663.1,509816
step02_gravity_refstate-mantle.xmf,244,-4.45805e-06,1.47405e-05,0,4.43236e-06,-1.13963e+09,-1.13706e+09,-1.13903e+09,592385,0.018815,0.227333,0,0.228111,-3380.31,-41271.6,-0,41409.8,592385
step02_gravity_refstate-mantle.xmf,245,-3.85937e-06,1.36022e-05,0,4.73633e-06,-1.15134e+09,-1.14901e+09,-1.15083e+09,633010,0.0216204,0.215931,0,0.217011,-4087.03,-41634.6,-0,41834.7,633010
step02_gravity_refstate-mantle.xmf,246,-2.89821e-06,1.18108e-05,0,4.84392e-06,-1.17259e+09,-1.17062e+09,-1.1722e+09,647390,0.0254936,0.196205,0,0.197854,-5309.51,-42292.7,-0,42624.7,647390
step02_gravity_refstate-mantle.xmf,247,-2.06094e-06,1.02343e-05,0,4.62252e-06,-1.19649e+09,-1.19485e+09,-1.19621e+09,617800,0.0285895,0.175674,0,0.177985,-6648.02,-43032.5,-0,43543,617800
step02_gravity_refstate-mantle.xmf,248,-1.91696e-06,9.85743e-06,0,4.31854e-06,-1.22174e+09,-1.22016e+09,-1.22148e+09,577173,0.0293986,0.16354,0,0.166161,-7143.5,-43812.4,-0,44390.9,577173
step02_gravity_refstate-mantle.xmf,249,-8.63514e-07,7.94318e-06,0,3.72709e-06,-1.24783e+09,-1.24666e+09,-1.24772e+09,498126,0.0326277,0.136973,0,0.140805,-9569.75,-44620.7,-0,45635.4,498126
step02_gravity_refstate-mantle.xmf,250,-1.31086e-06,8.69194e-06,0,3.89654e-06,-1.24759e+09,-1.24625e+09,-1.24741e+09,520773,0.0315788,0.14448,0,0.147891,-8596.7,-44612,-0,45432.7,520773
step02_gravity_refstate-mantle.xmf,251,-4.89211e-07,7.21455e-06,0,3.21762e-06,-1.27871e+09,-1.27768e+09,-1.27865e+09,430035,0.0337917,0.119101,0,0.123802,-11071.5,-45575.2,-0,46900.7,430035
step02_gravity_refstate-mantle.xmf,252,-1.53517e-07,6.55796e-06,0,2.67402e-06,-1.31306e+09,-1.31216e+09,-1.31303e+09,357383,0.0346061,0.101208,0,0.106961,-12802.6,-46636.6,-0,48361.9,357383
step02_gravity_refstate-mantle.xmf,253,5.95996e-07,5.21918e-06,0,1.69071e-06,-1.36057e+09,-1.35995e+09,-1.36065e+09,225963,0.0341683,0.0721006,0,0.079787,-17123.5,-48105.7,-0,51062.5,225963
step02_gravity_refstate-mantle.xmf,254,1.18677e-07,6.07228e-06,0,2.19371e-06,-1.34975e+09,-1.34895e+09,-1.34976e+09,293190,0.0349837,0.08527,0,0.0921674,-14505.1,-47770.6,-0,49924.2,293190
step02_gravity_refstate-mantle.xmf,255,3.50158e-07,5.66418e-06,0,1.9426e-06,-1.35784e+09,-1.35713e+09,-1.35789e+09,259629,0.0347921,0.0783145,0,0.0856951,-15723.2,-48021.1,-0,50529.7,259629
step02_gravity_refstate-mantle.xmf,256,6.18902e-07,5.23374e-06,0,1.47229e-06,-1.40184e+09,-1.40123e+09,-1.40193e+09,196772,0.0343605,0.0629175,0,0.0716886,-17814.3,-49381,-0,52496,196772
step02_gravity_refstate-mantle.xmf,257,6.59138e-07,5.22756e-06,0,1.25148e-06,-1.44401e+09,-1.4434e+09,-1.44409e+09,167261,0.0343883,0.0538428,0,0.0638874,-18542.4,-50683.7,-0,53969,167261
step02_gravity_refstate-mantle.xmf,258,7.17037e-07,5.20236e-06,0,1.02835e-06,-1.48786e+09,-1.48726e+09,-1.48796e+09,137439,0.0342693,0.0448054,0,0.0564084,-19306,-52038.7,-0,55504.5,137439
step02_gravity_refstate-mantle.xmf,259,7.9835e-07,5.14735e-06,0,8.0943e-07,-1.53217e+09,-1.53159e+09,-1.53228e+09,108180,0.0339739,0.0360121,0,0.0495086,-20128.4,-53407.8,-0,57074.9,108180
step02_gravity_refstate-mantle.xmf,260,1.16976e-06,4.62681e-06,0,4.94095e-07,-1.57567e+09,-1.57521e+09,-1.57583e+09,66035.8,0.0315822,0.0253782,0,0.0405153,-22841.1,-54752.7,-0,59326,66035.8
step02_gravity_refstate-mantle.xmf,261,1.31281e-06,4.50255e-06,0,3.17582e-07,-1.62441e+09,-1.62398e+09,-1.62458e+09,42444.9,0.0304019,0.017345,0,0.0350017,-24011.7,-56258.7,-0,61168.7,42444.9
step02_gravity_refstate-mantle.xmf,262,1.41893e-06,4.44314e-06,0,1.47546e-07,-1.68399e+09,-1.68358e+09,-1.68418e+09,19719.5,0.0293117,0.00855684,0,0.0305352,-24966.3,-58099.7,-0,63236.8,19719.5
step02_gravity_refstate-mantle.xmf,263,1.52945e-06,4.37051e-06,0,-1.2248e-09,-1.74549e+09,-1.74511e+09,-1.74569e+09,-163.695,0.0279371,-1.27383e-19,0,0.0279371,-25950.7,-60000,-0,65371.5,163.695
step02_gravity_refstate-mantle.xmf,264,-5.52838e-06,1.7451e-05,0,3.54365e-06,-1.09847e+09,-1.0954e+09,-1.09773e+09,473609,0.0123603,0.258385,0,0.25868,-2048.93,-40000,-0,40052.4,473609
step02_gravity_refstate-mantle.xmf,265,-4.95809e-06,1.56501e-05,0,3.95686e-06,-1.13402e+09,-1.13126e+09,-1.13335e+09,528834,0.0160898,0.234771,0,0.235322,-2789.32,-41097.2,-0,41191.7,528834
step02_gravity_refstate-mantle.xmf,266,-3.45174e-06,1.27315e-05,0,4.67968e-06,-1.16959e+09,-1.16742e+09,-1.16912e+09,625439,0.0233542,0.203663,0,0.204997,-4623.51,-42198.5,-0,42451.1,625439
step02_gravity_refstate-mantle.xmf,267,-2.73636e-06,1.13136e-05,0,4.54859e-06,-1.19675e+09,-1.19487e+09,-1.19638e+09,607918,0.0263529,0.183954,0,0.185832,-5711.05,-43038.7,-0,43415.9,607918
step02_gravity_refstate-mantle.xmf,268,-1.82111e-06,9.51422e-06,0,3.98003e-06,-1.24818e+09,-1.24667e+09,-1.24794e+09,531930,0.030071,0.151754,0,0.154705,-7629.78,-44629,-0,45276.5,531930
step02_gravity_refstate-mantle.xmf,269,-8.94695e-07,7.90043e-06,0,3.45271e-06,-1.27613e+09,-1.27495e+09,-1.27601e+09,461455,0.0330078,0.127328,0,0.131537,-9946.11,-45494.4,-0,46568.9,461455
step02_gravity_refstate-mantle.xmf,270,-4.99915e-07,7.15573e-06,0,2.93273e-06,-1.3097e+09,-1.30868e+09,-1.30963e+09,391960,0.0341935,0.109013,0,0.11425,-11581.4,-46532.1,-0,47951.7,391960
step02_gravity_refstate-mantle.xmf,271,-1.4856e-07,6.53386e-06,0,2.4255e-06,-1.34513e+09,-1.34424e+09,-1.34511e+09,324168,0.0349288,0.0918395,0,0.0982574,-13342.8,-47627.3,-0,49461,324168
step02_gravity_refstate-mantle.xmf,272,8.9596e-07,5.0664e-06,0,5.98994e-07,-1.57714e+09,-1.57658e+09,-1.57726e+09,80055.5,0.0334888,0.0275024,0,0.0433346,-21012.8,-54797.3,-0,58688,80055.5
step02_gravity_refstate-mantle.xmf,273,-5.73079e-06,1.72148e-05,0,2.84547e-06,-1.119e+09,-1.11593e+09,-1.11823e+09,380297,0.0106672,0.249278,0,0.249507,-1755.99,-40632.1,-0,40670,380297
step02_gravity_refstate-mantle.xmf,274,-5.39682e-06,1.62694e-05,0,3.23645e-06,-1.13747e+09,-1.13458e+09,-1.13675e+09,432551,0.0130849,0.237044,0,0.237405,-2215.31,-41202.6,-0,41262.1,432551
step02_gravity_refstate-mantle.xmf,275,-5.9706e-06,1.81664e-05,0,2.42719e-06,-1.09851e+09,-1.09528e+09,-1.09771e+09,324394,0.00843538,0.262484,0,0.262619,-1365.96,-40000,-0,40023.3,324394
step02_gravity_refstate-mantle.xmf,276,-6.21582e-06,1.85994e-05,0,-1.23236e-06,-1.09852e+09,-1.09521e+09,-1.09769e+09,-164704,-0.00427575,0.264999,-0,0.265034,682.988,-40000,0,40005.8,164704
step02_gravity_refstate-mantle.xmf,277,-6.30468e-06,1.87487e-05,0,-5.07165e-09,-1.09853e+09,-1.09518e+09,-1.09769e+09,-677.827,5.29732e-07,0.265848,0,0.265848,0,-40000,0,40000,677.827
step02_gravity_refstate-mantle.xmf,278,-6.26019e-06,1.82619e-05,0,-6.38706e-07,-1.11184e+09,-1.10857e+09,-1.11101e+09,-85363.1,-0.00225661,0.258033,-0,0.258043,360.036,-40410.2,0,40411.8,85363.1
step02_gravity_refstate-mantle.xmf,279,-6.22334e-06,1.86007e-05,0,1.226e-06,-1.09853e+09,-1.09521e+09,-1.09769e+09,163854,0.00427645,0.265,0,0.265034,-682.988,-40000,-0,40005.8,163854
step02_gravity_refstate-mantle.xmf,280,-6.2772e-06,1.81873e-05,0,3.8352e-07,-1.11535e+09,-1.11208e+09,-1.11451e+09,51257.4,0.00147072,0.256188,0,0.256193,-234.796,-40518.3,-0,40519,51257.4
step02_gravity_refstate-mantle.xmf,281,-6.08985e-06,1.76961e-05,0,1.57907e-06,-1.12236e+09,-1.11919e+09,-1.12155e+09,211043,0.00598524,0.250872,0,0.250944,-967.162,-40734.9,-0,40746.4,211043
step02_gravity_refstate-mantle.xmf,282,-4.98338e-06,1.53324e-05,0,3.61763e-06,-1.15342e+09,-1.15071e+09,-1.15276e+09,483496,0.0156906,0.225759,0,0.226304,-2753.46,-41695.7,-0,41786.5,483496
step02_gravity_refstate-mantle.xmf,283,-4.47294e-06,1.42938e-05,0,3.93697e-06,-1.17123e+09,-1.16872e+09,-1.17063e+09,526176,0.0185307,0.212941,0,0.213746,-3411.74,-42246.6,-0,42384.1,526176
step02_gravity_refstate-mantle.xmf,284,-3.9572e-06,1.34239e-05,0,4.25552e-06,-1.17787e+09,-1.17555e+09,-1.17734e+09,568750,0.0211125,0.205183,0,0.206267,-4051.02,-42452.8,-0,42645.6,568750
step02_gravity_refstate-mantle.xmf,285,-3.47822e-06,1.25173e-05,0,4.32941e-06,-1.19447e+09,-1.19234e+09,-1.19401e+09,578625,0.0233408,0.193098,0,0.194504,-4726.92,-42966.6,-0,43225.8,578625
step02_gravity_refstate-mantle.xmf,286,-2.5412e-06,1.08036e-05,0,4.25597e-06,-1.22221e+09,-1.22043e+09,-1.22187e+09,568811,0.0272934,0.171175,0,0.173337,-6198.7,-43825.4,-0,44261.6,568811
step02_gravity_refstate-mantle.xmf,287,-2.36789e-06,1.04012e-05,0,3.98433e-06,-1.24813e+09,-1.24642e+09,-1.24781e+09,532506,0.0280709,0.159028,0,0.161487,-6672.04,-44626.1,-0,45122.1,532506
step02_gravity_refstate-mantle.xmf,288,-1.23041e-06,8.48739e-06,0,3.64692e-06,-1.27e+09,-1.2687e+09,-1.26984e+09,487410,0.0320801,0.135106,0,0.138862,-9059.41,-45304.4,-0,46201.3,487410
step02_gravity_refstate-mantle.xmf,289,-1.6993e-06,9.20084e-06,0,3.67485e-06,-1.27491e+09,-1.27345e+09,-1.27468e+09,491144,0.0307339,0.140127,0,0.143458,-8162.57,-45454.7,-0,46181.8,491144
step02_gravity_refstate-mantle.xmf,290,-9.43247e-07,7.91027e-06,0,3.17976e-06,-1.30702e+09,-1.30584e+09,-1.30689e+09,424976,0.0332594,0.117629,0,0.122241,-10275.1,-46448.3,-0,47571.3,424976
step02_gravity_refstate-mantle.xmf,291,-4.7762e-07,7.07563e-06,0,2.64706e-06,-1.34185e+09,-1.34084e+09,-1.34178e+09,353779,0.0345488,0.098699,0,0.104571,-12155.9,-47525.1,-0,49055.1,353779
step02_gravity_refstate-mantle.xmf,292,-1.40213e-07,6.51192e-06,0,2.20517e-06,-1.37445e+09,-1.37356e+09,-1.37443e+09,294720,0.0351546,0.083609,0,0.0906991,-13827.9,-48532.9,-0,50464.4,294720
step02_gravity_refstate-mantle.xmf,293,3.47004e-07,5.69654e-06,0,1.69984e-06,-1.39991e+09,-1.3992e+09,-1.39996e+09,227183,0.0350542,0.0684615,0,0.0769141,-16339.3,-49320.8,-0,51956.8,227183
step02_gravity_refstate-mantle.xmf,294,2.19788e-08,6.23541e-06,0,1.95676e-06,-1.3949e+09,-1.39407e+09,-1.39491e+09,261521,0.0353112,0.0754347,0,0.0832903,-14788.9,-49165.2,-0,51341.3,261521
step02_gravity_refstate-mantle.xmf,295,3.81719e-07,5.68797e-06,0,1.44861e-06,-1.44263e+09,-1.44192e+09,-1.44268e+09,193606,0.0351642,0.0585915,0,0.0683336,-17028.6,-50640.4,-0,53426.8,193606
step02_gravity_refstate-mantle.xmf,296,4.29417e-07,5.66429e-06,0,1.20262e-06,-1.48585e+09,-1.48515e+09,-1.48591e+09,160730,0.0351627,0.0490237,0,0.0603303,-17723.8,-51975.7,-0,54914.6,160730
step02_gravity_refstate-mantle.xmf,297,4.98662e-07,5.61778e-06,0,9.6051e-07,-1.52981e+09,-1.52913e+09,-1.52988e+09,128372,0.0350473,0.0396624,0,0.0529284,-18454,-53334.2,-0,56436.6,128372
step02_gravity_refstate-mantle.xmf,298,5.97834e-07,5.53274e-06,0,7.23478e-07,-1.57432e+09,-1.57366e+09,-1.5744e+09,96692.8,0.0347821,0.0305141,0,0.0462699,-19270.9,-54709.4,-0,58004.2,96692.8
step02_gravity_refstate-mantle.xmf,299,1.019e-06,4.96517e-06,0,3.88515e-07,-1.62769e+09,-1.62716e+09,-1.62782e+09,51925,0.0327792,0.0185653,0,0.0376716,-21988.2,-56359.3,-0,60496.7,51925
step02_gravity_refstate-mantle.xmf,300,1.14521e-06,4.87707e-06,0,1.84677e-07,-1.68495e+09,-1.68445e+09,-1.6851e+09,24682,0.031943,0.0092398,0,0.0332525,-22915.6,-58128.8,-0,62482.6,24682
step02_gravity_refstate-mantle.xmf,301,1.2766e-06,4.77306e-06,0,-1.71941e-09,-1.74551e+09,-1.74504e+09,-1.74568e+09,-229.799,0.0308307,-1.39801e-19,0,0.0308307,-23888.9,-60000,-0,64580.8,229.799
step02_gravity_refstate-mantle.xmf,302,-5.96378e-06,1.81475e-05,0,-2.43554e-06,-1.09851e+09,-1.09529e+09,-1.09771e+09,-325510,-0.00843539,0.262483,-0,0.262619,1365.96,-40000,0,40023.3,325510
step02_gravity_refstate-mantle.xmf,303,-6.11911e-06,1.79337e-05,0,-1.61165e-06,-1.11545e+09,-1.11223e+09,-1.11463e+09,-215397,-0.00596319,0.254695,-0,0.254765,959.96,-40521.6,0,40533,215397
step02_gravity_refstate-mantle.xmf,304,-6.19435e-06,1.76631e-05,0,-6.26587e-07,-1.13133e+09,-1.12815e+09,-1.13051e+09,-83743.3,-0.00242898,0.247203,-0,0.247215,392.029,-41011.2,0,41013.1,83743.3
step02_gravity_refstate-mantle.xmf,305,-3.18677e-06,1.17991e-05,0,4.06416e-06,-1.22217e+09,-1.22017e+09,-1.22174e+09,543174,0.0246004,0.178597,0,0.180284,-5254.67,-43822.3,-0,44136.2,543174
step02_gravity_refstate-mantle.xmf,306,-2.21992e-06,1.00093e-05,0,3.68738e-06,-1.27428e+09,-1.27264e+09,-1.27398e+09,492818,0.0287859,0.147299,0,0.150085,-7160.68,-45433.7,-0,45994.6,492818
step02_gravity_refstate-mantle.xmf,307,-1.44126e-06,8.69898e-06,0,3.36865e-06,-1.30095e+09,-1.29959e+09,-1.30075e+09,450220,0.0318015,0.12722,0,0.131135,-9011.62,-46259.4,-0,47129,450220
step02_gravity_refstate-mantle.xmf,308,-8.60049e-07,7.70003e-06,0,2.86797e-06,-1.33675e+09,-1.3356e+09,-1.33663e+09,383304,0.0337412,0.10661,0,0.111822,-10926.1,-47366.6,-0,48610.4,383304
step02_gravity_refstate-mantle.xmf,309,-4.35384e-07,6.99596e-06,0,2.37863e-06,-1.37389e+09,-1.37289e+09,-1.37383e+09,317903,0.0348403,0.0887963,0,0.0953868,-12738.8,-48514.9,-0,50159.5,317903
step02_gravity_refstate-mantle.xmf,310,7.16805e-07,5.42569e-06,0,4.85558e-07,-1.62299e+09,-1.62236e+09,-1.62309e+09,64894.8,0.0343495,0.0210955,0,0.0403101,-20170,-56213.4,-0,59722.4,64894.8
step02_gravity_refstate-mantle.xmf,311,-5.76881e-06,1.72758e-05,0,-2.78929e-06,-1.11772e+09,-1.11464e+09,-1.11695e+09,-372789,-0.0103407,0.250275,-0,0.250489,1697.94,-40592.7,0,40628.2,372789
step02_gravity_refstate-mantle.xmf,312,-5.80214e-06,1.68283e-05,0,2.25201e-06,-1.14069e+09,-1.13767e+09,-1.13992e+09,300981,0.00910589,0.2391,0,0.239273,-1509.64,-41300.7,-0,41328.3,300981
step02_gravity_refstate-mantle.xmf,313,-5.42692e-06,1.58894e-05,0,2.7479e-06,-1.1607e+09,-1.15785e+09,-1.15997e+09,367257,0.0119918,0.226398,0,0.226715,-2060.65,-41918.8,-0,41969.4,367257
step02_gravity_refstate-mantle.xmf,314,-6.16785e-06,1.75374e-05,0,5.96133e-07,-1.1352e+09,-1.13203e+09,-1.13438e+09,79673.2,0.00233589,0.245119,0,0.24513,-378.335,-41130.6,-0,41132.3,79673.2
step02_gravity_refstate-mantle.xmf,315,-4.14513e-06,1.34709e-05,0,3.79701e-06,-1.19826e+09,-1.19591e+09,-1.19771e+09,507470,0.0199199,0.198258,0,0.199256,-3846.51,-43081.6,-0,43253,507470
step02_gravity_refstate-mantle.xmf,316,-5.00864e-06,1.49936e-05,0,3.14569e-06,-1.17873e+09,-1.17605e+09,-1.17806e+09,420422,0.0147795,0.214607,0,0.215115,-2645.12,-42476.3,-0,42558.5,420422
step02_gravity_refstate-mantle.xmf,317,-3.81723e-06,1.27713e-05,0,3.72164e-06,-1.22254e+09,-1.22032e+09,-1.22203e+09,497397,0.0213758,0.18508,0,0.18631,-4334.29,-43831.8,-0,44045.6,497397
step02_gravity_refstate-mantle.xmf,318,-2.95338e-06,1.12624e-05,0,3.82542e-06,-1.24833e+09,-1.24643e+09,-1.24793e+09,511267,0.0255898,0.165753,0,0.167717,-5739.32,-44630.4,-0,44998,511267
step02_gravity_refstate-mantle.xmf,319,-2.73266e-06,1.08108e-05,0,3.61492e-06,-1.27339e+09,-1.27158e+09,-1.27302e+09,483133,0.026507,0.153857,0,0.156124,-6232.57,-45404.9,-0,45830.7,483133
step02_gravity_refstate-mantle.xmf,320,-2.12946e-06,9.75883e-06,0,3.37797e-06,-1.30548e+09,-1.30389e+09,-1.30519e+09,451466,0.0292347,0.13493,0,0.138061,-7597.21,-46397.4,-0,47015.3,451466
step02_gravity_refstate-mantle.xmf,321,-1.33589e-06,8.47631e-06,0,3.03035e-06,-1.33607e+09,-1.33476e+09,-1.33589e+09,405006,0.0323407,0.114089,0,0.118584,-9640.48,-47344.6,-0,48316.1,405006
step02_gravity_refstate-mantle.xmf,322,-8.09005e-07,7.57656e-06,0,2.55713e-06,-1.37118e+09,-1.37006e+09,-1.37107e+09,341761,0.034096,0.0953217,0,0.101236,-11524.5,-48430.2,-0,49782.5,341761
step02_gravity_refstate-mantle.xmf,323,-3.58215e-07,6.86528e-06,0,2.11602e-06,-1.40413e+09,-1.40317e+09,-1.40409e+09,282807,0.0351106,0.0793169,0,0.0867405,-13409.2,-49449.4,-0,51235.2,282807
step02_gravity_refstate-mantle.xmf,324,6.79071e-08,6.18635e-06,0,1.64984e-06,-1.43983e+09,-1.43901e+09,-1.43984e+09,220501,0.0354834,0.0639242,0,0.073112,-15558.6,-50553.1,-0,52893.1,220501
step02_gravity_refstate-mantle.xmf,325,1.2152e-07,6.14725e-06,0,1.37607e-06,-1.48304e+09,-1.48223e+09,-1.48306e+09,183912,0.0355597,0.0535597,0,0.0642895,-16239.7,-51888.2,-0,54370.1,183912
step02_gravity_refstate-mantle.xmf,326,1.59104e-07,6.13995e-06,0,1.11137e-06,-1.52825e+09,-1.52745e+09,-1.52827e+09,148535,0.0355828,0.0435078,0,0.0562056,-16814.3,-53285,-0,55875,148535
step02_gravity_refstate-mantle.xmf,327,2.60663e-07,6.04409e-06,0,8.47528e-07,-1.57239e+09,-1.57161e+09,-1.57242e+09,113272,0.0354987,0.0336395,0,0.0489058,-17590.7,-54648.8,-0,57410.1,113272
step02_gravity_refstate-mantle.xmf,328,3.84524e-07,5.9214e-06,0,5.99404e-07,-1.61642e+09,-1.61568e+09,-1.61647e+09,80110.4,0.0353058,0.024269,0,0.0428425,-18415.3,-56009.4,-0,58959.1,80110.4
step02_gravity_refstate-mantle.xmf,329,7.8637e-07,5.42829e-06,0,2.43818e-07,-1.68253e+09,-1.68191e+09,-1.68264e+09,32586.2,0.0340771,0.0106864,0,0.0357134,-20703.2,-58053,-0,61634.2,32586.2
step02_gravity_refstate-mantle.xmf,330,9.79088e-07,5.23356e-06,0,-2.51003e-09,-1.74553e+09,-1.74497e+09,-1.74567e+09,-335.466,0.0330839,-1.72146e-19,0,0.0330839,-21891.2,-60000,-0,63868.8,335.466
step02_gravity_refstate-mantle.xmf,331,-5.93958e-06,1.71792e-05,0,-1.91709e-06,-1.13513e+09,-1.13204e+09,-1.13433e+09,-256219,-0.00758393,0.243074,-0,0.243192,1243.38,-41128.9,0,41147.7,256219
step02_gravity_refstate-mantle.xmf,332,-5.535e-06,1.74356e-05,0,-3.52665e-06,-1.09847e+09,-1.0954e+09,-1.09773e+09,-471337,-0.0123609,0.258384,-0,0.25868,2048.93,-40000,0,40052.4,471337
step02_gravity_refstate-mantle.xmf,333,-6.0093e-06,1.69869e-05,0,1.23759e-06,-1.14921e+09,-1.14613e+09,-1.1484e+09,165404,0.00511076,0.236852,0,0.236907,-842.431,-41562.8,-0,41571.4,165404
step02_gravity_refstate-mantle.xmf,334,-6.08872e-06,1.7055e-05,0,5.44057e-08,-1.15304e+09,-1.14995e+09,-1.15223e+09,7271.32,0.000210557,0.235811,0,0.235811,-34.7148,-41680.9,-0,41680.9,7271.32
step02_gravity_refstate-mantle.xmf,335,-4.65433e-06,1.4227e-05,0,3.25652e-06,-1.20004e+09,-1.19752e+09,-1.19942e+09,435234,0.0166203,0.202318,0,0.203,-3103.51,-43135.1,-0,43246.6,435234
step02_gravity_refstate-mantle.xmf,336,-3.53305e-06,1.21269e-05,0,3.54452e-06,-1.24852e+09,-1.24643e+09,-1.24805e+09,473725,0.022587,0.171951,0,0.173428,-4812.93,-44634.8,-0,44893.5,473725
step02_gravity_refstate-mantle.xmf,337,-2.55558e-06,1.0434e-05,0,3.41391e-06,-1.29538e+09,-1.29365e+09,-1.29504e+09,456269,0.0272652,0.143795,0,0.146357,-6678.65,-46084.5,-0,46565.9,456269
step02_gravity_refstate-mantle.xmf,338,-1.24177e-06,8.24775e-06,0,2.70691e-06,-1.36842e+09,-1.36715e+09,-1.36825e+09,361779,0.0328317,0.102377,0,0.107513,-10262.1,-48343.7,-0,49420.9,361779
step02_gravity_refstate-mantle.xmf,339,-2.78708e-07,6.7324e-06,0,1.83231e-06,-1.4387e+09,-1.43776e+09,-1.43866e+09,244889,0.0353398,0.0691761,0,0.0776803,-14141.3,-50517.2,-0,52459.2,244889
step02_gravity_refstate-mantle.xmf,340,-7.3298e-07,7.4533e-06,0,2.28425e-06,-1.40326e+09,-1.40217e+09,-1.40317e+09,305290,0.0344135,0.0850571,0,0.0917551,-12126,-49421.5,-0,50887.4,305290
step02_gravity_refstate-mantle.xmf,341,5.05542e-07,5.80032e-06,0,4.01391e-07,-1.65465e+09,-1.65394e+09,-1.65471e+09,53645.9,0.03503,0.0165668,0,0.03875,-19164.7,-57190.8,-0,60316.4,53645.9
step02_gravity_refstate-mantle.xmf,342,-4.2497e-06,1.52708e-05,0,-5.23962e-06,-1.09837e+09,-1.09577e+09,-1.09781e+09,-700276,-0.0190826,0.246082,-0,0.246821,3414.86,-40000,0,40145.5,700276
step02_gravity_refstate-mantle.xmf,343,-4.95733e-06,1.64589e-05,0,-4.48861e-06,-1.09843e+09,-1.09557e+09,-1.09777e+09,-599903,-0.0159411,0.252848,-0,0.253351,2731.89,-40000,0,40093.2,599903
step02_gravity_refstate-mantle.xmf,344,-4.51424e-06,1.52978e-05,0,-4.74864e-06,-1.11637e+09,-1.11372e+09,-1.11577e+09,-634656,-0.0183726,0.239303,-0,0.240007,3246.31,-40554.2,0,40683.9,634656
step02_gravity_refstate-mantle.xmf,345,-5.18347e-06,1.62429e-05,0,-3.84945e-06,-1.12204e+09,-1.11917e+09,-1.12134e+09,-514479,-0.0147677,0.24278,-0,0.243229,2509.67,-40727.2,0,40804.4,514479
step02_gravity_refstate-mantle.xmf,346,-5.51704e-06,1.64497e-05,0,-3.0136e-06,-1.13746e+09,-1.13452e+09,-1.13672e+09,-402768,-0.0120801,0.23815,-0,0.238457,2030.98,-41201.8,0,41251.8,402768
step02_gravity_refstate-mantle.xmf,347,-5.74674e-06,1.62587e-05,0,1.75142e-06,-1.16778e+09,-1.16484e+09,-1.16701e+09,234078,0.00772959,0.226014,0,0.226146,-1311.25,-42136.4,-0,42156.8,234078
step02_gravity_refstate-mantle.xmf,348,-5.39997e-06,1.54578e-05,0,2.23881e-06,-1.1871e+09,-1.18431e+09,-1.18638e+09,299217,0.0106288,0.214496,0,0.214759,-1870.93,-42733.5,-0,42774.5,299217
step02_gravity_refstate-mantle.xmf,349,-5.69642e-06,1.64157e-05,0,-2.22055e-06,-1.15484e+09,-1.15188e+09,-1.15407e+09,-296777,-0.00942077,0.231524,-0,0.231715,1586.17,-41737.3,0,41767.5,296777
step02_gravity_refstate-mantle.xmf,350,-5.98618e-06,1.68808e-05,0,-1.14074e-06,-1.15394e+09,-1.15088e+09,-1.15314e+09,-152460,-0.00479149,0.234491,-0,0.23454,793.178,-41708.8,0,41716.4,152460
step02_gravity_refstate-mantle.xmf,351,-4.38575e-06,1.35794e-05,0,3.17831e-06,-1.2235e+09,-1.22109e+09,-1.22291e+09,424781,0.0177356,0.190238,0,0.191063,-3451.13,-43859.7,-0,43995.3,424781
step02_gravity_refstate-mantle.xmf,352,-5.04318e-06,1.47538e-05,0,2.64866e-06,-1.20171e+09,-1.19907e+09,-1.20104e+09,353993,0.0133825,0.205139,0,0.205575,-2440.65,-43185.5,-0,43254.5,353993
step02_gravity_refstate-mantle.xmf,353,-4.08457e-06,1.29501e-05,0,3.129e-06,-1.24911e+09,-1.24684e+09,-1.24857e+09,418191,0.0190719,0.177264,0,0.178287,-3892.56,-44651.5,-0,44820.9,418191
step02_gravity_refstate-mantle.xmf,354,-3.25911e-06,1.15661e-05,0,3.37895e-06,-1.27459e+09,-1.27261e+09,-1.27415e+09,451597,0.023766,0.159217,0,0.160981,-5325.24,-45440.4,-0,45751.3,451597
step02_gravity_refstate-mantle.xmf,355,-2.99362e-06,1.10671e-05,0,3.23534e-06,-1.29939e+09,-1.29751e+09,-1.29899e+09,432403,0.0249575,0.147291,0,0.14939,-5875.75,-46207,-0,46579.1,432403
step02_gravity_refstate-mantle.xmf,356,-1.87615e-06,9.2692e-06,0,3.06115e-06,-1.33701e+09,-1.33552e+09,-1.33676e+09,409122,0.0303432,0.120913,0,0.124662,-8400.43,-47371.9,-0,48111,409122
step02_gravity_refstate-mantle.xmf,357,-2.64605e-06,1.0471e-05,0,3.12354e-06,-1.32171e+09,-1.31996e+09,-1.32135e+09,417462,0.0266826,0.135468,0,0.138071,-6650.92,-46897.2,-0,47366.5,417462
step02_gravity_refstate-mantle.xmf,358,-1.7214e-06,8.99432e-06,0,2.77975e-06,-1.36875e+09,-1.36732e+09,-1.36852e+09,371514,0.0309813,0.108686,0,0.113016,-9011.92,-48352.8,-0,49185.5,371514
step02_gravity_refstate-mantle.xmf,359,-1.14936e-06,8.06892e-06,0,2.38686e-06,-1.40433e+09,-1.4031e+09,-1.40418e+09,319003,0.0332547,0.0902887,0,0.0962181,-10895.6,-49453.4,-0,50639.4,319003
step02_gravity_refstate-mantle.xmf,360,-6.3378e-07,7.29216e-06,0,1.98381e-06,-1.43854e+09,-1.43748e+09,-1.43845e+09,265136,0.0347506,0.0740853,0,0.0818305,-12841.5,-50511.3,-0,52118.1,265136
step02_gravity_refstate-mantle.xmf,361,-2.16583e-07,6.6599e-06,0,1.54722e-06,-1.47918e+09,-1.47826e+09,-1.47915e+09,206786,0.0354906,0.0585536,0,0.0684697,-14809.3,-51767.9,-0,53844.5,206786
step02_gravity_refstate-mantle.xmf,362,-2.06214e-07,6.69058e-06,0,1.25785e-06,-1.52606e+09,-1.52514e+09,-1.52603e+09,168112,0.0355462,0.0476659,0,0.0594606,-15249.1,-53216.3,-0,55358,168112
step02_gravity_refstate-mantle.xmf,363,-1.20611e-07,6.61098e-06,0,9.68226e-07,-1.57099e+09,-1.57009e+09,-1.57097e+09,129403,0.0356163,0.0369712,0,0.0513361,-15918.3,-54604.4,-0,56877.3,129403
step02_gravity_refstate-mantle.xmf,364,1.37646e-08,6.46942e-06,0,6.88716e-07,-1.61556e+09,-1.6147e+09,-1.61556e+09,92046.9,0.035642,0.0266405,0,0.044498,-16728.4,-55981.8,-0,58427.8,92046.9
step02_gravity_refstate-mantle.xmf,365,1.86176e-07,6.27736e-06,0,4.38992e-07,-1.65763e+09,-1.65682e+09,-1.65766e+09,58671.3,0.0355566,0.017321,0,0.0395511,-17649.1,-57282.1,-0,59939.4,58671.3
step02_gravity_refstate-mantle.xmf,366,3.94061e-07,6.03762e-06,0,2.10038e-07,-1.70004e+09,-1.69928e+09,-1.70009e+09,28071.6,0.0352691,0.0085565,0,0.0362922,-18714.3,-58592.8,-0,61508.8,28071.6
step02_gravity_refstate-mantle.xmf,367,6.37848e-07,5.74725e-06,0,-2.10887e-09,-1.74557e+09,-1.74488e+09,-1.74565e+09,-281.851,0.0346475,-1.43303e-19,0,0.0346475,-19951.6,-60000,-0,63230.3,281.851
step02_gravity_refstate-mantle.xmf,368,-3.47863e-06,1.39208e-05,0,-5.7752e-06,-1.09832e+09,-1.09599e+09,-1.09785e+09,-771855,-0.0217174,0.238343,-0,0.23933,4097.91,-40000,0,40209.4,771855
step02_gravity_refstate-mantle.xmf,369,-3.9093e-06,1.43824e-05,0,-5.31374e-06,-1.11205e+09,-1.1096e+09,-1.11152e+09,-710181,-0.0207404,0.235625,-0,0.236536,3808.09,-40422.3,0,40601.3,710181
step02_gravity_refstate-mantle.xmf,370,-5.91682e-06,1.64307e-05,0,6.83174e-07,-1.17321e+09,-1.17022e+09,-1.17242e+09,91306.2,0.00305666,0.225058,0,0.225079,-515.893,-42303.4,-0,42306.6,91306.2
step02_gravity_refstate-mantle.xmf,371,-5.41279e-06,1.60013e-05,0,-2.88041e-06,-1.15374e+09,-1.15088e+09,-1.15301e+09,-384967,-0.0122808,0.229621,-0,0.229949,2098.66,-41704.2,0,41757,384967
step02_gravity_refstate-mantle.xmf,372,-5.91709e-06,1.64256e-05,0,-4.29562e-07,-1.17493e+09,-1.17194e+09,-1.17414e+09,-57410.9,-0.00193855,0.224379,-0,0.224388,327.455,-42356.5,0,42357.7,57410.9
step02_gravity_refstate-mantle.xmf,373,-4.85719e-06,1.42782e-05,0,2.55657e-06,-1.22436e+09,-1.2218e+09,-1.22371e+09,341686,0.0138171,0.194228,0,0.194719,-2606.31,-43885,-0,43962.3,341686
step02_gravity_refstate-mantle.xmf,374,-3.78776e-06,1.23302e-05,0,3.01952e-06,-1.27558e+09,-1.27342e+09,-1.27507e+09,403559,0.0203899,0.164327,0,0.165587,-4372.68,-45469.3,-0,45679.1,403559
step02_gravity_refstate-mantle.xmf,375,-2.38235e-06,1.00256e-05,0,2.99017e-06,-1.34107e+09,-1.33942e+09,-1.34076e+09,399637,0.0279463,0.125772,0,0.128839,-7303.1,-47496,-0,48054.2,399637
step02_gravity_refstate-mantle.xmf,376,-1.60461e-06,8.7476e-06,0,2.46572e-06,-1.40295e+09,-1.40156e+09,-1.40273e+09,329544,0.0315085,0.0964601,0,0.101476,-9608.92,-49409.2,-0,50334.9,329544
step02_gravity_refstate-mantle.xmf,377,-5.86827e-07,7.22157e-06,0,1.70028e-06,-1.47622e+09,-1.47518e+09,-1.47615e+09,227242,0.0349323,0.0636944,0,0.0726446,-13389.8,-51675.6,-0,53382.2,227242
step02_gravity_refstate-mantle.xmf,378,-1.01443e-06,7.86635e-06,0,2.08676e-06,-1.44015e+09,-1.43896e+09,-1.44001e+09,278895,0.0337339,0.0784412,0,0.0853874,-11620,-50560,-0,51878.1,278895
step02_gravity_refstate-mantle.xmf,379,-3.28486e-06,1.3264e-05,0,-5.59654e-06,-1.11544e+09,-1.11323e+09,-1.115e+09,-747978,-0.0228932,0.227607,-0,0.228756,4403.27,-40528.4,0,40766.9,747978
step02_gravity_refstate-mantle.xmf,380,-3.94457e-06,1.40462e-05,0,-4.98969e-06,-1.13172e+09,-1.12932e+09,-1.1312e+09,-666872,-0.0209734,0.226275,-0,0.227245,3878.12,-41029.1,0,41212,666872
step02_gravity_refstate-mantle.xmf,381,-4.66304e-06,1.5145e-05,0,-4.28956e-06,-1.13572e+09,-1.13307e+09,-1.1351e+09,-573300,-0.0177799,0.231132,-0,0.231815,3143.84,-41150.5,0,41270.4,573300
step02_gravity_refstate-mantle.xmf,382,-5.04371e-06,1.54667e-05,0,-3.59944e-06,-1.15004e+09,-1.1473e+09,-1.14936e+09,-481065,-0.0153066,0.227952,-0,0.228465,2667.83,-41591.1,0,41676.6,481065
step02_gravity_refstate-mantle.xmf,383,-5.64673e-06,1.57187e-05,0,1.24914e-06,-1.19537e+09,-1.19252e+09,-1.19462e+09,166948,0.00600318,0.213112,0,0.213197,-1049.27,-42988.1,-0,43000.9,166948
step02_gravity_refstate-mantle.xmf,384,-5.29217e-06,1.49476e-05,0,1.79344e-06,-1.21829e+09,-1.21559e+09,-1.21759e+09,239693,0.00935737,0.200461,0,0.200679,-1707.89,-43696.5,-0,43729.9,239693
step02_gravity_refstate-mantle.xmf,385,-5.34647e-06,1.55968e-05,0,-2.6534e-06,-1.17262e+09,-1.16982e+09,-1.1719e+09,-354627,-0.012102,0.220363,-0,0.220696,2109.66,-42286.8,0,42339.4,354627
step02_gravity_refstate-mantle.xmf,386,-5.72764e-06,1.61323e-05,0,-1.55486e-06,-1.17559e+09,-1.17267e+09,-1.17482e+09,-207807,-0.00703604,0.222444,-0,0.222555,1202.04,-42377.4,0,42394.5,207807
step02_gravity_refstate-mantle.xmf,387,-4.56298e-06,1.36189e-05,0,2.54783e-06,-1.24957e+09,-1.24714e+09,-1.24896e+09,340518,0.0151543,0.181653,0,0.182284,-2988.55,-44664.1,-0,44764,340518
step02_gravity_refstate-mantle.xmf,388,-4.27506e-06,1.3038e-05,0,2.53785e-06,-1.27651e+09,-1.2742e+09,-1.27594e+09,339184,0.016497,0.168687,0,0.169491,-3411.53,-45496.8,-0,45624.5,339184
step02_gravity_refstate-mantle.xmf,389,-3.49039e-06,1.17639e-05,0,2.91965e-06,-1.30232e+09,-1.30028e+09,-1.30185e+09,390211,0.0217906,0.151516,0,0.153075,-4918.17,-46295.8,-0,46556.3,390211
step02_gravity_refstate-mantle.xmf,390,-3.18859e-06,1.12305e-05,0,2.83349e-06,-1.32817e+09,-1.32624e+09,-1.32774e+09,378696,0.0233311,0.139159,0,0.141101,-5547.22,-47095,-0,47420.6,378696
step02_gravity_refstate-mantle.xmf,391,-2.2202e-06,9.70207e-06,0,2.74038e-06,-1.36934e+09,-1.36774e+09,-1.36904e+09,366251,0.0286637,0.11442,0,0.117955,-7837.94,-48369.3,-0,49000.2,366251
step02_gravity_refstate-mantle.xmf,392,-2.88009e-06,1.07053e-05,0,2.72955e-06,-1.35272e+09,-1.35091e+09,-1.35234e+09,364804,0.0249633,0.127389,0,0.129812,-6255.66,-47854.2,-0,48261.4,364804
step02_gravity_refstate-mantle.xmf,393,-2.08065e-06,9.46736e-06,0,2.50224e-06,-1.39939e+09,-1.39785e+09,-1.39911e+09,334425,0.0292165,0.103206,0,0.107262,-8333.17,-49298.1,-0,49997.4,334425
step02_gravity_refstate-mantle.xmf,394,-1.49234e-06,8.55461e-06,0,2.10772e-06,-1.44697e+09,-1.44563e+09,-1.44677e+09,281697,0.031962,0.0819992,0,0.0880082,-10257.3,-50769.3,-0,51795.1,281697
step02_gravity_refstate-mantle.xmf,395,-8.65692e-07,7.63586e-06,0,1.83759e-06,-1.46793e+09,-1.46679e+09,-1.46781e+09,245594,0.0342239,0.0690905,0,0.0771024,-12353.4,-51418.6,-0,52881.8,245594
step02_gravity_refstate-mantle.xmf,396,-6.72899e-07,7.38101e-06,0,1.40518e-06,-1.52394e+09,-1.52286e+09,-1.52385e+09,187802,0.034774,0.0526928,0,0.0631329,-13471.9,-53149.3,-0,54830.1,187802
step02_gravity_refstate-mantle.xmf,397,-5.31479e-07,7.2103e-06,0,1.07851e-06,-1.56931e+09,-1.56828e+09,-1.56924e+09,144143,0.0350905,0.0405463,0,0.0536223,-14293,-54551.4,-0,56392.8,144143
step02_gravity_refstate-mantle.xmf,398,-3.91897e-07,7.05569e-06,0,7.7707e-07,-1.61383e+09,-1.61284e+09,-1.61378e+09,103855,0.0353304,0.0293794,0,0.0459498,-15064.5,-55927.2,-0,57920.6,103855
step02_gravity_refstate-mantle.xmf,399,-2.14639e-07,6.85752e-06,0,4.95106e-07,-1.65766e+09,-1.65672e+09,-1.65763e+09,66170.9,0.0355332,0.0188961,0,0.0402451,-15938.5,-57281.8,-0,59457.9,66170.9
step02_gravity_refstate-mantle.xmf,400,7.77459e-09,6.60108e-06,0,2.34451e-07,-1.70132e+09,-1.70044e+09,-1.70132e+09,31334.4,0.0356205,0.00909214,0,0.0367626,-16966.9,-58631.3,-0,61036.9,31334.4
step02_gravity_refstate-mantle.xmf,401,2.49214e-07,6.31856e-06,0,-2.50688e-09,-1.7456e+09,-1.74479e+09,-1.74564e+09,-335.044,0.0354825,-1.48362e-19,0,0.0354825,-18064.5,-60000,-0,62660.4,335.044
step02_gravity_refstate-mantle.xmf,402,-2.69095e-06,1.25857e-05,0,-6.02173e-06,-1.09826e+09,-1.09622e+09,-1.0979e+09,-804804,-0.0238246,0.229885,-0,0.231116,4783.65,-40000,0,40285,804804
step02_gravity_refstate-mantle.xmf,403,-5.75937e-06,1.58479e-05,0,1.88632e-07,-1.19808e+09,-1.19519e+09,-1.19731e+09,25210.7,0.000933797,0.212947,0,0.212949,-162.529,-43071.2,-0,43071.5,25210.7
step02_gravity_refstate-mantle.xmf,404,-5.6779e-06,1.57383e-05,0,-8.47868e-07,-1.1992e+09,-1.19634e+09,-1.19844e+09,-113318,-0.00412752,0.211872,-0,0.211912,722.13,-43106.1,0,43112.2,113318
step02_gravity_refstate-mantle.xmf,405,-4.95634e-06,1.42105e-05,0,1.90733e-06,-1.2478e+09,-1.24524e+09,-1.24714e+09,254914,0.0109668,0.18591,0,0.186233,-2102.65,-44608.3,-0,44657.8,254914
step02_gravity_refstate-mantle.xmf,406,-3.96092e-06,1.2425e-05,0,2.49991e-06,-1.30423e+09,-1.30204e+09,-1.3037e+09,334113,0.0180517,0.155541,0,0.156585,-3925.97,-46353.4,-0,46519.4,334113
step02_gravity_refstate-mantle.xmf,407,-2.63367e-06,1.02931e-05,0,2.62143e-06,-1.37246e+09,-1.37073e+09,-1.37211e+09,350354,0.0262738,0.118073,0,0.120961,-6874.67,-48464.5,-0,48949.6,350354
step02_gravity_refstate-mantle.xmf,408,-1.93233e-06,9.1934e-06,0,2.21094e-06,-1.43447e+09,-1.43298e+09,-1.43421e+09,295493,0.0298586,0.0906097,0,0.0954026,-8927.35,-50381.9,-0,51166.7,295493
step02_gravity_refstate-mantle.xmf,409,-8.8397e-07,7.6694e-06,0,1.62237e-06,-1.49875e+09,-1.49761e+09,-1.49863e+09,216829,0.0342038,0.0611397,0,0.0700568,-12558.8,-52370.6,-0,53855.4,216829
step02_gravity_refstate-mantle.xmf,410,-1.22506e-06,8.15499e-06,0,1.7723e-06,-1.486e+09,-1.48474e+09,-1.48583e+09,236869,0.0330414,0.0680412,0,0.0756396,-11356.9,-51975.6,-0,53201.9,236869
step02_gravity_refstate-mantle.xmf,411,-1.93982e-06,1.12313e-05,0,-6.0825e-06,-1.09821e+09,-1.09645e+09,-1.09795e+09,-812926,-0.025424,0.220916,-0,0.222375,5477.46,-40000,0,40373.3,812926
step02_gravity_refstate-mantle.xmf,412,-2.55146e-06,1.2e-05,0,-5.7523e-06,-1.1169e+09,-1.11496e+09,-1.11656e+09,-768795,-0.0250153,0.218589,-0,0.220015,5127.75,-40575.3,0,40898,768795
step02_gravity_refstate-mantle.xmf,413,-4.39114e-06,1.44146e-05,0,-4.27569e-06,-1.15353e+09,-1.15102e+09,-1.15295e+09,-571446,-0.019132,0.220177,-0,0.221007,3488.55,-41700.7,0,41846.3,571446
step02_gravity_refstate-mantle.xmf,414,-3.12328e-06,1.26673e-05,0,-5.35263e-06,-1.13472e+09,-1.13261e+09,-1.13431e+09,-715379,-0.0239519,0.216363,-0,0.217685,4723.41,-41123.7,0,41394.1,715379
step02_gravity_refstate-mantle.xmf,415,-4.74875e-06,1.46273e-05,0,-3.55919e-06,-1.17534e+09,-1.17275e+09,-1.17471e+09,-475686,-0.0166949,0.213787,-0,0.214438,3027.36,-42372.6,0,42480.6,475686
step02_gravity_refstate-mantle.xmf,416,-5.52149e-06,1.52334e-05,0,7.30175e-07,-1.22204e+09,-1.21927e+09,-1.22131e+09,97587.9,0.00381968,0.201005,0,0.201041,-689.596,-43811.5,-0,43816.9,97587.9
step02_gravity_refstate-mantle.xmf,417,-5.42169e-06,1.53597e-05,0,-1.86691e-06,-1.19924e+09,-1.19647e+09,-1.19852e+09,-249512,-0.00918394,0.20961,-0,0.209811,1631.59,-43108.3,0,43139.1,249512
step02_gravity_refstate-mantle.xmf,418,-4.66785e-06,1.35791e-05,0,1.95564e-06,-1.27509e+09,-1.27265e+09,-1.27447e+09,261371,0.0124426,0.172875,0,0.173322,-2498.25,-45451.7,-0,45520.3,261371
step02_gravity_refstate-mantle.xmf,419,-5.23961e-06,1.46024e-05,0,1.10538e-06,-1.24723e+09,-1.24458e+09,-1.24653e+09,147734,0.00627844,0.188606,0,0.18871,-1181.69,-44589.9,-0,44605.5,147734
step02_gravity_refstate-mantle.xmf,420,-4.42036e-06,1.30755e-05,0,1.90882e-06,-1.30548e+09,-1.30315e+09,-1.30489e+09,255114,0.0132685,0.159397,0,0.159949,-2791.18,-46390.9,-0,46474.8,255114
step02_gravity_refstate-mantle.xmf,421,-3.66122e-06,1.18831e-05,0,2.4535e-06,-1.33196e+09,-1.32989e+09,-1.33147e+09,327910,0.0196276,0.142705,0,0.144048,-4489.54,-47210.8,-0,47423.8,327910
step02_gravity_refstate-mantle.xmf,422,-3.35094e-06,1.13515e-05,0,2.40209e-06,-1.36085e+09,-1.35888e+09,-1.3604e+09,321039,0.0214118,0.129499,0,0.131258,-5168.19,-48103.7,-0,48380.5,321039
step02_gravity_refstate-mantle.xmf,423,-2.55585e-06,1.01258e-05,0,2.39622e-06,-1.40014e+09,-1.39844e+09,-1.3998e+09,320255,0.0264625,0.108134,0,0.111325,-7149.1,-49319.6,-0,49835.1,320255
step02_gravity_refstate-mantle.xmf,424,-3.00932e-06,1.07807e-05,0,2.28752e-06,-1.39207e+09,-1.39022e+09,-1.39166e+09,305727,0.0233967,0.115502,0,0.117848,-5989.86,-49068.9,-0,49433.2,305727
step02_gravity_refstate-mantle.xmf,425,-2.3859e-06,9.85436e-06,0,2.18127e-06,-1.43152e+09,-1.42988e+09,-1.4312e+09,291527,0.0272145,0.0963324,0,0.100103,-7679.44,-50289.4,-0,50872.4,291527
step02_gravity_refstate-mantle.xmf,426,-1.9074e-06,9.1362e-06,0,1.91769e-06,-1.47207e+09,-1.47059e+09,-1.47181e+09,256300,0.0298353,0.0789862,0,0.0844332,-9195.09,-51543.3,-0,52357,256300
step02_gravity_refstate-mantle.xmf,427,-1.12401e-06,8.03344e-06,0,1.45546e-06,-1.52896e+09,-1.52774e+09,-1.52881e+09,194522,0.0333817,0.0555374,0,0.0647977,-11954.8,-53303.2,-0,54627.4,194522
step02_gravity_refstate-mantle.xmf,428,-9.76217e-07,7.84701e-06,0,1.16032e-06,-1.56869e+09,-1.56751e+09,-1.56856e+09,155077,0.033882,0.0440548,0,0.0555771,-12685.2,-54530.8,-0,55986.8,155077
step02_gravity_refstate-mantle.xmf,429,-8.18076e-07,7.66088e-06,0,8.5293e-07,-1.61191e+09,-1.61078e+09,-1.6118e+09,113994,0.0343634,0.0322833,0,0.0471493,-13455.2,-55866.5,-0,57464,113994
step02_gravity_refstate-mantle.xmf,430,-6.37589e-07,7.45737e-06,0,5.48471e-07,-1.65672e+09,-1.65564e+09,-1.65663e+09,73303.1,0.0348301,0.0207491,0,0.040542,-14283.3,-57251.3,-0,59006.1,73303.1
step02_gravity_refstate-mantle.xmf,431,-4.21777e-07,7.21343e-06,0,2.61853e-07,-1.70135e+09,-1.70033e+09,-1.7013e+09,34996.6,0.0352575,0.00993124,0,0.0366295,-15211.1,-58630.9,-0,60572,34996.6
step02_gravity_refstate-mantle.xmf,432,-1.76926e-07,6.93225e-06,0,-2.21381e-09,-1.74564e+09,-1.74469e+09,-1.74562e+09,-295.876,0.0355484,-1.59189e-19,0,0.0355484,-16224.1,-60000,-0,62154.8,295.876
step02_gravity_refstate-mantle.xmf,433,-1.84995e-06,1.0767e-05,0,-5.76265e-06,-1.11741e+09,-1.11572e+09,-1.11716e+09,-770178,-0.0266047,0.209709,-0,0.21139,5848.3,-40592.4,0,41011.6,770178
step02_gravity_refstate-mantle.xmf,434,-3.64873e-06,1.32202e-05,0,-4.82122e-06,-1.15432e+09,-1.15207e+09,-1.15383e+09,-644356,-0.0224297,0.212623,-0,0.213802,4311.92,-41727,0,41949.2,644356
step02_gravity_refstate-mantle.xmf,435,-4.98925e-06,1.47178e-05,0,-2.77252e-06,-1.19935e+09,-1.19672e+09,-1.19869e+09,-370547,-0.0139331,0.205706,-0,0.206177,2543.19,-43112.8,0,43187.8,370547
step02_gravity_refstate-mantle.xmf,436,-5.5529e-06,1.52575e-05,0,-2.50674e-07,-1.22368e+09,-1.2209e+09,-1.22293e+09,-33502.5,-0.00127417,0.200633,-0,0.200637,229.994,-43861.8,0,43862.4,33502.5
step02_gravity_refstate-mantle.xmf,437,-5.40135e-06,1.50579e-05,0,-1.19349e-06,-1.22413e+09,-1.22139e+09,-1.22341e+09,-159510,-0.00630722,0.199243,-0,0.199343,1148.47,-43876.3,0,43891.3,159510
step02_gravity_refstate-mantle.xmf,438,-4.9775e-06,1.40566e-05,0,1.35508e-06,-1.26912e+09,-1.26657e+09,-1.26845e+09,181106,0.00832553,0.177961,0,0.178156,-1627.27,-45266.3,-0,45295.5,181106
step02_gravity_refstate-mantle.xmf,439,-4.09994e-06,1.24959e-05,0,1.97799e-06,-1.33275e+09,-1.33054e+09,-1.33221e+09,264358,0.015296,0.14668,0,0.147475,-3378.83,-47233.8,-0,47354.5,264358
step02_gravity_refstate-mantle.xmf,440,-2.20416e-06,9.56624e-06,0,2.01206e-06,-1.45603e+09,-1.45445e+09,-1.45573e+09,268912,0.0281601,0.0868387,0,0.0912904,-8265.26,-51047,-0,51711.8,268912
step02_gravity_refstate-mantle.xmf,441,-1.6222e-06,8.72408e-06,0,1.77421e-06,-1.4905e+09,-1.48912e+09,-1.49028e+09,237123,0.0312825,0.0707632,0,0.0773694,-10149.6,-52113.5,-0,53092.7,237123
step02_gravity_refstate-mantle.xmf,442,-1.27946e-06,9.99972e-06,0,-5.93439e-06,-1.09817e+09,-1.09666e+09,-1.098e+09,-793131,-0.0265592,0.211621,-0,0.213281,6184.51,-40000,0,40475.3,793131
step02_gravity_refstate-mantle.xmf,443,-2.40373e-06,1.1469e-05,0,-5.4859e-06,-1.13506e+09,-1.1332e+09,-1.13474e+09,-733190,-0.0260716,0.207821,-0,0.20945,5491.58,-41135.8,0,41500.7,733190
step02_gravity_refstate-mantle.xmf,444,-4.09308e-06,1.36423e-05,0,-4.17698e-06,-1.17604e+09,-1.17367e+09,-1.17549e+09,-558253,-0.0204911,0.207234,-0,0.208244,3889.15,-42395.9,0,42573.9,558253
step02_gravity_refstate-mantle.xmf,445,-2.90882e-06,1.20354e-05,0,-5.11108e-06,-1.1549e+09,-1.1529e+09,-1.15451e+09,-683096,-0.025101,0.204482,-0,0.206017,5127.84,-41746.6,0,42060.4,683096
step02_gravity_refstate-mantle.xmf,446,-4.42906e-06,1.38541e-05,0,-3.52143e-06,-1.19981e+09,-1.19737e+09,-1.19922e+09,-470640,-0.0181452,0.200344,-0,0.201164,3438.98,-43128.6,0,43265.5,470640
step02_gravity_refstate-mantle.xmf,447,-5.35508e-06,1.47477e-05,0,2.24256e-07,-1.24865e+09,-1.24596e+09,-1.24793e+09,29971.9,0.00129469,0.189064,0,0.189068,-242.194,-44633.3,-0,44633.9,29971.9
step02_gravity_refstate-mantle.xmf,448,-5.09882e-06,1.46162e-05,0,-2.0693e-06,-1.22435e+09,-1.22171e+09,-1.22367e+09,-276562,-0.0111123,0.196475,-0,0.196789,2062.63,-43884,0,43932.4,276562
step02_gravity_refstate-mantle.xmf,449,-4.79258e-06,1.35979e-05,0,1.20695e-06,-1.30027e+09,-1.29781e+09,-1.29963e+09,161309,0.00811572,0.1646,0,0.1648,-1655.87,-46228.6,-0,46258.3,161309
step02_gravity_refstate-mantle.xmf,450,-5.1114e-06,1.42021e-05,0,5.77342e-07,-1.27518e+09,-1.27259e+09,-1.27449e+09,77161.7,0.0035806,0.176879,0,0.176916,-697.872,-45452.9,-0,45458.2,77161.7
step02_gravity_refstate-mantle.xmf,451,-4.45007e-06,1.29713e-05,0,1.39132e-06,-1.33433e+09,-1.332e+09,-1.33374e+09,185949,0.0104956,0.149289,0,0.149658,-2262.63,-47281.5,-0,47335.6,185949
step02_gravity_refstate-mantle.xmf,452,-3.78318e-06,1.19431e-05,0,1.98812e-06,-1.36375e+09,-1.36165e+09,-1.36325e+09,265713,0.0172475,0.132814,0,0.133929,-4017.13,-48192.1,-0,48359.3,265713
step02_gravity_refstate-mantle.xmf,453,-3.49593e-06,1.14632e-05,0,1.94934e-06,-1.39576e+09,-1.39376e+09,-1.3953e+09,260529,0.0190419,0.119056,0,0.120569,-4671.96,-49181.6,-0,49403,260529
step02_gravity_refstate-mantle.xmf,454,-2.81143e-06,1.04385e-05,0,2.04041e-06,-1.43128e+09,-1.42951e+09,-1.4309e+09,272701,0.0242001,0.100682,0,0.10355,-6517.33,-50280.7,-0,50701.3,272701
step02_gravity_refstate-mantle.xmf,455,-2.59395e-06,1.00937e-05,0,1.82386e-06,-1.46815e+09,-1.46645e+09,-1.4678e+09,243759,0.0253467,0.0868084,0,0.0904331,-7172.68,-51420.2,-0,51918,243759
step02_gravity_refstate-mantle.xmf,456,-2.26625e-06,9.63203e-06,0,1.76652e-06,-1.48589e+09,-1.48429e+09,-1.48558e+09,236095,0.0275401,0.0782438,0,0.0829491,-8187.75,-51969,-0,52610,236095
step02_gravity_refstate-mantle.xmf,457,-1.56089e-06,8.63781e-06,0,1.50653e-06,-1.5263e+09,-1.52494e+09,-1.52609e+09,201348,0.0314999,0.0600414,0,0.0678028,-10531.8,-53219.7,-0,54251.8,201348
step02_gravity_refstate-mantle.xmf,458,-2.01836e-06,9.27597e-06,0,1.55942e-06,-1.51738e+09,-1.51587e+09,-1.51711e+09,208416,0.0289571,0.0665451,0,0.0725725,-9049.46,-52942.8,-0,53710.6,208416
step02_gravity_refstate-mantle.xmf,459,-1.42103e-06,8.47252e-06,0,1.209e-06,-1.56795e+09,-1.56663e+09,-1.56776e+09,161583,0.0320687,0.0475019,0,0.0573135,-11167.1,-54506.6,-0,55638.8,161583
step02_gravity_refstate-mantle.xmf,460,-1.26158e-06,8.28113e-06,0,9.03089e-07,-1.61071e+09,-1.60944e+09,-1.61054e+09,120698,0.0327315,0.0351014,0,0.0479944,-11879.4,-55828.2,-0,57078.1,120698
step02_gravity_refstate-mantle.xmf,461,-1.0856e-06,8.08195e-06,0,5.9299e-07,-1.6553e+09,-1.65407e+09,-1.65515e+09,79253.1,0.033417,0.0228196,0,0.0404652,-12637.6,-57206,-0,58585.3,79253.1
step02_gravity_refstate-mantle.xmf,462,-8.7994e-07,7.85379e-06,0,2.89297e-07,-1.70047e+09,-1.69931e+09,-1.70036e+09,38664.6,0.034129,0.0110316,0,0.0358676,-13474.5,-58602.4,-0,60131.5,38664.6
step02_gravity_refstate-mantle.xmf,463,-6.3395e-07,7.57735e-06,0,-1.76645e-09,-1.74569e+09,-1.74459e+09,-1.7456e+09,-236.086,0.034819,-1.73955e-19,0,0.034819,-14424.9,-60000,-0,61709.6,236.086
step02_gravity_refstate-mantle.xmf,464,-1.27574e-06,9.64091e-06,0,-5.52413e-06,-1.12248e+09,-1.12102e+09,-1.12231e+09,-738300,-0.0279632,0.198491,-0,0.200451,6644.01,-40750.2,0,41288.2,738300
step02_gravity_refstate-mantle.xmf,465,-1.80837e-06,1.04552e-05,0,-5.48473e-06,-1.13403e+09,-1.13239e+09,-1.13379e+09,-733034,-0.0274547,0.200628,-0,0.202498,6156.34,-41105.5,0,41564,733034
step02_gravity_refstate-mantle.xmf,466,-3.38523e-06,1.25311e-05,0,-4.6265e-06,-1.17624e+09,-1.17411e+09,-1.17579e+09,-618332,-0.0236495,0.200073,-0,0.201465,4735.28,-42404,0,42667.6,618332
step02_gravity_refstate-mantle.xmf,467,-4.65802e-06,1.39714e-05,0,-2.82651e-06,-1.22446e+09,-1.22197e+09,-1.22384e+09,-377763,-0.0155593,0.192413,-0,0.193041,2973.64,-43888.8,0,43989.5,377763
step02_gravity_refstate-mantle.xmf,468,-5.31168e-06,1.46758e-05,0,-6.43706e-07,-1.24921e+09,-1.24654e+09,-1.2485e+09,-86031.2,-0.00360593,0.188481,-0,0.188515,676.808,-44650.7,0,44655.8,86031.2
step02_gravity_refstate-mantle.xmf,469,-5.1076e-06,1.44054e-05,0,-1.45478e-06,-1.24959e+09,-1.24698e+09,-1.2489e+09,-194431,-0.00837425,0.186627,-0,0.186815,1591.89,-44663,0,44691.4,194431
step02_gravity_refstate-mantle.xmf,470,-4.14765e-06,1.24445e-05,0,1.49443e-06,-1.36482e+09,-1.3626e+09,-1.36426e+09,199731,0.0126042,0.135885,0,0.136468,-2852.76,-48223.8,-0,48308.1,199731
step02_gravity_refstate-mantle.xmf,471,-3.24006e-06,1.10335e-05,0,1.81155e-06,-1.43122e+09,-1.42931e+09,-1.43078e+09,242114,0.0204418,0.104823,0,0.106797,-5275.19,-50277.4,-0,50553.4,242114
step02_gravity_refstate-mantle.xmf,472,-7.46832e-07,8.92323e-06,0,-5.64223e-06,-1.09814e+09,-1.09685e+09,-1.09804e+09,-754084,-0.0272871,0.202154,-0,0.203987,6909.43,-40000,0,40592.4,754084
step02_gravity_refstate-mantle.xmf,473,-2.25981e-06,1.09884e-05,0,-5.21297e-06,-1.1538e+09,-1.15203e+09,-1.15349e+09,-696714,-0.027037,0.197153,-0,0.198998,5877.38,-41714.3,0,42126.3,696714
step02_gravity_refstate-mantle.xmf,474,-3.80018e-06,1.29306e-05,0,-4.03741e-06,-1.19974e+09,-1.1975e+09,-1.19923e+09,-539600,-0.0217687,0.194213,-0,0.195429,4319.94,-43128.2,0,43344,539600
step02_gravity_refstate-mantle.xmf,475,-2.70304e-06,1.14577e-05,0,-4.85101e-06,-1.17621e+09,-1.17431e+09,-1.17584e+09,-648338,-0.0261601,0.192548,-0,0.194317,5559.64,-42404.8,0,42767.7,648338
step02_gravity_refstate-mantle.xmf,476,-4.11603e-06,1.3152e-05,0,-3.44923e-06,-1.22458e+09,-1.22227e+09,-1.22403e+09,-460989,-0.0195265,0.187232,-0,0.188248,3878.19,-43893.9,0,44064.9,460989
step02_gravity_refstate-mantle.xmf,477,-5.15651e-06,1.42645e-05,0,-1.8653e-07,-1.27447e+09,-1.27188e+09,-1.27379e+09,-24929.8,-0.00110659,0.177506,-0,0.177509,214.811,-45431.1,0,45431.6,24929.8
step02_gravity_refstate-mantle.xmf,478,-4.7814e-06,1.3937e-05,0,-2.19613e-06,-1.24969e+09,-1.24718e+09,-1.24905e+09,-293513,-0.0128823,0.183647,-0,0.184098,2502.52,-44667,0,44737.1,293513
step02_gravity_refstate-mantle.xmf,479,-4.92572e-06,1.37544e-05,0,3.85501e-07,-1.30578e+09,-1.30328e+09,-1.30512e+09,51522.2,0.00260812,0.163807,0,0.163828,-529.802,-46398.4,-0,46401.4,51522.2
step02_gravity_refstate-mantle.xmf,480,-4.67632e-06,1.32747e-05,0,7.15622e-07,-1.33463e+09,-1.33223e+09,-1.33401e+09,95642.9,0.00533464,0.151201,0,0.151295,-1131.79,-47290.1,-0,47303.6,95642.9
step02_gravity_refstate-mantle.xmf,481,-4.41816e-06,1.28073e-05,0,9.27263e-07,-1.365e+09,-1.3627e+09,-1.36441e+09,123929,0.00764989,0.138189,0,0.138401,-1697.62,-48228.6,-0,48258.5,123929
step02_gravity_refstate-mantle.xmf,482,-3.86802e-06,1.19684e-05,0,1.53653e-06,-1.39654e+09,-1.39442e+09,-1.39602e+09,205357,0.0145847,0.122354,0,0.12322,-3465.72,-49204.4,-0,49326.3,205357
step02_gravity_refstate-mantle.xmf,483,-3.61973e-06,1.15643e-05,0,1.52271e-06,-1.42893e+09,-1.4269e+09,-1.42845e+09,203511,0.0163225,0.109053,0,0.110267,-4063.24,-50205.5,-0,50369.7,203511
step02_gravity_refstate-mantle.xmf,484,-3.02577e-06,1.06977e-05,0,1.68441e-06,-1.46276e+09,-1.46092e+09,-1.46235e+09,225122,0.0217458,0.0925023,0,0.0950239,-5859.72,-51252.3,-0,51586.2,225122
step02_gravity_refstate-mantle.xmf,485,-2.55723e-06,1.00267e-05,0,1.47699e-06,-1.51661e+09,-1.51492e+09,-1.51626e+09,197399,0.0250752,0.0712763,0,0.0755584,-7344.71,-52917.1,-0,53424.3,197399
step02_gravity_refstate-mantle.xmf,486,-1.87077e-06,9.08307e-06,0,1.22383e-06,-1.56529e+09,-1.56382e+09,-1.56504e+09,163565,0.0296403,0.0514421,0,0.0593703,-9675.16,-54422.9,-0,55276.2,163565
step02_gravity_refstate-mantle.xmf,487,-1.70878e-06,8.89776e-06,0,9.24748e-07,-1.60945e+09,-1.60803e+09,-1.60922e+09,123593,0.0304494,0.0379402,0,0.0486479,-10336.7,-55787.8,-0,56737.3,123593
step02_gravity_refstate-mantle.xmf,488,-1.53588e-06,8.70131e-06,0,6.14909e-07,-1.6545e+09,-1.65313e+09,-1.6543e+09,82182.6,0.0313303,0.0247504,0,0.039927,-11042.6,-57180,-0,58236.5,82182.6
step02_gravity_refstate-mantle.xmf,489,-1.34314e-06,8.49191e-06,0,3.04158e-07,-1.7002e+09,-1.69888e+09,-1.70002e+09,40650.7,0.0322673,0.0120053,0,0.0344283,-11798.7,-58592.3,-0,59768.5,40650.7
step02_gravity_refstate-mantle.xmf,490,-1.11089e-06,8.23869e-06,0,-1.03406e-09,-1.74574e+09,-1.74449e+09,-1.74559e+09,-138.202,0.0332806,-1.84862e-19,0,0.0332806,-12661.1,-60000,-0,61321.3,138.202
step02_gravity_refstate-mantle.xmf,491,-2.95033e-07,7.95326e-06,0,-5.27858e-06,-1.09812e+09,-1.09702e+09,-1.09809e+09,-705482,-0.0276682,0.192638,-0,0.194614,7656.37,-40000,0,40726.2,705482
step02_gravity_refstate-mantle.xmf,492,-7.32727e-07,8.66857e-06,0,-5.34914e-06,-1.11634e+09,-1.11508e+09,-1.11624e+09,-714912,-0.0284148,0.192216,-0,0.194305,7310.33,-40561.5,0,41215,714912
step02_gravity_refstate-mantle.xmf,493,-1.67251e-06,1.00374e-05,0,-5.24107e-06,-1.14883e+09,-1.14726e+09,-1.1486e+09,-700470,-0.0283273,0.191529,-0,0.193612,6553.55,-41562.3,0,42075.9,700470
step02_gravity_refstate-mantle.xmf,494,-3.14019e-06,1.19067e-05,0,-4.39415e-06,-1.19999e+09,-1.19798e+09,-1.19957e+09,-587278,-0.0247598,0.187278,-0,0.188907,5183.88,-43137.6,0,43448,587278
step02_gravity_refstate-mantle.xmf,495,-4.34334e-06,1.33031e-05,0,-2.82661e-06,-1.24981e+09,-1.24745e+09,-1.24923e+09,-377777,-0.0170509,0.179513,-0,0.180321,3415.94,-44672.1,0,44802.5,377777
step02_gravity_refstate-mantle.xmf,496,-5.05121e-06,1.41067e-05,0,-9.26642e-07,-1.27592e+09,-1.27336e+09,-1.27524e+09,-123846,-0.00569013,0.176014,-0,0.176106,1114.24,-45475.9,0,45489.6,123846
step02_gravity_refstate-mantle.xmf,497,-4.81019e-06,1.37942e-05,0,-1.64485e-06,-1.27541e+09,-1.27292e+09,-1.27477e+09,-219834,-0.0103267,0.174139,-0,0.174445,2052.63,-45461.1,0,45507.4,219834
step02_gravity_refstate-mantle.xmf,498,-4.15379e-06,1.23599e-05,0,1.05926e-06,-1.39655e+09,-1.39435e+09,-1.396e+09,141571,0.00980532,0.124961,0,0.125346,-2276.46,-49203.9,-0,49256.6,141571
step02_gravity_refstate-mantle.xmf,499,-3.39243e-06,1.12021e-05,0,1.44998e-06,-1.461e+09,-1.45905e+09,-1.46054e+09,193790,0.0178278,0.0963693,0,0.0980045,-4630.79,-51196.7,-0,51405.7,193790
step02_gravity_refstate-mantle.xmf,500,-2.85587e-06,1.04464e-05,0,1.54323e-06,-1.49297e+09,-1.49119e+09,-1.49258e+09,206252,0.0227345,0.0812875,0,0.0844069,-6354.56,-52185.8,-0,52571.3,206252
step02_gravity_refstate-mantle.xmf,501,-2.3238e-06,9.70461e-06,0,1.19512e-06,-1.5624e+09,-1.56079e+09,-1.56209e+09,159727,0.0264744,0.0554953,0,0.0614867,-8149.76,-54332.2,-0,54940.1,159727
step02_gravity_refstate-mantle.xmf,502,-4.11494e-07,7.92908e-06,0,-5.01129e-06,-1.12132e+09,-1.1202e+09,-1.12126e+09,-669759,-0.0290275,0.182652,-0,0.184945,8014.53,-40715.6,0,41496.9,669759
step02_gravity_refstate-mantle.xmf,503,-1.04853e-06,8.99864e-06,0,-5.14962e-06,-1.14218e+09,-1.14084e+09,-1.14204e+09,-688246,-0.0292359,0.18518,-0,0.187473,7309.47,-41358.6,0,41999.6,688246
step02_gravity_refstate-mantle.xmf,504,-2.06889e-06,1.04575e-05,0,-4.92974e-06,-1.17374e+09,-1.17206e+09,-1.17346e+09,-658859,-0.0280793,0.185654,-0,0.187766,6360.13,-42330.2,0,42805.3,658859
step02_gravity_refstate-mantle.xmf,505,-3.52334e-06,1.22882e-05,0,-3.86289e-06,-1.22472e+09,-1.2226e+09,-1.22425e+09,-516276,-0.0229431,0.18118,-0,0.182627,4774.17,-43899.9,0,44158.8,516276
step02_gravity_refstate-mantle.xmf,506,-2.49701e-06,1.09113e-05,0,-4.57703e-06,-1.19901e+09,-1.19722e+09,-1.19867e+09,-611720,-0.0271784,0.180322,-0,0.182359,6036.89,-43109.1,0,43529.8,611720
step02_gravity_refstate-mantle.xmf,507,-3.82338e-06,1.25254e-05,0,-3.3383e-06,-1.25005e+09,-1.24786e+09,-1.24954e+09,-446164,-0.0207885,0.174356,-0,0.175591,4332.3,-44681,0,44890.6,446164
step02_gravity_refstate-mantle.xmf,508,-4.92902e-06,1.37648e-05,0,-4.27155e-07,-1.30422e+09,-1.30172e+09,-1.30356e+09,-57089.2,-0.00284193,0.164438,-0,0.164463,576.384,-46350.2,0,46353.8,57089.2
step02_gravity_refstate-mantle.xmf,509,-4.47634e-06,1.33234e-05,0,-2.27588e-06,-1.27464e+09,-1.27226e+09,-1.27404e+09,-304171,-0.0145768,0.171336,-0,0.171955,2964.11,-45438.2,0,45534.8,304171
step02_gravity_refstate-mantle.xmf,510,-4.75578e-06,1.33836e-05,0,-1.06886e-08,-1.33398e+09,-1.33156e+09,-1.33335e+09,-1428.53,-4.23764e-05,0.15216,-0,0.15216,8.94099,-47269.7,0,47269.7,1428.53
step02_gravity_refstate-mantle.xmf,511,-4.55541e-06,1.29919e-05,0,2.96461e-07,-1.3645e+09,-1.36215e+09,-1.36389e+09,39622,0.00244412,0.139595,0,0.139616,-536.677,-48212.6,-0,48215.6,39622
step02_gravity_refstate-mantle.xmf,512,-4.34127e-06,1.26057e-05,0,5.2832e-07,-1.39629e+09,-1.39403e+09,-1.39571e+09,70609.9,0.00481785,0.126633,0,0.126725,-1102.98,-49195.2,-0,49207.5,70609.9
step02_gravity_refstate-mantle.xmf,513,-3.919e-06,1.19671e-05,0,1.11604e-06,-1.42906e+09,-1.42694e+09,-1.42854e+09,149159,0.0116791,0.111737,0,0.112345,-2832.73,-50208.7,-0,50288.5,149159
step02_gravity_refstate-mantle.xmf,514,-3.70652e-06,1.16274e-05,0,1.14356e-06,-1.45994e+09,-1.45789e+09,-1.45945e+09,152837,0.0135194,0.0993948,0,0.10031,-3413.33,-51163.1,-0,51276.9,152837
step02_gravity_refstate-mantle.xmf,515,-3.18814e-06,1.08954e-05,0,1.36039e-06,-1.49234e+09,-1.49046e+09,-1.49192e+09,181817,0.0192744,0.0843123,0,0.0864873,-5207.08,-52165.5,-0,52424.8,181817
step02_gravity_refstate-mantle.xmf,516,-2.97904e-06,1.0599e-05,0,1.25325e-06,-1.52552e+09,-1.5237e+09,-1.52512e+09,167497,0.0209015,0.0718338,0,0.0748128,-5878.38,-53191,-0,53514.8,167497
step02_gravity_refstate-mantle.xmf,517,-2.74878e-06,1.02872e-05,0,1.09285e-06,-1.563e+09,-1.56126e+09,-1.56263e+09,146059,0.0226841,0.0582247,0,0.0624875,-6657.05,-54349.5,-0,54755.6,146059
step02_gravity_refstate-mantle.xmf,518,-2.1444e-06,9.4814e-06,0,9.10869e-07,-1.60732e+09,-1.60576e+09,-1.60703e+09,121738,0.0275657,0.0409549,0,0.0493677,-8830.59,-55720.4,-0,56415.8,121738
step02_gravity_refstate-mantle.xmf,519,-1.98011e-06,9.30413e-06,0,6.18804e-07,-1.65291e+09,-1.6514e+09,-1.65264e+09,82703.2,0.0285773,0.0268889,0,0.0392387,-9471.52,-57129.3,-0,57909.1,82703.2
step02_gravity_refstate-mantle.xmf,520,-1.80461e-06,9.11878e-06,0,3.10552e-07,-1.69948e+09,-1.69802e+09,-1.69924e+09,41505.3,0.0296739,0.0130983,0,0.0324362,-10149.5,-58568.7,-0,59441.6,41505.3
step02_gravity_refstate-mantle.xmf,521,-1.59337e-06,8.89734e-06,0,-2.50416e-10,-1.74579e+09,-1.74439e+09,-1.74557e+09,-33.468,0.0309362,-1.96883e-19,0,0.0309362,-10927.1,-60000,-0,60986.9,33.468
step02_gravity_refstate-mantle.xmf,522,3.73731e-08,7.13841e-06,0,-4.85705e-06,-1.09812e+09,-1.09717e+09,-1.09813e+09,-649144,-0.0277658,0.183172,-0,0.185264,8429.03,-40000,0,40878.5,649144
step02_gravity_refstate-mantle.xmf,523,-1.54614e-06,9.65039e-06,0,-4.97436e-06,-1.16615e+09,-1.16466e+09,-1.16595e+09,-664824,-0.0291668,0.181809,-0,0.184133,6977.53,-42097.3,0,42671.7,664824
step02_gravity_refstate-mantle.xmf,524,-2.90104e-06,1.13351e-05,0,-4.15142e-06,-1.22462e+09,-1.22272e+09,-1.22424e+09,-554837,-0.0258193,0.174539,-0,0.176438,5669.99,-43898.8,0,44263.5,554837
step02_gravity_refstate-mantle.xmf,525,-4.05104e-06,1.2706e-05,0,-2.78437e-06,-1.27518e+09,-1.27294e+09,-1.27464e+09,-372131,-0.0184223,0.167078,-0,0.168091,3868.16,-45456.3,0,45620.6,372131
step02_gravity_refstate-mantle.xmf,526,-4.7773e-06,1.35617e-05,0,-1.16605e-06,-1.30309e+09,-1.30064e+09,-1.30246e+09,-155843,-0.00785344,0.163515,-0,0.163703,1607.29,-46315.9,0,46343.8,155843
step02_gravity_refstate-mantle.xmf,527,-4.50894e-06,1.32208e-05,0,-1.81255e-06,-1.30031e+09,-1.29794e+09,-1.29971e+09,-242247,-0.0124016,0.162179,-0,0.162653,2578.05,-46230.8,0,46302.6,242247
step02_gravity_refstate-mantle.xmf,528,-4.12185e-06,1.22416e-05,0,6.87154e-07,-1.42783e+09,-1.42565e+09,-1.42728e+09,91838.2,0.0070478,0.113943,0,0.114161,-1679.59,-50170,-0,50198.1,91838.2
step02_gravity_refstate-mantle.xmf,529,-3.50384e-06,1.13224e-05,0,1.11379e-06,-1.49079e+09,-1.4888e+09,-1.49032e+09,148858,0.0151382,0.0874284,0,0.0887293,-3966.2,-52116.4,-0,52267.1,148858
step02_gravity_refstate-mantle.xmf,530,-2.55386e-06,1.00346e-05,0,8.65295e-07,-1.60475e+09,-1.60307e+09,-1.60441e+09,115647,0.0240971,0.0439946,0,0.0501617,-7344.72,-55639.8,-0,56122.4,115647
step02_gravity_refstate-mantle.xmf,531,-4.41313e-08,7.12814e-06,0,-4.64476e-06,-1.11977e+09,-1.11881e+09,-1.11976e+09,-620773,-0.0291215,0.174076,-0,0.176496,8804.67,-40668,0,41610.2,620773
step02_gravity_refstate-mantle.xmf,532,-6.79396e-07,8.23489e-06,0,-4.86025e-06,-1.14764e+09,-1.14645e+09,-1.14755e+09,-649573,-0.0300176,0.175738,-0,0.178283,8045.6,-41527.8,0,42300,649573
step02_gravity_refstate-mantle.xmf,533,-1.14557e-06,8.91267e-06,0,-4.8018e-06,-1.16992e+09,-1.16857e+09,-1.16976e+09,-641761,-0.0301143,0.173906,-0,0.176494,7651.92,-42214.4,0,42902.3,641761
step02_gravity_refstate-mantle.xmf,534,-1.75836e-06,9.77206e-06,0,-4.65473e-06,-1.1933e+09,-1.19176e+09,-1.19306e+09,-622105,-0.0293302,0.173158,-0,0.175624,7029.63,-42934.8,0,43506.4,622105
step02_gravity_refstate-mantle.xmf,535,-3.26299e-06,1.17151e-05,0,-3.67353e-06,-1.25016e+09,-1.24816e+09,-1.24972e+09,-490967,-0.0240416,0.168461,-0,0.170168,5251.91,-44686.2,0,44993.7,490967
step02_gravity_refstate-mantle.xmf,536,-2.27787e-06,1.03797e-05,0,-4.28364e-06,-1.22351e+09,-1.22182e+09,-1.22321e+09,-572509,-0.0282261,0.167536,-0,0.169897,6593.74,-43866.2,0,44359,572509
step02_gravity_refstate-mantle.xmf,537,-3.54907e-06,1.19639e-05,0,-3.20159e-06,-1.27622e+09,-1.27415e+09,-1.27575e+09,-427893,-0.0219639,0.161688,-0,0.163173,4805.76,-45490,0,45743.1,427893
step02_gravity_refstate-mantle.xmf,538,-4.6899e-06,1.32976e-05,0,-7.18569e-07,-1.33241e+09,-1.33e+09,-1.33178e+09,-96036.8,-0.00525271,0.152139,-0,0.15223,1111.06,-47221.2,0,47234.3,96036.8
step02_gravity_refstate-mantle.xmf,539,-4.2283e-06,1.28427e-05,0,-2.31614e-06,-1.29571e+09,-1.29342e+09,-1.29514e+09,-309552,-0.0159435,0.161203,-0,0.161989,3369.69,-46089.5,0,46212.5,309552
step02_gravity_refstate-mantle.xmf,540,-4.55765e-06,1.29952e-05,0,-3.48451e-07,-1.36328e+09,-1.36093e+09,-1.36267e+09,-46570.5,-0.00277605,0.140045,-0,0.140072,608.809,-48175,0,48178.8,46570.5
step02_gravity_refstate-mantle.xmf,541,-4.39849e-06,1.26801e-05,0,-4.50419e-08,-1.39574e+09,-1.39346e+09,-1.39515e+09,-6019.85,-0.000364146,0.127335,-0,0.127336,82.9069,-49178,0,49178.1,6019.85
step02_gravity_refstate-mantle.xmf,542,-4.24072e-06,1.23967e-05,0,2.07607e-07,-1.42591e+09,-1.42368e+09,-1.42534e+09,27746.7,0.00212689,0.115565,0,0.115585,-501.831,-50110.1,-0,50112.6,27746.7
step02_gravity_refstate-mantle.xmf,543,-3.94016e-06,1.19202e-05,0,6.94383e-07,-1.46459e+09,-1.46247e+09,-1.46407e+09,92804.2,0.00826413,0.0997957,0,0.100137,-2051.61,-51306,-0,51347,92804.2
step02_gravity_refstate-mantle.xmf,544,-3.73348e-06,1.16248e-05,0,8.4764e-07,-1.48916e+09,-1.48711e+09,-1.48866e+09,113287,0.0112039,0.0897963,0,0.0904925,-2874.03,-52065.4,-0,52144.7,113287
step02_gravity_refstate-mantle.xmf,545,-3.31391e-06,1.1048e-05,0,1.03581e-06,-1.5254e+09,-1.52348e+09,-1.52496e+09,138436,0.0166391,0.0744714,0,0.0763076,-4524.18,-53186.3,-0,53378.4,138436
step02_gravity_refstate-mantle.xmf,546,-3.12155e-06,1.07857e-05,0,9.30963e-07,-1.56278e+09,-1.56092e+09,-1.56236e+09,124423,0.01836,0.0607978,0,0.0635096,-5182.68,-54341.6,-0,54588.1,124423
step02_gravity_refstate-mantle.xmf,547,-2.92735e-06,1.05371e-05,0,7.74445e-07,-1.60305e+09,-1.60125e+09,-1.60266e+09,103505,0.0200845,0.0465659,0,0.0507127,-5875.59,-55586.2,-0,55895.9,103505
step02_gravity_refstate-mantle.xmf,548,-2.37691e-06,9.82534e-06,0,6.13398e-07,-1.64789e+09,-1.64625e+09,-1.64757e+09,81980.6,0.0254513,0.0299132,0,0.0392755,-8022.35,-56972.9,-0,57535,81980.6
step02_gravity_refstate-mantle.xmf,549,-2.26711e-06,9.73985e-06,0,3.01904e-07,-1.6988e+09,-1.69719e+09,-1.69849e+09,40349.4,0.0262105,0.0142013,0,0.0298105,-8447.45,-58546.1,-0,59152.3,40349.4
step02_gravity_refstate-mantle.xmf,550,-2.06401e-06,9.53131e-06,0,6.15204e-10,-1.74584e+09,-1.74429e+09,-1.74556e+09,82.222,0.0278089,-2.1141e-19,0,0.0278089,-9217.14,-60000,-0,60703.8,82.222
step02_gravity_refstate-mantle.xmf,551,-3.29275e-07,7.64231e-06,0,-4.76193e-06,-1.13331e+09,-1.13225e+09,-1.13327e+09,-636431,-0.029719,0.174815,-0,0.177323,8456.87,-41086,0,41947.3,636431
step02_gravity_refstate-mantle.xmf,552,2.82491e-07,6.45119e-06,0,-4.41726e-06,-1.09812e+09,-1.0973e+09,-1.09816e+09,-590367,-0.0276352,0.173832,-0,0.176015,9230.72,-40000,0,41051.3,590367
step02_gravity_refstate-mantle.xmf,553,-2.68461e-06,1.08432e-05,0,-3.90681e-06,-1.24917e+09,-1.24736e+09,-1.24881e+09,-522145,-0.0267732,0.162419,-0,0.164611,6165.24,-44657.1,0,45080.7,522145
step02_gravity_refstate-mantle.xmf,554,-3.83521e-06,1.2238e-05,0,-2.60248e-06,-1.30634e+09,-1.30419e+09,-1.30583e+09,-347821,-0.0190603,0.153534,-0,0.154713,4196.11,-46419.1,0,46608.3,347821
step02_gravity_refstate-mantle.xmf,555,-4.482e-06,1.30286e-05,0,-1.40177e-06,-1.32977e+09,-1.32743e+09,-1.32917e+09,-187346,-0.0103795,0.151212,-0,0.151568,2223.1,-47140.6,0,47193,187346
step02_gravity_refstate-mantle.xmf,556,-4.18594e-06,1.26586e-05,0,-2.00836e-06,-1.32205e+09,-1.31979e+09,-1.32149e+09,-268417,-0.0149194,0.151307,-0,0.15204,3242.03,-46902.9,0,47014.8,268417
step02_gravity_refstate-mantle.xmf,557,-4.09428e-06,1.2151e-05,0,3.92817e-07,-1.45121e+09,-1.44904e+09,-1.45066e+09,52500,0.00441474,0.105677,0,0.105769,-1072.51,-50892.1,-0,50903.4,52500
step02_gravity_refstate-mantle.xmf,558,-3.58526e-06,1.14116e-05,0,7.85916e-07,-1.52265e+09,-1.52065e+09,-1.52217e+09,105038,0.0121051,0.0774324,0,0.0783729,-3204.16,-53100.5,-0,53197.1,105038
step02_gravity_refstate-mantle.xmf,559,-2.74572e-06,1.03163e-05,0,5.73553e-07,-1.6446e+09,-1.64285e+09,-1.64423e+09,76655.3,0.0217049,0.0324268,0,0.0390205,-6552.43,-56870.1,-0,57246.4,76655.3
step02_gravity_refstate-mantle.xmf,560,-2.22374e-07,7.32681e-06,0,-4.51222e-06,-1.14453e+09,-1.14353e+09,-1.1445e+09,-603058,-0.0303246,0.166855,-0,0.169588,8962.7,-41432.5,0,42390.8,603058
step02_gravity_refstate-mantle.xmf,561,1.90463e-07,6.52399e-06,0,-4.26559e-06,-1.12155e+09,-1.1207e+09,-1.12158e+09,-570097,-0.0291683,0.165322,-0,0.167876,9580.44,-40723.2,0,41835,570097
step02_gravity_refstate-mantle.xmf,562,-6.8572e-07,8.05389e-06,0,-4.54174e-06,-1.17107e+09,-1.1699e+09,-1.17098e+09,-607004,-0.0309307,0.164991,-0,0.167865,8520.94,-42251,0,43101.7,607004
step02_gravity_refstate-mantle.xmf,563,-1.17703e-06,8.76332e-06,0,-4.46546e-06,-1.19651e+09,-1.19518e+09,-1.19635e+09,-596809,-0.0308301,0.162879,-0,0.165771,8045.39,-43035.3,0,43780.9,596809
step02_gravity_refstate-mantle.xmf,564,-1.68024e-06,9.43338e-06,0,-4.26608e-06,-1.22322e+09,-1.22173e+09,-1.22299e+09,-570162,-0.0301304,0.15966,-0,0.162478,7554.87,-43858.6,0,44504.5,570162
step02_gravity_refstate-mantle.xmf,565,-3.00887e-06,1.11938e-05,0,-3.4856e-06,-1.27541e+09,-1.27351e+09,-1.27501e+09,-465851,-0.0251287,0.156188,-0,0.158197,5766,-45466.5,0,45830.7,465851
step02_gravity_refstate-mantle.xmf,566,-2.12787e-06,9.98997e-06,0,-3.97326e-06,-1.25002e+09,-1.2484e+09,-1.24974e+09,-531027,-0.0289966,0.155258,-0,0.157942,7095.78,-44685.1,0,45244.9,531027
step02_gravity_refstate-mantle.xmf,567,-3.29966e-06,1.14587e-05,0,-3.03257e-06,-1.30428e+09,-1.30231e+09,-1.30384e+09,-405302,-0.0230305,0.148824,-0,0.150595,5296.17,-46357,0,46658.5,405302
step02_gravity_refstate-mantle.xmf,568,-4.42196e-06,1.28131e-05,0,-9.87249e-07,-1.36166e+09,-1.35936e+09,-1.36107e+09,-131946,-0.00799161,0.139398,-0,0.139627,1767.84,-48125.4,0,48157.9,131946
step02_gravity_refstate-mantle.xmf,569,-4.3315e-06,1.25885e-05,0,-6.10206e-07,-1.39485e+09,-1.39259e+09,-1.39427e+09,-81554,-0.00546386,0.127056,-0,0.127173,1250.26,-49150.6,0,49166.5,81554
step02_gravity_refstate-mantle.xmf,570,-4.2299e-06,1.23781e-05,0,-2.8865e-07,-1.42656e+09,-1.42434e+09,-1.42599e+09,-38578.1,-0.00285152,0.115244,-0,0.115279,673.567,-50130.3,0,50134.9,38578.1
step02_gravity_refstate-mantle.xmf,571,-4.12424e-06,1.21844e-05,0,-2.42824e-08,-1.45499e+09,-1.45281e+09,-1.45444e+09,-3245.34,-0.000215687,0.104607,-0,0.104607,52.3575,-51008.7,0,51008.8,3245.34
step02_gravity_refstate-mantle.xmf,572,-4.00145e-06,1.19819e-05,0,2.24037e-07,-1.48243e+09,-1.4803e+09,-1.4819e+09,29942.5,0.00285165,0.0942186,0,0.0942618,-712.468,-51856.8,-0,51861.7,29942.5
step02_gravity_refstate-mantle.xmf,573,-3.83084e-06,1.17317e-05,0,4.75585e-07,-1.51249e+09,-1.51041e+09,-1.51198e+09,63561.9,0.00688611,0.0825758,0,0.0828624,-1776.59,-52785.8,-0,52815.7,63561.9
step02_gravity_refstate-mantle.xmf,574,-3.41179e-06,1.11731e-05,0,7.23643e-07,-1.56139e+09,-1.55944e+09,-1.56093e+09,96714.9,0.0137264,0.0632259,0,0.0646987,-3761.98,-54297.6,-0,54427.8,96714.9
step02_gravity_refstate-mantle.xmf,575,-3.24204e-06,1.09518e-05,0,6.33474e-07,-1.60155e+09,-1.59966e+09,-1.60112e+09,84663.9,0.0156092,0.0487682,0,0.0512053,-4421.08,-55538.8,-0,55714.5,84663.9
step02_gravity_refstate-mantle.xmf,576,-3.0739e-06,1.07508e-05,0,5.10831e-07,-1.6398e+09,-1.63795e+09,-1.63938e+09,68272.5,0.017513,0.0353115,0,0.0394158,-5102.87,-56720.8,-0,56949.8,68272.5
step02_gravity_refstate-mantle.xmf,577,-2.70671e-06,1.03175e-05,0,2.74231e-07,-1.69758e+09,-1.69584e+09,-1.69722e+09,36651,0.0218665,0.015441,0,0.0267688,-6699.1,-58507.1,-0,58889.4,36651
step02_gravity_refstate-mantle.xmf,578,-2.50404e-06,1.01171e-05,0,1.76526e-09,-1.74588e+09,-1.7442e+09,-1.74555e+09,235.927,0.0239448,-2.29387e-19,0,0.0239448,-7525.62,-60000,-0,60470.1,235.927
step02_gravity_refstate-mantle.xmf,579,4.56627e-07,5.87528e-06,0,-3.98048e-06,-1.09813e+09,-1.09741e+09,-1.0982e+09,-531991,-0.0273252,0.16468,-0,0.166932,10064.5,-40000,0,41246.8,531991
step02_gravity_refstate-mantle.xmf,580,-2.5103e-06,1.04778e-05,0,-3.69924e-06,-1.27001e+09,-1.26827e+09,-1.26967e+09,-494404,-0.0275418,0.152472,-0,0.154939,6603.87,-45301.1,0,45779.9,494404
step02_gravity_refstate-mantle.xmf,581,-3.51089e-06,1.16615e-05,0,-2.55935e-06,-1.33347e+09,-1.33144e+09,-1.333e+09,-342058,-0.0208561,0.140625,-0,0.142163,4841.16,-47257.7,0,47505,342058
step02_gravity_refstate-mantle.xmf,582,-4.11935e-06,1.24079e-05,0,-1.66238e-06,-1.35695e+09,-1.35474e+09,-1.3564e+09,-222177,-0.0136213,0.138327,-0,0.138996,3070.02,-47980.9,0,48079,222177
step02_gravity_refstate-mantle.xmf,583,-3.89124e-06,1.21787e-05,0,-2.19276e-06,-1.33618e+09,-1.33403e+09,-1.33566e+09,-293062,-0.0174277,0.1434,-0,0.144455,3928.48,-47340.3,0,47503,293062
step02_gravity_refstate-mantle.xmf,584,-3.63075e-06,1.14647e-05,0,4.78026e-07,-1.5588e+09,-1.55678e+09,-1.55831e+09,63888.1,0.00874307,0.0655468,0,0.0661273,-2345.4,-54216.8,-0,54267.5,63888.1
step02_gravity_refstate-mantle.xmf,585,-2.92414e-06,1.05806e-05,0,3.83159e-07,-1.67211e+09,-1.6703e+09,-1.67172e+09,51209.2,0.0192594,0.0241952,0,0.0309246,-5739.61,-57719.4,-0,58004.1,51209.2
step02_gravity_refstate-mantle.xmf,586,3.92035e-07,5.94594e-06,0,-3.85182e-06,-1.1221e+09,-1.12136e+09,-1.12215e+09,-514796,-0.0289479,0.156288,-0,0.158946,10456.6,-40740,0,42060.5,514796
step02_gravity_refstate-mantle.xmf,587,8.794e-08,6.60751e-06,0,-4.10028e-06,-1.14659e+09,-1.14572e+09,-1.14661e+09,-548003,-0.0304816,0.156863,-0,0.159797,9914.35,-41496.3,0,42664.2,548003
step02_gravity_refstate-mantle.xmf,588,-2.73309e-07,7.24343e-06,0,-4.21283e-06,-1.17098e+09,-1.16998e+09,-1.17095e+09,-563045,-0.0313839,0.155915,-0,0.159042,9468.49,-42249,0,43297,563045
step02_gravity_refstate-mantle.xmf,589,-7.00473e-07,7.90952e-06,0,-4.22271e-06,-1.19702e+09,-1.19587e+09,-1.19693e+09,-564365,-0.0317373,0.154067,-0,0.157302,9005.29,-43052,0,43983.8,564365
step02_gravity_refstate-mantle.xmf,590,-1.15675e-06,8.5625e-06,0,-4.12632e-06,-1.22377e+09,-1.22247e+09,-1.22361e+09,-551482,-0.0315073,0.151393,-0,0.154637,8526.09,-43876.8,0,44697.6,551482
step02_gravity_refstate-mantle.xmf,591,-1.61902e-06,9.18778e-06,0,-3.94039e-06,-1.25044e+09,-1.249e+09,-1.25023e+09,-526634,-0.0307061,0.148186,-0,0.151334,8010.81,-44699.4,0,45411.6,526634
step02_gravity_refstate-mantle.xmf,592,-2.62631e-06,1.05089e-05,0,-3.35891e-06,-1.29903e+09,-1.29728e+09,-1.29868e+09,-448918,-0.0268784,0.143366,-0,0.145864,6556.22,-46197,0,46659.9,448918
step02_gravity_refstate-mantle.xmf,593,-2.0758e-06,9.78528e-06,0,-3.68286e-06,-1.2764e+09,-1.27482e+09,-1.27612e+09,-492215,-0.0293452,0.144752,-0,0.147697,7436.09,-45499.7,0,46103.4,492215
step02_gravity_refstate-mantle.xmf,594,-2.99056e-06,1.09093e-05,0,-2.8973e-06,-1.33133e+09,-1.32947e+09,-1.33093e+09,-387224,-0.0245538,0.135967,-0,0.138166,5965.23,-47193.3,0,47568.8,387224
step02_gravity_refstate-mantle.xmf,595,-4.15106e-06,1.23442e-05,0,-1.15031e-06,-1.39272e+09,-1.39051e+09,-1.39216e+09,-153738,-0.0104299,0.126168,-0,0.126599,2416.64,-49085.4,0,49144.8,153738
step02_gravity_refstate-mantle.xmf,596,-4.11452e-06,1.22234e-05,0,-7.7306e-07,-1.4258e+09,-1.42362e+09,-1.42525e+09,-103320,-0.00777695,0.114501,-0,0.114765,1853.12,-50107.3,0,50141.5,103320
step02_gravity_refstate-mantle.xmf,597,-4.05908e-06,1.20967e-05,0,-4.69447e-07,-1.45654e+09,-1.45438e+09,-1.456e+09,-62741.6,-0.00524152,0.103529,-0,0.103662,1281.6,-51056.9,0,51073,62741.6
step02_gravity_refstate-mantle.xmf,598,-3.98923e-06,1.19632e-05,0,-2.02638e-07,-1.48699e+09,-1.48485e+09,-1.48645e+09,-27082.5,-0.00250778,0.0925641,-0,0.092598,628.694,-51997.5,0,52001.3,27082.5
step02_gravity_refstate-mantle.xmf,599,-3.89642e-06,1.18136e-05,0,3.44319e-08,-1.51922e+09,-1.51712e+09,-1.5187e+09,4601.83,0.000566193,0.0808179,0,0.0808199,-145.614,-52993.5,-0,52993.7,4601.83
step02_gravity_refstate-mantle.xmf,600,-3.77084e-06,1.16378e-05,0,1.86201e-07,-1.55645e+09,-1.55439e+09,-1.55594e+09,24885.7,0.00336223,0.0671925,0,0.0672766,-890.615,-54143.8,-0,54151.1,24885.7
step02_gravity_refstate-mantle.xmf,601,-3.47448e-06,1.12635e-05,0,4.45742e-07,-1.60166e+09,-1.59969e+09,-1.6012e+09,59573.5,0.0107174,0.0500301,0,0.0511651,-2966.55,-55541.4,-0,55620.5,59573.5
step02_gravity_refstate-mantle.xmf,602,-3.33361e-06,1.10862e-05,0,3.80477e-07,-1.64088e+09,-1.63895e+09,-1.64043e+09,50850.7,0.0128512,0.0360247,0,0.0382483,-3650.21,-56753.4,-0,56870.6,50850.7
step02_gravity_refstate-mantle.xmf,603,-3.18679e-06,1.09266e-05,0,3.19388e-07,-1.67042e+09,-1.66854e+09,-1.67e+09,42686.2,0.0151446,0.0255466,0,0.0296983,-4390.98,-57666.5,-0,57833.4,42686.2
step02_gravity_refstate-mantle.xmf,604,-3.05932e-06,1.07951e-05,0,1.96005e-07,-1.70423e+09,-1.70238e+09,-1.70383e+09,26196.1,0.0170558,0.0139289,0,0.0220208,-5036.07,-58711.5,-0,58927.1,26196.1
step02_gravity_refstate-mantle.xmf,605,-2.892e-06,1.06297e-05,0,2.01613e-09,-1.74593e+09,-1.74412e+09,-1.74554e+09,269.456,0.0194163,-2.03636e-19,0,0.0194163,-5846.82,-60000,-0,60284.2,269.456
step02_gravity_refstate-mantle.xmf,606,5.74501e-07,5.39504e-06,0,-3.5605e-06,-1.09815e+09,-1.0975e+09,-1.09823e+09,-475861,-0.0268773,0.155765,-0,0.158066,10932.8,-40000,0,41467.2,475861
step02_gravity_refstate-mantle.xmf,607,-3.69757e-06,1.18249e-05,0,-2.09516e-06,-1.36189e+09,-1.35981e+09,-1.36139e+09,-280018,-0.0182256,0.132615,-0,0.133861,4269.32,-48134.8,0,48323.7,280018
step02_gravity_refstate-mantle.xmf,608,-3.24964e-06,1.11987e-05,0,-2.44517e-06,-1.36154e+09,-1.35961e+09,-1.36111e+09,-326797,-0.0221766,0.128265,-0,0.130168,5404.66,-48125.5,0,48428,326797
step02_gravity_refstate-mantle.xmf,609,-3.8477e-06,1.19294e-05,0,-1.6291e-06,-1.39222e+09,-1.39011e+09,-1.39171e+09,-217730,-0.0151864,0.123579,-0,0.124508,3604.58,-49071,0,49203.2,217730
step02_gravity_refstate-mantle.xmf,610,-3.63081e-06,1.14676e-05,0,2.43149e-07,-1.59817e+09,-1.59615e+09,-1.59768e+09,32496.9,0.00561912,0.0520771,0,0.0523793,-1530.89,-55433,-0,55454.1,32496.9
step02_gravity_refstate-mantle.xmf,611,5.39291e-07,5.44893e-06,0,-3.44195e-06,-1.12189e+09,-1.12123e+09,-1.12196e+09,-460017,-0.0285026,0.147523,-0,0.150251,11379.2,-40733.2,0,42292.8,460017
step02_gravity_refstate-mantle.xmf,612,3.41054e-07,5.96595e-06,0,-3.68061e-06,-1.1455e+09,-1.14475e+09,-1.14554e+09,-491913,-0.0302132,0.147713,-0,0.150771,10905.6,-41462.5,0,42872.7,491913
step02_gravity_refstate-mantle.xmf,613,6.22346e-08,6.52736e-06,0,-3.84266e-06,-1.16998e+09,-1.16912e+09,-1.16999e+09,-513571,-0.0314538,0.147043,-0,0.15037,10457.7,-42218.5,0,43494.4,513571
step02_gravity_refstate-mantle.xmf,614,-2.94943e-07,7.14171e-06,0,-3.92098e-06,-1.19664e+09,-1.19564e+09,-1.1966e+09,-524039,-0.0322242,0.145453,-0,0.14898,9997.66,-43041,0,44186.9,524039
step02_gravity_refstate-mantle.xmf,615,-7.03158e-07,7.77451e-06,0,-3.91094e-06,-1.22375e+09,-1.22261e+09,-1.22365e+09,-522698,-0.0324203,0.143307,-0,0.146928,9507.9,-43877.3,0,44895.6,522698
step02_gravity_refstate-mantle.xmf,616,-1.13593e-06,8.39877e-06,0,-3.81361e-06,-1.25085e+09,-1.24957e+09,-1.25069e+09,-509690,-0.0320496,0.14063,-0,0.144236,8987.6,-44713.1,0,45607.4,509690
step02_gravity_refstate-mantle.xmf,617,-1.59157e-06,9.02702e-06,0,-3.64404e-06,-1.27744e+09,-1.27602e+09,-1.27723e+09,-487026,-0.0310793,0.137835,-0,0.141296,8388.46,-45533.1,0,46299.3,487026
step02_gravity_refstate-mantle.xmf,618,-2.07084e-06,9.65633e-06,0,-3.37878e-06,-1.30522e+09,-1.30366e+09,-1.30495e+09,-451574,-0.0294384,0.134413,-0,0.137599,7692.21,-46389.7,0,47023.1,451574
step02_gravity_refstate-mantle.xmf,619,-2.42772e-06,1.01012e-05,0,-3.08412e-06,-1.33029e+09,-1.32862e+09,-1.32997e+09,-412193,-0.0277397,0.130049,-0,0.132975,7133.46,-47162.9,0,47699.3,412193
step02_gravity_refstate-mantle.xmf,620,-2.74343e-06,1.04705e-05,0,-2.70565e-06,-1.36055e+09,-1.35879e+09,-1.36019e+09,-361611,-0.0257037,0.123298,-0,0.125949,6575.28,-48096.5,0,48543.9,361611
step02_gravity_refstate-mantle.xmf,621,-3.90074e-06,1.19367e-05,0,-1.22785e-06,-1.42328e+09,-1.42116e+09,-1.42276e+09,-164103,-0.0125341,0.11348,-0,0.11417,3033.72,-50030.1,0,50122,164103
step02_gravity_refstate-mantle.xmf,622,-3.8995e-06,1.18912e-05,0,-9.07176e-07,-1.45383e+09,-1.45171e+09,-1.4533e+09,-121244,-0.0102481,0.103115,-0,0.103623,2534.42,-50973.5,0,51036.5,121244
step02_gravity_refstate-mantle.xmf,623,-3.87702e-06,1.18159e-05,0,-6.09744e-07,-1.48725e+09,-1.48515e+09,-1.48673e+09,-81492.3,-0.00776717,0.0915816,-0,0.0919103,1966.06,-52005.9,0,52043,81492.3
step02_gravity_refstate-mantle.xmf,624,-3.84158e-06,1.1741e-05,0,-3.42146e-07,-1.5208e+09,-1.51871e+09,-1.52028e+09,-45727.9,-0.00498269,0.0798916,-0,0.0800468,1289.21,-53042.2,0,53057.9,45727.9
step02_gravity_refstate-mantle.xmf,625,-3.78194e-06,1.16495e-05,0,-1.27597e-07,-1.5564e+09,-1.55434e+09,-1.55589e+09,-17053.4,-0.00216332,0.0672912,-0,0.067326,572.444,-54142.2,0,54145.2,17053.4
step02_gravity_refstate-mantle.xmf,626,-3.70122e-06,1.15466e-05,0,1.9956e-08,-1.59532e+09,-1.59329e+09,-1.59483e+09,2667.12,0.000542982,0.0533969,0,0.0533997,-147.044,-55344.9,-0,55345.1,2667.12
step02_gravity_refstate-mantle.xmf,627,-3.51756e-06,1.13263e-05,0,2.07713e-07,-1.64773e+09,-1.64575e+09,-1.64726e+09,27760.8,0.00750458,0.0344122,0,0.035221,-2097.81,-56964.3,-0,57003,27760.8
step02_gravity_refstate-mantle.xmf,628,-3.34339e-06,1.11443e-05,0,1.71603e-07,-1.6934e+09,-1.69147e+09,-1.69296e+09,22934.8,0.0117328,0.0181283,0,0.0215938,-3364.89,-58375.9,-0,58472.8,22934.8
step02_gravity_refstate-mantle.xmf,629,-3.2044e-06,1.10387e-05,0,4.44873e-09,-1.74596e+09,-1.74406e+09,-1.74553e+09,594.573,0.0143181,-2.60279e-19,0,0.0143181,-4175.05,-60000,-0,60145.1,594.573
step02_gravity_refstate-mantle.xmf,630,6.49081e-07,4.99559e-06,0,-3.16603e-06,-1.09817e+09,-1.09758e+09,-1.09825e+09,-423140,-0.0263244,0.147125,-0,0.149462,11837.8,-40000,0,41714.9,423140
step02_gravity_refstate-mantle.xmf,631,-3.44935e-06,1.13982e-05,0,-2.0019e-06,-1.39276e+09,-1.39077e+09,-1.3923e+09,-267554,-0.0195471,0.119677,-0,0.121263,4801.83,-49089,0,49323.3,267554
step02_gravity_refstate-mantle.xmf,632,-3.00254e-06,1.07739e-05,0,-2.28792e-06,-1.39265e+09,-1.39081e+09,-1.39225e+09,-305780,-0.0234204,0.115262,-0,0.117617,6001.56,-49086.9,0,49452.4,305780
step02_gravity_refstate-mantle.xmf,633,-3.59432e-06,1.15181e-05,0,-1.60211e-06,-1.42345e+09,-1.42143e+09,-1.42297e+09,-214122,-0.0168569,0.110678,-0,0.111954,4188.03,-50036.5,0,50211.4,214122
step02_gravity_refstate-mantle.xmf,634,-3.62291e-06,1.14602e-05,0,9.13315e-08,-1.63047e+09,-1.62845e+09,-1.62999e+09,12206.5,0.00287255,0.0408387,0,0.0409396,-791.778,-56430.8,-0,56436.4,12206.5
step02_gravity_refstate-mantle.xmf,635,5.06536e-07,5.48454e-06,0,-3.3229e-06,-1.14321e+09,-1.14254e+09,-1.14328e+09,-444106,-0.0297148,0.14042,-0,0.14353,11771.6,-41391.7,0,43033,444106
step02_gravity_refstate-mantle.xmf,636,6.31474e-07,5.06655e-06,0,-3.07358e-06,-1.12392e+09,-1.12333e+09,-1.124e+09,-410784,-0.0281045,0.138941,-0,0.141755,12310.1,-40795.6,0,42612.4,410784
step02_gravity_refstate-mantle.xmf,637,3.22279e-07,5.91448e-06,0,-3.46162e-06,-1.16836e+09,-1.16761e+09,-1.1684e+09,-462645,-0.031191,0.138593,-0,0.142059,11466.1,-42168.4,0,43699.5,462645
step02_gravity_refstate-mantle.xmf,638,3.34345e-08,6.47342e-06,0,-3.58571e-06,-1.19582e+09,-1.19496e+09,-1.19583e+09,-479230,-0.0323346,0.137128,-0,0.140888,11009.9,-43016.3,0,44402.9,479230
step02_gravity_refstate-mantle.xmf,639,-7.11584e-07,7.67651e-06,0,-3.61478e-06,-1.2515e+09,-1.25038e+09,-1.2514e+09,-483115,-0.0329744,0.132958,-0,0.136986,9987.39,-44734.2,0,45835.6,483115
step02_gravity_refstate-mantle.xmf,640,-3.16881e-07,7.06646e-06,0,-3.63936e-06,-1.22357e+09,-1.22258e+09,-1.22353e+09,-486401,-0.0329329,0.135273,-0,0.139224,10517.4,-43872.5,0,45115.6,486401
step02_gravity_refstate-mantle.xmf,641,-1.1223e-06,8.27362e-06,0,-3.5238e-06,-1.27792e+09,-1.27666e+09,-1.27777e+09,-470955,-0.0324674,0.130566,-0,0.134542,9413.68,-45549.1,0,46511.7,470955
step02_gravity_refstate-mantle.xmf,642,-1.54353e-06,8.85494e-06,0,-3.36478e-06,-1.30381e+09,-1.30242e+09,-1.3036e+09,-449702,-0.0314429,0.127864,-0,0.131674,8790.4,-46347.5,0,47173.7,449702
step02_gravity_refstate-mantle.xmf,643,-1.89052e-06,9.30624e-06,0,-3.13468e-06,-1.33032e+09,-1.32882e+09,-1.33006e+09,-418950,-0.0302352,0.123468,-0,0.127117,8289.34,-47165.2,0,47888,418950
step02_gravity_refstate-mantle.xmf,644,-2.22201e-06,9.72638e-06,0,-2.84991e-06,-1.35828e+09,-1.35668e+09,-1.35798e+09,-380890,-0.028659,0.118188,-0,0.121613,7748.17,-48027.8,0,48648.8,380890
step02_gravity_refstate-mantle.xmf,645,-2.52259e-06,1.00865e-05,0,-2.48266e-06,-1.39222e+09,-1.39053e+09,-1.39188e+09,-331807,-0.0267313,0.1104,-0,0.11359,7197.59,-49075,0,49600,331807
step02_gravity_refstate-mantle.xmf,646,-3.70145e-06,1.16327e-05,0,-1.25967e-06,-1.44767e+09,-1.44562e+09,-1.44717e+09,-168354,-0.0142205,0.103509,-0,0.104481,3561.33,-50783.9,0,50908.6,168354
step02_gravity_refstate-mantle.xmf,647,-3.64225e-06,1.15016e-05,0,-1.04568e-06,-1.48138e+09,-1.47936e+09,-1.4809e+09,-139755,-0.0133831,0.0916797,-0,0.0926513,3444.17,-51825.6,0,51939.9,139755
step02_gravity_refstate-mantle.xmf,648,-3.6866e-06,1.1534e-05,0,-6.97228e-07,-1.51878e+09,-1.51675e+09,-1.51829e+09,-93184.5,-0.0102915,0.0794252,-0,0.0800892,2696.28,-52980.6,0,53049.2,93184.5
step02_gravity_refstate-mantle.xmf,649,-3.68607e-06,1.15223e-05,0,-4.29105e-07,-1.55555e+09,-1.55352e+09,-1.55506e+09,-57349.9,-0.00751957,0.0669517,-0,0.0673727,2005.92,-54116.4,0,54153.5,57349.9
step02_gravity_refstate-mantle.xmf,650,-3.66128e-06,1.1492e-05,0,-2.10998e-07,-1.5962e+09,-1.59417e+09,-1.59571e+09,-28199.9,-0.00465178,0.0528738,-0,0.053078,1263.91,-55372,0,55386.5,28199.9
step02_gravity_refstate-mantle.xmf,651,-3.63307e-06,1.14692e-05,0,-5.23494e-08,-1.63435e+09,-1.63233e+09,-1.63387e+09,-6996.49,-0.00141546,0.0395098,-0,0.0395352,390.25,-56550.7,0,56552.1,6996.49
step02_gravity_refstate-mantle.xmf,652,-3.5836e-06,1.14362e-05,0,5.39572e-08,-1.6696e+09,-1.6676e+09,-1.66912e+09,7211.38,0.00251574,0.0270105,0,0.0271274,-702.569,-57639.8,-0,57644.1,7211.38
step02_gravity_refstate-mantle.xmf,653,-3.51598e-06,1.13774e-05,0,7.52275e-08,-1.69995e+09,-1.69796e+09,-1.69948e+09,10054.2,0.00587459,0.0162048,0,0.0172368,-1658.06,-58577.5,-0,58601,10054.2
step02_gravity_refstate-mantle.xmf,654,-3.42956e-06,1.13324e-05,0,3.02735e-09,-1.74598e+09,-1.74401e+09,-1.74553e+09,404.605,0.00878057,-2.28446e-19,0,0.00878057,-2505.02,-60000,-0,60052.3,404.605
step02_gravity_refstate-mantle.xmf,655,6.94069e-07,4.66164e-06,0,-2.80112e-06,-1.09818e+09,-1.09765e+09,-1.09828e+09,-374369,-0.0256911,0.138786,-0,0.141144,12782.4,-40000,0,41992.7,374369
step02_gravity_refstate-mantle.xmf,656,-2.76431e-06,1.03807e-05,0,-2.09301e-06,-1.42755e+09,-1.4258e+09,-1.42718e+09,-279731,-0.0246398,0.101401,-0,0.104351,6651.49,-50165.7,0,50604.7,279731
step02_gravity_refstate-mantle.xmf,657,-3.18742e-06,1.09627e-05,0,-1.87628e-06,-1.42768e+09,-1.42579e+09,-1.42725e+09,-250765,-0.0210599,0.10548,-0,0.107562,5448.32,-50168.3,0,50463.2,250765
step02_gravity_refstate-mantle.xmf,658,-3.41059e-06,1.1222e-05,0,-1.48985e-06,-1.45638e+09,-1.45442e+09,-1.45592e+09,-199119,-0.0178126,0.0980326,-0,0.0996377,4606.33,-51053.9,0,51261.3,199119
step02_gravity_refstate-mantle.xmf,659,5.52451e-07,5.30759e-06,0,-3.06598e-06,-1.15761e+09,-1.15697e+09,-1.15768e+09,-409769,-0.030168,0.131756,-0,0.135166,12526.6,-41836.3,0,43671.4,409769
step02_gravity_refstate-mantle.xmf,660,6.99865e-07,4.73548e-06,0,-2.72653e-06,-1.12525e+09,-1.12471e+09,-1.12534e+09,-364400,-0.0275569,0.130826,-0,0.133696,13275.7,-40836.3,0,42940,364400
step02_gravity_refstate-mantle.xmf,661,3.04491e-07,5.87601e-06,0,-3.23255e-06,-1.19321e+09,-1.19246e+09,-1.19325e+09,-432031,-0.0320647,0.129255,-0,0.133173,12062.2,-42935.8,0,44598,432031
step02_gravity_refstate-mantle.xmf,662,5.06795e-09,6.43832e-06,0,-3.33328e-06,-1.22319e+09,-1.22233e+09,-1.22319e+09,-445492,-0.0330871,0.127384,-0,0.131611,11558.1,-43861.3,0,45358.6,445492
step02_gravity_refstate-mantle.xmf,663,-7.34199e-07,7.62377e-06,0,-3.33112e-06,-1.28083e+09,-1.27971e+09,-1.28073e+09,-445204,-0.0334032,0.122933,-0,0.127391,10425.4,-45640,0,46815.6,445204
step02_gravity_refstate-mantle.xmf,664,-3.43802e-07,7.02037e-06,0,-3.36414e-06,-1.25244e+09,-1.25146e+09,-1.2524e+09,-449618,-0.0335283,0.125226,-0,0.129637,11020.7,-44764.1,0,46100.8,449618
step02_gravity_refstate-mantle.xmf,665,-1.07852e-06,8.1244e-06,0,-3.2572e-06,-1.30294e+09,-1.30171e+09,-1.30279e+09,-435325,-0.0328784,0.121118,-0,0.125502,9881.99,-46321.8,0,47364.2,435325
step02_gravity_refstate-mantle.xmf,666,-1.37691e-06,8.53425e-06,0,-3.11071e-06,-1.32732e+09,-1.32599e+09,-1.32713e+09,-415746,-0.0321529,0.117557,-0,0.121875,9439.7,-47073.9,0,48011.1,415746
step02_gravity_refstate-mantle.xmf,667,-1.71273e-06,8.97939e-06,0,-2.8785e-06,-1.35716e+09,-1.35573e+09,-1.35693e+09,-384711,-0.0310073,0.112316,-0,0.116517,8932.66,-47994.7,0,48818.9,384711
step02_gravity_refstate-mantle.xmf,668,-2.04028e-06,9.39969e-06,0,-2.57618e-06,-1.39077e+09,-1.38924e+09,-1.39049e+09,-344306,-0.029459,0.105495,-0,0.109531,8382.44,-49031.7,0,49743.1,344306
step02_gravity_refstate-mantle.xmf,669,-2.32041e-06,9.75312e-06,0,-2.25693e-06,-1.42372e+09,-1.42211e+09,-1.42341e+09,-301639,-0.0276961,0.0981165,-0,0.101951,7827.98,-50048.7,0,50657.2,301639
step02_gravity_refstate-mantle.xmf,670,-3.42389e-06,1.11841e-05,0,-1.00571e-06,-1.51833e+09,-1.51638e+09,-1.51787e+09,-134413,-0.0153233,0.0776015,-0,0.0790999,4110.32,-52967.4,0,53126.7,134413
step02_gravity_refstate-mantle.xmf,671,-3.4908e-06,1.12633e-05,0,-7.08228e-07,-1.55401e+09,-1.55204e+09,-1.55354e+09,-94654.6,-0.012654,0.066171,-0,0.0673701,3433.83,-54069.3,0,54178.2,94654.6
step02_gravity_refstate-mantle.xmf,672,-3.52499e-06,1.13139e-05,0,-4.4028e-07,-1.59504e+09,-1.59306e+09,-1.59457e+09,-58843.4,-0.00993629,0.052507,-0,0.0534389,2733.45,-55336.8,0,55404.2,58843.4
step02_gravity_refstate-mantle.xmf,673,-3.53396e-06,1.13535e-05,0,-2.16238e-07,-1.64205e+09,-1.64006e+09,-1.64158e+09,-28900.2,-0.00689408,0.0364646,-0,0.0371106,1920.51,-56788.8,0,56821.2,28900.2
step02_gravity_refstate-mantle.xmf,674,-3.57081e-06,1.14319e-05,0,-5.86315e-08,-1.67174e+09,-1.66974e+09,-1.67127e+09,-7836.1,-0.00275035,0.0262476,-0,0.0263913,768.877,-57706.1,0,57711.2,7836.1
step02_gravity_refstate-mantle.xmf,675,-3.56803e-06,1.14584e-05,0,-3.20863e-09,-1.70504e+09,-1.70303e+09,-1.70456e+09,-428.833,-0.000111563,0.0145124,-0,0.0145128,31.3492,-58734.6,0,58734.6,428.833
step02_gravity_refstate-mantle.xmf,676,-3.54444e-06,1.1483e-05,0,3.7478e-09,-1.746e+09,-1.74399e+09,-1.74552e+09,500.893,0.0029594,-2.0006e-19,0,0.0029594,-835.008,-60000,-0,60005.8,500.893
step02_gravity_refstate-mantle.xmf,677,7.18591e-07,4.37994e-06,0,-2.46763e-06,-1.0982e+09,-1.09771e+09,-1.0983e+09,-329798,-0.0249952,0.130766,-0,0.133133,13769.1,-40000,0,42303.5,329798
step02_gravity_refstate-mantle.xmf,678,-2.5288e-06,1.00196e-05,0,-1.9691e-06,-1.45222e+09,-1.45054e+09,-1.45188e+09,-263170,-0.0260351,0.0912095,-0,0.0948525,7340.6,-50928.2,0,51454.5,263170
step02_gravity_refstate-mantle.xmf,679,-2.93595e-06,1.05684e-05,0,-1.66371e-06,-1.47119e+09,-1.46939e+09,-1.4708e+09,-222355,-0.0224104,0.0889679,-0,0.0917471,6127.83,-51513.1,0,51876.3,222355
step02_gravity_refstate-mantle.xmf,680,-3.3182e-06,1.10707e-05,0,-1.28639e-06,-1.49045e+09,-1.48852e+09,-1.49e+09,-171925,-0.0177774,0.0859938,-0,0.0878121,4738.61,-52106.5,0,52321.5,171925
step02_gravity_refstate-mantle.xmf,681,5.12071e-07,5.36451e-06,0,-2.8757e-06,-1.19058e+09,-1.18993e+09,-1.19065e+09,-384338,-0.0315099,0.121576,-0,0.125593,13152.2,-42854.7,0,44827.5,384338
step02_gravity_refstate-mantle.xmf,682,7.51551e-07,4.45575e-06,0,-2.4084e-06,-1.1277e+09,-1.1272e+09,-1.1278e+09,-321882,-0.0269991,0.12281,-0,0.125743,14293.2,-40911.5,0,43336.4,321882
step02_gravity_refstate-mantle.xmf,683,6.81012e-07,4.86826e-06,0,-2.66166e-06,-1.15808e+09,-1.15752e+09,-1.15817e+09,-355731,-0.0294586,0.12259,-0,0.12608,13720.5,-41850.7,0,44042.4,355731
step02_gravity_refstate-mantle.xmf,684,2.67524e-07,5.88914e-06,0,-3.0119e-06,-1.22262e+09,-1.22187e+09,-1.22266e+09,-402540,-0.0329259,0.11974,-0,0.124185,12628.1,-43844.1,0,45626.5,402540
step02_gravity_refstate-mantle.xmf,685,-2.69968e-08,6.42672e-06,0,-3.08376e-06,-1.25285e+09,-1.25199e+09,-1.25285e+09,-412145,-0.0337335,0.117692,-0,0.122431,12092,-44777.4,0,46381.4,412145
step02_gravity_refstate-mantle.xmf,686,-8.58865e-07,7.74137e-06,0,-3.04748e-06,-1.31736e+09,-1.31622e+09,-1.31725e+09,-407296,-0.0335471,0.112972,-0,0.117848,10627.3,-46768,0,47960.2,407296
step02_gravity_refstate-mantle.xmf,687,-3.60925e-07,6.97751e-06,0,-3.08906e-06,-1.28283e+09,-1.28185e+09,-1.28278e+09,-412853,-0.0340225,0.115138,-0,0.12006,11539.9,-45702.5,0,47136.9,412853
step02_gravity_refstate-mantle.xmf,688,-1.23075e-06,8.25314e-06,0,-2.82212e-06,-1.35563e+09,-1.35436e+09,-1.35547e+09,-377176,-0.032787,0.106326,-0,0.111267,10130.4,-47948.8,0,49007.3,377176
step02_gravity_refstate-mantle.xmf,689,-1.88719e-06,9.13841e-06,0,-2.30921e-06,-1.42316e+09,-1.42169e+09,-1.42291e+09,-308627,-0.0301237,0.0936081,-0,0.0983357,8978.05,-50032.7,0,50831.8,308627
step02_gravity_refstate-mantle.xmf,690,-1.56958e-06,8.71443e-06,0,-2.58093e-06,-1.38976e+09,-1.38839e+09,-1.38955e+09,-344942,-0.0316279,0.100168,-0,0.105042,9576.33,-49002.1,0,49929.1,344942
step02_gravity_refstate-mantle.xmf,691,-2.15828e-06,9.49653e-06,0,-2.03863e-06,-1.4537e+09,-1.45215e+09,-1.45341e+09,-272463,-0.028461,0.0870926,-0,0.0916251,8386.56,-50975.3,0,51660.6,272463
step02_gravity_refstate-mantle.xmf,692,-3.07931e-06,1.07219e-05,0,-1.26865e-06,-1.51614e+09,-1.5143e+09,-1.51573e+09,-169555,-0.0199729,0.0756514,-0,0.0782435,5531.7,-52901,0,53189.5,169555
step02_gravity_refstate-mantle.xmf,693,-3.20587e-06,1.08843e-05,0,-9.49262e-07,-1.55239e+09,-1.5505e+09,-1.55196e+09,-126869,-0.0174576,0.064772,-0,0.0670834,4863.88,-54020.2,0,54238.7,126869
step02_gravity_refstate-mantle.xmf,694,-3.29648e-06,1.10111e-05,0,-6.54378e-07,-1.59216e+09,-1.59025e+09,-1.59172e+09,-87457.7,-0.0149305,0.0521947,-0,0.0542881,4192.34,-55248.6,0,55407.4,87457.7
step02_gravity_refstate-mantle.xmf,695,-3.36565e-06,1.11235e-05,0,-4.11854e-07,-1.63153e+09,-1.62959e+09,-1.63108e+09,-55044.3,-0.0124302,0.0393234,-0,0.0412412,3511.21,-56464.3,0,56573.4,55044.3
step02_gravity_refstate-mantle.xmf,696,-3.50514e-06,1.13604e-05,0,-9.45753e-08,-1.69758e+09,-1.6956e+09,-1.69711e+09,-12640,-0.00631808,0.017019,-0,0.0181539,1784.3,-58504.5,0,58531.7,12640
step02_gravity_refstate-mantle.xmf,697,-3.54342e-06,1.1482e-05,0,5.164e-09,-1.746e+09,-1.74399e+09,-1.74552e+09,690.169,-0.00295932,-2.27731e-19,-0,0.00295932,835.008,-60000,0,60005.8,690.169
step02_gravity_refstate-mantle.xmf,698,7.31655e-07,4.13937e-06,0,-2.16527e-06,-1.09822e+09,-1.09776e+09,-1.09832e+09,-289389,-0.0242479,0.123078,-0,0.125444,14800.9,-40000,0,42650.5,289389
step02_gravity_refstate-mantle.xmf,699,-2.42209e-06,9.84776e-06,0,-1.74273e-06,-1.48491e+09,-1.48327e+09,-1.48458e+09,-232916,-0.0264335,0.0799947,-0,0.0842489,7709.15,-51938.3,0,52507.3,232916
step02_gravity_refstate-mantle.xmf,700,-3.40361e-06,1.12013e-05,0,-2.42329e-07,-1.66698e+09,-1.66503e+09,-1.66653e+09,-32387.3,-0.0104147,0.0273863,-0,0.0292998,2953.67,-57559.6,0,57635.3,32387.3
step02_gravity_refstate-mantle.xmf,701,7.89432e-07,4.19979e-06,0,-2.11056e-06,-1.12805e+09,-1.12759e+09,-1.12815e+09,-282077,-0.0262038,0.115417,-0,0.118354,15357.6,-40922,0,43708.9,282077
step02_gravity_refstate-mantle.xmf,702,4.80792e-07,5.4054e-06,0,-2.6843e-06,-1.22185e+09,-1.2212e+09,-1.22192e+09,-358757,-0.0324816,0.112283,-0,0.116887,13747.5,-43820.6,0,45926.5,358757
step02_gravity_refstate-mantle.xmf,703,6.61545e-07,4.9434e-06,0,-2.52832e-06,-1.1898e+09,-1.18922e+09,-1.18989e+09,-337910,-0.0308078,0.113853,-0,0.117948,14285.7,-42830.4,0,45150.1,337910
step02_gravity_refstate-mantle.xmf,704,7.66053e-07,4.53414e-06,0,-2.32611e-06,-1.15839e+09,-1.15789e+09,-1.1585e+09,-310884,-0.0286703,0.11479,-0,0.118317,14835.2,-41860.1,0,44411.1,310884
step02_gravity_refstate-mantle.xmf,705,2.39106e-07,5.89914e-06,0,-2.78721e-06,-1.25315e+09,-1.25239e+09,-1.25318e+09,-372511,-0.0336232,0.110364,-0,0.115372,13198.8,-44786.9,0,46691.3,372511
step02_gravity_refstate-mantle.xmf,706,-4.4029e-08,6.40361e-06,0,-2.82296e-06,-1.28454e+09,-1.28368e+09,-1.28454e+09,-377288,-0.03427,0.107721,-0,0.113041,12665.7,-45756.2,0,47476.8,377288
step02_gravity_refstate-mantle.xmf,707,-3.96923e-07,6.97762e-06,0,-2.8003e-06,-1.31854e+09,-1.31755e+09,-1.31848e+09,-374260,-0.034428,0.104477,-0,0.110003,12026.6,-46805.3,0,48325.7,374260
step02_gravity_refstate-mantle.xmf,708,-7.67092e-07,7.5362e-06,0,-2.69369e-06,-1.35331e+09,-1.3522e+09,-1.35321e+09,-360011,-0.0340629,0.100164,-0,0.105798,11393.4,-47878.6,0,49215.5,360011
step02_gravity_refstate-mantle.xmf,709,-1.11357e-06,8.03412e-06,0,-2.51091e-06,-1.38886e+09,-1.38764e+09,-1.38872e+09,-335583,-0.033296,0.0945183,-0,0.100211,10812.9,-48975.6,0,50155.1,335583
step02_gravity_refstate-mantle.xmf,710,-1.76451e-06,8.94045e-06,0,-2.04947e-06,-1.45556e+09,-1.45413e+09,-1.45533e+09,-273911,-0.0306403,0.0824754,-0,0.0879831,9511.88,-51033.9,0,51912.8,273911
step02_gravity_refstate-mantle.xmf,711,-1.45414e-06,8.5112e-06,0,-2.28523e-06,-1.42394e+09,-1.42261e+09,-1.42375e+09,-305421,-0.0321119,0.0883992,-0,0.094051,10174.7,-50058.2,0,51081.7,305421
step02_gravity_refstate-mantle.xmf,712,-2.02659e-06,9.30052e-06,0,-1.83177e-06,-1.48154e+09,-1.48003e+09,-1.48127e+09,-244815,-0.029088,0.0773276,-0,0.0826176,8881.23,-51835.5,0,52590.8,244815
step02_gravity_refstate-mantle.xmf,713,-2.65909e-06,1.01656e-05,0,-1.46182e-06,-1.51329e+09,-1.51158e+09,-1.51293e+09,-195373,-0.0241954,0.0731992,-0,0.0770943,6989.77,-52814.3,0,53274.8,195373
step02_gravity_refstate-mantle.xmf,714,-2.84712e-06,1.04039e-05,0,-1.14155e-06,-1.5506e+09,-1.54883e+09,-1.55022e+09,-152568,-0.0218417,0.0628433,-0,0.0665307,6305.92,-53966.2,0,54333.4,152568
step02_gravity_refstate-mantle.xmf,715,-2.99227e-06,1.06066e-05,0,-8.29703e-07,-1.59007e+09,-1.58825e+09,-1.58967e+09,-110890,-0.0194878,0.0511236,-0,0.054712,5636.29,-55184.9,0,55472,110890
step02_gravity_refstate-mantle.xmf,716,-3.10959e-06,1.07839e-05,0,-5.53859e-07,-1.62987e+09,-1.62801e+09,-1.62945e+09,-74023.2,-0.017141,0.0387352,-0,0.0423583,4963.35,-56413.9,0,56631.9,74023.2
step02_gravity_refstate-mantle.xmf,717,-3.21614e-06,1.09538e-05,0,-3.31006e-07,-1.66677e+09,-1.66488e+09,-1.66634e+09,-44239,-0.014718,0.0268535,-0,0.0306224,4253.57,-57553.6,0,57710.6,44239
step02_gravity_refstate-mantle.xmf,718,-3.32198e-06,1.11329e-05,0,-1.44093e-07,-1.70455e+09,-1.70262e+09,-1.7041e+09,-19258.1,-0.0119816,0.0142711,-0,0.0186339,3446.04,-58720.3,0,58821.3,19258.1
step02_gravity_refstate-mantle.xmf,719,-3.4305e-06,1.13359e-05,0,2.73163e-09,-1.74598e+09,-1.74401e+09,-1.74552e+09,365.082,-0.00877872,-1.85323e-19,-0,0.00877872,2505.02,-60000,0,60052.3,365.082
step02_gravity_refstate-mantle.xmf,720,7.50682e-07,3.925e-06,0,-1.89434e-06,-1.09823e+09,-1.09781e+09,-1.09833e+09,-253179,-0.0234543,0.115736,-0,0.118088,15880.5,-40000,0,43037.1,253179
step02_gravity_refstate-mantle.xmf,721,7.47869e-07,3.74642e-06,0,-1.65018e-06,-1.09825e+09,-1.09785e+09,-1.09835e+09,-220546,-0.0226144,0.108748,-0,0.111074,17010.7,-40000,0,43466.8,220546
step02_gravity_refstate-mantle.xmf,722,8.25923e-07,3.96832e-06,0,-1.83921e-06,-1.1279e+09,-1.12748e+09,-1.12801e+09,-245811,-0.0252952,0.108408,-0,0.11132,16473.7,-40917,0,44108.7,245811
step02_gravity_refstate-mantle.xmf,723,-2.21179e-06,9.54987e-06,0,-1.58299e-06,-1.51137e+09,-1.5098e+09,-1.51107e+09,-211567,-0.0277035,0.0700234,-0,0.0753045,8419.16,-52756.3,0,53423.9,211567
step02_gravity_refstate-mantle.xmf,724,4.61642e-07,5.4304e-06,0,-2.49324e-06,-1.25201e+09,-1.25135e+09,-1.25207e+09,-333222,-0.033197,0.103606,-0,0.108795,14329.3,-44752.1,0,46990.2,333222
step02_gravity_refstate-mantle.xmf,725,8.28579e-07,4.25213e-06,0,-2.02733e-06,-1.15808e+09,-1.15763e+09,-1.15819e+09,-270953,-0.0277536,0.107681,-0,0.1112,15959.8,-41850.2,0,44790.1,270953
step02_gravity_refstate-mantle.xmf,726,6.47995e-07,4.99121e-06,0,-2.36589e-06,-1.22145e+09,-1.22087e+09,-1.22154e+09,-316201,-0.0318134,0.105078,-0,0.109789,14904,-43808.3,0,46274.1,316201
step02_gravity_refstate-mantle.xmf,727,7.7315e-07,4.59238e-06,0,-2.2088e-06,-1.18933e+09,-1.18882e+09,-1.18943e+09,-295207,-0.0299576,0.106593,-0,0.110723,15437.7,-42815.8,0,45513.9,295207
step02_gravity_refstate-mantle.xmf,728,8.42577e-07,3.78435e-06,0,-1.60095e-06,-1.12883e+09,-1.12843e+09,-1.12894e+09,-213967,-0.0244178,0.101801,-0,0.104689,17608.9,-40945.3,0,44571.2,213967
step02_gravity_refstate-mantle.xmf,729,2.38619e-07,5.86853e-06,0,-2.55178e-06,-1.28309e+09,-1.28233e+09,-1.28312e+09,-341045,-0.0341336,0.101125,-0,0.10673,13826,-45711.7,0,47756.8,341045
step02_gravity_refstate-mantle.xmf,730,-2.44692e-08,6.33423e-06,0,-2.54702e-06,-1.31686e+09,-1.31601e+09,-1.31685e+09,-340409,-0.034692,0.0974914,-0,0.10348,13337.1,-46754.2,0,48619.3,340409
step02_gravity_refstate-mantle.xmf,731,-3.5161e-07,6.86704e-06,0,-2.49764e-06,-1.35222e+09,-1.35126e+09,-1.35217e+09,-333810,-0.0347997,0.0935792,-0,0.0998402,12709.6,-47845.8,0,49505.1,333810
step02_gravity_refstate-mantle.xmf,732,-6.8673e-07,7.37964e-06,0,-2.38113e-06,-1.38787e+09,-1.38679e+09,-1.38778e+09,-318238,-0.034448,0.0887639,-0,0.095214,12086.1,-48946.1,0,50416.2,318238
step02_gravity_refstate-mantle.xmf,733,-1.02415e-06,7.87539e-06,0,-2.20293e-06,-1.42461e+09,-1.42342e+09,-1.42447e+09,-294421,-0.0336744,0.0829396,-0,0.089515,11441,-50080,0,51370.2,294421
step02_gravity_refstate-mantle.xmf,734,-1.73962e-06,8.88774e-06,0,-1.70497e-06,-1.50051e+09,-1.49909e+09,-1.50027e+09,-227869,-0.0306169,0.0690518,-0,0.0755351,9823.55,-52422.3,0,53334.8,227869
step02_gravity_refstate-mantle.xmf,735,-1.36449e-06,8.3627e-06,0,-1.97964e-06,-1.46162e+09,-1.46032e+09,-1.46144e+09,-264578,-0.0324666,0.0764273,-0,0.0830375,10725.7,-51222.3,0,52333.2,264578
step02_gravity_refstate-mantle.xmf,736,-2.43297e-06,9.85352e-06,0,-1.27303e-06,-1.54848e+09,-1.54684e+09,-1.54816e+09,-170141,-0.0257063,0.0605227,-0,0.0657557,7760.11,-53902,0,54457.8,170141
step02_gravity_refstate-mantle.xmf,737,-2.62652e-06,1.01172e-05,0,-9.64449e-07,-1.58802e+09,-1.58631e+09,-1.58766e+09,-128899,-0.02358,0.0496021,-0,0.0549216,7086.34,-55122.6,0,55576.3,128899
step02_gravity_refstate-mantle.xmf,738,-2.77961e-06,1.03444e-05,0,-6.81032e-07,-1.62669e+09,-1.62493e+09,-1.62632e+09,-91019.9,-0.0215376,0.0382511,-0,0.0438978,6449.17,-56316.8,0,56684.8,91019.9
step02_gravity_refstate-mantle.xmf,739,-2.9239e-06,1.05691e-05,0,-4.20455e-07,-1.66591e+09,-1.66411e+09,-1.66552e+09,-56193.8,-0.0193437,0.026207,-0,0.0325728,5759.03,-57528,0,57815.5,56193.8
step02_gravity_refstate-mantle.xmf,740,-3.0629e-06,1.0797e-05,0,-1.91402e-07,-1.70554e+09,-1.70368e+09,-1.70513e+09,-25580.9,-0.016981,0.013503,-0,0.0216953,5012.56,-58751.7,0,58965.1,25580.9
step02_gravity_refstate-mantle.xmf,741,-3.20585e-06,1.1043e-05,0,2.36334e-09,-1.74596e+09,-1.74405e+09,-1.74553e+09,315.86,-0.0143191,-1.73009e-19,-0,0.0143191,4175.05,-60000,0,60145.1,315.86
step02_gravity_refstate-mantle.xmf,742,7.59495e-07,3.5803e-06,0,-1.43374e-06,-1.09826e+09,-1.09788e+09,-1.09836e+09,-191619,-0.0217239,0.102124,-0,0.104409,18194.5,-40000,0,43943.6,191619
step02_gravity_refstate-mantle.xmf,743,8.80279e-07,4.00749e-06,0,-1.76451e-06,-1.15704e+09,-1.15663e+09,-1.15716e+09,-235826,-0.0267274,0.101269,-0,0.104736,17087.9,-41817.8,0,45174.3,235826
step02_gravity_refstate-mantle.xmf,744,-1.99395e-06,9.24952e-06,0,-1.35776e-06,-1.54557e+09,-1.54407e+09,-1.5453e+09,-181465,-0.0289445,0.0580776,-0,0.0648906,9208.37,-53813.5,0,54595.6,181465
step02_gravity_refstate-mantle.xmf,745,8.74137e-07,3.61842e-06,0,-1.38926e-06,-1.13197e+09,-1.1316e+09,-1.13209e+09,-185675,-0.0235948,0.0952081,-0,0.0980882,18814.6,-41042.2,0,45149.2,185675
step02_gravity_refstate-mantle.xmf,746,4.55321e-07,5.43185e-06,0,-2.32337e-06,-1.27744e+09,-1.27678e+09,-1.2775e+09,-310518,-0.0336577,0.0964464,-0,0.102151,14836.2,-45537.7,0,47893.6,310518
step02_gravity_refstate-mantle.xmf,747,6.31498e-07,5.0468e-06,0,-2.21209e-06,-1.25271e+09,-1.25212e+09,-1.25279e+09,-295646,-0.0326019,0.0970432,-0,0.102373,15457.6,-44773.8,0,47367,295646
step02_gravity_refstate-mantle.xmf,748,8.58583e-07,4.29325e-06,0,-1.91991e-06,-1.1884e+09,-1.18794e+09,-1.18851e+09,-256595,-0.0289552,0.0999244,-0,0.104035,16605.8,-42786.8,0,45896.3,256595
step02_gravity_refstate-mantle.xmf,749,7.79498e-07,4.63665e-06,0,-2.06825e-06,-1.22099e+09,-1.22047e+09,-1.22109e+09,-276422,-0.0309498,0.0983185,-0,0.103075,16085.6,-43793.8,0,46654.5,276422
step02_gravity_refstate-mantle.xmf,750,9.08593e-07,3.81396e-06,0,-1.54677e-06,-1.15504e+09,-1.15465e+09,-1.15516e+09,-206725,-0.0256702,0.0959558,-0,0.0993301,18134.6,-41755.4,0,45523.4,206725
step02_gravity_refstate-mantle.xmf,751,3.12448e-07,5.71208e-06,0,-2.26357e-06,-1.31238e+09,-1.31166e+09,-1.31242e+09,-302527,-0.0344236,0.0908712,-0,0.0971728,14751.4,-46616.6,0,48894.9,302527
step02_gravity_refstate-mantle.xmf,752,9.88882e-09,6.26102e-06,0,-2.27092e-06,-1.35038e+09,-1.34954e+09,-1.35038e+09,-303508,-0.0350176,0.0873493,-0,0.094107,14043.2,-47789.7,0,49810.3,303508
step02_gravity_refstate-mantle.xmf,753,-2.96073e-07,6.76173e-06,0,-2.20835e-06,-1.38641e+09,-1.38547e+09,-1.38637e+09,-295146,-0.0350941,0.0830971,-0,0.0902038,13397.5,-48902.1,0,50704.1,295146
step02_gravity_refstate-mantle.xmf,754,-6.07795e-07,7.2454e-06,0,-2.08121e-06,-1.42339e+09,-1.42235e+09,-1.42331e+09,-278154,-0.034761,0.0777908,-0,0.0852041,12763.9,-50043.7,0,51645.8,278154
step02_gravity_refstate-mantle.xmf,755,-9.3623e-07,7.73638e-06,0,-1.89482e-06,-1.46255e+09,-1.46139e+09,-1.46243e+09,-253243,-0.0340048,0.0713648,-0,0.0790523,12069.6,-51252.4,0,52654.3,253243
step02_gravity_refstate-mantle.xmf,756,-1.26082e-06,8.21007e-06,0,-1.65985e-06,-1.50256e+09,-1.5013e+09,-1.50239e+09,-221840,-0.0328605,0.0639265,-0,0.0718777,11333.2,-52487.3,0,53696.9,221840
step02_gravity_refstate-mantle.xmf,757,-1.5416e-06,8.61762e-06,0,-1.37974e-06,-1.54426e+09,-1.5429e+09,-1.54405e+09,-184403,-0.031527,0.0549176,-0,0.0633238,10662.7,-53774.4,0,54821.4,184403
step02_gravity_refstate-mantle.xmf,758,-2.20884e-06,9.55945e-06,0,-1.05726e-06,-1.58513e+09,-1.58355e+09,-1.58483e+09,-141303,-0.0271925,0.0479225,-0,0.0550999,8568.98,-55034.7,0,55697.8,141303
step02_gravity_refstate-mantle.xmf,759,-2.39051e-06,9.82283e-06,0,-7.77182e-07,-1.6236e+09,-1.62197e+09,-1.62328e+09,-103870,-0.0254629,0.0373566,-0,0.0452093,7958.86,-56222.7,0,56783.3,103870
step02_gravity_refstate-mantle.xmf,760,-2.55417e-06,1.00776e-05,0,-4.97218e-07,-1.66392e+09,-1.66223e+09,-1.66357e+09,-66453.2,-0.0236646,0.0256347,-0,0.0348877,7332.83,-57467.6,0,57933.5,66453.2
step02_gravity_refstate-mantle.xmf,761,-2.72209e-06,1.03473e-05,0,-2.36699e-07,-1.70448e+09,-1.70273e+09,-1.70411e+09,-31634.9,-0.021637,0.0132738,-0,0.0253841,6621.18,-58720.1,0,59092.2,31634.9
step02_gravity_refstate-mantle.xmf,762,-2.89073e-06,1.06294e-05,0,1.4657e-09,-1.74593e+09,-1.74412e+09,-1.74554e+09,195.891,-0.0194161,-1.68039e-19,-0,0.0194161,5846.82,-60000,0,60284.2,195.891
step02_gravity_refstate-mantle.xmf,763,7.75127e-07,3.42904e-06,0,-1.24051e-06,-1.09827e+09,-1.09791e+09,-1.09837e+09,-165794,-0.0207737,0.095874,-0,0.0980988,19434.8,-40000,0,44471.5,165794
step02_gravity_refstate-mantle.xmf,764,9.3103e-07,4.01955e-06,0,-1.6552e-06,-1.18583e+09,-1.18542e+09,-1.18596e+09,-221218,-0.0277354,0.0938271,-0,0.0978406,17818.7,-42707.5,0,46275.6,221218
step02_gravity_refstate-mantle.xmf,765,-1.78444e-06,8.9756e-06,0,-1.11077e-06,-1.58188e+09,-1.58044e+09,-1.58164e+09,-148454,-0.0300934,0.0461341,-0,0.0550815,10007.5,-54935.8,0,55839.9,148454
step02_gravity_refstate-mantle.xmf,766,9.70121e-07,3.73963e-06,0,-1.39e-06,-1.17463e+09,-1.17426e+09,-1.17476e+09,-185774,-0.0258395,0.0886768,-0,0.0923648,19170.3,-42360.9,0,46496.7,185774
step02_gravity_refstate-mantle.xmf,767,9.1291e-07,3.47128e-06,0,-1.19993e-06,-1.13644e+09,-1.1361e+09,-1.13656e+09,-160370,-0.0227572,0.088906,-0,0.0917723,20067.9,-41180.2,0,45809.7,160370
step02_gravity_refstate-mantle.xmf,768,5.86035e-07,5.16052e-06,0,-2.08586e-06,-1.28703e+09,-1.28642e+09,-1.28711e+09,-278776,-0.0333932,0.0897366,-0,0.0957484,15816.9,-45834.1,0,48486.5,278776
step02_gravity_refstate-mantle.xmf,769,7.74356e-07,4.71289e-06,0,-1.93203e-06,-1.25648e+09,-1.25595e+09,-1.25658e+09,-258216,-0.0318755,0.0901061,-0,0.095578,16672.3,-44890.4,0,47886.5,258216
step02_gravity_refstate-mantle.xmf,770,8.86328e-07,4.33113e-06,0,-1.7905e-06,-1.22143e+09,-1.22097e+09,-1.22155e+09,-239301,-0.0299436,0.0917694,-0,0.0965311,17316,-43807.5,0,47105.6,239301
step02_gravity_refstate-mantle.xmf,771,3.13906e-07,5.72769e-06,0,-2.02398e-06,-1.34967e+09,-1.34895e+09,-1.34971e+09,-270505,-0.0347909,0.081172,-0,0.0883137,15400,-47768.7,0,50189.7,270505
step02_gravity_refstate-mantle.xmf,772,5.14865e-08,6.19245e-06,0,-2.00663e-06,-1.38478e+09,-1.38396e+09,-1.38479e+09,-268186,-0.0352524,0.0775763,-0,0.0852104,14741.3,-48852.6,0,51028.2,268186
step02_gravity_refstate-mantle.xmf,773,-2.27777e-07,6.65415e-06,0,-1.91623e-06,-1.42299e+09,-1.42207e+09,-1.42296e+09,-256104,-0.0353308,0.0724839,-0,0.080636,14125.4,-50032.2,0,51988,256104
step02_gravity_refstate-mantle.xmf,774,-5.1088e-07,7.10168e-06,0,-1.77133e-06,-1.46198e+09,-1.46096e+09,-1.46191e+09,-236738,-0.0350511,0.0664394,-0,0.0751184,13511.3,-51235.8,0,52987.4,236738
step02_gravity_refstate-mantle.xmf,775,-8.04524e-07,7.55144e-06,0,-1.5845e-06,-1.5015e+09,-1.50039e+09,-1.5014e+09,-211769,-0.0344206,0.0596568,-0,0.0688746,12836.2,-52455.9,0,54003.7,211769
step02_gravity_refstate-mantle.xmf,776,-1.08994e-06,7.98156e-06,0,-1.35544e-06,-1.54201e+09,-1.5408e+09,-1.54186e+09,-181155,-0.0334946,0.0518247,-0,0.0617065,12144,-53706.3,0,55062.1,181155
step02_gravity_refstate-mantle.xmf,777,-1.35565e-06,8.38153e-06,0,-1.09775e-06,-1.5828e+09,-1.5815e+09,-1.58262e+09,-146714,-0.0323471,0.0430564,-0,0.0538534,11448.7,-54965.6,0,56145.2,146714
step02_gravity_refstate-mantle.xmf,778,-1.96784e-06,9.2532e-06,0,-8.4489e-07,-1.61928e+09,-1.61778e+09,-1.61901e+09,-112920,-0.0287714,0.0365349,-0,0.0465037,9462.37,-56090.4,0,56883,112920
step02_gravity_refstate-mantle.xmf,779,-2.1302e-06,9.50706e-06,0,-5.6296e-07,-1.65995e+09,-1.6584e+09,-1.65967e+09,-75239.6,-0.0274415,0.0253854,-0,0.0373825,8936.53,-57346.6,0,58038.7,75239.6
step02_gravity_refstate-mantle.xmf,780,-2.31338e-06,9.8028e-06,0,-2.73534e-07,-1.70285e+09,-1.70123e+09,-1.70254e+09,-36557.8,-0.0257987,0.0130637,-0,0.0289177,8272.21,-58671.3,0,59251.6,36557.8
step02_gravity_refstate-mantle.xmf,781,-2.5033e-06,1.01176e-05,0,5.04419e-10,-1.74588e+09,-1.7442e+09,-1.74555e+09,67.4156,-0.0239453,-1.63081e-19,-0,0.0239453,7525.62,-60000,0,60470.1,67.4156
step02_gravity_refstate-mantle.xmf,782,7.96529e-07,3.2892e-06,0,-1.06778e-06,-1.09827e+09,-1.09794e+09,-1.09838e+09,-142709,-0.019753,0.0900052,-0,0.0921473,20734.8,-40000,0,45054.8,142709
step02_gravity_refstate-mantle.xmf,783,5.18978e-07,5.32569e-06,0,-1.98581e-06,-1.32083e+09,-1.32018e+09,-1.3209e+09,-265404,-0.0340584,0.0833074,-0,0.0900005,16013.6,-46878,0,49537.6,265404
step02_gravity_refstate-mantle.xmf,784,9.82325e-07,4.04117e-06,0,-1.53329e-06,-1.21944e+09,-1.21904e+09,-1.21958e+09,-204924,-0.0286423,0.0858151,-0,0.0904689,18616.6,-43746.1,0,47542.6,204924
step02_gravity_refstate-mantle.xmf,785,-1.60042e-06,8.74527e-06,0,-8.99256e-07,-1.61265e+09,-1.61127e+09,-1.61244e+09,-120186,-0.0310566,0.0364579,-0,0.0478925,10717.4,-55887,0,56905.3,120186
step02_gravity_refstate-mantle.xmf,786,9.47327e-07,3.31824e-06,0,-1.02094e-06,-1.13751e+09,-1.1372e+09,-1.13764e+09,-136449,-0.0215566,0.0831824,-0,0.0859302,21426.1,-41213.1,0,46449.9,136449
step02_gravity_refstate-mantle.xmf,787,1.02554e-06,3.52905e-06,0,-1.15295e-06,-1.1769e+09,-1.17657e+09,-1.17704e+09,-154091,-0.0244296,0.0818654,-0,0.0854327,20704.6,-42430.9,0,47213,154091
step02_gravity_refstate-mantle.xmf,788,8.25242e-07,3.15778e-06,0,-9.14648e-07,-1.09828e+09,-1.09797e+09,-1.09839e+09,-122243,-0.0186487,0.0845281,-0,0.0865608,22097.7,-40000,0,45698,122243
step02_gravity_refstate-mantle.xmf,789,5.77086e-07,5.24172e-06,0,-1.78193e-06,-1.34614e+09,-1.34552e+09,-1.34622e+09,-238155,-0.0341201,0.075821,-0,0.0831445,16778.8,-47660.1,0,50527.4,238155
step02_gravity_refstate-mantle.xmf,790,7.47325e-07,4.84926e-06,0,-1.78986e-06,-1.30098e+09,-1.30043e+09,-1.30108e+09,-239215,-0.0328619,0.0811758,-0,0.0875752,17171.2,-46265.2,0,49349,239215
step02_gravity_refstate-mantle.xmf,791,9.09283e-07,4.38391e-06,0,-1.65438e-06,-1.25827e+09,-1.25781e+09,-1.25839e+09,-221108,-0.030804,0.0834618,-0,0.088965,18019.9,-44945.8,0,48423.6,221108
step02_gravity_refstate-mantle.xmf,792,1.05178e-06,3.79291e-06,0,-1.29165e-06,-1.21753e+09,-1.21716e+09,-1.21767e+09,-172629,-0.0271532,0.0801188,-0,0.084595,19998.4,-43686.7,0,48046.5,172629
step02_gravity_refstate-mantle.xmf,793,3.54846e-07,5.6764e-06,0,-1.78875e-06,-1.38322e+09,-1.38251e+09,-1.38327e+09,-239066,-0.034959,0.0722343,-0,0.0802491,16119.7,-48805.1,0,51398.3,239066
step02_gravity_refstate-mantle.xmf,794,1.15313e-07,6.10403e-06,0,-1.73349e-06,-1.42154e+09,-1.42074e+09,-1.42155e+09,-231681,-0.0354048,0.0675462,-0,0.0762627,15516.5,-49988.2,0,52341,231681
step02_gravity_refstate-mantle.xmf,795,-1.27093e-07,6.51348e-06,0,-1.62117e-06,-1.46083e+09,-1.45994e+09,-1.46081e+09,-216670,-0.0355134,0.0618214,-0,0.0712958,14956.6,-51201.2,0,53341,216670
step02_gravity_refstate-mantle.xmf,796,-3.85175e-07,6.9325e-06,0,-1.47122e-06,-1.50058e+09,-1.4996e+09,-1.50053e+09,-196629,-0.0353168,0.0554663,-0,0.0657555,14336.2,-52428.6,0,54353.3,196629
step02_gravity_refstate-mantle.xmf,797,-6.52277e-07,7.35368e-06,0,-1.286e-06,-1.54044e+09,-1.53937e+09,-1.54035e+09,-171874,-0.0348252,0.0484557,-0,0.059672,13661.2,-53659.2,0,55370.9,171874
step02_gravity_refstate-mantle.xmf,798,-9.23303e-07,7.77435e-06,0,-1.06151e-06,-1.58178e+09,-1.58062e+09,-1.58165e+09,-141871,-0.0340497,0.0403823,-0,0.0528215,12937.1,-54935.4,0,56438.1,141871
step02_gravity_refstate-mantle.xmf,799,-1.2249e-06,8.23957e-06,0,-7.80632e-07,-1.62786e+09,-1.62659e+09,-1.62769e+09,-104331,-0.0328847,0.0304306,-0,0.0448043,12076.3,-56357.9,0,57637.3,104331
step02_gravity_refstate-mantle.xmf,800,-1.6636e-06,8.86753e-06,0,-6.33908e-07,-1.65144e+09,-1.65003e+09,-1.65122e+09,-84721.7,-0.0306252,0.0260754,-0,0.0402222,10592.2,-57085.1,0,58059.5,84721.7
step02_gravity_refstate-mantle.xmf,801,-1.83653e-06,9.15781e-06,0,-3.127e-07,-1.69891e+09,-1.69744e+09,-1.69866e+09,-41792.4,-0.0294627,0.0133234,-0,0.0323352,10032.5,-58551,0,59404.3,41792.4
step02_gravity_refstate-mantle.xmf,802,-2.06393e-06,9.53226e-06,0,-5.07848e-10,-1.74584e+09,-1.74429e+09,-1.74556e+09,-67.8738,-0.0278091,-1.60332e-19,-0,0.0278091,9217.14,-60000,0,60703.8,67.8738
step02_gravity_refstate-mantle.xmf,803,9.81625e-07,3.17713e-06,0,-8.64004e-07,-1.13766e+09,-1.13737e+09,-1.13779e+09,-115474,-0.0202188,0.0780637,-0,0.0806395,22821.1,-41217.6,0,47113.6,115474
step02_gravity_refstate-mantle.xmf,804,1.02306e-06,4.09321e-06,0,-1.41361e-06,-1.25828e+09,-1.25787e+09,-1.25842e+09,-188929,-0.0295143,0.0777536,-0,0.0831668,19357.4,-44946.2,0,48937.4,188929
step02_gravity_refstate-mantle.xmf,805,1.07186e-06,3.35514e-06,0,-9.65808e-07,-1.17763e+09,-1.17732e+09,-1.17777e+09,-129080,-0.0229602,0.0764024,-0,0.0797778,22140.3,-42453.2,0,47879.7,129080
step02_gravity_refstate-mantle.xmf,806,1.11741e-06,3.57748e-06,0,-1.08039e-06,-1.21756e+09,-1.21723e+09,-1.21771e+09,-144394,-0.0255965,0.074637,-0,0.0789042,21434.8,-43687.6,0,48662.7,144394
step02_gravity_refstate-mantle.xmf,807,8.60872e-07,3.03349e-06,0,-7.78917e-07,-1.09828e+09,-1.09799e+09,-1.0984e+09,-104102,-0.0174456,0.0794534,-0,0.0813461,23526.8,-40000,0,46405.9,104102
step02_gravity_refstate-mantle.xmf,808,6.17475e-07,5.21189e-06,0,-1.56751e-06,-1.38139e+09,-1.38078e+09,-1.38148e+09,-209497,-0.034247,0.067192,-0,0.0754163,17535.5,-48749.3,0,51807.2,209497
step02_gravity_refstate-mantle.xmf,809,7.99295e-07,4.80669e-06,0,-1.5526e-06,-1.34007e+09,-1.33953e+09,-1.34017e+09,-207506,-0.0330428,0.0712347,-0,0.0785252,18166.9,-47472.8,0,50830.2,207506
step02_gravity_refstate-mantle.xmf,810,9.32515e-07,4.43808e-06,0,-1.50739e-06,-1.29807e+09,-1.2976e+09,-1.2982e+09,-201463,-0.0314741,0.0750469,-0,0.0813797,18726.1,-46175.5,0,49828.2,201463
step02_gravity_refstate-mantle.xmf,811,1.11344e-06,3.83717e-06,0,-1.19156e-06,-1.25647e+09,-1.25611e+09,-1.25662e+09,-159252,-0.0279673,0.0726754,-0,0.0778709,20743.2,-44890.2,0,49451.1,159252
step02_gravity_refstate-mantle.xmf,812,4.12101e-07,5.6119e-06,0,-1.54975e-06,-1.4188e+09,-1.4181e+09,-1.41885e+09,-207124,-0.0350225,0.0631959,-0,0.0722517,16892.8,-49904.3,0,52685.9,207124
step02_gravity_refstate-mantle.xmf,813,2.04813e-07,5.98611e-06,0,-1.47205e-06,-1.45722e+09,-1.45645e+09,-1.45725e+09,-196739,-0.0354502,0.0580914,-0,0.0680539,16344,-51090.9,0,53641.5,196739
step02_gravity_refstate-mantle.xmf,814,6.70002e-09,6.33955e-06,0,-1.32416e-06,-1.50064e+09,-1.4998e+09,-1.50065e+09,-176974,-0.0356137,0.0510848,-0,0.0622735,15906.2,-52431.7,0,54791.3,176974
step02_gravity_refstate-mantle.xmf,815,-2.41081e-07,6.75173e-06,0,-1.18163e-06,-1.53969e+09,-1.53876e+09,-1.53966e+09,-157925,-0.0355204,0.0449217,-0,0.0572683,15212.8,-53637.3,0,55753,157925
step02_gravity_refstate-mantle.xmf,816,-4.94155e-07,7.16109e-06,0,-9.99628e-07,-1.57984e+09,-1.57881e+09,-1.57977e+09,-133600,-0.0351616,0.0378111,-0,0.0516335,14494.9,-54876.7,0,56758.7,133600
step02_gravity_refstate-mantle.xmf,817,-7.42664e-07,7.5559e-06,0,-7.96262e-07,-1.61852e+09,-1.61741e+09,-1.61842e+09,-106420,-0.0345749,0.030266,-0,0.0459506,13757.4,-56071.1,0,57734.1,106420
step02_gravity_refstate-mantle.xmf,818,-1.30822e-06,8.42879e-06,0,-3.72904e-07,-1.68939e+09,-1.68809e+09,-1.68922e+09,-49838.6,-0.0324341,0.0147643,-0,0.0356364,11905.3,-58258.6,0,59462.6,49838.6
step02_gravity_refstate-mantle.xmf,819,-1.59342e-06,8.89869e-06,0,-2.06452e-09,-1.74579e+09,-1.74439e+09,-1.74557e+09,-275.923,-0.0309359,-1.64981e-19,-0,0.0309359,10927.1,-60000,0,60986.9,275.923
step02_gravity_refstate-mantle.xmf,820,1.02274e-06,3.0477e-06,0,-7.25214e-07,-1.1388e+09,-1.13853e+09,-1.13894e+09,-96924.8,-0.0188089,0.0732473,-0,0.0756237,24284.9,-41252.7,0,47870,96924.8
step02_gravity_refstate-mantle.xmf,821,1.11659e-06,3.20068e-06,0,-8.05252e-07,-1.17818e+09,-1.1779e+09,-1.17833e+09,-107622,-0.0213869,0.0715297,-0,0.0746586,23601.4,-42470.1,0,48587.3,107622
step02_gravity_refstate-mantle.xmf,822,1.06492e-06,4.12497e-06,0,-1.27873e-06,-1.29644e+09,-1.29603e+09,-1.29658e+09,-170902,-0.030021,0.0699616,-0,0.0761307,20131.2,-46125.3,0,50327,170902
step02_gravity_refstate-mantle.xmf,823,-9.36696e-07,7.87368e-06,0,-5.65804e-07,-1.65742e+09,-1.65624e+09,-1.65729e+09,-75619.8,-0.0339617,0.0217199,-0,0.0403131,13183.4,-57272.1,0,58769.8,75619.8
step02_gravity_refstate-mantle.xmf,824,9.05767e-07,2.91447e-06,0,-6.57524e-07,-1.09828e+09,-1.09801e+09,-1.0984e+09,-87878.1,-0.0161269,0.074793,-0,0.0765119,25025.6,-40000,0,47183.5,87878.1
step02_gravity_refstate-mantle.xmf,825,9.44723e-07,2.80651e-06,0,-5.48702e-07,-1.09828e+09,-1.09803e+09,-1.09841e+09,-73334,-0.0146774,0.0705611,-0,0.0720714,26597.7,-40000,0,48035.8,73334
step02_gravity_refstate-mantle.xmf,826,1.07063e-06,2.92104e-06,0,-6.00275e-07,-1.13935e+09,-1.1391e+09,-1.13949e+09,-80226.7,-0.017203,0.0688356,-0,0.0709527,25846.6,-41269.5,0,48695.2,80226.7
step02_gravity_refstate-mantle.xmf,827,1.17686e-06,3.39268e-06,0,-8.99725e-07,-1.21828e+09,-1.21798e+09,-1.21843e+09,-120248,-0.0239617,0.0696789,-0,0.0736838,22886.3,-43709.7,0,49338.8,120248
step02_gravity_refstate-mantle.xmf,828,1.19383e-06,3.61926e-06,0,-9.97478e-07,-1.25723e+09,-1.25691e+09,-1.25739e+09,-133313,-0.0263525,0.0677443,-0,0.0726894,22167.8,-44913.6,0,50086.3,133313
step02_gravity_refstate-mantle.xmf,829,6.58717e-07,5.19181e-06,0,-1.36152e-06,-1.41828e+09,-1.41767e+09,-1.41837e+09,-181968,-0.0342873,0.058839,-0,0.0681003,18255.6,-49888.8,0,53124,181968
step02_gravity_refstate-mantle.xmf,830,8.39509e-07,4.80407e-06,0,-1.35145e-06,-1.38026e+09,-1.37974e+09,-1.38038e+09,-180621,-0.0331775,0.0623893,-0,0.0706624,18977.9,-48714.8,0,52280.9,180621
step02_gravity_refstate-mantle.xmf,831,9.73705e-07,4.45643e-06,0,-1.3262e-06,-1.34029e+09,-1.33983e+09,-1.34042e+09,-177247,-0.0317995,0.0660929,-0,0.073345,19576.5,-47480.1,0,51357.6,177247
step02_gravity_refstate-mantle.xmf,832,1.16477e-06,3.85592e-06,0,-1.09054e-06,-1.28931e+09,-1.28895e+09,-1.28947e+09,-145751,-0.0283291,0.0663738,-0,0.0721665,21443.2,-45905.1,0,50666.4,145751
step02_gravity_refstate-mantle.xmf,833,4.72628e-07,5.54509e-06,0,-1.35344e-06,-1.44876e+09,-1.44808e+09,-1.44882e+09,-180887,-0.0349783,0.0558554,-0,0.0659038,17576.6,-50830.1,0,53783.2,180887
step02_gravity_refstate-mantle.xmf,834,1.41395e-07,6.17859e-06,0,-1.06075e-06,-1.53823e+09,-1.53743e+09,-1.53825e+09,-141769,-0.0355993,0.0416171,-0,0.0547658,16810.1,-53593.3,0,56167.8,141769
step02_gravity_refstate-mantle.xmf,835,3.93116e-07,5.73304e-06,0,-1.19096e-06,-1.49155e+09,-1.49083e+09,-1.4916e+09,-159172,-0.0352475,0.0483629,-0,0.0598445,17590.4,-52151.7,0,55038.3,159172
step02_gravity_refstate-mantle.xmf,836,-9.33567e-08,6.57916e-06,0,-9.04307e-07,-1.58016e+09,-1.57927e+09,-1.58015e+09,-120861,-0.0356282,0.0347903,-0,0.049797,16086.7,-54887.9,0,57196.7,120861
step02_gravity_refstate-mantle.xmf,837,-3.34142e-07,6.977e-06,0,-7.27914e-07,-1.61971e+09,-1.61873e+09,-1.61966e+09,-97285.7,-0.0354108,0.0277428,-0,0.0449843,15315.5,-56108.9,0,58161.6,97285.7
step02_gravity_refstate-mantle.xmf,838,-5.64843e-07,7.35404e-06,0,-5.29451e-07,-1.65802e+09,-1.65696e+09,-1.65795e+09,-70761.1,-0.0349952,0.0201683,-0,0.0403909,14561.6,-57291.9,0,59113.5,70761.1
step02_gravity_refstate-mantle.xmf,839,-8.25182e-07,7.7751e-06,0,-2.92195e-07,-1.69919e+09,-1.69804e+09,-1.69907e+09,-39051.8,-0.0343002,0.0112365,-0,0.0360938,13672.6,-58562.7,0,60137.6,39051.8
step02_gravity_refstate-mantle.xmf,840,-1.10981e-06,8.23846e-06,0,-1.90012e-09,-1.74574e+09,-1.74449e+09,-1.74559e+09,-253.951,-0.033281,-1.22963e-19,-0,0.033281,12661.1,-60000,0,61321.3,253.951
step02_gravity_refstate-mantle.xmf,841,1.11889e-06,2.81892e-06,0,-4.92819e-07,-1.14307e+09,-1.14284e+09,-1.14322e+09,-65865.3,-0.0156317,0.0647325,-0,0.0665931,27422.4,-41384.7,0,49645.6,65865.3
step02_gravity_refstate-mantle.xmf,842,9.90922e-07,2.70407e-06,0,-4.50916e-07,-1.09828e+09,-1.09805e+09,-1.09841e+09,-60264.9,-0.0130819,0.0667753,-0,0.0680446,28247.1,-40000,0,48968.3,60264.9
step02_gravity_refstate-mantle.xmf,843,1.1633e-06,3.05882e-06,0,-6.63741e-07,-1.17906e+09,-1.1788e+09,-1.17921e+09,-88708.9,-0.0196705,0.0670245,-0,0.0698514,25140.3,-42497.2,0,49376.6,88708.9
step02_gravity_refstate-mantle.xmf,844,1.23227e-06,3.22419e-06,0,-7.40518e-07,-1.2186e+09,-1.21833e+09,-1.21876e+09,-98970.2,-0.0221435,0.0651756,-0,0.0688345,24406.2,-43719.5,0,50070.6,98970.2
step02_gravity_refstate-mantle.xmf,845,1.155e-06,4.05624e-06,0,-1.08791e-06,-1.33338e+09,-1.33299e+09,-1.33353e+09,-145399,-0.0297462,0.0613063,-0,0.0681418,21341.3,-47266.7,0,51861.3,145399
step02_gravity_refstate-mantle.xmf,846,1.21124e-06,2.93016e-06,0,-5.44192e-07,-1.17935e+09,-1.17912e+09,-1.17951e+09,-72731.3,-0.0178475,0.063162,-0,0.0656351,26688.1,-42506.2,0,50190,72731.3
step02_gravity_refstate-mantle.xmf,847,1.17788e-06,2.72205e-06,0,-3.95244e-07,-1.14834e+09,-1.14814e+09,-1.1485e+09,-52824.4,-0.0138749,0.0608768,-0,0.0624379,29112.3,-41547.7,0,50732.1,52824.4
step02_gravity_refstate-mantle.xmf,848,1.041e-06,2.60881e-06,0,-3.63542e-07,-1.09828e+09,-1.09807e+09,-1.09842e+09,-48587.3,-0.0113276,0.0634571,-0,0.0644602,29977.6,-40000,0,49986.5,48587.3
step02_gravity_refstate-mantle.xmf,849,1.08427e-06,2.52668e-06,0,-2.82863e-07,-1.09828e+09,-1.09808e+09,-1.09842e+09,-37804.6,-0.00940396,0.0606334,-0,0.0613583,31793.3,-40000,0,51096.1,37804.6
step02_gravity_refstate-mantle.xmf,850,1.22653e-06,2.63041e-06,0,-3.12212e-07,-1.14976e+09,-1.14958e+09,-1.14993e+09,-41727.1,-0.0118612,0.0579191,-0,0.0591212,30824.9,-41591.7,0,51769.1,41727.1
step02_gravity_refstate-mantle.xmf,851,1.12239e-06,2.45776e-06,0,-2.08213e-07,-1.09827e+09,-1.09809e+09,-1.09842e+09,-27827.6,-0.00730595,0.0583382,-0,0.0587939,33698.8,-40000,0,52303,27827.6
step02_gravity_refstate-mantle.xmf,852,1.2633e-06,2.5482e-06,0,-2.32125e-07,-1.14952e+09,-1.14935e+09,-1.14969e+09,-31023.5,-0.00948666,0.0554248,-0,0.0562308,32733.7,-41584.3,0,52922.1,31023.5
step02_gravity_refstate-mantle.xmf,853,1.26526e-06,3.67203e-06,0,-9.06812e-07,-1.30166e+09,-1.30133e+09,-1.30182e+09,-121195,-0.0269852,0.0606273,-0,0.0663617,22870.9,-46286.5,0,51628.7,121195
step02_gravity_refstate-mantle.xmf,854,1.26708e-06,3.42257e-06,0,-8.2308e-07,-1.25796e+09,-1.25767e+09,-1.25813e+09,-110005,-0.0245419,0.0632027,-0,0.0678003,23660.3,-44936.1,0,50784.5,110005
step02_gravity_refstate-mantle.xmf,855,6.77614e-07,5.22249e-06,0,-1.17441e-06,-1.45796e+09,-1.45735e+09,-1.45805e+09,-156960,-0.0343551,0.0508816,-0,0.0613939,18800.3,-51114.6,0,54462.4,156960
step02_gravity_refstate-mantle.xmf,856,8.78895e-07,4.80977e-06,0,-1.16816e-06,-1.42009e+09,-1.41956e+09,-1.4202e+09,-156125,-0.0332044,0.0542919,-0,0.0636407,19695.4,-49945.2,0,53688.3,156125
step02_gravity_refstate-mantle.xmf,857,1.03378e-06,4.43427e-06,0,-1.14329e-06,-1.37918e+09,-1.37872e+09,-1.37932e+09,-152800,-0.0317385,0.0578368,-0,0.065973,20492.2,-48681.6,0,52818.8,152800
step02_gravity_refstate-mantle.xmf,858,2.64294e-07,6.04865e-06,0,-8.04534e-07,-1.5799e+09,-1.57913e+09,-1.57994e+09,-107526,-0.0354942,0.0321291,-0,0.0478761,17653.1,-54881,0,57650.3,107526
step02_gravity_refstate-mantle.xmf,859,4.84569e-07,5.65193e-06,0,-9.31834e-07,-1.5367e+09,-1.53601e+09,-1.53677e+09,-124540,-0.0350893,0.0385139,-0,0.0521016,18428.6,-53547,0,56629.5,124540
step02_gravity_refstate-mantle.xmf,860,4.4298e-08,6.43238e-06,0,-6.4172e-07,-1.62241e+09,-1.62156e+09,-1.62242e+09,-85765.9,-0.0356369,0.0250605,-0,0.0435662,16889.6,-56193.6,0,58676.9,85765.9
step02_gravity_refstate-mantle.xmf,861,-1.71165e-07,6.7947e-06,0,-4.76321e-07,-1.65936e+09,-1.65843e+09,-1.65934e+09,-63660.3,-0.035567,0.0183664,-0,0.0400292,16119.1,-57334.5,0,59557.3,63660.3
step02_gravity_refstate-mantle.xmf,862,-3.88948e-07,7.16471e-06,0,-2.58766e-07,-1.70099e+09,-1.69998e+09,-1.70094e+09,-34584.1,-0.03531,0.00994799,-0,0.0366845,15338.8,-58619.9,0,60593.5,34584.1
step02_gravity_refstate-mantle.xmf,863,-6.33355e-07,7.57718e-06,0,-2.17107e-09,-1.74569e+09,-1.74459e+09,-1.7456e+09,-290.164,-0.0348192,-1.11506e-19,-0,0.0348192,14424.9,-60000,0,61709.6,290.164
step02_gravity_refstate-mantle.xmf,864,1.24078e-06,2.82029e-06,0,-4.45873e-07,-1.17663e+09,-1.17642e+09,-1.1768e+09,-59590.9,-0.0159335,0.0602361,-0,0.0623078,28175.2,-42422.2,0,50926.2,59590.9
step02_gravity_refstate-mantle.xmf,865,1.15344e-06,2.4044e-06,0,-1.37815e-07,-1.09827e+09,-1.0981e+09,-1.09843e+09,-18419,-0.00503344,0.0566157,-0,0.056839,35698.5,-40000,0,53613.3,18419
step02_gravity_refstate-mantle.xmf,866,1.29491e-06,2.48496e-06,0,-1.62264e-07,-1.14991e+09,-1.14975e+09,-1.15008e+09,-21686.6,-0.00702199,0.0534918,-0,0.0539507,34670.1,-41596.3,0,54150.5,21686.6
step02_gravity_refstate-mantle.xmf,867,1.28845e-06,3.07273e-06,0,-6.00097e-07,-1.22008e+09,-1.21984e+09,-1.22026e+09,-80203,-0.0201712,0.0609476,-0,0.0641988,26014.6,-43765.4,0,50913.4,80203
step02_gravity_refstate-mantle.xmf,868,1.33933e-06,3.24565e-06,0,-6.66198e-07,-1.26089e+09,-1.26063e+09,-1.26107e+09,-89037.3,-0.0225345,0.0587161,-0,0.0628919,25277,-45026.6,0,51636.4,89037.3
step02_gravity_refstate-mantle.xmf,869,1.27365e-06,3.84002e-06,0,-8.91728e-07,-1.34565e+09,-1.3453e+09,-1.34582e+09,-119179,-0.028238,0.0555845,-0,0.062346,22846.7,-47645.9,0,52840.4,119179
step02_gravity_refstate-mantle.xmf,870,6.9888e-07,5.25559e-06,0,-9.88246e-07,-1.49977e+09,-1.49916e+09,-1.49986e+09,-132079,-0.0343686,0.0429042,-0,0.0549725,19296.2,-52406.4,0,55846,132079
step02_gravity_refstate-mantle.xmf,871,1.18089e-06,2.35863e-06,0,-1.14056e-09,-1.09827e+09,-1.09811e+09,-1.09843e+09,-152.436,1.78328e-19,0.0551388,0,0.0551388,40000,-40000,0,56568.5,152.436
step02_gravity_refstate-mantle.xmf,872,1.17405e-06,2.36981e-06,0,-6.9024e-08,-1.09827e+09,-1.09811e+09,-1.09843e+09,-9225.05,-0.00259267,0.0555237,-0,0.0555842,37797.2,-40000,0,55033,9225.05
step02_gravity_refstate-mantle.xmf,873,1.31335e-06,2.41217e-06,0,-4.22563e-08,-1.14494e+09,-1.1448e+09,-1.14512e+09,-5647.56,-0.00189752,0.051858,-0,0.0518927,38557.3,-41442.8,0,56605.4,5647.56
step02_gravity_refstate-mantle.xmf,874,1.34878e-06,2.4509e-06,0,-9.36577e-08,-1.16056e+09,-1.16041e+09,-1.16074e+09,-12517.3,-0.00445354,0.0513395,-0,0.0515323,36715.3,-41925.6,0,55729.4,12517.3
step02_gravity_refstate-mantle.xmf,875,1.33895e-06,2.92894e-06,0,-4.79411e-07,-1.2185e+09,-1.21828e+09,-1.21867e+09,-64073.2,-0.0179409,0.0575056,-0,0.0602393,27674.5,-43716.3,0,51739.7,64073.2
step02_gravity_refstate-mantle.xmf,876,1.34945e-06,2.77076e-06,0,-3.66895e-07,-1.20231e+09,-1.20212e+09,-1.20249e+09,-49035.5,-0.0148912,0.0554651,-0,0.0574293,29590.4,-43216,0,52375.7,49035.5
step02_gravity_refstate-mantle.xmf,877,1.39442e-06,2.6558e-06,0,-2.64717e-07,-1.20198e+09,-1.20181e+09,-1.20217e+09,-35379.4,-0.01193,0.0523837,-0,0.053725,31750.5,-43205.8,0,53617.5,35379.4
step02_gravity_refstate-mantle.xmf,878,1.42351e-06,2.57436e-06,0,-1.894e-07,-1.20033e+09,-1.20018e+09,-1.20052e+09,-25313.3,-0.00917878,0.0504127,-0,0.0512415,33685.3,-43155,0,54745.3,25313.3
step02_gravity_refstate-mantle.xmf,879,1.34244e-06,3.43699e-06,0,-7.46347e-07,-1.2931e+09,-1.29282e+09,-1.29328e+09,-99749.3,-0.0247304,0.0575294,-0,0.0626197,24400.2,-46022.1,0,52090.3,99749.3
step02_gravity_refstate-mantle.xmf,880,1.36868e-06,3.58572e-06,0,-7.4978e-07,-1.33471e+09,-1.33441e+09,-1.33489e+09,-100208,-0.0260989,0.053365,-0,0.0594052,24254.1,-47308,0,53163,100208
step02_gravity_refstate-mantle.xmf,881,1.20109e-06,4.10296e-06,0,-9.50616e-07,-1.37908e+09,-1.37869e+09,-1.37924e+09,-127050,-0.029962,0.0534695,-0,0.061292,22080.5,-48678.8,0,53452.5,127050
step02_gravity_refstate-mantle.xmf,882,9.14857e-07,4.83154e-06,0,-9.8943e-07,-1.46272e+09,-1.46219e+09,-1.46284e+09,-132237,-0.0331818,0.0462864,-0,0.0569514,20337.5,-51262.4,0,55149.3,132237
step02_gravity_refstate-mantle.xmf,883,1.08778e-06,4.4362e-06,0,-9.73375e-07,-1.42157e+09,-1.42112e+09,-1.42172e+09,-130092,-0.0316412,0.0498249,-0,0.0590227,21307.3,-49991.5,0,54342.9,130092
step02_gravity_refstate-mantle.xmf,884,7.90676e-07,5.16902e-06,0,-7.93139e-07,-1.53691e+09,-1.53632e+09,-1.53701e+09,-106003,-0.034016,0.0352836,-0,0.0490104,20113.6,-53554.1,0,57206.7,106003
step02_gravity_refstate-mantle.xmf,885,3.9128e-07,5.92409e-06,0,-5.56823e-07,-1.62412e+09,-1.62338e+09,-1.62417e+09,-74419.3,-0.0352894,0.0227751,-0,0.0420006,18485.5,-56247.3,0,59207,74419.3
step02_gravity_refstate-mantle.xmf,886,5.96922e-07,5.5435e-06,0,-6.99712e-07,-1.57915e+09,-1.57849e+09,-1.57923e+09,-93516.5,-0.0347857,0.029653,-0,0.0457093,19293.6,-54858.6,0,58152.4,93516.5
step02_gravity_refstate-mantle.xmf,887,1.85064e-07,6.27208e-06,0,-4.37738e-07,-1.65731e+09,-1.65649e+09,-1.65733e+09,-58503.7,-0.0355555,0.0173767,-0,0.0395746,17657.7,-57272,0,59932.3,58503.7
step02_gravity_refstate-mantle.xmf,888,2.75584e-08,6.56385e-06,0,-2.47086e-07,-1.69811e+09,-1.69724e+09,-1.69812e+09,-33023,-0.03562,0.00970678,-0,0.0369189,17046.9,-58532.2,0,60964.1,33023
step02_gravity_refstate-mantle.xmf,889,-1.77354e-07,6.93348e-06,0,-2.33082e-09,-1.74564e+09,-1.74469e+09,-1.74562e+09,-311.514,-0.0355484,-1.11337e-19,-0,0.0355484,16224.1,-60000,0,62154.8,311.514
step02_gravity_refstate-mantle.xmf,890,1.37863e-06,2.42832e-06,0,-1.13811e-09,-1.16632e+09,-1.16618e+09,-1.1665e+09,-152.109,2.28409e-19,0.0501034,0,0.0501034,40000,-42103.5,0,58075,152.109
step02_gravity_refstate-mantle.xmf,891,1.43996e-06,2.52241e-06,0,-1.33523e-07,-1.19855e+09,-1.19841e+09,-1.19874e+09,-17845.4,-0.00681279,0.0492373,-0,0.0497064,35322.3,-43099.8,0,55724.8,17845.4
step02_gravity_refstate-mantle.xmf,892,1.41034e-06,3.09313e-06,0,-5.31363e-07,-1.26563e+09,-1.2654e+09,-1.26582e+09,-71016.7,-0.0203925,0.0545889,-0,0.0582735,26941.6,-45173.2,0,52597.2,71016.7
step02_gravity_refstate-mantle.xmf,893,1.44309e-06,3.32307e-06,0,-6.0626e-07,-1.31582e+09,-1.31557e+09,-1.31601e+09,-81026.6,-0.0232759,0.0517327,-0,0.0567278,25908.5,-46724.4,0,53426.8,81026.6
step02_gravity_refstate-mantle.xmf,894,1.34171e-06,3.82117e-06,0,-7.77635e-07,-1.37943e+09,-1.37909e+09,-1.3796e+09,-103931,-0.0279281,0.04955,-0,0.0568787,23686.6,-48689.7,0,54145.6,103931
step02_gravity_refstate-mantle.xmf,895,9.49968e-07,4.84163e-06,0,-8.3765e-07,-1.50123e+09,-1.50071e+09,-1.50136e+09,-111952,-0.0330833,0.0393739,-0,0.0514277,20871.6,-52452.4,0,56452.4,111952
step02_gravity_refstate-mantle.xmf,896,1.47171e-06,2.47297e-06,0,-4.53393e-08,-1.20151e+09,-1.20137e+09,-1.2017e+09,-6059.6,-0.00240571,0.0476306,-0,0.0476914,38366.5,-43191.2,0,57770.8,6059.6
step02_gravity_refstate-mantle.xmf,897,1.46754e-06,2.92524e-06,0,-4.082e-07,-1.26138e+09,-1.26118e+09,-1.26157e+09,-54556,-0.0175725,0.0515329,-0,0.0544466,28822.1,-45041.8,0,53474.1,54556
step02_gravity_refstate-mantle.xmf,898,1.51062e-06,2.78714e-06,0,-3.03128e-07,-1.25718e+09,-1.25701e+09,-1.25738e+09,-40513.1,-0.014527,0.0489556,-0,0.0510655,30804.8,-44912,0,54461.2,40513.1
step02_gravity_refstate-mantle.xmf,899,1.54533e-06,2.53068e-06,0,-8.87915e-08,-1.23302e+09,-1.23289e+09,-1.23323e+09,-11867,-0.00513553,0.0457713,-0,0.0460585,36690.9,-44165.4,0,57417.8,11867
step02_gravity_refstate-mantle.xmf,900,1.54394e-06,2.67668e-06,0,-2.16518e-07,-1.25296e+09,-1.25281e+09,-1.25316e+09,-28937.6,-0.0113505,0.0469627,-0,0.0483149,32835.2,-44781.6,0,55529.6,28937.6
step02_gravity_refstate-mantle.xmf,901,1.56627e-06,2.59691e-06,0,-1.46554e-07,-1.24909e+09,-1.24895e+09,-1.2493e+09,-19587,-0.00824384,0.0456006,-0,0.0463398,34799.9,-44662,0,56619.1,19587
step02_gravity_refstate-mantle.xmf,902,1.4606e-06,3.55311e-06,0,-6.26333e-07,-1.37317e+09,-1.37289e+09,-1.37336e+09,-83709.4,-0.0254229,0.0467132,-0,0.0531831,25377.9,-48496.5,0,54735.2,83709.4
step02_gravity_refstate-mantle.xmf,903,1.2664e-06,4.10695e-06,0,-8.01247e-07,-1.42349e+09,-1.42311e+09,-1.42366e+09,-107087,-0.0297483,0.0457924,-0,0.0546068,22942.3,-50051.2,0,55058.8,107087
step02_gravity_refstate-mantle.xmf,904,1.14055e-06,4.4666e-06,0,-7.8867e-07,-1.47503e+09,-1.47458e+09,-1.47518e+09,-105406,-0.031544,0.040759,-0,0.0515395,22075.8,-51643.2,0,56163.7,105406
step02_gravity_refstate-mantle.xmf,905,1.05651e-06,4.72126e-06,0,-6.89395e-07,-1.52789e+09,-1.5274e+09,-1.52803e+09,-92137.7,-0.0324122,0.0337942,-0,0.0468252,21776.3,-53276.3,0,57554.9,92137.7
step02_gravity_refstate-mantle.xmf,906,9.00738e-07,5.06936e-06,0,-5.93172e-07,-1.5783e+09,-1.57774e+09,-1.57842e+09,-79277.4,-0.033489,0.0273116,-0,0.0432139,21019.2,-54833.2,0,58723.8,79277.4
step02_gravity_refstate-mantle.xmf,907,4.48356e-07,5.93041e-06,0,-2.82095e-07,-1.68198e+09,-1.68125e+09,-1.68204e+09,-37702,-0.0351666,0.0117805,-0,0.0370873,18933.3,-58035.1,0,61045.4,37702
step02_gravity_refstate-mantle.xmf,908,7.05902e-07,5.45926e-06,0,-4.61325e-07,-1.62913e+09,-1.62849e+09,-1.62922e+09,-61656.1,-0.0344059,0.0201223,-0,0.0398582,20113.9,-56402.9,0,59882,61656.1
step02_gravity_refstate-mantle.xmf,909,2.4732e-07,6.32274e-06,0,-3.60105e-09,-1.7456e+09,-1.74479e+09,-1.74564e+09,-481.28,-0.0354816,-1.29955e-19,-0,0.0354816,18064.5,-60000,0,62660.4,481.28
step02_gravity_refstate-mantle.xmf,910,1.5636e-06,2.50145e-06,0,-1.31884e-09,-1.23491e+09,-1.23479e+09,-1.23512e+09,-176.263,2.77016e-19,0.0448768,0,0.0448768,40000,-44223.8,0,59630.1,176.263
step02_gravity_refstate-mantle.xmf,911,1.53096e-06,3.11058e-06,0,-4.55061e-07,-1.31502e+09,-1.31481e+09,-1.31522e+09,-60818.9,-0.0201901,0.0479567,-0,0.0520335,27970.2,-46699.6,0,54435.2,60818.9
step02_gravity_refstate-mantle.xmf,912,1.41706e-06,3.81219e-06,0,-6.54005e-07,-1.42076e+09,-1.42044e+09,-1.42095e+09,-87407.8,-0.0274888,0.0428093,-0,0.0508751,24590.6,-49966.9,0,55690.1,87407.8
step02_gravity_refstate-mantle.xmf,913,1.6447e-06,2.54977e-06,0,-4.74481e-08,-1.26929e+09,-1.26917e+09,-1.26951e+09,-6341.44,-0.00290336,0.0423991,-0,0.0424984,38235.3,-45286.3,0,59268.8,6341.44
step02_gravity_refstate-mantle.xmf,914,1.59483e-06,2.93447e-06,0,-3.41168e-07,-1.30965e+09,-1.30947e+09,-1.30986e+09,-45597.1,-0.016979,0.0454583,-0,0.0485257,29950.9,-46533.8,0,55339.4,45597.1
step02_gravity_refstate-mantle.xmf,915,1.6444e-06,2.80463e-06,0,-2.4844e-07,-1.30757e+09,-1.30742e+09,-1.30779e+09,-33204,-0.0137552,0.0432737,-0,0.0454072,31922.4,-46469.6,0,56377.9,33204
step02_gravity_refstate-mantle.xmf,916,1.71179e-06,2.62711e-06,0,-1.00847e-07,-1.30411e+09,-1.30398e+09,-1.30433e+09,-13478.2,-0.00648861,0.0403182,-0,0.040837,36227.9,-46362.5,0,58838.3,13478.2
step02_gravity_refstate-mantle.xmf,917,1.6846e-06,2.70448e-06,0,-1.70783e-07,-1.30659e+09,-1.30645e+09,-1.30681e+09,-22825.2,-0.010356,0.0415087,-0,0.0427811,33960.8,-46439.2,0,57532,22825.2
step02_gravity_refstate-mantle.xmf,918,1.55915e-06,3.32405e-06,0,-4.94293e-07,-1.36864e+09,-1.3684e+09,-1.36885e+09,-66062.2,-0.0226717,0.0440232,-0,0.0495182,27136.7,-48356.8,0,55450.7,66062.2
step02_gravity_refstate-mantle.xmf,919,1.54494e-06,3.55965e-06,0,-5.2058e-07,-1.41904e+09,-1.41877e+09,-1.41924e+09,-69575.5,-0.0249134,0.0400201,-0,0.0471412,26308.9,-49914,0,56423.1,69575.5
step02_gravity_refstate-mantle.xmf,920,1.33909e-06,4.09383e-06,0,-6.51109e-07,-1.46783e+09,-1.46746e+09,-1.46801e+09,-87020.7,-0.029268,0.0384329,-0,0.0483085,23834.5,-51421.2,0,56676.5,87020.7
step02_gravity_refstate-mantle.xmf,921,1.27721e-06,4.34101e-06,0,-5.8129e-07,-1.52216e+09,-1.52175e+09,-1.52233e+09,-77689.4,-0.0304262,0.0319992,-0,0.0441555,23433.3,-53099.7,0,58040.4,77689.4
step02_gravity_refstate-mantle.xmf,922,1.16603e-06,4.63904e-06,0,-4.99582e-07,-1.57454e+09,-1.57408e+09,-1.5747e+09,-66769.2,-0.0316541,0.0256211,-0,0.0407237,22773.2,-54717.8,0,59267.7,66769.2
step02_gravity_refstate-mantle.xmf,923,1.01563e-06,4.98093e-06,0,-3.84322e-07,-1.62871e+09,-1.62818e+09,-1.62884e+09,-51364.7,-0.0328327,0.0184522,-0,0.0376626,21939.6,-56390.7,0,60508.4,51364.7
step02_gravity_refstate-mantle.xmf,924,8.31224e-07,5.36226e-06,0,-2.209e-07,-1.6856e+09,-1.68499e+09,-1.68571e+09,-29523.2,-0.0338706,0.0100413,-0,0.0353277,20965.7,-58147.9,0,61812.1,29523.2
step02_gravity_refstate-mantle.xmf,925,6.3599e-07,5.75131e-06,0,-2.12708e-09,-1.74557e+09,-1.74488e+09,-1.74565e+09,-284.284,-0.0346494,-1.06011e-19,-0,0.0346494,19951.6,-60000,0,63230.3,284.284
step02_gravity_refstate-mantle.xmf,926,1.72965e-06,2.58155e-06,0,-1.42356e-09,-1.30423e+09,-1.30412e+09,-1.30446e+09,-190.259,3.07276e-19,0.0394314,0,0.0394314,40000,-46366.4,0,61235.9,190.259
step02_gravity_refstate-mantle.xmf,927,1.64669e-06,3.12831e-06,0,-3.75396e-07,-1.36746e+09,-1.36726e+09,-1.36768e+09,-50171.7,-0.0195849,0.0412698,-0,0.0456811,29048,-48320.3,0,56379.5,50171.7
step02_gravity_refstate-mantle.xmf,928,1.49147e-06,3.79416e-06,0,-5.39617e-07,-1.45909e+09,-1.45878e+09,-1.45929e+09,-72119.8,-0.0268324,0.0368045,-0,0.0455472,25465.4,-51151.5,0,57139.9,72119.8
step02_gravity_refstate-mantle.xmf,929,1.79681e-06,2.63491e-06,0,-4.51269e-08,-1.33811e+09,-1.338e+09,-1.33835e+09,-6031.21,-0.0032074,0.0368891,-0,0.0370282,38216,-47413.6,0,60897.6,6031.21
step02_gravity_refstate-mantle.xmf,930,1.71783e-06,2.96403e-06,0,-2.79223e-07,-1.36492e+09,-1.36475e+09,-1.36515e+09,-37318.2,-0.0162768,0.0391552,-0,0.0424036,30990.4,-48242,0,57338.4,37318.2
step02_gravity_refstate-mantle.xmf,931,1.77181e-06,2.83836e-06,0,-1.98154e-07,-1.36366e+09,-1.36351e+09,-1.36389e+09,-26483.3,-0.0128022,0.0373992,-0,0.0395297,32975.4,-48203,0,58402.9,26483.3
step02_gravity_refstate-mantle.xmf,932,1.81192e-06,2.74745e-06,0,-1.31383e-07,-1.36331e+09,-1.36318e+09,-1.36355e+09,-17559.3,-0.00922728,0.036055,-0,0.037217,34972.5,-48192.2,0,59544.6,17559.3
step02_gravity_refstate-mantle.xmf,933,1.65546e-06,3.34143e-06,0,-4.03489e-07,-1.41965e+09,-1.41943e+09,-1.41988e+09,-53926.3,-0.0220318,0.0373096,-0,0.043329,28116,-49933.3,0,57304.8,53926.3
step02_gravity_refstate-mantle.xmf,934,1.61741e-06,3.59207e-06,0,-4.25077e-07,-1.46857e+09,-1.4683e+09,-1.46878e+09,-56811.6,-0.0244825,0.0334604,-0,0.0414608,27061.6,-51444.6,0,58128.1,56811.6
step02_gravity_refstate-mantle.xmf,935,1.49918e-06,3.94624e-06,0,-4.58966e-07,-1.51545e+09,-1.51513e+09,-1.51565e+09,-61340.8,-0.0274901,0.0300168,-0,0.0407027,25498.5,-52893,0,58718.3,61340.8
step02_gravity_refstate-mantle.xmf,936,1.4011e-06,4.24908e-06,0,-4.03846e-07,-1.57218e+09,-1.5718e+09,-1.57237e+09,-53974,-0.0292347,0.0238275,-0,0.0377149,24645.3,-54645.5,0,59945.9,53974
step02_gravity_refstate-mantle.xmf,937,1.28411e-06,4.55394e-06,0,-3.14662e-07,-1.6272e+09,-1.62676e+09,-1.62737e+09,-42054.6,-0.0306761,0.0171118,-0,0.035126,23809.9,-56344.9,0,61169.1,42054.6
step02_gravity_refstate-mantle.xmf,938,1.14429e-06,4.87995e-06,0,-1.80762e-07,-1.68519e+09,-1.68469e+09,-1.68534e+09,-24158.8,-0.0319451,0.00920482,-0,0.0332448,22914.1,-58136.1,0,62488.9,24158.8
step02_gravity_refstate-mantle.xmf,939,9.79145e-07,5.23315e-06,0,-1.89327e-09,-1.74553e+09,-1.74497e+09,-1.74567e+09,-253.035,-0.0330839,-9.77194e-20,-0,0.0330839,21891.2,-60000,0,63868.8,253.035
step02_gravity_refstate-mantle.xmf,940,1.87266e-06,2.67066e-06,0,-1.80397e-09,-1.37445e+09,-1.37435e+09,-1.3747e+09,-241.101,3.50259e-19,0.0337317,0,0.0337317,40000,-48536.8,0,62895.3,241.101
step02_gravity_refstate-mantle.xmf,941,1.84418e-06,2.70168e-06,0,-7.98394e-08,-1.36861e+09,-1.3685e+09,-1.36886e+09,-10670.5,-0.00607503,0.0347996,-0,0.0353259,36722.1,-48356.2,0,60719.3,10670.5
step02_gravity_refstate-mantle.xmf,942,1.75019e-06,3.15175e-06,0,-3.02297e-07,-1.42042e+09,-1.42023e+09,-1.42065e+09,-40402,-0.0187675,0.0349332,-0,0.0396553,30039.7,-49957.1,0,58293.2,40402
step02_gravity_refstate-mantle.xmf,943,1.92251e-06,2.72927e-06,0,-4.3674e-08,-1.40735e+09,-1.40724e+09,-1.40761e+09,-5837.03,-0.00364311,0.0311716,-0,0.0313838,38108.4,-49553.5,0,62512.4,5837.03
step02_gravity_refstate-mantle.xmf,944,1.82823e-06,2.99553e-06,0,-2.19748e-07,-1.42074e+09,-1.42058e+09,-1.42098e+09,-29369.3,-0.0152493,0.033045,-0,0.0363938,32010,-49967.1,0,59340.9,29369.3
step02_gravity_refstate-mantle.xmf,945,1.92474e-06,2.7902e-06,0,-9.05288e-08,-1.41971e+09,-1.41959e+09,-1.41997e+09,-12099.2,-0.00752325,0.030685,-0,0.0315938,36119.4,-49935.3,0,61629.1,12099.2
step02_gravity_refstate-mantle.xmf,946,1.886e-06,2.87464e-06,0,-1.49184e-07,-1.42053e+09,-1.4204e+09,-1.42078e+09,-19938.5,-0.0114405,0.0316122,-0,0.0336187,34063,-49960.7,0,60467.9,19938.5
step02_gravity_refstate-mantle.xmf,947,1.74383e-06,3.36401e-06,0,-3.19188e-07,-1.47202e+09,-1.4718e+09,-1.47225e+09,-42659.5,-0.0212438,0.0308243,-0,0.0374358,29014.8,-51551.3,0,59155.7,42659.5
step02_gravity_refstate-mantle.xmf,948,1.69322e-06,3.61851e-06,0,-3.27316e-07,-1.52206e+09,-1.52181e+09,-1.52229e+09,-43745.8,-0.0238197,0.0266192,-0,0.0357205,27840.9,-53097.7,0,59954,43745.8
step02_gravity_refstate-mantle.xmf,949,1.61094e-06,3.89397e-06,0,-3.10292e-07,-1.57144e+09,-1.57113e+09,-1.57165e+09,-41470.5,-0.0261151,0.0219385,-0,0.0341072,26713.5,-54622.9,0,60805.2,41470.5
step02_gravity_refstate-mantle.xmf,950,1.52108e-06,4.17151e-06,0,-2.43129e-07,-1.62844e+09,-1.62809e+09,-1.62864e+09,-32494.2,-0.0278639,0.0155163,-0,0.0318928,25819.1,-56383.9,0,62014.3,32494.2
step02_gravity_refstate-mantle.xmf,951,1.40698e-06,4.46455e-06,0,-1.44773e-07,-1.6846e+09,-1.68419e+09,-1.68479e+09,-19348.9,-0.0294524,0.00850839,-0,0.0306568,24867.5,-58118.7,0,63215.3,19348.9
step02_gravity_refstate-mantle.xmf,952,1.27697e-06,4.77195e-06,0,-1.35503e-09,-1.74551e+09,-1.74504e+09,-1.74568e+09,-181.1,-0.0308305,-9.27802e-20,-0,0.0308305,23888.9,-60000,0,64580.8,181.1
step02_gravity_refstate-mantle.xmf,953,1.99149e-06,2.76831e-06,0,-3.08156e-09,-1.44576e+09,-1.44566e+09,-1.44603e+09,-411.85,4.66158e-19,0.0277377,0,0.0277377,40000,-50740.5,0,64611.1,411.85
step02_gravity_refstate-mantle.xmf,954,1.8471e-06,3.17519e-06,0,-2.314e-07,-1.47518e+09,-1.475e+09,-1.47543e+09,-30926.7,-0.0176458,0.0286485,-0,0.0336469,31038.7,-51649.3,0,60258.2,30926.7
step02_gravity_refstate-mantle.xmf,955,2.02756e-06,2.84222e-06,0,-5.07578e-08,-1.48005e+09,-1.47994e+09,-1.48032e+09,-6783.78,-0.0048344,0.0250075,-0,0.0254705,37619.6,-51800.1,0,64019.4,6783.78
step02_gravity_refstate-mantle.xmf,956,1.92931e-06,3.02649e-06,0,-1.619e-07,-1.47777e+09,-1.47762e+09,-1.47803e+09,-21638,-0.0138207,0.0269794,-0,0.0303133,33078.7,-51729.4,0,61401.4,21638
step02_gravity_refstate-mantle.xmf,957,1.98682e-06,2.91252e-06,0,-1.02893e-07,-1.47767e+09,-1.47754e+09,-1.47793e+09,-13751.6,-0.0096073,0.0259222,-0,0.0276453,35233,-51726.4,0,62585.8,13751.6
step02_gravity_refstate-mantle.xmf,958,1.83214e-06,3.37645e-06,0,-2.34831e-07,-1.52621e+09,-1.52601e+09,-1.52646e+09,-31385.1,-0.0200663,0.0243065,-0,0.0315192,29992.2,-53226.1,0,61094.6,31385.1
step02_gravity_refstate-mantle.xmf,959,1.78546e-06,3.60259e-06,0,-2.22906e-07,-1.57635e+09,-1.5761e+09,-1.57659e+09,-29791.4,-0.0224285,0.019685,-0,0.0298419,28905.5,-54775,0,61934.1,29791.4
step02_gravity_refstate-mantle.xmf,960,1.7206e-06,3.84072e-06,0,-1.81695e-07,-1.62963e+09,-1.62935e+09,-1.62986e+09,-24283.5,-0.024451,0.014144,-0,0.0282472,27928.2,-56421.1,0,62955,24283.5
step02_gravity_refstate-mantle.xmf,961,1.63497e-06,4.09815e-06,0,-1.07088e-07,-1.68681e+09,-1.68648e+09,-1.68703e+09,-14312.3,-0.0262799,0.00752696,-0,0.0273366,26956.8,-58187.5,0,64128.4,14312.3
step02_gravity_refstate-mantle.xmf,962,1.52991e-06,4.3693e-06,0,-8.34542e-10,-1.74549e+09,-1.74511e+09,-1.74569e+09,-111.536,-0.027937,-8.31303e-20,-0,0.027937,25950.7,-60000,0,65371.5,111.536
step02_gravity_refstate-mantle.xmf,963,2.08389e-06,2.87554e-06,0,-2.62763e-09,-1.51833e+09,-1.51822e+09,-1.51861e+09,-351.183,4.2258e-19,0.0214101,0,0.0214101,40000,-52983,0,66386.8,351.183
step02_gravity_refstate-mantle.xmf,964,1.93756e-06,3.20068e-06,0,-1.63883e-07,-1.53287e+09,-1.5327e+09,-1.53312e+09,-21903,-0.0162207,0.0222706,-0,0.0275516,32060.6,-53431.9,0,62312.5,21903
step02_gravity_refstate-mantle.xmf,965,2.11344e-06,2.95691e-06,0,-3.57044e-08,-1.55897e+09,-1.55886e+09,-1.55926e+09,-4771.89,-0.0043738,0.0178842,-0,0.0184113,37932.9,-54238.9,0,66187.3,4771.89
step02_gravity_refstate-mantle.xmf,966,2.05704e-06,2.96551e-06,0,-6.95027e-08,-1.53089e+09,-1.53077e+09,-1.53116e+09,-9289.04,-0.00808459,0.0207973,-0,0.0223134,36115.3,-53371,0,64442.1,9289.04
step02_gravity_refstate-mantle.xmf,967,2.02024e-06,3.06138e-06,0,-1.08384e-07,-1.53678e+09,-1.53664e+09,-1.53705e+09,-14485.6,-0.0120658,0.0208856,-0,0.0241203,34174.5,-53553.1,0,63528.2,14485.6
step02_gravity_refstate-mantle.xmf,968,1.91521e-06,3.38984e-06,0,-1.55768e-07,-1.58309e+09,-1.58289e+09,-1.58335e+09,-20818.5,-0.0186303,0.0177383,-0,0.0257242,30981.6,-54983.7,0,63111.6,20818.5
step02_gravity_refstate-mantle.xmf,969,1.8746e-06,3.58099e-06,0,-1.31887e-07,-1.63203e+09,-1.6318e+09,-1.63228e+09,-17626.7,-0.0207284,0.0129144,-0,0.0244223,30005.4,-56495.6,0,63969.4,17626.7
step02_gravity_refstate-mantle.xmf,970,1.81918e-06,3.79093e-06,0,-7.93683e-08,-1.68724e+09,-1.68698e+09,-1.68749e+09,-10607.6,-0.0225913,0.00691487,-0,0.0236259,29093.2,-58201.4,0,65067.7,10607.6
step02_gravity_refstate-mantle.xmf,971,1.73888e-06,4.02703e-06,0,-4.63594e-10,-1.74547e+09,-1.74516e+09,-1.7457e+09,-61.9593,-0.0244526,-7.79699e-20,-0,0.0244526,28082.3,-60000,0,66246.6,61.9593
step02_gravity_refstate-mantle.xmf,972,2.14914e-06,2.97891e-06,0,4.84949e-10,-1.59235e+09,-1.59223e+09,-1.59263e+09,64.8134,-2.44088e-19,0.0147041,-0,0.0147041,40000,-55270.1,0,68225.9,64.8134
step02_gravity_refstate-mantle.xmf,973,2.18771e-06,3.10799e-06,0,-1.25779e-09,-1.66799e+09,-1.66786e+09,-1.66828e+09,-168.104,3.7182e-19,0.0075812,0,0.0075812,40000,-57607.2,0,70132.6,168.104
step02_gravity_refstate-mantle.xmf,974,2.16275e-06,3.06007e-06,0,-1.77136e-08,-1.63157e+09,-1.63145e+09,-1.63186e+09,-2367.43,-0.0042982,0.0111167,-0,0.0119187,38015.8,-56482.1,0,68084,2367.43
step02_gravity_refstate-mantle.xmf,975,2.02081e-06,3.24035e-06,0,-9.88915e-08,-1.59868e+09,-1.59852e+09,-1.59895e+09,-13216.8,-0.0145346,0.015255,-0,0.0210706,33102.5,-55465.6,0,64592.6,13216.8
step02_gravity_refstate-mantle.xmf,976,2.1074e-06,3.09512e-06,0,-6.08613e-08,-1.60098e+09,-1.60084e+09,-1.60126e+09,-8134.11,-0.00935717,0.0143505,-0,0.0171316,35616.4,-55536.7,0,65976.1,8134.11
step02_gravity_refstate-mantle.xmf,977,2.1842e-06,3.15677e-06,0,-6.89622e-09,-1.6906e+09,-1.69047e+09,-1.6909e+09,-921.68,-0.0038303,0.00542458,-0,0.00664058,38250.9,-58305.9,0,69733.2,921.68
step02_gravity_refstate-mantle.xmf,978,2.20356e-06,3.22081e-06,0,-1.28319e-11,-1.74544e+09,-1.7453e+09,-1.74573e+09,-1.71498,-1.74297e-18,-5.27152e-19,-0,1.82095e-18,40000,-60000,0,72111,1.71498
step02_gravity_refstate-mantle.xmf,979,1.97881e-06,3.40009e-06,0,-9.62113e-08,-1.63243e+09,-1.63224e+09,-1.63269e+09,-12858.6,-0.017229,0.0122172,-0,0.0211211,31823.5,-56508.1,0,64852.9,12858.6
step02_gravity_refstate-mantle.xmf,980,1.96455e-06,3.53628e-06,0,-5.97896e-08,-1.68498e+09,-1.68477e+09,-1.68525e+09,-7990.87,-0.0183939,0.00671043,-0,0.0195797,31309.1,-58131.8,0,66027,7990.87
step02_gravity_refstate-mantle.xmf,981,1.9063e-06,3.74518e-06,0,-9.84918e-11,-1.74546e+09,-1.74521e+09,-1.74571e+09,-13.1634,-0.0204283,-7.70855e-20,-0,0.0204283,30289.7,-60000,0,67212.1,13.1634
step02_gravity_refstate-mantle.xmf,982,2.15363e-06,3.19146e-06,0,-1.97086e-08,-1.68075e+09,-1.68062e+09,-1.68104e+09,-2634.06,-0.00801074,0.00649403,-0,0.0103123,36320.3,-58001.6,0,68435,2634.06
step02_gravity_refstate-mantle.xmf,983,2.18294e-06,3.26014e-06,0,-7.09916e-10,-1.74544e+09,-1.74529e+09,-1.74573e+09,-94.8802,-0.00564058,-6.29937e-19,-0,0.00564058,37427.7,-60000,0,70716.5,94.8802
step02_gravity_refstate-mantle.xmf,984,2.07524e-06,3.31729e-06,0,-4.76321e-08,-1.66979e+09,-1.66962e+09,-1.67007e+09,-6366.03,-0.0136103,0.00790731,-0,0.0157406,33663.3,-57662.7,0,66769.8,6366.03
step02_gravity_refstate-mantle.xmf,985,2.03511e-06,3.5231e-06,0,4.49928e-10,-1.74545e+09,-1.74525e+09,-1.74572e+09,60.1329,-0.0159156,-9.00352e-20,-0,0.0159156,32578.9,-60000,0,68274.3,60.1329
step02_gravity_refstate-mantle.xmf,986,2.12735e-06,3.36049e-06,0,-5.38248e-10,-1.74544e+09,-1.74528e+09,-1.74573e+09,-71.9368,-0.010968,-7.64414e-19,-0,0.010968,34956.1,-60000,0,69440.1,71.9368
step02_gravity_refstate-intrusion.xmf,0,2.60705e-06,-1.0156e-05,0,1.79391e-05,-8.24112e+08,-8.24992e+08,-8.24291e+08,1.23731e+06,-0.0279345,0.413533,-0,0.414476,-4000,-30000,-0,30265.5,1.23731e+06
step02_gravity_refstate-intrusion.xmf,1,5.03025e-06,-1.54208e-05,0,1.52701e-05,-8.24039e+08,-8.2545e+08,-8.24386e+08,1.05323e+06,-0.0260084,0.433399,-0,0.434178,-3497.18,-30000,-0,30203.2,1.05323e+06
step02_gravity_refstate-intrusion.xmf,2,1.74895e-06,-5.79857e-06,0,2.02096e-05,-8.3785e+08,-8.38371e+08,-8.37971e+08,1.39392e+06,-0.0238545,0.41725,-0,0.417931,-4000,-30502.3,-0,30763.4,1.39392e+06
step02_gravity_refstate-intrusion.xmf,3,6.32e-06,-1.857e-05,0,1.27239e-05,-8.24012e+08,-8.25729e+08,-8.24448e+08,877609,-0.0231679,0.450216,-0,0.450812,-2997.53,-30000,-0,30149.4,877609
step02_gravity_refstate-intrusion.xmf,4,7.12152e-06,-2.06902e-05,0,1.0332e-05,-8.24001e+08,-8.25919e+08,-8.24492e+08,712628,-0.0198044,0.464221,-0,0.464644,-2497.35,-30000,-0,30103.8,712628
step02_gravity_refstate-intrusion.xmf,5,1.28238e-06,-2.57827e-06,0,2.15191e-05,-8.51502e+08,-8.51768e+08,-8.5159e+08,1.48424e+06,-0.0188766,0.41935,-0,0.419774,-4000,-31001.4,-0,31258.4,1.48424e+06
step02_gravity_refstate-intrusion.xmf,6,7.63139e-06,-2.21573e-05,0,8.07913e-06,-8.23998e+08,-8.26052e+08,-8.24524e+08,557243,-0.0161176,0.475503,-0,0.475776,-1997.54,-30000,-0,30066.4,557243
step02_gravity_refstate-intrusion.xmf,7,7.85492e-07,6.69036e-07,0,2.24105e-05,-8.65185e+08,-8.65193e+08,-8.65239e+08,1.54572e+06,-0.0133325,0.41983,-0,0.420041,-4000,-31501.6,-0,31754.6,1.54572e+06
step02_gravity_refstate-intrusion.xmf,8,7.95217e-06,-2.31615e-05,0,5.94689e-06,-8.23998e+08,-8.26144e+08,-8.24547e+08,410176,-0.0122299,0.484161,-0,0.484316,-1498.34,-30000,-0,30037.4,410176
step02_gravity_refstate-intrusion.xmf,9,2.86609e-07,3.93593e-06,0,2.29885e-05,-8.78835e+08,-8.78583e+08,-8.78854e+08,1.58559e+06,-0.00745336,0.418679,-0,0.418745,-4000,-32000.7,-0,32249.7,1.58559e+06
step02_gravity_refstate-intrusion.xmf,10,8.18968e-06,-2.37889e-05,0,3.94049e-06,-8.23995e+08,-8.262e+08,-8.2456e+08,271788,-0.00821732,0.490286,-0,0.490355,-999.46,-30000,-0,30016.6,271788
step02_gravity_refstate-intrusion.xmf,11,-2.60709e-07,7.23457e-06,0,2.32943e-05,-8.92517e+08,-8.92e+08,-8.92499e+08,1.60668e+06,-0.00136288,0.415885,-0,0.415887,-4000,-32500.8,-0,32746,1.60668e+06
step02_gravity_refstate-intrusion.xmf,12,8.27417e-06,-2.41522e-05,0,1.95796e-06,-8.23998e+08,-8.26235e+08,-8.24569e+08,135047,-0.00412766,0.493944,-0,0.493962,-500.036,-30000,-0,30004.2,135047
step02_gravity_refstate-intrusion.xmf,13,8.26867e-06,-2.42681e-05,0,-1.00401e-08,-8.24003e+08,-8.26247e+08,-8.24573e+08,-692.499,1.88764e-07,0.495162,0,0.495162,-4.01542e-10,-30000,-0,30000,692.499
step02_gravity_refstate-intrusion.xmf,14,-7.9994e-07,1.05287e-05,0,2.33565e-05,-9.06182e+08,-9.054e+08,-9.06126e+08,1.61097e+06,0.00479655,0.411448,0,0.411476,-4000,-33000.2,-0,33241.8,1.61097e+06
step02_gravity_refstate-intrusion.xmf,15,8.28397e-06,-2.41579e-05,0,-1.95316e-06,-8.23997e+08,-8.26235e+08,-8.24569e+08,-134716,0.00412774,0.493944,0,0.493962,500.036,-30000,0,30004.2,134716
step02_gravity_refstate-intrusion.xmf,16,-1.32843e-06,1.38289e-05,0,2.31703e-05,-9.19845e+08,-9.18799e+08,-9.19753e+08,1.59813e+06,0.0109121,0.405369,0,0.405515,-4000,-33499.7,-0,33737.7,1.59813e+06
step02_gravity_refstate-intrusion.xmf,17,8.14099e-06,-2.37845e-05,0,-3.93862e-06,-8.24e+08,-8.26202e+08,-8.24561e+08,-271659,0.00821716,0.490287,0,0.490356,999.46,-30000,0,30016.6,271659
step02_gravity_refstate-intrusion.xmf,18,7.95149e-06,-2.31283e-05,0,-5.97234e-06,-8.23997e+08,-8.26141e+08,-8.24546e+08,-411931,0.0122293,0.484162,0,0.484317,1498.34,-30000,0,30037.4,411931
step02_gravity_refstate-intrusion.xmf,19,-1.82672e-06,1.71029e-05,0,2.26983e-05,-9.33523e+08,-9.32217e+08,-9.33397e+08,1.56557e+06,0.016881,0.397638,0,0.397996,-4000,-33999.8,-0,34234.3,1.56557e+06
step02_gravity_refstate-intrusion.xmf,20,7.63328e-06,-2.21126e-05,0,-8.10632e-06,-8.23996e+08,-8.26048e+08,-8.24522e+08,-559118,0.016117,0.475504,0,0.475777,1997.54,-30000,0,30066.4,559118
step02_gravity_refstate-intrusion.xmf,21,-2.25118e-06,2.03352e-05,0,2.1966e-05,-9.47166e+08,-9.45609e+08,-9.47011e+08,1.51506e+06,0.0225506,0.388293,0,0.388948,-4000,-34498.8,-0,34729.9,1.51506e+06
step02_gravity_refstate-intrusion.xmf,22,7.11799e-06,-2.06379e-05,0,-1.03551e-05,-8.23999e+08,-8.25914e+08,-8.2449e+08,-714221,0.0198048,0.464221,0,0.464643,2497.35,-30000,0,30103.8,714221
step02_gravity_refstate-intrusion.xmf,23,-2.63323e-06,2.35802e-05,0,2.09062e-05,-9.60837e+08,-9.59029e+08,-9.60656e+08,1.44197e+06,0.0278003,0.377306,0,0.378329,-4000,-34999,-0,35226.9,1.44197e+06
step02_gravity_refstate-intrusion.xmf,24,6.32383e-06,-1.85175e-05,0,-1.27595e-05,-8.2401e+08,-8.25723e+08,-8.24446e+08,-880060,0.0231688,0.450216,0,0.450812,2997.53,-30000,0,30149.4,880060
step02_gravity_refstate-intrusion.xmf,25,-2.92736e-06,2.6703e-05,0,1.93564e-05,-9.74475e+08,-9.72431e+08,-9.74273e+08,1.33507e+06,0.032409,0.364744,0,0.366181,-4000,-35498.2,-0,35722.9,1.33507e+06
step02_gravity_refstate-intrusion.xmf,26,5.04063e-06,-1.53479e-05,0,-1.52958e-05,-8.24036e+08,-8.25442e+08,-8.24383e+08,-1.055e+06,0.026009,0.433398,0,0.434178,3497.18,-30000,0,30203.2,1.055e+06
step02_gravity_refstate-intrusion.xmf,27,-4.19599e-06,3.13566e-05,0,1.66117e-05,-9.88233e+08,-9.8578e+08,-9.87943e+08,1.14576e+06,0.0361441,0.350523,0,0.352382,-4000,-36000,-0,36221.5,1.14576e+06
step02_gravity_refstate-intrusion.xmf,28,-6.75038e-06,3.70612e-05,0,1.43789e-05,-9.88304e+08,-9.85282e+08,-9.87838e+08,991759,0.0334069,0.368791,0,0.370301,-3499.28,-36000,-0,36169.7,991759
step02_gravity_refstate-intrusion.xmf,29,-8.18862e-06,4.06007e-05,0,1.20155e-05,-9.88333e+08,-9.84968e+08,-9.87768e+08,828749,0.0296702,0.384358,0,0.385502,-2999.32,-36000,-0,36124.7,828749
step02_gravity_refstate-intrusion.xmf,30,-9.12057e-06,4.30713e-05,0,9.76175e-06,-9.88346e+08,-9.84746e+08,-9.87717e+08,673299,0.0253471,0.397269,0,0.398077,-2499.83,-36000,-0,36086.7,673299
step02_gravity_refstate-intrusion.xmf,31,-9.73924e-06,4.48325e-05,0,7.62855e-06,-9.88351e+08,-9.84587e+08,-9.87679e+08,526165,0.020634,0.407658,0,0.40818,-2000,-36000,-0,36055.5,526165
step02_gravity_refstate-intrusion.xmf,32,-1.01459e-05,4.60666e-05,0,5.60763e-06,-9.88351e+08,-9.84474e+08,-9.87651e+08,386776,0.0156641,0.415622,0,0.415917,-1500.17,-36000,-0,36031.2,386776
step02_gravity_refstate-intrusion.xmf,33,-1.04036e-05,4.68822e-05,0,3.68234e-06,-9.8835e+08,-9.84399e+08,-9.87633e+08,253983,0.0105307,0.421243,0,0.421374,-1000.68,-36000,-0,36013.9,253983
step02_gravity_refstate-intrusion.xmf,34,2.16994e-06,-9.06141e-06,0,-1.83136e-05,-8.2412e+08,-8.24895e+08,-8.2427e+08,-1.26315e+06,0.027931,0.413523,0,0.414465,4000,-30000,0,30265.5,1.26315e+06
step02_gravity_refstate-intrusion.xmf,35,-1.05437e-05,4.73483e-05,0,1.81689e-06,-9.88349e+08,-9.84356e+08,-9.87622e+08,125317,0.00529266,0.424594,0,0.424627,-500.717,-36000,-0,36003.5,125317
step02_gravity_refstate-intrusion.xmf,36,-1.05969e-05,4.75001e-05,0,-1.58332e-08,-9.88349e+08,-9.84342e+08,-9.87619e+08,-1092.06,3.15409e-08,0.425709,0,0.425709,0,-36000,0,36000,1092.06
step02_gravity_refstate-intrusion.xmf,37,1.73601e-06,-5.7791e-06,0,-2.02559e-05,-8.37851e+08,-8.38369e+08,-8.37971e+08,-1.39711e+06,0.0238461,0.417252,0,0.417933,4000,-30502.3,0,30763.4,1.39711e+06
step02_gravity_refstate-intrusion.xmf,38,1.26468e-06,-2.5657e-06,0,-2.15339e-05,-8.51503e+08,-8.51767e+08,-8.5159e+08,-1.48526e+06,0.0188721,0.41935,0,0.419775,4000,-31001.4,0,31258.4,1.48526e+06
step02_gravity_refstate-intrusion.xmf,39,-1.05503e-05,4.73419e-05,0,-1.8499e-06,-9.8835e+08,-9.84357e+08,-9.87622e+08,-127594,-0.0052925,0.424594,-0,0.424627,500.717,-36000,0,36003.5,127594
step02_gravity_refstate-intrusion.xmf,40,-1.04034e-05,4.68545e-05,0,-3.70079e-06,-9.88351e+08,-9.84402e+08,-9.87634e+08,-255255,-0.0105311,0.421243,-0,0.421374,1000.68,-36000,0,36013.9,255255
step02_gravity_refstate-intrusion.xmf,41,7.87183e-07,6.63721e-07,0,-2.24042e-05,-8.65185e+08,-8.65193e+08,-8.65239e+08,-1.54529e+06,0.0133331,0.41983,0,0.420042,4000,-31501.6,0,31754.6,1.54529e+06
step02_gravity_refstate-intrusion.xmf,42,-1.01599e-05,4.60631e-05,0,-5.64163e-06,-9.88353e+08,-9.84475e+08,-9.87652e+08,-389121,-0.0156634,0.415622,-0,0.415917,1500.17,-36000,0,36031.2,389121
step02_gravity_refstate-intrusion.xmf,43,2.63136e-07,3.95015e-06,0,-2.29881e-05,-8.78837e+08,-8.78582e+08,-8.78855e+08,-1.58556e+06,0.00745424,0.41868,0,0.418746,4000,-32000.7,0,32249.7,1.58556e+06
step02_gravity_refstate-intrusion.xmf,44,-2.67661e-07,7.21354e-06,0,-2.32861e-05,-8.92518e+08,-8.92002e+08,-8.925e+08,-1.60611e+06,0.00136037,0.415884,0,0.415886,4000,-32500.8,0,32746,1.60611e+06
step02_gravity_refstate-intrusion.xmf,45,-7.86548e-07,1.05238e-05,0,-2.33567e-05,-9.0618e+08,-9.054e+08,-9.06126e+08,-1.61098e+06,-0.00479811,0.411447,-0,0.411475,4000,-33000.2,0,33241.8,1.61098e+06
step02_gravity_refstate-intrusion.xmf,46,-9.75467e-06,4.48247e-05,0,-7.66039e-06,-9.88352e+08,-9.84588e+08,-9.8768e+08,-528361,-0.0206331,0.407659,-0,0.408181,2000,-36000,0,36055.5,528361
step02_gravity_refstate-intrusion.xmf,47,-9.13481e-06,4.3078e-05,0,-9.79858e-06,-9.88347e+08,-9.84746e+08,-9.87717e+08,-675839,-0.025346,0.397269,-0,0.398077,2499.83,-36000,0,36086.7,675839
step02_gravity_refstate-intrusion.xmf,48,-1.31399e-06,1.3812e-05,0,-2.31529e-05,-9.19844e+08,-9.18801e+08,-9.19753e+08,-1.59693e+06,-0.010915,0.405368,-0,0.405514,4000,-33499.7,0,33737.7,1.59693e+06
step02_gravity_refstate-intrusion.xmf,49,-8.20098e-06,4.06349e-05,0,-1.20659e-05,-9.88333e+08,-9.84965e+08,-9.87767e+08,-832223,-0.0296693,0.384358,-0,0.385501,2999.32,-36000,0,36124.7,832223
step02_gravity_refstate-intrusion.xmf,50,-1.80104e-06,1.70928e-05,0,-2.2691e-05,-9.33521e+08,-9.32217e+08,-9.33396e+08,-1.56507e+06,-0.016881,0.397637,-0,0.397996,4000,-33999.8,0,34234.3,1.56507e+06
step02_gravity_refstate-intrusion.xmf,51,-6.73539e-06,3.70583e-05,0,-1.44721e-05,-9.88302e+08,-9.85282e+08,-9.87838e+08,-998184,-0.0334092,0.368793,-0,0.370303,3499.28,-36000,0,36169.7,998184
step02_gravity_refstate-intrusion.xmf,52,-2.23855e-06,2.03374e-05,0,-2.19431e-05,-9.47165e+08,-9.45608e+08,-9.47011e+08,-1.51349e+06,-0.0225513,0.388294,-0,0.388948,4000,-34498.8,0,34729.9,1.51349e+06
step02_gravity_refstate-intrusion.xmf,53,-2.60629e-06,2.35914e-05,0,-2.09035e-05,-9.60834e+08,-9.59027e+08,-9.60655e+08,-1.44178e+06,-0.027799,0.377307,-0,0.37833,4000,-34999,0,35226.9,1.44178e+06
step02_gravity_refstate-intrusion.xmf,54,-2.94133e-06,2.68239e-05,0,-1.93954e-05,-9.74472e+08,-9.72419e+08,-9.74269e+08,-1.33776e+06,-0.0324119,0.364744,-0,0.366181,4000,-35498.2,0,35722.9,1.33776e+06
step02_gravity_refstate-intrusion.xmf,55,-3.38671e-06,2.97926e-05,0,-1.69433e-05,-9.88202e+08,-9.85913e+08,-9.87968e+08,-1.16863e+06,-0.0361452,0.350539,-0,0.352398,4000,-36000,0,36221.5,1.16863e+06
step02_gravity_refstate-intrusion.xmf,56,3.71781e-06,-1.04314e-05,0,1.67535e-05,-8.34009e+08,-8.34985e+08,-8.34266e+08,1.15554e+06,-0.0240414,0.432679,-0,0.433347,-3635.71,-30364.1,-0,30581,1.15554e+06
step02_gravity_refstate-intrusion.xmf,57,3.14558e-06,-7.29283e-06,0,1.72322e-05,-8.44421e+08,-8.45141e+08,-8.44638e+08,1.18856e+06,-0.0205817,0.437746,-0,0.438229,-3596.18,-30744.9,-0,30954.5,1.18856e+06
step02_gravity_refstate-intrusion.xmf,58,4.9569e-06,-1.27547e-05,0,1.43898e-05,-8.35354e+08,-8.36576e+08,-8.35696e+08,992511,-0.0219962,0.448018,-0,0.448557,-3256.64,-30414.9,-0,30588.7,992511
step02_gravity_refstate-intrusion.xmf,59,2.2252e-06,-3.19633e-06,0,1.79671e-05,-8.57951e+08,-8.58325e+08,-8.58104e+08,1.23925e+06,-0.0156216,0.441092,-0,0.441369,-3579.55,-31239,-0,31443.4,1.23925e+06
step02_gravity_refstate-intrusion.xmf,60,5.96254e-06,-1.50967e-05,0,1.16414e-05,-8.35823e+08,-8.37275e+08,-8.36234e+08,802945,-0.0190852,0.465075,-0,0.465467,-2747.44,-30432.9,-0,30556.6,802945
step02_gravity_refstate-intrusion.xmf,61,4.06997e-06,-8.31644e-06,0,1.40189e-05,-8.49927e+08,-8.50782e+08,-8.50208e+08,966926,-0.0169612,0.459143,-0,0.459456,-3105.15,-30947.5,-0,31102.9,966926
step02_gravity_refstate-intrusion.xmf,62,6.54688e-06,-1.66595e-05,0,9.21894e-06,-8.36048e+08,-8.37648e+08,-8.36499e+08,635859,-0.015914,0.478563,-0,0.478828,-2248.57,-30441.3,-0,30524.3,635859
step02_gravity_refstate-intrusion.xmf,63,2.46947e-06,-2.68694e-06,0,1.54446e-05,-8.64314e+08,-8.64669e+08,-8.64484e+08,1.06526e+06,-0.0123707,0.457393,-0,0.45756,-3222.53,-31472.1,-0,31636.7,1.06526e+06
step02_gravity_refstate-intrusion.xmf,64,1.31854e-06,8.34098e-07,0,1.84069e-05,-8.72029e+08,-8.72062e+08,-8.72119e+08,1.26958e+06,-0.0100058,0.442729,-0,0.442842,-3557.71,-31753,-0,31951.7,1.26958e+06
step02_gravity_refstate-intrusion.xmf,65,5.07571e-06,-1.07112e-05,0,1.06826e-05,-8.49023e+08,-8.50112e+08,-8.49373e+08,736813,-0.0145795,0.477695,-0,0.477917,-2528.11,-30915.4,-0,31018.6,736813
step02_gravity_refstate-intrusion.xmf,66,3.36545e-06,-4.83063e-06,0,1.2506e-05,-8.62274e+08,-8.62839e+08,-8.62506e+08,862576,-0.0118537,0.472675,-0,0.472823,-2806.75,-31398.6,-0,31523.8,862576
step02_gravity_refstate-intrusion.xmf,67,6.90757e-06,-1.7745e-05,0,6.87984e-06,-8.36236e+08,-8.37936e+08,-8.36712e+08,474524,-0.0123689,0.489576,-0,0.489732,-1726.51,-30448.2,-0,30497.1,474524
step02_gravity_refstate-intrusion.xmf,68,5.59406e-06,-1.21593e-05,0,8.02519e-06,-8.48662e+08,-8.49887e+08,-8.49048e+08,553523,-0.0117689,0.491195,-0,0.491336,-1985.71,-30902.5,-0,30966.2,553523
step02_gravity_refstate-intrusion.xmf,69,1.68071e-06,6.71942e-07,0,1.47451e-05,-8.75516e+08,-8.75585e+08,-8.75632e+08,1.01701e+06,-0.00790535,0.463579,-0,0.463646,-3079.59,-31881.1,-0,32029.5,1.01701e+06
step02_gravity_refstate-intrusion.xmf,70,2.6498e-07,5.47949e-06,0,1.8002e-05,-8.88852e+08,-8.88493e+08,-8.88871e+08,1.24165e+06,-0.00297124,0.445231,-0,0.445241,-3464.15,-32367.2,-0,32552,1.24165e+06
step02_gravity_refstate-intrusion.xmf,71,3.97417e-06,-6.24876e-06,0,9.48819e-06,-8.61903e+08,-8.62609e+08,-8.62178e+08,654430,-0.0100005,0.488693,-0,0.488795,-2272.73,-31385.7,-0,31467.9,654430
step02_gravity_refstate-intrusion.xmf,72,2.20463e-06,-3.40415e-07,0,1.12113e-05,-8.75786e+08,-8.75961e+08,-8.75938e+08,773279,-0.00677559,0.48212,-0,0.482168,-2556.18,-31891.6,-0,31993.9,773279
step02_gravity_refstate-intrusion.xmf,73,7.11236e-06,-1.84181e-05,0,4.64866e-06,-8.36463e+08,-8.38224e+08,-8.36953e+08,320632,-0.00860289,0.497771,-0,0.497845,-1193.19,-30456.4,-0,30479.8,320632
step02_gravity_refstate-intrusion.xmf,74,5.82843e-06,-1.28723e-05,0,5.53962e-06,-8.49048e+08,-8.50338e+08,-8.4945e+08,382085,-0.00846149,0.501846,-0,0.501918,-1418.94,-30916.5,-0,30949.1,382085
step02_gravity_refstate-intrusion.xmf,75,4.33606e-06,-7.24617e-06,0,6.73332e-06,-8.6167e+08,-8.62468e+08,-8.61969e+08,464418,-0.00766568,0.501672,-0,0.501731,-1697.83,-31377.3,-0,31423.2,464418
step02_gravity_refstate-intrusion.xmf,76,5.40155e-07,5.17869e-06,0,1.3495e-05,-8.89571e+08,-8.89252e+08,-8.89609e+08,930794,-0.00244061,0.470082,-0,0.470089,-2871.35,-32394,-0,32521,930794
step02_gravity_refstate-intrusion.xmf,77,-6.18921e-07,9.24454e-06,0,1.95029e-05,-9.01069e+08,-9.00389e+08,-9.01027e+08,1.34518e+06,0.00225521,0.434422,0,0.434428,-3615.8,-32813.2,-0,33011.9,1.34518e+06
step02_gravity_refstate-intrusion.xmf,78,2.56509e-06,-1.20548e-06,0,8.18018e-06,-8.75492e+08,-8.75752e+08,-8.75669e+08,564212,-0.00552919,0.497367,-0,0.497398,-1998.33,-31881.3,-0,31943.8,564212
step02_gravity_refstate-intrusion.xmf,79,7.47748e-07,4.7137e-06,0,9.8366e-06,-8.89732e+08,-8.89459e+08,-8.89784e+08,678461,-0.00201376,0.488587,-0,0.488592,-2300.72,-32400.1,-0,32481.7,678461
step02_gravity_refstate-intrusion.xmf,80,-7.52762e-07,9.76379e-06,0,1.56969e-05,-9.03049e+08,-9.02324e+08,-9.02997e+08,1.08266e+06,0.00277892,0.454245,0,0.454254,-3175.99,-32885.4,-0,33038.4,1.08266e+06
step02_gravity_refstate-intrusion.xmf,81,7.31615e-06,-1.90945e-05,0,2.74474e-06,-8.35756e+08,-8.37578e+08,-8.36261e+08,189313,-0.00514143,0.50203,-0,0.502056,-703.679,-30430.6,-0,30438.8,189313
step02_gravity_refstate-intrusion.xmf,82,5.90473e-06,-1.30943e-05,0,3.09149e-06,-8.49777e+08,-8.51088e+08,-8.50185e+08,213230,-0.00481669,0.509411,-0,0.509434,-812.227,-30943.1,-0,30953.8,213230
step02_gravity_refstate-intrusion.xmf,83,4.51644e-06,-7.8273e-06,0,4.18309e-06,-8.61625e+08,-8.62476e+08,-8.61937e+08,288521,-0.00500229,0.511012,-0,0.511036,-1094.43,-31375.6,-0,31394.7,288521
step02_gravity_refstate-intrusion.xmf,84,2.82029e-06,-1.95522e-06,0,5.40942e-06,-8.749e+08,-8.75229e+08,-8.75094e+08,373104,-0.0040332,0.509176,-0,0.509192,-1394.52,-31859.7,-0,31890.2,373104
step02_gravity_refstate-intrusion.xmf,85,-9.32271e-07,1.03213e-05,0,1.18011e-05,-9.04078e+08,-9.03302e+08,-9.04014e+08,813961,0.00269111,0.475112,0,0.47512,-2611.39,-32922.9,-0,33026.3,813961
step02_gravity_refstate-intrusion.xmf,86,-1.47744e-06,1.30915e-05,0,1.88106e-05,-9.14781e+08,-9.13776e+08,-9.14679e+08,1.29742e+06,0.00806373,0.431891,0,0.431966,-3554.39,-33313.9,-0,33503,1.29742e+06
step02_gravity_refstate-intrusion.xmf,87,7.55367e-06,-2.04215e-05,0,9.10258e-07,-8.33037e+08,-8.34967e+08,-8.33558e+08,62783.3,-0.00177248,0.502283,-0,0.502286,-234.551,-30330.9,-0,30331.8,62783.3
step02_gravity_refstate-intrusion.xmf,88,9.01408e-07,4.303e-06,0,6.79237e-06,-8.89394e+08,-8.89159e+08,-8.89456e+08,468491,-0.00161314,0.502957,-0,0.502959,-1704.56,-32387.9,-0,32432.7,468491
step02_gravity_refstate-intrusion.xmf,89,-9.62687e-07,1.0297e-05,0,8.28051e-06,-9.03955e+08,-9.03179e+08,-9.03889e+08,571133,0.00209094,0.492254,0,0.492259,-2011.2,-32918.3,-0,32979.7,571133
step02_gravity_refstate-intrusion.xmf,90,-2.30089e-06,1.55107e-05,0,1.40741e-05,-9.19485e+08,-9.18256e+08,-9.19326e+08,970734,0.00884193,0.45501,0,0.455096,-2970.06,-33485,-0,33616.5,970734
step02_gravity_refstate-intrusion.xmf,91,7.37802e-06,-1.95535e-05,0,-8.5152e-07,-8.35127e+08,-8.36985e+08,-8.35636e+08,-58732,0.00161512,0.503847,0,0.50385,218.89,-30407.4,0,30408.2,58732
step02_gravity_refstate-intrusion.xmf,92,6.33556e-06,-1.48764e-05,0,7.26924e-07,-8.4612e+08,-8.47583e+08,-8.46557e+08,50138.2,-0.00123263,0.510813,-0,0.510815,-194.682,-30809.4,-0,30810,50138.2
step02_gravity_refstate-intrusion.xmf,93,4.70421e-06,-8.52619e-06,0,1.73332e-06,-8.60666e+08,-8.61579e+08,-8.60991e+08,119553,-0.00218546,0.516076,-0,0.51608,-464.014,-31340.6,-0,31344,119553
step02_gravity_refstate-intrusion.xmf,94,2.90788e-06,-2.25083e-06,0,2.90995e-06,-8.74859e+08,-8.75214e+08,-8.75059e+08,200708,-0.00226971,0.51672,-0,0.516725,-776.641,-31858.2,-0,31867.7,200708
step02_gravity_refstate-intrusion.xmf,95,1.00006e-06,3.98594e-06,0,4.12399e-06,-8.89019e+08,-8.88813e+08,-8.89088e+08,284444,-0.00109895,0.512977,-0,0.512978,-1087.9,-32374.2,-0,32392.5,284444
step02_gravity_refstate-intrusion.xmf,96,-2.63153e-06,1.59611e-05,0,9.97908e-06,-9.18551e+08,-9.17269e+08,-9.1837e+08,688288,0.00692143,0.476945,0,0.476995,-2326.47,-33450.3,-0,33531.1,688288
step02_gravity_refstate-intrusion.xmf,97,-2.00648e-06,1.6171e-05,0,2.0237e-05,-9.26704e+08,-9.2545e+08,-9.26566e+08,1.39581e+06,0.0134325,0.416734,0,0.416951,-3726.59,-33749.7,-0,33954.9,1.39581e+06
step02_gravity_refstate-intrusion.xmf,98,-2.4795e-06,1.71413e-05,0,1.71873e-05,-9.27059e+08,-9.25706e+08,-9.26888e+08,1.18546e+06,0.0128165,0.432902,0,0.433092,-3389.99,-33762.1,-0,33931.8,1.18546e+06
step02_gravity_refstate-intrusion.xmf,99,-1.00412e-06,1.03608e-05,0,5.42493e-06,-9.03837e+08,-9.03053e+08,-9.03767e+08,374175,0.00146489,0.504539,0,0.504542,-1404,-32913.9,-0,32943.8,374175
step02_gravity_refstate-intrusion.xmf,100,-2.87562e-06,1.63935e-05,0,6.80288e-06,-9.18487e+08,-9.17158e+08,-9.18289e+08,469216,0.00523679,0.491565,0,0.491593,-1722.43,-33447.6,-0,33491.9,469216
step02_gravity_refstate-intrusion.xmf,101,-2.92299e-06,2.00217e-05,0,1.83897e-05,-9.3877e+08,-9.37188e+08,-9.38569e+08,1.2684e+06,0.0180567,0.415839,0,0.416231,-3585.19,-34190.3,-0,34377.7,1.2684e+06
step02_gravity_refstate-intrusion.xmf,102,-3.58202e-06,2.06756e-05,0,1.46767e-05,-9.35602e+08,-9.33929e+08,-9.35355e+08,1.0123e+06,0.0152487,0.439048,0,0.439313,-3106.45,-34073.3,-0,34214.6,1.0123e+06
step02_gravity_refstate-intrusion.xmf,103,-4.08584e-06,2.12527e-05,0,1.13322e-05,-9.33504e+08,-9.31756e+08,-9.33222e+08,781618,0.0125478,0.458746,0,0.458918,-2595.2,-33995.7,-0,34094.6,781618
step02_gravity_refstate-intrusion.xmf,104,7.30078e-06,-1.90018e-05,0,-2.98996e-06,-8.35895e+08,-8.3771e+08,-8.36399e+08,-206227,0.00561879,0.501626,0,0.501657,770.664,-30435.7,0,30445.5,206227
step02_gravity_refstate-intrusion.xmf,105,6.14231e-06,-1.40577e-05,0,-1.78927e-06,-8.47823e+08,-8.49217e+08,-8.48247e+08,-123411,0.0028817,0.510764,0,0.510772,468.581,-30871.7,0,30875.2,123411
step02_gravity_refstate-intrusion.xmf,106,4.73884e-06,-8.64664e-06,0,-5.57285e-07,-8.60482e+08,-8.61405e+08,-8.60809e+08,-38437.7,0.000698954,0.517063,0,0.517063,147.53,-31333.9,0,31334.2,38437.7
step02_gravity_refstate-intrusion.xmf,107,3.01594e-06,-2.62521e-06,0,5.71825e-07,-8.74229e+08,-8.74618e+08,-8.74437e+08,39440.5,-0.000468232,0.519873,-0,0.519873,-155.366,-31835.2,-0,31835.6,39440.5
step02_gravity_refstate-intrusion.xmf,108,1.05357e-06,3.79642e-06,0,1.71082e-06,-8.88736e+08,-8.88546e+08,-8.88808e+08,118001,-0.000488656,0.518494,-0,0.518495,-463.627,-32363.8,-0,32367.2,118001
step02_gravity_refstate-intrusion.xmf,109,-1.03068e-06,1.04018e-05,0,2.88272e-06,-9.03723e+08,-9.02934e+08,-9.03651e+08,198830,0.000808851,0.512416,0,0.512417,-776.663,-32909.7,-0,32918.9,198830
step02_gravity_refstate-intrusion.xmf,110,-4.52376e-06,2.20344e-05,0,8.20238e-06,-9.32847e+08,-9.31016e+08,-9.32535e+08,565744,0.0098935,0.474925,0,0.475028,-2023.31,-33971.1,-0,34031.3,565744
step02_gravity_refstate-intrusion.xmf,111,7.16599e-06,-1.86613e-05,0,-5.14462e-06,-8.35525e+08,-8.37307e+08,-8.36019e+08,-354840,0.00950023,0.495707,0,0.495798,1304.82,-30422.2,0,30450.2,354840
step02_gravity_refstate-intrusion.xmf,112,-3.10552e-06,1.70088e-05,0,4.05579e-06,-9.19023e+08,-9.17636e+08,-9.18809e+08,279741,0.00342472,0.50154,0,0.501551,-1082.58,-33467,-0,33484.5,279741
step02_gravity_refstate-intrusion.xmf,113,-4.9324e-06,2.30846e-05,0,5.35728e-06,-9.33681e+08,-9.31749e+08,-9.33341e+08,369508,0.00719869,0.486161,0,0.486214,-1413.74,-34001.2,-0,34030.6,369508
step02_gravity_refstate-intrusion.xmf,114,-4.2763e-06,2.39312e-05,0,1.52547e-05,-9.47312e+08,-9.45366e+08,-9.47017e+08,1.05217e+06,0.0201212,0.423336,0,0.423814,-3260.36,-34500.9,-0,34654.7,1.05217e+06
step02_gravity_refstate-intrusion.xmf,115,-5.18496e-06,2.57832e-05,0,1.24194e-05,-9.4749e+08,-9.45354e+08,-9.47132e+08,856604,0.0181411,0.439059,0,0.439433,-2831.1,-34506.3,-0,34622.2,856604
step02_gravity_refstate-intrusion.xmf,116,-5.8918e-06,2.71839e-05,0,9.44463e-06,-9.47069e+08,-9.44788e+08,-9.46663e+08,651425,0.0151137,0.455113,0,0.455364,-2306.52,-34490,-0,34567.1,651425
step02_gravity_refstate-intrusion.xmf,117,6.00533e-06,-1.33741e-05,0,-4.21794e-06,-8.48588e+08,-8.49925e+08,-8.49002e+08,-290925,0.00658161,0.50604,0,0.506083,1089.68,-30899.8,0,30919.1,290925
step02_gravity_refstate-intrusion.xmf,118,7.16176e-06,-1.8978e-05,0,-6.97868e-06,-8.32998e+08,-8.34801e+08,-8.33492e+08,-481342,0.0129877,0.487044,0,0.487217,1746.55,-30329.8,0,30380,481342
step02_gravity_refstate-intrusion.xmf,119,4.6669e-06,-8.33531e-06,0,-2.95221e-06,-8.60753e+08,-8.61649e+08,-8.61075e+08,-203623,0.00365546,0.513978,0,0.513991,779.407,-31343.8,0,31353.5,203623
step02_gravity_refstate-intrusion.xmf,120,3.0205e-06,-2.60834e-06,0,-1.72691e-06,-8.7413e+08,-8.74518e+08,-8.74338e+08,-119110,0.00140524,0.518804,0,0.518806,464.722,-31831.7,0,31835.1,119110
step02_gravity_refstate-intrusion.xmf,121,1.10427e-06,3.6453e-06,0,-5.67307e-07,-8.88379e+08,-8.88204e+08,-8.88455e+08,-39128.9,0.000171778,0.519611,0,0.519611,155.576,-32350.9,0,32351.2,39128.9
step02_gravity_refstate-intrusion.xmf,122,-1.02761e-06,1.03863e-05,0,5.42958e-07,-9.03566e+08,-9.02779e+08,-9.03495e+08,37449.5,0.00015084,0.51575,0,0.51575,-147.015,-32904,-0,32904.3,37449.5
step02_gravity_refstate-intrusion.xmf,123,-3.20433e-06,1.72882e-05,0,1.59741e-06,-9.19156e+08,-9.17742e+08,-9.18934e+08,110179,0.00139998,0.506953,0,0.506955,-436.426,-33471.8,-0,33474.7,110179
step02_gravity_refstate-intrusion.xmf,124,-6.43234e-06,2.84631e-05,0,6.74782e-06,-9.47342e+08,-9.44935e+08,-9.46898e+08,465418,0.0117121,0.467576,0,0.467722,-1742.07,-34499.5,-0,34543.4,465418
step02_gravity_refstate-intrusion.xmf,125,-3.84037e-06,2.43537e-05,0,1.75538e-05,-9.5382e+08,-9.51875e+08,-9.53555e+08,1.21074e+06,0.0238675,0.403151,0,0.403857,-3595.86,-34740,-0,34925.6,1.21074e+06
step02_gravity_refstate-intrusion.xmf,126,6.00915e-06,-1.35903e-05,0,-6.90861e-06,-8.4605e+08,-8.47402e+08,-8.46465e+08,-476509,0.010824,0.495017,0,0.495135,1736.24,-30807.2,0,30856.1,476509
step02_gravity_refstate-intrusion.xmf,127,6.64148e-06,-1.69647e-05,0,-8.97781e-06,-8.35449e+08,-8.37077e+08,-8.35907e+08,-619228,0.0156812,0.479435,0,0.479691,2195.8,-30419.5,0,30498.7,619228
step02_gravity_refstate-intrusion.xmf,128,-5.49258e-06,2.47783e-05,0,2.68414e-06,-9.36369e+08,-9.34281e+08,-9.3599e+08,185133,0.00406572,0.491801,0,0.491818,-739.5,-34099.1,-0,34107.1,185133
step02_gravity_refstate-intrusion.xmf,129,-6.86441e-06,2.98734e-05,0,4.37126e-06,-9.48909e+08,-9.46375e+08,-9.48435e+08,301499,0.00823786,0.47478,0,0.474852,-1177.85,-34556.6,-0,34576.7,301499
step02_gravity_refstate-intrusion.xmf,130,-5.83369e-06,2.94405e-05,0,1.3667e-05,-9.61023e+08,-9.5859e+08,-9.6062e+08,942657,0.0240151,0.415209,0,0.415902,-3124.06,-35001,-0,35140.1,942657
step02_gravity_refstate-intrusion.xmf,131,-6.98123e-06,3.19003e-05,0,1.04977e-05,-9.60977e+08,-9.58296e+08,-9.60496e+08,724061,0.020406,0.433167,0,0.433648,-2562.32,-34998,-0,35091.7,724061
step02_gravity_refstate-intrusion.xmf,132,-7.67365e-06,3.3557e-05,0,7.89581e-06,-9.61031e+08,-9.58187e+08,-9.60502e+08,544599,0.0164884,0.446382,0,0.446686,-2023.44,-34999.4,-0,35057.9,544599
step02_gravity_refstate-intrusion.xmf,133,4.677e-06,-8.28822e-06,0,-5.55787e-06,-8.59834e+08,-8.60728e+08,-8.60156e+08,-383344,0.00674893,0.506011,0,0.506056,1418.09,-31310.5,0,31342.6,383344
step02_gravity_refstate-intrusion.xmf,134,2.96064e-06,-2.34259e-06,0,-4.16382e-06,-8.74199e+08,-8.74565e+08,-8.74403e+08,-287192,0.00327954,0.513346,0,0.513356,1094.08,-31834.3,0,31853.1,287192
step02_gravity_refstate-intrusion.xmf,135,1.10337e-06,3.70292e-06,0,-2.90207e-06,-8.88329e+08,-8.8815e+08,-8.88405e+08,-200165,0.000864349,0.516335,0,0.516335,780.116,-32349.1,0,32358.5,200165
step02_gravity_refstate-intrusion.xmf,136,-9.75956e-07,1.02597e-05,0,-1.74853e-06,-9.03246e+08,-9.02471e+08,-9.03179e+08,-120602,-0.000469619,0.514698,-0,0.514698,480.059,-32892.4,0,32895.9,120602
step02_gravity_refstate-intrusion.xmf,137,-3.11679e-06,1.70216e-05,0,-6.97668e-07,-9.18444e+08,-9.17055e+08,-9.18229e+08,-48120.3,-0.000612474,0.508238,-0,0.508238,196.76,-33445.9,0,33446.5,48120.3
step02_gravity_refstate-intrusion.xmf,138,-5.19497e-06,2.38419e-05,0,2.68367e-07,-9.33791e+08,-9.31789e+08,-9.33433e+08,18510.1,0.000361034,0.497013,0,0.497013,-69.5592,-34005.2,-0,34005.2,18510.1
step02_gravity_refstate-intrusion.xmf,139,-8.17743e-06,3.50843e-05,0,5.60684e-06,-9.62064e+08,-9.5908e+08,-9.615e+08,386721,0.0124657,0.454841,0,0.455011,-1489.4,-35037,-0,35068.7,386721
step02_gravity_refstate-intrusion.xmf,140,-4.74426e-06,2.8543e-05,0,1.65413e-05,-9.67535e+08,-9.65239e+08,-9.67208e+08,1.1409e+06,0.0286212,0.389574,0,0.390624,-3603.51,-35241,-0,35424.8,1.1409e+06
step02_gravity_refstate-intrusion.xmf,141,4.31541e-06,-7.16973e-06,0,-8.22012e-06,-8.60424e+08,-8.61216e+08,-8.60722e+08,-566968,0.00933164,0.49455,0,0.494638,2020.94,-31332,0,31397.1,566968
step02_gravity_refstate-intrusion.xmf,142,6.04428e-06,-1.51498e-05,0,-1.13497e-05,-8.36037e+08,-8.37499e+08,-8.36454e+08,-782824,0.0186945,0.466872,0,0.467246,2690.49,-30440.9,0,30559.6,782824
step02_gravity_refstate-intrusion.xmf,143,5.34111e-06,-1.13505e-05,0,-9.69597e-06,-8.48477e+08,-8.49628e+08,-8.48845e+08,-668761,0.0137078,0.482794,0,0.482989,2333.76,-30895.8,0,30983.8,668761
step02_gravity_refstate-intrusion.xmf,144,-7.3041e-06,3.14654e-05,0,2.64959e-06,-9.5165e+08,-9.48976e+08,-9.51146e+08,182750,0.00533011,0.476234,0,0.476264,-725.157,-34656.7,-0,34664.3,182750
step02_gravity_refstate-intrusion.xmf,145,-7.0616e-06,3.02862e-05,0,9.69831e-07,-9.48488e+08,-9.45912e+08,-9.48001e+08,66892.2,0.00188882,0.48216,0,0.482164,-269.574,-34541.1,-0,34542.1,66892.2
step02_gravity_refstate-intrusion.xmf,146,-8.41713e-06,3.60689e-05,0,3.60489e-06,-9.62809e+08,-9.5974e+08,-9.62228e+08,248641,0.00834835,0.460242,0,0.460318,-980.495,-35064.4,-0,35078.1,248641
step02_gravity_refstate-intrusion.xmf,147,-6.75387e-06,3.42721e-05,0,1.37975e-05,-9.76522e+08,-9.73692e+08,-9.76056e+08,951655,0.0292893,0.391984,0,0.393077,-3271.63,-35567.7,-0,35717.8,951655
step02_gravity_refstate-intrusion.xmf,148,-7.81319e-06,3.62515e-05,0,1.13501e-05,-9.74486e+08,-9.71446e+08,-9.73947e+08,782850,0.0253508,0.409783,0,0.410566,-2793.02,-35492,-0,35601.7,782850
step02_gravity_refstate-intrusion.xmf,149,-8.63038e-06,3.84327e-05,0,8.93845e-06,-9.7482e+08,-9.71574e+08,-9.74225e+08,616513,0.0212614,0.422494,0,0.423028,-2282.82,-35503.8,-0,35577.1,616513
step02_gravity_refstate-intrusion.xmf,150,-9.15904e-06,3.99814e-05,0,6.68034e-06,-9.75026e+08,-9.71636e+08,-9.74394e+08,460764,0.0166614,0.432689,0,0.433009,-1757.75,-35511.2,-0,35554.6,460764
step02_gravity_refstate-intrusion.xmf,151,2.87319e-06,-2.09008e-06,0,-6.86772e-06,-8.73879e+08,-8.74222e+08,-8.74077e+08,-473688,0.00514218,0.503428,0,0.503454,1713.47,-31822.6,0,31868.7,473688
step02_gravity_refstate-intrusion.xmf,152,1.07531e-06,3.86262e-06,0,-5.45256e-06,-8.88296e+08,-8.88104e+08,-8.8837e+08,-376080,0.00155377,0.508484,0,0.508487,1408.66,-32348,0,32378.7,376080
step02_gravity_refstate-intrusion.xmf,153,-9.17387e-07,1.01531e-05,0,-4.1658e-06,-9.03034e+08,-9.0227e+08,-9.02971e+08,-287328,-0.00103935,0.509136,-0,0.509137,1106.68,-32884.8,0,32903.4,287328
step02_gravity_refstate-intrusion.xmf,154,-3.02096e-06,1.67763e-05,0,-2.98199e-06,-9.18095e+08,-9.16729e+08,-9.17887e+08,-205677,-0.0024802,0.504981,-0,0.504987,813.334,-33433.3,0,33443.2,205677
step02_gravity_refstate-intrusion.xmf,155,-5.0634e-06,2.3435e-05,0,-1.92159e-06,-9.33036e+08,-9.3107e+08,-9.32687e+08,-132538,-0.0027203,0.496133,-0,0.496141,535.81,-33977.7,0,33981.9,132538
step02_gravity_refstate-intrusion.xmf,156,-6.98631e-06,2.99961e-05,0,-1.03349e-06,-9.47832e+08,-9.45282e+08,-9.4735e+08,-71282.9,-0.00198517,0.482832,-0,0.482836,286.436,-34517.1,0,34518.3,71282.9
step02_gravity_refstate-intrusion.xmf,157,-9.50519e-06,4.11527e-05,0,4.6364e-06,-9.75527e+08,-9.72033e+08,-9.74871e+08,319787,0.0119903,0.43937,0,0.439533,-1247.05,-35529.5,-0,35551.4,319787
step02_gravity_refstate-intrusion.xmf,158,-8.53876e-06,3.64613e-05,0,1.80379e-06,-9.62837e+08,-9.59733e+08,-9.62248e+08,124413,0.00422711,0.463792,0,0.463812,-494.071,-35065.5,-0,35068.9,124413
step02_gravity_refstate-intrusion.xmf,159,-5.45435e-06,3.19542e-05,0,1.5978e-05,-9.78351e+08,-9.75771e+08,-9.77975e+08,1.10205e+06,0.0319669,0.376302,0,0.377657,-3636.59,-35636.3,-0,35821.4,1.10205e+06
step02_gravity_refstate-intrusion.xmf,160,4.91135e-06,-1.22496e-05,0,-1.42361e-05,-8.36841e+08,-8.38024e+08,-8.3718e+08,-981906,0.0214659,0.449593,0,0.450105,3232.06,-30469.5,0,30640.4,981906
step02_gravity_refstate-intrusion.xmf,161,2.59415e-06,-1.30502e-06,0,-9.80812e-06,-8.73782e+08,-8.74051e+08,-8.73961e+08,-676497,0.00681598,0.489133,0,0.489181,2316.74,-31819,0,31903.2,676497
step02_gravity_refstate-intrusion.xmf,162,3.79985e-06,-5.85406e-06,0,-1.12229e-05,-8.60614e+08,-8.6128e+08,-8.60876e+08,-774076,0.0116255,0.479113,0,0.479254,2598.05,-31338.6,0,31446.1,774076
step02_gravity_refstate-intrusion.xmf,163,4.70177e-06,-9.89917e-06,0,-1.262e-05,-8.47532e+08,-8.48539e+08,-8.47856e+08,-870443,0.016738,0.466036,0,0.466337,2886.45,-30860.7,0,30995.4,870443
step02_gravity_refstate-intrusion.xmf,164,-8.5551e-06,3.62292e-05,0,-4.70439e-08,-9.62015e+08,-9.58926e+08,-9.61424e+08,-3244.77,-0.000111069,0.466106,-0,0.466106,13.0836,-35035.2,0,35035.2,3244.77
step02_gravity_refstate-intrusion.xmf,165,-9.64264e-06,4.18639e-05,0,2.75663e-06,-9.75835e+08,-9.72283e+08,-9.7517e+08,190133,0.00726797,0.443624,0,0.443684,-749.449,-35541.1,-0,35549,190133
step02_gravity_refstate-intrusion.xmf,166,9.91565e-07,4.02704e-06,0,-8.43062e-06,-8.88197e+08,-8.87988e+08,-8.88266e+08,-581486,0.00221924,0.496001,0,0.496006,2027.17,-32344.3,0,32407.7,581486
step02_gravity_refstate-intrusion.xmf,167,-8.58274e-07,1.00748e-05,0,-6.86389e-06,-9.02918e+08,-9.02164e+08,-9.02859e+08,-473424,-0.00156718,0.498971,-0,0.498974,1726.68,-32880.6,0,32926,473424
step02_gravity_refstate-intrusion.xmf,168,-2.86806e-06,1.6416e-05,0,-5.46068e-06,-9.17788e+08,-9.16457e+08,-9.1759e+08,-376640,-0.0042389,0.497374,-0,0.497392,1426.5,-33422.2,0,33452.6,376640
step02_gravity_refstate-intrusion.xmf,169,-6.80589e-06,2.9618e-05,0,-3.08405e-06,-9.47514e+08,-9.45002e+08,-9.47045e+08,-212716,-0.00585118,0.479787,-0,0.479823,852.529,-34505.8,0,34516.3,212716
step02_gravity_refstate-intrusion.xmf,170,-4.87706e-06,2.2913e-05,0,-4.20681e-06,-9.32515e+08,-9.30598e+08,-9.32179e+08,-290157,-0.00564325,0.491078,-0,0.49111,1135.36,-33958.8,0,33977.8,290157
step02_gravity_refstate-intrusion.xmf,171,-8.50608e-06,3.60681e-05,0,-2.01103e-06,-9.61998e+08,-9.58923e+08,-9.61411e+08,-138707,-0.00469986,0.464593,-0,0.464616,555.005,-35034.6,0,35039,138707
step02_gravity_refstate-intrusion.xmf,172,-9.70427e-06,4.2032e-05,0,9.2046e-07,-9.75548e+08,-9.7198e+08,-9.74879e+08,63487,0.00241115,0.446427,0,0.446434,-248.485,-35530.7,-0,35531.5,63487
step02_gravity_refstate-intrusion.xmf,173,8.88294e-07,4.31456e-06,0,-1.17173e-05,-8.87473e+08,-8.87236e+08,-8.87534e+08,-808182,0.00300242,0.479174,0,0.479184,2621.37,-32317.9,0,32424,808182
step02_gravity_refstate-intrusion.xmf,174,3.81866e-06,-1.04295e-05,0,-1.66441e-05,-8.33999e+08,-8.34982e+08,-8.34262e+08,-1.14799e+06,0.0240429,0.432679,0,0.433347,3635.71,-30364.1,0,30581,1.14799e+06
step02_gravity_refstate-intrusion.xmf,175,3.6254e-06,-7.46791e-06,0,-1.52648e-05,-8.49471e+08,-8.50236e+08,-8.49721e+08,-1.05286e+06,0.0178087,0.45208,0,0.45243,3286.11,-30930.3,0,31104.4,1.05286e+06
step02_gravity_refstate-intrusion.xmf,176,2.12634e-06,-3.06257e-07,0,-1.32596e-05,-8.73526e+08,-8.73694e+08,-8.73672e+08,-914558,0.0082649,0.470711,0,0.470784,2892.25,-31809.1,0,31940.3,914558
step02_gravity_refstate-intrusion.xmf,177,3.03546e-06,-4.32576e-06,0,-1.45589e-05,-8.60208e+08,-8.60715e+08,-8.60417e+08,-1.00417e+06,0.0135911,0.460565,0,0.460765,3129.79,-31322.8,0,31478.8,1.00417e+06
step02_gravity_refstate-intrusion.xmf,178,-8.42817e-06,3.61952e-05,0,-4.16551e-06,-9.63369e+08,-9.60291e+08,-9.62788e+08,-287308,-0.00972094,0.457839,-0,0.457942,1136.67,-35084.9,0,35103.3,287308
step02_gravity_refstate-intrusion.xmf,179,-9.75034e-06,4.19258e-05,0,-9.63506e-07,-9.75314e+08,-9.7175e+08,-9.74642e+08,-66456,-0.00256951,0.446756,-0,0.446764,265.365,-35521.8,0,35522.8,66456
step02_gravity_refstate-intrusion.xmf,180,-7.38996e-07,9.64878e-06,0,-1.01889e-05,-9.02227e+08,-9.0151e+08,-9.02176e+08,-702763,-0.0018639,0.483979,-0,0.483982,2346.71,-32855.4,0,32939.1,702763
step02_gravity_refstate-intrusion.xmf,181,2.94424e-06,-7.00829e-06,0,-1.7448e-05,-8.44599e+08,-8.45286e+08,-8.44802e+08,-1.20345e+06,0.0206202,0.436426,0,0.436913,3627.1,-30750.9,0,30964.1,1.20345e+06
step02_gravity_refstate-intrusion.xmf,182,6.55101e-07,4.62209e-06,0,-1.56806e-05,-8.86472e+08,-8.86198e+08,-8.86517e+08,-1.08154e+06,0.00380816,0.458259,0,0.458274,3183.84,-32280.9,0,32437.6,1.08154e+06
step02_gravity_refstate-intrusion.xmf,183,-2.61595e-06,1.5852e-05,0,-8.36563e-06,-9.17338e+08,-9.16064e+08,-9.17158e+08,-577003,-0.00583444,0.485026,-0,0.485061,2046.54,-33406.1,0,33468.7,577003
step02_gravity_refstate-intrusion.xmf,184,-4.58508e-06,2.21839e-05,0,-6.76448e-06,-9.32082e+08,-9.30236e+08,-9.31766e+08,-466567,-0.00841042,0.481724,-0,0.481798,1737.08,-33943.2,0,33987.6,466567
step02_gravity_refstate-intrusion.xmf,185,-6.5206e-06,2.86693e-05,0,-5.4029e-06,-9.46894e+08,-9.44467e+08,-9.46444e+08,-372655,-0.00967968,0.473267,-0,0.473366,1439.79,-34483.1,0,34513.2,372655
step02_gravity_refstate-intrusion.xmf,186,-9.67748e-06,4.17292e-05,0,-2.82674e-06,-9.75555e+08,-9.72009e+08,-9.74887e+08,-194969,-0.0074663,0.443901,-0,0.443964,771.868,-35530.6,0,35539,194969
step02_gravity_refstate-intrusion.xmf,187,-4.88043e-07,9.03785e-06,0,-1.38417e-05,-9.00281e+08,-8.99624e+08,-9.00248e+08,-954705,-0.0015501,0.465195,-0,0.465198,2927.74,-32784.8,0,32915.3,954705
step02_gravity_refstate-intrusion.xmf,188,2.12328e-06,-3.21045e-06,0,-1.81583e-05,-8.57695e+08,-8.58063e+08,-8.57842e+08,-1.25244e+06,0.01577,0.439999,0,0.440282,3602.3,-31229.3,0,31436.3,1.25244e+06
step02_gravity_refstate-intrusion.xmf,189,1.34403e-06,8.37926e-07,0,-1.79019e-05,-8.72647e+08,-8.72682e+08,-8.72739e+08,-1.23475e+06,0.00968528,0.445278,0,0.445384,3503.7,-31775.6,0,31968.2,1.23475e+06
step02_gravity_refstate-intrusion.xmf,190,-7.87519e-06,3.40386e-05,0,-6.63644e-06,-9.60705e+08,-9.57814e+08,-9.60161e+08,-457736,-0.0142565,0.452339,-0,0.452564,1742.04,-34987.4,0,35030.7,457736
step02_gravity_refstate-intrusion.xmf,191,-9.73951e-06,4.24543e-05,0,-4.24836e-06,-9.78263e+08,-9.74663e+08,-9.77591e+08,-293023,-0.0112368,0.436374,-0,0.436519,1141.9,-35629.9,0,35648.2,293023
step02_gravity_refstate-intrusion.xmf,192,-2.20379e-06,1.48122e-05,0,-1.23076e-05,-9.16299e+08,-9.15125e+08,-9.16147e+08,-848890,-0.00711295,0.466001,-0,0.466055,2716.24,-33368.5,0,33478.9,848890
step02_gravity_refstate-intrusion.xmf,193,-4.74893e-07,8.72886e-06,0,-1.84148e-05,-8.99276e+08,-8.98641e+08,-8.99243e+08,-1.27013e+06,-0.00142512,0.440722,-0,0.440724,3501.01,-32747.9,0,32934.5,1.27013e+06
step02_gravity_refstate-intrusion.xmf,194,3.02052e-07,5.03408e-06,0,-1.96008e-05,-8.85953e+08,-8.85626e+08,-8.85974e+08,-1.35193e+06,0.00424753,0.437198,0,0.437219,3638.77,-32261.2,0,32465.8,1.35193e+06
step02_gravity_refstate-intrusion.xmf,195,-5.97657e-06,2.71132e-05,0,-8.07403e-06,-9.45639e+08,-9.43356e+08,-9.45226e+08,-556891,-0.0131882,0.463013,-0,0.463201,2042.34,-34437.5,0,34498.1,556891
step02_gravity_refstate-intrusion.xmf,196,-4.11109e-06,2.1127e-05,0,-9.89525e-06,-9.31713e+08,-9.29972e+08,-9.31429e+08,-682506,-0.0110248,0.467165,-0,0.467295,2358.75,-33930.2,0,34012.1,682506
step02_gravity_refstate-intrusion.xmf,197,-9.14144e-06,3.98452e-05,0,-5.47482e-06,-9.73327e+08,-9.69949e+08,-9.72697e+08,-377615,-0.0137586,0.439786,-0,0.440001,1463.36,-35449.2,0,35479.4,377615
step02_gravity_refstate-intrusion.xmf,198,-9.13603e-06,4.00843e-05,0,-7.05525e-06,-9.75825e+08,-9.72431e+08,-9.75195e+08,-486622,-0.0176332,0.429849,-0,0.43021,1852.34,-35540.5,0,35588.7,486622
step02_gravity_refstate-intrusion.xmf,199,-8.08609e-06,3.58034e-05,0,-8.21824e-06,-9.67053e+08,-9.64026e+08,-9.66496e+08,-566837,-0.0184088,0.436762,-0,0.43715,2115.33,-35219.9,0,35283.3,566837
step02_gravity_refstate-intrusion.xmf,200,-1.30576e-06,1.19997e-05,0,-1.57303e-05,-9.09925e+08,-9.09008e+08,-9.09835e+08,-1.08497e+06,-0.00552635,0.451418,-0,0.451452,3177.66,-33136.4,0,33288.4,1.08497e+06
step02_gravity_refstate-intrusion.xmf,201,-6.89643e-06,3.12598e-05,0,-9.41641e-06,-9.57322e+08,-9.5469e+08,-9.56846e+08,-649479,-0.0180044,0.443149,-0,0.443515,2347.05,-34864.5,0,34943.4,649479
step02_gravity_refstate-intrusion.xmf,202,-8.74646e-06,3.93063e-05,0,-9.0612e-06,-9.77255e+08,-9.73941e+08,-9.76652e+08,-624979,-0.021979,0.41827,-0,0.418847,2315.95,-35593,0,35668.3,624979
step02_gravity_refstate-intrusion.xmf,203,-2.20692e-06,1.53258e-05,0,-1.54295e-05,-9.19893e+08,-9.18684e+08,-9.19741e+08,-1.06422e+06,-0.00940893,0.447455,-0,0.447554,3153.37,-33500,0,33648.1,1.06422e+06
step02_gravity_refstate-intrusion.xmf,204,-1.39645e-06,1.28084e-05,0,-1.90604e-05,-9.13569e+08,-9.12589e+08,-9.13472e+08,-1.31466e+06,-0.00757727,0.431424,-0,0.431491,3575.37,-33269.7,0,33461.3,1.31466e+06
step02_gravity_refstate-intrusion.xmf,205,-5.24891e-06,2.54137e-05,0,-1.11987e-05,-9.45052e+08,-9.42937e+08,-9.4469e+08,-772408,-0.0163296,0.447849,-0,0.448146,2629.31,-34416.8,0,34517.1,772408
step02_gravity_refstate-intrusion.xmf,206,-3.52542e-06,1.98778e-05,0,-1.3855e-05,-9.32185e+08,-9.30571e+08,-9.31942e+08,-955621,-0.013578,0.446156,-0,0.446363,2987.91,-33948.1,0,34079.3,955621
step02_gravity_refstate-intrusion.xmf,207,-7.3368e-06,3.38595e-05,0,-1.07461e-05,-9.66685e+08,-9.63843e+08,-9.66179e+08,-741192,-0.02241,0.42403,-0,0.424622,2643.49,-35206.9,0,35306,741192
step02_gravity_refstate-intrusion.xmf,208,-2.28675e-06,1.65833e-05,0,-1.84844e-05,-9.26506e+08,-9.25204e+08,-9.26348e+08,-1.27492e+06,-0.0129504,0.426179,-0,0.426376,3540.87,-33742,0,33927.2,1.27492e+06
step02_gravity_refstate-intrusion.xmf,209,-5.88454e-06,2.8961e-05,0,-1.25888e-05,-9.56846e+08,-9.54442e+08,-9.5644e+08,-868292,-0.0216002,0.426452,-0,0.426999,2928.48,-34848.1,0,34971,868292
step02_gravity_refstate-intrusion.xmf,210,-7.92138e-06,3.73419e-05,0,-1.1396e-05,-9.77577e+08,-9.74455e+08,-9.7703e+08,-786020,-0.0262277,0.404847,-0,0.405695,2819.78,-35605.5,0,35716.9,786020
step02_gravity_refstate-intrusion.xmf,211,-4.52228e-06,2.4256e-05,0,-1.42813e-05,-9.45862e+08,-9.43877e+08,-9.4555e+08,-985024,-0.0189463,0.430503,-0,0.43092,3110.78,-34447.6,0,34587.8,985024
step02_gravity_refstate-intrusion.xmf,212,-6.14344e-06,3.12517e-05,0,-1.37615e-05,-9.66928e+08,-9.64349e+08,-9.66504e+08,-949175,-0.0261255,0.40661,-0,0.407448,3181.61,-35217,0,35360.4,949175
step02_gravity_refstate-intrusion.xmf,213,-3.17358e-06,2.05689e-05,0,-1.78417e-05,-9.39992e+08,-9.38354e+08,-9.39773e+08,-1.2306e+06,-0.018365,0.41761,-0,0.418014,3528.58,-34234.5,0,34415.8,1.2306e+06
step02_gravity_refstate-intrusion.xmf,214,-4.31061e-06,2.55047e-05,0,-1.64411e-05,-9.5522e+08,-9.53164e+08,-9.54923e+08,-1.13399e+06,-0.0238945,0.407015,-0,0.407716,3479.6,-34790.6,0,34964.2,1.13399e+06
step02_gravity_refstate-intrusion.xmf,215,-6.77399e-06,3.47369e-05,0,-1.3756e-05,-9.77908e+08,-9.75045e+08,-9.77441e+08,-948793,-0.0297069,0.389845,-0,0.390976,3282.8,-35618.6,0,35769.6,948793
step02_gravity_refstate-intrusion.xmf,216,-4.83771e-06,2.89054e-05,0,-1.65272e-05,-9.68684e+08,-9.66357e+08,-9.6835e+08,-1.13993e+06,-0.0289949,0.388279,-0,0.38936,3605.79,-35283,0,35466.7,1.13993e+06
step02_gravity_refstate-intrusion.xmf,217,-5.50856e-06,3.24095e-05,0,-1.57741e-05,-9.78335e+08,-9.7572e+08,-9.77955e+08,-1.08799e+06,-0.0319629,0.376318,-0,0.377673,3636.36,-35636.1,0,35821.1,1.08799e+06
step02_gravity_refstate-crust.xmf,0,1.17328e-06,5.04159e-06,0,1.36349e-07,-1.09838e+09,-1.09811e+09,-1.09846e+09,9353.56,0.00259276,0.0555236,0,0.0555841,-37797.2,-40000,-0,55033,9353.56
step02_gravity_refstate-crust.xmf,1,1.18137e-06,5.01769e-06,0,1.79669e-09,-1.09838e+09,-1.09811e+09,-1.09846e+09,123.253,2.72967e-19,0.0551388,0,0.0551388,-40000,-40000,-0,56568.5,123.253
step02_gravity_refstate-crust.xmf,2,1.15193e-06,5.10247e-06,0,2.69841e-07,-1.09837e+09,-1.0981e+09,-1.09845e+09,18511.1,0.00503335,0.0566156,0,0.0568389,-35698.5,-40000,-0,53613.3,18511.1
step02_gravity_refstate-crust.xmf,3,1.12018e-06,5.19581e-06,0,4.0741e-07,-1.09837e+09,-1.09809e+09,-1.09845e+09,27948.4,0.00730602,0.0583382,0,0.0587939,-33698.8,-40000,-0,52303,27948.4
step02_gravity_refstate-crust.xmf,4,1.08073e-06,5.31731e-06,0,5.52491e-07,-1.09837e+09,-1.09808e+09,-1.09845e+09,37900.9,0.00940411,0.0606335,0,0.0613584,-31793.3,-40000,-0,51096.1,37900.9
step02_gravity_refstate-crust.xmf,5,1.0364e-06,5.46233e-06,0,7.09215e-07,-1.09837e+09,-1.09807e+09,-1.09844e+09,48652.1,0.0113275,0.0634573,0,0.0644604,-29977.6,-40000,-0,49986.5,48652.1
step02_gravity_refstate-crust.xmf,6,9.89835e-07,5.62749e-06,0,8.81429e-07,-1.09837e+09,-1.09805e+09,-1.09844e+09,60466,0.0130819,0.0667754,0,0.0680448,-28247.1,-40000,-0,48968.3,60466
step02_gravity_refstate-crust.xmf,7,9.43341e-07,5.81009e-06,0,1.07189e-06,-1.09837e+09,-1.09803e+09,-1.09843e+09,73531.6,0.0146774,0.070561,0,0.0720714,-26597.7,-40000,-0,48035.8,73531.6
step02_gravity_refstate-crust.xmf,8,8.99169e-07,6.00938e-06,0,1.28215e-06,-1.09836e+09,-1.09801e+09,-1.09843e+09,87955.5,0.0161271,0.0747928,0,0.0765117,-25025.6,-40000,-0,47183.5,87955.5
step02_gravity_refstate-crust.xmf,9,8.58553e-07,6.22276e-06,0,1.51954e-06,-1.09836e+09,-1.09799e+09,-1.09842e+09,104240,0.0174454,0.0794533,0,0.0813459,-23526.8,-40000,-0,46405.9,104240
step02_gravity_refstate-crust.xmf,10,8.23739e-07,6.45103e-06,0,1.78655e-06,-1.09835e+09,-1.09797e+09,-1.09841e+09,122557,0.0186487,0.0845283,0,0.086561,-22097.7,-40000,-0,45698,122557
step02_gravity_refstate-crust.xmf,11,7.46697e-07,7.56931e-06,0,3.22004e-06,-1.09832e+09,-1.09785e+09,-1.09837e+09,220895,0.0226143,0.108748,0,0.111074,-17010.7,-40000,-0,43466.8,220895
step02_gravity_refstate-crust.xmf,12,7.58765e-07,7.23611e-06,0,2.78479e-06,-1.09833e+09,-1.09788e+09,-1.09838e+09,191037,0.0217236,0.102124,0,0.104409,-18194.5,-40000,-0,43943.6,191037
step02_gravity_refstate-crust.xmf,13,7.38577e-07,7.92551e-06,0,3.69288e-06,-1.0983e+09,-1.09781e+09,-1.09835e+09,253332,0.0234544,0.115735,0,0.118088,-15880.5,-40000,-0,43037.1,253332
step02_gravity_refstate-crust.xmf,14,7.28733e-07,8.32919e-06,0,4.22121e-06,-1.09828e+09,-1.09776e+09,-1.09833e+09,289575,0.0242482,0.123078,0,0.125444,-14800.9,-40000,-0,42650.5,289575
step02_gravity_refstate-crust.xmf,15,7.95095e-07,6.69794e-06,0,2.08372e-06,-1.09835e+09,-1.09794e+09,-1.0984e+09,142943,0.0197533,0.0900052,0,0.0921473,-20734.8,-40000,-0,45054.8,142943
step02_gravity_refstate-crust.xmf,16,7.74529e-07,6.94915e-06,0,2.40917e-06,-1.09834e+09,-1.09791e+09,-1.09839e+09,165269,0.0207736,0.0958737,0,0.0980984,-19434.8,-40000,-0,44471.5,165269
step02_gravity_refstate-crust.xmf,17,7.1629e-07,8.79263e-06,0,4.80901e-06,-1.09827e+09,-1.09771e+09,-1.09832e+09,329898,0.0249953,0.130766,0,0.133133,-13769.1,-40000,-0,42303.5,329898
step02_gravity_refstate-crust.xmf,18,4.59165e-07,1.15929e-05,0,7.76541e-06,-1.09818e+09,-1.09741e+09,-1.09821e+09,532707,0.0273255,0.16468,0,0.166932,-10064.5,-40000,-0,41246.8,532707
step02_gravity_refstate-crust.xmf,19,5.74297e-07,1.06929e-05,0,6.92196e-06,-1.0982e+09,-1.09751e+09,-1.09824e+09,474847,0.0268772,0.155765,0,0.158066,-10932.8,-40000,-0,41467.2,474847
step02_gravity_refstate-crust.xmf,20,6.47594e-07,9.94162e-06,0,6.15135e-06,-1.09823e+09,-1.09759e+09,-1.09827e+09,421983,0.0263242,0.147125,0,0.149461,-11837.8,-40000,-0,41714.9,421983
step02_gravity_refstate-crust.xmf,21,2.8725e-07,1.26546e-05,0,8.60576e-06,-1.09815e+09,-1.0973e+09,-1.09817e+09,590355,0.0276356,0.173833,0,0.176016,-9230.72,-40000,-0,41051.3,590355
step02_gravity_refstate-crust.xmf,22,6.93206e-07,9.30766e-06,0,5.44201e-06,-1.09825e+09,-1.09766e+09,-1.09829e+09,373322,0.0256907,0.138786,0,0.141144,-12782.4,-40000,-0,41992.7,373322
step02_gravity_refstate-crust.xmf,23,4.13367e-08,1.39152e-05,0,9.46881e-06,-1.09812e+09,-1.09717e+09,-1.09813e+09,649560,0.0277658,0.183172,0,0.185264,-8429.03,-40000,-0,40878.5,649560
step02_gravity_refstate-crust.xmf,24,-7.2208e-07,1.70667e-05,0,1.10095e-05,-1.09807e+09,-1.09685e+09,-1.09802e+09,755249,0.0272863,0.202154,0,0.203987,-6909.43,-40000,-0,40592.4,755249
step02_gravity_refstate-crust.xmf,25,-2.92767e-07,1.53766e-05,0,1.02603e-05,-1.0981e+09,-1.09702e+09,-1.09808e+09,703858,0.0276687,0.192638,0,0.194615,-7656.37,-40000,-0,40726.2,703858
step02_gravity_refstate-crust.xmf,26,-1.26994e-06,1.89984e-05,0,1.15545e-05,-1.09805e+09,-1.09666e+09,-1.09797e+09,792642,0.026559,0.211622,0,0.213283,-6184.51,-40000,-0,40475.3,792642
step02_gravity_refstate-crust.xmf,27,-1.92482e-06,2.11541e-05,0,1.18381e-05,-1.09803e+09,-1.09645e+09,-1.0979e+09,812091,0.0254239,0.220917,0,0.222375,-5477.46,-40000,-0,40373.3,812091
step02_gravity_refstate-crust.xmf,28,-2.6655e-06,2.34711e-05,0,1.17558e-05,-1.09802e+09,-1.09622e+09,-1.09784e+09,806445,0.0238243,0.229885,0,0.231116,-4783.65,-40000,-0,40285,806445
step02_gravity_refstate-crust.xmf,29,-3.46249e-06,2.58497e-05,0,1.12291e-05,-1.09801e+09,-1.09599e+09,-1.09777e+09,770313,0.0217179,0.238343,0,0.239331,-4097.91,-40000,-0,40209.4,770313
step02_gravity_refstate-crust.xmf,30,-4.24316e-06,2.81565e-05,0,1.02105e-05,-1.09799e+09,-1.09577e+09,-1.0977e+09,700440,0.0190843,0.246082,0,0.246821,-3414.86,-40000,-0,40145.5,700440
step02_gravity_refstate-crust.xmf,31,-4.94617e-06,3.02311e-05,0,8.73032e-06,-1.09798e+09,-1.09557e+09,-1.09764e+09,598900,0.0159419,0.252849,0,0.253351,-2731.89,-40000,-0,40093.2,598900
step02_gravity_refstate-crust.xmf,32,-5.52838e-06,3.19475e-05,0,6.86383e-06,-1.09798e+09,-1.0954e+09,-1.0976e+09,470859,0.0123603,0.258385,0,0.25868,-2048.93,-40000,-0,40052.4,470859
step02_gravity_refstate-crust.xmf,33,-5.96182e-06,3.32233e-05,0,4.71067e-06,-1.09797e+09,-1.09528e+09,-1.09756e+09,323152,0.00843538,0.262484,0,0.262619,-1365.96,-40000,-0,40023.3,323152
step02_gravity_refstate-crust.xmf,34,-6.221e-06,3.40276e-05,0,-2.43973e-06,-1.09796e+09,-1.0952e+09,-1.09754e+09,-167366,-0.00427575,0.264999,-0,0.265034,682.988,-40000,0,40005.8,167366
step02_gravity_refstate-crust.xmf,35,-6.30116e-06,3.42836e-05,0,2.43203e-08,-1.09796e+09,-1.09518e+09,-1.09753e+09,1668.37,5.29732e-07,0.265848,0,0.265848,0,-40000,0,40000,1668.37
step02_gravity_refstate-crust.xmf,36,-6.21714e-06,3.40239e-05,0,2.4405e-06,-1.09796e+09,-1.0952e+09,-1.09754e+09,167418,0.00427645,0.265,0,0.265034,-682.988,-40000,-0,40005.8,167418
step02_gravity_refstate-crust.xmf,37,-5.96378e-06,3.32788e-05,0,-4.76076e-06,-1.09797e+09,-1.09528e+09,-1.09756e+09,-326588,-0.00843539,0.262483,-0,0.262619,1365.96,-40000,0,40023.3,326588
step02_gravity_refstate-crust.xmf,38,-5.54017e-06,3.20299e-05,0,-6.90003e-06,-1.09797e+09,-1.0954e+09,-1.09759e+09,-473342,-0.0123609,0.258384,-0,0.25868,2048.93,-40000,0,40052.4,473342
step02_gravity_refstate-crust.xmf,39,-4.26295e-06,2.82813e-05,0,-1.02299e-05,-1.09799e+09,-1.09576e+09,-1.0977e+09,-701772,-0.0190826,0.246082,-0,0.246821,3414.86,-40000,0,40145.5,701772
step02_gravity_refstate-crust.xmf,40,-4.94424e-06,3.02297e-05,0,-8.7305e-06,-1.09798e+09,-1.09557e+09,-1.09764e+09,-598912,-0.0159411,0.252848,-0,0.253351,2731.89,-40000,0,40093.2,598912
step02_gravity_refstate-crust.xmf,41,-3.47863e-06,2.59876e-05,0,-1.12373e-05,-1.098e+09,-1.09598e+09,-1.09776e+09,-770881,-0.0217174,0.238343,-0,0.23933,4097.91,-40000,0,40209.4,770881
step02_gravity_refstate-crust.xmf,42,-2.68567e-06,2.36033e-05,0,-1.17569e-05,-1.09801e+09,-1.09621e+09,-1.09783e+09,-806524,-0.0238246,0.229885,-0,0.231116,4783.65,-40000,0,40285,806524
step02_gravity_refstate-crust.xmf,43,-1.93982e-06,2.12673e-05,0,-1.18323e-05,-1.09803e+09,-1.09644e+09,-1.0979e+09,-811696,-0.025424,0.220916,-0,0.222375,5477.46,-40000,0,40373.3,811696
step02_gravity_refstate-crust.xmf,44,-1.27946e-06,1.90802e-05,0,-1.15437e-05,-1.09805e+09,-1.09665e+09,-1.09796e+09,-791897,-0.0265592,0.211621,-0,0.213281,6184.51,-40000,0,40475.3,791897
step02_gravity_refstate-crust.xmf,45,-7.30863e-07,1.71132e-05,0,-1.09896e-05,-1.09807e+09,-1.09685e+09,-1.09802e+09,-753886,-0.0272871,0.202154,-0,0.203987,6909.43,-40000,0,40592.4,753886
step02_gravity_refstate-crust.xmf,46,-2.95033e-07,1.53856e-05,0,-1.02625e-05,-1.0981e+09,-1.09702e+09,-1.09808e+09,-704006,-0.0276682,0.192638,-0,0.194614,7656.37,-40000,0,40726.2,704006
step02_gravity_refstate-crust.xmf,47,3.73731e-08,1.39071e-05,0,-9.44757e-06,-1.09812e+09,-1.09717e+09,-1.09813e+09,-648103,-0.0277658,0.183172,-0,0.185264,8429.03,-40000,0,40878.5,648103
step02_gravity_refstate-crust.xmf,48,2.82491e-07,1.26562e-05,0,-8.59025e-06,-1.09815e+09,-1.0973e+09,-1.09817e+09,-589291,-0.0276352,0.173832,-0,0.176015,9230.72,-40000,0,41051.3,589291
step02_gravity_refstate-crust.xmf,49,4.56627e-07,1.15855e-05,0,-7.73799e-06,-1.09818e+09,-1.09741e+09,-1.09821e+09,-530826,-0.0273252,0.16468,-0,0.166932,10064.5,-40000,0,41246.8,530826
step02_gravity_refstate-crust.xmf,50,5.74501e-07,1.06915e-05,0,-6.91998e-06,-1.0982e+09,-1.09751e+09,-1.09824e+09,-474711,-0.0268773,0.155765,-0,0.158066,10932.8,-40000,0,41467.2,474711
step02_gravity_refstate-crust.xmf,51,6.49081e-07,9.93948e-06,0,-6.15055e-06,-1.09823e+09,-1.09759e+09,-1.09827e+09,-421928,-0.0263244,0.147125,-0,0.149462,11837.8,-40000,0,41714.9,421928
step02_gravity_refstate-crust.xmf,52,6.94069e-07,9.30575e-06,0,-5.44145e-06,-1.09825e+09,-1.09766e+09,-1.09829e+09,-373283,-0.0256911,0.138786,-0,0.141144,12782.4,-40000,0,41992.7,373283
step02_gravity_refstate-crust.xmf,53,7.18591e-07,8.76639e-06,0,-4.79262e-06,-1.09827e+09,-1.09772e+09,-1.09832e+09,-328774,-0.0249952,0.130766,-0,0.133133,13769.1,-40000,0,42303.5,328774
step02_gravity_refstate-crust.xmf,54,7.31655e-07,8.30546e-06,0,-4.20615e-06,-1.09829e+09,-1.09777e+09,-1.09834e+09,-288542,-0.0242479,0.123078,-0,0.125444,14800.9,-40000,0,42650.5,288542
step02_gravity_refstate-crust.xmf,55,7.39963e-07,7.9051e-06,0,-3.67866e-06,-1.0983e+09,-1.09781e+09,-1.09835e+09,-252356,-0.0234543,0.115736,-0,0.118088,15880.5,-40000,0,43037.1,252356
step02_gravity_refstate-crust.xmf,56,7.47869e-07,7.55201e-06,0,-3.20615e-06,-1.09832e+09,-1.09785e+09,-1.09837e+09,-219942,-0.0226144,0.108748,-0,0.111074,17010.7,-40000,0,43466.8,219942
step02_gravity_refstate-crust.xmf,57,7.59495e-07,7.23365e-06,0,-2.78265e-06,-1.09833e+09,-1.09788e+09,-1.09838e+09,-190890,-0.0217239,0.102124,-0,0.104409,18194.5,-40000,0,43943.6,190890
step02_gravity_refstate-crust.xmf,58,7.75127e-07,6.94418e-06,0,-2.40666e-06,-1.09834e+09,-1.09792e+09,-1.09839e+09,-165097,-0.0207737,0.095874,-0,0.0980988,19434.8,-40000,0,44471.5,165097
step02_gravity_refstate-crust.xmf,59,7.96529e-07,6.6835e-06,0,-2.07377e-06,-1.09835e+09,-1.09794e+09,-1.0984e+09,-142261,-0.019753,0.0900052,-0,0.0921473,20734.8,-40000,0,45054.8,142261
step02_gravity_refstate-crust.xmf,60,8.25242e-07,6.44019e-06,0,-1.77693e-06,-1.09835e+09,-1.09797e+09,-1.09841e+09,-121897,-0.0186487,0.0845281,-0,0.0865608,22097.7,-40000,0,45698,121897
step02_gravity_refstate-crust.xmf,61,8.60872e-07,6.21048e-06,0,-1.51075e-06,-1.09836e+09,-1.09799e+09,-1.09842e+09,-103637,-0.0174456,0.0794534,-0,0.0813461,23526.8,-40000,0,46405.9,103637
step02_gravity_refstate-crust.xmf,62,9.00798e-07,5.99721e-06,0,-1.2756e-06,-1.09836e+09,-1.09802e+09,-1.09843e+09,-87506.5,-0.0161269,0.074793,-0,0.0765119,25025.6,-40000,0,47183.5,87506.5
step02_gravity_refstate-crust.xmf,63,9.44723e-07,5.80133e-06,0,-1.06558e-06,-1.09837e+09,-1.09804e+09,-1.09843e+09,-73099.1,-0.0146774,0.0705611,-0,0.0720714,26597.7,-40000,0,48035.8,73099.1
step02_gravity_refstate-crust.xmf,64,9.90922e-07,5.62138e-06,0,-8.77213e-07,-1.09837e+09,-1.09805e+09,-1.09844e+09,-60176.8,-0.0130819,0.0667753,-0,0.0680446,28247.1,-40000,0,48968.3,60176.8
step02_gravity_refstate-crust.xmf,65,1.0377e-06,5.45755e-06,0,-7.04917e-07,-1.09837e+09,-1.09807e+09,-1.09844e+09,-48357.3,-0.0113276,0.0634571,-0,0.0644602,29977.6,-40000,0,49986.5,48357.3
step02_gravity_refstate-crust.xmf,66,1.08189e-06,5.31185e-06,0,-5.4857e-07,-1.09837e+09,-1.09808e+09,-1.09845e+09,-37631.9,-0.00940396,0.0606334,-0,0.0613583,31793.3,-40000,0,51096.1,37631.9
step02_gravity_refstate-crust.xmf,67,1.121e-06,5.19206e-06,0,-4.03795e-07,-1.09837e+09,-1.0981e+09,-1.09845e+09,-27700.4,-0.00730595,0.0583382,-0,0.0587939,33698.8,-40000,0,52303,27700.4
step02_gravity_refstate-crust.xmf,68,1.15262e-06,5.09954e-06,0,-2.65983e-07,-1.09838e+09,-1.0981e+09,-1.09845e+09,-18246.4,-0.00503344,0.0566157,-0,0.056839,35698.5,-40000,0,53613.3,18246.4
step02_gravity_refstate-crust.xmf,69,1.18136e-06,5.01773e-06,0,-1.84276e-09,-1.09838e+09,-1.09811e+09,-1.09846e+09,-126.414,-8.81724e-20,0.0551388,-0,0.0551388,40000,-40000,0,56568.5,126.414
step02_gravity_refstate-crust.xmf,70,1.17333e-06,5.04143e-06,0,-1.36718e-07,-1.09838e+09,-1.09811e+09,-1.09846e+09,-9378.85,-0.00259267,0.0555237,-0,0.0555842,37797.2,-40000,0,55033,9378.85
step02_gravity_refstate-crust.xmf,71,-2.11714e-06,1.39191e-06,0,-1.77405e-09,-1.47072e+08,-1.46831e+08,-1.46926e+08,-121.7,-8.33676e-19,0.168373,-0,0.168373,-40000,-5347.88,-0,40355.9,121.7
step02_gravity_refstate-crust.xmf,72,-2.34639e-06,1.31992e-06,0,1.37766e-07,-1.12471e+08,-1.1222e+08,-1.1231e+08,9450.77,-0.00515534,0.170898,-0,0.170975,-37823.8,-4087.17,-0,38044,9450.77
step02_gravity_refstate-crust.xmf,73,-2.69089e-06,1.28949e-06,0,1.5549e-09,-7.47702e+07,-7.44971e+07,-7.45856e+07,106.666,-3.92079e-19,0.171899,-0,0.171899,-40000,-2713.19,-0,40091.9,106.666
step02_gravity_refstate-crust.xmf,74,-1.88059e-06,1.4771e-06,0,1.99046e-07,-1.81907e+08,-1.81677e+08,-1.81778e+08,13654.5,-0.00412215,0.167359,-0,0.167409,-37824.5,-6617.18,-0,38399,13654.5
step02_gravity_refstate-crust.xmf,75,-1.69594e-06,1.5553e-06,0,4.00602e-07,-2.08417e+08,-2.08194e+08,-2.08301e+08,27481.3,-0.00696622,0.167853,-0,0.167998,-35985.1,-7583.18,-0,36775.5,27481.3
step02_gravity_refstate-crust.xmf,76,-2.03264e-06,1.36435e-06,0,3.58301e-07,-1.46698e+08,-1.46465e+08,-1.46559e+08,24579.5,-0.00943665,0.171844,-0,0.172103,-35503.6,-5334.58,-0,35902.1,24579.5
step02_gravity_refstate-crust.xmf,77,-1.68434e-06,1.52024e-06,0,6.0062e-07,-2.01507e+08,-2.01287e+08,-2.01392e+08,41202.5,-0.0105234,0.17168,-0,0.172002,-33993.1,-7331.61,-0,34774.7,41202.5
step02_gravity_refstate-crust.xmf,78,-2.87246e-06,1.27513e-06,0,6.43271e-08,-5.33955e+07,-5.3111e+07,-5.31985e+07,4412.84,-0.00559036,0.173531,-0,0.173621,-38064.7,-1934.27,-0,38113.8,4412.84
step02_gravity_refstate-crust.xmf,79,-3.47361e-06,1.32856e-06,0,-1.34953e-08,-329523,-94.0883,-91233.3,-925.775,-2.81027e-19,0.175421,-0,0.175421,-40000,0,-0,40000,925.775
step02_gravity_refstate-crust.xmf,80,-1.45417e-06,1.74018e-06,0,5.64961e-07,-2.57155e+08,-2.56936e+08,-2.57055e+08,38756.4,-0.00741608,0.166395,-0,0.166561,-35039.2,-9358.79,-0,36267.5,38756.4
step02_gravity_refstate-crust.xmf,81,-1.51019e-06,1.72949e-06,0,2.74485e-07,-2.54825e+08,-2.54603e+08,-2.54722e+08,18829.7,-0.00369301,0.16331,-0,0.163352,-37565.3,-9273.73,-0,38693.1,18829.7
step02_gravity_refstate-crust.xmf,82,-1.69765e-06,1.59228e-06,0,-8.59588e-10,-2.17422e+08,-2.17197e+08,-2.17306e+08,-58.9677,-7.46383e-19,0.16455,-0,0.16455,-40000,-7911.08,-0,40774.8,58.9677
step02_gravity_refstate-crust.xmf,83,-1.5971e-06,1.4905e-06,0,8.30394e-07,-1.99694e+08,-1.99482e+08,-1.99585e+08,56965,-0.0142177,0.177164,-0,0.177733,-31781.7,-7265.91,-0,32601.7,56965
step02_gravity_refstate-crust.xmf,84,-1.41456e-06,1.72306e-06,0,8.24778e-07,-2.53689e+08,-2.53473e+08,-2.53592e+08,56579.8,-0.0107241,0.171277,-0,0.171613,-32813.8,-9232.74,-0,34087.9,56579.8
step02_gravity_refstate-crust.xmf,85,-1.90776e-06,1.3465e-06,0,5.77702e-07,-1.50796e+08,-1.50572e+08,-1.50665e+08,39630.4,-0.014262,0.176565,-0,0.17714,-32986,-5484.23,-0,33438.8,39630.4
step02_gravity_refstate-crust.xmf,86,-2.66716e-06,1.2507e-06,0,1.81421e-07,-6.82413e+07,-6.79725e+07,-6.80583e+07,12445.5,-0.011509,0.175182,-0,0.17556,-35771.6,-2475.54,-0,35857.2,12445.5
step02_gravity_refstate-crust.xmf,87,-3.42206e-06,1.3031e-06,0,-9.9045e-09,-324877,-730.585,-90123.6,-679.449,-0.00952406,0.176648,-0,0.176905,-37239.8,0,-0,37239.8,679.449
step02_gravity_refstate-crust.xmf,88,-1.36503e-06,1.69661e-06,0,1.08683e-06,-2.49935e+08,-2.49725e+08,-2.49841e+08,74556.8,-0.0138733,0.177655,-0,0.178196,-30648.3,-9096.24,-0,31969.7,74556.8
step02_gravity_refstate-crust.xmf,89,-2.26822e-06,1.26006e-06,0,3.69001e-07,-1.04852e+08,-1.0461e+08,-1.04696e+08,25313.5,-0.0142723,0.176511,-0,0.177088,-34004.8,-3810,-0,34217.6,25313.5
step02_gravity_refstate-crust.xmf,90,-1.21046e-06,1.94221e-06,0,1.32111e-06,-2.98562e+08,-2.98346e+08,-2.98479e+08,90628.2,-0.0134887,0.178001,-0,0.178511,-29592.6,-10867.6,-0,31525,90628.2
step02_gravity_refstate-crust.xmf,91,-1.13604e-06,1.88883e-06,0,1.64574e-06,-2.90993e+08,-2.90785e+08,-2.90915e+08,112898,-0.0165951,0.188044,-0,0.188775,-27180,-10592.2,-0,29171,112898
step02_gravity_refstate-crust.xmf,92,-1.12408e-06,2.17408e-06,0,1.58368e-06,-3.37685e+08,-3.37459e+08,-3.37608e+08,108640,-0.0138831,0.180518,-0,0.181051,-28154.7,-12292.6,-0,30721.3,108640
step02_gravity_refstate-crust.xmf,93,-1.07548e-06,2.15651e-06,0,1.8787e-06,-3.34976e+08,-3.34754e+08,-3.34902e+08,128879,-0.0161191,0.189228,-0,0.189914,-26195.3,-12194.1,-0,28894.5,128879
step02_gravity_refstate-crust.xmf,94,-1.07425e-06,2.45339e-06,0,1.79021e-06,-3.80913e+08,-3.80671e+08,-3.80839e+08,122808,-0.0137904,0.181525,-0,0.182048,-27047.9,-13867,-0,30395.4,122808
step02_gravity_refstate-crust.xmf,95,-1.24642e-06,1.96688e-06,0,1.04471e-06,-3.04009e+08,-3.03788e+08,-3.03923e+08,71666.8,-0.010777,0.170967,-0,0.171307,-31664.6,-11065.7,-0,33542.5,71666.8
step02_gravity_refstate-crust.xmf,96,-1.25915e-06,1.97367e-06,0,7.63425e-07,-3.08193e+08,-3.07971e+08,-3.08107e+08,52370.9,-0.00794473,0.165257,-0,0.165448,-33835.5,-11218,-0,35646.6,52370.9
step02_gravity_refstate-crust.xmf,97,-1.2718e-06,1.97354e-06,0,4.91373e-07,-3.10641e+08,-3.10418e+08,-3.10554e+08,33708.2,-0.00515464,0.161301,-0,0.161383,-35993.1,-11307.1,-0,37727.4,33708.2
step02_gravity_refstate-crust.xmf,98,-1.38218e-06,1.85396e-06,0,4.62731e-10,-2.8601e+08,-2.85788e+08,-2.85915e+08,31.7433,-4.79873e-19,0.160243,-0,0.160243,-40000,-10409.7,-0,41332.3,31.7433
step02_gravity_refstate-crust.xmf,99,-1.25542e-06,1.65541e-06,0,1.35093e-06,-2.46226e+08,-2.46026e+08,-2.4614e+08,92673.6,-0.016897,0.18563,-0,0.186398,-28467.2,-8961.58,-0,29844.5,92673.6
step02_gravity_refstate-crust.xmf,100,-1.47572e-06,1.44602e-06,0,1.06443e-06,-1.97618e+08,-1.97417e+08,-1.97516e+08,73020,-0.0176942,0.184236,-0,0.185083,-29581.4,-7190.73,-0,30442.8,73020
step02_gravity_refstate-crust.xmf,101,-1.76225e-06,1.29539e-06,0,7.75723e-07,-1.50102e+08,-1.49893e+08,-1.49981e+08,53214.6,-0.0184752,0.182861,-0,0.183792,-30708.8,-5459.5,-0,31190.3,53214.6
step02_gravity_refstate-crust.xmf,102,-2.14427e-06,1.20545e-06,0,4.94656e-07,-1.02201e+08,-1.01971e+08,-1.02053e+08,33933.4,-0.0191048,0.181636,-0,0.182638,-31879.4,-3713.9,-0,32095,33933.4
step02_gravity_refstate-crust.xmf,103,-2.62849e-06,1.18684e-06,0,2.38273e-07,-5.46675e+07,-5.44057e+07,-5.44872e+07,16345.5,-0.0190878,0.18052,-0,0.181526,-33172.8,-1981.43,-0,33231.9,16345.5
step02_gravity_refstate-crust.xmf,104,-3.29074e-06,1.25342e-06,0,-3.46065e-09,-312396,-666.8,-86651.4,-237.4,-0.0184518,0.180138,-0,0.181081,-34578.2,0,-0,34578.2,237.4
step02_gravity_refstate-crust.xmf,105,-1.05572e-06,2.44324e-06,0,2.09212e-06,-3.77923e+08,-3.77683e+08,-3.77851e+08,143520,-0.0158755,0.19054,-0,0.1912,-25176.7,-13758.2,-0,28690.6,143520
step02_gravity_refstate-crust.xmf,106,-1.11448e-06,2.27577e-06,0,1.28292e-06,-3.59326e+08,-3.59094e+08,-3.5925e+08,88008.6,-0.0108143,0.170792,-0,0.171134,-30334.5,-13080.6,-0,33034.6,88008.6
step02_gravity_refstate-crust.xmf,107,-1.07734e-06,2.45566e-06,0,1.53295e-06,-3.84999e+08,-3.84756e+08,-3.84925e+08,105160,-0.0119016,0.174404,-0,0.174809,-28697.2,-14015.7,-0,31937,105160
step02_gravity_refstate-crust.xmf,108,-1.24329e-06,2.01887e-06,0,2.34965e-07,-3.22909e+08,-3.22685e+08,-3.22824e+08,16118.6,-0.0023807,0.15827,-0,0.158288,-38088.4,-11753.9,-0,39860.7,16118.6
step02_gravity_refstate-crust.xmf,109,-1.04494e-06,1.84943e-06,0,1.91402e-06,-2.89073e+08,-2.88874e+08,-2.89001e+08,131302,-0.0187169,0.196849,-0,0.197737,-25301.5,-10522.6,-0,27402.4,131302
step02_gravity_refstate-crust.xmf,110,-1.00886e-06,2.11863e-06,0,2.17354e-06,-3.32697e+08,-3.32483e+08,-3.32628e+08,149105,-0.018169,0.198782,-0,0.199611,-24298.4,-12111.4,-0,27149.5,149105
step02_gravity_refstate-crust.xmf,111,-1.13237e-06,2.98767e-06,0,2.52538e-06,-4.51326e+08,-4.51044e+08,-4.51249e+08,173241,-0.016452,0.196022,-0,0.196711,-22804.2,-16431,-0,28107.1,173241
step02_gravity_refstate-crust.xmf,112,-1.05441e-06,2.66145e-06,0,2.63225e-06,-4.11594e+08,-4.11339e+08,-4.11521e+08,180573,-0.0180738,0.203499,-0,0.2043,-22223,-14984.3,-0,26802.8,180573
step02_gravity_refstate-crust.xmf,113,-1.12124e-06,2.9435e-06,0,2.83472e-06,-4.49278e+08,-4.48999e+08,-4.49201e+08,194462,-0.0183061,0.205898,-0,0.20671,-21200,-16356.4,-0,26776.3,194462
step02_gravity_refstate-crust.xmf,114,-1.14376e-06,1.60246e-06,0,1.61941e-06,-2.43546e+08,-2.43358e+08,-2.43468e+08,111092,-0.0195536,0.194666,-0,0.195646,-26368.2,-8864.4,-0,27818.3,111092
step02_gravity_refstate-crust.xmf,115,-1.0817e-06,2.73158e-06,0,2.29928e-06,-4.17886e+08,-4.17624e+08,-4.17812e+08,157730,-0.0159317,0.192444,-0,0.193102,-24077.5,-15213.4,-0,28481.1,157730
step02_gravity_refstate-crust.xmf,116,-1.01481e-06,2.39108e-06,0,2.41553e-06,-3.73518e+08,-3.73285e+08,-3.73449e+08,165706,-0.0180049,0.201132,-0,0.201936,-23243.8,-13597.9,-0,26929.1,165706
step02_gravity_refstate-crust.xmf,117,-1.0722e-06,2.7513e-06,0,1.96061e-06,-4.23294e+08,-4.23031e+08,-4.2322e+08,134498,-0.0136701,0.182079,-0,0.182592,-26039.2,-15410.4,-0,30257.5,134498
step02_gravity_refstate-crust.xmf,118,-1.21726e-06,3.23964e-06,0,2.97892e-06,-4.86284e+08,-4.85979e+08,-4.86201e+08,204354,-0.0183837,0.206825,-0,0.20764,-20409.6,-17703.8,-0,27018,204354
step02_gravity_refstate-crust.xmf,119,-1.07728e-06,2.81893e-06,0,3.15849e-06,-4.44303e+08,-4.44036e+08,-4.44229e+08,216672,-0.0201614,0.216873,-0,0.217808,-19600.4,-16175.3,-0,25412.9,216672
step02_gravity_refstate-crust.xmf,120,-1.2034e-06,3.27976e-06,0,2.67077e-06,-4.87951e+08,-4.87643e+08,-4.87868e+08,183215,-0.0165613,0.197299,-0,0.197993,-21882.3,-17764.5,-0,28185.3,183215
step02_gravity_refstate-crust.xmf,121,-1.04574e-06,2.7234e-06,0,1.64533e-06,-4.25641e+08,-4.25383e+08,-4.25569e+08,112870,-0.0115545,0.173407,-0,0.173791,-27975.9,-15495.9,-0,31980.8,112870
step02_gravity_refstate-crust.xmf,122,-1.12261e-06,2.23737e-06,0,9.45933e-07,-3.58003e+08,-3.57772e+08,-3.57926e+08,64891,-0.00819924,0.164052,-0,0.164257,-32704.7,-13032.4,-0,35205.7,64891
step02_gravity_refstate-crust.xmf,123,-1.10847e-06,2.23189e-06,0,6.61687e-07,-3.62866e+08,-3.62636e+08,-3.6279e+08,45391.7,-0.00573736,0.159141,-0,0.159245,-34826.8,-13209.5,-0,37247.8,45391.7
step02_gravity_refstate-crust.xmf,124,-1.12489e-06,2.19084e-06,0,4.27694e-07,-3.58023e+08,-3.57795e+08,-3.57945e+08,29339.8,-0.00380205,0.156914,-0,0.15696,-36618.4,-13033,-0,38868.5,29339.8
step02_gravity_refstate-crust.xmf,125,-1.13883e-06,2.15249e-06,0,7.87857e-10,-3.53019e+08,-3.52793e+08,-3.52941e+08,54.047,-3.97958e-19,0.155354,-0,0.155354,-40000,-12850.7,-0,42013.6,54.047
step02_gravity_refstate-crust.xmf,126,-9.91263e-07,2.55789e-06,0,2.938e-06,-4.07143e+08,-4.06899e+08,-4.07075e+08,201547,-0.0198913,0.2143,-0,0.215222,-20541.6,-14822.4,-0,25331,201547
step02_gravity_refstate-crust.xmf,127,-1.20206e-06,3.16319e-06,0,3.27578e-06,-4.85496e+08,-4.85196e+08,-4.85413e+08,224719,-0.0200452,0.216201,-0,0.217128,-19049.9,-17675,-0,25986.6,224719
step02_gravity_refstate-crust.xmf,128,-1.06835e-06,2.83644e-06,0,3.3983e-06,-4.56463e+08,-4.56195e+08,-4.5639e+08,233124,-0.0211768,0.223498,-0,0.224499,-18470.4,-16618.1,-0,24845.8,233124
step02_gravity_refstate-crust.xmf,129,-1.27145e-06,3.26878e-06,0,3.71654e-06,-5.14066e+08,-5.13755e+08,-5.13979e+08,254955,-0.0219042,0.226989,-0,0.228043,-17150,-18715,-0,25384.5,254955
step02_gravity_refstate-crust.xmf,130,-1.44285e-06,3.6935e-06,0,3.54789e-06,-5.48662e+08,-5.4831e+08,-5.48563e+08,243385,-0.0205536,0.21877,-0,0.219734,-17641.1,-19974.5,-0,26649.3,243385
step02_gravity_refstate-crust.xmf,131,-1.38926e-06,3.48949e-06,0,3.87426e-06,-5.41966e+08,-5.41632e+08,-5.41871e+08,265774,-0.0223272,0.228865,-0,0.229952,-16489.1,-19730.6,-0,25713.6,265774
step02_gravity_refstate-crust.xmf,132,-1.32133e-06,3.4385e-06,0,3.41037e-06,-5.18593e+08,-5.18267e+08,-5.18502e+08,233951,-0.0202564,0.21723,-0,0.218172,-18358.1,-18879.9,-0,26333.8,233951
step02_gravity_refstate-crust.xmf,133,-1.15953e-06,3.04193e-06,0,3.5543e-06,-4.84396e+08,-4.84108e+08,-4.84317e+08,243825,-0.0215101,0.225233,-0,0.226258,-17824.6,-17634.9,-0,25074.1,243825
step02_gravity_refstate-crust.xmf,134,-1.52803e-06,3.73474e-06,0,4.03308e-06,-5.70833e+08,-5.70472e+08,-5.70728e+08,276669,-0.0227229,0.230706,-0,0.231822,-15822.6,-20781.3,-0,26119.3,276669
step02_gravity_refstate-crust.xmf,135,-1.3051e-06,3.25928e-06,0,4.21215e-06,-5.40006e+08,-5.39693e+08,-5.39917e+08,288953,-0.0239489,0.239123,-0,0.240319,-15305.2,-19659.2,-0,24914.5,288953
step02_gravity_refstate-crust.xmf,136,-1.30249e-06,1.3893e-06,0,1.29619e-06,-1.96487e+08,-1.96303e+08,-1.96398e+08,88918.8,-0.0207333,0.192508,-0,0.193621,-27449.2,-7150.2,-0,28365.2,88918.8
step02_gravity_refstate-crust.xmf,137,-1.57644e-06,1.22743e-06,0,9.73715e-07,-1.4905e+08,-1.48858e+08,-1.48942e+08,66796.9,-0.0222357,0.190585,-0,0.191877,-28495.4,-5421.85,-0,29006.6,66796.9
step02_gravity_refstate-crust.xmf,138,-1.93971e-06,1.12643e-06,0,6.40931e-07,-1.00874e+08,-1.00664e+08,-1.00741e+08,43967.9,-0.0239012,0.188741,-0,0.190249,-29575.8,-3666.32,-0,29802.1,43967.9
step02_gravity_refstate-crust.xmf,139,-2.42821e-06,1.10188e-06,0,3.13667e-07,-5.17259e+07,-5.14837e+07,-5.15593e+07,21517.6,-0.0254418,0.186982,-0,0.188705,-30747,-1875.01,-0,30804.1,21517.6
step02_gravity_refstate-crust.xmf,140,-3.06507e-06,1.16707e-06,0,-3.87389e-09,-290990,-665.117,-80725.8,-265.749,-0.026623,0.185619,-0,0.187519,-32008.2,0,-0,32008.2,265.749
step02_gravity_refstate-crust.xmf,141,-1.44926e-06,3.47964e-06,0,4.40915e-06,-5.6875e+08,-5.68412e+08,-5.68651e+08,302467,-0.0244819,0.241316,-0,0.242555,-14665.9,-20705.4,-0,25373.3,302467
step02_gravity_refstate-crust.xmf,142,-1.11366e-06,3.0922e-06,0,2.14745e-06,-4.68329e+08,-4.6804e+08,-4.68253e+08,147315,-0.0137538,0.183348,-0,0.183863,-24797.2,-17050.3,-0,30093.4,147315
step02_gravity_refstate-crust.xmf,143,-1.17e-06,3.28009e-06,0,2.39236e-06,-4.89218e+08,-4.88913e+08,-4.89138e+08,164116,-0.0148598,0.188941,-0,0.189524,-23291.2,-17810.8,-0,29320.7,164116
step02_gravity_refstate-crust.xmf,144,-1.67327e-06,3.98198e-06,0,4.18111e-06,-5.97982e+08,-5.97594e+08,-5.97867e+08,286824,-0.023032,0.232472,-0,0.233611,-15197.2,-21769.5,-0,26549.3,286824
step02_gravity_refstate-crust.xmf,145,-1.60113e-06,3.70368e-06,0,4.61633e-06,-5.9669e+08,-5.96326e+08,-5.9658e+08,316680,-0.0250037,0.243852,-0,0.24513,-14013.6,-21722.3,-0,25850.4,316680
step02_gravity_refstate-crust.xmf,146,-1.56336e-06,3.92974e-06,0,3.67905e-06,-5.75508e+08,-5.75131e+08,-5.75401e+08,252383,-0.0208569,0.220543,-0,0.221527,-16951.7,-20951.7,-0,26950.6,252383
step02_gravity_refstate-crust.xmf,147,-1.01604e-06,2.6696e-06,0,1.35778e-06,-4.25235e+08,-4.24982e+08,-4.25165e+08,93143.6,-0.00964004,0.166491,-0,0.16677,-29847.1,-15481.1,-0,33623.1,93143.6
step02_gravity_refstate-crust.xmf,148,-1.01842e-06,2.52552e-06,0,1.09606e-06,-4.08469e+08,-4.08226e+08,-4.08399e+08,75189.5,-0.00816194,0.162345,-0,0.16255,-31696.2,-14870.5,-0,35011.2,75189.5
step02_gravity_refstate-crust.xmf,149,-1.04129e-06,2.30354e-06,0,2.40201e-07,-3.84024e+08,-3.83794e+08,-3.83952e+08,16477.8,-0.00198036,0.153454,-0,0.153467,-38097.6,-13980.1,-0,40581.6,16477.8
step02_gravity_refstate-crust.xmf,150,-9.91085e-07,1.53711e-06,0,1.87531e-06,-2.42422e+08,-2.42249e+08,-2.42354e+08,128647,-0.0217066,0.204233,-0,0.205384,-24401.7,-8823.99,-0,25948.1,128647
step02_gravity_refstate-crust.xmf,151,-9.22327e-07,1.78296e-06,0,2.18811e-06,-2.87241e+08,-2.87056e+08,-2.87178e+08,150104,-0.0206655,0.206849,-0,0.207879,-23392.5,-10456.3,-0,25623.1,150104
step02_gravity_refstate-crust.xmf,152,-9.32646e-07,2.29935e-06,0,2.72336e-06,-3.69657e+08,-3.69436e+08,-3.69593e+08,186822,-0.019892,0.21219,-0,0.21312,-21408,-13457.5,-0,25286.5,186822
step02_gravity_refstate-crust.xmf,153,-9.0911e-07,2.04346e-06,0,2.469e-06,-3.30031e+08,-3.29828e+08,-3.29968e+08,169374,-0.0200701,0.209419,-0,0.210378,-22402.5,-12014.6,-0,25420.9,169374
step02_gravity_refstate-crust.xmf,154,-9.04148e-07,2.42958e-06,0,3.15944e-06,-4.01621e+08,-4.01392e+08,-4.01559e+08,216738,-0.0212051,0.223271,-0,0.224276,-19256.6,-14621.5,-0,24178.6,216738
step02_gravity_refstate-crust.xmf,155,-9.21554e-07,2.51452e-06,0,3.39907e-06,-4.23929e+08,-4.23694e+08,-4.23866e+08,233176,-0.0218034,0.228205,-0,0.229245,-18255.1,-15433.7,-0,23905,233176
step02_gravity_refstate-crust.xmf,156,-1.17418e-06,3.04377e-06,0,4.01707e-06,-5.10252e+08,-5.09962e+08,-5.10171e+08,275571,-0.0234032,0.237001,-0,0.238153,-15959.2,-18576.2,-0,24490.2,275571
step02_gravity_refstate-crust.xmf,157,-1.0596e-06,2.83692e-06,0,3.82068e-06,-4.79928e+08,-4.79661e+08,-4.79856e+08,262099,-0.0228732,0.234798,-0,0.235909,-16637.6,-17472.4,-0,24126.7,262099
step02_gravity_refstate-crust.xmf,158,-9.67602e-07,2.64775e-06,0,3.62287e-06,-4.50305e+08,-4.50057e+08,-4.50239e+08,248529,-0.0223857,0.232316,-0,0.233392,-17349.5,-16394,-0,23869.8,248529
step02_gravity_refstate-crust.xmf,159,-1.11697e-06,1.32174e-06,0,1.52914e-06,-1.96311e+08,-1.96144e+08,-1.96234e+08,104899,-0.0232266,0.201597,-0,0.202931,-25421,-7144.42,-0,26405.8,104899
step02_gravity_refstate-crust.xmf,160,-1.29899e-06,3.12866e-06,0,4.7948e-06,-5.67338e+08,-5.67034e+08,-5.67249e+08,328923,-0.0261172,0.25265,-0,0.253996,-13484.8,-20654.1,-0,24666.4,328923
step02_gravity_refstate-crust.xmf,161,-2.02958e-06,3.84935e-06,0,6.1901e-06,-6.79955e+08,-6.79552e+08,-6.79816e+08,424641,-0.0287886,0.270558,-0,0.272086,-10656.7,-24752.2,-0,26948.8,424641
step02_gravity_refstate-crust.xmf,162,-2.16687e-06,4.33736e-06,0,5.58578e-06,-6.80086e+08,-6.7964e+08,-6.79938e+08,383184,-0.0268412,0.258542,-0,0.259931,-11582,-24757.2,-0,27332.4,383184
step02_gravity_refstate-crust.xmf,163,-2.3696e-06,4.59278e-06,0,5.78642e-06,-7.0097e+08,-7.00493e+08,-7.00808e+08,396948,-0.026677,0.260976,-0,0.262336,-11131.9,-25517.1,-0,27839.5,396948
step02_gravity_refstate-crust.xmf,164,-1.66972e-06,3.46494e-06,0,5.66125e-06,-6.37421e+08,-6.37069e+08,-6.37306e+08,388362,-0.0282179,0.264515,-0,0.266016,-11586.6,-23204.6,-0,25936.5,388362
step02_gravity_refstate-crust.xmf,165,-1.83211e-06,3.90446e-06,0,5.20969e-06,-6.3936e+08,-6.38967e+08,-6.39235e+08,357385,-0.0266276,0.254089,-0,0.25548,-12470.5,-23275.2,-0,26405.5,357385
step02_gravity_refstate-crust.xmf,166,-1.98311e-06,4.0964e-06,0,5.39049e-06,-6.58738e+08,-6.58321e+08,-6.58602e+08,369788,-0.0268057,0.256191,-0,0.257589,-12043.5,-23980.3,-0,26834.7,369788
step02_gravity_refstate-crust.xmf,167,-1.8259e-06,3.61965e-06,0,5.93497e-06,-6.58326e+08,-6.57953e+08,-6.58201e+08,407139,-0.0286352,0.267865,-0,0.269391,-11090.1,-23965.2,-0,26406.9,407139
step02_gravity_refstate-crust.xmf,168,-1.77677e-06,2.58688e-06,0,8.31184e-06,-7.18933e+08,-7.18634e+08,-7.18811e+08,570192,-0.0323346,0.304804,-0,0.306514,-8112.15,-26170.3,-0,27398.8,570192
step02_gravity_refstate-crust.xmf,169,-2.02014e-06,2.72554e-06,0,8.80988e-06,-7.37465e+08,-7.37139e+08,-7.37326e+08,604358,-0.0322607,0.309916,-0,0.311591,-7734.86,-26844.2,-0,27936.3,604358
step02_gravity_refstate-crust.xmf,170,-2.40971e-06,3.69983e-06,0,7.96861e-06,-7.37465e+08,-7.37046e+08,-7.373e+08,546646,-0.030618,0.296257,-0,0.297835,-8475.3,-26844.1,-0,28150.3,546646
step02_gravity_refstate-crust.xmf,171,-1.16234e-06,2.94771e-06,0,4.55812e-06,-5.39155e+08,-5.38873e+08,-5.39075e+08,312687,-0.0254324,0.24991,-0,0.2512,-14106.3,-19628.3,-0,24171.5,312687
step02_gravity_refstate-crust.xmf,172,-2.29006e-06,2.91506e-06,0,9.31091e-06,-7.55329e+08,-7.54972e+08,-7.55172e+08,638728,-0.0318724,0.315034,-0,0.316642,-7385.28,-27493.8,-0,28468.4,638728
step02_gravity_refstate-crust.xmf,173,-1.41127e-06,1.34626e-06,0,9.72934e-06,-7.37993e+08,-7.37804e+08,-7.37896e+08,667433,-0.0335629,0.325001,-0,0.326729,-6964.54,-26863.7,-0,27751.9,667433
step02_gravity_refstate-crust.xmf,174,-2.64022e-06,3.89466e-06,0,8.37423e-06,-7.5431e+08,-7.53862e+08,-7.54129e+08,574472,-0.0302231,0.301073,-0,0.302586,-8090.67,-27456.8,-0,28624,574472
step02_gravity_refstate-crust.xmf,175,-2.23454e-06,4.06995e-06,0,6.46857e-06,-7.00523e+08,-7.0009e+08,-7.0037e+08,443744,-0.0288341,0.273865,-0,0.275379,-10205.3,-25500.5,-0,27466.8,443744
step02_gravity_refstate-crust.xmf,176,-1.44204e-06,3.28107e-06,0,5.07162e-06,-5.94219e+08,-5.93895e+08,-5.9412e+08,347913,-0.0268314,0.256024,-0,0.257426,-12835.8,-21632.4,-0,25153.9,347913
step02_gravity_refstate-crust.xmf,177,-1.79618e-06,3.95294e-06,0,4.86573e-06,-6.26383e+08,-6.25988e+08,-6.26259e+08,333789,-0.0254854,0.246869,-0,0.248181,-13307.3,-22802.9,-0,26401.9,333789
step02_gravity_refstate-crust.xmf,178,-1.32957e-06,3.54948e-06,0,3.0998e-06,-5.22934e+08,-5.22599e+08,-5.22842e+08,212646,-0.0184589,0.207523,-0,0.208342,-19636.5,-19038,-0,27350.3,212646
step02_gravity_refstate-crust.xmf,179,-1.04407e-06,3.02854e-06,0,1.77368e-06,-4.68345e+08,-4.68066e+08,-4.68273e+08,121674,-0.0114037,0.173069,-0,0.173445,-26986.8,-17051,-0,31922.2,121674
step02_gravity_refstate-crust.xmf,180,-1.29328e-06,3.58197e-06,0,2.77506e-06,-5.23904e+08,-5.2357e+08,-5.23815e+08,190369,-0.0165395,0.197795,-0,0.198485,-21081.4,-19073.6,-0,28429.3,190369
step02_gravity_refstate-crust.xmf,181,-1.22622e-06,3.54888e-06,0,2.45682e-06,-5.22223e+08,-5.21896e+08,-5.22139e+08,168538,-0.0146287,0.18851,-0,0.189077,-22645.2,-19012.6,-0,29568.3,168538
step02_gravity_refstate-crust.xmf,182,-1.83947e-06,4.24596e-06,0,4.34055e-06,-6.25474e+08,-6.25057e+08,-6.25348e+08,297762,-0.0232594,0.234456,-0,0.235607,-14550.7,-22770.2,-0,27022.2,297762
step02_gravity_refstate-crust.xmf,183,-1.68583e-06,4.17004e-06,0,3.79028e-06,-6.00778e+08,-6.00376e+08,-6.00662e+08,260013,-0.0210456,0.222057,-0,0.223052,-16326.2,-21871.6,-0,27293,260013
step02_gravity_refstate-crust.xmf,184,-1.44675e-06,3.84476e-06,0,3.21026e-06,-5.5601e+08,-5.55647e+08,-5.5591e+08,220224,-0.0185964,0.208636,-0,0.209463,-18853.3,-20242.2,-0,27662.1,220224
step02_gravity_refstate-crust.xmf,185,-1.56563e-06,4.0989e-06,0,3.33373e-06,-5.84394e+08,-5.84006e+08,-5.84287e+08,228694,-0.0188167,0.210406,-0,0.211245,-18067.8,-21275.5,-0,27912.2,228694
step02_gravity_refstate-crust.xmf,186,-1.55567e-06,3.37345e-06,0,5.37276e-06,-6.17197e+08,-6.16859e+08,-6.1709e+08,368571,-0.0275923,0.260431,-0,0.261889,-12164.4,-22468.6,-0,25550.2,368571
step02_gravity_refstate-crust.xmf,187,-2.03528e-06,4.40237e-06,0,4.88717e-06,-6.57413e+08,-6.56971e+08,-6.57273e+08,335260,-0.02492,0.245369,-0,0.246632,-13009.4,-23932.4,-0,27239.7,335260
step02_gravity_refstate-crust.xmf,188,-2.21296e-06,4.67946e-06,0,5.02047e-06,-6.80135e+08,-6.79663e+08,-6.79984e+08,344404,-0.0247435,0.24697,-0,0.248207,-12538.3,-24759.3,-0,27753,344404
step02_gravity_refstate-crust.xmf,189,-2.384e-06,4.94976e-06,0,5.16009e-06,-7.01251e+08,-7.00748e+08,-7.01087e+08,353982,-0.024464,0.249077,-0,0.250275,-12055.4,-25527.8,-0,28231.2,353982
step02_gravity_refstate-crust.xmf,190,-9.83008e-07,2.95977e-06,0,1.47498e-06,-4.68582e+08,-4.68312e+08,-4.68515e+08,101183,-0.00948192,0.16546,-0,0.165731,-28884,-17059.8,-0,33545.8,101183
step02_gravity_refstate-crust.xmf,191,-9.88137e-07,2.4931e-06,0,7.92077e-07,-4.1106e+08,-4.10821e+08,-4.10992e+08,54336.5,-0.00593104,0.156828,-0,0.15694,-33870.5,-14964.9,-0,37029.2,54336.5
step02_gravity_refstate-crust.xmf,192,-9.66201e-07,2.4521e-06,0,4.73789e-07,-4.11363e+08,-4.11129e+08,-4.11297e+08,32501.9,-0.00355689,0.152793,-0,0.152834,-36294.8,-14976,-0,39263.1,32501.9
step02_gravity_refstate-crust.xmf,193,-9.33467e-07,2.46288e-06,0,3.90665e-10,-4.18634e+08,-4.18401e+08,-4.1857e+08,26.7996,-2.91016e-19,0.149839,-0,0.149839,-40000,-15240.8,-0,42805.2,26.7996
step02_gravity_refstate-crust.xmf,194,-8.13829e-07,2.17311e-06,0,3.00476e-06,-3.67175e+08,-3.6697e+08,-3.67119e+08,206127,-0.0214493,0.223275,-0,0.224303,-19688.9,-13367.4,-0,23797.9,206127
step02_gravity_refstate-crust.xmf,195,-1.03539e-06,2.76829e-06,0,4.32614e-06,-5.09586e+08,-5.09325e+08,-5.09515e+08,296773,-0.0247581,0.247403,-0,0.248639,-14734.7,-18552.1,-0,23691.6,296773
step02_gravity_refstate-crust.xmf,196,-1.33422e-06,1.14892e-06,0,1.17036e-06,-1.49628e+08,-1.49457e+08,-1.49536e+08,80286.9,-0.0252761,0.199246,-0,0.200843,-26388.2,-5443.72,-0,26943.9,80286.9
step02_gravity_refstate-crust.xmf,197,-1.67208e-06,1.02777e-06,0,7.93717e-07,-1.00589e+08,-1.00403e+08,-1.00474e+08,54449,-0.0280133,0.197252,-0,0.199231,-27312.4,-3656.86,-0,27556.1,54449
step02_gravity_refstate-crust.xmf,198,-2.13932e-06,9.90313e-07,0,3.97902e-07,-5.09332e+07,-5.07185e+07,-5.07865e+07,27296.1,-0.0309288,0.194933,-0,0.197371,-28377.2,-1847.15,-0,28437.2,27296.1
step02_gravity_refstate-crust.xmf,199,-2.75788e-06,1.04906e-06,0,-2.48513e-09,-261870,-714.034,-72679.5,-170.48,-0.0338673,0.192823,-0,0.195775,-29522.7,0,-0,29522.7,170.48
step02_gravity_refstate-crust.xmf,200,-1.77784e-06,3.20249e-06,0,6.80328e-06,-6.79807e+08,-6.79465e+08,-6.79685e+08,466705,-0.0304915,0.28291,-0,0.284549,-9764.3,-24746.8,-0,26603.5,466705
step02_gravity_refstate-crust.xmf,201,-2.43196e-06,4.24232e-06,0,6.8222e-06,-7.19623e+08,-7.19166e+08,-7.19457e+08,468003,-0.0289064,0.278672,-0,0.280167,-9689.49,-26195.3,-0,27929.9,468003
step02_gravity_refstate-crust.xmf,202,-1.97528e-06,3.35456e-06,0,7.17344e-06,-6.99895e+08,-6.99529e+08,-6.99759e+08,492098,-0.0307201,0.287042,-0,0.288681,-9322.8,-25477.6,-0,27129.7,492098
step02_gravity_refstate-crust.xmf,203,-2.19262e-06,3.52661e-06,0,7.56684e-06,-7.19419e+08,-7.19027e+08,-7.19269e+08,519085,-0.0307649,0.291501,-0,0.29312,-8889.63,-26187.8,-0,27655.5,519085
step02_gravity_refstate-crust.xmf,204,-1.76401e-06,1.68548e-06,0,1.02465e-05,-7.57014e+08,-7.56777e+08,-7.56893e+08,702912,-0.033118,0.329208,-0,0.330869,-6715.91,-27555.3,-0,28361.9,702912
step02_gravity_refstate-crust.xmf,205,-9.69059e-07,3.54611e-07,0,1.04879e-05,-7.45046e+08,-7.44955e+08,-7.44979e+08,719468,-0.0340463,0.336702,-0,0.338419,-6393.04,-27120.8,-0,27864.1,719468
step02_gravity_refstate-crust.xmf,206,-1.22915e-06,1.46966e-06,0,8.99859e-06,-7.18996e+08,-7.18811e+08,-7.18912e+08,617303,-0.0334358,0.317845,-0,0.319598,-7386.41,-26173.1,-0,27195.4,617303
step02_gravity_refstate-crust.xmf,207,-9.50888e-07,2.54515e-06,0,4.88989e-06,-5.38912e+08,-5.38672e+08,-5.38847e+08,335446,-0.0266707,0.260893,-0,0.262252,-12933,-19619.7,-0,23498.8,335446
step02_gravity_refstate-crust.xmf,208,-1.02918e-06,1.13897e-07,0,1.11358e-05,-7.57935e+08,-7.57857e+08,-7.57865e+08,763919,-0.0339493,0.343337,-0,0.345012,-6091.31,-27589.4,-0,28253.8,763919
step02_gravity_refstate-crust.xmf,209,-2.68489e-06,4.52919e-06,0,7.12384e-06,-7.40502e+08,-7.40008e+08,-7.40318e+08,488695,-0.028386,0.282327,-0,0.283751,-9255.15,-26954.9,-0,28499.5,488695
step02_gravity_refstate-crust.xmf,210,-2.81126e-06,4.53875e-06,0,7.60348e-06,-7.53544e+08,-7.53039e+08,-7.53351e+08,521599,-0.0285819,0.289399,-0,0.290807,-8723.44,-27429.2,-0,28782.9,521599
step02_gravity_refstate-crust.xmf,211,-2.60698e-06,4.92996e-06,0,5.95631e-06,-7.23538e+08,-7.23021e+08,-7.23359e+08,408603,-0.0260865,0.263128,-0,0.264418,-10692.3,-26338.2,-0,28425.8,408603
step02_gravity_refstate-crust.xmf,212,-1.14211e-06,3.4515e-06,0,2.1528e-06,-5.16258e+08,-5.15943e+08,-5.1618e+08,147682,-0.0128393,0.180051,-0,0.180508,-24327,-18795.6,-0,30742.1,147682
step02_gravity_refstate-crust.xmf,213,-1.8218e-06,4.43799e-06,0,3.88258e-06,-6.26955e+08,-6.26525e+08,-6.2683e+08,266345,-0.0210396,0.223191,-0,0.224181,-15730.9,-22824.4,-0,27720.3,266345
step02_gravity_refstate-crust.xmf,214,-1.66842e-06,4.29087e-06,0,3.46569e-06,-6.05245e+08,-6.04837e+08,-6.05131e+08,237747,-0.0192028,0.213076,-0,0.213939,-17323.6,-22034.5,-0,28029,237747
step02_gravity_refstate-crust.xmf,215,-2.56181e-06,5.19362e-06,0,5.30839e-06,-7.19854e+08,-7.19322e+08,-7.19679e+08,364156,-0.0240482,0.251274,-0,0.252423,-11612.4,-26204.7,-0,28662.4,364156
step02_gravity_refstate-crust.xmf,216,-9.32557e-07,2.86327e-06,0,1.19333e-06,-4.64376e+08,-4.64115e+08,-4.64312e+08,81862.2,-0.00773607,0.159399,-0,0.159586,-30825.3,-16906.7,-0,35157.3,81862.2
step02_gravity_refstate-crust.xmf,217,-8.88413e-07,2.78018e-06,0,9.12956e-07,-4.61435e+08,-4.61184e+08,-4.61375e+08,62628.8,-0.00595472,0.154229,-0,0.154344,-32858.4,-16799.7,-0,36904,62628.8
step02_gravity_refstate-crust.xmf,218,-8.99085e-07,2.52559e-06,0,2.05005e-07,-4.30973e+08,-4.30738e+08,-4.30911e+08,14063.3,-0.00146329,0.149162,-0,0.149169,-38370.7,-15690.3,-0,41454.7,14063.3
step02_gravity_refstate-crust.xmf,219,-9.16907e-07,1.2346e-06,0,1.75931e-06,-1.96395e+08,-1.96248e+08,-1.96332e+08,120688,-0.0252181,0.211401,-0,0.2129,-23469.7,-7148.17,-0,24534.1,120688
step02_gravity_refstate-crust.xmf,220,-8.08349e-07,1.44915e-06,0,2.12602e-06,-2.41962e+08,-2.41807e+08,-2.41907e+08,145845,-0.0234626,0.214592,-0,0.215871,-22473.9,-8807.85,-0,24138.2,145845
step02_gravity_refstate-crust.xmf,221,-7.655e-07,1.68597e-06,0,2.45649e-06,-2.86048e+08,-2.8588e+08,-2.85995e+08,168515,-0.0223085,0.217693,-0,0.218833,-21498.6,-10413.4,-0,23887.8,168515
step02_gravity_refstate-crust.xmf,222,-7.70536e-07,1.92977e-06,0,2.75445e-06,-3.28141e+08,-3.27956e+08,-3.28089e+08,188955,-0.0216937,0.220784,-0,0.221848,-20534.2,-11946.2,-0,23756.4,188955
step02_gravity_refstate-crust.xmf,223,-7.09685e-07,2.09337e-06,0,3.3229e-06,-3.78067e+08,-3.77874e+08,-3.78018e+08,227951,-0.0225558,0.233857,-0,0.234943,-17998.4,-13764.3,-0,22658.2,227951
step02_gravity_refstate-crust.xmf,224,-7.36766e-07,2.22994e-06,0,3.62816e-06,-4.13207e+08,-4.13003e+08,-4.13156e+08,248892,-0.0230736,0.23944,-0,0.240549,-16834.5,-15043.7,-0,22576.8,248892
step02_gravity_refstate-crust.xmf,225,-9.17598e-07,2.58325e-06,0,4.09819e-06,-4.78378e+08,-4.78138e+08,-4.78315e+08,281136,-0.0241208,0.245014,-0,0.246198,-15380.9,-17416.1,-0,23235.6,281136
step02_gravity_refstate-crust.xmf,226,-8.16641e-07,2.40325e-06,0,3.86968e-06,-4.4634e+08,-4.46119e+08,-4.46284e+08,265460,-0.0235545,0.242499,-0,0.243641,-16061.4,-16249.9,-0,22847.9,265460
step02_gravity_refstate-crust.xmf,227,-1.09084e-06,1.06592e-06,0,1.3678e-06,-1.51389e+08,-1.51241e+08,-1.51314e+08,93831.3,-0.0275158,0.208284,-0,0.210093,-24447.4,-5508.71,-0,25060.3,93831.3
step02_gravity_refstate-crust.xmf,228,-1.06106e-06,2.6621e-06,0,5.17072e-06,-5.65962e+08,-5.65707e+08,-5.65889e+08,354711,-0.0274804,0.264285,-0,0.26571,-12327.9,-20604.2,-0,24010.7,354711
step02_gravity_refstate-crust.xmf,229,-1.16766e-06,2.72341e-06,0,5.49636e-06,-5.91296e+08,-5.91029e+08,-5.91216e+08,377050,-0.028307,0.268303,-0,0.269792,-11708.7,-21526.2,-0,24504.5,377050
step02_gravity_refstate-crust.xmf,230,-1.57912e-06,3.0293e-06,0,6.46993e-06,-6.58513e+08,-6.58196e+08,-6.58404e+08,443837,-0.0301713,0.279525,-0,0.281149,-10185.7,-23972.1,-0,26046.3,443837
step02_gravity_refstate-crust.xmf,231,-1.26697e-06,2.77483e-06,0,5.82696e-06,-6.14207e+08,-6.1393e+08,-6.1412e+08,399729,-0.0290827,0.272605,-0,0.274152,-11120.4,-22360,-0,24972.6,399729
step02_gravity_refstate-crust.xmf,232,-1.40291e-06,2.87348e-06,0,6.15535e-06,-6.36711e+08,-6.36417e+08,-6.36614e+08,422257,-0.0297212,0.276374,-0,0.277968,-10613.4,-23178.9,-0,25493.2,422257
step02_gravity_refstate-crust.xmf,233,1.96635e-07,-2.6296e-06,0,1.27916e-05,-7.71843e+08,-7.72037e+08,-7.71856e+08,877507,-0.0339096,0.367387,-0,0.368948,-5141.64,-28096.4,-0,28563,877507
step02_gravity_refstate-crust.xmf,234,-1.08307e-06,-1.90693e-07,0,1.19287e-05,-7.72016e+08,-7.71954e+08,-7.71941e+08,818311,-0.033628,0.351409,-0,0.353015,-5759.48,-28101.3,-0,28685.5,818311
step02_gravity_refstate-crust.xmf,235,-1.10231e-06,-5.41255e-07,0,1.28145e-05,-7.86114e+08,-7.86076e+08,-7.86039e+08,879071,-0.032984,0.360234,-0,0.361741,-5435.35,-28614,-0,29125.6,879071
step02_gravity_refstate-crust.xmf,236,-1.58105e-06,2.46859e-06,0,7.85171e-06,-6.99787e+08,-6.99509e+08,-6.99679e+08,538627,-0.0321913,0.30007,-0,0.301792,-8497.11,-25473.9,-0,26853.7,538627
step02_gravity_refstate-crust.xmf,237,-1.39758e-06,2.38118e-06,0,7.40524e-06,-6.79924e+08,-6.79664e+08,-6.79828e+08,507999,-0.0318554,0.29548,-0,0.297192,-8903.76,-24751.3,-0,26304.1,507999
step02_gravity_refstate-crust.xmf,238,5.31455e-08,-1.90103e-06,0,1.18496e-05,-7.57615e+08,-7.57749e+08,-7.57619e+08,812886,-0.0342571,0.357854,-0,0.35949,-5476.46,-27579,-0,28117.5,812886
step02_gravity_refstate-crust.xmf,239,-1.04644e-07,-1.22402e-06,0,1.10171e-05,-7.43745e+08,-7.43821e+08,-7.43737e+08,755773,-0.0343572,0.348668,-0,0.350356,-5843.5,-27074.4,-0,27697.9,755773
step02_gravity_refstate-crust.xmf,240,-3.83605e-07,-4.17937e-07,0,1.02336e-05,-7.30734e+08,-7.30736e+08,-7.30708e+08,702024,-0.0342562,0.338493,-0,0.340222,-6307.27,-26600.9,-0,27338.4,702024
step02_gravity_refstate-crust.xmf,241,-4.83563e-07,5.70219e-08,0,9.56674e-06,-7.1676e+08,-7.16723e+08,-7.16727e+08,656278,-0.0340292,0.33055,-0,0.332297,-6708.87,-26092.5,-0,26941.2,656278
step02_gravity_refstate-crust.xmf,242,-1.0265e-06,1.40098e-06,0,8.47985e-06,-7.00405e+08,-7.00238e+08,-7.00334e+08,581718,-0.0332217,0.313155,-0,0.314912,-7706.27,-25496.9,-0,26636.1,581718
step02_gravity_refstate-crust.xmf,243,-8.32385e-07,2.40827e-06,0,4.6263e-06,-5.0988e+08,-5.09657e+08,-5.09823e+08,317364,-0.025909,0.258221,-0,0.259517,-13504.4,-18563,-0,22955.5,317364
step02_gravity_refstate-crust.xmf,244,3.96185e-07,-3.34107e-06,0,1.3742e-05,-7.85678e+08,-7.85934e+08,-7.85705e+08,942700,-0.0332481,0.377219,-0,0.378681,-4838.97,-28599.8,-0,29006.3,942700
step02_gravity_refstate-crust.xmf,245,-1.96055e-06,1.68783e-06,0,1.08943e-05,-7.72055e+08,-7.71805e+08,-7.71921e+08,747350,-0.0326609,0.33576,-0,0.337345,-6392.03,-28102.1,-0,28819.9,747350
step02_gravity_refstate-crust.xmf,246,-2.90204e-06,4.19104e-06,0,8.73181e-06,-7.71505e+08,-7.71018e+08,-7.71306e+08,599002,-0.0293377,0.305427,-0,0.306833,-7747.37,-28082.1,-0,29131.2,599002
step02_gravity_refstate-crust.xmf,247,-2.56264e-06,3.13294e-06,0,9.80866e-06,-7.72177e+08,-7.71786e+08,-7.72001e+08,672874,-0.0311557,0.320386,-0,0.321898,-7051.93,-28106.3,-0,28977.5,672874
step02_gravity_refstate-crust.xmf,248,-2.16537e-06,1.68403e-06,0,1.16086e-05,-7.87068e+08,-7.86804e+08,-7.86919e+08,796349,-0.0318495,0.343095,-0,0.34457,-6064.81,-28647.8,-0,29282.8,796349
step02_gravity_refstate-crust.xmf,249,-3.05759e-06,4.93506e-06,0,7.73036e-06,-7.70033e+08,-7.69484e+08,-7.69823e+08,530303,-0.0273665,0.291144,-0,0.292427,-8476.58,-28029.1,-0,29282.8,530303
step02_gravity_refstate-crust.xmf,250,-2.74384e-06,5.02425e-06,0,6.34967e-06,-7.38983e+08,-7.3845e+08,-7.38795e+08,435587,-0.0263581,0.269737,-0,0.271022,-10056.8,-26900.1,-0,28718.5,435587
step02_gravity_refstate-crust.xmf,251,-2.01168e-06,4.50851e-06,0,4.49883e-06,-6.51043e+08,-6.50596e+08,-6.50905e+08,308620,-0.0233558,0.236566,-0,0.237716,-13932.5,-23700.7,-0,27492.5,308620
step02_gravity_refstate-crust.xmf,252,-1.39511e-06,3.88504e-06,0,2.86749e-06,-5.58317e+08,-5.57955e+08,-5.58221e+08,196710,-0.0165152,0.198439,-0,0.199125,-20267.1,-20326.5,-0,28704,196710
step02_gravity_refstate-crust.xmf,253,-1.05825e-06,3.35118e-06,0,1.86383e-06,-5.12062e+08,-5.11759e+08,-5.11989e+08,127859,-0.0110882,0.172169,-0,0.172525,-26048.9,-18643,-0,32032.9,127859
step02_gravity_refstate-crust.xmf,254,-9.67215e-07,3.26739e-06,0,1.56473e-06,-5.12671e+08,-5.1238e+08,-5.12604e+08,107340,-0.00919222,0.164159,-0,0.164416,-27913.4,-18665.4,-0,33579.1,107340
step02_gravity_refstate-crust.xmf,255,-1.30342e-06,3.86064e-06,0,2.52727e-06,-5.5867e+08,-5.58315e+08,-5.5858e+08,173371,-0.0144245,0.188525,-0,0.189076,-21813.9,-20339.6,-0,29825.3,173371
step02_gravity_refstate-crust.xmf,256,-1.18847e-06,3.76686e-06,0,2.20081e-06,-5.55392e+08,-5.55052e+08,-5.55311e+08,150975,-0.0124149,0.179115,-0,0.179544,-23533.5,-20220.6,-0,31027.4,150975
step02_gravity_refstate-crust.xmf,257,-1.9791e-06,4.72898e-06,0,3.97306e-06,-6.5411e+08,-6.5365e+08,-6.53974e+08,272552,-0.0208274,0.224268,-0,0.225233,-15124.8,-23812.8,-0,28210.1,272552
step02_gravity_refstate-crust.xmf,258,-1.75887e-06,4.53855e-06,0,3.47588e-06,-6.28558e+08,-6.28126e+08,-6.28437e+08,238445,-0.0188525,0.212722,-0,0.213556,-16910.1,-22883.2,-0,28453.3,238445
step02_gravity_refstate-crust.xmf,259,-1.51272e-06,4.23334e-06,0,2.91924e-06,-5.96305e+08,-5.95911e+08,-5.96201e+08,200260,-0.0161775,0.198251,-0,0.19891,-19476.3,-21709.5,-0,29165.6,200260
step02_gravity_refstate-crust.xmf,260,-1.65187e-06,4.51355e-06,0,3.12727e-06,-6.24032e+08,-6.23609e+08,-6.23919e+08,214531,-0.0169334,0.203411,-0,0.204114,-18170.5,-22718.8,-0,29091.4,214531
step02_gravity_refstate-crust.xmf,261,-2.19143e-06,4.91354e-06,0,4.49914e-06,-6.80627e+08,-6.8014e+08,-6.80477e+08,308641,-0.022561,0.235913,-0,0.23699,-13514.9,-24777.7,-0,28223.8,308641
step02_gravity_refstate-crust.xmf,262,-2.34642e-06,5.20729e-06,0,4.57836e-06,-7.03639e+08,-7.0312e+08,-7.03478e+08,314075,-0.0219974,0.2372,-0,0.238218,-13018.5,-25615.2,-0,28733.6,314075
step02_gravity_refstate-crust.xmf,263,-2.47792e-06,5.38992e-06,0,4.74388e-06,-7.19332e+08,-7.18792e+08,-7.19162e+08,325430,-0.0218908,0.240348,-0,0.241343,-12492.2,-26186.3,-0,29013.4,325430
step02_gravity_refstate-crust.xmf,264,-8.81293e-07,3.17571e-06,0,1.28239e-06,-5.12807e+08,-5.12529e+08,-5.12747e+08,87971.9,-0.00743086,0.157234,-0,0.15741,-29825.8,-18670.6,-0,35187.7,87971.9
step02_gravity_refstate-crust.xmf,265,-8.42088e-07,2.73089e-06,0,6.25527e-07,-4.62693e+08,-4.62448e+08,-4.62635e+08,42911.1,-0.00407391,0.149805,-0,0.14986,-35011.3,-16845.6,-0,38853.1,42911.1
step02_gravity_refstate-crust.xmf,266,-7.9136e-07,2.72823e-06,0,3.3809e-07,-4.70951e+08,-4.70709e+08,-4.70896e+08,23193,-0.00213874,0.146127,-0,0.146143,-37269.8,-17146.4,-0,41024.9,23193
step02_gravity_refstate-crust.xmf,267,-7.42815e-07,2.76881e-06,0,2.52589e-09,-4.83039e+08,-4.82798e+08,-4.82988e+08,173.276,-2.58424e-19,0.143704,-0,0.143704,-40000,-17586.8,-0,43695.5,173.276
step02_gravity_refstate-crust.xmf,268,-6.03808e-07,1.79547e-06,0,3.02495e-06,-3.2995e+08,-3.29786e+08,-3.29909e+08,207512,-0.0228808,0.232187,-0,0.233312,-18745,-12012.5,-0,22263.8,207512
step02_gravity_refstate-crust.xmf,269,-7.23559e-07,2.26203e-06,0,4.37099e-06,-4.78945e+08,-4.7874e+08,-4.78895e+08,299850,-0.0251744,0.255642,-0,0.256879,-14100.6,-17437,-0,22424.9,299850
step02_gravity_refstate-crust.xmf,270,-8.31528e-07,9.50177e-07,0,1.55482e-06,-1.51081e+08,-1.50959e+08,-1.51024e+08,106661,-0.029379,0.218141,-0,0.220111,-22545.8,-5498.36,-0,23206.6,106661
step02_gravity_refstate-crust.xmf,271,-1.34526e-06,9.257e-07,0,9.62008e-07,-1.04126e+08,-1.03971e+08,-1.04034e+08,65993.8,-0.0308473,0.206297,-0,0.20859,-25216.7,-3786.82,-0,25499.4,65993.8
step02_gravity_refstate-crust.xmf,272,-1.76695e-06,8.52646e-07,0,4.95664e-07,-5.17929e+07,-5.16132e+07,-5.16717e+07,34002.6,-0.0353717,0.204231,-0,0.207272,-26052.8,-1879.75,-0,26120.5,34002.6
step02_gravity_refstate-crust.xmf,273,-2.36787e-06,8.99499e-07,0,-3.96051e-10,-224889,-747.067,-62452.7,-27.1691,-0.0400504,0.201485,-0,0.205427,-27114.8,0,-0,27114.8,27.1691
step02_gravity_refstate-crust.xmf,274,-6.56893e-07,2.03564e-06,0,5.18725e-06,-5.38464e+08,-5.38279e+08,-5.38418e+08,355845,-0.027581,0.271985,-0,0.27338,-11792.6,-19603.8,-0,22877.4,355845
step02_gravity_refstate-crust.xmf,275,-1.21481e-06,2.27968e-06,0,6.99324e-06,-6.58945e+08,-6.58706e+08,-6.58862e+08,479737,-0.0314055,0.291524,-0,0.29321,-9300.46,-23988.2,-0,25728,479737
step02_gravity_refstate-crust.xmf,276,-5.25353e-07,4.06595e-07,0,8.99958e-06,-7.03131e+08,-7.03067e+08,-7.03095e+08,617371,-0.0337231,0.323934,-0,0.325685,-7078.28,-25596.7,-0,26557.3,617371
step02_gravity_refstate-crust.xmf,277,-5.90916e-07,2.00324e-06,0,4.8898e-06,-5.11966e+08,-5.11788e+08,-5.11926e+08,335441,-0.0267414,0.268395,-0,0.269724,-12372.5,-18639.4,-0,22372,335441
step02_gravity_refstate-crust.xmf,278,1.86426e-06,-5.51685e-06,0,1.31967e-05,-7.71741e+08,-7.72247e+08,-7.71868e+08,905291,-0.0332922,0.383333,-0,0.384776,-4537.64,-28095,-0,28459.1,905291
step02_gravity_refstate-crust.xmf,279,2.28265e-06,-6.81122e-06,0,1.41843e-05,-7.85524e+08,-7.86148e+08,-7.85681e+08,973046,-0.0325076,0.393766,-0,0.395106,-4269.66,-28596.5,-0,28913.5,973046
step02_gravity_refstate-crust.xmf,280,5.95147e-07,-4.46213e-06,0,1.49903e-05,-7.98965e+08,-7.99311e+08,-7.99005e+08,1.02834e+06,-0.0321768,0.388023,-0,0.389355,-4546.15,-29082.6,-0,29435.8,1.02834e+06
step02_gravity_refstate-crust.xmf,281,-1.09424e-06,-1.05073e-06,0,1.38323e-05,-7.99381e+08,-7.99378e+08,-7.99306e+08,948894,-0.0319899,0.370077,-0,0.371457,-5114.09,-29096.2,-0,29542.2,948894
step02_gravity_refstate-crust.xmf,282,-2.24147e-06,1.46198e-06,0,1.24595e-05,-8.00647e+08,-8.00393e+08,-8.00493e+08,854719,-0.0308307,0.352367,-0,0.353713,-5702.7,-29141.6,-0,29694.3,854719
step02_gravity_refstate-crust.xmf,283,-3.00258e-06,5.33831e-06,0,6.8338e-06,-7.63473e+08,-7.62901e+08,-7.63267e+08,468799,-0.0258237,0.277906,-0,0.279103,-9273.62,-27791.1,-0,29297.5,468799
step02_gravity_refstate-crust.xmf,284,-2.86685e-06,5.16729e-06,0,6.57461e-06,-7.51134e+08,-7.50583e+08,-7.50938e+08,451018,-0.0261268,0.273438,-0,0.274683,-9680.56,-27342.2,-0,29005.3,451018
step02_gravity_refstate-crust.xmf,285,-2.70312e-06,5.58733e-06,0,5.20674e-06,-7.40788e+08,-7.4022e+08,-7.40603e+08,357182,-0.0224327,0.249623,-0,0.250629,-11427.3,-26966.9,-0,29288.1,357182
step02_gravity_refstate-crust.xmf,286,-1.0754e-06,3.66226e-06,0,1.9067e-06,-5.53185e+08,-5.5286e+08,-5.53111e+08,130800,-0.0105788,0.170728,-0,0.171056,-25236.3,-20140.6,-0,32288,130800
step02_gravity_refstate-crust.xmf,287,-1.87933e-06,4.82534e-06,0,3.52926e-06,-6.55445e+08,-6.54985e+08,-6.55316e+08,242108,-0.0185249,0.213522,-0,0.214325,-16280,-23862,-0,28886.6,242108
step02_gravity_refstate-crust.xmf,288,-2.586e-06,5.71279e-06,0,4.6579e-06,-7.39102e+08,-7.38533e+08,-7.38925e+08,319532,-0.0204153,0.23909,-0,0.23996,-12268.5,-26906.1,-0,29571.2,319532
step02_gravity_refstate-crust.xmf,289,-8.05925e-07,3.07801e-06,0,1.00513e-06,-5.11403e+08,-5.11136e+08,-5.11347e+08,68951.6,-0.00576296,0.151397,-0,0.151506,-31855.5,-18619.6,-0,36898,68951.6
step02_gravity_refstate-crust.xmf,290,-7.43275e-07,3.00072e-06,0,7.38817e-07,-5.11188e+08,-5.10931e+08,-5.11137e+08,50682.8,-0.00418523,0.146727,-0,0.146787,-33909,-18612,-0,38681.1,50682.8
step02_gravity_refstate-crust.xmf,291,-6.72091e-07,1.12305e-06,0,1.9762e-06,-1.96485e+08,-1.96362e+08,-1.96439e+08,135567,-0.0267406,0.221995,-0,0.223599,-21542.9,-7152.25,-0,22699.2,135567
step02_gravity_refstate-crust.xmf,292,-5.84832e-07,1.32424e-06,0,2.36772e-06,-2.41471e+08,-2.4134e+08,-2.41431e+08,162426,-0.0248468,0.225988,-0,0.22735,-20520,-8790.68,-0,22323.7,162426
step02_gravity_refstate-crust.xmf,293,-5.68259e-07,1.55913e-06,0,2.72088e-06,-2.87093e+08,-2.86947e+08,-2.87054e+08,186653,-0.0235559,0.229429,-0,0.230635,-19574.8,-10452,-0,22190.4,186653
step02_gravity_refstate-crust.xmf,294,-4.22741e-07,1.64041e-06,0,3.28483e-06,-3.36289e+08,-3.36148e+08,-3.3626e+08,225339,-0.0236407,0.243344,-0,0.24449,-17043.8,-12243.8,-0,20985.7,225339
step02_gravity_refstate-crust.xmf,295,-4.67564e-07,1.7999e-06,0,3.58414e-06,-3.75142e+08,-3.74986e+08,-3.75109e+08,245872,-0.0236676,0.247225,-0,0.248355,-16155.1,-13658.3,-0,21155,245872
step02_gravity_refstate-crust.xmf,296,-5.37225e-07,1.95863e-06,0,3.85867e-06,-4.11924e+08,-4.11753e+08,-4.11887e+08,264705,-0.0239953,0.250396,-0,0.251543,-15392.4,-14997.4,-0,21490.6,264705
step02_gravity_refstate-crust.xmf,297,-6.26575e-07,2.11619e-06,0,4.11234e-06,-4.4617e+08,-4.45982e+08,-4.46127e+08,282107,-0.0245055,0.252945,-0,0.254129,-14743.4,-16244,-0,21937.1,282107
step02_gravity_refstate-crust.xmf,298,-1.06172e-06,8.56941e-07,0,1.16988e-06,-1.13212e+08,-1.13081e+08,-1.1314e+08,80253.9,-0.0319868,0.214316,-0,0.21669,-23512.2,-4118.64,-0,23870.2,80253.9
step02_gravity_refstate-crust.xmf,299,-7.23435e-07,2.07086e-06,0,5.50528e-06,-5.64299e+08,-5.64108e+08,-5.6425e+08,377662,-0.0284619,0.276031,-0,0.277494,-11204.8,-20544.2,-0,23401.1,377662
step02_gravity_refstate-crust.xmf,300,-7.92067e-07,2.04623e-06,0,5.86812e-06,-5.8882e+08,-5.88626e+08,-5.88766e+08,402553,-0.0293331,0.280394,-0,0.281924,-10633.5,-21436.6,-0,23929,402553
step02_gravity_refstate-crust.xmf,301,-1.02608e-06,2.14648e-06,0,6.61791e-06,-6.36455e+08,-6.36237e+08,-6.36384e+08,453989,-0.0308626,0.288316,-0,0.289963,-9673.95,-23169.9,-0,25108.4,453989
step02_gravity_refstate-crust.xmf,302,-8.79728e-07,2.05363e-06,0,6.2481e-06,-6.12907e+08,-6.12706e+08,-6.12847e+08,428620,-0.0301684,0.284795,-0,0.286388,-10099.9,-22313.1,-0,24492.5,428620
step02_gravity_refstate-crust.xmf,303,1.52912e-06,-4.4266e-06,0,1.22625e-05,-7.57261e+08,-7.5767e+08,-7.57366e+08,841209,-0.0337546,0.373228,-0,0.374751,-4836.7,-27568.2,-0,27989.3,841209
step02_gravity_refstate-crust.xmf,304,-7.40657e-07,1.38495e-06,0,7.47233e-06,-6.59786e+08,-6.5964e+08,-6.59735e+08,512602,-0.0322331,0.303386,-0,0.305093,-8461.04,-24019.3,-0,25466,512602
step02_gravity_refstate-crust.xmf,305,-8.48087e-07,1.33512e-06,0,7.97183e-06,-6.79939e+08,-6.79789e+08,-6.79881e+08,546868,-0.0328134,0.308539,-0,0.310279,-8051.81,-24752.5,-0,26029.2,546868
step02_gravity_refstate-crust.xmf,306,1.16357e-06,-3.37506e-06,0,1.1414e-05,-7.4287e+08,-7.43181e+08,-7.4295e+08,782997,-0.0340076,0.362958,-0,0.364548,-5194.67,-27044.4,-0,27538.8,782997
step02_gravity_refstate-crust.xmf,307,8.2061e-07,-2.42444e-06,0,1.06247e-05,-7.28249e+08,-7.28471e+08,-7.28305e+08,728858,-0.0340683,0.352864,-0,0.354504,-5598.28,-26512.2,-0,27096.8,728858
step02_gravity_refstate-crust.xmf,308,5.3456e-07,-1.61639e-06,0,9.8954e-06,-7.13197e+08,-7.13344e+08,-7.13233e+08,678825,-0.0339463,0.343316,-0,0.34499,-6029.23,-25964.3,-0,26655.1,678825
step02_gravity_refstate-crust.xmf,309,3.15486e-07,-9.55685e-07,0,9.21338e-06,-6.97169e+08,-6.97256e+08,-6.9719e+08,632038,-0.0336563,0.334352,-0,0.336042,-6482.74,-25380.9,-0,26195.7,632038
step02_gravity_refstate-crust.xmf,310,-3.35647e-08,-5.38475e-08,0,8.51393e-06,-6.82309e+08,-6.82311e+08,-6.82307e+08,584056,-0.0332945,0.32357,-0,0.325278,-7107.14,-24839.9,-0,25836.7,584056
step02_gravity_refstate-crust.xmf,311,-4.55689e-07,1.83374e-06,0,4.63363e-06,-4.80711e+08,-4.80553e+08,-4.80679e+08,317867,-0.0259782,0.266915,-0,0.268177,-12779.4,-17501.7,-0,21670.8,317867
step02_gravity_refstate-crust.xmf,312,-2.61953e-07,1.48034e-06,0,5.10892e-06,-5.12761e+08,-5.12641e+08,-5.12743e+08,350472,-0.027237,0.27884,-0,0.280168,-11253.3,-18668.8,-0,21798.2,350472
step02_gravity_refstate-crust.xmf,313,2.97018e-06,-8.25983e-06,0,1.52649e-05,-7.98938e+08,-7.99708e+08,-7.99141e+08,1.04717e+06,-0.0312131,0.405471,-0,0.40667,-4005.95,-29085.4,-0,29359.9,1.04717e+06
step02_gravity_refstate-crust.xmf,314,-3.26532e-06,5.27223e-06,0,8.01606e-06,-7.87638e+08,-7.87052e+08,-7.87414e+08,549901,-0.025964,0.295633,-0,0.29677,-8085.95,-28669.7,-0,29788.2,549901
step02_gravity_refstate-crust.xmf,315,-2.81036e-06,3.32443e-06,0,1.03414e-05,-7.87808e+08,-7.87387e+08,-7.87615e+08,709422,-0.0301426,0.326476,-0,0.327864,-6715.13,-28674.7,-0,29450.5,709422
step02_gravity_refstate-crust.xmf,316,-3.14503e-06,4.48631e-06,0,9.12378e-06,-7.88157e+08,-7.87633e+08,-7.87941e+08,625892,-0.0281028,0.310615,-0,0.311884,-7387.11,-28687.9,-0,29623.7,625892
step02_gravity_refstate-crust.xmf,317,-2.98312e-06,3.54606e-06,0,1.08993e-05,-8.03459e+08,-8.03011e+08,-8.03255e+08,747692,-0.0286205,0.333565,-0,0.33479,-6364.17,-29244.2,-0,29928.6,747692
step02_gravity_refstate-crust.xmf,318,-3.23283e-06,5.90489e-06,0,6.83602e-06,-7.87793e+08,-7.87166e+08,-7.87571e+08,468951,-0.023169,0.278875,-0,0.279836,-8942.35,-28676.5,-0,30038.4,468951
step02_gravity_refstate-crust.xmf,319,-2.9427e-06,5.71153e-06,0,5.97495e-06,-7.61652e+08,-7.61059e+08,-7.6145e+08,409881,-0.0235058,0.264105,-0,0.265149,-10135.1,-27725.7,-0,29520,409881
step02_gravity_refstate-crust.xmf,320,-2.78813e-06,5.46483e-06,0,5.72678e-06,-7.45114e+08,-7.44548e+08,-7.44923e+08,392857,-0.023986,0.259218,-0,0.260325,-10680.5,-27123.8,-0,29150.9,392857
step02_gravity_refstate-crust.xmf,321,-2.12887e-06,5.04639e-06,0,4.02841e-06,-6.81108e+08,-6.80616e+08,-6.80962e+08,276349,-0.0202926,0.225043,-0,0.225956,-14552.2,-24795.6,-0,28750.5,276349
step02_gravity_refstate-crust.xmf,322,-1.38997e-06,4.1527e-06,0,2.59383e-06,-5.91414e+08,-5.91034e+08,-5.91319e+08,177937,-0.0142388,0.188992,-0,0.189528,-20971.4,-21531.8,-0,30056.9,177937
step02_gravity_refstate-crust.xmf,323,-9.60679e-07,3.56483e-06,0,1.62046e-06,-5.54122e+08,-5.53812e+08,-5.54056e+08,111164,-0.00875374,0.162674,-0,0.162909,-27007.8,-20175,-0,33711.3,111164
step02_gravity_refstate-crust.xmf,324,-8.47153e-07,3.46809e-06,0,1.34556e-06,-5.56459e+08,-5.56163e+08,-5.56401e+08,92305.2,-0.00702064,0.155271,-0,0.155429,-28854.3,-20260.4,-0,35257,92305.2
step02_gravity_refstate-crust.xmf,325,-1.10183e-06,3.95746e-06,0,1.94274e-06,-5.90513e+08,-5.90166e+08,-5.90437e+08,133272,-0.0100794,0.169818,-0,0.170116,-24367.5,-21499.9,-0,32496.5,133272
step02_gravity_refstate-crust.xmf,326,-1.24229e-06,4.06921e-06,0,2.23993e-06,-5.91361e+08,-5.90997e+08,-5.91276e+08,153659,-0.0119865,0.178613,-0,0.179015,-22698.2,-21530.4,-0,31285.2,153659
step02_gravity_refstate-crust.xmf,327,-2.00769e-06,5.12568e-06,0,3.56423e-06,-6.828e+08,-6.82311e+08,-6.82662e+08,244506,-0.0178685,0.214021,-0,0.214766,-15671.3,-24857.8,-0,29385.4,244506
step02_gravity_refstate-crust.xmf,328,-1.75281e-06,4.83967e-06,0,3.13846e-06,-6.56064e+08,-6.55612e+08,-6.55944e+08,215298,-0.0162926,0.203313,-0,0.203965,-17487.5,-23885.1,-0,29602.6,215298
step02_gravity_refstate-crust.xmf,329,-1.5417e-06,4.56188e-06,0,2.75995e-06,-6.32981e+08,-6.32563e+08,-6.32876e+08,189333,-0.0144923,0.192866,-0,0.19341,-19407,-23045.1,-0,30128.3,189333
step02_gravity_refstate-crust.xmf,330,-2.39035e-06,5.71814e-06,0,4.13491e-06,-7.32323e+08,-7.31766e+08,-7.32159e+08,283655,-0.0186509,0.228499,-0,0.229259,-13283.5,-26660.1,-0,29786.1,283655
step02_gravity_refstate-crust.xmf,331,-2.25067e-06,5.40485e-06,0,4.027e-06,-7.08586e+08,-7.0806e+08,-7.08431e+08,276252,-0.0193125,0.225472,-0,0.226298,-14001.4,-25796,-0,29350.9,276252
step02_gravity_refstate-crust.xmf,332,-7.41504e-07,3.36578e-06,0,1.07789e-06,-5.57896e+08,-5.57614e+08,-5.57845e+08,73943.1,-0.00542818,0.148786,-0,0.148885,-30822.3,-20313,-0,36913.8,73943.1
step02_gravity_refstate-crust.xmf,333,-6.89806e-07,2.95289e-06,0,4.81499e-07,-5.12825e+08,-5.12575e+08,-5.12778e+08,33030.8,-0.00269596,0.143228,-0,0.143253,-35959.1,-18671.7,-0,40517.8,33030.8
step02_gravity_refstate-crust.xmf,334,-6.26923e-07,2.97628e-06,0,2.37112e-07,-5.25435e+08,-5.25188e+08,-5.25392e+08,16265.9,-0.00124988,0.139919,-0,0.139924,-37985.4,-19131.1,-0,42531.1,16265.9
step02_gravity_refstate-crust.xmf,335,-3.71422e-07,1.44005e-06,0,2.97403e-06,-2.94439e+08,-2.94315e+08,-2.94414e+08,204019,-0.0241651,0.240422,-0,0.241634,-17820,-10720.1,-0,20795.9,204019
step02_gravity_refstate-crust.xmf,336,-3.91506e-07,1.78777e-06,0,4.31411e-06,-4.47667e+08,-4.47518e+08,-4.4764e+08,295948,-0.0251613,0.26304,-0,0.264241,-13492.5,-16299,-0,21159,295948
step02_gravity_refstate-crust.xmf,337,-5.22043e-07,8.04165e-07,0,1.70358e-06,-1.4859e+08,-1.48499e+08,-1.48554e+08,116866,-0.0308789,0.228877,-0,0.23095,-20637.1,-5408.69,-0,21334.1,116866
step02_gravity_refstate-crust.xmf,338,-7.62341e-07,6.79462e-07,0,1.20472e-06,-1.02489e+08,-1.0239e+08,-1.02436e+08,82643.7,-0.0347508,0.224048,-0,0.226727,-21723.4,-3729.16,-0,22041.2,82643.7
step02_gravity_refstate-crust.xmf,339,-1.27729e-06,6.94257e-07,0,6.91524e-07,-6.03776e+07,-6.02424e+07,-6.029e+07,47438.6,-0.0379988,0.215362,-0,0.218689,-23600.4,-2194.01,-0,23702.2,47438.6
step02_gravity_refstate-crust.xmf,340,-1.89409e-06,7.17257e-07,0,1.16191e-09,-179988,-849.336,-50053.2,79.7067,-0.0450505,0.211337,-0,0.216085,-24778,0,-0,24778,79.7067
step02_gravity_refstate-crust.xmf,341,-2.75406e-07,1.41925e-06,0,5.4275e-06,-5.37866e+08,-5.3775e+08,-5.37848e+08,372327,-0.0280854,0.283093,-0,0.284483,-10680,-19582.7,-0,22305.7,372327
step02_gravity_refstate-crust.xmf,342,-6.01754e-07,1.36612e-06,0,7.03551e-06,-6.38788e+08,-6.38653e+08,-6.38747e+08,482636,-0.0315983,0.29951,-0,0.301173,-8814.44,-23255.4,-0,24869.8,482636
step02_gravity_refstate-crust.xmf,343,-2.89941e-07,1.56956e-06,0,4.86548e-06,-4.92993e+08,-4.92865e+08,-4.92973e+08,333772,-0.0265808,0.274547,-0,0.275831,-11836.3,-17949.2,-0,21500.5,333772
step02_gravity_refstate-crust.xmf,344,3.19961e-06,-7.14941e-06,0,1.217e-05,-7.57198e+08,-7.57908e+08,-7.57417e+08,834864,-0.0323059,0.38789,-0,0.389233,-4222.29,-27568.4,-0,27889.9,834864
step02_gravity_refstate-crust.xmf,345,3.67124e-06,-8.469e-06,0,1.29256e-05,-7.71266e+08,-7.72098e+08,-7.71517e+08,886700,-0.0317428,0.397803,-0,0.399067,-3977.73,-28080.4,-0,28360.8,886700
step02_gravity_refstate-crust.xmf,346,4.31545e-06,-9.93977e-06,0,1.36798e-05,-7.85287e+08,-7.86265e+08,-7.85583e+08,938437,-0.0307596,0.40885,-0,0.410006,-3737.81,-28591.2,-0,28834.5,938437
step02_gravity_refstate-crust.xmf,347,1.00197e-06,-5.76622e-06,0,1.62346e-05,-8.11173e+08,-8.11637e+08,-8.11242e+08,1.11369e+06,-0.0306132,0.399721,-0,0.400892,-4269,-29526.7,-0,29833.7,1.11369e+06
step02_gravity_refstate-crust.xmf,348,-9.7953e-07,-1.77557e-06,0,1.49926e-05,-8.11809e+08,-8.11864e+08,-8.11742e+08,1.0285e+06,-0.0305399,0.380874,-0,0.382097,-4803.45,-29548,-0,29935.9,1.0285e+06
step02_gravity_refstate-crust.xmf,349,-2.91448e-06,3.07578e-06,0,1.19451e-05,-8.15203e+08,-8.14792e+08,-8.15003e+08,819436,-0.0276334,0.345746,-0,0.346849,-5886.25,-29671.3,-0,30249.5,819436
step02_gravity_refstate-crust.xmf,350,-2.25479e-06,1.13632e-06,0,1.33904e-05,-8.13016e+08,-8.12783e+08,-8.12861e+08,918583,-0.0294377,0.36236,-0,0.363553,-5357.93,-29591.3,-0,30072.4,918583
step02_gravity_refstate-crust.xmf,351,-3.06912e-06,6.12387e-06,0,5.99172e-06,-7.8236e+08,-7.81729e+08,-7.82149e+08,411032,-0.0214977,0.265571,-0,0.266439,-9769.12,-28479.7,-0,30108.6,411032
step02_gravity_refstate-crust.xmf,352,-2.66101e-06,6.07352e-06,0,4.57436e-06,-7.61375e+08,-7.60775e+08,-7.61192e+08,313801,-0.0184965,0.238529,-0,0.239246,-11935.8,-27717.2,-0,30177.9,313801
step02_gravity_refstate-crust.xmf,353,-2.83544e-06,5.96566e-06,0,5.20429e-06,-7.62187e+08,-7.61583e+08,-7.61992e+08,357014,-0.02082,0.250453,-0,0.251316,-11042.6,-27745.9,-0,29862.6,357014
step02_gravity_refstate-crust.xmf,354,-9.62691e-07,3.84849e-06,0,1.66473e-06,-5.92054e+08,-5.91724e+08,-5.91988e+08,114201,-0.00827262,0.161586,-0,0.161797,-26067.5,-21556.4,-0,33825.9,114201
step02_gravity_refstate-crust.xmf,355,-1.84243e-06,5.13648e-06,0,3.14934e-06,-6.84003e+08,-6.83524e+08,-6.83876e+08,216044,-0.0155641,0.203686,-0,0.20428,-16824.3,-24902.3,-0,30053,216044
step02_gravity_refstate-crust.xmf,356,-1.41502e-06,4.44748e-06,0,2.50385e-06,-6.26731e+08,-6.26328e+08,-6.26633e+08,171764,-0.0129749,0.185415,-0,0.185869,-20666.6,-22817.9,-0,30785.8,171764
step02_gravity_refstate-crust.xmf,357,-1.60909e-06,4.81457e-06,0,2.78841e-06,-6.5783e+08,-6.57389e+08,-6.57719e+08,191285,-0.014118,0.193601,-0,0.194115,-18714.2,-23949.9,-0,30394.4,191285
step02_gravity_refstate-crust.xmf,358,-2.46282e-06,6.0959e-06,0,4.03791e-06,-7.60444e+08,-7.59857e+08,-7.60275e+08,277001,-0.0162923,0.227416,-0,0.227999,-12853.5,-27684.2,-0,30522.6,277001
step02_gravity_refstate-crust.xmf,359,-6.50864e-07,3.27329e-06,0,8.192e-07,-5.59124e+08,-5.58855e+08,-5.59079e+08,56197.1,-0.00398552,0.143423,-0,0.143479,-32868.1,-20357.9,-0,38662.1,56197.1
step02_gravity_refstate-crust.xmf,360,-5.7917e-07,3.20846e-06,0,5.78988e-07,-5.61462e+08,-5.61202e+08,-5.61422e+08,39718.6,-0.00272302,0.139348,-0,0.139375,-34865.1,-20443.2,-0,40416.6,39718.6
step02_gravity_refstate-crust.xmf,361,-5.53243e-07,3.05949e-06,0,2.3227e-09,-5.46416e+08,-5.46169e+08,-5.46378e+08,159.338,-1.75707e-19,0.136977,-0,0.136977,-40000,-19895.3,-0,44674.6,159.338
step02_gravity_refstate-crust.xmf,362,-3.77283e-07,9.67491e-07,0,2.17233e-06,-1.95279e+08,-1.95187e+08,-1.95253e+08,149022,-0.0278661,0.233857,-0,0.235512,-19538.3,-7109.29,-0,20791.5,149022
step02_gravity_refstate-crust.xmf,363,-3.0002e-07,1.15332e-06,0,2.6263e-06,-2.4388e+08,-2.43781e+08,-2.4386e+08,180164,-0.0256964,0.239402,-0,0.240778,-18343.8,-8879.28,-0,20379.8,180164
step02_gravity_refstate-crust.xmf,364,-1.5815e-07,1.27001e-06,0,3.18114e-06,-3.00812e+08,-3.00714e+08,-3.00801e+08,218227,-0.0244517,0.251007,-0,0.252195,-16206.2,-10952.7,-0,19560.2,218227
step02_gravity_refstate-crust.xmf,365,-1.87338e-07,1.39832e-06,0,3.48264e-06,-3.38848e+08,-3.38739e+08,-3.38835e+08,238909,-0.0241112,0.254682,-0,0.255821,-15414.6,-12337.5,-0,19744,238909
step02_gravity_refstate-crust.xmf,366,-2.27475e-07,1.51325e-06,0,3.78029e-06,-3.76806e+08,-3.76686e+08,-3.7679e+08,259328,-0.0241972,0.258371,-0,0.259501,-14632,-13719.4,-0,20057.9,259328
step02_gravity_refstate-crust.xmf,367,-3.08238e-07,1.65603e-06,0,4.05488e-06,-4.1376e+08,-4.13625e+08,-4.13739e+08,278165,-0.0245815,0.260822,-0,0.261978,-14032.4,-15064.7,-0,20587.6,278165
step02_gravity_refstate-crust.xmf,368,-2.82439e-07,1.35556e-06,0,5.77397e-06,-5.62732e+08,-5.6262e+08,-5.62713e+08,396094,-0.0289774,0.287783,-0,0.289239,-10106.3,-20487.8,-0,22844.8,396094
step02_gravity_refstate-crust.xmf,369,-3.02249e-07,1.22699e-06,0,6.18087e-06,-5.87469e+08,-5.87364e+08,-5.87448e+08,424008,-0.0298883,0.292665,-0,0.294187,-9560.82,-21388.1,-0,23427.7,424008
step02_gravity_refstate-crust.xmf,370,-3.36536e-07,1.11643e-06,0,6.63633e-06,-6.12854e+08,-6.12755e+08,-6.12831e+08,455252,-0.0308235,0.297904,-0,0.299495,-9029.73,-22311.9,-0,24069.9,455252
step02_gravity_refstate-crust.xmf,371,2.68484e-06,-5.83233e-06,0,1.14343e-05,-7.4248e+08,-7.43064e+08,-7.42664e+08,784396,-0.0327356,0.377371,-0,0.378788,-4536.85,-27032.6,-0,27410.6,784396
step02_gravity_refstate-crust.xmf,372,-4.29688e-08,4.07079e-07,0,7.36955e-06,-6.39476e+08,-6.39445e+08,-6.39473e+08,505551,-0.0318843,0.310676,-0,0.312307,-7991.47,-23281.2,-0,24614.6,505551
step02_gravity_refstate-crust.xmf,373,-7.29759e-08,2.23039e-07,0,7.89106e-06,-6.60073e+08,-6.60053e+08,-6.60068e+08,541327,-0.0325956,0.316189,-0,0.317865,-7587.38,-24030.7,-0,25200,541327
step02_gravity_refstate-crust.xmf,374,2.18457e-06,-4.60436e-06,0,1.07078e-05,-7.27133e+08,-7.27599e+08,-7.27283e+08,734555,-0.0329962,0.366745,-0,0.368226,-4908.6,-26473.7,-0,26924.9,734555
step02_gravity_refstate-crust.xmf,375,1.74003e-06,-3.52973e-06,0,1.00178e-05,-7.11451e+08,-7.11813e+08,-7.11571e+08,687224,-0.0330724,0.356546,-0,0.358076,-5317.88,-25902.7,-0,26442.9,687224
step02_gravity_refstate-crust.xmf,376,1.38566e-06,-2.63433e-06,0,9.34001e-06,-6.94607e+08,-6.94882e+08,-6.94702e+08,640725,-0.0329283,0.346984,-0,0.348543,-5747.87,-25289.4,-0,25934.4,640725
step02_gravity_refstate-crust.xmf,377,1.16619e-06,-1.98872e-06,0,8.7086e-06,-6.76892e+08,-6.77108e+08,-6.76972e+08,597410,-0.0325588,0.338877,-0,0.340438,-6148.51,-24644.6,-0,25400,597410
step02_gravity_refstate-crust.xmf,378,-9.0846e-08,1.34131e-06,0,4.44798e-06,-4.4385e+08,-4.43751e+08,-4.43843e+08,305132,-0.0253861,0.27313,-0,0.274307,-12301.2,-16160.5,-0,20309.6,305132
step02_gravity_refstate-crust.xmf,379,-4.35702e-08,1.24315e-06,0,4.71112e-06,-4.68712e+08,-4.68624e+08,-4.68709e+08,323183,-0.0260162,0.27805,-0,0.279265,-11582.2,-17065.7,-0,20624.9,323183
step02_gravity_refstate-crust.xmf,380,5.94997e-08,1.05101e-06,0,4.97512e-06,-4.90515e+08,-4.90447e+08,-4.90519e+08,341293,-0.0266314,0.283952,-0,0.285199,-10812.8,-17859.6,-0,20877.7,341293
step02_gravity_refstate-crust.xmf,381,1.31816e-07,8.78066e-07,0,5.2654e-06,-5.13668e+08,-5.13617e+08,-5.13677e+08,361206,-0.0273364,0.289099,-0,0.290389,-10170.3,-18702.5,-0,21288.9,361206
step02_gravity_refstate-crust.xmf,382,5.21407e-06,-1.22998e-05,0,1.41259e-05,-7.99231e+08,-8.00432e+08,-7.99588e+08,969040,-0.0290919,0.42157,-0,0.422572,-3491.85,-29098.8,-0,29307.6,969040
step02_gravity_refstate-crust.xmf,383,4.13583e-06,-1.11393e-05,0,1.59271e-05,-8.11773e+08,-8.12821e+08,-8.12057e+08,1.0926e+06,-0.0291755,0.418616,-0,0.419631,-3749.22,-29552.9,-0,29789.8,1.0926e+06
step02_gravity_refstate-crust.xmf,384,-3.15188e-06,4.09839e-06,0,1.08937e-05,-8.15848e+08,-8.15351e+08,-8.15632e+08,747308,-0.0262235,0.333557,-0,0.334586,-6302.35,-29695.4,-0,30356.8,747308
step02_gravity_refstate-crust.xmf,385,-5.49689e-07,-2.919e-06,0,1.62361e-05,-8.20691e+08,-8.20853e+08,-8.20653e+08,1.11379e+06,-0.0290627,0.392007,-0,0.393083,-4517.7,-29871.3,-0,30211,1.11379e+06
step02_gravity_refstate-crust.xmf,386,-3.36428e-06,6.20692e-06,0,7.19106e-06,-8.05714e+08,-8.05057e+08,-8.05483e+08,493307,-0.0214611,0.28536,-0,0.286166,-8403.47,-29328.8,-0,30509,493307
step02_gravity_refstate-crust.xmf,387,-3.42494e-06,5.64433e-06,0,8.2863e-06,-8.05094e+08,-8.04472e+08,-8.04859e+08,568440,-0.0239473,0.30038,-0,0.301333,-7703.61,-29305.1,-0,30300.8,568440
step02_gravity_refstate-crust.xmf,388,-3.34267e-06,4.80942e-06,0,9.49839e-06,-8.04178e+08,-8.03619e+08,-8.03949e+08,651590,-0.0263416,0.315971,-0,0.317067,-7044.72,-29270.8,-0,30106.6,651590
step02_gravity_refstate-crust.xmf,389,-3.10163e-06,6.45669e-06,0,5.93204e-06,-7.98872e+08,-7.98216e+08,-7.98659e+08,406938,-0.0192299,0.265839,-0,0.266534,-9530.64,-29081.2,-0,30603.1,406938
step02_gravity_refstate-crust.xmf,390,-2.11075e-06,5.43887e-06,0,3.57156e-06,-7.09465e+08,-7.08947e+08,-7.0932e+08,245009,-0.0169131,0.214562,-0,0.215228,-15068.2,-25828.7,-0,29902.7,245009
step02_gravity_refstate-crust.xmf,391,-1.27865e-06,4.36008e-06,0,2.23277e-06,-6.26401e+08,-6.26014e+08,-6.26313e+08,153168,-0.0112133,0.177284,-0,0.177638,-21996.6,-22806.3,-0,31685.6,153168
step02_gravity_refstate-crust.xmf,392,-8.128e-07,3.75318e-06,0,1.37814e-06,-5.98539e+08,-5.98226e+08,-5.98483e+08,94540.5,-0.0063852,0.153107,-0,0.15324,-27929.1,-21792.9,-0,35425.5,94540.5
step02_gravity_refstate-crust.xmf,393,-6.84804e-07,3.64768e-06,0,1.1285e-06,-6.0241e+08,-6.02113e+08,-6.02363e+08,77415.1,-0.00487809,0.146229,-0,0.146311,-29780.8,-21934.2,-0,36986.6,77415.1
step02_gravity_refstate-crust.xmf,394,-9.76158e-07,4.12309e-06,0,1.70346e-06,-6.269e+08,-6.2655e+08,-6.26833e+08,116857,-0.00774654,0.16101,-0,0.161196,-25079.5,-22825.3,-0,33911.3,116857
step02_gravity_refstate-crust.xmf,395,-1.12148e-06,4.24249e-06,0,1.94987e-06,-6.26307e+08,-6.25939e+08,-6.2623e+08,133761,-0.00935714,0.168624,-0,0.168884,-23559.4,-22803.4,-0,32787.8,133761
step02_gravity_refstate-crust.xmf,396,-1.9295e-06,5.42285e-06,0,3.15611e-06,-7.10775e+08,-7.10271e+08,-7.10643e+08,216509,-0.0145761,0.204134,-0,0.204654,-16173.5,-25877.1,-0,30515.7,216509
step02_gravity_refstate-crust.xmf,397,-1.66911e-06,5.09718e-06,0,2.77897e-06,-6.86245e+08,-6.85781e+08,-6.86131e+08,190638,-0.0132582,0.193531,-0,0.193985,-18039.9,-24984.6,-0,30816.7,190638
step02_gravity_refstate-crust.xmf,398,-1.45891e-06,4.74658e-06,0,2.47399e-06,-6.60005e+08,-6.59579e+08,-6.59905e+08,169716,-0.0120031,0.184172,-0,0.184563,-20007.5,-24029.6,-0,31268.6,169716
step02_gravity_refstate-crust.xmf,399,-2.17107e-06,5.76152e-06,0,3.55031e-06,-7.35018e+08,-7.34474e+08,-7.34869e+08,243551,-0.0156534,0.215287,-0,0.215856,-14467.8,-26759.2,-0,30419.9,243551
step02_gravity_refstate-crust.xmf,400,-2.20887e-06,6.06816e-06,0,3.52716e-06,-7.59679e+08,-7.59111e+08,-7.59528e+08,241963,-0.0140119,0.216132,-0,0.216586,-13876.1,-27657.3,-0,30943.1,241963
step02_gravity_refstate-crust.xmf,401,-5.69082e-07,3.53856e-06,0,8.82135e-07,-6.04698e+08,-6.04416e+08,-6.04658e+08,60514.5,-0.00356244,0.140294,-0,0.14034,-31794.3,-22017.8,-0,38673.8,60514.5
step02_gravity_refstate-crust.xmf,402,-5.48215e-07,3.14676e-06,0,3.83538e-07,-5.58077e+08,-5.57823e+08,-5.58039e+08,26310.7,-0.00180352,0.137471,-0,0.137483,-36581.5,-20320,-0,41846.2,26310.7
step02_gravity_refstate-crust.xmf,403,-4.51747e-07,3.22504e-06,0,2.0411e-07,-5.81792e+08,-5.81539e+08,-5.81761e+08,14002,-0.000834787,0.133467,-0,0.133469,-38128.7,-21183.9,-0,43618.3,14002
step02_gravity_refstate-crust.xmf,404,-1.37401e-07,1.13811e-06,0,2.90978e-06,-2.66923e+08,-2.66836e+08,-2.66914e+08,199611,-0.0251769,0.24808,-0,0.249355,-16861.8,-9718.82,-0,19462.2,199611
step02_gravity_refstate-crust.xmf,405,-9.91908e-08,1.37496e-06,0,4.2047e-06,-4.18209e+08,-4.18108e+08,-4.18202e+08,288442,-0.0248583,0.269232,-0,0.270377,-12937.5,-15227,-0,19981,288442
step02_gravity_refstate-crust.xmf,406,-1.69499e-07,6.3281e-07,0,1.83123e-06,-1.46367e+08,-1.46312e+08,-1.46356e+08,125622,-0.0317304,0.240259,-0,0.242345,-18715.4,-5328.95,-0,19459.3,125622
step02_gravity_refstate-crust.xmf,407,-3.95967e-07,5.16837e-07,0,1.28324e-06,-9.88839e+07,-9.88212e+07,-9.88567e+07,88030,-0.0362095,0.234312,-0,0.237094,-19899.3,-3599.16,-0,20222.2,88030
step02_gravity_refstate-crust.xmf,408,-8.10813e-07,4.71568e-07,0,6.54212e-07,-4.90735e+07,-4.89855e+07,-4.90179e+07,44879,-0.0419691,0.227456,-0,0.231295,-21300.3,-1784.02,-0,21374.9,44879
step02_gravity_refstate-crust.xmf,409,-1.35348e-06,5.1272e-07,0,5.8777e-09,-128608,-586.593,-35759.2,403.211,-0.0487477,0.222099,-0,0.227386,-22506.7,0,-0,22506.7,403.211
step02_gravity_refstate-crust.xmf,410,1.94022e-07,6.99356e-07,0,5.58619e-06,-5.37117e+08,-5.37082e+08,-5.3713e+08,383212,-0.0281051,0.294062,-0,0.295402,-9593.91,-19556.1,-0,21782.7,383212
step02_gravity_refstate-crust.xmf,411,-2.0086e-08,5.33349e-07,0,6.98791e-06,-6.22423e+08,-6.22385e+08,-6.22421e+08,479371,-0.0312663,0.306674,-0,0.308263,-8314.25,-22660.7,-0,24137.8,479371
step02_gravity_refstate-crust.xmf,412,8.50931e-07,-1.17824e-06,0,8.09415e-06,-6.59198e+08,-6.59337e+08,-6.59257e+08,555259,-0.032223,0.329519,-0,0.33109,-6690.88,-24000.4,-0,24915.6,555259
step02_gravity_refstate-crust.xmf,413,5.3388e-06,-1.11229e-05,0,1.20196e-05,-7.7038e+08,-7.71509e+08,-7.70746e+08,824541,-0.0293733,0.410373,-0,0.411423,-3454.27,-28050.8,-0,28262.7,824541
step02_gravity_refstate-crust.xmf,414,4.32511e-06,-8.4047e-06,0,1.09487e-05,-7.42504e+08,-7.43378e+08,-7.42801e+08,751078,-0.030446,0.391269,-0,0.392452,-3881.13,-27036.1,-0,27313.3,751078
step02_gravity_refstate-crust.xmf,415,4.82396e-06,-9.72177e-06,0,1.15096e-05,-7.56879e+08,-7.57877e+08,-7.5721e+08,789561,-0.0300085,0.400832,-0,0.401953,-3651.16,-27559.4,-0,27800.2,789561
step02_gravity_refstate-crust.xmf,416,6.06627e-06,-1.30089e-05,0,1.24546e-05,-7.85933e+08,-7.87242e+08,-7.86349e+08,854384,-0.0280955,0.42274,-0,0.423673,-3225.98,-28617.1,-0,28798.3,854384
step02_gravity_refstate-crust.xmf,417,2.34464e-06,-8.92827e-06,0,1.82563e-05,-8.24159e+08,-8.24932e+08,-8.2432e+08,1.25238e+06,-0.0279345,0.413533,-0,0.414476,-4000,-30000,-0,30265.5,1.25238e+06
step02_gravity_refstate-crust.xmf,418,-3.43812e-06,5.14737e-06,0,9.83785e-06,-8.19504e+08,-8.18915e+08,-8.19268e+08,674877,-0.023919,0.321102,-0,0.321991,-6735.07,-29828.9,-0,30579.8,674877
step02_gravity_refstate-crust.xmf,419,-3.24524e-06,4.55715e-06,0,1.0991e-05,-8.26617e+08,-8.26082e+08,-8.26395e+08,753985,-0.0238597,0.335336,-0,0.336184,-6182.08,-30087.8,-0,30716.3,753985
step02_gravity_refstate-crust.xmf,420,-1.96463e-06,5.71581e-07,0,1.46093e-05,-8.26245e+08,-8.26071e+08,-8.2611e+08,1.0022e+06,-0.0271463,0.374604,-0,0.375587,-4989.14,-30073.2,-0,30484.3,1.0022e+06
step02_gravity_refstate-crust.xmf,421,-2.84097e-06,3.10128e-06,0,1.25904e-05,-8.27141e+08,-8.26733e+08,-8.26946e+08,863700,-0.0254493,0.353229,-0,0.354145,-5605.29,-30106.2,-0,30623.6,863700
step02_gravity_refstate-crust.xmf,422,-3.21643e-06,6.52697e-06,0,6.33815e-06,-8.06729e+08,-8.0606e+08,-8.06508e+08,434797,-0.0191534,0.272728,-0,0.2734,-9042.78,-29366.9,-0,30727.6,434797
step02_gravity_refstate-crust.xmf,423,-2.90188e-06,6.33604e-06,0,5.2231e-06,-7.82641e+08,-7.82008e+08,-7.82442e+08,358304,-0.0190107,0.252593,-0,0.253307,-10584.4,-28490.9,-0,30393.5,358304
step02_gravity_refstate-crust.xmf,424,-2.92627e-06,6.69527e-06,0,5.24684e-06,-8.02756e+08,-8.02096e+08,-8.02555e+08,359933,-0.0166538,0.254978,-0,0.255522,-10125.9,-29223.7,-0,30928.2,359933
step02_gravity_refstate-crust.xmf,425,-2.46786e-06,6.42085e-06,0,3.97697e-06,-7.83459e+08,-7.8285e+08,-7.8329e+08,272820,-0.0140624,0.227863,-0,0.228297,-12381.6,-28522.6,-0,31094.1,272820
step02_gravity_refstate-crust.xmf,426,-2.71847e-06,6.41122e-06,0,4.57041e-06,-7.8272e+08,-7.82093e+08,-7.82533e+08,313530,-0.0165506,0.240018,-0,0.240587,-11459,-28494.6,-0,30712.4,313530
step02_gravity_refstate-crust.xmf,427,-8.2206e-07,4.00933e-06,0,1.45391e-06,-6.30731e+08,-6.304e+08,-6.30675e+08,99738,-0.00610213,0.153238,-0,0.15336,-26730.9,-22965.3,-0,35241.3,99738
step02_gravity_refstate-crust.xmf,428,-1.71643e-06,5.35757e-06,0,2.7777e-06,-7.11654e+08,-7.11168e+08,-7.11536e+08,190550,-0.0123373,0.194006,-0,0.194398,-17361.2,-25909.8,-0,31188.6,190550
step02_gravity_refstate-crust.xmf,429,-1.29465e-06,4.64214e-06,0,2.19294e-06,-6.60464e+08,-6.60056e+08,-6.60375e+08,150436,-0.0101301,0.175511,-0,0.175803,-21357.6,-24046.8,-0,32162,150436
step02_gravity_refstate-crust.xmf,430,-1.48377e-06,5.02747e-06,0,2.44886e-06,-6.89761e+08,-6.89314e+08,-6.89659e+08,167992,-0.0110275,0.183792,-0,0.184123,-19286.6,-25113.2,-0,31664.6,167992
step02_gravity_refstate-crust.xmf,431,-2.20985e-06,6.35998e-06,0,3.48104e-06,-7.83963e+08,-7.83375e+08,-7.83811e+08,238799,-0.011765,0.216496,-0,0.216816,-13339.6,-28541.9,-0,31505.3,238799
step02_gravity_refstate-crust.xmf,432,-4.7463e-07,3.45086e-06,0,6.49656e-07,-6.07191e+08,-6.06922e+08,-6.07159e+08,44566.4,-0.00245463,0.135583,-0,0.135606,-33828,-22108.8,-0,40412.1,44566.4
step02_gravity_refstate-crust.xmf,433,-3.9138e-07,3.39197e-06,0,3.99341e-07,-6.11215e+08,-6.10956e+08,-6.11188e+08,27394.8,-0.00141392,0.131681,-0,0.131688,-36096.6,-22255.6,-0,42406.1,27394.8
step02_gravity_refstate-crust.xmf,434,-3.54258e-07,3.32757e-06,0,2.44283e-09,-6.08948e+08,-6.08696e+08,-6.08924e+08,167.578,-1.0411e-19,0.129703,-0,0.129703,-40000,-22173.1,-0,45734.5,167.578
step02_gravity_refstate-crust.xmf,435,-4.5014e-08,7.67027e-07,0,2.30139e-06,-1.91243e+08,-1.91187e+08,-1.9124e+08,157875,-0.0285226,0.24595,-0,0.247599,-17600.8,-6963.39,-0,18928.2,157875
step02_gravity_refstate-crust.xmf,436,3.6951e-08,8.71127e-07,0,2.6816e-06,-2.30316e+08,-2.30259e+08,-2.30319e+08,183958,-0.0265041,0.251669,-0,0.253061,-16520,-8386.4,-0,18526.8,183958
step02_gravity_refstate-crust.xmf,437,9.7354e-08,9.41003e-07,0,3.0047e-06,-2.65503e+08,-2.65445e+08,-2.6551e+08,206123,-0.0252437,0.257337,-0,0.258572,-15482.5,-9667.76,-0,18253,206123
step02_gravity_refstate-crust.xmf,438,1.03782e-07,1.02334e-06,0,3.31279e-06,-3.02504e+08,-3.02441e+08,-3.02511e+08,227258,-0.024469,0.261728,-0,0.262869,-14641.5,-11015,-0,18322.2,227258
step02_gravity_refstate-crust.xmf,439,9.2804e-08,1.09108e-06,0,3.61628e-06,-3.4018e+08,-3.40112e+08,-3.40187e+08,248077,-0.024181,0.265845,-0,0.266942,-13850.7,-12386.7,-0,18581.5,248077
step02_gravity_refstate-crust.xmf,440,7.50789e-08,1.13568e-06,0,3.95722e-06,-3.81979e+08,-3.81906e+08,-3.81984e+08,271465,-0.0243607,0.270355,-0,0.27145,-13006.8,-13908.4,-0,19042.6,271465
step02_gravity_refstate-crust.xmf,441,2.10084e-07,9.61044e-07,0,4.22273e-06,-4.10109e+08,-4.10057e+08,-4.10123e+08,289680,-0.0246525,0.277881,-0,0.278972,-11888.6,-14932.8,-0,19087.4,289680
step02_gravity_refstate-crust.xmf,442,2.53047e-07,5.3283e-07,0,5.94762e-06,-5.61458e+08,-5.61438e+08,-5.61475e+08,408006,-0.0289492,0.29927,-0,0.300667,-9040.83,-20442.3,-0,22352.3,408006
step02_gravity_refstate-crust.xmf,443,2.86929e-07,3.07697e-07,0,6.36997e-06,-5.85774e+08,-5.85772e+08,-5.85793e+08,436980,-0.0298354,0.304308,-0,0.305767,-8554.37,-21327.3,-0,22978.9,436980
step02_gravity_refstate-crust.xmf,444,3.68698e-06,-6.93833e-06,0,1.03922e-05,-7.26947e+08,-7.27676e+08,-7.272e+08,712908,-0.0309617,0.380337,-0,0.381596,-4216.67,-26469.4,-0,26803.2,712908
step02_gravity_refstate-crust.xmf,445,2.9372e-07,1.95893e-07,0,6.71349e-06,-6.05146e+08,-6.05152e+08,-6.05166e+08,460546,-0.0305625,0.308245,-0,0.309756,-8207.71,-22032.4,-0,23511.6,460546
step02_gravity_refstate-crust.xmf,446,6.61249e-07,-4.7375e-07,0,7.03508e-06,-6.15844e+08,-6.15922e+08,-6.15889e+08,482607,-0.0307285,0.316765,-0,0.318251,-7527.88,-22422.4,-0,23652.3,482607
step02_gravity_refstate-crust.xmf,447,7.0378e-07,-7.81625e-07,0,7.57014e-06,-6.38896e+08,-6.38998e+08,-6.38945e+08,519312,-0.0315728,0.322624,-0,0.324166,-7123.1,-23261.3,-0,24327.5,519312
step02_gravity_refstate-crust.xmf,448,3.11402e-06,-5.64335e-06,0,9.81604e-06,-7.10794e+08,-7.11395e+08,-7.11008e+08,673380,-0.0312692,0.369831,-0,0.37115,-4587.26,-25881,-0,26284.4,673380
step02_gravity_refstate-crust.xmf,449,2.61722e-06,-4.52874e-06,0,9.24634e-06,-6.94217e+08,-6.94708e+08,-6.94397e+08,634299,-0.0313796,0.359976,-0,0.361341,-4982.36,-25277.3,-0,25763.6,634299
step02_gravity_refstate-crust.xmf,450,2.22389e-06,-3.60434e-06,0,8.65693e-06,-6.76179e+08,-6.76579e+08,-6.76332e+08,593866,-0.0312269,0.350869,-0,0.352255,-5384.53,-24620.4,-0,25202.3,593866
step02_gravity_refstate-crust.xmf,451,1.85263e-06,-2.76787e-06,0,8.11677e-06,-6.57906e+08,-6.58223e+08,-6.58033e+08,556811,-0.0310039,0.342096,-0,0.343498,-5830.41,-23954.9,-0,24654.3,556811
step02_gravity_refstate-crust.xmf,452,2.77319e-07,8.39681e-07,0,4.48651e-06,-4.38411e+08,-4.38372e+08,-4.3843e+08,307774,-0.0251454,0.283016,-0,0.284131,-11130.8,-15963.2,-0,19460.7,307774
step02_gravity_refstate-crust.xmf,453,3.82749e-07,6.46386e-07,0,4.75777e-06,-4.64991e+08,-4.64973e+08,-4.65017e+08,326383,-0.0257007,0.288679,-0,0.28982,-10367.2,-16931,-0,19852.9,326383
step02_gravity_refstate-crust.xmf,454,5.052e-07,4.09868e-07,0,5.03568e-06,-4.89963e+08,-4.8997e+08,-4.89998e+08,345448,-0.0262907,0.29432,-0,0.295492,-9667.29,-17840.3,-0,20291.2,345448
step02_gravity_refstate-crust.xmf,455,6.25319e-07,1.6318e-07,0,5.30918e-06,-5.12334e+08,-5.12366e+08,-5.12377e+08,364210,-0.026872,0.299476,-0,0.300679,-9079.1,-18654.8,-0,20746.9,364210
step02_gravity_refstate-crust.xmf,456,6.72121e-06,-1.34603e-05,0,1.09745e-05,-7.73632e+08,-7.75017e+08,-7.74093e+08,752852,-0.0264669,0.422935,-0,0.423762,-2964.41,-28171.2,-0,28326.7,752852
step02_gravity_refstate-crust.xmf,457,6.80482e-06,-1.53877e-05,0,1.22576e-05,-7.99626e+08,-8.01149e+08,-8.00093e+08,840872,-0.0260238,0.436001,-0,0.436777,-2985.59,-29114.9,-0,29267.6,840872
step02_gravity_refstate-crust.xmf,458,6.0635e-06,-1.50988e-05,0,1.37973e-05,-8.12027e+08,-8.13478e+08,-8.12443e+08,946496,-0.0265736,0.435397,-0,0.436207,-3246.26,-29563.8,-0,29741.5,946496
step02_gravity_refstate-crust.xmf,459,5.03025e-06,-1.45639e-05,0,1.54418e-05,-8.241e+08,-8.25445e+08,-8.24445e+08,1.05931e+06,-0.0260084,0.433399,-0,0.434178,-3497.18,-30000,-0,30203.2,1.05931e+06
step02_gravity_refstate-crust.xmf,460,-4.99655e-07,-2.30721e-06,0,1.6545e-05,-8.324e+08,-8.32524e+08,-8.32365e+08,1.13499e+06,-0.0260005,0.394944,-0,0.395799,-4471.65,-30298.7,-0,30626.9,1.13499e+06
step02_gravity_refstate-crust.xmf,461,-2.97715e-06,6.9538e-06,0,5.47588e-06,-8.19088e+08,-8.18407e+08,-8.18884e+08,375645,-0.014748,0.260221,-0,0.260639,-9569.61,-29818.4,-0,31316.4,375645
step02_gravity_refstate-crust.xmf,462,-3.1819e-06,6.87165e-06,0,6.32849e-06,-8.22453e+08,-8.21764e+08,-8.22235e+08,434134,-0.0164178,0.274378,-0,0.274869,-8754.58,-29940,-0,31193.7,434134
step02_gravity_refstate-crust.xmf,463,-3.3674e-06,6.57392e-06,0,7.32687e-06,-8.22362e+08,-8.2168e+08,-8.22131e+08,502624,-0.0187424,0.289007,-0,0.289614,-8044.99,-29935.5,-0,30997.6,502624
step02_gravity_refstate-crust.xmf,464,-3.47077e-06,6.04955e-06,0,8.47303e-06,-8.21586e+08,-8.20933e+08,-8.21348e+08,581250,-0.0211849,0.304336,-0,0.305073,-7381.76,-29906,-0,30803.5,581250
step02_gravity_refstate-crust.xmf,465,-1.97498e-06,5.70372e-06,0,3.13036e-06,-7.35847e+08,-7.35321e+08,-7.35712e+08,214743,-0.0132721,0.204418,-0,0.204849,-15577,-26790.1,-0,30989.5,214743
step02_gravity_refstate-crust.xmf,466,-1.12919e-06,4.52276e-06,0,1.93557e-06,-6.61445e+08,-6.61057e+08,-6.61367e+08,132780,-0.00838542,0.167284,-0,0.167494,-22761.2,-24083,-0,33137,132780
step02_gravity_refstate-crust.xmf,467,-4.88319e-07,3.7979e-06,0,9.23755e-07,-6.48948e+08,-6.48654e+08,-6.48915e+08,63369.6,-0.0028519,0.137163,-0,0.137193,-30723.9,-23629.5,-0,38759.6,63369.6
step02_gravity_refstate-crust.xmf,468,-6.33089e-07,3.94404e-06,0,1.17016e-06,-6.47372e+08,-6.47058e+08,-6.47329e+08,80272.9,-0.00409547,0.143943,-0,0.144001,-28577.1,-23571.8,-0,37044.3,80272.9
step02_gravity_refstate-crust.xmf,469,-8.17833e-07,4.2547e-06,0,1.48506e-06,-6.62773e+08,-6.62425e+08,-6.62717e+08,101875,-0.00545483,0.152589,-0,0.152686,-25735.7,-24132.2,-0,35280.2,101875
step02_gravity_refstate-crust.xmf,470,-9.6803e-07,4.38864e-06,0,1.6994e-06,-6.61977e+08,-6.61609e+08,-6.6191e+08,116579,-0.00682199,0.159589,-0,0.159735,-24237.2,-24102.8,-0,34181.7,116579
step02_gravity_refstate-crust.xmf,471,-1.75591e-06,5.603e-06,0,2.76703e-06,-7.35675e+08,-7.35171e+08,-7.35555e+08,189818,-0.0111506,0.194344,-0,0.194663,-16732.7,-26784.6,-0,31581.6,189818
step02_gravity_refstate-crust.xmf,472,-1.49835e-06,5.29367e-06,0,2.42e-06,-7.18655e+08,-7.18189e+08,-7.18552e+08,166012,-0.00978109,0.183471,-0,0.183732,-18567.1,-26165.5,-0,32083.8,166012
step02_gravity_refstate-crust.xmf,473,-1.3044e-06,4.91765e-06,0,2.16042e-06,-6.92769e+08,-6.92342e+08,-6.92679e+08,148205,-0.00895933,0.174448,-0,0.174678,-20618.1,-25223.3,-0,32577.9,148205
step02_gravity_refstate-crust.xmf,474,-1.93552e-06,6.25843e-06,0,3.06032e-06,-7.84304e+08,-7.83742e+08,-7.84171e+08,209938,-0.00969203,0.20601,-0,0.206238,-14318,-28555.2,-0,31943.8,209938
step02_gravity_refstate-crust.xmf,475,-1.96313e-06,5.9975e-06,0,3.07534e-06,-7.61084e+08,-7.60538e+08,-7.60949e+08,210968,-0.0115605,0.204814,-0,0.20514,-14963.5,-27709.4,-0,31491.5,210968
step02_gravity_refstate-crust.xmf,476,-3.76226e-07,3.6964e-06,0,7.12563e-07,-6.52212e+08,-6.51933e+08,-6.52186e+08,48881.8,-0.00193007,0.132025,-0,0.132039,-32667.7,-23748.6,-0,40387.8,48881.8
step02_gravity_refstate-crust.xmf,477,-2.55132e-07,3.47276e-06,0,1.82826e-07,-6.41752e+08,-6.41496e+08,-6.41735e+08,12541.9,-0.000464976,0.126154,-0,0.126155,-38127,-23368,-0,44718.3,12541.9
step02_gravity_refstate-crust.xmf,478,2.21691e-07,4.36069e-07,0,1.92036e-06,-1.44014e+08,-1.43999e+08,-1.44029e+08,131737,-0.0318771,0.252017,-0,0.254025,-16791.1,-5244.53,-0,17591.1,131737
step02_gravity_refstate-crust.xmf,479,4.81968e-08,3.28728e-07,0,1.37422e-06,-9.77413e+07,-9.7722e+07,-9.77446e+07,94271.5,-0.0366811,0.245899,-0,0.24862,-17913.8,-3559.07,-0,18264,94271.5
step02_gravity_refstate-crust.xmf,480,-2.58751e-07,2.58985e-07,0,7.28987e-07,-4.90506e+07,-4.9015e+07,-4.90328e+07,50008.5,-0.0431394,0.239532,-0,0.243385,-19105.9,-1785.09,-0,19189.1,50008.5
step02_gravity_refstate-crust.xmf,481,-7.30398e-07,2.75939e-07,0,5.15138e-09,-69434.3,-399.605,-19329,353.385,-0.0510708,0.233488,-0,0.239008,-20294.4,0,-0,20294.4,353.385
step02_gravity_refstate-crust.xmf,482,7.42475e-07,-1.09355e-07,0,5.63829e-06,-5.36495e+08,-5.36553e+08,-5.36546e+08,386787,-0.0275803,0.304768,-0,0.306014,-8527.59,-19534.5,-0,21314.7,386787
step02_gravity_refstate-crust.xmf,483,1.58732e-06,-2.08274e-06,0,7.60528e-06,-6.39984e+08,-6.40236e+08,-6.40093e+08,521723,-0.0306445,0.334592,-0,0.335992,-6253.55,-23302.4,-0,24127,521723
step02_gravity_refstate-crust.xmf,484,5.18234e-06,-9.22161e-06,0,9.61409e-06,-7.27031e+08,-7.28019e+08,-7.27387e+08,659527,-0.0279728,0.392822,-0,0.393817,-3540.02,-26475,-0,26710.6,659527
step02_gravity_refstate-crust.xmf,485,6.20606e-06,-1.19039e-05,0,1.04415e-05,-7.56707e+08,-7.5795e+08,-7.57133e+08,716288,-0.0271065,0.411811,-0,0.412702,-3125.72,-27555.4,-0,27732.1,716288
step02_gravity_refstate-crust.xmf,486,5.8496e-06,-1.07827e-05,0,9.99113e-06,-7.42908e+08,-7.44049e+08,-7.43309e+08,685391,-0.0273119,0.403601,-0,0.404524,-3259.11,-27053.3,-0,27248.9,685391
step02_gravity_refstate-crust.xmf,487,7.39961e-06,-1.55622e-05,0,1.07843e-05,-7.87497e+08,-7.89072e+08,-7.88005e+08,739803,-0.0246712,0.435568,-0,0.436266,-2721.93,-28675.5,-0,28804.4,739803
step02_gravity_refstate-crust.xmf,488,7.20516e-06,-1.76837e-05,0,1.14974e-05,-8.12255e+08,-8.13962e+08,-8.12749e+08,788719,-0.0232221,0.449858,-0,0.450457,-2745.74,-29572.7,-0,29699.9,788719
step02_gravity_refstate-crust.xmf,489,1.87818e-06,-5.79857e-06,0,2.03003e-05,-8.37874e+08,-8.384e+08,-8.38003e+08,1.3926e+06,-0.0238545,0.41725,-0,0.417931,-4000,-30502.3,-0,30763.4,1.3926e+06
step02_gravity_refstate-crust.xmf,490,-3.25552e-06,5.82279e-06,0,9.96748e-06,-8.394e+08,-8.38777e+08,-8.39176e+08,683769,-0.0190233,0.324181,-0,0.324739,-6480.61,-30555,-0,31234.7,683769
step02_gravity_refstate-crust.xmf,491,-2.98698e-06,4.84956e-06,0,1.15126e-05,-8.40999e+08,-8.40461e+08,-8.40794e+08,789765,-0.0202834,0.341515,-0,0.342117,-5902.89,-30612.8,-0,31176.7,789765
step02_gravity_refstate-crust.xmf,492,-1.52361e-06,9.82351e-07,0,1.52234e-05,-8.39298e+08,-8.39126e+08,-8.39194e+08,1.04433e+06,-0.0233599,0.379373,-0,0.380092,-4855.08,-30550.8,-0,30934.2,1.04433e+06
step02_gravity_refstate-crust.xmf,493,-2.44804e-06,3.24943e-06,0,1.3359e-05,-8.40924e+08,-8.40533e+08,-8.40756e+08,916429,-0.0218308,0.360725,-0,0.361385,-5341.83,-30609.8,-0,31072.4,916429
step02_gravity_refstate-crust.xmf,494,-2.95118e-07,-5.80241e-07,0,1.74568e-05,-8.4593e+08,-8.45949e+08,-8.4591e+08,1.19754e+06,-0.0213043,0.39582,-0,0.396393,-4467.99,-30794.8,-0,31117.3,1.19754e+06
step02_gravity_refstate-crust.xmf,495,-3.31159e-06,6.48362e-06,0,8.64342e-06,-8.3845e+08,-8.37778e+08,-8.38223e+08,592938,-0.017378,0.308047,-0,0.308537,-7078.78,-30521.2,-0,31331.4,592938
step02_gravity_refstate-crust.xmf,496,-2.65749e-06,6.77162e-06,0,4.51615e-06,-8.04603e+08,-8.03956e+08,-8.04421e+08,309808,-0.013916,0.241617,-0,0.242017,-10972.2,-29292.1,-0,31279.7,309808
step02_gravity_refstate-crust.xmf,497,-2.55514e-06,7.04964e-06,0,4.5422e-06,-8.23454e+08,-8.22795e+08,-8.23279e+08,311595,-0.0111554,0.243818,-0,0.244073,-10506.1,-29979.3,-0,31766.9,311595
step02_gravity_refstate-crust.xmf,498,-1.85886e-06,6.50452e-06,0,3.02323e-06,-8.07165e+08,-8.06591e+08,-8.07037e+08,207393,-0.00721735,0.206564,-0,0.20669,-13751.9,-29388.2,-0,32446.6,207393
step02_gravity_refstate-crust.xmf,499,-2.11866e-06,6.63606e-06,0,3.41988e-06,-8.06735e+08,-8.06135e+08,-8.0659e+08,234604,-0.00912867,0.217066,-0,0.217258,-12818.3,-29371.7,-0,32046.9,234604
step02_gravity_refstate-crust.xmf,500,-2.4079e-06,6.73582e-06,0,3.92558e-06,-8.0605e+08,-8.05423e+08,-8.05885e+08,269295,-0.0113679,0.228903,-0,0.229185,-11872.7,-29345.7,-0,31656.5,269295
step02_gravity_refstate-crust.xmf,501,-6.84732e-07,4.15155e-06,0,1.29957e-06,-6.66353e+08,-6.66021e+08,-6.66306e+08,89150.3,-0.00427199,0.1465,-0,0.146562,-27096.4,-24262.9,-0,36371.8,89150.3
step02_gravity_refstate-crust.xmf,502,-1.55896e-06,5.47833e-06,0,2.48781e-06,-7.34567e+08,-7.34085e+08,-7.3446e+08,170663,-0.00945197,0.18583,-0,0.186071,-17829.6,-26744.8,-0,32143.1,170663
step02_gravity_refstate-crust.xmf,503,-1.11385e-06,4.79155e-06,0,1.89849e-06,-6.95737e+08,-6.95332e+08,-6.9566e+08,130237,-0.00709792,0.165688,-0,0.16584,-22000.6,-25331.9,-0,33551.9,130237
step02_gravity_refstate-crust.xmf,504,-1.29107e-06,5.19702e-06,0,2.13115e-06,-7.23823e+08,-7.23378e+08,-7.23735e+08,146197,-0.00766199,0.174194,-0,0.174363,-19768.1,-26354.3,-0,32944.3,146197
step02_gravity_refstate-crust.xmf,505,-2.7971e-07,3.63045e-06,0,5.15091e-07,-6.58006e+08,-6.57738e+08,-6.57987e+08,35335.2,-0.00118315,0.127754,-0,0.127759,-34579.1,-23959.8,-0,42068.9,35335.2
step02_gravity_refstate-crust.xmf,506,-1.42718e-07,3.57149e-06,0,2.32357e-09,-6.70818e+08,-6.70563e+08,-6.70808e+08,159.397,-2.58539e-20,0.121929,-0,0.121929,-40000,-24426.7,-0,46868.6,159.397
step02_gravity_refstate-crust.xmf,507,3.16697e-07,5.42593e-07,0,2.37328e-06,-1.87298e+08,-1.87283e+08,-1.8732e+08,162807,-0.0285028,0.257818,-0,0.259389,-15734.7,-6820.9,-0,17149.5,162807
step02_gravity_refstate-crust.xmf,508,3.67927e-07,6.26806e-07,0,2.74588e-06,-2.27127e+08,-2.27109e+08,-2.27152e+08,188367,-0.0262753,0.263129,-0,0.264438,-14771.6,-8271.25,-0,16929.7,188367
step02_gravity_refstate-crust.xmf,509,3.94365e-07,6.86734e-07,0,3.07232e-06,-2.65336e+08,-2.65316e+08,-2.65363e+08,210761,-0.0248567,0.267975,-0,0.269126,-13893.8,-9662.48,-0,16923.4,210761
step02_gravity_refstate-crust.xmf,510,4.09074e-07,7.19488e-07,0,3.37532e-06,-3.03048e+08,-3.03026e+08,-3.03076e+08,231547,-0.0240643,0.272491,-0,0.273552,-13081.2,-11035.5,-0,17114.4,231547
step02_gravity_refstate-crust.xmf,511,4.32058e-07,7.09159e-07,0,3.66923e-06,-3.40434e+08,-3.40415e+08,-3.40463e+08,251709,-0.0237681,0.27713,-0,0.278148,-12275.5,-12396.7,-0,17446.1,251709
step02_gravity_refstate-crust.xmf,512,5.89097e-07,4.70851e-07,0,4.20513e-06,-4.06619e+08,-4.06627e+08,-4.06659e+08,288472,-0.0240654,0.287812,-0,0.288816,-10622.8,-14806.5,-0,18223,288472
step02_gravity_refstate-crust.xmf,513,4.97289e-07,6.19957e-07,0,3.94586e-06,-3.75236e+08,-3.75228e+08,-3.75271e+08,270686,-0.0238101,0.28244,-0,0.283442,-11423.2,-13663.8,-0,17809.8,270686
step02_gravity_refstate-crust.xmf,514,8.74811e-07,-3.84518e-07,0,6.00218e-06,-5.60714e+08,-5.60801e+08,-5.60774e+08,411749,-0.0283286,0.310431,-0,0.311721,-7996.95,-20416.3,-0,21926.6,411749
step02_gravity_refstate-crust.xmf,515,1.00657e-06,-7.90526e-07,0,6.47149e-06,-5.86605e+08,-5.86728e+08,-5.86674e+08,443944,-0.0292005,0.316479,-0,0.317823,-7496.35,-21358.8,-0,22636.1,443944
step02_gravity_refstate-crust.xmf,516,4.51697e-06,-7.75928e-06,0,9.22281e-06,-7.1081e+08,-7.11653e+08,-7.1112e+08,632684,-0.0285521,0.38219,-0,0.383255,-3873.09,-25884,-0,26172.2,632684
step02_gravity_refstate-crust.xmf,517,1.45808e-06,-1.72218e-06,0,7.15002e-06,-6.20412e+08,-6.2063e+08,-6.20512e+08,490491,-0.0299682,0.329066,-0,0.330428,-6572.22,-22589.9,-0,23526.6,490491
step02_gravity_refstate-crust.xmf,518,3.92264e-06,-6.475e-06,0,8.7816e-06,-6.93855e+08,-6.94568e+08,-6.94124e+08,602418,-0.0288953,0.372143,-0,0.373263,-4227.93,-25266.3,-0,25617.6,602418
step02_gravity_refstate-crust.xmf,519,3.39407e-06,-5.3449e-06,0,8.31891e-06,-6.76079e+08,-6.76678e+08,-6.76312e+08,570677,-0.0290396,0.362641,-0,0.363802,-4606.32,-24618.8,-0,25046,570677
step02_gravity_refstate-crust.xmf,520,2.9164e-06,-4.34201e-06,0,7.8657e-06,-6.57743e+08,-6.58241e+08,-6.57943e+08,539587,-0.0290546,0.353631,-0,0.354822,-5015.6,-23950.9,-0,24470.4,539587
step02_gravity_refstate-crust.xmf,521,2.48465e-06,-3.45876e-06,0,7.4571e-06,-6.39775e+08,-6.40183e+08,-6.39945e+08,511557,-0.02901,0.345252,-0,0.346468,-5452.79,-23296.3,-0,23926,511557
step02_gravity_refstate-crust.xmf,522,6.99372e-07,2.73404e-07,0,4.46536e-06,-4.36216e+08,-4.36245e+08,-4.36264e+08,306324,-0.0244737,0.293127,-0,0.294147,-9889.23,-15884.1,-0,18711,306324
step02_gravity_refstate-crust.xmf,523,8.45396e-07,9.02922e-09,0,4.72691e-06,-4.63834e+08,-4.63891e+08,-4.63892e+08,324266,-0.0249315,0.298752,-0,0.29979,-9179.67,-16889.8,-0,19223.2,324266
step02_gravity_refstate-crust.xmf,524,9.95263e-07,-2.76965e-07,0,4.98797e-06,-4.88805e+08,-4.88892e+08,-4.88873e+08,342175,-0.0254248,0.304006,-0,0.305067,-8575.01,-17799,-0,19756.9,342175
step02_gravity_refstate-crust.xmf,525,1.17344e-06,-6.17412e-07,0,5.25854e-06,-5.12688e+08,-5.12811e+08,-5.12769e+08,360736,-0.0259177,0.309529,-0,0.310612,-7997.02,-18668.7,-0,20309.4,360736
step02_gravity_refstate-crust.xmf,526,7.2647e-06,-1.38613e-05,0,9.57836e-06,-7.62696e+08,-7.64146e+08,-7.63195e+08,657075,-0.0243273,0.423073,-0,0.423772,-2686.04,-27774.7,-0,27904.2,657075
step02_gravity_refstate-crust.xmf,527,7.88146e-06,-1.55964e-05,0,9.35112e-06,-7.7516e+08,-7.76771e+08,-7.75701e+08,641487,-0.0227348,0.434091,-0,0.434686,-2451.84,-28228.2,-0,28334.5,641487
step02_gravity_refstate-crust.xmf,528,7.85416e-06,-1.7645e-05,0,1.01615e-05,-8.00384e+08,-8.02133e+08,-8.00923e+08,697077,-0.0222707,0.448684,-0,0.449236,-2480.31,-29143.2,-0,29248.6,697077
step02_gravity_refstate-crust.xmf,529,6.32e-06,-1.75815e-05,0,1.28439e-05,-8.24085e+08,-8.25725e+08,-8.24519e+08,881091,-0.0231679,0.450216,-0,0.450812,-2997.53,-30000,-0,30149.4,881091
step02_gravity_refstate-crust.xmf,530,-1.67801e-06,3.31353e-06,0,1.49748e-05,-8.54828e+08,-8.54486e+08,-8.54713e+08,1.02727e+06,-0.0172206,0.371902,-0,0.372301,-5009.4,-31119.2,-0,31519.8,1.02727e+06
step02_gravity_refstate-crust.xmf,531,-2.76562e-06,7.32912e-06,0,5.50108e-06,-8.39666e+08,-8.38974e+08,-8.39477e+08,377374,-0.0107797,0.262901,-0,0.263122,-9122.41,-30569.1,-0,31901.2,377374
step02_gravity_refstate-crust.xmf,532,-3.0062e-06,7.23206e-06,0,6.40193e-06,-8.39879e+08,-8.39177e+08,-8.39673e+08,439172,-0.0128296,0.277365,-0,0.277662,-8384.38,-30575.7,-0,31704.4,439172
step02_gravity_refstate-crust.xmf,533,-3.2032e-06,6.96784e-06,0,7.43584e-06,-8.39241e+08,-8.38543e+08,-8.39021e+08,510098,-0.0150796,0.292252,-0,0.29264,-7715.11,-30551.2,-0,31510.3,510098
step02_gravity_refstate-crust.xmf,534,-2.48978e-06,7.32566e-06,0,4.74766e-06,-8.39944e+08,-8.39271e+08,-8.39774e+08,325689,-0.00870432,0.249325,-0,0.249477,-9890.55,-30580.3,-0,32140,325689
step02_gravity_refstate-crust.xmf,535,-1.65884e-06,6.35981e-06,0,2.7514e-06,-8.05815e+08,-8.05265e+08,-8.05702e+08,188746,-0.0059765,0.198414,-0,0.198504,-14584.4,-29339.7,-0,32764.6,188746
step02_gravity_refstate-crust.xmf,536,-1.73664e-06,5.86584e-06,0,2.71468e-06,-7.61767e+08,-7.61245e+08,-7.61648e+08,186227,-0.00936696,0.194206,-0,0.194432,-16108.3,-27734.9,-0,32073.4,186227
step02_gravity_refstate-crust.xmf,537,-2.76635e-07,3.92383e-06,0,7.49452e-07,-6.94568e+08,-6.9428e+08,-6.94549e+08,51412.4,-0.00108926,0.128487,-0,0.128491,-31618,-25291.4,-0,40488.9,51412.4
step02_gravity_refstate-crust.xmf,538,-9.3813e-07,4.64709e-06,0,1.67269e-06,-6.97054e+08,-6.9667e+08,-6.96989e+08,114746,-0.00556329,0.157834,-0,0.157932,-23427.8,-25380.3,-0,34540.2,114746
step02_gravity_refstate-crust.xmf,539,-3.95023e-07,4.04286e-06,0,9.37165e-07,-6.92244e+08,-6.91939e+08,-6.92217e+08,64289.5,-0.00178483,0.133709,-0,0.133721,-29752.7,-25206.5,-0,38994.7,64289.5
step02_gravity_refstate-crust.xmf,540,-5.16002e-07,4.18454e-06,0,1.11687e-06,-6.92876e+08,-6.92553e+08,-6.92841e+08,76617.3,-0.00253684,0.139099,-0,0.139122,-28023.9,-25229.2,-0,37707.5,76617.3
step02_gravity_refstate-crust.xmf,541,-6.30204e-07,4.35071e-06,0,1.28381e-06,-6.98012e+08,-6.9767e+08,-6.97969e+08,88069.4,-0.00320513,0.144256,-0,0.144291,-26414.5,-25416,-0,36656.5,88069.4
step02_gravity_refstate-crust.xmf,542,-7.74411e-07,4.49698e-06,0,1.4674e-06,-6.97861e+08,-6.97499e+08,-6.97808e+08,100664,-0.00425493,0.150607,-0,0.150668,-24915.5,-25410.1,-0,35587.4,100664
step02_gravity_refstate-crust.xmf,543,-1.50743e-06,5.68818e-06,0,2.40372e-06,-7.59125e+08,-7.58631e+08,-7.59022e+08,164895,-0.00762831,0.18433,-0,0.184488,-17376.2,-27639.4,-0,32647.7,164895
step02_gravity_refstate-crust.xmf,544,-1.3158e-06,5.47743e-06,0,2.15673e-06,-7.52793e+08,-7.52327e+08,-7.52703e+08,147951,-0.00640024,0.175669,-0,0.175785,-18721.8,-27409.4,-0,33193.1,147951
step02_gravity_refstate-crust.xmf,545,-1.09145e-06,5.05718e-06,0,1.87135e-06,-7.28346e+08,-7.27924e+08,-7.28271e+08,128375,-0.00568221,0.164871,-0,0.164969,-21129.1,-26519.6,-0,33907.6,128375
step02_gravity_refstate-crust.xmf,546,-1.63375e-06,6.14195e-06,0,2.6286e-06,-7.89439e+08,-7.88906e+08,-7.89327e+08,180322,-0.00692922,0.193938,-0,0.194062,-15456.6,-28743.2,-0,32635.6,180322
step02_gravity_refstate-crust.xmf,547,-1.66841e-07,3.63673e-06,0,3.25284e-07,-6.75044e+08,-6.74783e+08,-6.75032e+08,22314.5,-0.000510796,0.123189,-0,0.12319,-36394.2,-24580.6,-0,43917.5,22314.5
step02_gravity_refstate-crust.xmf,548,-1.71026e-07,3.84185e-06,0,5.71108e-07,-7.0007e+08,-6.99795e+08,-7.00059e+08,39178,-0.000536979,0.123917,-0,0.123918,-33451.7,-25492,-0,42057.8,39178
step02_gravity_refstate-crust.xmf,549,-3.90587e-08,3.70152e-06,0,1.58938e-07,-7.02651e+08,-7.02394e+08,-7.02648e+08,10903.1,-6.04009e-05,0.11818,-0,0.11818,-38159,-25586.3,-0,45943.1,10903.1
step02_gravity_refstate-crust.xmf,550,6.2739e-07,2.28021e-07,0,1.96676e-06,-1.42485e+08,-1.42512e+08,-1.42528e+08,134920,-0.0312097,0.263465,-0,0.265307,-14929.6,-5190.19,-0,15806.1,134920
step02_gravity_refstate-crust.xmf,551,5.21522e-07,1.23763e-07,0,1.43027e-06,-9.6595e+07,-9.66223e+07,-9.66308e+07,98116.6,-0.036248,0.257599,-0,0.260137,-15950.4,-3518.94,-0,16333.9,98116.6
step02_gravity_refstate-crust.xmf,552,3.06357e-07,3.71447e-08,0,7.72357e-07,-4.8321e+07,-4.83395e+07,-4.8342e+07,52983.7,-0.0431953,0.251303,-0,0.254988,-17047.2,-1760.47,-0,17137.8,52983.7
step02_gravity_refstate-crust.xmf,553,-5.20821e-08,1.79537e-08,0,9.17426e-09,-5024.38,-219.919,-1451.55,629.355,-0.0519364,0.245205,-0,0.250645,-18134.4,0,-0,18134.4,629.355
step02_gravity_refstate-crust.xmf,554,1.35996e-06,-9.46699e-07,0,5.5532e-06,-5.36186e+08,-5.36345e+08,-5.3628e+08,380949,-0.0264575,0.315107,-0,0.316216,-7472.85,-19524.4,-0,20905.7,380949
step02_gravity_refstate-crust.xmf,555,1.43837e-06,-1.51735e-06,0,6.71426e-06,-6.003e+08,-6.00503e+08,-6.00399e+08,460598,-0.0291314,0.325018,-0,0.326321,-6807.84,-21858,-0,22893.6,460598
step02_gravity_refstate-crust.xmf,556,2.13922e-06,-2.75703e-06,0,7.13617e-06,-6.24726e+08,-6.25062e+08,-6.24873e+08,489541,-0.0289503,0.338408,-0,0.339644,-5857.1,-22748.2,-0,23490.1,489541
step02_gravity_refstate-crust.xmf,557,5.85265e-06,-9.75945e-06,0,8.22482e-06,-7.11215e+08,-7.12286e+08,-7.11617e+08,564222,-0.0249415,0.393333,-0,0.394123,-3170.35,-25901.1,-0,26094.4,564222
step02_gravity_refstate-crust.xmf,558,6.56535e-06,-1.1354e-05,0,8.40897e-06,-7.27983e+08,-7.29212e+08,-7.28433e+08,576855,-0.0240697,0.404277,-0,0.404992,-2865.25,-26511.9,-0,26666.3,576855
step02_gravity_refstate-crust.xmf,559,7.31707e-06,-1.32149e-05,0,8.60816e-06,-7.46584e+08,-7.47993e+08,-7.47086e+08,590520,-0.0231326,0.416724,-0,0.417366,-2596.28,-27189.3,-0,27313,590520
step02_gravity_refstate-crust.xmf,560,8.23603e-06,-1.54214e-05,0,7.93205e-06,-7.61212e+08,-7.62835e+08,-7.61777e+08,544138,-0.0203692,0.430841,-0,0.431322,-2179.6,-27722.1,-0,27807.7,544138
step02_gravity_refstate-crust.xmf,561,8.36069e-06,-1.75344e-05,0,8.81118e-06,-7.88648e+08,-7.90424e+08,-7.89221e+08,604447,-0.0205848,0.446733,-0,0.447207,-2207.12,-28718.2,-0,28802.9,604447
step02_gravity_refstate-crust.xmf,562,7.93294e-06,-1.94874e-05,0,9.22852e-06,-8.12535e+08,-8.14416e+08,-8.13079e+08,633076,-0.0193752,0.462026,-0,0.462432,-2241.69,-29583.1,-0,29667.9,633076
step02_gravity_refstate-crust.xmf,563,7.12152e-06,-1.96021e-05,0,1.04271e-05,-8.24082e+08,-8.25916e+08,-8.24571e+08,715298,-0.0198044,0.464221,-0,0.464644,-2497.35,-30000,-0,30103.8,715298
step02_gravity_refstate-crust.xmf,564,1.26096e-06,-2.57827e-06,0,2.16364e-05,-8.51517e+08,-8.5178e+08,-8.51603e+08,1.48426e+06,-0.0188766,0.41935,-0,0.419774,-4000,-31001.4,-0,31258.4,1.48426e+06
step02_gravity_refstate-crust.xmf,565,-2.92347e-06,6.94065e-06,0,8.92614e-06,-8.55173e+08,-8.54497e+08,-8.54973e+08,612333,-0.0125999,0.311999,-0,0.312253,-6779.55,-31132.4,-0,31862,612333
step02_gravity_refstate-crust.xmf,566,-2.82854e-06,6.26793e-06,0,1.04359e-05,-8.54998e+08,-8.54374e+08,-8.54804e+08,715903,-0.0143249,0.329126,-0,0.329438,-6202.11,-31125.3,-0,31737.2,715903
step02_gravity_refstate-crust.xmf,567,-2.46304e-06,5.17933e-06,0,1.23491e-05,-8.55206e+08,-8.54682e+08,-8.55037e+08,847147,-0.0158007,0.348633,-0,0.348991,-5616.78,-31132.7,-0,31635.3,847147
step02_gravity_refstate-crust.xmf,568,-3.46816e-07,1.50575e-06,0,1.83376e-05,-8.59482e+08,-8.59355e+08,-8.59458e+08,1.25796e+06,-0.0158345,0.395935,-0,0.396251,-4460.34,-31291.2,-0,31607.5,1.25796e+06
step02_gravity_refstate-crust.xmf,569,-2.86215e-06,7.35223e-06,0,7.63538e-06,-8.55476e+08,-8.54775e+08,-8.55279e+08,523787,-0.0107366,0.295852,-0,0.296046,-7389.09,-31144.3,-0,32008.8,523787
step02_gravity_refstate-crust.xmf,570,-2.20877e-06,7.06137e-06,0,3.8819e-06,-8.30587e+08,-8.29951e+08,-8.30436e+08,266299,-0.00769123,0.230565,-0,0.230693,-11289.4,-30240.4,-0,32279,266299
step02_gravity_refstate-crust.xmf,571,-2.22825e-06,7.28901e-06,0,4.22595e-06,-8.41458e+08,-8.40805e+08,-8.41305e+08,289900,-0.00687387,0.239102,-0,0.239201,-10506.8,-30636.4,-0,32388,289900
step02_gravity_refstate-crust.xmf,572,-1.4196e-06,6.53009e-06,0,2.61545e-06,-8.29628e+08,-8.29082e+08,-8.2953e+08,179420,-0.00257139,0.195804,-0,0.195821,-14280.6,-30207.8,-0,33413.3,179420
step02_gravity_refstate-crust.xmf,573,-1.65629e-06,6.71959e-06,0,2.9509e-06,-8.29756e+08,-8.29181e+08,-8.29642e+08,202432,-0.00408959,0.206353,-0,0.206394,-13267.5,-30211.8,-0,32996.6,202432
step02_gravity_refstate-crust.xmf,574,-1.91403e-06,6.89611e-06,0,3.35145e-06,-8.30028e+08,-8.29424e+08,-8.29897e+08,229910,-0.00573984,0.217492,-0,0.217568,-12303.3,-30220.9,-0,32629.4,229910
step02_gravity_refstate-crust.xmf,575,-8.86462e-07,4.90062e-06,0,1.63863e-06,-7.31837e+08,-7.3144e+08,-7.31776e+08,112410,-0.00400062,0.156144,-0,0.156196,-22582.2,-26647.3,-0,34929,112410
step02_gravity_refstate-crust.xmf,576,-1.03793e-06,5.30115e-06,0,1.85465e-06,-7.57527e+08,-7.57092e+08,-7.57456e+08,127229,-0.00417939,0.164754,-0,0.164807,-20237.5,-27582.5,-0,34210.4,127229
step02_gravity_refstate-crust.xmf,577,-1.34642e-06,6.31901e-06,0,2.43696e-06,-8.19872e+08,-8.19346e+08,-8.19779e+08,167175,-0.0028507,0.189151,-0,0.189173,-15222.9,-29852.6,-0,33509.9,167175
step02_gravity_refstate-crust.xmf,578,-9.95863e-08,3.78451e-06,0,4.2545e-07,-7.03548e+08,-7.03282e+08,-7.03541e+08,29185.8,-0.000251529,0.120935,-0,0.120935,-35039.7,-25618.8,-0,43406.3,29185.8
step02_gravity_refstate-crust.xmf,579,-5.9822e-08,4.04032e-06,0,6.10451e-07,-7.40264e+08,-7.39983e+08,-7.4026e+08,41876.9,0.000404606,0.12014,0,0.12014,-32406.8,-26956.1,-0,42152.5,41876.9
step02_gravity_refstate-crust.xmf,580,8.01904e-08,3.79253e-06,0,2.09692e-09,-7.32206e+08,-7.31952e+08,-7.32212e+08,143.849,5.27378e-20,0.113696,0,0.113696,-40000,-26662.9,-0,48071.9,143.849
step02_gravity_refstate-crust.xmf,581,6.75968e-07,3.18103e-07,0,2.40524e-06,-1.86031e+08,-1.86056e+08,-1.86078e+08,164999,-0.0276988,0.26891,-0,0.270332,-13976.5,-6775.89,-0,15532.4,164999
step02_gravity_refstate-crust.xmf,582,7.00521e-07,3.75651e-07,0,2.76239e-06,-2.26523e+08,-2.26546e+08,-2.26571e+08,189500,-0.0254077,0.273844,-0,0.27502,-13109.9,-8250.22,-0,15489.9,189500
step02_gravity_refstate-crust.xmf,583,7.21369e-07,3.94527e-07,0,3.07162e-06,-2.65267e+08,-2.65289e+08,-2.65316e+08,210713,-0.0239694,0.278482,-0,0.279512,-12301.3,-9660.83,-0,15641.4,210713
step02_gravity_refstate-crust.xmf,584,7.52666e-07,3.67027e-07,0,3.35383e-06,-3.02934e+08,-3.02961e+08,-3.02986e+08,230072,-0.0231609,0.283043,-0,0.283989,-11525.4,-11032.2,-0,15954.5,230072
step02_gravity_refstate-crust.xmf,585,8.11352e-07,2.79434e-07,0,3.61607e-06,-3.39126e+08,-3.39162e+08,-3.39181e+08,248062,-0.0228092,0.287811,-0,0.288713,-10753.4,-12349.9,-0,16375.5,248062
step02_gravity_refstate-crust.xmf,586,1.02603e-06,-8.64206e-08,0,4.10295e-06,-4.05387e+08,-4.05464e+08,-4.05458e+08,281462,-0.0229447,0.297936,-0,0.298819,-9276.54,-14762.5,-0,17435.2,281462
step02_gravity_refstate-crust.xmf,587,9.04892e-07,1.25358e-07,0,3.86144e-06,-3.7315e+08,-3.73204e+08,-3.73212e+08,264895,-0.0227656,0.292835,-0,0.293719,-9992.03,-13588.8,-0,16867,264895
step02_gravity_refstate-crust.xmf,588,1.58671e-06,-1.39292e-06,0,5.88753e-06,-5.59461e+08,-5.59665e+08,-5.59569e+08,403884,-0.0269771,0.321259,-0,0.322389,-6952.76,-20372,-0,21525.8,403884
step02_gravity_refstate-crust.xmf,589,5.17989e-06,-8.33064e-06,0,7.97411e-06,-6.94142e+08,-6.95069e+08,-6.94498e+08,547024,-0.025601,0.383069,-0,0.383923,-3498.27,-25279,-0,25519.9,547024
step02_gravity_refstate-crust.xmf,590,1.90562e-06,-2.05446e-06,0,6.21486e-06,-5.80886e+08,-5.81158e+08,-5.81017e+08,426339,-0.0272729,0.328422,-0,0.329553,-6394.33,-21152.3,-0,22097.7,426339
step02_gravity_refstate-crust.xmf,591,2.27826e-06,-2.78088e-06,0,6.60453e-06,-6.03928e+08,-6.04275e+08,-6.04084e+08,453071,-0.0275884,0.336411,-0,0.33754,-5850.04,-21991.5,-0,22756.3,453071
step02_gravity_refstate-crust.xmf,592,4.57439e-06,-7.06811e-06,0,7.65232e-06,-6.76237e+08,-6.77035e+08,-6.7655e+08,524949,-0.025997,0.373458,-0,0.374361,-3838.36,-24626.6,-0,24924,524949
step02_gravity_refstate-crust.xmf,593,3.99991e-06,-5.91198e-06,0,7.32702e-06,-6.57746e+08,-6.58426e+08,-6.5802e+08,502634,-0.0263053,0.364195,-0,0.365144,-4219.07,-23952.9,-0,24321.7,502634
step02_gravity_refstate-crust.xmf,594,3.46508e-06,-4.87118e-06,0,7.0267e-06,-6.39381e+08,-6.39953e+08,-6.39619e+08,482032,-0.0265684,0.35543,-0,0.356421,-4639.7,-23283.8,-0,23741.6,482032
step02_gravity_refstate-crust.xmf,595,2.92684e-06,-3.87913e-06,0,6.78226e-06,-6.21527e+08,-6.21994e+08,-6.21728e+08,465263,-0.0269274,0.34667,-0,0.347714,-5141.24,-22633.1,-0,23209.7,465263
step02_gravity_refstate-crust.xmf,596,1.1812e-06,-3.60987e-07,0,4.33799e-06,-4.35208e+08,-4.35313e+08,-4.35289e+08,297586,-0.0232261,0.303216,-0,0.304104,-8598.35,-15848.4,-0,18030.6,297586
step02_gravity_refstate-crust.xmf,597,1.36345e-06,-6.90208e-07,0,4.57564e-06,-4.63047e+08,-4.63187e+08,-4.6314e+08,313889,-0.0235672,0.308583,-0,0.309481,-7971.93,-16862.1,-0,18651.6,313889
step02_gravity_refstate-crust.xmf,598,1.58467e-06,-1.0857e-06,0,4.81003e-06,-4.88829e+08,-4.89012e+08,-4.88937e+08,329968,-0.0238804,0.314221,-0,0.315127,-7373.48,-17801,-0,19267.7,329968
step02_gravity_refstate-crust.xmf,599,1.78257e-06,-1.46246e-06,0,5.06973e-06,-5.13756e+08,-5.13978e+08,-5.13878e+08,347784,-0.0243577,0.319338,-0,0.320265,-6901.78,-18708.7,-0,19941.2,347784
step02_gravity_refstate-crust.xmf,600,2.00664e-06,-1.84707e-06,0,5.33112e-06,-5.36175e+08,-5.36439e+08,-5.36312e+08,365715,-0.0247452,0.324638,-0,0.325579,-6455.73,-19525.2,-0,20564.8,365715
step02_gravity_refstate-crust.xmf,601,8.7777e-06,-1.73006e-05,0,7.36068e-06,-7.75936e+08,-7.77725e+08,-7.76538e+08,504942,-0.0181758,0.443719,-0,0.444091,-1904.45,-28257.5,-0,28321.6,504942
step02_gravity_refstate-crust.xmf,602,8.56548e-06,-1.92951e-05,0,7.92706e-06,-8.00878e+08,-8.0279e+08,-8.01466e+08,543797,-0.0178972,0.45948,-0,0.459828,-1951.46,-29161.6,-0,29226.8,543797
step02_gravity_refstate-crust.xmf,603,-1.15579e-06,4.00136e-06,0,1.64861e-05,-8.66791e+08,-8.66437e+08,-8.66711e+08,1.13094e+06,-0.0124022,0.379835,-0,0.380038,-4788.59,-31557.9,-0,31919.1,1.13094e+06
step02_gravity_refstate-crust.xmf,604,-2.16737e-06,7.60253e-06,0,4.81155e-06,-8.57918e+08,-8.57247e+08,-8.57769e+08,330072,-0.00474189,0.251819,-0,0.251863,-9459.12,-31236.3,-0,32637.2,330072
step02_gravity_refstate-crust.xmf,605,-2.4262e-06,7.65164e-06,0,5.59716e-06,-8.57594e+08,-8.56902e+08,-8.57427e+08,383965,-0.00653193,0.26579,-0,0.26587,-8716.6,-31223.6,-0,32417.5,383965
step02_gravity_refstate-crust.xmf,606,-2.67013e-06,7.58506e-06,0,6.53438e-06,-8.56755e+08,-8.56052e+08,-8.56572e+08,448258,-0.00854592,0.280489,-0,0.280619,-8027.3,-31192,-0,32208.3,448258
step02_gravity_refstate-crust.xmf,607,-1.92489e-06,7.48239e-06,0,4.1934e-06,-8.5774e+08,-8.57095e+08,-8.57608e+08,287667,-0.00326492,0.239312,-0,0.239334,-10211.1,-31230.7,-0,32857.6,287667
step02_gravity_refstate-crust.xmf,608,-1.40756e-06,5.91451e-06,0,2.32624e-06,-7.86155e+08,-7.85653e+08,-7.86059e+08,159580,-0.00532936,0.183214,-0,0.183292,-16796,-28624.2,-0,33188.1,159580
step02_gravity_refstate-crust.xmf,609,-1.69247e-07,4.14119e-06,0,7.70946e-07,-7.3587e+08,-7.35574e+08,-7.35858e+08,52886.9,6.29551e-05,0.124866,0,0.124866,-30613.6,-26795.8,-0,40684.3,52886.9
step02_gravity_refstate-crust.xmf,610,-7.07393e-07,4.73469e-06,0,1.43909e-06,-7.33273e+08,-7.329e+08,-7.33225e+08,98721.6,-0.00272402,0.148477,-0,0.148502,-24079.6,-26700,-0,35954.4,98721.6
step02_gravity_refstate-crust.xmf,611,-2.90202e-07,4.2693e-06,0,9.35945e-07,-7.33552e+08,-7.33239e+08,-7.33532e+08,64205.8,-0.000426872,0.13016,-0,0.130161,-28846,-26711.1,-0,39313.8,64205.8
step02_gravity_refstate-crust.xmf,612,-4.14828e-07,4.41856e-06,0,1.09774e-06,-7.33806e+08,-7.33474e+08,-7.33777e+08,75304.8,-0.000996315,0.135683,-0,0.135687,-27171.2,-26720.1,-0,38108.2,75304.8
step02_gravity_refstate-crust.xmf,613,-5.51161e-07,4.57478e-06,0,1.26165e-06,-7.34074e+08,-7.33722e+08,-7.34036e+08,86549.4,-0.00173115,0.141687,-0,0.141697,-25598.4,-26729.5,-0,37010.1,86549.4
step02_gravity_refstate-crust.xmf,614,-1.20051e-06,5.71389e-06,0,2.07693e-06,-7.83787e+08,-7.83313e+08,-7.83705e+08,142478,-0.00396464,0.174,-0,0.174045,-18068.8,-28538.5,-0,33777.7,142478
step02_gravity_refstate-crust.xmf,615,-8.01707e-07,5.16898e-06,0,1.60889e-06,-7.68372e+08,-7.67963e+08,-7.68317e+08,110370,-0.0020169,0.154903,-0,0.154916,-21568.5,-27978.1,-0,35326.7,110370
step02_gravity_refstate-crust.xmf,616,-1.01128e-06,5.53558e-06,0,1.87e-06,-7.8332e+08,-7.82871e+08,-7.83251e+08,128282,-0.00268951,0.16577,-0,0.165792,-19278.2,-28522,-0,34426.1,128282
step02_gravity_refstate-crust.xmf,617,-1.20591e-06,6.12346e-06,0,2.22607e-06,-8.14366e+08,-8.13863e+08,-8.14283e+08,152708,-0.00233045,0.181407,-0,0.181422,-16259.6,-29652.4,-0,33817.8,152708
step02_gravity_refstate-crust.xmf,618,4.56515e-08,3.84562e-06,0,2.88699e-07,-7.32945e+08,-7.32684e+08,-7.32948e+08,19804.8,0.00025052,0.115321,0,0.115322,-36369.2,-26689.7,-0,45111.7,19804.8
step02_gravity_refstate-crust.xmf,619,6.52953e-08,3.98024e-06,0,4.30659e-07,-7.51676e+08,-7.51408e+08,-7.51681e+08,29543.2,0.000681782,0.115018,0,0.11502,-34404.4,-27372,-0,43964.6,29543.2
step02_gravity_refstate-crust.xmf,620,1.81126e-07,3.90629e-06,0,1.40129e-07,-7.61935e+08,-7.61679e+08,-7.61947e+08,9612.88,0.000343446,0.109964,0,0.109965,-38159.6,-27745.8,-0,47180.3,9612.88
step02_gravity_refstate-crust.xmf,621,1.02829e-06,2.04968e-08,0,1.99004e-06,-1.44007e+08,-1.44076e+08,-1.44077e+08,136517,-0.0295771,0.274514,-0,0.276103,-13101.6,-5246.9,-0,14113.2,136517
step02_gravity_refstate-crust.xmf,622,1.00088e-06,-8.44139e-08,0,1.46341e-06,-9.69644e+07,-9.70388e+07,-9.7033e+07,100390,-0.0347348,0.269024,-0,0.271257,-14023.5,-3534,-0,14461.9,100390
step02_gravity_refstate-crust.xmf,623,8.94613e-07,-1.91495e-07,0,8.09318e-07,-4.86533e+07,-4.87278e+07,-4.87147e+07,55519.2,-0.0419163,0.263025,-0,0.266344,-15015.7,-1774.6,-0,15120.2,55519.2
step02_gravity_refstate-crust.xmf,624,6.70171e-07,-2.56294e-07,0,1.30693e-08,63576.7,21.1995,17603,896.557,-0.0513063,0.25694,-0,0.262012,-16020.4,0,-0,16020.4,896.557
step02_gravity_refstate-crust.xmf,625,6.34206e-06,-1.00293e-05,0,6.77899e-06,-6.94388e+08,-6.95511e+08,-6.94823e+08,465039,-0.021396,0.392667,-0,0.39325,-2764.57,-25290,-0,25440.7,465039
step02_gravity_refstate-crust.xmf,626,2.30726e-06,-2.17463e-06,0,4.8382e-06,-5.17565e+08,-5.17873e+08,-5.17724e+08,331901,-0.0227335,0.327138,-0,0.327927,-6006.45,-18848.5,-0,19782.4,331901
step02_gravity_refstate-crust.xmf,627,1.48033e-06,-6.60671e-07,0,3.89588e-06,-4.05503e+08,-4.0565e+08,-4.05605e+08,267257,-0.0213016,0.307278,-0,0.308016,-7960.98,-14767.7,-0,16776.8,267257
step02_gravity_refstate-crust.xmf,628,7.02445e-06,-1.15127e-05,0,6.84866e-06,-7.11814e+08,-7.13085e+08,-7.12296e+08,469818,-0.0205014,0.402923,-0,0.403444,-2474.42,-25924.9,-0,26042.7,469818
step02_gravity_refstate-crust.xmf,629,7.76099e-06,-1.31953e-05,0,6.74536e-06,-7.28865e+08,-7.30302e+08,-7.29397e+08,462732,-0.0191672,0.414197,-0,0.41464,-2174.17,-26546,-0,26634.9,462732
step02_gravity_refstate-crust.xmf,630,9.06713e-06,-1.68668e-05,0,5.85936e-06,-7.61375e+08,-7.63154e+08,-7.61997e+08,401952,-0.0152048,0.438898,-0,0.439161,-1582.01,-27729.2,-0,27774.3,401952
step02_gravity_refstate-crust.xmf,631,8.50357e-06,-1.50655e-05,0,6.37573e-06,-7.45561e+08,-7.47178e+08,-7.46144e+08,437375,-0.0172505,0.426561,-0,0.42691,-1856.96,-27154,-0,27217.4,437375
step02_gravity_refstate-crust.xmf,632,9.04237e-06,-1.90033e-05,0,6.5981e-06,-7.89223e+08,-7.91147e+08,-7.89844e+08,452630,-0.0157627,0.456054,-0,0.456327,-1654.79,-28739.6,-0,28787.2,452630
step02_gravity_refstate-crust.xmf,633,8.4071e-06,-2.07768e-05,0,6.96595e-06,-8.12848e+08,-8.1485e+08,-8.13425e+08,477864,-0.0150778,0.472065,-0,0.472306,-1719.33,-29594.4,-0,29644.3,477864
step02_gravity_refstate-crust.xmf,634,7.63139e-06,-2.09988e-05,0,8.15926e-06,-8.24085e+08,-8.26049e+08,-8.24609e+08,559725,-0.0161176,0.475503,-0,0.475776,-1997.54,-30000,-0,30066.4,559725
step02_gravity_refstate-crust.xmf,635,-2.38395e-06,7.74407e-06,0,8.01103e-06,-8.70559e+08,-8.69864e+08,-8.70396e+08,549557,-0.00597161,0.299995,-0,0.300054,-7067.21,-31695.9,-0,32474.3,549557
step02_gravity_refstate-crust.xmf,636,5.80387e-07,6.69036e-07,0,2.25356e-05,-8.65194e+08,-8.65188e+08,-8.65234e+08,1.54594e+06,-0.0133325,0.41983,-0,0.420041,-4000,-31501.6,-0,31754.6,1.54594e+06
step02_gravity_refstate-crust.xmf,637,-2.4405e-06,7.40673e-06,0,9.3496e-06,-8.69425e+08,-8.68749e+08,-8.69257e+08,641383,-0.0077423,0.31573,-0,0.315825,-6521.28,-31653.9,-0,32318.6,641383
step02_gravity_refstate-crust.xmf,638,-2.27361e-06,6.81384e-06,0,1.12626e-05,-8.69825e+08,-8.69202e+08,-8.69669e+08,772613,-0.00902612,0.33526,-0,0.335381,-5907.33,-31668.2,-0,32214.5,772613
step02_gravity_refstate-crust.xmf,639,-1.75514e-06,5.72937e-06,0,1.40486e-05,-8.70785e+08,-8.70272e+08,-8.70665e+08,963735,-0.00993725,0.3593,-0,0.359437,-5253.53,-31703.6,-0,32135.9,963735
step02_gravity_refstate-crust.xmf,640,-5.30278e-07,3.72654e-06,0,1.9228e-05,-8.72245e+08,-8.71953e+08,-8.72209e+08,1.31904e+06,-0.0102677,0.396624,-0,0.396757,-4421.74,-31758.6,-0,32064.9,1.31904e+06
step02_gravity_refstate-crust.xmf,641,-2.21299e-06,7.94793e-06,0,6.81011e-06,-8.72643e+08,-8.71946e+08,-8.72492e+08,467173,-0.00380921,0.284284,-0,0.28431,-7666.59,-31772.8,-0,32684.7,467173
step02_gravity_refstate-crust.xmf,642,-1.73242e-06,7.33137e-06,0,3.69443e-06,-8.55584e+08,-8.54963e+08,-8.55466e+08,253438,-0.00241468,0.2283,-0,0.228313,-10983.8,-31152.7,-0,33032.4,253438
step02_gravity_refstate-crust.xmf,643,-1.11547e-06,6.43041e-06,0,2.34706e-06,-8.40053e+08,-8.39535e+08,-8.39976e+08,161008,3.66609e-05,0.18669,0,0.18669,-14978.6,-30588.4,-0,34058.9,161008
step02_gravity_refstate-crust.xmf,644,-1.15566e-06,6.71602e-06,0,2.6096e-06,-8.51973e+08,-8.51433e+08,-8.51894e+08,179019,0.000668337,0.196332,0,0.196333,-13695.5,-31022.7,-0,33911.2,179019
step02_gravity_refstate-crust.xmf,645,-1.3514e-06,6.9127e-06,0,2.90921e-06,-8.52261e+08,-8.51694e+08,-8.52168e+08,199572,-0.000415788,0.206245,-0,0.206245,-12779,-31032.6,-0,33560.8,199572
step02_gravity_refstate-crust.xmf,646,-1.55166e-06,7.11234e-06,0,3.26999e-06,-8.53387e+08,-8.52793e+08,-8.53281e+08,224321,-0.00146818,0.216818,-0,0.216823,-11879.5,-31073.2,-0,33266.6,224321
step02_gravity_refstate-crust.xmf,647,-6.09531e-07,4.95621e-06,0,1.40607e-06,-7.6794e+08,-7.67558e+08,-7.67898e+08,96456.7,-0.000867631,0.14623,-0,0.146232,-23263.1,-27962.8,-0,36374.3,96456.7
step02_gravity_refstate-crust.xmf,648,-8.47911e-07,5.39062e-06,0,1.70597e-06,-7.84608e+08,-7.8418e+08,-7.8455e+08,117029,-0.00158669,0.158879,-0,0.158887,-20335.8,-28569.3,-0,35067.9,117029
step02_gravity_refstate-crust.xmf,649,-9.57376e-07,6.27706e-06,0,2.16395e-06,-8.40822e+08,-8.40326e+08,-8.40756e+08,148447,0.000994138,0.179322,0,0.179324,-15794.8,-30616.8,-0,34450.9,148447
step02_gravity_refstate-crust.xmf,650,4.98742e-08,4.23132e-06,0,6.4312e-07,-7.78418e+08,-7.78131e+08,-7.78422e+08,44118,0.00159269,0.116573,0,0.116584,-31374.3,-28345.9,-0,42282.8,44118
step02_gravity_refstate-crust.xmf,651,1.30748e-07,4.14331e-06,0,5.16501e-07,-7.80934e+08,-7.80658e+08,-7.80943e+08,35432,0.00152336,0.11299,0,0.113001,-32979.8,-28437.6,-0,43547.3,35432
step02_gravity_refstate-crust.xmf,652,3.08573e-07,3.99598e-06,0,1.76117e-09,-7.93296e+08,-7.93043e+08,-7.93318e+08,120.816,1.32183e-19,0.10503,0,0.10503,-40000,-28888.2,-0,49340.9,120.816
step02_gravity_refstate-crust.xmf,653,1.0369e-06,1.03496e-07,0,2.38613e-06,-1.86106e+08,-1.8617e+08,-1.86177e+08,163689,-0.026224,0.279455,-0,0.280682,-12259.9,-6779.73,-0,14009.6,163689
step02_gravity_refstate-crust.xmf,654,1.0381e-06,1.09924e-07,0,2.71298e-06,-2.26777e+08,-2.2684e+08,-2.26848e+08,186110,-0.0239948,0.283934,-0,0.284946,-11493.3,-8260.4,-0,14153.8,186110
step02_gravity_refstate-crust.xmf,655,1.06239e-06,7.86433e-08,0,2.99581e-06,-2.65966e+08,-2.66033e+08,-2.66039e+08,205513,-0.0225624,0.288454,-0,0.289335,-10731.9,-9687.17,-0,14457.3,205513
step02_gravity_refstate-crust.xmf,656,1.11941e-06,-1.72751e-08,0,3.24108e-06,-3.03098e+08,-3.03176e+08,-3.03174e+08,222338,-0.0217173,0.293069,-0,0.293872,-9981.91,-11039.1,-0,14882.9,222338
step02_gravity_refstate-crust.xmf,657,1.20807e-06,-1.73211e-07,0,3.46513e-06,-3.38762e+08,-3.38857e+08,-3.38845e+08,237708,-0.0213029,0.297726,-0,0.298487,-9265.56,-12337.6,-0,15429.4,237708
step02_gravity_refstate-crust.xmf,658,1.32473e-06,-3.83951e-07,0,3.68342e-06,-3.73062e+08,-3.73179e+08,-3.73153e+08,252683,-0.0212149,0.302381,-0,0.303125,-8601.42,-13586.5,-0,16080.3,252683
step02_gravity_refstate-crust.xmf,659,2.34701e-06,-2.44495e-06,0,5.56927e-06,-5.57863e+08,-5.58192e+08,-5.58024e+08,382052,-0.0248504,0.331324,-0,0.332255,-5918.26,-20315.3,-0,21159.8,382052
step02_gravity_refstate-crust.xmf,660,5.67971e-06,-8.66723e-06,0,6.66163e-06,-6.76627e+08,-6.77611e+08,-6.77017e+08,456988,-0.0221567,0.382967,-0,0.383607,-3082.91,-24642.8,-0,24834.9,456988
step02_gravity_refstate-crust.xmf,661,2.77203e-06,-3.2639e-06,0,5.81321e-06,-5.80055e+08,-5.80469e+08,-5.80245e+08,398786,-0.024804,0.339007,-0,0.339913,-5359.5,-21123.6,-0,21792.9,398786
step02_gravity_refstate-crust.xmf,662,5.05329e-06,-7.41979e-06,0,6.48784e-06,-6.58157e+08,-6.59012e+08,-6.58503e+08,445066,-0.0227453,0.373749,-0,0.374441,-3425.15,-23969.8,-0,24213.3,445066
step02_gravity_refstate-crust.xmf,663,4.45457e-06,-6.27505e-06,0,6.31488e-06,-6.39425e+08,-6.40162e+08,-6.39731e+08,433201,-0.0232972,0.364912,-0,0.365655,-3811.56,-23287.2,-0,23597.1,433201
step02_gravity_refstate-crust.xmf,664,3.86642e-06,-5.19487e-06,0,6.15695e-06,-6.20292e+08,-6.20914e+08,-6.20558e+08,422366,-0.0238722,0.356164,-0,0.356963,-4265.02,-22590,-0,22989.1,422366
step02_gravity_refstate-crust.xmf,665,3.30299e-06,-4.19411e-06,0,6.00653e-06,-6.01061e+08,-6.01575e+08,-6.01287e+08,412048,-0.0244288,0.347588,-0,0.348445,-4782.79,-21889.1,-0,22405.5,412048
step02_gravity_refstate-crust.xmf,666,2.65451e-06,-2.72282e-06,0,4.93295e-06,-5.35016e+08,-5.35385e+08,-5.35198e+08,338400,-0.0223962,0.33306,-0,0.333812,-5476.06,-19484.3,-0,20239.2,338400
step02_gravity_refstate-crust.xmf,667,1.68084e-06,-1.01253e-06,0,4.09674e-06,-4.35587e+08,-4.35772e+08,-4.35702e+08,281037,-0.0214383,0.312501,-0,0.313236,-7336.91,-15863.2,-0,17477.8,281037
step02_gravity_refstate-crust.xmf,668,1.93e-06,-1.44255e-06,0,4.27517e-06,-4.63015e+08,-4.63246e+08,-4.63147e+08,293277,-0.0215099,0.318102,-0,0.318828,-6722.16,-16862.1,-0,18152.6,293277
step02_gravity_refstate-crust.xmf,669,2.268e-06,-2.00887e-06,0,4.46113e-06,-4.91661e+08,-4.91955e+08,-4.91817e+08,306033,-0.0215294,0.32466,-0,0.325373,-6072.98,-17905.5,-0,18907.3,306033
step02_gravity_refstate-crust.xmf,670,9.39931e-06,-1.8529e-05,0,5.1547e-06,-7.76305e+08,-7.78221e+08,-7.76949e+08,353612,-0.012932,0.451247,-0,0.451432,-1327.71,-28271.5,-0,28302.6,353612
step02_gravity_refstate-crust.xmf,671,9.02648e-06,-2.0502e-05,0,5.63589e-06,-8.01607e+08,-8.03633e+08,-8.02227e+08,386622,-0.0129643,0.468344,-0,0.468524,-1395.02,-29188.1,-0,29221.4,386622
step02_gravity_refstate-crust.xmf,672,-1.17836e-06,5.47415e-06,0,1.67173e-05,-8.76591e+08,-8.76135e+08,-8.7651e+08,1.14681e+06,-0.00796465,0.377707,-0,0.377791,-4797.92,-31916.9,-0,32275.5,1.14681e+06
step02_gravity_refstate-crust.xmf,673,-1.47344e-06,7.71163e-06,0,4.25947e-06,-8.75895e+08,-8.75264e+08,-8.75793e+08,292200,0.00120303,0.240622,0,0.240625,-9819.13,-31893.8,-0,33371.1,292200
step02_gravity_refstate-crust.xmf,674,-1.69566e-06,7.87846e-06,0,4.93596e-06,-8.75682e+08,-8.75025e+08,-8.75566e+08,338607,-5.81112e-05,0.254057,-0,0.254057,-9059.11,-31885.4,-0,33147.4,338607
step02_gravity_refstate-crust.xmf,675,-1.94062e-06,7.97988e-06,0,5.79244e-06,-8.7486e+08,-8.74179e+08,-8.74727e+08,397361,-0.00165466,0.268835,-0,0.26884,-8326.85,-31854.6,-0,32925,397361
step02_gravity_refstate-crust.xmf,676,-1.27734e-06,7.51315e-06,0,3.72119e-06,-8.75626e+08,-8.75023e+08,-8.75538e+08,255274,0.00220375,0.228348,0,0.228359,-10607,-31884.5,-0,33602.5,255274
step02_gravity_refstate-crust.xmf,677,-9.68364e-07,6.54858e-06,0,2.38666e-06,-8.53289e+08,-8.52773e+08,-8.53223e+08,163725,0.00175928,0.18802,0,0.188028,-14500.7,-31071.1,-0,34288.2,163725
step02_gravity_refstate-crust.xmf,678,-1.03667e-06,5.91433e-06,0,2.0149e-06,-8.12167e+08,-8.1169e+08,-8.12096e+08,138222,-0.00130108,0.172604,-0,0.172609,-17440.4,-29572.7,-0,34332.4,138222
step02_gravity_refstate-crust.xmf,679,-5.3456e-08,4.3487e-06,0,7.86565e-07,-7.75909e+08,-7.75607e+08,-7.75905e+08,53958.4,0.00150017,0.121263,0,0.121272,-29625.3,-28254.3,-0,40938.5,53958.4
step02_gravity_refstate-crust.xmf,680,-4.49838e-07,4.78938e-06,0,1.23936e-06,-7.69641e+08,-7.69282e+08,-7.69611e+08,85019.9,3.23608e-05,0.13913,0,0.13913,-24760.3,-28025.2,-0,37396.3,85019.9
step02_gravity_refstate-crust.xmf,681,-1.73141e-07,4.48499e-06,0,9.34445e-07,-7.73623e+08,-7.73303e+08,-7.73611e+08,64102.9,0.00120957,0.126688,0,0.126694,-27916.8,-28170.7,-0,39660.3,64102.9
step02_gravity_refstate-crust.xmf,682,-3.02629e-07,4.63557e-06,0,1.08342e-06,-7.72196e+08,-7.71857e+08,-7.72175e+08,74322.6,0.000755177,0.132569,0,0.132571,-26292.2,-28118.5,-0,38495.8,74322.6
step02_gravity_refstate-crust.xmf,683,-8.59568e-07,5.72604e-06,0,1.8217e-06,-8.11823e+08,-8.11371e+08,-8.11764e+08,124969,-0.000230272,0.164272,-0,0.164272,-18623.9,-29560.6,-0,34938.2,124969
step02_gravity_refstate-crust.xmf,684,-4.75379e-07,5.1651e-06,0,1.37841e-06,-8.02423e+08,-8.02036e+08,-8.02391e+08,94559.2,0.00135018,0.143928,0,0.143934,-22436.7,-29219.1,-0,36839.7,94559.2
step02_gravity_refstate-crust.xmf,685,-7.17074e-07,5.54837e-06,0,1.66506e-06,-8.1026e+08,-8.0983e+08,-8.10211e+08,114223,0.000504097,0.15715,0,0.157151,-19778.8,-29504,-0,35520.2,114223
step02_gravity_refstate-crust.xmf,686,-6.03192e-07,5.36476e-06,0,1.52737e-06,-8.06115e+08,-8.05706e+08,-8.06074e+08,104778,0.000900968,0.15082,0,0.150823,-20999.1,-29353.3,-0,36091.2,104778
step02_gravity_refstate-crust.xmf,687,-7.98907e-07,6.08475e-06,0,1.96438e-06,-8.39489e+08,-8.39016e+08,-8.39434e+08,134756,0.0017412,0.170969,0,0.170978,-16867.5,-30568.6,-0,34913.5,134756
step02_gravity_refstate-crust.xmf,688,2.52399e-07,4.0303e-06,0,2.63198e-07,-7.87517e+08,-7.87258e+08,-7.87534e+08,18055.4,0.00101301,0.107562,0,0.107567,-36294.9,-28677.6,-0,46257.2,18055.4
step02_gravity_refstate-crust.xmf,689,3.1552e-07,4.19235e-06,0,3.91912e-07,-8.16446e+08,-8.1618e+08,-8.16468e+08,26885.2,0.00209399,0.105529,0,0.10555,-34294.5,-29731.3,-0,45387.9,26885.2
step02_gravity_refstate-crust.xmf,690,4.00408e-07,4.09559e-06,0,1.25523e-07,-8.2037e+08,-8.20116e+08,-8.20397e+08,8610.86,0.000748342,0.101451,0,0.101454,-38152.9,-29874.3,-0,48457.4,8610.86
step02_gravity_refstate-crust.xmf,691,1.43611e-06,-2.04284e-07,0,1.92432e-06,-1.43635e+08,-1.43748e+08,-1.43734e+08,132008,-0.0273622,0.285039,-0,0.286349,-11285.3,-5234.67,-0,12440.3,132008
step02_gravity_refstate-crust.xmf,692,1.48709e-06,-3.01647e-07,0,1.44586e-06,-9.74492e+07,-9.75719e+07,-9.75512e+07,99186.1,-0.0322587,0.280198,-0,0.282049,-12076.9,-3553.29,-0,12588.8,99186.1
step02_gravity_refstate-crust.xmf,693,1.49561e-06,-4.27566e-07,0,8.14447e-07,-4.87908e+07,-4.89227e+07,-4.88934e+07,55871.1,-0.0394594,0.274517,-0,0.277339,-12983.7,-1781.67,-0,13105.4,55871.1
step02_gravity_refstate-crust.xmf,694,1.41399e-06,-5.38141e-07,0,1.66876e-08,134251,335.037,37251.5,1144.77,-0.0491691,0.268373,-0,0.27284,-13945.9,0,-0,13945.9,1144.77
step02_gravity_refstate-crust.xmf,695,1.38174e-06,-1.29569e-07,0,2.3101e-06,-1.87644e+08,-1.87747e+08,-1.87738e+08,158473,-0.0241652,0.2891,-0,0.290108,-10611.1,-6836.75,-0,12622.8,158473
step02_gravity_refstate-crust.xmf,696,7.29757e-06,-1.14516e-05,0,5.33599e-06,-6.9547e+08,-6.96756e+08,-6.9597e+08,366049,-0.0166404,0.400581,-0,0.400927,-2057.36,-25331.1,-0,25414.5,366049
step02_gravity_refstate-crust.xmf,697,6.67077e-06,-1.00931e-05,0,5.31044e-06,-6.77085e+08,-6.78235e+08,-6.77542e+08,364296,-0.0173801,0.391161,-0,0.391547,-2304.11,-24661.3,-0,24768.7,364296
step02_gravity_refstate-crust.xmf,698,2.81588e-06,-2.83205e-06,0,4.34091e-06,-5.11221e+08,-5.11608e+08,-5.11414e+08,297786,-0.0201399,0.333356,-0,0.333964,-5125.71,-18618.5,-0,19311.2,297786
step02_gravity_refstate-crust.xmf,699,1.71349e-06,-8.55397e-07,0,3.4313e-06,-3.74575e+08,-3.74751e+08,-3.74692e+08,235387,-0.0193449,0.31042,-0,0.311023,-7343.06,-13642.4,-0,15493.1,235387
step02_gravity_refstate-crust.xmf,700,1.92102e-06,-1.21269e-06,0,3.5808e-06,-4.05708e+08,-4.05923e+08,-4.0584e+08,245643,-0.0191957,0.315402,-0,0.315985,-6717.91,-14776.1,-0,16231.6,245643
step02_gravity_refstate-crust.xmf,701,7.9505e-06,-1.29027e-05,0,5.19069e-06,-7.1247e+08,-7.13901e+08,-7.13016e+08,356081,-0.015423,0.410525,-0,0.410814,-1791.3,-25950.4,-0,26012.1,356081
step02_gravity_refstate-crust.xmf,702,8.64115e-06,-1.45502e-05,0,4.73399e-06,-7.28994e+08,-7.30585e+08,-7.29587e+08,324752,-0.0134385,0.421554,-0,0.421768,-1474.9,-26552.2,-0,26593.1,324752
step02_gravity_refstate-crust.xmf,703,9.59184e-06,-1.79217e-05,0,3.86082e-06,-7.62994e+08,-7.64882e+08,-7.63652e+08,264853,-0.0100807,0.445133,-0,0.445247,-1029.98,-27788.6,-0,27807.7,264853
step02_gravity_refstate-crust.xmf,704,9.24114e-06,-1.63021e-05,0,4.18353e-06,-7.46072e+08,-7.47824e+08,-7.46706e+08,286990,-0.0113365,0.433442,-0,0.43359,-1188.63,-27173.6,-0,27199.6,286990
step02_gravity_refstate-crust.xmf,705,9.48221e-06,-2.0033e-05,0,4.22651e-06,-7.89796e+08,-7.91821e+08,-7.90447e+08,289939,-0.0102953,0.463224,-0,0.463339,-1066,-28760.7,-0,28780.4,289939
step02_gravity_refstate-crust.xmf,706,9.76504e-06,-1.92894e-05,0,2.9271e-06,-7.76631e+08,-7.78624e+08,-7.773e+08,200799,-0.007431,0.456184,-0,0.456245,-753.777,-28283.7,-0,28293.7,200799
step02_gravity_refstate-crust.xmf,707,9.27118e-06,-2.14092e-05,0,3.10468e-06,-8.03317e+08,-8.05422e+08,-8.03953e+08,212981,-0.00728676,0.475642,-0,0.475697,-781.223,-29249.9,-0,29260.4,212981
step02_gravity_refstate-crust.xmf,708,8.70504e-06,-2.16662e-05,0,4.79429e-06,-8.13622e+08,-8.15705e+08,-8.14219e+08,328888,-0.0105641,0.479851,-0,0.479967,-1197.31,-29622.4,-0,29646.6,328888
step02_gravity_refstate-crust.xmf,709,7.95217e-06,-2.19543e-05,0,6.01514e-06,-8.2409e+08,-8.26142e+08,-8.24636e+08,412638,-0.0122299,0.484161,-0,0.484316,-1498.34,-30000,-0,30037.4,412638
step02_gravity_refstate-crust.xmf,710,-1.72288e-06,8.25863e-06,0,7.19802e-06,-8.85287e+08,-8.84602e+08,-8.85169e+08,493784,0.00044258,0.288192,0,0.288192,-7354.48,-32235.6,-0,33063.9,493784
step02_gravity_refstate-crust.xmf,711,-1.8752e-06,8.21472e-06,0,8.3312e-06,-8.83784e+08,-8.83092e+08,-8.83656e+08,571520,-0.00107264,0.301978,-0,0.30198,-6853.89,-32180.2,-0,32902,571520
step02_gravity_refstate-crust.xmf,712,-1.52048e-07,3.93593e-06,0,2.31058e-05,-8.78845e+08,-8.78564e+08,-8.78834e+08,1.58506e+06,-0.00745336,0.418679,-0,0.418745,-4000,-32000.7,-0,32249.7,1.58506e+06
step02_gravity_refstate-crust.xmf,713,-1.8792e-06,8.04101e-06,0,1.0095e-05,-8.84003e+08,-8.83323e+08,-8.83874e+08,692514,-0.00215735,0.320738,-0,0.320745,-6227.56,-32187.9,-0,32784.8,692514
step02_gravity_refstate-crust.xmf,714,-1.72503e-06,7.67767e-06,0,1.24611e-05,-8.84617e+08,-8.83972e+08,-8.84498e+08,854829,-0.00300155,0.342077,-0,0.34209,-5608.27,-32210.3,-0,32694.9,854829
step02_gravity_refstate-crust.xmf,715,-1.00693e-06,6.53736e-06,0,1.92281e-05,-8.86518e+08,-8.86001e+08,-8.86449e+08,1.31905e+06,-0.0036867,0.390916,-0,0.390934,-4480.93,-32280.6,-0,32590.2,1.31905e+06
step02_gravity_refstate-crust.xmf,716,-1.41727e-06,7.27584e-06,0,1.54013e-05,-8.86238e+08,-8.85642e+08,-8.86141e+08,1.05653e+06,-0.00314496,0.36468,-0,0.364693,-5038.11,-32269.9,-0,32660.8,1.05653e+06
step02_gravity_refstate-crust.xmf,717,-1.28644e-06,8.3903e-06,0,6.29257e-06,-8.92628e+08,-8.91965e+08,-8.9254e+08,431670,0.00403317,0.274168,0,0.274197,-7843.12,-32504.8,-0,33437.7,431670
step02_gravity_refstate-crust.xmf,718,-1.09774e-06,7.30763e-06,0,3.26668e-06,-8.74764e+08,-8.74188e+08,-8.74689e+08,224094,0.00297647,0.216845,0,0.216866,-11444.6,-31853.5,-0,33847.1,224094
step02_gravity_refstate-crust.xmf,719,-6.74181e-07,6.44028e-06,0,2.1783e-06,-8.64907e+08,-8.64419e+08,-8.64861e+08,149432,0.00424205,0.179315,0,0.179365,-15149.7,-31495.1,-0,34949.3,149432
step02_gravity_refstate-crust.xmf,720,-6.79855e-07,6.65317e-06,0,2.37951e-06,-8.72274e+08,-8.71771e+08,-8.72227e+08,163234,0.00482504,0.186826,0,0.186888,-14149.1,-31763.6,-0,34772.4,163234
step02_gravity_refstate-crust.xmf,721,-7.98761e-07,6.85864e-06,0,2.61916e-06,-8.73476e+08,-8.72951e+08,-8.73421e+08,179674,0.00437559,0.195896,0,0.195944,-13231.4,-31807.2,-0,34449.4,179674
step02_gravity_refstate-crust.xmf,722,-9.39112e-07,7.07673e-06,0,2.91729e-06,-8.74405e+08,-8.73855e+08,-8.74341e+08,200126,0.00378061,0.205979,0,0.206014,-12317.5,-31840.8,-0,34140.2,200126
step02_gravity_refstate-crust.xmf,723,-3.34808e-07,4.98215e-06,0,1.23067e-06,-8.01881e+08,-8.01517e+08,-8.01858e+08,84423.8,0.00190514,0.137037,0,0.13705,-23921.3,-29199.7,-0,37747.1,84423.8
step02_gravity_refstate-crust.xmf,724,-5.14041e-07,6.22664e-06,0,1.96861e-06,-8.66237e+08,-8.65775e+08,-8.66202e+08,135047,0.00512082,0.169468,0,0.169545,-16290.2,-31543.8,-0,35501.9,135047
step02_gravity_refstate-crust.xmf,725,2.60437e-07,4.30839e-06,0,5.35736e-07,-8.19617e+08,-8.19339e+08,-8.19635e+08,36751.5,0.00277642,0.108447,0,0.108483,-32210.3,-29846.7,-0,43912.7,36751.5
step02_gravity_refstate-crust.xmf,726,1.77342e-07,4.42012e-06,0,6.6779e-07,-8.17917e+08,-8.17626e+08,-8.17929e+08,45810.4,0.00311403,0.11256,0,0.112603,-30409.7,-29784.6,-0,42566.1,45810.4
step02_gravity_refstate-crust.xmf,727,5.33672e-07,4.18919e-06,0,1.56953e-09,-8.54269e+08,-8.54018e+08,-8.54306e+08,107.67,2.14056e-19,0.0959401,0,0.0959401,-40000,-31109.2,-0,50673.3,107.67
step02_gravity_refstate-crust.xmf,728,1.36615e-06,-1.60757e-07,0,2.60357e-06,-2.28979e+08,-2.29084e+08,-2.29073e+08,178605,-0.022056,0.293231,-0,0.294059,-9920.44,-8341.49,-0,12961.3,178605
step02_gravity_refstate-crust.xmf,729,1.40695e-06,-2.52549e-07,0,2.83868e-06,-2.67592e+08,-2.67706e+08,-2.67689e+08,194734,-0.0206429,0.297706,-0,0.298421,-9183.69,-9747.26,-0,13392.1,194734
step02_gravity_refstate-crust.xmf,730,1.49961e-06,-4.22559e-07,0,3.02585e-06,-3.03879e+08,-3.0401e+08,-3.03981e+08,207573,-0.0196978,0.302433,-0,0.303074,-8433.54,-11068.4,-0,13915.3,207573
step02_gravity_refstate-crust.xmf,731,1.59783e-06,-6.20259e-07,0,3.21859e-06,-3.40016e+08,-3.40168e+08,-3.40126e+08,220795,-0.019323,0.306567,-0,0.307176,-7836.58,-12384.1,-0,14655.3,220795
step02_gravity_refstate-crust.xmf,732,1.78865e-06,-4.03475e-07,0,1.81925e-06,-1.45841e+08,-1.45992e+08,-1.45964e+08,124801,-0.0244749,0.294252,-0,0.295268,-9579.77,-5316.11,-0,10956,124801
step02_gravity_refstate-crust.xmf,733,3.09278e-06,-3.45986e-06,0,5.05749e-06,-5.56644e+08,-5.57093e+08,-5.56856e+08,346944,-0.0220439,0.340219,-0,0.340933,-4912.41,-20272.3,-0,20859,346944
step02_gravity_refstate-crust.xmf,734,5.99857e-06,-8.72733e-06,0,5.30658e-06,-6.58722e+08,-6.59732e+08,-6.59133e+08,364032,-0.0183738,0.381972,-0,0.382414,-2627.51,-23992.2,-0,24135.6,364032
step02_gravity_refstate-crust.xmf,735,3.60357e-06,-4.39639e-06,0,5.16696e-06,-5.78762e+08,-5.79311e+08,-5.79009e+08,354454,-0.0215453,0.348074,-0,0.34874,-4361.27,-21078.2,-0,21524.6,354454
step02_gravity_refstate-crust.xmf,736,5.36675e-06,-7.55539e-06,0,5.33369e-06,-6.39803e+08,-6.4069e+08,-6.40171e+08,365891,-0.0192905,0.373128,-0,0.373626,-2989.75,-23302.7,-0,23493.7,365891
step02_gravity_refstate-crust.xmf,737,4.76489e-06,-6.44784e-06,0,5.29998e-06,-6.20635e+08,-6.21404e+08,-6.20961e+08,363579,-0.0201014,0.364757,-0,0.365311,-3384.81,-22604.1,-0,22856.1,363579
step02_gravity_refstate-crust.xmf,738,4.17438e-06,-5.38806e-06,0,5.2323e-06,-5.99917e+08,-6.00573e+08,-6.00204e+08,358936,-0.0208207,0.356361,-0,0.356969,-3836.11,-21849.1,-0,22183.3,358936
step02_gravity_refstate-crust.xmf,739,3.29433e-06,-3.56996e-06,0,4.32354e-06,-5.32808e+08,-5.33279e+08,-5.33034e+08,296595,-0.0192706,0.340618,-0,0.341163,-4465.89,-19405.2,-0,19912.5,296595
step02_gravity_refstate-crust.xmf,740,2.18271e-06,-1.65732e-06,0,3.71222e-06,-4.35585e+08,-4.35848e+08,-4.35734e+08,254658,-0.019038,0.320836,-0,0.321401,-6093.16,-15864.2,-0,16994.1,254658
step02_gravity_refstate-crust.xmf,741,2.5065e-06,-2.19289e-06,0,3.79808e-06,-4.63002e+08,-4.63324e+08,-4.63174e+08,260548,-0.0187151,0.326734,-0,0.32727,-5460.77,-16862.8,-0,17724.9,260548
step02_gravity_refstate-crust.xmf,742,2.88484e-06,-2.79228e-06,0,3.76963e-06,-4.8479e+08,-4.8518e+08,-4.84988e+08,258596,-0.0179353,0.332829,-0,0.333312,-4804.79,-17656.6,-0,18298.7,258596
step02_gravity_refstate-crust.xmf,743,9.85855e-06,-1.85954e-05,0,1.71244e-06,-7.65678e+08,-7.6763e+08,-7.66354e+08,117473,-0.0045242,0.450051,-0,0.450074,-457.303,-27886.4,-0,27890.1,117473
step02_gravity_refstate-crust.xmf,744,8.73065e-06,-2.22345e-05,0,3.00999e-06,-8.15691e+08,-8.17815e+08,-8.1629e+08,206485,-0.00664084,0.485546,-0,0.485592,-758.065,-29696.9,-0,29706.6,206485
step02_gravity_refstate-crust.xmf,745,-7.3038e-07,7.71066e-06,0,3.85778e-06,-8.94562e+08,-8.93983e+08,-8.94512e+08,264644,0.00703381,0.229225,0,0.229333,-10201.4,-32576.4,-0,34136.4,264644
step02_gravity_refstate-crust.xmf,746,-8.97069e-07,7.95537e-06,0,4.44377e-06,-8.94091e+08,-8.93483e+08,-8.94029e+08,304843,0.00626003,0.242232,0,0.242313,-9418.44,-32559,-0,33893.8,304843
step02_gravity_refstate-crust.xmf,747,-1.0923e-06,8.19156e-06,0,5.20597e-06,-8.93367e+08,-8.9273e+08,-8.93292e+08,357130,0.00526179,0.256751,0,0.256804,-8649.33,-32532.2,-0,33662.3,357130
step02_gravity_refstate-crust.xmf,748,-1.16702e-06,8.65881e-06,0,7.36556e-06,-8.98433e+08,-8.97759e+08,-8.98353e+08,505277,0.00552863,0.287892,0,0.287945,-7206.62,-32717,-0,33501.3,505277
step02_gravity_refstate-crust.xmf,749,-5.82895e-07,7.4647e-06,0,3.39173e-06,-8.94952e+08,-8.944e+08,-8.94912e+08,232673,0.0076701,0.217215,0,0.21735,-11015.2,-32590.8,-0,34402,232673
step02_gravity_refstate-crust.xmf,750,-6.58278e-07,5.89254e-06,0,1.795e-06,-8.39213e+08,-8.38763e+08,-8.39168e+08,123137,0.00252062,0.162821,0,0.16284,-17989.7,-30558.8,-0,35460.8,123137
step02_gravity_refstate-crust.xmf,751,7.58662e-08,4.54811e-06,0,8.0247e-07,-8.15353e+08,-8.15046e+08,-8.15358e+08,55049.4,0.00323081,0.117565,0,0.11761,-28658.3,-29691.1,-0,41265.7,55049.4
step02_gravity_refstate-crust.xmf,752,-1.8161e-07,4.83235e-06,0,1.07982e-06,-8.07305e+08,-8.06961e+08,-8.07293e+08,74075.7,0.00265012,0.129834,0,0.129861,-25421.1,-29397.5,-0,38864.4,74075.7
step02_gravity_refstate-crust.xmf,753,-3.92353e-08,4.69193e-06,0,9.39113e-07,-8.12956e+08,-8.12631e+08,-8.12953e+08,64423.2,0.0031457,0.123217,0,0.123258,-26974.8,-29603.6,-0,40050.1,64423.2
step02_gravity_refstate-crust.xmf,754,-5.32016e-07,5.71516e-06,0,1.64605e-06,-8.38454e+08,-8.38026e+08,-8.38418e+08,112919,0.00309352,0.15554,0,0.155571,-19109.4,-30531.5,-0,36018.6,112919
step02_gravity_refstate-crust.xmf,755,-1.49862e-07,5.16525e-06,0,1.21099e-06,-8.39441e+08,-8.39076e+08,-8.39431e+08,83074,0.00452131,0.13324,0,0.133316,-23218.5,-30568.1,-0,38386.3,83074
step02_gravity_refstate-crust.xmf,756,-3.03201e-07,5.34912e-06,0,1.36617e-06,-8.35609e+08,-8.35221e+08,-8.35588e+08,93719.5,0.0038625,0.141486,0,0.141539,-21664.9,-30428.2,-0,37353,93719.5
step02_gravity_refstate-crust.xmf,757,-4.12345e-07,5.53348e-06,0,1.50302e-06,-8.37416e+08,-8.37008e+08,-8.37388e+08,103108,0.00356127,0.148338,0,0.148381,-20339.3,-30493.9,-0,36654.6,103108
step02_gravity_refstate-crust.xmf,758,-3.90737e-07,6.03851e-06,0,1.79679e-06,-8.66543e+08,-8.66102e+08,-8.66516e+08,123260,0.00565897,0.161111,0,0.161211,-17390.2,-31555.1,-0,36029.8,123260
step02_gravity_refstate-crust.xmf,759,4.61192e-07,4.19861e-06,0,2.33999e-07,-8.41677e+08,-8.41421e+08,-8.41709e+08,16052.3,0.00172117,0.0993641,0,0.099379,-36387,-30650.5,-0,47575.9,16052.3
step02_gravity_refstate-crust.xmf,760,4.65507e-07,4.39435e-06,0,4.48226e-07,-8.62849e+08,-8.6258e+08,-8.62881e+08,30748.3,0.00367619,0.100125,0,0.100193,-33050.3,-31421.6,-0,45603.1,30748.3
step02_gravity_refstate-crust.xmf,761,6.20425e-07,4.28502e-06,0,1.17787e-07,-8.80802e+08,-8.8055e+08,-8.80844e+08,8080.18,0.00116599,0.0922365,0,0.0922439,-38129.8,-32075.6,-0,49827,8080.18
step02_gravity_refstate-crust.xmf,762,1.67186e-06,-3.41963e-07,0,2.20632e-06,-1.93343e+08,-1.93481e+08,-1.93457e+08,151354,-0.0216611,0.297388,-0,0.298176,-9097.56,-7045.07,-0,11506.5,151354
step02_gravity_refstate-crust.xmf,763,1.94326e-06,-5.09483e-07,0,1.39045e-06,-1.00289e+08,-1.00458e+08,-1.00423e+08,95384.7,-0.0286356,0.290741,-0,0.292148,-10119.1,-3658.21,-0,10760,95384.7
step02_gravity_refstate-crust.xmf,764,2.08516e-06,-6.60306e-07,0,7.90056e-07,-4.93297e+07,-4.95181e+07,-4.94728e+07,54197.9,-0.0357372,0.285415,-0,0.287643,-10949.6,-1803.31,-0,11097.1,54197.9
step02_gravity_refstate-crust.xmf,765,2.15409e-06,-8.17856e-07,0,2.00619e-08,204603,727.592,56832.5,1376.24,-0.045552,0.279181,-0,0.282873,-11904.5,0,-0,11904.5,1376.24
step02_gravity_refstate-crust.xmf,766,6.79111e-06,-9.87097e-06,0,3.88025e-06,-6.59095e+08,-6.60238e+08,-6.59561e+08,266185,-0.0131954,0.388457,-0,0.388681,-1815.12,-24007.2,-0,24075.7,266185
step02_gravity_refstate-crust.xmf,767,7.97222e-06,-1.24604e-05,0,3.73333e-06,-6.96012e+08,-6.97414e+08,-6.96559e+08,256106,-0.0115878,0.406085,-0,0.40625,-1391.7,-25352,-0,25390.2,256106
step02_gravity_refstate-crust.xmf,768,7.46517e-06,-1.1225e-05,0,3.5542e-06,-6.77286e+08,-6.78568e+08,-6.77798e+08,243818,-0.011496,0.397574,-0,0.39774,-1470.26,-24670.1,-0,24713.9,243818
step02_gravity_refstate-crust.xmf,769,3.38162e-06,-3.57331e-06,0,3.66095e-06,-5.08959e+08,-5.09436e+08,-5.09191e+08,251141,-0.0167326,0.340177,-0,0.340588,-4061.02,-18537.3,-0,18976.9,251141
step02_gravity_refstate-crust.xmf,770,1.88067e-06,-9.53712e-07,0,3.03194e-06,-3.48006e+08,-3.482e+08,-3.48135e+08,207991,-0.0176564,0.312772,-0,0.31327,-6781.56,-12675.6,-0,14375.7,207991
step02_gravity_refstate-crust.xmf,771,2.07734e-06,-1.2913e-06,0,3.08477e-06,-3.74439e+08,-3.7467e+08,-3.74582e+08,211615,-0.0171081,0.317184,-0,0.317645,-6165.16,-13638.2,-0,14967,211615
step02_gravity_refstate-crust.xmf,772,2.34306e-06,-1.73782e-06,0,3.14456e-06,-4.05559e+08,-4.05839e+08,-4.05719e+08,215717,-0.0165761,0.322504,-0,0.322929,-5491.11,-14771.6,-0,15759.2,215717
step02_gravity_refstate-crust.xmf,773,8.60097e-06,-1.38912e-05,0,3.2967e-06,-7.13085e+08,-7.14628e+08,-7.13675e+08,226154,-0.0097626,0.415998,-0,0.416112,-1104.44,-25973.9,-0,25997.3,226154
step02_gravity_refstate-crust.xmf,774,9.19839e-06,-1.54524e-05,0,2.57643e-06,-7.30015e+08,-7.31706e+08,-7.30646e+08,176743,-0.00731161,0.426694,-0,0.426757,-785.206,-26590.2,-0,26601.8,176743
step02_gravity_refstate-crust.xmf,775,9.7204e-06,-1.72353e-05,0,1.60906e-06,-7.49315e+08,-7.51164e+08,-7.49982e+08,110381,-0.00436777,0.439451,-0,0.439472,-448.971,-27292.2,-0,27295.9,110381
step02_gravity_refstate-crust.xmf,776,9.72479e-06,-2.05123e-05,0,1.85715e-06,-7.89157e+08,-7.91231e+08,-7.89824e+08,127401,-0.00459457,0.466621,-0,0.466644,-471.429,-28737.6,-0,28741.5,127401
step02_gravity_refstate-crust.xmf,777,9.92082e-06,-1.96021e-05,0,6.60288e-07,-7.76565e+08,-7.7859e+08,-7.77246e+08,45295.8,-0.00170441,0.458273,-0,0.458276,-171.981,-28281.4,-0,28281.9,45295.8
step02_gravity_refstate-crust.xmf,778,8.90226e-06,-2.23306e-05,0,1.21754e-06,-8.13353e+08,-8.15495e+08,-8.13964e+08,83523.5,-0.00278242,0.485912,-0,0.48592,-312.296,-29612.4,-0,29614,83523.5
step02_gravity_refstate-crust.xmf,779,8.13962e-06,-2.25648e-05,0,3.95969e-06,-8.24095e+08,-8.26201e+08,-8.24654e+08,271634,-0.00821732,0.490286,-0,0.490355,-999.46,-30000,-0,30016.6,271634
step02_gravity_refstate-crust.xmf,780,-1.28539e-06,8.90013e-06,0,9.01884e-06,-8.98605e+08,-8.97906e+08,-8.98516e+08,618692,0.00479761,0.306081,0,0.306119,-6552.55,-32723.2,-0,33372.8,618692
step02_gravity_refstate-crust.xmf,781,-9.07911e-07,7.23457e-06,0,2.34242e-05,-8.92524e+08,-8.91966e+08,-8.92462e+08,1.6069e+06,-0.00136288,0.415885,-0,0.415887,-4000,-32500.8,-0,32746,1.6069e+06
step02_gravity_refstate-crust.xmf,782,-1.36427e-06,9.00735e-06,0,1.11192e-05,-8.98716e+08,-8.98004e+08,-8.98622e+08,762774,0.00401373,0.326307,0,0.326331,-5924.72,-32727.1,-0,33259,762774
step02_gravity_refstate-crust.xmf,783,-1.38287e-06,9.07721e-06,0,1.38432e-05,-8.99213e+08,-8.98495e+08,-8.99118e+08,949644,0.00342274,0.348636,0,0.348652,-5326.11,-32745.2,-0,33175.5,949644
step02_gravity_refstate-crust.xmf,784,-1.3509e-06,9.08075e-06,0,1.72025e-05,-8.99624e+08,-8.98909e+08,-8.99532e+08,1.18009e+06,0.00285842,0.37277,0,0.37278,-4772.57,-32760.3,-0,33106.1,1.18009e+06
step02_gravity_refstate-crust.xmf,785,-3.86621e-07,8.57983e-06,0,5.6521e-06,-9.10843e+08,-9.10228e+08,-9.10817e+08,387734,0.0110942,0.259612,0,0.259848,-8246.95,-33171.9,-0,34181.7,387734
step02_gravity_refstate-crust.xmf,786,-3.93028e-07,9.00891e-06,0,6.75361e-06,-9.13518e+08,-9.12873e+08,-9.13491e+08,463298,0.0118016,0.274795,0,0.275049,-7533.7,-33269.9,-0,34112.2,463298
step02_gravity_refstate-crust.xmf,787,-4.54042e-07,7.23218e-06,0,3.00374e-06,-8.95221e+08,-8.94694e+08,-8.9519e+08,206057,0.00817803,0.205973,0,0.206135,-11869.9,-32600.8,-0,34694.5,206057
step02_gravity_refstate-crust.xmf,788,-1.66894e-07,6.35298e-06,0,2.02771e-06,-8.91847e+08,-8.914e+08,-8.91836e+08,139101,0.00870405,0.168117,0,0.168342,-15727.5,-32477.7,-0,36085.4,139101
step02_gravity_refstate-crust.xmf,789,-2.22953e-07,6.55807e-06,0,2.22331e-06,-8.93074e+08,-8.92609e+08,-8.93059e+08,152519,0.00868972,0.176837,0,0.177051,-14679.7,-32522.5,-0,35682,152519
step02_gravity_refstate-crust.xmf,790,-2.7727e-07,6.76928e-06,0,2.44543e-06,-8.9448e+08,-8.93997e+08,-8.94461e+08,167757,0.00868789,0.185874,0,0.186077,-13694.3,-32573.8,-0,35335.3,167757
step02_gravity_refstate-crust.xmf,791,-3.52021e-07,6.99117e-06,0,2.70486e-06,-8.95226e+08,-8.94722e+08,-8.95202e+08,185554,0.00853788,0.195559,0,0.195745,-12758.4,-32601,-0,35008.6,185554
step02_gravity_refstate-crust.xmf,792,-9.39551e-08,4.98878e-06,0,1.10583e-06,-8.3122e+08,-8.30872e+08,-8.31214e+08,75859.8,0.00409359,0.12896,0,0.129025,-24566.6,-30268.8,-0,38983.6,75859.8
step02_gravity_refstate-crust.xmf,793,-8.64574e-08,6.16252e-06,0,1.85833e-06,-8.92678e+08,-8.92249e+08,-8.92672e+08,127481,0.00896258,0.159486,0,0.159738,-16814.4,-32508,-0,36599.1,127481
step02_gravity_refstate-crust.xmf,794,3.97134e-07,4.49524e-06,0,5.74887e-07,-8.60706e+08,-8.60425e+08,-8.60734e+08,39437.3,0.00441108,0.103871,0,0.103965,-31193.9,-31343.4,-0,44220.7,39437.3
step02_gravity_refstate-crust.xmf,795,3.12407e-07,4.61158e-06,0,7.02481e-07,-8.57371e+08,-8.57076e+08,-8.57392e+08,48190.2,0.00492161,0.108553,0,0.108664,-29398.7,-31221.8,-0,42884.6,48190.2
step02_gravity_refstate-crust.xmf,796,5.32215e-07,4.33594e-06,0,3.33619e-07,-8.68972e+08,-8.68711e+08,-8.69009e+08,22886.2,0.00296806,0.0967809,0,0.0968264,-34751.9,-31644.7,-0,47000.8,22886.2
step02_gravity_refstate-crust.xmf,797,7.44299e-07,4.38081e-06,0,1.40495e-09,-9.15236e+08,-9.14986e+08,-9.15287e+08,96.3796,2.89983e-19,0.0864247,0,0.0864247,-40000,-33329.9,-0,52066.1,96.3796
step02_gravity_refstate-crust.xmf,798,1.68426e-06,-4.34402e-07,0,2.41053e-06,-2.30826e+08,-2.30971e+08,-2.30942e+08,165362,-0.0196836,0.301608,-0,0.30225,-8384.24,-8409.59,-0,11875,165362
step02_gravity_refstate-crust.xmf,799,1.75708e-06,-5.95309e-07,0,2.56623e-06,-2.68233e+08,-2.68395e+08,-2.68354e+08,176043,-0.018141,0.306287,-0,0.306823,-7603.08,-9771.49,-0,12381,176043
step02_gravity_refstate-crust.xmf,800,1.89476e-06,-8.62398e-07,0,2.71529e-06,-3.10151e+08,-3.1034e+08,-3.10281e+08,186269,-0.0170128,0.311414,-0,0.311878,-6803.16,-11297.7,-0,13187.9,186269
step02_gravity_refstate-crust.xmf,801,1.95828e-06,-5.17806e-07,0,1.83523e-06,-1.62047e+08,-1.62217e+08,-1.62182e+08,125897,-0.0213897,0.300642,-0,0.301402,-8345.55,-5906.62,-0,10224.3,125897
step02_gravity_refstate-crust.xmf,802,2.26162e-06,-6.62851e-07,0,1.40613e-06,-1.16846e+08,-1.17047e+08,-1.17002e+08,96460.5,-0.0233402,0.300459,-0,0.301364,-8178.8,-4262.03,-0,9222.67,96460.5
step02_gravity_refstate-crust.xmf,803,3.80272e-06,-4.41302e-06,0,4.3211e-06,-5.55405e+08,-5.55968e+08,-5.55666e+08,296428,-0.018465,0.347997,-0,0.348487,-3894.09,-20228.6,-0,20600,296428
step02_gravity_refstate-crust.xmf,804,6.1264e-06,-8.59275e-06,0,4.07002e-06,-6.40278e+08,-6.41288e+08,-6.40698e+08,279203,-0.0145864,0.379799,-0,0.380079,-2167.04,-23321.4,-0,23421.9,279203
step02_gravity_refstate-crust.xmf,805,4.35939e-06,-5.41548e-06,0,4.29092e-06,-5.77919e+08,-5.78589e+08,-5.78218e+08,294357,-0.017552,0.355738,-0,0.35617,-3369.49,-21049,-0,21316.9,294357
step02_gravity_refstate-crust.xmf,806,5.52803e-06,-7.49916e-06,0,4.19639e-06,-6.20617e+08,-6.21511e+08,-6.20996e+08,287872,-0.0156641,0.371612,-0,0.371942,-2522.05,-22604.9,-0,22745.2,287872
step02_gravity_refstate-crust.xmf,807,4.94422e-06,-6.44205e-06,0,4.24296e-06,-5.9984e+08,-6.00622e+08,-6.0018e+08,291067,-0.0165839,0.363691,-0,0.364068,-2906.77,-21847.8,-0,22040.3,291067
step02_gravity_refstate-crust.xmf,808,3.88332e-06,-4.3473e-06,0,3.52354e-06,-5.31359e+08,-5.31923e+08,-5.31625e+08,241715,-0.0154574,0.347168,-0,0.347512,-3423.15,-19353.6,-0,19654,241715
step02_gravity_refstate-crust.xmf,809,2.67648e-06,-2.2887e-06,0,3.17817e-06,-4.3679e+08,-4.37131e+08,-4.36974e+08,218022,-0.0159947,0.328353,-0,0.328742,-4820.27,-15909.1,-0,16623.3,218022
step02_gravity_refstate-crust.xmf,810,3.03421e-06,-2.87238e-06,0,3.15213e-06,-4.63188e+08,-4.63593e+08,-4.63396e+08,216236,-0.0152678,0.334017,-0,0.334366,-4212.24,-16870.6,-0,17388.6,216236
step02_gravity_refstate-crust.xmf,811,3.42886e-06,-3.50047e-06,0,3.02132e-06,-4.85547e+08,-4.86022e+08,-4.85782e+08,207262,-0.0141395,0.339757,-0,0.340051,-3591.39,-17685.3,-0,18046.2,207262
step02_gravity_refstate-crust.xmf,812,9.90836e-06,-1.85083e-05,0,-4.51679e-07,-7.63311e+08,-7.6526e+08,-7.6399e+08,-30985.2,0.00115601,0.449184,0,0.449186,116.619,-27800.5,0,27800.8,30985.2
step02_gravity_refstate-crust.xmf,813,9.48288e-06,-2.14695e-05,0,6.83695e-07,-8.00403e+08,-8.02526e+08,-8.01053e+08,46901.5,-0.00158596,0.475994,-0,0.475996,-167.445,-29144.6,-0,29145.1,46901.5
step02_gravity_refstate-crust.xmf,814,8.23662e-06,-2.29072e-05,0,1.97082e-06,-8.24099e+08,-8.26235e+08,-8.24664e+08,135198,-0.00412766,0.493944,-0,0.493962,-500.036,-30000,-0,30004.2,135198
step02_gravity_refstate-crust.xmf,815,-1.29559e-06,9.01242e-06,0,2.05026e-05,-8.99538e+08,-8.98831e+08,-8.9945e+08,1.40648e+06,0.00223604,0.394816,0,0.394823,-4336.14,-32757.3,-0,33043.1,1.40648e+06
step02_gravity_refstate-crust.xmf,816,1.44289e-08,7.65411e-06,0,3.64018e-06,-9.14597e+08,-9.14073e+08,-9.14598e+08,249716,0.0126403,0.218032,0,0.218399,-10573.2,-33308.7,-0,34946.6,249716
step02_gravity_refstate-crust.xmf,817,-1.02342e-07,7.94082e-06,0,4.14488e-06,-9.13111e+08,-9.12559e+08,-9.13104e+08,284339,0.0121951,0.230627,0,0.230949,-9778.75,-33254.6,-0,34662.5,284339
step02_gravity_refstate-crust.xmf,818,-2.28443e-07,8.25086e-06,0,4.79517e-06,-9.12061e+08,-9.1148e+08,-9.12046e+08,328949,0.0117444,0.244296,0,0.244578,-9006.3,-33216.4,-0,34415.7,328949
step02_gravity_refstate-crust.xmf,819,-5.41339e-07,9.36133e-06,0,8.0662e-06,-9.13792e+08,-9.13113e+08,-9.13755e+08,553342,0.0115982,0.291718,0,0.291948,-6873.63,-33279.8,-0,33982.3,553342
step02_gravity_refstate-crust.xmf,820,1.07663e-07,7.38122e-06,0,3.2326e-06,-9.15927e+08,-9.15428e+08,-9.15934e+08,221756,0.0129209,0.206272,0,0.206676,-11408.7,-33357.1,-0,35254.1,221756
step02_gravity_refstate-crust.xmf,821,-2.86023e-07,5.8585e-06,0,1.65242e-06,-8.66983e+08,-8.66561e+08,-8.66963e+08,113356,0.00608991,0.153405,0,0.153525,-18504.6,-31571.3,-0,36594.7,113356
step02_gravity_refstate-crust.xmf,822,2.22026e-07,4.74648e-06,0,8.29782e-07,-8.55058e+08,-8.54748e+08,-8.55073e+08,56923.1,0.00527519,0.113738,0,0.11386,-27675.3,-31137.5,-0,41658.9,56923.1
step02_gravity_refstate-crust.xmf,823,1.00587e-07,4.90416e-06,0,9.72113e-07,-8.50113e+08,-8.49783e+08,-8.5012e+08,66687,0.00529639,0.120635,0,0.120751,-25850.4,-30957.2,-0,40331,66687
step02_gravity_refstate-crust.xmf,824,-1.90024e-07,5.68665e-06,0,1.51707e-06,-8.67159e+08,-8.66756e+08,-8.67146e+08,104071,0.00638514,0.146164,0,0.146304,-19667,-31577.8,-0,37201.5,104071
step02_gravity_refstate-crust.xmf,825,9.42761e-08,5.09477e-06,0,1.08047e-06,-8.63309e+08,-8.62966e+08,-8.63316e+08,74120,0.00627175,0.123913,0,0.124071,-24357.2,-31437.9,-0,39769.5,74120
step02_gravity_refstate-crust.xmf,826,6.55395e-09,5.35588e-06,0,1.26075e-06,-8.69832e+08,-8.69465e+08,-8.69832e+08,86487.2,0.0068586,0.132069,0,0.132247,-22217.2,-31675.4,-0,38690.2,86487.2
step02_gravity_refstate-crust.xmf,827,-9.6414e-08,5.51806e-06,0,1.38759e-06,-8.67601e+08,-8.67216e+08,-8.67595e+08,95189,0.00660513,0.139152,0,0.139309,-20901.2,-31594,-0,37882,95189
step02_gravity_refstate-crust.xmf,828,-1.32752e-08,5.99144e-06,0,1.71044e-06,-8.93959e+08,-8.93547e+08,-8.93958e+08,117336,0.00917975,0.151568,0,0.151846,-17900,-32554.7,-0,37151.3,117336
step02_gravity_refstate-crust.xmf,829,7.04132e-07,4.41978e-06,0,2.39332e-07,-9.10366e+08,-9.10111e+08,-9.10414e+08,16418.2,0.00279968,0.0888229,0,0.088867,-36096,-33152.5,-0,49010.3,16418.2
step02_gravity_refstate-crust.xmf,830,6.03237e-07,4.5827e-06,0,5.01479e-07,-9.05514e+08,-9.05241e+08,-9.05555e+08,34401.4,0.00537883,0.094919,0,0.0950712,-31999.4,-32975.7,-0,45949.5,34401.4
step02_gravity_refstate-crust.xmf,831,6.6772e-07,4.49942e-06,0,3.74138e-07,-9.10537e+08,-9.10274e+08,-9.10583e+08,25665.9,0.00427107,0.0911008,0,0.0912009,-33943.2,-33158.7,-0,47451.5,25665.9
step02_gravity_refstate-crust.xmf,832,8.23492e-07,4.48052e-06,0,1.12298e-07,-9.42271e+08,-9.4202e+08,-9.42327e+08,7703.65,0.00155022,0.0824266,0,0.0824412,-38122.8,-34314.6,-0,51291.7,7703.65
step02_gravity_refstate-crust.xmf,833,1.9528e-06,-5.55479e-07,0,2.00459e-06,-1.94789e+08,-1.94961e+08,-1.94923e+08,137515,-0.0189769,0.304602,-0,0.305193,-7638.64,-7098.52,-0,10427.7,137515
step02_gravity_refstate-crust.xmf,834,2.63293e-06,-8.65958e-07,0,7.79609e-07,-5.44511e+07,-5.46912e+07,-5.46318e+07,53481.2,-0.0297623,0.296476,-0,0.297966,-8685.82,-1991.66,-0,8911.24,53481.2
step02_gravity_refstate-crust.xmf,835,2.8593e-06,-1.08244e-06,0,2.6433e-08,271721,1317.9,75573.3,1813.31,-0.0405231,0.289042,-0,0.291869,-9889.84,0,-0,9889.84,1813.31
step02_gravity_refstate-crust.xmf,836,6.70396e-06,-9.41105e-06,0,2.68776e-06,-6.41078e+08,-6.42183e+08,-6.41538e+08,184380,-0.00949866,0.384598,-0,0.384715,-1369.39,-23351.6,-0,23391.8,184380
step02_gravity_refstate-crust.xmf,837,8.47655e-06,-1.32776e-05,0,2.0464e-06,-7.00324e+08,-7.01816e+08,-7.00905e+08,140383,-0.00627418,0.411444,-0,0.411492,-731.458,-25509.7,-0,25520.2,140383
step02_gravity_refstate-crust.xmf,838,7.34106e-06,-1.06492e-05,0,2.1856e-06,-6.60113e+08,-6.61347e+08,-6.60617e+08,149932,-0.00737676,0.393092,-0,0.393161,-987.062,-24045.3,-0,24065.5,149932
step02_gravity_refstate-crust.xmf,839,8.05282e-06,-1.21242e-05,0,1.66306e-06,-6.81757e+08,-6.83141e+08,-6.82309e+08,114086,-0.00535231,0.403103,-0,0.403138,-661.537,-24833.9,-0,24842.7,114086
step02_gravity_refstate-crust.xmf,840,2.16078e-06,-1.23963e-06,0,2.63753e-06,-3.39505e+08,-3.39738e+08,-3.39653e+08,180934,-0.0153312,0.317803,-0,0.318173,-5721.53,-12366.8,-0,13626.2,180934
step02_gravity_refstate-crust.xmf,841,3.87674e-06,-4.21453e-06,0,2.81845e-06,-5.08004e+08,-5.08559e+08,-5.0827e+08,193346,-0.0127252,0.345883,-0,0.346117,-2967.38,-18503.6,-0,18740,193346
step02_gravity_refstate-crust.xmf,842,2.42737e-06,-1.70909e-06,0,2.61268e-06,-3.73128e+08,-3.73412e+08,-3.73295e+08,179230,-0.0142955,0.323243,-0,0.323559,-4931.41,-13591.3,-0,14458.3,179230
step02_gravity_refstate-crust.xmf,843,2.73453e-06,-2.22629e-06,0,2.58949e-06,-4.06281e+08,-4.06621e+08,-4.06469e+08,177639,-0.0134379,0.328641,-0,0.328916,-4245.62,-14798.7,-0,15395.7,177639
step02_gravity_refstate-crust.xmf,844,8.9628e-06,-1.44496e-05,0,1.28239e-06,-7.14143e+08,-7.15749e+08,-7.14758e+08,87972.2,-0.00380559,0.419317,-0,0.419335,-423.899,-26013,-0,26016.4,87972.2
step02_gravity_refstate-crust.xmf,845,9.42543e-06,-1.58236e-05,0,2.80905e-07,-7.30738e+08,-7.3247e+08,-7.31384e+08,19270.1,-0.000807881,0.428929,-0,0.42893,-85.9327,-26616.9,-0,26617,19270.1
step02_gravity_refstate-crust.xmf,846,9.70492e-06,-1.7055e-05,0,-1.01961e-06,-7.4648e+08,-7.48316e+08,-7.47146e+08,-69944.9,0.00278921,0.438084,0,0.438093,287.644,-27189.2,0,27190.7,69944.9
step02_gravity_refstate-crust.xmf,847,9.78091e-06,-2.06025e-05,0,-4.81884e-07,-7.88862e+08,-7.90946e+08,-7.89533e+08,-33057.3,0.00115506,0.467282,0,0.467283,118.248,-28727,0,28727.2,33057.3
step02_gravity_refstate-crust.xmf,848,9.8839e-06,-1.95072e-05,0,-1.57688e-06,-7.7635e+08,-7.78366e+08,-7.77028e+08,-108174,0.00398198,0.457597,0,0.457614,402.256,-28273.6,0,28276.4,108174
step02_gravity_refstate-crust.xmf,849,8.92073e-06,-2.23788e-05,0,-8.92194e-07,-8.13898e+08,-8.16045e+08,-8.1451e+08,-61204.5,0.0020088,0.486573,0,0.486577,226.05,-29632.2,0,29633.1,61204.5
step02_gravity_refstate-crust.xmf,850,9.41904e-06,-2.14379e-05,0,-1.69847e-06,-8.01161e+08,-8.03278e+08,-8.01807e+08,-116515,0.00405212,0.475884,0,0.475901,429.588,-29172,0,29175.1,116515
step02_gravity_refstate-crust.xmf,851,8.26867e-06,-2.30268e-05,0,1.26179e-08,-8.241e+08,-8.26247e+08,-8.24668e+08,865.585,1.88764e-07,0.495162,0,0.495162,-4.01542e-10,-30000,-0,30000,865.585
step02_gravity_refstate-crust.xmf,852,-7.65899e-07,9.89605e-06,0,9.95021e-06,-9.13365e+08,-9.12634e+08,-9.13313e+08,682584,0.0109982,0.310882,0,0.311077,-6234,-33264.2,-0,33843.3,682584
step02_gravity_refstate-crust.xmf,853,-1.65863e-06,1.05287e-05,0,2.34702e-05,-9.06187e+08,-9.05351e+08,-9.06073e+08,1.61005e+06,0.00479655,0.411448,0,0.411476,-4000,-33000.2,-0,33241.8,1.61005e+06
step02_gravity_refstate-crust.xmf,854,-1.72555e-06,1.16243e-05,0,1.95259e-05,-9.13025e+08,-9.12109e+08,-9.12907e+08,1.33948e+06,0.00871096,0.383712,0,0.383811,-4449.82,-33250.6,-0,33547,1.33948e+06
step02_gravity_refstate-crust.xmf,855,-1.02437e-06,1.0419e-05,0,1.23339e-05,-9.13247e+08,-9.12462e+08,-9.13176e+08,846106,0.010399,0.332089,0,0.332252,-5621.44,-33259.6,-0,33731.4,846106
step02_gravity_refstate-crust.xmf,856,-1.3411e-06,1.10083e-05,0,1.54045e-05,-9.13183e+08,-9.12336e+08,-9.13091e+08,1.05675e+06,0.00968321,0.355644,0,0.355776,-5038.6,-33257,-0,33636.5,1.05675e+06
step02_gravity_refstate-crust.xmf,857,4.77839e-07,8.64027e-06,0,5.31718e-06,-9.29658e+08,-9.29098e+08,-9.29691e+08,364758,0.0174481,0.246361,0,0.246978,-8609.01,-33860.4,-0,34937.7,364758
step02_gravity_refstate-crust.xmf,858,3.04586e-07,9.73558e-06,0,7.47392e-06,-9.30121e+08,-9.29474e+08,-9.30142e+08,512711,0.0181636,0.277467,0,0.278061,-7194.68,-33878.3,-0,34633.8,512711
step02_gravity_refstate-crust.xmf,859,4.0876e-07,9.12803e-06,0,6.25637e-06,-9.2961e+08,-9.29012e+08,-9.29638e+08,429187,0.0177418,0.261272,0,0.261873,-7887.93,-33859.2,-0,34765.8,429187
step02_gravity_refstate-crust.xmf,860,1.45446e-07,7.13619e-06,0,2.88857e-06,-9.16337e+08,-9.15857e+08,-9.16347e+08,198156,0.0129028,0.195479,0,0.195904,-12284.9,-33371.8,-0,35561.2,198156
step02_gravity_refstate-crust.xmf,861,2.56693e-07,6.28571e-06,0,1.98777e-06,-9.18229e+08,-9.17816e+08,-9.18247e+08,136361,0.0124083,0.157916,0,0.158403,-16249.8,-33439.8,-0,37179,136361
step02_gravity_refstate-crust.xmf,862,2.36289e-07,6.47373e-06,0,2.16956e-06,-9.17604e+08,-9.17176e+08,-9.1762e+08,148832,0.0125717,0.166552,0,0.167026,-15189.7,-33417.3,-0,36707.5,148832
step02_gravity_refstate-crust.xmf,863,2.13933e-07,6.67598e-06,0,2.37578e-06,-9.171e+08,-9.16656e+08,-9.17114e+08,162978,0.0127109,0.175692,0,0.176151,-14173.1,-33399.1,-0,36281.9,162978
step02_gravity_refstate-crust.xmf,864,1.975e-07,6.89255e-06,0,2.61533e-06,-9.17148e+08,-9.16689e+08,-9.17162e+08,179411,0.0129085,0.185151,0,0.1856,-13210.4,-33401.2,-0,35918.7,179411
step02_gravity_refstate-crust.xmf,865,1.1222e-07,5.23663e-06,0,1.15982e-06,-8.75235e+08,-8.74883e+08,-8.75243e+08,79563.8,0.00721244,0.125923,0,0.126129,-23338.6,-31872.4,-0,39503.6,79563.8
step02_gravity_refstate-crust.xmf,866,2.84519e-07,6.1166e-06,0,1.83162e-06,-9.19629e+08,-9.19229e+08,-9.19648e+08,125649,0.0123037,0.149873,0,0.150377,-17315.7,-33490.6,-0,37702.2,125649
step02_gravity_refstate-crust.xmf,867,5.31169e-07,4.68439e-06,0,6.2653e-07,-9.00666e+08,-9.00381e+08,-9.00702e+08,42979.9,0.00626008,0.0993943,0,0.0995913,-30165.6,-32799.1,-0,44561.7,42979.9
step02_gravity_refstate-crust.xmf,868,4.58128e-07,4.80479e-06,0,7.50305e-07,-8.97244e+08,-8.96946e+08,-8.97275e+08,51470.9,0.00698066,0.104257,0,0.104491,-28425,-32674.3,-0,43308.1,51470.9
step02_gravity_refstate-crust.xmf,869,9.29279e-07,4.57888e-06,0,1.73501e-09,-9.76205e+08,-9.75955e+08,-9.76269e+08,119.022,3.87079e-19,0.0764764,0,0.0764764,-40000,-35550.6,-0,53514.9,119.022
step02_gravity_refstate-crust.xmf,870,1.9879e-06,-7.01137e-07,0,2.12322e-06,-2.31433e+08,-2.31618e+08,-2.3157e+08,145653,-0.0168706,0.308995,-0,0.309455,-6855.8,-8432.52,-0,10867.8,145653
step02_gravity_refstate-crust.xmf,871,2.08374e-06,-9.16525e-07,0,2.19027e-06,-2.68373e+08,-2.68579e+08,-2.68516e+08,150252,-0.0151451,0.313617,-0,0.313983,-6042.32,-9777.4,-0,11493.8,150252
step02_gravity_refstate-crust.xmf,872,2.24412e-06,-6.92951e-07,0,1.58707e-06,-1.56341e+08,-1.56542e+08,-1.56495e+08,108873,-0.0187646,0.306556,-0,0.30713,-6993,-5699.75,-0,9021.6,108873
step02_gravity_refstate-crust.xmf,873,2.74033e-06,-8.88412e-07,0,9.57939e-07,-8.24534e+07,-8.27024e+07,-8.26414e+07,65714.6,-0.0229419,0.304109,-0,0.304973,-7086.34,-3011.51,-0,7699.7,65714.6
step02_gravity_refstate-crust.xmf,874,4.42156e-06,-5.23846e-06,0,3.37847e-06,-5.54625e+08,-5.55288e+08,-5.54929e+08,231763,-0.0142028,0.354379,-0,0.354664,-2866.6,-20201.5,-0,20403.8,231763
step02_gravity_refstate-crust.xmf,875,6.10612e-06,-8.28696e-06,0,2.93533e-06,-6.21865e+08,-6.22852e+08,-6.22283e+08,201364,-0.010877,0.376919,-0,0.377076,-1690.4,-22651.5,-0,22714.5,201364
step02_gravity_refstate-crust.xmf,876,5.02391e-06,-6.3076e-06,0,3.14888e-06,-5.78189e+08,-5.78966e+08,-5.78533e+08,216014,-0.0126661,0.362208,-0,0.362429,-2325.25,-21060.1,-0,21188.1,216014
step02_gravity_refstate-crust.xmf,877,5.57232e-06,-7.31517e-06,0,3.07401e-06,-6.013e+08,-6.02184e+08,-6.01682e+08,210877,-0.0118529,0.369595,-0,0.369785,-1993.52,-21902.1,-0,21992.7,210877
step02_gravity_refstate-crust.xmf,878,2.2468e-06,-1.21822e-06,0,2.17641e-06,-3.02893e+08,-3.03131e+08,-3.03048e+08,149302,-0.0136008,0.318438,-0,0.318728,-5199.09,-11034.3,-0,12197.8,149302
step02_gravity_refstate-crust.xmf,879,4.35201e-06,-4.9642e-06,0,2.5804e-06,-5.3033e+08,-5.30969e+08,-5.30628e+08,177015,-0.0111844,0.352128,-0,0.352305,-2395.46,-19317.1,-0,19465.1,177015
step02_gravity_refstate-crust.xmf,880,3.09293e-06,-2.81872e-06,0,2.52397e-06,-4.37604e+08,-4.38009e+08,-4.37816e+08,173144,-0.0125221,0.334232,-0,0.334466,-3605.87,-15939.6,-0,16342.3,173144
step02_gravity_refstate-crust.xmf,881,3.45132e-06,-3.40196e-06,0,2.38111e-06,-4.62546e+08,-4.63016e+08,-4.62782e+08,163344,-0.0113922,0.339398,-0,0.339589,-3023.45,-16848.1,-0,17117.3,163344
step02_gravity_refstate-crust.xmf,882,3.82981e-06,-4.01778e-06,0,2.18461e-06,-4.85801e+08,-4.8634e+08,-4.86064e+08,149865,-0.0101143,0.344559,-0,0.344708,-2479.45,-17695.4,-0,17868.2,149865
step02_gravity_refstate-crust.xmf,883,9.76648e-06,-1.8145e-05,0,-2.51953e-06,-7.61969e+08,-7.63883e+08,-7.62639e+08,-172839,0.00659659,0.446696,0,0.446745,669.987,-27751.6,0,27759.7,172839
step02_gravity_refstate-crust.xmf,884,8.85602e-06,-2.20816e-05,0,-2.91909e-06,-8.13007e+08,-8.1513e+08,-8.13615e+08,-200250,0.0065106,0.483589,0,0.483633,731.1,-29600,0,29609,200250
step02_gravity_refstate-crust.xmf,885,7.06241e-07,7.58216e-06,0,3.60161e-06,-9.35972e+08,-9.35501e+08,-9.36021e+08,247071,0.017754,0.206957,0,0.207717,-10940.5,-34089.6,-0,35802.2,247071
step02_gravity_refstate-crust.xmf,886,6.0526e-07,7.89519e-06,0,4.03259e-06,-9.32524e+08,-9.32024e+08,-9.32565e+08,276636,0.0174443,0.219512,0,0.220204,-10128.9,-33964.1,-0,35442.3,276636
step02_gravity_refstate-crust.xmf,887,5.47989e-07,8.23746e-06,0,4.5932e-06,-9.3075e+08,-9.30222e+08,-9.30787e+08,315094,0.0174019,0.232404,0,0.233054,-9358.88,-33899.8,-0,35168,315094
step02_gravity_refstate-crust.xmf,888,1.8246e-08,1.03646e-05,0,8.96298e-06,-9.29149e+08,-9.28439e+08,-9.2915e+08,614861,0.0178794,0.295792,0,0.296332,-6534.01,-33842.7,-0,34467.7,614861
step02_gravity_refstate-crust.xmf,889,7.14525e-07,7.29871e-06,0,3.22507e-06,-9.37762e+08,-9.3731e+08,-9.37811e+08,221240,0.017536,0.195464,0,0.196249,-11806.7,-34154.4,-0,36137.5,221240
step02_gravity_refstate-crust.xmf,890,6.00321e-08,5.82738e-06,0,1.57806e-06,-8.9551e+08,-8.95115e+08,-8.95514e+08,108255,0.00933004,0.144126,0,0.144427,-19013.8,-32611.2,-0,37749.4,108255
step02_gravity_refstate-crust.xmf,891,3.81989e-07,4.94137e-06,0,8.75911e-07,-8.94428e+08,-8.94116e+08,-8.94455e+08,60087.5,0.00755083,0.109702,0,0.109962,-26734.2,-32571.8,-0,42138.3,60087.5
step02_gravity_refstate-crust.xmf,892,1.31961e-07,5.67026e-06,0,1.45027e-06,-8.97595e+08,-8.97215e+08,-8.97604e+08,99488.6,0.00942938,0.136875,0,0.137199,-20191.8,-32687.2,-0,38420.8,99488.6
step02_gravity_refstate-crust.xmf,893,3.2416e-07,5.09274e-06,0,9.97473e-07,-8.95179e+08,-8.94852e+08,-8.95202e+08,68426.7,0.00813469,0.114864,0,0.115151,-25175.9,-32599.1,-0,41188.9,68426.7
step02_gravity_refstate-crust.xmf,894,3.08552e-07,5.24185e-06,0,1.10536e-06,-9.01302e+08,-9.00964e+08,-9.01324e+08,75827.8,0.00891992,0.118645,0,0.11898,-23888.8,-32822.2,-0,40595.2,75827.8
step02_gravity_refstate-crust.xmf,895,2.69398e-07,5.37363e-06,0,1.20871e-06,-9.02355e+08,-9.02005e+08,-9.02374e+08,82917.4,0.00932721,0.123421,0,0.123773,-22713.9,-32860.6,-0,39946.7,82917.4
step02_gravity_refstate-crust.xmf,896,2.03113e-07,5.51644e-06,0,1.32563e-06,-8.99956e+08,-8.99591e+08,-8.9997e+08,90938.3,0.00943323,0.129845,0,0.130187,-21446.7,-32773.2,-0,39166.8,90938.3
step02_gravity_refstate-crust.xmf,897,3.11881e-07,5.96363e-06,0,1.69162e-06,-9.21724e+08,-9.21336e+08,-9.21745e+08,116045,0.0122193,0.142315,0,0.142838,-18394.5,-33566.8,-0,38276.4,116045
step02_gravity_refstate-crust.xmf,898,8.42775e-07,4.62593e-06,0,3.21928e-07,-9.59273e+08,-9.59013e+08,-9.5933e+08,22084.2,0.0045929,0.0821147,0,0.082243,-34685.9,-34933.8,-0,49228.9,22084.2
step02_gravity_refstate-crust.xmf,899,7.20164e-07,4.77326e-06,0,5.71583e-07,-9.44391e+08,-9.44113e+08,-9.4444e+08,39210.6,0.00720667,0.0903209,0,0.090608,-30905.8,-34391.8,-0,46238.1,39210.6
step02_gravity_refstate-crust.xmf,900,7.95311e-07,4.69444e-06,0,4.43686e-07,-9.54204e+08,-9.53936e+08,-9.54258e+08,30436.8,0.00602955,0.085385,0,0.0855976,-32801.9,-34749.2,-0,47785.7,30436.8
step02_gravity_refstate-crust.xmf,901,8.8083e-07,4.58379e-06,0,2.07934e-07,-9.64547e+08,-9.64293e+08,-9.64607e+08,14264.3,0.0030951,0.079617,0,0.0796771,-36512.9,-35126,-0,50665.8,14264.3
step02_gravity_refstate-crust.xmf,902,1.00205e-06,4.69129e-06,0,1.22801e-07,-1.00498e+09,-1.00473e+09,-1.00505e+09,8424.18,0.00204483,0.0720155,0,0.0720445,-37953.8,-36598.6,-0,52725.2,8424.18
step02_gravity_refstate-crust.xmf,903,2.23042e-06,-7.64887e-07,0,1.70235e-06,-1.93272e+08,-1.93477e+08,-1.93425e+08,116781,-0.0158276,0.31105,-0,0.311453,-6118.47,-7044.09,-0,9330.32,116781
step02_gravity_refstate-crust.xmf,904,2.60552e-06,-8.40738e-07,0,1.17022e-06,-1.1741e+08,-1.17646e+08,-1.17588e+08,80277.2,-0.0187245,0.308208,-0,0.308777,-6295.55,-4283.65,-0,7614.69,80277.2
step02_gravity_refstate-crust.xmf,905,3.50202e-06,-1.33319e-06,0,2.18392e-08,332483,788.339,92244.9,1498.17,-0.0342085,0.297641,-0,0.299601,-7895.49,0,-0,7895.49,1498.17
step02_gravity_refstate-crust.xmf,906,3.22416e-06,-1.12207e-06,0,5.31778e-07,-4.32501e+07,-4.35482e+07,-4.34712e+07,36480,-0.0251696,0.304005,-0,0.305045,-6735.41,-1585.87,-0,6919.59,36480
step02_gravity_refstate-crust.xmf,907,7.0375e-06,-9.87334e-06,0,1.12919e-06,-6.41829e+08,-6.42989e+08,-6.42312e+08,77462.3,-0.00397899,0.387442,-0,0.387462,-563.504,-23379.6,-0,23386.4,77462.3
step02_gravity_refstate-crust.xmf,908,6.47907e-06,-8.79434e-06,0,1.61215e-06,-6.22168e+08,-6.23216e+08,-6.22612e+08,110593,-0.00592302,0.379997,-0,0.380043,-902.883,-22663.2,-0,22681.2,110593
step02_gravity_refstate-crust.xmf,909,8.57477e-06,-1.33279e-05,0,2.83487e-07,-6.97476e+08,-6.98978e+08,-6.98064e+08,19447.2,-0.000857831,0.41134,-0,0.411341,-100.357,-25406.4,-0,25406.6,19447.2
step02_gravity_refstate-crust.xmf,910,7.60395e-06,-1.10259e-05,0,4.13077e-07,-6.6152e+08,-6.62798e+08,-6.62042e+08,28337.1,-0.00141202,0.395418,-0,0.395421,-186.136,-24097,-0,24097.7,28337.1
step02_gravity_refstate-crust.xmf,911,2.47897e-06,-1.60077e-06,0,2.11003e-06,-3.38334e+08,-3.38614e+08,-3.38504e+08,144748,-0.0120927,0.323595,-0,0.323821,-4334.64,-12324.9,-0,13065,144748
step02_gravity_refstate-crust.xmf,912,4.23156e-06,-4.66447e-06,0,1.89966e-06,-5.07413e+08,-5.08023e+08,-5.07703e+08,130317,-0.00851969,0.349783,-0,0.349887,-1934.23,-18482.8,-0,18583.7,130317
step02_gravity_refstate-crust.xmf,913,2.74274e-06,-2.09648e-06,0,2.03449e-06,-3.73899e+08,-3.74231e+08,-3.74087e+08,139566,-0.0109886,0.328463,-0,0.328647,-3645.06,-13620,-0,14099.3,139566
step02_gravity_refstate-crust.xmf,914,3.08773e-06,-2.67851e-06,0,1.93303e-06,-4.10709e+08,-4.11104e+08,-4.1092e+08,132606,-0.0098705,0.33387,-0,0.334016,-2980.03,-14960.6,-0,15254.5,132606
step02_gravity_refstate-crust.xmf,915,9.00403e-06,-1.45059e-05,0,-7.96564e-07,-7.14258e+08,-7.15871e+08,-7.14876e+08,-54644.3,0.00233114,0.419681,0,0.419688,259.173,-26017.3,0,26018.5,54644.3
step02_gravity_refstate-crust.xmf,916,9.30574e-06,-1.56283e-05,0,-1.97213e-06,-7.30744e+08,-7.32454e+08,-7.31382e+08,-135288,0.00557154,0.427889,0,0.427925,595.363,-26616.9,0,26623.6,135288
step02_gravity_refstate-crust.xmf,917,9.42502e-06,-1.66045e-05,0,-3.36965e-06,-7.46875e+08,-7.48661e+08,-7.47522e+08,-231158,0.0091517,0.43559,0,0.435686,952.397,-27203.2,0,27219.8,231158
step02_gravity_refstate-crust.xmf,918,9.658e-06,-2.03637e-05,0,-2.76062e-06,-7.89248e+08,-7.91307e+08,-7.8991e+08,-189379,0.00673688,0.4656,0,0.465648,692.867,-28740.9,0,28749.3,189379
step02_gravity_refstate-crust.xmf,919,9.64824e-06,-1.904e-05,0,-3.82444e-06,-7.76451e+08,-7.78419e+08,-7.77113e+08,-262357,0.00962794,0.454506,0,0.454608,980.39,-28277,0,28294,262357
step02_gravity_refstate-crust.xmf,920,9.25565e-06,-2.10341e-05,0,-3.90213e-06,-8.01264e+08,-8.03342e+08,-8.01899e+08,-267686,0.00916636,0.472519,0,0.472608,977.645,-29175.7,0,29192.1,267686
step02_gravity_refstate-crust.xmf,921,8.23955e-06,-2.29214e-05,0,-1.94423e-06,-8.24099e+08,-8.26237e+08,-8.24664e+08,-133374,0.00412774,0.493944,0,0.493962,500.036,-30000,0,30004.2,133374
step02_gravity_refstate-crust.xmf,922,-3.95285e-07,1.12779e-05,0,1.10357e-05,-9.27939e+08,-9.27138e+08,-9.27911e+08,757052,0.017254,0.315863,0,0.316334,-5912.16,-33798.4,-0,34311.6,757052
step02_gravity_refstate-crust.xmf,923,-2.4233e-06,1.38289e-05,0,2.32881e-05,-9.19851e+08,-9.18736e+08,-9.19685e+08,1.59756e+06,0.0109121,0.405369,0,0.405515,-4000,-33499.7,-0,33737.7,1.59756e+06
step02_gravity_refstate-crust.xmf,924,-1.60807e-06,1.35063e-05,0,1.69533e-05,-9.26915e+08,-9.25878e+08,-9.26804e+08,1.16299e+06,0.0156947,0.361979,0,0.362319,-4761.54,-33759.7,-0,34093.8,1.16299e+06
step02_gravity_refstate-crust.xmf,925,-9.42428e-07,1.23068e-05,0,1.366e-05,-9.27236e+08,-9.26327e+08,-9.27171e+08,937077,0.0165487,0.338027,0,0.338432,-5316.5,-33772.2,-0,34188.1,937077
step02_gravity_refstate-crust.xmf,926,9.67164e-07,1.08737e-05,0,8.45815e-06,-9.48299e+08,-9.47619e+08,-9.48365e+08,580229,0.0250723,0.28062,0,0.281738,-6808.79,-34544.5,-0,35209.1,580229
step02_gravity_refstate-crust.xmf,927,1.18083e-06,8.64625e-06,0,5.20729e-06,-9.47864e+08,-9.47352e+08,-9.47945e+08,357220,0.0225601,0.234299,0,0.235383,-8947.7,-34526.1,-0,35666.7,357220
step02_gravity_refstate-crust.xmf,928,1.15493e-06,9.18247e-06,0,6.01946e-06,-9.47036e+08,-9.46485e+08,-9.47115e+08,412935,0.0231549,0.248326,0,0.249403,-8223.62,-34496.7,-0,35463.3,412935
step02_gravity_refstate-crust.xmf,929,1.10026e-06,9.86927e-06,0,7.05281e-06,-9.47184e+08,-9.46582e+08,-9.47259e+08,483822,0.0239687,0.263244,0,0.264333,-7529.49,-34502.9,-0,35314.9,483822
step02_gravity_refstate-crust.xmf,930,6.87772e-07,7.05226e-06,0,2.90919e-06,-9.39479e+08,-9.39042e+08,-9.39526e+08,199570,0.0172331,0.184718,0,0.18552,-12713.2,-34216.4,-0,36501.9,199570
step02_gravity_refstate-crust.xmf,931,5.92971e-07,6.25498e-06,0,2.02494e-06,-9.44848e+08,-9.4446e+08,-9.44889e+08,138911,0.0154495,0.14816,0,0.148964,-16748.3,-34410.2,-0,38269.7,138911
step02_gravity_refstate-crust.xmf,932,6.21009e-07,6.42543e-06,0,2.20919e-06,-9.43567e+08,-9.43168e+08,-9.43609e+08,151550,0.015927,0.156419,0,0.157228,-15684,-34363.9,-0,37773.9,151550
step02_gravity_refstate-crust.xmf,933,6.53278e-07,6.6133e-06,0,2.41643e-06,-9.42261e+08,-9.41852e+08,-9.42306e+08,165767,0.0163978,0.165349,0,0.166161,-14643,-34316.8,-0,37310.4,165767
step02_gravity_refstate-crust.xmf,934,6.81829e-07,6.82039e-06,0,2.65007e-06,-9.4091e+08,-9.40489e+08,-9.40957e+08,181795,0.0168421,0.174822,0,0.175632,-13647.8,-34268.1,-0,36885.8,181795
step02_gravity_refstate-crust.xmf,935,5.58921e-07,6.10735e-06,0,1.86458e-06,-9.46035e+08,-9.45655e+08,-9.46074e+08,127910,0.0149844,0.140842,0,0.141637,-17786.4,-34453.1,-0,38773.3,127910
step02_gravity_refstate-crust.xmf,936,6.60148e-07,4.88063e-06,0,6.95939e-07,-9.39897e+08,-9.39607e+08,-9.39942e+08,47741.4,0.00825947,0.094884,0,0.0952428,-29155.2,-34228.1,-0,44962.1,47741.4
step02_gravity_refstate-crust.xmf,937,5.99895e-07,5.00402e-06,0,8.23931e-07,-9.35976e+08,-9.35674e+08,-9.36017e+08,56521.7,0.00916791,0.100023,0,0.100443,-27451.6,-34085.3,-0,43765.3,56521.7
step02_gravity_refstate-crust.xmf,938,1.07641e-06,4.79214e-06,0,4.33369e-10,-1.0372e+09,-1.03695e+09,-1.03728e+09,29.7291,3.33718e-19,0.0660691,0,0.0660691,-40000,-37772.2,-0,55015.8,29.7291
step02_gravity_refstate-crust.xmf,939,2.26774e-06,-9.44375e-07,0,1.73158e-06,-2.30183e+08,-2.30403e+08,-2.30339e+08,118786,-0.0135481,0.315297,-0,0.315587,-5289.97,-8387.75,-0,9916.56,118786
step02_gravity_refstate-crust.xmf,940,2.3609e-06,-1.1815e-06,0,1.70452e-06,-2.65812e+08,-2.66055e+08,-2.65974e+08,116930,-0.0116881,0.319422,-0,0.319636,-4490.63,-9684.88,-0,10675.3,116930
step02_gravity_refstate-crust.xmf,941,2.52063e-06,-8.65176e-07,0,1.27401e-06,-1.53677e+08,-1.53909e+08,-1.5385e+08,87397.3,-0.0150095,0.31253,-0,0.31289,-5380.98,-5603.61,-0,7768.87,87397.3
step02_gravity_refstate-crust.xmf,942,3.0487e-06,-1.02423e-06,0,7.73954e-07,-8.03052e+07,-8.05846e+07,-8.05144e+07,53093.2,-0.0185972,0.309561,-0,0.310119,-5536.12,-2934.34,-0,6265.69,53093.2
step02_gravity_refstate-crust.xmf,943,4.89428e-06,-5.87182e-06,0,2.26499e-06,-5.54318e+08,-5.55057e+08,-5.54654e+08,155379,-0.00940379,0.359056,-0,0.359179,-1838.93,-20191.2,-0,20274.8,155379
step02_gravity_refstate-crust.xmf,944,5.99724e-06,-7.89986e-06,0,2.02224e-06,-6.05533e+08,-6.06486e+08,-6.05944e+08,138726,-0.0077305,0.37388,-0,0.373959,-1256.66,-22057.1,-0,22092.8,138726
step02_gravity_refstate-crust.xmf,945,5.5534e-06,-7.04753e-06,0,1.8235e-06,-5.8157e+08,-5.82435e+08,-5.81951e+08,125092,-0.00716957,0.367353,-0,0.367423,-1264.73,-21184.2,-0,21221.9,125092
step02_gravity_refstate-crust.xmf,946,8.10121e-06,-1.21462e-05,0,-5.31761e-07,-6.80142e+08,-6.81531e+08,-6.80697e+08,-36478.8,0.00168017,0.403241,0,0.403245,207.897,-24775.2,0,24776.1,36478.8
step02_gravity_refstate-crust.xmf,947,2.51363e-06,-1.49721e-06,0,1.61778e-06,-3.0118e+08,-3.01455e+08,-3.01353e+08,110980,-0.0100264,0.323599,-0,0.323754,-3704.89,-10972.6,-0,11581.2,110980
step02_gravity_refstate-crust.xmf,948,4.66316e-06,-5.37275e-06,0,1.53031e-06,-5.29086e+08,-5.29775e+08,-5.29406e+08,104979,-0.00658539,0.355277,-0,0.355338,-1382.97,-19272.5,-0,19322,104979
step02_gravity_refstate-crust.xmf,949,3.40998e-06,-3.21721e-06,0,1.76483e-06,-4.37862e+08,-4.38317e+08,-4.38096e+08,121067,-0.00867352,0.338492,-0,0.338603,-2419.88,-15949.6,-0,16132.1,121067
step02_gravity_refstate-crust.xmf,950,3.76848e-06,-3.81688e-06,0,1.54199e-06,-4.64302e+08,-4.64822e+08,-4.64561e+08,105781,-0.0072898,0.343341,-0,0.343418,-1874.11,-16912.7,-0,17016.2,105781
step02_gravity_refstate-crust.xmf,951,4.08686e-06,-4.35427e-06,0,1.35945e-06,-4.86974e+08,-4.87553e+08,-4.87255e+08,93258.1,-0.00626073,0.34759,-0,0.347646,-1498.37,-17738.6,-0,17801.7,93258.1
step02_gravity_refstate-crust.xmf,952,9.3729e-06,-1.74623e-05,0,-4.78683e-06,-7.62388e+08,-7.64229e+08,-7.63031e+08,-328377,0.012444,0.442635,0,0.44281,1280.61,-27766.4,0,27795.9,328377
step02_gravity_refstate-crust.xmf,953,8.68547e-06,-2.15698e-05,0,-4.97865e-06,-8.12899e+08,-8.14975e+08,-8.13495e+08,-341535,0.0110234,0.478734,0,0.47886,1245.15,-29596.2,0,29622.3,341535
step02_gravity_refstate-crust.xmf,954,8.14099e-06,-2.25821e-05,0,-3.93267e-06,-8.24096e+08,-8.26203e+08,-8.24654e+08,-269781,0.00821716,0.490287,0,0.490356,999.46,-30000,0,30016.6,269781
step02_gravity_refstate-crust.xmf,955,-2.24072e-06,1.46281e-05,0,2.02626e-05,-9.26689e+08,-9.25532e+08,-9.26535e+08,1.39002e+06,0.014731,0.384005,0,0.384287,-4318.98,-33750.6,-0,34025.8,1.39002e+06
step02_gravity_refstate-crust.xmf,956,3.89417e-07,1.16663e-05,0,1.001e-05,-9.43297e+08,-9.42524e+08,-9.43324e+08,686683,0.0236286,0.300379,0,0.301307,-6189.64,-34361.3,-0,34914.4,686683
step02_gravity_refstate-crust.xmf,957,1.25467e-06,7.54163e-06,0,3.70422e-06,-9.5819e+08,-9.57759e+08,-9.58276e+08,254109,0.0219866,0.195842,0,0.197072,-11324.1,-34900.6,-0,36691.8,254109
step02_gravity_refstate-crust.xmf,958,1.3002e-06,7.90281e-06,0,4.17887e-06,-9.56854e+08,-9.56401e+08,-9.56943e+08,286670,0.022896,0.208492,0,0.209746,-10401.3,-34852.7,-0,36371.7,286670
step02_gravity_refstate-crust.xmf,959,1.17494e-06,8.21367e-06,0,4.5716e-06,-9.49152e+08,-9.48669e+08,-9.49233e+08,313612,0.0220305,0.221438,0,0.222531,-9688.75,-34572.3,-0,35904.3,313612
step02_gravity_refstate-crust.xmf,960,1.16318e-06,7.26851e-06,0,3.34209e-06,-9.60433e+08,-9.60014e+08,-9.60513e+08,229267,0.0213282,0.184886,0,0.186112,-12199.4,-34981.5,-0,37047.7,229267
step02_gravity_refstate-crust.xmf,961,3.65371e-07,5.81816e-06,0,1.5635e-06,-9.25549e+08,-9.25175e+08,-9.25574e+08,107256,0.0122196,0.134791,0,0.135344,-19517.3,-33706,-0,38948.9,107256
step02_gravity_refstate-crust.xmf,962,5.43428e-07,5.1396e-06,0,9.53675e-07,-9.33003e+08,-9.32688e+08,-9.33041e+08,65422.1,0.00994611,0.105553,0,0.106021,-25827.2,-33977.1,-0,42678.9,65422.1
step02_gravity_refstate-crust.xmf,963,4.17961e-07,5.6801e-06,0,1.4392e-06,-9.29927e+08,-9.29566e+08,-9.29956e+08,98729.4,0.0121477,0.127517,0,0.128094,-20694.6,-33865.4,-0,39687.9,98729.4
step02_gravity_refstate-crust.xmf,964,5.04474e-07,5.2692e-06,0,1.06997e-06,-9.32091e+08,-9.31765e+08,-9.32126e+08,73399.8,0.0105985,0.1105,0,0.111007,-24468.4,-33943.9,-0,41843.7,73399.8
step02_gravity_refstate-crust.xmf,965,4.77737e-07,5.4011e-06,0,1.18647e-06,-9.32422e+08,-9.32084e+08,-9.32455e+08,81391.8,0.0112287,0.115408,0,0.115953,-23205,-33956.1,-0,41127.7,81391.8
step02_gravity_refstate-crust.xmf,966,4.51507e-07,5.53672e-06,0,1.30824e-06,-9.31972e+08,-9.31623e+08,-9.32003e+08,89745,0.0117641,0.120929,0,0.1215,-21963.3,-33939.8,-0,40426.4,89745
step02_gravity_refstate-crust.xmf,967,5.72314e-07,5.97179e-06,0,1.72522e-06,-9.49659e+08,-9.49289e+08,-9.49698e+08,118350,0.0147321,0.133534,0,0.134344,-18839.3,-34584.8,-0,39383.1,118350
step02_gravity_refstate-crust.xmf,968,8.23789e-07,4.97956e-06,0,6.5669e-07,-9.83307e+08,-9.83022e+08,-9.83363e+08,45048.9,0.00913103,0.0855237,0,0.0860097,-29856.1,-35809.3,-0,46622.9,45048.9
step02_gravity_refstate-crust.xmf,969,9.85118e-07,4.74881e-06,0,2.59496e-07,-1.00585e+09,-1.00559e+09,-1.00592e+09,17801.4,0.00427193,0.0732018,0,0.0733263,-35706,-36630.3,-0,51153.6,17801.4
step02_gravity_refstate-crust.xmf,970,9.53539e-07,4.82227e-06,0,3.89349e-07,-1.00373e+09,-1.00346e+09,-1.00379e+09,26709.3,0.00618483,0.0756035,0,0.075856,-33689.7,-36553,-0,49710.4,26709.3
step02_gravity_refstate-crust.xmf,971,9.14221e-07,4.92948e-06,0,5.34611e-07,-1.00179e+09,-1.00151e+09,-1.00185e+09,36674.3,0.00809418,0.0789526,0,0.0793664,-31587.5,-36482.4,-0,48257,36674.3
step02_gravity_refstate-crust.xmf,972,1.10723e-06,4.86707e-06,0,9.31675e-08,-1.0554e+09,-1.05514e+09,-1.05548e+09,6391.29,0.00174104,0.0630813,0,0.0631053,-38430.8,-38435,-0,54352.3,6391.29
step02_gravity_refstate-crust.xmf,973,2.47842e-06,-9.52317e-07,0,1.31249e-06,-1.91232e+08,-1.91467e+08,-1.91402e+08,90037.1,-0.012066,0.316522,-0,0.316752,-4507.48,-6970.54,-0,8300.96,90037.1
step02_gravity_refstate-crust.xmf,974,2.89386e-06,-9.87944e-07,0,8.72606e-07,-1.13261e+08,-1.13527e+08,-1.13459e+08,59860.8,-0.0142321,0.313571,-0,0.313894,-4596.77,-4133.54,-0,6181.94,59860.8
step02_gravity_refstate-crust.xmf,975,4.04101e-06,-1.53676e-06,0,2.0847e-08,383724,1088.98,106511,1430.1,-0.026758,0.304699,-0,0.305872,-5915.08,0,-0,5915.08,1430.1
step02_gravity_refstate-crust.xmf,976,3.63296e-06,-1.28805e-06,0,3.78964e-07,-4.09523e+07,-4.12899e+07,-4.12015e+07,25996.9,-0.0187089,0.310093,-0,0.310657,-4796.66,-1503.61,-0,5026.81,25996.9
step02_gravity_refstate-crust.xmf,977,7.13233e-06,-1.00198e-05,0,-4.30424e-07,-6.43293e+08,-6.4447e+08,-6.43783e+08,-29527.1,0.00147811,0.388434,0,0.388436,207.742,-23433.1,0,23434,29527.1
step02_gravity_refstate-crust.xmf,978,6.64278e-06,-9.02913e-06,0,2.2756e-07,-6.2298e+08,-6.24055e+08,-6.23436e+08,15610.6,-0.000846734,0.381449,-0,0.38145,-127.742,-22693.1,-0,22693.5,15610.6
step02_gravity_refstate-crust.xmf,979,6.12243e-06,-8.01412e-06,0,7.76695e-07,-6.01531e+08,-6.02501e+08,-6.01951e+08,53281.3,-0.00298784,0.374495,-0,0.374507,-487.191,-21911.7,-0,21917.1,53281.3
step02_gravity_refstate-crust.xmf,980,8.47876e-06,-1.31921e-05,0,-1.65315e-06,-6.97586e+08,-6.99073e+08,-6.98168e+08,-113406,0.0050829,0.410561,0,0.410592,596.243,-25410.2,0,25417.2,113406
step02_gravity_refstate-crust.xmf,981,7.54838e-06,-1.09525e-05,0,-1.31817e-06,-6.62194e+08,-6.63463e+08,-6.62711e+08,-90426.7,0.00438133,0.395116,0,0.395141,578.093,-24121.4,0,24128.3,90426.7
step02_gravity_refstate-crust.xmf,982,2.7535e-06,-1.95114e-06,0,1.4371e-06,-3.39763e+08,-3.40086e+08,-3.39952e+08,98585.2,-0.00811094,0.328466,-0,0.328566,-2805.69,-12377.5,-0,12691.5,98585.2
step02_gravity_refstate-crust.xmf,983,4.40033e-06,-4.85106e-06,0,8.9661e-07,-5.04083e+08,-5.04718e+08,-5.04385e+08,61507.5,-0.00404963,0.351539,-0,0.351562,-913.89,-18361.9,-0,18384.7,61507.5
step02_gravity_refstate-crust.xmf,984,3.01077e-06,-2.44845e-06,0,1.43752e-06,-3.8085e+08,-3.81225e+08,-3.81057e+08,98614.1,-0.00763057,0.332647,-0,0.332734,-2432.5,-13873.6,-0,14085.2,98614.1
step02_gravity_refstate-crust.xmf,985,3.30871e-06,-2.95179e-06,0,1.20347e-06,-4.10832e+08,-4.11261e+08,-4.11059e+08,82558.2,-0.00610687,0.33698,-0,0.337035,-1802.4,-14965.6,-0,15073.7,82558.2
step02_gravity_refstate-crust.xmf,986,8.74629e-06,-1.41245e-05,0,-2.87649e-06,-7.14759e+08,-7.16328e+08,-7.15359e+08,-197327,0.0084498,0.417707,0,0.417793,947.666,-26035,0,26052.3,197327
step02_gravity_refstate-crust.xmf,987,8.87702e-06,-1.4967e-05,0,-4.17939e-06,-7.31299e+08,-7.32935e+08,-7.31908e+08,-286706,0.0117783,0.42439,0,0.424554,1276.83,-26636.4,0,26667,286706
step02_gravity_refstate-crust.xmf,988,8.85703e-06,-1.56835e-05,0,-5.57768e-06,-7.47461e+08,-7.49145e+08,-7.48069e+08,-382629,0.0150329,0.430552,0,0.430814,1594.48,-27223.6,0,27270.3,382629
step02_gravity_refstate-crust.xmf,989,9.36694e-06,-1.97491e-05,0,-5.0206e-06,-7.89629e+08,-7.91626e+08,-7.90271e+08,-344413,0.0121032,0.461218,0,0.461376,1257.82,-28754.5,0,28782,344413
step02_gravity_refstate-crust.xmf,990,9.1767e-06,-1.81383e-05,0,-6.10861e-06,-7.76738e+08,-7.78612e+08,-7.77368e+08,-419050,0.0151701,0.448783,0,0.449039,1569.34,-28287,0,28330.5,419050
step02_gravity_refstate-crust.xmf,991,8.94115e-06,-2.02586e-05,0,-6.15173e-06,-8.01317e+08,-8.0332e+08,-8.01931e+08,-422009,0.0141623,0.466401,0,0.466616,1527.09,-29177.6,0,29217.5,422009
step02_gravity_refstate-crust.xmf,992,7.95149e-06,-2.19774e-05,0,-5.98082e-06,-8.24091e+08,-8.26144e+08,-8.24637e+08,-410285,0.0122293,0.484162,0,0.484317,1498.34,-30000,0,30037.4,410285
step02_gravity_refstate-crust.xmf,993,-2.42237e-07,1.30513e-05,0,1.21832e-05,-9.41838e+08,-9.40926e+08,-9.41821e+08,835770,0.0230913,0.320797,0,0.321627,-5593,-34307.8,-0,34760.7,835770
step02_gravity_refstate-crust.xmf,994,-3.13418e-06,1.71029e-05,0,2.28301e-05,-9.33527e+08,-9.32138e+08,-9.33312e+08,1.56614e+06,0.016881,0.397638,0,0.397996,-4000,-33999.8,-0,34234.3,1.56614e+06
step02_gravity_refstate-crust.xmf,995,-2.39521e-06,1.68549e-05,0,1.87564e-05,-9.4049e+08,-9.39169e+08,-9.40325e+08,1.28669e+06,0.0211133,0.369788,0,0.37039,-4441.26,-34255.9,-0,34542.6,1.28669e+06
step02_gravity_refstate-crust.xmf,996,-1.14462e-06,1.4735e-05,0,1.49337e-05,-9.41067e+08,-9.39978e+08,-9.40989e+08,1.02445e+06,0.0223788,0.343184,0,0.343912,-5021.7,-34278.7,-0,34644.6,1.02445e+06
step02_gravity_refstate-crust.xmf,997,9.91542e-07,1.219e-05,0,9.77665e-06,-9.56778e+08,-9.5601e+08,-9.56846e+08,670678,0.028468,0.290561,0,0.291952,-6320.26,-34855.4,-0,35423.7,670678
step02_gravity_refstate-crust.xmf,998,1.6456e-06,1.08237e-05,0,7.96992e-06,-9.64504e+08,-9.63875e+08,-9.64617e+08,546736,0.0297,0.264344,0,0.266007,-7201.19,-35137.2,-0,35867.5,546736
step02_gravity_refstate-crust.xmf,999,1.70108e-06,8.66673e-06,0,5.2629e-06,-9.65811e+08,-9.65334e+08,-9.65928e+08,361035,0.026525,0.223153,0,0.224724,-9265.66,-35181.6,-0,36381.3,361035
step02_gravity_refstate-crust.xmf,1000,1.73555e-06,9.21976e-06,0,5.98449e-06,-9.64776e+08,-9.64263e+08,-9.64895e+08,410536,0.0275018,0.236053,0,0.23765,-8548.3,-35144.9,-0,36169.6,410536
step02_gravity_refstate-crust.xmf,1001,1.71636e-06,9.92201e-06,0,6.88132e-06,-9.63982e+08,-9.63419e+08,-9.641e+08,472059,0.0284855,0.250086,0,0.251703,-7851.03,-35117,-0,35984,472059
step02_gravity_refstate-crust.xmf,1002,1.11188e-06,7.03104e-06,0,3.05925e-06,-9.63886e+08,-9.6348e+08,-9.63963e+08,209865,0.0208326,0.174433,0,0.175673,-13099.4,-35106.6,-0,37470.9,209865
step02_gravity_refstate-crust.xmf,1003,8.21312e-07,6.26723e-06,0,2.10153e-06,-9.70657e+08,-9.70283e+08,-9.70713e+08,144165,0.0177066,0.13889,0,0.140014,-17238.6,-35350.8,-0,39330,144165
step02_gravity_refstate-crust.xmf,1004,8.96892e-07,6.43172e-06,0,2.31404e-06,-9.70324e+08,-9.69944e+08,-9.70386e+08,158743,0.0185722,0.146459,0,0.147632,-16168.9,-35339.2,-0,38862.5,158743
step02_gravity_refstate-crust.xmf,1005,9.78434e-07,6.60844e-06,0,2.54149e-06,-9.68715e+08,-9.68329e+08,-9.68782e+08,174346,0.0193712,0.155041,0,0.156247,-15109.3,-35281.2,-0,38380.4,174346
step02_gravity_refstate-crust.xmf,1006,1.07328e-06,6.80697e-06,0,2.80042e-06,-9.67162e+08,-9.66769e+08,-9.67236e+08,192109,0.020222,0.164316,0,0.165556,-14072.9,-35225.4,-0,37932.5,192109
step02_gravity_refstate-crust.xmf,1007,7.56162e-07,6.1299e-06,0,1.9243e-06,-9.6977e+08,-9.69402e+08,-9.69822e+08,132007,0.0168988,0.13305,0,0.134118,-18182.6,-35318,-0,39723.7,132007
step02_gravity_refstate-crust.xmf,1008,7.75344e-07,5.09315e-06,0,7.91948e-07,-9.78203e+08,-9.77907e+08,-9.78256e+08,54327.6,0.0103396,0.090437,0,0.0910261,-28130.8,-35623.5,-0,45391.4,54327.6
step02_gravity_refstate-crust.xmf,1009,7.27585e-07,5.21851e-06,0,9.31522e-07,-9.7338e+08,-9.73072e+08,-9.7343e+08,63902.4,0.0113943,0.0959224,0,0.0965968,-26467.2,-35447.9,-0,44238.8,63902.4
step02_gravity_refstate-crust.xmf,1010,9.35456e-07,5.1189e-06,0,6.60718e-07,-1.02376e+09,-1.02347e+09,-1.02383e+09,45325.2,0.00997432,0.0776687,0,0.0783065,-30061.2,-37282.8,-0,47892.4,45325.2
step02_gravity_refstate-crust.xmf,1011,1.09408e-06,4.88252e-06,0,2.00512e-07,-1.05071e+09,-1.05045e+09,-1.05078e+09,13755.1,0.00361396,0.0646424,0,0.0647434,-36704.5,-38264.1,-0,53022.3,13755.1
step02_gravity_refstate-crust.xmf,1012,2.56199e-06,-1.37481e-06,0,1.17902e-06,-2.64211e+08,-2.64481e+08,-2.64387e+08,80880.6,-0.00805456,0.323482,-0,0.323582,-3016.03,-9627.11,-0,10088.5,80880.6
step02_gravity_refstate-crust.xmf,1013,2.49938e-06,-1.13885e-06,0,1.24778e-06,-2.27392e+08,-2.27642e+08,-2.27563e+08,85597.4,-0.00972759,0.320191,-0,0.320339,-3681.56,-8286.78,-0,9067.78,85597.4
step02_gravity_refstate-crust.xmf,1014,2.7415e-06,-1.00321e-06,0,9.09865e-07,-1.52287e+08,-1.52543e+08,-1.52475e+08,62416.8,-0.0106519,0.317258,-0,0.317437,-3711.72,-5553.68,-0,6679.84,62416.8
step02_gravity_refstate-crust.xmf,1015,3.30819e-06,-1.1415e-06,0,5.43886e-07,-7.9733e+07,-8.00382e+07,-7.99599e+07,37310.6,-0.0129952,0.314366,-0,0.314635,-3764.89,-2914.38,-0,4761.09,37310.6
step02_gravity_refstate-crust.xmf,1016,5.16455e-06,-6.23622e-06,0,1.02566e-06,-5.533e+08,-5.54082e+08,-5.53655e+08,70360.1,-0.00423792,0.361564,-0,0.361589,-816.081,-20154.7,-0,20171.2,70360.1
step02_gravity_refstate-crust.xmf,1017,7.87462e-06,-1.18251e-05,0,-2.38818e-06,-6.80523e+08,-6.81874e+08,-6.81063e+08,-163829,0.00763177,0.401559,0,0.401631,952.169,-24788.7,0,24806.9,163829
step02_gravity_refstate-crust.xmf,1018,2.69624e-06,-1.68098e-06,0,1.01408e-06,-2.99096e+08,-2.99396e+08,-2.99281e+08,69566.1,-0.00626315,0.326965,-0,0.327025,-2265.63,-10897.2,-0,11130.2,69566.1
step02_gravity_refstate-crust.xmf,1019,4.79475e-06,-5.5408e-06,0,4.20616e-07,-5.27407e+08,-5.28116e+08,-5.27736e+08,28854.2,-0.00179793,0.356531,-0,0.356536,-375.472,-19211.6,-0,19215.3,28854.2
step02_gravity_refstate-crust.xmf,1020,3.62937e-06,-3.50029e-06,0,9.2227e-07,-4.39614e+08,-4.40103e+08,-4.39863e+08,63267.7,-0.00450713,0.341361,-0,0.341391,-1228.18,-16013.8,-0,16060.9,63267.7
step02_gravity_refstate-crust.xmf,1021,4.0484e-06,-4.20695e-06,0,5.91465e-07,-4.73223e+08,-4.73789e+08,-4.735e+08,40574.5,-0.0027925,0.346733,-0,0.346745,-689.574,-17238,-0,17251.8,40574.5
step02_gravity_refstate-crust.xmf,1022,8.68204e-06,-1.6279e-05,0,-7.01675e-06,-7.62878e+08,-7.6459e+08,-7.63473e+08,-481349,0.0180212,0.43587,0,0.436242,1897.6,-27783.2,0,27848,481349
step02_gravity_refstate-crust.xmf,1023,8.37227e-06,-2.0702e-05,0,-7.17362e-06,-8.12896e+08,-8.1489e+08,-8.1347e+08,-492110,0.0154933,0.471273,0,0.471528,1769.46,-29596.1,0,29648.9,492110
step02_gravity_refstate-crust.xmf,1024,5.37177e-07,1.33033e-05,0,1.11247e-05,-9.56075e+08,-9.55199e+08,-9.56112e+08,763154,0.0285837,0.305474,0,0.306809,-5841.02,-34829.6,-0,35316,763154
step02_gravity_refstate-crust.xmf,1025,1.52801e-06,1.19167e-05,0,9.13515e-06,-9.67004e+08,-9.66292e+08,-9.67109e+08,626671,0.0312556,0.276814,0,0.278573,-6656.77,-35229.4,-0,35852.8,626671
step02_gravity_refstate-crust.xmf,1026,1.5995e-06,7.55574e-06,0,3.89527e-06,-9.79611e+08,-9.79202e+08,-9.79721e+08,267216,0.0249608,0.185454,0,0.187126,-11695.7,-35681.9,-0,37549.8,267216
step02_gravity_refstate-crust.xmf,1027,1.7321e-06,7.89148e-06,0,4.33295e-06,-9.77898e+08,-9.77475e+08,-9.78017e+08,297240,0.026094,0.196379,0,0.198105,-10846.3,-35620.6,-0,37235.3,297240
step02_gravity_refstate-crust.xmf,1028,1.59226e-06,8.2753e-06,0,4.74102e-06,-9.63849e+08,-9.6339e+08,-9.63958e+08,325234,0.025187,0.214791,0,0.216263,-9831.22,-35109.1,-0,36459.6,325234
step02_gravity_refstate-crust.xmf,1029,1.46425e-06,7.30516e-06,0,3.54858e-06,-9.8196e+08,-9.81559e+08,-9.8206e+08,243433,0.0240322,0.175751,0,0.177387,-12513.5,-35766.5,-0,37892.3,243433
step02_gravity_refstate-crust.xmf,1030,6.25707e-07,5.85483e-06,0,1.60851e-06,-9.5857e+08,-9.58211e+08,-9.58613e+08,110344,0.0147943,0.125256,0,0.126127,-19974.2,-34909.3,-0,40219.7,110344
step02_gravity_refstate-crust.xmf,1031,6.82323e-07,5.34001e-06,0,1.06369e-06,-9.68123e+08,-9.67804e+08,-9.6817e+08,72969.1,0.0121954,0.101693,0,0.102422,-24983.3,-35256.5,-0,43211,72969.1
step02_gravity_refstate-crust.xmf,1032,6.37799e-07,5.71746e-06,0,1.45902e-06,-9.62351e+08,-9.62002e+08,-9.62394e+08,100088,0.0142816,0.118099,0,0.11896,-21237.5,-35046.8,-0,40979.3,100088
step02_gravity_refstate-crust.xmf,1033,6.59261e-07,5.45165e-06,0,1.1793e-06,-9.65683e+08,-9.65354e+08,-9.65728e+08,80900.2,0.0128675,0.106538,0,0.107312,-23780.4,-35167.8,-0,42453.3,80900.2
step02_gravity_refstate-crust.xmf,1034,6.46062e-07,5.58062e-06,0,1.31412e-06,-9.64179e+08,-9.6384e+08,-9.64223e+08,90148.7,0.0135975,0.111984,0,0.112807,-22508.9,-35113.2,-0,41708.3,90148.7
step02_gravity_refstate-crust.xmf,1035,9.37049e-07,6.2991e-06,0,2.15524e-06,-9.95354e+08,-9.94986e+08,-9.95418e+08,147850,0.0191052,0.129201,0,0.130606,-17866.6,-36250.4,-0,40414.2,147850
step02_gravity_refstate-crust.xmf,1036,8.24034e-07,6.07693e-06,0,1.86348e-06,-9.85754e+08,-9.85393e+08,-9.8581e+08,127835,0.017386,0.124078,0,0.12529,-19106.3,-35900.1,-0,40667.8,127835
step02_gravity_refstate-crust.xmf,1037,9.03179e-07,5.21182e-06,0,7.76852e-07,-1.01985e+09,-1.01955e+09,-1.01991e+09,53292,0.0111467,0.0813258,0,0.0820862,-28670.5,-37140.3,-0,46919.1,53292
step02_gravity_refstate-crust.xmf,1038,1.07302e-06,4.95584e-06,0,3.30619e-07,-1.05158e+09,-1.05132e+09,-1.05166e+09,22680.4,0.00579359,0.0660103,0,0.066264,-34686.5,-38296,-0,51669.5,22680.4
step02_gravity_refstate-crust.xmf,1039,1.04178e-06,5.05039e-06,0,4.66016e-07,-1.05075e+09,-1.05048e+09,-1.05082e+09,31968.7,0.00782509,0.0683446,0,0.0687911,-32741.2,-38265.7,-0,50361.2,31968.7
step02_gravity_refstate-crust.xmf,1040,1.01529e-06,5.18569e-06,0,6.07265e-07,-1.0551e+09,-1.05482e+09,-1.05517e+09,41658.4,0.00973829,0.0702222,0,0.0708942,-30930.4,-38424.2,-0,49326.5,41658.4
step02_gravity_refstate-crust.xmf,1041,2.66791e-06,-1.0937e-06,0,8.55891e-07,-1.8903e+08,-1.89288e+08,-1.89213e+08,58714.1,-0.00781713,0.320517,-0,0.320612,-2847.33,-6890.92,-0,7456.01,58714.1
step02_gravity_refstate-crust.xmf,1042,3.06725e-06,-1.08195e-06,0,5.71347e-07,-1.14888e+08,-1.15173e+08,-1.15099e+08,39194.4,-0.00909807,0.317554,-0,0.317684,-2891.74,-4193.35,-0,5093.76,39194.4
step02_gravity_refstate-crust.xmf,1043,4.45214e-06,-1.69236e-06,0,1.90251e-08,422795,1282.91,117379,1305.13,-0.0183918,0.309957,-0,0.310502,-3942.22,0,-0,3942.22,1305.13
step02_gravity_refstate-crust.xmf,1044,3.89113e-06,-1.39054e-06,0,2.33777e-07,-4.11342e+07,-4.14965e+07,-4.14011e+07,16037.1,-0.0116107,0.314271,-0,0.314486,-2913.14,-1511.12,-0,3281.75,16037.1
step02_gravity_refstate-crust.xmf,1045,6.97231e-06,-9.80843e-06,0,-1.98431e-06,-6.44544e+08,-6.45695e+08,-6.45022e+08,-136124,0.00688744,0.387357,0,0.387418,972.183,-23478.3,0,23498.4,136124
step02_gravity_refstate-crust.xmf,1046,6.63114e-06,-9.06869e-06,0,-1.14493e-06,-6.26102e+08,-6.27179e+08,-6.26557e+08,-78542.2,0.0041267,0.381925,0,0.381947,618.072,-22806.7,0,22815,78542.2
step02_gravity_refstate-crust.xmf,1047,5.66967e-06,-7.15058e-06,0,3.03769e-07,-5.77292e+08,-5.78172e+08,-5.77681e+08,20838.5,-0.00118395,0.368057,-0,0.368059,-209.42,-21028.8,-0,21029.8,20838.5
step02_gravity_refstate-crust.xmf,1048,6.14459e-06,-8.02961e-06,0,-6.75748e-07,-6.01824e+08,-6.02797e+08,-6.02246e+08,-46356.3,0.00249025,0.374678,0,0.374687,405.122,-21922.4,0,21926.2,46356.3
step02_gravity_refstate-crust.xmf,1049,8.08996e-06,-1.26538e-05,0,-3.58794e-06,-6.9839e+08,-6.99813e+08,-6.98945e+08,-246133,0.011024,0.407678,0,0.407827,1310.91,-25438.7,0,25472.5,246133
step02_gravity_refstate-crust.xmf,1050,7.23312e-06,-1.05173e-05,0,-2.965e-06,-6.63059e+08,-6.64276e+08,-6.63555e+08,-203399,0.00990314,0.392774,0,0.392899,1322.43,-24152.3,0,24188.5,203399
step02_gravity_refstate-crust.xmf,1051,2.86822e-06,-2.02561e-06,0,7.36689e-07,-3.29686e+08,-3.30021e+08,-3.29882e+08,50536.9,-0.00419017,0.330313,-0,0.330339,-1446.22,-12011,-0,12097.8,50536.9
step02_gravity_refstate-crust.xmf,1052,4.41753e-06,-4.84532e-06,0,-6.28883e-08,-5.00503e+08,-5.01139e+08,-5.00806e+08,-4314.13,0.000247922,0.351571,0,0.351571,56.2454,-18231.7,0,18231.8,4314.13
step02_gravity_refstate-crust.xmf,1053,2.97363e-06,-2.2822e-06,0,9.49064e-07,-3.58075e+08,-3.58435e+08,-3.58279e+08,65105.8,-0.00516136,0.332164,-0,0.332205,-1703.47,-13044.6,-0,13155.3,65105.8
step02_gravity_refstate-crust.xmf,1054,3.18704e-06,-2.67054e-06,0,7.20371e-07,-3.8447e+08,-3.84872e+08,-3.84688e+08,49417.4,-0.00380024,0.335284,-0,0.335306,-1182.91,-14005.8,-0,14055.6,49417.4
step02_gravity_refstate-crust.xmf,1055,3.44328e-06,-3.12411e-06,0,3.98025e-07,-4.12813e+08,-4.13264e+08,-4.13049e+08,27304.5,-0.00202583,0.338831,-0,0.338837,-588.24,-15038,-0,15049.5,27304.5
step02_gravity_refstate-crust.xmf,1056,8.17779e-06,-1.32775e-05,0,-4.87873e-06,-7.15429e+08,-7.169e+08,-7.1599e+08,-334681,0.0143345,0.413276,0,0.413524,1640.53,-26058.4,0,26110,334681
step02_gravity_refstate-crust.xmf,1057,8.13781e-06,-1.38295e-05,0,-6.23751e-06,-7.32057e+08,-7.33564e+08,-7.32615e+08,-427893,0.0175202,0.418421,0,0.418787,1948.71,-26662.8,0,26733.9,427893
step02_gravity_refstate-crust.xmf,1058,7.96107e-06,-1.4248e-05,0,-7.65533e-06,-7.48207e+08,-7.4973e+08,-7.48753e+08,-525156,0.0204773,0.422964,0,0.423459,2239.13,-27249.4,0,27341.2,525156
step02_gravity_refstate-crust.xmf,1059,8.85263e-06,-1.86443e-05,0,-7.34131e-06,-7.89676e+08,-7.91562e+08,-7.90283e+08,-503614,0.0173444,0.453738,0,0.454069,1833.4,-28755.9,0,28814.3,503614
step02_gravity_refstate-crust.xmf,1060,8.41005e-06,-1.67181e-05,0,-8.36419e-06,-7.76983e+08,-7.78707e+08,-7.7756e+08,-573783,0.0203764,0.440303,0,0.440774,2161.54,-28295,0,28377.4,573783
step02_gravity_refstate-crust.xmf,1061,7.63328e-06,-2.10446e-05,0,-8.1192e-06,-8.24087e+08,-8.26054e+08,-8.2461e+08,-556977,0.016117,0.475504,0,0.475777,1997.54,-30000,0,30066.4,556977
step02_gravity_refstate-crust.xmf,1062,8.40792e-06,-1.90284e-05,0,-8.49225e-06,-8.01529e+08,-8.03412e+08,-8.02106e+08,-582569,0.0189868,0.457519,0,0.457912,2084.75,-29185,0,29259.4,582569
step02_gravity_refstate-crust.xmf,1063,1.20807e-06,1.34259e-05,0,1.05657e-05,-9.69226e+08,-9.68387e+08,-9.69308e+08,724809,0.0326646,0.291542,0,0.293366,-6084.73,-35311.3,-0,35831.7,724809
step02_gravity_refstate-crust.xmf,1064,-3.10709e-07,1.52297e-05,0,1.32762e-05,-9.55321e+08,-9.54254e+08,-9.55299e+08,910745,0.028374,0.325053,0,0.326289,-5283.53,-34801.7,-0,35200.5,910745
step02_gravity_refstate-crust.xmf,1065,-3.82945e-06,2.03352e-05,0,2.2114e-05,-9.47174e+08,-9.45517e+08,-9.46912e+08,1.51702e+06,0.0225506,0.388293,0,0.388948,-4000,-34498.8,-0,34729.9,1.51702e+06
step02_gravity_refstate-crust.xmf,1066,-1.60166e-06,1.76546e-05,0,1.60373e-05,-9.54665e+08,-9.53344e+08,-9.54555e+08,1.10016e+06,0.0276068,0.347,0,0.348096,-4740.42,-34776.4,-0,35098,1.10016e+06
step02_gravity_refstate-crust.xmf,1067,1.92442e-06,1.20614e-05,0,9.01147e-06,-9.80726e+08,-9.8003e+08,-9.80858e+08,618187,0.0344021,0.265692,0,0.26791,-6860.2,-35730.8,-0,36383.4,618187
step02_gravity_refstate-crust.xmf,1068,1.84159e-06,8.28534e-06,0,4.85219e-06,-9.79323e+08,-9.78881e+08,-9.79449e+08,332860,0.0276673,0.206276,0,0.208124,-10090.2,-35673.5,-0,37073,332860
step02_gravity_refstate-crust.xmf,1069,2.07974e-06,1.09042e-05,0,7.87116e-06,-9.80477e+08,-9.79871e+08,-9.80619e+08,539961,0.0331182,0.25156,0,0.253731,-7486.37,-35720.5,-0,36496.6,539961
step02_gravity_refstate-crust.xmf,1070,2.03663e-06,8.77926e-06,0,5.48278e-06,-9.81567e+08,-9.81104e+08,-9.81707e+08,376119,0.0293042,0.215344,0,0.217329,-9438.62,-35756.8,-0,36981.5,376119
step02_gravity_refstate-crust.xmf,1071,2.12101e-06,9.33033e-06,0,6.14027e-06,-9.82201e+08,-9.81706e+08,-9.82347e+08,421223,0.0307168,0.225606,0,0.227688,-8801.77,-35781,-0,36847.7,421223
step02_gravity_refstate-crust.xmf,1072,2.13624e-06,1.00116e-05,0,6.91133e-06,-9.81186e+08,-9.80646e+08,-9.81333e+08,474117,0.0318978,0.237902,0,0.240031,-8145.43,-35745.2,-0,36661.5,474117
step02_gravity_refstate-crust.xmf,1073,1.7612e-06,7.63777e-06,0,4.12264e-06,-1.00024e+09,-9.99837e+08,-1.00036e+09,282813,0.0268234,0.175757,0,0.177792,-12048.9,-36433.7,-0,38374.3,282813
step02_gravity_refstate-crust.xmf,1074,1.45688e-06,7.1215e-06,0,3.3713e-06,-9.92882e+08,-9.92493e+08,-9.92982e+08,231271,0.023928,0.163713,0,0.165453,-13431.5,-36163.8,-0,38577.5,231271
step02_gravity_refstate-crust.xmf,1075,1.04112e-06,6.48425e-06,0,2.42468e-06,-9.96012e+08,-9.95639e+08,-9.96084e+08,166333,0.0202934,0.136739,0,0.138236,-16685.6,-36275.1,-0,39928.6,166333
step02_gravity_refstate-crust.xmf,1076,1.15715e-06,6.67246e-06,0,2.70445e-06,-9.95232e+08,-9.94853e+08,-9.95311e+08,185526,0.0214237,0.144952,0,0.146526,-15575.2,-36247.4,-0,39452,185526
step02_gravity_refstate-crust.xmf,1077,1.29045e-06,6.87326e-06,0,3.00323e-06,-9.93757e+08,-9.93374e+08,-9.93846e+08,206022,0.0225664,0.153845,0,0.155491,-14511.6,-36194.6,-0,38995.3,206022
step02_gravity_refstate-crust.xmf,1078,8.23805e-07,5.45967e-06,0,1.07639e-06,-1.00935e+09,-1.00904e+09,-1.00941e+09,73840,0.0135456,0.0919404,0,0.0929328,-25483.5,-36758.3,-0,44727.9,73840
step02_gravity_refstate-crust.xmf,1079,8.69314e-07,5.3299e-06,0,9.18127e-07,-1.01573e+09,-1.01542e+09,-1.01579e+09,62983.5,0.0123942,0.0859631,0,0.086852,-27111.4,-36990.4,-0,45861.9,62983.5
step02_gravity_refstate-crust.xmf,1080,9.86856e-07,5.33341e-06,0,7.53184e-07,-1.05877e+09,-1.05847e+09,-1.05883e+09,51668.4,0.0114576,0.0725843,0,0.073483,-29261.7,-38557.7,-0,48404,51668.4
step02_gravity_refstate-crust.xmf,1081,2.68377e-06,-1.49805e-06,0,6.3947e-07,-2.63416e+08,-2.63703e+08,-2.636e+08,43867.6,-0.00437328,0.325922,-0,0.325951,-1612.51,-9598.47,-0,9732.98,43867.6
step02_gravity_refstate-crust.xmf,1082,2.65896e-06,-1.26856e-06,0,6.8436e-07,-2.24669e+08,-2.24938e+08,-2.24851e+08,46947.1,-0.00534557,0.323497,-0,0.323541,-1980.88,-8188.08,-0,8424.29,46947.1
step02_gravity_refstate-crust.xmf,1083,2.88721e-06,-1.09247e-06,0,5.15569e-07,-1.51195e+08,-1.51468e+08,-1.51393e+08,35368.1,-0.0060535,0.320281,-0,0.320338,-2071.29,-5514.41,-0,5890.58,35368.1
step02_gravity_refstate-crust.xmf,1084,3.47596e-06,-1.22165e-06,0,2.86296e-07,-7.90691e+07,-7.93913e+07,-7.93075e+07,19639.9,-0.00688782,0.317449,-0,0.317524,-1959.31,-2890.76,-0,3492.19,19639.9
step02_gravity_refstate-crust.xmf,1085,5.20212e-06,-6.28261e-06,0,-2.35905e-07,-5.51687e+08,-5.52475e+08,-5.52044e+08,-16183.1,0.000990889,0.361835,0,0.361836,191.103,-20096,0,20097,16183.1
step02_gravity_refstate-crust.xmf,1086,7.37761e-06,-1.11238e-05,0,-4.13161e-06,-6.81364e+08,-6.82633e+08,-6.8187e+08,-283428,0.0132585,0.397819,0,0.39804,1686.15,-24818.4,0,24875.6,283428
step02_gravity_refstate-crust.xmf,1087,2.78768e-06,-1.77182e-06,0,4.18239e-07,-2.9745e+08,-2.97763e+08,-2.97641e+08,28691.2,-0.00259837,0.328621,-0,0.328631,-930.605,-10837.5,-0,10877.4,28691.2
step02_gravity_refstate-crust.xmf,1088,4.75301e-06,-5.48376e-06,0,-7.01653e-07,-5.262e+08,-5.26902e+08,-5.26526e+08,-48133.4,0.00304255,0.35605,0,0.356063,638.906,-19167.6,0,19178.2,48133.4
step02_gravity_refstate-crust.xmf,1089,3.73911e-06,-3.64566e-06,0,1.59294e-08,-4.42852e+08,-4.43359e+08,-4.43109e+08,1092.76,-0.000108878,0.342725,-0,0.342725,-29.148,-16132,-0,16132,1092.76
step02_gravity_refstate-crust.xmf,1090,4.0417e-06,-4.18878e-06,0,-4.86812e-07,-4.72266e+08,-4.7283e+08,-4.72543e+08,-33395.3,0.00223819,0.346706,0,0.346713,553.867,-17203.2,0,17212.1,33395.3
step02_gravity_refstate-crust.xmf,1091,7.67715e-06,-1.46016e-05,0,-9.05602e-06,-7.63371e+08,-7.649e+08,-7.63898e+08,-621243,0.0229562,0.426774,0,0.427391,2499.7,-27799.7,0,27911.9,621243
step02_gravity_refstate-crust.xmf,1092,7.87316e-06,-1.94373e-05,0,-9.43131e-06,-8.13083e+08,-8.14956e+08,-8.13623e+08,-646988,0.0196768,0.461427,0,0.461846,2287.31,-29602.9,0,29691.1,646988
step02_gravity_refstate-crust.xmf,1093,5.71647e-07,1.51718e-05,0,1.20969e-05,-9.69533e+08,-9.68532e+08,-9.69572e+08,829846,0.033227,0.308074,0,0.309861,-5543.09,-35322.6,-0,35754.9,829846
step02_gravity_refstate-crust.xmf,1094,-2.98721e-06,2.01099e-05,0,1.89834e-05,-9.5411e+08,-9.52526e+08,-9.53905e+08,1.30226e+06,0.0263833,0.367171,0,0.368118,-4306.97,-34754.4,-0,35020.2,1.30226e+06
step02_gravity_refstate-crust.xmf,1095,1.6585e-06,1.34427e-05,0,1.02196e-05,-9.8224e+08,-9.81431e+08,-9.82353e+08,701061,0.0356856,0.278654,0,0.28093,-6318.27,-35786.9,-0,36340.4,701061
step02_gravity_refstate-crust.xmf,1096,1.92359e-06,7.96436e-06,0,4.5613e-06,-9.98964e+08,-9.98549e+08,-9.99096e+08,312905,0.0281725,0.185466,0,0.187593,-11231.9,-36388.4,-0,38082.4,312905
step02_gravity_refstate-crust.xmf,1097,2.08332e-06,8.39112e-06,0,5.09906e-06,-9.98127e+08,-9.97695e+08,-9.9827e+08,349795,0.0296919,0.196087,0,0.198322,-10412.1,-36359.2,-0,37820.7,349795
step02_gravity_refstate-crust.xmf,1098,1.6251e-06,7.39559e-06,0,3.78794e-06,-1.00018e+09,-9.99787e+08,-1.00029e+09,259853,0.0256675,0.168526,0,0.170469,-12740.2,-36430.7,-0,38594.1,259853
step02_gravity_refstate-crust.xmf,1099,7.97623e-07,5.92993e-06,0,1.66812e-06,-9.91466e+08,-9.91114e+08,-9.91521e+08,114433,0.0166472,0.11553,0,0.116723,-20493.7,-36107.7,-0,41518.2,114433
step02_gravity_refstate-crust.xmf,1100,7.71426e-07,5.52268e-06,0,1.17559e-06,-9.97009e+08,-9.96683e+08,-9.97062e+08,80645.8,0.0139785,0.0982585,0,0.0992478,-24329.1,-36308.8,-0,43706.2,80645.8
step02_gravity_refstate-crust.xmf,1101,7.88416e-07,5.79458e-06,0,1.49442e-06,-9.96051e+08,-9.95708e+08,-9.96105e+08,102517,0.0158754,0.108415,0,0.109571,-21808.9,-36274.4,-0,42325.7,102517
step02_gravity_refstate-crust.xmf,1102,7.90932e-07,5.65552e-06,0,1.3239e-06,-9.9967e+08,-9.99336e+08,-9.99724e+08,90819.3,0.0149894,0.101995,0,0.103091,-23176.1,-36405.9,-0,43157,90819.3
step02_gravity_refstate-crust.xmf,1103,1.06776e-06,6.56279e-06,0,2.48979e-06,-1.02039e+09,-1.02001e+09,-1.02046e+09,170799,0.0211457,0.126842,0,0.128592,-17306.5,-37162.8,-0,40995,170799
step02_gravity_refstate-crust.xmf,1104,9.67258e-07,6.33385e-06,0,2.15549e-06,-1.01703e+09,-1.01666e+09,-1.0171e+09,147867,0.0196872,0.119836,0,0.121442,-18604.7,-37039.8,-0,41449.7,147867
step02_gravity_refstate-crust.xmf,1105,9.52985e-07,5.50231e-06,0,9.29286e-07,-1.05999e+09,-1.05968e+09,-1.06006e+09,63749,0.0131886,0.0762819,0,0.0774136,-27483.7,-38602.4,-0,47386.7,63749
step02_gravity_refstate-crust.xmf,1106,2.77572e-06,-1.17332e-06,0,3.63364e-07,-1.87396e+08,-1.87667e+08,-1.87586e+08,24926.8,-0.00327004,0.322741,-0,0.322757,-1174.46,-6831.74,-0,6931.96,24926.8
step02_gravity_refstate-crust.xmf,1107,3.14856e-06,-1.13444e-06,0,2.84948e-07,-1.16005e+08,-1.16299e+08,-1.16221e+08,19547.4,-0.00437019,0.31963,-0,0.31966,-1377.88,-4234.27,-0,4452.81,19547.4
step02_gravity_refstate-crust.xmf,1108,4.70887e-06,-1.78789e-06,0,1.7473e-08,447263,1585.38,124235,1198.65,-0.0093671,0.313209,-0,0.313349,-1971.11,0,-0,1971.11,1198.65
step02_gravity_refstate-crust.xmf,1109,3.99527e-06,-1.42797e-06,0,6.88901e-08,-4.31178e+07,-4.34898e+07,-4.33919e+07,4725.86,-0.00392567,0.316585,-0,0.31661,-981.67,-1583.7,-0,1863.27,4725.86
step02_gravity_refstate-crust.xmf,1110,6.41227e-06,-8.76983e-06,0,-2.53118e-06,-6.28041e+08,-6.29082e+08,-6.28481e+08,-173639,0.00914773,0.380246,0,0.380356,1379.74,-22876.8,0,22918.4,173639
step02_gravity_refstate-crust.xmf,1111,6.56623e-06,-9.24261e-06,0,-3.44486e-06,-6.45106e+08,-6.46191e+08,-6.45556e+08,-236317,0.012031,0.384126,0,0.384314,1729.56,-23498,0,23561.6,236317
step02_gravity_refstate-crust.xmf,1112,6.20972e-06,-8.27011e-06,0,-1.82291e-06,-6.1255e+08,-6.13544e+08,-6.12976e+08,-125051,0.00674681,0.37655,0,0.376611,1066.07,-22312.8,0,22338.3,125051
step02_gravity_refstate-crust.xmf,1113,5.55577e-06,-6.98694e-06,0,-1.08323e-06,-5.75069e+08,-5.75929e+08,-5.7545e+08,-74309.8,0.00432792,0.36685,0,0.366876,774.707,-20947.6,0,20961.9,74309.8
step02_gravity_refstate-crust.xmf,1114,7.40344e-06,-1.16783e-05,0,-5.38457e-06,-6.99139e+08,-7.00448e+08,-6.99647e+08,-369382,0.0165949,0.402409,0,0.402751,2026.01,-25464.7,0,25545.2,369382
step02_gravity_refstate-crust.xmf,1115,6.63413e-06,-9.67977e-06,0,-4.52323e-06,-6.63508e+08,-6.64627e+08,-6.63963e+08,-310294,0.0152483,0.388072,0,0.388372,2090.49,-24167.5,0,24257.8,310294
step02_gravity_refstate-crust.xmf,1116,3.05207e-06,-2.37202e-06,0,3.55251e-07,-3.57406e+08,-3.57778e+08,-3.57615e+08,24370.2,-0.00190978,0.333308,-0,0.333313,-625.711,-13020.4,-0,13035.4,24370.2
step02_gravity_refstate-crust.xmf,1117,2.91602e-06,-2.0723e-06,0,5.41939e-08,-3.28077e+08,-3.28419e+08,-3.28277e+08,3717.7,-0.000283539,0.33112,-0,0.33112,-97.5318,-11952.6,-0,11953,3717.7
step02_gravity_refstate-crust.xmf,1118,4.3166e-06,-4.70861e-06,0,-1.09805e-06,-4.99855e+08,-5.00474e+08,-5.00151e+08,-75326.3,0.00490429,0.350462,0,0.350496,1123.64,-18207.9,0,18242.5,75326.3
step02_gravity_refstate-crust.xmf,1119,3.24951e-06,-2.7493e-06,0,-2.29845e-08,-3.86128e+08,-3.8654e+08,-3.86351e+08,-1576.74,9.16666e-05,0.336173,0,0.336174,28.2096,-14066.3,0,14066.3,1576.74
step02_gravity_refstate-crust.xmf,1120,3.46359e-06,-3.15655e-06,0,-4.31059e-07,-4.15244e+08,-4.15698e+08,-4.15482e+08,-29570.7,0.00213208,0.339089,0,0.339096,615.362,-15126.5,0,15139,29570.7
step02_gravity_refstate-crust.xmf,1121,7.29232e-06,-1.19614e-05,0,-6.7314e-06,-7.16334e+08,-7.17655e+08,-7.16834e+08,-461774,0.0198182,0.406424,0,0.406907,2343.97,-26089.8,0,26194.9,461774
step02_gravity_refstate-crust.xmf,1122,6.79344e-06,-1.24356e-05,0,-9.40599e-06,-7.49351e+08,-7.5067e+08,-7.49817e+08,-645251,0.025055,0.413667,0,0.414425,2853.79,-27289.1,0,27437.9,645251
step02_gravity_refstate-crust.xmf,1123,7.05618e-06,-1.21939e-05,0,-8.12403e-06,-7.33324e+08,-7.34644e+08,-7.33808e+08,-557308,0.0227844,0.410044,0,0.410677,2633.63,-26707,0,26836.6,557308
step02_gravity_refstate-crust.xmf,1124,7.99428e-06,-1.69381e-05,0,-9.74558e-06,-7.90026e+08,-7.91737e+08,-7.90575e+08,-668547,0.022358,0.443282,0,0.443845,2429.66,-28767.8,0,28870.2,668547
step02_gravity_refstate-crust.xmf,1125,6.38817e-06,-1.24832e-05,0,-1.07233e-05,-7.63495e+08,-7.64789e+08,-7.63933e+08,-735616,0.026985,0.415879,0,0.416753,3072.53,-27802.3,0,27971.6,735616
step02_gravity_refstate-crust.xmf,1126,7.25904e-06,-1.47086e-05,0,-1.05075e-05,-7.77376e+08,-7.78883e+08,-7.77874e+08,-720816,0.0250474,0.429251,0,0.429981,2757.78,-28307.8,0,28441.8,720816
step02_gravity_refstate-crust.xmf,1127,7.11799e-06,-1.96416e-05,0,-1.03913e-05,-8.24084e+08,-8.2592e+08,-8.24573e+08,-712845,0.0198048,0.464221,0,0.464643,2497.35,-30000,0,30103.8,712845
step02_gravity_refstate-crust.xmf,1128,7.53718e-06,-1.7207e-05,0,-1.09482e-05,-8.02234e+08,-8.03932e+08,-8.02751e+08,-751045,0.0235315,0.445671,0,0.446292,2661.6,-29210,0,29331,751045
step02_gravity_refstate-crust.xmf,1129,1.16554e-06,1.52421e-05,0,1.16179e-05,-9.82945e+08,-9.81979e+08,-9.83025e+08,796989,0.0365962,0.293648,0,0.295919,-5766.68,-35813.4,-0,36274.7,796989
step02_gravity_refstate-crust.xmf,1130,-5.75001e-07,1.78627e-05,0,1.42404e-05,-9.68989e+08,-9.67724e+08,-9.6895e+08,976891,0.0330567,0.328067,0,0.329728,-4979.34,-35302.4,-0,35651.8,976891
step02_gravity_refstate-crust.xmf,1131,-4.45304e-06,2.35802e-05,0,2.1013e-05,-9.60846e+08,-9.58923e+08,-9.6054e+08,1.44149e+06,0.0278003,0.377306,0,0.378329,-4000,-34999,-0,35226.9,1.44149e+06
step02_gravity_refstate-crust.xmf,1132,-2.48729e-06,2.15261e-05,0,1.70085e-05,-9.68115e+08,-9.66467e+08,-9.67944e+08,1.16678e+06,0.031888,0.351337,0,0.352781,-4417.04,-35268.5,-0,35544,1.16678e+06
step02_gravity_refstate-crust.xmf,1133,1.87911e-06,1.35646e-05,0,1.00644e-05,-9.96426e+08,-9.95625e+08,-9.96555e+08,690420,0.0379103,0.266181,0,0.268867,-6534.9,-36304.5,-0,36888,690420
step02_gravity_refstate-crust.xmf,1134,2.15843e-06,1.21813e-05,0,8.94329e-06,-9.96354e+08,-9.95667e+08,-9.96503e+08,613510,0.0367519,0.252931,0,0.255587,-7114.71,-36300.9,-0,36991.5,613510
step02_gravity_refstate-crust.xmf,1135,2.16963e-06,8.91593e-06,0,5.71229e-06,-9.97741e+08,-9.97278e+08,-9.9789e+08,391863,0.0313284,0.207413,0,0.209766,-9615.51,-36346.3,-0,37596.7,391863
step02_gravity_refstate-crust.xmf,1136,2.30654e-06,1.10528e-05,0,7.92608e-06,-9.97545e+08,-9.96945e+08,-9.97703e+08,543729,0.0355033,0.239093,0,0.241715,-7760.1,-36343.1,-0,37162.3,543729
step02_gravity_refstate-crust.xmf,1137,2.3312e-06,9.52409e-06,0,6.40858e-06,-1.00051e+09,-1.00002e+09,-1.00067e+09,439629,0.032977,0.215546,0,0.218054,-9027.4,-36448.9,-0,37550.2,439629
step02_gravity_refstate-crust.xmf,1138,2.35213e-06,1.02186e-05,0,7.11981e-06,-9.99485e+08,-9.98945e+08,-9.99646e+08,488419,0.0343171,0.226646,0,0.22923,-8389.44,-36412.6,-0,37366.6,488419
step02_gravity_refstate-crust.xmf,1139,1.92601e-06,8.10338e-06,0,4.79581e-06,-1.01973e+09,-1.01931e+09,-1.01987e+09,328992,0.0291406,0.175032,0,0.177441,-11607.4,-37144.8,-0,38916.1,328992
step02_gravity_refstate-crust.xmf,1140,1.74825e-06,7.79099e-06,0,4.34501e-06,-1.01807e+09,-1.01765e+09,-1.01819e+09,298068,0.0277658,0.167991,0,0.17027,-12308.6,-37082.9,-0,39072.3,298068
step02_gravity_refstate-crust.xmf,1141,1.64963e-06,7.51497e-06,0,3.98403e-06,-1.01792e+09,-1.01751e+09,-1.01803e+09,273305,0.0265587,0.160952,0,0.163128,-13020.1,-37076.5,-0,39296.2,273305
step02_gravity_refstate-crust.xmf,1142,1.19876e-06,6.80528e-06,0,2.86757e-06,-1.02209e+09,-1.0217e+09,-1.02217e+09,196715,0.0226322,0.134941,0,0.136826,-16039.2,-37225.5,-0,40533.8,196715
step02_gravity_refstate-crust.xmf,1143,1.33167e-06,7.01219e-06,0,3.20214e-06,-1.01987e+09,-1.01948e+09,-1.01996e+09,219667,0.023841,0.14352,0,0.145486,-14967.4,-37145.5,-0,40047.6,219667
step02_gravity_refstate-crust.xmf,1144,1.49119e-06,7.25669e-06,0,3.58878e-06,-1.01842e+09,-1.01802e+09,-1.01852e+09,246191,0.025217,0.152658,0,0.154727,-13911.5,-37093.8,-0,39616.7,246191
step02_gravity_refstate-crust.xmf,1145,9.06858e-07,6.17726e-06,0,1.92191e-06,-1.01844e+09,-1.01808e+09,-1.0185e+09,131843,0.0186713,0.113157,0,0.114688,-19783.2,-37090.6,-0,42036.7,131843
step02_gravity_refstate-crust.xmf,1146,8.72829e-07,5.72888e-06,0,1.29262e-06,-1.03354e+09,-1.03321e+09,-1.0336e+09,88674,0.0155729,0.0917162,0,0.0930289,-24059.6,-37639.6,-0,44672.1,88674
step02_gravity_refstate-crust.xmf,1147,9.214e-07,5.67193e-06,0,1.12522e-06,-1.05821e+09,-1.05788e+09,-1.05827e+09,77189.8,0.0147438,0.0812007,0,0.0825284,-25761.8,-38537.6,-0,46355.4,77189.8
step02_gravity_refstate-crust.xmf,1148,2.73955e-06,-1.57485e-06,0,9.80647e-08,-2.69204e+08,-2.695e+08,-2.69392e+08,6727.24,-0.000687704,0.327231,-0,0.327232,-251.289,-9809.28,-0,9812.5,6727.24
step02_gravity_refstate-crust.xmf,1149,2.72588e-06,-1.34299e-06,0,9.28927e-08,-2.29974e+08,-2.30253e+08,-2.30161e+08,6372.44,-0.000777108,0.325143,-0,0.325144,-286.043,-8381.39,-0,8386.27,6372.44
step02_gravity_refstate-crust.xmf,1150,2.96704e-06,-1.12447e-06,0,9.48686e-08,-1.47564e+08,-1.47845e+08,-1.47768e+08,6507.99,-0.00125605,0.321479,-0,0.321481,-424.612,-5382.49,-0,5399.21,6507.99
step02_gravity_refstate-crust.xmf,1151,3.37875e-06,-1.19761e-06,0,2.92975e-08,-9.50574e+07,-9.53714e+07,-9.52892e+07,2009.81,-0.000169771,0.319335,-0,0.319335,-50.4903,-3472.48,-0,3472.84,2009.81
step02_gravity_refstate-crust.xmf,1152,5.03912e-06,-6.06553e-06,0,-1.45262e-06,-5.50548e+08,-5.5131e+08,-5.50894e+08,-99649.6,0.00606367,0.360209,0,0.36026,1184.4,-20054.3,0,20089.2,99649.6
step02_gravity_refstate-crust.xmf,1153,5.83193e-06,-7.74498e-06,0,-3.00594e-06,-6.11103e+08,-6.12035e+08,-6.11503e+08,-206208,0.0113213,0.373078,0,0.37325,1832.86,-22259.4,0,22334.8,206208
step02_gravity_refstate-crust.xmf,1154,5.7566e-06,-7.42586e-06,0,-2.07079e-06,-5.94656e+08,-5.95561e+08,-5.95051e+08,-142056,0.00797394,0.370533,0,0.370619,1347.6,-21660.9,0,21702.7,142056
step02_gravity_refstate-crust.xmf,1155,6.61853e-06,-1.00508e-05,0,-5.70378e-06,-6.8231e+08,-6.83453e+08,-6.82764e+08,-391280,0.0184529,0.391964,0,0.392398,2421.7,-24851.4,0,24969.1,391280
step02_gravity_refstate-crust.xmf,1156,2.7958e-06,-1.76879e-06,0,-2.32752e-07,-2.9625e+08,-2.96563e+08,-2.96442e+08,-15966.8,0.00138564,0.3288,0,0.328803,496.008,-10793.8,0,10805.2,15966.8
step02_gravity_refstate-crust.xmf,1157,4.54185e-06,-5.20986e-06,0,-1.78972e-06,-5.25641e+08,-5.2631e+08,-5.25953e+08,-122775,0.00778046,0.353868,0,0.353954,1660.35,-19146.8,0,19218.7,122775
step02_gravity_refstate-crust.xmf,1158,3.68605e-06,-3.58409e-06,0,-8.77889e-07,-4.44271e+08,-4.44769e+08,-4.44523e+08,-60223.2,0.00421878,0.3421,0,0.342126,1134.13,-16183.5,0,16223.2,60223.2
step02_gravity_refstate-crust.xmf,1159,3.90784e-06,-4.01999e-06,0,-1.40752e-06,-4.7312e+08,-4.73664e+08,-4.73388e+08,-96556,0.006547,0.345171,0,0.345233,1635.26,-17234,0,17311.4,96556
step02_gravity_refstate-crust.xmf,1160,5.71065e-06,-1.08607e-05,0,-1.05798e-05,-7.5145e+08,-7.52586e+08,-7.51841e+08,-725771,0.0280686,0.405712,0,0.406682,3322.86,-27363.6,0,27564.6,725771
step02_gravity_refstate-crust.xmf,1161,7.20561e-06,-1.80132e-05,0,-1.148e-05,-8.14539e+08,-8.16269e+08,-8.15034e+08,-787525,0.0227957,0.451885,0,0.45246,2724.57,-29655.4,0,29780.3,787525
step02_gravity_refstate-crust.xmf,1162,3.00511e-07,1.75623e-05,0,1.3137e-05,-9.83424e+08,-9.8224e+08,-9.83445e+08,901197,0.0370864,0.310295,0,0.312504,-5218.97,-35830.9,-0,36209,901197
step02_gravity_refstate-crust.xmf,1163,1.41468e-06,1.52939e-05,0,1.13015e-05,-9.96804e+08,-9.95852e+08,-9.96901e+08,775286,0.038854,0.279929,0,0.282612,-5981.54,-36319.1,-0,36808.3,775286
step02_gravity_refstate-crust.xmf,1164,2.09685e-06,8.53466e-06,0,5.33724e-06,-1.01832e+09,-1.01787e+09,-1.01846e+09,366134,0.0306973,0.185177,0,0.187704,-10777.2,-37094.5,-0,38628.4,366134
step02_gravity_refstate-crust.xmf,1165,2.24463e-06,9.07938e-06,0,5.96616e-06,-1.0172e+09,-1.01673e+09,-1.01735e+09,409279,0.0323617,0.196072,0,0.198724,-9962.97,-37055.3,-0,38371.3,409279
step02_gravity_refstate-crust.xmf,1166,8.7616e-07,6.04735e-06,0,1.7255e-06,-1.02385e+09,-1.0235e+09,-1.02391e+09,118369,0.0178238,0.105966,0,0.107455,-21018.8,-37287.3,-0,42803.5,118369
step02_gravity_refstate-crust.xmf,1167,8.73901e-07,5.91098e-06,0,1.52642e-06,-1.03105e+09,-1.0307e+09,-1.03111e+09,104712,0.0169081,0.0984471,0,0.0998886,-22403.2,-37549,-0,43724.5,104712
step02_gravity_refstate-crust.xmf,1168,1.11062e-06,6.93712e-06,0,2.91731e-06,-1.04643e+09,-1.04603e+09,-1.0465e+09,200127,0.0228231,0.124511,0,0.126585,-16675.1,-38111.4,-0,41599.8,200127
step02_gravity_refstate-crust.xmf,1169,9.539e-07,6.45477e-06,0,2.19344e-06,-1.0443e+09,-1.04392e+09,-1.04436e+09,150470,0.0202067,0.110158,0,0.111996,-19214.2,-38032.6,-0,42610.6,150470
step02_gravity_refstate-crust.xmf,1170,1.01862e-06,6.67673e-06,0,2.51914e-06,-1.04544e+09,-1.04506e+09,-1.04551e+09,172813,0.0214483,0.116773,0,0.118727,-17967.8,-38074.9,-0,42101.5,172813
step02_gravity_refstate-crust.xmf,1171,2.8041e-06,-1.18872e-06,0,-1.43734e-07,-1.84799e+08,-1.85073e+08,-1.84991e+08,-9860.18,0.00139113,0.323017,0,0.32302,497.082,-6737.29,0,6755.6,9860.18
step02_gravity_refstate-crust.xmf,1172,4.79315e-06,-1.81863e-06,0,1.46284e-08,455323,1754.63,126512,1003.51,2.57728e-06,0.31431,0,0.31431,7.0424e-08,0,0,7.0424e-08,1003.51
step02_gravity_refstate-crust.xmf,1173,3.9394e-06,-1.39771e-06,0,-1.21854e-07,-4.73526e+07,-4.77187e+07,-4.76229e+07,-8359.18,0.00396792,0.31679,0,0.316815,1007.43,-1737.69,0,2008.61,8359.18
step02_gravity_refstate-crust.xmf,1174,5.81453e-06,-8.19631e-06,0,-4.85044e-06,-6.43886e+08,-6.44847e+08,-6.44285e+08,-332740,0.0172217,0.377836,0,0.378228,2576.57,-23452.2,0,23593.3,332740
step02_gravity_refstate-crust.xmf,1175,6.00503e-06,-8.25117e-06,0,-3.6986e-06,-6.28784e+08,-6.29762e+08,-6.29196e+08,-253724,0.0135025,0.376864,0,0.377106,2077.51,-22903,0,22997.1,253724
step02_gravity_refstate-crust.xmf,1176,5.22504e-06,-6.53055e-06,0,-2.35235e-06,-5.73156e+08,-5.73963e+08,-5.73515e+08,-161371,0.00949194,0.363664,0,0.363788,1740.66,-20877.3,0,20949.8,161371
step02_gravity_refstate-crust.xmf,1177,6.43255e-06,-1.03013e-05,0,-6.99877e-06,-7.00422e+08,-7.0157e+08,-7.00863e+08,-480116,0.0217053,0.395009,0,0.395605,2754.36,-25509.6,0,25657.9,480116
step02_gravity_refstate-crust.xmf,1178,5.8912e-06,-8.71959e-06,0,-5.8549e-06,-6.6546e+08,-6.66462e+08,-6.65864e+08,-401646,0.0198974,0.382317,0,0.382834,2815.81,-24237.1,0,24400.1,401646
step02_gravity_refstate-crust.xmf,1179,3.05583e-06,-2.38236e-06,0,-3.59078e-07,-3.58003e+08,-3.58376e+08,-3.58213e+08,-24632.8,0.0019792,0.333346,0,0.333352,647.666,-13042.1,0,13058.2,24632.8
step02_gravity_refstate-crust.xmf,1180,2.87297e-06,-2.02508e-06,0,-6.32393e-07,-3.27766e+08,-3.28102e+08,-3.27963e+08,-43382.2,0.00366076,0.33039,0,0.330411,1265.16,-11941.1,0,12008,43382.2
step02_gravity_refstate-crust.xmf,1181,2.70761e-06,-1.49042e-06,0,-4.37061e-07,-2.60691e+08,-2.60979e+08,-2.60877e+08,-29982.4,0.00292004,0.32633,0,0.326344,1074.06,-9499.38,0,9559.9,29982.4
step02_gravity_refstate-crust.xmf,1182,4.07625e-06,-4.39415e-06,0,-2.04608e-06,-4.99789e+08,-5.00371e+08,-5.00069e+08,-140361,0.0092287,0.347819,0,0.347941,2154.52,-18205,0,18332.1,140361
step02_gravity_refstate-crust.xmf,1183,3.2034e-06,-2.70186e-06,0,-8.17344e-07,-3.88305e+08,-3.8871e+08,-3.88525e+08,-56069.8,0.00423125,0.335497,0,0.335524,1307.37,-14145.4,0,14205.7,56069.8
step02_gravity_refstate-crust.xmf,1184,3.35006e-06,-3.03198e-06,0,-1.24648e-06,-4.16893e+08,-4.17331e+08,-4.17123e+08,-85508.4,0.00625436,0.337602,0,0.33766,1819.68,-15186.3,0,15294.9,85508.4
step02_gravity_refstate-crust.xmf,1185,6.10288e-06,-1.01994e-05,0,-8.33924e-06,-7.17671e+08,-7.18789e+08,-7.1809e+08,-572072,0.024695,0.397299,0,0.398066,3060.61,-26136.4,0,26315,572072
step02_gravity_refstate-crust.xmf,1186,5.58378e-06,-1.00081e-05,0,-9.81426e-06,-7.36293e+08,-7.37363e+08,-7.36676e+08,-673258,0.0275125,0.399353,0,0.400299,3354.9,-26812.6,0,27021.7,673258
step02_gravity_refstate-crust.xmf,1187,6.52045e-06,-1.44291e-05,0,-1.2314e-05,-7.91857e+08,-7.93294e+08,-7.92304e+08,-844741,0.0270298,0.429373,0,0.430223,3080.37,-28832.4,0,28996.5,844741
step02_gravity_refstate-crust.xmf,1188,4.95729e-06,-1.00842e-05,0,-1.17066e-05,-7.6115e+08,-7.62182e+08,-7.6149e+08,-803070,0.0298952,0.403504,0,0.40461,3599.54,-27714.9,0,27947.6,803070
step02_gravity_refstate-crust.xmf,1189,5.75148e-06,-1.22058e-05,0,-1.21918e-05,-7.7736e+08,-7.78592e+08,-7.77755e+08,-836361,0.0286923,0.416542,0,0.417529,3318.45,-28304.9,0,28498.8,836361
step02_gravity_refstate-crust.xmf,1190,6.32383e-06,-1.75921e-05,0,-1.28114e-05,-8.24085e+08,-8.25726e+08,-8.24519e+08,-878862,0.0231688,0.450216,0,0.450812,2997.53,-30000,0,30149.4,878862
step02_gravity_refstate-crust.xmf,1191,6.30726e-06,-1.53418e-05,0,-1.34764e-05,-8.0927e+08,-8.10756e+08,-8.09703e+08,-924483,0.0264746,0.435929,0,0.436732,3179.05,-29464.1,0,29635.1,924483
step02_gravity_refstate-crust.xmf,1192,6.77927e-07,1.75075e-05,0,1.26637e-05,-9.96979e+08,-9.95825e+08,-9.97026e+08,868727,0.039426,0.294842,0,0.297466,-5438.32,-36325.9,-0,36730.7,868727
step02_gravity_refstate-crust.xmf,1193,-9.59419e-07,2.08891e-05,0,1.50502e-05,-9.82661e+08,-9.81162e+08,-9.82595e+08,1.03244e+06,0.0366897,0.329638,0,0.331674,-4674.03,-35803.2,-0,36107,1.03244e+06
step02_gravity_refstate-crust.xmf,1194,-5.11924e-06,2.6703e-05,0,1.95734e-05,-9.74498e+08,-9.72315e+08,-9.74147e+08,1.34273e+06,0.032409,0.364744,0,0.366181,-4000,-35498.2,-0,35722.9,1.34273e+06
step02_gravity_refstate-crust.xmf,1195,1.8983e-06,1.3712e-05,0,9.95469e-06,-1.01196e+09,-1.01115e+09,-1.01209e+09,682892,0.0391131,0.253108,0,0.256113,-6768.52,-36870.4,-0,37486.5,682892
step02_gravity_refstate-crust.xmf,1196,1.42148e-06,1.54113e-05,0,1.10663e-05,-1.01135e+09,-1.01039e+09,-1.01144e+09,759150,0.0400198,0.266539,0,0.269527,-6190.85,-36848.7,-0,37365.2,759150
step02_gravity_refstate-crust.xmf,1197,2.18272e-06,1.23323e-05,0,8.9338e-06,-1.01282e+09,-1.01213e+09,-1.01297e+09,612858,0.0379391,0.24006,0,0.243039,-7379.97,-36900.7,-0,37631.5,612858
step02_gravity_refstate-crust.xmf,1198,2.28643e-06,9.74704e-06,0,6.65425e-06,-1.01676e+09,-1.01625e+09,-1.01691e+09,456482,0.0340514,0.207163,0,0.209942,-9199.07,-37040.4,-0,38165.6,456482
step02_gravity_refstate-crust.xmf,1199,2.29919e-06,1.13672e-05,0,8.13724e-06,-1.01565e+09,-1.01503e+09,-1.01581e+09,558215,0.036811,0.227723,0,0.230679,-7972.06,-37002.6,-0,37851.7,558215
step02_gravity_refstate-crust.xmf,1200,2.34803e-06,1.05684e-05,0,7.45549e-06,-1.01988e+09,-1.01931e+09,-1.02004e+09,511447,0.0356065,0.215385,0,0.218308,-8598,-37155.4,-0,38137.3,511447
step02_gravity_refstate-crust.xmf,1201,1.72577e-06,8.10895e-06,0,4.74882e-06,-1.03829e+09,-1.03785e+09,-1.03841e+09,325769,0.0285115,0.161835,0,0.164327,-12338.3,-37819.6,-0,39781.4,325769
step02_gravity_refstate-crust.xmf,1202,1.92294e-06,8.74267e-06,0,5.55432e-06,-1.03891e+09,-1.03844e+09,-1.03904e+09,381027,0.0306481,0.174287,0,0.176961,-11150.1,-37844,-0,39452.4,381027
step02_gravity_refstate-crust.xmf,1203,1.54959e-06,7.72698e-06,0,4.20044e-06,-1.03906e+09,-1.03863e+09,-1.03916e+09,288150,0.0269196,0.152108,0,0.154472,-13339.7,-37846.2,-0,40128.3,288150
step02_gravity_refstate-crust.xmf,1204,1.2253e-06,7.23474e-06,0,3.3836e-06,-1.04744e+09,-1.04702e+09,-1.04752e+09,232115,0.0242854,0.132937,0,0.135137,-15418.7,-38149.1,-0,41147.2,232115
step02_gravity_refstate-crust.xmf,1205,1.37867e-06,7.43929e-06,0,3.74341e-06,-1.04127e+09,-1.04086e+09,-1.04137e+09,256798,0.0255026,0.142746,0,0.145006,-14361,-37925.8,-0,40553.7,256798
step02_gravity_refstate-crust.xmf,1206,9.08817e-07,6.28693e-06,0,1.95341e-06,-1.04358e+09,-1.04321e+09,-1.04364e+09,134004,0.01921,0.105034,0,0.106777,-20271.5,-38005.9,-0,43074.2,134004
step02_gravity_refstate-crust.xmf,1207,8.94211e-07,5.92214e-06,0,1.34014e-06,-1.07126e+09,-1.07091e+09,-1.07132e+09,91933.3,0.0163697,0.0829986,0,0.0845975,-24271.6,-39012.9,-0,45946.9,91933.3
step02_gravity_refstate-crust.xmf,1208,2.98297e-06,-1.10582e-06,0,-3.13119e-07,-1.41764e+08,-1.42044e+08,-1.41968e+08,-21480,0.00370424,0.320797,0,0.320818,1238.71,-5171.41,0,5317.69,21480
step02_gravity_refstate-crust.xmf,1209,3.31266e-06,-1.16483e-06,0,-3.51366e-07,-9.47176e+07,-9.50248e+07,-9.49448e+07,-24103.7,0.00696614,0.317979,0,0.318055,2081.16,-3459.89,0,4037.58,24103.7
step02_gravity_refstate-crust.xmf,1210,4.68688e-06,-5.59646e-06,0,-2.58728e-06,-5.49561e+08,-5.50266e+08,-5.49882e+08,-177488,0.0108951,0.356704,0,0.356871,2183.41,-20017.6,0,20136.3,177488
step02_gravity_refstate-crust.xmf,1211,5.32765e-06,-7.10978e-06,0,-4.39866e-06,-6.17485e+08,-6.18338e+08,-6.1785e+08,-301748,0.0165091,0.369453,0,0.369821,2708.49,-22490.7,0,22653.2,301748
step02_gravity_refstate-crust.xmf,1212,5.28401e-06,-6.77757e-06,0,-3.36736e-06,-5.94185e+08,-5.95012e+08,-5.94548e+08,-231001,0.0131306,0.366235,0,0.36647,2284.01,-21642.8,0,21763,231001
step02_gravity_refstate-crust.xmf,1213,5.6552e-06,-8.68773e-06,0,-7.02409e-06,-6.83594e+08,-6.84578e+08,-6.83982e+08,-481852,0.0229785,0.384414,0,0.3851,3146.38,-24896.4,0,25094.4,481852
step02_gravity_refstate-crust.xmf,1214,2.71635e-06,-1.66958e-06,0,-8.50003e-07,-2.94268e+08,-2.94569e+08,-2.94454e+08,-58310.2,0.00523496,0.327302,0,0.327343,1895,-10721.5,0,10887.7,58310.2
step02_gravity_refstate-crust.xmf,1215,4.17811e-06,-4.73463e-06,0,-2.77642e-06,-5.25314e+08,-5.25926e+08,-5.25601e+08,-190463,0.0121842,0.350034,0,0.350246,2672.64,-19134.2,0,19319.9,190463
step02_gravity_refstate-crust.xmf,1216,3.53755e-06,-3.40806e-06,0,-1.66927e-06,-4.4696e+08,-4.47436e+08,-4.47202e+08,-114512,0.00807116,0.340241,0,0.340337,2188.74,-16281,0,16427.5,114512
step02_gravity_refstate-crust.xmf,1217,3.65509e-06,-3.69687e-06,0,-2.23541e-06,-4.73845e+08,-4.74349e+08,-4.74095e+08,-153349,0.0104833,0.342188,0,0.342348,2671.7,-17259.8,0,17465.4,153349
step02_gravity_refstate-crust.xmf,1218,4.66787e-06,-9.03688e-06,0,-1.09896e-05,-7.47377e+08,-7.48317e+08,-7.47697e+08,-753884,0.0299606,0.396096,0,0.397228,3721.78,-27213.9,0,27467.2,753884
step02_gravity_refstate-crust.xmf,1219,-5.0401e-07,2.04999e-05,0,1.41391e-05,-9.97087e+08,-9.95646e+08,-9.97052e+08,969945,0.0394738,0.311358,0,0.31385,-4890.23,-36329.6,-0,36657.3,969945
step02_gravity_refstate-crust.xmf,1220,-2.96878e-06,2.47486e-05,0,1.68036e-05,-9.81234e+08,-9.79332e+08,-9.8103e+08,1.15273e+06,0.0354619,0.34669,0,0.348499,-4263.35,-35749.1,-0,36002.4,1.15273e+06
step02_gravity_refstate-crust.xmf,1221,6.82289e-07,1.75234e-05,0,1.2232e-05,-1.01119e+09,-1.01003e+09,-1.01124e+09,839117,0.0405827,0.280225,0,0.283148,-5641.21,-36843.2,-0,37272.6,839117
step02_gravity_refstate-crust.xmf,1222,1.78752e-06,1.37713e-05,0,9.81704e-06,-1.02763e+09,-1.02681e+09,-1.02776e+09,673449,0.0390913,0.239765,0,0.242931,-7035.9,-37440.6,-0,38095.9,673449
step02_gravity_refstate-crust.xmf,1223,2.06917e-06,9.26587e-06,0,6.16061e-06,-1.0373e+09,-1.0368e+09,-1.03744e+09,422618,0.0321998,0.184287,0,0.187079,-10351.9,-37786.6,-0,39178.9,422618
step02_gravity_refstate-crust.xmf,1224,2.16733e-06,9.96531e-06,0,6.8776e-06,-1.03627e+09,-1.03573e+09,-1.03642e+09,471803,0.0338682,0.195158,0,0.198075,-9545.99,-37750.5,-0,38938.8,471803
step02_gravity_refstate-crust.xmf,1225,1.0047e-06,7.36966e-06,0,3.30527e-06,-1.07278e+09,-1.07235e+09,-1.07285e+09,226742,0.0235319,0.120127,0,0.12241,-16295.7,-39071.2,-0,42333.3,226742
step02_gravity_refstate-crust.xmf,1226,8.98523e-07,6.26513e-06,0,1.82295e-06,-1.06204e+09,-1.06167e+09,-1.0621e+09,125055,0.0187457,0.0959385,0,0.0977528,-21350.8,-38677.9,-0,44179.6,125055
step02_gravity_refstate-crust.xmf,1227,8.92058e-07,6.07247e-06,0,1.54164e-06,-1.06703e+09,-1.06668e+09,-1.0671e+09,105757,0.0174329,0.088404,0,0.0901064,-22972.3,-38859.5,-0,45141.8,105757
step02_gravity_refstate-crust.xmf,1228,9.54373e-07,7.07417e-06,0,2.87398e-06,-1.07209e+09,-1.07167e+09,-1.07215e+09,197155,0.0224053,0.113029,0,0.115228,-17469.2,-39045.3,-0,42775.1,197155
step02_gravity_refstate-crust.xmf,1229,8.95779e-07,6.55896e-06,0,2.15602e-06,-1.07007e+09,-1.06968e+09,-1.07013e+09,147903,0.0201296,0.100327,0,0.102326,-19959.2,-38970.8,-0,43784.6,147903
step02_gravity_refstate-crust.xmf,1230,9.17661e-07,6.80492e-06,0,2.49071e-06,-1.07123e+09,-1.07083e+09,-1.0713e+09,170863,0.0212688,0.106372,0,0.108477,-18699,-39013.6,-0,43263.3,170863
step02_gravity_refstate-crust.xmf,1231,2.70014e-06,-1.27121e-06,0,-4.91715e-07,-2.20435e+08,-2.20707e+08,-2.2062e+08,-33731.6,0.00380729,0.324003,0,0.324025,1402.73,-8034.11,0,8155.64,33731.6
step02_gravity_refstate-crust.xmf,1232,2.73641e-06,-1.13031e-06,0,-6.45527e-07,-1.83055e+08,-1.8332e+08,-1.83242e+08,-44283.1,0.00617554,0.321348,0,0.321407,2220.9,-6673.61,0,7033.46,44283.1
step02_gravity_refstate-crust.xmf,1233,4.70399e-06,-1.78641e-06,0,8.17724e-09,446784,1542.2,124090,560.959,0.00936729,0.313209,0,0.313349,1971.11,0,0,1971.11,560.959
step02_gravity_refstate-crust.xmf,1234,3.79736e-06,-1.33888e-06,0,-3.08631e-07,-4.6929e+07,-4.72813e+07,-4.71895e+07,-21172.1,0.0117758,0.314372,0,0.314592,3022.53,-1721.79,0,3478.54,21172.1
step02_gravity_refstate-crust.xmf,1235,5.32663e-06,-7.63227e-06,0,-5.90486e-06,-6.51689e+08,-6.52578e+08,-6.52054e+08,-405074,0.0208749,0.374918,0,0.375499,3146.91,-23735.1,0,23942.8,405074
step02_gravity_refstate-crust.xmf,1236,4.72558e-06,-5.85506e-06,0,-3.48296e-06,-5.72132e+08,-5.72858e+08,-5.72456e+08,-238931,0.0142308,0.358834,0,0.359116,2700.98,-20839.1,0,21013.4,238931
step02_gravity_refstate-crust.xmf,1237,5.00451e-06,-7.5259e-06,0,-6.94608e-06,-6.67783e+08,-6.68642e+08,-6.68126e+08,-476501,0.0238452,0.375341,0,0.376097,3512.78,-24319.9,0,24572.3,476501
step02_gravity_refstate-crust.xmf,1238,5.28531e-06,-8.63231e-06,0,-8.19552e-06,-7.00802e+08,-7.01756e+08,-7.01164e+08,-562212,0.0258237,0.38574,0,0.386604,3453.86,-25521.4,0,25754.1,562212
step02_gravity_refstate-crust.xmf,1239,2.95473e-06,-2.27381e-06,0,-1.10277e-06,-3.59202e+08,-3.59561e+08,-3.59405e+08,-75650,0.00603365,0.331747,0,0.331801,1993.56,-13085.5,0,13236.5,75650
step02_gravity_refstate-crust.xmf,1240,2.73228e-06,-1.86885e-06,0,-1.30506e-06,-3.27593e+08,-3.27909e+08,-3.2778e+08,-89526.9,0.0075711,0.327974,0,0.328062,2660.54,-11934.5,0,12227.5,89526.9
step02_gravity_refstate-crust.xmf,1241,2.61165e-06,-1.37908e-06,0,-9.7734e-07,-2.58288e+08,-2.58562e+08,-2.58467e+08,-67045.5,0.00668621,0.324277,0,0.324346,2491.62,-9411.67,0,9735.9,67045.5
step02_gravity_refstate-crust.xmf,1242,3.7144e-06,-3.92399e-06,0,-2.90317e-06,-5.00211e+08,-5.00735e+08,-5.00466e+08,-199158,0.0132397,0.343732,0,0.343987,3180.67,-18219.6,0,18495.2,199158
step02_gravity_refstate-crust.xmf,1243,3.24864e-06,-2.93987e-06,0,-1.86407e-06,-4.25384e+08,-4.25809e+08,-4.25607e+08,-127875,0.00928989,0.336285,0,0.336413,2690.47,-15495.1,0,15727,127875
step02_gravity_refstate-crust.xmf,1244,3.04027e-06,-2.55764e-06,0,-1.67204e-06,-3.94185e+08,-3.94569e+08,-3.94393e+08,-114702,0.00869627,0.333126,0,0.333239,2708.82,-14359,0,14612.3,114702
step02_gravity_refstate-crust.xmf,1245,4.60561e-06,-8.03957e-06,0,-9.54907e-06,-7.18492e+08,-7.19359e+08,-7.18808e+08,-655066,0.0288026,0.385301,0,0.386376,3818.95,-26163.6,0,26440.8,655066
step02_gravity_refstate-crust.xmf,1246,3.92376e-06,-7.48535e-06,0,-1.07755e-05,-7.3668e+08,-7.37462e+08,-7.36949e+08,-739202,0.0309169,0.385834,0,0.387071,4066.22,-26823.8,0,27130.3,739202
step02_gravity_refstate-crust.xmf,1247,4.44713e-06,-1.05586e-05,0,-1.37375e-05,-7.86973e+08,-7.88002e+08,-7.87278e+08,-942392,0.0305312,0.410736,0,0.411869,3692.2,-28652.2,0,28889.1,942392
step02_gravity_refstate-crust.xmf,1248,3.33187e-06,-7.31247e-06,0,-1.20471e-05,-7.55286e+08,-7.56016e+08,-7.55515e+08,-826432,0.0321301,0.388245,0,0.389572,4185.82,-27499.1,0,27815.8,826432
step02_gravity_refstate-crust.xmf,1249,3.74133e-06,-8.69434e-06,0,-1.30391e-05,-7.73029e+08,-7.73882e+08,-7.73286e+08,-894482,0.0316285,0.399243,0,0.400494,3942.58,-28144.6,0,28419.4,894482
step02_gravity_refstate-crust.xmf,1250,4.97457e-06,-1.21456e-05,0,-1.43799e-05,-8.0001e+08,-8.01184e+08,-8.00351e+08,-986461,0.0293057,0.420381,0,0.421401,3542.79,-29126.5,0,29341.1,986461
step02_gravity_refstate-crust.xmf,1251,5.04063e-06,-1.45902e-05,0,-1.5401e-05,-8.241e+08,-8.25447e+08,-8.24446e+08,-1.05651e+06,0.026009,0.433398,0,0.434178,3497.18,-30000,0,30203.2,1.05651e+06
step02_gravity_refstate-crust.xmf,1252,-4.37338e-07,2.02042e-05,0,1.33943e-05,-1.01099e+09,-1.00958e+09,-1.01096e+09,918849,0.0406505,0.294727,0,0.297517,-5103.53,-36835.8,-0,37187.6,918849
step02_gravity_refstate-crust.xmf,1253,-2.66253e-06,2.56475e-05,0,1.59704e-05,-9.96251e+08,-9.94309e+08,-9.96069e+08,1.09557e+06,0.038472,0.331585,0,0.33381,-4299.58,-36298.5,-0,36552.2,1.09557e+06
step02_gravity_refstate-crust.xmf,1254,-4.33377e-06,2.8847e-05,0,1.63119e-05,-9.88103e+08,-9.85826e+08,-9.87805e+08,1.11899e+06,0.0361441,0.350523,0,0.352382,-4000,-36000,-0,36221.5,1.11899e+06
step02_gravity_refstate-crust.xmf,1255,1.29005e-06,1.54961e-05,0,1.08236e-05,-1.0271e+09,-1.02613e+09,-1.02719e+09,742496,0.0400396,0.252512,0,0.255667,-6420.86,-37422,-0,37968.8,742496
step02_gravity_refstate-crust.xmf,1256,5.50729e-07,1.75689e-05,0,1.18445e-05,-1.02598e+09,-1.02482e+09,-1.02602e+09,812533,0.0406082,0.266085,0,0.269166,-5834.17,-37381.4,-0,37834,812533
step02_gravity_refstate-crust.xmf,1257,2.04642e-06,1.25463e-05,0,8.98028e-06,-1.02718e+09,-1.02646e+09,-1.02732e+09,616047,0.0380722,0.229942,0,0.233073,-7570.84,-37423.1,-0,38181.2,616047
step02_gravity_refstate-crust.xmf,1258,2.12891e-06,1.08323e-05,0,7.64441e-06,-1.03622e+09,-1.03562e+09,-1.03636e+09,524407,0.0354638,0.205929,0,0.20896,-8795.55,-37749.9,-0,38761,524407
step02_gravity_refstate-crust.xmf,1259,2.0676e-06,1.1973e-05,0,8.56154e-06,-1.03678e+09,-1.0361e+09,-1.03692e+09,587322,0.0369562,0.21703,0,0.220154,-8071.57,-37771.9,-0,38624.7,587322
step02_gravity_refstate-crust.xmf,1260,1.71905e-06,9.45105e-06,0,6.25073e-06,-1.05753e+09,-1.057e+09,-1.05765e+09,428800,0.0308942,0.171769,0,0.174525,-10826.9,-38522.1,-0,40014.7,428800
step02_gravity_refstate-crust.xmf,1261,1.62142e-06,8.81691e-06,0,5.523e-06,-1.05708e+09,-1.05659e+09,-1.05719e+09,378878,0.0294015,0.161969,0,0.164616,-11753.5,-38504.4,-0,40258.3,378878
step02_gravity_refstate-crust.xmf,1262,1.46718e-06,8.31234e-06,0,4.85113e-06,-1.05833e+09,-1.05786e+09,-1.05843e+09,332787,0.0278065,0.151476,0,0.154007,-12792.7,-38548.4,-0,40615.7,332787
step02_gravity_refstate-crust.xmf,1263,1.33258e-06,7.91595e-06,0,4.28428e-06,-1.05893e+09,-1.05847e+09,-1.05902e+09,293902,0.026426,0.142495,0,0.144925,-13794.3,-38568.9,-0,40961.5,293902
step02_gravity_refstate-crust.xmf,1264,1.19809e-06,7.59415e-06,0,3.79695e-06,-1.05982e+09,-1.05938e+09,-1.0599e+09,260471,0.0252003,0.134435,0,0.136776,-14770.9,-38600.3,-0,41330,260471
step02_gravity_refstate-crust.xmf,1265,1.04216e-06,7.69153e-06,0,3.74735e-06,-1.07511e+09,-1.07465e+09,-1.07518e+09,257068,0.0245027,0.12622,0,0.128576,-15307.5,-39156.5,-0,42042.2,257068
step02_gravity_refstate-crust.xmf,1266,2.86388e-06,-1.03109e-06,0,-7.40352e-07,-1.41574e+08,-1.41841e+08,-1.4177e+08,-50788.1,0.00907212,0.318242,0,0.318371,3073.02,-5164.12,0,6009.29,50788.1
step02_gravity_refstate-crust.xmf,1267,3.09992e-06,-1.06625e-06,0,-6.9916e-07,-9.43231e+07,-9.46089e+07,-9.45357e+07,-47962.4,0.0137714,0.313927,0,0.314229,4195.55,-3444.82,0,5428.57,47962.4
step02_gravity_refstate-crust.xmf,1268,4.98534e-06,-6.89414e-06,0,-5.6276e-06,-6.35709e+08,-6.36524e+08,-6.36051e+08,-386053,0.0206329,0.369204,0,0.36978,3298.66,-23153.1,0,23386.9,386053
step02_gravity_refstate-crust.xmf,1269,4.19348e-06,-4.93987e-06,0,-3.57014e-06,-5.49105e+08,-5.49732e+08,-5.49393e+08,-244912,0.0152311,0.351665,0,0.351994,3164.17,-20000,0,20248.8,244912
step02_gravity_refstate-crust.xmf,1270,4.65415e-06,-5.91763e-06,0,-4.44833e-06,-5.94034e+08,-5.94759e+08,-5.94353e+08,-305155,0.017636,0.360333,0,0.360764,3192.54,-21636.1,0,21870.3,305155
step02_gravity_refstate-crust.xmf,1271,4.53169e-06,-6.48381e-06,0,-6.68e-06,-6.51042e+08,-6.51798e+08,-6.51353e+08,-458248,0.0240379,0.367757,0,0.368541,3798.03,-23710.1,0,24012.4,458248
step02_gravity_refstate-crust.xmf,1272,4.47792e-06,-7.02059e-06,0,-8.05972e-06,-6.84778e+08,-6.85567e+08,-6.85085e+08,-552897,0.026896,0.374756,0,0.37572,3903,-24937.3,0,25240.9,552897
step02_gravity_refstate-crust.xmf,1273,2.55379e-06,-1.48723e-06,0,-1.44095e-06,-2.93114e+08,-2.93391e+08,-2.93289e+08,-98849.3,0.00900831,0.324215,0,0.32434,3329.61,-10679.1,0,11186.2,98849.3
step02_gravity_refstate-crust.xmf,1274,3.702e-06,-4.10859e-06,0,-3.62109e-06,-5.25382e+08,-5.25918e+08,-5.25636e+08,-248407,0.0161008,0.344826,0,0.345201,3665.96,-19135.7,0,19483.7,248407
step02_gravity_refstate-crust.xmf,1275,3.29014e-06,-3.09517e-06,0,-2.36303e-06,-4.48252e+08,-4.4869e+08,-4.48478e+08,-162104,0.0114921,0.337095,0,0.337291,3181.21,-16327.6,0,16634.6,162104
step02_gravity_refstate-crust.xmf,1276,3.30459e-06,-3.24566e-06,0,-2.9721e-06,-4.74632e+08,-4.75081e+08,-4.74858e+08,-203886,0.0140781,0.337897,0,0.33819,3697.18,-17287.8,0,17678.7,203886
step02_gravity_refstate-crust.xmf,1277,4.06884e-06,-1.16104e-05,0,-1.62217e-05,-8.12005e+08,-8.13081e+08,-8.12284e+08,-1.11281e+06,0.0291537,0.418707,0,0.419721,3749.01,-29560.4,0,29797.1,1.11281e+06
step02_gravity_refstate-crust.xmf,1278,2.88175e-06,-8.65175e-06,0,-1.54157e-05,-8.00009e+08,-8.008e+08,-8.00207e+08,-1.05752e+06,0.0311627,0.405557,0,0.406753,4013.31,-29123.4,0,29398.6,1.05752e+06
step02_gravity_refstate-crust.xmf,1279,-2.06358e-06,2.39414e-05,0,1.45125e-05,-1.01135e+09,-1.00956e+09,-1.01121e+09,995558,0.0399943,0.309819,0,0.31239,-4562.83,-36847.9,-0,37129.3,995558
step02_gravity_refstate-crust.xmf,1280,-5.87276e-06,3.14327e-05,0,1.49522e-05,-9.996e+08,-9.97041e+08,-9.99197e+08,1.02572e+06,0.0364067,0.346966,0,0.348871,-3744.1,-36416.4,-0,36608.3,1.02572e+06
step02_gravity_refstate-crust.xmf,1281,-6.85177e-06,3.46751e-05,0,1.45045e-05,-9.88135e+08,-9.85286e+08,-9.87665e+08,995012,0.0334069,0.368791,0,0.370301,-3499.28,-36000,-0,36169.7,995012
step02_gravity_refstate-crust.xmf,1282,-7.93558e-06,3.56754e-05,0,1.2894e-05,-1.00029e+09,-9.97296e+08,-9.99744e+08,884529,0.0327683,0.362172,0,0.363651,-3211.88,-36439.6,-0,36580.9,884529
step02_gravity_refstate-crust.xmf,1283,-8.27491e-06,3.80633e-05,0,1.21131e-05,-9.88149e+08,-9.8497e+08,-9.87581e+08,830956,0.0296702,0.384358,0,0.385502,-2999.32,-36000,-0,36124.7,830956
step02_gravity_refstate-crust.xmf,1284,-9.21583e-06,3.86036e-05,0,1.05966e-05,-1.00029e+09,-9.97013e+08,-9.99661e+08,726926,0.028245,0.37568,0,0.376741,-2682.75,-36439.2,-0,36537.8,726926
step02_gravity_refstate-crust.xmf,1285,-9.18635e-06,4.03951e-05,0,9.8351e-06,-9.88151e+08,-9.8475e+08,-9.87521e+08,674688,0.0253471,0.397269,0,0.398077,-2499.83,-36000,-0,36086.7,674688
step02_gravity_refstate-crust.xmf,1286,-9.97217e-06,4.05875e-05,0,8.46676e-06,-9.99776e+08,-9.96308e+08,-9.99092e+08,580820,0.0234701,0.386831,0,0.387542,-2186.46,-36420.3,-0,36485.9,580820
step02_gravity_refstate-crust.xmf,1287,-9.7817e-06,4.20553e-05,0,7.68789e-06,-9.88146e+08,-9.8459e+08,-9.87475e+08,527389,0.020634,0.407658,0,0.40818,-2000,-36000,-0,36055.5,527389
step02_gravity_refstate-crust.xmf,1288,-1.0335e-05,4.20562e-05,0,6.61833e-06,-9.97166e+08,-9.93571e+08,-9.96457e+08,454018,0.0187015,0.398391,0,0.39883,-1732.68,-36326.1,-0,36367.4,454018
step02_gravity_refstate-crust.xmf,1289,-1.01881e-05,4.32221e-05,0,5.67154e-06,-9.88142e+08,-9.84478e+08,-9.87443e+08,389068,0.0156641,0.415622,0,0.415917,-1500.17,-36000,-0,36031.2,389068
step02_gravity_refstate-crust.xmf,1290,-1.07932e-05,4.28556e-05,0,4.91119e-06,-9.99204e+08,-9.95524e+08,-9.98464e+08,336907,0.0141712,0.400971,0,0.401221,-1292.55,-36399.7,-0,36422.7,336907
step02_gravity_refstate-crust.xmf,1291,-1.04604e-05,4.40078e-05,0,3.73046e-06,-9.88139e+08,-9.84402e+08,-9.87421e+08,255910,0.0105307,0.421243,0,0.421374,-1000.68,-36000,-0,36013.9,255910
step02_gravity_refstate-crust.xmf,1292,-4.59818e-07,1.99723e-05,0,1.27619e-05,-1.02509e+09,-1.02369e+09,-1.02506e+09,875466,0.0406748,0.279345,0,0.282291,-5298.83,-37348.5,-0,37722.5,875466
step02_gravity_refstate-crust.xmf,1293,1.6396e-06,1.36518e-05,0,9.62861e-06,-1.04243e+09,-1.0416e+09,-1.04254e+09,660523,0.0380011,0.226454,0,0.229621,-7357.81,-37978.4,-0,38684.5,660523
step02_gravity_refstate-crust.xmf,1294,1.13081e-06,1.53959e-05,0,1.05575e-05,-1.04302e+09,-1.04204e+09,-1.0431e+09,724243,0.0388578,0.237962,0,0.241114,-6702.49,-38000.6,-0,38587.2,724243
step02_gravity_refstate-crust.xmf,1295,1.80237e-06,1.01929e-05,0,7.01812e-06,-1.05676e+09,-1.05618e+09,-1.05688e+09,481443,0.0324411,0.18241,0,0.185273,-9947.46,-38495.3,-0,39759.8,481443
step02_gravity_refstate-crust.xmf,1296,1.80212e-06,1.10612e-05,0,7.78777e-06,-1.05574e+09,-1.0551e+09,-1.05586e+09,534241,0.0338932,0.192956,0,0.19591,-9160.16,-38459.7,-0,39535.5,534241
step02_gravity_refstate-crust.xmf,1297,1.06585e-06,8.05848e-06,0,4.24969e-06,-1.07645e+09,-1.07597e+09,-1.07652e+09,291529,0.0255388,0.13343,0,0.135852,-14285.6,-39205.9,-0,41727.5,291529
step02_gravity_refstate-crust.xmf,1298,2.56902e-06,-1.15364e-06,0,-1.05903e-06,-2.20496e+08,-2.20751e+08,-2.20672e+08,-72649.5,0.0083561,0.321227,0,0.321336,3129.11,-8035.98,0,8623.71,72649.5
step02_gravity_refstate-crust.xmf,1299,2.58183e-06,-1.01307e-06,0,-1.10537e-06,-1.8279e+08,-1.83037e+08,-1.82968e+08,-75828.3,0.0106698,0.317879,0,0.318058,3909.85,-6663.55,0,7725.92,75828.3
step02_gravity_refstate-crust.xmf,1300,4.44085e-06,-1.68918e-06,0,1.05823e-09,421677,1156.17,117034,72.5948,0.0183906,0.309958,0,0.310503,3942.22,0,0,3942.22,72.5948
step02_gravity_refstate-crust.xmf,1301,3.54461e-06,-1.23983e-06,0,-4.58667e-07,-4.60336e+07,-4.63618e+07,-4.62767e+07,-31464.5,0.0188538,0.309938,0,0.310511,4937.72,-1688.32,0,5218.38,31464.5
step02_gravity_refstate-crust.xmf,1302,4.40474e-06,-5.81058e-06,0,-5.47846e-06,-6.1472e+08,-6.15421e+08,-6.15023e+08,-375823,0.0211586,0.360616,0,0.361237,3697.3,-22388.3,0,22691.6,375823
step02_gravity_refstate-crust.xmf,1303,4.10185e-06,-5.01646e-06,0,-4.43206e-06,-5.72005e+08,-5.72631e+08,-5.72287e+08,-304039,0.018396,0.35263,0,0.35311,3646.2,-20833.3,0,21149.9,304039
step02_gravity_refstate-crust.xmf,1304,3.93068e-06,-6.01891e-06,0,-7.83145e-06,-6.70078e+08,-6.7076e+08,-6.70347e+08,-537237,0.0273607,0.366269,0,0.367289,4263.44,-24401.4,0,24771.1,537237
step02_gravity_refstate-crust.xmf,1305,4.23983e-06,-7.0294e-06,0,-8.84577e-06,-6.99778e+08,-7.00551e+08,-7.00069e+08,-606820,0.028533,0.376557,0,0.377636,4038.97,-25482.4,0,25800.5,606820
step02_gravity_refstate-crust.xmf,1306,2.73759e-06,-2.02517e-06,0,-1.81487e-06,-3.5934e+08,-3.59667e+08,-3.59528e+08,-124500,0.00998872,0.328249,0,0.328401,3382.58,-13090.1,0,13520.1,124500
step02_gravity_refstate-crust.xmf,1307,2.50344e-06,-1.60569e-06,0,-1.90939e-06,-3.26461e+08,-3.26742e+08,-3.26632e+08,-130984,0.0112108,0.323896,0,0.32409,4056.11,-11892.8,0,12565.4,130984
step02_gravity_refstate-crust.xmf,1308,2.43302e-06,-1.19795e-06,0,-1.51166e-06,-2.57547e+08,-2.57796e+08,-2.57714e+08,-103700,0.0105074,0.320575,0,0.320747,4007.01,-9384.26,0,10203.9,103700
step02_gravity_refstate-crust.xmf,1309,3.25386e-06,-3.32267e-06,0,-3.63717e-06,-5.00668e+08,-5.0112e+08,-5.00892e+08,-249510,0.0168207,0.338284,0,0.338702,4202.9,-18235.4,0,18713.4,249510
step02_gravity_refstate-crust.xmf,1310,2.97749e-06,-2.56439e-06,0,-2.39495e-06,-4.20402e+08,-4.20782e+08,-4.20606e+08,-164294,0.0120945,0.332442,0,0.332662,3632.09,-15313.2,0,15738.1,164294
step02_gravity_refstate-crust.xmf,1311,3.53128e-06,-6.52632e-06,0,-1.02913e-05,-7.24297e+08,-7.24987e+08,-7.24539e+08,-705983,0.0311269,0.378014,0,0.379294,4304.64,-26372.9,0,26721.9,705983
step02_gravity_refstate-crust.xmf,1312,2.62571e-06,-5.57693e-06,0,-1.13395e-05,-7.41116e+08,-7.41678e+08,-7.41296e+08,-777891,0.0327791,0.376294,0,0.377719,4573.68,-26983,0,27367.9,777891
step02_gravity_refstate-crust.xmf,1313,2.25807e-06,-6.82081e-06,0,-1.42529e-05,-7.86172e+08,-7.86795e+08,-7.86327e+08,-977751,0.0324775,0.394056,0,0.395392,4265.07,-28620,0,28936,977751
step02_gravity_refstate-crust.xmf,1314,1.83978e-06,-5.47151e-06,0,-1.31845e-05,-7.71604e+08,-7.72106e+08,-7.7173e+08,-904457,0.0333017,0.383198,0,0.384642,4541.75,-28090,0,28454.8,904457
step02_gravity_refstate-crust.xmf,1315,1.95526e-06,-7.86676e-06,0,-1.8071e-05,-8.24157e+08,-8.24831e+08,-8.24291e+08,-1.23967e+06,0.027931,0.413523,0,0.414465,4000,-30000,0,30265.5,1.23967e+06
step02_gravity_refstate-crust.xmf,1316,-1.10328e-05,4.35223e-05,0,2.91423e-06,-9.99458e+08,-9.95716e+08,-9.98701e+08,199916,0.00858886,0.405078,0,0.405169,-777.299,-36409,-0,36417.3,199916
step02_gravity_refstate-crust.xmf,1317,-1.05437e-05,4.44393e-05,0,1.85316e-06,-9.8813e+08,-9.84358e+08,-9.87406e+08,127127,0.00529266,0.424594,0,0.424627,-500.717,-36000,-0,36003.5,127127
step02_gravity_refstate-crust.xmf,1318,-1.81277e-06,2.27742e-05,0,1.3413e-05,-1.02519e+09,-1.0235e+09,-1.02506e+09,920129,0.0401284,0.291657,0,0.294405,-4801.19,-37350.9,-0,37658.2,920129
step02_gravity_refstate-crust.xmf,1319,3.85336e-07,1.74997e-05,0,1.14608e-05,-1.04188e+09,-1.04071e+09,-1.04191e+09,786208,0.0394657,0.25123,0,0.254311,-6053.54,-37959.5,-0,38439.1,786208
step02_gravity_refstate-crust.xmf,1320,-6.7706e-07,2.00563e-05,0,1.22733e-05,-1.04051e+09,-1.03909e+09,-1.04047e+09,841951,0.0395424,0.265212,0,0.268144,-5425.81,-37909.2,-0,38295.5,841951
step02_gravity_refstate-crust.xmf,1321,1.6371e-06,1.21692e-05,0,8.60512e-06,-1.05665e+09,-1.05593e+09,-1.05676e+09,590311,0.0350695,0.202902,0,0.20591,-8421.61,-38493.8,-0,39404.3,590311
step02_gravity_refstate-crust.xmf,1322,1.25866e-06,1.04399e-05,0,7.04389e-06,-1.07748e+09,-1.07685e+09,-1.07756e+09,483211,0.0299735,0.169137,0,0.171772,-10416.9,-39247.8,-0,40606.7,483211
step02_gravity_refstate-crust.xmf,1323,1.24387e-06,9.66804e-06,0,6.24664e-06,-1.07769e+09,-1.07711e+09,-1.07778e+09,428519,0.0288342,0.159248,0,0.161837,-11341.7,-39254.5,-0,40860.1,428519
step02_gravity_refstate-crust.xmf,1324,1.1962e-06,9.04347e-06,0,5.52104e-06,-1.07784e+09,-1.07731e+09,-1.07793e+09,378743,0.027698,0.149947,0,0.152484,-12293.2,-39258.8,-0,41138.5,378743
step02_gravity_refstate-crust.xmf,1325,1.13161e-06,8.52722e-06,0,4.86153e-06,-1.07801e+09,-1.0775e+09,-1.07809e+09,333501,0.0265664,0.141078,0,0.143558,-13285.5,-39263.9,-0,41450.7,333501
step02_gravity_refstate-crust.xmf,1326,2.66881e-06,-9.22311e-07,0,-1.09809e-06,-1.43239e+08,-1.43485e+08,-1.43422e+08,-75329,0.0136914,0.31415,0,0.314448,4757.83,-5224.12,0,7066,75329
step02_gravity_refstate-crust.xmf,1327,3.02628e-06,-1.01837e-06,0,-7.73308e-07,-7.63767e+07,-7.66541e+07,-7.65843e+07,-53048.9,0.0197196,0.308472,0,0.309101,5825.16,-2791.24,0,6459.37,53048.9
step02_gravity_refstate-crust.xmf,1328,4.04805e-06,-5.54934e-06,0,-6.4403e-06,-6.3355e+08,-6.34208e+08,-6.33828e+08,-441804,0.0242743,0.360119,0,0.360937,4137.09,-23072.8,0,23440.8,441804
step02_gravity_refstate-crust.xmf,1329,3.61224e-06,-4.16322e-06,0,-4.36878e-06,-5.49157e+08,-5.49691e+08,-5.49405e+08,-299698,0.0189363,0.345451,0,0.345969,4113.14,-20000.8,0,20419.3,299698
step02_gravity_refstate-crust.xmf,1330,3.8883e-06,-4.86912e-06,0,-5.31355e-06,-5.93534e+08,-5.94135e+08,-5.93801e+08,-364510,0.0215187,0.352769,0,0.353425,4108.78,-21616.4,0,22003.4,364510
step02_gravity_refstate-crust.xmf,1331,3.50059e-06,-5.03347e-06,0,-7.42494e-06,-6.52473e+08,-6.53058e+08,-6.52713e+08,-509351,0.0273349,0.358352,0,0.359393,4594.48,-23760.3,0,24200.4,509351
step02_gravity_refstate-crust.xmf,1332,3.29126e-06,-5.48873e-06,0,-8.94195e-06,-6.91031e+08,-6.91634e+08,-6.91257e+08,-613418,0.0300388,0.365677,0,0.366909,4598.65,-25162.5,0,25579.3,613418
step02_gravity_refstate-crust.xmf,1333,3.39212e-06,-6.05087e-06,0,-9.73262e-06,-7.108e+08,-7.11447e+08,-7.11032e+08,-667658,0.0308019,0.372388,0,0.373659,4443.68,-25881.7,0,26260.4,667658
step02_gravity_refstate-crust.xmf,1334,2.31927e-06,-1.23467e-06,0,-1.97272e-06,-2.92839e+08,-2.93083e+08,-2.92998e+08,-135328,0.0125229,0.319628,0,0.319874,4772.61,-10668.6,0,11687.4,135328
step02_gravity_refstate-crust.xmf,1335,3.16052e-06,-3.39441e-06,0,-4.30894e-06,-5.26224e+08,-5.26674e+08,-5.26441e+08,-295593,0.0194525,0.338605,0,0.339163,4630.76,-19165.2,0,19716.8,295593
step02_gravity_refstate-crust.xmf,1336,2.93771e-06,-2.63714e-06,0,-2.99241e-06,-4.47419e+08,-4.47802e+08,-4.47621e+08,-205279,0.0147349,0.33234,0,0.332667,4231.57,-16296.5,0,16837,205279
step02_gravity_refstate-crust.xmf,1337,2.84032e-06,-2.64413e-06,0,-3.63674e-06,-4.75049e+08,-4.75425e+08,-4.75244e+08,-249481,0.017483,0.3319,0,0.33236,4799.48,-17302,0,17955.4,249481
step02_gravity_refstate-crust.xmf,1338,2.69565e-06,-2.11156e-06,0,-2.38782e-06,-3.89658e+08,-3.89988e+08,-3.89843e+08,-163805,0.0126534,0.327856,0,0.3281,4123.16,-14193.5,0,14780.3,163805
step02_gravity_refstate-crust.xmf,1339,1.53025e-06,-4.38661e-06,0,-1.21946e-05,-7.56332e+08,-7.56738e+08,-7.56437e+08,-836549,0.0337584,0.372843,0,0.374369,4846.53,-27534.4,0,27957.7,836549
step02_gravity_refstate-crust.xmf,1340,2.35274e-06,-4.73528e-06,0,-1.05966e-05,-7.25549e+08,-7.26035e+08,-7.2571e+08,-726928,0.032772,0.367804,0,0.369261,4842.26,-26416.5,0,26856.7,726928
step02_gravity_refstate-crust.xmf,1341,6.22579e-07,-5.10104e-06,0,-1.65441e-05,-8.15264e+08,-8.15657e+08,-8.15307e+08,-1.13493e+06,0.0300446,0.39959,0,0.400718,4295.59,-29675.1,0,29984.4,1.13493e+06
step02_gravity_refstate-crust.xmf,1342,4.19759e-07,-4.14269e-06,0,-1.49961e-05,-8.00032e+08,-8.00345e+08,-8.00061e+08,-1.02873e+06,0.0320994,0.387302,0,0.38863,4573.57,-29121.3,0,29478.2,1.02873e+06
step02_gravity_refstate-crust.xmf,1343,-1.10374e-05,4.38649e-05,0,1.35545e-06,-9.98256e+08,-9.9449e+08,-9.97499e+08,92983.7,0.00405314,0.408947,0,0.408967,-367.066,-36365.8,-0,36367.6,92983.7
step02_gravity_refstate-crust.xmf,1344,-1.06353e-05,4.45919e-05,0,-1.0301e-08,-9.88133e+08,-9.84345e+08,-9.87404e+08,-706.648,3.15409e-08,0.425709,0,0.425709,0,-36000,0,36000,706.648
step02_gravity_refstate-crust.xmf,1345,-4.62857e-06,2.87322e-05,0,1.45658e-05,-1.01232e+09,-1.01003e+09,-1.01201e+09,999213,0.0380839,0.325594,0,0.327814,-3990.84,-36880.4,-0,37095.7,999213
step02_gravity_refstate-crust.xmf,1346,-3.64401e-06,2.65146e-05,0,1.37599e-05,-1.02553e+09,-1.02346e+09,-1.02528e+09,943933,0.0386531,0.305099,0,0.307538,-4261.26,-37361.8,-0,37604,943933
step02_gravity_refstate-crust.xmf,1347,-6.94289e-06,3.29119e-05,0,1.32478e-05,-1.01263e+09,-1.00989e+09,-1.01215e+09,908799,0.0349592,0.340276,0,0.342067,-3451.99,-36888.6,-0,37049.8,908799
step02_gravity_refstate-crust.xmf,1348,-8.68224e-06,3.64076e-05,0,1.12545e-05,-1.01281e+09,-1.00972e+09,-1.01221e+09,772057,0.030588,0.353815,0,0.355135,-2893.82,-36893.6,-0,37006.9,772057
step02_gravity_refstate-crust.xmf,1349,-1.06848e-05,4.11624e-05,0,6.52744e-06,-1.01e+09,-1.00645e+09,-1.00927e+09,447782,0.0189177,0.379487,0,0.379959,-1703.26,-36790.7,-0,36830.1,447782
step02_gravity_refstate-crust.xmf,1350,-9.90328e-06,3.90767e-05,0,8.86216e-06,-1.0131e+09,-1.00974e+09,-1.01242e+09,607944,0.0249994,0.365661,0,0.366515,-2291.87,-36903.4,-0,36974.5,607944
step02_gravity_refstate-crust.xmf,1351,-1.11561e-05,4.22667e-05,0,4.07164e-06,-1.01149e+09,-1.00783e+09,-1.01073e+09,279315,0.0121034,0.384167,0,0.384358,-1073.61,-36844.6,-0,36860.3,279315
step02_gravity_refstate-crust.xmf,1352,-1.55688e-06,2.20978e-05,0,1.28534e-05,-1.03673e+09,-1.0351e+09,-1.03662e+09,881742,0.039489,0.277595,0,0.280389,-4995.2,-37771,-0,38099.9,881742
step02_gravity_refstate-crust.xmf,1353,1.37757e-06,1.35312e-05,0,9.47823e-06,-1.05871e+09,-1.05787e+09,-1.0588e+09,650207,0.0358735,0.212351,0,0.21536,-7726.51,-38569.9,-0,39336.2,650207
step02_gravity_refstate-crust.xmf,1354,8.86942e-07,1.52698e-05,0,1.03675e-05,-1.05979e+09,-1.0588e+09,-1.05985e+09,711209,0.0365147,0.223218,0,0.226185,-7009.7,-38610,-0,39241.1,711209
step02_gravity_refstate-crust.xmf,1355,2.66207e-07,1.71825e-05,0,1.11283e-05,-1.05808e+09,-1.05692e+09,-1.0581e+09,763401,0.0371749,0.23557,0,0.238485,-6342.89,-38548.1,-0,39066.5,763401
step02_gravity_refstate-crust.xmf,1356,1.1693e-06,1.14894e-05,0,7.97054e-06,-1.07768e+09,-1.07697e+09,-1.07776e+09,546779,0.0310711,0.180032,0,0.182693,-9467.9,-39256.6,-0,40382.2,546779
step02_gravity_refstate-crust.xmf,1357,1.28627e-06,1.21408e-05,0,8.52323e-06,-1.07091e+09,-1.07016e+09,-1.071e+09,584694,0.0328137,0.191269,0,0.194063,-8807.2,-39011.5,-0,39993.3,584694
step02_gravity_refstate-crust.xmf,1358,2.36814e-06,-9.77137e-07,0,-1.53943e-06,-2.2086e+08,-2.21089e+08,-2.21022e+08,-105605,0.0123375,0.316842,0,0.317083,4742.56,-8048.68,0,9342.01,105605
step02_gravity_refstate-crust.xmf,1359,2.36318e-06,-8.51305e-07,0,-1.49673e-06,-1.82813e+08,-1.83033e+08,-1.82975e+08,-102676,0.0146897,0.312901,0,0.313246,5535.88,-6663.73,0,8663.21,102676
step02_gravity_refstate-crust.xmf,1360,2.75152e-06,-9.12887e-07,0,-1.03224e-06,-1.11705e+08,-1.11957e+08,-1.11894e+08,-70811.4,0.0172285,0.310343,0,0.310821,5635.12,-4076.46,0,6955.01,70811.4
step02_gravity_refstate-crust.xmf,1361,4.02183e-06,-1.5311e-06,0,-3.75526e-09,381833,901.832,105936,-257.611,0.0267574,0.3047,0,0.305873,5915.08,0,0,5915.08,257.611
step02_gravity_refstate-crust.xmf,1362,3.12226e-06,-1.08497e-06,0,-5.99506e-07,-4.90446e+07,-4.93333e+07,-4.92588e+07,-41126.1,0.0251899,0.303584,0,0.304627,6912.27,-1796.47,0,7141.9,41126.1
step02_gravity_refstate-crust.xmf,1363,3.55109e-06,-4.61943e-06,0,-6.19657e-06,-6.14193e+08,-6.14754e+08,-6.14437e+08,-425085,0.0245015,0.352128,0,0.352979,4546.79,-22367.5,0,22825,425085
step02_gravity_refstate-crust.xmf,1364,3.41022e-06,-4.07828e-06,0,-5.16846e-06,-5.72338e+08,-5.72852e+08,-5.72572e+08,-354557,0.0218536,0.345362,0,0.346053,4561.78,-20844,0,21337.4,354557
step02_gravity_refstate-crust.xmf,1365,2.80946e-06,-4.41675e-06,0,-8.3876e-06,-6.72068e+08,-6.72564e+08,-6.72261e+08,-575389,0.0300237,0.355925,0,0.357189,5013.18,-24471.8,0,24980,575389
step02_gravity_refstate-crust.xmf,1366,2.43738e-06,-1.66617e-06,0,-2.4129e-06,-3.58382e+08,-3.58664e+08,-3.58549e+08,-165525,0.0134697,0.323201,0,0.323482,4735.06,-13054.5,0,13886.8,165525
step02_gravity_refstate-crust.xmf,1367,2.21977e-06,-1.28399e-06,0,-2.41914e-06,-3.26243e+08,-3.26484e+08,-3.26396e+08,-165953,0.0144044,0.318607,0,0.318933,5409.71,-11884.2,0,13057.5,165953
step02_gravity_refstate-crust.xmf,1368,2.18222e-06,-9.52615e-07,0,-1.9938e-06,-2.5789e+08,-2.58105e+08,-2.5804e+08,-136775,0.014082,0.315258,0,0.315573,5554.98,-9396.1,0,10915.3,136775
step02_gravity_refstate-crust.xmf,1369,2.72817e-06,-2.64313e-06,0,-4.25153e-06,-5.02597e+08,-5.02965e+08,-5.02784e+08,-291655,0.0199937,0.331731,0,0.332333,5232.6,-18304.5,0,19037.7,291655
step02_gravity_refstate-crust.xmf,1370,2.61284e-06,-2.09819e-06,0,-2.98403e-06,-4.18899e+08,-4.19222e+08,-4.19078e+08,-204704,0.0153131,0.32703,0,0.327388,4800.26,-15257.8,0,15995.1,204704
step02_gravity_refstate-crust.xmf,1371,1.29148e-06,-3.4362e-06,0,-1.13078e-05,-7.41011e+08,-7.41335e+08,-7.411e+08,-775718,0.0339232,0.363495,0,0.365075,5159.95,-26977.2,0,27466.2,775718
step02_gravity_refstate-crust.xmf,1372,2.88603e-07,-3.28616e-06,0,-1.37804e-05,-7.85735e+08,-7.8598e+08,-7.85754e+08,-945335,0.0332521,0.376777,0,0.378242,4854.4,-28601.5,0,29010.6,945335
step02_gravity_refstate-crust.xmf,1373,2.03459e-07,-2.56976e-06,0,-1.27099e-05,-7.71019e+08,-7.71209e+08,-7.71033e+08,-871900,0.0339363,0.367027,0,0.368592,5152.43,-28066.6,0,28535.6,871900
step02_gravity_refstate-crust.xmf,1374,2.92947e-07,-3.88939e-06,0,-1.73189e-05,-8.30216e+08,-8.30503e+08,-8.30236e+08,-1.18808e+06,0.0266595,0.402207,0,0.40309,4294.63,-30220,0,30523.6,1.18808e+06
step02_gravity_refstate-crust.xmf,1375,1.93496e-06,-5.7791e-06,0,-2.02816e-05,-8.37867e+08,-8.38396e+08,-8.37999e+08,-1.39132e+06,0.0238461,0.417252,0,0.417933,4000,-30502.3,0,30763.4,1.39132e+06
step02_gravity_refstate-crust.xmf,1376,-1.13737e-05,4.29422e-05,0,1.83156e-06,-1.01062e+09,-1.00689e+09,-1.00984e+09,125645,0.00548095,0.389131,0,0.38917,-483.437,-36813.1,-0,36816.2,125645
step02_gravity_refstate-crust.xmf,1377,-1.12109e-05,4.3725e-05,0,-2.04716e-08,-1.00185e+09,-9.98085e+08,-1.00108e+09,-1404.35,-2.2187e-07,0.403819,-0,0.403819,0,-36495.8,0,36495.8,1404.35
step02_gravity_refstate-crust.xmf,1378,-2.92967e-06,2.47074e-05,0,1.29015e-05,-1.03922e+09,-1.03732e+09,-1.03902e+09,885046,0.0381784,0.285749,0,0.288288,-4540.07,-37860.2,-0,38131.5,885046
step02_gravity_refstate-crust.xmf,1379,-5.65079e-07,1.94706e-05,0,1.18311e-05,-1.05474e+09,-1.05336e+09,-1.0547e+09,811611,0.0376588,0.249699,0,0.252523,-5689,-38426.7,-0,38845.5,811611
step02_gravity_refstate-crust.xmf,1380,-1.98799e-06,2.25731e-05,0,1.23159e-05,-1.05175e+09,-1.05006e+09,-1.05161e+09,844874,0.0372988,0.265876,0,0.26848,-4972.44,-38316.9,-0,38638.2,844874
step02_gravity_refstate-crust.xmf,1381,8.81753e-07,1.34924e-05,0,9.37666e-06,-1.07817e+09,-1.07731e+09,-1.07823e+09,643239,0.032298,0.196439,0,0.199076,-8166.13,-39276.5,-0,40116.4,643239
step02_gravity_refstate-crust.xmf,1382,2.42375e-06,-7.67255e-07,0,-1.39783e-06,-1.43716e+08,-1.43935e+08,-1.43882e+08,-95891.2,0.0177372,0.308766,0,0.309275,6352.55,-5240.74,0,8235.31,95891.2
step02_gravity_refstate-crust.xmf,1383,2.59539e-06,-8.26205e-07,0,-1.13093e-06,-1.00868e+08,-1.01102e+08,-1.01046e+08,-77582,0.0215861,0.304844,0,0.305607,7044.51,-3681.41,0,7948.45,77582
step02_gravity_refstate-crust.xmf,1384,3.08151e-06,-4.18705e-06,0,-7.05086e-06,-6.34084e+08,-6.34583e+08,-6.34296e+08,-483689,0.0272755,0.350559,0,0.351619,4969.25,-23090.5,0,23619.1,483689
step02_gravity_refstate-crust.xmf,1385,2.97386e-06,-3.3106e-06,0,-5.00582e-06,-5.50177e+08,-5.50609e+08,-5.50381e+08,-343399,0.022082,0.338254,0,0.338974,5051.35,-20036.7,0,20663.6,343399
step02_gravity_refstate-crust.xmf,1386,3.11749e-06,-3.80555e-06,0,-5.94597e-06,-5.94201e+08,-5.94676e+08,-5.94414e+08,-407894,0.0245637,0.34474,0,0.345614,4965.9,-21639.2,0,22201.7,407894
step02_gravity_refstate-crust.xmf,1387,2.46667e-06,-3.55642e-06,0,-7.86932e-06,-6.53874e+08,-6.54287e+08,-6.54043e+08,-539836,0.0297719,0.348032,0,0.349303,5379.92,-23809.4,0,24409.6,539836
step02_gravity_refstate-crust.xmf,1388,2.18538e-06,-4.1616e-06,0,-9.88477e-06,-7.0861e+08,-7.09046e+08,-7.0876e+08,-678095,0.0324911,0.360251,0,0.361713,5095.77,-25800.1,0,26298.5,678095
step02_gravity_refstate-crust.xmf,1389,1.95727e-06,-3.45263e-06,0,-9.20074e-06,-6.90818e+08,-6.91189e+08,-6.90952e+08,-631171,0.0321718,0.352198,0,0.353665,5417.29,-25152.5,0,25729.3,631171
step02_gravity_refstate-crust.xmf,1390,2.03689e-06,-9.39883e-07,0,-2.41584e-06,-2.93543e+08,-2.93747e+08,-2.93682e+08,-165727,0.0155959,0.313859,0,0.314246,6179.85,-10693.5,0,12350.8,165727
step02_gravity_refstate-crust.xmf,1391,2.58259e-06,-2.6245e-06,0,-4.84363e-06,-5.27657e+08,-5.28014e+08,-5.27834e+08,-332273,0.0222415,0.331526,0,0.332272,5575.71,-19216.3,0,20008.8,332273
step02_gravity_refstate-crust.xmf,1392,2.47947e-06,-2.04878e-06,0,-3.59524e-06,-4.48049e+08,-4.48359e+08,-4.48219e+08,-246633,0.0179847,0.325819,0,0.326315,5422.56,-16318.5,0,17195.9,246633
step02_gravity_refstate-crust.xmf,1393,2.24906e-06,-1.8921e-06,0,-4.27717e-06,-4.79815e+08,-4.80099e+08,-4.79969e+08,-293414,0.0209004,0.32397,0,0.324644,6052.59,-17474.3,0,18492.8,293414
step02_gravity_refstate-crust.xmf,1394,2.33512e-06,-1.66706e-06,0,-2.94348e-06,-3.88974e+08,-3.89249e+08,-3.89135e+08,-201922,0.0158227,0.32201,0,0.322399,5390.56,-14167.9,0,15158.7,201922
step02_gravity_refstate-crust.xmf,1395,1.87929e-07,-2.05091e-06,0,-1.17818e-05,-7.55925e+08,-7.56078e+08,-7.55938e+08,-808230,0.0342705,0.358512,0,0.360146,5443.85,-27517.8,0,28051.1,808230
step02_gravity_refstate-crust.xmf,1396,1.1246e-06,-2.77253e-06,0,-1.05392e-05,-7.25444e+08,-7.25711e+08,-7.25521e+08,-722992,0.03386,0.355196,0,0.356806,5470.4,-26410.8,0,26971.4,722992
step02_gravity_refstate-crust.xmf,1397,-3.11165e-07,-1.20142e-06,0,-1.7272e-05,-8.41726e+08,-8.41787e+08,-8.41705e+08,-1.18486e+06,0.0228673,0.395696,0,0.396356,4467.8,-30640.8,0,30964.8,1.18486e+06
step02_gravity_refstate-crust.xmf,1398,-1.24287e-06,-7.45105e-07,0,-1.36948e-05,-7.99015e+08,-7.98981e+08,-7.9893e+08,-939464,0.0319667,0.368171,0,0.369557,5175.49,-29082.8,0,29539.7,939464
step02_gravity_refstate-crust.xmf,1399,-1.32013e-06,-9.47893e-07,0,-1.46962e-05,-8.13111e+08,-8.13085e+08,-8.1302e+08,-1.00816e+06,0.0302031,0.377404,0,0.378611,4906.23,-29595.3,0,29999.2,1.00816e+06
step02_gravity_refstate-crust.xmf,1400,-1.23744e-06,-9.02782e-07,0,-1.55452e-05,-8.26997e+08,-8.26974e+08,-8.26912e+08,-1.0664e+06,0.0273763,0.385332,0,0.386303,4703.07,-30101.2,0,30466.4,1.0664e+06
step02_gravity_refstate-crust.xmf,1401,1.27235e-06,-2.5657e-06,0,-2.16196e-05,-8.51515e+08,-8.51778e+08,-8.51602e+08,-1.48311e+06,0.0188721,0.41935,0,0.419775,4000,-31001.4,0,31258.4,1.48311e+06
step02_gravity_refstate-crust.xmf,1402,-1.10135e-05,4.38759e-05,0,-1.33347e-06,-9.9808e+08,-9.94315e+08,-9.97325e+08,-91475.8,-0.00396423,0.409248,-0,0.409267,359.223,-36359.5,0,36361.3,91475.8
step02_gravity_refstate-crust.xmf,1403,-1.0598e-05,4.44464e-05,0,-1.85096e-06,-9.88135e+08,-9.84359e+08,-9.87408e+08,-126976,-0.0052925,0.424594,-0,0.424627,500.717,-36000,0,36003.5,126976
step02_gravity_refstate-crust.xmf,1404,-1.10411e-05,4.3523e-05,0,-2.81222e-06,-9.99747e+08,-9.96004e+08,-9.9899e+08,-192918,-0.00831462,0.404787,-0,0.404872,751.618,-36419.5,0,36427.3,192918
step02_gravity_refstate-crust.xmf,1405,-1.04627e-05,4.40081e-05,0,-3.72746e-06,-9.88139e+08,-9.84402e+08,-9.87421e+08,-255704,-0.0105311,0.421243,-0,0.421374,1000.68,-36000,0,36013.9,255704
step02_gravity_refstate-crust.xmf,1406,-5.82511e-06,3.04846e-05,0,1.31349e-05,-1.02575e+09,-1.02326e+09,-1.02535e+09,901054,0.0359888,0.31891,0,0.320934,-3699.81,-37367,-0,37549.7,901054
step02_gravity_refstate-crust.xmf,1407,-4.7281e-06,2.82098e-05,0,1.27048e-05,-1.0395e+09,-1.03724e+09,-1.03917e+09,871550,0.0360027,0.297917,0,0.300085,-3977.91,-37868.5,-0,38076.8,871550
step02_gravity_refstate-crust.xmf,1408,-7.72508e-06,3.39717e-05,0,1.16138e-05,-1.02571e+09,-1.02284e+09,-1.02518e+09,796710,0.0321606,0.331999,0,0.333553,-3134.06,-37363.2,-0,37494.4,796710
step02_gravity_refstate-crust.xmf,1409,-9.183e-06,3.68782e-05,0,9.66011e-06,-1.02559e+09,-1.02243e+09,-1.02496e+09,662684,0.0272979,0.343622,0,0.344705,-2558.07,-37357.6,-0,37445.1,662684
step02_gravity_refstate-crust.xmf,1410,-1.02216e-05,3.91106e-05,0,7.46841e-06,-1.02491e+09,-1.02152e+09,-1.02421e+09,512333,0.0216187,0.354084,0,0.354743,-1968.74,-37332,-0,37383.9,512333
step02_gravity_refstate-crust.xmf,1411,-1.12608e-05,4.15944e-05,0,3.04603e-06,-1.02369e+09,-1.02006e+09,-1.02292e+09,208958,0.00915383,0.367506,0,0.36762,-808.809,-37287.2,-0,37296,208958
step02_gravity_refstate-crust.xmf,1412,-1.08898e-05,4.06609e-05,0,5.20903e-06,-1.02427e+09,-1.02073e+09,-1.02352e+09,357340,0.01541,0.362145,0,0.362473,-1376.9,-37308.4,-0,37333.8,357340
step02_gravity_refstate-crust.xmf,1413,-5.01746e-07,1.87576e-05,0,1.14521e-05,-1.06851e+09,-1.06719e+09,-1.06847e+09,785616,0.0350619,0.234781,0,0.237384,-5991.29,-38927.1,-0,39385.4,785616
step02_gravity_refstate-crust.xmf,1414,4.53234e-07,1.52505e-05,0,1.02772e-05,-1.07844e+09,-1.07742e+09,-1.07847e+09,705019,0.0327669,0.207954,0,0.210519,-7329.27,-39287.1,-0,39965,705019
step02_gravity_refstate-crust.xmf,1415,-1.7491e-07,1.74123e-05,0,1.10494e-05,-1.07751e+09,-1.0763e+09,-1.07749e+09,757992,0.0330796,0.220732,0,0.223197,-6502.54,-39254,-0,39788.9,757992
step02_gravity_refstate-crust.xmf,1416,7.17296e-07,1.27495e-05,0,8.81513e-06,-1.08631e+09,-1.08548e+09,-1.08636e+09,604718,0.0302425,0.18414,0,0.186607,-8820.19,-39570.8,-0,40541.9,604718
step02_gravity_refstate-crust.xmf,1417,2.09881e-06,-7.44106e-07,0,-1.95798e-06,-2.21405e+08,-2.216e+08,-2.21549e+08,-134318,0.0160174,0.310733,0,0.311146,6392.01,-8067.81,0,10293.1,134318
step02_gravity_refstate-crust.xmf,1418,2.0913e-06,-6.52246e-07,0,-1.81936e-06,-1.82556e+08,-1.82744e+08,-1.82699e+08,-124808,0.0183167,0.306475,0,0.307022,7161.44,-6653.57,0,9775.29,124808
step02_gravity_refstate-crust.xmf,1419,3.4796e-06,-1.32667e-06,0,-1.0371e-08,330269,559.067,91568.4,-711.449,0.0342045,0.297644,0,0.299603,7895.49,0,0,7895.49,711.449
step02_gravity_refstate-crust.xmf,1420,2.63169e-06,-8.44031e-07,0,-9.44968e-07,-7.44122e+07,-7.46507e+07,-7.45928e+07,-64824.8,0.0257914,0.300496,0,0.3016,7907.27,-2718.39,0,8361.49,64824.8
step02_gravity_refstate-crust.xmf,1421,2.66779e-06,-3.37736e-06,0,-6.68469e-06,-6.14365e+08,-6.14779e+08,-6.14548e+08,-458570,0.0271878,0.342636,0,0.343713,5408.04,-22372.1,0,23016.5,458570
step02_gravity_refstate-crust.xmf,1422,2.63263e-06,-3.02592e-06,0,-5.75548e-06,-5.73669e+08,-5.74058e+08,-5.7385e+08,-394826,0.0248612,0.33661,0,0.337527,5530.63,-20891,0,21610.7,394826
step02_gravity_refstate-crust.xmf,1423,1.71422e-06,-2.77446e-06,0,-8.59248e-06,-6.72867e+08,-6.73175e+08,-6.72984e+08,-589444,0.0318058,0.34435,0,0.345816,5779.46,-24499,0,25171.5,589444
step02_gravity_refstate-crust.xmf,1424,2.09868e-06,-1.26361e-06,0,-2.8915e-06,-3.57951e+08,-3.58182e+08,-3.58095e+08,-198357,0.0163949,0.317137,0,0.317561,6029.26,-13038.1,0,14364.7,198357
step02_gravity_refstate-crust.xmf,1425,1.90649e-06,-9.2966e-07,0,-2.82424e-06,-3.26312e+08,-3.26506e+08,-3.26443e+08,-193743,0.0170887,0.312404,0,0.312871,6710.64,-11886,0,13649.5,193743
step02_gravity_refstate-crust.xmf,1426,1.82327e-06,-6.45883e-07,0,-2.46732e-06,-2.62487e+08,-2.62657e+08,-2.62612e+08,-169258,0.0176578,0.307499,0,0.308006,7335.02,-9562.48,0,12051.7,169258
step02_gravity_refstate-crust.xmf,1427,2.283e-06,-2.09946e-06,0,-4.7049e-06,-5.07946e+08,-5.08247e+08,-5.08103e+08,-322756,0.0223256,0.326008,0,0.326772,6054.09,-18498.3,0,19463.8,322756
step02_gravity_refstate-crust.xmf,1428,2.18181e-06,-1.55444e-06,0,-3.49604e-06,-4.18817e+08,-4.19073e+08,-4.18966e+08,-239828,0.0182515,0.320261,0,0.32078,6027.44,-15253.9,0,16401.5,239828
step02_gravity_refstate-crust.xmf,1429,1.24868e-07,-1.48019e-06,0,-1.09706e-05,-7.41209e+08,-7.41319e+08,-7.41218e+08,-752584,0.0343519,0.35041,0,0.35209,5758.3,-26982.7,0,27590.3,752584
step02_gravity_refstate-crust.xmf,1430,-1.15621e-06,-4.30599e-07,0,-1.26907e-05,-7.84458e+08,-7.84408e+08,-7.84379e+08,-870581,0.0330643,0.358746,0,0.360266,5487.79,-28553.6,0,29076.2,870581
step02_gravity_refstate-crust.xmf,1431,-9.8087e-07,-2.7022e-07,0,-1.18445e-05,-7.69683e+08,-7.69634e+08,-7.69616e+08,-812535,0.0337541,0.351346,0,0.352964,5761.08,-28016.7,0,28602.9,812535
step02_gravity_refstate-crust.xmf,1432,-4.912e-07,1.47443e-06,0,-1.79917e-05,-8.57751e+08,-8.57616e+08,-8.57717e+08,-1.23423e+06,0.0165449,0.393473,0,0.393821,4513.87,-31227.6,0,31552.1,1.23423e+06
step02_gravity_refstate-crust.xmf,1433,5.70478e-07,6.63721e-07,0,-2.25358e-05,-8.65196e+08,-8.65189e+08,-8.65235e+08,-1.54596e+06,0.0133331,0.41983,0,0.420042,4000,-31501.6,0,31754.6,1.54596e+06
step02_gravity_refstate-crust.xmf,1434,-1.08208e-05,4.28584e-05,0,-4.78434e-06,-9.99763e+08,-9.96081e+08,-9.99021e+08,-328206,-0.0138812,0.40042,-0,0.400661,1263.31,-36420,0,36441.9,328206
step02_gravity_refstate-crust.xmf,1435,-1.01599e-05,4.32635e-05,0,-5.63244e-06,-9.88137e+08,-9.84472e+08,-9.8744e+08,-386385,-0.0156634,0.415622,-0,0.415917,1500.17,-36000,0,36031.2,386385
step02_gravity_refstate-crust.xmf,1436,-1.13799e-05,4.19717e-05,0,1.32433e-06,-1.02334e+09,-1.01968e+09,-1.02256e+09,90849.2,0.00405569,0.369942,0,0.369965,-356.744,-37274.7,-0,37276.4,90849.2
step02_gravity_refstate-crust.xmf,1437,-1.14255e-05,4.26829e-05,0,1.05751e-08,-1.01613e+09,-1.01241e+09,-1.01534e+09,725.45,-4.05088e-07,0.381488,-0,0.381488,0,-37012.9,0,37012.9,725.45
step02_gravity_refstate-crust.xmf,1438,-1.13756e-05,4.3015e-05,0,-1.63527e-06,-1.01006e+09,-1.00633e+09,-1.00928e+09,-112180,-0.00489984,0.390191,-0,0.390222,432.345,-36792.7,0,36795.2,112180
step02_gravity_refstate-crust.xmf,1439,-3.7837e-06,2.61443e-05,0,1.21882e-05,-1.05369e+09,-1.05163e+09,-1.05343e+09,836113,0.0349815,0.277678,0,0.279873,-4284.03,-38385.6,-0,38624,836113
step02_gravity_refstate-crust.xmf,1440,-1.48905e-06,2.12546e-05,0,1.19107e-05,-1.06775e+09,-1.06619e+09,-1.06765e+09,817072,0.0346007,0.246213,0,0.248633,-5348.04,-38899.4,-0,39265.3,817072
step02_gravity_refstate-crust.xmf,1441,2.14354e-06,-5.93858e-07,0,-1.61954e-06,-1.41878e+08,-1.42066e+08,-1.42025e+08,-111101,0.0215054,0.30198,0,0.302744,7968.58,-5172.98,0,9500.42,111101
step02_gravity_refstate-crust.xmf,1442,2.67955e-06,-9.06478e-07,0,-6.76752e-07,-4.68935e+07,-4.71395e+07,-4.70773e+07,-46425.2,0.0310041,0.295546,0,0.297168,8838.7,-1716.64,0,9003.85,46425.2
step02_gravity_refstate-crust.xmf,1443,2.22967e-06,-6.45071e-07,0,-1.30609e-06,-1.00836e+08,-1.01033e+08,-1.00989e+08,-89598.1,0.0259106,0.297069,0,0.298196,8833.61,-3679.05,0,9569.12,89598.1
step02_gravity_refstate-crust.xmf,1444,2.19158e-06,-2.92979e-06,0,-7.41135e-06,-6.35759e+08,-6.36111e+08,-6.3591e+08,-508419,0.0294066,0.341095,0,0.34236,5736.08,-23149.8,0,23849.8,508419
step02_gravity_refstate-crust.xmf,1445,2.29153e-06,-2.38349e-06,0,-5.47162e-06,-5.51196e+08,-5.51517e+08,-5.51354e+08,-375353,0.0246554,0.329909,0,0.33083,6006.76,-20072.4,0,20951.9,375353
step02_gravity_refstate-crust.xmf,1446,2.06946e-06,-2.43514e-06,0,-6.55839e-06,-5.99091e+08,-5.994e+08,-5.99233e+08,-449905,0.0277934,0.333269,0,0.334426,6087.04,-21815.1,0,22648.4,449905
step02_gravity_refstate-crust.xmf,1447,1.49492e-06,-2.13728e-06,0,-8.0525e-06,-6.5553e+08,-6.55779e+08,-6.55632e+08,-552402,0.0314014,0.337221,0,0.33868,6151.84,-23868,0,24648,552402
step02_gravity_refstate-crust.xmf,1448,9.85027e-07,-2.25488e-06,0,-9.81661e-06,-7.08524e+08,-7.08747e+08,-7.08592e+08,-673419,0.0336166,0.347118,0,0.348742,5808.8,-25795,0,26441,673419
step02_gravity_refstate-crust.xmf,1449,8.71346e-07,-1.74238e-06,0,-9.13112e-06,-6.9078e+08,-6.90959e+08,-6.9084e+08,-626395,0.0332239,0.339557,0,0.341179,6163.54,-25149.4,0,25893.6,626395
step02_gravity_refstate-crust.xmf,1450,1.76747e-06,-6.84465e-07,0,-2.75333e-06,-2.97624e+08,-2.97792e+08,-2.97745e+08,-188879,0.0179014,0.308147,0,0.308667,7372.03,-10841.4,0,13110.4,188879
step02_gravity_refstate-crust.xmf,1451,2.01015e-06,-1.84839e-06,0,-5.19241e-06,-5.27805e+08,-5.28069e+08,-5.27943e+08,-356199,0.0243202,0.323868,0,0.32478,6478.73,-19220.5,0,20283.1,356199
step02_gravity_refstate-crust.xmf,1452,1.83948e-06,-1.48257e-06,0,-4.86032e-06,-5.01274e+08,-5.01502e+08,-5.014e+08,-333418,0.0235884,0.319221,0,0.320091,6837.55,-18254.5,0,19493.1,333418
step02_gravity_refstate-crust.xmf,1453,1.93748e-06,-1.35101e-06,0,-4.07619e-06,-4.48216e+08,-4.48442e+08,-4.48349e+08,-279626,0.0208175,0.317494,0,0.318175,6702.1,-16323.5,0,17645.8,279626
step02_gravity_refstate-crust.xmf,1454,1.93923e-06,-1.1827e-06,0,-3.38421e-06,-3.88953e+08,-3.89167e+08,-3.89086e+08,-232157,0.0184931,0.315149,0,0.315691,6640.52,-14166.2,0,15645.4,232157
step02_gravity_refstate-crust.xmf,1455,-7.18673e-07,-3.38244e-07,0,-1.11974e-05,-7.55069e+08,-7.55043e+08,-7.55019e+08,-768138,0.0341558,0.346411,0,0.348091,5958.14,-27485.6,0,28124,768138
step02_gravity_refstate-crust.xmf,1456,-1.1358e-08,-8.85298e-07,0,-1.02006e-05,-7.2598e+08,-7.2604e+08,-7.25979e+08,-699760,0.0342505,0.341572,0,0.343285,6149.12,-26428.6,0,27134.5,699760
step02_gravity_refstate-crust.xmf,1457,-2.28517e-06,1.69094e-06,0,-1.21661e-05,-7.97775e+08,-7.97502e+08,-7.97618e+08,-834594,0.0309907,0.34907,0,0.350443,5822.99,-29037.2,0,29615.3,834594
step02_gravity_refstate-crust.xmf,1458,-1.91816e-06,1.5945e-06,0,-1.45982e-05,-8.36785e+08,-8.36544e+08,-8.36653e+08,-1.00143e+06,0.0239598,0.373659,0,0.374427,5004.3,-30458.7,0,30867.1,1.00143e+06
step02_gravity_refstate-crust.xmf,1459,-2.39595e-06,1.69568e-06,0,-1.28958e-05,-8.11288e+08,-8.11008e+08,-8.11124e+08,-884654,0.029383,0.356942,0,0.35815,5531.48,-29528.7,0,30042.3,884654
step02_gravity_refstate-crust.xmf,1460,-2.31421e-06,1.65394e-06,0,-1.36823e-05,-8.24928e+08,-8.24656e+08,-8.24769e+08,-938608,0.0269445,0.36535,0,0.366342,5251.09,-30025.5,0,30481.2,938608
step02_gravity_refstate-crust.xmf,1461,-1.44634e-06,1.9123e-06,0,-1.54297e-05,-8.4764e+08,-8.4741e+08,-8.47541e+08,-1.05848e+06,0.0203073,0.378802,0,0.379346,4858.6,-30856.3,0,31236.5,1.05848e+06
step02_gravity_refstate-crust.xmf,1462,-6.45952e-07,3.97576e-06,0,-1.91864e-05,-8.7344e+08,-8.73122e+08,-8.73395e+08,-1.31619e+06,0.0097272,0.39572,0,0.39584,4436.28,-31802,0,32109.9,1.31619e+06
step02_gravity_refstate-crust.xmf,1463,-1.37022e-07,4.01728e-06,0,-2.30855e-05,-8.78839e+08,-8.78554e+08,-8.7883e+08,-1.58367e+06,0.00745424,0.41868,0,0.418746,4000,-32000.7,0,32249.7,1.58367e+06
step02_gravity_refstate-crust.xmf,1464,-8.76425e-07,7.26949e-06,0,-2.34133e-05,-8.92519e+08,-8.91961e+08,-8.92459e+08,-1.60615e+06,0.00136037,0.415884,0,0.415886,4000,-32500.8,0,32746,1.60615e+06
step02_gravity_refstate-crust.xmf,1465,-9.63839e-07,6.74599e-06,0,-1.98952e-05,-8.87664e+08,-8.87135e+08,-8.87597e+08,-1.36481e+06,0.00324504,0.395623,0,0.395636,4384.77,-32322.8,0,32618.9,1.36481e+06
step02_gravity_refstate-crust.xmf,1466,-1.03718e-05,4.17686e-05,0,-6.87717e-06,-9.99826e+08,-9.9625e+08,-9.99115e+08,-471774,-0.0195479,0.393346,-0,0.393831,1799.42,-36422.4,0,36466.8,471774
step02_gravity_refstate-crust.xmf,1467,-1.1188e-05,4.23902e-05,0,-3.76942e-06,-1.01129e+09,-1.00761e+09,-1.01052e+09,-258583,-0.0112414,0.385112,-0,0.385276,996.179,-36837.2,0,36850.7,258583
step02_gravity_refstate-crust.xmf,1468,-1.12721e-05,4.1373e-05,0,-1.85532e-08,-1.03105e+09,-1.02744e+09,-1.03027e+09,-1272.75,-3.94064e-07,0.358721,-0,0.358721,0,-37554.8,0,37554.8,1272.75
step02_gravity_refstate-crust.xmf,1469,-6.58361e-06,3.16277e-05,0,1.17199e-05,-1.03933e+09,-1.03671e+09,-1.03888e+09,803987,0.0327598,0.310248,0,0.311972,-3398.78,-37860.1,-0,38012.4,803987
step02_gravity_refstate-crust.xmf,1470,-5.43254e-06,2.93977e-05,0,1.15892e-05,-1.05358e+09,-1.05119e+09,-1.05321e+09,795022,0.0322402,0.289081,0,0.290873,-3681.24,-38380.1,-0,38556.3,795022
step02_gravity_refstate-crust.xmf,1471,-1.1145e-05,4.08658e-05,0,1.81452e-06,-1.03519e+09,-1.03162e+09,-1.03443e+09,124476,0.0054686,0.351716,0,0.351759,-491.473,-37705.3,-0,37708.5,124476
step02_gravity_refstate-crust.xmf,1472,-8.16615e-06,3.45576e-05,0,1.01215e-05,-1.03891e+09,-1.03598e+09,-1.03835e+09,694337,0.0285531,0.321644,0,0.322909,-2820.53,-37843,-0,37948,694337
step02_gravity_refstate-crust.xmf,1473,-9.37815e-06,3.69676e-05,0,8.23406e-06,-1.03839e+09,-1.03521e+09,-1.03775e+09,564856,0.0235461,0.331526,0,0.332361,-2242.72,-37823,-0,37889.4,564856
step02_gravity_refstate-crust.xmf,1474,-1.02415e-05,3.87806e-05,0,6.13061e-06,-1.03799e+09,-1.03463e+09,-1.03729e+09,420560,0.0178112,0.339469,0,0.339936,-1653.17,-37807.6,-0,37843.8,420560
step02_gravity_refstate-crust.xmf,1475,-1.08088e-05,4.00536e-05,0,3.96367e-06,-1.03701e+09,-1.03352e+09,-1.03627e+09,271908,0.011696,0.346084,0,0.346282,-1065.42,-37771.6,-0,37786.7,271908
step02_gravity_refstate-crust.xmf,1476,-2.87727e-06,2.42109e-05,0,1.18876e-05,-1.0677e+09,-1.06585e+09,-1.06751e+09,815489,0.0331165,0.258096,0,0.260212,-4656.93,-38896.7,-0,39174.5,815489
step02_gravity_refstate-crust.xmf,1477,-1.18365e-06,1.99588e-05,0,1.15979e-05,-1.08197e+09,-1.08052e+09,-1.08189e+09,795614,0.0313265,0.228997,0,0.23113,-5758.19,-39416.4,-0,39834.7,795614
step02_gravity_refstate-crust.xmf,1478,1.78385e-06,-4.75274e-07,0,-2.28268e-06,-2.21073e+08,-2.21228e+08,-2.21195e+08,-156592,0.0192364,0.303145,0,0.303755,8048.15,-8054.85,0,11386.5,156592
step02_gravity_refstate-crust.xmf,1479,1.78547e-06,-4.29524e-07,0,-2.05674e-06,-1.81272e+08,-1.81424e+08,-1.81395e+08,-141092,0.0214994,0.298827,0,0.2996,8782.97,-6605.95,0,10990,141092
step02_gravity_refstate-crust.xmf,1480,2.83864e-06,-1.08523e-06,0,-1.11133e-08,269307,129.696,74576.1,-762.373,0.0405243,0.289042,0,0.291869,9889.84,0,0,9889.84,762.373
step02_gravity_refstate-crust.xmf,1481,2.00452e-06,-2.51567e-06,0,-7.03079e-06,-6.18702e+08,-6.19012e+08,-6.1884e+08,-482312,0.0289367,0.335606,0,0.336851,6037.22,-22528.7,0,23323.6,482312
step02_gravity_refstate-crust.xmf,1482,1.82233e-06,-1.89288e-06,0,-6.12264e-06,-5.75216e+08,-5.75471e+08,-5.75341e+08,-420013,0.0271794,0.326589,0,0.327718,6529.03,-20945.7,0,21939.7,420013
step02_gravity_refstate-crust.xmf,1483,7.43381e-07,-1.26768e-06,0,-8.54132e-06,-6.73786e+08,-6.73924e+08,-6.73837e+08,-585934,0.0327818,0.332536,0,0.334148,6536.07,-24530.9,0,25386.7,585934
step02_gravity_refstate-crust.xmf,1484,1.7344e-06,-8.32013e-07,0,-3.26254e-06,-3.57663e+08,-3.57839e+08,-3.57782e+08,-223811,0.018833,0.310134,0,0.310705,7305.3,-13026.8,0,14935.4,223811
step02_gravity_refstate-crust.xmf,1485,1.58404e-06,-5.66574e-07,0,-3.12018e-06,-3.25593e+08,-3.2574e+08,-3.25701e+08,-214044,0.0192502,0.305562,0,0.306168,7956.67,-11859.1,0,14281,214044
step02_gravity_refstate-crust.xmf,1486,1.50314e-06,-3.94369e-07,0,-2.92928e-06,-2.90798e+08,-2.90928e+08,-2.90901e+08,-200949,0.0197243,0.301746,0,0.30239,8521.29,-10592.3,0,13594.4,200949
step02_gravity_refstate-crust.xmf,1487,1.63914e-06,-1.06517e-06,0,-4.5975e-06,-4.75717e+08,-4.75903e+08,-4.75829e+08,-315388,0.0231499,0.314225,0,0.315076,7309.5,-17323.9,0,18802.9,315388
step02_gravity_refstate-crust.xmf,1488,1.70217e-06,-9.47284e-07,0,-3.88916e-06,-4.18573e+08,-4.18755e+08,-4.1869e+08,-266796,0.0207354,0.312069,0,0.312758,7311.56,-15244,0,16906.7,266796
step02_gravity_refstate-crust.xmf,1489,-8.8496e-07,2.91206e-07,0,-1.04602e-05,-7.43843e+08,-7.43763e+08,-7.43783e+08,-717572,0.0341016,0.3374,0,0.339119,6361.29,-27077.2,0,27814.4,717572
step02_gravity_refstate-crust.xmf,1490,-1.72492e-06,1.37751e-06,0,-1.07427e-05,-7.63855e+08,-7.63642e+08,-7.63736e+08,-736952,0.0331819,0.335162,0,0.3368,6436.34,-27804.1,0,28539.3,736952
step02_gravity_refstate-crust.xmf,1491,-2.12642e-06,1.7459e-06,0,-1.1384e-05,-7.83468e+08,-7.83203e+08,-7.83323e+08,-780939,0.0320476,0.340824,0,0.342327,6160.38,-28517.1,0,29174.9,780939
step02_gravity_refstate-crust.xmf,1492,-2.29114e-06,3.53643e-06,0,-1.35221e-05,-8.46017e+08,-8.45617e+08,-8.45859e+08,-927615,0.0201214,0.36202,0,0.362578,5289.7,-30796.3,0,31247.3,927615
step02_gravity_refstate-crust.xmf,1493,-1.702e-06,3.83273e-06,0,-1.47975e-05,-8.57884e+08,-8.57505e+08,-8.57768e+08,-1.01511e+06,0.0159003,0.370092,0,0.370434,5043.97,-31231.2,0,31635.9,1.01511e+06
step02_gravity_refstate-crust.xmf,1494,-1.22876e-06,4.40075e-06,0,-1.6256e-05,-8.68522e+08,-8.68136e+08,-8.68438e+08,-1.11516e+06,0.011578,0.377587,0,0.377764,4832.67,-31621.3,0,31988.4,1.11516e+06
step02_gravity_refstate-crust.xmf,1495,-1.29832e-06,8.97605e-06,0,-2.08643e-05,-8.99263e+08,-8.98558e+08,-8.99174e+08,-1.43129e+06,-0.00203982,0.397674,-0,0.397679,4285.05,-32747.2,0,33026.4,1.43129e+06
step02_gravity_refstate-crust.xmf,1496,-1.63601e-06,1.04987e-05,0,-2.34651e-05,-9.06186e+08,-9.05353e+08,-9.06074e+08,-1.6097e+06,-0.00479811,0.411447,-0,0.411475,4000,-33000.2,0,33241.8,1.6097e+06
step02_gravity_refstate-crust.xmf,1497,-9.8018e-06,4.20625e-05,0,-7.71595e-06,-9.88148e+08,-9.8459e+08,-9.87476e+08,-529314,-0.0206331,0.407659,-0,0.408181,2000,-36000,0,36055.5,529314
step02_gravity_refstate-crust.xmf,1498,-9.79095e-06,4.01586e-05,0,-9.16251e-06,-9.9899e+08,-9.95564e+08,-9.98319e+08,-628548,-0.0248585,0.385114,-0,0.385915,2333.65,-36391.8,0,36466.6,628548
step02_gravity_refstate-crust.xmf,1499,-9.16312e-06,4.03859e-05,0,-9.86939e-06,-9.88149e+08,-9.8475e+08,-9.8752e+08,-677040,-0.025346,0.397269,-0,0.398077,2499.83,-36000,0,36086.7,677040
step02_gravity_refstate-crust.xmf,1500,-1.08071e-05,4.13557e-05,0,-5.94117e-06,-1.01178e+09,-1.0082e+09,-1.01104e+09,-407564,-0.0173603,0.378755,-0,0.379153,1554.45,-36855.1,0,36887.8,407564
step02_gravity_refstate-crust.xmf,1501,-1.13604e-05,4.19729e-05,0,-1.09422e-06,-1.02359e+09,-1.01993e+09,-1.02281e+09,-75063.6,-0.00335206,0.369704,-0,0.369719,294.887,-37283.9,0,37285,75063.6
step02_gravity_refstate-crust.xmf,1502,-4.34439e-06,2.72385e-05,0,1.14222e-05,-1.06807e+09,-1.0659e+09,-1.06777e+09,783566,0.0306822,0.268659,0,0.270405,-4002.88,-38908.8,-0,39114.1,783566
step02_gravity_refstate-crust.xmf,1503,-2.22218e-06,2.26071e-05,0,1.17972e-05,-1.08259e+09,-1.08088e+09,-1.08243e+09,809287,0.0299395,0.239073,0,0.24094,-5056.49,-39438.6,-0,39761.5,809287
step02_gravity_refstate-crust.xmf,1504,1.48536e-06,-3.07032e-07,0,-2.70968e-06,-2.56038e+08,-2.56161e+08,-2.5614e+08,-185884,0.0203815,0.298801,0,0.299495,8969.76,-9326.86,0,12940.1,185884
step02_gravity_refstate-crust.xmf,1505,1.83458e-06,-4.15448e-07,0,-1.76406e-06,-1.39151e+08,-1.39306e+08,-1.39277e+08,-121014,0.0248072,0.294274,0,0.295318,9555.52,-5072.72,0,10818.5,121014
step02_gravity_refstate-crust.xmf,1506,2.10979e-06,-6.84955e-07,0,-7.17354e-07,-4.42527e+07,-4.44444e+07,-4.43974e+07,-49210.5,0.0365069,0.285053,0,0.287381,10996.1,-1618.54,0,11114.6,49210.5
step02_gravity_refstate-crust.xmf,1507,1.87584e-06,-4.77516e-07,0,-1.35911e-06,-9.57443e+07,-9.59057e+07,-9.5873e+07,-93234.7,0.0297688,0.288679,0,0.290209,10503.2,-3492.52,0,11068.7,93234.7
step02_gravity_refstate-crust.xmf,1508,1.37172e-06,-1.74084e-06,0,-7.56528e-06,-6.37504e+08,-6.37717e+08,-6.37598e+08,-518978,0.0308213,0.331467,0,0.332897,6471.2,-23211.8,0,24097,518978
step02_gravity_refstate-crust.xmf,1509,1.61101e-06,-1.43015e-06,0,-5.74026e-06,-5.51174e+08,-5.51383e+08,-5.51285e+08,-393782,0.0265413,0.320611,0,0.321707,6974.82,-20070.3,0,21247.8,393782
step02_gravity_refstate-crust.xmf,1510,1.29398e-06,-1.4774e-06,0,-7.13099e-06,-6.18818e+08,-6.19008e+08,-6.18906e+08,-489186,0.0301368,0.326588,0,0.327975,6760.97,-22531.6,0,23524.1,489186
step02_gravity_refstate-crust.xmf,1511,1.21097e-06,-1.17343e-06,0,-6.67542e-06,-5.97682e+08,-5.97846e+08,-5.97765e+08,-457934,0.0293578,0.321537,0,0.322874,7093.07,-21762.3,0,22889.1,457934
step02_gravity_refstate-crust.xmf,1512,6.59959e-07,-8.61904e-07,0,-7.99746e-06,-6.56249e+08,-6.56354e+08,-6.56294e+08,-548626,0.032239,0.326379,0,0.327967,6895.64,-23892.7,0,24867.9,548626
step02_gravity_refstate-crust.xmf,1513,-6.73785e-08,-1.96094e-07,0,-8.8314e-06,-6.91192e+08,-6.912e+08,-6.91187e+08,-605834,0.0335428,0.326646,0,0.328364,6924.03,-25162.9,0,26098.2,605834
step02_gravity_refstate-crust.xmf,1514,-7.13697e-08,-5.08305e-07,0,-9.49239e-06,-7.0919e+08,-7.0922e+08,-7.09185e+08,-651178,0.0339709,0.333541,0,0.335266,6545.28,-25817.7,0,26634.4,651178
step02_gravity_refstate-crust.xmf,1515,1.42892e-06,-1.03436e-06,0,-5.38673e-06,-5.2608e+08,-5.26249e+08,-5.26178e+08,-369530,0.0258688,0.315101,0,0.316161,7434.83,-19156.6,0,20548.8,369530
step02_gravity_refstate-crust.xmf,1516,1.29314e-06,-7.24313e-07,0,-5.05668e-06,-5.00194e+08,-5.00333e+08,-5.00283e+08,-346888,0.0251522,0.310349,0,0.311367,7872.01,-18214.2,0,19842.5,346888
step02_gravity_refstate-crust.xmf,1517,1.35013e-06,-6.07064e-07,0,-4.41708e-06,-4.48707e+08,-4.48841e+08,-4.48799e+08,-303011,0.0231077,0.30739,0,0.308258,8082.28,-16340.1,0,18229.7,303011
step02_gravity_refstate-crust.xmf,1518,1.51337e-06,-6.55865e-07,0,-3.7098e-06,-3.88207e+08,-3.88356e+08,-3.88311e+08,-254492,0.0206953,0.307084,0,0.307781,7929.67,-14138.2,0,16210.1,254492
step02_gravity_refstate-crust.xmf,1519,-1.13012e-06,1.02546e-06,0,-9.6362e-06,-7.30462e+08,-7.30314e+08,-7.30385e+08,-661043,0.0337986,0.326222,0,0.327969,6919.49,-26590.2,0,27475.8,661043
step02_gravity_refstate-crust.xmf,1520,-2.87332e-06,3.35869e-06,0,-1.07281e-05,-7.96607e+08,-7.9618e+08,-7.9641e+08,-735944,0.0294834,0.331438,0,0.332747,6476.55,-28994.9,0,29709.4,735944
step02_gravity_refstate-crust.xmf,1521,-3.01475e-06,3.55999e-06,0,-1.12629e-05,-8.10908e+08,-8.10457e+08,-8.10701e+08,-772633,0.0277389,0.338079,0,0.339215,6166.65,-29515.2,0,30152.5,772633
step02_gravity_refstate-crust.xmf,1522,-2.6722e-06,3.32971e-06,0,-1.29394e-05,-8.35629e+08,-8.35218e+08,-8.35446e+08,-887640,0.0232818,0.356875,0,0.357633,5468.23,-30416.3,0,30903.9,887640
step02_gravity_refstate-crust.xmf,1523,-3.03754e-06,3.83444e-06,0,-1.18242e-05,-8.27234e+08,-8.26763e+08,-8.27026e+08,-811140,0.0246494,0.344667,0,0.345548,5872.21,-30109.9,0,30677.2,811140
step02_gravity_refstate-crust.xmf,1524,-1.80751e-06,5.87182e-06,0,-1.38845e-05,-8.70719e+08,-8.70192e+08,-8.70595e+08,-952479,0.00994739,0.358862,0,0.358999,5264.77,-31701.2,0,32135.4,952479
step02_gravity_refstate-crust.xmf,1525,-1.36889e-06,6.78071e-06,0,-1.60545e-05,-8.82806e+08,-8.82247e+08,-8.82712e+08,-1.10134e+06,0.00493871,0.371477,0,0.37151,4904.49,-32144.4,0,32516.4,1.10134e+06
step02_gravity_refstate-crust.xmf,1526,-2.37271e-06,1.37665e-05,0,-2.32567e-05,-9.19848e+08,-9.18741e+08,-9.19685e+08,-1.59541e+06,-0.010915,0.405368,-0,0.405514,4000,-33499.7,0,33737.7,1.59541e+06
step02_gravity_refstate-crust.xmf,1527,-1.66033e-06,1.11776e-05,0,-1.99819e-05,-9.1077e+08,-9.09889e+08,-9.10656e+08,-1.37076e+06,-0.00755111,0.388066,-0,0.38814,4384.61,-33168.1,0,33456.6,1.37076e+06
step02_gravity_refstate-crust.xmf,1528,-1.34898e-06,9.10644e-06,0,-1.76985e-05,-8.99117e+08,-8.984e+08,-8.99024e+08,-1.21411e+06,-0.00249862,0.377239,-0,0.377248,4682.83,-32741.9,0,33075.1,1.21411e+06
step02_gravity_refstate-crust.xmf,1529,-8.93604e-06,3.84648e-05,0,-1.10518e-05,-9.96643e+08,-9.93391e+08,-9.9603e+08,-758152,-0.0287114,0.378755,-0,0.379842,2767.09,-36307.2,0,36412.5,758152
step02_gravity_refstate-crust.xmf,1530,-8.20098e-06,3.80596e-05,0,-1.21014e-05,-9.88141e+08,-9.84967e+08,-9.87578e+08,-830154,-0.0296693,0.384358,-0,0.385501,2999.32,-36000,0,36124.7,830154
step02_gravity_refstate-crust.xmf,1531,-1.01034e-05,3.97258e-05,0,-8.26201e-06,-1.01196e+09,-1.00854e+09,-1.01127e+09,-566774,-0.0235303,0.369844,-0,0.370591,2145.57,-36862,0,36924.4,566774
step02_gravity_refstate-crust.xmf,1532,-1.13222e-05,4.17806e-05,0,-2.69093e-06,-1.0227e+09,-1.01905e+09,-1.02192e+09,-184598,-0.00810372,0.36953,-0,0.369619,714.602,-37251.2,0,37258,184598
step02_gravity_refstate-crust.xmf,1533,-1.09887e-05,4.09195e-05,0,-4.79088e-06,-1.02376e+09,-1.02019e+09,-1.023e+09,-328655,-0.0142166,0.363963,-0,0.364241,1266.34,-37289.7,0,37311.2,328655
step02_gravity_refstate-crust.xmf,1534,-1.07353e-05,3.99211e-05,0,-2.61168e-08,-1.04666e+09,-1.04318e+09,-1.04592e+09,-1791.61,-7.30164e-07,0.335624,-0,0.335624,0,-38123,0,38123,1791.61
step02_gravity_refstate-crust.xmf,1535,-1.10955e-05,4.08431e-05,0,-1.56982e-06,-1.0356e+09,-1.03204e+09,-1.03484e+09,-107690,-0.00468979,0.351309,-0,0.351341,421.819,-37720.5,0,37722.9,107690
step02_gravity_refstate-crust.xmf,1536,-6.96756e-06,3.23163e-05,0,1.03858e-05,-1.05327e+09,-1.05058e+09,-1.0528e+09,712465,0.0286387,0.299624,0,0.30099,-3090.04,-38367.3,-0,38491.5,712465
step02_gravity_refstate-crust.xmf,1537,-5.7388e-06,3.01294e-05,0,1.05294e-05,-1.06792e+09,-1.06546e+09,-1.06753e+09,722320,0.0275825,0.278515,0,0.279878,-3378.62,-38902.3,-0,39048.7,722320
step02_gravity_refstate-crust.xmf,1538,-1.04852e-05,3.93121e-05,0,2.62232e-06,-1.0493e+09,-1.04588e+09,-1.04858e+09,179891,0.00754799,0.330268,0,0.330354,-717.329,-38219.3,-0,38226,179891
step02_gravity_refstate-crust.xmf,1539,-8.27482e-06,3.47612e-05,0,8.69941e-06,-1.05299e+09,-1.05004e+09,-1.05242e+09,596780,0.0241714,0.3089,0,0.309845,-2496.18,-38355.6,-0,38436.7,596780
step02_gravity_refstate-crust.xmf,1540,-9.25907e-06,3.67327e-05,0,6.82733e-06,-1.0524e+09,-1.04924e+09,-1.05176e+09,468355,0.0191487,0.316858,0,0.317436,-1912.19,-38333,-0,38380.7,468355
step02_gravity_refstate-crust.xmf,1541,-9.95472e-06,3.81944e-05,0,4.81605e-06,-1.0515e+09,-1.0482e+09,-1.05082e+09,330381,0.0136796,0.323475,0,0.323764,-1331.66,-38299.7,-0,38322.9,330381
step02_gravity_refstate-crust.xmf,1542,-3.34323e-06,2.52214e-05,0,1.1473e-05,-1.08289e+09,-1.08093e+09,-1.08266e+09,787050,0.0279874,0.24866,0,0.25023,-4386.58,-39449.1,-0,39692.3,787050
step02_gravity_refstate-crust.xmf,1543,1.47399e-06,-2.15945e-07,0,-2.47512e-06,-2.17554e+08,-2.1767e+08,-2.17655e+08,-169794,0.0218394,0.294912,0,0.29572,9606.73,-7925.9,0,12454.3,169794
step02_gravity_refstate-crust.xmf,1544,2.1318e-06,-8.17805e-07,0,-1.2891e-08,202128,-214.759,55886.7,-884.325,0.0455521,0.279181,0,0.282873,11904.5,0,0,11904.5,884.325
step02_gravity_refstate-crust.xmf,1545,1.49538e-06,-2.2555e-07,0,-2.1774e-06,-1.76684e+08,-1.76802e+08,-1.76786e+08,-149370,0.0241547,0.290791,0,0.291792,10295.3,-6438.05,0,12142.6,149370
step02_gravity_refstate-crust.xmf,1546,1.08786e-06,-8.23855e-07,0,-6.24035e-06,-5.74671e+08,-5.74802e+08,-5.74745e+08,-428088,0.0285791,0.315949,0,0.317239,7513.34,-20924.6,0,22232.6,428088
step02_gravity_refstate-crust.xmf,1547,-7.9425e-08,7.48065e-08,0,-8.27733e-06,-6.74161e+08,-6.74151e+08,-6.74156e+08,-567825,0.0330485,0.320516,0,0.322216,7298.41,-24543.3,0,25605.5,567825
step02_gravity_refstate-crust.xmf,1548,1.35797e-06,-3.86048e-07,0,-3.52968e-06,-3.56993e+08,-3.57113e+08,-3.57087e+08,-242136,0.0208037,0.302237,0,0.302952,8590.32,-13001.6,0,15583.2,242136
step02_gravity_refstate-crust.xmf,1549,1.24752e-06,-1.88509e-07,0,-3.33133e-06,-3.23922e+08,-3.24021e+08,-3.24008e+08,-228529,0.0210568,0.29773,0,0.298474,9250.75,-11797.5,0,14991.9,228529
step02_gravity_refstate-crust.xmf,1550,1.18767e-06,-6.86693e-08,0,-3.11576e-06,-2.90249e+08,-2.90335e+08,-2.90331e+08,-213741,0.0215127,0.293861,0,0.294648,9852.26,-10571.5,0,14450.7,213741
step02_gravity_refstate-crust.xmf,1551,1.18925e-06,-4.81544e-07,0,-4.79005e-06,-4.7718e+08,-4.77295e+08,-4.77261e+08,-328598,0.0245725,0.30645,0,0.307434,8270.26,-17376.3,0,19244,328598
step02_gravity_refstate-crust.xmf,1552,1.22815e-06,-3.42333e-07,0,-4.13418e-06,-4.17367e+08,-4.17475e+08,-4.17452e+08,-283605,0.0225669,0.303047,0,0.303886,8590.42,-15199.1,0,17458.8,283605
step02_gravity_refstate-crust.xmf,1553,-1.67209e-06,1.67802e-06,0,-9.95066e-06,-7.49845e+08,-7.49615e+08,-7.4973e+08,-682615,0.0332432,0.326365,0,0.328053,6867.17,-27294.7,0,28145.3,682615
step02_gravity_refstate-crust.xmf,1554,-2.63178e-06,3.10259e-06,0,-1.02077e-05,-7.80655e+08,-7.80261e+08,-7.80474e+08,-700247,0.030854,0.325329,0,0.326789,6796.88,-28414.7,0,29216.3,700247
step02_gravity_refstate-crust.xmf,1555,-2.87048e-06,5.00599e-06,0,-1.16157e-05,-8.45231e+08,-8.44691e+08,-8.45034e+08,-796836,0.0189685,0.342599,0,0.343124,5846.59,-30767.6,0,31318.2,796836
step02_gravity_refstate-crust.xmf,1556,-2.32645e-06,5.22617e-06,0,-1.26846e-05,-8.57998e+08,-8.5748e+08,-8.57839e+08,-870161,0.0149009,0.351617,0,0.351933,5519.62,-31235,0,31718.9,870161
step02_gravity_refstate-crust.xmf,1557,-3.13726e-06,1.70928e-05,0,-2.28229e-05,-9.33527e+08,-9.3214e+08,-9.33312e+08,-1.56565e+06,-0.016881,0.397637,-0,0.397996,4000,-33999.8,0,34234.3,1.56565e+06
step02_gravity_refstate-crust.xmf,1558,-2.06631e-06,1.40611e-05,0,-1.94692e-05,-9.253e+08,-9.24194e+08,-9.25159e+08,-1.33559e+06,-0.0143102,0.379753,-0,0.380023,4414.58,-33699.9,0,33987.8,1.33559e+06
step02_gravity_refstate-crust.xmf,1559,-7.95895e-06,3.58213e-05,0,-1.29427e-05,-9.98717e+08,-9.95714e+08,-9.98171e+08,-887872,-0.0325326,0.364606,-0,0.366055,3197.74,-36382.6,0,36522.8,887872
step02_gravity_refstate-crust.xmf,1560,-9.01223e-06,3.73323e-05,0,-1.0938e-05,-1.00894e+09,-1.00576e+09,-1.00832e+09,-750343,-0.0295954,0.361409,-0,0.362618,2786.85,-36752.9,0,36858.4,750343
step02_gravity_refstate-crust.xmf,1561,-1.04006e-05,3.95685e-05,0,-7.03342e-06,-1.02372e+09,-1.02029e+09,-1.02301e+09,-482492,-0.0204435,0.357402,-0,0.357987,1850.94,-37288.8,0,37334.7,482492
step02_gravity_refstate-crust.xmf,1562,-4.52252e-06,2.78987e-05,0,1.07277e-05,-1.08295e+09,-1.08072e+09,-1.08264e+09,735919,0.0253679,0.257839,0,0.259084,-3721.63,-39450.7,-0,39625.8,735919
step02_gravity_refstate-crust.xmf,1563,-9.79565e-06,3.82755e-05,0,1.69375e-06,-1.0612e+09,-1.0579e+09,-1.06053e+09,116191,0.00456934,0.314262,0,0.314296,-464.377,-38653.6,-0,38656.4,116191
step02_gravity_refstate-crust.xmf,1564,1.16899e-06,-9.69919e-09,0,-2.85911e-06,-2.52743e+08,-2.52824e+08,-2.52823e+08,-196135,0.0223771,0.290184,0,0.291045,10451.9,-9206.07,0,13928.2,196135
step02_gravity_refstate-crust.xmf,1565,1.54084e-06,-4.6638e-07,0,-7.24803e-07,-4.25937e+07,-4.27314e+07,-4.26994e+07,-49721.5,0.0402728,0.274745,0,0.277681,12924.3,-1556.18,0,13017.6,49721.5
step02_gravity_refstate-crust.xmf,1566,1.54119e-06,-2.6404e-07,0,-1.85007e-06,-1.38692e+08,-1.38816e+08,-1.38798e+08,-126915,0.0271604,0.286954,0,0.288237,10933.2,-5055.04,0,12045.3,126915
step02_gravity_refstate-crust.xmf,1567,1.59599e-06,-3.92924e-07,0,-1.21319e-06,-7.86139e+07,-7.87504e+07,-7.87234e+07,-83224.9,0.0341716,0.280227,0,0.282302,12029.2,-2867.87,0,12366.4,83224.9
step02_gravity_refstate-crust.xmf,1568,5.93031e-07,-5.6361e-07,0,-7.53116e-06,-6.38763e+08,-6.38842e+08,-6.38804e+08,-516637,0.0316494,0.320905,0,0.322462,7247.84,-23256.3,0,24359.6,516637
step02_gravity_refstate-crust.xmf,1569,9.64907e-07,-4.97087e-07,0,-5.83507e-06,-5.50189e+08,-5.5029e+08,-5.50256e+08,-400286,0.0277784,0.31046,0,0.3117,7977.79,-20033.3,0,21563.4,400286
step02_gravity_refstate-crust.xmf,1570,5.36929e-07,-3.3586e-07,0,-7.09968e-06,-6.20059e+08,-6.20119e+08,-6.20096e+08,-487038,0.030984,0.315717,0,0.317234,7614.74,-22575.5,0,23825.2,487038
step02_gravity_refstate-crust.xmf,1571,4.92005e-07,-9.0988e-08,0,-6.64077e-06,-5.98158e+08,-5.98198e+08,-5.98192e+08,-455557,0.0301799,0.310408,0,0.311872,8029.99,-21778.4,0,23211.6,455557
step02_gravity_refstate-crust.xmf,1572,-8.90577e-08,3.30187e-07,0,-7.78087e-06,-6.57247e+08,-6.57218e+08,-6.57241e+08,-533767,0.0324992,0.315007,0,0.31668,7669.48,-23927.9,0,25127,533767
step02_gravity_refstate-crust.xmf,1573,-8.15555e-07,1.12403e-06,0,-8.34772e-06,-6.90829e+08,-6.90696e+08,-6.90773e+08,-572654,0.0331913,0.3136,0,0.315352,7705.71,-25148.8,0,26302.8,572654
step02_gravity_refstate-crust.xmf,1574,-9.42509e-07,1.04912e-06,0,-8.92751e-06,-7.09688e+08,-7.09551e+08,-7.09623e+08,-612427,0.033583,0.319442,0,0.321202,7321.61,-25834.7,0,26852.1,612427
step02_gravity_refstate-crust.xmf,1575,8.66703e-07,-2.28328e-07,0,-5.46329e-06,-5.24664e+08,-5.24739e+08,-5.24723e+08,-374782,0.0269568,0.305492,0,0.306679,8446.75,-19104.1,0,20888.1,374782
step02_gravity_refstate-crust.xmf,1576,8.24284e-07,-5.55387e-08,0,-5.10532e-06,-4.96965e+08,-4.97026e+08,-4.97022e+08,-350225,0.0260415,0.301557,0,0.30268,8856.65,-18095.8,0,20146.9,350225
step02_gravity_refstate-crust.xmf,1577,8.48894e-07,1.39432e-08,0,-4.74829e-06,-4.66476e+08,-4.66534e+08,-4.66535e+08,-325732,0.0250109,0.298994,0,0.300038,9150.43,-16986,0,19293.9,325732
step02_gravity_refstate-crust.xmf,1578,1.07765e-06,-1.17911e-07,0,-3.94083e-06,-3.89153e+08,-3.89235e+08,-3.89227e+08,-270341,0.0224448,0.298024,0,0.298868,9257.29,-14171.7,0,16927.3,270341
step02_gravity_refstate-crust.xmf,1579,9.36167e-07,-2.61766e-08,0,-4.46063e-06,-4.40923e+08,-4.40989e+08,-4.40988e+08,-305999,0.0240582,0.298747,0,0.299714,9179.57,-16056,0,18494.9,305999
step02_gravity_refstate-crust.xmf,1580,-2.38353e-06,2.92078e-06,0,-9.65314e-06,-7.64274e+08,-7.6391e+08,-7.6411e+08,-662205,0.0316914,0.319167,0,0.320736,7146.01,-27819,0,28722.2,662205
step02_gravity_refstate-crust.xmf,1581,-2.08962e-06,2.66977e-06,0,-9.18687e-06,-7.46906e+08,-7.46579e+08,-7.46762e+08,-630219,0.0323001,0.314491,0,0.316146,7453.54,-27187.5,0,28190.7,630219
step02_gravity_refstate-crust.xmf,1582,-3.17744e-06,4.50205e-06,0,-9.46698e-06,-7.95743e+08,-7.95216e+08,-7.95525e+08,-649435,0.0276863,0.315613,0,0.316825,7118.16,-28963.9,0,29825.8,649435
step02_gravity_refstate-crust.xmf,1583,-3.31837e-06,4.83981e-06,0,-9.80133e-06,-8.11042e+08,-8.10482e+08,-8.10814e+08,-672371,0.0256627,0.320634,0,0.32166,6811.31,-29520.9,0,30296.5,672371
step02_gravity_refstate-crust.xmf,1584,-3.32066e-06,5.15864e-06,0,-1.01686e-05,-8.25844e+08,-8.25263e+08,-8.25616e+08,-697567,0.0230212,0.326214,0,0.327025,6503.96,-30060.2,0,30755.8,697567
step02_gravity_refstate-crust.xmf,1585,-2.38522e-06,1.67849e-05,0,-1.88188e-05,-9.39549e+08,-9.38234e+08,-9.39385e+08,-1.29097e+06,-0.020671,0.371175,-0,0.37175,4424.86,-34221.6,0,34506.4,1.29097e+06
step02_gravity_refstate-crust.xmf,1586,-2.16837e-06,6.88689e-06,0,-1.16334e-05,-8.71905e+08,-8.71284e+08,-8.71756e+08,-798053,0.00838487,0.338876,0,0.338979,5788.45,-31744.5,0,32267.9,798053
step02_gravity_refstate-crust.xmf,1587,-1.70435e-06,7.7538e-06,0,-1.27835e-05,-8.84992e+08,-8.84343e+08,-8.84875e+08,-876945,0.00298622,0.345467,0,0.34548,5516.1,-32224.1,0,32692.8,876945
step02_gravity_refstate-crust.xmf,1588,-1.40638e-06,1.16792e-05,0,-1.61814e-05,-9.15794e+08,-9.14897e+08,-9.15698e+08,-1.11005e+06,-0.0107133,0.361257,-0,0.361415,4888.29,-33352.8,0,33709.1,1.11005e+06
step02_gravity_refstate-crust.xmf,1589,-1.38642e-06,9.22365e-06,0,-1.42961e-05,-8.99378e+08,-8.9865e+08,-8.99283e+08,-980713,-0.00335752,0.352926,-0,0.352942,5220.53,-32751.4,0,33164.9,980713
step02_gravity_refstate-crust.xmf,1590,-6.73539e-06,3.45724e-05,0,-1.45525e-05,-9.88126e+08,-9.85292e+08,-9.87664e+08,-998301,-0.0334092,0.368793,-0,0.370303,3499.28,-36000,0,36169.7,998301
step02_gravity_refstate-crust.xmf,1591,-9.41734e-06,3.74257e-05,0,-9.39576e-06,-1.02358e+09,-1.02036e+09,-1.02293e+09,-644549,-0.0265115,0.348034,-0,0.349042,2463.97,-37284.2,0,37365.5,644549
step02_gravity_refstate-crust.xmf,1592,-1.09066e-05,4.02341e-05,0,-3.54753e-06,-1.03692e+09,-1.03341e+09,-1.03617e+09,-243360,-0.0104858,0.34697,-0,0.347128,952.797,-37768.2,0,37780.2,243360
step02_gravity_refstate-crust.xmf,1593,-1.04253e-05,3.91922e-05,0,-5.7389e-06,-1.03649e+09,-1.03309e+09,-1.03578e+09,-393689,-0.0167444,0.342755,-0,0.343164,1541.33,-37753.1,0,37784.5,393689
step02_gravity_refstate-crust.xmf,1594,-1.0325e-05,3.91361e-05,0,-2.06579e-06,-1.05266e+09,-1.04927e+09,-1.05195e+09,-141713,-0.00589236,0.326018,-0,0.326071,568.628,-38342,0,38346.2,141713
step02_gravity_refstate-crust.xmf,1595,-6.98784e-06,3.26493e-05,0,9.12806e-06,-1.06762e+09,-1.0649e+09,-1.06714e+09,626185,0.0237282,0.287416,0,0.288393,-2761.31,-38890,-0,38987.9,626185
step02_gravity_refstate-crust.xmf,1596,-5.6023e-06,3.04376e-05,0,9.57725e-06,-1.08285e+09,-1.08038e+09,-1.08247e+09,656999,0.022083,0.266185,0,0.2671,-3065.35,-39446.7,-0,39565.7,656999
step02_gravity_refstate-crust.xmf,1597,-9.77802e-06,3.82493e-05,0,2.04293e-08,-1.06299e+09,-1.0597e+09,-1.06232e+09,1401.45,-3.18308e-07,0.31233,-0,0.31233,0,-38719,0,38719,1401.45
step02_gravity_refstate-crust.xmf,1598,-9.45534e-06,3.75706e-05,0,3.28276e-06,-1.06389e+09,-1.06067e+09,-1.06324e+09,225198,0.00888384,0.308842,0,0.30897,-927.448,-38752,-0,38763.1,225198
step02_gravity_refstate-crust.xmf,1599,-8.03823e-06,3.46665e-05,0,7.31786e-06,-1.06756e+09,-1.06463e+09,-1.06701e+09,502005,0.0191196,0.294664,0,0.295284,-2143.37,-38886.9,-0,38945.9,502005
step02_gravity_refstate-crust.xmf,1600,-8.82244e-06,3.62559e-05,0,5.41094e-06,-1.06661e+09,-1.06352e+09,-1.06601e+09,371191,0.0143031,0.30126,0,0.3016,-1551.26,-38851.5,-0,38882.4,371191
step02_gravity_refstate-crust.xmf,1601,1.17363e-06,2.18129e-08,0,-2.57593e-06,-2.13555e+08,-2.13634e+08,-2.13635e+08,-176709,0.0239132,0.286346,0,0.287343,11097.3,-7779.45,0,13552.5,176709
step02_gravity_refstate-crust.xmf,1602,1.39173e-06,-5.37581e-07,0,-1.55009e-08,131801,-549.511,36328.6,-1063.36,0.0491684,0.268373,0,0.27284,13945.9,0,0,13945.9,1063.36
step02_gravity_refstate-crust.xmf,1603,1.20315e-06,-3.83404e-08,0,-2.22259e-06,-1.71285e+08,-1.71371e+08,-1.71368e+08,-152470,0.0264043,0.282354,0,0.283586,11774,-6240.62,0,13325.7,152470
step02_gravity_refstate-crust.xmf,1604,1.29383e-06,-1.62238e-07,0,-1.75e-06,-1.22909e+08,-1.23009e+08,-1.22997e+08,-120050,0.0303314,0.27889,0,0.280534,12345,-4479.6,0,13132.6,120050
step02_gravity_refstate-crust.xmf,1605,4.3608e-07,1.53426e-07,0,-6.19538e-06,-5.74071e+08,-5.74091e+08,-5.74101e+08,-425003,0.0293051,0.304951,0,0.306356,8506.73,-20901.6,0,22566.4,425003
step02_gravity_refstate-crust.xmf,1606,-7.41887e-07,1.22381e-06,0,-7.8714e-06,-6.7418e+08,-6.74045e+08,-6.74129e+08,-539978,0.0327321,0.308522,0,0.310254,8070.18,-24543.1,0,25835.8,539978
step02_gravity_refstate-crust.xmf,1607,9.61511e-07,8.08223e-08,0,-3.72325e-06,-3.58249e+08,-3.5831e+08,-3.58315e+08,-255415,0.0224176,0.293128,0,0.293984,9959.22,-13046.4,0,16413.3,255415
step02_gravity_refstate-crust.xmf,1608,8.9538e-07,2.01573e-07,0,-3.48083e-06,-3.24477e+08,-3.24524e+08,-3.24538e+08,-238785,0.0225272,0.288867,0,0.289745,10617.1,-11816.8,0,15885.9,238785
step02_gravity_refstate-crust.xmf,1609,8.64234e-07,2.60324e-07,0,-3.22059e-06,-2.88499e+08,-2.88541e+08,-2.88559e+08,-220933,0.0229614,0.28493,0,0.285854,11264.5,-10507,0,15404.1,220933
step02_gravity_refstate-crust.xmf,1610,7.94118e-07,2.14545e-07,0,-4.28582e-06,-4.1978e+08,-4.1982e+08,-4.19834e+08,-294007,0.0238898,0.293821,0,0.29479,9819.37,-15286.1,0,18168.2,294007
step02_gravity_refstate-crust.xmf,1611,-1.77457e-06,2.37375e-06,0,-8.75234e-06,-7.27755e+08,-7.27471e+08,-7.27633e+08,-600411,0.0326842,0.310742,0,0.312457,7738.42,-26491.1,0,27598.3,600411
step02_gravity_refstate-crust.xmf,1612,-2.97098e-06,4.21209e-06,0,-9.07593e-06,-7.79969e+08,-7.79476e+08,-7.79765e+08,-622609,0.0290821,0.310267,0,0.311627,7460.53,-28390.1,0,29354,622609
step02_gravity_refstate-crust.xmf,1613,-3.82116e-06,2.03374e-05,0,-2.2081e-05,-9.47173e+08,-9.45516e+08,-9.46911e+08,-1.51475e+06,-0.0225513,0.388294,-0,0.388948,4000,-34498.8,0,34729.9,1.51475e+06
step02_gravity_refstate-crust.xmf,1614,-3.15639e-06,5.51026e-06,0,-1.0385e-05,-8.38947e+08,-8.38352e+08,-8.3873e+08,-712408,0.0197249,0.329399,0,0.329989,6305.75,-30538.5,0,31182.7,712408
step02_gravity_refstate-crust.xmf,1615,-2.61265e-06,6.34878e-06,0,-1.09895e-05,-8.60395e+08,-8.5978e+08,-8.60216e+08,-753882,0.0127625,0.334633,0,0.334876,5992.82,-31322.8,0,31890.9,753882
step02_gravity_refstate-crust.xmf,1616,-1.60261e-06,1.43696e-05,0,-1.65214e-05,-9.32446e+08,-9.31351e+08,-9.32337e+08,-1.13337e+06,-0.0182471,0.358023,-0,0.358488,4786.21,-33962.4,0,34298,1.13337e+06
step02_gravity_refstate-crust.xmf,1617,-6.07789e-06,3.18693e-05,0,-1.47918e-05,-9.99538e+08,-9.96935e+08,-9.99121e+08,-1.01472e+06,-0.0360948,0.348651,-0,0.350515,3693.46,-36413.9,0,36600.8,1.01472e+06
step02_gravity_refstate-crust.xmf,1618,-7.20673e-06,3.33298e-05,0,-1.33004e-05,-1.01074e+09,-1.00796e+09,-1.01025e+09,-912407,-0.0345618,0.34406,-0,0.345791,3395.59,-36819.4,0,36975.7,912407
step02_gravity_refstate-crust.xmf,1619,-9.60939e-06,3.7468e-05,0,-7.93103e-06,-1.03669e+09,-1.03346e+09,-1.03603e+09,-544069,-0.0227529,0.335219,-0,0.33599,2144.71,-37760.7,0,37821.6,544069
step02_gravity_refstate-crust.xmf,1620,-8.92458e-06,3.70414e-05,0,1.71681e-06,-1.07285e+09,-1.0697e+09,-1.07224e+09,117773,0.00424718,0.298198,0,0.298229,-475.592,-39079.5,-0,39082.4,117773
step02_gravity_refstate-crust.xmf,1621,8.57673e-07,2.68368e-07,0,-2.93607e-06,-2.50557e+08,-2.50598e+08,-2.50616e+08,-201414,0.0238976,0.281104,0,0.282118,11921.1,-9125.67,0,15013,201414
step02_gravity_refstate-crust.xmf,1622,1.1402e-06,-1.79777e-07,0,-1.31763e-06,-8.52822e+07,-8.53728e+07,-8.53604e+07,-90389.5,0.0356328,0.271164,0,0.273496,13646.5,-3109.12,0,13996.2,90389.5
step02_gravity_refstate-crust.xmf,1623,8.51537e-07,-1.80008e-07,0,-7.95764e-07,-4.77906e+07,-4.78614e+07,-4.7849e+07,-54589.4,0.0421324,0.262478,0,0.265838,15109.9,-1743.03,0,15210.1,54589.4
step02_gravity_refstate-crust.xmf,1624,6.52166e-07,-2.52703e-07,0,-1.19036e-08,61728.5,-345.453,16990,-816.588,0.0513066,0.256941,0,0.262013,16020.4,0,0,16020.4,816.588
step02_gravity_refstate-crust.xmf,1625,-1.24947e-07,5.72478e-07,0,-7.32495e-06,-6.39854e+08,-6.39806e+08,-6.39846e+08,-502492,0.0318898,0.30934,0,0.31098,8088.33,-23294.9,0,24659.2,502492
step02_gravity_refstate-crust.xmf,1626,3.90575e-07,3.56551e-07,0,-5.79235e-06,-5.49094e+08,-5.49097e+08,-5.49121e+08,-397355,0.0284144,0.299955,0,0.301298,8994.68,-19992.5,0,21922.7,397355
step02_gravity_refstate-crust.xmf,1627,-1.47123e-07,7.46088e-07,0,-6.89558e-06,-6.20679e+08,-6.20618e+08,-6.20669e+08,-473037,0.0311887,0.303875,0,0.305472,8534.93,-22597,0,24155.1,473037
step02_gravity_refstate-crust.xmf,1628,-1.38487e-07,9.04114e-07,0,-6.43894e-06,-5.97635e+08,-5.97564e+08,-5.97626e+08,-441711,0.0303335,0.298524,0,0.300061,9025.22,-21758.4,0,23555.9,441711
step02_gravity_refstate-crust.xmf,1629,-7.34356e-07,1.42523e-06,0,-7.413e-06,-6.57987e+08,-6.57839e+08,-6.57937e+08,-508532,0.0321761,0.302914,0,0.304618,8500.21,-23953.9,0,25417.4,508532
step02_gravity_refstate-crust.xmf,1630,-1.38755e-06,2.22164e-06,0,-7.77755e-06,-6.91036e+08,-6.90788e+08,-6.9094e+08,-533540,0.0323238,0.300877,0,0.302608,8493.04,-25155.7,0,26550.7,533540
step02_gravity_refstate-crust.xmf,1631,-1.57507e-06,2.29723e-06,0,-8.23768e-06,-7.09526e+08,-7.09261e+08,-7.09418e+08,-565105,0.0325766,0.305446,0,0.307178,8123.02,-25828.2,0,27075.4,565105
step02_gravity_refstate-crust.xmf,1632,3.76906e-07,4.9212e-07,0,-5.41503e-06,-5.22024e+08,-5.22016e+08,-5.2205e+08,-371471,0.0274705,0.295689,0,0.296963,9462.94,-19007.1,0,21232.5,371471
step02_gravity_refstate-crust.xmf,1633,3.96394e-07,5.63663e-07,0,-5.05506e-06,-4.92332e+08,-4.9232e+08,-4.92359e+08,-346777,0.0264844,0.292203,0,0.2934,9897.26,-17926.3,0,20477,346777
step02_gravity_refstate-crust.xmf,1634,4.81137e-07,5.3208e-07,0,-4.6691e-06,-4.55543e+08,-4.55539e+08,-4.55576e+08,-320300,0.0253259,0.290014,0,0.291118,10234.1,-16587.3,0,19490.3,320300
step02_gravity_refstate-crust.xmf,1635,6.0944e-07,4.709e-07,0,-4.10441e-06,-3.95212e+08,-3.95221e+08,-3.95254e+08,-281562,0.023831,0.287356,0,0.288343,10709,-14391.3,0,17938.5,281562
step02_gravity_refstate-crust.xmf,1636,-2.73107e-06,3.94134e-06,0,-8.67594e-06,-7.63445e+08,-7.62987e+08,-7.63257e+08,-595169,0.0300543,0.305179,0,0.306655,7817.17,-27789,0,28867.6,595169
step02_gravity_refstate-crust.xmf,1637,-2.47727e-06,3.67646e-06,0,-8.29215e-06,-7.45979e+08,-7.45557e+08,-7.4581e+08,-568842,0.0307195,0.300633,0,0.302198,8173.85,-27153.8,0,28357.4,568842
step02_gravity_refstate-crust.xmf,1638,-3.30221e-06,5.35462e-06,0,-8.26617e-06,-7.95265e+08,-7.94671e+08,-7.95038e+08,-567059,0.0255013,0.299831,0,0.300913,7817.6,-28947.3,0,29984.4,567059
step02_gravity_refstate-crust.xmf,1639,-2.58703e-06,1.92566e-05,0,-1.80577e-05,-9.53222e+08,-9.51723e+08,-9.53044e+08,-1.23876e+06,-0.0263642,0.362218,-0,0.363176,4423.53,-34722.3,0,35003,1.23876e+06
step02_gravity_refstate-crust.xmf,1640,-3.40895e-06,5.6986e-06,0,-8.51905e-06,-8.10944e+08,-8.10319e+08,-8.1071e+08,-584407,0.0234524,0.304441,0,0.305343,7472.93,-29518.2,0,30449.5,584407
step02_gravity_refstate-crust.xmf,1641,-3.39792e-06,6.05164e-06,0,-8.782e-06,-8.26544e+08,-8.25896e+08,-8.26311e+08,-602445,0.0207057,0.309366,0,0.310058,7133.14,-30086.8,0,30920.8,602445
step02_gravity_refstate-crust.xmf,1642,-3.22134e-06,6.40054e-06,0,-9.06849e-06,-8.41313e+08,-8.40653e+08,-8.41092e+08,-622099,0.0172848,0.314108,0,0.314583,6824.92,-30625.7,0,31377,622099
step02_gravity_refstate-crust.xmf,1643,-2.88577e-06,6.71639e-06,0,-9.60649e-06,-8.55082e+08,-8.54423e+08,-8.54884e+08,-659006,0.013496,0.320604,0,0.320887,6481.07,-31128.8,0,31796.3,659006
step02_gravity_refstate-crust.xmf,1644,-2.33148e-06,7.4509e-06,0,-9.81593e-06,-8.71725e+08,-8.71054e+08,-8.71565e+08,-673373,0.00724626,0.320998,0,0.321079,6328.35,-31738.1,0,32362.9,673373
step02_gravity_refstate-crust.xmf,1645,-1.24757e-06,1.56017e-05,0,-1.53131e-05,-9.44491e+08,-9.43335e+08,-9.44405e+08,-1.05048e+06,-0.0237089,0.345818,-0,0.34663,4913.49,-34404.2,0,34753.3,1.05048e+06
step02_gravity_refstate-crust.xmf,1646,-1.81295e-06,8.17566e-06,0,-1.04472e-05,-8.85691e+08,-8.85006e+08,-8.85567e+08,-716677,0.00164042,0.32442,0,0.324424,6099.8,-32249.8,0,32821.6,716677
step02_gravity_refstate-crust.xmf,1647,-1.34518e-06,9.2033e-06,0,-1.14826e-05,-8.99762e+08,-8.99038e+08,-8.99669e+08,-787709,-0.00434506,0.329969,-0,0.329997,5811.04,-32765.5,0,33276.8,787709
step02_gravity_refstate-crust.xmf,1648,-9.78458e-07,1.28066e-05,0,-1.39943e-05,-9.29058e+08,-9.28113e+08,-9.28991e+08,-960012,-0.0172898,0.340859,-0,0.341298,5224.86,-33839.2,0,34240.2,960012
step02_gravity_refstate-crust.xmf,1649,-1.03679e-06,1.07661e-05,0,-1.27747e-05,-9.14526e+08,-9.13716e+08,-9.14455e+08,-876342,-0.0108765,0.336024,-0,0.3362,5504.41,-33306.7,0,33758.5,876342
step02_gravity_refstate-crust.xmf,1650,-4.39738e-06,2.34823e-05,0,-2.09567e-05,-9.60844e+08,-9.58931e+08,-9.60542e+08,-1.43763e+06,-0.027799,0.377307,-0,0.37833,4000,-34999,0,35226.9,1.43763e+06
step02_gravity_refstate-crust.xmf,1651,-5.06523e-06,2.68239e-05,0,-1.93889e-05,-9.74487e+08,-9.72299e+08,-9.7414e+08,-1.33008e+06,-0.0324119,0.364744,-0,0.366181,4000,-35498.2,0,35722.9,1.33008e+06
step02_gravity_refstate-crust.xmf,1652,-2.50508e-06,2.12213e-05,0,-1.69581e-05,-9.67585e+08,-9.65958e+08,-9.67413e+08,-1.16333e+06,-0.0317437,0.351096,-0,0.352528,4432.3,-35248.6,0,35526.2,1.16333e+06
step02_gravity_refstate-crust.xmf,1653,-4.27979e-06,2.86376e-05,0,-1.66611e-05,-9.88106e+08,-9.85847e+08,-9.87812e+08,-1.14295e+06,-0.0361452,0.350539,-0,0.352398,4000,-36000,0,36221.5,1.14295e+06
step02_gravity_refstate-crust.xmf,1654,-7.94312e-06,3.44763e-05,0,-1.15688e-05,-1.02312e+09,-1.02021e+09,-1.02257e+09,-793622,-0.0319112,0.336321,-0,0.337832,3083.33,-37268.9,0,37396.2,793622
step02_gravity_refstate-crust.xmf,1655,-8.37893e-06,3.49514e-05,0,-1.00662e-05,-1.0368e+09,-1.03382e+09,-1.03622e+09,-690540,-0.028258,0.325401,-0,0.326626,2758.89,-37765.8,0,37866.4,690540
step02_gravity_refstate-crust.xmf,1656,-1.00809e-05,3.84585e-05,0,-4.40601e-06,-1.05104e+09,-1.04771e+09,-1.05035e+09,-302252,-0.0125246,0.324999,-0,0.32524,1212.45,-38282.8,0,38302,302252
step02_gravity_refstate-crust.xmf,1657,-9.46266e-06,3.71326e-05,0,-6.53965e-06,-1.05094e+09,-1.04775e+09,-1.05029e+09,-448620,-0.0184298,0.31981,-0,0.320341,1818.81,-38279.9,0,38323,448620
step02_gravity_refstate-crust.xmf,1658,-9.05373e-06,3.72814e-05,0,-1.62684e-06,-1.07145e+09,-1.06827e+09,-1.07082e+09,-111601,-0.0041183,0.300151,-0,0.30018,454.987,-39028.1,0,39030.8,111601
step02_gravity_refstate-crust.xmf,1659,-6.5417e-06,3.25732e-05,0,7.95592e-06,-1.08271e+09,-1.08002e+09,-1.08226e+09,545776,0.0181445,0.2734,0,0.274001,-2410.24,-39441,-0,39514.6,545776
step02_gravity_refstate-crust.xmf,1660,-8.31368e-06,3.63679e-05,0,1.30085e-08,-1.08008e+09,-1.07702e+09,-1.07951e+09,892.383,-9.085e-08,0.289004,-0,0.289004,0,-39344.2,0,39344.2,892.383
step02_gravity_refstate-crust.xmf,1661,-7.94393e-06,3.55524e-05,0,3.56957e-06,-1.08184e+09,-1.07886e+09,-1.0813e+09,244872,0.00821984,0.284404,0,0.284523,-1024.47,-39408.5,-0,39421.8,244872
step02_gravity_refstate-crust.xmf,1662,-7.31843e-06,3.42191e-05,0,5.8859e-06,-1.08298e+09,-1.08013e+09,-1.08248e+09,403772,0.0133937,0.278852,0,0.279173,-1729.06,-39450.3,-0,39488.2,403772
step02_gravity_refstate-crust.xmf,1663,8.69906e-07,2.45519e-07,0,-2.60584e-06,-2.09369e+08,-2.09412e+08,-2.09429e+08,-178761,0.0255976,0.27717,0,0.278349,12611.3,-7626.2,0,14737.8,178761
step02_gravity_refstate-crust.xmf,1664,8.76711e-07,1.53097e-07,0,-2.22263e-06,-1.66768e+08,-1.66818e+08,-1.66828e+08,-152473,0.028321,0.272811,0,0.274277,13371.6,-6075.15,0,14686.9,152473
step02_gravity_refstate-crust.xmf,1665,8.26132e-07,8.12616e-08,0,-1.80738e-06,-1.26842e+08,-1.26893e+08,-1.26899e+08,-123986,0.0320572,0.267459,0,0.269374,14286.2,-4621.28,0,15015.1,123986
step02_gravity_refstate-crust.xmf,1666,2.91252e-07,-5.40805e-09,0,-5.66004e-07,-3.41462e+07,-3.41666e+07,-3.41662e+07,-38827.9,0.045493,0.25114,0,0.255227,17077.4,-1244.3,0,17122.7,38827.9
step02_gravity_refstate-crust.xmf,1667,-1.24023e-07,1.02782e-06,0,-6.02185e-06,-5.73423e+08,-5.73344e+08,-5.73414e+08,-413099,0.0294372,0.293637,0,0.295109,9526.02,-20877.1,0,22947.7,413099
step02_gravity_refstate-crust.xmf,1668,-1.21103e-06,2.11302e-06,0,-7.43192e-06,-6.74334e+08,-6.74106e+08,-6.74251e+08,-509830,0.0320542,0.297949,0,0.299669,8768.86,-24548.2,0,26067.3,509830
step02_gravity_refstate-crust.xmf,1669,5.83131e-07,5.31416e-07,0,-3.8082e-06,-3.59102e+08,-3.59106e+08,-3.59142e+08,-261243,0.0235034,0.283351,0,0.284324,11345.4,-13076.7,0,17312.3,261243
step02_gravity_refstate-crust.xmf,1670,5.57044e-07,5.74252e-07,0,-3.53936e-06,-3.24328e+08,-3.24326e+08,-3.24366e+08,-242800,0.0235459,0.279299,0,0.28029,12021.1,-11810.6,0,16852.2,242800
step02_gravity_refstate-crust.xmf,1671,5.47825e-07,5.72354e-07,0,-3.25397e-06,-2.8732e+08,-2.87318e+08,-2.87357e+08,-223223,0.0239956,0.275318,0,0.276362,12720.3,-10463.3,0,16470.8,223223
step02_gravity_refstate-crust.xmf,1672,4.31861e-07,6.63526e-07,0,-4.39176e-06,-4.2822e+08,-4.28205e+08,-4.2825e+08,-301275,0.0247529,0.285799,0,0.286869,10822,-15592.6,0,18980.1,301275
step02_gravity_refstate-crust.xmf,1673,-2.24789e-06,3.48341e-06,0,-7.88265e-06,-7.28266e+08,-7.27873e+08,-7.28112e+08,-540750,0.0310003,0.295899,0,0.297518,8563.58,-26509.6,0,27858.4,540750
step02_gravity_refstate-crust.xmf,1674,-3.13243e-06,5.03476e-06,0,-8.00333e-06,-7.7956e+08,-7.79e+08,-7.79345e+08,-549029,0.0269806,0.295485,0,0.296714,8167.19,-28375.8,0,29527.8,549029
step02_gravity_refstate-crust.xmf,1675,-1.95469e-06,2.28154e-05,0,-1.57029e-05,-9.81114e+08,-9.79415e+08,-9.8098e+08,-1.07722e+06,-0.0359173,0.339447,-0,0.341342,4447.3,-35745.9,0,36021.4,1.07722e+06
step02_gravity_refstate-crust.xmf,1676,-3.74004e-06,2.72406e-05,0,-1.55705e-05,-1.0004e+09,-9.98273e+08,-1.00014e+09,-1.06814e+06,-0.0382158,0.334276,-0,0.336453,4103.16,-36447.6,0,36677.8,1.06814e+06
step02_gravity_refstate-crust.xmf,1677,-4.85064e-06,2.90198e-05,0,-1.44865e-05,-1.01093e+09,-1.0086e+09,-1.01059e+09,-993772,-0.0378564,0.328536,-0,0.33071,3940.1,-36829.1,0,37039.2,993772
step02_gravity_refstate-crust.xmf,1678,-5.94012e-06,3.05402e-05,0,-1.32789e-05,-1.02308e+09,-1.02057e+09,-1.02267e+09,-910933,-0.0360094,0.322565,-0,0.324568,3672.07,-37269.4,0,37449.8,910933
step02_gravity_refstate-crust.xmf,1679,-8.48398e-06,3.51601e-05,0,-8.55986e-06,-1.05109e+09,-1.0481e+09,-1.05051e+09,-587206,-0.0239023,0.312177,-0,0.31309,2433.36,-38286.3,0,38363.5,587206
step02_gravity_refstate-crust.xmf,1680,-9.38097e-06,3.75097e-05,0,-3.29766e-06,-1.06438e+09,-1.06117e+09,-1.06374e+09,-226220,-0.00879143,0.308197,-0,0.308322,921.132,-38770,0,38781,226220
step02_gravity_refstate-crust.xmf,1681,-7.75289e-06,3.56396e-05,0,-1.59217e-06,-1.08555e+09,-1.08257e+09,-1.08502e+09,-109223,-0.00352331,0.281354,-0,0.281376,456.577,-39544.4,0,39547,109223
step02_gravity_refstate-crust.xmf,1682,-7.68754e-06,3.55798e-05,0,1.52483e-06,-1.08615e+09,-1.08318e+09,-1.08562e+09,104603,0.00334186,0.280606,0,0.280626,-436.61,-39566.4,-0,39568.9,104603
step02_gravity_refstate-crust.xmf,1683,5.53693e-07,5.24567e-07,0,-2.94096e-06,-2.47972e+08,-2.47974e+08,-2.4801e+08,-201750,0.0250151,0.271437,0,0.272588,13427.8,-9030.72,0,16182.1,201750
step02_gravity_refstate-crust.xmf,1684,7.13995e-07,3.10616e-08,0,-1.39247e-06,-9.30573e+07,-9.31041e+07,-9.31063e+07,-95523.2,0.0362136,0.261852,0,0.264344,15237.6,-3390.78,0,15610.3,95523.2
step02_gravity_refstate-crust.xmf,1685,-6.85432e-08,1.76265e-08,0,-1.66627e-08,-6867.65,-956.409,-2165.59,-1143.06,0.0519342,0.245204,0,0.250643,18134.4,0,0,18134.4,1143.06
step02_gravity_refstate-crust.xmf,1686,2.66259e-07,1.63828e-07,0,-1.18297e-06,-7.89867e+07,-7.89937e+07,-7.9005e+07,-81152,0.0388461,0.25106,0,0.254047,17068.7,-2876.92,0,17309.4,81152
step02_gravity_refstate-crust.xmf,1687,-7.76157e-07,1.65422e-06,0,-6.98632e-06,-6.4247e+08,-6.42303e+08,-6.42417e+08,-479262,0.0315429,0.296777,0,0.298449,9002.65,-23389.2,0,25062,479262
step02_gravity_refstate-crust.xmf,1688,-1.00766e-07,1.113e-06,0,-5.64158e-06,-5.47917e+08,-5.47833e+08,-5.4791e+08,-387013,0.028518,0.289261,0,0.290663,10028.7,-19948.8,0,22327.8,387013
step02_gravity_refstate-crust.xmf,1689,-7.36417e-07,1.73662e-06,0,-6.54844e-06,-6.21414e+08,-6.21244e+08,-6.21363e+08,-449223,0.0307657,0.291165,0,0.292786,9533.57,-22622.9,0,24549.6,449223
step02_gravity_refstate-crust.xmf,1690,-6.54991e-07,1.76578e-06,0,-6.13014e-06,-5.97401e+08,-5.97235e+08,-5.97356e+08,-420528,0.0299207,0.286496,0,0.288054,10047.2,-21749.1,0,23957.6,420528
step02_gravity_refstate-crust.xmf,1691,-1.31757e-06,2.44656e-06,0,-7.01044e-06,-6.64539e+08,-6.64281e+08,-6.64449e+08,-480916,0.0313791,0.290791,0,0.292479,9318.64,-24191.7,0,25924.4,480916
step02_gravity_refstate-crust.xmf,1692,-1.77e-06,3.05822e-06,0,-7.11489e-06,-6.87716e+08,-6.87385e+08,-6.87594e+08,-488081,0.0310115,0.287866,0,0.289532,9361.91,-25034.6,0,26727.8,488081
step02_gravity_refstate-crust.xmf,1693,-2.01876e-06,3.29504e-06,0,-7.49345e-06,-7.09575e+08,-7.0921e+08,-7.09436e+08,-514051,0.0310761,0.291618,0,0.293269,8956.94,-25829.7,0,27338.6,514051
step02_gravity_refstate-crust.xmf,1694,-6.573e-08,1.1587e-06,0,-5.28958e-06,-5.20666e+08,-5.20582e+08,-5.20662e+08,-362865,0.0275858,0.285405,0,0.286735,10527.6,-18956.9,0,21684,362865
step02_gravity_refstate-crust.xmf,1695,-9.73826e-09,1.15645e-06,0,-4.93947e-06,-4.89158e+08,-4.89078e+08,-4.89157e+08,-338848,0.0265968,0.282004,0,0.283256,11034.1,-17810,0,20951.1,338848
step02_gravity_refstate-crust.xmf,1696,2.57637e-07,9.13336e-07,0,-4.06903e-06,-3.91583e+08,-3.91538e+08,-3.91601e+08,-279135,0.0243386,0.277243,0,0.278309,12053.6,-14258.4,0,18670.6,279135
step02_gravity_refstate-crust.xmf,1697,3.92606e-08,1.17716e-06,0,-4.56723e-06,-4.52809e+08,-4.52731e+08,-4.52812e+08,-313312,0.0256083,0.278199,0,0.279375,11646.3,-16487,0,20185.6,313312
step02_gravity_refstate-crust.xmf,1698,2.2095e-07,9.50445e-07,0,-4.28814e-06,-4.17758e+08,-4.17708e+08,-4.17774e+08,-294166,0.0247755,0.279094,0,0.280192,11701.3,-15211.3,0,19191.2,294166
step02_gravity_refstate-crust.xmf,1699,-2.9274e-06,4.72837e-06,0,-7.72342e-06,-7.62935e+08,-7.6241e+08,-7.62734e+08,-529826,0.0280735,0.291244,0,0.292594,8537.02,-27770.9,0,29053.5,529826
step02_gravity_refstate-crust.xmf,1700,-2.73794e-06,4.53173e-06,0,-7.36989e-06,-7.46932e+08,-7.46433e+08,-7.46744e+08,-505575,0.0285746,0.286223,0,0.287646,8964.27,-27188.7,0,28628.4,505575
step02_gravity_refstate-crust.xmf,1701,-3.28632e-06,5.90675e-06,0,-7.24382e-06,-7.94901e+08,-7.94271e+08,-7.94676e+08,-496926,0.0232704,0.285532,0,0.286479,8513.71,-28935,0,30161.6,496926
step02_gravity_refstate-crust.xmf,1702,-3.35639e-06,6.2551e-06,0,-7.38998e-06,-8.10563e+08,-8.09903e+08,-8.10332e+08,-506952,0.0211754,0.289094,0,0.289868,8169.42,-29505.5,0,30615.5,506952
step02_gravity_refstate-crust.xmf,1703,-1.18697e-06,1.78747e-05,0,-1.50607e-05,-9.60162e+08,-9.58854e+08,-9.6008e+08,-1.03316e+06,-0.0298494,0.339348,-0,0.340658,4837.99,-34978.5,0,35311.5,1.03316e+06
step02_gravity_refstate-crust.xmf,1704,-3.32285e-06,6.62215e-06,0,-7.53804e-06,-8.26697e+08,-8.26015e+08,-8.26469e+08,-517110,0.018347,0.292954,0,0.293528,7819.67,-30093.5,0,31092.9,517110
step02_gravity_refstate-crust.xmf,1705,-3.14182e-06,6.97301e-06,0,-7.74707e-06,-8.42448e+08,-8.41754e+08,-8.42233e+08,-531449,0.0148573,0.297282,0,0.297653,7468.98,-30668.3,0,31564.7,531449
step02_gravity_refstate-crust.xmf,1706,-2.82954e-06,7.29227e-06,0,-8.05547e-06,-8.56457e+08,-8.55763e+08,-8.56263e+08,-552606,0.0110691,0.301722,0,0.301925,7148.23,-31180,0,31988.9,552606
step02_gravity_refstate-crust.xmf,1707,-2.35566e-06,7.76096e-06,0,-8.32066e-06,-8.7131e+08,-8.70616e+08,-8.71149e+08,-570797,0.00604535,0.304051,0,0.304111,6909.92,-31723.4,0,32467.2,570797
step02_gravity_refstate-crust.xmf,1708,-1.82216e-06,8.32333e-06,0,-8.68574e-06,-8.85432e+08,-8.84736e+08,-8.85307e+08,-595842,0.00068369,0.306223,0,0.306224,6687.75,-32240.6,0,32926.9,595842
step02_gravity_refstate-crust.xmf,1709,-3.43187e-07,1.355e-05,0,-1.25996e-05,-9.42758e+08,-9.41805e+08,-9.42734e+08,-864335,-0.023438,0.32478,-0,0.325625,5470.42,-34341.6,0,34774.6,864335
step02_gravity_refstate-crust.xmf,1710,-1.25238e-06,9.08123e-06,0,-9.34742e-06,-8.99991e+08,-8.99282e+08,-8.99905e+08,-641233,-0.00523579,0.309777,-0,0.309821,6416.09,-32774.1,0,33396.2,641233
step02_gravity_refstate-crust.xmf,1711,-7.67362e-07,1.01639e-05,0,-1.03375e-05,-9.14459e+08,-9.13709e+08,-9.14407e+08,-709153,-0.0113827,0.314951,-0,0.315156,6096.53,-33304.4,0,33857.8,709153
step02_gravity_refstate-crust.xmf,1712,-4.4532e-07,1.16501e-05,0,-1.14456e-05,-9.28846e+08,-9.28016e+08,-9.28815e+08,-785166,-0.0175973,0.31998,-0,0.320463,5781.67,-33831.8,0,34322.3,785166
step02_gravity_refstate-crust.xmf,1713,-7.11193e-07,1.87471e-05,0,-1.44578e-05,-9.74098e+08,-9.72763e+08,-9.74049e+08,-991805,-0.0345664,0.328357,-0,0.330172,4878.9,-35489.2,0,35823,991805
step02_gravity_refstate-crust.xmf,1714,-1.90599e-06,2.3663e-05,0,-1.52688e-05,-9.9484e+08,-9.93086e+08,-9.94709e+08,-1.04744e+06,-0.0386738,0.327168,-0,0.329446,4465.07,-36247.1,0,36521,1.04744e+06
step02_gravity_refstate-crust.xmf,1715,-2.52705e-06,2.46009e-05,0,-1.47259e-05,-1.00862e+09,-1.00676e+09,-1.00845e+09,-1.01019e+06,-0.0396017,0.316554,-0,0.319022,4417.19,-36747.7,0,37012.3,1.01019e+06
step02_gravity_refstate-crust.xmf,1716,-6.72697e-06,3.18531e-05,0,-1.17176e-05,-1.03682e+09,-1.03417e+09,-1.03636e+09,-803826,-0.0328775,0.313703,-0,0.315421,3371.22,-37768.6,0,37918.7,803826
step02_gravity_refstate-crust.xmf,1717,-7.13542e-06,3.24927e-05,0,-1.03852e-05,-1.05106e+09,-1.04834e+09,-1.05057e+09,-712426,-0.0287431,0.302839,-0,0.3042,3053.99,-38286.2,0,38407.8,712426
step02_gravity_refstate-crust.xmf,1718,-8.93642e-06,3.64901e-05,0,-5.15912e-06,-1.06604e+09,-1.06292e+09,-1.06542e+09,-353916,-0.0136557,0.302635,-0,0.302943,1470.15,-38830.4,0,38858.2,353916
step02_gravity_refstate-crust.xmf,1719,-8.17491e-06,3.49075e-05,0,-7.20412e-06,-1.06635e+09,-1.06339e+09,-1.06579e+09,-494203,-0.0189536,0.296666,-0,0.297271,2098.89,-38842.4,0,38899.1,494203
step02_gravity_refstate-crust.xmf,1720,-7.89205e-06,3.55522e-05,0,-3.59967e-06,-1.08153e+09,-1.07855e+09,-1.08099e+09,-246937,-0.0083213,0.284764,-0,0.284885,1033.33,-39397.3,0,39410.9,246937
step02_gravity_refstate-crust.xmf,1721,5.46052e-07,4.71838e-07,0,-2.59799e-06,-2.08124e+08,-2.08129e+08,-2.08161e+08,-178222,0.0267827,0.267103,0,0.268442,14212.8,-7579.89,0,16107.7,178222
step02_gravity_refstate-crust.xmf,1722,5.01319e-07,3.70819e-07,0,-2.2096e-06,-1.67195e+08,-1.67204e+08,-1.6723e+08,-151579,0.0295116,0.261928,0,0.263586,15134.1,-6089.52,0,16313.3,151579
step02_gravity_refstate-crust.xmf,1723,4.08329e-07,2.83001e-07,0,-1.77135e-06,-1.27139e+08,-1.27147e+08,-1.27167e+08,-121515,0.0331654,0.256337,0,0.258474,16121,-4630.71,0,16772.9,121515
step02_gravity_refstate-crust.xmf,1724,-2.43381e-07,2.55383e-07,0,-7.22715e-07,-4.88152e+07,-4.8781e+07,-4.87985e+07,-49578.2,0.0431905,0.239865,0,0.243723,19047.1,-1776.58,0,19129.8,49578.2
step02_gravity_refstate-crust.xmf,1725,-5.7728e-07,1.77141e-06,0,-5.75461e-06,-5.72483e+08,-5.72322e+08,-5.72443e+08,-394766,0.0290455,0.282302,0,0.283792,10563.5,-20842.2,0,23366.3,394766
step02_gravity_refstate-crust.xmf,1726,2.52805e-07,9.22079e-07,0,-3.79886e-06,-3.58805e+08,-3.58759e+08,-3.58822e+08,-260602,0.0240699,0.27346,0,0.274517,12707.4,-13065.1,0,18225.7,260602
step02_gravity_refstate-crust.xmf,1727,2.44611e-07,9.10618e-07,0,-3.51753e-06,-3.23663e+08,-3.23618e+08,-3.2368e+08,-241303,0.0241221,0.269232,0,0.270311,13460.6,-11785.7,0,17891,241303
step02_gravity_refstate-crust.xmf,1728,2.48561e-07,8.55886e-07,0,-3.21918e-06,-2.86387e+08,-2.86346e+08,-2.86404e+08,-220836,0.0246026,0.265198,0,0.266337,14217.2,-10428.5,0,17631.9,220836
step02_gravity_refstate-crust.xmf,1729,-2.53755e-06,4.34811e-06,0,-7.00963e-06,-7.29806e+08,-7.29334e+08,-7.29632e+08,-480860,0.0288327,0.281265,0,0.282739,9424.99,-26565.8,0,28188.2,480860
step02_gravity_refstate-crust.xmf,1730,-3.16269e-06,5.56742e-06,0,-7.08653e-06,-7.79477e+08,-7.78878e+08,-7.7926e+08,-486136,0.0247926,0.282029,0,0.283117,8865.64,-28373.5,0,29726.3,486136
step02_gravity_refstate-crust.xmf,1731,-4.08523e-07,1.53778e-05,0,-1.3409e-05,-9.54235e+08,-9.53153e+08,-9.54207e+08,-919858,-0.0279425,0.327435,-0,0.328625,5235.66,-34762.1,0,35154.1,919858
step02_gravity_refstate-crust.xmf,1732,-3.75211e-07,1.97999e-05,0,-1.40829e-05,-9.87989e+08,-9.86605e+08,-9.87964e+08,-966086,-0.0380307,0.317495,-0,0.319764,4907.39,-35997.9,0,36330.8,966086
step02_gravity_refstate-crust.xmf,1733,-3.73508e-06,2.65811e-05,0,-1.38334e-05,-1.0224e+09,-1.02032e+09,-1.02214e+09,-948972,-0.0387607,0.308819,-0,0.311242,4234.47,-37247.5,0,37487.4,948972
step02_gravity_refstate-crust.xmf,1734,-4.76692e-06,2.8134e-05,0,-1.28629e-05,-1.03635e+09,-1.0341e+09,-1.03603e+09,-882398,-0.0363537,0.30139,-0,0.303575,3966.96,-37753.7,0,37961.6,882398
step02_gravity_refstate-crust.xmf,1735,-7.13082e-06,3.27773e-05,0,-9.04152e-06,-1.06638e+09,-1.06364e+09,-1.06589e+09,-620248,-0.0238086,0.289201,-0,0.290179,2737.99,-38844.5,0,38940.9,620248
step02_gravity_refstate-crust.xmf,1736,2.44702e-07,7.74378e-07,0,-2.90062e-06,-2.47966e+08,-2.4793e+08,-2.47983e+08,-198982,0.0256518,0.260974,0,0.262231,15018.8,-9029.63,0,17524.2,198982
step02_gravity_refstate-crust.xmf,1737,-7.46353e-07,2.76678e-07,0,-1.53473e-08,-71176,-996.128,-19976.2,-1052.83,0.0510702,0.233488,0,0.239008,20294.4,0,0,20294.4,1052.83
step02_gravity_refstate-crust.xmf,1738,-1.58476e-07,3.98658e-07,0,-1.25761e-06,-9.25415e+07,-9.25032e+07,-9.25306e+07,-86271.9,0.0372518,0.240538,0,0.243405,18838.9,-3369.04,0,19137.8,86271.9
step02_gravity_refstate-crust.xmf,1739,-1.36862e-06,2.70612e-06,0,-6.51075e-06,-6.48463e+08,-6.48183e+08,-6.48369e+08,-446638,0.0304751,0.282586,0,0.284224,10032.7,-23606.6,0,25650.1,446638
step02_gravity_refstate-crust.xmf,1740,-5.0379e-07,1.75954e-06,0,-5.41071e-06,-5.46423e+08,-5.46268e+08,-5.46389e+08,-371175,0.0281548,0.27849,0,0.279909,11086.8,-19893.8,0,22774.5,371175
step02_gravity_refstate-crust.xmf,1741,-1.18254e-06,2.55845e-06,0,-6.10665e-06,-6.21821e+08,-6.21564e+08,-6.2174e+08,-418916,0.0297877,0.278511,0,0.2801,10558.7,-22637.2,0,24978.6,418916
step02_gravity_refstate-crust.xmf,1742,-1.04984e-06,2.47325e-06,0,-5.75608e-06,-5.97346e+08,-5.97105e+08,-5.97274e+08,-394867,0.0290377,0.274653,0,0.276184,11081.9,-21746.6,0,24407.4,394867
step02_gravity_refstate-crust.xmf,1743,-1.70958e-06,3.16561e-06,0,-6.64892e-06,-6.72543e+08,-6.72209e+08,-6.72426e+08,-456116,0.03033,0.281164,0,0.282795,9948.4,-24482.6,0,26426.7,456116
step02_gravity_refstate-crust.xmf,1744,-2.30273e-06,4.05758e-06,0,-6.7655e-06,-7.1046e+08,-7.10024e+08,-7.10302e+08,-464113,0.0292281,0.278473,0,0.280003,9792.59,-25862,0,27653.9,464113
step02_gravity_refstate-crust.xmf,1745,-4.34896e-07,1.73386e-06,0,-5.09137e-06,-5.19119e+08,-5.1897e+08,-5.19089e+08,-349268,0.0272693,0.274972,0,0.276321,11621.4,-18900,0,22187,349268
step02_gravity_refstate-crust.xmf,1746,-3.6912e-07,1.69477e-06,0,-4.77256e-06,-4.88721e+08,-4.8858e+08,-4.88696e+08,-327398,0.026363,0.271396,0,0.272674,12214.7,-17793.5,0,21582.6,327398
step02_gravity_refstate-crust.xmf,1747,-6.29855e-08,1.32006e-06,0,-3.98468e-06,-3.91438e+08,-3.91343e+08,-3.91433e+08,-273349,0.0244698,0.266836,0,0.267956,13412.9,-14252.5,0,19571.4,273349
step02_gravity_refstate-crust.xmf,1748,-9.26648e-08,1.37257e-06,0,-4.2871e-06,-4.2661e+08,-4.2651e+08,-4.26604e+08,-294095,0.02502,0.270657,0,0.271811,12707.6,-15532.9,0,20068.8,294095
step02_gravity_refstate-crust.xmf,1749,-3.02364e-06,5.37064e-06,0,-6.80116e-06,-7.64834e+08,-7.64258e+08,-7.64627e+08,-466559,0.0255579,0.277142,0,0.278318,9302.67,-27840.6,0,29353.7,466559
step02_gravity_refstate-crust.xmf,1750,-2.85984e-06,5.24468e-06,0,-6.41291e-06,-7.50606e+08,-7.5005e+08,-7.5041e+08,-439925,0.0257244,0.270935,0,0.272154,9842.08,-27323.1,0,29041.7,439925
step02_gravity_refstate-crust.xmf,1751,-3.19343e-06,6.26364e-06,0,-6.41234e-06,-7.958e+08,-7.95151e+08,-7.95581e+08,-439887,0.0210106,0.273181,0,0.273988,9156.51,-28968.7,0,30381.3,439887
step02_gravity_refstate-crust.xmf,1752,-3.2226e-06,6.59513e-06,0,-6.46473e-06,-8.10793e+08,-8.10119e+08,-8.10572e+08,-443480,0.0189002,0.275514,0,0.276161,8843.45,-29514.9,0,30811.3,443480
step02_gravity_refstate-crust.xmf,1753,-3.15433e-06,6.94201e-06,0,-6.49096e-06,-8.26547e+08,-8.25855e+08,-8.26331e+08,-445280,0.0160785,0.277819,0,0.278284,8529.65,-30089.3,0,31274.9,445280
step02_gravity_refstate-crust.xmf,1754,8.21842e-08,1.6135e-05,0,-1.29277e-05,-9.66469e+08,-9.65368e+08,-9.66475e+08,-886842,-0.0323277,0.318063,-0,0.319702,5299.45,-35210.6,0,35607.2,886842
step02_gravity_refstate-crust.xmf,1755,-2.96279e-06,7.288e-06,0,-6.60045e-06,-8.43014e+08,-8.42311e+08,-8.42811e+08,-452791,0.0125484,0.281208,0,0.281488,8164.16,-30690.1,0,31757.4,452791
step02_gravity_refstate-crust.xmf,1756,-2.64457e-06,7.59867e-06,0,-6.83624e-06,-8.58322e+08,-8.57619e+08,-8.58141e+08,-468966,0.00865354,0.285544,0,0.285675,7785.57,-31249.1,0,32204.4,468966
step02_gravity_refstate-crust.xmf,1757,-2.33132e-06,7.79979e-06,0,-7.29213e-06,-8.69512e+08,-8.68817e+08,-8.69352e+08,-500240,0.00551675,0.290976,0,0.291028,7428.64,-31658.1,0,32518,500240
step02_gravity_refstate-crust.xmf,1758,-1.81634e-06,8.2948e-06,0,-7.29923e-06,-8.83687e+08,-8.82993e+08,-8.83562e+08,-500727,0.000276607,0.289863,0,0.289863,7307.73,-32177,0,32996.4,500727
step02_gravity_refstate-crust.xmf,1759,-1.15055e-06,8.87262e-06,0,-7.70347e-06,-8.99648e+08,-8.9896e+08,-8.99569e+08,-528458,-0.00584813,0.291668,-0,0.291726,7048.82,-32761.7,0,33511.4,528458
step02_gravity_refstate-crust.xmf,1760,3.66297e-07,1.39587e-05,0,-1.16448e-05,-9.56421e+08,-9.55489e+08,-9.56446e+08,-798833,-0.028778,0.31055,-0,0.31188,5680.44,-34842.6,0,35302.6,798833
step02_gravity_refstate-crust.xmf,1761,2.81009e-07,1.21756e-05,0,-1.04935e-05,-9.43542e+08,-9.42726e+08,-9.43561e+08,-719854,-0.0237772,0.305246,-0,0.306171,6030.74,-34370.6,0,34895.7,719854
step02_gravity_refstate-crust.xmf,1762,-5.30878e-07,9.66594e-06,0,-8.44908e-06,-9.15007e+08,-9.14308e+08,-9.14971e+08,-579607,-0.0120283,0.295554,-0,0.295799,6721.81,-33324.6,0,33995.7,579607
step02_gravity_refstate-crust.xmf,1763,-4.13006e-08,1.0739e-05,0,-9.40233e-06,-9.29437e+08,-9.28697e+08,-9.29434e+08,-645000,-0.0179977,0.300288,-0,0.300827,6379.04,-33853.5,0,34449.3,645000
step02_gravity_refstate-crust.xmf,1764,5.08951e-07,1.66659e-05,0,-1.27273e-05,-9.80469e+08,-9.79361e+08,-9.80504e+08,-873095,-0.0363377,0.3076,-0,0.309739,5359.81,-35722.8,0,36122.7,873095
step02_gravity_refstate-crust.xmf,1765,-6.86718e-07,2.08966e-05,0,-1.39389e-05,-1.00286e+09,-1.00138e+09,-1.00282e+09,-956207,-0.0400757,0.306483,-0,0.309092,4907.03,-36539.8,0,36867.9,956207
step02_gravity_refstate-crust.xmf,1766,-1.46078e-06,2.21831e-05,0,-1.36087e-05,-1.02019e+09,-1.01857e+09,-1.02009e+09,-933560,-0.0404093,0.294748,-0,0.297505,4839.95,-37169.6,0,37483.4,933560
step02_gravity_refstate-crust.xmf,1767,-5.50251e-06,2.94438e-05,0,-1.1636e-05,-1.05087e+09,-1.04847e+09,-1.05049e+09,-798233,-0.0327212,0.292008,-0,0.293836,3680.08,-38281.2,0,38457.7,798233
step02_gravity_refstate-crust.xmf,1768,-5.78648e-06,3.00569e-05,0,-1.05841e-05,-1.06625e+09,-1.06379e+09,-1.06585e+09,-726066,-0.0279858,0.28029,-0,0.281684,3383.06,-38841.1,0,38988.1,726066
step02_gravity_refstate-crust.xmf,1769,-7.42125e-06,3.43213e-05,0,-5.90796e-06,-1.08188e+09,-1.07902e+09,-1.08137e+09,-405286,-0.013631,0.280176,-0,0.280508,1736.28,-39410.1,0,39448.3,405286
step02_gravity_refstate-crust.xmf,1770,-6.67437e-06,3.26314e-05,0,-7.86316e-06,-1.08199e+09,-1.07929e+09,-1.08153e+09,-539413,-0.0182112,0.27441,-0,0.275014,2395.55,-39414.4,0,39487.1,539413
step02_gravity_refstate-crust.xmf,1771,2.17883e-07,6.96889e-07,0,-2.55248e-06,-2.09493e+08,-2.0946e+08,-2.09508e+08,-175100,0.0273572,0.256461,0,0.257916,15869.7,-7628.77,0,17608.1,175100
step02_gravity_refstate-crust.xmf,1772,4.16005e-09,4.7374e-07,0,-1.68938e-06,-1.27638e+08,-1.27606e+08,-1.27638e+08,-115892,0.0335043,0.245073,0,0.247353,17978.2,-4647.54,0,18569.2,115892
step02_gravity_refstate-crust.xmf,1773,1.13263e-07,5.93175e-07,0,-2.15623e-06,-1.70206e+08,-1.70173e+08,-1.70214e+08,-147918,0.0298894,0.25002,0,0.2518,17033.6,-6197.89,0,18126.2,147918
step02_gravity_refstate-crust.xmf,1774,-8.09184e-07,4.73176e-07,0,-6.64211e-07,-4.9274e+07,-4.9186e+07,-4.92185e+07,-45564.9,0.0419545,0.227563,0,0.231399,21279.4,-1791.33,0,21354.7,45564.9
step02_gravity_refstate-crust.xmf,1775,-4.94384e-07,4.96017e-07,0,-1.0845e-06,-8.31852e+07,-8.31173e+07,-8.31513e+07,-74396.9,0.0379556,0.232599,0,0.235676,20253.1,-3027.21,0,20478,74396.9
step02_gravity_refstate-crust.xmf,1776,-9.33277e-07,2.38929e-06,0,-5.43723e-06,-5.7233e+08,-5.72102e+08,-5.72266e+08,-372994,0.0282549,0.271155,0,0.272623,11606.8,-20836.2,0,23850.9,372994
step02_gravity_refstate-crust.xmf,1777,-2.09097e-06,3.83458e-06,0,-6.47369e-06,-6.90795e+08,-6.90388e+08,-6.90651e+08,-444095,0.0292554,0.27505,0,0.276601,10219.9,-25146.6,0,27144,444095
step02_gravity_refstate-crust.xmf,1778,-5.58666e-08,1.28399e-06,0,-3.71572e-06,-3.58955e+08,-3.58863e+08,-3.58951e+08,-254898,0.0242151,0.262733,0,0.263847,14166.3,-13069.9,0,19274.5,254898
step02_gravity_refstate-crust.xmf,1779,-5.15366e-08,1.22235e-06,0,-3.43019e-06,-3.23947e+08,-3.2386e+08,-3.23943e+08,-235311,0.0242696,0.25836,0,0.259498,14997,-11795.3,0,19079.8,235311
step02_gravity_refstate-crust.xmf,1780,-3.18198e-08,1.11501e-06,0,-3.12628e-06,-2.86726e+08,-2.86648e+08,-2.86724e+08,-214463,0.024765,0.254605,0,0.255806,15769,-10440.2,0,18911.8,214463
step02_gravity_refstate-crust.xmf,1781,-3.32236e-07,1.68605e-06,0,-4.50734e-06,-4.62948e+08,-4.6281e+08,-4.62926e+08,-309204,0.0256559,0.267916,0,0.269142,12795.4,-16855.4,0,21161.9,309204
step02_gravity_refstate-crust.xmf,1782,-2.66318e-06,4.92994e-06,0,-6.26316e-06,-7.31874e+08,-7.31353e+08,-7.31691e+08,-429653,0.0266068,0.268625,0,0.26994,10214.2,-26641.4,0,28532.4,429653
step02_gravity_refstate-crust.xmf,1783,-3.12992e-06,5.98687e-06,0,-6.34414e-06,-7.81995e+08,-7.81369e+08,-7.8178e+08,-435208,0.0225464,0.271045,0,0.271981,9450.77,-28465.9,0,29993.7,435208
step02_gravity_refstate-crust.xmf,1784,5.65282e-07,1.76776e-05,0,-1.27159e-05,-9.95275e+08,-9.94101e+08,-9.95314e+08,-872311,-0.0392169,0.297438,-0,0.300012,5386.96,-36263.6,0,36661.6,872311
step02_gravity_refstate-crust.xmf,1785,-2.837e-06,2.4602e-05,0,-1.30792e-05,-1.03519e+09,-1.03331e+09,-1.035e+09,-897233,-0.0386858,0.289173,-0,0.29175,4548.2,-37713.9,0,37987.1,897233
step02_gravity_refstate-crust.xmf,1786,-3.68665e-06,2.59342e-05,0,-1.24001e-05,-1.05031e+09,-1.04828e+09,-1.05006e+09,-850649,-0.0356954,0.280408,-0,0.282671,4308.29,-38262.8,0,38504.6,850649
step02_gravity_refstate-crust.xmf,1787,-5.68567e-06,3.0431e-05,0,-9.52754e-06,-1.08206e+09,-1.07958e+09,-1.08167e+09,-653589,-0.0223046,0.267052,-0,0.267982,3066.8,-39417.6,0,39536.8,653589
step02_gravity_refstate-crust.xmf,1788,-5.00343e-08,1.01847e-06,0,-2.79595e-06,-2.49263e+08,-2.49189e+08,-2.49259e+08,-191802,0.0257726,0.249966,0,0.251291,16680.9,-9076.03,0,18990.2,191802
step02_gravity_refstate-crust.xmf,1789,-3.63561e-07,6.24943e-07,0,-1.54017e-06,-1.24553e+08,-1.24485e+08,-1.24528e+08,-105655,0.0334766,0.234235,0,0.236615,19819.3,-4533.97,0,20331.3,105655
step02_gravity_refstate-crust.xmf,1790,-1.36262e-06,5.11422e-07,0,-1.64654e-08,-129679,-1119.68,-36203.2,-1129.52,0.04875,0.222099,0,0.227386,22506.7,0,0,22506.7,1129.52
step02_gravity_refstate-crust.xmf,1791,-1.86975e-06,3.59457e-06,0,-6.19679e-06,-6.68896e+08,-6.68522e+08,-6.68768e+08,-425100,0.0291566,0.272101,0,0.273659,10652.9,-24349.8,0,26578.2,425100
step02_gravity_refstate-crust.xmf,1792,-8.38112e-07,2.31927e-06,0,-5.13443e-06,-5.46569e+08,-5.46352e+08,-5.46511e+08,-352222,0.0274294,0.267595,0,0.268997,12172.6,-19898.6,0,23326.5,352222
step02_gravity_refstate-crust.xmf,1793,-1.6596e-06,3.36005e-06,0,-5.92873e-06,-6.45604e+08,-6.4526e+08,-6.4549e+08,-406711,0.0289117,0.269555,0,0.271101,11083.7,-23502.4,0,25984.8,406711
step02_gravity_refstate-crust.xmf,1794,-1.48531e-06,3.18632e-06,0,-5.63102e-06,-6.21757e+08,-6.21436e+08,-6.21655e+08,-386288,0.028403,0.266288,0,0.267799,11596.6,-22634.6,0,25432.4,386288
step02_gravity_refstate-crust.xmf,1795,-1.33024e-06,3.02449e-06,0,-5.36401e-06,-5.97836e+08,-5.97537e+08,-5.97744e+08,-367971,0.0278377,0.263472,0,0.264938,12092,-21764.1,0,24897.7,367971
step02_gravity_refstate-crust.xmf,1796,-2.45296e-06,4.6363e-06,0,-6.05451e-06,-7.11816e+08,-7.11329e+08,-7.11647e+08,-415339,0.0270776,0.265613,0,0.26699,10660.4,-25911.6,0,28018.8,415339
step02_gravity_refstate-crust.xmf,1797,-7.49286e-07,2.24405e-06,0,-4.83777e-06,-5.18746e+08,-5.1854e+08,-5.18694e+08,-331871,0.0265733,0.264035,0,0.265368,12785.8,-18885.9,0,22806.9,331871
step02_gravity_refstate-crust.xmf,1798,-3.42229e-07,1.67545e-06,0,-3.85071e-06,-3.93123e+08,-3.92984e+08,-3.93099e+08,-264159,0.0242005,0.256137,0,0.257277,14802.7,-14313.2,0,20591,264159
step02_gravity_refstate-crust.xmf,1799,-6.61737e-07,2.15246e-06,0,-4.55916e-06,-4.8954e+08,-4.89347e+08,-4.89495e+08,-312758,0.025762,0.260787,0,0.262056,13405.4,-17822.9,0,22301.6,312758
step02_gravity_refstate-crust.xmf,1800,-3.4547e-07,1.70345e-06,0,-4.08848e-06,-4.19116e+08,-4.18976e+08,-4.19093e+08,-280470,0.0246282,0.260383,0,0.261545,14046.7,-15259.6,0,20740.4,280470
step02_gravity_refstate-crust.xmf,1801,-5.51492e-07,2.02544e-06,0,-4.26646e-06,-4.54919e+08,-4.54742e+08,-4.54881e+08,-292679,0.0249952,0.258125,0,0.259332,14027,-16562.7,0,21704.4,292679
step02_gravity_refstate-crust.xmf,1802,-2.83705e-06,5.66637e-06,0,-5.6491e-06,-7.53223e+08,-7.5264e+08,-7.53029e+08,-387528,0.0231538,0.258264,0,0.2593,10633.8,-27419.2,0,29409,387528
step02_gravity_refstate-crust.xmf,1803,-3.00192e-06,6.02609e-06,0,-5.81427e-06,-7.74248e+08,-7.73629e+08,-7.74042e+08,-398859,0.0218303,0.262161,0,0.263068,10088.6,-28184.5,0,29935.7,398859
step02_gravity_refstate-crust.xmf,1804,-3.04924e-06,6.48569e-06,0,-5.68596e-06,-7.96505e+08,-7.95851e+08,-7.96296e+08,-390057,0.0188566,0.261788,0,0.262466,9801.73,-28995.3,0,30607.2,390057
step02_gravity_refstate-crust.xmf,1805,-3.07271e-06,6.72095e-06,0,-5.82129e-06,-8.10504e+08,-8.09833e+08,-8.10294e+08,-399341,0.0171361,0.264927,0,0.26548,9423.11,-29505.2,0,30973.4,399341
step02_gravity_refstate-crust.xmf,1806,-2.94226e-06,7.08886e-06,0,-5.62313e-06,-8.26271e+08,-8.25583e+08,-8.26069e+08,-385747,0.0139147,0.263862,0,0.264229,9261.35,-30080.3,0,31473.8,385747
step02_gravity_refstate-crust.xmf,1807,-2.72676e-06,7.41108e-06,0,-5.64517e-06,-8.43214e+08,-8.42519e+08,-8.43027e+08,-387258,0.010387,0.266152,0,0.266355,8900.04,-30698.5,0,31962.6,387258
step02_gravity_refstate-crust.xmf,1808,9.72117e-07,1.44697e-05,0,-1.12927e-05,-9.71657e+08,-9.70731e+08,-9.71724e+08,-774677,-0.0336587,0.298467,-0,0.300359,5810.74,-35400.5,0,35874.2,774677
step02_gravity_refstate-crust.xmf,1809,-2.36933e-06,7.7426e-06,0,-5.76512e-06,-8.60616e+08,-8.59922e+08,-8.60453e+08,-395488,0.00607924,0.269282,0,0.269351,8501.31,-31334,0,32466.8,395488
step02_gravity_refstate-crust.xmf,1810,-1.87659e-06,8.11677e-06,0,-6.1401e-06,-8.77956e+08,-8.77271e+08,-8.77828e+08,-421211,0.00115042,0.27475,0,0.274753,8012.51,-31967.9,0,32956.7,421211
step02_gravity_refstate-crust.xmf,1811,-1.08663e-06,8.58963e-06,0,-6.38563e-06,-8.97831e+08,-8.97168e+08,-8.97757e+08,-438054,-0.00589706,0.274908,-0,0.274972,7741.44,-32695.4,0,33599.3,438054
step02_gravity_refstate-crust.xmf,1812,-3.4391e-07,9.20207e-06,0,-6.98348e-06,-9.15447e+08,-9.14792e+08,-9.15423e+08,-479067,-0.0124976,0.27773,-0,0.278011,7387.09,-33340.6,0,34149.2,479067
step02_gravity_refstate-crust.xmf,1813,1.02991e-06,1.25129e-05,0,-9.91192e-06,-9.59277e+08,-9.58489e+08,-9.59348e+08,-679958,-0.0293718,0.291332,-0,0.292808,6254.38,-34947,0,35502.2,679958
step02_gravity_refstate-crust.xmf,1814,7.16803e-07,1.10336e-05,0,-8.74069e-06,-9.44629e+08,-9.43921e+08,-9.44678e+08,-599611,-0.0238759,0.286196,-0,0.28719,6657.23,-34410.1,0,35048.2,599611
step02_gravity_refstate-crust.xmf,1815,2.60396e-07,9.9872e-06,0,-7.77629e-06,-9.30628e+08,-9.29961e+08,-9.30646e+08,-533454,-0.0184025,0.281567,-0,0.282168,7028.23,-33897,0,34617.9,533454
step02_gravity_refstate-crust.xmf,1816,1.28065e-06,1.49846e-05,0,-1.13457e-05,-9.86632e+08,-9.85691e+08,-9.86719e+08,-778313,-0.0372532,0.288504,-0,0.2909,5874.5,-35947.7,0,36424.5,778313
step02_gravity_refstate-crust.xmf,1817,2.03727e-07,1.87314e-05,0,-1.27193e-05,-1.01101e+09,-1.00974e+09,-1.01103e+09,-872547,-0.0406813,0.287009,-0,0.289877,5386.78,-36836.8,0,37228.6,872547
step02_gravity_refstate-crust.xmf,1818,-1.42454e-06,2.1838e-05,0,-1.28177e-05,-1.03496e+09,-1.03337e+09,-1.03487e+09,-879293,-0.0397295,0.278183,-0,0.281005,5031.15,-37707,0,38041.1,879293
step02_gravity_refstate-crust.xmf,1819,-2.25601e-07,1.93786e-05,0,-1.25441e-05,-1.0263e+09,-1.02495e+09,-1.02628e+09,-860526,-0.0406642,0.27579,-0,0.278772,5410.45,-37392.4,0,37781.8,860526
step02_gravity_refstate-crust.xmf,1820,-4.29925e-06,2.71271e-05,0,-1.15205e-05,-1.066e+09,-1.06384e+09,-1.0657e+09,-790305,-0.0313436,0.270103,-0,0.271916,4039.87,-38833.3,0,39042.9,790305
step02_gravity_refstate-crust.xmf,1821,-4.49824e-06,2.77815e-05,0,-1.08204e-05,-1.08202e+09,-1.07981e+09,-1.08172e+09,-742280,-0.0257339,0.25851,-0,0.259787,3741.73,-39417,0,39594.2,742280
step02_gravity_refstate-crust.xmf,1822,-1.92968e-07,9.82672e-07,0,-2.47526e-06,-2.194e+08,-2.19319e+08,-2.19387e+08,-169803,0.0268906,0.241939,0,0.243429,18094.7,-7988.21,0,19779.6,169803
step02_gravity_refstate-crust.xmf,1823,-2.46597e-07,7.85196e-07,0,-2.01978e-06,-1.70508e+08,-1.70437e+08,-1.70491e+08,-138557,0.0297385,0.237994,0,0.239845,18986.7,-6207.72,0,19975.8,138557
step02_gravity_refstate-crust.xmf,1824,-7.85983e-07,7.1525e-07,0,-1.24533e-06,-1.07368e+08,-1.07265e+08,-1.07314e+08,-85429.5,0.0340948,0.223075,0,0.225665,21879.6,-3906.75,0,22225.7,85429.5
step02_gravity_refstate-crust.xmf,1825,-1.29237e-06,6.76391e-07,0,-6.29524e-07,-5.44873e+07,-5.43522e+07,-5.43986e+07,-43185.4,0.0388446,0.215754,0,0.219223,23551,-1979.48,0,23634,43185.4
step02_gravity_refstate-crust.xmf,1826,-1.85262e-06,7.10273e-07,0,-1.15004e-08,-175676,138.426,-48586.3,-788.926,0.0450445,0.211335,0,0.216083,24778,0,0,24778,788.926
step02_gravity_refstate-crust.xmf,1827,-1.20115e-06,2.88964e-06,0,-5.10275e-06,-5.73722e+08,-5.73441e+08,-5.73639e+08,-350048,0.0271795,0.260496,0,0.26191,12624.1,-20886.5,0,24405.2,350048
step02_gravity_refstate-crust.xmf,1828,-2.24897e-06,4.37586e-06,0,-5.82539e-06,-6.91076e+08,-6.90622e+08,-6.90922e+08,-399622,0.0272482,0.262501,0,0.263912,11138.3,-25157,0,27512.5,399622
step02_gravity_refstate-crust.xmf,1829,-2.41062e-07,1.2945e-06,0,-2.99956e-06,-2.85378e+08,-2.85273e+08,-2.85361e+08,-205770,0.0246197,0.245731,0,0.246961,17092,-10390.5,0,20002.5,205770
step02_gravity_refstate-crust.xmf,1830,-3.23028e-07,1.5969e-06,0,-3.57791e-06,-3.60728e+08,-3.60596e+08,-3.60706e+08,-245445,0.0239365,0.251904,0,0.253039,15634.5,-13133.8,0,20419,245445
step02_gravity_refstate-crust.xmf,1831,-3.40579e-07,1.51914e-06,0,-3.27415e-06,-3.2604e+08,-3.25912e+08,-3.26016e+08,-224607,0.0239111,0.246181,0,0.247339,16720.2,-11870.8,0,20505.6,224607
step02_gravity_refstate-crust.xmf,1832,-2.66881e-06,5.33592e-06,0,-5.53724e-06,-7.33185e+08,-7.32636e+08,-7.33002e+08,-379854,0.0241675,0.255862,0,0.257001,11081.4,-26689.8,0,28898.8,379854
step02_gravity_refstate-crust.xmf,1833,1.19854e-06,1.60057e-05,0,-1.15379e-05,-1.00278e+09,-1.00176e+09,-1.00286e+09,-791500,-0.039699,0.278828,-0,0.28164,5893.52,-36536.7,0,37009,791500
step02_gravity_refstate-crust.xmf,1834,-7.21536e-07,2.01719e-05,0,-1.22317e-05,-1.04189e+09,-1.04046e+09,-1.04184e+09,-839098,-0.0393763,0.264289,-0,0.267206,5421.64,-37959.4,0,38344.6,839098
step02_gravity_refstate-crust.xmf,1835,-2.04379e-06,2.27957e-05,0,-1.24154e-05,-1.04933e+09,-1.04762e+09,-1.04919e+09,-851699,-0.0376131,0.268908,-0,0.271526,4920.77,-38228.8,0,38544.2,851699
step02_gravity_refstate-crust.xmf,1836,-2.74207e-06,2.39054e-05,0,-1.20302e-05,-1.06498e+09,-1.06315e+09,-1.06479e+09,-825270,-0.0339134,0.259674,-0,0.261879,4704.01,-38797.6,0,39081.8,825270
step02_gravity_refstate-crust.xmf,1837,-1.67554e-06,8.63507e-07,0,-5.98977e-07,-6.37611e+07,-6.35869e+07,-6.36462e+07,-41089.9,0.0340589,0.204147,0,0.206969,25985.2,-2315.85,0,26088.2,41089.9
step02_gravity_refstate-crust.xmf,1838,-2.38079e-06,9.0478e-07,0,-1.29617e-08,-226099,-709.591,-62777.5,-889.175,0.0400534,0.201485,0,0.205428,27114.8,0,0,27114.8,889.175
step02_gravity_refstate-crust.xmf,1839,-2.7325e-07,1.21036e-06,0,-2.76069e-06,-2.59261e+08,-2.5916e+08,-2.59243e+08,-189383,0.0252138,0.241487,0,0.2428,17916.5,-9439.43,0,20251,189383
step02_gravity_refstate-crust.xmf,1840,-5.69313e-07,9.16651e-07,0,-1.81583e-06,-1.66024e+08,-1.65922e+08,-1.65985e+08,-124566,0.029283,0.226596,0,0.22848,20938,-6043.4,0,21792.8,124566
step02_gravity_refstate-crust.xmf,1841,-2.04644e-06,4.11704e-06,0,-5.60775e-06,-6.68956e+08,-6.68533e+08,-6.68815e+08,-384692,0.0272735,0.259858,0,0.261285,11613.3,-24352.1,0,26979.5,384692
step02_gravity_refstate-crust.xmf,1842,-1.1179e-06,2.81506e-06,0,-4.82178e-06,-5.49359e+08,-5.49089e+08,-5.49282e+08,-330774,0.0263501,0.256354,0,0.257705,13301.8,-19999.8,0,24019.4,330774
step02_gravity_refstate-crust.xmf,1843,-1.85224e-06,3.87241e-06,0,-5.38751e-06,-6.45705e+08,-6.45312e+08,-6.45578e+08,-369583,0.0271155,0.257351,0,0.258776,12105.3,-23506,0,26440,369583
step02_gravity_refstate-crust.xmf,1844,-1.67645e-06,3.65249e-06,0,-5.17183e-06,-6.22225e+08,-6.21859e+08,-6.2211e+08,-354787,0.0268068,0.254982,0,0.256387,12602.2,-22651.6,0,25921.2,354787
step02_gravity_refstate-crust.xmf,1845,-1.52182e-06,3.45082e-06,0,-4.99015e-06,-5.99729e+08,-5.99388e+08,-5.99624e+08,-342324,0.0264799,0.253287,0,0.254667,13035.3,-21832.9,0,25428.2,342324
step02_gravity_refstate-crust.xmf,1846,-2.49248e-06,5.05041e-06,0,-5.37522e-06,-7.13272e+08,-7.12754e+08,-7.13101e+08,-368740,0.0246992,0.252962,0,0.254165,11576.7,-25965.1,0,28429,368740
step02_gravity_refstate-crust.xmf,1847,-1.00937e-06,2.69486e-06,0,-4.55118e-06,-5.21572e+08,-5.21318e+08,-5.21503e+08,-312211,0.0255452,0.25284,0,0.254127,13982.1,-18988.4,0,23580.9,312211
step02_gravity_refstate-crust.xmf,1848,-6.4103e-07,2.13324e-06,0,-3.94453e-06,-4.31305e+08,-4.31115e+08,-4.31261e+08,-270594,0.0240518,0.249152,0,0.25031,15366.9,-15702.8,0,21970.9,270594
step02_gravity_refstate-crust.xmf,1849,-5.73403e-07,1.98005e-06,0,-3.6634e-06,-3.95722e+08,-3.95546e+08,-3.95682e+08,-251309,0.0235574,0.24541,0,0.246538,16209.2,-14407.4,0,21686.6,251309
step02_gravity_refstate-crust.xmf,1850,-8.94316e-07,2.53626e-06,0,-4.2977e-06,-4.90748e+08,-4.90513e+08,-4.90687e+08,-294822,0.0248154,0.250064,0,0.251293,14636.1,-17866.5,0,23096,294822
step02_gravity_refstate-crust.xmf,1851,-2.71888e-06,5.90507e-06,0,-4.95633e-06,-7.54607e+08,-7.54015e+08,-7.5442e+08,-340004,0.0205829,0.245829,0,0.246689,11494.7,-27470.3,0,29778.3,340004
step02_gravity_refstate-crust.xmf,1852,-2.81537e-06,6.24957e-06,0,-4.99383e-06,-7.75259e+08,-7.74637e+08,-7.75066e+08,-342577,0.0189496,0.24783,0,0.248554,11023.1,-28222.4,0,30298.7,342577
step02_gravity_refstate-crust.xmf,1853,-2.79189e-06,7.01647e-06,0,-5.01887e-06,-8.19273e+08,-8.186e+08,-8.19081e+08,-344294,0.0134529,0.252819,0,0.253177,10005.6,-29826,0,31459.6,344294
step02_gravity_refstate-crust.xmf,1854,-2.84759e-06,6.62203e-06,0,-4.99248e-06,-7.96797e+08,-7.96147e+08,-7.96602e+08,-342484,0.0165837,0.249769,0,0.250319,10551.1,-29006.9,0,30866.3,342484
step02_gravity_refstate-crust.xmf,1855,-2.49872e-06,7.38397e-06,0,-4.88018e-06,-8.4163e+08,-8.40952e+08,-8.41459e+08,-334780,0.00880238,0.252553,0,0.252707,9672.51,-30641.7,0,32132.1,334780
step02_gravity_refstate-crust.xmf,1856,-2.11022e-06,7.68608e-06,0,-4.90436e-06,-8.60878e+08,-8.60206e+08,-8.60733e+08,-336439,0.004248,0.254218,0,0.254253,9278.75,-31344.5,0,32689,336439
step02_gravity_refstate-crust.xmf,1857,1.57173e-06,1.30179e-05,0,-9.89409e-06,-9.76382e+08,-9.75597e+08,-9.7649e+08,-678735,-0.0342031,0.279819,-0,0.281901,6381.17,-35572.7,0,36140.5,678735
step02_gravity_refstate-crust.xmf,1858,-1.59964e-06,7.98499e-06,0,-5.05805e-06,-8.79079e+08,-8.78421e+08,-8.78969e+08,-346982,-0.000742409,0.256601,-0,0.256602,8872.93,-32009.6,0,33216.6,346982
step02_gravity_refstate-crust.xmf,1859,-9.73639e-07,8.3227e-06,0,-5.3691e-06,-8.96735e+08,-8.96097e+08,-8.96668e+08,-368320,-0.00624445,0.259429,-0,0.259504,8465.71,-32655.5,0,33735,368320
step02_gravity_refstate-crust.xmf,1860,-2.21054e-07,8.77295e-06,0,-5.84414e-06,-9.15295e+08,-9.14678e+08,-9.1528e+08,-400908,-0.0126376,0.26157,-0,0.261875,8088.79,-33334.9,0,34302.3,400908
step02_gravity_refstate-crust.xmf,1861,4.56608e-07,9.35823e-06,0,-6.51865e-06,-9.31733e+08,-9.31122e+08,-9.31764e+08,-447179,-0.0185632,0.26455,-0,0.2652,7709.63,-33937,0,34801.7,447179
step02_gravity_refstate-crust.xmf,1862,1.51807e-06,1.11695e-05,0,-8.38052e-06,-9.63461e+08,-9.62799e+08,-9.63565e+08,-574904,-0.029769,0.270518,-0,0.272151,6963.42,-35099.2,0,35783.3,574904
step02_gravity_refstate-crust.xmf,1863,1.00606e-06,1.01229e-05,0,-7.35986e-06,-9.46478e+08,-9.45852e+08,-9.46547e+08,-504887,-0.0239411,0.268178,-0,0.269245,7330.26,-34477.2,0,35247.9,504887
step02_gravity_refstate-crust.xmf,1864,1.77502e-06,1.36682e-05,0,-1.02026e-05,-9.93644e+08,-9.92828e+08,-9.93765e+08,-699897,-0.0376871,0.270341,-0,0.272955,6421.54,-36202.9,0,36768,699897
step02_gravity_refstate-crust.xmf,1865,8.57888e-07,1.69141e-05,0,-1.16446e-05,-1.01909e+09,-1.01799e+09,-1.01915e+09,-798820,-0.0406148,0.26865,-0,0.271702,5909.89,-37130.5,0,37597.9,798820
step02_gravity_refstate-crust.xmf,1866,4.11588e-07,1.76223e-05,0,-1.16537e-05,-1.03559e+09,-1.03441e+09,-1.03562e+09,-799442,-0.0400702,0.25793,-0,0.261024,5924.5,-37730.5,0,38192.9,799442
step02_gravity_refstate-crust.xmf,1867,-3.30152e-06,2.509e-05,0,-1.15062e-05,-1.08168e+09,-1.07974e+09,-1.08146e+09,-789324,-0.0284893,0.249217,-0,0.25084,4424.36,-39405.3,0,39652.9,789324
step02_gravity_refstate-crust.xmf,1868,-2.12643e-06,1.00408e-06,0,-4.20757e-07,-5.4792e+07,-5.45773e+07,-5.46462e+07,-28863.9,0.0302534,0.194329,0,0.19667,28503.7,-1987.71,0,28573,28863.9
step02_gravity_refstate-crust.xmf,1869,-2.76537e-06,1.05223e-06,0,-1.1017e-08,-262568,-680.296,-72863.3,-755.765,0.0338684,0.192823,0,0.195775,29522.7,0,0,29522.7,755.765
step02_gravity_refstate-crust.xmf,1870,-4.82551e-07,1.57853e-06,0,-2.9688e-06,-3.05598e+08,-3.05456e+08,-3.05564e+08,-203660,0.0236461,0.236143,0,0.237324,18373.4,-11126.1,0,21479.5,203660
step02_gravity_refstate-crust.xmf,1871,-4.68492e-07,1.35821e-06,0,-2.62574e-06,-2.61543e+08,-2.61417e+08,-2.6151e+08,-180126,0.0246233,0.232648,0,0.233948,19280.2,-9521.92,0,21503.3,180126
step02_gravity_refstate-crust.xmf,1872,-4.8073e-07,1.1292e-06,0,-2.25578e-06,-2.15226e+08,-2.15116e+08,-2.15193e+08,-154747,0.0264528,0.229958,0,0.231475,20056.5,-7835.34,0,21532.7,154747
step02_gravity_refstate-crust.xmf,1873,-1.18295e-06,8.92173e-07,0,-1.0996e-06,-1.11433e+08,-1.11291e+08,-1.11352e+08,-75432.3,0.0313598,0.210755,0,0.213075,24235.4,-4053.43,0,24572.1,75432.3
step02_gravity_refstate-crust.xmf,1874,-8.80573e-07,1.03331e-06,0,-1.59527e-06,-1.62446e+08,-1.62315e+08,-1.62386e+08,-109436,0.0280921,0.215459,0,0.217282,22969.5,-5912.06,0,23718.1,109436
step02_gravity_refstate-crust.xmf,1875,-1.38364e-06,3.27852e-06,0,-4.78355e-06,-5.76501e+08,-5.76181e+08,-5.76406e+08,-328151,0.0259947,0.251086,0,0.252428,13535.9,-20987.6,0,24974,328151
step02_gravity_refstate-crust.xmf,1876,-2.31331e-06,4.78392e-06,0,-5.19903e-06,-6.92435e+08,-6.91948e+08,-6.92276e+08,-356653,0.0249736,0.250099,0,0.251343,12098.9,-25206.8,0,27960.1,356653
step02_gravity_refstate-crust.xmf,1877,-5.25053e-07,1.85217e-06,0,-3.42926e-06,-3.65857e+08,-3.65694e+08,-3.65821e+08,-235247,0.0233592,0.242386,0,0.243509,16912.8,-13320.1,0,21528.3,235247
step02_gravity_refstate-crust.xmf,1878,-8.13335e-07,2.41798e-06,0,-4.08109e-06,-4.64821e+08,-4.64599e+08,-4.64765e+08,-279962,0.0242187,0.247323,0,0.248506,15248.6,-16922.7,0,22779.3,279962
step02_gravity_refstate-crust.xmf,1879,-2.59431e-06,5.59717e-06,0,-4.89012e-06,-7.34929e+08,-7.34367e+08,-7.34751e+08,-335462,0.0216606,0.243779,0,0.244739,11964,-26754,0,29307.2,335462
step02_gravity_refstate-crust.xmf,1880,1.63092e-06,1.46307e-05,0,-1.05233e-05,-1.01079e+09,-1.0099e+09,-1.01091e+09,-721895,-0.0396193,0.26119,-0,0.264178,6433.14,-36828.2,0,37385.9,721895
step02_gravity_refstate-crust.xmf,1881,-1.37273e-07,1.85295e-05,0,-1.16393e-05,-1.05028e+09,-1.049e+09,-1.05027e+09,-798454,-0.0384403,0.249139,-0,0.252087,5880.36,-38264.6,0,38713.8,798454
step02_gravity_refstate-crust.xmf,1882,-1.18354e-06,2.06689e-05,0,-1.19125e-05,-1.0617e+09,-1.0602e+09,-1.06162e+09,-817197,-0.0360786,0.249432,-0,0.252028,5427.47,-38679.6,0,39058.5,817197
step02_gravity_refstate-crust.xmf,1883,-2.12517e-06,2.22937e-05,0,-1.17987e-05,-1.08087e+09,-1.07919e+09,-1.08072e+09,-809389,-0.030573,0.239775,-0,0.241716,5103.33,-39376,0,39705.3,809389
step02_gravity_refstate-crust.xmf,1884,-1.68254e-06,1.07189e-06,0,-7.981e-07,-1.08226e+08,-1.08037e+08,-1.08111e+08,-54749.7,0.0264076,0.194749,0,0.196531,27862.7,-3934.94,0,28139.1,54749.7
step02_gravity_refstate-crust.xmf,1885,-2.42545e-06,1.10781e-06,0,-3.18319e-07,-5.30444e+07,-5.28021e+07,-5.28781e+07,-21836.7,0.0251447,0.186703,0,0.188389,30822.7,-1923.04,0,30882.7,21836.7
step02_gravity_refstate-crust.xmf,1886,-7.33041e-07,1.24778e-06,0,-2.029e-06,-2.13088e+08,-2.12952e+08,-2.13037e+08,-139190,0.0254139,0.218842,0,0.220313,21971.1,-7756.64,0,23300.1,139190
step02_gravity_refstate-crust.xmf,1887,-1.40332e-06,1.01603e-06,0,-9.9867e-07,-1.18309e+08,-1.18143e+08,-1.18213e+08,-68508.8,0.0283501,0.201999,0,0.203979,26047.4,-4303.06,0,26400.5,68508.8
step02_gravity_refstate-crust.xmf,1888,-2.12891e-06,4.50996e-06,0,-5.03555e-06,-6.69775e+08,-6.6932e+08,-6.69629e+08,-345439,0.025141,0.247792,0,0.249064,12616.5,-24382.2,0,27453,345439
step02_gravity_refstate-crust.xmf,1889,-1.37089e-06,3.33704e-06,0,-4.45865e-06,-5.60207e+08,-5.59884e+08,-5.60113e+08,-305863,0.0248124,0.243861,0,0.24512,14504,-20394.5,0,25026.1,305863
step02_gravity_refstate-crust.xmf,1890,-1.94688e-06,4.23881e-06,0,-4.87686e-06,-6.45942e+08,-6.45518e+08,-6.45809e+08,-334552,0.0251585,0.245836,0,0.24712,13131.3,-23514.9,0,26932.9,334552
step02_gravity_refstate-crust.xmf,1891,-1.78153e-06,3.99933e-06,0,-4.71229e-06,-6.22371e+08,-6.21975e+08,-6.22249e+08,-323263,0.0249869,0.243873,0,0.245149,13652.6,-22657,0,26452.5,323263
step02_gravity_refstate-crust.xmf,1892,-1.63833e-06,3.80107e-06,0,-4.53405e-06,-5.99738e+08,-5.99365e+08,-5.99626e+08,-311036,0.0246359,0.241609,0,0.242862,14201.2,-21833.3,0,26045.5,311036
step02_gravity_refstate-crust.xmf,1893,-2.45472e-06,5.33532e-06,0,-4.76021e-06,-7.16019e+08,-7.15484e+08,-7.1585e+08,-326551,0.0221724,0.240879,0,0.241897,12501.7,-26065.7,0,28908.7,326551
step02_gravity_refstate-crust.xmf,1894,-6.38072e-07,1.92818e-06,0,-3.19755e-06,-3.54078e+08,-3.53902e+08,-3.54034e+08,-219352,0.0227445,0.234013,0,0.235115,18230.4,-12891,0,22327.6,219352
step02_gravity_refstate-crust.xmf,1895,-7.3712e-07,2.18928e-06,0,-3.43125e-06,-3.94815e+08,-3.94615e+08,-3.94765e+08,-235384,0.0226314,0.235147,0,0.236233,17630.1,-14374.1,0,22747.2,235384
step02_gravity_refstate-crust.xmf,1896,-1.18975e-06,3.05027e-06,0,-4.2093e-06,-5.22875e+08,-5.22584e+08,-5.22794e+08,-288758,0.0241304,0.241408,0,0.242611,15268,-19035.7,0,24402.2,288758
step02_gravity_refstate-crust.xmf,1897,-8.20543e-07,2.38703e-06,0,-3.66125e-06,-4.28682e+08,-4.28462e+08,-4.28626e+08,-251161,0.0229406,0.237687,0,0.238792,16895.4,-15607,0,23000.7,251161
step02_gravity_refstate-crust.xmf,1898,-1.06178e-06,2.83985e-06,0,-4.01183e-06,-4.92543e+08,-4.92276e+08,-4.92471e+08,-275211,0.0235919,0.239491,0,0.240651,15886.3,-17931.6,0,23956.6,275211
step02_gravity_refstate-crust.xmf,1899,-9.38442e-07,2.61868e-06,0,-3.83832e-06,-4.61624e+08,-4.6138e+08,-4.6156e+08,-263309,0.0232094,0.238434,0,0.239561,16404.4,-16806.1,0,23485.1,263309
step02_gravity_refstate-crust.xmf,1900,-2.55353e-06,6.01562e-06,0,-4.36886e-06,-7.55377e+08,-7.54789e+08,-7.55202e+08,-299704,0.0181772,0.234385,0,0.235089,12368.1,-27499.2,0,30152.6,299704
step02_gravity_refstate-crust.xmf,1901,-2.60428e-06,6.32571e-06,0,-4.36239e-06,-7.75831e+08,-7.75218e+08,-7.75652e+08,-299260,0.0164715,0.235693,0,0.236268,11903.2,-28244.2,0,30649.9,299260
step02_gravity_refstate-crust.xmf,1902,-2.59304e-06,6.65057e-06,0,-4.32835e-06,-7.96987e+08,-7.96353e+08,-7.9681e+08,-296925,0.0141383,0.236961,0,0.237382,11434.7,-29014.9,0,31186.8,296925
step02_gravity_refstate-crust.xmf,1903,-2.49091e-06,6.97592e-06,0,-4.28701e-06,-8.18484e+08,-8.17835e+08,-8.18313e+08,-294089,0.0111185,0.238433,0,0.238692,10952.6,-29798.5,0,31747.6,294089
step02_gravity_refstate-crust.xmf,1904,-2.25197e-06,7.2788e-06,0,-4.23584e-06,-8.39837e+08,-8.39184e+08,-8.39683e+08,-290579,0.00728121,0.239582,0,0.239692,10503.4,-30577.3,0,32331,290579
step02_gravity_refstate-crust.xmf,1905,-1.87065e-06,7.54765e-06,0,-4.22442e-06,-8.60285e+08,-8.59639e+08,-8.60157e+08,-289795,0.0028059,0.24061,0,0.240627,10085.8,-31323.7,0,32907.4,289795
step02_gravity_refstate-crust.xmf,1906,-1.37582e-06,7.79945e-06,0,-4.32671e-06,-8.79445e+08,-8.78815e+08,-8.7935e+08,-296812,-0.00203104,0.242327,-0,0.242336,9657.58,-32023.6,0,33448.1,296812
step02_gravity_refstate-crust.xmf,1907,1.97306e-06,1.19771e-05,0,-8.83025e-06,-9.83707e+08,-9.8302e+08,-9.83842e+08,-605755,-0.0348289,0.261804,-0,0.26411,6969.06,-35839.3,0,36510.6,605755
step02_gravity_refstate-crust.xmf,1908,-7.7158e-07,8.06934e-06,0,-4.56653e-06,-8.97955e+08,-8.97348e+08,-8.97902e+08,-313264,-0.00732654,0.244386,-0,0.244495,9232.74,-32700.3,0,33978.7,313264
step02_gravity_refstate-crust.xmf,1909,-1.00145e-07,8.39329e-06,0,-4.95968e-06,-9.15721e+08,-9.15138e+08,-9.15714e+08,-340234,-0.0129017,0.246499,-0,0.246837,8828.52,-33350.3,0,34499.1,340234
step02_gravity_refstate-crust.xmf,1910,5.84298e-07,8.83276e-06,0,-5.53709e-06,-9.32962e+08,-9.32396e+08,-9.33002e+08,-379844,-0.0185993,0.248861,-0,0.249555,8427.87,-33981.4,0,35011,379844
step02_gravity_refstate-crust.xmf,1911,1.16618e-06,9.43534e-06,0,-6.30017e-06,-9.48332e+08,-9.47765e+08,-9.48412e+08,-432191,-0.0237938,0.252321,-0,0.25344,8008.34,-34544.3,0,35460.4,432191
step02_gravity_refstate-crust.xmf,1912,1.54763e-06,1.01147e-05,0,-7.12222e-06,-9.5978e+08,-9.59192e+08,-9.59886e+08,-488584,-0.0277152,0.256761,-0,0.258252,7612.51,-34963.7,0,35782.8,488584
step02_gravity_refstate-crust.xmf,1913,2.07317e-06,1.26621e-05,0,-9.29699e-06,-1.00162e+09,-1.00089e+09,-1.00176e+09,-637774,-0.0377344,0.25353,-0,0.256323,6977.86,-36493,0,37154.1,637774
step02_gravity_refstate-crust.xmf,1914,1.27376e-06,1.54907e-05,0,-1.07488e-05,-1.02836e+09,-1.02738e+09,-1.02844e+09,-737368,-0.0399732,0.251134,-0,0.254296,6452.83,-37467.5,0,38019.1,737368
step02_gravity_refstate-crust.xmf,1915,7.50138e-07,1.63166e-05,0,-1.09102e-05,-1.04804e+09,-1.04697e+09,-1.04809e+09,-748440,-0.0385507,0.239291,-0,0.242377,6475.63,-38183.2,0,38728.4,748440
step02_gravity_refstate-crust.xmf,1916,-1.94375e-06,1.14425e-06,0,-6.38408e-07,-1.03918e+08,-1.03707e+08,-1.03785e+08,-43794.8,0.0232061,0.187813,0,0.189241,29812.9,-3777.16,0,30051.2,43794.8
step02_gravity_refstate-crust.xmf,1917,-3.06872e-06,1.16778e-06,0,-9.21605e-09,-291365,-741.448,-80850.9,-632.221,0.0266235,0.185619,0,0.187519,32008.2,0,0,32008.2,632.221
step02_gravity_refstate-crust.xmf,1918,-6.89806e-07,1.77329e-06,0,-2.74023e-06,-3.09944e+08,-3.09775e+08,-3.09897e+08,-187980,0.0224742,0.224305,0,0.225428,20167.7,-11283.8,0,23109.7,187980
step02_gravity_refstate-crust.xmf,1919,-6.80519e-07,1.48714e-06,0,-2.39196e-06,-2.60014e+08,-2.59865e+08,-2.59967e+08,-164089,0.0236467,0.221625,0,0.222883,21089.7,-9465.61,0,23116.5,164089
step02_gravity_refstate-crust.xmf,1920,-1.14726e-06,1.14031e-06,0,-1.38876e-06,-1.62233e+08,-1.62076e+08,-1.62155e+08,-95269.2,0.026072,0.205243,0,0.206892,24979.9,-5903.39,0,25668,95269.2
step02_gravity_refstate-crust.xmf,1921,-9.5625e-07,1.34261e-06,0,-1.79034e-06,-2.1186e+08,-2.11702e+08,-2.11795e+08,-122817,0.0238428,0.208335,0,0.209695,23916.6,-7711.19,0,25129,122817
step02_gravity_refstate-crust.xmf,1922,-2.29496e-06,5.07659e-06,0,-4.60021e-06,-6.94793e+08,-6.94287e+08,-6.94636e+08,-315575,0.0224715,0.237792,0,0.238851,13112.1,-25293.2,0,28489.9,315575
step02_gravity_refstate-crust.xmf,1923,-6.47177e-07,1.84917e-06,0,-2.97424e-06,-3.32194e+08,-3.32023e+08,-3.3215e+08,-204033,0.0226037,0.229634,0,0.230743,19109.4,-12094.1,0,22615,204033
step02_gravity_refstate-crust.xmf,1924,-2.491e-06,5.73701e-06,0,-4.39415e-06,-7.36832e+08,-7.36268e+08,-7.36662e+08,-301439,0.0194915,0.233895,0,0.234706,12735.6,-26823.9,0,29693.7,301439
step02_gravity_refstate-crust.xmf,1925,1.94077e-06,1.06271e-05,0,-7.60787e-06,-9.75255e+08,-9.7466e+08,-9.75389e+08,-521900,-0.0318267,0.252189,-0,0.25419,7552.87,-35529.5,0,36323.4,521900
step02_gravity_refstate-crust.xmf,1926,1.89334e-06,1.35281e-05,0,-9.69168e-06,-1.01948e+09,-1.01868e+09,-1.01961e+09,-664850,-0.0390676,0.244728,-0,0.247827,6990.11,-37143.8,0,37795.9,664850
step02_gravity_refstate-crust.xmf,1927,-1.61407e-07,1.80268e-05,0,-1.13078e-05,-1.06455e+09,-1.0633e+09,-1.06454e+09,-775713,-0.0359761,0.234544,-0,0.237287,6162.67,-38783.3,0,39269.9,775713
step02_gravity_refstate-crust.xmf,1928,-1.08612e-06,1.96818e-05,0,-1.15995e-05,-1.08084e+09,-1.07942e+09,-1.08077e+09,-795729,-0.0317255,0.22893,-0,0.231118,5816.55,-39375.2,0,39802.5,795729
step02_gravity_refstate-crust.xmf,1929,-1.35898e-06,1.20977e-06,0,-1.17734e-06,-1.59581e+08,-1.59405e+08,-1.59488e+08,-80765.2,0.0238549,0.19661,0,0.198052,26894.2,-5806.09,0,27513.8,80765.2
step02_gravity_refstate-crust.xmf,1930,-1.56569e-06,1.2538e-06,0,-9.67142e-07,-1.54007e+08,-1.53814e+08,-1.539e+08,-66345.9,0.0214694,0.189324,0,0.190537,28770.3,-5602.4,0,29310.7,66345.9
step02_gravity_refstate-crust.xmf,1931,-2.15555e-06,1.21177e-06,0,-4.82799e-07,-1.02091e+08,-1.0186e+08,-1.01943e+08,-33120,0.018801,0.181253,0,0.182226,32024.3,-3709.89,0,32238.4,33120
step02_gravity_refstate-crust.xmf,1932,-2.64256e-06,1.1923e-06,0,-2.33494e-07,-5.41216e+07,-5.38585e+07,-5.39403e+07,-16017.7,0.0189296,0.18038,0,0.181371,33246.5,-1961.5,0,33304.3,16017.7
step02_gravity_refstate-crust.xmf,1933,-8.68122e-07,1.57728e-06,0,-2.12886e-06,-2.5793e+08,-2.57762e+08,-2.5787e+08,-146040,0.0222643,0.210819,0,0.211991,22994.9,-9389.11,0,24837.9,146040
step02_gravity_refstate-crust.xmf,1934,-2.13148e-06,4.77983e-06,0,-4.50423e-06,-6.70998e+08,-6.70523e+08,-6.70851e+08,-308990,0.0228903,0.236254,0,0.23736,13640.9,-24427.1,0,27977.8,308990
step02_gravity_refstate-crust.xmf,1935,-1.45019e-06,3.58102e-06,0,-4.03697e-06,-5.57396e+08,-5.57051e+08,-5.57297e+08,-276936,0.0229278,0.232096,0,0.233226,15868.4,-20292.3,0,25760.1,276936
step02_gravity_refstate-crust.xmf,1936,-1.96605e-06,4.49318e-06,0,-4.39026e-06,-6.46251e+08,-6.45808e+08,-6.46116e+08,-301172,0.0230585,0.234651,0,0.235781,14197.6,-23526.4,0,27478.4,301172
step02_gravity_refstate-crust.xmf,1937,-1.80322e-06,4.21448e-06,0,-4.27349e-06,-6.20451e+08,-6.20038e+08,-6.20327e+08,-293161,0.0230811,0.233303,0,0.234442,14750.7,-22587.4,0,26977.2,293161
step02_gravity_refstate-crust.xmf,1938,-1.62691e-06,3.90082e-06,0,-4.16941e-06,-5.90682e+08,-5.90303e+08,-5.9057e+08,-286022,0.0230978,0.232777,0,0.23392,15278.5,-21503.8,0,26378.9,286022
step02_gravity_refstate-crust.xmf,1939,-2.34303e-06,5.60204e-06,0,-4.10541e-06,-7.23838e+08,-7.23293e+08,-7.23677e+08,-281631,0.0189685,0.227578,0,0.228367,13522.6,-26351.2,0,29618.4,281631
step02_gravity_refstate-crust.xmf,1940,-7.93482e-07,2.10899e-06,0,-2.95543e-06,-3.57793e+08,-3.57594e+08,-3.57739e+08,-202742,0.0215382,0.223162,0,0.224199,19818.1,-13025.9,0,23715.6,202742
step02_gravity_refstate-crust.xmf,1941,-8.63167e-07,2.34371e-06,0,-3.17251e-06,-3.93797e+08,-3.93577e+08,-3.93738e+08,-217634,0.0214621,0.224955,0,0.225977,19108.1,-14336.7,0,23888.5,217634
step02_gravity_refstate-crust.xmf,1942,-9.56526e-07,2.59507e-06,0,-3.37028e-06,-4.30033e+08,-4.29789e+08,-4.29967e+08,-231201,0.0215682,0.226424,0,0.227449,18426.2,-15655.9,0,24179.2,231201
step02_gravity_refstate-crust.xmf,1943,-1.30023e-06,3.3087e-06,0,-3.86862e-06,-5.25026e+08,-5.2471e+08,-5.24937e+08,-265388,0.0225207,0.230507,0,0.231605,16544.4,-19114,0,25279.6,265388
step02_gravity_refstate-crust.xmf,1944,-1.06162e-06,2.83643e-06,0,-3.54153e-06,-4.63055e+08,-4.62787e+08,-4.62982e+08,-242949,0.0217943,0.227631,0,0.228672,17808.8,-16858.1,0,24522.4,242949
step02_gravity_refstate-crust.xmf,1945,-1.17906e-06,3.07917e-06,0,-3.69862e-06,-4.94893e+08,-4.94601e+08,-4.94812e+08,-253725,0.0220848,0.228702,0,0.229766,17214.2,-18017.1,0,24918.8,253725
step02_gravity_refstate-crust.xmf,1946,-2.36823e-06,6.01681e-06,0,-3.88269e-06,-7.53966e+08,-7.53391e+08,-7.53803e+08,-266353,0.0161137,0.223918,0,0.224497,13280.8,-27448.6,0,30492.7,266353
step02_gravity_refstate-crust.xmf,1947,-2.38282e-06,6.30825e-06,0,-3.84527e-06,-7.75322e+08,-7.74726e+08,-7.75159e+08,-263785,0.0142952,0.224623,0,0.225078,12805.7,-28226.5,0,30995.5,263785
step02_gravity_refstate-crust.xmf,1948,-2.33803e-06,6.60313e-06,0,-3.78821e-06,-7.97074e+08,-7.9646e+08,-7.96913e+08,-259871,0.0119241,0.225343,0,0.225658,12324.5,-29019,0,31527.7,259871
step02_gravity_refstate-crust.xmf,1949,-2.21221e-06,6.88009e-06,0,-3.72825e-06,-8.18264e+08,-8.1764e+08,-8.18112e+08,-255758,0.00904231,0.226141,0,0.226322,11852.3,-29791.4,0,32062.5,255758
step02_gravity_refstate-crust.xmf,1950,-1.98385e-06,7.13652e-06,0,-3.68163e-06,-8.39184e+08,-8.38558e+08,-8.39048e+08,-252560,0.00556438,0.227042,0,0.22711,11383.9,-30554.3,0,32606.2,252560
step02_gravity_refstate-crust.xmf,1951,-1.62847e-06,7.36926e-06,0,-3.67105e-06,-8.59956e+08,-8.59339e+08,-8.59844e+08,-251834,0.00141287,0.227922,0,0.227927,10928.3,-31312.4,0,33164.6,251834
step02_gravity_refstate-crust.xmf,1952,-1.15736e-06,7.58272e-06,0,-3.74411e-06,-8.79927e+08,-8.79328e+08,-8.79848e+08,-256846,-0.00321581,0.229065,-0,0.229087,10479.5,-32041.7,0,33711.9,256846
step02_gravity_refstate-crust.xmf,1953,-6.02537e-07,7.80051e-06,0,-3.94237e-06,-8.98722e+08,-8.98145e+08,-8.98681e+08,-270447,-0.00810956,0.23074,-0,0.230882,10029.5,-32728.5,0,34230.8,270447
step02_gravity_refstate-crust.xmf,1954,2.20211e-06,1.12658e-05,0,-8.09511e-06,-9.92453e+08,-9.91831e+08,-9.92604e+08,-555325,-0.0352587,0.245806,-0,0.248322,7529.22,-36157.6,0,36933.2,555325
step02_gravity_refstate-crust.xmf,1955,1.76606e-08,8.0559e-06,0,-4.28346e-06,-9.16774e+08,-9.16223e+08,-9.16775e+08,-293845,-0.0132594,0.232651,-0,0.233029,9590.78,-33388.6,0,34738.8,293845
step02_gravity_refstate-crust.xmf,1956,6.65146e-07,8.38937e-06,0,-4.78013e-06,-9.34335e+08,-9.33806e+08,-9.34381e+08,-327917,-0.0185492,0.234559,-0,0.235292,9171.12,-34031.1,0,35245.2,327917
step02_gravity_refstate-crust.xmf,1957,1.79707e-06,9.6194e-06,0,-6.42787e-06,-9.67893e+08,-9.67356e+08,-9.68016e+08,-440952,-0.028813,0.24104,-0,0.242756,8229.63,-35259.3,0,36206.9,440952
step02_gravity_refstate-crust.xmf,1958,1.27229e-06,8.86487e-06,0,-5.45941e-06,-9.51173e+08,-9.50652e+08,-9.5126e+08,-374516,-0.0237119,0.237001,-0,0.238184,8740.14,-34647.3,0,35732.7,374516
step02_gravity_refstate-crust.xmf,1959,2.23739e-06,1.1835e-05,0,-8.56392e-06,-1.01021e+09,-1.00956e+09,-1.01037e+09,-587485,-0.0373644,0.237832,-0,0.24075,7552.89,-36805.3,0,37572.2,587485
step02_gravity_refstate-crust.xmf,1960,1.53108e-06,1.43102e-05,0,-1.00091e-05,-1.03723e+09,-1.03635e+09,-1.03733e+09,-686625,-0.0388617,0.235446,-0,0.238632,7005.05,-37789.7,0,38433.5,686625
step02_gravity_refstate-crust.xmf,1961,5.46233e-07,1.59615e-05,0,-1.06409e-05,-1.06506e+09,-1.064e+09,-1.06509e+09,-729967,-0.035748,0.22319,-0,0.226034,6827.9,-38801.3,0,39397.5,729967
step02_gravity_refstate-crust.xmf,1962,-1.77068e-06,1.3063e-06,0,-7.58585e-07,-1.51308e+08,-1.51097e+08,-1.51187e+08,-52039,0.0180218,0.182131,0,0.183021,30926.9,-5503.39,0,31412.7,52039
step02_gravity_refstate-crust.xmf,1963,-3.28709e-06,1.24862e-06,0,-1.07433e-08,-312194,-1044.79,-86700.1,-736.991,0.0184522,0.180138,0,0.181081,34578.2,0,0,34578.2,736.991
step02_gravity_refstate-crust.xmf,1964,-8.44419e-07,1.84323e-06,0,-2.43263e-06,-3.03563e+08,-3.03379e+08,-3.03505e+08,-166878,0.0211919,0.213006,0,0.214058,22106.1,-11051,0,24714.4,166878
step02_gravity_refstate-crust.xmf,1965,-1.15118e-06,1.40406e-06,0,-1.54037e-06,-2.09061e+08,-2.08886e+08,-2.08982e+08,-105669,0.0219488,0.198852,0,0.200059,25869.2,-7608.6,0,26964.9,105669
step02_gravity_refstate-crust.xmf,1966,-1.02647e-06,1.64248e-06,0,-1.86153e-06,-2.56908e+08,-2.56725e+08,-2.56838e+08,-127701,0.0204884,0.200783,0,0.201826,24919.1,-9351.39,0,26616,127701
step02_gravity_refstate-crust.xmf,1967,-2.2035e-06,5.24061e-06,0,-4.06838e-06,-6.96354e+08,-6.95843e+08,-6.96203e+08,-279091,0.0200042,0.226237,0,0.22712,14154.5,-25350.7,0,29034.6,279091
step02_gravity_refstate-crust.xmf,1968,2.13715e-06,1.02888e-05,0,-7.15303e-06,-9.84391e+08,-9.83832e+08,-9.84538e+08,-490698,-0.0327924,0.239253,-0,0.24149,8014.11,-35862.3,0,36746.9,490698
step02_gravity_refstate-crust.xmf,1969,2.01512e-06,1.2627e-05,0,-9.01334e-06,-1.02877e+09,-1.02804e+09,-1.02891e+09,-618315,-0.038079,0.229242,-0,0.232384,7569.13,-37481.1,0,38237.7,618315
step02_gravity_refstate-crust.xmf,1970,1.14673e-06,1.48615e-05,0,-1.02403e-05,-1.05143e+09,-1.05049e+09,-1.05151e+09,-702485,-0.0376429,0.227663,-0,0.230754,7018.24,-38306.2,0,38943.8,702485
step02_gravity_refstate-crust.xmf,1971,-2.88425e-07,1.74231e-05,0,-1.10635e-05,-1.08134e+09,-1.08012e+09,-1.08132e+09,-758954,-0.0320951,0.217641,-0,0.219995,6546.97,-39393,0,39933.4,758954
step02_gravity_refstate-crust.xmf,1972,-1.31285e-06,1.44271e-06,0,-1.2901e-06,-2.05659e+08,-2.0547e+08,-2.05569e+08,-88500.5,0.0197072,0.190441,0,0.191458,27835.5,-7484.15,0,28824.1,88500.5
step02_gravity_refstate-crust.xmf,1973,-1.46694e-06,1.46648e-06,0,-1.04288e-06,-2.01304e+08,-2.01102e+08,-2.01203e+08,-71541.8,0.017102,0.183082,0,0.183879,29857.1,-7325,0,30742.5,71541.8
step02_gravity_refstate-crust.xmf,1974,-1.93372e-06,1.34262e-06,0,-5.52143e-07,-1.48013e+08,-1.47789e+08,-1.47881e+08,-37877,0.014033,0.176268,0,0.176826,33170.4,-5382.83,0,33604.4,37877
step02_gravity_refstate-crust.xmf,1975,-2.28984e-06,1.26349e-06,0,-3.4267e-07,-1.02384e+08,-1.0214e+08,-1.02227e+08,-23507.2,0.0140612,0.176341,0,0.176901,34148,-3720.08,0,34350,23507.2
step02_gravity_refstate-crust.xmf,1976,-2.66141e-06,1.24869e-06,0,-1.7224e-07,-6.69044e+07,-6.66362e+07,-6.67219e+07,-11815.7,0.0113982,0.175158,0,0.175529,35832.5,-2426.89,0,35914.6,11815.7
step02_gravity_refstate-crust.xmf,1977,-3.42754e-06,1.30452e-06,0,-1.28562e-09,-325426,-806.48,-90296.4,-88.1932,0.00952395,0.176648,0,0.176905,37239.8,0,0,37239.8,88.1932
step02_gravity_refstate-crust.xmf,1978,-8.82735e-07,2.14341e-06,0,-2.676e-06,-3.49219e+08,-3.49012e+08,-3.49159e+08,-183573,0.0204092,0.213845,0,0.214817,21407.3,-12713.4,0,24897.9,183573
step02_gravity_refstate-crust.xmf,1979,-9.72314e-07,1.90797e-06,0,-2.14293e-06,-3.02638e+08,-3.0244e+08,-3.02571e+08,-147005,0.0194969,0.20251,0,0.203446,24008.4,-11016.9,0,26415.4,147005
step02_gravity_refstate-crust.xmf,1980,-1.47935e-06,3.74495e-06,0,-3.66938e-06,-5.57399e+08,-5.57041e+08,-5.57298e+08,-251719,0.0210804,0.221627,0,0.222628,17129.8,-20292.5,0,26555.9,251719
step02_gravity_refstate-crust.xmf,1981,-2.06626e-06,4.93785e-06,0,-4.01045e-06,-6.71655e+08,-6.71175e+08,-6.71513e+08,-275117,0.0205679,0.225023,0,0.225961,14727.2,-24451.6,0,28544.2,275117
step02_gravity_refstate-crust.xmf,1982,-1.6235e-06,4.0359e-06,0,-3.78036e-06,-5.88181e+08,-5.87792e+08,-5.88069e+08,-259333,0.0212082,0.222578,0,0.223586,16485.6,-21413,0,27023.9,259333
step02_gravity_refstate-crust.xmf,1983,-1.92308e-06,4.64102e-06,0,-3.94218e-06,-6.45817e+08,-6.45367e+08,-6.45686e+08,-270433,0.0209258,0.223986,0,0.224961,15304.8,-23511,0,28053.6,270433
step02_gravity_refstate-crust.xmf,1984,-1.77454e-06,4.33622e-06,0,-3.8747e-06,-6.1784e+08,-6.17421e+08,-6.17718e+08,-265805,0.0211803,0.223406,0,0.224408,15869.3,-22492.6,0,27527.3,265805
step02_gravity_refstate-crust.xmf,1985,-2.15136e-06,5.59201e-06,0,-3.6045e-06,-7.21342e+08,-7.20811e+08,-7.21195e+08,-247269,0.0166142,0.215979,0,0.216617,14680,-26261.1,0,30085.7,247269
step02_gravity_refstate-crust.xmf,1986,-9.54909e-07,2.45413e-06,0,-2.89189e-06,-3.93412e+08,-3.93178e+08,-3.93346e+08,-198384,0.02005,0.214742,0,0.215676,20668.4,-14322.5,0,25145.9,198384
step02_gravity_refstate-crust.xmf,1987,-1.03777e-06,2.72534e-06,0,-3.07654e-06,-4.30632e+08,-4.30374e+08,-4.30561e+08,-211050,0.0200576,0.216026,0,0.216955,19932,-15677.6,0,25358.9,211050
step02_gravity_refstate-crust.xmf,1988,-1.13938e-06,3.00213e-06,0,-3.23206e-06,-4.66312e+08,-4.66028e+08,-4.66234e+08,-221719,0.0201539,0.216902,0,0.217836,19256.8,-16976.6,0,25671.6,221719
step02_gravity_refstate-crust.xmf,1989,-1.36322e-06,3.50415e-06,0,-3.51758e-06,-5.28726e+08,-5.28392e+08,-5.28632e+08,-241306,0.0206653,0.219461,0,0.220432,17890.4,-19248.7,0,26278.9,241306
step02_gravity_refstate-crust.xmf,1990,-1.25273e-06,3.27866e-06,0,-3.34148e-06,-4.99772e+08,-4.99461e+08,-4.99686e+08,-229225,0.0201659,0.216833,0,0.217768,18727.1,-18194.7,0,26110.3,229225
step02_gravity_refstate-crust.xmf,1991,-2.19353e-06,5.91153e-06,0,-3.53666e-06,-7.47399e+08,-7.46843e+08,-7.47248e+08,-242615,0.0148583,0.215554,0,0.216066,14185.5,-27210.1,0,30685.7,242615
step02_gravity_refstate-crust.xmf,1992,-2.17081e-06,6.22012e-06,0,-3.42915e-06,-7.72883e+08,-7.72308e+08,-7.72735e+08,-235239,0.0125251,0.21466,0,0.215026,13738.2,-28138.4,0,31313.1,235239
step02_gravity_refstate-crust.xmf,1993,-2.09174e-06,6.49692e-06,0,-3.34249e-06,-7.96299e+08,-7.9571e+08,-7.96156e+08,-229294,0.00998706,0.214538,0,0.214771,13256.6,-28991.7,0,31878.7,229294
step02_gravity_refstate-crust.xmf,1994,-1.94155e-06,6.75029e-06,0,-3.26967e-06,-8.18747e+08,-8.18151e+08,-8.18614e+08,-224300,0.00705031,0.214776,0,0.214892,12763.8,-29809.9,0,32427.5,224300
step02_gravity_refstate-crust.xmf,1995,-1.71006e-06,6.9729e-06,0,-3.22194e-06,-8.39914e+08,-8.39318e+08,-8.39796e+08,-221025,0.00373959,0.21525,0,0.215283,12282.4,-30581.8,0,32956.1,221025
step02_gravity_refstate-crust.xmf,1996,-1.38107e-06,7.17303e-06,0,-3.21502e-06,-8.60569e+08,-8.59982e+08,-8.60474e+08,-220551,-5.79071e-05,0.215916,-0,0.215916,11803.7,-31335.4,0,33484.8,220551
step02_gravity_refstate-crust.xmf,1997,-9.47044e-07,7.35413e-06,0,-3.27665e-06,-8.80752e+08,-8.80182e+08,-8.80687e+08,-224779,-0.00433347,0.216733,-0,0.216776,11332.9,-32072.2,0,34015.6,224779
step02_gravity_refstate-crust.xmf,1998,-4.41219e-07,7.53632e-06,0,-3.45003e-06,-8.99831e+08,-8.99284e+08,-8.99801e+08,-236672,-0.00884787,0.218101,-0,0.218281,10855.7,-32769.1,0,34520.5,236672
step02_gravity_refstate-crust.xmf,1999,1.13611e-07,7.74644e-06,0,-3.75277e-06,-9.179e+08,-9.17376e+08,-9.17907e+08,-257440,-0.0135215,0.219902,-0,0.220317,10381.8,-33429.5,0,35004.5,257440
step02_gravity_refstate-crust.xmf,2000,2.31307e-06,1.05886e-05,0,-7.42861e-06,-9.99989e+08,-9.99421e+08,-1.00015e+09,-509602,-0.0349752,0.231096,-0,0.233727,8131.49,-36431.4,0,37327.8,509602
step02_gravity_refstate-crust.xmf,2001,7.00779e-07,8.01088e-06,0,-4.18844e-06,-9.35447e+08,-9.34945e+08,-9.35495e+08,-287327,-0.0183295,0.221663,-0,0.22242,9933.15,-34071.1,0,35489.6,287327
step02_gravity_refstate-crust.xmf,2002,1.28234e-06,8.37272e-06,0,-4.77358e-06,-9.52838e+08,-9.52352e+08,-9.52926e+08,-327468,-0.0231583,0.223293,-0,0.224491,9503.51,-34707.2,0,35984.8,327468
step02_gravity_refstate-crust.xmf,2003,1.79297e-06,8.90107e-06,0,-5.53824e-06,-9.69895e+08,-9.69408e+08,-9.70018e+08,-379923,-0.0277708,0.225314,-0,0.227019,9058.36,-35331,0,36473.8,379923
step02_gravity_refstate-crust.xmf,2004,2.15897e-06,9.61882e-06,0,-6.42871e-06,-9.86383e+08,-9.85871e+08,-9.86531e+08,-441009,-0.0318263,0.227195,-0,0.229414,8627.34,-35933.9,0,36955,441009
step02_gravity_refstate-crust.xmf,2005,2.29446e-06,1.11039e-05,0,-7.93016e-06,-1.01912e+09,-1.01852e+09,-1.01928e+09,-544009,-0.0365264,0.222652,-0,0.225628,8180.13,-37128.6,0,38019.1,544009
step02_gravity_refstate-crust.xmf,2006,1.59457e-06,1.34445e-05,0,-9.44579e-06,-1.04737e+09,-1.04656e+09,-1.04748e+09,-647981,-0.0373175,0.220675,-0,0.223808,7554.48,-38157.8,0,38898.4,647981
step02_gravity_refstate-crust.xmf,2007,1.07291e-06,1.42234e-05,0,-9.86015e-06,-1.06367e+09,-1.06277e+09,-1.06375e+09,-676406,-0.0354565,0.21352,-0,0.216444,7488.12,-38750.4,0,39467.3,676406
step02_gravity_refstate-crust.xmf,2008,2.71983e-07,1.54808e-05,0,-1.03915e-05,-1.08115e+09,-1.08011e+09,-1.08117e+09,-712857,-0.0321583,0.207211,-0,0.209692,7275.43,-39385.4,0,40051.7,712857
step02_gravity_refstate-crust.xmf,2009,-1.61238e-06,1.49288e-06,0,-7.98721e-07,-1.99155e+08,-1.98942e+08,-1.99044e+08,-54792.3,0.0137968,0.17643,0,0.176969,32058.4,-7246.23,0,32867.1,54792.3
step02_gravity_refstate-crust.xmf,2010,-2.88953e-06,1.28211e-06,0,-6.00478e-08,-5.20785e+07,-5.17923e+07,-5.18803e+07,-4119.28,0.00547212,0.173561,0,0.173647,38114.3,-1886.26,0,38160.9,4119.28
step02_gravity_refstate-crust.xmf,2011,-3.44021e-06,1.30703e-06,0,7.1661e-09,-326727,-1066.48,-90728.5,491.595,4.02335e-19,0.175421,0,0.175421,40000,0,0,40000,491.595
step02_gravity_refstate-crust.xmf,2012,-9.71817e-07,2.19504e-06,0,-2.38627e-06,-3.47058e+08,-3.4684e+08,-3.46991e+08,-163698,0.0188587,0.203892,0,0.204762,23144.7,-12634.4,0,26368.7,163698
step02_gravity_refstate-crust.xmf,2013,-1.15767e-06,1.68282e-06,0,-1.59378e-06,-2.55815e+08,-2.55621e+08,-2.55736e+08,-109333,0.0184237,0.191753,0,0.192636,26854.7,-9311.14,0,28423.1,109333
step02_gravity_refstate-crust.xmf,2014,-1.07152e-06,1.9461e-06,0,-1.85607e-06,-3.02429e+08,-3.02222e+08,-3.02355e+08,-127326,0.0175566,0.192975,0,0.193772,25914.5,-11008.9,0,28155.9,127326
step02_gravity_refstate-crust.xmf,2015,-2.0644e-06,5.29088e-06,0,-3.60577e-06,-6.96509e+08,-6.96004e+08,-6.96367e+08,-247356,0.0176651,0.21541,0,0.216133,15243.9,-25356.9,0,29586.3,247356
step02_gravity_refstate-crust.xmf,2016,-1.47362e-06,3.85122e-06,0,-3.35145e-06,-5.5912e+08,-5.58755e+08,-5.59019e+08,-229909,0.0193526,0.212528,0,0.213407,18269.1,-20355.3,0,27351.4,229909
step02_gravity_refstate-crust.xmf,2017,2.00576e-06,1.19138e-05,0,-8.46626e-06,-1.03885e+09,-1.03817e+09,-1.03898e+09,-580786,-0.0367065,0.214607,-0,0.217724,8165.75,-37846.8,0,38717.7,580786
step02_gravity_refstate-crust.xmf,2018,-1.26583e-06,1.69316e-06,0,-1.32153e-06,-2.52554e+08,-2.52351e+08,-2.52467e+08,-90657.1,0.0161574,0.183829,0,0.184537,28835.3,-9191.98,0,30265,90657.1
step02_gravity_refstate-crust.xmf,2019,-1.36167e-06,1.70305e-06,0,-1.05068e-06,-2.50954e+08,-2.50744e+08,-2.50861e+08,-72076.7,0.0134513,0.176706,0,0.177217,30929.4,-9133.36,0,32249.8,72076.7
step02_gravity_refstate-crust.xmf,2020,-2.06983e-06,1.36175e-06,0,-3.42469e-07,-1.43771e+08,-1.43535e+08,-1.43629e+08,-23493.4,0.00931314,0.171835,0,0.172087,35606.6,-5227.84,0,35988.3,23493.4
step02_gravity_refstate-crust.xmf,2021,-1.70281e-06,1.51511e-06,0,-5.72197e-07,-1.99551e+08,-1.9933e+08,-1.99434e+08,-39252.7,0.0101387,0.171256,0,0.171555,34256.7,-7260.3,0,35017.6,39252.7
step02_gravity_refstate-crust.xmf,2022,-2.36468e-06,1.3187e-06,0,-1.36042e-07,-1.10844e+08,-1.10591e+08,-1.10681e+08,-9332.51,0.00510254,0.170951,0,0.171028,37857.9,-4027.85,0,38071.6,9332.51
step02_gravity_refstate-crust.xmf,2023,-2.68497e-06,1.28603e-06,0,3.48029e-09,-7.47697e+07,-7.44973e+07,-7.45855e+07,238.748,3.64186e-19,0.1719,0,0.1719,40000,-2713.19,0,40091.9,238.748
step02_gravity_refstate-crust.xmf,2024,-1.01221e-06,2.49633e-06,0,-2.59057e-06,-3.9001e+08,-3.89769e+08,-3.89941e+08,-177713,0.0184878,0.204859,0,0.205691,22335.8,-14198.5,0,26466.7,177713
step02_gravity_refstate-crust.xmf,2025,-1.04033e-06,2.22855e-06,0,-2.08694e-06,-3.46944e+08,-3.4672e+08,-3.46873e+08,-143164,0.0170103,0.194131,0,0.194875,24985.2,-12630.1,0,27996.1,143164
step02_gravity_refstate-crust.xmf,2026,-1.58719e-06,4.12183e-06,0,-3.41844e-06,-5.87547e+08,-5.87155e+08,-5.87438e+08,-234505,0.019278,0.212776,0,0.213648,17701.3,-21390.2,0,27764.7,234505
step02_gravity_refstate-crust.xmf,2027,-1.95814e-06,5.00592e-06,0,-3.57593e-06,-6.72017e+08,-6.71539e+08,-6.71883e+08,-245309,0.018318,0.214541,0,0.215321,15832.4,-24465.3,0,29141.3,245309
step02_gravity_refstate-crust.xmf,2028,-1.71618e-06,4.42346e-06,0,-3.48056e-06,-6.1771e+08,-6.17288e+08,-6.17592e+08,-238766,0.0190921,0.213178,0,0.214031,17068.5,-22488.2,0,28232.2,238766
step02_gravity_refstate-crust.xmf,2029,-1.83978e-06,4.71513e-06,0,-3.53248e-06,-6.45633e+08,-6.45184e+08,-6.45507e+08,-242328,0.0187798,0.213748,0,0.214572,16450,-23504.8,0,28689.3,242328
step02_gravity_refstate-crust.xmf,2030,-1.966e-06,5.54952e-06,0,-3.19757e-06,-7.20623e+08,-7.20108e+08,-7.20488e+08,-219353,0.0144488,0.205817,0,0.206324,15765,-26235.6,0,30607.9,219353
step02_gravity_refstate-crust.xmf,2031,-2.0006e-06,5.81065e-06,0,-3.17444e-06,-7.43324e+08,-7.42788e+08,-7.43186e+08,-217766,0.0131838,0.20629,0,0.206711,15208.3,-27062.3,0,31042.9,217766
step02_gravity_refstate-crust.xmf,2032,-1.08041e-06,2.79796e-06,0,-2.76604e-06,-4.30425e+08,-4.30159e+08,-4.30351e+08,-189751,0.0183632,0.205779,0,0.206597,21535.6,-15670,0,26633.3,189751
step02_gravity_refstate-crust.xmf,2033,-1.16984e-06,3.10107e-06,0,-2.92332e-06,-4.68911e+08,-4.68618e+08,-4.68831e+08,-200540,0.0184139,0.206807,0,0.207625,20718.9,-17071.2,0,26845.9,200540
step02_gravity_refstate-crust.xmf,2034,-1.27331e-06,3.40972e-06,0,-3.02223e-06,-5.05668e+08,-5.05347e+08,-5.05581e+08,-207325,0.0183185,0.206637,0,0.207447,20086.2,-18409.5,0,27246.3,207325
step02_gravity_refstate-crust.xmf,2035,-1.39711e-06,3.74935e-06,0,-3.12449e-06,-5.44167e+08,-5.43814e+08,-5.44071e+08,-214340,0.0182937,0.206919,0,0.207726,19320.3,-19811.1,0,27672.3,214340
step02_gravity_refstate-crust.xmf,2036,-1.97189e-06,6.09591e-06,0,-3.08872e-06,-7.69249e+08,-7.68696e+08,-7.69114e+08,-211887,0.0110529,0.2057,0,0.205996,14688,-28006.8,0,31624.6,211887
step02_gravity_refstate-crust.xmf,2037,-1.86237e-06,6.35958e-06,0,-2.97539e-06,-7.95054e+08,-7.9449e+08,-7.94926e+08,-204112,0.0082912,0.20461,0,0.204778,14212.8,-28947,0,32248,204112
step02_gravity_refstate-crust.xmf,2038,-1.69404e-06,6.59043e-06,0,-2.89447e-06,-8.1875e+08,-8.18182e+08,-8.18634e+08,-198561,0.00532718,0.204253,0,0.204322,13709.2,-29810.8,0,32812,198561
step02_gravity_refstate-crust.xmf,2039,-1.45932e-06,6.78955e-06,0,-2.84849e-06,-8.40723e+08,-8.40157e+08,-8.40623e+08,-195407,0.0021075,0.204323,0,0.204334,13206.6,-30612,0,33339.3,195407
step02_gravity_refstate-crust.xmf,2040,-1.1637e-06,6.95587e-06,0,-2.85714e-06,-8.61678e+08,-8.61121e+08,-8.61599e+08,-196000,-0.00145559,0.20462,-0,0.204625,12712.8,-31376.3,0,33853.9,196000
step02_gravity_refstate-crust.xmf,2041,-7.29672e-07,7.1231e-06,0,-2.89441e-06,-8.82925e+08,-8.82386e+08,-8.82875e+08,-198557,-0.00560216,0.20478,-0,0.204857,12232.9,-32151.8,0,34400.4,198557
step02_gravity_refstate-crust.xmf,2042,-2.55131e-07,7.28257e-06,0,-3.05567e-06,-9.02536e+08,-9.02019e+08,-9.02518e+08,-209619,-0.0098174,0.205996,-0,0.206229,11712.5,-32868,0,34892.5,209619
step02_gravity_refstate-crust.xmf,2043,2.14205e-07,7.46418e-06,0,-3.33772e-06,-9.19784e+08,-9.19286e+08,-9.19798e+08,-228968,-0.013863,0.208032,-0,0.208493,11193.6,-33498.1,0,35318.8,228968
step02_gravity_refstate-crust.xmf,2044,7.07568e-07,7.67977e-06,0,-3.7153e-06,-9.36404e+08,-9.35926e+08,-9.36453e+08,-254869,-0.0180044,0.209781,-0,0.210552,10724.9,-34105.5,0,35752,254869
step02_gravity_refstate-crust.xmf,2045,2.32493e-06,9.87193e-06,0,-6.75889e-06,-1.00784e+09,-1.00733e+09,-1.008e+09,-463660,-0.0340855,0.215256,-0,0.217938,8884.01,-36716.2,0,37775.8,463660
step02_gravity_refstate-crust.xmf,2046,1.23695e-06,7.96389e-06,0,-4.21667e-06,-9.53808e+08,-9.53347e+08,-9.53893e+08,-289264,-0.0223894,0.211016,-0,0.212201,10286.6,-34741.7,0,36232.5,289264
step02_gravity_refstate-crust.xmf,2047,1.7313e-06,8.37718e-06,0,-4.88556e-06,-9.71545e+08,-9.71089e+08,-9.71664e+08,-335150,-0.0267179,0.2123,-0,0.213975,9841.23,-35390.1,0,36732.9,335150
step02_gravity_refstate-crust.xmf,2048,2.11014e-06,8.97058e-06,0,-5.70651e-06,-9.88985e+08,-9.88514e+08,-9.8913e+08,-391467,-0.0306174,0.213756,-0,0.215938,9386.59,-36027.4,0,37230.1,391467
step02_gravity_refstate-crust.xmf,2049,2.23057e-06,1.06165e-05,0,-7.47882e-06,-1.02919e+09,-1.02861e+09,-1.02934e+09,-513047,-0.0354875,0.208925,-0,0.211917,8779.49,-37494,0,38508.2,513047
step02_gravity_refstate-crust.xmf,2050,1.53903e-06,1.2684e-05,0,-8.9305e-06,-1.05781e+09,-1.05705e+09,-1.05792e+09,-612632,-0.0353662,0.206277,-0,0.209287,8155.76,-38536.7,0,39390.2,612632
step02_gravity_refstate-crust.xmf,2051,7.64611e-07,1.36787e-05,0,-9.46626e-06,-1.07925e+09,-1.07836e+09,-1.0793e+09,-649385,-0.0321462,0.196846,-0,0.199454,8096.9,-39315.3,0,40140.4,649385
step02_gravity_refstate-crust.xmf,2052,-1.44542e-06,1.71241e-06,0,-7.9122e-07,-2.50746e+08,-2.50529e+08,-2.50646e+08,-54277.7,0.0104586,0.170862,0,0.171181,33060.7,-9125.45,0,34296.9,54277.7
step02_gravity_refstate-crust.xmf,2053,-1.05057e-06,2.52158e-06,0,-2.29231e-06,-3.89312e+08,-3.89067e+08,-3.8924e+08,-157252,0.0167466,0.195364,0,0.19608,24041.9,-14172.9,0,27908.5,157252
step02_gravity_refstate-crust.xmf,2054,-1.14975e-06,1.95884e-06,0,-1.56866e-06,-3.01701e+08,-3.01487e+08,-3.01622e+08,-107610,0.0154161,0.1844,0,0.185043,27865.4,-10982.1,0,29951.4,107610
step02_gravity_refstate-crust.xmf,2055,-1.08738e-06,2.24133e-06,0,-1.78539e-06,-3.47797e+08,-3.47569e+08,-3.47722e+08,-122478,0.0149471,0.185008,0,0.185611,26899.1,-12661,0,29729.8,122478
step02_gravity_refstate-crust.xmf,2056,-1.91029e-06,5.27726e-06,0,-3.22133e-06,-6.96464e+08,-6.95971e+08,-6.96333e+08,-220983,0.0155404,0.205689,0,0.206275,16314.1,-25355.9,0,30150.8,220983
step02_gravity_refstate-crust.xmf,2057,-1.51739e-06,4.1382e-06,0,-3.09096e-06,-5.8547e+08,-5.85082e+08,-5.85366e+08,-212040,0.0174472,0.203792,0,0.204538,18931.7,-21314.9,0,28508.5,212040
step02_gravity_refstate-crust.xmf,2058,1.89452e-06,1.13016e-05,0,-7.97385e-06,-1.049e+09,-1.04836e+09,-1.04913e+09,-547006,-0.0349884,0.200607,-0,0.203635,8806.68,-38215.2,0,39216.8,547006
step02_gravity_refstate-crust.xmf,2059,-1.20586e-06,1.95626e-06,0,-1.28445e-06,-3.01143e+08,-3.00926e+08,-3.0106e+08,-88113.3,0.0130691,0.176847,0,0.177329,29869.5,-10961.6,0,31817.3,88113.3
step02_gravity_refstate-crust.xmf,2060,-1.2535e-06,1.94821e-06,0,-1.00582e-06,-3.00871e+08,-3.00652e+08,-3.00785e+08,-68998.9,0.0105481,0.170477,0,0.170803,31918.2,-10951.5,0,33744.7,68998.9
step02_gravity_refstate-crust.xmf,2061,-1.46644e-06,1.74576e-06,0,-5.28571e-07,-2.58091e+08,-2.5787e+08,-2.5799e+08,-36260,0.00691389,0.16579,0,0.165934,35368.4,-9392.82,0,36594.4,36260
step02_gravity_refstate-crust.xmf,2062,-1.71657e-06,1.55565e-06,0,-3.80619e-07,-2.06855e+08,-2.0663e+08,-2.06737e+08,-26110.5,0.00667452,0.167686,0,0.167819,36174.8,-7526.21,0,36949.4,26110.5
step02_gravity_refstate-crust.xmf,2063,-1.89416e-06,1.47082e-06,0,-1.89865e-07,-1.79705e+08,-1.79474e+08,-1.79575e+08,-13024.8,0.00398487,0.167413,0,0.16746,37911.9,-6536.94,0,38471.3,13024.8
step02_gravity_refstate-crust.xmf,2064,-2.11784e-06,1.3924e-06,0,1.63321e-09,-1.47072e+08,-1.46831e+08,-1.46926e+08,112.038,2.82519e-19,0.168373,0,0.168373,40000,-5347.88,0,40355.9,112.038
step02_gravity_refstate-crust.xmf,2065,-1.09317e-06,2.82068e-06,0,-2.45535e-06,-4.2967e+08,-4.29402e+08,-4.29595e+08,-168437,0.0165744,0.196067,0,0.196767,23198.2,-15642.5,0,27979.4,168437
step02_gravity_refstate-crust.xmf,2066,-1.07019e-06,2.53002e-06,0,-1.98021e-06,-3.90603e+08,-3.90356e+08,-3.90529e+08,-135842,0.0147403,0.185878,0,0.186461,25899.8,-14219.9,0,29546.6,135842
step02_gravity_refstate-crust.xmf,2067,-1.6232e-06,4.44723e-06,0,-3.11553e-06,-6.17395e+08,-6.16979e+08,-6.17284e+08,-213725,0.0170112,0.203329,0,0.20404,18323.2,-22477.2,0,28999.4,213725
step02_gravity_refstate-crust.xmf,2068,-1.82547e-06,5.0171e-06,0,-3.19155e-06,-6.73115e+08,-6.72645e+08,-6.72989e+08,-218941,0.0161194,0.20462,0,0.205254,16953.1,-24505.8,0,29798.3,218941
step02_gravity_refstate-crust.xmf,2069,-1.72563e-06,4.74581e-06,0,-3.14067e-06,-6.47021e+08,-6.46577e+08,-6.46903e+08,-215450,0.0165282,0.203456,0,0.204126,17667.5,-23555.8,0,29445.2,215450
step02_gravity_refstate-crust.xmf,2070,-1.74468e-06,5.96196e-06,0,-2.74315e-06,-7.68323e+08,-7.67794e+08,-7.68203e+08,-188180,0.00917232,0.195837,0,0.196052,15762.4,-27973.7,0,32108.9,188180
step02_gravity_refstate-crust.xmf,2071,-1.78585e-06,5.46157e-06,0,-2.86797e-06,-7.18972e+08,-7.18475e+08,-7.18849e+08,-196743,0.012587,0.196806,0,0.197208,16841,-26176.1,0,31125.7,196743
step02_gravity_refstate-crust.xmf,2072,-1.78627e-06,5.70957e-06,0,-2.81393e-06,-7.43065e+08,-7.42551e+08,-7.42943e+08,-193036,0.0111187,0.196375,0,0.19669,16313,-27053.6,0,31591.4,193036
step02_gravity_refstate-crust.xmf,2073,-1.15928e-06,3.12848e-06,0,-2.58919e-06,-4.68887e+08,-4.68593e+08,-4.68808e+08,-177618,0.0164728,0.196505,0,0.197194,22386,-17070.5,0,28152,177618
step02_gravity_refstate-crust.xmf,2074,-1.24207e-06,3.44526e-06,0,-2.69116e-06,-5.0728e+08,-5.06958e+08,-5.07194e+08,-184614,0.0163497,0.196561,0,0.19724,21616.9,-18468.3,0,28431.8,184614
step02_gravity_refstate-crust.xmf,2075,-1.33293e-06,3.76831e-06,0,-2.75621e-06,-5.44763e+08,-5.44413e+08,-5.44671e+08,-189076,0.0161021,0.196096,0,0.196756,20911.6,-19833.1,0,28820.9,189076
step02_gravity_refstate-crust.xmf,2076,-1.42384e-06,4.09913e-06,0,-2.78297e-06,-5.81918e+08,-5.81539e+08,-5.81821e+08,-190912,0.0156429,0.1951,0,0.195726,20254.1,-21185.9,0,29309.9,190912
step02_gravity_refstate-crust.xmf,2077,-1.63905e-06,6.20197e-06,0,-2.65748e-06,-7.93952e+08,-7.93414e+08,-7.9384e+08,-182303,0.00668177,0.195062,0,0.195176,15223.2,-28907.6,0,32671,182303
step02_gravity_refstate-crust.xmf,2078,-1.46388e-06,6.41469e-06,0,-2.57872e-06,-8.18686e+08,-8.18145e+08,-8.18585e+08,-176900,0.00377153,0.194309,0,0.194345,14699.1,-29809.1,0,33236.2,176900
step02_gravity_refstate-crust.xmf,2079,-1.22825e-06,6.59937e-06,0,-2.53813e-06,-8.41804e+08,-8.41267e+08,-8.4172e+08,-174116,0.00062232,0.194084,0,0.194085,14160.3,-30652,0,33764.7,174116
step02_gravity_refstate-crust.xmf,2080,-9.50052e-07,6.76017e-06,0,-2.55535e-06,-8.62652e+08,-8.62123e+08,-8.62587e+08,-175297,-0.00260165,0.194541,-0,0.194559,13615,-31412.3,0,34236,175297
step02_gravity_refstate-crust.xmf,2081,-5.8115e-07,6.88655e-06,0,-2.60806e-06,-8.834e+08,-8.82887e+08,-8.8336e+08,-178913,-0.00630498,0.194312,-0,0.194414,13146.9,-32169.4,0,34752.1,178913
step02_gravity_refstate-crust.xmf,2082,-3.95162e-08,7.02413e-06,0,-2.742e-06,-9.08375e+08,-9.07891e+08,-9.08373e+08,-188101,-0.0112347,0.193057,-0,0.193384,12680.7,-33081,0,35428.2,188101
step02_gravity_refstate-crust.xmf,2083,3.78709e-07,7.23148e-06,0,-3.04633e-06,-9.24918e+08,-9.24448e+08,-9.24944e+08,-208978,-0.0147921,0.19704,-0,0.197595,11960,-33685.3,0,35745.5,208978
step02_gravity_refstate-crust.xmf,2084,7.22552e-07,7.41293e-06,0,-3.37874e-06,-9.37335e+08,-9.36877e+08,-9.37385e+08,-231782,-0.0177077,0.200137,-0,0.200919,11435.9,-34139,0,36003.5,231782
step02_gravity_refstate-crust.xmf,2085,1.15112e-06,7.61867e-06,0,-3.7536e-06,-9.5396e+08,-9.53517e+08,-9.54039e+08,-257497,-0.0214505,0.199942,-0,0.201089,11093.8,-34746.3,0,36474.4,257497
step02_gravity_refstate-crust.xmf,2086,2.22303e-06,9.09444e-06,0,-5.92772e-06,-1.00775e+09,-1.00728e+09,-1.0079e+09,-406642,-0.0321999,0.20277,-0,0.20531,9708.05,-36711.3,0,37973.2,406642
step02_gravity_refstate-crust.xmf,2087,1.62327e-06,7.94761e-06,0,-4.33777e-06,-9.72395e+08,-9.71961e+08,-9.72506e+08,-297571,-0.0255159,0.200612,-0,0.202228,10646.4,-35419.9,0,36985.3,297571
step02_gravity_refstate-crust.xmf,2088,2.00086e-06,8.42991e-06,0,-5.07535e-06,-9.90632e+08,-9.90191e+08,-9.90769e+08,-348169,-0.0292108,0.201501,-0,0.203608,10183.6,-36086.1,0,37495.5,348169
step02_gravity_refstate-crust.xmf,2089,2.25768e-06,9.77282e-06,0,-6.66414e-06,-1.02201e+09,-1.0215e+09,-1.02217e+09,-457160,-0.0339851,0.203021,-0,0.205845,9352.33,-37231.6,0,38388.3,457160
step02_gravity_refstate-crust.xmf,2090,2.10337e-06,1.01644e-05,0,-7.05729e-06,-1.03882e+09,-1.03827e+09,-1.03897e+09,-484130,-0.0341276,0.196025,-0,0.198973,9414.69,-37843.7,0,38997.2,484130
step02_gravity_refstate-crust.xmf,2091,1.36348e-06,1.20208e-05,0,-8.42845e-06,-1.06861e+09,-1.06788e+09,-1.06871e+09,-578191,-0.0331023,0.192077,-0,0.194909,8822.27,-38928.1,0,39915.2,578191
step02_gravity_refstate-crust.xmf,2092,-1.30388e-06,1.91865e-06,0,-7.59117e-07,-2.96246e+08,-2.96025e+08,-2.96157e+08,-52075.5,0.00828606,0.166228,0,0.166434,33778,-10782.8,0,35457.3,52075.5
step02_gravity_refstate-crust.xmf,2093,-1.08645e-06,2.81864e-06,0,-2.15023e-06,-4.30276e+08,-4.30008e+08,-4.30202e+08,-147506,0.0146934,0.186872,0,0.187449,24909.4,-15664.6,0,29425.5,147506
step02_gravity_refstate-crust.xmf,2094,-1.11638e-06,2.23629e-06,0,-1.4873e-06,-3.4891e+08,-3.4868e+08,-3.48833e+08,-102029,0.0127468,0.176844,0,0.177303,28865.2,-12701.4,0,31536.1,102029
step02_gravity_refstate-crust.xmf,2095,-1.06891e-06,2.532e-06,0,-1.66504e-06,-3.94805e+08,-3.94558e+08,-3.94731e+08,-114222,0.0125195,0.176808,0,0.177251,27864.5,-14372.9,0,31353,114222
step02_gravity_refstate-crust.xmf,2096,-1.77322e-06,5.23567e-06,0,-2.93069e-06,-6.96928e+08,-6.96447e+08,-6.96807e+08,-201046,0.0137896,0.197784,0,0.198264,17244.5,-25373.3,0,30678.6,201046
step02_gravity_refstate-crust.xmf,2097,-1.50745e-06,4.42033e-06,0,-2.78309e-06,-6.16826e+08,-6.1642e+08,-6.16723e+08,-190920,0.015004,0.194,0,0.194579,19622.6,-22456.9,0,29822.1,190920
step02_gravity_refstate-crust.xmf,2098,-5.19904e-07,6.70824e-06,0,-2.40508e-06,-8.81327e+08,-8.80831e+08,-8.81291e+08,-164989,-0.00633623,0.186899,-0,0.187006,13916.5,-32093.9,0,34981.2,164989
step02_gravity_refstate-crust.xmf,2099,1.68251e-06,1.08353e-05,0,-7.55252e-06,-1.05953e+09,-1.05891e+09,-1.05965e+09,-518103,-0.0330744,0.187436,-0,0.190332,9464.81,-38597,0,39740.5,518103
step02_gravity_refstate-crust.xmf,2100,7.20194e-07,1.27145e-05,0,-8.81134e-06,-1.08608e+09,-1.08526e+09,-1.08613e+09,-604458,-0.0302795,0.184122,-0,0.186596,8830.27,-39562.5,0,40535.9,604458
step02_gravity_refstate-crust.xmf,2101,-1.12929e-06,2.21699e-06,0,-1.19316e-06,-3.50026e+08,-3.49797e+08,-3.49949e+08,-81851.1,0.0104294,0.16975,0,0.17007,30898.4,-12741.9,0,33422.6,81851.1
step02_gravity_refstate-crust.xmf,2102,-1.14958e-06,2.18147e-06,0,-8.62667e-07,-3.48752e+08,-3.48524e+08,-3.48673e+08,-59178.9,0.00773986,0.163406,0,0.163589,33285.2,-12695.4,0,35624.1,59178.9
step02_gravity_refstate-crust.xmf,2103,-1.2329e-06,2.03285e-06,0,-5.89756e-07,-3.22773e+08,-3.22549e+08,-3.22688e+08,-40457.3,0.00588886,0.161523,0,0.161631,35257.4,-11749,0,37163.4,40457.3
step02_gravity_refstate-crust.xmf,2104,-1.52574e-06,1.71661e-06,0,-2.54121e-07,-2.51469e+08,-2.51246e+08,-2.51364e+08,-17432.7,0.0034699,0.163383,0,0.16342,37735.6,-9151.45,0,38829.4,17432.7
step02_gravity_refstate-crust.xmf,2105,-1.69854e-06,1.5928e-06,0,9.75882e-10,-2.17423e+08,-2.17197e+08,-2.17306e+08,66.9455,2.4658e-19,0.16455,0,0.16455,40000,-7911.08,0,40774.8,66.9455
step02_gravity_refstate-crust.xmf,2106,-1.12645e-06,3.11657e-06,0,-2.27782e-06,-4.69059e+08,-4.68768e+08,-4.68982e+08,-156258,0.0145803,0.187215,0,0.187781,24037.7,-17076.8,0,29486.1,156258
step02_gravity_refstate-crust.xmf,2107,-1.06329e-06,2.8152e-06,0,-1.84548e-06,-4.34685e+08,-4.34419e+08,-4.34612e+08,-126600,0.0126425,0.177887,0,0.178336,26704.6,-15825.2,0,31041.5,126600
step02_gravity_refstate-crust.xmf,2108,-1.5852e-06,4.72357e-06,0,-2.78598e-06,-6.48491e+08,-6.48059e+08,-6.48383e+08,-191118,0.0143371,0.193595,0,0.194125,18937.3,-23609.9,0,30266.3,191118
step02_gravity_refstate-crust.xmf,2109,-1.65398e-06,5.04086e-06,0,-2.77026e-06,-6.80616e+08,-6.80157e+08,-6.80503e+08,-190040,0.0133922,0.193274,0,0.193738,18210.1,-24779.6,0,30751.2,190040
step02_gravity_refstate-crust.xmf,2110,-1.41654e-06,6.03567e-06,0,-2.37308e-06,-7.93984e+08,-7.93473e+08,-7.93887e+08,-162793,0.00504273,0.185657,0,0.185726,16291.2,-28909.4,0,33183.7,162793
step02_gravity_refstate-crust.xmf,2111,-1.62253e-06,5.30861e-06,0,-2.61545e-06,-7.11656e+08,-7.11181e+08,-7.11545e+08,-179420,0.0113346,0.189321,0,0.18966,17961.5,-25910.2,0,31527.1,179420
step02_gravity_refstate-crust.xmf,2112,-1.52626e-06,5.81323e-06,0,-2.44485e-06,-7.67945e+08,-7.67441e+08,-7.6784e+08,-167717,0.00740159,0.186493,0,0.18664,16871.5,-27960.6,0,32656.4,167717
step02_gravity_refstate-crust.xmf,2113,-1.58612e-06,5.57511e-06,0,-2.51733e-06,-7.41472e+08,-7.40981e+08,-7.41363e+08,-172689,0.00937733,0.18742,0,0.187654,17443.9,-26996.2,0,32141.6,172689
step02_gravity_refstate-crust.xmf,2114,-1.18309e-06,3.42694e-06,0,-2.36978e-06,-5.07732e+08,-5.07416e+08,-5.07651e+08,-162567,0.0143809,0.187029,0,0.187581,23229.1,-18485,0,29686.4,162567
step02_gravity_refstate-crust.xmf,2115,-1.2482e-06,3.7441e-06,0,-2.42809e-06,-5.45886e+08,-5.45543e+08,-5.458e+08,-166567,0.0140584,0.186421,0,0.186951,22464.7,-19874.3,0,29994.1,166567
step02_gravity_refstate-crust.xmf,2116,-1.37435e-06,4.36034e-06,0,-2.46719e-06,-6.17069e+08,-6.16675e+08,-6.16974e+08,-169249,0.0129915,0.184776,0,0.185232,21009.7,-22466.2,0,30759.3,169249
step02_gravity_refstate-crust.xmf,2117,-1.31387e-06,4.06225e-06,0,-2.45587e-06,-5.83207e+08,-5.82838e+08,-5.83117e+08,-168473,0.0135698,0.185507,0,0.186003,21728.7,-21233.2,0,30380.7,168473
step02_gravity_refstate-crust.xmf,2118,-1.24586e-06,6.232e-06,0,-2.30923e-06,-8.19104e+08,-8.18591e+08,-8.19019e+08,-158413,0.00230401,0.184804,0,0.184818,15732.7,-29824.9,0,33720.1,158413
step02_gravity_refstate-crust.xmf,2119,-1.00252e-06,6.41036e-06,0,-2.26925e-06,-8.44143e+08,-8.43635e+08,-8.44075e+08,-155671,-0.000887481,0.184106,-0,0.184108,15158,-30737.8,0,34272.1,155671
step02_gravity_refstate-crust.xmf,2120,-7.34043e-07,6.57304e-06,0,-2.30634e-06,-8.66038e+08,-8.65537e+08,-8.65988e+08,-158215,-0.00397512,0.184916,-0,0.184959,14506.1,-31536.2,0,34712.5,158215
step02_gravity_refstate-crust.xmf,2121,-7.79492e-08,6.76736e-06,0,-2.44317e-06,-9.03038e+08,-9.02568e+08,-9.03032e+08,-167602,-0.0102729,0.183656,-0,0.183943,13704.6,-32886.2,0,35627.4,167602
step02_gravity_refstate-crust.xmf,2122,9.7175e-07,7.28595e-06,0,-3.28004e-06,-9.49909e+08,-9.49476e+08,-9.49976e+08,-225011,-0.0197212,0.190014,-0,0.191034,11994.5,-34597.6,0,36617.8,225011
step02_gravity_refstate-crust.xmf,2123,5.59085e-07,7.05923e-06,0,-2.89453e-06,-9.33365e+08,-9.32919e+08,-9.33403e+08,-198565,-0.0161634,0.187176,-0,0.187873,12631.6,-33993.3,0,36264.3,198565
step02_gravity_refstate-crust.xmf,2124,2.16369e-06,9.31777e-06,0,-6.20036e-06,-1.02639e+09,-1.0259e+09,-1.02654e+09,-425344,-0.0327991,0.192943,-0,0.195711,9966.36,-37390.1,0,38695.6,425344
step02_gravity_refstate-crust.xmf,2125,1.49481e-06,7.58587e-06,0,-3.86974e-06,-9.73014e+08,-9.72596e+08,-9.73117e+08,-265464,-0.0242844,0.189611,-0,0.191159,11498.6,-35441.3,0,37260,265464
step02_gravity_refstate-crust.xmf,2126,2.09714e-06,8.58527e-06,0,-5.35662e-06,-1.01087e+09,-1.01042e+09,-1.01101e+09,-367464,-0.0307741,0.191128,-0,0.193589,10489.6,-36823.4,0,38288.3,367464
step02_gravity_refstate-crust.xmf,2127,1.86975e-06,8.00623e-06,0,-4.56013e-06,-9.92904e+08,-9.92483e+08,-9.93032e+08,-312825,-0.0279106,0.190016,-0,0.192055,11004.4,-36167.6,0,37804.7,312825
step02_gravity_refstate-crust.xmf,2128,1.94642e-06,9.71817e-06,0,-6.60471e-06,-1.04653e+09,-1.04599e+09,-1.04666e+09,-453083,-0.0326085,0.184277,-0,0.18714,10096.4,-38122.7,0,39437,453083
step02_gravity_refstate-crust.xmf,2129,1.09796e-06,1.14431e-05,0,-7.91227e-06,-1.07956e+09,-1.07885e+09,-1.07963e+09,-542782,-0.0306958,0.178061,-0,0.180687,9567.17,-39324.6,0,40471.6,542782
step02_gravity_refstate-crust.xmf,2130,4.19489e-07,6.86634e-06,0,-2.624e-06,-9.28212e+08,-9.2777e+08,-9.28241e+08,-180007,-0.0148534,0.180458,-0,0.181068,13397.9,-33804.8,0,36363,180007
step02_gravity_refstate-crust.xmf,2131,-1.34295e-06,1.8965e-06,0,-4.12722e-07,-2.94119e+08,-2.93897e+08,-2.94027e+08,-28312.7,0.00462817,0.161723,0,0.161789,36571.5,-10705.2,0,38106.1,28312.7
step02_gravity_refstate-crust.xmf,2132,-1.08062e-06,3.08791e-06,0,-1.98609e-06,-4.70663e+08,-4.70377e+08,-4.70589e+08,-136246,0.0127207,0.17874,0,0.179192,25681.3,-17135.4,0,30873.1,136246
step02_gravity_refstate-crust.xmf,2133,-1.00836e-06,2.84218e-06,0,-1.51666e-06,-4.47747e+08,-4.47483e+08,-4.47678e+08,-104043,0.0102165,0.168341,0,0.168651,28700.9,-16301,0,33007,104043
step02_gravity_refstate-crust.xmf,2134,-1.0536e-06,2.50952e-06,0,-1.36197e-06,-3.97556e+08,-3.97311e+08,-3.97483e+08,-93431.1,0.0103441,0.169108,0,0.169424,29844.7,-14473,0,33168.9,93431.1
step02_gravity_refstate-crust.xmf,2135,-1.43675e-06,4.63627e-06,0,-2.47205e-06,-6.48222e+08,-6.47805e+08,-6.48123e+08,-169583,0.0122842,0.18418,0,0.184589,20310.4,-23600.5,0,31136.8,169583
step02_gravity_refstate-crust.xmf,2136,-2.48539e-07,6.57204e-06,0,-2.22856e-06,-8.91503e+08,-8.91035e+08,-8.91486e+08,-152880,-0.00840805,0.177846,-0,0.178045,14609.9,-32465.2,0,35601.2,152880
step02_gravity_refstate-crust.xmf,2137,1.56638e-06,1.03262e-05,0,-7.07072e-06,-1.06475e+09,-1.06414e+09,-1.06485e+09,-485052,-0.0316358,0.177677,-0,0.180471,10091.9,-38785.5,0,40076.9,485052
step02_gravity_refstate-crust.xmf,2138,9.55354e-07,7.02139e-06,0,-2.97851e-06,-9.52388e+08,-9.51972e+08,-9.52453e+08,-204326,-0.019254,0.179101,-0,0.180132,12931.1,-34687.4,0,37019.3,204326
step02_gravity_refstate-crust.xmf,2139,-1.03394e-06,2.46535e-06,0,-1.05649e-06,-3.98418e+08,-3.98178e+08,-3.98347e+08,-72475.4,0.0081042,0.162505,0,0.162707,31969.9,-14504.4,0,35106.3,72475.4
step02_gravity_refstate-crust.xmf,2140,-1.09126e-06,2.25993e-06,0,-6.22583e-07,-3.69258e+08,-3.69028e+08,-3.69183e+08,-42709.2,0.00530539,0.158101,0,0.15819,35128.5,-13442.3,0,37612.6,42709.2
step02_gravity_refstate-crust.xmf,2141,-1.13419e-06,2.1747e-06,0,-4.1486e-07,-3.54944e+08,-3.54717e+08,-3.54867e+08,-28459.4,0.0037286,0.157051,0,0.157095,36713.2,-12920.9,0,38920.5,28459.4
step02_gravity_refstate-crust.xmf,2142,-1.2509e-06,2.00854e-06,0,-2.2761e-07,-3.20717e+08,-3.20493e+08,-3.20631e+08,-15614,0.00232069,0.158392,0,0.158409,38148,-11674.1,0,39894.3,15614
step02_gravity_refstate-crust.xmf,2143,-1.38317e-06,1.85448e-06,0,-3.07605e-10,-2.8601e+08,-2.85787e+08,-2.85915e+08,-21.1017,1.64788e-19,0.160243,0,0.160243,40000,-10409.7,0,41332.3,21.1017
step02_gravity_refstate-crust.xmf,2144,-1.11074e-06,3.37832e-06,0,-2.07053e-06,-5.0815e+08,-5.07842e+08,-5.08074e+08,-142039,0.0125012,0.178362,0,0.1788,24856.4,-18500.5,0,30985.6,142039
step02_gravity_refstate-crust.xmf,2145,-1.03384e-06,3.05891e-06,0,-1.73581e-06,-4.74014e+08,-4.73733e+08,-4.73943e+08,-119076,0.0110516,0.17165,0,0.172005,27171.7,-17257.5,0,32188.9,119076
step02_gravity_refstate-crust.xmf,2146,-1.03912e-06,6.04572e-06,0,-2.07507e-06,-8.20118e+08,-8.19632e+08,-8.20046e+08,-142350,0.000915435,0.175607,0,0.175609,16821.5,-29862.4,0,34274.2,142350
step02_gravity_refstate-crust.xmf,2147,-1.46878e-06,4.91465e-06,0,-2.45345e-06,-6.7756e+08,-6.77122e+08,-6.77459e+08,-168306,0.0114397,0.183844,0,0.1842,19599.2,-24668.9,0,31506.9,168306
step02_gravity_refstate-crust.xmf,2148,-1.45096e-06,5.18097e-06,0,-2.36139e-06,-7.09264e+08,-7.08809e+08,-7.09165e+08,-161992,0.00977976,0.181451,0,0.181714,19102.9,-25823.6,0,32121.4,161992
step02_gravity_refstate-crust.xmf,2149,-1.20221e-06,5.86146e-06,0,-2.12334e-06,-7.9468e+08,-7.94195e+08,-7.94597e+08,-145661,0.00347834,0.176532,0,0.176566,17416.9,-28935.3,0,33772.8,145661
step02_gravity_refstate-crust.xmf,2150,-1.39674e-06,5.42492e-06,0,-2.26334e-06,-7.39531e+08,-7.39063e+08,-7.39435e+08,-155265,0.00783253,0.17912,0,0.179291,18605.9,-26926.1,0,32729.1,155265
step02_gravity_refstate-crust.xmf,2151,-1.3166e-06,5.65201e-06,0,-2.18477e-06,-7.67891e+08,-7.67413e+08,-7.67801e+08,-149875,0.00575704,0.177564,0,0.177657,18031.2,-27959.3,0,33269.3,149875
step02_gravity_refstate-crust.xmf,2152,-1.14827e-06,3.68289e-06,0,-2.1204e-06,-5.4654e+08,-5.46209e+08,-5.46462e+08,-145459,0.0121007,0.177413,0,0.177825,24078.8,-19898.4,0,31236.8,145459
step02_gravity_refstate-crust.xmf,2153,-1.26319e-06,4.53781e-06,0,-2.17436e-06,-6.48829e+08,-6.48431e+08,-6.48742e+08,-149161,0.0103433,0.175247,0,0.175552,21726.4,-23623.2,0,32095,149161
step02_gravity_refstate-crust.xmf,2154,-1.18749e-06,3.98961e-06,0,-2.14411e-06,-5.84371e+08,-5.84016e+08,-5.84289e+08,-147086,0.0115479,0.176261,0,0.176639,23306,-21276,0,31556.9,147086
step02_gravity_refstate-crust.xmf,2155,-1.22621e-06,4.27824e-06,0,-2.16263e-06,-6.1916e+08,-6.18782e+08,-6.19076e+08,-148356,0.0109474,0.175514,0,0.175855,22500.1,-22542.8,0,31850.2,148356
step02_gravity_refstate-crust.xmf,2156,-1.28882e-06,4.78673e-06,0,-2.15839e-06,-6.78561e+08,-6.78144e+08,-6.78472e+08,-148065,0.00938716,0.174319,0,0.174572,21043.4,-24705.9,0,32453.1,148065
step02_gravity_refstate-crust.xmf,2157,-8.0523e-07,6.21171e-06,0,-2.04672e-06,-8.45973e+08,-8.45492e+08,-8.45918e+08,-140405,-0.00213684,0.174565,-0,0.174578,16227.5,-30804.9,0,34817.7,140405
step02_gravity_refstate-crust.xmf,2158,-4.67043e-07,6.3753e-06,0,-2.0727e-06,-8.74399e+08,-8.73929e+08,-8.74366e+08,-142187,-0.00598536,0.173573,-0,0.173676,15558.1,-31841.3,0,35439,142187
step02_gravity_refstate-crust.xmf,2159,2.93158e-07,6.61205e-06,0,-2.31378e-06,-9.2163e+08,-9.21197e+08,-9.2165e+08,-158725,-0.0133615,0.171435,-0,0.171955,14517.9,-33564.3,0,36569.5,158725
step02_gravity_refstate-crust.xmf,2160,1.36875e-06,7.28966e-06,0,-3.48109e-06,-9.74196e+08,-9.7379e+08,-9.7429e+08,-238803,-0.0231827,0.179174,-0,0.180668,12386.5,-35483.4,0,37583.2,238803
step02_gravity_refstate-crust.xmf,2161,2.00712e-06,8.87733e-06,0,-5.71406e-06,-1.03242e+09,-1.03194e+09,-1.03255e+09,-391984,-0.0313576,0.181194,-0,0.183887,10737,-37608,0,39110.7,391984
step02_gravity_refstate-crust.xmf,2162,1.72175e-06,7.65511e-06,0,-4.11521e-06,-9.95574e+08,-9.95167e+08,-9.95692e+08,-282303,-0.026639,0.178923,-0,0.180895,11880,-36263.7,0,38160.1,282303
step02_gravity_refstate-crust.xmf,2163,1.94016e-06,8.17774e-06,0,-4.86616e-06,-1.01505e+09,-1.01462e+09,-1.01518e+09,-333819,-0.0293831,0.179584,-0,0.181972,11329.3,-36974.3,0,38671.1,333819
step02_gravity_refstate-crust.xmf,2164,1.67852e-06,9.40848e-06,0,-6.19731e-06,-1.05707e+09,-1.05654e+09,-1.05718e+09,-425135,-0.0308148,0.171258,-0,0.174008,10886.8,-38505,0,40014.5,425135
step02_gravity_refstate-crust.xmf,2165,1.1615e-06,1.04468e-05,0,-7.01308e-06,-1.0796e+09,-1.07897e+09,-1.07968e+09,-481098,-0.0296415,0.167415,-0,0.170019,10500.1,-39324.9,0,40702.6,481098
step02_gravity_refstate-crust.xmf,2166,8.09342e-07,6.78889e-06,0,-2.66426e-06,-9.50477e+08,-9.50067e+08,-9.50532e+08,-182768,-0.018098,0.169845,-0,0.170807,13921.7,-34616.8,0,37311.4,182768
step02_gravity_refstate-crust.xmf,2167,-1.00578e-06,2.4524e-06,0,-7.69897e-07,-4.03795e+08,-4.03558e+08,-4.03726e+08,-52815,0.00588679,0.157135,0,0.157245,34040.9,-14700.3,0,37079.4,52815
step02_gravity_refstate-crust.xmf,2168,-1.0352e-06,3.30527e-06,0,-1.79826e-06,-5.07446e+08,-5.07148e+08,-5.07375e+08,-123361,0.0107966,0.170849,0,0.17119,26465.4,-18475,0,32276.1,123361
step02_gravity_refstate-crust.xmf,2169,-9.70264e-07,3.14683e-06,0,-1.5259e-06,-4.96039e+08,-4.95756e+08,-4.95972e+08,-104677,0.00926436,0.16446,0,0.164721,28336.4,-18059.7,0,33602.2,104677
step02_gravity_refstate-crust.xmf,2170,-9.6477e-07,2.75003e-06,0,-1.20084e-06,-4.43938e+08,-4.43683e+08,-4.43872e+08,-82377.5,0.00818891,0.161404,0,0.161611,30852.8,-16162.4,0,34829.8,82377.5
step02_gravity_refstate-crust.xmf,2171,-1.10525e-06,4.65356e-06,0,-1.90189e-06,-6.78669e+08,-6.78274e+08,-6.78593e+08,-130470,0.00769964,0.166096,0,0.166274,22453.2,-24710.3,0,33387.9,130470
step02_gravity_refstate-crust.xmf,2172,-3.04711e-08,6.42984e-06,0,-2.09939e-06,-9.0182e+08,-9.01377e+08,-9.01818e+08,-144018,-0.0101755,0.168674,-0,0.16898,15379.4,-32841.5,0,36264.2,144018
step02_gravity_refstate-crust.xmf,2173,1.27092e-06,7.01569e-06,0,-3.12955e-06,-9.75162e+08,-9.74768e+08,-9.75249e+08,-214687,-0.0220421,0.168992,-0,0.170424,13357.6,-35517.8,0,37946.5,214687
step02_gravity_refstate-crust.xmf,2174,-9.21163e-07,2.69818e-06,0,-9.12242e-07,-4.46125e+08,-4.45877e+08,-4.46062e+08,-62579.8,0.00619373,0.155609,0,0.155732,32921.3,-16242.1,0,36709.9,62579.8
step02_gravity_refstate-crust.xmf,2175,-9.64117e-07,2.46539e-06,0,-4.85341e-07,-4.13505e+08,-4.13269e+08,-4.13438e+08,-33294.4,0.00363214,0.152731,0,0.152774,36191.8,-15054,0,39197.8,33294.4
step02_gravity_refstate-crust.xmf,2176,-1.03571e-06,2.31113e-06,0,-2.24042e-07,-3.85826e+08,-3.85597e+08,-3.85755e+08,-15369.3,0.00183392,0.153221,0,0.153232,38228.4,-14045.8,0,40727.1,15369.3
step02_gravity_refstate-crust.xmf,2177,-1.13868e-06,2.15237e-06,0,-7.27959e-10,-3.53019e+08,-3.52793e+08,-3.52941e+08,-49.938,1.29826e-19,0.155354,0,0.155354,40000,-12850.7,0,42013.6,49.938
step02_gravity_refstate-crust.xmf,2178,-1.04187e-06,3.59355e-06,0,-1.83264e-06,-5.46448e+08,-5.4613e+08,-5.46376e+08,-125719,0.0102689,0.16918,0,0.169491,25754.3,-19895.3,0,32543.9,125719
step02_gravity_refstate-crust.xmf,2179,-9.00174e-07,3.05374e-06,0,-1.26297e-06,-4.92955e+08,-4.92683e+08,-4.92893e+08,-86639.8,0.00768692,0.158538,0,0.158724,30116.4,-17947.6,0,35058.7,86639.8
step02_gravity_refstate-crust.xmf,2180,-6.43038e-07,6.01424e-06,0,-1.85689e-06,-8.46682e+08,-8.46225e+08,-8.46637e+08,-127383,-0.00305433,0.165711,-0,0.165739,17357.5,-30831,0,35381.3,127383
step02_gravity_refstate-crust.xmf,2181,-8.53902e-07,5.85815e-06,0,-1.87445e-06,-8.20911e+08,-8.20451e+08,-8.20853e+08,-128587,-0.000266923,0.166934,-0,0.166934,17961.9,-29891.7,0,34873.3,128587
step02_gravity_refstate-crust.xmf,2182,-1.26247e-06,5.0456e-06,0,-2.09977e-06,-7.0957e+08,-7.09138e+08,-7.09484e+08,-144044,0.00800951,0.17285,0,0.173035,20388.4,-25835.3,0,32911.2,144044
step02_gravity_refstate-crust.xmf,2183,-1.20674e-06,5.26966e-06,0,-2.02624e-06,-7.38938e+08,-7.38494e+08,-7.38856e+08,-139000,0.00628239,0.170868,0,0.170983,19836.8,-26905.1,0,33427.2,139000
step02_gravity_refstate-crust.xmf,2184,-1.0071e-06,5.68244e-06,0,-1.90946e-06,-7.95103e+08,-7.94644e+08,-7.95034e+08,-130989,0.00213342,0.16799,0,0.168004,18588.1,-28951.2,0,34404.8,130989
step02_gravity_refstate-crust.xmf,2185,-1.11815e-06,5.48401e-06,0,-1.95642e-06,-7.68089e+08,-7.67636e+08,-7.68013e+08,-134210,0.0042631,0.169079,0,0.169132,19239.8,-27967,0,33945.9,134210
step02_gravity_refstate-crust.xmf,2186,-1.04887e-06,3.89969e-06,0,-1.84442e-06,-5.87237e+08,-5.86898e+08,-5.87165e+08,-126527,0.00955049,0.167245,0,0.167517,24986.1,-21380.8,0,32885.3,126527
step02_gravity_refstate-crust.xmf,2187,-1.11837e-06,4.43854e-06,0,-1.93558e-06,-6.51161e+08,-6.50779e+08,-6.51084e+08,-132780,0.00866719,0.167535,0,0.167759,23024.9,-23708.5,0,33049,132780
step02_gravity_refstate-crust.xmf,2188,-1.05742e-06,4.22427e-06,0,-1.83323e-06,-6.30969e+08,-6.30607e+08,-6.30897e+08,-125759,0.00849912,0.164917,0,0.165136,24143,-22973.3,0,33326.5,125759
step02_gravity_refstate-crust.xmf,2189,-1.0882e-06,4.88033e-06,0,-1.86814e-06,-7.08584e+08,-7.08174e+08,-7.08509e+08,-128155,0.00643738,0.164602,0,0.164728,21793,-25799.9,0,33772.3,128155
step02_gravity_refstate-crust.xmf,2190,-3.68586e-07,6.15507e-06,0,-1.87748e-06,-8.7281e+08,-8.72363e+08,-8.72785e+08,-128795,-0.0062533,0.164394,-0,0.164513,16754.6,-31783.6,0,35929.3,128795
step02_gravity_refstate-crust.xmf,2191,-4.94003e-08,6.27805e-06,0,-1.9531e-06,-8.97887e+08,-8.97453e+08,-8.97884e+08,-133983,-0.0096314,0.163051,-0,0.163335,16188.2,-32698,0,36485.9,133983
step02_gravity_refstate-crust.xmf,2192,3.32061e-07,6.40407e-06,0,-2.11409e-06,-9.2435e+08,-9.23933e+08,-9.24373e+08,-145026,-0.013414,0.161324,-0,0.161881,15632.7,-33663.1,0,37115.9,145026
step02_gravity_refstate-crust.xmf,2193,7.26609e-07,6.57629e-06,0,-2.40453e-06,-9.49979e+08,-9.49578e+08,-9.50029e+08,-164951,-0.0172245,0.160733,-0,0.161654,14965.7,-34598.1,0,37696.1,164951
step02_gravity_refstate-crust.xmf,2194,1.56295e-06,7.35778e-06,0,-3.71369e-06,-9.9794e+08,-9.97542e+08,-9.98047e+08,-254759,-0.0253488,0.168442,-0,0.170338,12808.7,-36348.7,0,38539.5,254759
step02_gravity_refstate-crust.xmf,2195,1.81446e-06,8.4852e-06,0,-5.21515e-06,-1.03851e+09,-1.03805e+09,-1.03863e+09,-357759,-0.029803,0.169401,-0,0.172003,11603.6,-37828.3,0,39568,357759
step02_gravity_refstate-crust.xmf,2196,1.76008e-06,7.83473e-06,0,-4.4197e-06,-1.01981e+09,-1.01939e+09,-1.01993e+09,-303191,-0.0279707,0.168103,-0,0.170414,12250,-37146.4,0,39114.1,303191
step02_gravity_refstate-crust.xmf,2197,1.1975e-06,9.66292e-06,0,-6.22195e-06,-1.07805e+09,-1.07747e+09,-1.07813e+09,-426826,-0.0287563,0.158719,-0,0.161303,11381.5,-39267.4,0,40883.5,426826
step02_gravity_refstate-crust.xmf,2198,1.0977e-06,6.78618e-06,0,-2.802e-06,-9.75103e+08,-9.74713e+08,-9.75178e+08,-192217,-0.0208177,0.159468,-0,0.160822,14397.6,-35514.5,0,38322,192217
step02_gravity_refstate-crust.xmf,2199,-8.89637e-07,2.66099e-06,0,-6.7697e-07,-4.4736e+08,-4.47117e+08,-4.47299e+08,-46440.1,0.004594,0.151894,0,0.151964,34668.7,-16287.1,0,38303.9,46440.1
step02_gravity_refstate-crust.xmf,2200,-9.38737e-07,3.47452e-06,0,-1.56004e-06,-5.43556e+08,-5.43253e+08,-5.43492e+08,-107019,0.00860783,0.161895,0,0.162124,27529.4,-19790.3,0,33904.6,107019
step02_gravity_refstate-crust.xmf,2201,-8.52076e-07,3.34493e-06,0,-1.30157e-06,-5.39513e+08,-5.39225e+08,-5.39455e+08,-89287.8,0.00706636,0.155502,0,0.155662,29395.2,-19643.2,0,35354.4,89287.8
step02_gravity_refstate-crust.xmf,2202,-8.35293e-07,2.97667e-06,0,-9.94158e-07,-4.93291e+08,-4.9303e+08,-4.93234e+08,-68199.2,0.00599606,0.152874,0,0.152991,32055.2,-17960,0,36743.7,68199.2
step02_gravity_refstate-crust.xmf,2203,-9.5801e-07,4.49466e-06,0,-1.69462e-06,-6.75094e+08,-6.7472e+08,-6.75029e+08,-116251,0.0064455,0.159241,0,0.159371,23876.6,-24580.6,0,34268,116251
step02_gravity_refstate-crust.xmf,2204,-9.10225e-07,4.72026e-06,0,-1.65175e-06,-7.07286e+08,-7.06899e+08,-7.07223e+08,-113310,0.00510233,0.157126,0,0.157208,23223.5,-25753.1,0,34677.8,113310
step02_gravity_refstate-crust.xmf,2205,1.55237e-06,8.83312e-06,0,-5.51617e-06,-1.05903e+09,-1.05853e+09,-1.05914e+09,-378409,-0.0292357,0.160654,-0,0.163292,11821.4,-38575.1,0,40345.7,378409
step02_gravity_refstate-crust.xmf,2206,1.43594e-06,7.07607e-06,0,-3.31927e-06,-9.99267e+08,-9.9888e+08,-9.99365e+08,-227702,-0.023957,0.158395,-0,0.160196,13829,-36396.1,0,38934.8,227702
step02_gravity_refstate-crust.xmf,2207,-7.93339e-07,2.90457e-06,0,-7.54897e-07,-4.91771e+08,-4.91517e+08,-4.91716e+08,-51785.9,0.00453251,0.148847,0,0.148916,33892.7,-17904.7,0,38331.4,51785.9
step02_gravity_refstate-crust.xmf,2208,-7.6444e-07,2.81784e-06,0,-4.65369e-07,-4.85342e+08,-4.85097e+08,-4.8529e+08,-31924.3,0.00283888,0.145819,0,0.145846,36193.8,-17670.6,0,40277.1,31924.3
step02_gravity_refstate-crust.xmf,2209,-8.45829e-07,2.61803e-06,0,-2.21968e-07,-4.49739e+08,-4.49501e+08,-4.49681e+08,-15227,0.00150829,0.147494,0,0.147501,38210.9,-16373.8,0,41571.3,15227
step02_gravity_refstate-crust.xmf,2210,-9.32499e-07,2.4624e-06,0,-1.36527e-09,-4.18634e+08,-4.18401e+08,-4.1857e+08,-93.6578,1.06612e-19,0.149839,0,0.149839,40000,-15240.8,0,42805.2,93.6578
step02_gravity_refstate-crust.xmf,2211,-9.20361e-07,3.77498e-06,0,-1.58064e-06,-5.86308e+08,-5.85986e+08,-5.86245e+08,-108432,0.00789856,0.159662,0,0.159857,26700.2,-21347.2,0,34184.8,108432
step02_gravity_refstate-crust.xmf,2212,-7.61336e-07,3.247e-06,0,-1.04559e-06,-5.38685e+08,-5.3841e+08,-5.38632e+08,-71727.4,0.00558404,0.149841,0,0.149945,31267.2,-19613.3,0,36909.7,71727.4
step02_gravity_refstate-crust.xmf,2213,-5.07088e-07,5.82237e-06,0,-1.69317e-06,-8.4661e+08,-8.46176e+08,-8.46575e+08,-116151,-0.00372196,0.157557,-0,0.157601,18532.8,-30828.6,0,35970.4,116151
step02_gravity_refstate-crust.xmf,2214,-2.60884e-07,5.96272e-06,0,-1.71636e-06,-8.73285e+08,-8.72858e+08,-8.73267e+08,-117742,-0.00667977,0.155993,-0,0.156136,17911.8,-31801,0,36498.4,117742
step02_gravity_refstate-crust.xmf,2215,-6.93311e-07,5.67649e-06,0,-1.70423e-06,-8.21266e+08,-8.20829e+08,-8.21219e+08,-116910,-0.00120837,0.159015,-0,0.159019,19124,-29905,0,35497,116910
step02_gravity_refstate-crust.xmf,2216,-1.0194e-06,5.10593e-06,0,-1.80626e-06,-7.39027e+08,-7.38606e+08,-7.38957e+08,-123909,0.00480605,0.162742,0,0.162813,21155.1,-26908.8,0,34229,123909
step02_gravity_refstate-crust.xmf,2217,-9.26281e-07,5.31527e-06,0,-1.74741e-06,-7.69236e+08,-7.68808e+08,-7.69172e+08,-119873,0.0028534,0.160823,0,0.160848,20511.2,-28009.3,0,34716.4,119873
step02_gravity_refstate-crust.xmf,2218,-8.17325e-07,5.50469e-06,0,-1.71515e-06,-7.96488e+08,-7.96054e+08,-7.96432e+08,-117659,0.000862979,0.159686,0,0.159688,19817.2,-29002.2,0,35126.1,117659
step02_gravity_refstate-crust.xmf,2219,-8.88249e-07,4.06701e-06,0,-1.56504e-06,-6.28784e+08,-6.28444e+08,-6.28723e+08,-107361,0.00686676,0.156875,0,0.157026,25934.6,-22894.2,0,34594,107361
step02_gravity_refstate-crust.xmf,2220,-8.52346e-07,4.93221e-06,0,-1.6112e-06,-7.38828e+08,-7.38432e+08,-7.3877e+08,-110528,0.00351872,0.155046,0,0.155086,22553,-26902,0,35104.9,110528
step02_gravity_refstate-crust.xmf,2221,2.32319e-08,6.09246e-06,0,-1.7928e-06,-8.99242e+08,-8.98826e+08,-8.99244e+08,-122986,-0.00982622,0.154498,-0,0.15481,17303.2,-32747.3,0,37037.7,122986
step02_gravity_refstate-crust.xmf,2222,3.3431e-07,6.22611e-06,0,-1.9402e-06,-9.24585e+08,-9.24181e+08,-9.24608e+08,-133097,-0.0130928,0.153216,-0,0.153775,16686.5,-33671.4,0,37579.3,133097
step02_gravity_refstate-crust.xmf,2223,6.69222e-07,6.38127e-06,0,-2.1805e-06,-9.50468e+08,-9.50076e+08,-9.50513e+08,-149582,-0.0165061,0.151776,-0,0.15267,16077.9,-34615.3,0,38167,149582
step02_gravity_refstate-crust.xmf,2224,9.87011e-07,6.5857e-06,0,-2.52981e-06,-9.75663e+08,-9.75279e+08,-9.7573e+08,-173545,-0.0197789,0.150658,-0,0.151951,15448.8,-35534.2,0,38747.1,173545
step02_gravity_refstate-crust.xmf,2225,1.5685e-06,7.51639e-06,0,-3.9567e-06,-1.02324e+09,-1.02283e+09,-1.02335e+09,-271430,-0.0264482,0.157127,-0,0.159338,13271.2,-37270,0,39562.3,271430
step02_gravity_refstate-crust.xmf,2226,1.56659e-06,8.20039e-06,0,-4.795e-06,-1.04857e+09,-1.04811e+09,-1.04867e+09,-328937,-0.028168,0.156155,-0,0.158676,12607.2,-38193.1,0,40220.1,328937
step02_gravity_refstate-crust.xmf,2227,1.19952e-06,9.00113e-06,0,-5.48453e-06,-1.07621e+09,-1.07567e+09,-1.07629e+09,-376239,-0.0277786,0.150329,-0,0.152874,12310.1,-39199.1,0,41086.6,376239
step02_gravity_refstate-crust.xmf,2228,1.24363e-06,6.85647e-06,0,-2.97572e-06,-1.00007e+09,-9.99689e+08,-1.00016e+09,-204135,-0.0226563,0.149356,-0,0.151065,14862.9,-36424.3,0,39340,204135
step02_gravity_refstate-crust.xmf,2229,-7.98566e-07,3.64455e-06,0,-1.32524e-06,-5.85173e+08,-5.84869e+08,-5.85119e+08,-90911.4,0.00636864,0.152718,0,0.15285,28526.8,-21306.2,0,35605.2,90911.4
step02_gravity_refstate-crust.xmf,2230,-6.99569e-07,3.52082e-06,0,-1.08973e-06,-5.83981e+08,-5.83692e+08,-5.83933e+08,-74755.7,0.00502542,0.146817,0,0.146903,30377.3,-21263,0,37079.6,74755.7
step02_gravity_refstate-crust.xmf,2231,-6.90774e-07,3.16113e-06,0,-8.02475e-07,-5.38274e+08,-5.38009e+08,-5.38226e+08,-55049.8,0.00420753,0.145194,0,0.145255,33175.6,-19598.5,0,38532.1,55049.8
step02_gravity_refstate-crust.xmf,2232,-8.40993e-07,4.33026e-06,0,-1.52256e-06,-6.69674e+08,-6.6932e+08,-6.69617e+08,-104447,0.00549063,0.153547,0,0.153645,25271.2,-24383.5,0,35116.8,104447
step02_gravity_refstate-crust.xmf,2233,-7.46943e-07,4.56542e-06,0,-1.45178e-06,-7.07851e+08,-7.07487e+08,-7.078e+08,-99592.4,0.00384115,0.149919,0,0.149968,24702.7,-25774.1,0,35700.5,99592.4
step02_gravity_refstate-crust.xmf,2234,-6.63754e-07,4.78023e-06,0,-1.41193e-06,-7.4197e+08,-7.41596e+08,-7.41924e+08,-96858.4,0.00221441,0.147382,0,0.147399,23991.2,-27016.9,0,36131.6,96858.4
step02_gravity_refstate-crust.xmf,2235,1.44197e-06,7.21871e-06,0,-3.51584e-06,-1.02409e+09,-1.02369e+09,-1.02419e+09,-241186,-0.0249625,0.147847,-0,0.149939,14299,-37300,0,39946.9,241186
step02_gravity_refstate-crust.xmf,2236,-6.39802e-07,3.09177e-06,0,-5.67399e-07,-5.3801e+08,-5.37754e+08,-5.37966e+08,-38923.5,0.00291975,0.141636,0,0.141666,35123.6,-19589,0,40216.8,38923.5
step02_gravity_refstate-crust.xmf,2237,-6.60016e-07,2.91937e-06,0,-2.05261e-07,-5.13556e+08,-5.1331e+08,-5.1351e+08,-14080.9,0.00114493,0.141034,0,0.141039,38252.8,-18698.4,0,42578.3,14080.9
step02_gravity_refstate-crust.xmf,2238,-7.42472e-07,2.76842e-06,0,-1.68281e-09,-4.83039e+08,-4.82798e+08,-4.82988e+08,-115.441,8.12008e-20,0.143704,0,0.143704,40000,-17586.8,0,43695.5,115.441
step02_gravity_refstate-crust.xmf,2239,-7.47185e-07,3.92814e-06,0,-1.32805e-06,-6.28925e+08,-6.28604e+08,-6.28873e+08,-91104,0.00543491,0.149801,0,0.1499,27677.4,-22899.7,0,35922.6,91104
step02_gravity_refstate-crust.xmf,2240,-6.03658e-07,3.41649e-06,0,-8.57004e-07,-5.83218e+08,-5.82942e+08,-5.83176e+08,-58790.5,0.00382373,0.141882,0,0.141933,32261.3,-21235.5,0,38623,58790.5
step02_gravity_refstate-crust.xmf,2241,-4.09129e-07,5.63376e-06,0,-1.55273e-06,-8.43878e+08,-8.43464e+08,-8.4385e+08,-106517,-0.00397411,0.150522,-0,0.150575,19741.9,-30729.3,0,36524.4,106517
step02_gravity_refstate-crust.xmf,2242,-1.67936e-07,5.77828e-06,0,-1.57048e-06,-8.73344e+08,-8.72937e+08,-8.73333e+08,-107735,-0.00694548,0.148178,-0,0.14834,19118,-31803.2,0,37107.2,107735
step02_gravity_refstate-crust.xmf,2243,8.94943e-08,5.91471e-06,0,-1.64402e-06,-9.00682e+08,-9.00283e+08,-9.00688e+08,-112779,-0.00992958,0.146335,-0,0.146671,18479.4,-32799.8,0,37647.2,112779
step02_gravity_refstate-crust.xmf,2244,-5.53853e-07,5.50262e-06,0,-1.56037e-06,-8.2155e+08,-8.21134e+08,-8.21512e+08,-107042,-0.00196809,0.151786,-0,0.151798,20294.9,-29915.6,0,36150.1,107042
step02_gravity_refstate-crust.xmf,2245,-7.46564e-07,5.1409e-06,0,-1.56098e-06,-7.70255e+08,-7.69851e+08,-7.70204e+08,-107083,0.00164022,0.152993,0,0.153001,21853.9,-28046.8,0,35555.9,107083
step02_gravity_refstate-crust.xmf,2246,-5.98866e-07,5.33533e-06,0,-1.51248e-06,-8.03391e+08,-8.02984e+08,-8.0335e+08,-103756,-0.000751071,0.150437,-0,0.150439,21163.5,-29254.1,0,36106.7,103756
step02_gravity_refstate-crust.xmf,2247,-6.82968e-07,4.19232e-06,0,-1.30899e-06,-6.70699e+08,-6.70365e+08,-6.70653e+08,-89796.7,0.00422943,0.146719,0,0.146779,26868.9,-24421.2,0,36308.8,89796.7
step02_gravity_refstate-crust.xmf,2248,-5.77741e-07,4.97026e-06,0,-1.38663e-06,-7.72864e+08,-7.72484e+08,-7.72824e+08,-95123,0.00049653,0.145259,0,0.145259,23279.9,-28142.2,0,36523.1,95123
step02_gravity_refstate-crust.xmf,2249,3.57488e-07,6.0535e-06,0,-1.77974e-06,-9.26468e+08,-9.26077e+08,-9.26492e+08,-122090,-0.0129125,0.144845,-0,0.14542,17837.7,-33739.8,0,38164.9,122090
step02_gravity_refstate-crust.xmf,2250,6.3203e-07,6.21074e-06,0,-1.99009e-06,-9.51618e+08,-9.51236e+08,-9.51662e+08,-136520,-0.0159074,0.14356,-0,0.144439,17188.3,-34656.8,0,38685,136520
step02_gravity_refstate-crust.xmf,2251,8.97398e-07,6.40336e-06,0,-2.28617e-06,-9.76839e+08,-9.76461e+08,-9.769e+08,-156831,-0.0188392,0.142096,-0,0.143339,16563.1,-35576.3,0,39243,156831
step02_gravity_refstate-crust.xmf,2252,1.11519e-06,6.65528e-06,0,-2.66962e-06,-1.00136e+09,-1.00098e+09,-1.00143e+09,-183136,-0.0214679,0.140669,-0,0.142298,15950.1,-36470.2,0,39805.5,183136
step02_gravity_refstate-crust.xmf,2253,1.3968e-06,7.75986e-06,0,-4.15744e-06,-1.04893e+09,-1.04849e+09,-1.04902e+09,-285201,-0.0264717,0.145704,-0,0.148089,13752.4,-38204.9,0,40604.7,285201
step02_gravity_refstate-crust.xmf,2254,1.16915e-06,8.46174e-06,0,-4.82714e-06,-1.07407e+09,-1.07357e+09,-1.07415e+09,-331142,-0.0267642,0.142557,-0,0.145048,13255.3,-39120.3,0,41305,331142
step02_gravity_refstate-crust.xmf,2255,1.24987e-06,6.98831e-06,0,-3.13108e-06,-1.02517e+09,-1.02478e+09,-1.02525e+09,-214792,-0.023604,0.139128,-0,0.141116,15361.7,-37338.2,0,40374.8,214792
step02_gravity_refstate-crust.xmf,2256,-5.89866e-07,3.07223e-06,0,-3.59623e-07,-5.42837e+08,-5.42585e+08,-5.42796e+08,-24670.1,0.0017967,0.138911,0,0.138923,36862.2,-19764.9,0,41826.7,24670.1
step02_gravity_refstate-crust.xmf,2257,-6.21585e-07,3.79399e-06,0,-1.10459e-06,-6.28757e+08,-6.28454e+08,-6.28715e+08,-75774.7,0.00420598,0.1436,0,0.143662,29481.3,-22893.9,0,37326.6,75774.7
step02_gravity_refstate-crust.xmf,2258,-5.22294e-07,3.66912e-06,0,-8.96186e-07,-6.2791e+08,-6.27623e+08,-6.27874e+08,-61478.4,0.00318366,0.138435,0,0.138472,31324.3,-22863.3,0,38780.6,61478.4
step02_gravity_refstate-crust.xmf,2259,-5.27178e-07,3.33145e-06,0,-6.26127e-07,-5.8373e+08,-5.83466e+08,-5.83694e+08,-42952.3,0.00268985,0.137728,0,0.137754,34247.2,-21254.3,0,40306.5,42952.3
step02_gravity_refstate-crust.xmf,2260,-6.02912e-07,4.42401e-06,0,-1.27184e-06,-7.10338e+08,-7.09993e+08,-7.10296e+08,-87248.1,0.00271162,0.143226,0,0.143252,26178.2,-25865,0,36800.7,87248.1
step02_gravity_refstate-crust.xmf,2261,-3.97966e-07,4.83047e-06,0,-1.22023e-06,-7.78923e+08,-7.78564e+08,-7.78895e+08,-83707.8,-0.000597261,0.13794,-0,0.137941,24657.8,-28363.3,0,37583.1,83707.8
step02_gravity_refstate-crust.xmf,2262,-4.89546e-07,4.63593e-06,0,-1.22585e-06,-7.47212e+08,-7.4686e+08,-7.47178e+08,-84093.1,0.00101527,0.1399,0,0.139904,25496.8,-27208.2,0,37287.7,84093.1
step02_gravity_refstate-crust.xmf,2263,1.29671e-06,7.42188e-06,0,-3.65639e-06,-1.04924e+09,-1.04882e+09,-1.04933e+09,-250829,-0.0250589,0.136968,-0,0.139242,14817.7,-38215.5,0,40987.7,250829
step02_gravity_refstate-crust.xmf,2264,-4.68075e-07,3.27466e-06,0,-3.90312e-07,-5.86104e+08,-5.85847e+08,-5.86072e+08,-26775.4,0.00160248,0.134421,0,0.134431,36370.1,-21340.9,0,42168.9,26775.4
step02_gravity_refstate-crust.xmf,2265,-4.76205e-07,3.18868e-06,0,-1.89491e-07,-5.73962e+08,-5.73711e+08,-5.73929e+08,-12999.1,0.000822915,0.134315,0,0.134317,38250.2,-20898.7,0,43587.1,12999.1
step02_gravity_refstate-crust.xmf,2266,-5.52854e-07,3.05891e-06,0,-1.77599e-09,-5.46416e+08,-5.46169e+08,-5.46378e+08,-121.833,5.83255e-20,0.136977,0,0.136977,40000,-19895.3,0,44674.6,121.833
step02_gravity_refstate-crust.xmf,2267,-5.4345e-07,4.05102e-06,0,-1.10509e-06,-6.71721e+08,-6.71406e+08,-6.71684e+08,-75808.9,0.00312636,0.140341,0,0.140375,28594.1,-24458.7,0,37627.8,75808.9
step02_gravity_refstate-crust.xmf,2268,-4.24224e-07,3.56808e-06,0,-6.80872e-07,-6.28319e+08,-6.28045e+08,-6.2829e+08,-46707.8,0.0022608,0.133964,0,0.133983,33263.5,-22878.4,0,40371.8,46707.8
step02_gravity_refstate-crust.xmf,2269,-3.26466e-07,5.44271e-06,0,-1.42123e-06,-8.39368e+08,-8.38972e+08,-8.39346e+08,-97496.3,-0.00400482,0.144074,-0,0.144129,21035.1,-30565.1,0,37103.9,97496.3
step02_gravity_refstate-crust.xmf,2270,-8.75223e-08,5.59848e-06,0,-1.43432e-06,-8.72588e+08,-8.72198e+08,-8.72582e+08,-98394.4,-0.0070294,0.140958,-0,0.141133,20382.7,-31775.7,0,37751.2,98394.4
step02_gravity_refstate-crust.xmf,2271,1.54403e-07,5.74532e-06,0,-1.50464e-06,-9.02456e+08,-9.02073e+08,-9.02467e+08,-103219,-0.00996416,0.138555,-0,0.138913,19711,-32864.3,0,38322.2,103219
step02_gravity_refstate-crust.xmf,2272,3.86684e-07,5.8919e-06,0,-1.63102e-06,-9.28951e+08,-9.28573e+08,-9.28977e+08,-111888,-0.012721,0.136865,-0,0.137455,19033.7,-33830.1,0,38816.9,111888
step02_gravity_refstate-crust.xmf,2273,-4.43503e-07,5.15099e-06,0,-1.35487e-06,-8.0388e+08,-8.03496e+08,-8.03849e+08,-92944.2,-0.00153414,0.142943,-0,0.142951,22580,-29272.2,0,36969.2,92944.2
step02_gravity_refstate-crust.xmf,2274,-4.49093e-07,4.28635e-06,0,-1.08722e-06,-7.12872e+08,-7.12547e+08,-7.12841e+08,-74583.2,0.00174879,0.136856,0,0.136867,27780.1,-25957.6,0,38020.2,74583.2
step02_gravity_refstate-crust.xmf,2275,-2.9052e-07,4.98599e-06,0,-1.20731e-06,-8.07105e+08,-8.06743e+08,-8.07085e+08,-82821.4,-0.00230764,0.135675,-0,0.135695,24015.2,-29390,0,37953.9,82821.4
step02_gravity_refstate-crust.xmf,2276,6.12144e-07,6.04946e-06,0,-1.81442e-06,-9.53733e+08,-9.5336e+08,-9.53775e+08,-124469,-0.0153752,0.13546,-0,0.13633,18370.2,-34733.4,0,39292.2,124469
step02_gravity_refstate-crust.xmf,2277,8.3078e-07,6.2392e-06,0,-2.07053e-06,-9.78601e+08,-9.7823e+08,-9.78658e+08,-142039,-0.0179994,0.134028,-0,0.135231,17707.3,-35640,0,39796.5,142039
step02_gravity_refstate-crust.xmf,2278,1.01497e-06,6.48123e-06,0,-2.40446e-06,-1.00364e+09,-1.00327e+09,-1.00371e+09,-164946,-0.0204318,0.132369,-0,0.133937,17067.4,-36552.7,0,40341,164946
step02_gravity_refstate-crust.xmf,2279,1.1259e-06,6.78165e-06,0,-2.79213e-06,-1.02692e+09,-1.02653e+09,-1.02699e+09,-191540,-0.0223768,0.130821,-0,0.132721,16459.9,-37400.9,0,40862.7,191540
step02_gravity_refstate-crust.xmf,2280,1.09789e-06,8.02709e-06,0,-4.23351e-06,-1.07365e+09,-1.07318e+09,-1.07373e+09,-290419,-0.025609,0.134248,-0,0.136669,14285.8,-39104.2,0,41632,290419
step02_gravity_refstate-crust.xmf,2281,1.14408e-06,7.16569e-06,0,-3.2334e-06,-1.04994e+09,-1.04953e+09,-1.05002e+09,-221811,-0.0237846,0.128937,-0,0.131112,15886.5,-38239.9,0,41408.5,221811
step02_gravity_refstate-crust.xmf,2282,-4.22309e-07,3.91834e-06,0,-9.10393e-07,-6.72162e+08,-6.71864e+08,-6.72133e+08,-62453,0.00224231,0.134816,0,0.134835,30389.7,-24475.1,0,39020.1,62453
step02_gravity_refstate-crust.xmf,2283,-3.26308e-07,3.79762e-06,0,-7.23086e-07,-6.71952e+08,-6.7167e+08,-6.7193e+08,-49603.7,0.00155195,0.130205,0,0.130214,32262.5,-24467.7,0,40491.1,49603.7
step02_gravity_refstate-crust.xmf,2284,-3.44513e-07,3.49477e-06,0,-4.63366e-07,-6.30947e+08,-6.30683e+08,-6.30923e+08,-31786.9,0.00141715,0.130177,0,0.130185,35327,-22974.3,0,42140.4,31786.9
step02_gravity_refstate-crust.xmf,2285,-2.10459e-07,5.27339e-06,0,-1.2903e-06,-8.39749e+08,-8.39373e+08,-8.39734e+08,-88514.8,-0.00438921,0.137293,-0,0.137363,22342.5,-30579.2,0,37871.8,88514.8
step02_gravity_refstate-crust.xmf,2286,-3.40881e-07,4.50708e-06,0,-1.06628e-06,-7.5352e+08,-7.53187e+08,-7.53496e+08,-73147.1,5.30242e-05,0.133198,0,0.133198,26970.2,-27438.2,0,38474,73147.1
step02_gravity_refstate-crust.xmf,2287,-2.07045e-07,4.87331e-06,0,-1.11432e-06,-8.07417e+08,-8.07069e+08,-8.07403e+08,-76442.5,-0.00258598,0.131292,-0,0.131317,25047.2,-29401.5,0,38624,76442.5
step02_gravity_refstate-crust.xmf,2288,-1.80398e-07,4.73389e-06,0,-1.04077e-06,-7.97363e+08,-7.97026e+08,-7.97351e+08,-71396.8,-0.00216694,0.129011,-0,0.129029,26094,-29035.4,0,39037.8,71396.8
step02_gravity_refstate-crust.xmf,2289,1.05579e-06,7.66086e-06,0,-3.71873e-06,-1.07387e+09,-1.07342e+09,-1.07395e+09,-255105,-0.0244818,0.126313,-0,0.128663,15343.1,-39111.6,0,42013.4,255105
step02_gravity_refstate-crust.xmf,2290,-2.84219e-07,3.45011e-06,0,-2.18961e-07,-6.34317e+08,-6.3406e+08,-6.34297e+08,-15020.7,0.000623798,0.127326,0,0.127327,37732.7,-23097.1,0,44240.7,15020.7
step02_gravity_refstate-crust.xmf,2291,-3.53024e-07,3.32662e-06,0,-2.87267e-09,-6.08948e+08,-6.08696e+08,-6.08924e+08,-197.065,4.39982e-20,0.129702,0,0.129702,40000,-22173.1,0,45734.5,197.065
step02_gravity_refstate-crust.xmf,2292,-3.21414e-07,4.1513e-06,0,-9.15194e-07,-7.14511e+08,-7.14205e+08,-7.14489e+08,-62782.3,0.00102783,0.131224,0,0.131228,29465.3,-26017.6,0,39308.1,62782.3
step02_gravity_refstate-crust.xmf,2293,-2.35111e-07,3.70809e-06,0,-5.32712e-07,-6.73463e+08,-6.73192e+08,-6.73447e+08,-36544,0.000980921,0.126321,0,0.126325,34181.4,-24522.9,0,42068.3,36544
step02_gravity_refstate-crust.xmf,2294,6.05279e-07,5.90115e-06,0,-1.65458e-06,-9.56277e+08,-9.55913e+08,-9.56318e+08,-113504,-0.0148623,0.127945,-0,0.128806,19568.2,-34825.8,0,39946.9,113504
step02_gravity_refstate-crust.xmf,2295,-2.44575e-09,5.42662e-06,0,-1.30491e-06,-8.72674e+08,-8.72302e+08,-8.72674e+08,-89516.6,-0.00709699,0.134024,-0,0.134212,21701.2,-31779,0,38481.7,89516.6
step02_gravity_refstate-crust.xmf,2296,2.19518e-07,5.58413e-06,0,-1.37227e-06,-9.04554e+08,-9.04186e+08,-9.0457e+08,-94137.5,-0.00991865,0.131219,-0,0.131593,20988.8,-32940.7,0,39059.2,94137.5
step02_gravity_refstate-crust.xmf,2297,4.3043e-07,5.74202e-06,0,-1.49083e-06,-9.32976e+08,-9.32612e+08,-9.33006e+08,-102271,-0.0125749,0.129056,-0,0.129667,20277.6,-33976.6,0,39567.5,102271
step02_gravity_refstate-crust.xmf,2298,-8.79617e-08,5.1176e-06,0,-1.1643e-06,-8.42703e+08,-8.42346e+08,-8.42697e+08,-79871,-0.00482106,0.130511,-0,0.1306,23696.2,-30687,0,38771.2,79871
step02_gravity_refstate-crust.xmf,2299,-2.00945e-07,4.36952e-06,0,-9.07093e-07,-7.56444e+08,-7.5613e+08,-7.5643e+08,-62226.6,-0.000528031,0.127299,-0,0.127301,28604,-27545,0,39710.4,62226.6
step02_gravity_refstate-crust.xmf,2300,-2.32644e-08,4.93094e-06,0,-1.04213e-06,-8.35962e+08,-8.35622e+08,-8.3596e+08,-71490.4,-0.00444616,0.125465,-0,0.125544,25232.6,-30441.6,0,39539.5,71490.4
step02_gravity_refstate-crust.xmf,2301,7.82888e-07,6.0856e-06,0,-1.87239e-06,-9.80672e+08,-9.80308e+08,-9.80726e+08,-128446,-0.0171994,0.126412,-0,0.127576,18892.9,-35714.9,0,40404.2,128446
step02_gravity_refstate-crust.xmf,2302,9.38466e-07,6.32178e-06,0,-2.16481e-06,-1.00637e+09,-1.00601e+09,-1.00644e+09,-148506,-0.0194718,0.124519,-0,0.126033,18221.2,-36651.7,0,40931.1,148506
step02_gravity_refstate-crust.xmf,2303,1.03176e-06,6.61823e-06,0,-2.51262e-06,-1.03077e+09,-1.03038e+09,-1.03084e+09,-172366,-0.0213512,0.122765,-0,0.124607,17560.6,-37540.5,0,41444.7,172366
step02_gravity_refstate-crust.xmf,2304,1.05101e-06,6.93625e-06,0,-2.86487e-06,-1.0509e+09,-1.0505e+09,-1.05097e+09,-196530,-0.0226143,0.121488,-0,0.123575,16969.4,-38274.1,0,41867.3,196530
step02_gravity_refstate-crust.xmf,2305,9.66269e-07,7.36339e-06,0,-3.26187e-06,-1.07403e+09,-1.07359e+09,-1.0741e+09,-223764,-0.0233933,0.118895,-0,0.121175,16434.1,-39116.5,0,42428.5,223764
step02_gravity_refstate-crust.xmf,2306,-2.0909e-07,4.02162e-06,0,-7.41468e-07,-7.15287e+08,-7.14996e+08,-7.15272e+08,-50864.7,0.000511144,0.126225,0,0.126226,31305.8,-26046.1,0,40724.1,50864.7
step02_gravity_refstate-crust.xmf,2307,-1.22988e-07,3.91145e-06,0,-5.75372e-07,-7.15626e+08,-7.15349e+08,-7.15617e+08,-39470.5,0.000192952,0.122212,0,0.122212,33182.3,-26058.6,0,42191.4,39470.5
step02_gravity_refstate-crust.xmf,2308,-1.53709e-07,3.65999e-06,0,-3.42739e-07,-6.79748e+08,-6.79487e+08,-6.79738e+08,-23511.9,0.000485511,0.122798,0,0.122799,36167.2,-24752,0,43826.1,23511.9
step02_gravity_refstate-crust.xmf,2309,9.07112e-08,5.26736e-06,0,-1.18132e-06,-8.74638e+08,-8.74283e+08,-8.74644e+08,-81038.8,-0.00719503,0.127242,-0,0.127446,23063.7,-31850.6,0,39324.2,81038.8
step02_gravity_refstate-crust.xmf,2310,-6.8064e-08,4.5742e-06,0,-9.03761e-07,-7.97292e+08,-7.96974e+08,-7.97288e+08,-61998,-0.00236596,0.123353,-0,0.123376,27738.5,-29033,0,40154,61998
step02_gravity_refstate-crust.xmf,2311,7.48683e-07,5.9374e-06,0,-1.6864e-06,-9.82181e+08,-9.81825e+08,-9.82232e+08,-115687,-0.0163719,0.119491,-0,0.120607,20106.7,-35769.5,0,41033.3,115687
step02_gravity_refstate-crust.xmf,2312,-1.42668e-07,3.57196e-06,0,-1.47144e-09,-6.70818e+08,-6.70563e+08,-6.70808e+08,-100.941,7.86977e-21,0.12193,0,0.12193,40000,-24426.7,0,46868.6,100.941
step02_gravity_refstate-crust.xmf,2313,-8.53579e-08,4.23505e-06,0,-7.51734e-07,-7.58074e+08,-7.57777e+08,-7.58068e+08,-51569,-0.00084953,0.122088,-0,0.122091,30373.1,-27604.6,0,41043.1,51569
step02_gravity_refstate-crust.xmf,2314,-4.2683e-08,3.83978e-06,0,-4.12649e-07,-7.18625e+08,-7.18358e+08,-7.18622e+08,-28307.7,-2.20683e-05,0.118867,-0,0.118867,35020.4,-26168,0,43717.2,28307.7
step02_gravity_refstate-crust.xmf,2315,-5.38312e-08,3.68749e-06,0,-1.60055e-07,-6.98537e+08,-6.9828e+08,-6.98533e+08,-10979.7,8.98796e-05,0.118756,0,0.118756,38113.3,-25436.4,0,45821.8,10979.7
step02_gravity_refstate-crust.xmf,2316,6.11909e-07,5.77245e-06,0,-1.51957e-06,-9.59183e+08,-9.58829e+08,-9.59225e+08,-104243,-0.0143989,0.121425,-0,0.122276,20692,-34931.4,0,40600,104243
step02_gravity_refstate-crust.xmf,2317,2.91346e-07,5.42803e-06,0,-1.24294e-06,-9.07967e+08,-9.07614e+08,-9.07987e+08,-85265.6,-0.00984281,0.123897,-0,0.124287,22362.8,-33065,0,39917.3,85265.6
step02_gravity_refstate-crust.xmf,2318,5.11629e-07,5.6138e-06,0,-1.3693e-06,-9.43537e+08,-9.43187e+08,-9.43572e+08,-93933.8,-0.0127628,0.120211,-0,0.120887,21612.5,-34361.2,0,40593,93933.8
step02_gravity_refstate-crust.xmf,2319,1.70963e-07,5.10756e-06,0,-1.05847e-06,-8.75134e+08,-8.74795e+08,-8.75146e+08,-72610.9,-0.00703933,0.121062,-0,0.121266,24521.5,-31868.7,0,40210.9,72610.9
step02_gravity_refstate-crust.xmf,2320,4.49283e-08,4.43463e-06,0,-7.62409e-07,-7.98896e+08,-7.98595e+08,-7.98899e+08,-52301.3,-0.00245876,0.11804,-0,0.118066,29456.5,-29091.7,0,41400.6,52301.3
step02_gravity_refstate-crust.xmf,2321,8.35907e-08,4.76829e-06,0,-9.09642e-07,-8.36699e+08,-8.36378e+08,-8.36705e+08,-62401.5,-0.00444045,0.119436,-0,0.119518,26882.1,-30468.6,0,40632.3,62401.5
step02_gravity_refstate-crust.xmf,2322,8.81171e-07,6.16711e-06,0,-1.93847e-06,-1.00861e+09,-1.00824e+09,-1.00867e+09,-132979,-0.0185094,0.117298,-0,0.11875,19414.2,-36732.4,0,41547.3,132979
step02_gravity_refstate-crust.xmf,2323,9.61445e-07,6.4629e-06,0,-2.25373e-06,-1.03551e+09,-1.03513e+09,-1.03557e+09,-154606,-0.020374,0.114851,-0,0.116644,18726,-37712.6,0,42105.8,154606
step02_gravity_refstate-crust.xmf,2324,9.93244e-07,6.72487e-06,0,-2.53885e-06,-1.05155e+09,-1.05116e+09,-1.05162e+09,-174165,-0.0215329,0.114829,-0,0.11683,18046.2,-38297.2,0,42336,174165
step02_gravity_refstate-crust.xmf,2325,9.2449e-07,7.07629e-06,0,-2.84791e-06,-1.07348e+09,-1.07306e+09,-1.07354e+09,-195367,-0.0223128,0.112045,-0,0.114245,17575.9,-39095.8,0,42864.9,195367
step02_gravity_refstate-crust.xmf,2326,1.56929e-08,4.12042e-06,0,-5.98012e-07,-7.60358e+08,-7.60077e+08,-7.60359e+08,-41023.6,-0.000991327,0.117541,-0,0.117545,32214.3,-27688,0,42478.1,41023.6
step02_gravity_refstate-crust.xmf,2327,9.22775e-08,4.0277e-06,0,-4.5079e-07,-7.62085e+08,-7.61815e+08,-7.62091e+08,-30924.2,-0.000934898,0.113994,-0,0.113997,34072.5,-27751.1,0,43943.8,30924.2
step02_gravity_refstate-crust.xmf,2328,1.77956e-08,3.80875e-06,0,-2.75569e-07,-7.24652e+08,-7.24391e+08,-7.24653e+08,-18904,-0.00013526,0.116243,-0,0.116243,36623.2,-26387.6,0,45139.4,18904
step02_gravity_refstate-crust.xmf,2329,3.50979e-07,5.27674e-06,0,-1.11683e-06,-9.0976e+08,-9.09422e+08,-9.09784e+08,-76614.3,-0.00951468,0.117473,-0,0.117857,23777.6,-33130.3,0,40779.8,76614.3
step02_gravity_refstate-crust.xmf,2330,2.45265e-07,4.95083e-06,0,-9.36216e-07,-8.74797e+08,-8.74474e+08,-8.74814e+08,-64224.4,-0.00669822,0.115461,-0,0.115655,26061.6,-31856.5,0,41158.8,64224.4
step02_gravity_refstate-crust.xmf,2331,1.78925e-07,4.62121e-06,0,-7.82447e-07,-8.37521e+08,-8.37216e+08,-8.37533e+08,-53675.8,-0.00426236,0.114153,-0,0.114233,28556,-30498.7,0,41780.5,53675.8
step02_gravity_refstate-crust.xmf,2332,7.22023e-07,5.7795e-06,0,-1.50335e-06,-9.8139e+08,-9.81043e+08,-9.8144e+08,-103130,-0.0153896,0.113452,-0,0.114491,21377.8,-35740.4,0,41645.9,103130
step02_gravity_refstate-crust.xmf,2333,8.44689e-07,6.01895e-06,0,-1.73324e-06,-1.01061e+09,-1.01026e+09,-1.01067e+09,-118900,-0.0175679,0.110733,-0,0.112118,20623,-36805,0,42189.1,118900
step02_gravity_refstate-crust.xmf,2334,8.07082e-08,3.79225e-06,0,-2.54256e-09,-7.32206e+08,-7.31952e+08,-7.32212e+08,-174.419,-2.44189e-20,0.113695,-0,0.113695,40000,-26662.9,0,48071.9,174.419
step02_gravity_refstate-crust.xmf,2335,1.54688e-07,4.31899e-06,0,-6.19159e-07,-8.0359e+08,-8.03305e+08,-8.03601e+08,-42474.3,-0.00245836,0.112901,-0,0.112928,31260.9,-29262.8,0,42820,42474.3
step02_gravity_refstate-crust.xmf,2336,1.49708e-07,3.96173e-06,0,-3.09884e-07,-7.63357e+08,-7.63096e+08,-7.63367e+08,-21258.1,-0.000738299,0.111482,-0,0.111484,35884.9,-27797.5,0,45392,21258.1
step02_gravity_refstate-crust.xmf,2337,1.81957e-07,3.91258e-06,0,-1.57442e-07,-7.62991e+08,-7.62735e+08,-7.63003e+08,-10800.5,-0.0003928,0.109928,-0,0.109928,37930.3,-27784.2,0,47017.8,10800.5
step02_gravity_refstate-crust.xmf,2338,5.27544e-07,5.45261e-06,0,-1.21767e-06,-9.43227e+08,-9.42889e+08,-9.43263e+08,-83532.4,-0.0119962,0.113926,-0,0.114556,23047.5,-34349.7,0,41365.3,83532.4
step02_gravity_refstate-crust.xmf,2339,4.09511e-07,5.13059e-06,0,-9.92899e-07,-9.1124e+08,-9.10916e+08,-9.11268e+08,-68112.9,-0.00904484,0.111599,-0,0.111965,25251.8,-33184.2,0,41699.5,68112.9
step02_gravity_refstate-crust.xmf,2340,2.75552e-07,4.49874e-06,0,-6.52055e-07,-8.40742e+08,-8.40452e+08,-8.4076e+08,-44731,-0.00400692,0.109156,-0,0.10923,30280.5,-30616.1,0,43061,44731
step02_gravity_refstate-crust.xmf,2341,3.20738e-07,4.80456e-06,0,-8.1464e-07,-8.752e+08,-8.74892e+08,-8.75222e+08,-55884.3,-0.00626339,0.110239,-0,0.110417,27673.3,-31871.3,0,42208.9,55884.3
step02_gravity_refstate-crust.xmf,2342,9.08199e-07,6.75504e-06,0,-2.44009e-06,-1.06788e+09,-1.06748e+09,-1.06795e+09,-167390,-0.0211203,0.106588,-0,0.10866,18814.6,-38891.5,0,43203.5,167390
step02_gravity_refstate-crust.xmf,2343,9.13637e-07,6.31016e-06,0,-2.01787e-06,-1.03799e+09,-1.03762e+09,-1.03806e+09,-138426,-0.0194212,0.108447,-0,0.110172,19835.2,-37802.6,0,42690.5,138426
step02_gravity_refstate-crust.xmf,2344,2.43173e-07,4.2199e-06,0,-4.80528e-07,-8.07331e+08,-8.07058e+08,-8.07348e+08,-32964.2,-0.00220205,0.108723,-0,0.108745,33121.2,-29399.2,0,44286.9,32964.2
step02_gravity_refstate-crust.xmf,2345,3.04886e-07,4.14004e-06,0,-3.47284e-07,-8.08855e+08,-8.08592e+08,-8.08876e+08,-23823.7,-0.00172729,0.105788,-0,0.105802,34983.6,-29454.8,0,45732.2,23823.7
step02_gravity_refstate-crust.xmf,2346,6.80543e-07,5.62585e-06,0,-1.34384e-06,-9.74208e+08,-9.73869e+08,-9.74255e+08,-92187.2,-0.0142094,0.110115,-0,0.111029,22466.9,-35478.5,0,41993.9,92187.2
step02_gravity_refstate-crust.xmf,2347,5.67325e-07,5.31501e-06,0,-1.08481e-06,-9.46141e+08,-9.45815e+08,-9.4618e+08,-74417.9,-0.0113903,0.107797,-0,0.108397,24466.8,-34455.7,0,42259,74417.9
step02_gravity_refstate-crust.xmf,2348,4.68198e-07,4.98669e-06,0,-8.68128e-07,-9.12327e+08,-9.12017e+08,-9.12359e+08,-59553.6,-0.00841221,0.106183,-0,0.106515,26824.5,-33223.8,0,42701,59553.6
step02_gravity_refstate-crust.xmf,2349,3.93922e-07,4.67055e-06,0,-6.94913e-07,-8.75754e+08,-8.75461e+08,-8.75781e+08,-47671,-0.00569708,0.105609,-0,0.105762,29333.3,-31891.5,0,43330.3,47671
step02_gravity_refstate-crust.xmf,2350,8.17002e-07,5.86848e-06,0,-1.54575e-06,-1.00926e+09,-1.00891e+09,-1.00931e+09,-106038,-0.0165479,0.105764,-0,0.107051,21773.4,-36755.4,0,42720.5,106038
step02_gravity_refstate-crust.xmf,2351,8.83846e-07,6.15053e-06,0,-1.79089e-06,-1.03925e+09,-1.03889e+09,-1.03931e+09,-122855,-0.0184012,0.102551,-0,0.104189,21017.6,-37848.2,0,43292.3,122855
step02_gravity_refstate-crust.xmf,2352,3.08579e-07,3.99622e-06,0,-1.77759e-09,-7.93296e+08,-7.93043e+08,-7.93318e+08,-121.943,-5.0626e-20,0.10503,-0,0.10503,40000,-28888.2,0,49340.9,121.943
step02_gravity_refstate-crust.xmf,2353,4.1273e-07,4.42536e-06,0,-5.1209e-07,-8.56143e+08,-8.55868e+08,-8.56172e+08,-35129.3,-0.00389652,0.102804,-0,0.102878,32119.7,-31177.3,0,44762.7,35129.3
step02_gravity_refstate-crust.xmf,2354,3.19129e-07,4.07071e-06,0,-2.32146e-07,-8.03497e+08,-8.0324e+08,-8.03519e+08,-15925.2,-0.00112676,0.104902,-0,0.104908,36644.5,-29259.7,0,46892.9,15925.2
step02_gravity_refstate-crust.xmf,2355,7.05675e-07,5.51233e-06,0,-1.21371e-06,-9.79354e+08,-9.79024e+08,-9.79402e+08,-83260.5,-0.0136179,0.104055,-0,0.104942,23715.4,-35665.8,0,42830.7,83260.5
step02_gravity_refstate-crust.xmf,2356,6.0887e-07,5.17701e-06,0,-9.52048e-07,-9.48303e+08,-9.4799e+08,-9.48345e+08,-65310.5,-0.0106136,0.102196,-0,0.102746,25975.1,-34534.4,0,43212.6,65310.5
step02_gravity_refstate-crust.xmf,2357,4.53704e-07,4.56533e-06,0,-5.8917e-07,-8.767e+08,-8.76418e+08,-8.76732e+08,-40417.1,-0.00509187,0.101938,-0,0.102065,30855.1,-31926.1,0,44399.4,40417.1
step02_gravity_refstate-crust.xmf,2358,5.25282e-07,4.85024e-06,0,-7.45224e-07,-9.13054e+08,-9.12757e+08,-9.1309e+08,-51122.4,-0.00763,0.101369,-0,0.101656,28465.3,-33250.3,0,43770.5,51122.4
step02_gravity_refstate-crust.xmf,2359,8.79448e-07,6.50805e-06,0,-2.08885e-06,-1.06851e+09,-1.06812e+09,-1.06857e+09,-143295,-0.0198764,0.0994887,-0,0.101455,20216.4,-38913.7,0,43851.8,143295
step02_gravity_refstate-crust.xmf,2360,4.22487e-07,4.11312e-06,0,-1.23692e-07,-8.26162e+08,-8.25909e+08,-8.26191e+08,-8485.28,-0.000776716,0.100573,-0,0.100576,38180.1,-30085.3,0,48609.1,8485.28
step02_gravity_refstate-crust.xmf,2361,4.60673e-07,4.32022e-06,0,-3.8259e-07,-8.54902e+08,-8.54637e+08,-8.54934e+08,-26245.7,-0.00300688,0.09984,-0,0.0998853,34093.5,-31132.1,0,46169,26245.7
step02_gravity_refstate-crust.xmf,2362,5.11656e-07,4.24787e-06,0,-2.39396e-07,-8.56124e+08,-8.55868e+08,-8.56159e+08,-16422.6,-0.00198494,0.0972632,-0,0.0972834,36243.4,-31176.7,0,47807.6,16422.6
step02_gravity_refstate-crust.xmf,2363,8.07978e-07,5.73506e-06,0,-1.37933e-06,-1.01022e+09,-1.00988e+09,-1.01028e+09,-94621.9,-0.0156227,0.10064,-0,0.101845,22962.8,-36790.3,0,43368.4,94621.9
step02_gravity_refstate-crust.xmf,2364,7.33615e-07,5.38662e-06,0,-1.07182e-06,-9.83525e+08,-9.83206e+08,-9.83576e+08,-73527.1,-0.012797,0.0982032,-0,0.0990335,25125.2,-35817.5,0,43751.2,73527.1
step02_gravity_refstate-crust.xmf,2365,6.55814e-07,5.04255e-06,0,-8.20146e-07,-9.50564e+08,-9.50263e+08,-9.50609e+08,-56262,-0.00969635,0.0969871,-0,0.0974706,27582.6,-34616.7,0,44261.9,56262
step02_gravity_refstate-crust.xmf,2366,5.77121e-07,4.722e-06,0,-6.26807e-07,-9.11953e+08,-9.11668e+08,-9.11992e+08,-42999,-0.00667861,0.0975534,-0,0.0977817,30123.4,-33210.2,0,44836.8,42999
step02_gravity_refstate-crust.xmf,2367,8.6887e-07,5.99816e-06,0,-1.58833e-06,-1.03987e+09,-1.03951e+09,-1.03993e+09,-108960,-0.0173912,0.0973889,-0,0.0989296,22192.2,-37870.2,0,43893.6,108960
step02_gravity_refstate-crust.xmf,2368,8.71255e-07,6.31112e-06,0,-1.82206e-06,-1.06918e+09,-1.06881e+09,-1.06924e+09,-124994,-0.0187901,0.0937962,-0,0.0956598,21471,-38937.9,0,44465.3,124994
step02_gravity_refstate-crust.xmf,2369,5.33908e-07,4.18893e-06,0,-1.70649e-09,-8.54269e+08,-8.54019e+08,-8.54306e+08,-117.065,-7.72081e-20,0.09594,-0,0.09594,40000,-31109.2,0,50673.3,117.065
step02_gravity_refstate-crust.xmf,2370,6.08444e-07,4.60432e-06,0,-5.15925e-07,-9.08014e+08,-9.0774e+08,-9.08056e+08,-35392.4,-0.00559199,0.0949256,-0,0.0950901,31762.3,-33066.8,0,45850.3,35392.4
step02_gravity_refstate-crust.xmf,2371,6.32238e-07,4.49999e-06,0,-4.07074e-07,-9.03225e+08,-9.02959e+08,-9.03268e+08,-27925.3,-0.00444741,0.093012,-0,0.0931183,33425.2,-32892.3,0,46895.1,27925.3
step02_gravity_refstate-crust.xmf,2372,8.3059e-07,5.63441e-06,0,-1.23596e-06,-1.01864e+09,-1.01831e+09,-1.01869e+09,-84787.2,-0.0149041,0.0941584,-0,0.0953307,24245,-37096.6,0,44316.8,84787.2
step02_gravity_refstate-crust.xmf,2373,7.67913e-07,5.25246e-06,0,-9.25634e-07,-9.86878e+08,-9.8657e+08,-9.86931e+08,-63498.5,-0.0117611,0.0927088,-0,0.0934518,26685,-35939.5,0,44763.2,63498.5
step02_gravity_refstate-crust.xmf,2374,7.03829e-07,4.91613e-06,0,-6.91525e-07,-9.52571e+08,-9.52282e+08,-9.5262e+08,-47438.6,-0.00863114,0.0923777,-0,0.0927801,29259.3,-34689.8,0,45381.6,47438.6
step02_gravity_refstate-crust.xmf,2375,6.37959e-07,4.29929e-06,0,-1.12552e-07,-8.85631e+08,-8.8538e+08,-8.85675e+08,-7721.04,-0.00115186,0.0914528,-0,0.09146,38201.5,-32251.5,0,49995.1,7721.04
step02_gravity_refstate-crust.xmf,2376,6.36436e-07,4.41221e-06,0,-3.05365e-07,-8.96323e+08,-8.96064e+08,-8.96367e+08,-20948.1,-0.00329918,0.0921058,-0,0.0921649,35029.6,-32641,0,47880.1,20948.1
step02_gravity_refstate-crust.xmf,2377,8.72647e-07,5.84162e-06,0,-1.39734e-06,-1.03971e+09,-1.03937e+09,-1.03977e+09,-95857.2,-0.0163333,0.0927492,-0,0.0941764,23404.9,-37864.1,0,44513.8,95857.2
step02_gravity_refstate-crust.xmf,2378,8.48546e-07,5.48919e-06,0,-1.06573e-06,-1.0211e+09,-1.02078e+09,-1.02116e+09,-73108.9,-0.0137422,0.0888411,-0,0.0898977,25728.8,-37186,0,45219.2,73108.9
step02_gravity_refstate-crust.xmf,2379,8.1196e-07,5.12963e-06,0,-7.84855e-07,-9.91516e+08,-9.9122e+08,-9.91572e+08,-53841.1,-0.0106293,0.087488,-0,0.0881313,28320,-36108.4,0,45889.4,53841.1
step02_gravity_refstate-crust.xmf,2380,7.55631e-07,4.79888e-06,0,-5.67018e-07,-9.53702e+08,-9.53425e+08,-9.53754e+08,-38897.5,-0.00741485,0.0885489,-0,0.0888588,30982.8,-34731,0,46542.2,38897.5
step02_gravity_refstate-crust.xmf,2381,8.77025e-07,6.10649e-06,0,-1.57221e-06,-1.06807e+09,-1.06772e+09,-1.06814e+09,-107854,-0.0176016,0.0887909,-0,0.0905187,22804.8,-38897.3,0,45089.5,107854
step02_gravity_refstate-crust.xmf,2382,7.44761e-07,4.38044e-06,0,-1.46651e-09,-9.15236e+08,-9.14986e+08,-9.15287e+08,-100.603,-9.8063e-20,0.0864246,-0,0.0864246,40000,-33329.9,0,52066.1,100.603
step02_gravity_refstate-crust.xmf,2383,7.90889e-07,4.69193e-06,0,-4.45368e-07,-9.52783e+08,-9.52515e+08,-9.52837e+08,-30552.3,-0.00602481,0.0856785,-0,0.08589,32768.2,-34697.5,0,47724.9,30552.3
step02_gravity_refstate-crust.xmf,2384,8.16539e-07,4.59665e-06,0,-3.1445e-07,-9.51188e+08,-9.50928e+08,-9.51244e+08,-21571.3,-0.0043893,0.0833745,-0,0.0834899,34778.1,-34639.4,0,49085.7,21571.3
step02_gravity_refstate-crust.xmf,2385,7.32466e-07,4.42995e-06,0,-2.04987e-07,-9.17311e+08,-9.17057e+08,-9.17361e+08,-14062.1,-0.00253028,0.0873184,-0,0.0873551,36590.6,-33405.4,0,49545.9,14062.1
step02_gravity_refstate-crust.xmf,2386,9.05618e-07,5.84275e-06,0,-1.31203e-06,-1.05976e+09,-1.05942e+09,-1.05982e+09,-90005.2,-0.0160331,0.0851463,-0,0.0866426,24369.1,-38594.4,0,45644,90005.2
step02_gravity_refstate-crust.xmf,2387,8.86272e-07,5.36448e-06,0,-9.07439e-07,-1.02759e+09,-1.02729e+09,-1.02766e+09,-62250.3,-0.0125449,0.0830688,-0,0.0840108,27333.6,-37422.5,0,46341.9,62250.3
step02_gravity_refstate-crust.xmf,2388,8.6193e-07,5.02182e-06,0,-6.51838e-07,-9.97393e+08,-9.97107e+08,-9.97452e+08,-44716.1,-0.00938389,0.0826413,-0,0.0831724,30010,-36322.3,0,47115.9,44716.1
step02_gravity_refstate-crust.xmf,2389,8.40096e-07,4.49363e-06,0,-1.04036e-07,-9.47062e+08,-9.46811e+08,-9.4712e+08,-7136.89,-0.00144892,0.081587,-0,0.0815998,38276.6,-34489.1,0,51522.7,7136.89
step02_gravity_refstate-crust.xmf,2390,9.17356e-07,5.66299e-06,0,-1.08839e-06,-1.06241e+09,-1.06208e+09,-1.06247e+09,-74663.3,-0.0145346,0.0794013,-0,0.0807207,26092.3,-38690.4,0,46666.5,74663.3
step02_gravity_refstate-crust.xmf,2391,9.27659e-07,5.26094e-06,0,-7.69954e-07,-1.03419e+09,-1.03389e+09,-1.03425e+09,-52818.8,-0.0113429,0.0782049,-0,0.0790232,28843.7,-37662.5,0,47438.6,52818.8
step02_gravity_refstate-crust.xmf,2392,9.18998e-07,4.91278e-06,0,-5.1534e-07,-1.00179e+09,-1.00152e+09,-1.00185e+09,-35352.3,-0.00784134,0.0784992,-0,0.0788898,31866.3,-36482.6,0,48440,35352.3
step02_gravity_refstate-crust.xmf,2393,9.29476e-07,4.57875e-06,0,-1.38813e-09,-9.76205e+08,-9.75955e+08,-9.76269e+08,-95.2259,-1.14217e-19,0.0764764,-0,0.0764764,40000,-35550.6,0,53514.9,95.2259
step02_gravity_refstate-crust.xmf,2394,9.50171e-07,4.81811e-06,0,-3.89806e-07,-1.00241e+09,-1.00215e+09,-1.00248e+09,-26740.7,-0.00617241,0.0758446,-0,0.0760954,33681.1,-36505.2,0,49669.3,26740.7
step02_gravity_refstate-crust.xmf,2395,9.21619e-07,4.63088e-06,0,-1.98142e-07,-9.79147e+08,-9.78892e+08,-9.7921e+08,-13592.6,-0.00310297,0.0770675,-0,0.0771299,36659.9,-35657.7,0,51141.2,13592.6
step02_gravity_refstate-crust.xmf,2396,9.52066e-07,5.52105e-06,0,-9.18146e-07,-1.06611e+09,-1.0658e+09,-1.06618e+09,-62984.8,-0.0131622,0.0746772,-0,0.0758283,27640.6,-38825.3,0,47659.3,62984.8
step02_gravity_refstate-crust.xmf,2397,1.00267e-06,5.18639e-06,0,-6.28146e-07,-1.05054e+09,-1.05025e+09,-1.05061e+09,-43090.8,-0.00994651,0.0715706,-0,0.0722584,30644.4,-38258,0,49017.9,43090.8
step02_gravity_refstate-crust.xmf,2398,1.00637e-06,4.69409e-06,0,-1.00673e-07,-1.00703e+09,-1.00677e+09,-1.0071e+09,-6906.15,-0.00167199,0.0715331,-0,0.0715526,38336.3,-36673.2,0,53052.7,6906.15
step02_gravity_refstate-crust.xmf,2399,9.79414e-07,4.76394e-06,0,-2.84214e-07,-1.00601e+09,-1.00575e+09,-1.00608e+09,-19497.1,-0.00468208,0.0735295,-0,0.0736784,35287.4,-36636.1,0,50866.5,19497.1
step02_gravity_refstate-crust.xmf,2400,9.94508e-07,5.40454e-06,0,-7.75956e-07,-1.07072e+09,-1.07041e+09,-1.07078e+09,-53230.6,-0.0118357,0.0705893,-0,0.0715747,29091.7,-38992.8,0,48649.5,53230.6
step02_gravity_refstate-crust.xmf,2401,1.04092e-06,5.05023e-06,0,-4.67348e-07,-1.05039e+09,-1.05011e+09,-1.05046e+09,-32060.1,-0.00784118,0.0684387,-0,0.0688864,32720.8,-38252.4,0,50337.8,32060.1
step02_gravity_refstate-crust.xmf,2402,1.07642e-06,4.79185e-06,0,-8.46008e-10,-1.0372e+09,-1.03695e+09,-1.03728e+09,-58.0362,-1.20738e-19,0.0660687,-0,0.0660687,40000,-37772.2,0,55015.8,58.0362
step02_gravity_refstate-crust.xmf,2403,1.07139e-06,4.95473e-06,0,-3.33455e-07,-1.05083e+09,-1.05056e+09,-1.0509e+09,-22875,-0.00583447,0.0661894,-0,0.0664461,34640.7,-38268.5,0,51618.4,22875
step02_gravity_refstate-crust.xmf,2404,1.08129e-06,4.85423e-06,0,-2.00764e-07,-1.04319e+09,-1.04293e+09,-1.04327e+09,-13772.4,-0.00357791,0.0659827,-0,0.0660796,36692.6,-37990.4,0,52816.8,13772.4
step02_gravity_refstate-crust.xmf,2405,1.11334e-06,4.86497e-06,0,-9.26578e-08,-1.05518e+09,-1.05493e+09,-1.05526e+09,-6356.33,-0.00173639,0.0631186,-0,0.0631425,38434.4,-38427.1,0,54349.3,6356.33
