Block Name,Point ID,cauchy_strain_0,cauchy_strain_1,cauchy_strain_2,cauchy_strain_3,cauchy_stress_0,cauchy_stress_1,cauchy_stress_2,cauchy_stress_3,displacement_0,displacement_1,displacement_2,displacement_Magnitude,Points_0,Points_1,Points_2,Points_Magnitude,stress_xy
step02_gravity_refstate-mantle.xmf,0,2.23573e-06,3.72802e-06,0,3.72516e-07,-1.68979e+09,-1.68959e+09,-1.69009e+09,49786.8,-0.0435189,0.00642469,-0,0.0439906,15309.7,-58282.6,0,60259.9,49786.8
step02_gravity_refstate-mantle.xmf,1,2.30215e-06,3.46853e-06,0,2.07796e-07,-1.71388e+09,-1.71372e+09,-1.71419e+09,27771.9,-0.0421645,0.00339517,-0,0.042301,16223.2,-59026.5,0,61215.3,27771.9
step02_gravity_refstate-mantle.xmf,2,2.33447e-06,3.8033e-06,0,1.77494e-07,-1.72008e+09,-1.71989e+09,-1.7204e+09,23722.1,-0.0449216,0.00298611,-0,0.0450207,15085.7,-59219.2,0,61110.5,23722.1
step02_gravity_refstate-mantle.xmf,3,2.34912e-06,3.65386e-06,0,-3.13745e-09,-1.74537e+09,-1.74519e+09,-1.74568e+09,-419.32,-0.0438073,-2.85357e-19,-0,0.0438073,15660.2,-60000,0,62010,419.32
step02_gravity_refstate-mantle.xmf,4,2.30931e-06,3.36202e-06,0,3.537e-09,-1.7454e+09,-1.74526e+09,-1.74571e+09,472.72,-0.0411625,-2.88756e-20,-0,0.0411625,16795.3,-60000,0,62306.4,472.72
step02_gravity_refstate-mantle.xmf,5,1.51861e-06,2.25641e-06,0,-6.88043e-10,-1.74566e+09,-1.74557e+09,-1.74587e+09,-91.9569,-0.00647055,2.09023e-19,-0,0.00647055,35643.8,-60000,0,69788.8,91.9569
step02_gravity_refstate-mantle.xmf,6,1.49174e-06,2.25174e-06,0,-2.30294e-10,-1.74567e+09,-1.74557e+09,-1.74587e+09,-30.7788,-0.00329693,1.09123e-18,-0,0.00329693,37768.5,-60000,0,70897.5,30.7788
step02_gravity_refstate-mantle.xmf,7,1.47993e-06,2.17944e-06,0,3.44261e-08,-1.68992e+09,-1.68982e+09,-1.69012e+09,4601.05,-0.00475108,0.00381697,-0,0.00609443,36749.1,-58277.5,0,68896.8,4601.05
step02_gravity_refstate-mantle.xmf,8,2.25947e-06,3.20069e-06,0,1.61898e-07,-1.72018e+09,-1.72006e+09,-1.72048e+09,21637.7,-0.0395501,0.00250976,-0,0.0396297,17418.3,-59220.2,0,61728.7,21637.7
step02_gravity_refstate-mantle.xmf,9,2.16585e-06,3.47331e-06,0,4.3818e-07,-1.67708e+09,-1.67691e+09,-1.67737e+09,58562.7,-0.040988,0.00734623,-0,0.0416411,16216.7,-57889,0,60117.6,58562.7
step02_gravity_refstate-mantle.xmf,10,2.2634e-06,3.12327e-06,0,1.13787e-09,-1.74543e+09,-1.74532e+09,-1.74573e+09,152.076,-0.0384496,1.63076e-19,-0,0.0384496,17984.9,-60000,0,62637.5,152.076
step02_gravity_refstate-mantle.xmf,11,2.19634e-06,2.92781e-06,0,9.71007e-10,-1.74546e+09,-1.74536e+09,-1.74576e+09,129.775,-0.0356841,7.72961e-19,-0,0.0356841,19232,-60000,0,63006.9,129.775
step02_gravity_refstate-mantle.xmf,12,2.20592e-06,2.98592e-06,0,1.80001e-07,-1.71454e+09,-1.71443e+09,-1.71483e+09,24057.1,-0.0368338,0.00287128,-0,0.0369455,18599.8,-59044.9,0,61905.2,24057.1
step02_gravity_refstate-mantle.xmf,13,2.14138e-06,4.03633e-06,0,4.99761e-07,-1.67074e+09,-1.67049e+09,-1.67103e+09,66793,-0.0444942,0.00931887,-0,0.0454596,14441.5,-57694.3,0,59474.3,66793
step02_gravity_refstate-mantle.xmf,14,2.26768e-06,3.99372e-06,0,3.30202e-07,-1.69744e+09,-1.69721e+09,-1.69774e+09,44131.6,-0.0456078,0.00594924,-0,0.0459942,14513.2,-58519.8,0,60292.6,44131.6
step02_gravity_refstate-mantle.xmf,15,1.48254e-06,2.24667e-06,0,-1.62329e-09,-1.74567e+09,-1.74557e+09,-1.74587e+09,-216.953,3.03287e-20,2.96121e-19,0,2.9767e-19,40000,-60000,0,72111,216.953
step02_gravity_refstate-mantle.xmf,16,1.46334e-06,2.18198e-06,0,1.41675e-08,-1.69423e+09,-1.69413e+09,-1.69442e+09,1893.49,-0.0023261,0.0035209,-0,0.00421989,38406.3,-58410.5,0,69905.9,1893.49
step02_gravity_refstate-mantle.xmf,17,1.55588e-06,2.26723e-06,0,1.43335e-09,-1.74566e+09,-1.74556e+09,-1.74586e+09,191.567,-0.00955742,8.76832e-19,-0,0.00955742,33620.7,-60000,0,68777.5,191.567
step02_gravity_refstate-mantle.xmf,18,1.50238e-06,2.17614e-06,0,6.65873e-08,-1.68007e+09,-1.67998e+09,-1.68027e+09,8899.39,-0.00787866,0.00449648,-0,0.00907147,34618.2,-57973.6,0,67523,8899.39
step02_gravity_refstate-mantle.xmf,19,2.06127e-06,3.73878e-06,0,5.63355e-07,-1.65785e+09,-1.65762e+09,-1.65812e+09,75292.3,-0.0418309,0.0100876,-0,0.04303,15345.5,-57294.8,0,59314.3,75292.3
step02_gravity_refstate-mantle.xmf,20,2.20529e-06,3.28e-06,0,3.35238e-07,-1.69231e+09,-1.69217e+09,-1.69261e+09,44804.6,-0.0398253,0.00540407,-0,0.0401903,17009.4,-58359.2,0,60787.4,44804.6
step02_gravity_refstate-mantle.xmf,21,1.60312e-06,2.28507e-06,0,4.54934e-10,-1.74564e+09,-1.74555e+09,-1.74586e+09,60.8019,-0.0125775,2.0015e-19,-0,0.0125775,31694.1,-60000,0,67856.6,60.8019
step02_gravity_refstate-mantle.xmf,22,1.55101e-06,2.21066e-06,0,7.09283e-08,-1.69508e+09,-1.69499e+09,-1.69529e+09,9479.57,-0.0111645,0.00350503,-0,0.0117018,32507.1,-58437.6,0,66870.5,9479.57
step02_gravity_refstate-mantle.xmf,23,2.11926e-06,2.76933e-06,0,2.45444e-10,-1.74549e+09,-1.7454e+09,-1.74577e+09,32.8036,-0.0328792,1.54249e-19,-0,0.0328792,20539.9,-60000,0,63418.4,32.8036
step02_gravity_refstate-mantle.xmf,24,2.13286e-06,2.80621e-06,0,1.83317e-07,-1.71083e+09,-1.71074e+09,-1.71111e+09,24500.3,-0.0340539,0.00302883,-0,0.0341884,19863.3,-58929.5,0,62187.1,24500.3
step02_gravity_refstate-mantle.xmf,25,2.03754e-06,2.64143e-06,0,1.82909e-10,-1.74552e+09,-1.74544e+09,-1.74579e+09,24.4458,-0.0300447,8.00698e-19,-0,0.0300447,21911.9,-60000,0,63875.9,24.4458
step02_gravity_refstate-mantle.xmf,26,2.05573e-06,2.66369e-06,0,1.61038e-07,-1.7111e+09,-1.71101e+09,-1.71137e+09,21522.7,-0.0312866,0.00285568,-0,0.0314166,21195,-58936.8,0,62632,21522.7
step02_gravity_refstate-mantle.xmf,27,1.95785e-06,2.53864e-06,0,2.27403e-09,-1.74555e+09,-1.74547e+09,-1.74581e+09,303.925,-0.0271876,2.12939e-19,-0,0.0271876,23351.3,-60000,0,64383.9,303.925
step02_gravity_refstate-mantle.xmf,28,1.97674e-06,2.55013e-06,0,1.43894e-07,-1.71139e+09,-1.71131e+09,-1.71165e+09,19231.5,-0.0285117,0.00271205,-0,0.0286404,22580.6,-58945,0,63122.1,19231.5
step02_gravity_refstate-mantle.xmf,29,1.87946e-06,2.45632e-06,0,-7.89873e-11,-1.74557e+09,-1.74549e+09,-1.74582e+09,-10.5566,-0.0243083,1.03994e-18,-0,0.0243083,24862,-60000,0,64947,10.5566
step02_gravity_refstate-mantle.xmf,30,1.8879e-06,2.44738e-06,0,1.7497e-07,-1.6985e+09,-1.69842e+09,-1.69875e+09,23384.8,-0.0256943,0.00360002,-0,0.0259452,23963.6,-58545.9,0,63260.4,23384.8
step02_gravity_refstate-mantle.xmf,31,1.98027e-06,4.39665e-06,0,5.90217e-07,-1.65271e+09,-1.65239e+09,-1.65298e+09,78882.5,-0.0450122,0.0125896,-0,0.0467396,13599.4,-57137.3,0,58733.4,78882.5
step02_gravity_refstate-mantle.xmf,32,2.1952e-06,4.39516e-06,0,3.80725e-07,-1.68794e+09,-1.68765e+09,-1.68824e+09,50883.9,-0.047341,0.00784548,-0,0.0479867,13552.7,-58227,0,59783.4,50883.9
step02_gravity_refstate-mantle.xmf,33,2.32458e-06,4.19243e-06,0,1.84369e-07,-1.71899e+09,-1.71874e+09,-1.7193e+09,24640.9,-0.0473263,0.00343077,-0,0.0474505,14043.8,-59186.4,0,60829.8,24640.9
step02_gravity_refstate-mantle.xmf,34,2.36157e-06,4.01293e-06,0,-3.69896e-09,-1.74534e+09,-1.74512e+09,-1.74565e+09,-494.366,-0.0463591,-3.27344e-19,-0,0.0463591,14576.4,-60000,0,61745.2,494.366
step02_gravity_refstate-mantle.xmf,35,1.44746e-06,2.15548e-06,0,-4.77454e-10,-1.67393e+09,-1.67384e+09,-1.67413e+09,-63.8118,3.4578e-20,0.00488108,0,0.00488108,40000,-57783.5,0,70277.5,63.8118
step02_gravity_refstate-mantle.xmf,36,1.41311e-06,2.12497e-06,0,4.01006e-08,-1.63417e+09,-1.63408e+09,-1.63436e+09,5359.44,-0.0028134,0.00751805,-0,0.00802722,37992.1,-56555,0,68131.2,5359.44
step02_gravity_refstate-mantle.xmf,37,1.42823e-06,2.1375e-06,0,7.83134e-08,-1.63971e+09,-1.63961e+09,-1.6399e+09,10466.6,-0.00556398,0.00717094,-0,0.00907635,36065.8,-56726.1,0,67220.5,10466.6
step02_gravity_refstate-mantle.xmf,38,1.91461e-06,4.06232e-06,0,6.72785e-07,-1.6392e+09,-1.63891e+09,-1.63945e+09,89917.7,-0.0422727,0.0132435,-0,0.0442987,14466.8,-56718.5,0,58534.4,89917.7
step02_gravity_refstate-mantle.xmf,39,2.1499e-06,3.09308e-06,0,3.4929e-07,-1.6867e+09,-1.68657e+09,-1.68699e+09,46682.6,-0.0376171,0.0056402,-0,0.0380376,17940.8,-58184.9,0,60888.1,46682.6
step02_gravity_refstate-mantle.xmf,40,2.07147e-06,3.26302e-06,0,5.00399e-07,-1.66244e+09,-1.66228e+09,-1.66272e+09,66878.4,-0.0383246,0.0083594,-0,0.0392257,17155.8,-57435.5,0,59942.9,66878.4
step02_gravity_refstate-mantle.xmf,41,1.96682e-06,3.49258e-06,0,6.21339e-07,-1.64332e+09,-1.64312e+09,-1.64359e+09,83041.9,-0.0390334,0.0109369,-0,0.0405367,16284.7,-56844.8,0,59131.4,83041.9
step02_gravity_refstate-mantle.xmf,42,1.80054e-06,2.39369e-06,0,4.76317e-10,-1.74559e+09,-1.74551e+09,-1.74583e+09,63.6597,-0.021412,1.80632e-19,-0,0.021412,26447.5,-60000,0,65570.4,63.6597
step02_gravity_refstate-mantle.xmf,43,1.80432e-06,2.37333e-06,0,1.37147e-07,-1.70332e+09,-1.70324e+09,-1.70356e+09,18329.7,-0.0227119,0.00313319,-0,0.022927,25612.7,-58694.1,0,64039.1,18329.7
step02_gravity_refstate-mantle.xmf,44,1.72831e-06,2.3454e-06,0,5.23751e-10,-1.74561e+09,-1.74553e+09,-1.74584e+09,69.9993,-0.0184949,1.93098e-19,-0,0.0184949,28111.9,-60000,0,66259.2,69.9993
step02_gravity_refstate-mantle.xmf,45,1.74231e-06,2.31244e-06,0,1.2171e-07,-1.70124e+09,-1.70116e+09,-1.70147e+09,16266.6,-0.0198207,0.00320953,-0,0.0200789,27237,-58629.4,0,64647.1,16266.6
step02_gravity_refstate-mantle.xmf,46,1.66165e-06,2.31018e-06,0,1.66349e-10,-1.74563e+09,-1.74554e+09,-1.74585e+09,22.2325,-0.0155526,9.44626e-19,-0,0.0155526,29859.4,-60000,0,67019.3,22.2325
step02_gravity_refstate-mantle.xmf,47,1.61189e-06,2.23408e-06,0,8.81076e-08,-1.69768e+09,-1.6976e+09,-1.6979e+09,11775.6,-0.013977,0.00335706,-0,0.0143745,30732,-58518.4,0,66097.4,11775.6
step02_gravity_refstate-mantle.xmf,48,1.6727e-06,2.26411e-06,0,1.09313e-07,-1.6978e+09,-1.69772e+09,-1.69803e+09,14609.7,-0.0168273,0.00339231,-0,0.0171658,28985.7,-58522.6,0,65307.5,14609.7
step02_gravity_refstate-mantle.xmf,49,2.0888e-06,2.90258e-06,0,3.6459e-07,-1.67877e+09,-1.67867e+09,-1.67905e+09,48727.4,-0.0349011,0.00601392,-0,0.0354155,19107.9,-57939.2,0,61008.7,48727.4
step02_gravity_refstate-mantle.xmf,50,1.98308e-06,4.82901e-06,0,4.81069e-07,-1.66403e+09,-1.66365e+09,-1.6643e+09,64294.9,-0.047623,0.012204,-0,0.0491618,12713.8,-57488.1,0,58877.2,64294.9
step02_gravity_refstate-mantle.xmf,51,1.47901e-06,2.1582e-06,0,1.43347e-07,-1.63715e+09,-1.63706e+09,-1.63735e+09,19158.4,-0.0100515,0.0074042,-0,0.0124842,32955.9,-56647.6,0,65536.5,19158.4
step02_gravity_refstate-mantle.xmf,52,1.40695e-06,2.12928e-06,0,1.31629e-07,-1.61054e+09,-1.61045e+09,-1.61073e+09,17592.2,-0.00742333,0.00912179,-0,0.0117607,34610.4,-55825.1,0,65683.5,17592.2
step02_gravity_refstate-mantle.xmf,53,1.80473e-06,3.78223e-06,0,7.29323e-07,-1.62429e+09,-1.62403e+09,-1.62453e+09,97474,-0.0393772,0.0139543,-0,0.0417766,15382,-56256.7,0,58321.7,97474
step02_gravity_refstate-mantle.xmf,54,1.74421e-06,4.80104e-06,0,6.45469e-07,-1.63395e+09,-1.63354e+09,-1.63418e+09,86266.9,-0.0448667,0.0165546,-0,0.0478234,12792.4,-56557.2,0,57985.9,86266.9
step02_gravity_refstate-mantle.xmf,55,1.69503e-06,4.42109e-06,0,7.41813e-07,-1.62117e+09,-1.6208e+09,-1.62139e+09,99143.3,-0.0421489,0.0168294,-0,0.0453846,13641.6,-56161,0,57794,99143.3
step02_gravity_refstate-mantle.xmf,56,1.53291e-06,2.18861e-06,0,1.47711e-07,-1.65514e+09,-1.65506e+09,-1.65535e+09,19741.6,-0.0123917,0.00624133,-0,0.0138748,31518.7,-57203.8,0,65312.3,19741.6
step02_gravity_refstate-mantle.xmf,57,1.98332e-06,2.72347e-06,0,3.66526e-07,-1.66964e+09,-1.66954e+09,-1.6699e+09,48986.2,-0.0317836,0.0064263,-0,0.0324267,20505.4,-57655.8,0,61193.7,48986.2
step02_gravity_refstate-mantle.xmf,58,1.95163e-06,2.60089e-06,0,2.88293e-07,-1.68009e+09,-1.68e+09,-1.68035e+09,38530.3,-0.0295784,0.00529995,-0,0.0300495,21767.1,-57978.1,0,61929.5,38530.3
step02_gravity_refstate-mantle.xmf,59,1.89704e-06,2.51559e-06,0,2.94094e-07,-1.67279e+09,-1.67271e+09,-1.67305e+09,39305.7,-0.0275054,0.00571299,-0,0.0280925,22759,-57752.2,0,62074.9,39305.7
step02_gravity_refstate-mantle.xmf,60,1.771e-06,2.38212e-06,0,2.85129e-07,-1.65925e+09,-1.65916e+09,-1.65948e+09,38107.5,-0.0233523,0.00643554,-0,0.0242228,24870.1,-57332.5,0,62494.3,38107.5
step02_gravity_refstate-mantle.xmf,61,1.71348e-06,2.32233e-06,0,2.4538e-07,-1.66258e+09,-1.66249e+09,-1.6628e+09,32795,-0.0210375,0.00604273,-0,0.0218881,26238.6,-57434.9,0,63144.5,32795
step02_gravity_refstate-mantle.xmf,62,2.13467e-06,4.9568e-06,0,3.06335e-07,-1.69366e+09,-1.69328e+09,-1.69394e+09,40941.7,-0.0498843,0.00796869,-0,0.0505167,12508.2,-58404.5,0,59728.9,40941.7
step02_gravity_refstate-mantle.xmf,63,2.27208e-06,4.66704e-06,0,1.75752e-07,-1.71834e+09,-1.71802e+09,-1.71864e+09,23489.3,-0.0495957,0.00390988,-0,0.0497496,13050,-59167.2,0,60589.2,23489.3
step02_gravity_refstate-mantle.xmf,64,2.33499e-06,4.45331e-06,0,-3.10634e-09,-1.74531e+09,-1.74502e+09,-1.74562e+09,-415.162,-0.0487899,-3.72527e-19,-0,0.0487899,13541.2,-60000,0,61509.1,415.162
step02_gravity_refstate-mantle.xmf,65,1.35618e-06,2.10416e-06,0,9.45227e-12,-1.6024e+09,-1.6023e+09,-1.60258e+09,1.2633,2.38649e-20,0.00959048,0,0.00959048,40000,-55573.1,0,68471.7,1.2633
step02_gravity_refstate-mantle.xmf,66,1.32791e-06,2.10856e-06,0,1.06267e-07,-1.58126e+09,-1.58116e+09,-1.58144e+09,14202.5,-0.00488976,0.0110004,-0,0.0120382,36293.4,-54919.9,0,65828.6,14202.5
step02_gravity_refstate-mantle.xmf,67,1.60942e-06,4.11175e-06,0,8.09867e-07,-1.60672e+09,-1.60639e+09,-1.60694e+09,108239,-0.0392921,0.0172898,-0,0.042928,14509.8,-55713.5,0,57571.9,108239
step02_gravity_refstate-mantle.xmf,68,1.75046e-06,5.2632e-06,0,5.02718e-07,-1.64639e+09,-1.64592e+09,-1.64662e+09,67188.2,-0.0475057,0.016259,-0,0.050211,11973.2,-56942.6,0,58187.8,67188.2
step02_gravity_refstate-mantle.xmf,69,1.98975e-06,3.06839e-06,0,5.22401e-07,-1.65176e+09,-1.65162e+09,-1.65203e+09,69818.9,-0.035695,0.00886074,-0,0.0367783,18198.7,-57104.7,0,59934.4,69818.9
step02_gravity_refstate-mantle.xmf,70,1.8661e-06,3.28456e-06,0,6.58233e-07,-1.62888e+09,-1.62869e+09,-1.62913e+09,87972.9,-0.0362339,0.0116865,-0,0.0380719,17264.2,-56397.5,0,58980.7,87972.9
step02_gravity_refstate-mantle.xmf,71,1.69753e-06,3.5502e-06,0,7.69116e-07,-1.60872e+09,-1.60847e+09,-1.60894e+09,102792,-0.036469,0.0146719,-0,0.0393097,16321.4,-55774.2,0,58113.2,102792
step02_gravity_refstate-mantle.xmf,72,1.64131e-06,2.25705e-06,0,2.28416e-07,-1.65255e+09,-1.65247e+09,-1.65277e+09,30527.8,-0.0178771,0.00660192,-0,0.0190572,28025.5,-57124.5,0,63628.9,30527.8
step02_gravity_refstate-mantle.xmf,73,1.56798e-06,2.20633e-06,0,2.07313e-07,-1.64205e+09,-1.64197e+09,-1.64226e+09,27707.4,-0.0148432,0.00720771,-0,0.0165007,29828.1,-56799.6,0,64155.4,27707.4
step02_gravity_refstate-mantle.xmf,74,1.44946e-06,2.16616e-06,0,2.23936e-07,-1.60466e+09,-1.60456e+09,-1.60485e+09,29929,-0.0118647,0.00964178,-0,0.0152884,31436.3,-55643.7,0,63909.8,29929
step02_gravity_refstate-mantle.xmf,75,1.91105e-06,2.89522e-06,0,5.40087e-07,-1.6392e+09,-1.63907e+09,-1.63946e+09,72182.7,-0.0328655,0.00947123,-0,0.034203,19347.1,-56715.6,0,59924.7,72182.7
step02_gravity_refstate-mantle.xmf,76,1.79844e-06,2.44767e-06,0,3.42298e-07,-1.65166e+09,-1.65157e+09,-1.6519e+09,45748.2,-0.0252324,0.00717685,-0,0.0262332,23710.5,-57098.5,0,61825.8,45748.2
step02_gravity_refstate-mantle.xmf,77,1.65332e-06,2.35279e-06,0,3.61181e-07,-1.62591e+09,-1.62582e+09,-1.62613e+09,48271.8,-0.0214656,0.00878366,-0,0.0231932,25496.8,-56301.9,0,61806.1,48271.8
step02_gravity_refstate-mantle.xmf,78,1.94592e-06,5.34774e-06,0,3.5636e-07,-1.67419e+09,-1.67373e+09,-1.67445e+09,47627.5,-0.0500021,0.0118666,-0,0.0513909,11879.3,-57802.9,0,59011,47627.5
step02_gravity_refstate-mantle.xmf,79,1.2804e-06,2.09451e-06,0,5.49728e-08,-1.56048e+09,-1.56037e+09,-1.56065e+09,7347.12,-0.00226416,0.0123203,-0,0.0125266,38222.4,-54277.7,0,66385.4,7347.12
step02_gravity_refstate-mantle.xmf,80,1.36176e-06,2.13761e-06,0,2.06133e-07,-1.57742e+09,-1.57732e+09,-1.5776e+09,27549.7,-0.00920654,0.0113653,-0,0.0146263,33044.5,-54801.6,0,63993.4,27549.7
step02_gravity_refstate-mantle.xmf,81,1.27472e-06,2.11617e-06,0,1.73551e-07,-1.54868e+09,-1.54857e+09,-1.54885e+09,23195.1,-0.0066179,0.0131758,-0,0.0147444,34728.3,-53913.3,0,64130.3,23195.1
step02_gravity_refstate-mantle.xmf,82,1.48222e-06,3.85814e-06,0,8.47282e-07,-1.5905e+09,-1.59018e+09,-1.5907e+09,113239,-0.0363227,0.0179275,-0,0.040506,15398.4,-55210.8,0,57317.9,113239
step02_gravity_refstate-mantle.xmf,83,1.47863e-06,5.74071e-06,0,4.54856e-07,-1.63104e+09,-1.63047e+09,-1.63123e+09,60791.5,-0.0470609,0.020679,-0,0.0514037,11239.1,-56467.8,0,57575.4,60791.5
step02_gravity_refstate-mantle.xmf,84,1.46186e-06,5.22818e-06,0,6.3306e-07,-1.6179e+09,-1.6174e+09,-1.6181e+09,84608.5,-0.0443395,0.0207451,-0,0.0489525,12033,-56060.7,0,57337.5,84608.5
step02_gravity_refstate-mantle.xmf,85,1.42514e-06,4.81448e-06,0,7.63218e-07,-1.60441e+09,-1.60395e+09,-1.6046e+09,102004,-0.041563,0.0208451,-0,0.0464973,12842.8,-55642.5,0,57105.4,102004
step02_gravity_refstate-mantle.xmf,86,1.34927e-06,4.47338e-06,0,8.44225e-07,-1.59029e+09,-1.58987e+09,-1.59047e+09,112831,-0.0387452,0.0210142,-0,0.044077,13675.9,-55205,0,56873.8,112831
step02_gravity_refstate-mantle.xmf,87,1.84942e-06,2.61394e-06,0,4.26818e-07,-1.64578e+09,-1.64568e+09,-1.64603e+09,57044.2,-0.0287936,0.00808858,-0,0.0299082,21657.9,-56917.9,0,60899.2,57044.2
step02_gravity_refstate-mantle.xmf,88,1.78141e-06,2.75522e-06,0,5.53655e-07,-1.62238e+09,-1.62225e+09,-1.62262e+09,73995.9,-0.0298953,0.0104207,-0,0.0316594,20528.2,-56194.8,0,59827,73995.9
step02_gravity_refstate-mantle.xmf,89,1.58202e-06,2.29724e-06,0,3.47318e-07,-1.61519e+09,-1.61509e+09,-1.6154e+09,46419.1,-0.0191948,0.00936748,-0,0.0213586,26724.7,-55970.1,0,62023.1,46419.1
step02_gravity_refstate-mantle.xmf,90,1.75216e-06,2.52442e-06,0,4.53006e-07,-1.62712e+09,-1.62701e+09,-1.62735e+09,60544.2,-0.0261007,0.00926497,-0,0.0276963,22788.3,-56340.3,0,60774.5,60544.2
step02_gravity_refstate-mantle.xmf,91,1.66143e-06,2.42821e-06,0,4.40196e-07,-1.61353e+09,-1.61343e+09,-1.61376e+09,58832.2,-0.0232323,0.00995243,-0,0.0252743,24198.6,-55919.9,0,60931.2,58832.2
step02_gravity_refstate-mantle.xmf,92,1.14934e-06,6.25835e-06,0,3.31615e-07,-1.61573e+09,-1.61505e+09,-1.61588e+09,44320.4,-0.0460712,0.0259689,-0,0.0528861,10503.7,-55994.1,0,56970.7,44320.4
step02_gravity_refstate-mantle.xmf,93,7.90658e-07,6.15664e-06,0,4.2279e-07,-1.58869e+09,-1.58798e+09,-1.5888e+09,56505.9,-0.0419349,0.0309019,-0,0.052091,10568.8,-55156.3,0,56159.8,56505.9
step02_gravity_refstate-mantle.xmf,94,7.68475e-07,6.75604e-06,0,1.42315e-07,-1.59992e+09,-1.59912e+09,-1.60002e+09,19020.5,-0.0443429,0.0321515,-0,0.0547724,9821.6,-55504.5,0,56366.7,19020.5
step02_gravity_refstate-mantle.xmf,95,1.14815e-06,5.68585e-06,0,5.63037e-07,-1.60298e+09,-1.60238e+09,-1.60314e+09,75249.8,-0.043386,0.0254912,-0,0.0503205,11287.4,-55598.9,0,56733.1,75249.8
step02_gravity_refstate-mantle.xmf,96,1.71279e-06,5.8312e-06,0,3.31433e-07,-1.65876e+09,-1.65821e+09,-1.65899e+09,44296.1,-0.0500277,0.0158545,-0,0.0524799,11184.3,-57325.9,0,58406.8,44296.1
step02_gravity_refstate-mantle.xmf,97,2.04871e-06,5.46043e-06,0,2.26036e-07,-1.69788e+09,-1.69742e+09,-1.69815e+09,30209.7,-0.0516506,0.00806349,-0,0.0522763,11760.4,-58535.6,0,59705.3,30209.7
step02_gravity_refstate-mantle.xmf,98,2.16857e-06,5.24332e-06,0,1.41951e-07,-1.72006e+09,-1.71965e+09,-1.72035e+09,18971.8,-0.0517456,0.00411236,-0,0.0519088,12100.8,-59221,0,60444.6,18971.8
step02_gravity_refstate-mantle.xmf,99,2.25464e-06,4.9941e-06,0,-1.90903e-09,-1.74528e+09,-1.74491e+09,-1.74558e+09,-255.142,-0.0510614,-3.91319e-19,-0,0.0510614,12551.5,-60000,0,61298.8,255.142
step02_gravity_refstate-mantle.xmf,100,1.21047e-06,2.08852e-06,0,2.37132e-10,-1.53091e+09,-1.53079e+09,-1.53107e+09,31.6927,1.82543e-20,0.0142229,0,0.0142229,40000,-53363.7,0,66690.9,31.6927
step02_gravity_refstate-mantle.xmf,101,1.18826e-06,2.10179e-06,0,1.24579e-07,-1.51997e+09,-1.51985e+09,-1.52013e+09,16650,-0.00414661,0.0149824,-0,0.0155456,36497.3,-53025.6,0,64372.1,16650
step02_gravity_refstate-mantle.xmf,102,1.25037e-06,4.18778e-06,0,8.91268e-07,-1.57464e+09,-1.57424e+09,-1.5748e+09,119118,-0.0358208,0.0213671,-0,0.0417095,14535.2,-54720.1,0,56617.7,119118
step02_gravity_refstate-mantle.xmf,103,1.58839e-06,3.34942e-06,0,7.87263e-07,-1.59261e+09,-1.59238e+09,-1.59283e+09,105218,-0.0335522,0.0153674,-0,0.036904,17309.7,-55275.6,0,57922.5,105218
step02_gravity_refstate-mantle.xmf,104,1.76504e-06,3.10072e-06,0,6.75007e-07,-1.61444e+09,-1.61426e+09,-1.61467e+09,90214.7,-0.0334052,0.0123518,-0,0.0356156,18314.7,-55950.2,0,58871.5,90214.7
step02_gravity_refstate-mantle.xmf,105,1.35959e-06,3.64082e-06,0,8.68821e-07,-1.57263e+09,-1.57232e+09,-1.57281e+09,116118,-0.0332612,0.0186747,-0,0.0381451,16330.5,-54657.5,0,57044.9,116118
step02_gravity_refstate-mantle.xmf,106,1.5091e-06,2.24175e-06,0,3.2891e-07,-1.59944e+09,-1.59934e+09,-1.59964e+09,43958.9,-0.0164078,0.0102693,-0,0.0193565,28279.2,-55482.9,0,62274.2,43958.9
step02_gravity_refstate-mantle.xmf,107,1.29987e-06,2.16691e-06,0,2.91622e-07,-1.54528e+09,-1.54517e+09,-1.54546e+09,38975.3,-0.0107565,0.0136159,-0,0.0173521,31455.4,-53808.6,0,62328.2,38975.3
step02_gravity_refstate-mantle.xmf,108,1.40638e-06,2.19837e-06,0,3.14431e-07,-1.57439e+09,-1.57429e+09,-1.57458e+09,42023.7,-0.0135172,0.0118092,-0,0.0179492,29872.8,-54708.6,0,62333.1,42023.7
step02_gravity_refstate-mantle.xmf,109,1.67177e-06,2.94457e-06,0,6.86121e-07,-1.59803e+09,-1.59786e+09,-1.59825e+09,91700.1,-0.0304977,0.0131524,-0,0.0332129,19413.2,-55442.4,0,58742.9,91700.1
step02_gravity_refstate-mantle.xmf,110,1.52401e-06,2.36959e-06,0,4.57779e-07,-1.58547e+09,-1.58536e+09,-1.58567e+09,61182.1,-0.0202739,0.0117434,-0,0.0234294,25450.6,-55052,0,60650.2,61182.1
step02_gravity_refstate-mantle.xmf,111,3.9802e-07,6.61374e-06,0,2.15506e-07,-1.57382e+09,-1.57299e+09,-1.57387e+09,28802.4,-0.0397679,0.0371753,-0,0.0544379,9895,-54695.3,0,55583.2,28802.4
step02_gravity_refstate-mantle.xmf,112,-2.15639e-08,7.69382e-06,0,-4.92093e-07,-1.57295e+09,-1.57192e+09,-1.57295e+09,-65768.2,-0.0398345,0.0459406,-0,0.0608056,8585.22,-54668.6,0,55338.6,65768.2
step02_gravity_refstate-mantle.xmf,113,3.65773e-07,7.22468e-06,0,-1.26562e-07,-1.58519e+09,-1.58428e+09,-1.58524e+09,-16915,-0.0421352,0.0388354,-0,0.0573024,9198.94,-55048.1,0,55811.4,16915
step02_gravity_refstate-mantle.xmf,114,2.95959e-07,7.96464e-06,0,-5.71537e-07,-1.59554e+09,-1.59452e+09,-1.59558e+09,-76385.9,-0.0442766,0.0408659,-0,0.0602531,8529.58,-55369.2,0,56022.3,76385.9
step02_gravity_refstate-mantle.xmf,115,6.56402e-07,7.4627e-06,0,-2.2358e-07,-1.60818e+09,-1.60727e+09,-1.60826e+09,-29881.5,-0.0461948,0.0341256,-0,0.0574327,9111.43,-55760.6,0,56500.1,29881.5
step02_gravity_refstate-mantle.xmf,116,-1.03872e-07,8.48535e-06,0,-1.0369e-06,-1.58329e+09,-1.58215e+09,-1.58328e+09,-138582,-0.0419352,0.0487021,-0,0.0642686,7933.54,-54989.5,0,55558.8,138582
step02_gravity_refstate-mantle.xmf,117,1.04849e-06,7.06642e-06,0,-1.9734e-08,-1.62793e+09,-1.62713e+09,-1.62807e+09,-2637.45,-0.0486846,0.0269517,-0,0.055647,9651.76,-56372.4,0,57192.7,2637.45
step02_gravity_refstate-mantle.xmf,118,1.42053e-06,6.39156e-06,0,2.24768e-07,-1.64359e+09,-1.64293e+09,-1.64378e+09,30040.3,-0.0496331,0.0206811,-0,0.0537694,10455.4,-56856.9,0,57810.2,30040.3
step02_gravity_refstate-mantle.xmf,119,1.86064e-06,5.94897e-06,0,2.08517e-07,-1.68648e+09,-1.68593e+09,-1.68673e+09,27868.3,-0.0522658,0.0109259,-0,0.0533956,11121.6,-58183.4,0,59236.8,27868.3
step02_gravity_refstate-mantle.xmf,120,1.11764e-06,2.09473e-06,0,6.50705e-08,-1.4931e+09,-1.49297e+09,-1.49325e+09,8696.67,-0.00190429,0.0166811,-0,0.0167894,38290.2,-52195.3,0,64734,8696.67
step02_gravity_refstate-mantle.xmf,121,1.20266e-06,2.14243e-06,0,2.52831e-07,-1.51675e+09,-1.51662e+09,-1.51691e+09,33790.9,-0.00816025,0.0153748,-0,0.0174061,33096,-52926.4,0,62422.3,33790.9
step02_gravity_refstate-mantle.xmf,122,1.10897e-06,2.1255e-06,0,2.02934e-07,-1.48724e+09,-1.48711e+09,-1.48739e+09,27122.1,-0.00576596,0.0172011,-0,0.0181418,34760.5,-52014.3,0,62560.2,27122.1
step02_gravity_refstate-mantle.xmf,123,1.12115e-06,3.95055e-06,0,9.01933e-07,-1.55731e+09,-1.55693e+09,-1.55746e+09,120543,-0.0328385,0.0219346,-0,0.0394904,15401.2,-54183.3,0,56329.6,120543
step02_gravity_refstate-mantle.xmf,124,1.09338e-06,5.23104e-06,0,7.23026e-07,-1.58895e+09,-1.5884e+09,-1.5891e+09,96632.4,-0.0405341,0.0253107,-0,0.0477875,12076.5,-55164,0,56470.4,96632.4
step02_gravity_refstate-mantle.xmf,125,7.38552e-07,5.66489e-06,0,6.23683e-07,-1.57468e+09,-1.57402e+09,-1.57478e+09,83355.2,-0.039094,0.0303,-0,0.0494615,11333.4,-54721.9,0,55883.2,83355.2
step02_gravity_refstate-mantle.xmf,126,1.03707e-06,4.85865e-06,0,8.30291e-07,-1.57445e+09,-1.57393e+09,-1.57458e+09,110968,-0.0376809,0.0252373,-0,0.0453517,12880.3,-54714.5,0,56210.1,110968
step02_gravity_refstate-mantle.xmf,127,9.52543e-07,4.55018e-06,0,8.86394e-07,-1.55951e+09,-1.55903e+09,-1.55964e+09,118467,-0.0348836,0.0252814,-0,0.0430815,13690.3,-54251.8,0,55952.5,118467
step02_gravity_refstate-mantle.xmf,128,1.65983e-06,2.64687e-06,0,5.67563e-07,-1.60266e+09,-1.60252e+09,-1.60288e+09,75854.8,-0.0269562,0.0115847,-0,0.0293401,21690.5,-55584.4,0,59666.6,75854.8
step02_gravity_refstate-mantle.xmf,129,1.53606e-06,2.81399e-06,0,6.81022e-07,-1.57899e+09,-1.57882e+09,-1.57919e+09,91018.6,-0.027507,0.0141433,-0,0.03093,20555.2,-54852.9,0,58577.7,91018.6
step02_gravity_refstate-mantle.xmf,130,1.41572e-06,2.30958e-06,0,4.38428e-07,-1.56519e+09,-1.56507e+09,-1.56538e+09,58595.9,-0.0175137,0.0129037,-0,0.021754,26857.4,-54424.5,0,60690.6,58595.9
step02_gravity_refstate-mantle.xmf,131,1.55635e-06,2.55354e-06,0,5.69663e-07,-1.58266e+09,-1.58253e+09,-1.58287e+09,76135.5,-0.0240712,0.0127177,-0,0.0272243,22901.5,-54965.8,0,59545.9,76135.5
step02_gravity_refstate-mantle.xmf,132,1.45104e-06,2.46958e-06,0,5.53773e-07,-1.5632e+09,-1.56306e+09,-1.56339e+09,74011.8,-0.0212627,0.0137668,-0,0.0253304,24186.3,-54363.7,0,59501.2,74011.8
step02_gravity_refstate-mantle.xmf,133,3.39019e-07,6.10269e-06,0,4.53272e-07,-1.56087e+09,-1.5601e+09,-1.56092e+09,60579.8,-0.0371486,0.0359469,-0,0.0516933,10620.9,-54293.8,0,55322.8,60579.8
step02_gravity_refstate-mantle.xmf,134,-5.34616e-07,9.04758e-06,0,-1.6514e-06,-1.57266e+09,-1.57138e+09,-1.57259e+09,-220709,-0.0394195,0.0574437,-0,0.0696684,7330.93,-54659.5,0,55148.9,220709
step02_gravity_refstate-mantle.xmf,135,-5.12423e-07,8.11558e-06,0,-9.62989e-07,-1.55942e+09,-1.55827e+09,-1.55936e+09,-128703,-0.0367031,0.0544125,-0,0.0656341,7982.96,-54248.5,0,54832.7,128703
step02_gravity_refstate-mantle.xmf,136,-9.30012e-07,8.75457e-06,0,-1.68903e-06,-1.55273e+09,-1.55144e+09,-1.55261e+09,-225739,-0.0345923,0.0633127,-0,0.0721466,7298.39,-54040.6,0,54531.2,225739
step02_gravity_refstate-mantle.xmf,137,-5.73836e-08,7.0595e-06,0,-8.99501e-08,-1.56046e+09,-1.55951e+09,-1.56045e+09,-12021.8,-0.0372791,0.0439543,-0,0.0576343,9253.79,-54280.7,0,55063.9,12021.8
step02_gravity_refstate-mantle.xmf,138,-1.00203e-06,9.62878e-06,0,-2.43363e-06,-1.5632e+09,-1.56178e+09,-1.56307e+09,-325255,-0.0366921,0.0671174,-0,0.0764922,6744.02,-54365.8,0,54782.5,325255
step02_gravity_refstate-mantle.xmf,139,4.8593e-07,8.29732e-06,0,-6.68643e-07,-1.61675e+09,-1.6157e+09,-1.61681e+09,-89364.1,-0.0479472,0.0360111,-0,0.0599645,8457.56,-56026.3,0,56661,89364.1
step02_gravity_refstate-mantle.xmf,140,1.35113e-07,8.86858e-06,0,-1.1182e-06,-1.60539e+09,-1.60422e+09,-1.60541e+09,-149447,-0.0462012,0.0431012,-0,0.0631843,7892.49,-55674.6,0,56231.2,149447
step02_gravity_refstate-mantle.xmf,141,1.59016e-06,6.53141e-06,0,1.3183e-07,-1.6706e+09,-1.66994e+09,-1.67082e+09,17619,-0.0523167,0.015374,-0,0.0545288,10421.6,-57692.8,0,58626.5,17619
step02_gravity_refstate-mantle.xmf,142,1.96353e-06,6.00812e-06,0,1.01173e-07,-1.71622e+09,-1.71568e+09,-1.71648e+09,13521.8,-0.0536635,0.00542532,-0,0.053937,11119.4,-59103,0,60139.9,13521.8
step02_gravity_refstate-mantle.xmf,143,2.10487e-06,5.65565e-06,0,-1.37901e-09,-1.74526e+09,-1.74478e+09,-1.74554e+09,-184.304,-0.0531256,-5.14665e-19,-0,0.0531256,11604.5,-60000,0,61111.9,184.304
step02_gravity_refstate-mantle.xmf,144,-1.39939e-06,9.19036e-06,0,-2.48036e-06,-1.54383e+09,-1.54241e+09,-1.54364e+09,-331501,-0.0316062,0.0728264,-0,0.0793891,6740.87,-53763.5,0,54184.5,331501
step02_gravity_refstate-mantle.xmf,145,1.02336e-06,2.09873e-06,0,5.67427e-10,-1.45942e+09,-1.45928e+09,-1.45956e+09,75.8367,1.33445e-20,0.0188484,0,0.0188484,40000,-51154.3,0,64936.6,75.8367
step02_gravity_refstate-mantle.xmf,146,1.01705e-06,2.11504e-06,0,1.39596e-07,-1.45797e+09,-1.45783e+09,-1.45811e+09,18657,-0.00355246,0.0190217,-0,0.0193506,36508.3,-51109.5,0,62809.5,18657
step02_gravity_refstate-mantle.xmf,147,8.63465e-07,4.27857e-06,0,9.08687e-07,-1.5435e+09,-1.54305e+09,-1.54362e+09,121446,-0.0320609,0.0254469,-0,0.0409322,14535.7,-53756.1,0,55686.6,121446
step02_gravity_refstate-mantle.xmf,148,1.24608e-06,3.4459e-06,0,8.6529e-07,-1.55429e+09,-1.554e+09,-1.55446e+09,115646,-0.0302493,0.0193939,-0,0.0359325,17311.9,-54089.7,0,56792.6,115646
step02_gravity_refstate-mantle.xmf,149,1.47731e-06,3.17503e-06,0,7.89214e-07,-1.57546e+09,-1.57523e+09,-1.57566e+09,105478,-0.0306178,0.0161093,-0,0.0345971,18346.4,-54744.4,0,57736.8,105478
step02_gravity_refstate-mantle.xmf,150,9.4184e-07,3.77795e-06,0,9.05468e-07,-1.53236e+09,-1.53199e+09,-1.53249e+09,121016,-0.0292211,0.023436,-0,0.0374582,16240.5,-53411.2,0,55825.7,121016
step02_gravity_refstate-mantle.xmf,151,1.32165e-06,2.2593e-06,0,4.15108e-07,-1.54122e+09,-1.54109e+09,-1.5414e+09,55479.2,-0.0147027,0.0143079,-0,0.0205154,28350.4,-53683.4,0,60709.6,55479.2
step02_gravity_refstate-mantle.xmf,152,1.11164e-06,2.18871e-06,0,3.3556e-07,-1.48563e+09,-1.48549e+09,-1.48578e+09,44847.5,-0.00935174,0.0176275,-0,0.0199545,31489.5,-51964.7,0,60761.2,44847.5
step02_gravity_refstate-mantle.xmf,153,1.21343e-06,2.22024e-06,0,3.81785e-07,-1.51372e+09,-1.51359e+09,-1.51389e+09,51025.6,-0.0119496,0.0159501,-0,0.0199299,29887.3,-52833.2,0,60700.9,51025.6
step02_gravity_refstate-mantle.xmf,154,1.37859e-06,3.02239e-06,0,7.83262e-07,-1.55613e+09,-1.55591e+09,-1.55631e+09,104683,-0.0275958,0.0169963,-0,0.0324099,19443.6,-54146.3,0,57531.5,104683
step02_gravity_refstate-mantle.xmf,155,1.33749e-06,2.40314e-06,0,5.34275e-07,-1.54021e+09,-1.54006e+09,-1.54039e+09,71405.9,-0.0184546,0.0150717,-0,0.023827,25489.6,-53652.6,0,59399.7,71405.9
step02_gravity_refstate-mantle.xmf,156,-8.70187e-08,6.54546e-06,0,2.04245e-07,-1.54731e+09,-1.54643e+09,-1.5473e+09,27297.4,-0.034668,0.0424549,-0,0.0548114,9917.2,-53873.2,0,54778.4,27297.4
step02_gravity_refstate-mantle.xmf,157,-9.95345e-07,8.15355e-06,0,-1.23151e-06,-1.5419e+09,-1.54068e+09,-1.54177e+09,-164592,-0.0323088,0.0611766,-0,0.0691841,7750.06,-53704,0,54260.3,164592
step02_gravity_refstate-mantle.xmf,158,-3.56115e-07,7.45873e-06,0,-4.42624e-07,-1.55392e+09,-1.55288e+09,-1.55388e+09,-59156.8,-0.035772,0.049578,-0,0.061136,8692.28,-54077.9,0,54772.1,59156.8
step02_gravity_refstate-mantle.xmf,159,-1.19708e-06,1.07738e-05,0,-3.34358e-06,-1.57281e+09,-1.57121e+09,-1.57265e+09,-446870,-0.0384839,0.0716951,-0,0.0813707,6192.21,-54664.3,0,55013.9,446870
step02_gravity_refstate-mantle.xmf,160,-1.51674e-06,1.01612e-05,0,-3.3771e-06,-1.55354e+09,-1.55198e+09,-1.55334e+09,-451350,-0.0334588,0.077897,-0,0.0847787,6196.78,-54065.2,0,54419.2,451350
step02_gravity_refstate-mantle.xmf,161,-6.94216e-07,1.01194e-05,0,-2.44328e-06,-1.58322e+09,-1.58177e+09,-1.58313e+09,-326544,-0.041447,0.0610383,-0,0.0737802,6739.35,-54987.4,0,55398.8,326544
step02_gravity_refstate-mantle.xmf,162,-2.58048e-07,9.47222e-06,0,-1.70195e-06,-1.5939e+09,-1.5926e+09,-1.59386e+09,-227466,-0.0439839,0.051505,-0,0.0677299,7315.02,-55318.5,0,55800,227466
step02_gravity_refstate-mantle.xmf,163,7.696e-07,7.81549e-06,0,-3.69905e-07,-1.62645e+09,-1.62551e+09,-1.62655e+09,-49437.8,-0.0491092,0.0307067,-0,0.057919,8947.58,-56326.6,0,57032.8,49437.8
step02_gravity_refstate-mantle.xmf,164,1.26576e-06,7.19117e-06,0,-5.17664e-08,-1.65603e+09,-1.65523e+09,-1.65619e+09,-6918.58,-0.0519694,0.0205206,-0,0.0558741,9710.92,-57242,0,58059.9,6918.58
step02_gravity_refstate-mantle.xmf,165,1.67633e-06,6.67806e-06,0,6.65675e-08,-1.69675e+09,-1.69608e+09,-1.69697e+09,8896.75,-0.0541799,0.0101191,-0,0.0551168,10379.4,-58501.4,0,59415,8896.75
step02_gravity_refstate-mantle.xmf,166,-1.37083e-06,8.46997e-06,0,-1.80112e-06,-1.53402e+09,-1.53271e+09,-1.53384e+09,-240720,-0.0297142,0.0686311,-0,0.0747874,7272.34,-53458.9,0,53951.3,240720
step02_gravity_refstate-mantle.xmf,167,9.21606e-07,2.11398e-06,0,7.09148e-08,-1.4247e+09,-1.42454e+09,-1.42482e+09,9477.76,-0.00156438,0.0211295,-0,0.0211874,38299.4,-50081.1,0,63047.3,9477.76
step02_gravity_refstate-mantle.xmf,168,1.01466e-06,2.16511e-06,0,2.79809e-07,-1.4567e+09,-1.45654e+09,-1.45683e+09,37396.4,-0.00696641,0.0193699,-0,0.0205845,33123.1,-51070.2,0,60871.2,37396.4
step02_gravity_refstate-mantle.xmf,169,9.19264e-07,2.14879e-06,0,2.1516e-07,-1.42634e+09,-1.42617e+09,-1.42646e+09,28756.2,-0.00478286,0.0212203,-0,0.0217526,34813.4,-50131.7,0,61034,28756.2
step02_gravity_refstate-mantle.xmf,170,7.82895e-07,4.07046e-06,0,9.02139e-07,-1.52868e+09,-1.52824e+09,-1.52878e+09,120571,-0.0296249,0.0257374,-0,0.0392435,15275.5,-53297,0,55442.8,120571
step02_gravity_refstate-mantle.xmf,171,2.68978e-07,5.66793e-06,0,6.13769e-07,-1.54614e+09,-1.54542e+09,-1.54618e+09,82030.3,-0.0343149,0.035111,-0,0.0490948,11382,-53837.2,0,55027.2,82030.3
step02_gravity_refstate-mantle.xmf,172,6.5536e-07,5.25483e-06,0,7.55774e-07,-1.55934e+09,-1.55873e+09,-1.55943e+09,101009,-0.0361222,0.0299483,-0,0.0469224,12128.9,-54246.5,0,55585.9,101009
step02_gravity_refstate-mantle.xmf,173,5.93839e-07,4.92063e-06,0,8.2994e-07,-1.54372e+09,-1.54314e+09,-1.5438e+09,110921,-0.0332624,0.029791,-0,0.044653,12914.1,-53762.6,0,55291.9,110921
step02_gravity_refstate-mantle.xmf,174,5.22297e-07,4.62875e-06,0,8.59854e-07,-1.52826e+09,-1.52771e+09,-1.52833e+09,114919,-0.0305831,0.0296625,-0,0.042605,13713.2,-53283.8,0,55020.1,114919
step02_gravity_refstate-mantle.xmf,175,1.42307e-06,2.70182e-06,0,6.6843e-07,-1.55926e+09,-1.55909e+09,-1.55945e+09,89335.6,-0.0245911,0.015153,-0,0.0288849,21733,-54242.4,0,58434.3,89335.6
step02_gravity_refstate-mantle.xmf,176,1.25461e-06,2.88715e-06,0,7.55163e-07,-1.53631e+09,-1.53609e+09,-1.53647e+09,100928,-0.0246576,0.0178815,-0,0.0304589,20591,-53532.8,0,57356.3,100928
step02_gravity_refstate-mantle.xmf,177,1.20695e-06,2.34796e-06,0,5.06547e-07,-1.51278e+09,-1.51263e+09,-1.51294e+09,67700.1,-0.0155711,0.0166725,-0,0.022813,26868.5,-52804.4,0,59247.1,67700.1
step02_gravity_refstate-mantle.xmf,178,1.33076e-06,2.60324e-06,0,6.48495e-07,-1.53927e+09,-1.5391e+09,-1.53945e+09,86671.3,-0.0217757,0.0161525,-0,0.0271124,22957.8,-53624,0,58331.8,86671.3
step02_gravity_refstate-mantle.xmf,179,1.2298e-06,2.51967e-06,0,6.17942e-07,-1.51838e+09,-1.5182e+09,-1.51854e+09,82587.9,-0.0190698,0.017216,-0,0.0256914,24206.5,-52977.8,0,58246.1,82587.9
step02_gravity_refstate-mantle.xmf,180,-1.48712e-07,6.08809e-06,0,4.00723e-07,-1.53428e+09,-1.53345e+09,-1.53426e+09,53556.6,-0.0322123,0.0408409,-0,0.0520155,10646.7,-53469,0,54518.7,53556.6
step02_gravity_refstate-mantle.xmf,181,-8.39715e-07,7.62273e-06,0,-7.15273e-07,-1.53829e+09,-1.53716e+09,-1.53818e+09,-95596.3,-0.0319725,0.0562294,-0,0.0646837,8344.02,-53592.1,0,54237.8,95596.3
step02_gravity_refstate-mantle.xmf,182,-6.06134e-07,7.04508e-06,0,-2.2047e-07,-1.53484e+09,-1.53381e+09,-1.53476e+09,-29465.8,-0.0317526,0.050506,-0,0.0596581,9123.05,-53485.6,0,54258.1,29465.8
step02_gravity_refstate-mantle.xmf,183,-1.77347e-06,1.14143e-05,0,-4.44885e-06,-1.56296e+09,-1.5612e+09,-1.56272e+09,-594588,-0.0351822,0.083213,-0,0.0903448,5687.02,-54357.7,0,54654.4,594588
step02_gravity_refstate-mantle.xmf,184,9.17908e-07,7.92301e-06,0,-3.52072e-07,-1.64563e+09,-1.64469e+09,-1.64575e+09,-47054.4,-0.0515618,0.0256816,-0,0.0576035,9019.14,-56920.3,0,57630.5,47054.4
step02_gravity_refstate-mantle.xmf,185,5.76481e-07,8.62697e-06,0,-7.21335e-07,-1.63682e+09,-1.63574e+09,-1.6369e+09,-96406.5,-0.0508964,0.031025,-0,0.059607,8412.55,-56647.8,0,57269.1,96406.5
step02_gravity_refstate-mantle.xmf,186,2.20903e-07,9.31062e-06,0,-1.18724e-06,-1.62642e+09,-1.62521e+09,-1.62645e+09,-158674,-0.0496511,0.0375818,-0,0.0622706,7839.4,-56326.1,0,56869,158674
step02_gravity_refstate-mantle.xmf,187,-1.48161e-07,9.9949e-06,0,-1.76836e-06,-1.61549e+09,-1.61414e+09,-1.61547e+09,-236342,-0.0479359,0.0453111,-0,0.0659617,7280.76,-55987.7,0,56459.1,236342
step02_gravity_refstate-mantle.xmf,188,1.36421e-06,7.36421e-06,0,-8.20085e-08,-1.68135e+09,-1.68055e+09,-1.68153e+09,-10960.4,-0.0542223,0.014851,-0,0.0562193,9699.72,-58025.4,0,58830.5,10960.4
step02_gravity_refstate-mantle.xmf,189,1.65221e-06,6.96383e-06,0,1.24866e-08,-1.72224e+09,-1.72153e+09,-1.72246e+09,1668.84,-0.0555198,0.0049771,-0,0.0557424,10187.6,-59289.3,0,60158.2,1668.84
step02_gravity_refstate-mantle.xmf,190,1.86383e-06,6.45875e-06,0,5.49322e-10,-1.74524e+09,-1.74463e+09,-1.74549e+09,73.4169,-0.0549231,-4.70543e-19,-0,0.0549231,10697.4,-60000,0,60946.2,73.4169
step02_gravity_refstate-mantle.xmf,191,-1.3567e-06,7.88374e-06,0,-1.22368e-06,-1.52503e+09,-1.52379e+09,-1.52485e+09,-163544,-0.0281701,0.0642938,-0,0.0701944,7852.58,-53179.7,0,53756.4,163544
step02_gravity_refstate-mantle.xmf,192,-1.9162e-06,9.54237e-06,0,-3.50378e-06,-1.53447e+09,-1.53293e+09,-1.53421e+09,-468280,-0.0280724,0.083665,-0,0.088249,6201.68,-53471.8,0,53830.2,468280
step02_gravity_refstate-mantle.xmf,193,-1.84975e-06,8.7575e-06,0,-2.61802e-06,-1.52484e+09,-1.52342e+09,-1.52459e+09,-349899,-0.0263304,0.078183,-0,0.0824977,6736.83,-53172.9,0,53597.9,349899
step02_gravity_refstate-mantle.xmf,194,8.0883e-07,2.12421e-06,0,8.71789e-10,-1.38793e+09,-1.38776e+09,-1.38804e+09,116.515,7.87924e-21,0.0235137,0,0.0235137,40000,-48944.6,0,63210.5,116.515
step02_gravity_refstate-mantle.xmf,195,8.1537e-07,2.14083e-06,0,1.4266e-07,-1.3931e+09,-1.39292e+09,-1.39321e+09,19066.5,-0.00284419,0.0232869,-0,0.0234599,36536.6,-49104.2,0,61205.8,19066.5
step02_gravity_refstate-mantle.xmf,196,4.68648e-07,4.35013e-06,0,8.63244e-07,-1.51227e+09,-1.51176e+09,-1.51234e+09,115373,-0.0279685,0.029509,-0,0.0406574,14581.3,-52789,0,54765.8,115373
step02_gravity_refstate-mantle.xmf,197,8.71648e-07,3.55095e-06,0,8.75418e-07,-1.51557e+09,-1.51521e+09,-1.51569e+09,117000,-0.0264821,0.0235951,-0,0.0354687,17304.4,-52891.4,0,55650.2,117000
step02_gravity_refstate-mantle.xmf,198,1.1322e-06,3.27168e-06,0,8.48597e-07,-1.53424e+09,-1.53396e+09,-1.53439e+09,113415,-0.0271868,0.020205,-0,0.0338728,18359.5,-53469.2,0,56533.4,113415
step02_gravity_refstate-mantle.xmf,199,4.45092e-07,4.06914e-06,0,8.48589e-07,-1.49773e+09,-1.49725e+09,-1.49779e+09,113414,-0.0256579,0.0290119,-0,0.0387301,15558.8,-52338.9,0,54602.5,113414
step02_gravity_refstate-mantle.xmf,200,1.10334e-06,2.29835e-06,0,4.68421e-07,-1.48427e+09,-1.48411e+09,-1.48442e+09,62604.4,-0.0127704,0.0183196,-0,0.0223314,28351,-51922.8,0,59158.8,62604.4
step02_gravity_refstate-mantle.xmf,201,8.99571e-07,2.22322e-06,0,3.53616e-07,-1.42649e+09,-1.42631e+09,-1.42661e+09,47260.8,-0.00778044,0.021657,-0,0.0230122,31510.8,-50136.4,0,59216.4,47260.8
step02_gravity_refstate-mantle.xmf,202,9.94052e-07,2.25736e-06,0,4.15513e-07,-1.45482e+09,-1.45465e+09,-1.45496e+09,55533.3,-0.0101351,0.0200223,-0,0.0224414,29907.9,-51012.4,0,59133.3,55533.3
step02_gravity_refstate-mantle.xmf,203,1.05223e-06,3.10961e-06,0,8.22095e-07,-1.51386e+09,-1.51358e+09,-1.514e+09,109873,-0.0242334,0.0209835,-0,0.0320557,19467.5,-52838.6,0,56310.8,109873
step02_gravity_refstate-mantle.xmf,204,1.13118e-06,2.45377e-06,0,5.83861e-07,-1.49631e+09,-1.49614e+09,-1.49646e+09,78033,-0.0165482,0.0183953,-0,0.0247433,25411.6,-52295.5,0,58142.6,78033
step02_gravity_refstate-mantle.xmf,205,-6.23936e-07,6.50272e-06,0,8.8163e-08,-1.5209e+09,-1.51995e+09,-1.52081e+09,11783,-0.0292618,0.0477717,-0,0.0560213,9922.11,-53053.5,0,53973.4,11783
step02_gravity_refstate-mantle.xmf,206,-2.08963e-06,1.0597e-05,0,-4.6095e-06,-1.54394e+09,-1.54225e+09,-1.54367e+09,-616060,-0.029802,0.0897694,-0,0.0945871,5684.6,-53766.1,0,54065.8,616060
step02_gravity_refstate-mantle.xmf,207,-1.5571e-06,1.22244e-05,0,-4.38161e-06,-1.58183e+09,-1.57999e+09,-1.58162e+09,-585602,-0.0399371,0.0766123,-0,0.0863969,5667.54,-54944,0,55235.6,585602
step02_gravity_refstate-mantle.xmf,208,-1.02355e-06,1.14727e-05,0,-3.36308e-06,-1.59299e+09,-1.59132e+09,-1.59285e+09,-449475,-0.0430729,0.0650119,-0,0.0779861,6172.15,-55290.5,0,55634,449475
step02_gravity_refstate-mantle.xmf,209,-5.61177e-07,1.06922e-05,0,-2.47243e-06,-1.60387e+09,-1.60237e+09,-1.6038e+09,-330440,-0.0456748,0.0545216,-0,0.0711252,6726.51,-55627.8,0,56033,330440
step02_gravity_refstate-mantle.xmf,210,9.93157e-07,8.1494e-06,0,-3.38959e-07,-1.66935e+09,-1.66839e+09,-1.66948e+09,-45301.9,-0.054028,0.0197592,-0,0.0575278,9025.56,-57654.2,0,58356.4,45301.9
step02_gravity_refstate-mantle.xmf,211,1.4099e-06,7.43983e-06,0,-4.6634e-08,-1.70364e+09,-1.70283e+09,-1.70383e+09,-6232.63,-0.0555388,0.00968876,-0,0.0563776,9726.39,-58714.4,0,59514.6,6232.63
step02_gravity_refstate-mantle.xmf,212,-1.82821e-06,8.15206e-06,0,-1.92308e-06,-1.51506e+09,-1.51373e+09,-1.51482e+09,-257019,-0.0246629,0.0732778,-0,0.0773168,7292.66,-52869.5,0,53370.1,257019
step02_gravity_refstate-mantle.xmf,213,7.00614e-07,2.14351e-06,0,7.00794e-08,-1.35428e+09,-1.35408e+09,-1.35437e+09,9366.11,-0.00118594,0.0257622,-0,0.0257895,38308.4,-47904.3,0,61338,9366.11
step02_gravity_refstate-mantle.xmf,214,8.07636e-07,2.19706e-06,0,2.85252e-07,-1.39688e+09,-1.3967e+09,-1.39699e+09,38124,-0.00565039,0.0233982,-0,0.0240708,33154.3,-49221.2,0,59345.9,38124
step02_gravity_refstate-mantle.xmf,215,7.15008e-07,2.17951e-06,0,2.13691e-07,-1.36562e+09,-1.36542e+09,-1.36571e+09,28559.8,-0.00379217,0.0252831,-0,0.0255659,34800.6,-48254.8,0,59494.6,28559.8
step02_gravity_refstate-mantle.xmf,216,-2.01251e-07,5.70385e-06,0,5.14786e-07,-1.51975e+09,-1.51896e+09,-1.51973e+09,68801.2,-0.0296368,0.0398148,-0,0.0496343,11370.8,-53018.9,0,54224.6,68801.2
step02_gravity_refstate-mantle.xmf,217,1.5793e-07,5.29039e-06,0,7.04317e-07,-1.52794e+09,-1.52725e+09,-1.52796e+09,94132,-0.031059,0.0348457,-0,0.0466785,12191.5,-53273.1,0,54650.3,94132
step02_gravity_refstate-mantle.xmf,218,1.15023e-07,4.99266e-06,0,7.46087e-07,-1.51213e+09,-1.51148e+09,-1.51215e+09,99714.6,-0.0284233,0.0346192,-0,0.0447926,12921,-52783.9,0,54342.3,99714.6
step02_gravity_refstate-mantle.xmf,219,7.96059e-08,4.69159e-06,0,7.55495e-07,-1.49607e+09,-1.49545e+09,-1.49608e+09,100972,-0.0259232,0.0341971,-0,0.0429122,13750,-52286.6,0,54064.3,100972
step02_gravity_refstate-mantle.xmf,220,6.27412e-07,3.79182e-06,0,8.67759e-07,-1.50011e+09,-1.49968e+09,-1.50019e+09,115976,-0.0254233,0.0267218,-0,0.0368836,16510.2,-52412.7,0,54951.6,115976
step02_gravity_refstate-mantle.xmf,221,1.15904e-06,2.767e-06,0,7.22857e-07,-1.51639e+09,-1.51617e+09,-1.51654e+09,96609.8,-0.0218577,0.0187486,-0,0.028797,21780.6,-52916.5,0,57223.7,96609.8
step02_gravity_refstate-mantle.xmf,222,9.55924e-07,2.96179e-06,0,7.76464e-07,-1.49414e+09,-1.49387e+09,-1.49427e+09,103774,-0.0214826,0.0216567,-0,0.0305044,20636,-52228.4,0,56157.4,103774
step02_gravity_refstate-mantle.xmf,223,9.50276e-07,2.41285e-06,0,5.50263e-07,-1.45437e+09,-1.45417e+09,-1.45449e+09,73542.7,-0.0132199,0.0210254,-0,0.0248361,26708.4,-50998.5,0,57568.9,73542.7
step02_gravity_refstate-mantle.xmf,224,9.98866e-07,2.57478e-06,0,6.45892e-07,-1.47546e+09,-1.47525e+09,-1.4756e+09,86323.4,-0.0167236,0.0205938,-0,0.026529,24211.1,-51650.9,0,57043.7,86323.4
step02_gravity_refstate-mantle.xmf,225,1.08022e-06,2.66443e-06,0,6.88961e-07,-1.49581e+09,-1.4956e+09,-1.49596e+09,92079.6,-0.0191999,0.0196779,-0,0.0274929,22982.2,-52280.3,0,57108.8,92079.6
step02_gravity_refstate-mantle.xmf,226,-6.39955e-07,6.08149e-06,0,2.60815e-07,-1.50841e+09,-1.50752e+09,-1.50833e+09,34857.9,-0.0272113,0.0456605,-0,0.0531539,10657.7,-52666.7,0,53734.3,34857.9
step02_gravity_refstate-mantle.xmf,227,-1.28906e-06,7.35391e-06,0,-7.29785e-07,-1.51623e+09,-1.51508e+09,-1.51606e+09,-97535.8,-0.0268739,0.05976,-0,0.0655245,8518.24,-52907.2,0,53588.5,97535.8
step02_gravity_refstate-mantle.xmf,228,-1.19338e-06,6.8808e-06,0,-3.6512e-07,-1.50678e+09,-1.5057e+09,-1.50662e+09,-48798.3,-0.0255477,0.0558615,-0,0.0614263,9213.73,-52614.6,0,53415.2,48798.3
step02_gravity_refstate-mantle.xmf,229,-2.38921e-06,1.18877e-05,0,-5.78542e-06,-1.55343e+09,-1.55153e+09,-1.55311e+09,-773221,-0.0315547,0.0954215,-0,0.100504,5232.25,-54060.5,0,54313.1,773221
step02_gravity_refstate-mantle.xmf,230,-2.19793e-06,1.29711e-05,0,-5.578e-06,-1.57242e+09,-1.57039e+09,-1.57213e+09,-745500,-0.0367443,0.0884676,-0,0.0957949,5211.36,-54651.1,0,54899,745500
step02_gravity_refstate-mantle.xmf,231,6.01175e-07,8.94984e-06,0,-6.98861e-07,-1.65837e+09,-1.65726e+09,-1.65845e+09,-93402.7,-0.0534547,0.0252501,-0,0.0591183,8396.45,-57314.6,0,57926.4,93402.7
step02_gravity_refstate-mantle.xmf,232,1.95635e-07,9.76103e-06,0,-1.16852e-06,-1.64769e+09,-1.64641e+09,-1.64772e+09,-156172,-0.0524894,0.0315351,-0,0.061234,7805.38,-56983.9,0,57516,156172
step02_gravity_refstate-mantle.xmf,233,-2.33292e-07,1.06181e-05,0,-1.77406e-06,-1.63705e+09,-1.6356e+09,-1.63702e+09,-237103,-0.051132,0.0389113,-0,0.064254,7224.26,-56654.5,0,57113.3,237103
step02_gravity_refstate-mantle.xmf,234,-7.47293e-07,1.16639e-05,0,-2.63147e-06,-1.62671e+09,-1.62505e+09,-1.62661e+09,-351696,-0.0493732,0.0480109,-0,0.0688677,6594.11,-56334.4,0,56719,351696
step02_gravity_refstate-mantle.xmf,235,1.01237e-06,8.38546e-06,0,-2.51379e-07,-1.69774e+09,-1.69676e+09,-1.69788e+09,-33596.8,-0.0560927,0.012527,-0,0.0574744,9014.4,-58532,0,59222,33596.8
step02_gravity_refstate-mantle.xmf,236,1.24238e-06,7.98445e-06,0,-7.60582e-08,-1.72294e+09,-1.72204e+09,-1.72311e+09,-10165.2,-0.0566997,0.00553512,-0,0.0569693,9385.45,-59311,0,60049,10165.2
step02_gravity_refstate-mantle.xmf,237,1.49756e-06,7.44892e-06,0,3.02222e-09,-1.74524e+09,-1.74444e+09,-1.74544e+09,403.92,-0.0563838,-5.23618e-19,-0,0.0563838,9827.13,-60000,0,60799.4,403.92
step02_gravity_refstate-mantle.xmf,238,-1.8474e-06,7.63906e-06,0,-1.38332e-06,-1.50423e+09,-1.50296e+09,-1.50398e+09,-184881,-0.0229133,0.0689457,-0,0.0726534,7886.23,-52533.3,0,53121.9,184881
step02_gravity_refstate-mantle.xmf,239,-2.41756e-06,9.71442e-06,0,-4.7933e-06,-1.52498e+09,-1.52335e+09,-1.52465e+09,-640625,-0.0241386,0.0955783,-0,0.0985793,5694.48,-53175.7,0,53479.8,640625
step02_gravity_refstate-mantle.xmf,240,-2.32366e-06,8.29534e-06,0,-2.82002e-06,-1.50511e+09,-1.50369e+09,-1.5048e+09,-376896,-0.0207526,0.0833747,-0,0.0859187,6739.7,-52559,0,52989.3,376896
step02_gravity_refstate-mantle.xmf,241,-2.34089e-06,8.89718e-06,0,-3.68176e-06,-1.51508e+09,-1.51358e+09,-1.51477e+09,-492068,-0.022388,0.0891358,-0,0.0919043,6207.18,-52868.4,0,53231.5,492068
step02_gravity_refstate-mantle.xmf,242,5.82369e-07,2.15322e-06,0,1.86422e-09,-1.31631e+09,-1.3161e+09,-1.31639e+09,249.154,-7.51289e-22,0.0282485,-0,0.0282485,40000,-46730.8,0,61512.3,249.154
step02_gravity_refstate-mantle.xmf,243,6.0699e-07,2.16949e-06,0,1.36711e-07,-1.32968e+09,-1.32948e+09,-1.32977e+09,18271.5,-0.00217186,0.0275153,-0,0.0276008,36489.3,-47144.1,0,59615.7,18271.5
step02_gravity_refstate-mantle.xmf,244,7.00927e-08,4.39902e-06,0,7.49629e-07,-1.47942e+09,-1.47884e+09,-1.47943e+09,100188,-0.0235178,0.0337584,-0,0.0411426,14654.5,-51771.4,0,53805.5,100188
step02_gravity_refstate-mantle.xmf,245,5.11999e-07,3.6784e-06,0,8.28321e-07,-1.48118e+09,-1.48076e+09,-1.48125e+09,110705,-0.0229858,0.0277824,-0,0.0360584,17105.1,-51827,0,54576.7,110705
step02_gravity_refstate-mantle.xmf,246,7.3538e-07,3.39299e-06,0,8.40863e-07,-1.48904e+09,-1.48868e+09,-1.48914e+09,112381,-0.0230611,0.0249781,-0,0.0339959,18274.6,-52070.5,0,55184.2,112381
step02_gravity_refstate-mantle.xmf,247,3.3981e-07,3.8978e-06,0,8.01184e-07,-1.47547e+09,-1.475e+09,-1.47552e+09,107078,-0.022685,0.0300961,-0,0.037688,16295.8,-51650.2,0,54159.9,107078
step02_gravity_refstate-mantle.xmf,248,6.74759e-07,2.26144e-06,0,3.45305e-07,-1.36744e+09,-1.36723e+09,-1.36753e+09,46150,-0.00609771,0.0257443,-0,0.0264565,31536.2,-48311.1,0,57693.1,46150
step02_gravity_refstate-mantle.xmf,249,8.66671e-07,2.34748e-06,0,4.85972e-07,-1.42899e+09,-1.42879e+09,-1.42911e+09,64950.1,-0.0106739,0.0222988,-0,0.0247218,28318,-50213.8,0,57648.4,64950.1
step02_gravity_refstate-mantle.xmf,250,7.64008e-07,2.29871e-06,0,4.16419e-07,-1.39746e+09,-1.39726e+09,-1.39757e+09,55654.4,-0.0081699,0.0240484,-0,0.0253983,29959.9,-49239.2,0,57637.6,55654.4
step02_gravity_refstate-mantle.xmf,251,7.19332e-07,3.18572e-06,0,7.99274e-07,-1.4723e+09,-1.47197e+09,-1.4724e+09,106823,-0.0206099,0.0249682,-0,0.0323757,19520.3,-51552.9,0,55124.8,106823
step02_gravity_refstate-mantle.xmf,252,9.07991e-07,2.51503e-06,0,6.06607e-07,-1.45323e+09,-1.45301e+09,-1.45335e+09,81073.1,-0.0145237,0.021788,-0,0.026185,25236.9,-50963.2,0,56869.6,81073.1
step02_gravity_refstate-mantle.xmf,253,-1.14698e-06,6.43521e-06,0,-1.16179e-07,-1.49463e+09,-1.49362e+09,-1.49448e+09,-15527.3,-0.0237928,0.0528464,-0,0.0579555,9951.27,-52238.4,0,53177.8,15527.3
step02_gravity_refstate-mantle.xmf,254,-2.60186e-06,1.07833e-05,0,-6.03373e-06,-1.53464e+09,-1.53286e+09,-1.5343e+09,-806408,-0.0259607,0.101845,-0,0.105102,5242.68,-53475.9,0,53732.3,806408
step02_gravity_refstate-mantle.xmf,255,-2.86026e-06,1.3512e-05,0,-6.94256e-06,-1.56304e+09,-1.56085e+09,-1.56265e+09,-927873,-0.0332464,0.100325,-0,0.10569,4836.11,-54358.2,0,54572.9,927873
step02_gravity_refstate-mantle.xmf,256,-2.12673e-06,1.40801e-05,0,-5.46284e-06,-1.59082e+09,-1.58866e+09,-1.59054e+09,-730109,-0.0410485,0.0815136,-0,0.0912658,5168.61,-55222.9,0,55464.2,730109
step02_gravity_refstate-mantle.xmf,257,-2.79423e-06,1.4941e-05,0,-6.65838e-06,-1.58156e+09,-1.57919e+09,-1.58119e+09,-889893,-0.038032,0.0926872,-0,0.100187,4809.02,-54934.6,0,55144.7,889893
step02_gravity_refstate-mantle.xmf,258,-1.54589e-06,1.31007e-05,0,-4.45932e-06,-1.59958e+09,-1.59762e+09,-1.59937e+09,-595988,-0.04367,0.0705034,-0,0.0829325,5612.42,-55494.6,0,55777.7,595988
step02_gravity_refstate-mantle.xmf,259,-1.09623e-06,1.22136e-05,0,-3.38579e-06,-1.61146e+09,-1.60968e+09,-1.61131e+09,-452511,-0.0465332,0.0587711,-0,0.0749626,6130.65,-55862.4,0,56197.8,452511
step02_gravity_refstate-mantle.xmf,260,5.67253e-07,9.27109e-06,0,-5.92981e-07,-1.68183e+09,-1.68066e+09,-1.6819e+09,-79251.9,-0.0555499,0.0187057,-0,0.0586148,8381.85,-58039.6,0,58641.8,79251.9
step02_gravity_refstate-mantle.xmf,261,-2.31682e-06,7.82716e-06,0,-2.16903e-06,-1.49492e+09,-1.49357e+09,-1.49461e+09,-289891,-0.0192363,0.0783537,-0,0.0806805,7286.86,-52243.2,0,52748.9,289891
step02_gravity_refstate-mantle.xmf,262,4.47906e-07,2.17476e-06,0,7.44884e-08,-1.2766e+09,-1.27637e+09,-1.27666e+09,9955.37,-0.000937229,0.0309642,-0,0.0309783,37937.2,-45503.4,0,59243.5,9955.37
step02_gravity_refstate-mantle.xmf,263,5.87982e-07,2.23053e-06,0,2.68196e-07,-1.33771e+09,-1.33749e+09,-1.33779e+09,35844.4,-0.00430313,0.0274442,-0,0.0277795,33172.8,-47391.9,0,57848.3,35844.4
step02_gravity_refstate-mantle.xmf,264,5.02718e-07,2.21015e-06,0,1.97352e-07,-1.30406e+09,-1.30384e+09,-1.30413e+09,26376,-0.00278272,0.029468,-0,0.0295991,34736.4,-46352.1,0,57923.5,26376
step02_gravity_refstate-mantle.xmf,265,4.87972e-08,4.1421e-06,0,7.20964e-07,-1.46209e+09,-1.46154e+09,-1.4621e+09,96356.8,-0.0211995,0.0335825,-0,0.039714,15542.9,-51235.4,0,53541.1,96356.8
step02_gravity_refstate-mantle.xmf,266,-6.76191e-07,5.79313e-06,0,3.22077e-07,-1.49525e+09,-1.49439e+09,-1.49516e+09,43045.5,-0.0250647,0.0450291,-0,0.051535,11204.9,-52259.2,0,53447,43045.5
step02_gravity_refstate-mantle.xmf,267,-4.0893e-07,5.41981e-06,0,5.15182e-07,-1.49535e+09,-1.49458e+09,-1.4953e+09,68854,-0.0255257,0.0410084,-0,0.0483037,12013.4,-52263.2,0,53626.1,68854
step02_gravity_refstate-mantle.xmf,268,-3.57984e-07,5.04394e-06,0,5.69728e-07,-1.48045e+09,-1.47973e+09,-1.4804e+09,76144.1,-0.0234186,0.0395548,-0,0.0459675,12918.4,-51802.1,0,53388.6,76144.1
step02_gravity_refstate-mantle.xmf,269,-3.37049e-07,4.72063e-06,0,5.77142e-07,-1.46339e+09,-1.46271e+09,-1.46334e+09,77135,-0.0211352,0.0388081,-0,0.0441901,13794.6,-51274.4,0,53097.6,77135
step02_gravity_refstate-mantle.xmf,270,1.31754e-07,3.86405e-06,0,7.27893e-07,-1.44915e+09,-1.44865e+09,-1.44917e+09,97282.9,-0.0195432,0.0325616,-0,0.0379762,16604.9,-50835.5,0,53478.7,97282.9
step02_gravity_refstate-mantle.xmf,271,8.80149e-07,2.83491e-06,0,7.32995e-07,-1.47367e+09,-1.4734e+09,-1.47378e+09,97964.8,-0.0188729,0.0224252,-0,0.02931,21811.4,-51595.2,0,56016.1,97964.8
step02_gravity_refstate-mantle.xmf,272,6.48678e-07,3.02933e-06,0,7.4788e-07,-1.45129e+09,-1.45097e+09,-1.45138e+09,99954.1,-0.0180313,0.0255793,-0,0.0312958,20681,-50903,0,54943.7,99954.1
step02_gravity_refstate-mantle.xmf,273,6.96754e-07,2.53594e-06,0,5.83782e-07,-1.41009e+09,-1.40984e+09,-1.41018e+09,78022.5,-0.0119059,0.0249522,-0,0.0276471,25607.5,-49629.3,0,55846.3,78022.5
step02_gravity_refstate-mantle.xmf,274,7.45301e-07,2.62899e-06,0,6.38744e-07,-1.42991e+09,-1.42966e+09,-1.43001e+09,85368.1,-0.0140122,0.0242379,-0,0.0279967,24246,-50242.2,0,55786.6,85368.1
step02_gravity_refstate-mantle.xmf,275,8.15599e-07,2.72389e-06,0,6.89225e-07,-1.45179e+09,-1.45154e+09,-1.4519e+09,92115,-0.0163386,0.0233153,-0,0.0284702,23026.2,-50918.8,0,55883.1,92115
step02_gravity_refstate-mantle.xmf,276,-1.11519e-06,6.05929e-06,0,2.89913e-08,-1.48231e+09,-1.48135e+09,-1.48216e+09,3874.69,-0.0221026,0.0506543,-0,0.0552665,10644.5,-51857.2,0,52938.4,3874.69
step02_gravity_refstate-mantle.xmf,277,-1.80909e-06,7.17914e-06,0,-9.63593e-07,-1.49305e+09,-1.49185e+09,-1.49281e+09,-128784,-0.0213359,0.0648962,-0,0.0683135,8528.34,-52187.2,0,52879.5,128784
step02_gravity_refstate-mantle.xmf,278,-1.70409e-06,6.73809e-06,0,-6.33238e-07,-1.48138e+09,-1.48026e+09,-1.48116e+09,-84632.2,-0.0199442,0.0609398,-0,0.0641204,9249.12,-51826.3,0,52645.2,84632.2
step02_gravity_refstate-mantle.xmf,279,-3.04417e-06,1.24182e-05,0,-7.68926e-06,-1.54395e+09,-1.54189e+09,-1.54355e+09,-1.02767e+06,-0.0274341,0.109937,-0,0.113308,4757.6,-53764.7,0,53974.8,1.02767e+06
step02_gravity_refstate-mantle.xmf,280,-2.788e-06,1.59366e-05,0,-6.42048e-06,-1.59825e+09,-1.59575e+09,-1.59788e+09,-858097,-0.0416082,0.0851103,-0,0.0947365,4787.4,-55452.7,0,55658.9,858097
step02_gravity_refstate-mantle.xmf,281,9.74984e-08,1.01971e-05,0,-1.04655e-06,-1.66969e+09,-1.66834e+09,-1.6697e+09,-139871,-0.0547525,0.0248906,-0,0.0601446,7780.14,-57663.9,0,58186.3,139871
step02_gravity_refstate-mantle.xmf,282,-1.55863e-06,1.34034e-05,0,-3.5876e-06,-1.6287e+09,-1.6267e+09,-1.62849e+09,-479482,-0.0488778,0.054283,-0,0.0730458,5933.83,-56394.9,0,56706.2,479482
step02_gravity_refstate-mantle.xmf,283,-3.9617e-07,1.11637e-05,0,-1.63232e-06,-1.65824e+09,-1.6567e+09,-1.65819e+09,-218160,-0.0535737,0.0319439,-0,0.0623743,7201.21,-57309.5,0,57760.1,218160
step02_gravity_refstate-mantle.xmf,284,-9.06877e-07,1.21628e-05,0,-2.3505e-06,-1.64737e+09,-1.64563e+09,-1.64725e+09,-314144,-0.0520524,0.0398869,-0,0.0655776,6651.28,-56972.9,0,57359.8,314144
step02_gravity_refstate-mantle.xmf,285,4.59645e-07,9.59956e-06,0,-4.45693e-07,-1.70323e+09,-1.70201e+09,-1.70329e+09,-59566.9,-0.0568871,0.0126608,-0,0.058279,8316.13,-58701,0,59287.1,59566.9
step02_gravity_refstate-mantle.xmf,286,6.96769e-07,9.19005e-06,0,-1.96986e-07,-1.72236e+09,-1.72122e+09,-1.72245e+09,-26327.1,-0.0574324,0.00655284,-0,0.057805,8612.75,-59292.3,0,59914.5,26327.1
step02_gravity_refstate-mantle.xmf,287,9.82707e-07,8.64736e-06,0,5.11379e-09,-1.74525e+09,-1.74423e+09,-1.74538e+09,683.458,-0.0574217,-6.20581e-19,-0,0.0574217,8990.76,-60000,0,60669.9,683.458
step02_gravity_refstate-mantle.xmf,288,-2.3691e-06,7.37635e-06,0,-1.7456e-06,-1.48127e+09,-1.47997e+09,-1.48096e+09,-233299,-0.0170651,0.0746758,-0,0.0766009,7852.76,-51820.1,0,52411.7,233299
step02_gravity_refstate-mantle.xmf,289,-2.79875e-06,9.58708e-06,0,-6.25694e-06,-1.51557e+09,-1.51392e+09,-1.5152e+09,-836240,-0.0200604,0.107777,-0,0.109628,5248,-52882.4,0,53142.1,836240
step02_gravity_refstate-mantle.xmf,290,-2.75409e-06,7.83459e-06,0,-3.09776e-06,-1.48598e+09,-1.48456e+09,-1.48561e+09,-414015,-0.015409,0.0882509,-0,0.0895861,6734.5,-51964,0,52398.5,414015
step02_gravity_refstate-mantle.xmf,291,-2.75192e-06,8.8002e-06,0,-5.0095e-06,-1.50557e+09,-1.50403e+09,-1.5052e+09,-669520,-0.0182185,0.101143,-0,0.102771,5695.9,-52571.7,0,52879.3,669520
step02_gravity_refstate-mantle.xmf,292,-2.76026e-06,8.23703e-06,0,-3.92874e-06,-1.4954e+09,-1.49393e+09,-1.49503e+09,-525076,-0.0165933,0.0944503,-0,0.0958968,6203.18,-52256,0,52622.9,525076
step02_gravity_refstate-mantle.xmf,293,3.58193e-07,2.16982e-06,0,2.3275e-10,-1.24435e+09,-1.24411e+09,-1.2444e+09,31.107,-2.89781e-19,0.0330605,-0,0.0330605,40000,-44506.4,0,59840,31.107
step02_gravity_refstate-mantle.xmf,294,4.22357e-07,2.19574e-06,0,1.3522e-07,-1.27394e+09,-1.2737e+09,-1.274e+09,18072.1,-0.00171791,0.0313211,-0,0.0313682,36089.8,-45421,0,58013.3,18072.1
step02_gravity_refstate-mantle.xmf,295,-3.10079e-07,4.43103e-06,0,5.68182e-07,-1.44606e+09,-1.44543e+09,-1.44602e+09,75937.5,-0.0189917,0.0382758,-0,0.0427284,14668.2,-50738.7,0,52816.4,75937.5
step02_gravity_refstate-mantle.xmf,296,3.73005e-07,3.59365e-06,0,7.76194e-07,-1.45817e+09,-1.45773e+09,-1.45822e+09,103738,-0.020281,0.0293856,-0,0.0357048,17633,-51114.9,0,54070.9,103738
step02_gravity_refstate-mantle.xmf,297,4.5122e-07,2.29542e-06,0,3.12318e-07,-1.30929e+09,-1.30904e+09,-1.30935e+09,41741.4,-0.00441376,0.0298323,-0,0.0301571,31564.1,-46513.3,0,56211.9,41741.4
step02_gravity_refstate-mantle.xmf,298,5.22533e-07,2.33958e-06,0,3.87949e-07,-1.33897e+09,-1.33873e+09,-1.33904e+09,51849.4,-0.00611648,0.0282336,-0,0.0288885,29986.3,-47430.8,0,56114.7,51849.4
step02_gravity_refstate-mantle.xmf,299,6.77607e-07,2.44557e-06,0,5.23522e-07,-1.39463e+09,-1.3944e+09,-1.39472e+09,69968.7,-0.0100803,0.0253205,-0,0.0272533,27142.4,-49151.5,0,56147.9,69968.7
step02_gravity_refstate-mantle.xmf,300,6.00782e-07,2.38969e-06,0,4.59777e-07,-1.36809e+09,-1.36785e+09,-1.36817e+09,61449.2,-0.00805128,0.0266891,-0,0.0278771,28500.9,-48331,0,56108.7,61449.2
step02_gravity_refstate-mantle.xmf,301,4.19214e-07,3.41797e-06,0,7.67127e-07,-1.44911e+09,-1.44871e+09,-1.44917e+09,102526,-0.0190092,0.0288061,-0,0.0345129,18516.4,-50835.2,0,54102.4,102526
step02_gravity_refstate-mantle.xmf,302,3.97691e-07,3.23851e-06,0,7.26235e-07,-1.43005e+09,-1.42967e+09,-1.4301e+09,97061.4,-0.016772,0.0290638,-0,0.033556,19595,-50245.6,0,53931.3,97061.4
step02_gravity_refstate-mantle.xmf,303,-1.60004e-06,6.32547e-06,0,-3.98789e-07,-1.46883e+09,-1.46777e+09,-1.46862e+09,-53298.1,-0.0185435,0.0576597,-0,0.0605682,9992.15,-51438.2,0,52399.7,53298.1
step02_gravity_refstate-mantle.xmf,304,-1.02772e-06,5.71555e-06,0,1.42369e-07,-1.47097e+09,-1.47007e+09,-1.47083e+09,19027.6,-0.0207265,0.0486125,-0,0.0528465,11342.2,-51506.5,0,52740.5,19027.6
step02_gravity_refstate-mantle.xmf,305,-2.97873e-06,1.07347e-05,0,-7.58094e-06,-1.52569e+09,-1.52385e+09,-1.52529e+09,-1.01319e+06,-0.0220991,0.113939,-0,0.116062,4857.81,-53196.5,0,53417.8,1.01319e+06
step02_gravity_refstate-mantle.xmf,306,-3.71372e-06,1.60052e-05,0,-8.30745e-06,-1.57423e+09,-1.5716e+09,-1.57374e+09,-1.11029e+06,-0.0348939,0.105272,-0,0.110905,4416.8,-54704.7,0,54882.7,1.11029e+06
step02_gravity_refstate-mantle.xmf,307,-3.66235e-06,1.45034e-05,0,-8.97683e-06,-1.55748e+09,-1.55505e+09,-1.55699e+09,-1.19975e+06,-0.0302375,0.113658,-0,0.117611,4401.87,-54183.8,0,54362.3,1.19975e+06
step02_gravity_refstate-mantle.xmf,308,-3.69131e-06,1.74741e-05,0,-7.7104e-06,-1.59119e+09,-1.58836e+09,-1.5907e+09,-1.0305e+06,-0.0389584,0.0963715,-0,0.103948,4418.05,-55232.4,0,55408.8,1.0305e+06
step02_gravity_refstate-mantle.xmf,309,-2.59878e-06,1.56205e-05,0,-5.63684e-06,-1.61119e+09,-1.60875e+09,-1.61084e+09,-753364,-0.0445102,0.0744001,-0,0.0866979,5037.57,-55852.7,0,56079.4,753364
step02_gravity_refstate-mantle.xmf,310,-1.7662e-06,1.37519e-05,0,-4.25056e-06,-1.61588e+09,-1.6138e+09,-1.61564e+09,-568088,-0.0465263,0.0635021,-0,0.0787224,5628.07,-55998.4,0,56280.5,568088
step02_gravity_refstate-mantle.xmf,311,-1.51989e-06,1.33395e-05,0,-3.05217e-06,-1.64291e+09,-1.64093e+09,-1.64271e+09,-407922,-0.0509452,0.0461042,-0,0.0687096,6152.17,-56834.1,0,57166.1,407922
step02_gravity_refstate-mantle.xmf,312,-3.36184e-08,1.05861e-05,0,-8.15116e-07,-1.69261e+09,-1.69119e+09,-1.69261e+09,-108940,-0.0564318,0.0176219,-0,0.0591192,7758.45,-58372.2,0,58885.6,108940
step02_gravity_refstate-mantle.xmf,313,-2.72286e-06,7.54194e-06,0,-2.54338e-06,-1.47788e+09,-1.47651e+09,-1.47752e+09,-339923,-0.0145827,0.083365,-0,0.0846308,7215.3,-51713.3,0,52214.2,339923
step02_gravity_refstate-mantle.xmf,314,3.65458e-07,2.25993e-06,0,2.32526e-07,-1.27573e+09,-1.27548e+09,-1.27578e+09,31077.1,-0.00291686,0.03175,-0,0.0318837,33153.8,-45476,0,56278.3,31077.1
step02_gravity_refstate-mantle.xmf,315,1.54267e-07,2.17385e-06,0,7.98273e-10,-1.17183e+09,-1.17156e+09,-1.17185e+09,106.689,-4.74757e-22,0.0379347,-0,0.0379347,40000,-42265,0,58192.2,106.689
step02_gravity_refstate-mantle.xmf,316,2.29637e-07,2.18078e-06,0,4.53341e-08,-1.20256e+09,-1.2023e+09,-1.20259e+09,6058.91,-0.000409818,0.0359305,-0,0.0359329,38257.8,-43214.6,0,57716.2,6058.91
step02_gravity_refstate-mantle.xmf,317,2.93424e-07,2.23209e-06,0,1.64586e-07,-1.24163e+09,-1.24137e+09,-1.24167e+09,21997,-0.00176468,0.0337678,-0,0.0338139,34663.9,-44422.2,0,56346.4,21997
step02_gravity_refstate-mantle.xmf,318,2.46103e-07,2.20286e-06,0,9.92647e-08,-1.21642e+09,-1.21615e+09,-1.21645e+09,13266.7,-0.000964427,0.035193,-0,0.0352062,36382.4,-43642.9,0,56818.9,13266.7
step02_gravity_refstate-mantle.xmf,319,-2.82716e-07,4.16267e-06,0,5.50503e-07,-1.42848e+09,-1.42788e+09,-1.42844e+09,73574.7,-0.0169801,0.0378296,-0,0.0414657,15569,-50195,0,52554.1,73574.7
step02_gravity_refstate-mantle.xmf,320,-7.00071e-07,4.71089e-06,0,3.39537e-07,-1.43108e+09,-1.43035e+09,-1.43098e+09,45379.2,-0.0164753,0.0434667,-0,0.0464843,13810.4,-50273.9,0,52136.3,45379.2
step02_gravity_refstate-mantle.xmf,321,-8.7417e-07,5.36408e-06,0,2.64592e-07,-1.4614e+09,-1.46056e+09,-1.46128e+09,35362.7,-0.0198254,0.046078,-0,0.050162,12141.2,-51210.9,0,52630.4,35362.7
step02_gravity_refstate-mantle.xmf,322,-7.78301e-07,5.02635e-06,0,3.18396e-07,-1.44732e+09,-1.44654e+09,-1.44721e+09,42553.6,-0.018251,0.0445197,-0,0.0481155,12966.8,-50775.8,0,52405.4,42553.6
step02_gravity_refstate-mantle.xmf,323,9.79562e-08,3.65349e-06,0,6.78183e-07,-1.42853e+09,-1.42805e+09,-1.42854e+09,90639.1,-0.0171436,0.0328751,-0,0.0370766,17549.3,-50197.8,0,53177,90639.1
step02_gravity_refstate-mantle.xmf,324,5.86634e-07,2.89619e-06,0,6.98452e-07,-1.42885e+09,-1.42854e+09,-1.42893e+09,93348.2,-0.0155495,0.0263626,-0,0.0306067,21847.9,-50208.9,0,54756.4,93348.2
step02_gravity_refstate-mantle.xmf,325,3.44728e-07,3.08253e-06,0,6.73329e-07,-1.40754e+09,-1.40717e+09,-1.40758e+09,89990.4,-0.0144049,0.0296878,-0,0.032998,20702.7,-49549.5,0,53700.6,89990.4
step02_gravity_refstate-mantle.xmf,326,4.52255e-07,2.57592e-06,0,5.39707e-07,-1.36179e+09,-1.36151e+09,-1.36185e+09,72131.9,-0.00923229,0.0287174,-0,0.0301649,25687.5,-48135.9,0,54561.1,72131.9
step02_gravity_refstate-mantle.xmf,327,4.86541e-07,2.67388e-06,0,5.96118e-07,-1.38288e+09,-1.38259e+09,-1.38295e+09,79671.2,-0.0110958,0.0280452,-0,0.0301604,24311.1,-48787.8,0,54509.4,79671.2
step02_gravity_refstate-mantle.xmf,328,5.37461e-07,2.77877e-06,0,6.50456e-07,-1.40561e+09,-1.40531e+09,-1.40569e+09,86933.4,-0.0132091,0.027221,-0,0.0302566,23053.7,-49490.7,0,54596.7,86933.4
step02_gravity_refstate-mantle.xmf,329,-1.50066e-06,5.96263e-06,0,-2.49145e-07,-1.45638e+09,-1.45539e+09,-1.45618e+09,-33298.2,-0.0172316,0.0551473,-0,0.0577767,10697.6,-51053.4,0,52162.2,33298.2
step02_gravity_refstate-mantle.xmf,330,-2.24832e-06,6.94777e-06,0,-1.26312e-06,-1.46974e+09,-1.46851e+09,-1.46944e+09,-168816,-0.0160089,0.0695476,-0,0.0713663,8575.86,-51463.4,0,52173.1,168816
step02_gravity_refstate-mantle.xmf,331,-2.10735e-06,6.53218e-06,0,-9.60485e-07,-1.45606e+09,-1.45491e+09,-1.45578e+09,-128369,-0.0146852,0.0655454,-0,0.0671703,9320.7,-51040.9,0,51884.9,128369
step02_gravity_refstate-mantle.xmf,332,-3.0077e-06,9.05812e-06,0,-7.83018e-06,-1.50543e+09,-1.50382e+09,-1.50503e+09,-1.0465e+06,-0.0157396,0.120212,-0,0.121238,4855.41,-52566.2,0,52790,1.0465e+06
step02_gravity_refstate-mantle.xmf,333,-3.35651e-06,1.16968e-05,0,-9.62303e-06,-1.52981e+09,-1.52779e+09,-1.52936e+09,-1.28612e+06,-0.0219514,0.124751,-0,0.126668,4408.77,-53323.7,0,53505.6,1.28612e+06
step02_gravity_refstate-mantle.xmf,334,-3.63692e-06,1.33264e-05,0,-9.81222e-06,-1.54367e+09,-1.54141e+09,-1.54319e+09,-1.3114e+06,-0.0258841,0.121864,-0,0.124583,4323.7,-53754.4,0,53928,1.3114e+06
step02_gravity_refstate-mantle.xmf,335,-5.10452e-06,1.93845e-05,0,-9.98588e-06,-1.58377e+09,-1.58049e+09,-1.58309e+09,-1.33461e+06,-0.0354182,0.111062,-0,0.116573,4000,-54998.6,0,55143.8,1.33461e+06
step02_gravity_refstate-mantle.xmf,336,-3.34471e-06,1.80323e-05,0,-7.36272e-06,-1.60637e+09,-1.60351e+09,-1.60592e+09,-984028,-0.0419458,0.0870623,-0,0.0966401,4460.59,-55705,0,55883.3,984028
step02_gravity_refstate-mantle.xmf,337,-2.48969e-06,1.53245e-05,0,-4.58112e-06,-1.62963e+09,-1.62725e+09,-1.62929e+09,-612266,-0.0478424,0.0607857,-0,0.077355,5367.79,-56422.3,0,56677,612266
step02_gravity_refstate-mantle.xmf,338,-6.02574e-07,1.16662e-05,0,-1.35609e-06,-1.68011e+09,-1.67847e+09,-1.68003e+09,-181241,-0.0554225,0.0243576,-0,0.0605388,7179.74,-57984.9,0,58427.8,181241
step02_gravity_refstate-mantle.xmf,339,-2.30926e-06,1.48856e-05,0,-3.68606e-06,-1.64505e+09,-1.64275e+09,-1.64474e+09,-492641,-0.0502574,0.0499643,-0,0.0708677,5678.34,-56898.8,0,57181.4,492641
step02_gravity_refstate-mantle.xmf,340,-1.85685e-06,1.40195e-05,0,-2.81923e-06,-1.6585e+09,-1.65637e+09,-1.65825e+09,-376790,-0.0523717,0.040045,-0,0.0659272,6094.96,-57314.9,0,57638.1,376790
step02_gravity_refstate-mantle.xmf,341,-1.21704e-06,1.28194e-05,0,-2.04397e-06,-1.66841e+09,-1.66653e+09,-1.66824e+09,-273177,-0.0540099,0.0320378,-0,0.0627972,6616.29,-57622.3,0,58000.9,273177
step02_gravity_refstate-mantle.xmf,342,-9.44386e-08,1.08013e-05,0,-4.25459e-07,-1.71945e+09,-1.718e+09,-1.71944e+09,-56862.7,-0.0575985,0.00868849,-0,0.0582501,7779.83,-59201.4,0,59710.4,56862.7
step02_gravity_refstate-mantle.xmf,343,2.91467e-07,1.0082e-05,0,9.48179e-09,-1.74528e+09,-1.74397e+09,-1.74532e+09,1267.24,-0.0579377,-8.2139e-19,-0,0.0579377,8185.04,-60000,0,60555.7,1267.24
step02_gravity_refstate-mantle.xmf,344,-2.99545e-06,8.37161e-06,0,-6.45713e-06,-1.4963e+09,-1.49478e+09,-1.4959e+09,-862996,-0.014068,0.113317,-0,0.114187,5241.25,-52282.5,0,52544.6,862996
step02_gravity_refstate-mantle.xmf,345,-2.88497e-06,7.20303e-06,0,-2.48115e-06,-1.46289e+09,-1.46154e+09,-1.4625e+09,-331606,-0.0115741,0.0834529,-0,0.0842517,7471.45,-51248.3,0,51790.1,331606
step02_gravity_refstate-mantle.xmf,346,-3.09744e-06,7.36631e-06,0,-3.34897e-06,-1.46722e+09,-1.46583e+09,-1.46681e+09,-447590,-0.0105844,0.0919533,-0,0.0925605,6782.89,-51381.2,0,51827,447590
step02_gravity_refstate-mantle.xmf,347,-3.1282e-06,7.5713e-06,0,-4.21603e-06,-1.47567e+09,-1.47424e+09,-1.47525e+09,-563473,-0.0110021,0.0993345,-0,0.0999419,6201.22,-51642.4,0,52013.4,563473
step02_gravity_refstate-mantle.xmf,348,-3.06493e-06,7.89529e-06,0,-5.22282e-06,-1.48607e+09,-1.4846e+09,-1.48566e+09,-698030,-0.0123841,0.106183,-0,0.106903,5697.2,-51964.8,0,52276.2,698030
step02_gravity_refstate-mantle.xmf,349,2.40823e-07,2.32181e-06,0,2.61606e-07,-1.25365e+09,-1.25338e+09,-1.25369e+09,34963.6,-0.00287553,0.0338241,-0,0.0339462,31496.4,-44793.5,0,54758.4,34963.6
step02_gravity_refstate-mantle.xmf,350,9.55907e-08,2.17393e-06,0,2.73724e-08,-1.15118e+09,-1.1509e+09,-1.15119e+09,3658.32,-0.000164081,0.0393806,-0,0.0393809,38368.7,-41626.7,0,56612.1,3658.32
step02_gravity_refstate-mantle.xmf,351,-1.08881e-08,2.13677e-06,0,-3.80939e-09,-1.09855e+09,-1.09826e+09,-1.09854e+09,-509.125,1.62625e-20,0.0428239,0,0.0428239,40000,-40000,0,56568.5,509.125
step02_gravity_refstate-mantle.xmf,352,-6.31295e-07,4.41876e-06,0,3.43584e-07,-1.41335e+09,-1.41268e+09,-1.41327e+09,45920,-0.0146353,0.042748,-0,0.0451839,14670.6,-49726.1,0,51845,45920
step02_gravity_refstate-mantle.xmf,353,-2.24703e-07,3.90401e-06,0,5.44773e-07,-1.41071e+09,-1.41015e+09,-1.41068e+09,72808.9,-0.0151045,0.0373292,-0,0.0402693,16545.2,-49645.7,0,52330.1,72808.9
step02_gravity_refstate-mantle.xmf,354,2.97671e-07,2.36965e-06,0,3.34599e-07,-1.28364e+09,-1.28336e+09,-1.28368e+09,44719.1,-0.00419548,0.0322573,-0,0.032529,29997.7,-45720.1,0,54682.6,44719.1
step02_gravity_refstate-mantle.xmf,355,3.48471e-07,2.42809e-06,0,4.07182e-07,-1.3105e+09,-1.31023e+09,-1.31055e+09,54419.9,-0.00567007,0.0309655,-0,0.0314804,28527.4,-46550.5,0,54596.4,54419.9
step02_gravity_refstate-mantle.xmf,356,4.0791e-07,2.49499e-06,0,4.77117e-07,-1.3383e+09,-1.33802e+09,-1.33835e+09,63766.6,-0.00743675,0.0296528,-0,0.0305712,27086.7,-47409.7,0,54601.9,63766.6
step02_gravity_refstate-mantle.xmf,357,1.14315e-07,3.45515e-06,0,6.5398e-07,-1.41045e+09,-1.41001e+09,-1.41047e+09,87404.4,-0.0151803,0.0328588,-0,0.0361959,18548.7,-49639.1,0,52991.4,87404.4
step02_gravity_refstate-mantle.xmf,358,1.02418e-07,3.27223e-06,0,6.14582e-07,-1.38881e+09,-1.38839e+09,-1.38883e+09,82138.9,-0.013023,0.0331845,-0,0.0356484,19614.5,-48970.1,0,52752.2,82138.9
step02_gravity_refstate-mantle.xmf,359,-1.95903e-06,6.16154e-06,0,-7.45355e-07,-1.44306e+09,-1.44198e+09,-1.4428e+09,-99616.7,-0.0135712,0.0623688,-0,0.0638283,10029.4,-50639.4,0,51623.1,99616.7
step02_gravity_refstate-mantle.xmf,360,-2.73968e-06,6.90561e-06,0,-1.99961e-06,-1.45305e+09,-1.45176e+09,-1.45268e+09,-267248,-0.011045,0.078267,-0,0.0790425,8087.91,-50944.6,0,51582.6,267248
step02_gravity_refstate-mantle.xmf,361,-1.37146e-06,5.6213e-06,0,-1.30432e-07,-1.44413e+09,-1.4432e+09,-1.44395e+09,-17432.2,-0.016075,0.0528892,-0,0.0552781,11418.9,-50674.9,0,51945.5,17432.2
step02_gravity_refstate-mantle.xmf,362,-3.16499e-06,9.92303e-06,0,-9.76324e-06,-1.51318e+09,-1.51143e+09,-1.51276e+09,-1.30486e+06,-0.0168356,0.129844,-0,0.130931,4424.94,-52806.9,0,52992,1.30486e+06
step02_gravity_refstate-mantle.xmf,363,-4.68037e-06,1.7291e-05,0,-1.08589e-05,-1.56766e+09,-1.56472e+09,-1.56703e+09,-1.45129e+06,-0.0313802,0.120229,-0,0.124257,4000,-54498.4,0,54645,1.45129e+06
step02_gravity_refstate-mantle.xmf,364,-4.29271e-06,1.51726e-05,0,-1.14543e-05,-1.55159e+09,-1.54899e+09,-1.55102e+09,-1.53086e+06,-0.0269234,0.128328,-0,0.131122,4000,-53999.3,0,54147.3,1.53086e+06
step02_gravity_refstate-mantle.xmf,365,-3.89197e-06,1.30479e-05,0,-1.18777e-05,-1.53549e+09,-1.53323e+09,-1.53497e+09,-1.58745e+06,-0.0221933,0.135382,-0,0.137189,4000,-53499.2,0,53648.6,1.58745e+06
step02_gravity_refstate-mantle.xmf,366,-5.32517e-06,2.14164e-05,0,-8.67842e-06,-1.59981e+09,-1.59623e+09,-1.5991e+09,-1.15987e+06,-0.0387707,0.100878,-0,0.108072,4000,-55497.8,0,55641.7,1.15987e+06
step02_gravity_refstate-mantle.xmf,367,-4.34677e-06,1.87414e-05,0,-6.53642e-06,-1.61999e+09,-1.61691e+09,-1.61941e+09,-873593,-0.0439229,0.0783454,-0,0.0898177,4520.15,-56121,0,56302.7,873593
step02_gravity_refstate-mantle.xmf,368,-8.34968e-07,1.21387e-05,0,-9.61014e-07,-1.70273e+09,-1.70099e+09,-1.70261e+09,-128440,-0.0566802,0.0162317,-0,0.0589585,7135.83,-58683.2,0,59115.5,128440
step02_gravity_refstate-mantle.xmf,369,-3.02327e-06,7.57432e-06,0,-8.04342e-06,-1.48735e+09,-1.48593e+09,-1.48694e+09,-1.075e+06,-0.0100898,0.125628,-0,0.126033,4826.55,-52003.8,0,52227.3,1.075e+06
step02_gravity_refstate-mantle.xmf,370,1.48505e-07,2.27945e-06,0,1.7926e-07,-1.21346e+09,-1.21318e+09,-1.21348e+09,23958.1,-0.00161554,0.036166,-0,0.0362021,32987,-43551.3,0,54633.9,23958.1
step02_gravity_refstate-mantle.xmf,371,8.38027e-08,2.19002e-06,0,5.58296e-08,-1.15479e+09,-1.1545e+09,-1.1548e+09,7461.63,-0.00032916,0.0393189,-0,0.0393203,36780,-41738,0,55631.2,7461.63
step02_gravity_refstate-mantle.xmf,372,-2.76546e-08,2.14952e-06,0,1.00715e-08,-1.09855e+09,-1.09826e+09,-1.09854e+09,1346.05,4.33639e-05,0.042963,0,0.0429631,37718.5,-40000,0,54978.9,1346.05
step02_gravity_refstate-mantle.xmf,373,7.25455e-08,2.23476e-06,0,1.0524e-07,-1.16809e+09,-1.1678e+09,-1.1681e+09,14065.4,-0.000645507,0.0388605,-0,0.0388658,34599.7,-42149.1,0,54531.5,14065.4
step02_gravity_refstate-mantle.xmf,374,-5.7608e-07,4.14258e-06,0,3.33483e-07,-1.39374e+09,-1.39311e+09,-1.39366e+09,44570,-0.0127179,0.0422899,-0,0.0441609,15570.4,-49119.8,0,51528.6,44570
step02_gravity_refstate-mantle.xmf,375,-9.87222e-07,4.64724e-06,0,6.80252e-08,-1.39926e+09,-1.39851e+09,-1.39913e+09,9091.57,-0.0120653,0.0480505,-0,0.0495422,13816.3,-49289,0,51188.9,9091.57
step02_gravity_refstate-mantle.xmf,376,-1.10481e-06,4.95848e-06,0,2.56411e-08,-1.41583e+09,-1.41502e+09,-1.41569e+09,3426.93,-0.0135254,0.0492967,-0,0.0511185,12986.6,-49800.9,0,51466.4,3426.93
step02_gravity_refstate-mantle.xmf,377,-1.23114e-06,5.28254e-06,0,-3.6601e-08,-1.43067e+09,-1.4298e+09,-1.43051e+09,-4891.72,-0.0148571,0.0508892,-0,0.0530137,12191.5,-50259.2,0,51716.8,4891.72
step02_gravity_refstate-mantle.xmf,378,-1.97192e-07,3.67583e-06,0,5.21617e-07,-1.39179e+09,-1.39127e+09,-1.39176e+09,69714.2,-0.0132293,0.0371116,-0,0.0393991,17517.8,-49060.9,0,52094.6,69714.2
step02_gravity_refstate-mantle.xmf,379,1.27083e-07,2.38094e-06,0,2.72902e-07,-1.23883e+09,-1.23853e+09,-1.23885e+09,36473.3,-0.00269231,0.0354975,-0,0.0355994,30102.7,-44335.1,0,53588.9,36473.3
step02_gravity_refstate-mantle.xmf,380,1.95769e-07,2.61108e-06,0,4.64282e-07,-1.31035e+09,-1.31003e+09,-1.31038e+09,62051.3,-0.00644338,0.032857,-0,0.0334828,25668.3,-46545.2,0,53153.7,62051.3
step02_gravity_refstate-mantle.xmf,381,2.86292e-07,2.94784e-06,0,6.20473e-07,-1.38174e+09,-1.38138e+09,-1.38178e+09,82926.2,-0.0119891,0.0306342,-0,0.0328967,21834.8,-48751.9,0,53418.2,82926.2
step02_gravity_refstate-mantle.xmf,382,5.97574e-08,3.11951e-06,0,5.62006e-07,-1.36448e+09,-1.36407e+09,-1.36448e+09,75112.1,-0.0108284,0.0339055,-0,0.0355927,20642.8,-48217.6,0,52450.5,75112.1
step02_gravity_refstate-mantle.xmf,383,2.2574e-07,2.71067e-06,0,5.21275e-07,-1.3345e+09,-1.33417e+09,-1.33453e+09,69668.4,-0.0081146,0.0320748,-0,0.0330853,24308.9,-47291.7,0,53173.6,69668.4
step02_gravity_refstate-mantle.xmf,384,2.5383e-07,2.82315e-06,0,5.72932e-07,-1.35724e+09,-1.35689e+09,-1.35727e+09,76572.3,-0.00989251,0.0314317,-0,0.0329517,23033.8,-47994.5,0,53235.6,76572.3
step02_gravity_refstate-mantle.xmf,385,-1.81528e-06,5.81303e-06,0,-5.96678e-07,-1.4295e+09,-1.42849e+09,-1.42926e+09,-79746.1,-0.012439,0.0598493,-0,0.0611283,10727.8,-50220.7,0,51353.7,79746.1
step02_gravity_refstate-mantle.xmf,386,-2.57352e-06,6.60945e-06,0,-1.62726e-06,-1.44318e+09,-1.44195e+09,-1.44283e+09,-217484,-0.0105731,0.0739115,-0,0.0746639,8699.33,-50640,0,51381.8,217484
step02_gravity_refstate-mantle.xmf,387,-2.39376e-06,6.27941e-06,0,-1.34714e-06,-1.43114e+09,-1.42998e+09,-1.43082e+09,-180046,-0.00985881,0.070146,-0,0.0708354,9360.64,-50268.5,0,51132.6,180046
step02_gravity_refstate-mantle.xmf,388,-2.97302e-06,8.11562e-06,0,-9.88405e-06,-1.49598e+09,-1.4945e+09,-1.49558e+09,-1.321e+06,-0.0115013,0.134803,-0,0.135293,4419.84,-52272.2,0,52458.7,1.321e+06
step02_gravity_refstate-mantle.xmf,389,-3.46799e-06,1.09129e-05,0,-1.21452e-05,-1.51941e+09,-1.51749e+09,-1.51894e+09,-1.62321e+06,-0.017341,0.141364,-0,0.142424,4000,-52999.8,0,53150.5,1.62321e+06
step02_gravity_refstate-mantle.xmf,390,-6.71354e-06,2.19785e-05,0,-7.54612e-06,-1.61632e+09,-1.61249e+09,-1.61542e+09,-1.00854e+06,-0.0408385,0.089679,-0,0.0985399,4000,-56000,0,56142.7,1.00854e+06
step02_gravity_refstate-mantle.xmf,391,-3.82982e-06,1.76845e-05,0,-5.47e-06,-1.63088e+09,-1.628e+09,-1.63036e+09,-731066,-0.0462281,0.0677175,-0,0.081992,4813.28,-56457.9,0,56662.7,731066
step02_gravity_refstate-mantle.xmf,392,-3.484e-06,1.70174e-05,0,-4.45044e-06,-1.64613e+09,-1.64339e+09,-1.64566e+09,-594801,-0.0487158,0.0556694,-0,0.0739751,5115.59,-56929.6,0,57158.9,594801
step02_gravity_refstate-mantle.xmf,393,-1.54166e-06,1.34059e-05,0,-1.60185e-06,-1.6897e+09,-1.6877e+09,-1.6895e+09,-214088,-0.0553583,0.0236839,-0,0.0602119,6570.67,-58279.4,0,58648.6,214088
step02_gravity_refstate-mantle.xmf,394,-3.17907e-06,1.63122e-05,0,-3.35942e-06,-1.66455e+09,-1.66195e+09,-1.66413e+09,-448986,-0.0512329,0.0427014,-0,0.066695,5461.16,-57499,0,57757.8,448986
step02_gravity_refstate-mantle.xmf,395,-2.32688e-06,1.4811e-05,0,-2.34017e-06,-1.67875e+09,-1.67646e+09,-1.67844e+09,-312763,-0.0536667,0.0315974,-0,0.0622777,6020.77,-57939.6,0,58251.6,312763
step02_gravity_refstate-mantle.xmf,396,-1.20008e-06,1.28129e-05,0,-5.17706e-07,-1.72497e+09,-1.7231e+09,-1.72481e+09,-69191.4,-0.0571955,0.00811609,-0,0.0577684,6956.93,-59369.6,0,59775.8,69191.4
step02_gravity_refstate-mantle.xmf,397,-5.93279e-07,1.1757e-05,0,7.9995e-09,-1.74533e+09,-1.74368e+09,-1.74525e+09,1069.13,-0.057815,-7.65111e-19,-0,0.057815,7406.53,-60000,0,60455.4,1069.13
step02_gravity_refstate-mantle.xmf,398,-3.14724e-06,6.74015e-06,0,-2.89285e-06,-1.43993e+09,-1.43861e+09,-1.43951e+09,-386629,-0.00647167,0.0879746,-0,0.0882123,7506.37,-50536.1,0,51090.5,386629
step02_gravity_refstate-mantle.xmf,399,-3.17907e-06,7.20676e-06,0,-6.65144e-06,-1.47726e+09,-1.47587e+09,-1.47684e+09,-888965,-0.00833463,0.118327,-0,0.118621,5223.67,-51690.3,0,51953.6,888965
step02_gravity_refstate-mantle.xmf,400,-3.31759e-06,6.84661e-06,0,-3.58886e-06,-1.44699e+09,-1.44563e+09,-1.44655e+09,-479651,-0.00599756,0.09501,-0,0.0951991,6878.43,-50753.4,0,51217.4,479651
step02_gravity_refstate-mantle.xmf,401,-3.43221e-06,6.88192e-06,0,-4.57696e-06,-1.45389e+09,-1.45251e+09,-1.45343e+09,-611711,-0.00532159,0.10429,-0,0.104425,6196.44,-50965.8,0,51341.1,611711
step02_gravity_refstate-mantle.xmf,402,-3.33175e-06,6.99671e-06,0,-5.5512e-06,-1.46641e+09,-1.46503e+09,-1.46596e+09,-741918,-0.00672361,0.111455,-0,0.111658,5660.88,-51353.4,0,51664.5,741918
step02_gravity_refstate-mantle.xmf,403,4.32862e-08,2.34235e-06,0,1.99793e-07,-1.20067e+09,-1.20036e+09,-1.20067e+09,26702.3,-0.00149461,0.0377765,-0,0.0378061,31170.9,-43155.4,0,53235.5,26702.3
step02_gravity_refstate-mantle.xmf,404,-8.87145e-07,4.35857e-06,0,9.30434e-08,-1.381e+09,-1.3803e+09,-1.38088e+09,12435.2,-0.0104887,0.0471905,-0,0.0483421,14657.5,-48724.8,0,50881.7,12435.2
step02_gravity_refstate-mantle.xmf,405,-5.10472e-07,3.88582e-06,0,3.35079e-07,-1.37355e+09,-1.37296e+09,-1.37348e+09,44783.4,-0.0109009,0.041893,-0,0.0432881,16514.3,-48496,0,51230.7,44783.4
step02_gravity_refstate-mantle.xmf,406,9.69712e-08,2.45281e-06,0,3.20828e-07,-1.24978e+09,-1.24946e+09,-1.24979e+09,42878.6,-0.00324765,0.0355247,-0,0.0356729,28566.3,-44673.1,0,53025.6,42878.6
step02_gravity_refstate-mantle.xmf,407,1.60903e-07,2.5261e-06,0,4.00557e-07,-1.28449e+09,-1.28418e+09,-1.28452e+09,53534.4,-0.0049038,0.0338368,-0,0.0341903,27074.3,-45746.1,0,53157.5,53534.4
step02_gravity_refstate-mantle.xmf,408,-1.65209e-07,3.46567e-06,0,5.05882e-07,-1.37149e+09,-1.371e+09,-1.37147e+09,67611.1,-0.0113623,0.0370371,-0,0.0387408,18545.2,-48433.5,0,51862.6,67611.1
step02_gravity_refstate-mantle.xmf,409,-1.55571e-07,3.2852e-06,0,4.79602e-07,-1.3501e+09,-1.34964e+09,-1.35008e+09,64098.7,-0.00954264,0.0372057,-0,0.0384099,19562.2,-47772.5,0,51622.6,64098.7
step02_gravity_refstate-mantle.xmf,410,-2.21092e-06,5.95214e-06,0,-1.13371e-06,-1.41826e+09,-1.41717e+09,-1.41796e+09,-151520,-0.00906316,0.0670751,-0,0.0676846,10022.6,-49870.9,0,50868.1,151520
step02_gravity_refstate-mantle.xmf,411,-2.96038e-06,6.52383e-06,0,-2.40987e-06,-1.43042e+09,-1.42915e+09,-1.43003e+09,-322079,-0.00637943,0.0826767,-0,0.0829225,8114.78,-50243.1,0,50894.2,322079
step02_gravity_refstate-mantle.xmf,412,-1.66698e-06,5.47683e-06,0,-4.86487e-07,-1.41483e+09,-1.41388e+09,-1.41461e+09,-65019,-0.0112401,0.0577878,-0,0.0588708,11441.5,-49767.6,0,51065.8,65019
step02_gravity_refstate-mantle.xmf,413,-2.80042e-06,6.41906e-06,0,-9.81082e-06,-1.4792e+09,-1.47797e+09,-1.47883e+09,-1.31122e+06,-0.0064959,0.138433,-0,0.138586,4424.61,-51750.7,0,51939.5,1.31122e+06
step02_gravity_refstate-mantle.xmf,414,-3.04362e-06,8.79583e-06,0,-1.22668e-05,-1.50332e+09,-1.50174e+09,-1.50292e+09,-1.63946e+06,-0.0124725,0.146285,-0,0.146816,4000,-52500.3,0,52652.5,1.63946e+06
step02_gravity_refstate-mantle.xmf,415,-5.49823e-06,2.05443e-05,0,-6.07124e-06,-1.6316e+09,-1.62812e+09,-1.63087e+09,-811422,-0.0437537,0.0753212,-0,0.0871072,4266.86,-56476.5,0,56637.5,811422
step02_gravity_refstate-mantle.xmf,416,-1.74108e-06,1.37032e-05,0,-1.04386e-06,-1.70954e+09,-1.70747e+09,-1.70931e+09,-139512,-0.0562103,0.015387,-0,0.0582783,6569.35,-58891.6,0,59256.8,139512
step02_gravity_refstate-mantle.xmf,417,-3.0392e-06,6.20077e-06,0,-8.15794e-06,-1.4699e+09,-1.46866e+09,-1.46949e+09,-1.09031e+06,-0.00491428,0.130052,-0,0.130145,4799.62,-51461.2,0,51684.5,1.09031e+06
step02_gravity_refstate-mantle.xmf,418,-5.66405e-08,2.2917e-06,0,1.11355e-07,-1.15434e+09,-1.15403e+09,-1.15434e+09,14882.7,-0.000439673,0.040565,-0,0.0405674,32380,-41723.7,0,52814.1,14882.7
step02_gravity_refstate-mantle.xmf,419,-7.28694e-08,2.18163e-06,0,1.91452e-08,-1.09856e+09,-1.09825e+09,-1.09855e+09,2558.76,0.000150657,0.0433666,0,0.0433668,35541.8,-40000,0,53509.1,2558.76
step02_gravity_refstate-mantle.xmf,420,-5.4328e-08,2.4139e-06,0,2.15773e-07,-1.19688e+09,-1.19655e+09,-1.19687e+09,28838.1,-0.00137546,0.0389492,-0,0.0389735,29473.8,-43037.9,0,52162.9,28838.1
step02_gravity_refstate-mantle.xmf,421,-8.1246e-07,4.07898e-06,0,9.46748e-08,-1.35916e+09,-1.3585e+09,-1.35905e+09,12653.3,-0.00863738,0.0467827,-0,0.0475733,15542.4,-48049.9,0,50501.1,12653.3
step02_gravity_refstate-mantle.xmf,422,-1.1958e-06,4.53191e-06,0,-2.1548e-07,-1.36808e+09,-1.36732e+09,-1.36792e+09,-28798.9,-0.00797893,0.0525285,-0,0.0531311,13804.8,-48324.2,0,50257.4,28798.9
step02_gravity_refstate-mantle.xmf,423,-1.33976e-06,4.83404e-06,0,-2.84433e-07,-1.38524e+09,-1.38442e+09,-1.38506e+09,-38014.4,-0.00919859,0.0539096,-0,0.0546887,12991.3,-48854.1,0,50551.9,38014.4
step02_gravity_refstate-mantle.xmf,424,-1.50913e-06,5.14705e-06,0,-3.88745e-07,-1.39968e+09,-1.39879e+09,-1.39948e+09,-51955.8,-0.0101085,0.0558855,-0,0.0567923,12192.9,-49299.6,0,50785,51955.8
step02_gravity_refstate-mantle.xmf,425,-4.53885e-07,3.65161e-06,0,3.33831e-07,-1.35351e+09,-1.35297e+09,-1.35345e+09,44616.5,-0.009252,0.0414893,-0,0.0425083,17502,-47876.9,0,50975.6,44616.5
step02_gravity_refstate-mantle.xmf,426,-3.895e-08,2.62358e-06,0,3.63957e-07,-1.25914e+09,-1.25878e+09,-1.25913e+09,48642.9,-0.00374987,0.0369611,-0,0.0371508,25714.9,-44961.7,0,51795.9,48642.9
step02_gravity_refstate-mantle.xmf,427,-2.0888e-08,2.72411e-06,0,4.17899e-07,-1.28467e+09,-1.2843e+09,-1.28467e+09,55852.2,-0.00510751,0.0362063,-0,0.0365648,24364.1,-45750.8,0,51833.8,55852.2
step02_gravity_refstate-mantle.xmf,428,-1.64172e-07,3.14364e-06,0,4.48969e-07,-1.32933e+09,-1.32889e+09,-1.32931e+09,60004.7,-0.00791238,0.0376171,-0,0.0384402,20458.7,-47130.6,0,51379.5,60004.7
step02_gravity_refstate-mantle.xmf,429,-2.97057e-08,2.99079e-06,0,4.93217e-07,-1.32993e+09,-1.32953e+09,-1.32993e+09,65918.5,-0.00807564,0.0356225,-0,0.0365264,21664,-47149.7,0,51888.5,65918.5
step02_gravity_refstate-mantle.xmf,430,-1.4772e-08,2.84157e-06,0,4.61168e-07,-1.30789e+09,-1.30751e+09,-1.30789e+09,61635.1,-0.00653958,0.0357389,-0,0.0363323,23046.8,-46468.4,0,51869.7,61635.1
step02_gravity_refstate-mantle.xmf,431,-2.03894e-06,5.61609e-06,0,-9.85118e-07,-1.4033e+09,-1.40228e+09,-1.40303e+09,-131661,-0.00803034,0.0646635,-0,0.0651602,10702.2,-49409.2,0,50555,131661
step02_gravity_refstate-mantle.xmf,432,-2.75803e-06,6.26776e-06,0,-2.0448e-06,-1.41959e+09,-1.41839e+09,-1.41923e+09,-273288,-0.00605494,0.0784193,-0,0.0786528,8719,-49909.4,0,50665.2,273288
step02_gravity_refstate-mantle.xmf,433,-2.56467e-06,5.98737e-06,0,-1.77014e-06,-1.40755e+09,-1.40641e+09,-1.40721e+09,-236579,-0.00557572,0.074885,-0,0.0750923,9331.48,-49538,0,50409.2,236579
step02_gravity_refstate-mantle.xmf,434,-2.62491e-06,6.69101e-06,0,-1.223e-05,-1.48722e+09,-1.48597e+09,-1.48687e+09,-1.63454e+06,-0.0076939,0.150155,-0,0.150352,4000,-52000.2,0,52153.8,1.63454e+06
step02_gravity_refstate-mantle.xmf,435,-7.33494e-06,2.37065e-05,0,-6.38512e-06,-1.63096e+09,-1.62681e+09,-1.62998e+09,-853372,-0.0403013,0.0838355,-0,0.0930193,3734.74,-56452.6,0,56576,853372
step02_gravity_refstate-mantle.xmf,436,-5.0028e-06,1.95171e-05,0,-5.07276e-06,-1.64584e+09,-1.64257e+09,-1.64517e+09,-677975,-0.0462627,0.0627585,-0,0.0779671,4542.54,-56917.1,0,57098,677975
step02_gravity_refstate-mantle.xmf,437,-4.56664e-06,1.86943e-05,0,-4.10979e-06,-1.66131e+09,-1.6582e+09,-1.6607e+09,-549273,-0.0485847,0.0504412,-0,0.0700342,4827.91,-57395.7,0,57598.4,549273
step02_gravity_refstate-mantle.xmf,438,-2.7851e-06,1.55284e-05,0,-1.56756e-06,-1.70372e+09,-1.70127e+09,-1.70335e+09,-209505,-0.0545956,0.0203258,-0,0.0582565,5943.25,-58709.6,0,59009.6,209505
step02_gravity_refstate-mantle.xmf,439,-3.57968e-06,1.6888e-05,0,-2.48326e-06,-1.68731e+09,-1.68457e+09,-1.68683e+09,-331888,-0.0524318,0.0310687,-0,0.0609456,5459.79,-58200.7,0,58456.2,331888
step02_gravity_refstate-mantle.xmf,440,-2.42945e-06,1.48943e-05,0,-6.562e-07,-1.72646e+09,-1.72415e+09,-1.72614e+09,-87701.1,-0.055905,0.00877735,-0,0.0565898,6229.51,-59412.8,0,59738.5,87701.1
step02_gravity_refstate-mantle.xmf,441,-1.71829e-06,1.37257e-05,0,1.15722e-08,-1.74541e+09,-1.74335e+09,-1.74519e+09,1546.63,-0.0569393,-8.28655e-19,-0,0.0569393,6651.63,-60000,0,60367.6,1546.63
step02_gravity_refstate-mantle.xmf,442,-3.22957e-06,6.25197e-06,0,-3.2859e-06,-1.41856e+09,-1.41729e+09,-1.41813e+09,-439161,-0.00231471,0.0918928,-0,0.091922,7536.63,-49874.2,0,50440.4,439161
step02_gravity_refstate-mantle.xmf,443,-3.39957e-06,6.32791e-06,0,-3.89098e-06,-1.42731e+09,-1.42601e+09,-1.42685e+09,-520029,-0.00203579,0.0980486,-0,0.0980698,6946.69,-50143.5,0,50622.4,520029
step02_gravity_refstate-mantle.xmf,444,-2.6522e-06,4.81332e-06,0,-9.68389e-06,-1.46307e+09,-1.46207e+09,-1.46272e+09,-1.29425e+06,-0.00194973,0.141455,-0,0.141468,4417.05,-51249.3,0,51439.3,1.29425e+06
step02_gravity_refstate-mantle.xmf,445,-3.29338e-06,5.98306e-06,0,-7.00723e-06,-1.45736e+09,-1.45612e+09,-1.45692e+09,-936516,-0.00264228,0.123993,-0,0.124021,5153.04,-51071.5,0,51330.8,936516
step02_gravity_refstate-mantle.xmf,446,-3.50785e-06,6.2953e-06,0,-4.64134e-06,-1.43515e+09,-1.43384e+09,-1.43468e+09,-620315,-0.00167046,0.105129,-0,0.105142,6375.69,-50384.9,0,50786.7,620315
step02_gravity_refstate-mantle.xmf,447,-3.46491e-06,6.0692e-06,0,-6.05673e-06,-1.44803e+09,-1.44676e+09,-1.44757e+09,-809482,-0.00168142,0.117318,-0,0.11733,5553.02,-50782.6,0,51085.3,809482
step02_gravity_refstate-mantle.xmf,448,-1.54666e-07,2.35864e-06,0,1.16961e-07,-1.14823e+09,-1.14789e+09,-1.14821e+09,15631.9,-0.000115538,0.0419249,-0,0.0419251,30508.7,-41534.3,0,51535.2,15631.9
step02_gravity_refstate-mantle.xmf,449,-1.41635e-07,2.22765e-06,0,2.27917e-08,-1.09857e+09,-1.09825e+09,-1.09855e+09,3046.12,0.000373663,0.044026,0,0.0440276,33464.7,-40000,0,52152.5,3046.12
step02_gravity_refstate-mantle.xmf,450,-1.07887e-06,4.26349e-06,0,-1.64706e-07,-1.35013e+09,-1.34942e+09,-1.34999e+09,-22012.9,-0.00669854,0.0515496,-0,0.051983,14596.3,-47769.8,0,49950,22012.9
step02_gravity_refstate-mantle.xmf,451,-7.32944e-07,3.81606e-06,0,1.14407e-07,-1.33678e+09,-1.33617e+09,-1.33668e+09,15290.5,-0.00692396,0.0463316,-0,0.0468461,16495.3,-47358.5,0,50149.1,15290.5
step02_gravity_refstate-mantle.xmf,452,-4.88661e-08,2.54313e-06,0,3.10827e-07,-1.23799e+09,-1.23765e+09,-1.23799e+09,41542,-0.00280045,0.0375551,-0,0.0376594,26975.7,-44308.3,0,51874,41542
step02_gravity_refstate-mantle.xmf,453,-1.56146e-07,2.49822e-06,0,2.24946e-07,-1.1964e+09,-1.19604e+09,-1.19638e+09,30064,-0.00118101,0.0401473,-0,0.0401646,27790.7,-43022.6,0,51217.8,30064
step02_gravity_refstate-mantle.xmf,454,-4.02292e-07,3.44108e-06,0,3.40303e-07,-1.33319e+09,-1.33267e+09,-1.33313e+09,45481.5,-0.00771262,0.0411532,-0,0.0418697,18534.2,-47248.8,0,50753.9,45481.5
step02_gravity_refstate-mantle.xmf,455,-3.62769e-07,3.25937e-06,0,3.41055e-07,-1.31331e+09,-1.31282e+09,-1.31326e+09,45581.9,-0.00633555,0.0408988,-0,0.0413866,19577.6,-46634.6,0,50577.3,45581.9
step02_gravity_refstate-mantle.xmf,456,-2.36308e-06,5.70078e-06,0,-1.54144e-06,-1.39494e+09,-1.39387e+09,-1.39463e+09,-206014,-0.00506933,0.0718101,-0,0.0719888,9956.36,-49149.1,0,50147.4,206014
step02_gravity_refstate-mantle.xmf,457,-3.03261e-06,6.09822e-06,0,-2.82237e-06,-1.40891e+09,-1.40769e+09,-1.40851e+09,-377209,-0.00239087,0.0869155,-0,0.0869484,8111.55,-49577.2,0,50236.4,377209
step02_gravity_refstate-mantle.xmf,458,-1.92e-06,5.24879e-06,0,-9.77502e-07,-1.38119e+09,-1.38023e+09,-1.38093e+09,-130643,-0.00592698,0.0641309,-0,0.0644042,11323,-48726,0,50024.3,130643
step02_gravity_refstate-mantle.xmf,459,-2.21977e-06,4.62535e-06,0,-1.20289e-05,-1.47114e+09,-1.47023e+09,-1.47085e+09,-1.60766e+06,-0.00314175,0.152974,-0,0.153006,4000,-51501.2,0,51656.3,1.60766e+06
step02_gravity_refstate-mantle.xmf,460,-8.34416e-06,2.56806e-05,0,-6.81455e-06,-1.61637e+09,-1.61182e+09,-1.61525e+09,-910765,-0.037055,0.0988173,-0,0.105536,3497.18,-56000,0,56109.1,910765
step02_gravity_refstate-mantle.xmf,461,-6.63991e-06,2.2228e-05,0,-5.38349e-06,-1.64582e+09,-1.64196e+09,-1.64493e+09,-719503,-0.0430514,0.0697867,-0,0.0819976,3990.56,-56912.3,0,57052,719503
step02_gravity_refstate-mantle.xmf,462,-4.39515e-06,1.82618e-05,0,-3.24989e-06,-1.67654e+09,-1.67351e+09,-1.67595e+09,-434347,-0.0502372,0.0399935,-0,0.0642126,5026.28,-57866.1,0,58084,434347
step02_gravity_refstate-mantle.xmf,463,-3.01004e-06,5.03844e-06,0,-8.33897e-06,-1.4551e+09,-1.45402e+09,-1.4547e+09,-1.1145e+06,-0.000809413,0.13381,-0,0.133813,4752.78,-51001.3,0,51222.2,1.1145e+06
step02_gravity_refstate-mantle.xmf,464,-3.51845e-06,6.03384e-06,0,-5.42252e-06,-1.43785e+09,-1.43657e+09,-1.43738e+09,-724720,-0.000671152,0.112216,-0,0.112218,5926.38,-50467.5,0,50814.3,724720
step02_gravity_refstate-mantle.xmf,465,-2.3465e-07,2.28929e-06,0,1.68291e-08,-1.09858e+09,-1.09824e+09,-1.09855e+09,2249.21,0.000745691,0.0449467,0,0.0449529,31481.8,-40000,0,50902.9,2249.21
step02_gravity_refstate-mantle.xmf,466,-2.65853e-07,2.43882e-06,0,1.14975e-07,-1.14745e+09,-1.14709e+09,-1.14741e+09,15366.4,0.000289207,0.0431891,0,0.0431901,28686.5,-41509.7,0,50457.6,15366.4
step02_gravity_refstate-mantle.xmf,467,-1.02558e-06,3.96446e-06,0,-1.92356e-07,-1.32083e+09,-1.32017e+09,-1.3207e+09,-25708.4,-0.00429382,0.052005,-0,0.052182,15419,-46864.4,0,49335.7,25708.4
step02_gravity_refstate-mantle.xmf,468,-1.32871e-06,4.37391e-06,0,-4.85141e-07,-1.33823e+09,-1.33747e+09,-1.33805e+09,-64839.1,-0.00432214,0.0567587,-0,0.0569231,13779.3,-47400.7,0,49362.9,64839.1
step02_gravity_refstate-mantle.xmf,469,-1.48681e-06,4.65007e-06,0,-5.93321e-07,-1.35464e+09,-1.35382e+09,-1.35444e+09,-79297.4,-0.00519342,0.0584151,-0,0.0586455,12988.1,-47907.2,0,49636.6,79297.4
step02_gravity_refstate-mantle.xmf,470,-1.67935e-06,4.94498e-06,0,-7.42289e-07,-1.36928e+09,-1.36839e+09,-1.36905e+09,-99206.9,-0.00581334,0.0607065,-0,0.0609842,12179.7,-48358.9,0,49869.1,99206.9
step02_gravity_refstate-mantle.xmf,471,-6.54424e-07,3.583e-06,0,1.4294e-07,-1.31591e+09,-1.31534e+09,-1.31582e+09,19104,-0.00552825,0.0456821,-0,0.0460154,17507.4,-46713.7,0,49886.7,19104
step02_gravity_refstate-mantle.xmf,472,-2.69708e-07,2.61333e-06,0,2.3086e-07,-1.20152e+09,-1.20114e+09,-1.20149e+09,30854.4,-0.000983513,0.0414743,-0,0.041486,25866.6,-43180.5,0,50335.3,30854.4
step02_gravity_refstate-mantle.xmf,473,-2.43454e-07,2.72113e-06,0,2.97613e-07,-1.23579e+09,-1.23539e+09,-1.23576e+09,39776,-0.00232402,0.0402832,-0,0.0403502,24396.6,-44239.4,0,50520.5,39776
step02_gravity_refstate-mantle.xmf,474,-3.01094e-07,3.09279e-06,0,3.55821e-07,-1.29745e+09,-1.29699e+09,-1.29741e+09,47555.5,-0.00543205,0.0401565,-0,0.0405222,20758.7,-46144.6,0,50598.9,47555.5
step02_gravity_refstate-mantle.xmf,475,-2.45498e-07,2.83257e-06,0,3.34553e-07,-1.26039e+09,-1.25998e+09,-1.26036e+09,44713.1,-0.00345618,0.0398432,-0,0.0399928,23094.5,-44999.7,0,50579.9,44713.1
step02_gravity_refstate-mantle.xmf,476,-2.69761e-07,2.95764e-06,0,3.52238e-07,-1.27957e+09,-1.27914e+09,-1.27953e+09,47076.6,-0.00442314,0.0399362,-0,0.0401804,21873.4,-45592.1,0,50567.7,47076.6
step02_gravity_refstate-mantle.xmf,477,-2.16931e-06,5.43566e-06,0,-1.3437e-06,-1.38336e+09,-1.38234e+09,-1.38307e+09,-179585,-0.00470326,0.0690453,-0,0.0692053,10568.4,-48791.9,0,49923.4,179585
step02_gravity_refstate-mantle.xmf,478,-2.83487e-06,5.88333e-06,0,-2.50505e-06,-1.39727e+09,-1.39611e+09,-1.39689e+09,-334800,-0.00202767,0.0833524,-0,0.083377,8646.11,-49218.3,0,49972,334800
step02_gravity_refstate-mantle.xmf,479,-2.63784e-06,5.62607e-06,0,-2.24524e-06,-1.38403e+09,-1.38293e+09,-1.38368e+09,-300077,-0.0015569,0.0801541,-0,0.0801692,9217.3,-48810.1,0,49672.7,300077
step02_gravity_refstate-mantle.xmf,480,-1.81965e-06,2.57597e-06,0,-1.16333e-05,-1.45503e+09,-1.45445e+09,-1.45479e+09,-1.55479e+06,0.00105711,0.154773,0,0.154777,4000,-51001,0,51157.6,1.55479e+06
step02_gravity_refstate-mantle.xmf,481,-9.09978e-06,2.67007e-05,0,-5.6664e-06,-1.63108e+09,-1.6263e+09,-1.62986e+09,-757314,-0.0359372,0.0915846,-0,0.098383,3203.59,-56452.1,0,56542.9,757314
step02_gravity_refstate-mantle.xmf,482,-8.41533e-06,2.51855e-05,0,-5.24139e-06,-1.64615e+09,-1.64166e+09,-1.64503e+09,-700512,-0.0388687,0.0765758,-0,0.0858757,3432.7,-56918.4,0,57021.8,700512
step02_gravity_refstate-mantle.xmf,483,-6.11525e-06,2.11453e-05,0,-4.43076e-06,-1.66135e+09,-1.65771e+09,-1.66053e+09,-592171,-0.04557,0.0562456,-0,0.0723891,4263.19,-57392.9,0,57551,592171
step02_gravity_refstate-mantle.xmf,484,-5.6535e-06,2.02965e-05,0,-3.52892e-06,-1.67699e+09,-1.67352e+09,-1.67623e+09,-471641,-0.0477356,0.0438097,-0,0.0647918,4525.53,-57876.8,0,58053.5,471641
step02_gravity_refstate-mantle.xmf,485,-5.09938e-06,1.92927e-05,0,-2.60008e-06,-1.69269e+09,-1.68943e+09,-1.69201e+09,-347501,-0.0499156,0.0319909,-0,0.0592873,4837.54,-58362.9,0,58563,347501
step02_gravity_refstate-mantle.xmf,486,-4.41837e-06,1.8151e-05,0,-1.73245e-06,-1.708e+09,-1.70498e+09,-1.70741e+09,-231541,-0.0520273,0.0212766,-0,0.0562097,5199.03,-58837.4,0,59066.6,231541
step02_gravity_refstate-mantle.xmf,487,-3.74904e-06,1.70518e-05,0,-8.48798e-07,-1.72571e+09,-1.72293e+09,-1.72521e+09,-113442,-0.053826,0.0104971,-0,0.05484,5560.86,-59386.3,0,59646.1,113442
step02_gravity_refstate-mantle.xmf,488,-3.06322e-06,1.59518e-05,0,1.06113e-08,-1.74552e+09,-1.74298e+09,-1.74511e+09,1418.2,-0.0551868,-9.94653e-19,-0,0.0551868,5918.45,-60000,0,60291.2,1418.2
step02_gravity_refstate-mantle.xmf,489,-3.1636e-06,5.73171e-06,0,-3.64163e-06,-1.39805e+09,-1.39686e+09,-1.39763e+09,-486704,0.00113196,0.0954895,0,0.0954962,7553.04,-49239.8,0,49815.7,486704
step02_gravity_refstate-mantle.xmf,490,-2.56628e-06,3.46965e-06,0,-9.36207e-06,-1.44704e+09,-1.44624e+09,-1.4467e+09,-1.25124e+06,0.00204577,0.143094,0,0.143109,4432.3,-50751.4,0,50944.5,1.25124e+06
step02_gravity_refstate-mantle.xmf,491,-3.32965e-06,5.73621e-06,0,-4.23702e-06,-1.407e+09,-1.40579e+09,-1.40656e+09,-566277,0.00156698,0.101483,0,0.101495,6972.11,-49515.3,0,50003.7,566277
step02_gravity_refstate-mantle.xmf,492,-3.44251e-06,5.64832e-06,0,-4.91863e-06,-1.41564e+09,-1.41443e+09,-1.41518e+09,-657375,0.00195096,0.108026,0,0.108044,6420.55,-49781.1,0,50193.4,657375
step02_gravity_refstate-mantle.xmf,493,-3.18289e-06,4.60894e-06,0,-7.76823e-06,-1.44139e+09,-1.44035e+09,-1.44097e+09,-1.03822e+06,0.00188107,0.131385,0,0.131399,4941.48,-50575.7,0,50816.5,1.03822e+06
step02_gravity_refstate-mantle.xmf,494,-3.47055e-06,5.4205e-06,0,-5.69548e-06,-1.42318e+09,-1.42199e+09,-1.42272e+09,-761201,0.00234239,0.115109,0,0.115133,5909.9,-50013.2,0,50361.2,761201
step02_gravity_refstate-mantle.xmf,495,-3.40918e-06,5.09486e-06,0,-6.55932e-06,-1.43123e+09,-1.43009e+09,-1.43077e+09,-876653,0.00239432,0.122452,0,0.122475,5439.92,-50261.4,0,50554.9,876653
step02_gravity_refstate-mantle.xmf,496,-3.46566e-07,2.36269e-06,0,9.75836e-10,-1.0986e+09,-1.09824e+09,-1.09855e+09,130.421,0.00129435,0.0461451,0,0.0461633,29588.3,-40000,0,49754.1,130.421
step02_gravity_refstate-mantle.xmf,497,-1.21793e-06,4.14922e-06,0,-4.17798e-07,-1.32255e+09,-1.32183e+09,-1.32238e+09,-55838.7,-0.00340446,0.0557374,-0,0.0558413,14455.5,-46916.4,0,49092.9,55838.7
step02_gravity_refstate-mantle.xmf,498,-8.91742e-07,3.7016e-06,0,-8.92842e-08,-1.30123e+09,-1.30061e+09,-1.30111e+09,-11932.8,-0.00333344,0.0503974,-0,0.0505076,16515.9,-46258.9,0,49118.9,11932.8
step02_gravity_refstate-mantle.xmf,499,-3.90294e-07,2.53088e-06,0,1.00453e-07,-1.14785e+09,-1.14746e+09,-1.1478e+09,13425.5,0.000865156,0.0447074,0,0.0447158,26892.2,-41521.5,0,49469.5,13425.5
step02_gravity_refstate-mantle.xmf,500,-5.97045e-07,3.38041e-06,0,1.71084e-07,-1.2949e+09,-1.29436e+09,-1.29482e+09,22865.4,-0.00423626,0.0451683,-0,0.0453665,18544.2,-46064.5,0,49657.1,22865.4
step02_gravity_refstate-mantle.xmf,501,-5.44962e-07,3.20447e-06,0,1.96169e-07,-1.27478e+09,-1.27427e+09,-1.2747e+09,26218,-0.0031573,0.0446213,-0,0.0447328,19637.4,-45442.9,0,49504.4,26218
step02_gravity_refstate-mantle.xmf,502,-2.41465e-06,5.39867e-06,0,-1.92514e-06,-1.37275e+09,-1.37171e+09,-1.37243e+09,-257296,-0.00159939,0.0762808,-0,0.0762976,9876.2,-48462.5,0,49458.6,257296
step02_gravity_refstate-mantle.xmf,503,-3.00061e-06,5.69955e-06,0,-3.18063e-06,-1.39102e+09,-1.38986e+09,-1.39062e+09,-425091,0.000636161,0.0906839,0,0.0906861,8066.42,-49023.7,0,49682.9,425091
step02_gravity_refstate-mantle.xmf,504,-2.18918e-06,5.1804e-06,0,-1.61038e-06,-1.36275e+09,-1.36176e+09,-1.36245e+09,-215227,-0.001849,0.072354,-0,0.0723776,10578.5,-48154.4,0,49302.7,215227
step02_gravity_refstate-mantle.xmf,505,-9.4486e-06,2.81233e-05,0,-5.55454e-06,-1.6164e+09,-1.61138e+09,-1.61514e+09,-742365,-0.0326188,0.106917,-0,0.111782,2997.53,-56000,0,56080.2,742365
step02_gravity_refstate-mantle.xmf,506,-7.73253e-06,2.3746e-05,0,-4.48018e-06,-1.66129e+09,-1.65709e+09,-1.66026e+09,-598776,-0.0416576,0.062193,-0,0.0748554,3698.38,-57386.9,0,57506,598776
step02_gravity_refstate-mantle.xmf,507,-1.50234e-06,6.56928e-07,0,-1.09752e-05,-1.43897e+09,-1.43868e+09,-1.43876e+09,-1.46684e+06,0.00468509,0.155573,0,0.155644,4000,-50501.8,0,50659.9,1.46684e+06
step02_gravity_refstate-mantle.xmf,508,-4.74255e-07,2.44431e-06,0,-2.71367e-08,-1.09862e+09,-1.09823e+09,-1.09856e+09,-3626.83,0.00203493,0.0476431,0,0.0476866,27779.3,-40000,0,48700,3626.83
step02_gravity_refstate-mantle.xmf,509,-1.23753e-06,3.94847e-06,0,-5.44054e-07,-1.29512e+09,-1.29443e+09,-1.29495e+09,-72712.8,-0.000776032,0.0581893,-0,0.0581945,14679.3,-46068.6,0,48350.8,72712.8
step02_gravity_refstate-mantle.xmf,510,-1.96399e-06,4.94433e-06,0,-1.31689e-06,-1.3521e+09,-1.35118e+09,-1.35184e+09,-176002,-0.00205288,0.068567,-0,0.0685977,11345.5,-47826.4,0,49153.7,176002
step02_gravity_refstate-mantle.xmf,511,-1.38695e-06,4.16533e-06,0,-7.15435e-07,-1.30841e+09,-1.30767e+09,-1.30823e+09,-95617.9,-0.00102243,0.0605788,-0,0.0605875,13803.3,-46478.8,0,48485.1,95617.9
step02_gravity_refstate-mantle.xmf,512,-1.54875e-06,4.41108e-06,0,-8.74655e-07,-1.32388e+09,-1.32308e+09,-1.32367e+09,-116898,-0.00154112,0.0626989,-0,0.0627179,12992.9,-46956,0,48720.4,116898
step02_gravity_refstate-mantle.xmf,513,-1.74306e-06,4.67593e-06,0,-1.07198e-06,-1.33867e+09,-1.33782e+09,-1.33844e+09,-143270,-0.00191335,0.0653314,-0,0.0653594,12167.5,-47412.4,0,48948.8,143270
step02_gravity_refstate-mantle.xmf,514,-8.09866e-07,3.47841e-06,0,-3.86849e-08,-1.2783e+09,-1.27773e+09,-1.27819e+09,-5170.23,-0.00203867,0.0497164,-0,0.0497581,17532.3,-45550.6,0,48808.2,5170.23
step02_gravity_refstate-mantle.xmf,515,-1.1051e-06,3.74018e-06,0,-3.88956e-07,-1.28068e+09,-1.28003e+09,-1.28053e+09,-51984,-0.000443155,0.0559954,-0,0.0559972,15624.3,-45622.9,0,48224.1,51984
step02_gravity_refstate-mantle.xmf,516,-4.63887e-07,2.72022e-06,0,1.57172e-07,-1.18808e+09,-1.18766e+09,-1.18802e+09,21006,0.000299368,0.0446145,0,0.0446155,24143.3,-42764.3,0,49108.9,21006
step02_gravity_refstate-mantle.xmf,517,-4.1557e-07,2.80568e-06,0,2.2143e-07,-1.21985e+09,-1.21942e+09,-1.2198e+09,29594.1,-0.00103366,0.043191,-0,0.0432033,23224.4,-43746.2,0,49528.9,29594.1
step02_gravity_refstate-mantle.xmf,518,-5.07907e-07,3.0551e-06,0,2.0672e-07,-1.25456e+09,-1.25409e+09,-1.25449e+09,27628.2,-0.00218142,0.0442613,-0,0.044315,20743.8,-44818.4,0,49386.1,27628.2
step02_gravity_refstate-mantle.xmf,519,-5.04049e-07,2.91912e-06,0,1.90229e-07,-1.22718e+09,-1.22672e+09,-1.22711e+09,25424.1,-0.000891393,0.044595,-0,0.0446039,21932.7,-43972.1,0,49138.5,25424.1
step02_gravity_refstate-mantle.xmf,520,-2.82519e-06,5.34629e-06,0,-3.13047e-06,-1.37318e+09,-1.37209e+09,-1.3728e+09,-418388,0.0021977,0.0900786,0,0.0901054,8401.43,-48472.8,0,49195.5,418388
step02_gravity_refstate-mantle.xmf,521,-2.57705e-06,5.18765e-06,0,-2.64964e-06,-1.36043e+09,-1.35939e+09,-1.36009e+09,-354125,0.00188979,0.084879,0,0.0849,9133.65,-48080.3,0,48940.1,354125
step02_gravity_refstate-mantle.xmf,522,-1.01968e-05,2.9854e-05,0,-4.42117e-06,-1.61642e+09,-1.61107e+09,-1.61506e+09,-590889,-0.0277226,0.113679,-0,0.11701,2497.35,-56000,0,56055.7,590889
step02_gravity_refstate-mantle.xmf,523,-1.01456e-05,2.87559e-05,0,-4.65257e-06,-1.63039e+09,-1.62519e+09,-1.62904e+09,-621816,-0.0310531,0.0986459,-0,0.103418,2702.24,-56429.1,0,56493.7,621816
step02_gravity_refstate-mantle.xmf,524,-9.97165e-06,2.77697e-05,0,-4.46527e-06,-1.64665e+09,-1.64161e+09,-1.64532e+09,-596783,-0.033491,0.0829089,-0,0.0894178,2845.88,-56930,0,57001.1,596783
step02_gravity_refstate-mantle.xmf,525,-9.33286e-06,2.63348e-05,0,-4.16995e-06,-1.66109e+09,-1.65632e+09,-1.65984e+09,-557314,-0.0367376,0.0681055,-0,0.0773822,3123.08,-57376.6,0,57461.5,557314
step02_gravity_refstate-mantle.xmf,526,-7.16873e-06,2.26263e-05,0,-3.64373e-06,-1.67687e+09,-1.67288e+09,-1.67591e+09,-486985,-0.0441442,0.0485699,-0,0.0656334,3966.02,-57868.9,0,58004.6,486985
step02_gravity_refstate-mantle.xmf,527,-6.64128e-06,2.16931e-05,0,-2.76494e-06,-1.69317e+09,-1.68938e+09,-1.69228e+09,-369534,-0.0463691,0.0354917,-0,0.0583931,4231.63,-58373.6,0,58526.8,369534
step02_gravity_refstate-mantle.xmf,528,-6.05014e-06,2.06753e-05,0,-1.81628e-06,-1.71035e+09,-1.70678e+09,-1.70954e+09,-242746,-0.0485611,0.0227187,-0,0.0536127,4528.85,-58905.6,0,59079.4,242746
step02_gravity_refstate-mantle.xmf,529,-5.3481e-06,1.95454e-05,0,-8.86753e-07,-1.72772e+09,-1.7244e+09,-1.72701e+09,-118515,-0.0506686,0.0108816,-0,0.0518239,4862.31,-59444.2,0,59642.7,118515
step02_gravity_refstate-mantle.xmf,530,-4.59443e-06,1.83778e-05,0,6.17124e-09,-1.74565e+09,-1.74258e+09,-1.74504e+09,824.786,-0.0524487,-1.03337e-18,-0,0.0524487,5203.28,-60000,0,60225.2,824.786
step02_gravity_refstate-mantle.xmf,531,-2.97548e-06,5.21012e-06,0,-3.87521e-06,-1.37767e+09,-1.37658e+09,-1.37727e+09,-517922,0.00385294,0.0981182,0,0.0981939,7619.96,-48610.2,0,49203.8,517922
step02_gravity_refstate-mantle.xmf,532,-3.10917e-06,5.11318e-06,0,-4.50487e-06,-1.38642e+09,-1.38532e+09,-1.38601e+09,-602076,0.00455199,0.104504,0,0.104603,7003.64,-48879.4,0,49378.6,602076
step02_gravity_refstate-mantle.xmf,533,-2.33116e-06,2.33406e-06,0,-9.10921e-06,-1.4312e+09,-1.43058e+09,-1.43089e+09,-1.21745e+06,0.00531199,0.143925,0,0.144023,4456.05,-50260.7,0,50457.9,1.21745e+06
step02_gravity_refstate-mantle.xmf,534,-3.20678e-06,4.94334e-06,0,-5.19613e-06,-1.39592e+09,-1.39483e+09,-1.39549e+09,-694462,0.0050501,0.111155,0,0.11127,6427.09,-49171.6,0,49589.9,694462
step02_gravity_refstate-mantle.xmf,535,-3.23562e-06,4.6556e-06,0,-5.95309e-06,-1.40511e+09,-1.40406e+09,-1.40468e+09,-795631,0.00540814,0.118127,0,0.118251,5897.97,-49454.7,0,49805.2,795631
step02_gravity_refstate-mantle.xmf,536,-3.15773e-06,4.19333e-06,0,-6.81576e-06,-1.41404e+09,-1.41305e+09,-1.41361e+09,-910926,0.00561596,0.125709,0,0.125834,5398.86,-49729.7,0,50021.9,910926
step02_gravity_refstate-mantle.xmf,537,-2.92259e-06,3.50561e-06,0,-7.82297e-06,-1.42294e+09,-1.42208e+09,-1.42255e+09,-1.04554e+06,0.00554754,0.133923,0,0.134038,4931.57,-50004.5,0,50247.1,1.04554e+06
step02_gravity_refstate-mantle.xmf,538,-1.00663e-06,3.54041e-06,0,-2.8121e-07,-1.26248e+09,-1.26187e+09,-1.26234e+09,-37583.8,0.000269238,0.0545597,0,0.0545604,16567.5,-45060.7,0,48009.9,37583.8
step02_gravity_refstate-mantle.xmf,539,-6.14038e-07,2.5305e-06,0,-6.9698e-08,-1.09864e+09,-1.09822e+09,-1.09856e+09,-9315.13,0.00297395,0.0494668,0,0.0495561,26050.1,-40000,0,47734.8,9315.13
step02_gravity_refstate-mantle.xmf,540,-5.3556e-07,2.62751e-06,0,5.81572e-08,-1.14585e+09,-1.14543e+09,-1.14578e+09,7772.72,0.00174847,0.0467889,0,0.0468216,25155.8,-41459.1,0,48494,7772.72
step02_gravity_refstate-mantle.xmf,541,-6.15157e-07,2.81635e-06,0,8.38828e-08,-1.18267e+09,-1.18222e+09,-1.18259e+09,11210.9,0.00137314,0.0472481,0,0.0472681,22691.6,-42596.5,0,48263.5,11210.9
step02_gravity_refstate-mantle.xmf,542,-7.59585e-07,3.29232e-06,0,5.90766e-09,-1.25601e+09,-1.25547e+09,-1.25591e+09,789.558,-0.000919739,0.0491355,-0,0.0491441,18561.3,-44862.1,0,48550.3,789.558
step02_gravity_refstate-mantle.xmf,543,-7.23144e-07,3.13128e-06,0,3.4168e-08,-1.23302e+09,-1.23251e+09,-1.23293e+09,4566.55,0.000110237,0.0487429,0,0.0487431,19623.7,-44151.8,0,48316.4,4566.55
step02_gravity_refstate-mantle.xmf,544,-2.3627e-06,5.0283e-06,0,-2.27008e-06,-1.3496e+09,-1.34861e+09,-1.34928e+09,-303396,0.00156758,0.0805517,0,0.080567,9812.02,-47746.7,0,48744.5,303396
step02_gravity_refstate-mantle.xmf,545,-2.13716e-06,4.81819e-06,0,-1.92874e-06,-1.33657e+09,-1.33564e+09,-1.33628e+09,-257776,0.0014546,0.0765788,0,0.0765926,10554.9,-47345.2,0,48507.5,257776
step02_gravity_refstate-mantle.xmf,546,-1.07081e-05,3.10875e-05,0,-3.3968e-06,-1.61643e+09,-1.61084e+09,-1.615e+09,-453982,-0.0225034,0.119104,-0,0.121211,1997.54,-56000,0,56035.6,453982
step02_gravity_refstate-mantle.xmf,547,-1.0759e-05,3.02168e-05,0,-3.79427e-06,-1.62738e+09,-1.6219e+09,-1.62594e+09,-507104,-0.0260852,0.106345,-0,0.109497,2249.54,-56335.6,0,56380.5,507104
step02_gravity_refstate-mantle.xmf,548,-8.68172e-06,2.50128e-05,0,-3.57106e-06,-1.67603e+09,-1.67153e+09,-1.67487e+09,-477272,-0.0396198,0.0538714,-0,0.066872,3397.96,-57839.2,0,57938.9,477272
step02_gravity_refstate-mantle.xmf,549,3.90799e-08,-1.82958e-06,0,-1.06018e-05,-1.42259e+09,-1.42284e+09,-1.4226e+09,-1.41693e+06,0.00737626,0.155503,0,0.155678,4000,-50000,0,50159.7,1.41693e+06
step02_gravity_refstate-mantle.xmf,550,-1.26488e-06,3.72245e-06,0,-7.15808e-07,-1.26152e+09,-1.26085e+09,-1.26135e+09,-95667.7,0.00239862,0.0618061,0,0.0618526,14762.4,-45030,0,47388.1,95667.7
step02_gravity_refstate-mantle.xmf,551,-1.38974e-06,3.91765e-06,0,-8.98148e-07,-1.27729e+09,-1.27658e+09,-1.2771e+09,-120037,0.00205308,0.064088,0,0.0641209,13880.3,-45516.8,0,47586.1,120037
step02_gravity_refstate-mantle.xmf,552,-1.92071e-06,4.59399e-06,0,-1.61869e-06,-1.3229e+09,-1.32203e+09,-1.32265e+09,-216338,0.00141658,0.0728796,0,0.0728933,11344.3,-46923.9,0,48275.7,216338
step02_gravity_refstate-mantle.xmf,553,-1.54281e-06,4.13566e-06,0,-1.1076e-06,-1.29323e+09,-1.29247e+09,-1.29303e+09,-148031,0.00172869,0.0666618,0,0.0666842,13008.5,-46008.7,0,47812.4,148031
step02_gravity_refstate-mantle.xmf,554,-1.72165e-06,4.36637e-06,0,-1.34477e-06,-1.3087e+09,-1.30789e+09,-1.30847e+09,-179728,0.00148449,0.0695514,0,0.0695672,12162.4,-46486,0,48050.7,179728
step02_gravity_refstate-mantle.xmf,555,-9.37273e-07,3.35217e-06,0,-2.09348e-07,-1.24019e+09,-1.23962e+09,-1.24007e+09,-27979.4,0.00127084,0.05373,0,0.053745,17535.8,-44372.4,0,47711.7,27979.4
step02_gravity_refstate-mantle.xmf,556,-1.16721e-06,3.54783e-06,0,-5.65147e-07,-1.24533e+09,-1.2447e+09,-1.24517e+09,-75531.9,0.00281459,0.0599094,0,0.0599755,15641.7,-44530,0,47197.3,75531.9
step02_gravity_refstate-mantle.xmf,557,-6.89313e-07,2.71973e-06,0,-1.05641e-08,-1.14227e+09,-1.14182e+09,-1.14218e+09,-1411.89,0.00288863,0.0493144,0,0.0493989,23555.4,-41347.7,0,47586.7,1411.89
step02_gravity_refstate-mantle.xmf,558,-6.84188e-07,3.00808e-06,0,6.0334e-08,-1.21533e+09,-1.21484e+09,-1.21524e+09,8063.64,0.000654504,0.0481068,0,0.0481112,20660.9,-43605.2,0,48252.3,8063.64
step02_gravity_refstate-mantle.xmf,559,-2.67595e-06,4.64781e-06,0,-4.00598e-06,-1.35518e+09,-1.3542e+09,-1.35483e+09,-535399,0.0062284,0.100342,0,0.100535,7722.38,-47916.1,0,48534.4,535399
step02_gravity_refstate-mantle.xmf,560,-2.56169e-06,4.74361e-06,0,-3.42681e-06,-1.34702e+09,-1.34605e+09,-1.34668e+09,-457993,0.00533287,0.0941323,0,0.0942833,8403.58,-47665.1,0,48400.2,457993
step02_gravity_refstate-mantle.xmf,561,-2.38371e-06,4.68691e-06,0,-2.95651e-06,-1.33563e+09,-1.33468e+09,-1.33531e+09,-395137,0.0048678,0.0890772,0,0.0892101,9089.22,-47314.2,0,48179.3,395137
step02_gravity_refstate-mantle.xmf,562,-1.13214e-05,3.11753e-05,0,-2.9198e-06,-1.63036e+09,-1.62468e+09,-1.62885e+09,-390231,-0.0213208,0.10753,-0,0.109623,1800.63,-56426.4,0,56455.2,390231
step02_gravity_refstate-mantle.xmf,563,-1.10388e-05,2.98149e-05,0,-3.55151e-06,-1.64301e+09,-1.63755e+09,-1.64154e+09,-474659,-0.0270165,0.0919568,-0,0.0958433,2247.5,-56815.7,0,56860.1,474659
step02_gravity_refstate-mantle.xmf,564,-1.06635e-05,2.85113e-05,0,-3.50026e-06,-1.66054e+09,-1.6553e+09,-1.65911e+09,-467810,-0.0308318,0.0737985,-0,0.0799802,2534.63,-57356.2,0,57412.2,467810
step02_gravity_refstate-mantle.xmf,565,-1.01087e-05,2.72465e-05,0,-3.18365e-06,-1.67623e+09,-1.67124e+09,-1.67488e+09,-425495,-0.0341639,0.0581607,-0,0.0674524,2817.51,-57841.3,0,57909.9,425495
step02_gravity_refstate-mantle.xmf,566,-8.12503e-06,2.39383e-05,0,-2.82566e-06,-1.69152e+09,-1.68724e+09,-1.69044e+09,-377650,-0.0421222,0.0402963,-0,0.058293,3660.14,-58318.6,0,58433.3,377650
step02_gravity_refstate-mantle.xmf,567,-7.70782e-06,2.3207e-05,0,-1.92166e-06,-1.70954e+09,-1.70541e+09,-1.70851e+09,-256830,-0.0440105,0.0260893,-0,0.0511623,3868.61,-58876.1,0,59003.1,256830
step02_gravity_refstate-mantle.xmf,568,-7.03711e-06,2.21141e-05,0,-9.38315e-07,-1.72802e+09,-1.72412e+09,-1.72708e+09,-125406,-0.0463941,0.0122007,-0,0.0479716,4171.68,-59448.5,0,59594.7,125406
step02_gravity_refstate-mantle.xmf,569,-6.25893e-06,2.09285e-05,0,3.5359e-09,-1.7458e+09,-1.74217e+09,-1.74496e+09,472.572,-0.04864,-1.16173e-18,-0,0.04864,4501.23,-60000,0,60168.6,472.572
step02_gravity_refstate-mantle.xmf,570,-2.78177e-06,4.4942e-06,0,-4.66307e-06,-1.36557e+09,-1.3646e+09,-1.3652e+09,-623219,0.00694566,0.10704,0,0.107265,7046.14,-48235.9,0,48747.8,623219
step02_gravity_refstate-mantle.xmf,571,-2.82724e-06,4.22167e-06,0,-5.36427e-06,-1.37548e+09,-1.37454e+09,-1.3751e+09,-716935,0.00757296,0.113934,0,0.114186,6434.72,-48541,0,48965.6,716935
step02_gravity_refstate-mantle.xmf,572,-1.94365e-06,1.3571e-06,0,-8.70255e-06,-1.41423e+09,-1.41379e+09,-1.41397e+09,-1.1631e+06,0.0080257,0.144566,0,0.144788,4470.3,-49736.5,0,49937,1.1631e+06
step02_gravity_refstate-mantle.xmf,573,-2.82006e-06,3.84762e-06,0,-6.10108e-06,-1.3856e+09,-1.38471e+09,-1.38523e+09,-815409,0.0079819,0.120859,0,0.121122,5887.42,-48852.8,0,49206.2,815409
step02_gravity_refstate-mantle.xmf,574,-2.71774e-06,3.29245e-06,0,-6.91794e-06,-1.3954e+09,-1.3946e+09,-1.39504e+09,-924582,0.00825067,0.128264,0,0.128529,5376.81,-49154.7,0,49447.9,924582
step02_gravity_refstate-mantle.xmf,575,-2.47561e-06,2.51649e-06,0,-7.80938e-06,-1.40529e+09,-1.40462e+09,-1.40496e+09,-1.04372e+06,0.00825016,0.13609,0,0.136339,4906.02,-49459.9,0,49702.6,1.04372e+06
step02_gravity_refstate-mantle.xmf,576,-1.08994e-06,3.39077e-06,0,-4.36264e-07,-1.22846e+09,-1.22786e+09,-1.22832e+09,-58306.6,0.00325694,0.058265,0,0.0583559,16550.2,-44009.1,0,47018.2,58306.6
step02_gravity_refstate-mantle.xmf,577,-7.61739e-07,2.61775e-06,0,-1.28866e-07,-1.09867e+09,-1.09822e+09,-1.09857e+09,-17222.9,0.00410912,0.051644,0,0.0518072,24396.4,-40000,0,46852.8,17222.9
step02_gravity_refstate-mantle.xmf,578,-7.63877e-07,2.91097e-06,0,-1.4022e-08,-1.17896e+09,-1.17847e+09,-1.17886e+09,-1874.04,0.00256724,0.0501646,0,0.0502303,21276.5,-42481.1,0,47511.4,1874.04
step02_gravity_refstate-mantle.xmf,579,-8.39738e-07,2.80544e-06,0,-1.01299e-07,-1.13926e+09,-1.13878e+09,-1.13915e+09,-13538.6,0.0041906,0.0521577,0,0.0523258,22048.6,-41254,0,46776.4,13538.6
step02_gravity_refstate-mantle.xmf,580,-9.11678e-07,3.18655e-06,0,-1.6397e-07,-1.21482e+09,-1.21427e+09,-1.2147e+09,-21914.6,0.0024044,0.0534034,0,0.0534575,18509.5,-43588.4,0,47355.6,21914.6
step02_gravity_refstate-mantle.xmf,581,-8.93053e-07,3.0225e-06,0,-1.35412e-07,-1.18467e+09,-1.18415e+09,-1.18455e+09,-18097.8,0.00348887,0.0531084,0,0.0532229,19720.4,-42656.8,0,46994.7,18097.8
step02_gravity_refstate-mantle.xmf,582,-2.19051e-06,4.55888e-06,0,-2.5612e-06,-1.32267e+09,-1.32177e+09,-1.32238e+09,-342305,0.0046437,0.0847826,0,0.0849097,9783.36,-46914.8,0,47924,342305
step02_gravity_refstate-mantle.xmf,583,-1.99067e-06,4.39148e-06,0,-2.19063e-06,-1.30822e+09,-1.30737e+09,-1.30796e+09,-292778,0.00453016,0.0806959,0,0.0808229,10543.8,-46469.5,0,47650.7,292778
step02_gravity_refstate-mantle.xmf,584,-1.10899e-05,3.19742e-05,0,-2.4588e-06,-1.61644e+09,-1.61068e+09,-1.61496e+09,-328619,-0.01706,0.123244,-0,0.124419,1498.34,-56000,0,56020,328619
step02_gravity_refstate-mantle.xmf,585,-9.44518e-06,2.59969e-05,0,-2.76576e-06,-1.68917e+09,-1.68443e+09,-1.68791e+09,-369643,-0.03734,0.0455184,-0,0.0588744,3119.9,-58242.3,0,58325.8,369643
step02_gravity_refstate-mantle.xmf,586,-9.0201e-07,-6.15935e-07,0,-9.00907e-06,-1.40607e+09,-1.40603e+09,-1.40595e+09,-1.20406e+06,0.00951182,0.152019,0,0.152316,4133.12,-49486.4,0,49658.8,1.20406e+06
step02_gravity_refstate-mantle.xmf,587,-1.27753e-06,3.4902e-06,0,-8.72662e-07,-1.22735e+09,-1.22671e+09,-1.22718e+09,-116631,0.00547703,0.0656665,0,0.0658945,14751,-43973.8,0,46381.9,116631
step02_gravity_refstate-mantle.xmf,588,-1.36865e-06,3.64966e-06,0,-1.06521e-06,-1.24431e+09,-1.24364e+09,-1.24413e+09,-142366,0.00511991,0.0679005,0,0.0680933,13889.2,-44497.5,0,46614.7,142366
step02_gravity_refstate-mantle.xmf,589,-1.48926e-06,3.82698e-06,0,-1.30041e-06,-1.26105e+09,-1.26034e+09,-1.26085e+09,-173800,0.00484846,0.0706221,0,0.0707883,13008.5,-45014.1,0,46856.1,173800
step02_gravity_refstate-mantle.xmf,590,-1.80388e-06,4.20893e-06,0,-1.85821e-06,-1.2933e+09,-1.29249e+09,-1.29305e+09,-248350,0.00450963,0.0769554,0,0.0770874,11337.1,-46009.1,0,47385.4,248350
step02_gravity_refstate-mantle.xmf,591,-1.63608e-06,4.01905e-06,0,-1.56209e-06,-1.27769e+09,-1.27694e+09,-1.27747e+09,-208774,0.00460758,0.0735898,0,0.0737339,12159,-45527.8,0,47123.5,208774
step02_gravity_refstate-mantle.xmf,592,-1.05127e-06,3.22763e-06,0,-3.71294e-07,-1.2038e+09,-1.20322e+09,-1.20365e+09,-49623.4,0.00432673,0.0577955,0,0.0579572,17422.2,-43247,0,46624.4,49623.4
step02_gravity_refstate-mantle.xmf,593,-1.21243e-06,3.35418e-06,0,-7.17948e-07,-1.21082e+09,-1.21021e+09,-1.21066e+09,-95953.7,0.00584314,0.0638304,0,0.0640972,15582.7,-43463.4,0,46172.3,95953.7
step02_gravity_refstate-mantle.xmf,594,-9.11011e-07,2.701e-06,0,-2.06105e-07,-1.09869e+09,-1.09821e+09,-1.09857e+09,-27546,0.00543026,0.0542032,0,0.0544745,22813.7,-40000,0,46048.5,27546
step02_gravity_refstate-mantle.xmf,595,-2.3767e-06,3.86137e-06,0,-4.75694e-06,-1.34403e+09,-1.3432e+09,-1.34371e+09,-635765,0.00897326,0.109702,0,0.110068,7055.3,-47571.6,0,48091.9,635765
step02_gravity_refstate-mantle.xmf,596,-2.3328e-06,4.07203e-06,0,-4.15889e-06,-1.33348e+09,-1.33262e+09,-1.33316e+09,-555836,0.00834595,0.103433,0,0.103769,7707.4,-47246.4,0,47871,555836
step02_gravity_refstate-mantle.xmf,597,-2.23445e-06,4.15591e-06,0,-3.63656e-06,-1.32202e+09,-1.32116e+09,-1.32172e+09,-486026,0.00783769,0.0979204,0,0.0982335,8368.99,-46893.3,0,47634.3,486026
step02_gravity_refstate-mantle.xmf,598,-2.09511e-06,4.1386e-06,0,-3.17676e-06,-1.30892e+09,-1.30809e+09,-1.30864e+09,-424573,0.00751501,0.0930807,0,0.0933836,9049.75,-46489.7,0,47362.3,424573
step02_gravity_refstate-mantle.xmf,599,-1.17274e-05,3.20194e-05,0,-2.03554e-06,-1.63061e+09,-1.62477e+09,-1.62905e+09,-272050,-0.0154462,0.110672,-0,0.111745,1289.93,-56433.7,0,56448.4,272050
step02_gravity_refstate-mantle.xmf,600,-1.18077e-05,3.11377e-05,0,-2.50345e-06,-1.64564e+09,-1.6399e+09,-1.64406e+09,-334586,-0.020347,0.0939632,-0,0.096141,1653.54,-56894.9,0,56918.9,334586
step02_gravity_refstate-mantle.xmf,601,-1.16393e-05,3.01809e-05,0,-2.69002e-06,-1.66001e+09,-1.65442e+09,-1.65845e+09,-359521,-0.0242514,0.0785627,-0,0.0822206,1946.06,-57337.5,0,57370.5,359521
step02_gravity_refstate-mantle.xmf,602,-1.12728e-05,2.90861e-05,0,-2.59149e-06,-1.67654e+09,-1.67114e+09,-1.67503e+09,-346353,-0.0279664,0.061693,-0,0.0677358,2237.34,-57847.7,0,57891,346353
step02_gravity_refstate-mantle.xmf,603,-1.06617e-05,2.77891e-05,0,-2.17306e-06,-1.69475e+09,-1.68961e+09,-1.69332e+09,-290429,-0.031919,0.0439051,-0,0.0542814,2574.51,-58411.1,0,58467.8,290429
step02_gravity_refstate-mantle.xmf,604,-9.46131e-06,2.58302e-05,0,-1.90497e-06,-1.70729e+09,-1.70257e+09,-1.70603e+09,-254599,-0.0378183,0.0308876,-0,0.048829,3149.35,-58801.5,0,58885.8,254599
step02_gravity_refstate-mantle.xmf,605,-8.75065e-06,2.46775e-05,0,-9.78046e-07,-1.7269e+09,-1.72243e+09,-1.72573e+09,-130716,-0.0408495,0.0145758,-0,0.0433721,3470.03,-59409.1,0,59510.3,130716
step02_gravity_refstate-mantle.xmf,606,-7.96255e-06,2.3483e-05,0,-8.92981e-10,-1.74596e+09,-1.74176e+09,-1.74489e+09,-119.347,-0.0437034,-1.39147e-18,-0,0.0437034,3806.89,-60000,0,60120.6,119.347
step02_gravity_refstate-mantle.xmf,607,-2.36592e-06,3.53091e-06,0,-5.40794e-06,-1.3546e+09,-1.35381e+09,-1.35428e+09,-722772,0.00954129,0.116346,0,0.116737,6440.83,-47897.3,0,48328.4,722772
step02_gravity_refstate-mantle.xmf,608,5.9208e-07,-3.42519e-06,0,-9.07921e-06,-1.40721e+09,-1.40775e+09,-1.40729e+09,-1.21344e+06,0.0094518,0.161186,0,0.161463,3714.06,-49524.4,0,49663.5,1.21344e+06
step02_gravity_refstate-mantle.xmf,609,1.20801e-06,-5.42679e-06,0,-8.6543e-06,-1.42264e+09,-1.42352e+09,-1.4228e+09,-1.15665e+06,0.00709196,0.168053,0,0.168202,3499.28,-50000,0,50122.3,1.15665e+06
step02_gravity_refstate-mantle.xmf,610,-2.29288e-06,3.07035e-06,0,-6.10254e-06,-1.36527e+09,-1.36456e+09,-1.36497e+09,-815605,0.00997602,0.123232,0,0.123635,5874.03,-48226.4,0,48582.8,815605
step02_gravity_refstate-mantle.xmf,611,-1.35103e-06,4.49319e-07,0,-8.35231e-06,-1.39687e+09,-1.39663e+09,-1.39669e+09,-1.11629e+06,0.0100905,0.145894,0,0.146243,4429.75,-49202,0,49401,1.11629e+06
step02_gravity_refstate-mantle.xmf,612,-2.12251e-06,2.42259e-06,0,-6.84582e-06,-1.37561e+09,-1.37501e+09,-1.37533e+09,-914944,0.0102795,0.130491,0,0.130895,5348.27,-48545.3,0,48839,914944
step02_gravity_refstate-mantle.xmf,613,-1.81181e-06,1.50462e-06,0,-7.66477e-06,-1.38596e+09,-1.38551e+09,-1.38572e+09,-1.0244e+06,0.0103893,0.138354,0,0.138743,4849.44,-48864.5,0,49104.5,1.0244e+06
step02_gravity_refstate-mantle.xmf,614,-1.15493e-06,3.24837e-06,0,-5.68488e-07,-1.19688e+09,-1.19629e+09,-1.19672e+09,-75978.4,0.00592257,0.0617972,0,0.0620804,16470.3,-43032.6,0,46076.9,75978.4
step02_gravity_refstate-mantle.xmf,615,-9.77852e-07,2.88789e-06,0,-2.11627e-07,-1.13943e+09,-1.13892e+09,-1.1393e+09,-28283.9,0.00554585,0.0552693,0,0.0555469,20548.7,-41258.5,0,46092.4,28283.9
step02_gravity_refstate-mantle.xmf,616,-1.05532e-06,2.77432e-06,0,-3.02512e-07,-1.09872e+09,-1.09821e+09,-1.09858e+09,-40430.7,0.0069183,0.0571708,0,0.0575878,21297.9,-40000,0,45316.6,40430.7
step02_gravity_refstate-mantle.xmf,617,-1.06266e-06,3.0818e-06,0,-3.40425e-07,-1.17367e+09,-1.17312e+09,-1.17353e+09,-45497.8,0.00564917,0.0580192,0,0.0582935,18291.4,-42316,0,46100.1,45497.8
step02_gravity_refstate-mantle.xmf,618,-1.93695e-06,4.05812e-06,0,-2.75476e-06,-1.29435e+09,-1.29355e+09,-1.29409e+09,-368173,0.00732944,0.0886199,0,0.0889225,9775.04,-46040.5,0,47066.8,368173
step02_gravity_refstate-mantle.xmf,619,-1.78422e-06,3.94704e-06,0,-2.37234e-06,-1.27937e+09,-1.2786e+09,-1.27913e+09,-317064,0.0072291,0.0844981,0,0.0848068,10532.5,-45578.3,0,46779.5,317064
step02_gravity_refstate-mantle.xmf,620,-1.13464e-05,3.25722e-05,0,-1.60003e-06,-1.61645e+09,-1.61058e+09,-1.61493e+09,-213844,-0.0114619,0.126156,-0,0.126676,999.46,-56000,0,56008.9,213844
step02_gravity_refstate-mantle.xmf,621,1.72712e-06,-7.31206e-06,0,-7.10259e-06,-1.42268e+09,-1.42389e+09,-1.42291e+09,-949262,0.00642402,0.178654,0,0.17877,2999.32,-50000,0,50089.9,949262
step02_gravity_refstate-mantle.xmf,622,1.69156e-06,-5.77573e-06,0,-7.9089e-06,-1.40768e+09,-1.40868e+09,-1.40791e+09,-1.05702e+06,0.00884077,0.171041,0,0.171269,3236.67,-49540.4,0,49646.1,1.05702e+06
step02_gravity_refstate-mantle.xmf,623,-1.27448e-07,-1.72652e-06,0,-8.49619e-06,-1.39285e+09,-1.39306e+09,-1.39283e+09,-1.13552e+06,0.0107579,0.154882,0,0.155256,3969.23,-49080.3,0,49240.5,1.13552e+06
step02_gravity_refstate-mantle.xmf,624,-1.86814e-06,2.88763e-06,0,-5.34853e-06,-1.33323e+09,-1.33259e+09,-1.33298e+09,-714831,0.0110722,0.118576,0,0.119092,6431.98,-47238.8,0,47674.7,714831
step02_gravity_refstate-mantle.xmf,625,-1.27678e-06,3.25224e-06,0,-9.75019e-07,-1.19199e+09,-1.19138e+09,-1.19182e+09,-130311,0.00839106,0.0692868,0,0.069793,14765.2,-42880.8,0,45351.6,130311
step02_gravity_refstate-mantle.xmf,626,-1.32854e-06,3.37134e-06,0,-1.1895e-06,-1.21013e+09,-1.2095e+09,-1.20995e+09,-158977,0.00808088,0.0717311,0,0.0721848,13864.9,-43441.1,0,45600,158977
step02_gravity_refstate-mantle.xmf,627,-1.40477e-06,3.50348e-06,0,-1.44017e-06,-1.22782e+09,-1.22716e+09,-1.22763e+09,-192479,0.0078027,0.0745276,0,0.0749349,12983.1,-43987.3,0,45863.3,192479
step02_gravity_refstate-mantle.xmf,628,-1.50662e-06,3.64477e-06,0,-1.72432e-06,-1.24505e+09,-1.24436e+09,-1.24485e+09,-230456,0.00757628,0.0776324,0,0.0780012,12130.3,-44519.3,0,46142.3,230456
step02_gravity_refstate-mantle.xmf,629,-1.63371e-06,3.79643e-06,0,-2.03431e-06,-1.2624e+09,-1.26167e+09,-1.26218e+09,-271886,0.00736661,0.0809375,0,0.0812721,11313.6,-45054.7,0,46453.5,271886
step02_gravity_refstate-mantle.xmf,630,-1.16657e-06,3.11041e-06,0,-5.52496e-07,-1.16924e+09,-1.16866e+09,-1.16908e+09,-73841.1,0.0073812,0.0625111,0,0.0629454,17028.5,-42178.4,0,45486.1,73841.1
step02_gravity_refstate-mantle.xmf,631,-1.23508e-06,3.13981e-06,0,-7.93138e-07,-1.1716e+09,-1.17101e+09,-1.17143e+09,-106003,0.00876473,0.0671304,0,0.0677001,15738.2,-42251,0,45087,106003
step02_gravity_refstate-mantle.xmf,632,-1.10526e-06,2.94625e-06,0,-3.60714e-07,-1.13815e+09,-1.13761e+09,-1.13801e+09,-48209.5,0.00712421,0.0589882,0,0.0594169,19110.1,-41218.2,0,45432.8,48209.5
step02_gravity_refstate-mantle.xmf,633,-1.92448e-06,3.24341e-06,0,-4.76684e-06,-1.32173e+09,-1.32104e+09,-1.32148e+09,-637088,0.0106423,0.112322,0,0.112825,7040.45,-46884.3,0,47409.9,637088
step02_gravity_refstate-mantle.xmf,634,-1.90308e-06,3.44748e-06,0,-4.23635e-06,-1.30906e+09,-1.30835e+09,-1.30881e+09,-566188,0.0102834,0.106715,0,0.107209,7666.01,-46493.6,0,47121.3,566188
step02_gravity_refstate-mantle.xmf,635,-1.74386e-06,3.58078e-06,0,-3.28838e-06,-1.28069e+09,-1.27998e+09,-1.28046e+09,-439492,0.00980162,0.0967567,0,0.0972519,9014.98,-45618.6,0,46500.8,439492
step02_gravity_refstate-mantle.xmf,636,-1.83761e-06,3.5498e-06,0,-3.74928e-06,-1.29534e+09,-1.29462e+09,-1.29509e+09,-501091,0.0100059,0.101588,0,0.102079,8318.97,-46070.3,0,46815.3,501091
step02_gravity_refstate-mantle.xmf,637,1.95068e-06,-8.50122e-06,0,-5.70998e-06,-1.42273e+09,-1.42413e+09,-1.42299e+09,-763138,0.00552932,0.187419,0,0.187501,2499.83,-50000,0,50062.5,763138
step02_gravity_refstate-mantle.xmf,638,2.35354e-06,-7.42081e-06,0,-6.55543e-06,-1.40815e+09,-1.40946e+09,-1.40846e+09,-876133,0.00779962,0.179868,0,0.180037,2748.11,-49555,0,49631.1,876133
step02_gravity_refstate-mantle.xmf,639,-1.19704e-05,3.2595e-05,0,-1.16137e-06,-1.63011e+09,-1.62416e+09,-1.62851e+09,-155217,-0.00901223,0.113515,-0,0.113872,748.423,-56418,0,56423,155217
step02_gravity_refstate-mantle.xmf,640,-1.22612e-05,3.20782e-05,0,-1.54096e-06,-1.64476e+09,-1.63883e+09,-1.64312e+09,-205949,-0.0129063,0.0979609,-0,0.0988074,1037.62,-56867.3,0,56876.7,205949
step02_gravity_refstate-mantle.xmf,641,-1.23086e-05,3.138e-05,0,-1.83279e-06,-1.65955e+09,-1.65371e+09,-1.65791e+09,-244953,-0.0170058,0.0822632,-0,0.0840026,1342,-57322.1,0,57337.8,244953
step02_gravity_refstate-mantle.xmf,642,-1.2155e-05,3.05515e-05,0,-1.92623e-06,-1.67527e+09,-1.66956e+09,-1.67364e+09,-257441,-0.0208588,0.0659942,-0,0.0692122,1632.57,-57806.5,0,57829.5,257441
step02_gravity_refstate-mantle.xmf,643,-1.18184e-05,2.96182e-05,0,-1.77567e-06,-1.69225e+09,-1.68671e+09,-1.69067e+09,-237319,-0.0246428,0.0489963,-0,0.0548443,1930.3,-58330.8,0,58362.8,237319
step02_gravity_refstate-mantle.xmf,644,-1.06556e-05,2.75848e-05,0,-1.45526e-06,-1.71219e+09,-1.70708e+09,-1.71077e+09,-194495,-0.0323078,0.0289112,-0,0.0433549,2598.07,-58949.4,0,59006.7,194495
step02_gravity_refstate-mantle.xmf,645,-1.02458e-05,2.68961e-05,0,-8.63442e-07,-1.72737e+09,-1.72241e+09,-1.726e+09,-115399,-0.0346112,0.0155921,-0,0.0379611,2812.9,-59419.3,0,59485.9,115399
step02_gravity_refstate-mantle.xmf,646,-9.59305e-06,2.58984e-05,0,-3.70864e-09,-1.74611e+09,-1.74137e+09,-1.74483e+09,-495.66,-0.0376274,-1.49455e-18,-0,0.0376274,3114.73,-60000,0,60080.8,495.66
step02_gravity_refstate-mantle.xmf,647,-1.74081e-06,2.38654e-06,0,-5.96632e-06,-1.34444e+09,-1.34389e+09,-1.34421e+09,-797399,0.0114345,0.125166,0,0.125687,5861.18,-47584.9,0,47944.5,797399
step02_gravity_refstate-mantle.xmf,648,1.24663e-06,-4.09006e-06,0,-7.97884e-06,-1.39035e+09,-1.39107e+09,-1.39052e+09,-1.06637e+06,0.0106207,0.16419,0,0.164533,3463.14,-49006.4,0,49128.6,1.06637e+06
step02_gravity_refstate-mantle.xmf,649,-1.49962e-06,1.67571e-06,0,-6.61697e-06,-1.35529e+09,-1.35486e+09,-1.35509e+09,-884358,0.0117074,0.13228,0,0.132797,5315.95,-47919.6,0,48213.6,884358
step02_gravity_refstate-mantle.xmf,650,-3.95496e-07,-7.97906e-07,0,-7.88475e-06,-1.37652e+09,-1.37657e+09,-1.37647e+09,-1.0538e+06,0.011687,0.149132,0,0.149589,4248.78,-48576.5,0,48762,1.0538e+06
step02_gravity_refstate-mantle.xmf,651,-1.09194e-06,6.7429e-07,0,-7.28367e-06,-1.36593e+09,-1.3657e+09,-1.36579e+09,-973463,0.0118252,0.140096,0,0.140594,4787.01,-48248.6,0,48485.5,973463
step02_gravity_refstate-mantle.xmf,652,-1.27884e-06,3.0616e-06,0,-1.03614e-06,-1.16124e+09,-1.16066e+09,-1.16107e+09,-138480,0.0108414,0.0724916,0,0.0732978,14719.9,-41930.6,0,44439.3,138480
step02_gravity_refstate-mantle.xmf,653,-1.18733e-06,2.83221e-06,0,-4.19496e-07,-1.09874e+09,-1.09821e+09,-1.09858e+09,-56065.7,0.00854554,0.0605698,0,0.0611697,19844.8,-40000,0,44652.2,56065.7
step02_gravity_refstate-mantle.xmf,654,-1.21923e-06,2.98189e-06,0,-5.36312e-07,-1.13531e+09,-1.13475e+09,-1.13515e+09,-71678.1,0.00888866,0.0632823,0,0.0639035,17751.5,-41129.8,0,44797.1,71678.1
step02_gravity_refstate-mantle.xmf,655,-1.63944e-06,3.55576e-06,0,-2.86651e-06,-1.26547e+09,-1.26477e+09,-1.26525e+09,-383109,0.00969401,0.0923077,0,0.0928153,9739.39,-45149,0,46187.5,383109
step02_gravity_refstate-mantle.xmf,656,-1.5244e-06,3.4665e-06,0,-2.49587e-06,-1.24804e+09,-1.24738e+09,-1.24784e+09,-333572,0.0098429,0.0885305,0,0.089076,10472.9,-44611.2,0,45824,333572
step02_gravity_refstate-mantle.xmf,657,-1.39946e-06,2.35103e-06,0,-5.19197e-06,-1.31199e+09,-1.31149e+09,-1.31181e+09,-693906,0.0121812,0.120297,0,0.120913,6431.32,-46584.7,0,47026.6,693906
step02_gravity_refstate-mantle.xmf,658,2.63089e-06,-8.50166e-06,0,-5.21377e-06,-1.40857e+09,-1.41006e+09,-1.40892e+09,-696820,0.00652868,0.187376,0,0.18749,2249.92,-49567.1,0,49618.2,696820
step02_gravity_refstate-mantle.xmf,659,-1.1518e-05,3.292e-05,0,-7.8266e-07,-1.61645e+09,-1.61051e+09,-1.61491e+09,-104603,-0.00575863,0.127888,-0,0.128018,500.036,-56000,0,56002.2,104603
step02_gravity_refstate-mantle.xmf,660,-1.15385e-05,3.30319e-05,0,-7.35113e-09,-1.61645e+09,-1.61049e+09,-1.61491e+09,-982.478,1.208e-07,0.128464,0,0.128464,-4.01542e-10,-56000,-0,56000,982.478
step02_gravity_refstate-mantle.xmf,661,-1.20726e-05,3.28615e-05,0,-3.20815e-07,-1.62915e+09,-1.62315e+09,-1.62754e+09,-42876.9,-0.00258611,0.11557,-0,0.115599,214.674,-56388.5,0,56388.9,42876.9
step02_gravity_refstate-mantle.xmf,662,-1.14346e-05,2.8811e-05,0,-1.46093e-06,-1.70662e+09,-1.70124e+09,-1.70509e+09,-195253,-0.0275902,0.0351585,-0,0.0446916,2174.2,-58775.2,0,58815.4,195253
step02_gravity_refstate-mantle.xmf,663,2.14468e-06,-6.07339e-06,0,-7.132e-06,-1.39519e+09,-1.39629e+09,-1.39548e+09,-953191,0.00948711,0.17308,0,0.17334,2996.1,-49156.8,0,49248,953191
step02_gravity_refstate-mantle.xmf,664,4.97059e-07,-2.4234e-06,0,-7.94848e-06,-1.37986e+09,-1.38025e+09,-1.37993e+09,-1.06231e+06,0.0115033,0.156739,0,0.157161,3823.16,-48681.6,0,48831.5,1.06231e+06
step02_gravity_refstate-mantle.xmf,665,-1.23772e-06,1.84808e-06,0,-5.72454e-06,-1.32362e+09,-1.32321e+09,-1.32346e+09,-765084,0.0124315,0.126468,0,0.127077,5865.42,-46943.6,0,47308.6,765084
step02_gravity_refstate-mantle.xmf,666,-1.2892e-06,3.10901e-06,0,-1.24913e-06,-1.17585e+09,-1.17526e+09,-1.17568e+09,-166946,0.0108269,0.0752074,0,0.0759827,13856.1,-42381.8,0,44589.4,166946
step02_gravity_refstate-mantle.xmf,667,-1.31124e-06,3.18821e-06,0,-1.51387e-06,-1.1942e+09,-1.1936e+09,-1.19403e+09,-202329,0.0105733,0.0782261,0,0.0789374,12942.9,-42948.9,0,44856.7,202329
step02_gravity_refstate-mantle.xmf,668,-1.35624e-06,3.27428e-06,0,-1.81337e-06,-1.21205e+09,-1.21144e+09,-1.21187e+09,-242357,0.0103259,0.0814994,0,0.0821509,12074.9,-43500.2,0,45145,242357
step02_gravity_refstate-mantle.xmf,669,-1.42557e-06,3.35944e-06,0,-2.14962e-06,-1.22927e+09,-1.22863e+09,-1.22907e+09,-287296,0.0101426,0.0850798,0,0.0856822,11242.6,-44031.6,0,45444.2,287296
step02_gravity_refstate-mantle.xmf,670,-1.2801e-06,2.97878e-06,0,-7.36154e-07,-1.13396e+09,-1.13339e+09,-1.13379e+09,-98387,0.0105919,0.0678515,0,0.0686732,16468.1,-41087.5,0,44264.9,98387
step02_gravity_refstate-mantle.xmf,671,-1.30613e-06,2.93425e-06,0,-9.58656e-07,-1.13195e+09,-1.13139e+09,-1.13178e+09,-128124,0.0123432,0.072941,0,0.073978,15235.7,-41025.3,0,43763,128124
step02_gravity_refstate-mantle.xmf,672,-1.29723e-06,2.86727e-06,0,-5.56864e-07,-1.09876e+09,-1.09821e+09,-1.09859e+09,-74424.9,0.0102757,0.064418,0,0.0652324,18450.5,-40000,0,44050.2,74424.9
step02_gravity_refstate-mantle.xmf,673,-1.44835e-06,2.65095e-06,0,-4.69221e-06,-1.29857e+09,-1.29802e+09,-1.29837e+09,-627114,0.0119994,0.114866,0,0.115491,7001.79,-46170.3,0,46698.2,627114
step02_gravity_refstate-mantle.xmf,674,-1.42456e-06,2.81458e-06,0,-4.23464e-06,-1.28282e+09,-1.28225e+09,-1.28263e+09,-565960,0.0119612,0.11016,0,0.110807,7578.01,-45684.4,0,46308.6,565960
step02_gravity_refstate-mantle.xmf,675,-1.37789e-06,3.06174e-06,0,-3.29708e-06,-1.25251e+09,-1.25192e+09,-1.25233e+09,-440654,0.0117196,0.100037,0,0.100721,8969.95,-44749.2,0,45639.3,440654
step02_gravity_refstate-mantle.xmf,676,-1.40077e-06,2.95935e-06,0,-3.75097e-06,-1.26718e+09,-1.2666e+09,-1.267e+09,-501317,0.011853,0.105047,0,0.105713,8252.31,-45202,0,45949.2,501317
step02_gravity_refstate-mantle.xmf,677,2.13483e-06,-9.3118e-06,0,-4.42928e-06,-1.42276e+09,-1.42429e+09,-1.42304e+09,-591974,0.00450626,0.194461,0,0.194513,2000,-50000,0,50040,591974
step02_gravity_refstate-mantle.xmf,678,2.79486e-06,-7.30262e-06,0,-5.85254e-06,-1.39109e+09,-1.39244e+09,-1.39146e+09,-782192,0.00850312,0.179842,0,0.180043,2493.12,-49031.2,0,49094.6,782192
step02_gravity_refstate-mantle.xmf,679,-1.1964e-05,3.28673e-05,0,3.67967e-07,-1.62695e+09,-1.62096e+09,-1.62535e+09,49178.8,0.00277543,0.117769,0,0.117802,-232.005,-56321,-0,56321.5,49178.8
step02_gravity_refstate-mantle.xmf,680,-1.24694e-05,3.25717e-05,0,-6.6961e-07,-1.64369e+09,-1.63767e+09,-1.64203e+09,-89493.4,-0.0056338,0.100682,-0,0.100839,451.131,-56834.2,0,56835.9,89493.4
step02_gravity_refstate-mantle.xmf,681,-1.26983e-05,3.2116e-05,0,-1.00522e-06,-1.65888e+09,-1.65289e+09,-1.65719e+09,-134347,-0.00947515,0.084993,-0,0.0855195,740.698,-57300.7,0,57305.5,134347
step02_gravity_refstate-mantle.xmf,682,-1.27256e-05,3.15345e-05,0,-1.22968e-06,-1.67421e+09,-1.66829e+09,-1.67251e+09,-164347,-0.0134264,0.0692031,-0,0.0704935,1036.34,-57772.4,0,57781.7,164347
step02_gravity_refstate-mantle.xmf,683,-1.2589e-05,3.08336e-05,0,-1.2452e-06,-1.69164e+09,-1.68583e+09,-1.68996e+09,-166421,-0.0172541,0.0516349,-0,0.0544414,1325.41,-58309.9,0,58325,166421
step02_gravity_refstate-mantle.xmf,684,-1.22579e-05,3.0024e-05,0,-1.07518e-06,-1.70889e+09,-1.70324e+09,-1.70725e+09,-143698,-0.0213628,0.0345949,-0,0.0406593,1647.64,-58843,0,58866.1,143698
step02_gravity_refstate-mantle.xmf,685,-1.16008e-05,2.88901e-05,0,-7.67544e-07,-1.72499e+09,-1.71958e+09,-1.72344e+09,-102582,-0.0269137,0.0189762,-0,0.0329309,2108.48,-59341.9,0,59379.4,102582
step02_gravity_refstate-mantle.xmf,686,-1.10319e-05,2.80165e-05,0,-7.31753e-09,-1.74625e+09,-1.74103e+09,-1.74477e+09,-977.988,-0.0304863,-1.82445e-18,-0,0.0304863,2422.55,-60000,0,60048.9,977.988
step02_gravity_refstate-mantle.xmf,687,-9.27784e-07,1.08779e-06,0,-6.28003e-06,-1.33453e+09,-1.33426e+09,-1.33441e+09,-839326,0.012653,0.133594,0,0.134192,5285.77,-47280.8,0,47575.3,839326
step02_gravity_refstate-mantle.xmf,688,1.34235e-06,-3.62449e-06,0,-7.3416e-06,-1.37118e+09,-1.37184e+09,-1.37136e+09,-981205,0.0115299,0.161683,0,0.162094,3476.78,-48415.9,0,48540.6,981205
step02_gravity_refstate-mantle.xmf,689,2.21654e-06,-5.48825e-06,0,-6.81705e-06,-1.37946e+09,-1.38049e+09,-1.37975e+09,-911098,0.0103427,0.170446,0,0.17076,2985.42,-48672.8,0,48764.2,911098
step02_gravity_refstate-mantle.xmf,690,-4.96577e-07,1.14743e-07,0,-6.80216e-06,-1.34547e+09,-1.34539e+09,-1.3454e+09,-909109,0.0126888,0.140995,0,0.141564,4744.78,-47619,0,47854.8,909109
step02_gravity_refstate-mantle.xmf,691,5.12021e-07,-2.09084e-06,0,-7.48828e-06,-1.36648e+09,-1.36683e+09,-1.36655e+09,-1.00081e+06,0.0120832,0.154353,0,0.154825,3910.24,-48269.3,0,48427.4,1.00081e+06
step02_gravity_refstate-mantle.xmf,692,1.18206e-07,-1.17338e-06,0,-7.23863e-06,-1.35621e+09,-1.35638e+09,-1.35622e+09,-967444,0.0124854,0.14905,0,0.149572,4215.92,-47951.6,0,48136.5,967444
step02_gravity_refstate-mantle.xmf,693,-1.29019e-06,2.86411e-06,0,-1.23929e-06,-1.13665e+09,-1.13609e+09,-1.13647e+09,-165631,0.0137258,0.0785513,0,0.0797415,13910.9,-41170.3,0,43456.9,165631
step02_gravity_refstate-mantle.xmf,694,-1.37497e-06,2.87128e-06,0,-7.13486e-07,-1.09878e+09,-1.09821e+09,-1.0986e+09,-95357.4,0.0120633,0.0687232,0,0.0697739,17111.7,-40000,0,43506.4,95357.4
step02_gravity_refstate-mantle.xmf,695,-1.31191e-06,3.0568e-06,0,-2.904e-06,-1.2357e+09,-1.23512e+09,-1.23553e+09,-388120,0.0118741,0.0961233,0,0.0968539,9642.02,-44230.5,0,45269.2,388120
step02_gravity_refstate-mantle.xmf,696,-1.18042e-06,2.91222e-06,0,-2.56712e-06,-1.21148e+09,-1.21093e+09,-1.21132e+09,-343095,0.0126816,0.0936538,0,0.0945085,10265,-43482.8,0,44678,343095
step02_gravity_refstate-mantle.xmf,697,-8.07471e-07,1.44865e-06,0,-5.41947e-06,-1.30265e+09,-1.30235e+09,-1.30254e+09,-724312,0.013113,0.12717,0,0.127844,5895.02,-46297.8,0,46671.6,724312
step02_gravity_refstate-mantle.xmf,698,-1.01827e-06,1.96556e-06,0,-4.99321e-06,-1.29332e+09,-1.29292e+09,-1.29318e+09,-667342,0.012914,0.121476,0,0.12216,6436.71,-46009.4,0,46457.5,667342
step02_gravity_refstate-mantle.xmf,699,2.83982e-06,-9.22972e-06,0,-3.95319e-06,-1.40824e+09,-1.40985e+09,-1.40862e+09,-528343,0.00516983,0.19326,0,0.193329,1742.63,-49556.4,0,49587,528343
step02_gravity_refstate-mantle.xmf,700,3.08343e-06,-8.44222e-06,0,-4.6393e-06,-1.39589e+09,-1.39743e+09,-1.3963e+09,-620043,0.00675471,0.187154,0,0.187276,1999.88,-49178.6,0,49219.3,620043
step02_gravity_refstate-mantle.xmf,701,-1.14901e-05,3.29185e-05,0,7.7147e-07,-1.61645e+09,-1.61051e+09,-1.61491e+09,103107,0.00575853,0.127888,0,0.128018,-500.036,-56000,-0,56002.2,103107
step02_gravity_refstate-mantle.xmf,702,-1.24785e-05,3.26878e-05,0,2.59076e-07,-1.64157e+09,-1.63553e+09,-1.6399e+09,34625.5,0.00222503,0.103144,0,0.103168,-178.797,-56768.7,-0,56769,34625.5
step02_gravity_refstate-mantle.xmf,703,-4.83612e-07,7.1958e-07,0,-5.88259e-06,-1.31379e+09,-1.31363e+09,-1.31372e+09,-786208,0.0132169,0.133934,0,0.134585,5303.92,-46642,0,46942.6,786208
step02_gravity_refstate-mantle.xmf,704,-1.23611e-06,2.90974e-06,0,-1.50995e-06,-1.16112e+09,-1.16057e+09,-1.16096e+09,-201804,0.0131241,0.0814372,0,0.0824879,12925.9,-41926.8,0,43874.1,201804
step02_gravity_refstate-mantle.xmf,705,-1.21432e-06,2.94096e-06,0,-1.81554e-06,-1.17958e+09,-1.17902e+09,-1.17941e+09,-242647,0.012838,0.0849079,0,0.085873,12026.8,-42497.1,0,44166.1,242647
step02_gravity_refstate-mantle.xmf,706,-1.2019e-06,2.94284e-06,0,-2.15079e-06,-1.19544e+09,-1.19489e+09,-1.19528e+09,-287453,0.0126934,0.0887466,0,0.0896497,11186.6,-42987.2,0,44418.9,287453
step02_gravity_refstate-mantle.xmf,707,-1.40981e-06,2.83708e-06,0,-8.88209e-07,-1.09879e+09,-1.09822e+09,-1.0986e+09,-118709,0.0138547,0.0734851,0,0.0747798,15824.5,-40000,0,43016.5,118709
step02_gravity_refstate-mantle.xmf,708,-1.38885e-06,2.75363e-06,0,-1.07434e-06,-1.09879e+09,-1.09824e+09,-1.09861e+09,-143586,0.0155897,0.0786917,0,0.0802211,14585.2,-40000,0,42576.1,143586
step02_gravity_refstate-mantle.xmf,709,-8.52354e-07,1.91969e-06,0,-4.62697e-06,-1.27266e+09,-1.27229e+09,-1.27255e+09,-618394,0.0133076,0.11913,0,0.119871,6772.14,-45372.2,0,45874.8,618394
step02_gravity_refstate-mantle.xmf,710,-1.03212e-06,2.60426e-06,0,-3.22336e-06,-1.22506e+09,-1.22457e+09,-1.22492e+09,-430803,0.013353,0.102898,0,0.103761,8914.78,-43902.4,0,44798.4,430803
step02_gravity_refstate-mantle.xmf,711,-9.48911e-07,2.25401e-06,0,-4.09154e-06,-1.25507e+09,-1.25464e+09,-1.25494e+09,-546834,0.0132963,0.112935,0,0.113715,7516.02,-44829.1,0,45454.8,546834
step02_gravity_refstate-mantle.xmf,712,-1.0027e-06,2.47035e-06,0,-3.63501e-06,-1.23973e+09,-1.23926e+09,-1.23959e+09,-485819,0.0132971,0.107606,0,0.108425,8223.53,-44355.3,0,45111.2,485819
step02_gravity_refstate-mantle.xmf,713,2.2305e-06,-9.84442e-06,0,-3.23702e-06,-1.42278e+09,-1.4244e+09,-1.42308e+09,-432627,0.00341387,0.199851,0,0.19988,1500.17,-50000,0,50022.5,432627
step02_gravity_refstate-mantle.xmf,714,3.35877e-06,-7.87664e-06,0,-4.56451e-06,-1.37999e+09,-1.38149e+09,-1.38044e+09,-610047,0.0074278,0.18343,0,0.183581,1975.78,-48690.8,0,48730.9,610047
step02_gravity_refstate-mantle.xmf,715,-1.20337e-05,3.26067e-05,0,1.08241e-06,-1.63109e+09,-1.62513e+09,-1.62949e+09,144665,0.00840726,0.1127,0,0.113013,-695.867,-56448,-0,56452.3,144665
step02_gravity_refstate-mantle.xmf,716,-1.28408e-05,3.24346e-05,0,-1.98277e-07,-1.65778e+09,-1.65173e+09,-1.65606e+09,-26499.8,-0.00182895,0.0869706,-0,0.0869898,142.59,-57266.4,0,57266.6,26499.8
step02_gravity_refstate-mantle.xmf,717,-1.3032e-05,3.20718e-05,0,-5.16946e-07,-1.67375e+09,-1.66772e+09,-1.67201e+09,-69089.8,-0.00566808,0.070889,-0,0.0711152,434.21,-57757.5,0,57759.2,69089.8
step02_gravity_refstate-mantle.xmf,718,-1.30658e-05,3.16101e-05,0,-6.81287e-07,-1.69086e+09,-1.68489e+09,-1.68912e+09,-91054,-0.00942119,0.0537244,-0,0.0545442,715.212,-58284.7,0,58289.1,91054
step02_gravity_refstate-mantle.xmf,719,-1.29367e-05,3.10622e-05,0,-6.74775e-07,-1.7089e+09,-1.70302e+09,-1.70717e+09,-90183.6,-0.013465,0.0358309,-0,0.0382775,1020.77,-58841.3,0,58850.1,90183.6
step02_gravity_refstate-mantle.xmf,720,-1.26293e-05,3.04144e-05,0,-4.69014e-07,-1.72709e+09,-1.72134e+09,-1.7254e+09,-62683.7,-0.0180105,0.0181051,-0,0.0255377,1373.17,-59403.8,0,59419.6,62683.7
step02_gravity_refstate-mantle.xmf,721,-1.2186e-05,2.9719e-05,0,-5.15624e-09,-1.74636e+09,-1.74076e+09,-1.74473e+09,-689.132,-0.0224522,-1.74596e-18,-0,0.0224522,1730.41,-60000,0,60024.9,689.132
step02_gravity_refstate-mantle.xmf,722,2.94385e-06,-6.49064e-06,0,-5.62098e-06,-1.37024e+09,-1.3715e+09,-1.37063e+09,-751244,0.00936748,0.17548,0,0.17573,2488.49,-48390.2,0,48454.2,751244
step02_gravity_refstate-mantle.xmf,723,-3.18096e-08,-2.30023e-07,0,-6.30033e-06,-1.32503e+09,-1.32505e+09,-1.32502e+09,-842039,0.0131586,0.141201,0,0.141812,4727.27,-46989.8,0,47227,842039
step02_gravity_refstate-mantle.xmf,724,1.26651e-06,-2.91358e-06,0,-6.83271e-06,-1.35103e+09,-1.35158e+09,-1.35119e+09,-913192,0.0121919,0.157347,0,0.157819,3632.19,-47794.7,0,47932.5,913192
step02_gravity_refstate-mantle.xmf,725,2.20402e-06,-4.74016e-06,0,-6.41713e-06,-1.35978e+09,-1.3607e+09,-1.36007e+09,-857649,0.0110375,0.166529,0,0.166895,3043.17,-48066.6,0,48162.9,857649
step02_gravity_refstate-mantle.xmf,726,5.53326e-07,-1.42044e-06,0,-6.62499e-06,-1.3367e+09,-1.33696e+09,-1.33677e+09,-885430,0.012858,0.148891,0,0.149446,4173.17,-47351.2,0,47534.7,885430
step02_gravity_refstate-mantle.xmf,727,-1.18791e-06,2.65961e-06,0,-1.50058e-06,-1.12877e+09,-1.12825e+09,-1.12861e+09,-200552,0.0157997,0.0854034,0,0.0868526,12708.2,-40927,0,42854.6,200552
step02_gravity_refstate-mantle.xmf,728,-1.30567e-06,2.62158e-06,0,-1.27136e-06,-1.09879e+09,-1.09826e+09,-1.09861e+09,-169918,0.0171983,0.0843181,0,0.0860542,13389.8,-40000,0,42181.6,169918
step02_gravity_refstate-mantle.xmf,729,-1.01786e-06,2.64012e-06,0,-2.90641e-06,-1.21091e+09,-1.21042e+09,-1.21077e+09,-388442,0.013603,0.0997417,0,0.100665,9456.93,-43465.5,0,44482.4,388442
step02_gravity_refstate-mantle.xmf,730,-9.66776e-07,2.58141e-06,0,-2.38096e-06,-1.18012e+09,-1.17964e+09,-1.17999e+09,-318215,0.0145851,0.0953129,0,0.0964224,10406.4,-42514.4,0,43769.5,318215
step02_gravity_refstate-mantle.xmf,731,-4.67157e-07,1.19333e-06,0,-5.07155e-06,-1.28103e+09,-1.28081e+09,-1.28097e+09,-677813,0.0135999,0.12707,0,0.127796,5981.71,-45631.5,0,46021.9,677813
step02_gravity_refstate-mantle.xmf,732,-1.06291e-07,4.58509e-07,0,-5.46255e-06,-1.29218e+09,-1.29211e+09,-1.29217e+09,-730070,0.0135878,0.133903,0,0.134591,5339.42,-45976.5,0,46285.5,730070
step02_gravity_refstate-mantle.xmf,733,2.92772e-06,-9.70953e-06,0,-2.77998e-06,-1.40862e+09,-1.41031e+09,-1.40901e+09,-371544,0.00372724,0.197678,0,0.197713,1250.43,-49567.4,0,49583.2,371544
step02_gravity_refstate-mantle.xmf,734,3.43639e-06,-9.03434e-06,0,-3.36439e-06,-1.39165e+09,-1.39332e+09,-1.39211e+09,-449651,0.00524236,0.191128,0,0.1912,1470.16,-49048.5,0,49070.6,449651
step02_gravity_refstate-mantle.xmf,735,2.27484e-06,-1.01827e-05,0,-2.1237e-06,-1.4228e+09,-1.42447e+09,-1.42311e+09,-283833,0.00228953,0.203653,0,0.203666,1000.68,-50000,0,50010,283833
step02_gravity_refstate-mantle.xmf,736,-1.13439e-05,3.2586e-05,0,1.57878e-06,-1.61644e+09,-1.61057e+09,-1.61493e+09,211004,0.0114625,0.126156,0,0.126675,-999.46,-56000,-0,56008.9,211004
step02_gravity_refstate-mantle.xmf,737,-1.24467e-05,3.2396e-05,0,9.94225e-07,-1.64523e+09,-1.63923e+09,-1.64356e+09,132878,0.00846767,0.0986723,0,0.099035,-677.15,-56881.2,-0,56885.3,132878
step02_gravity_refstate-mantle.xmf,738,3.43921e-07,-4.33545e-07,0,-5.78886e-06,-1.30355e+09,-1.30366e+09,-1.3036e+09,-773681,0.0134036,0.140889,0,0.141525,4734.66,-46328.4,0,46569.7,773681
step02_gravity_refstate-mantle.xmf,739,3.52048e-06,-7.18903e-06,0,-4.35664e-06,-1.36108e+09,-1.36251e+09,-1.36155e+09,-582265,0.00781962,0.179297,0,0.179467,1950.38,-48109.3,0,48148.9,582265
step02_gravity_refstate-mantle.xmf,740,-1.12954e-06,2.71544e-06,0,-1.72004e-06,-1.15159e+09,-1.15108e+09,-1.15144e+09,-229883,0.0148047,0.0868984,0,0.0881505,12103.5,-41632.6,0,43356.3,229883
step02_gravity_refstate-mantle.xmf,741,-9.82811e-07,2.56673e-06,0,-2.05443e-06,-1.15951e+09,-1.15903e+09,-1.15937e+09,-274575,0.0152908,0.0922753,0,0.0935337,11113.2,-41877.7,0,43327.1,274575
step02_gravity_refstate-mantle.xmf,742,-8.28958e-07,2.38329e-06,0,-2.7133e-06,-1.18623e+09,-1.1858e+09,-1.18612e+09,-362633,0.0149193,0.100522,0,0.101623,9607.31,-42703.6,0,43771,362633
step02_gravity_refstate-mantle.xmf,743,-7.21373e-07,2.21503e-06,0,-3.06245e-06,-1.19744e+09,-1.19705e+09,-1.19735e+09,-409297,0.0148463,0.105204,0,0.106246,8883.04,-43050.4,0,43957.3,409297
step02_gravity_refstate-mantle.xmf,744,-3.60107e-07,1.4424e-06,0,-4.26977e-06,-1.24156e+09,-1.24132e+09,-1.24151e+09,-570654,0.0142375,0.120704,0,0.12154,6776.01,-44413.6,0,44927.6,570654
step02_gravity_refstate-mantle.xmf,745,-6.39875e-07,2.05063e-06,0,-3.44172e-06,-1.21203e+09,-1.21167e+09,-1.21194e+09,-459985,0.0145941,0.109751,0,0.110717,8198.62,-43501,0,44266.8,459985
step02_gravity_refstate-mantle.xmf,746,-5.24616e-07,1.80066e-06,0,-3.85453e-06,-1.2271e+09,-1.22679e+09,-1.22703e+09,-515157,0.0143922,0.115007,0,0.115904,7480.84,-43966.6,0,44598.5,515157
step02_gravity_refstate-mantle.xmf,747,-1.11195e-07,9.25885e-07,0,-4.68088e-06,-1.25586e+09,-1.25573e+09,-1.25585e+09,-625599,0.0140787,0.127049,0,0.127827,6063.16,-44855.8,0,45263.7,625599
step02_gravity_refstate-mantle.xmf,748,3.77319e-06,-8.29961e-06,0,-3.29094e-06,-1.37191e+09,-1.37352e+09,-1.37241e+09,-439834,0.00574677,0.186115,0,0.186204,1441.01,-48442.8,0,48464.2,439834
step02_gravity_refstate-mantle.xmf,749,2.99097e-06,-1.00053e-05,0,-1.65462e-06,-1.40862e+09,-1.41036e+09,-1.40902e+09,-221139,0.00225092,0.200587,0,0.200599,750.7,-49567.2,0,49572.9,221139
step02_gravity_refstate-mantle.xmf,750,-1.17384e-05,3.21162e-05,0,1.93147e-06,-1.6299e+09,-1.62404e+09,-1.62833e+09,258141,0.014749,0.111679,0,0.112649,-1233.04,-56411.8,-0,56425.2,258141
step02_gravity_refstate-mantle.xmf,751,-1.21701e-05,3.21458e-05,0,1.53714e-06,-1.64103e+09,-1.63511e+09,-1.6394e+09,205439,0.012557,0.101716,0,0.102488,-1017.22,-56752.8,-0,56761.9,205439
step02_gravity_refstate-mantle.xmf,752,-1.27879e-05,3.23369e-05,0,6.093e-07,-1.65734e+09,-1.65131e+09,-1.65563e+09,81432.9,0.00570861,0.087105,0,0.0872919,-446.022,-57253.1,-0,57254.8,81432.9
step02_gravity_refstate-mantle.xmf,753,-1.30778e-05,3.21852e-05,0,1.89558e-07,-1.67289e+09,-1.66684e+09,-1.67115e+09,25334.5,0.00212524,0.0719615,0,0.0719929,-162.723,-57731.1,-0,57731.3,25334.5
step02_gravity_refstate-mantle.xmf,754,-1.32503e-05,3.19313e-05,0,-1.08165e-07,-1.68997e+09,-1.68394e+09,-1.6882e+09,-14456.3,-0.00145753,0.0551415,-0,0.0551607,110.164,-58256.9,0,58257,14456.3
step02_gravity_refstate-mantle.xmf,755,-1.32931e-05,3.16224e-05,0,-2.66026e-07,-1.70833e+09,-1.70233e+09,-1.70656e+09,-35554.4,-0.00525665,0.0370439,-0,0.037415,394.982,-58823,0,58824.3,35554.4
step02_gravity_refstate-mantle.xmf,756,-1.32016e-05,3.12758e-05,0,-2.40736e-07,-1.72724e+09,-1.7213e+09,-1.72548e+09,-32174.3,-0.00934067,0.0185206,-0,0.0207427,701.886,-59406.8,0,59411,32174.3
step02_gravity_refstate-mantle.xmf,757,-1.2972e-05,3.08834e-05,0,-5.23224e-09,-1.74643e+09,-1.74057e+09,-1.7447e+09,-699.288,-0.0137458,-1.79252e-18,-0,0.0137458,1038.24,-60000,0,60009,699.288
step02_gravity_refstate-mantle.xmf,758,3.01532e-06,-5.83329e-06,0,-5.24003e-06,-1.35034e+09,-1.35152e+09,-1.35074e+09,-700330,0.00967243,0.17186,0,0.172132,2474.97,-47777.8,0,47841.9,700330
step02_gravity_refstate-mantle.xmf,759,9.1265e-07,-1.5369e-06,0,-6.01263e-06,-1.31533e+09,-1.31566e+09,-1.31545e+09,-803587,0.0129903,0.148276,0,0.148844,4145.36,-46693.3,0,46876.9,803587
step02_gravity_refstate-mantle.xmf,760,2.32019e-06,-4.32194e-06,0,-5.8383e-06,-1.33937e+09,-1.34026e+09,-1.33968e+09,-780288,0.0111915,0.163941,0,0.164323,3022.51,-47438.1,0,47534.3,780288
step02_gravity_refstate-mantle.xmf,761,1.58163e-06,-2.84254e-06,0,-6.06944e-06,-1.32751e+09,-1.3281e+09,-1.32772e+09,-811181,0.0122832,0.155962,0,0.156445,3578.94,-47070.6,0,47206.5,811181
step02_gravity_refstate-mantle.xmf,762,-1.01786e-06,2.43914e-06,0,-1.75197e-06,-1.12738e+09,-1.12692e+09,-1.12725e+09,-234151,0.0170781,0.0915275,0,0.0931072,11641.5,-40884.8,0,42509.9,234151
step02_gravity_refstate-mantle.xmf,763,-1.14088e-06,2.42116e-06,0,-1.46644e-06,-1.09877e+09,-1.09829e+09,-1.09861e+09,-195989,0.0186119,0.0903232,0,0.0922208,12234.4,-40000,0,41829.2,195989
step02_gravity_refstate-mantle.xmf,764,-6.83678e-07,2.13554e-06,0,-2.41929e-06,-1.1553e+09,-1.15493e+09,-1.15521e+09,-323338,0.0166397,0.100944,0,0.102306,9851.73,-41748.7,0,42895.4,323338
step02_gravity_refstate-mantle.xmf,765,2.35012e-07,2.5363e-07,0,-5.02497e-06,-1.26881e+09,-1.26881e+09,-1.26884e+09,-671587,0.0138601,0.133704,0,0.134421,5381.47,-45256.3,0,45575.2,671587
step02_gravity_refstate-mantle.xmf,766,6.51899e-07,-5.51833e-07,0,-5.29823e-06,-1.28151e+09,-1.28167e+09,-1.2816e+09,-708109,0.0135144,0.140326,0,0.140976,4755.1,-45649.4,0,45896.4,708109
step02_gravity_refstate-mantle.xmf,767,3.37289e-06,-9.5729e-06,0,-2.19877e-06,-1.39743e+09,-1.39916e+09,-1.39788e+09,-293865,0.00334223,0.196129,0,0.196157,976.104,-49225.2,0,49234.9,293865
step02_gravity_refstate-mantle.xmf,768,3.79086e-06,-9.16354e-06,0,-2.13731e-06,-1.38251e+09,-1.38424e+09,-1.38301e+09,-285651,0.00362409,0.192031,0,0.192065,942.278,-48768,0,48777.1,285651
step02_gravity_refstate-mantle.xmf,769,2.28845e-06,-1.03634e-05,0,-1.04968e-06,-1.42281e+09,-1.4245e+09,-1.42312e+09,-140290,0.00114791,0.205919,0,0.205922,500.717,-50000,0,50002.5,140290
step02_gravity_refstate-mantle.xmf,770,-1.10911e-05,3.19957e-05,0,2.43932e-06,-1.61644e+09,-1.61068e+09,-1.61496e+09,326015,0.0170606,0.123243,0,0.124418,-1498.34,-56000,-0,56020,326015
step02_gravity_refstate-mantle.xmf,771,-1.19464e-05,3.15243e-05,0,2.18217e-06,-1.64376e+09,-1.63795e+09,-1.64216e+09,291647,0.017779,0.0970128,0,0.0986285,-1442.87,-56837.1,-0,56855.4,291647
step02_gravity_refstate-mantle.xmf,772,-1.24759e-05,3.18825e-05,0,1.45034e-06,-1.65514e+09,-1.64921e+09,-1.65347e+09,193838,0.0131388,0.0877778,0,0.0887557,-1037.16,-57186,-0,57195.4,193838
step02_gravity_refstate-mantle.xmf,773,1.18854e-06,-1.55167e-06,0,-5.4453e-06,-1.29346e+09,-1.29383e+09,-1.29362e+09,-727764,0.0129641,0.147333,0,0.147902,4136.87,-46019.6,0,46205.1,727764
step02_gravity_refstate-mantle.xmf,774,3.59436e-06,-6.53336e-06,0,-4.02936e-06,-1.34159e+09,-1.34294e+09,-1.34207e+09,-538523,0.00786245,0.175497,0,0.175673,1913.84,-47509.5,0,47548,538523
step02_gravity_refstate-mantle.xmf,775,3.93139e-06,-7.61728e-06,0,-3.11593e-06,-1.35317e+09,-1.35472e+09,-1.3537e+09,-416444,0.00589906,0.181739,0,0.181835,1410.53,-47866.8,0,47887.6,416444
step02_gravity_refstate-mantle.xmf,776,-7.38036e-07,2.14919e-06,0,-1.99569e-06,-1.12699e+09,-1.12661e+09,-1.1269e+09,-266724,0.0180704,0.0981773,0,0.0998264,10555.6,-40873.9,0,42214.9,266724
step02_gravity_refstate-mantle.xmf,777,-4.87557e-07,1.92371e-06,0,-2.81406e-06,-1.17001e+09,-1.16969e+09,-1.16995e+09,-376099,0.0162846,0.106528,0,0.107766,8939.1,-42203.8,0,43140.1,376099
step02_gravity_refstate-mantle.xmf,778,-3.20149e-07,1.69789e-06,0,-3.17389e-06,-1.18353e+09,-1.18326e+09,-1.18349e+09,-424190,0.0158932,0.111516,0,0.112643,8183.97,-42622.1,0,43400.7,424190
step02_gravity_refstate-mantle.xmf,779,3.50982e-07,5.35074e-07,0,-4.23683e-06,-1.22639e+09,-1.22636e+09,-1.22643e+09,-566253,0.0145681,0.128436,0,0.12926,5987.08,-43947.3,0,44353.2,566253
step02_gravity_refstate-mantle.xmf,780,3.37766e-08,1.08615e-06,0,-3.93434e-06,-1.21505e+09,-1.2149e+09,-1.21505e+09,-525825,0.0149537,0.122145,0,0.123057,6731.15,-43596.3,0,44112.9,525825
step02_gravity_refstate-mantle.xmf,781,-1.59817e-07,1.43464e-06,0,-3.55562e-06,-1.19907e+09,-1.19886e+09,-1.19905e+09,-475209,0.0154156,0.116628,0,0.117642,7454.92,-43102.4,0,43742.4,475209
step02_gravity_refstate-mantle.xmf,782,5.91186e-07,2.71006e-08,0,-4.57641e-06,-1.24401e+09,-1.24408e+09,-1.24408e+09,-611637,0.0140636,0.133988,0,0.134724,5363.8,-44491.9,0,44814,611637
step02_gravity_refstate-mantle.xmf,783,4.05659e-06,-8.51409e-06,0,-2.089e-06,-1.36531e+09,-1.36699e+09,-1.36585e+09,-279195,0.00382322,0.187469,0,0.187508,922.86,-48240.3,0,48249.1,279195
step02_gravity_refstate-mantle.xmf,784,2.91266e-06,-1.01561e-05,0,-7.82049e-07,-1.41077e+09,-1.41252e+09,-1.41116e+09,-104521,0.00105984,0.202498,0,0.202501,364.345,-49632.6,0,49634,104521
step02_gravity_refstate-mantle.xmf,785,3.50312e-06,-9.78748e-06,0,-1.04034e-06,-1.39579e+09,-1.39756e+09,-1.39626e+09,-139042,0.00163311,0.197695,0,0.197702,466.956,-49174.8,0,49177,139042
step02_gravity_refstate-mantle.xmf,786,2.29619e-06,-1.04376e-05,0,-1.75614e-08,-1.42282e+09,-1.42452e+09,-1.42312e+09,-2347.09,-7.16289e-08,0.206672,-0,0.206672,0,-50000,0,50000,2347.09
step02_gravity_refstate-mantle.xmf,787,-1.1401e-05,3.13544e-05,0,2.76676e-06,-1.6303e+09,-1.62459e+09,-1.62878e+09,369778,0.0203627,0.108223,0,0.110122,-1716.45,-56424.6,-0,56450.7,369778
step02_gravity_refstate-mantle.xmf,788,-1.28776e-05,3.18722e-05,0,9.26571e-07,-1.67161e+09,-1.66563e+09,-1.66989e+09,123836,0.00985253,0.0724394,0,0.0731064,-758.908,-57692.1,-0,57697.1,123836
step02_gravity_refstate-mantle.xmf,789,-1.31542e-05,3.18078e-05,0,4.79743e-07,-1.68888e+09,-1.68287e+09,-1.68712e+09,64117.7,0.00648777,0.0559547,0,0.0563295,-491.781,-58223.5,-0,58225.6,64117.7
step02_gravity_refstate-mantle.xmf,790,-1.33312e-05,3.17003e-05,0,1.5345e-07,-1.70753e+09,-1.70151e+09,-1.70574e+09,20508.6,0.00300873,0.0379139,0,0.0380331,-225.913,-58797.9,-0,58798.4,20508.6
step02_gravity_refstate-mantle.xmf,791,-1.34029e-05,3.15883e-05,0,-1.46523e-08,-1.7266e+09,-1.72059e+09,-1.72481e+09,-1958.29,-0.000598627,0.0193415,-0,0.0193508,44.7528,-59386.5,0,59386.5,1958.29
step02_gravity_refstate-mantle.xmf,792,-1.33667e-05,3.14688e-05,0,-4.52652e-09,-1.74647e+09,-1.74047e+09,-1.74468e+09,-604.97,-0.00462736,-1.87807e-18,-0,0.00462736,346.07,-60000,0,60001,604.97
step02_gravity_refstate-mantle.xmf,793,3.0855e-06,-5.30804e-06,0,-4.74806e-06,-1.33007e+09,-1.33119e+09,-1.33048e+09,-634578,0.00958677,0.168829,0,0.169101,2430.38,-47153.3,0,47215.9,634578
step02_gravity_refstate-mantle.xmf,794,1.81294e-06,-2.71427e-06,0,-5.42401e-06,-1.30528e+09,-1.30589e+09,-1.30552e+09,-724919,0.0121443,0.154498,0,0.154974,3540.52,-46385.9,0,46520.8,724919
step02_gravity_refstate-mantle.xmf,795,2.46969e-06,-4.00679e-06,0,-5.20808e-06,-1.3177e+09,-1.31857e+09,-1.31803e+09,-696059,0.0110091,0.161781,0,0.162155,2966.03,-46770.5,0,46864.5,696059
step02_gravity_refstate-mantle.xmf,796,-8.9263e-07,2.15456e-06,0,-1.65385e-06,-1.09873e+09,-1.09833e+09,-1.09862e+09,-221037,0.0197514,0.0966474,0,0.098645,11115.2,-40000,0,41515.6,221037
step02_gravity_refstate-mantle.xmf,797,-4.03251e-07,1.74534e-06,0,-2.22114e-06,-1.1246e+09,-1.12431e+09,-1.12455e+09,-296856,0.0188744,0.105418,0,0.107094,9463,-40801.2,0,41884.2,296856
step02_gravity_refstate-mantle.xmf,798,-2.91851e-07,1.68733e-06,0,-2.54281e-06,-1.14465e+09,-1.14439e+09,-1.14462e+09,-339847,0.0177499,0.107976,0,0.109425,8934.31,-41421.3,0,42373.9,339847
step02_gravity_refstate-mantle.xmf,799,9.71744e-07,-6.80283e-07,0,-4.78848e-06,-1.2575e+09,-1.25772e+09,-1.25763e+09,-639981,0.0135231,0.140092,0,0.140744,4733.19,-44909.3,0,45158.1,639981
step02_gravity_refstate-mantle.xmf,800,1.43628e-06,-1.5449e-06,0,-4.90224e-06,-1.27074e+09,-1.27113e+09,-1.27093e+09,-655184,0.012827,0.146468,0,0.147029,4115.34,-45319.2,0,45505.7,655184
step02_gravity_refstate-mantle.xmf,801,3.96608e-06,-9.24244e-06,0,-1.01183e-06,-1.37819e+09,-1.37995e+09,-1.37872e+09,-135231,0.00176716,0.192631,0,0.192639,445.594,-48635.5,0,48637.6,135231
step02_gravity_refstate-mantle.xmf,802,3.14273e-06,-1.00984e-05,0,9.17604e-09,-1.40604e+09,-1.40781e+09,-1.40646e+09,1226.38,3.04641e-08,0.201424,0,0.201424,0,-49488.4,0,49488.4,1226.38
step02_gravity_refstate-mantle.xmf,803,-1.07107e-05,3.11117e-05,0,3.37655e-06,-1.61643e+09,-1.61084e+09,-1.615e+09,451276,0.0225038,0.119104,0,0.121211,-1997.54,-56000,-0,56035.6,451276
step02_gravity_refstate-mantle.xmf,804,-1.15212e-05,3.06481e-05,0,2.91429e-06,-1.64457e+09,-1.63893e+09,-1.64303e+09,389494,0.0230832,0.0933597,0,0.096171,-1892.14,-56862.7,-0,56894.1,389494
step02_gravity_refstate-mantle.xmf,805,-1.20668e-05,3.10096e-05,0,2.17566e-06,-1.65817e+09,-1.65242e+09,-1.65656e+09,290777,0.0197199,0.0824909,0,0.0848153,-1567.75,-57280.2,-0,57301.6,290777
step02_gravity_refstate-mantle.xmf,806,-1.24622e-05,3.11852e-05,0,1.61059e-06,-1.6717e+09,-1.66587e+09,-1.67003e+09,215255,0.0169394,0.0706803,0,0.0726818,-1318.39,-57695.8,-0,57710.9,215255
step02_gravity_refstate-mantle.xmf,807,1.95165e-06,-2.50439e-06,0,-4.87592e-06,-1.28314e+09,-1.28374e+09,-1.2834e+09,-651666,0.0119568,0.152738,0,0.153205,3538.38,-45703.4,0,45840.1,651666
step02_gravity_refstate-mantle.xmf,808,3.62601e-06,-5.94688e-06,0,-3.62323e-06,-1.32191e+09,-1.32319e+09,-1.32239e+09,-484244,0.00762592,0.172153,0,0.172322,1856.13,-46903.4,0,46940.1,484244
step02_gravity_refstate-mantle.xmf,809,3.98706e-06,-6.91708e-06,0,-2.83408e-06,-1.33324e+09,-1.3347e+09,-1.33377e+09,-378775,0.00577875,0.177569,0,0.177663,1362.78,-47253.3,0,47272.9,378775
step02_gravity_refstate-mantle.xmf,810,4.20512e-06,-7.82695e-06,0,-1.93889e-06,-1.34566e+09,-1.34727e+09,-1.34622e+09,-259133,0.0038184,0.182687,0,0.182727,889.032,-47636.1,0,47644.4,259133
step02_gravity_refstate-mantle.xmf,811,9.24512e-07,-1.9459e-07,0,-4.17711e-06,-1.22275e+09,-1.2229e+09,-1.22287e+09,-558271,0.0141493,0.134893,0,0.135633,5257.23,-43836.9,0,44151,558271
step02_gravity_refstate-mantle.xmf,812,-5.55684e-07,1.82114e-06,0,-1.82095e-06,-1.09869e+09,-1.09837e+09,-1.09862e+09,-243370,0.0205403,0.103213,0,0.105237,10028,-40000,0,41237.9,243370
step02_gravity_refstate-mantle.xmf,813,-8.04566e-08,1.43974e-06,0,-2.84282e-06,-1.15536e+09,-1.15515e+09,-1.15534e+09,-379943,0.0172732,0.112614,0,0.113931,8218.8,-41752.6,0,42553.8,379943
step02_gravity_refstate-mantle.xmf,814,1.48609e-07,1.14303e-06,0,-3.19935e-06,-1.17047e+09,-1.17033e+09,-1.17049e+09,-427593,0.0165268,0.117863,0,0.119016,7442.57,-42220.2,0,42871.2,427593
step02_gravity_refstate-mantle.xmf,815,5.10745e-07,5.41212e-07,0,-3.82415e-06,-1.20226e+09,-1.20225e+09,-1.20233e+09,-511098,0.0151159,0.127021,0,0.127917,6197.58,-43203.1,0,43645.4,511098
step02_gravity_refstate-mantle.xmf,816,3.5151e-07,8.22337e-07,0,-3.56319e-06,-1.18775e+09,-1.18769e+09,-1.1878e+09,-476220,0.0157212,0.122978,0,0.123979,6727.58,-42754.7,0,43280.7,476220
step02_gravity_refstate-mantle.xmf,817,7.03442e-08,1.28459e-06,0,-2.41521e-06,-1.1255e+09,-1.12534e+09,-1.12551e+09,-322793,0.019002,0.11301,0,0.114597,8338.25,-40830.9,0,41673.6,322793
step02_gravity_refstate-mantle.xmf,818,1.2471e-06,-7.6791e-07,0,-4.31099e-06,-1.23371e+09,-1.23398e+09,-1.23387e+09,-576164,0.0134951,0.139892,0,0.140541,4697.03,-44176.1,0,44425.1,576164
step02_gravity_refstate-mantle.xmf,819,4.24072e-06,-8.4881e-06,0,-9.91431e-07,-1.3582e+09,-1.3599e+09,-1.35876e+09,-132505,0.00189041,0.187201,0,0.187211,444.4,-48021.9,0,48023.9,132505
step02_gravity_refstate-mantle.xmf,820,2.90235e-06,-1.01566e-05,0,7.79585e-07,-1.41077e+09,-1.41252e+09,-1.41116e+09,104192,-0.00105978,0.202498,-0,0.202501,-364.345,-49632.6,-0,49634,104192
step02_gravity_refstate-mantle.xmf,821,2.32474e-06,-1.03655e-05,0,1.04727e-06,-1.42281e+09,-1.4245e+09,-1.42312e+09,139968,-0.0011481,0.205919,-0,0.205922,-500.717,-50000,-0,50002.5,139968
step02_gravity_refstate-mantle.xmf,822,-1.09092e-05,3.02876e-05,0,3.66099e-06,-1.6306e+09,-1.62509e+09,-1.62914e+09,489291,0.0257396,0.103874,0,0.107016,-2196.75,-56434.2,-0,56477,489291
step02_gravity_refstate-mantle.xmf,823,-1.27913e-05,3.12441e-05,0,1.08154e-06,-1.68795e+09,-1.68207e+09,-1.68624e+09,144548,0.0141221,0.0558079,0,0.057567,-1080.59,-58195.7,-0,58205.8,144548
step02_gravity_refstate-mantle.xmf,824,-1.30712e-05,3.13297e-05,0,5.86247e-07,-1.70581e+09,-1.69988e+09,-1.70407e+09,78351.9,0.0108898,0.0390777,0,0.0405666,-823.205,-58745.8,-0,58751.6,78351.9
step02_gravity_refstate-mantle.xmf,825,-1.32568e-05,3.13885e-05,0,2.16749e-07,-1.72589e+09,-1.71992e+09,-1.72412e+09,28968.5,0.00786533,0.0198866,0,0.0213855,-590.289,-59364.9,-0,59367.9,28968.5
step02_gravity_refstate-mantle.xmf,826,-1.33595e-05,3.14587e-05,0,-3.26789e-09,-1.74647e+09,-1.74048e+09,-1.74468e+09,-436.753,0.0046293,-1.93618e-18,0,0.0046293,-346.07,-60000,-0,60001,436.753
step02_gravity_refstate-mantle.xmf,827,3.1659e-06,-4.8992e-06,0,-4.21191e-06,-1.30953e+09,-1.31061e+09,-1.30995e+09,-562922,0.00920438,0.166327,0,0.166581,2347.89,-46520.6,0,46579.8,562922
step02_gravity_refstate-mantle.xmf,828,2.65792e-06,-3.77052e-06,0,-4.49678e-06,-1.29264e+09,-1.2935e+09,-1.293e+09,-600995,0.0104947,0.159838,0,0.160182,2854.98,-45998.4,0,46086.9,600995
step02_gravity_refstate-mantle.xmf,829,9.40145e-07,-5.19516e-08,0,-3.87359e-06,-1.20318e+09,-1.20331e+09,-1.20331e+09,-517706,0.0146085,0.132633,0,0.133435,5518.45,-43233,0,43583.7,517706
step02_gravity_refstate-mantle.xmf,830,-1.28384e-07,1.41924e-06,0,-1.95264e-06,-1.09863e+09,-1.09842e+09,-1.09861e+09,-260970,0.020905,0.109919,0,0.11189,8968.72,-40000,0,40993.1,260970
step02_gravity_refstate-mantle.xmf,831,1.67072e-06,-1.51199e-06,0,-4.35844e-06,-1.24625e+09,-1.24667e+09,-1.24647e+09,-582506,0.0126311,0.145637,0,0.146183,4079.8,-44564.4,0,44750.7,582506
step02_gravity_refstate-mantle.xmf,832,2.13128e-06,-2.36953e-06,0,-4.30733e-06,-1.25958e+09,-1.26018e+09,-1.25986e+09,-575674,0.0116012,0.151492,0,0.151935,3479.11,-44977.1,0,45111.4,575674
step02_gravity_refstate-mantle.xmf,833,1.50418e-06,-8.22395e-07,0,-3.81101e-06,-1.20649e+09,-1.2068e+09,-1.20669e+09,-509341,0.0135542,0.139393,0,0.14005,4677.84,-43336.9,0,43588.6,509341
step02_gravity_refstate-mantle.xmf,834,3.74382e-06,-9.64629e-06,0,-5.66058e-09,-1.38858e+09,-1.39037e+09,-1.38908e+09,-756.537,-1.57482e-08,0.196158,-0,0.196158,0,-48954.1,0,48954.1,756.537
step02_gravity_refstate-mantle.xmf,835,4.13363e-06,-9.03846e-06,0,-4.79667e-09,-1.37029e+09,-1.37205e+09,-1.37084e+09,-641.074,1.49468e-07,0.190936,0,0.190936,0,-48393.3,0,48393.3,641.074
step02_gravity_refstate-mantle.xmf,836,2.27429e-06,-1.01971e-05,0,2.09229e-06,-1.4228e+09,-1.42447e+09,-1.42311e+09,279635,-0.00228903,0.203653,-0,0.203666,-1000.68,-50000,-0,50010,279635
step02_gravity_refstate-mantle.xmf,837,2.96362e-06,-1.00262e-05,0,1.66355e-06,-1.4098e+09,-1.41154e+09,-1.4102e+09,222334,-0.00224326,0.200902,-0,0.200915,-761.518,-49603.5,-0,49609.4,222334
step02_gravity_refstate-mantle.xmf,838,3.48356e-06,-9.80492e-06,0,1.04881e-06,-1.39625e+09,-1.39803e+09,-1.39672e+09,140174,-0.0016542,0.197811,-0,0.197818,-475.095,-49188.9,-0,49191.2,140174
step02_gravity_refstate-mantle.xmf,839,-1.0169e-05,2.98641e-05,0,4.40822e-06,-1.61642e+09,-1.61106e+09,-1.61506e+09,589158,0.0277225,0.113679,0,0.117011,-2497.35,-56000,-0,56055.7,589158
step02_gravity_refstate-mantle.xmf,840,-1.14821e-05,2.99109e-05,0,2.86963e-06,-1.65931e+09,-1.65378e+09,-1.65778e+09,383526,0.0254127,0.0785337,0,0.082543,-2048.49,-57316.4,-0,57353,383526
step02_gravity_refstate-mantle.xmf,841,-1.08523e-05,2.93463e-05,0,3.74506e-06,-1.64521e+09,-1.63983e+09,-1.64376e+09,500527,0.028577,0.0887747,0,0.0932609,-2380.55,-56883.5,-0,56933.3,500527
step02_gravity_refstate-mantle.xmf,842,-1.1942e-05,3.02966e-05,0,2.20448e-06,-1.67162e+09,-1.66598e+09,-1.67003e+09,294628,0.0225549,0.0687127,0,0.0723198,-1778.93,-57694.6,-0,57722,294628
step02_gravity_refstate-mantle.xmf,843,-1.21671e-05,3.03046e-05,0,1.68968e-06,-1.68628e+09,-1.6806e+09,-1.68465e+09,225826,0.0214377,0.0555372,0,0.0595311,-1668.01,-58145.8,-0,58169.7,225826
step02_gravity_refstate-mantle.xmf,844,2.4895e-06,-3.1177e-06,0,-4.24092e-06,-1.27224e+09,-1.27299e+09,-1.27258e+09,-566799,0.0107417,0.156109,0,0.156479,3045.32,-45368.8,0,45470.9,566799
step02_gravity_refstate-mantle.xmf,845,3.63014e-06,-5.51815e-06,0,-3.27252e-06,-1.30492e+09,-1.30614e+09,-1.30541e+09,-437373,0.00729426,0.169557,0,0.169714,1796.57,-46379.7,0,46414.5,437373
step02_gravity_refstate-mantle.xmf,846,3.96934e-06,-6.22742e-06,0,-2.51762e-06,-1.31263e+09,-1.314e+09,-1.31316e+09,-336480,0.00552858,0.17364,0,0.173728,1316.66,-46618.4,0,46637,336480
step02_gravity_refstate-mantle.xmf,847,4.22185e-06,-7.03361e-06,0,-1.69539e-06,-1.325e+09,-1.3265e+09,-1.32556e+09,-226589,0.0035691,0.178194,0,0.17823,827.851,-46999.9,0,47007.2,226589
step02_gravity_refstate-mantle.xmf,848,4.34246e-06,-7.77352e-06,0,-8.96321e-07,-1.33857e+09,-1.34019e+09,-1.33915e+09,-119793,0.00181794,0.182354,0,0.182363,417.632,-47418.1,0,47419.9,119793
step02_gravity_refstate-mantle.xmf,849,9.06877e-07,1.83219e-07,0,-3.5037e-06,-1.18141e+09,-1.1815e+09,-1.18153e+09,-468269,0.0153826,0.129517,0,0.130427,5916.64,-42560.7,0,42970,468269
step02_gravity_refstate-mantle.xmf,850,3.93632e-07,9.20801e-07,0,-2.79273e-06,-1.14186e+09,-1.14179e+09,-1.14191e+09,-373249,0.0178435,0.118787,0,0.12012,7440.73,-41337.5,0,42001.8,373249
step02_gravity_refstate-mantle.xmf,851,6.78564e-07,5.58005e-07,0,-3.13637e-06,-1.15879e+09,-1.15881e+09,-1.15888e+09,-419175,0.0166591,0.124179,0,0.125292,6652.69,-41861.5,0,42386.9,419175
step02_gravity_refstate-mantle.xmf,852,3.81134e-07,9.56825e-07,0,-2.03911e-06,-1.09856e+09,-1.09848e+09,-1.09861e+09,-272527,0.0207767,0.116647,0,0.118483,7933.15,-40000,0,40779.1,272527
step02_gravity_refstate-mantle.xmf,853,1.82226e-06,-1.45159e-06,0,-3.9479e-06,-1.22501e+09,-1.22545e+09,-1.22525e+09,-527637,0.0125348,0.144718,0,0.14526,4074.2,-43909.6,0,44098.2,527637
step02_gravity_refstate-mantle.xmf,854,4.33101e-06,-8.29115e-06,0,8.29671e-09,-1.35112e+09,-1.3528e+09,-1.3517e+09,1108.86,5.69519e-09,0.185841,0,0.185841,0,-47804.3,0,47804.3,1108.86
step02_gravity_refstate-mantle.xmf,855,2.93013e-06,-9.71919e-06,0,2.75514e-06,-1.40861e+09,-1.4103e+09,-1.409e+09,368224,-0.00372754,0.197676,-0,0.197711,-1250.43,-49567.2,-0,49583,368224
step02_gravity_refstate-mantle.xmf,856,2.23165e-06,-9.86695e-06,0,3.20623e-06,-1.42278e+09,-1.4244e+09,-1.42308e+09,428512,-0.00341415,0.199851,-0,0.19988,-1500.17,-50000,-0,50022.5,428512
step02_gravity_refstate-mantle.xmf,857,-1.01802e-05,2.87598e-05,0,4.6723e-06,-1.63069e+09,-1.62549e+09,-1.62933e+09,624453,0.031004,0.0984663,0,0.103232,-2695.27,-56438.2,-0,56502.5,624453
step02_gravity_refstate-mantle.xmf,858,-1.1316e-05,2.91018e-05,0,2.53935e-06,-1.67796e+09,-1.67255e+09,-1.67644e+09,339384,0.0277106,0.0605658,0,0.066604,-2212.44,-57891.4,-0,57933.7,339384
step02_gravity_refstate-mantle.xmf,859,-1.25369e-05,3.05354e-05,0,1.04761e-06,-1.70396e+09,-1.6982e+09,-1.70229e+09,140014,0.0183453,0.039775,0,0.0438019,-1405.91,-58690.2,-0,58707,140014
step02_gravity_refstate-mantle.xmf,860,-1.28566e-05,3.08224e-05,0,5.05469e-07,-1.72243e+09,-1.71659e+09,-1.72071e+09,67556,0.015202,0.0227512,0,0.0273627,-1153.05,-59259.3,-0,59270.5,67556
step02_gravity_refstate-mantle.xmf,861,-1.29438e-05,3.08467e-05,0,-1.75356e-09,-1.74643e+09,-1.74057e+09,-1.7447e+09,-234.364,0.0137479,-2.21768e-18,0,0.0137479,-1038.24,-60000,-0,60009,234.364
step02_gravity_refstate-mantle.xmf,862,3.35597e-06,-4.74307e-06,0,-3.4804e-06,-1.28986e+09,-1.29094e+09,-1.29031e+09,-465156,0.00817627,0.165285,0,0.165487,2093.06,-45914.5,0,45962.2,465156
step02_gravity_refstate-mantle.xmf,863,3.0337e-06,-3.87413e-06,0,-3.57876e-06,-1.27055e+09,-1.27147e+09,-1.27095e+09,-478302,0.00904873,0.160431,0,0.160686,2439.39,-45318.2,0,45383.8,478302
step02_gravity_refstate-mantle.xmf,864,4.3374e-06,-7.09038e-06,0,-6.997e-07,-1.32047e+09,-1.322e+09,-1.32105e+09,-93514.9,0.00149551,0.178342,0,0.178349,344.506,-46860.6,0,46861.9,93514.9
step02_gravity_refstate-mantle.xmf,865,1.42741e-06,-4.56905e-07,0,-3.42138e-06,-1.17942e+09,-1.17967e+09,-1.17961e+09,-457268,0.0144916,0.135563,0,0.136336,5117.77,-42501.1,0,42808.1,457268
step02_gravity_refstate-mantle.xmf,866,5.83908e-07,7.59976e-07,0,-2.37269e-06,-1.11636e+09,-1.11634e+09,-1.11644e+09,-317110,0.0192878,0.119552,0,0.121098,7426.37,-40550.8,0,41225.2,317110
step02_gravity_refstate-mantle.xmf,867,2.71571e-06,-3.04944e-06,0,-3.60855e-06,-1.24996e+09,-1.25073e+09,-1.25032e+09,-482283,0.00993734,0.155568,0,0.155885,2834.62,-44682.1,0,44772,482283
step02_gravity_refstate-mantle.xmf,868,2.33371e-06,-2.22386e-06,0,-3.67821e-06,-1.23034e+09,-1.23094e+09,-1.23065e+09,-491593,0.0111479,0.150119,0,0.150532,3390.09,-44075.5,0,44205.7,491593
step02_gravity_refstate-mantle.xmf,869,2.15368e-06,-1.62026e-06,0,-3.41656e-06,-1.20312e+09,-1.20362e+09,-1.20341e+09,-456623,0.0119489,0.145733,0,0.146222,3794.36,-43235.2,0,43401.4,456623
step02_gravity_refstate-mantle.xmf,870,3.99669e-06,-9.20073e-06,0,1.0272e-06,-1.37672e+09,-1.37848e+09,-1.37725e+09,137285,-0.00181579,0.192197,-0,0.192206,-454.544,-48590.5,-0,48592.7,137285
step02_gravity_refstate-mantle.xmf,871,4.2424e-06,-8.54698e-06,0,9.98408e-07,-1.35875e+09,-1.36046e+09,-1.35932e+09,133437,-0.00189982,0.18734,-0,0.18735,-447.161,-48038.9,-0,48041,133437
step02_gravity_refstate-mantle.xmf,872,3.37922e-06,-9.58101e-06,0,2.21901e-06,-1.39766e+09,-1.39939e+09,-1.39811e+09,296570,-0.00334027,0.196188,-0,0.196217,-977.841,-49232.4,-0,49242.1,296570
step02_gravity_refstate-mantle.xmf,873,2.83837e-06,-9.24941e-06,0,3.92281e-06,-1.40824e+09,-1.40986e+09,-1.40862e+09,524284,-0.0051698,0.19326,-0,0.193329,-1742.65,-49556.4,-0,49587,524284
step02_gravity_refstate-mantle.xmf,874,2.14063e-06,-9.34194e-06,0,4.39153e-06,-1.42276e+09,-1.4243e+09,-1.42305e+09,586928,-0.00450622,0.19446,-0,0.194512,-2000,-50000,-0,50040,586928
step02_gravity_refstate-mantle.xmf,875,-9.41867e-06,2.81236e-05,0,5.55223e-06,-1.6164e+09,-1.61138e+09,-1.61514e+09,742055,0.0326188,0.106917,0,0.111782,-2997.53,-56000,-0,56080.2,742055
step02_gravity_refstate-mantle.xmf,876,-1.06012e-05,2.83564e-05,0,3.55877e-06,-1.66068e+09,-1.65547e+09,-1.65926e+09,475630,0.0311714,0.0734237,0,0.0797665,-2566.21,-57360.4,-0,57417.8,475630
step02_gravity_refstate-mantle.xmf,877,-9.87267e-06,2.7531e-05,0,4.58826e-06,-1.64589e+09,-1.64089e+09,-1.64457e+09,613220,0.0338673,0.0831165,0,0.0897515,-2887.68,-56906.6,-0,56979.8,613220
step02_gravity_refstate-mantle.xmf,878,-1.16543e-05,2.91645e-05,0,1.55268e-06,-1.7027e+09,-1.69724e+09,-1.70114e+09,207515,0.0260794,0.0391013,0,0.0470005,-2045.34,-58653.5,-0,58689.2,207515
step02_gravity_refstate-mantle.xmf,879,3.81986e-06,-5.48705e-06,0,-2.49607e-06,-1.29171e+09,-1.29295e+09,-1.29222e+09,-333599,0.00580668,0.169351,0,0.16945,1426.42,-45972.9,0,45995,333599
step02_gravity_refstate-mantle.xmf,880,4.18042e-06,-6.19251e-06,0,-1.20538e-06,-1.29958e+09,-1.30097e+09,-1.30014e+09,-161099,0.00278294,0.173489,0,0.173511,658.891,-46216.7,0,46221.4,161099
step02_gravity_refstate-mantle.xmf,881,4.39468e-06,-7.5532e-06,0,5.98343e-09,-1.33101e+09,-1.33261e+09,-1.3316e+09,799.686,6.00175e-07,0.180954,0,0.180954,0,-47185.6,0,47185.6,799.686
step02_gravity_refstate-mantle.xmf,882,1.27506e-06,-6.84333e-08,0,-3.03513e-06,-1.15401e+09,-1.15419e+09,-1.15418e+09,-405645,0.0159221,0.130972,0,0.131937,5726.96,-41716.2,0,42107.4,405645
step02_gravity_refstate-mantle.xmf,883,1.9841e-06,-1.11864e-06,0,-3.18682e-06,-1.17848e+09,-1.17889e+09,-1.17874e+09,-425919,0.0130683,0.141465,0,0.142067,4276.29,-42474.1,0,42688.8,425919
step02_gravity_refstate-mantle.xmf,884,1.01455e-06,3.01781e-07,0,-2.604e-06,-1.12675e+09,-1.12685e+09,-1.12689e+09,-348024,0.0179641,0.125546,0,0.126825,6521.96,-40873.5,0,41390.6,348024
step02_gravity_refstate-mantle.xmf,885,9.61668e-07,4.39575e-07,0,-2.063e-06,-1.09848e+09,-1.09855e+09,-1.0986e+09,-275720,0.0201003,0.123252,0,0.124881,6916.9,-40000,0,40593.6,275720
step02_gravity_refstate-mantle.xmf,886,4.32845e-06,-7.94505e-06,0,8.90313e-07,-1.34333e+09,-1.34497e+09,-1.34391e+09,118990,-0.00179522,0.18351,-0,0.183519,-413.252,-47564.7,-0,47566.5,118990
step02_gravity_refstate-mantle.xmf,887,3.79651e-06,-9.17309e-06,0,2.14671e-06,-1.3825e+09,-1.38424e+09,-1.38301e+09,286908,-0.0036241,0.192031,-0,0.192065,-942.278,-48768,-0,48777.1,286908
step02_gravity_refstate-mantle.xmf,888,3.45726e-06,-9.00429e-06,0,3.41699e-06,-1.39209e+09,-1.39376e+09,-1.39255e+09,456681,-0.00524246,0.191207,-0,0.191279,-1475.71,-49062.3,-0,49084.5,456681
step02_gravity_refstate-mantle.xmf,889,2.63921e-06,-8.52175e-06,0,5.19117e-06,-1.40858e+09,-1.41007e+09,-1.40893e+09,693800,-0.0065282,0.187378,-0,0.187491,-2249.92,-49567.3,-0,49618.3,693800
step02_gravity_refstate-mantle.xmf,890,-9.09469e-06,2.65441e-05,0,5.75192e-06,-1.6311e+09,-1.62634e+09,-1.62988e+09,768745,0.0359376,0.0915785,0,0.0983775,-3203.58,-56452.3,-0,56543.1,768745
step02_gravity_refstate-mantle.xmf,891,-1.01038e-05,2.72396e-05,0,3.18e-06,-1.67623e+09,-1.67124e+09,-1.67488e+09,425007,0.034164,0.0581605,0,0.0674524,-2817.51,-57841.3,-0,57909.9,425007
step02_gravity_refstate-mantle.xmf,892,-1.2187e-05,2.97856e-05,0,8.09801e-07,-1.72022e+09,-1.71461e+09,-1.71859e+09,108230,0.0221359,0.024022,0,0.0326658,-1707.34,-59192.7,-0,59217.3,108230
step02_gravity_refstate-mantle.xmf,893,-1.21908e-05,2.97456e-05,0,-1.0578e-08,-1.74635e+09,-1.74075e+09,-1.74473e+09,-1413.74,0.0224527,-1.79938e-18,0,0.0224527,-1730.41,-60000,-0,60024.9,1413.74
step02_gravity_refstate-mantle.xmf,894,3.54546e-06,-4.60535e-06,0,-2.65825e-06,-1.27033e+09,-1.27142e+09,-1.27081e+09,-355275,0.00668718,0.164624,0,0.16476,1721.77,-45313,0,45345.7,355275
step02_gravity_refstate-mantle.xmf,895,3.25292e-06,-3.77585e-06,0,-2.80574e-06,-1.2487e+09,-1.24964e+09,-1.24913e+09,-374987,0.00768031,0.160006,0,0.16019,2082.22,-44644.9,0,44693.4,374987
step02_gravity_refstate-mantle.xmf,896,4.3046e-06,-6.70406e-06,0,5.56957e-09,-1.30992e+09,-1.31139e+09,-1.3105e+09,744.373,-4.30908e-07,0.176333,-0,0.176333,0,-46535.7,0,46535.7,744.373
step02_gravity_refstate-mantle.xmf,897,1.8519e-06,-7.14096e-07,0,-2.88143e-06,-1.1525e+09,-1.15284e+09,-1.15275e+09,-385103,0.0145096,0.137325,0,0.13809,4795.09,-41671.9,0,41946.9,385103
step02_gravity_refstate-mantle.xmf,898,2.95502e-06,-2.989e-06,0,-2.90828e-06,-1.22603e+09,-1.22683e+09,-1.22643e+09,-388692,0.00880575,0.155323,0,0.155572,2515.92,-43944.9,0,44016.8,388692
step02_gravity_refstate-mantle.xmf,899,2.71158e-06,-2.31958e-06,0,-2.8956e-06,-1.2026e+09,-1.20328e+09,-1.20297e+09,-386998,0.00990378,0.150975,0,0.151299,2953.63,-43221.2,0,43322,386998
step02_gravity_refstate-mantle.xmf,900,2.53848e-06,-1.76656e-06,0,-2.77412e-06,-1.1775e+09,-1.17807e+09,-1.17784e+09,-370761,0.0110847,0.146902,0,0.147319,3395.58,-42445.9,0,42581.5,370761
step02_gravity_refstate-mantle.xmf,901,4.07371e-06,-8.5355e-06,0,2.10487e-06,-1.36466e+09,-1.36634e+09,-1.3652e+09,281316,-0.00386555,0.187258,-0,0.187298,-931.546,-48220.1,-0,48229.1,281316
step02_gravity_refstate-mantle.xmf,902,4.20566e-06,-7.88008e-06,0,1.93703e-06,-1.34685e+09,-1.34847e+09,-1.34741e+09,258885,-0.00380307,0.182984,-0,0.183023,-886.358,-47672.7,-0,47680.9,258885
step02_gravity_refstate-mantle.xmf,903,1.96609e-06,-8.54462e-06,0,5.66571e-06,-1.42273e+09,-1.42414e+09,-1.423e+09,757223,-0.00552935,0.187419,-0,0.1875,-2499.83,-50000,-0,50062.5,757223
step02_gravity_refstate-mantle.xmf,904,3.1053e-06,-8.44547e-06,0,4.67434e-06,-1.39589e+09,-1.39743e+09,-1.3963e+09,624725,-0.00675499,0.187153,-0,0.187275,-2000,-49178.6,-0,49219.3,624725
step02_gravity_refstate-mantle.xmf,905,-8.34009e-06,2.54198e-05,0,6.99311e-06,-1.61639e+09,-1.61188e+09,-1.61527e+09,934630,0.037054,0.0988176,0,0.105536,-3497.18,-56000,-0,56109.1,934630
step02_gravity_refstate-mantle.xmf,906,-9.33219e-06,2.625e-05,0,4.19652e-06,-1.66102e+09,-1.65626e+09,-1.65977e+09,560865,0.0367233,0.0681795,0,0.0774405,-3121.83,-57374.2,-0,57459.1,560865
step02_gravity_refstate-mantle.xmf,907,-8.38131e-06,2.49993e-05,0,5.27599e-06,-1.64603e+09,-1.64157e+09,-1.64491e+09,705136,0.0389122,0.0766071,0,0.0859233,-3438.68,-56914.3,-0,57018.1,705136
step02_gravity_refstate-mantle.xmf,908,-1.06349e-05,2.77478e-05,0,2.27897e-06,-1.69375e+09,-1.68862e+09,-1.69233e+09,304584,0.0321124,0.0446664,0,0.0550118,-2593.66,-58380.4,-0,58438,304584
step02_gravity_refstate-mantle.xmf,909,-1.14202e-05,2.86159e-05,0,7.924e-07,-1.72558e+09,-1.72023e+09,-1.72406e+09,105904,0.0279894,0.0182862,0,0.0334334,-2202.01,-59360.6,-0,59401.4,105904
step02_gravity_refstate-mantle.xmf,910,3.90668e-06,-5.19573e-06,0,-1.63795e-06,-1.27367e+09,-1.27488e+09,-1.27419e+09,-218912,0.00407326,0.167993,0,0.168042,1012.8,-45417,0,45428.3,218912
step02_gravity_refstate-mantle.xmf,911,4.20347e-06,-5.95099e-06,0,7.13803e-09,-1.28778e+09,-1.28913e+09,-1.28834e+09,953.997,-7.61278e-08,0.172025,-0,0.172025,0,-45852.8,0,45852.8,953.997
step02_gravity_refstate-mantle.xmf,912,4.23978e-06,-6.54483e-06,0,1.05351e-06,-1.30813e+09,-1.30957e+09,-1.30869e+09,140801,-0.0023422,0.175409,-0,0.175424,-547.087,-46480.1,-0,46483.3,140801
step02_gravity_refstate-mantle.xmf,913,4.27315e-06,-7.27669e-06,0,1.5228e-06,-1.32896e+09,-1.3305e+09,-1.32953e+09,203523,-0.00317134,0.17937,-0,0.179398,-732.742,-47122.1,-0,47127.8,203523
step02_gravity_refstate-mantle.xmf,914,1.71127e-06,-3.5942e-07,0,-2.48701e-06,-1.12581e+09,-1.12609e+09,-1.12604e+09,-332389,0.016454,0.133108,0,0.134121,5382.12,-40847.5,0,41200.5,332389
step02_gravity_refstate-mantle.xmf,915,2.41139e-06,-1.31759e-06,0,-2.57829e-06,-1.15195e+09,-1.15244e+09,-1.15227e+09,-344588,0.0125509,0.14299,0,0.14354,3871.13,-41656.9,0,41836.4,344588
step02_gravity_refstate-mantle.xmf,916,1.58179e-06,-9.84534e-08,0,-2.0124e-06,-1.09839e+09,-1.09861e+09,-1.0986e+09,-268957,0.0188307,0.129571,0,0.130932,5915.44,-40000,0,40435,268957
step02_gravity_refstate-mantle.xmf,917,2.31567e-06,-7.43421e-06,0,6.53324e-06,-1.40816e+09,-1.40946e+09,-1.40847e+09,873167,-0.00779929,0.179869,-0,0.180038,-2748.08,-49555.1,-0,49631.2,873167
step02_gravity_refstate-mantle.xmf,918,3.79275e-06,-8.36805e-06,0,3.28998e-06,-1.37191e+09,-1.37354e+09,-1.37242e+09,439706,-0.00574671,0.186115,-0,0.186204,-1440.99,-48442.8,-0,48464.2,439706
step02_gravity_refstate-mantle.xmf,919,3.40303e-06,-7.88054e-06,0,4.60904e-06,-1.37998e+09,-1.38149e+09,-1.38044e+09,615999,-0.00742779,0.18343,-0,0.183581,-1975.78,-48690.8,-0,48730.9,615999
step02_gravity_refstate-mantle.xmf,920,2.85605e-06,-7.30393e-06,0,5.93241e-06,-1.39108e+09,-1.39243e+09,-1.39146e+09,792866,-0.00850293,0.179842,-0,0.180043,-2493.11,-49031.3,-0,49094.6,792866
step02_gravity_refstate-mantle.xmf,921,1.64058e-06,-7.33434e-06,0,7.05593e-06,-1.4227e+09,-1.4239e+09,-1.42292e+09,943025,-0.00642479,0.178653,-0,0.178769,-2999.32,-50000,-0,50089.9,943025
step02_gravity_refstate-mantle.xmf,922,-7.2661e-06,2.34373e-05,0,6.38328e-06,-1.63097e+09,-1.62687e+09,-1.63e+09,853125,0.0403014,0.0838349,0,0.0930187,-3734.73,-56452.6,-0,56576,853125
step02_gravity_refstate-mantle.xmf,923,-8.69548e-06,2.49935e-05,0,3.60203e-06,-1.67604e+09,-1.67154e+09,-1.67488e+09,481411,0.0395882,0.0538986,0,0.0668752,-3394.32,-57839.2,-0,57938.8,481411
step02_gravity_refstate-mantle.xmf,924,-9.45678e-06,2.60075e-05,0,2.80215e-06,-1.68908e+09,-1.68434e+09,-1.68782e+09,374508,0.0373052,0.0456133,0,0.0589258,-3116.36,-58239.5,-0,58322.8,374508
step02_gravity_refstate-mantle.xmf,925,-1.07267e-05,2.7706e-05,0,1.48362e-06,-1.71131e+09,-1.70617e+09,-1.70987e+09,198286,0.03187,0.0297967,0,0.0436296,-2557.55,-58922,-0,58977.4,198286
step02_gravity_refstate-mantle.xmf,926,3.66427e-06,-4.36175e-06,0,-1.83675e-06,-1.24933e+09,-1.25041e+09,-1.24982e+09,-245482,0.00497986,0.1635,0,0.163576,1299.57,-44665.8,0,44684.7,245482
step02_gravity_refstate-mantle.xmf,927,3.41788e-06,-3.60368e-06,0,-2.04558e-06,-1.22639e+09,-1.22732e+09,-1.22684e+09,-273391,0.00610634,0.159362,0,0.159479,1667.75,-43957.2,0,43988.8,273391
step02_gravity_refstate-mantle.xmf,928,4.0729e-06,-5.47347e-06,0,-7.15093e-07,-1.27615e+09,-1.27743e+09,-1.2767e+09,-95572.2,0.00178079,0.169682,0,0.169691,434.977,-45494.1,0,45496.2,95572.2
step02_gravity_refstate-mantle.xmf,929,2.30739e-06,-9.51973e-07,0,-2.28608e-06,-1.12535e+09,-1.12578e+09,-1.12566e+09,-305534,0.0144911,0.139077,0,0.13983,4396.28,-40835.5,0,41071.5,305534
step02_gravity_refstate-mantle.xmf,930,3.1838e-06,-2.91399e-06,0,-2.19644e-06,-1.20267e+09,-1.20349e+09,-1.2031e+09,-293554,0.00738014,0.155256,0,0.155431,2097.1,-43224.9,0,43275.7,293554
step02_gravity_refstate-mantle.xmf,931,3.01864e-06,-2.33643e-06,0,-2.21273e-06,-1.17773e+09,-1.17845e+09,-1.17813e+09,-295731,0.00862041,0.151457,0,0.151702,2508.97,-42454.8,0,42528.9,295731
step02_gravity_refstate-mantle.xmf,932,2.90878e-06,-1.85657e-06,0,-2.13936e-06,-1.15203e+09,-1.15267e+09,-1.15242e+09,-285925,0.010108,0.147781,0,0.148126,2953.48,-41661.5,0,41766,285925
step02_gravity_refstate-mantle.xmf,933,3.94266e-06,-7.6608e-06,0,3.12743e-06,-1.35286e+09,-1.35441e+09,-1.35339e+09,417981,-0.00592107,0.181633,-0,0.18173,-1415.54,-47857.2,-0,47878.2,417981
step02_gravity_refstate-mantle.xmf,934,4.00462e-06,-6.99478e-06,0,2.81667e-06,-1.33357e+09,-1.33504e+09,-1.33411e+09,376449,-0.00572366,0.177716,-0,0.177809,-1349.02,-47263.4,-0,47282.6,376449
step02_gravity_refstate-mantle.xmf,935,1.73801e-06,-5.7231e-06,0,7.9813e-06,-1.40767e+09,-1.40867e+09,-1.4079e+09,1.0667e+06,-0.00884075,0.171042,-0,0.17127,-3236.64,-49540.5,-0,49646.1,1.0667e+06
step02_gravity_refstate-mantle.xmf,936,-5.06702e-06,1.9241e-05,0,9.9914e-06,-1.58377e+09,-1.58052e+09,-1.58309e+09,1.33535e+06,0.0354182,0.111061,0,0.116572,-4000,-54998.6,-0,55143.8,1.33535e+06
step02_gravity_refstate-mantle.xmf,937,-4.69401e-06,1.72166e-05,0,1.08215e-05,-1.56766e+09,-1.56474e+09,-1.56704e+09,1.44629e+06,0.0313799,0.120229,0,0.124257,-4000,-54498.4,-0,54645,1.44629e+06
step02_gravity_refstate-mantle.xmf,938,-3.73263e-06,1.6097e-05,0,8.3374e-06,-1.57483e+09,-1.57218e+09,-1.57433e+09,1.11429e+06,0.0350166,0.105183,0,0.110859,-4408.42,-54723.2,-0,54900.5,1.11429e+06
step02_gravity_refstate-mantle.xmf,939,-4.29555e-06,1.51268e-05,0,1.14254e-05,-1.5516e+09,-1.549e+09,-1.55102e+09,1.52701e+06,0.0269242,0.128327,0,0.131121,-4000,-53999.3,-0,54147.3,1.52701e+06
step02_gravity_refstate-mantle.xmf,940,-3.63864e-06,1.45185e-05,0,8.95163e-06,-1.55792e+09,-1.55549e+09,-1.55743e+09,1.19639e+06,0.0303757,0.113366,0,0.117365,-4405.23,-54197.5,-0,54376.2,1.19639e+06
step02_gravity_refstate-mantle.xmf,941,-3.88532e-06,1.30175e-05,0,1.18666e-05,-1.53549e+09,-1.53323e+09,-1.53497e+09,1.58597e+06,0.0221963,0.135383,0,0.13719,-4000,-53499.2,-0,53648.6,1.58597e+06
step02_gravity_refstate-mantle.xmf,942,-3.52273e-06,1.2938e-05,0,9.4589e-06,-1.54192e+09,-1.53972e+09,-1.54145e+09,1.26418e+06,0.0256028,0.120591,0,0.123279,-4392.24,-53700,-0,53879.4,1.26418e+06
step02_gravity_refstate-mantle.xmf,943,-3.47588e-06,1.09135e-05,0,1.21362e-05,-1.51941e+09,-1.51749e+09,-1.51895e+09,1.62201e+06,0.0173428,0.141364,0,0.142424,-4000,-52999.8,-0,53150.5,1.62201e+06
step02_gravity_refstate-mantle.xmf,944,-3.34987e-06,1.13781e-05,0,9.77923e-06,-1.5268e+09,-1.52483e+09,-1.52635e+09,1.30699e+06,0.0209598,0.126364,0,0.128091,-4390.58,-53230.1,-0,53410.9,1.30699e+06
step02_gravity_refstate-mantle.xmf,945,-2.65076e-06,6.71171e-06,0,1.22223e-05,-1.48722e+09,-1.48597e+09,-1.48687e+09,1.63351e+06,0.00769357,0.150156,0,0.150353,-4000,-52000.2,-0,52153.8,1.63351e+06
step02_gravity_refstate-mantle.xmf,946,-2.24117e-06,4.65776e-06,0,1.20264e-05,-1.47115e+09,-1.47022e+09,-1.47085e+09,1.60733e+06,0.00314119,0.152975,0,0.153007,-4000,-51501.2,-0,51656.3,1.60733e+06
step02_gravity_refstate-mantle.xmf,947,-2.78624e-06,6.37058e-06,0,9.88824e-06,-1.479e+09,-1.47777e+09,-1.47862e+09,1.32156e+06,0.00639935,0.138867,0,0.139014,-4411.12,-51744.4,-0,51932.1,1.32156e+06
step02_gravity_refstate-mantle.xmf,948,-3.05581e-06,8.80203e-06,0,1.22575e-05,-1.50332e+09,-1.50174e+09,-1.50292e+09,1.63821e+06,0.0124739,0.146286,0,0.146817,-4000,-52500.3,-0,52652.5,1.63821e+06
step02_gravity_refstate-mantle.xmf,949,-3.1558e-06,9.72513e-06,0,9.90231e-06,-1.51134e+09,-1.50962e+09,-1.51092e+09,1.32344e+06,0.0161937,0.131044,0,0.132041,-4403.49,-52749.6,-0,52933.1,1.32344e+06
step02_gravity_refstate-mantle.xmf,950,-2.96289e-06,8.02908e-06,0,9.94796e-06,-1.49526e+09,-1.49379e+09,-1.49486e+09,1.32955e+06,0.0112484,0.135309,0,0.135776,-4408.87,-52249.8,-0,52435.5,1.32955e+06
step02_gravity_refstate-mantle.xmf,951,-6.20277e-06,2.20909e-05,0,7.46719e-06,-1.6162e+09,-1.61242e+09,-1.61537e+09,997990,0.0408386,0.0896789,0,0.0985399,-4000,-56000,-0,56142.7,997990
step02_gravity_refstate-mantle.xmf,952,-5.36911e-06,2.09278e-05,0,8.83065e-06,-1.59986e+09,-1.59634e+09,-1.59914e+09,1.18022e+06,0.03877,0.100877,0,0.108071,-4000,-55497.8,-0,55641.7,1.18022e+06
step02_gravity_refstate-mantle.xmf,953,-3.70648e-06,1.73227e-05,0,7.61779e-06,-1.59167e+09,-1.58886e+09,-1.59118e+09,1.01812e+06,0.0390897,0.0959336,0,0.103592,-4426.41,-55246.8,-0,55423.9,1.01812e+06
step02_gravity_refstate-mantle.xmf,954,-7.72946e-06,2.36986e-05,0,4.52228e-06,-1.6613e+09,-1.6571e+09,-1.66026e+09,604402,0.0416577,0.062193,0,0.0748554,-3698.38,-57386.9,-0,57506,604402
step02_gravity_refstate-mantle.xmf,955,-6.62212e-06,2.21763e-05,0,5.42437e-06,-1.64582e+09,-1.64197e+09,-1.64493e+09,724967,0.0430514,0.0697869,0,0.0819977,-3990.56,-56912.3,-0,57052,724967
step02_gravity_refstate-mantle.xmf,956,-8.14074e-06,2.39597e-05,0,2.84724e-06,-1.69169e+09,-1.6874e+09,-1.6906e+09,380534,0.0420254,0.0402484,0,0.0581899,-3647.89,-58323.8,-0,58437.7,380534
step02_gravity_refstate-mantle.xmf,957,-9.47732e-06,2.58337e-05,0,1.91455e-06,-1.70723e+09,-1.70251e+09,-1.70596e+09,255879,0.0377068,0.030988,0,0.0488063,-3137.62,-58799.5,-0,58883.1,255879
step02_gravity_refstate-mantle.xmf,958,-1.02464e-05,2.68753e-05,0,8.68461e-07,-1.72726e+09,-1.7223e+09,-1.72589e+09,116070,0.0345722,0.0156949,0,0.037968,-2809.11,-59415.8,-0,59482.1,116070
step02_gravity_refstate-mantle.xmf,959,-1.104e-05,2.80371e-05,0,-1.94112e-09,-1.74625e+09,-1.74102e+09,-1.74477e+09,-259.43,0.0304864,-1.54761e-18,0,0.0304864,-2422.55,-60000,-0,60048.9,259.43
step02_gravity_refstate-mantle.xmf,960,3.91533e-06,-4.8294e-06,0,-8.67024e-07,-1.25509e+09,-1.25626e+09,-1.25561e+09,-115878,0.00230715,0.166127,0,0.166143,585.237,-44844.1,0,44847.9,115878
step02_gravity_refstate-mantle.xmf,961,4.03032e-06,-5.14834e-06,0,1.64576e-08,-1.26452e+09,-1.26575e+09,-1.26506e+09,2199.56,3.69018e-08,0.168061,0,0.168061,0,-45135.4,0,45135.4,2199.56
step02_gravity_refstate-mantle.xmf,962,4.09312e-06,-5.82807e-06,0,1.38532e-06,-1.29054e+09,-1.29186e+09,-1.29108e+09,185149,-0.00324125,0.171514,-0,0.171545,-779.68,-45937.6,-0,45944.2,185149
step02_gravity_refstate-mantle.xmf,963,4.0193e-06,-6.26253e-06,0,2.32218e-06,-1.31126e+09,-1.31263e+09,-1.31179e+09,310359,-0.00506606,0.173907,-0,0.173981,-1202.52,-46576.1,-0,46591.6,310359
step02_gravity_refstate-mantle.xmf,964,2.21798e-06,-6.4376e-07,0,-1.87467e-06,-1.09829e+09,-1.09868e+09,-1.09859e+09,-250549,0.0169525,0.135424,0,0.136481,4924.17,-40000,0,40302,250549
step02_gravity_refstate-mantle.xmf,965,2.85138e-06,-1.4741e-06,0,-1.95392e-06,-1.12522e+09,-1.1258e+09,-1.1256e+09,-261142,0.0120076,0.144154,0,0.144653,3432.74,-40834,0,40978,261142
step02_gravity_refstate-mantle.xmf,966,2.18941e-06,-6.07741e-06,0,7.21116e-06,-1.39518e+09,-1.39629e+09,-1.39548e+09,963772,-0.00948675,0.173082,-0,0.173342,-2995.98,-49156.9,-0,49248.1,963772
step02_gravity_refstate-mantle.xmf,967,3.53689e-06,-7.26609e-06,0,4.36372e-06,-1.36108e+09,-1.36253e+09,-1.36156e+09,583211,-0.00781962,0.179297,-0,0.179468,-1950.4,-48109.5,-0,48149,583211
step02_gravity_refstate-mantle.xmf,968,2.97621e-06,-6.49335e-06,0,5.67776e-06,-1.37023e+09,-1.3715e+09,-1.37063e+09,758832,-0.00936731,0.175481,-0,0.175731,-2488.47,-48390.3,-0,48454.3,758832
step02_gravity_refstate-mantle.xmf,969,1.09382e-06,-5.45092e-06,0,8.60041e-06,-1.42266e+09,-1.42354e+09,-1.42281e+09,1.14945e+06,-0.00709252,0.168052,-0,0.168202,-3499.28,-50000,-0,50122.3,1.14945e+06
step02_gravity_refstate-mantle.xmf,970,-1.82004e-06,2.57535e-06,0,1.16398e-05,-1.45503e+09,-1.45445e+09,-1.45479e+09,1.55566e+06,-0.00105877,0.154773,-0,0.154777,-4000,-51001,-0,51157.6,1.55566e+06
step02_gravity_refstate-mantle.xmf,971,-2.63844e-06,4.85098e-06,0,9.72119e-06,-1.46302e+09,-1.46202e+09,-1.46267e+09,1.29924e+06,0.00193098,0.141545,0,0.141559,-4414.04,-51248.1,-0,51437.8,1.29924e+06
step02_gravity_refstate-mantle.xmf,972,-5.47829e-06,2.04777e-05,0,6.11824e-06,-1.6316e+09,-1.62813e+09,-1.63087e+09,817703,0.0437535,0.0753217,0,0.0871075,-4266.84,-56476.5,-0,56637.5,817703
step02_gravity_refstate-mantle.xmf,973,-3.75106e-06,1.8017e-05,0,7.09226e-06,-1.60645e+09,-1.60355e+09,-1.60595e+09,947880,0.0419458,0.0870611,0,0.096639,-4460.73,-55704.9,-0,55883.2,947880
step02_gravity_refstate-mantle.xmf,974,-7.16149e-06,2.26059e-05,0,3.6668e-06,-1.67689e+09,-1.67292e+09,-1.67594e+09,490068,0.0441303,0.0485672,0,0.0656221,-3963.98,-57869.7,-0,58005.3,490068
step02_gravity_refstate-mantle.xmf,975,3.72207e-06,-4.04382e-06,0,-9.87604e-07,-1.22708e+09,-1.22812e+09,-1.22758e+09,-131993,0.00291013,0.162013,0,0.162039,772.388,-43979.6,0,43986.4,131993
step02_gravity_refstate-mantle.xmf,976,3.51523e-06,-3.34822e-06,0,-1.3933e-06,-1.20406e+09,-1.20498e+09,-1.20453e+09,-186214,0.00461619,0.158277,0,0.158344,1269.99,-43268.9,0,43287.5,186214
step02_gravity_refstate-mantle.xmf,977,4.04962e-06,-5.38181e-06,0,7.98344e-07,-1.27387e+09,-1.27513e+09,-1.27441e+09,106699,-0.00194962,0.169238,-0,0.169249,-478.478,-45423.5,-0,45426.1,106699
step02_gravity_refstate-mantle.xmf,978,2.82496e-06,-1.15988e-06,0,-1.6492e-06,-1.0982e+09,-1.09874e+09,-1.09858e+09,-220415,0.0144707,0.140616,0,0.141358,3938.38,-40000,0,40193.4,220415
step02_gravity_refstate-mantle.xmf,979,3.3819e-06,-2.7821e-06,0,-1.52851e-06,-1.17882e+09,-1.17964e+09,-1.17927e+09,-204286,0.00582418,0.154856,0,0.154965,1635.56,-42489.7,0,42521.2,204286
step02_gravity_refstate-mantle.xmf,980,3.30742e-06,-2.29368e-06,0,-1.5755e-06,-1.1525e+09,-1.15324e+09,-1.15294e+09,-210566,0.00726516,0.151507,0,0.151681,2040.56,-41677.4,0,41727.3,210566
step02_gravity_refstate-mantle.xmf,981,3.30308e-06,-1.90977e-06,0,-1.5137e-06,-1.12547e+09,-1.12616e+09,-1.12591e+09,-202305,0.00907419,0.148212,0,0.148489,2481.98,-40843.4,0,40918.8,202305
step02_gravity_refstate-mantle.xmf,982,3.60215e-06,-6.59278e-06,0,4.03892e-06,-1.3416e+09,-1.34296e+09,-1.34208e+09,539802,-0.00786304,0.175497,-0,0.175673,-1914.05,-47509.7,-0,47548.2,539802
step02_gravity_refstate-mantle.xmf,983,3.64131e-06,-6.00513e-06,0,3.59658e-06,-1.3217e+09,-1.32299e+09,-1.32219e+09,480683,-0.00755304,0.172254,-0,0.17242,-1836.27,-46896.8,-0,46932.7,480683
step02_gravity_refstate-mantle.xmf,984,2.23704e-06,-5.4769e-06,0,6.87772e-06,-1.37945e+09,-1.38048e+09,-1.37975e+09,919207,-0.0103427,0.170446,-0,0.17076,-2985.42,-48672.8,-0,48764.2,919207
step02_gravity_refstate-mantle.xmf,985,1.27889e-06,-4.06439e-06,0,8.07528e-06,-1.39034e+09,-1.39106e+09,-1.39051e+09,1.07926e+06,-0.0106207,0.164191,-0,0.164534,-3463.11,-49006.4,-0,49128.6,1.07926e+06
step02_gravity_refstate-mantle.xmf,986,5.63116e-07,-3.10469e-06,0,9.16836e-06,-1.40719e+09,-1.40768e+09,-1.40727e+09,1.22535e+06,-0.00945185,0.161187,-0,0.161463,-3714.05,-49524.4,-0,49663.5,1.22535e+06
step02_gravity_refstate-mantle.xmf,987,-2.81114e-06,1.49361e-05,0,6.63969e-06,-1.58233e+09,-1.57995e+09,-1.58195e+09,887395,0.0381911,0.0925043,0,0.100078,-4801.11,-54958,-0,55167.3,887395
step02_gravity_refstate-mantle.xmf,988,-2.89371e-06,1.37556e-05,0,7.00797e-06,-1.56488e+09,-1.56266e+09,-1.56449e+09,936615,0.0336904,0.10009,0,0.105608,-4812.05,-54415.5,-0,54627.9,936615
step02_gravity_refstate-mantle.xmf,989,-2.95903e-06,1.23647e-05,0,7.41125e-06,-1.5465e+09,-1.54445e+09,-1.5461e+09,990513,0.0283783,0.107493,0,0.111176,-4816.56,-53843.7,-0,54058.7,990513
step02_gravity_refstate-mantle.xmf,990,-3.09162e-06,1.15153e-05,0,8.05065e-06,-1.53353e+09,-1.53158e+09,-1.53312e+09,1.07597e+06,0.0241246,0.114728,0,0.117237,-4721.99,-53440.1,-0,53648.3,1.07597e+06
step02_gravity_refstate-mantle.xmf,991,-3.02979e-06,1.0319e-05,0,7.93873e-06,-1.52007e+09,-1.51828e+09,-1.51966e+09,1.06101e+06,0.0201497,0.117352,0,0.119069,-4796.3,-53021.6,-0,53238,1.06101e+06
step02_gravity_refstate-mantle.xmf,992,-2.56773e-06,3.47205e-06,0,9.35936e-06,-1.44704e+09,-1.44624e+09,-1.4467e+09,1.25088e+06,-0.00204427,0.143079,-0,0.143093,-4432.9,-50751.4,-0,50944.6,1.25088e+06
step02_gravity_refstate-mantle.xmf,993,-3.02751e-06,6.18801e-06,0,8.18773e-06,-1.46967e+09,-1.46844e+09,-1.46927e+09,1.09429e+06,0.0048366,0.130232,0,0.130322,-4794.21,-51454.4,-0,51677.2,1.09429e+06
step02_gravity_refstate-mantle.xmf,994,-3.02291e-06,7.53065e-06,0,8.10499e-06,-1.48663e+09,-1.48522e+09,-1.48622e+09,1.08323e+06,0.00983335,0.126142,0,0.126525,-4813.22,-51981.5,-0,52203.9,1.08323e+06
step02_gravity_refstate-mantle.xmf,995,-3.01749e-06,8.91646e-06,0,8.05859e-06,-1.50363e+09,-1.50204e+09,-1.50323e+09,1.07703e+06,0.0150279,0.122021,0,0.122943,-4805.09,-52510.4,-0,52729.8,1.07703e+06
step02_gravity_refstate-mantle.xmf,996,-4.15231e-06,1.85481e-05,0,6.56365e-06,-1.61996e+09,-1.61693e+09,-1.61941e+09,877232,0.0439215,0.0783514,0,0.0898223,-4519.97,-56120.8,-0,56302.5,877232
step02_gravity_refstate-mantle.xmf,997,-2.82997e-06,1.59474e-05,0,6.4249e-06,-1.59833e+09,-1.59582e+09,-1.59796e+09,858688,0.0416234,0.0850668,0,0.0947041,-4787.76,-55454.9,-0,55661.2,858688
step02_gravity_refstate-mantle.xmf,998,-6.09379e-06,2.11113e-05,0,4.45653e-06,-1.66135e+09,-1.65771e+09,-1.66053e+09,595615,0.0455699,0.0562456,0,0.0723892,-4263.19,-57392.9,-0,57551,595615
step02_gravity_refstate-mantle.xmf,999,-4.9719e-06,1.9475e-05,0,5.09886e-06,-1.64584e+09,-1.64257e+09,-1.64517e+09,681463,0.0462626,0.0627586,0,0.0779671,-4542.54,-56917.1,-0,57098,681463
step02_gravity_refstate-mantle.xmf,1000,-6.64255e-06,2.16507e-05,0,2.75679e-06,-1.69318e+09,-1.6894e+09,-1.69229e+09,368445,0.0463497,0.0355035,0,0.0583849,-4228.69,-58373.9,-0,58526.9,368445
step02_gravity_refstate-mantle.xmf,1001,-7.73104e-06,2.32005e-05,0,1.90933e-06,-1.70954e+09,-1.70541e+09,-1.70851e+09,255182,0.0439115,0.0261489,0,0.0511076,-3855.79,-58875.9,-0,59002,255182
step02_gravity_refstate-mantle.xmf,1002,-8.77156e-06,2.46891e-05,0,9.91258e-07,-1.72663e+09,-1.72216e+09,-1.72546e+09,132482,0.0407676,0.0148044,0,0.0433725,-3460.81,-59400.6,-0,59501.3,132482
step02_gravity_refstate-mantle.xmf,1003,-9.59383e-06,2.59059e-05,0,2.34577e-09,-1.74611e+09,-1.74137e+09,-1.74483e+09,313.513,0.0376274,-1.46332e-18,0,0.0376274,-3114.73,-60000,-0,60080.8,313.513
step02_gravity_refstate-mantle.xmf,1004,3.87746e-06,-4.49407e-06,0,5.94727e-09,-1.2401e+09,-1.24122e+09,-1.24062e+09,794.853,4.78198e-08,0.164449,0,0.164449,0,-44381.7,0,44381.7,794.853
step02_gravity_refstate-mantle.xmf,1005,3.90293e-06,-4.7475e-06,0,9.18824e-07,-1.25434e+09,-1.2555e+09,-1.25486e+09,122801,-0.00239422,0.165979,-0,0.165996,-608.276,-44821,-0,44825.2,122801
step02_gravity_refstate-mantle.xmf,1006,3.88273e-06,-5.07903e-06,0,1.68854e-06,-1.2717e+09,-1.27289e+09,-1.27222e+09,225674,-0.00419289,0.167575,-0,0.167627,-1046.84,-45356.2,-0,45368.3,225674
step02_gravity_refstate-mantle.xmf,1007,3.81739e-06,-5.4072e-06,0,2.44867e-06,-1.29043e+09,-1.29166e+09,-1.29094e+09,327264,-0.00572161,0.169228,-0,0.169325,-1407.06,-45933.5,-0,45955,327264
step02_gravity_refstate-mantle.xmf,1008,3.36333e-06,-1.61391e-06,0,-1.33581e-06,-1.09813e+09,-1.09879e+09,-1.09858e+09,-178531,0.0114261,0.144946,0,0.145396,2953.78,-40000,0,40108.9,178531
step02_gravity_refstate-mantle.xmf,1009,3.64999e-06,-5.52268e-06,0,3.17811e-06,-1.30439e+09,-1.30562e+09,-1.30488e+09,424754,-0.00710963,0.169774,-0,0.169923,-1746.91,-46363.5,-0,46396.4,424754
step02_gravity_refstate-mantle.xmf,1010,3.02278e-06,-5.90331e-06,0,5.2545e-06,-1.35036e+09,-1.35156e+09,-1.35077e+09,702264,-0.0096723,0.171863,-0,0.172135,-2474.98,-47778.3,-0,47842.4,702264
step02_gravity_refstate-mantle.xmf,1011,2.20363e-06,-4.74329e-06,0,6.45671e-06,-1.35978e+09,-1.36071e+09,-1.36007e+09,862939,-0.0110372,0.166531,-0,0.166897,-3043.05,-48066.6,-0,48162.9,862939
step02_gravity_refstate-mantle.xmf,1012,-1.50225e-06,6.54629e-07,0,1.09783e-05,-1.43897e+09,-1.43868e+09,-1.43876e+09,1.46725e+06,-0.00468578,0.155574,-0,0.155644,-4000,-50501.8,-0,50659.9,1.46725e+06
step02_gravity_refstate-mantle.xmf,1013,-7.0569e-07,-8.82628e-07,0,9.90617e-06,-1.42268e+09,-1.4227e+09,-1.42258e+09,1.32396e+06,-0.00737611,0.155503,-0,0.155678,-4000,-50000,-0,50159.7,1.32396e+06
step02_gravity_refstate-mantle.xmf,1014,-2.97544e-06,5.01843e-06,0,8.31402e-06,-1.45541e+09,-1.45435e+09,-1.45502e+09,1.11117e+06,0.000883927,0.133819,0,0.133822,-4750.4,-51011.2,-0,51231.9,1.11117e+06
step02_gravity_refstate-mantle.xmf,1015,-3.78318e-06,1.76527e-05,0,5.47992e-06,-1.63087e+09,-1.628e+09,-1.63036e+09,732392,0.0462281,0.0677175,0,0.081992,-4813.28,-56457.9,-0,56662.7,732392
step02_gravity_refstate-mantle.xmf,1016,-2.5846e-06,1.55176e-05,0,5.57513e-06,-1.61114e+09,-1.60872e+09,-1.61079e+09,745117,0.0444966,0.0744586,0,0.0867412,-5035.57,-55851,-0,56077.5,745117
step02_gravity_refstate-mantle.xmf,1017,-5.65168e-06,2.02422e-05,0,3.50593e-06,-1.677e+09,-1.67354e+09,-1.67624e+09,468568,0.0477338,0.0438096,0,0.0647904,-4525.19,-57876.9,-0,58053.6,468568
step02_gravity_refstate-mantle.xmf,1018,-2.13299e-06,1.40187e-05,0,5.49221e-06,-1.59092e+09,-1.58876e+09,-1.59063e+09,734033,0.041062,0.0815181,0,0.0912759,-5166.24,-55225.6,-0,55466.7,734033
step02_gravity_refstate-mantle.xmf,1019,3.65657e-06,-3.50623e-06,0,-6.4989e-07,-1.20296e+09,-1.20392e+09,-1.20345e+09,-86857.8,0.00216093,0.159511,0,0.159525,586.037,-43235.6,0,43239.5,86857.8
step02_gravity_refstate-mantle.xmf,1020,3.60526e-06,-3.0966e-06,0,-7.4831e-07,-1.18122e+09,-1.18211e+09,-1.1817e+09,-100012,0.00280178,0.157056,0,0.157081,770.085,-42564.5,0,42571.5,100012
step02_gravity_refstate-mantle.xmf,1021,3.74395e-06,-3.84597e-06,0,-3.92592e-09,-1.21444e+09,-1.21545e+09,-1.21494e+09,-524.699,-1.54011e-08,0.161181,-0,0.161181,0,-43589.8,0,43589.8,524.699
step02_gravity_refstate-mantle.xmf,1022,3.57532e-06,-2.6158e-06,0,-9.2269e-07,-1.15486e+09,-1.15569e+09,-1.15534e+09,-123317,0.0041149,0.154137,0,0.154192,1128.92,-41751.5,0,41766.7,123317
step02_gravity_refstate-mantle.xmf,1023,3.61397e-06,-2.22485e-06,0,-1.00058e-06,-1.12666e+09,-1.12744e+09,-1.12714e+09,-133727,0.00586943,0.1511,0,0.151213,1561.92,-40881.4,0,40911.2,133727
step02_gravity_refstate-mantle.xmf,1024,3.78688e-06,-1.96929e-06,0,-9.44568e-07,-1.09806e+09,-1.09883e+09,-1.09857e+09,-126242,0.00790642,0.148212,0,0.148423,1969.19,-40000,0,40048.4,126242
step02_gravity_refstate-mantle.xmf,1025,3.0837e-06,-5.34767e-06,0,4.76196e-06,-1.33013e+09,-1.33125e+09,-1.33054e+09,636436,-0.009591,0.168826,-0,0.169099,-2431.7,-47155.1,-0,47217.7,636436
step02_gravity_refstate-mantle.xmf,1026,3.1611e-06,-4.8964e-06,0,4.20174e-06,-1.30953e+09,-1.31061e+09,-1.30995e+09,561562,-0.00919214,0.166358,-0,0.166611,-2344.02,-46520.5,-0,46579.6,561562
step02_gravity_refstate-mantle.xmf,1027,1.3323e-06,-3.60149e-06,0,7.38715e-06,-1.37118e+09,-1.37184e+09,-1.37136e+09,987292,-0.0115297,0.161685,-0,0.162096,-3476.65,-48415.9,-0,48540.6,987292
step02_gravity_refstate-mantle.xmf,1028,-1.26599e-07,-1.63441e-06,0,8.57944e-06,-1.39284e+09,-1.39304e+09,-1.39282e+09,1.14664e+06,-0.010758,0.154882,-0,0.155256,-3969.22,-49080.2,-0,49240.5,1.14664e+06
step02_gravity_refstate-mantle.xmf,1029,-2.33085e-06,2.33282e-06,0,9.1091e-06,-1.43119e+09,-1.43056e+09,-1.43087e+09,1.21743e+06,-0.00531462,0.143924,-0,0.144022,-4456.13,-50260.2,-0,50457.4,1.21743e+06
step02_gravity_refstate-mantle.xmf,1030,-9.6809e-07,-4.71615e-07,0,9.04383e-06,-1.40607e+09,-1.40601e+09,-1.40594e+09,1.20871e+06,-0.0095119,0.152019,-0,0.152316,-4133.11,-49486.4,-0,49658.7,1.20871e+06
step02_gravity_refstate-mantle.xmf,1031,-2.1963e-06,1.30251e-05,0,5.58556e-06,-1.57326e+09,-1.57122e+09,-1.57296e+09,746510,0.0369437,0.0882782,0,0.0956967,-5203.66,-54677.1,-0,54924.1,746510
step02_gravity_refstate-mantle.xmf,1032,-2.6746e-06,1.079e-05,0,6.27591e-06,-1.53321e+09,-1.53141e+09,-1.53286e+09,838776,0.025332,0.103906,0,0.106949,-5171.76,-53431.2,-0,53680.9,838776
step02_gravity_refstate-mantle.xmf,1033,-2.38107e-06,1.19251e-05,0,5.78075e-06,-1.55414e+09,-1.55223e+09,-1.55383e+09,772598,0.0317605,0.0951576,0,0.100318,-5232.27,-54082.6,-0,54335.1,772598
step02_gravity_refstate-mantle.xmf,1034,-2.82667e-06,9.47418e-06,0,6.3202e-06,-1.51343e+09,-1.51178e+09,-1.51305e+09,844695,0.0193564,0.108695,0,0.110405,-5235.53,-52815.6,-0,53074.5,844695
step02_gravity_refstate-mantle.xmf,1035,-3.16156e-06,4.72362e-06,0,7.68063e-06,-1.44144e+09,-1.44039e+09,-1.44102e+09,1.02652e+06,-0.00185466,0.131284,-0,0.131297,-4945.56,-50577.6,-0,50818.8,1.02652e+06
step02_gravity_refstate-mantle.xmf,1036,-3.29332e-06,6.01241e-06,0,7.0175e-06,-1.45735e+09,-1.45611e+09,-1.45691e+09,937888,0.00264231,0.123993,0,0.124021,-5153.04,-51071.5,-0,51330.8,937888
step02_gravity_refstate-mantle.xmf,1037,-3.17521e-06,7.21129e-06,0,6.67621e-06,-1.4769e+09,-1.47551e+09,-1.47648e+09,892275,0.00822271,0.11847,0,0.118755,-5220.91,-51679.2,-0,51942.3,892275
step02_gravity_refstate-mantle.xmf,1038,-3.00613e-06,8.32653e-06,0,6.47598e-06,-1.49517e+09,-1.49366e+09,-1.49477e+09,865514,0.0137225,0.113629,0,0.114454,-5240.37,-52247.6,-0,52509.7,865514
step02_gravity_refstate-mantle.xmf,1039,-4.56565e-06,1.86533e-05,0,4.08362e-06,-1.66132e+09,-1.65821e+09,-1.66071e+09,545775,0.0485847,0.0504412,0,0.0700342,-4827.91,-57395.7,-0,57598.4,545775
step02_gravity_refstate-mantle.xmf,1040,-3.48722e-06,1.69701e-05,0,4.4182e-06,-1.64613e+09,-1.6434e+09,-1.64566e+09,590493,0.0487158,0.0556694,0,0.0739751,-5115.59,-56929.6,-0,57158.9,590493
step02_gravity_refstate-mantle.xmf,1041,-5.09291e-06,1.92379e-05,0,2.5859e-06,-1.69269e+09,-1.68944e+09,-1.69201e+09,345606,0.0499156,0.0319909,0,0.0592873,-4837.54,-58362.9,-0,58563,345606
step02_gravity_refstate-mantle.xmf,1042,-6.04893e-06,2.06415e-05,0,1.8017e-06,-1.71036e+09,-1.70679e+09,-1.70955e+09,240797,0.0485545,0.0227163,0,0.0536057,-4527.74,-58905.9,-0,59079.7,240797
step02_gravity_refstate-mantle.xmf,1043,-7.03661e-06,2.20984e-05,0,9.33084e-07,-1.72789e+09,-1.72399e+09,-1.72695e+09,124707,0.046382,0.0122927,0,0.0479833,-4170.06,-59444.5,-0,59590.6,124707
step02_gravity_refstate-mantle.xmf,1044,-7.96039e-06,2.34879e-05,0,6.4867e-09,-1.74596e+09,-1.74175e+09,-1.74489e+09,866.948,0.0437034,-1.21976e-18,0,0.0437034,-3806.89,-60000,-0,60120.6,866.948
step02_gravity_refstate-mantle.xmf,1045,3.67225e-06,-3.25145e-06,0,1.09329e-08,-1.18747e+09,-1.1884e+09,-1.18796e+09,1461.18,4.08086e-09,0.158253,0,0.158253,0,-42757.7,0,42757.7,1461.18
step02_gravity_refstate-mantle.xmf,1046,3.34705e-06,-4.7291e-06,0,3.4614e-06,-1.29008e+09,-1.29116e+09,-1.29053e+09,462616,-0.00816484,0.165345,-0,0.165547,-2088.9,-45921.5,-0,45969,462616
step02_gravity_refstate-mantle.xmf,1047,3.72491e-06,-3.98899e-06,0,1.0229e-06,-1.22673e+09,-1.22776e+09,-1.22723e+09,136710,-0.00297774,0.161935,-0,0.161962,-790.967,-43968.9,-0,43976,136710
step02_gravity_refstate-mantle.xmf,1048,3.64419e-06,-4.28373e-06,0,1.8958e-06,-1.24911e+09,-1.25017e+09,-1.24959e+09,253374,-0.00511918,0.163337,-0,0.163417,-1338.23,-44658.9,-0,44678.9,253374
step02_gravity_refstate-mantle.xmf,1049,3.54016e-06,-4.54943e-06,0,2.66811e-06,-1.27015e+09,-1.27123e+09,-1.27062e+09,356593,-0.00669747,0.164582,-0,0.164718,-1725.25,-45307.4,-0,45340.2,356593
step02_gravity_refstate-mantle.xmf,1050,4.93551e-07,-2.40298e-06,0,7.99695e-06,-1.37986e+09,-1.38025e+09,-1.37993e+09,1.06879e+06,-0.0115033,0.15674,-0,0.157162,-3823.11,-48681.5,-0,48831.4,1.06879e+06
step02_gravity_refstate-mantle.xmf,1051,2.3151e-06,-4.35801e-06,0,5.85263e-06,-1.33941e+09,-1.34031e+09,-1.33972e+09,782203,-0.0111893,0.163957,-0,0.164338,-3021.6,-47439.4,-0,47535.5,782203
step02_gravity_refstate-mantle.xmf,1052,1.24739e-06,-2.86667e-06,0,6.8499e-06,-1.35102e+09,-1.35157e+09,-1.35119e+09,915489,-0.0121914,0.157353,-0,0.157824,-3631.76,-47794.7,-0,47932.4,915489
step02_gravity_refstate-mantle.xmf,1053,-1.94396e-06,1.35782e-06,0,8.702e-06,-1.41422e+09,-1.41378e+09,-1.41396e+09,1.16302e+06,-0.00802589,0.144561,-0,0.144784,-4470.51,-49736.4,-0,49936.9,1.16302e+06
step02_gravity_refstate-mantle.xmf,1054,-2.4926e-06,1.53055e-05,0,4.5476e-06,-1.62962e+09,-1.62724e+09,-1.62928e+09,607786,0.0478389,0.060802,0,0.0773657,-5366.94,-56421.9,-0,56676.6,607786
step02_gravity_refstate-mantle.xmf,1055,-1.59473e-06,1.30708e-05,0,4.42372e-06,-1.59954e+09,-1.59758e+09,-1.59933e+09,591230,0.0436523,0.0706024,0,0.0830074,-5607.16,-55493.1,-0,55775.7,591230
step02_gravity_refstate-mantle.xmf,1056,-4.38311e-06,1.821e-05,0,3.2195e-06,-1.67654e+09,-1.67352e+09,-1.67595e+09,430287,0.0502372,0.0399935,0,0.0642126,-5026.28,-57866.1,-0,58084,430287
step02_gravity_refstate-mantle.xmf,1057,-1.57727e-06,1.21945e-05,0,4.40717e-06,-1.58141e+09,-1.57957e+09,-1.5812e+09,589018,0.0398105,0.0770575,0,0.0867337,-5650.08,-54931,-0,55220.9,589018
step02_gravity_refstate-mantle.xmf,1058,3.70556e-06,-2.81474e-06,0,2.95305e-08,-1.15913e+09,-1.16e+09,-1.15962e+09,3946.76,3.37087e-09,0.155615,0,0.155615,0,-41883.5,0,41883.5,3946.76
step02_gravity_refstate-mantle.xmf,1059,3.65698e-06,-3.49755e-06,0,6.66683e-07,-1.20296e+09,-1.20392e+09,-1.20345e+09,89102.2,-0.00216096,0.159511,-0,0.159525,-586.037,-43235.6,-0,43239.5,89102.2
step02_gravity_refstate-mantle.xmf,1060,3.76384e-06,-2.43308e-06,0,-5.04724e-07,-1.131e+09,-1.13183e+09,-1.13151e+09,-67456.4,0.00289964,0.152867,0,0.152895,766.256,-41016.2,0,41023.4,67456.4
step02_gravity_refstate-mantle.xmf,1061,4.05425e-06,-2.19421e-06,0,-4.92229e-07,-1.09802e+09,-1.09886e+09,-1.09857e+09,-65786.4,0.00404189,0.150244,0,0.150298,984.598,-40000,0,40012.1,65786.4
step02_gravity_refstate-mantle.xmf,1062,-1.40662e-06,6.04473e-07,0,8.37999e-06,-1.39687e+09,-1.3966e+09,-1.39668e+09,1.11999e+06,-0.0100907,0.145893,-0,0.146242,-4429.8,-49201.9,-0,49400.9,1.11999e+06
step02_gravity_refstate-mantle.xmf,1063,2.4612e-06,-4.02051e-06,0,5.22479e-06,-1.31793e+09,-1.3188e+09,-1.31826e+09,698293,-0.0110139,0.161796,-0,0.16217,-2967.35,-46777.7,-0,46871.7,698293
step02_gravity_refstate-mantle.xmf,1064,2.64466e-06,-3.754e-06,0,4.50736e-06,-1.29265e+09,-1.29351e+09,-1.29301e+09,602409,-0.0104916,0.15985,-0,0.160194,-2853.74,-45998.7,-0,46087.1,602409
step02_gravity_refstate-mantle.xmf,1065,4.95727e-07,-2.06719e-06,0,7.4926e-06,-1.36648e+09,-1.36683e+09,-1.36655e+09,1.00139e+06,-0.0120832,0.154355,-0,0.154827,-3910.1,-48269.2,-0,48427.3,1.00139e+06
step02_gravity_refstate-mantle.xmf,1066,-4.11967e-07,-7.961e-07,0,7.86661e-06,-1.37652e+09,-1.37657e+09,-1.37647e+09,1.05137e+06,-0.011687,0.149132,-0,0.149589,-4248.77,-48576.5,-0,48761.9,1.05137e+06
step02_gravity_refstate-mantle.xmf,1067,-2.88182e-06,3.51191e-06,0,7.73933e-06,-1.42291e+09,-1.42205e+09,-1.42252e+09,1.03436e+06,-0.00555198,0.133928,-0,0.134043,-4931.43,-50003.8,-0,50246.4,1.03436e+06
step02_gravity_refstate-mantle.xmf,1068,-1.76125e-06,1.13585e-05,0,4.42407e-06,-1.56312e+09,-1.56137e+09,-1.56289e+09,591277,0.0352339,0.0830702,0,0.0902335,-5691.93,-54362.6,-0,54659.8,591277
step02_gravity_refstate-mantle.xmf,1069,-2.08503e-06,1.05411e-05,0,4.5888e-06,-1.54378e+09,-1.54209e+09,-1.5435e+09,613294,0.0297743,0.0896216,0,0.094438,-5695.55,-53760.8,-0,54061.6,613294
step02_gravity_refstate-mantle.xmf,1070,-2.43205e-06,9.65745e-06,0,4.79225e-06,-1.52395e+09,-1.52234e+09,-1.52363e+09,640484,0.0238355,0.0958213,0,0.0987413,-5697.82,-53143.9,-0,53448.5,640484
step02_gravity_refstate-mantle.xmf,1071,-2.7603e-06,8.76575e-06,0,4.96729e-06,-1.50465e+09,-1.50311e+09,-1.50428e+09,663878,0.0179877,0.101052,0,0.10264,-5713.18,-52543.2,-0,52852.9,663878
step02_gravity_refstate-mantle.xmf,1072,-3.45339e-06,6.08115e-06,0,6.04622e-06,-1.44801e+09,-1.44673e+09,-1.44754e+09,808078,0.00167996,0.117302,0,0.117314,-5554.02,-50781.9,-0,51084.7,808078
step02_gravity_refstate-mantle.xmf,1073,-3.33802e-06,7.02962e-06,0,5.54738e-06,-1.46633e+09,-1.46494e+09,-1.46588e+09,741407,0.00670446,0.111458,0,0.11166,-5661.57,-51351,-0,51662.1,741407
step02_gravity_refstate-mantle.xmf,1074,-3.07341e-06,7.90611e-06,0,5.22115e-06,-1.48565e+09,-1.48418e+09,-1.48524e+09,697807,0.0122618,0.106288,0,0.106993,-5697.04,-51951.9,-0,52263.3,697807
step02_gravity_refstate-mantle.xmf,1075,-1.77786e-06,1.37951e-05,0,4.29569e-06,-1.61587e+09,-1.61378e+09,-1.61563e+09,574119,0.0465198,0.0635425,0,0.0787512,-5625.46,-55998,-0,56279.9,574119
step02_gravity_refstate-mantle.xmf,1076,-3.16001e-06,1.62264e-05,0,3.31461e-06,-1.66455e+09,-1.66196e+09,-1.66413e+09,442997,0.0512329,0.0427015,0,0.066695,-5461.15,-57499,-0,57757.8,442997
step02_gravity_refstate-mantle.xmf,1077,-2.33756e-06,1.48677e-05,0,3.65591e-06,-1.64506e+09,-1.64276e+09,-1.64475e+09,488613,0.0502571,0.0499655,0,0.0708684,-5678.26,-56898.8,-0,57181.4,488613
step02_gravity_refstate-mantle.xmf,1078,-3.58156e-06,1.68207e-05,0,2.45992e-06,-1.68731e+09,-1.68458e+09,-1.68683e+09,328769,0.0524318,0.0310687,0,0.0609456,-5459.79,-58200.7,-0,58456.2,328769
step02_gravity_refstate-mantle.xmf,1079,-4.42084e-06,1.81142e-05,0,1.7148e-06,-1.708e+09,-1.70499e+09,-1.70741e+09,229183,0.0520265,0.0212764,0,0.0562089,-5198.83,-58837.5,-0,59066.7,229183
step02_gravity_refstate-mantle.xmf,1080,-5.34896e-06,1.95311e-05,0,8.70127e-07,-1.72772e+09,-1.72439e+09,-1.727e+09,116292,0.050667,0.010888,0,0.0518236,-4862.03,-59443.9,-0,59642.4,116292
step02_gravity_refstate-mantle.xmf,1081,-6.25579e-06,2.09301e-05,0,1.01115e-08,-1.7458e+09,-1.74217e+09,-1.74496e+09,1351.4,0.04864,-1.0832e-18,0,0.04864,-4501.23,-60000,-0,60168.6,1351.4
step02_gravity_refstate-mantle.xmf,1082,3.02119e-06,-3.84744e-06,0,3.55665e-06,-1.27053e+09,-1.27145e+09,-1.27094e+09,475347,-0.00904806,0.16043,-0,0.160685,-2439.25,-45317.6,-0,45383.2,475347
step02_gravity_refstate-mantle.xmf,1083,3.60291e-06,-3.04734e-06,0,7.71412e-07,-1.18108e+09,-1.18197e+09,-1.18156e+09,103099,-0.00281402,0.157038,-0,0.157064,-773.511,-42560.4,-0,42567.4,103099
step02_gravity_refstate-mantle.xmf,1084,3.50655e-06,-3.29584e-06,0,1.42317e-06,-1.20321e+09,-1.20412e+09,-1.20367e+09,190206,-0.00466479,0.15815,-0,0.158218,-1284.71,-43242.6,-0,43261.7,190206
step02_gravity_refstate-mantle.xmf,1085,3.40674e-06,-3.54568e-06,0,2.0747e-06,-1.22602e+09,-1.22695e+09,-1.22647e+09,277284,-0.00617139,0.159245,-0,0.159365,-1687.63,-43945.9,-0,43978.3,277284
step02_gravity_refstate-mantle.xmf,1086,3.24368e-06,-3.71928e-06,0,2.82036e-06,-1.24862e+09,-1.24955e+09,-1.24906e+09,376942,-0.00770512,0.159956,-0,0.160141,-2090.15,-44642.6,-0,44691.5,376942
step02_gravity_refstate-mantle.xmf,1087,1.56997e-06,-2.83463e-06,0,6.082e-06,-1.32757e+09,-1.32816e+09,-1.32778e+09,812860,-0.0122779,0.156008,-0,0.156491,-3575.58,-47072.5,-0,47208.1,812860
step02_gravity_refstate-mantle.xmf,1088,1.09969e-07,-1.10125e-06,0,7.2271e-06,-1.3562e+09,-1.35636e+09,-1.35622e+09,965903,-0.0124855,0.14905,-0,0.149572,-4215.92,-47951.6,-0,48136.5,965903
step02_gravity_refstate-mantle.xmf,1089,-3.37487e-06,5.10136e-06,0,6.50349e-06,-1.43118e+09,-1.43004e+09,-1.43073e+09,869192,-0.00240072,0.122447,-0,0.122471,-5440.48,-50260.1,-0,50553.7,869192
step02_gravity_refstate-mantle.xmf,1090,-2.43199e-06,2.53249e-06,0,7.72365e-06,-1.40528e+09,-1.40462e+09,-1.40495e+09,1.03227e+06,-0.00825008,0.136087,-0,0.136337,-4906.18,-49459.8,-0,49702.5,1.03227e+06
step02_gravity_refstate-mantle.xmf,1091,-1.02468e-06,1.14136e-05,0,3.34423e-06,-1.59276e+09,-1.5911e+09,-1.59262e+09,446957,0.043026,0.0650627,0,0.0780025,-6174.62,-55283.2,-0,55627,446957
step02_gravity_refstate-mantle.xmf,1092,-1.56912e-06,1.3428e-05,0,3.5773e-06,-1.62869e+09,-1.62669e+09,-1.62848e+09,478106,0.0488759,0.0542942,0,0.0730528,-5933.01,-56394.8,-0,56706,478106
step02_gravity_refstate-mantle.xmf,1093,-1.10461e-06,1.22022e-05,0,3.39411e-06,-1.61143e+09,-1.60965e+09,-1.61128e+09,453622,0.0465262,0.0587974,0,0.0749788,-6129.55,-55861.4,-0,56196.6,453622
step02_gravity_refstate-mantle.xmf,1094,-1.19484e-06,1.07315e-05,0,3.33323e-06,-1.57284e+09,-1.57125e+09,-1.57268e+09,445486,0.0384914,0.0716776,0,0.0813589,-6192.76,-54665.1,-0,55014.8,445486
step02_gravity_refstate-mantle.xmf,1095,3.81871e-06,-2.45791e-06,0,-7.98373e-10,-1.12934e+09,-1.13018e+09,-1.12985e+09,-106.703,-1.16087e-08,0.153209,-0,0.153209,0,-40965,0,40965,106.703
step02_gravity_refstate-mantle.xmf,1096,2.48902e-06,-3.10862e-06,0,4.21536e-06,-1.27204e+09,-1.27279e+09,-1.27238e+09,563382,-0.0107296,0.156122,-0,0.15649,-3041.43,-45362.7,-0,45464.5,563382
step02_gravity_refstate-mantle.xmf,1097,4.1554e-06,-2.29416e-06,0,-2.32585e-08,-1.09801e+09,-1.09887e+09,-1.09857e+09,-3108.5,-9.19557e-08,0.150935,-0,0.150935,0,-40000,0,40000,3108.5
step02_gravity_refstate-mantle.xmf,1098,-1.79128e-06,1.63548e-06,0,7.58595e-06,-1.38593e+09,-1.38547e+09,-1.38569e+09,1.01386e+06,-0.01039,0.138351,-0,0.138741,-4849.61,-48864.1,-0,49104.2,1.01386e+06
step02_gravity_refstate-mantle.xmf,1099,1.94301e-06,-2.50583e-06,0,4.87828e-06,-1.28308e+09,-1.28368e+09,-1.28334e+09,651982,-0.0119535,0.152746,-0,0.153213,-3537.02,-45701.5,-0,45838.2,651982
step02_gravity_refstate-mantle.xmf,1100,1.80019e-06,-2.7137e-06,0,5.43462e-06,-1.30511e+09,-1.30572e+09,-1.30535e+09,726337,-0.0121396,0.154503,-0,0.15498,-3538.61,-46380.6,-0,46515.3,726337
step02_gravity_refstate-mantle.xmf,1101,5.39791e-07,-1.36706e-06,0,6.6248e-06,-1.3366e+09,-1.33685e+09,-1.33667e+09,885405,-0.0128603,0.148861,-0,0.149415,-4175.1,-47348.1,-0,47531.9,885405
step02_gravity_refstate-mantle.xmf,1102,-3.1181e-06,4.20739e-06,0,6.74179e-06,-1.41393e+09,-1.41296e+09,-1.41352e+09,901041,-0.00561055,0.1256,-0,0.125726,-5405.32,-49726.9,-0,50019.8,901041
step02_gravity_refstate-mantle.xmf,1103,-1.51979e-06,1.01199e-05,0,3.38614e-06,-1.55356e+09,-1.552e+09,-1.55336e+09,452558,0.0334691,0.0778281,0,0.0847195,-6200.9,-54065.7,-0,54420.1,452558
step02_gravity_refstate-mantle.xmf,1104,-3.51045e-06,6.06859e-06,0,5.37475e-06,-1.43783e+09,-1.43655e+09,-1.43736e+09,718336,0.000670224,0.112214,0,0.112216,-5926.55,-50467.3,-0,50814.1,718336
step02_gravity_refstate-mantle.xmf,1105,-1.92224e-06,9.51119e-06,0,3.50924e-06,-1.53423e+09,-1.5327e+09,-1.53397e+09,469010,0.0280079,0.0836887,0,0.088251,-6204.61,-53464.2,-0,53823.1,469010
step02_gravity_refstate-mantle.xmf,1106,-2.3535e-06,8.88303e-06,0,3.69614e-06,-1.51463e+09,-1.51312e+09,-1.51431e+09,493989,0.0222475,0.0893111,0,0.0920403,-6204.21,-52854.3,-0,53217.2,493989
step02_gravity_refstate-mantle.xmf,1107,-2.76855e-06,8.24396e-06,0,3.92779e-06,-1.49507e+09,-1.4936e+09,-1.4947e+09,524950,0.0164999,0.0945191,0,0.0959484,-6204.1,-52245.7,-0,52612.8,524950
step02_gravity_refstate-mantle.xmf,1108,-3.42573e-06,6.89997e-06,0,4.5683e-06,-1.45383e+09,-1.45245e+09,-1.45337e+09,610553,0.00530925,0.104294,0,0.104429,-6196.92,-50964,-0,51339.4,610553
step02_gravity_refstate-mantle.xmf,1109,-3.13477e-06,7.61132e-06,0,4.20354e-06,-1.47554e+09,-1.4741e+09,-1.47512e+09,561803,0.0109734,0.0993302,0,0.0999345,-6203.21,-51638.4,-0,52009.7,561803
step02_gravity_refstate-mantle.xmf,1110,-1.50351e-06,1.32719e-05,0,3.01191e-06,-1.64292e+09,-1.64094e+09,-1.64272e+09,402542,0.0509452,0.0461042,0,0.0687096,-6152.17,-56834.1,-0,57166.1,402542
step02_gravity_refstate-mantle.xmf,1111,-1.89004e-06,1.401e-05,0,2.77753e-06,-1.6585e+09,-1.65638e+09,-1.65825e+09,371217,0.0523717,0.040045,0,0.0659272,-6094.96,-57314.9,-0,57638.1,371217
step02_gravity_refstate-mantle.xmf,1112,-2.33475e-06,1.47321e-05,0,2.30605e-06,-1.67876e+09,-1.67648e+09,-1.67845e+09,308203,0.0536666,0.0315977,0,0.0622777,-6020.73,-57939.6,-0,58251.6,308203
step02_gravity_refstate-mantle.xmf,1113,-2.80084e-06,1.5534e-05,0,1.53546e-06,-1.70372e+09,-1.70127e+09,-1.70335e+09,205215,0.0545955,0.0203262,0,0.0582565,-5943.25,-58709.6,-0,59009.6,205215
step02_gravity_refstate-mantle.xmf,1114,-3.75246e-06,1.70439e-05,0,8.21145e-07,-1.72571e+09,-1.72293e+09,-1.72521e+09,109746,0.053826,0.0104971,0,0.05484,-5560.86,-59386.3,-0,59646.1,109746
step02_gravity_refstate-mantle.xmf,1115,-4.59412e-06,1.8381e-05,0,1.37327e-08,-1.74565e+09,-1.74258e+09,-1.74504e+09,1835.37,0.0524487,-1.04637e-18,0,0.0524487,-5203.28,-60000,-0,60225.2,1835.37
step02_gravity_refstate-mantle.xmf,1116,-6.98374e-07,1.00839e-05,0,2.43013e-06,-1.58321e+09,-1.58177e+09,-1.58312e+09,324787,0.0414452,0.0610357,0,0.0737771,-6739.82,-54987.1,-0,55398.6,324787
step02_gravity_refstate-mantle.xmf,1117,3.75403e-06,-2.40089e-06,0,5.4306e-07,-1.131e+09,-1.13183e+09,-1.13151e+09,72579.9,-0.00289967,0.152867,-0,0.152895,-766.256,-41016.2,-0,41023.4,72579.9
step02_gravity_refstate-mantle.xmf,1118,2.70077e-06,-3.0218e-06,0,3.58221e-06,-1.2495e+09,-1.25026e+09,-1.24986e+09,478763,-0.00993554,0.155517,-0,0.155834,-2835.78,-44667.8,-0,44757.8,478763
step02_gravity_refstate-mantle.xmf,1119,3.57526e-06,-2.59142e-06,0,9.41951e-07,-1.15489e+09,-1.15571e+09,-1.15537e+09,125892,-0.00412299,0.154135,-0,0.15419,-1131.21,-41752.4,-0,41767.7,125892
step02_gravity_refstate-mantle.xmf,1120,3.3795e-06,-2.74399e-06,0,1.55064e-06,-1.17886e+09,-1.17968e+09,-1.17931e+09,207243,-0.00584388,0.154842,-0,0.154952,-1641.39,-42491.2,-0,42522.9,207243
step02_gravity_refstate-mantle.xmf,1121,3.18073e-06,-2.86697e-06,0,2.21068e-06,-1.20242e+09,-1.20323e+09,-1.20285e+09,295458,-0.00738768,0.155222,-0,0.155398,-2099.78,-43217.3,-0,43268.2,295458
step02_gravity_refstate-mantle.xmf,1122,2.95228e-06,-2.94644e-06,0,2.91397e-06,-1.22623e+09,-1.22701e+09,-1.22662e+09,389452,-0.00879069,0.155372,-0,0.15562,-2510.31,-43950.9,-0,44022.5,389452
step02_gravity_refstate-mantle.xmf,1123,-1.08083e-06,6.79055e-07,0,7.23142e-06,-1.3659e+09,-1.36567e+09,-1.36576e+09,966479,-0.0118272,0.140103,-0,0.140602,-4786.57,-48247.7,-0,48484.5,966479
step02_gravity_refstate-mantle.xmf,1124,2.12081e-06,-2.36371e-06,0,4.30051e-06,-1.25922e+09,-1.25982e+09,-1.2595e+09,574763,-0.0116022,0.151448,-0,0.151891,-3481.25,-44966,-0,45100.5,574763
step02_gravity_refstate-mantle.xmf,1125,8.98323e-07,-1.50644e-06,0,6.01732e-06,-1.31528e+09,-1.3156e+09,-1.3154e+09,804215,-0.0129916,0.148259,-0,0.148827,-4146.56,-46691.6,-0,46875.3,804215
step02_gravity_refstate-mantle.xmf,1126,-4.97623e-07,1.78336e-07,0,6.78822e-06,-1.34533e+09,-1.34524e+09,-1.34527e+09,907246,-0.0126938,0.141029,-0,0.141599,-4742.45,-47615,-0,47850.6,907246
step02_gravity_refstate-mantle.xmf,1127,-3.4401e-06,5.42261e-06,0,5.64994e-06,-1.42314e+09,-1.42196e+09,-1.42268e+09,755115,-0.00234339,0.115089,-0,0.115113,-5911.34,-50012.2,-0,50360.4,755115
step02_gravity_refstate-mantle.xmf,1128,-2.66773e-06,3.30062e-06,0,6.84666e-06,-1.39537e+09,-1.39457e+09,-1.39502e+09,915057,-0.00824979,0.128246,-0,0.128511,-5377.91,-49154.2,-0,49447.5,915057
step02_gravity_refstate-mantle.xmf,1129,-5.67753e-07,1.06595e-05,0,2.46277e-06,-1.60388e+09,-1.60238e+09,-1.6038e+09,329149,0.0456743,0.054525,0,0.0711275,-6726.26,-55627.7,-0,56032.9,329149
step02_gravity_refstate-mantle.xmf,1130,-7.60206e-07,1.15991e-05,0,2.56967e-06,-1.62671e+09,-1.62506e+09,-1.62661e+09,343437,0.0493723,0.048019,0,0.0688727,-6593.36,-56334.3,-0,56718.8,343437
step02_gravity_refstate-mantle.xmf,1131,-9.21201e-07,1.20992e-05,0,2.3105e-06,-1.64738e+09,-1.64564e+09,-1.64726e+09,308799,0.0520521,0.0398893,0,0.0655788,-6651.02,-56972.9,-0,57359.8,308799
step02_gravity_refstate-mantle.xmf,1132,-9.99061e-07,9.59585e-06,0,2.42642e-06,-1.5632e+09,-1.56179e+09,-1.56307e+09,324291,0.0366924,0.0671058,0,0.0764822,-6744.98,-54365.7,-0,54782.5,324291
step02_gravity_refstate-mantle.xmf,1133,-2.10496e-06,2.51665e-06,0,6.79491e-06,-1.37559e+09,-1.37497e+09,-1.3753e+09,908139,-0.0102806,0.13049,-0,0.130894,-5348.43,-48544.7,-0,48838.5,908139
step02_gravity_refstate-mantle.xmf,1134,1.43132e-06,-1.53211e-06,0,4.89951e-06,-1.27046e+09,-1.27086e+09,-1.27065e+09,654819,-0.0128231,0.14647,-0,0.14703,-4113.77,-45310.7,-0,45497.1,654819
step02_gravity_refstate-mantle.xmf,1135,1.17509e-06,-1.5326e-06,0,5.45247e-06,-1.29356e+09,-1.29393e+09,-1.29372e+09,728723,-0.0129645,0.147338,-0,0.147908,-4136.83,-46022.7,-0,46208.2,728723
step02_gravity_refstate-mantle.xmf,1136,-4.08268e-08,-1.80358e-07,0,6.29208e-06,-1.32494e+09,-1.32496e+09,-1.32493e+09,840937,-0.01316,0.141172,-0,0.141785,-4729.37,-46987.1,-0,47224.5,840937
step02_gravity_refstate-mantle.xmf,1137,-3.49548e-06,6.35191e-06,0,4.60597e-06,-1.43512e+09,-1.43381e+09,-1.43466e+09,615588,0.0016673,0.105129,0,0.105143,-6375.86,-50384.4,-0,50786.2,615588
step02_gravity_refstate-mantle.xmf,1138,-3.19339e-06,4.65849e-06,0,5.90236e-06,-1.40508e+09,-1.40403e+09,-1.40466e+09,788850,-0.00540723,0.118109,-0,0.118233,-5899.22,-49454.1,-0,49804.7,788850
step02_gravity_refstate-mantle.xmf,1139,-1.40642e-06,9.16302e-06,0,2.49299e-06,-1.54376e+09,-1.54235e+09,-1.54358e+09,333188,0.0315899,0.072826,0,0.0793823,-6742.29,-53761.4,-0,54182.6,333188
step02_gravity_refstate-mantle.xmf,1140,-1.85875e-06,8.74609e-06,0,2.62864e-06,-1.52472e+09,-1.5233e+09,-1.52447e+09,351317,0.0262962,0.0782158,0,0.0825178,-6736.85,-53169.1,-0,53594.2,351317
step02_gravity_refstate-mantle.xmf,1141,-2.33024e-06,8.29409e-06,0,2.82694e-06,-1.50498e+09,-1.50356e+09,-1.50467e+09,377820,0.0207173,0.0834076,0,0.0859421,-6739.65,-52555.1,-0,52985.5,377820
step02_gravity_refstate-mantle.xmf,1142,-2.75373e-06,7.84482e-06,0,3.09405e-06,-1.48589e+09,-1.48447e+09,-1.48552e+09,413520,0.0153885,0.0882566,0,0.0895881,-6735.51,-51961.3,-0,52396,413520
step02_gravity_refstate-mantle.xmf,1143,-3.08191e-06,7.40171e-06,0,3.31887e-06,-1.46716e+09,-1.46575e+09,-1.46674e+09,443567,0.0105697,0.0919626,0,0.092568,-6783.22,-51379.3,-0,51825.1,443567
step02_gravity_refstate-mantle.xmf,1144,-1.25127e-06,1.28141e-05,0,2.00161e-06,-1.66841e+09,-1.66653e+09,-1.66825e+09,267516,0.0540097,0.0320391,0,0.0627977,-6616.11,-57622.2,-0,58000.8,267516
step02_gravity_refstate-mantle.xmf,1145,-1.55676e-06,1.33506e-05,0,1.56992e-06,-1.68971e+09,-1.68772e+09,-1.6895e+09,209820,0.0553583,0.0236842,0,0.0602119,-6570.61,-58279.4,-0,58648.6,209820
step02_gravity_refstate-mantle.xmf,1146,-2.41634e-06,1.48736e-05,0,6.38457e-07,-1.72646e+09,-1.72414e+09,-1.72613e+09,85329.8,0.0559051,0.00878003,0,0.0565904,-6229.61,-59412.6,-0,59738.3,85329.8
step02_gravity_refstate-mantle.xmf,1147,-3.06229e-06,1.59525e-05,0,9.17593e-09,-1.74552e+09,-1.74298e+09,-1.74511e+09,1226.36,0.0551868,-8.74291e-19,0,0.0551868,-5918.45,-60000,-0,60291.2,1226.36
step02_gravity_refstate-mantle.xmf,1148,-2.65145e-07,9.44754e-06,0,1.69117e-06,-1.59389e+09,-1.59259e+09,-1.59385e+09,226024,0.043981,0.0515098,0,0.0677318,-7314.95,-55318,-0,55799.6,226024
step02_gravity_refstate-mantle.xmf,1149,-5.34125e-07,9.01982e-06,0,1.64701e-06,-1.57263e+09,-1.57136e+09,-1.57256e+09,220123,0.0394136,0.0574516,0,0.0696715,-7330.87,-54658.7,-0,55148.1,220123
step02_gravity_refstate-mantle.xmf,1150,4.06172e-06,-2.21999e-06,0,4.70211e-07,-1.09802e+09,-1.09886e+09,-1.09857e+09,62843.6,-0.00404215,0.150244,-0,0.150298,-984.598,-40000,-0,40012.1,62843.6
step02_gravity_refstate-mantle.xmf,1151,3.62061e-06,-2.20549e-06,0,1.02846e-06,-1.12667e+09,-1.12745e+09,-1.12716e+09,137453,-0.00587111,0.1511,-0,0.151214,-1562.44,-40882,-0,40911.9,137453
step02_gravity_refstate-mantle.xmf,1152,2.32271e-06,-2.16262e-06,0,3.65873e-06,-1.22975e+09,-1.23035e+09,-1.23006e+09,488989,-0.0111212,0.150149,-0,0.15056,-3380.38,-44057.6,-0,44187.1,488989
step02_gravity_refstate-mantle.xmf,1153,3.30668e-06,-2.26255e-06,0,1.59682e-06,-1.15261e+09,-1.15335e+09,-1.15305e+09,213415,-0.00727457,0.151504,-0,0.151679,-2043.68,-41680.9,-0,41731,213415
step02_gravity_refstate-mantle.xmf,1154,3.01561e-06,-2.29368e-06,0,2.2289e-06,-1.17772e+09,-1.17843e+09,-1.17812e+09,297892,-0.00863242,0.151439,-0,0.151684,-2512.93,-42454.6,-0,42528.9,297892
step02_gravity_refstate-mantle.xmf,1155,2.71576e-06,-2.27654e-06,0,2.89625e-06,-1.20253e+09,-1.2032e+09,-1.2029e+09,387083,-0.00987835,0.151023,-0,0.151345,-2944.34,-43219.1,-0,43319.3,387083
step02_gravity_refstate-mantle.xmf,1156,-1.47976e-06,1.67837e-06,0,6.5712e-06,-1.35525e+09,-1.35483e+09,-1.35505e+09,878241,-0.0117097,0.132286,-0,0.132803,-5315.68,-47918.5,-0,48212.5,878241
step02_gravity_refstate-mantle.xmf,1157,1.66648e-06,-1.51639e-06,0,4.34588e-06,-1.24556e+09,-1.24599e+09,-1.24578e+09,580827,-0.012619,0.145648,-0,0.146194,-4074.69,-44543.2,-0,44729.2,580827
step02_gravity_refstate-mantle.xmf,1158,3.4121e-07,-4.09699e-07,0,5.78442e-06,-1.30344e+09,-1.30354e+09,-1.30349e+09,773088,-0.0134033,0.140925,-0,0.141561,-4731.47,-46325.1,-0,46566.1,773088
step02_gravity_refstate-mantle.xmf,1159,-9.28878e-07,1.14771e-06,0,6.26494e-06,-1.3345e+09,-1.33422e+09,-1.33438e+09,837309,-0.0126534,0.133589,-0,0.134187,-5286.22,-47280,-0,47574.6,837309
step02_gravity_refstate-mantle.xmf,1160,-3.40948e-06,5.64712e-06,0,4.88315e-06,-1.41562e+09,-1.41441e+09,-1.41517e+09,652633,-0.001953,0.108028,-0,0.108045,-6420.61,-49780.7,-0,50193.1,652633
step02_gravity_refstate-mantle.xmf,1161,-2.77659e-06,3.85013e-06,0,6.04966e-06,-1.38559e+09,-1.3847e+09,-1.38521e+09,808537,-0.00798163,0.120854,-0,0.121117,-5887.8,-48852.6,-0,49206.1,808537
step02_gravity_refstate-mantle.xmf,1162,-3.31153e-06,6.89856e-06,0,3.56968e-06,-1.44688e+09,-1.44552e+09,-1.44644e+09,477087,0.00596961,0.0950534,0,0.0952407,-6876.91,-50750.3,-0,51214.1,477087
step02_gravity_refstate-mantle.xmf,1163,-1.70061e-07,9.96782e-06,0,1.74366e-06,-1.6155e+09,-1.61414e+09,-1.61547e+09,233041,0.047935,0.0453261,0,0.0659714,-7279.21,-55987.6,-0,56458.8,233041
step02_gravity_refstate-mantle.xmf,1164,-2.54835e-07,1.05749e-05,0,1.74556e-06,-1.63705e+09,-1.6356e+09,-1.63702e+09,233294,0.0511309,0.0389299,0,0.0642644,-7222.04,-56654.4,-0,57112.9,233294
step02_gravity_refstate-mantle.xmf,1165,-4.1357e-07,1.11121e-05,0,1.59942e-06,-1.65825e+09,-1.65671e+09,-1.65819e+09,213762,0.0535732,0.0319509,0,0.0623774,-7200.23,-57309.4,-0,57760,213762
step02_gravity_refstate-mantle.xmf,1166,-1.73688e-06,1.3694e-05,0,1.05785e-06,-1.70952e+09,-1.70745e+09,-1.70928e+09,141382,0.0562101,0.0153956,0,0.0582803,-6569.66,-58890.9,-0,59256.2,141382
step02_gravity_refstate-mantle.xmf,1167,-9.34058e-07,8.71856e-06,0,1.69562e-06,-1.55271e+09,-1.55142e+09,-1.55259e+09,226619,0.0345859,0.0633176,0,0.0721478,-7298.59,-54039.8,-0,54530.4,226619
step02_gravity_refstate-mantle.xmf,1168,-2.27738e-06,3.14431e-06,0,6.06149e-06,-1.36525e+09,-1.36453e+09,-1.36495e+09,810119,-0.00997632,0.123229,-0,0.123632,-5874.29,-48226,-0,48582.5,810119
step02_gravity_refstate-mantle.xmf,1169,9.69959e-07,-6.63896e-07,0,4.78266e-06,-1.25724e+09,-1.25746e+09,-1.25737e+09,639202,-0.0135198,0.140121,-0,0.140771,-4729.68,-44901.4,-0,45149.8,639202
step02_gravity_refstate-mantle.xmf,1170,6.66524e-07,-5.54551e-07,0,5.28495e-06,-1.28111e+09,-1.28127e+09,-1.2812e+09,706333,-0.013504,0.140501,-0,0.141149,-4738,-45637.1,-0,45882.4,706333
step02_gravity_refstate-mantle.xmf,1171,-4.85291e-07,7.58886e-07,0,5.87206e-06,-1.31371e+09,-1.31354e+09,-1.31365e+09,784800,-0.0132189,0.133945,-0,0.134596,-5303.19,-46639.7,-0,46940.3,784800
step02_gravity_refstate-mantle.xmf,1172,-3.38411e-06,6.36842e-06,0,3.86646e-06,-1.42728e+09,-1.42597e+09,-1.42683e+09,516752,0.00202946,0.0980603,0,0.0980813,-6946.19,-50142.8,-0,50621.6,516752
step02_gravity_refstate-mantle.xmf,1173,-3.16751e-06,4.94252e-06,0,5.15657e-06,-1.3959e+09,-1.39482e+09,-1.39548e+09,689176,-0.00504997,0.111152,-0,0.111267,-6427.35,-49171.5,-0,49589.8,689176
step02_gravity_refstate-mantle.xmf,1174,-1.38218e-06,8.46459e-06,0,1.81141e-06,-1.53399e+09,-1.53268e+09,-1.53381e+09,242095,0.0297064,0.0686376,0,0.0747903,-7272.46,-53458,-0,53950.4,242095
step02_gravity_refstate-mantle.xmf,1175,-1.83627e-06,8.14868e-06,0,1.93476e-06,-1.51505e+09,-1.51372e+09,-1.51481e+09,258580,0.0246588,0.0732814,0,0.0773189,-7292.68,-52869,-0,53369.6,258580
step02_gravity_refstate-mantle.xmf,1176,-2.3213e-06,7.81809e-06,0,2.18004e-06,-1.49488e+09,-1.49353e+09,-1.49457e+09,291362,0.0192265,0.0783609,0,0.0806851,-7287.02,-52242,-0,52747.8,291362
step02_gravity_refstate-mantle.xmf,1177,-2.70528e-06,7.5165e-06,0,2.52509e-06,-1.47788e+09,-1.47651e+09,-1.47752e+09,337478,0.0145827,0.083365,0,0.0846308,-7215.3,-51713.3,-0,52214.2,337478
step02_gravity_refstate-mantle.xmf,1178,-2.87752e-06,7.22645e-06,0,2.47071e-06,-1.46289e+09,-1.46154e+09,-1.4625e+09,330211,0.0115741,0.0834529,0,0.0842517,-7471.45,-51248.3,-0,51790.1,330211
step02_gravity_refstate-mantle.xmf,1179,-6.33404e-07,1.16616e-05,0,1.32108e-06,-1.68007e+09,-1.67843e+09,-1.67998e+09,176563,0.0554188,0.0243767,0,0.0605431,-7179.43,-57983.4,-0,58426.2,176563
step02_gravity_refstate-mantle.xmf,1180,-8.34196e-07,1.20713e-05,0,9.42782e-07,-1.70265e+09,-1.70093e+09,-1.70254e+09,126003,0.0566774,0.0162584,0,0.0589633,-7136.65,-58680.8,-0,59113.1,126003
step02_gravity_refstate-mantle.xmf,1181,-1.20256e-06,1.27867e-05,0,5.09194e-07,-1.72492e+09,-1.72305e+09,-1.72476e+09,68053.7,0.0571956,0.0081341,0,0.0577711,-6957.79,-59368,-0,59774.4,68053.7
step02_gravity_refstate-mantle.xmf,1182,-1.72661e-06,1.37385e-05,0,1.03586e-08,-1.74542e+09,-1.74335e+09,-1.74518e+09,1384.42,0.0569393,-8.10282e-19,0,0.0569393,-6651.63,-60000,-0,60367.6,1384.42
step02_gravity_refstate-mantle.xmf,1183,1.25841e-07,8.85051e-06,0,1.10755e-06,-1.60537e+09,-1.6042e+09,-1.60538e+09,148024,0.0461965,0.0431174,0,0.063192,-7891.38,-55673.8,-0,56230.2,148024
step02_gravity_refstate-mantle.xmf,1184,-1.0683e-07,8.47289e-06,0,1.03328e-06,-1.58328e+09,-1.58213e+09,-1.58327e+09,138098,0.0419322,0.048706,0,0.0642696,-7933.53,-54989,-0,55558.4,138098
step02_gravity_refstate-mantle.xmf,1185,-5.14041e-07,8.11729e-06,0,9.65109e-07,-1.55939e+09,-1.55823e+09,-1.55932e+09,128987,0.036693,0.0544451,0,0.0656555,-7980.51,-54247.3,-0,54831.2,128987
step02_gravity_refstate-mantle.xmf,1186,3.78467e-06,-1.99168e-06,0,9.26408e-07,-1.09807e+09,-1.09884e+09,-1.09857e+09,123814,-0.00790666,0.148212,-0,0.148423,-1969.19,-40000,-0,40048.4,123814
step02_gravity_refstate-mantle.xmf,1187,3.30402e-06,-1.88398e-06,0,1.53493e-06,-1.12547e+09,-1.12616e+09,-1.12591e+09,205143,-0.00907418,0.148211,-0,0.148489,-2481.98,-40843.4,-0,40918.8,205143
step02_gravity_refstate-mantle.xmf,1188,1.82617e-06,-1.44851e-06,0,3.91135e-06,-1.22437e+09,-1.22481e+09,-1.22461e+09,522752,-0.0125045,0.144811,-0,0.14535,-4058.5,-43889.8,-0,44077,522752
step02_gravity_refstate-mantle.xmf,1189,2.90883e-06,-1.82068e-06,0,2.15175e-06,-1.15194e+09,-1.15257e+09,-1.15233e+09,287581,-0.0101071,0.147779,-0,0.148125,-2952.8,-41658.8,-0,41763.4,287581
step02_gravity_refstate-mantle.xmf,1190,2.53681e-06,-1.72463e-06,0,2.78399e-06,-1.1777e+09,-1.17827e+09,-1.17804e+09,372080,-0.0110776,0.146926,-0,0.147343,-3393.26,-42452.3,-0,42587.7,372080
step02_gravity_refstate-mantle.xmf,1191,2.15899e-06,-1.5759e-06,0,3.40681e-06,-1.20276e+09,-1.20326e+09,-1.20305e+09,455321,-0.0119245,0.145793,-0,0.14628,-3782.98,-43224.2,-0,43389.4,455321
step02_gravity_refstate-mantle.xmf,1192,-1.71916e-06,2.38621e-06,0,5.92949e-06,-1.34442e+09,-1.34387e+09,-1.34419e+09,792477,-0.0114352,0.125163,-0,0.125684,-5861.56,-47584.2,-0,47943.8,792477
step02_gravity_refstate-mantle.xmf,1193,1.26546e-06,-7.82503e-07,0,4.27923e-06,-1.23233e+09,-1.2326e+09,-1.2325e+09,571919,-0.013481,0.139966,-0,0.140614,-4684.58,-44133.7,-0,44381.6,571919
step02_gravity_refstate-mantle.xmf,1194,-1.04014e-07,4.79459e-07,0,5.45464e-06,-1.29204e+09,-1.29197e+09,-1.29203e+09,729013,-0.0135901,0.133957,-0,0.134645,-5334.85,-45972.3,-0,46280.8,729013
step02_gravity_refstate-mantle.xmf,1195,-1.23308e-06,1.89274e-06,0,5.71169e-06,-1.32364e+09,-1.32322e+09,-1.32347e+09,763368,-0.0124356,0.126517,-0,0.127127,-5861.43,-46944.2,-0,47308.7,763368
step02_gravity_refstate-mantle.xmf,1196,-3.29677e-06,5.7329e-06,0,4.20981e-06,-1.407e+09,-1.40579e+09,-1.40656e+09,562641,-0.00156948,0.101494,-0,0.101506,-6971.31,-49515.3,-0,50003.6,562641
step02_gravity_refstate-mantle.xmf,1197,-2.78985e-06,4.22073e-06,0,5.32467e-06,-1.37547e+09,-1.37453e+09,-1.3751e+09,711643,-0.00757346,0.113936,-0,0.114187,-6434.66,-48540.9,-0,48965.5,711643
step02_gravity_refstate-mantle.xmf,1198,-3.13434e-06,6.76378e-06,0,2.87856e-06,-1.4399e+09,-1.43858e+09,-1.43949e+09,384720,0.00646676,0.0879824,0,0.0882198,-7506.06,-50535.5,-0,51089.9,384720
step02_gravity_refstate-mantle.xmf,1199,2.05607e-07,9.27796e-06,0,1.16213e-06,-1.62638e+09,-1.62517e+09,-1.62641e+09,155319,0.0496437,0.0375834,0,0.0622657,-7841.08,-56324.6,-0,56867.8,155319
step02_gravity_refstate-mantle.xmf,1200,1.8262e-07,9.71307e-06,0,1.13824e-06,-1.64764e+09,-1.64637e+09,-1.64766e+09,152125,0.052482,0.031532,0,0.061226,-7808.74,-56982.2,-0,57514.7,152125
step02_gravity_refstate-mantle.xmf,1201,8.47264e-08,1.01481e-05,0,1.02084e-06,-1.66955e+09,-1.6682e+09,-1.66956e+09,136435,0.0547399,0.0249406,0,0.0601539,-7779.17,-57659.4,-0,58181.8,136435
step02_gravity_refstate-mantle.xmf,1202,-9.95976e-07,8.15362e-06,0,1.23198e-06,-1.54188e+09,-1.54066e+09,-1.54174e+09,164654,0.0323031,0.0611866,0,0.0691902,-7749.62,-53703.3,-0,54259.6,164654
step02_gravity_refstate-mantle.xmf,1203,-2.35204e-06,3.59437e-06,0,5.37275e-06,-1.35457e+09,-1.35378e+09,-1.35426e+09,718068,-0.00954243,0.116347,-0,0.116737,-6440.92,-47896.8,-0,48327.9,718068
step02_gravity_refstate-mantle.xmf,1204,5.85741e-07,5.96763e-08,0,4.56915e-06,-1.24398e+09,-1.24405e+09,-1.24406e+09,610667,-0.014063,0.134,-0,0.134736,-5362.48,-44491.2,-0,44813.2,610667
step02_gravity_refstate-mantle.xmf,1205,2.34668e-07,2.75866e-07,0,5.01541e-06,-1.26878e+09,-1.26878e+09,-1.26882e+09,670309,-0.0138594,0.133745,-0,0.134461,-5377.56,-45255.6,-0,45573.9,670309
step02_gravity_refstate-mantle.xmf,1206,-8.04385e-07,1.47605e-06,0,5.41236e-06,-1.3026e+09,-1.3023e+09,-1.30249e+09,723363,-0.0131157,0.12719,-0,0.127864,-5893.52,-46296.3,-0,46669.9,723363
step02_gravity_refstate-mantle.xmf,1207,-3.21403e-06,6.27655e-06,0,3.26783e-06,-1.41855e+09,-1.41728e+09,-1.41812e+09,436746,0.00231287,0.0918996,0,0.0919287,-7536.11,-49874.2,-0,50440.3,436746
step02_gravity_refstate-mantle.xmf,1208,-3.07342e-06,5.10819e-06,0,4.47451e-06,-1.38641e+09,-1.38532e+09,-1.386e+09,598018,-0.00455505,0.104516,-0,0.104615,-7002.81,-48879.2,-0,49378.3,598018
step02_gravity_refstate-mantle.xmf,1209,-1.34766e-06,7.89221e-06,0,1.23669e-06,-1.52502e+09,-1.52378e+09,-1.52484e+09,165283,0.0281686,0.0642954,0,0.0701952,-7852.57,-53179.6,-0,53756.2,165283
step02_gravity_refstate-mantle.xmf,1210,-2.35948e-06,7.38498e-06,0,1.73404e-06,-1.48127e+09,-1.47997e+09,-1.48095e+09,231755,0.0170651,0.0746758,0,0.0766009,-7852.76,-51820.1,-0,52411.7,231755
step02_gravity_refstate-mantle.xmf,1211,-1.83297e-06,7.63783e-06,0,1.39652e-06,-1.50422e+09,-1.50295e+09,-1.50397e+09,186645,0.0229123,0.0689466,0,0.072654,-7886.23,-52533.1,-0,53121.8,186645
step02_gravity_refstate-mantle.xmf,1212,-2.73974e-06,6.9236e-06,0,1.99074e-06,-1.45305e+09,-1.45176e+09,-1.45268e+09,266063,0.011045,0.078267,0,0.0790425,-8087.91,-50944.6,-0,51582.6,266063
step02_gravity_refstate-mantle.xmf,1213,-5.49691e-08,1.05869e-05,0,7.87191e-07,-1.6925e+09,-1.69108e+09,-1.6925e+09,105208,0.0564249,0.017661,0,0.0591243,-7758.11,-58368.6,-0,58882,105208
step02_gravity_refstate-mantle.xmf,1214,-1.00919e-07,1.0795e-05,0,4.00228e-07,-1.71922e+09,-1.71776e+09,-1.71921e+09,53490.5,0.0575924,0.00875929,0,0.0582546,-7784.32,-59194.2,-0,59703.8,53490.5
step02_gravity_refstate-mantle.xmf,1215,-6.06493e-07,1.17747e-05,0,1.2142e-08,-1.74534e+09,-1.74368e+09,-1.74525e+09,1622.78,0.057815,-8.75557e-19,0,0.057815,-7406.53,-60000,-0,60455.4,1622.78
step02_gravity_refstate-mantle.xmf,1216,4.77116e-07,8.2817e-06,0,6.57876e-07,-1.61667e+09,-1.61563e+09,-1.61673e+09,87925.1,0.0479342,0.0360237,0,0.0599616,-8458.75,-56023.8,-0,56658.8,87925.1
step02_gravity_refstate-mantle.xmf,1217,2.9416e-07,7.95453e-06,0,5.69122e-07,-1.59554e+09,-1.59452e+09,-1.59558e+09,76063.1,0.0442762,0.0408648,0,0.0602521,-8529.8,-55369.1,-0,56022.3,76063.1
step02_gravity_refstate-mantle.xmf,1218,-3.02043e-08,7.68714e-06,0,4.98209e-07,-1.57294e+09,-1.57191e+09,-1.57294e+09,66585.6,0.0398314,0.0459432,0,0.0608056,-8585.34,-54668.1,-0,55338.1,66585.6
step02_gravity_refstate-mantle.xmf,1219,-8.39856e-07,7.62272e-06,0,7.15336e-07,-1.53828e+09,-1.53715e+09,-1.53817e+09,95604.6,0.0319713,0.0562309,0,0.0646844,-8343.98,-53592,-0,54237.7,95604.6
step02_gravity_refstate-mantle.xmf,1220,3.35707e-06,-1.63722e-06,0,1.32319e-06,-1.09813e+09,-1.0988e+09,-1.09858e+09,176844,-0.0114265,0.144946,-0,0.145396,-2953.78,-40000,-0,40108.9,176844
step02_gravity_refstate-mantle.xmf,1221,2.85099e-06,-1.44424e-06,0,1.96759e-06,-1.12522e+09,-1.12579e+09,-1.1256e+09,262968,-0.0120071,0.144155,-0,0.144654,-3432.54,-40833.9,-0,40977.9,262968
step02_gravity_refstate-mantle.xmf,1222,1.49898e-06,-7.72557e-07,0,3.79892e-06,-1.20617e+09,-1.20647e+09,-1.20637e+09,507725,-0.0135455,0.139439,-0,0.140095,-4670.92,-43327.2,-0,43578.2,507725
step02_gravity_refstate-mantle.xmf,1223,2.41053e-06,-1.27955e-06,0,2.58496e-06,-1.15193e+09,-1.15242e+09,-1.15225e+09,345480,-0.0125489,0.142995,-0,0.143544,-3870.24,-41656.5,-0,41835.9,345480
step02_gravity_refstate-mantle.xmf,1224,1.98615e-06,-1.07697e-06,0,3.18404e-06,-1.1784e+09,-1.17881e+09,-1.17866e+09,425547,-0.0130611,0.141489,-0,0.142091,-4272.24,-42471.8,-0,42686.1,425547
step02_gravity_refstate-mantle.xmf,1225,-1.84708e-06,2.88732e-06,0,5.32037e-06,-1.3332e+09,-1.33257e+09,-1.33295e+09,711068,-0.0110731,0.118576,-0,0.119092,-6432.11,-47238.2,-0,47674.1,711068
step02_gravity_refstate-mantle.xmf,1226,9.27007e-07,-1.90787e-07,0,4.18668e-06,-1.22237e+09,-1.22252e+09,-1.22249e+09,559550,-0.0141416,0.134993,-0,0.135732,-5245.36,-43825.1,-0,44137.9,559550
step02_gravity_refstate-mantle.xmf,1227,-4.5964e-07,1.19966e-06,0,5.06252e-06,-1.28092e+09,-1.28069e+09,-1.28086e+09,676605,-0.0136042,0.127118,-0,0.127844,-5977.67,-45628,-0,46017.9,676605
step02_gravity_refstate-mantle.xmf,1228,-1.40952e-06,2.41159e-06,0,5.17467e-06,-1.31225e+09,-1.31174e+09,-1.31206e+09,691595,-0.0121557,0.12016,-0,0.120773,-6441.37,-46592.6,-0,47035.8,691595
step02_gravity_refstate-mantle.xmf,1229,-3.13397e-06,5.72733e-06,0,3.62467e-06,-1.39805e+09,-1.39687e+09,-1.39763e+09,484438,-0.00113528,0.0955053,-0,0.0955121,-7551.66,-49240,-0,49815.7,484438
step02_gravity_refstate-mantle.xmf,1230,-2.74772e-06,4.49221e-06,0,4.63088e-06,-1.36556e+09,-1.3646e+09,-1.3652e+09,618917,-0.00694921,0.107056,-0,0.107281,-7044.9,-48235.9,-0,48747.6,618917
step02_gravity_refstate-mantle.xmf,1231,-2.95236e-06,6.53852e-06,0,2.40075e-06,-1.43041e+09,-1.42915e+09,-1.43002e+09,320860,0.00637722,0.0826825,0,0.0829281,-8114.35,-50243,-0,50894,320860
step02_gravity_refstate-mantle.xmf,1232,5.58449e-07,8.59908e-06,0,7.01234e-07,-1.63637e+09,-1.6353e+09,-1.63645e+09,93719.9,0.0508382,0.0311704,0,0.0596332,-8408.36,-56633.8,-0,57254.5,93719.9
step02_gravity_refstate-mantle.xmf,1233,5.94099e-07,8.89789e-06,0,6.70562e-07,-1.65827e+09,-1.65716e+09,-1.65835e+09,89620.6,0.0534407,0.0252553,0,0.0591078,-8401.56,-57311.3,-0,57923.9,89620.6
step02_gravity_refstate-mantle.xmf,1234,5.55356e-07,9.23421e-06,0,5.80841e-07,-1.6813e+09,-1.68014e+09,-1.68137e+09,77629.5,0.0555136,0.0188836,0,0.0586375,-8375.02,-58023.1,-0,58624.4,77629.5
step02_gravity_refstate-mantle.xmf,1235,-3.55898e-07,7.44698e-06,0,4.34605e-07,-1.55392e+09,-1.55288e+09,-1.55388e+09,58084.9,0.035772,0.049578,0,0.061136,-8692.28,-54077.9,-0,54772.1,58084.9
step02_gravity_refstate-mantle.xmf,1236,-2.36339e-06,3.9183e-06,0,4.72526e-06,-1.34403e+09,-1.34319e+09,-1.34371e+09,631531,-0.00897391,0.109708,-0,0.110075,-7054.69,-47571.9,-0,48092.1,631531
step02_gravity_refstate-mantle.xmf,1237,3.50674e-07,5.72754e-07,0,4.23247e-06,-1.22625e+09,-1.22622e+09,-1.22629e+09,565670,-0.0145715,0.128408,-0,0.129232,-5990.48,-43943.1,-0,44349.6,565670
step02_gravity_refstate-mantle.xmf,1238,-1.10501e-07,9.58593e-07,0,4.66372e-06,-1.2558e+09,-1.25566e+09,-1.25579e+09,623307,-0.0140802,0.127096,-0,0.127874,-6058.64,-44854,-0,45261.3,623307
step02_gravity_refstate-mantle.xmf,1239,-1.01803e-06,1.969e-06,0,5.00214e-06,-1.29316e+09,-1.29276e+09,-1.29303e+09,668536,-0.0129231,0.121525,-0,0.12221,-6433.14,-46004.6,-0,46452.2,668536
step02_gravity_refstate-mantle.xmf,1240,-3.02232e-06,6.10864e-06,0,2.81583e-06,-1.4089e+09,-1.40768e+09,-1.40849e+09,376336,0.00238341,0.0869368,0,0.0869695,-8109.89,-49576.7,-0,50235.7,376336
step02_gravity_refstate-mantle.xmf,1241,-2.94094e-06,5.19833e-06,0,3.85081e-06,-1.37764e+09,-1.37655e+09,-1.37725e+09,514661,-0.00386751,0.0981687,-0,0.0982449,-7616.06,-48609.4,-0,49202.5,514661
step02_gravity_refstate-mantle.xmf,1242,-1.27958e-06,7.36112e-06,0,7.42634e-07,-1.51623e+09,-1.51507e+09,-1.51606e+09,99253,0.0268735,0.0597604,0,0.0655247,-8518.24,-52907.1,-0,53588.5,99253
step02_gravity_refstate-mantle.xmf,1243,-1.79823e-06,7.18313e-06,0,9.75468e-07,-1.49305e+09,-1.49185e+09,-1.49281e+09,130371,0.0213357,0.0648964,0,0.0683136,-8528.34,-52187.2,-0,52879.5,130371
step02_gravity_refstate-mantle.xmf,1244,-2.57275e-06,6.61905e-06,0,1.63075e-06,-1.44318e+09,-1.44195e+09,-1.44284e+09,217949,0.0105741,0.0739101,0,0.0746627,-8699.36,-50640.1,-0,51381.9,217949
step02_gravity_refstate-mantle.xmf,1245,-2.23856e-06,6.95714e-06,0,1.27441e-06,-1.46973e+09,-1.4685e+09,-1.46943e+09,170326,0.0160089,0.0695476,0,0.0713663,-8575.86,-51463.4,-0,52173.1,170326
step02_gravity_refstate-mantle.xmf,1246,4.50685e-07,9.6069e-06,0,4.45275e-07,-1.70291e+09,-1.70168e+09,-1.70297e+09,59511,0.0568724,0.0127632,0,0.058287,-8313.77,-58690.9,-0,59276.8,59511
step02_gravity_refstate-mantle.xmf,1247,2.98371e-07,1.00693e-05,0,3.69349e-09,-1.74528e+09,-1.74398e+09,-1.74532e+09,493.635,0.0579377,-6.62061e-19,0,0.0579377,-8185.04,-60000,-0,60555.7,493.635
step02_gravity_refstate-mantle.xmf,1248,7.51738e-07,7.81185e-06,0,3.46455e-07,-1.6263e+09,-1.62536e+09,-1.6264e+09,46303.7,0.0490904,0.0307622,0,0.0579326,-8943.97,-56322,-0,57027.7,46303.7
step02_gravity_refstate-mantle.xmf,1249,6.54741e-07,7.46362e-06,0,2.26172e-07,-1.60818e+09,-1.60727e+09,-1.60827e+09,30227.8,0.0461941,0.0341111,0,0.0574235,-9113.79,-55760.7,-0,56500.6,30227.8
step02_gravity_refstate-mantle.xmf,1250,3.73788e-07,7.21396e-06,0,1.31896e-07,-1.58511e+09,-1.58419e+09,-1.58516e+09,17627.9,0.0421192,0.0388423,0,0.0572953,-9200.79,-55045.5,-0,55809.1,17627.9
step02_gravity_refstate-mantle.xmf,1251,-4.45791e-08,7.04376e-06,0,9.56394e-08,-1.56044e+09,-1.5595e+09,-1.56044e+09,12782.2,0.0372768,0.0439564,0,0.0576344,-9253.83,-54280.4,-0,55063.5,12782.2
step02_gravity_refstate-mantle.xmf,1252,-6.1943e-07,7.0352e-06,0,2.30435e-07,-1.53484e+09,-1.53381e+09,-1.53475e+09,30797.6,0.0317516,0.050507,0,0.0596583,-9123.07,-53485.5,-0,54258,30797.6
step02_gravity_refstate-mantle.xmf,1253,2.8178e-06,-1.1849e-06,0,1.64298e-06,-1.09821e+09,-1.09874e+09,-1.09858e+09,219584,-0.0144706,0.140616,-0,0.141358,-3938.38,-40000,-0,40193.4,219584
step02_gravity_refstate-mantle.xmf,1254,2.30635e-06,-9.18929e-07,0,2.29222e-06,-1.12534e+09,-1.12577e+09,-1.12565e+09,306355,-0.0144905,0.139079,-0,0.139832,-4395.96,-40835.4,-0,41071.3,306355
step02_gravity_refstate-mantle.xmf,1255,9.36642e-07,-1.57781e-08,0,3.86119e-06,-1.2031e+09,-1.20323e+09,-1.20323e+09,516048,-0.0146094,0.132634,-0,0.133436,-5518.34,-43230.6,-0,43581.4,516048
step02_gravity_refstate-mantle.xmf,1256,1.42666e-06,-4.17255e-07,0,3.41384e-06,-1.17941e+09,-1.17966e+09,-1.17961e+09,456260,-0.0144916,0.135563,-0,0.136336,-5117.77,-42501.1,-0,42808.1,456260
step02_gravity_refstate-mantle.xmf,1257,1.85064e-06,-6.75767e-07,0,2.88086e-06,-1.15248e+09,-1.15282e+09,-1.15273e+09,385027,-0.0145082,0.137331,-0,0.138095,-4794.15,-41671.4,-0,41946.2,385027
step02_gravity_refstate-mantle.xmf,1258,-1.89853e-06,3.24536e-06,0,4.74254e-06,-1.32173e+09,-1.32104e+09,-1.32148e+09,633840,-0.0106431,0.112328,-0,0.112832,-7039.89,-46884.4,-0,47410,633840
step02_gravity_refstate-mantle.xmf,1259,-8.53089e-07,1.96717e-06,0,4.60164e-06,-1.27256e+09,-1.27219e+09,-1.27245e+09,615009,-0.0133133,0.119168,-0,0.11991,-6768.97,-45369.4,-0,45871.5,615009
step02_gravity_refstate-mantle.xmf,1260,-1.45249e-06,2.70391e-06,0,4.67818e-06,-1.29856e+09,-1.29801e+09,-1.29837e+09,625239,-0.0119994,0.114866,-0,0.115491,-7001.79,-46170.3,-0,46698.2,625239
step02_gravity_refstate-mantle.xmf,1261,-2.97934e-06,5.68296e-06,0,3.18122e-06,-1.39091e+09,-1.38975e+09,-1.39051e+09,425170,-0.000661768,0.0907387,-0,0.0907412,-8063.19,-49020.4,-0,49679.1,425170
step02_gravity_refstate-mantle.xmf,1262,-2.64753e-06,4.64851e-06,0,3.98661e-06,-1.35521e+09,-1.35423e+09,-1.35485e+09,532811,-0.00623088,0.100362,-0,0.100555,-7720.25,-47917,-0,48535,532811
step02_gravity_refstate-mantle.xmf,1263,-2.75435e-06,6.26182e-06,0,2.03954e-06,-1.41909e+09,-1.41788e+09,-1.41872e+09,272585,0.00601799,0.0783189,0,0.0785498,-8738.82,-49893.8,-0,50653.3,272585
step02_gravity_refstate-mantle.xmf,1264,9.14969e-07,7.87405e-06,0,3.24335e-07,-1.64548e+09,-1.64455e+09,-1.6456e+09,43347.3,0.0515382,0.0256912,0,0.0575866,-9025.29,-56915.6,-0,57626.8,43347.3
step02_gravity_refstate-mantle.xmf,1265,9.91582e-07,8.09494e-06,0,3.11699e-07,-1.6696e+09,-1.66865e+09,-1.66973e+09,41658.5,0.054041,0.019665,0,0.0575077,-9034.76,-57661.8,-0,58365.3,41658.5
step02_gravity_refstate-mantle.xmf,1266,1.00617e-06,8.38962e-06,0,2.4107e-07,-1.69755e+09,-1.69656e+09,-1.69768e+09,32219,0.0560719,0.0125551,0,0.0574603,-9024.37,-58525.9,-0,59217.6,32219
step02_gravity_refstate-mantle.xmf,1267,6.97379e-07,9.20125e-06,0,1.94169e-07,-1.72211e+09,-1.72098e+09,-1.72221e+09,25950.7,0.0574241,0.00661754,0,0.0578042,-8615.56,-59284.8,-0,59907.6,25950.7
step02_gravity_refstate-mantle.xmf,1268,-2.32059e-06,4.11968e-06,0,4.13131e-06,-1.3335e+09,-1.33263e+09,-1.33318e+09,552150,-0.00835006,0.103459,-0,0.103796,-7704.72,-47247.2,-0,47871.3,552150
step02_gravity_refstate-mantle.xmf,1269,5.05686e-07,5.50183e-07,0,3.82656e-06,-1.20231e+09,-1.2023e+09,-1.20237e+09,511420,-0.0151112,0.127082,-0,0.127977,-6190.21,-43204.5,-0,43645.7,511420
step02_gravity_refstate-mantle.xmf,1270,-3.54131e-07,1.47747e-06,0,4.25201e-06,-1.24138e+09,-1.24114e+09,-1.24134e+09,568282,-0.0142416,0.120693,-0,0.12153,-6777.98,-44408.3,-0,44922.6,568282
step02_gravity_refstate-mantle.xmf,1271,-2.83075e-06,5.86859e-06,0,2.51229e-06,-1.3968e+09,-1.39564e+09,-1.39642e+09,335768,0.00196176,0.0834057,0,0.0834287,-8649.2,-49203.8,-0,49958.2,335768
step02_gravity_refstate-mantle.xmf,1272,-2.80314e-06,5.36943e-06,0,3.10548e-06,-1.37314e+09,-1.37205e+09,-1.37277e+09,415047,-0.00223542,0.0902126,-0,0.0902403,-8389.12,-48472,-0,49192.6,415047
step02_gravity_refstate-mantle.xmf,1273,-1.20507e-06,6.87812e-06,0,3.76906e-07,-1.50678e+09,-1.5057e+09,-1.50662e+09,50373.4,0.0255471,0.0558619,0,0.0614264,-9213.77,-52614.5,-0,53415.2,50373.4
step02_gravity_refstate-mantle.xmf,1274,-1.71073e-06,6.73864e-06,0,6.3986e-07,-1.48138e+09,-1.48025e+09,-1.48115e+09,85517.3,0.0199424,0.0609406,0,0.0641206,-9249.25,-51826,-0,52644.9,85517.3
step02_gravity_refstate-mantle.xmf,1275,-2.39503e-06,6.2699e-06,0,1.35211e-06,-1.43028e+09,-1.42912e+09,-1.42996e+09,180709,0.00972743,0.0702027,0,0.0708734,-9373.2,-50241.9,-0,51108.7,180709
step02_gravity_refstate-mantle.xmf,1276,-2.11032e-06,6.53295e-06,0,9.6432e-07,-1.45592e+09,-1.45476e+09,-1.45564e+09,128881,0.0146603,0.0655562,0,0.0671754,-9322.79,-51036.5,-0,51881,128881
step02_gravity_refstate-mantle.xmf,1277,9.84785e-07,8.64137e-06,0,2.05201e-09,-1.74525e+09,-1.74423e+09,-1.74538e+09,274.251,0.0574217,-5.61736e-19,0,0.0574217,-8990.76,-60000,-0,60669.9,274.251
step02_gravity_refstate-mantle.xmf,1278,1.04046e-06,7.03175e-06,0,-5.41653e-09,-1.62756e+09,-1.62676e+09,-1.6277e+09,-723.919,0.0486279,0.0270096,0,0.0556255,-9657.29,-56360.8,-0,57182.2,723.919
step02_gravity_refstate-mantle.xmf,1279,7.73742e-07,6.74499e-06,0,-1.37196e-07,-1.59985e+09,-1.59905e+09,-1.59995e+09,-18336.2,0.0443285,0.0321491,0,0.0547593,-9825.12,-55502.2,-0,56365.1,18336.2
step02_gravity_refstate-mantle.xmf,1280,3.86843e-07,6.60193e-06,0,-2.03723e-07,-1.57369e+09,-1.57285e+09,-1.57374e+09,-27227.6,0.0397423,0.0371896,0,0.054429,-9897.4,-54691.1,-0,55579.5,27227.6
step02_gravity_refstate-mantle.xmf,1281,-1.00634e-07,6.53628e-06,0,-1.8617e-07,-1.54731e+09,-1.54642e+09,-1.54729e+09,-24881.6,0.0346659,0.0424567,0,0.0548115,-9917.25,-53872.9,-0,54778.1,24881.6
step02_gravity_refstate-mantle.xmf,1282,2.20802e-06,-6.69315e-07,0,1.8745e-06,-1.0983e+09,-1.09868e+09,-1.09859e+09,250527,-0.0169523,0.135423,-0,0.13648,-4924.17,-40000,-0,40302,250527
step02_gravity_refstate-mantle.xmf,1283,1.70507e-06,-3.3703e-07,0,2.50278e-06,-1.12581e+09,-1.12608e+09,-1.12604e+09,334496,-0.0164537,0.133109,-0,0.134122,-5381.89,-40847.4,-0,41200.4,334496
step02_gravity_refstate-mantle.xmf,1284,8.97596e-07,2.08582e-07,0,3.51045e-06,-1.18138e+09,-1.18148e+09,-1.1815e+09,469172,-0.0153832,0.129516,-0,0.130426,-5916.71,-42560,-0,42969.3,469172
step02_gravity_refstate-mantle.xmf,1285,1.26478e-06,-4.2617e-08,0,3.04389e-06,-1.154e+09,-1.15418e+09,-1.15417e+09,406817,-0.0159221,0.130974,-0,0.131938,-5726.79,-41716,-0,42107.2,406817
step02_gravity_refstate-mantle.xmf,1286,-1.87419e-06,3.45052e-06,0,4.21358e-06,-1.30902e+09,-1.30831e+09,-1.30877e+09,563145,-0.0102884,0.106734,-0,0.107229,-7664.53,-46492.5,-0,47120.1,563145
step02_gravity_refstate-mantle.xmf,1287,3.35975e-08,1.11518e-06,0,3.91779e-06,-1.21433e+09,-1.21419e+09,-1.21434e+09,523612,-0.0149731,0.122071,-0,0.122986,-6742.38,-43574.3,-0,44092.9,523612
step02_gravity_refstate-mantle.xmf,1288,-9.3654e-07,2.28824e-06,0,4.07236e-06,-1.25495e+09,-1.25452e+09,-1.25483e+09,544270,-0.0133021,0.112955,-0,0.113735,-7514.79,-44825.6,-0,45451.1,544270
step02_gravity_refstate-mantle.xmf,1289,-1.41383e-06,2.85528e-06,0,4.20845e-06,-1.28279e+09,-1.28222e+09,-1.2826e+09,562460,-0.0119651,0.110183,-0,0.11083,-7575.92,-45683.8,-0,46307.7,562460
step02_gravity_refstate-mantle.xmf,1290,-2.53534e-06,4.76023e-06,0,3.40249e-06,-1.34774e+09,-1.34676e+09,-1.3474e+09,454742,-0.00526778,0.0940777,-0,0.0942251,-8398.62,-47687.3,-0,48421.2,454742
step02_gravity_refstate-mantle.xmf,1291,-2.53261e-06,5.89162e-06,0,1.78994e-06,-1.4029e+09,-1.40178e+09,-1.40256e+09,239226,0.0050151,0.0749935,0,0.075161,-9414.8,-49394.3,-0,50283.5,239226
step02_gravity_refstate-mantle.xmf,1292,1.26124e-06,7.14795e-06,0,3.40841e-08,-1.65582e+09,-1.65503e+09,-1.65599e+09,4555.33,0.0519358,0.0205361,0,0.0558485,-9720.23,-57235.4,-0,58054.9,4555.33
step02_gravity_refstate-mantle.xmf,1293,1.35307e-06,7.33235e-06,0,6.47329e-08,-1.68123e+09,-1.68043e+09,-1.68141e+09,8651.55,0.0542106,0.0148736,0,0.056214,-9701.74,-58021.6,-0,58827.1,8651.55
step02_gravity_refstate-mantle.xmf,1294,1.24969e-06,7.97304e-06,0,7.50495e-08,-1.72252e+09,-1.72163e+09,-1.72269e+09,10030.4,0.0566769,0.00562913,0,0.0569558,-9395.1,-59298,-0,60037.7,10030.4
step02_gravity_refstate-mantle.xmf,1295,-6.36614e-07,6.49587e-06,0,-7.35609e-08,-1.5209e+09,-1.51995e+09,-1.52081e+09,-9831.42,0.0292614,0.0477719,0,0.0560213,-9922.13,-53053.4,-0,53973.3,9831.42
step02_gravity_refstate-mantle.xmf,1296,-2.21446e-06,4.18599e-06,0,3.61056e-06,-1.32171e+09,-1.32085e+09,-1.32141e+09,482551,-0.00786415,0.0979605,-0,0.0982756,-8368.85,-46884,-0,47625.1,482551
step02_gravity_refstate-mantle.xmf,1297,3.54229e-07,8.4694e-07,0,3.54573e-06,-1.18756e+09,-1.1875e+09,-1.18761e+09,473887,-0.0157278,0.122964,-0,0.123965,-6730.01,-42748.8,-0,43275.4,473887
step02_gravity_refstate-mantle.xmf,1298,-5.17211e-07,1.82993e-06,0,3.83734e-06,-1.22687e+09,-1.22656e+09,-1.22681e+09,512860,-0.014399,0.114999,-0,0.115897,-7483.18,-43959.9,-0,44592.3,512860
step02_gravity_refstate-mantle.xmf,1299,-2.64341e-06,5.59988e-06,0,2.32504e-06,-1.38255e+09,-1.38145e+09,-1.3822e+09,310742,0.0011224,0.0811769,0,0.0811847,-9135.05,-48764.3,-0,49612.5,310742
step02_gravity_refstate-mantle.xmf,1300,-2.56999e-06,5.22096e-06,0,2.63919e-06,-1.36106e+09,-1.36002e+09,-1.36072e+09,352727,-0.00187757,0.0850258,-0,0.0850466,-9107.15,-48099.9,-0,48954.5,352727
step02_gravity_refstate-mantle.xmf,1301,-1.15583e-06,6.42992e-06,0,1.26962e-07,-1.49462e+09,-1.49361e+09,-1.49447e+09,16968.5,0.0237907,0.0528474,0,0.0579556,-9951.43,-52238.1,-0,53177.5,16968.5
step02_gravity_refstate-mantle.xmf,1302,-1.60603e-06,6.32317e-06,0,4.05853e-07,-1.46878e+09,-1.46772e+09,-1.46857e+09,54242.3,0.0185344,0.0576643,0,0.0605698,-9992.91,-51436.6,-0,52398.3,54242.3
step02_gravity_refstate-mantle.xmf,1303,-2.20398e-06,5.93819e-06,0,1.12997e-06,-1.41766e+09,-1.41657e+09,-1.41737e+09,151021,0.00900907,0.0670113,0,0.0676142,-10044.6,-49852.5,-0,50854.4,151021
step02_gravity_refstate-mantle.xmf,1304,-1.96203e-06,6.15824e-06,0,7.49918e-07,-1.4429e+09,-1.44181e+09,-1.44263e+09,100227,0.0135445,0.0623821,0,0.0638356,-10031.8,-50634.2,-0,51618.4,100227
step02_gravity_refstate-mantle.xmf,1305,1.41355e-06,7.42954e-06,0,6.07354e-08,-1.70321e+09,-1.7024e+09,-1.7034e+09,8117.28,0.0555061,0.00977388,0,0.0563601,-9734.94,-58701.1,-0,59502.8,8117.28
step02_gravity_refstate-mantle.xmf,1306,1.49346e-06,7.45314e-06,0,4.84978e-10,-1.74524e+09,-1.74444e+09,-1.74544e+09,64.8173,0.0563838,-5.01563e-19,0,0.0563838,-9827.13,-60000,-0,60799.4,64.8173
step02_gravity_refstate-mantle.xmf,1307,1.41531e-06,6.36248e-06,0,-2.34586e-07,-1.64324e+09,-1.64257e+09,-1.64343e+09,-31352.4,0.0495842,0.0207314,0,0.0537437,-10461.8,-56845.8,-0,57800.5,31352.4
step02_gravity_refstate-mantle.xmf,1308,1.1482e-06,6.23731e-06,0,-3.37078e-07,-1.61538e+09,-1.6147e+09,-1.61553e+09,-45050.5,0.0460148,0.0260125,0,0.0528584,-10510.1,-55983.2,-0,56961.2,45050.5
step02_gravity_refstate-mantle.xmf,1309,7.94236e-07,6.13907e-06,0,-4.20335e-07,-1.58818e+09,-1.58746e+09,-1.58828e+09,-56177.8,0.0418449,0.0309662,0,0.0520567,-10576.7,-55140.3,-0,56145.5,56177.8
step02_gravity_refstate-mantle.xmf,1310,3.49955e-07,6.09139e-06,0,-4.46877e-07,-1.56078e+09,-1.56001e+09,-1.56082e+09,-59725.1,0.037131,0.0359533,0,0.0516851,-10623.2,-54290.9,-0,55320.4,59725.1
step02_gravity_refstate-mantle.xmf,1311,-1.35526e-07,6.0783e-06,0,-3.93183e-07,-1.53428e+09,-1.53344e+09,-1.53426e+09,-52548.9,0.0322117,0.0408408,0,0.0520151,-10646.8,-53468.9,-0,54518.6,52548.9
step02_gravity_refstate-mantle.xmf,1312,1.57373e-06,-1.26505e-07,0,2.01548e-06,-1.09839e+09,-1.09862e+09,-1.0986e+09,269369,-0.0188306,0.129571,-0,0.130932,-5915.44,-40000,-0,40435,269369
step02_gravity_refstate-mantle.xmf,1313,1.01797e-06,3.24623e-07,0,2.5916e-06,-1.12675e+09,-1.12684e+09,-1.12689e+09,346367,-0.0179641,0.125546,-0,0.126825,-6521.96,-40873.5,-0,41390.6,346367
step02_gravity_refstate-mantle.xmf,1314,6.83835e-07,5.81805e-07,0,3.11519e-06,-1.1585e+09,-1.15851e+09,-1.15859e+09,416346,-0.0166729,0.124153,-0,0.125268,-6656.85,-41852.6,-0,42378.7,416346
step02_gravity_refstate-mantle.xmf,1315,-1.80646e-06,3.55215e-06,0,3.72633e-06,-1.29533e+09,-1.29461e+09,-1.29509e+09,498024,-0.0100098,0.101609,-0,0.102101,-8316.77,-46070.3,-0,46814.9,498024
step02_gravity_refstate-mantle.xmf,1316,-1.53912e-07,1.45849e-06,0,3.54072e-06,-1.19884e+09,-1.19862e+09,-1.19882e+09,473217,-0.0154235,0.116612,-0,0.117627,-7458.09,-43095.4,-0,43736,473217
step02_gravity_refstate-mantle.xmf,1317,-9.92737e-07,2.49861e-06,0,3.61782e-06,-1.23965e+09,-1.23918e+09,-1.23951e+09,483522,-0.0133007,0.107613,-0,0.108432,-8223.48,-44353,-0,45108.9,483522
step02_gravity_refstate-mantle.xmf,1318,-1.38887e-06,2.99269e-06,0,3.7302e-06,-1.26714e+09,-1.26655e+09,-1.26695e+09,498541,-0.0118559,0.105055,-0,0.105722,-8251.79,-45200.8,-0,45947.9,498541
step02_gravity_refstate-mantle.xmf,1319,-2.35323e-06,4.68863e-06,0,2.94122e-06,-1.33569e+09,-1.33475e+09,-1.33537e+09,393094,-0.00487171,0.0891103,-0,0.0892433,-9084.67,-47316.2,-0,48180.4,393094
step02_gravity_refstate-mantle.xmf,1320,-2.42742e-06,5.47963e-06,0,1.89111e-06,-1.37732e+09,-1.37627e+09,-1.377e+09,252747,0.00209197,0.0760394,0,0.0760682,-9813.34,-48603.8,-0,49584.6,252747
step02_gravity_refstate-mantle.xmf,1321,-2.28841e-06,5.68906e-06,0,1.41525e-06,-1.39707e+09,-1.396e+09,-1.39676e+09,189148,0.00574958,0.0702426,0,0.0704775,-10104.8,-49215.2,-0,50241.9,189148
step02_gravity_refstate-mantle.xmf,1322,1.58717e-06,6.50015e-06,0,-1.42378e-07,-1.67049e+09,-1.66983e+09,-1.6707e+09,-19028.8,0.052301,0.0153893,0,0.0545181,-10425.3,-57689.1,-0,58623.5,19028.8
step02_gravity_refstate-mantle.xmf,1323,1.68015e-06,6.64064e-06,0,-7.07426e-08,-1.69641e+09,-1.69575e+09,-1.69664e+09,-9454.75,0.0541533,0.0101811,0,0.055102,-10384.3,-58490.9,-0,59405.6,9454.75
step02_gravity_refstate-mantle.xmf,1324,1.65331e-06,6.94812e-06,0,-8.82374e-09,-1.72192e+09,-1.72121e+09,-1.72214e+09,-1179.29,0.0555014,0.00504122,0,0.0557299,-10193.7,-59279.3,-0,60149.4,1179.29
step02_gravity_refstate-mantle.xmf,1325,-6.25385e-07,6.07108e-06,0,-2.54917e-07,-1.50841e+09,-1.50752e+09,-1.50833e+09,-34069.6,0.0272113,0.0456605,0,0.0531539,-10657.7,-52666.7,-0,53734.3,34069.6
step02_gravity_refstate-mantle.xmf,1326,-2.07741e-06,4.16425e-06,0,3.15103e-06,-1.30874e+09,-1.30791e+09,-1.30846e+09,421135,-0.00752442,0.0930782,-0,0.0933818,-9052.46,-46484.3,-0,47357.6,421135
step02_gravity_refstate-mantle.xmf,1327,1.55913e-07,1.16074e-06,0,3.18607e-06,-1.17037e+09,-1.17024e+09,-1.17039e+09,425818,-0.0165308,0.117857,-0,0.119011,-7443.81,-42217.4,-0,42868.6,425818
step02_gravity_refstate-mantle.xmf,1328,-6.31424e-07,2.07372e-06,0,3.42638e-06,-1.21192e+09,-1.21156e+09,-1.21183e+09,457936,-0.0145981,0.10975,-0,0.110716,-8199.63,-43497.8,-0,44263.9,457936
step02_gravity_refstate-mantle.xmf,1329,-2.34858e-06,5.04801e-06,0,2.24964e-06,-1.34977e+09,-1.34878e+09,-1.34945e+09,300665,-0.00155038,0.0805389,-0,0.0805538,-9810.4,-47752,-0,48749.4,300665
step02_gravity_refstate-mantle.xmf,1330,-1.10964e-06,6.05794e-06,0,-2.35409e-08,-1.4823e+09,-1.48134e+09,-1.48215e+09,-3146.24,0.0221,0.0506557,0,0.0552667,-10644.7,-51856.8,-0,52938,3146.24
step02_gravity_refstate-mantle.xmf,1331,-1.49651e-06,5.96048e-06,0,2.53152e-07,-1.45635e+09,-1.45535e+09,-1.45615e+09,33833.8,0.0172256,0.0551505,0,0.0577781,-10698.1,-51052.3,-0,52161.2,33833.8
step02_gravity_refstate-mantle.xmf,1332,-2.0285e-06,5.6137e-06,0,9.77826e-07,-1.40383e+09,-1.40281e+09,-1.40356e+09,130686,0.00811302,0.0645784,0,0.065086,-10701.1,-49425.7,-0,50570.9,130686
step02_gravity_refstate-mantle.xmf,1333,-1.81202e-06,5.80994e-06,0,5.98178e-07,-1.4295e+09,-1.42849e+09,-1.42926e+09,79946.5,0.012439,0.0598493,0,0.0611283,-10727.8,-50220.7,-0,51353.7,79946.5
step02_gravity_refstate-mantle.xmf,1334,1.85829e-06,6.4664e-06,0,-1.58383e-09,-1.74524e+09,-1.74463e+09,-1.74549e+09,-211.679,0.0549231,-5.43006e-19,0,0.0549231,-10697.4,-60000,-0,60946.2,211.679
step02_gravity_refstate-mantle.xmf,1335,1.71093e-06,5.8097e-06,0,-3.37226e-07,-1.65864e+09,-1.65809e+09,-1.65887e+09,-45070.2,0.0500112,0.0158697,0,0.0524688,-11187.4,-57322.1,-0,58403.6,45070.2
step02_gravity_refstate-mantle.xmf,1336,1.47851e-06,5.71999e-06,0,-4.59363e-07,-1.63083e+09,-1.63026e+09,-1.63103e+09,-61393.9,0.0470268,0.0206958,0,0.0513793,-11246,-56461.4,-0,57570.5,61393.9
step02_gravity_refstate-mantle.xmf,1337,1.15296e-06,5.66885e-06,0,-5.61212e-07,-1.60265e+09,-1.60204e+09,-1.6028e+09,-75006,0.0433316,0.025529,0,0.0502927,-11293.8,-55588.5,-0,56724.1,75006
step02_gravity_refstate-mantle.xmf,1338,7.47541e-07,5.64957e-06,0,-6.19013e-07,-1.57442e+09,-1.57377e+09,-1.57452e+09,-82731.1,0.0390463,0.0303121,0,0.0494312,-11342,-54713.8,-0,55877,82731.1
step02_gravity_refstate-mantle.xmf,1339,2.80902e-07,5.65636e-06,0,-6.08656e-07,-1.54607e+09,-1.54535e+09,-1.54611e+09,-81346.8,0.0343019,0.0351138,0,0.0490877,-11384.3,-53835,-0,55025.5,81346.8
step02_gravity_refstate-mantle.xmf,1340,-1.87046e-07,5.69096e-06,0,-5.16339e-07,-1.51975e+09,-1.51897e+09,-1.51973e+09,-69008.8,0.0296368,0.0398148,0,0.0496343,-11370.8,-53018.9,-0,54224.6,69008.8
step02_gravity_refstate-mantle.xmf,1341,9.49935e-07,4.25439e-07,0,2.06528e-06,-1.09848e+09,-1.09855e+09,-1.09861e+09,276025,-0.0201003,0.123252,-0,0.12488,-6916.9,-40000,-0,40593.6,276025
step02_gravity_refstate-mantle.xmf,1342,4.04176e-07,9.33287e-07,0,2.77984e-06,-1.14183e+09,-1.14176e+09,-1.14188e+09,371525,-0.0178449,0.118785,-0,0.120118,-7441.07,-41336.7,-0,42001.1,371525
step02_gravity_refstate-mantle.xmf,1343,-1.71442e-06,3.58206e-06,0,3.26936e-06,-1.28068e+09,-1.27997e+09,-1.28045e+09,436950,-0.00980457,0.0967708,-0,0.0972662,-9013.44,-45618.5,-0,46500.4,436950
step02_gravity_refstate-mantle.xmf,1344,-3.11841e-07,1.71451e-06,0,3.16105e-06,-1.18342e+09,-1.18314e+09,-1.18337e+09,422475,-0.0158981,0.111509,-0,0.112636,-8185.7,-42618.5,-0,43397.5,422475
step02_gravity_refstate-mantle.xmf,1345,-1.02241e-06,2.62312e-06,0,3.21039e-06,-1.22503e+09,-1.22454e+09,-1.22489e+09,429068,-0.0133544,0.1029,-0,0.103763,-8914.79,-43901.6,-0,44797.6,429068
step02_gravity_refstate-mantle.xmf,1346,-1.3672e-06,3.08704e-06,0,3.28073e-06,-1.25249e+09,-1.25189e+09,-1.25231e+09,438469,-0.0117211,0.100042,-0,0.100727,-8969.54,-44748.7,-0,45638.8,438469
step02_gravity_refstate-mantle.xmf,1347,-2.16026e-06,4.55683e-06,0,2.54545e-06,-1.3225e+09,-1.32161e+09,-1.32221e+09,340200,-0.00465423,0.0847826,-0,0.0849102,-9786.03,-46909.9,-0,47919.7,340200
step02_gravity_refstate-mantle.xmf,1348,-2.16894e-06,5.44745e-06,0,1.34825e-06,-1.38396e+09,-1.38294e+09,-1.38367e+09,180193,0.00471367,0.0692109,0,0.0693713,-10532.5,-48810.5,-0,49934,180193
step02_gravity_refstate-mantle.xmf,1349,1.85505e-06,5.92163e-06,0,-2.18775e-07,-1.68562e+09,-1.68508e+09,-1.68587e+09,-29239.2,0.0522045,0.0110766,0,0.0533667,-11125.6,-58157,-0,59211.6,29239.2
step02_gravity_refstate-mantle.xmf,1350,1.95968e-06,5.98732e-06,0,-1.06529e-07,-1.71603e+09,-1.7155e+09,-1.7163e+09,-14237.6,0.0536476,0.00545555,0,0.0539243,-11124.6,-59097.2,-0,60135.2,14237.6
step02_gravity_refstate-mantle.xmf,1351,-6.76196e-07,5.7931e-06,0,-3.22074e-07,-1.49525e+09,-1.49439e+09,-1.49516e+09,-43045.2,0.0250644,0.045029,0,0.0515348,-11205,-52259.2,-0,53446.9,43045.2
step02_gravity_refstate-mantle.xmf,1352,5.73612e-07,7.81526e-07,0,2.37316e-06,-1.11636e+09,-1.11633e+09,-1.11644e+09,317172,-0.0192879,0.119552,-0,0.121098,-7426.4,-40550.7,-0,41225.2,317172
step02_gravity_refstate-mantle.xmf,1353,-1.92248e-06,4.08079e-06,0,2.73449e-06,-1.29433e+09,-1.29352e+09,-1.29407e+09,365464,-0.00733393,0.0886338,-0,0.0889367,-9773.69,-46039.8,-0,47065.8,365464
step02_gravity_refstate-mantle.xmf,1354,-7.25949e-08,1.45005e-06,0,2.83382e-06,-1.15532e+09,-1.15511e+09,-1.15531e+09,378741,-0.0172751,0.112612,-0,0.113929,-8219.32,-41751.5,-0,42552.8,378741
step02_gravity_refstate-mantle.xmf,1355,-7.10125e-07,2.22623e-06,0,3.05022e-06,-1.1974e+09,-1.19701e+09,-1.19731e+09,407662,-0.0148481,0.105203,-0,0.106246,-8883.48,-43049.2,-0,43956.2,407662
step02_gravity_refstate-mantle.xmf,1356,-2.18498e-06,5.20483e-06,0,1.59371e-06,-1.36337e+09,-1.36239e+09,-1.36308e+09,213000,0.0019072,0.0723409,0,0.0723661,-10566.9,-48173.9,-0,49319.2,213000
step02_gravity_refstate-mantle.xmf,1357,-2.12431e-06,4.83179e-06,0,1.91184e-06,-1.33649e+09,-1.33556e+09,-1.33621e+09,255517,-0.00146225,0.0765871,-0,0.076601,-10555.2,-47343,-0,48505.4,255517
step02_gravity_refstate-mantle.xmf,1358,-1.02673e-06,5.7191e-06,0,-1.40456e-07,-1.47097e+09,-1.47007e+09,-1.47083e+09,-18772,0.0207264,0.0486121,0,0.0528462,-11342.3,-51506.5,-0,52740.5,18772
step02_gravity_refstate-mantle.xmf,1359,-1.3675e-06,5.61744e-06,0,1.33057e-07,-1.44413e+09,-1.44319e+09,-1.44394e+09,17783.1,0.0160745,0.0528893,0,0.055278,-11419,-50674.8,-0,51945.4,17783.1
step02_gravity_refstate-mantle.xmf,1360,-1.90984e-06,5.25614e-06,0,9.62566e-07,-1.38123e+09,-1.38027e+09,-1.38097e+09,128647,0.00593213,0.064128,0,0.0644018,-11322.4,-48727.4,-0,50025.5,128647
step02_gravity_refstate-mantle.xmf,1361,-1.66304e-06,5.4706e-06,0,4.87623e-07,-1.41483e+09,-1.41388e+09,-1.41461e+09,65170.8,0.0112401,0.0577878,0,0.0588708,-11441.5,-49767.6,-0,51065.8,65170.8
step02_gravity_refstate-mantle.xmf,1362,2.10526e-06,5.65182e-06,0,-3.19737e-09,-1.74526e+09,-1.74478e+09,-1.74554e+09,-427.328,0.0531257,-4.12157e-19,0,0.0531257,-11604.5,-60000,-0,61111.9,427.328
step02_gravity_refstate-mantle.xmf,1363,1.94461e-06,5.33524e-06,0,-3.57632e-07,-1.67417e+09,-1.67371e+09,-1.67443e+09,-47797.5,0.0500003,0.0118704,0,0.05139,-11879.4,-57802.2,-0,59010.3,47797.5
step02_gravity_refstate-mantle.xmf,1364,1.7518e-06,5.24826e-06,0,-5.03736e-07,-1.64633e+09,-1.64587e+09,-1.64657e+09,-67324.3,0.0474992,0.0162663,0,0.0502072,-11973.9,-56940.9,-0,58186.3,67324.3
step02_gravity_refstate-mantle.xmf,1365,1.46759e-06,5.21364e-06,0,-6.3033e-07,-1.61775e+09,-1.61725e+09,-1.61794e+09,-84243.6,0.0443173,0.0207628,0,0.0489399,-12035.7,-56055.9,-0,57333.5,84243.6
step02_gravity_refstate-mantle.xmf,1366,1.10261e-06,5.21815e-06,0,-7.17634e-07,-1.58884e+09,-1.58829e+09,-1.58899e+09,-95911.7,0.0405146,0.0253179,0,0.0477748,-12080.1,-55160.5,-0,56467.8,95911.7
step02_gravity_refstate-mantle.xmf,1367,6.68768e-07,5.24367e-06,0,-7.47677e-07,-1.55927e+09,-1.55866e+09,-1.55936e+09,-99927,0.0361088,0.0299518,0,0.0469144,-12131.4,-54244.1,-0,55584.2,99927
step02_gravity_refstate-mantle.xmf,1368,1.73599e-07,5.278e-06,0,-6.968e-07,-1.52793e+09,-1.52725e+09,-1.52796e+09,-93127.3,0.031059,0.0348457,0,0.0466785,-12191.5,-53273.1,-0,54650.3,93127.3
step02_gravity_refstate-mantle.xmf,1369,-4.10754e-07,5.40895e-06,0,-5.05115e-07,-1.49536e+09,-1.49458e+09,-1.49531e+09,-67508.6,0.0255268,0.041007,0,0.0483031,-12013.5,-52263.4,-0,53626.3,67508.6
step02_gravity_refstate-mantle.xmf,1370,3.76119e-07,9.35655e-07,0,2.04966e-06,-1.09856e+09,-1.09849e+09,-1.09861e+09,273936,-0.0207767,0.116647,-0,0.118483,-7933.15,-40000,-0,40779.1,273936
step02_gravity_refstate-mantle.xmf,1371,6.24818e-08,1.28607e-06,0,2.41699e-06,-1.12549e+09,-1.12533e+09,-1.1255e+09,323031,-0.0190026,0.11301,-0,0.114596,-8338.38,-40830.7,-0,41673.4,323031
step02_gravity_refstate-mantle.xmf,1372,-1.61152e-06,3.55829e-06,0,2.85116e-06,-1.26544e+09,-1.26475e+09,-1.26522e+09,381058,-0.00969581,0.0923105,-0,0.0928183,-9739.35,-45148.2,-0,46186.8,381058
step02_gravity_refstate-mantle.xmf,1373,-4.79228e-07,1.93742e-06,0,2.80209e-06,-1.16997e+09,-1.16965e+09,-1.16991e+09,374499,-0.0162862,0.106527,-0,0.107765,-8939.56,-42202.8,-0,43139.2,374499
step02_gravity_refstate-mantle.xmf,1374,-1.00987e-06,2.633e-06,0,2.90768e-06,-1.21089e+09,-1.21041e+09,-1.21076e+09,388612,-0.0136037,0.0997418,-0,0.100665,-9457.07,-43465,-0,44482,388612
step02_gravity_refstate-mantle.xmf,1375,-1.3037e-06,3.07345e-06,0,2.89515e-06,-1.2357e+09,-1.23511e+09,-1.23552e+09,386937,-0.011874,0.0961219,-0,0.0968526,-9642.24,-44230.3,-0,45269.2,386937
step02_gravity_refstate-mantle.xmf,1376,-1.96503e-06,4.39208e-06,0,2.17895e-06,-1.30824e+09,-1.30739e+09,-1.30798e+09,291216,-0.00452853,0.0806954,-0,0.0808224,-10543.5,-46470.2,-0,47651.3,291216
step02_gravity_refstate-mantle.xmf,1377,2.03644e-06,5.46776e-06,0,-2.29087e-07,-1.69785e+09,-1.69739e+09,-1.69812e+09,-30617.5,0.0516531,0.00807128,0,0.0522799,-11758.4,-58534.6,-0,59703.9,30617.5
step02_gravity_refstate-mantle.xmf,1378,2.16667e-06,5.24278e-06,0,-1.41245e-07,-1.71984e+09,-1.71943e+09,-1.72013e+09,-18877.3,0.0517212,0.00414198,0,0.0518868,-12109.6,-59214.4,-0,60440,18877.3
step02_gravity_refstate-mantle.xmf,1379,-1.77176e-06,3.96732e-06,0,2.3518e-06,-1.27944e+09,-1.27867e+09,-1.2792e+09,314318,-0.00721836,0.0844704,-0,0.0847783,-10535,-45580.6,-0,46782.3,314318
step02_gravity_refstate-mantle.xmf,1380,-2.9791e-07,1.6974e-06,0,2.54582e-06,-1.14465e+09,-1.14438e+09,-1.14461e+09,340248,-0.0177502,0.107975,-0,0.109425,-8934.4,-41421.1,-0,42373.7,340248
step02_gravity_refstate-mantle.xmf,1381,-8.24511e-07,2.39068e-06,0,2.70898e-06,-1.18622e+09,-1.18579e+09,-1.18611e+09,362055,-0.0149198,0.100522,-0,0.101623,-9607.43,-42703.3,-0,43770.7,362055
step02_gravity_refstate-mantle.xmf,1382,-1.94912e-06,4.94816e-06,0,1.30189e-06,-1.35185e+09,-1.35093e+09,-1.35159e+09,173998,0.00204099,0.0685385,0,0.0685689,-11355.3,-47818.8,-0,49148.6,173998
step02_gravity_refstate-mantle.xmf,1383,-1.90815e-06,4.60447e-06,0,1.60299e-06,-1.32289e+09,-1.32202e+09,-1.32264e+09,214240,-0.00141435,0.0728692,-0,0.072883,-11346,-46923.6,-0,48275.9,214240
step02_gravity_refstate-mantle.xmf,1384,-8.76878e-07,5.35722e-06,0,-2.59273e-07,-1.46142e+09,-1.46059e+09,-1.4613e+09,-34651.8,0.0198302,0.0460696,0,0.0501562,-12142.1,-51211.6,-0,52631.4,34651.8
step02_gravity_refstate-mantle.xmf,1385,-1.23192e-06,5.27586e-06,0,4.02289e-08,-1.43067e+09,-1.4298e+09,-1.4305e+09,5376.59,0.0148578,0.0508843,0,0.0530092,-12192.5,-50259.1,-0,51716.9,5376.59
step02_gravity_refstate-mantle.xmf,1386,-1.50448e-06,5.14207e-06,0,3.86468e-07,-1.39967e+09,-1.39878e+09,-1.39947e+09,51651.4,0.0101113,0.0558737,0,0.0567812,-12195.2,-49299.5,-0,50785.5,51651.4
step02_gravity_refstate-mantle.xmf,1387,2.25536e-06,4.99172e-06,0,-4.05527e-09,-1.74528e+09,-1.74491e+09,-1.74558e+09,-541.987,0.0510614,-3.89124e-19,0,0.0510614,-12551.5,-60000,-0,61298.8,541.987
step02_gravity_refstate-mantle.xmf,1388,2.13359e-06,4.95414e-06,0,-2.99624e-07,-1.69354e+09,-1.69316e+09,-1.69383e+09,-40044.8,0.049874,0.00798444,0,0.0505091,-12510.4,-58400.9,-0,59725.8,40044.8
step02_gravity_refstate-mantle.xmf,1389,1.98637e-06,4.81476e-06,0,-4.78719e-07,-1.66387e+09,-1.66349e+09,-1.66413e+09,-63980.8,0.0476115,0.0122293,0,0.049157,-12713.4,-57483,-0,58872.1,63980.8
step02_gravity_refstate-mantle.xmf,1390,1.73508e-06,4.79025e-06,0,-6.35821e-07,-1.63371e+09,-1.6333e+09,-1.63394e+09,-84977.5,0.0448497,0.0165992,0,0.0478228,-12788.2,-56549.6,-0,57977.5,84977.5
step02_gravity_refstate-mantle.xmf,1391,1.41679e-06,4.80272e-06,0,-7.52419e-07,-1.60436e+09,-1.60391e+09,-1.60455e+09,-100561,0.0415556,0.0208491,0,0.0464925,-12844,-55641,-0,57104.2,100561
step02_gravity_refstate-mantle.xmf,1392,1.02737e-06,4.84827e-06,0,-8.18587e-07,-1.57441e+09,-1.5739e+09,-1.57455e+09,-109404,0.0376751,0.0252394,0,0.0453479,-12881.5,-54713.4,-0,56209.4,109404
step02_gravity_refstate-mantle.xmf,1393,5.82772e-07,4.91096e-06,0,-8.17139e-07,-1.54371e+09,-1.54313e+09,-1.54379e+09,-109211,0.0332603,0.0297914,0,0.0446517,-12914.6,-53762.2,-0,55291.6,109211
step02_gravity_refstate-mantle.xmf,1394,1.019e-07,4.98387e-06,0,-7.3084e-07,-1.51215e+09,-1.5115e+09,-1.51217e+09,-97676.8,0.0284259,0.0346183,0,0.0447935,-12920.5,-52784.4,-0,54342.7,97676.8
step02_gravity_refstate-mantle.xmf,1395,-1.33257e-07,1.40337e-06,0,1.96495e-06,-1.09863e+09,-1.09843e+09,-1.09861e+09,262615,-0.0209052,0.10992,-0,0.11189,-8968.72,-40000,-0,40993.1,262615
step02_gravity_refstate-mantle.xmf,1396,-1.4959e-06,3.47236e-06,0,2.48143e-06,-1.24814e+09,-1.24748e+09,-1.24794e+09,331643,-0.00983184,0.0885045,-0,0.0890489,-10474.8,-44614.6,-0,45827.8,331643
step02_gravity_refstate-mantle.xmf,1397,-4.00843e-07,1.7586e-06,0,2.2044e-06,-1.1246e+09,-1.12431e+09,-1.12454e+09,294618,-0.0188745,0.105418,-0,0.107095,-9462.99,-40801.2,-0,41884.2,294618
step02_gravity_refstate-mantle.xmf,1398,-6.83709e-07,2.15794e-06,0,2.40171e-06,-1.1553e+09,-1.15492e+09,-1.1552e+09,320988,-0.01664,0.100944,-0,0.102306,-9851.78,-41748.6,-0,42895.2,320988
step02_gravity_refstate-mantle.xmf,1399,-1.17965e-06,2.9361e-06,0,2.54766e-06,-1.21148e+09,-1.21093e+09,-1.21132e+09,340495,-0.0126816,0.0936538,-0,0.0945085,-10265,-43482.8,-0,44678,340495
step02_gravity_refstate-mantle.xmf,1400,-1.78052e-06,4.21137e-06,0,1.84595e-06,-1.29343e+09,-1.29263e+09,-1.2932e+09,246711,-0.0044885,0.0769094,-0,0.0770403,-11341.1,-46013.6,-0,47390.6,246711
step02_gravity_refstate-mantle.xmf,1401,-1.66798e-06,4.94334e-06,0,7.35162e-07,-1.36931e+09,-1.36843e+09,-1.36909e+09,98254.4,0.00582005,0.0606949,0,0.0609733,-12180.7,-48360.1,-0,49870.5,98254.4
step02_gravity_refstate-mantle.xmf,1402,2.27169e-06,4.66552e-06,0,-1.78902e-07,-1.71826e+09,-1.71794e+09,-1.71857e+09,-23910.3,0.0495886,0.00392011,0,0.0497433,-13052.3,-59164.8,-0,60587.4,23910.3
step02_gravity_refstate-mantle.xmf,1403,-3.64543e-07,5.03355e-06,0,-5.59815e-07,-1.48048e+09,-1.47976e+09,-1.48043e+09,-74819.3,0.0234226,0.0395484,0,0.0459641,-12919.1,-51802.9,-0,53389.5,74819.3
step02_gravity_refstate-mantle.xmf,1404,-1.62717e-06,3.82325e-06,0,2.01104e-06,-1.26325e+09,-1.26252e+09,-1.26303e+09,268775,-0.007282,0.0807907,-0,0.0811182,-11320.3,-45081.3,-0,46480.9,268775
step02_gravity_refstate-mantle.xmf,1405,-9.71626e-07,2.5929e-06,0,2.38072e-06,-1.18011e+09,-1.17963e+09,-1.17998e+09,318183,-0.0145855,0.0953126,-0,0.0964221,-10406.6,-42514.2,-0,43769.3,318183
step02_gravity_refstate-mantle.xmf,1406,-1.73207e-06,4.68042e-06,0,1.06089e-06,-1.33875e+09,-1.33789e+09,-1.33852e+09,141788,0.00192342,0.0653182,0,0.0653465,-12167.8,-47414.9,-0,48951.3,141788
step02_gravity_refstate-mantle.xmf,1407,-1.71027e-06,4.37383e-06,0,1.33189e-06,-1.3087e+09,-1.30788e+09,-1.30847e+09,178007,-0.00148425,0.0695505,-0,0.0695663,-12162.5,-46486,-0,48050.7,178007
step02_gravity_refstate-mantle.xmf,1408,-7.79428e-07,5.01641e-06,0,-3.13809e-07,-1.44744e+09,-1.44667e+09,-1.44734e+09,-41940.6,0.0182726,0.0444852,0,0.0480918,-12970.3,-50779.6,-0,52409.9,41940.6
step02_gravity_refstate-mantle.xmf,1409,-1.10094e-06,4.94858e-06,0,-2.62747e-08,-1.41597e+09,-1.41516e+09,-1.41582e+09,-3511.62,0.0135543,0.0492351,0,0.0510668,-12995.4,-49805,-0,51472.5,3511.62
step02_gravity_refstate-mantle.xmf,1410,-1.33239e-06,4.82889e-06,0,2.79255e-07,-1.38557e+09,-1.38475e+09,-1.38539e+09,37322.4,0.00924841,0.0538424,0,0.0546309,-12994.9,-48864.3,-0,50562.7,37322.4
step02_gravity_refstate-mantle.xmf,1411,2.33445e-06,4.45281e-06,0,-3.99858e-09,-1.74531e+09,-1.74502e+09,-1.74562e+09,-534.41,0.0487899,-3.40833e-19,0,0.0487899,-13541.2,-60000,-0,61509.1,534.41
step02_gravity_refstate-mantle.xmf,1412,2.19674e-06,4.38626e-06,0,-3.7703e-07,-1.68787e+09,-1.68757e+09,-1.68816e+09,-50390,0.0473343,0.00785487,0,0.0479816,-13554,-58224.6,-0,59781.4,50390
step02_gravity_refstate-mantle.xmf,1413,1.97141e-06,4.38374e-06,0,-5.80486e-07,-1.65266e+09,-1.65233e+09,-1.65292e+09,-77581.9,0.0450062,0.0125968,0,0.0467359,-13600.1,-57135.4,-0,58731.8,77581.9
step02_gravity_refstate-mantle.xmf,1414,1.68683e-06,4.41006e-06,0,-7.31301e-07,-1.62116e+09,-1.6208e+09,-1.62139e+09,-97738.4,0.0421486,0.0168303,0,0.0453847,-13641.4,-56160.8,-0,57793.8,97738.4
step02_gravity_refstate-mantle.xmf,1415,1.34041e-06,4.46394e-06,0,-8.3306e-07,-1.5903e+09,-1.58988e+09,-1.59048e+09,-111339,0.03875,0.0210187,0,0.0440834,-13673.1,-55205.3,-0,56873.4,111339
step02_gravity_refstate-mantle.xmf,1416,9.43027e-07,4.54023e-06,0,-8.74914e-07,-1.55951e+09,-1.55903e+09,-1.55964e+09,-116932,0.0348835,0.0252818,0,0.0430816,-13690.2,-54251.8,-0,55952.4,116932
step02_gravity_refstate-mantle.xmf,1417,5.1183e-07,4.62103e-06,0,-8.47373e-07,-1.52832e+09,-1.52778e+09,-1.52839e+09,-113251,0.030594,0.0296656,0,0.042615,-13709,-53285.7,-0,55020.9,113251
step02_gravity_refstate-mantle.xmf,1418,7.05949e-08,4.68266e-06,0,-7.44193e-07,-1.49609e+09,-1.49548e+09,-1.4961e+09,-99461.5,0.0259262,0.0341927,0,0.0429105,-13750.4,-52287.3,-0,54065.1,99461.5
step02_gravity_refstate-mantle.xmf,1419,-5.58955e-07,1.81048e-06,0,1.83354e-06,-1.09869e+09,-1.09837e+09,-1.09862e+09,245052,-0.0205403,0.103212,-0,0.105237,-10028,-40000,-0,41237.9,245052
step02_gravity_refstate-mantle.xmf,1420,-1.39713e-06,3.36326e-06,0,2.13233e-06,-1.2294e+09,-1.22876e+09,-1.22921e+09,284986,-0.0101282,0.0850465,-0,0.0856474,-11245.5,-44035.8,-0,45449,284986
step02_gravity_refstate-mantle.xmf,1421,-7.62551e-07,2.15049e-06,0,1.98884e-06,-1.12699e+09,-1.1266e+09,-1.12689e+09,265809,-0.0180709,0.0981783,-0,0.0998275,-10555.5,-40873.8,-0,42214.8,265809
step02_gravity_refstate-mantle.xmf,1422,-9.98219e-07,2.57877e-06,0,2.04893e-06,-1.1595e+09,-1.15902e+09,-1.15936e+09,273839,-0.0152915,0.0922754,-0,0.0935338,-11113.3,-41877.3,-0,43326.8,273839
step02_gravity_refstate-mantle.xmf,1423,-1.19325e-06,2.96418e-06,0,2.13537e-06,-1.19541e+09,-1.19486e+09,-1.19525e+09,285393,-0.0126936,0.0887402,-0,0.0896435,-11187.9,-42986.4,-0,44418.5,285393
step02_gravity_refstate-mantle.xmf,1424,-1.61386e-06,4.02297e-06,0,1.55005e-06,-1.27801e+09,-1.27725e+09,-1.27779e+09,207164,-0.00456716,0.0735111,-0,0.0736528,-12165.4,-45537.6,-0,47134.6,207164
step02_gravity_refstate-mantle.xmf,1425,-1.47804e-06,4.65112e-06,0,5.84431e-07,-1.35509e+09,-1.35427e+09,-1.3549e+09,78109.2,0.00525081,0.058349,0,0.0585848,-12988.2,-47921.4,-0,49650.3,78109.2
step02_gravity_refstate-mantle.xmf,1426,2.32325e-06,4.19174e-06,0,-1.83416e-07,-1.7189e+09,-1.71865e+09,-1.71921e+09,-24513.5,0.0473133,0.00344121,0,0.0474383,-14048.6,-59183.5,-0,60828,24513.5
step02_gravity_refstate-mantle.xmf,1427,-3.39684e-07,4.70921e-06,0,-5.69878e-07,-1.46361e+09,-1.46294e+09,-1.46357e+09,-76164.2,0.0211693,0.0387612,0,0.0441653,-13798.6,-51281.3,-0,53105.3,76164.2
step02_gravity_refstate-mantle.xmf,1428,-1.49547e-06,3.66026e-06,0,1.70621e-06,-1.2453e+09,-1.24461e+09,-1.2451e+09,228036,-0.00754906,0.0775806,-0,0.077947,-12134,-44527.2,-0,46150.9,228036
step02_gravity_refstate-mantle.xmf,1429,-1.53772e-06,4.41853e-06,0,8.57561e-07,-1.32451e+09,-1.32372e+09,-1.32431e+09,114613,0.00162536,0.0625706,0,0.0625917,-13000.5,-46975.8,-0,48741.6,114613
step02_gravity_refstate-mantle.xmf,1430,-1.53306e-06,4.14594e-06,0,1.0922e-06,-1.29362e+09,-1.29286e+09,-1.29341e+09,145972,-0.00168169,0.0665858,-0,0.066607,-13013.3,-46020.8,-0,47825.3,145972
step02_gravity_refstate-mantle.xmf,1431,-6.96947e-07,4.6983e-06,0,-3.37776e-07,-1.43138e+09,-1.43066e+09,-1.43129e+09,-45143.8,0.0165258,0.0433797,0,0.0464209,-13821.4,-50283.2,-0,52148.2,45143.8
step02_gravity_refstate-mantle.xmf,1432,-1.19623e-06,4.54889e-06,0,2.11901e-07,-1.37049e+09,-1.36972e+09,-1.37033e+09,28320.5,0.00821036,0.0524666,0,0.0531051,-13743.9,-48398.6,-0,50312.2,28320.5
step02_gravity_refstate-mantle.xmf,1433,-9.77072e-07,4.64258e-06,0,-7.55474e-08,-1.40064e+09,-1.39988e+09,-1.4005e+09,-10096.9,0.0122476,0.0478672,0,0.0494092,-13813.1,-49331.5,-0,51228.9,10096.9
step02_gravity_refstate-mantle.xmf,1434,2.36024e-06,4.01406e-06,0,-3.74208e-09,-1.74534e+09,-1.74512e+09,-1.74565e+09,-500.13,0.0463591,-2.95201e-19,0,0.0463591,-14576.4,-60000,-0,61745.2,500.13
step02_gravity_refstate-mantle.xmf,1435,2.13467e-06,4.02405e-06,0,-4.89617e-07,-1.67074e+09,-1.67049e+09,-1.67102e+09,-65437.3,0.0444936,0.00931923,0,0.0454591,-14441.6,-57694.2,-0,59474.2,65437.3
step02_gravity_refstate-mantle.xmf,1436,1.90661e-06,4.0513e-06,0,-6.6266e-07,-1.6392e+09,-1.63891e+09,-1.63945e+09,-88564.5,0.0422726,0.0132435,0,0.0442986,-14466.8,-56718.5,-0,58534.4,88564.5
step02_gravity_refstate-mantle.xmf,1437,1.60137e-06,4.10171e-06,0,-7.99506e-07,-1.60673e+09,-1.60639e+09,-1.60694e+09,-106854,0.0392929,0.0172905,0,0.042929,-14509.4,-55713.5,-0,57571.8,106854
step02_gravity_refstate-mantle.xmf,1438,1.24215e-06,4.1785e-06,0,-8.80746e-07,-1.57464e+09,-1.57425e+09,-1.57481e+09,-117712,0.035822,0.021368,0,0.041711,-14534.5,-54720.2,-0,56617.6,117712
step02_gravity_refstate-mantle.xmf,1439,8.55311e-07,4.27027e-06,0,-8.98772e-07,-1.54352e+09,-1.54306e+09,-1.54363e+09,-120121,0.0320628,0.0254472,0,0.0409339,-14535,-53756.4,-0,55686.8,120121
step02_gravity_refstate-mantle.xmf,1440,4.57587e-07,4.34576e-06,0,-8.52366e-07,-1.5123e+09,-1.51178e+09,-1.51236e+09,-113919,0.0279715,0.0295079,0,0.0406586,-14580.7,-52789.6,-0,54766.2,113919
step02_gravity_refstate-mantle.xmf,1441,6.36057e-08,4.38862e-06,0,-7.39676e-07,-1.47944e+09,-1.47886e+09,-1.47945e+09,-98857.7,0.0235207,0.0337536,0,0.0411403,-14655.2,-51772.1,-0,53806.4,98857.7
step02_gravity_refstate-mantle.xmf,1442,-8.95723e-07,2.15096e-06,0,1.66524e-06,-1.09874e+09,-1.09833e+09,-1.09862e+09,222560,-0.0197514,0.0966474,-0,0.098645,-11115.2,-40000,-0,41515.6,222560
step02_gravity_refstate-mantle.xmf,1443,-1.3334e-06,3.27525e-06,0,1.80163e-06,-1.21202e+09,-1.2114e+09,-1.21184e+09,240788,-0.0103254,0.0814892,-0,0.0821407,-12077.1,-43499.2,-0,45144.7,240788
step02_gravity_refstate-mantle.xmf,1444,-1.01886e-06,2.44341e-06,0,1.73731e-06,-1.12736e+09,-1.1269e+09,-1.12723e+09,232192,-0.0170804,0.0915338,-0,0.0931138,-11640.7,-40884.2,-0,42509.1,232192
step02_gravity_refstate-mantle.xmf,1445,-1.20428e-06,2.95244e-06,0,1.80323e-06,-1.17954e+09,-1.17899e+09,-1.17938e+09,241001,-0.0128396,0.0849076,-0,0.0858729,-12027.3,-42496.1,-0,44165.4,241001
step02_gravity_refstate-mantle.xmf,1446,-1.46921e-06,3.82961e-06,0,1.29184e-06,-1.26129e+09,-1.26058e+09,-1.2611e+09,172654,-0.00482172,0.0705784,-0,0.0707429,-13011,-45021.8,-0,46864.2,172654
step02_gravity_refstate-mantle.xmf,1447,-1.3208e-06,4.38813e-06,0,4.7478e-07,-1.3402e+09,-1.33944e+09,-1.34002e+09,63454.3,0.00451653,0.0566201,0,0.0568,-13752.2,-47461.6,-0,49413.9,63454.3
step02_gravity_refstate-mantle.xmf,1448,2.26683e-06,3.99638e-06,0,-3.19793e-07,-1.69744e+09,-1.69721e+09,-1.69774e+09,-42740.3,0.0456078,0.00594923,0,0.0459942,-14513.2,-58519.8,-0,60292.6,42740.3
step02_gravity_refstate-mantle.xmf,1449,2.33189e-06,3.80806e-06,0,-1.75513e-07,-1.72008e+09,-1.71988e+09,-1.72039e+09,-23457.4,0.0449204,0.00298695,0,0.0450196,-15086.1,-59219,-0,61110.4,23457.4
step02_gravity_refstate-mantle.xmf,1450,-3.06401e-07,4.4179e-06,0,-5.65185e-07,-1.44663e+09,-1.446e+09,-1.44659e+09,-75537,0.0190718,0.0381592,0,0.0426598,-14680.3,-50756.2,-0,52836.6,75537
step02_gravity_refstate-mantle.xmf,1451,-1.39441e-06,3.51393e-06,0,1.42638e-06,-1.22782e+09,-1.22716e+09,-1.22763e+09,190636,-0.00780011,0.074518,-0,0.0749251,-12984.7,-43987.4,-0,45863.9,190636
step02_gravity_refstate-mantle.xmf,1452,-1.13039e-06,2.71608e-06,0,1.71989e-06,-1.15158e+09,-1.15107e+09,-1.15143e+09,229863,-0.0148059,0.0869012,-0,0.0881534,-12103.2,-41632.2,-0,43355.9,229863
step02_gravity_refstate-mantle.xmf,1453,-1.36828e-06,4.18993e-06,0,6.66269e-07,-1.31157e+09,-1.31083e+09,-1.31139e+09,89046.8,0.00142813,0.0599362,0,0.0599532,-13851.7,-46576.6,-0,48592.7,89046.8
step02_gravity_refstate-mantle.xmf,1454,-1.38075e-06,3.93134e-06,0,8.80633e-07,-1.27839e+09,-1.27768e+09,-1.27821e+09,117697,-0.00193743,0.0639267,-0,0.063956,-13885.9,-45550.8,-0,47620.4,117697
step02_gravity_refstate-mantle.xmf,1455,-6.22476e-07,4.40114e-06,0,-3.45661e-07,-1.41376e+09,-1.41309e+09,-1.41368e+09,-46197.6,0.0147072,0.0425897,0,0.0450576,-14699.5,-49738.8,-0,51865.4,46197.6
step02_gravity_refstate-mantle.xmf,1456,-1.09697e-06,4.19452e-06,0,2.12477e-07,-1.34086e+09,-1.34015e+09,-1.34071e+09,28397.5,0.00573126,0.0523676,0,0.0526803,-14691.9,-47483.1,-0,49704.1,28397.5
step02_gravity_refstate-mantle.xmf,1457,-8.86318e-07,4.3363e-06,0,-8.74095e-08,-1.3798e+09,-1.3791e+09,-1.37968e+09,-11682.3,0.0103737,0.0472073,0,0.0483337,-14695,-48687.8,-0,50857.1,11682.3
step02_gravity_refstate-mantle.xmf,1458,2.34927e-06,3.65421e-06,0,-5.55183e-09,-1.74537e+09,-1.74519e+09,-1.74568e+09,-742.002,0.0438073,-3.35189e-19,0,0.0438073,-15660.2,-60000,-0,62010,742.002
step02_gravity_refstate-mantle.xmf,1459,2.24123e-06,3.7166e-06,0,-3.68649e-07,-1.68979e+09,-1.68959e+09,-1.69009e+09,-49270,0.0435188,0.00642478,0,0.0439905,-15309.8,-58282.6,-0,60259.9,49270
step02_gravity_refstate-mantle.xmf,1460,2.06713e-06,3.72915e-06,0,-5.59544e-07,-1.65785e+09,-1.65763e+09,-1.65812e+09,-74783,0.0418309,0.0100876,0,0.04303,-15345.6,-57294.8,-0,59314.2,74783
step02_gravity_refstate-mantle.xmf,1461,1.81242e-06,3.77235e-06,0,-7.24378e-07,-1.62429e+09,-1.62403e+09,-1.62454e+09,-96813.1,0.0393774,0.0139544,0,0.0417768,-15381.9,-56256.7,-0,58321.7,96813.1
step02_gravity_refstate-mantle.xmf,1462,7.7656e-07,4.07682e-06,0,-9.05582e-07,-1.52868e+09,-1.52824e+09,-1.52878e+09,-121031,0.0296251,0.0257373,0,0.0392435,-15275.5,-53297,-0,55442.9,121031
step02_gravity_refstate-mantle.xmf,1463,1.49155e-06,3.84808e-06,0,-8.4241e-07,-1.5905e+09,-1.59018e+09,-1.5907e+09,-112588,0.0363228,0.0179276,0,0.0405061,-15398.4,-55210.8,-0,57317.9,112588
step02_gravity_refstate-mantle.xmf,1464,1.12965e-06,3.94216e-06,0,-9.0117e-07,-1.5573e+09,-1.55693e+09,-1.55746e+09,-120441,0.0328385,0.0219346,0,0.0394904,-15401.2,-54183.3,-0,56329.6,120441
step02_gravity_refstate-mantle.xmf,1465,4.59473e-07,4.06647e-06,0,-8.53208e-07,-1.49774e+09,-1.49725e+09,-1.4978e+09,-114031,0.0256586,0.0290111,0,0.0387299,-15558.8,-52339.1,-0,54602.7,114031
step02_gravity_refstate-mantle.xmf,1466,5.35082e-08,4.13707e-06,0,-7.19021e-07,-1.46224e+09,-1.46169e+09,-1.46224e+09,-96097.1,0.0212179,0.0335601,0,0.0397049,-15544.3,-51239.9,-0,53545.8,96097.1
step02_gravity_refstate-mantle.xmf,1467,-1.14187e-06,2.41894e-06,0,1.47681e-06,-1.09877e+09,-1.09829e+09,-1.09861e+09,197376,-0.018612,0.0903232,-0,0.0922209,-12234.4,-40000,-0,41829.2,197376
step02_gravity_refstate-mantle.xmf,1468,-1.29181e-06,3.18828e-06,0,1.50499e-06,-1.19417e+09,-1.19357e+09,-1.19399e+09,201141,-0.0105751,0.0782262,-0,0.0789377,-12943.5,-42947.9,-0,44855.9,201141
step02_gravity_refstate-mantle.xmf,1469,-1.18365e-06,2.66171e-06,0,1.49114e-06,-1.12867e+09,-1.12816e+09,-1.12851e+09,199291,-0.0158127,0.0854383,-0,0.0868892,-12703.2,-40924,-0,42850.3,199291
step02_gravity_refstate-mantle.xmf,1470,-1.23084e-06,2.92249e-06,0,1.50072e-06,-1.16108e+09,-1.16053e+09,-1.16092e+09,200571,-0.0131284,0.0814469,-0,0.0824982,-12924.8,-41925.7,-0,43872.7,200571
step02_gravity_refstate-mantle.xmf,1471,-1.35123e-06,3.64992e-06,0,1.06037e-06,-1.24431e+09,-1.24365e+09,-1.24413e+09,141719,-0.00512074,0.0679054,-0,0.0680982,-13888.1,-44497.7,-0,46614.6,141719
step02_gravity_refstate-mantle.xmf,1472,2.29904e-06,3.4626e-06,0,-2.12141e-07,-1.71388e+09,-1.71372e+09,-1.71419e+09,-28352.7,0.0421643,0.00339527,0,0.0423008,-16223.2,-59026.4,-0,61215.3,28352.7
step02_gravity_refstate-mantle.xmf,1473,-2.61251e-07,4.14449e-06,0,-5.56841e-07,-1.42953e+09,-1.42894e+09,-1.4295e+09,-74421.8,0.0171189,0.0376134,0,0.0413259,-15596.6,-50227.6,-0,52593.4,74421.8
step02_gravity_refstate-mantle.xmf,1474,-1.31966e-06,3.37929e-06,0,1.17862e-06,-1.2101e+09,-1.20947e+09,-1.20993e+09,157523,-0.00808186,0.0717303,-0,0.0721842,-13865.5,-43440.4,-0,45599.6,157523
step02_gravity_refstate-mantle.xmf,1475,-1.2113e-06,3.96664e-06,0,4.93785e-07,-1.29918e+09,-1.29849e+09,-1.29902e+09,65994.4,0.00126922,0.0574195,0,0.0574335,-14741.9,-46194.2,-0,48489.5,65994.4
step02_gravity_refstate-mantle.xmf,1476,-1.25352e-06,3.72521e-06,0,7.00925e-07,-1.26173e+09,-1.26107e+09,-1.26156e+09,93678.7,-0.00234853,0.0616751,-0,0.0617198,-14786.4,-45036.6,-0,47401.8,93678.7
step02_gravity_refstate-mantle.xmf,1477,-5.61593e-07,4.12952e-06,0,-3.42011e-07,-1.39459e+09,-1.39397e+09,-1.39452e+09,-45709.7,0.0128322,0.042116,0,0.0440276,-15590.4,-49146.4,-0,51559.9,45709.7
step02_gravity_refstate-mantle.xmf,1478,-8.0332e-07,4.05474e-06,0,-9.98532e-08,-1.35808e+09,-1.35743e+09,-1.35797e+09,-13345.4,0.00856344,0.0467044,0,0.047483,-15603.6,-48016.5,-0,50488.2,13345.4
step02_gravity_refstate-mantle.xmf,1479,2.30931e-06,3.36201e-06,0,-3.54228e-09,-1.7454e+09,-1.74526e+09,-1.74571e+09,-473.426,0.0411625,-2.47516e-19,0,0.0411625,-16795.3,-60000,-0,62306.4,473.426
step02_gravity_refstate-mantle.xmf,1480,2.16952e-06,3.46721e-06,0,-4.35849e-07,-1.67708e+09,-1.67691e+09,-1.67737e+09,-58251.2,0.040988,0.00734627,0,0.0416411,-16216.7,-57889,-0,60117.6,58251.2
step02_gravity_refstate-mantle.xmf,1481,1.97289e-06,3.48482e-06,0,-6.16466e-07,-1.64332e+09,-1.64312e+09,-1.64359e+09,-82390.7,0.0390336,0.010937,0,0.0405369,-16284.6,-56844.8,-0,59131.4,82390.7
step02_gravity_refstate-mantle.xmf,1482,1.70599e-06,3.54104e-06,0,-7.63047e-07,-1.60871e+09,-1.60847e+09,-1.60894e+09,-101981,0.0364691,0.014672,0,0.0393098,-16321.4,-55774.2,-0,58113.2,101981
step02_gravity_refstate-mantle.xmf,1483,9.40539e-07,3.76853e-06,0,-8.97372e-07,-1.53237e+09,-1.53199e+09,-1.53249e+09,-119934,0.0292214,0.0234358,0,0.0374584,-16240.4,-53411.3,-0,55825.8,119934
step02_gravity_refstate-mantle.xmf,1484,1.37117e-06,3.62963e-06,0,-8.62065e-07,-1.57263e+09,-1.57233e+09,-1.57281e+09,-115215,0.0332614,0.0186748,0,0.0381454,-16330.4,-54657.5,-0,57044.9,115215
step02_gravity_refstate-mantle.xmf,1485,3.37068e-07,3.8982e-06,0,-8.01108e-07,-1.47551e+09,-1.47503e+09,-1.47555e+09,-107068,0.022689,0.0300913,0,0.0376865,-16296.1,-51651.2,-0,54161,107068
step02_gravity_refstate-mantle.xmf,1486,1.31153e-07,3.85118e-06,0,-7.1651e-07,-1.4494e+09,-1.4489e+09,-1.44942e+09,-95761.6,0.0195717,0.0325255,0,0.03796,-16607.6,-50843.3,-0,53486.9,95761.6
step02_gravity_refstate-mantle.xmf,1487,-1.30297e-06,2.61849e-06,0,1.2807e-06,-1.09879e+09,-1.09826e+09,-1.09861e+09,171166,-0.0171985,0.084318,-0,0.0860542,-13389.8,-40000,-0,42181.6,171166
step02_gravity_refstate-mantle.xmf,1488,-1.27537e-06,3.10814e-06,0,1.24291e-06,-1.17582e+09,-1.17523e+09,-1.17565e+09,166114,-0.0108301,0.0752139,-0,0.0759897,-13855.3,-42381,-0,44588.3,166114
step02_gravity_refstate-mantle.xmf,1489,-1.28173e-06,2.87285e-06,0,1.23456e-06,-1.1366e+09,-1.13605e+09,-1.13643e+09,164999,-0.0137318,0.0785659,-0,0.0797569,-13908.7,-41168.9,-0,43454.9,164999
step02_gravity_refstate-mantle.xmf,1490,-1.26312e-06,3.48869e-06,0,8.67916e-07,-1.22714e+09,-1.22651e+09,-1.22697e+09,115997,-0.00549069,0.0656746,-0,0.0659037,-14754.1,-43967.5,-0,46376.9,115997
step02_gravity_refstate-mantle.xmf,1491,-9.84134e-07,3.92362e-06,0,1.52266e-07,-1.31983e+09,-1.31917e+09,-1.3197e+09,20350.3,0.00437672,0.0514141,0,0.0516001,-15608.2,-46833.5,-0,49365.9,20350.3
step02_gravity_refstate-mantle.xmf,1492,2.25944e-06,3.20053e-06,0,-1.61972e-07,-1.72017e+09,-1.72005e+09,-1.72047e+09,-21647.5,0.0395486,0.00251066,0,0.0396282,-17418.9,-59219.9,-0,61728.6,21647.5
step02_gravity_refstate-mantle.xmf,1493,-2.21612e-07,3.89289e-06,0,-5.42437e-07,-1.4114e+09,-1.41085e+09,-1.41137e+09,-72496.7,0.0151846,0.037235,0,0.0402121,-16549.3,-49667.1,-0,52351.7,72496.7
step02_gravity_refstate-mantle.xmf,1494,6.30138e-07,3.78393e-06,0,-8.63136e-07,-1.50021e+09,-1.49979e+09,-1.50029e+09,-115358,0.0254363,0.0267142,0,0.0368871,-16507.8,-52415.9,-0,54953.9,115358
step02_gravity_refstate-mantle.xmf,1495,-1.26957e-06,3.25819e-06,0,9.68501e-07,-1.19198e+09,-1.19137e+09,-1.19181e+09,129440,-0.00839255,0.0692909,-0,0.0697973,-14764.4,-42880.6,-0,45351.2,129440
step02_gravity_refstate-mantle.xmf,1496,-1.09477e-06,3.74222e-06,0,3.77523e-07,-1.28136e+09,-1.28071e+09,-1.28121e+09,50455.9,0.000522327,0.0558683,0,0.0558707,-15636.6,-45643.9,-0,48248.1,50455.9
step02_gravity_refstate-mantle.xmf,1497,-1.15706e-06,3.54328e-06,0,5.54003e-07,-1.2447e+09,-1.24407e+09,-1.24454e+09,74042.5,-0.00283022,0.0598396,-0,0.0599065,-15676.3,-44510.6,-0,47190.5,74042.5
step02_gravity_refstate-mantle.xmf,1498,-4.99583e-07,3.87324e-06,0,-3.40899e-07,-1.37465e+09,-1.37407e+09,-1.37459e+09,-45561.1,0.0110359,0.0416865,0,0.0431225,-16539.7,-48530.2,-0,51271.2,45561.1
step02_gravity_refstate-mantle.xmf,1499,-7.24952e-07,3.80586e-06,0,-1.20976e-07,-1.33725e+09,-1.33665e+09,-1.33715e+09,-16168.4,0.00699459,0.0461836,0,0.0467103,-16524.5,-47373.1,-0,50172.4,16168.4
step02_gravity_refstate-mantle.xmf,1500,2.20528e-06,3.27995e-06,0,-3.3524e-07,-1.69231e+09,-1.69217e+09,-1.6926e+09,-44804.8,0.0398247,0.00540419,0,0.0401897,-17009.7,-58359.1,-0,60787.4,44804.8
step02_gravity_refstate-mantle.xmf,1501,2.25245e-06,3.1228e-06,0,-4.99929e-09,-1.74543e+09,-1.74532e+09,-1.74573e+09,-668.155,0.0384496,-2.81625e-19,0,0.0384496,-17984.9,-60000,-0,62637.5,668.155
step02_gravity_refstate-mantle.xmf,1502,2.07632e-06,3.2569e-06,0,-4.93713e-07,-1.66244e+09,-1.66228e+09,-1.66272e+09,-65984.7,0.0383246,0.0083594,0,0.0392257,-17155.8,-57435.5,-0,59942.9,65984.7
step02_gravity_refstate-mantle.xmf,1503,1.87304e-06,3.27666e-06,0,-6.51799e-07,-1.62888e+09,-1.6287e+09,-1.62913e+09,-87112.9,0.0362341,0.011686,0,0.0380719,-17264.2,-56397.6,-0,58980.9,87112.9
step02_gravity_refstate-mantle.xmf,1504,1.59719e-06,3.34061e-06,0,-7.80963e-07,-1.59261e+09,-1.59238e+09,-1.59283e+09,-104376,0.0335529,0.0153677,0,0.0369048,-17309.3,-55275.6,-0,57922.4,104376
step02_gravity_refstate-mantle.xmf,1505,5.21028e-07,3.67126e-06,0,-8.29949e-07,-1.48123e+09,-1.48081e+09,-1.4813e+09,-110923,0.0229913,0.0277755,0,0.0360565,-17105.7,-51828.6,-0,54578.4,110923
step02_gravity_refstate-mantle.xmf,1506,8.82077e-07,3.54071e-06,0,-8.73607e-07,-1.51557e+09,-1.51522e+09,-1.51569e+09,-116758,0.0264826,0.0235948,0,0.0354689,-17304.3,-52891.5,-0,55650.3,116758
step02_gravity_refstate-mantle.xmf,1507,1.25568e-06,3.43696e-06,0,-8.59849e-07,-1.55429e+09,-1.554e+09,-1.55446e+09,-114919,0.0302496,0.0193942,0,0.0359329,-17311.6,-54089.7,-0,56792.5,114919
step02_gravity_refstate-mantle.xmf,1508,1.03643e-07,3.6452e-06,0,-6.76273e-07,-1.42861e+09,-1.42814e+09,-1.42863e+09,-90383.9,0.017153,0.0328679,0,0.0370746,-17548.1,-50200.4,-0,53179.1,90383.9
step02_gravity_refstate-mantle.xmf,1509,-1.38908e-06,2.76114e-06,0,1.08112e-06,-1.09879e+09,-1.09824e+09,-1.09861e+09,144492,-0.0155896,0.0786915,-0,0.0802209,-14585.2,-40000,-0,42576.1,144492
step02_gravity_refstate-mantle.xmf,1510,-1.27923e-06,3.05781e-06,0,1.03247e-06,-1.16108e+09,-1.1605e+09,-1.16091e+09,137989,-0.0108473,0.0724849,-0,0.0732921,-14724.7,-41925.7,-0,44436.2,137989
step02_gravity_refstate-mantle.xmf,1511,-1.20246e-06,3.3523e-06,0,7.13495e-07,-1.21072e+09,-1.21011e+09,-1.21056e+09,95358.7,-0.00585359,0.0638473,-0,0.0641151,-15581.1,-43460.1,-0,46168.8,95358.7
step02_gravity_refstate-mantle.xmf,1512,-8.87721e-07,3.68589e-06,0,9.08545e-08,-1.29935e+09,-1.29874e+09,-1.29923e+09,12142.7,0.00317927,0.0505001,0,0.0506001,-16549.4,-46200.9,-0,49075.5,12142.7
step02_gravity_refstate-mantle.xmf,1513,2.14988e-06,3.09261e-06,0,-3.49122e-07,-1.68672e+09,-1.68659e+09,-1.68701e+09,-46660.1,0.0376123,0.00563748,0,0.0380324,-17943.3,-58185.5,-0,60889.4,46660.1
step02_gravity_refstate-mantle.xmf,1514,2.19075e-06,2.98563e-06,0,-1.81843e-07,-1.71463e+09,-1.71452e+09,-1.71492e+09,-24303.3,0.0368179,0.00286176,0,0.036929,-18607.7,-59047.7,-0,61910.2,24303.3
step02_gravity_refstate-mantle.xmf,1515,-1.90112e-07,3.66558e-06,0,-5.23227e-07,-1.39211e+09,-1.39159e+09,-1.39208e+09,-69929.3,0.0132644,0.0370613,0,0.0393635,-17523.7,-49070.8,-0,52105.9,69929.3
step02_gravity_refstate-mantle.xmf,1516,3.74589e-07,3.5935e-06,0,-7.74454e-07,-1.45821e+09,-1.45778e+09,-1.45826e+09,-103506,0.0202854,0.0293807,0,0.0357033,-17633.1,-51116.2,-0,54072.1,103506
step02_gravity_refstate-mantle.xmf,1517,-1.32141e-06,2.93852e-06,0,9.62549e-07,-1.13175e+09,-1.13118e+09,-1.13158e+09,128645,-0.0123718,0.0730047,-0,0.0740456,-15225.1,-41019.1,-0,43753.5,128645
step02_gravity_refstate-mantle.xmf,1518,-1.24388e-06,3.13256e-06,0,7.87666e-07,-1.17147e+09,-1.17088e+09,-1.1713e+09,105272,-0.00878693,0.0671827,-0,0.0677549,-15728.4,-42246.9,-0,45079.8,105272
step02_gravity_refstate-mantle.xmf,1519,-1.00099e-06,3.53519e-06,0,2.77585e-07,-1.26207e+09,-1.26147e+09,-1.26194e+09,37099.2,-0.000291694,0.0545552,-0,0.0545559,-16581.4,-45048.3,-0,48003.1,37099.2
step02_gravity_refstate-mantle.xmf,1520,-1.08448e-06,3.38658e-06,0,4.33365e-07,-1.22824e+09,-1.22764e+09,-1.2281e+09,57919.2,-0.00327259,0.0582787,-0,0.0583705,-16552.8,-44002.3,-0,47012.8,57919.2
step02_gravity_refstate-mantle.xmf,1521,-4.47358e-07,3.64354e-06,0,-3.39286e-07,-1.35421e+09,-1.35366e+09,-1.35415e+09,-45345.5,0.00932575,0.0413911,0,0.0424287,-17509.7,-47898.3,-0,50998.4,45345.5
step02_gravity_refstate-mantle.xmf,1522,-6.53947e-07,3.5774e-06,0,-1.46871e-07,-1.31607e+09,-1.31551e+09,-1.31598e+09,-19629.3,0.00554732,0.0456489,0,0.0459848,-17512.8,-46718.7,-0,49893.3,19629.3
step02_gravity_refstate-mantle.xmf,1523,2.19622e-06,2.92776e-06,0,-8.35717e-10,-1.74546e+09,-1.74536e+09,-1.74576e+09,-111.694,0.0356841,1.61528e-19,0,0.0356841,-19232,-60000,-0,63006.9,111.694
step02_gravity_refstate-mantle.xmf,1524,1.99551e-06,3.0614e-06,0,-5.14958e-07,-1.65178e+09,-1.65164e+09,-1.65205e+09,-68824.1,0.0356924,0.00885809,0,0.0367752,-18200.4,-57105.3,-0,59935.5,68824.1
step02_gravity_refstate-mantle.xmf,1525,1.7727e-06,3.09283e-06,0,-6.68654e-07,-1.61444e+09,-1.61426e+09,-1.61468e+09,-89365.6,0.0334071,0.0123519,0,0.0356174,-18313.9,-55950.4,-0,58871.4,89365.6
step02_gravity_refstate-mantle.xmf,1526,1.48663e-06,3.16669e-06,0,-7.82995e-07,-1.57546e+09,-1.57523e+09,-1.57566e+09,-104647,0.0306189,0.01611,0,0.0345984,-18345.6,-54744.4,-0,57736.6,104647
step02_gravity_refstate-mantle.xmf,1527,7.33225e-07,3.38418e-06,0,-8.3273e-07,-1.48903e+09,-1.48867e+09,-1.48913e+09,-111294,0.0230601,0.0249792,0,0.0339959,-18274.7,-52070.2,-0,55184,111294
step02_gravity_refstate-mantle.xmf,1528,1.14289e-06,3.26149e-06,0,-8.42089e-07,-1.53424e+09,-1.53395e+09,-1.53439e+09,-112545,0.0271869,0.020206,0,0.0338734,-18359.1,-53469.1,-0,56533.2,112545
step02_gravity_refstate-mantle.xmf,1529,4.15888e-07,3.40894e-06,0,-7.59386e-07,-1.44913e+09,-1.44873e+09,-1.44919e+09,-101492,0.0190112,0.0288046,0,0.0345128,-18516.1,-50835.8,-0,54102.9,101492
step02_gravity_refstate-mantle.xmf,1530,1.11669e-07,3.44604e-06,0,-6.47784e-07,-1.41053e+09,-1.41008e+09,-1.41055e+09,-86576.3,0.0151876,0.0328496,0,0.0361906,-18549.3,-49641.4,-0,52993.8,86576.3
step02_gravity_refstate-mantle.xmf,1531,-1.40823e-06,2.84348e-06,0,8.93117e-07,-1.09879e+09,-1.09822e+09,-1.0986e+09,119365,-0.0138546,0.073485,-0,0.0747797,-15824.5,-40000,-0,43016.5,119365
step02_gravity_refstate-mantle.xmf,1532,-1.153e-06,3.24232e-06,0,5.66183e-07,-1.19674e+09,-1.19615e+09,-1.19658e+09,75670.3,-0.00593775,0.0618243,-0,0.0621088,-16466.8,-43028.3,-0,46071.5,75670.3
step02_gravity_refstate-mantle.xmf,1533,-8.12628e-07,3.47397e-06,0,3.66965e-08,-1.27801e+09,-1.27744e+09,-1.2779e+09,4904.48,0.00201578,0.0497363,0,0.0497771,-17536,-45541.8,-0,48801.2,4904.48
step02_gravity_refstate-mantle.xmf,1534,2.10585e-06,2.76981e-06,0,-4.03834e-09,-1.74549e+09,-1.74541e+09,-1.74578e+09,-539.724,0.0328792,-2.80761e-19,0,0.0328792,-20539.9,-60000,-0,63418.4,539.724
step02_gravity_refstate-mantle.xmf,1535,2.13204e-06,2.80337e-06,0,-1.81764e-07,-1.71109e+09,-1.711e+09,-1.71137e+09,-24292.8,0.0340057,0.00300314,0,0.0341381,-19888,-58937.5,-0,62202.5,24292.8
step02_gravity_refstate-mantle.xmf,1536,2.07217e-06,2.90254e-06,0,-3.62685e-07,-1.67885e+09,-1.67874e+09,-1.67913e+09,-48472.8,0.034887,0.00600472,0,0.0354,-19115.8,-57941.6,-0,61013.5,48472.8
step02_gravity_refstate-mantle.xmf,1537,-1.66324e-07,3.45724e-06,0,-5.02056e-07,-1.37156e+09,-1.37107e+09,-1.37154e+09,-67099.8,0.0113693,0.0370275,0,0.0387336,-18546.2,-48435.7,-0,51865,67099.8
step02_gravity_refstate-mantle.xmf,1538,-1.29087e-06,2.98498e-06,0,7.36496e-07,-1.13423e+09,-1.13366e+09,-1.13406e+09,98432.6,-0.0106028,0.0679125,-0,0.0687352,-16445,-41095.9,-0,44264.1,98432.6
step02_gravity_refstate-mantle.xmf,1539,-9.40368e-07,3.34923e-06,0,2.07175e-07,-1.2401e+09,-1.23952e+09,-1.23997e+09,27689,-0.00127995,0.0537437,-0,0.053759,-17534.5,-44369.4,-0,47708.6,27689
step02_gravity_refstate-mantle.xmf,1540,-1.0535e-06,3.22212e-06,0,3.67674e-07,-1.20358e+09,-1.20301e+09,-1.20344e+09,49139.6,-0.00433696,0.0577967,-0,0.0579591,-17428.4,-43240.3,-0,46620.6,49139.6
step02_gravity_refstate-mantle.xmf,1541,-1.17261e-06,3.10501e-06,0,5.47681e-07,-1.16916e+09,-1.16859e+09,-1.169e+09,73197.6,-0.00739185,0.0625333,-0,0.0629687,-17024.3,-42176,-0,45482.3,73197.6
step02_gravity_refstate-mantle.xmf,1542,-4.01548e-07,3.43491e-06,0,-3.39319e-07,-1.33331e+09,-1.3328e+09,-1.33326e+09,-45349.9,0.00772512,0.0411363,0,0.0418554,-18535.6,-47252.7,-0,50758.1,45349.9
step02_gravity_refstate-mantle.xmf,1543,-5.95776e-07,3.37677e-06,0,-1.71768e-07,-1.29495e+09,-1.29441e+09,-1.29487e+09,-22956.8,0.00424122,0.0451604,0,0.0453591,-18545.3,-46066,-0,49658.9,22956.8
step02_gravity_refstate-mantle.xmf,1544,2.04174e-06,2.66378e-06,0,-1.64073e-07,-1.71102e+09,-1.71094e+09,-1.71129e+09,-21928.4,0.0312617,0.00286091,0,0.0313923,-21206.6,-58934.4,-0,62633.7,21928.4
step02_gravity_refstate-mantle.xmf,1545,1.90274e-06,2.88691e-06,0,-5.30112e-07,-1.63924e+09,-1.6391e+09,-1.63949e+09,-70849.5,0.0328622,0.00946705,0,0.0341987,-19349.7,-56716.6,-0,59926.5,70849.5
step02_gravity_refstate-mantle.xmf,1546,1.66287e-06,2.93774e-06,0,-6.76308e-07,-1.59804e+09,-1.59787e+09,-1.59826e+09,-90388.6,0.0304999,0.0131522,0,0.0332148,-19412.2,-55442.7,-0,58742.9,90388.6
step02_gravity_refstate-mantle.xmf,1547,1.36946e-06,3.01507e-06,0,-7.72903e-07,-1.55613e+09,-1.55591e+09,-1.55631e+09,-103298,0.0275971,0.0169981,0,0.032412,-19442.2,-54146.1,-0,57530.9,103298
step02_gravity_refstate-mantle.xmf,1548,1.0417e-06,3.10215e-06,0,-8.11147e-07,-1.51384e+09,-1.51356e+09,-1.51398e+09,-108410,0.0242313,0.0209857,0,0.0320555,-19467.7,-52837.8,-0,56310.1,108410
step02_gravity_refstate-mantle.xmf,1549,7.12837e-07,3.17669e-06,0,-7.91283e-07,-1.47218e+09,-1.47185e+09,-1.47228e+09,-105755,0.0205984,0.0249793,0,0.0323768,-19521.2,-51549.1,-0,55121.6,105755
step02_gravity_refstate-mantle.xmf,1550,9.9498e-08,3.26386e-06,0,-6.09286e-07,-1.38882e+09,-1.3884e+09,-1.38884e+09,-81431.1,0.0130236,0.033184,0,0.0356482,-19614.4,-48970.3,-0,52752.4,81431.1
step02_gravity_refstate-mantle.xmf,1551,3.93422e-07,3.22992e-06,0,-7.19383e-07,-1.43006e+09,-1.42969e+09,-1.43012e+09,-96145.6,0.0167736,0.029062,0,0.0335553,-19595.1,-50246.1,-0,53931.8,96145.6
step02_gravity_refstate-mantle.xmf,1552,2.02566e-06,2.64206e-06,0,-3.45778e-09,-1.74552e+09,-1.74544e+09,-1.74579e+09,-462.133,0.0300447,-2.65892e-19,0,0.0300447,-21911.9,-60000,-0,63875.9,462.133
step02_gravity_refstate-mantle.xmf,1553,-1.37287e-06,2.87866e-06,0,7.16714e-07,-1.09878e+09,-1.09821e+09,-1.0986e+09,95788.8,-0.0120633,0.068723,-0,0.0697737,-17111.7,-40000,-0,43506.4,95788.8
step02_gravity_refstate-mantle.xmf,1554,-7.58228e-07,3.28933e-06,0,-6.54944e-09,-1.25596e+09,-1.25542e+09,-1.25586e+09,-875.333,0.000915592,0.0491396,0,0.0491481,-18561.9,-44860.4,-0,48548.9,875.333
step02_gravity_refstate-mantle.xmf,1555,1.9833e-06,2.72264e-06,0,-3.65997e-07,-1.66971e+09,-1.66961e+09,-1.66997e+09,-48915.5,0.031772,0.00641876,0,0.0324139,-20512.3,-57658,-0,61198,48915.5
step02_gravity_refstate-mantle.xmf,1556,-1.56678e-07,3.27861e-06,0,-4.77125e-07,-1.35014e+09,-1.34968e+09,-1.35012e+09,-63767.7,0.00954579,0.0372014,0,0.0384066,-19562.6,-47773.6,-0,51623.7,63767.7
step02_gravity_refstate-mantle.xmf,1557,1.96608e-06,2.55028e-06,0,-1.43928e-07,-1.71138e+09,-1.7113e+09,-1.71164e+09,-19235.9,0.0285094,0.00271317,0,0.0286382,-22581.7,-58944.6,-0,63122.1,19235.9
step02_gravity_refstate-mantle.xmf,1558,-1.21914e-06,2.98201e-06,0,5.35749e-07,-1.13522e+09,-1.13466e+09,-1.13506e+09,71602.9,-0.00889791,0.0632992,-0,0.0639215,-17748.8,-41127,-0,44793.4,71602.9
step02_gravity_refstate-mantle.xmf,1559,-9.10526e-07,3.18374e-06,0,1.63734e-07,-1.21482e+09,-1.21427e+09,-1.2147e+09,21883.1,-0.00240441,0.0534034,-0,0.0534575,-18509.5,-43588.4,-0,47355.6,21883.1
step02_gravity_refstate-mantle.xmf,1560,-1.05882e-06,3.0708e-06,0,3.36976e-07,-1.17355e+09,-1.17299e+09,-1.1734e+09,45036.8,-0.00563538,0.0579679,-0,0.0582412,-18312.6,-42312.1,-0,46105,45036.8
step02_gravity_refstate-mantle.xmf,1561,-3.63215e-07,3.25694e-06,0,-3.40324e-07,-1.31331e+09,-1.31283e+09,-1.31326e+09,-45484.3,0.00633563,0.0408987,0,0.0413866,-19577.6,-46634.6,-0,50577.3,45484.3
step02_gravity_refstate-mantle.xmf,1562,-5.43962e-07,3.20138e-06,0,-1.95904e-07,-1.27477e+09,-1.27427e+09,-1.2747e+09,-26182.6,0.00315737,0.0446207,0,0.0447323,-19637.7,-45442.9,-0,49504.5,26182.6
step02_gravity_refstate-mantle.xmf,1563,1.95162e-06,2.60091e-06,0,-2.88319e-07,-1.68009e+09,-1.68e+09,-1.68035e+09,-38533.8,0.0295784,0.00529994,0,0.0300495,-21767.1,-57978.1,-0,61929.5,38533.8
step02_gravity_refstate-mantle.xmf,1564,1.78745e-06,2.75037e-06,0,-5.49076e-07,-1.62241e+09,-1.62228e+09,-1.62264e+09,-73384,0.029894,0.0104178,0,0.0316573,-20529.7,-56195.6,-0,59828.2,73384
step02_gravity_refstate-mantle.xmf,1565,1.54301e-06,2.80815e-06,0,-6.75996e-07,-1.57899e+09,-1.57882e+09,-1.57919e+09,-90346.9,0.0275103,0.0141445,0,0.0309335,-20553.1,-54852.9,-0,58577,90346.9
step02_gravity_refstate-mantle.xmf,1566,1.26144e-06,2.88014e-06,0,-7.50338e-07,-1.5363e+09,-1.53608e+09,-1.53646e+09,-100283,0.0246569,0.0178822,0,0.0304588,-20591.1,-53532.5,-0,57356.1,100283
step02_gravity_refstate-mantle.xmf,1567,9.62518e-07,2.95395e-06,0,-7.72283e-07,-1.49411e+09,-1.49385e+09,-1.49424e+09,-103216,0.0214805,0.0216589,0,0.0305044,-20636.2,-52227.6,-0,56156.7,103216
step02_gravity_refstate-mantle.xmf,1568,6.55062e-07,3.02109e-06,0,-7.44838e-07,-1.45127e+09,-1.45095e+09,-1.45136e+09,-99547.6,0.0180297,0.0255809,0,0.0312962,-20681.1,-50902.4,-0,54943.3,99547.6
step02_gravity_refstate-mantle.xmf,1569,6.50394e-08,3.11245e-06,0,-5.63185e-07,-1.36448e+09,-1.36407e+09,-1.36449e+09,-75269.7,0.0108286,0.0339053,0,0.0355925,-20642.8,-48217.6,-0,52450.6,75269.7
step02_gravity_refstate-mantle.xmf,1570,3.50897e-07,3.07415e-06,0,-6.71931e-07,-1.40754e+09,-1.40717e+09,-1.40759e+09,-89803.6,0.0144051,0.0296873,0,0.0329977,-20702.8,-49549.6,-0,53700.7,89803.6
step02_gravity_refstate-mantle.xmf,1571,1.94541e-06,2.53837e-06,0,-5.23576e-09,-1.74555e+09,-1.74547e+09,-1.74581e+09,-699.759,0.0271876,-3.53679e-19,0,0.0271876,-23351.3,-60000,-0,64383.9,699.759
step02_gravity_refstate-mantle.xmf,1572,-1.29431e-06,2.87451e-06,0,5.58158e-07,-1.09876e+09,-1.0982e+09,-1.09859e+09,74597.8,-0.0102757,0.0644178,-0,0.0652322,-18450.5,-40000,-0,44050.2,74597.8
step02_gravity_refstate-mantle.xmf,1573,-7.22597e-07,3.13086e-06,0,-3.55709e-08,-1.23302e+09,-1.23251e+09,-1.23293e+09,-4754.05,-0.000110231,0.048743,-0,0.0487431,-19623.7,-44151.8,-0,48316.4,4754.05
step02_gravity_refstate-mantle.xmf,1574,1.84945e-06,2.61359e-06,0,-4.26561e-07,-1.64582e+09,-1.64572e+09,-1.64607e+09,-57009.9,0.0287887,0.00808493,0,0.0299024,-21661.2,-56918.9,-0,60901.3,57009.9
step02_gravity_refstate-mantle.xmf,1575,-1.64172e-07,3.14364e-06,0,-4.48972e-07,-1.32933e+09,-1.32889e+09,-1.32931e+09,-60005.1,0.00791241,0.037617,0,0.0384402,-20458.7,-47130.6,-0,51379.5,60005.1
step02_gravity_refstate-mantle.xmf,1576,1.88805e-06,2.51565e-06,0,-2.92655e-07,-1.6728e+09,-1.67271e+09,-1.67305e+09,-39113.4,0.0275054,0.00571299,0,0.0280925,-22759,-57752.2,-0,62074.9,39113.4
step02_gravity_refstate-mantle.xmf,1577,1.87885e-06,2.44774e-06,0,-1.7812e-07,-1.69833e+09,-1.69825e+09,-1.69858e+09,-23805.7,0.0256795,0.00361236,0,0.0259324,-23970.3,-58540.7,-0,63258.1,23805.7
step02_gravity_refstate-mantle.xmf,1578,-1.10851e-06,2.95133e-06,0,3.56758e-07,-1.13823e+09,-1.13769e+09,-1.13808e+09,47680.8,-0.00712687,0.0589995,-0,0.0594284,-19103.5,-41220.5,-0,45432.1,47680.8
step02_gravity_refstate-mantle.xmf,1579,-8.91547e-07,3.01506e-06,0,1.29637e-07,-1.18472e+09,-1.1842e+09,-1.1846e+09,17326,-0.00349094,0.0531183,-0,0.0532329,-19714.7,-42658.2,-0,46993.5,17326
step02_gravity_refstate-mantle.xmf,1580,-3.01049e-07,3.09167e-06,0,-3.56036e-07,-1.29745e+09,-1.29699e+09,-1.29741e+09,-47584.2,0.00543205,0.0401565,0,0.0405222,-20758.7,-46144.6,-0,50598.9,47584.2
step02_gravity_refstate-mantle.xmf,1581,-5.0714e-07,3.05173e-06,0,-2.07085e-07,-1.25454e+09,-1.25406e+09,-1.25447e+09,-27676.9,0.00217936,0.0442651,0,0.0443187,-20742.9,-44817.7,-0,49385.2,27676.9
step02_gravity_refstate-mantle.xmf,1582,1.42917e-06,2.69625e-06,0,-6.63884e-07,-1.55925e+09,-1.55908e+09,-1.55944e+09,-88728,0.0245933,0.0151544,0,0.0288875,-21731.2,-54242.3,-0,58433.5,88728
step02_gravity_refstate-mantle.xmf,1583,1.66569e-06,2.64276e-06,0,-5.6299e-07,-1.60266e+09,-1.60253e+09,-1.60289e+09,-75243.6,0.0269584,0.0115844,0,0.0293421,-21689.4,-55584.7,-0,59666.5,75243.6
step02_gravity_refstate-mantle.xmf,1584,1.16525e-06,2.76047e-06,0,-7.1875e-07,-1.5164e+09,-1.51618e+09,-1.51655e+09,-96060.9,0.0218584,0.0187477,0,0.0287969,-21780.6,-52916.9,-0,57224,96060.9
step02_gravity_refstate-mantle.xmf,1585,8.86664e-07,2.82767e-06,0,-7.29373e-07,-1.4737e+09,-1.47344e+09,-1.47382e+09,-97480.7,0.0188754,0.022422,0,0.0293092,-21811.4,-51596.3,-0,56017.1,97480.7
step02_gravity_refstate-mantle.xmf,1586,5.92896e-07,2.8884e-06,0,-6.95589e-07,-1.42886e+09,-1.42855e+09,-1.42894e+09,-92965.4,0.01555,0.026361,0,0.0306056,-21848.5,-50209.3,-0,54757,92965.4
step02_gravity_refstate-mantle.xmf,1587,-2.86643e-08,2.98519e-06,0,-4.91892e-07,-1.32993e+09,-1.32953e+09,-1.32993e+09,-65741.4,0.00807566,0.0356224,0,0.0365264,-21664,-47149.7,-0,51888.5,65741.4
step02_gravity_refstate-mantle.xmf,1588,2.92543e-07,2.93928e-06,0,-6.18243e-07,-1.38174e+09,-1.38139e+09,-1.38178e+09,-82628.2,0.0119892,0.030634,0,0.0328965,-21834.9,-48752,-0,53418.3,82628.2
step02_gravity_refstate-mantle.xmf,1589,1.86464e-06,2.45728e-06,0,-3.48745e-09,-1.74557e+09,-1.74549e+09,-1.74582e+09,-466.097,0.0243083,-3.12145e-19,0,0.0243083,-24862,-60000,-0,64947,466.097
step02_gravity_refstate-mantle.xmf,1590,-1.18426e-06,2.83962e-06,0,4.19336e-07,-1.09874e+09,-1.0982e+09,-1.09858e+09,56044.3,-0.0085455,0.0605697,-0,0.0611696,-19844.8,-40000,-0,44652.2,56044.3
step02_gravity_refstate-mantle.xmf,1591,-6.80666e-07,3.00334e-06,0,-6.33243e-08,-1.21529e+09,-1.2148e+09,-1.2152e+09,-8463.29,-0.000660777,0.0481214,-0,0.048126,-20655.7,-43604,-0,48249,8463.29
step02_gravity_refstate-mantle.xmf,1592,1.74001e-06,2.52504e-06,0,-4.50614e-07,-1.62712e+09,-1.62701e+09,-1.62735e+09,-60224.6,0.0261034,0.00926562,0,0.0276991,-22786.7,-56340.2,-0,60773.8,60224.6
step02_gravity_refstate-mantle.xmf,1593,1.79204e-06,2.44914e-06,0,-3.42096e-07,-1.65166e+09,-1.65157e+09,-1.6519e+09,-45721.1,0.0252351,0.00717733,0,0.026236,-23709,-57098.5,-0,61825.1,45721.1
step02_gravity_refstate-mantle.xmf,1594,1.80156e-06,2.37075e-06,0,-1.39171e-07,-1.70251e+09,-1.70244e+09,-1.70275e+09,-18600.2,0.0226281,0.00318997,0,0.0228518,-25654.7,-58669.2,-0,64033.2,18600.2
step02_gravity_refstate-mantle.xmf,1595,-9.80523e-07,2.88941e-06,0,2.13007e-07,-1.13927e+09,-1.13875e+09,-1.13914e+09,28468.4,-0.00557489,0.05533,-0,0.0556101,-20528.5,-41253.4,-0,46078.9,28468.4
step02_gravity_refstate-mantle.xmf,1596,-2.70719e-07,2.95444e-06,0,-3.50109e-07,-1.27949e+09,-1.27906e+09,-1.27945e+09,-46792.1,0.00441747,0.0399445,0,0.040188,-21872.6,-45589.8,-0,50565.2,46792.1
step02_gravity_refstate-mantle.xmf,1597,-7.64502e-07,2.9015e-06,0,1.73111e-08,-1.17892e+09,-1.17843e+09,-1.17882e+09,2313.63,-0.00257698,0.0501873,-0,0.0502534,-21267.1,-42479.8,-0,47506,2313.63
step02_gravity_refstate-mantle.xmf,1598,-5.04536e-07,2.90962e-06,0,-1.86248e-07,-1.22687e+09,-1.22641e+09,-1.2268e+09,-24892,0.000869128,0.0446303,0,0.0446387,-21928.5,-43962.5,-0,49128,24892
step02_gravity_refstate-mantle.xmf,1599,1.32449e-06,2.598e-06,0,-6.41273e-07,-1.53927e+09,-1.5391e+09,-1.53945e+09,-85706.2,0.0217763,0.0161524,0,0.0271129,-22957.5,-53624.1,-0,58331.8,85706.2
step02_gravity_refstate-mantle.xmf,1600,1.55054e-06,2.54783e-06,0,-5.62213e-07,-1.58265e+09,-1.58252e+09,-1.58286e+09,-75139.7,0.0240724,0.0127188,0,0.0272258,-22900.5,-54965.5,-0,59545.3,75139.7
step02_gravity_refstate-mantle.xmf,1601,1.07485e-06,2.65839e-06,0,-6.81677e-07,-1.49589e+09,-1.49568e+09,-1.49603e+09,-91106.2,0.0192023,0.0196709,0,0.0274895,-22984.1,-52282.5,-0,57111.5,91106.2
step02_gravity_refstate-mantle.xmf,1602,8.10352e-07,2.71762e-06,0,-6.82315e-07,-1.4518e+09,-1.45155e+09,-1.45191e+09,-91191.3,0.016339,0.0233141,0,0.0284694,-23026.5,-50919.1,-0,55883.6,91191.3
step02_gravity_refstate-mantle.xmf,1603,5.3252e-07,2.77226e-06,0,-6.43691e-07,-1.40562e+09,-1.40532e+09,-1.40569e+09,-86029.3,0.0132094,0.0272202,0,0.030256,-23054,-49490.8,-0,54597,86029.3
step02_gravity_refstate-mantle.xmf,1604,2.49418e-07,2.81691e-06,0,-5.67083e-07,-1.35724e+09,-1.3569e+09,-1.35727e+09,-75790.6,0.00989252,0.0314316,0,0.0329516,-23033.9,-47994.5,-0,53235.6,75790.6
step02_gravity_refstate-mantle.xmf,1605,1.76167e-06,2.38228e-06,0,-2.88083e-07,-1.65872e+09,-1.65863e+09,-1.65895e+09,-38502.3,0.0233206,0.00647324,0,0.0242024,-24881.6,-57316.1,-0,62483.8,38502.3
step02_gravity_refstate-mantle.xmf,1606,1.7885e-06,2.39397e-06,0,-3.70884e-09,-1.74559e+09,-1.74551e+09,-1.74583e+09,-495.686,0.021412,-3.1909e-19,0,0.021412,-26447.5,-60000,-0,65570.4,495.686
step02_gravity_refstate-mantle.xmf,1607,-1.05247e-06,2.78143e-06,0,3.0155e-07,-1.09872e+09,-1.0982e+09,-1.09858e+09,40302.1,-0.00691822,0.0571707,-0,0.0575878,-21297.9,-40000,-0,45316.6,40302.1
step02_gravity_refstate-mantle.xmf,1608,1.65007e-06,2.42818e-06,0,-4.37913e-07,-1.61346e+09,-1.61335e+09,-1.61368e+09,-58527.1,0.0232286,0.00995825,0,0.0252732,-24199.3,-55917.4,-0,60929.2,58527.1
step02_gravity_refstate-mantle.xmf,1609,-1.63288e-08,2.83638e-06,0,-4.58453e-07,-1.30787e+09,-1.30748e+09,-1.30786e+09,-61272.2,0.00653801,0.035741,0,0.0363341,-23046.8,-46467.7,-0,51869,61272.2
step02_gravity_refstate-mantle.xmf,1610,1.70916e-06,2.321e-06,0,-2.50167e-07,-1.66059e+09,-1.66051e+09,-1.66082e+09,-33434.8,0.0209728,0.00618332,0,0.0218653,-26255.5,-57373.6,-0,63095.8,33434.8
step02_gravity_refstate-mantle.xmf,1611,1.73051e-06,2.31277e-06,0,-1.2607e-07,-1.70048e+09,-1.70041e+09,-1.70072e+09,-16849.3,0.019836,0.00326417,0,0.0201028,-27224.3,-58606,-0,64620.6,16849.3
step02_gravity_refstate-mantle.xmf,1612,-8.40561e-07,2.80556e-06,0,1.01795e-07,-1.13921e+09,-1.13872e+09,-1.13909e+09,13604.9,-0.00420424,0.0521867,-0,0.0523558,-22035.9,-41252.2,-0,46768.8,13604.9
step02_gravity_refstate-mantle.xmf,1613,-2.45745e-07,2.82934e-06,0,-3.33502e-07,-1.26029e+09,-1.25988e+09,-1.26025e+09,-44572.5,0.00344946,0.0398523,0,0.0400013,-23094.8,-44996.4,-0,50577.1,44572.5
step02_gravity_refstate-mantle.xmf,1614,-6.15084e-07,2.80758e-06,0,-8.05787e-08,-1.1826e+09,-1.18215e+09,-1.18252e+09,-10769.3,-0.00137727,0.0472547,-0,0.0472747,-22691.3,-42594.3,-0,48261.5,10769.3
step02_gravity_refstate-mantle.xmf,1615,1.2249e-06,2.51507e-06,0,-6.1185e-07,-1.51846e+09,-1.51829e+09,-1.51862e+09,-81773.7,0.0190715,0.0172087,0,0.0256878,-24208.5,-52980.4,-0,58249.2,81773.7
step02_gravity_refstate-mantle.xmf,1616,1.44439e-06,2.46628e-06,0,-5.47903e-07,-1.56316e+09,-1.56303e+09,-1.56336e+09,-73227.3,0.021262,0.0137697,0,0.0253313,-24185.8,-54362.6,-0,59500,73227.3
step02_gravity_refstate-mantle.xmf,1617,9.9651e-07,2.56899e-06,0,-6.39888e-07,-1.47587e+09,-1.47566e+09,-1.476e+09,-85521.1,0.0167346,0.0205552,0,0.0265059,-24223.1,-51663.3,-0,57060.1,85521.1
step02_gravity_refstate-mantle.xmf,1618,7.3894e-07,2.62575e-06,0,-6.32676e-07,-1.42987e+09,-1.42962e+09,-1.42997e+09,-84557.1,0.0140105,0.0242415,0,0.027999,-24245.2,-50241,-0,55785.2,84557.1
step02_gravity_refstate-mantle.xmf,1619,4.82044e-07,2.66796e-06,0,-5.90071e-07,-1.38288e+09,-1.38258e+09,-1.38294e+09,-78863,0.0110955,0.0280457,0,0.0301607,-24311.1,-48787.6,-0,54509.3,78863
step02_gravity_refstate-mantle.xmf,1620,2.2291e-07,2.70475e-06,0,-5.16933e-07,-1.3345e+09,-1.33417e+09,-1.33453e+09,-69088.1,0.00811462,0.0320747,0,0.0330853,-24309,-47291.8,-0,53173.6,69088.1
step02_gravity_refstate-mantle.xmf,1621,1.64976e-06,2.35254e-06,0,-3.61141e-07,-1.62575e+09,-1.62566e+09,-1.62598e+09,-48266.5,0.0214547,0.00879426,0,0.0231871,-25500.7,-56297.1,-0,61803.3,48266.5
step02_gravity_refstate-mantle.xmf,1622,1.71675e-06,2.34538e-06,0,-3.99722e-09,-1.74561e+09,-1.74553e+09,-1.74584e+09,-534.229,0.0184949,-3.38888e-19,0,0.0184949,-28111.9,-60000,-0,66259.2,534.229
step02_gravity_refstate-mantle.xmf,1623,-9.08122e-07,2.70714e-06,0,2.04003e-07,-1.09869e+09,-1.09821e+09,-1.09857e+09,27265,-0.00543028,0.0542032,-0,0.0544746,-22813.7,-40000,-0,46048.5,27265
step02_gravity_refstate-mantle.xmf,1624,-4.13216e-07,2.8022e-06,0,-2.19882e-07,-1.22059e+09,-1.22016e+09,-1.22053e+09,-29387.3,0.00106319,0.0431746,0,0.0431877,-23192,-43768.9,-0,49533.7,29387.3
step02_gravity_refstate-mantle.xmf,1625,-2.18957e-08,2.72361e-06,0,-4.16749e-07,-1.28578e+09,-1.28541e+09,-1.28577e+09,-55698.5,0.00517153,0.0361748,0,0.0365426,-24306.8,-45785,-0,51837.1,55698.5
step02_gravity_refstate-mantle.xmf,1626,1.51525e-06,2.36968e-06,0,-4.55803e-07,-1.58547e+09,-1.58536e+09,-1.58568e+09,-60918,0.0202739,0.0117434,0,0.0234294,-25450.6,-55052,-0,60650.2,60918
step02_gravity_refstate-mantle.xmf,1627,1.58017e-06,2.29836e-06,0,-3.49799e-07,-1.61438e+09,-1.61428e+09,-1.61459e+09,-46750.7,0.0192108,0.00942838,0,0.0213998,-26701.3,-55945.1,-0,61990.4,46750.7
step02_gravity_refstate-mantle.xmf,1628,1.65958e-06,2.26316e-06,0,-1.14338e-07,-1.69672e+09,-1.69664e+09,-1.69694e+09,-15281.2,0.0168159,0.0034685,0,0.0171699,-28987.4,-58489,-0,65278.1,15281.2
step02_gravity_refstate-mantle.xmf,1629,1.6327e-06,2.26102e-06,0,-2.33659e-07,-1.65188e+09,-1.6518e+09,-1.6521e+09,-31228.5,0.0180892,0.00665908,0,0.019276,-27888.9,-57103.9,-0,63550.3,31228.5
step02_gravity_refstate-mantle.xmf,1630,1.65048e-06,2.31048e-06,0,-3.17176e-09,-1.74563e+09,-1.74554e+09,-1.74585e+09,-423.906,0.0155525,-3.30953e-19,0,0.0155525,-29859.4,-60000,-0,67019.3,423.906
step02_gravity_refstate-mantle.xmf,1631,-6.88629e-07,2.7193e-06,0,9.70169e-09,-1.14242e+09,-1.14196e+09,-1.14232e+09,1296.63,-0.00288393,0.0493069,-0,0.0493911,-23552.6,-41352.1,-0,47589.1,1296.63
step02_gravity_refstate-mantle.xmf,1632,-2.45185e-07,2.72194e-06,0,-2.96343e-07,-1.23722e+09,-1.23683e+09,-1.23719e+09,-39606.2,0.0023826,0.0402626,0,0.0403331,-24313,-44283.7,-0,50519,39606.2
step02_gravity_refstate-mantle.xmf,1633,-4.60703e-07,2.71014e-06,0,-1.55239e-07,-1.18816e+09,-1.18774e+09,-1.1881e+09,-20747.7,-0.000281092,0.0445666,-0,0.0445675,-24174.3,-42766.7,-0,49126.2,20747.7
step02_gravity_refstate-mantle.xmf,1634,1.12776e-06,2.44988e-06,0,-5.80838e-07,-1.49631e+09,-1.49614e+09,-1.49646e+09,-77629,0.0165481,0.0183953,0,0.0247433,-25411.6,-52295.5,-0,58142.6,77629
step02_gravity_refstate-mantle.xmf,1635,1.33378e-06,2.39894e-06,0,-5.29156e-07,-1.54026e+09,-1.54012e+09,-1.54044e+09,-70721.7,0.0184576,0.0150677,0,0.0238269,-25489.1,-53654.3,-0,59401,70721.7
step02_gravity_refstate-mantle.xmf,1636,9.02631e-07,2.51555e-06,0,-6.05711e-07,-1.45315e+09,-1.45294e+09,-1.45327e+09,-80953.3,0.0145153,0.0217914,0,0.0261832,-25241.7,-50960.9,-0,56869.7,80953.3
step02_gravity_refstate-mantle.xmf,1637,6.91669e-07,2.53274e-06,0,-5.77914e-07,-1.41006e+09,-1.40982e+09,-1.41016e+09,-77238.2,0.0119049,0.0249542,0,0.0276485,-25607.2,-49628.5,-0,55845.5,77238.2
step02_gravity_refstate-mantle.xmf,1638,4.46995e-07,2.57075e-06,0,-5.34065e-07,-1.36156e+09,-1.36128e+09,-1.36162e+09,-71377.8,0.00922453,0.0287435,0,0.0301874,-25676.5,-48128.7,-0,54549.6,71377.8
step02_gravity_refstate-mantle.xmf,1639,1.93467e-07,2.60584e-06,0,-4.60473e-07,-1.31042e+09,-1.3101e+09,-1.31045e+09,-61542.2,0.00644708,0.0328502,0,0.0334769,-25669.5,-46547.5,-0,53156.3,61542.2
step02_gravity_refstate-mantle.xmf,1640,1.60073e-06,2.23426e-06,0,-9.14122e-08,-1.69721e+09,-1.69713e+09,-1.69743e+09,-12217.2,0.0139614,0.00338964,0,0.014367,-30739.9,-58503.8,-0,66088.1,12217.2
step02_gravity_refstate-mantle.xmf,1641,1.59236e-06,2.28523e-06,0,-3.12968e-09,-1.74565e+09,-1.74555e+09,-1.74586e+09,-418.282,0.0125775,-3.45015e-19,0,0.0125775,-31694.1,-60000,-0,67856.6,418.282
step02_gravity_refstate-mantle.xmf,1642,-7.59077e-07,2.62345e-06,0,1.25924e-07,-1.09867e+09,-1.09821e+09,-1.09857e+09,16829.7,-0.00410925,0.0516441,-0,0.0518073,-24396.4,-40000,-0,46852.8,16829.7
step02_gravity_refstate-mantle.xmf,1643,-4.63184e-08,2.62168e-06,0,-3.59053e-07,-1.25831e+09,-1.25795e+09,-1.2583e+09,-47987.5,0.00370687,0.0370444,0,0.0372294,-25697.6,-44936.1,-0,51765.1,47987.5
step02_gravity_refstate-mantle.xmf,1644,1.41551e-06,2.30962e-06,0,-4.38477e-07,-1.56509e+09,-1.56497e+09,-1.56528e+09,-58602.4,0.0175122,0.0129106,0,0.0217568,-26856.3,-54421.6,-0,60687.5,58602.4
step02_gravity_refstate-mantle.xmf,1645,1.49272e-06,2.2431e-06,0,-3.32514e-07,-1.59748e+09,-1.59738e+09,-1.59768e+09,-44440.4,0.0163957,0.0104082,0,0.0194203,-28255.9,-55422.3,-0,62209.5,44440.4
step02_gravity_refstate-mantle.xmf,1646,1.557e-06,2.2057e-06,0,-2.08895e-07,-1.64115e+09,-1.64106e+09,-1.64136e+09,-27918.8,0.0148137,0.00726887,0,0.0165009,-29838.7,-56771.7,-0,64135.5,27918.8
step02_gravity_refstate-mantle.xmf,1647,1.54904e-06,2.20987e-06,0,-7.68145e-08,-1.69463e+09,-1.69455e+09,-1.69484e+09,-10266.3,0.0111328,0.00353532,0,0.0116807,-32526.1,-58423.8,-0,66867.6,10266.3
step02_gravity_refstate-mantle.xmf,1648,-5.35254e-07,2.62803e-06,0,-6.0115e-08,-1.14615e+09,-1.14573e+09,-1.14608e+09,-8034.38,-0.00173743,0.0467681,-0,0.0468003,-25153,-41468.4,-0,48500.5,8034.38
step02_gravity_refstate-mantle.xmf,1649,-2.71727e-07,2.60664e-06,0,-2.26283e-07,-1.20162e+09,-1.20123e+09,-1.20158e+09,-30242.8,0.000983003,0.0414846,0,0.0414963,-25849.5,-43183.3,-0,50328.9,30242.8
step02_gravity_refstate-mantle.xmf,1650,9.43096e-07,2.40767e-06,0,-5.42898e-07,-1.45366e+09,-1.45346e+09,-1.45378e+09,-72558.3,0.0131746,0.0210733,0,0.0248527,-26721.5,-50976.4,-0,57555.5,72558.3
step02_gravity_refstate-mantle.xmf,1651,1.21526e-06,2.34272e-06,0,-5.02488e-07,-1.51326e+09,-1.51311e+09,-1.51342e+09,-67157.5,0.0155913,0.0166379,0,0.0228015,-26867.7,-52819.3,-0,59260,67157.5
step02_gravity_refstate-mantle.xmf,1652,1.58971e-07,2.52344e-06,0,-3.98626e-07,-1.2852e+09,-1.28489e+09,-1.28522e+09,-53276.3,0.00494293,0.0338099,0,0.0341693,-27034.4,-45767.9,-0,53156,53276.3
step02_gravity_refstate-mantle.xmf,1653,6.67632e-07,2.44354e-06,0,-5.18266e-07,-1.39389e+09,-1.39366e+09,-1.39398e+09,-69266.3,0.0100719,0.0253955,0,0.0273199,-27103,-49128.7,-0,56108.8,69266.3
step02_gravity_refstate-mantle.xmf,1654,4.03416e-07,2.49058e-06,0,-4.72343e-07,-1.33829e+09,-1.33801e+09,-1.33835e+09,-63128.7,0.0074406,0.0296597,0,0.0305787,-27076.3,-47409.4,-0,54596.5,63128.7
step02_gravity_refstate-mantle.xmf,1655,1.53023e-06,2.18809e-06,0,-1.49757e-07,-1.65438e+09,-1.65429e+09,-1.65459e+09,-20015,0.0123631,0.00629243,0,0.0138723,-31532.3,-57180.2,-0,65298.2,20015
step02_gravity_refstate-mantle.xmf,1656,1.5445e-06,2.26666e-06,0,-4.82173e-09,-1.74566e+09,-1.74556e+09,-1.74586e+09,-644.424,0.00955741,-4.39708e-19,0,0.00955741,-33620.7,-60000,-0,68777.5,644.424
step02_gravity_refstate-mantle.xmf,1657,-6.11944e-07,2.53565e-06,0,6.63578e-08,-1.09864e+09,-1.09822e+09,-1.09856e+09,8868.72,-0.00297404,0.0494668,-0,0.0495561,-26050.1,-40000,-0,47734.8,8868.72
step02_gravity_refstate-mantle.xmf,1658,-4.72929e-08,2.54087e-06,0,-3.12181e-07,-1.23786e+09,-1.23751e+09,-1.23785e+09,-41723,0.00279398,0.0375752,0,0.0376789,-26963.9,-44304.2,-0,51864.3,41723
step02_gravity_refstate-mantle.xmf,1659,1.30968e-06,2.2596e-06,0,-4.14049e-07,-1.5407e+09,-1.54058e+09,-1.54088e+09,-55337.7,0.0146848,0.0143438,0,0.0205277,-28351.8,-53667.4,-0,60696.1,55337.7
step02_gravity_refstate-mantle.xmf,1660,1.39501e-06,2.19853e-06,0,-3.1371e-07,-1.5738e+09,-1.57369e+09,-1.57399e+09,-41927.3,0.0135027,0.0118498,0,0.017965,-29873.5,-54690.1,-0,62317.2,41927.3
step02_gravity_refstate-mantle.xmf,1661,1.44253e-06,2.16602e-06,0,-2.23408e-07,-1.60438e+09,-1.60428e+09,-1.60457e+09,-29858.4,0.0118533,0.00966044,0,0.0152914,-31441.1,-55634.9,-0,63904.6,29858.4
step02_gravity_refstate-mantle.xmf,1662,1.47261e-06,2.15796e-06,0,-1.43901e-07,-1.63688e+09,-1.63678e+09,-1.63707e+09,-19232.4,0.0100375,0.00742253,0,0.0124838,-32963.5,-56639,-0,65532.9,19232.4
step02_gravity_refstate-mantle.xmf,1663,1.49555e-06,2.17794e-06,0,-6.9991e-08,-1.67996e+09,-1.67987e+09,-1.68016e+09,-9354.3,0.00787034,0.00450393,0,0.00906795,-34623.4,-57970.1,-0,67522.7,9354.3
step02_gravity_refstate-mantle.xmf,1664,-3.91004e-07,2.53087e-06,0,-9.96858e-08,-1.14793e+09,-1.14754e+09,-1.14788e+09,-13323,-0.000866975,0.0447128,-0,0.0447212,-26880.4,-41524,-0,49465.1,13323
step02_gravity_refstate-mantle.xmf,1665,-1.60206e-07,2.49526e-06,0,-2.19495e-07,-1.19588e+09,-1.19553e+09,-1.19586e+09,-29335.5,0.00115638,0.0402124,0,0.040229,-27758.3,-43006.7,-0,51186.9,29335.5
step02_gravity_refstate-mantle.xmf,1666,1.09458e-06,2.2947e-06,0,-4.61864e-07,-1.48348e+09,-1.48332e+09,-1.48363e+09,-61728.1,0.0127222,0.0183711,0,0.0223462,-28368.8,-51898.5,-0,59145.9,61728.1
step02_gravity_refstate-mantle.xmf,1667,8.47591e-07,2.34055e-06,0,-4.75805e-07,-1.42529e+09,-1.42509e+09,-1.4254e+09,-63591.4,0.010423,0.0225269,0,0.0248214,-28438.3,-50099.3,-0,57607.9,63591.4
step02_gravity_refstate-mantle.xmf,1668,9.34116e-08,2.44958e-06,0,-3.1835e-07,-1.24974e+09,-1.24942e+09,-1.24975e+09,-42547.4,0.00324731,0.0355359,0,0.035684,-28553.1,-44671.8,-0,53017.4,42547.4
step02_gravity_refstate-mantle.xmf,1669,3.45212e-07,2.42393e-06,0,-4.02737e-07,-1.31062e+09,-1.31034e+09,-1.31067e+09,-53825.8,0.0056779,0.0309611,0,0.0314774,-28518.8,-46554.2,-0,54595,53825.8
step02_gravity_refstate-mantle.xmf,1670,5.93097e-07,2.38525e-06,0,-4.53596e-07,-1.36729e+09,-1.36705e+09,-1.36737e+09,-60623.1,0.00801079,0.0267427,0,0.0279167,-28513.8,-48306.3,-0,56094,60623.1
step02_gravity_refstate-mantle.xmf,1671,1.50536e-06,2.25728e-06,0,-2.88634e-09,-1.74567e+09,-1.74557e+09,-1.74587e+09,-385.759,0.00647055,-3.72598e-19,0,0.00647055,-35643.8,-60000,-0,69788.8,385.759
step02_gravity_refstate-mantle.xmf,1672,-4.72212e-07,2.44833e-06,0,2.3507e-08,-1.09862e+09,-1.09823e+09,-1.09856e+09,3141.71,-0.00203503,0.0476431,-0,0.0476866,-27779.3,-40000,-0,48700,3141.71
step02_gravity_refstate-mantle.xmf,1673,1.20439e-06,2.21996e-06,0,-3.79517e-07,-1.51378e+09,-1.51365e+09,-1.51394e+09,-50722.5,0.0119411,0.0159449,0,0.0199206,-29895.7,-52835,-0,60706.6,50722.5
step02_gravity_refstate-mantle.xmf,1674,1.29221e-06,2.16691e-06,0,-2.90255e-07,-1.54532e+09,-1.5452e+09,-1.54549e+09,-38792.6,0.010754,0.0136137,0,0.0173488,-31457.8,-53809.5,-0,62330.2,38792.6
step02_gravity_refstate-mantle.xmf,1675,1.35568e-06,2.13764e-06,0,-2.0556e-07,-1.57743e+09,-1.57732e+09,-1.57761e+09,-27473.1,0.00920626,0.0113648,0,0.0146258,-33044.7,-54801.8,-0,63993.7,27473.1
step02_gravity_refstate-mantle.xmf,1676,1.40196e-06,2.12925e-06,0,-1.316e-07,-1.61047e+09,-1.61038e+09,-1.61066e+09,-17588.3,0.00741837,0.00912641,0,0.0117611,-34613.5,-55822.9,-0,65683.2,17588.3
step02_gravity_refstate-mantle.xmf,1677,1.47337e-06,2.17836e-06,0,-3.74938e-08,-1.68988e+09,-1.68979e+09,-1.69008e+09,-5011.04,0.00474822,0.00381953,0,0.0060938,-36751,-58276.4,-0,68896.8,5011.04
step02_gravity_refstate-mantle.xmf,1678,1.48158e-06,2.25191e-06,0,-1.59435e-09,-1.74567e+09,-1.74557e+09,-1.74587e+09,-213.084,0.00329693,-3.43274e-19,0,0.00329693,-37768.5,-60000,-0,70897.5,213.084
step02_gravity_refstate-mantle.xmf,1679,-2.66712e-07,2.43846e-06,0,-1.14251e-07,-1.14733e+09,-1.14696e+09,-1.14729e+09,-15269.6,-0.000296382,0.0432081,-0,0.0432091,-28673.8,-41505.9,-0,50447.2,15269.6
step02_gravity_refstate-mantle.xmf,1680,-5.4934e-08,2.40987e-06,0,-2.11477e-07,-1.19667e+09,-1.19634e+09,-1.19666e+09,-28263.9,0.00136841,0.0389694,0,0.0389934,-29466.3,-43031.4,-0,52153.3,28263.9
step02_gravity_refstate-mantle.xmf,1681,9.92217e-07,2.25244e-06,0,-4.08618e-07,-1.45533e+09,-1.45516e+09,-1.45546e+09,-54611.8,0.0101127,0.0199783,0,0.022392,-29947.1,-51028.1,-0,59166.7,54611.8
step02_gravity_refstate-mantle.xmf,1682,7.57465e-07,2.29431e-06,0,-4.10148e-07,-1.39677e+09,-1.39656e+09,-1.39687e+09,-54816.3,0.00812312,0.0240891,0,0.0254218,-29990.1,-49217.7,-0,57634.9,54816.3
step02_gravity_refstate-mantle.xmf,1683,2.95119e-07,2.3664e-06,0,-3.32028e-07,-1.28365e+09,-1.28337e+09,-1.28369e+09,-44375.5,0.00419633,0.0322569,0,0.0325287,-29996.4,-45720.5,-0,54682.2,44375.5
step02_gravity_refstate-mantle.xmf,1684,5.19763e-07,2.33453e-06,0,-3.82785e-07,-1.33899e+09,-1.33874e+09,-1.33906e+09,-51159.2,0.00610396,0.0282234,0,0.0288759,-30011.4,-47431.3,-0,56128.5,51159.2
step02_gravity_refstate-mantle.xmf,1685,1.42806e-06,2.13742e-06,0,-7.82672e-08,-1.63961e+09,-1.63952e+09,-1.63981e+09,-10460.4,0.00555663,0.00717706,0,0.0090767,-36070.6,-56723.2,-0,67220.6,10460.4
step02_gravity_refstate-mantle.xmf,1686,1.46334e-06,2.18198e-06,0,-1.41721e-08,-1.69423e+09,-1.69413e+09,-1.69442e+09,-1894.09,0.0023261,0.0035209,0,0.00421989,-38406.3,-58410.5,-0,69905.9,1894.09
step02_gravity_refstate-mantle.xmf,1687,1.48254e-06,2.24667e-06,0,1.62359e-09,-1.74567e+09,-1.74557e+09,-1.74587e+09,216.992,-2.27153e-19,1.49296e-18,-0,1.51014e-18,-40000,-60000,-0,72111,216.992
step02_gravity_refstate-mantle.xmf,1688,-3.44761e-07,2.36592e-06,0,-4.78403e-09,-1.0986e+09,-1.09824e+09,-1.09855e+09,-639.386,-0.0012943,0.046145,-0,0.0461632,-29588.3,-40000,-0,49754.1,639.386
step02_gravity_refstate-mantle.xmf,1689,1.28686e-07,2.37739e-06,0,-2.71646e-07,-1.23883e+09,-1.23853e+09,-1.23885e+09,-36305.4,0.00269163,0.0354958,0,0.0355977,-30106.9,-44334.9,-0,53591.1,36305.4
step02_gravity_refstate-mantle.xmf,1690,1.10415e-06,2.1886e-06,0,-3.33586e-07,-1.48573e+09,-1.48558e+09,-1.48588e+09,-44583.7,0.00934844,0.0176203,0,0.0199466,-31494.7,-51967.6,-0,60766.4,44583.7
step02_gravity_refstate-mantle.xmf,1691,1.19649e-06,2.14244e-06,0,-2.51616e-07,-1.51677e+09,-1.51665e+09,-1.51693e+09,-33628.5,0.00815904,0.0153732,0,0.0174041,-33097.4,-52927.1,-0,62423.6,33628.5
step02_gravity_refstate-mantle.xmf,1692,1.26932e-06,2.11614e-06,0,-1.72822e-07,-1.54852e+09,-1.54841e+09,-1.54869e+09,-23097.7,0.00660806,0.0131863,0,0.0147494,-34734.5,-53908.1,-0,64129.3,23097.7
step02_gravity_refstate-mantle.xmf,1693,1.32791e-06,2.10855e-06,0,-1.06266e-07,-1.58126e+09,-1.58116e+09,-1.58144e+09,-14202.4,0.00488976,0.0110004,0,0.0120382,-36293.4,-54919.9,-0,65828.6,14202.4
step02_gravity_refstate-mantle.xmf,1694,1.40626e-06,2.12481e-06,0,-4.11267e-08,-1.63415e+09,-1.63405e+09,-1.63434e+09,-5496.58,0.00281158,0.00751961,0,0.00802805,-37993.4,-56554.2,-0,68131.3,5496.58
step02_gravity_refstate-mantle.xmf,1695,1.44747e-06,2.15548e-06,0,4.77851e-10,-1.67393e+09,-1.67384e+09,-1.67413e+09,63.8648,-2.76378e-19,0.00488108,-0,0.00488108,-40000,-57783.5,-0,70277.5,63.8648
step02_gravity_refstate-mantle.xmf,1696,-1.54093e-07,2.35818e-06,0,-1.17312e-07,-1.14824e+09,-1.14791e+09,-1.14822e+09,-15678.8,0.00011549,0.0419254,0,0.0419256,-30505.6,-41534.8,-0,51533.8,15678.8
step02_gravity_refstate-mantle.xmf,1697,4.25466e-08,2.33785e-06,0,-1.9592e-07,-1.20062e+09,-1.20031e+09,-1.20062e+09,-26184.7,0.00149329,0.0377803,0,0.0378098,-31170.8,-43153.8,-0,53234.1,26184.7
step02_gravity_refstate-mantle.xmf,1698,8.96017e-07,2.21993e-06,0,-3.48769e-07,-1.4265e+09,-1.42632e+09,-1.42662e+09,-46613,0.00777123,0.021654,0,0.0230063,-31521.5,-50136.8,-0,59222.5,46613
step02_gravity_refstate-mantle.xmf,1699,6.71309e-07,2.25768e-06,0,-3.40661e-07,-1.36739e+09,-1.36718e+09,-1.36748e+09,-45529.3,0.00609084,0.0257456,0,0.0264563,-31544.4,-48309.6,-0,57696.3,45529.3
step02_gravity_refstate-mantle.xmf,1700,2.39343e-07,2.3169e-06,0,-2.58213e-07,-1.25355e+09,-1.25328e+09,-1.25359e+09,-34510.2,0.00287194,0.0338301,0,0.0339518,-31499.9,-44790.4,-0,54757.8,34510.2
step02_gravity_refstate-mantle.xmf,1701,4.4859e-07,2.29111e-06,0,-3.08139e-07,-1.30929e+09,-1.30904e+09,-1.30935e+09,-41182.8,0.00441116,0.0298305,0,0.0301549,-31569.9,-46513.3,-0,56215.2,41182.8
step02_gravity_refstate-mantle.xmf,1702,-2.33534e-07,2.29239e-06,0,-2.09319e-08,-1.09858e+09,-1.09824e+09,-1.09855e+09,-2797.54,-0.000745652,0.0449467,-0,0.0449529,-31481.8,-40000,-0,50902.9,2797.54
step02_gravity_refstate-mantle.xmf,1703,1.00852e-06,2.1651e-06,0,-2.7807e-07,-1.45672e+09,-1.45656e+09,-1.45685e+09,-37164.1,0.00696387,0.0193681,0,0.020582,-33126.1,-51070.8,-0,60873.4,37164.1
step02_gravity_refstate-mantle.xmf,1704,1.10411e-06,2.12556e-06,0,-2.01821e-07,-1.48724e+09,-1.4871e+09,-1.48739e+09,-26973.4,0.00576542,0.0172013,0,0.0181418,-34761,-52014.2,-0,62560.4,26973.4
step02_gravity_refstate-mantle.xmf,1705,1.18824e-06,2.10179e-06,0,-1.24569e-07,-1.51996e+09,-1.51984e+09,-1.52012e+09,-16648.7,0.00414618,0.0149828,0,0.0155459,-36497.6,-53025.4,-0,64372.1,16648.7
step02_gravity_refstate-mantle.xmf,1706,1.27664e-06,2.09453e-06,0,-5.47634e-08,-1.56048e+09,-1.56037e+09,-1.56065e+09,-7319.12,0.00226416,0.0123203,0,0.0125266,-38222.4,-54277.7,-0,66385.4,7319.12
step02_gravity_refstate-mantle.xmf,1707,1.35618e-06,2.10416e-06,0,-9.07377e-12,-1.6024e+09,-1.6023e+09,-1.60258e+09,-1.21271,-2.2482e-19,0.00959048,-0,0.00959048,-40000,-55573.1,-0,68471.7,1.21271
step02_gravity_refstate-mantle.xmf,1708,-4.50129e-08,2.29214e-06,0,-1.16412e-07,-1.15435e+09,-1.15404e+09,-1.15434e+09,-15558.4,0.000439782,0.0405649,0,0.0405673,-32378.8,-41723.9,-0,52813.6,15558.4
step02_gravity_refstate-mantle.xmf,1709,1.5394e-07,2.2756e-06,0,-1.77773e-07,-1.21346e+09,-1.21317e+09,-1.21348e+09,-23759.3,0.0016153,0.0361664,0,0.0362024,-32987.6,-43551.1,-0,54634,23759.3
step02_gravity_refstate-mantle.xmf,1710,8.04645e-07,2.19421e-06,0,-2.81419e-07,-1.39688e+09,-1.39669e+09,-1.39698e+09,-37611.7,0.00564726,0.023398,0,0.0240699,-33158.1,-49221.1,-0,59347.9,37611.7
step02_gravity_refstate-mantle.xmf,1711,5.91377e-07,2.22712e-06,0,-2.66717e-07,-1.33769e+09,-1.33747e+09,-1.33777e+09,-35646.7,0.00430244,0.0274452,0,0.0277803,-33173.4,-47391.5,-0,57848.3,35646.7
step02_gravity_refstate-mantle.xmf,1712,3.69167e-07,2.25605e-06,0,-2.3122e-07,-1.27573e+09,-1.27548e+09,-1.27578e+09,-30902.6,0.00291686,0.03175,0,0.0318837,-33153.8,-45476,-0,56278.3,30902.6
step02_gravity_refstate-mantle.xmf,1713,-1.41744e-07,2.23096e-06,0,-2.73807e-08,-1.09857e+09,-1.09825e+09,-1.09855e+09,-3659.43,-0.000373586,0.044026,-0,0.0440276,-33464.7,-40000,-0,52152.5,3659.43
step02_gravity_refstate-mantle.xmf,1714,9.1464e-07,2.14875e-06,0,-2.13472e-07,-1.42634e+09,-1.42617e+09,-1.42646e+09,-28530.5,0.00478178,0.0212201,0,0.0217522,-34814.6,-50131.7,-0,61034.7,28530.5
step02_gravity_refstate-mantle.xmf,1715,1.01705e-06,2.11504e-06,0,-1.39594e-07,-1.45797e+09,-1.45782e+09,-1.45811e+09,-18656.7,0.00355236,0.0190218,0,0.0193506,-36508.4,-51109.5,-0,62809.6,18656.7
step02_gravity_refstate-mantle.xmf,1716,1.11545e-06,2.09474e-06,0,-6.42074e-08,-1.4931e+09,-1.49297e+09,-1.49325e+09,-8581.32,0.00190425,0.0166811,0,0.0167894,-38290.2,-52195.3,-0,64734,8581.32
step02_gravity_refstate-mantle.xmf,1717,1.21047e-06,2.08852e-06,0,-2.37108e-10,-1.53091e+09,-1.53079e+09,-1.53107e+09,-31.6894,-1.90653e-19,0.0142229,-0,0.0142229,-40000,-53363.7,-0,66690.9,31.6894
step02_gravity_refstate-mantle.xmf,1718,6.89143e-08,2.23082e-06,0,-1.02552e-07,-1.16811e+09,-1.16782e+09,-1.16812e+09,-13706,0.000645727,0.038859,0,0.0388644,-34600.4,-42149.6,-0,54532.4,13706
step02_gravity_refstate-mantle.xmf,1719,2.90534e-07,2.2286e-06,0,-1.60512e-07,-1.24161e+09,-1.24135e+09,-1.24165e+09,-21452.4,0.00176459,0.0337697,0,0.0338158,-34662.8,-44421.5,-0,56345.2,21452.4
step02_gravity_refstate-mantle.xmf,1720,7.12889e-07,2.17657e-06,0,-2.10648e-07,-1.36561e+09,-1.36542e+09,-1.36571e+09,-28153.2,0.0037921,0.0252836,0,0.0255664,-34800.5,-48254.6,-0,59494.4,28153.2
step02_gravity_refstate-mantle.xmf,1721,5.0052e-07,2.20682e-06,0,-1.94437e-07,-1.30403e+09,-1.3038e+09,-1.30409e+09,-25986.5,0.00278291,0.0294708,0,0.0296019,-34734.7,-46350.9,-0,57921.6,25986.5
step02_gravity_refstate-mantle.xmf,1722,-8.127e-08,2.18203e-06,0,-2.05386e-08,-1.09856e+09,-1.09825e+09,-1.09855e+09,-2744.98,-0.000150606,0.0433666,-0,0.0433668,-35541.8,-40000,-0,53509.1,2744.98
step02_gravity_refstate-mantle.xmf,1723,-2.68256e-08,2.14973e-06,0,-1.31609e-08,-1.09855e+09,-1.09826e+09,-1.09854e+09,-1758.95,-4.32188e-05,0.0429633,-0,0.0429633,-37718.5,-40000,-0,54978.9,1758.95
step02_gravity_refstate-mantle.xmf,1724,8.23369e-08,2.18932e-06,0,-5.54034e-08,-1.15496e+09,-1.15468e+09,-1.15497e+09,-7404.66,0.000329978,0.039306,0,0.0393074,-36787.7,-41743.4,-0,55640.3,7404.66
step02_gravity_refstate-mantle.xmf,1725,8.15366e-07,2.14083e-06,0,-1.42652e-07,-1.3931e+09,-1.39292e+09,-1.39321e+09,-19065.4,0.00284401,0.0232869,0,0.02346,-36536.8,-49104.2,-0,61205.9,19065.4
step02_gravity_refstate-mantle.xmf,1726,9.19783e-07,2.114e-06,0,-6.93923e-08,-1.4247e+09,-1.42454e+09,-1.42482e+09,-9274.28,0.00156438,0.0211295,0,0.0211874,-38299.4,-50081.1,-0,63047.3,9274.28
step02_gravity_refstate-mantle.xmf,1727,1.02336e-06,2.09873e-06,0,-5.67396e-10,-1.45942e+09,-1.45928e+09,-1.45956e+09,-75.8325,-1.58164e-19,0.0188484,-0,0.0188484,-40000,-51154.3,-0,64936.6,75.8325
step02_gravity_refstate-mantle.xmf,1728,2.46826e-07,2.2009e-06,0,-9.92967e-08,-1.21641e+09,-1.21614e+09,-1.21644e+09,-13271,0.000964471,0.0351938,0,0.0352071,-36381.8,-43642.6,-0,56818.2,13271
step02_gravity_refstate-mantle.xmf,1729,8.28856e-08,2.16872e-06,0,-2.22257e-08,-1.14528e+09,-1.145e+09,-1.14529e+09,-2970.47,0.000125782,0.0397628,0,0.039763,-38552.5,-41444.4,-0,56603.3,2970.47
step02_gravity_refstate-mantle.xmf,1730,-1.86297e-08,2.14289e-06,0,2.44328e-09,-1.09855e+09,-1.09826e+09,-1.09854e+09,326.544,-9.94955e-21,0.0428239,-0,0.0428239,-40000,-40000,-0,56568.5,326.544
step02_gravity_refstate-mantle.xmf,1731,4.21231e-07,2.19682e-06,0,-1.35747e-07,-1.2739e+09,-1.27367e+09,-1.27396e+09,-18142.5,0.00171823,0.0313237,0,0.0313708,-36088.1,-45419.9,-0,58011.3,18142.5
step02_gravity_refstate-mantle.xmf,1732,6.08939e-07,2.16763e-06,0,-1.36905e-07,-1.32968e+09,-1.32948e+09,-1.32976e+09,-18297.4,0.00217183,0.0275153,0,0.0276009,-36489.4,-47144.1,-0,59615.7,18297.4
step02_gravity_refstate-mantle.xmf,1733,2.29626e-07,2.18269e-06,0,-4.53725e-08,-1.20253e+09,-1.20227e+09,-1.20256e+09,-6064.04,0.000410006,0.0359325,0,0.0359349,-38256.3,-43213.7,-0,57714.6,6064.04
step02_gravity_refstate-mantle.xmf,1734,1.53787e-07,2.17393e-06,0,1.41198e-09,-1.17183e+09,-1.17156e+09,-1.17185e+09,188.711,-1.1595e-20,0.0379344,-0,0.0379344,-40000,-42265,-0,58192.2,188.711
step02_gravity_refstate-mantle.xmf,1735,6.98653e-07,2.14289e-06,0,-6.79343e-08,-1.35428e+09,-1.35408e+09,-1.35437e+09,-9079.42,0.00118595,0.0257622,0,0.0257895,-38308.4,-47904.3,-0,61338,9079.42
step02_gravity_refstate-mantle.xmf,1736,8.0883e-07,2.12421e-06,0,-8.7171e-10,-1.38793e+09,-1.38776e+09,-1.38804e+09,-116.504,-1.2167e-19,0.0235137,-0,0.0235137,-40000,-48944.6,-0,63210.5,116.504
step02_gravity_refstate-mantle.xmf,1737,4.4963e-07,2.17033e-06,0,-7.16078e-08,-1.27659e+09,-1.27636e+09,-1.27665e+09,-9570.38,0.000937424,0.030965,0,0.0309792,-37936.6,-45503,-0,59242.8,9570.38
step02_gravity_refstate-mantle.xmf,1738,3.58848e-07,2.1735e-06,0,1.3224e-09,-1.24435e+09,-1.24411e+09,-1.2444e+09,176.739,-2.16436e-20,0.0330606,-0,0.0330606,-40000,-44506.4,-0,59840,176.739
step02_gravity_refstate-mantle.xmf,1739,5.82367e-07,2.15323e-06,0,-1.86615e-09,-1.31631e+09,-1.3161e+09,-1.31639e+09,-249.411,-9.97664e-20,0.0282485,-0,0.0282485,-40000,-46730.8,-0,61512.3,249.411
step02_gravity_refstate-intrusion.xmf,0,-4.75531e-06,1.93845e-05,0,-1.21147e-05,-1.58376e+09,-1.58109e+09,-1.58324e+09,-1.34163e+06,-0.0354182,0.111062,-0,0.116573,4000,-54998.6,0,55143.8,1.34163e+06
step02_gravity_refstate-intrusion.xmf,1,-4.47087e-06,1.72874e-05,0,-1.30548e-05,-1.56767e+09,-1.56526e+09,-1.56717e+09,-1.44573e+06,-0.0313802,0.120229,-0,0.124257,4000,-54498.4,0,54645,1.44573e+06
step02_gravity_refstate-intrusion.xmf,2,-4.13194e-06,1.52151e-05,0,-1.37856e-05,-1.5516e+09,-1.54945e+09,-1.55114e+09,-1.52668e+06,-0.0269234,0.128328,-0,0.131122,4000,-53999.3,0,54147.3,1.52668e+06
step02_gravity_refstate-intrusion.xmf,3,-3.77306e-06,1.30325e-05,0,-1.43138e-05,-1.5355e+09,-1.53363e+09,-1.53508e+09,-1.58516e+06,-0.0221933,0.135382,-0,0.137189,4000,-53499.2,0,53648.6,1.58516e+06
step02_gravity_refstate-intrusion.xmf,4,-5.1914e-06,2.14164e-05,0,-1.0676e-05,-1.59986e+09,-1.59691e+09,-1.59928e+09,-1.1823e+06,-0.0387707,0.100878,-0,0.108072,4000,-55497.8,0,55641.7,1.1823e+06
step02_gravity_refstate-intrusion.xmf,5,-3.41519e-06,1.09348e-05,0,-1.4635e-05,-1.51941e+09,-1.51782e+09,-1.51903e+09,-1.62074e+06,-0.017341,0.141364,-0,0.142424,4000,-52999.8,0,53150.5,1.62074e+06
step02_gravity_refstate-intrusion.xmf,6,-6.71354e-06,2.50994e-05,0,-8.5798e-06,-1.61613e+09,-1.61261e+09,-1.61539e+09,-950161,-0.0408385,0.089679,-0,0.0985399,4000,-56000,0,56142.7,950161
step02_gravity_refstate-intrusion.xmf,7,-3.05466e-06,8.79695e-06,0,-1.47798e-05,-1.50333e+09,-1.50201e+09,-1.50299e+09,-1.63677e+06,-0.0124725,0.146285,-0,0.146816,4000,-52500.3,0,52652.5,1.63677e+06
step02_gravity_refstate-intrusion.xmf,8,-2.6934e-06,6.67712e-06,0,-1.47304e-05,-1.48722e+09,-1.48618e+09,-1.48692e+09,-1.63131e+06,-0.0076939,0.150155,-0,0.150352,4000,-52000.2,0,52153.8,1.63131e+06
step02_gravity_refstate-intrusion.xmf,9,-2.34293e-06,4.61272e-06,0,-1.44898e-05,-1.47115e+09,-1.47038e+09,-1.47089e+09,-1.60466e+06,-0.00314175,0.152974,-0,0.153006,4000,-51501.2,0,51656.3,1.60466e+06
step02_gravity_refstate-intrusion.xmf,10,-8.34416e-06,3.01067e-05,0,-8.03055e-06,-1.61608e+09,-1.61182e+09,-1.61515e+09,-889334,-0.037055,0.0988173,-0,0.105536,3497.18,-56000,0,56109.1,889334
step02_gravity_refstate-intrusion.xmf,11,-2.05045e-06,2.57597e-06,0,-1.41083e-05,-1.45504e+09,-1.45453e+09,-1.45482e+09,-1.56241e+06,0.00105711,0.154773,0,0.154777,4000,-51001,0,51157.6,1.56241e+06
step02_gravity_refstate-intrusion.xmf,12,-9.41403e-06,3.30011e-05,0,-6.648e-06,-1.61607e+09,-1.61137e+09,-1.61502e+09,-736225,-0.0326188,0.106917,-0,0.111782,2997.53,-56000,0,56080.2,736225
step02_gravity_refstate-intrusion.xmf,13,-1.65073e-06,6.56928e-07,0,-1.33858e-05,-1.43895e+09,-1.43869e+09,-1.43876e+09,-1.4824e+06,0.00468509,0.155573,0,0.155644,4000,-50501.8,0,50659.9,1.4824e+06
step02_gravity_refstate-intrusion.xmf,14,-1.01741e-05,3.50108e-05,0,-5.3039e-06,-1.61606e+09,-1.61106e+09,-1.61494e+09,-587375,-0.0277226,0.113679,-0,0.11701,2497.35,-56000,0,56055.7,587375
step02_gravity_refstate-intrusion.xmf,15,-1.07081e-05,3.64385e-05,0,-4.07339e-06,-1.61606e+09,-1.61084e+09,-1.61487e+09,-451103,-0.0225034,0.119104,-0,0.121211,1997.54,-56000,0,56035.6,451103
step02_gravity_refstate-intrusion.xmf,16,3.90799e-08,-2.39592e-06,0,-1.19069e-05,-1.42261e+09,-1.42288e+09,-1.42262e+09,-1.31862e+06,0.00737626,0.155503,0,0.155678,4000,-50000,0,50159.7,1.31862e+06
step02_gravity_refstate-intrusion.xmf,17,-1.10899e-05,3.74503e-05,0,-2.94468e-06,-1.61606e+09,-1.61068e+09,-1.61483e+09,-326105,-0.01706,0.123244,-0,0.124419,1498.34,-56000,0,56020,326105
step02_gravity_refstate-intrusion.xmf,18,1.02778e-06,-6.38419e-06,0,-1.02994e-05,-1.42271e+09,-1.42353e+09,-1.42283e+09,-1.14059e+06,0.00709196,0.168053,0,0.168202,3499.28,-50000,0,50122.3,1.14059e+06
step02_gravity_refstate-intrusion.xmf,19,-1.13464e-05,3.81423e-05,0,-1.90836e-06,-1.61605e+09,-1.61057e+09,-1.6148e+09,-211339,-0.0114619,0.126156,-0,0.126676,999.46,-56000,0,56008.9,211339
step02_gravity_refstate-intrusion.xmf,20,1.61412e-06,-8.60478e-06,0,-8.51801e-06,-1.42276e+09,-1.4239e+09,-1.42294e+09,-943318,0.00642402,0.178654,0,0.17877,2999.32,-50000,0,50089.9,943318
step02_gravity_refstate-intrusion.xmf,21,1.95068e-06,-1.00399e-05,0,-6.85092e-06,-1.4228e+09,-1.42413e+09,-1.42302e+09,-758697,0.00552932,0.187419,0,0.187501,2499.83,-50000,0,50062.5,758697
step02_gravity_refstate-intrusion.xmf,22,-1.14948e-05,3.85423e-05,0,-9.32268e-07,-1.61605e+09,-1.61051e+09,-1.61478e+09,-103243,-0.00575863,0.127888,-0,0.128018,500.036,-56000,0,56002.2,103243
step02_gravity_refstate-intrusion.xmf,23,-1.15385e-05,3.86616e-05,0,6.92135e-09,-1.61605e+09,-1.61049e+09,-1.61477e+09,766.498,1.208e-07,0.128464,0,0.128464,-4.01542e-10,-56000,-0,56000,766.498
step02_gravity_refstate-intrusion.xmf,24,2.13483e-06,-1.09894e-05,0,-5.30987e-06,-1.42284e+09,-1.42429e+09,-1.42307e+09,-588036,0.00450626,0.194461,0,0.194513,2000,-50000,0,50040,588036
step02_gravity_refstate-intrusion.xmf,25,-1.14901e-05,3.85248e-05,0,9.56241e-07,-1.61605e+09,-1.61051e+09,-1.61478e+09,105898,0.00575853,0.127888,0,0.128018,-500.036,-56000,-0,56002.2,105898
step02_gravity_refstate-intrusion.xmf,26,2.2305e-06,-1.16328e-05,0,-3.86874e-06,-1.42287e+09,-1.4244e+09,-1.42311e+09,-428439,0.00341387,0.199851,0,0.19988,1500.17,-50000,0,50022.5,428439
step02_gravity_refstate-intrusion.xmf,27,2.27484e-06,-1.20183e-05,0,-2.52769e-06,-1.42289e+09,-1.42447e+09,-1.42314e+09,-279927,0.00228953,0.203653,0,0.203666,1000.68,-50000,0,50010,279927
step02_gravity_refstate-intrusion.xmf,28,-1.13439e-05,3.81246e-05,0,1.9297e-06,-1.61605e+09,-1.61058e+09,-1.6148e+09,213703,0.0114625,0.126156,0,0.126675,-999.46,-56000,-0,56008.9,213703
step02_gravity_refstate-intrusion.xmf,29,2.28845e-06,-1.22345e-05,0,-1.2443e-06,-1.4229e+09,-1.42451e+09,-1.42315e+09,-137799,0.00114791,0.205919,0,0.205922,500.717,-50000,0,50002.5,137799
step02_gravity_refstate-intrusion.xmf,30,-1.10911e-05,3.7437e-05,0,2.97078e-06,-1.61606e+09,-1.61068e+09,-1.61483e+09,328995,0.0170606,0.123243,0,0.124418,-1498.34,-56000,-0,56020,328995
step02_gravity_refstate-intrusion.xmf,31,2.29619e-06,-1.23016e-05,0,1.3622e-08,-1.4229e+09,-1.42452e+09,-1.42316e+09,1508.55,-7.16289e-08,0.206672,-0,0.206672,0,-50000,0,50000,1508.55
step02_gravity_refstate-intrusion.xmf,32,-1.07107e-05,3.64134e-05,0,4.1061e-06,-1.61606e+09,-1.61084e+09,-1.61487e+09,454726,0.0225038,0.119104,0,0.121211,-1997.54,-56000,-0,56035.6,454726
step02_gravity_refstate-intrusion.xmf,33,2.29065e-06,-1.22272e-05,0,1.27275e-06,-1.4229e+09,-1.42451e+09,-1.42315e+09,140949,-0.0011481,0.205919,-0,0.205922,-500.717,-50000,-0,50002.5,140949
step02_gravity_refstate-intrusion.xmf,34,2.27429e-06,-1.20062e-05,0,2.56207e-06,-1.42288e+09,-1.42447e+09,-1.42314e+09,283733,-0.00228903,0.203653,-0,0.203666,-1000.68,-50000,-0,50010,283733
step02_gravity_refstate-intrusion.xmf,35,-1.0169e-05,3.49735e-05,0,5.35653e-06,-1.61606e+09,-1.61106e+09,-1.61494e+09,593203,0.0277225,0.113679,0,0.117011,-2497.35,-56000,-0,56055.7,593203
step02_gravity_refstate-intrusion.xmf,36,2.23165e-06,-1.16094e-05,0,3.91014e-06,-1.42286e+09,-1.4244e+09,-1.42311e+09,433025,-0.00341415,0.199851,-0,0.19988,-1500.17,-50000,-0,50022.5,433025
step02_gravity_refstate-intrusion.xmf,37,2.14063e-06,-1.0985e-05,0,5.3478e-06,-1.42284e+09,-1.42429e+09,-1.42307e+09,592236,-0.00450622,0.19446,-0,0.194512,-2000,-50000,-0,50040,592236
step02_gravity_refstate-intrusion.xmf,38,-9.41867e-06,3.30022e-05,0,6.74479e-06,-1.61607e+09,-1.61137e+09,-1.61502e+09,746944,0.0326188,0.106917,0,0.111782,-2997.53,-56000,-0,56080.2,746944
step02_gravity_refstate-intrusion.xmf,39,1.96609e-06,-1.00468e-05,0,6.89966e-06,-1.4228e+09,-1.42413e+09,-1.42302e+09,764096,-0.00552935,0.187419,-0,0.1875,-2499.83,-50000,-0,50062.5,764096
step02_gravity_refstate-intrusion.xmf,40,-8.34009e-06,3.02718e-05,0,8.36168e-06,-1.61606e+09,-1.61179e+09,-1.61514e+09,926005,0.037054,0.0988176,0,0.105536,-3497.18,-56000,-0,56109.1,926005
step02_gravity_refstate-intrusion.xmf,41,1.64058e-06,-8.63993e-06,0,8.58121e-06,-1.42276e+09,-1.4239e+09,-1.42294e+09,950316,-0.00642479,0.178653,-0,0.178769,-2999.32,-50000,-0,50089.9,950316
step02_gravity_refstate-intrusion.xmf,42,-4.7476e-06,1.93777e-05,0,1.21058e-05,-1.58376e+09,-1.58109e+09,-1.58324e+09,1.34065e+06,0.0354182,0.111061,0,0.116572,-4000,-54998.6,-0,55143.8,1.34065e+06
step02_gravity_refstate-intrusion.xmf,43,-4.49279e-06,1.72858e-05,0,1.30784e-05,-1.56767e+09,-1.56526e+09,-1.56717e+09,1.44836e+06,0.0313799,0.120229,0,0.124257,-4000,-54498.4,-0,54645,1.44836e+06
step02_gravity_refstate-intrusion.xmf,44,-4.17431e-06,1.51866e-05,0,1.38114e-05,-1.5516e+09,-1.54946e+09,-1.55114e+09,1.52953e+06,0.0269242,0.128327,0,0.131121,-4000,-53999.3,-0,54147.3,1.52953e+06
step02_gravity_refstate-intrusion.xmf,45,-3.80504e-06,1.3037e-05,0,1.4335e-05,-1.5355e+09,-1.53364e+09,-1.53508e+09,1.58752e+06,0.0221963,0.135383,0,0.13719,-4000,-53499.2,-0,53648.6,1.58752e+06
step02_gravity_refstate-intrusion.xmf,46,-3.4449e-06,1.09158e-05,0,1.46728e-05,-1.51942e+09,-1.51783e+09,-1.51903e+09,1.62492e+06,0.0173428,0.141364,0,0.142424,-4000,-52999.8,-0,53150.5,1.62492e+06
step02_gravity_refstate-intrusion.xmf,47,-2.68623e-06,6.701e-06,0,1.47836e-05,-1.48722e+09,-1.48618e+09,-1.48692e+09,1.6372e+06,0.00769357,0.150156,0,0.150353,-4000,-52000.2,-0,52153.8,1.6372e+06
step02_gravity_refstate-intrusion.xmf,48,-2.37087e-06,4.61044e-06,0,1.4547e-05,-1.47115e+09,-1.47038e+09,-1.47089e+09,1.61099e+06,0.00314119,0.152975,0,0.153007,-4000,-51501.2,-0,51656.3,1.61099e+06
step02_gravity_refstate-intrusion.xmf,49,-3.06818e-06,8.7755e-06,0,1.48266e-05,-1.50333e+09,-1.50202e+09,-1.50299e+09,1.64195e+06,0.0124739,0.146286,0,0.146817,-4000,-52500.3,-0,52652.5,1.64195e+06
step02_gravity_refstate-intrusion.xmf,50,-5.67491e-06,2.31761e-05,0,9.02336e-06,-1.61608e+09,-1.61289e+09,-1.61545e+09,999283,0.0408386,0.0896789,0,0.0985399,-4000,-56000,-0,56142.7,999283
step02_gravity_refstate-intrusion.xmf,51,-5.1852e-06,2.14161e-05,0,1.06751e-05,-1.59986e+09,-1.59691e+09,-1.59928e+09,1.1822e+06,0.03877,0.100877,0,0.108071,-4000,-55497.8,-0,55641.7,1.1822e+06
step02_gravity_refstate-intrusion.xmf,52,1.09382e-06,-6.41906e-06,0,1.0392e-05,-1.4227e+09,-1.42354e+09,-1.42283e+09,1.15085e+06,-0.00709252,0.168052,-0,0.168202,-3499.28,-50000,-0,50122.3,1.15085e+06
step02_gravity_refstate-intrusion.xmf,53,-2.02776e-06,2.57535e-06,0,1.41147e-05,-1.45504e+09,-1.45453e+09,-1.45482e+09,1.56312e+06,-0.00105877,0.154773,-0,0.154777,-4000,-51001,-0,51157.6,1.56312e+06
step02_gravity_refstate-intrusion.xmf,54,-1.64049e-06,6.54629e-07,0,1.33871e-05,-1.43895e+09,-1.43869e+09,-1.43876e+09,1.48254e+06,-0.00468578,0.155574,-0,0.155644,-4000,-50501.8,-0,50659.9,1.48254e+06
step02_gravity_refstate-intrusion.xmf,55,-9.36568e-07,-9.3724e-07,0,1.21477e-05,-1.42269e+09,-1.42269e+09,-1.42258e+09,1.34529e+06,-0.00737611,0.155503,-0,0.155678,-4000,-50000,-0,50159.7,1.34529e+06
step02_gravity_refstate-intrusion.xmf,56,-6.03734e-06,2.07833e-05,0,-9.79817e-06,-1.57652e+09,-1.57355e+09,-1.57585e+09,-1.08509e+06,-0.0315197,0.1274,-0,0.131241,3602.3,-54770.7,0,54889.1,1.08509e+06
step02_gravity_refstate-intrusion.xmf,57,-6.84582e-06,2.35154e-05,0,-8.96107e-06,-1.59196e+09,-1.5886e+09,-1.5912e+09,-992384,-0.035016,0.11617,-0,0.121332,3627.1,-55249.1,0,55368,992384
step02_gravity_refstate-intrusion.xmf,58,-5.52301e-06,1.83185e-05,0,-1.00382e-05,-1.55892e+09,-1.55628e+09,-1.5583e+09,-1.11167e+06,-0.026549,0.140816,-0,0.143297,3503.7,-54224.4,0,54337.5,1.11167e+06
step02_gravity_refstate-intrusion.xmf,59,-4.55564e-06,1.51131e-05,0,-1.14561e-05,-1.54324e+09,-1.54107e+09,-1.54274e+09,-1.26869e+06,-0.0229464,0.144752,-0,0.146559,3638.77,-53738.8,0,53861.8,1.26869e+06
step02_gravity_refstate-intrusion.xmf,60,-4.09277e-06,1.28756e-05,0,-1.09466e-05,-1.52756e+09,-1.52569e+09,-1.52711e+09,-1.21227e+06,-0.0178806,0.155905,-0,0.156927,3501.01,-53252.1,0,53367.1,1.21227e+06
step02_gravity_refstate-intrusion.xmf,61,-7.56936e-06,2.45944e-05,0,-7.82521e-06,-1.58621e+09,-1.58265e+09,-1.58537e+09,-866595,-0.0314518,0.128412,-0,0.132208,3286.11,-55069.7,0,55167.7,866595
step02_gravity_refstate-intrusion.xmf,62,-7.4307e-06,2.61773e-05,0,-8.50996e-06,-1.6044e+09,-1.60068e+09,-1.60358e+09,-942427,-0.037136,0.106375,-0,0.112671,3635.71,-55635.9,0,55754.5,942427
step02_gravity_refstate-intrusion.xmf,63,-8.8261e-06,2.83469e-05,0,-7.29951e-06,-1.60109e+09,-1.59697e+09,-1.60011e+09,-808376,-0.0334377,0.11736,-0,0.12203,3232.06,-55530.5,0,55624.5,808376
step02_gravity_refstate-intrusion.xmf,64,-3.37205e-06,9.91739e-06,0,-1.16857e-05,-1.51075e+09,-1.50928e+09,-1.51038e+09,-1.29412e+06,-0.0133146,0.159432,-0,0.159987,3575.37,-52730.3,0,52851.4,1.29412e+06
step02_gravity_refstate-intrusion.xmf,65,-7.21068e-06,2.2539e-05,0,-7.58078e-06,-1.57358e+09,-1.57029e+09,-1.57278e+09,-839525,-0.0277059,0.141128,-0,0.143822,3129.79,-54677.2,0,54766.7,839525
step02_gravity_refstate-intrusion.xmf,66,-8.66077e-06,2.70969e-05,0,-6.35319e-06,-1.58848e+09,-1.58452e+09,-1.58752e+09,-703578,-0.0286034,0.134574,-0,0.13758,2886.45,-55139.3,0,55214.8,703578
step02_gravity_refstate-intrusion.xmf,67,-2.71587e-06,7.36353e-06,0,-1.14619e-05,-1.49552e+09,-1.49441e+09,-1.49522e+09,-1.26934e+06,-0.00885194,0.164647,-0,0.164885,3540.87,-52258,0,52377.9,1.26934e+06
step02_gravity_refstate-intrusion.xmf,68,-5.24108e-06,1.62226e-05,0,-8.77145e-06,-1.54265e+09,-1.54028e+09,-1.54207e+09,-971385,-0.0205433,0.158282,-0,0.15961,3183.84,-53719.1,0,53813.3,971385
step02_gravity_refstate-intrusion.xmf,69,-6.65051e-06,2.01475e-05,0,-7.02124e-06,-1.55791e+09,-1.55494e+09,-1.55717e+09,-777559,-0.0225649,0.156712,-0,0.158328,2892.25,-54190.9,0,54268,777559
step02_gravity_refstate-intrusion.xmf,70,-3.65871e-06,1.07812e-05,0,-9.24808e-06,-1.51505e+09,-1.51346e+09,-1.51465e+09,-1.02417e+06,-0.0131212,0.16997,-0,0.170476,3177.66,-52863.6,0,52959,1.02417e+06
step02_gravity_refstate-intrusion.xmf,71,-9.7552e-06,3.10383e-05,0,-5.80453e-06,-1.60199e+09,-1.59748e+09,-1.60091e+09,-642816,-0.0285927,0.125612,-0,0.128825,2690.49,-55559.1,0,55624.2,642816
step02_gravity_refstate-intrusion.xmf,72,-2.02056e-06,4.71449e-06,0,-1.12574e-05,-1.47964e+09,-1.47889e+09,-1.47942e+09,-1.24668e+06,-0.00444341,0.168037,-0,0.168096,3528.58,-51765.5,0,51885.6,1.24668e+06
step02_gravity_refstate-intrusion.xmf,73,-3.0588e-06,8.66695e-06,0,-9.17759e-06,-1.50333e+09,-1.50203e+09,-1.50299e+09,-1.01636e+06,-0.00989238,0.174171,-0,0.174452,3153.37,-52500,0,52594.6,1.01636e+06
step02_gravity_refstate-intrusion.xmf,74,-8.14956e-06,2.43768e-05,0,-5.65916e-06,-1.57311e+09,-1.56951e+09,-1.57221e+09,-626717,-0.0235205,0.151966,-0,0.153776,2598.05,-54661.4,0,54723.1,626717
step02_gravity_refstate-intrusion.xmf,75,-4.52478e-06,1.33997e-05,0,-7.79923e-06,-1.52641e+09,-1.52443e+09,-1.52591e+09,-863717,-0.0150839,0.172129,-0,0.172789,2927.74,-53215.2,0,53295.7,863717
step02_gravity_refstate-intrusion.xmf,76,-9.39725e-06,2.87062e-05,0,-4.78245e-06,-1.58737e+09,-1.58315e+09,-1.58633e+09,-529627,-0.0234465,0.14434,-0,0.146232,2333.76,-55104.2,0,55153.6,529627
step02_gravity_refstate-intrusion.xmf,77,-1.08156e-06,1.60537e-06,0,-1.05808e-05,-1.46168e+09,-1.46139e+09,-1.46156e+09,-1.17176e+06,0.000206594,0.171276,0,0.171276,3479.6,-51209.4,0,51327.5,1.17176e+06
step02_gravity_refstate-intrusion.xmf,78,-2.10627e-06,5.74491e-06,0,-8.27553e-06,-1.48885e+09,-1.48798e+09,-1.48862e+09,-916465,-0.00573548,0.181666,-0,0.181756,2987.91,-52051.9,0,52137.6,916465
step02_gravity_refstate-intrusion.xmf,79,-3.33896e-06,9.57933e-06,0,-6.98856e-06,-1.50757e+09,-1.50614e+09,-1.5072e+09,-773941,-0.00958025,0.183652,-0,0.183901,2716.24,-52631.5,0,52701.5,773941
step02_gravity_refstate-intrusion.xmf,80,-5.84118e-06,1.71199e-05,0,-6.23626e-06,-1.5415e+09,-1.53896e+09,-1.54086e+09,-690628,-0.0171357,0.171773,-0,0.172626,2621.37,-53682.1,0,53746.1,690628
step02_gravity_refstate-intrusion.xmf,81,-7.36636e-06,2.14719e-05,0,-4.94961e-06,-1.55762e+09,-1.55443e+09,-1.55681e+09,-548139,-0.0184663,0.167669,-0,0.168683,2316.74,-54181,0,54230.5,548139
step02_gravity_refstate-intrusion.xmf,82,-1.0227e-05,3.27163e-05,0,-4.52434e-06,-1.60265e+09,-1.5979e+09,-1.60152e+09,-501043,-0.0237419,0.131497,-0,0.133623,2195.8,-55580.5,0,55623.8,501043
step02_gravity_refstate-intrusion.xmf,83,-5.1125e-07,-8.23402e-07,0,-1.08762e-05,-1.44581e+09,-1.44585e+09,-1.44576e+09,-1.20447e+06,0.00366252,0.167795,0,0.167835,3605.79,-50717,0,50845.1,1.20447e+06
step02_gravity_refstate-intrusion.xmf,84,-1.22843e-06,2.67075e-06,0,-8.78639e-06,-1.47274e+09,-1.47231e+09,-1.4726e+09,-973039,-0.00202208,0.180641,-0,0.180652,3110.78,-51552.4,0,51646.1,973039
step02_gravity_refstate-intrusion.xmf,85,-8.79499e-06,2.5868e-05,0,-4.03678e-06,-1.57334e+09,-1.5695e+09,-1.57236e+09,-447049,-0.0186648,0.160402,-0,0.161484,2020.94,-54668,0,54705.4,447049
step02_gravity_refstate-intrusion.xmf,86,-4.71636e-06,1.34691e-05,0,-5.41135e-06,-1.52415e+09,-1.52214e+09,-1.52363e+09,-599274,-0.0118672,0.185147,-0,0.185527,2346.71,-53144.6,0,53196.4,599274
step02_gravity_refstate-intrusion.xmf,87,-1.00506e-05,3.0711e-05,0,-3.38957e-06,-1.59021e+09,-1.5857e+09,-1.5891e+09,-375374,-0.0179586,0.148751,-0,0.149831,1736.24,-55192.8,0,55220.1,375374
step02_gravity_refstate-intrusion.xmf,88,3.0236e-07,-2.37722e-06,0,-8.86908e-06,-1.44791e+09,-1.44821e+09,-1.44794e+09,-982197,0.00330034,0.179006,0,0.179036,3181.61,-50783,0,50882.6,982197
step02_gravity_refstate-intrusion.xmf,89,-1.55843e-07,-5.16972e-07,0,-7.87891e-06,-1.4598e+09,-1.45984e+09,-1.45979e+09,-872541,0.000961455,0.185409,0,0.185411,2928.48,-51151.9,0,51235.6,872541
step02_gravity_refstate-intrusion.xmf,90,-8.76847e-07,1.98588e-06,0,-6.70205e-06,-1.47372e+09,-1.4734e+09,-1.47362e+09,-742211,-0.00173536,0.191506,-0,0.191514,2629.31,-51583.2,0,51650.1,742211
step02_gravity_refstate-intrusion.xmf,91,-1.95398e-06,5.32365e-06,0,-5.67216e-06,-1.48943e+09,-1.48863e+09,-1.48922e+09,-628158,-0.00458437,0.194941,-0,0.194995,2358.75,-52069.8,0,52123.2,628158
step02_gravity_refstate-intrusion.xmf,92,-6.24625e-06,1.77701e-05,0,-4.23804e-06,-1.54068e+09,-1.53802e+09,-1.53998e+09,-469338,-0.0133718,0.182359,-0,0.182848,2027.17,-53655.7,0,53694,469338
step02_gravity_refstate-intrusion.xmf,93,-7.81998e-06,2.24197e-05,0,-3.30607e-06,-1.55752e+09,-1.55417e+09,-1.55665e+09,-366127,-0.0138663,0.175924,-0,0.17647,1713.47,-54177.4,0,54204.5,366127
step02_gravity_refstate-intrusion.xmf,94,-3.33796e-06,9.30076e-06,0,-4.54948e-06,-1.50637e+09,-1.50497e+09,-1.506e+09,-503827,-0.00708451,0.196351,-0,0.196479,2046.54,-52593.9,0,52633.7,503827
step02_gravity_refstate-intrusion.xmf,95,-1.06692e-05,3.4441e-05,0,-3.4892e-06,-1.60552e+09,-1.60052e+09,-1.60433e+09,-386408,-0.0192556,0.133113,-0,0.134499,1746.55,-55670.2,0,55697.6,386408
step02_gravity_refstate-intrusion.xmf,96,1.37735e-07,-2.89909e-06,0,-1.08187e-05,-1.43441e+09,-1.43475e+09,-1.43443e+09,-1.19811e+06,0.00576594,0.166307,0,0.166407,3636.36,-50363.9,0,50495,1.19811e+06
step02_gravity_refstate-intrusion.xmf,97,1.03929e-06,-4.82464e-06,0,-9.27019e-06,-1.43495e+09,-1.4356e+09,-1.43506e+09,-1.02662e+06,0.00551056,0.175197,0,0.175284,3282.8,-50381.4,0,50488.2,1.02662e+06
step02_gravity_refstate-intrusion.xmf,98,-9.21594e-06,2.70163e-05,0,-2.65867e-06,-1.57403e+09,-1.57002e+09,-1.57301e+09,-294431,-0.0133192,0.166188,-0,0.16672,1418.09,-54689.5,0,54707.9,294431
step02_gravity_refstate-intrusion.xmf,99,-4.89067e-06,1.36421e-05,0,-3.52326e-06,-1.52336e+09,-1.5213e+09,-1.52282e+09,-390180,-0.00873634,0.194775,-0,0.19497,1726.68,-53119.4,0,53147.4,390180
step02_gravity_refstate-intrusion.xmf,100,-1.08158e-05,3.44352e-05,0,-2.52394e-06,-1.60255e+09,-1.59754e+09,-1.60135e+09,-279511,-0.0143403,0.139748,-0,0.140482,1304.82,-55577.8,0,55593.1,279511
step02_gravity_refstate-intrusion.xmf,101,8.56165e-07,-3.9016e-06,0,-6.87416e-06,-1.44825e+09,-1.44877e+09,-1.44834e+09,-761272,0.0029381,0.190471,0,0.190494,2643.49,-50793.1,0,50861.9,761272
step02_gravity_refstate-intrusion.xmf,102,1.40095e-06,-6.39969e-06,0,-7.6657e-06,-1.43542e+09,-1.43628e+09,-1.43558e+09,-848930,0.00492072,0.185074,0,0.185139,2819.78,-50394.5,0,50473.4,848930
step02_gravity_refstate-intrusion.xmf,103,3.08493e-07,-1.95088e-06,0,-5.77018e-06,-1.45929e+09,-1.45954e+09,-1.45933e+09,-639012,0.00101675,0.196743,0,0.196746,2347.05,-51135.5,0,51189.3,639012
step02_gravity_refstate-intrusion.xmf,104,-6.12361e-07,1.10998e-06,0,-4.73118e-06,-1.47306e+09,-1.47287e+09,-1.473e+09,-523949,-0.00117453,0.201737,-0,0.201741,2042.34,-51562.5,0,51602.9,523949
step02_gravity_refstate-intrusion.xmf,105,-1.87697e-06,4.89739e-06,0,-3.75645e-06,-1.48903e+09,-1.48828e+09,-1.48882e+09,-416004,-0.00331822,0.204439,-0,0.204466,1737.08,-52056.8,0,52085.7,416004
step02_gravity_refstate-intrusion.xmf,106,-6.52991e-06,1.83057e-05,0,-2.66077e-06,-1.54057e+09,-1.53782e+09,-1.53985e+09,-294664,-0.00940227,0.189763,-0,0.189996,1408.66,-53652,0,53670.5,294664
step02_gravity_refstate-intrusion.xmf,107,-8.04988e-06,2.29265e-05,0,-1.96374e-06,-1.55715e+09,-1.55372e+09,-1.55626e+09,-217473,-0.00890734,0.181765,-0,0.181983,1094.08,-54165.7,0,54176.8,217473
step02_gravity_refstate-intrusion.xmf,108,-3.3801e-06,9.18706e-06,0,-2.8644e-06,-1.50587e+09,-1.50447e+09,-1.50549e+09,-317215,-0.00491797,0.204302,-0,0.204361,1426.5,-52577.8,0,52597.1,317215
step02_gravity_refstate-intrusion.xmf,109,-1.01737e-05,3.08253e-05,0,-1.99338e-06,-1.58723e+09,-1.58269e+09,-1.5861e+09,-220754,-0.0111918,0.156701,-0,0.1571,1089.68,-55100.2,0,55110.9,220754
step02_gravity_refstate-intrusion.xmf,110,-9.338e-06,2.73104e-05,0,-1.40426e-06,-1.57295e+09,-1.56889e+09,-1.57192e+09,-155513,-0.00731162,0.171252,-0,0.171408,779.407,-54656.2,0,54661.7,155513
step02_gravity_refstate-intrusion.xmf,111,-5.03482e-06,1.38452e-05,0,-2.06851e-06,-1.52324e+09,-1.52114e+09,-1.52268e+09,-229075,-0.00564182,0.200953,-0,0.201032,1106.68,-53115.2,0,53126.8,229075
step02_gravity_refstate-intrusion.xmf,112,-1.1028e-05,3.48779e-05,0,-1.44453e-06,-1.60212e+09,-1.59704e+09,-1.6009e+09,-159973,-0.00850144,0.143043,-0,0.143295,770.664,-55564.3,0,55569.6,159973
step02_gravity_refstate-intrusion.xmf,113,1.1424e-06,-4.9735e-06,0,-5.23014e-06,-1.44785e+09,-1.44853e+09,-1.44798e+09,-579206,0.0024795,0.199146,0,0.199162,2115.33,-50780.1,0,50824.2,579206
step02_gravity_refstate-intrusion.xmf,114,1.65232e-06,-7.47654e-06,0,-6.04593e-06,-1.43585e+09,-1.43686e+09,-1.43604e+09,-669550,0.00410739,0.193844,0,0.193887,2315.95,-50407,0,50460.1,669550
step02_gravity_refstate-intrusion.xmf,115,7.08769e-07,-3.56703e-06,0,-4.07259e-06,-1.45535e+09,-1.45583e+09,-1.45543e+09,-451015,0.00125308,0.205037,0,0.205041,1742.04,-51012.6,0,51042.4,451015
step02_gravity_refstate-intrusion.xmf,116,-4.40515e-07,3.04103e-07,0,-3.13024e-06,-1.47161e+09,-1.47153e+09,-1.47157e+09,-346655,-0.000655013,0.209166,-0,0.209167,1439.79,-51516.9,0,51537,346655
step02_gravity_refstate-intrusion.xmf,117,-1.85324e-06,4.60225e-06,0,-2.29198e-06,-1.48854e+09,-1.48783e+09,-1.48834e+09,-253823,-0.0021324,0.210601,-0,0.210611,1135.36,-52041.2,0,52053.6,253823
step02_gravity_refstate-intrusion.xmf,118,-6.68706e-06,1.86226e-05,0,-1.37935e-06,-1.54054e+09,-1.53774e+09,-1.5398e+09,-152755,-0.00524483,0.194333,-0,0.194404,780.116,-53650.9,0,53656.6,152755
step02_gravity_refstate-intrusion.xmf,119,-8.17965e-06,2.32527e-05,0,-7.9802e-07,-1.55723e+09,-1.55375e+09,-1.55633e+09,-88375.9,-0.00380557,0.184757,-0,0.184796,464.722,-54168.3,0,54170.3,88375.9
step02_gravity_refstate-intrusion.xmf,120,-3.41683e-06,9.08562e-06,0,-1.52531e-06,-1.50552e+09,-1.50414e+09,-1.50514e+09,-168919,-0.00279659,0.209166,-0,0.209184,813.334,-52566.7,0,52573,168919
step02_gravity_refstate-intrusion.xmf,121,-1.03572e-05,3.14748e-05,0,-8.26425e-07,-1.58813e+09,-1.58349e+09,-1.58698e+09,-91521.6,-0.00485711,0.15848,-0,0.158554,468.581,-55128.3,0,55130.3,91521.6
step02_gravity_refstate-intrusion.xmf,122,-1.11101e-05,3.5388e-05,0,-3.89544e-07,-1.60302e+09,-1.59787e+09,-1.60179e+09,-43139.6,-0.00242895,0.143422,-0,0.143442,218.89,-55592.6,0,55593,43139.6
step02_gravity_refstate-intrusion.xmf,123,1.75457e-06,-7.78882e-06,0,-4.6394e-06,-1.43756e+09,-1.43861e+09,-1.43775e+09,-513785,0.00317852,0.200578,0,0.200604,1852.34,-50459.5,0,50493.5,513785
step02_gravity_refstate-intrusion.xmf,124,-9.43609e-06,2.76348e-05,0,-2.81021e-07,-1.57327e+09,-1.56916e+09,-1.57222e+09,-31121.4,-0.00139118,0.172683,-0,0.172689,147.53,-54666.1,0,54666.3,31121.4
step02_gravity_refstate-intrusion.xmf,125,-5.09507e-06,1.39002e-05,0,-8.56738e-07,-1.523e+09,-1.52089e+09,-1.52243e+09,-94878.5,-0.00244945,0.204407,-0,0.204421,480.059,-53107.6,0,53109.8,94878.5
step02_gravity_refstate-intrusion.xmf,126,1.59342e-06,-7.45562e-06,0,-3.53552e-06,-1.44052e+09,-1.44152e+09,-1.44069e+09,-391538,0.00231023,0.205448,0,0.205461,1463.36,-50550.8,0,50571.9,391538
step02_gravity_refstate-intrusion.xmf,127,-1.78564e-06,4.35554e-06,0,-1.04459e-06,-1.48794e+09,-1.48725e+09,-1.48774e+09,-115682,-0.000983315,0.214105,-0,0.214107,535.81,-52022.3,0,52025.1,115682
step02_gravity_refstate-intrusion.xmf,128,9.37868e-07,-4.79219e-06,0,-2.60011e-06,-1.45224e+09,-1.45288e+09,-1.45235e+09,-287946,0.00104488,0.210444,0,0.210446,1136.67,-50915.1,0,50927.8,287946
step02_gravity_refstate-intrusion.xmf,129,-3.94331e-07,-1.07207e-07,0,-1.78548e-06,-1.4709e+09,-1.47087e+09,-1.47086e+09,-197731,-0.000344908,0.213744,-0,0.213744,852.529,-51494.2,0,51501.3,197731
step02_gravity_refstate-intrusion.xmf,130,-3.41398e-06,9.01784e-06,0,-3.60151e-07,-1.50512e+09,-1.50374e+09,-1.50474e+09,-39884.6,-0.000671337,0.211388,-0,0.211389,196.76,-52554.1,0,52554.4,39884.6
step02_gravity_refstate-intrusion.xmf,131,-6.74313e-06,1.87286e-05,0,-2.6816e-07,-1.54048e+09,-1.53766e+09,-1.53974e+09,-29697.1,-0.00104837,0.196253,-0,0.196256,155.576,-53649.1,0,53649.4,29697.1
step02_gravity_refstate-intrusion.xmf,132,-8.19216e-06,2.32662e-05,0,2.70242e-07,-1.55712e+09,-1.55364e+09,-1.55621e+09,29927.7,0.00127196,0.185429,0,0.185433,-155.366,-54164.8,-0,54165,29927.7
step02_gravity_refstate-intrusion.xmf,133,-1.05049e-05,3.21046e-05,0,3.30571e-07,-1.59013e+09,-1.58541e+09,-1.58896e+09,36608.8,0.00204115,0.156993,0,0.157007,-194.682,-55190.6,-0,55191,36608.8
step02_gravity_refstate-intrusion.xmf,134,-1.11956e-05,3.59924e-05,0,4.16559e-07,-1.60547e+09,-1.60024e+09,-1.60423e+09,46131.4,0.00262476,0.140677,0,0.140702,-234.551,-55669.1,-0,55669.6,46131.4
step02_gravity_refstate-intrusion.xmf,135,-1.76698e-06,4.09884e-06,0,1.19266e-07,-1.48706e+09,-1.48641e+09,-1.48686e+09,13208,0.000122193,0.21517,0,0.21517,-69.5592,-51994.8,-0,51994.9,13208
step02_gravity_refstate-intrusion.xmf,136,-9.39844e-06,2.75208e-05,0,7.95903e-07,-1.57305e+09,-1.56896e+09,-1.57201e+09,88141.4,0.00436405,0.172307,0,0.172363,-464.014,-54659.4,-0,54661.4,88141.4
step02_gravity_refstate-intrusion.xmf,137,-5.07634e-06,1.38078e-05,0,2.50454e-07,-1.52262e+09,-1.52053e+09,-1.52206e+09,27736.2,0.000745747,0.20526,0,0.205262,-147.015,-53096,-0,53096.2,27736.2
step02_gravity_refstate-intrusion.xmf,138,1.85552e-06,-9.09402e-06,0,-2.79721e-06,-1.43474e+09,-1.43595e+09,-1.43494e+09,-309774,0.00211339,0.206623,0,0.206634,1141.9,-50370.1,0,50383.1,309774
step02_gravity_refstate-intrusion.xmf,139,-3.21272e-07,-2.99431e-07,0,-5.86353e-07,-1.47053e+09,-1.47053e+09,-1.4705e+09,-64935.1,-0.000109127,0.215889,-0,0.215889,286.436,-51482.9,0,51483.6,64935.1
step02_gravity_refstate-intrusion.xmf,140,8.15172e-07,-4.58292e-06,0,-1.2423e-06,-1.45388e+09,-1.45448e+09,-1.45397e+09,-137577,0.000450178,0.213886,0,0.213886,555.005,-50965.4,0,50968.5,137577
step02_gravity_refstate-intrusion.xmf,141,-3.32581e-06,8.80417e-06,0,7.97093e-07,-1.50428e+09,-1.50293e+09,-1.50391e+09,88273.2,0.00145362,0.211108,0,0.211113,-436.426,-52528.2,-0,52530,88273.2
step02_gravity_refstate-intrusion.xmf,142,-6.68572e-06,1.85518e-05,0,8.01617e-07,-1.54007e+09,-1.53727e+09,-1.53933e+09,88774.2,0.00310354,0.195881,0,0.195906,-463.627,-53636.2,-0,53638.2,88774.2
step02_gravity_refstate-intrusion.xmf,143,-8.06291e-06,2.28672e-05,0,1.36541e-06,-1.55638e+09,-1.55296e+09,-1.55549e+09,151211,0.00629285,0.184171,0,0.184278,-776.641,-54141.8,-0,54147.4,151211
step02_gravity_refstate-intrusion.xmf,144,-1.09994e-05,3.49825e-05,0,1.28754e-06,-1.60227e+09,-1.59718e+09,-1.60105e+09,142588,0.00777069,0.143114,0,0.143324,-703.679,-55569.4,-0,55573.8,142588
step02_gravity_refstate-intrusion.xmf,145,-1.01657e-05,3.07119e-05,0,1.45053e-06,-1.58583e+09,-1.58131e+09,-1.58471e+09,160638,0.00829606,0.159491,0,0.159707,-812.227,-55056.9,-0,55062.9,160638
step02_gravity_refstate-intrusion.xmf,146,1.71001e-06,-8.50844e-06,0,-1.85542e-06,-1.43794e+09,-1.43907e+09,-1.43812e+09,-205477,0.0013161,0.209721,0,0.209725,771.868,-50469.4,0,50475.3,205477
step02_gravity_refstate-intrusion.xmf,147,-3.20264e-07,-5.07288e-07,0,5.4047e-07,-1.46977e+09,-1.46979e+09,-1.46974e+09,59853.8,8.63148e-05,0.215911,0,0.215911,-269.574,-51458.9,-0,51459.6,59853.8
step02_gravity_refstate-intrusion.xmf,148,-1.47465e-06,3.29489e-06,0,1.43694e-06,-1.48402e+09,-1.4835e+09,-1.48386e+09,159132,0.00110148,0.213694,0,0.213697,-739.5,-51900.9,-0,51906.2,159132
step02_gravity_refstate-intrusion.xmf,149,-9.18799e-06,2.68509e-05,0,1.96124e-06,-1.57193e+09,-1.56793e+09,-1.57091e+09,217196,0.0101585,0.17037,0,0.170672,-1094.43,-54624.4,-0,54635.3,217196
step02_gravity_refstate-intrusion.xmf,150,-5.01111e-06,1.36567e-05,0,1.39457e-06,-1.52244e+09,-1.52037e+09,-1.52188e+09,154440,0.0039138,0.203399,0,0.203437,-776.663,-53090.3,-0,53096,154440
step02_gravity_refstate-intrusion.xmf,151,8.73091e-07,-4.64835e-06,0,-2.83294e-08,-1.45385e+09,-1.45447e+09,-1.45395e+09,-3137.31,1.05807e-05,0.214878,0,0.214878,13.0836,-50964.8,0,50964.8,3137.31
step02_gravity_refstate-intrusion.xmf,152,1.68876e-06,-8.56706e-06,0,-6.43461e-07,-1.43823e+09,-1.43936e+09,-1.43841e+09,-71259.3,0.000448188,0.211442,0,0.211443,265.365,-50478.2,0,50478.9,71259.3
step02_gravity_refstate-intrusion.xmf,153,-3.28959e-06,8.84045e-06,0,2.07354e-06,-1.50442e+09,-1.50308e+09,-1.50406e+09,229632,0.00360203,0.207716,0,0.207747,-1082.58,-52533,-0,52544.1,229632
step02_gravity_refstate-intrusion.xmf,154,-1.72915e-08,-1.42522e-06,0,1.51413e-06,-1.46604e+09,-1.46619e+09,-1.46604e+09,167681,2.46329e-05,0.214302,0,0.214302,-725.157,-51343.3,-0,51348.4,167681
step02_gravity_refstate-intrusion.xmf,155,-6.55018e-06,1.82067e-05,0,1.97202e-06,-1.53973e+09,-1.53699e+09,-1.53901e+09,218390,0.00721157,0.19291,0,0.193045,-1087.9,-53625.8,-0,53636.9,218390
step02_gravity_refstate-intrusion.xmf,156,-7.87851e-06,2.23821e-05,0,2.58399e-06,-1.55633e+09,-1.55298e+09,-1.55546e+09,286161,0.0112133,0.179966,0,0.180315,-1394.52,-54140.3,-0,54158.2,286161
step02_gravity_refstate-intrusion.xmf,157,-1.08176e-05,3.433e-05,0,2.24839e-06,-1.60145e+09,-1.59645e+09,-1.60025e+09,248996,0.0130787,0.141639,0,0.142242,-1193.19,-55543.6,-0,55556.4,248996
step02_gravity_refstate-intrusion.xmf,158,-1.00144e-05,3.03219e-05,0,2.65507e-06,-1.58669e+09,-1.58223e+09,-1.58558e+09,294033,0.0144727,0.154901,0,0.155576,-1418.94,-55083.5,-0,55101.7,294033
step02_gravity_refstate-intrusion.xmf,159,8.75912e-07,-4.85806e-06,0,1.07409e-06,-1.45289e+09,-1.45352e+09,-1.45298e+09,118949,-0.000432033,0.213948,-0,0.213949,-494.071,-50934.5,-0,50936.9,118949
step02_gravity_refstate-intrusion.xmf,160,-1.72225e-06,4.23076e-06,0,2.91647e-06,-1.48717e+09,-1.48651e+09,-1.48698e+09,322981,0.00247664,0.208321,0,0.208336,-1413.74,-51998.8,-0,52018,322981
step02_gravity_refstate-intrusion.xmf,161,-2.53847e-07,-4.70059e-07,0,2.48971e-06,-1.46926e+09,-1.46928e+09,-1.46923e+09,275721,0.000321603,0.211504,0,0.211504,-1177.85,-51443.4,-0,51456.8,275721
step02_gravity_refstate-intrusion.xmf,162,-8.91874e-06,2.61326e-05,0,3.23522e-06,-1.57187e+09,-1.56799e+09,-1.57089e+09,358281,0.0156155,0.165313,0,0.166049,-1697.83,-54622.7,-0,54649.1,358281
step02_gravity_refstate-intrusion.xmf,163,-4.88295e-06,1.34039e-05,0,2.71178e-06,-1.5223e+09,-1.52027e+09,-1.52176e+09,300314,0.00700381,0.19878,0,0.198904,-1404,-53086.1,-0,53104.7,300314
step02_gravity_refstate-intrusion.xmf,164,1.76688e-06,-8.63936e-06,0,5.87773e-07,-1.43793e+09,-1.43909e+09,-1.43813e+09,65092.3,-0.000423346,0.211394,-0,0.211394,-248.485,-50469.3,-0,50470,65092.3
step02_gravity_refstate-intrusion.xmf,165,8.90083e-07,-4.71567e-06,0,2.17914e-06,-1.45291e+09,-1.45353e+09,-1.45301e+09,241326,-0.000858561,0.211623,-0,0.211625,-980.495,-50935.6,-0,50945,241326
step02_gravity_refstate-intrusion.xmf,166,-3.26729e-06,8.98729e-06,0,3.5998e-06,-1.50504e+09,-1.50368e+09,-1.50467e+09,398656,0.0057814,0.201207,0,0.20129,-1722.43,-52552.4,-0,52580.6,398656
step02_gravity_refstate-intrusion.xmf,167,-6.29587e-06,1.76222e-05,0,3.36055e-06,-1.53928e+09,-1.53664e+09,-1.53859e+09,372161,0.0111171,0.18734,0,0.18767,-1704.56,-53612.1,-0,53639.2,372161
step02_gravity_refstate-intrusion.xmf,168,-7.48049e-06,2.14147e-05,0,4.03736e-06,-1.55563e+09,-1.55243e+09,-1.5548e+09,447113,0.0157542,0.173698,0,0.174411,-1998.33,-54118.7,-0,54155.6,447113
step02_gravity_refstate-intrusion.xmf,169,-1.05596e-05,3.35896e-05,0,3.38449e-06,-1.60172e+09,-1.59683e+09,-1.60055e+09,374812,0.0187947,0.137318,0,0.138598,-1726.51,-55551.8,-0,55578.6,374812
step02_gravity_refstate-intrusion.xmf,170,-9.70039e-06,2.94726e-05,0,3.91857e-06,-1.58715e+09,-1.58281e+09,-1.58608e+09,433958,0.0201029,0.148958,0,0.150308,-1985.71,-55097.5,-0,55133.3,433958
step02_gravity_refstate-intrusion.xmf,171,1.7251e-06,-8.613e-06,0,1.76327e-06,-1.4376e+09,-1.43874e+09,-1.43779e+09,195272,-0.00128943,0.209738,-0,0.209742,-749.449,-50458.9,-0,50464.4,195272
step02_gravity_refstate-intrusion.xmf,172,-1.81599e-06,4.68223e-06,0,4.56186e-06,-1.48813e+09,-1.48741e+09,-1.48793e+09,505199,0.00369966,0.200658,0,0.200693,-2023.31,-52028.9,-0,52068.2,505199
step02_gravity_refstate-intrusion.xmf,173,-4.17213e-07,2.85779e-07,0,3.87606e-06,-1.47108e+09,-1.471e+09,-1.47104e+09,429250,0.000720236,0.205826,0,0.205827,-1742.07,-51500.5,-0,51530,429250
step02_gravity_refstate-intrusion.xmf,174,8.33499e-07,-4.22038e-06,0,3.4051e-06,-1.45377e+09,-1.45433e+09,-1.45386e+09,377094,-0.00122668,0.207594,-0,0.207598,-1489.4,-50963,-0,50984.7,377094
step02_gravity_refstate-intrusion.xmf,175,-8.43714e-06,2.49711e-05,0,4.68877e-06,-1.5716e+09,-1.5679e+09,-1.57066e+09,519252,0.0205673,0.158322,0,0.159653,-2272.73,-54614.3,-0,54661.6,519252
step02_gravity_refstate-intrusion.xmf,176,-4.68484e-06,1.30389e-05,0,4.31861e-06,-1.52214e+09,-1.52018e+09,-1.52162e+09,478260,0.00988644,0.191433,0,0.191688,-2011.2,-53081.7,-0,53119.8,478260
step02_gravity_refstate-intrusion.xmf,177,1.70965e-06,-8.27506e-06,0,2.99297e-06,-1.43795e+09,-1.43906e+09,-1.43814e+09,331453,-0.00212538,0.206696,-0,0.206707,-1247.05,-50470.5,-0,50485.9,331453
step02_gravity_refstate-intrusion.xmf,178,-3.18579e-06,8.97689e-06,0,5.46206e-06,-1.50493e+09,-1.50359e+09,-1.50458e+09,604890,0.00771276,0.192127,0,0.192281,-2326.47,-52549.7,-0,52601.1,604890
step02_gravity_refstate-intrusion.xmf,179,-5.90532e-06,1.68185e-05,0,5.09381e-06,-1.53887e+09,-1.53636e+09,-1.53822e+09,564108,0.0146858,0.179055,0,0.179656,-2300.72,-53599.9,-0,53649.3,564108
step02_gravity_refstate-intrusion.xmf,180,-6.91824e-06,2.02343e-05,0,5.76638e-06,-1.55528e+09,-1.55227e+09,-1.55451e+09,638591,0.0197095,0.165071,0,0.166244,-2556.18,-54108.4,-0,54168.7,638591
step02_gravity_refstate-intrusion.xmf,181,-1.01577e-05,3.24587e-05,0,4.60894e-06,-1.60195e+09,-1.59723e+09,-1.60083e+09,510413,0.0242184,0.13158,0,0.13379,-2248.57,-55558.7,-0,55604.2,510413
step02_gravity_refstate-intrusion.xmf,182,-9.12589e-06,2.79682e-05,0,5.30033e-06,-1.58673e+09,-1.58263e+09,-1.58572e+09,586980,0.0251545,0.14205,0,0.14426,-2528.11,-55084.6,-0,55142.6,586980
step02_gravity_refstate-intrusion.xmf,183,-1.86172e-06,4.87367e-06,0,6.5734e-06,-1.48733e+09,-1.48658e+09,-1.48712e+09,727964,0.00459037,0.190747,0,0.190802,-2595.2,-52004.3,-0,52069,727964
step02_gravity_refstate-intrusion.xmf,184,-5.61645e-07,8.77071e-07,0,5.5545e-06,-1.47137e+09,-1.47121e+09,-1.47131e+09,615127,0.00104305,0.197601,0,0.197604,-2306.52,-51510,-0,51561.6,615127
step02_gravity_refstate-intrusion.xmf,185,1.65466e-06,-7.69343e-06,0,4.33141e-06,-1.43852e+09,-1.43955e+09,-1.4387e+09,479677,-0.00294115,0.201913,-0,0.201934,-1757.75,-50488.8,-0,50519.4,479677
step02_gravity_refstate-intrusion.xmf,186,6.90929e-07,-3.42435e-06,0,4.82446e-06,-1.45496e+09,-1.45541e+09,-1.45503e+09,534279,-0.00149595,0.201368,-0,0.201373,-2023.44,-51000.6,-0,51040.7,534279
step02_gravity_refstate-intrusion.xmf,187,-7.68266e-06,2.33679e-05,0,6.40326e-06,-1.57115e+09,-1.56772e+09,-1.5703e+09,709122,0.0247964,0.14958,0,0.151622,-2806.75,-54601.4,-0,54673.5,709122
step02_gravity_refstate-intrusion.xmf,188,-4.40224e-06,1.25486e-05,0,6.43743e-06,-1.52198e+09,-1.5201e+09,-1.52149e+09,712906,0.012586,0.180954,0,0.181391,-2611.39,-53077.1,-0,53141.3,712906
step02_gravity_refstate-intrusion.xmf,189,-3.07494e-06,8.62889e-06,0,8.17481e-06,-1.50382e+09,-1.50252e+09,-1.50348e+09,905311,0.00945851,0.178787,0,0.179037,-2970.06,-52515,-0,52598.9,905311
step02_gravity_refstate-intrusion.xmf,190,-5.3978e-06,1.59183e-05,0,7.30419e-06,-1.53904e+09,-1.53668e+09,-1.53844e+09,808894,0.0179584,0.167716,0,0.168675,-2871.35,-53606,-0,53682.8,808894
step02_gravity_refstate-intrusion.xmf,191,-6.15759e-06,1.88988e-05,0,7.92389e-06,-1.55557e+09,-1.5528e+09,-1.55489e+09,877523,0.0232149,0.153879,0,0.15562,-3079.59,-54118.9,-0,54206.5,877523
step02_gravity_refstate-intrusion.xmf,192,-9.59436e-06,3.09126e-05,0,5.89429e-06,-1.60223e+09,-1.59775e+09,-1.60117e+09,652757,0.0291638,0.124506,0,0.127876,-2747.44,-55567.1,-0,55635,652757
step02_gravity_refstate-intrusion.xmf,193,-8.03619e-06,2.55165e-05,0,7.1259e-06,-1.58567e+09,-1.58195e+09,-1.58478e+09,789150,0.0299421,0.132663,0,0.136,-3105.15,-55052.5,-0,55140,789150
step02_gravity_refstate-intrusion.xmf,194,-1.9248e-06,4.92884e-06,0,8.88782e-06,-1.48483e+09,-1.48407e+09,-1.48461e+09,984272,0.00496881,0.179325,0,0.179394,-3106.45,-51926.7,-0,52019.6,984272
step02_gravity_refstate-intrusion.xmf,195,-8.17481e-07,1.53718e-06,0,7.52556e-06,-1.47085e+09,-1.47059e+09,-1.47076e+09,833410,0.00130184,0.187398,0,0.187403,-2831.1,-51493.7,-0,51571.5,833410
step02_gravity_refstate-intrusion.xmf,196,4.682e-07,-2.57134e-06,0,6.49515e-06,-1.45498e+09,-1.45532e+09,-1.45503e+09,719298,-0.00180316,0.192648,-0,0.192657,-2562.32,-51002,-0,51066.3,719298
step02_gravity_refstate-intrusion.xmf,197,1.53758e-06,-6.8997e-06,0,5.83647e-06,-1.43872e+09,-1.43966e+09,-1.43889e+09,646353,-0.0037556,0.194987,-0,0.195023,-2282.82,-50496.2,-0,50547.8,646353
step02_gravity_refstate-intrusion.xmf,198,-6.67807e-06,2.12076e-05,0,8.23694e-06,-1.56874e+09,-1.56566e+09,-1.56801e+09,912191,0.0272648,0.142251,0,0.14484,-3222.53,-54527.9,-0,54623,912191
step02_gravity_refstate-intrusion.xmf,199,-4.15984e-06,1.23086e-05,0,9.14265e-06,-1.52316e+09,-1.52134e+09,-1.5227e+09,1.01249e+06,0.0153059,0.167102,0,0.167802,-3175.99,-53114.6,-0,53209.4,1.01249e+06
step02_gravity_refstate-intrusion.xmf,200,-2.63276e-06,7.23204e-06,0,1.05374e-05,-1.49487e+09,-1.49377e+09,-1.49457e+09,1.16695e+06,0.00826903,0.16948,0,0.169682,-3389.99,-52237.9,-0,52347.8,1.16695e+06
step02_gravity_refstate-intrusion.xmf,201,-4.69015e-06,1.50242e-05,0,1.0403e-05,-1.53985e+09,-1.53766e+09,-1.53933e+09,1.15207e+06,0.0211797,0.151764,0,0.153235,-3464.15,-53632.8,-0,53744.6,1.15207e+06
step02_gravity_refstate-intrusion.xmf,202,-5.40394e-06,1.80806e-05,0,1.03621e-05,-1.55964e+09,-1.55704e+09,-1.55904e+09,1.14754e+06,0.0270317,0.138842,0,0.141449,-3557.71,-54247,-0,54363.5,1.14754e+06
step02_gravity_refstate-intrusion.xmf,203,-3.30029e-06,9.72302e-06,0,1.15267e-05,-1.50932e+09,-1.50788e+09,-1.50895e+09,1.27651e+06,0.0128317,0.160549,0,0.161061,-3554.39,-52686.1,-0,52805.9,1.27651e+06
step02_gravity_refstate-intrusion.xmf,204,-2.15299e-06,5.07138e-06,0,1.16541e-05,-1.48107e+09,-1.48027e+09,-1.48083e+09,1.29063e+06,0.00494752,0.166022,0,0.166096,-3585.19,-51809.7,-0,51933.6,1.29063e+06
step02_gravity_refstate-intrusion.xmf,205,-8.65904e-06,2.86197e-05,0,7.2982e-06,-1.60281e+09,-1.59868e+09,-1.60185e+09,808231,0.0338689,0.11535,0,0.120219,-3256.64,-55585.1,-0,55680.4,808231
step02_gravity_refstate-intrusion.xmf,206,-6.07152e-06,2.08896e-05,0,9.7109e-06,-1.57621e+09,-1.57322e+09,-1.57553e+09,1.07542e+06,0.0313119,0.128224,0,0.131992,-3579.55,-54761,-0,54877.9,1.07542e+06
step02_gravity_refstate-intrusion.xmf,207,-1.28596e-06,2.61911e-06,0,9.63283e-06,-1.47103e+09,-1.47059e+09,-1.47088e+09,1.06678e+06,0.00179256,0.176853,0,0.176862,-3260.36,-51499.1,-0,51602.2,1.06678e+06
step02_gravity_refstate-intrusion.xmf,208,-9.10433e-08,-1.08009e-06,0,8.68139e-06,-1.45488e+09,-1.45499e+09,-1.45487e+09,961411,-0.00193102,0.180748,-0,0.180758,-3124.06,-50999,-0,51094.6,961411
step02_gravity_refstate-intrusion.xmf,209,1.24651e-06,-5.66962e-06,0,7.45272e-06,-1.43907e+09,-1.43984e+09,-1.43921e+09,825343,-0.00442063,0.186268,-0,0.186321,-2793.02,-50508,-0,50585.2,825343
step02_gravity_refstate-intrusion.xmf,210,-3.92123e-06,1.23064e-05,0,1.17814e-05,-1.52546e+09,-1.52366e+09,-1.52502e+09,1.30472e+06,0.017731,0.153042,0,0.154065,-3615.8,-53186.8,-0,53309.5,1.30472e+06
step02_gravity_refstate-intrusion.xmf,211,-2.78e-06,7.52593e-06,0,1.27943e-05,-1.49527e+09,-1.49413e+09,-1.49496e+09,1.41689e+06,0.00929145,0.158482,0,0.158754,-3726.59,-52250.3,-0,52383,1.41689e+06
step02_gravity_refstate-intrusion.xmf,212,-6.87857e-06,2.38814e-05,0,8.87499e-06,-1.59214e+09,-1.58873e+09,-1.59137e+09,982852,0.0348434,0.116775,0,0.121862,-3596.18,-55255.1,-0,55372,982852
step02_gravity_refstate-intrusion.xmf,213,-1.38555e-06,2.21521e-06,0,1.1422e-05,-1.46334e+09,-1.46294e+09,-1.46318e+09,1.26492e+06,0.000337284,0.167696,0,0.167696,-3595.86,-51260,-0,51386,1.26492e+06
step02_gravity_refstate-intrusion.xmf,214,-7.75981e-06,2.68761e-05,0,8.34202e-06,-1.60441e+09,-1.60057e+09,-1.60355e+09,923828,0.0371346,0.106375,0,0.112671,-3635.71,-55635.9,-0,55754.5,923828
step02_gravity_refstate-intrusion.xmf,215,8.16663e-07,-4.52445e-06,0,9.16232e-06,-1.43662e+09,-1.43721e+09,-1.43671e+09,1.01467e+06,-0.00526175,0.175692,-0,0.17577,-3271.63,-50432.3,-0,50538.3,1.01467e+06
step02_gravity_refstate-intrusion.xmf,216,-6.24823e-07,-5.65554e-07,0,1.0944e-05,-1.44717e+09,-1.44717e+09,-1.4471e+09,1.21198e+06,-0.00338236,0.167886,-0,0.16792,-3603.51,-50759,-0,50886.7,1.21198e+06
step02_gravity_refstate-intrusion.xmf,217,2.09536e-07,-3.26973e-06,0,1.06737e-05,-1.43442e+09,-1.4348e+09,-1.43444e+09,1.18205e+06,-0.00576777,0.1663,-0,0.1664,-3636.59,-50363.7,-0,50494.8,1.18205e+06
step02_gravity_refstate-crust.xmf,0,-1.08881e-08,4.15927e-06,0,3.71964e-09,-1.09854e+09,-1.09826e+09,-1.09854e+09,255.167,8.72923e-21,0.0428239,0,0.0428239,40000,-40000,0,56568.5,255.167
step02_gravity_refstate-crust.xmf,1,-2.76546e-08,4.17863e-06,0,2.66608e-08,-1.09855e+09,-1.09826e+09,-1.09854e+09,1828.93,4.33639e-05,0.042963,0,0.0429631,37718.5,-40000,0,54978.9,1828.93
step02_gravity_refstate-crust.xmf,2,-7.28694e-08,4.22341e-06,0,4.28765e-08,-1.09855e+09,-1.09825e+09,-1.09854e+09,2941.33,0.000150657,0.0433666,0,0.0433668,35541.8,-40000,0,53509.1,2941.33
step02_gravity_refstate-crust.xmf,3,-1.41635e-07,4.29125e-06,0,4.72501e-08,-1.09855e+09,-1.09825e+09,-1.09854e+09,3241.36,0.000373663,0.044026,0,0.0440276,33464.7,-40000,0,52152.5,3241.36
step02_gravity_refstate-crust.xmf,4,-2.4089e-07,4.37591e-06,0,3.10498e-08,-1.09856e+09,-1.09824e+09,-1.09854e+09,2130.01,0.000745691,0.0449467,0,0.0449529,31481.8,-40000,0,50902.9,2130.01
step02_gravity_refstate-crust.xmf,5,-3.46566e-07,4.48349e-06,0,4.78299e-09,-1.09857e+09,-1.09824e+09,-1.09854e+09,328.113,0.00129435,0.0461451,0,0.0461633,29588.3,-40000,0,49754.1,328.113
step02_gravity_refstate-crust.xmf,6,-4.74255e-07,4.59766e-06,0,-5.08522e-08,-1.09858e+09,-1.09823e+09,-1.09854e+09,-3488.46,0.00203493,0.0476431,0,0.0476866,27779.3,-40000,0,48700,3488.46
step02_gravity_refstate-crust.xmf,7,-6.14038e-07,4.7172e-06,0,-1.34866e-07,-1.09859e+09,-1.09822e+09,-1.09855e+09,-9251.77,0.00297395,0.0494668,0,0.0495561,26050.1,-40000,0,47734.8,9251.77
step02_gravity_refstate-crust.xmf,8,-7.61739e-07,4.83646e-06,0,-2.50717e-07,-1.0986e+09,-1.09821e+09,-1.09855e+09,-17199.2,0.00410912,0.051644,0,0.0518072,24396.4,-40000,0,46852.8,17199.2
step02_gravity_refstate-crust.xmf,9,-9.11011e-07,4.94628e-06,0,-4.02985e-07,-1.09861e+09,-1.09821e+09,-1.09855e+09,-27644.8,0.00543026,0.0542032,0,0.0544745,22813.7,-40000,0,46048.5,27644.8
step02_gravity_refstate-crust.xmf,10,-1.05532e-06,5.03784e-06,0,-5.93287e-07,-1.09862e+09,-1.09821e+09,-1.09855e+09,-40699.5,0.0069183,0.0571708,0,0.0575878,21297.9,-40000,0,45316.6,40699.5
step02_gravity_refstate-crust.xmf,11,-1.18733e-06,5.1041e-06,0,-8.22905e-07,-1.09863e+09,-1.0982e+09,-1.09855e+09,-56451.3,0.00854554,0.0605698,0,0.0611697,19844.8,-40000,0,44652.2,56451.3
step02_gravity_refstate-crust.xmf,12,-1.29741e-06,5.12538e-06,0,-1.09845e-06,-1.09865e+09,-1.09821e+09,-1.09856e+09,-75354,0.0102757,0.064418,0,0.0652324,18450.5,-40000,0,44050.2,75354
step02_gravity_refstate-crust.xmf,13,-1.37497e-06,5.11167e-06,0,-1.39969e-06,-1.09866e+09,-1.09821e+09,-1.09856e+09,-96018.6,0.0120633,0.0687232,0,0.0697739,17111.7,-40000,0,43506.4,96018.6
step02_gravity_refstate-crust.xmf,14,-1.40511e-06,5.02699e-06,0,-1.74253e-06,-1.09866e+09,-1.09822e+09,-1.09857e+09,-119537,0.0138547,0.0734851,0,0.0747798,15824.5,-40000,0,43016.5,119537
step02_gravity_refstate-crust.xmf,15,-1.38292e-06,4.87512e-06,0,-2.10787e-06,-1.09867e+09,-1.09824e+09,-1.09857e+09,-144600,0.0155897,0.0786917,0,0.0802211,14585.2,-40000,0,42576.1,144600
step02_gravity_refstate-crust.xmf,16,-1.30567e-06,4.63793e-06,0,-2.4894e-06,-1.09867e+09,-1.09826e+09,-1.09858e+09,-170773,0.0171983,0.0843181,0,0.0860542,13389.8,-40000,0,42181.6,170773
step02_gravity_refstate-crust.xmf,17,-1.14088e-06,4.30349e-06,0,-2.87213e-06,-1.09866e+09,-1.09829e+09,-1.09859e+09,-197028,0.0186119,0.0903232,0,0.0922208,12234.4,-40000,0,41829.2,197028
step02_gravity_refstate-crust.xmf,18,-8.9263e-07,3.86822e-06,0,-3.23654e-06,-1.09865e+09,-1.09833e+09,-1.09859e+09,-222026,0.0197514,0.0966474,0,0.098645,11115.2,-40000,0,41515.6,222026
step02_gravity_refstate-crust.xmf,19,-5.40438e-07,3.34166e-06,0,-3.54506e-06,-1.09864e+09,-1.09837e+09,-1.0986e+09,-243191,0.0205403,0.103213,0,0.105237,10028,-40000,0,41237.9,243191
step02_gravity_refstate-crust.xmf,20,-1.28384e-07,2.6913e-06,0,-3.81427e-06,-1.09862e+09,-1.09843e+09,-1.09861e+09,-261659,0.020905,0.109919,0,0.11189,8968.72,-40000,0,40993.1,261659
step02_gravity_refstate-crust.xmf,21,3.81134e-07,1.96397e-06,0,-3.97354e-06,-1.09859e+09,-1.09849e+09,-1.09862e+09,-272585,0.0207767,0.116647,0,0.118483,7933.15,-40000,0,40779.1,272585
step02_gravity_refstate-crust.xmf,22,9.61668e-07,1.16447e-06,0,-4.01446e-06,-1.09856e+09,-1.09855e+09,-1.09863e+09,-275392,0.0201003,0.123252,0,0.124881,6916.9,-40000,0,40593.6,275392
step02_gravity_refstate-crust.xmf,23,1.58179e-06,3.2838e-07,0,-3.90493e-06,-1.09853e+09,-1.09862e+09,-1.09864e+09,-267878,0.0188307,0.129571,0,0.130932,5915.44,-40000,0,40435,267878
step02_gravity_refstate-crust.xmf,24,2.21967e-06,-4.79032e-07,0,-3.61114e-06,-1.09849e+09,-1.09868e+09,-1.09865e+09,-247724,0.0169525,0.135424,0,0.136481,4924.17,-40000,0,40302,247724
step02_gravity_refstate-crust.xmf,25,2.82496e-06,-1.2891e-06,0,-3.1809e-06,-1.09846e+09,-1.09874e+09,-1.09865e+09,-218210,0.0144707,0.140616,0,0.141358,3938.38,-40000,0,40193.4,218210
step02_gravity_refstate-crust.xmf,26,3.36333e-06,-1.96753e-06,0,-2.56258e-06,-1.09843e+09,-1.0988e+09,-1.09866e+09,-175793,0.0114261,0.144946,0,0.145396,2953.78,-40000,0,40108.9,175793
step02_gravity_refstate-crust.xmf,27,3.78688e-06,-2.50313e-06,0,-1.79929e-06,-1.09841e+09,-1.09884e+09,-1.09867e+09,-123432,0.00790642,0.148212,0,0.148423,1969.19,-40000,0,40048.4,123432
step02_gravity_refstate-crust.xmf,28,4.05425e-06,-2.84006e-06,0,-9.23317e-07,-1.09839e+09,-1.09886e+09,-1.09867e+09,-63339.6,0.00404189,0.150244,0,0.150298,984.598,-40000,0,40012.1,63339.6
step02_gravity_refstate-crust.xmf,29,4.1554e-06,-2.95502e-06,0,1.10003e-08,-1.09838e+09,-1.09887e+09,-1.09867e+09,754.62,-9.19557e-08,0.150935,-0,0.150935,0,-40000,0,40000,754.62
step02_gravity_refstate-crust.xmf,30,4.06172e-06,-2.8292e-06,0,9.40649e-07,-1.09839e+09,-1.09886e+09,-1.09867e+09,64528.5,-0.00404215,0.150244,-0,0.150298,-984.598,-40000,-0,40012.1,64528.5
step02_gravity_refstate-crust.xmf,31,3.78467e-06,-2.47912e-06,0,1.81499e-06,-1.0984e+09,-1.09883e+09,-1.09866e+09,124508,-0.00790666,0.148212,-0,0.148423,-1969.19,-40000,-0,40048.4,124508
step02_gravity_refstate-crust.xmf,32,3.34876e-06,-1.95789e-06,0,2.5531e-06,-1.09843e+09,-1.0988e+09,-1.09866e+09,175142,-0.0114265,0.144946,-0,0.145396,-2953.78,-40000,-0,40108.9,175142
step02_gravity_refstate-crust.xmf,33,2.8178e-06,-1.24398e-06,0,3.18692e-06,-1.09846e+09,-1.09874e+09,-1.09865e+09,218623,-0.0144706,0.140616,-0,0.141358,-3938.38,-40000,-0,40193.4,218623
step02_gravity_refstate-crust.xmf,34,2.20802e-06,-4.55834e-07,0,3.62974e-06,-1.09849e+09,-1.09868e+09,-1.09865e+09,249000,-0.0169523,0.135423,-0,0.13648,-4924.17,-40000,-0,40302,249000
step02_gravity_refstate-crust.xmf,35,1.57373e-06,3.76821e-07,0,3.89701e-06,-1.09853e+09,-1.09861e+09,-1.09864e+09,267335,-0.0188306,0.129571,-0,0.130932,-5915.44,-40000,-0,40435,267335
step02_gravity_refstate-crust.xmf,36,9.49935e-07,1.20786e-06,0,4.00427e-06,-1.09856e+09,-1.09855e+09,-1.09863e+09,274693,-0.0201003,0.123252,-0,0.12488,-6916.9,-40000,-0,40593.6,274693
step02_gravity_refstate-crust.xmf,37,3.76119e-07,1.99473e-06,0,3.9614e-06,-1.09859e+09,-1.09848e+09,-1.09862e+09,271752,-0.0207767,0.116647,-0,0.118483,-7933.15,-40000,-0,40779.1,271752
step02_gravity_refstate-crust.xmf,38,-1.33257e-07,2.71577e-06,0,3.79996e-06,-1.09862e+09,-1.09842e+09,-1.09861e+09,260677,-0.0209052,0.10992,-0,0.11189,-8968.72,-40000,-0,40993.1,260677
step02_gravity_refstate-crust.xmf,39,-5.58955e-07,3.34797e-06,0,3.54399e-06,-1.09864e+09,-1.09837e+09,-1.0986e+09,243117,-0.0205403,0.103212,-0,0.105237,-10028,-40000,-0,41237.9,243117
step02_gravity_refstate-crust.xmf,40,-8.95723e-07,3.88088e-06,0,3.22215e-06,-1.09865e+09,-1.09833e+09,-1.09859e+09,221039,-0.0197514,0.0966474,-0,0.098645,-11115.2,-40000,-0,41515.6,221039
step02_gravity_refstate-crust.xmf,41,-1.14187e-06,4.31001e-06,0,2.85979e-06,-1.09866e+09,-1.09829e+09,-1.09859e+09,196181,-0.018612,0.0903232,-0,0.0922209,-12234.4,-40000,-0,41829.2,196181
step02_gravity_refstate-crust.xmf,42,-1.30297e-06,4.63661e-06,0,2.47865e-06,-1.09867e+09,-1.09826e+09,-1.09858e+09,170035,-0.0171985,0.084318,-0,0.0860542,-13389.8,-40000,-0,42181.6,170035
step02_gravity_refstate-crust.xmf,43,-1.38908e-06,4.86841e-06,0,2.10105e-06,-1.09867e+09,-1.09824e+09,-1.09857e+09,144132,-0.0155896,0.0786915,-0,0.0802209,-14585.2,-40000,-0,42576.1,144132
step02_gravity_refstate-crust.xmf,44,-1.40823e-06,5.01939e-06,0,1.73627e-06,-1.09866e+09,-1.09822e+09,-1.09857e+09,119108,-0.0138546,0.073485,-0,0.0747797,-15824.5,-40000,-0,43016.5,119108
step02_gravity_refstate-crust.xmf,45,-1.37287e-06,5.09919e-06,0,1.39732e-06,-1.09866e+09,-1.09821e+09,-1.09856e+09,95856,-0.0120633,0.068723,-0,0.0697737,-17111.7,-40000,-0,43506.4,95856
step02_gravity_refstate-crust.xmf,46,-1.29431e-06,5.11812e-06,0,1.09167e-06,-1.09865e+09,-1.09821e+09,-1.09856e+09,74888.4,-0.0102757,0.0644178,-0,0.0652322,-18450.5,-40000,-0,44050.2,74888.4
step02_gravity_refstate-crust.xmf,47,-1.18426e-06,5.08918e-06,0,8.23516e-07,-1.09864e+09,-1.0982e+09,-1.09855e+09,56493.2,-0.0085455,0.0605697,-0,0.0611696,-19844.8,-40000,-0,44652.2,56493.2
step02_gravity_refstate-crust.xmf,48,-1.05247e-06,5.02331e-06,0,5.9506e-07,-1.09862e+09,-1.09821e+09,-1.09855e+09,40821.1,-0.00691822,0.0571707,-0,0.0575878,-21297.9,-40000,-0,45316.6,40821.1
step02_gravity_refstate-crust.xmf,49,-9.08122e-07,4.93151e-06,0,4.06218e-07,-1.09861e+09,-1.09821e+09,-1.09855e+09,27866.6,-0.00543028,0.0542032,-0,0.0544746,-22813.7,-40000,-0,46048.5,27866.6
step02_gravity_refstate-crust.xmf,50,-7.59077e-07,4.82309e-06,0,2.55342e-07,-1.0986e+09,-1.09822e+09,-1.09855e+09,17516.5,-0.00410925,0.0516441,-0,0.0518073,-24396.4,-40000,-0,46852.8,17516.5
step02_gravity_refstate-crust.xmf,51,-6.11944e-07,4.70672e-06,0,1.39943e-07,-1.09859e+09,-1.09822e+09,-1.09855e+09,9600.08,-0.00297404,0.0494668,-0,0.0495561,-26050.1,-40000,-0,47734.8,9600.08
step02_gravity_refstate-crust.xmf,52,-4.72212e-07,4.58906e-06,0,5.61076e-08,-1.09858e+09,-1.09823e+09,-1.09854e+09,3848.98,-0.00203503,0.0476431,-0,0.0476866,-27779.3,-40000,-0,48700,3848.98
step02_gravity_refstate-crust.xmf,53,-3.44761e-07,4.476e-06,0,2.92713e-10,-1.09857e+09,-1.09824e+09,-1.09854e+09,20.0801,-0.0012943,0.046145,-0,0.0461632,-29588.3,-40000,-0,49754.1,20.0801
step02_gravity_refstate-crust.xmf,54,-2.33534e-07,4.37369e-06,0,-3.0764e-08,-1.09856e+09,-1.09824e+09,-1.09854e+09,-2110.41,-0.000745652,0.0449467,-0,0.0449529,-31481.8,-40000,-0,50902.9,2110.41
step02_gravity_refstate-crust.xmf,55,-1.41744e-07,4.28717e-06,0,-4.10679e-08,-1.09855e+09,-1.09825e+09,-1.09854e+09,-2817.26,-0.000373586,0.044026,-0,0.0440276,-33464.7,-40000,-0,52152.5,2817.26
step02_gravity_refstate-crust.xmf,56,-7.08078e-08,4.22011e-06,0,-3.70134e-08,-1.09855e+09,-1.09825e+09,-1.09854e+09,-2539.12,-0.000150606,0.0433666,-0,0.0433668,-35541.8,-40000,-0,53509.1,2539.12
step02_gravity_refstate-crust.xmf,57,-2.68256e-08,4.177e-06,0,-2.24084e-08,-1.09855e+09,-1.09826e+09,-1.09854e+09,-1537.22,-4.32188e-05,0.0429633,-0,0.0429633,-37718.5,-40000,-0,54978.9,1537.22
step02_gravity_refstate-crust.xmf,58,-1.106e-08,4.15936e-06,0,-3.77545e-09,-1.09854e+09,-1.09826e+09,-1.09854e+09,-258.996,-2.87672e-20,0.0428239,-0,0.0428239,-40000,-40000,-0,56568.5,258.996
step02_gravity_refstate-crust.xmf,59,-1.6418e-07,4.03335e-06,0,8.03554e-10,-1.03716e+09,-1.03687e+09,-1.03715e+09,55.1238,3.47696e-20,0.0519922,0,0.0519922,40000,-37764.5,0,55010.5,55.1238
step02_gravity_refstate-crust.xmf,60,-1.30693e-07,4.08179e-06,0,3.45955e-09,-1.05445e+09,-1.05416e+09,-1.05444e+09,237.325,0.000202823,0.0495197,0,0.0495201,38402.6,-38394.1,0,54303.5,237.325
step02_gravity_refstate-crust.xmf,61,-2.83344e-07,3.87899e-06,0,1.49098e-09,-9.74823e+08,-9.74538e+08,-9.74804e+08,102.281,1.12156e-19,0.06098,0,0.06098,40000,-35494.3,0,53477.5,102.281
step02_gravity_refstate-crust.xmf,62,-2.36678e-07,3.96337e-06,0,-1.63726e-08,-1.00545e+09,-1.00516e+09,-1.00543e+09,-1123.16,0.000391168,0.0567123,0,0.0567136,38305.4,-36609.4,0,52986.3,1123.16
step02_gravity_refstate-crust.xmf,63,-1.90499e-07,4.07109e-06,0,-7.98139e-09,-1.03947e+09,-1.03918e+09,-1.03946e+09,-547.523,0.000585827,0.0520467,0,0.05205,36544.7,-37848.5,0,52612,547.523
step02_gravity_refstate-crust.xmf,64,-3.32846e-07,3.80316e-06,0,-3.59615e-08,-9.46462e+08,-9.46178e+08,-9.46439e+08,-2466.96,0.000606787,0.0650786,0,0.0650814,38151.4,-34461.4,0,51411.3,2466.96
step02_gravity_refstate-crust.xmf,65,-3.70897e-07,3.68749e-06,0,1.5503e-09,-9.11363e+08,-9.11085e+08,-9.11338e+08,106.35,1.77621e-19,0.0697245,0,0.0697245,40000,-33183.3,0,51972.4,106.35
step02_gravity_refstate-crust.xmf,66,-2.95467e-07,3.92065e-06,0,-4.60423e-08,-9.8227e+08,-9.81981e+08,-9.8225e+08,-3158.5,0.000903526,0.0603219,0,0.0603286,36754.2,-35765.4,0,51283.9,3158.5
step02_gravity_refstate-crust.xmf,67,-2.22506e-07,4.14376e-06,0,-1.57663e-08,-1.04922e+09,-1.04892e+09,-1.04921e+09,-1081.57,0.000932067,0.0512428,0,0.0512512,34395.1,-38203.5,0,51405.5,1081.57
step02_gravity_refstate-crust.xmf,68,-4.09167e-07,3.58821e-06,0,-6.95822e-08,-8.80088e+08,-8.79814e+08,-8.8006e+08,-4773.34,0.000941027,0.074096,0,0.074102,37678.7,-32044.4,0,49462.4,4773.34
step02_gravity_refstate-crust.xmf,69,-3.73417e-07,3.78164e-06,0,-9.19502e-08,-9.33293e+08,-9.33008e+08,-9.33268e+08,-6307.78,0.00139398,0.0673864,0,0.0674008,36064.5,-33981.8,0,49552.1,6307.78
step02_gravity_refstate-crust.xmf,70,-3.25684e-07,3.97358e-06,0,-7.6669e-08,-9.88278e+08,-9.87984e+08,-9.88256e+08,-5259.49,0.00147233,0.0601005,0,0.0601186,34775.3,-35984.1,0,50041.8,5259.49
step02_gravity_refstate-crust.xmf,71,-2.86041e-07,4.22494e-06,0,-3.25678e-08,-1.05415e+09,-1.05384e+09,-1.05413e+09,-2234.15,0.0013596,0.0513868,0,0.0514048,32427.5,-38382.9,0,50247.3,2234.15
step02_gravity_refstate-crust.xmf,72,-4.30439e-07,3.46663e-06,0,5.25178e-10,-8.46612e+08,-8.46344e+08,-8.46582e+08,36.0272,1.73566e-19,0.0781581,0,0.0781581,40000,-30825.4,0,50499.5,36.0272
step02_gravity_refstate-crust.xmf,73,-3.80925e-07,4.3061e-06,0,-7.60012e-08,-1.05556e+09,-1.05524e+09,-1.05554e+09,-5213.68,0.00196408,0.0523532,0,0.05239,30517.6,-38434,0,49076.5,5213.68
step02_gravity_refstate-crust.xmf,74,-3.2685e-07,4.0813e-06,0,-7.71118e-08,-1.01343e+09,-1.01313e+09,-1.01341e+09,-5289.87,0.00168249,0.0570833,0,0.0571081,33307.5,-36900,0,49709.2,5289.87
step02_gravity_refstate-crust.xmf,75,-4.54563e-07,3.3399e-06,0,-7.78267e-08,-8.11802e+08,-8.11541e+08,-8.1177e+08,-5338.91,0.000906301,0.0826528,0,0.0826577,37986.6,-29557.8,0,48131.6,5338.91
step02_gravity_refstate-crust.xmf,76,-4.7717e-07,4.40545e-06,0,-1.28279e-07,-1.05749e+09,-1.05716e+09,-1.05746e+09,-8799.91,0.0027003,0.0535271,0,0.0535952,28688.9,-38504,0,48016.8,8799.91
step02_gravity_refstate-crust.xmf,77,-4.37631e-07,3.60045e-06,0,-1.52785e-07,-8.78097e+08,-8.7782e+08,-8.78067e+08,-10481,0.00196435,0.0750965,0,0.0751221,35276.8,-31971.8,0,47609.3,10481
step02_gravity_refstate-crust.xmf,78,-4.2318e-07,3.7866e-06,0,-1.63312e-07,-9.25505e+08,-9.25216e+08,-9.25476e+08,-11203.2,0.00230168,0.0693708,0,0.069409,33905,-33698.1,0,47802.8,11203.2
step02_gravity_refstate-crust.xmf,79,-4.12254e-07,3.96824e-06,0,-1.55041e-07,-9.7057e+08,-9.7027e+08,-9.70542e+08,-10635.8,0.00246119,0.0637767,0,0.0638242,32568.2,-35339.1,0,48057.6,10635.8
step02_gravity_refstate-crust.xmf,80,-4.05026e-07,4.13366e-06,0,-1.31845e-07,-1.01029e+09,-1.00998e+09,-1.01026e+09,-9044.58,0.00242695,0.058694,0,0.0587441,31389.8,-36785.4,0,48357.9,9044.58
step02_gravity_refstate-crust.xmf,81,-4.61639e-07,3.21709e-06,0,4.40925e-10,-7.804e+08,-7.80148e+08,-7.80368e+08,30.2475,2.02055e-19,0.0862155,0,0.0862155,40000,-28414.4,0,49065,30.2475
step02_gravity_refstate-crust.xmf,82,-4.53147e-07,3.43145e-06,0,-1.38402e-07,-8.34675e+08,-8.34408e+08,-8.34644e+08,-9494.37,0.00165386,0.0802829,0,0.0802999,36261.3,-30390.7,0,47312.5,9494.37
step02_gravity_refstate-crust.xmf,83,-4.88767e-07,4.21157e-06,0,-1.96008e-07,-1.01466e+09,-1.01434e+09,-1.01463e+09,-13446.2,0.00317602,0.0594787,0,0.0595635,29540.7,-36944.4,0,47302.6,13446.2
step02_gravity_refstate-crust.xmf,84,-5.91925e-07,4.50171e-06,0,-2.11152e-07,-1.05816e+09,-1.05781e+09,-1.05812e+09,-14485,0.00361629,0.0552033,0,0.0553216,26944.4,-38528,0,47015,14485
step02_gravity_refstate-crust.xmf,85,-4.7185e-07,3.09015e-06,0,-9.85062e-08,-7.48113e+08,-7.47869e+08,-7.48081e+08,-6757.53,0.00104492,0.0901505,0,0.0901565,37771.6,-27238.7,0,46568.7,6757.53
step02_gravity_refstate-crust.xmf,86,-4.73304e-07,3.23528e-06,0,-1.66805e-07,-7.83616e+08,-7.83362e+08,-7.83583e+08,-11442.8,0.00184112,0.0865599,0,0.0865795,36034.4,-28531.4,0,45962.1,11442.8
step02_gravity_refstate-crust.xmf,87,-5.71809e-07,4.29746e-06,0,-2.66857e-07,-1.01807e+09,-1.01774e+09,-1.01803e+09,-18306.4,0.00401294,0.060629,0,0.0607616,27832.1,-37068.2,0,46353.8,18306.4
step02_gravity_refstate-crust.xmf,88,-4.76711e-07,3.39674e-06,0,-2.19349e-07,-8.22747e+08,-8.22482e+08,-8.22715e+08,-15047.3,0.00252778,0.0825346,0,0.0825733,34443,-29956.3,0,45647.6,15047.3
step02_gravity_refstate-crust.xmf,89,-4.78855e-07,3.59323e-06,0,-2.45332e-07,-8.70074e+08,-8.69795e+08,-8.70041e+08,-16829.8,0.00300183,0.0772859,0,0.0773441,33090.7,-31679.5,0,45810.4,16829.8
step02_gravity_refstate-crust.xmf,90,-4.85237e-07,3.78817e-06,0,-2.57373e-07,-9.15764e+08,-9.15471e+08,-9.15731e+08,-17655.8,0.00335719,0.0720741,0,0.0721522,31743.4,-33343.2,0,46037.1,17655.8
step02_gravity_refstate-crust.xmf,91,-5.05057e-07,4.00123e-06,0,-2.57103e-07,-9.62832e+08,-9.62523e+08,-9.62797e+08,-17637.2,0.00360906,0.066603,0,0.0667007,30252.9,-35057,0,46305.9,17637.2
step02_gravity_refstate-crust.xmf,92,-7.16345e-07,4.59254e-06,0,-3.28304e-07,-1.05748e+09,-1.05712e+09,-1.05743e+09,-22521.7,0.00475452,0.05749,0,0.0576863,25231.5,-38502.9,0,46033.7,22521.7
step02_gravity_refstate-crust.xmf,93,-4.71569e-07,2.94482e-06,0,-2.20462e-11,-7.12557e+08,-7.12323e+08,-7.12525e+08,-1.51237,2.33889e-19,0.0938264,0,0.0938264,40000,-25944,0,47676.9,1.51237
step02_gravity_refstate-crust.xmf,94,-5.56789e-07,4.12353e-06,0,-3.02912e-07,-9.82705e+08,-9.82384e+08,-9.82667e+08,-20779.7,0.00420371,0.0652326,0,0.0653679,28600,-35780.5,0,45806.2,20779.7
step02_gravity_refstate-crust.xmf,95,-6.71513e-07,4.36532e-06,0,-3.7735e-07,-1.01752e+09,-1.01717e+09,-1.01747e+09,-25886.2,0.00508816,0.06278,0,0.0629858,26120.5,-37047.8,0,45330.2,25886.2
step02_gravity_refstate-crust.xmf,96,-4.69073e-07,2.76984e-06,0,-1.22866e-07,-6.70754e+08,-6.70532e+08,-6.70722e+08,-8428.64,0.00120027,0.0984785,0,0.0984858,37435,-24421.9,0,44696.8,8428.64
step02_gravity_refstate-crust.xmf,97,-4.80208e-07,2.9942e-06,0,-2.12438e-07,-7.24502e+08,-7.24264e+08,-7.2447e+08,-14573.2,0.00217095,0.0935095,0,0.0935347,35413.8,-26378.9,0,44158.6,14573.2
step02_gravity_refstate-crust.xmf,98,-4.91396e-07,3.17962e-06,0,-2.79617e-07,-7.68757e+08,-7.68505e+08,-7.68723e+08,-19181.7,0.0029719,0.0893938,0,0.0894432,33722.5,-27990.3,0,43825.4,19181.7
step02_gravity_refstate-crust.xmf,99,-6.28519e-07,4.15146e-06,0,-4.02464e-07,-9.78096e+08,-9.77768e+08,-9.78053e+08,-27609,0.00516517,0.0676289,0,0.0678259,27098.9,-35612.4,0,44750.4,27609
step02_gravity_refstate-crust.xmf,100,-5.05183e-07,3.37751e-06,0,-3.24593e-07,-8.15162e+08,-8.14895e+08,-8.15127e+08,-22267.1,0.00360395,0.0847944,0,0.0848709,32291.1,-29680,0,43859.1,22267.1
step02_gravity_refstate-crust.xmf,101,-5.22802e-07,3.57836e-06,0,-3.53435e-07,-8.6107e+08,-8.60788e+08,-8.61034e+08,-24245.7,0.00410512,0.0800168,0,0.080122,30977.2,-31351.5,0,44073.9,24245.7
step02_gravity_refstate-crust.xmf,102,-5.486e-07,3.77603e-06,0,-3.7424e-07,-9.04211e+08,-9.03914e+08,-9.04173e+08,-25672.8,0.00453014,0.0754507,0,0.0755865,29654.8,-32922.3,0,44309,25672.8
step02_gravity_refstate-crust.xmf,103,-5.8639e-07,3.95771e-06,0,-3.9784e-07,-9.40906e+08,-9.40594e+08,-9.40866e+08,-27291.8,0.00494965,0.0717254,0,0.071896,28279.7,-34258.4,0,44422.7,27291.8
step02_gravity_refstate-crust.xmf,104,-7.73376e-07,4.40523e-06,0,-5.32614e-07,-1.01312e+09,-1.01277e+09,-1.01307e+09,-36537.3,0.0064352,0.0660429,0,0.0663557,24380.3,-36887.4,0,44216.3,36537.3
step02_gravity_refstate-crust.xmf,105,-8.43117e-07,4.66425e-06,0,-4.89259e-07,-1.05462e+09,-1.05424e+09,-1.05456e+09,-33563.1,0.0061493,0.0606089,0,0.0609201,23540.3,-38398.2,0,45039.6,33563.1
step02_gravity_refstate-crust.xmf,106,-4.63317e-07,2.65317e-06,0,1.85455e-10,-6.42923e+08,-6.42709e+08,-6.42891e+08,12.7222,3.85412e-20,0.100923,0,0.100923,40000,-23408.5,0,46346.1,12.7222
step02_gravity_refstate-crust.xmf,107,-7.07168e-07,4.17252e-06,0,-5.41324e-07,-9.73519e+08,-9.73184e+08,-9.73471e+08,-37134.9,0.00638362,0.070665,0,0.0709527,25378.3,-35445.5,0,43594.1,37134.9
step02_gravity_refstate-crust.xmf,108,-9.57296e-07,4.74008e-06,0,-6.63794e-07,-1.05748e+09,-1.05709e+09,-1.05742e+09,-45536.2,0.00750007,0.0630967,0,0.0635409,21956.9,-38502.1,0,44322.9,45536.2
step02_gravity_refstate-crust.xmf,109,-4.53334e-07,2.48613e-06,0,-8.65569e-08,-6.0419e+08,-6.03988e+08,-6.04158e+08,-5937.8,0.000799786,0.104689,0,0.104692,38236.3,-21998.1,0,44112.7,5937.8
step02_gravity_refstate-crust.xmf,110,-4.44489e-07,2.34642e-06,0,-5.45802e-10,-5.71333e+08,-5.71141e+08,-5.71302e+08,-37.442,1.97485e-19,0.107439,0,0.107439,40000,-20801.8,0,45085.6,37.442
step02_gravity_refstate-crust.xmf,111,-4.69163e-07,2.71373e-06,0,-2.67074e-07,-6.59165e+08,-6.58946e+08,-6.59132e+08,-18321.3,0.00254649,0.100702,0,0.100734,34546.4,-23999.8,0,42064.8,18321.3
step02_gravity_refstate-crust.xmf,112,-4.86899e-07,2.93553e-06,0,-3.36788e-07,-7.11677e+08,-7.11443e+08,-7.11644e+08,-23103.7,0.00334296,0.0962085,0,0.0962665,32981.4,-25911.9,0,41942.8,23103.7
step02_gravity_refstate-crust.xmf,113,-5.07156e-07,3.14441e-06,0,-3.95983e-07,-7.60563e+08,-7.60312e+08,-7.60528e+08,-27164.5,0.00407982,0.0918696,0,0.0919601,31514.3,-27691.9,0,41952.3,27164.5
step02_gravity_refstate-crust.xmf,114,-6.50557e-07,3.95702e-06,0,-5.33572e-07,-9.33955e+08,-9.33639e+08,-9.3391e+08,-36603,0.00615955,0.0749897,0,0.0752422,26447,-34005.1,0,43078.9,36603
step02_gravity_refstate-crust.xmf,115,-5.32066e-07,3.35338e-06,0,-4.41496e-07,-8.08213e+08,-8.07947e+08,-8.08177e+08,-30286.6,0.00471631,0.0874018,0,0.0875289,30177.5,-29426.9,0,42150,30286.6
step02_gravity_refstate-crust.xmf,116,-5.63284e-07,3.55755e-06,0,-4.77975e-07,-8.53096e+08,-8.52813e+08,-8.53057e+08,-32789.1,0.00527132,0.0830504,0,0.0832175,28898.1,-31061,0,42425.1,32789.1
step02_gravity_refstate-crust.xmf,117,-6.03695e-07,3.74939e-06,0,-5.17061e-07,-8.93128e+08,-8.92829e+08,-8.93087e+08,-35470.4,0.00582532,0.0792797,0,0.0794934,27553.7,-32518.6,0,42622.4,35470.4
step02_gravity_refstate-crust.xmf,118,-7.75823e-07,4.15926e-06,0,-7.21079e-07,-9.66778e+08,-9.6644e+08,-9.66725e+08,-49466,0.00780166,0.074614,0,0.0750208,23589.6,-35199.8,0,42373.3,49466
step02_gravity_refstate-crust.xmf,119,-8.76815e-07,4.4144e-06,0,-7.53822e-07,-1.00781e+09,-1.00744e+09,-1.00775e+09,-51712.2,0.00812577,0.0703731,0,0.0708407,22446.7,-36693.5,0,43014.7,51712.2
step02_gravity_refstate-crust.xmf,120,-1.05991e-06,4.79806e-06,0,-8.5389e-07,-1.06061e+09,-1.06021e+09,-1.06054e+09,-58576.8,0.00885421,0.0657032,0,0.0662971,20536.2,-38615.6,0,43736.7,58576.8
step02_gravity_refstate-crust.xmf,121,-4.31011e-07,2.18813e-06,0,-1.13967e-07,-5.34879e+08,-5.34699e+08,-5.34849e+08,-7818.16,0.00100605,0.110689,0,0.110694,37669.5,-19474.4,0,42405.7,7818.16
step02_gravity_refstate-crust.xmf,122,-4.51221e-07,2.46779e-06,0,-1.93909e-07,-6.01059e+08,-6.00858e+08,-6.01028e+08,-13302.2,0.00177385,0.105527,0,0.105542,36076.9,-21884.1,0,42195.5,13302.2
step02_gravity_refstate-crust.xmf,123,-4.20301e-07,2.0312e-06,0,5.8224e-13,-4.97609e+08,-4.97441e+08,-4.9758e+08,0.0399416,4.13888e-20,0.113313,0,0.113313,40000,-18117.4,0,43911.7,0.0399416
step02_gravity_refstate-crust.xmf,124,-7.02166e-07,3.93588e-06,0,-6.91026e-07,-9.27367e+08,-9.27049e+08,-9.27319e+08,-47404.4,0.00744051,0.0786157,0,0.078967,24646.5,-33765,0,41803.4,47404.4
step02_gravity_refstate-crust.xmf,125,-9.63476e-07,4.54584e-06,0,-8.74996e-07,-1.02689e+09,-1.02652e+09,-1.02683e+09,-60024.7,0.00901293,0.0701178,0,0.0706947,21100.7,-37388.2,0,42931.6,60024.7
step02_gravity_refstate-crust.xmf,126,-4.07266e-07,1.87828e-06,0,-9.39674e-08,-4.62602e+08,-4.62445e+08,-4.62574e+08,-6446.16,0.000814642,0.115975,0,0.115978,38007.7,-16842.7,0,41572.4,6446.16
step02_gravity_refstate-crust.xmf,127,-3.98544e-07,1.70981e-06,0,-2.58934e-10,-4.2157e+08,-4.21425e+08,-4.21543e+08,-17.7628,1.24981e-19,0.118486,0,0.118486,40000,-15348.7,0,42843.7,17.7628
step02_gravity_refstate-crust.xmf,128,-4.41094e-07,2.39779e-06,0,-3.25774e-07,-5.88266e+08,-5.88071e+08,-5.88236e+08,-22348.1,0.00292273,0.107897,0,0.107937,33452,-21418.3,0,39721.3,22348.1
step02_gravity_refstate-crust.xmf,129,-4.65829e-07,2.67216e-06,0,-3.94883e-07,-6.52832e+08,-6.52617e+08,-6.528e+08,-27089,0.00369505,0.10285,0,0.102916,32066.3,-23769.3,0,39915.2,27089
step02_gravity_refstate-crust.xmf,130,-4.89671e-07,2.89406e-06,0,-4.60141e-07,-7.0515e+08,-7.04918e+08,-7.05116e+08,-31565.7,0.00445333,0.098651,0,0.0987515,30691.3,-25674.2,0,40014,31565.7
step02_gravity_refstate-crust.xmf,131,-5.17796e-07,3.10816e-06,0,-5.18905e-07,-7.54693e+08,-7.54444e+08,-7.54657e+08,-35596.9,0.00518138,0.094496,0,0.0946379,29362.7,-27478.1,0,40214.6,35596.9
step02_gravity_refstate-crust.xmf,132,-6.41997e-07,3.72432e-06,0,-6.57139e-07,-8.8703e+08,-8.86731e+08,-8.86986e+08,-45079.8,0.00699836,0.0825618,0,0.0828578,25731.5,-32296.4,0,41293.7,45079.8
step02_gravity_refstate-crust.xmf,133,-5.51497e-07,3.3174e-06,0,-5.68596e-07,-8.01614e+08,-8.01348e+08,-8.01576e+08,-39005.7,0.00583703,0.0903575,0,0.0905458,28126.4,-29186.5,0,40533.3,39005.7
step02_gravity_refstate-crust.xmf,134,-5.92134e-07,3.51961e-06,0,-6.15238e-07,-8.45221e+08,-8.44939e+08,-8.45181e+08,-42205.3,0.0064516,0.0864434,0,0.0866838,26904.4,-30774.2,0,40876.6,42205.3
step02_gravity_refstate-crust.xmf,135,-7.32602e-07,3.88361e-06,0,-8.69004e-07,-9.20764e+08,-9.20447e+08,-9.20714e+08,-59613.6,0.00875862,0.0826669,0,0.0831296,22874.6,-33524.4,0,40584.9,59613.6
step02_gravity_refstate-crust.xmf,136,-8.15499e-07,4.0967e-06,0,-9.29447e-07,-9.58288e+08,-9.57951e+08,-9.58232e+08,-63760,0.00929345,0.0793113,0,0.0798539,21826.2,-34890.5,0,41154.9,63760
step02_gravity_refstate-crust.xmf,137,-9.03196e-07,4.28815e-06,0,-1.01007e-06,-9.90104e+08,-9.89748e+08,-9.90042e+08,-69291.1,0.0098997,0.0768604,0,0.0774953,20741.4,-36048.7,0,41589.8,69291.1
step02_gravity_refstate-crust.xmf,138,-1.0134e-06,4.52511e-06,0,-1.07394e-06,-1.02478e+09,-1.0244e+09,-1.02471e+09,-73672.2,0.0103311,0.0736012,0,0.0743227,19803.9,-37311,0,42241,73672.2
step02_gravity_refstate-crust.xmf,139,-1.14652e-06,4.81918e-06,0,-1.09174e-06,-1.06222e+09,-1.06181e+09,-1.06214e+09,-74893.7,0.0103987,0.0691232,0,0.0699009,19102,-38673.9,0,43134.1,74893.7
step02_gravity_refstate-crust.xmf,140,-3.87071e-07,1.38525e-06,0,-8.75286e-10,-3.43033e+08,-3.42911e+08,-3.43006e+08,-60.0446,1.87932e-19,0.12291,0,0.12291,40000,-12489,0,41904.4,60.0446
step02_gravity_refstate-crust.xmf,141,-3.87596e-07,1.56977e-06,0,-1.24985e-07,-3.89075e+08,-3.88941e+08,-3.89049e+08,-8573.95,0.00112949,0.120773,0,0.120778,37106.9,-14165.5,0,39718.8,8573.95
step02_gravity_refstate-crust.xmf,142,-4.28697e-07,2.21351e-06,0,-2.32446e-07,-5.43146e+08,-5.42964e+08,-5.43116e+08,-15945.8,0.00204772,0.110776,0,0.110794,35266.5,-19775.4,0,40432.6,15945.8
step02_gravity_refstate-crust.xmf,143,-4.0217e-07,1.89448e-06,0,-2.17247e-07,-4.68868e+08,-4.68711e+08,-4.68841e+08,-14903.2,0.00186976,0.116272,0,0.116287,35413.2,-17070.9,0,39313,14903.2
step02_gravity_refstate-crust.xmf,144,-6.64019e-07,3.67721e-06,0,-8.13262e-07,-8.81533e+08,-8.81236e+08,-8.81488e+08,-55789.8,0.00819818,0.0861618,0,0.0865509,23929.6,-32096.1,0,40034.8,55789.8
step02_gravity_refstate-crust.xmf,145,-1.21812e-06,4.82147e-06,0,-1.34736e-06,-1.06742e+09,-1.067e+09,-1.06733e+09,-92429,0.011855,0.0721429,0,0.0731105,17781.1,-38862.9,0,42737.5,92429
step02_gravity_refstate-crust.xmf,146,-3.8269e-07,1.21817e-06,0,-9.54937e-08,-3.01469e+08,-3.01359e+08,-3.01443e+08,-6550.87,0.000969393,0.12513,0,0.125134,37500.1,-10975.6,0,39073.3,6550.87
step02_gravity_refstate-crust.xmf,147,-3.96676e-07,1.07292e-06,0,1.72791e-10,-2.61808e+08,-2.61707e+08,-2.61781e+08,11.8534,4.74819e-20,0.126541,0,0.126541,40000,-9531.44,0,41119.9,11.8534
step02_gravity_refstate-crust.xmf,148,-4.0864e-07,2.07957e-06,0,-3.18927e-07,-5.15278e+08,-5.15107e+08,-5.1525e+08,-21878.4,0.00276078,0.113863,0,0.113897,33425.7,-18760.8,0,38330.7,21878.4
step02_gravity_refstate-crust.xmf,149,-4.32563e-07,2.40845e-06,0,-4.4935e-07,-5.95755e+08,-5.9556e+08,-5.95725e+08,-30825.4,0.00400915,0.108939,0,0.109012,31009.3,-21691,0,37842.8,30825.4
step02_gravity_refstate-crust.xmf,150,-4.56113e-07,2.62751e-06,0,-5.16955e-07,-6.48336e+08,-6.48125e+08,-6.48305e+08,-35463.1,0.0047405,0.105196,0,0.105303,29770.1,-23605.6,0,37993.2,35463.1
step02_gravity_refstate-crust.xmf,151,-4.85146e-07,2.84958e-06,0,-5.842e-07,-7.00893e+08,-7.00665e+08,-7.0086e+08,-40076.1,0.00551008,0.101236,0,0.101386,28501.3,-25519.2,0,38256.4,40076.1
step02_gravity_refstate-crust.xmf,152,-5.17741e-07,3.05639e-06,0,-6.45223e-07,-7.48794e+08,-7.48549e+08,-7.48758e+08,-44262.3,0.00623604,0.0974631,0,0.0976624,27308.5,-27263.2,0,38588,44262.3
step02_gravity_refstate-crust.xmf,153,-6.06355e-07,3.47241e-06,0,-7.58871e-07,-8.39997e+08,-8.39717e+08,-8.39955e+08,-52058.5,0.00759485,0.0898039,0,0.0901245,25012.8,-30583.9,0,39509.7,52058.5
step02_gravity_refstate-crust.xmf,154,-5.58689e-07,3.26886e-06,0,-7.03041e-07,-7.96311e+08,-7.96048e+08,-7.96272e+08,-48228.6,0.00693867,0.0935148,0,0.0937719,26141.1,-28993.3,0,39038.1,48228.6
step02_gravity_refstate-crust.xmf,155,-6.62585e-07,3.59984e-06,0,-9.80761e-07,-8.76378e+08,-8.76086e+08,-8.76332e+08,-67280.2,0.00937476,0.0900764,0,0.0905629,22167,-31908.3,0,38852.5,67280.2
step02_gravity_refstate-crust.xmf,156,-7.32992e-07,3.79341e-06,0,-1.05951e-06,-9.14329e+08,-9.14018e+08,-9.14278e+08,-72682.6,0.0100427,0.0870575,0,0.0876348,21154.6,-33290,0,39442.9,72682.6
step02_gravity_refstate-crust.xmf,157,-8.1395e-07,3.98635e-06,0,-1.14865e-06,-9.49941e+08,-9.49611e+08,-9.49885e+08,-78797.6,0.0107111,0.0843089,0,0.0849866,20150.5,-34586.4,0,40028.3,78797.6
step02_gravity_refstate-crust.xmf,158,-9.12448e-07,4.19494e-06,0,-1.24758e-06,-9.8521e+08,-9.84859e+08,-9.85147e+08,-85583.7,0.0113663,0.0815337,0,0.0823222,19173.2,-35870.3,0,40673,85583.7
step02_gravity_refstate-crust.xmf,159,-1.05016e-06,4.45325e-06,0,-1.36174e-06,-1.02408e+09,-1.0237e+09,-1.02401e+09,-93415.5,0.0120232,0.0782563,0,0.0791745,18169,-37285.2,0,41476.5,93415.5
step02_gravity_refstate-crust.xmf,160,-1.24452e-06,4.76004e-06,0,-1.63695e-06,-1.06899e+09,-1.06858e+09,-1.0689e+09,-112295,0.0134464,0.0763302,0,0.0775056,16467.9,-38919.9,0,42260.5,112295
step02_gravity_refstate-crust.xmf,161,-3.71136e-07,1.31979e-06,0,-1.88251e-07,-3.29446e+08,-3.2933e+08,-3.29421e+08,-12914,0.00179609,0.124462,0,0.124475,35296.3,-11994.4,0,37278.6,12914
step02_gravity_refstate-crust.xmf,162,-4.42406e-07,7.7119e-07,0,-1.53198e-09,-1.77705e+08,-1.77622e+08,-1.77674e+08,-105.094,2.66836e-19,0.129356,0,0.129356,40000,-6468.93,0,40519.7,105.094
step02_gravity_refstate-crust.xmf,163,-4.04698e-07,9.47486e-07,0,-6.94888e-08,-2.29076e+08,-2.28983e+08,-2.29048e+08,-4766.93,0.00087301,0.127921,0,0.127924,37865.7,-8339.58,0,38773.2,4766.93
step02_gravity_refstate-crust.xmf,164,-3.68742e-07,1.55054e-06,0,-2.55128e-07,-3.88088e+08,-3.87956e+08,-3.88062e+08,-17501.8,0.00228028,0.121925,0,0.121946,34061.6,-14129.6,0,36875.9,17501.8
step02_gravity_refstate-crust.xmf,165,-4.10355e-07,2.19694e-06,0,-4.06489e-07,-5.46086e+08,-5.45907e+08,-5.46058e+08,-27885.2,0.00354571,0.112564,0,0.11262,31716.9,-19882.6,0,37433.7,27885.2
step02_gravity_refstate-crust.xmf,166,-6.04272e-07,3.41218e-06,0,-9.08882e-07,-8.37308e+08,-8.37033e+08,-8.37267e+08,-62349.3,0.00869867,0.0931626,0,0.0935678,23186.5,-30485.9,0,38301.5,62349.3
step02_gravity_refstate-crust.xmf,167,-1.20796e-06,4.60333e-06,0,-1.96374e-06,-1.06873e+09,-1.06833e+09,-1.06865e+09,-134712,0.015037,0.0813358,0,0.0827141,15175.7,-38910.4,0,41765.1,134712
step02_gravity_refstate-crust.xmf,168,-1.13937e-06,4.41266e-06,0,-2.28482e-06,-1.0707e+09,-1.07032e+09,-1.07062e+09,-156739,0.0164339,0.0860971,0,0.0876515,13987.5,-38982.1,0,41415.6,156739
step02_gravity_refstate-crust.xmf,169,-1.11148e-06,4.52141e-06,0,-1.56714e-06,-1.04141e+09,-1.04102e+09,-1.04133e+09,-107506,0.0131356,0.0791866,0,0.0802687,16983.3,-37916,0,41545.8,107506
step02_gravity_refstate-crust.xmf,170,-3.79804e-07,1.0156e-06,0,-1.70442e-07,-2.50973e+08,-2.50878e+08,-2.50947e+08,-11692.3,0.00196543,0.127911,0,0.127926,35001.8,-9136.97,0,36174.7,11692.3
step02_gravity_refstate-crust.xmf,171,-4.53486e-07,6.78943e-07,0,-7.61863e-08,-1.51383e+08,-1.51305e+08,-1.51352e+08,-5226.38,0.00140547,0.130395,0,0.130402,36955.1,-5510.46,0,37363.7,5226.38
step02_gravity_refstate-crust.xmf,172,-5.38559e-07,4.97992e-07,0,-6.91855e-10,-9.05252e+07,-9.04541e+07,-9.04883e+07,-47.4612,2.68244e-19,0.131365,0,0.131365,40000,-3294.25,0,40135.4,47.4612
step02_gravity_refstate-crust.xmf,173,-3.48826e-07,1.24796e-06,0,-2.71089e-07,-3.15568e+08,-3.15458e+08,-3.15544e+08,-18596.7,0.00263756,0.126183,0,0.12621,32958.8,-11489.1,0,34903.9,18596.7
step02_gravity_refstate-crust.xmf,174,-3.7189e-07,1.76802e-06,0,-3.44497e-07,-4.44363e+08,-4.44216e+08,-4.44337e+08,-23632.5,0.00295964,0.119398,0,0.119435,32474.8,-16178.7,0,36281.7,23632.5
step02_gravity_refstate-crust.xmf,175,-3.87566e-07,2.13582e-06,0,-5.01389e-07,-5.38228e+08,-5.38055e+08,-5.38201e+08,-34395.3,0.00431662,0.114794,0,0.114875,29709.8,-19596.5,0,35590.7,34395.3
step02_gravity_refstate-crust.xmf,176,-3.773e-07,1.95967e-06,0,-4.29521e-07,-4.93521e+08,-4.93361e+08,-4.93495e+08,-29465.2,0.00367217,0.117117,0,0.117174,30943.6,-17968.6,0,35782.4,29465.2
step02_gravity_refstate-crust.xmf,177,-4.09334e-07,2.3505e-06,0,-5.63541e-07,-5.90366e+08,-5.90176e+08,-5.90338e+08,-38658.9,0.00495072,0.111463,0,0.111573,28719.3,-21494.8,0,35872.4,38658.9
step02_gravity_refstate-crust.xmf,178,-4.35703e-07,2.56689e-06,0,-6.35395e-07,-6.43433e+08,-6.43227e+08,-6.43404e+08,-43588.1,0.00569783,0.107926,0,0.108076,27575,-23427,0,36182.9,43588.1
step02_gravity_refstate-crust.xmf,179,-4.66015e-07,2.77746e-06,0,-7.06614e-07,-6.9428e+08,-6.94057e+08,-6.94248e+08,-48473.7,0.00647769,0.104377,0,0.104578,26410,-25278.4,0,36558,48473.7
step02_gravity_refstate-crust.xmf,180,-5.04239e-07,2.99335e-06,0,-7.7379e-07,-7.44659e+08,-7.44419e+08,-7.44625e+08,-53082,0.00724153,0.100565,0,0.100825,25313.8,-27112.7,0,37092.9,53082
step02_gravity_refstate-crust.xmf,181,-5.50587e-07,3.20732e-06,0,-8.3971e-07,-7.92835e+08,-7.92578e+08,-7.92798e+08,-57604.1,0.00798035,0.0967339,0,0.0970625,24249.7,-28866.7,0,37700.6,57604.1
step02_gravity_refstate-crust.xmf,182,-5.75716e-07,3.31385e-06,0,-1.05948e-06,-8.3293e+08,-8.32663e+08,-8.3289e+08,-72680.3,0.00970773,0.096955,0,0.0974398,21451.2,-30326.4,0,37146.3,72680.3
step02_gravity_refstate-crust.xmf,183,-6.32848e-07,3.49015e-06,0,-1.15165e-06,-8.71923e+08,-8.7164e+08,-8.7188e+08,-79003.4,0.0104689,0.0941874,0,0.0947674,20463.7,-31746.1,0,37770.1,79003.4
step02_gravity_refstate-crust.xmf,184,-1.01354e-06,4.14464e-06,0,-2.6181e-06,-1.07292e+09,-1.07256e+09,-1.07285e+09,-179602,0.0177116,0.0912649,0,0.0929677,12817.3,-39062.9,0,41111.9,179602
step02_gravity_refstate-crust.xmf,185,-7.00244e-07,3.66791e-06,0,-1.25267e-06,-9.09161e+08,-9.08862e+08,-9.09113e+08,-85933.4,0.0112223,0.0915508,0,0.092236,19505,-33101.8,0,38421,85933.4
step02_gravity_refstate-crust.xmf,186,-7.76926e-07,3.84309e-06,0,-1.36801e-06,-9.44263e+08,-9.43946e+08,-9.4421e+08,-93845.2,0.0119891,0.0891905,0,0.0899927,18552.1,-34379.7,0,39065.9,93845.2
step02_gravity_refstate-crust.xmf,187,-8.70166e-07,4.02895e-06,0,-1.50073e-06,-9.78932e+08,-9.78596e+08,-9.78872e+08,-102950,0.0127786,0.0869031,0,0.0878376,17609.3,-35641.7,0,39754.5,102950
step02_gravity_refstate-crust.xmf,188,-1.06604e-06,4.36424e-06,0,-1.82149e-06,-1.03798e+09,-1.03761e+09,-1.03791e+09,-124955,0.0144167,0.0838366,0,0.0850671,15823.8,-37791.2,0,40970.4,124955
step02_gravity_refstate-crust.xmf,189,-9.59454e-07,4.18696e-06,0,-1.65771e-06,-1.00884e+09,-1.00849e+09,-1.00878e+09,-113719,0.0136189,0.0854186,0,0.0864974,16664.4,-36730.6,0,40334.1,113719
step02_gravity_refstate-crust.xmf,190,-5.64612e-07,4.29125e-07,0,-3.12568e-08,-6.76334e+07,-6.75652e+07,-6.75946e+07,-2144.22,0.00142736,0.131976,0,0.131983,37504.2,-2460.64,0,37584.8,2144.22
step02_gravity_refstate-crust.xmf,191,-7.16733e-07,2.73825e-07,0,6.40763e-09,-68005.6,-53.334,-18837.7,439.563,2.29727e-19,0.13262,0,0.13262,40000,0,0,40000,439.563
step02_gravity_refstate-crust.xmf,192,-3.36957e-07,1.48187e-06,0,-3.61095e-07,-3.77226e+08,-3.77102e+08,-3.77203e+08,-24771.1,0.003229,0.124111,0,0.124153,31334.1,-13734.2,0,34211.9,24771.1
step02_gravity_refstate-crust.xmf,193,-5.24479e-07,3.12841e-06,0,-9.77109e-07,-7.90854e+08,-7.90603e+08,-7.90818e+08,-67029.6,0.00895208,0.100051,0,0.100451,22424.8,-28794.5,0,36496.5,67029.6
step02_gravity_refstate-crust.xmf,194,-9.32946e-07,4.04997e-06,0,-2.41697e-06,-1.05251e+09,-1.05217e+09,-1.05245e+09,-165804,0.0169732,0.091757,0,0.0933136,13355.9,-38320.2,0,40581,165804
step02_gravity_refstate-crust.xmf,195,-9.46378e-07,4.11342e-06,0,-2.15016e-06,-1.0375e+09,-1.03715e+09,-1.03744e+09,-147501,0.0159042,0.0896593,0,0.091059,14354.7,-37773.8,0,40409.4,147501
step02_gravity_refstate-crust.xmf,196,-3.42756e-07,9.56597e-07,0,-2.60411e-07,-2.40668e+08,-2.40579e+08,-2.40645e+08,-17864.2,0.00311535,0.129806,0,0.129843,31878.2,-8761.87,0,33060.4,17864.2
step02_gravity_refstate-crust.xmf,197,-4.05557e-07,6.98511e-07,0,-1.61624e-07,-1.62899e+08,-1.62824e+08,-1.62872e+08,-11087.4,0.00284226,0.131291,0,0.131322,33503.9,-5929.96,0,34024.6,11087.4
step02_gravity_refstate-crust.xmf,198,-5.1857e-07,4.48104e-07,0,-7.3418e-08,-7.8584e+07,-7.85177e+07,-7.85484e+07,-5036.48,0.0027749,0.132483,0,0.132512,34897.8,-2859.52,0,35014.8,5036.48
step02_gravity_refstate-crust.xmf,199,-6.9231e-07,2.62452e-07,0,3.27727e-09,-65775.2,-278.524,-18282.7,224.821,0.00241847,0.13301,0,0.133032,36571.8,0,0,36571.8,224.821
step02_gravity_refstate-crust.xmf,200,-3.09695e-07,1.1861e-06,0,-3.60988e-07,-3.06577e+08,-3.06474e+08,-3.06555e+08,-24763.8,0.00354332,0.12833,0,0.128379,30211.6,-11161.8,0,32207.5,24763.8
step02_gravity_refstate-crust.xmf,201,-3.54896e-07,2.06959e-06,0,-5.95754e-07,-5.3192e+08,-5.31754e+08,-5.31896e+08,-40868.8,0.00505993,0.117279,0,0.117388,27622.4,-19366.9,0,33735.4,40868.8
step02_gravity_refstate-crust.xmf,202,-3.33575e-07,1.68316e-06,0,-4.56562e-07,-4.3226e+08,-4.32122e+08,-4.32237e+08,-31320.2,0.00389413,0.122141,0,0.122203,29730.6,-15738.1,0,33639.2,31320.2
step02_gravity_refstate-crust.xmf,203,-3.41733e-07,1.88819e-06,0,-5.30496e-07,-4.8522e+08,-4.85067e+08,-4.85197e+08,-36392,0.00448796,0.119701,0,0.119785,28581.7,-17666.5,0,33600.8,36392
step02_gravity_refstate-crust.xmf,204,-3.75783e-07,2.28151e-06,0,-6.68224e-07,-5.85292e+08,-5.8511e+08,-5.85267e+08,-45840.2,0.0057629,0.114197,0,0.114342,26577.3,-21310.2,0,34065.8,45840.2
step02_gravity_refstate-crust.xmf,205,-4.00104e-07,2.48182e-06,0,-7.47803e-07,-6.36958e+08,-6.3676e+08,-6.36931e+08,-51299.3,0.00654413,0.111095,0,0.111288,25454.8,-23191.3,0,34435.2,51299.3
step02_gravity_refstate-crust.xmf,206,-4.30609e-07,2.69002e-06,0,-8.2845e-07,-6.89136e+08,-6.88922e+08,-6.89107e+08,-56831.7,0.00737749,0.107724,0,0.107976,24333.8,-25091.1,0,34952.8,56831.7
step02_gravity_refstate-crust.xmf,207,-4.77401e-07,2.92525e-06,0,-8.98462e-07,-7.43454e+08,-7.43221e+08,-7.43421e+08,-61634.5,0.00815843,0.103558,0,0.103879,23431,-27068.8,0,35801.3,61634.5
step02_gravity_refstate-crust.xmf,208,-4.77741e-07,3.02913e-06,0,-1.11457e-06,-7.90704e+08,-7.90463e+08,-7.90671e+08,-76459.8,0.00984336,0.103434,0,0.103902,20643.4,-28789.1,0,35425.5,76459.8
step02_gravity_refstate-crust.xmf,209,-8.0387e-07,3.77377e-06,0,-2.93409e-06,-1.07356e+09,-1.07324e+09,-1.0735e+09,-201278,0.0187472,0.0969411,0,0.0987372,11689.5,-39086.5,0,40797,201278
step02_gravity_refstate-crust.xmf,210,-5.22823e-07,3.19236e-06,0,-1.20884e-06,-8.30487e+08,-8.30232e+08,-8.30451e+08,-82926.7,0.0106212,0.100774,0,0.101332,19758.2,-30237.5,0,36120.6,82926.7
step02_gravity_refstate-crust.xmf,211,-5.73145e-07,3.34844e-06,0,-1.31687e-06,-8.68296e+08,-8.68027e+08,-8.68257e+08,-90337.3,0.0114236,0.09837,0,0.099031,18844.4,-31614.1,0,36804.4,90337.3
step02_gravity_refstate-crust.xmf,212,-7.42147e-07,3.70357e-06,0,-2.67084e-06,-1.04933e+09,-1.04903e+09,-1.04928e+09,-183219,0.0178104,0.0971365,0,0.0987558,12303.9,-38204.8,0,40137.2,183219
step02_gravity_refstate-crust.xmf,213,-6.3096e-07,3.50185e-06,0,-1.44143e-06,-9.04773e+08,-9.04489e+08,-9.0473e+08,-98882,0.0122545,0.0961675,0,0.0969451,17919.8,-32942,0,37500.6,98882
step02_gravity_refstate-crust.xmf,214,-6.93944e-07,3.64682e-06,0,-1.58415e-06,-9.39022e+08,-9.38725e+08,-9.38975e+08,-108672,0.0131092,0.0943044,0,0.0952112,16997.4,-34188.9,0,38181,108672
step02_gravity_refstate-crust.xmf,215,-7.66749e-07,3.79292e-06,0,-1.74685e-06,-9.72169e+08,-9.71856e+08,-9.72116e+08,-119834,0.0139904,0.0926189,0,0.0936696,16099.8,-35395.5,0,38885,119834
step02_gravity_refstate-crust.xmf,216,-8.50683e-07,3.94028e-06,0,-1.93202e-06,-1.004e+09,-1.00367e+09,-1.00395e+09,-132537,0.0148965,0.0911361,0,0.0923455,15236.8,-36554.4,0,39602.9,132537
step02_gravity_refstate-crust.xmf,217,-2.91186e-07,1.40752e-06,0,-4.58187e-07,-3.67739e+08,-3.67622e+08,-3.67719e+08,-31431.6,0.0040817,0.126745,0,0.126811,28568.1,-13388.9,0,31549.9,31431.6
step02_gravity_refstate-crust.xmf,218,-3.16268e-07,2.00925e-06,0,-6.82187e-07,-5.29467e+08,-5.29307e+08,-5.29445e+08,-46798,0.00570596,0.119636,0,0.119772,25650.2,-19277.6,0,32086.7,46798
step02_gravity_refstate-crust.xmf,219,-4.36161e-07,2.85324e-06,0,-1.02631e-06,-7.47011e+08,-7.46785e+08,-7.46981e+08,-70404.7,0.00904782,0.10641,0,0.106794,21542.5,-27198.3,0,34696.2,70404.7
step02_gravity_refstate-crust.xmf,220,-7.04894e-07,3.68328e-06,0,-2.41798e-06,-1.02679e+09,-1.02649e+09,-1.02674e+09,-165874,0.0168979,0.0968555,0,0.0983185,13024.8,-37384.2,0,39588.2,165874
step02_gravity_refstate-crust.xmf,221,-2.91519e-07,9.12235e-07,0,-3.36264e-07,-2.36557e+08,-2.36474e+08,-2.36537e+08,-23067.7,0.00402899,0.131887,0,0.131949,29032.6,-8612.32,0,30283.1,23067.7
step02_gravity_refstate-crust.xmf,222,-3.49584e-07,6.98313e-07,0,-2.31537e-07,-1.69767e+08,-1.69695e+08,-1.69743e+08,-15883.4,0.00386582,0.132686,0,0.132742,30679.8,-6180.21,0,31296,15883.4
step02_gravity_refstate-crust.xmf,223,-4.50975e-07,4.39059e-07,0,-1.19258e-07,-8.3824e+07,-8.37629e+07,-8.3793e+07,-8181.07,0.00423216,0.133801,0,0.133868,31790.8,-3050.55,0,31936.8,8181.07
step02_gravity_refstate-crust.xmf,224,-6.26809e-07,2.3631e-07,0,4.36651e-10,-59607.8,-397.795,-16608.7,29.9542,0.00462752,0.134115,0,0.134195,33233.5,0,0,33233.5,29.9542
step02_gravity_refstate-crust.xmf,225,-2.54554e-07,1.11186e-06,0,-4.38496e-07,-2.97123e+08,-2.9703e+08,-2.97106e+08,-30080.8,0.0043298,0.130968,0,0.13104,27437.5,-10817.8,0,29493.1,30080.8
step02_gravity_refstate-crust.xmf,226,-3.1006e-07,1.86315e-06,0,-6.14192e-07,-4.88758e+08,-4.88609e+08,-4.88736e+08,-42133.6,0.00513863,0.121403,0,0.121511,26638.5,-17795.3,0,32035.7,42133.6
step02_gravity_refstate-crust.xmf,227,-2.81958e-07,1.62861e-06,0,-5.64989e-07,-4.30216e+08,-4.30085e+08,-4.30197e+08,-38758.3,0.00477259,0.124894,0,0.124985,26855.7,-15663.8,0,31090,38758.3
step02_gravity_refstate-crust.xmf,228,-3.27496e-07,2.19215e-06,0,-7.64277e-07,-5.7923e+08,-5.79057e+08,-5.79207e+08,-52429.4,0.00646139,0.117292,0,0.11747,24465.9,-21089.5,0,32300.9,52429.4
step02_gravity_refstate-crust.xmf,229,-3.46455e-07,2.37132e-06,0,-8.51424e-07,-6.29339e+08,-6.29153e+08,-6.29316e+08,-58407.7,0.00726097,0.114638,0,0.114868,23367.8,-22914,0,32727.8,58407.7
step02_gravity_refstate-crust.xmf,230,-3.73822e-07,2.58246e-06,0,-9.58511e-07,-6.87451e+08,-6.87248e+08,-6.87425e+08,-65753.8,0.00826432,0.111356,0,0.111662,22093.1,-25029.8,0,33385.6,65753.8
step02_gravity_refstate-crust.xmf,231,-3.6994e-07,2.74257e-06,0,-1.14944e-06,-7.49161e+08,-7.48947e+08,-7.49135e+08,-78851.5,0.0098118,0.10966,0,0.110098,19703.2,-27276.7,0,33648.7,78851.5
step02_gravity_refstate-crust.xmf,232,-4.05252e-07,2.90069e-06,0,-1.24216e-06,-7.9024e+08,-7.90013e+08,-7.90212e+08,-85211.9,0.0105912,0.107016,0,0.107539,18938.7,-28772.3,0,34445.9,85211.9
step02_gravity_refstate-crust.xmf,233,-4.67615e-07,3.26351e-06,0,-2.91958e-06,-1.04779e+09,-1.04754e+09,-1.04776e+09,-200283,0.01848,0.103094,0,0.104737,11140.1,-38149.2,0,39742.4,200283
step02_gravity_refstate-crust.xmf,234,-5.08018e-07,3.29827e-06,0,-3.22331e-06,-1.07385e+09,-1.07358e+09,-1.07381e+09,-221119,0.0194936,0.103049,0,0.104877,10564,-39097.5,0,40499.5,221119
step02_gravity_refstate-crust.xmf,235,-4.44114e-07,3.04391e-06,0,-1.34723e-06,-8.28846e+08,-8.28607e+08,-8.28815e+08,-92420.1,0.0113815,0.10462,0,0.105237,18149.7,-30177.9,0,35215.3,92420.1
step02_gravity_refstate-crust.xmf,236,-4.79418e-07,3.16723e-06,0,-1.47287e-06,-8.64924e+08,-8.64674e+08,-8.64891e+08,-101039,0.0122174,0.102719,0,0.103443,17270.5,-31491.4,0,35916.3,101039
step02_gravity_refstate-crust.xmf,237,-4.54287e-07,3.25528e-06,0,-2.64887e-06,-1.02243e+09,-1.02218e+09,-1.0224e+09,-181712,0.0175287,0.102941,0,0.104423,11796,-37225.9,0,39050.1,181712
step02_gravity_refstate-crust.xmf,238,-6.66499e-07,3.62821e-06,0,-2.17954e-06,-1.00002e+09,-9.99721e+08,-9.99969e+08,-149517,0.0159229,0.0970285,0,0.0983263,13837.7,-36409.5,0,38950.4,149517
step02_gravity_refstate-crust.xmf,239,-5.1782e-07,3.28375e-06,0,-1.61867e-06,-9.00086e+08,-8.99825e+08,-9.00051e+08,-111041,0.013098,0.101058,0,0.101903,16368,-32771.5,0,36631.7,111041
step02_gravity_refstate-crust.xmf,240,-5.60577e-07,3.39428e-06,0,-1.78631e-06,-9.34208e+08,-9.33937e+08,-9.3417e+08,-122541,0.0140146,0.0996156,0,0.100597,15475,-34013.8,0,37368.6,122541
step02_gravity_refstate-crust.xmf,241,-6.15669e-07,3.51182e-06,0,-1.97416e-06,-9.67915e+08,-9.67631e+08,-9.67872e+08,-135428,0.0149557,0.0981936,0,0.099326,14639.1,-35240.8,0,38160.5,135428
step02_gravity_refstate-crust.xmf,242,-2.30571e-07,1.32143e-06,0,-5.39254e-07,-3.58167e+08,-3.5806e+08,-3.58151e+08,-36992.9,0.00477955,0.129803,0,0.129891,25810.4,-13040.5,0,28917.7,36992.9
step02_gravity_refstate-crust.xmf,243,-2.6261e-07,1.73926e-06,0,-6.64047e-07,-4.6968e+08,-4.69543e+08,-4.69662e+08,-45553.6,0.0054863,0.124452,0,0.124573,25015.8,-17100.8,0,30302.3,45553.6
step02_gravity_refstate-crust.xmf,244,-2.59707e-07,1.91079e-06,0,-7.59213e-07,-5.21918e+08,-5.21769e+08,-5.219e+08,-52082,0.0062436,0.122716,0,0.122875,23581.1,-19002.9,0,30284.9,52082
step02_gravity_refstate-crust.xmf,245,-3.46504e-07,2.60661e-06,0,-1.06631e-06,-7.11252e+08,-7.11049e+08,-7.11228e+08,-73149,0.00908927,0.111853,0,0.112222,20497.8,-25896.5,0,33027.1,73149
step02_gravity_refstate-crust.xmf,246,-4.50671e-07,3.27182e-06,0,-2.38985e-06,-9.97307e+08,-9.97052e+08,-9.97276e+08,-163944,0.0166074,0.10263,0,0.103965,12547.7,-36311.2,0,38418.1,163944
step02_gravity_refstate-crust.xmf,247,-3.31592e-07,2.79698e-06,0,-1.35369e-06,-7.961e+08,-7.95885e+08,-7.96077e+08,-92863.3,0.0112059,0.109667,0,0.110238,17477.7,-28985.8,0,33847.4,92863.3
step02_gravity_refstate-crust.xmf,248,-1.02995e-07,2.72858e-06,0,-3.42987e-06,-1.07297e+09,-1.07278e+09,-1.07297e+09,-235289,0.0198133,0.109488,0,0.111266,9454.45,-39066.5,0,40194.2,235289
step02_gravity_refstate-crust.xmf,249,-2.87651e-07,6.80217e-07,0,-2.81766e-07,-1.72006e+08,-1.7194e+08,-1.71986e+08,-19329.1,0.00465905,0.134452,0,0.134533,28137.6,-6261.94,0,28826,19329.1
step02_gravity_refstate-crust.xmf,250,-2.2557e-07,8.16946e-07,0,-3.82579e-07,-2.20052e+08,-2.1998e+08,-2.20036e+08,-26244.9,0.00481827,0.134726,0,0.134812,26260.8,-8011.56,0,27455.7,26244.9
step02_gravity_refstate-crust.xmf,251,-3.55784e-07,4.25363e-07,0,-1.7312e-07,-9.1589e+07,-9.15355e+07,-9.15646e+07,-11876,0.00546924,0.135827,0,0.135937,28453.3,-3333.61,0,28647.9,11876
step02_gravity_refstate-crust.xmf,252,-5.24518e-07,1.97362e-07,0,-1.55485e-09,-49896.5,-375.556,-13914.6,-106.663,0.0065134,0.13583,0,0.135986,29976.3,0,0,29976.3,106.663
step02_gravity_refstate-crust.xmf,253,-1.86488e-07,1.04538e-06,0,-5.02016e-07,-2.92021e+08,-2.91937e+08,-2.92008e+08,-34438.3,0.00493979,0.133792,0,0.133883,24678.1,-10632.2,0,26871,34438.3
step02_gravity_refstate-crust.xmf,254,-2.0692e-07,1.48711e-06,0,-6.4105e-07,-4.11717e+08,-4.11601e+08,-4.11703e+08,-43976,0.00537033,0.128955,0,0.129067,24050.9,-14990.4,0,28340.1,43976
step02_gravity_refstate-crust.xmf,255,-2.62211e-07,2.07974e-06,0,-8.47572e-07,-5.71899e+08,-5.71738e+08,-5.71881e+08,-58143.4,0.00701602,0.120734,0,0.120937,22360.8,-20822.7,0,30554.8,58143.4
step02_gravity_refstate-crust.xmf,256,-2.67862e-07,2.22928e-06,0,-9.43855e-07,-6.20764e+08,-6.20593e+08,-6.20745e+08,-64748.4,0.00784045,0.118646,0,0.118905,21192.5,-22601.9,0,30983.3,64748.4
step02_gravity_refstate-crust.xmf,257,-2.66676e-07,2.35796e-06,0,-1.04572e-06,-6.65936e+08,-6.65756e+08,-6.65918e+08,-71736.2,0.00870448,0.116895,0,0.117219,19966.3,-24246.7,0,31409.5,71736.2
step02_gravity_refstate-crust.xmf,258,-2.60152e-07,2.45752e-06,0,-1.15253e-06,-7.06244e+08,-7.06058e+08,-7.06227e+08,-79063.9,0.00955027,0.115543,0,0.115937,18767.2,-25714.3,0,31834.4,79063.9
step02_gravity_refstate-crust.xmf,259,-2.61664e-07,2.57511e-06,0,-1.28024e-06,-7.52232e+08,-7.52038e+08,-7.52214e+08,-87824.4,0.0105154,0.113659,0,0.114144,17611.1,-27388.7,0,32562.1,87824.4
step02_gravity_refstate-crust.xmf,260,-1.3816e-07,2.7773e-06,0,-2.82287e-06,-1.01982e+09,-1.01962e+09,-1.01981e+09,-193649,0.0178152,0.108926,0,0.110373,10579.9,-37131.4,0,38609.3,193649
step02_gravity_refstate-crust.xmf,261,-1.14672e-07,2.73456e-06,0,-3.11667e-06,-1.04634e+09,-1.04614e+09,-1.04633e+09,-213804,0.018776,0.109286,0,0.110887,9972.29,-38096.8,0,39380.4,213804
step02_gravity_refstate-crust.xmf,262,-3.33233e-07,2.85239e-06,0,-1.46661e-06,-8.25232e+08,-8.25014e+08,-8.25209e+08,-100610,0.0119254,0.108725,0,0.109377,16621.8,-30046.5,0,34337.6,100610
step02_gravity_refstate-crust.xmf,263,-3.45307e-07,2.93667e-06,0,-1.60833e-06,-8.60359e+08,-8.60134e+08,-8.60335e+08,-110332,0.0127878,0.107366,0,0.108125,15726.3,-31325.4,0,35051.3,110332
step02_gravity_refstate-crust.xmf,264,-1.56593e-07,2.8156e-06,0,-2.5453e-06,-9.91033e+08,-9.90829e+08,-9.91022e+08,-174608,0.0168444,0.108721,0,0.110018,11276.8,-36083.3,0,37804.4,174608
step02_gravity_refstate-crust.xmf,265,-4.11987e-07,3.1979e-06,0,-2.16594e-06,-9.66226e+08,-9.65979e+08,-9.66198e+08,-148584,0.0156487,0.103504,0,0.10468,13248.5,-35179.7,0,37591.7,148584
step02_gravity_refstate-crust.xmf,266,-3.5768e-07,3.01237e-06,0,-1.77456e-06,-8.95493e+08,-8.95261e+08,-8.95468e+08,-121735,0.0137039,0.106169,0,0.10705,14823,-32604.5,0,35815.9,121735
step02_gravity_refstate-crust.xmf,267,-3.76679e-07,3.08913e-06,0,-1.96681e-06,-9.30939e+08,-9.30701e+08,-9.30913e+08,-134923,0.0146721,0.104999,0,0.106019,13960,-33895,0,36657.3,134923
step02_gravity_refstate-crust.xmf,268,2.86878e-07,2.1383e-06,0,-3.59183e-06,-1.07419e+09,-1.07407e+09,-1.07421e+09,-246400,0.0197784,0.115266,0,0.11695,8450.94,-39111.5,0,40014.1,246400
step02_gravity_refstate-crust.xmf,269,-1.57494e-07,1.22802e-06,0,-5.98742e-07,-3.49468e+08,-3.49373e+08,-3.49457e+08,-41073.7,0.00527385,0.133043,0,0.133148,23142.7,-12724,0,26410,41073.7
step02_gravity_refstate-crust.xmf,270,-1.94761e-07,1.64166e-06,0,-7.34736e-07,-4.63603e+08,-4.63477e+08,-4.6359e+08,-50402.9,0.00598291,0.127665,0,0.127805,22655.8,-16879.7,0,28252.6,50402.9
step02_gravity_refstate-crust.xmf,271,-1.84786e-07,1.79632e-06,0,-8.2672e-07,-5.15381e+08,-5.15245e+08,-5.15369e+08,-56713,0.00667898,0.126128,0,0.126304,21354.9,-18765,0,28428.1,56713
step02_gravity_refstate-crust.xmf,272,-2.43807e-07,2.93008e-06,0,-2.31734e-06,-9.68838e+08,-9.6862e+08,-9.68821e+08,-158970,0.0160683,0.107399,0,0.108594,12163.9,-35275.1,0,37313.4,158970
step02_gravity_refstate-crust.xmf,273,-2.02583e-07,2.57436e-06,0,-1.41806e-06,-7.8395e+08,-7.8376e+08,-7.83936e+08,-97278.7,0.0113888,0.114142,0,0.114709,16067.5,-28543.7,0,32755.2,97278.7
step02_gravity_refstate-crust.xmf,274,3.386e-07,2.09494e-06,0,-3.25197e-06,-1.04622e+09,-1.04609e+09,-1.04624e+09,-223085,0.018643,0.115799,0,0.11729,8742.76,-38093.1,0,39083.5,223085
step02_gravity_refstate-crust.xmf,275,7.77271e-07,1.45378e-06,0,-3.66427e-06,-1.07573e+09,-1.07568e+09,-1.07578e+09,-251369,0.0193078,0.121232,0,0.12276,7424.93,-39168.3,0,39865.9,251369
step02_gravity_refstate-crust.xmf,276,-2.46336e-07,5.56781e-07,0,-2.71711e-07,-1.42069e+08,-1.42013e+08,-1.42052e+08,-18639.4,0.00545441,0.136672,0,0.13678,26261.6,-5172.01,0,26766,18639.4
step02_gravity_refstate-crust.xmf,277,-1.46535e-07,7.88742e-07,0,-4.3995e-07,-2.25388e+08,-2.25324e+08,-2.25378e+08,-30180.5,0.00530614,0.137215,0,0.137318,23492.1,-8206.1,0,24884.1,30180.5
step02_gravity_refstate-crust.xmf,278,-3.95556e-07,1.49547e-07,0,-3.49676e-09,-37598.4,-204.332,-10463.3,-239.878,0.00798299,0.138024,0,0.138255,26791.5,0,0,26791.5,239.878
step02_gravity_refstate-crust.xmf,279,-1.08785e-07,9.67759e-07,0,-5.43091e-07,-2.85753e+08,-2.85679e+08,-2.85745e+08,-37256,0.00533043,0.136795,0,0.136899,22045.7,-10404.2,0,24377.4,37256
step02_gravity_refstate-crust.xmf,280,-1.33577e-07,1.39089e-06,0,-6.93662e-07,-4.04869e+08,-4.04764e+08,-4.0486e+08,-47585.2,0.00573998,0.132141,0,0.132266,21654.1,-14741.3,0,26195.6,47585.2
step02_gravity_refstate-crust.xmf,281,-1.78328e-07,1.95159e-06,0,-9.17231e-07,-5.66246e+08,-5.661e+08,-5.66234e+08,-62922.1,0.00743345,0.124337,0,0.124559,20190.9,-20617.1,0,28857.1,62922.1
step02_gravity_refstate-crust.xmf,282,-1.71267e-07,2.07765e-06,0,-1.01582e-06,-6.14857e+08,-6.14702e+08,-6.14845e+08,-69685.1,0.00823288,0.122541,0,0.122817,19073.5,-22387,0,29410.5,69685.1
step02_gravity_refstate-crust.xmf,283,-1.56746e-07,2.18292e-06,0,-1.11789e-06,-6.59651e+08,-6.59491e+08,-6.5964e+08,-76687.6,0.00904804,0.121037,0,0.121375,17935,-24018,0,29975.5,76687.6
step02_gravity_refstate-crust.xmf,284,-1.34347e-07,2.2622e-06,0,-1.22811e-06,-7.01655e+08,-7.0149e+08,-7.01646e+08,-84248.1,0.00986978,0.119811,0,0.120217,16790.3,-25547.4,0,30570.9,84248.1
step02_gravity_refstate-crust.xmf,285,1.67088e-07,2.34492e-06,0,-2.6723e-06,-9.92211e+08,-9.92061e+08,-9.92222e+08,-183320,0.0168819,0.114251,0,0.115491,9978.59,-36126.7,0,37479.5,183320
step02_gravity_refstate-crust.xmf,286,2.44136e-07,2.23221e-06,0,-2.91778e-06,-1.01668e+09,-1.01655e+09,-1.0167e+09,-200160,0.0176427,0.114957,0,0.116303,9376.31,-37017.9,0,38186.9,200160
step02_gravity_refstate-crust.xmf,287,-1.85679e-07,2.61456e-06,0,-1.55982e-06,-8.19866e+08,-8.19674e+08,-8.19853e+08,-107004,0.0122323,0.113186,0,0.113845,15079.8,-29851.3,0,33444,107004
step02_gravity_refstate-crust.xmf,288,-1.69319e-07,2.65893e-06,0,-1.71715e-06,-8.55943e+08,-8.55749e+08,-8.55932e+08,-117796,0.0131087,0.112218,0,0.112982,14157.8,-31164.9,0,34230,117796
step02_gravity_refstate-crust.xmf,289,-3.39798e-09,2.56165e-06,0,-2.34817e-06,-9.56287e+08,-9.56111e+08,-9.56286e+08,-161084,0.0158443,0.112258,0,0.11337,11244,-34818.5,0,36589,161084
step02_gravity_refstate-crust.xmf,290,-1.30708e-07,2.71399e-06,0,-2.13487e-06,-9.31688e+08,-9.31493e+08,-9.31679e+08,-146452,0.0151025,0.110546,0,0.111573,12343.8,-33922.7,0,36098.7,146452
step02_gravity_refstate-crust.xmf,291,-1.51673e-07,2.692e-06,0,-1.90148e-06,-8.92377e+08,-8.92182e+08,-8.92367e+08,-130441,0.0140383,0.111353,0,0.112234,13261,-32491.4,0,35093.4,130441
step02_gravity_refstate-crust.xmf,292,-9.49667e-08,2.30536e-06,0,-1.35006e-06,-7.41185e+08,-7.41021e+08,-7.41179e+08,-92613.9,0.0106928,0.119038,0,0.119518,15583.1,-26986.8,0,31162.8,92613.9
step02_gravity_refstate-crust.xmf,293,6.30394e-07,1.68234e-06,0,-3.41667e-06,-1.05746e+09,-1.05739e+09,-1.0575e+09,-234384,0.018745,0.119567,0,0.121027,7901.93,-38503,0,39305.5,234384
step02_gravity_refstate-crust.xmf,294,-2.54408e-07,3.18365e-07,0,-1.63474e-07,-7.09652e+07,-7.09259e+07,-7.09478e+07,-11214.3,0.00680252,0.138686,0,0.138853,25234.7,-2583.02,0,25366.5,11214.3
step02_gravity_refstate-crust.xmf,295,-1.80992e-07,6.2674e-07,0,-3.48472e-07,-1.72491e+08,-1.72436e+08,-1.72479e+08,-23905.2,0.00552516,0.137654,0,0.137765,24443.7,-6279.96,0,25237.5,23905.2
step02_gravity_refstate-crust.xmf,296,-7.77685e-08,1.13945e-06,0,-6.36443e-07,-3.43598e+08,-3.43514e+08,-3.43593e+08,-43660,0.00555207,0.136191,0,0.136304,20618.3,-12510.5,0,24116.9,43660
step02_gravity_refstate-crust.xmf,297,-1.11892e-07,1.53054e-06,0,-7.85962e-07,-4.58051e+08,-4.57938e+08,-4.58043e+08,-53917,0.00630207,0.131059,0,0.131211,20278.2,-16677.7,0,26255.5,53917
step02_gravity_refstate-crust.xmf,298,-9.63059e-08,1.67815e-06,0,-8.76196e-07,-5.12059e+08,-5.11938e+08,-5.12053e+08,-60107,0.00695807,0.12949,0,0.129677,19124.4,-18644.2,0,26708.7,60107
step02_gravity_refstate-crust.xmf,299,7.3894e-08,2.47475e-06,0,-2.48864e-06,-9.73463e+08,-9.73299e+08,-9.73468e+08,-170721,0.0163416,0.113166,0,0.11434,10621.7,-35444,0,37001.4,170721
step02_gravity_refstate-crust.xmf,300,-4.7844e-08,2.33893e-06,0,-1.47778e-06,-7.78638e+08,-7.78474e+08,-7.78634e+08,-101376,0.011491,0.118445,0,0.119001,14459.2,-28350.5,0,31824.8,101376
step02_gravity_refstate-crust.xmf,301,8.55456e-07,1.39009e-06,0,-3.11597e-06,-1.03344e+09,-1.0334e+09,-1.03349e+09,-213755,0.0173853,0.122632,0,0.123858,7574.47,-37628.9,0,38383.6,213755
step02_gravity_refstate-crust.xmf,302,1.08695e-06,1.06028e-06,0,-3.33972e-06,-1.05433e+09,-1.05433e+09,-1.0544e+09,-229105,0.0177697,0.12492,0,0.126177,6941.49,-38389.9,0,39012.4,229105
step02_gravity_refstate-crust.xmf,303,1.32496e-06,7.12226e-07,0,-3.59566e-06,-1.07586e+09,-1.0759e+09,-1.07595e+09,-246662,0.0182378,0.127178,0,0.128479,6398.22,-39174.1,0,39693.1,246662
step02_gravity_refstate-crust.xmf,304,-1.74143e-07,4.4076e-07,0,-2.58693e-07,-1.174e+08,-1.17358e+08,-1.17388e+08,-17746.3,0.00629148,0.139285,0,0.139427,23846.9,-4274.05,0,24226.9,17746.3
step02_gravity_refstate-crust.xmf,305,-1.16008e-07,5.5309e-07,0,-3.53625e-07,-1.60056e+08,-1.6001e+08,-1.60048e+08,-24258.7,0.00594418,0.13986,0,0.139986,22444.8,-5827.37,0,23189,24258.7
step02_gravity_refstate-crust.xmf,306,-6.57316e-08,7.20382e-07,0,-4.61562e-07,-2.19278e+08,-2.19224e+08,-2.19273e+08,-31663.2,0.00560013,0.139963,0,0.140075,21002.5,-7983.88,0,22468.8,31663.2
step02_gravity_refstate-crust.xmf,307,-2.37359e-07,9.02958e-08,0,-3.10303e-09,-22537.7,-60.5785,-6254.87,-212.868,0.00898061,0.140562,0,0.140849,23670.5,0,0,23670.5,212.868
step02_gravity_refstate-crust.xmf,308,-2.65563e-08,8.87433e-07,0,-5.61468e-07,-2.79559e+08,-2.79496e+08,-2.79557e+08,-38516.7,0.00550028,0.139768,0,0.139876,19559.3,-10178.9,0,22049.4,38516.7
step02_gravity_refstate-crust.xmf,309,-4.79728e-08,1.28923e-06,0,-7.26342e-07,-3.99836e+08,-3.99744e+08,-3.99833e+08,-49827.1,0.00592935,0.13542,0,0.13555,19214,-14558.2,0,24106.4,49827.1
step02_gravity_refstate-crust.xmf,310,-8.06506e-08,1.81597e-06,0,-9.65231e-07,-5.62957e+08,-5.62827e+08,-5.62951e+08,-66214.8,0.00766756,0.127834,0,0.128063,18071,-20497.5,0,27326,66214.8
step02_gravity_refstate-crust.xmf,311,-6.15737e-08,1.91895e-06,0,-1.06075e-06,-6.1069e+08,-6.10554e+08,-6.10686e+08,-72767.5,0.00840818,0.126237,0,0.126517,17061,-22235.5,0,28026.7,72767.5
step02_gravity_refstate-crust.xmf,312,-3.17258e-08,1.99919e-06,0,-1.16058e-06,-6.55157e+08,-6.55017e+08,-6.55154e+08,-79615.5,0.00915905,0.124939,0,0.125274,16002.6,-23854.6,0,28725,79615.5
step02_gravity_refstate-crust.xmf,313,1.32362e-08,2.04425e-06,0,-1.26633e-06,-6.96341e+08,-6.96202e+08,-6.96342e+08,-86870.4,0.00989174,0.124041,0,0.124435,14894.6,-25354.2,0,29405.5,86870.4
step02_gravity_refstate-crust.xmf,314,6.46728e-07,1.67666e-06,0,-2.86328e-06,-1.00819e+09,-1.00812e+09,-1.00823e+09,-196421,0.0168197,0.120676,0,0.121843,8285.26,-36709.4,0,37632.8,196421
step02_gravity_refstate-crust.xmf,315,2.96873e-07,2.1324e-06,0,-2.40762e-06,-9.54974e+08,-9.54848e+08,-9.54994e+08,-165163,0.0156205,0.117341,0,0.118376,9966.78,-34771.3,0,36171.5,165163
step02_gravity_refstate-crust.xmf,316,4.90002e-07,1.8839e-06,0,-2.60149e-06,-9.78755e+08,-9.7866e+08,-9.78789e+08,-178462,0.0160803,0.119442,0,0.120519,9008.96,-35637.5,0,36758.5,178462
step02_gravity_refstate-crust.xmf,317,-3.91548e-09,2.3422e-06,0,-1.62462e-06,-8.15818e+08,-8.15657e+08,-8.15818e+08,-111449,0.0123001,0.117721,0,0.118362,13484.6,-29704.3,0,32621.7,111449
step02_gravity_refstate-crust.xmf,318,4.58247e-08,2.34093e-06,0,-1.78586e-06,-8.52214e+08,-8.52057e+08,-8.52217e+08,-122510,0.0131223,0.117115,0,0.117848,12574.8,-31029.5,0,33480.7,122510
step02_gravity_refstate-crust.xmf,319,1.92713e-07,2.23916e-06,0,-2.16736e-06,-9.20619e+08,-9.20479e+08,-9.20632e+08,-148681,0.0147523,0.116945,0,0.117872,10820.4,-33520.3,0,35223.5,148681
step02_gravity_refstate-crust.xmf,320,1.04438e-07,2.31707e-06,0,-1.96927e-06,-8.87986e+08,-8.87834e+08,-8.87993e+08,-135092,0.0139657,0.116705,0,0.117538,11706.4,-32332,0,34386,135092
step02_gravity_refstate-crust.xmf,321,6.98807e-08,2.06322e-06,0,-1.38083e-06,-7.3597e+08,-7.35833e+08,-7.35975e+08,-94725.2,0.0106144,0.123345,0,0.123801,13811.6,-26797.2,0,30147.1,94725.2
step02_gravity_refstate-crust.xmf,322,-1.18999e-07,2.88019e-07,0,-1.92995e-07,-7.70416e+07,-7.70137e+07,-7.70335e+07,-13239.5,0.00726307,0.141464,0,0.141651,22097.5,-2804.74,0,22274.8,13239.5
step02_gravity_refstate-crust.xmf,323,8.26461e-09,1.04836e-06,0,-6.50663e-07,-3.38496e+08,-3.38424e+08,-3.38496e+08,-44635.5,0.00561871,0.139307,0,0.13942,18162.3,-12324.9,0,21949.3,44635.5
step02_gravity_refstate-crust.xmf,324,-1.72009e-08,1.42008e-06,0,-8.16767e-07,-4.56565e+08,-4.56466e+08,-4.56564e+08,-56030.2,0.0064435,0.134351,0,0.134505,17891.2,-16623.8,0,24422.2,56030.2
step02_gravity_refstate-crust.xmf,325,1.31783e-09,1.56466e-06,0,-9.04525e-07,-5.13155e+08,-5.13047e+08,-5.13155e+08,-62050.4,0.00707462,0.132581,0,0.13277,16960.5,-18684.3,0,25234.2,62050.4
step02_gravity_refstate-crust.xmf,326,2.03721e-08,1.688e-06,0,-9.90029e-07,-5.62923e+08,-5.62808e+08,-5.62924e+08,-67916,0.007725,0.130886,0,0.131113,16139.6,-20496.5,0,26088.2,67916
step02_gravity_refstate-crust.xmf,327,1.35625e-07,2.07611e-06,0,-1.50472e-06,-7.74899e+08,-7.74766e+08,-7.74908e+08,-103224,0.0113395,0.122733,0,0.123256,12796.9,-28214.7,0,30981.1,103224
step02_gravity_refstate-crust.xmf,328,1.07614e-06,1.09889e-06,0,-2.76124e-06,-1.00535e+09,-1.00535e+09,-1.00543e+09,-189421,0.0156963,0.126033,0,0.127007,7117.34,-36606.9,0,37292.4,189421
step02_gravity_refstate-crust.xmf,329,1.33526e-06,7.48089e-07,0,-2.96401e-06,-1.0305e+09,-1.03054e+09,-1.0306e+09,-203331,0.0160174,0.128163,0,0.12916,6446.97,-37523.1,0,38072.9,203331
step02_gravity_refstate-crust.xmf,330,1.62223e-06,3.47887e-07,0,-3.14906e-06,-1.05286e+09,-1.05295e+09,-1.05298e+09,-216026,0.0162048,0.130586,0,0.131587,5838.79,-38337.7,0,38779.8,216026
step02_gravity_refstate-crust.xmf,331,1.91371e-06,-6.67999e-08,0,-3.36949e-06,-1.07573e+09,-1.07586e+09,-1.07586e+09,-231147,0.0165217,0.13296,0,0.133982,5340.54,-39170.5,0,39532.9,231147
step02_gravity_refstate-crust.xmf,332,-2.70919e-08,4.69983e-07,0,-3.47723e-07,-1.47655e+08,-1.47621e+08,-1.47654e+08,-23853.8,0.0062542,0.1425,0,0.142638,20058.3,-5376.16,0,20766.3,23853.8
step02_gravity_refstate-crust.xmf,333,2.33411e-08,6.45639e-07,0,-4.64023e-07,-2.12406e+08,-2.12363e+08,-2.12408e+08,-31832,0.00568948,0.142826,0,0.142939,18485.1,-7733.95,0,20037.8,31832
step02_gravity_refstate-crust.xmf,334,-6.60177e-08,2.53228e-08,0,-4.30519e-09,-6259.65,6.30673,-1730.83,-295.336,0.00945542,0.143292,0,0.143604,20604.8,0,0,20604.8,295.336
step02_gravity_refstate-crust.xmf,335,6.08945e-08,8.0906e-07,0,-5.60541e-07,-2.75161e+08,-2.7511e+08,-2.75165e+08,-38453.1,0.00545823,0.1427,0,0.142804,17074.8,-10019,0,19797.2,38453.1
step02_gravity_refstate-crust.xmf,336,4.68386e-08,1.18577e-06,0,-7.35182e-07,-3.97083e+08,-3.97005e+08,-3.97087e+08,-50433.5,0.00591102,0.138657,0,0.138783,16753.9,-14458.2,0,22129.9,50433.5
step02_gravity_refstate-crust.xmf,337,5.57031e-08,1.75885e-06,0,-1.07836e-06,-6.08238e+08,-6.08121e+08,-6.08242e+08,-73975.2,0.00837557,0.129625,0,0.129895,15176.3,-22146.5,0,26847.4,73975.2
step02_gravity_refstate-crust.xmf,338,1.06127e-07,1.80436e-06,0,-1.16912e-06,-6.50817e+08,-6.50701e+08,-6.50824e+08,-80201.5,0.00901482,0.128688,0,0.129004,14140.8,-23696.9,0,27595.4,80201.5
step02_gravity_refstate-crust.xmf,339,1.71244e-07,1.82173e-06,0,-1.26657e-06,-6.92221e+08,-6.92108e+08,-6.92233e+08,-86886.5,0.00964658,0.127956,0,0.128319,13087.4,-25204.5,0,28399.8,86886.5
step02_gravity_refstate-crust.xmf,340,8.36897e-08,1.49465e-06,0,-9.21252e-07,-5.21622e+08,-5.21525e+08,-5.21628e+08,-63197.9,0.00710911,0.134618,0,0.134806,15259.2,-18992.8,0,24363.3,63197.9
step02_gravity_refstate-crust.xmf,341,8.55776e-07,1.3862e-06,0,-2.5442e-06,-9.76967e+08,-9.7693e+08,-9.77025e+08,-174532,0.0152183,0.124383,0,0.125311,7828.01,-35573.1,0,36424.2,174532
step02_gravity_refstate-crust.xmf,342,6.61025e-07,1.62853e-06,0,-2.34925e-06,-9.48392e+08,-9.48326e+08,-9.48437e+08,-161159,0.014748,0.122945,0,0.123827,8613.99,-34532.4,0,35590.5,161159
step02_gravity_refstate-crust.xmf,343,2.06025e-07,2.04258e-06,0,-1.64548e-06,-8.12298e+08,-8.12172e+08,-8.12312e+08,-112880,0.0120569,0.122198,0,0.122792,11886.5,-29576.5,0,31875.7,112880
step02_gravity_refstate-crust.xmf,344,5.0412e-07,1.80783e-06,0,-2.15809e-06,-9.17743e+08,-9.17654e+08,-9.17778e+08,-148045,0.0141736,0.122036,0,0.122856,9413.94,-33416.2,0,34716.9,148045
step02_gravity_refstate-crust.xmf,345,2.88125e-07,1.99874e-06,0,-1.79905e-06,-8.48705e+08,-8.48588e+08,-8.48725e+08,-123415,0.0127748,0.121847,0,0.122514,11027.7,-30902.2,0,32810.9,123415
step02_gravity_refstate-crust.xmf,346,3.83378e-07,1.92626e-06,0,-1.97128e-06,-8.84134e+08,-8.84028e+08,-8.8416e+08,-135230,0.0134947,0.121719,0,0.122465,10216.4,-32192.3,0,33774.5,135230
step02_gravity_refstate-crust.xmf,347,2.49051e-07,1.81324e-06,0,-1.37192e-06,-7.32476e+08,-7.32369e+08,-7.32493e+08,-94113.4,0.0102648,0.127363,0,0.127776,12076.7,-26670.3,0,29277.2,94113.4
step02_gravity_refstate-crust.xmf,348,2.30047e-08,2.20427e-07,0,-1.97133e-07,-7.369e+07,-7.36764e+07,-7.36915e+07,-13523.3,0.00748299,0.144512,0,0.144705,18974.3,-2683.19,0,19163,13523.3
step02_gravity_refstate-crust.xmf,349,9.90441e-08,9.5741e-07,0,-6.41103e-07,-3.34847e+08,-3.34788e+08,-3.34854e+08,-43979.7,0.00547269,0.14233,0,0.142435,15714.9,-12192.3,0,19890,43979.7
step02_gravity_refstate-crust.xmf,350,9.41069e-08,1.31255e-06,0,-8.28362e-07,-4.62805e+08,-4.62721e+08,-4.62811e+08,-56825.6,0.00641325,0.137489,0,0.137638,15355.6,-16851.3,0,22798.3,56825.6
step02_gravity_refstate-crust.xmf,351,1.2728e-07,1.55056e-06,0,-9.85623e-07,-5.61045e+08,-5.60947e+08,-5.61054e+08,-67613.7,0.00756373,0.133852,0,0.134065,14326.6,-20428.3,0,24951.3,67613.7
step02_gravity_refstate-crust.xmf,352,3.3556e-07,1.79843e-06,0,-1.48324e-06,-7.71105e+08,-7.71005e+08,-7.71128e+08,-101750,0.0108682,0.126856,0,0.127321,11162.1,-28077,0,30214.4,101750
step02_gravity_refstate-crust.xmf,353,1.25181e-06,8.61449e-07,0,-2.38794e-06,-9.75372e+08,-9.75398e+08,-9.75457e+08,-163812,0.0138548,0.129219,0,0.129959,6591.52,-35515.8,0,36122.3,163812
step02_gravity_refstate-crust.xmf,354,2.48668e-06,-7.79089e-07,0,-2.9885e-06,-1.07692e+09,-1.07714e+09,-1.07709e+09,-205011,0.0143101,0.138091,0,0.13883,4303.93,-39215.1,0,39450.6,205011
step02_gravity_refstate-crust.xmf,355,1.52614e-06,5.07232e-07,0,-2.54952e-06,-1.00387e+09,-1.00394e+09,-1.00397e+09,-174897,0.01406,0.131095,0,0.131847,5905.95,-36553.8,0,37027.8,174897
step02_gravity_refstate-crust.xmf,356,1.84204e-06,8.71361e-08,0,-2.6931e-06,-1.03006e+09,-1.03018e+09,-1.03019e+09,-184747,0.0141137,0.133396,0,0.13414,5258.82,-37508.1,0,37874.9,184747
step02_gravity_refstate-crust.xmf,357,2.17982e-06,-3.7498e-07,0,-2.78666e-06,-1.05169e+09,-1.05187e+09,-1.05184e+09,-191165,0.0139137,0.135989,0,0.136699,4662.67,-38296.2,0,38579,191165
step02_gravity_refstate-crust.xmf,358,8.01425e-08,4.06329e-07,0,-3.43503e-07,-1.43462e+08,-1.4344e+08,-1.43467e+08,-23564.3,0.00623234,0.145339,0,0.145472,17345.6,-5223.83,0,18115.1,23564.3
step02_gravity_refstate-crust.xmf,359,1.18083e-07,5.773e-07,0,-4.51491e-07,-2.08502e+08,-2.08471e+08,-2.0851e+08,-30972.3,0.00552647,0.145667,0,0.145772,15888.5,-7592.1,0,17609.3,30972.3
step02_gravity_refstate-crust.xmf,360,1.12382e-07,-4.19924e-08,0,-5.0622e-09,10703.2,113.143,2993.82,-347.267,0.00939572,0.146065,0,0.146367,17586.2,0,0,17586.2,347.267
step02_gravity_refstate-crust.xmf,361,1.51772e-07,7.28398e-07,0,-5.35312e-07,-2.70715e+08,-2.70676e+08,-2.70726e+08,-36722.4,0.00518987,0.145589,0,0.145681,14551.3,-9857.4,0,17575.8,36722.4
step02_gravity_refstate-crust.xmf,362,1.47419e-07,1.07444e-06,0,-7.11855e-07,-3.93777e+08,-3.93713e+08,-3.93787e+08,-48833.3,0.00564834,0.141825,0,0.141937,14307.5,-14338.1,0,20255.5,48833.3
step02_gravity_refstate-crust.xmf,363,1.76634e-07,1.35151e-06,0,-8.83073e-07,-5.08992e+08,-5.08911e+08,-5.09004e+08,-60578.8,0.00672688,0.137675,0,0.13784,13593.5,-18533.2,0,22983.9,60578.8
step02_gravity_refstate-crust.xmf,364,3.36325e-07,1.59775e-06,0,-1.22723e-06,-6.89111e+08,-6.89024e+08,-6.89134e+08,-84187.8,0.00913801,0.131575,0,0.131892,11326.2,-25091.6,0,27529.5,84187.8
step02_gravity_refstate-crust.xmf,365,1.83417e-07,1.58449e-06,0,-1.06147e-06,-6.04204e+08,-6.04108e+08,-6.04217e+08,-72816.6,0.00808757,0.133006,0,0.133251,13318.9,-21999.8,0,25717.4,72816.6
step02_gravity_refstate-crust.xmf,366,2.52338e-07,1.60517e-06,0,-1.14192e-06,-6.47252e+08,-6.47159e+08,-6.4727e+08,-78335.7,0.0086235,0.132214,0,0.132495,12316.2,-23567.4,0,26591.5,78335.7
step02_gravity_refstate-crust.xmf,367,1.01896e-06,1.15029e-06,0,-2.22958e-06,-9.46065e+08,-9.46056e+08,-9.46135e+08,-152949,0.0135733,0.127737,0,0.128456,7312.91,-34448.4,0,35216,152949
step02_gravity_refstate-crust.xmf,368,8.28422e-07,1.37174e-06,0,-2.07105e-06,-9.15437e+08,-9.15399e+08,-9.15494e+08,-142074,0.0131829,0.126744,0,0.127428,8038.58,-33332.9,0,34288.5,142074
step02_gravity_refstate-crust.xmf,369,4.3397e-07,1.72723e-06,0,-1.60976e-06,-8.08418e+08,-8.08329e+08,-8.08448e+08,-110430,0.011454,0.126519,0,0.127037,10305.1,-29435.7,0,31187.4,110430
step02_gravity_refstate-crust.xmf,370,6.72729e-07,1.53529e-06,0,-1.912e-06,-8.82489e+08,-8.8243e+08,-8.82535e+08,-131163,0.0126816,0.12625,0,0.126886,8768.14,-32133,0,33307.8,131163
step02_gravity_refstate-crust.xmf,371,5.43071e-07,1.65181e-06,0,-1.75856e-06,-8.47087e+08,-8.47011e+08,-8.47124e+08,-120637,0.0121083,0.126162,0,0.126741,9526.1,-30843.8,0,32281.4,120637
step02_gravity_refstate-crust.xmf,372,4.34776e-07,1.57371e-06,0,-1.31307e-06,-7.28361e+08,-7.28283e+08,-7.28391e+08,-90076.8,0.00959807,0.131144,0,0.131495,10386.1,-26520.9,0,28482.1,90076.8
step02_gravity_refstate-crust.xmf,373,2.94616e-06,-1.38438e-06,0,-2.63059e-06,-1.08172e+09,-1.08202e+09,-1.08193e+09,-180458,0.0122391,0.141952,0,0.142479,3454.51,-39391,0,39542.2,180458
step02_gravity_refstate-crust.xmf,374,1.60466e-07,1.58754e-07,0,-1.91825e-07,-7.14823e+07,-7.14825e+07,-7.14934e+07,-13159.2,0.00726165,0.147345,0,0.147524,16057.4,-2603.28,0,16267,13159.2
step02_gravity_refstate-crust.xmf,375,1.91993e-07,8.62863e-07,0,-6.02738e-07,-3.30782e+08,-3.30736e+08,-3.30795e+08,-41347.8,0.00509602,0.145254,0,0.145343,13242.8,-12044.6,0,17900.9,41347.8
step02_gravity_refstate-crust.xmf,376,2.10053e-07,1.14952e-06,0,-7.72119e-07,-4.50314e+08,-4.50249e+08,-4.50328e+08,-52967.3,0.00590927,0.141261,0,0.141385,12903.9,-16396.7,0,20865.4,52967.3
step02_gravity_refstate-crust.xmf,377,2.42216e-07,1.39429e-06,0,-9.45025e-07,-5.55221e+08,-5.55142e+08,-5.55238e+08,-64828.7,0.00713532,0.136983,0,0.137168,12474.1,-20216.5,0,23755.2,64828.7
step02_gravity_refstate-crust.xmf,378,5.36381e-07,1.52125e-06,0,-1.4024e-06,-7.65589e+08,-7.65522e+08,-7.65626e+08,-96204.4,0.0100529,0.130719,0,0.131105,9588.25,-27876.6,0,29479.4,96204.4
step02_gravity_refstate-crust.xmf,379,1.37455e-06,7.11952e-07,0,-2.01484e-06,-9.44078e+08,-9.44124e+08,-9.44173e+08,-138218,0.011939,0.132093,0,0.132632,6004.56,-34376.8,0,34897.2,138218
step02_gravity_refstate-crust.xmf,380,1.64531e-06,3.50816e-07,0,-2.11251e-06,-9.73459e+08,-9.73548e+08,-9.73572e+08,-144919,0.0119475,0.133662,0,0.134194,5323.16,-35446.9,0,35844.4,144919
step02_gravity_refstate-crust.xmf,381,2.74868e-06,-1.09604e-06,0,-2.31635e-06,-1.05713e+09,-1.05739e+09,-1.05732e+09,-158902,0.0112094,0.140815,0,0.141261,3464.51,-38495.3,0,38650.9,158902
step02_gravity_refstate-crust.xmf,382,3.28043e-06,-1.8037e-06,0,-2.05305e-06,-1.07769e+09,-1.07803e+09,-1.07791e+09,-140839,0.00945134,0.144719,0,0.145027,2611.93,-39244.7,0,39331.5,140839
step02_gravity_refstate-crust.xmf,383,1.95621e-06,-4.71367e-08,0,-2.20206e-06,-1.00199e+09,-1.00213e+09,-1.00212e+09,-151062,0.0118548,0.135588,0,0.136106,4681.17,-36486.2,0,36785.3,151062
step02_gravity_refstate-crust.xmf,384,2.29724e-06,-4.98105e-07,0,-2.26844e-06,-1.02834e+09,-1.02853e+09,-1.0285e+09,-155615,0.0116239,0.137834,0,0.138324,4090.11,-37446.3,0,37669,155615
step02_gravity_refstate-crust.xmf,385,2.11151e-07,5.14078e-07,0,-4.19924e-07,-2.06033e+08,-2.06013e+08,-2.06048e+08,-28806.8,0.00511163,0.148333,0,0.148421,13294,-7502.5,0,15264.9,28806.8
step02_gravity_refstate-crust.xmf,386,1.89317e-07,3.44071e-07,0,-3.23271e-07,-1.39991e+08,-1.39981e+08,-1.40004e+08,-22176.4,0.0059043,0.148105,0,0.148223,14606.5,-5097.83,0,15470.6,22176.4
step02_gravity_refstate-crust.xmf,387,2.87589e-07,-1.07994e-07,0,-5.58095e-09,27367.1,230.135,7638.52,-382.853,0.0088095,0.148731,0,0.148992,14606.1,0,0,14606.1,382.853
step02_gravity_refstate-crust.xmf,388,2.38487e-07,6.61631e-07,0,-4.90243e-07,-2.67933e+08,-2.67904e+08,-2.6795e+08,-33630.7,0.00470366,0.148198,0,0.148273,12062,-9756.37,0,15513.9,33630.7
step02_gravity_refstate-crust.xmf,389,2.45254e-07,9.60643e-07,0,-6.54504e-07,-3.88547e+08,-3.88498e+08,-3.88564e+08,-44899,0.0051409,0.144788,0,0.144879,11921.3,-14147.9,0,18500.8,44899
step02_gravity_refstate-crust.xmf,390,2.83041e-07,1.20605e-06,0,-8.21048e-07,-5.01094e+08,-5.01031e+08,-5.01113e+08,-56323.9,0.00617062,0.140732,0,0.140867,11607.8,-18245.8,0,21625.3,56323.9
step02_gravity_refstate-crust.xmf,391,5.04773e-07,1.37405e-06,0,-1.14314e-06,-6.86293e+08,-6.86233e+08,-6.86327e+08,-78419.1,0.00834348,0.134935,0,0.135193,9568.7,-24989.3,0,26758.7,78419.1
step02_gravity_refstate-crust.xmf,392,3.99286e-07,1.41357e-06,0,-1.08288e-06,-6.45981e+08,-6.45911e+08,-6.46008e+08,-74285.7,0.00802697,0.13532,0,0.135557,10553.1,-23521.4,0,25780.3,74285.7
step02_gravity_refstate-crust.xmf,393,3.17153e-07,1.40576e-06,0,-1.01001e-06,-6.00486e+08,-6.00411e+08,-6.00507e+08,-69286.4,0.00755792,0.13623,0,0.136439,11447.3,-21864.7,0,24680.1,69286.4
step02_gravity_refstate-crust.xmf,394,1.14471e-06,9.57175e-07,0,-1.90532e-06,-9.13749e+08,-9.13762e+08,-9.13828e+08,-130705,0.011813,0.130921,0,0.131453,6705.01,-33272.1,0,33940.9,130705
step02_gravity_refstate-crust.xmf,395,9.61942e-07,1.15585e-06,0,-1.78236e-06,-8.8169e+08,-8.81677e+08,-8.81756e+08,-122270,0.0115085,0.130318,0,0.130825,7361.36,-32104.5,0,32937.7,122270
step02_gravity_refstate-crust.xmf,396,6.79099e-07,1.40094e-06,0,-1.50445e-06,-8.03768e+08,-8.03718e+08,-8.03814e+08,-103205,0.0104152,0.130771,0,0.131186,8651.88,-29266.9,0,30518.9,103205
step02_gravity_refstate-crust.xmf,397,8.02461e-07,1.31247e-06,0,-1.66459e-06,-8.48261e+08,-8.48226e+08,-8.48316e+08,-114191,0.0111483,0.130018,0,0.130495,8049.29,-30887.1,0,31918.7,114191
step02_gravity_refstate-crust.xmf,398,6.31311e-07,1.30956e-06,0,-1.20024e-06,-7.25467e+08,-7.2542e+08,-7.2551e+08,-82336.3,0.00858427,0.134744,0,0.135018,8597.86,-26415.9,0,27779.9,82336.3
step02_gravity_refstate-crust.xmf,399,3.59595e-06,-2.19816e-06,0,-1.27569e-06,-1.07637e+09,-1.07677e+09,-1.07662e+09,-87512,0.00583087,0.147251,0,0.147367,1570.29,-39197.5,0,39228.9,87512
step02_gravity_refstate-crust.xmf,400,2.91481e-07,1.04506e-07,0,-1.79394e-07,-7.08385e+07,-7.08513e+07,-7.08585e+07,-12306.4,0.00662478,0.149976,0,0.150122,13182.9,-2580.29,0,13433.1,12306.4
step02_gravity_refstate-crust.xmf,401,2.78458e-07,7.77741e-07,0,-5.39846e-07,-3.2817e+08,-3.28136e+08,-3.28189e+08,-37033.5,0.0045196,0.147807,0,0.147876,10837.5,-11949.7,0,16132.2,37033.5
step02_gravity_refstate-crust.xmf,402,3.12234e-07,1.02093e-06,0,-6.94994e-07,-4.44286e+08,-4.44237e+08,-4.44307e+08,-47676.6,0.00526351,0.144177,0,0.144273,10659.4,-16177.5,0,19373.6,47676.6
step02_gravity_refstate-crust.xmf,403,3.63288e-07,1.2352e-06,0,-8.70531e-07,-5.50467e+08,-5.50407e+08,-5.50492e+08,-59718.5,0.00647136,0.139998,0,0.140147,10506.5,-20043.7,0,22630.4,59718.5
step02_gravity_refstate-crust.xmf,404,1.43848e-06,5.77564e-07,0,-1.66054e-06,-9.12085e+08,-9.12144e+08,-9.12184e+08,-113913,0.010077,0.134527,0,0.134904,5399.64,-33212.1,0,33648.2,113913
step02_gravity_refstate-crust.xmf,405,1.69964e-06,2.91224e-07,0,-1.70345e-06,-9.42074e+08,-9.42171e+08,-9.42191e+08,-116856,0.00987309,0.13582,0,0.136178,4701.99,-34304.5,0,34625.2,116856
step02_gravity_refstate-crust.xmf,406,6.65169e-07,1.17968e-06,0,-1.02053e-06,-6.8532e+08,-6.85285e+08,-6.85366e+08,-70008.3,0.00731659,0.13782,0,0.138014,7844.51,-24954.3,0,26158.2,70008.3
step02_gravity_refstate-crust.xmf,407,6.97694e-07,1.29256e-06,0,-1.29483e-06,-7.60188e+08,-7.60148e+08,-7.60236e+08,-88825.1,0.00913192,0.133675,0,0.133986,8294.06,-27680.2,0,28896.1,88825.1
step02_gravity_refstate-crust.xmf,408,1.99914e-06,-1.02016e-07,0,-1.7217e-06,-9.71413e+08,-9.71557e+08,-9.7155e+08,-118108,0.00953971,0.137423,0,0.137754,4038.43,-35373.2,0,35603,118108
step02_gravity_refstate-crust.xmf,409,3.13752e-06,-1.58022e-06,0,-1.58158e-06,-1.05408e+09,-1.05441e+09,-1.0543e+09,-108496,0.00756196,0.144235,0,0.144433,2259.73,-38385.2,0,38451.7,108496
step02_gravity_refstate-crust.xmf,410,2.31527e-06,-5.0728e-07,0,-1.74695e-06,-1.00019e+09,-1.00039e+09,-1.00035e+09,-119841,0.00925073,0.139153,0,0.13946,3490.02,-36421.6,0,36588.4,119841
step02_gravity_refstate-crust.xmf,411,2.69253e-06,-9.94648e-07,0,-1.73543e-06,-1.02865e+09,-1.0289e+09,-1.02883e+09,-119051,0.00872664,0.141395,0,0.141664,2923.93,-37458.2,0,37572.2,119051
step02_gravity_refstate-crust.xmf,412,2.92186e-07,4.7185e-07,0,-3.7683e-07,-2.09135e+08,-2.09123e+08,-2.09155e+08,-25850.5,0.00446747,0.150568,0,0.150634,10788.8,-7615.69,0,13206,25850.5
step02_gravity_refstate-crust.xmf,413,2.90641e-07,2.98556e-07,0,-2.94641e-07,-1.41367e+08,-1.41366e+08,-1.41387e+08,-20212.4,0.00523004,0.150605,0,0.150696,11859.4,-5148.23,0,12928.6,20212.4
step02_gravity_refstate-crust.xmf,414,4.49342e-07,-1.68741e-07,0,-5.93412e-09,42759.4,358.855,11934.5,-407.08,0.00773097,0.151147,0,0.151344,11656.5,0,0,11656.5,407.08
step02_gravity_refstate-crust.xmf,415,3.12856e-07,6.03034e-07,0,-4.28242e-07,-2.67789e+08,-2.67769e+08,-2.67811e+08,-29377.4,0.00405711,0.150324,0,0.150379,9719.34,-9751.33,0,13767.9,29377.4
step02_gravity_refstate-crust.xmf,416,3.34628e-07,8.59156e-07,0,-5.6989e-07,-3.84468e+08,-3.84432e+08,-3.84491e+08,-39094.5,0.00443528,0.147336,0,0.147403,9585.18,-13999.6,0,16966.6,39094.5
step02_gravity_refstate-crust.xmf,417,3.91041e-07,1.07073e-06,0,-7.30389e-07,-4.97284e+08,-4.97238e+08,-4.97311e+08,-50104.7,0.00541859,0.143457,0,0.143559,9509.58,-18107.4,0,20452.6,50104.7
step02_gravity_refstate-crust.xmf,418,5.4861e-07,1.21724e-06,0,-9.74633e-07,-6.43231e+08,-6.43185e+08,-6.43268e+08,-66859.8,0.00710953,0.138347,0,0.138529,8716.69,-23421.6,0,24991,66859.8
step02_gravity_refstate-crust.xmf,419,4.54861e-07,1.22438e-06,0,-9.17116e-07,-5.96733e+08,-5.9668e+08,-5.96764e+08,-62914.2,0.00674619,0.139304,0,0.139468,9498.13,-21728.4,0,23713.7,62914.2
step02_gravity_refstate-crust.xmf,420,1.21623e-06,8.24705e-07,0,-1.6071e-06,-8.81807e+08,-8.81834e+08,-8.8189e+08,-110247,0.0101541,0.133556,0,0.133941,6111.87,-32109.3,0,32685.8,110247
step02_gravity_refstate-crust.xmf,421,1.04621e-06,9.9726e-07,0,-1.49946e-06,-8.46724e+08,-8.46727e+08,-8.46796e+08,-102863,0.00982054,0.133454,0,0.133815,6657.66,-30831.6,0,31542.2,102863
step02_gravity_refstate-crust.xmf,422,1.69431e-06,2.51751e-07,0,-1.33562e-06,-9.10276e+08,-9.10375e+08,-9.10392e+08,-91623.3,0.00797853,0.137527,0,0.137758,4090.03,-33146.8,0,33398.1,91623.3
step02_gravity_refstate-crust.xmf,423,9.00701e-07,1.14362e-06,0,-1.43265e-06,-8.17844e+08,-8.17827e+08,-8.17905e+08,-98280.1,0.00968372,0.13321,0,0.133562,7275.66,-29779.8,0,30655.7,98280.1
step02_gravity_refstate-crust.xmf,424,8.12756e-07,1.09107e-06,0,-1.07737e-06,-7.30951e+08,-7.30932e+08,-7.31007e+08,-73907.4,0.00753256,0.137291,0,0.137497,6984.11,-26616,0,27517,73907.4
step02_gravity_refstate-crust.xmf,425,8.64624e-07,1.12217e-06,0,-1.27071e-06,-7.81168e+08,-7.81151e+08,-7.81228e+08,-87170.6,0.00872064,0.134953,0,0.135234,7163.29,-28444.4,0,29332.6,87170.6
step02_gravity_refstate-crust.xmf,426,3.75495e-06,-2.39275e-06,0,-4.38852e-07,-1.07542e+09,-1.07584e+09,-1.07568e+09,-30105.2,0.00202177,0.148514,0,0.148527,538.18,-39163.1,0,39166.8,30105.2
step02_gravity_refstate-crust.xmf,427,3.3594e-06,-1.85216e-06,0,-8.38655e-07,-1.05248e+09,-1.05284e+09,-1.05271e+09,-57531.8,0.00400469,0.146119,0,0.146174,1175.23,-38327.3,0,38345.4,57531.8
step02_gravity_refstate-crust.xmf,428,4.07232e-07,6.25076e-08,0,-1.60429e-07,-7.22582e+07,-7.22819e+07,-7.22862e+07,-11005.4,0.00559624,0.152306,0,0.152409,10311.6,-2632.38,0,10642.3,11005.4
step02_gravity_refstate-crust.xmf,429,3.45391e-07,4.57995e-07,0,-3.3856e-07,-2.1735e+08,-2.17343e+08,-2.17374e+08,-23225.2,0.00381538,0.151998,0,0.152046,8829.36,-7914.96,0,11857.7,23225.2
step02_gravity_refstate-crust.xmf,430,3.54346e-07,7.02391e-07,0,-4.5353e-07,-3.25734e+08,-3.2571e+08,-3.25758e+08,-31112.1,0.00376546,0.149965,0,0.150013,8483.85,-11861.2,0,14583,31112.1
step02_gravity_refstate-crust.xmf,431,4.06362e-07,9.05611e-07,0,-5.86739e-07,-4.39386e+08,-4.39352e+08,-4.39414e+08,-40250.3,0.00440466,0.146701,0,0.146767,8390.12,-15999.3,0,18065.8,40250.3
step02_gravity_refstate-crust.xmf,432,4.86378e-07,1.08163e-06,0,-7.57483e-07,-5.48307e+08,-5.48266e+08,-5.48341e+08,-51963.3,0.00554819,0.142739,0,0.142846,8401.43,-19965.3,0,21661,51963.3
step02_gravity_refstate-crust.xmf,433,1.45488e-06,5.20581e-07,0,-1.3416e-06,-8.8034e+08,-8.80404e+08,-8.80439e+08,-92033.4,0.00833257,0.136581,0,0.136835,4776.04,-32056.3,0,32410.2,92033.4
step02_gravity_refstate-crust.xmf,434,1.97469e-06,-6.19827e-08,0,-1.29998e-06,-9.4038e+08,-9.4052e+08,-9.40516e+08,-89178.4,0.00740285,0.138816,0,0.139013,3382.02,-34243.4,0,34410,89178.4
step02_gravity_refstate-crust.xmf,435,6.80556e-07,1.06848e-06,0,-8.52337e-07,-6.46714e+08,-6.46688e+08,-6.46761e+08,-58470.3,0.00614968,0.140498,0,0.140632,7063.65,-23548.7,0,24585.3,58470.3
step02_gravity_refstate-crust.xmf,436,8.04506e-07,9.93432e-07,0,-8.45053e-07,-6.80426e+08,-6.80413e+08,-6.80481e+08,-57970.6,0.00597429,0.140424,0,0.140551,6130.15,-24776.4,0,25523.5,57970.6
step02_gravity_refstate-crust.xmf,437,2.29942e-06,-4.80595e-07,0,-1.19922e-06,-9.70385e+08,-9.70576e+08,-9.70543e+08,-82266.7,0.00653087,0.14047,0,0.140621,2652.2,-35336.4,0,35435.8,82266.7
step02_gravity_refstate-crust.xmf,438,2.98755e-06,-1.35984e-06,0,-1.15032e-06,-1.03069e+09,-1.03099e+09,-1.0309e+09,-78911.8,0.00570902,0.143847,0,0.143961,1841.14,-37533.5,0,37578.6,78911.8
step02_gravity_refstate-crust.xmf,439,2.56929e-06,-8.34233e-07,0,-1.26825e-06,-9.99527e+08,-9.99761e+08,-9.99703e+08,-87001.8,0.00663933,0.141561,0,0.141716,2427.36,-36397.9,0,36478.7,87001.8
step02_gravity_refstate-crust.xmf,440,3.79271e-07,5.25253e-07,0,-3.31759e-07,-2.58412e+08,-2.58402e+08,-2.58438e+08,-22758.7,0.00322074,0.152326,0,0.15236,7314.43,-9410.11,0,11918.5,22758.7
step02_gravity_refstate-crust.xmf,441,3.80592e-07,2.78746e-07,0,-2.543e-07,-1.50758e+08,-1.50765e+08,-1.50784e+08,-17445,0.00414719,0.152861,0,0.152918,8873.59,-5490.46,0,10434.8,17445
step02_gravity_refstate-crust.xmf,442,5.87827e-07,-2.20919e-07,0,-5.98637e-09,55930.2,450.267,15605.3,-410.665,0.00621958,0.153182,0,0.153308,8728.93,0,0,8728.93,410.665
step02_gravity_refstate-crust.xmf,443,4.12326e-07,7.70284e-07,0,-4.57415e-07,-3.80485e+08,-3.8046e+08,-3.80513e+08,-31378.6,0.00353369,0.14948,0,0.149522,7235.39,-13854.8,0,15630.3,31378.6
step02_gravity_refstate-crust.xmf,444,4.9068e-07,9.49975e-07,0,-6.08038e-07,-4.95524e+08,-4.95493e+08,-4.95558e+08,-41711.4,0.00446432,0.145748,0,0.145816,7384.97,-18043.5,0,19496.3,41711.4
step02_gravity_refstate-crust.xmf,445,6.1711e-07,1.03925e-06,0,-7.66814e-07,-6.00548e+08,-6.0052e+08,-6.00591e+08,-52603.4,0.00556224,0.142138,0,0.142246,7176.45,-21867.7,0,23015.1,52603.4
step02_gravity_refstate-crust.xmf,446,1.06625e-06,9.15862e-07,0,-1.23633e-06,-8.0878e+08,-8.0879e+08,-8.08853e+08,-84812.4,0.00826573,0.136035,0,0.136286,6050.04,-29450.2,0,30065.2,84812.4
step02_gravity_refstate-crust.xmf,447,1.28619e-06,6.90978e-07,0,-1.21918e-06,-8.4138e+08,-8.41421e+08,-8.41468e+08,-83635.9,0.00787066,0.136842,0,0.137069,5094.54,-30637.5,0,31058.2,83635.9
step02_gravity_refstate-crust.xmf,448,1.66507e-06,2.59008e-07,0,-1.02616e-06,-8.81214e+08,-8.8131e+08,-8.81328e+08,-70394.7,0.00628066,0.138936,0,0.139078,3448.54,-32088.6,0,32273.4,70394.7
step02_gravity_refstate-crust.xmf,449,1.89273e-06,1.42484e-09,0,-9.42689e-07,-9.08344e+08,-9.08473e+08,-9.08474e+08,-64668.5,0.0055763,0.139795,0,0.139906,2772.78,-33076.8,0,33192.8,64668.5
step02_gravity_refstate-crust.xmf,450,7.74346e-07,9.2905e-07,0,-6.77297e-07,-6.36542e+08,-6.36532e+08,-6.36595e+08,-46462.5,0.00483686,0.142727,0,0.142809,5451.86,-23178.5,0,23811.1,46462.5
step02_gravity_refstate-crust.xmf,451,9.68736e-07,8.71938e-07,0,-8.19792e-07,-7.20281e+08,-7.20288e+08,-7.20348e+08,-56237.8,0.00566583,0.14036,0,0.140474,5094.3,-26227.8,0,26718,56237.8
step02_gravity_refstate-crust.xmf,452,1.01732e-06,9.0104e-07,0,-1.02826e-06,-7.65609e+08,-7.65617e+08,-7.65679e+08,-70538.3,0.0069868,0.138121,0,0.138297,5662.03,-27878.3,0,28447.4,70538.3
step02_gravity_refstate-crust.xmf,453,3.74829e-06,-2.37828e-06,0,4.1665e-07,-1.07475e+09,-1.07517e+09,-1.075e+09,28582.2,-0.00184755,0.148484,-0,0.148495,-492.86,-39138.7,-0,39141.8,28582.2
step02_gravity_refstate-crust.xmf,454,3.10785e-06,-1.50135e-06,0,-4.62709e-07,-1.02759e+09,-1.02791e+09,-1.02781e+09,-31741.9,0.00232443,0.14502,0,0.145039,745.689,-37420.8,0,37428.3,31741.9
step02_gravity_refstate-crust.xmf,455,3.42741e-06,-1.93074e-06,0,-6.11079e-08,-1.05074e+09,-1.0511e+09,-1.05097e+09,-4192,0.000328952,0.146738,0,0.146738,96.3872,-38263.9,0,38264.1,4192
step02_gravity_refstate-crust.xmf,456,3.91967e-07,3.74496e-07,0,-2.6716e-07,-1.94483e+08,-1.94484e+08,-1.94509e+08,-18327.2,0.00333674,0.153353,0,0.153389,7355.74,-7082.5,0,10211.2,18327.2
step02_gravity_refstate-crust.xmf,457,5.076e-07,2.26707e-08,0,-1.24509e-07,-7.28292e+07,-7.28625e+07,-7.2864e+07,-8541.34,0.00419696,0.154309,0,0.154366,7271.76,-2653.51,0,7740.77,8541.34
step02_gravity_refstate-crust.xmf,458,4.17062e-07,6.34191e-07,0,-3.41782e-07,-3.2092e+08,-3.20906e+08,-3.20949e+08,-23446.3,0.00283159,0.151772,0,0.151798,6100.58,-11686.1,0,13182.6,23446.3
step02_gravity_refstate-crust.xmf,459,4.88224e-07,8.05203e-07,0,-4.39862e-07,-4.3427e+08,-4.34248e+08,-4.34303e+08,-30174.5,0.0032823,0.148866,0,0.148902,5966.14,-15813.2,0,16901.3,30174.5
step02_gravity_refstate-crust.xmf,460,5.95853e-07,9.39851e-07,0,-5.97976e-07,-5.44489e+08,-5.44465e+08,-5.4453e+08,-41021.2,0.00432979,0.145136,0,0.145201,6229.35,-19826.5,0,20782.1,41021.2
step02_gravity_refstate-crust.xmf,461,1.4693e-06,4.76934e-07,0,-1.09183e-06,-8.56882e+08,-8.5695e+08,-8.56983e+08,-74899.4,0.00688249,0.138176,0,0.138347,4136.99,-31202.3,0,31475.4,74899.4
step02_gravity_refstate-crust.xmf,462,2.1752e-06,-3.20338e-07,0,-8.28937e-07,-9.3957e+08,-9.39741e+08,-9.39719e+08,-56865.1,0.00465932,0.140903,0,0.14098,2067.72,-34214.3,0,34276.7,56865.1
step02_gravity_refstate-crust.xmf,463,9.16334e-07,8.41479e-07,0,-6.30027e-07,-6.75344e+08,-6.75349e+08,-6.75407e+08,-43219.8,0.00440577,0.142517,0,0.142585,4386.94,-24591.6,0,24979.8,43219.8
step02_gravity_refstate-crust.xmf,464,2.51972e-06,-7.60416e-07,0,-6.67343e-07,-9.74187e+08,-9.74412e+08,-9.7436e+08,-45779.8,0.00354243,0.142326,0,0.14237,1384.89,-35475.3,0,35502.3,45779.8
step02_gravity_refstate-crust.xmf,465,2.80661e-06,-1.1101e-06,0,-7.70616e-07,-1.00624e+09,-1.00651e+09,-1.00643e+09,-52864.3,0.00400021,0.143388,0,0.143444,1398.29,-36642.7,0,36669.4,52864.3
step02_gravity_refstate-crust.xmf,466,4.20909e-07,4.01816e-07,0,-2.31735e-07,-2.14295e+08,-2.14297e+08,-2.14324e+08,-15897,0.00262049,0.154006,0,0.154029,5718.82,-7803.96,0,9675.06,15897
step02_gravity_refstate-crust.xmf,467,6.94462e-07,-2.61854e-07,0,-5.28278e-09,66039.7,436.517,18399.7,-362.399,0.00435756,0.154726,0,0.154787,5815.3,0,0,5815.3,362.399
step02_gravity_refstate-crust.xmf,468,4.60089e-07,2.33286e-07,0,-1.71371e-07,-1.48113e+08,-1.48129e+08,-1.48145e+08,-11756,0.00283353,0.154777,0,0.154803,5710.57,-5394.43,0,7855.6,11756
step02_gravity_refstate-crust.xmf,469,4.30008e-07,4.98707e-07,0,-2.37039e-07,-2.63329e+08,-2.63324e+08,-2.63359e+08,-16260.9,0.00226195,0.15358,0,0.153596,4942.99,-9589.27,0,10788.3,16260.9
step02_gravity_refstate-crust.xmf,470,4.72339e-07,6.98858e-07,0,-3.20593e-07,-3.76148e+08,-3.76133e+08,-3.76181e+08,-21992.7,0.00246366,0.151139,0,0.151159,4861.97,-13697.1,0,14534.4,21992.7
step02_gravity_refstate-crust.xmf,471,5.67731e-07,8.48029e-07,0,-4.5322e-07,-4.89984e+08,-4.89964e+08,-4.90023e+08,-31090.9,0.00330112,0.147672,0,0.147709,5273.47,-17842,0,18605,31090.9
step02_gravity_refstate-crust.xmf,472,1.22627e-06,6.9637e-07,0,-9.65238e-07,-7.99471e+08,-7.99507e+08,-7.99555e+08,-66215.3,0.00638876,0.138758,0,0.138905,4572.74,-29111.6,0,29468.5,66215.3
step02_gravity_refstate-crust.xmf,473,1.43333e-06,4.84769e-07,0,-8.76288e-07,-8.29711e+08,-8.29776e+08,-8.29809e+08,-60113.4,0.00562779,0.139432,0,0.139545,3608.13,-30213,0,30427.7,60113.4
step02_gravity_refstate-crust.xmf,474,1.61357e-06,2.89275e-07,0,-7.54727e-07,-8.52798e+08,-8.52889e+08,-8.52909e+08,-51774.3,0.004723,0.140111,0,0.14019,2780.58,-31053.9,0,31178.2,51774.3
step02_gravity_refstate-crust.xmf,475,1.80653e-06,7.94171e-08,0,-6.46722e-07,-8.79577e+08,-8.79696e+08,-8.79701e+08,-44365.1,0.00393523,0.140624,0,0.140679,2111.87,-32029.3,0,32098.9,44365.1
step02_gravity_refstate-crust.xmf,476,2.01829e-06,-1.5277e-07,0,-5.04072e-07,-9.06597e+08,-9.06746e+08,-9.06735e+08,-34579.3,0.0029761,0.141222,0,0.141253,1454.76,-33013.5,0,33045.5,34579.3
step02_gravity_refstate-crust.xmf,477,7.21611e-07,8.82943e-07,0,-5.38382e-07,-5.87764e+08,-5.87753e+08,-5.87813e+08,-36933,0.0038688,0.144873,0,0.144925,4866.6,-21402.4,0,21948.7,36933
step02_gravity_refstate-crust.xmf,478,8.59538e-07,8.13886e-07,0,-4.64959e-07,-6.31817e+08,-6.3182e+08,-6.31876e+08,-31896.2,0.00330099,0.144441,0,0.144479,3631.92,-23006.7,0,23291.6,31896.2
step02_gravity_refstate-crust.xmf,479,1.07569e-06,7.25218e-07,0,-5.59461e-07,-7.14796e+08,-7.1482e+08,-7.1487e+08,-38379,0.00382907,0.142292,0,0.142344,3366,-26028.3,0,26245.1,38379
step02_gravity_refstate-crust.xmf,480,1.1537e-06,7.13189e-07,0,-7.5258e-07,-7.57504e+08,-7.57534e+08,-7.57583e+08,-51627,0.00506198,0.140552,0,0.140643,4011.03,-27583.5,0,27873.6,51627
step02_gravity_refstate-crust.xmf,481,3.57835e-06,-2.16061e-06,0,1.2162e-06,-1.07398e+09,-1.07437e+09,-1.07423e+09,83431.6,-0.005519,0.147197,-0,0.1473,-1497.99,-39110.5,-0,39139.2,83431.6
step02_gravity_refstate-crust.xmf,482,3.34118e-06,-1.81691e-06,0,7.28227e-07,-1.0495e+09,-1.04985e+09,-1.04973e+09,49956.4,-0.0034237,0.146109,-0,0.146149,-1013.89,-38218.6,-0,38232.1,49956.4
step02_gravity_refstate-crust.xmf,483,2.82156e-06,-1.11957e-06,0,-2.14408e-07,-9.99079e+08,-9.99349e+08,-9.99272e+08,-14708.4,0.00114876,0.143832,0,0.143836,408.076,-36382.1,0,36384.4,14708.4
step02_gravity_refstate-crust.xmf,484,3.09136e-06,-1.47353e-06,0,2.25444e-07,-1.02406e+09,-1.02437e+09,-1.02427e+09,15465.4,-0.0010761,0.145031,-0,0.145035,-348.749,-37292.1,-0,37293.7,15465.4
step02_gravity_refstate-crust.xmf,485,5.82942e-07,-1.74226e-08,0,-7.63039e-08,-6.99144e+07,-6.99556e+07,-6.99544e+07,-5234.44,0.00259541,0.155679,0,0.155701,4282.41,-2547.64,0,4982.92,5234.44
step02_gravity_refstate-crust.xmf,486,4.61128e-07,5.863e-07,0,-2.16124e-07,-3.17678e+08,-3.17669e+08,-3.1771e+08,-14826.1,0.00178325,0.153021,0,0.153031,3729.67,-11568.2,0,12154.5,14826.1
step02_gravity_refstate-crust.xmf,487,5.47323e-07,7.38355e-07,0,-2.75278e-07,-4.3221e+08,-4.32197e+08,-4.32248e+08,-18884,0.0020534,0.150279,0,0.150293,3612.21,-15738.4,0,16147.6,18884
step02_gravity_refstate-crust.xmf,488,6.74292e-07,8.34827e-07,0,-4.09226e-07,-5.40158e+08,-5.40147e+08,-5.40205e+08,-28072.9,0.00293869,0.146912,0,0.146941,4097.37,-19669,0,20091.3,28072.9
step02_gravity_refstate-crust.xmf,489,2.27186e-06,-4.50972e-07,0,-3.0384e-07,-9.37321e+08,-9.37507e+08,-9.37477e+08,-20843.4,0.00170156,0.141982,0,0.141992,748.022,-34132.6,0,34140.8,20843.4
step02_gravity_refstate-crust.xmf,490,9.93374e-07,7.36506e-07,0,-3.90548e-07,-6.71713e+08,-6.7173e+08,-6.71781e+08,-26791.6,0.00270958,0.143941,0,0.143966,2646.65,-24459.5,0,24602.3,26791.6
step02_gravity_refstate-crust.xmf,491,4.5819e-07,3.53855e-07,0,-1.48676e-07,-2.02331e+08,-2.02338e+08,-2.02362e+08,-10199.2,0.00178546,0.154999,0,0.155009,3774.74,-7368.45,0,8279.06,10199.2
step02_gravity_refstate-crust.xmf,492,7.61342e-07,-2.87621e-07,0,-4.71082e-09,72376.4,417.455,20148.3,-323.162,0.00224494,0.155691,0,0.155708,2907.42,0,0,2907.42,323.162
step02_gravity_refstate-crust.xmf,493,4.62337e-07,4.64357e-07,0,-1.21306e-07,-2.5829e+08,-2.5829e+08,-2.58322e+08,-8321.61,0.0011798,0.154533,0,0.154538,2519.39,-9405.89,0,9737.46,8321.61
step02_gravity_refstate-crust.xmf,494,6.28164e-07,7.80806e-07,0,-2.83009e-07,-4.92172e+08,-4.92162e+08,-4.92215e+08,-19414.4,0.00205117,0.148814,0,0.148828,3159.69,-17921.8,0,18198.2,19414.4
step02_gravity_refstate-crust.xmf,495,5.09932e-07,6.52122e-07,0,-1.68167e-07,-3.72655e+08,-3.72645e+08,-3.7269e+08,-11536.3,0.00128522,0.152193,0,0.152199,2483.56,-13570,0,13795.3,11536.3
step02_gravity_refstate-crust.xmf,496,1.35471e-06,5.25163e-07,0,-6.48497e-07,-7.9388e+08,-7.93937e+08,-7.93973e+08,-44486.9,0.00426689,0.140792,0,0.140857,2992.32,-28908.3,0,29062.8,44486.9
step02_gravity_refstate-crust.xmf,497,1.54378e-06,3.38432e-07,0,-5.13787e-07,-8.24846e+08,-8.24928e+08,-8.24952e+08,-35245.8,0.00329094,0.141094,0,0.141132,2080.05,-30036.1,0,30108,35245.8
step02_gravity_refstate-crust.xmf,498,1.69943e-06,1.71178e-07,0,-3.4828e-07,-8.48801e+08,-8.48906e+08,-8.48917e+08,-23892,0.00215686,0.141395,0,0.141411,1257.76,-30908.6,0,30934.2,23892
step02_gravity_refstate-crust.xmf,499,1.88094e-06,-1.73155e-08,0,-2.97754e-07,-8.79716e+08,-8.79846e+08,-8.79845e+08,-20425.9,0.00180859,0.141442,0,0.141454,956.769,-32034.5,0,32048.8,20425.9
step02_gravity_refstate-crust.xmf,500,2.04176e-06,-1.81858e-07,0,-4.70204e-08,-9.02498e+08,-9.0265e+08,-9.02638e+08,-3225.6,0.000309825,0.141738,0,0.141739,152.41,-32864.3,0,32864.7,3225.6
step02_gravity_refstate-crust.xmf,501,7.87719e-07,7.96601e-07,0,-3.33651e-07,-5.84565e+08,-5.84564e+08,-5.84619e+08,-22888.4,0.00239014,0.146242,0,0.146262,2939.62,-21286.1,0,21488.1,22888.4
step02_gravity_refstate-crust.xmf,502,9.07484e-07,7.46319e-07,0,-2.41097e-07,-6.27424e+08,-6.27435e+08,-6.27486e+08,-16539.2,0.00171418,0.145501,0,0.145511,1867.65,-22846.8,0,22923,16539.2
step02_gravity_refstate-crust.xmf,503,1.1397e-06,6.36674e-07,0,-2.83976e-07,-7.11483e+08,-7.11518e+08,-7.11561e+08,-19480.8,0.0019297,0.143429,0,0.143442,1674.92,-25907.9,0,25961.9,19480.8
step02_gravity_refstate-crust.xmf,504,1.24949e-06,5.83184e-07,0,-4.54404e-07,-7.534e+08,-7.53446e+08,-7.53486e+08,-31172.1,0.00303204,0.142126,0,0.142158,2360.22,-27434.3,0,27535.6,31172.1
step02_gravity_refstate-crust.xmf,505,2.53077e-06,-7.72117e-07,0,1.221e-10,-9.67199e+08,-9.67426e+08,-9.67373e+08,8.37609,-1.86252e-05,0.142809,-0,0.142809,-7.45109,-35220.9,-0,35220.9,8.37609
step02_gravity_refstate-crust.xmf,506,3.30481e-06,-1.811e-06,0,1.93232e-06,-1.07501e+09,-1.07536e+09,-1.07524e+09,132557,-0.00886322,0.144994,-0,0.145265,-2461.49,-39147.3,-0,39224.6,132557
step02_gravity_refstate-crust.xmf,507,3.117e-06,-1.52792e-06,0,1.42151e-06,-1.04785e+09,-1.04817e+09,-1.04806e+09,97515.7,-0.0067899,0.144318,-0,0.144478,-2065.91,-38158.3,-0,38214.2,97515.7
step02_gravity_refstate-crust.xmf,508,2.95194e-06,-1.29298e-06,0,9.08006e-07,-1.02159e+09,-1.02188e+09,-1.02179e+09,62289.2,-0.004496,0.143947,-0,0.144017,-1488.84,-37202,-0,37231.8,62289.2
step02_gravity_refstate-crust.xmf,509,2.75906e-06,-1.03872e-06,0,4.25471e-07,-9.94752e+08,-9.95012e+08,-9.94941e+08,29187.3,-0.00217086,0.14348,-0,0.143497,-784.708,-36224.5,-0,36233,29187.3
step02_gravity_refstate-crust.xmf,510,5.16709e-07,1.75669e-07,0,-7.5217e-08,-1.35826e+08,-1.35849e+08,-1.35861e+08,-5159.88,0.00139189,0.155958,0,0.155964,2660.99,-4947.24,0,5617.48,5159.88
step02_gravity_refstate-crust.xmf,511,6.24003e-07,-4.16707e-08,0,-2.79449e-08,-6.67295e+07,-6.67752e+07,-6.67724e+07,-1917.02,0.000812904,0.156356,0,0.156358,1304.61,-2431.82,0,2759.66,1917.02
step02_gravity_refstate-crust.xmf,512,4.845e-07,5.5783e-07,0,-7.8971e-08,-3.14477e+08,-3.14472e+08,-3.1451e+08,-5417.41,0.000644961,0.153714,0,0.153715,1329.86,-11451.7,0,11528.6,5417.41
step02_gravity_refstate-crust.xmf,513,5.97871e-07,7.39835e-07,0,-1.9113e-07,-4.59753e+08,-4.59744e+08,-4.59794e+08,-13111.5,0.00140104,0.150026,0,0.150033,2299.48,-16741.3,0,16898.5,13111.5
step02_gravity_refstate-crust.xmf,514,7.19973e-07,7.73862e-07,0,-2.18254e-07,-5.38028e+08,-5.38024e+08,-5.38077e+08,-14972.2,0.00155961,0.147908,0,0.147916,2135.74,-19591.5,0,19707.6,14972.2
step02_gravity_refstate-crust.xmf,515,2.25195e-06,-4.32628e-07,0,2.31329e-07,-9.3387e+08,-9.34054e+08,-9.34024e+08,15869.1,-0.00131632,0.141992,-0,0.141998,-584.874,-34006.9,-0,34011.9,15869.1
step02_gravity_refstate-crust.xmf,516,1.02906e-06,6.8383e-07,0,-1.34767e-07,-6.68325e+08,-6.68349e+08,-6.68396e+08,-9245,0.000925959,0.144706,0,0.144709,899.504,-24336.3,0,24352.9,9245
step02_gravity_refstate-crust.xmf,517,4.83323e-07,3.23308e-07,0,-4.57643e-08,-1.96122e+08,-1.96133e+08,-1.96156e+08,-3139.43,0.000586428,0.155657,0,0.155658,1212.63,-7142.49,0,7244.69,3139.43
step02_gravity_refstate-crust.xmf,518,7.8293e-07,-2.95948e-07,0,-3.8653e-09,74421.3,410.236,20712.3,-265.159,-2.72046e-07,0.15602,-0,0.15602,7.17046e-08,0,0,7.17046e-08,265.159
step02_gravity_refstate-crust.xmf,519,4.72934e-07,4.52633e-07,0,-2.76485e-09,-2.57393e+08,-2.57395e+08,-2.57426e+08,-189.669,4.5674e-05,0.154856,0,0.154856,95.7018,-9373.27,0,9373.76,189.669
step02_gravity_refstate-crust.xmf,520,5.75194e-07,6.98102e-07,0,-9.30681e-08,-4.28652e+08,-4.28643e+08,-4.28691e+08,-6384.47,0.000672215,0.151092,0,0.151093,1168.35,-15608.9,0,15652.6,6384.47
step02_gravity_refstate-crust.xmf,521,6.56646e-07,7.46329e-07,0,-1.24179e-07,-4.93425e+08,-4.93419e+08,-4.9347e+08,-8518.67,0.000899905,0.149345,0,0.149348,1362.99,-17967.4,0,18019.1,8518.67
step02_gravity_refstate-crust.xmf,522,5.21761e-07,6.31018e-07,0,-7.09484e-09,-3.68992e+08,-3.68984e+08,-3.69027e+08,-486.706,4.55133e-05,0.152625,0,0.152625,87.2103,-13436.6,0,13436.9,486.706
step02_gravity_refstate-crust.xmf,523,1.42941e-06,4.26524e-07,0,-3.0559e-07,-7.9009e+08,-7.90158e+08,-7.90188e+08,-20963.5,0.00201699,0.141993,0,0.142008,1400.11,-28770.4,0,28804.5,20963.5
step02_gravity_refstate-crust.xmf,524,1.59109e-06,2.74688e-07,0,-1.19383e-07,-8.21909e+08,-8.21999e+08,-8.22018e+08,-8189.69,0.000780121,0.14188,0,0.141883,491.364,-29929.3,0,29933.3,8189.69
step02_gravity_refstate-crust.xmf,525,1.80697e-06,6.62128e-08,0,5.37449e-08,-8.62584e+08,-8.62703e+08,-8.62708e+08,3686.9,-0.000295584,0.141661,-0,0.141661,-164.289,-31410.6,-0,31411.1,3686.9
step02_gravity_refstate-crust.xmf,526,1.98153e-06,-1.25425e-07,0,3.97121e-07,-8.99737e+08,-8.99882e+08,-8.99873e+08,27242.5,-0.00237623,0.141371,-0,0.141391,-1183.55,-32763.7,-0,32785,27242.5
step02_gravity_refstate-crust.xmf,527,8.18235e-07,7.53779e-07,0,-1.17774e-07,-5.81123e+08,-5.81127e+08,-5.81179e+08,-8079.32,0.000855006,0.146988,0,0.146991,1044.66,-21160.8,0,21186.6,8079.32
step02_gravity_refstate-crust.xmf,528,9.18123e-07,7.25382e-07,0,1.71038e-09,-6.23067e+08,-6.2308e+08,-6.2313e+08,117.332,9.40585e-06,0.145955,0,0.145955,10.3369,-22688.2,0,22688.2,117.332
step02_gravity_refstate-crust.xmf,529,1.15448e-06,6.10111e-07,0,1.04469e-09,-7.0839e+08,-7.08427e+08,-7.08469e+08,71.6655,-1.57419e-05,0.143849,-0,0.143849,-13.7535,-25795.3,-0,25795.3,71.6655
step02_gravity_refstate-crust.xmf,530,1.29053e-06,5.2277e-07,0,-1.39644e-07,-7.49812e+08,-7.49865e+08,-7.49901e+08,-9579.55,0.00092336,0.142917,0,0.14292,715.925,-27303.7,0,27313.1,9579.55
step02_gravity_refstate-crust.xmf,531,2.14118e-06,-2.97939e-07,0,7.3753e-07,-9.31876e+08,-9.32043e+08,-9.32023e+08,50594.5,-0.00420403,0.141004,-0,0.141067,-1907.34,-33934.1,-0,33987.6,50594.5
step02_gravity_refstate-crust.xmf,532,2.43875e-06,-6.58605e-07,0,5.9758e-07,-9.63872e+08,-9.64084e+08,-9.64039e+08,40994,-0.00326082,0.142128,-0,0.142166,-1319.26,-35099.6,-0,35124.4,40994
step02_gravity_refstate-crust.xmf,533,2.87684e-06,-1.30335e-06,0,2.53691e-06,-1.07503e+09,-1.07532e+09,-1.07523e+09,174032,-0.0119144,0.141656,-0,0.142156,-3446.08,-39147.3,-0,39298.7,174032
step02_gravity_refstate-crust.xmf,534,2.7393e-06,-1.04948e-06,0,2.08744e-06,-1.04685e+09,-1.04711e+09,-1.04703e+09,143198,-0.0101927,0.141171,-0,0.141538,-3237.4,-38120.9,-0,38258.1,143198
step02_gravity_refstate-crust.xmf,535,2.68506e-06,-9.52866e-07,0,1.5459e-06,-1.01985e+09,-1.0201e+09,-1.02003e+09,106049,-0.00780068,0.141696,-0,0.14191,-2674.8,-37137.9,-0,37234.1,106049
step02_gravity_refstate-crust.xmf,536,2.58669e-06,-8.19778e-07,0,1.04828e-06,-9.92558e+08,-9.92792e+08,-9.92735e+08,71912.2,-0.00546914,0.142039,-0,0.142144,-2029.55,-36144.3,-0,36201.2,71912.2
step02_gravity_refstate-crust.xmf,537,5.23464e-07,1.8839e-07,0,1.77632e-08,-1.42086e+08,-1.42109e+08,-1.42121e+08,1218.55,-0.000227681,0.156218,-0,0.156218,-436.006,-5175.18,-0,5193.51,1218.55
step02_gravity_refstate-crust.xmf,538,6.175e-07,-3.37788e-08,0,2.26934e-08,-6.94099e+07,-6.94546e+07,-6.94523e+07,1556.77,-0.00098492,0.156325,-0,0.156328,-1594.21,-2529.38,-0,2989.86,1556.77
step02_gravity_refstate-crust.xmf,539,4.86248e-07,5.55601e-07,0,5.78213e-08,-3.14804e+08,-3.14799e+08,-3.14837e+08,3966.54,-0.000490776,0.153746,-0,0.153747,-1011.37,-11463.6,-0,11508.1,3966.54
step02_gravity_refstate-crust.xmf,540,7.31839e-07,7.49223e-07,0,-2.39882e-08,-5.34494e+08,-5.34492e+08,-5.34544e+08,-1645.59,0.000168087,0.148354,0,0.148354,230.324,-19462.9,0,19464.3,1645.59
step02_gravity_refstate-crust.xmf,541,1.0225e-06,6.8512e-07,0,1.2142e-07,-6.65703e+08,-6.65726e+08,-6.65773e+08,8329.39,-0.000854216,0.144784,-0,0.144786,-835.421,-24240.8,-0,24255.2,8329.39
step02_gravity_refstate-crust.xmf,542,1.86973e-06,1.73235e-08,0,8.29586e-07,-8.98485e+08,-8.98612e+08,-8.98613e+08,56909.6,-0.00493533,0.14014,-0,0.140227,-2516.91,-32717.8,-0,32814.5,56909.6
step02_gravity_refstate-crust.xmf,543,2.41726e-06,-6.99798e-07,0,3.09489e-06,-1.07898e+09,-1.0792e+09,-1.07915e+09,212309,-0.0147494,0.137503,-0,0.138292,-4441.3,-39290.2,-0,39540.4,212309
step02_gravity_refstate-crust.xmf,544,4.74349e-07,3.50722e-07,0,7.49231e-08,-2.07949e+08,-2.07957e+08,-2.07981e+08,5139.72,-0.00088983,0.15542,-0,0.155422,-1863.44,-7573.04,-0,7798.94,5139.72
step02_gravity_refstate-crust.xmf,545,7.59204e-07,-2.87262e-07,0,-1.94748e-09,72154,366.435,20072.6,-133.597,-0.00224409,0.155691,-0,0.155707,-2907.42,0,-0,2907.42,133.597
step02_gravity_refstate-crust.xmf,546,4.66553e-07,4.8277e-07,0,1.02174e-07,-2.7043e+08,-2.70429e+08,-2.70462e+08,7009.12,-0.000941808,0.154439,-0,0.154442,-2000.45,-9847.9,-0,10049,7009.12
step02_gravity_refstate-crust.xmf,547,6.43438e-07,7.31573e-07,0,4.06919e-08,-4.79868e+08,-4.79862e+08,-4.79912e+08,2791.46,-0.000302919,0.149824,-0,0.149825,-471.398,-17473.8,-0,17480.2,2791.46
step02_gravity_refstate-crust.xmf,548,5.08062e-07,6.39782e-07,0,1.49809e-07,-3.6724e+08,-3.67231e+08,-3.67275e+08,10276.9,-0.00116878,0.152376,-0,0.152381,-2273.7,-13372.8,-0,13564.7,10276.9
step02_gravity_refstate-crust.xmf,549,5.67279e-07,6.92363e-07,0,9.38407e-08,-4.21986e+08,-4.21977e+08,-4.22025e+08,6437.47,-0.00070643,0.15125,-0,0.151252,-1244.57,-15366.2,-0,15416.5,6437.47
step02_gravity_refstate-crust.xmf,550,1.72995e-06,1.46502e-07,0,5.12949e-07,-8.62245e+08,-8.62354e+08,-8.62364e+08,35188.3,-0.00317191,0.140978,-0,0.141014,-1786.53,-31398.1,-0,31448.9,35188.3
step02_gravity_refstate-crust.xmf,551,1.43757e-06,4.10685e-07,0,4.79002e-08,-7.86176e+08,-7.86246e+08,-7.86274e+08,3285.95,-0.000288926,0.142365,-0,0.142366,-201.57,-28628,-0,28628.7,3285.95
step02_gravity_refstate-crust.xmf,552,1.58588e-06,2.86635e-07,0,2.63966e-07,-8.23192e+08,-8.23281e+08,-8.23301e+08,18108,-0.00165213,0.141713,-0,0.141723,-1038.24,-29976,-0,29994,18108
step02_gravity_refstate-crust.xmf,553,8.08274e-07,7.55034e-07,0,1.05334e-07,-5.75763e+08,-5.75766e+08,-5.75818e+08,7225.91,-0.000730351,0.147159,-0,0.14716,-904.109,-20965.7,-0,20985.1,7225.91
step02_gravity_refstate-crust.xmf,554,8.77532e-07,7.59668e-07,0,2.5693e-07,-6.16658e+08,-6.16666e+08,-6.16718e+08,17625.4,-0.00180494,0.145737,-0,0.145749,-2024.82,-22454.8,-0,22545.9,17625.4
step02_gravity_refstate-crust.xmf,555,1.12202e-06,6.43697e-07,0,2.78434e-07,-7.05943e+08,-7.05975e+08,-7.0602e+08,19100.6,-0.00191407,0.143554,-0,0.143567,-1687.1,-25706.1,-0,25761.4,19100.6
step02_gravity_refstate-crust.xmf,556,1.27587e-06,5.33272e-07,0,1.75427e-07,-7.46823e+08,-7.46874e+08,-7.46911e+08,12034.3,-0.00118313,0.142926,-0,0.142931,-926.075,-27194.8,-0,27210.6,12034.3
step02_gravity_refstate-crust.xmf,557,1.94641e-06,-5.54856e-08,0,1.1903e-06,-9.3038e+08,-9.30518e+08,-9.30514e+08,81654.6,-0.00686423,0.139094,-0,0.139264,-3221.61,-33879.2,-0,34032,81654.6
step02_gravity_refstate-crust.xmf,558,2.25056e-06,-4.24166e-07,0,1.13514e-06,-9.62155e+08,-9.62338e+08,-9.62309e+08,77870.9,-0.00625359,0.140419,-0,0.140558,-2606.88,-35036.7,-0,35133.5,77870.9
step02_gravity_refstate-crust.xmf,559,2.26676e-06,-4.45959e-07,0,2.70009e-06,-1.05135e+09,-1.05153e+09,-1.0515e+09,185226,-0.0134334,0.136859,-0,0.137517,-4453.99,-38283.9,-0,38542.1,185226
step02_gravity_refstate-crust.xmf,560,2.31488e-06,-4.80262e-07,0,2.09003e-06,-1.01898e+09,-1.01917e+09,-1.01914e+09,143376,-0.0107877,0.138359,-0,0.138779,-3880.84,-37105.5,-0,37307.9,143376
step02_gravity_refstate-crust.xmf,561,2.31363e-06,-4.73825e-07,0,1.58642e-06,-9.91053e+08,-9.91244e+08,-9.91211e+08,108829,-0.00844044,0.139576,-0,0.139831,-3256.63,-36088.9,-0,36235.5,108829
step02_gravity_refstate-crust.xmf,562,5.1088e-07,1.82308e-07,0,9.76828e-08,-1.3675e+08,-1.36773e+08,-1.36786e+08,6701.04,-0.00164717,0.155825,-0,0.155834,-3165.98,-4980.89,-0,5901.92,6701.04
step02_gravity_refstate-crust.xmf,563,5.81417e-07,-2.00206e-08,0,6.94126e-08,-6.93075e+07,-6.93487e+07,-6.93473e+07,4761.7,-0.002678,0.15563,-0,0.155653,-4418.05,-2525.53,-0,5088.96,4761.7
step02_gravity_refstate-crust.xmf,564,4.66211e-07,5.70639e-07,0,1.84655e-07,-3.14199e+08,-3.14192e+08,-3.14231e+08,12667.3,-0.00155235,0.153269,-0,0.153277,-3240.99,-11441.5,-0,11891.7,12667.3
step02_gravity_refstate-crust.xmf,565,7.06303e-07,7.60981e-07,0,1.72854e-07,-5.26578e+08,-5.26574e+08,-5.26626e+08,11857.8,-0.0012475,0.148343,-0,0.148348,-1751.35,-19174.6,-0,19254.4,11857.8
step02_gravity_refstate-crust.xmf,566,1.86407e-06,3.21964e-08,0,3.37912e-06,-1.075e+09,-1.07512e+09,-1.07512e+09,231808,-0.0166317,0.132546,-0,0.133586,-5419.8,-39143.9,-0,39517.3,231808
step02_gravity_refstate-crust.xmf,567,1.64806e-06,2.74829e-07,0,8.93741e-07,-8.68169e+08,-8.68264e+08,-8.68282e+08,61310.6,-0.00550102,0.139541,-0,0.13965,-3115.98,-31613.7,-0,31766.9,61310.6
step02_gravity_refstate-crust.xmf,568,9.81114e-07,7.33356e-07,0,3.57845e-07,-6.64013e+08,-6.6403e+08,-6.6408e+08,24548.1,-0.00250486,0.144233,-0,0.144254,-2493.42,-24179.2,-0,24307.4,24548.1
step02_gravity_refstate-crust.xmf,569,1.68219e-06,2.49839e-07,0,1.20687e-06,-8.97981e+08,-8.98079e+08,-8.98096e+08,82791.4,-0.00726754,0.138129,-0,0.13832,-3835.4,-32699.1,-0,32923.2,82791.4
step02_gravity_refstate-crust.xmf,570,4.4459e-07,4.73819e-07,0,1.91001e-07,-2.57803e+08,-2.57801e+08,-2.57834e+08,13102.6,-0.00184225,0.154085,-0,0.154096,-3982.16,-9388.12,-0,10197.8,13102.6
step02_gravity_refstate-crust.xmf,571,4.44785e-07,3.48529e-07,0,1.84216e-07,-1.9773e+08,-1.97736e+08,-1.9776e+08,12637.2,-0.00225574,0.154663,-0,0.154679,-4800.68,-7200.88,-0,8654.44,12637.2
step02_gravity_refstate-crust.xmf,572,6.90876e-07,-2.61706e-07,0,-9.94013e-11,65647.5,300.468,18253.5,-6.81893,-0.00435704,0.154726,-0,0.154787,-5815.3,0,-0,5815.3,6.81893
step02_gravity_refstate-crust.xmf,573,6.13502e-07,7.51256e-07,0,2.22943e-07,-4.73471e+08,-4.73462e+08,-4.73513e+08,15293.9,-0.0016292,0.149555,-0,0.149563,-2602.44,-17240.8,-0,17436.1,15293.9
step02_gravity_refstate-crust.xmf,574,4.70533e-07,6.71566e-07,0,2.93783e-07,-3.65066e+08,-3.65053e+08,-3.65099e+08,20153.5,-0.00229763,0.151555,-0,0.151573,-4591.19,-13293.6,-0,14064.1,20153.5
step02_gravity_refstate-crust.xmf,575,5.34089e-07,7.20866e-07,0,2.63446e-07,-4.18964e+08,-4.18951e+08,-4.19001e+08,18072.4,-0.00197059,0.150658,-0,0.150671,-3553.63,-15256.1,-0,15664.5,18072.4
step02_gravity_refstate-crust.xmf,576,1.50056e-06,4.00807e-07,0,6.72708e-07,-8.26539e+08,-8.26614e+08,-8.26642e+08,46147.8,-0.0042659,0.140518,-0,0.140583,-2709.39,-30097.7,-0,30219.4,46147.8
step02_gravity_refstate-crust.xmf,577,1.38933e-06,4.69841e-07,0,3.92607e-07,-7.84345e+08,-7.84408e+08,-7.84441e+08,26932.9,-0.00255063,0.141877,-0,0.1419,-1807.02,-28561.2,-0,28618.3,26932.9
step02_gravity_refstate-crust.xmf,578,7.63521e-07,8.01981e-07,0,3.27211e-07,-5.72055e+08,-5.72052e+08,-5.72107e+08,22446.7,-0.00231813,0.146605,-0,0.146623,-2942.12,-20830.6,-0,21037.3,22446.7
step02_gravity_refstate-crust.xmf,579,8.20916e-07,8.31947e-07,0,5.06132e-07,-6.22958e+08,-6.22957e+08,-6.23014e+08,34720.7,-0.00358441,0.144394,-0,0.144439,-4064.22,-22684,-0,23045.2,34720.7
step02_gravity_refstate-crust.xmf,580,1.04848e-06,7.30962e-07,0,5.39057e-07,-7.04796e+08,-7.04817e+08,-7.04867e+08,36979.3,-0.00371768,0.142566,-0,0.142614,-3357.58,-25664.2,-0,25882.9,36979.3
step02_gravity_refstate-crust.xmf,581,1.2089e-06,6.10324e-07,0,4.76474e-07,-7.44581e+08,-7.44622e+08,-7.44664e+08,32686.1,-0.00321387,0.142174,-0,0.14221,-2571.51,-27113,-0,27234.7,32686.1
step02_gravity_refstate-crust.xmf,582,1.44723e-06,5.13619e-07,0,1.18678e-06,-8.63738e+08,-8.63802e+08,-8.63837e+08,81413,-0.00744576,0.137558,-0,0.13776,-4425.88,-31451.9,-0,31761.8,81413
step02_gravity_refstate-crust.xmf,583,1.6795e-06,2.81698e-07,0,1.57406e-06,-9.29029e+08,-9.29125e+08,-9.29144e+08,107980,-0.00924717,0.136322,-0,0.136636,-4554.24,-33829.5,-0,34134.6,107980
step02_gravity_refstate-crust.xmf,584,1.97963e-06,-8.17911e-08,0,1.58912e-06,-9.60674e+08,-9.60816e+08,-9.6081e+08,109013,-0.00890258,0.137799,-0,0.138086,-3876.15,-34982.2,-0,35196.3,109013
step02_gravity_refstate-crust.xmf,585,1.68806e-06,3.05978e-07,0,3.01682e-06,-1.04658e+09,-1.04668e+09,-1.0467e+09,206954,-0.0156309,0.131423,-0,0.132349,-5679.54,-38109.2,-0,38530.1,206954
step02_gravity_refstate-crust.xmf,586,1.89067e-06,6.30941e-08,0,2.49877e-06,-1.01909e+09,-1.01921e+09,-1.01922e+09,171416,-0.0132335,0.134287,-0,0.134937,-5042.71,-37108.7,-0,37449.7,171416
step02_gravity_refstate-crust.xmf,587,1.98189e-06,-4.98151e-08,0,2.02534e-06,-9.91378e+08,-9.91518e+08,-9.91514e+08,138938,-0.010995,0.136341,-0,0.136783,-4440.97,-36100.1,-0,36372.2,138938
step02_gravity_refstate-crust.xmf,588,4.66858e-07,2.00906e-07,0,1.71178e-07,-1.35381e+08,-1.35399e+08,-1.35413e+08,11742.8,-0.00299466,0.154778,-0,0.154807,-5911.21,-4930.88,-0,7697.79,11742.8
step02_gravity_refstate-crust.xmf,589,5.14159e-07,5.07574e-09,0,1.11103e-07,-6.87027e+07,-6.87376e+07,-6.8738e+07,7621.63,-0.00424782,0.15431,-0,0.154368,-7273.29,-2503.28,-0,7692.02,7621.63
step02_gravity_refstate-crust.xmf,590,4.2628e-07,5.98285e-07,0,3.02923e-07,-3.10711e+08,-3.10699e+08,-3.1074e+08,20780.5,-0.00256856,0.15233,-0,0.152352,-5531.36,-11314.4,-0,12594.1,20780.5
step02_gravity_refstate-crust.xmf,591,6.54666e-07,8.11165e-07,0,3.66526e-07,-5.22364e+08,-5.22354e+08,-5.22409e+08,25143.7,-0.00264865,0.147599,-0,0.147623,-3838.28,-19021.1,-0,19404.5,25143.7
step02_gravity_refstate-crust.xmf,592,1.31416e-06,7.59296e-07,0,3.57642e-06,-1.07484e+09,-1.07488e+09,-1.07493e+09,245342,-0.0182067,0.127105,-0,0.128402,-6416.17,-39137.1,-0,39659.6,245342
step02_gravity_refstate-crust.xmf,593,1.4841e-06,4.38646e-07,0,9.18456e-07,-8.4374e+08,-8.43811e+08,-8.43841e+08,63006.1,-0.00583545,0.139217,-0,0.139339,-3591.1,-30723.9,-0,30933,63006.1
step02_gravity_refstate-crust.xmf,594,9.19182e-07,8.17869e-07,0,5.89491e-07,-6.70365e+08,-6.70372e+08,-6.70428e+08,40439.1,-0.004119,0.142896,-0,0.142955,-4135.5,-24410.3,-0,24758.1,40439.1
step02_gravity_refstate-crust.xmf,595,1.44418e-06,5.52872e-07,0,1.52077e-06,-8.97537e+08,-8.97598e+08,-8.97636e+08,104325,-0.00931878,0.13542,-0,0.135741,-5155.21,-32682.4,-0,33086.5,104325
step02_gravity_refstate-crust.xmf,596,3.99619e-07,5.03018e-07,0,2.97876e-07,-2.55759e+08,-2.55751e+08,-2.55786e+08,20434.3,-0.00289334,0.152905,-0,0.152932,-6472.35,-9313.54,-0,11341.7,20434.3
step02_gravity_refstate-crust.xmf,597,3.91444e-07,3.72023e-07,0,2.68961e-07,-1.93561e+08,-1.93563e+08,-1.93588e+08,18450.7,-0.00338219,0.153297,-0,0.153334,-7464.58,-7048.95,-0,10266.8,18450.7
step02_gravity_refstate-crust.xmf,598,5.83075e-07,-2.21195e-07,0,1.34921e-09,55390.5,217.541,15391.5,92.5556,-0.00621998,0.153182,-0,0.153308,-8728.93,0,-0,8728.93,92.5556
step02_gravity_refstate-crust.xmf,599,5.58713e-07,8.05048e-07,0,3.95166e-07,-4.701e+08,-4.70083e+08,-4.70138e+08,27108.4,-0.00289713,0.148587,-0,0.148615,-4793.27,-17118,-0,17776.4,27108.4
step02_gravity_refstate-crust.xmf,600,4.12777e-07,7.21606e-07,0,4.19116e-07,-3.62065e+08,-3.62043e+08,-3.62093e+08,28751.3,-0.00330685,0.150227,-0,0.150263,-6902.11,-13184.1,-0,14881.5,28751.3
step02_gravity_refstate-crust.xmf,601,4.7663e-07,7.75979e-07,0,4.14771e-07,-4.1631e+08,-4.16289e+08,-4.16343e+08,28453.3,-0.00311933,0.149465,-0,0.149498,-5850.64,-15159.3,-0,16249.1,28453.3
step02_gravity_refstate-crust.xmf,602,1.17832e-06,9.72817e-07,0,3.21775e-06,-1.04733e+09,-1.04734e+09,-1.04741e+09,220738,-0.0172267,0.126079,-0,0.12725,-6767.94,-38135.4,-0,38731.3,220738
step02_gravity_refstate-crust.xmf,603,1.32948e-06,6.11163e-07,0,9.87334e-07,-8.21891e+08,-8.2194e+08,-8.21982e+08,67731.1,-0.00636954,0.138705,-0,0.138851,-4243.21,-29928.1,-0,30227.4,67731.1
step02_gravity_refstate-crust.xmf,604,1.28106e-06,6.05937e-07,0,7.16254e-07,-7.83254e+08,-7.833e+08,-7.83341e+08,49135,-0.00471491,0.14056,-0,0.140639,-3436.62,-28521.3,-0,28727.6,49135
step02_gravity_refstate-crust.xmf,605,6.84226e-07,8.90989e-07,0,5.28572e-07,-5.68878e+08,-5.68864e+08,-5.68925e+08,36260,-0.00378817,0.145371,-0,0.14542,-5006.48,-20714.7,-0,21311.1,36260
step02_gravity_refstate-crust.xmf,606,7.94126e-07,9.46089e-07,0,7.53315e-07,-6.58724e+08,-6.58714e+08,-6.58779e+08,51677.4,-0.00534261,0.14167,-0,0.14177,-5730.58,-23986.2,-0,24661.3,51677.4
step02_gravity_refstate-crust.xmf,607,9.29532e-07,8.69916e-07,0,7.64813e-07,-7.01336e+08,-7.0134e+08,-7.01399e+08,52466.2,-0.0053317,0.141037,-0,0.141137,-5031.71,-25537.9,-0,26028.9,52466.2
step02_gravity_refstate-crust.xmf,608,1.09137e-06,7.50625e-07,0,7.49064e-07,-7.42158e+08,-7.42181e+08,-7.42233e+08,51385.8,-0.0051007,0.140713,-0,0.140806,-4235.98,-27024.6,-0,27354.5,51385.8
step02_gravity_refstate-crust.xmf,609,1.27118e-06,7.49016e-07,0,1.47886e-06,-8.72115e+08,-8.72151e+08,-8.72202e+08,101450,-0.00937051,0.134818,-0,0.135144,-5692.01,-31756.5,-0,32262.6,101450
step02_gravity_refstate-crust.xmf,610,1.37255e-06,6.72526e-07,0,1.87147e-06,-9.28382e+08,-9.2843e+08,-9.28476e+08,128383,-0.0112363,0.132886,-0,0.13336,-5870.96,-33805.3,-0,34311.3,128383
step02_gravity_refstate-crust.xmf,611,1.64276e-06,3.50295e-07,0,1.95866e-06,-9.59719e+08,-9.59808e+08,-9.59832e+08,134364,-0.0112188,0.134315,-0,0.134783,-5171.19,-34946.7,-0,35327.3,134364
step02_gravity_refstate-crust.xmf,612,1.45646e-06,6.22483e-07,0,2.77624e-06,-1.02008e+09,-1.02014e+09,-1.02018e+09,190450,-0.0151125,0.129793,-0,0.13067,-6140.49,-37144,-0,37648.1,190450
step02_gravity_refstate-crust.xmf,613,1.60272e-06,4.35078e-07,0,2.34883e-06,-9.91346e+08,-9.91426e+08,-9.91456e+08,161130,-0.0130894,0.132422,-0,0.133067,-5610.76,-36098.1,-0,36531.6,161130
step02_gravity_refstate-crust.xmf,614,3.97829e-07,2.31354e-07,0,2.32219e-07,-1.34292e+08,-1.34303e+08,-1.34319e+08,15930.2,-0.00419422,0.153158,-0,0.153215,-8666.07,-4890.99,-0,9951.01,15930.2
step02_gravity_refstate-crust.xmf,615,4.15103e-07,4.73283e-08,0,1.47209e-07,-6.95504e+07,-6.95757e+07,-6.95789e+07,10098.5,-0.00558666,0.152409,-0,0.152511,-10179.9,-2533.81,-0,10490.5,10098.5
step02_gravity_refstate-crust.xmf,616,3.64887e-07,6.49139e-07,0,4.13386e-07,-3.09372e+08,-3.09353e+08,-3.09397e+08,28358.3,-0.00354282,0.150746,-0,0.150787,-7999.36,-11265.5,-0,13816.7,28358.3
step02_gravity_refstate-crust.xmf,617,5.74458e-07,8.97676e-07,0,5.41777e-07,-5.19178e+08,-5.19156e+08,-5.19217e+08,37165.9,-0.00394338,0.146198,-0,0.146251,-5983.82,-18904.9,-0,19829.3,37165.9
step02_gravity_refstate-crust.xmf,618,7.80971e-07,1.4746e-06,0,3.64024e-06,-1.07463e+09,-1.07458e+09,-1.07468e+09,249720,-0.0192518,0.12129,-0,0.122809,-7425.02,-39128.4,-0,39826.7,249720
step02_gravity_refstate-crust.xmf,619,6.91119e-07,9.63869e-07,0,6.95279e-07,-6.10331e+08,-6.10312e+08,-6.10378e+08,47696.1,-0.00500106,0.142947,-0,0.143035,-6119.01,-22224,-0,23051,47696.1
step02_gravity_refstate-crust.xmf,620,1.24413e-06,7.51928e-07,0,1.30047e-06,-8.45929e+08,-8.45963e+08,-8.46015e+08,89212.5,-0.00836778,0.136134,-0,0.136391,-5405.96,-30803.1,-0,31273.9,89212.5
step02_gravity_refstate-crust.xmf,621,1.16766e-06,9.01704e-07,0,1.74746e-06,-8.94919e+08,-8.94937e+08,-8.94999e+08,119876,-0.01095,0.13224,-0,0.132693,-6463.3,-32586.5,-0,33221.3,119876
step02_gravity_refstate-crust.xmf,622,1.03617e-06,1.17262e-06,0,2.92039e-06,-1.01977e+09,-1.01976e+09,-1.01984e+09,200339,-0.0163922,0.125157,-0,0.126225,-7179.76,-37131.7,-0,37819.5,200339
step02_gravity_refstate-crust.xmf,623,3.24461e-07,5.44665e-07,0,3.94498e-07,-2.47379e+08,-2.47364e+08,-2.47402e+08,27062.6,-0.00396257,0.150999,-0,0.151051,-9414.05,-9008.25,-0,13029.7,27062.6
step02_gravity_refstate-crust.xmf,624,3.34521e-07,3.94661e-07,0,3.22199e-07,-1.87764e+08,-1.87759e+08,-1.87787e+08,22102.9,-0.00420103,0.151833,-0,0.151891,-9650.02,-6837.69,-0,11827,22102.9
step02_gravity_refstate-crust.xmf,625,4.43608e-07,-1.68819e-07,0,2.79371e-09,42118.9,106.349,11687.3,191.649,-0.00773116,0.151146,-0,0.151344,-11656.5,0,-0,11656.5,191.649
step02_gravity_refstate-crust.xmf,626,4.79603e-07,8.87641e-07,0,5.46291e-07,-4.67227e+08,-4.67199e+08,-4.6726e+08,37475.6,-0.00403585,0.147018,-0,0.147074,-7026.16,-17013.2,-0,18406.9,37475.6
step02_gravity_refstate-crust.xmf,627,3.38018e-07,7.87218e-07,0,5.2272e-07,-3.58859e+08,-3.58828e+08,-3.58882e+08,35858.6,-0.0041766,0.148405,-0,0.148464,-9260.09,-13067.2,-0,16015.7,35858.6
step02_gravity_refstate-crust.xmf,628,4.00098e-07,8.50441e-07,0,5.40288e-07,-4.13317e+08,-4.13286e+08,-4.13344e+08,37063.7,-0.00410174,0.147772,-0,0.147829,-8134.87,-15050.1,-0,17108,37063.7
step02_gravity_refstate-crust.xmf,629,7.14566e-07,1.59323e-06,0,3.27982e-06,-1.04715e+09,-1.04709e+09,-1.0472e+09,224996,-0.0181885,0.120771,-0,0.122132,-7792.8,-38127.9,-0,38916.1,224996
step02_gravity_refstate-crust.xmf,630,1.11288e-06,8.12758e-07,0,9.94065e-07,-7.80329e+08,-7.80349e+08,-7.80405e+08,68192.8,-0.00665848,0.138514,-0,0.138674,-5098.73,-28414.4,-0,28868.2,68192.8
step02_gravity_refstate-crust.xmf,631,5.77475e-07,1.01492e-06,0,7.00527e-07,-5.66804e+08,-5.66774e+08,-5.66844e+08,48056.1,-0.00508421,0.143492,-0,0.143582,-7094.85,-20639,-0,21824.4,48056.1
step02_gravity_refstate-crust.xmf,632,6.64721e-07,1.0979e-06,0,9.04269e-07,-6.54626e+08,-6.54596e+08,-6.54671e+08,62032.9,-0.00650099,0.139736,-0,0.139887,-7401.48,-23836.7,-0,24959.4,62032.9
step02_gravity_refstate-crust.xmf,633,7.85804e-07,1.04185e-06,0,9.49115e-07,-6.97954e+08,-6.97936e+08,-6.98008e+08,65109.3,-0.00670765,0.139012,-0,0.139174,-6697.3,-25414.5,-0,26282.1,65109.3
step02_gravity_refstate-crust.xmf,634,9.33896e-07,9.42634e-07,0,9.80697e-07,-7.39791e+08,-7.3979e+08,-7.39855e+08,67275.8,-0.0067727,0.1386,-0,0.138765,-5923.85,-26938.1,-0,27581.7,67275.8
step02_gravity_refstate-crust.xmf,635,1.05155e-06,1.02218e-06,0,1.55306e-06,-8.55462e+08,-8.55464e+08,-8.55534e+08,106540,-0.0100998,0.133029,-0,0.133412,-6703.05,-31149.8,-0,31862.8,106540
step02_gravity_refstate-crust.xmf,636,1.0921e-06,9.05033e-07,0,1.2619e-06,-8.16443e+08,-8.16456e+08,-8.16518e+08,86566.7,-0.00834671,0.13594,-0,0.136196,-5965.67,-29729.3,-0,30321.9,86566.7
step02_gravity_refstate-crust.xmf,637,1.02638e-06,1.11886e-06,0,2.06852e-06,-9.26145e+08,-9.26138e+08,-9.26215e+08,141900,-0.0128016,0.128817,-0,0.129452,-7238.56,-33723.1,-0,34491.2,141900
step02_gravity_refstate-crust.xmf,638,1.24272e-06,8.65221e-07,0,2.2884e-06,-9.64122e+08,-9.64147e+08,-9.64207e+08,156984,-0.0133988,0.129655,-0,0.130345,-6570.29,-35106.2,-0,35715.7,156984
step02_gravity_refstate-crust.xmf,639,1.26753e-06,8.60354e-07,0,2.58463e-06,-9.96194e+08,-9.96221e+08,-9.96281e+08,177305,-0.0146841,0.128582,-0,0.129418,-6585.77,-36273.9,-0,36866.9,177305
step02_gravity_refstate-crust.xmf,640,2.95839e-07,3.03252e-07,0,2.96733e-07,-1.4477e+08,-1.4477e+08,-1.4479e+08,20355.9,-0.00513388,0.150754,-0,0.150841,-11643.2,-5272.17,-0,12781.2,20355.9
step02_gravity_refstate-crust.xmf,641,2.9585e-07,9.50289e-08,0,1.72632e-07,-6.96329e+07,-6.96467e+07,-6.96532e+07,11842.5,-0.00662685,0.150043,-0,0.150189,-13111.6,-2536.4,-0,13354.7,11842.5
step02_gravity_refstate-crust.xmf,642,2.88438e-07,7.13168e-07,0,5.01478e-07,-3.07916e+08,-3.07886e+08,-3.07935e+08,34401.4,-0.00435869,0.148667,-0,0.148731,-10508.8,-11212.2,-0,15367.2,34401.4
step02_gravity_refstate-crust.xmf,643,4.74972e-07,1.01232e-06,0,6.87485e-07,-5.18112e+08,-5.18075e+08,-5.18145e+08,47161.4,-0.00505397,0.144203,-0,0.144291,-8119.5,-18865.9,-0,20538.9,47161.4
step02_gravity_refstate-crust.xmf,644,3.15244e-07,2.12002e-06,0,3.57255e-06,-1.07282e+09,-1.0727e+09,-1.07285e+09,245077,-0.019705,0.1156,-0,0.117268,-8412.18,-39061.8,-0,39957.3,245077
step02_gravity_refstate-crust.xmf,645,5.59262e-07,1.12714e-06,0,8.60284e-07,-6.10095e+08,-6.10056e+08,-6.10134e+08,59015.5,-0.0062672,0.140559,-0,0.140698,-8148.65,-22215.1,-0,23662.5,59015.5
step02_gravity_refstate-crust.xmf,646,8.77098e-07,1.27485e-06,0,1.8901e-06,-8.912e+08,-8.91173e+08,-8.9126e+08,129661,-0.012192,0.128687,-0,0.129264,-7788.71,-32450.6,-0,33372.2,129661
step02_gravity_refstate-crust.xmf,647,9.30768e-07,1.30983e-06,0,2.64606e-06,-9.9039e+08,-9.90364e+08,-9.90454e+08,181520,-0.0155025,0.124869,-0,0.125828,-7547.31,-36061.9,-0,36843.3,181520
step02_gravity_refstate-crust.xmf,648,6.27421e-07,1.72257e-06,0,2.95471e-06,-1.0178e+09,-1.01773e+09,-1.01784e+09,202693,-0.0171994,0.120233,-0,0.121457,-8252.71,-37059.3,-0,37967.1,202693
step02_gravity_refstate-crust.xmf,649,2.81235e-07,-1.077e-07,0,3.82262e-09,26673.5,-7.4254,7380.79,262.232,-0.00880929,0.148731,-0,0.148992,-14606.1,0,-0,14606.1,262.232
step02_gravity_refstate-crust.xmf,650,2.7357e-07,4.84511e-07,0,3.92044e-07,-2.09391e+08,-2.09377e+08,-2.0941e+08,26894.2,-0.00463701,0.150039,-0,0.15011,-11391.8,-7624.96,-0,13708.2,26894.2
step02_gravity_refstate-crust.xmf,651,2.37245e-07,6.45395e-07,0,4.8184e-07,-2.61689e+08,-2.61661e+08,-2.61705e+08,33054.2,-0.00471185,0.148313,-0,0.148388,-12096.4,-9529,-0,15398.9,33054.2
step02_gravity_refstate-crust.xmf,652,3.83187e-07,9.91679e-07,0,6.68919e-07,-4.65185e+08,-4.65143e+08,-4.65211e+08,45887.9,-0.00498949,0.144916,-0,0.145002,-9279.11,-16938.6,-0,19313.7,45887.9
step02_gravity_refstate-crust.xmf,653,2.54372e-07,8.66278e-07,0,6.01464e-07,-3.58005e+08,-3.57963e+08,-3.58023e+08,41260.4,-0.00486341,0.146152,-0,0.146233,-11596.5,-13035.9,-0,17447.5,41260.4
step02_gravity_refstate-crust.xmf,654,3.09043e-07,9.40628e-07,0,6.39377e-07,-4.10897e+08,-4.10854e+08,-4.10919e+08,43861.3,-0.00491084,0.145582,-0,0.145665,-10469.5,-14961.8,-0,18261.1,43861.3
step02_gravity_refstate-crust.xmf,655,2.70723e-07,2.20644e-06,0,3.21842e-06,-1.04519e+09,-1.04506e+09,-1.04521e+09,220783,-0.0186479,0.115044,-0,0.116545,-8900.31,-38055.8,-0,39082.8,220783
step02_gravity_refstate-crust.xmf,656,9.0884e-07,1.06863e-06,0,1.21797e-06,-7.7844e+08,-7.78429e+08,-7.78502e+08,83552.6,-0.00832809,0.135767,-0,0.136022,-6787.03,-28345.2,-0,29146.4,83552.6
step02_gravity_refstate-crust.xmf,657,4.58661e-07,1.15582e-06,0,8.29431e-07,-5.65565e+08,-5.65517e+08,-5.65596e+08,56899,-0.00610309,0.1412,-0,0.141331,-9091.36,-20593.6,-0,22511.1,56899
step02_gravity_refstate-crust.xmf,658,5.17181e-07,1.27819e-06,0,1.02811e-06,-6.52271e+08,-6.52218e+08,-6.52306e+08,70528.4,-0.0075109,0.137231,-0,0.137437,-9177.62,-23750.6,-0,25462.2,70528.4
step02_gravity_refstate-crust.xmf,659,6.21049e-07,1.24483e-06,0,1.09635e-06,-6.95577e+08,-6.95534e+08,-6.9562e+08,75209.9,-0.00788204,0.136433,-0,0.136661,-8427.93,-25327.6,-0,26693,75209.9
step02_gravity_refstate-crust.xmf,660,7.47722e-07,1.1742e-06,0,1.16257e-06,-7.37584e+08,-7.37555e+08,-7.37636e+08,79752.5,-0.00818029,0.135897,-0,0.136143,-7647.86,-26857.3,-0,27925,79752.5
step02_gravity_refstate-crust.xmf,661,8.50992e-07,1.21519e-06,0,1.46617e-06,-8.16707e+08,-8.16682e+08,-8.16765e+08,100579,-0.00993156,0.132565,-0,0.132936,-7590.36,-29738.4,-0,30691.8,100579
step02_gravity_refstate-crust.xmf,662,7.4188e-07,1.42191e-06,0,1.72726e-06,-8.54672e+08,-8.54625e+08,-8.54723e+08,118490,-0.0116005,0.128782,-0,0.129303,-8400.14,-31120.4,-0,32234.2,118490
step02_gravity_refstate-crust.xmf,663,6.87512e-07,1.56623e-06,0,2.16824e-06,-9.23636e+08,-9.23576e+08,-9.23683e+08,148741,-0.0138833,0.124444,-0,0.125216,-8600.28,-33631.1,-0,34713.3,148741
step02_gravity_refstate-crust.xmf,664,8.18652e-07,1.42018e-06,0,2.38788e-06,-9.57398e+08,-9.57356e+08,-9.57454e+08,163809,-0.0146202,0.124728,-0,0.125582,-7999.81,-34860.5,-0,35766.7,163809
step02_gravity_refstate-crust.xmf,665,1.57832e-07,1.51064e-07,0,1.87041e-07,-6.9909e+07,-6.99095e+07,-6.99198e+07,12831,-0.00730672,0.147283,-0,0.147464,-16132.4,-2545.98,-0,16332.1,12831
step02_gravity_refstate-crust.xmf,666,1.94423e-07,5.22028e-07,0,4.2684e-07,-2.0531e+08,-2.05287e+08,-2.05323e+08,29281.2,-0.00521096,0.147887,-0,0.147979,-13765.9,-7476.1,-0,15665,29281.2
step02_gravity_refstate-crust.xmf,667,1.8814e-07,3.34864e-07,0,3.19731e-07,-1.37238e+08,-1.37228e+08,-1.37251e+08,21933.5,-0.00594792,0.148082,-0,0.148202,-14665.5,-4997.58,-0,15493.6,21933.5
step02_gravity_refstate-crust.xmf,668,2.14828e-07,7.88841e-07,0,5.61754e-07,-3.12191e+08,-3.12151e+08,-3.12205e+08,38536.3,-0.0049096,0.146438,-0,0.14652,-12653.2,-11367.7,-0,17009.7,38536.3
step02_gravity_refstate-crust.xmf,669,3.63529e-07,1.14535e-06,0,7.96995e-07,-5.18056e+08,-5.18002e+08,-5.18081e+08,54673.8,-0.00594012,0.141755,-0,0.141879,-10233.5,-18863.6,-0,21460.6,54673.8
step02_gravity_refstate-crust.xmf,670,-1.27681e-07,2.75128e-06,0,3.41749e-06,-1.072e+09,-1.0718e+09,-1.07199e+09,234440,-0.0197711,0.109364,-0,0.111137,-9492.52,-39030.8,-0,40168.6,234440
step02_gravity_refstate-crust.xmf,671,4.2733e-07,1.29051e-06,0,9.67628e-07,-6.09401e+08,-6.09342e+08,-6.0943e+08,66379.3,-0.00715818,0.138032,-0,0.138217,-9976.66,-22189.6,-0,24329.2,66379.3
step02_gravity_refstate-crust.xmf,672,5.77236e-07,1.67229e-06,0,1.97633e-06,-8.89456e+08,-8.89381e+08,-8.89496e+08,135576,-0.0131715,0.1245,-0,0.125194,-9209.97,-32386.5,-0,33670.6,135576
step02_gravity_refstate-crust.xmf,673,5.44166e-07,1.83137e-06,0,2.66551e-06,-9.86993e+08,-9.86905e+08,-9.8703e+08,182854,-0.0162563,0.119974,-0,0.12107,-8751.06,-35937.5,-0,36987.6,182854
step02_gravity_refstate-crust.xmf,674,2.25314e-07,2.27809e-06,0,2.90357e-06,-1.01634e+09,-1.0162e+09,-1.01636e+09,199185,-0.0176426,0.114737,-0,0.116086,-9428.38,-37005.3,-0,38187.6,199185
step02_gravity_refstate-crust.xmf,675,1.05769e-07,-4.14371e-08,0,4.68569e-09,9991.92,-106.423,2736.16,321.438,-0.00939555,0.146065,-0,0.146367,-17586.2,0,-0,17586.2,321.438
step02_gravity_refstate-crust.xmf,676,1.45756e-07,7.60033e-07,0,5.52894e-07,-2.81105e+08,-2.81062e+08,-2.81115e+08,37928.5,-0.00521131,0.145182,-0,0.145276,-14667.1,-10235.7,-0,17885.6,37928.5
step02_gravity_refstate-crust.xmf,677,2.63523e-07,1.13895e-06,0,7.75854e-07,-4.69446e+08,-4.69385e+08,-4.69464e+08,53223.6,-0.00585601,0.141823,-0,0.141944,-11812.8,-17093.5,-0,20778.1,53223.6
step02_gravity_refstate-crust.xmf,678,1.65078e-07,9.36258e-07,0,6.44951e-07,-3.52266e+08,-3.52213e+08,-3.52277e+08,44243.6,-0.00531922,0.143793,-0,0.143892,-13923.7,-12826.7,-0,18931.3,44243.6
step02_gravity_refstate-crust.xmf,679,2.09752e-07,1.04054e-06,0,7.06793e-07,-4.09003e+08,-4.08946e+08,-4.09018e+08,48486,-0.00550438,0.143019,-0,0.143125,-12817.5,-14892.6,-0,19648.9,48486
step02_gravity_refstate-crust.xmf,680,-1.28923e-07,2.77652e-06,0,3.08039e-06,-1.04461e+09,-1.04441e+09,-1.0446e+09,211315,-0.0187069,0.10908,-0,0.110672,-10045.1,-38033.8,-0,39337.9,211315
step02_gravity_refstate-crust.xmf,681,6.85702e-07,1.35288e-06,0,1.37915e-06,-7.77208e+08,-7.77162e+08,-7.77255e+08,94609.6,-0.0096523,0.132473,-0,0.132824,-8482.35,-28299.9,-0,29543.8,94609.6
step02_gravity_refstate-crust.xmf,682,3.40639e-07,1.30535e-06,0,9.22984e-07,-5.68297e+08,-5.6823e+08,-5.6832e+08,63316.7,-0.00689114,0.138545,-0,0.138716,-10961.4,-20692.8,-0,23416.8,63316.7
step02_gravity_refstate-crust.xmf,683,3.67195e-07,1.46543e-06,0,1.10991e-06,-6.50285e+08,-6.5021e+08,-6.5031e+08,76139.7,-0.00825315,0.134443,-0,0.134696,-10939.2,-23678,-0,26082.8,76139.7
step02_gravity_refstate-crust.xmf,684,4.47168e-07,1.46167e-06,0,1.19545e-06,-6.93002e+08,-6.92932e+08,-6.93033e+08,82007.7,-0.00876919,0.133487,-0,0.133774,-10184.2,-25233.5,-0,27211.2,82007.7
step02_gravity_refstate-crust.xmf,685,5.49753e-07,1.42519e-06,0,1.29138e-06,-7.36418e+08,-7.36358e+08,-7.36455e+08,88589,-0.0092813,0.132706,-0,0.13303,-9384.03,-26814.5,-0,28409.1,88589
step02_gravity_refstate-crust.xmf,686,5.98794e-07,1.54478e-06,0,1.59759e-06,-8.17745e+08,-8.1768e+08,-8.17786e+08,109594,-0.0111303,0.128699,-0,0.129179,-9206.62,-29775.6,-0,31166.5,109594
step02_gravity_refstate-crust.xmf,687,4.78476e-07,1.76613e-06,0,1.80112e-06,-8.53918e+08,-8.5383e+08,-8.53951e+08,123557,-0.0124723,0.124796,-0,0.125418,-9863.8,-31092.4,-0,32619.5,123557
step02_gravity_refstate-crust.xmf,688,3.67706e-07,1.99958e-06,0,2.19135e-06,-9.22146e+08,-9.22034e+08,-9.22171e+08,150327,-0.0145623,0.119769,-0,0.120651,-9980.64,-33576.2,-0,35028.2,150327
step02_gravity_refstate-crust.xmf,689,4.52414e-07,1.91505e-06,0,2.41526e-06,-9.54921e+08,-9.54821e+08,-9.54952e+08,165687,-0.0153845,0.119761,-0,0.120745,-9343.11,-34769.7,-0,36003.1,165687
step02_gravity_refstate-crust.xmf,690,1.61795e-08,2.10797e-07,0,1.91617e-07,-7.09157e+07,-7.09023e+07,-7.09168e+07,13144.9,-0.00754617,0.144381,-0,0.144578,-19130.5,-2582.15,-0,19304,13144.9
step02_gravity_refstate-crust.xmf,691,6.71045e-08,4.06201e-07,0,3.41053e-07,-1.41703e+08,-1.4168e+08,-1.41708e+08,23396.3,-0.00627999,0.14501,-0,0.145146,-17694.5,-5159.75,-0,18431.5,23396.3
step02_gravity_refstate-crust.xmf,692,1.00076e-07,5.99395e-07,0,4.6156e-07,-2.12591e+08,-2.12557e+08,-2.12598e+08,31663,-0.00555729,0.145081,-0,0.145187,-16364.4,-7740.92,-0,18102.9,31663
step02_gravity_refstate-crust.xmf,693,-6.52537e-08,2.50884e-08,0,3.85896e-09,-6184.71,12.7529,-1708.31,264.725,-0.00945543,0.143293,-0,0.143604,-20604.8,0,-0,20604.8,264.725
step02_gravity_refstate-crust.xmf,694,-2.43509e-07,9.08864e-08,0,5.22698e-09,-23196,-256.525,-6491.33,358.571,-0.00898003,0.140562,-0,0.140849,-23670.5,0,-0,23670.5,358.571
step02_gravity_refstate-crust.xmf,695,-1.18021e-07,2.69063e-07,0,1.80888e-07,-7.13107e+07,-7.12842e+07,-7.13026e+07,12408.9,-0.00737847,0.141483,-0,0.141676,-22138.6,-2596.08,-0,22290.3,12408.9
step02_gravity_refstate-crust.xmf,696,2.60923e-07,1.27729e-06,0,8.71961e-07,-5.21233e+08,-5.21163e+08,-5.21251e+08,59816.5,-0.00656945,0.13913,-0,0.139285,-12126.4,-18979,-0,22522.3,59816.5
step02_gravity_refstate-crust.xmf,697,-5.06099e-07,3.31406e-06,0,3.19042e-06,-1.07209e+09,-1.07183e+09,-1.07205e+09,218863,-0.0194234,0.103055,-0,0.104869,-10600.8,-39033.5,-0,40447.4,218863
step02_gravity_refstate-crust.xmf,698,3.11807e-07,1.44177e-06,0,1.03047e-06,-6.09893e+08,-6.09815e+08,-6.09914e+08,70690.4,-0.00774452,0.135591,-0,0.135812,-11541.8,-22207.3,-0,25027.5,70690.4
step02_gravity_refstate-crust.xmf,699,3.03673e-07,2.04171e-06,0,1.98855e-06,-8.87355e+08,-8.87236e+08,-8.87376e+08,136415,-0.0137228,0.12026,-0,0.12104,-10605.8,-32309.4,-0,34005.6,136415
step02_gravity_refstate-crust.xmf,700,1.7363e-07,2.34296e-06,0,2.61924e-06,-9.85966e+08,-9.85817e+08,-9.85978e+08,179680,-0.0166776,0.114567,-0,0.115774,-10028.4,-35899.4,-0,37273.8,179680
step02_gravity_refstate-crust.xmf,701,-1.40273e-07,2.80017e-06,0,2.77794e-06,-1.01619e+09,-1.01599e+09,-1.01618e+09,190567,-0.0176901,0.10892,-0,0.110347,-10659.3,-36999.3,-0,38504.1,190567
step02_gravity_refstate-crust.xmf,702,7.5498e-08,9.97286e-07,0,6.58472e-07,-3.44426e+08,-3.44363e+08,-3.44431e+08,45171.2,-0.00556517,0.141312,-0,0.141422,-16291.5,-12541,-0,20559.4,45171.2
step02_gravity_refstate-crust.xmf,703,1.48283e-07,1.23834e-06,0,8.08022e-07,-4.58062e+08,-4.57988e+08,-4.58073e+08,55430.3,-0.00622031,0.139278,-0,0.139417,-14182.2,-16678.7,-0,21893.2,55430.3
step02_gravity_refstate-crust.xmf,704,1.08589e-07,1.13383e-06,0,7.38036e-07,-4.04335e+08,-4.04264e+08,-4.04342e+08,50629.2,-0.00584665,0.140294,-0,0.140415,-15207.9,-14722.4,-0,21166.7,50629.2
step02_gravity_refstate-crust.xmf,705,-2.53386e-07,3.15666e-07,0,1.62918e-07,-7.01547e+07,-7.01156e+07,-7.01373e+07,11176.2,-0.00682744,0.138723,-0,0.138891,-25202.3,-2553.51,-0,25331.3,11176.2
step02_gravity_refstate-crust.xmf,706,-3.98645e-07,1.49787e-07,0,5.04939e-09,-37931.5,-309,-10584.4,346.388,-0.00798539,0.138025,-0,0.138256,-26791.5,0,-0,26791.5,346.388
step02_gravity_refstate-crust.xmf,707,1.77403e-07,1.32811e-06,0,8.72513e-07,-5.03038e+08,-5.02959e+08,-5.0305e+08,59854.4,-0.00664618,0.138003,-0,0.138163,-13567.5,-18316.4,-0,22794,59854.4
step02_gravity_refstate-crust.xmf,708,-4.73651e-07,3.29131e-06,0,2.86818e-06,-1.04461e+09,-1.04436e+09,-1.04458e+09,196757,-0.018345,0.102934,-0,0.104556,-11247.1,-38033.4,-0,39661.6,196757
step02_gravity_refstate-crust.xmf,709,4.30128e-07,1.68098e-06,0,1.50561e-06,-7.81372e+08,-7.81286e+08,-7.81401e+08,103285,-0.0108144,0.128019,-0,0.128475,-10381.7,-28451,-0,30285.9,103285
step02_gravity_refstate-crust.xmf,710,2.20151e-07,1.49778e-06,0,1.01188e-06,-5.84996e+08,-5.84908e+08,-5.85011e+08,69415.2,-0.00767203,0.134906,-0,0.135124,-12811.1,-21300.6,-0,24856.4,69415.2
step02_gravity_refstate-crust.xmf,711,2.07896e-07,1.64158e-06,0,1.13192e-06,-6.38792e+08,-6.38694e+08,-6.38806e+08,77649.9,-0.00860398,0.131682,-0,0.131962,-12900.7,-23259.3,-0,26597.4,77649.9
step02_gravity_refstate-crust.xmf,712,2.74555e-07,1.67933e-06,0,1.2469e-06,-6.9016e+08,-6.90063e+08,-6.90178e+08,85537.3,-0.0093546,0.130288,-0,0.130624,-11965.1,-25129.7,-0,27832.8,85537.3
step02_gravity_refstate-crust.xmf,713,3.45683e-07,1.68708e-06,0,1.35938e-06,-7.34007e+08,-7.33915e+08,-7.34031e+08,93253.2,-0.0100286,0.129188,-0,0.129577,-11171.7,-26726.3,-0,28967.2,93253.2
step02_gravity_refstate-crust.xmf,714,3.9865e-07,1.80571e-06,0,1.66561e-06,-8.20969e+08,-8.20872e+08,-8.20996e+08,114261,-0.0118635,0.125178,-0,0.125739,-10512.6,-29892.6,-0,31687.3,114261
step02_gravity_refstate-crust.xmf,715,2.53285e-07,2.0631e-06,0,1.80391e-06,-8.51089e+08,-8.50965e+08,-8.51106e+08,123748,-0.0128903,0.121119,-0,0.121803,-11220,-30989,-0,32957.6,123748
step02_gravity_refstate-crust.xmf,716,8.60054e-08,2.39195e-06,0,2.14515e-06,-9.20733e+08,-9.20575e+08,-9.20739e+08,147158,-0.0148298,0.115083,-0,0.116035,-11349.1,-33524.3,-0,35393.2,147158
step02_gravity_refstate-crust.xmf,717,1.2369e-07,2.37301e-06,0,2.37015e-06,-9.53976e+08,-9.53822e+08,-9.53984e+08,162592,-0.0157399,0.114626,-0,0.115702,-10687.1,-34734.6,-0,36341.6,162592
step02_gravity_refstate-crust.xmf,718,-4.8963e-08,4.64768e-07,0,3.36628e-07,-1.43014e+08,-1.42979e+08,-1.43011e+08,23092.7,-0.00628961,0.141975,-0,0.142114,-20653,-5207.09,-0,21299.3,23092.7
step02_gravity_refstate-crust.xmf,719,1.72284e-09,6.57444e-07,0,4.63624e-07,-2.12245e+08,-2.122e+08,-2.12245e+08,31804.6,-0.00569831,0.142197,-0,0.142311,-19075.8,-7728.03,-0,20581.7,31804.6
step02_gravity_refstate-crust.xmf,720,4.35272e-08,8.33824e-07,0,5.67071e-07,-2.79261e+08,-2.79207e+08,-2.79264e+08,38901.1,-0.00548264,0.142052,-0,0.142158,-17541.6,-10168.2,-0,20275.6,38901.1
step02_gravity_refstate-crust.xmf,721,-1.56232e-07,5.13139e-07,0,3.05946e-07,-1.41254e+08,-1.41208e+08,-1.41243e+08,20987.9,-0.00600436,0.139096,-0,0.139226,-23607,-5142.65,-0,24160.7,20987.9
step02_gravity_refstate-crust.xmf,722,-3.7021e-07,3.59756e-07,0,1.3588e-07,-6.96058e+07,-6.95557e+07,-6.95804e+07,9321.34,-0.00585969,0.136226,-0,0.136352,-28340.2,-2533.13,-0,28453.2,9321.34
step02_gravity_refstate-crust.xmf,723,-5.29888e-07,1.9965e-07,0,4.71326e-09,-50396,-349.706,-14045.7,323.33,-0.00651241,0.135829,-0,0.135986,-29976.3,0,-0,29976.3,323.33
step02_gravity_refstate-crust.xmf,724,1.49452e-07,1.47146e-06,0,9.54112e-07,-5.44853e+08,-5.44762e+08,-5.44863e+08,65452.1,-0.00728405,0.135221,-0,0.135417,-14014.4,-19838.8,-0,24289.5,65452.1
step02_gravity_refstate-crust.xmf,725,8.80929e-08,1.43601e-06,0,8.94511e-07,-5.04693e+08,-5.04601e+08,-5.04699e+08,61363.5,-0.0068933,0.13551,-0,0.135685,-15267.3,-18376.4,-0,23891.1,61363.5
step02_gravity_refstate-crust.xmf,726,-8.10881e-07,3.79857e-06,0,2.89363e-06,-1.07196e+09,-1.07164e+09,-1.0719e+09,198503,-0.0186469,0.0967104,-0,0.0984917,-11775,-39028.3,-0,40765.9,198503
step02_gravity_refstate-crust.xmf,727,6.18523e-08,2.37755e-06,0,1.94693e-06,-8.8583e+08,-8.85671e+08,-8.85834e+08,133559,-0.0139336,0.115988,-0,0.116822,-11990.3,-32253.5,-0,34410.1,133559
step02_gravity_refstate-crust.xmf,728,-1.53406e-07,2.81073e-06,0,2.50322e-06,-9.86025e+08,-9.85822e+08,-9.86015e+08,171721,-0.0166928,0.10899,-0,0.110261,-11334,-35901,-0,37647.6,171721
step02_gravity_refstate-crust.xmf,729,-4.51504e-07,3.26688e-06,0,2.58368e-06,-1.01658e+09,-1.01633e+09,-1.01655e+09,177240,-0.0173215,0.10297,-0,0.104417,-11942,-37013,-0,38891.8,177240
step02_gravity_refstate-crust.xmf,730,-1.53415e-08,1.07457e-06,0,6.54561e-07,-3.42845e+08,-3.4277e+08,-3.42844e+08,44902.9,-0.00563363,0.138385,-0,0.138499,-18794.6,-12483.2,-0,22562.5,44902.9
step02_gravity_refstate-crust.xmf,731,1.08542e-08,1.23205e-06,0,7.43821e-07,-4.03462e+08,-4.03378e+08,-4.03463e+08,51026.1,-0.0059842,0.137275,-0,0.137406,-17621.7,-14690.4,-0,22941.9,51026.1
step02_gravity_refstate-crust.xmf,732,4.57456e-08,1.35197e-06,0,8.24158e-07,-4.57682e+08,-4.57593e+08,-4.57686e+08,56537.3,-0.00643305,0.136311,-0,0.136463,-16408.1,-16664.7,-0,23386.7,56537.3
step02_gravity_refstate-crust.xmf,733,-2.62234e-07,5.48608e-07,0,2.65144e-07,-1.38698e+08,-1.38642e+08,-1.3868e+08,18188.9,-0.00539003,0.136396,-0,0.136502,-26666.1,-5049.23,-0,27139.9,18188.9
step02_gravity_refstate-crust.xmf,734,-4.63873e-07,4.00406e-07,0,1.05447e-07,-7.07108e+07,-7.06515e+07,-7.0679e+07,7233.67,-0.00453115,0.134168,-0,0.134244,-31493.3,-2573.04,-0,31598.2,7233.67
step02_gravity_refstate-crust.xmf,735,-6.29476e-07,2.36513e-07,0,5.50555e-09,-59895.5,-488.717,-16713.5,377.681,-0.00462478,0.134115,-0,0.134195,-33233.5,0,-0,33233.5,377.681
step02_gravity_refstate-crust.xmf,736,-7.50992e-07,3.73479e-06,0,2.60129e-06,-1.0453e+09,-1.045e+09,-1.04525e+09,178449,-0.017596,0.0967697,-0,0.0983565,-12495.3,-38058,-0,40056.8,178449
step02_gravity_refstate-crust.xmf,737,2.29202e-07,2.00645e-06,0,1.63646e-06,-8.09608e+08,-8.09486e+08,-8.09623e+08,112261,-0.0119585,0.122784,-0,0.123365,-11738.1,-29478.6,-0,31729.7,112261
step02_gravity_refstate-crust.xmf,738,8.41992e-08,1.70315e-06,0,1.06503e-06,-6.00426e+08,-6.00315e+08,-6.00432e+08,73061.1,-0.00822204,0.130784,-0,0.131042,-14783.3,-21862.1,-0,26391.2,73061.1
step02_gravity_refstate-crust.xmf,739,1.12875e-07,1.88873e-06,0,1.25646e-06,-6.87839e+08,-6.87717e+08,-6.87847e+08,86193.2,-0.00965979,0.126891,-0,0.127258,-13774.3,-25044.8,-0,28582.8,86193.2
step02_gravity_refstate-crust.xmf,740,1.55931e-07,1.93467e-06,0,1.37424e-06,-7.31302e+08,-7.3118e+08,-7.31313e+08,94273.1,-0.0104221,0.125513,-0,0.125945,-12973,-26627.4,-0,29619.6,94273.1
step02_gravity_refstate-crust.xmf,741,2.07648e-07,1.95998e-06,0,1.50696e-06,-7.73647e+08,-7.73527e+08,-7.73661e+08,103377,-0.011204,0.124303,-0,0.124807,-12176.6,-28169.3,-0,30688.4,103377
step02_gravity_refstate-crust.xmf,742,4.73837e-08,2.3444e-06,0,1.7671e-06,-8.48855e+08,-8.48698e+08,-8.48859e+08,121223,-0.0130431,0.117302,-0,0.118025,-12609.6,-30907.3,-0,33380.6,121223
step02_gravity_refstate-crust.xmf,743,-1.55664e-07,2.74074e-06,0,2.04477e-06,-9.19326e+08,-9.19128e+08,-9.19316e+08,140271,-0.0147441,0.110405,-0,0.111385,-12737,-33472.6,-0,35814.1,140271
step02_gravity_refstate-crust.xmf,744,-1.59528e-07,2.78256e-06,0,2.26017e-06,-9.53335e+08,-9.53133e+08,-9.53324e+08,155048,-0.0156968,0.109462,-0,0.110582,-12047.6,-34710.8,-0,36742.1,155048
step02_gravity_refstate-crust.xmf,745,-1.06397e-07,7.512e-07,0,4.51013e-07,-2.21045e+08,-2.20986e+08,-2.21037e+08,30939.5,-0.00548604,0.138622,-0,0.138731,-22235.5,-8048.08,-0,23647.2,30939.5
step02_gravity_refstate-crust.xmf,746,-4.0967e-08,9.02865e-07,0,5.60405e-07,-2.81192e+08,-2.81127e+08,-2.81189e+08,38443.8,-0.0054863,0.13925,-0,0.139358,-19972.4,-10238.3,-0,22443.7,38443.8
step02_gravity_refstate-crust.xmf,747,-1.95541e-07,7.48013e-07,0,3.82823e-07,-2.04675e+08,-2.0461e+08,-2.04662e+08,26261.7,-0.00513612,0.136161,-0,0.136258,-25174.7,-7451.77,-0,26254.4,26261.7
step02_gravity_refstate-crust.xmf,748,-3.54872e-07,5.76537e-07,0,2.0708e-07,-1.3495e+08,-1.34886e+08,-1.34926e+08,14205.7,-0.00443239,0.134013,-0,0.134087,-29896.5,-4912.45,-0,30297.4,14205.7
step02_gravity_refstate-crust.xmf,749,-5.04522e-07,4.6414e-07,0,7.74342e-08,-8.47584e+07,-8.4692e+07,-8.47238e+07,5311.98,-0.00276171,0.132404,-0,0.132433,-34828.9,-3084.39,-0,34965.2,5311.98
step02_gravity_refstate-crust.xmf,750,-6.95201e-07,2.62881e-07,0,1.03105e-09,-66078.3,-353.846,-18387.5,70.7301,-0.00241978,0.13301,-0,0.133032,-36571.8,0,-0,36571.8,70.7301
step02_gravity_refstate-crust.xmf,751,3.089e-08,1.63972e-06,0,9.76004e-07,-5.53218e+08,-5.53107e+08,-5.5322e+08,66953.9,-0.00758512,0.131654,-0,0.131872,-16025.1,-20143.1,-0,25740,66953.9
step02_gravity_refstate-crust.xmf,752,-1.84855e-08,1.58109e-06,0,9.00121e-07,-5.11184e+08,-5.11074e+08,-5.11183e+08,61748.3,-0.00704749,0.132082,-0,0.13227,-17377.8,-18612.5,-0,25464,61748.3
step02_gravity_refstate-crust.xmf,753,-1.03328e-06,4.18841e-06,0,2.57136e-06,-1.07276e+09,-1.0724e+09,-1.07269e+09,176395,-0.017574,0.0906344,-0,0.0923224,-12950.9,-39057.1,-0,41148.3,176395
step02_gravity_refstate-crust.xmf,754,6.80998e-08,1.85672e-06,0,1.16425e-06,-6.50019e+08,-6.49896e+08,-6.50024e+08,79867.9,-0.00904669,0.12775,-0,0.12807,-14678.8,-23667.7,-0,27850.1,79867.9
step02_gravity_refstate-crust.xmf,755,-1.49928e-07,2.68181e-06,0,1.86103e-06,-8.84681e+08,-8.84486e+08,-8.8467e+08,127667,-0.0138436,0.111646,-0,0.112501,-13408.3,-32211.2,-0,34890.5,127667
step02_gravity_refstate-crust.xmf,756,-4.26783e-07,3.22253e-06,0,2.32376e-06,-9.86084e+08,-9.85834e+08,-9.86055e+08,159410,-0.0163002,0.103364,-0,0.104641,-12691.1,-35902.6,-0,38079.7,159410
step02_gravity_refstate-crust.xmf,757,-7.03682e-07,3.67433e-06,0,2.33753e-06,-1.01802e+09,-1.01772e+09,-1.01797e+09,160354,-0.0165735,0.096901,-0,0.0983081,-13286,-37064.9,-0,39374.1,160354
step02_gravity_refstate-crust.xmf,758,-9.88313e-08,1.15393e-06,0,6.29289e-07,-3.44413e+08,-3.44327e+08,-3.44406e+08,43169.2,-0.00549821,0.135402,-0,0.135514,-21264.5,-12540.1,-0,24686.6,43169.2
step02_gravity_refstate-crust.xmf,759,-8.11308e-08,1.33434e-06,0,7.25531e-07,-4.06234e+08,-4.06137e+08,-4.06228e+08,49771.5,-0.00591725,0.134029,-0,0.134159,-20075.8,-14791.1,-0,24936.2,49771.5
step02_gravity_refstate-crust.xmf,760,-5.90533e-08,1.48918e-06,0,8.19396e-07,-4.64358e+08,-4.64252e+08,-4.64354e+08,56210.5,-0.00648593,0.132712,-0,0.13287,-18791.5,-16907.5,-0,25278.1,56210.5
step02_gravity_refstate-crust.xmf,761,-2.86924e-07,7.75632e-07,0,3.10902e-07,-1.99552e+08,-1.99479e+08,-1.99532e+08,21327.9,-0.00436671,0.133453,-0,0.133525,-28481.2,-7264.93,-0,29393.2,21327.9
step02_gravity_refstate-crust.xmf,762,-4.10342e-07,6.02486e-07,0,1.51892e-07,-1.34726e+08,-1.34657e+08,-1.34698e+08,10419.8,-0.00339386,0.132399,-0,0.132443,-32606.6,-4904.11,-0,32973.3,10419.8
step02_gravity_refstate-crust.xmf,763,-5.74438e-07,4.22077e-07,0,2.70615e-08,-6.34635e+07,-6.33951e+07,-6.34241e+07,1856.42,-0.00133563,0.132009,-0,0.132016,-37694.2,-2308.78,-0,37764.8,1856.42
step02_gravity_refstate-crust.xmf,764,-7.01855e-07,2.6442e-07,0,-3.10358e-09,-66752.2,-465.752,-18605,-212.905,-2.76534e-19,0.13262,-0,0.13262,-40000,0,-0,40000,212.905
step02_gravity_refstate-crust.xmf,765,-9.58861e-07,4.10803e-06,0,2.29018e-06,-1.04654e+09,-1.04619e+09,-1.04648e+09,157106,-0.0164728,0.0905452,-0,0.0920314,-13827.4,-38102.9,-0,40534.3,157106
step02_gravity_refstate-crust.xmf,766,3.63513e-08,2.28067e-06,0,1.62586e-06,-8.13045e+08,-8.12891e+08,-8.13048e+08,111534,-0.0122325,0.118756,-0,0.119384,-13179.6,-29603.4,-0,32404.7,111534
step02_gravity_refstate-crust.xmf,767,-3.66834e-08,1.96441e-06,0,1.123e-06,-6.38298e+08,-6.38161e+08,-6.38296e+08,77037.9,-0.00887339,0.125625,-0,0.125938,-16294.1,-23240.8,-0,28383.6,77037.9
step02_gravity_refstate-crust.xmf,768,-3.31262e-08,2.08026e-06,0,1.22666e-06,-6.84741e+08,-6.84596e+08,-6.84738e+08,84148.9,-0.00967602,0.123427,-0,0.123805,-15641.6,-24931.8,-0,29432.2,84148.9
step02_gravity_refstate-crust.xmf,769,-1.57671e-08,2.16656e-06,0,1.34545e-06,-7.29446e+08,-7.29296e+08,-7.29444e+08,92298.1,-0.0105138,0.121656,-0,0.12211,-14819.1,-26559.5,-0,30414,92298.1
step02_gravity_refstate-crust.xmf,770,7.96109e-09,2.23224e-06,0,1.47797e-06,-7.7216e+08,-7.72008e+08,-7.72161e+08,101389,-0.0113668,0.12011,-0,0.120647,-13986.9,-28114.8,-0,31401.8,101389
step02_gravity_refstate-crust.xmf,771,-1.43409e-07,2.6197e-06,0,1.69678e-06,-8.49086e+08,-8.48896e+08,-8.49076e+08,116399,-0.0129794,0.113128,-0,0.11387,-14069.4,-30915.3,-0,33966.2,116399
step02_gravity_refstate-crust.xmf,772,-3.55071e-07,3.0417e-06,0,1.90358e-06,-9.1794e+08,-9.17707e+08,-9.17915e+08,130586,-0.0143512,0.105789,-0,0.106758,-14158.8,-33421.8,-0,36297.2,130586
step02_gravity_refstate-crust.xmf,773,-3.93739e-07,3.13907e-06,0,2.1028e-06,-9.53281e+08,-9.53039e+08,-9.53254e+08,144252,-0.0153119,0.104311,-0,0.105429,-13433.7,-34708.4,-0,37217.5,144252
step02_gravity_refstate-crust.xmf,774,-1.19368e-07,9.96612e-07,0,5.42542e-07,-2.91398e+08,-2.91321e+08,-2.9139e+08,37218.4,-0.00528723,0.136195,-0,0.136298,-22410.9,-10609.7,-0,24795.5,37218.4
step02_gravity_refstate-crust.xmf,775,-1.86395e-07,9.90529e-07,0,4.75096e-07,-2.75174e+08,-2.75093e+08,-2.75161e+08,32591.6,-0.00491592,0.1342,-0,0.13429,-24895,-10018.8,-0,26835.3,32591.6
step02_gravity_refstate-crust.xmf,776,-2.49523e-07,1.02135e-06,0,4.0962e-07,-2.71863e+08,-2.71776e+08,-2.71846e+08,28100,-0.00435411,0.131927,-0,0.131999,-27463.5,-9898.02,-0,29192.7,28100
step02_gravity_refstate-crust.xmf,777,-3.50884e-07,7.98202e-07,0,2.35792e-07,-1.96786e+08,-1.96707e+08,-1.96762e+08,16175.3,-0.00342017,0.131439,-0,0.131483,-31494.1,-7164,-0,32298.7,16175.3
step02_gravity_refstate-crust.xmf,778,-4.05896e-07,7.81313e-07,0,1.46202e-07,-1.85431e+08,-1.85349e+08,-1.85403e+08,10029.5,-0.0022797,0.130196,-0,0.130215,-34642.3,-6750.35,-0,35293.9,10029.5
step02_gravity_refstate-crust.xmf,779,-4.70434e-07,6.33398e-07,0,5.69112e-08,-1.37076e+08,-1.37e+08,-1.37044e+08,3904.11,-0.00121816,0.130638,-0,0.130644,-37444.6,-4989.46,-0,37775.5,3904.11
step02_gravity_refstate-crust.xmf,780,-5.34704e-07,4.95756e-07,0,-1.4337e-09,-9.05249e+07,-9.04542e+07,-9.04882e+07,-98.3515,-2.46192e-19,0.131366,-0,0.131366,-40000,-3294.25,-0,40135.4,98.3515
step02_gravity_refstate-crust.xmf,781,-3.59182e-08,1.84591e-06,0,1.03415e-06,-5.94084e+08,-5.93955e+08,-5.94081e+08,70942.7,-0.00817414,0.127786,-0,0.128047,-16816.9,-21630.9,-0,27399,70942.7
step02_gravity_refstate-crust.xmf,782,-8.76623e-08,1.82644e-06,0,9.69828e-07,-5.65779e+08,-5.65648e+08,-5.65773e+08,66530.2,-0.00769692,0.127496,-0,0.127728,-18167.3,-20600.2,-0,27466.7,66530.2
step02_gravity_refstate-crust.xmf,783,-1.22929e-07,1.74557e-06,0,8.79971e-07,-5.23397e+08,-5.23269e+08,-5.23388e+08,60366,-0.00703187,0.128088,-0,0.128281,-19603.8,-19057,-0,27340.1,60366
step02_gravity_refstate-crust.xmf,784,-1.17557e-06,4.47421e-06,0,2.28261e-06,-1.07541e+09,-1.07503e+09,-1.07533e+09,156587,-0.0164488,0.0853543,-0,0.0869248,-13983.2,-39153.7,-0,41575.7,156587
step02_gravity_refstate-crust.xmf,785,-3.37192e-07,2.96681e-06,0,1.73584e-06,-8.84994e+08,-8.84767e+08,-8.84971e+08,119079,-0.0134801,0.106993,-0,0.107839,-14929.5,-32222.3,-0,35512.9,119079
step02_gravity_refstate-crust.xmf,786,-6.52764e-07,3.59044e-06,0,2.10303e-06,-9.88529e+08,-9.88238e+08,-9.88485e+08,144268,-0.0155779,0.0974801,-0,0.098717,-14109.5,-35991.3,-0,38658.2,144268
step02_gravity_refstate-crust.xmf,787,-9.08689e-07,4.04726e-06,0,2.06253e-06,-1.02443e+09,-1.02409e+09,-1.02437e+09,141489,-0.0155267,0.0903269,-0,0.0916517,-14669.8,-37298,-0,40079.2,141489
step02_gravity_refstate-crust.xmf,788,-1.72449e-07,1.21063e-06,0,5.78064e-07,-3.42201e+08,-3.42106e+08,-3.42189e+08,39655.2,-0.00515187,0.132682,-0,0.132782,-23765.3,-12459.3,-0,26833.3,39655.2
step02_gravity_refstate-crust.xmf,789,-1.64619e-07,1.42156e-06,0,6.75012e-07,-4.06561e+08,-4.06452e+08,-4.0655e+08,46305.8,-0.00560612,0.130886,-0,0.131006,-22625.5,-14802.8,-0,27037.7,46305.8
step02_gravity_refstate-crust.xmf,790,-1.68627e-07,1.67149e-06,0,7.83671e-07,-4.81095e+08,-4.80969e+08,-4.81083e+08,53759.8,-0.00633057,0.128062,-0,0.128219,-21526.5,-17516.6,-0,27752.9,53759.8
step02_gravity_refstate-crust.xmf,791,-3.09379e-07,1.02695e-06,0,3.2813e-07,-2.64174e+08,-2.64082e+08,-2.64153e+08,22509.7,-0.00359796,0.130043,-0,0.130093,-30208,-9617.86,-0,31702.1,22509.7
step02_gravity_refstate-crust.xmf,792,-1.17943e-06,4.53225e-06,0,2.00224e-06,-1.06365e+09,-1.06325e+09,-1.06356e+09,137353,-0.015221,0.0827365,-0,0.0841249,-15039.1,-38725.3,-0,41543,137353
step02_gravity_refstate-crust.xmf,793,-1.57379e-07,2.55568e-06,0,1.54614e-06,-8.1162e+08,-8.11434e+08,-8.11609e+08,106065,-0.0120955,0.114287,-0,0.114925,-14954.1,-29551.2,-0,33119.4,106065
step02_gravity_refstate-crust.xmf,794,-1.50595e-07,2.07582e-06,0,1.04682e-06,-6.24061e+08,-6.23908e+08,-6.24051e+08,71812,-0.00845387,0.122853,-0,0.123144,-18472.7,-22722.2,-0,29283.7,71812
step02_gravity_refstate-crust.xmf,795,-1.58057e-07,2.23701e-06,0,1.15838e-06,-6.78245e+08,-6.7808e+08,-6.78234e+08,79464.8,-0.00937941,0.120144,-0,0.12051,-17608.4,-24695,-0,30329.8,79464.8
step02_gravity_refstate-crust.xmf,796,-1.60307e-07,2.36458e-06,0,1.27679e-06,-7.26359e+08,-7.26186e+08,-7.26348e+08,87588.1,-0.0102924,0.117912,-0,0.11836,-16700.2,-26446.8,-0,31278.3,87588.1
step02_gravity_refstate-crust.xmf,797,-1.63945e-07,2.47728e-06,0,1.40461e-06,-7.71133e+08,-7.70952e+08,-7.71122e+08,96355.9,-0.0112007,0.115819,-0,0.116359,-15853.8,-28077,-0,32243.8,96355.9
step02_gravity_refstate-crust.xmf,798,-3.28758e-07,2.9008e-06,0,1.57059e-06,-8.49574e+08,-8.49353e+08,-8.49552e+08,107743,-0.0125693,0.108184,-0,0.108912,-15846.9,-30932.8,-0,34755.7,107743
step02_gravity_refstate-crust.xmf,799,-5.18616e-07,3.31069e-06,0,1.73036e-06,-9.18234e+08,-9.17971e+08,-9.18198e+08,118703,-0.0137012,0.100989,-0,0.101915,-15658.7,-33432.2,-0,36917.6,118703
step02_gravity_refstate-crust.xmf,800,-5.81925e-07,3.45017e-06,0,1.90512e-06,-9.54071e+08,-9.53795e+08,-9.54031e+08,130691,-0.0146144,0.0990709,-0,0.100143,-14890.6,-34736.9,-0,37794,130691
step02_gravity_refstate-crust.xmf,801,-2.33041e-07,1.24457e-06,0,5.03783e-07,-3.36475e+08,-3.36374e+08,-3.36459e+08,34559.5,-0.00461949,0.130315,-0,0.130397,-26316.8,-12250.7,-0,29028.5,34559.5
step02_gravity_refstate-crust.xmf,802,-2.86863e-07,1.27379e-06,0,4.18547e-07,-3.32846e+08,-3.32739e+08,-3.32826e+08,28712.3,-0.00391772,0.128111,-0,0.12817,-28969,-12118.4,-0,31401.6,28712.3
step02_gravity_refstate-crust.xmf,803,-3.53174e-07,1.04583e-06,0,2.38253e-07,-2.62187e+08,-2.62091e+08,-2.62163e+08,16344.1,-0.00265764,0.128364,-0,0.128392,-33053.4,-9545.36,-0,34404.1,16344.1
step02_gravity_refstate-crust.xmf,804,-4.07248e-07,9.15541e-07,0,7.81048e-08,-2.20576e+08,-2.20486e+08,-2.20548e+08,5357.99,-0.00102971,0.128272,-0,0.128276,-37502.1,-8030.08,-0,38352.2,5357.99
step02_gravity_refstate-crust.xmf,805,-4.39876e-07,7.69569e-07,0,-8.58013e-10,-1.77705e+08,-1.77622e+08,-1.77674e+08,-58.8597,-2.04437e-19,0.129357,-0,0.129357,-40000,-6468.93,-0,40519.7,58.8597
step02_gravity_refstate-crust.xmf,806,-1.9699e-07,1.8771e-06,0,8.43247e-07,-5.34431e+08,-5.34289e+08,-5.34418e+08,57846.7,-0.00686433,0.124822,-0,0.125011,-21376.6,-19458.6,-0,28906.7,57846.7
step02_gravity_refstate-crust.xmf,807,-1.98715e-07,2.02107e-06,0,9.31954e-07,-5.81859e+08,-5.81707e+08,-5.81846e+08,63932,-0.00757873,0.122909,-0,0.123142,-20388,-21185.5,-0,29402.3,63932
step02_gravity_refstate-crust.xmf,808,-4.8614e-07,3.21261e-06,0,1.57457e-06,-8.85783e+08,-8.85529e+08,-8.85749e+08,108016,-0.0128314,0.102273,-0,0.103074,-16536.4,-32250.8,-0,36243.2,108016
step02_gravity_refstate-crust.xmf,809,-8.34974e-07,3.93796e-06,0,1.82463e-06,-9.9392e+08,-9.93593e+08,-9.93863e+08,125170,-0.01442,0.0908122,-0,0.0919499,-15731,-36187.4,-0,39458.7,125170
step02_gravity_refstate-crust.xmf,810,-1.04413e-06,4.34322e-06,0,1.79151e-06,-1.03439e+09,-1.03402e+09,-1.03432e+09,122898,-0.0142946,0.0839511,-0,0.0851594,-15947.5,-37660.4,-0,40897.8,122898
step02_gravity_refstate-crust.xmf,811,-2.31531e-07,1.47336e-06,0,6.00346e-07,-4.02162e+08,-4.02045e+08,-4.02146e+08,41183.7,-0.0050794,0.128232,-0,0.128333,-25170.5,-14642.4,-0,29119.6,41183.7
step02_gravity_refstate-crust.xmf,812,-2.37395e-07,1.70385e-06,0,6.93112e-07,-4.67185e+08,-4.67052e+08,-4.67169e+08,47547.5,-0.00570069,0.125695,-0,0.125824,-24087.4,-17010,-0,29488,47547.5
step02_gravity_refstate-crust.xmf,813,-3.33951e-07,1.30102e-06,0,3.24614e-07,-3.31698e+08,-3.31586e+08,-3.31675e+08,22268.5,-0.00306258,0.12617,-0,0.126207,-31708.5,-12076.5,-0,33930.3,22268.5
step02_gravity_refstate-crust.xmf,814,-3.78304e-07,1.05962e-06,0,1.53955e-07,-2.61429e+08,-2.61331e+08,-2.61403e+08,10561.3,-0.00176157,0.127333,-0,0.127345,-35504,-9517.71,-0,36757.6,10561.3
step02_gravity_refstate-crust.xmf,815,-2.51435e-07,1.91839e-06,0,7.77552e-07,-5.26888e+08,-5.26739e+08,-5.26871e+08,53340.1,-0.00638624,0.122883,-0,0.123049,-23185.1,-19183.8,-0,30092.7,53340.1
step02_gravity_refstate-crust.xmf,816,-3.21025e-07,2.80751e-06,0,1.42764e-06,-8.12317e+08,-8.12102e+08,-8.12295e+08,97935.9,-0.0116574,0.109538,-0,0.110157,-16832.6,-29576.2,-0,34030.7,97935.9
step02_gravity_refstate-crust.xmf,817,-2.59927e-07,2.3785e-06,0,1.07545e-06,-6.76097e+08,-6.75916e+08,-6.7608e+08,73775.8,-0.00894384,0.116756,-0,0.117098,-19547.7,-24616.6,-0,31433.9,73775.8
step02_gravity_refstate-crust.xmf,818,-2.7667e-07,2.53145e-06,0,1.18289e-06,-7.23996e+08,-7.23803e+08,-7.23977e+08,81146,-0.00983898,0.114237,-0,0.11466,-18609.4,-26360.6,-0,32267.5,81146
step02_gravity_refstate-crust.xmf,819,-2.97892e-07,2.67491e-06,0,1.29756e-06,-7.69018e+08,-7.68814e+08,-7.68997e+08,89012.3,-0.010733,0.1118,-0,0.112314,-17728.4,-27999.8,-0,33140.4,89012.3
step02_gravity_refstate-crust.xmf,820,-4.84294e-07,3.16705e-06,0,1.40904e-06,-8.54404e+08,-8.54153e+08,-8.5437e+08,96660.4,-0.011848,0.102622,-0,0.103304,-17784,-31108.4,-0,35832.9,96660.4
step02_gravity_refstate-crust.xmf,821,-6.3127e-07,3.51822e-06,0,1.5417e-06,-9.18332e+08,-9.18047e+08,-9.18288e+08,105761,-0.0128374,0.0965191,-0,0.097369,-17163.7,-33435.7,-0,37583.7,105761
step02_gravity_refstate-crust.xmf,822,-7.08846e-07,3.68626e-06,0,1.67664e-06,-9.52924e+08,-9.52622e+08,-9.52875e+08,115017,-0.0136189,0.0942245,-0,0.0952036,-16415,-34695,-0,38382.2,115017
step02_gravity_refstate-crust.xmf,823,-1.23685e-06,4.74254e-06,0,1.64481e-06,-1.0674e+09,-1.06699e+09,-1.06732e+09,112834,-0.0135054,0.0767187,-0,0.0778983,-16436.3,-38862.2,-0,42195,112834
step02_gravity_refstate-crust.xmf,824,-2.83331e-07,1.5123e-06,0,5.08965e-07,-3.98028e+08,-3.97905e+08,-3.98009e+08,34915,-0.00439671,0.125871,-0,0.125948,-27746.7,-14491.8,-0,31303.2,34915
step02_gravity_refstate-crust.xmf,825,-3.25762e-07,1.53975e-06,0,4.08951e-07,-3.94833e+08,-3.94705e+08,-3.94811e+08,28054.1,-0.00358625,0.123846,-0,0.123898,-30355.6,-14375.4,-0,33587.4,28054.1
step02_gravity_refstate-crust.xmf,826,-3.66856e-07,1.34378e-06,0,2.11457e-07,-3.36587e+08,-3.3647e+08,-3.36562e+08,14505.9,-0.00199473,0.124328,-0,0.124344,-34757,-12254.4,-0,36854.1,14505.9
step02_gravity_refstate-crust.xmf,827,-3.84294e-07,1.22222e-06,0,9.33653e-08,-3.02368e+08,-3.02258e+08,-3.02342e+08,6404.86,-0.000943983,0.125078,-0,0.125082,-37565.3,-11008.4,-0,39145,6404.86
step02_gravity_refstate-crust.xmf,828,-3.96659e-07,1.07018e-06,0,-7.56101e-10,-2.61808e+08,-2.61708e+08,-2.61781e+08,-51.8686,-1.8464e-19,0.126541,-0,0.126541,-40000,-9531.44,-0,41119.9,51.8686
step02_gravity_refstate-crust.xmf,829,-2.54901e-07,2.05989e-06,0,8.55904e-07,-5.70251e+08,-5.70092e+08,-5.70233e+08,58715,-0.00705033,0.12114,-0,0.121345,-22163.4,-20762.7,-0,30369.5,58715
step02_gravity_refstate-crust.xmf,830,-2.52171e-07,2.25393e-06,0,9.85085e-07,-6.34823e+08,-6.34651e+08,-6.34805e+08,67576.8,-0.00818852,0.11864,-0,0.118922,-20480.4,-23113.8,-0,30882,67576.8
step02_gravity_refstate-crust.xmf,831,-5.80752e-07,3.39782e-06,0,1.43503e-06,-8.90096e+08,-8.89823e+08,-8.90056e+08,98443.3,-0.0121837,0.0982237,-0,0.0989765,-17838.9,-32407.8,-0,36993.1,98443.3
step02_gravity_refstate-crust.xmf,832,-1.11469e-06,4.5313e-06,0,1.56543e-06,-1.04175e+09,-1.04137e+09,-1.04168e+09,107388,-0.0131575,0.0792059,-0,0.0802913,-16960.5,-37928.6,-0,41548,107388
step02_gravity_refstate-crust.xmf,833,-9.88187e-07,4.26184e-06,0,1.62401e-06,-1.01544e+09,-1.01508e+09,-1.01538e+09,111407,-0.0134734,0.0839506,-0,0.0850249,-16800.1,-36970.8,-0,40609,111407
step02_gravity_refstate-crust.xmf,834,-2.93421e-07,1.75024e-06,0,5.9902e-07,-4.62283e+08,-4.62143e+08,-4.62263e+08,41092.8,-0.00500626,0.123196,-0,0.123298,-26589.5,-16831.4,-0,31469,41092.8
step02_gravity_refstate-crust.xmf,835,-3.09459e-07,1.9837e-06,0,6.84052e-07,-5.24193e+08,-5.24036e+08,-5.24172e+08,46926,-0.00571294,0.120183,-0,0.120319,-25510.1,-19085.6,-0,31859.5,46926
step02_gravity_refstate-crust.xmf,836,-3.61704e-07,1.58474e-06,0,3.08798e-07,-3.99181e+08,-3.99047e+08,-3.99156e+08,21183.6,-0.00271327,0.121897,-0,0.121927,-32912,-14533.6,-0,35978.1,21183.6
step02_gravity_refstate-crust.xmf,837,-3.31357e-07,2.2127e-06,0,7.69475e-07,-5.84172e+08,-5.83997e+08,-5.84149e+08,52786,-0.00650795,0.116922,-0,0.117103,-24446.5,-21269.4,-0,32404.1,52786
step02_gravity_refstate-crust.xmf,838,-3.11375e-07,2.29646e-06,0,8.88728e-07,-6.21555e+08,-6.21376e+08,-6.21534e+08,60966.8,-0.00749214,0.116676,-0,0.116917,-22432.9,-22630.6,-0,31865.1,60966.8
step02_gravity_refstate-crust.xmf,839,-4.3827e-07,2.9991e-06,0,1.27886e-06,-8.10965e+08,-8.10729e+08,-8.10935e+08,87729.9,-0.0109127,0.105213,-0,0.105777,-18746.9,-29526.8,-0,34975.4,87729.9
step02_gravity_refstate-crust.xmf,840,-3.38006e-07,2.49323e-06,0,9.75677e-07,-6.74193e+08,-6.73999e+08,-6.7417e+08,66931.5,-0.00832758,0.113507,-0,0.113812,-21531.4,-24547.2,-0,32652.2,66931.5
step02_gravity_refstate-crust.xmf,841,-3.66123e-07,2.66837e-06,0,1.06963e-06,-7.22166e+08,-7.21958e+08,-7.22141e+08,73376.7,-0.00918304,0.110658,-0,0.111038,-20578.6,-26293.8,-0,33389.3,73376.7
step02_gravity_refstate-crust.xmf,842,-3.99976e-07,2.83889e-06,0,1.17122e-06,-7.68274e+08,-7.68052e+08,-7.68246e+08,80345.7,-0.0100543,0.107833,-0,0.1083,-19646,-27972.6,-0,34182.3,80345.7
step02_gravity_refstate-crust.xmf,843,-6.20046e-07,3.47246e-06,0,1.29307e-06,-8.83489e+08,-8.83208e+08,-8.83446e+08,88704.8,-0.0113688,0.0958347,-0,0.0965066,-19113.6,-32167.2,-0,37417.3,88704.8
step02_gravity_refstate-crust.xmf,844,-6.9367e-07,3.6555e-06,0,1.356e-06,-9.16673e+08,-9.16375e+08,-9.16626e+08,93021.5,-0.0118573,0.0927551,-0,0.0935099,-18626.9,-33375.3,-0,38221.3,93021.5
step02_gravity_refstate-crust.xmf,845,-7.7958e-07,3.84762e-06,0,1.45028e-06,-9.5138e+08,-9.51063e+08,-9.51326e+08,99489.1,-0.0124734,0.0898756,-0,0.090737,-17943.5,-34638.7,-0,39010.4,99489.1
step02_gravity_refstate-crust.xmf,846,-8.87207e-07,4.06684e-06,0,1.55676e-06,-9.87259e+08,-9.86919e+08,-9.87198e+08,106794,-0.0130947,0.0867838,-0,0.0877662,-17246.7,-35944.9,-0,39868.3,106794
step02_gravity_refstate-crust.xmf,847,-1.21381e-06,4.81397e-06,0,1.36573e-06,-1.06605e+09,-1.06563e+09,-1.06596e+09,93689.4,-0.0120221,0.0727594,-0,0.0737459,-17663.5,-38813,-0,42643.3,93689.4
step02_gravity_refstate-crust.xmf,848,-1.05247e-06,4.45177e-06,0,1.39351e-06,-1.02592e+09,-1.02554e+09,-1.02584e+09,95594.7,-0.0122413,0.0786407,-0,0.0795878,-17943,-37352.2,-0,41438.3,95594.7
step02_gravity_refstate-crust.xmf,849,-3.34571e-07,1.78929e-06,0,4.94424e-07,-4.59515e+08,-4.5937e+08,-4.59492e+08,33917.5,-0.00420078,0.120948,-0,0.121021,-29105,-16730.5,-0,33571,33917.5
step02_gravity_refstate-crust.xmf,850,-3.66747e-07,1.82405e-06,0,3.87159e-07,-4.59514e+08,-4.59364e+08,-4.59489e+08,26559.1,-0.00332658,0.118992,-0,0.119039,-31585.4,-16730.4,-0,35742.8,26559.1
step02_gravity_refstate-crust.xmf,851,-3.8637e-07,1.69878e-06,0,2.10039e-07,-4.22472e+08,-4.22329e+08,-4.22445e+08,14408.6,-0.00183435,0.119333,-0,0.119347,-35349.8,-15381.6,-0,38551.3,14408.6
step02_gravity_refstate-crust.xmf,852,-3.86983e-07,1.5357e-06,0,1.058e-07,-3.80923e+08,-3.80791e+08,-3.80896e+08,7257.91,-0.000949214,0.121134,-0,0.121138,-37563.3,-13868.7,-0,40041.8,7257.91
step02_gravity_refstate-crust.xmf,853,-3.87222e-07,1.38575e-06,0,-6.01405e-10,-3.43033e+08,-3.42911e+08,-3.43006e+08,-41.2564,-1.83801e-19,0.12291,-0,0.12291,-40000,-12489,-0,41904.4,41.2564
step02_gravity_refstate-crust.xmf,854,-5.62042e-07,3.29972e-06,0,1.21647e-06,-8.48064e+08,-8.47799e+08,-8.48025e+08,83449.6,-0.0107522,0.0986788,-0,0.0992629,-19767,-30877.4,-0,36662.7,83449.6
step02_gravity_refstate-crust.xmf,855,-3.53808e-07,2.03605e-06,0,5.78312e-07,-5.22615e+08,-5.22451e+08,-5.22591e+08,39672.2,-0.00490485,0.117673,-0,0.117775,-27917.5,-19028.1,-0,33785.4,39672.2
step02_gravity_refstate-crust.xmf,856,-3.7843e-07,2.27e-06,0,6.49243e-07,-5.81e+08,-5.80818e+08,-5.80974e+08,44538,-0.00559428,0.114124,-0,0.114261,-26953.3,-21153.9,-0,34263.2,44538
step02_gravity_refstate-crust.xmf,857,-3.89425e-07,1.87097e-06,0,2.92443e-07,-4.65656e+08,-4.65501e+08,-4.65629e+08,20061.6,-0.00253291,0.11727,-0,0.117298,-33720.9,-16954,-0,37743.1,20061.6
step02_gravity_refstate-crust.xmf,858,-3.74928e-07,2.43498e-06,0,7.95261e-07,-6.33722e+08,-6.33529e+08,-6.33696e+08,54554.9,-0.00690307,0.112707,-0,0.112918,-24465.1,-23073.5,-0,33629.3,54554.9
step02_gravity_refstate-crust.xmf,859,-3.94523e-07,2.57786e-06,0,8.64572e-07,-6.71544e+08,-6.7134e+08,-6.71517e+08,59309.6,-0.00756545,0.110577,-0,0.110835,-23544.4,-24450.6,-0,33943.7,59309.6
step02_gravity_refstate-crust.xmf,860,-5.21096e-07,3.15551e-06,0,1.12051e-06,-8.12634e+08,-8.12381e+08,-8.12598e+08,76866.9,-0.00998764,0.100834,-0,0.101327,-20709.4,-29587.5,-0,36115.1,76866.9
step02_gravity_refstate-crust.xmf,861,-4.29115e-07,2.77291e-06,0,9.43012e-07,-7.20199e+08,-7.19979e+08,-7.2017e+08,64690.6,-0.00835471,0.107306,-0,0.107631,-22613.3,-26222.1,-0,34626,64690.6
step02_gravity_refstate-crust.xmf,862,-4.73094e-07,2.97366e-06,0,1.02851e-06,-7.68886e+08,-7.68649e+08,-7.68853e+08,70555.7,-0.00917915,0.103871,-0,0.104276,-21663.6,-27994.7,-0,35398,70555.7
step02_gravity_refstate-crust.xmf,863,-6.51509e-07,3.54471e-06,0,1.14264e-06,-8.79854e+08,-8.79566e+08,-8.7981e+08,78385.3,-0.0104506,0.0930166,-0,0.0936018,-20534.8,-32034.8,-0,38051.4,78385.3
step02_gravity_refstate-crust.xmf,864,-7.20282e-07,3.73909e-06,0,1.17534e-06,-9.13169e+08,-9.12863e+08,-9.13119e+08,80628.1,-0.010794,0.0895465,-0,0.0901947,-20119.5,-33247.7,-0,38861.3,80628.1
step02_gravity_refstate-crust.xmf,865,-8.08915e-07,3.9555e-06,0,1.23469e-06,-9.50061e+08,-9.49734e+08,-9.50005e+08,84699.7,-0.0112541,0.0859484,-0,0.0866821,-19478.4,-34590.8,-0,39698,84699.7
step02_gravity_refstate-crust.xmf,866,-9.16487e-07,4.191e-06,0,1.30935e-06,-9.87302e+08,-9.86952e+08,-9.87239e+08,89821.6,-0.0117543,0.0824101,-0,0.0832441,-18733.2,-35946.5,-0,40535,89821.6
step02_gravity_refstate-crust.xmf,867,-1.15201e-06,4.82013e-06,0,1.11221e-06,-1.06244e+09,-1.06203e+09,-1.06236e+09,76297.3,-0.0105335,0.069424,-0,0.0702185,-18980.3,-38682,-0,43087.7,76297.3
step02_gravity_refstate-crust.xmf,868,-3.94533e-07,2.4268e-06,0,7.17579e-07,-6.2177e+08,-6.21577e+08,-6.21743e+08,49225.9,-0.00626049,0.111877,-0,0.112052,-25908,-22638.3,-0,34405.2,49225.9
step02_gravity_refstate-crust.xmf,869,-3.84437e-07,2.0707e-06,0,4.60477e-07,-5.20494e+08,-5.20325e+08,-5.20467e+08,31588.7,-0.0039635,0.115536,-0,0.115604,-30437,-18950.7,-0,35854.4,31588.7
step02_gravity_refstate-crust.xmf,870,-4.05483e-07,2.08926e-06,0,3.39259e-07,-5.18093e+08,-5.17922e+08,-5.18065e+08,23273.1,-0.00295077,0.113914,-0,0.113952,-32975.4,-18863.3,-0,37989.5,23273.1
step02_gravity_refstate-crust.xmf,871,-4.15449e-07,2.05867e-06,0,2.20705e-07,-5.06986e+08,-5.06816e+08,-5.06957e+08,15140.4,-0.00192286,0.113524,-0,0.11354,-35424.9,-18458.8,-0,39945.6,15140.4
step02_gravity_refstate-crust.xmf,872,-4.06562e-07,1.86933e-06,0,1.08112e-07,-4.60654e+08,-4.60498e+08,-4.60627e+08,7416.47,-0.000938009,0.116164,-0,0.116168,-37700.5,-16771.8,-0,41262.8,7416.47
step02_gravity_refstate-crust.xmf,873,-3.98453e-07,1.70774e-06,0,-4.66219e-10,-4.2157e+08,-4.21426e+08,-4.21543e+08,-31.9826,-1.80638e-19,0.118487,-0,0.118487,-40000,-15348.7,-0,42843.7,31.9826
step02_gravity_refstate-crust.xmf,874,-6.22824e-07,3.46011e-06,0,1.04489e-06,-8.57208e+08,-8.56928e+08,-8.57165e+08,71679.3,-0.00971819,0.0936885,-0,0.0941911,-21588.2,-31210.3,-0,37949.1,71679.3
step02_gravity_refstate-crust.xmf,875,-1.01976e-06,4.50507e-06,0,1.11796e-06,-1.02396e+09,-1.02358e+09,-1.02389e+09,76691.9,-0.0106135,0.0744297,-0,0.0751826,-19537.3,-37281.2,-0,42090.3,76691.9
step02_gravity_refstate-crust.xmf,876,-4.30126e-07,2.62851e-06,0,7.42265e-07,-6.66701e+08,-6.66491e+08,-6.66671e+08,50919.3,-0.00664375,0.108019,-0,0.108223,-25692.2,-24274.2,-0,35345.8,50919.3
step02_gravity_refstate-crust.xmf,877,-4.09186e-07,2.32043e-06,0,5.35029e-07,-5.81586e+08,-5.81399e+08,-5.81558e+08,36703,-0.00469118,0.111692,-0,0.111791,-29253.9,-21175.2,-0,36113.4,36703
step02_gravity_refstate-crust.xmf,878,-4.37752e-07,2.574e-06,0,6.24845e-07,-6.4369e+08,-6.43483e+08,-6.4366e+08,42864.4,-0.0056203,0.107699,-0,0.107846,-27756.1,-23436.4,-0,36327.2,42864.4
step02_gravity_refstate-crust.xmf,879,-4.67004e-07,2.84068e-06,0,8.09913e-07,-7.16934e+08,-7.16707e+08,-7.16902e+08,55560,-0.00738988,0.104373,-0,0.104634,-24714.1,-26103.2,-0,35946.7,55560
step02_gravity_refstate-crust.xmf,880,-5.7978e-07,3.3275e-06,0,9.45511e-07,-8.23793e+08,-8.23525e+08,-8.23753e+08,64862.1,-0.00891051,0.09556,-0,0.0959745,-22771.8,-29993.8,-0,37658.8,64862.1
step02_gravity_refstate-crust.xmf,881,-5.14756e-07,3.06772e-06,0,8.77067e-07,-7.68526e+08,-7.68281e+08,-7.68491e+08,60166.8,-0.00814231,0.100297,-0,0.100627,-23758.2,-27981.6,-0,36707.2,60166.8
step02_gravity_refstate-crust.xmf,882,-7.11948e-07,3.75426e-06,0,9.97716e-07,-9.03576e+08,-9.0327e+08,-9.03527e+08,68443.3,-0.00960524,0.0871893,-0,0.0877168,-21792.6,-32898.5,-0,39461.8,68443.3
step02_gravity_refstate-crust.xmf,883,-8.02707e-07,4.01465e-06,0,1.02834e-06,-9.48061e+08,-9.47731e+08,-9.48006e+08,70543.9,-0.00995636,0.0823924,-0,0.0829918,-21098.2,-34518.1,-0,40455.3,70543.9
step02_gravity_refstate-crust.xmf,884,-9.02486e-07,4.25783e-06,0,1.0719e-06,-9.86603e+08,-9.86249e+08,-9.86541e+08,73532.7,-0.0103115,0.0783923,-0,0.0790676,-20325.2,-35921.2,-0,41272.9,73532.7
step02_gravity_refstate-crust.xmf,885,-1.06791e-06,4.80835e-06,0,8.64253e-07,-1.06144e+09,-1.06104e+09,-1.06137e+09,59287.7,-0.00893287,0.0657826,-0,0.0663863,-20442.6,-38645.9,-0,43719.7,59287.7
step02_gravity_refstate-crust.xmf,886,-4.27855e-07,2.34586e-06,0,4.12103e-07,-5.79781e+08,-5.79591e+08,-5.79752e+08,28270.3,-0.00366121,0.109791,-0,0.109852,-31697.9,-21109.4,-0,38083.6,28270.3
step02_gravity_refstate-crust.xmf,887,-4.38178e-07,2.34906e-06,0,2.89463e-07,-5.75756e+08,-5.75565e+08,-5.75726e+08,19857.2,-0.00259107,0.108593,-0,0.108624,-34147.8,-20962.8,-0,40068.9,19857.2
step02_gravity_refstate-crust.xmf,888,-4.31326e-07,2.18518e-06,0,1.04743e-07,-5.34375e+08,-5.34195e+08,-5.34345e+08,7185.38,-0.000924051,0.110692,-0,0.110696,-37859.3,-19456.1,-0,42566,7185.38
step02_gravity_refstate-crust.xmf,889,-4.20271e-07,2.02981e-06,0,-2.90394e-10,-4.97609e+08,-4.97441e+08,-4.9758e+08,-19.921,-1.77798e-19,0.113313,-0,0.113313,-40000,-18117.4,-0,43911.7,19.921
step02_gravity_refstate-crust.xmf,890,-6.53309e-07,3.59202e-06,0,9.22349e-07,-8.71222e+08,-8.70931e+08,-8.71177e+08,63273.1,-0.0089733,0.0895771,-0,0.0900254,-22781.5,-31720.6,-0,39053.7,63273.1
step02_gravity_refstate-crust.xmf,891,-9.56181e-07,4.5215e-06,0,8.71803e-07,-1.02398e+09,-1.0236e+09,-1.02391e+09,59805.7,-0.00899663,0.0704348,-0,0.0710071,-21173.3,-37282.1,-0,42875,59805.7
step02_gravity_refstate-crust.xmf,892,-4.82807e-07,2.86069e-06,0,6.77602e-07,-7.09432e+08,-7.09202e+08,-7.09399e+08,46483.5,-0.00631773,0.102215,-0,0.10241,-26892.5,-25830,-0,37288,46483.5
step02_gravity_refstate-crust.xmf,893,-4.55255e-07,2.6093e-06,0,4.81889e-07,-6.4225e+08,-6.4204e+08,-6.42219e+08,33057.6,-0.00442833,0.105195,-0,0.105288,-30412.1,-23384,-0,38362.8,33057.6
step02_gravity_refstate-crust.xmf,894,-4.42097e-07,2.34246e-06,0,1.86667e-07,-5.71896e+08,-5.71705e+08,-5.71865e+08,12805.3,-0.00167462,0.108031,-0,0.108044,-36220.6,-20822.3,-0,41779.2,12805.3
step02_gravity_refstate-crust.xmf,895,-5.27982e-07,3.11004e-06,0,7.33335e-07,-7.65093e+08,-7.64843e+08,-7.65056e+08,50306.8,-0.00703842,0.0975418,-0,0.0977954,-25849.3,-27856.6,-0,38002.3,50306.8
step02_gravity_refstate-crust.xmf,896,-5.79709e-07,3.35001e-06,0,7.78043e-07,-8.16253e+08,-8.15983e+08,-8.16213e+08,53373.7,-0.00763944,0.0928669,-0,0.0931806,-24936.9,-29719.3,-0,38795.5,53373.7
step02_gravity_refstate-crust.xmf,897,-6.37978e-07,3.59017e-06,0,8.01155e-07,-8.6425e+08,-8.6396e+08,-8.64206e+08,54959.2,-0.00804723,0.087942,-0,0.0883094,-24228.7,-31466.9,-0,39713.9,54959.2
step02_gravity_refstate-crust.xmf,898,-7.01659e-07,3.81839e-06,0,8.19362e-07,-9.07283e+08,-9.06973e+08,-9.07235e+08,56208.2,-0.00836696,0.0833575,-0,0.0837764,-23526,-33033.6,-0,40554.8,56208.2
step02_gravity_refstate-crust.xmf,899,-7.72275e-07,4.03857e-06,0,8.42593e-07,-9.4642e+08,-9.4609e+08,-9.46367e+08,57801.9,-0.00866882,0.079213,-0,0.0796859,-22748.1,-34458.5,-0,41290,57801.9
step02_gravity_refstate-crust.xmf,900,-8.57669e-07,4.27931e-06,0,8.60301e-07,-9.85886e+08,-9.85533e+08,-9.85827e+08,59016.6,-0.00888966,0.0748497,-0,0.0753758,-21950,-35895.3,-0,42074.6,59016.6
step02_gravity_refstate-crust.xmf,901,-9.58484e-07,4.76424e-06,0,6.40522e-07,-1.06141e+09,-1.06102e+09,-1.06135e+09,43939.8,-0.00733495,0.0622898,-0,0.0627202,-22019.8,-38645.2,-0,44478.4,43939.8
step02_gravity_refstate-crust.xmf,902,-4.87556e-07,2.8703e-06,0,5.44833e-07,-7.03118e+08,-7.02888e+08,-7.03085e+08,37375.5,-0.00519411,0.100308,-0,0.100442,-29165,-25600.2,-0,38806.8,37375.5
step02_gravity_refstate-crust.xmf,903,-4.62606e-07,2.62505e-06,0,3.52829e-07,-6.40794e+08,-6.40583e+08,-6.40763e+08,24204.1,-0.00328458,0.103436,-0,0.103488,-32899,-23331,-0,40332.1,24204.1
step02_gravity_refstate-crust.xmf,904,-4.64437e-07,2.63561e-06,0,2.14932e-07,-6.40123e+08,-6.3991e+08,-6.40091e+08,14744.3,-0.00202439,0.10207,-0,0.10209,-35622.9,-23306.5,-0,42569.8,14744.3
step02_gravity_refstate-crust.xmf,905,-4.54806e-07,2.49503e-06,0,1.01741e-07,-6.06296e+08,-6.06094e+08,-6.06265e+08,6979.42,-0.000936631,0.104549,-0,0.104554,-37937.1,-22074.8,-0,43892.1,6979.42
step02_gravity_refstate-crust.xmf,906,-4.44332e-07,2.3465e-06,0,-1.36175e-10,-5.71333e+08,-5.71141e+08,-5.71302e+08,-9.34162,-1.80591e-19,0.107439,-0,0.107439,-40000,-20801.8,-0,45085.6,9.34162
step02_gravity_refstate-crust.xmf,907,-8.70063e-07,4.49816e-06,0,6.67053e-07,-1.02389e+09,-1.02352e+09,-1.02383e+09,45759.8,-0.00750762,0.0670666,-0,0.0674855,-22805.4,-37279.1,-0,43701.5,45759.8
step02_gravity_refstate-crust.xmf,908,-5.2689e-07,3.12448e-06,0,5.98105e-07,-7.61121e+08,-7.60871e+08,-7.61085e+08,41030,-0.00589347,0.0952428,-0,0.095425,-28007.1,-27712.1,-0,39400,41030
step02_gravity_refstate-crust.xmf,909,-4.86745e-07,2.88723e-06,0,4.14538e-07,-7.0205e+08,-7.01819e+08,-7.02017e+08,28437.3,-0.0040395,0.0982787,-0,0.0983617,-31530.4,-25561.3,-0,40590,28437.3
step02_gravity_refstate-crust.xmf,910,-5.67779e-07,3.36631e-06,0,6.34008e-07,-8.13359e+08,-8.13089e+08,-8.1332e+08,43493,-0.0064677,0.0903373,-0,0.0905685,-26978.7,-29614.1,-0,40060.5,43493
step02_gravity_refstate-crust.xmf,911,-6.13934e-07,3.59582e-06,0,6.55889e-07,-8.6098e+08,-8.60691e+08,-8.60938e+08,44994,-0.00688266,0.0854948,-0,0.0857714,-26103.2,-31347.9,-0,40793,44994
step02_gravity_refstate-crust.xmf,912,-6.64394e-07,3.81868e-06,0,6.65978e-07,-9.04933e+08,-9.04625e+08,-9.04887e+08,45686.1,-0.00716574,0.0807435,-0,0.0810609,-25305,-32948.2,-0,41544.3,45686.1
step02_gravity_refstate-crust.xmf,913,-7.23043e-07,4.04139e-06,0,6.72194e-07,-9.46315e+08,-9.45988e+08,-9.46265e+08,46112.5,-0.00737712,0.0761441,-0,0.0765006,-24476.9,-34454.9,-0,42264.1,46112.5
step02_gravity_refstate-crust.xmf,914,-7.91122e-07,4.27054e-06,0,6.71991e-07,-9.85921e+08,-9.85574e+08,-9.85866e+08,46098.6,-0.0074944,0.0715883,-0,0.0719796,-23641.2,-35896.8,-0,42982.4,46098.6
step02_gravity_refstate-crust.xmf,915,-8.38118e-07,4.69527e-06,0,4.59305e-07,-1.06153e+09,-1.06115e+09,-1.06147e+09,31508.3,-0.00590335,0.0593162,-0,0.0596092,-23609.2,-38649.8,-0,45290.2,31508.3
step02_gravity_refstate-crust.xmf,916,-5.13644e-07,3.12663e-06,0,4.64878e-07,-7.57346e+08,-7.57096e+08,-7.5731e+08,31890.7,-0.00471481,0.0933124,-0,0.0934314,-30270.2,-27574.7,-0,40946.9,31890.7
step02_gravity_refstate-crust.xmf,917,-4.83281e-07,2.89506e-06,0,2.86534e-07,-7.01606e+08,-7.01375e+08,-7.01573e+08,19656.2,-0.00282839,0.0966411,-0,0.0966825,-34033,-25545.2,-0,42553.5,19656.2
step02_gravity_refstate-crust.xmf,918,-4.70701e-07,2.79612e-06,0,9.96286e-08,-6.76965e+08,-6.7674e+08,-6.76932e+08,6834.52,-0.000975013,0.0977456,-0,0.0977505,-37919.2,-24648,-0,45226,6834.52
step02_gravity_refstate-crust.xmf,919,-4.6333e-07,2.65297e-06,0,1.03419e-10,-6.42923e+08,-6.42709e+08,-6.42891e+08,7.09454,-1.88747e-19,0.100923,-0,0.100923,-40000,-23408.5,-0,46346.1,7.09454
step02_gravity_refstate-crust.xmf,920,-7.72504e-07,4.45283e-06,0,4.98128e-07,-1.02439e+09,-1.02403e+09,-1.02434e+09,34171.6,-0.00614963,0.0641213,-0,0.0644155,-24445.5,-37297.8,-0,44594.9,34171.6
step02_gravity_refstate-crust.xmf,921,-5.47794e-07,3.36214e-06,0,5.04755e-07,-8.10544e+08,-8.10276e+08,-8.10507e+08,34626.2,-0.0052997,0.0882091,-0,0.0883682,-29084.4,-29511.7,-0,41434.8,34626.2
step02_gravity_refstate-crust.xmf,922,-4.97708e-07,3.13843e-06,0,3.33362e-07,-7.58551e+08,-7.58302e+08,-7.58517e+08,22868.6,-0.00348479,0.0912162,-0,0.0912827,-32701.6,-27618.7,-0,42804,22868.6
step02_gravity_refstate-crust.xmf,923,-4.78239e-07,2.91964e-06,0,1.80751e-07,-7.06678e+08,-7.06445e+08,-7.06645e+08,12399.5,-0.00181004,0.0951343,-0,0.0951515,-36166.3,-25729.9,-0,44385,12399.5
step02_gravity_refstate-crust.xmf,924,-5.79017e-07,3.59263e-06,0,5.18627e-07,-8.59793e+08,-8.59506e+08,-8.59753e+08,35577.8,-0.00569232,0.083068,-0,0.0832628,-28106.7,-31304.8,-0,42071.1,35577.8
step02_gravity_refstate-crust.xmf,925,-6.16012e-07,3.813e-06,0,5.20722e-07,-9.05374e+08,-9.0507e+08,-9.05331e+08,35721.5,-0.00593565,0.0780109,-0,0.0782364,-27221,-32964.4,-0,42750.9,35721.5
step02_gravity_refstate-crust.xmf,926,-6.60017e-07,4.01617e-06,0,5.23516e-07,-9.44971e+08,-9.4465e+08,-9.44925e+08,35913.2,-0.00613285,0.0735936,-0,0.0738487,-26300.1,-34406.2,-0,43306.8,35913.2
step02_gravity_refstate-crust.xmf,927,-7.11038e-07,4.24641e-06,0,5.07263e-07,-9.88239e+08,-9.87899e+08,-9.8819e+08,34798.3,-0.00614324,0.0683944,-0,0.0686697,-25389.2,-35981.5,-0,44037.3,34798.3
step02_gravity_refstate-crust.xmf,928,-7.14368e-07,4.60809e-06,0,3.16949e-07,-1.06116e+09,-1.06079e+09,-1.06111e+09,21742.7,-0.00465492,0.0568764,-0,0.0570666,-25230.4,-38636.8,-0,46145.2,21742.7
step02_gravity_refstate-crust.xmf,929,-5.22441e-07,3.35254e-06,0,3.90326e-07,-8.08688e+08,-8.08422e+08,-8.08652e+08,26776.3,-0.00421329,0.086493,-0,0.0865955,-31132.5,-29444.2,-0,42850.8,26776.3
step02_gravity_refstate-crust.xmf,930,-4.84064e-07,3.1341e-06,0,2.05821e-07,-7.5836e+08,-7.58111e+08,-7.58326e+08,14119.3,-0.00217505,0.0897471,-0,0.0897734,-35381.8,-27611.7,-0,44880.7,14119.3
step02_gravity_refstate-crust.xmf,931,-4.70886e-07,3.10753e-06,0,9.70269e-08,-7.52273e+08,-7.52027e+08,-7.5224e+08,6656.05,-0.00103597,0.0896781,-0,0.0896841,-37787.6,-27390.1,-0,46670.3,6656.05
step02_gravity_refstate-crust.xmf,932,-4.71149e-07,2.94481e-06,0,4.22763e-10,-7.12557e+08,-7.12323e+08,-7.12525e+08,29.0016,-2.01846e-19,0.0938264,-0,0.0938264,-40000,-25944,-0,47676.9,29.0016
step02_gravity_refstate-crust.xmf,933,-6.78193e-07,4.40532e-06,0,3.67274e-07,-1.02561e+09,-1.02527e+09,-1.02557e+09,25195,-0.00499853,0.0616533,-0,0.0618556,-25997.5,-37342.6,-0,45501,25195
step02_gravity_refstate-crust.xmf,934,-5.42321e-07,3.57235e-06,0,4.01447e-07,-8.58488e+08,-8.58206e+08,-8.58451e+08,27539.3,-0.00455059,0.0810798,-0,0.0812074,-30161.6,-31257.4,-0,43436.8,27539.3
step02_gravity_refstate-crust.xmf,935,-4.81854e-07,3.37487e-06,0,2.36843e-07,-8.16773e+08,-8.16508e+08,-8.1674e+08,16247.4,-0.00271072,0.0834555,-0,0.0834995,-34092.7,-29738.7,-0,45240.5,16247.4
step02_gravity_refstate-crust.xmf,936,-5.03492e-07,3.54977e-06,0,2.98818e-07,-8.57163e+08,-8.56885e+08,-8.57129e+08,20498.9,-0.00349333,0.0795569,-0,0.0796336,-32211.8,-31209.3,-0,44851.1,20498.9
step02_gravity_refstate-crust.xmf,937,-5.58745e-07,3.79553e-06,0,3.92826e-07,-9.07035e+08,-9.06736e+08,-9.06996e+08,26947.8,-0.00474508,0.0754916,-0,0.0756406,-29224.3,-33025.1,-0,44099,26947.8
step02_gravity_refstate-crust.xmf,938,-5.82175e-07,4.01947e-06,0,3.71883e-07,-9.54529e+08,-9.54213e+08,-9.54489e+08,25511.2,-0.0047812,0.0697417,-0,0.0699054,-28286.6,-34754.5,-0,44810.7,25511.2
step02_gravity_refstate-crust.xmf,939,-6.09286e-07,4.26642e-06,0,3.27401e-07,-1.00496e+09,-1.00463e+09,-1.00492e+09,22459.7,-0.00458878,0.0632881,-0,0.0634542,-27286.8,-36590.8,-0,45644.8,22459.7
step02_gravity_refstate-crust.xmf,940,-5.96438e-07,4.50412e-06,0,2.13881e-07,-1.05803e+09,-1.05768e+09,-1.05799e+09,14672.3,-0.00365246,0.0552863,-0,0.0554068,-26890.3,-38523.3,-0,46980.1,14672.3
step02_gravity_refstate-crust.xmf,941,-4.70193e-07,3.54996e-06,0,2.22342e-07,-8.61522e+08,-8.61246e+08,-8.61489e+08,15252.7,-0.00268721,0.077956,-0,0.0780023,-33835.4,-31368.2,-0,46138.9,15252.7
step02_gravity_refstate-crust.xmf,942,-4.65368e-07,3.35571e-06,0,1.37211e-07,-8.14796e+08,-8.14534e+08,-8.14765e+08,9412.68,-0.00157311,0.0826544,-0,0.0826693,-36518.5,-29666.8,-0,47050.2,9412.68
step02_gravity_refstate-crust.xmf,943,-4.62412e-07,3.21749e-06,0,2.88689e-10,-7.804e+08,-7.80148e+08,-7.80368e+08,19.8041,-1.31479e-19,0.0862158,-0,0.0862158,-40000,-28414.4,-0,49065,19.8041
step02_gravity_refstate-crust.xmf,944,-5.06977e-07,3.75749e-06,0,2.91577e-07,-9.06519e+08,-9.06226e+08,-9.06484e+08,20002.2,-0.0036562,0.0736946,-0,0.0737852,-31286.1,-33006.5,-0,45478,20002.2
step02_gravity_refstate-crust.xmf,945,-4.46615e-07,3.57491e-06,0,1.53379e-07,-8.71751e+08,-8.71475e+08,-8.7172e+08,10521.8,-0.00192324,0.0758646,-0,0.075889,-35423.6,-31740.7,-0,47563.7,10521.8
step02_gravity_refstate-crust.xmf,946,-4.5835e-07,3.71765e-06,0,2.05843e-07,-9.04412e+08,-9.04125e+08,-9.0438e+08,14120.8,-0.00267977,0.0725516,-0,0.072601,-33364.2,-32929.9,-0,46878,14120.8
step02_gravity_refstate-crust.xmf,947,-4.52446e-07,3.34459e-06,0,5.86362e-08,-8.13507e+08,-8.13246e+08,-8.13476e+08,4022.45,-0.000668872,0.0823626,-0,0.0823653,-38508,-29619.9,-0,48581.9,4022.45
step02_gravity_refstate-crust.xmf,948,-5.02221e-07,3.97176e-06,0,2.6253e-07,-9.55816e+08,-9.55509e+08,-9.55781e+08,18009.6,-0.00364888,0.0675412,-0,0.0676397,-30344.9,-34801.6,-0,46173.2,18009.6
step02_gravity_refstate-crust.xmf,949,-5.01143e-07,4.18407e-06,0,2.17511e-07,-1.00427e+09,-1.00395e+09,-1.00423e+09,14921.3,-0.00342375,0.0611876,-0,0.0612833,-29406.3,-36565.8,-0,46923.2,14921.3
step02_gravity_refstate-crust.xmf,950,-4.90253e-07,4.39533e-06,0,1.43521e-07,-1.05279e+09,-1.05245e+09,-1.05275e+09,9845.55,-0.0028653,0.054385,-0,0.0544604,-28575.1,-38332.6,-0,47811.4,9845.55
step02_gravity_refstate-crust.xmf,951,-4.14611e-07,3.57446e-06,0,6.40809e-08,-8.75597e+08,-8.75323e+08,-8.75569e+08,4395.95,-0.000850247,0.0746355,-0,0.0746403,-37919.5,-31880.8,-0,49540.6,4395.95
step02_gravity_refstate-crust.xmf,952,-4.29309e-07,3.46578e-06,0,1.2591e-09,-8.46612e+08,-8.46345e+08,-8.46582e+08,86.3744,-1.68646e-19,0.078158,-0,0.078158,-40000,-30825.4,-0,50499.5,86.3744
step02_gravity_refstate-crust.xmf,953,-4.39666e-07,3.91107e-06,0,1.84953e-07,-9.54063e+08,-9.53765e+08,-9.54033e+08,12687.8,-0.00268671,0.0662221,-0,0.0662766,-32443.5,-34737.9,-0,47532.1,12687.8
step02_gravity_refstate-crust.xmf,954,-3.82182e-07,3.84806e-06,0,1.15451e-07,-9.48008e+08,-9.47718e+08,-9.47982e+08,7919.93,-0.00178746,0.0658251,-0,0.0658494,-34788.5,-34517.6,-0,49007.2,7919.93
step02_gravity_refstate-crust.xmf,955,-4.10237e-07,4.11247e-06,0,1.40501e-07,-1.00446e+09,-1.00414e+09,-1.00443e+09,9638.38,-0.00249874,0.0595426,-0,0.059595,-31428.9,-36572.9,-0,48221.9,9638.38
step02_gravity_refstate-crust.xmf,956,-3.80786e-07,4.30051e-06,0,7.80801e-08,-1.05232e+09,-1.052e+09,-1.05229e+09,5356.29,-0.0020366,0.0528739,-0,0.0529131,-30499.8,-38315.9,-0,48972.9,5356.29
step02_gravity_refstate-crust.xmf,957,-3.77268e-07,3.7405e-06,0,8.23999e-08,-9.2322e+08,-9.22937e+08,-9.23194e+08,5652.63,-0.00121215,0.0685827,-0,0.0685934,-36667.4,-33615,-0,49744,5652.63
step02_gravity_refstate-crust.xmf,958,-3.71974e-07,3.68839e-06,0,1.00336e-09,-9.11363e+08,-9.11085e+08,-9.11338e+08,68.8304,-1.09092e-19,0.0697243,-0,0.0697243,-40000,-33183.3,-0,51972.4,68.8304
step02_gravity_refstate-crust.xmf,959,-3.45166e-07,4.04116e-06,0,9.29287e-08,-1.0022e+09,-1.0019e+09,-1.00218e+09,6374.91,-0.00175847,0.0586527,-0,0.0586791,-33485.9,-36491.1,-0,49526.8,6374.91
step02_gravity_refstate-crust.xmf,960,-3.36849e-07,3.79276e-06,0,3.29918e-08,-9.43488e+08,-9.43204e+08,-9.43465e+08,2263.24,-0.00053739,0.0654577,-0,0.0654599,-38380.5,-34353.1,-0,51509.2,2263.24
step02_gravity_refstate-crust.xmf,961,-3.04458e-07,3.9048e-06,0,4.94858e-08,-9.76892e+08,-9.76603e+08,-9.76871e+08,3394.73,-0.00091428,0.061073,-0,0.0610799,-36816.5,-35569.5,-0,51192.3,3394.73
step02_gravity_refstate-crust.xmf,962,-2.87873e-07,4.21702e-06,0,3.56147e-08,-1.05203e+09,-1.05172e+09,-1.05201e+09,2443.17,-0.00138112,0.0516867,-0,0.0517051,-32475.8,-38305.7,-0,50219.5,2443.17
step02_gravity_refstate-crust.xmf,963,-2.90838e-07,4.00267e-06,0,5.63651e-08,-1.00352e+09,-1.00322e+09,-1.0035e+09,3866.65,-0.00117215,0.0576857,-0,0.0576976,-35318.6,-36539.1,-0,50818.3,3866.65
step02_gravity_refstate-crust.xmf,964,-2.83517e-07,3.87916e-06,0,1.52766e-09,-9.74823e+08,-9.74538e+08,-9.74804e+08,104.798,-7.9172e-20,0.0609799,-0,0.0609799,-40000,-35494.3,-0,53477.5,104.798
step02_gravity_refstate-crust.xmf,965,-2.26325e-07,4.14184e-06,0,1.73527e-08,-1.04948e+09,-1.04918e+09,-1.04946e+09,1190.4,-0.000902392,0.0511601,-0,0.0511681,-34511.4,-38212.9,-0,51490.4,1190.4
step02_gravity_refstate-crust.xmf,966,-2.37644e-07,3.96383e-06,0,1.41523e-08,-1.00447e+09,-1.00418e+09,-1.00445e+09,970.848,-0.000376199,0.0568442,-0,0.0568455,-38382.2,-36573.9,-0,53017.4,970.848
step02_gravity_refstate-crust.xmf,967,-1.84398e-07,4.07574e-06,0,8.03525e-09,-1.0411e+09,-1.04081e+09,-1.04109e+09,551.218,-0.000552283,0.0517788,-0,0.0517818,-36659.9,-37907.9,-0,52734.8,551.218
step02_gravity_refstate-crust.xmf,968,-1.63331e-07,4.03726e-06,0,9.48956e-10,-1.03716e+09,-1.03687e+09,-1.03715e+09,65.0984,-4.64729e-20,0.0519921,-0,0.0519921,-40000,-37764.5,-0,55010.5,65.0984
step02_gravity_refstate-crust.xmf,969,-1.37422e-07,4.08204e-06,0,-8.71061e-10,-1.05396e+09,-1.05367e+09,-1.05395e+09,-59.7548,-0.000209829,0.0495959,-0,0.0495964,-38363.5,-38376.4,-0,54263.3,59.7548
