Block Name,Point ID,cauchy_strain_0,cauchy_strain_1,cauchy_strain_2,cauchy_strain_3,cauchy_stress_0,cauchy_stress_1,cauchy_stress_2,cauchy_stress_3,displacement_0,displacement_1,displacement_2,displacement_Magnitude,Points_0,Points_1,Points_2,Points_Magnitude,stress_xy
step02_gravity_refstate-mantle.xmf,0,8.87207e-06,7.57061e-06,0,1.33665e-06,-1.68804e+09,-1.68821e+09,-1.68922e+09,178644,-0.179723,0.0129138,-0,0.180186,15309.7,-58282.6,0,60259.9,178644
step02_gravity_refstate-mantle.xmf,1,9.18513e-06,6.34091e-06,0,7.60835e-07,-1.71215e+09,-1.71253e+09,-1.71338e+09,101686,-0.174314,0.00617885,-0,0.174424,16223.2,-59026.5,0,61215.3,101686
step02_gravity_refstate-mantle.xmf,2,9.20222e-06,7.7919e-06,0,6.30054e-07,-1.71827e+09,-1.71845e+09,-1.7195e+09,84206.7,-0.185247,0.00610948,-0,0.185347,15085.7,-59219.2,0,61110.5,84206.7
step02_gravity_refstate-mantle.xmf,3,9.31154e-06,7.00866e-06,0,-1.04439e-08,-1.74358e+09,-1.74389e+09,-1.74483e+09,-1395.83,-0.180838,-5.71613e-19,-0,0.180838,15660.2,-60000,0,62010,1395.83
step02_gravity_refstate-mantle.xmf,4,9.2513e-06,5.71054e-06,0,1.29201e-08,-1.7437e+09,-1.74418e+09,-1.74494e+09,1726.77,-0.170301,-3.28887e-20,-0,0.170301,16795.3,-60000,0,62306.4,1726.77
step02_gravity_refstate-mantle.xmf,5,6.35307e-06,7.22316e-07,0,-2.87942e-09,-1.74474e+09,-1.7455e+09,-1.74559e+09,-384.834,-0.0270821,6.1549e-20,-0,0.0270821,35643.8,-60000,0,69788.8,384.834
step02_gravity_refstate-mantle.xmf,6,6.24379e-06,6.99014e-07,0,-9.19494e-10,-1.74477e+09,-1.74551e+09,-1.7456e+09,-122.89,-0.0138013,3.41522e-19,-0,0.0138013,37768.5,-60000,0,70897.5,122.89
step02_gravity_refstate-mantle.xmf,7,6.19368e-06,6.77444e-07,0,1.41966e-07,-1.68902e+09,-1.68976e+09,-1.68985e+09,18973.7,-0.0198883,0.00118997,-0,0.0199239,36749.1,-58277.5,0,68896.8,18973.7
step02_gravity_refstate-mantle.xmf,8,9.10001e-06,5.11936e-06,0,6.09024e-07,-1.71854e+09,-1.71907e+09,-1.71976e+09,81396.1,-0.16383,0.00400485,-0,0.163879,17418.3,-59220.2,0,61728.7,81396.1
step02_gravity_refstate-mantle.xmf,9,8.6843e-06,6.49426e-06,0,1.61671e-06,-1.67542e+09,-1.67572e+09,-1.67658e+09,216073,-0.169646,0.013492,-0,0.170182,16216.7,-57889,0,60117.6,216073
step02_gravity_refstate-mantle.xmf,10,9.14073e-06,4.64573e-06,0,4.21615e-09,-1.74382e+09,-1.74442e+09,-1.74504e+09,563.489,-0.159387,2.11684e-19,-0,0.159387,17984.9,-60000,0,62637.5,563.489
step02_gravity_refstate-mantle.xmf,11,8.93248e-06,3.77029e-06,0,3.76884e-09,-1.74393e+09,-1.74462e+09,-1.74513e+09,503.705,-0.148174,1.10609e-18,-0,0.148174,19232,-60000,0,63006.9,503.705
step02_gravity_refstate-mantle.xmf,12,8.94717e-06,4.18893e-06,0,6.90857e-07,-1.71298e+09,-1.71361e+09,-1.71417e+09,92333,-0.152852,0.00401237,-0,0.152905,18599.8,-59044.9,0,61905.2,92333
step02_gravity_refstate-mantle.xmf,13,8.44565e-06,8.96281e-06,0,1.74902e-06,-1.66897e+09,-1.6689e+09,-1.6701e+09,233756,-0.18361,0.0204578,-0,0.184746,14441.5,-57694.3,0,59474.3,233756
step02_gravity_refstate-mantle.xmf,14,8.8996e-06,8.71081e-06,0,1.15216e-06,-1.69561e+09,-1.69564e+09,-1.6968e+09,153987,-0.187958,0.0129212,-0,0.188402,14513.2,-58519.8,0,60292.6,153987
step02_gravity_refstate-mantle.xmf,15,6.20636e-06,6.76704e-07,0,-6.5797e-09,-1.74478e+09,-1.74552e+09,-1.74561e+09,-879.377,1.26978e-19,9.00791e-20,0,1.55684e-19,40000,-60000,0,72111,879.377
step02_gravity_refstate-mantle.xmf,16,6.12588e-06,6.64582e-07,0,5.83757e-08,-1.69334e+09,-1.69407e+09,-1.69416e+09,7801.91,-0.00973801,0.00107203,-0,0.00979684,38406.3,-58410.5,0,69905.9,7801.91
step02_gravity_refstate-mantle.xmf,17,6.5038e-06,7.73794e-07,0,5.96828e-09,-1.74471e+09,-1.74547e+09,-1.74558e+09,797.661,-0.0399915,3.21725e-19,-0,0.0399915,33620.7,-60000,0,68777.5,797.661
step02_gravity_refstate-mantle.xmf,18,6.28365e-06,7.17932e-07,0,2.74455e-07,-1.67916e+09,-1.6799e+09,-1.68e+09,36681,-0.0329745,0.00148462,-0,0.0330079,34618.2,-57973.6,0,67523,36681
step02_gravity_refstate-mantle.xmf,19,8.24361e-06,7.701e-06,0,2.0413e-06,-1.65618e+09,-1.65625e+09,-1.65728e+09,272820,-0.173058,0.0203466,-0,0.17425,15345.5,-57294.8,0,59314.3,272820
step02_gravity_refstate-mantle.xmf,20,8.87418e-06,5.59004e-06,0,1.25519e-06,-1.69068e+09,-1.69112e+09,-1.69186e+09,167756,-0.164957,0.00907982,-0,0.165207,17009.4,-58359.2,0,60787.4,167756
step02_gravity_refstate-mantle.xmf,21,6.6938e-06,8.57226e-07,0,1.90575e-09,-1.74466e+09,-1.74544e+09,-1.74555e+09,254.704,-0.0526098,6.65145e-20,-0,0.0526098,31694.1,-60000,0,67856.6,254.704
step02_gravity_refstate-mantle.xmf,22,6.48083e-06,7.94848e-07,0,2.91507e-07,-1.69413e+09,-1.69489e+09,-1.695e+09,38960,-0.0467103,0.00125815,-0,0.0467272,32507.1,-58437.6,0,66870.5,38960
step02_gravity_refstate-mantle.xmf,23,8.66973e-06,3.05769e-06,0,1.00148e-09,-1.74405e+09,-1.7448e+09,-1.74521e+09,133.847,-0.136729,1.36736e-19,-0,0.136729,20539.9,-60000,0,63418.4,133.847
step02_gravity_refstate-mantle.xmf,24,8.70584e-06,3.40356e-06,0,7.14021e-07,-1.70936e+09,-1.71007e+09,-1.71052e+09,95428.9,-0.141538,0.00365795,-0,0.141586,19863.3,-58929.5,0,62187.1,95428.9
step02_gravity_refstate-mantle.xmf,25,8.3761e-06,2.48081e-06,0,7.95916e-10,-1.74416e+09,-1.74495e+09,-1.74528e+09,106.374,-0.125102,8.42382e-19,-0,0.125102,21911.9,-60000,0,63875.9,106.374
step02_gravity_refstate-mantle.xmf,26,8.43493e-06,2.76236e-06,0,6.34676e-07,-1.70971e+09,-1.71046e+09,-1.71083e+09,84824.4,-0.13021,0.00294726,-0,0.130243,21195,-58936.8,0,62632,84824.4
step02_gravity_refstate-mantle.xmf,27,8.08082e-06,2.01601e-06,0,9.23201e-09,-1.74426e+09,-1.74507e+09,-1.74534e+09,1233.86,-0.11333,1.46624e-19,-0,0.11333,23351.3,-60000,0,64383.9,1233.86
step02_gravity_refstate-mantle.xmf,28,8.14558e-06,2.24937e-06,0,5.73352e-07,-1.71008e+09,-1.71087e+09,-1.71117e+09,76628.4,-0.118797,0.00237635,-0,0.118821,22580.6,-58945,0,63122.1,76628.4
step02_gravity_refstate-mantle.xmf,29,7.78294e-06,1.64297e-06,0,-2.55773e-10,-1.74436e+09,-1.74518e+09,-1.7454e+09,-34.184,-0.101424,7.91181e-19,-0,0.101424,24862,-60000,0,64947,34.184
step02_gravity_refstate-mantle.xmf,30,7.8082e-06,1.85375e-06,0,7.01331e-07,-1.69726e+09,-1.69806e+09,-1.69831e+09,93732.9,-0.107168,0.00270035,-0,0.107202,23963.6,-58545.9,0,63260.4,93732.9
step02_gravity_refstate-mantle.xmf,31,7.78581e-06,1.05381e-05,0,1.99551e-06,-1.65095e+09,-1.65058e+09,-1.65199e+09,266700,-0.185698,0.0299084,-0,0.188091,13599.4,-57137.3,0,58733.4,266700
step02_gravity_refstate-mantle.xmf,32,8.52017e-06,1.04835e-05,0,1.2548e-06,-1.68607e+09,-1.68581e+09,-1.68721e+09,167704,-0.194729,0.0186547,-0,0.195621,13552.7,-58227,0,59783.4,167704
step02_gravity_refstate-mantle.xmf,33,9.03056e-06,9.50831e-06,0,6.22005e-07,-1.7171e+09,-1.71703e+09,-1.71831e+09,83130.9,-0.194658,0.00777224,-0,0.194814,14043.8,-59186.4,0,60829.8,83130.9
step02_gravity_refstate-mantle.xmf,34,9.23583e-06,8.59675e-06,0,-1.106e-08,-1.74347e+09,-1.74355e+09,-1.7447e+09,-1478.17,-0.190886,-7.27939e-19,-0,0.190886,14576.4,-60000,0,61745.2,1478.17
step02_gravity_refstate-mantle.xmf,35,6.06008e-06,6.54801e-07,0,-1.82145e-09,-1.67306e+09,-1.67378e+09,-1.67387e+09,-243.437,1.44798e-19,0.00148535,0,0.00148535,40000,-57783.5,0,70277.5,243.437
step02_gravity_refstate-mantle.xmf,36,5.9161e-06,7.26821e-07,0,1.65685e-07,-1.63331e+09,-1.63401e+09,-1.6341e+09,22143.8,-0.0117796,0.00236929,-0,0.0120155,37992.1,-56555,0,68131.2,22143.8
step02_gravity_refstate-mantle.xmf,37,5.97736e-06,7.54244e-07,0,3.23116e-07,-1.63884e+09,-1.63954e+09,-1.63964e+09,43184.5,-0.023293,0.00232601,-0,0.0234089,36065.8,-56726.1,0,67220.5,43184.5
step02_gravity_refstate-mantle.xmf,38,7.64148e-06,9.12423e-06,0,2.38757e-06,-1.63754e+09,-1.63734e+09,-1.63856e+09,319099,-0.174887,0.029166,-0,0.177302,14466.8,-56718.5,0,58534.4,319099
step02_gravity_refstate-mantle.xmf,39,8.70925e-06,4.78525e-06,0,1.32988e-06,-1.68514e+09,-1.68566e+09,-1.6863e+09,177739,-0.156048,0.00856371,-0,0.156283,17940.8,-58184.9,0,60888.1,177739
step02_gravity_refstate-mantle.xmf,40,8.37976e-06,5.61927e-06,0,1.88707e-06,-1.66088e+09,-1.66125e+09,-1.662e+09,252207,-0.158946,0.0139616,-0,0.159558,17155.8,-57435.5,0,59942.9,252207
step02_gravity_refstate-mantle.xmf,41,7.94804e-06,6.67113e-06,0,2.31364e-06,-1.64176e+09,-1.64193e+09,-1.64283e+09,309218,-0.161856,0.0201619,-0,0.163107,16284.7,-56844.8,0,59131.4,309218
step02_gravity_refstate-mantle.xmf,42,7.47677e-06,1.35737e-06,0,1.95393e-09,-1.74445e+09,-1.74527e+09,-1.74545e+09,261.142,-0.0894114,8.33345e-20,-0,0.0894114,26447.5,-60000,0,65570.4,261.142
step02_gravity_refstate-mantle.xmf,43,7.4861e-06,1.49297e-06,0,5.54349e-07,-1.70216e+09,-1.70296e+09,-1.70316e+09,74088.8,-0.0948118,0.00195544,-0,0.0948319,25612.7,-58694.1,0,64039.1,74088.8
step02_gravity_refstate-mantle.xmf,44,7.19302e-06,1.13643e-06,0,2.14993e-09,-1.74453e+09,-1.74534e+09,-1.74549e+09,287.338,-0.0772828,7.77595e-20,-0,0.0772828,28111.9,-60000,0,66259.2,287.338
step02_gravity_refstate-mantle.xmf,45,7.24504e-06,1.22847e-06,0,4.94759e-07,-1.70014e+09,-1.70094e+09,-1.70111e+09,66124.6,-0.0828027,0.00170035,-0,0.0828202,27237,-58629.4,0,64647.1,66124.6
step02_gravity_refstate-mantle.xmf,46,6.9282e-06,9.73993e-07,0,6.84437e-10,-1.7446e+09,-1.7454e+09,-1.74553e+09,91.475,-0.0650245,4.3579e-19,-0,0.0650245,29859.4,-60000,0,67019.3,91.475
step02_gravity_refstate-mantle.xmf,47,6.72675e-06,8.89267e-07,0,3.61057e-07,-1.69669e+09,-1.69747e+09,-1.69759e+09,48255.2,-0.0584548,0.00133754,-0,0.0584701,30732,-58518.4,0,66097.4,48255.2
step02_gravity_refstate-mantle.xmf,48,6.96972e-06,1.02673e-06,0,4.46446e-07,-1.69676e+09,-1.69755e+09,-1.69769e+09,59667.6,-0.0703415,0.00153934,-0,0.0703583,28985.7,-58522.6,0,65307.5,59667.6
step02_gravity_refstate-mantle.xmf,49,8.51352e-06,3.97439e-06,0,1.41168e-06,-1.67729e+09,-1.6779e+09,-1.67843e+09,188671,-0.145019,0.00802148,-0,0.14524,19107.9,-57939.2,0,61008.7,188671
step02_gravity_refstate-mantle.xmf,50,7.66553e-06,1.23809e-05,0,1.48863e-06,-1.66218e+09,-1.66155e+09,-1.6632e+09,198955,-0.195851,0.0312279,-0,0.198325,12713.8,-57488.1,0,58877.2,198955
step02_gravity_refstate-mantle.xmf,51,6.18318e-06,8.61814e-07,0,5.89988e-07,-1.63624e+09,-1.63695e+09,-1.63707e+09,78852,-0.0420656,0.00269021,-0,0.0421515,32955.9,-56647.6,0,65536.5,78852
step02_gravity_refstate-mantle.xmf,52,5.88675e-06,8.68129e-07,0,5.42813e-07,-1.60968e+09,-1.61035e+09,-1.61047e+09,72547,-0.0310768,0.00318956,-0,0.03124,34610.4,-55825.1,0,65683.5,72547
step02_gravity_refstate-mantle.xmf,53,7.3011e-06,7.95395e-06,0,2.67588e-06,-1.62276e+09,-1.62267e+09,-1.62373e+09,357632,-0.163321,0.0283106,-0,0.165757,15382,-56256.7,0,58321.7,357632
step02_gravity_refstate-mantle.xmf,54,6.87389e-06,1.22592e-05,0,2.08866e-06,-1.63222e+09,-1.6315e+09,-1.63314e+09,279150,-0.185217,0.0421283,-0,0.189948,12792.4,-56557.2,0,57985.9,279150
step02_gravity_refstate-mantle.xmf,55,6.78967e-06,1.06614e-05,0,2.56726e-06,-1.61955e+09,-1.61903e+09,-1.62045e+09,343114,-0.174502,0.0399778,-0,0.179023,13641.6,-56161,0,57794,343114
step02_gravity_refstate-mantle.xmf,56,6.40298e-06,9.05879e-07,0,6.0663e-07,-1.6542e+09,-1.65493e+09,-1.65505e+09,81076.1,-0.0518421,0.00241204,-0,0.0518982,31518.7,-57203.8,0,65312.3,81076.1
step02_gravity_refstate-mantle.xmf,57,8.13792e-06,3.2211e-06,0,1.43813e-06,-1.66826e+09,-1.66892e+09,-1.66935e+09,192206,-0.132276,0.00732032,-0,0.132479,20505.4,-57655.8,0,61193.7,192206
step02_gravity_refstate-mantle.xmf,58,8.03393e-06,2.62792e-06,0,1.14187e-06,-1.67877e+09,-1.67949e+09,-1.67984e+09,152611,-0.123205,0.00517516,-0,0.123314,21767.1,-57978.1,0,61929.5,152611
step02_gravity_refstate-mantle.xmf,59,7.83002e-06,2.28367e-06,0,1.17387e-06,-1.67153e+09,-1.67227e+09,-1.67257e+09,156888,-0.114665,0.00498807,-0,0.114773,22759,-57752.2,0,62074.9,156888
step02_gravity_refstate-mantle.xmf,60,7.34536e-06,1.75288e-06,0,1.14996e-06,-1.65809e+09,-1.65884e+09,-1.65907e+09,153692,-0.097485,0.00446025,-0,0.097587,24870.1,-57332.5,0,62494.3,153692
step02_gravity_refstate-mantle.xmf,61,7.12177e-06,1.46923e-06,0,9.94956e-07,-1.66148e+09,-1.66223e+09,-1.66243e+09,132976,-0.0878724,0.00360831,-0,0.0879464,26238.6,-57434.9,0,63144.5,132976
step02_gravity_refstate-mantle.xmf,62,8.09261e-06,1.29009e-05,0,8.97799e-07,-1.69171e+09,-1.69107e+09,-1.69279e+09,119991,-0.204484,0.0207198,-0,0.205531,12508.2,-58404.5,0,59728.9,119991
step02_gravity_refstate-mantle.xmf,63,8.66379e-06,1.15825e-05,0,5.45386e-07,-1.71638e+09,-1.71599e+09,-1.71754e+09,72890.8,-0.203394,0.00969615,-0,0.203625,13050,-59167.2,0,60589.2,72890.8
step02_gravity_refstate-mantle.xmf,64,8.97519e-06,1.05309e-05,0,-7.91453e-09,-1.74336e+09,-1.74316e+09,-1.74456e+09,-1057.78,-0.200312,-9.09104e-19,-0,0.200312,13541.2,-60000,0,61509.1,1057.78
step02_gravity_refstate-mantle.xmf,65,5.67913e-06,7.97616e-07,0,1.26527e-10,-1.60157e+09,-1.60222e+09,-1.60233e+09,16.9103,1.00026e-19,0.0030978,0,0.0030978,40000,-55573.1,0,68471.7,16.9103
step02_gravity_refstate-mantle.xmf,66,5.5596e-06,9.24017e-07,0,4.38837e-07,-1.58044e+09,-1.58106e+09,-1.58119e+09,58650.5,-0.0204758,0.00381832,-0,0.0208288,36293.4,-54919.9,0,65828.6,58650.5
step02_gravity_refstate-mantle.xmf,67,6.53153e-06,9.37496e-06,0,2.92443e-06,-1.60522e+09,-1.60484e+09,-1.60609e+09,390850,-0.163098,0.0381967,-0,0.167511,14509.8,-55713.5,0,57571.9,390850
step02_gravity_refstate-mantle.xmf,68,6.76706e-06,1.42166e-05,0,1.42108e-06,-1.64456e+09,-1.64356e+09,-1.64546e+09,189927,-0.19545,0.044082,-0,0.20036,11973.2,-56942.6,0,58187.8,189927
step02_gravity_refstate-mantle.xmf,69,8.10658e-06,4.80453e-06,0,2.00449e-06,-1.6503e+09,-1.65074e+09,-1.65138e+09,267901,-0.148292,0.0132665,-0,0.148885,18198.7,-57104.7,0,59934.4,267901
step02_gravity_refstate-mantle.xmf,70,7.60431e-06,5.81338e-06,0,2.50226e-06,-1.62743e+09,-1.62767e+09,-1.62844e+09,334427,-0.150545,0.0195818,-0,0.151813,17264.2,-56397.5,0,58980.7,334427
step02_gravity_refstate-mantle.xmf,71,6.9333e-06,7.00116e-06,0,2.89309e-06,-1.6073e+09,-1.60729e+09,-1.60822e+09,386662,-0.151589,0.0273273,-0,0.154033,16321.4,-55774.2,0,58113.2,386662
step02_gravity_refstate-mantle.xmf,72,6.83622e-06,1.22752e-06,0,9.31591e-07,-1.65151e+09,-1.65226e+09,-1.65242e+09,124507,-0.0747261,0.00333976,-0,0.0748007,28025.5,-57124.5,0,63628.9,124507
step02_gravity_refstate-mantle.xmf,73,6.5422e-06,1.05396e-06,0,8.49179e-07,-1.64107e+09,-1.6418e+09,-1.64194e+09,113493,-0.0620799,0.00316647,-0,0.0621606,29828.1,-56799.6,0,64155.4,113493
step02_gravity_refstate-mantle.xmf,74,6.05722e-06,1.06162e-06,0,9.20352e-07,-1.60375e+09,-1.60442e+09,-1.60456e+09,123005,-0.0496511,0.00396294,-0,0.049809,31436.3,-55643.7,0,63909.8,123005
step02_gravity_refstate-mantle.xmf,75,7.82939e-06,4.09445e-06,0,2.10442e-06,-1.63782e+09,-1.63832e+09,-1.63887e+09,281256,-0.136755,0.0125582,-0,0.13733,19347.1,-56715.6,0,59924.7,281256
step02_gravity_refstate-mantle.xmf,76,7.44562e-06,2.08002e-06,0,1.37422e-06,-1.65047e+09,-1.65118e+09,-1.65146e+09,183664,-0.105282,0.00570112,-0,0.105436,23710.5,-57098.5,0,61825.8,183664
step02_gravity_refstate-mantle.xmf,77,6.87223e-06,1.77972e-06,0,1.46281e-06,-1.62483e+09,-1.62551e+09,-1.62574e+09,195504,-0.0896715,0.00586723,-0,0.0898632,25496.8,-56301.9,0,61806.1,195504
step02_gravity_refstate-mantle.xmf,78,7.33534e-06,1.45909e-05,0,9.28304e-07,-1.67226e+09,-1.67129e+09,-1.67324e+09,124068,-0.204921,0.032428,-0,0.207471,11879.3,-57802.9,0,59011,124068
step02_gravity_refstate-mantle.xmf,79,5.36234e-06,9.66943e-07,0,2.27317e-07,-1.55969e+09,-1.56028e+09,-1.56041e+09,30380.9,-0.00948278,0.00428729,-0,0.0104069,38222.4,-54277.7,0,66385.4,30380.9
step02_gravity_refstate-mantle.xmf,80,5.69647e-06,1.07118e-06,0,8.49367e-07,-1.57657e+09,-1.57719e+09,-1.57733e+09,113518,-0.0385427,0.00445697,-0,0.0387996,33044.5,-54801.6,0,63993.4,113518
step02_gravity_refstate-mantle.xmf,81,5.3363e-06,1.12022e-06,0,7.16569e-07,-1.54789e+09,-1.54845e+09,-1.5486e+09,95769.5,-0.0277144,0.00507081,-0,0.0281745,34728.3,-53913.3,0,64130.3,95769.5
step02_gravity_refstate-mantle.xmf,82,6.09015e-06,8.33928e-06,0,3.15076e-06,-1.58913e+09,-1.58883e+09,-1.58994e+09,421098,-0.151125,0.0367346,-0,0.155525,15398.4,-55210.8,0,57317.9,421098
step02_gravity_refstate-mantle.xmf,83,5.75244e-06,1.61916e-05,0,1.07643e-06,-1.62924e+09,-1.62785e+09,-1.63001e+09,143864,-0.193833,0.0590039,-0,0.202615,11239.1,-56467.8,0,57575.4,143864
step02_gravity_refstate-mantle.xmf,84,5.82966e-06,1.40356e-05,0,1.92163e-06,-1.61623e+09,-1.61513e+09,-1.61701e+09,256825,-0.183289,0.0559409,-0,0.191635,12033,-56060.7,0,57337.5,256825
step02_gravity_refstate-mantle.xmf,85,5.76939e-06,1.23102e-05,0,2.56092e-06,-1.60285e+09,-1.60197e+09,-1.60362e+09,342268,-0.172336,0.0529054,-0,0.180274,12842.8,-55642.5,0,57105.4,342268
step02_gravity_refstate-mantle.xmf,86,5.53663e-06,1.09028e-05,0,2.99247e-06,-1.58885e+09,-1.58813e+09,-1.58959e+09,399944,-0.16107,0.0499989,-0,0.168652,13675.9,-55205,0,56873.8,399944
step02_gravity_refstate-mantle.xmf,87,7.62752e-06,2.83874e-06,0,1.69309e-06,-1.64452e+09,-1.64516e+09,-1.64553e+09,226281,-0.120003,0.00818109,-0,0.120282,21657.9,-56917.9,0,60899.2,226281
step02_gravity_refstate-mantle.xmf,88,7.34319e-06,3.5503e-06,0,2.18282e-06,-1.62111e+09,-1.62162e+09,-1.62209e+09,291734,-0.124579,0.0122319,-0,0.125178,20528.2,-56194.8,0,59827,291734
step02_gravity_refstate-mantle.xmf,89,6.58835e-06,1.58665e-06,0,1.4127e-06,-1.61416e+09,-1.61483e+09,-1.61504e+09,188807,-0.080231,0.00558294,-0,0.080425,26724.7,-55970.1,0,62023.1,188807
step02_gravity_refstate-mantle.xmf,90,7.25084e-06,2.52645e-06,0,1.81247e-06,-1.62593e+09,-1.62656e+09,-1.6269e+09,242236,-0.108899,0.00835687,-0,0.109219,22788.3,-56340.3,0,60774.5,242236
step02_gravity_refstate-mantle.xmf,91,6.89681e-06,2.16716e-06,0,1.77491e-06,-1.61242e+09,-1.61305e+09,-1.61334e+09,237217,-0.0970216,0.0077647,-0,0.0973318,24198.6,-55919.9,0,60931.2,237217
step02_gravity_refstate-mantle.xmf,92,4.5736e-06,1.82902e-05,0,4.41203e-07,-1.61399e+09,-1.61216e+09,-1.6146e+09,58966.8,-0.190206,0.0775037,-0,0.205391,10503.7,-55994.1,0,56970.7,58966.8
step02_gravity_refstate-mantle.xmf,93,3.41501e-06,1.78014e-05,0,9.10947e-07,-1.58716e+09,-1.58524e+09,-1.58762e+09,121748,-0.17438,0.0915009,-0,0.196928,10568.8,-55156.3,0,56159.8,121748
step02_gravity_refstate-mantle.xmf,94,3.26311e-06,2.02703e-05,0,-4.02561e-07,-1.59826e+09,-1.59599e+09,-1.5987e+09,-53802.3,-0.183851,0.0994712,-0,0.209035,9821.6,-55504.5,0,56366.7,53802.3
step02_gravity_refstate-mantle.xmf,95,4.68685e-06,1.59046e-05,0,1.53906e-06,-1.60137e+09,-1.59987e+09,-1.602e+09,205696,-0.179764,0.0723048,-0,0.19376,11287.4,-55598.9,0,56733.1,205696
step02_gravity_refstate-mantle.xmf,96,6.41593e-06,1.66275e-05,0,6.47701e-07,-1.65685e+09,-1.65548e+09,-1.6577e+09,86565.3,-0.205013,0.0455204,-0,0.210006,11184.3,-57325.9,0,58406.8,86565.3
step02_gravity_refstate-mantle.xmf,97,7.57267e-06,1.50574e-05,0,5.39019e-07,-1.69589e+09,-1.69489e+09,-1.6969e+09,72039.9,-0.211103,0.0222395,-0,0.212271,11760.4,-58535.6,0,59705.3,72039.9
step02_gravity_refstate-mantle.xmf,98,8.05295e-06,1.40741e-05,0,3.76553e-07,-1.71805e+09,-1.71725e+09,-1.71913e+09,50326.2,-0.211488,0.0110397,-0,0.211776,12100.8,-59221,0,60444.6,50326.2
step02_gravity_refstate-mantle.xmf,99,8.46681e-06,1.28865e-05,0,-3.02821e-09,-1.74328e+09,-1.74269e+09,-1.74441e+09,-404.721,-0.208944,-1.03626e-18,-0,0.208944,12551.5,-60000,0,61298.8,404.721
step02_gravity_refstate-mantle.xmf,100,5.07051e-06,1.08889e-06,0,1.03785e-09,-1.53015e+09,-1.53069e+09,-1.53083e+09,138.709,7.65415e-20,0.005185,0,0.005185,40000,-53363.7,0,66690.9,138.709
step02_gravity_refstate-mantle.xmf,101,4.977e-06,1.20061e-06,0,5.15088e-07,-1.51922e+09,-1.51973e+09,-1.51989e+09,68841.5,-0.0173694,0.00580413,-0,0.0183135,36497.3,-53025.6,0,64372.1,68841.5
step02_gravity_refstate-mantle.xmf,102,5.18844e-06,9.74304e-06,0,3.27537e-06,-1.57332e+09,-1.57271e+09,-1.57402e+09,437753,-0.149259,0.0474982,-0,0.156634,14535.2,-54720.1,0,56617.7,437753
step02_gravity_refstate-mantle.xmf,103,6.53731e-06,6.19353e-06,0,3.01905e-06,-1.59131e+09,-1.59135e+09,-1.59218e+09,403496,-0.139726,0.0261401,-0,0.14215,17309.7,-55275.6,0,57922.5,403496
step02_gravity_refstate-mantle.xmf,104,7.2418e-06,5.06778e-06,0,2.60893e-06,-1.61309e+09,-1.61338e+09,-1.61406e+09,348683,-0.139029,0.0186563,-0,0.140275,18314.7,-55950.2,0,58871.5,348683
step02_gravity_refstate-mantle.xmf,105,5.63679e-06,7.4735e-06,0,3.30476e-06,-1.57139e+09,-1.57114e+09,-1.57214e+09,441681,-0.138674,0.0353561,-0,0.14311,16330.5,-54657.5,0,57044.9,441681
step02_gravity_refstate-mantle.xmf,106,6.29468e-06,1.41905e-06,0,1.34429e-06,-1.59847e+09,-1.59912e+09,-1.59931e+09,179664,-0.0686235,0.00539855,-0,0.0688355,28279.2,-55482.9,0,62274.2,179664
step02_gravity_refstate-mantle.xmf,107,5.4372e-06,1.35647e-06,0,1.20049e-06,-1.54446e+09,-1.545e+09,-1.54518e+09,160445,-0.0450347,0.00617428,-0,0.045456,31455.4,-53808.6,0,62328.2,160445
step02_gravity_refstate-mantle.xmf,108,5.87553e-06,1.35104e-06,0,1.29025e-06,-1.5735e+09,-1.5741e+09,-1.57428e+09,172442,-0.0565662,0.0056645,-0,0.0568491,29872.8,-54708.6,0,62333.1,172442
step02_gravity_refstate-mantle.xmf,109,6.89339e-06,4.45543e-06,0,2.68908e-06,-1.59677e+09,-1.5971e+09,-1.5977e+09,359396,-0.127122,0.0178403,-0,0.128368,19413.2,-55442.4,0,58742.9,359396
step02_gravity_refstate-mantle.xmf,110,6.34548e-06,2.03969e-06,0,1.85741e-06,-1.58445e+09,-1.58503e+09,-1.5853e+09,248242,-0.0847468,0.00829176,-0,0.0851515,25450.6,-55052,0,60650.2,248242
step02_gravity_refstate-mantle.xmf,111,2.03983e-06,1.96341e-05,0,7.99413e-08,-1.57238e+09,-1.57003e+09,-1.57266e+09,10684.1,-0.166279,0.114012,-0,0.201612,9895,-54695.3,0,55583.2,10684.1
step02_gravity_refstate-mantle.xmf,112,6.41619e-07,2.39868e-05,0,-2.86336e-06,-1.57146e+09,-1.56834e+09,-1.57154e+09,-382687,-0.16731,0.149924,-0,0.224655,8585.22,-54668.6,0,55338.6,382687
step02_gravity_refstate-mantle.xmf,113,1.91554e-06,2.21154e-05,0,-1.47689e-06,-1.58362e+09,-1.58092e+09,-1.58388e+09,-197386,-0.175731,0.123616,-0,0.214854,9198.94,-55048.1,0,55811.4,197386
step02_gravity_refstate-mantle.xmf,114,1.60865e-06,2.51508e-05,0,-3.4821e-06,-1.59383e+09,-1.59069e+09,-1.59405e+09,-465383,-0.184129,0.134392,-0,0.227958,8529.58,-55369.2,0,56022.3,465383
step02_gravity_refstate-mantle.xmf,115,2.74412e-06,2.31839e-05,0,-2.05236e-06,-1.60642e+09,-1.60369e+09,-1.60679e+09,-274297,-0.191019,0.109635,-0,0.220245,9111.43,-55760.6,0,56500.1,274297
step02_gravity_refstate-mantle.xmf,116,3.84183e-07,2.71971e-05,0,-5.2734e-06,-1.58164e+09,-1.57805e+09,-1.58169e+09,-704791,-0.175757,0.163544,-0,0.240078,7933.54,-54989.5,0,55558.8,704791
step02_gravity_refstate-mantle.xmf,117,3.97845e-06,2.16737e-05,0,-1.1599e-06,-1.62609e+09,-1.62372e+09,-1.62662e+09,-155020,-0.200101,0.0845983,-0,0.21725,9651.76,-56372.4,0,57192.7,155020
step02_gravity_refstate-mantle.xmf,118,5.31495e-06,1.8939e-05,0,2.61978e-08,-1.64171e+09,-1.63989e+09,-1.64242e+09,3501.34,-0.203554,0.0621558,-0,0.212832,10455.4,-56856.9,0,57810.2,3501.34
step02_gravity_refstate-mantle.xmf,119,6.76072e-06,1.71474e-05,0,3.09137e-07,-1.68449e+09,-1.6831e+09,-1.68539e+09,41316.1,-0.213327,0.0315587,-0,0.215649,11121.6,-58183.4,0,59236.8,41316.1
step02_gravity_refstate-mantle.xmf,120,4.6823e-06,1.30382e-06,0,2.69388e-07,-1.4924e+09,-1.49285e+09,-1.49302e+09,36003.7,-0.00797806,0.00664697,-0,0.0103842,38290.2,-52195.3,0,64734,36003.7
step02_gravity_refstate-mantle.xmf,121,5.03477e-06,1.39109e-06,0,1.04342e-06,-1.51598e+09,-1.51647e+09,-1.51665e+09,139453,-0.0341771,0.0067497,-0,0.0348372,33096,-52926.4,0,62422.3,139453
step02_gravity_refstate-mantle.xmf,122,4.64508e-06,1.46425e-06,0,8.39125e-07,-1.48653e+09,-1.48696e+09,-1.48715e+09,112149,-0.0241556,0.0075158,-0,0.0252978,34760.5,-52014.3,0,62560.2,112149
step02_gravity_refstate-mantle.xmf,123,4.70625e-06,8.8015e-06,0,3.39945e-06,-1.55613e+09,-1.55558e+09,-1.55676e+09,454337,-0.137115,0.0455209,-0,0.144474,15401.2,-54183.3,0,56329.6,454337
step02_gravity_refstate-mantle.xmf,124,4.54751e-06,1.40266e-05,0,2.32751e-06,-1.58748e+09,-1.58621e+09,-1.58808e+09,311072,-0.168476,0.0679971,-0,0.181681,12076.5,-55164,0,56470.4,311072
step02_gravity_refstate-mantle.xmf,125,3.24919e-06,1.57953e-05,0,1.88437e-06,-1.5733e+09,-1.57162e+09,-1.57373e+09,251847,-0.163057,0.0854951,-0,0.184111,11333.4,-54721.9,0,55883.2,251847
step02_gravity_refstate-mantle.xmf,126,4.36082e-06,1.25067e-05,0,2.88247e-06,-1.57309e+09,-1.572e+09,-1.57368e+09,385242,-0.157028,0.0640104,-0,0.169574,12880.3,-54714.5,0,56210.1,385242
step02_gravity_refstate-mantle.xmf,127,4.04956e-06,1.12647e-05,0,3.21395e-06,-1.55828e+09,-1.55732e+09,-1.55882e+09,429544,-0.145687,0.0604213,-0,0.157719,13690.3,-54251.8,0,55952.5,429544
step02_gravity_refstate-mantle.xmf,128,6.87278e-06,3.16066e-06,0,2.26026e-06,-1.60148e+09,-1.60198e+09,-1.6024e+09,302084,-0.112475,0.0121306,-0,0.113127,21690.5,-55584.4,0,59666.6,302084
step02_gravity_refstate-mantle.xmf,129,6.36969e-06,3.97005e-06,0,2.69944e-06,-1.57784e+09,-1.57816e+09,-1.57869e+09,360780,-0.114812,0.0172155,-0,0.116095,20555.2,-54852.9,0,58577.7,360780
step02_gravity_refstate-mantle.xmf,130,5.90802e-06,1.87495e-06,0,1.78806e-06,-1.56425e+09,-1.56479e+09,-1.56504e+09,238974,-0.0732588,0.00815141,-0,0.0737109,26857.4,-54424.5,0,60690.6,238974
step02_gravity_refstate-mantle.xmf,131,6.46454e-06,2.84322e-06,0,2.2882e-06,-1.58157e+09,-1.58206e+09,-1.58244e+09,305818,-0.100545,0.0118826,-0,0.101245,22901.5,-54965.8,0,59545.9,305818
step02_gravity_refstate-mantle.xmf,132,6.04386e-06,2.56927e-06,0,2.24016e-06,-1.5622e+09,-1.56266e+09,-1.563e+09,299397,-0.0888917,0.0114655,-0,0.0896281,24186.3,-54363.7,0,59501.2,299397
step02_gravity_refstate-mantle.xmf,133,1.79331e-06,1.75763e-05,0,1.20233e-06,-1.55961e+09,-1.5575e+09,-1.55985e+09,160692,-0.155699,0.105746,-0,0.188213,10620.9,-54293.8,0,55322.8,160692
step02_gravity_refstate-mantle.xmf,134,-9.52249e-07,2.94757e-05,0,-7.52287e-06,-1.57106e+09,-1.56699e+09,-1.57093e+09,-1.00543e+06,-0.166808,0.196543,-0,0.257787,7330.93,-54659.5,0,55148.9,1.00543e+06
step02_gravity_refstate-mantle.xmf,135,-1.07083e-06,2.57489e-05,0,-4.51109e-06,-1.55808e+09,-1.5545e+09,-1.55794e+09,-602907,-0.155695,0.181365,-0,0.239028,7982.96,-54248.5,0,54832.7,602907
step02_gravity_refstate-mantle.xmf,136,-2.46141e-06,2.84543e-05,0,-7.15362e-06,-1.55143e+09,-1.5473e+09,-1.5511e+09,-956081,-0.14814,0.215922,-0,0.261854,7298.39,-54040.6,0,54531.2,956081
step02_gravity_refstate-mantle.xmf,137,4.29801e-07,2.14414e-05,0,-1.06587e-06,-1.55916e+09,-1.55635e+09,-1.55922e+09,-142454,-0.156951,0.138837,-0,0.209546,9253.79,-54280.7,0,55063.9,142454
step02_gravity_refstate-mantle.xmf,138,-2.4998e-06,3.19848e-05,0,-1.02676e-05,-1.56167e+09,-1.55707e+09,-1.56134e+09,-1.37227e+06,-0.157059,0.233387,-0,0.281313,6744.02,-54365.8,0,54782.5,1.37227e+06
step02_gravity_refstate-mantle.xmf,139,1.92696e-06,2.66562e-05,0,-4.03497e-06,-1.61491e+09,-1.61161e+09,-1.61517e+09,-539274,-0.19757,0.11937,-0,0.230831,8457.56,-56026.3,0,56661,539274
step02_gravity_refstate-mantle.xmf,140,8.62737e-07,2.89007e-05,0,-5.91338e-06,-1.60357e+09,-1.59982e+09,-1.60369e+09,-790323,-0.191435,0.145725,-0,0.240589,7892.49,-55674.6,0,56231.2,790323
step02_gravity_refstate-mantle.xmf,141,5.66953e-06,1.9596e-05,0,-2.15583e-07,-1.66864e+09,-1.66678e+09,-1.6694e+09,-28812.7,-0.213422,0.0464477,-0,0.218418,10421.6,-57692.8,0,58626.5,28812.7
step02_gravity_refstate-mantle.xmf,142,7.00649e-06,1.73657e-05,0,1.21349e-07,-1.71418e+09,-1.7128e+09,-1.71512e+09,16218.2,-0.218469,0.015678,-0,0.219031,11119.4,-59103,0,60139.9,16218.2
step02_gravity_refstate-mantle.xmf,143,7.64328e-06,1.57447e-05,0,2.68467e-09,-1.74322e+09,-1.74214e+09,-1.74424e+09,358.806,-0.216574,-1.46913e-18,-0,0.216574,11604.5,-60000,0,61111.9,358.806
step02_gravity_refstate-mantle.xmf,144,-4.26125e-06,3.05722e-05,0,-9.89048e-06,-1.54268e+09,-1.53802e+09,-1.54211e+09,-1.32186e+06,-0.13693,0.252392,-0,0.287144,6740.87,-53763.5,0,54184.5,1.32186e+06
step02_gravity_refstate-mantle.xmf,145,4.28806e-06,1.48838e-06,0,2.38523e-09,-1.45876e+09,-1.45914e+09,-1.45934e+09,318.787,5.59569e-20,0.0080313,0,0.0080313,40000,-51154.3,0,64936.6,318.787
step02_gravity_refstate-mantle.xmf,146,4.26159e-06,1.56483e-06,0,5.78016e-07,-1.45731e+09,-1.45768e+09,-1.45788e+09,77251.9,-0.0148851,0.00845057,-0,0.0171166,36508.3,-51109.5,0,62809.5,77251.9
step02_gravity_refstate-mantle.xmf,147,3.70396e-06,1.01891e-05,0,3.39464e-06,-1.5424e+09,-1.54153e+09,-1.54289e+09,453694,-0.134148,0.0571014,-0,0.145795,14535.7,-53756.1,0,55686.6,453694
step02_gravity_refstate-mantle.xmf,148,5.20142e-06,6.71588e-06,0,3.35055e-06,-1.55316e+09,-1.55296e+09,-1.55386e+09,447801,-0.126333,0.0337832,-0,0.130772,17311.9,-54089.7,0,56792.6,447801
step02_gravity_refstate-mantle.xmf,149,6.11826e-06,5.51114e-06,0,3.07375e-06,-1.57426e+09,-1.57434e+09,-1.57508e+09,410807,-0.127711,0.0249203,-0,0.13012,18346.4,-54744.4,0,57736.8,410807
step02_gravity_refstate-mantle.xmf,150,4.00535e-06,8.16365e-06,0,3.48551e-06,-1.53134e+09,-1.53078e+09,-1.53187e+09,465838,-0.12231,0.0456981,-0,0.130568,16240.5,-53411.2,0,55825.7,465838
step02_gravity_refstate-mantle.xmf,151,5.52299e-06,1.77264e-06,0,1.70084e-06,-1.54035e+09,-1.54085e+09,-1.54109e+09,227318,-0.0615366,0.00821994,-0,0.0620832,28350.4,-53683.4,0,60709.6,227318
step02_gravity_refstate-mantle.xmf,152,4.65515e-06,1.74082e-06,0,1.38417e-06,-1.4849e+09,-1.48529e+09,-1.48552e+09,184995,-0.0391743,0.00901166,-0,0.0401974,31489.5,-51964.7,0,60761.2,184995
step02_gravity_refstate-mantle.xmf,153,5.07713e-06,1.73803e-06,0,1.57016e-06,-1.51293e+09,-1.51337e+09,-1.51361e+09,209852,-0.0500386,0.00855072,-0,0.0507639,29887.3,-52833.2,0,60700.9,209852
step02_gravity_refstate-mantle.xmf,154,5.73395e-06,4.93784e-06,0,3.09086e-06,-1.55503e+09,-1.55513e+09,-1.55579e+09,413093,-0.11527,0.0238274,-0,0.117707,19443.6,-54146.3,0,57531.5,413093
step02_gravity_refstate-mantle.xmf,155,5.58374e-06,2.39039e-06,0,2.17429e-06,-1.53929e+09,-1.53972e+09,-1.54003e+09,290593,-0.0772104,0.0113425,-0,0.0780391,25489.6,-53652.6,0,59399.7,290593
step02_gravity_refstate-mantle.xmf,156,2.43604e-07,1.93965e-05,0,2.65688e-07,-1.54618e+09,-1.54362e+09,-1.54621e+09,35509.2,-0.146266,0.129519,-0,0.195369,9917.2,-53873.2,0,54778.4,35509.2
step02_gravity_refstate-mantle.xmf,157,-2.96818e-06,2.60892e-05,0,-5.24087e-06,-1.54084e+09,-1.53696e+09,-1.54044e+09,-700443,-0.138577,0.204949,-0,0.247401,7750.06,-53704,0,54260.3,700443
step02_gravity_refstate-mantle.xmf,158,-5.93748e-07,2.30808e-05,0,-2.39695e-06,-1.55268e+09,-1.54952e+09,-1.5526e+09,-320352,-0.151444,0.1604,-0,0.220598,8692.28,-54077.9,0,54772.1,320352
step02_gravity_refstate-mantle.xmf,159,-2.98841e-06,3.67104e-05,0,-1.40713e-05,-1.57105e+09,-1.56575e+09,-1.57065e+09,-1.88063e+06,-0.164695,0.253486,-0,0.30229,6192.21,-54664.3,0,55013.9,1.88063e+06
step02_gravity_refstate-mantle.xmf,160,-4.37876e-06,3.46155e-05,0,-1.34211e-05,-1.55213e+09,-1.54692e+09,-1.55155e+09,-1.79373e+06,-0.145161,0.274574,-0,0.310584,6196.78,-54065.2,0,54419.2,1.79373e+06
step02_gravity_refstate-mantle.xmf,161,-1.45855e-06,3.38685e-05,0,-1.09742e-05,-1.58142e+09,-1.57669e+09,-1.58122e+09,-1.4667e+06,-0.174993,0.213156,-0,0.275786,6739.35,-54987.4,0,55398.8,1.4667e+06
step02_gravity_refstate-mantle.xmf,162,-2.49836e-07,3.1267e-05,0,-8.2203e-06,-1.59209e+09,-1.58788e+09,-1.59206e+09,-1.09864e+06,-0.183732,0.177189,-0,0.255252,7315.02,-55318.5,0,55800,1.09864e+06
step02_gravity_refstate-mantle.xmf,163,2.85333e-06,2.47434e-05,0,-2.72591e-06,-1.62459e+09,-1.62167e+09,-1.62497e+09,-364319,-0.201705,0.0998034,-0,0.225046,8947.58,-56326.6,0,57032.8,364319
step02_gravity_refstate-mantle.xmf,164,4.41357e-06,2.23179e-05,0,-1.17782e-06,-1.65409e+09,-1.6517e+09,-1.65468e+09,-157416,-0.212056,0.0645056,-0,0.22165,9710.92,-57242,0,58059.9,157416
step02_gravity_refstate-mantle.xmf,165,5.76073e-06,2.0233e-05,0,-2.6448e-07,-1.69474e+09,-1.69281e+09,-1.69551e+09,-35347.7,-0.220169,0.0307077,-0,0.2223,10379.4,-58501.4,0,59415,35347.7
step02_gravity_refstate-mantle.xmf,166,-4.42667e-06,2.76254e-05,0,-7.2339e-06,-1.53309e+09,-1.52881e+09,-1.5325e+09,-966811,-0.128639,0.23348,-0,0.266572,7272.34,-53458.9,0,53951.3,966811
step02_gravity_refstate-mantle.xmf,167,3.86209e-06,1.72583e-06,0,2.94008e-07,-1.4241e+09,-1.42438e+09,-1.42461e+09,39294.2,-0.00655562,0.00984751,-0,0.01183,38299.4,-50081.1,0,63047.3,39294.2
step02_gravity_refstate-mantle.xmf,168,4.25121e-06,1.78316e-06,0,1.15686e-06,-1.45603e+09,-1.45636e+09,-1.45659e+09,154614,-0.0291894,0.00968348,-0,0.0307537,33123.1,-51070.2,0,60871.2,154614
step02_gravity_refstate-mantle.xmf,169,3.85252e-06,1.86463e-06,0,8.91153e-07,-1.42572e+09,-1.42599e+09,-1.42624e+09,119103,-0.0200433,0.0106302,-0,0.0226878,34813.4,-50131.7,0,61034,119103
step02_gravity_refstate-mantle.xmf,170,3.38346e-06,9.38071e-06,0,3.43583e-06,-1.52767e+09,-1.52687e+09,-1.52812e+09,459198,-0.12413,0.0546426,-0,0.135625,15275.5,-53297,0,55442.8,459198
step02_gravity_refstate-mantle.xmf,171,1.48849e-06,1.58429e-05,0,1.99008e-06,-1.54504e+09,-1.54312e+09,-1.54524e+09,265975,-0.144147,0.0986419,-0,0.174667,11382,-53837.2,0,55027.2,265975
step02_gravity_refstate-mantle.xmf,172,2.93337e-06,1.41417e-05,0,2.55893e-06,-1.55811e+09,-1.55662e+09,-1.55851e+09,342000,-0.15106,0.0801881,-0,0.171024,12128.9,-54246.5,0,55585.9,342000
step02_gravity_refstate-mantle.xmf,173,2.68408e-06,1.28122e-05,0,2.97165e-06,-1.54261e+09,-1.54126e+09,-1.54297e+09,397161,-0.1394,0.0756336,-0,0.158596,12914.1,-53762.6,0,55291.9,397161
step02_gravity_refstate-mantle.xmf,174,2.3864e-06,1.16652e-05,0,3.1859e-06,-1.52727e+09,-1.52603e+09,-1.52759e+09,425796,-0.128381,0.0712576,-0,0.146831,13713.2,-53283.8,0,55020.1,425796
step02_gravity_refstate-mantle.xmf,175,5.92339e-06,3.57341e-06,0,2.67497e-06,-1.55821e+09,-1.55853e+09,-1.559e+09,357509,-0.102757,0.0165585,-0,0.104083,21733,-54242.4,0,58434.3,357509
step02_gravity_refstate-mantle.xmf,176,5.24264e-06,4.44834e-06,0,3.01198e-06,-1.53531e+09,-1.53542e+09,-1.53601e+09,402551,-0.103114,0.0226635,-0,0.105576,20591,-53532.8,0,57356.3,402551
step02_gravity_refstate-mantle.xmf,177,5.04973e-06,2.28432e-06,0,2.07209e-06,-1.51195e+09,-1.51232e+09,-1.51263e+09,276934,-0.0651902,0.0115035,-0,0.0661974,26868.5,-52804.4,0,59247.1,276934
step02_gravity_refstate-mantle.xmf,178,5.55226e-06,3.24193e-06,0,2.61597e-06,-1.5383e+09,-1.53861e+09,-1.53904e+09,349624,-0.0910745,0.015856,-0,0.0924445,22957.8,-53624,0,58331.8,349624
step02_gravity_refstate-mantle.xmf,179,5.14204e-06,2.98293e-06,0,2.50909e-06,-1.51749e+09,-1.51778e+09,-1.51818e+09,335340,-0.079815,0.0152777,-0,0.0812641,24206.5,-52977.8,0,58246.1,335340
step02_gravity_refstate-mantle.xmf,180,-8.42555e-08,1.7584e-05,0,1.17155e-06,-1.53331e+09,-1.53095e+09,-1.5333e+09,156578,-0.136091,0.119691,-0,0.181236,10646.7,-53469,0,54518.7,156578
step02_gravity_refstate-mantle.xmf,181,-2.49569e-06,2.38928e-05,0,-3.23864e-06,-1.5373e+09,-1.53377e+09,-1.53697e+09,-432844,-0.136674,0.184019,-0,0.229222,8344.02,-53592.1,0,54237.8,432844
step02_gravity_refstate-mantle.xmf,182,-1.67099e-06,2.15046e-05,0,-1.29471e-06,-1.53387e+09,-1.53077e+09,-1.53365e+09,-173038,-0.135178,0.159794,-0,0.209302,9123.05,-53485.6,0,54258.1,173038
step02_gravity_refstate-mantle.xmf,183,-5.15477e-06,3.9973e-05,0,-1.77723e-05,-1.56132e+09,-1.55529e+09,-1.56064e+09,-2.37527e+06,-0.152852,0.297341,-0,0.334329,5687.02,-54357.7,0,54654.4,2.37527e+06
step02_gravity_refstate-mantle.xmf,184,3.07226e-06,2.53111e-05,0,-2.58886e-06,-1.64372e+09,-1.64075e+09,-1.64413e+09,-346001,-0.210478,0.0834894,-0,0.226432,9019.14,-56920.3,0,57630.5,346001
step02_gravity_refstate-mantle.xmf,185,1.80128e-06,2.81702e-05,0,-4.24729e-06,-1.63494e+09,-1.63141e+09,-1.63518e+09,-567650,-0.208007,0.10345,-0,0.232312,8412.55,-56647.8,0,57269.1,567650
step02_gravity_refstate-mantle.xmf,186,5.91591e-07,3.09189e-05,0,-6.28513e-06,-1.62455e+09,-1.6205e+09,-1.62463e+09,-840007,-0.203564,0.127871,-0,0.240394,7839.4,-56326.1,0,56869,840007
step02_gravity_refstate-mantle.xmf,187,-5.30134e-07,3.36474e-05,0,-8.75808e-06,-1.61362e+09,-1.60905e+09,-1.61355e+09,-1.17052e+06,-0.197602,0.156755,-0,0.252227,7280.76,-55987.7,0,56459.1,1.17052e+06
step02_gravity_refstate-mantle.xmf,188,4.46398e-06,2.31049e-05,0,-1.09414e-06,-1.67937e+09,-1.67688e+09,-1.67997e+09,-146232,-0.220097,0.0468477,-0,0.225028,9699.72,-58025.4,0,58830.5,146232
step02_gravity_refstate-mantle.xmf,189,5.45995e-06,2.13964e-05,0,-2.26527e-07,-1.72022e+09,-1.71809e+09,-1.72095e+09,-30275.3,-0.224897,0.0152882,-0,0.225416,10187.6,-59289.3,0,60158.2,30275.3
step02_gravity_refstate-mantle.xmf,190,6.42551e-06,1.91712e-05,0,8.08503e-09,-1.7432e+09,-1.7415e+09,-1.74406e+09,1080.56,-0.222944,-1.42991e-18,-0,0.222944,10697.4,-60000,0,60946.2,1080.56
step02_gravity_refstate-mantle.xmf,191,-4.60738e-06,2.52114e-05,0,-5.01494e-06,-1.5243e+09,-1.52031e+09,-1.52368e+09,-670247,-0.121791,0.213978,-0,0.24621,7852.58,-53179.7,0,53756.4,670247
step02_gravity_refstate-mantle.xmf,192,-6.56428e-06,3.26611e-05,0,-1.35262e-05,-1.53356e+09,-1.52831e+09,-1.53268e+09,-1.80778e+06,-0.123205,0.29422,-0,0.318974,6201.68,-53471.8,0,53830.2,1.80778e+06
step02_gravity_refstate-mantle.xmf,193,-6.53946e-06,2.9294e-05,0,-1.01631e-05,-1.52415e+09,-1.51936e+09,-1.52328e+09,-1.3583e+06,-0.115365,0.270298,-0,0.293887,6736.83,-53172.9,0,53597.9,1.3583e+06
step02_gravity_refstate-mantle.xmf,194,3.38963e-06,1.95238e-06,0,3.64051e-09,-1.38739e+09,-1.38758e+09,-1.38784e+09,486.554,3.30007e-20,0.0118309,0,0.0118309,40000,-48944.6,0,63210.5,486.554
step02_gravity_refstate-mantle.xmf,195,3.41747e-06,1.99656e-06,0,5.91634e-07,-1.39255e+09,-1.39274e+09,-1.393e+09,79071.9,-0.0119196,0.0120131,-0,0.0169231,36536.6,-49104.2,0,61205.8,79071.9
step02_gravity_refstate-mantle.xmf,196,2.15234e-06,1.05813e-05,0,3.27857e-06,-1.51139e+09,-1.51027e+09,-1.51168e+09,438181,-0.11755,0.0666744,-0,0.135142,14581.3,-52789,0,54765.8,438181
step02_gravity_refstate-mantle.xmf,197,3.71767e-06,7.28737e-06,0,3.42444e-06,-1.51464e+09,-1.51417e+09,-1.51514e+09,457676,-0.110963,0.0422132,-0,0.118722,17304.4,-52891.4,0,55650.2,457676
step02_gravity_refstate-mantle.xmf,198,4.7523e-06,6.06115e-06,0,3.33422e-06,-1.53323e+09,-1.53305e+09,-1.53386e+09,445618,-0.113709,0.0322356,-0,0.11819,18359.5,-53469.2,0,56533.4,445618
step02_gravity_refstate-mantle.xmf,199,2.03464e-06,9.4858e-06,0,3.28383e-06,-1.49694e+09,-1.49594e+09,-1.49721e+09,438884,-0.107897,0.0610142,-0,0.123954,15558.8,-52338.9,0,54602.5,438884
step02_gravity_refstate-mantle.xmf,200,4.62063e-06,2.21091e-06,0,1.92477e-06,-1.48351e+09,-1.48384e+09,-1.48413e+09,257246,-0.053492,0.0117252,-0,0.054762,28351,-51922.8,0,59158.8,257246
step02_gravity_refstate-mantle.xmf,201,3.77154e-06,2.17712e-06,0,1.46192e-06,-1.42587e+09,-1.42608e+09,-1.42637e+09,195386,-0.032608,0.0125771,-0,0.0349494,31510.8,-50136.4,0,59216.4,195386
step02_gravity_refstate-mantle.xmf,202,4.16623e-06,2.1813e-06,0,1.71333e-06,-1.45414e+09,-1.45441e+09,-1.4547e+09,228986,-0.0424684,0.0121004,-0,0.0441586,29907.9,-51012.4,0,59133.3,228986
step02_gravity_refstate-mantle.xmf,203,4.42839e-06,5.4678e-06,0,3.26931e-06,-1.51293e+09,-1.51279e+09,-1.51352e+09,436943,-0.101472,0.0305345,-0,0.105966,19467.5,-52838.6,0,56310.8,436943
step02_gravity_refstate-mantle.xmf,204,4.73719e-06,2.80759e-06,0,2.38332e-06,-1.4955e+09,-1.49576e+09,-1.49614e+09,318531,-0.0693005,0.0149924,-0,0.0709037,25411.6,-52295.5,0,58142.6,318531
step02_gravity_refstate-mantle.xmf,205,-1.88904e-06,1.9351e-05,0,1.93944e-08,-1.52011e+09,-1.51727e+09,-1.51985e+09,2592.06,-0.124643,0.145271,-0,0.191415,9922.11,-53053.5,0,53973.4,2592.06
step02_gravity_refstate-mantle.xmf,206,-6.99098e-06,3.72932e-05,0,-1.78073e-05,-1.54279e+09,-1.53687e+09,-1.54186e+09,-2.37995e+06,-0.131117,0.320379,-0,0.346171,5684.6,-53766.1,0,54065.8,2.37995e+06
step02_gravity_refstate-mantle.xmf,207,-4.21842e-06,4.28714e-05,0,-1.8415e-05,-1.57986e+09,-1.57357e+09,-1.5793e+09,-2.46116e+06,-0.170775,0.274349,-0,0.323159,5667.54,-54944,0,55235.6,2.46116e+06
step02_gravity_refstate-mantle.xmf,208,-2.81446e-06,3.9565e-05,0,-1.49867e-05,-1.59105e+09,-1.58539e+09,-1.59067e+09,-2.00297e+06,-0.181263,0.230728,-0,0.293414,6172.15,-55290.5,0,55634,2.00297e+06
step02_gravity_refstate-mantle.xmf,209,-1.65502e-06,3.64174e-05,0,-1.1621e-05,-1.60198e+09,-1.59689e+09,-1.60176e+09,-1.55315e+06,-0.189928,0.191245,-0,0.269532,6726.51,-55627.8,0,56033,1.55315e+06
step02_gravity_refstate-mantle.xmf,210,2.95754e-06,2.63481e-05,0,-2.35058e-06,-1.66742e+09,-1.66429e+09,-1.66781e+09,-314155,-0.219125,0.0644327,-0,0.228402,9025.56,-57654.2,0,58356.4,314155
step02_gravity_refstate-mantle.xmf,211,4.44268e-06,2.3428e-05,0,-7.1189e-07,-1.70166e+09,-1.69912e+09,-1.70225e+09,-95144.1,-0.224751,0.0305614,-0,0.226819,9726.39,-58714.4,0,59514.6,95144.1
step02_gravity_refstate-mantle.xmf,212,-6.62157e-06,2.6709e-05,0,-7.55121e-06,-1.51456e+09,-1.51011e+09,-1.51368e+09,-1.00922e+06,-0.107938,0.248469,-0,0.270901,7292.66,-52869.5,0,53370.1,1.00922e+06
step02_gravity_refstate-mantle.xmf,213,2.93595e-06,2.20181e-06,0,2.90965e-07,-1.35379e+09,-1.35389e+09,-1.35418e+09,38887.5,-0.00496956,0.0141171,-0,0.0149662,38308.4,-47904.3,0,61338,38887.5
step02_gravity_refstate-mantle.xmf,214,3.38631e-06,2.21403e-06,0,1.18165e-06,-1.39632e+09,-1.39648e+09,-1.39677e+09,157927,-0.0236826,0.0133598,-0,0.0271909,33154.3,-49221.2,0,59345.9,157927
step02_gravity_refstate-mantle.xmf,215,2.9975e-06,2.29628e-06,0,8.86525e-07,-1.36511e+09,-1.36521e+09,-1.36551e+09,118484,-0.0158932,0.0145393,-0,0.0215403,34800.6,-48254.8,0,59494.6,118484
step02_gravity_refstate-mantle.xmf,216,-3.51949e-07,1.6074e-05,0,1.73296e-06,-1.51893e+09,-1.51673e+09,-1.51888e+09,231610,-0.125392,0.111916,-0,0.168072,11370.8,-53018.9,0,54224.6,231610
step02_gravity_refstate-mantle.xmf,217,1.01201e-06,1.43614e-05,0,2.48351e-06,-1.527e+09,-1.52522e+09,-1.52713e+09,331921,-0.130787,0.0930699,-0,0.160522,12191.5,-53273.1,0,54650.3,331921
step02_gravity_refstate-mantle.xmf,218,8.06969e-07,1.32041e-05,0,2.74214e-06,-1.5113e+09,-1.50965e+09,-1.51141e+09,366487,-0.119875,0.0882677,-0,0.148866,12921,-52783.9,0,54342.3,366487
step02_gravity_refstate-mantle.xmf,219,6.25418e-07,1.20391e-05,0,2.85543e-06,-1.49534e+09,-1.49382e+09,-1.49543e+09,381628,-0.109435,0.0826002,-0,0.137109,13750,-52286.6,0,54064.3,381628
step02_gravity_refstate-mantle.xmf,220,2.74537e-06,8.33972e-06,0,3.38539e-06,-1.49927e+09,-1.49852e+09,-1.49964e+09,452458,-0.106754,0.0518231,-0,0.118668,16510.2,-52412.7,0,54951.6,452458
step02_gravity_refstate-mantle.xmf,221,4.85598e-06,4.0294e-06,0,2.90867e-06,-1.51548e+09,-1.51559e+09,-1.51613e+09,388744,-0.091486,0.021468,-0,0.0939711,21780.6,-52916.5,0,57223.7,388744
step02_gravity_refstate-mantle.xmf,222,4.0343e-06,4.93747e-06,0,3.11806e-06,-1.49331e+09,-1.49319e+09,-1.49385e+09,416729,-0.0900237,0.0286145,-0,0.0944619,20636,-52228.4,0,56157.4,416729
step02_gravity_refstate-mantle.xmf,223,3.9895e-06,2.83535e-06,0,2.25893e-06,-1.45367e+09,-1.45383e+09,-1.45421e+09,301906,-0.0554058,0.0163621,-0,0.0577713,26708.4,-50998.5,0,57568.9,301906
step02_gravity_refstate-mantle.xmf,224,4.19521e-06,3.41166e-06,0,2.63307e-06,-1.4747e+09,-1.47481e+09,-1.47526e+09,351910,-0.0700784,0.0195103,-0,0.0727436,24211.1,-51650.9,0,57043.7,351910
step02_gravity_refstate-mantle.xmf,225,4.53189e-06,3.6921e-06,0,2.7923e-06,-1.49498e+09,-1.49509e+09,-1.49559e+09,373191,-0.0804164,0.0204547,-0,0.082977,22982.2,-52280.3,0,57108.8,373191
step02_gravity_refstate-mantle.xmf,226,-2.06425e-06,1.76811e-05,0,7.69623e-07,-1.50776e+09,-1.50512e+09,-1.50749e+09,102860,-0.115926,0.133579,-0,0.176868,10657.7,-52666.7,0,53734.3,102860
step02_gravity_refstate-mantle.xmf,227,-4.466e-06,2.30116e-05,0,-3.09791e-06,-1.51562e+09,-1.51195e+09,-1.51503e+09,-414036,-0.115955,0.193543,-0,0.225621,8518.24,-52907.2,0,53588.5,414036
step02_gravity_refstate-mantle.xmf,228,-4.15665e-06,2.10617e-05,0,-1.65119e-06,-1.50625e+09,-1.50288e+09,-1.50569e+09,-220682,-0.11004,0.175412,-0,0.20707,9213.73,-52614.6,0,53415.2,220682
step02_gravity_refstate-mantle.xmf,229,-8.0247e-06,4.29853e-05,0,-2.25121e-05,-1.55208e+09,-1.54526e+09,-1.551e+09,-3.00875e+06,-0.139101,0.344403,-0,0.371433,5232.25,-54060.5,0,54313.1,3.00875e+06
step02_gravity_refstate-mantle.xmf,230,-6.60713e-06,4.67294e-05,0,-2.22405e-05,-1.57058e+09,-1.56345e+09,-1.56969e+09,-2.97244e+06,-0.159712,0.319312,-0,0.357027,5211.36,-54651.1,0,54899,2.97244e+06
step02_gravity_refstate-mantle.xmf,231,1.40838e-06,2.96275e-05,0,-3.99823e-06,-1.65649e+09,-1.65271e+09,-1.65667e+09,-534364,-0.216799,0.0845284,-0,0.232695,8396.45,-57314.6,0,57926.4,534364
step02_gravity_refstate-mantle.xmf,232,-1.40532e-07,3.29407e-05,0,-6.07351e-06,-1.64584e+09,-1.64142e+09,-1.64582e+09,-811725,-0.21313,0.107781,-0,0.238833,7805.38,-56983.9,0,57516,811725
step02_gravity_refstate-mantle.xmf,233,-1.72553e-06,3.64506e-05,0,-8.68167e-06,-1.63523e+09,-1.63013e+09,-1.635e+09,-1.16031e+06,-0.208162,0.135275,-0,0.248256,7224.26,-56654.5,0,57113.3,1.16031e+06
step02_gravity_refstate-mantle.xmf,234,-3.64024e-06,4.0774e-05,0,-1.23008e-05,-1.62492e+09,-1.61899e+09,-1.62444e+09,-1.64401e+06,-0.201871,0.169461,-0,0.26357,6594.11,-56334.4,0,56719,1.64401e+06
step02_gravity_refstate-mantle.xmf,235,2.67549e-06,2.73639e-05,0,-1.67254e-06,-1.69581e+09,-1.69251e+09,-1.69617e+09,-223534,-0.226216,0.0409641,-0,0.229895,9014.4,-58532,0,59222,223534
step02_gravity_refstate-mantle.xmf,236,3.54721e-06,2.56587e-05,0,-6.14925e-07,-1.72098e+09,-1.71803e+09,-1.72145e+09,-82184.8,-0.228578,0.017782,-0,0.229268,9385.45,-59311,0,60049,82184.8
step02_gravity_refstate-mantle.xmf,237,4.67484e-06,2.33401e-05,0,1.89588e-08,-1.74323e+09,-1.74074e+09,-1.74386e+09,2533.84,-0.227767,-1.66842e-18,-0,0.227767,9827.13,-60000,0,60799.4,2533.84
step02_gravity_refstate-mantle.xmf,238,-6.8543e-06,2.4524e-05,0,-5.53252e-06,-1.50391e+09,-1.49972e+09,-1.50299e+09,-739421,-0.100228,0.228559,-0,0.249569,7886.23,-52533.3,0,53121.9,739421
step02_gravity_refstate-mantle.xmf,239,-9.1963e-06,3.42955e-05,0,-1.8439e-05,-1.52441e+09,-1.51859e+09,-1.52318e+09,-2.46437e+06,-0.107292,0.340755,-0,0.357247,5694.48,-53175.7,0,53479.8,2.46437e+06
step02_gravity_refstate-mantle.xmf,240,-9.01272e-06,2.78954e-05,0,-1.09758e-05,-1.50493e+09,-1.5e+09,-1.50373e+09,-1.46692e+06,-0.0921162,0.287677,-0,0.302066,6739.7,-52559,0,52989.3,1.46692e+06
step02_gravity_refstate-mantle.xmf,241,-9.01907e-06,3.06142e-05,0,-1.41869e-05,-1.51472e+09,-1.50943e+09,-1.51352e+09,-1.89609e+06,-0.0993966,0.312933,-0,0.32834,6207.18,-52868.4,0,53231.5,1.89609e+06
step02_gravity_refstate-mantle.xmf,242,2.43966e-06,2.43287e-06,0,7.79047e-09,-1.31589e+09,-1.31589e+09,-1.31621e+09,1041.2,-3.33367e-21,0.0166856,-0,0.0166856,40000,-46730.8,0,61512.3,1041.2
step02_gravity_refstate-mantle.xmf,243,2.54389e-06,2.43406e-06,0,5.67769e-07,-1.32924e+09,-1.32926e+09,-1.32958e+09,75882.3,-0.00910005,0.0163727,-0,0.0187317,36489.3,-47144.1,0,59615.7,75882.3
step02_gravity_refstate-mantle.xmf,244,5.47847e-07,1.09135e-05,0,2.89368e-06,-1.47877e+09,-1.47739e+09,-1.47885e+09,386740,-0.0993338,0.0767538,-0,0.125532,14654.5,-51771.4,0,53805.5,386740
step02_gravity_refstate-mantle.xmf,245,2.27264e-06,7.95141e-06,0,3.26652e-06,-1.48044e+09,-1.47968e+09,-1.48075e+09,436571,-0.0966421,0.0517786,-0,0.109639,17105.1,-51827,0,54576.7,436571
step02_gravity_refstate-mantle.xmf,246,3.16048e-06,6.74315e-06,0,3.33596e-06,-1.48824e+09,-1.48776e+09,-1.48866e+09,445852,-0.0967828,0.0416728,-0,0.105373,18274.6,-52070.5,0,55184.2,445852
step02_gravity_refstate-mantle.xmf,247,1.58967e-06,8.87745e-06,0,3.14628e-06,-1.47479e+09,-1.47382e+09,-1.475e+09,420500,-0.0955457,0.0602744,-0,0.112969,16295.8,-51650.2,0,54159.9,420500
step02_gravity_refstate-mantle.xmf,248,2.83192e-06,2.63042e-06,0,1.43081e-06,-1.36694e+09,-1.36697e+09,-1.36732e+09,191228,-0.0255629,0.0169401,-0,0.0306664,31536.2,-48311.1,0,57693.1,191228
step02_gravity_refstate-mantle.xmf,249,3.63869e-06,2.68536e-06,0,2.00296e-06,-1.42836e+09,-1.42849e+09,-1.42885e+09,267695,-0.0447447,0.0159502,-0,0.0475026,28318,-50213.8,0,57648.4,267695
step02_gravity_refstate-mantle.xmf,250,3.20749e-06,2.63697e-06,0,1.72175e-06,-1.39691e+09,-1.39698e+09,-1.39734e+09,230112,-0.034252,0.016314,-0,0.0379387,29959.9,-49239.2,0,57637.6,230112
step02_gravity_refstate-mantle.xmf,251,3.08009e-06,5.96023e-06,0,3.20509e-06,-1.47156e+09,-1.47118e+09,-1.47197e+09,428360,-0.0865214,0.0376136,-0,0.0943437,19520.3,-51552.9,0,55124.8,428360
step02_gravity_refstate-mantle.xmf,252,3.81753e-06,3.26795e-06,0,2.48403e-06,-1.45254e+09,-1.45261e+09,-1.45305e+09,331991,-0.0608845,0.0193992,-0,0.0639003,25236.9,-50963.2,0,56869.6,331991
step02_gravity_refstate-mantle.xmf,253,-4.07639e-06,1.92598e-05,0,-6.40723e-07,-1.4942e+09,-1.49108e+09,-1.49366e+09,-85632.6,-0.102394,0.160187,-0,0.190117,9951.27,-52238.4,0,53177.8,85632.6
step02_gravity_refstate-mantle.xmf,254,-9.83668e-06,3.91167e-05,0,-2.34131e-05,-1.53386e+09,-1.52732e+09,-1.53255e+09,-3.12916e+06,-0.11559,0.367659,-0,0.385402,5242.68,-53475.9,0,53732.3,3.12916e+06
step02_gravity_refstate-mantle.xmf,255,-9.94698e-06,5.05439e-05,0,-2.70824e-05,-1.5615e+09,-1.55342e+09,-1.56017e+09,-3.61956e+06,-0.14664,0.36493,-0,0.393291,4836.11,-54358.2,0,54572.9,3.61956e+06
step02_gravity_refstate-mantle.xmf,256,-6.6068e-06,5.09867e-05,0,-2.28358e-05,-1.58874e+09,-1.58104e+09,-1.58785e+09,-3.052e+06,-0.17502,0.294323,-0,0.34243,5168.61,-55222.9,0,55464.2,3.052e+06
step02_gravity_refstate-mantle.xmf,257,-9.07985e-06,5.60196e-05,0,-2.64672e-05,-1.57952e+09,-1.57082e+09,-1.57831e+09,-3.53734e+06,-0.164968,0.336284,-0,0.374568,4809.02,-54934.6,0,55144.7,3.53734e+06
step02_gravity_refstate-mantle.xmf,258,-4.91663e-06,4.65384e-05,0,-1.96177e-05,-1.59754e+09,-1.59066e+09,-1.59688e+09,-2.62191e+06,-0.183347,0.253076,-0,0.312511,5612.42,-55494.6,0,55777.7,2.62191e+06
step02_gravity_refstate-mantle.xmf,259,-4.21134e-06,4.29636e-05,0,-1.54737e-05,-1.60959e+09,-1.60328e+09,-1.60902e+09,-2.06807e+06,-0.192562,0.20923,-0,0.284354,6130.65,-55862.4,0,56197.8,2.06807e+06
step02_gravity_refstate-mantle.xmf,260,8.63043e-07,3.10001e-05,0,-3.28475e-06,-1.67996e+09,-1.67593e+09,-1.68008e+09,-439007,-0.223821,0.0627989,-0,0.232464,8381.85,-58039.6,0,58641.8,439007
step02_gravity_refstate-mantle.xmf,261,-8.98964e-06,2.57613e-05,0,-8.55718e-06,-1.49488e+09,-1.49024e+09,-1.49368e+09,-1.14367e+06,-0.0854055,0.265193,-0,0.278606,7286.86,-52243.2,0,52748.9,1.14367e+06
step02_gravity_refstate-mantle.xmf,262,1.87531e-06,2.72264e-06,0,3.09725e-07,-1.27625e+09,-1.27614e+09,-1.2765e+09,41394.7,-0.00392321,0.0201069,-0,0.020486,37937.2,-45503.4,0,59243.5,41394.7
step02_gravity_refstate-mantle.xmf,263,2.4664e-06,2.64965e-06,0,1.11302e-06,-1.33727e+09,-1.33724e+09,-1.3376e+09,148755,-0.0180353,0.0177927,-0,0.0253349,33172.8,-47391.9,0,57848.3,148755
step02_gravity_refstate-mantle.xmf,264,2.10706e-06,2.73303e-06,0,8.1995e-07,-1.30367e+09,-1.30359e+09,-1.30395e+09,109586,-0.0116573,0.0193618,-0,0.0226002,34736.4,-46352.1,0,57923.5,109586
step02_gravity_refstate-mantle.xmf,265,4.23752e-07,9.93914e-06,0,2.82735e-06,-1.46153e+09,-1.46026e+09,-1.46159e+09,377875,-0.0895782,0.0719017,-0,0.114866,15542.9,-51235.4,0,53541.1,377875
step02_gravity_refstate-mantle.xmf,266,-2.27462e-06,1.65659e-05,0,1.07725e-06,-1.49471e+09,-1.49219e+09,-1.4944e+09,143975,-0.106909,0.127851,-0,0.16666,11204.9,-52259.2,0,53447,143975
step02_gravity_refstate-mantle.xmf,267,-1.23952e-06,1.50235e-05,0,1.85666e-06,-1.49474e+09,-1.49257e+09,-1.49457e+09,248142,-0.108426,0.111073,-0,0.155221,12013.4,-52263.2,0,53626.1,248142
step02_gravity_refstate-mantle.xmf,268,-1.10282e-06,1.35523e-05,0,2.13593e-06,-1.47991e+09,-1.47795e+09,-1.47976e+09,285467,-0.0994559,0.101439,-0,0.142061,12918.4,-51802.1,0,53388.6,285467
step02_gravity_refstate-mantle.xmf,269,-1.07633e-06,1.23086e-05,0,2.21929e-06,-1.46292e+09,-1.46113e+09,-1.46278e+09,296608,-0.0897733,0.0942787,-0,0.130183,13794.6,-51274.4,0,53097.6,296608
step02_gravity_refstate-mantle.xmf,270,7.31888e-07,8.85693e-06,0,2.8904e-06,-1.44861e+09,-1.44752e+09,-1.4487e+09,386302,-0.0825176,0.0645394,-0,0.104759,16604.9,-50835.5,0,53478.7,386302
step02_gravity_refstate-mantle.xmf,271,3.71848e-06,4.50234e-06,0,2.96693e-06,-1.47291e+09,-1.47281e+09,-1.47341e+09,396530,-0.0791332,0.0269991,-0,0.0836123,21811.4,-51595.2,0,56016.1,396530
step02_gravity_refstate-mantle.xmf,272,2.77782e-06,5.41019e-06,0,3.0254e-06,-1.45063e+09,-1.45028e+09,-1.451e+09,404344,-0.0757283,0.0352666,-0,0.0835374,20681,-50903,0,54943.7,404344
step02_gravity_refstate-mantle.xmf,273,2.94012e-06,3.56373e-06,0,2.40093e-06,-1.40952e+09,-1.40943e+09,-1.40991e+09,320884,-0.0499537,0.0230718,-0,0.0550244,25607.5,-49629.3,0,55846.3,320884
step02_gravity_refstate-mantle.xmf,274,3.14848e-06,3.85383e-06,0,2.61612e-06,-1.42929e+09,-1.42919e+09,-1.42971e+09,349644,-0.058791,0.0245359,-0,0.0637055,24246,-50242.2,0,55786.6,349644
step02_gravity_refstate-mantle.xmf,275,3.44579e-06,4.14321e-06,0,2.80811e-06,-1.4511e+09,-1.45101e+09,-1.45156e+09,375304,-0.0685356,0.0256554,-0,0.0731801,23026.2,-50918.8,0,55883.1,375304
step02_gravity_refstate-mantle.xmf,276,-4.04558e-06,1.7759e-05,0,-3.60135e-08,-1.48198e+09,-1.47906e+09,-1.48144e+09,-4813.21,-0.0950644,0.148256,-0,0.176116,10644.5,-51857.2,0,52938.4,4813.21
step02_gravity_refstate-mantle.xmf,277,-6.76215e-06,2.25678e-05,0,-3.92464e-06,-1.49285e+09,-1.48893e+09,-1.49195e+09,-524528,-0.0932431,0.209558,-0,0.229366,8528.34,-52187.2,0,52879.5,524528
step02_gravity_refstate-mantle.xmf,278,-6.38112e-06,2.07085e-05,0,-2.61874e-06,-1.48124e+09,-1.47762e+09,-1.48039e+09,-349995,-0.0870048,0.19068,-0,0.209592,9249.12,-51826.3,0,52645.2,349995
step02_gravity_refstate-mantle.xmf,279,-1.17486e-05,4.71848e-05,0,-3.02057e-05,-1.54296e+09,-1.53508e+09,-1.54139e+09,-4.03699e+06,-0.122523,0.401736,-0,0.420005,4757.6,-53764.7,0,53974.8,4.03699e+06
step02_gravity_refstate-mantle.xmf,280,-9.37401e-06,5.917e-05,0,-2.64434e-05,-1.5961e+09,-1.58693e+09,-1.59484e+09,-3.53416e+06,-0.176418,0.307981,-0,0.354931,4787.4,-55452.7,0,55658.9,3.53416e+06
step02_gravity_refstate-mantle.xmf,281,-1.04023e-06,3.47907e-05,0,-5.28485e-06,-1.66789e+09,-1.66311e+09,-1.66776e+09,-706321,-0.220498,0.0853195,-0,0.236429,7780.14,-57663.9,0,58186.3,706321
step02_gravity_refstate-mantle.xmf,282,-7.36383e-06,4.82655e-05,0,-1.60576e-05,-1.62707e+09,-1.61963e+09,-1.62608e+09,-2.14609e+06,-0.19903,0.193953,-0,0.277905,5933.83,-56394.9,0,56706.2,2.14609e+06
step02_gravity_refstate-mantle.xmf,283,-3.02271e-06,3.87633e-05,0,-7.77712e-06,-1.65652e+09,-1.65094e+09,-1.65612e+09,-1.03941e+06,-0.215857,0.111301,-0,0.242862,7201.21,-57309.5,0,57760.1,1.03941e+06
step02_gravity_refstate-mantle.xmf,284,-5.08128e-06,4.29226e-05,0,-1.0768e-05,-1.64573e+09,-1.63931e+09,-1.64505e+09,-1.43914e+06,-0.210092,0.140728,-0,0.25287,6651.28,-56972.9,0,57359.8,1.43914e+06
step02_gravity_refstate-mantle.xmf,285,1.59733e-07,3.23204e-05,0,-2.38123e-06,-1.70141e+09,-1.69712e+09,-1.70144e+09,-318252,-0.228149,0.0426526,-0,0.232102,8316.13,-58701,0,59287.1,318252
step02_gravity_refstate-mantle.xmf,286,1.10249e-06,3.06144e-05,0,-1.12813e-06,-1.72049e+09,-1.71655e+09,-1.72064e+09,-150775,-0.230319,0.0218191,-0,0.23135,8612.75,-59292.3,0,59914.5,150775
step02_gravity_refstate-mantle.xmf,287,2.32501e-06,2.82974e-05,0,2.57744e-08,-1.74333e+09,-1.73986e+09,-1.74364e+09,3444.75,-0.230698,-2.05401e-18,-0,0.230698,8990.76,-60000,0,60669.9,3444.75
step02_gravity_refstate-mantle.xmf,288,-9.25073e-06,2.37709e-05,0,-6.9848e-06,-1.4814e+09,-1.47699e+09,-1.48017e+09,-933518,-0.0759808,0.247325,-0,0.258733,7852.76,-51820.1,0,52411.7,933518
step02_gravity_refstate-mantle.xmf,289,-1.16517e-05,3.47068e-05,0,-2.44742e-05,-1.51541e+09,-1.50921e+09,-1.51385e+09,-3.27098e+06,-0.0901073,0.389127,-0,0.399424,5248,-52882.4,0,53142.1,3.27098e+06
step02_gravity_refstate-mantle.xmf,290,-1.12072e-05,2.63676e-05,0,-1.23201e-05,-1.48627e+09,-1.48125e+09,-1.48477e+09,-1.64658e+06,-0.0696505,0.304138,-0,0.312011,6734.5,-51964,0,52398.5,1.64658e+06
step02_gravity_refstate-mantle.xmf,291,-1.14432e-05,3.10905e-05,0,-1.95516e-05,-1.5056e+09,-1.49992e+09,-1.50407e+09,-2.61307e+06,-0.0819419,0.360392,-0,0.36959,5695.9,-52571.7,0,52879.3,2.61307e+06
step02_gravity_refstate-mantle.xmf,292,-1.14027e-05,2.8406e-05,0,-1.54513e-05,-1.4956e+09,-1.49028e+09,-1.49407e+09,-2.06507e+06,-0.0748403,0.331282,-0,0.339631,6203.18,-52256,0,52622.9,2.06507e+06
step02_gravity_refstate-mantle.xmf,293,1.49754e-06,2.8642e-06,0,9.58839e-10,-1.24405e+09,-1.24386e+09,-1.24425e+09,128.149,-1.21338e-18,0.022594,-0,0.022594,40000,-44506.4,0,59840,128.149
step02_gravity_refstate-mantle.xmf,294,1.76854e-06,2.82405e-06,0,5.62175e-07,-1.2736e+09,-1.27346e+09,-1.27383e+09,75134.7,-0.00719118,0.0210966,-0,0.0222885,36089.8,-45421,0,58013.3,75134.7
step02_gravity_refstate-mantle.xmf,295,-1.01549e-06,1.12043e-05,0,2.22551e-06,-1.44565e+09,-1.44402e+09,-1.44552e+09,297439,-0.0806649,0.0879963,-0,0.119374,14668.2,-50738.7,0,52816.4,297439
step02_gravity_refstate-mantle.xmf,296,1.6926e-06,7.70556e-06,0,3.09204e-06,-1.45754e+09,-1.45674e+09,-1.45777e+09,413251,-0.0853989,0.0531472,-0,0.100586,17633,-51114.9,0,54070.9,413251
step02_gravity_refstate-mantle.xmf,297,1.89474e-06,3.06364e-06,0,1.29677e-06,-1.30891e+09,-1.30875e+09,-1.30916e+09,173313,-0.018499,0.0220239,-0,0.0287622,31564.1,-46513.3,0,56211.9,173313
step02_gravity_refstate-mantle.xmf,298,2.19719e-06,3.09916e-06,0,1.60832e-06,-1.33854e+09,-1.33842e+09,-1.33884e+09,214952,-0.0256487,0.021463,-0,0.0334442,29986.3,-47430.8,0,56114.7,214952
step02_gravity_refstate-mantle.xmf,299,2.8543e-06,3.26361e-06,0,2.15955e-06,-1.39409e+09,-1.39404e+09,-1.39447e+09,288623,-0.0422856,0.0211666,-0,0.0472873,27142.4,-49151.5,0,56147.9,288623
step02_gravity_refstate-mantle.xmf,300,2.52886e-06,3.16262e-06,0,1.90194e-06,-1.36761e+09,-1.36752e+09,-1.36795e+09,254194,-0.0337713,0.0211558,-0,0.0398506,28500.9,-48331,0,56108.7,254194
step02_gravity_refstate-mantle.xmf,301,1.86675e-06,7.02302e-06,0,3.07692e-06,-1.4485e+09,-1.44781e+09,-1.44875e+09,411231,-0.080011,0.0485543,-0,0.093591,18516.4,-50835.2,0,54102.4,411231
step02_gravity_refstate-mantle.xmf,302,1.75864e-06,6.37341e-06,0,2.93835e-06,-1.42949e+09,-1.42887e+09,-1.42973e+09,392710,-0.0705992,0.0452319,-0,0.0838461,19595,-50245.6,0,53931.3,392710
step02_gravity_refstate-mantle.xmf,303,-6.02953e-06,1.90096e-05,0,-1.68033e-06,-1.46874e+09,-1.46539e+09,-1.46793e+09,-224575,-0.080747,0.174286,-0,0.192083,9992.15,-51438.2,0,52399.7,224575
step02_gravity_refstate-mantle.xmf,304,-3.75865e-06,1.63908e-05,0,4.48084e-07,-1.47068e+09,-1.46798e+09,-1.47017e+09,59886.4,-0.0890445,0.137132,-0,0.163506,11342.2,-51506.5,0,52740.5,59886.4
step02_gravity_refstate-mantle.xmf,305,-1.22552e-05,4.00755e-05,0,-2.99334e-05,-1.52526e+09,-1.51827e+09,-1.52362e+09,-4.0006e+06,-0.0992772,0.415916,-0,0.427601,4857.81,-53196.5,0,53417.8,4.0006e+06
step02_gravity_refstate-mantle.xmf,306,-1.40441e-05,6.29403e-05,0,-3.23005e-05,-1.57258e+09,-1.56229e+09,-1.5707e+09,-4.31696e+06,-0.153536,0.384634,-0,0.414145,4416.8,-54704.7,0,54882.7,4.31696e+06
step02_gravity_refstate-mantle.xmf,307,-1.45672e-05,5.72234e-05,0,-3.56185e-05,-1.5563e+09,-1.54671e+09,-1.55436e+09,-4.76042e+06,-0.13478,0.417892,-0,0.439089,4401.87,-54183.8,0,54362.3,4.76042e+06
step02_gravity_refstate-mantle.xmf,308,-1.31676e-05,6.83896e-05,0,-2.99935e-05,-1.58902e+09,-1.57812e+09,-1.58726e+09,-4.00863e+06,-0.167933,0.349529,-0,0.387778,4418.05,-55232.4,0,55408.8,4.00863e+06
step02_gravity_refstate-mantle.xmf,309,-1.12096e-05,5.79179e-05,0,-2.4324e-05,-1.60955e+09,-1.60031e+09,-1.60805e+09,-3.2509e+06,-0.184472,0.26847,-0,0.32574,5037.57,-55852.7,0,56079.4,3.2509e+06
step02_gravity_refstate-mantle.xmf,310,-7.56185e-06,4.97209e-05,0,-1.88957e-05,-1.61415e+09,-1.6065e+09,-1.61314e+09,-2.5254e+06,-0.191694,0.227941,-0,0.297832,5628.07,-55998.4,0,56280.5,2.5254e+06
step02_gravity_refstate-mantle.xmf,311,-7.68617e-06,4.78236e-05,0,-1.34988e-05,-1.64139e+09,-1.63397e+09,-1.64036e+09,-1.80411e+06,-0.205465,0.164092,-0,0.262949,6152.17,-56834.1,0,57166.1,1.80411e+06
step02_gravity_refstate-mantle.xmf,312,-1.89329e-06,3.63254e-05,0,-3.99298e-06,-1.69088e+09,-1.68578e+09,-1.69063e+09,-533662,-0.225826,0.0604986,-0,0.233789,7758.45,-58372.2,0,58885.6,533662
step02_gravity_refstate-mantle.xmf,313,-1.09403e-05,2.48657e-05,0,-1.02078e-05,-1.47822e+09,-1.47344e+09,-1.47676e+09,-1.36428e+06,-0.0659612,0.282469,-0,0.290068,7215.3,-51713.3,0,52214.2,1.36428e+06
step02_gravity_refstate-mantle.xmf,314,1.53198e-06,3.08395e-06,0,9.66461e-07,-1.27541e+09,-1.2752e+09,-1.27561e+09,129168,-0.0122139,0.0233029,-0,0.0263098,33153.8,-45476,0,56278.3,129168
step02_gravity_refstate-mantle.xmf,315,6.38689e-07,3.24669e-06,0,3.35143e-09,-1.17164e+09,-1.17129e+09,-1.17172e+09,447.918,-2.25912e-21,0.0294683,-0,0.0294683,40000,-42265,0,58192.2,447.918
step02_gravity_refstate-mantle.xmf,316,9.566e-07,3.12076e-06,0,1.8844e-07,-1.20232e+09,-1.20203e+09,-1.20245e+09,25185.1,-0.00170721,0.0267161,-0,0.0267706,38257.8,-43214.6,0,57716.2,25185.1
step02_gravity_refstate-mantle.xmf,317,1.22734e-06,3.13907e-06,0,6.84508e-07,-1.24135e+09,-1.2411e+09,-1.24152e+09,91484.5,-0.00737747,0.0250855,-0,0.0261479,34663.9,-44422.2,0,56346.4,91484.5
step02_gravity_refstate-mantle.xmf,318,1.02695e-06,3.14354e-06,0,4.1283e-07,-1.21617e+09,-1.21589e+09,-1.21631e+09,55174.7,-0.00402383,0.0262362,-0,0.026543,36382.4,-43642.9,0,56818.9,55174.7
step02_gravity_refstate-mantle.xmf,319,-9.50326e-07,1.01883e-05,0,2.1874e-06,-1.42812e+09,-1.42663e+09,-1.428e+09,292346,-0.0720981,0.0820624,-0,0.109235,15569,-50195,0,52554.1,292346
step02_gravity_refstate-mantle.xmf,320,-2.59571e-06,1.2442e-05,0,1.32387e-06,-1.43085e+09,-1.42884e+09,-1.4305e+09,176936,-0.070468,0.10641,-0,0.127627,13810.4,-50273.9,0,52136.3,176936
step02_gravity_refstate-mantle.xmf,321,-3.18407e-06,1.49807e-05,0,9.61287e-07,-1.4611e+09,-1.45867e+09,-1.46067e+09,128476,-0.0849654,0.124329,-0,0.150588,12141.2,-51210.9,0,52630.4,128476
step02_gravity_refstate-mantle.xmf,322,-2.85689e-06,1.36588e-05,0,1.20888e-06,-1.44705e+09,-1.44485e+09,-1.44667e+09,161567,-0.0781269,0.114551,-0,0.138657,12966.8,-50775.8,0,52405.4,161567
step02_gravity_refstate-mantle.xmf,323,5.61935e-07,8.0902e-06,0,2.72321e-06,-1.42806e+09,-1.42705e+09,-1.42814e+09,363957,-0.0724052,0.0610971,-0,0.0947384,17549.3,-50197.8,0,53177,363957
step02_gravity_refstate-mantle.xmf,324,2.5098e-06,4.96588e-06,0,2.84582e-06,-1.42826e+09,-1.42793e+09,-1.42859e+09,380344,-0.0653232,0.0334113,-0,0.0733719,21847.9,-50208.9,0,54756.4,380344
step02_gravity_refstate-mantle.xmf,325,1.52086e-06,5.83886e-06,0,2.74514e-06,-1.40705e+09,-1.40648e+09,-1.40726e+09,366889,-0.0606386,0.0427613,-0,0.0741995,20702.7,-49549.5,0,53700.6,366889
step02_gravity_refstate-mantle.xmf,326,1.91979e-06,3.96876e-06,0,2.2291e-06,-1.36136e+09,-1.36108e+09,-1.36161e+09,297920,-0.0387683,0.0284739,-0,0.0481014,25687.5,-48135.9,0,54561.1,297920
step02_gravity_refstate-mantle.xmf,327,2.07229e-06,4.27021e-06,0,2.4539e-06,-1.38241e+09,-1.38211e+09,-1.38268e+09,327963,-0.0466107,0.0302343,-0,0.0555578,24311.1,-48787.8,0,54509.4,327963
step02_gravity_refstate-mantle.xmf,328,2.29465e-06,4.59262e-06,0,2.66555e-06,-1.40508e+09,-1.40478e+09,-1.40539e+09,356250,-0.0554956,0.0317926,-0,0.0639573,23053.7,-49490.7,0,54596.7,356250
step02_gravity_refstate-mantle.xmf,329,-5.70361e-06,1.75438e-05,0,-1.07232e-06,-1.45633e+09,-1.45323e+09,-1.45557e+09,-143316,-0.0749072,0.161034,-0,0.177604,10697.6,-51053.4,0,52162.2,143316
step02_gravity_refstate-mantle.xmf,330,-8.72765e-06,2.185e-05,0,-5.10673e-06,-1.4699e+09,-1.46582e+09,-1.46874e+09,-682514,-0.0711044,0.223728,-0,0.234755,8575.86,-51463.4,0,52173.1,682514
step02_gravity_refstate-mantle.xmf,331,-8.17489e-06,2.00717e-05,0,-3.89401e-06,-1.45625e+09,-1.45248e+09,-1.45516e+09,-520435,-0.0650995,0.204184,-0,0.214311,9320.7,-51040.9,0,51884.9,520435
step02_gravity_refstate-mantle.xmf,332,-1.32998e-05,3.32325e-05,0,-3.13644e-05,-1.50565e+09,-1.49943e+09,-1.50388e+09,-4.19186e+06,-0.0712883,0.439127,-0,0.444876,4855.41,-52566.2,0,52790,4.19186e+06
step02_gravity_refstate-mantle.xmf,333,-1.42318e-05,4.52324e-05,0,-3.90258e-05,-1.52938e+09,-1.52143e+09,-1.52748e+09,-5.2158e+06,-0.0989447,0.461356,-0,0.471847,4408.77,-53323.7,0,53505.6,5.2158e+06
step02_gravity_refstate-mantle.xmf,334,-1.51307e-05,5.26613e-05,0,-3.97385e-05,-1.5429e+09,-1.53384e+09,-1.54088e+09,-5.31105e+06,-0.116253,0.450705,-0,0.465457,4323.7,-53754.4,0,53928,5.31105e+06
step02_gravity_refstate-mantle.xmf,335,-2.20703e-05,8.25063e-05,0,-3.86057e-05,-1.58221e+09,-1.56823e+09,-1.57926e+09,-5.15965e+06,-0.154848,0.405548,-0,0.434105,4000,-54998.6,0,55143.8,5.15965e+06
step02_gravity_refstate-mantle.xmf,336,-1.06998e-05,6.82752e-05,0,-3.1149e-05,-1.6038e+09,-1.59324e+09,-1.60237e+09,-4.16306e+06,-0.175617,0.313885,-0,0.359673,4460.59,-55705,0,55883.3,4.16306e+06
step02_gravity_refstate-mantle.xmf,337,-1.18756e-05,5.66942e-05,0,-1.965e-05,-1.62823e+09,-1.61907e+09,-1.62664e+09,-2.62622e+06,-0.193876,0.21831,-0,0.291971,5367.79,-56422.3,0,56677,2.62622e+06
step02_gravity_refstate-mantle.xmf,338,-4.24002e-06,4.07162e-05,0,-6.25461e-06,-1.67849e+09,-1.67248e+09,-1.67792e+09,-835929,-0.221494,0.0849448,-0,0.237224,7179.74,-57984.9,0,58427.8,835929
step02_gravity_refstate-mantle.xmf,339,-1.13848e-05,5.42859e-05,0,-1.55135e-05,-1.64375e+09,-1.63497e+09,-1.64223e+09,-2.07338e+06,-0.201528,0.178658,-0,0.269318,5678.34,-56898.8,0,57181.4,2.07338e+06
step02_gravity_refstate-mantle.xmf,340,-9.49068e-06,5.03868e-05,0,-1.1969e-05,-1.65713e+09,-1.64913e+09,-1.65587e+09,-1.59966e+06,-0.209139,0.142435,-0,0.253035,6094.96,-57314.9,0,57638.1,1.59966e+06
step02_gravity_refstate-mantle.xmf,341,-6.79734e-06,4.54321e-05,0,-9.00158e-06,-1.66691e+09,-1.65993e+09,-1.666e+09,-1.20306e+06,-0.215722,0.113052,-0,0.24355,6616.29,-57622.3,0,58000.9,1.20306e+06
step02_gravity_refstate-mantle.xmf,342,-2.31244e-06,3.70923e-05,0,-2.04819e-06,-1.71776e+09,-1.71249e+09,-1.71745e+09,-273741,-0.229545,0.0298054,-0,0.231472,7779.83,-59201.4,0,59710.4,273741
step02_gravity_refstate-mantle.xmf,343,-7.01709e-07,3.41049e-05,0,4.09088e-08,-1.74351e+09,-1.73885e+09,-1.74341e+09,5467.47,-0.231363,-2.80496e-18,-0,0.231363,8185.04,-60000,0,60555.7,5467.47
step02_gravity_refstate-mantle.xmf,344,-1.33346e-05,3.006e-05,0,-2.57205e-05,-1.49674e+09,-1.49094e+09,-1.49496e+09,-3.43754e+06,-0.0640297,0.409186,-0,0.414165,5241.25,-52282.5,0,52544.6,3.43754e+06
step02_gravity_refstate-mantle.xmf,345,-1.16357e-05,2.34373e-05,0,-1.00539e-05,-1.46344e+09,-1.45875e+09,-1.46188e+09,-1.3437e+06,-0.0531908,0.279878,-0,0.284887,7471.45,-51248.3,0,51790.1,1.3437e+06
step02_gravity_refstate-mantle.xmf,346,-1.28134e-05,2.45653e-05,0,-1.36435e-05,-1.4679e+09,-1.46291e+09,-1.46619e+09,-1.82346e+06,-0.0493075,0.315975,-0,0.319799,6782.89,-51381.2,0,51827,1.82346e+06
step02_gravity_refstate-mantle.xmf,347,-1.3315e-05,2.59427e-05,0,-1.71082e-05,-1.47635e+09,-1.4711e+09,-1.47457e+09,-2.28651e+06,-0.0511338,0.348098,-0,0.351834,6201.22,-51642.4,0,52013.4,2.28651e+06
step02_gravity_refstate-mantle.xmf,348,-1.33953e-05,2.77608e-05,0,-2.09551e-05,-1.48666e+09,-1.48116e+09,-1.48487e+09,-2.80065e+06,-0.05691,0.37814,-0,0.382398,5697.2,-51964.8,0,52276.2,2.80065e+06
step02_gravity_refstate-mantle.xmf,349,1.01024e-06,3.4543e-06,0,1.08776e-06,-1.25339e+09,-1.25307e+09,-1.25353e+09,145379,-0.012034,0.0277206,-0,0.03022,31496.4,-44793.5,0,54758.4,145379
step02_gravity_refstate-mantle.xmf,350,3.91362e-07,3.35136e-06,0,1.13556e-07,-1.15102e+09,-1.15062e+09,-1.15107e+09,15176.8,-0.000672525,0.0318228,-0,0.0318299,38368.7,-41626.7,0,56612.1,15176.8
step02_gravity_refstate-mantle.xmf,351,-5.88403e-08,3.46143e-06,0,-1.59201e-08,-1.09845e+09,-1.09798e+09,-1.09844e+09,-2127.73,7.03889e-20,0.0370963,0,0.0370963,40000,-40000,0,56568.5,2127.73
step02_gravity_refstate-mantle.xmf,352,-2.36606e-06,1.13292e-05,0,1.36587e-06,-1.41316e+09,-1.41133e+09,-1.41284e+09,182548,-0.0625523,0.0993693,-0,0.117418,14670.6,-49726.1,0,51845,182548
step02_gravity_refstate-mantle.xmf,353,-7.47297e-07,9.21207e-06,0,2.19147e-06,-1.41038e+09,-1.40905e+09,-1.41028e+09,292889,-0.0640892,0.0759091,-0,0.099346,16545.2,-49645.7,0,52330.1,292889
step02_gravity_refstate-mantle.xmf,354,1.25305e-06,3.50304e-06,0,1.39013e-06,-1.28334e+09,-1.28303e+09,-1.2835e+09,185791,-0.0175831,0.0270916,-0,0.0322974,29997.7,-45720.1,0,54682.6,185791
step02_gravity_refstate-mantle.xmf,355,1.47111e-06,3.6114e-06,0,1.68965e-06,-1.31016e+09,-1.30988e+09,-1.31036e+09,225822,-0.0237844,0.0271327,-0,0.0360816,28527.4,-46550.5,0,54596.4,225822
step02_gravity_refstate-mantle.xmf,356,1.72655e-06,3.75013e-06,0,1.97572e-06,-1.33791e+09,-1.33764e+09,-1.33814e+09,264055,-0.0312146,0.0274014,-0,0.0415354,27086.7,-47409.7,0,54601.9,264055
step02_gravity_refstate-mantle.xmf,357,6.05023e-07,7.36163e-06,0,2.64914e-06,-1.41002e+09,-1.40912e+09,-1.41011e+09,354058,-0.0640941,0.056911,-0,0.0857142,18548.7,-49639.1,0,52991.4,354058
step02_gravity_refstate-mantle.xmf,358,5.30238e-07,6.71486e-06,0,2.50929e-06,-1.38844e+09,-1.38761e+09,-1.38851e+09,335367,-0.0549694,0.0534444,-0,0.0766678,19614.5,-48970.1,0,52752.2,335367
step02_gravity_refstate-mantle.xmf,359,-7.61849e-06,1.85355e-05,0,-3.0262e-06,-1.44326e+09,-1.43977e+09,-1.44225e+09,-404452,-0.0600102,0.188125,-0,0.197464,10029.4,-50639.4,0,51623.1,404452
step02_gravity_refstate-mantle.xmf,360,-1.09231e-05,2.19858e-05,0,-8.10195e-06,-1.45357e+09,-1.44918e+09,-1.45211e+09,-1.08283e+06,-0.0506082,0.256348,-0,0.261296,8087.91,-50944.6,0,51582.6,1.08283e+06
step02_gravity_refstate-mantle.xmf,361,-5.23879e-06,1.6178e-05,0,-5.80086e-07,-1.44409e+09,-1.44123e+09,-1.44339e+09,-77528.5,-0.0697327,0.148848,-0,0.164373,11418.9,-50674.9,0,51945.5,77528.5
step02_gravity_refstate-mantle.xmf,362,-1.39828e-05,3.7385e-05,0,-3.989e-05,-1.51325e+09,-1.50638e+09,-1.51138e+09,-5.33129e+06,-0.0761829,0.480595,-0,0.486596,4424.94,-52806.9,0,52992,5.33129e+06
step02_gravity_refstate-mantle.xmf,363,-2.01709e-05,7.26139e-05,0,-4.39468e-05,-1.56643e+09,-1.55402e+09,-1.56373e+09,-5.8735e+06,-0.139425,0.444296,-0,0.465659,4000,-54498.4,0,54645,5.8735e+06
step02_gravity_refstate-mantle.xmf,364,-1.86337e-05,6.2611e-05,0,-4.73183e-05,-1.55077e+09,-1.53991e+09,-1.54828e+09,-6.3241e+06,-0.120829,0.478038,-0,0.493072,4000,-53999.3,0,54147.3,6.3241e+06
step02_gravity_refstate-mantle.xmf,365,-1.70844e-05,5.24916e-05,0,-4.96826e-05,-1.53508e+09,-1.52578e+09,-1.5328e+09,-6.64008e+06,-0.100179,0.506819,-0,0.516625,4000,-53499.2,0,53648.6,6.64008e+06
step02_gravity_refstate-mantle.xmf,366,-2.25616e-05,9.16653e-05,0,-2.97641e-05,-1.59772e+09,-1.58245e+09,-1.5947e+09,-3.97797e+06,-0.165171,0.362112,-0,0.398003,4000,-55497.8,0,55641.7,3.97797e+06
step02_gravity_refstate-mantle.xmf,367,-2.17922e-05,7.22665e-05,0,-2.58158e-05,-1.61933e+09,-1.60676e+09,-1.61642e+09,-3.45029e+06,-0.178611,0.281073,-0,0.333022,4520.15,-56121,0,56302.7,3.45029e+06
step02_gravity_refstate-mantle.xmf,368,-5.34152e-06,4.24271e-05,0,-4.3077e-06,-1.70119e+09,-1.69481e+09,-1.70048e+09,-575724,-0.225181,0.0566345,-0,0.232194,7135.83,-58683.2,0,59115.5,575724
step02_gravity_refstate-mantle.xmf,369,-1.4149e-05,2.71305e-05,0,-3.26957e-05,-1.48814e+09,-1.48262e+09,-1.48624e+09,-4.36978e+06,-0.0464729,0.459166,-0,0.461512,4826.55,-52003.8,0,52227.3,4.36978e+06
step02_gravity_refstate-mantle.xmf,370,6.19014e-07,3.47981e-06,0,7.45517e-07,-1.21326e+09,-1.21288e+09,-1.21335e+09,99638.3,-0.00673764,0.0298227,-0,0.0305743,32987,-43551.3,0,54633.9,99638.3
step02_gravity_refstate-mantle.xmf,371,3.42332e-07,3.40075e-06,0,2.31695e-07,-1.15463e+09,-1.15422e+09,-1.15467e+09,30966,-0.00135056,0.0322209,-0,0.0322492,36780,-41738,0,55631.2,30966
step02_gravity_refstate-mantle.xmf,372,-1.29142e-07,3.51509e-06,0,4.08455e-08,-1.09846e+09,-1.09797e+09,-1.09844e+09,5459,0.000211942,0.0376892,0,0.0376898,37718.5,-40000,0,54978.9,5459
step02_gravity_refstate-mantle.xmf,373,2.96543e-07,3.52147e-06,0,4.37315e-07,-1.16794e+09,-1.1675e+09,-1.16798e+09,58447.2,-0.00266245,0.0327229,-0,0.032831,34599.7,-42149.1,0,54531.5,58447.2
step02_gravity_refstate-mantle.xmf,374,-2.19057e-06,1.02914e-05,0,1.34622e-06,-1.39358e+09,-1.39191e+09,-1.39329e+09,179922,-0.054318,0.0930532,-0,0.107747,15570.4,-49119.8,0,51528.6,179922
step02_gravity_refstate-mantle.xmf,375,-3.83006e-06,1.23668e-05,0,2.67578e-07,-1.39924e+09,-1.39707e+09,-1.39873e+09,35761.8,-0.0520433,0.118524,-0,0.129446,13816.3,-49289,0,51188.9,35761.8
step02_gravity_refstate-mantle.xmf,376,-4.25739e-06,1.35695e-05,0,8.18757e-08,-1.4158e+09,-1.41342e+09,-1.41523e+09,10942.7,-0.0584367,0.127446,-0,0.140204,12986.6,-49800.9,0,51466.4,10942.7
step02_gravity_refstate-mantle.xmf,377,-4.71636e-06,1.48369e-05,0,-1.84334e-07,-1.43063e+09,-1.42802e+09,-1.43e+09,-24636.3,-0.0643106,0.13745,-0,0.151751,12191.5,-50259.2,0,51716.8,24636.3
step02_gravity_refstate-mantle.xmf,378,-6.71183e-07,8.36717e-06,0,2.11855e-06,-1.3915e+09,-1.39029e+09,-1.39141e+09,283144,-0.0560953,0.0707501,-0,0.0902898,17517.8,-49060.9,0,52094.6,283144
step02_gravity_refstate-mantle.xmf,379,5.34118e-07,3.77683e-06,0,1.13506e-06,-1.23863e+09,-1.2382e+09,-1.2387e+09,151701,-0.0112601,0.031921,-0,0.0338488,30102.7,-44335.1,0,53588.9,151701
step02_gravity_refstate-mantle.xmf,380,8.43326e-07,4.37424e-06,0,1.92587e-06,-1.31006e+09,-1.30959e+09,-1.31018e+09,257392,-0.02707,0.0351703,-0,0.0443817,25668.3,-46545.2,0,53153.7,257392
step02_gravity_refstate-mantle.xmf,381,1.26078e-06,5.41e-06,0,2.54635e-06,-1.38132e+09,-1.38077e+09,-1.38149e+09,340319,-0.0504678,0.041031,-0,0.0650426,21834.8,-48751.9,0,53418.2,340319
step02_gravity_refstate-mantle.xmf,382,3.30257e-07,6.20686e-06,0,2.30985e-06,-1.36416e+09,-1.36338e+09,-1.36421e+09,308711,-0.0456942,0.0511547,-0,0.0685913,20642.8,-48217.6,0,52450.5,308711
step02_gravity_refstate-mantle.xmf,383,9.8014e-07,4.66545e-06,0,2.1569e-06,-1.33418e+09,-1.33368e+09,-1.33431e+09,288270,-0.0341216,0.0369257,-0,0.0502772,24308.9,-47291.7,0,53173.6,288270
step02_gravity_refstate-mantle.xmf,384,1.11086e-06,5.01679e-06,0,2.36267e-06,-1.35687e+09,-1.35635e+09,-1.35702e+09,315770,-0.0416261,0.0390668,-0,0.0570872,23033.8,-47994.5,0,53235.6,315770
step02_gravity_refstate-mantle.xmf,385,-7.09761e-06,1.71249e-05,0,-2.42522e-06,-1.42971e+09,-1.42647e+09,-1.42876e+09,-324131,-0.0548759,0.17463,-0,0.183049,10727.8,-50220.7,0,51353.7,324131
step02_gravity_refstate-mantle.xmf,386,-1.02069e-05,2.06403e-05,0,-6.59002e-06,-1.44367e+09,-1.43954e+09,-1.4423e+09,-880757,-0.0482312,0.236168,-0,0.241042,8699.33,-50640,0,51381.8,880757
step02_gravity_refstate-mantle.xmf,387,-9.48495e-06,1.92239e-05,0,-5.44317e-06,-1.4316e+09,-1.42777e+09,-1.43034e+09,-727479,-0.0447968,0.217915,-0,0.222472,9360.64,-50268.5,0,51132.6,727479
step02_gravity_refstate-mantle.xmf,388,-1.37431e-05,2.94806e-05,0,-4.06621e-05,-1.49654e+09,-1.49076e+09,-1.4947e+09,-5.4345e+06,-0.0523986,0.498985,-0,0.501728,4419.84,-52272.2,0,52458.7,5.4345e+06
step02_gravity_refstate-mantle.xmf,389,-1.54475e-05,4.23089e-05,0,-5.11388e-05,-1.5194e+09,-1.51168e+09,-1.51734e+09,-6.8347e+06,-0.0785125,0.530505,-0,0.536283,4000,-52999.8,0,53150.5,6.8347e+06
step02_gravity_refstate-mantle.xmf,390,-3.07466e-05,7.3644e-05,0,-2.08049e-05,-1.61724e+09,-1.60329e+09,-1.61313e+09,-2.78057e+06,-0.165429,0.314755,-0,0.35558,4000,-56000,0,56142.7,2.78057e+06
step02_gravity_refstate-mantle.xmf,391,-1.87046e-05,6.64446e-05,0,-2.10909e-05,-1.63006e+09,-1.61868e+09,-1.62756e+09,-2.8188e+06,-0.185743,0.242793,-0,0.305694,4813.28,-56457.9,0,56662.7,2.8188e+06
step02_gravity_refstate-mantle.xmf,392,-1.66771e-05,6.27404e-05,0,-1.7213e-05,-1.64519e+09,-1.63458e+09,-1.64296e+09,-2.30052e+06,-0.193849,0.199099,-0,0.277881,5115.59,-56929.6,0,57158.9,2.30052e+06
step02_gravity_refstate-mantle.xmf,393,-8.25118e-06,4.7473e-05,0,-6.79728e-06,-1.68833e+09,-1.68088e+09,-1.68723e+09,-908456,-0.219444,0.083526,-0,0.234802,6570.67,-58279.4,0,58648.6,908456
step02_gravity_refstate-mantle.xmf,394,-1.50362e-05,5.90427e-05,0,-1.29855e-05,-1.66358e+09,-1.65368e+09,-1.66157e+09,-1.73551e+06,-0.202569,0.152236,-0,0.253397,5461.16,-57499,0,57757.8,1.73551e+06
step02_gravity_refstate-mantle.xmf,395,-1.14724e-05,5.30227e-05,0,-9.46801e-06,-1.67757e+09,-1.66895e+09,-1.67604e+09,-1.2654e+06,-0.212289,0.112198,-0,0.240114,6020.77,-57939.6,0,58251.6,1.2654e+06
step02_gravity_refstate-mantle.xmf,396,-6.85861e-06,4.48779e-05,0,-2.24081e-06,-1.72354e+09,-1.71662e+09,-1.72262e+09,-299484,-0.226169,0.0283914,-0,0.227944,6956.93,-59369.6,0,59775.8,299484
step02_gravity_refstate-mantle.xmf,397,-4.41468e-06,4.07096e-05,0,2.836e-08,-1.74376e+09,-1.73773e+09,-1.74317e+09,3790.32,-0.229353,-2.66832e-18,-0,0.229353,7406.53,-60000,0,60455.4,3790.32
step02_gravity_refstate-mantle.xmf,398,-1.27757e-05,2.16111e-05,0,-1.18496e-05,-1.44078e+09,-1.43618e+09,-1.43907e+09,-1.5837e+06,-0.031626,0.294074,-0,0.29577,7506.37,-50536.1,0,51090.5,1.5837e+06
step02_gravity_refstate-mantle.xmf,399,-1.46763e-05,2.55152e-05,0,-2.72354e-05,-1.47823e+09,-1.47286e+09,-1.47627e+09,-3.64001e+06,-0.0392963,0.427287,-0,0.42909,5223.67,-51690.3,0,51953.6,3.64001e+06
step02_gravity_refstate-mantle.xmf,400,-1.36648e-05,2.23566e-05,0,-1.48301e-05,-1.44795e+09,-1.44313e+09,-1.44612e+09,-1.98204e+06,-0.0299307,0.324855,-0,0.326231,6878.43,-50753.4,0,51217.4,1.98204e+06
step02_gravity_refstate-mantle.xmf,401,-1.45188e-05,2.30702e-05,0,-1.91115e-05,-1.45495e+09,-1.44992e+09,-1.45301e+09,-2.55426e+06,-0.0272022,0.364953,-0,0.365965,6196.44,-50965.8,0,51341.1,2.55426e+06
step02_gravity_refstate-mantle.xmf,402,-1.47679e-05,2.42064e-05,0,-2.30612e-05,-1.46746e+09,-1.46225e+09,-1.46548e+09,-3.08213e+06,-0.0328719,0.397016,-0,0.398374,5660.88,-51353.4,0,51664.5,3.08213e+06
step02_gravity_refstate-mantle.xmf,403,1.78168e-07,3.80842e-06,0,8.31097e-07,-1.20052e+09,-1.20003e+09,-1.20054e+09,111076,-0.00621808,0.0342337,-0,0.0347938,31170.9,-43155.4,0,53235.5,111076
step02_gravity_refstate-mantle.xmf,404,-3.46836e-06,1.12673e-05,0,3.81888e-07,-1.38098e+09,-1.37901e+09,-1.38052e+09,51039.4,-0.0451848,0.110885,-0,0.119738,14657.5,-48724.8,0,50881.7,51039.4
step02_gravity_refstate-mantle.xmf,405,-1.95788e-06,9.33548e-06,0,1.37064e-06,-1.37341e+09,-1.3719e+09,-1.37315e+09,183186,-0.0465112,0.0869335,-0,0.0985937,16514.3,-48496,0,51230.7,183186
step02_gravity_refstate-mantle.xmf,406,4.11819e-07,4.02191e-06,0,1.33469e-06,-1.24958e+09,-1.2491e+09,-1.24963e+09,178382,-0.0135998,0.0342018,-0,0.0368064,28566.3,-44673.1,0,53025.6,178382
step02_gravity_refstate-mantle.xmf,407,6.88039e-07,4.15166e-06,0,1.66425e-06,-1.28424e+09,-1.28378e+09,-1.28434e+09,222427,-0.0205778,0.0340061,-0,0.0397475,27074.3,-45746.1,0,53157.5,222427
step02_gravity_refstate-mantle.xmf,408,-5.6767e-07,7.60318e-06,0,2.07186e-06,-1.37123e+09,-1.37014e+09,-1.37116e+09,276905,-0.04814,0.0659596,-0,0.0816586,18545.2,-48433.5,0,51862.6,276905
step02_gravity_refstate-mantle.xmf,409,-5.55236e-07,6.96709e-06,0,1.97702e-06,-1.34988e+09,-1.34888e+09,-1.34981e+09,264228,-0.0403968,0.0620389,-0,0.0740319,19562.2,-47772.5,0,51622.6,264228
step02_gravity_refstate-mantle.xmf,410,-8.77506e-06,1.78674e-05,0,-4.57597e-06,-1.41869e+09,-1.41513e+09,-1.41752e+09,-611579,-0.0410357,0.202327,-0,0.206447,10022.6,-49870.9,0,50868.1,611579
step02_gravity_refstate-mantle.xmf,411,-1.19333e-05,2.0544e-05,0,-9.81237e-06,-1.4312e+09,-1.42686e+09,-1.42961e+09,-1.31142e+06,-0.0308508,0.270013,-0,0.27177,8114.78,-50243.1,0,50894.2,1.31142e+06
step02_gravity_refstate-mantle.xmf,412,-6.55069e-06,1.57878e-05,0,-1.97267e-06,-1.41504e+09,-1.41205e+09,-1.41416e+09,-263647,-0.0494834,0.16278,-0,0.170135,11441.5,-49767.6,0,51065.8,263647
step02_gravity_refstate-mantle.xmf,413,-1.3545e-05,2.22997e-05,0,-4.05925e-05,-1.48021e+09,-1.47542e+09,-1.4784e+09,-5.42519e+06,-0.0303694,0.51171,-0,0.512611,4424.61,-51750.7,0,51939.5,5.42519e+06
step02_gravity_refstate-mantle.xmf,414,-1.38348e-05,3.22837e-05,0,-5.1775e-05,-1.50371e+09,-1.49755e+09,-1.50186e+09,-6.91973e+06,-0.0566059,0.549145,-0,0.552054,4000,-52500.3,0,52652.5,6.91973e+06
step02_gravity_refstate-mantle.xmf,415,-2.49998e-05,7.57177e-05,0,-1.96943e-05,-1.63125e+09,-1.61779e+09,-1.62791e+09,-2.63214e+06,-0.173825,0.267053,-0,0.318641,4266.86,-56476.5,0,56637.5,2.63214e+06
step02_gravity_refstate-mantle.xmf,416,-9.00373e-06,4.84031e-05,0,-4.38561e-06,-1.70824e+09,-1.70056e+09,-1.70703e+09,-586137,-0.221887,0.0541925,-0,0.228409,6569.35,-58891.6,0,59256.8,586137
step02_gravity_refstate-mantle.xmf,417,-1.47228e-05,2.15883e-05,0,-3.38538e-05,-1.47115e+09,-1.4663e+09,-1.46918e+09,-4.52457e+06,-0.0241711,0.475243,-0,0.475857,4799.62,-51461.2,0,51684.5,4.52457e+06
step02_gravity_refstate-mantle.xmf,418,-2.45645e-07,3.83052e-06,0,4.62177e-07,-1.15426e+09,-1.15371e+09,-1.15422e+09,61769.9,-0.00177555,0.0374492,-0,0.0374913,32380,-41723.7,0,52814.1,61769.9
step02_gravity_refstate-mantle.xmf,419,-3.18776e-07,3.65023e-06,0,7.76335e-08,-1.09849e+09,-1.09796e+09,-1.09844e+09,10375.7,0.00069058,0.0394082,0,0.0394143,35541.8,-40000,0,53509.1,10375.7
step02_gravity_refstate-mantle.xmf,420,-2.30072e-07,4.1279e-06,0,8.98006e-07,-1.19677e+09,-1.19619e+09,-1.19674e+09,120019,-0.0057112,0.0385045,-0,0.0389257,29473.8,-43037.9,0,52162.9,120019
step02_gravity_refstate-mantle.xmf,421,-3.21266e-06,1.02248e-05,0,3.99917e-07,-1.35917e+09,-1.35737e+09,-1.35874e+09,53449,-0.0371836,0.104427,-0,0.110849,15542.4,-48049.9,0,50501.1,53449
step02_gravity_refstate-mantle.xmf,422,-4.75623e-06,1.20829e-05,0,-8.61025e-07,-1.36823e+09,-1.36598e+09,-1.36759e+09,-115076,-0.0348411,0.130528,-0,0.135098,13804.8,-48324.2,0,50257.4,115076
step02_gravity_refstate-mantle.xmf,423,-5.3005e-06,1.32519e-05,0,-1.14486e-06,-1.3854e+09,-1.38292e+09,-1.38469e+09,-153011,-0.0402524,0.140046,-0,0.145716,12991.3,-48854.1,0,50551.9,153011
step02_gravity_refstate-mantle.xmf,424,-5.94788e-06,1.44858e-05,0,-1.56953e-06,-1.39986e+09,-1.39713e+09,-1.39907e+09,-209767,-0.0443903,0.151486,-0,0.157856,12192.9,-49299.6,0,50785,209767
step02_gravity_refstate-mantle.xmf,425,-1.76307e-06,8.47066e-06,0,1.37749e-06,-1.3534e+09,-1.35203e+09,-1.35316e+09,184102,-0.0394227,0.0808862,-0,0.0899818,17502,-47876.9,0,50975.6,184102
step02_gravity_refstate-mantle.xmf,426,-1.47923e-07,4.68786e-06,0,1.51565e-06,-1.25899e+09,-1.25834e+09,-1.25897e+09,202566,-0.0157398,0.042173,-0,0.0450145,25714.9,-44961.7,0,51795.9,202566
step02_gravity_refstate-mantle.xmf,427,-6.08548e-08,4.97597e-06,0,1.73809e-06,-1.28449e+09,-1.28382e+09,-1.28448e+09,232296,-0.0214833,0.0441166,-0,0.0490694,24364.1,-45750.8,0,51833.8,232296
step02_gravity_refstate-mantle.xmf,428,-6.13786e-07,6.48855e-06,0,1.85956e-06,-1.32915e+09,-1.32821e+09,-1.32907e+09,248530,-0.0334703,0.0593593,-0,0.0681453,20458.7,-47130.6,0,51379.5,248530
step02_gravity_refstate-mantle.xmf,429,-6.39404e-08,5.85104e-06,0,2.04161e-06,-1.3297e+09,-1.32891e+09,-1.3297e+09,272861,-0.0340751,0.0510324,-0,0.0613631,21664,-47149.7,0,51888.5,272861
step02_gravity_refstate-mantle.xmf,430,-2.06806e-08,5.34502e-06,0,1.91434e-06,-1.30768e+09,-1.30697e+09,-1.30768e+09,255851,-0.027551,0.0469083,-0,0.0544008,23046.8,-46468.4,0,51869.7,255851
step02_gravity_refstate-mantle.xmf,431,-8.12931e-06,1.65108e-05,0,-3.97922e-06,-1.40372e+09,-1.40042e+09,-1.40263e+09,-531823,-0.0362892,0.189017,-0,0.192469,10702.2,-49409.2,0,50555,531823
step02_gravity_refstate-mantle.xmf,432,-1.10947e-05,1.93982e-05,0,-8.29602e-06,-1.42031e+09,-1.41624e+09,-1.41883e+09,-1.10876e+06,-0.0290673,0.249976,-0,0.25166,8719,-49909.4,0,50665.2,1.10876e+06
step02_gravity_refstate-mantle.xmf,433,-1.03199e-05,1.8207e-05,0,-7.16202e-06,-1.40822e+09,-1.40441e+09,-1.40684e+09,-957204,-0.0266269,0.232666,-0,0.234185,9331.48,-49538,0,50409.2,957204
step02_gravity_refstate-mantle.xmf,434,-1.2264e-05,2.24326e-05,0,-5.15237e-05,-1.488e+09,-1.48336e+09,-1.48636e+09,-6.88615e+06,-0.0352252,0.562829,-0,0.56393,4000,-52000.2,0,52153.8,6.88615e+06
step02_gravity_refstate-mantle.xmf,435,-2.77636e-05,7.97696e-05,0,-2.2169e-05,-1.63074e+09,-1.61637e+09,-1.62703e+09,-2.96289e+06,-0.159692,0.292727,-0,0.333452,3734.74,-56452.6,0,56576,2.96289e+06
step02_gravity_refstate-mantle.xmf,436,-2.23872e-05,7.1235e-05,0,-1.75185e-05,-1.64532e+09,-1.63281e+09,-1.64233e+09,-2.34135e+06,-0.182553,0.22305,-0,0.28823,4542.54,-56917.1,0,57098,2.34135e+06
step02_gravity_refstate-mantle.xmf,437,-2.03679e-05,6.75546e-05,0,-1.45728e-05,-1.66068e+09,-1.64893e+09,-1.65796e+09,-1.94765e+06,-0.190892,0.179347,-0,0.261926,4827.91,-57395.7,0,57598.4,1.94765e+06
step02_gravity_refstate-mantle.xmf,438,-1.31109e-05,5.5257e-05,0,-6.11645e-06,-1.70266e+09,-1.69353e+09,-1.70091e+09,-817464,-0.214417,0.0720116,-0,0.226186,5943.25,-58709.6,0,59009.6,817464
step02_gravity_refstate-mantle.xmf,439,-1.62401e-05,6.04491e-05,0,-9.3331e-06,-1.68644e+09,-1.67619e+09,-1.68427e+09,-1.24737e+06,-0.205654,0.110365,-0,0.233397,5459.79,-58200.7,0,58456.2,1.24737e+06
step02_gravity_refstate-mantle.xmf,440,-1.16426e-05,5.26534e-05,0,-2.61209e-06,-1.72533e+09,-1.71674e+09,-1.72377e+09,-349106,-0.219526,0.0309887,-0,0.221702,6229.51,-59412.8,0,59738.5,349106
step02_gravity_refstate-mantle.xmf,441,-8.90663e-06,4.82128e-05,0,3.59999e-08,-1.74411e+09,-1.73648e+09,-1.74292e+09,4811.39,-0.224317,-2.92133e-18,-0,0.224317,6651.63,-60000,0,60367.6,4811.39
step02_gravity_refstate-mantle.xmf,442,-1.31575e-05,1.96549e-05,0,-1.34753e-05,-1.4196e+09,-1.41521e+09,-1.41784e+09,-1.80098e+06,-0.0138725,0.306135,-0,0.30645,7536.63,-49874.2,0,50440.4,1.80098e+06
step02_gravity_refstate-mantle.xmf,443,-1.39126e-05,2.01406e-05,0,-1.61021e-05,-1.42844e+09,-1.42389e+09,-1.42658e+09,-2.15204e+06,-0.0130733,0.333715,-0,0.333971,6946.69,-50143.5,0,50622.4,2.15204e+06
step02_gravity_refstate-mantle.xmf,444,-1.33988e-05,1.5432e-05,0,-4.03142e-05,-1.46452e+09,-1.46066e+09,-1.46273e+09,-5.38799e+06,-0.0109787,0.521967,-0,0.522082,4417.05,-51249.3,0,51439.3,5.38799e+06
step02_gravity_refstate-mantle.xmf,445,-1.50892e-05,2.04403e-05,0,-2.97389e-05,-1.45871e+09,-1.45396e+09,-1.4567e+09,-3.97461e+06,-0.0153062,0.448144,-0,0.448405,5153.04,-51071.5,0,51330.8,3.97461e+06
step02_gravity_refstate-mantle.xmf,446,-1.44922e-05,2.02665e-05,0,-1.94496e-05,-1.43637e+09,-1.43172e+09,-1.43443e+09,-2.59943e+06,-0.0118079,0.364992,-0,0.365183,6375.69,-50384.9,0,50786.7,2.59943e+06
step02_gravity_refstate-mantle.xmf,447,-1.50463e-05,2.01643e-05,0,-2.58881e-05,-1.44937e+09,-1.44466e+09,-1.44736e+09,-3.45995e+06,-0.0117908,0.418628,-0,0.418794,5553.02,-50782.6,0,51085.3,3.45995e+06
step02_gravity_refstate-mantle.xmf,448,-6.56926e-07,4.14318e-06,0,4.85349e-07,-1.14819e+09,-1.14755e+09,-1.1481e+09,64866.9,-0.000396921,0.042118,-0,0.0421198,30508.7,-41534.3,0,51535.2,64866.9
step02_gravity_refstate-mantle.xmf,449,-6.07243e-07,3.84409e-06,0,9.1858e-08,-1.09853e+09,-1.09794e+09,-1.09845e+09,12276.8,0.00165323,0.0422158,0,0.0422481,33464.7,-40000,0,52152.5,12276.8
step02_gravity_refstate-mantle.xmf,450,-4.31641e-06,1.10596e-05,0,-6.50982e-07,-1.35027e+09,-1.34821e+09,-1.34969e+09,-87003.8,-0.0292126,0.122565,-0,0.125998,14596.3,-47769.8,0,49950,87003.8
step02_gravity_refstate-mantle.xmf,451,-2.92137e-06,9.25187e-06,0,4.901e-07,-1.3368e+09,-1.33518e+09,-1.33641e+09,65501.9,-0.0297736,0.0977503,-0,0.102184,16495.3,-47358.5,0,50149.1,65501.9
step02_gravity_refstate-mantle.xmf,452,-1.97129e-07,4.4598e-06,0,1.29441e-06,-1.23787e+09,-1.23724e+09,-1.23784e+09,172998,-0.0117256,0.0405121,-0,0.0421749,26975.7,-44308.3,0,51874,172998
step02_gravity_refstate-mantle.xmf,453,-6.55369e-07,4.48433e-06,0,9.37151e-07,-1.19634e+09,-1.19565e+09,-1.19625e+09,125250,-0.00489297,0.0435052,-0,0.0437795,27790.7,-43022.6,0,51217.8,125250
step02_gravity_refstate-mantle.xmf,454,-1.57737e-06,7.70454e-06,0,1.41352e-06,-1.33309e+09,-1.33185e+09,-1.33288e+09,188917,-0.0328114,0.075132,-0,0.0819842,18534.2,-47248.8,0,50753.9,188917
step02_gravity_refstate-mantle.xmf,455,-1.43919e-06,7.05464e-06,0,1.42223e-06,-1.31323e+09,-1.31209e+09,-1.31303e+09,190081,-0.026905,0.0698875,-0,0.0748876,19577.6,-46634.6,0,50577.3,190081
step02_gravity_refstate-mantle.xmf,456,-9.52418e-06,1.70191e-05,0,-6.23174e-06,-1.39556e+09,-1.39201e+09,-1.39428e+09,-832872,-0.024089,0.217132,-0,0.218464,9956.36,-49149.1,0,50147.4,832872
step02_gravity_refstate-mantle.xmf,457,-1.23379e-05,1.89176e-05,0,-1.15096e-05,-1.40987e+09,-1.40569e+09,-1.40822e+09,-1.53826e+06,-0.0137875,0.283303,-0,0.283638,8111.55,-49577.2,0,50236.4,1.53826e+06
step02_gravity_refstate-mantle.xmf,458,-7.71498e-06,1.50984e-05,0,-3.9451e-06,-1.38163e+09,-1.37858e+09,-1.38059e+09,-527262,-0.0270507,0.182037,-0,0.184036,11323,-48726,0,50024.3,527262
step02_gravity_refstate-mantle.xmf,459,-1.07691e-05,1.30219e-05,0,-5.03461e-05,-1.4723e+09,-1.46912e+09,-1.47086e+09,-6.72876e+06,-0.0152978,0.571664,-0,0.571869,4000,-51501.2,0,51656.3,6.72876e+06
step02_gravity_refstate-mantle.xmf,460,-3.48789e-05,8.73863e-05,0,-2.6065e-05,-1.617e+09,-1.60066e+09,-1.61234e+09,-3.48359e+06,-0.148847,0.343331,-0,0.374208,3497.18,-56000,0,56109.1,3.48359e+06
step02_gravity_refstate-mantle.xmf,461,-2.65863e-05,7.7689e-05,0,-1.79222e-05,-1.64554e+09,-1.6316e+09,-1.64199e+09,-2.39531e+06,-0.168967,0.245409,-0,0.297952,3990.56,-56912.3,0,57052,2.39531e+06
step02_gravity_refstate-mantle.xmf,462,-1.93322e-05,6.5511e-05,0,-1.17393e-05,-1.67586e+09,-1.66452e+09,-1.67327e+09,-1.56895e+06,-0.196736,0.142056,-0,0.242662,5026.28,-57866.1,0,58084,1.56895e+06
step02_gravity_refstate-mantle.xmf,463,-1.45469e-05,1.6882e-05,0,-3.55658e-05,-1.45661e+09,-1.45241e+09,-1.45467e+09,-4.75338e+06,-0.00707704,0.488979,-0,0.48903,4752.78,-51001.3,0,51222.2,4.75338e+06
step02_gravity_refstate-mantle.xmf,464,-1.47124e-05,1.9467e-05,0,-2.30013e-05,-1.43916e+09,-1.43459e+09,-1.43719e+09,-3.07412e+06,-0.00769896,0.395332,-0,0.395407,5926.38,-50467.5,0,50814.3,3.07412e+06
step02_gravity_refstate-mantle.xmf,465,-9.9759e-07,4.10385e-06,0,6.61059e-08,-1.0986e+09,-1.09791e+09,-1.09846e+09,8835.05,0.00323997,0.0461322,0,0.0462459,31481.8,-40000,0,50902.9,8835.05
step02_gravity_refstate-mantle.xmf,466,-1.12309e-06,4.48478e-06,0,4.77355e-07,-1.14747e+09,-1.14672e+09,-1.14732e+09,63798.5,0.00131615,0.0473472,0,0.0473655,28686.5,-41509.7,0,50457.6,63798.5
step02_gravity_refstate-mantle.xmf,467,-4.15187e-06,9.97622e-06,0,-7.58414e-07,-1.32101e+09,-1.31912e+09,-1.32046e+09,-101362,-0.0188389,0.118316,-0,0.119806,15419,-46864.4,0,49335.7,101362
step02_gravity_refstate-mantle.xmf,468,-5.37538e-06,1.16163e-05,0,-1.95431e-06,-1.3385e+09,-1.33623e+09,-1.33779e+09,-261194,-0.0193421,0.141967,-0,0.143279,13779.3,-47400.7,0,49362.9,261194
step02_gravity_refstate-mantle.xmf,469,-5.99219e-06,1.26909e-05,0,-2.39259e-06,-1.35495e+09,-1.35245e+09,-1.35414e+09,-319769,-0.023285,0.152393,-0,0.154162,12988.1,-47907.2,0,49636.6,319769
step02_gravity_refstate-mantle.xmf,470,-6.75065e-06,1.38604e-05,0,-2.99473e-06,-1.36964e+09,-1.36688e+09,-1.36873e+09,-400246,-0.0262086,0.16513,-0,0.167197,12179.7,-48358.9,0,49869.1,400246
step02_gravity_refstate-mantle.xmf,471,-2.63344e-06,8.39328e-06,0,6.11184e-07,-1.31594e+09,-1.31446e+09,-1.31559e+09,81684.7,-0.0237247,0.090632,-0,0.0936858,17507.4,-46713.7,0,49886.7,81684.7
step02_gravity_refstate-mantle.xmf,472,-1.12775e-06,4.94132e-06,0,9.64211e-07,-1.20152e+09,-1.20071e+09,-1.20137e+09,128867,-0.00407248,0.050109,-0,0.0502743,25866.6,-43180.5,0,50335.3,128867
step02_gravity_refstate-mantle.xmf,473,-1.00606e-06,5.21637e-06,0,1.24346e-06,-1.23575e+09,-1.23492e+09,-1.23561e+09,166189,-0.00975264,0.0516574,-0,0.05257,24396.6,-44239.4,0,50520.5,166189
step02_gravity_refstate-mantle.xmf,474,-1.20471e-06,6.44503e-06,0,1.48493e-06,-1.29737e+09,-1.29634e+09,-1.29721e+09,198461,-0.0230067,0.0634695,-0,0.0675106,20758.7,-46144.6,0,50598.9,198461
step02_gravity_refstate-mantle.xmf,475,-1.0013e-06,5.55427e-06,0,1.39759e-06,-1.26033e+09,-1.25946e+09,-1.2602e+09,186788,-0.0145632,0.0546471,-0,0.0565543,23094.5,-44999.7,0,50579.9,186788
step02_gravity_refstate-mantle.xmf,476,-1.08811e-06,5.97587e-06,0,1.47151e-06,-1.27949e+09,-1.27855e+09,-1.27935e+09,196667,-0.0186901,0.0588915,-0,0.0617862,21873.4,-45592.1,0,50567.7,196667
step02_gravity_refstate-mantle.xmf,477,-8.75707e-06,1.59307e-05,0,-5.43295e-06,-1.38392e+09,-1.38062e+09,-1.38275e+09,-726114,-0.0221931,0.203097,-0,0.204306,10568.4,-48791.9,0,49923.4,726114
step02_gravity_refstate-mantle.xmf,478,-1.15519e-05,1.79888e-05,0,-1.0189e-05,-1.39816e+09,-1.39421e+09,-1.39661e+09,-1.36176e+06,-0.0118453,0.265968,-0,0.266232,8646.11,-49218.3,0,49972,1.36176e+06
step02_gravity_refstate-mantle.xmf,479,-1.07656e-05,1.69135e-05,0,-9.11762e-06,-1.38486e+09,-1.38116e+09,-1.38342e+09,-1.21857e+06,-0.00943565,0.249815,-0,0.249993,9217.3,-48810.1,0,49672.7,1.21857e+06
step02_gravity_refstate-mantle.xmf,480,-9.30315e-06,4.06474e-06,0,-4.80414e-05,-1.45653e+09,-1.45474e+09,-1.45529e+09,-6.42073e+06,0.00222431,0.575946,0,0.57595,4000,-51001,0,51157.6,6.42073e+06
step02_gravity_refstate-mantle.xmf,481,-3.5739e-05,9.21768e-05,0,-2.24142e-05,-1.63142e+09,-1.61433e+09,-1.62665e+09,-2.99566e+06,-0.142853,0.319888,-0,0.350336,3203.59,-56452.1,0,56542.9,2.99566e+06
step02_gravity_refstate-mantle.xmf,482,-3.19953e-05,8.66369e-05,0,-1.93801e-05,-1.64617e+09,-1.63031e+09,-1.64189e+09,-2.59016e+06,-0.152723,0.267878,-0,0.308355,3432.7,-56918.4,0,57021.8,2.59016e+06
step02_gravity_refstate-mantle.xmf,483,-2.51624e-05,7.50404e-05,0,-1.50831e-05,-1.66101e+09,-1.64762e+09,-1.65765e+09,-2.01586e+06,-0.178021,0.198588,-0,0.266699,4263.19,-57392.9,0,57551,2.01586e+06
step02_gravity_refstate-mantle.xmf,484,-2.35926e-05,7.21326e-05,0,-1.22021e-05,-1.67658e+09,-1.66378e+09,-1.67342e+09,-1.63081e+06,-0.186024,0.154959,-0,0.24211,4525.53,-57876.8,0,58053.5,1.63081e+06
step02_gravity_refstate-mantle.xmf,485,-2.15579e-05,6.86054e-05,0,-9.21347e-06,-1.69216e+09,-1.68011e+09,-1.68928e+09,-1.23138e+06,-0.194378,0.113274,-0,0.224975,4837.54,-58362.9,0,58563,1.23138e+06
step02_gravity_refstate-mantle.xmf,486,-1.90509e-05,6.44852e-05,0,-6.29142e-06,-1.70732e+09,-1.69616e+09,-1.70478e+09,-840848,-0.202755,0.0753668,-0,0.216309,5199.03,-58837.4,0,59066.6,840848
step02_gravity_refstate-mantle.xmf,487,-1.6553e-05,6.04357e-05,0,-3.15821e-06,-1.72489e+09,-1.7146e+09,-1.72268e+09,-422094,-0.210062,0.0371568,-0,0.213323,5560.86,-59386.3,0,59646.1,422094
step02_gravity_refstate-mantle.xmf,488,-1.40056e-05,5.63793e-05,0,2.94757e-08,-1.74454e+09,-1.73513e+09,-1.74267e+09,3939.43,-0.215919,-3.5197e-18,-0,0.215919,5918.45,-60000,0,60291.2,3939.43
step02_gravity_refstate-mantle.xmf,489,-1.29874e-05,1.76084e-05,0,-1.4918e-05,-1.39919e+09,-1.3951e+09,-1.39746e+09,-1.99379e+06,0.00105797,0.317096,0,0.317098,7553.04,-49239.8,0,49815.7,1.99379e+06
step02_gravity_refstate-mantle.xmf,490,-1.25886e-05,1.04091e-05,0,-4.0298e-05,-1.44864e+09,-1.44556e+09,-1.44695e+09,-5.38583e+06,0.00496064,0.526639,0,0.526662,4432.3,-50751.4,0,50944.5,5.38583e+06
step02_gravity_refstate-mantle.xmf,491,-1.36431e-05,1.7722e-05,0,-1.74558e-05,-1.40824e+09,-1.40405e+09,-1.40642e+09,-2.33297e+06,0.00247621,0.344114,0,0.344123,6972.11,-49515.3,0,50003.7,2.33297e+06
step02_gravity_refstate-mantle.xmf,492,-1.40608e-05,1.74665e-05,0,-2.04454e-05,-1.41696e+09,-1.41275e+09,-1.41508e+09,-2.73252e+06,0.00368862,0.3734,0,0.373418,6420.55,-49781.1,0,50193.4,2.73252e+06
step02_gravity_refstate-mantle.xmf,493,-1.4201e-05,1.44172e-05,0,-3.40026e-05,-1.44297e+09,-1.43914e+09,-1.44107e+09,-4.54445e+06,0.00323651,0.476843,0,0.476854,4941.48,-50575.7,0,50816.5,4.54445e+06
step02_gravity_refstate-mantle.xmf,494,-1.41441e-05,1.6658e-05,0,-2.39807e-05,-1.42456e+09,-1.42044e+09,-1.42267e+09,-3.20502e+06,0.00499891,0.404767,0,0.404797,5909.9,-50013.2,0,50361.2,3.20502e+06
step02_gravity_refstate-mantle.xmf,495,-1.40644e-05,1.55638e-05,0,-2.8164e-05,-1.43267e+09,-1.42871e+09,-1.43079e+09,-3.76412e+06,0.00502314,0.437333,0,0.437362,5439.92,-50261.4,0,50554.9,3.76412e+06
step02_gravity_refstate-mantle.xmf,496,-1.46765e-06,4.41349e-06,0,-7.4888e-10,-1.09867e+09,-1.09789e+09,-1.09848e+09,-100.088,0.00556715,0.051225,0,0.0515266,29588.3,-40000,0,49754.1,100.088
step02_gravity_refstate-mantle.xmf,497,-4.9478e-06,1.07565e-05,0,-1.68128e-06,-1.32281e+09,-1.32071e+09,-1.32214e+09,-224703,-0.0152661,0.134394,-0,0.135258,14455.5,-46916.4,0,49092.9,224703
step02_gravity_refstate-mantle.xmf,498,-3.62825e-06,8.97939e-06,0,-3.35892e-07,-1.30138e+09,-1.2997e+09,-1.3009e+09,-44892,-0.0145725,0.10749,-0,0.108473,16515.9,-46258.9,0,49118.9,44892
step02_gravity_refstate-mantle.xmf,499,-1.64516e-06,4.87091e-06,0,4.17797e-07,-1.14793e+09,-1.14706e+09,-1.14771e+09,55838.5,0.00374594,0.0538623,0,0.0539924,26892.2,-41521.5,0,49469.5,55838.5
step02_gravity_refstate-mantle.xmf,500,-2.42058e-06,7.66112e-06,0,7.30073e-07,-1.29494e+09,-1.29359e+09,-1.29461e+09,97574.3,-0.0181412,0.0841288,-0,0.0860625,18544.2,-46064.5,0,49657.1,97574.3
step02_gravity_refstate-mantle.xmf,501,-2.22693e-06,7.03393e-06,0,8.33707e-07,-1.27482e+09,-1.27358e+09,-1.27452e+09,111425,-0.0134812,0.077737,-0,0.0788973,19637.4,-45442.9,0,49504.4,111425
step02_gravity_refstate-mantle.xmf,502,-9.85989e-06,1.59502e-05,0,-7.81472e-06,-1.37349e+09,-1.37004e+09,-1.37217e+09,-1.04444e+06,-0.00922941,0.231219,-0,0.231403,9876.2,-48462.5,0,49458.6,1.04444e+06
step02_gravity_refstate-mantle.xmf,503,-1.23237e-05,1.73994e-05,0,-1.2993e-05,-1.39207e+09,-1.3881e+09,-1.39042e+09,-1.73652e+06,-0.000704897,0.295468,-0,0.295469,8066.42,-49023.7,0,49682.9,1.73652e+06
step02_gravity_refstate-mantle.xmf,504,-8.93541e-06,1.50266e-05,0,-6.53483e-06,-1.36339e+09,-1.36019e+09,-1.3622e+09,-873381,-0.00994077,0.212649,-0,0.212881,10578.5,-48154.4,0,49302.7,873381
step02_gravity_refstate-mantle.xmf,505,-3.85784e-05,9.83525e-05,0,-2.18171e-05,-1.61689e+09,-1.59859e+09,-1.61173e+09,-2.91585e+06,-0.130517,0.374105,-0,0.396218,2997.53,-56000,0,56080.2,2.91585e+06
step02_gravity_refstate-mantle.xmf,506,-3.00097e-05,8.26062e-05,0,-1.57254e-05,-1.66124e+09,-1.64619e+09,-1.65723e+09,-2.10169e+06,-0.162446,0.218266,-0,0.272082,3698.38,-57386.9,0,57506,2.10169e+06
step02_gravity_refstate-mantle.xmf,507,-9.05914e-06,-2.65022e-06,0,-4.40576e-05,-1.44088e+09,-1.44002e+09,-1.43966e+09,-5.8883e+06,0.0157906,0.576117,0,0.576333,4000,-50501.8,0,50659.9,5.8883e+06
step02_gravity_refstate-mantle.xmf,508,-2.00463e-06,4.75841e-06,0,-1.18604e-07,-1.09876e+09,-1.09786e+09,-1.09849e+09,-15851.4,0.00870002,0.0575848,0,0.0582383,27779.3,-40000,0,48700,15851.4
step02_gravity_refstate-mantle.xmf,509,-5.08186e-06,1.00815e-05,0,-2.20202e-06,-1.29544e+09,-1.29342e+09,-1.29476e+09,-294299,-0.0040099,0.139093,-0,0.139151,14679.3,-46068.6,0,48350.8,294299
step02_gravity_refstate-mantle.xmf,510,-8.01273e-06,1.4043e-05,0,-5.34339e-06,-1.35266e+09,-1.34971e+09,-1.35158e+09,-714144,-0.0104716,0.194519,-0,0.194801,11345.5,-47826.4,0,49153.7,714144
step02_gravity_refstate-mantle.xmf,511,-5.68609e-06,1.09343e-05,0,-2.90308e-06,-1.30878e+09,-1.30656e+09,-1.30802e+09,-387996,-0.00525768,0.151873,-0,0.151964,13803.3,-46478.8,0,48485.1,387996
step02_gravity_refstate-mantle.xmf,512,-6.33417e-06,1.18981e-05,0,-3.5504e-06,-1.32429e+09,-1.32185e+09,-1.32344e+09,-474511,-0.00769542,0.16398,-0,0.16416,12992.9,-46956,0,48720.4,474511
step02_gravity_refstate-mantle.xmf,513,-7.11679e-06,1.29535e-05,0,-4.35088e-06,-1.33915e+09,-1.33647e+09,-1.3382e+09,-581495,-0.00955669,0.178122,-0,0.178378,12167.5,-47412.4,0,48948.8,581495
step02_gravity_refstate-mantle.xmf,514,-3.32275e-06,8.16886e-06,0,-1.29136e-07,-1.27845e+09,-1.27692e+09,-1.27801e+09,-17259,-0.00894189,0.0999584,-0,0.100358,17532.3,-45550.6,0,48808.2,17259
step02_gravity_refstate-mantle.xmf,515,-4.54848e-06,9.27498e-06,0,-1.56683e-06,-1.28097e+09,-1.27912e+09,-1.28036e+09,-209407,-0.00241745,0.126926,-0,0.126949,15624.3,-45622.9,0,48224.1,209407
step02_gravity_refstate-mantle.xmf,516,-1.94419e-06,5.46108e-06,0,6.60012e-07,-1.18818e+09,-1.18719e+09,-1.18792e+09,88210.5,0.00132467,0.0608807,0,0.0608951,24143.3,-42764.3,0,49108.9,88210.5
step02_gravity_refstate-mantle.xmf,517,-1.73014e-06,5.65419e-06,0,9.29665e-07,-1.2199e+09,-1.21892e+09,-1.21967e+09,124250,-0.0043308,0.0608845,-0,0.0610383,23224.4,-43746.2,0,49528.9,124250
step02_gravity_refstate-mantle.xmf,518,-2.0936e-06,6.51687e-06,0,8.75186e-07,-1.25462e+09,-1.25347e+09,-1.25434e+09,116969,-0.00928128,0.072183,-0,0.0727773,20743.8,-44818.4,0,49386.1,116969
step02_gravity_refstate-mantle.xmf,519,-2.09413e-06,6.09201e-06,0,8.04595e-07,-1.22726e+09,-1.22616e+09,-1.22698e+09,107534,-0.00377,0.0682377,-0,0.0683418,21932.7,-43972.1,0,49138.5,107534
step02_gravity_refstate-mantle.xmf,520,-1.16889e-05,1.5999e-05,0,-1.27876e-05,-1.37421e+09,-1.37051e+09,-1.37265e+09,-1.70907e+06,0.00637549,0.289314,0,0.289385,8401.43,-48472.8,0,49195.5,1.70907e+06
step02_gravity_refstate-mantle.xmf,521,-1.06652e-05,1.52906e-05,0,-1.08171e-05,-1.36135e+09,-1.35788e+09,-1.35992e+09,-1.44571e+06,0.00550306,0.264842,0,0.264899,9133.65,-48080.3,0,48940.1,1.44571e+06
step02_gravity_refstate-mantle.xmf,522,-4.11941e-05,0.000106125,0,-1.76731e-05,-1.61681e+09,-1.59712e+09,-1.61131e+09,-2.36201e+06,-0.110681,0.400837,-0,0.415837,2497.35,-56000,0,56055.7,2.36201e+06
step02_gravity_refstate-mantle.xmf,523,-4.02138e-05,0.00010119,0,-1.90515e-05,-1.6309e+09,-1.612e+09,-1.62553e+09,-2.54623e+06,-0.123597,0.346626,-0,0.368002,2702.24,-56429.1,0,56493.7,2.54623e+06
step02_gravity_refstate-mantle.xmf,524,-3.86566e-05,9.71014e-05,0,-1.79433e-05,-1.64712e+09,-1.62897e+09,-1.64195e+09,-2.39813e+06,-0.132044,0.290949,-0,0.31951,2845.88,-56930,0,57001.1,2.39813e+06
step02_gravity_refstate-mantle.xmf,525,-3.56995e-05,9.16923e-05,0,-1.58931e-05,-1.66138e+09,-1.64436e+09,-1.65661e+09,-2.12411e+06,-0.143552,0.238842,-0,0.278662,3123.08,-57376.6,0,57461.5,2.12411e+06
step02_gravity_refstate-mantle.xmf,526,-2.84054e-05,7.95213e-05,0,-1.2679e-05,-1.67675e+09,-1.66232e+09,-1.67295e+09,-1.69455e+06,-0.17147,0.170928,-0,0.242113,3966.02,-57868.9,0,58004.6,1.69455e+06
step02_gravity_refstate-mantle.xmf,527,-2.67172e-05,7.65184e-05,0,-9.62507e-06,-1.69297e+09,-1.67918e+09,-1.6894e+09,-1.28639e+06,-0.179777,0.12513,-0,0.219037,4231.63,-58373.6,0,58526.8,1.28639e+06
step02_gravity_refstate-mantle.xmf,528,-2.46912e-05,7.3064e-05,0,-6.38017e-06,-1.71004e+09,-1.69698e+09,-1.70674e+09,-852709,-0.188207,0.0801977,-0,0.204581,4528.85,-58905.6,0,59079.4,852709
step02_gravity_refstate-mantle.xmf,529,-2.22182e-05,6.91054e-05,0,-3.15633e-06,-1.72727e+09,-1.71507e+09,-1.7243e+09,-421843,-0.196574,0.0384469,-0,0.200299,4862.31,-59444.2,0,59642.7,421843
step02_gravity_refstate-mantle.xmf,530,-1.9544e-05,6.49713e-05,0,1.79645e-08,-1.74503e+09,-1.73373e+09,-1.74242e+09,2400.95,-0.203922,-3.65233e-18,-0,0.203922,5203.28,-60000,0,60225.2,2400.95
step02_gravity_refstate-mantle.xmf,531,-1.23687e-05,1.55816e-05,0,-1.58856e-05,-1.37884e+09,-1.37511e+09,-1.37719e+09,-2.12312e+06,0.0130905,0.324107,0,0.324372,7619.96,-48610.2,0,49203.8,2.12312e+06
step02_gravity_refstate-mantle.xmf,532,-1.29013e-05,1.52747e-05,0,-1.85095e-05,-1.3877e+09,-1.38393e+09,-1.38597e+09,-2.47379e+06,0.0156599,0.352797,0,0.353144,7003.64,-48879.4,0,49378.6,2.47379e+06
step02_gravity_refstate-mantle.xmf,533,-8.14916e-06,4.44063e-06,0,-4.07088e-05,-1.43229e+09,-1.4306e+09,-1.4312e+09,-5.44074e+06,0.0167446,0.527991,0,0.528256,4456.05,-50260.7,0,50457.9,5.44074e+06
step02_gravity_refstate-mantle.xmf,534,-1.32103e-05,1.46486e-05,0,-2.14185e-05,-1.39728e+09,-1.39356e+09,-1.39551e+09,-2.86258e+06,0.0173061,0.382768,0,0.383159,6427.09,-49171.6,0,49589.9,2.86258e+06
step02_gravity_refstate-mantle.xmf,535,-1.31152e-05,1.34976e-05,0,-2.46569e-05,-1.40652e+09,-1.40296e+09,-1.40477e+09,-3.2954e+06,0.0183079,0.414052,0,0.414456,5897.97,-49454.7,0,49805.2,3.2954e+06
step02_gravity_refstate-mantle.xmf,536,-1.23735e-05,1.15578e-05,0,-2.84568e-05,-1.41542e+09,-1.41222e+09,-1.41377e+09,-3.80325e+06,0.0186136,0.447881,0,0.448268,5398.86,-49729.7,0,50021.9,3.80325e+06
step02_gravity_refstate-mantle.xmf,537,-1.06932e-05,8.61118e-06,0,-3.32527e-05,-1.4242e+09,-1.42162e+09,-1.42277e+09,-4.44423e+06,0.0177576,0.484365,0,0.48469,4931.57,-50004.5,0,50247.1,4.44423e+06
step02_gravity_refstate-mantle.xmf,538,-4.16049e-06,8.52955e-06,0,-1.12648e-06,-1.26274e+09,-1.26105e+09,-1.26219e+09,-150553,0.000755886,0.117235,0,0.117237,16567.5,-45060.7,0,48009.9,150553
step02_gravity_refstate-mantle.xmf,539,-2.59354e-06,5.12351e-06,0,-2.96648e-07,-1.09886e+09,-1.09783e+09,-1.09851e+09,-39647,0.0126675,0.0653201,0,0.0665371,26050.1,-40000,0,47734.8,39647
step02_gravity_refstate-mantle.xmf,540,-2.25598e-06,5.28965e-06,0,2.42895e-07,-1.14601e+09,-1.145e+09,-1.1457e+09,32462.9,0.00746924,0.0623232,0,0.0627691,25155.8,-41459.1,0,48494,32462.9
step02_gravity_refstate-mantle.xmf,541,-2.58093e-06,5.89582e-06,0,3.58116e-07,-1.18285e+09,-1.18171e+09,-1.1825e+09,47862.2,0.00583901,0.0710174,0,0.0712571,22691.6,-42596.5,0,48263.5,47862.2
step02_gravity_refstate-mantle.xmf,542,-3.13526e-06,7.5089e-06,0,5.32332e-08,-1.25618e+09,-1.25476e+09,-1.25576e+09,7114.61,-0.00408932,0.0930609,-0,0.0931507,18561.3,-44862.1,0,48550.3,7114.61
step02_gravity_refstate-mantle.xmf,543,-3.00382e-06,6.95615e-06,0,1.66142e-07,-1.2332e+09,-1.23187e+09,-1.2328e+09,22204.8,0.000359824,0.0869021,0,0.0869029,19623.7,-44151.8,0,48316.4,22204.8
step02_gravity_refstate-mantle.xmf,544,-9.77275e-06,1.45953e-05,0,-9.26619e-06,-1.35041e+09,-1.34716e+09,-1.34911e+09,-1.23843e+06,0.00447546,0.244418,0,0.244459,9812.02,-47746.7,0,48744.5,1.23843e+06
step02_gravity_refstate-mantle.xmf,545,-8.83865e-06,1.37125e-05,0,-7.87638e-06,-1.33728e+09,-1.33427e+09,-1.3361e+09,-1.05268e+06,0.00433978,0.225031,0,0.225073,10554.9,-47345.2,0,48507.5,1.05268e+06
step02_gravity_refstate-mantle.xmf,546,-4.29089e-05,0.000111577,0,-1.37652e-05,-1.61673e+09,-1.59609e+09,-1.611e+09,-1.83972e+06,-0.0897043,0.422655,-0,0.43207,1997.54,-56000,0,56035.6,1.83972e+06
step02_gravity_refstate-mantle.xmf,547,-4.29597e-05,0.000107729,0,-1.56774e-05,-1.62793e+09,-1.60779e+09,-1.62219e+09,-2.09529e+06,-0.103913,0.375916,-0,0.390014,2249.54,-56335.6,0,56380.5,2.09529e+06
step02_gravity_refstate-mantle.xmf,548,-3.34668e-05,8.7333e-05,0,-1.30005e-05,-1.67624e+09,-1.66009e+09,-1.67176e+09,-1.73751e+06,-0.153864,0.189103,-0,0.243791,3397.96,-57839.2,0,57938.9,1.73751e+06
step02_gravity_refstate-mantle.xmf,549,7.5589e-06,-1.07271e-05,0,-4.75087e-05,-1.4217e+09,-1.42415e+09,-1.42271e+09,-6.34953e+06,0.0224785,0.574634,0,0.575073,4000,-50000,0,50159.7,6.34953e+06
step02_gravity_refstate-mantle.xmf,550,-5.25631e-06,9.33598e-06,0,-2.92068e-06,-1.26192e+09,-1.25997e+09,-1.26122e+09,-390349,0.00959459,0.147629,0,0.147941,14762.4,-45030,0,47388.1,390349
step02_gravity_refstate-mantle.xmf,551,-5.76363e-06,1.00889e-05,0,-3.66883e-06,-1.27773e+09,-1.27561e+09,-1.27696e+09,-490339,0.00794794,0.160388,0,0.160585,13880.3,-45516.8,0,47586.1,490339
step02_gravity_refstate-mantle.xmf,552,-7.94287e-06,1.27869e-05,0,-6.61337e-06,-1.32353e+09,-1.32076e+09,-1.32247e+09,-883877,0.00449386,0.206662,0,0.20671,11344.3,-46923.9,0,48275.7,883877
step02_gravity_refstate-mantle.xmf,553,-6.38832e-06,1.09435e-05,0,-4.52671e-06,-1.29372e+09,-1.2914e+09,-1.29286e+09,-604995,0.00635322,0.17444,0,0.174555,13008.5,-46008.7,0,47812.4,604995
step02_gravity_refstate-mantle.xmf,554,-7.12153e-06,1.18625e-05,0,-5.49576e-06,-1.30925e+09,-1.30671e+09,-1.3083e+09,-734508,0.00506372,0.189749,0,0.189816,12162.4,-46486,0,48050.7,734508
step02_gravity_refstate-mantle.xmf,555,-3.89806e-06,7.85684e-06,0,-8.3527e-07,-1.24046e+09,-1.23889e+09,-1.23994e+09,-111634,0.00513008,0.109355,0,0.109475,17535.8,-44372.4,0,47711.7,111634
step02_gravity_refstate-mantle.xmf,556,-4.8627e-06,8.6772e-06,0,-2.30261e-06,-1.2457e+09,-1.24389e+09,-1.24505e+09,-307743,0.0115074,0.136446,0,0.136931,15641.7,-44530,0,47197.3,307743
step02_gravity_refstate-mantle.xmf,557,-2.9048e-06,5.69967e-06,0,-4.20533e-08,-1.14251e+09,-1.14136e+09,-1.14212e+09,-5620.43,0.0122767,0.0723724,0,0.0734063,23555.4,-41347.7,0,47586.7,5620.43
step02_gravity_refstate-mantle.xmf,558,-2.85433e-06,6.53174e-06,0,2.68691e-07,-1.21551e+09,-1.21425e+09,-1.21513e+09,35910.6,0.00272441,0.0808073,0,0.0808532,20660.9,-43605.2,0,48252.3,35910.6
step02_gravity_refstate-mantle.xmf,559,-1.13082e-05,1.3395e-05,0,-1.6489e-05,-1.35633e+09,-1.35303e+09,-1.35482e+09,-2.20375e+06,0.0238029,0.329101,0,0.329961,7722.38,-47916.1,0,48534.4,2.20375e+06
step02_gravity_refstate-mantle.xmf,560,-1.07812e-05,1.36895e-05,0,-1.40865e-05,-1.34806e+09,-1.34479e+09,-1.34662e+09,-1.88266e+06,0.0202562,0.301214,0,0.301894,8403.58,-47665.1,0,48400.2,1.88266e+06
step02_gravity_refstate-mantle.xmf,561,-1.00119e-05,1.3394e-05,0,-1.21513e-05,-1.33656e+09,-1.33343e+09,-1.33522e+09,-1.62402e+06,0.0185898,0.277583,0,0.278205,9089.22,-47314.2,0,48179.3,1.62402e+06
step02_gravity_refstate-mantle.xmf,562,-4.51113e-05,0.000111892,0,-1.21829e-05,-1.63099e+09,-1.61e+09,-1.62496e+09,-1.62824e+06,-0.0848275,0.381874,-0,0.391182,1800.63,-56426.4,0,56455.2,1.62824e+06
step02_gravity_refstate-mantle.xmf,563,-4.34946e-05,0.000105889,0,-1.48272e-05,-1.64374e+09,-1.62377e+09,-1.63792e+09,-1.98166e+06,-0.106955,0.324742,-0,0.341901,2247.5,-56815.7,0,56860.1,1.98166e+06
step02_gravity_refstate-mantle.xmf,564,-4.12491e-05,0.000100366,0,-1.41767e-05,-1.66121e+09,-1.64228e+09,-1.65569e+09,-1.89471e+06,-0.120868,0.259794,-0,0.286534,2534.63,-57356.2,0,57412.2,1.89471e+06
step02_gravity_refstate-mantle.xmf,565,-3.88115e-05,9.55544e-05,0,-1.23588e-05,-1.67678e+09,-1.65883e+09,-1.6716e+09,-1.65176e+06,-0.132893,0.204437,-0,0.243834,2817.51,-57841.3,0,57909.9,1.65176e+06
step02_gravity_refstate-mantle.xmf,566,-3.16941e-05,8.39966e-05,0,-1.00989e-05,-1.69165e+09,-1.67619e+09,-1.68741e+09,-1.34972e+06,-0.163029,0.14164,-0,0.215964,3660.14,-58318.6,0,58433.3,1.34972e+06
step02_gravity_refstate-mantle.xmf,567,-3.03455e-05,8.16088e-05,0,-6.8003e-06,-1.70961e+09,-1.69464e+09,-1.70555e+09,-908860,-0.170017,0.0917926,-0,0.193214,3868.61,-58876.1,0,59003.1,908860
step02_gravity_refstate-mantle.xmf,568,-2.80657e-05,7.78948e-05,0,-3.31107e-06,-1.72795e+09,-1.71379e+09,-1.7242e+09,-442524,-0.179217,0.0429685,-0,0.184296,4171.68,-59448.5,0,59594.7,442524
step02_gravity_refstate-mantle.xmf,569,-2.5368e-05,7.37817e-05,0,1.47798e-08,-1.74556e+09,-1.73231e+09,-1.74217e+09,1975.32,-0.188159,-4.0931e-18,-0,0.188159,4501.23,-60000,0,60168.6,1975.32
step02_gravity_refstate-mantle.xmf,570,-1.17789e-05,1.28729e-05,0,-1.92097e-05,-1.36683e+09,-1.36353e+09,-1.36525e+09,-2.56737e+06,0.0265037,0.359501,0,0.360477,7046.14,-48235.9,0,48747.8,2.56737e+06
step02_gravity_refstate-mantle.xmf,571,-1.19622e-05,1.18679e-05,0,-2.21083e-05,-1.37682e+09,-1.37364e+09,-1.37523e+09,-2.95478e+06,0.0287834,0.390659,0,0.391718,6434.72,-48541,0,48965.6,2.95478e+06
step02_gravity_refstate-mantle.xmf,572,-6.90991e-06,7.33918e-07,0,-3.55553e-05,-1.41536e+09,-1.41433e+09,-1.41443e+09,-4.75196e+06,0.0276346,0.527817,0,0.52854,4470.3,-49736.5,0,49937,4.75196e+06
step02_gravity_refstate-mantle.xmf,573,-1.18383e-05,1.04398e-05,0,-2.51309e-05,-1.38701e+09,-1.38403e+09,-1.38543e+09,-3.35874e+06,0.0300371,0.421986,0,0.423054,5887.42,-48852.8,0,49206.2,3.35874e+06
step02_gravity_refstate-mantle.xmf,574,-1.11607e-05,8.27201e-06,0,-2.84258e-05,-1.39682e+09,-1.39422e+09,-1.39532e+09,-3.7991e+06,0.0305681,0.455284,0,0.456309,5376.81,-49154.7,0,49447.9,3.7991e+06
step02_gravity_refstate-mantle.xmf,575,-9.53867e-06,5.22234e-06,0,-3.18781e-05,-1.4066e+09,-1.40462e+09,-1.40532e+09,-4.26051e+06,0.0297239,0.490334,0,0.491234,4906.02,-49459.9,0,49702.6,4.26051e+06
step02_gravity_refstate-mantle.xmf,576,-4.55375e-06,8.0988e-06,0,-1.7747e-06,-1.22882e+09,-1.22713e+09,-1.22821e+09,-237189,0.0135058,0.126235,0,0.126955,16550.2,-44009.1,0,47018.2,237189
step02_gravity_refstate-mantle.xmf,577,-3.21751e-06,5.49446e-06,0,-5.44006e-07,-1.09896e+09,-1.0978e+09,-1.09853e+09,-72706.4,0.0174622,0.0745485,0,0.0765664,24396.4,-40000,0,46852.8,72706.4
step02_gravity_refstate-mantle.xmf,578,-3.20883e-06,6.31756e-06,0,-4.59289e-08,-1.17921e+09,-1.17794e+09,-1.17878e+09,-6138.4,0.0108612,0.0826636,0,0.0833741,21276.5,-42481.1,0,47511.4,6138.4
step02_gravity_refstate-mantle.xmf,579,-3.54229e-06,6.08157e-06,0,-4.18706e-07,-1.13958e+09,-1.13829e+09,-1.1391e+09,-55960,0.01777,0.0838651,0,0.0857271,22048.6,-41254,0,46776.4,55960
step02_gravity_refstate-mantle.xmf,580,-3.81066e-06,7.29601e-06,0,-6.53265e-07,-1.21511e+09,-1.21362e+09,-1.2146e+09,-87308.9,0.0100356,0.103088,0,0.103575,18509.5,-43588.4,0,47355.6,87308.9
step02_gravity_refstate-mantle.xmf,581,-3.75417e-06,6.76392e-06,0,-5.44942e-07,-1.18498e+09,-1.18358e+09,-1.18448e+09,-72831.6,0.0147166,0.096167,0,0.0972865,19720.4,-42656.8,0,46994.7,72831.6
step02_gravity_refstate-mantle.xmf,582,-9.18934e-06,1.2831e-05,0,-1.05312e-05,-1.3235e+09,-1.32056e+09,-1.32227e+09,-1.4075e+06,0.0179414,0.256851,0,0.257477,9783.36,-46914.8,0,47924,1.4075e+06
step02_gravity_refstate-mantle.xmf,583,-8.34195e-06,1.21236e-05,0,-9.01205e-06,-1.30896e+09,-1.30622e+09,-1.30784e+09,-1.20446e+06,0.0177541,0.2367,0,0.237365,10543.8,-46469.5,0,47650.7,1.20446e+06
step02_gravity_refstate-mantle.xmf,584,-4.42798e-05,0.000115406,0,-1.0023e-05,-1.61671e+09,-1.59537e+09,-1.61079e+09,-1.33958e+06,-0.0679286,0.439445,-0,0.444664,1498.34,-56000,0,56020,1.33958e+06
step02_gravity_refstate-mantle.xmf,585,-3.63506e-05,9.11293e-05,0,-1.03424e-05,-1.6896e+09,-1.67256e+09,-1.68474e+09,-1.38227e+06,-0.144591,0.15992,-0,0.215594,3119.9,-58242.3,0,58325.8,1.38227e+06
step02_gravity_refstate-mantle.xmf,586,-4.87783e-06,-5.13906e-06,0,-3.75772e-05,-1.40731e+09,-1.40734e+09,-1.40665e+09,-5.02219e+06,0.0348084,0.558999,0,0.560082,4133.12,-49486.4,0,49658.8,5.02219e+06
step02_gravity_refstate-mantle.xmf,587,-5.36629e-06,8.56303e-06,0,-3.58772e-06,-1.22782e+09,-1.22595e+09,-1.2271e+09,-479499,0.0228168,0.157299,0,0.158945,14751,-43973.8,0,46381.9,479499
step02_gravity_refstate-mantle.xmf,588,-5.73912e-06,9.16298e-06,0,-4.3812e-06,-1.2448e+09,-1.24281e+09,-1.24403e+09,-585547,0.0211547,0.170013,0,0.171324,13889.2,-44497.5,0,46614.7,585547
step02_gravity_refstate-mantle.xmf,589,-6.23812e-06,9.84809e-06,0,-5.35124e-06,-1.26158e+09,-1.25943e+09,-1.26074e+09,-715193,0.0198225,0.184781,0,0.185841,13008.5,-45014.1,0,46856.1,715193
step02_gravity_refstate-mantle.xmf,590,-7.5532e-06,1.13708e-05,0,-7.64681e-06,-1.29395e+09,-1.29142e+09,-1.29294e+09,-1.022e+06,0.0179325,0.21792,0,0.218656,11337.1,-46009.1,0,47385.4,1.022e+06
step02_gravity_refstate-mantle.xmf,591,-6.8491e-06,1.06052e-05,0,-6.42874e-06,-1.27828e+09,-1.27594e+09,-1.27736e+09,-859202,0.0185868,0.200602,0,0.201461,12159,-45527.8,0,47123.5,859202
step02_gravity_refstate-mantle.xmf,592,-4.41569e-06,7.54152e-06,0,-1.51471e-06,-1.20417e+09,-1.20257e+09,-1.20358e+09,-202440,0.0181524,0.119554,0,0.120924,17422.2,-43247,0,46624.4,202440
step02_gravity_refstate-mantle.xmf,593,-5.10261e-06,8.0651e-06,0,-2.95123e-06,-1.21128e+09,-1.20952e+09,-1.21059e+09,-394432,0.0244837,0.146389,0,0.148423,15582.7,-43463.4,0,46172.3,394432
step02_gravity_refstate-mantle.xmf,594,-3.85069e-06,5.85057e-06,0,-8.66992e-07,-1.09907e+09,-1.09777e+09,-1.09855e+09,-115873,0.0230448,0.0853898,0,0.0884448,22813.7,-40000,0,46048.5,115873
step02_gravity_refstate-mantle.xmf,595,-1.03084e-05,1.03866e-05,0,-1.97355e-05,-1.34521e+09,-1.34244e+09,-1.34383e+09,-2.63765e+06,0.0358656,0.366746,0,0.368496,7055.3,-47571.6,0,48091.9,2.63765e+06
step02_gravity_refstate-mantle.xmf,596,-1.00447e-05,1.11424e-05,0,-1.72394e-05,-1.33456e+09,-1.33173e+09,-1.33322e+09,-2.30404e+06,0.0334184,0.338041,0,0.339689,7707.4,-47246.4,0,47871,2.30404e+06
step02_gravity_refstate-mantle.xmf,597,-9.57027e-06,1.14053e-05,0,-1.50674e-05,-1.32301e+09,-1.3202e+09,-1.32173e+09,-2.01375e+06,0.0314861,0.312397,0,0.31398,8368.99,-46893.3,0,47634.3,2.01375e+06
step02_gravity_refstate-mantle.xmf,598,-8.93973e-06,1.12776e-05,0,-1.31629e-05,-1.30981e+09,-1.30711e+09,-1.30862e+09,-1.75922e+06,0.0303577,0.289301,0,0.290889,9049.75,-46489.7,0,47362.3,1.75922e+06
step02_gravity_refstate-mantle.xmf,599,-4.66847e-05,0.000115506,0,-8.5283e-06,-1.63126e+09,-1.60959e+09,-1.62502e+09,-1.13981e+06,-0.0614259,0.394672,-0,0.399424,1289.93,-56433.7,0,56448.4,1.13981e+06
step02_gravity_refstate-mantle.xmf,600,-4.6664e-05,0.000111558,0,-1.05972e-05,-1.64652e+09,-1.62537e+09,-1.64028e+09,-1.41632e+06,-0.0805329,0.333674,-0,0.343255,1653.54,-56894.9,0,56918.9,1.41632e+06
step02_gravity_refstate-mantle.xmf,601,-4.54762e-05,0.000107339,0,-1.12694e-05,-1.66094e+09,-1.64052e+09,-1.65486e+09,-1.50616e+06,-0.095313,0.278002,-0,0.293887,1946.06,-57337.5,0,57370.5,1.50616e+06
step02_gravity_refstate-mantle.xmf,602,-4.35473e-05,0.000102781,0,-1.05427e-05,-1.67742e+09,-1.65786e+09,-1.6716e+09,-1.40904e+06,-0.109015,0.217671,-0,0.243444,2237.34,-57847.7,0,57891,1.40904e+06
step02_gravity_refstate-mantle.xmf,603,-4.09891e-05,9.77914e-05,0,-8.49664e-06,-1.69551e+09,-1.67697e+09,-1.69003e+09,-1.13558e+06,-0.123569,0.154579,-0,0.197899,2574.51,-58411.1,0,58467.8,1.13558e+06
step02_gravity_refstate-mantle.xmf,604,-3.65156e-05,9.07402e-05,0,-7.05955e-06,-1.70777e+09,-1.69076e+09,-1.70289e+09,-943508,-0.145953,0.10857,-0,0.181906,3149.35,-58801.5,0,58885.8,943508
step02_gravity_refstate-mantle.xmf,605,-3.4047e-05,8.67454e-05,0,-3.55202e-06,-1.72723e+09,-1.71109e+09,-1.72268e+09,-474728,-0.157416,0.0512354,-0,0.165544,3470.03,-59409.1,0,59510.3,474728
step02_gravity_refstate-mantle.xmf,606,-3.12927e-05,8.25659e-05,0,5.5694e-09,-1.74611e+09,-1.7309e+09,-1.74193e+09,744.35,-0.168491,-4.89162e-18,-0,0.168491,3806.89,-60000,0,60120.6,744.35
step02_gravity_refstate-mantle.xmf,607,-1.03488e-05,9.1654e-06,0,-2.24495e-05,-1.35586e+09,-1.35325e+09,-1.35448e+09,-3.00037e+06,0.0380311,0.397072,0,0.398889,6440.83,-47897.3,0,48328.4,3.00037e+06
step02_gravity_refstate-mantle.xmf,608,2.20076e-06,-1.8918e-05,0,-4.06398e-05,-1.40815e+09,-1.41097e+09,-1.40844e+09,-5.43151e+06,0.0347301,0.601155,0,0.602157,3714.06,-49524.4,0,49663.5,5.43151e+06
step02_gravity_refstate-mantle.xmf,609,7.17088e-06,-3.03182e-05,0,-3.56192e-05,-1.42341e+09,-1.42842e+09,-1.42437e+09,-4.7605e+06,0.019107,0.63571,0,0.635997,3499.28,-50000,0,50122.3,4.7605e+06
step02_gravity_refstate-mantle.xmf,610,-1.01274e-05,7.44756e-06,0,-2.53313e-05,-1.36661e+09,-1.36426e+09,-1.36525e+09,-3.38552e+06,0.0395678,0.428467,0,0.43029,5874.03,-48226.4,0,48582.8,3.38552e+06
step02_gravity_refstate-mantle.xmf,611,-6.65228e-06,-1.80444e-06,0,-3.46039e-05,-1.39821e+09,-1.39756e+09,-1.39732e+09,-4.62481e+06,0.0383113,0.531175,0,0.532555,4429.75,-49202,0,49401,4.62481e+06
step02_gravity_refstate-mantle.xmf,612,-9.51641e-06,5.04043e-06,0,-2.8398e-05,-1.377e+09,-1.37505e+09,-1.37573e+09,-3.79539e+06,0.0404722,0.461414,0,0.463185,5348.27,-48545.3,0,48839,3.79539e+06
step02_gravity_refstate-mantle.xmf,613,-8.38252e-06,1.71344e-06,0,-3.17627e-05,-1.38736e+09,-1.38601e+09,-1.38624e+09,-4.24508e+06,0.0404198,0.496962,0,0.498603,4849.44,-48864.5,0,49104.5,4.24508e+06
step02_gravity_refstate-mantle.xmf,614,-4.86728e-06,7.6819e-06,0,-2.33647e-06,-1.19731e+09,-1.19564e+09,-1.19666e+09,-312269,0.0249029,0.135169,0,0.137444,16470.3,-43032.6,0,46076.9,312269
step02_gravity_refstate-mantle.xmf,615,-4.1305e-06,6.43636e-06,0,-8.76216e-07,-1.13982e+09,-1.13841e+09,-1.13927e+09,-117106,0.0234908,0.097059,0,0.0998612,20548.7,-41258.5,0,46092.4,117106
step02_gravity_refstate-mantle.xmf,616,-4.46658e-06,6.16747e-06,0,-1.27064e-06,-1.09918e+09,-1.09775e+09,-1.09858e+09,-169821,0.0293389,0.0979572,0,0.102256,21297.9,-40000,0,45316.6,169821
step02_gravity_refstate-mantle.xmf,617,-4.48192e-06,7.08641e-06,0,-1.39717e-06,-1.17408e+09,-1.17253e+09,-1.17348e+09,-186732,0.0238488,0.114892,0,0.117341,18291.4,-42316,0,46100.1,186732
step02_gravity_refstate-mantle.xmf,618,-8.23986e-06,1.09115e-05,0,-1.14164e-05,-1.29515e+09,-1.29259e+09,-1.29405e+09,-1.5258e+06,0.0298125,0.267528,0,0.269184,9775.04,-46040.5,0,47066.8,1.5258e+06
step02_gravity_refstate-mantle.xmf,619,-7.57102e-06,1.04384e-05,0,-9.83129e-06,-1.28008e+09,-1.27768e+09,-1.27907e+09,-1.31395e+06,0.0296088,0.24712,0,0.248888,10532.5,-45578.3,0,46779.5,1.31395e+06
step02_gravity_refstate-mantle.xmf,620,-4.51938e-05,0.000117946,0,-6.54692e-06,-1.6167e+09,-1.5949e+09,-1.61066e+09,-874996,-0.0456017,0.451306,-0,0.453604,999.46,-56000,0,56008.9,874996
step02_gravity_refstate-mantle.xmf,621,6.62069e-06,-3.90658e-05,0,-2.87739e-05,-1.42425e+09,-1.43036e+09,-1.42514e+09,-3.84563e+06,0.0165003,0.687148,0,0.687346,2999.32,-50000,0,50089.9,3.84563e+06
step02_gravity_refstate-mantle.xmf,622,7.22036e-06,-3.16558e-05,0,-3.52212e-05,-1.40863e+09,-1.41383e+09,-1.4096e+09,-4.70731e+06,0.0320241,0.648497,0,0.649287,3236.67,-49540.4,0,49646.1,4.70731e+06
step02_gravity_refstate-mantle.xmf,623,-2.28312e-06,-1.07449e-05,0,-3.69484e-05,-1.39406e+09,-1.39519e+09,-1.39375e+09,-4.93816e+06,0.0422418,0.570764,0,0.572325,3969.23,-49080.3,0,49240.5,4.93816e+06
step02_gravity_refstate-mantle.xmf,624,-8.45686e-06,6.55911e-06,0,-2.24331e-05,-1.33435e+09,-1.33234e+09,-1.33322e+09,-2.99819e+06,0.0454007,0.402749,0,0.4053,6431.98,-47238.8,0,47674.7,2.99819e+06
step02_gravity_refstate-mantle.xmf,625,-5.41426e-06,7.76428e-06,0,-4.03628e-06,-1.19251e+09,-1.19075e+09,-1.19178e+09,-539449,0.0353634,0.165949,0,0.169675,14765.2,-42880.8,0,45351.6,539449
step02_gravity_refstate-mantle.xmf,626,-5.62878e-06,8.19142e-06,0,-4.92478e-06,-1.21066e+09,-1.20881e+09,-1.20991e+09,-658197,0.0339378,0.179696,0,0.182873,13864.9,-43441.1,0,45600,658197
step02_gravity_refstate-mantle.xmf,627,-5.9488e-06,8.68415e-06,0,-5.96537e-06,-1.22837e+09,-1.22641e+09,-1.22758e+09,-797271,0.0326207,0.194897,0,0.197608,12983.1,-43987.3,0,45863.3,797271
step02_gravity_refstate-mantle.xmf,628,-6.38094e-06,9.2282e-06,0,-7.14573e-06,-1.24564e+09,-1.24355e+09,-1.24479e+09,-955027,0.0314972,0.211357,0,0.213691,12130.3,-44519.3,0,46142.3,955027
step02_gravity_refstate-mantle.xmf,629,-6.9237e-06,9.82752e-06,0,-8.43167e-06,-1.26304e+09,-1.2608e+09,-1.26212e+09,-1.12689e+06,0.0304134,0.228721,0,0.230734,11313.6,-45054.7,0,46453.5,1.12689e+06
step02_gravity_refstate-mantle.xmf,630,-4.93942e-06,7.24771e-06,0,-2.28239e-06,-1.16971e+09,-1.16808e+09,-1.16905e+09,-305041,0.0311819,0.133076,0,0.136681,17028.5,-42178.4,0,45486.1,305041
step02_gravity_refstate-mantle.xmf,631,-5.24669e-06,7.3819e-06,0,-3.28699e-06,-1.17212e+09,-1.17043e+09,-1.17141e+09,-439307,0.0370386,0.153059,0,0.157477,15738.2,-42251,0,45087,439307
step02_gravity_refstate-mantle.xmf,632,-4.68092e-06,6.70077e-06,0,-1.49795e-06,-1.13862e+09,-1.1371e+09,-1.13799e+09,-200201,0.0301676,0.112563,0,0.116535,19110.1,-41218.2,0,45432.8,200201
step02_gravity_refstate-mantle.xmf,633,-8.56436e-06,7.90184e-06,0,-1.99595e-05,-1.32278e+09,-1.32058e+09,-1.32164e+09,-2.66759e+06,0.0436996,0.373795,0,0.37634,7040.45,-46884.3,0,47409.9,2.66759e+06
step02_gravity_refstate-mantle.xmf,634,-8.37592e-06,8.6515e-06,0,-1.77214e-05,-1.31003e+09,-1.30776e+09,-1.30891e+09,-2.36846e+06,0.0423285,0.347417,0,0.349986,7666.01,-46493.6,0,47121.3,2.36846e+06
step02_gravity_refstate-mantle.xmf,635,-7.56274e-06,9.08649e-06,0,-1.37415e-05,-1.2815e+09,-1.27927e+09,-1.28049e+09,-1.83655e+06,0.0406156,0.299505,0,0.302247,9014.98,-45618.6,0,46500.8,1.83655e+06
step02_gravity_refstate-mantle.xmf,636,-8.02216e-06,9.00571e-06,0,-1.56753e-05,-1.29622e+09,-1.29395e+09,-1.29515e+09,-2.09501e+06,0.0413157,0.32291,0,0.325542,8318.97,-46070.3,0,46815.3,2.09501e+06
step02_gravity_refstate-mantle.xmf,637,5.74472e-06,-4.45298e-05,0,-2.30507e-05,-1.4249e+09,-1.43162e+09,-1.42566e+09,-3.08072e+06,0.0136857,0.729489,0,0.729617,2499.83,-50000,0,50062.5,3.08072e+06
step02_gravity_refstate-mantle.xmf,638,9.69548e-06,-4.00685e-05,0,-2.85262e-05,-1.40926e+09,-1.41592e+09,-1.41056e+09,-3.81253e+06,0.0275193,0.691273,0,0.69182,2748.11,-49555,0,49631.1,3.81253e+06
step02_gravity_refstate-mantle.xmf,639,-4.76093e-05,0.000117942,0,-4.87295e-06,-1.63076e+09,-1.60863e+09,-1.62439e+09,-651270,-0.0358296,0.405995,-0,0.407573,748.423,-56418,0,56423,651270
step02_gravity_refstate-mantle.xmf,640,-4.85552e-05,0.000115569,0,-6.56485e-06,-1.6457e+09,-1.62377e+09,-1.63921e+09,-877393,-0.0511201,0.349378,-0,0.353098,1037.62,-56867.3,0,56876.7,877393
step02_gravity_refstate-mantle.xmf,641,-4.83523e-05,0.000112396,0,-7.81095e-06,-1.66064e+09,-1.63916e+09,-1.65418e+09,-1.04393e+06,-0.0669432,0.292456,-0,0.30002,1342,-57322.1,0,57337.8,1.04393e+06
step02_gravity_refstate-mantle.xmf,642,-4.72886e-05,0.000108754,0,-8.0874e-06,-1.6764e+09,-1.65554e+09,-1.67008e+09,-1.08088e+06,-0.0815089,0.233893,-0,0.247688,1632.57,-57806.5,0,57829.5,1.08088e+06
step02_gravity_refstate-mantle.xmf,643,-4.56074e-05,0.00010488,0,-7.2586e-06,-1.69333e+09,-1.67322e+09,-1.68723e+09,-970112,-0.0956267,0.173175,-0,0.197823,1930.3,-58330.8,0,58362.8,970112
step02_gravity_refstate-mantle.xmf,644,-4.09807e-05,9.71197e-05,0,-5.61868e-06,-1.713e+09,-1.69454e+09,-1.70752e+09,-750937,-0.124633,0.101787,-0,0.160916,2598.07,-58949.4,0,59006.7,750937
step02_gravity_refstate-mantle.xmf,645,-3.94505e-05,9.46205e-05,0,-3.27071e-06,-1.72808e+09,-1.71016e+09,-1.72281e+09,-437131,-0.133276,0.0548495,-0,0.144121,2812.9,-59419.3,0,59485.9,437131
step02_gravity_refstate-mantle.xmf,646,-3.70858e-05,9.10158e-05,0,-8.13007e-09,-1.74667e+09,-1.72955e+09,-1.74171e+09,-1086.58,-0.144826,-5.25564e-18,-0,0.144826,3114.73,-60000,0,60080.8,1086.58
step02_gravity_refstate-mantle.xmf,647,-8.084e-06,4.65752e-06,0,-2.50762e-05,-1.34563e+09,-1.34393e+09,-1.34455e+09,-3.35143e+06,0.046806,0.433141,0,0.435662,5861.18,-47584.9,0,47944.5,3.35143e+06
step02_gravity_refstate-mantle.xmf,648,4.25062e-06,-2.28008e-05,0,-3.61833e-05,-1.39125e+09,-1.39487e+09,-1.39182e+09,-4.8359e+06,0.0426556,0.613819,0,0.615299,3463.14,-49006.4,0,49128.6,4.8359e+06
step02_gravity_refstate-mantle.xmf,649,-7.29138e-06,1.95279e-06,0,-2.79052e-05,-1.35652e+09,-1.35528e+09,-1.35554e+09,-3.72953e+06,0.0478276,0.46579,0,0.468239,5315.95,-47919.6,0,48213.6,3.72953e+06
step02_gravity_refstate-mantle.xmf,650,-3.27657e-06,-7.66629e-06,0,-3.41089e-05,-1.37771e+09,-1.3783e+09,-1.37727e+09,-4.55866e+06,0.0474873,0.543046,0,0.545119,4248.78,-48576.5,0,48762,4.55866e+06
step02_gravity_refstate-mantle.xmf,651,-5.89507e-06,-1.8676e-06,0,-3.09373e-05,-1.36718e+09,-1.36664e+09,-1.3664e+09,-4.13477e+06,0.0481852,0.501578,0,0.503887,4787.01,-48248.6,0,48485.5,4.13477e+06
step02_gravity_refstate-mantle.xmf,652,-5.46376e-06,7.13314e-06,0,-4.3164e-06,-1.16181e+09,-1.16013e+09,-1.16108e+09,-576886,0.0459148,0.173896,0,0.179856,14719.9,-41930.6,0,44439.3,576886
step02_gravity_refstate-mantle.xmf,653,-5.03519e-06,6.42238e-06,0,-1.76133e-06,-1.09928e+09,-1.09775e+09,-1.09861e+09,-235402,0.0362331,0.112352,0,0.11805,19844.8,-40000,0,44652.2,235402
step02_gravity_refstate-mantle.xmf,654,-5.17679e-06,6.88266e-06,0,-2.23149e-06,-1.13585e+09,-1.13423e+09,-1.13515e+09,-298239,0.0376531,0.130229,0,0.135563,17751.5,-41129.8,0,44797.1,298239
step02_gravity_refstate-mantle.xmf,655,-7.0726e-06,8.95835e-06,0,-1.19714e-05,-1.2662e+09,-1.26405e+09,-1.26525e+09,-1.59998e+06,0.0403222,0.277634,0,0.280547,9739.39,-45149,0,46187.5,1.59998e+06
step02_gravity_refstate-mantle.xmf,656,-6.5556e-06,8.59283e-06,0,-1.0421e-05,-1.24871e+09,-1.24668e+09,-1.24783e+09,-1.39277e+06,0.041135,0.258224,0,0.26148,10472.9,-44611.2,0,45824,1.39277e+06
step02_gravity_refstate-mantle.xmf,657,-6.55408e-06,4.31193e-06,0,-2.19896e-05,-1.31295e+09,-1.3115e+09,-1.31207e+09,-2.9389e+06,0.0508428,0.40634,0,0.409508,6431.32,-46584.7,0,47026.6,2.9389e+06
step02_gravity_refstate-mantle.xmf,658,9.85931e-06,-4.51663e-05,0,-2.22893e-05,-1.41004e+09,-1.4174e+09,-1.41136e+09,-2.97896e+06,0.022466,0.727597,0,0.727943,2249.92,-49567.1,0,49618.2,2.97896e+06
step02_gravity_refstate-mantle.xmf,659,-4.58549e-05,0.000119401,0,-3.19661e-06,-1.61672e+09,-1.59464e+09,-1.61059e+09,-427227,-0.0229,0.458376,-0,0.458948,500.036,-56000,0,56002.2,427227
step02_gravity_refstate-mantle.xmf,660,-4.5871e-05,0.000119868,0,-3.87754e-08,-1.61669e+09,-1.59454e+09,-1.61056e+09,-5182.33,1.2382e-06,0.460727,0,0.460727,-4.01542e-10,-56000,-0,56000,5182.33
step02_gravity_refstate-mantle.xmf,661,-4.80229e-05,0.00011907,0,-1.34072e-06,-1.6298e+09,-1.60746e+09,-1.62338e+09,-179187,-0.0102808,0.413929,-0,0.414057,214.674,-56388.5,0,56388.9,179187
step02_gravity_refstate-mantle.xmf,662,-4.39819e-05,0.000101715,0,-5.8344e-06,-1.70762e+09,-1.68815e+09,-1.70175e+09,-779768,-0.106608,0.124044,-0,0.163561,2174.2,-58775.2,0,58815.4,779768
step02_gravity_refstate-mantle.xmf,663,8.81891e-06,-3.32632e-05,0,-3.23361e-05,-1.396e+09,-1.40162e+09,-1.39718e+09,-4.32172e+06,0.0373888,0.656855,0,0.657918,2996.1,-49156.8,0,49248,4.32172e+06
step02_gravity_refstate-mantle.xmf,664,5.18551e-07,-1.47977e-05,0,-3.53221e-05,-1.38088e+09,-1.38293e+09,-1.38095e+09,-4.7208e+06,0.0470695,0.57794,0,0.579853,3823.16,-48681.6,0,48831.5,4.7208e+06
step02_gravity_refstate-mantle.xmf,665,-6.0382e-06,2.34491e-06,0,-2.43349e-05,-1.32462e+09,-1.3235e+09,-1.32381e+09,-3.25236e+06,0.0518967,0.435144,0,0.438228,5865.42,-46943.6,0,47308.6,3.25236e+06
step02_gravity_refstate-mantle.xmf,666,-5.51175e-06,7.27743e-06,0,-5.20317e-06,-1.17642e+09,-1.17471e+09,-1.17568e+09,-695403,0.0458079,0.188076,0,0.193574,13856.1,-42381.8,0,44589.4,695403
step02_gravity_refstate-mantle.xmf,667,-5.60973e-06,7.54426e-06,0,-6.3089e-06,-1.19477e+09,-1.19302e+09,-1.19402e+09,-843184,0.0446447,0.204274,0,0.209095,12942.9,-42948.9,0,44856.7,843184
step02_gravity_refstate-mantle.xmf,668,-5.80912e-06,7.8525e-06,0,-7.56316e-06,-1.21264e+09,-1.21081e+09,-1.21186e+09,-1.01082e+06,0.043485,0.221509,0,0.225737,12074.9,-43500.2,0,45145,1.01082e+06
step02_gravity_refstate-mantle.xmf,669,-6.11846e-06,8.17323e-06,0,-8.97375e-06,-1.22988e+09,-1.22797e+09,-1.22906e+09,-1.19934e+06,0.0425795,0.239975,0,0.243723,11242.6,-44031.6,0,45444.2,1.19934e+06
step02_gravity_refstate-mantle.xmf,670,-5.45869e-06,6.89641e-06,0,-3.07169e-06,-1.13454e+09,-1.13289e+09,-1.13381e+09,-410531,0.044901,0.149341,0,0.155945,16468.1,-41087.5,0,44264.9,410531
step02_gravity_refstate-mantle.xmf,671,-5.59735e-06,6.74344e-06,0,-4.01177e-06,-1.13257e+09,-1.13092e+09,-1.13182e+09,-536173,0.0523853,0.170569,0,0.178432,15235.7,-41025.3,0,43763,536173
step02_gravity_refstate-mantle.xmf,672,-5.51593e-06,6.58462e-06,0,-2.33907e-06,-1.09937e+09,-1.09775e+09,-1.09863e+09,-312617,0.0435806,0.128652,0,0.135833,18450.5,-40000,0,44050.2,312617
step02_gravity_refstate-mantle.xmf,673,-6.63268e-06,5.46731e-06,0,-1.98325e-05,-1.29946e+09,-1.29784e+09,-1.29857e+09,-2.65061e+06,0.0501488,0.380456,0,0.383747,7001.79,-46170.3,0,46698.2,2.65061e+06
step02_gravity_refstate-mantle.xmf,674,-6.43745e-06,6.07716e-06,0,-1.78894e-05,-1.28363e+09,-1.28196e+09,-1.28277e+09,-2.39092e+06,0.0501197,0.357285,0,0.360784,7578.01,-45684.4,0,46308.6,2.39092e+06
step02_gravity_refstate-mantle.xmf,675,-6.07603e-06,7.02041e-06,0,-1.38845e-05,-1.2532e+09,-1.25145e+09,-1.25239e+09,-1.85567e+06,0.0492583,0.308186,0,0.312098,8969.95,-44749.2,0,45639.3,1.85567e+06
step02_gravity_refstate-mantle.xmf,676,-6.24721e-06,6.62731e-06,0,-1.58246e-05,-1.26793e+09,-1.26621e+09,-1.26709e+09,-2.11496e+06,0.0497521,0.332407,0,0.33611,8252.31,-45202,0,45949.2,2.11496e+06
step02_gravity_refstate-mantle.xmf,677,5.74636e-06,-4.82262e-05,0,-1.77685e-05,-1.4252e+09,-1.43242e+09,-1.42597e+09,-2.37476e+06,0.010806,0.763373,0,0.76345,2000,-50000,0,50040,2.37476e+06
step02_gravity_refstate-mantle.xmf,678,1.15312e-05,-3.96366e-05,0,-2.6451e-05,-1.39188e+09,-1.39871e+09,-1.39342e+09,-3.53518e+06,0.0339788,0.688907,0,0.689745,2493.12,-49031.2,0,49094.6,3.53518e+06
step02_gravity_refstate-mantle.xmf,679,-4.75777e-05,0.000119109,0,1.53567e-06,-1.62751e+09,-1.60523e+09,-1.62115e+09,205242,0.0110364,0.421892,0,0.422036,-232.005,-56321,-0,56321.5,205242
step02_gravity_refstate-mantle.xmf,680,-4.94126e-05,0.000117665,0,-2.85896e-06,-1.64464e+09,-1.62231e+09,-1.63804e+09,-382100,-0.0223246,0.359927,-0,0.360619,451.131,-56834.2,0,56835.9,382100
step02_gravity_refstate-mantle.xmf,681,-5.0015e-05,0.000115505,0,-4.31839e-06,-1.66005e+09,-1.63793e+09,-1.65337e+09,-577153,-0.0373361,0.303115,-0,0.305406,740.698,-57300.7,0,57305.5,577153
step02_gravity_refstate-mantle.xmf,682,-4.97378e-05,0.00011283,0,-5.25216e-06,-1.67548e+09,-1.65376e+09,-1.66884e+09,-701951,-0.0525554,0.246155,-0,0.251703,1036.34,-57772.4,0,57781.7,701951
step02_gravity_refstate-mantle.xmf,683,-4.8803e-05,0.000109739,0,-5.2303e-06,-1.69294e+09,-1.67175e+09,-1.68642e+09,-699030,-0.0670648,0.183173,-0,0.195064,1325.41,-58309.9,0,58325,699030
step02_gravity_refstate-mantle.xmf,684,-4.72414e-05,0.000106389,0,-4.41415e-06,-1.71014e+09,-1.68961e+09,-1.70382e+09,-589951,-0.0825882,0.122412,-0,0.147667,1647.64,-58843,0,58866.1,589951
step02_gravity_refstate-mantle.xmf,685,-4.45744e-05,0.000101981,0,-3.05204e-06,-1.72608e+09,-1.70649e+09,-1.72012e+09,-407905,-0.103702,0.0669534,-0,0.123437,2108.48,-59341.9,0,59379.4,407905
step02_gravity_refstate-mantle.xmf,686,-4.23955e-05,9.86609e-05,0,-2.69746e-08,-1.74718e+09,-1.72833e+09,-1.74152e+09,-3605.16,-0.11731,-6.433e-18,-0,0.11731,2422.55,-60000,0,60048.9,3605.16
step02_gravity_refstate-mantle.xmf,687,-4.94585e-06,-6.6821e-07,0,-2.68719e-05,-1.33555e+09,-1.33497e+09,-1.33489e+09,-3.59144e+06,0.0529046,0.468082,0,0.471063,5285.77,-47280.8,0,47575.3,3.59144e+06
step02_gravity_refstate-mantle.xmf,688,4.50427e-06,-2.09924e-05,0,-3.3314e-05,-1.37193e+09,-1.37534e+09,-1.37254e+09,-4.45242e+06,0.0483805,0.599811,0,0.601759,3476.78,-48415.9,0,48540.6,4.45242e+06
step02_gravity_refstate-mantle.xmf,689,8.84616e-06,-3.03647e-05,0,-3.13243e-05,-1.38008e+09,-1.38533e+09,-1.38127e+09,-4.1865e+06,0.0430519,0.642239,0,0.64368,2985.42,-48672.8,0,48764.2,4.1865e+06
step02_gravity_refstate-mantle.xmf,690,-3.36614e-06,-4.57467e-06,0,-2.93903e-05,-1.34648e+09,-1.34664e+09,-1.34603e+09,-3.92801e+06,0.0531367,0.502418,0,0.50522,4744.78,-47619,0,47854.8,3.92801e+06
step02_gravity_refstate-mantle.xmf,691,6.88921e-07,-1.37456e-05,0,-3.321e-05,-1.36741e+09,-1.36934e+09,-1.3675e+09,-4.43852e+06,0.0504827,0.565384,0,0.567633,3910.24,-48269.3,0,48427.4,4.43852e+06
step02_gravity_refstate-mantle.xmf,692,-9.47513e-07,-9.92359e-06,0,-3.17922e-05,-1.35716e+09,-1.35836e+09,-1.35704e+09,-4.24903e+06,0.0523927,0.539954,0,0.54249,4215.92,-47951.6,0,48136.5,4.24903e+06
step02_gravity_refstate-mantle.xmf,693,-5.5595e-06,6.45524e-06,0,-5.19674e-06,-1.13727e+09,-1.13567e+09,-1.13653e+09,-694545,0.0583233,0.195228,0,0.203754,13910.9,-41170.3,0,43456.9,694545
step02_gravity_refstate-mantle.xmf,694,-5.86731e-06,6.61976e-06,0,-3.00025e-06,-1.09944e+09,-1.09777e+09,-1.09866e+09,-400984,0.0511952,0.146901,0,0.155567,17111.7,-40000,0,43506.4,400984
step02_gravity_refstate-mantle.xmf,695,-5.74794e-06,6.99786e-06,0,-1.22185e-05,-1.23634e+09,-1.23463e+09,-1.23557e+09,-1.63301e+06,0.0500354,0.288285,0,0.292595,9642.02,-44230.5,0,45269.2,1.63301e+06
step02_gravity_refstate-mantle.xmf,696,-5.17101e-06,6.43773e-06,0,-1.08124e-05,-1.21205e+09,-1.2105e+09,-1.21136e+09,-1.44507e+06,0.0536737,0.273208,0,0.27843,10265,-43482.8,0,44678,1.44507e+06
step02_gravity_refstate-mantle.xmf,697,-4.18241e-06,5.67411e-07,0,-2.32419e-05,-1.30346e+09,-1.30282e+09,-1.3029e+09,-3.10628e+06,0.0554364,0.434506,0,0.438028,5895.02,-46297.8,0,46671.6,3.10628e+06
step02_gravity_refstate-mantle.xmf,698,-4.94063e-06,2.66378e-06,0,-2.13047e-05,-1.29411e+09,-1.2931e+09,-1.29345e+09,-2.84737e+06,0.054474,0.408071,0,0.411691,6436.71,-46009.4,0,46457.5,2.84737e+06
step02_gravity_refstate-mantle.xmf,699,1.01668e-05,-4.85465e-05,0,-1.67551e-05,-1.40991e+09,-1.41776e+09,-1.41127e+09,-2.23931e+06,0.0175834,0.755903,0,0.756108,1742.63,-49556.4,0,49587,2.23931e+06
step02_gravity_refstate-mantle.xmf,700,1.23424e-05,-4.5185e-05,0,-2.05279e-05,-1.39693e+09,-1.40462e+09,-1.39858e+09,-2.74355e+06,0.0260633,0.724846,0,0.725315,1999.88,-49178.6,0,49219.3,2.74355e+06
step02_gravity_refstate-mantle.xmf,701,-4.57043e-05,0.000119397,0,3.13605e-06,-1.61669e+09,-1.59462e+09,-1.61058e+09,419133,0.0228989,0.458377,0,0.458948,-500.036,-56000,-0,56002.2,419133
step02_gravity_refstate-mantle.xmf,702,-4.95012e-05,0.000118186,0,1.10402e-06,-1.6425e+09,-1.62009e+09,-1.63588e+09,147552,0.00882245,0.368972,0,0.369078,-178.797,-56768.7,-0,56769,147552
step02_gravity_refstate-mantle.xmf,703,-2.97871e-06,-2.4122e-06,0,-2.54165e-05,-1.31459e+09,-1.31451e+09,-1.31419e+09,-3.39692e+06,0.0560371,0.46606,0,0.469416,5303.92,-46642,0,46942.6,3.39692e+06
step02_gravity_refstate-mantle.xmf,704,-5.33582e-06,6.54635e-06,0,-6.32687e-06,-1.16171e+09,-1.16012e+09,-1.161e+09,-845586,0.0557126,0.211877,0,0.21908,12925.9,-41926.8,0,43874.1,845586
step02_gravity_refstate-mantle.xmf,705,-5.25624e-06,6.61579e-06,0,-7.61467e-06,-1.18015e+09,-1.17856e+09,-1.17945e+09,-1.0177e+06,0.0544425,0.230005,0,0.236361,12026.8,-42497.1,0,44166.1,1.0177e+06
step02_gravity_refstate-mantle.xmf,706,-5.22432e-06,6.58585e-06,0,-9.03521e-06,-1.19601e+09,-1.19443e+09,-1.19531e+09,-1.20756e+06,0.0537736,0.249283,0,0.255017,11186.6,-42987.2,0,44418.9,1.20756e+06
step02_gravity_refstate-mantle.xmf,707,-6.04383e-06,6.4972e-06,0,-3.74125e-06,-1.09949e+09,-1.09781e+09,-1.09868e+09,-500018,0.058857,0.167108,0,0.17717,15824.5,-40000,0,43016.5,500018
step02_gravity_refstate-mantle.xmf,708,-5.99026e-06,6.16937e-06,0,-4.53551e-06,-1.09951e+09,-1.09788e+09,-1.09871e+09,-606171,0.0663168,0.189234,0,0.200518,14585.2,-40000,0,42576.1,606171
step02_gravity_refstate-mantle.xmf,709,-4.15589e-06,2.40547e-06,0,-1.97905e-05,-1.27334e+09,-1.27246e+09,-1.27278e+09,-2.64501e+06,0.0564194,0.394144,0,0.398162,6772.14,-45372.2,0,45874.8,2.64501e+06
step02_gravity_refstate-mantle.xmf,710,-4.6368e-06,5.18467e-06,0,-1.36625e-05,-1.22563e+09,-1.22431e+09,-1.22501e+09,-1.82599e+06,0.0566187,0.315334,0,0.320377,8914.78,-43902.4,0,44798.4,1.82599e+06
step02_gravity_refstate-mantle.xmf,711,-4.43984e-06,3.75692e-06,0,-1.74367e-05,-1.2557e+09,-1.25461e+09,-1.25511e+09,-2.33041e+06,0.0563583,0.364109,0,0.368445,7516.02,-44829.1,0,45454.8,2.33041e+06
step02_gravity_refstate-mantle.xmf,712,-4.57768e-06,4.63462e-06,0,-1.54451e-05,-1.24032e+09,-1.23909e+09,-1.23971e+09,-2.06423e+06,0.0563611,0.338297,0,0.34296,8223.53,-44355.3,0,45111.2,2.06423e+06
step02_gravity_refstate-mantle.xmf,713,5.57833e-06,-5.05748e-05,0,-1.28959e-05,-1.42543e+09,-1.43294e+09,-1.42618e+09,-1.72353e+06,0.00796848,0.789229,0,0.789269,1500.17,-50000,0,50022.5,1.72353e+06
step02_gravity_refstate-mantle.xmf,714,1.40879e-05,-4.26752e-05,0,-2.08314e-05,-1.38055e+09,-1.38814e+09,-1.38244e+09,-2.78412e+06,0.0308447,0.704652,0,0.705327,1975.78,-48690.8,0,48730.9,2.78412e+06
step02_gravity_refstate-mantle.xmf,715,-4.78741e-05,0.00011798,0,4.54028e-06,-1.63178e+09,-1.60961e+09,-1.62538e+09,606809,0.0334183,0.403119,0,0.404502,-695.867,-56448,-0,56452.3,606809
step02_gravity_refstate-mantle.xmf,716,-5.06367e-05,0.000116858,0,-8.5296e-07,-1.65897e+09,-1.63658e+09,-1.6522e+09,-113998,-0.00721195,0.310614,-0,0.310697,142.59,-57266.4,0,57266.6,113998
step02_gravity_refstate-mantle.xmf,717,-5.10483e-05,0.000115067,0,-2.22237e-06,-1.6751e+09,-1.6529e+09,-1.66828e+09,-297020,-0.0222057,0.252693,-0,0.253666,434.21,-57757.5,0,57759.2,297020
step02_gravity_refstate-mantle.xmf,718,-5.08139e-05,0.000112893,0,-2.90292e-06,-1.6923e+09,-1.67042e+09,-1.68551e+09,-387975,-0.0366641,0.191103,-0,0.194588,715.212,-58284.7,0,58289.1,387975
step02_gravity_refstate-mantle.xmf,719,-4.99987e-05,0.000110464,0,-2.8307e-06,-1.71034e+09,-1.6889e+09,-1.70366e+09,-378323,-0.0521077,0.127175,-0,0.137436,1020.77,-58841.3,0,58850.1,378323
step02_gravity_refstate-mantle.xmf,720,-4.861e-05,0.000107775,0,-1.92798e-06,-1.72847e+09,-1.70757e+09,-1.72198e+09,-257674,-0.0694434,0.0641155,-0,0.0945155,1373.17,-59403.8,0,59419.6,257674
step02_gravity_refstate-mantle.xmf,721,-4.68194e-05,0.000105006,0,-2.69046e-08,-1.74762e+09,-1.72732e+09,-1.74136e+09,-3595.8,-0.0864395,-6.1786e-18,-0,0.0864395,1730.41,-60000,0,60024.9,3595.8
step02_gravity_refstate-mantle.xmf,722,1.23208e-05,-3.57381e-05,0,-2.59903e-05,-1.37063e+09,-1.37705e+09,-1.37228e+09,-3.4736e+06,0.039848,0.665033,0,0.666226,2488.49,-48390.2,0,48454.2,3.4736e+06
step02_gravity_refstate-mantle.xmf,723,-1.23042e-06,-6.36204e-06,0,-2.75142e-05,-1.3258e+09,-1.32648e+09,-1.32563e+09,-3.67727e+06,0.055996,0.500053,0,0.503178,4727.27,-46989.8,0,47227,3.67727e+06
step02_gravity_refstate-mantle.xmf,724,4.24585e-06,-1.8112e-05,0,-3.08779e-05,-1.35164e+09,-1.35463e+09,-1.35221e+09,-4.12683e+06,0.0521671,0.57699,0,0.579344,3632.19,-47794.7,0,47932.5,4.12683e+06
step02_gravity_refstate-mantle.xmf,725,8.71638e-06,-2.69331e-05,0,-2.95595e-05,-1.36021e+09,-1.36497e+09,-1.36137e+09,-3.95063e+06,0.0473815,0.621004,0,0.622809,3043.17,-48066.6,0,48162.9,3.95063e+06
step02_gravity_refstate-mantle.xmf,726,1.14759e-06,-1.14586e-05,0,-2.93638e-05,-1.3374e+09,-1.33909e+09,-1.33756e+09,-3.92448e+06,0.0549337,0.536336,0,0.539141,4173.17,-47351.2,0,47534.7,3.92448e+06
step02_gravity_refstate-mantle.xmf,727,-5.1743e-06,5.66384e-06,0,-6.32681e-06,-1.12938e+09,-1.12793e+09,-1.12869e+09,-845578,0.0672974,0.223015,0,0.232947,12708.2,-40927,0,42854.6,845578
step02_gravity_refstate-mantle.xmf,728,-5.67743e-06,5.63715e-06,0,-5.3824e-06,-1.09948e+09,-1.09797e+09,-1.09872e+09,-719358,0.0732819,0.21319,0,0.225434,13389.8,-40000,0,42181.6,719358
step02_gravity_refstate-mantle.xmf,729,-4.53793e-06,5.34448e-06,0,-1.23055e-05,-1.21145e+09,-1.21013e+09,-1.21084e+09,-1.64463e+06,0.0577415,0.299169,0,0.30469,9456.93,-43465.5,0,44482.4,1.64463e+06
step02_gravity_refstate-mantle.xmf,730,-4.28142e-06,5.16866e-06,0,-1.00667e-05,-1.18062e+09,-1.17936e+09,-1.18005e+09,-1.34542e+06,0.0620762,0.274544,0,0.281474,10406.4,-42514.4,0,43769.5,1.34542e+06
step02_gravity_refstate-mantle.xmf,731,-2.65184e-06,-6.05115e-07,0,-2.18822e-05,-1.28165e+09,-1.28138e+09,-1.2813e+09,-2.92456e+06,0.057955,0.430216,0,0.434102,5981.71,-45631.5,0,46021.9,2.92456e+06
step02_gravity_refstate-mantle.xmf,732,-1.2399e-06,-3.68457e-06,0,-2.37623e-05,-1.29277e+09,-1.2931e+09,-1.2926e+09,-3.17583e+06,0.0581313,0.46217,0,0.465812,5339.42,-45976.5,0,46285.5,3.17583e+06
step02_gravity_refstate-mantle.xmf,733,1.00349e-05,-5.06595e-05,0,-1.16642e-05,-1.41047e+09,-1.41858e+09,-1.41181e+09,-1.55891e+06,0.0124528,0.777184,0,0.777284,1250.43,-49567.4,0,49583.2,1.55891e+06
step02_gravity_refstate-mantle.xmf,734,1.37923e-05,-4.81095e-05,0,-1.48718e-05,-1.39265e+09,-1.40092e+09,-1.39449e+09,-1.98761e+06,0.0206001,0.743428,0,0.743713,1470.16,-49048.5,0,49070.6,1.98761e+06
step02_gravity_refstate-mantle.xmf,735,5.37871e-06,-5.20426e-05,0,-8.42939e-06,-1.4256e+09,-1.43327e+09,-1.42632e+09,-1.12659e+06,0.00523933,0.807419,0,0.807436,1000.68,-50000,0,50010,1.12659e+06
step02_gravity_refstate-mantle.xmf,736,-4.51826e-05,0.000117998,0,6.42552e-06,-1.61669e+09,-1.59488e+09,-1.61065e+09,858770,0.0456046,0.451305,0,0.453603,-999.46,-56000,-0,56008.9,858770
step02_gravity_refstate-mantle.xmf,737,-4.93062e-05,0.000116903,0,4.23985e-06,-1.64621e+09,-1.62399e+09,-1.63962e+09,566655,0.0335367,0.352458,0,0.35405,-677.15,-56881.2,-0,56885.3,566655
step02_gravity_refstate-mantle.xmf,738,5.73135e-07,-7.48718e-06,0,-2.54465e-05,-1.30409e+09,-1.30516e+09,-1.30416e+09,-3.40093e+06,0.0576071,0.495064,0,0.498405,4734.66,-46328.4,0,46569.7,3.40093e+06
step02_gravity_refstate-mantle.xmf,739,1.51112e-05,-3.94653e-05,0,-2.02498e-05,-1.36124e+09,-1.36854e+09,-1.36326e+09,-2.70638e+06,0.0338198,0.681953,0,0.682791,1950.38,-48109.3,0,48148.9,2.70638e+06
step02_gravity_refstate-mantle.xmf,740,-4.92547e-06,5.80213e-06,0,-7.24195e-06,-1.15216e+09,-1.15072e+09,-1.1515e+09,-967887,0.0630039,0.233435,0,0.241787,12103.5,-41632.6,0,43356.3,967887
step02_gravity_refstate-mantle.xmf,741,-4.33349e-06,5.16628e-06,0,-8.68209e-06,-1.16002e+09,-1.15875e+09,-1.15944e+09,-1.16036e+06,0.0651477,0.257821,0,0.265924,11113.2,-41877.7,0,43327.1,1.16036e+06
step02_gravity_refstate-mantle.xmf,742,-3.7354e-06,4.33781e-06,0,-1.15217e-05,-1.18669e+09,-1.18562e+09,-1.18619e+09,-1.53987e+06,0.063586,0.297994,0,0.304703,9607.31,-42703.6,0,43771,1.53987e+06
step02_gravity_refstate-mantle.xmf,743,-3.3198e-06,3.62134e-06,0,-1.30475e-05,-1.19789e+09,-1.19696e+09,-1.19745e+09,-1.7438e+06,0.0633174,0.320171,0,0.326372,8883.04,-43050.4,0,43957.3,1.7438e+06
step02_gravity_refstate-mantle.xmf,744,-1.99222e-06,3.63378e-07,0,-1.84014e-05,-1.242e+09,-1.24169e+09,-1.24174e+09,-2.45934e+06,0.060884,0.395306,0,0.399967,6776.01,-44413.6,0,44927.6,2.45934e+06
step02_gravity_refstate-mantle.xmf,745,-3.0251e-06,2.91913e-06,0,-1.47073e-05,-1.21247e+09,-1.21168e+09,-1.21207e+09,-1.96564e+06,0.0622596,0.342445,0,0.348058,8198.62,-43501,0,44266.8,1.96564e+06
step02_gravity_refstate-mantle.xmf,746,-2.60514e-06,1.86657e-06,0,-1.65339e-05,-1.22754e+09,-1.22694e+09,-1.22719e+09,-2.20975e+06,0.061449,0.367933,0,0.373029,7480.84,-43966.6,0,44598.5,2.20975e+06
step02_gravity_refstate-mantle.xmf,747,-1.02615e-06,-1.81776e-06,0,-2.02988e-05,-1.25629e+09,-1.2564e+09,-1.25615e+09,-2.71293e+06,0.0603646,0.425593,0,0.429853,6063.16,-44855.8,0,45263.7,2.71293e+06
step02_gravity_refstate-mantle.xmf,748,1.60387e-05,-4.49098e-05,0,-1.51027e-05,-1.37229e+09,-1.38043e+09,-1.37443e+09,-2.01848e+06,0.0243506,0.716389,0,0.716803,1441.01,-48442.8,0,48464.2,2.01848e+06
step02_gravity_refstate-mantle.xmf,749,1.0025e-05,-5.19752e-05,0,-6.91973e-06,-1.41058e+09,-1.41886e+09,-1.41192e+09,-924822,0.00745753,0.79114,0,0.791175,750.7,-49567.2,0,49572.9,924822
step02_gravity_refstate-mantle.xmf,750,-4.67345e-05,0.000115913,0,8.06971e-06,-1.63053e+09,-1.60879e+09,-1.62429e+09,1.07852e+06,0.0586585,0.398442,0,0.402737,-1233.04,-56411.8,-0,56425.2,1.07852e+06
step02_gravity_refstate-mantle.xmf,751,-4.82674e-05,0.0001159,0,6.52766e-06,-1.64191e+09,-1.61996e+09,-1.63545e+09,872421,0.0497976,0.362947,0,0.366347,-1017.22,-56752.8,-0,56761.9,872421
step02_gravity_refstate-mantle.xmf,752,-5.04243e-05,0.000116455,0,2.61999e-06,-1.65852e+09,-1.63622e+09,-1.65178e+09,350162,0.0225118,0.310967,0,0.311781,-446.022,-57253.1,-0,57254.8,350162
step02_gravity_refstate-mantle.xmf,753,-5.12619e-05,0.000115546,0,8.25634e-07,-1.67425e+09,-1.65196e+09,-1.6674e+09,110346,0.00832979,0.256636,0,0.256771,-162.723,-57731.1,-0,57731.3,110346
step02_gravity_refstate-mantle.xmf,754,-5.16072e-05,0.000114211,0,-4.55384e-07,-1.69146e+09,-1.6693e+09,-1.68456e+09,-60862.1,-0.00567617,0.196378,-0,0.19646,110.164,-58256.9,0,58257,60862.1
step02_gravity_refstate-mantle.xmf,755,-5.14749e-05,0.000112697,0,-1.12268e-06,-1.70988e+09,-1.68794e+09,-1.703e+09,-150046,-0.0203574,0.131723,-0,0.133287,394.982,-58823,0,58824.3,150046
step02_gravity_refstate-mantle.xmf,756,-5.09125e-05,0.000111122,0,-1.00387e-06,-1.72879e+09,-1.70714e+09,-1.72199e+09,-134167,-0.0360392,0.065754,-0,0.0749827,701.886,-59406.8,0,59411,134167
step02_gravity_refstate-mantle.xmf,757,-4.99299e-05,0.000109467,0,-3.00341e-08,-1.74792e+09,-1.72662e+09,-1.74125e+09,-4014.06,-0.0529579,-6.36097e-18,-0,0.0529579,1038.24,-60000,0,60009,4014.06
step02_gravity_refstate-mantle.xmf,758,1.27273e-05,-3.26858e-05,0,-2.43777e-05,-1.35046e+09,-1.35653e+09,-1.35216e+09,-3.25808e+06,0.0421837,0.644811,0,0.64619,2474.97,-47777.8,0,47841.9,3.25808e+06
step02_gravity_refstate-mantle.xmf,759,2.9577e-06,-1.23138e-05,0,-2.67943e-05,-1.31578e+09,-1.31782e+09,-1.31618e+09,-3.58105e+06,0.0561287,0.53013,0,0.533093,4145.36,-46693.3,0,46876.9,3.58105e+06
step02_gravity_refstate-mantle.xmf,760,9.36115e-06,-2.52405e-05,0,-2.68848e-05,-1.33958e+09,-1.3442e+09,-1.34083e+09,-3.59315e+06,0.0488123,0.605829,0,0.607792,3022.51,-47438.1,0,47534.3,3.59315e+06
step02_gravity_refstate-mantle.xmf,761,5.91015e-06,-1.82323e-05,0,-2.74928e-05,-1.32785e+09,-1.33108e+09,-1.32864e+09,-3.67442e+06,0.0533559,0.567049,0,0.569554,3578.94,-47070.6,0,47206.5,3.67442e+06
step02_gravity_refstate-mantle.xmf,762,-4.49203e-06,4.76569e-06,0,-7.4188e-06,-1.12794e+09,-1.1267e+09,-1.12734e+09,-991523,0.0728942,0.248924,0,0.259378,11641.5,-40884.8,0,42509.9,991523
step02_gravity_refstate-mantle.xmf,763,-5.02051e-06,4.81469e-06,0,-6.22933e-06,-1.09941e+09,-1.09809e+09,-1.09874e+09,-832550,0.0794623,0.238821,0,0.251694,12234.4,-40000,0,41829.2,832550
step02_gravity_refstate-mantle.xmf,764,-3.1185e-06,3.39982e-06,0,-1.02987e-05,-1.15573e+09,-1.15485e+09,-1.15531e+09,-1.37642e+06,0.0711487,0.294231,0,0.302711,9851.73,-41748.7,0,42895.4,1.37642e+06
step02_gravity_refstate-mantle.xmf,765,3.61761e-07,-4.68434e-06,0,-2.19655e-05,-1.26919e+09,-1.26987e+09,-1.26924e+09,-2.93569e+06,0.0596545,0.45715,0,0.461026,5381.47,-45256.3,0,45575.2,2.93569e+06
step02_gravity_refstate-mantle.xmf,766,2.07863e-06,-8.17394e-06,0,-2.33831e-05,-1.28183e+09,-1.28321e+09,-1.28211e+09,-3.12515e+06,0.0584285,0.488732,0,0.492212,4755.1,-45649.4,0,45896.4,3.12515e+06
step02_gravity_refstate-mantle.xmf,767,1.27951e-05,-5.04329e-05,0,-9.53642e-06,-1.39878e+09,-1.40723e+09,-1.40049e+09,-1.27454e+06,0.0125556,0.768294,0,0.768397,976.104,-49225.2,0,49234.9,1.27454e+06
step02_gravity_refstate-mantle.xmf,768,1.56026e-05,-4.89202e-05,0,-9.55558e-06,-1.38324e+09,-1.39187e+09,-1.38533e+09,-1.2771e+06,0.0148205,0.746472,0,0.746619,942.278,-48768,0,48777.1,1.2771e+06
step02_gravity_refstate-mantle.xmf,769,5.19448e-06,-5.27993e-05,0,-4.14817e-06,-1.4257e+09,-1.43345e+09,-1.42639e+09,-554402,0.00259153,0.818238,0,0.818242,500.717,-50000,0,50002.5,554402
step02_gravity_refstate-mantle.xmf,770,-4.42892e-05,0.000115483,0,9.90343e-06,-1.61671e+09,-1.59535e+09,-1.61079e+09,1.32359e+06,0.0679307,0.439441,0,0.44466,-1498.34,-56000,-0,56020,1.32359e+06
step02_gravity_refstate-mantle.xmf,771,-4.72917e-05,0.000113205,0,9.26139e-06,-1.64465e+09,-1.62319e+09,-1.63832e+09,1.23778e+06,0.0704323,0.345138,0,0.352251,-1442.87,-56837.1,-0,56855.4,1.23778e+06
step02_gravity_refstate-mantle.xmf,772,-4.91844e-05,0.000114554,0,6.22259e-06,-1.65624e+09,-1.63435e+09,-1.64966e+09,831649,0.0518371,0.312745,0,0.317012,-1037.16,-57186,-0,57195.4,831649
step02_gravity_refstate-mantle.xmf,773,4.37723e-06,-1.26082e-05,0,-2.43285e-05,-1.29369e+09,-1.29596e+09,-1.29427e+09,-3.2515e+06,0.0563673,0.522173,0,0.525206,4136.87,-46019.6,0,46205.1,3.2515e+06
step02_gravity_refstate-mantle.xmf,774,1.56129e-05,-3.6399e-05,0,-1.88536e-05,-1.34146e+09,-1.34841e+09,-1.34355e+09,-2.51978e+06,0.0346623,0.660709,0,0.661617,1913.84,-47509.5,0,47548,2.51978e+06
step02_gravity_refstate-mantle.xmf,775,1.7132e-05,-4.1765e-05,0,-1.45424e-05,-1.35314e+09,-1.36102e+09,-1.35543e+09,-1.94359e+06,0.0258049,0.692426,0,0.692907,1410.53,-47866.8,0,47887.6,1.94359e+06
step02_gravity_refstate-mantle.xmf,776,-3.33883e-06,3.56136e-06,0,-8.49479e-06,-1.12744e+09,-1.12652e+09,-1.12699e+09,-1.13533e+06,0.0773148,0.277346,0,0.287921,10555.6,-40873.9,0,42214.9,1.13533e+06
step02_gravity_refstate-mantle.xmf,777,-2.31602e-06,2.46833e-06,0,-1.20297e-05,-1.17036e+09,-1.16972e+09,-1.17005e+09,-1.60776e+06,0.0697057,0.320908,0,0.328392,8939.1,-42203.8,0,43140.1,1.60776e+06
step02_gravity_refstate-mantle.xmf,778,-1.6398e-06,1.48703e-06,0,-1.36223e-05,-1.18384e+09,-1.18342e+09,-1.18362e+09,-1.82062e+06,0.0681017,0.344889,0,0.351549,8183.97,-42622.1,0,43400.7,1.82062e+06
step02_gravity_refstate-mantle.xmf,779,1.06661e-06,-3.52523e-06,0,-1.84791e-05,-1.22657e+09,-1.22718e+09,-1.22671e+09,-2.46973e+06,0.0628065,0.426331,0,0.430932,5987.08,-43947.3,0,44353.2,2.46973e+06
step02_gravity_refstate-mantle.xmf,780,-2.36051e-07,-1.15593e-06,0,-1.70401e-05,-1.21529e+09,-1.21541e+09,-1.21526e+09,-2.27741e+06,0.0642561,0.396758,0,0.401928,6731.15,-43596.3,0,44112.9,2.27741e+06
step02_gravity_refstate-mantle.xmf,781,-1.00437e-06,3.46416e-07,0,-1.53249e-05,-1.19934e+09,-1.19916e+09,-1.19921e+09,-2.04817e+06,0.0661298,0.369855,0,0.37572,7454.92,-43102.4,0,43742.4,2.04817e+06
step02_gravity_refstate-mantle.xmf,782,2.02763e-06,-5.74006e-06,0,-2.00844e-05,-1.24417e+09,-1.24521e+09,-1.24444e+09,-2.68429e+06,0.0607924,0.453943,0,0.457996,5363.8,-44491.9,0,44814,2.68429e+06
step02_gravity_refstate-mantle.xmf,783,1.74362e-05,-4.60853e-05,0,-9.637e-06,-1.36553e+09,-1.37402e+09,-1.36786e+09,-1.28799e+06,0.0164217,0.721896,0,0.722083,922.86,-48240.3,0,48249.1,1.28799e+06
step02_gravity_refstate-mantle.xmf,784,9.32399e-06,-5.25213e-05,0,-3.21619e-06,-1.41289e+09,-1.42116e+09,-1.41414e+09,-429843,0.00337772,0.800556,0,0.800563,364.345,-49632.6,0,49634,429843
step02_gravity_refstate-mantle.xmf,785,1.33317e-05,-5.14559e-05,0,-4.49521e-06,-1.39711e+09,-1.40577e+09,-1.3989e+09,-600785,0.00618655,0.775606,0,0.77563,466.956,-49174.8,0,49177,600785
step02_gravity_refstate-mantle.xmf,786,5.15429e-06,-5.31117e-05,0,-1.15349e-07,-1.42574e+09,-1.43352e+09,-1.42642e+09,-15416.4,-4.07286e-07,0.821834,-0,0.821834,0,-50000,0,50000,15416.4
step02_gravity_refstate-mantle.xmf,787,-4.5433e-05,0.000112644,0,1.15448e-05,-1.63094e+09,-1.60981e+09,-1.62486e+09,1.54296e+06,0.0810114,0.384639,0,0.393078,-1716.45,-56424.6,-0,56450.7,1.54296e+06
step02_gravity_refstate-mantle.xmf,788,-5.04253e-05,0.000114263,0,3.9748e-06,-1.67291e+09,-1.6509e+09,-1.66618e+09,531233,0.0386214,0.258026,0,0.260901,-758.908,-57692.1,-0,57697.1,531233
step02_gravity_refstate-mantle.xmf,789,-5.12235e-05,0.000113713,0,2.06889e-06,-1.69034e+09,-1.66829e+09,-1.68349e+09,276507,0.0252709,0.199186,0,0.200782,-491.781,-58223.5,-0,58225.6,276507
step02_gravity_refstate-mantle.xmf,790,-5.16424e-05,0.000113011,0,6.66176e-07,-1.70908e+09,-1.68708e+09,-1.70218e+09,89034.4,0.0116552,0.134854,0,0.135357,-225.913,-58797.9,-0,58798.4,89034.4
step02_gravity_refstate-mantle.xmf,791,-5.17362e-05,0.000112352,0,-5.02505e-08,-1.72821e+09,-1.70628e+09,-1.7213e+09,-6715.98,-0.00231042,0.0687378,-0,0.0687766,44.7528,-59386.5,0,59386.5,6715.98
step02_gravity_refstate-mantle.xmf,792,-5.152e-05,0.000111746,0,-2.77982e-08,-1.74808e+09,-1.72625e+09,-1.74119e+09,-3715.23,-0.0178357,-6.67326e-18,-0,0.0178357,346.07,-60000,0,60001,3715.23
step02_gravity_refstate-mantle.xmf,793,1.31603e-05,-3.03303e-05,0,-2.20963e-05,-1.32996e+09,-1.33577e+09,-1.33172e+09,-2.95317e+06,0.0423064,0.627255,0,0.62868,2430.38,-47153.3,0,47215.9,2.95317e+06
step02_gravity_refstate-mantle.xmf,794,7.15791e-06,-1.79139e-05,0,-2.45861e-05,-1.30538e+09,-1.30873e+09,-1.30634e+09,-3.28593e+06,0.053129,0.556675,0,0.559205,3540.52,-46385.9,0,46520.8,3.28593e+06
step02_gravity_refstate-mantle.xmf,795,1.0209e-05,-2.40152e-05,0,-2.3959e-05,-1.31768e+09,-1.32226e+09,-1.31905e+09,-3.20213e+06,0.048432,0.592275,0,0.594252,2966.03,-46770.5,0,46864.5,3.20213e+06
step02_gravity_refstate-mantle.xmf,796,-4.00601e-06,3.70646e-06,0,-7.05301e-06,-1.09928e+09,-1.09825e+09,-1.09874e+09,-942635,0.0845196,0.265893,0,0.279003,11115.2,-40000,0,41515.6,942635
step02_gravity_refstate-mantle.xmf,797,-1.94847e-06,1.87437e-06,0,-9.51072e-06,-1.12492e+09,-1.12441e+09,-1.12466e+09,-1.27111e+06,0.0809889,0.308069,0,0.318537,9463,-40801.2,0,41884.2,1.27111e+06
step02_gravity_refstate-mantle.xmf,798,-1.47785e-06,1.55419e-06,0,-1.08991e-05,-1.14492e+09,-1.14452e+09,-1.14473e+09,-1.45666e+06,0.0761668,0.322629,0,0.331498,8934.31,-41421.3,0,42373.9,1.45666e+06
step02_gravity_refstate-mantle.xmf,799,3.62801e-06,-8.85341e-06,0,-2.12003e-05,-1.2576e+09,-1.25927e+09,-1.25808e+09,-2.83342e+06,0.0587037,0.48342,0,0.486971,4733.19,-44909.3,0,45158.1,2.83342e+06
step02_gravity_refstate-mantle.xmf,800,5.64047e-06,-1.27268e-05,0,-2.19348e-05,-1.27075e+09,-1.27321e+09,-1.27151e+09,-2.93158e+06,0.055969,0.514289,0,0.517326,4115.34,-45319.2,0,45505.7,2.93158e+06
step02_gravity_refstate-mantle.xmf,801,1.6489e-05,-4.93724e-05,0,-4.55745e-06,-1.3788e+09,-1.3876e+09,-1.381e+09,-609104,0.00732881,0.748731,0,0.748767,445.594,-48635.5,0,48637.6,609104
step02_gravity_refstate-mantle.xmf,802,1.08061e-05,-5.25027e-05,0,3.2331e-08,-1.4079e+09,-1.41636e+09,-1.40934e+09,4321.04,2.09077e-07,0.794838,0,0.794838,0,-49488.4,0,49488.4,4321.04
step02_gravity_refstate-mantle.xmf,803,-4.29406e-05,0.000111658,0,1.36401e-05,-1.61673e+09,-1.59607e+09,-1.61099e+09,1.82299e+06,0.0897058,0.422653,0,0.432068,-1997.54,-56000,-0,56035.6,1.82299e+06
step02_gravity_refstate-mantle.xmf,804,-4.54923e-05,0.000109412,0,1.23009e-05,-1.6454e+09,-1.6247e+09,-1.63932e+09,1.64401e+06,0.0913756,0.330855,0,0.343241,-1892.14,-56862.7,-0,56894.1,1.64401e+06
step02_gravity_refstate-mantle.xmf,805,-4.73375e-05,0.000110825,0,9.21744e-06,-1.6592e+09,-1.63806e+09,-1.65287e+09,1.23191e+06,0.0776411,0.292833,0,0.302951,-1567.75,-57280.2,-0,57301.6,1.23191e+06
step02_gravity_refstate-mantle.xmf,806,-4.86748e-05,0.000111367,0,6.85802e-06,-1.6729e+09,-1.65151e+09,-1.66639e+09,916575,0.0663404,0.251072,0,0.259688,-1318.39,-57695.8,-0,57710.9,916575
step02_gravity_refstate-mantle.xmf,807,7.94943e-06,-1.71217e-05,0,-2.20708e-05,-1.28305e+09,-1.2864e+09,-1.28411e+09,-2.94976e+06,0.0524637,0.544819,0,0.547339,3538.38,-45703.4,0,45840.1,2.94976e+06
step02_gravity_refstate-mantle.xmf,808,1.58735e-05,-3.3668e-05,0,-1.69613e-05,-1.32156e+09,-1.32818e+09,-1.32368e+09,-2.26687e+06,0.033911,0.641554,0,0.642449,1856.13,-46903.4,0,46940.1,2.26687e+06
step02_gravity_refstate-mantle.xmf,809,1.75949e-05,-3.84724e-05,0,-1.33109e-05,-1.33291e+09,-1.3404e+09,-1.33526e+09,-1.779e+06,0.0256703,0.669191,0,0.669683,1362.78,-47253.3,0,47272.9,1.779e+06
step02_gravity_refstate-mantle.xmf,810,1.8539e-05,-4.29369e-05,0,-9.06966e-06,-1.34547e+09,-1.35368e+09,-1.34794e+09,-1.21216e+06,0.0168464,0.695749,0,0.695953,889.032,-47636.1,0,47644.4,1.21216e+06
step02_gravity_refstate-mantle.xmf,811,3.57219e-06,-6.73555e-06,0,-1.83929e-05,-1.22272e+09,-1.22409e+09,-1.22319e+09,-2.45821e+06,0.061336,0.454097,0,0.45822,5257.23,-43836.9,0,44151,2.45821e+06
step02_gravity_refstate-mantle.xmf,812,-2.6053e-06,2.30531e-06,0,-7.80067e-06,-1.09909e+09,-1.09844e+09,-1.09874e+09,-1.04256e+06,0.0881199,0.294093,0,0.307011,10028,-40000,0,41237.9,1.04256e+06
step02_gravity_refstate-mantle.xmf,813,-5.94747e-07,4.6478e-07,0,-1.22357e-05,-1.15555e+09,-1.15541e+09,-1.15547e+09,-1.6353e+06,0.0742212,0.344586,0,0.352489,8218.8,-41752.6,0,42553.8,1.6353e+06
step02_gravity_refstate-mantle.xmf,814,3.57401e-07,-8.4386e-07,0,-1.38359e-05,-1.17059e+09,-1.17075e+09,-1.17063e+09,-1.84917e+06,0.071119,0.370063,0,0.376835,7442.57,-42220.2,0,42871.2,1.84917e+06
step02_gravity_refstate-mantle.xmf,815,1.84375e-06,-3.4964e-06,0,-1.66815e-05,-1.2023e+09,-1.20302e+09,-1.20255e+09,-2.22948e+06,0.065244,0.415757,0,0.420845,6197.58,-43203.1,0,43645.4,2.22948e+06
step02_gravity_refstate-mantle.xmf,816,1.19039e-06,-2.25936e-06,0,-1.5484e-05,-1.18783e+09,-1.18829e+09,-1.18799e+09,-2.06943e+06,0.0677575,0.395455,0,0.401218,6727.58,-42754.7,0,43280.7,2.06943e+06
step02_gravity_refstate-mantle.xmf,817,5.91908e-08,-9.07309e-08,0,-1.04084e-05,-1.12561e+09,-1.12563e+09,-1.12562e+09,-1.39109e+06,0.081791,0.341034,0,0.350705,8338.25,-40830.9,0,41673.6,1.39109e+06
step02_gravity_refstate-mantle.xmf,818,4.95754e-06,-9.29754e-06,0,-1.91207e-05,-1.23361e+09,-1.23551e+09,-1.23427e+09,-2.55549e+06,0.0587091,0.478233,0,0.481823,4697.03,-44176.1,0,44425.1,2.55549e+06
step02_gravity_refstate-mantle.xmf,819,1.84454e-05,-4.60761e-05,0,-4.59909e-06,-1.35824e+09,-1.36686e+09,-1.3607e+09,-614669,0.00821908,0.719487,0,0.719534,444.4,-48021.9,0,48023.9,614669
step02_gravity_refstate-mantle.xmf,820,9.26505e-06,-5.25302e-05,0,3.18642e-06,-1.4129e+09,-1.42116e+09,-1.41414e+09,425865,-0.00337728,0.800557,-0,0.800564,-364.345,-49632.6,-0,49634,425865
step02_gravity_refstate-mantle.xmf,821,5.43701e-06,-5.28099e-05,0,4.12713e-06,-1.42565e+09,-1.43343e+09,-1.42638e+09,551591,-0.00259315,0.818238,-0,0.818242,-500.717,-50000,-0,50002.5,551591
step02_gravity_refstate-mantle.xmf,822,-4.34832e-05,0.000107982,0,1.52184e-05,-1.63121e+09,-1.61097e+09,-1.6254e+09,2.03394e+06,0.102431,0.367325,0,0.38134,-2196.75,-56434.2,-0,56477,2.03394e+06
step02_gravity_refstate-mantle.xmf,823,-4.96894e-05,0.000111431,0,4.57791e-06,-1.6893e+09,-1.66776e+09,-1.68265e+09,611837,0.0549855,0.198267,0,0.20575,-1080.59,-58195.7,-0,58205.8,611837
step02_gravity_refstate-mantle.xmf,824,-5.05903e-05,0.000111541,0,2.49262e-06,-1.70729e+09,-1.68562e+09,-1.70053e+09,333139,0.0421842,0.138823,0,0.145091,-823.205,-58745.8,-0,58751.6,333139
step02_gravity_refstate-mantle.xmf,825,-5.1141e-05,0.000111565,0,9.26838e-07,-1.72745e+09,-1.7057e+09,-1.72061e+09,123872,0.0303549,0.0706274,0,0.0768742,-590.289,-59364.9,-0,59367.9,123872
step02_gravity_refstate-mantle.xmf,826,-5.14917e-05,0.000111708,0,-2.03217e-08,-1.74807e+09,-1.72626e+09,-1.74119e+09,-2716,0.0178433,-6.87696e-18,0,0.0178433,-346.07,-60000,-0,60001,2716
step02_gravity_refstate-mantle.xmf,827,1.36523e-05,-2.85349e-05,0,-1.95689e-05,-1.30922e+09,-1.31486e+09,-1.31104e+09,-2.61538e+06,0.0408437,0.612042,0,0.613403,2347.89,-46520.6,0,46579.8,2.61538e+06
step02_gravity_refstate-mantle.xmf,828,1.12432e-05,-2.31192e-05,0,-2.06571e-05,-1.29239e+09,-1.29698e+09,-1.29389e+09,-2.76083e+06,0.0463824,0.578983,0,0.580838,2854.98,-45998.4,0,46086.9,2.76083e+06
step02_gravity_refstate-mantle.xmf,829,3.69993e-06,-6.09735e-06,0,-1.70257e-05,-1.20308e+09,-1.20439e+09,-1.20358e+09,-2.27548e+06,0.063295,0.440579,0,0.445103,5518.45,-43233,0,43583.7,2.27548e+06
step02_gravity_refstate-mantle.xmf,830,-8.02795e-07,5.97557e-07,0,-8.4064e-06,-1.09884e+09,-1.09866e+09,-1.09874e+09,-1.12352e+06,0.0899347,0.323013,0,0.335299,8968.72,-40000,0,40993.1,1.12352e+06
step02_gravity_refstate-mantle.xmf,831,6.81814e-06,-1.26613e-05,0,-1.95106e-05,-1.24606e+09,-1.24866e+09,-1.24697e+09,-2.60759e+06,0.0552087,0.506154,0,0.509156,4079.8,-44564.4,0,44750.7,2.60759e+06
step02_gravity_refstate-mantle.xmf,832,8.88987e-06,-1.66115e-05,0,-1.94848e-05,-1.25929e+09,-1.2627e+09,-1.26048e+09,-2.60415e+06,0.0509763,0.534945,0,0.537368,3479.11,-44977.1,0,45111.4,2.60415e+06
step02_gravity_refstate-mantle.xmf,833,6.18482e-06,-9.54748e-06,0,-1.69184e-05,-1.2062e+09,-1.2083e+09,-1.20702e+09,-2.26114e+06,0.0590174,0.471074,0,0.474756,4677.84,-43336.9,0,43588.6,2.26114e+06
step02_gravity_refstate-mantle.xmf,834,1.48694e-05,-5.10223e-05,0,-3.64756e-08,-1.3896e+09,-1.39841e+09,-1.39159e+09,-4874.96,-2.74854e-07,0.767219,-0,0.767219,0,-48954.1,0,48954.1,4874.96
step02_gravity_refstate-mantle.xmf,835,1.75679e-05,-4.85585e-05,0,-3.05668e-08,-1.37066e+09,-1.37949e+09,-1.373e+09,-4085.25,1.0766e-06,0.739371,0,0.739371,0,-48393.3,0,48393.3,4085.25
step02_gravity_refstate-mantle.xmf,836,5.36898e-06,-5.21191e-05,0,8.22389e-06,-1.42561e+09,-1.43329e+09,-1.42632e+09,1.09912e+06,-0.00523575,0.807418,-0,0.807435,-1000.68,-50000,-0,50010,1.09912e+06
step02_gravity_refstate-mantle.xmf,837,9.85058e-06,-5.20148e-05,0,6.90554e-06,-1.41179e+09,-1.42006e+09,-1.41311e+09,922925,-0.00729738,0.792797,-0,0.79283,-761.518,-49603.5,-0,49609.4,922925
step02_gravity_refstate-mantle.xmf,838,1.31948e-05,-5.15388e-05,0,4.48836e-06,-1.39761e+09,-1.40626e+09,-1.39937e+09,599869,-0.00624485,0.776227,-0,0.776252,-475.095,-49188.9,-0,49191.2,599869
step02_gravity_refstate-mantle.xmf,839,-4.1031e-05,0.000106149,0,1.76478e-05,-1.61678e+09,-1.59711e+09,-1.61129e+09,2.35863e+06,0.110682,0.400839,0,0.41584,-2497.35,-56000,-0,56055.7,2.35863e+06
step02_gravity_refstate-mantle.xmf,840,-4.48092e-05,0.000106122,0,1.20079e-05,-1.66021e+09,-1.64004e+09,-1.65422e+09,1.60485e+06,0.0998763,0.27766,0,0.295077,-2048.49,-57316.4,-0,57353,1.60485e+06
step02_gravity_refstate-mantle.xmf,841,-4.25879e-05,0.000103719,0,1.55983e-05,-1.64592e+09,-1.62636e+09,-1.64022e+09,2.08472e+06,0.112972,0.313027,0,0.332789,-2380.55,-56883.5,-0,56933.3,2.08472e+06
step02_gravity_refstate-mantle.xmf,842,-4.64631e-05,0.000107713,0,9.21131e-06,-1.67268e+09,-1.65208e+09,-1.66647e+09,1.23109e+06,0.0882322,0.243321,0,0.258824,-1778.93,-57694.6,-0,57722,1.23109e+06
step02_gravity_refstate-mantle.xmf,843,-4.71152e-05,0.000107592,0,7.04536e-06,-1.68744e+09,-1.66676e+09,-1.68114e+09,941613,0.0834131,0.19667,0,0.213628,-1668.01,-58145.8,-0,58169.7,941613
step02_gravity_refstate-mantle.xmf,844,1.05277e-05,-2.0105e-05,0,-1.93534e-05,-1.27191e+09,-1.27601e+09,-1.27332e+09,-2.58658e+06,0.0473985,0.558233,0,0.560242,3045.32,-45368.8,0,45470.9,2.58658e+06
step02_gravity_refstate-mantle.xmf,845,1.59692e-05,-3.16807e-05,0,-1.52892e-05,-1.30442e+09,-1.31079e+09,-1.30655e+09,-2.0434e+06,0.0325336,0.626359,0,0.627203,1796.57,-46379.7,0,46414.5,2.0434e+06
step02_gravity_refstate-mantle.xmf,846,1.76239e-05,-3.51951e-05,0,-1.18187e-05,-1.31208e+09,-1.31914e+09,-1.31443e+09,-1.57958e+06,0.024711,0.646962,0,0.647433,1316.66,-46618.4,0,46637,1.57958e+06
step02_gravity_refstate-mantle.xmf,847,1.88105e-05,-3.91732e-05,0,-7.98803e-06,-1.3245e+09,-1.33225e+09,-1.32702e+09,-1.0676e+06,0.0159376,0.670754,0,0.670943,827.851,-46999.9,0,47007.2,1.0676e+06
step02_gravity_refstate-mantle.xmf,848,1.92814e-05,-4.27646e-05,0,-4.20394e-06,-1.33823e+09,-1.34653e+09,-1.34081e+09,-561857,0.00806968,0.692962,0,0.693009,417.632,-47418.1,0,47419.9,561857
step02_gravity_refstate-mantle.xmf,849,3.61288e-06,-5.03364e-06,0,-1.53499e-05,-1.18125e+09,-1.18241e+09,-1.18174e+09,-2.05151e+06,0.0665835,0.422939,0,0.428148,5916.64,-42560.7,0,42970,2.05151e+06
step02_gravity_refstate-mantle.xmf,850,1.43653e-06,-1.71894e-06,0,-1.21037e-05,-1.14185e+09,-1.14227e+09,-1.14204e+09,-1.61766e+06,0.0769459,0.368987,0,0.376924,7440.73,-41337.5,0,42001.8,1.61766e+06
step02_gravity_refstate-mantle.xmf,851,2.64979e-06,-3.34399e-06,0,-1.36682e-05,-1.15869e+09,-1.15949e+09,-1.15904e+09,-1.82676e+06,0.0719694,0.395504,0,0.401999,6652.69,-41861.5,0,42386.9,1.82676e+06
step02_gravity_refstate-mantle.xmf,852,1.37519e-06,-1.3874e-06,0,-8.8276e-06,-1.09854e+09,-1.09891e+09,-1.09872e+09,-1.17981e+06,0.0896484,0.352149,0,0.363381,7933.15,-40000,0,40779.1,1.17981e+06
step02_gravity_refstate-mantle.xmf,853,7.58008e-06,-1.24142e-05,0,-1.76582e-05,-1.22467e+09,-1.22734e+09,-1.22568e+09,-2.36002e+06,0.0547972,0.498175,0,0.501179,4074.2,-43909.6,0,44098.2,2.36002e+06
step02_gravity_refstate-mantle.xmf,854,1.90301e-05,-4.52049e-05,0,4.09313e-08,-1.35099e+09,-1.35958e+09,-1.35354e+09,5470.47,1.36682e-07,0.711798,0,0.711798,0,-47804.3,0,47804.3,5470.47
step02_gravity_refstate-mantle.xmf,855,1.006e-05,-5.07453e-05,0,1.14846e-05,-1.41047e+09,-1.41859e+09,-1.41181e+09,1.53492e+06,-0.0124548,0.777174,-0,0.777274,-1250.43,-49567.2,-0,49583,1.53492e+06
step02_gravity_refstate-mantle.xmf,856,5.58015e-06,-5.07015e-05,0,1.26835e-05,-1.42544e+09,-1.43297e+09,-1.42619e+09,1.69515e+06,-0.00797033,0.789227,-0,0.789268,-1500.17,-50000,-0,50022.5,1.69515e+06
step02_gravity_refstate-mantle.xmf,857,-4.04874e-05,0.000101126,0,1.92759e-05,-1.63126e+09,-1.61233e+09,-1.62585e+09,2.57622e+06,0.123385,0.346023,0,0.367364,-2695.27,-56438.2,-0,56502.5,2.57622e+06
step02_gravity_refstate-mantle.xmf,858,-4.36724e-05,0.000102819,0,1.02826e-05,-1.67885e+09,-1.65928e+09,-1.67302e+09,1.37427e+06,0.107969,0.213729,0,0.239452,-2212.44,-57891.4,-0,57933.7,1.37427e+06
step02_gravity_refstate-mantle.xmf,859,-4.84004e-05,0.000108418,0,4.34273e-06,-1.70527e+09,-1.68431e+09,-1.6988e+09,580406,0.0710371,0.140954,0,0.157842,-1405.91,-58690.2,-0,58707,580406
step02_gravity_refstate-mantle.xmf,860,-4.95384e-05,0.00010936,0,2.11154e-06,-1.72387e+09,-1.70263e+09,-1.71724e+09,282208,0.0586671,0.0806603,0,0.0997392,-1153.05,-59259.3,-0,59270.5,282208
step02_gravity_refstate-mantle.xmf,861,-4.9822e-05,0.00010933,0,-1.18427e-08,-1.74791e+09,-1.72664e+09,-1.74125e+09,-1582.77,0.0529669,-7.8636e-18,0,0.0529669,-1038.24,-60000,-0,60009,1582.77
step02_gravity_refstate-mantle.xmf,862,1.46596e-05,-2.79322e-05,0,-1.61606e-05,-1.28933e+09,-1.29502e+09,-1.29129e+09,-2.15986e+06,0.0363977,0.603699,0,0.604795,2093.06,-45914.5,0,45962.2,2.15986e+06
step02_gravity_refstate-mantle.xmf,863,1.31399e-05,-2.37728e-05,0,-1.64738e-05,-1.27001e+09,-1.27494e+09,-1.27177e+09,-2.20173e+06,0.0401387,0.577733,0,0.579125,2439.39,-45318.2,0,45383.8,2.20173e+06
step02_gravity_refstate-mantle.xmf,864,1.94149e-05,-3.951e-05,0,-3.29714e-06,-1.31989e+09,-1.32777e+09,-1.32248e+09,-440663,0.00669295,0.670662,0,0.670696,344.506,-46860.6,0,46861.9,440663
step02_gravity_refstate-mantle.xmf,865,5.89999e-06,-7.87068e-06,0,-1.5117e-05,-1.17906e+09,-1.1809e+09,-1.17985e+09,-2.02039e+06,0.0629708,0.449213,0,0.453605,5117.77,-42501.1,0,42808.1,2.02039e+06
step02_gravity_refstate-mantle.xmf,866,2.26447e-06,-2.31806e-06,0,-1.02945e-05,-1.11625e+09,-1.11686e+09,-1.11656e+09,-1.37587e+06,0.0832891,0.367849,0,0.377161,7426.37,-40550.8,0,41225.2,1.37587e+06
step02_gravity_refstate-mantle.xmf,867,1.16678e-05,-1.98698e-05,0,-1.64601e-05,-1.24942e+09,-1.25363e+09,-1.25097e+09,-2.19989e+06,0.043887,0.551697,0,0.553439,2834.62,-44682.1,0,44772,2.19989e+06
step02_gravity_refstate-mantle.xmf,868,9.91354e-06,-1.59963e-05,0,-1.66136e-05,-1.22984e+09,-1.2333e+09,-1.23116e+09,-2.2204e+06,0.0489767,0.523402,0,0.525688,3390.09,-44075.5,0,44205.7,2.2204e+06
step02_gravity_refstate-mantle.xmf,869,9.13219e-06,-1.31888e-05,0,-1.53199e-05,-1.20257e+09,-1.20555e+09,-1.20379e+09,-2.04751e+06,0.0522952,0.498714,0,0.501449,3794.36,-43235.2,0,43401.4,2.04751e+06
step02_gravity_refstate-mantle.xmf,870,1.67033e-05,-4.92183e-05,0,4.62884e-06,-1.37728e+09,-1.38609e+09,-1.37952e+09,618644,-0.00756785,0.746421,-0,0.74646,-454.544,-48590.5,-0,48592.7,618644
step02_gravity_refstate-mantle.xmf,871,1.8451e-05,-4.6355e-05,0,4.6168e-06,-1.35881e+09,-1.36747e+09,-1.36128e+09,617036,-0.00825258,0.720245,-0,0.720292,-447.161,-48038.9,-0,48041,617036
step02_gravity_refstate-mantle.xmf,872,1.28291e-05,-5.04616e-05,0,9.61297e-06,-1.399e+09,-1.40746e+09,-1.40072e+09,1.28477e+06,-0.0125249,0.76861,-0,0.768712,-977.841,-49232.4,-0,49242.1,1.28477e+06
step02_gravity_refstate-mantle.xmf,873,1.01505e-05,-4.8666e-05,0,1.65275e-05,-1.40992e+09,-1.41779e+09,-1.41128e+09,2.2089e+06,-0.0175829,0.755902,-0,0.756107,-1742.65,-49556.4,-0,49587,2.2089e+06
step02_gravity_refstate-mantle.xmf,874,5.77029e-06,-4.83938e-05,0,1.74789e-05,-1.42521e+09,-1.43245e+09,-1.42598e+09,2.33606e+06,-0.0108045,0.76337,-0,0.763446,-2000,-50000,-0,50040,2.33606e+06
step02_gravity_refstate-mantle.xmf,875,-3.8507e-05,9.82423e-05,0,2.19511e-05,-1.61688e+09,-1.59861e+09,-1.61174e+09,2.93376e+06,0.130519,0.374109,0,0.396223,-2997.53,-56000,-0,56080.2,2.93376e+06
step02_gravity_refstate-mantle.xmf,876,-4.09651e-05,9.95787e-05,0,1.44125e-05,-1.66135e+09,-1.64256e+09,-1.65587e+09,1.92623e+06,0.122175,0.258406,0,0.285833,-2566.21,-57360.4,-0,57417.8,1.92623e+06
step02_gravity_refstate-mantle.xmf,877,-3.82098e-05,9.58021e-05,0,1.84802e-05,-1.64637e+09,-1.62846e+09,-1.64126e+09,2.46988e+06,0.133555,0.291556,0,0.32069,-2887.68,-56906.6,-0,56979.8,2.46988e+06
step02_gravity_refstate-mantle.xmf,878,-4.48417e-05,0.000103056,0,6.24513e-06,-1.70376e+09,-1.68399e+09,-1.69777e+09,834661,0.100886,0.138067,0,0.170998,-2045.34,-58653.5,-0,58689.2,834661
step02_gravity_refstate-mantle.xmf,879,1.6953e-05,-3.16395e-05,0,-1.16759e-05,-1.29103e+09,-1.29752e+09,-1.2933e+09,-1.56049e+06,0.0259649,0.623007,0,0.623548,1426.42,-45972.9,0,45995,1.56049e+06
step02_gravity_refstate-mantle.xmf,880,1.87286e-05,-3.51444e-05,0,-5.66493e-06,-1.29883e+09,-1.30603e+09,-1.30133e+09,-757118,0.0124815,0.643898,0,0.644019,658.891,-46216.7,0,46221.4,757118
step02_gravity_refstate-mantle.xmf,881,1.96115e-05,-4.17465e-05,0,2.01665e-08,-1.33055e+09,-1.33875e+09,-1.33317e+09,2695.25,3.46583e-06,0.684969,0,0.684969,0,-47185.6,0,47185.6,2695.25
step02_gravity_refstate-mantle.xmf,882,5.26943e-06,-6.08068e-06,0,-1.33322e-05,-1.15364e+09,-1.15516e+09,-1.15435e+09,-1.78185e+06,0.0690465,0.424427,0,0.430007,5726.96,-41716.2,0,42107.4,1.78185e+06
step02_gravity_refstate-mantle.xmf,883,8.39226e-06,-1.08535e-05,0,-1.41993e-05,-1.1779e+09,-1.18047e+09,-1.17902e+09,-1.89774e+06,0.0570094,0.475194,0,0.478602,4276.29,-42474.1,0,42688.8,1.89774e+06
step02_gravity_refstate-mantle.xmf,884,4.13253e-06,-4.35887e-06,0,-1.13735e-05,-1.12647e+09,-1.1276e+09,-1.12702e+09,-1.52007e+06,0.0777607,0.395815,0,0.403381,6521.96,-40873.5,0,41390.6,1.52007e+06
step02_gravity_refstate-mantle.xmf,885,3.89148e-06,-3.63745e-06,0,-8.98203e-06,-1.09818e+09,-1.09919e+09,-1.0987e+09,-1.20045e+06,0.0869986,0.38089,0,0.390699,6916.9,-40000,0,40593.6,1.20045e+06
step02_gravity_refstate-mantle.xmf,886,1.91471e-05,-4.35698e-05,0,4.16331e-06,-1.34308e+09,-1.35146e+09,-1.34564e+09,556427,-0.00794056,0.699309,-0,0.699354,-413.252,-47564.7,-0,47566.5,556427
step02_gravity_refstate-mantle.xmf,887,1.56302e-05,-4.89671e-05,0,9.61403e-06,-1.38324e+09,-1.39187e+09,-1.38533e+09,1.28491e+06,-0.0148205,0.746471,-0,0.746618,-942.278,-48768,-0,48777.1,1.28491e+06
step02_gravity_refstate-mantle.xmf,888,1.3953e-05,-4.79671e-05,0,1.51342e-05,-1.39305e+09,-1.40132e+09,-1.39491e+09,2.02269e+06,-0.0205477,0.743871,-0,0.744155,-1475.71,-49062.3,-0,49084.5,2.02269e+06
step02_gravity_refstate-mantle.xmf,889,9.93372e-06,-4.53496e-05,0,2.20835e-05,-1.41005e+09,-1.41744e+09,-1.41138e+09,2.95146e+06,-0.0224627,0.727603,-0,0.72795,-2249.92,-49567.3,-0,49618.3,2.95146e+06
step02_gravity_refstate-mantle.xmf,890,-3.56323e-05,9.08154e-05,0,2.3187e-05,-1.63152e+09,-1.61462e+09,-1.62676e+09,3.09894e+06,0.142855,0.319866,0,0.350317,-3203.58,-56452.3,-0,56543.1,3.09894e+06
step02_gravity_refstate-mantle.xmf,891,-3.87859e-05,9.5475e-05,0,1.22845e-05,-1.67678e+09,-1.65884e+09,-1.6716e+09,1.64182e+06,0.132893,0.204436,0,0.243833,-2817.51,-57841.3,-0,57909.9,1.64182e+06
step02_gravity_refstate-mantle.xmf,892,-4.68838e-05,0.0001054,0,3.27709e-06,-1.72146e+09,-1.70111e+09,-1.7152e+09,437983,0.0853886,0.0849444,0,0.120444,-1707.34,-59192.7,-0,59217.3,437983
step02_gravity_refstate-mantle.xmf,893,-4.6833e-05,0.000105103,0,-3.6474e-08,-1.74761e+09,-1.7273e+09,-1.74135e+09,-4874.74,0.0864408,-6.34987e-18,0,0.0864408,-1730.41,-60000,-0,60024.9,4874.74
step02_gravity_refstate-mantle.xmf,894,1.56398e-05,-2.7369e-05,0,-1.23346e-05,-1.2696e+09,-1.27535e+09,-1.27169e+09,-1.64852e+06,0.0298093,0.597053,0,0.597797,1721.77,-45313,0,45345.7,1.64852e+06
step02_gravity_refstate-mantle.xmf,895,1.42443e-05,-2.33769e-05,0,-1.29052e-05,-1.24794e+09,-1.25297e+09,-1.24985e+09,-1.72479e+06,0.034084,0.571738,0,0.572754,2082.22,-44644.9,0,44693.4,1.72479e+06
step02_gravity_refstate-mantle.xmf,896,1.93063e-05,-3.7651e-05,0,2.57123e-08,-1.30924e+09,-1.31685e+09,-1.31182e+09,3436.45,-1.58276e-06,0.659231,-0,0.659231,0,-46535.7,0,46535.7,3436.45
step02_gravity_refstate-mantle.xmf,897,7.82082e-06,-8.95795e-06,0,-1.27655e-05,-1.15189e+09,-1.15414e+09,-1.15294e+09,-1.70611e+06,0.0631464,0.452166,0,0.456554,4795.09,-41671.9,0,41946.9,1.70611e+06
step02_gravity_refstate-mantle.xmf,898,1.28395e-05,-1.96186e-05,0,-1.3257e-05,-1.22527e+09,-1.22961e+09,-1.22699e+09,-1.7718e+06,0.0388833,0.546148,0,0.547531,2515.92,-43944.9,0,44016.8,1.7718e+06
step02_gravity_refstate-mantle.xmf,899,1.17092e-05,-1.6442e-05,0,-1.30951e-05,-1.20183e+09,-1.20559e+09,-1.20339e+09,-1.75016e+06,0.043533,0.522143,0,0.523955,2953.63,-43221.2,0,43322,1.75016e+06
step02_gravity_refstate-mantle.xmf,900,1.09176e-05,-1.38226e-05,0,-1.24605e-05,-1.17668e+09,-1.17999e+09,-1.17814e+09,-1.66534e+06,0.048539,0.499258,0,0.501612,3395.58,-42445.9,0,42581.5,1.66534e+06
step02_gravity_refstate-mantle.xmf,901,1.75575e-05,-4.62032e-05,0,9.69639e-06,-1.36486e+09,-1.37338e+09,-1.3672e+09,1.29592e+06,-0.0166248,0.720781,-0,0.720973,-931.546,-48220.1,-0,48229.1,1.29592e+06
step02_gravity_refstate-mantle.xmf,902,1.85231e-05,-4.31903e-05,0,9.05487e-06,-1.34668e+09,-1.35492e+09,-1.34915e+09,1.21018e+06,-0.0167608,0.69737,-0,0.697571,-886.358,-47672.7,-0,47680.9,1.21018e+06
step02_gravity_refstate-mantle.xmf,903,5.85032e-06,-4.4802e-05,0,2.26645e-05,-1.4249e+09,-1.43167e+09,-1.42568e+09,3.02911e+06,-0.0136843,0.729483,-0,0.729611,-2499.83,-50000,-0,50062.5,3.02911e+06
step02_gravity_refstate-mantle.xmf,904,1.2504e-05,-4.5201e-05,0,2.06953e-05,-1.3969e+09,-1.40461e+09,-1.39857e+09,2.76592e+06,-0.0260642,0.724841,-0,0.72531,-2000,-49178.6,-0,49219.3,2.76592e+06
step02_gravity_refstate-mantle.xmf,905,-3.52412e-05,8.35123e-05,0,2.91516e-05,-1.6174e+09,-1.60153e+09,-1.61269e+09,3.89612e+06,0.14884,0.343333,0,0.374207,-3497.18,-56000,-0,56109.1,3.89612e+06
step02_gravity_refstate-mantle.xmf,906,-3.56635e-05,9.12577e-05,0,1.59141e-05,-1.66133e+09,-1.64437e+09,-1.65657e+09,2.12691e+06,0.143502,0.239101,0,0.278859,-3121.83,-57374.2,-0,57459.1,2.12691e+06
step02_gravity_refstate-mantle.xmf,907,-3.17779e-05,8.58399e-05,0,1.92014e-05,-1.64605e+09,-1.63033e+09,-1.64181e+09,2.56627e+06,0.152899,0.267984,0,0.308534,-3438.68,-56914.3,-0,57018.1,2.56627e+06
step02_gravity_refstate-mantle.xmf,908,-4.08542e-05,9.76356e-05,0,8.84327e-06,-1.6945e+09,-1.67599e+09,-1.68904e+09,1.1819e+06,0.124343,0.157244,0,0.200466,-2593.66,-58380.4,-0,58438,1.1819e+06
step02_gravity_refstate-mantle.xmf,909,-4.38735e-05,0.000100943,0,3.12216e-06,-1.72662e+09,-1.70726e+09,-1.72075e+09,417277,0.107829,0.0644878,0,0.125642,-2202.01,-59360.6,-0,59401.4,417277
step02_gravity_refstate-mantle.xmf,910,1.742e-05,-3.02899e-05,0,-7.64411e-06,-1.27282e+09,-1.2792e+09,-1.27515e+09,-1.02163e+06,0.0182227,0.613324,0,0.613594,1012.8,-45417,0,45428.3,1.02163e+06
step02_gravity_refstate-mantle.xmf,911,1.88764e-05,-3.40055e-05,0,3.5039e-08,-1.28692e+09,-1.29399e+09,-1.28945e+09,4682.96,-2.2777e-07,0.634825,-0,0.634825,0,-45852.8,0,45852.8,4682.96
step02_gravity_refstate-mantle.xmf,912,1.89903e-05,-3.68546e-05,0,4.96226e-06,-1.30744e+09,-1.31491e+09,-1.30998e+09,663205,-0.0105037,0.654523,-0,0.654607,-547.087,-46480.1,-0,46483.3,663205
step02_gravity_refstate-mantle.xmf,913,1.90365e-05,-4.03585e-05,0,7.16388e-06,-1.32851e+09,-1.33644e+09,-1.33105e+09,957453,-0.0141436,0.677047,-0,0.677194,-732.742,-47122.1,-0,47127.8,957453
step02_gravity_refstate-mantle.xmf,914,7.21168e-06,-7.27841e-06,0,-1.09513e-05,-1.1252e+09,-1.12713e+09,-1.12616e+09,-1.46364e+06,0.0714917,0.42883,0,0.434748,5382.12,-40847.5,0,41200.5,1.46364e+06
step02_gravity_refstate-mantle.xmf,915,1.03403e-05,-1.16892e-05,0,-1.15105e-05,-1.15109e+09,-1.15403e+09,-1.15247e+09,-1.53838e+06,0.0548035,0.477188,0,0.480325,3871.13,-41656.9,0,41836.4,1.53838e+06
step02_gravity_refstate-mantle.xmf,916,6.61202e-06,-6.00221e-06,0,-8.81446e-06,-1.09779e+09,-1.09947e+09,-1.09867e+09,-1.17805e+06,0.0817569,0.40852,0,0.416621,5915.44,-40000,0,40435,1.17805e+06
step02_gravity_refstate-mantle.xmf,917,9.34911e-06,-4.02176e-05,0,2.83008e-05,-1.40936e+09,-1.41598e+09,-1.4106e+09,3.7824e+06,-0.0275173,0.691279,-0,0.691826,-2748.08,-49555.1,-0,49631.2,3.7824e+06
step02_gravity_refstate-mantle.xmf,918,1.61693e-05,-4.52639e-05,0,1.50721e-05,-1.37229e+09,-1.3805e+09,-1.37445e+09,2.01438e+06,-0.0243502,0.71639,-0,0.716803,-1440.99,-48442.8,-0,48464.2,2.01438e+06
step02_gravity_refstate-mantle.xmf,919,1.4413e-05,-4.26961e-05,0,2.10738e-05,-1.38049e+09,-1.38812e+09,-1.38241e+09,2.81651e+06,-0.0308447,0.704653,-0,0.705327,-1975.78,-48690.8,-0,48730.9,2.81651e+06
step02_gravity_refstate-mantle.xmf,920,1.20103e-05,-3.96438e-05,0,2.68976e-05,-1.39177e+09,-1.39868e+09,-1.39338e+09,3.59487e+06,-0.0339776,0.688911,-0,0.689748,-2493.11,-49031.3,-0,49094.6,3.59487e+06
step02_gravity_refstate-mantle.xmf,921,5.62303e-06,-3.92212e-05,0,2.83445e-05,-1.42448e+09,-1.43048e+09,-1.42523e+09,3.78825e+06,-0.0165062,0.687142,-0,0.68734,-2999.32,-50000,-0,50089.9,3.78825e+06
step02_gravity_refstate-mantle.xmf,922,-2.73559e-05,7.93557e-05,0,2.09181e-05,-1.63069e+09,-1.61643e+09,-1.62703e+09,2.7957e+06,0.159692,0.292724,0,0.33345,-3734.73,-56452.6,-0,56576,2.7957e+06
step02_gravity_refstate-mantle.xmf,923,-3.34734e-05,8.73189e-05,0,1.30533e-05,-1.67624e+09,-1.6601e+09,-1.67177e+09,1.74457e+06,0.153742,0.189198,0,0.243788,-3394.32,-57839.2,-0,57938.8,1.74457e+06
step02_gravity_refstate-mantle.xmf,924,-3.63865e-05,9.11722e-05,0,1.0413e-05,-1.68951e+09,-1.67246e+09,-1.68465e+09,1.39169e+06,0.14446,0.160254,0,0.215755,-3116.36,-58239.5,-0,58322.8,1.39169e+06
step02_gravity_refstate-mantle.xmf,925,-4.1238e-05,9.75452e-05,0,5.75805e-06,-1.71213e+09,-1.69358e+09,-1.70661e+09,769563,0.122966,0.104923,0,0.161646,-2557.55,-58922,-0,58977.4,769563
step02_gravity_refstate-mantle.xmf,926,1.6247e-05,-2.62416e-05,0,-8.50235e-06,-1.24842e+09,-1.2541e+09,-1.25059e+09,-1.13634e+06,0.0221841,0.587924,0,0.588342,1299.57,-44665.8,0,44684.7,1.13634e+06
step02_gravity_refstate-mantle.xmf,927,1.50529e-05,-2.25733e-05,0,-9.39208e-06,-1.22544e+09,-1.23047e+09,-1.22745e+09,-1.25525e+06,0.0270711,0.564607,0,0.565256,1667.75,-43957.2,0,43988.8,1.25525e+06
step02_gravity_refstate-mantle.xmf,928,1.82455e-05,-3.16682e-05,0,-3.34269e-06,-1.27526e+09,-1.28193e+09,-1.27769e+09,-446750,0.00798109,0.621672,0,0.621723,434.977,-45494.1,0,45496.2,446750
step02_gravity_refstate-mantle.xmf,929,9.8643e-06,-9.93361e-06,0,-1.01441e-05,-1.12446e+09,-1.1271e+09,-1.12577e+09,-1.35577e+06,0.0631585,0.455095,0,0.459457,4396.28,-40835.5,0,41071.5,1.35577e+06
step02_gravity_refstate-mantle.xmf,930,1.3928e-05,-1.92513e-05,0,-1.00033e-05,-1.2017e+09,-1.20613e+09,-1.20356e+09,-1.33694e+06,0.0325595,0.541486,0,0.542465,2097.1,-43224.9,0,43275.7,1.33694e+06
step02_gravity_refstate-mantle.xmf,931,1.3138e-05,-1.64751e-05,0,-1.00082e-05,-1.17671e+09,-1.18067e+09,-1.17847e+09,-1.33759e+06,0.0378731,0.519726,0,0.521105,2508.97,-42454.8,0,42528.9,1.33759e+06
step02_gravity_refstate-mantle.xmf,932,1.26103e-05,-1.4163e-05,0,-9.61542e-06,-1.15095e+09,-1.15453e+09,-1.15263e+09,-1.2851e+06,0.0442657,0.498564,0,0.500525,2953.48,-41661.5,0,41766,1.2851e+06
step02_gravity_refstate-mantle.xmf,933,1.72115e-05,-4.1993e-05,0,1.45832e-05,-1.35284e+09,-1.36075e+09,-1.35514e+09,1.94904e+06,-0.0259099,0.69187,-0,0.692355,-1415.54,-47857.2,-0,47878.2,1.94904e+06
step02_gravity_refstate-mantle.xmf,934,1.76867e-05,-3.88583e-05,0,1.32239e-05,-1.33325e+09,-1.34081e+09,-1.33561e+09,1.76737e+06,-0.0254232,0.669949,-0,0.670432,-1349.02,-47263.4,-0,47282.6,1.76737e+06
step02_gravity_refstate-mantle.xmf,935,7.66731e-06,-3.12687e-05,0,3.57759e-05,-1.4085e+09,-1.41371e+09,-1.40953e+09,4.78145e+06,-0.0320244,0.648501,-0,0.649291,-3236.64,-49540.5,-0,49646.1,4.78145e+06
step02_gravity_refstate-mantle.xmf,936,-2.17665e-05,8.10186e-05,0,3.87359e-05,-1.58227e+09,-1.56853e+09,-1.57936e+09,5.17705e+06,0.154848,0.405544,0,0.434102,-4000,-54998.6,-0,55143.8,5.17705e+06
step02_gravity_refstate-mantle.xmf,937,-2.02181e-05,7.20041e-05,0,4.36841e-05,-1.56649e+09,-1.55416e+09,-1.56378e+09,5.83838e+06,0.139422,0.444296,0,0.465658,-4000,-54498.4,-0,54645,5.83838e+06
step02_gravity_refstate-mantle.xmf,938,-1.41615e-05,6.34748e-05,0,3.24499e-05,-1.57316e+09,-1.56279e+09,-1.57127e+09,4.33693e+06,0.154006,0.38426,0,0.413973,-4408.42,-54723.2,-0,54900.5,4.33693e+06
step02_gravity_refstate-mantle.xmf,939,-1.86254e-05,6.22657e-05,0,4.71405e-05,-1.55079e+09,-1.53998e+09,-1.5483e+09,6.30032e+06,0.120834,0.478035,0,0.49307,-4000,-53999.3,-0,54147.3,6.30032e+06
step02_gravity_refstate-mantle.xmf,940,-1.44168e-05,5.72554e-05,0,3.55081e-05,-1.55671e+09,-1.54713e+09,-1.55479e+09,4.74566e+06,0.135354,0.416731,0,0.438161,-4405.23,-54197.5,-0,54376.2,4.74566e+06
step02_gravity_refstate-mantle.xmf,941,-1.70362e-05,5.23099e-05,0,4.96126e-05,-1.53508e+09,-1.52582e+09,-1.53281e+09,6.63072e+06,0.100198,0.506825,0,0.516634,-4000,-53499.2,-0,53648.6,6.63072e+06
step02_gravity_refstate-mantle.xmf,942,-1.45627e-05,5.06109e-05,0,3.80936e-05,-1.54119e+09,-1.53248e+09,-1.53924e+09,5.09121e+06,0.114984,0.445285,0,0.459891,-4392.24,-53700,-0,53879.4,5.09121e+06
step02_gravity_refstate-mantle.xmf,943,-1.54906e-05,4.2365e-05,0,5.10991e-05,-1.5194e+09,-1.51167e+09,-1.51733e+09,6.82939e+06,0.0785245,0.530504,0,0.536284,-4000,-52999.8,-0,53150.5,6.82939e+06
step02_gravity_refstate-mantle.xmf,944,-1.43436e-05,4.38169e-05,0,3.98091e-05,-1.52649e+09,-1.51872e+09,-1.52458e+09,5.32048e+06,0.0945629,0.467755,0,0.477218,-4390.58,-53230.1,-0,53410.9,5.32048e+06
step02_gravity_refstate-mantle.xmf,945,-1.24053e-05,2.27303e-05,0,5.15385e-05,-1.48801e+09,-1.48331e+09,-1.48635e+09,6.88811e+06,0.0352232,0.562835,0,0.563936,-4000,-52000.2,-0,52153.8,6.88811e+06
step02_gravity_refstate-mantle.xmf,946,-1.08714e-05,1.35173e-05,0,5.0452e-05,-1.47228e+09,-1.46902e+09,-1.47083e+09,6.74291e+06,0.0152932,0.57167,0,0.571875,-4000,-51501.2,-0,51656.3,6.74291e+06
step02_gravity_refstate-mantle.xmf,947,-1.34616e-05,2.1996e-05,0,4.09579e-05,-1.48001e+09,-1.47527e+09,-1.47821e+09,5.47403e+06,0.0299319,0.513502,0,0.514374,-4411.12,-51744.4,-0,51932.1,5.47403e+06
step02_gravity_refstate-mantle.xmf,948,-1.39034e-05,3.24193e-05,0,5.17516e-05,-1.50372e+09,-1.49753e+09,-1.50186e+09,6.9166e+06,0.0566136,0.549151,0,0.552062,-4000,-52500.3,-0,52652.5,6.9166e+06
step02_gravity_refstate-mantle.xmf,949,-1.40153e-05,3.64914e-05,0,4.05671e-05,-1.51147e+09,-1.50472e+09,-1.5096e+09,5.42179e+06,0.0733191,0.485397,0,0.490903,-4403.49,-52749.6,-0,52933.1,5.42179e+06
step02_gravity_refstate-mantle.xmf,950,-1.37151e-05,2.90634e-05,0,4.09725e-05,-1.49584e+09,-1.49013e+09,-1.49401e+09,5.47597e+06,0.0512689,0.501015,0,0.503631,-4408.87,-52249.8,-0,52435.5,5.47597e+06
step02_gravity_refstate-mantle.xmf,951,-3.13178e-05,8.82328e-05,0,2.25939e-05,-1.61616e+09,-1.60018e+09,-1.61197e+09,3.01967e+06,0.16543,0.314754,0,0.35558,-4000,-56000,-0,56142.7,3.01967e+06
step02_gravity_refstate-mantle.xmf,952,-2.30219e-05,8.67881e-05,0,3.13282e-05,-1.59822e+09,-1.58355e+09,-1.59514e+09,4.18702e+06,0.165164,0.36211,0,0.397998,-4000,-55497.8,-0,55641.7,4.18702e+06
step02_gravity_refstate-mantle.xmf,953,-1.34737e-05,6.72498e-05,0,2.94176e-05,-1.58965e+09,-1.57886e+09,-1.58785e+09,3.93167e+06,0.16836,0.347868,0,0.386468,-4426.41,-55246.8,-0,55423.9,3.93167e+06
step02_gravity_refstate-mantle.xmf,954,-2.99366e-05,8.26045e-05,0,1.57092e-05,-1.66122e+09,-1.64618e+09,-1.65722e+09,2.09953e+06,0.162446,0.218267,0,0.272082,-3698.38,-57386.9,-0,57506,2.09953e+06
step02_gravity_refstate-mantle.xmf,955,-2.66196e-05,7.79547e-05,0,1.76984e-05,-1.64552e+09,-1.63155e+09,-1.64197e+09,2.36539e+06,0.168967,0.245409,0,0.297953,-3990.56,-56912.3,-0,57052,2.36539e+06
step02_gravity_refstate-mantle.xmf,956,-3.17397e-05,8.41158e-05,0,1.01158e-05,-1.69182e+09,-1.67633e+09,-1.68757e+09,1.35198e+06,0.162647,0.141467,0,0.215562,-3647.89,-58323.8,-0,58437.7,1.35198e+06
step02_gravity_refstate-mantle.xmf,957,-3.6557e-05,9.07451e-05,0,7.07345e-06,-1.70771e+09,-1.6907e+09,-1.70283e+09,945366,0.145524,0.108925,0,0.181774,-3137.62,-58799.5,-0,58883.1,945366
step02_gravity_refstate-mantle.xmf,958,-3.94539e-05,9.4548e-05,0,3.2768e-06,-1.72797e+09,-1.71007e+09,-1.7227e+09,437944,0.133127,0.0552118,0,0.144122,-2809.11,-59415.8,-0,59482.1,437944
step02_gravity_refstate-mantle.xmf,959,-4.24175e-05,9.87309e-05,0,-3.70938e-10,-1.74718e+09,-1.72832e+09,-1.74151e+09,-49.5758,0.11731,-5.4462e-18,0,0.11731,-2422.55,-60000,-0,60048.9,49.5758
step02_gravity_refstate-mantle.xmf,960,1.74795e-05,-2.85361e-05,0,-4.03141e-06,-1.25412e+09,-1.26027e+09,-1.25645e+09,-538797,0.0103072,0.601151,0,0.60124,585.237,-44844.1,0,44847.9,538797
step02_gravity_refstate-mantle.xmf,961,1.80449e-05,-3.00935e-05,0,8.18904e-08,-1.26356e+09,-1.26999e+09,-1.26597e+09,10944.6,1.85205e-07,0.61192,0,0.61192,0,-45135.4,0,45135.4,10944.6
step02_gravity_refstate-mantle.xmf,962,1.83169e-05,-3.33619e-05,0,6.50068e-06,-1.28974e+09,-1.29664e+09,-1.29219e+09,868816,-0.0145306,0.632938,-0,0.633105,-779.68,-45937.6,-0,45944.2,868816
step02_gravity_refstate-mantle.xmf,963,1.78807e-05,-3.53863e-05,0,1.09192e-05,-1.31067e+09,-1.31779e+09,-1.31306e+09,1.45935e+06,-0.0226603,0.647979,-0,0.648375,-1202.52,-46576.1,-0,46591.6,1.45935e+06
step02_gravity_refstate-mantle.xmf,964,9.43893e-06,-8.42587e-06,0,-8.25973e-06,-1.09737e+09,-1.09976e+09,-1.09864e+09,-1.10391e+06,0.0738242,0.434241,0,0.440472,4924.17,-40000,0,40302,1.10391e+06
step02_gravity_refstate-mantle.xmf,965,1.23235e-05,-1.23013e-05,0,-8.7265e-06,-1.12407e+09,-1.12736e+09,-1.12572e+09,-1.1663e+06,0.0524771,0.477598,0,0.480472,3432.74,-40834,0,40978,1.1663e+06
step02_gravity_refstate-mantle.xmf,966,9.16976e-06,-3.32876e-05,0,3.28253e-05,-1.39593e+09,-1.4016e+09,-1.39715e+09,4.38711e+06,-0.0373872,0.656866,-0,0.65793,-2995.98,-49156.9,-0,49248.1,4.38711e+06
step02_gravity_refstate-mantle.xmf,967,1.52194e-05,-3.9867e-05,0,2.02659e-05,-1.36126e+09,-1.36862e+09,-1.36329e+09,2.70854e+06,-0.0338196,0.681958,-0,0.682796,-1950.4,-48109.5,-0,48149,2.70854e+06
step02_gravity_refstate-mantle.xmf,968,1.2551e-05,-3.57521e-05,0,2.62864e-05,-1.37058e+09,-1.37704e+09,-1.37226e+09,3.51318e+06,-0.0398471,0.665038,-0,0.666231,-2488.47,-48390.3,-0,48454.3,3.51318e+06
step02_gravity_refstate-mantle.xmf,969,5.88103e-06,-3.08165e-05,0,3.47655e-05,-1.42373e+09,-1.42863e+09,-1.42452e+09,4.64641e+06,-0.0191125,0.635706,-0,0.635993,-3499.28,-50000,-0,50122.3,4.64641e+06
step02_gravity_refstate-mantle.xmf,970,-9.30862e-06,4.06939e-06,0,4.80764e-05,-1.45653e+09,-1.45474e+09,-1.45529e+09,6.42541e+06,-0.00223521,0.575944,-0,0.575949,-4000,-51001,-0,51157.6,6.42541e+06
step02_gravity_refstate-mantle.xmf,971,-1.31789e-05,1.58101e-05,0,4.0663e-05,-1.4644e+09,-1.46052e+09,-1.46264e+09,5.43461e+06,0.0108942,0.52234,0,0.522454,-4414.04,-51248.1,-0,51437.8,5.43461e+06
step02_gravity_refstate-mantle.xmf,972,-2.55238e-05,7.55293e-05,0,2.00082e-05,-1.63138e+09,-1.61788e+09,-1.62797e+09,2.67409e+06,0.173824,0.267054,0,0.318642,-4266.84,-56476.5,-0,56637.5,2.67409e+06
step02_gravity_refstate-mantle.xmf,973,-1.48463e-05,6.89073e-05,0,2.85833e-05,-1.60464e+09,-1.59345e+09,-1.60266e+09,3.82016e+06,0.175617,0.313882,0,0.359671,-4460.73,-55704.9,-0,55883.2,3.82016e+06
step02_gravity_refstate-mantle.xmf,974,-2.83747e-05,7.95324e-05,0,1.26797e-05,-1.67677e+09,-1.66235e+09,-1.67298e+09,1.69464e+06,0.171414,0.170916,0,0.242065,-3963.98,-57869.7,-0,58005.3,1.69464e+06
step02_gravity_refstate-mantle.xmf,975,1.65268e-05,-2.47105e-05,0,-4.55627e-06,-1.22602e+09,-1.23153e+09,-1.22823e+09,-608946,0.0129359,0.576867,0,0.577012,772.388,-43979.6,0,43986.4,608946
step02_gravity_refstate-mantle.xmf,976,1.55063e-05,-2.13294e-05,0,-6.37588e-06,-1.20295e+09,-1.20788e+09,-1.20503e+09,-852136,0.0204211,0.555455,0,0.55583,1269.99,-43268.9,0,43287.5,852136
step02_gravity_refstate-mantle.xmf,977,1.81307e-05,-3.12193e-05,0,3.73745e-06,-1.27296e+09,-1.27955e+09,-1.27538e+09,499510,-0.00873465,0.61917,-0,0.619232,-478.478,-45423.5,-0,45426.1,499510
step02_gravity_refstate-mantle.xmf,978,1.21682e-05,-1.07455e-05,0,-7.30716e-06,-1.09698e+09,-1.10004e+09,-1.0986e+09,-976602,0.0631919,0.457167,0,0.461513,3938.38,-40000,0,40193.4,976602
step02_gravity_refstate-mantle.xmf,979,1.48398e-05,-1.85762e-05,0,-6.95004e-06,-1.17765e+09,-1.18211e+09,-1.17963e+09,-928873,0.0256544,0.535241,0,0.535855,1635.56,-42489.7,0,42521.2,928873
step02_gravity_refstate-mantle.xmf,980,1.44507e-05,-1.61927e-05,0,-7.11919e-06,-1.15123e+09,-1.15533e+09,-1.15317e+09,-951479,0.0318911,0.515336,0,0.516321,2040.56,-41677.4,0,41727.3,951479
step02_gravity_refstate-mantle.xmf,981,1.43871e-05,-1.42982e-05,0,-6.79615e-06,-1.12409e+09,-1.12793e+09,-1.12602e+09,-908305,0.039746,0.495726,0,0.497316,2481.98,-40843.4,0,40918.8,908305
step02_gravity_refstate-mantle.xmf,982,1.56617e-05,-3.66915e-05,0,1.88908e-05,-1.34148e+09,-1.34848e+09,-1.34357e+09,2.52475e+06,-0.0346646,0.660708,-0,0.661617,-1914.05,-47509.7,-0,47548.2,2.52475e+06
step02_gravity_refstate-mantle.xmf,983,1.59528e-05,-3.39494e-05,0,1.68398e-05,-1.32135e+09,-1.32802e+09,-1.32348e+09,2.25063e+06,-0.0335936,0.641994,-0,0.642872,-1836.27,-46896.8,-0,46932.7,2.25063e+06
step02_gravity_refstate-mantle.xmf,984,9.00412e-06,-3.03064e-05,0,3.16383e-05,-1.38005e+09,-1.3853e+09,-1.38125e+09,4.22845e+06,-0.043052,0.642239,-0,0.64368,-2985.42,-48672.8,-0,48764.2,4.22845e+06
step02_gravity_refstate-mantle.xmf,985,4.45332e-06,-2.24188e-05,0,3.67382e-05,-1.39118e+09,-1.39477e+09,-1.39177e+09,4.91006e+06,-0.0426558,0.613822,-0,0.615302,-3463.11,-49006.4,-0,49128.6,4.91006e+06
step02_gravity_refstate-mantle.xmf,986,1.6419e-06,-1.63053e-05,0,4.1426e-05,-1.40805e+09,-1.41045e+09,-1.40827e+09,5.53658e+06,-0.0347307,0.601156,-0,0.602158,-3714.05,-49524.4,-0,49663.5,5.53658e+06
step02_gravity_refstate-mantle.xmf,987,-9.15687e-06,5.57506e-05,0,2.63172e-05,-1.58032e+09,-1.57164e+09,-1.57909e+09,3.51729e+06,0.165537,0.335608,0,0.374213,-4801.11,-54958,-0,55167.3,3.51729e+06
step02_gravity_refstate-mantle.xmf,988,-1.0065e-05,5.17152e-05,0,2.73906e-05,-1.56329e+09,-1.55503e+09,-1.56194e+09,3.66075e+06,0.148454,0.364142,0,0.393241,-4812.05,-54415.5,-0,54627.9,3.66075e+06
step02_gravity_refstate-mantle.xmf,989,-1.1193e-05,4.65064e-05,0,2.90582e-05,-1.54545e+09,-1.53774e+09,-1.54396e+09,3.88363e+06,0.126473,0.392083,0,0.411976,-4816.56,-53843.7,-0,54058.7,3.88363e+06
step02_gravity_refstate-mantle.xmf,990,-1.25306e-05,4.35297e-05,0,3.19059e-05,-1.53292e+09,-1.52543e+09,-1.53125e+09,4.26423e+06,0.108248,0.420171,0,0.433891,-4721.99,-53440.1,-0,53648.3,4.26423e+06
step02_gravity_refstate-mantle.xmf,991,-1.27893e-05,3.84628e-05,0,3.16076e-05,-1.51985e+09,-1.513e+09,-1.51814e+09,4.22436e+06,0.0907543,0.429283,0,0.438771,-4796.3,-53021.6,-0,53238,4.22436e+06
step02_gravity_refstate-mantle.xmf,992,-1.25893e-05,1.04181e-05,0,4.02894e-05,-1.44864e+09,-1.44556e+09,-1.44695e+09,5.38468e+06,-0.00495262,0.526573,-0,0.526596,-4432.9,-50751.4,-0,50944.6,5.38468e+06
step02_gravity_refstate-mantle.xmf,993,-1.45845e-05,2.1619e-05,0,3.40774e-05,-1.4709e+09,-1.46606e+09,-1.46895e+09,4.55445e+06,0.0238333,0.475964,0,0.476561,-4794.21,-51454.4,-0,51677.2,4.55445e+06
step02_gravity_refstate-mantle.xmf,994,-1.41183e-05,2.70231e-05,0,3.30454e-05,-1.48741e+09,-1.48192e+09,-1.48553e+09,4.41652e+06,0.0453432,0.461213,0,0.463437,-4813.22,-51981.5,-0,52203.9,4.41652e+06
step02_gravity_refstate-mantle.xmf,995,-1.34463e-05,3.26723e-05,0,3.24074e-05,-1.50392e+09,-1.49776e+09,-1.50213e+09,4.33124e+06,0.0681458,0.446414,0,0.451586,-4805.09,-52510.4,-0,52729.8,4.33124e+06
step02_gravity_refstate-mantle.xmf,996,-1.97159e-05,7.05937e-05,0,2.5877e-05,-1.61902e+09,-1.60695e+09,-1.61638e+09,3.45846e+06,0.178607,0.281094,0,0.333038,-4519.97,-56120.8,-0,56302.5,3.45846e+06
step02_gravity_refstate-mantle.xmf,997,-9.61309e-06,5.91512e-05,0,2.65323e-05,-1.59622e+09,-1.58703e+09,-1.59494e+09,3.54604e+06,0.17646,0.307819,0,0.354811,-4787.76,-55454.9,-0,55661.2,3.54604e+06
step02_gravity_refstate-mantle.xmf,998,-2.51759e-05,7.50457e-05,0,1.5082e-05,-1.66101e+09,-1.64762e+09,-1.65765e+09,2.01571e+06,0.178021,0.198588,0,0.266699,-4263.19,-57392.9,-0,57551,2.01571e+06
step02_gravity_refstate-mantle.xmf,999,-2.25093e-05,7.10712e-05,0,1.76921e-05,-1.64536e+09,-1.63285e+09,-1.64235e+09,2.36455e+06,0.182553,0.22305,0,0.28823,-4542.54,-56917.1,-0,57098,2.36455e+06
step02_gravity_refstate-mantle.xmf,1000,-2.6733e-05,7.64822e-05,0,9.59733e-06,-1.69299e+09,-1.67919e+09,-1.68942e+09,1.28268e+06,0.179699,0.125169,0,0.218996,-4228.69,-58373.9,-0,58526.9,1.28268e+06
step02_gravity_refstate-mantle.xmf,1001,-3.04333e-05,8.16542e-05,0,6.75218e-06,-1.70961e+09,-1.69463e+09,-1.70554e+09,902429,0.169627,0.0919978,0,0.192969,-3855.79,-58875.9,-0,59002,902429
step02_gravity_refstate-mantle.xmf,1002,-3.41157e-05,8.67957e-05,0,3.5786e-06,-1.72697e+09,-1.71081e+09,-1.72241e+09,478280,0.1571,0.0520388,0,0.165494,-3460.81,-59400.6,-0,59501.3,478280
step02_gravity_refstate-mantle.xmf,1003,-3.70865e-05,9.10396e-05,0,1.49502e-08,-1.74667e+09,-1.72954e+09,-1.74171e+09,1998.1,0.144826,-5.14325e-18,0,0.144826,-3114.73,-60000,-0,60080.8,1998.1
step02_gravity_refstate-mantle.xmf,1004,1.72935e-05,-2.69098e-05,0,2.96398e-08,-1.23905e+09,-1.24496e+09,-1.24137e+09,3961.36,2.20596e-07,0.590544,0,0.590544,0,-44381.7,0,44381.7,3961.36
step02_gravity_refstate-mantle.xmf,1005,1.74177e-05,-2.81314e-05,0,4.27688e-06,-1.25335e+09,-1.25944e+09,-1.25568e+09,571604,-0.0106946,0.600325,-0,0.60042,-608.276,-44821,-0,44825.2,571604
step02_gravity_refstate-mantle.xmf,1006,1.73027e-05,-2.97105e-05,0,7.87857e-06,-1.27083e+09,-1.27711e+09,-1.27314e+09,1.05297e+06,-0.0187519,0.61101,-0,0.611298,-1046.84,-45356.2,-0,45368.3,1.05297e+06
step02_gravity_refstate-mantle.xmf,1007,1.6939e-05,-3.12351e-05,0,1.14524e-05,-1.28972e+09,-1.29616e+09,-1.29199e+09,1.53061e+06,-0.0255858,0.622198,-0,0.622724,-1407.06,-45933.5,-0,45955,1.53061e+06
step02_gravity_refstate-mantle.xmf,1008,1.46148e-05,-1.28064e-05,0,-5.94791e-06,-1.09662e+09,-1.10028e+09,-1.09857e+09,-794938,0.0500156,0.476372,0,0.47899,2953.78,-40000,0,40108.9,794938
step02_gravity_refstate-mantle.xmf,1009,1.60631e-05,-3.16941e-05,0,1.48578e-05,-1.30388e+09,-1.31026e+09,-1.30602e+09,1.98575e+06,-0.0317225,0.627282,-0,0.628084,-1746.91,-46363.5,-0,46396.4,1.98575e+06
step02_gravity_refstate-mantle.xmf,1010,1.27703e-05,-3.30126e-05,0,2.44368e-05,-1.3505e+09,-1.35662e+09,-1.35221e+09,3.26597e+06,-0.0421826,0.644828,-0,0.646207,-2474.98,-47778.3,-0,47842.4,3.26597e+06
step02_gravity_refstate-mantle.xmf,1011,8.72142e-06,-2.6946e-05,0,2.97162e-05,-1.36021e+09,-1.36497e+09,-1.36137e+09,3.97157e+06,-0.0473804,0.621012,-0,0.622817,-3043.05,-48066.6,-0,48162.9,3.97157e+06
step02_gravity_refstate-mantle.xmf,1012,-9.05952e-06,-2.6666e-06,0,4.40822e-05,-1.44088e+09,-1.44002e+09,-1.43967e+09,5.89159e+06,-0.0157949,0.576122,-0,0.576339,-4000,-50501.8,-0,50659.9,5.89159e+06
step02_gravity_refstate-mantle.xmf,1013,-1.97444e-07,-3.76969e-06,0,3.79028e-05,-1.42281e+09,-1.42328e+09,-1.42278e+09,5.06571e+06,-0.0224771,0.574633,-0,0.575072,-4000,-50000,-0,50159.7,5.06571e+06
step02_gravity_refstate-mantle.xmf,1014,-1.43116e-05,1.68417e-05,0,3.55066e-05,-1.45689e+09,-1.45273e+09,-1.45498e+09,4.74545e+06,0.00737225,0.489059,0,0.489114,-4750.4,-51011.2,-0,51231.9,4.74545e+06
step02_gravity_refstate-mantle.xmf,1015,-1.83819e-05,6.60485e-05,0,2.12965e-05,-1.63002e+09,-1.61873e+09,-1.62756e+09,2.84628e+06,0.185742,0.242793,0,0.305694,-4813.28,-56457.9,-0,56662.7,2.84628e+06
step02_gravity_refstate-mantle.xmf,1016,-1.06473e-05,5.73189e-05,0,2.38851e-05,-1.60942e+09,-1.60034e+09,-1.608e+09,3.19225e+06,0.184432,0.268686,0,0.325895,-5035.57,-55851,-0,56077.5,3.19225e+06
step02_gravity_refstate-mantle.xmf,1017,-2.35986e-05,7.20925e-05,0,1.21933e-05,-1.67659e+09,-1.6638e+09,-1.67343e+09,1.62963e+06,0.186016,0.154958,0,0.242103,-4525.19,-57876.9,-0,58053.6,1.62963e+06
step02_gravity_refstate-mantle.xmf,1018,-6.5399e-06,5.06266e-05,0,2.29074e-05,-1.58884e+09,-1.5812e+09,-1.58796e+09,3.06157e+06,0.175064,0.294347,0,0.342473,-5166.24,-55225.6,-0,55466.7,3.06157e+06
step02_gravity_refstate-mantle.xmf,1019,1.61844e-05,-2.2087e-05,0,-2.97821e-06,-1.20179e+09,-1.20691e+09,-1.20395e+09,-398037,0.00957004,0.560864,0,0.560946,586.037,-43235.6,0,43239.5,398037
step02_gravity_refstate-mantle.xmf,1020,1.58995e-05,-2.00758e-05,0,-3.41409e-06,-1.17996e+09,-1.18477e+09,-1.18209e+09,-456293,0.0123643,0.545636,0,0.545776,770.085,-42564.5,0,42571.5,456293
step02_gravity_refstate-mantle.xmf,1021,1.66203e-05,-2.37442e-05,0,-1.89139e-08,-1.2133e+09,-1.2187e+09,-1.21552e+09,-2527.84,-8.63948e-08,0.570659,-0,0.570659,0,-43589.8,0,43589.8,2527.84
step02_gravity_refstate-mantle.xmf,1022,1.57022e-05,-1.77086e-05,0,-4.18623e-06,-1.15349e+09,-1.15795e+09,-1.15559e+09,-559489,0.0180949,0.52759,0,0.5279,1128.92,-41751.5,0,41766.7,559489
step02_gravity_refstate-mantle.xmf,1023,1.58207e-05,-1.57582e-05,0,-4.50905e-06,-1.12513e+09,-1.12936e+09,-1.12725e+09,-602635,0.0257504,0.508854,0,0.509505,1561.92,-40881.4,0,40911.2,602635
step02_gravity_refstate-mantle.xmf,1024,1.65557e-05,-1.44329e-05,0,-4.22245e-06,-1.09633e+09,-1.10047e+09,-1.09854e+09,-564331,0.0346727,0.490908,0,0.492131,1969.19,-40000,0,40048.4,564331
step02_gravity_refstate-mantle.xmf,1025,1.31476e-05,-3.04878e-05,0,2.21552e-05,-1.33003e+09,-1.33586e+09,-1.33179e+09,2.96104e+06,-0.0423236,0.627249,-0,0.628676,-2431.7,-47155.1,-0,47217.7,2.96104e+06
step02_gravity_refstate-mantle.xmf,1026,1.36197e-05,-2.84804e-05,0,1.95188e-05,-1.30922e+09,-1.31485e+09,-1.31104e+09,2.60869e+06,-0.0407909,0.612186,-0,0.613544,-2344.02,-46520.5,-0,46579.6,2.60869e+06
step02_gravity_refstate-mantle.xmf,1027,4.46645e-06,-2.08937e-05,0,3.35111e-05,-1.37193e+09,-1.37532e+09,-1.37253e+09,4.47876e+06,-0.0483802,0.59982,-0,0.601768,-3476.65,-48415.9,-0,48540.6,4.47876e+06
step02_gravity_refstate-mantle.xmf,1028,-2.2482e-06,-1.03787e-05,0,3.72885e-05,-1.39402e+09,-1.39511e+09,-1.39372e+09,4.9836e+06,-0.0422425,0.570765,-0,0.572326,-3969.22,-49080.2,-0,49240.5,4.9836e+06
step02_gravity_refstate-mantle.xmf,1029,-8.14353e-06,4.43194e-06,0,4.07067e-05,-1.43227e+09,-1.43059e+09,-1.43118e+09,5.44045e+06,-0.0167535,0.527986,-0,0.528251,-4456.13,-50260.2,-0,50457.4,5.44045e+06
step02_gravity_refstate-mantle.xmf,1030,-5.2993e-06,-4.42294e-06,0,3.77009e-05,-1.40734e+09,-1.40722e+09,-1.40663e+09,5.03873e+06,-0.034809,0.559,-0,0.560082,-4133.11,-49486.4,-0,49658.7,5.03873e+06
step02_gravity_refstate-mantle.xmf,1031,-6.59552e-06,4.69814e-05,0,2.23145e-05,-1.5714e+09,-1.56423e+09,-1.57051e+09,2.98234e+06,0.160477,0.318669,0,0.356795,-5203.66,-54677.1,-0,54924.1,2.98234e+06
step02_gravity_refstate-mantle.xmf,1032,-1.02617e-05,3.93125e-05,0,2.43961e-05,-1.53249e+09,-1.52587e+09,-1.53112e+09,3.26054e+06,0.112985,0.375833,0,0.392449,-5171.76,-53431.2,-0,53680.9,3.26054e+06
step02_gravity_refstate-mantle.xmf,1033,-7.96763e-06,4.31439e-05,0,2.25282e-05,-1.55277e+09,-1.54593e+09,-1.5517e+09,3.0109e+06,0.139947,0.343442,0,0.370861,-5232.27,-54082.6,-0,54335.1,3.0109e+06
step02_gravity_refstate-mantle.xmf,1034,-1.18297e-05,3.42799e-05,0,2.4794e-05,-1.51332e+09,-1.50716e+09,-1.51174e+09,3.31372e+06,0.0870516,0.392591,0,0.402127,-5235.53,-52815.6,-0,53074.5,3.31372e+06
step02_gravity_refstate-mantle.xmf,1035,-1.38393e-05,1.48672e-05,0,3.33684e-05,-1.44291e+09,-1.43908e+09,-1.44106e+09,4.45968e+06,-0.00312672,0.476426,-0,0.476437,-4945.56,-50577.6,-0,50818.8,4.45968e+06
step02_gravity_refstate-mantle.xmf,1036,-1.50916e-05,2.05644e-05,0,2.97799e-05,-1.4587e+09,-1.45394e+09,-1.45668e+09,3.98008e+06,0.0153066,0.448144,0,0.448405,-5153.04,-51071.5,-0,51330.8,3.98008e+06
step02_gravity_refstate-mantle.xmf,1037,-1.46114e-05,2.55444e-05,0,2.73929e-05,-1.47786e+09,-1.47249e+09,-1.47591e+09,3.66107e+06,0.038816,0.427831,0,0.429588,-5220.91,-51679.2,-0,51942.3,3.66107e+06
step02_gravity_refstate-mantle.xmf,1038,-1.33665e-05,2.98975e-05,0,2.5871e-05,-1.49563e+09,-1.48985e+09,-1.49384e+09,3.45766e+06,0.0625293,0.410314,0,0.415051,-5240.37,-52247.6,-0,52509.7,3.45766e+06
step02_gravity_refstate-mantle.xmf,1039,-2.03557e-05,6.74503e-05,0,1.46429e-05,-1.66069e+09,-1.64896e+09,-1.65797e+09,1.95702e+06,0.190892,0.179347,0,0.261926,-4827.91,-57395.7,-0,57598.4,1.95702e+06
step02_gravity_refstate-mantle.xmf,1040,-1.66629e-05,6.23462e-05,0,1.70824e-05,-1.64522e+09,-1.63466e+09,-1.643e+09,2.28306e+06,0.193849,0.199099,0,0.277881,-5115.59,-56929.6,-0,57158.9,2.28306e+06
step02_gravity_refstate-mantle.xmf,1041,-2.15465e-05,6.85124e-05,0,9.19386e-06,-1.69217e+09,-1.68013e+09,-1.68929e+09,1.22876e+06,0.194378,0.113274,0,0.224975,-4837.54,-58362.9,-0,58563,1.22876e+06
step02_gravity_refstate-mantle.xmf,1042,-2.46939e-05,7.30099e-05,0,6.34254e-06,-1.71006e+09,-1.697e+09,-1.70676e+09,847680,0.18818,0.0801888,0,0.204553,-4527.74,-58905.9,-0,59079.7,847680
step02_gravity_refstate-mantle.xmf,1043,-2.80675e-05,7.78679e-05,0,3.29206e-06,-1.72782e+09,-1.71366e+09,-1.72407e+09,439984,0.179169,0.0432922,0,0.184326,-4170.06,-59444.5,-0,59590.6,439984
step02_gravity_refstate-mantle.xmf,1044,-3.12854e-05,8.25749e-05,0,2.21849e-08,-1.74611e+09,-1.73089e+09,-1.74193e+09,2965.02,0.168491,-4.2932e-18,0,0.168491,-3806.89,-60000,-0,60120.6,2965.02
step02_gravity_refstate-mantle.xmf,1045,1.623e-05,-2.08315e-05,0,5.22822e-08,-1.18621e+09,-1.19116e+09,-1.18838e+09,6987.51,1.25946e-08,0.552231,0,0.552231,0,-42757.7,0,42757.7,6987.51
step02_gravity_refstate-mantle.xmf,1046,1.46203e-05,-2.78533e-05,0,1.60601e-05,-1.28956e+09,-1.29523e+09,-1.29151e+09,2.14644e+06,-0.0363481,0.60402,-0,0.605113,-2088.9,-45921.5,-0,45969,2.14644e+06
step02_gravity_refstate-mantle.xmf,1047,1.65384e-05,-2.44383e-05,0,4.72072e-06,-1.22565e+09,-1.23113e+09,-1.22786e+09,630924,-0.0132353,0.576444,-0,0.576596,-790.967,-43968.9,-0,43976,630924
step02_gravity_refstate-mantle.xmf,1048,1.61469e-05,-2.58501e-05,0,8.77501e-06,-1.24819e+09,-1.2538e+09,-1.25035e+09,1.17278e+06,-0.0228007,0.587127,-0,0.587569,-1338.23,-44658.9,-0,44678.9,1.17278e+06
step02_gravity_refstate-mantle.xmf,1049,1.56117e-05,-2.70794e-05,0,1.23793e-05,-1.2694e+09,-1.2751e+09,-1.27149e+09,1.6545e+06,-0.0298539,0.596821,-0,0.597568,-1725.25,-45307.4,-0,45340.2,1.6545e+06
step02_gravity_refstate-mantle.xmf,1050,5.32746e-07,-1.4732e-05,0,3.54821e-05,-1.38087e+09,-1.38291e+09,-1.38094e+09,4.74218e+06,-0.0470699,0.577943,-0,0.579857,-3823.11,-48681.5,-0,48831.4,4.74218e+06
step02_gravity_refstate-mantle.xmf,1051,9.32057e-06,-2.53331e-05,0,2.69381e-05,-1.33964e+09,-1.34427e+09,-1.34088e+09,3.60028e+06,-0.0488025,0.60591,-0,0.607872,-3021.6,-47439.4,-0,47535.5,3.60028e+06
step02_gravity_refstate-mantle.xmf,1052,4.13041e-06,-1.77574e-05,0,3.0893e-05,-1.35163e+09,-1.35456e+09,-1.35219e+09,4.12885e+06,-0.0521657,0.577017,-0,0.57937,-3631.76,-47794.7,-0,47932.4,4.12885e+06
step02_gravity_refstate-mantle.xmf,1053,-6.91172e-06,7.36348e-07,0,3.55532e-05,-1.41535e+09,-1.41433e+09,-1.41443e+09,4.75169e+06,-0.0276361,0.527797,-0,0.52852,-4470.51,-49736.4,-0,49936.9,4.75169e+06
step02_gravity_refstate-mantle.xmf,1054,-1.18443e-05,5.6252e-05,0,1.92654e-05,-1.62825e+09,-1.61915e+09,-1.62667e+09,2.57482e+06,0.193863,0.21837,0,0.292007,-5366.94,-56421.9,-0,56676.6,2.57482e+06
step02_gravity_refstate-mantle.xmf,1055,-5.29683e-06,4.64028e-05,0,1.93317e-05,-1.59758e+09,-1.59067e+09,-1.59687e+09,2.58369e+06,0.18329,0.253451,0,0.312782,-5607.16,-55493.1,-0,55775.7,2.58369e+06
step02_gravity_refstate-mantle.xmf,1056,-1.93328e-05,6.54685e-05,0,1.16942e-05,-1.67586e+09,-1.66453e+09,-1.67328e+09,1.56293e+06,0.196736,0.142056,0,0.242662,-5026.28,-57866.1,-0,58084,1.56293e+06
step02_gravity_refstate-mantle.xmf,1057,-4.29938e-06,4.27094e-05,0,1.84571e-05,-1.57947e+09,-1.57319e+09,-1.5789e+09,2.46679e+06,0.170345,0.276024,0,0.324356,-5650.08,-54931,-0,55220.9,2.46679e+06
step02_gravity_refstate-mantle.xmf,1058,1.63222e-05,-1.86607e-05,0,1.37772e-07,-1.15771e+09,-1.16238e+09,-1.15989e+09,18413.2,8.43876e-09,0.535031,0,0.535031,0,-41883.5,0,41883.5,18413.2
step02_gravity_refstate-mantle.xmf,1059,1.61842e-05,-2.20443e-05,0,3.06022e-06,-1.20179e+09,-1.2069e+09,-1.20395e+09,408998,-0.0095702,0.560864,-0,0.560946,-586.037,-43235.6,-0,43239.5,408998
step02_gravity_refstate-mantle.xmf,1060,1.65246e-05,-1.67462e-05,0,-2.27918e-06,-1.12943e+09,-1.13387e+09,-1.13164e+09,-304612,0.0127343,0.517558,0,0.517715,766.256,-41016.2,0,41023.4,304612
step02_gravity_refstate-mantle.xmf,1061,1.77881e-05,-1.54685e-05,0,-2.20624e-06,-1.09615e+09,-1.1006e+09,-1.09853e+09,-294864,0.0177455,0.499975,0,0.50029,984.598,-40000,0,40012.1,294864
step02_gravity_refstate-mantle.xmf,1062,-6.80758e-06,-1.45696e-06,0,3.46467e-05,-1.39821e+09,-1.39749e+09,-1.3973e+09,4.63053e+06,-0.0383123,0.53117,-0,0.53255,-4429.8,-49201.9,-0,49400.9,4.63053e+06
step02_gravity_refstate-mantle.xmf,1063,1.01578e-05,-2.40131e-05,0,2.40241e-05,-1.31792e+09,-1.32249e+09,-1.31928e+09,3.21082e+06,-0.0484496,0.592384,-0,0.594362,-2967.35,-46777.7,-0,46871.7,3.21082e+06
step02_gravity_refstate-mantle.xmf,1064,1.11775e-05,-2.29962e-05,0,2.07036e-05,-1.2924e+09,-1.29697e+09,-1.2939e+09,2.76703e+06,-0.0463691,0.579038,-0,0.580891,-2853.74,-45998.7,-0,46087.1,2.76703e+06
step02_gravity_refstate-mantle.xmf,1065,5.66089e-07,-1.35635e-05,0,3.32453e-05,-1.36742e+09,-1.36931e+09,-1.3675e+09,4.44324e+06,-0.0504835,0.565393,-0,0.567642,-3910.1,-48269.2,-0,48427.3,4.44324e+06
step02_gravity_refstate-mantle.xmf,1066,-3.27956e-06,-7.64465e-06,0,3.38972e-05,-1.37771e+09,-1.37829e+09,-1.37727e+09,4.53037e+06,-0.0474878,0.543047,-0,0.54512,-4248.77,-48576.5,-0,48761.9,4.53037e+06
step02_gravity_refstate-mantle.xmf,1067,-1.08045e-05,8.63605e-06,0,3.29341e-05,-1.4242e+09,-1.4216e+09,-1.42275e+09,4.40165e+06,-0.0177756,0.484383,-0,0.48471,-4931.43,-50003.8,-0,50246.4,4.40165e+06
step02_gravity_refstate-mantle.xmf,1068,-5.07632e-06,3.96558e-05,0,1.76845e-05,-1.56149e+09,-1.55552e+09,-1.56082e+09,2.36353e+06,0.153046,0.296802,0,0.333938,-5691.93,-54362.6,-0,54659.8,2.36353e+06
step02_gravity_refstate-mantle.xmf,1069,-7.0262e-06,3.69647e-05,0,1.78074e-05,-1.54266e+09,-1.53678e+09,-1.54172e+09,2.37996e+06,0.130985,0.319759,0,0.345547,-5695.55,-53760.8,-0,54061.6,2.37996e+06
step02_gravity_refstate-mantle.xmf,1070,-9.33855e-06,3.40262e-05,0,1.84927e-05,-1.52343e+09,-1.51763e+09,-1.52218e+09,2.47156e+06,0.105998,0.341577,0,0.357646,-5697.82,-53143.9,-0,53448.5,2.47156e+06
step02_gravity_refstate-mantle.xmf,1071,-1.15249e-05,3.09131e-05,0,1.9436e-05,-1.50471e+09,-1.49904e+09,-1.50317e+09,2.59762e+06,0.0809444,0.359873,0,0.368864,-5713.18,-52543.2,-0,52852.9,2.59762e+06
step02_gravity_refstate-mantle.xmf,1072,-1.49425e-05,2.01716e-05,0,2.5765e-05,-1.44933e+09,-1.44463e+09,-1.44733e+09,3.4435e+06,0.0117855,0.418558,0,0.418723,-5554.02,-50781.9,-0,51084.7,3.4435e+06
step02_gravity_refstate-mantle.xmf,1073,-1.47728e-05,2.42941e-05,0,2.30447e-05,-1.46737e+09,-1.46215e+09,-1.4654e+09,3.07993e+06,0.032792,0.397018,0,0.39837,-5661.57,-51351,-0,51662.1,3.07993e+06
step02_gravity_refstate-mantle.xmf,1074,-1.34506e-05,2.77787e-05,0,2.09859e-05,-1.48625e+09,-1.48074e+09,-1.48445e+09,2.80476e+06,0.0563875,0.37851,0,0.382687,-5697.04,-51951.9,-0,52263.3,2.80476e+06
step02_gravity_refstate-mantle.xmf,1075,-7.53882e-06,4.97735e-05,0,1.90072e-05,-1.61413e+09,-1.60647e+09,-1.61312e+09,2.54031e+06,0.19167,0.228093,0,0.297933,-5625.46,-55998,-0,56279.9,2.54031e+06
step02_gravity_refstate-mantle.xmf,1076,-1.49641e-05,5.88106e-05,0,1.29459e-05,-1.66358e+09,-1.65372e+09,-1.66158e+09,1.73022e+06,0.202569,0.152237,0,0.253397,-5461.15,-57499,-0,57757.8,1.73022e+06
step02_gravity_refstate-mantle.xmf,1077,-1.15528e-05,5.41454e-05,0,1.52879e-05,-1.6438e+09,-1.63502e+09,-1.64225e+09,2.04322e+06,0.201527,0.178662,0,0.26932,-5678.26,-56898.8,-0,57181.4,2.04322e+06
step02_gravity_refstate-mantle.xmf,1078,-1.62189e-05,6.02674e-05,0,9.28953e-06,-1.68645e+09,-1.67623e+09,-1.68428e+09,1.24155e+06,0.205654,0.110365,0,0.233397,-5459.79,-58200.7,-0,58456.2,1.24155e+06
step02_gravity_refstate-mantle.xmf,1079,-1.90566e-05,6.43975e-05,0,6.25824e-06,-1.70733e+09,-1.69618e+09,-1.70479e+09,836413,0.202751,0.075366,0,0.216306,-5198.83,-58837.5,-0,59066.7,836413
step02_gravity_refstate-mantle.xmf,1080,-2.22222e-05,6.90765e-05,0,3.11285e-06,-1.72726e+09,-1.71506e+09,-1.72429e+09,416032,0.196568,0.0384691,0,0.200297,-4862.03,-59443.9,-0,59642.4,416032
step02_gravity_refstate-mantle.xmf,1081,-2.53609e-05,7.37827e-05,0,2.78807e-08,-1.74556e+09,-1.73231e+09,-1.74217e+09,3726.26,0.188159,-3.82442e-18,0,0.188159,-4501.23,-60000,-0,60168.6,3726.26
step02_gravity_refstate-mantle.xmf,1082,1.30857e-05,-2.36331e-05,0,1.6355e-05,-1.26999e+09,-1.2749e+09,-1.27174e+09,2.18584e+06,-0.0401357,0.577725,-0,0.579117,-2439.25,-45317.6,-0,45383.2,2.18584e+06
step02_gravity_refstate-mantle.xmf,1083,1.58872e-05,-1.9839e-05,0,3.52186e-06,-1.17981e+09,-1.18459e+09,-1.18193e+09,470696,-0.012418,0.54553,-0,0.545672,-773.511,-42560.4,-0,42567.4,470696
step02_gravity_refstate-mantle.xmf,1084,1.54636e-05,-2.10719e-05,0,6.5146e-06,-1.20209e+09,-1.20697e+09,-1.20416e+09,870677,-0.0206328,0.554717,-0,0.555101,-1284.71,-43242.6,-0,43261.7,870677
step02_gravity_refstate-mantle.xmf,1085,1.49985e-05,-2.22828e-05,0,9.52308e-06,-1.22506e+09,-1.23004e+09,-1.22706e+09,1.27276e+06,-0.027356,0.564002,-0,0.564665,-1687.63,-43945.9,-0,43978.3,1.27276e+06
step02_gravity_refstate-mantle.xmf,1086,1.41985e-05,-2.30878e-05,0,1.29691e-05,-1.24785e+09,-1.25284e+09,-1.24975e+09,1.73332e+06,-0.0341922,0.571496,-0,0.572518,-2090.15,-44642.6,-0,44691.5,1.73332e+06
step02_gravity_refstate-mantle.xmf,1087,5.8518e-06,-1.81073e-05,0,2.75297e-05,-1.32791e+09,-1.33111e+09,-1.32869e+09,3.67935e+06,-0.0533348,0.567269,-0,0.569771,-3575.58,-47072.5,-0,47208.1,3.67935e+06
step02_gravity_refstate-mantle.xmf,1088,-9.87573e-07,-9.48124e-06,0,3.16649e-05,-1.35714e+09,-1.35827e+09,-1.357e+09,4.23202e+06,-0.0523928,0.539955,-0,0.542491,-4215.92,-47951.6,-0,48136.5,4.23202e+06
step02_gravity_refstate-mantle.xmf,1089,-1.37486e-05,1.56012e-05,0,2.78401e-05,-1.43255e+09,-1.42863e+09,-1.43072e+09,3.72083e+06,-0.00504957,0.437307,-0,0.437336,-5440.48,-50260.1,-0,50553.7,3.72083e+06
step02_gravity_refstate-mantle.xmf,1090,-9.7468e-06,5.24862e-06,0,3.17519e-05,-1.40664e+09,-1.40463e+09,-1.40533e+09,4.24364e+06,-0.0297238,0.490321,-0,0.491221,-4906.18,-49459.8,-0,49702.5,4.24364e+06
step02_gravity_refstate-mantle.xmf,1091,-2.8487e-06,3.92966e-05,0,1.48304e-05,-1.59084e+09,-1.58521e+09,-1.59046e+09,1.98208e+06,0.1811,0.230887,0,0.293439,-6174.62,-55283.2,-0,55627,1.98208e+06
step02_gravity_refstate-mantle.xmf,1092,-7.40669e-06,4.82411e-05,0,1.59241e-05,-1.62707e+09,-1.61964e+09,-1.62608e+09,2.12825e+06,0.199023,0.193996,0,0.277929,-5933.01,-56394.8,-0,56706,2.12825e+06
step02_gravity_refstate-mantle.xmf,1093,-4.27282e-06,4.28456e-05,0,1.54166e-05,-1.60957e+09,-1.60328e+09,-1.609e+09,2.06043e+06,0.192539,0.209327,0,0.28441,-6129.55,-55861.4,-0,56196.6,2.06043e+06
step02_gravity_refstate-mantle.xmf,1094,-2.9904e-06,3.6517e-05,0,1.40194e-05,-1.5711e+09,-1.56582e+09,-1.5707e+09,1.8737e+06,0.164722,0.253422,0,0.302251,-6192.76,-54665.1,-0,55014.8,1.8737e+06
step02_gravity_refstate-mantle.xmf,1095,1.67748e-05,-1.68525e-05,0,-3.55875e-09,-1.12773e+09,-1.13222e+09,-1.12997e+09,-475.627,-5.88666e-08,0.518796,-0,0.518796,0,-40965,0,40965,475.627
step02_gravity_refstate-mantle.xmf,1096,1.05285e-05,-2.00552e-05,0,1.92203e-05,-1.27171e+09,-1.2758e+09,-1.27312e+09,2.56879e+06,-0.047347,0.558253,-0,0.560257,-3041.43,-45362.7,-0,45464.5,2.56879e+06
step02_gravity_refstate-mantle.xmf,1097,1.82555e-05,-1.59306e-05,0,-1.07011e-07,-1.09609e+09,-1.10066e+09,-1.09853e+09,-14302.1,-4.30055e-07,0.503065,-0,0.503065,0,-40000,0,40000,14302.1
step02_gravity_refstate-mantle.xmf,1098,-8.25938e-06,2.12445e-06,0,3.14412e-05,-1.38729e+09,-1.3859e+09,-1.38619e+09,4.20212e+06,-0.0404238,0.496949,-0,0.498591,-4849.61,-48864.1,-0,49104.2,4.20212e+06
step02_gravity_refstate-mantle.xmf,1099,7.90129e-06,-1.70875e-05,0,2.20754e-05,-1.283e+09,-1.28634e+09,-1.28406e+09,2.95037e+06,-0.0524506,0.544846,-0,0.547365,-3537.02,-45701.5,-0,45838.2,2.95037e+06
step02_gravity_refstate-mantle.xmf,1100,7.10053e-06,-1.78589e-05,0,2.46187e-05,-1.30522e+09,-1.30856e+09,-1.30617e+09,3.29029e+06,-0.0531118,0.556673,-0,0.559201,-3538.61,-46380.6,-0,46515.3,3.29029e+06
step02_gravity_refstate-mantle.xmf,1101,1.10207e-06,-1.11355e-05,0,2.93164e-05,-1.33729e+09,-1.33892e+09,-1.33743e+09,3.91814e+06,-0.0549448,0.536182,-0,0.53899,-4175.1,-47348.1,-0,47531.9,3.91814e+06
step02_gravity_refstate-mantle.xmf,1102,-1.23953e-05,1.16128e-05,0,2.81898e-05,-1.41533e+09,-1.41212e+09,-1.41367e+09,3.76757e+06,-0.0185981,0.447403,-0,0.447789,-5405.32,-49726.9,-0,50019.8,3.76757e+06
step02_gravity_refstate-mantle.xmf,1103,-4.44845e-06,3.43976e-05,0,1.35326e-05,-1.55218e+09,-1.54699e+09,-1.55159e+09,1.80863e+06,0.145195,0.274302,0,0.31036,-6200.9,-54065.7,-0,54420.1,1.80863e+06
step02_gravity_refstate-mantle.xmf,1104,-1.46323e-05,1.96281e-05,0,2.2746e-05,-1.43912e+09,-1.43454e+09,-1.43716e+09,3.04001e+06,0.00769515,0.395324,0,0.395398,-5926.55,-50467.3,-0,50814.1,3.04001e+06
step02_gravity_refstate-mantle.xmf,1105,-6.64414e-06,3.24838e-05,0,1.36147e-05,-1.53334e+09,-1.52812e+09,-1.53246e+09,1.81961e+06,0.122934,0.294272,0,0.318918,-6204.61,-53464.2,-0,53823.1,1.81961e+06
step02_gravity_refstate-mantle.xmf,1106,-9.12414e-06,3.05211e-05,0,1.42997e-05,-1.5143e+09,-1.509e+09,-1.51308e+09,1.91115e+06,0.0988055,0.313568,0,0.328766,-6204.21,-52854.3,-0,53217.2,1.91115e+06
step02_gravity_refstate-mantle.xmf,1107,-1.1462e-05,2.83936e-05,0,1.54858e-05,-1.49528e+09,-1.48995e+09,-1.49375e+09,2.06968e+06,0.0744431,0.331508,0,0.339764,-6204.1,-52245.7,-0,52612.8,2.06968e+06
step02_gravity_refstate-mantle.xmf,1108,-1.44644e-05,2.30978e-05,0,1.90304e-05,-1.45488e+09,-1.44986e+09,-1.45294e+09,2.54341e+06,0.0271504,0.364959,0,0.365968,-6196.92,-50964,-0,51339.4,2.54341e+06
step02_gravity_refstate-mantle.xmf,1109,-1.33319e-05,2.6064e-05,0,1.70586e-05,-1.47622e+09,-1.47095e+09,-1.47444e+09,2.27989e+06,0.0510126,0.348059,0,0.351777,-6203.21,-51638.4,-0,52009.7,2.27989e+06
step02_gravity_refstate-mantle.xmf,1110,-7.65524e-06,4.75838e-05,0,1.33226e-05,-1.64141e+09,-1.63402e+09,-1.64038e+09,1.78057e+06,0.205465,0.164092,0,0.262949,-6152.17,-56834.1,-0,57166.1,1.78057e+06
step02_gravity_refstate-mantle.xmf,1111,-9.58324e-06,5.03497e-05,0,1.18074e-05,-1.65716e+09,-1.64915e+09,-1.65588e+09,1.57806e+06,0.209139,0.142435,0,0.253035,-6094.96,-57314.9,-0,57638.1,1.57806e+06
step02_gravity_refstate-mantle.xmf,1112,-1.14731e-05,5.27745e-05,0,9.40558e-06,-1.67759e+09,-1.669e+09,-1.67606e+09,1.25706e+06,0.212288,0.112199,0,0.240114,-6020.73,-57939.6,-0,58251.6,1.25706e+06
step02_gravity_refstate-mantle.xmf,1113,-1.31243e-05,5.52351e-05,0,6.03086e-06,-1.70267e+09,-1.69353e+09,-1.70091e+09,806024,0.214417,0.0720128,0,0.226186,-5943.25,-58709.6,-0,59009.6,806024
step02_gravity_refstate-mantle.xmf,1114,-1.65618e-05,6.04113e-05,0,3.08634e-06,-1.72489e+09,-1.71461e+09,-1.72268e+09,412489,0.210063,0.0371568,0,0.213323,-5560.86,-59386.3,-0,59646.1,412489
step02_gravity_refstate-mantle.xmf,1115,-1.95439e-05,6.498e-05,0,3.78783e-08,-1.74503e+09,-1.73373e+09,-1.74242e+09,5062.44,0.203922,-3.70282e-18,0,0.203922,-5203.28,-60000,-0,60225.2,5062.44
step02_gravity_refstate-mantle.xmf,1116,-1.51094e-06,3.37234e-05,0,1.08824e-05,-1.58143e+09,-1.57672e+09,-1.58123e+09,1.45444e+06,0.174986,0.213144,0,0.275772,-6739.82,-54987.1,-0,55398.6,1.45444e+06
step02_gravity_refstate-mantle.xmf,1117,1.64789e-05,-1.65959e-05,0,2.4568e-06,-1.12942e+09,-1.13385e+09,-1.13163e+09,328351,-0.0127344,0.517559,-0,0.517715,-766.256,-41016.2,-0,41023.4,328351
step02_gravity_refstate-mantle.xmf,1118,1.16026e-05,-1.97305e-05,0,1.63238e-05,-1.24895e+09,-1.25314e+09,-1.25051e+09,2.18167e+06,-0.0438773,0.551379,-0,0.553122,-2835.78,-44667.8,-0,44757.8,2.18167e+06
step02_gravity_refstate-mantle.xmf,1119,1.57017e-05,-1.75912e-05,0,4.2741e-06,-1.15351e+09,-1.15796e+09,-1.15561e+09,571234,-0.0181305,0.527585,-0,0.527897,-1131.21,-41752.4,-0,41767.7,571234
step02_gravity_refstate-mantle.xmf,1120,1.48278e-05,-1.83909e-05,0,7.05091e-06,-1.17768e+09,-1.18212e+09,-1.17966e+09,942354,-0.025741,0.535188,-0,0.535806,-1641.39,-42491.2,-0,42522.9,942354
step02_gravity_refstate-mantle.xmf,1121,1.39129e-05,-1.90195e-05,0,1.0067e-05,-1.20144e+09,-1.20584e+09,-1.2033e+09,1.34546e+06,-0.0325915,0.541289,-0,0.542269,-2099.78,-43217.3,-0,43268.2,1.34546e+06
step02_gravity_refstate-mantle.xmf,1122,1.28258e-05,-1.94021e-05,0,1.3282e-05,-1.22545e+09,-1.22976e+09,-1.22717e+09,1.77514e+06,-0.0388188,0.546407,-0,0.547784,-2510.31,-43950.9,-0,44022.5,1.77514e+06
step02_gravity_refstate-mantle.xmf,1123,-5.76366e-06,-1.84055e-06,0,3.06633e-05,-1.36712e+09,-1.3666e+09,-1.36635e+09,4.09815e+06,-0.0481966,0.501608,-0,0.503918,-4786.57,-48247.7,-0,48484.5,4.09815e+06
step02_gravity_refstate-mantle.xmf,1124,8.8459e-06,-1.65825e-05,0,1.9437e-05,-1.25894e+09,-1.26234e+09,-1.26012e+09,2.59776e+06,-0.0509801,0.534681,-0,0.537106,-3481.25,-44966,-0,45100.5,2.59776e+06
step02_gravity_refstate-mantle.xmf,1125,2.90112e-06,-1.21155e-05,0,2.67866e-05,-1.31572e+09,-1.31773e+09,-1.31611e+09,3.58003e+06,-0.0561341,0.530043,-0,0.533007,-4146.56,-46691.6,-0,46875.3,3.58003e+06
step02_gravity_refstate-mantle.xmf,1126,-3.34014e-06,-4.25867e-06,0,2.92831e-05,-1.34632e+09,-1.34644e+09,-1.34587e+09,3.91369e+06,-0.0531674,0.50255,-0,0.505355,-4742.45,-47615,-0,47850.6,3.91369e+06
step02_gravity_refstate-mantle.xmf,1127,-1.40127e-05,1.66671e-05,0,2.37647e-05,-1.4245e+09,-1.4204e+09,-1.42263e+09,3.17616e+06,-0.00500396,0.404677,-0,0.404708,-5911.34,-50012.2,-0,50360.4,3.17616e+06
step02_gravity_refstate-mantle.xmf,1128,-1.11211e-05,8.29753e-06,0,2.82164e-05,-1.39679e+09,-1.39419e+09,-1.3953e+09,3.77112e+06,-0.0305657,0.455206,-0,0.456231,-5377.91,-49154.2,-0,49447.5,3.77112e+06
step02_gravity_refstate-mantle.xmf,1129,-1.72801e-06,3.62531e-05,0,1.14979e-05,-1.60201e+09,-1.59693e+09,-1.60178e+09,1.53669e+06,0.189926,0.191258,0,0.26954,-6726.26,-55627.7,-0,56032.9,1.53669e+06
step02_gravity_refstate-mantle.xmf,1130,-3.66325e-06,4.04644e-05,0,1.19898e-05,-1.62495e+09,-1.61905e+09,-1.62446e+09,1.60244e+06,0.201868,0.169492,0,0.263587,-6593.36,-56334.3,-0,56718.8,1.60244e+06
step02_gravity_refstate-mantle.xmf,1131,-5.1108e-06,4.26266e-05,0,1.05935e-05,-1.64576e+09,-1.63938e+09,-1.64507e+09,1.41582e+06,0.210091,0.140737,0,0.252873,-6651.02,-56972.9,-0,57359.8,1.41582e+06
step02_gravity_refstate-mantle.xmf,1132,-2.48696e-06,3.18445e-05,0,1.02387e-05,-1.56168e+09,-1.55709e+09,-1.56135e+09,1.3684e+06,0.157059,0.23334,0,0.281274,-6744.98,-54365.7,-0,54782.5,1.3684e+06
step02_gravity_refstate-mantle.xmf,1133,-9.43412e-06,5.36804e-06,0,2.82028e-05,-1.37694e+09,-1.37496e+09,-1.37568e+09,3.76931e+06,-0.0404781,0.461405,-0,0.463177,-5348.43,-48544.7,-0,48838.5,3.76931e+06
step02_gravity_refstate-mantle.xmf,1134,5.62032e-06,-1.26364e-05,0,2.19103e-05,-1.27047e+09,-1.27291e+09,-1.27122e+09,2.92832e+06,-0.0559545,0.514249,-0,0.517284,-4113.77,-45310.7,-0,45497.1,2.92832e+06
step02_gravity_refstate-mantle.xmf,1135,4.31742e-06,-1.24757e-05,0,2.43431e-05,-1.29379e+09,-1.29604e+09,-1.29437e+09,3.25346e+06,-0.0563679,0.522215,-0,0.525248,-4136.83,-46022.7,-0,46208.2,3.25346e+06
step02_gravity_refstate-mantle.xmf,1136,-1.24885e-06,-6.10187e-06,0,2.74414e-05,-1.32569e+09,-1.32634e+09,-1.32552e+09,3.66755e+06,-0.0560027,0.499913,-0,0.50304,-4729.37,-46987.1,-0,47224.5,3.66755e+06
step02_gravity_refstate-mantle.xmf,1137,-1.4421e-05,2.05236e-05,0,1.92673e-05,-1.43632e+09,-1.43165e+09,-1.43439e+09,2.57508e+06,0.0117945,0.364991,0,0.365182,-6375.86,-50384.4,-0,50786.2,2.57508e+06
step02_gravity_refstate-mantle.xmf,1138,-1.30447e-05,1.35088e-05,0,2.44694e-05,-1.40648e+09,-1.40293e+09,-1.40474e+09,3.27034e+06,-0.0183053,0.413972,-0,0.414376,-5899.22,-49454.1,-0,49804.7,3.27034e+06
step02_gravity_refstate-mantle.xmf,1139,-4.33461e-06,3.04395e-05,0,9.98994e-06,-1.54264e+09,-1.53799e+09,-1.54206e+09,1.33516e+06,0.136862,0.252378,0,0.287099,-6742.29,-53761.4,-0,54182.6,1.33516e+06
step02_gravity_refstate-mantle.xmf,1140,-6.62026e-06,2.92148e-05,0,1.02588e-05,-1.52406e+09,-1.51927e+09,-1.52317e+09,1.37109e+06,0.115223,0.270407,0,0.293932,-6736.85,-53169.1,-0,53594.2,1.37109e+06
step02_gravity_refstate-mantle.xmf,1141,-9.06922e-06,2.78501e-05,0,1.1044e-05,-1.50482e+09,-1.49989e+09,-1.50361e+09,1.47603e+06,0.0919681,0.287788,0,0.302126,-6739.65,-52555.1,-0,52985.5,1.47603e+06
step02_gravity_refstate-mantle.xmf,1142,-1.12109e-05,2.63725e-05,0,1.23199e-05,-1.48619e+09,-1.48116e+09,-1.48469e+09,1.64655e+06,0.0695635,0.304145,0,0.311999,-6735.51,-51961.3,-0,52396,1.64655e+06
step02_gravity_refstate-mantle.xmf,1143,-1.27096e-05,2.46889e-05,0,1.34979e-05,-1.46781e+09,-1.46281e+09,-1.46611e+09,1.80399e+06,0.0492451,0.316002,0,0.319816,-6783.22,-51379.3,-0,51825.1,1.80399e+06
step02_gravity_refstate-mantle.xmf,1144,-6.89269e-06,4.54136e-05,0,8.85254e-06,-1.66693e+09,-1.65994e+09,-1.66601e+09,1.18314e+06,0.215721,0.113057,0,0.243551,-6616.11,-57622.2,-0,58000.8,1.18314e+06
step02_gravity_refstate-mantle.xmf,1145,-8.26659e-06,4.72758e-05,0,6.71573e-06,-1.68835e+09,-1.68093e+09,-1.68725e+09,897557,0.219443,0.0835271,0,0.234802,-6570.61,-58279.4,-0,58648.6,897557
step02_gravity_refstate-mantle.xmf,1146,-1.16041e-05,5.25828e-05,0,2.55665e-06,-1.72532e+09,-1.71674e+09,-1.72377e+09,341697,0.219527,0.0309982,0,0.221705,-6229.61,-59412.6,-0,59738.3,341697
step02_gravity_refstate-mantle.xmf,1147,-1.40016e-05,5.63834e-05,0,2.90706e-08,-1.74454e+09,-1.73513e+09,-1.74267e+09,3885.28,0.215919,-3.08874e-18,0,0.215919,-5918.45,-60000,-0,60291.2,3885.28
step02_gravity_refstate-mantle.xmf,1148,-3.15512e-07,3.11666e-05,0,8.1358e-06,-1.5921e+09,-1.58789e+09,-1.59205e+09,1.08735e+06,0.183722,0.177205,0,0.255256,-7314.95,-55318,-0,55799.6,1.08735e+06
step02_gravity_refstate-mantle.xmf,1149,-9.66404e-07,2.93682e-05,0,7.4897e-06,-1.57104e+09,-1.56699e+09,-1.57091e+09,1.001e+06,0.166785,0.19657,0,0.257792,-7330.87,-54658.7,-0,55148.1,1.001e+06
step02_gravity_refstate-mantle.xmf,1150,1.78218e-05,-1.55889e-05,0,2.10552e-06,-1.09615e+09,-1.10062e+09,-1.09853e+09,281402,-0.0177467,0.499976,-0,0.500291,-984.598,-40000,-0,40012.1,281402
step02_gravity_refstate-mantle.xmf,1151,1.5851e-05,-1.5666e-05,0,4.63719e-06,-1.12514e+09,-1.12935e+09,-1.12726e+09,619760,-0.0257578,0.508858,-0,0.509509,-1562.44,-40882,-0,40911.9,619760
step02_gravity_refstate-mantle.xmf,1152,9.86223e-06,-1.57011e-05,0,1.65169e-05,-1.22924e+09,-1.23266e+09,-1.23056e+09,2.20748e+06,-0.0488614,0.523428,-0,0.525703,-3380.38,-44057.6,-0,44187.1,2.20748e+06
step02_gravity_refstate-mantle.xmf,1153,1.44469e-05,-1.60428e-05,0,7.21512e-06,-1.15134e+09,-1.15541e+09,-1.15327e+09,964301,-0.0319325,0.515345,-0,0.516334,-2043.68,-41680.9,-0,41731,964301
step02_gravity_refstate-mantle.xmf,1154,1.31233e-05,-1.62678e-05,0,1.00791e-05,-1.17669e+09,-1.18062e+09,-1.17844e+09,1.34707e+06,-0.0379253,0.519642,-0,0.521024,-2512.93,-42454.6,-0,42528.9,1.34707e+06
step02_gravity_refstate-mantle.xmf,1155,1.17291e-05,-1.62312e-05,0,1.30944e-05,-1.20174e+09,-1.20547e+09,-1.2033e+09,1.75007e+06,-0.0434229,0.522346,-0,0.524148,-2944.34,-43219.1,-0,43319.3,1.75007e+06
step02_gravity_refstate-mantle.xmf,1156,-7.16854e-06,1.96533e-06,0,2.76992e-05,-1.35646e+09,-1.35524e+09,-1.3555e+09,3.702e+06,-0.0478398,0.46581,-0,0.46826,-5315.68,-47918.5,-0,48212.5,3.702e+06
step02_gravity_refstate-mantle.xmf,1157,6.80523e-06,-1.26827e-05,0,1.94431e-05,-1.24537e+09,-1.24798e+09,-1.24628e+09,2.59856e+06,-0.055159,0.506081,-0,0.509078,-4074.69,-44543.2,-0,44729.2,2.59856e+06
step02_gravity_refstate-mantle.xmf,1158,5.72707e-07,-7.34391e-06,0,2.54056e-05,-1.30397e+09,-1.30502e+09,-1.30404e+09,3.39546e+06,-0.0576109,0.495206,-0,0.498546,-4731.47,-46325.1,-0,46566.1,3.39546e+06
step02_gravity_refstate-mantle.xmf,1159,-4.92658e-06,-3.98884e-07,0,2.67759e-05,-1.3355e+09,-1.33489e+09,-1.33484e+09,3.57861e+06,-0.0529072,0.468055,-0,0.471036,-5286.22,-47280,-0,47574.6,3.57861e+06
step02_gravity_refstate-mantle.xmf,1160,-1.39449e-05,1.74614e-05,0,2.02904e-05,-1.41692e+09,-1.41273e+09,-1.41506e+09,2.71181e+06,-0.00369744,0.373403,-0,0.373421,-6420.61,-49780.7,-0,50193.1,2.71181e+06
step02_gravity_refstate-mantle.xmf,1161,-1.17361e-05,1.04487e-05,0,2.49519e-05,-1.38698e+09,-1.38401e+09,-1.38541e+09,3.33482e+06,-0.0300364,0.421963,-0,0.42303,-5887.8,-48852.6,-0,49206.1,3.33482e+06
step02_gravity_refstate-mantle.xmf,1162,-1.36077e-05,2.2571e-05,0,1.47267e-05,-1.44781e+09,-1.44298e+09,-1.446e+09,1.96822e+06,0.0298131,0.325017,0,0.326381,-6876.91,-50750.3,-0,51214.1,1.96822e+06
step02_gravity_refstate-mantle.xmf,1163,-6.74256e-07,3.35217e-05,0,8.5932e-06,-1.61365e+09,-1.60908e+09,-1.61356e+09,1.14848e+06,0.197599,0.156814,0,0.252262,-7279.21,-55987.6,-0,56458.8,1.14848e+06
step02_gravity_refstate-mantle.xmf,1164,-1.83089e-06,3.62491e-05,0,8.53645e-06,-1.63527e+09,-1.63018e+09,-1.63502e+09,1.1409e+06,0.208156,0.135348,0,0.248291,-7222.04,-56654.4,-0,57112.9,1.1409e+06
step02_gravity_refstate-mantle.xmf,1165,-3.08869e-06,3.85402e-05,0,7.6414e-06,-1.65655e+09,-1.65099e+09,-1.65614e+09,1.02127e+06,0.215853,0.111328,0,0.242872,-7200.23,-57309.4,-0,57760,1.02127e+06
step02_gravity_refstate-mantle.xmf,1166,-8.98018e-06,4.83447e-05,0,4.41992e-06,-1.70821e+09,-1.70055e+09,-1.70701e+09,590722,0.221887,0.0542225,0,0.228416,-6569.66,-58890.9,-0,59256.2,590722
step02_gravity_refstate-mantle.xmf,1167,-2.50166e-06,2.83125e-05,0,7.19721e-06,-1.55143e+09,-1.54731e+09,-1.55109e+09,961907,0.148114,0.215936,0,0.261852,-7298.59,-54039.8,-0,54530.4,961907
step02_gravity_refstate-mantle.xmf,1168,-1.00637e-05,7.72382e-06,0,2.51743e-05,-1.36656e+09,-1.36418e+09,-1.36521e+09,3.36455e+06,-0.0395696,0.428453,-0,0.430276,-5874.29,-48226,-0,48582.5,3.36455e+06
step02_gravity_refstate-mantle.xmf,1169,3.6253e-06,-8.75602e-06,0,2.11644e-05,-1.25733e+09,-1.25899e+09,-1.25782e+09,2.82863e+06,-0.0586929,0.483499,-0,0.487048,-4729.68,-44901.4,-0,45149.8,2.82863e+06
step02_gravity_refstate-mantle.xmf,1170,2.15151e-06,-8.15556e-06,0,2.33154e-05,-1.28142e+09,-1.2828e+09,-1.28171e+09,3.1161e+06,-0.0584007,0.48944,-0,0.492912,-4738,-45637.1,-0,45882.4,3.1161e+06
step02_gravity_refstate-mantle.xmf,1171,-2.96852e-06,-2.2207e-06,0,2.53482e-05,-1.31449e+09,-1.31439e+09,-1.3141e+09,3.38778e+06,-0.0560485,0.466094,-0,0.469452,-5303.19,-46639.7,-0,46940.3,3.38778e+06
step02_gravity_refstate-mantle.xmf,1172,-1.38385e-05,2.03166e-05,0,1.59882e-05,-1.42839e+09,-1.42382e+09,-1.42654e+09,2.13683e+06,0.0130466,0.333759,0,0.334014,-6946.19,-50142.8,-0,50621.6,2.13683e+06
step02_gravity_refstate-mantle.xmf,1173,-1.31047e-05,1.46455e-05,0,2.12662e-05,-1.39725e+09,-1.39354e+09,-1.3955e+09,2.84223e+06,-0.0173059,0.382753,-0,0.383144,-6427.35,-49171.5,-0,49589.8,2.84223e+06
step02_gravity_refstate-mantle.xmf,1174,-4.50798e-06,2.75905e-05,0,7.31393e-06,-1.53308e+09,-1.52879e+09,-1.53248e+09,977507,0.128607,0.2335,0,0.266574,-7272.46,-53458,-0,53950.4,977507
step02_gravity_refstate-mantle.xmf,1175,-6.68289e-06,2.66634e-05,0,7.63837e-06,-1.51457e+09,-1.51011e+09,-1.51367e+09,1.02087e+06,0.107921,0.24848,0,0.270905,-7292.68,-52869,-0,53369.6,1.02087e+06
step02_gravity_refstate-mantle.xmf,1176,-9.02448e-06,2.56887e-05,0,8.62623e-06,-1.49486e+09,-1.49022e+09,-1.49365e+09,1.1529e+06,0.0853644,0.265214,0,0.278614,-7287.02,-52242,-0,52747.8,1.1529e+06
step02_gravity_refstate-mantle.xmf,1177,-1.08551e-05,2.47531e-05,0,1.01289e-05,-1.47821e+09,-1.47345e+09,-1.47676e+09,1.35373e+06,0.0659612,0.282469,0,0.290068,-7215.3,-51713.3,-0,52214.2,1.35373e+06
step02_gravity_refstate-mantle.xmf,1178,-1.15822e-05,2.35229e-05,0,1.00165e-05,-1.46342e+09,-1.45873e+09,-1.46187e+09,1.33871e+06,0.0531909,0.279878,0,0.284887,-7471.45,-51248.3,-0,51790.1,1.33871e+06
step02_gravity_refstate-mantle.xmf,1179,-4.3426e-06,4.06998e-05,0,6.12923e-06,-1.67847e+09,-1.67245e+09,-1.67788e+09,819171,0.221482,0.0850123,0,0.237237,-7179.43,-57983.4,-0,58426.2,819171
step02_gravity_refstate-mantle.xmf,1180,-5.33291e-06,4.21836e-05,0,4.24687e-06,-1.70113e+09,-1.69478e+09,-1.70042e+09,567594,0.225175,0.0567269,0,0.232211,-7136.65,-58680.8,-0,59113.1,567594
step02_gravity_refstate-mantle.xmf,1181,-6.86438e-06,4.47797e-05,0,2.20936e-06,-1.7235e+09,-1.71659e+09,-1.72258e+09,295281,0.226172,0.0284541,0,0.227955,-6957.79,-59368,-0,59774.4,295281
step02_gravity_refstate-mantle.xmf,1182,-8.9291e-06,4.8253e-05,0,3.72554e-08,-1.74411e+09,-1.73647e+09,-1.74292e+09,4979.19,0.224317,-2.8397e-18,0,0.224317,-6651.63,-60000,-0,60367.6,4979.19
step02_gravity_refstate-mantle.xmf,1183,7.94952e-07,2.88247e-05,0,5.83524e-06,-1.60357e+09,-1.59982e+09,-1.60367e+09,779880,0.191419,0.145785,0,0.240612,-7891.38,-55673.8,-0,56230.2,779880
step02_gravity_refstate-mantle.xmf,1184,3.52019e-07,2.71525e-05,0,5.2411e-06,-1.58163e+09,-1.57805e+09,-1.58168e+09,700474,0.175746,0.163557,0,0.240078,-7933.53,-54989,-0,55558.4,700474
step02_gravity_refstate-mantle.xmf,1185,-1.07641e-06,2.57563e-05,0,4.51857e-06,-1.55805e+09,-1.55446e+09,-1.5579e+09,603907,0.155659,0.181489,0,0.239098,-7980.51,-54247.3,-0,54831.2,603907
step02_gravity_refstate-mantle.xmf,1186,1.65444e-05,-1.45386e-05,0,4.14037e-06,-1.09634e+09,-1.1005e+09,-1.09855e+09,553361,-0.0346738,0.49091,-0,0.492133,-1969.19,-40000,-0,40048.4,553361
step02_gravity_refstate-mantle.xmf,1187,1.43911e-05,-1.41753e-05,0,6.89115e-06,-1.12408e+09,-1.1279e+09,-1.12601e+09,921002,-0.039746,0.495725,-0,0.497316,-2481.98,-40843.4,-0,40918.8,921002
step02_gravity_refstate-mantle.xmf,1188,7.60177e-06,-1.23995e-05,0,1.74941e-05,-1.22403e+09,-1.2267e+09,-1.22504e+09,2.33808e+06,-0.0546704,0.498475,-0,0.501464,-4058.5,-43889.8,-0,44077,2.33808e+06
step02_gravity_refstate-mantle.xmf,1189,1.261e-05,-1.39908e-05,0,9.66849e-06,-1.15085e+09,-1.15441e+09,-1.15254e+09,1.29219e+06,-0.0442616,0.498541,-0,0.500502,-2952.8,-41658.8,-0,41763.4,1.29219e+06
step02_gravity_refstate-mantle.xmf,1190,1.09097e-05,-1.36223e-05,0,1.25009e-05,-1.17687e+09,-1.18015e+09,-1.17833e+09,1.67075e+06,-0.0485093,0.499404,-0,0.501755,-3393.26,-42452.3,-0,42587.7,1.67075e+06
step02_gravity_refstate-mantle.xmf,1191,9.15582e-06,-1.29741e-05,0,1.52721e-05,-1.20219e+09,-1.20515e+09,-1.20341e+09,2.04112e+06,-0.0521909,0.498917,-0,0.501639,-3782.98,-43224.2,-0,43389.4,2.04112e+06
step02_gravity_refstate-mantle.xmf,1192,-7.97461e-06,4.65609e-06,0,2.49178e-05,-1.34558e+09,-1.34389e+09,-1.34452e+09,3.33027e+06,-0.0468096,0.433122,-0,0.435644,-5861.56,-47584.2,-0,47943.8,3.33027e+06
step02_gravity_refstate-mantle.xmf,1193,5.04975e-06,-9.36416e-06,0,1.89777e-05,-1.23222e+09,-1.23415e+09,-1.2329e+09,2.53637e+06,-0.0586573,0.478315,-0,0.481898,-4684.58,-44133.7,-0,44381.6,2.53637e+06
step02_gravity_refstate-mantle.xmf,1194,-1.21837e-06,-3.56912e-06,0,2.37111e-05,-1.29262e+09,-1.29293e+09,-1.29246e+09,3.16899e+06,-0.0581476,0.462383,-0,0.466025,-5334.85,-45972.3,-0,46280.8,3.16899e+06
step02_gravity_refstate-mantle.xmf,1195,-6.00386e-06,2.5372e-06,0,2.42663e-05,-1.32461e+09,-1.32347e+09,-1.32381e+09,3.24319e+06,-0.0519165,0.435363,-0,0.438447,-5861.43,-46944.2,-0,47308.7,3.24319e+06
step02_gravity_refstate-mantle.xmf,1196,-1.35269e-05,1.77084e-05,0,1.73417e-05,-1.40822e+09,-1.40405e+09,-1.40641e+09,2.31772e+06,-0.00248643,0.34416,-0,0.344169,-6971.31,-49515.3,-0,50003.6,2.31772e+06
step02_gravity_refstate-mantle.xmf,1197,-1.1845e-05,1.18644e-05,0,2.19594e-05,-1.3768e+09,-1.37363e+09,-1.37521e+09,2.93487e+06,-0.0287857,0.390664,-0,0.391723,-6434.66,-48540.9,-0,48965.5,2.93487e+06
step02_gravity_refstate-mantle.xmf,1198,-1.27055e-05,2.1699e-05,0,1.17825e-05,-1.44074e+09,-1.43614e+09,-1.43904e+09,1.57473e+06,0.0316054,0.294103,0,0.295797,-7506.06,-50535.5,-0,51089.9,1.57473e+06
step02_gravity_refstate-mantle.xmf,1199,4.99876e-07,3.07742e-05,0,6.14592e-06,-1.62454e+09,-1.62049e+09,-1.6246e+09,821402,0.203539,0.127867,0,0.240371,-7841.08,-56324.6,-0,56867.8,821402
step02_gravity_refstate-mantle.xmf,1200,-2.04954e-07,3.27316e-05,0,5.93088e-06,-1.64582e+09,-1.64141e+09,-1.64579e+09,792663,0.213108,0.107757,0,0.238803,-7808.74,-56982.2,-0,57514.7,792663
step02_gravity_refstate-mantle.xmf,1201,-1.08835e-06,3.45874e-05,0,5.18145e-06,-1.66778e+09,-1.66301e+09,-1.66763e+09,692501,0.220456,0.0854927,0,0.236453,-7779.17,-57659.4,-0,58181.8,692501
step02_gravity_refstate-mantle.xmf,1202,-2.97074e-06,2.60899e-05,0,5.24231e-06,-1.54082e+09,-1.53694e+09,-1.54042e+09,700635,0.138554,0.204984,0,0.247419,-7749.62,-53703.3,-0,54259.6,700635
step02_gravity_refstate-mantle.xmf,1203,-1.02927e-05,9.41173e-06,0,2.23118e-05,-1.35581e+09,-1.35318e+09,-1.35444e+09,2.98197e+06,-0.0380367,0.397072,-0,0.398889,-6440.92,-47896.8,-0,48327.9,2.98197e+06
step02_gravity_refstate-mantle.xmf,1204,2.00802e-06,-5.58091e-06,0,2.0046e-05,-1.24414e+09,-1.24515e+09,-1.24441e+09,2.67915e+06,-0.0607907,0.453994,-0,0.458045,-5362.48,-44491.2,-0,44813.2,2.67915e+06
step02_gravity_refstate-mantle.xmf,1205,3.68139e-07,-4.56423e-06,0,2.19094e-05,-1.26916e+09,-1.26982e+09,-1.26921e+09,2.92819e+06,-0.0596547,0.457325,-0,0.461199,-5377.56,-45255.6,-0,45573.9,2.92819e+06
step02_gravity_refstate-mantle.xmf,1206,-4.15611e-06,6.94405e-07,0,2.31975e-05,-1.30339e+09,-1.30274e+09,-1.30284e+09,3.10035e+06,-0.0554502,0.434585,-0,0.438108,-5893.52,-46296.3,-0,46669.9,3.10035e+06
step02_gravity_refstate-mantle.xmf,1207,-1.3091e-05,1.97562e-05,0,1.3399e-05,-1.41957e+09,-1.41518e+09,-1.41782e+09,1.79077e+06,0.013865,0.306163,0,0.306477,-7536.11,-49874.2,-0,50440.3,1.79077e+06
step02_gravity_refstate-mantle.xmf,1208,-1.27838e-05,1.52553e-05,0,1.83901e-05,-1.38767e+09,-1.38392e+09,-1.38596e+09,2.45783e+06,-0.0156727,0.352845,-0,0.353193,-7002.81,-48879.2,-0,49378.3,2.45783e+06
step02_gravity_refstate-mantle.xmf,1209,-4.55161e-06,2.52222e-05,0,5.08624e-06,-1.52428e+09,-1.5203e+09,-1.52367e+09,679776,0.121785,0.213983,0,0.246212,-7852.57,-53179.6,-0,53756.2,679776
step02_gravity_refstate-mantle.xmf,1210,-9.19592e-06,2.37762e-05,0,6.94949e-06,-1.48139e+09,-1.47699e+09,-1.48016e+09,928800,0.0759808,0.247325,0,0.258733,-7852.76,-51820.1,-0,52411.7,928800
step02_gravity_refstate-mantle.xmf,1211,-6.77382e-06,2.44865e-05,0,5.59768e-06,-1.50389e+09,-1.49971e+09,-1.50299e+09,748130,0.100224,0.228562,0,0.24957,-7886.23,-52533.1,-0,53121.8,748130
step02_gravity_refstate-mantle.xmf,1212,-1.09145e-05,2.20471e-05,0,8.06923e-06,-1.45357e+09,-1.44916e+09,-1.45211e+09,1.07845e+06,0.0506082,0.256348,0,0.261296,-8087.91,-50944.6,-0,51582.6,1.07845e+06
step02_gravity_refstate-mantle.xmf,1213,-1.96851e-06,3.6328e-05,0,3.89469e-06,-1.69078e+09,-1.68567e+09,-1.69052e+09,520526,0.225804,0.0606334,0,0.233803,-7758.11,-58368.6,-0,58882,520526
step02_gravity_refstate-mantle.xmf,1214,-2.31984e-06,3.705e-05,0,1.95172e-06,-1.71752e+09,-1.71226e+09,-1.71721e+09,260847,0.229535,0.0300444,0,0.231493,-7784.32,-59194.2,-0,59703.8,260847
step02_gravity_refstate-mantle.xmf,1215,-4.4598e-06,4.07745e-05,0,5.23446e-08,-1.74377e+09,-1.73772e+09,-1.74317e+09,6995.86,0.229353,-3.01449e-18,0,0.229353,-7406.53,-60000,-0,60455.4,6995.86
step02_gravity_refstate-mantle.xmf,1216,1.87293e-06,2.65888e-05,0,3.96634e-06,-1.61485e+09,-1.61155e+09,-1.6151e+09,530102,0.197523,0.119403,0,0.230809,-8458.75,-56023.8,-0,56658.8,530102
step02_gravity_refstate-mantle.xmf,1217,1.58456e-06,2.51135e-05,0,3.45386e-06,-1.59384e+09,-1.59069e+09,-1.59405e+09,461609,0.184128,0.134387,0,0.227954,-8529.8,-55369.1,-0,56022.3,461609
step02_gravity_refstate-mantle.xmf,1218,6.00395e-07,2.39666e-05,0,2.88941e-06,-1.57145e+09,-1.56833e+09,-1.57153e+09,386170,0.167298,0.149932,0,0.224651,-8585.34,-54668.1,-0,55338.1,386170
step02_gravity_refstate-mantle.xmf,1219,-2.49626e-06,2.38928e-05,0,3.23881e-06,-1.53729e+09,-1.53377e+09,-1.53696e+09,432866,0.136669,0.184025,0,0.229224,-8343.98,-53592,-0,54237.7,432866
step02_gravity_refstate-mantle.xmf,1220,1.45851e-05,-1.29163e-05,0,5.89243e-06,-1.09663e+09,-1.10031e+09,-1.09858e+09,787524,-0.0500176,0.476372,-0,0.478991,-2953.78,-40000,-0,40108.9,787524
step02_gravity_refstate-mantle.xmf,1221,1.23216e-05,-1.21607e-05,0,8.78441e-06,-1.12405e+09,-1.12733e+09,-1.1257e+09,1.17404e+06,-0.0524751,0.477601,-0,0.480475,-3432.54,-40833.9,-0,40977.9,1.17404e+06
step02_gravity_refstate-mantle.xmf,1222,6.16307e-06,-9.31955e-06,0,1.68572e-05,-1.20587e+09,-1.20794e+09,-1.20669e+09,2.25297e+06,-0.0589825,0.471221,-0,0.474898,-4670.92,-43327.2,-0,43578.2,2.25297e+06
step02_gravity_refstate-mantle.xmf,1223,1.03362e-05,-1.151e-05,0,1.15358e-05,-1.15106e+09,-1.15398e+09,-1.15244e+09,1.54175e+06,-0.0547952,0.477207,-0,0.480342,-3870.24,-41656.5,-0,41835.9,1.54175e+06
step02_gravity_refstate-mantle.xmf,1224,8.40228e-06,-1.06584e-05,0,1.41808e-05,-1.1778e+09,-1.18035e+09,-1.17893e+09,1.89527e+06,-0.0569789,0.47529,-0,0.478693,-4272.24,-42471.8,-0,42686.1,1.89527e+06
step02_gravity_refstate-mantle.xmf,1225,-8.35928e-06,6.55756e-06,0,2.23146e-05,-1.33431e+09,-1.33231e+09,-1.33319e+09,2.98235e+06,-0.0454055,0.402746,-0,0.405297,-6432.11,-47238.2,-0,47674.1,2.98235e+06
step02_gravity_refstate-mantle.xmf,1226,3.58549e-06,-6.72094e-06,0,1.84366e-05,-1.22233e+09,-1.22371e+09,-1.22281e+09,2.46405e+06,-0.0613091,0.454469,-0,0.458586,-5245.36,-43825.1,-0,44137.9,2.46405e+06
step02_gravity_refstate-mantle.xmf,1227,-2.60556e-06,-5.61802e-07,0,2.18258e-05,-1.28153e+09,-1.28125e+09,-1.28118e+09,2.91701e+06,-0.0579784,0.430405,-0,0.434292,-5977.67,-45628,-0,46017.9,2.91701e+06
step02_gravity_refstate-mantle.xmf,1228,-6.58499e-06,4.56177e-06,0,2.19049e-05,-1.31319e+09,-1.3117e+09,-1.31231e+09,2.92759e+06,-0.0507204,0.405793,-0,0.40895,-6441.37,-46592.6,-0,47035.8,2.92759e+06
step02_gravity_refstate-mantle.xmf,1229,-1.28787e-05,1.7591e-05,0,1.48489e-05,-1.39918e+09,-1.39511e+09,-1.39746e+09,1.98455e+06,-0.00107137,0.317164,-0,0.317166,-7551.66,-49240,-0,49815.7,1.98455e+06
step02_gravity_refstate-mantle.xmf,1230,-1.16577e-05,1.28653e-05,0,1.90848e-05,-1.3668e+09,-1.36352e+09,-1.36524e+09,2.55068e+06,-0.0265188,0.359569,-0,0.360546,-7044.9,-48235.9,-0,48747.6,2.55068e+06
step02_gravity_refstate-mantle.xmf,1231,-1.18951e-05,2.05958e-05,0,9.77448e-06,-1.43119e+09,-1.42684e+09,-1.4296e+09,1.30636e+06,0.0308417,0.270036,0,0.271792,-8114.35,-50243,-0,50894,1.30636e+06
step02_gravity_refstate-mantle.xmf,1232,1.71631e-06,2.805e-05,0,4.14499e-06,-1.63451e+09,-1.63099e+09,-1.63474e+09,553977,0.207803,0.103944,0,0.23235,-8408.36,-56633.8,-0,57254.5,553977
step02_gravity_refstate-mantle.xmf,1233,1.37349e-06,2.94079e-05,0,3.87038e-06,-1.65641e+09,-1.65266e+09,-1.65659e+09,517276,0.216755,0.0845272,0,0.232653,-8401.56,-57311.3,-0,57923.9,517276
step02_gravity_refstate-mantle.xmf,1234,8.1782e-07,3.08487e-05,0,3.23834e-06,-1.67945e+09,-1.67543e+09,-1.67956e+09,432805,0.223693,0.0634111,0,0.232507,-8375.02,-58023.1,-0,58624.4,432805
step02_gravity_refstate-mantle.xmf,1235,-6.17359e-07,2.30436e-05,0,2.36265e-06,-1.55269e+09,-1.54953e+09,-1.55261e+09,315769,0.151444,0.1604,0,0.220598,-8692.28,-54077.9,-0,54772.1,315769
step02_gravity_refstate-mantle.xmf,1236,-1.02536e-05,1.06109e-05,0,1.96097e-05,-1.34518e+09,-1.3424e+09,-1.34381e+09,2.62084e+06,-0.0358682,0.366775,-0,0.368525,-7054.69,-47571.9,-0,48092.1,2.62084e+06
step02_gravity_refstate-mantle.xmf,1237,1.07113e-06,-3.35484e-06,0,1.84524e-05,-1.22642e+09,-1.22701e+09,-1.22656e+09,2.46617e+06,-0.0628209,0.426182,-0,0.430788,-5990.48,-43943.1,-0,44349.6,2.46617e+06
step02_gravity_refstate-mantle.xmf,1238,-1.01817e-06,-1.65605e-06,0,2.02129e-05,-1.25622e+09,-1.2563e+09,-1.25608e+09,2.70146e+06,-0.0603745,0.425786,-0,0.430045,-6058.64,-44854,-0,45261.3,2.70146e+06
step02_gravity_refstate-mantle.xmf,1239,-4.92877e-06,2.67016e-06,0,2.13396e-05,-1.29395e+09,-1.29294e+09,-1.29329e+09,2.85204e+06,-0.0545187,0.408257,-0,0.411881,-6433.14,-46004.6,-0,46452.2,2.85204e+06
step02_gravity_refstate-mantle.xmf,1240,-1.22958e-05,1.89558e-05,0,1.14842e-05,-1.40984e+09,-1.40566e+09,-1.4082e+09,1.53486e+06,0.0137566,0.283389,0,0.283723,-8109.89,-49576.7,-0,50235.7,1.53486e+06
step02_gravity_refstate-mantle.xmf,1241,-1.22415e-05,1.55349e-05,0,1.57872e-05,-1.3788e+09,-1.37508e+09,-1.37716e+09,2.10996e+06,-0.013152,0.324316,-0,0.324582,-7616.06,-48609.4,-0,49202.5,2.10996e+06
step02_gravity_refstate-mantle.xmf,1242,-4.41112e-06,2.30166e-05,0,3.16445e-06,-1.51561e+09,-1.51194e+09,-1.51502e+09,422929,0.115954,0.193544,0,0.225621,-8518.24,-52907.1,-0,53588.5,422929
step02_gravity_refstate-mantle.xmf,1243,-6.70715e-06,2.25586e-05,0,3.97738e-06,-1.49284e+09,-1.48893e+09,-1.49194e+09,531576,0.0932422,0.209559,0,0.229367,-8528.34,-52187.2,-0,52879.5,531576
step02_gravity_refstate-mantle.xmf,1244,-1.02014e-05,2.0666e-05,0,6.60241e-06,-1.44367e+09,-1.43954e+09,-1.44231e+09,882413,0.0482356,0.236163,0,0.241039,-8699.36,-50640.1,-0,51381.9,882413
step02_gravity_refstate-mantle.xmf,1245,-8.68123e-06,2.18632e-05,0,5.15154e-06,-1.46989e+09,-1.46581e+09,-1.46873e+09,688504,0.0711044,0.223728,0,0.234755,-8575.86,-51463.4,-0,52173.1,688504
step02_gravity_refstate-mantle.xmf,1246,1.4745e-07,3.23387e-05,0,2.3906e-06,-1.70109e+09,-1.69679e+09,-1.70111e+09,319504,0.228098,0.0430012,0,0.232116,-8313.77,-58690.9,-0,59276.8,319504
step02_gravity_refstate-mantle.xmf,1247,-6.73092e-07,3.40598e-05,0,2.25846e-08,-1.7435e+09,-1.73886e+09,-1.74341e+09,3018.43,0.231363,-2.2173e-18,0,0.231363,-8185.04,-60000,-0,60555.7,3018.43
step02_gravity_refstate-mantle.xmf,1248,2.7646e-06,2.47349e-05,0,2.62425e-06,-1.62446e+09,-1.62153e+09,-1.62483e+09,350731,0.201637,0.0999978,0,0.225072,-8943.97,-56322,-0,57027.7,350731
step02_gravity_refstate-mantle.xmf,1249,2.72559e-06,2.31912e-05,0,2.05271e-06,-1.60643e+09,-1.60369e+09,-1.60679e+09,274344,0.191015,0.109576,0,0.220213,-9113.79,-55760.7,-0,56500.6,274344
step02_gravity_refstate-mantle.xmf,1250,1.94189e-06,2.208e-05,0,1.49283e-06,-1.58354e+09,-1.58085e+09,-1.5838e+09,199516,0.175669,0.123625,0,0.214809,-9200.79,-55045.5,-0,55809.1,199516
step02_gravity_refstate-mantle.xmf,1251,4.77774e-07,2.13849e-05,0,1.08774e-06,-1.55914e+09,-1.55635e+09,-1.55921e+09,145376,0.156943,0.138843,0,0.209543,-9253.83,-54280.4,-0,55063.5,145376
step02_gravity_refstate-mantle.xmf,1252,-1.749e-06,2.14615e-05,0,1.35297e-06,-1.53389e+09,-1.53078e+09,-1.53365e+09,180824,0.135174,0.159796,0,0.209301,-9123.07,-53485.5,-0,54258,180824
step02_gravity_refstate-mantle.xmf,1253,1.21353e-05,-1.0862e-05,0,7.28181e-06,-1.09699e+09,-1.10007e+09,-1.09861e+09,973214,-0.0631916,0.457166,-0,0.461513,-3938.38,-40000,-0,40193.4,973214
step02_gravity_refstate-mantle.xmf,1254,9.85974e-06,-9.78111e-06,0,1.01663e-05,-1.12444e+09,-1.12706e+09,-1.12576e+09,1.35872e+06,-0.0631559,0.455102,-0,0.459463,-4395.96,-40835.4,-0,41071.3,1.35872e+06
step02_gravity_refstate-mantle.xmf,1255,3.68381e-06,-5.93907e-06,0,1.69683e-05,-1.203e+09,-1.20428e+09,-1.20349e+09,2.26782e+06,-0.0632995,0.440569,-0,0.445093,-5518.34,-43230.6,-0,43581.4,2.26782e+06
step02_gravity_refstate-mantle.xmf,1256,5.89564e-06,-7.68815e-06,0,1.50769e-05,-1.17905e+09,-1.18086e+09,-1.17984e+09,2.01502e+06,-0.0629707,0.449213,-0,0.453605,-5117.77,-42501.1,-0,42808.1,2.01502e+06
step02_gravity_refstate-mantle.xmf,1257,7.81543e-06,-8.7809e-06,0,1.27574e-05,-1.15186e+09,-1.15408e+09,-1.15291e+09,1.70503e+06,-0.0631407,0.452189,-0,0.456576,-4794.15,-41671.4,-0,41946.2,1.70503e+06
step02_gravity_refstate-mantle.xmf,1258,-8.45178e-06,7.90982e-06,0,1.98599e-05,-1.32276e+09,-1.32058e+09,-1.32163e+09,2.65427e+06,-0.043703,0.373822,-0,0.376367,-7039.89,-46884.4,-0,47410,2.65427e+06
step02_gravity_refstate-mantle.xmf,1259,-4.14919e-06,2.61181e-06,0,1.96694e-05,-1.27322e+09,-1.27232e+09,-1.27267e+09,2.62881e+06,-0.0564474,0.394293,-0,0.398313,-6768.97,-45369.4,-0,45871.5,2.62881e+06
step02_gravity_refstate-mantle.xmf,1260,-6.64732e-06,5.67985e-06,0,1.97744e-05,-1.29944e+09,-1.29779e+09,-1.29855e+09,2.64284e+06,-0.0501488,0.380456,-0,0.383747,-7001.79,-46170.3,-0,46698.2,2.64284e+06
step02_gravity_refstate-mantle.xmf,1261,-1.22397e-05,1.73309e-05,0,1.29934e-05,-1.39195e+09,-1.388e+09,-1.39032e+09,1.73657e+06,0.000595673,0.295677,0,0.295678,-8063.19,-49020.4,-0,49679.1,1.73657e+06
step02_gravity_refstate-mantle.xmf,1262,-1.11994e-05,1.33979e-05,0,1.6414e-05,-1.35633e+09,-1.35305e+09,-1.35484e+09,2.19373e+06,-0.0238126,0.329192,-0,0.330052,-7720.25,-47917,-0,48535,2.19373e+06
step02_gravity_refstate-mantle.xmf,1263,-1.10776e-05,1.93636e-05,0,8.27371e-06,-1.41981e+09,-1.41574e+09,-1.41833e+09,1.10578e+06,0.0288966,0.24945,0,0.251118,-8738.82,-49893.8,-0,50653.3,1.10578e+06
step02_gravity_refstate-mantle.xmf,1264,3.0505e-06,2.51048e-05,0,2.45887e-06,-1.64359e+09,-1.64064e+09,-1.644e+09,328628,0.210396,0.083494,0,0.226357,-9025.29,-56915.6,-0,57626.8,328628
step02_gravity_refstate-mantle.xmf,1265,2.94268e-06,2.61211e-05,0,2.22473e-06,-1.66768e+09,-1.66459e+09,-1.66808e+09,297335,0.219175,0.0640992,0,0.228356,-9034.76,-57661.8,-0,58365.3,297335
step02_gravity_refstate-mantle.xmf,1266,2.654e-06,2.73676e-05,0,1.62083e-06,-1.69562e+09,-1.69231e+09,-1.69597e+09,216623,0.226153,0.0410364,0,0.229846,-9024.37,-58525.9,-0,59217.6,216623
step02_gravity_refstate-mantle.xmf,1267,1.10911e-06,3.06463e-05,0,1.10429e-06,-1.72025e+09,-1.7163e+09,-1.7204e+09,147588,0.230295,0.022032,0,0.231346,-8615.56,-59284.8,-0,59907.6,147588
step02_gravity_refstate-mantle.xmf,1268,-9.99389e-06,1.13303e-05,0,1.71297e-05,-1.33456e+09,-1.33171e+09,-1.33322e+09,2.28938e+06,-0.0334355,0.338158,-0,0.339807,-7704.72,-47247.2,-0,47871.3,2.28938e+06
step02_gravity_refstate-mantle.xmf,1269,1.81569e-06,-3.4507e-06,0,1.66927e-05,-1.20235e+09,-1.20306e+09,-1.2026e+09,2.23098e+06,-0.065226,0.416031,-0,0.421113,-6190.21,-43204.5,-0,43645.7,2.23098e+06
step02_gravity_refstate-mantle.xmf,1270,-1.95535e-06,5.20796e-07,0,1.83152e-05,-1.24181e+09,-1.24148e+09,-1.24155e+09,2.44782e+06,-0.0609028,0.395228,-0,0.399893,-6777.98,-44408.3,-0,44922.6,2.44782e+06
step02_gravity_refstate-mantle.xmf,1271,-1.15327e-05,1.79225e-05,0,1.02177e-05,-1.39769e+09,-1.39375e+09,-1.39615e+09,1.3656e+06,0.0115585,0.266095,0,0.266346,-8649.2,-49203.8,-0,49958.2,1.3656e+06
step02_gravity_refstate-mantle.xmf,1272,-1.16057e-05,1.60897e-05,0,1.26953e-05,-1.37416e+09,-1.37046e+09,-1.37261e+09,1.69672e+06,-0.00653263,0.289874,-0,0.289947,-8389.12,-48472,-0,49192.6,1.69672e+06
step02_gravity_refstate-mantle.xmf,1273,-4.22187e-06,2.10394e-05,0,1.71654e-06,-1.50626e+09,-1.50288e+09,-1.5057e+09,229416,0.110038,0.175413,0,0.20707,-9213.77,-52614.5,-0,53415.2,229416
step02_gravity_refstate-mantle.xmf,1274,-6.41639e-06,2.06957e-05,0,2.65813e-06,-1.48124e+09,-1.47761e+09,-1.48038e+09,355259,0.0869974,0.190681,0,0.20959,-9249.25,-51826,-0,52644.9,355259
step02_gravity_refstate-mantle.xmf,1275,-9.49607e-06,1.91792e-05,0,5.46786e-06,-1.43075e+09,-1.42691e+09,-1.42948e+09,730779,0.044234,0.217966,0,0.22241,-9373.2,-50241.9,-0,51108.7,730779
step02_gravity_refstate-mantle.xmf,1276,-8.19147e-06,2.00623e-05,0,3.91634e-06,-1.45611e+09,-1.45234e+09,-1.45502e+09,523418,0.0649942,0.204198,0,0.214292,-9322.79,-51036.5,-0,51881,523418
step02_gravity_refstate-mantle.xmf,1277,2.3348e-06,2.82742e-05,0,1.5948e-08,-1.74333e+09,-1.73986e+09,-1.74364e+09,2131.44,0.230698,-1.81681e-18,0,0.230698,-8990.76,-60000,-0,60669.9,2131.44
step02_gravity_refstate-mantle.xmf,1278,3.9383e-06,2.15274e-05,0,1.03414e-06,-1.62573e+09,-1.62338e+09,-1.62626e+09,138213,0.199892,0.0847493,0,0.217116,-9657.29,-56360.8,-0,57182.2,138213
step02_gravity_refstate-mantle.xmf,1279,3.27716e-06,2.02287e-05,0,4.0903e-07,-1.59819e+09,-1.59592e+09,-1.59863e+09,54666.9,0.183795,0.0994437,0,0.208973,-9825.12,-55502.2,-0,56365.1,54666.9
step02_gravity_refstate-mantle.xmf,1280,1.99743e-06,1.95938e-05,0,-3.85621e-08,-1.57226e+09,-1.56991e+09,-1.57253e+09,-5153.82,0.166178,0.11404,0,0.201545,-9897.4,-54691.1,-0,55579.5,5153.82
step02_gravity_refstate-mantle.xmf,1281,1.85345e-07,1.93634e-05,0,-1.89914e-07,-1.54618e+09,-1.54362e+09,-1.54621e+09,-25382.1,0.146258,0.129524,0,0.195366,-9917.25,-53872.9,-0,54778.1,25382.1
step02_gravity_refstate-mantle.xmf,1282,9.39432e-06,-8.54267e-06,0,8.26243e-06,-1.09739e+09,-1.09979e+09,-1.09865e+09,1.10427e+06,-0.0738236,0.434239,-0,0.44047,-4924.17,-40000,-0,40302,1.10427e+06
step02_gravity_refstate-mantle.xmf,1283,7.17434e-06,-7.17783e-06,0,1.10191e-05,-1.12519e+09,-1.12711e+09,-1.12615e+09,1.4727e+06,-0.0714905,0.428835,-0,0.434754,-5381.89,-40847.4,-0,41200.4,1.4727e+06
step02_gravity_refstate-mantle.xmf,1284,3.56424e-06,-4.91655e-06,0,1.53781e-05,-1.18123e+09,-1.18237e+09,-1.18171e+09,2.05528e+06,-0.0665862,0.422933,-0,0.428143,-5916.71,-42560,-0,42969.3,2.05528e+06
step02_gravity_refstate-mantle.xmf,1285,5.21587e-06,-5.9627e-06,0,1.33692e-05,-1.15364e+09,-1.15513e+09,-1.15433e+09,1.78679e+06,-0.0690464,0.424431,-0,0.430011,-5726.79,-41716,-0,42107.2,1.78679e+06
step02_gravity_refstate-mantle.xmf,1286,-8.25297e-06,8.66386e-06,0,1.76299e-05,-1.30997e+09,-1.30771e+09,-1.30887e+09,2.35624e+06,-0.0423513,0.347493,-0,0.350064,-7664.53,-46492.5,-0,47120.1,2.35624e+06
step02_gravity_refstate-mantle.xmf,1287,-2.3212e-07,-1.02115e-06,0,1.69624e-05,-1.21457e+09,-1.21467e+09,-1.21454e+09,2.26702e+06,-0.0643415,0.396308,-0,0.401497,-6742.38,-43574.3,-0,44092.9,2.26702e+06
step02_gravity_refstate-mantle.xmf,1288,-4.37973e-06,3.90329e-06,0,1.73475e-05,-1.25556e+09,-1.25446e+09,-1.25498e+09,2.31849e+06,-0.0563853,0.364173,-0,0.368512,-7514.79,-44825.6,-0,45451.1,2.31849e+06
step02_gravity_refstate-mantle.xmf,1289,-6.38991e-06,6.24507e-06,0,1.7776e-05,-1.28359e+09,-1.2819e+09,-1.28273e+09,2.37576e+06,-0.0501374,0.357379,-0,0.360879,-7575.92,-45683.8,-0,46307.7,2.37576e+06
step02_gravity_refstate-mantle.xmf,1290,-1.06765e-05,1.37546e-05,0,1.39884e-05,-1.34875e+09,-1.34549e+09,-1.34733e+09,1.86954e+06,-0.0199626,0.301125,-0,0.301786,-8398.62,-47687.3,-0,48421.2,1.86954e+06
step02_gravity_refstate-mantle.xmf,1291,-1.02135e-05,1.78281e-05,0,7.24576e-06,-1.40358e+09,-1.39983e+09,-1.40221e+09,968396,0.0241792,0.232138,0,0.233394,-9414.8,-49394.3,-0,50283.5,968396
step02_gravity_refstate-mantle.xmf,1292,4.38655e-06,2.21368e-05,0,1.09175e-06,-1.6539e+09,-1.65153e+09,-1.65448e+09,145912,0.211936,0.0645197,0,0.22154,-9720.23,-57235.4,-0,58054.9,145912
step02_gravity_refstate-mantle.xmf,1293,4.41733e-06,2.29723e-05,0,1.01856e-06,-1.67927e+09,-1.67679e+09,-1.67986e+09,136130,0.220056,0.0469132,0,0.225001,-9701.74,-58021.6,-0,58827.1,136130
step02_gravity_refstate-mantle.xmf,1294,3.58494e-06,2.56055e-05,0,6.0108e-07,-1.72056e+09,-1.71761e+09,-1.72104e+09,80334.4,0.228506,0.0180751,0,0.22922,-9395.1,-59298,-0,60037.7,80334.4
step02_gravity_refstate-mantle.xmf,1295,-1.95317e-06,1.9322e-05,0,5.12589e-08,-1.52012e+09,-1.51728e+09,-1.51986e+09,6850.76,0.124641,0.145272,0,0.191414,-9922.13,-53053.4,-0,53973.3,6850.76
step02_gravity_refstate-mantle.xmf,1296,-9.48847e-06,1.15228e-05,0,1.49646e-05,-1.32268e+09,-1.31987e+09,-1.32141e+09,2.00001e+06,-0.0316056,0.31251,-0,0.314104,-8368.85,-46884,-0,47625.1,2.00001e+06
step02_gravity_refstate-mantle.xmf,1297,1.20439e-06,-2.14546e-06,0,1.54025e-05,-1.18763e+09,-1.18807e+09,-1.18779e+09,2.05854e+06,-0.0677863,0.395357,-0,0.401126,-6730.01,-42748.8,-0,43275.4,2.05854e+06
step02_gravity_refstate-mantle.xmf,1298,-2.56718e-06,1.9957e-06,0,1.64536e-05,-1.2273e+09,-1.22669e+09,-1.22696e+09,2.19903e+06,-0.0614795,0.367856,-0,0.372958,-7483.18,-43959.9,-0,44592.3,2.19903e+06
step02_gravity_refstate-mantle.xmf,1299,-1.08122e-05,1.68297e-05,0,9.45298e-06,-1.38339e+09,-1.3797e+09,-1.38195e+09,1.26339e+06,0.00760788,0.253803,0,0.253917,-9135.05,-48764.3,-0,49612.5,1.26339e+06
step02_gravity_refstate-mantle.xmf,1300,-1.06399e-05,1.54214e-05,0,1.07803e-05,-1.36196e+09,-1.35848e+09,-1.36054e+09,1.44079e+06,-0.00543333,0.265589,-0,0.265644,-9107.15,-48099.9,-0,48954.5,1.44079e+06
step02_gravity_refstate-mantle.xmf,1301,-4.12293e-06,1.92319e-05,0,6.95368e-07,-1.4942e+09,-1.49108e+09,-1.49365e+09,92935.9,0.102385,0.160189,0,0.190113,-9951.43,-52238.1,-0,53177.5,92935.9
step02_gravity_refstate-mantle.xmf,1302,-6.06123e-06,1.89921e-05,0,1.71752e-06,-1.46869e+09,-1.46535e+09,-1.46788e+09,229547,0.0807085,0.174293,0,0.192073,-9992.91,-51436.6,-0,52398.3,229547
step02_gravity_refstate-mantle.xmf,1303,-8.75242e-06,1.78048e-05,0,4.56588e-06,-1.4181e+09,-1.41455e+09,-1.41693e+09,610230,0.0407941,0.201932,0,0.206012,-10044.6,-49852.5,-0,50854.4,610230
step02_gravity_refstate-mantle.xmf,1304,-7.63578e-06,1.85146e-05,0,3.0509e-06,-1.4431e+09,-1.43961e+09,-1.44208e+09,407752,0.0598968,0.188143,0,0.197447,-10031.8,-50634.2,-0,51618.4,407752
step02_gravity_refstate-mantle.xmf,1305,4.46507e-06,2.33805e-05,0,7.64432e-07,-1.70123e+09,-1.6987e+09,-1.70182e+09,102166,0.22464,0.0308149,0,0.226744,-9734.94,-58701.1,-0,59502.8,102166
step02_gravity_refstate-mantle.xmf,1306,4.66027e-06,2.33552e-05,0,9.15692e-09,-1.74324e+09,-1.74074e+09,-1.74386e+09,1223.82,0.227767,-1.55279e-18,0,0.227767,-9827.13,-60000,-0,60799.4,1223.82
step02_gravity_refstate-mantle.xmf,1307,5.28494e-06,1.8818e-05,0,-8.26823e-08,-1.64137e+09,-1.63956e+09,-1.64207e+09,-11050.5,0.203372,0.0622797,0,0.212694,-10461.8,-56845.8,-0,57800.5,11050.5
step02_gravity_refstate-mantle.xmf,1308,4.55957e-06,1.8206e-05,0,-4.80894e-07,-1.61365e+09,-1.61182e+09,-1.61426e+09,-64271.5,0.189991,0.0775998,0,0.205228,-10510.1,-55983.2,-0,56961.2,64271.5
step02_gravity_refstate-mantle.xmf,1309,3.42509e-06,1.77368e-05,0,-9.09904e-07,-1.58664e+09,-1.58473e+09,-1.5871e+09,-121609,0.17403,0.0916418,0,0.196684,-10576.7,-55140.3,-0,56145.5,121609
step02_gravity_refstate-mantle.xmf,1310,1.83515e-06,1.75366e-05,0,-1.17765e-06,-1.55951e+09,-1.55741e+09,-1.55975e+09,-157394,0.155628,0.10575,0,0.188158,-10623.2,-54290.9,-0,55320.4,157394
step02_gravity_refstate-mantle.xmf,1311,-2.99166e-08,1.75478e-05,0,-1.13921e-06,-1.5333e+09,-1.53095e+09,-1.5333e+09,-152256,0.136089,0.11969,0,0.181234,-10646.8,-53468.9,-0,54518.6,152256
step02_gravity_refstate-mantle.xmf,1312,6.57609e-06,-6.12598e-06,0,8.83179e-06,-1.0978e+09,-1.0995e+09,-1.09868e+09,1.18037e+06,-0.0817567,0.408519,-0,0.41662,-5915.44,-40000,-0,40435,1.18037e+06
step02_gravity_refstate-mantle.xmf,1313,4.15153e-06,-4.25542e-06,0,1.13143e-05,-1.12645e+09,-1.12758e+09,-1.12701e+09,1.51215e+06,-0.0777607,0.395815,-0,0.403381,-6521.96,-40873.5,-0,41390.6,1.51215e+06
step02_gravity_refstate-mantle.xmf,1314,2.67491e-06,-3.23234e-06,0,1.35701e-05,-1.15838e+09,-1.15917e+09,-1.15874e+09,1.81364e+06,-0.0720291,0.395339,-0,0.401847,-6656.85,-41852.6,-0,42378.7,1.81364e+06
step02_gravity_refstate-mantle.xmf,1315,-7.88913e-06,9.01544e-06,0,1.55825e-05,-1.29619e+09,-1.29393e+09,-1.29514e+09,2.0826e+06,-0.041333,0.323,-0,0.325634,-8316.77,-46070.3,-0,46814.9,2.0826e+06
step02_gravity_refstate-mantle.xmf,1316,-9.74722e-07,4.5449e-07,0,1.52552e-05,-1.1991e+09,-1.19891e+09,-1.19897e+09,2.03885e+06,-0.0661647,0.369744,-0,0.375617,-7458.09,-43095.4,-0,43736,2.03885e+06
step02_gravity_refstate-mantle.xmf,1317,-4.53048e-06,4.75438e-06,0,1.53674e-05,-1.24023e+09,-1.23898e+09,-1.23962e+09,2.05386e+06,-0.0563778,0.33831,-0,0.342975,-8223.48,-44353,-0,45108.9,2.05386e+06
step02_gravity_refstate-mantle.xmf,1318,-6.19343e-06,6.76532e-06,0,1.5733e-05,-1.26787e+09,-1.26614e+09,-1.26704e+09,2.10271e+06,-0.0497652,0.332436,-0,0.33614,-8251.79,-45200.8,-0,45947.9,2.10271e+06
step02_gravity_refstate-mantle.xmf,1319,-9.89203e-06,1.3401e-05,0,1.20927e-05,-1.3366e+09,-1.33348e+09,-1.33528e+09,1.61619e+06,-0.0186046,0.277735,-0,0.278358,-9084.67,-47316.2,-0,48180.4,1.61619e+06
step02_gravity_refstate-mantle.xmf,1320,-9.89624e-06,1.62537e-05,0,7.67757e-06,-1.37805e+09,-1.37455e+09,-1.37672e+09,1.02611e+06,0.0113898,0.231157,0,0.231437,-9813.34,-48603.8,-0,49584.6,1.02611e+06
step02_gravity_refstate-mantle.xmf,1321,-9.20236e-06,1.69291e-05,0,5.72212e-06,-1.39763e+09,-1.39414e+09,-1.3964e+09,764762,0.0269101,0.211022,0,0.212731,-10104.8,-49215.2,-0,50241.9,764762
step02_gravity_refstate-mantle.xmf,1322,5.64971e-06,1.94646e-05,0,1.60707e-07,-1.66853e+09,-1.66669e+09,-1.66929e+09,21478.5,0.213366,0.0464827,0,0.21837,-10425.3,-57689.1,-0,58623.5,21478.5
step02_gravity_refstate-mantle.xmf,1323,5.77334e-06,2.00771e-05,0,2.39978e-07,-1.69441e+09,-1.6925e+09,-1.69518e+09,32073.1,0.220074,0.0308859,0,0.222231,-10384.3,-58490.9,-0,59405.6,32073.1
step02_gravity_refstate-mantle.xmf,1324,5.46492e-06,2.13306e-05,0,2.32162e-07,-1.7199e+09,-1.71778e+09,-1.72063e+09,31028.5,0.224834,0.0154795,0,0.225366,-10193.7,-59279.3,-0,60149.4,31028.5
step02_gravity_refstate-mantle.xmf,1325,-2.00241e-06,1.76402e-05,0,-7.43393e-07,-1.50775e+09,-1.50513e+09,-1.50748e+09,-99354.4,0.115926,0.133579,0,0.176868,-10657.7,-52666.7,-0,53734.3,99354.4
step02_gravity_refstate-mantle.xmf,1326,-8.86615e-06,1.13773e-05,0,1.30592e-05,-1.30961e+09,-1.30691e+09,-1.30843e+09,1.74536e+06,-0.030401,0.289256,-0,0.290849,-9052.46,-46484.3,-0,47357.6,1.74536e+06
step02_gravity_refstate-mantle.xmf,1327,3.92401e-07,-7.61912e-07,0,1.37734e-05,-1.17048e+09,-1.17064e+09,-1.17053e+09,1.84082e+06,-0.0711365,0.370019,-0,0.376795,-7443.81,-42217.4,-0,42868.6,1.84082e+06
step02_gravity_refstate-mantle.xmf,1328,-2.98438e-06,3.01957e-06,0,1.46372e-05,-1.21235e+09,-1.21155e+09,-1.21195e+09,1.95627e+06,-0.0622775,0.342418,-0,0.348035,-8199.63,-43497.8,-0,44263.9,1.95627e+06
step02_gravity_refstate-mantle.xmf,1329,-9.71708e-06,1.46683e-05,0,9.18753e-06,-1.35056e+09,-1.34731e+09,-1.34927e+09,1.22791e+06,-0.00439971,0.244399,-0,0.244439,-9810.4,-47752,-0,48749.4,1.22791e+06
step02_gravity_refstate-mantle.xmf,1330,-4.01868e-06,1.775e-05,0,6.15424e-08,-1.48196e+09,-1.47905e+09,-1.48142e+09,8225.15,0.0950537,0.148258,0,0.176113,-10644.7,-51856.8,-0,52938,8225.15
step02_gravity_refstate-mantle.xmf,1331,-5.68181e-06,1.75289e-05,0,1.09172e-06,-1.45629e+09,-1.45319e+09,-1.45554e+09,145908,0.0748821,0.161039,0,0.177598,-10698.1,-51052.3,-0,52161.2,145908
step02_gravity_refstate-mantle.xmf,1332,-8.08063e-06,1.64937e-05,0,3.949e-06,-1.40424e+09,-1.40096e+09,-1.40316e+09,527784,0.0366403,0.188777,0,0.1923,-10701.1,-49425.7,-0,50570.9,527784
step02_gravity_refstate-mantle.xmf,1333,-7.07935e-06,1.71063e-05,0,2.43338e-06,-1.42971e+09,-1.42648e+09,-1.42876e+09,325221,0.0548759,0.17463,0,0.183049,-10727.8,-50220.7,-0,51353.7,325221
step02_gravity_refstate-mantle.xmf,1334,6.40079e-06,1.92039e-05,0,3.57117e-09,-1.7432e+09,-1.74149e+09,-1.74406e+09,477.287,0.222944,-1.58545e-18,0,0.222944,-10697.4,-60000,-0,60946.2,477.287
step02_gravity_refstate-mantle.xmf,1335,6.39952e-06,1.65375e-05,0,-6.83811e-07,-1.65673e+09,-1.65538e+09,-1.65759e+09,-91391.3,0.204952,0.0455537,0,0.209953,-11187.4,-57322.1,-0,58403.6,91391.3
step02_gravity_refstate-mantle.xmf,1336,5.74224e-06,1.61071e-05,0,-1.10881e-06,-1.62905e+09,-1.62766e+09,-1.62982e+09,-148192,0.193703,0.0590233,0,0.202496,-11246,-56461.4,-0,57570.5,148192
step02_gravity_refstate-mantle.xmf,1337,4.69979e-06,1.58399e-05,0,-1.54053e-06,-1.60104e+09,-1.59955e+09,-1.60166e+09,-205891,0.179553,0.0723798,0,0.193592,-11293.8,-55588.5,-0,56724.1,205891
step02_gravity_refstate-mantle.xmf,1338,3.28071e-06,1.5739e-05,0,-1.87058e-06,-1.57304e+09,-1.57137e+09,-1.57347e+09,-250003,0.162867,0.0854813,0,0.183937,-11342,-54713.8,-0,55877,250003
step02_gravity_refstate-mantle.xmf,1339,1.53397e-06,1.58005e-05,0,-1.97038e-06,-1.54496e+09,-1.54305e+09,-1.54516e+09,-263341,0.144094,0.0986361,0,0.17462,-11384.3,-53835,-0,55025.5,263341
step02_gravity_refstate-mantle.xmf,1340,-3.00674e-07,1.60261e-05,0,-1.7394e-06,-1.51892e+09,-1.51674e+09,-1.51888e+09,-232471,0.125392,0.111916,0,0.168072,-11370.8,-53018.9,-0,54224.6,232471
step02_gravity_refstate-mantle.xmf,1341,3.83919e-06,-3.69582e-06,0,8.99459e-06,-1.0982e+09,-1.0992e+09,-1.09871e+09,1.20213e+06,-0.0869987,0.38089,-0,0.390699,-6916.9,-40000,-0,40593.6,1.20213e+06
step02_gravity_refstate-mantle.xmf,1342,1.48562e-06,-1.66013e-06,0,1.20436e-05,-1.14181e+09,-1.14223e+09,-1.14201e+09,1.60963e+06,-0.076952,0.368975,-0,0.376914,-7441.07,-41336.7,-0,42001.1,1.60963e+06
step02_gravity_refstate-mantle.xmf,1343,-7.43685e-06,9.09186e-06,0,1.36642e-05,-1.28146e+09,-1.27926e+09,-1.28047e+09,1.82623e+06,-0.0406285,0.299565,-0,0.302307,-9013.44,-45618.5,-0,46500.4,1.82623e+06
step02_gravity_refstate-mantle.xmf,1344,-1.60034e-06,1.5619e-06,0,1.35627e-05,-1.18371e+09,-1.18328e+09,-1.18349e+09,1.81266e+06,-0.0681228,0.344836,-0,0.3515,-8185.7,-42618.5,-0,43397.5,1.81266e+06
step02_gravity_refstate-mantle.xmf,1345,-4.59201e-06,5.26262e-06,0,1.36047e-05,-1.22559e+09,-1.22427e+09,-1.22497e+09,1.81826e+06,-0.056625,0.315338,-0,0.320382,-8914.79,-43901.6,-0,44797.6,1.81826e+06
step02_gravity_refstate-mantle.xmf,1346,-6.02747e-06,7.12274e-06,0,1.38139e-05,-1.25316e+09,-1.25141e+09,-1.25236e+09,1.84623e+06,-0.0492651,0.308205,-0,0.312117,-8969.54,-44748.7,-0,45638.8,1.84623e+06
step02_gravity_refstate-mantle.xmf,1347,-9.06858e-06,1.2823e-05,0,1.04702e-05,-1.32331e+09,-1.32039e+09,-1.3221e+09,1.39934e+06,-0.017989,0.256819,-0,0.257449,-9786.03,-46909.9,-0,47919.7,1.39934e+06
step02_gravity_refstate-mantle.xmf,1348,-8.75925e-06,1.59793e-05,0,5.45367e-06,-1.38452e+09,-1.38121e+09,-1.38335e+09,728882,0.0222561,0.203919,0,0.20513,-10532.5,-48810.5,-0,49934,728882
step02_gravity_refstate-mantle.xmf,1349,6.73902e-06,1.70319e-05,0,-3.54439e-07,-1.68365e+09,-1.68227e+09,-1.68455e+09,-47370.8,0.213101,0.031984,0,0.215488,-11125.6,-58157,-0,59211.6,47370.8
step02_gravity_refstate-mantle.xmf,1350,6.98713e-06,1.72758e-05,0,-1.43913e-07,-1.71401e+09,-1.71264e+09,-1.71494e+09,-19234,0.218412,0.0157596,0,0.21898,-11124.6,-59097.2,-0,60135.2,19234
step02_gravity_refstate-mantle.xmf,1351,-2.27464e-06,1.65658e-05,0,-1.07725e-06,-1.49471e+09,-1.49219e+09,-1.4944e+09,-143974,0.106908,0.12785,0,0.166659,-11205,-52259.2,-0,53446.9,143974
step02_gravity_refstate-mantle.xmf,1352,2.22004e-06,-2.2263e-06,0,1.02968e-05,-1.11625e+09,-1.11685e+09,-1.11655e+09,1.37617e+06,-0.0832897,0.367848,-0,0.37716,-7426.4,-40550.7,-0,41225.2,1.37617e+06
step02_gravity_refstate-mantle.xmf,1353,-8.17968e-06,1.09997e-05,0,1.13342e-05,-1.29511e+09,-1.29254e+09,-1.29401e+09,1.51482e+06,-0.029832,0.267583,-0,0.269241,-9773.69,-46039.8,-0,47065.8,1.51482e+06
step02_gravity_refstate-mantle.xmf,1354,-5.58309e-07,5.13002e-07,0,1.21937e-05,-1.1555e+09,-1.15536e+09,-1.15542e+09,1.62969e+06,-0.0742293,0.34457,-0,0.352475,-8219.32,-41751.5,-0,42552.8,1.62969e+06
step02_gravity_refstate-mantle.xmf,1355,-3.26816e-06,3.67086e-06,0,1.29915e-05,-1.19783e+09,-1.19691e+09,-1.1974e+09,1.73631e+06,-0.0633255,0.320161,-0,0.326363,-8883.48,-43049.2,-0,43956.2,1.73631e+06
step02_gravity_refstate-mantle.xmf,1356,-8.91867e-06,1.5118e-05,0,6.47198e-06,-1.36401e+09,-1.3608e+09,-1.36282e+09,864980,0.0101971,0.212725,0,0.212969,-10566.9,-48173.9,-0,49319.2,864980
step02_gravity_refstate-mantle.xmf,1357,-8.78834e-06,1.37624e-05,0,7.81158e-06,-1.3372e+09,-1.33418e+09,-1.33602e+09,1.04402e+06,-0.0043732,0.225051,-0,0.225094,-10555.2,-47343,-0,48505.4,1.04402e+06
step02_gravity_refstate-mantle.xmf,1358,-3.74908e-06,1.63985e-05,0,-4.34036e-07,-1.47067e+09,-1.46798e+09,-1.47017e+09,-58008.9,0.0890442,0.13713,0,0.163504,-11342.3,-51506.5,-0,52740.5,58008.9
step02_gravity_refstate-mantle.xmf,1359,-5.21719e-06,1.6157e-05,0,5.94463e-07,-1.44409e+09,-1.44123e+09,-1.44339e+09,79450,0.0697304,0.148848,0,0.164372,-11419,-50674.8,-0,51945.4,79450
step02_gravity_refstate-mantle.xmf,1360,-7.67659e-06,1.51217e-05,0,3.89046e-06,-1.38166e+09,-1.37861e+09,-1.38063e+09,519960,0.027073,0.182034,0,0.184036,-11322.4,-48727.4,-0,50025.5,519960
step02_gravity_refstate-mantle.xmf,1361,-6.52841e-06,1.57566e-05,0,1.9805e-06,-1.41503e+09,-1.41206e+09,-1.41416e+09,264694,0.0494834,0.16278,0,0.170135,-11441.5,-49767.6,-0,51065.8,264694
step02_gravity_refstate-mantle.xmf,1362,7.64875e-06,1.57246e-05,0,-7.28152e-09,-1.74322e+09,-1.74214e+09,-1.74424e+09,-973.175,0.216574,-1.12073e-18,0,0.216574,-11604.5,-60000,-0,61111.9,973.175
step02_gravity_refstate-mantle.xmf,1363,7.32247e-06,1.45392e-05,0,-9.4159e-07,-1.67224e+09,-1.67127e+09,-1.67322e+09,-125844,0.204914,0.0324383,0,0.207465,-11879.4,-57802.2,-0,59010.3,125844
step02_gravity_refstate-mantle.xmf,1364,6.76324e-06,1.41556e-05,0,-1.43565e-06,-1.64451e+09,-1.64352e+09,-1.64541e+09,-191874,0.195425,0.0440994,0,0.200339,-11973.9,-56940.9,-0,58186.3,191874
step02_gravity_refstate-mantle.xmf,1365,5.8455e-06,1.3979e-05,0,-1.91872e-06,-1.61607e+09,-1.61499e+09,-1.61686e+09,-256437,0.183202,0.0559773,0,0.191563,-12035.7,-56055.9,-0,57333.5,256437
step02_gravity_refstate-mantle.xmf,1366,4.57875e-06,1.39787e-05,0,-2.31111e-06,-1.58736e+09,-1.58611e+09,-1.58797e+09,-308880,0.168399,0.0679992,0,0.18161,-12080.1,-55160.5,-0,56467.8,308880
step02_gravity_refstate-mantle.xmf,1367,2.98402e-06,1.41013e-05,0,-2.52826e-06,-1.55803e+09,-1.55655e+09,-1.55843e+09,-337902,0.151006,0.080184,0,0.170975,-12131.4,-54244.1,-0,55584.2,337902
step02_gravity_refstate-mantle.xmf,1368,1.07347e-06,1.43145e-05,0,-2.45343e-06,-1.52699e+09,-1.52522e+09,-1.52713e+09,-327901,0.130787,0.0930699,0,0.160522,-12191.5,-53273.1,-0,54650.3,327901
step02_gravity_refstate-mantle.xmf,1369,-1.25619e-06,1.49791e-05,0,-1.80954e-06,-1.49475e+09,-1.49258e+09,-1.49458e+09,-241845,0.108431,0.111069,0,0.155221,-12013.5,-52263.4,-0,53626.3,241845
step02_gravity_refstate-mantle.xmf,1370,1.35535e-06,-1.4796e-06,0,8.87541e-06,-1.09855e+09,-1.09893e+09,-1.09873e+09,1.1862e+06,-0.0896484,0.352149,-0,0.363381,-7933.15,-40000,-0,40779.1,1.1862e+06
step02_gravity_refstate-mantle.xmf,1371,2.46035e-08,-8.88731e-08,0,1.04159e-05,-1.12561e+09,-1.12563e+09,-1.12562e+09,1.39208e+06,-0.0817935,0.34103,-0,0.350702,-8338.38,-40830.7,-0,41673.4,1.39208e+06
step02_gravity_refstate-mantle.xmf,1372,-6.95436e-06,8.96844e-06,0,1.19099e-05,-1.26615e+09,-1.26402e+09,-1.26522e+09,1.59176e+06,-0.0403302,0.277642,-0,0.280556,-9739.35,-45148.2,-0,46186.8,1.59176e+06
step02_gravity_refstate-mantle.xmf,1373,-2.27771e-06,2.53027e-06,0,1.19753e-05,-1.17031e+09,-1.16967e+09,-1.17001e+09,1.6005e+06,-0.0697127,0.320896,-0,0.328381,-8939.56,-42202.8,-0,43139.2,1.6005e+06
step02_gravity_refstate-mantle.xmf,1374,-4.50074e-06,5.31551e-06,0,1.2306e-05,-1.21143e+09,-1.21012e+09,-1.21083e+09,1.6447e+06,-0.0577447,0.299167,-0,0.304689,-9457.07,-43465,-0,44482,1.6447e+06
step02_gravity_refstate-mantle.xmf,1375,-5.71128e-06,7.0621e-06,0,1.21811e-05,-1.23632e+09,-1.23461e+09,-1.23556e+09,1.62801e+06,-0.0500352,0.288278,-0,0.292588,-9642.24,-44230.3,-0,45269.2,1.62801e+06
step02_gravity_refstate-mantle.xmf,1376,-8.23863e-06,1.21258e-05,0,8.96681e-06,-1.30896e+09,-1.30624e+09,-1.30786e+09,1.19841e+06,-0.0177469,0.236703,-0,0.237367,-10543.5,-46470.2,-0,47651.3,1.19841e+06
step02_gravity_refstate-mantle.xmf,1377,7.52799e-06,1.50882e-05,0,-5.53329e-07,-1.69586e+09,-1.69485e+09,-1.69687e+09,-73952.4,0.211112,0.0222644,0,0.212283,-11758.4,-58534.6,-0,59703.9,73952.4
step02_gravity_refstate-mantle.xmf,1378,8.04935e-06,1.40686e-05,0,-3.71094e-07,-1.71784e+09,-1.71704e+09,-1.71892e+09,-49596.7,0.211397,0.0111115,0,0.211689,-12109.6,-59214.4,-0,60440,49596.7
step02_gravity_refstate-mantle.xmf,1379,-7.51837e-06,1.0516e-05,0,9.7476e-06,-1.28014e+09,-1.27773e+09,-1.27913e+09,1.30277e+06,-0.0295622,0.247017,-0,0.24878,-10535,-45580.6,-0,46782.3,1.30277e+06
step02_gravity_refstate-mantle.xmf,1380,-1.50243e-06,1.593e-06,0,1.09118e-05,-1.14492e+09,-1.1445e+09,-1.14472e+09,1.45836e+06,-0.0761683,0.322626,-0,0.331496,-8934.4,-41421.1,-0,42373.7,1.45836e+06
step02_gravity_refstate-mantle.xmf,1381,-3.71466e-06,4.37351e-06,0,1.14994e-05,-1.18668e+09,-1.1856e+09,-1.18618e+09,1.53689e+06,-0.0635882,0.297992,-0,0.304701,-9607.43,-42703.3,-0,43770.7,1.53689e+06
step02_gravity_refstate-mantle.xmf,1382,-7.95489e-06,1.40531e-05,0,5.287e-06,-1.3524e+09,-1.34946e+09,-1.35133e+09,706608,0.0104164,0.194349,0,0.194628,-11355.3,-47818.8,-0,49148.6,706608
step02_gravity_refstate-mantle.xmf,1383,-7.89297e-06,1.28242e-05,0,6.55247e-06,-1.3235e+09,-1.32074e+09,-1.32245e+09,875738,-0.00448483,0.206616,-0,0.206665,-11346,-46923.6,-0,48275.9,875738
step02_gravity_refstate-mantle.xmf,1384,-3.20185e-06,1.49503e-05,0,-9.34337e-07,-1.46113e+09,-1.4587e+09,-1.4607e+09,-124874,0.084985,0.124299,0,0.150575,-12142.1,-51211.6,-0,52631.4,124874
step02_gravity_refstate-mantle.xmf,1385,-4.7247e-06,1.48063e-05,0,2.04605e-07,-1.43064e+09,-1.42802e+09,-1.43e+09,27345.4,0.0643132,0.137429,0,0.151733,-12192.5,-50259.1,-0,51716.9,27345.4
step02_gravity_refstate-mantle.xmf,1386,-5.93492e-06,1.44616e-05,0,1.56661e-06,-1.39986e+09,-1.39713e+09,-1.39907e+09,209378,0.0444012,0.151436,0,0.157811,-12195.2,-49299.5,-0,50785.5,209378
step02_gravity_refstate-mantle.xmf,1387,8.47006e-06,1.28756e-05,0,-1.07067e-08,-1.74328e+09,-1.74269e+09,-1.74441e+09,-1430.95,0.208944,-9.79331e-19,0,0.208944,-12551.5,-60000,-0,61298.8,1430.95
step02_gravity_refstate-mantle.xmf,1388,8.08644e-06,1.28901e-05,0,-8.79415e-07,-1.69159e+09,-1.69095e+09,-1.69267e+09,-117534,0.204445,0.0207572,0,0.205496,-12510.4,-58400.9,-0,59725.8,117534
step02_gravity_refstate-mantle.xmf,1389,7.67202e-06,1.23225e-05,0,-1.48795e-06,-1.66201e+09,-1.66139e+09,-1.66304e+09,-198864,0.195807,0.0312938,0,0.198291,-12713.4,-57483,-0,58872.1,198864
step02_gravity_refstate-mantle.xmf,1390,6.84795e-06,1.22172e-05,0,-2.05707e-06,-1.63199e+09,-1.63127e+09,-1.6329e+09,-274927,0.185152,0.0422563,0,0.189912,-12788.2,-56549.6,-0,57977.5,274927
step02_gravity_refstate-mantle.xmf,1391,5.74317e-06,1.22652e-05,0,-2.52469e-06,-1.60281e+09,-1.60194e+09,-1.60357e+09,-337425,0.172306,0.0529107,0,0.180247,-12844,-55641,-0,57104.2,337425
step02_gravity_refstate-mantle.xmf,1392,4.32588e-06,1.24684e-05,0,-2.84032e-06,-1.57307e+09,-1.57198e+09,-1.57365e+09,-379609,0.157005,0.0640106,0,0.169552,-12881.5,-54713.4,-0,56209.4,379609
step02_gravity_refstate-mantle.xmf,1393,2.64045e-06,1.27767e-05,0,-2.92202e-06,-1.54261e+09,-1.54126e+09,-1.54297e+09,-390528,0.139391,0.0756325,0,0.158588,-12914.6,-53762.2,-0,55291.6,390528
step02_gravity_refstate-mantle.xmf,1394,7.52397e-07,1.31708e-05,0,-2.6796e-06,-1.51133e+09,-1.50967e+09,-1.51143e+09,-358129,0.119885,0.0882677,0,0.148875,-12920.5,-52784.4,-0,54342.7,358129
step02_gravity_refstate-mantle.xmf,1395,-8.22651e-07,5.31899e-07,0,8.46125e-06,-1.09885e+09,-1.09867e+09,-1.09874e+09,1.13085e+06,-0.0899352,0.323013,-0,0.3353,-8968.72,-40000,-0,40993.1,1.13085e+06
step02_gravity_refstate-mantle.xmf,1396,-6.43565e-06,8.61554e-06,0,1.03633e-05,-1.24879e+09,-1.24678e+09,-1.24793e+09,1.38506e+06,-0.0410864,0.258134,-0,0.261383,-10474.8,-44614.6,-0,45827.8,1.38506e+06
step02_gravity_refstate-mantle.xmf,1397,-1.93701e-06,1.92645e-06,0,9.43678e-06,-1.12492e+09,-1.1244e+09,-1.12466e+09,1.26123e+06,-0.0809892,0.30807,-0,0.318538,-9462.99,-40801.2,-0,41884.2,1.26123e+06
step02_gravity_refstate-mantle.xmf,1398,-3.11599e-06,3.48995e-06,0,1.02213e-05,-1.15571e+09,-1.15483e+09,-1.1553e+09,1.36608e+06,-0.07115,0.294231,-0,0.302711,-9851.78,-41748.6,-0,42895.2,1.36608e+06
step02_gravity_refstate-mantle.xmf,1399,-5.16499e-06,6.53771e-06,0,1.07252e-05,-1.21204e+09,-1.21048e+09,-1.21135e+09,1.43342e+06,-0.0536738,0.273208,-0,0.27843,-10265,-43482.8,-0,44678,1.43342e+06
step02_gravity_refstate-mantle.xmf,1400,-7.45805e-06,1.13796e-05,0,7.59857e-06,-1.29407e+09,-1.29155e+09,-1.29307e+09,1.01555e+06,-0.0178416,0.217754,-0,0.218483,-11341.1,-46013.6,-0,47390.6,1.01555e+06
step02_gravity_refstate-mantle.xmf,1401,-6.70805e-06,1.38486e-05,0,2.97067e-06,-1.36967e+09,-1.36692e+09,-1.36877e+09,397029,0.0262368,0.16509,0,0.167161,-12180.7,-48360.1,-0,49870.5,397029
step02_gravity_refstate-mantle.xmf,1402,8.66157e-06,1.15757e-05,0,-5.58131e-07,-1.71631e+09,-1.71592e+09,-1.71746e+09,-74594.3,0.203367,0.00971961,0,0.203599,-13052.3,-59164.8,-0,60587.4,74594.3
step02_gravity_refstate-mantle.xmf,1403,-1.1355e-06,1.35111e-05,0,-2.09196e-06,-1.47994e+09,-1.47798e+09,-1.47979e+09,-279590,0.0994723,0.101418,0,0.142058,-12919.1,-51802.9,-0,53389.5,279590
step02_gravity_refstate-mantle.xmf,1404,-6.89407e-06,9.92896e-06,0,8.33492e-06,-1.26389e+09,-1.26164e+09,-1.26297e+09,1.11396e+06,-0.0300443,0.228265,-0,0.230234,-11320.3,-45081.3,-0,46480.9,1.11396e+06
step02_gravity_refstate-mantle.xmf,1405,-4.30001e-06,5.21182e-06,0,1.00674e-05,-1.18061e+09,-1.17934e+09,-1.18004e+09,1.3455e+06,-0.0620779,0.274541,-0,0.281472,-10406.6,-42514.2,-0,43769.3,1.3455e+06
step02_gravity_refstate-mantle.xmf,1406,-7.07426e-06,1.29667e-05,0,4.30938e-06,-1.33922e+09,-1.33654e+09,-1.33828e+09,575949,0.0095998,0.178083,0,0.178341,-12167.8,-47414.9,-0,48951.3,575949
step02_gravity_refstate-mantle.xmf,1407,-7.0762e-06,1.18885e-05,0,5.44581e-06,-1.30924e+09,-1.3067e+09,-1.30829e+09,727832,-0.00506272,0.189745,-0,0.189813,-12162.5,-46486,-0,48050.7,727832
step02_gravity_refstate-mantle.xmf,1408,-2.86636e-06,1.36164e-05,0,-1.18571e-06,-1.44718e+09,-1.44498e+09,-1.4468e+09,-158471,0.078215,0.114435,0,0.138611,-12970.3,-50779.6,-0,52409.9,158471
step02_gravity_refstate-mantle.xmf,1409,-4.246e-06,1.35258e-05,0,-7.95766e-08,-1.41594e+09,-1.41356e+09,-1.41537e+09,-10635.4,0.0585545,0.127217,0,0.140045,-12995.4,-49805,-0,51472.5,10635.4
step02_gravity_refstate-mantle.xmf,1410,-5.27339e-06,1.32258e-05,0,1.12827e-06,-1.38573e+09,-1.38326e+09,-1.38502e+09,150793,0.0404614,0.139836,0,0.145572,-12994.9,-48864.3,-0,50562.7,150793
step02_gravity_refstate-mantle.xmf,1411,8.97401e-06,1.05267e-05,0,-1.2423e-08,-1.74336e+09,-1.74316e+09,-1.74456e+09,-1660.33,0.200312,-7.84631e-19,0,0.200312,-13541.2,-60000,-0,61509.1,1660.33
step02_gravity_refstate-mantle.xmf,1412,8.51914e-06,1.0446e-05,0,-1.24655e-06,-1.686e+09,-1.68574e+09,-1.68713e+09,-166602,0.194703,0.0186749,0,0.195597,-13554,-58224.6,-0,59781.4,166602
step02_gravity_refstate-mantle.xmf,1413,7.76109e-06,1.04839e-05,0,-1.96273e-06,-1.6509e+09,-1.65053e+09,-1.65193e+09,-262318,0.185675,0.029924,0,0.188071,-13600.1,-57135.4,-0,58731.8,262318
step02_gravity_refstate-mantle.xmf,1414,6.76428e-06,1.06176e-05,0,-2.53124e-06,-1.61955e+09,-1.61903e+09,-1.62045e+09,-338300,0.174501,0.0399804,0,0.179022,-13641.4,-56160.8,-0,57793.8,338300
step02_gravity_refstate-mantle.xmf,1415,5.50614e-06,1.08669e-05,0,-2.95257e-06,-1.58887e+09,-1.58815e+09,-1.58961e+09,-394611,0.16109,0.0500209,0,0.168677,-13673.1,-55205.3,-0,56873.4,394611
step02_gravity_refstate-mantle.xmf,1416,4.01368e-06,1.12273e-05,0,-3.17124e-06,-1.55829e+09,-1.55733e+09,-1.55883e+09,-423836,0.145686,0.0604225,0,0.157719,-13690.2,-54251.8,-0,55952.4,423836
step02_gravity_refstate-mantle.xmf,1417,2.34433e-06,1.16365e-05,0,-3.13628e-06,-1.52735e+09,-1.5261e+09,-1.52766e+09,-419163,0.128426,0.0712859,0,0.146884,-13709,-53285.7,-0,55020.9,419163
step02_gravity_refstate-mantle.xmf,1418,5.8702e-07,1.20044e-05,0,-2.80831e-06,-1.49537e+09,-1.49385e+09,-1.49545e+09,-375331,0.109447,0.0825866,0,0.13711,-13750.4,-52287.3,-0,54065.1,375331
step02_gravity_refstate-mantle.xmf,1419,-2.61803e-06,2.26282e-06,0,7.85559e-06,-1.0991e+09,-1.09845e+09,-1.09875e+09,1.0499e+06,-0.0881199,0.294092,-0,0.30701,-10028,-40000,-0,41237.9,1.0499e+06
step02_gravity_refstate-mantle.xmf,1420,-5.99738e-06,8.18824e-06,0,8.90272e-06,-1.22999e+09,-1.2281e+09,-1.22919e+09,1.18985e+06,-0.0425165,0.239859,-0,0.243598,-11245.5,-44035.8,-0,45449,1.18985e+06
step02_gravity_refstate-mantle.xmf,1421,-3.44519e-06,3.56463e-06,0,8.46322e-06,-1.12746e+09,-1.12652e+09,-1.127e+09,1.13111e+06,-0.0773168,0.277349,-0,0.287925,-10555.5,-40873.8,-0,42214.8,1.13111e+06
step02_gravity_refstate-mantle.xmf,1422,-4.39855e-06,5.21853e-06,0,8.65533e-06,-1.16001e+09,-1.15873e+09,-1.15943e+09,1.15678e+06,-0.0651509,0.257818,-0,0.265923,-11113.3,-41877.3,-0,43326.8,1.15678e+06
step02_gravity_refstate-mantle.xmf,1423,-5.18635e-06,6.67411e-06,0,8.96902e-06,-1.19597e+09,-1.19438e+09,-1.19528e+09,1.19871e+06,-0.0537747,0.249251,-0,0.254986,-11187.9,-42986.4,-0,44418.5,1.19871e+06
step02_gravity_refstate-mantle.xmf,1424,-6.75801e-06,1.0619e-05,0,6.38086e-06,-1.27857e+09,-1.27625e+09,-1.27767e+09,852803,-0.0184129,0.200332,-0,0.201176,-12165.4,-45537.6,-0,47134.6,852803
step02_gravity_refstate-mantle.xmf,1425,-5.95843e-06,1.26894e-05,0,2.36006e-06,-1.3554e+09,-1.35291e+09,-1.3546e+09,315422,0.0235291,0.152213,0,0.154021,-12988.2,-47921.4,-0,49650.3,315422
step02_gravity_refstate-mantle.xmf,1426,9.02747e-06,9.50244e-06,0,-6.20258e-07,-1.71701e+09,-1.71694e+09,-1.71821e+09,-82897.4,0.194608,0.0077925,0,0.194764,-14048.6,-59183.5,-0,60828,82897.4
step02_gravity_refstate-mantle.xmf,1427,-1.09018e-06,1.22616e-05,0,-2.18661e-06,-1.46315e+09,-1.46137e+09,-1.46301e+09,-292240,0.0899128,0.0941337,0,0.130175,-13798.6,-51281.3,-0,53105.3,292240
step02_gravity_refstate-mantle.xmf,1428,-6.33394e-06,9.28728e-06,0,7.07119e-06,-1.24588e+09,-1.24379e+09,-1.24503e+09,945065,-0.0313792,0.211186,-0,0.213505,-12134,-44527.2,-0,46150.9,945065
step02_gravity_refstate-mantle.xmf,1429,-6.28946e-06,1.19212e-05,0,3.48316e-06,-1.32492e+09,-1.32249e+09,-1.32408e+09,465524,0.00805392,0.163572,0,0.16377,-13000.5,-46975.8,-0,48741.6,465524
step02_gravity_refstate-mantle.xmf,1430,-6.34835e-06,1.09796e-05,0,4.46538e-06,-1.2941e+09,-1.29178e+09,-1.29325e+09,596798,-0.00615194,0.174197,-0,0.174306,-13013.3,-46020.8,-0,47825.3,596798
step02_gravity_refstate-mantle.xmf,1431,-2.58624e-06,1.23881e-05,0,-1.31278e-06,-1.43115e+09,-1.42915e+09,-1.43081e+09,-175453,0.0706743,0.106112,0,0.127494,-13821.4,-50283.2,-0,52148.2,175453
step02_gravity_refstate-mantle.xmf,1432,-4.75483e-06,1.21385e-05,0,8.503e-07,-1.37063e+09,-1.36837e+09,-1.36999e+09,113643,0.0358369,0.130787,0,0.135608,-13743.9,-48398.6,-0,50312.2,113643
step02_gravity_refstate-mantle.xmf,1433,-3.78859e-06,1.23383e-05,0,-2.93298e-07,-1.40061e+09,-1.39845e+09,-1.4001e+09,-39199.3,0.0528088,0.118057,0,0.12933,-13813.1,-49331.5,-0,51228.9,39199.3
step02_gravity_refstate-mantle.xmf,1434,9.23101e-06,8.59993e-06,0,-1.2397e-08,-1.74347e+09,-1.74355e+09,-1.7447e+09,-1656.86,0.190886,-6.14878e-19,0,0.190886,-14576.4,-60000,-0,61745.2,1656.86
step02_gravity_refstate-mantle.xmf,1435,8.42559e-06,8.91039e-06,0,-1.71405e-06,-1.66897e+09,-1.66891e+09,-1.6701e+09,-229082,0.183608,0.0204584,0,0.184744,-14441.6,-57694.2,-0,59474.2,229082
step02_gravity_refstate-mantle.xmf,1436,7.61639e-06,9.07872e-06,0,-2.35246e-06,-1.63755e+09,-1.63735e+09,-1.63856e+09,-314407,0.174886,0.0291661,0,0.177302,-14466.8,-56718.5,-0,58534.4,314407
step02_gravity_refstate-mantle.xmf,1437,6.50458e-06,9.33508e-06,0,-2.88761e-06,-1.60523e+09,-1.60485e+09,-1.6061e+09,-385928,0.163101,0.0381998,0,0.167515,-14509.4,-55713.5,-0,57571.8,385928
step02_gravity_refstate-mantle.xmf,1438,5.15907e-06,9.70695e-06,0,-3.23672e-06,-1.57334e+09,-1.57273e+09,-1.57402e+09,-432588,0.149264,0.0475029,0,0.15664,-14534.5,-54720.2,-0,56617.6,432588
step02_gravity_refstate-mantle.xmf,1439,3.67253e-06,1.01574e-05,0,-3.3567e-06,-1.54242e+09,-1.54155e+09,-1.54291e+09,-448623,0.134156,0.057105,0,0.145804,-14535,-53756.4,-0,55686.8,448623
step02_gravity_refstate-mantle.xmf,1440,2.10735e-06,1.0565e-05,0,-3.23452e-06,-1.51143e+09,-1.5103e+09,-1.51171e+09,-432294,0.117562,0.0666746,0,0.135153,-14580.7,-52789.6,-0,54766.2,432294
step02_gravity_refstate-mantle.xmf,1441,5.19929e-07,1.08723e-05,0,-2.85213e-06,-1.4788e+09,-1.47742e+09,-1.47887e+09,-381188,0.0993455,0.0767384,0,0.125532,-14655.2,-51772.1,-0,53806.4,381188
step02_gravity_refstate-mantle.xmf,1442,-4.01809e-06,3.69447e-06,0,7.1021e-06,-1.09928e+09,-1.09825e+09,-1.09875e+09,949195,-0.0845198,0.265893,-0,0.279003,-11115.2,-40000,-0,41515.6,949195
step02_gravity_refstate-mantle.xmf,1443,-5.71252e-06,7.85653e-06,0,7.51495e-06,-1.21259e+09,-1.21077e+09,-1.21182e+09,1.00437e+06,-0.0434832,0.22146,-0,0.225689,-12077.1,-43499.2,-0,45144.7,1.00437e+06
step02_gravity_refstate-mantle.xmf,1444,-4.49609e-06,4.77986e-06,0,7.35685e-06,-1.12792e+09,-1.12668e+09,-1.12732e+09,983243,-0.0729039,0.248948,-0,0.259403,-11640.7,-40884.2,-0,42509.1,983243
step02_gravity_refstate-mantle.xmf,1445,-5.21285e-06,6.6628e-06,0,7.56205e-06,-1.1801e+09,-1.17852e+09,-1.17941e+09,1.01067e+06,-0.0544496,0.229998,-0,0.236356,-12027.3,-42496.1,-0,44165.4,1.01067e+06
step02_gravity_refstate-mantle.xmf,1446,-6.15616e-06,9.85743e-06,0,5.31739e-06,-1.26181e+09,-1.25967e+09,-1.26098e+09,710669,-0.0197074,0.184645,-0,0.185694,-13011,-45021.8,-0,46864.2,710669
step02_gravity_refstate-mantle.xmf,1447,-5.34119e-06,1.16637e-05,0,1.91338e-06,-1.34047e+09,-1.33819e+09,-1.33975e+09,255723,0.0201763,0.141799,0,0.143227,-13752.2,-47461.6,-0,49413.9,255723
step02_gravity_refstate-mantle.xmf,1448,8.89581e-06,8.7235e-06,0,-1.11109e-06,-1.69561e+09,-1.69563e+09,-1.6968e+09,-148497,0.187958,0.0129212,0,0.188402,-14513.2,-58519.8,-0,60292.6,148497
step02_gravity_refstate-mantle.xmf,1449,9.19232e-06,7.81171e-06,0,-6.20859e-07,-1.71826e+09,-1.71844e+09,-1.71949e+09,-82977.8,0.185242,0.00611095,0,0.185343,-15086.1,-59219,-0,61110.4,82977.8
step02_gravity_refstate-mantle.xmf,1450,-1.00257e-06,1.11481e-05,0,-2.21017e-06,-1.44622e+09,-1.4446e+09,-1.44609e+09,-295390,0.0809936,0.0876355,0,0.119331,-14680.3,-50756.2,-0,52836.6,295390
step02_gravity_refstate-mantle.xmf,1451,-5.90571e-06,8.72464e-06,0,5.9089e-06,-1.22836e+09,-1.22641e+09,-1.22757e+09,789725,-0.0326098,0.194857,-0,0.197567,-12984.7,-43987.4,-0,45863.9,789725
step02_gravity_refstate-mantle.xmf,1452,-4.92788e-06,5.80137e-06,0,7.24222e-06,-1.15215e+09,-1.15071e+09,-1.15149e+09,967922,-0.0630087,0.233445,-0,0.241798,-12103.2,-41632.2,-0,43355.9,967922
step02_gravity_refstate-mantle.xmf,1453,-5.6023e-06,1.10121e-05,0,2.70225e-06,-1.31193e+09,-1.3097e+09,-1.31118e+09,361156,0.00698115,0.149814,0,0.149976,-13851.7,-46576.6,-0,48592.7,361156
step02_gravity_refstate-mantle.xmf,1454,-5.7253e-06,1.0136e-05,0,3.59797e-06,-1.27882e+09,-1.2767e+09,-1.27805e+09,480868,-0.00745213,0.159927,-0,0.1601,-13885.9,-45550.8,-0,47620.4,480868
step02_gravity_refstate-mantle.xmf,1455,-2.33222e-06,1.12538e-05,0,-1.3712e-06,-1.41357e+09,-1.41175e+09,-1.41325e+09,-183261,0.0628447,0.0987949,0,0.117089,-14699.5,-49738.8,-0,51865.4,183261
step02_gravity_refstate-mantle.xmf,1456,-4.41127e-06,1.08258e-05,0,8.45605e-07,-1.34103e+09,-1.33899e+09,-1.34044e+09,113015,0.0250929,0.124042,0,0.126555,-14691.9,-47483.1,-0,49704.1,113015
step02_gravity_refstate-mantle.xmf,1457,-3.46923e-06,1.11806e-05,0,-3.57398e-07,-1.37979e+09,-1.37784e+09,-1.37933e+09,-47766.3,0.0446917,0.110694,0,0.119375,-14695,-48687.8,-0,50857.1,47766.3
step02_gravity_refstate-mantle.xmf,1458,9.31109e-06,7.0108e-06,0,-1.93159e-08,-1.74358e+09,-1.74389e+09,-1.74483e+09,-2581.57,0.180838,-6.22495e-19,0,0.180838,-15660.2,-60000,-0,62010,2581.57
step02_gravity_refstate-mantle.xmf,1459,8.89085e-06,7.5218e-06,0,-1.3256e-06,-1.68803e+09,-1.68822e+09,-1.68922e+09,-177166,0.179722,0.012914,0,0.180186,-15309.8,-58282.6,-0,60259.9,177166
step02_gravity_refstate-mantle.xmf,1460,8.26309e-06,7.6597e-06,0,-2.03086e-06,-1.65618e+09,-1.65626e+09,-1.65728e+09,-271424,0.173058,0.0203467,0,0.17425,-15345.6,-57294.8,-0,59314.2,271424
step02_gravity_refstate-mantle.xmf,1461,7.32778e-06,7.91352e-06,0,-2.6603e-06,-1.62276e+09,-1.62268e+09,-1.62373e+09,-355550,0.163322,0.028311,0,0.165757,-15381.9,-56256.7,-0,58321.7,355550
step02_gravity_refstate-mantle.xmf,1462,3.35538e-06,9.4064e-06,0,-3.44687e-06,-1.52768e+09,-1.52687e+09,-1.52813e+09,-460674,0.124131,0.0546422,0,0.135625,-15275.5,-53297,-0,55442.9,460674
step02_gravity_refstate-mantle.xmf,1463,6.12372e-06,8.29936e-06,0,-3.13434e-06,-1.58913e+09,-1.58883e+09,-1.58994e+09,-418904,0.151125,0.0367348,0,0.155526,-15398.4,-55210.8,-0,57317.9,418904
step02_gravity_refstate-mantle.xmf,1464,4.73668e-06,8.76803e-06,0,-3.39831e-06,-1.55612e+09,-1.55559e+09,-1.55676e+09,-454184,0.137115,0.045521,0,0.144474,-15401.2,-54183.3,-0,56329.6,454184
step02_gravity_refstate-mantle.xmf,1465,2.0892e-06,9.47616e-06,0,-3.29869e-06,-1.49693e+09,-1.49595e+09,-1.49721e+09,-440870,0.1079,0.0610121,0,0.123955,-15558.8,-52339.1,-0,54602.7,440870
step02_gravity_refstate-mantle.xmf,1466,4.44093e-07,9.91855e-06,0,-2.81747e-06,-1.46167e+09,-1.46041e+09,-1.46173e+09,-376555,0.0896537,0.0718415,0,0.114887,-15544.3,-51239.9,-0,53545.8,376555
step02_gravity_refstate-mantle.xmf,1467,-5.02365e-06,4.80798e-06,0,6.27327e-06,-1.09941e+09,-1.0981e+09,-1.09874e+09,838422,-0.079463,0.238821,-0,0.251694,-12234.4,-40000,-0,41829.2,838422
step02_gravity_refstate-mantle.xmf,1468,-5.52849e-06,7.54467e-06,0,6.27244e-06,-1.19472e+09,-1.19298e+09,-1.19398e+09,838311,-0.0446527,0.204268,-0,0.209091,-12943.5,-42947.9,-0,44855.9,838311
step02_gravity_refstate-mantle.xmf,1469,-5.15609e-06,5.66983e-06,0,6.28777e-06,-1.12928e+09,-1.12783e+09,-1.12859e+09,840361,-0.0673539,0.223147,-0,0.23309,-12703.2,-40924,-0,42850.3,840361
step02_gravity_refstate-mantle.xmf,1470,-5.31357e-06,6.59809e-06,0,6.28888e-06,-1.16166e+09,-1.16007e+09,-1.16095e+09,840509,-0.0557312,0.211912,-0,0.219118,-12924.8,-41925.7,-0,43872.7,840509
step02_gravity_refstate-mantle.xmf,1471,-5.66867e-06,9.164e-06,0,4.36267e-06,-1.24479e+09,-1.24281e+09,-1.24403e+09,583070,-0.0211581,0.170035,-0,0.171346,-13888.1,-44497.7,-0,46614.6,583070
step02_gravity_refstate-mantle.xmf,1472,9.17395e-06,6.31158e-06,0,-7.79858e-07,-1.71215e+09,-1.71254e+09,-1.71338e+09,-104228,0.174313,0.00617898,0,0.174423,-16223.2,-59026.4,-0,61215.3,104228
step02_gravity_refstate-mantle.xmf,1473,-8.60207e-07,1.01081e-05,0,-2.21007e-06,-1.42917e+09,-1.4277e+09,-1.42905e+09,-295376,0.0726689,0.0813906,0,0.109111,-15596.6,-50227.6,-0,52593.4,295376
step02_gravity_refstate-mantle.xmf,1474,-5.59215e-06,8.22264e-06,0,4.8804e-06,-1.21063e+09,-1.20878e+09,-1.20988e+09,652266,-0.0339421,0.179689,-0,0.182866,-13865.5,-43440.4,-0,45599.6,652266
step02_gravity_refstate-mantle.xmf,1475,-4.96643e-06,1.01287e-05,0,1.99661e-06,-1.29948e+09,-1.29746e+09,-1.29882e+09,266847,0.00610269,0.136674,0,0.13681,-14741.9,-46194.2,-0,48489.5,266847
step02_gravity_refstate-mantle.xmf,1476,-5.20978e-06,9.3432e-06,0,2.86079e-06,-1.26212e+09,-1.26018e+09,-1.26143e+09,382345,-0.00938379,0.147118,-0,0.147417,-14786.4,-45036.6,-0,47401.8,382345
step02_gravity_refstate-mantle.xmf,1477,-2.1279e-06,1.02322e-05,0,-1.3785e-06,-1.39443e+09,-1.39278e+09,-1.39414e+09,-184236,0.0547921,0.0925102,0,0.107519,-15590.4,-49146.4,-0,51559.9,184236
step02_gravity_refstate-mantle.xmf,1478,-3.1746e-06,1.01287e-05,0,-4.20009e-07,-1.35809e+09,-1.35631e+09,-1.35766e+09,-56134.2,0.0368591,0.103865,0,0.110211,-15603.6,-48016.5,-0,50488.2,56134.2
step02_gravity_refstate-mantle.xmf,1479,9.25132e-06,5.7105e-06,0,-1.29367e-08,-1.7437e+09,-1.74418e+09,-1.74494e+09,-1728.99,0.170301,-4.04253e-19,0,0.170301,-16795.3,-60000,-0,62306.4,1728.99
step02_gravity_refstate-mantle.xmf,1480,8.69647e-06,6.46631e-06,0,-1.61087e-06,-1.67542e+09,-1.67572e+09,-1.67658e+09,-215293,0.169646,0.013492,0,0.170182,-16216.7,-57889,-0,60117.6,215293
step02_gravity_refstate-mantle.xmf,1481,7.96936e-06,6.63832e-06,0,-2.2978e-06,-1.64176e+09,-1.64194e+09,-1.64283e+09,-307100,0.161857,0.0201623,0,0.163108,-16284.6,-56844.8,-0,59131.4,307100
step02_gravity_refstate-mantle.xmf,1482,6.96398e-06,6.96411e-06,0,-2.87206e-06,-1.60729e+09,-1.60729e+09,-1.60822e+09,-383850,0.15159,0.0273277,0,0.154033,-16321.4,-55774.2,-0,58113.2,383850
step02_gravity_refstate-mantle.xmf,1483,3.99628e-06,8.12725e-06,0,-3.45497e-06,-1.53135e+09,-1.53079e+09,-1.53188e+09,-461757,0.122311,0.0456978,0,0.130569,-16240.4,-53411.3,-0,55825.8,461757
step02_gravity_refstate-mantle.xmf,1484,5.67982e-06,7.42936e-06,0,-3.28038e-06,-1.57138e+09,-1.57115e+09,-1.57214e+09,-438423,0.138675,0.0353568,0,0.143111,-16330.4,-54657.5,-0,57044.9,438423
step02_gravity_refstate-mantle.xmf,1485,1.5777e-06,8.87892e-06,0,-3.14607e-06,-1.47483e+09,-1.47385e+09,-1.47504e+09,-420473,0.0955619,0.0602618,0,0.112976,-16296.1,-51651.2,-0,54161,420473
step02_gravity_refstate-mantle.xmf,1486,7.27259e-07,8.80424e-06,0,-2.84395e-06,-1.44886e+09,-1.44778e+09,-1.44896e+09,-380094,0.0826351,0.0644446,0,0.104793,-16607.6,-50843.3,-0,53486.9,380094
step02_gravity_refstate-mantle.xmf,1487,-5.66544e-06,5.6269e-06,0,5.42111e-06,-1.09948e+09,-1.09797e+09,-1.09872e+09,724532,-0.0732827,0.21319,-0,0.225434,-13389.8,-40000,-0,42181.6,724532
step02_gravity_refstate-mantle.xmf,1488,-5.45483e-06,7.27398e-06,0,5.17752e-06,-1.17638e+09,-1.17468e+09,-1.17565e+09,691976,-0.0458215,0.188099,-0,0.1936,-13855.3,-42381,-0,44588.3,691976
step02_gravity_refstate-mantle.xmf,1489,-5.52416e-06,6.49129e-06,0,5.17733e-06,-1.13722e+09,-1.13561e+09,-1.13648e+09,691951,-0.0583492,0.195283,-0,0.203814,-13908.7,-41168.9,-0,43454.9,691951
step02_gravity_refstate-mantle.xmf,1490,-5.30847e-06,8.55779e-06,0,3.56914e-06,-1.2276e+09,-1.22575e+09,-1.22689e+09,477015,-0.022876,0.157294,-0,0.158949,-14754.1,-43967.5,-0,46376.9,477015
step02_gravity_refstate-mantle.xmf,1491,-3.98372e-06,9.80724e-06,0,5.97139e-07,-1.31999e+09,-1.31815e+09,-1.31946e+09,79807.6,0.019154,0.115617,0,0.117193,-15608.2,-46833.5,-0,49365.9,79807.6
step02_gravity_refstate-mantle.xmf,1492,9.09992e-06,5.11869e-06,0,-6.09319e-07,-1.71853e+09,-1.71906e+09,-1.71975e+09,-81435.5,0.163824,0.00400602,0,0.163873,-17418.9,-59219.9,-0,61728.6,81435.5
step02_gravity_refstate-mantle.xmf,1493,-7.35904e-07,9.16319e-06,0,-2.17948e-06,-1.41107e+09,-1.40975e+09,-1.41097e+09,-291287,0.0644224,0.0756665,0,0.0993764,-16549.3,-49667.1,-0,52351.7,291287
step02_gravity_refstate-mantle.xmf,1494,2.75684e-06,8.30822e-06,0,-3.36755e-06,-1.49937e+09,-1.49863e+09,-1.49974e+09,-450073,0.106808,0.0518159,0,0.118713,-16507.8,-52415.9,-0,54953.9,450073
step02_gravity_refstate-mantle.xmf,1495,-5.38497e-06,7.7879e-06,0,4.01009e-06,-1.19249e+09,-1.19073e+09,-1.19177e+09,535948,-0.0353698,0.165965,-0,0.169692,-14764.4,-42880.6,-0,45351.2,535948
step02_gravity_refstate-mantle.xmf,1496,-4.50614e-06,9.27734e-06,0,1.52153e-06,-1.28164e+09,-1.2798e+09,-1.28104e+09,203352,0.00275311,0.126526,0,0.126556,-15636.6,-45643.9,-0,48248.1,203352
step02_gravity_refstate-mantle.xmf,1497,-4.82231e-06,8.65912e-06,0,2.25828e-06,-1.24507e+09,-1.24327e+09,-1.24442e+09,301819,-0.0115788,0.136029,-0,0.136521,-15676.3,-44510.6,-0,47190.5,301819
step02_gravity_refstate-mantle.xmf,1498,-1.91365e-06,9.27697e-06,0,-1.39151e-06,-1.37451e+09,-1.37302e+09,-1.37426e+09,-185975,0.047073,0.0863028,0,0.0983059,-16539.7,-48530.2,-0,51271.2,185975
step02_gravity_refstate-mantle.xmf,1499,-2.88973e-06,9.20589e-06,0,-5.14483e-07,-1.33727e+09,-1.33566e+09,-1.33689e+09,-68760.7,0.0300668,0.0972261,0,0.101769,-16524.5,-47373.1,-0,50172.4,68760.7
step02_gravity_refstate-mantle.xmf,1500,8.87415e-06,5.5898e-06,0,-1.2552e-06,-1.69067e+09,-1.69111e+09,-1.69186e+09,-167758,0.164954,0.00907976,0,0.165204,-17009.7,-58359.1,-0,60787.4,167758
step02_gravity_refstate-mantle.xmf,1501,9.10044e-06,4.6438e-06,0,-1.85504e-08,-1.74382e+09,-1.74442e+09,-1.74504e+09,-2479.26,0.159387,-4.02787e-19,0,0.159387,-17984.9,-60000,-0,62637.5,2479.26
step02_gravity_refstate-mantle.xmf,1502,8.39732e-06,5.59369e-06,0,-1.86341e-06,-1.66088e+09,-1.66125e+09,-1.662e+09,-249045,0.158946,0.0139616,0,0.159558,-17155.8,-57435.5,-0,59942.9,249045
step02_gravity_refstate-mantle.xmf,1503,7.62979e-06,5.78086e-06,0,-2.47936e-06,-1.62743e+09,-1.62768e+09,-1.62845e+09,-331367,0.150545,0.0195809,0,0.151813,-17264.2,-56397.6,-0,58980.9,331367
step02_gravity_refstate-mantle.xmf,1504,6.57024e-06,6.15812e-06,0,-2.9961e-06,-1.5913e+09,-1.59136e+09,-1.59218e+09,-400429,0.139729,0.0261416,0,0.142153,-17309.3,-55275.6,-0,57922.4,400429
step02_gravity_refstate-mantle.xmf,1505,2.30641e-06,7.9226e-06,0,-3.27386e-06,-1.48049e+09,-1.47974e+09,-1.4808e+09,-437552,0.0966643,0.0517617,0,0.109651,-17105.7,-51828.6,-0,54578.4,437552
step02_gravity_refstate-mantle.xmf,1506,3.75772e-06,7.24681e-06,0,-3.418e-06,-1.51464e+09,-1.51418e+09,-1.51515e+09,-456816,0.110965,0.0422128,0,0.118723,-17304.3,-52891.5,-0,55650.3,456816
step02_gravity_refstate-mantle.xmf,1507,5.23821e-06,6.68047e-06,0,-3.33002e-06,-1.55316e+09,-1.55296e+09,-1.55386e+09,-445057,0.126334,0.0337845,0,0.130774,-17311.6,-54089.7,-0,56792.5,445057
step02_gravity_refstate-mantle.xmf,1508,5.86241e-07,8.05638e-06,0,-2.71427e-06,-1.42814e+09,-1.42715e+09,-1.42822e+09,-362762,0.0724447,0.0610867,0,0.0947619,-17548.1,-50200.4,-0,53179.1,362762
step02_gravity_refstate-mantle.xmf,1509,-5.99038e-06,6.20311e-06,0,4.5631e-06,-1.0995e+09,-1.09787e+09,-1.0987e+09,609858,-0.0663161,0.189233,-0,0.200517,-14585.2,-40000,-0,42576.1,609858
step02_gravity_refstate-mantle.xmf,1510,-5.46434e-06,7.11689e-06,0,4.30038e-06,-1.16165e+09,-1.15997e+09,-1.16092e+09,574746,-0.0459404,0.173839,-0,0.179807,-14724.7,-41925.7,-0,44436.2,574746
step02_gravity_refstate-mantle.xmf,1511,-5.06292e-06,8.05802e-06,0,2.9331e-06,-1.21116e+09,-1.20941e+09,-1.21049e+09,392009,-0.0245285,0.146441,-0,0.148481,-15581.1,-43460.1,-0,46168.8,392009
step02_gravity_refstate-mantle.xmf,1512,-3.61628e-06,8.92313e-06,0,3.44206e-07,-1.2995e+09,-1.29783e+09,-1.29902e+09,46003.1,0.0139132,0.107538,0,0.108434,-16549.4,-46200.9,-0,49075.5,46003.1
step02_gravity_refstate-mantle.xmf,1513,8.70928e-06,4.7831e-06,0,-1.32929e-06,-1.68516e+09,-1.68568e+09,-1.68632e+09,-177659,0.156029,0.00855711,0,0.156263,-17943.3,-58185.5,-0,60889.4,177659
step02_gravity_refstate-mantle.xmf,1514,8.89044e-06,4.18672e-06,0,-6.97602e-07,-1.71308e+09,-1.71371e+09,-1.71427e+09,-93234.5,0.152788,0.00399539,0,0.15284,-18607.7,-59047.7,-0,61910.2,93234.5
step02_gravity_refstate-mantle.xmf,1515,-6.40513e-07,8.32361e-06,0,-2.12366e-06,-1.39182e+09,-1.39062e+09,-1.39173e+09,-283828,0.056241,0.0706086,0,0.0902697,-17523.7,-49070.8,-0,52105.9,283828
step02_gravity_refstate-mantle.xmf,1516,1.69986e-06,7.70409e-06,0,-3.08373e-06,-1.45758e+09,-1.45678e+09,-1.45781e+09,-412140,0.0854172,0.0531362,0,0.100596,-17633.1,-51116.2,-0,54072.1,412140
step02_gravity_refstate-mantle.xmf,1517,-5.65984e-06,6.76361e-06,0,4.02649e-06,-1.13238e+09,-1.13072e+09,-1.13162e+09,538141,-0.052508,0.170804,-0,0.178693,-15225.1,-41019.1,-0,43753.5,538141
step02_gravity_refstate-mantle.xmf,1518,-5.28137e-06,7.35119e-06,0,3.2639e-06,-1.17199e+09,-1.17031e+09,-1.17129e+09,436220,-0.0371334,0.153257,-0,0.157691,-15728.4,-42246.9,-0,45079.8,436220
step02_gravity_refstate-mantle.xmf,1519,-4.13899e-06,8.50856e-06,0,1.11308e-06,-1.26234e+09,-1.26065e+09,-1.26179e+09,148763,-0.000853323,0.117136,-0,0.117139,-16581.4,-45048.3,-0,48003.1,148763
step02_gravity_refstate-mantle.xmf,1520,-4.53236e-06,8.08133e-06,0,1.76405e-06,-1.2286e+09,-1.22691e+09,-1.22799e+09,235765,-0.0135729,0.126251,-0,0.126978,-16552.8,-44002.3,-0,47012.8,235765
step02_gravity_refstate-mantle.xmf,1521,-1.73378e-06,8.43327e-06,0,-1.39822e-06,-1.35409e+09,-1.35273e+09,-1.35386e+09,-186872,0.0397317,0.0806201,0,0.0898789,-17509.7,-47898.3,-0,50998.4,186872
step02_gravity_refstate-mantle.xmf,1522,-2.62948e-06,8.3684e-06,0,-6.26119e-07,-1.3161e+09,-1.31463e+09,-1.31575e+09,-83680.9,0.0238045,0.0905256,0,0.0936031,-17512.8,-46718.7,-0,49893.3,83680.9
step02_gravity_refstate-mantle.xmf,1523,8.93201e-06,3.77005e-06,0,-3.20354e-09,-1.74393e+09,-1.74462e+09,-1.74513e+09,-428.154,0.148174,2.39913e-19,0,0.148174,-19232,-60000,-0,63006.9,428.154
step02_gravity_refstate-mantle.xmf,1524,8.12817e-06,4.77548e-06,0,-1.97718e-06,-1.65031e+09,-1.65076e+09,-1.6514e+09,-264250,0.148282,0.0132599,0,0.148874,-18200.4,-57105.3,-0,59935.5,264250
step02_gravity_refstate-mantle.xmf,1525,7.27062e-06,5.03542e-06,0,-2.58561e-06,-1.61309e+09,-1.61339e+09,-1.61406e+09,-345567,0.139037,0.0186581,0,0.140283,-18313.9,-55950.4,-0,58871.4,345567
step02_gravity_refstate-mantle.xmf,1526,6.15384e-06,5.4776e-06,0,-3.05047e-06,-1.57425e+09,-1.57435e+09,-1.57508e+09,-407696,0.127716,0.0249233,0,0.130125,-18345.6,-54744.4,-0,57736.6,407696
step02_gravity_refstate-mantle.xmf,1527,3.14965e-06,6.70827e-06,0,-3.30342e-06,-1.48823e+09,-1.48775e+09,-1.48865e+09,-441503,0.0967784,0.0416745,0,0.10537,-18274.7,-52070.2,-0,55184,441503
step02_gravity_refstate-mantle.xmf,1528,4.79396e-06,6.02071e-06,0,-3.30906e-06,-1.53322e+09,-1.53305e+09,-1.53386e+09,-442256,0.113709,0.0322385,0,0.118191,-18359.1,-53469.1,-0,56533.2,442256
step02_gravity_refstate-mantle.xmf,1529,1.85191e-06,6.98712e-06,0,-3.04514e-06,-1.44853e+09,-1.44784e+09,-1.44877e+09,-406983,0.0800191,0.0485523,0,0.0935969,-18516.1,-50835.8,-0,54102.9,406983
step02_gravity_refstate-mantle.xmf,1530,5.93105e-07,7.32454e-06,0,-2.62299e-06,-1.4101e+09,-1.40921e+09,-1.41018e+09,-350562,0.0641246,0.0568888,0,0.0857222,-18549.3,-49641.4,-0,52993.8,350562
step02_gravity_refstate-mantle.xmf,1531,-6.03638e-06,6.52548e-06,0,3.76091e-06,-1.09949e+09,-1.09781e+09,-1.09868e+09,502645,-0.0588566,0.167107,-0,0.177169,-15824.5,-40000,-0,43016.5,502645
step02_gravity_refstate-mantle.xmf,1532,-4.85887e-06,7.65696e-06,0,2.32665e-06,-1.19717e+09,-1.1955e+09,-1.19652e+09,310956,-0.0249676,0.135257,-0,0.137542,-16466.8,-43028.3,-0,46071.5,310956
step02_gravity_refstate-mantle.xmf,1533,-3.3328e-06,8.15099e-06,0,1.21855e-07,-1.27817e+09,-1.27663e+09,-1.27772e+09,16286,0.0088443,0.0999844,0,0.100375,-17536,-45541.8,-0,48801.2,16286
step02_gravity_refstate-mantle.xmf,1534,8.61813e-06,3.0594e-06,0,-1.56827e-08,-1.74406e+09,-1.7448e+09,-1.74521e+09,-2095.99,0.13673,-2.97226e-19,0,0.13673,-20539.9,-60000,-0,63418.4,2095.99
step02_gravity_refstate-mantle.xmf,1535,8.70328e-06,3.3896e-06,0,-7.08197e-07,-1.70962e+09,-1.71033e+09,-1.71078e+09,-94650.6,0.141342,0.00361622,0,0.141388,-19888,-58937.5,-0,62202.5,94650.6
step02_gravity_refstate-mantle.xmf,1536,8.45082e-06,3.9737e-06,0,-1.40324e-06,-1.67738e+09,-1.67798e+09,-1.67851e+09,-187543,0.144961,0.00800161,0,0.145182,-19115.8,-57941.6,-0,61013.5,187543
step02_gravity_refstate-mantle.xmf,1537,-5.73474e-07,7.56837e-06,0,-2.05494e-06,-1.37131e+09,-1.37022e+09,-1.37123e+09,-274643,0.0481691,0.0659342,0,0.0816553,-18546.2,-48435.7,-0,51865,274643
step02_gravity_refstate-mantle.xmf,1538,-5.50167e-06,6.9218e-06,0,3.07184e-06,-1.13481e+09,-1.13315e+09,-1.13408e+09,410551,-0.0449471,0.149648,-0,0.156252,-16445,-41095.9,-0,44264.1,410551
step02_gravity_refstate-mantle.xmf,1539,-3.90929e-06,7.84409e-06,0,8.26902e-07,-1.24037e+09,-1.2388e+09,-1.23985e+09,110515,-0.00516874,0.109395,-0,0.109517,-17534.5,-44369.4,-0,47708.6,110515
step02_gravity_refstate-mantle.xmf,1540,-4.42341e-06,7.51871e-06,0,1.50004e-06,-1.20395e+09,-1.20236e+09,-1.20336e+09,200481,-0.0181965,0.119518,-0,0.120895,-17428.4,-43240.3,-0,46620.6,200481
step02_gravity_refstate-mantle.xmf,1541,-4.96275e-06,7.22482e-06,0,2.26241e-06,-1.16964e+09,-1.16801e+09,-1.16898e+09,302372,-0.0312273,0.133156,-0,0.136769,-17024.3,-42176,-0,45482.3,302372
step02_gravity_refstate-mantle.xmf,1542,-1.57556e-06,7.67816e-06,0,-1.40792e-06,-1.33322e+09,-1.33198e+09,-1.33301e+09,-188169,0.0328639,0.0750875,0,0.0819644,-18535.6,-47252.7,-0,50758.1,188169
step02_gravity_refstate-mantle.xmf,1543,-2.4166e-06,7.64517e-06,0,-7.31292e-07,-1.29499e+09,-1.29364e+09,-1.29466e+09,-97737.1,0.018162,0.0841053,0,0.0860439,-18545.3,-46066,-0,49658.9,97737.1
step02_gravity_refstate-mantle.xmf,1544,8.38051e-06,2.7621e-06,0,-6.46884e-07,-1.70964e+09,-1.71039e+09,-1.71076e+09,-86456,0.130108,0.00294868,0,0.130141,-21206.6,-58934.4,-0,62633.7,86456
step02_gravity_refstate-mantle.xmf,1545,7.79861e-06,4.05967e-06,0,-2.06563e-06,-1.63786e+09,-1.63836e+09,-1.6389e+09,-276071,0.136741,0.0125488,0,0.137316,-19349.7,-56716.6,-0,59926.5,276071
step02_gravity_refstate-mantle.xmf,1546,6.85971e-06,4.42716e-06,0,-2.65107e-06,-1.59679e+09,-1.59712e+09,-1.59771e+09,-354315,0.127131,0.0178417,0,0.128377,-19412.2,-55442.7,-0,58742.9,354315
step02_gravity_refstate-mantle.xmf,1547,5.69864e-06,4.90841e-06,0,-3.05034e-06,-1.55503e+09,-1.55514e+09,-1.55579e+09,-407678,0.115275,0.0238336,0,0.117713,-19442.2,-54146.1,-0,57530.9,407678
step02_gravity_refstate-mantle.xmf,1548,4.38643e-06,5.43827e-06,0,-3.22574e-06,-1.51292e+09,-1.51278e+09,-1.51351e+09,-431121,0.101463,0.0305381,0,0.105959,-19467.7,-52837.8,-0,56310.1,431121
step02_gravity_refstate-mantle.xmf,1549,3.05298e-06,5.92504e-06,0,-3.17273e-06,-1.47145e+09,-1.47106e+09,-1.47186e+09,-424036,0.0864735,0.0376315,0,0.094307,-19521.2,-51549.1,-0,55121.6,424036
step02_gravity_refstate-mantle.xmf,1550,5.1756e-07,6.68093e-06,0,-2.48699e-06,-1.38845e+09,-1.38763e+09,-1.38852e+09,-332387,0.0549722,0.0534439,0,0.0766693,-19614.4,-48970.3,-0,52752.4,332387
step02_gravity_refstate-mantle.xmf,1551,1.74055e-06,6.33889e-06,0,-2.91003e-06,-1.42952e+09,-1.4289e+09,-1.42975e+09,-388925,0.0706058,0.0452283,0,0.0838497,-19595.1,-50246.1,-0,53931.8,388925
step02_gravity_refstate-mantle.xmf,1552,8.32971e-06,2.48325e-06,0,-1.35885e-08,-1.74417e+09,-1.74495e+09,-1.74528e+09,-1816.1,0.125102,-2.39404e-19,0,0.125102,-21911.9,-60000,-0,63875.9,1816.1
step02_gravity_refstate-mantle.xmf,1553,-5.85795e-06,6.65173e-06,0,3.01278e-06,-1.09944e+09,-1.09777e+09,-1.09865e+09,402658,-0.0511951,0.146901,-0,0.155566,-17111.7,-40000,-0,43506.4,402658
step02_gravity_refstate-mantle.xmf,1554,-3.13079e-06,7.4958e-06,0,-5.4319e-08,-1.25612e+09,-1.2547e+09,-1.2557e+09,-7259.73,0.00407167,0.0930671,0,0.0931562,-18561.9,-44860.4,-0,48548.9,7259.73
step02_gravity_refstate-mantle.xmf,1555,8.13796e-06,3.21717e-06,0,-1.43613e-06,-1.66833e+09,-1.66899e+09,-1.66942e+09,-191938,0.132229,0.00730556,0,0.13243,-20512.3,-57658,-0,61198,191938
step02_gravity_refstate-mantle.xmf,1556,-5.60647e-07,6.93991e-06,0,-1.96595e-06,-1.34992e+09,-1.34892e+09,-1.34985e+09,-262749,0.04041,0.0620283,0,0.0740303,-19562.6,-47773.6,-0,51623.7,262749
step02_gravity_refstate-mantle.xmf,1557,8.10366e-06,2.2503e-06,0,-5.72402e-07,-1.71007e+09,-1.71085e+09,-1.71115e+09,-76501.5,0.118787,0.00237703,0,0.118811,-22581.7,-58944.6,-0,63122.1,76501.5
step02_gravity_refstate-mantle.xmf,1558,-5.17645e-06,6.8834e-06,0,2.22923e-06,-1.13575e+09,-1.13414e+09,-1.13506e+09,297937,-0.0376925,0.130285,-0,0.135628,-17748.8,-41127,-0,44793.4,297937
step02_gravity_refstate-mantle.xmf,1559,-3.80674e-06,7.28319e-06,0,6.5378e-07,-1.21511e+09,-1.21363e+09,-1.2146e+09,87377.7,-0.0100356,0.103088,-0,0.103575,-18509.5,-43588.4,-0,47355.6,87377.7
step02_gravity_refstate-mantle.xmf,1560,-4.46607e-06,7.03985e-06,0,1.38406e-06,-1.17395e+09,-1.17242e+09,-1.17336e+09,184980,-0.0237911,0.114652,-0,0.117094,-18312.6,-42312.1,-0,46105,184980
step02_gravity_refstate-mantle.xmf,1561,-1.44249e-06,7.04454e-06,0,-1.41784e-06,-1.31323e+09,-1.3121e+09,-1.31304e+09,-189494,0.0269054,0.0698875,0,0.0748877,-19577.6,-46634.6,-0,50577.3,189494
step02_gravity_refstate-mantle.xmf,1562,-2.22397e-06,7.02046e-06,0,-8.31143e-07,-1.27482e+09,-1.27359e+09,-1.27452e+09,-111082,0.0134815,0.0777345,0,0.0788949,-19637.7,-45442.9,-0,49504.5,111082
step02_gravity_refstate-mantle.xmf,1563,8.03391e-06,2.628e-06,0,-1.14198e-06,-1.67877e+09,-1.67949e+09,-1.67984e+09,-152625,0.123205,0.00517513,0,0.123314,-21767.1,-57978.1,-0,61929.5,152625
step02_gravity_refstate-mantle.xmf,1564,7.36634e-06,3.52907e-06,0,-2.16596e-06,-1.62113e+09,-1.62165e+09,-1.62212e+09,-289480,0.124574,0.0122264,0,0.125172,-20529.7,-56195.6,-0,59828.2,289480
step02_gravity_refstate-mantle.xmf,1565,6.39663e-06,3.94601e-06,0,-2.68029e-06,-1.57784e+09,-1.57817e+09,-1.5787e+09,-358220,0.114826,0.0172209,0,0.11611,-20553.1,-54852.9,-0,58577,358220
step02_gravity_refstate-mantle.xmf,1566,5.26958e-06,4.42012e-06,0,-2.99308e-06,-1.5353e+09,-1.53541e+09,-1.536e+09,-400025,0.103112,0.0226646,0,0.105573,-20591.1,-53532.5,-0,57356.1,400025
step02_gravity_refstate-mantle.xmf,1567,4.06083e-06,4.90626e-06,0,-3.10119e-06,-1.49328e+09,-1.49317e+09,-1.49382e+09,-414474,0.090015,0.0286177,0,0.0944547,-20636.2,-52227.6,-0,56156.7,414474
step02_gravity_refstate-mantle.xmf,1568,2.80401e-06,5.37733e-06,0,-3.01268e-06,-1.45061e+09,-1.45027e+09,-1.45099e+09,-402644,0.0757216,0.035269,0,0.0835325,-20681.1,-50902.4,-0,54943.3,402644
step02_gravity_refstate-mantle.xmf,1569,3.52104e-07,6.1781e-06,0,-2.31449e-06,-1.36416e+09,-1.36338e+09,-1.36421e+09,-309332,0.0456949,0.0511544,0,0.0685915,-20642.8,-48217.6,-0,52450.6,309332
step02_gravity_refstate-mantle.xmf,1570,1.54653e-06,5.80501e-06,0,-2.73896e-06,-1.40705e+09,-1.40648e+09,-1.40726e+09,-366061,0.0606396,0.04276,0,0.0741996,-20702.8,-49549.6,-0,53700.7,366061
step02_gravity_refstate-mantle.xmf,1571,8.03136e-06,2.01512e-06,0,-2.07952e-08,-1.74427e+09,-1.74508e+09,-1.74535e+09,-2779.28,0.11333,-2.7171e-19,0,0.11333,-23351.3,-60000,-0,64383.9,2779.28
step02_gravity_refstate-mantle.xmf,1572,-5.50337e-06,6.61567e-06,0,2.34349e-06,-1.09936e+09,-1.09774e+09,-1.09863e+09,313207,-0.0435804,0.128652,-0,0.135833,-18450.5,-40000,-0,44050.2,313207
step02_gravity_refstate-mantle.xmf,1573,-3.00266e-06,6.95367e-06,0,-1.70372e-07,-1.2332e+09,-1.23187e+09,-1.2328e+09,-22770.3,-0.000359798,0.0869022,-0,0.0869029,-19623.7,-44151.8,-0,48316.4,22770.3
step02_gravity_refstate-mantle.xmf,1574,7.62768e-06,2.83708e-06,0,-1.6921e-06,-1.64455e+09,-1.64519e+09,-1.64557e+09,-226149,0.119983,0.00817404,0,0.120261,-21661.2,-56918.9,-0,60901.3,226149
step02_gravity_refstate-mantle.xmf,1575,-6.13784e-07,6.48855e-06,0,-1.85957e-06,-1.32915e+09,-1.32821e+09,-1.32907e+09,-248531,0.0334704,0.0593593,0,0.0681454,-20458.7,-47130.6,-0,51379.5,248531
step02_gravity_refstate-mantle.xmf,1576,7.79517e-06,2.28396e-06,0,-1.16717e-06,-1.67154e+09,-1.67227e+09,-1.67258e+09,-155993,0.114665,0.00498806,0,0.114773,-22759,-57752.2,-0,62074.9,155993
step02_gravity_refstate-mantle.xmf,1577,7.77194e-06,1.85443e-06,0,-7.14911e-07,-1.6971e+09,-1.69789e+09,-1.69814e+09,-95547.9,0.107107,0.00270771,0,0.107141,-23970.3,-58540.7,-0,63258.1,95547.9
step02_gravity_refstate-mantle.xmf,1578,-4.6924e-06,6.72195e-06,0,1.48044e-06,-1.13869e+09,-1.13717e+09,-1.13806e+09,197860,-0.0301787,0.112623,-0,0.116597,-19103.5,-41220.5,-0,45432.1,197860
step02_gravity_refstate-mantle.xmf,1579,-3.74661e-06,6.73283e-06,0,5.21279e-07,-1.18503e+09,-1.18363e+09,-1.18453e+09,69669,-0.0147251,0.0962173,-0,0.0973375,-19714.7,-42658.2,-0,46993.5,69669
step02_gravity_refstate-mantle.xmf,1580,-1.2033e-06,6.44e-06,0,-1.48468e-06,-1.29737e+09,-1.29634e+09,-1.29721e+09,-198428,0.0230067,0.0634695,0,0.0675106,-20758.7,-46144.6,-0,50598.9,198428
step02_gravity_refstate-mantle.xmf,1581,-2.08932e-06,6.50273e-06,0,-8.76036e-07,-1.2546e+09,-1.25345e+09,-1.25432e+09,-117082,0.00927262,0.0721949,0,0.072788,-20742.9,-44817.7,-0,49385.2,117082
step02_gravity_refstate-mantle.xmf,1582,5.9474e-06,3.5506e-06,0,-2.65731e-06,-1.5582e+09,-1.55852e+09,-1.559e+09,-355149,0.102766,0.0165633,0,0.104092,-21731.2,-54242.3,-0,58433.5,355149
step02_gravity_refstate-mantle.xmf,1583,6.89552e-06,3.1432e-06,0,-2.24288e-06,-1.60149e+09,-1.60199e+09,-1.60241e+09,-299760,0.112485,0.0121318,0,0.113137,-21689.4,-55584.7,-0,59666.5,299760
step02_gravity_refstate-mantle.xmf,1584,4.88078e-06,4.00296e-06,0,-2.89236e-06,-1.51549e+09,-1.51561e+09,-1.51614e+09,-386564,0.0914888,0.0214667,0,0.0939735,-21780.6,-52916.9,-0,57224,386564
step02_gravity_refstate-mantle.xmf,1585,3.74493e-06,4.47311e-06,0,-2.95213e-06,-1.47295e+09,-1.47285e+09,-1.47345e+09,-394552,0.0791439,0.0269941,0,0.0836208,-21811.4,-51596.3,-0,56017.1,394552
step02_gravity_refstate-mantle.xmf,1586,2.5357e-06,4.93448e-06,0,-2.83371e-06,-1.42827e+09,-1.42795e+09,-1.42861e+09,-378725,0.0653252,0.033407,0,0.0733717,-21848.5,-50209.3,-0,54757,378725
step02_gravity_refstate-mantle.xmf,1587,-6.1057e-08,5.82787e-06,0,-2.0349e-06,-1.32971e+09,-1.32892e+09,-1.3297e+09,-271964,0.0340752,0.0510323,0,0.061363,-21664,-47149.7,-0,51888.5,271964
step02_gravity_refstate-mantle.xmf,1588,1.28711e-06,5.37513e-06,0,-2.53657e-06,-1.38132e+09,-1.38078e+09,-1.38149e+09,-339013,0.0504681,0.0410303,0,0.0650424,-21834.9,-48752,-0,53418.3,339013
step02_gravity_refstate-mantle.xmf,1589,7.72358e-06,1.64675e-06,0,-1.40564e-08,-1.74437e+09,-1.74518e+09,-1.7454e+09,-1878.64,0.101424,-1.99621e-19,0,0.101424,-24862,-60000,-0,64947,1878.64
step02_gravity_refstate-mantle.xmf,1590,-5.02198e-06,6.45373e-06,0,1.75982e-06,-1.09927e+09,-1.09774e+09,-1.0986e+09,235199,-0.0362329,0.112351,-0,0.118049,-19844.8,-40000,-0,44652.2,235199
step02_gravity_refstate-mantle.xmf,1591,-2.84005e-06,6.51246e-06,0,-2.81051e-07,-1.21547e+09,-1.21422e+09,-1.21509e+09,-37562.4,-0.00275077,0.0808616,-0,0.0809084,-20655.7,-43604,-0,48249,37562.4
step02_gravity_refstate-mantle.xmf,1592,7.20318e-06,2.52906e-06,0,-1.80248e-06,-1.62593e+09,-1.62656e+09,-1.6269e+09,-240901,0.10891,0.00835901,0,0.10923,-22786.7,-56340.2,-0,60773.8,240901
step02_gravity_refstate-mantle.xmf,1593,7.41992e-06,2.08571e-06,0,-1.37372e-06,-1.65047e+09,-1.65118e+09,-1.65146e+09,-183597,0.105293,0.00570248,0,0.105447,-23709,-57098.5,-0,61825.1,183597
step02_gravity_refstate-mantle.xmf,1594,7.47523e-06,1.4856e-06,0,-5.62621e-07,-1.70136e+09,-1.70216e+09,-1.70236e+09,-75194.2,0.0944641,0.00198255,0,0.094485,-25654.7,-58669.2,-0,64033.2,75194.2
step02_gravity_refstate-mantle.xmf,1595,-4.14184e-06,6.44329e-06,0,8.82387e-07,-1.13966e+09,-1.13825e+09,-1.13911e+09,117931,-0.0236137,0.0972863,-0,0.100111,-20528.5,-41253.4,-0,46078.9,117931
step02_gravity_refstate-mantle.xmf,1596,-1.09356e-06,5.96278e-06,0,-1.46145e-06,-1.27942e+09,-1.27848e+09,-1.27927e+09,-195323,0.0186663,0.0589113,0,0.0617978,-21872.6,-45589.8,-0,50565.2,195323
step02_gravity_refstate-mantle.xmf,1597,-3.21139e-06,6.27849e-06,0,6.0114e-08,-1.17917e+09,-1.1779e+09,-1.17874e+09,8034.24,-0.0109022,0.0827518,-0,0.0834669,-21267.1,-42479.8,-0,47506,8034.24
step02_gravity_refstate-mantle.xmf,1598,-2.0976e-06,6.05474e-06,0,-7.87784e-07,-1.22695e+09,-1.22586e+09,-1.22667e+09,-105287,0.00367596,0.068327,0,0.0684258,-21928.5,-43962.5,-0,49128,105287
step02_gravity_refstate-mantle.xmf,1599,5.52744e-06,3.22042e-06,0,-2.58714e-06,-1.53831e+09,-1.53862e+09,-1.53905e+09,-345772,0.0910771,0.0158565,0,0.0924471,-22957.5,-53624.1,-0,58331.8,345772
step02_gravity_refstate-mantle.xmf,1600,6.44193e-06,2.81968e-06,0,-2.25854e-06,-1.58157e+09,-1.58205e+09,-1.58243e+09,-301853,0.10055,0.011885,0,0.10125,-22900.5,-54965.5,-0,59545.3,301853
step02_gravity_refstate-mantle.xmf,1601,4.5103e-06,3.66732e-06,0,-2.76297e-06,-1.49506e+09,-1.49517e+09,-1.49566e+09,-369270,0.080426,0.0204414,0,0.0829831,-22984.1,-52282.5,-0,57111.5,369270
step02_gravity_refstate-mantle.xmf,1602,3.42426e-06,4.11795e-06,0,-2.7799e-06,-1.45112e+09,-1.45103e+09,-1.45158e+09,-371534,0.0685374,0.0256528,0,0.0731808,-23026.5,-50919.1,-0,55883.6,371534
step02_gravity_refstate-mantle.xmf,1603,2.27395e-06,4.56633e-06,0,-2.63752e-06,-1.4051e+09,-1.40479e+09,-1.4054e+09,-352504,0.0554966,0.0317905,0,0.0639571,-23054,-49490.8,-0,54597,352504
step02_gravity_refstate-mantle.xmf,1604,1.09179e-06,4.99145e-06,0,-2.33787e-06,-1.35688e+09,-1.35636e+09,-1.35702e+09,-312456,0.0416261,0.0390664,0,0.0570869,-23033.9,-47994.5,-0,53235.6,312456
step02_gravity_refstate-mantle.xmf,1605,7.30749e-06,1.75534e-06,0,-1.16242e-06,-1.65757e+09,-1.65831e+09,-1.65854e+09,-155358,0.0973541,0.00448245,0,0.0974572,-24881.6,-57316.1,-0,62483.8,155358
step02_gravity_refstate-mantle.xmf,1606,7.42816e-06,1.3585e-06,0,-1.50312e-08,-1.74446e+09,-1.74527e+09,-1.74545e+09,-2008.92,0.0894114,-1.73753e-19,0,0.0894114,-26447.5,-60000,-0,65570.4,2008.92
step02_gravity_refstate-mantle.xmf,1607,-4.45439e-06,6.19728e-06,0,1.26592e-06,-1.09917e+09,-1.09775e+09,-1.09858e+09,169191,-0.0293385,0.0979571,-0,0.102256,-21297.9,-40000,-0,45316.6,169191
step02_gravity_refstate-mantle.xmf,1608,6.8522e-06,2.16737e-06,0,-1.76501e-06,-1.61235e+09,-1.61298e+09,-1.61327e+09,-235893,0.0970061,0.00776938,0,0.0973167,-24199.3,-55917.4,-0,60929.2,235893
step02_gravity_refstate-mantle.xmf,1609,-2.83834e-08,5.32385e-06,0,-1.90224e-06,-1.30766e+09,-1.30695e+09,-1.30766e+09,-254234,0.0275444,0.0469123,0,0.0544009,-23046.8,-46467.7,-0,51869,254234
step02_gravity_refstate-mantle.xmf,1610,7.10423e-06,1.4731e-06,0,-1.01449e-06,-1.6595e+09,-1.66025e+09,-1.66045e+09,-135587,0.0876044,0.00369139,0,0.0876821,-26255.5,-57373.6,-0,63095.8,135587
step02_gravity_refstate-mantle.xmf,1611,7.19707e-06,1.23367e-06,0,-5.12482e-07,-1.69939e+09,-1.70019e+09,-1.70035e+09,-68493.2,0.0828662,0.00173166,0,0.0828843,-27224.3,-58606,-0,64620.6,68493.2
step02_gravity_refstate-mantle.xmf,1612,-3.54571e-06,6.08221e-06,0,4.20835e-07,-1.13952e+09,-1.13823e+09,-1.13905e+09,56244.6,-0.0178276,0.0839777,-0,0.0858492,-22035.9,-41252.2,-0,46768.8,56244.6
step02_gravity_refstate-mantle.xmf,1613,-1.00367e-06,5.54145e-06,0,-1.39253e-06,-1.26023e+09,-1.25935e+09,-1.26009e+09,-186111,0.0145348,0.0546642,0,0.0565635,-23094.8,-44996.4,-0,50577.1,186111
step02_gravity_refstate-mantle.xmf,1614,-2.58065e-06,5.85966e-06,0,-3.43835e-07,-1.18278e+09,-1.18165e+09,-1.18243e+09,-45953.6,-0.00585649,0.0710321,-0,0.0712731,-22691.3,-42594.3,-0,48261.5,45953.6
step02_gravity_refstate-mantle.xmf,1615,5.12254e-06,2.96353e-06,0,-2.48464e-06,-1.51758e+09,-1.51787e+09,-1.51826e+09,-332072,0.0798221,0.015266,0,0.0812688,-24208.5,-52980.4,-0,58249.2,332072
step02_gravity_refstate-mantle.xmf,1616,6.01756e-06,2.55545e-06,0,-2.21673e-06,-1.56217e+09,-1.56263e+09,-1.56297e+09,-296266,0.0888886,0.0114692,0,0.0896255,-24185.8,-54362.6,-0,59500,296266
step02_gravity_refstate-mantle.xmf,1617,4.18571e-06,3.38606e-06,0,-2.60876e-06,-1.47511e+09,-1.47521e+09,-1.47567e+09,-348660,0.0701233,0.0194388,0,0.0727677,-24223.1,-51663.3,-0,57060.1,348660
step02_gravity_refstate-mantle.xmf,1618,3.12215e-06,3.84106e-06,0,-2.59114e-06,-1.42926e+09,-1.42916e+09,-1.42967e+09,-346305,0.058784,0.0245428,0,0.0637017,-24245.2,-50241,-0,55785.2,346305
step02_gravity_refstate-mantle.xmf,1619,2.05325e-06,4.24618e-06,0,-2.42862e-06,-1.38241e+09,-1.38211e+09,-1.38268e+09,-324585,0.0466093,0.0302349,0,0.055557,-24311.1,-48787.6,-0,54509.3,324585
step02_gravity_refstate-mantle.xmf,1620,9.67594e-07,4.64126e-06,0,-2.13834e-06,-1.33418e+09,-1.33369e+09,-1.33431e+09,-285789,0.0341217,0.0369256,0,0.0502771,-24309,-47291.8,-0,53173.6,285789
step02_gravity_refstate-mantle.xmf,1621,6.85806e-06,1.77934e-06,0,-1.46216e-06,-1.62467e+09,-1.62535e+09,-1.62559e+09,-195418,0.0896265,0.00587282,0,0.0898187,-25500.7,-56297.1,-0,61803.3,195418
step02_gravity_refstate-mantle.xmf,1622,7.14595e-06,1.1363e-06,0,-1.6322e-08,-1.74454e+09,-1.74534e+09,-1.74549e+09,-2181.44,0.0772829,-1.57619e-19,0,0.0772829,-28111.9,-60000,-0,66259.2,2181.44
step02_gravity_refstate-mantle.xmf,1623,-3.83847e-06,5.87622e-06,0,8.57656e-07,-1.09906e+09,-1.09777e+09,-1.09855e+09,114626,-0.0230448,0.0853901,-0,0.0884451,-22813.7,-40000,-0,46048.5,114626
step02_gravity_refstate-mantle.xmf,1624,-1.71998e-06,5.63607e-06,0,-9.23244e-07,-1.22064e+09,-1.21965e+09,-1.22041e+09,-123392,0.00445647,0.0609563,0,0.061119,-23192,-43768.9,-0,49533.7,123392
step02_gravity_refstate-mantle.xmf,1625,-6.52954e-08,4.96842e-06,0,-1.7325e-06,-1.2856e+09,-1.28493e+09,-1.28559e+09,-231549,0.0217542,0.0442086,0,0.0492711,-24306.8,-45785,-0,51837.1,231549
step02_gravity_refstate-mantle.xmf,1626,6.31068e-06,2.04006e-06,0,-1.84917e-06,-1.58446e+09,-1.58503e+09,-1.5853e+09,-247142,0.0847467,0.00829183,0,0.0851514,-25450.6,-55052,-0,60650.2,247142
step02_gravity_refstate-mantle.xmf,1627,6.58067e-06,1.5954e-06,0,-1.42273e-06,-1.61335e+09,-1.61402e+09,-1.61423e+09,-190148,0.0802983,0.00563795,0,0.080496,-26701.3,-55945.1,-0,61990.4,190148
step02_gravity_refstate-mantle.xmf,1628,6.91598e-06,1.02807e-06,0,-4.67112e-07,-1.69568e+09,-1.69647e+09,-1.69661e+09,-62429.5,0.0702943,0.00157422,0,0.070312,-28987.4,-58489,-0,65278.1,62429.5
step02_gravity_refstate-mantle.xmf,1629,6.8008e-06,1.24846e-06,0,-9.52433e-07,-1.65085e+09,-1.65159e+09,-1.65176e+09,-127293,0.0756098,0.00341312,0,0.0756868,-27888.9,-57103.9,-0,63550.3,127293
step02_gravity_refstate-mantle.xmf,1630,6.88246e-06,9.75172e-07,0,-1.30397e-08,-1.74461e+09,-1.7454e+09,-1.74553e+09,-1742.76,0.0650243,-1.34641e-19,0,0.0650243,-29859.4,-60000,-0,67019.3,1742.76
step02_gravity_refstate-mantle.xmf,1631,-2.9019e-06,5.69702e-06,0,3.85237e-08,-1.14265e+09,-1.1415e+09,-1.14226e+09,5148.69,-0.0122568,0.072366,-0,0.0733966,-23552.6,-41352.1,-0,47589.1,5148.69
step02_gravity_refstate-mantle.xmf,1632,-1.01316e-06,5.21247e-06,0,-1.23766e-06,-1.23718e+09,-1.23635e+09,-1.23705e+09,-165413,0.0100016,0.0518505,0,0.0528063,-24313,-44283.7,-0,50519,165413
step02_gravity_refstate-mantle.xmf,1633,-1.93102e-06,5.41869e-06,0,-6.51433e-07,-1.18825e+09,-1.18727e+09,-1.188e+09,-87064,-0.00124793,0.060692,-0,0.0607048,-24174.3,-42766.7,-0,49126.2,87064
step02_gravity_refstate-mantle.xmf,1634,4.72357e-06,2.79121e-06,0,-2.37141e-06,-1.49551e+09,-1.49577e+09,-1.49614e+09,-316939,0.0693005,0.0149924,0,0.0709036,-25411.6,-52295.5,-0,58142.6,316939
step02_gravity_refstate-mantle.xmf,1635,5.56908e-06,2.37256e-06,0,-2.15368e-06,-1.53935e+09,-1.53978e+09,-1.54009e+09,-287840,0.0772232,0.0113391,0,0.0780512,-25489.1,-53654.3,-0,59401,287840
step02_gravity_refstate-mantle.xmf,1636,3.79504e-06,3.27023e-06,0,-2.48083e-06,-1.45247e+09,-1.45254e+09,-1.45297e+09,-331562,0.0608497,0.019396,0,0.0638662,-25241.7,-50960.9,-0,56869.7,331562
step02_gravity_refstate-mantle.xmf,1637,2.91878e-06,3.55094e-06,0,-2.37644e-06,-1.4095e+09,-1.40941e+09,-1.40989e+09,-317612,0.0499493,0.0230751,0,0.0550217,-25607.2,-49628.5,-0,55845.5,317612
step02_gravity_refstate-mantle.xmf,1638,1.89749e-06,3.9489e-06,0,-2.20545e-06,-1.36113e+09,-1.36086e+09,-1.36139e+09,-294759,0.0387361,0.0285353,0,0.0481118,-25676.5,-48128.7,-0,54549.6,294759
step02_gravity_refstate-mantle.xmf,1639,8.33169e-07,4.35235e-06,0,-1.90954e-06,-1.31014e+09,-1.30967e+09,-1.31025e+09,-255210,0.0270855,0.0351564,0,0.0443801,-25669.5,-46547.5,-0,53156.3,255210
step02_gravity_refstate-mantle.xmf,1640,6.68086e-06,8.92155e-07,0,-3.74743e-07,-1.69622e+09,-1.697e+09,-1.69712e+09,-50084.4,0.0583897,0.00134984,0,0.0584053,-30739.9,-58503.8,-0,66088.1,50084.4
step02_gravity_refstate-mantle.xmf,1641,6.64949e-06,8.57903e-07,0,-1.29158e-08,-1.74467e+09,-1.74544e+09,-1.74556e+09,-1726.2,0.0526099,-1.25809e-19,0,0.0526099,-31694.1,-60000,-0,67856.6,1726.2
step02_gravity_refstate-mantle.xmf,1642,-3.20626e-06,5.51824e-06,0,5.31269e-07,-1.09896e+09,-1.09779e+09,-1.09853e+09,71004.1,-0.0174628,0.0745489,-0,0.0765669,-24396.4,-40000,-0,46852.8,71004.1
step02_gravity_refstate-mantle.xmf,1643,-1.79404e-07,4.68426e-06,0,-1.49463e-06,-1.25817e+09,-1.25752e+09,-1.25814e+09,-199757,0.0155589,0.0423617,0,0.0451286,-25697.6,-44936.1,-0,51765.1,199757
step02_gravity_refstate-mantle.xmf,1644,5.90716e-06,1.87558e-06,0,-1.78826e-06,-1.56416e+09,-1.5647e+09,-1.56495e+09,-239001,0.0732523,0.00815798,0,0.0737051,-26856.3,-54421.6,-0,60687.5,239001
step02_gravity_refstate-mantle.xmf,1645,6.22801e-06,1.43428e-06,0,-1.3588e-06,-1.59652e+09,-1.59716e+09,-1.59735e+09,-181603,0.0685738,0.00549795,0,0.0687938,-28255.9,-55422.3,-0,62209.5,181603
step02_gravity_refstate-mantle.xmf,1646,6.4977e-06,1.05574e-06,0,-8.55211e-07,-1.64017e+09,-1.6409e+09,-1.64104e+09,-114299,0.0619569,0.00319365,0,0.0620391,-29838.7,-56771.7,-0,64135.5,114299
step02_gravity_refstate-mantle.xmf,1647,6.47272e-06,7.93792e-07,0,-3.15677e-07,-1.69368e+09,-1.69444e+09,-1.69455e+09,-42190.3,0.0465778,0.00126788,0,0.046595,-32526.1,-58423.8,-0,66867.6,42190.3
step02_gravity_refstate-mantle.xmf,1648,-2.2547e-06,5.29019e-06,0,-2.51009e-07,-1.14631e+09,-1.1453e+09,-1.146e+09,-33547.4,-0.00742248,0.062289,-0,0.0627297,-25153,-41468.4,-0,48500.5,33547.4
step02_gravity_refstate-mantle.xmf,1649,-1.13693e-06,4.91344e-06,0,-9.44885e-07,-1.20161e+09,-1.2008e+09,-1.20146e+09,-126284,0.00407052,0.0501699,0,0.0503347,-25849.5,-43183.3,-0,50328.9,126284
step02_gravity_refstate-mantle.xmf,1650,3.95903e-06,2.8177e-06,0,-2.22924e-06,-1.45297e+09,-1.45312e+09,-1.4535e+09,-297938,0.0552164,0.0164019,0,0.057601,-26721.5,-50976.4,-0,57555.5,297938
step02_gravity_refstate-mantle.xmf,1651,5.08336e-06,2.2603e-06,0,-2.05586e-06,-1.51243e+09,-1.51281e+09,-1.51311e+09,-274766,0.0652739,0.0114706,0,0.0662741,-26867.7,-52819.3,-0,59260,274766
step02_gravity_refstate-mantle.xmf,1652,6.79798e-07,4.13727e-06,0,-1.65588e-06,-1.28496e+09,-1.28449e+09,-1.28505e+09,-221308,0.0207428,0.0340357,0,0.0398584,-27034.4,-45767.9,-0,53156,221308
step02_gravity_refstate-mantle.xmf,1653,2.81254e-06,3.2594e-06,0,-2.1378e-06,-1.39336e+09,-1.3933e+09,-1.39374e+09,-285717,0.0422512,0.0213234,0,0.0473271,-27103,-49128.7,-0,56108.8,285717
step02_gravity_refstate-mantle.xmf,1654,1.70749e-06,3.73218e-06,0,-1.95566e-06,-1.33791e+09,-1.33764e+09,-1.33813e+09,-261374,0.0312309,0.0274289,0,0.0415657,-27076.3,-47409.4,-0,54596.5,261374
step02_gravity_refstate-mantle.xmf,1655,6.39209e-06,9.07345e-07,0,-6.14712e-07,-1.65344e+09,-1.65417e+09,-1.65429e+09,-82156.2,0.0517227,0.00243125,0,0.0517798,-31532.3,-57180.2,-0,65298.2,82156.2
step02_gravity_refstate-mantle.xmf,1656,6.45667e-06,7.71432e-07,0,-1.99779e-08,-1.74472e+09,-1.74548e+09,-1.74558e+09,-2670.05,0.0399915,-1.46818e-19,0,0.0399915,-33620.7,-60000,-0,68777.5,2670.05
step02_gravity_refstate-mantle.xmf,1657,-2.58469e-06,5.14486e-06,0,2.82401e-07,-1.09885e+09,-1.09782e+09,-1.09851e+09,37742.9,-0.0126678,0.0653202,-0,0.0665372,-26050.1,-40000,-0,47734.8,37742.9
step02_gravity_refstate-mantle.xmf,1658,-1.90998e-07,4.45136e-06,0,-1.29998e-06,-1.23773e+09,-1.23711e+09,-1.23771e+09,-173743,0.0116984,0.0405712,0,0.0422241,-26963.9,-44304.2,-0,51864.3,173743
step02_gravity_refstate-mantle.xmf,1659,5.47442e-06,1.77638e-06,0,-1.69642e-06,-1.53984e+09,-1.54034e+09,-1.54057e+09,-226727,0.0614624,0.00824715,0,0.0620133,-28351.8,-53667.4,-0,60696.1,226727
step02_gravity_refstate-mantle.xmf,1660,5.82932e-06,1.35462e-06,0,-1.28715e-06,-1.57291e+09,-1.57351e+09,-1.57369e+09,-172027,0.0565059,0.00568929,0,0.0567916,-29873.5,-54690.1,-0,62317.2,172027
step02_gravity_refstate-mantle.xmf,1661,6.02903e-06,1.06241e-06,0,-9.18005e-07,-1.60348e+09,-1.60414e+09,-1.60428e+09,-122691,0.0496038,0.00397103,0,0.0497625,-31441.1,-55634.9,-0,63904.6,122691
step02_gravity_refstate-mantle.xmf,1662,6.157e-06,8.62166e-07,0,-5.92048e-07,-1.63597e+09,-1.63668e+09,-1.63679e+09,-79127.2,0.042007,0.0026966,0,0.0420935,-32963.5,-56639,-0,65532.9,79127.2
step02_gravity_refstate-mantle.xmf,1663,6.25545e-06,7.25521e-07,0,-2.88478e-07,-1.67905e+09,-1.67979e+09,-1.67989e+09,-38555.1,0.0329397,0.00148686,0,0.0329733,-34623.4,-57970.1,-0,67522.7,38555.1
step02_gravity_refstate-mantle.xmf,1664,-1.64813e-06,4.87032e-06,0,-4.14435e-07,-1.14801e+09,-1.14714e+09,-1.14779e+09,-55389.2,-0.00375357,0.0538995,-0,0.0540301,-26880.4,-41524,-0,49465.1,55389.2
step02_gravity_refstate-mantle.xmf,1665,-6.72422e-07,4.47492e-06,0,-9.14441e-07,-1.19583e+09,-1.19514e+09,-1.19574e+09,-122215,0.00478917,0.0436844,0,0.0439462,-27758.3,-43006.7,-0,51186.9,122215
step02_gravity_refstate-mantle.xmf,1666,4.58473e-06,2.19963e-06,0,-1.89807e-06,-1.48273e+09,-1.48305e+09,-1.48335e+09,-253677,0.0532907,0.0117593,0,0.0545727,-28368.8,-51898.5,-0,59145.9,253677
step02_gravity_refstate-mantle.xmf,1667,3.55887e-06,2.67507e-06,0,-1.96171e-06,-1.42467e+09,-1.42479e+09,-1.42515e+09,-262182,0.0436946,0.0160822,0,0.0465602,-28438.3,-50099.3,-0,57607.9,262182
step02_gravity_refstate-mantle.xmf,1668,3.96747e-07,4.00888e-06,0,-1.32401e-06,-1.24954e+09,-1.24906e+09,-1.24959e+09,-176954,0.0135984,0.0342412,0,0.0368426,-28553.1,-44671.8,-0,53017.4,176954
step02_gravity_refstate-mantle.xmf,1669,1.45728e-06,3.59369e-06,0,-1.67086e-06,-1.31028e+09,-1.31e+09,-1.31048e+09,-223310,0.0238174,0.0271385,0,0.0361077,-28518.8,-46554.2,-0,54595,223310
step02_gravity_refstate-mantle.xmf,1670,2.49657e-06,3.14844e-06,0,-1.8763e-06,-1.36682e+09,-1.36673e+09,-1.36715e+09,-250768,0.0336015,0.0212105,0,0.0397359,-28513.8,-48306.3,-0,56094,250768
step02_gravity_refstate-mantle.xmf,1671,6.29808e-06,7.25866e-07,0,-1.20094e-08,-1.74476e+09,-1.7455e+09,-1.7456e+09,-1605.06,0.0270821,-1.17263e-19,0,0.0270821,-35643.8,-60000,-0,69788.8,1605.06
step02_gravity_refstate-mantle.xmf,1672,-1.99602e-06,4.77503e-06,0,1.03264e-07,-1.09876e+09,-1.09785e+09,-1.09849e+09,13801.2,-0.00870045,0.0575847,-0,0.0582383,-27779.3,-40000,-0,48700,13801.2
step02_gravity_refstate-mantle.xmf,1673,5.04028e-06,1.73655e-06,0,-1.56082e-06,-1.51299e+09,-1.51343e+09,-1.51367e+09,-208604,0.0500029,0.00854179,0,0.0507272,-29895.7,-52835,-0,60706.6,208604
step02_gravity_refstate-mantle.xmf,1674,5.40597e-06,1.35633e-06,0,-1.19476e-06,-1.54449e+09,-1.54503e+09,-1.54521e+09,-159680,0.0450241,0.00617202,0,0.0454452,-31457.8,-53809.5,-0,62330.2,159680
step02_gravity_refstate-mantle.xmf,1675,5.67163e-06,1.07127e-06,0,-8.46853e-07,-1.57658e+09,-1.5772e+09,-1.57734e+09,-113182,0.0385415,0.00445669,0,0.0387984,-33044.7,-54801.8,-0,63993.7,113182
step02_gravity_refstate-mantle.xmf,1676,5.86628e-06,8.68347e-07,0,-5.42529e-07,-1.60961e+09,-1.61028e+09,-1.6104e+09,-72509.1,0.031056,0.00319112,0,0.0312195,-34613.5,-55822.9,-0,65683.2,72509.1
step02_gravity_refstate-mantle.xmf,1677,6.1663e-06,6.73088e-07,0,-1.54804e-07,-1.68899e+09,-1.68972e+09,-1.68981e+09,-20689.6,0.0198764,0.00119072,0,0.019912,-36751,-58276.4,-0,68896.8,20689.6
step02_gravity_refstate-mantle.xmf,1678,6.20148e-06,6.99758e-07,0,-6.64052e-09,-1.74478e+09,-1.74551e+09,-1.74561e+09,-887.505,0.0138013,-1.05087e-19,0,0.0138013,-37768.5,-60000,-0,70897.5,887.505
step02_gravity_refstate-mantle.xmf,1679,-1.1267e-06,4.48384e-06,0,-4.74288e-07,-1.14734e+09,-1.14659e+09,-1.14719e+09,-63388.5,-0.00134646,0.0474053,-0,0.0474244,-28673.8,-41505.9,-0,50447.2,63388.5
step02_gravity_refstate-mantle.xmf,1680,-2.32644e-07,4.11235e-06,0,-8.80098e-07,-1.19657e+09,-1.19599e+09,-1.19654e+09,-117625,0.00568146,0.0385506,0,0.038967,-29466.3,-43031.4,-0,52153.3,117625
step02_gravity_refstate-mantle.xmf,1681,4.15884e-06,2.15839e-06,0,-1.68496e-06,-1.45465e+09,-1.45492e+09,-1.45521e+09,-225195,0.042374,0.0120285,0,0.0440481,-29947.1,-51028.1,-0,59166.7,225195
step02_gravity_refstate-mantle.xmf,1682,3.18019e-06,2.6223e-06,0,-1.69583e-06,-1.39622e+09,-1.39629e+09,-1.39664e+09,-226648,0.0340559,0.016333,0,0.03777,-29990.1,-49217.7,-0,57634.9,226648
step02_gravity_refstate-mantle.xmf,1683,1.24209e-06,3.48954e-06,0,-1.37925e-06,-1.28335e+09,-1.28305e+09,-1.28352e+09,-184337,0.0175867,0.0270926,0,0.0323001,-29996.4,-45720.5,-0,54682.2,184337
step02_gravity_refstate-mantle.xmf,1684,2.18546e-06,3.07824e-06,0,-1.58676e-06,-1.33856e+09,-1.33844e+09,-1.33886e+09,-212070,0.0255961,0.0214224,0,0.0333778,-30011.4,-47431.3,-0,56128.5,212070
step02_gravity_refstate-mantle.xmf,1685,5.97664e-06,7.54364e-07,0,-3.22927e-07,-1.63874e+09,-1.63944e+09,-1.63954e+09,-43159.2,0.0232623,0.00232792,0,0.0233785,-36070.6,-56723.2,-0,67220.6,43159.2
step02_gravity_refstate-mantle.xmf,1686,6.12587e-06,6.64578e-07,0,-5.83944e-08,-1.69334e+09,-1.69407e+09,-1.69416e+09,-7804.41,0.00973801,0.00107203,0,0.00979684,-38406.3,-58410.5,-0,69905.9,7804.41
step02_gravity_refstate-mantle.xmf,1687,6.20636e-06,6.76699e-07,0,6.58093e-09,-1.74478e+09,-1.74552e+09,-1.74561e+09,879.541,-9.50944e-19,4.52829e-19,-0,1.05326e-18,-40000,-60000,-0,72111,879.541
step02_gravity_refstate-mantle.xmf,1688,-1.46006e-06,4.42687e-06,0,-1.52684e-08,-1.09867e+09,-1.09788e+09,-1.09847e+09,-2040.62,-0.00556698,0.0512246,-0,0.0515262,-29588.3,-40000,-0,49754.1,2040.62
step02_gravity_refstate-mantle.xmf,1689,5.4081e-07,3.76215e-06,0,-1.12984e-06,-1.23863e+09,-1.2382e+09,-1.2387e+09,-151003,0.0112572,0.0319128,0,0.0338401,-30106.9,-44334.9,-0,53591.1,151003
step02_gravity_refstate-mantle.xmf,1690,4.62445e-06,1.7399e-06,0,-1.37601e-06,-1.485e+09,-1.48539e+09,-1.48562e+09,-183904,0.0391604,0.00900337,0,0.0401821,-31494.7,-51967.6,-0,60766.4,183904
step02_gravity_refstate-mantle.xmf,1691,5.00948e-06,1.39101e-06,0,-1.03833e-06,-1.51601e+09,-1.51649e+09,-1.51668e+09,-138773,0.034172,0.00674822,0,0.034832,-33097.4,-52927.1,-0,62423.6,138773
step02_gravity_refstate-mantle.xmf,1692,5.3141e-06,1.12092e-06,0,-7.13449e-07,-1.54773e+09,-1.54829e+09,-1.54844e+09,-95352.5,0.0276733,0.00507534,0,0.0281349,-34734.5,-53908.1,-0,64129.3,95352.5
step02_gravity_refstate-mantle.xmf,1693,5.55961e-06,9.23995e-07,0,-4.38833e-07,-1.58044e+09,-1.58106e+09,-1.58119e+09,-58650,0.0204758,0.00381833,0,0.0208288,-36293.4,-54919.9,-0,65828.6,58650
step02_gravity_refstate-mantle.xmf,1694,5.88763e-06,7.26323e-07,0,-1.69751e-07,-1.6333e+09,-1.63399e+09,-1.63408e+09,-22687.2,0.0117719,0.00236979,0,0.0120081,-37993.4,-56554.2,-0,68131.3,22687.2
step02_gravity_refstate-mantle.xmf,1695,6.0601e-06,6.5479e-07,0,1.82321e-09,-1.67306e+09,-1.67378e+09,-1.67387e+09,243.672,-1.15715e-18,0.00148535,-0,0.00148535,-40000,-57783.5,-0,70277.5,243.672
step02_gravity_refstate-mantle.xmf,1696,-6.54501e-07,4.14115e-06,0,-4.86819e-07,-1.1482e+09,-1.14756e+09,-1.14812e+09,-65063.4,0.000396706,0.0421231,0,0.042125,-30505.6,-41534.8,-0,51533.8,65063.4
step02_gravity_refstate-mantle.xmf,1697,1.75073e-07,3.78997e-06,0,-8.14889e-07,-1.20047e+09,-1.19998e+09,-1.20049e+09,-108910,0.00621251,0.03424,0,0.034799,-31170.8,-43153.8,-0,53234.1,108910
step02_gravity_refstate-mantle.xmf,1698,3.75685e-06,2.16341e-06,0,-1.44189e-06,-1.42589e+09,-1.4261e+09,-1.42639e+09,-192708,0.0325694,0.0125675,0,0.03491,-31521.5,-50136.8,-0,59222.5,192708
step02_gravity_refstate-mantle.xmf,1699,2.81752e-06,2.61512e-06,0,-1.41148e-06,-1.3669e+09,-1.36693e+09,-1.36728e+09,-188645,0.0255341,0.0169353,0,0.0306397,-31544.4,-48309.6,-0,57696.3,188645
step02_gravity_refstate-mantle.xmf,1700,1.00399e-06,3.43442e-06,0,-1.07352e-06,-1.2533e+09,-1.25297e+09,-1.25343e+09,-143476,0.0120189,0.0277259,0,0.0302188,-31499.9,-44790.4,-0,54757.8,143476
step02_gravity_refstate-mantle.xmf,1701,1.88366e-06,3.0458e-06,0,-1.27926e-06,-1.30892e+09,-1.30876e+09,-1.30917e+09,-170973,0.0184881,0.0220161,0,0.0287492,-31569.9,-46513.3,-0,56215.2,170973
step02_gravity_refstate-mantle.xmf,1702,-9.92897e-07,4.11673e-06,0,-8.33158e-08,-1.09859e+09,-1.09791e+09,-1.09846e+09,-11135.2,-0.00323981,0.0461321,-0,0.0462457,-31481.8,-40000,-0,50902.9,11135.2
step02_gravity_refstate-mantle.xmf,1703,4.22588e-06,1.78301e-06,0,-1.14965e-06,-1.45605e+09,-1.45638e+09,-1.45662e+09,-153651,0.0291788,0.0096808,0,0.0307428,-33126.1,-51070.8,-0,60873.4,153651
step02_gravity_refstate-mantle.xmf,1704,4.62506e-06,1.46453e-06,0,-8.34469e-07,-1.48653e+09,-1.48696e+09,-1.48715e+09,-111527,0.0241534,0.00751584,0,0.0252957,-34761,-52014.2,-0,62560.4,111527
step02_gravity_refstate-mantle.xmf,1705,4.97692e-06,1.20064e-06,0,-5.15046e-07,-1.51922e+09,-1.51972e+09,-1.51988e+09,-68835.9,0.0173676,0.00580434,0,0.0183119,-36497.6,-53025.4,-0,64372.1,68835.9
step02_gravity_refstate-mantle.xmf,1706,5.34671e-06,9.67022e-07,0,-2.26329e-07,-1.55969e+09,-1.56028e+09,-1.56041e+09,-30248.8,0.00948278,0.00428729,0,0.0104069,-38222.4,-54277.7,-0,66385.4,30248.8
step02_gravity_refstate-mantle.xmf,1707,5.67913e-06,7.97616e-07,0,-1.25008e-10,-1.60157e+09,-1.60222e+09,-1.60233e+09,-16.7073,-9.41542e-19,0.0030978,-0,0.0030978,-40000,-55573.1,-0,68471.7,16.7073
step02_gravity_refstate-mantle.xmf,1708,-1.96915e-07,3.8323e-06,0,-4.83315e-07,-1.15425e+09,-1.15372e+09,-1.15423e+09,-64595,0.001776,0.0374503,0,0.0374924,-32378.8,-41723.9,-0,52813.6,64595
step02_gravity_refstate-mantle.xmf,1709,6.4183e-07,3.46381e-06,0,-7.39235e-07,-1.21325e+09,-1.21288e+09,-1.21334e+09,-98798.7,0.00673667,0.0298227,0,0.0305741,-32987.6,-43551.1,-0,54634,98798.7
step02_gravity_refstate-mantle.xmf,1710,3.37389e-06,2.20224e-06,0,-1.16573e-06,-1.39632e+09,-1.39648e+09,-1.39677e+09,-155800,0.0236694,0.0133576,0,0.0271785,-33158.1,-49221.1,-0,59347.9,155800
step02_gravity_refstate-mantle.xmf,1711,2.4806e-06,2.63561e-06,0,-1.1068e-06,-1.33725e+09,-1.33723e+09,-1.33758e+09,-147924,0.0180324,0.0177934,0,0.0253333,-33173.4,-47391.5,-0,57848.3,147924
step02_gravity_refstate-mantle.xmf,1712,1.54758e-06,3.06781e-06,0,-9.60915e-07,-1.27541e+09,-1.2752e+09,-1.27561e+09,-128426,0.0122139,0.0233029,0,0.0263098,-33153.8,-45476,-0,56278.3,128426
step02_gravity_refstate-mantle.xmf,1713,-6.0766e-07,3.85784e-06,0,-1.1106e-07,-1.09853e+09,-1.09794e+09,-1.09845e+09,-14843.2,-0.00165291,0.0422157,-0,0.042248,-33464.7,-40000,-0,52152.5,14843.2
step02_gravity_refstate-mantle.xmf,1714,3.83339e-06,1.86445e-06,0,-8.84122e-07,-1.42573e+09,-1.42599e+09,-1.42624e+09,-118163,0.0200387,0.0106297,0,0.0226835,-34814.6,-50131.7,-0,61034.7,118163
step02_gravity_refstate-mantle.xmf,1715,4.26159e-06,1.56483e-06,0,-5.78005e-07,-1.45731e+09,-1.45767e+09,-1.45788e+09,-77250.4,0.0148847,0.00845058,0,0.0171163,-36508.4,-51109.5,-0,62809.6,77250.4
step02_gravity_refstate-mantle.xmf,1716,4.67323e-06,1.30386e-06,0,-2.65727e-07,-1.4924e+09,-1.49285e+09,-1.49302e+09,-35514.4,0.00797791,0.00664699,0,0.0103841,-38290.2,-52195.3,-0,64734,35514.4
step02_gravity_refstate-mantle.xmf,1717,5.07051e-06,1.08889e-06,0,-1.03775e-09,-1.53015e+09,-1.53069e+09,-1.53083e+09,-138.695,-7.98701e-19,0.00518499,-0,0.00518499,-40000,-53363.7,-0,66690.9,138.695
step02_gravity_refstate-mantle.xmf,1718,2.81267e-07,3.50491e-06,0,-4.25919e-07,-1.16796e+09,-1.16753e+09,-1.168e+09,-56924.1,0.00266338,0.0327201,0,0.0328283,-34600.4,-42149.6,-0,54532.4,56924.1
step02_gravity_refstate-mantle.xmf,1719,1.21517e-06,3.12457e-06,0,-6.67339e-07,-1.24133e+09,-1.24108e+09,-1.2415e+09,-89189.9,0.00737709,0.0250889,0,0.026151,-34662.8,-44421.5,-0,56345.2,89189.9
step02_gravity_refstate-mantle.xmf,1720,2.98868e-06,2.28405e-06,0,-8.73867e-07,-1.36511e+09,-1.3652e+09,-1.36551e+09,-116792,0.0158929,0.0145398,0,0.0215405,-34800.5,-48254.6,-0,59494.4,116792
step02_gravity_refstate-mantle.xmf,1721,2.09784e-06,2.71934e-06,0,-8.07746e-07,-1.30364e+09,-1.30356e+09,-1.30392e+09,-107955,0.0116581,0.0193661,0,0.0226043,-34734.7,-46350.9,-0,57921.6,107955
step02_gravity_refstate-mantle.xmf,1722,-3.53822e-07,3.65189e-06,0,-8.34738e-08,-1.09849e+09,-1.09796e+09,-1.09845e+09,-11156.3,-0.000690366,0.0394082,-0,0.0394143,-35541.8,-40000,-0,53509.1,11156.3
step02_gravity_refstate-mantle.xmf,1723,-1.25696e-07,3.51594e-06,0,-5.37387e-08,-1.09846e+09,-1.09797e+09,-1.09844e+09,-7182.18,-0.000211334,0.0376901,-0,0.0376907,-37718.5,-40000,-0,54978.9,7182.18
step02_gravity_refstate-mantle.xmf,1724,3.36364e-07,3.39699e-06,0,-2.30007e-07,-1.1548e+09,-1.1544e+09,-1.15485e+09,-30740.5,0.0013541,0.0321979,0,0.0322263,-36787.7,-41743.4,-0,55640.3,30740.5
step02_gravity_refstate-mantle.xmf,1725,3.41746e-06,1.99656e-06,0,-5.91601e-07,-1.39254e+09,-1.39273e+09,-1.393e+09,-79067.5,0.0119188,0.0120131,0,0.0169225,-36536.8,-49104.2,-0,61205.9,79067.5
step02_gravity_refstate-mantle.xmf,1726,3.85455e-06,1.72588e-06,0,-2.87638e-07,-1.4241e+09,-1.42438e+09,-1.42461e+09,-38442.8,0.00655562,0.00984751,0,0.01183,-38299.4,-50081.1,-0,63047.3,38442.8
step02_gravity_refstate-mantle.xmf,1727,4.28806e-06,1.48838e-06,0,-2.3851e-09,-1.45876e+09,-1.45914e+09,-1.45934e+09,-318.769,-6.62775e-19,0.0080313,-0,0.0080313,-40000,-51154.3,-0,64936.6,318.769
step02_gravity_refstate-mantle.xmf,1728,1.0298e-06,3.13537e-06,0,-4.12811e-07,-1.21616e+09,-1.21588e+09,-1.2163e+09,-55172.2,0.00402401,0.0262376,0,0.0265444,-36381.8,-43642.6,-0,56818.2,55172.2
step02_gravity_refstate-mantle.xmf,1729,3.37741e-07,3.3593e-06,0,-9.21899e-08,-1.14513e+09,-1.14473e+09,-1.14517e+09,-12321.2,0.000513104,0.0323767,0,0.0323808,-38552.5,-41444.4,-0,56603.3,12321.2
step02_gravity_refstate-mantle.xmf,1730,-9.12167e-08,3.48705e-06,0,1.02349e-08,-1.09845e+09,-1.09797e+09,-1.09844e+09,1367.89,-4.17764e-20,0.0370963,-0,0.0370963,-40000,-40000,-0,56568.5,1367.89
step02_gravity_refstate-mantle.xmf,1731,1.76367e-06,2.82877e-06,0,-5.64241e-07,-1.27356e+09,-1.27342e+09,-1.2738e+09,-75410.8,0.00719248,0.0211006,0,0.0222928,-36088.1,-45419.9,-0,58011.3,75410.8
step02_gravity_refstate-mantle.xmf,1732,2.5519e-06,2.4263e-06,0,-5.68628e-07,-1.32924e+09,-1.32926e+09,-1.32958e+09,-75997.1,0.00909991,0.0163728,0,0.0187317,-36489.4,-47144.1,-0,59615.7,75997.1
step02_gravity_refstate-mantle.xmf,1733,9.56648e-07,3.12894e-06,0,-1.88705e-07,-1.20229e+09,-1.202e+09,-1.20242e+09,-25220.4,0.00170799,0.0267192,0,0.0267738,-38256.3,-43213.7,-0,57714.6,25220.4
step02_gravity_refstate-mantle.xmf,1734,6.36694e-07,3.24701e-06,0,5.90809e-09,-1.17164e+09,-1.17129e+09,-1.17172e+09,789.616,-4.86007e-20,0.0294672,-0,0.0294672,-40000,-42265,-0,58192.2,789.616
step02_gravity_refstate-mantle.xmf,1735,2.92787e-06,2.19924e-06,0,-2.82016e-07,-1.35379e+09,-1.35389e+09,-1.35418e+09,-37691.4,0.0049696,0.0141171,0,0.0149663,-38308.4,-47904.3,-0,61338,37691.4
step02_gravity_refstate-mantle.xmf,1736,3.38963e-06,1.95239e-06,0,-3.64018e-09,-1.38739e+09,-1.38758e+09,-1.38784e+09,-486.51,-5.09869e-19,0.0118309,-0,0.0118309,-40000,-48944.6,-0,63210.5,486.51
step02_gravity_refstate-mantle.xmf,1737,1.88233e-06,2.70418e-06,0,-2.97636e-07,-1.27624e+09,-1.27613e+09,-1.27649e+09,-39779.1,0.00392402,0.0201081,0,0.0204874,-37936.6,-45503,-0,59242.8,39779.1
step02_gravity_refstate-mantle.xmf,1738,1.50024e-06,2.87963e-06,0,5.5162e-09,-1.24404e+09,-1.24386e+09,-1.24424e+09,737.24,-9.07876e-20,0.0225941,-0,0.0225941,-40000,-44506.4,-0,59840,737.24
step02_gravity_refstate-mantle.xmf,1739,2.43965e-06,2.43288e-06,0,-7.79852e-09,-1.31589e+09,-1.31589e+09,-1.31621e+09,-1042.27,-4.17753e-19,0.0166857,-0,0.0166857,-40000,-46730.8,-0,61512.3,1042.27
step02_gravity_refstate-intrusion.xmf,0,-6.65283e-06,8.25063e-05,0,-7.60108e-05,-1.5822e+09,-1.57605e+09,-1.58174e+09,-5.2427e+06,-0.154848,0.405548,-0,0.434105,4000,-54998.6,0,55143.8,5.2427e+06
step02_gravity_refstate-intrusion.xmf,1,-8.10888e-06,7.24932e-05,0,-8.47392e-05,-1.56649e+09,-1.56093e+09,-1.56593e+09,-5.84473e+06,-0.139425,0.444296,-0,0.465659,4000,-54498.4,0,54645,5.84473e+06
step02_gravity_refstate-intrusion.xmf,2,-9.43901e-06,6.29326e-05,0,-9.14487e-05,-1.55079e+09,-1.5458e+09,-1.55014e+09,-6.3075e+06,-0.120829,0.478038,-0,0.493072,4000,-53999.3,0,54147.3,6.3075e+06
step02_gravity_refstate-intrusion.xmf,3,-1.08545e-05,5.23949e-05,0,-9.61642e-05,-1.5351e+09,-1.53073e+09,-1.53435e+09,-6.63274e+06,-0.100179,0.506819,-0,0.516625,4000,-53499.2,0,53648.6,6.63274e+06
step02_gravity_refstate-intrusion.xmf,4,-7.73995e-06,9.16653e-05,0,-6.16865e-05,-1.59817e+09,-1.59131e+09,-1.59763e+09,-4.25471e+06,-0.165171,0.362112,-0,0.398003,4000,-55497.8,0,55641.7,4.25471e+06
step02_gravity_refstate-intrusion.xmf,5,-1.23208e-05,4.25499e-05,0,-9.90069e-05,-1.5194e+09,-1.51562e+09,-1.51855e+09,-6.82882e+06,-0.0785125,0.530505,-0,0.536283,4000,-52999.8,0,53150.5,6.82882e+06
step02_gravity_refstate-intrusion.xmf,6,-3.07466e-05,0.000122575,0,-3.66663e-05,-1.61575e+09,-1.60517e+09,-1.61363e+09,-2.52899e+06,-0.165429,0.314755,-0,0.35558,4000,-56000,0,56142.7,2.52899e+06
step02_gravity_refstate-intrusion.xmf,7,-1.3777e-05,3.24149e-05,0,-0.000100264,-1.50372e+09,-1.50054e+09,-1.50277e+09,-6.91552e+06,-0.0566059,0.549145,-0,0.552054,4000,-52500.3,0,52652.5,6.91552e+06
step02_gravity_refstate-intrusion.xmf,8,-1.5152e-05,2.25369e-05,0,-9.98095e-05,-1.488e+09,-1.4854e+09,-1.48696e+09,-6.88417e+06,-0.0352252,0.562829,-0,0.56393,4000,-52000.2,0,52153.8,6.88417e+06
step02_gravity_refstate-intrusion.xmf,9,-1.64345e-05,1.33575e-05,0,-9.7669e-05,-1.47228e+09,-1.47023e+09,-1.47115e+09,-6.73653e+06,-0.0152978,0.571664,-0,0.571869,4000,-51501.2,0,51656.3,6.73653e+06
step02_gravity_refstate-intrusion.xmf,10,-3.48789e-05,0.000167197,0,-4.74201e-05,-1.61469e+09,-1.60075e+09,-1.61228e+09,-3.27072e+06,-0.148847,0.343331,-0,0.374208,3497.18,-56000,0,56109.1,3.27072e+06
step02_gravity_refstate-intrusion.xmf,11,-1.78373e-05,4.06474e-06,0,-9.45503e-05,-1.45654e+09,-1.45503e+09,-1.45531e+09,-6.52143e+06,0.00222431,0.575946,0,0.57595,4000,-51001,0,51157.6,6.52143e+06
step02_gravity_refstate-intrusion.xmf,12,-3.83096e-05,0.000189885,0,-4.15062e-05,-1.61428e+09,-1.59854e+09,-1.61164e+09,-2.86281e+06,-0.130517,0.374105,-0,0.396218,2997.53,-56000,0,56080.2,2.86281e+06
step02_gravity_refstate-intrusion.xmf,13,-1.74138e-05,-2.65022e-06,0,-8.81439e-05,-1.44056e+09,-1.43955e+09,-1.43936e+09,-6.07956e+06,0.0157906,0.576117,0,0.576333,4000,-50501.8,0,50659.9,6.07956e+06
step02_gravity_refstate-intrusion.xmf,14,-4.10019e-05,0.000205089,0,-3.3894e-05,-1.61405e+09,-1.59708e+09,-1.61122e+09,-2.33778e+06,-0.110681,0.400837,-0,0.415837,2497.35,-56000,0,56055.7,2.33778e+06
step02_gravity_refstate-intrusion.xmf,15,-4.29089e-05,0.000215615,0,-2.63711e-05,-1.61389e+09,-1.59606e+09,-1.61093e+09,-1.81889e+06,-0.0897043,0.422655,-0,0.43207,1997.54,-56000,0,56035.6,1.81889e+06
step02_gravity_refstate-intrusion.xmf,16,7.5589e-06,-2.29641e-05,0,-7.1684e-05,-1.42244e+09,-1.42455e+09,-1.42296e+09,-4.94427e+06,0.0224785,0.574634,0,0.575073,4000,-50000,0,50159.7,4.94427e+06
step02_gravity_refstate-intrusion.xmf,17,-4.42798e-05,0.000222941,0,-1.91756e-05,-1.61379e+09,-1.59536e+09,-1.61074e+09,-1.3226e+06,-0.0679286,0.439445,-0,0.444664,1498.34,-56000,0,56020,1.3226e+06
step02_gravity_refstate-intrusion.xmf,18,4.78379e-06,-6.03584e-05,0,-6.64762e-05,-1.42397e+09,-1.42846e+09,-1.4243e+09,-4.58507e+06,0.019107,0.63571,0,0.635997,3499.28,-50000,0,50122.3,4.58507e+06
step02_gravity_refstate-intrusion.xmf,19,-4.51938e-05,0.000227859,0,-1.24586e-05,-1.61372e+09,-1.59489e+09,-1.6106e+09,-859307,-0.0456017,0.451306,-0,0.453604,999.46,-56000,0,56008.9,859307
step02_gravity_refstate-intrusion.xmf,20,5.41778e-06,-7.95579e-05,0,-5.51599e-05,-1.42455e+09,-1.43041e+09,-1.42492e+09,-3.80455e+06,0.0165003,0.687148,0,0.687346,2999.32,-50000,0,50089.9,3.80455e+06
step02_gravity_refstate-intrusion.xmf,21,5.74472e-06,-9.15753e-05,0,-4.41843e-05,-1.42491e+09,-1.43163e+09,-1.42531e+09,-3.04753e+06,0.0136857,0.729489,0,0.729617,2499.83,-50000,0,50062.5,3.04753e+06
step02_gravity_refstate-intrusion.xmf,22,-4.57233e-05,0.000230666,0,-6.07028e-06,-1.61368e+09,-1.59462e+09,-1.61053e+09,-418686,-0.0229,0.458376,-0,0.458948,500.036,-56000,0,56002.2,418686
step02_gravity_refstate-intrusion.xmf,23,-4.5871e-05,0.000231495,0,7.85943e-08,-1.61367e+09,-1.59454e+09,-1.6105e+09,5420.89,1.2382e-06,0.460727,0,0.460727,-4.01542e-10,-56000,-0,56000,5420.89
step02_gravity_refstate-intrusion.xmf,24,5.74636e-06,-9.9368e-05,0,-3.40462e-05,-1.42517e+09,-1.43242e+09,-1.42557e+09,-2.34827e+06,0.010806,0.763373,0,0.76345,2000,-50000,0,50040,2.34827e+06
step02_gravity_refstate-intrusion.xmf,25,-4.57043e-05,0.000230561,0,6.33334e-06,-1.61368e+09,-1.59463e+09,-1.61053e+09,436830,0.0228989,0.458377,0,0.458948,-500.036,-56000,-0,56002.2,436830
step02_gravity_refstate-intrusion.xmf,26,5.57833e-06,-0.000104556,0,-2.46097e-05,-1.42536e+09,-1.43296e+09,-1.42575e+09,-1.69741e+06,0.00796848,0.789229,0,0.789269,1500.17,-50000,0,50022.5,1.69741e+06
step02_gravity_refstate-intrusion.xmf,27,5.37871e-06,-0.000107625,0,-1.59999e-05,-1.42549e+09,-1.43328e+09,-1.42586e+09,-1.10356e+06,0.00523933,0.807419,0,0.807436,1000.68,-50000,0,50010,1.10356e+06
step02_gravity_refstate-intrusion.xmf,28,-4.51826e-05,0.000227767,0,1.27142e-05,-1.61372e+09,-1.5949e+09,-1.61061e+09,876939,0.0456046,0.451305,0,0.453603,-999.46,-56000,-0,56008.9,876939
step02_gravity_refstate-intrusion.xmf,29,5.19448e-06,-0.000109334,0,-7.83361e-06,-1.42556e+09,-1.43346e+09,-1.42592e+09,-540309,0.00259153,0.818238,0,0.818242,500.717,-50000,0,50002.5,540309
step02_gravity_refstate-intrusion.xmf,30,-4.42892e-05,0.000222918,0,1.94968e-05,-1.61379e+09,-1.59536e+09,-1.61074e+09,1.34476e+06,0.0679307,0.439441,0,0.44466,-1498.34,-56000,-0,56020,1.34476e+06
step02_gravity_refstate-intrusion.xmf,31,5.15429e-06,-0.000109859,0,1.36022e-07,-1.42558e+09,-1.43352e+09,-1.42594e+09,9381.83,-4.07286e-07,0.821834,-0,0.821834,0,-50000,0,50000,9381.83
step02_gravity_refstate-intrusion.xmf,32,-4.29406e-05,0.000215597,0,2.6791e-05,-1.6139e+09,-1.59607e+09,-1.61094e+09,1.84786e+06,0.0897058,0.422653,0,0.432068,-1997.54,-56000,-0,56035.6,1.84786e+06
step02_gravity_refstate-intrusion.xmf,33,5.20458e-06,-0.000109279,0,8.1178e-06,-1.42556e+09,-1.43345e+09,-1.42592e+09,559910,-0.00259315,0.818238,-0,0.818242,-500.717,-50000,-0,50002.5,559910
step02_gravity_refstate-intrusion.xmf,34,5.36898e-06,-0.000107542,0,1.63584e-05,-1.42548e+09,-1.43327e+09,-1.42585e+09,1.12829e+06,-0.00523575,0.807418,-0,0.807435,-1000.68,-50000,-0,50010,1.12829e+06
step02_gravity_refstate-intrusion.xmf,35,-4.1031e-05,0.000205117,0,3.45951e-05,-1.61405e+09,-1.59707e+09,-1.61122e+09,2.38613e+06,0.110682,0.400839,0,0.41584,-2497.35,-56000,-0,56055.7,2.38613e+06
step02_gravity_refstate-intrusion.xmf,36,5.58015e-06,-0.0001044,0,2.50858e-05,-1.42536e+09,-1.43294e+09,-1.42574e+09,1.73025e+06,-0.00797033,0.789227,-0,0.789268,-1500.17,-50000,-0,50022.5,1.73025e+06
step02_gravity_refstate-intrusion.xmf,37,5.77029e-06,-9.94023e-05,0,3.4538e-05,-1.42517e+09,-1.43243e+09,-1.42557e+09,2.38219e+06,-0.0108045,0.76337,-0,0.763446,-2000,-50000,-0,50040,2.38219e+06
step02_gravity_refstate-intrusion.xmf,38,-3.8507e-05,0.000190646,0,4.28253e-05,-1.61428e+09,-1.59847e+09,-1.61162e+09,2.95379e+06,0.130519,0.374109,0,0.396223,-2997.53,-56000,-0,56080.2,2.95379e+06
step02_gravity_refstate-intrusion.xmf,39,5.85032e-06,-9.18024e-05,0,4.48929e-05,-1.42491e+09,-1.43165e+09,-1.42531e+09,3.09641e+06,-0.0136843,0.729483,-0,0.729611,-2499.83,-50000,-0,50062.5,3.09641e+06
step02_gravity_refstate-intrusion.xmf,40,-3.52412e-05,0.000170772,0,5.19748e-05,-1.6146e+09,-1.60039e+09,-1.61217e+09,3.58486e+06,0.14884,0.343333,0,0.374207,-3497.18,-56000,-0,56109.1,3.58486e+06
step02_gravity_refstate-intrusion.xmf,41,5.62303e-06,-8.01808e-05,0,5.61696e-05,-1.42455e+09,-1.43046e+09,-1.42493e+09,3.8742e+06,-0.0165062,0.687142,-0,0.68734,-2999.32,-50000,-0,50089.9,3.8742e+06
step02_gravity_refstate-intrusion.xmf,42,-6.56909e-06,8.24556e-05,0,7.59366e-05,-1.58219e+09,-1.57605e+09,-1.58174e+09,5.23759e+06,0.154848,0.405544,0,0.434102,-4000,-54998.6,-0,55143.8,5.23759e+06
step02_gravity_refstate-intrusion.xmf,43,-8.33281e-06,7.25768e-05,0,8.49537e-05,-1.56651e+09,-1.56093e+09,-1.56593e+09,5.85952e+06,0.139422,0.444296,0,0.465658,-4000,-54498.4,-0,54645,5.85952e+06
step02_gravity_refstate-intrusion.xmf,44,-9.82135e-06,6.26853e-05,0,9.16812e-05,-1.55084e+09,-1.54583e+09,-1.55016e+09,6.32354e+06,0.120834,0.478035,0,0.49307,-4000,-53999.3,-0,54147.3,6.32354e+06
step02_gravity_refstate-intrusion.xmf,45,-1.11194e-05,5.24292e-05,0,9.63814e-05,-1.53512e+09,-1.53074e+09,-1.53435e+09,6.64773e+06,0.100198,0.506825,0,0.516634,-4000,-53499.2,-0,53648.6,6.64773e+06
step02_gravity_refstate-intrusion.xmf,46,-1.25769e-05,4.23328e-05,0,9.93557e-05,-1.51944e+09,-1.51565e+09,-1.51857e+09,6.85287e+06,0.0785245,0.530504,0,0.536284,-4000,-52999.8,-0,53150.5,6.85287e+06
step02_gravity_refstate-intrusion.xmf,47,-1.50601e-05,2.25577e-05,0,0.000100214,-1.48799e+09,-1.4854e+09,-1.48695e+09,6.91209e+06,0.0352232,0.562835,0,0.563936,-4000,-52000.2,-0,52153.8,6.91209e+06
step02_gravity_refstate-intrusion.xmf,48,-1.66524e-05,1.29186e-05,0,9.8242e-05,-1.47232e+09,-1.47028e+09,-1.47117e+09,6.77606e+06,0.0152932,0.57167,0,0.571875,-4000,-51501.2,-0,51656.3,6.77606e+06
step02_gravity_refstate-intrusion.xmf,49,-1.38914e-05,3.21676e-05,0,0.000100666,-1.50374e+09,-1.50056e+09,-1.50278e+09,6.94325e+06,0.0566136,0.549151,0,0.552062,-4000,-52500.3,-0,52652.5,6.94325e+06
step02_gravity_refstate-intrusion.xmf,50,-1.43753e-05,9.69002e-05,0,4.13291e-05,-1.61493e+09,-1.60726e+09,-1.61394e+09,2.8506e+06,0.16543,0.314754,0,0.35558,-4000,-56000,-0,56142.7,2.8506e+06
step02_gravity_refstate-intrusion.xmf,51,-7.67651e-06,9.16725e-05,0,6.16681e-05,-1.59816e+09,-1.59131e+09,-1.59763e+09,4.25344e+06,0.165164,0.36211,0,0.397998,-4000,-55497.8,-0,55641.7,4.25344e+06
step02_gravity_refstate-intrusion.xmf,52,5.88103e-06,-6.15609e-05,0,6.79033e-05,-1.4239e+09,-1.42855e+09,-1.42431e+09,4.6835e+06,-0.0191125,0.635706,-0,0.635993,-3499.28,-50000,-0,50122.3,4.6835e+06
step02_gravity_refstate-intrusion.xmf,53,-1.75891e-05,4.06939e-06,0,9.457e-05,-1.45652e+09,-1.45502e+09,-1.4553e+09,6.52279e+06,-0.00223521,0.575944,-0,0.575949,-4000,-51001,-0,51157.6,6.52279e+06
step02_gravity_refstate-intrusion.xmf,54,-1.73139e-05,-2.6666e-06,0,8.81429e-05,-1.44055e+09,-1.43954e+09,-1.43936e+09,6.07949e+06,-0.0157949,0.576122,-0,0.576339,-4000,-50501.8,-0,50659.9,6.07949e+06
step02_gravity_refstate-intrusion.xmf,55,-8.40378e-06,-3.26933e-06,0,7.35372e-05,-1.42342e+09,-1.42306e+09,-1.42284e+09,5.07209e+06,-0.0224771,0.574633,-0,0.575072,-4000,-50000,-0,50159.7,5.07209e+06
step02_gravity_refstate-intrusion.xmf,56,-1.92964e-05,9.88395e-05,0,-5.92312e-05,-1.57557e+09,-1.56743e+09,-1.57424e+09,-4.08536e+06,-0.142975,0.491478,-0,0.511852,3602.3,-54770.7,0,54889.1,4.08536e+06
step02_gravity_refstate-intrusion.xmf,57,-2.38984e-05,0.000115507,0,-5.05254e-05,-1.59097e+09,-1.58136e+09,-1.58933e+09,-3.48489e+06,-0.155177,0.436907,-0,0.463646,3627.1,-55249.1,0,55368,3.48489e+06
step02_gravity_refstate-intrusion.xmf,58,-1.91483e-05,8.63522e-05,0,-6.27739e-05,-1.55829e+09,-1.55101e+09,-1.55697e+09,-4.32971e+06,-0.122661,0.557288,-0,0.570627,3503.7,-54224.4,0,54337.5,4.32971e+06
step02_gravity_refstate-intrusion.xmf,59,-1.52156e-05,6.64919e-05,0,-7.42741e-05,-1.54283e+09,-1.53719e+09,-1.54178e+09,-5.12292e+06,-0.105663,0.569747,-0,0.579462,3638.77,-53738.8,0,53861.8,5.12292e+06
step02_gravity_refstate-intrusion.xmf,60,-1.57144e-05,5.53223e-05,0,-7.09949e-05,-1.5275e+09,-1.5226e+09,-1.52641e+09,-4.89674e+06,-0.0827116,0.62521,-0,0.630658,3501.01,-53252.1,0,53367.1,4.89674e+06
step02_gravity_refstate-intrusion.xmf,61,-3.0387e-05,0.00012833,0,-4.486e-05,-1.5854e+09,-1.57446e+09,-1.58331e+09,-3.09414e+06,-0.142671,0.498561,-0,0.518573,3286.11,-55069.7,0,55167.7,3.09414e+06
step02_gravity_refstate-intrusion.xmf,62,-2.8297e-05,0.000134995,0,-4.63046e-05,-1.6033e+09,-1.59203e+09,-1.60135e+09,-3.19377e+06,-0.159148,0.387653,-0,0.41905,3635.71,-55635.9,0,55754.5,3.19377e+06
step02_gravity_refstate-intrusion.xmf,63,-3.94334e-05,0.0001558,0,-4.11408e-05,-1.60033e+09,-1.58687e+09,-1.59761e+09,-2.83761e+06,-0.145817,0.438775,-0,0.46237,3232.06,-55530.5,0,55624.5,2.83761e+06
step02_gravity_refstate-intrusion.xmf,64,-1.44513e-05,3.845e-05,0,-7.68255e-05,-1.51103e+09,-1.50739e+09,-1.51004e+09,-5.2989e+06,-0.0608659,0.634996,-0,0.637906,3575.37,-52730.3,0,52851.4,5.2989e+06
step02_gravity_refstate-intrusion.xmf,65,-2.97472e-05,0.000116224,0,-4.41994e-05,-1.57304e+09,-1.56297e+09,-1.57098e+09,-3.04857e+06,-0.128679,0.564408,-0,0.578891,3129.79,-54677.2,0,54766.7,3.04857e+06
step02_gravity_refstate-intrusion.xmf,66,-3.8367e-05,0.000149418,0,-3.62379e-05,-1.58777e+09,-1.57482e+09,-1.58512e+09,-2.49944e+06,-0.130044,0.527922,-0,0.543703,2886.45,-55139.3,0,55214.8,2.49944e+06
step02_gravity_refstate-intrusion.xmf,67,-1.32626e-05,2.44449e-05,0,-7.49946e-05,-1.49609e+09,-1.49349e+09,-1.49518e+09,-5.17261e+06,-0.0397508,0.656726,-0,0.657927,3540.87,-52258,0,52377.9,5.17261e+06
step02_gravity_refstate-intrusion.xmf,68,-2.10693e-05,7.66015e-05,0,-5.44899e-05,-1.54245e+09,-1.53571e+09,-1.541e+09,-3.75834e+06,-0.0965957,0.648488,-0,0.655642,3183.84,-53719.1,0,53813.3,3.75834e+06
step02_gravity_refstate-intrusion.xmf,69,-2.87102e-05,0.000103108,0,-4.14813e-05,-1.55762e+09,-1.54853e+09,-1.55564e+09,-2.86109e+06,-0.106869,0.645625,-0,0.65441,2892.25,-54190.9,0,54268,2.86109e+06
step02_gravity_refstate-intrusion.xmf,70,-1.56279e-05,4.3811e-05,0,-5.86397e-05,-1.51529e+09,-1.51119e+09,-1.51421e+09,-4.04456e+06,-0.0606977,0.700671,-0,0.703295,3177.66,-52863.6,0,52959,4.04456e+06
step02_gravity_refstate-intrusion.xmf,71,-4.38438e-05,0.000177978,0,-3.45252e-05,-1.60097e+09,-1.58567e+09,-1.59795e+09,-2.38131e+06,-0.12412,0.474219,-0,0.490193,2690.49,-55559.1,0,55624.2,2.38131e+06
step02_gravity_refstate-intrusion.xmf,72,-1.17811e-05,9.96749e-06,0,-7.29973e-05,-1.48048e+09,-1.47898e+09,-1.47967e+09,-5.03485e+06,-0.0191039,0.667721,-0,0.667995,3528.58,-51765.5,0,51885.6,5.03485e+06
step02_gravity_refstate-intrusion.xmf,73,-1.3895e-05,3.16189e-05,0,-5.80699e-05,-1.50375e+09,-1.50061e+09,-1.50279e+09,-4.00526e+06,-0.0449332,0.718302,-0,0.719706,3153.37,-52500,0,52594.6,4.00526e+06
step02_gravity_refstate-intrusion.xmf,74,-3.70959e-05,0.000132712,0,-3.22039e-05,-1.57273e+09,-1.56102e+09,-1.57017e+09,-2.2212e+06,-0.110507,0.620484,-0,0.630248,2598.05,-54661.4,0,54723.1,2.2212e+06
step02_gravity_refstate-intrusion.xmf,75,-1.9573e-05,6.05845e-05,0,-4.7947e-05,-1.52652e+09,-1.52099e+09,-1.52517e+09,-3.30705e+06,-0.0710054,0.719656,-0,0.72315,2927.74,-53215.2,0,53295.7,3.30705e+06
step02_gravity_refstate-intrusion.xmf,76,-4.31242e-05,0.00016337,0,-2.74881e-05,-1.58666e+09,-1.57242e+09,-1.58368e+09,-1.89594e+06,-0.107109,0.575199,-0,0.585087,2333.76,-55104.2,0,55153.6,1.89594e+06
step02_gravity_refstate-intrusion.xmf,77,-8.27183e-06,-7.33577e-06,0,-6.67078e-05,-1.46269e+09,-1.46263e+09,-1.46212e+09,-4.60104e+06,0.00194636,0.677109,0,0.677112,3479.6,-51209.4,0,51327.5,4.60104e+06
step02_gravity_refstate-intrusion.xmf,78,-9.92796e-06,1.3895e-05,0,-5.1131e-05,-1.48943e+09,-1.48779e+09,-1.48874e+09,-3.52666e+06,-0.0247143,0.753306,-0,0.753712,2987.91,-52051.9,0,52137.6,3.52666e+06
step02_gravity_refstate-intrusion.xmf,79,-1.49537e-05,3.7286e-05,0,-4.22313e-05,-1.50793e+09,-1.50432e+09,-1.50689e+09,-2.91282e+06,-0.0440477,0.775684,-0,0.776933,2716.24,-52631.5,0,52701.5,2.91282e+06
step02_gravity_refstate-intrusion.xmf,80,-2.62354e-05,8.51236e-05,0,-3.66884e-05,-1.5415e+09,-1.53382e+09,-1.53969e+09,-2.53051e+06,-0.0818978,0.724018,-0,0.728635,2621.37,-53682.1,0,53746.1,2.53051e+06
step02_gravity_refstate-intrusion.xmf,81,-3.43027e-05,0.000114805,0,-2.79495e-05,-1.55749e+09,-1.5472e+09,-1.55512e+09,-1.92776e+06,-0.0884451,0.704084,-0,0.709618,2316.74,-54181,0,54230.5,1.92776e+06
step02_gravity_refstate-intrusion.xmf,82,-4.48132e-05,0.000190883,0,-2.76547e-05,-1.60133e+09,-1.58507e+09,-1.59824e+09,-1.90743e+06,-0.102427,0.499012,-0,0.509415,2195.8,-55580.5,0,55623.8,1.90743e+06
step02_gravity_refstate-intrusion.xmf,83,-6.37898e-06,-2.01426e-05,0,-6.75956e-05,-1.44699e+09,-1.44794e+09,-1.44655e+09,-4.66228e+06,0.0152438,0.649144,0,0.649323,3605.79,-50717,0,50845.1,4.66228e+06
step02_gravity_refstate-intrusion.xmf,84,-6.82224e-06,-4.37866e-06,0,-5.42592e-05,-1.47355e+09,-1.47338e+09,-1.47308e+09,-3.74243e+06,-0.00714861,0.73753,-0,0.737565,3110.78,-51552.4,0,51646.1,3.74243e+06
step02_gravity_refstate-intrusion.xmf,85,-4.13549e-05,0.00014523,0,-2.26977e-05,-1.57296e+09,-1.56009e+09,-1.57011e+09,-1.56553e+06,-0.0879896,0.662502,-0,0.668319,2020.94,-54668,0,54705.4,1.56553e+06
step02_gravity_refstate-intrusion.xmf,86,-2.16263e-05,6.23379e-05,0,-3.13572e-05,-1.52438e+09,-1.51859e+09,-1.52289e+09,-2.1628e+06,-0.056382,0.792032,-0,0.794036,2346.71,-53144.6,0,53196.4,2.1628e+06
step02_gravity_refstate-intrusion.xmf,87,-4.58777e-05,0.000178509,0,-2.00242e-05,-1.5893e+09,-1.57383e+09,-1.58614e+09,-1.38113e+06,-0.0811722,0.592795,-0,0.598327,1736.24,-55192.8,0,55220.1,1.38113e+06
step02_gravity_refstate-intrusion.xmf,88,9.13817e-07,-3.629e-05,0,-5.37722e-05,-1.44891e+09,-1.45148e+09,-1.44898e+09,-3.70883e+06,0.0150378,0.712276,0,0.712435,3181.61,-50783,0,50882.6,3.70883e+06
step02_gravity_refstate-intrusion.xmf,89,-7.89615e-07,-2.5967e-05,0,-4.74295e-05,-1.46069e+09,-1.46242e+09,-1.46063e+09,-3.27136e+06,0.00622024,0.755753,0,0.755778,2928.48,-51151.9,0,51235.6,3.27136e+06
step02_gravity_refstate-intrusion.xmf,90,-3.53696e-06,-1.13529e-05,0,-3.97609e-05,-1.47444e+09,-1.47498e+09,-1.4742e+09,-2.74243e+06,-0.00566941,0.799281,-0,0.799301,2629.31,-51583.2,0,51650.1,2.74243e+06
step02_gravity_refstate-intrusion.xmf,91,-8.34715e-06,9.51845e-06,0,-3.30647e-05,-1.48999e+09,-1.48876e+09,-1.48942e+09,-2.28058e+06,-0.0195707,0.828685,-0,0.828916,2358.75,-52069.8,0,52123.2,2.28058e+06
step02_gravity_refstate-intrusion.xmf,92,-2.95047e-05,9.11416e-05,0,-2.36076e-05,-1.54078e+09,-1.53246e+09,-1.53874e+09,-1.62829e+06,-0.0644952,0.781215,-0,0.783872,2027.17,-53655.7,0,53694,1.62829e+06
step02_gravity_refstate-intrusion.xmf,93,-3.74221e-05,0.000122842,0,-1.80104e-05,-1.55742e+09,-1.54637e+09,-1.55484e+09,-1.24224e+06,-0.0667195,0.74659,-0,0.749565,1713.47,-54177.4,0,54204.5,1.24224e+06
step02_gravity_refstate-intrusion.xmf,94,-1.50967e-05,3.52354e-05,0,-2.57578e-05,-1.50679e+09,-1.50332e+09,-1.50575e+09,-1.77659e+06,-0.0326664,0.845946,-0,0.846576,2046.54,-52593.9,0,52633.7,1.77659e+06
step02_gravity_refstate-intrusion.xmf,95,-4.57526e-05,0.000203142,0,-2.18481e-05,-1.60392e+09,-1.58676e+09,-1.60077e+09,-1.50693e+06,-0.0816698,0.501376,-0,0.507984,1746.55,-55670.2,0,55697.6,1.50693e+06
step02_gravity_refstate-intrusion.xmf,96,-2.425e-06,-3.29092e-05,0,-6.63536e-05,-1.43558e+09,-1.43768e+09,-1.43541e+09,-4.57662e+06,0.0213289,0.635212,0,0.63557,3636.36,-50363.9,0,50495,4.57662e+06
step02_gravity_refstate-intrusion.xmf,97,6.5054e-06,-5.2136e-05,0,-5.66781e-05,-1.43587e+09,-1.43991e+09,-1.43632e+09,-3.90927e+06,0.0207226,0.682212,0,0.682527,3282.8,-50381.4,0,50488.2,3.90927e+06
step02_gravity_refstate-intrusion.xmf,98,-4.35229e-05,0.000154224,0,-1.49092e-05,-1.57358e+09,-1.55994e+09,-1.57058e+09,-1.02834e+06,-0.0626973,0.690141,-0,0.692983,1418.09,-54689.5,0,54707.9,1.02834e+06
step02_gravity_refstate-intrusion.xmf,99,-2.30533e-05,6.40987e-05,0,-1.92564e-05,-1.52366e+09,-1.51764e+09,-1.52207e+09,-1.32818e+06,-0.0417551,0.844045,-0,0.845077,1726.68,-53119.4,0,53147.4,1.32818e+06
step02_gravity_refstate-intrusion.xmf,100,-4.67314e-05,0.000203624,0,-1.57657e-05,-1.60102e+09,-1.58375e+09,-1.59779e+09,-1.08741e+06,-0.0615672,0.535071,-0,0.538602,1304.82,-55577.8,0,55593.1,1.08741e+06
step02_gravity_refstate-intrusion.xmf,101,4.82527e-06,-5.04917e-05,0,-4.12902e-05,-1.44931e+09,-1.45313e+09,-1.44965e+09,-2.84791e+06,0.01336,0.773455,0,0.77357,2643.49,-50793.1,0,50861.9,2.84791e+06
step02_gravity_refstate-intrusion.xmf,102,6.72004e-06,-6.64155e-05,0,-4.7596e-05,-1.43675e+09,-1.44179e+09,-1.43721e+09,-3.28285e+06,0.018077,0.733041,0,0.733264,2819.78,-50394.5,0,50473.4,3.28285e+06
step02_gravity_refstate-intrusion.xmf,103,2.5872e-06,-3.87911e-05,0,-3.38667e-05,-1.46024e+09,-1.46309e+09,-1.46042e+09,-2.33589e+06,0.00610965,0.816376,0,0.816399,2347.05,-51135.5,0,51189.3,2.33589e+06
step02_gravity_refstate-intrusion.xmf,104,-1.63112e-06,-1.90827e-05,0,-2.70873e-05,-1.47383e+09,-1.47504e+09,-1.47372e+09,-1.8683e+06,-0.003582,0.854273,-0,0.85428,2042.34,-51562.5,0,51602.9,1.8683e+06
step02_gravity_refstate-intrusion.xmf,105,-7.79765e-06,5.70348e-06,0,-2.08896e-05,-1.48964e+09,-1.48871e+09,-1.4891e+09,-1.44082e+06,-0.014178,0.879982,-0,0.880096,1737.08,-52056.8,0,52085.7,1.44082e+06
step02_gravity_refstate-intrusion.xmf,106,-3.14672e-05,9.56477e-05,0,-1.41395e-05,-1.54071e+09,-1.53194e+09,-1.53854e+09,-975247,-0.0455479,0.819982,-0,0.821246,1408.66,-53652,0,53670.5,975247
step02_gravity_refstate-intrusion.xmf,107,-3.87861e-05,0.000127084,0,-1.04199e-05,-1.55704e+09,-1.5456e+09,-1.55437e+09,-718693,-0.042918,0.775973,-0,0.777159,1094.08,-54165.7,0,54176.8,718693
step02_gravity_refstate-intrusion.xmf,108,-1.54648e-05,3.42948e-05,0,-1.54113e-05,-1.50634e+09,-1.50291e+09,-1.50527e+09,-1.06297e+06,-0.0227617,0.888418,-0,0.888709,1426.5,-52577.8,0,52597.1,1.06297e+06
step02_gravity_refstate-intrusion.xmf,109,-4.64935e-05,0.000179975,0,-1.15639e-05,-1.58632e+09,-1.5707e+09,-1.58311e+09,-797601,-0.0509201,0.632763,-0,0.634809,1089.68,-55100.2,0,55110.9,797601
step02_gravity_refstate-intrusion.xmf,110,-4.40491e-05,0.000156767,0,-7.85465e-06,-1.57247e+09,-1.55862e+09,-1.56943e+09,-541760,-0.0344452,0.715168,-0,0.715997,779.407,-54656.2,0,54661.7,541760
step02_gravity_refstate-intrusion.xmf,111,-2.40488e-05,6.57455e-05,0,-1.07913e-05,-1.52357e+09,-1.51738e+09,-1.52191e+09,-744311,-0.0270628,0.876512,-0,0.876929,1106.68,-53115.2,0,53126.8,744311
step02_gravity_refstate-intrusion.xmf,112,-4.77467e-05,0.000206835,0,-8.98934e-06,-1.60057e+09,-1.58302e+09,-1.59728e+09,-620023,-0.0364938,0.550121,-0,0.55133,770.664,-55564.3,0,55569.6,620023
step02_gravity_refstate-intrusion.xmf,113,6.23911e-06,-5.96786e-05,0,-3.12459e-05,-1.44906e+09,-1.4536e+09,-1.44949e+09,-2.15513e+06,0.010736,0.817833,0,0.817903,2115.33,-50780.1,0,50824.2,2.15513e+06
step02_gravity_refstate-intrusion.xmf,114,7.23844e-06,-7.5731e-05,0,-3.75302e-05,-1.43741e+09,-1.44313e+09,-1.43791e+09,-2.58858e+06,0.0145414,0.777554,0,0.77769,2315.95,-50407,0,50460.1,2.58858e+06
step02_gravity_refstate-intrusion.xmf,115,4.11358e-06,-5.10624e-05,0,-2.38197e-05,-1.45651e+09,-1.46032e+09,-1.4568e+09,-1.64292e+06,0.00609086,0.855738,0,0.85576,1742.04,-51012.6,0,51042.4,1.64292e+06
step02_gravity_refstate-intrusion.xmf,116,-9.19824e-07,-2.55229e-05,0,-1.75731e-05,-1.4725e+09,-1.4742e+09,-1.47244e+09,-1.21207e+06,-0.00190107,0.892103,-0,0.892105,1439.79,-51516.9,0,51537,1.21207e+06
step02_gravity_refstate-intrusion.xmf,117,-7.8107e-06,3.23592e-06,0,-1.23551e-05,-1.48922e+09,-1.48846e+09,-1.48868e+09,-852171,-0.00916845,0.912109,-0,0.912155,1135.36,-52041.2,0,52053.6,852171
step02_gravity_refstate-intrusion.xmf,118,-3.24228e-05,9.82067e-05,0,-7.09001e-06,-1.54068e+09,-1.53168e+09,-1.53845e+09,-489020,-0.0254495,0.843302,-0,0.843686,780.116,-53650.9,0,53656.6,489020
step02_gravity_refstate-intrusion.xmf,119,-3.94102e-05,0.00012962,0,-4.1505e-06,-1.5571e+09,-1.54545e+09,-1.55439e+09,-286273,-0.0183336,0.790653,-0,0.790865,464.722,-54168.3,0,54170.3,286273
step02_gravity_refstate-intrusion.xmf,120,-1.58014e-05,3.3467e-05,0,-7.91501e-06,-1.50604e+09,-1.50265e+09,-1.50495e+09,-545923,-0.0129833,0.913703,-0,0.913796,813.334,-52566.7,0,52573,545923
step02_gravity_refstate-intrusion.xmf,121,-4.69387e-05,0.000184588,0,-4.77856e-06,-1.58712e+09,-1.57115e+09,-1.58388e+09,-329592,-0.021994,0.639747,-0,0.640125,468.581,-55128.3,0,55130.3,329592
step02_gravity_refstate-intrusion.xmf,122,-4.74937e-05,0.00021032,0,-2.37487e-06,-1.60135e+09,-1.58357e+09,-1.59807e+09,-163802,-0.0103712,0.550165,-0,0.550262,218.89,-55592.6,0,55593,163802
step02_gravity_refstate-intrusion.xmf,123,7.6959e-06,-7.89674e-05,0,-2.84977e-05,-1.43917e+09,-1.44515e+09,-1.4397e+09,-1.96557e+06,0.0111706,0.813146,0,0.813222,1852.34,-50459.5,0,50493.5,1.96557e+06
step02_gravity_refstate-intrusion.xmf,124,-4.43897e-05,0.000159128,0,-1.65081e-06,-1.57275e+09,-1.55871e+09,-1.56968e+09,-113861,-0.00654592,0.721662,-0,0.721692,147.53,-54666.1,0,54666.3,113861
step02_gravity_refstate-intrusion.xmf,125,-2.44658e-05,6.6226e-05,0,-4.35114e-06,-1.52335e+09,-1.51709e+09,-1.52166e+09,-300111,-0.0117674,0.894248,-0,0.894325,480.059,-53107.6,0,53109.8,300111
step02_gravity_refstate-intrusion.xmf,126,6.48216e-06,-7.73186e-05,0,-2.14729e-05,-1.44219e+09,-1.44797e+09,-1.44264e+09,-1.48105e+06,0.00829122,0.84097,0,0.84101,1463.36,-50550.8,0,50571.9,1.48105e+06
step02_gravity_refstate-intrusion.xmf,127,-7.47127e-06,1.35147e-06,0,-5.54181e-06,-1.48864e+09,-1.48803e+09,-1.48812e+09,-382236,-0.00424736,0.929809,-0,0.929819,535.81,-52022.3,0,52025.1,382236
step02_gravity_refstate-intrusion.xmf,128,4.40942e-06,-5.99923e-05,0,-1.53153e-05,-1.45362e+09,-1.45806e+09,-1.45393e+09,-1.05635e+06,0.00447085,0.879781,0,0.879792,1136.67,-50915.1,0,50927.8,1.05635e+06
step02_gravity_refstate-intrusion.xmf,129,-1.03893e-06,-2.87267e-05,0,-9.92438e-06,-1.47189e+09,-1.4738e+09,-1.47181e+09,-684515,-0.00104375,0.914998,-0,0.914999,852.529,-51494.2,0,51501.3,684515
step02_gravity_refstate-intrusion.xmf,130,-1.5871e-05,3.30206e-05,0,-1.84543e-06,-1.50566e+09,-1.50228e+09,-1.50456e+09,-127285,-0.00311983,0.92498,-0,0.924985,196.76,-52554.1,0,52554.4,127285
step02_gravity_refstate-intrusion.xmf,131,-3.27345e-05,9.9054e-05,0,-1.3465e-06,-1.54063e+09,-1.53154e+09,-1.53837e+09,-92872.3,-0.00508922,0.852962,-0,0.852977,155.576,-53649.1,0,53649.4,92872.3
step02_gravity_refstate-intrusion.xmf,132,-3.94631e-05,0.000129758,0,1.45641e-06,-1.55699e+09,-1.54532e+09,-1.55427e+09,100453,0.00612793,0.793989,0,0.794013,-155.366,-54164.8,-0,54165,100453
step02_gravity_refstate-intrusion.xmf,133,-4.73045e-05,0.000188823,0,1.89091e-06,-1.58903e+09,-1.57275e+09,-1.58577e+09,130422,0.00917897,0.63036,0,0.630427,-194.682,-55190.6,-0,55191,130422
step02_gravity_refstate-intrusion.xmf,134,-4.72742e-05,0.000214228,0,2.60294e-06,-1.60367e+09,-1.58564e+09,-1.60041e+09,179533,0.0110758,0.533878,0,0.533993,-234.551,-55669.1,-0,55669.6,179533
step02_gravity_refstate-intrusion.xmf,135,-7.64654e-06,-4.33034e-07,0,5.76636e-07,-1.48783e+09,-1.48733e+09,-1.4873e+09,39772.4,0.000525685,0.934678,0,0.934678,-69.5592,-51994.8,-0,51994.9,39772.4
step02_gravity_refstate-intrusion.xmf,136,-4.42777e-05,0.000158297,0,4.32901e-06,-1.57254e+09,-1.55857e+09,-1.56949e+09,298585,0.0205457,0.720078,0,0.720371,-464.014,-54659.4,-0,54661.4,298585
step02_gravity_refstate-intrusion.xmf,137,-2.43907e-05,6.55953e-05,0,1.24444e-06,-1.52299e+09,-1.51678e+09,-1.5213e+09,85832.8,0.00358231,0.898547,0,0.898554,-147.015,-53096,-0,53096.2,85832.8
step02_gravity_refstate-intrusion.xmf,138,6.27951e-06,-8.84389e-05,0,-1.73053e-05,-1.43674e+09,-1.44327e+09,-1.43717e+09,-1.1936e+06,0.00664209,0.839159,0,0.839185,1141.9,-50370.1,0,50383.1,1.1936e+06
step02_gravity_refstate-intrusion.xmf,139,-6.30105e-07,-3.01796e-05,0,-3.22773e-06,-1.47152e+09,-1.47356e+09,-1.47148e+09,-222627,-0.000341747,0.925564,-0,0.925565,286.436,-51482.9,0,51483.6,222627
step02_gravity_refstate-intrusion.xmf,140,3.52424e-06,-5.88713e-05,0,-7.28151e-06,-1.4553e+09,-1.45961e+09,-1.45555e+09,-502228,0.0019046,0.898815,0,0.898817,555.005,-50965.4,0,50968.5,502228
step02_gravity_refstate-intrusion.xmf,141,-1.53973e-05,3.16062e-05,0,4.06718e-06,-1.50482e+09,-1.50158e+09,-1.50376e+09,280526,0.0067359,0.923195,0,0.923219,-436.426,-52528.2,-0,52530,280526
step02_gravity_refstate-intrusion.xmf,142,-3.24468e-05,9.77837e-05,0,4.09487e-06,-1.54022e+09,-1.53124e+09,-1.53799e+09,282436,0.0150638,0.851163,0,0.851296,-463.627,-53636.2,-0,53638.2,282436
step02_gravity_refstate-intrusion.xmf,143,-3.88924e-05,0.000126864,0,7.22739e-06,-1.55628e+09,-1.54485e+09,-1.5536e+09,498495,0.0303424,0.788178,0,0.788762,-776.641,-54141.8,-0,54147.4,498495
step02_gravity_refstate-intrusion.xmf,144,-4.72709e-05,0.000207555,0,7.95459e-06,-1.60067e+09,-1.58309e+09,-1.59741e+09,548653,0.0333246,0.550144,0,0.551153,-703.679,-55569.4,-0,55573.8,548653
step02_gravity_refstate-intrusion.xmf,145,-4.65084e-05,0.000179414,0,8.32719e-06,-1.58494e+09,-1.56935e+09,-1.58173e+09,574352,0.0378661,0.647219,0,0.648326,-812.227,-55056.9,-0,55062.9,574352
step02_gravity_refstate-intrusion.xmf,146,5.79196e-06,-8.48304e-05,0,-1.14033e-05,-1.43988e+09,-1.44613e+09,-1.44028e+09,-786522,0.00431297,0.858633,0,0.858644,771.868,-50469.4,0,50475.3,786522
step02_gravity_refstate-intrusion.xmf,147,-9.37739e-07,-3.15826e-05,0,2.92928e-06,-1.47083e+09,-1.47294e+09,-1.47076e+09,202041,0.000251093,0.924987,0,0.924987,-269.574,-51458.9,-0,51459.6,202041
step02_gravity_refstate-intrusion.xmf,148,-6.0611e-06,-5.84901e-06,0,7.61284e-06,-1.4848e+09,-1.48479e+09,-1.48439e+09,525081,0.0046091,0.925059,0,0.92507,-739.5,-51900.9,-0,51906.2,525081
step02_gravity_refstate-intrusion.xmf,149,-4.35122e-05,0.000153474,0,1.0759e-05,-1.57149e+09,-1.55791e+09,-1.56849e+09,742079,0.0479789,0.71179,0,0.713405,-1094.43,-54624.4,-0,54635.3,742079
step02_gravity_refstate-intrusion.xmf,150,-2.39988e-05,6.44609e-05,0,7.11709e-06,-1.5228e+09,-1.5167e+09,-1.52114e+09,490888,0.0187774,0.888996,0,0.889194,-776.663,-53090.3,-0,53096,490888
step02_gravity_refstate-intrusion.xmf,151,3.95586e-06,-5.93817e-05,0,-1.63735e-07,-1.45526e+09,-1.45963e+09,-1.45553e+09,-11293.3,4.39787e-05,0.903738,0,0.903738,13.0836,-50964.8,0,50964.8,11293.3
step02_gravity_refstate-intrusion.xmf,152,5.46859e-06,-8.53647e-05,0,-3.98249e-06,-1.44021e+09,-1.44648e+09,-1.44059e+09,-274684,0.00145141,0.867437,0,0.867439,265.365,-50478.2,0,50478.9,274684
step02_gravity_refstate-intrusion.xmf,153,-1.50878e-05,3.19393e-05,0,1.08648e-05,-1.50493e+09,-1.50169e+09,-1.50389e+09,749378,0.0166427,0.905701,0,0.905854,-1082.58,-52533,-0,52544.1,749378
step02_gravity_refstate-intrusion.xmf,154,5.56126e-07,-3.76622e-05,0,8.43638e-06,-1.46713e+09,-1.46977e+09,-1.46717e+09,581883,-0.000234062,0.913419,-0,0.913419,-725.157,-51343.3,-0,51348.4,581883
step02_gravity_refstate-intrusion.xmf,155,-3.16944e-05,9.5135e-05,0,1.02774e-05,-1.5399e+09,-1.53115e+09,-1.53772e+09,708866,0.0349693,0.836163,0,0.836894,-1087.9,-53625.8,-0,53636.9,708866
step02_gravity_refstate-intrusion.xmf,156,-3.79246e-05,0.000123005,0,1.3877e-05,-1.55626e+09,-1.54516e+09,-1.55365e+09,957138,0.0540506,0.767319,0,0.769221,-1394.52,-54140.3,-0,54158.2,957138
step02_gravity_refstate-intrusion.xmf,157,-4.69021e-05,0.000203009,0,1.38266e-05,-1.59995e+09,-1.58271e+09,-1.59671e+09,953663,0.0564076,0.545136,0,0.548046,-1193.19,-55543.6,-0,55556.4,953663
step02_gravity_refstate-intrusion.xmf,158,-4.59975e-05,0.000176309,0,1.53515e-05,-1.58585e+09,-1.57051e+09,-1.58268e+09,1.05884e+06,0.0660443,0.625117,0,0.628597,-1418.94,-55083.5,-0,55101.7,1.05884e+06
step02_gravity_refstate-intrusion.xmf,159,3.68567e-06,-6.07288e-05,0,6.19361e-06,-1.45435e+09,-1.45879e+09,-1.4546e+09,427192,-0.00179202,0.898009,-0,0.898011,-494.071,-50934.5,-0,50936.9,427192
step02_gravity_refstate-intrusion.xmf,160,-7.07438e-06,7.74534e-07,0,1.58624e-05,-1.48785e+09,-1.48731e+09,-1.48737e+09,1.09408e+06,0.0104899,0.899308,0,0.899369,-1413.74,-51998.8,-0,52018,1.09408e+06
step02_gravity_refstate-intrusion.xmf,161,-2.04886e-07,-3.10252e-05,0,1.38372e-05,-1.47023e+09,-1.47236e+09,-1.47022e+09,954392,0.000690988,0.902106,0,0.902106,-1177.85,-51443.4,-0,51456.8,954392
step02_gravity_refstate-intrusion.xmf,162,-4.22313e-05,0.000147821,0,1.79412e-05,-1.5715e+09,-1.55839e+09,-1.56858e+09,1.23746e+06,0.0738197,0.687408,0,0.69136,-1697.83,-54622.7,-0,54649.1,1.23746e+06
step02_gravity_refstate-intrusion.xmf,163,-2.31736e-05,6.24907e-05,0,1.43999e-05,-1.52264e+09,-1.51674e+09,-1.52105e+09,993203,0.0335059,0.864966,0,0.865615,-1404,-53086.1,-0,53104.7,993203
step02_gravity_refstate-intrusion.xmf,164,6.07962e-06,-8.58437e-05,0,3.59053e-06,-1.43988e+09,-1.44622e+09,-1.4403e+09,247650,-0.00136541,0.866817,-0,0.866818,-248.485,-50469.3,-0,50470,247650
step02_gravity_refstate-intrusion.xmf,165,4.10336e-06,-5.95969e-05,0,1.26449e-05,-1.4543e+09,-1.4587e+09,-1.45459e+09,872161,-0.00366863,0.886433,-0,0.886441,-980.495,-50935.6,-0,50945,872161
step02_gravity_refstate-intrusion.xmf,166,-1.4817e-05,3.3081e-05,0,1.97604e-05,-1.50549e+09,-1.50219e+09,-1.50447e+09,1.36294e+06,0.0266279,0.871566,0,0.871972,-1722.43,-52552.4,-0,52580.6,1.36294e+06
step02_gravity_refstate-intrusion.xmf,167,-3.0109e-05,9.04994e-05,0,1.82077e-05,-1.53945e+09,-1.53113e+09,-1.53737e+09,1.25584e+06,0.0537538,0.807386,0,0.809174,-1704.56,-53612.1,-0,53639.2,1.25584e+06
step02_gravity_refstate-intrusion.xmf,168,-3.54842e-05,0.000115253,0,2.23094e-05,-1.55558e+09,-1.54518e+09,-1.55313e+09,1.53875e+06,0.0757837,0.735625,0,0.739518,-1998.33,-54118.7,-0,54155.6,1.53875e+06
step02_gravity_refstate-intrusion.xmf,169,-4.6111e-05,0.000197534,0,2.07123e-05,-1.60031e+09,-1.58351e+09,-1.59713e+09,1.42859e+06,0.0811919,0.525847,0,0.532079,-1726.51,-55551.8,-0,55578.6,1.42859e+06
step02_gravity_refstate-intrusion.xmf,170,-4.46805e-05,0.000169598,0,2.26007e-05,-1.58639e+09,-1.57161e+09,-1.58331e+09,1.55884e+06,0.0918252,0.597056,0,0.604076,-1985.71,-55097.5,-0,55133.3,1.55884e+06
step02_gravity_refstate-intrusion.xmf,171,5.78857e-06,-8.55451e-05,0,1.07174e-05,-1.43956e+09,-1.44586e+09,-1.43996e+09,739214,-0.00419342,0.858266,-0,0.858276,-749.449,-50458.9,-0,50464.4,739214
step02_gravity_refstate-intrusion.xmf,172,-7.53492e-06,4.41476e-06,0,2.58462e-05,-1.48875e+09,-1.48793e+09,-1.48823e+09,1.78269e+06,0.0156509,0.859109,0,0.859252,-2023.31,-52028.9,-0,52068.2,1.78269e+06
step02_gravity_refstate-intrusion.xmf,173,-7.10027e-07,-2.53276e-05,0,2.18752e-05,-1.47194e+09,-1.47364e+09,-1.47189e+09,1.5088e+06,0.00186967,0.874263,0,0.874265,-1742.07,-51500.5,-0,51530,1.5088e+06
step02_gravity_refstate-intrusion.xmf,174,4.4005e-06,-5.5859e-05,0,1.98211e-05,-1.45504e+09,-1.45919e+09,-1.45534e+09,1.36713e+06,-0.00559414,0.867096,-0,0.867114,-1489.4,-50963,-0,50984.7,1.36713e+06
step02_gravity_refstate-intrusion.xmf,175,-3.93434e-05,0.000138343,0,2.63563e-05,-1.57124e+09,-1.55899e+09,-1.56853e+09,1.81788e+06,0.0971308,0.65303,0,0.660214,-2272.73,-54614.3,-0,54661.6,1.81788e+06
step02_gravity_refstate-intrusion.xmf,176,-2.18125e-05,5.95601e-05,0,2.41955e-05,-1.52246e+09,-1.51685e+09,-1.52096e+09,1.66884e+06,0.0470514,0.825713,0,0.827052,-2011.2,-53081.7,-0,53119.8,1.66884e+06
step02_gravity_refstate-intrusion.xmf,177,6.26534e-06,-8.30049e-05,0,1.82373e-05,-1.4398e+09,-1.44596e+09,-1.44024e+09,1.25788e+06,-0.00716212,0.843832,-0,0.843862,-1247.05,-50470.5,-0,50485.9,1.25788e+06
step02_gravity_refstate-intrusion.xmf,178,-1.43102e-05,3.32736e-05,0,3.17114e-05,-1.50535e+09,-1.50206e+09,-1.50436e+09,2.18724e+06,0.0353303,0.821963,0,0.822722,-2326.47,-52549.7,-0,52601.1,2.18724e+06
step02_gravity_refstate-intrusion.xmf,179,-2.73518e-05,8.38541e-05,0,2.90676e-05,-1.53899e+09,-1.53132e+09,-1.53711e+09,2.00488e+06,0.0705522,0.763173,0,0.766428,-2300.72,-53599.9,-0,53649.3,2.00488e+06
step02_gravity_refstate-intrusion.xmf,180,-3.14231e-05,0.000105249,0,3.31509e-05,-1.55516e+09,-1.54573e+09,-1.55299e+09,2.28652e+06,0.0941742,0.690333,0,0.696726,-2556.18,-54108.4,-0,54168.7,2.28652e+06
step02_gravity_refstate-intrusion.xmf,181,-4.46964e-05,0.000188942,0,2.78572e-05,-1.60068e+09,-1.58456e+09,-1.5976e+09,1.9214e+06,0.104857,0.500406,0,0.511274,-2248.57,-55558.7,-0,55604.2,1.9214e+06
step02_gravity_refstate-intrusion.xmf,182,-4.16428e-05,0.000157508,0,3.02703e-05,-1.58606e+09,-1.57233e+09,-1.58319e+09,2.08783e+06,0.115101,0.564863,0,0.57647,-2528.11,-55084.6,-0,55142.6,2.08783e+06
step02_gravity_refstate-intrusion.xmf,183,-8.20155e-06,6.8006e-06,0,3.91617e-05,-1.48795e+09,-1.48691e+09,-1.48738e+09,2.7011e+06,0.0193448,0.80403,0,0.804263,-2595.2,-52004.3,-0,52069,2.7011e+06
step02_gravity_refstate-intrusion.xmf,184,-1.57361e-06,-2.01004e-05,0,3.22458e-05,-1.47216e+09,-1.47344e+09,-1.47205e+09,2.22409e+06,0.00271581,0.830812,0,0.830816,-2306.52,-51510,-0,51561.6,2.22409e+06
step02_gravity_refstate-intrusion.xmf,185,6.79495e-06,-7.85294e-05,0,2.64168e-05,-1.4402e+09,-1.44608e+09,-1.44066e+09,1.82205e+06,-0.0104341,0.820945,-0,0.821011,-1757.75,-50488.8,-0,50519.4,1.82205e+06
step02_gravity_refstate-intrusion.xmf,186,4.22577e-06,-4.95874e-05,0,2.82096e-05,-1.45606e+09,-1.45977e+09,-1.45635e+09,1.94571e+06,-0.00742113,0.836494,-0,0.836527,-2023.44,-51000.6,-0,51040.7,1.94571e+06
step02_gravity_refstate-intrusion.xmf,187,-3.39525e-05,0.000124759,0,3.68505e-05,-1.57073e+09,-1.55978e+09,-1.56839e+09,2.54169e+06,0.116415,0.608618,0,0.619652,-2806.75,-54601.4,-0,54673.5,2.54169e+06
step02_gravity_refstate-intrusion.xmf,188,-1.9726e-05,5.54929e-05,0,3.8374e-05,-1.52223e+09,-1.51705e+09,-1.52087e+09,2.64677e+06,0.0593892,0.767706,0,0.77,-2611.39,-53077.1,-0,53141.3,2.64677e+06
step02_gravity_refstate-intrusion.xmf,189,-1.38823e-05,3.10382e-05,0,5.07266e-05,-1.50425e+09,-1.50116e+09,-1.5033e+09,3.49877e+06,0.0430274,0.745552,0,0.746792,-2970.06,-52515,-0,52598.9,3.49877e+06
step02_gravity_refstate-intrusion.xmf,190,-2.33118e-05,7.59067e-05,0,4.40911e-05,-1.53904e+09,-1.5322e+09,-1.53743e+09,3.0411e+06,0.0852521,0.700483,0,0.705651,-2871.35,-53606,-0,53682.8,3.0411e+06
step02_gravity_refstate-intrusion.xmf,191,-2.52447e-05,9.32913e-05,0,4.77935e-05,-1.55527e+09,-1.54709e+09,-1.55352e+09,3.29646e+06,0.109413,0.629381,0,0.638821,-3079.59,-54118.9,-0,54206.5,3.29646e+06
step02_gravity_refstate-intrusion.xmf,192,-4.24252e-05,0.00017671,0,3.48207e-05,-1.60113e+09,-1.58601e+09,-1.5982e+09,2.40169e+06,0.126475,0.469029,0,0.485782,-2747.44,-55567.1,-0,55635,2.40169e+06
step02_gravity_refstate-intrusion.xmf,193,-3.41293e-05,0.00013702,0,4.06242e-05,-1.58494e+09,-1.57314e+09,-1.58259e+09,2.80198e+06,0.136571,0.51987,0,0.537509,-3105.15,-55052.5,-0,55140,2.80198e+06
step02_gravity_refstate-intrusion.xmf,194,-9.53855e-06,8.88766e-06,0,5.55223e-05,-1.4855e+09,-1.48423e+09,-1.48485e+09,3.82955e+06,0.0210212,0.737302,0,0.737602,-3106.45,-51926.7,-0,52019.6,3.82955e+06
step02_gravity_refstate-intrusion.xmf,195,-3.79016e-06,-1.3661e-05,0,4.53618e-05,-1.47165e+09,-1.47233e+09,-1.47139e+09,3.12875e+06,0.00365333,0.774483,0,0.774491,-2831.1,-51493.7,-0,51571.5,3.12875e+06
step02_gravity_refstate-intrusion.xmf,196,3.06795e-06,-4.20049e-05,0,3.8407e-05,-1.45597e+09,-1.45908e+09,-1.45618e+09,2.64905e+06,-0.00937743,0.790956,-0,0.791012,-2562.32,-51002,-0,51066.3,2.64905e+06
step02_gravity_refstate-intrusion.xmf,197,7.08035e-06,-7.20283e-05,0,3.56168e-05,-1.44019e+09,-1.44565e+09,-1.44068e+09,2.4566e+06,-0.0140344,0.786646,-0,0.786771,-2282.82,-50496.2,-0,50547.8,2.4566e+06
step02_gravity_refstate-intrusion.xmf,198,-2.63739e-05,0.000106846,0,4.92204e-05,-1.56817e+09,-1.55898e+09,-1.56635e+09,3.39488e+06,0.126816,0.5696,0,0.583547,-3222.53,-54527.9,-0,54623,3.39488e+06
step02_gravity_refstate-intrusion.xmf,199,-1.74804e-05,5.27658e-05,0,5.77638e-05,-1.52331e+09,-1.51846e+09,-1.5221e+09,3.98415e+06,0.0713877,0.688682,0,0.692372,-3175.99,-53114.6,-0,53209.4,3.98415e+06
step02_gravity_refstate-intrusion.xmf,200,-1.27368e-05,2.36126e-05,0,6.80576e-05,-1.49541e+09,-1.49291e+09,-1.49454e+09,4.69414e+06,0.0369434,0.685334,0,0.686329,-3389.99,-52237.9,-0,52347.8,4.69414e+06
step02_gravity_refstate-intrusion.xmf,201,-1.72423e-05,6.75253e-05,0,6.65405e-05,-1.53957e+09,-1.53372e+09,-1.53838e+09,4.5895e+06,0.0983946,0.608885,0,0.616784,-3464.15,-53632.8,-0,53744.6,4.5895e+06
step02_gravity_refstate-intrusion.xmf,202,-1.79013e-05,8.37482e-05,0,6.51212e-05,-1.55898e+09,-1.55197e+09,-1.55774e+09,4.49161e+06,0.124474,0.546413,0,0.560411,-3557.71,-54247,-0,54363.5,4.49161e+06
step02_gravity_refstate-intrusion.xmf,203,-1.42562e-05,3.75706e-05,0,7.55976e-05,-1.50961e+09,-1.50604e+09,-1.50863e+09,5.2142e+06,0.0586022,0.640805,0,0.643479,-3554.39,-52686.1,-0,52805.9,5.2142e+06
step02_gravity_refstate-intrusion.xmf,204,-1.25265e-05,1.23324e-05,0,7.61126e-05,-1.48191e+09,-1.48019e+09,-1.48104e+09,5.24972e+06,0.0215747,0.656443,0,0.656798,-3585.19,-51809.7,-0,51933.6,5.24972e+06
step02_gravity_refstate-intrusion.xmf,205,-3.72513e-05,0.000157378,0,4.11569e-05,-1.60182e+09,-1.5884e+09,-1.59925e+09,2.83872e+06,0.146657,0.42824,0,0.452656,-3256.64,-55585.1,-0,55680.4,2.83872e+06
step02_gravity_refstate-intrusion.xmf,206,-1.95627e-05,9.98388e-05,0,5.87253e-05,-1.57525e+09,-1.56702e+09,-1.5739e+09,4.05046e+06,0.142277,0.495851,0,0.515859,-3579.55,-54761,-0,54877.9,4.05046e+06
step02_gravity_refstate-intrusion.xmf,207,-7.89006e-06,-3.78315e-06,0,6.04664e-05,-1.47191e+09,-1.47163e+09,-1.47137e+09,4.17055e+06,0.00631267,0.714703,0,0.714731,-3260.36,-51499.1,-0,51602.2,4.17055e+06
step02_gravity_refstate-intrusion.xmf,208,-1.49756e-06,-2.80875e-05,0,5.25998e-05,-1.45588e+09,-1.45771e+09,-1.45578e+09,3.62798e+06,-0.0100008,0.726653,-0,0.726722,-3124.06,-50999,-0,51094.6,3.62798e+06
step02_gravity_refstate-intrusion.xmf,209,6.1875e-06,-6.15672e-05,0,4.52737e-05,-1.44031e+09,-1.44499e+09,-1.44074e+09,3.12267e+06,-0.0173706,0.742861,-0,0.743064,-2793.02,-50508,-0,50585.2,3.12267e+06
step02_gravity_refstate-intrusion.xmf,210,-1.48515e-05,5.14074e-05,0,7.73352e-05,-1.52542e+09,-1.52085e+09,-1.5244e+09,5.33405e+06,0.0815843,0.606542,0,0.612004,-3615.8,-53186.8,-0,53309.5,5.33405e+06
step02_gravity_refstate-intrusion.xmf,211,-1.38257e-05,2.58511e-05,0,8.51338e-05,-1.49585e+09,-1.49311e+09,-1.4949e+09,5.87194e+06,0.0419331,0.619114,0,0.620532,-3726.59,-52250.3,-0,52383,5.87194e+06
step02_gravity_refstate-intrusion.xmf,212,-2.37312e-05,0.000118687,0,5.03384e-05,-1.59105e+09,-1.58122e+09,-1.58941e+09,3.47199e+06,0.154568,0.439923,0,0.466287,-3596.18,-55255.1,-0,55372,3.47199e+06
step02_gravity_refstate-intrusion.xmf,213,-1.06527e-05,-3.03555e-06,0,7.33803e-05,-1.46443e+09,-1.46391e+09,-1.4637e+09,5.06127e+06,0.000888706,0.657004,0,0.657004,-3595.86,-51260,-0,51386,5.06127e+06
step02_gravity_refstate-intrusion.xmf,214,-3.16921e-05,0.000142855,0,4.47034e-05,-1.60338e+09,-1.59134e+09,-1.6012e+09,3.08333e+06,0.159128,0.387656,0,0.419045,-3635.71,-55635.9,-0,55754.5,3.08333e+06
step02_gravity_refstate-intrusion.xmf,215,3.62137e-06,-5.00601e-05,0,5.53812e-05,-1.43774e+09,-1.44145e+09,-1.43799e+09,3.81982e+06,-0.0203478,0.686119,-0,0.68642,-3271.63,-50432.3,-0,50538.3,3.81982e+06
step02_gravity_refstate-intrusion.xmf,216,-7.61239e-06,-1.86089e-05,0,6.80717e-05,-1.44842e+09,-1.44918e+09,-1.44789e+09,4.69512e+06,-0.014238,0.650299,-0,0.650455,-3603.51,-50759,-0,50886.7,4.69512e+06
step02_gravity_refstate-intrusion.xmf,217,-5.81043e-07,-3.70423e-05,0,6.52734e-05,-1.43552e+09,-1.43803e+09,-1.43548e+09,4.50211e+06,-0.0213418,0.635174,-0,0.635533,-3636.59,-50363.7,-0,50494.8,4.50211e+06
step02_gravity_refstate-crust.xmf,0,-5.88403e-08,6.72343e-06,0,1.55206e-08,-1.09844e+09,-1.09798e+09,-1.09844e+09,1064.71,3.7803e-20,0.0370963,0,0.0370963,40000,-40000,0,56568.5,1064.71
step02_gravity_refstate-crust.xmf,1,-1.29142e-07,6.80492e-06,0,1.08936e-07,-1.09844e+09,-1.09797e+09,-1.09844e+09,7473.04,0.000211942,0.0376892,0,0.0376898,37718.5,-40000,0,54978.9,7473.04
step02_gravity_refstate-crust.xmf,2,-3.18776e-07,6.99365e-06,0,1.74467e-07,-1.09846e+09,-1.09796e+09,-1.09844e+09,11968.4,0.00069058,0.0394082,0,0.0394143,35541.8,-40000,0,53509.1,11968.4
step02_gravity_refstate-crust.xmf,3,-6.07243e-07,7.27975e-06,0,1.90825e-07,-1.09848e+09,-1.09794e+09,-1.09844e+09,13090.6,0.00165323,0.0422158,0,0.0422481,33464.7,-40000,0,52152.5,13090.6
step02_gravity_refstate-crust.xmf,4,-1.02368e-06,7.63718e-06,0,1.21582e-07,-1.09851e+09,-1.09791e+09,-1.09844e+09,8340.51,0.00323997,0.0461322,0,0.0462459,31481.8,-40000,0,50902.9,8340.51
step02_gravity_refstate-crust.xmf,5,-1.46765e-06,8.09147e-06,0,1.0704e-08,-1.09854e+09,-1.09788e+09,-1.09844e+09,734.297,0.00556715,0.051225,0,0.0515266,29588.3,-40000,0,49754.1,734.297
step02_gravity_refstate-crust.xmf,6,-2.00463e-06,8.57477e-06,0,-2.22398e-07,-1.09858e+09,-1.09785e+09,-1.09844e+09,-15256.5,0.00870002,0.0575848,0,0.0582383,27779.3,-40000,0,48700,15256.5
step02_gravity_refstate-crust.xmf,7,-2.59354e-06,9.08219e-06,0,-5.73659e-07,-1.09862e+09,-1.09782e+09,-1.09844e+09,-39353,0.0126675,0.0653201,0,0.0665371,26050.1,-40000,0,47734.8,39353
step02_gravity_refstate-crust.xmf,8,-3.21751e-06,9.59067e-06,0,-1.05775e-06,-1.09867e+09,-1.09779e+09,-1.09845e+09,-72561.9,0.0174622,0.0745485,0,0.0765664,24396.4,-40000,0,46852.8,72561.9
step02_gravity_refstate-crust.xmf,9,-3.85069e-06,1.00623e-05,0,-1.69443e-06,-1.09872e+09,-1.09777e+09,-1.09846e+09,-116238,0.0230448,0.0853898,0,0.0884448,22813.7,-40000,0,46048.5,116238
step02_gravity_refstate-crust.xmf,10,-4.46658e-06,1.0461e-05,0,-2.49103e-06,-1.09877e+09,-1.09775e+09,-1.09847e+09,-170884,0.0293389,0.0979572,0,0.102256,21297.9,-40000,0,45316.6,170884
step02_gravity_refstate-crust.xmf,11,-5.03519e-06,1.07577e-05,0,-3.4541e-06,-1.09882e+09,-1.09774e+09,-1.09848e+09,-236951,0.0362331,0.112352,0,0.11805,19844.8,-40000,0,44652.2,236951
step02_gravity_refstate-crust.xmf,12,-5.51837e-06,1.08688e-05,0,-4.61459e-06,-1.09887e+09,-1.09775e+09,-1.09849e+09,-316561,0.0435806,0.128652,0,0.135833,18450.5,-40000,0,44050.2,316561
step02_gravity_refstate-crust.xmf,13,-5.86731e-06,1.08397e-05,0,-5.88507e-06,-1.09891e+09,-1.09776e+09,-1.09851e+09,-403716,0.0511952,0.146901,0,0.155567,17111.7,-40000,0,43506.4,403716
step02_gravity_refstate-crust.xmf,14,-6.02585e-06,1.05134e-05,0,-7.3415e-06,-1.09894e+09,-1.09781e+09,-1.09853e+09,-503627,0.058857,0.167108,0,0.17717,15824.5,-40000,0,43016.5,503627
step02_gravity_refstate-crust.xmf,15,-5.96688e-06,9.908e-06,0,-8.90133e-06,-1.09896e+09,-1.09787e+09,-1.09855e+09,-610631,0.0663168,0.189234,0,0.200518,14585.2,-40000,0,42576.1,610631
step02_gravity_refstate-crust.xmf,16,-5.67743e-06,8.94545e-06,0,-1.05401e-05,-1.09897e+09,-1.09797e+09,-1.09858e+09,-723053,0.0732819,0.21319,0,0.225434,13389.8,-40000,0,42181.6,723053
step02_gravity_refstate-crust.xmf,17,-5.02051e-06,7.56626e-06,0,-1.22024e-05,-1.09896e+09,-1.09809e+09,-1.09861e+09,-837082,0.0794623,0.238821,0,0.251694,12234.4,-40000,0,41829.2,837082
step02_gravity_refstate-crust.xmf,18,-4.00601e-06,5.75091e-06,0,-1.38056e-05,-1.09892e+09,-1.09825e+09,-1.09865e+09,-947067,0.0845196,0.265893,0,0.279003,11115.2,-40000,0,41515.6,947067
step02_gravity_refstate-crust.xmf,19,-2.53865e-06,3.52992e-06,0,-1.51922e-05,-1.09885e+09,-1.09844e+09,-1.09868e+09,-1.04218e+06,0.0881199,0.294093,0,0.307011,10028,-40000,0,41237.9,1.04218e+06
step02_gravity_refstate-crust.xmf,20,-8.02795e-07,7.61877e-07,0,-1.6427e-05,-1.09878e+09,-1.09867e+09,-1.09872e+09,-1.12689e+06,0.0899347,0.323013,0,0.335299,8968.72,-40000,0,40993.1,1.12689e+06
step02_gravity_refstate-crust.xmf,21,1.37519e-06,-2.36939e-06,0,-1.72061e-05,-1.09867e+09,-1.09892e+09,-1.09876e+09,-1.18034e+06,0.0896484,0.352149,0,0.363381,7933.15,-40000,0,40779.1,1.18034e+06
step02_gravity_refstate-crust.xmf,22,3.89148e-06,-5.85088e-06,0,-1.7485e-05,-1.09854e+09,-1.0992e+09,-1.0988e+09,-1.19947e+06,0.0869986,0.38089,0,0.390699,6916.9,-40000,0,40593.6,1.19947e+06
step02_gravity_refstate-crust.xmf,23,6.61202e-06,-9.53168e-06,0,-1.7109e-05,-1.09839e+09,-1.0995e+09,-1.09884e+09,-1.17368e+06,0.0817569,0.40852,0,0.416621,5915.44,-40000,0,40435,1.17368e+06
step02_gravity_refstate-crust.xmf,24,9.45105e-06,-1.31234e-05,0,-1.59091e-05,-1.09823e+09,-1.09978e+09,-1.09888e+09,-1.09137e+06,0.0738242,0.434241,0,0.440472,4924.17,-40000,0,40302,1.09137e+06
step02_gravity_refstate-crust.xmf,25,1.21682e-05,-1.67691e-05,0,-1.40925e-05,-1.09808e+09,-1.10007e+09,-1.09892e+09,-966745,0.0631919,0.457167,0,0.461513,3938.38,-40000,0,40193.4,966745
step02_gravity_refstate-crust.xmf,26,1.46148e-05,-1.98508e-05,0,-1.14057e-05,-1.09794e+09,-1.1003e+09,-1.09894e+09,-782432,0.0500156,0.476372,0,0.47899,2953.78,-40000,0,40108.9,782432
step02_gravity_refstate-crust.xmf,27,1.65557e-05,-2.23016e-05,0,-8.03698e-06,-1.09783e+09,-1.10049e+09,-1.09896e+09,-551337,0.0346727,0.490908,0,0.492131,1969.19,-40000,0,40048.4,551337
step02_gravity_refstate-crust.xmf,28,1.77881e-05,-2.38507e-05,0,-4.1326e-06,-1.09776e+09,-1.10061e+09,-1.09898e+09,-283497,0.0177455,0.499975,0,0.50029,984.598,-40000,0,40012.1,283497
step02_gravity_refstate-crust.xmf,29,1.82555e-05,-2.43797e-05,0,5.10879e-08,-1.09773e+09,-1.10065e+09,-1.09898e+09,3504.63,-4.30055e-07,0.503065,-0,0.503065,0,-40000,0,40000,3504.63
step02_gravity_refstate-crust.xmf,30,1.78218e-05,-2.37978e-05,0,4.2127e-06,-1.09775e+09,-1.10061e+09,-1.09897e+09,288991,-0.0177467,0.499976,-0,0.500291,-984.598,-40000,-0,40012.1,288991
step02_gravity_refstate-crust.xmf,31,1.65444e-05,-2.21867e-05,0,8.108e-06,-1.09783e+09,-1.10048e+09,-1.09896e+09,556209,-0.0346738,0.49091,-0,0.492133,-1969.19,-40000,-0,40048.4,556209
step02_gravity_refstate-crust.xmf,32,1.455e-05,-1.98039e-05,0,1.13591e-05,-1.09795e+09,-1.1003e+09,-1.09894e+09,779237,-0.0500176,0.476372,-0,0.478991,-2953.78,-40000,-0,40108.9,779237
step02_gravity_refstate-crust.xmf,33,1.21353e-05,-1.65611e-05,0,1.41164e-05,-1.09808e+09,-1.10004e+09,-1.09891e+09,968383,-0.0631916,0.457166,-0,0.461513,-3938.38,-40000,-0,40193.4,968383
step02_gravity_refstate-crust.xmf,34,9.39432e-06,-1.30199e-05,0,1.599e-05,-1.09823e+09,-1.09977e+09,-1.09887e+09,1.09691e+06,-0.0738236,0.434239,-0,0.44047,-4924.17,-40000,-0,40302,1.09691e+06
step02_gravity_refstate-crust.xmf,35,6.57609e-06,-9.31674e-06,0,1.70682e-05,-1.09839e+09,-1.09948e+09,-1.09884e+09,1.17088e+06,-0.0817567,0.408519,-0,0.41662,-5915.44,-40000,-0,40435,1.17088e+06
step02_gravity_refstate-crust.xmf,36,3.83919e-06,-5.66171e-06,0,1.74362e-05,-1.09853e+09,-1.09919e+09,-1.0988e+09,1.19612e+06,-0.0869987,0.38089,-0,0.390699,-6916.9,-40000,-0,40593.6,1.19612e+06
step02_gravity_refstate-crust.xmf,37,1.35535e-06,-2.24017e-06,0,1.715e-05,-1.09866e+09,-1.09891e+09,-1.09876e+09,1.17649e+06,-0.0896484,0.352149,-0,0.363381,-7933.15,-40000,-0,40779.1,1.17649e+06
step02_gravity_refstate-crust.xmf,38,-8.22651e-07,8.62071e-07,0,1.63626e-05,-1.09877e+09,-1.09866e+09,-1.09872e+09,1.12247e+06,-0.0899352,0.323013,-0,0.3353,-8968.72,-40000,-0,40993.1,1.12247e+06
step02_gravity_refstate-crust.xmf,39,-2.61803e-06,3.55347e-06,0,1.51847e-05,-1.09886e+09,-1.09844e+09,-1.09868e+09,1.04167e+06,-0.0881199,0.294092,-0,0.30701,-10028,-40000,-0,41237.9,1.04167e+06
step02_gravity_refstate-crust.xmf,40,-4.01809e-06,5.79888e-06,0,1.37441e-05,-1.09892e+09,-1.09825e+09,-1.09864e+09,942848,-0.0845198,0.265893,-0,0.279003,-11115.2,-40000,-0,41515.6,942848
step02_gravity_refstate-crust.xmf,41,-5.02365e-06,7.58831e-06,0,1.21505e-05,-1.09896e+09,-1.09809e+09,-1.09861e+09,833525,-0.079463,0.238821,-0,0.251694,-12234.4,-40000,-0,41829.2,833525
step02_gravity_refstate-crust.xmf,42,-5.66544e-06,8.93541e-06,0,1.04958e-05,-1.09897e+09,-1.09797e+09,-1.09858e+09,720013,-0.0732827,0.21319,-0,0.225434,-13389.8,-40000,-0,42181.6,720013
step02_gravity_refstate-crust.xmf,43,-5.99038e-06,9.87835e-06,0,8.87182e-06,-1.09897e+09,-1.09788e+09,-1.09855e+09,608607,-0.0663161,0.189233,-0,0.200517,-14585.2,-40000,-0,42576.1,608607
step02_gravity_refstate-crust.xmf,44,-6.03638e-06,1.048e-05,0,7.31456e-06,-1.09895e+09,-1.09781e+09,-1.09853e+09,501779,-0.0588566,0.167107,-0,0.177169,-15824.5,-40000,-0,43016.5,501779
step02_gravity_refstate-crust.xmf,45,-5.85795e-06,1.07851e-05,0,5.87664e-06,-1.09891e+09,-1.09777e+09,-1.09851e+09,403137,-0.0511951,0.146901,-0,0.155566,-17111.7,-40000,-0,43506.4,403137
step02_gravity_refstate-crust.xmf,46,-5.50337e-06,1.0838e-05,0,4.58602e-06,-1.09887e+09,-1.09775e+09,-1.09849e+09,314601,-0.0435804,0.128652,-0,0.135833,-18450.5,-40000,-0,44050.2,314601
step02_gravity_refstate-crust.xmf,47,-5.02198e-06,1.06941e-05,0,3.45785e-06,-1.09882e+09,-1.09775e+09,-1.09848e+09,237209,-0.0362329,0.112351,-0,0.118049,-19844.8,-40000,-0,44652.2,237209
step02_gravity_refstate-crust.xmf,48,-4.45439e-06,1.03995e-05,0,2.49943e-06,-1.09877e+09,-1.09775e+09,-1.09847e+09,171461,-0.0293385,0.0979571,-0,0.102256,-21297.9,-40000,-0,45316.6,171461
step02_gravity_refstate-crust.xmf,49,-3.83847e-06,1.00001e-05,0,1.70877e-06,-1.09872e+09,-1.09777e+09,-1.09846e+09,117222,-0.0230448,0.0853901,-0,0.0884451,-22813.7,-40000,-0,46048.5,117222
step02_gravity_refstate-crust.xmf,50,-3.20626e-06,9.53449e-06,0,1.07778e-06,-1.09867e+09,-1.0978e+09,-1.09845e+09,73935.6,-0.0174628,0.0745489,-0,0.0765669,-24396.4,-40000,-0,46852.8,73935.6
step02_gravity_refstate-crust.xmf,51,-2.58469e-06,9.03832e-06,0,5.95309e-07,-1.09862e+09,-1.09783e+09,-1.09845e+09,40838.2,-0.0126678,0.0653202,-0,0.0665372,-26050.1,-40000,-0,47734.8,40838.2
step02_gravity_refstate-crust.xmf,52,-1.99602e-06,8.53886e-06,0,2.44577e-07,-1.09858e+09,-1.09786e+09,-1.09844e+09,16778,-0.00870045,0.0575847,-0,0.0582383,-27779.3,-40000,-0,48700,16778
step02_gravity_refstate-crust.xmf,53,-1.46006e-06,8.06028e-06,0,1.06043e-08,-1.09854e+09,-1.09789e+09,-1.09844e+09,727.453,-0.00556698,0.0512246,-0,0.0515262,-29588.3,-40000,-0,49754.1,727.453
step02_gravity_refstate-crust.xmf,54,-9.92897e-07,7.62796e-06,0,-1.20332e-07,-1.09851e+09,-1.09791e+09,-1.09844e+09,-8254.8,-0.00323981,0.0461321,-0,0.0462457,-31481.8,-40000,-0,50902.9,8254.8
step02_gravity_refstate-crust.xmf,55,-6.0766e-07,7.26278e-06,0,-1.64993e-07,-1.09848e+09,-1.09794e+09,-1.09844e+09,-11318.5,-0.00165291,0.0422157,-0,0.042248,-33464.7,-40000,-0,52152.5,11318.5
step02_gravity_refstate-crust.xmf,56,-3.10132e-07,6.97991e-06,0,-1.50024e-07,-1.09846e+09,-1.09796e+09,-1.09844e+09,-10291.6,-0.000690366,0.0394082,-0,0.0394143,-35541.8,-40000,-0,53509.1,10291.6
step02_gravity_refstate-crust.xmf,57,-1.25696e-07,6.79817e-06,0,-9.12055e-08,-1.09844e+09,-1.09797e+09,-1.09844e+09,-6256.7,-0.000211334,0.0376901,-0,0.0376907,-37718.5,-40000,-0,54978.9,6256.7
step02_gravity_refstate-crust.xmf,58,-5.95595e-08,6.72379e-06,0,-1.57553e-08,-1.09844e+09,-1.09798e+09,-1.09844e+09,-1080.81,-1.24479e-19,0.0370963,-0,0.0370963,-40000,-40000,-0,56568.5,1080.81
step02_gravity_refstate-crust.xmf,59,-7.04848e-07,6.7975e-06,0,3.36688e-09,-1.0371e+09,-1.03659e+09,-1.03706e+09,230.968,1.49915e-19,0.0522555,0,0.0522555,40000,-37764.5,0,55010.5,230.968
step02_gravity_refstate-crust.xmf,60,-5.63518e-07,6.83137e-06,0,1.26892e-08,-1.05438e+09,-1.05387e+09,-1.05434e+09,870.48,0.00087516,0.0483144,0,0.0483223,38402.6,-38394.1,0,54303.5,870.48
step02_gravity_refstate-crust.xmf,61,-1.20855e-06,6.76207e-06,0,6.3233e-09,-9.74804e+08,-9.74257e+08,-9.74721e+08,433.778,4.78086e-19,0.0676744,0,0.0676744,40000,-35494.3,0,53477.5,433.778
step02_gravity_refstate-crust.xmf,62,-1.01103e-06,6.81558e-06,0,-7.07295e-08,-1.00541e+09,-1.00487e+09,-1.00534e+09,-4852.04,0.00167161,0.0605501,0,0.0605732,38305.4,-36609.4,0,52986.3,4852.04
step02_gravity_refstate-crust.xmf,63,-8.15548e-07,6.93412e-06,0,-3.74674e-08,-1.03942e+09,-1.03889e+09,-1.03936e+09,-2570.26,0.00251342,0.0533583,0,0.0534174,36544.7,-37848.5,0,52612,2570.26
step02_gravity_refstate-crust.xmf,64,-1.41826e-06,6.72272e-06,0,-1.5336e-07,-9.46458e+08,-9.459e+08,-9.46361e+08,-10520.5,0.00258584,0.0751966,0,0.075241,38151.4,-34461.4,0,51411.3,10520.5
step02_gravity_refstate-crust.xmf,65,-1.57977e-06,6.58144e-06,0,6.61475e-09,-9.11374e+08,-9.10814e+08,-9.11266e+08,453.772,7.56487e-19,0.0830987,0,0.0830987,40000,-33183.3,0,51972.4,453.772
step02_gravity_refstate-crust.xmf,66,-1.25968e-06,6.86481e-06,0,-1.97234e-07,-9.82252e+08,-9.81695e+08,-9.82166e+08,-13530.3,0.00385431,0.0675242,0,0.0676341,36754.2,-35765.4,0,51283.9,13530.3
step02_gravity_refstate-crust.xmf,67,-9.49927e-07,7.14502e-06,0,-7.2288e-08,-1.04918e+09,-1.04862e+09,-1.04911e+09,-4958.96,0.00399861,0.0536418,0,0.0537906,34395.1,-38203.5,0,51405.5,4958.96
step02_gravity_refstate-crust.xmf,68,-1.74256e-06,6.47205e-06,0,-2.9591e-07,-8.80114e+08,-8.7955e+08,-8.79994e+08,-20299.5,0.00400771,0.0915035,0,0.0915912,37678.7,-32044.4,0,49462.4,20299.5
step02_gravity_refstate-crust.xmf,69,-1.5903e-06,6.76302e-06,0,-3.91441e-07,-9.33302e+08,-9.32729e+08,-9.33193e+08,-26852.8,0.00593831,0.0805096,0,0.0807283,36064.5,-33981.8,0,49552.1,26852.8
step02_gravity_refstate-crust.xmf,70,-1.38702e-06,7.02968e-06,0,-3.27878e-07,-9.88266e+08,-9.87689e+08,-9.88171e+08,-22492.5,0.00627938,0.0687337,0,0.0690199,34775.3,-35984.1,0,50041.8,22492.5
step02_gravity_refstate-crust.xmf,71,-1.21702e-06,7.43955e-06,0,-1.4445e-07,-1.05412e+09,-1.05353e+09,-1.05404e+09,-9909.26,0.00582309,0.0561372,0,0.0564384,32427.5,-38382.9,0,50247.3,9909.26
step02_gravity_refstate-crust.xmf,72,-1.83317e-06,6.2896e-06,0,2.27399e-09,-8.46648e+08,-8.4609e+08,-8.46522e+08,155.996,7.39299e-19,0.0982697,0,0.0982697,40000,-30825.4,0,50499.5,155.996
step02_gravity_refstate-crust.xmf,73,-1.61655e-06,7.76959e-06,0,-3.27868e-07,-1.05555e+09,-1.05491e+09,-1.05544e+09,-22491.7,0.00839198,0.0607813,0,0.0613579,30517.6,-38434,0,49076.5,22491.7
step02_gravity_refstate-crust.xmf,74,-1.3912e-06,7.23629e-06,0,-3.30978e-07,-1.01342e+09,-1.01282e+09,-1.01332e+09,-22705.1,0.00718089,0.0650549,0,0.06545,33307.5,-36900,0,49709.2,22705.1
step02_gravity_refstate-crust.xmf,75,-1.93633e-06,6.09915e-06,0,-3.30866e-07,-8.11849e+08,-8.11298e+08,-8.11716e+08,-22697.4,0.00386064,0.106891,0,0.10696,37986.6,-29557.8,0,48131.6,22697.4
step02_gravity_refstate-crust.xmf,76,-2.02233e-06,8.17189e-06,0,-5.47894e-07,-1.05751e+09,-1.05681e+09,-1.05737e+09,-37585.5,0.0115146,0.066503,0,0.0674925,28688.9,-38504,0,48016.8,37585.5
step02_gravity_refstate-crust.xmf,77,-1.86373e-06,6.54491e-06,0,-6.49429e-07,-8.78131e+08,-8.77554e+08,-8.78003e+08,-44550.8,0.00836579,0.0951217,0,0.0954889,35276.8,-31971.8,0,47609.3,44550.8
step02_gravity_refstate-crust.xmf,78,-1.80154e-06,6.86274e-06,0,-6.94354e-07,-9.25527e+08,-9.24933e+08,-9.25404e+08,-47632.7,0.00980283,0.086315,0,0.0868698,33905,-33698.1,0,47802.8,47632.7
step02_gravity_refstate-crust.xmf,79,-1.75389e-06,7.18449e-06,0,-6.59877e-07,-9.70583e+08,-9.6997e+08,-9.70462e+08,-45267.5,0.0104854,0.0780565,0,0.0787576,32568.2,-35339.1,0,48057.6,45267.5
step02_gravity_refstate-crust.xmf,80,-1.72154e-06,7.49015e-06,0,-5.62603e-07,-1.0103e+09,-1.00966e+09,-1.01018e+09,-38594.6,0.0103464,0.0707431,0,0.0714957,31389.8,-36785.4,0,48357.9,38594.6
step02_gravity_refstate-crust.xmf,81,-1.9668e-06,5.89072e-06,0,1.93368e-09,-7.80454e+08,-7.79915e+08,-7.80319e+08,132.65,8.61029e-19,0.112954,0,0.112954,40000,-28414.4,0,49065,132.65
step02_gravity_refstate-crust.xmf,82,-1.93027e-06,6.26029e-06,0,-5.88342e-07,-8.34719e+08,-8.34157e+08,-8.34586e+08,-40360.3,0.00704441,0.103659,0,0.103898,36261.3,-30390.7,0,47312.5,40360.3
step02_gravity_refstate-crust.xmf,83,-2.07544e-06,7.77839e-06,0,-8.33373e-07,-1.01469e+09,-1.01401e+09,-1.01455e+09,-57169.4,0.0135292,0.07568,0,0.0768798,29540.7,-36944.4,0,47302.6,57169.4
step02_gravity_refstate-crust.xmf,84,-2.50713e-06,8.57513e-06,0,-8.9583e-07,-1.0582e+09,-1.05744e+09,-1.05803e+09,-61453.9,0.0153954,0.0738687,0,0.0754559,26944.4,-38528,0,47015,61453.9
step02_gravity_refstate-crust.xmf,85,-2.01102e-06,5.6742e-06,0,-4.19025e-07,-7.48175e+08,-7.47647e+08,-7.48037e+08,-28745.1,0.00445325,0.12072,0,0.120802,37771.6,-27238.7,0,46568.7,28745.1
step02_gravity_refstate-crust.xmf,86,-2.01698e-06,5.93701e-06,0,-7.09346e-07,-7.83673e+08,-7.83127e+08,-7.83534e+08,-48661.1,0.00784476,0.115336,0,0.115602,36034.4,-28531.4,0,45962.1,48661.1
step02_gravity_refstate-crust.xmf,87,-2.42707e-06,8.11068e-06,0,-1.1318e-06,-1.01811e+09,-1.01739e+09,-1.01795e+09,-77641.7,0.0170823,0.0818178,0,0.083582,27832.1,-37068.2,0,46353.8,77641.7
step02_gravity_refstate-crust.xmf,88,-2.03125e-06,6.23316e-06,0,-9.32443e-07,-8.22799e+08,-8.22233e+08,-8.2266e+08,-63965.6,0.0107683,0.109644,0,0.110172,34443,-29956.3,0,45647.6,63965.6
step02_gravity_refstate-crust.xmf,89,-2.03967e-06,6.5961e-06,0,-1.04243e-06,-8.7012e+08,-8.69527e+08,-8.6998e+08,-71510.9,0.0127848,0.101884,0,0.102683,33090.7,-31679.5,0,45810.4,71510.9
step02_gravity_refstate-crust.xmf,90,-2.06569e-06,6.96862e-06,0,-1.09318e-06,-9.15804e+08,-9.15184e+08,-9.15662e+08,-74992.2,0.0142963,0.0945481,0,0.0956228,31743.4,-33343.2,0,46037.1,74992.2
step02_gravity_refstate-crust.xmf,91,-2.14783e-06,7.40406e-06,0,-1.09165e-06,-9.6287e+08,-9.62214e+08,-9.62722e+08,-74886.9,0.0153676,0.0873485,0,0.08869,30252.9,-35057,0,46305.9,74886.9
step02_gravity_refstate-crust.xmf,92,-3.03451e-06,8.97106e-06,0,-1.38745e-06,-1.05755e+09,-1.05673e+09,-1.05735e+09,-95179.1,0.020217,0.0833058,0,0.0857239,25231.5,-38502.9,0,46033.7,95179.1
step02_gravity_refstate-crust.xmf,93,-2.01025e-06,5.41139e-06,0,-1.70678e-11,-7.12623e+08,-7.12114e+08,-7.12485e+08,-1.17085,9.97365e-19,0.126913,0,0.126913,40000,-25944,0,47676.9,1.17085
step02_gravity_refstate-crust.xmf,94,-2.36667e-06,7.72652e-06,0,-1.28494e-06,-9.82753e+08,-9.8206e+08,-9.8259e+08,-88146.6,0.0178954,0.0885396,0,0.09033,28600,-35780.5,0,45806.2,88146.6
step02_gravity_refstate-crust.xmf,95,-2.85079e-06,8.40812e-06,0,-1.59706e-06,-1.01759e+09,-1.01682e+09,-1.01739e+09,-109558,0.0216467,0.0907426,0,0.0932888,26120.5,-37047.8,0,45330.2,109558
step02_gravity_refstate-crust.xmf,96,-2.00067e-06,5.08563e-06,0,-5.23188e-07,-6.70826e+08,-6.7034e+08,-6.70688e+08,-35890.7,0.00511903,0.136193,0,0.136289,37435,-24421.9,0,44696.8,35890.7
step02_gravity_refstate-crust.xmf,97,-2.04778e-06,5.50345e-06,0,-9.04077e-07,-7.2457e+08,-7.24052e+08,-7.24429e+08,-62019.7,0.00925523,0.128693,0,0.129025,35413.8,-26378.9,0,44158.6,62019.7
step02_gravity_refstate-crust.xmf,98,-2.09535e-06,5.85067e-06,0,-1.18938e-06,-7.68822e+08,-7.68277e+08,-7.68678e+08,-81591.4,0.0126663,0.123203,0,0.123852,33722.5,-27990.3,0,43825.4,81591.4
step02_gravity_refstate-crust.xmf,99,-2.67259e-06,7.89453e-06,0,-1.70548e-06,-9.78164e+08,-9.77439e+08,-9.7798e+08,-116996,0.0219837,0.0970779,0,0.0995359,27098.9,-35612.4,0,44750.4,116996
step02_gravity_refstate-crust.xmf,100,-2.15373e-06,6.22942e-06,0,-1.37987e-06,-8.15224e+08,-8.14648e+08,-8.15076e+08,-94659.3,0.0153558,0.117001,0,0.118005,32291.1,-29680,0,43859.1,94659.3
step02_gravity_refstate-crust.xmf,101,-2.22804e-06,6.62558e-06,0,-1.50151e-06,-8.6113e+08,-8.60522e+08,-8.60977e+08,-103004,0.0174864,0.110667,0,0.11204,30977.2,-31351.5,0,44073.9,103004
step02_gravity_refstate-crust.xmf,102,-2.33665e-06,7.03575e-06,0,-1.58876e-06,-9.04271e+08,-9.03628e+08,-9.04111e+08,-108989,0.0192921,0.105085,0,0.106841,29654.8,-32922.3,0,44309,108989
step02_gravity_refstate-crust.xmf,103,-2.49603e-06,7.44242e-06,0,-1.6876e-06,-9.4097e+08,-9.40288e+08,-9.40799e+08,-115769,0.0210734,0.101539,0,0.103703,28279.7,-34258.4,0,44422.7,115769
step02_gravity_refstate-crust.xmf,104,-3.28658e-06,8.6284e-06,0,-2.25162e-06,-1.01322e+09,-1.01241e+09,-1.013e+09,-154461,0.0273704,0.102974,0,0.106549,24380.3,-36887.4,0,44216.3,154461
step02_gravity_refstate-crust.xmf,105,-3.57516e-06,9.31107e-06,0,-2.06378e-06,-1.05472e+09,-1.05384e+09,-1.05448e+09,-141575,0.0261303,0.0954335,0,0.0989462,23540.3,-38398.2,0,45039.6,141575
step02_gravity_refstate-crust.xmf,106,-1.9764e-06,4.86714e-06,0,7.73749e-10,-6.42997e+08,-6.42527e+08,-6.42861e+08,53.0792,1.64557e-19,0.139942,0,0.139942,40000,-23408.5,0,46346.1,53.0792
step02_gravity_refstate-crust.xmf,107,-3.00981e-06,8.03559e-06,0,-2.29245e-06,-9.73611e+08,-9.72853e+08,-9.73404e+08,-157262,0.0271688,0.108354,0,0.111708,25378.3,-35445.5,0,43594.1,157262
step02_gravity_refstate-crust.xmf,108,-4.06397e-06,9.61363e-06,0,-2.7974e-06,-1.05762e+09,-1.05668e+09,-1.05734e+09,-191902,0.0318589,0.107072,0,0.111712,21956.9,-38502.1,0,44322.9,191902
step02_gravity_refstate-crust.xmf,109,-1.93468e-06,4.54412e-06,0,-3.6888e-07,-6.04267e+08,-6.03822e+08,-6.04134e+08,-25305.2,0.00341306,0.147184,0,0.147223,38236.3,-21998.1,0,44112.7,25305.2
step02_gravity_refstate-crust.xmf,110,-1.89738e-06,4.27806e-06,0,-2.27218e-09,-5.71412e+08,-5.70988e+08,-5.71282e+08,-155.872,8.4322e-19,0.151861,0,0.151861,40000,-20801.8,0,45085.6,155.872
step02_gravity_refstate-crust.xmf,111,-2.0024e-06,4.96439e-06,0,-1.13769e-06,-6.59239e+08,-6.58761e+08,-6.59102e+08,-78045.7,0.0108637,0.142861,0,0.143274,34546.4,-23999.8,0,42064.8,78045.7
step02_gravity_refstate-crust.xmf,112,-2.07795e-06,5.38414e-06,0,-1.43381e-06,-7.1175e+08,-7.11238e+08,-7.11608e+08,-98359.1,0.0142565,0.136838,0,0.137578,32981.4,-25911.9,0,41942.8,98359.1
step02_gravity_refstate-crust.xmf,113,-2.16431e-06,5.78543e-06,0,-1.68479e-06,-7.60635e+08,-7.60089e+08,-7.60486e+08,-115576,0.0173937,0.131466,0,0.132612,31514.3,-27691.9,0,41952.3,115576
step02_gravity_refstate-crust.xmf,114,-2.7719e-06,7.5142e-06,0,-2.26266e-06,-9.34039e+08,-9.33334e+08,-9.33849e+08,-155218,0.0262277,0.113049,0,0.116051,26447,-34005.1,0,43078.9,155218
step02_gravity_refstate-crust.xmf,115,-2.27027e-06,6.19943e-06,0,-1.87715e-06,-8.08285e+08,-8.07704e+08,-8.0813e+08,-128772,0.0201013,0.126049,0,0.127642,30177.5,-29426.9,0,42150,128772
step02_gravity_refstate-crust.xmf,116,-2.40276e-06,6.62071e-06,0,-2.03072e-06,-8.5317e+08,-8.52551e+08,-8.53005e+08,-139307,0.0224602,0.12109,0,0.123155,28898.1,-31061,0,42425.1,139307
step02_gravity_refstate-crust.xmf,117,-2.57425e-06,7.0383e-06,0,-2.19498e-06,-8.93207e+08,-8.92548e+08,-8.93031e+08,-150576,0.024814,0.11775,0,0.120336,27553.7,-32518.6,0,42622.4,150576
step02_gravity_refstate-crust.xmf,118,-3.30768e-06,8.05554e-06,0,-3.05391e-06,-9.66894e+08,-9.66114e+08,-9.66667e+08,-209498,0.033213,0.122762,0,0.127175,23589.6,-35199.8,0,42373.3,209498
step02_gravity_refstate-crust.xmf,119,-3.73376e-06,8.73264e-06,0,-3.18636e-06,-1.00794e+09,-1.00709e+09,-1.00768e+09,-218584,0.034566,0.119411,0,0.124313,22446.7,-36693.5,0,43014.7,218584
step02_gravity_refstate-crust.xmf,120,-4.50665e-06,9.84139e-06,0,-3.59709e-06,-1.06078e+09,-1.05979e+09,-1.06047e+09,-246760,0.0376082,0.119317,0,0.125104,20536.2,-38615.6,0,43736.7,246760
step02_gravity_refstate-crust.xmf,121,-1.84068e-06,3.96916e-06,0,-4.86114e-07,-5.3496e+08,-5.34561e+08,-5.34833e+08,-33347.4,0.00429621,0.158363,0,0.158422,37669.5,-19474.4,0,42405.7,33347.4
step02_gravity_refstate-crust.xmf,122,-1.92622e-06,4.49808e-06,0,-8.26552e-07,-6.01136e+08,-6.00696e+08,-6.01004e+08,-56701.5,0.00757085,0.150071,0,0.150262,36076.9,-21884.1,0,42195.5,56701.5
step02_gravity_refstate-crust.xmf,123,-1.79539e-06,3.67367e-06,0,-3.91547e-12,-4.97692e+08,-4.97316e+08,-4.97568e+08,-0.268601,1.76959e-19,0.162527,0,0.162527,40000,-18117.4,0,43911.7,0.268601
step02_gravity_refstate-crust.xmf,124,-2.99636e-06,7.49735e-06,0,-2.93084e-06,-9.27471e+08,-9.26751e+08,-9.27265e+08,-201056,0.0316926,0.126241,0,0.130158,24646.5,-33765,0,41803.4,201056
step02_gravity_refstate-crust.xmf,125,-4.10469e-06,9.10815e-06,0,-3.69496e-06,-1.02705e+09,-1.02614e+09,-1.02677e+09,-253474,0.0383265,0.125346,0,0.131075,21100.7,-37388.2,0,42931.6,253474
step02_gravity_refstate-crust.xmf,126,-1.74042e-06,3.37308e-06,0,-4.01105e-07,-4.62686e+08,-4.62336e+08,-4.62567e+08,-27515.8,0.00348111,0.167748,0,0.167784,38007.7,-16842.7,0,41572.4,27515.8
step02_gravity_refstate-crust.xmf,127,-1.70364e-06,3.06605e-06,0,-1.09067e-09,-4.21657e+08,-4.2133e+08,-4.21541e+08,-74.8201,5.34099e-19,0.171833,0,0.171833,40000,-15348.7,0,42843.7,74.8201
step02_gravity_refstate-crust.xmf,128,-1.88453e-06,4.32953e-06,0,-1.38921e-06,-5.88344e+08,-5.87918e+08,-5.88215e+08,-95299.9,0.0124784,0.157408,0,0.157902,33452,-21418.3,0,39721.3,95299.9
step02_gravity_refstate-crust.xmf,129,-1.98992e-06,4.8529e-06,0,-1.68276e-06,-6.52909e+08,-6.52439e+08,-6.52772e+08,-115437,0.0157687,0.150507,0,0.151331,32066.3,-23769.3,0,39915.2,115437
step02_gravity_refstate-crust.xmf,130,-2.0919e-06,5.27566e-06,0,-1.95969e-06,-7.05227e+08,-7.04721e+08,-7.05083e+08,-134435,0.0189988,0.145565,0,0.146799,30691.3,-25674.2,0,40014,134435
step02_gravity_refstate-crust.xmf,131,-2.21216e-06,5.69325e-06,0,-2.20857e-06,-7.54771e+08,-7.54229e+08,-7.54619e+08,-151508,0.0220985,0.141038,0,0.142759,29362.7,-27478.1,0,40214.6,151508
step02_gravity_refstate-crust.xmf,132,-2.74129e-06,6.9984e-06,0,-2.79028e-06,-8.87125e+08,-8.86456e+08,-8.86936e+08,-191413,0.0298215,0.129742,0,0.133125,25731.5,-32296.4,0,41293.7,191413
step02_gravity_refstate-crust.xmf,133,-2.35601e-06,6.11643e-06,0,-2.41838e-06,-8.01695e+08,-8.01114e+08,-8.01534e+08,-165901,0.0248878,0.136704,0,0.138951,28126.4,-29186.5,0,40533.3,165901
step02_gravity_refstate-crust.xmf,134,-2.52924e-06,6.54311e-06,0,-2.61476e-06,-8.45308e+08,-8.44686e+08,-8.45135e+08,-179372,0.0275005,0.133101,0,0.135913,26904.4,-30774.2,0,40876.6,179372
step02_gravity_refstate-crust.xmf,135,-3.13299e-06,7.35017e-06,0,-3.688e-06,-9.20883e+08,-9.20164e+08,-9.20668e+08,-252997,0.0373272,0.141261,0,0.14611,22874.6,-33524.4,0,40584.9,252997
step02_gravity_refstate-crust.xmf,136,-3.48585e-06,7.88624e-06,0,-3.93954e-06,-9.58423e+08,-9.57643e+08,-9.58184e+08,-270252,0.0395877,0.13977,0,0.145268,21826.2,-34890.5,0,41154.9,270252
step02_gravity_refstate-crust.xmf,137,-3.85994e-06,8.38874e-06,0,-4.27589e-06,-9.90258e+08,-9.89418e+08,-9.89993e+08,-293326,0.04215,0.140573,0,0.146756,20741.4,-36048.7,0,41589.8,293326
step02_gravity_refstate-crust.xmf,138,-4.32737e-06,9.05543e-06,0,-4.53787e-06,-1.02495e+09,-1.02404e+09,-1.02466e+09,-311298,0.0439516,0.139353,0,0.14612,19803.9,-37311,0,42241,311298
step02_gravity_refstate-crust.xmf,139,-4.88697e-06,9.93322e-06,0,-4.60087e-06,-1.06242e+09,-1.0614e+09,-1.06208e+09,-315620,0.0441808,0.134437,0,0.141511,19102,-38673.9,0,43134.1,315620
step02_gravity_refstate-crust.xmf,140,-1.65575e-06,2.46989e-06,0,-3.72516e-09,-3.43128e+08,-3.42844e+08,-3.43014e+08,-255.546,8.04094e-19,0.179741,0,0.179741,40000,-12489,0,41904.4,255.546
step02_gravity_refstate-crust.xmf,141,-1.65751e-06,2.79507e-06,0,-5.33857e-07,-3.89164e+08,-3.88859e+08,-3.89051e+08,-36622.6,0.00482983,0.176783,0,0.176849,37106.9,-14165.5,0,39718.8,36622.6
step02_gravity_refstate-crust.xmf,142,-1.83138e-06,3.99534e-06,0,-9.91603e-07,-5.43226e+08,-5.42826e+08,-5.431e+08,-68024,0.00874495,0.160362,0,0.1606,35266.5,-19775.4,0,40432.6,68024
step02_gravity_refstate-crust.xmf,143,-1.71909e-06,3.38e-06,0,-9.27407e-07,-4.68952e+08,-4.68602e+08,-4.68834e+08,-63620.1,0.00799028,0.170085,0,0.170272,35413.2,-17070.9,0,39313,63620.1
step02_gravity_refstate-crust.xmf,144,-2.84064e-06,6.86017e-06,0,-3.4551e-06,-8.8164e+08,-8.80974e+08,-8.81445e+08,-237020,0.034952,0.1433,0,0.147501,23929.6,-32096.1,0,40034.8,237020
step02_gravity_refstate-crust.xmf,145,-5.20731e-06,9.91131e-06,0,-5.68225e-06,-1.06764e+09,-1.06661e+09,-1.06729e+09,-389802,0.0503862,0.149246,0,0.157522,17781.1,-38862.9,0,42737.5,389802
step02_gravity_refstate-crust.xmf,146,-1.63768e-06,2.17437e-06,0,-4.08067e-07,-3.01568e+08,-3.01306e+08,-3.01455e+08,-27993.4,0.0041482,0.184328,0,0.184374,37500.1,-10975.6,0,39073.3,27993.4
step02_gravity_refstate-crust.xmf,147,-1.69789e-06,1.95273e-06,0,7.3522e-10,-2.61915e+08,-2.61665e+08,-2.61799e+08,50.4361,2.03362e-19,0.186266,0,0.186266,40000,-9531.44,0,41119.9,50.4361
step02_gravity_refstate-crust.xmf,148,-1.74693e-06,3.70473e-06,0,-1.36112e-06,-5.15357e+08,-5.14983e+08,-5.15237e+08,-93372.9,0.0117948,0.168154,0,0.168567,33425.7,-18760.8,0,38330.7,93372.9
step02_gravity_refstate-crust.xmf,149,-1.84963e-06,4.30198e-06,0,-1.91662e-06,-5.95832e+08,-5.9541e+08,-5.95705e+08,-131480,0.0171208,0.163476,0,0.16437,31009.3,-21691,0,37842.8,131480
step02_gravity_refstate-crust.xmf,150,-1.95066e-06,4.71031e-06,0,-2.2039e-06,-6.48414e+08,-6.47957e+08,-6.4828e+08,-151187,0.0202381,0.159451,0,0.16073,29770.1,-23605.6,0,37993.2,151187
step02_gravity_refstate-crust.xmf,151,-2.07527e-06,5.13213e-06,0,-2.4892e-06,-7.00973e+08,-7.00479e+08,-7.00831e+08,-170759,0.0235172,0.155498,0,0.157267,28501.3,-25519.2,0,38256.4,170759
step02_gravity_refstate-crust.xmf,152,-2.21513e-06,5.53578e-06,0,-2.74762e-06,-7.48877e+08,-7.48345e+08,-7.48725e+08,-188487,0.0266092,0.152072,0,0.154382,27308.5,-27263.2,0,38588,188487
step02_gravity_refstate-crust.xmf,153,-2.59445e-06,6.40042e-06,0,-3.22692e-06,-8.40093e+08,-8.39476e+08,-8.39915e+08,-221366,0.03239,0.145813,0,0.149367,25012.8,-30583.9,0,39509.7,221366
step02_gravity_refstate-crust.xmf,154,-2.39053e-06,5.96777e-06,0,-2.99178e-06,-7.964e+08,-7.95826e+08,-7.96236e+08,-205236,0.0295995,0.148616,0,0.151535,26141.1,-28993.3,0,39038.1,205236
step02_gravity_refstate-crust.xmf,155,-2.84161e-06,6.59073e-06,0,-4.17033e-06,-8.76493e+08,-8.75846e+08,-8.76298e+08,-286085,0.0399947,0.158329,0,0.163302,22167,-31908.3,0,38852.5,286085
step02_gravity_refstate-crust.xmf,156,-3.14372e-06,7.04119e-06,0,-4.50119e-06,-9.14458e+08,-9.1376e+08,-9.14243e+08,-308781,0.0428312,0.157812,0,0.163521,21154.6,-33290,0,39442.9,308781
step02_gravity_refstate-crust.xmf,157,-3.49107e-06,7.51358e-06,0,-4.87494e-06,-9.50088e+08,-9.49333e+08,-9.49849e+08,-334421,0.0456654,0.158151,0,0.164612,20150.5,-34586.4,0,40028.3,334421
step02_gravity_refstate-crust.xmf,158,-3.91307e-06,8.05747e-06,0,-5.28811e-06,-9.85379e+08,-9.84558e+08,-9.8511e+08,-362764,0.0484347,0.158701,0,0.165928,19173.2,-35870.3,0,40673,362764
step02_gravity_refstate-crust.xmf,159,-4.50217e-06,8.7794e-06,0,-5.76155e-06,-1.02428e+09,-1.02337e+09,-1.02397e+09,-395242,0.0511923,0.158878,0,0.166922,18169,-37285.2,0,41476.5,395242
step02_gravity_refstate-crust.xmf,160,-5.34066e-06,9.66331e-06,0,-6.91157e-06,-1.06923e+09,-1.0682e+09,-1.06887e+09,-474133,0.0571976,0.167636,0,0.177125,16467.9,-38919.9,0,42260.5,474133
step02_gravity_refstate-crust.xmf,161,-1.5882e-06,2.32738e-06,0,-8.04449e-07,-3.29539e+08,-3.2927e+08,-3.2943e+08,-55185.2,0.00768459,0.184705,0,0.184865,35296.3,-11994.4,0,37278.6,55185.2
step02_gravity_refstate-crust.xmf,162,-1.89451e-06,1.50988e-06,0,-6.54146e-09,-1.77835e+08,-1.77601e+08,-1.77705e+08,-448.744,1.14276e-18,0.19153,0,0.19153,40000,-6468.93,0,40519.7,448.744
step02_gravity_refstate-crust.xmf,163,-1.73266e-06,1.74623e-06,0,-2.9702e-07,-2.2919e+08,-2.28951e+08,-2.29071e+08,-20375.6,0.00373757,0.189222,0,0.189259,37865.7,-8339.58,0,38773.2,20375.6
step02_gravity_refstate-crust.xmf,164,-1.57758e-06,2.7236e-06,0,-1.08996e-06,-3.88172e+08,-3.87877e+08,-3.88064e+08,-74771.3,0.00975222,0.181569,0,0.181831,34061.6,-14129.6,0,36875.9,74771.3
step02_gravity_refstate-crust.xmf,165,-1.75484e-06,3.8974e-06,0,-1.73464e-06,-5.46163e+08,-5.45776e+08,-5.46043e+08,-118996,0.0151469,0.168588,0,0.169267,31716.9,-19882.6,0,37433.7,118996
step02_gravity_refstate-crust.xmf,166,-2.59117e-06,6.1776e-06,0,-3.86759e-06,-8.37411e+08,-8.3681e+08,-8.37234e+08,-265317,0.0371194,0.159307,0,0.163574,23186.5,-30485.9,0,38301.5,265317
step02_gravity_refstate-crust.xmf,167,-5.21616e-06,9.03085e-06,0,-8.31104e-06,-1.06899e+09,-1.06801e+09,-1.06863e+09,-570138,0.0640433,0.188829,0,0.199393,15175.7,-38910.4,0,41765.1,570138
step02_gravity_refstate-crust.xmf,168,-4.95437e-06,8.23244e-06,0,-9.6919e-06,-1.07096e+09,-1.07006e+09,-1.07062e+09,-664864,0.0700867,0.209876,0,0.221269,13987.5,-38982.1,0,41415.6,664864
step02_gravity_refstate-crust.xmf,169,-4.77487e-06,8.91428e-06,0,-6.62981e-06,-1.04163e+09,-1.04069e+09,-1.0413e+09,-454805,0.0559314,0.169295,0,0.178295,16983.3,-37916,0,41545.8,454805
step02_gravity_refstate-crust.xmf,170,-1.62615e-06,1.8172e-06,0,-7.28592e-07,-2.51078e+08,-2.50842e+08,-2.50966e+08,-49981.4,0.00841389,0.191107,0,0.191292,35001.8,-9136.97,0,36174.7,49981.4
step02_gravity_refstate-crust.xmf,171,-1.94225e-06,1.38066e-06,0,-3.25684e-07,-1.51518e+08,-1.5129e+08,-1.51385e+08,-22341.9,0.00601933,0.194387,0,0.19448,36955.1,-5510.46,0,37363.7,22341.9
step02_gravity_refstate-crust.xmf,172,-2.30679e-06,1.22e-06,0,-2.9575e-09,-9.0691e+07,-9.04491e+07,-9.05328e+07,-202.884,1.14898e-18,0.19584,0,0.19584,40000,-3294.25,0,40135.4,202.884
step02_gravity_refstate-crust.xmf,173,-1.49338e-06,2.16061e-06,0,-1.15876e-06,-3.15656e+08,-3.15406e+08,-3.15554e+08,-79490.9,0.0112872,0.190427,0,0.190761,32958.8,-11489.1,0,34903.9,79490.9
step02_gravity_refstate-crust.xmf,174,-1.59106e-06,3.08758e-06,0,-1.4714e-06,-4.44442e+08,-4.44121e+08,-4.44333e+08,-100938,0.0126532,0.17935,0,0.179796,32474.8,-16178.7,0,36281.7,100938
step02_gravity_refstate-crust.xmf,175,-1.65898e-06,3.71713e-06,0,-2.14053e-06,-5.38302e+08,-5.37933e+08,-5.38188e+08,-146840,0.0184465,0.176556,0,0.177517,29709.8,-19596.5,0,35590.7,146840
step02_gravity_refstate-crust.xmf,176,-1.61457e-06,3.41301e-06,0,-1.83416e-06,-4.93597e+08,-4.93252e+08,-4.93486e+08,-125823,0.0156956,0.178041,0,0.178732,30943.6,-17968.6,0,35782.4,125823
step02_gravity_refstate-crust.xmf,177,-1.75256e-06,4.11106e-06,0,-2.40495e-06,-5.9044e+08,-5.90038e+08,-5.9032e+08,-164979,0.0211505,0.17309,0,0.174377,28719.3,-21494.8,0,35872.4,164979
step02_gravity_refstate-crust.xmf,178,-1.86613e-06,4.50399e-06,0,-2.71035e-06,-6.4351e+08,-6.43073e+08,-6.43382e+08,-185930,0.0243365,0.169949,0,0.171683,27575,-23427,0,36182.9,185930
step02_gravity_refstate-crust.xmf,179,-1.99682e-06,4.89463e-06,0,-3.01272e-06,-6.9436e+08,-6.93887e+08,-6.94223e+08,-206672,0.0276617,0.167219,0,0.169491,26410,-25278.4,0,36558,206672
step02_gravity_refstate-crust.xmf,180,-2.16134e-06,5.31309e-06,0,-3.29726e-06,-7.44745e+08,-7.44232e+08,-7.44596e+08,-226192,0.0309165,0.164178,0,0.167063,25313.8,-27112.7,0,37092.9,226192
step02_gravity_refstate-crust.xmf,181,-2.36055e-06,5.74591e-06,0,-3.57581e-06,-7.92928e+08,-7.92372e+08,-7.92767e+08,-245301,0.0340625,0.161335,0,0.164892,24249.7,-28866.7,0,37700.6,245301
step02_gravity_refstate-crust.xmf,182,-2.4758e-06,5.80955e-06,0,-4.51294e-06,-8.33035e+08,-8.32467e+08,-8.32865e+08,-309588,0.0414553,0.174152,0,0.179018,21451.2,-30326.4,0,37146.3,309588
step02_gravity_refstate-crust.xmf,183,-2.72297e-06,6.17695e-06,0,-4.90263e-06,-8.72041e+08,-8.71431e+08,-8.71855e+08,-336320,0.0446982,0.174442,0,0.180078,20463.7,-31746.1,0,37770.1,336320
step02_gravity_refstate-crust.xmf,184,-4.45167e-06,7.10622e-06,0,-1.11344e-05,-1.07317e+09,-1.07238e+09,-1.07287e+09,-763822,0.0756574,0.232798,0,0.244784,12817.3,-39062.9,0,41111.9,763822
step02_gravity_refstate-crust.xmf,185,-3.01446e-06,6.56957e-06,0,-5.32896e-06,-9.09295e+08,-9.08638e+08,-9.09088e+08,-365567,0.0479046,0.175253,0,0.181682,19505,-33101.8,0,38421,365567
step02_gravity_refstate-crust.xmf,186,-3.34643e-06,6.97451e-06,0,-5.81509e-06,-9.44416e+08,-9.43708e+08,-9.44186e+08,-398915,0.0511646,0.177,0,0.184247,18552.1,-34379.7,0,39065.9,398915
step02_gravity_refstate-crust.xmf,187,-3.75018e-06,7.43188e-06,0,-6.37332e-06,-9.79107e+08,-9.7834e+08,-9.7885e+08,-437210,0.0545152,0.179337,0,0.18744,17609.3,-35641.7,0,39754.5,437210
step02_gravity_refstate-crust.xmf,188,-4.60275e-06,8.30325e-06,0,-7.72082e-06,-1.03821e+09,-1.03732e+09,-1.03789e+09,-529648,0.0614568,0.187806,0,0.197605,15823.8,-37791.2,0,40970.4,529648
step02_gravity_refstate-crust.xmf,189,-4.13936e-06,7.8214e-06,0,-7.03419e-06,-1.00904e+09,-1.00822e+09,-1.00876e+09,-482546,0.0580827,0.183772,0,0.192732,16664.4,-36730.6,0,40334.1,482546
step02_gravity_refstate-crust.xmf,190,-2.4185e-06,1.15616e-06,0,-1.33597e-07,-6.78085e+07,-6.75632e+07,-6.76426e+07,-9164.78,0.00611389,0.197789,0,0.197883,37504.2,-2460.64,0,37584.8,9164.78
step02_gravity_refstate-crust.xmf,191,-3.06977e-06,1.1728e-06,0,2.73903e-08,-291269,-228.188,-80682.2,1878.97,9.83999e-19,0.19971,0,0.19971,40000,0,0,40000,1878.97
step02_gravity_refstate-crust.xmf,192,-1.44265e-06,2.54042e-06,0,-1.54326e-06,-3.77304e+08,-3.77031e+08,-3.77205e+08,-105868,0.0138135,0.189395,0,0.189898,31334.1,-13734.2,0,34211.9,105868
step02_gravity_refstate-crust.xmf,193,-2.25435e-06,5.43524e-06,0,-4.16444e-06,-7.90948e+08,-7.9042e+08,-7.90793e+08,-285681,0.0382349,0.174917,0,0.179047,22424.8,-28794.5,0,36496.5,285681
step02_gravity_refstate-crust.xmf,194,-4.08947e-06,6.87773e-06,0,-1.0285e-05,-1.05274e+09,-1.05199e+09,-1.05246e+09,-705553,0.0725174,0.227086,0,0.238383,13355.9,-38320.2,0,40581,705553
step02_gravity_refstate-crust.xmf,195,-4.12346e-06,7.26948e-06,0,-9.14134e-06,-1.03772e+09,-1.03694e+09,-1.03744e+09,-627096,0.067907,0.212461,0,0.223049,14354.7,-37773.8,0,40409.4,627096
step02_gravity_refstate-crust.xmf,196,-1.46817e-06,1.66912e-06,0,-1.11355e-06,-2.40763e+08,-2.40548e+08,-2.40662e+08,-76389.7,0.0133389,0.198288,0,0.198737,31878.2,-8761.87,0,33060.4,76389.7
step02_gravity_refstate-crust.xmf,197,-1.73727e-06,1.34848e-06,0,-6.91098e-07,-1.6302e+08,-1.62808e+08,-1.62901e+08,-47409.3,0.0121732,0.198888,0,0.19926,33503.9,-5929.96,0,34024.6,47409.3
step02_gravity_refstate-crust.xmf,198,-2.2215e-06,1.127e-06,0,-3.1387e-07,-7.87444e+07,-7.85147e+07,-7.8592e+07,-21531.5,0.0118862,0.200254,0,0.200606,34897.8,-2859.52,0,35014.8,21531.5
step02_gravity_refstate-crust.xmf,199,-2.96542e-06,1.12419e-06,0,1.40303e-08,-281739,-1191.8,-78311.1,962.476,0.0103587,0.201379,0,0.201645,36571.8,0,0,36571.8,962.476
step02_gravity_refstate-crust.xmf,200,-1.32672e-06,1.98741e-06,0,-1.54363e-06,-3.06655e+08,-3.06428e+08,-3.06564e+08,-105893,0.0151669,0.198589,0,0.199167,30211.6,-11161.8,0,32207.5,105893
step02_gravity_refstate-crust.xmf,201,-1.52108e-06,3.49957e-06,0,-2.5447e-06,-5.31989e+08,-5.31645e+08,-5.31885e+08,-174567,0.0216315,0.185942,0,0.187196,27622.4,-19366.9,0,33735.4,174567
step02_gravity_refstate-crust.xmf,202,-1.42863e-06,2.84821e-06,0,-1.95102e-06,-4.32332e+08,-4.32039e+08,-4.32234e+08,-133840,0.0166547,0.189135,0,0.189867,29730.6,-15738.1,0,33639.2,133840
step02_gravity_refstate-crust.xmf,203,-1.46409e-06,3.19282e-06,0,-2.26649e-06,-4.85289e+08,-4.8497e+08,-4.85189e+08,-155481,0.0191899,0.187603,0,0.188582,28581.7,-17666.5,0,33600.8,155481
step02_gravity_refstate-crust.xmf,204,-1.61147e-06,3.86998e-06,0,-2.85334e-06,-5.85362e+08,-5.84986e+08,-5.85252e+08,-195739,0.0246317,0.183681,0,0.185325,26577.3,-21310.2,0,34065.8,195739
step02_gravity_refstate-crust.xmf,205,-1.71695e-06,4.2091e-06,0,-3.19208e-06,-6.37031e+08,-6.36624e+08,-6.36913e+08,-218977,0.0279666,0.181974,0,0.18411,25454.8,-23191.3,0,34435.2,218977
step02_gravity_refstate-crust.xmf,206,-1.84922e-06,4.57716e-06,0,-3.53492e-06,-6.89214e+08,-6.88773e+08,-6.89087e+08,-242496,0.0315233,0.180214,0,0.18295,24333.8,-25091.1,0,34952.8,242496
step02_gravity_refstate-crust.xmf,207,-2.05097e-06,5.03957e-06,0,-3.83135e-06,-7.43539e+08,-7.43053e+08,-7.43398e+08,-262831,0.0348515,0.176628,0,0.180033,23431,-27068.8,0,35801.3,262831
step02_gravity_refstate-crust.xmf,208,-2.06046e-06,5.01932e-06,0,-4.75514e-06,-7.90795e+08,-7.9031e+08,-7.90654e+08,-326202,0.0420722,0.189323,0,0.193941,20643.4,-28789.1,0,35425.5,326202
step02_gravity_refstate-crust.xmf,209,-3.59177e-06,5.54998e-06,0,-1.25208e-05,-1.07379e+09,-1.07316e+09,-1.07354e+09,-858926,0.0802361,0.257346,0,0.269564,11689.5,-39086.5,0,40797,858926
step02_gravity_refstate-crust.xmf,210,-2.25693e-06,5.32312e-06,0,-5.15526e-06,-8.30589e+08,-8.30069e+08,-8.30435e+08,-353651,0.0453927,0.189715,0,0.19507,19758.2,-30237.5,0,36120.6,353651
step02_gravity_refstate-crust.xmf,211,-2.47674e-06,5.61783e-06,0,-5.61368e-06,-8.68411e+08,-8.67856e+08,-8.68241e+08,-385098,0.0488179,0.191147,0,0.197283,18844.4,-31614.1,0,36804.4,385098
step02_gravity_refstate-crust.xmf,212,-3.30049e-06,5.45442e-06,0,-1.13993e-05,-1.04954e+09,-1.04894e+09,-1.04932e+09,-781993,0.0762276,0.248905,0,0.260316,12303.9,-38204.8,0,40137.2,781993
step02_gravity_refstate-crust.xmf,213,-2.72982e-06,5.91663e-06,0,-6.14191e-06,-9.04903e+08,-9.0431e+08,-9.04716e+08,-421335,0.0523639,0.193509,0,0.200469,17919.8,-32942,0,37500.6,421335
step02_gravity_refstate-crust.xmf,214,-3.00657e-06,6.20435e-06,0,-6.74693e-06,-9.39171e+08,-9.38539e+08,-9.38964e+08,-462840,0.0560107,0.197031,0,0.204838,16997.4,-34188.9,0,38181,462840
step02_gravity_refstate-crust.xmf,215,-3.32725e-06,6.51126e-06,0,-7.43598e-06,-9.72338e+08,-9.71663e+08,-9.72109e+08,-510108,0.0597674,0.201332,0,0.210016,16099.8,-35395.5,0,38885,510108
step02_gravity_refstate-crust.xmf,216,-3.6978e-06,6.84066e-06,0,-8.21923e-06,-1.0042e+09,-1.00347e+09,-1.00394e+09,-563839,0.0636255,0.2064,0,0.215984,15236.8,-36554.4,0,39602.9,563839
step02_gravity_refstate-crust.xmf,217,-1.24795e-06,2.31919e-06,0,-1.95916e-06,-3.67806e+08,-3.67562e+08,-3.67721e+08,-134399,0.0174671,0.199371,0,0.200134,28568.1,-13388.9,0,31549.9,134399
step02_gravity_refstate-crust.xmf,218,-1.35768e-06,3.26828e-06,0,-2.91545e-06,-5.29529e+08,-5.29211e+08,-5.29436e+08,-200000,0.0244031,0.195546,0,0.197063,25650.2,-19277.6,0,32086.7,200000
step02_gravity_refstate-crust.xmf,219,-1.87942e-06,4.70164e-06,0,-4.3803e-06,-7.47093e+08,-7.46641e+08,-7.46964e+08,-300488,0.0386758,0.189775,0,0.193676,21542.5,-27198.3,0,34696.2,300488
step02_gravity_refstate-crust.xmf,220,-3.11741e-06,5.5621e-06,0,-1.03185e-05,-1.02698e+09,-1.02638e+09,-1.02677e+09,-707850,0.0723061,0.239238,0,0.249926,13024.8,-37384.2,0,39588.2,707850
step02_gravity_refstate-crust.xmf,221,-1.24941e-06,1.52126e-06,0,-1.43847e-06,-2.36637e+08,-2.36447e+08,-2.36552e+08,-98679.2,0.0172537,0.20684,0,0.207558,29032.6,-8612.32,0,30283.1,98679.2
step02_gravity_refstate-crust.xmf,222,-1.49796e-06,1.27865e-06,0,-9.9036e-07,-1.6987e+08,-1.6968e+08,-1.69767e+08,-67938.7,0.0165581,0.205276,0,0.205943,30679.8,-6180.21,0,31296,67938.7
step02_gravity_refstate-crust.xmf,223,-1.93239e-06,1.03552e-06,0,-5.10014e-07,-8.39633e+07,-8.37597e+07,-8.38307e+07,-34987,0.0181297,0.206054,0,0.20685,31790.8,-3050.55,0,31936.8,34987
step02_gravity_refstate-crust.xmf,224,-2.68546e-06,1.01244e-06,0,1.90663e-09,-255380,-1703.81,-71157,130.795,0.0198218,0.206112,0,0.207063,33233.5,0,0,33233.5,130.795
step02_gravity_refstate-crust.xmf,225,-1.09152e-06,1.76581e-06,0,-1.87597e-06,-2.97189e+08,-2.96993e+08,-2.97114e+08,-128691,0.0185385,0.208834,0,0.209656,27437.5,-10817.8,0,29493.1,128691
step02_gravity_refstate-crust.xmf,226,-1.33006e-06,3.05174e-06,0,-2.62517e-06,-4.8882e+08,-4.8852e+08,-4.88729e+08,-180087,0.0219785,0.195511,0,0.196742,26638.5,-17795.3,0,32035.7,180087
step02_gravity_refstate-crust.xmf,227,-1.20945e-06,2.63719e-06,0,-2.41569e-06,-4.30277e+08,-4.30013e+08,-4.30194e+08,-165717,0.02042,0.200589,0,0.201626,26855.7,-15663.8,0,31090,165717
step02_gravity_refstate-crust.xmf,228,-1.40739e-06,3.55165e-06,0,-3.26576e-06,-5.79292e+08,-5.78952e+08,-5.79195e+08,-224031,0.027632,0.195623,0,0.197565,24465.9,-21089.5,0,32300.9,224031
step02_gravity_refstate-crust.xmf,229,-1.49058e-06,3.81669e-06,0,-3.63748e-06,-6.29405e+08,-6.29041e+08,-6.29303e+08,-249531,0.0310495,0.195353,0,0.197805,23367.8,-22914,0,32727.8,249531
step02_gravity_refstate-crust.xmf,230,-1.61095e-06,4.13927e-06,0,-4.09401e-06,-6.87522e+08,-6.87127e+08,-6.87411e+08,-280849,0.0353385,0.19531,0,0.198482,22093.1,-25029.8,0,33385.6,280849
step02_gravity_refstate-crust.xmf,231,-1.60133e-06,4.21245e-06,0,-4.91097e-06,-7.49235e+08,-7.48836e+08,-7.49125e+08,-336893,0.0419729,0.204259,0,0.208527,19703.2,-27276.7,0,33648.7,336893
step02_gravity_refstate-crust.xmf,232,-1.75638e-06,4.48129e-06,0,-5.30581e-06,-7.90323e+08,-7.89895e+08,-7.90202e+08,-363979,0.045305,0.2045,0,0.209459,18938.7,-28772.3,0,34445.9,363979
step02_gravity_refstate-crust.xmf,233,-2.15118e-06,3.60785e-06,0,-1.2507e-05,-1.04797e+09,-1.04757e+09,-1.04782e+09,-857982,0.0792569,0.273891,0,0.285128,11140.1,-38149.2,0,39742.4,857982
step02_gravity_refstate-crust.xmf,234,-2.35878e-06,3.54036e-06,0,-1.38103e-05,-1.07404e+09,-1.07364e+09,-1.07388e+09,-947389,0.0836186,0.283686,0,0.295753,10564,-39097.5,0,40499.5,947389
step02_gravity_refstate-crust.xmf,235,-1.92743e-06,4.71239e-06,0,-5.75324e-06,-8.2894e+08,-8.28484e+08,-8.28807e+08,-394672,0.0486848,0.205658,0,0.211342,18149.7,-30177.9,0,35215.3,394672
step02_gravity_refstate-crust.xmf,236,-2.08487e-06,4.88611e-06,0,-6.28884e-06,-8.6503e+08,-8.64551e+08,-8.64887e+08,-431415,0.0522627,0.208672,0,0.215117,17270.5,-31491.4,0,35916.3,431415
step02_gravity_refstate-crust.xmf,237,-2.06655e-06,3.79183e-06,0,-1.13428e-05,-1.02259e+09,-1.02219e+09,-1.02245e+09,-778119,0.0751532,0.263719,0,0.274218,11796,-37225.9,0,39050.1,778119
step02_gravity_refstate-crust.xmf,238,-2.93312e-06,5.56771e-06,0,-9.30033e-06,-1.00018e+09,-9.99601e+08,-9.99983e+08,-638002,0.0681232,0.230145,0,0.240016,13837.7,-36409.5,0,38950.4,638002
step02_gravity_refstate-crust.xmf,239,-2.25737e-06,5.04263e-06,0,-6.91047e-06,-9.00205e+08,-8.99704e+08,-9.0005e+08,-474058,0.0560336,0.212873,0,0.220124,16368,-32771.5,0,36631.7,474058
step02_gravity_refstate-crust.xmf,240,-2.45071e-06,5.18727e-06,0,-7.62518e-06,-9.34342e+08,-9.33818e+08,-9.34174e+08,-523087,0.0599588,0.218096,0,0.226187,15475,-34013.8,0,37368.6,523087
step02_gravity_refstate-crust.xmf,241,-2.69938e-06,5.37001e-06,0,-8.42519e-06,-9.68067e+08,-9.67514e+08,-9.67882e+08,-577968,0.0639862,0.223666,0,0.232638,14639.1,-35240.8,0,38160.5,577968
step02_gravity_refstate-crust.xmf,242,-9.89636e-07,2.0485e-06,0,-2.30713e-06,-3.5822e+08,-3.58012e+08,-3.58152e+08,-158269,0.0204611,0.211185,0,0.212174,25810.4,-13040.5,0,28917.7,158269
step02_gravity_refstate-crust.xmf,243,-1.1281e-06,2.71501e-06,0,-2.83978e-06,-4.69735e+08,-4.69471e+08,-4.69658e+08,-194809,0.0234753,0.205208,0,0.206547,25015.8,-17100.8,0,30302.3,194809
step02_gravity_refstate-crust.xmf,244,-1.11749e-06,2.92507e-06,0,-3.24682e-06,-5.2197e+08,-5.21693e+08,-5.21894e+08,-222732,0.0267158,0.207271,0,0.208986,23581.1,-19002.9,0,30284.9,222732
step02_gravity_refstate-crust.xmf,245,-1.49777e-06,4.00758e-06,0,-4.55655e-06,-7.1132e+08,-7.10943e+08,-7.11217e+08,-312579,0.0388816,0.203521,0,0.207202,20497.8,-25896.5,0,33027.1,312579
step02_gravity_refstate-crust.xmf,246,-2.02741e-06,4.08599e-06,0,-1.02283e-05,-9.97448e+08,-9.97029e+08,-9.97309e+08,-701663,0.0711737,0.253169,0,0.262984,12547.7,-36311.2,0,38418.1,701663
step02_gravity_refstate-crust.xmf,247,-1.4464e-06,3.98367e-06,0,-5.7885e-06,-7.96173e+08,-7.95801e+08,-7.96074e+08,-397091,0.0479691,0.217539,0,0.222765,17477.7,-28985.8,0,33847.4,397091
step02_gravity_refstate-crust.xmf,248,-6.43057e-07,1.11777e-06,0,-1.47636e-05,-1.0731e+09,-1.07298e+09,-1.07306e+09,-1.01278e+06,0.0852043,0.311097,0,0.322554,9454.45,-39066.5,0,40194.2,1.01278e+06
step02_gravity_refstate-crust.xmf,249,-1.23312e-06,1.17884e-06,0,-1.20562e-06,-1.7209e+08,-1.71924e+08,-1.72005e+08,-82705.8,0.0199577,0.21298,0,0.213913,28137.6,-6261.94,0,28826,82705.8
step02_gravity_refstate-crust.xmf,250,-9.6755e-07,1.28021e-06,0,-1.6374e-06,-2.20115e+08,-2.1996e+08,-2.20048e+08,-112326,0.0206387,0.21761,0,0.218586,26260.8,-8011.56,0,27455.7,112326
step02_gravity_refstate-crust.xmf,251,-1.52515e-06,8.98669e-07,0,-7.40723e-07,-9.16989e+07,-9.15326e+07,-9.15942e+07,-50813.6,0.0234315,0.214979,0,0.216253,28453.3,-3333.61,0,28647.9,50813.6
step02_gravity_refstate-crust.xmf,252,-2.24808e-06,8.45878e-07,0,-6.59756e-09,-213857,-1611.36,-59638.6,-452.593,0.0279029,0.213454,0,0.21527,29976.3,0,0,29976.3,452.593
step02_gravity_refstate-crust.xmf,253,-8.00835e-07,1.53341e-06,0,-2.14888e-06,-2.92069e+08,-2.91908e+08,-2.92014e+08,-147413,0.0211561,0.220374,0,0.221387,24678.1,-10632.2,0,26871,147413
step02_gravity_refstate-crust.xmf,254,-8.89641e-07,2.21953e-06,0,-2.74305e-06,-4.11762e+08,-4.11549e+08,-4.11701e+08,-188173,0.0229899,0.215119,0,0.216344,24050.9,-14990.4,0,28340.1,188173
step02_gravity_refstate-crust.xmf,255,-1.13034e-06,3.14705e-06,0,-3.62461e-06,-5.7195e+08,-5.71656e+08,-5.71872e+08,-248648,0.0300218,0.2088,0,0.210948,22360.8,-20822.7,0,30554.8,248648
step02_gravity_refstate-crust.xmf,256,-1.15725e-06,3.29844e-06,0,-4.03647e-06,-6.20817e+08,-6.20512e+08,-6.20738e+08,-276902,0.0335519,0.210539,0,0.213195,21192.5,-22601.9,0,30983.3,276902
step02_gravity_refstate-crust.xmf,257,-1.15559e-06,3.3984e-06,0,-4.47259e-06,-6.65991e+08,-6.65679e+08,-6.65912e+08,-306820,0.0372552,0.213683,0,0.216906,19966.3,-24246.7,0,31409.5,306820
step02_gravity_refstate-crust.xmf,258,-1.13164e-06,3.42348e-06,0,-4.93058e-06,-7.063e+08,-7.05988e+08,-7.06223e+08,-338238,0.0408846,0.218014,0,0.221815,18767.2,-25714.3,0,31834.4,338238
step02_gravity_refstate-crust.xmf,259,-1.14374e-06,3.47055e-06,0,-5.478e-06,-7.52292e+08,-7.51976e+08,-7.52214e+08,-375790,0.0450264,0.222216,0,0.226732,17611.1,-27388.7,0,32562.1,375790
step02_gravity_refstate-crust.xmf,260,-7.26123e-07,1.77767e-06,0,-1.21331e-05,-1.01993e+09,-1.01976e+09,-1.01988e+09,-832333,0.0765396,0.288498,0,0.298478,10579.9,-37131.4,0,38609.3,832333
step02_gravity_refstate-crust.xmf,261,-6.55981e-07,1.36483e-06,0,-1.34067e-05,-1.04646e+09,-1.04632e+09,-1.04641e+09,-919701,0.0807103,0.299999,0,0.310667,9972.29,-38096.8,0,39380.4,919701
step02_gravity_refstate-crust.xmf,262,-1.45921e-06,3.93513e-06,0,-6.27278e-06,-8.25311e+08,-8.24941e+08,-8.25211e+08,-430313,0.0510604,0.222137,0,0.22793,16621.8,-30046.5,0,34337.6,430313
step02_gravity_refstate-crust.xmf,263,-1.5188e-06,3.95268e-06,0,-6.88003e-06,-8.60446e+08,-8.60071e+08,-8.60342e+08,-471970,0.0547645,0.227125,0,0.233634,15726.3,-31325.4,0,35051.3,471970
step02_gravity_refstate-crust.xmf,264,-7.78385e-07,2.19866e-06,0,-1.09318e-05,-9.91128e+08,-9.90924e+08,-9.91075e+08,-749919,0.0723287,0.277078,0,0.286362,11276.8,-36083.3,0,37804.4,749919
step02_gravity_refstate-crust.xmf,265,-1.84325e-06,4.05688e-06,0,-9.26947e-06,-9.66349e+08,-9.65944e+08,-9.66223e+08,-635885,0.0670549,0.245825,0,0.254806,13248.5,-35179.7,0,37591.7,635885
step02_gravity_refstate-crust.xmf,266,-1.58195e-06,3.93643e-06,0,-7.59274e-06,-8.95589e+08,-8.95211e+08,-8.95481e+08,-520862,0.0587021,0.233257,0,0.24053,14823,-32604.5,0,35815.9,520862
step02_gravity_refstate-crust.xmf,267,-1.67633e-06,3.92567e-06,0,-8.41686e-06,-9.31048e+08,-9.30664e+08,-9.30933e+08,-577397,0.0628642,0.240044,0,0.248139,13960,-33895,0,36657.3,577397
step02_gravity_refstate-crust.xmf,268,1.01968e-06,-1.42856e-06,0,-1.55281e-05,-1.07426e+09,-1.07443e+09,-1.07433e+09,-1.06523e+06,0.0852601,0.336565,0,0.347196,8450.94,-39111.5,0,40014.1,1.06523e+06
step02_gravity_refstate-crust.xmf,269,-6.77626e-07,1.73727e-06,0,-2.56325e-06,-3.49504e+08,-3.49339e+08,-3.49458e+08,-175839,0.0225859,0.223933,0,0.225069,23142.7,-12724,0,26410,175839
step02_gravity_refstate-crust.xmf,270,-8.39147e-07,2.36011e-06,0,-3.1443e-06,-4.63644e+08,-4.63425e+08,-4.63587e+08,-215699,0.0256129,0.217921,0,0.219421,22655.8,-16879.7,0,28252.6,215699
step02_gravity_refstate-crust.xmf,271,-7.98422e-07,2.50272e-06,0,-3.53834e-06,-5.15419e+08,-5.15193e+08,-5.15365e+08,-242730,0.028595,0.220632,0,0.222478,21354.9,-18765,0,28428.1,242730
step02_gravity_refstate-crust.xmf,272,-1.13424e-06,2.89252e-06,0,-9.93926e-06,-9.68938e+08,-9.68662e+08,-9.68861e+08,-681834,0.06894,0.263468,0,0.272338,12163.9,-35275.1,0,37313.4,681834
step02_gravity_refstate-crust.xmf,273,-8.97042e-07,3.15502e-06,0,-6.07269e-06,-7.84003e+08,-7.83725e+08,-7.83941e+08,-416586,0.0487968,0.233203,0,0.238253,16067.5,-28543.7,0,32755.2,416586
step02_gravity_refstate-crust.xmf,274,1.28382e-06,-1.38869e-06,0,-1.40565e-05,-1.04626e+09,-1.04644e+09,-1.04635e+09,-964272,0.0803443,0.328101,0,0.337795,8742.76,-38093.1,0,39083.5,964272
step02_gravity_refstate-crust.xmf,275,3.13591e-06,-4.41365e-06,0,-1.59199e-05,-1.07571e+09,-1.07623e+09,-1.07593e+09,-1.0921e+06,0.0834523,0.363077,0,0.372544,7424.93,-39168.3,0,39865.9,1.0921e+06
step02_gravity_refstate-crust.xmf,276,-1.0565e-06,9.52376e-07,0,-1.16296e-06,-1.42142e+08,-1.42004e+08,-1.42069e+08,-79779,0.0233685,0.22076,0,0.221994,26261.6,-5172.01,0,26766,79779
step02_gravity_refstate-crust.xmf,277,-6.29544e-07,1.10604e-06,0,-1.88394e-06,-2.25428e+08,-2.25309e+08,-2.25385e+08,-129238,0.0227325,0.228711,0,0.229838,23492.1,-8206.1,0,24884.1,129238
step02_gravity_refstate-crust.xmf,278,-1.69642e-06,6.41342e-07,0,-1.49254e-08,-161249,-878.573,-44874.7,-1023.88,0.0342031,0.222852,0,0.225462,26791.5,0,0,26791.5,1023.88
step02_gravity_refstate-crust.xmf,279,-4.68549e-07,1.2647e-06,0,-2.32604e-06,-2.8578e+08,-2.85661e+08,-2.85748e+08,-159567,0.0228359,0.232577,0,0.233696,22045.7,-10404.2,0,24377.4,159567
step02_gravity_refstate-crust.xmf,280,-5.76535e-07,1.8776e-06,0,-2.97014e-06,-4.04897e+08,-4.04729e+08,-4.04858e+08,-203752,0.0245832,0.227738,0,0.229061,21654.1,-14741.3,0,26195.6,203752
step02_gravity_refstate-crust.xmf,281,-7.73199e-07,2.6575e-06,0,-3.92611e-06,-5.66282e+08,-5.66047e+08,-5.66229e+08,-269331,0.0318287,0.223049,0,0.225308,20190.9,-20617.1,0,28857.1,269331
step02_gravity_refstate-crust.xmf,282,-7.45963e-07,2.71104e-06,0,-4.34892e-06,-6.14894e+08,-6.14656e+08,-6.14842e+08,-298336,0.0352575,0.225875,0,0.22861,19073.5,-22387,0,29410.5,298336
step02_gravity_refstate-crust.xmf,283,-6.87358e-07,2.71455e-06,0,-4.78726e-06,-6.59687e+08,-6.59454e+08,-6.5964e+08,-328406,0.0387578,0.229894,0,0.233138,17935,-24018,0,29975.5,328406
step02_gravity_refstate-crust.xmf,284,-5.95756e-07,2.63573e-06,0,-5.26133e-06,-7.0169e+08,-7.01469e+08,-7.01649e+08,-360928,0.0422914,0.235117,0,0.23889,16790.3,-25547.4,0,30570.9,360928
step02_gravity_refstate-crust.xmf,285,6.03067e-07,1.6845e-07,0,-1.15179e-05,-9.92255e+08,-9.92284e+08,-9.92296e+08,-790128,0.0726321,0.301338,0,0.309968,9978.59,-36126.7,0,37479.5,790128
step02_gravity_refstate-crust.xmf,286,9.11838e-07,-5.38374e-07,0,-1.25924e-05,-1.01673e+09,-1.01683e+09,-1.01679e+09,-863835,0.0759638,0.313361,0,0.322437,9376.31,-37017.9,0,38186.9,863835
step02_gravity_refstate-crust.xmf,287,-8.31896e-07,2.97431e-06,0,-6.68318e-06,-8.19922e+08,-8.19661e+08,-8.19865e+08,-458466,0.0524301,0.239642,0,0.24531,15079.8,-29851.3,0,33444,458466
step02_gravity_refstate-crust.xmf,288,-7.70779e-07,2.81185e-06,0,-7.36094e-06,-8.56004e+08,-8.55758e+08,-8.55951e+08,-504960,0.056208,0.246548,0,0.252874,14157.8,-31164.9,0,34230,504960
step02_gravity_refstate-crust.xmf,289,-1.02581e-07,1.43317e-06,0,-1.00959e-05,-9.56346e+08,-9.5624e+08,-9.56339e+08,-692582,0.0680708,0.27996,0,0.288117,11244,-34818.5,0,36589,692582
step02_gravity_refstate-crust.xmf,290,-6.33846e-07,2.31847e-06,0,-9.16356e-06,-9.31761e+08,-9.31558e+08,-9.31717e+08,-628620,0.0648172,0.264113,0,0.27195,12343.8,-33922.7,0,36098.7,628620
step02_gravity_refstate-crust.xmf,291,-7.06775e-07,2.60051e-06,0,-8.15594e-06,-8.92443e+08,-8.92216e+08,-8.92395e+08,-559498,0.0602198,0.254478,0,0.261506,13261,-32491.4,0,35093.4,559498
step02_gravity_refstate-crust.xmf,292,-4.32222e-07,2.428e-06,0,-5.78722e-06,-7.41218e+08,-7.41021e+08,-7.41188e+08,-397004,0.0458382,0.242254,0,0.246552,15583.1,-26986.8,0,31162.8,397004
step02_gravity_refstate-crust.xmf,293,2.52955e-06,-3.2722e-06,0,-1.48157e-05,-1.05746e+09,-1.05786e+09,-1.05763e+09,-1.01636e+06,0.0809298,0.348748,0,0.358015,7901.93,-38503,0,39305.5,1.01636e+06
step02_gravity_refstate-crust.xmf,294,-1.09144e-06,6.4858e-07,0,-6.99847e-07,-7.10442e+07,-7.09248e+07,-7.09693e+07,-48009.5,0.0291479,0.226609,0,0.228476,25234.7,-2583.02,0,25366.5,48009.5
step02_gravity_refstate-crust.xmf,295,-7.7683e-07,9.45333e-07,0,-1.49203e-06,-1.72544e+08,-1.72426e+08,-1.72491e+08,-102353,0.0236724,0.226726,0,0.227959,24443.7,-6279.96,0,25237.5,102353
step02_gravity_refstate-crust.xmf,296,-3.36699e-07,1.41772e-06,0,-2.72639e-06,-3.43615e+08,-3.43494e+08,-3.43592e+08,-187030,0.0237864,0.236673,0,0.237865,20618.3,-12510.5,0,24116.9,187030
step02_gravity_refstate-crust.xmf,297,-4.85345e-07,1.94136e-06,0,-3.36612e-06,-4.58075e+08,-4.57908e+08,-4.58042e+08,-230916,0.0269936,0.231522,0,0.23309,20278.2,-16677.7,0,26255.5,230916
step02_gravity_refstate-crust.xmf,298,-4.20678e-07,2.03128e-06,0,-3.7533e-06,-5.1208e+08,-5.11912e+08,-5.12051e+08,-257477,0.0298076,0.23441,0,0.236297,19124.4,-18644.2,0,26708.7,257477
step02_gravity_refstate-crust.xmf,299,2.18168e-07,9.00229e-07,0,-1.07111e-05,-9.73514e+08,-9.73468e+08,-9.73529e+08,-734780,0.0702534,0.289931,0,0.298322,10621.7,-35444,0,37001.4,734780
step02_gravity_refstate-crust.xmf,300,-2.36209e-07,2.20105e-06,0,-6.33895e-06,-7.78665e+08,-7.78497e+08,-7.78648e+08,-434852,0.0492844,0.250137,0,0.254946,14459.2,-28350.5,0,31824.8,434852
step02_gravity_refstate-crust.xmf,301,3.53877e-06,-4.3409e-06,0,-1.35316e-05,-1.03338e+09,-1.03392e+09,-1.03362e+09,-928269,0.0751138,0.352903,0,0.360808,7574.47,-37628.9,0,38383.6,928269
step02_gravity_refstate-crust.xmf,302,4.52108e-06,-5.96164e-06,0,-1.45434e-05,-1.05425e+09,-1.05496e+09,-1.05456e+09,-997680,0.0768924,0.370836,0,0.378724,6941.49,-38389.9,0,39012.4,997680
step02_gravity_refstate-crust.xmf,303,5.52865e-06,-7.66555e-06,0,-1.57033e-05,-1.07574e+09,-1.07665e+09,-1.07612e+09,-1.07724e+06,0.0790442,0.389063,0,0.397012,6398.22,-39174.1,0,39693.1,1.07724e+06
step02_gravity_refstate-crust.xmf,304,-7.47522e-07,7.04376e-07,0,-1.10776e-06,-1.17453e+08,-1.17353e+08,-1.17401e+08,-75992.1,0.0269589,0.23078,0,0.232349,23846.9,-4274.05,0,24226.9,75992.1
step02_gravity_refstate-crust.xmf,305,-4.9862e-07,7.55375e-07,0,-1.5147e-06,-1.6009e+08,-1.60004e+08,-1.60055e+08,-103909,0.0254712,0.235419,0,0.236793,22444.8,-5827.37,0,23189,103909
step02_gravity_refstate-crust.xmf,306,-2.83624e-07,8.75e-07,0,-1.97751e-06,-2.19296e+08,-2.19216e+08,-2.19276e+08,-135657,0.0239971,0.239985,0,0.241182,21002.5,-7983.88,0,22468.8,135657
step02_gravity_refstate-crust.xmf,307,-1.01923e-06,3.87695e-07,0,-1.32355e-08,-96779.9,-264.671,-26860.6,-907.953,0.0384835,0.233723,0,0.23687,23670.5,0,0,23670.5,907.953
step02_gravity_refstate-crust.xmf,308,-1.16482e-07,9.83213e-07,0,-2.40614e-06,-2.79564e+08,-2.79489e+08,-2.79556e+08,-165061,0.0235703,0.244672,0,0.245804,19559.3,-10178.9,0,22049.4,165061
step02_gravity_refstate-crust.xmf,309,-2.10393e-07,1.49343e-06,0,-3.11229e-06,-3.99845e+08,-3.99729e+08,-3.99831e+08,-213503,0.025406,0.241043,0,0.242378,19214,-14558.2,0,24106.4,213503
step02_gravity_refstate-crust.xmf,310,-3.561e-07,2.11101e-06,0,-4.13556e-06,-5.62975e+08,-5.62806e+08,-5.6295e+08,-283699,0.0328531,0.237349,0,0.239612,18071,-20497.5,0,27326,283699
step02_gravity_refstate-crust.xmf,311,-2.77329e-07,2.0742e-06,0,-4.54628e-06,-6.10708e+08,-6.10546e+08,-6.10689e+08,-311875,0.0360349,0.24078,0,0.243462,17061,-22235.5,0,28026.7,311875
step02_gravity_refstate-crust.xmf,312,-1.52916e-07,1.97337e-06,0,-4.97629e-06,-6.55171e+08,-6.55025e+08,-6.55161e+08,-341374,0.0392655,0.245539,0,0.248659,16002.6,-23854.6,0,28725,341374
step02_gravity_refstate-crust.xmf,313,3.58286e-08,1.75535e-06,0,-5.43305e-06,-6.96351e+08,-6.96233e+08,-6.96353e+08,-372707,0.0424247,0.251899,0,0.255446,14894.6,-25354.2,0,29405.5,372707
step02_gravity_refstate-crust.xmf,314,2.65834e-06,-2.86844e-06,0,-1.24027e-05,-1.00816e+09,-1.00854e+09,-1.00834e+09,-850822,0.0725657,0.334981,0,0.342751,8285.26,-36709.4,0,37632.8,850822
step02_gravity_refstate-crust.xmf,315,1.18617e-06,-4.02025e-07,0,-1.03835e-05,-9.54983e+08,-9.55092e+08,-9.55064e+08,-712309,0.0672229,0.301418,0,0.308823,9966.78,-34771.3,0,36171.5,712309
step02_gravity_refstate-crust.xmf,316,2.00452e-06,-1.69968e-06,0,-1.12453e-05,-9.78739e+08,-9.78994e+08,-9.78877e+08,-771427,0.0692926,0.318924,0,0.326365,9008.96,-35637.5,0,36758.5,771427
step02_gravity_refstate-crust.xmf,317,-5.52024e-08,1.84846e-06,0,-6.97431e-06,-8.15845e+08,-8.15714e+08,-8.15841e+08,-478438,0.0527812,0.257896,0,0.263242,13484.6,-29704.3,0,32621.7,478438
step02_gravity_refstate-crust.xmf,318,1.49212e-07,1.48598e-06,0,-7.67289e-06,-8.52239e+08,-8.52147e+08,-8.52249e+08,-526360,0.0563403,0.266417,0,0.272309,12574.8,-31029.5,0,33480.7,526360
step02_gravity_refstate-crust.xmf,319,7.55862e-07,3.85134e-07,0,-9.33302e-06,-9.20635e+08,-9.20661e+08,-9.20687e+08,-640245,0.0634284,0.287909,0,0.294813,10820.4,-33520.3,0,35223.5,640245
step02_gravity_refstate-crust.xmf,320,3.89516e-07,1.03522e-06,0,-8.46918e-06,-8.88009e+08,-8.87964e+08,-8.88035e+08,-580986,0.0599988,0.276061,0,0.282505,11706.4,-32332,0,34386,580986
step02_gravity_refstate-crust.xmf,321,2.74112e-07,1.44174e-06,0,-5.92878e-06,-7.35974e+08,-7.35894e+08,-7.35993e+08,-406714,0.0455473,0.259327,0,0.263296,13811.6,-26797.2,0,30147.1,406714
step02_gravity_refstate-crust.xmf,322,-5.1154e-07,4.57241e-07,0,-8.2665e-07,-7.70781e+07,-7.70116e+07,-7.7043e+07,-56708.2,0.0311258,0.238678,0,0.240699,22097.5,-2804.74,0,22274.8,56708.2
step02_gravity_refstate-crust.xmf,323,3.17612e-08,1.07903e-06,0,-2.78909e-06,-3.38492e+08,-3.3842e+08,-3.38494e+08,-191332,0.0240809,0.249388,0,0.250548,18162.3,-12324.9,0,21949.3,191332
step02_gravity_refstate-crust.xmf,324,-8.02377e-08,1.48356e-06,0,-3.50091e-06,-4.56569e+08,-4.56462e+08,-4.56564e+08,-240162,0.0276146,0.245378,0,0.246927,17891.2,-16623.8,0,24422.2,240162
step02_gravity_refstate-crust.xmf,325,-2.96487e-09,1.53441e-06,0,-3.87804e-06,-5.13156e+08,-5.13051e+08,-5.13156e+08,-266034,0.030325,0.247868,0,0.249716,16960.5,-18684.3,0,25234.2,266034
step02_gravity_refstate-crust.xmf,326,7.6348e-08,1.56323e-06,0,-4.24576e-06,-5.62922e+08,-5.6282e+08,-5.62927e+08,-291259,0.0331199,0.250428,0,0.252609,16139.6,-20496.5,0,26088.2,291259
step02_gravity_refstate-crust.xmf,327,5.5075e-07,1.11021e-06,0,-6.46603e-06,-7.74894e+08,-7.74855e+08,-7.74932e+08,-443570,0.0486863,0.267495,0,0.271889,12796.9,-28214.7,0,30981.1,443570
step02_gravity_refstate-crust.xmf,328,4.53172e-06,-5.36451e-06,0,-1.20071e-05,-1.00524e+09,-1.00592e+09,-1.00555e+09,-823690,0.0678591,0.357201,0,0.36359,7117.34,-36606.9,0,37292.4,823690
step02_gravity_refstate-crust.xmf,329,5.64153e-06,-7.12949e-06,0,-1.29274e-05,-1.03036e+09,-1.03124e+09,-1.03075e+09,-886822,0.0693617,0.375884,0,0.38223,6446.97,-37523.1,0,38072.9,886822
step02_gravity_refstate-crust.xmf,330,6.87677e-06,-9.08783e-06,0,-1.37796e-05,-1.05268e+09,-1.05378e+09,-1.05315e+09,-945280,0.0702979,0.39502,0,0.401226,5838.79,-38337.7,0,38779.8,945280
step02_gravity_refstate-crust.xmf,331,8.131e-06,-1.11141e-05,0,-1.47942e-05,-1.0755e+09,-1.07682e+09,-1.07606e+09,-1.01489e+06,0.0718063,0.414348,0,0.420524,5340.54,-39170.5,0,39532.9,1.01489e+06
step02_gravity_refstate-crust.xmf,332,-1.17726e-07,5.24385e-07,0,-1.49016e-06,-1.47663e+08,-1.47619e+08,-1.47655e+08,-102225,0.0268039,0.246033,0,0.247489,20058.3,-5376.16,0,20766.3,102225
step02_gravity_refstate-crust.xmf,333,9.80343e-08,6.24012e-07,0,-1.98914e-06,-2.12399e+08,-2.12363e+08,-2.12405e+08,-136455,0.0243851,0.251711,0,0.252889,18485.1,-7733.95,0,20037.8,136455
step02_gravity_refstate-crust.xmf,334,-2.85309e-07,1.09392e-07,0,-1.84085e-08,-27054.3,22.1709,-7482.11,-1262.82,0.040525,0.245424,0,0.248748,20604.8,0,0,20604.8,1262.82
step02_gravity_refstate-crust.xmf,335,2.58353e-07,6.91546e-07,0,-2.40357e-06,-2.75144e+08,-2.75115e+08,-2.75162e+08,-164885,0.0233967,0.256793,0,0.257857,17074.8,-10019,0,19797.2,164885
step02_gravity_refstate-crust.xmf,336,1.95862e-07,1.0778e-06,0,-3.15252e-06,-3.97071e+08,-3.97011e+08,-3.97085e+08,-216263,0.0253394,0.254518,0,0.255776,16753.9,-14458.2,0,22129.9,216263
step02_gravity_refstate-crust.xmf,337,2.25161e-07,1.41236e-06,0,-4.62674e-06,-6.08234e+08,-6.08153e+08,-6.0825e+08,-317395,0.0359206,0.254763,0,0.257283,15176.3,-22146.5,0,26847.4,317395
step02_gravity_refstate-crust.xmf,338,4.38458e-07,1.1807e-06,0,-5.01925e-06,-6.50807e+08,-6.50756e+08,-6.50837e+08,-344321,0.0386783,0.26059,0,0.263445,14140.8,-23696.9,0,27595.4,344321
step02_gravity_refstate-crust.xmf,339,7.14513e-07,8.40426e-07,0,-5.44188e-06,-6.92203e+08,-6.92194e+08,-6.92252e+08,-373313,0.0414101,0.267663,0,0.270847,13087.4,-25204.5,0,28399.8,373313
step02_gravity_refstate-crust.xmf,340,3.49952e-07,1.14874e-06,0,-3.9526e-06,-5.21607e+08,-5.21552e+08,-5.21631e+08,-271149,0.0304877,0.258216,0,0.260009,15259.2,-18992.8,0,24363.3,271149
step02_gravity_refstate-crust.xmf,341,3.59318e-06,-3.84715e-06,0,-1.10345e-05,-9.76885e+08,-9.77395e+08,-9.77131e+08,-756967,0.0656966,0.339694,0,0.345988,7828.01,-35573.1,0,36424.2,756967
step02_gravity_refstate-crust.xmf,342,2.76468e-06,-2.52276e-06,0,-1.01654e-05,-9.48335e+08,-9.48697e+08,-9.48524e+08,-697346,0.0635828,0.323352,0,0.329544,8613.99,-34532.4,0,35590.5,697346
step02_gravity_refstate-crust.xmf,343,8.46421e-07,5.95252e-07,0,-7.07818e-06,-8.12288e+08,-8.12305e+08,-8.12346e+08,-485563,0.0517982,0.276095,0,0.280912,11886.5,-29576.5,0,31875.7,485563
step02_gravity_refstate-crust.xmf,344,2.10006e-06,-1.45104e-06,0,-9.32032e-06,-9.17704e+08,-9.17948e+08,-9.17848e+08,-639374,0.0610385,0.308909,0,0.314881,9413.94,-33416.2,0,34716.9,639374
step02_gravity_refstate-crust.xmf,345,1.19135e-06,4.73121e-08,0,-7.74745e-06,-8.48688e+08,-8.48766e+08,-8.48769e+08,-531475,0.0549206,0.285688,0,0.290919,11027.7,-30902.2,0,32810.9,531475
step02_gravity_refstate-crust.xmf,346,1.59143e-06,-6.12525e-07,0,-8.50015e-06,-8.84108e+08,-8.84259e+08,-8.84217e+08,-583110,0.0580608,0.296415,0,0.302048,10216.4,-32192.3,0,33774.5,583110
step02_gravity_refstate-crust.xmf,347,1.04474e-06,4.00963e-07,0,-5.90005e-06,-7.32448e+08,-7.32492e+08,-7.32519e+08,-404743,0.0440901,0.275654,0,0.279158,12076.7,-26670.3,0,29277.2,404743
step02_gravity_refstate-crust.xmf,348,9.69249e-08,2.01335e-07,0,-8.44955e-07,-7.36826e+07,-7.36754e+07,-7.36892e+07,-57963.9,0.0320734,0.251646,0,0.253682,18974.3,-2683.19,0,19163,57963.9
step02_gravity_refstate-crust.xmf,349,4.21107e-07,7.25678e-07,0,-2.7499e-06,-3.34821e+08,-3.348e+08,-3.3485e+08,-188643,0.0234636,0.261899,0,0.262948,15714.9,-12192.3,0,19890,188643
step02_gravity_refstate-crust.xmf,350,3.96791e-07,9.59279e-07,0,-3.55389e-06,-4.62786e+08,-4.62748e+08,-4.62814e+08,-243797,0.0275016,0.259892,0,0.261343,15355.6,-16851.3,0,22798.3,243797
step02_gravity_refstate-crust.xmf,351,5.35256e-07,9.92051e-07,0,-4.2307e-06,-5.61023e+08,-5.60992e+08,-5.6106e+08,-290226,0.0324479,0.262768,0,0.264764,14326.6,-20428.3,0,24951.3,290226
step02_gravity_refstate-crust.xmf,352,1.41214e-06,-4.83568e-08,0,-6.38514e-06,-7.71064e+08,-7.71164e+08,-7.71161e+08,-438021,0.0467118,0.284157,0,0.287971,11162.1,-28077,0,30214.4,438021
step02_gravity_refstate-crust.xmf,353,5.32587e-06,-6.12917e-06,0,-1.03924e-05,-9.75216e+08,-9.76002e+08,-9.75582e+08,-712916,0.0599196,0.360135,0,0.365086,6591.52,-35515.8,0,36122.3,712916
step02_gravity_refstate-crust.xmf,354,1.06918e-05,-1.43067e-05,0,-1.31843e-05,-1.07658e+09,-1.0783e+09,-1.07731e+09,-904440,0.0623571,0.437406,0,0.441828,4303.93,-39215.1,0,39450.6,904440
step02_gravity_refstate-crust.xmf,355,6.50981e-06,-7.95272e-06,0,-1.11296e-05,-1.00367e+09,-1.00467e+09,-1.00412e+09,-763493,0.0609095,0.378712,0,0.383578,5905.95,-36553.8,0,37027.8,763493
step02_gravity_refstate-crust.xmf,356,7.8803e-06,-1.00476e-05,0,-1.17975e-05,-1.02982e+09,-1.03105e+09,-1.03036e+09,-809307,0.0612585,0.398593,0,0.403273,5258.82,-37508.1,0,37874.9,809307
step02_gravity_refstate-crust.xmf,357,9.35602e-06,-1.22916e-05,0,-1.22522e-05,-1.0514e+09,-1.05289e+09,-1.05205e+09,-840504,0.0605102,0.418269,0,0.422623,4662.67,-38296.2,0,38579,840504
step02_gravity_refstate-crust.xmf,358,3.41916e-07,2.93762e-07,0,-1.47291e-06,-1.43438e+08,-1.43441e+08,-1.43461e+08,-101042,0.0267145,0.257977,0,0.259357,17345.6,-5223.83,0,18115.1,101042
step02_gravity_refstate-crust.xmf,359,5.04302e-07,3.70223e-07,0,-1.9365e-06,-2.08468e+08,-2.08477e+08,-2.08503e+08,-132844,0.0236914,0.263595,0,0.264657,15888.5,-7592.1,0,17609.3,132844
step02_gravity_refstate-crust.xmf,360,4.79397e-07,-1.79144e-07,0,-2.16818e-08,45657,481.069,12770.4,-1487.37,0.0402762,0.25731,0,0.260443,17586.2,0,0,17586.2,1487.37
step02_gravity_refstate-crust.xmf,361,6.48317e-07,3.90108e-07,0,-2.29672e-06,-2.70674e+08,-2.70692e+08,-2.70719e+08,-157555,0.0222525,0.268739,0,0.269659,14551.3,-9857.4,0,17575.8,157555
step02_gravity_refstate-crust.xmf,362,6.27653e-07,6.33147e-07,0,-3.05477e-06,-3.93742e+08,-3.93742e+08,-3.93785e+08,-209557,0.0242245,0.267628,0,0.268722,14307.5,-14338.1,0,20255.5,209557
step02_gravity_refstate-crust.xmf,363,7.49802e-07,6.60861e-07,0,-3.79142e-06,-5.08957e+08,-5.08964e+08,-5.09009e+08,-260091,0.0288618,0.268944,0,0.270488,13593.5,-18533.2,0,22983.9,260091
step02_gravity_refstate-crust.xmf,364,1.42593e-06,-9.37555e-08,0,-5.28024e-06,-6.89061e+08,-6.89166e+08,-6.89159e+08,-362225,0.0392603,0.282433,0,0.285149,11326.2,-25091.6,0,27529.5,362225
step02_gravity_refstate-crust.xmf,365,7.74059e-07,7.03372e-07,0,-4.55924e-06,-6.04176e+08,-6.04181e+08,-6.04229e+08,-312764,0.0347096,0.268382,0,0.270617,13318.9,-21999.8,0,25717.4,312764
step02_gravity_refstate-crust.xmf,366,1.06764e-06,3.59187e-07,0,-4.90858e-06,-6.47215e+08,-6.47263e+08,-6.47288e+08,-336729,0.0370281,0.274888,0,0.277371,12316.2,-23567.4,0,26591.5,336729
step02_gravity_refstate-crust.xmf,367,4.32479e-06,-4.58566e-06,0,-9.67769e-06,-9.45942e+08,-9.46553e+08,-9.46238e+08,-663889,0.0586165,0.343317,0,0.348285,7312.91,-34448.4,0,35216,663889
step02_gravity_refstate-crust.xmf,368,3.50888e-06,-3.32393e-06,0,-8.96984e-06,-9.15339e+08,-9.15807e+08,-9.15579e+08,-615331,0.0568601,0.328502,0,0.333387,8038.58,-33332.9,0,34288.5,615331
step02_gravity_refstate-crust.xmf,369,1.8302e-06,-7.27651e-07,0,-6.93861e-06,-8.08367e+08,-8.08543e+08,-8.08493e+08,-475989,0.0492651,0.293551,0,0.297656,10305.1,-29435.7,0,31187.4,475989
step02_gravity_refstate-crust.xmf,370,2.84473e-06,-2.29102e-06,0,-8.26565e-06,-8.82411e+08,-8.82763e+08,-8.82606e+08,-567024,0.0546397,0.315452,0,0.320149,8768.14,-32133,0,33307.8,567024
step02_gravity_refstate-crust.xmf,371,2.29326e-06,-1.43718e-06,0,-7.59023e-06,-8.47024e+08,-8.4728e+08,-8.47181e+08,-520690,0.0521216,0.303793,0,0.308231,9526.1,-30843.8,0,32281.4,520690
step02_gravity_refstate-crust.xmf,372,1.84669e-06,-5.91564e-07,0,-5.65553e-06,-7.28296e+08,-7.28463e+08,-7.28423e+08,-387970,0.041264,0.290826,0,0.293739,10386.1,-26520.9,0,28482.1,387970
step02_gravity_refstate-crust.xmf,373,1.27527e-05,-1.70736e-05,0,-1.16553e-05,-1.0813e+09,-1.08335e+09,-1.08218e+09,-799557,0.0534496,0.456379,0,0.459498,3454.51,-39391,0,39542.2,799557
step02_gravity_refstate-crust.xmf,374,6.86296e-07,-4.09135e-08,0,-8.22725e-07,-7.14324e+07,-7.14823e+07,-7.14795e+07,-56438.9,0.0311294,0.263736,0,0.265566,16057.4,-2603.28,0,16267,56438.9
step02_gravity_refstate-crust.xmf,375,8.20337e-07,3.60455e-07,0,-2.58696e-06,-3.30733e+08,-3.30765e+08,-3.3079e+08,-177465,0.0218564,0.273946,0,0.274817,13242.8,-12044.6,0,17900.9,177465
step02_gravity_refstate-crust.xmf,376,8.9551e-07,3.84328e-07,0,-3.31541e-06,-4.5027e+08,-4.50305e+08,-4.50331e+08,-227437,0.0253544,0.273985,0,0.275155,12903.9,-16396.7,0,20865.4,227437
step02_gravity_refstate-crust.xmf,377,1.02995e-06,3.78319e-07,0,-4.06013e-06,-5.55177e+08,-5.55222e+08,-5.55248e+08,-278525,0.030628,0.275019,0,0.276719,12474.1,-20216.5,0,23755.2,278525
step02_gravity_refstate-crust.xmf,378,2.28111e-06,-1.19168e-06,0,-6.04709e-06,-7.65511e+08,-7.65749e+08,-7.65667e+08,-414830,0.0432488,0.299242,0,0.302351,9588.25,-27876.6,0,29479.4,414830
step02_gravity_refstate-crust.xmf,379,5.88459e-06,-6.4867e-06,0,-8.77071e-06,-9.43883e+08,-9.44732e+08,-9.44287e+08,-601670,0.0516394,0.361559,0,0.365228,6004.56,-34376.8,0,34897.2,601670
step02_gravity_refstate-crust.xmf,380,7.05995e-06,-8.36046e-06,0,-9.22351e-06,-9.73228e+08,-9.74285e+08,-9.73712e+08,-632733,0.051759,0.378812,0,0.382332,5323.16,-35446.9,0,35844.4,632733
step02_gravity_refstate-crust.xmf,381,1.19007e-05,-1.55733e-05,0,-1.02345e-05,-1.05673e+09,-1.05861e+09,-1.05754e+09,-702084,0.0488749,0.441645,0,0.444341,3464.51,-38495.3,0,38650.9,702084
step02_gravity_refstate-crust.xmf,382,1.4278e-05,-1.89457e-05,0,-9.12091e-06,-1.07719e+09,-1.07947e+09,-1.07817e+09,-625695,0.0413291,0.467037,0,0.468862,2611.93,-39244.7,0,39331.5,625695
step02_gravity_refstate-crust.xmf,383,8.41548e-06,-1.03902e-05,0,-9.64672e-06,-1.00171e+09,-1.003e+09,-1.00229e+09,-661765,0.0514518,0.397662,0,0.400976,4681.17,-36486.2,0,36785.3,661765
step02_gravity_refstate-crust.xmf,384,9.90965e-06,-1.26389e-05,0,-9.97457e-06,-1.02801e+09,-1.02956e+09,-1.02869e+09,-684256,0.0505511,0.417412,0,0.420461,4090.11,-37446.3,0,37669,684256
step02_gravity_refstate-crust.xmf,385,9.03711e-07,1.23606e-07,0,-1.80205e-06,-2.05973e+08,-2.06027e+08,-2.06035e+08,-123621,0.0219173,0.27484,0,0.275712,13294,-7502.5,0,15264.9,123621
step02_gravity_refstate-crust.xmf,386,8.10178e-07,6.16184e-08,0,-1.38693e-06,-1.39934e+08,-1.39986e+08,-1.3999e+08,-95143.6,0.0253124,0.269659,0,0.270845,14606.5,-5097.83,0,15470.6,95143.6
step02_gravity_refstate-crust.xmf,387,1.23093e-06,-4.62242e-07,0,-2.39382e-08,117136,984.086,32693.9,-1642.16,0.0377696,0.268741,0,0.271382,14606.1,0,0,14606.1,1642.16
step02_gravity_refstate-crust.xmf,388,1.02079e-06,1.3122e-07,0,-2.10444e-06,-2.67869e+08,-2.6793e+08,-2.67939e+08,-144364,0.0201729,0.279659,0,0.280386,12062,-9756.37,0,15513.9,144364
step02_gravity_refstate-crust.xmf,389,1.04845e-06,1.96395e-07,0,-2.81057e-06,-3.8849e+08,-3.88549e+08,-3.88562e+08,-192805,0.0220574,0.279591,0,0.28046,11921.3,-14147.9,0,18500.8,192805
step02_gravity_refstate-crust.xmf,390,1.20814e-06,1.14265e-07,0,-3.52791e-06,-5.01037e+08,-5.01112e+08,-5.0112e+08,-242015,0.0264886,0.280604,0,0.281851,11607.8,-18245.8,0,21625.3,242015
step02_gravity_refstate-crust.xmf,391,2.15416e-06,-1.03237e-06,0,-4.92504e-06,-6.86212e+08,-6.8643e+08,-6.86359e+08,-337858,0.0358756,0.296185,0,0.29835,9568.7,-24989.3,0,26758.7,337858
step02_gravity_refstate-crust.xmf,392,1.70162e-06,-4.54815e-07,0,-4.66034e-06,-6.45915e+08,-6.46063e+08,-6.46032e+08,-319699,0.0344918,0.287942,0,0.290001,10553.1,-23521.4,0,25780.3,319699
step02_gravity_refstate-crust.xmf,393,1.35034e-06,-2.93383e-08,0,-4.34287e-06,-6.00432e+08,-6.00527e+08,-6.00525e+08,-297921,0.0324584,0.281412,0,0.283278,11447.3,-21864.7,0,24680.1,297921
step02_gravity_refstate-crust.xmf,394,4.89067e-06,-5.11864e-06,0,-8.27373e-06,-9.13591e+08,-9.14278e+08,-9.13927e+08,-567578,0.0510238,0.346048,0,0.34979,6705.01,-33272.1,0,33940.9,567578
step02_gravity_refstate-crust.xmf,395,4.10405e-06,-3.93585e-06,0,-7.72385e-06,-8.81558e+08,-8.82109e+08,-8.81839e+08,-529856,0.0496513,0.3328,0,0.336483,7361.36,-32104.5,0,32937.7,529856
step02_gravity_refstate-crust.xmf,396,2.89327e-06,-2.09478e-06,0,-6.49777e-06,-8.0367e+08,-8.04012e+08,-8.03869e+08,-445747,0.0448482,0.310517,0,0.313739,8651.88,-29266.9,0,30518.9,445747
step02_gravity_refstate-crust.xmf,397,3.41898e-06,-2.92269e-06,0,-7.20055e-06,-8.48151e+08,-8.48586e+08,-8.48385e+08,-493958,0.0480485,0.320825,0,0.324403,8049.29,-30887.1,0,31918.7,493958
step02_gravity_refstate-crust.xmf,398,2.69815e-06,-1.70653e-06,0,-5.17761e-06,-7.25365e+08,-7.25667e+08,-7.2555e+08,-355184,0.0369392,0.305567,0,0.307791,8597.86,-26415.9,0,27779.9,355184
step02_gravity_refstate-crust.xmf,399,1.57208e-05,-2.07329e-05,0,-5.68089e-06,-1.07581e+09,-1.07831e+09,-1.07689e+09,-389709,0.0255305,0.477763,0,0.478445,1570.29,-39197.5,0,39228.9,389709
step02_gravity_refstate-crust.xmf,400,1.24837e-06,-2.67275e-07,0,-7.6986e-07,-7.07479e+07,-7.08519e+07,-7.08336e+07,-52812.4,0.0284032,0.275003,0,0.276466,13182.9,-2580.29,0,13433.1,52812.4
step02_gravity_refstate-crust.xmf,401,1.19219e-06,2.05068e-08,0,-2.31834e-06,-3.281e+08,-3.28181e+08,-3.28182e+08,-159038,0.0193902,0.28459,0,0.28525,10837.5,-11949.7,0,16132.2,159038
step02_gravity_refstate-crust.xmf,402,1.33569e-06,-1.08701e-07,0,-2.9864e-06,-4.4422e+08,-4.44319e+08,-4.44312e+08,-204867,0.022594,0.285515,0,0.286407,10659.4,-16177.5,0,19373.6,204867
step02_gravity_refstate-crust.xmf,403,1.55214e-06,-2.59635e-07,0,-3.74351e-06,-5.50399e+08,-5.50523e+08,-5.50505e+08,-256805,0.0277941,0.287009,0,0.288352,10506.5,-20043.7,0,22630.4,256805
step02_gravity_refstate-crust.xmf,404,6.18085e-06,-6.76856e-06,0,-7.22755e-06,-9.11871e+08,-9.12759e+08,-9.12295e+08,-495810,0.0435801,0.361157,0,0.363776,5399.64,-33212.1,0,33648.2,495810
step02_gravity_refstate-crust.xmf,405,7.31879e-06,-8.32116e-06,0,-7.43453e-06,-9.41816e+08,-9.42889e+08,-9.42318e+08,-510009,0.0427621,0.377097,0,0.379514,4701.99,-34304.5,0,34625.2,510009
step02_gravity_refstate-crust.xmf,406,2.84939e-06,-1.86463e-06,0,-4.40214e-06,-6.85207e+08,-6.8553e+08,-6.85403e+08,-301987,0.0314831,0.308374,0,0.309977,7844.51,-24954.3,0,26158.2,301987
step02_gravity_refstate-crust.xmf,407,2.98149e-06,-2.12917e-06,0,-5.59028e-06,-7.6008e+08,-7.60431e+08,-7.60285e+08,-383493,0.0393148,0.310474,0,0.312953,8294.06,-27680.2,0,28896.1,383493
step02_gravity_refstate-crust.xmf,408,8.62923e-06,-1.03469e-05,0,-7.53821e-06,-9.71112e+08,-9.72413e+08,-9.71704e+08,-517121,0.0413887,0.394514,0,0.396679,4038.43,-35373.2,0,35603,517121
step02_gravity_refstate-crust.xmf,409,1.3664e-05,-1.77346e-05,0,-7.00889e-06,-1.0536e+09,-1.05575e+09,-1.05454e+09,-480810,0.0330239,0.455574,0,0.456769,2259.73,-38385.2,0,38451.7,480810
step02_gravity_refstate-crust.xmf,410,1.00171e-05,-1.24229e-05,0,-7.67446e-06,-9.99844e+08,-1.00138e+09,-1.00053e+09,-526468,0.0402094,0.412625,0,0.414579,3490.02,-36421.6,0,36588.4,526468
step02_gravity_refstate-crust.xmf,411,1.16826e-05,-1.48673e-05,0,-7.6548e-06,-1.02824e+09,-1.03006e+09,-1.02904e+09,-525119,0.0380147,0.433198,0,0.434862,2923.93,-37458.2,0,37572.2,525119
step02_gravity_refstate-crust.xmf,412,1.25174e-06,-8.94301e-08,0,-1.61786e-06,-2.09052e+08,-2.09144e+08,-2.09138e+08,-110985,0.0191589,0.284666,0,0.28531,10788.8,-7615.69,0,13206,110985
step02_gravity_refstate-crust.xmf,413,1.24504e-06,-1.47845e-07,0,-1.26475e-06,-1.4128e+08,-1.41375e+08,-1.41365e+08,-86762,0.0224251,0.280456,0,0.281351,11859.4,-5148.23,0,12928.6,86762
step02_gravity_refstate-crust.xmf,414,1.9252e-06,-7.22965e-07,0,-2.54827e-08,183203,1538.17,51133.6,-1748.11,0.0331506,0.279102,0,0.281064,11656.5,0,0,11656.5,1748.11
step02_gravity_refstate-crust.xmf,415,1.34052e-06,-1.19579e-07,0,-1.83914e-06,-2.67706e+08,-2.67806e+08,-2.67798e+08,-126165,0.0174038,0.288768,0,0.289292,9719.34,-9751.33,0,13767.9,126165
step02_gravity_refstate-crust.xmf,416,1.43339e-06,-1.9965e-07,0,-2.4487e-06,-3.84391e+08,-3.84503e+08,-3.84489e+08,-167981,0.0190367,0.289955,0,0.290579,9585.18,-13999.6,0,16966.6,167981
step02_gravity_refstate-crust.xmf,417,1.67409e-06,-4.31014e-07,0,-3.14081e-06,-4.97206e+08,-4.9735e+08,-4.97321e+08,-215459,0.0232719,0.291614,0,0.292541,9509.58,-18107.4,0,20452.6,215459
step02_gravity_refstate-crust.xmf,418,2.3477e-06,-1.27626e-06,0,-4.19924e-06,-6.43137e+08,-6.43386e+08,-6.43298e+08,-288068,0.0305708,0.300321,0,0.301873,8716.69,-23421.6,0,24991,288068
step02_gravity_refstate-crust.xmf,419,1.94522e-06,-7.74869e-07,0,-3.94759e-06,-5.96653e+08,-5.96839e+08,-5.96786e+08,-270805,0.0289911,0.29381,0,0.295237,9498.13,-21728.4,0,23713.7,270805
step02_gravity_refstate-crust.xmf,420,5.21609e-06,-5.3854e-06,0,-6.97866e-06,-8.81627e+08,-8.82354e+08,-8.81984e+08,-478736,0.0438565,0.346881,0,0.349642,6111.87,-32109.3,0,32685.8,478736
step02_gravity_refstate-crust.xmf,421,4.48238e-06,-4.28236e-06,0,-6.49895e-06,-8.46567e+08,-8.47168e+08,-8.46874e+08,-445828,0.0423709,0.335218,0,0.337885,6657.66,-30831.6,0,31542.2,445828
step02_gravity_refstate-crust.xmf,422,7.30944e-06,-8.18645e-06,0,-5.82457e-06,-9.10011e+08,-9.11074e+08,-9.10512e+08,-399566,0.0345407,0.373608,0,0.375202,4090.03,-33146.8,0,33398.1,399566
step02_gravity_refstate-crust.xmf,423,3.85435e-06,-3.35545e-06,0,-6.19966e-06,-8.17707e+08,-8.18201e+08,-8.17971e+08,-425297,0.0417444,0.325274,0,0.327942,7275.66,-29779.8,0,30655.7,425297
step02_gravity_refstate-crust.xmf,424,3.4857e-06,-2.71027e-06,0,-4.65441e-06,-7.30815e+08,-7.31241e+08,-7.31055e+08,-319292,0.0324403,0.318031,0,0.319681,6984.11,-26616,0,27517,319292
step02_gravity_refstate-crust.xmf,425,3.70426e-06,-3.08072e-06,0,-5.49484e-06,-7.81031e+08,-7.81497e+08,-7.81286e+08,-376946,0.0375772,0.321968,0,0.324154,7163.29,-28444.4,0,29332.6,376946
step02_gravity_refstate-crust.xmf,426,1.64512e-05,-2.16145e-05,0,-1.9557e-06,-1.07482e+09,-1.07744e+09,-1.07595e+09,-134161,0.00885792,0.483,0,0.483081,538.18,-39163.1,0,39166.8,134161
step02_gravity_refstate-crust.xmf,427,1.4675e-05,-1.89546e-05,0,-3.72231e-06,-1.05195e+09,-1.05426e+09,-1.05296e+09,-255350,0.0175044,0.463294,0,0.463625,1175.23,-38327.3,0,38345.4,255350
step02_gravity_refstate-crust.xmf,428,1.74523e-06,-4.62053e-07,0,-6.88828e-07,-7.21318e+07,-7.22833e+07,-7.22516e+07,-47253.6,0.0239964,0.285036,0,0.286044,10311.6,-2632.38,0,10642.3,47253.6
step02_gravity_refstate-crust.xmf,429,1.48044e-06,-2.32398e-07,0,-1.454e-06,-2.17253e+08,-2.17371e+08,-2.17355e+08,-99744.7,0.0163649,0.291449,0,0.291908,8829.36,-7914.96,0,11857.7,99744.7
step02_gravity_refstate-crust.xmf,430,1.51892e-06,-2.79561e-07,0,-1.9486e-06,-3.25646e+08,-3.25769e+08,-3.2575e+08,-133674,0.0161591,0.293563,0,0.294007,8483.85,-11861.2,0,14583,133674
step02_gravity_refstate-crust.xmf,431,1.7418e-06,-5.56759e-07,0,-2.52284e-06,-4.393e+08,-4.39458e+08,-4.39419e+08,-173067,0.0189149,0.295563,0,0.296167,8390.12,-15999.3,0,18065.8,173067
step02_gravity_refstate-crust.xmf,432,2.08405e-06,-9.0134e-07,0,-3.26034e-06,-5.48214e+08,-5.48419e+08,-5.48357e+08,-223659,0.0238426,0.298361,0,0.299312,8401.43,-19965.3,0,21661,223659
step02_gravity_refstate-crust.xmf,433,6.26432e-06,-6.70554e-06,0,-5.83633e-06,-8.80112e+08,-8.81002e+08,-8.80542e+08,-400372,0.0360253,0.359542,0,0.361342,4776.04,-32056.3,0,32410.2,400372
step02_gravity_refstate-crust.xmf,434,8.53805e-06,-9.86801e-06,0,-5.68584e-06,-9.40068e+08,-9.41331e+08,-9.40654e+08,-390049,0.0320987,0.389586,0,0.390906,3382.02,-34243.4,0,34410,390049
step02_gravity_refstate-crust.xmf,435,2.91955e-06,-1.9565e-06,0,-3.67589e-06,-6.46594e+08,-6.46929e+08,-6.46794e+08,-252166,0.0264594,0.310419,0,0.311545,7063.65,-23548.7,0,24585.3,252166
step02_gravity_refstate-crust.xmf,436,3.45518e-06,-2.62388e-06,0,-3.6489e-06,-6.80285e+08,-6.80702e+08,-6.80522e+08,-250315,0.0257222,0.318374,0,0.319411,6130.15,-24776.4,0,25523.5,250315
step02_gravity_refstate-crust.xmf,437,9.96765e-06,-1.20218e-05,0,-5.26287e-06,-9.70024e+08,-9.71532e+08,-9.70708e+08,-361033,0.0283696,0.407485,0,0.408472,2652.2,-35336.4,0,35435.8,361033
step02_gravity_refstate-crust.xmf,438,1.30119e-05,-1.65311e-05,0,-5.08574e-06,-1.03023e+09,-1.03225e+09,-1.03112e+09,-348882,0.0249009,0.444802,0,0.445498,1841.14,-37533.5,0,37578.6,348882
step02_gravity_refstate-crust.xmf,439,1.11551e-05,-1.38788e-05,0,-5.58252e-06,-9.99128e+08,-1.00085e+09,-9.99893e+08,-382961,0.0288888,0.422955,0,0.42394,2427.36,-36397.9,0,36478.7,382961
step02_gravity_refstate-crust.xmf,440,1.62625e-06,-3.59592e-07,0,-1.42531e-06,-2.58311e+08,-2.58448e+08,-2.58423e+08,-97776.5,0.0138181,0.296453,0,0.296775,7314.43,-9410.11,0,11918.5,97776.5
step02_gravity_refstate-crust.xmf,441,1.63137e-06,-3.28255e-07,0,-1.09211e-06,-1.50645e+08,-1.50779e+08,-1.50757e+08,-74918.6,0.0177849,0.290641,0,0.291185,8873.59,-5490.46,0,10434.8,74918.6
step02_gravity_refstate-crust.xmf,442,2.51992e-06,-9.47024e-07,0,-2.57276e-08,239765,1932.8,66898.6,-1764.91,0.0266731,0.287836,0,0.289069,8728.93,0,0,8728.93,1764.91
step02_gravity_refstate-crust.xmf,443,1.76846e-06,-5.42764e-07,0,-1.96641e-06,-3.8039e+08,-3.80548e+08,-3.80511e+08,-134895,0.0151715,0.298603,0,0.298988,7235.39,-13854.8,0,15630.3,134895
step02_gravity_refstate-crust.xmf,444,2.10465e-06,-9.35036e-07,0,-2.6165e-06,-4.95425e+08,-4.95634e+08,-4.9557e+08,-179492,0.0191818,0.301142,0,0.301752,7384.97,-18043.5,0,19496.3,179492
step02_gravity_refstate-crust.xmf,445,2.64747e-06,-1.6152e-06,0,-3.30452e-06,-6.00436e+08,-6.00728e+08,-6.00617e+08,-226690,0.0239207,0.30685,0,0.307781,7176.45,-21867.7,0,23015.1,226690
step02_gravity_refstate-crust.xmf,446,4.57869e-06,-4.2586e-06,0,-5.35619e-06,-8.0861e+08,-8.09216e+08,-8.08924e+08,-367434,0.0356544,0.334773,0,0.336667,6050.04,-29450.2,0,30065.2,367434
step02_gravity_refstate-crust.xmf,447,5.53462e-06,-5.56953e-06,0,-5.29324e-06,-8.41174e+08,-8.41936e+08,-8.41554e+08,-363116,0.0339905,0.34824,0,0.349895,5094.54,-30637.5,0,31058.2,363116
step02_gravity_refstate-crust.xmf,448,7.19046e-06,-7.86637e-06,0,-4.47122e-06,-8.80945e+08,-8.81978e+08,-8.81438e+08,-306726,0.0271774,0.370078,0,0.371075,3448.54,-32088.6,0,32273.4,306726
step02_gravity_refstate-crust.xmf,449,8.18808e-06,-9.27388e-06,0,-4.11689e-06,-9.08039e+08,-9.09237e+08,-9.086e+08,-282418,0.0241597,0.382847,0,0.383608,2772.78,-33076.8,0,33192.8,282418
step02_gravity_refstate-crust.xmf,450,3.32763e-06,-2.45884e-06,0,-2.92282e-06,-6.36403e+08,-6.368e+08,-6.36631e+08,-200505,0.0208184,0.317622,0,0.318303,5451.86,-23178.5,0,23811.1,200505
step02_gravity_refstate-crust.xmf,451,4.16637e-06,-3.55661e-06,0,-3.54539e-06,-7.20114e+08,-7.20644e+08,-7.204e+08,-243214,0.0244158,0.328426,0,0.329332,5094.3,-26227.8,0,26718,243214
step02_gravity_refstate-crust.xmf,452,4.37247e-06,-3.88797e-06,0,-4.45079e-06,-7.6544e+08,-7.66007e+08,-7.6574e+08,-305324,0.0301225,0.331215,0,0.332582,5662.03,-27878.3,0,28447.4,305324
step02_gravity_refstate-crust.xmf,453,1.64215e-05,-2.15417e-05,0,1.85939e-06,-1.07415e+09,-1.07676e+09,-1.07528e+09,127554,-0.0080943,0.4826,-0,0.482668,-492.86,-39138.7,-0,39141.8,127554
step02_gravity_refstate-crust.xmf,454,1.35597e-05,-1.71421e-05,0,-2.04666e-06,-1.0271e+09,-1.0292e+09,-1.02803e+09,-140401,0.0101427,0.448797,0,0.448911,745.689,-37420.8,0,37428.3,140401
step02_gravity_refstate-crust.xmf,455,1.49869e-05,-1.9296e-05,0,-2.7014e-07,-1.05019e+09,-1.05254e+09,-1.05122e+09,-18531.6,0.00143815,0.465355,0,0.465358,96.3872,-38263.9,0,38264.1,18531.6
step02_gravity_refstate-crust.xmf,456,1.68056e-06,-3.59861e-07,0,-1.14758e-06,-1.94371e+08,-1.94511e+08,-1.94486e+08,-78724.1,0.014312,0.29553,0,0.295876,7355.74,-7082.5,0,10211.2,78724.1
step02_gravity_refstate-crust.xmf,457,2.17625e-06,-6.39049e-07,0,-5.3484e-07,-7.26719e+07,-7.2865e+07,-7.28212e+07,-36690,0.0179983,0.293647,0,0.294198,7271.76,-2653.51,0,7740.77,36690
step02_gravity_refstate-crust.xmf,458,1.78917e-06,-5.24937e-07,0,-1.46903e-06,-3.20817e+08,-3.20976e+08,-3.2094e+08,-100775,0.0121538,0.300748,0,0.300993,6100.58,-11686.1,0,13182.6,100775
step02_gravity_refstate-crust.xmf,459,2.09548e-06,-9.38749e-07,0,-1.8923e-06,-4.34165e+08,-4.34373e+08,-4.34309e+08,-129812,0.0140997,0.304044,0,0.304371,5966.14,-15813.2,0,16901.3,129812
step02_gravity_refstate-crust.xmf,460,2.5581e-06,-1.4763e-06,0,-2.57576e-06,-5.44374e+08,-5.4465e+08,-5.44549e+08,-176697,0.0186154,0.307911,0,0.308473,6229.35,-19826.5,0,20782.1,176697
step02_gravity_refstate-crust.xmf,461,6.33483e-06,-6.66402e-06,0,-4.7483e-06,-8.56645e+08,-8.57536e+08,-8.57079e+08,-325734,0.0297503,0.358914,0,0.360144,4136.99,-31202.3,0,31475.4,325734
step02_gravity_refstate-crust.xmf,462,9.42994e-06,-1.10079e-05,0,-3.63128e-06,-9.39218e+08,-9.4062e+08,-9.39865e+08,-249106,0.0202188,0.398428,0,0.39894,2067.72,-34214.3,0,34276.7,249106
step02_gravity_refstate-crust.xmf,463,3.94241e-06,-3.23355e-06,0,-2.72253e-06,-6.75181e+08,-6.75673e+08,-6.75451e+08,-186766,0.0189774,0.326132,0,0.326683,4386.94,-24591.6,0,24979.8,186766
step02_gravity_refstate-crust.xmf,464,1.09507e-05,-1.33074e-05,0,-2.93474e-06,-9.73784e+08,-9.75448e+08,-9.74535e+08,-201324,0.0154025,0.417007,0,0.417292,1384.89,-35475.3,0,35502.3,201324
step02_gravity_refstate-crust.xmf,465,1.22175e-05,-1.51804e-05,0,-3.39811e-06,-1.00579e+09,-1.00767e+09,-1.00663e+09,-233110,0.0174248,0.433505,0,0.433855,1398.29,-36642.7,0,36669.4,233110
step02_gravity_refstate-crust.xmf,466,1.80515e-06,-4.43409e-07,0,-9.95635e-07,-2.14178e+08,-2.14332e+08,-2.14301e+08,-68300.5,0.0112415,0.299828,0,0.300038,5718.82,-7803.96,0,9675.06,68300.5
step02_gravity_refstate-crust.xmf,467,2.97807e-06,-1.12288e-06,0,-2.27139e-08,283200,1875.36,78904.9,-1558.17,0.0186896,0.294461,0,0.295053,5815.3,0,0,5815.3,1558.17
step02_gravity_refstate-crust.xmf,468,1.97294e-06,-4.97059e-07,0,-7.36237e-07,-1.47976e+08,-1.48146e+08,-1.48111e+08,-50505.9,0.0121527,0.298716,0,0.298964,5710.57,-5394.43,0,7855.6,50505.9
step02_gravity_refstate-crust.xmf,469,1.84473e-06,-5.24104e-07,0,-1.01867e-06,-2.63215e+08,-2.63378e+08,-2.63342e+08,-69880.9,0.00970611,0.302311,0,0.302467,4942.99,-9589.27,0,10788.3,69880.9
step02_gravity_refstate-crust.xmf,470,2.02751e-06,-8.07289e-07,0,-1.37873e-06,-3.7604e+08,-3.76234e+08,-3.76179e+08,-94580.9,0.0105797,0.305128,0,0.305311,4861.97,-13697.1,0,14534.4,94580.9
step02_gravity_refstate-crust.xmf,471,2.43817e-06,-1.31993e-06,0,-1.95127e-06,-4.89868e+08,-4.90126e+08,-4.90035e+08,-133857,0.0141883,0.308412,0,0.308738,5273.47,-17842,0,18605,133857
step02_gravity_refstate-crust.xmf,472,5.28058e-06,-5.12477e-06,0,-4.1862e-06,-7.99268e+08,-7.99981e+08,-7.9963e+08,-287173,0.0275745,0.343796,0,0.3449,4572.74,-29111.6,0,29468.5,287173
step02_gravity_refstate-crust.xmf,473,6.18315e-06,-6.35707e-06,0,-3.80799e-06,-8.29474e+08,-8.30334e+08,-8.29898e+08,-261228,0.0243167,0.355862,0,0.356692,3608.13,-30213,0,30427.7,261228
step02_gravity_refstate-crust.xmf,474,6.97116e-06,-7.44881e-06,0,-3.28542e-06,-8.52532e+08,-8.53521e+08,-8.5301e+08,-225380,0.0204266,0.36603,0,0.3666,2780.58,-31053.9,0,31178.2,225380
step02_gravity_refstate-crust.xmf,475,7.81599e-06,-8.64267e-06,0,-2.8206e-06,-8.79281e+08,-8.8041e+08,-8.79817e+08,-193493,0.0170377,0.376895,0,0.37728,2111.87,-32029.3,0,32098.9,193493
step02_gravity_refstate-crust.xmf,476,8.74567e-06,-9.93949e-06,0,-2.20308e-06,-9.06266e+08,-9.07547e+08,-9.06866e+08,-151131,0.0129003,0.388487,0,0.388701,1454.76,-33013.5,0,33045.5,151131
step02_gravity_refstate-crust.xmf,477,3.10152e-06,-2.16331e-06,0,-2.32163e-06,-5.87629e+08,-5.8799e+08,-5.87842e+08,-159264,0.0166449,0.315831,0,0.316269,4866.6,-21402.4,0,21948.7,159264
step02_gravity_refstate-crust.xmf,478,3.69844e-06,-2.91147e-06,0,-2.00756e-06,-6.3166e+08,-6.32113e+08,-6.31913e+08,-137719,0.0142127,0.323905,0,0.324217,3631.92,-23006.7,0,23291.6,137719
step02_gravity_refstate-crust.xmf,479,4.63374e-06,-4.14108e-06,0,-2.42133e-06,-7.14608e+08,-7.1521e+08,-7.14925e+08,-166103,0.0165074,0.335324,0,0.33573,3366,-26028.3,0,26245.1,166103
step02_gravity_refstate-crust.xmf,480,4.96952e-06,-4.62655e-06,0,-3.26056e-06,-7.57307e+08,-7.57965e+08,-7.57648e+08,-223674,0.0218351,0.339451,0,0.340153,4011.03,-27583.5,0,27873.6,223674
step02_gravity_refstate-crust.xmf,481,1.56438e-05,-2.05389e-05,0,5.41626e-06,-1.07342e+09,-1.0759e+09,-1.0745e+09,371555,-0.0241616,0.476567,-0,0.477179,-1497.99,-39110.5,-0,39139.2,371555
step02_gravity_refstate-crust.xmf,482,1.45954e-05,-1.87667e-05,0,3.2333e-06,-1.04897e+09,-1.05125e+09,-1.04997e+09,221805,-0.0149627,0.46208,-0,0.462322,-1013.89,-38218.6,-0,38232.1,221805
step02_gravity_refstate-crust.xmf,483,1.22903e-05,-1.51559e-05,0,-9.44785e-07,-9.98624e+08,-1.00051e+09,-9.99467e+08,-64812.3,0.00500345,0.432785,0,0.432814,408.076,-36382.1,0,36384.4,64812.3
step02_gravity_refstate-crust.xmf,484,1.34882e-05,-1.69835e-05,0,9.98434e-07,-1.02356e+09,-1.02565e+09,-1.02449e+09,68492.6,-0.00469489,0.447494,-0,0.447519,-348.749,-37292.1,-0,37293.7,68492.6
step02_gravity_refstate-crust.xmf,485,2.49989e-06,-7.81875e-07,0,-3.27868e-07,-6.97339e+07,-6.9959e+07,-6.99054e+07,-22491.8,0.011131,0.29945,0,0.299657,4282.41,-2547.64,0,4982.92,22491.8
step02_gravity_refstate-crust.xmf,486,1.97918e-06,-6.98782e-07,0,-9.29175e-07,-3.17564e+08,-3.17748e+08,-3.177e+08,-63741.4,0.00765512,0.30573,0,0.305826,3729.67,-11568.2,0,12154.5,63741.4
step02_gravity_refstate-crust.xmf,487,2.35105e-06,-1.20702e-06,0,-1.18466e-06,-4.32092e+08,-4.32337e+08,-4.32254e+08,-81267.4,0.00882277,0.309793,0,0.309918,3612.21,-15738.4,0,16147.6,81267.4
step02_gravity_refstate-crust.xmf,488,2.89831e-06,-1.88763e-06,0,-1.76364e-06,-5.40027e+08,-5.40355e+08,-5.40226e+08,-120986,0.0126385,0.314688,0,0.314942,4097.37,-19669,0,20091.3,120986
step02_gravity_refstate-crust.xmf,489,9.86173e-06,-1.15677e-05,0,-1.33191e-06,-9.3695e+08,-9.3842e+08,-9.37627e+08,-91368.9,0.00738641,0.402365,0,0.402432,748.022,-34132.6,0,34140.8,91368.9
step02_gravity_refstate-crust.xmf,490,4.27851e-06,-3.65407e-06,0,-1.68857e-06,-6.71534e+08,-6.72078e+08,-6.71828e+08,-115836,0.0116747,0.331378,0,0.331584,2646.65,-24459.5,0,24602.3,115836
step02_gravity_refstate-crust.xmf,491,1.96541e-06,-5.28573e-07,0,-6.38879e-07,-2.02201e+08,-2.02372e+08,-2.02336e+08,-43827.1,0.00765944,0.303172,0,0.303269,3774.74,-7368.45,0,8279.06,43827.1
step02_gravity_refstate-crust.xmf,492,3.2655e-06,-1.23362e-06,0,-2.02532e-08,310433,1794.04,86420.1,-1389.37,0.00962911,0.298605,0,0.29876,2907.42,0,0,2907.42,1389.37
step02_gravity_refstate-crust.xmf,493,1.98393e-06,-6.21093e-07,0,-5.21396e-07,-2.58167e+08,-2.58346e+08,-2.58303e+08,-35767.8,0.00506287,0.305921,0,0.305963,2519.39,-9405.89,0,9737.46,35767.8
step02_gravity_refstate-crust.xmf,494,2.69984e-06,-1.63347e-06,0,-1.21897e-06,-4.92045e+08,-4.92342e+08,-4.9223e+08,-83621.5,0.00881832,0.313726,0,0.31385,3159.69,-17921.8,0,18198.2,83621.5
step02_gravity_refstate-crust.xmf,495,2.18989e-06,-9.73832e-07,0,-7.23381e-07,-3.72537e+08,-3.72755e+08,-3.72688e+08,-49623.9,0.00551981,0.309175,0,0.309224,2483.56,-13570,0,13795.3,49623.9
step02_gravity_refstate-crust.xmf,496,5.84467e-06,-5.81835e-06,0,-2.81483e-06,-7.93651e+08,-7.94451e+08,-7.94052e+08,-193097,0.0184251,0.350963,0,0.351446,2992.32,-28908.3,0,29062.8,193097
step02_gravity_refstate-crust.xmf,497,6.66999e-06,-6.95108e-06,0,-2.23421e-06,-8.24586e+08,-8.2552e+08,-8.25044e+08,-153267,0.0142253,0.361587,0,0.361867,2080.05,-30036.1,0,30108,153267
step02_gravity_refstate-crust.xmf,498,7.3508e-06,-7.92889e-06,0,-1.51706e-06,-8.48517e+08,-8.49566e+08,-8.49022e+08,-104070,0.00933116,0.370353,0,0.37047,1257.76,-30908.6,0,30934.2,104070
step02_gravity_refstate-crust.xmf,499,8.14516e-06,-9.07141e-06,0,-1.29932e-06,-8.79405e+08,-8.80586e+08,-8.79964e+08,-89133.2,0.00783281,0.380507,0,0.380588,956.769,-32034.5,0,32048.8,89133.2
step02_gravity_refstate-crust.xmf,500,8.85126e-06,-1.00275e-05,0,-2.05078e-07,-9.0216e+08,-9.03455e+08,-9.02767e+08,-14068.3,0.00134299,0.38936,0,0.389363,152.41,-32864.3,0,32864.7,14068.3
step02_gravity_refstate-crust.xmf,501,3.38884e-06,-2.50572e-06,0,-1.43937e-06,-5.84416e+08,-5.8482e+08,-5.84648e+08,-98741,0.0102859,0.321038,0,0.321203,2939.62,-21286.1,0,21488.1,98741
step02_gravity_refstate-crust.xmf,502,3.90743e-06,-3.16074e-06,0,-1.04124e-06,-6.27256e+08,-6.27741e+08,-6.27524e+08,-71428.9,0.00738182,0.327456,0,0.327539,1867.65,-22846.8,0,22923,71428.9
step02_gravity_refstate-crust.xmf,503,4.91377e-06,-4.49422e-06,0,-1.22959e-06,-7.11282e+08,-7.11927e+08,-7.11619e+08,-84350,0.00832109,0.339366,0,0.339468,1674.92,-25907.9,0,25961.9,84350
step02_gravity_refstate-crust.xmf,504,5.38935e-06,-5.15378e-06,0,-1.97002e-06,-7.53184e+08,-7.53908e+08,-7.53554e+08,-135143,0.0130836,0.345117,0,0.345365,2360.22,-27434.3,0,27535.6,135143
step02_gravity_refstate-crust.xmf,505,1.10042e-05,-1.3293e-05,0,3.11015e-10,-9.6679e+08,-9.68457e+08,-9.67545e+08,21.3356,-8.09321e-05,0.416597,-0,0.416597,-7.45109,-35220.9,-0,35220.9,21.3356
step02_gravity_refstate-crust.xmf,506,1.43926e-05,-1.89522e-05,0,8.58508e-06,-1.07451e+09,-1.07679e+09,-1.07549e+09,588937,-0.0387583,0.467192,-0,0.468797,-2461.49,-39147.3,-0,39224.6,588937
step02_gravity_refstate-crust.xmf,507,1.35784e-05,-1.74404e-05,0,6.29851e-06,-1.04736e+09,-1.04949e+09,-1.0483e+09,432078,-0.0296451,0.453509,-0,0.454477,-2065.91,-38158.3,-0,38214.2,432078
step02_gravity_refstate-crust.xmf,508,1.28596e-05,-1.61449e-05,0,4.01338e-06,-1.02112e+09,-1.02311e+09,-1.02201e+09,275318,-0.0196031,0.441767,-0,0.442202,-1488.84,-37202,-0,37231.8,275318
step02_gravity_refstate-crust.xmf,509,1.20118e-05,-1.47511e-05,0,1.87612e-06,-9.94307e+08,-9.96143e+08,-9.95131e+08,128702,-0.00945196,0.429628,-0,0.429732,-784.708,-36224.5,-0,36233,128702
step02_gravity_refstate-crust.xmf,510,2.21614e-06,-6.20284e-07,0,-3.23214e-07,-1.35671e+08,-1.35866e+08,-1.35823e+08,-22172.5,0.00596994,0.303144,0,0.303202,2660.99,-4947.24,0,5617.48,22172.5
step02_gravity_refstate-crust.xmf,511,2.67629e-06,-8.53861e-07,0,-1.20086e-07,-6.6536e+07,-6.67782e+07,-6.67196e+07,-8237.88,0.00348645,0.302276,0,0.302296,1304.61,-2431.82,0,2759.66,8237.88
step02_gravity_refstate-crust.xmf,512,2.07997e-06,-7.89224e-07,0,-3.39563e-07,-3.14357e+08,-3.14554e+08,-3.145e+08,-23294,0.00276885,0.308336,0,0.308348,1329.86,-11451.7,0,11528.6,23294
step02_gravity_refstate-crust.xmf,513,2.56937e-06,-1.48098e-06,0,-8.22926e-07,-4.59629e+08,-4.59906e+08,-4.59805e+08,-56452.7,0.00602183,0.31324,0,0.313298,2299.48,-16741.3,0,16898.5,56452.7
step02_gravity_refstate-crust.xmf,514,3.09659e-06,-2.13052e-06,0,-9.40903e-07,-5.37887e+08,-5.38246e+08,-5.38099e+08,-64545.9,0.00670871,0.318554,0,0.318625,2135.74,-19591.5,0,19707.6,64545.9
step02_gravity_refstate-crust.xmf,515,9.77444e-06,-1.14526e-05,0,1.01365e-06,-9.33502e+08,-9.34958e+08,-9.34173e+08,69536.7,-0.00571329,0.401204,-0,0.401245,-584.874,-34006.9,-0,34011.9,69536.7
step02_gravity_refstate-crust.xmf,516,4.43444e-06,-3.84936e-06,0,-5.82841e-07,-6.6814e+08,-6.68708e+08,-6.68444e+08,-39982.9,0.00399018,0.333844,0,0.333867,899.504,-24336.3,0,24352.9,39982.9
step02_gravity_refstate-crust.xmf,517,2.07345e-06,-5.97105e-07,0,-1.96676e-07,-1.95985e+08,-1.96168e+08,-1.96127e+08,-13492,0.00251577,0.30554,0,0.305551,1212.63,-7142.49,0,7244.69,13492
step02_gravity_refstate-crust.xmf,518,3.35829e-06,-1.26941e-06,0,-1.66084e-08,319223,1762.65,88844.1,-1139.33,-1.16887e-06,0.300015,-0,0.300015,7.17046e-08,0,0,7.17046e-08,1139.33
step02_gravity_refstate-crust.xmf,519,2.02958e-06,-6.62552e-07,0,-1.18789e-08,-2.57268e+08,-2.57452e+08,-2.57407e+08,-814.889,0.00019601,0.307221,0,0.307221,95.7018,-9373.27,0,9373.76,814.889
step02_gravity_refstate-crust.xmf,520,2.47167e-06,-1.34502e-06,0,-4.00631e-07,-4.28528e+08,-4.2879e+08,-4.28697e+08,-27483.3,0.00288858,0.312723,0,0.312736,1168.35,-15608.9,0,15652.6,27483.3
step02_gravity_refstate-crust.xmf,521,2.82327e-06,-1.79573e-06,0,-5.34959e-07,-4.93292e+08,-4.93609e+08,-4.93486e+08,-36698.2,0.00386934,0.31624,0,0.316264,1362.99,-17967.4,0,18019.1,36698.2
step02_gravity_refstate-crust.xmf,522,2.24099e-06,-1.02783e-06,0,-3.05234e-08,-3.68871e+08,-3.69095e+08,-3.69025e+08,-2093.9,0.000195482,0.310529,0,0.310529,87.2103,-13436.6,0,13436.9,2093.9
step02_gravity_refstate-crust.xmf,523,6.17328e-06,-6.21261e-06,0,-1.32692e-06,-7.89845e+08,-7.90695e+08,-7.90268e+08,-91026.6,0.008712,0.35506,0,0.355167,1400.11,-28770.4,0,28804.5,91026.6
step02_gravity_refstate-crust.xmf,524,6.87887e-06,-7.20169e-06,0,-5.19066e-07,-8.21639e+08,-8.22605e+08,-8.22111e+08,-35608,0.0033726,0.364106,0,0.364122,491.364,-29929.3,0,29933.3,35608
step02_gravity_refstate-crust.xmf,525,7.82253e-06,-8.53041e-06,0,2.34769e-07,-8.62281e+08,-8.63403e+08,-8.62817e+08,16105.1,-0.00127949,0.375902,-0,0.375904,-164.289,-31410.6,-0,31411.1,16105.1
step02_gravity_refstate-crust.xmf,526,8.58476e-06,-9.74985e-06,0,1.73476e-06,-8.99413e+08,-9.00671e+08,-9.00002e+08,119005,-0.0102981,0.386829,-0,0.386966,-1183.55,-32763.7,-0,32785,119005
step02_gravity_refstate-crust.xmf,527,3.52165e-06,-2.65674e-06,0,-5.08104e-07,-5.80967e+08,-5.81391e+08,-5.81209e+08,-34855.9,0.00367992,0.323512,0,0.323533,1044.66,-21160.8,0,21186.6,34855.9
step02_gravity_refstate-crust.xmf,528,3.95402e-06,-3.20747e-06,0,7.51282e-09,-6.22897e+08,-6.23388e+08,-6.23168e+08,515.38,4.05058e-05,0.328408,0,0.328408,10.3369,-22688.2,0,22688.2,515.38
step02_gravity_refstate-crust.xmf,529,4.9787e-06,-4.57893e-06,0,4.47003e-09,-7.08186e+08,-7.08841e+08,-7.08527e+08,306.644,-6.78774e-05,0.340368,-0,0.340368,-13.7535,-25795.3,-0,25795.3,306.644
step02_gravity_refstate-crust.xmf,530,5.56962e-06,-5.382e-06,0,-6.05607e-07,-7.49588e+08,-7.50339e+08,-7.4997e+08,-41544.6,0.00398495,0.347545,0,0.347567,715.925,-27303.7,0,27313.1,41544.6
step02_gravity_refstate-crust.xmf,531,9.28188e-06,-1.08341e-05,0,3.2292e-06,-9.3153e+08,-9.3291e+08,-9.32167e+08,221523,-0.0182385,0.39619,-0,0.39661,-1907.34,-33934.1,-0,33987.6,221523
step02_gravity_refstate-crust.xmf,532,1.05939e-05,-1.27537e-05,0,2.62478e-06,-9.6348e+08,-9.65082e+08,-9.64207e+08,180060,-0.0141709,0.412413,-0,0.412657,-1319.26,-35099.6,-0,35124.4,180060
step02_gravity_refstate-crust.xmf,533,1.2451e-05,-1.6654e-05,0,1.12287e-05,-1.07462e+09,-1.07662e+09,-1.07548e+09,770288,-0.0520094,0.452408,-0,0.455387,-3446.08,-39147.3,-0,39298.7,770288
step02_gravity_refstate-crust.xmf,534,1.18721e-05,-1.52708e-05,0,9.21937e-06,-1.04644e+09,-1.0483e+09,-1.04725e+09,632449,-0.0444306,0.439211,-0,0.441453,-3237.4,-38120.9,-0,38258.1,632449
step02_gravity_refstate-crust.xmf,535,1.16578e-05,-1.45975e-05,0,6.81676e-06,-1.01943e+09,-1.02123e+09,-1.02023e+09,467630,-0.0339732,0.431178,-0,0.432514,-2674.8,-37137.9,-0,37234.1,467630
step02_gravity_refstate-crust.xmf,536,1.12386e-05,-1.37476e-05,0,4.61436e-06,-9.92146e+08,-9.9386e+08,-9.92917e+08,316545,-0.0237952,0.422476,-0,0.423146,-2029.55,-36144.3,-0,36201.2,316545
step02_gravity_refstate-crust.xmf,537,2.24527e-06,-6.29107e-07,0,7.63368e-08,-1.41929e+08,-1.42126e+08,-1.42083e+08,5236.71,-0.000976575,0.304582,-0,0.304583,-436.006,-5175.18,-0,5193.51,5236.71
step02_gravity_refstate-crust.xmf,538,2.64838e-06,-8.47132e-07,0,9.75406e-08,-6.92188e+07,-6.94586e+07,-6.94005e+07,6691.29,-0.0042242,0.30221,-0,0.302239,-1594.21,-2529.38,-0,2989.86,6691.29
step02_gravity_refstate-crust.xmf,539,2.08751e-06,-8.02192e-07,0,2.48623e-07,-3.14684e+08,-3.14882e+08,-3.14827e+08,17055.6,-0.00210694,0.308512,-0,0.308519,-1011.37,-11463.6,-0,11508.1,17055.6
step02_gravity_refstate-crust.xmf,540,3.14823e-06,-2.20152e-06,0,-1.03426e-07,-5.34351e+08,-5.34718e+08,-5.34567e+08,-7095,0.000723061,0.319775,0,0.319776,230.324,-19462.9,0,19464.3,7095
step02_gravity_refstate-crust.xmf,541,4.406e-06,-3.81711e-06,0,5.24969e-07,-6.65519e+08,-6.66083e+08,-6.65821e+08,36012.9,-0.00368089,0.33353,-0,0.33355,-835.421,-24240.8,-0,24255.2,36012.9
step02_gravity_refstate-crust.xmf,542,8.08969e-06,-9.10589e-06,0,3.62181e-06,-8.98182e+08,-8.99361e+08,-8.98737e+08,248456,-0.021378,0.381039,-0,0.381638,-2516.91,-32717.8,-0,32814.5,248456
step02_gravity_refstate-crust.xmf,543,1.03738e-05,-1.39679e-05,0,1.36466e-05,-1.07866e+09,-1.08033e+09,-1.07938e+09,936154,-0.0642563,0.435631,-0,0.440345,-4441.3,-39290.2,-0,39540.4,936154
step02_gravity_refstate-crust.xmf,544,2.03501e-06,-5.99185e-07,0,3.22011e-07,-2.07816e+08,-2.07996e+08,-2.07955e+08,22089.9,-0.00381754,0.305403,-0,0.305426,-1863.44,-7573.04,-0,7798.94,22089.9
step02_gravity_refstate-crust.xmf,545,3.2563e-06,-1.23208e-06,0,-8.3499e-09,309476,1573.4,86094,-572.803,-0.00962547,0.298603,-0,0.298758,-2907.42,0,-0,2907.42,572.803
step02_gravity_refstate-crust.xmf,546,2.00223e-06,-6.65116e-07,0,4.39216e-07,-2.70308e+08,-2.70491e+08,-2.70445e+08,30130.2,-0.00404193,0.306699,-0,0.306726,-2000.45,-9847.9,-0,10049,30130.2
step02_gravity_refstate-crust.xmf,547,2.76634e-06,-1.72166e-06,0,1.75263e-07,-4.79737e+08,-4.80045e+08,-4.79926e+08,12023,-0.00130232,0.315863,-0,0.315866,-471.398,-17473.8,-0,17480.2,12023
step02_gravity_refstate-crust.xmf,548,2.18182e-06,-9.72102e-07,0,6.44386e-07,-3.67122e+08,-3.67339e+08,-3.67272e+08,44204.9,-0.00501954,0.309224,-0,0.309265,-2273.7,-13372.8,-0,13564.7,44204.9
step02_gravity_refstate-crust.xmf,549,2.43749e-06,-1.30201e-06,0,4.03881e-07,-4.21863e+08,-4.2212e+08,-4.2203e+08,27706.2,-0.00303541,0.312355,-0,0.31237,-1244.57,-15366.2,-0,15416.5,27706.2
step02_gravity_refstate-crust.xmf,550,7.48217e-06,-8.17263e-06,0,2.2351e-06,-8.6196e+08,-8.63033e+08,-8.62473e+08,153328,-0.0137266,0.37282,-0,0.373072,-1786.53,-31398.1,-0,31448.9,153328
step02_gravity_refstate-crust.xmf,551,6.20968e-06,-6.24234e-06,0,2.08262e-07,-7.85928e+08,-7.86782e+08,-7.86354e+08,14286.8,-0.00124798,0.355528,-0,0.35553,-201.57,-28628,-0,28628.7,14286.8
step02_gravity_refstate-crust.xmf,552,6.85566e-06,-7.16189e-06,0,1.14857e-06,-8.22923e+08,-8.23885e+08,-8.23393e+08,78792,-0.00714249,0.363771,-0,0.363841,-1038.24,-29976,-0,29994,78792
step02_gravity_refstate-crust.xmf,553,3.47859e-06,-2.59665e-06,0,4.54554e-07,-5.75608e+08,-5.76025e+08,-5.75847e+08,31182.4,-0.00314321,0.3231,-0,0.323116,-904.109,-20965.7,-0,20985.1,31182.4
step02_gravity_refstate-crust.xmf,554,3.77769e-06,-2.99293e-06,0,1.10948e-06,-6.16495e+08,-6.16959e+08,-6.16754e+08,76110.5,-0.00777146,0.325996,-0,0.326089,-2024.82,-22454.8,-0,22545.9,76110.5
step02_gravity_refstate-crust.xmf,555,4.83704e-06,-4.4074e-06,0,1.20528e-06,-7.05745e+08,-7.06379e+08,-7.06076e+08,82682.2,-0.00825284,0.33845,-0,0.338551,-1687.1,-25706.1,-0,25761.4,82682.2
step02_gravity_refstate-crust.xmf,556,5.50572e-06,-5.30579e-06,0,7.60548e-07,-7.46602e+08,-7.47343e+08,-7.46979e+08,52173.6,-0.00510562,0.346754,-0,0.346791,-926.075,-27194.8,-0,27210.6,52173.6
step02_gravity_refstate-crust.xmf,557,8.41711e-06,-9.74325e-06,0,5.20377e-06,-9.30073e+08,-9.31319e+08,-9.30651e+08,356978,-0.0297555,0.387324,-0,0.388465,-3221.61,-33879.2,-0,34032,356978
step02_gravity_refstate-crust.xmf,558,9.75418e-06,-1.16911e-05,0,4.97865e-06,-9.618e+08,-9.63271e+08,-9.62469e+08,341535,-0.0271556,0.404302,-0,0.405213,-2606.88,-35036.7,-0,35133.5,341535
step02_gravity_refstate-crust.xmf,559,9.74302e-06,-1.26034e-05,0,1.18784e-05,-1.05103e+09,-1.05257e+09,-1.0517e+09,814857,-0.058445,0.421963,-0,0.425991,-4453.99,-38283.9,-0,38542.1,814857
step02_gravity_refstate-crust.xmf,560,9.99839e-06,-1.24725e-05,0,9.18715e-06,-1.01863e+09,-1.02017e+09,-1.01932e+09,630239,-0.0469082,0.41617,-0,0.418805,-3880.84,-37105.5,-0,37307.9,630239
step02_gravity_refstate-crust.xmf,561,1.00168e-05,-1.2186e-05,0,6.96706e-06,-9.90695e+08,-9.92218e+08,-9.91382e+08,477940,-0.0366808,0.411101,-0,0.412734,-3256.63,-36088.9,-0,36235.5,477940
step02_gravity_refstate-crust.xmf,562,2.1911e-06,-6.01069e-07,0,4.19733e-07,-1.36597e+08,-1.36789e+08,-1.36747e+08,28793.7,-0.00706478,0.302622,-0,0.302704,-3165.98,-4980.89,-0,5901.92,28793.7
step02_gravity_refstate-crust.xmf,563,2.49334e-06,-7.86931e-07,0,2.98282e-07,-6.91276e+07,-6.93526e+07,-6.92986e+07,20462.2,-0.0114852,0.299227,-0,0.299447,-4418.05,-2525.53,-0,5088.96,20462.2
step02_gravity_refstate-crust.xmf,564,2.00108e-06,-7.31069e-07,0,7.93903e-07,-3.14084e+08,-3.14271e+08,-3.14221e+08,54461.8,-0.0066639,0.306391,-0,0.306463,-3240.99,-11441.5,-0,11891.7,54461.8
step02_gravity_refstate-crust.xmf,565,3.03766e-06,-2.06989e-06,0,7.45044e-07,-5.26439e+08,-5.26789e+08,-5.26647e+08,51110,-0.00536564,0.318173,-0,0.318219,-1751.35,-19174.6,-0,19254.4,51110
step02_gravity_refstate-crust.xmf,566,7.9125e-06,-1.06689e-05,0,1.48268e-05,-1.07478e+09,-1.07605e+09,-1.07532e+09,1.01712e+06,-0.0722677,0.412245,-0,0.418532,-5419.8,-39143.9,-0,39517.3,1.01712e+06
step02_gravity_refstate-crust.xmf,567,7.11917e-06,-7.66585e-06,0,3.89267e-06,-8.67899e+08,-8.68913e+08,-8.68388e+08,267037,-0.0237985,0.36847,-0,0.369238,-3115.98,-31613.7,-0,31766.9,267037
step02_gravity_refstate-crust.xmf,568,4.22565e-06,-3.58969e-06,0,1.54679e-06,-6.63836e+08,-6.64372e+08,-6.64126e+08,106110,-0.0107916,0.330733,-0,0.330909,-2493.42,-24179.2,-0,24307.4,106110
step02_gravity_refstate-crust.xmf,569,7.26049e-06,-8.07347e-06,0,5.26153e-06,-8.97715e+08,-8.98767e+08,-8.98213e+08,360941,-0.0314564,0.372105,-0,0.373433,-3835.4,-32699.1,-0,32923.2,360941
step02_gravity_refstate-crust.xmf,570,1.90748e-06,-5.75287e-07,0,8.20902e-07,-2.57685e+08,-2.57856e+08,-2.57816e+08,56313.9,-0.00790525,0.303951,-0,0.304054,-3982.16,-9388.12,-0,10197.8,56313.9
step02_gravity_refstate-crust.xmf,571,1.90768e-06,-5.04729e-07,0,7.91543e-07,-1.97603e+08,-1.97769e+08,-1.97734e+08,54299.9,-0.00967644,0.301388,-0,0.301544,-4800.68,-7200.88,-0,8654.44,54299.9
step02_gravity_refstate-crust.xmf,572,2.96264e-06,-1.12225e-06,0,-3.93515e-10,281512,1288.57,78275.2,-26.9951,-0.0186873,0.294461,-0,0.295053,-5815.3,0,-0,5815.3,26.9951
step02_gravity_refstate-crust.xmf,573,2.63677e-06,-1.57121e-06,0,9.60072e-07,-4.73345e+08,-4.73634e+08,-4.73526e+08,65860.9,-0.00700326,0.313576,-0,0.313654,-2602.44,-17240.8,-0,17436.1,65860.9
step02_gravity_refstate-crust.xmf,574,2.01976e-06,-8.12562e-07,0,1.26337e-06,-3.64957e+08,-3.65152e+08,-3.65096e+08,86667.5,-0.00986612,0.305401,-0,0.305561,-4591.19,-13293.6,-0,14064.1,86667.5
step02_gravity_refstate-crust.xmf,575,2.29396e-06,-1.14787e-06,0,1.13362e-06,-4.18848e+08,-4.19084e+08,-4.19005e+08,77766.6,-0.00846607,0.309341,-0,0.309456,-3553.63,-15256.1,-0,15664.5,77766.6
step02_gravity_refstate-crust.xmf,576,6.47915e-06,-6.6934e-06,0,2.92489e-06,-8.26288e+08,-8.27191e+08,-8.26732e+08,200647,-0.018437,0.359604,-0,0.360076,-2709.39,-30097.7,-0,30219.4,200647
step02_gravity_refstate-crust.xmf,577,5.9981e-06,-5.96411e-06,0,1.70461e-06,-7.84107e+08,-7.84927e+08,-7.84518e+08,116936,-0.0110147,0.352874,-0,0.353046,-1807.02,-28561.2,-0,28618.3,116936
step02_gravity_refstate-crust.xmf,578,3.28428e-06,-2.35489e-06,0,1.41136e-06,-5.71909e+08,-5.72296e+08,-5.72134e+08,96819.3,-0.00997458,0.319926,-0,0.320081,-2942.12,-20830.6,-0,21037.3,96819.3
step02_gravity_refstate-crust.xmf,579,3.53095e-06,-2.74267e-06,0,2.18484e-06,-6.22809e+08,-6.23239e+08,-6.23051e+08,149880,-0.0154299,0.321647,-0,0.322016,-4064.22,-22684,-0,23045.2,149880
step02_gravity_refstate-crust.xmf,580,4.51592e-06,-4.0148e-06,0,2.33228e-06,-7.04612e+08,-7.05197e+08,-7.04922e+08,159994,-0.0160246,0.333875,-0,0.334259,-3357.58,-25664.2,-0,25882.9,159994
step02_gravity_refstate-crust.xmf,581,5.21269e-06,-4.9459e-06,0,2.0648e-06,-7.44372e+08,-7.45069e+08,-7.4473e+08,141645,-0.0138651,0.342873,-0,0.343153,-2571.51,-27113,-0,27234.7,141645
step02_gravity_refstate-crust.xmf,582,6.23593e-06,-6.57102e-06,0,5.16077e-06,-8.63507e+08,-8.64385e+08,-8.63935e+08,354029,-0.0321852,0.35842,-0,0.359862,-4425.88,-31451.9,-0,31761.8,354029
step02_gravity_refstate-crust.xmf,583,7.23609e-06,-8.23818e-06,0,6.86694e-06,-9.28774e+08,-9.29835e+08,-9.2927e+08,471072,-0.0400407,0.37476,-0,0.376893,-4554.24,-33829.5,-0,34134.6,471072
step02_gravity_refstate-crust.xmf,584,8.54905e-06,-1.01542e-05,0,6.9547e-06,-9.60373e+08,-9.61656e+08,-9.60959e+08,477093,-0.0386149,0.392306,-0,0.394202,-3876.15,-34982.2,-0,35196.3,477093
step02_gravity_refstate-crust.xmf,585,7.17663e-06,-9.21897e-06,0,1.32034e-05,-1.04638e+09,-1.0475e+09,-1.04687e+09,905754,-0.0678211,0.396265,-0,0.402027,-5679.54,-38109.2,-0,38530.1,905754
step02_gravity_refstate-crust.xmf,586,8.10788e-06,-1.00541e-05,0,1.0945e-05,-1.01883e+09,-1.02007e+09,-1.01938e+09,750825,-0.0574383,0.398348,-0,0.402468,-5042.71,-37108.7,-0,37449.7,750825
step02_gravity_refstate-crust.xmf,587,8.5381e-06,-1.03011e-05,0,8.87057e-06,-9.91086e+08,-9.92378e+08,-9.91671e+08,608521,-0.0477165,0.39704,-0,0.399897,-4440.97,-36100.1,-0,36372.2,608521
step02_gravity_refstate-crust.xmf,588,2.00188e-06,-5.07099e-07,0,7.35372e-07,-1.35241e+08,-1.35413e+08,-1.35378e+08,50446.5,-0.0128434,0.298059,-0,0.298336,-5911.21,-4930.88,-0,7697.79,50446.5
step02_gravity_refstate-crust.xmf,589,2.20439e-06,-6.72891e-07,0,4.77291e-07,-6.85437e+07,-6.87411e+07,-6.86949e+07,32742.1,-0.0182164,0.293542,-0,0.294107,-7273.29,-2503.28,-0,7692.02,32742.1
step02_gravity_refstate-crust.xmf,590,1.82889e-06,-5.76174e-07,0,1.30205e-06,-3.10605e+08,-3.1077e+08,-3.1073e+08,89320.6,-0.0110246,0.301956,-0,0.302158,-5531.36,-11314.4,-0,12594.1,89320.6
step02_gravity_refstate-crust.xmf,591,2.81382e-06,-1.8093e-06,0,1.57925e-06,-5.22236e+08,-5.22553e+08,-5.22429e+08,108337,-0.0113895,0.314155,-0,0.314361,-3838.28,-19021.1,-0,19404.5,108337
step02_gravity_refstate-crust.xmf,592,5.48354e-06,-7.4515e-06,0,1.56143e-05,-1.07473e+09,-1.07561e+09,-1.0751e+09,1.07114e+06,-0.0789047,0.388346,-0,0.396281,-6416.17,-39137.1,-0,39659.6,1.07114e+06
step02_gravity_refstate-crust.xmf,593,6.40324e-06,-6.70025e-06,0,3.9936e-06,-8.43497e+08,-8.44396e+08,-8.43936e+08,273961,-0.0252229,0.359288,-0,0.360172,-3591.1,-30723.9,-0,30933,273961
step02_gravity_refstate-crust.xmf,594,3.95526e-06,-3.28604e-06,0,2.54731e-06,-6.70202e+08,-6.70699e+08,-6.70473e+08,174746,-0.017742,0.326529,-0,0.32701,-4135.5,-24410.3,-0,24758.1,174746
step02_gravity_refstate-crust.xmf,595,6.21156e-06,-6.73388e-06,0,6.61757e-06,-8.97317e+08,-8.98205e+08,-8.97743e+08,453966,-0.0402948,0.360165,-0,0.362412,-5155.21,-32682.4,-0,33086.5,453966
step02_gravity_refstate-crust.xmf,596,1.71383e-06,-4.28511e-07,0,1.2799e-06,-2.55652e+08,-2.55799e+08,-2.5577e+08,87800.9,-0.0124139,0.298688,-0,0.298946,-6472.35,-9313.54,-0,11341.7,87800.9
step02_gravity_refstate-crust.xmf,597,1.67827e-06,-3.61148e-07,0,1.15532e-06,-1.9345e+08,-1.93589e+08,-1.93565e+08,79254.8,-0.0145068,0.295224,-0,0.29558,-7464.58,-7048.95,-0,10266.8,79254.8
step02_gravity_refstate-crust.xmf,598,2.49949e-06,-9.48219e-07,0,5.84043e-09,237443,930.667,65978.5,400.653,-0.0266749,0.287835,-0,0.289068,-8728.93,0,-0,8728.93,400.653
step02_gravity_refstate-crust.xmf,599,2.39962e-06,-1.30389e-06,0,1.7011e-06,-4.69985e+08,-4.70239e+08,-4.7015e+08,116695,-0.0124506,0.308825,-0,0.309076,-4793.27,-17118,-0,17776.4,116695
step02_gravity_refstate-crust.xmf,600,1.77055e-06,-5.65826e-07,0,1.80166e-06,-3.61968e+08,-3.62129e+08,-3.6209e+08,123594,-0.0141964,0.299289,-0,0.299626,-6902.11,-13184.1,-0,14881.5,123594
step02_gravity_refstate-crust.xmf,601,2.04565e-06,-8.8245e-07,0,1.7841e-06,-4.16206e+08,-4.16407e+08,-4.16346e+08,122389,-0.0133981,0.303803,-0,0.304098,-5850.64,-15159.3,-0,16249.1,122389
step02_gravity_refstate-crust.xmf,602,4.93128e-06,-6.28657e-06,0,1.40189e-05,-1.04722e+09,-1.04799e+09,-1.04756e+09,961699,-0.0745667,0.373199,-0,0.380576,-6767.94,-38135.4,-0,38731.3,961699
step02_gravity_refstate-crust.xmf,603,5.7283e-06,-5.72297e-06,0,4.28697e-06,-8.21671e+08,-8.22457e+08,-8.22064e+08,294086,-0.0275087,0.350308,-0,0.351387,-4243.21,-29928.1,-0,30227.4,294086
step02_gravity_refstate-crust.xmf,604,5.52324e-06,-5.35646e-06,0,3.10708e-06,-7.83036e+08,-7.83782e+08,-7.83415e+08,213145,-0.0203521,0.346847,-0,0.347444,-3436.62,-28521.3,-0,28727.6,213145
step02_gravity_refstate-crust.xmf,605,2.94015e-06,-1.93618e-06,0,2.27852e-06,-5.68748e+08,-5.69082e+08,-5.68949e+08,156306,-0.0162944,0.313936,-0,0.314359,-5006.48,-20714.7,-0,21311.1,156306
step02_gravity_refstate-crust.xmf,606,3.41193e-06,-2.60997e-06,0,3.25202e-06,-6.58585e+08,-6.58998e+08,-6.58819e+08,223089,-0.0229994,0.318372,-0,0.319202,-5730.58,-23986.2,-0,24661.3,223089
step02_gravity_refstate-crust.xmf,607,3.99746e-06,-3.37385e-06,0,3.30611e-06,-7.01175e+08,-7.01681e+08,-7.01449e+08,226799,-0.02297,0.326363,-0,0.327171,-5031.71,-25537.9,-0,26028.9,226799
step02_gravity_refstate-crust.xmf,608,4.69898e-06,-4.30809e-06,0,3.24326e-06,-7.41972e+08,-7.4259e+08,-7.42294e+08,222487,-0.0219945,0.335882,-0,0.336601,-4235.98,-27024.6,-0,27354.5,222487
step02_gravity_refstate-crust.xmf,609,5.46031e-06,-5.62063e-06,0,6.42293e-06,-8.7192e+08,-8.72681e+08,-8.72295e+08,440613,-0.0404777,0.349213,-0,0.351551,-5692.01,-31756.5,-0,32262.6,440613
step02_gravity_refstate-crust.xmf,610,5.88373e-06,-6.50983e-06,0,8.14432e-06,-9.28186e+08,-9.29036e+08,-9.2859e+08,558700,-0.0485896,0.35957,-0,0.362839,-5870.96,-33805.3,-0,34311.3,558700
step02_gravity_refstate-crust.xmf,611,7.05737e-06,-8.23205e-06,0,8.54882e-06,-9.59483e+08,-9.60531e+08,-9.59967e+08,586449,-0.048592,0.37675,-0,0.379871,-5171.19,-34946.7,-0,35327.3,586449
step02_gravity_refstate-crust.xmf,612,6.18667e-06,-7.58939e-06,0,1.21156e-05,-1.01991e+09,-1.02085e+09,-1.02033e+09,831133,-0.0654676,0.379073,-0,0.384685,-6140.49,-37144,-0,37648.1,831133
step02_gravity_refstate-crust.xmf,613,6.85871e-06,-8.15319e-06,0,1.02548e-05,-9.91128e+08,-9.92157e+08,-9.91598e+08,703479,-0.0567123,0.379896,-0,0.384106,-5610.76,-36098.1,-0,36531.6,703479
step02_gravity_refstate-crust.xmf,614,1.7053e-06,-3.6503e-07,0,9.9727e-07,-1.34172e+08,-1.34314e+08,-1.34289e+08,68412.7,-0.0179863,0.29105,-0,0.291605,-8666.07,-4890.99,-0,9951.01,68412.7
step02_gravity_refstate-crust.xmf,615,1.77901e-06,-4.9989e-07,0,6.32142e-07,-6.94221e+07,-6.95785e+07,-6.95442e+07,43365,-0.0239555,0.285406,-0,0.28641,-10179.9,-2533.81,-0,10490.5,43365
step02_gravity_refstate-crust.xmf,616,1.56436e-06,-3.43095e-07,0,1.77617e-06,-3.09281e+08,-3.09412e+08,-3.09388e+08,121845,-0.015203,0.294999,-0,0.295391,-7999.36,-11265.5,-0,13816.7,121845
step02_gravity_refstate-crust.xmf,617,2.46638e-06,-1.40193e-06,0,2.33304e-06,-5.19065e+08,-5.19331e+08,-5.19235e+08,160047,-0.0169511,0.30751,-0,0.307977,-5983.82,-18904.9,-0,19829.3,160047
step02_gravity_refstate-crust.xmf,618,3.15428e-06,-4.31637e-06,0,1.5813e-05,-1.07461e+09,-1.07512e+09,-1.07483e+09,1.08477e+06,-0.0832106,0.362902,-0,0.37232,-7425.02,-39128.4,-0,39826.7,1.08477e+06
step02_gravity_refstate-crust.xmf,619,2.9678e-06,-2.04131e-06,0,2.99816e-06,-6.10206e+08,-6.10549e+08,-6.10409e+08,205674,-0.0215154,0.312527,-0,0.313267,-6119.01,-22224,-0,23051,205674
step02_gravity_refstate-crust.xmf,620,5.34893e-06,-5.34716e-06,0,5.64514e-06,-8.45733e+08,-8.46466e+08,-8.461e+08,387256,-0.0361339,0.346591,-0,0.348469,-5405.96,-30803.1,-0,31273.9,387256
step02_gravity_refstate-crust.xmf,621,4.99888e-06,-5.17687e-06,0,7.587e-06,-8.94751e+08,-8.95449e+08,-8.95094e+08,520468,-0.047291,0.345479,-0,0.348701,-6463.3,-32586.5,-0,33221.3,520468
step02_gravity_refstate-crust.xmf,622,4.34294e-06,-5.17114e-06,0,1.26973e-05,-1.01967e+09,-1.02032e+09,-1.01997e+09,871032,-0.0708717,0.358745,-0,0.365679,-7179.76,-37131.7,-0,37819.5,871032
step02_gravity_refstate-crust.xmf,623,1.39047e-06,-1.63858e-07,0,1.69424e-06,-2.47291e+08,-2.47398e+08,-2.47386e+08,116225,-0.0169974,0.28973,-0,0.290228,-9414.05,-9008.25,-0,13029.7,116225
step02_gravity_refstate-crust.xmf,624,1.4336e-06,-2.04789e-07,0,1.38353e-06,-1.87667e+08,-1.87779e+08,-1.87765e+08,94909.9,-0.0180165,0.288534,-0,0.289096,-9650.02,-6837.69,-0,11827,94909.9
step02_gravity_refstate-crust.xmf,625,1.90056e-06,-7.23305e-07,0,1.20418e-08,180449,452.212,50070.9,826.068,-0.0331514,0.279101,-0,0.281063,-11656.5,0,-0,11656.5,826.068
step02_gravity_refstate-crust.xmf,626,2.05752e-06,-9.17245e-07,0,2.35037e-06,-4.67128e+08,-4.67332e+08,-4.67269e+08,161236,-0.0173383,0.301581,-0,0.302079,-7026.16,-17013.2,-0,18406.9,161236
step02_gravity_refstate-crust.xmf,627,1.4483e-06,-2.50075e-07,0,2.24591e-06,-3.5878e+08,-3.58896e+08,-3.58879e+08,154070,-0.0179249,0.291039,-0,0.291591,-9260.09,-13067.2,-0,16015.7,154070
step02_gravity_refstate-crust.xmf,628,1.71525e-06,-5.30237e-07,0,2.32279e-06,-4.13229e+08,-4.13383e+08,-4.13347e+08,159343,-0.0176119,0.296066,-0,0.29659,-8134.87,-15050.1,-0,17108,159343
step02_gravity_refstate-crust.xmf,629,2.90867e-06,-3.57337e-06,0,1.42277e-05,-1.04713e+09,-1.04757e+09,-1.04732e+09,976022,-0.0785492,0.350024,-0,0.358729,-7792.8,-38127.9,-0,38916.1,976022
step02_gravity_refstate-crust.xmf,630,4.78746e-06,-4.42214e-06,0,4.30655e-06,-7.80143e+08,-7.80775e+08,-7.80471e+08,295429,-0.0287214,0.337134,-0,0.338355,-5098.73,-28414.4,-0,28868.2,295429
step02_gravity_refstate-crust.xmf,631,2.47746e-06,-1.37784e-06,0,3.01741e-06,-5.66695e+08,-5.66959e+08,-5.66865e+08,206995,-0.0218589,0.305408,-0,0.306189,-7094.85,-20639,-0,21824.4,206995
step02_gravity_refstate-crust.xmf,632,2.85014e-06,-1.90902e-06,0,3.89983e-06,-6.54511e+08,-6.54837e+08,-6.54706e+08,267529,-0.02797,0.309038,-0,0.310302,-7401.48,-23836.7,-0,24959.4,267529
step02_gravity_refstate-crust.xmf,633,3.37214e-06,-2.59131e-06,0,4.09836e-06,-6.97821e+08,-6.9823e+08,-6.98052e+08,281148,-0.0288799,0.316744,-0,0.318058,-6697.3,-25414.5,-0,26282.1,281148
step02_gravity_refstate-crust.xmf,634,4.01203e-06,-3.44645e-06,0,4.24116e-06,-7.39635e+08,-7.40147e+08,-7.39911e+08,290943,-0.0291847,0.326092,-0,0.327395,-5923.85,-26938.1,-0,27581.7,290943
step02_gravity_refstate-crust.xmf,635,4.50303e-06,-4.25943e-06,0,6.73187e-06,-8.55303e+08,-8.55904e+08,-8.55612e+08,461806,-0.0435804,0.336126,-0,0.33894,-6703.05,-31149.8,-0,31862.8,461806
step02_gravity_refstate-crust.xmf,636,4.68995e-06,-4.38209e-06,0,5.46862e-06,-8.16268e+08,-8.16891e+08,-8.1659e+08,375148,-0.0360103,0.336667,-0,0.338588,-5965.67,-29729.3,-0,30321.9,375148
step02_gravity_refstate-crust.xmf,637,4.36748e-06,-4.53063e-06,0,8.97549e-06,-9.26014e+08,-9.26624e+08,-9.26313e+08,615719,-0.0552726,0.341127,-0,0.345576,-7238.56,-33723.1,-0,34491.2,615719
step02_gravity_refstate-crust.xmf,638,5.29366e-06,-6.00407e-06,0,9.9562e-06,-9.63963e+08,-9.64739e+08,-9.64327e+08,682995,-0.0579368,0.35801,-0,0.362668,-6570.29,-35106.2,-0,35715.7,682995
step02_gravity_refstate-crust.xmf,639,5.37927e-06,-6.32701e-06,0,1.12535e-05,-9.96042e+08,-9.96845e+08,-9.96411e+08,771992,-0.0635312,0.364925,-0,0.370414,-6585.77,-36273.9,-0,36866.9,771992
step02_gravity_refstate-crust.xmf,640,1.26735e-06,-1.62104e-07,0,1.27379e-06,-1.44682e+08,-1.4478e+08,-1.44769e+08,87382.1,-0.0220132,0.281272,-0,0.282132,-11643.2,-5272.17,-0,12781.2,87382.1
step02_gravity_refstate-crust.xmf,641,1.2671e-06,-2.95798e-07,0,7.4092e-07,-6.95416e+07,-6.96488e+07,-6.96285e+07,50827.1,-0.0284122,0.275257,-0,0.27672,-13111.6,-2536.4,-0,13354.7,50827.1
step02_gravity_refstate-crust.xmf,642,1.23529e-06,-5.22881e-08,0,2.1536e-06,-3.07843e+08,-3.07931e+08,-3.07928e+08,147737,-0.0186991,0.285908,-0,0.286519,-10508.8,-11212.2,-0,15367.2,147737
step02_gravity_refstate-crust.xmf,643,2.03594e-06,-8.94894e-07,0,2.95843e-06,-5.1802e+08,-5.18221e+08,-5.18159e+08,202948,-0.0217156,0.29872,-0,0.299508,-8119.5,-18865.9,-0,20538.9,202948
step02_gravity_refstate-crust.xmf,644,1.14392e-06,-1.5006e-06,0,1.54465e-05,-1.07289e+09,-1.07307e+09,-1.07296e+09,1.05963e+06,-0.0849541,0.337483,-0,0.348012,-8412.18,-39061.8,-0,39957.3,1.05963e+06
step02_gravity_refstate-crust.xmf,645,2.39616e-06,-1.33103e-06,0,3.7061e-06,-6.09996e+08,-6.10251e+08,-6.1016e+08,254238,-0.0269469,0.302183,-0,0.303382,-8148.65,-22215.1,-0,23662.5,254238
step02_gravity_refstate-crust.xmf,646,3.73063e-06,-3.50945e-06,0,8.18635e-06,-8.91086e+08,-8.91583e+08,-8.91342e+08,561584,-0.0525854,0.328847,-0,0.333025,-7788.71,-32450.6,-0,33372.2,561584
step02_gravity_refstate-crust.xmf,647,3.91001e-06,-4.30523e-06,0,1.14859e-05,-9.90298e+08,-9.90862e+08,-9.90566e+08,787931,-0.0669613,0.346656,-0,0.353064,-7547.31,-36061.9,-0,36843.3,787931
step02_gravity_refstate-crust.xmf,648,2.5656e-06,-2.7554e-06,0,1.27976e-05,-1.01778e+09,-1.01814e+09,-1.01795e+09,877917,-0.0742089,0.336622,-0,0.344705,-8252.71,-37059.3,-0,37967.1,877917
step02_gravity_refstate-crust.xmf,649,1.20365e-06,-4.60985e-07,0,1.64492e-08,114157,-36.5683,31587,1128.41,-0.0377687,0.268741,-0,0.271382,-14606.1,0,-0,14606.1,1128.41
step02_gravity_refstate-crust.xmf,650,1.17177e-06,-3.75474e-08,0,1.68302e-06,-2.09314e+08,-2.09397e+08,-2.09394e+08,115455,-0.0198851,0.282415,-0,0.283114,-11391.8,-7624.96,-0,13708.2,115455
step02_gravity_refstate-crust.xmf,651,1.01551e-06,1.24646e-07,0,2.06833e-06,-2.61624e+08,-2.61685e+08,-2.61694e+08,141887,-0.0202076,0.279542,-0,0.280272,-12096.4,-9529,-0,15398.9,141887
step02_gravity_refstate-crust.xmf,652,1.64113e-06,-4.46893e-07,0,2.87604e-06,-4.65107e+08,-4.6525e+08,-4.65219e+08,197296,-0.021426,0.292193,-0,0.292978,-9279.11,-16938.6,-0,19313.7,197296
step02_gravity_refstate-crust.xmf,653,1.08818e-06,9.93887e-08,0,2.58278e-06,-3.57945e+08,-3.58013e+08,-3.5802e+08,177179,-0.0208655,0.281252,-0,0.282025,-11596.5,-13035.9,-0,17447.5,177179
step02_gravity_refstate-crust.xmf,654,1.32268e-06,-1.1645e-07,0,2.74707e-06,-4.1083e+08,-4.10928e+08,-4.1092e+08,188449,-0.0210776,0.286291,-0,0.287065,-10469.5,-14961.8,-0,18261.1,188449
step02_gravity_refstate-crust.xmf,655,9.93986e-07,-8.98598e-07,0,1.38996e-05,-1.04525e+09,-1.04538e+09,-1.04531e+09,953515,-0.0803396,0.324443,-0,0.334242,-8900.31,-38055.8,-0,39082.8,953515
step02_gravity_refstate-crust.xmf,656,3.89709e-06,-3.28678e-06,0,5.26819e-06,-7.78293e+08,-7.78786e+08,-7.7856e+08,361398,-0.0358919,0.324703,-0,0.326681,-6787.03,-28345.2,-0,29146.4,361398
step02_gravity_refstate-crust.xmf,657,1.96338e-06,-7.55496e-07,0,3.56954e-06,-5.65479e+08,-5.65665e+08,-5.65614e+08,244870,-0.0262254,0.295284,-0,0.296446,-9091.36,-20593.6,-0,22511.1,244870
step02_gravity_refstate-crust.xmf,658,2.21092e-06,-1.10374e-06,0,4.42887e-06,-6.52184e+08,-6.52411e+08,-6.52335e+08,303820,-0.0322932,0.297676,-0,0.299423,-9177.62,-23750.6,-0,25462.2,303820
step02_gravity_refstate-crust.xmf,659,2.65695e-06,-1.68584e-06,0,4.72813e-06,-6.95475e+08,-6.95773e+08,-6.95658e+08,324350,-0.0339111,0.30501,-0,0.306889,-8427.93,-25327.6,-0,26693,324350
step02_gravity_refstate-crust.xmf,660,3.20197e-06,-2.41638e-06,0,5.02047e-06,-7.37464e+08,-7.3785e+08,-7.37684e+08,344404,-0.0352216,0.313814,-0,0.315784,-7647.86,-26857.3,-0,27925,344404
step02_gravity_refstate-crust.xmf,661,3.63783e-06,-3.03192e-06,0,6.34165e-06,-8.16578e+08,-8.17036e+08,-8.16828e+08,435037,-0.042803,0.322137,-0,0.324969,-7590.36,-29738.4,-0,30691.8,435037
step02_gravity_refstate-crust.xmf,662,3.15371e-06,-2.50983e-06,0,7.46791e-06,-8.54571e+08,-8.5496e+08,-8.54787e+08,512299,-0.0499864,0.317493,-0,0.321404,-8400.14,-31120.4,-0,32234.2,512299
step02_gravity_refstate-crust.xmf,663,2.89252e-06,-2.55573e-06,0,9.38031e-06,-9.23567e+08,-9.2394e+08,-9.23765e+08,643489,-0.0598465,0.321317,-0,0.326843,-8600.28,-33631.1,-0,34713.3,643489
step02_gravity_refstate-crust.xmf,664,3.4446e-06,-3.51358e-06,0,1.03489e-05,-9.57316e+08,-9.57793e+08,-9.57552e+08,709937,-0.0630882,0.334231,-0,0.340133,-7999.81,-34860.5,-0,35766.7,709937
step02_gravity_refstate-crust.xmf,665,6.74991e-07,-5.80227e-08,0,8.02277e-07,-6.98604e+07,-6.99107e+07,-6.99067e+07,55036.2,-0.0313225,0.263427,-0,0.265283,-16132.4,-2545.98,-0,16332.1,55036.2
step02_gravity_refstate-crust.xmf,666,8.31908e-07,1.651e-07,0,1.83157e-06,-2.05254e+08,-2.053e+08,-2.05311e+08,125645,-0.0223424,0.272871,-0,0.273784,-13765.9,-7476.1,-0,15665,125645
step02_gravity_refstate-crust.xmf,667,8.05122e-07,4.99583e-08,0,1.37174e-06,-1.37182e+08,-1.37234e+08,-1.37237e+08,94101.4,-0.0254993,0.269422,-0,0.270626,-14665.5,-4997.58,-0,15493.6,94101.4
step02_gravity_refstate-crust.xmf,668,9.18734e-07,2.30242e-07,0,2.4113e-06,-3.12136e+08,-3.12183e+08,-3.12199e+08,165415,-0.0210574,0.276829,-0,0.277629,-12653.2,-11367.7,-0,17009.7,165415
step02_gravity_refstate-crust.xmf,669,1.55457e-06,-3.19486e-07,0,3.42686e-06,-5.17986e+08,-5.18114e+08,-5.18092e+08,235083,-0.0255101,0.288182,-0,0.289309,-10233.5,-18863.6,-0,21460.6,235083
step02_gravity_refstate-crust.xmf,670,-7.48537e-07,1.22082e-06,0,1.47064e-05,-1.07213e+09,-1.07199e+09,-1.07208e+09,1.00886e+06,-0.0850178,0.310184,-0,0.321624,-9492.52,-39030.8,-0,40168.6,1.00886e+06
step02_gravity_refstate-crust.xmf,671,1.82544e-06,-6.17063e-07,0,4.16434e-06,-6.09327e+08,-6.09494e+08,-6.09452e+08,285674,-0.0307591,0.291151,-0,0.292771,-9976.66,-22189.6,-0,24329.2,285674
step02_gravity_refstate-crust.xmf,672,2.42816e-06,-1.76375e-06,0,8.53724e-06,-8.89397e+08,-8.89684e+08,-8.89563e+08,585655,-0.0567283,0.310157,-0,0.315303,-9209.97,-32386.5,-0,33670.6,585655
step02_gravity_refstate-crust.xmf,673,2.23254e-06,-2.00357e-06,0,1.15285e-05,-9.86969e+08,-9.87259e+08,-9.87122e+08,790858,-0.0700793,0.324194,-0,0.331681,-8751.06,-35937.5,-0,36987.6,790858
step02_gravity_refstate-crust.xmf,674,8.3168e-07,-3.37706e-07,0,1.25262e-05,-1.01638e+09,-1.01646e+09,-1.01644e+09,859299,-0.0759564,0.312284,-0,0.321388,-9428.38,-37005.3,-0,38187.6,859299
step02_gravity_refstate-crust.xmf,675,4.51036e-07,-1.76765e-07,0,2.01313e-08,42606.3,-460.759,11665.3,1381.01,-0.0402755,0.257311,-0,0.260444,-17586.2,0,-0,17586.2,1381.01
step02_gravity_refstate-crust.xmf,676,6.22357e-07,4.21027e-07,0,2.37212e-06,-2.81066e+08,-2.8108e+08,-2.81109e+08,162727,-0.0223445,0.268048,-0,0.268978,-14667.1,-10235.7,-0,17885.6,162727
step02_gravity_refstate-crust.xmf,677,1.12511e-06,1.45424e-07,0,3.33302e-06,-4.69392e+08,-4.69459e+08,-4.69469e+08,228645,-0.0251337,0.279635,-0,0.280762,-11812.8,-17093.5,-0,20778.1,228645
step02_gravity_refstate-crust.xmf,678,7.04363e-07,4.58709e-07,0,2.7678e-06,-3.52226e+08,-3.52243e+08,-3.52274e+08,189871,-0.0228125,0.270378,-0,0.271339,-13923.7,-12826.7,-0,18931.3,189871
step02_gravity_refstate-crust.xmf,679,8.95258e-07,3.3329e-07,0,3.03456e-06,-4.08957e+08,-4.08996e+08,-4.09019e+08,208171,-0.0236147,0.275002,-0,0.276014,-12817.5,-14892.6,-0,19648.9,208171
step02_gravity_refstate-crust.xmf,680,-7.14316e-07,1.55664e-06,0,1.3247e-05,-1.04472e+09,-1.04457e+09,-1.04468e+09,908742,-0.0804049,0.298453,-0,0.309094,-10045.1,-38033.8,-0,39337.9,908742
step02_gravity_refstate-crust.xmf,681,2.92662e-06,-2.03815e-06,0,5.95484e-06,-7.77103e+08,-7.77444e+08,-7.77304e+08,408502,-0.0415575,0.310115,-0,0.312887,-8482.35,-28299.9,-0,29543.8,408502
step02_gravity_refstate-crust.xmf,682,1.45352e-06,-1.37207e-07,0,3.96872e-06,-5.68234e+08,-5.68343e+08,-5.68334e+08,272254,-0.0295956,0.284437,-0,0.285972,-10961.4,-20692.8,-0,23416.8,272254
step02_gravity_refstate-crust.xmf,683,1.56271e-06,-2.73976e-07,0,4.77545e-06,-6.50226e+08,-6.50352e+08,-6.50333e+08,327596,-0.0354589,0.285197,-0,0.287393,-10939.2,-23678,-0,26082.8,327596
step02_gravity_refstate-crust.xmf,684,1.90428e-06,-7.20674e-07,0,5.14828e-06,-6.92933e+08,-6.93113e+08,-6.93064e+08,353172,-0.037697,0.291652,-0,0.294079,-10184.2,-25233.5,-0,27211.2,353172
step02_gravity_refstate-crust.xmf,685,2.34316e-06,-1.31537e-06,0,5.56794e-06,-7.36335e+08,-7.36586e+08,-7.36496e+08,381961,-0.0399258,0.299731,-0,0.302378,-9384.03,-26814.5,-0,28409.1,381961
step02_gravity_refstate-crust.xmf,686,2.5418e-06,-1.61001e-06,0,6.89585e-06,-8.17663e+08,-8.17948e+08,-8.17837e+08,473055,-0.0479141,0.305747,-0,0.309479,-9206.62,-29775.6,-0,31166.5,473055
step02_gravity_refstate-crust.xmf,687,2.01178e-06,-1.00923e-06,0,7.7696e-06,-8.53866e+08,-8.54073e+08,-8.54004e+08,532995,-0.0536744,0.300038,-0,0.304801,-9863.8,-31092.4,-0,32619.5,532995
step02_gravity_refstate-crust.xmf,688,1.50896e-06,-6.62644e-07,0,9.45221e-06,-9.22132e+08,-9.22281e+08,-9.22236e+08,648422,-0.0626718,0.300606,-0,0.307069,-9980.64,-33576.2,-0,35028.2,648422
step02_gravity_refstate-crust.xmf,689,1.85761e-06,-1.34021e-06,0,1.04318e-05,-9.54904e+08,-9.55123e+08,-9.55031e+08,715625,-0.0662629,0.311855,-0,0.318817,-9343.11,-34769.7,-0,36003.1,715625
step02_gravity_refstate-crust.xmf,690,6.76537e-08,1.88082e-07,0,8.21371e-07,-7.09109e+07,-7.09027e+07,-7.09156e+07,56346.1,-0.0323441,0.251013,-0,0.253089,-19130.5,-2582.15,-0,19304,56346.1
step02_gravity_refstate-crust.xmf,691,2.86019e-07,3.11015e-07,0,1.46229e-06,-1.41683e+08,-1.41681e+08,-1.41703e+08,100313,-0.0269182,0.256477,-0,0.257885,-17694.5,-5159.75,-0,18431.5,100313
step02_gravity_refstate-crust.xmf,692,4.27033e-07,4.23768e-07,0,1.97947e-06,-2.12562e+08,-2.12562e+08,-2.12591e+08,135792,-0.0238226,0.261396,-0,0.26248,-16364.4,-7740.92,-0,18102.9,135792
step02_gravity_refstate-crust.xmf,693,-2.81807e-07,1.08351e-07,0,1.65325e-08,-26709.4,55.4187,-7377.44,1134.13,-0.0405251,0.245425,-0,0.248749,-20604.8,0,-0,20604.8,1134.13
step02_gravity_refstate-crust.xmf,694,-1.04556e-06,3.90243e-07,0,2.23914e-08,-99597,-1101.14,-27871.8,1536.05,-0.038481,0.233725,-0,0.236872,-23670.5,0,-0,23670.5,1536.05
step02_gravity_refstate-crust.xmf,695,-5.07244e-07,4.33868e-07,0,7.74854e-07,-7.1347e+07,-7.12824e+07,-7.13122e+07,53155,-0.0316204,0.238604,-0,0.24069,-22138.6,-2596.08,-0,22290.3,53155
step02_gravity_refstate-crust.xmf,696,1.1121e-06,2.17416e-07,0,3.74637e-06,-5.21183e+08,-5.21245e+08,-5.2126e+08,257001,-0.0281988,0.277511,-0,0.27894,-12126.4,-18979,-0,22522.3,257001
step02_gravity_refstate-crust.xmf,697,-2.34761e-06,3.61758e-06,0,1.36686e-05,-1.07228e+09,-1.07187e+09,-1.07212e+09,937663,-0.0833165,0.28303,-0,0.295038,-10600.8,-39033.5,-0,40447.4,937663
step02_gravity_refstate-crust.xmf,698,1.32671e-06,3.13114e-08,0,4.4307e-06,-6.0984e+08,-6.09929e+08,-6.09931e+08,303946,-0.03326,0.280764,-0,0.282727,-11541.8,-22207.3,-0,25027.5,303946
step02_gravity_refstate-crust.xmf,699,1.24672e-06,-1.44521e-07,0,8.56825e-06,-8.87343e+08,-8.87438e+08,-8.87428e+08,587782,-0.0590196,0.291169,-0,0.297091,-10605.8,-32309.4,-0,34005.6,587782
step02_gravity_refstate-crust.xmf,700,6.36051e-07,2.16991e-07,0,1.12872e-05,-9.86005e+08,-9.86033e+08,-9.86048e+08,774299,-0.0717518,0.300447,-0,0.308896,-10028.4,-35899.4,-0,37273.8,774299
step02_gravity_refstate-crust.xmf,701,-7.31282e-07,1.90588e-06,0,1.19378e-05,-1.0163e+09,-1.01612e+09,-1.01625e+09,818930,-0.0759975,0.287127,-0,0.297015,-10659.3,-36999.3,-0,38504.1,818930
step02_gravity_refstate-crust.xmf,702,3.19904e-07,8.00164e-07,0,2.82402e-06,-3.44407e+08,-3.44374e+08,-3.44429e+08,193728,-0.0238582,0.258731,-0,0.259828,-16291.5,-12541,-0,20559.4,193728
step02_gravity_refstate-crust.xmf,703,6.2967e-07,6.88299e-07,0,3.46806e-06,-4.58032e+08,-4.58028e+08,-4.58076e+08,237909,-0.0266816,0.266766,-0,0.268097,-14182.2,-16678.7,-0,21893.2,237909
step02_gravity_refstate-crust.xmf,704,4.60641e-07,7.81667e-07,0,3.16633e-06,-4.04311e+08,-4.04289e+08,-4.04342e+08,217210,-0.0250711,0.262606,-0,0.2638,-15207.9,-14722.4,-0,21166.7,217210
step02_gravity_refstate-crust.xmf,705,-1.08707e-06,6.45225e-07,0,6.97455e-07,-7.02333e+07,-7.01145e+07,-7.01587e+07,47845.4,-0.0292547,0.226746,-0,0.228625,-25202.3,-2553.51,-0,25331.3,47845.4
step02_gravity_refstate-crust.xmf,706,-1.7096e-06,6.42379e-07,0,2.16062e-08,-162670,-1323.93,-45391.2,1482.18,-0.0342134,0.222856,-0,0.225467,-26791.5,0,-0,26791.5,1482.18
step02_gravity_refstate-crust.xmf,707,7.5336e-07,6.20189e-07,0,3.74616e-06,-5.03004e+08,-5.03013e+08,-5.03055e+08,256987,-0.0285153,0.269244,-0,0.27075,-13567.5,-18316.4,-0,22794,256987
step02_gravity_refstate-crust.xmf,708,-2.17247e-06,3.75022e-06,0,1.22845e-05,-1.04478e+09,-1.04438e+09,-1.04463e+09,842714,-0.0786709,0.271999,-0,0.283148,-11247.1,-38033.4,-0,39661.6,842714
step02_gravity_refstate-crust.xmf,709,1.81877e-06,-6.57567e-07,0,6.4877e-06,-7.81317e+08,-7.81487e+08,-7.81442e+08,445056,-0.0465058,0.292098,-0,0.295777,-10381.7,-28451,-0,30285.9,445056
step02_gravity_refstate-crust.xmf,710,9.3336e-07,5.2376e-07,0,4.34716e-06,-5.84958e+08,-5.84986e+08,-5.85022e+08,298215,-0.0329309,0.272344,-0,0.274327,-12811.1,-21300.6,-0,24856.4,298215
step02_gravity_refstate-crust.xmf,711,8.76869e-07,6.0123e-07,0,4.8635e-06,-6.38762e+08,-6.38781e+08,-6.38822e+08,333636,-0.0369345,0.270599,-0,0.273108,-12900.7,-23259.3,-0,26597.4,333636
step02_gravity_refstate-crust.xmf,712,1.1595e-06,2.47887e-07,0,5.3621e-06,-6.90122e+08,-6.90185e+08,-6.90202e+08,367840,-0.0401786,0.277166,-0,0.280063,-11965.1,-25129.7,-0,27832.8,367840
step02_gravity_refstate-crust.xmf,713,1.46112e-06,-1.58193e-07,0,5.851e-06,-7.33962e+08,-7.34073e+08,-7.34062e+08,401378,-0.0430975,0.283921,-0,0.287174,-11171.7,-26726.3,-0,28967.2,401378
step02_gravity_refstate-crust.xmf,714,1.67514e-06,-5.1231e-07,0,7.17718e-06,-8.20926e+08,-8.21076e+08,-8.2104e+08,492355,-0.051021,0.291531,-0,0.295962,-10512.6,-29892.6,-0,31687.3,492355
step02_gravity_refstate-crust.xmf,715,1.04084e-06,3.01228e-07,0,7.76541e-06,-8.51076e+08,-8.51127e+08,-8.51148e+08,532707,-0.055408,0.283298,-0,0.288666,-11220,-30989,-0,32957.6,532707
step02_gravity_refstate-crust.xmf,716,2.98102e-07,1.04244e-06,0,9.22708e-06,-9.20767e+08,-9.20716e+08,-9.20787e+08,632978,-0.0637239,0.279925,-0,0.287087,-11349.1,-33524.3,-0,35393.2,632978
step02_gravity_refstate-crust.xmf,717,4.42924e-07,6.45632e-07,0,1.02037e-05,-9.54014e+08,-9.54e+08,-9.54044e+08,699972,-0.0676727,0.28936,-0,0.297168,-10687.1,-34734.6,-0,36341.6,699972
step02_gravity_refstate-crust.xmf,718,-2.11418e-07,5.4891e-07,0,1.44243e-06,-1.43029e+08,-1.42976e+08,-1.43014e+08,98950.4,-0.0269548,0.243534,-0,0.245022,-20653,-5207.09,-0,21299.3,98950.4
step02_gravity_refstate-crust.xmf,719,5.38036e-09,6.76269e-07,0,1.98716e-06,-2.12244e+08,-2.12198e+08,-2.12244e+08,136319,-0.0244218,0.249002,-0,0.250197,-19075.8,-7728.03,-0,20581.7,136319
step02_gravity_refstate-crust.xmf,720,1.83835e-07,7.5644e-07,0,2.43129e-06,-2.79249e+08,-2.79209e+08,-2.79261e+08,166787,-0.0235001,0.254436,-0,0.255519,-17541.6,-10168.2,-0,20275.6,166787
step02_gravity_refstate-crust.xmf,721,-6.70749e-07,7.7381e-07,0,1.31017e-06,-1.413e+08,-1.41201e+08,-1.41254e+08,89877.8,-0.0257281,0.231106,-0,0.232533,-23607,-5142.65,-0,24160.7,89877.8
step02_gravity_refstate-crust.xmf,722,-1.58706e-06,8.39539e-07,0,5.81368e-07,-6.97206e+07,-6.95541e+07,-6.96117e+07,39881.8,-0.0251048,0.216037,-0,0.217491,-28340.2,-2533.13,-0,28453.2,39881.8
step02_gravity_refstate-crust.xmf,723,-2.27103e-06,8.55695e-07,0,2.01481e-08,-215990,-1496.46,-60197.1,1382.16,-0.0278986,0.213452,-0,0.215267,-29976.3,0,-0,29976.3,1382.16
step02_gravity_refstate-crust.xmf,724,6.31317e-07,8.14968e-07,0,4.09609e-06,-5.44827e+08,-5.44814e+08,-5.4487e+08,280991,-0.0312505,0.265356,-0,0.267189,-14014.4,-19838.8,-0,24289.5,280991
step02_gravity_refstate-crust.xmf,725,3.6949e-07,1.06737e-06,0,3.83787e-06,-5.04678e+08,-5.0463e+08,-5.04703e+08,263278,-0.0295618,0.25885,-0,0.260533,-15267.3,-18376.4,-0,23891.1,263278
step02_gravity_refstate-crust.xmf,726,-3.61823e-06,5.66352e-06,0,1.23465e-05,-1.07219e+09,-1.07155e+09,-1.07194e+09,846969,-0.0798005,0.255739,-0,0.2679,-11775,-39028.3,-0,40765.9,846969
step02_gravity_refstate-crust.xmf,727,2.08033e-07,1.31662e-06,0,8.36883e-06,-8.85859e+08,-8.85783e+08,-8.85873e+08,574102,-0.0598451,0.272273,-0,0.278772,-11990.3,-32253.5,-0,34410.1,574102
step02_gravity_refstate-crust.xmf,728,-7.6173e-07,2.22369e-06,0,1.07497e-05,-9.86118e+08,-9.85913e+08,-9.86066e+08,737428,-0.071678,0.276432,-0,0.285574,-11334,-35901,-0,37647.6,737428
step02_gravity_refstate-crust.xmf,729,-2.04893e-06,3.89096e-06,0,1.10621e-05,-1.01673e+09,-1.01633e+09,-1.01659e+09,758862,-0.0742603,0.261679,-0,0.272012,-11942,-37013,-0,38891.8,758862
step02_gravity_refstate-crust.xmf,730,-6.9455e-08,1.14754e-06,0,2.80537e-06,-3.42848e+08,-3.42764e+08,-3.42843e+08,192448,-0.0241424,0.245978,-0,0.24716,-18794.6,-12483.2,-0,22562.5,192448
step02_gravity_refstate-crust.xmf,731,4.14446e-08,1.21205e-06,0,3.18876e-06,-4.03459e+08,-4.03379e+08,-4.03462e+08,218749,-0.0256487,0.249532,-0,0.250846,-17621.7,-14690.4,-0,22941.9,218749
step02_gravity_refstate-crust.xmf,732,1.89463e-07,1.18026e-06,0,3.53446e-06,-4.57674e+08,-4.57606e+08,-4.57687e+08,242464,-0.0275795,0.253972,-0,0.255465,-16408.1,-16664.7,-0,23386.7,242464
step02_gravity_refstate-crust.xmf,733,-1.12456e-06,9.51399e-07,0,1.13479e-06,-1.38777e+08,-1.38634e+08,-1.387e+08,77846.6,-0.0230924,0.219406,-0,0.220618,-26666.1,-5049.23,-0,27139.9,77846.6
step02_gravity_refstate-crust.xmf,734,-1.98771e-06,1.00233e-06,0,4.50944e-07,-7.08545e+07,-7.06494e+07,-7.07182e+07,30934.8,-0.0194108,0.207252,-0,0.208159,-31493.3,-2573.04,-0,31598.2,30934.8
step02_gravity_refstate-crust.xmf,735,-2.69683e-06,1.01332e-06,0,2.35245e-08,-256606,-2089.71,-71603.3,1613.78,-0.01981,0.20611,-0,0.20706,-33233.5,0,-0,33233.5,1613.78
step02_gravity_refstate-crust.xmf,736,-3.33199e-06,5.61756e-06,0,1.10998e-05,-1.04551e+09,-1.0449e+09,-1.04528e+09,761443,-0.0752993,0.245807,-0,0.257082,-12495.3,-38058,-0,40056.8,761443
step02_gravity_refstate-crust.xmf,737,9.46845e-07,4.6658e-07,0,7.04061e-06,-8.09593e+08,-8.09626e+08,-8.09658e+08,482986,-0.0513811,0.277812,-0,0.282524,-11738.1,-29478.6,-0,31729.7,482986
step02_gravity_refstate-crust.xmf,738,3.47947e-07,1.2519e-06,0,4.57061e-06,-6.00416e+08,-6.00354e+08,-6.0044e+08,313544,-0.0352674,0.258004,-0,0.260403,-14783.3,-21862.1,-0,26391.2,313544
step02_gravity_refstate-crust.xmf,739,4.6408e-07,1.17278e-06,0,5.3954e-06,-6.8783e+08,-6.87782e+08,-6.87862e+08,370124,-0.0414528,0.261977,-0,0.265236,-13774.3,-25044.8,-0,28582.8,370124
step02_gravity_refstate-crust.xmf,740,6.44237e-07,9.36028e-07,0,5.90496e-06,-7.3129e+08,-7.3127e+08,-7.31335e+08,405080,-0.0447431,0.267384,-0,0.271102,-12973,-26627.4,-0,29619.6,405080
step02_gravity_refstate-crust.xmf,741,8.60547e-07,6.23262e-07,0,6.48029e-06,-7.73632e+08,-7.73648e+08,-7.73691e+08,444548,-0.0481239,0.273889,-0,0.278085,-12176.6,-28169.3,-0,30688.4,444548
step02_gravity_refstate-crust.xmf,742,1.56926e-07,1.53336e-06,0,7.59171e-06,-8.48878e+08,-8.48783e+08,-8.48889e+08,520792,-0.0559993,0.266172,-0,0.271999,-12609.6,-30907.3,-0,33380.6,520792
step02_gravity_refstate-crust.xmf,743,-7.33792e-07,2.55113e-06,0,8.7723e-06,-9.19399e+08,-9.19173e+08,-9.19348e+08,601780,-0.0632618,0.259329,-0,0.266933,-12737,-33472.6,-0,35814.1,601780
step02_gravity_refstate-crust.xmf,744,-7.66811e-07,2.40835e-06,0,9.70051e-06,-9.53418e+08,-9.532e+08,-9.53365e+08,665455,-0.0673722,0.266902,-0,0.275273,-12047.6,-34710.8,-0,36742.1,665455
step02_gravity_refstate-crust.xmf,745,-4.57743e-07,9.89112e-07,0,1.93181e-06,-2.21074e+08,-2.20974e+08,-2.21042e+08,132522,-0.0235058,0.234384,-0,0.235559,-22235.5,-8048.08,-0,23647.2,132522
step02_gravity_refstate-crust.xmf,746,-1.78237e-07,1.03291e-06,0,2.40134e-06,-2.81202e+08,-2.81119e+08,-2.81189e+08,164732,-0.0235093,0.24262,-0,0.243756,-19972.4,-10238.3,-0,22443.7,164732
step02_gravity_refstate-crust.xmf,747,-8.39122e-07,1.14014e-06,0,1.63884e-06,-2.0473e+08,-2.04594e+08,-2.04672e+08,112425,-0.0220028,0.222561,-0,0.223646,-25174.7,-7451.77,-0,26254.4,112425
step02_gravity_refstate-crust.xmf,748,-1.52087e-06,1.10853e-06,0,8.85837e-07,-1.35057e+08,-1.34877e+08,-1.34953e+08,60768.4,-0.0189872,0.209015,-0,0.209875,-29896.5,-4912.45,-0,30297.4,60768.4
step02_gravity_refstate-crust.xmf,749,-2.16134e-06,1.13334e-06,0,3.31049e-07,-8.49141e+07,-8.46881e+07,-8.47658e+07,22709.9,-0.0118297,0.200103,-0,0.200452,-34828.9,-3084.39,-0,34965.2,22709.9
step02_gravity_refstate-crust.xmf,750,-2.97776e-06,1.12603e-06,0,4.39395e-09,-283033,-1512.59,-78758,301.425,-0.0103643,0.201378,-0,0.201645,-36571.8,0,-0,36571.8,301.425
step02_gravity_refstate-crust.xmf,751,1.21871e-07,1.45366e-06,0,4.18597e-06,-5.53216e+08,-5.53124e+08,-5.53224e+08,287158,-0.0325216,0.251733,-0,0.253825,-16025.1,-20143.1,-0,25740,287158
step02_gravity_refstate-crust.xmf,752,-8.77717e-08,1.62452e-06,0,3.85854e-06,-5.1119e+08,-5.11072e+08,-5.11184e+08,264696,-0.0302052,0.245357,-0,0.24721,-17377.8,-18612.5,-0,25464,264696
step02_gravity_refstate-crust.xmf,753,-4.53197e-06,7.28671e-06,0,1.09324e-05,-1.07302e+09,-1.0722e+09,-1.0727e+09,749964,-0.0750541,0.230042,-0,0.241976,-12950.9,-39057.1,-0,41148.3,749964
step02_gravity_refstate-crust.xmf,754,2.75404e-07,1.41382e-06,0,4.99633e-06,-6.50015e+08,-6.49937e+08,-6.50034e+08,342748,-0.0388061,0.256372,-0,0.259293,-14678.8,-23667.7,-0,27850.1,342748
step02_gravity_refstate-crust.xmf,755,-6.96513e-07,2.6317e-06,0,7.98142e-06,-8.84744e+08,-8.84515e+08,-8.84696e+08,547525,-0.0593809,0.253238,-0,0.260107,-13408.3,-32211.2,-0,34890.5,547525
step02_gravity_refstate-crust.xmf,756,-1.91951e-06,3.97769e-06,0,9.94652e-06,-9.86218e+08,-9.85813e+08,-9.86086e+08,682331,-0.0698635,0.252276,-0,0.261771,-12691.1,-35902.6,-0,38079.7,682331
step02_gravity_refstate-crust.xmf,757,-3.10533e-06,5.60042e-06,0,9.97394e-06,-1.0182e+09,-1.01761e+09,-1.01799e+09,684212,-0.0709147,0.236184,-0,0.2466,-13286,-37064.9,-0,39374.1,684212
step02_gravity_refstate-crust.xmf,758,-4.26815e-07,1.47152e-06,0,2.69532e-06,-3.44436e+08,-3.44305e+08,-3.44406e+08,184899,-0.0235534,0.233395,-0,0.234581,-21264.5,-12540.1,-0,24686.6,184899
step02_gravity_refstate-crust.xmf,759,-3.52418e-07,1.62224e-06,0,3.10803e-06,-4.06252e+08,-4.06116e+08,-4.06228e+08,213211,-0.0253497,0.236027,-0,0.237384,-20075.8,-14791.1,-0,24936.2,213211
step02_gravity_refstate-crust.xmf,760,-2.5969e-07,1.70116e-06,0,3.51102e-06,-4.64371e+08,-4.64237e+08,-4.64353e+08,240856,-0.0277902,0.239672,-0,0.241278,-18791.5,-16907.5,-0,25278.1,240856
step02_gravity_refstate-crust.xmf,761,-1.22991e-06,1.30964e-06,0,1.33017e-06,-1.99634e+08,-1.9946e+08,-1.9955e+08,91249.8,-0.0187034,0.210582,-0,0.211411,-28481.2,-7264.93,-0,29393.2,91249.8
step02_gravity_refstate-crust.xmf,762,-1.75805e-06,1.22164e-06,0,6.49542e-07,-1.3485e+08,-1.34645e+08,-1.34729e+08,44558.6,-0.0145371,0.202093,-0,0.202615,-32606.6,-4904.11,-0,32973.3,44558.6
step02_gravity_refstate-crust.xmf,763,-2.46056e-06,1.16802e-06,0,1.15669e-07,-6.36414e+07,-6.33925e+07,-6.34726e+07,7934.86,-0.00572096,0.197832,-0,0.197915,-37694.2,-2308.78,-0,37764.8,7934.86
step02_gravity_refstate-crust.xmf,764,-3.00618e-06,1.1326e-06,0,-1.32675e-08,-285912,-1990.85,-79687.3,-910.152,-1.18448e-18,0.199711,-0,0.199711,-40000,0,-0,40000,910.152
step02_gravity_refstate-crust.xmf,765,-4.18843e-06,7.1701e-06,0,9.7389e-06,-1.04677e+09,-1.04599e+09,-1.04648e+09,668089,-0.070353,0.219646,-0,0.230638,-13827.4,-38102.9,-0,40534.3,668089
step02_gravity_refstate-crust.xmf,766,1.17849e-07,1.61233e-06,0,6.9821e-06,-8.13064e+08,-8.12962e+08,-8.13072e+08,478972,-0.0525031,0.261514,-0,0.266732,-13179.6,-29603.4,-0,32404.7,478972
step02_gravity_refstate-crust.xmf,767,-1.72741e-07,1.99315e-06,0,4.8145e-06,-6.38312e+08,-6.38163e+08,-6.383e+08,330274,-0.0380376,0.24448,-0,0.247422,-16294.1,-23240.8,-0,28383.6,330274
step02_gravity_refstate-crust.xmf,768,-1.61451e-07,2.02572e-06,0,5.26e-06,-6.84757e+08,-6.84607e+08,-6.84746e+08,360836,-0.0414858,0.246323,-0,0.249792,-15641.6,-24931.8,-0,29432.2,360836
step02_gravity_refstate-crust.xmf,769,-9.20316e-08,1.95047e-06,0,5.77167e-06,-7.29463e+08,-7.29323e+08,-7.29457e+08,395937,-0.0450912,0.250321,-0,0.25435,-14819.1,-26559.5,-0,30414,395937
step02_gravity_refstate-crust.xmf,770,3.58514e-09,1.80832e-06,0,6.34331e-06,-7.72179e+08,-7.72055e+08,-7.72179e+08,435151,-0.048767,0.255447,-0,0.260061,-13986.9,-28114.8,-0,31401.8,435151
step02_gravity_refstate-crust.xmf,771,-6.58572e-07,2.71042e-06,0,7.27488e-06,-8.49139e+08,-8.48908e+08,-8.49094e+08,499057,-0.0556606,0.248313,-0,0.254475,-14069.4,-30915.3,-0,33966.2,499057
step02_gravity_refstate-crust.xmf,772,-1.57935e-06,3.84754e-06,0,8.14699e-06,-9.18041e+08,-9.17669e+08,-9.17933e+08,558884,-0.0614907,0.239052,-0,0.246834,-14158.8,-33421.8,-0,36297.2,558884
step02_gravity_refstate-crust.xmf,773,-1.75948e-06,3.9284e-06,0,8.99964e-06,-9.534e+08,-9.53009e+08,-9.53279e+08,617376,-0.065615,0.244761,-0,0.253404,-13433.7,-34708.4,-0,37217.5,617376
step02_gravity_refstate-crust.xmf,774,-5.13864e-07,1.3314e-06,0,2.32342e-06,-2.91428e+08,-2.91301e+08,-2.91392e+08,159387,-0.0226496,0.230604,-0,0.231713,-22410.9,-10609.7,-0,24795.5,159387
step02_gravity_refstate-crust.xmf,775,-8.0023e-07,1.46816e-06,0,2.03368e-06,-2.75222e+08,-2.75066e+08,-2.75167e+08,139510,-0.0210549,0.220368,-0,0.221372,-24895,-10018.8,-0,26835.3,139510
step02_gravity_refstate-crust.xmf,776,-1.06993e-06,1.63281e-06,0,1.75259e-06,-2.71928e+08,-2.71743e+08,-2.71855e+08,120228,-0.0186449,0.210305,-0,0.21113,-27463.5,-9898.02,-0,29192.7,120228
step02_gravity_refstate-crust.xmf,777,-1.50327e-06,1.4337e-06,0,1.0084e-06,-1.96887e+08,-1.96685e+08,-1.96784e+08,69176.1,-0.0146474,0.201757,-0,0.202288,-31494.1,-7164,-0,32298.7,69176.1
step02_gravity_refstate-crust.xmf,778,-1.73846e-06,1.47555e-06,0,6.2507e-07,-1.85549e+08,-1.85329e+08,-1.8543e+08,42879.8,-0.00976265,0.195638,-0,0.195881,-34642.3,-6750.35,-0,35293.9,42879.8
step02_gravity_refstate-crust.xmf,779,-2.0149e-06,1.33002e-06,0,2.4328e-07,-1.37218e+08,-1.36988e+08,-1.3708e+08,16689,-0.00521731,0.194672,-0,0.194742,-37444.6,-4989.46,-0,37775.5,16689
step02_gravity_refstate-crust.xmf,780,-2.2903e-06,1.21043e-06,0,-6.12685e-09,-9.06896e+07,-9.04494e+07,-9.05325e+07,-420.302,-1.05447e-18,0.195842,-0,0.195842,-40000,-3294.25,-0,40135.4,420.302
step02_gravity_refstate-crust.xmf,781,-1.66501e-07,1.92778e-06,0,4.43311e-06,-5.94095e+08,-5.93951e+08,-5.94083e+08,304112,-0.0350361,0.24375,-0,0.246256,-16816.9,-21630.9,-0,27399,304112
step02_gravity_refstate-crust.xmf,782,-3.86263e-07,2.12755e-06,0,4.15515e-06,-5.65799e+08,-5.65627e+08,-5.65773e+08,285043,-0.0329776,0.236484,-0,0.238772,-18167.3,-20600.2,-0,27466.7,285043
step02_gravity_refstate-crust.xmf,783,-5.34887e-07,2.20593e-06,0,3.76856e-06,-5.23423e+08,-5.23235e+08,-5.23386e+08,258523,-0.0301189,0.230557,-0,0.232516,-19603.8,-19057,-0,27340.1,258523
step02_gravity_refstate-crust.xmf,784,-5.10793e-06,8.45094e-06,0,9.67639e-06,-1.07568e+09,-1.07475e+09,-1.07533e+09,663800,-0.0701313,0.208529,-0,0.220006,-13983.2,-39153.7,-0,41575.7,663800
step02_gravity_refstate-crust.xmf,785,-1.49165e-06,3.84381e-06,0,7.42796e-06,-8.85085e+08,-8.84719e+08,-8.84983e+08,509558,-0.0577466,0.233377,-0,0.240415,-14929.5,-32222.3,-0,35512.9,509558
step02_gravity_refstate-crust.xmf,786,-2.8681e-06,5.51113e-06,0,8.97376e-06,-9.88694e+08,-9.88119e+08,-9.88497e+08,615600,-0.066649,0.227935,-0,0.237479,-14109.5,-35991.3,-0,38658.2,615600
step02_gravity_refstate-crust.xmf,787,-3.95559e-06,7.10565e-06,0,8.77092e-06,-1.02464e+09,-1.02388e+09,-1.02437e+09,601685,-0.0663068,0.210441,-0,0.22064,-14669.8,-37298,-0,40079.2,601685
step02_gravity_refstate-crust.xmf,788,-7.4137e-07,1.7359e-06,0,2.47445e-06,-3.42242e+08,-3.42072e+08,-3.42191e+08,169747,-0.0220623,0.221461,-0,0.222557,-23765.3,-12459.3,-0,26833.3,169747
step02_gravity_refstate-crust.xmf,789,-7.09109e-07,1.99168e-06,0,2.88952e-06,-4.06598e+08,-4.06412e+08,-4.06549e+08,198221,-0.0240057,0.222612,-0,0.223903,-22625.5,-14802.8,-0,27037.7,198221
step02_gravity_refstate-crust.xmf,790,-7.28226e-07,2.31274e-06,0,3.35449e-06,-4.8113e+08,-4.80921e+08,-4.8108e+08,230118,-0.027106,0.222653,-0,0.224297,-21526.5,-17516.6,-0,27752.9,230118
step02_gravity_refstate-crust.xmf,791,-1.32551e-06,1.73366e-06,0,1.40332e-06,-2.64257e+08,-2.64047e+08,-2.64166e+08,96267.9,-0.0154047,0.201481,-0,0.202069,-30208,-9617.86,-0,31702.1,96267.9
step02_gravity_refstate-crust.xmf,792,-5.09717e-06,8.78387e-06,0,8.47819e-06,-1.0639e+09,-1.06295e+09,-1.06355e+09,581604,-0.064855,0.192841,-0,0.203455,-15039.1,-38725.3,-0,41543,581604
step02_gravity_refstate-crust.xmf,793,-7.09689e-07,2.80415e-06,0,6.62606e-06,-8.11671e+08,-8.1143e+08,-8.11622e+08,454548,-0.051851,0.2419,-0,0.247394,-14954.1,-29551.2,-0,33119.4,454548
step02_gravity_refstate-crust.xmf,794,-6.58533e-07,2.61168e-06,0,4.48273e-06,-6.24095e+08,-6.2387e+08,-6.24049e+08,307515,-0.0362103,0.229305,-0,0.232147,-18472.7,-22722.2,-0,29283.7,307515
step02_gravity_refstate-crust.xmf,795,-6.94452e-07,2.76089e-06,0,4.96072e-06,-6.78282e+08,-6.78045e+08,-6.78234e+08,340306,-0.0401795,0.230626,-0,0.2341,-17608.4,-24695,-0,30329.8,340306
step02_gravity_refstate-crust.xmf,796,-7.09045e-07,2.82845e-06,0,5.46878e-06,-7.264e+08,-7.26158e+08,-7.26352e+08,375158,-0.0440991,0.233437,-0,0.237566,-16700.2,-26446.8,-0,31278.3,375158
step02_gravity_refstate-crust.xmf,797,-7.30574e-07,2.86735e-06,0,6.01738e-06,-7.71179e+08,-7.70933e+08,-7.71129e+08,412792,-0.0480006,0.236741,-0,0.241558,-15853.8,-28077,-0,32243.8,412792
step02_gravity_refstate-crust.xmf,798,-1.44591e-06,3.90402e-06,0,6.71908e-06,-8.49656e+08,-8.49289e+08,-8.49557e+08,460929,-0.0538306,0.227263,-0,0.233551,-15846.9,-30932.8,-0,34755.7,460929
step02_gravity_refstate-crust.xmf,799,-2.26779e-06,4.98504e-06,0,7.38896e-06,-9.18357e+08,-9.17859e+08,-9.18201e+08,506882,-0.0586278,0.218589,-0,0.226315,-15658.7,-33432.2,-0,36917.6,506882
step02_gravity_refstate-crust.xmf,800,-2.55018e-06,5.23862e-06,0,8.1321e-06,-9.54214e+08,-9.5368e+08,-9.54039e+08,557862,-0.0625315,0.222586,-0,0.231202,-14890.6,-34736.9,-0,37794,557862
step02_gravity_refstate-crust.xmf,801,-9.99882e-07,1.9378e-06,0,2.15543e-06,-3.36531e+08,-3.3633e+08,-3.36463e+08,147863,-0.0197769,0.210612,-0,0.211539,-26316.8,-12250.7,-0,29028.5,147863
step02_gravity_refstate-crust.xmf,802,-1.22933e-06,2.09834e-06,0,1.78993e-06,-3.32915e+08,-3.32687e+08,-3.32831e+08,122789,-0.0167684,0.200731,-0,0.20143,-28969,-12118.4,-0,31401.6,122789
step02_gravity_refstate-crust.xmf,803,-1.51239e-06,1.8338e-06,0,1.01861e-06,-2.62282e+08,-2.62053e+08,-2.62178e+08,69876.7,-0.0113772,0.194105,-0,0.194438,-33053.4,-9545.36,-0,34404.1,69876.7
step02_gravity_refstate-crust.xmf,804,-1.74368e-06,1.69528e-06,0,3.3385e-07,-2.20692e+08,-2.20456e+08,-2.20572e+08,22902.1,-0.00440869,0.190025,-0,0.190076,-37502.1,-8030.08,-0,38352.2,22902.1
step02_gravity_refstate-crust.xmf,805,-1.88369e-06,1.50295e-06,0,-3.65793e-09,-1.77834e+08,-1.77602e+08,-1.77705e+08,-250.934,-8.75358e-19,0.191536,-0,0.191536,-40000,-6468.93,-0,40519.7,250.934
step02_gravity_refstate-crust.xmf,806,-8.51051e-07,2.65703e-06,0,3.60859e-06,-5.34471e+08,-5.3423e+08,-5.34413e+08,247549,-0.029386,0.218709,-0,0.220674,-21376.6,-19458.6,-0,28906.7,247549
step02_gravity_refstate-crust.xmf,807,-8.60945e-07,2.79822e-06,0,3.98848e-06,-5.819e+08,-5.81649e+08,-5.81841e+08,273610,-0.0324467,0.220217,-0,0.222595,-20388,-21185.5,-0,29402.3,273610
step02_gravity_refstate-crust.xmf,808,-2.1195e-06,4.87838e-06,0,6.72413e-06,-8.85893e+08,-8.85413e+08,-8.85748e+08,461276,-0.0548994,0.213417,-0,0.220365,-16536.4,-32250.8,-0,36243.2,461276
step02_gravity_refstate-crust.xmf,809,-3.62289e-06,6.92089e-06,0,7.76045e-06,-9.94103e+08,-9.9338e+08,-9.93854e+08,532367,-0.0615816,0.201369,-0,0.210575,-15731,-36187.4,-0,39458.7,532367
step02_gravity_refstate-crust.xmf,810,-4.50829e-06,8.24576e-06,0,7.59621e-06,-1.03461e+09,-1.03373e+09,-1.0343e+09,521100,-0.0609392,0.186949,-0,0.196631,-15947.5,-37660.4,-0,40897.8,521100
step02_gravity_refstate-crust.xmf,811,-9.94322e-07,2.25638e-06,0,2.56832e-06,-4.02213e+08,-4.0199e+08,-4.02145e+08,176187,-0.0217416,0.210596,-0,0.211716,-25170.5,-14642.4,-0,29119.6,176187
step02_gravity_refstate-crust.xmf,812,-1.02075e-06,2.5894e-06,0,2.96483e-06,-4.67234e+08,-4.66987e+08,-4.67164e+08,203388,-0.0243973,0.210097,-0,0.211509,-24087.4,-17010,-0,29488,203388
step02_gravity_refstate-crust.xmf,813,-1.42993e-06,2.22545e-06,0,1.38763e-06,-3.31781e+08,-3.3153e+08,-3.31683e+08,95191.5,-0.0131056,0.192287,-0,0.192733,-31708.5,-12076.5,-0,33930.3,95191.5
step02_gravity_refstate-crust.xmf,814,-1.61958e-06,1.9e-06,0,6.58083e-07,-2.61532e+08,-2.6129e+08,-2.61421e+08,45144.5,-0.00754054,0.189619,-0,0.189769,-35504,-9517.71,-0,36757.6,45144.5
step02_gravity_refstate-crust.xmf,815,-1.08247e-06,2.90809e-06,0,3.32548e-06,-5.26938e+08,-5.26665e+08,-5.26864e+08,228128,-0.0273279,0.208941,-0,0.21072,-23185.1,-19183.8,-0,30092.7,228128
step02_gravity_refstate-crust.xmf,816,-1.40487e-06,3.87073e-06,0,6.10612e-06,-8.12392e+08,-8.1203e+08,-8.12295e+08,418880,-0.049913,0.221754,-0,0.227302,-16832.6,-29576.2,-0,34030.7,418880
step02_gravity_refstate-crust.xmf,817,-1.12774e-06,3.38543e-06,0,4.6002e-06,-6.76151e+08,-6.75841e+08,-6.76074e+08,315573,-0.0382834,0.215582,-0,0.218955,-19547.7,-24616.6,-0,31433.9,315573
step02_gravity_refstate-crust.xmf,818,-1.2036e-06,3.5632e-06,0,5.0596e-06,-7.24055e+08,-7.23728e+08,-7.23972e+08,347088,-0.0421185,0.217067,-0,0.221115,-18609.4,-26360.6,-0,32267.5,347088
step02_gravity_refstate-crust.xmf,819,-1.29948e-06,3.7306e-06,0,5.54984e-06,-7.69084e+08,-7.68739e+08,-7.68995e+08,380719,-0.0459498,0.218925,-0,0.223695,-17728.4,-27999.8,-0,33140.4,380719
step02_gravity_refstate-crust.xmf,820,-2.10215e-06,4.98691e-06,0,6.01459e-06,-8.54506e+08,-8.5402e+08,-8.54362e+08,412601,-0.0506741,0.204961,-0,0.211132,-17784,-31108.4,-0,35832.9,412601
step02_gravity_refstate-crust.xmf,821,-2.73705e-06,5.85835e-06,0,6.57077e-06,-9.18466e+08,-9.17877e+08,-9.18278e+08,450755,-0.0548678,0.199507,-0,0.206914,-17163.7,-33435.7,-0,37583.7,450755
step02_gravity_refstate-crust.xmf,822,-3.07593e-06,6.24173e-06,0,7.14111e-06,-9.53078e+08,-9.52439e+08,-9.52867e+08,489880,-0.0581949,0.201466,-0,0.209703,-16415,-34695,-0,38382.2,489880
step02_gravity_refstate-crust.xmf,823,-5.30936e-06,9.6054e-06,0,6.94657e-06,-1.06765e+09,-1.06662e+09,-1.06728e+09,476535,-0.0574551,0.168677,-0,0.178194,-16436.3,-38862.2,-0,42195,476535
step02_gravity_refstate-crust.xmf,824,-1.21474e-06,2.46307e-06,0,2.17633e-06,-3.98091e+08,-3.97839e+08,-3.98008e+08,149296,-0.0188133,0.199883,-0,0.200766,-27746.7,-14491.8,-0,31303.2,149296
step02_gravity_refstate-crust.xmf,825,-1.39507e-06,2.61121e-06,0,1.74793e-06,-3.94906e+08,-3.94631e+08,-3.94811e+08,119908,-0.0153412,0.190753,-0,0.191369,-30355.6,-14375.4,-0,33587.4,119908
step02_gravity_refstate-crust.xmf,826,-1.56994e-06,2.35819e-06,0,9.03601e-07,-3.36678e+08,-3.36409e+08,-3.3657e+08,61987.1,-0.00853418,0.185003,-0,0.1852,-34757,-12254.4,-0,36854.1,61987.1
step02_gravity_refstate-crust.xmf,827,-1.64452e-06,2.18263e-06,0,3.98965e-07,-3.02467e+08,-3.02205e+08,-3.02355e+08,27369,-0.00403944,0.184204,-0,0.184248,-37565.3,-11008.4,-0,39145,27369
step02_gravity_refstate-crust.xmf,828,-1.69781e-06,1.94103e-06,0,-3.2129e-09,-2.61916e+08,-2.61666e+08,-2.61799e+08,-220.405,-7.90183e-19,0.186264,-0,0.186264,-40000,-9531.44,-0,41119.9,220.405
step02_gravity_refstate-crust.xmf,829,-1.09921e-06,3.07899e-06,0,3.66066e-06,-5.70301e+08,-5.70015e+08,-5.70226e+08,251121,-0.0301705,0.210195,-0,0.212349,-22163.4,-20762.7,-0,30369.5,251121
step02_gravity_refstate-crust.xmf,830,-1.09148e-06,3.26406e-06,0,4.21347e-06,-6.34873e+08,-6.34574e+08,-6.34798e+08,289044,-0.0350469,0.213744,-0,0.216598,-20480.4,-23113.8,-0,30882,289044
step02_gravity_refstate-crust.xmf,831,-2.51573e-06,5.61853e-06,0,6.11841e-06,-8.90217e+08,-8.89659e+08,-8.90044e+08,419723,-0.0520783,0.197501,-0,0.204252,-17838.9,-32407.8,-0,36993.1,419723
step02_gravity_refstate-crust.xmf,832,-4.78922e-06,8.95297e-06,0,6.62341e-06,-1.04197e+09,-1.04103e+09,-1.04165e+09,454366,-0.0560246,0.169508,-0,0.178526,-16960.5,-37928.6,-0,41548,454366
step02_gravity_refstate-crust.xmf,833,-4.25868e-06,8.07088e-06,0,6.88713e-06,-1.01564e+09,-1.0148e+09,-1.01535e+09,472457,-0.0574415,0.179932,-0,0.188879,-16800.1,-36970.8,-0,40609,472457
step02_gravity_refstate-crust.xmf,834,-1.25876e-06,2.83525e-06,0,2.56081e-06,-4.62344e+08,-4.62064e+08,-4.62258e+08,175671,-0.0214163,0.198571,-0,0.199722,-26589.5,-16831.4,-0,31469,175671
step02_gravity_refstate-crust.xmf,835,-1.32862e-06,3.21227e-06,0,2.9236e-06,-5.24254e+08,-5.23943e+08,-5.24163e+08,200559,-0.0244344,0.19687,-0,0.198381,-25510.1,-19085.6,-0,31859.5,200559
step02_gravity_refstate-crust.xmf,836,-1.54775e-06,2.75869e-06,0,1.31932e-06,-3.99263e+08,-3.98967e+08,-3.99156e+08,90505.4,-0.0116038,0.18305,-0,0.183417,-32912,-14533.6,-0,35978.1,90505.4
step02_gravity_refstate-crust.xmf,837,-1.42392e-06,3.59015e-06,0,3.28774e-06,-5.84235e+08,-5.83891e+08,-5.84137e+08,225539,-0.0278302,0.195091,-0,0.197066,-24446.5,-21269.4,-0,32404.1,225539
step02_gravity_refstate-crust.xmf,838,-1.34177e-06,3.57617e-06,0,3.79861e-06,-6.21615e+08,-6.21278e+08,-6.21523e+08,260585,-0.0320487,0.202289,-0,0.204812,-22432.9,-22630.6,-0,31865.1,260585
step02_gravity_refstate-crust.xmf,839,-1.8991e-06,4.69644e-06,0,5.46068e-06,-8.11055e+08,-8.10602e+08,-8.10924e+08,374603,-0.0466743,0.202845,-0,0.208145,-18746.9,-29526.8,-0,34975.4,374603
step02_gravity_refstate-crust.xmf,840,-1.45829e-06,3.89171e-06,0,4.16913e-06,-6.74258e+08,-6.73891e+08,-6.74158e+08,286002,-0.0356197,0.201208,-0,0.204336,-21531.4,-24547.2,-0,32652.2,286002
step02_gravity_refstate-crust.xmf,841,-1.58186e-06,4.16265e-06,0,4.5696e-06,-7.22238e+08,-7.21844e+08,-7.22129e+08,313474,-0.0392779,0.20127,-0,0.205066,-20578.6,-26293.8,-0,33389.3,313474
step02_gravity_refstate-crust.xmf,842,-1.73063e-06,4.43381e-06,0,5.00236e-06,-7.68354e+08,-7.67931e+08,-7.68235e+08,343162,-0.0430037,0.20174,-0,0.206273,-19646,-27972.6,-0,34182.3,343162
step02_gravity_refstate-crust.xmf,843,-2.67536e-06,5.99421e-06,0,5.50799e-06,-8.8361e+08,-8.83015e+08,-8.83426e+08,377848,-0.0485641,0.185165,-0,0.191428,-19113.6,-32167.2,-0,37417.3,377848
step02_gravity_refstate-crust.xmf,844,-2.99216e-06,6.44849e-06,0,5.77097e-06,-9.1681e+08,-9.16162e+08,-9.16605e+08,395889,-0.0506324,0.182883,-0,0.189762,-18626.9,-33375.3,-0,38221.3,395889
step02_gravity_refstate-crust.xmf,845,-3.36264e-06,6.92898e-06,0,6.16621e-06,-9.51536e+08,-9.5083e+08,-9.51305e+08,423002,-0.0532425,0.18237,-0,0.189983,-17943.5,-34638.7,-0,39010.4,423002
step02_gravity_refstate-crust.xmf,846,-3.82595e-06,7.51499e-06,0,6.61039e-06,-9.87439e+08,-9.86661e+08,-9.87176e+08,453473,-0.0558633,0.181794,-0,0.190184,-17246.7,-35944.9,-0,39868.3,453473
step02_gravity_refstate-crust.xmf,847,-5.1903e-06,9.89633e-06,0,5.75996e-06,-1.06627e+09,-1.06524e+09,-1.06592e+09,395133,-0.0511038,0.151337,-0,0.159732,-17663.5,-38813,-0,42643.3,395133
step02_gravity_refstate-crust.xmf,848,-4.51349e-06,8.75578e-06,0,5.8973e-06,-1.02612e+09,-1.02521e+09,-1.02581e+09,404555,-0.052124,0.161194,-0,0.169411,-17943,-37352.2,-0,41438.3,404555
step02_gravity_refstate-crust.xmf,849,-1.43321e-06,3.02808e-06,0,2.1127e-06,-4.59585e+08,-4.59279e+08,-4.59486e+08,144931,-0.0179641,0.188487,-0,0.189341,-29105,-16730.5,-0,33571,144931
step02_gravity_refstate-crust.xmf,850,-1.5694e-06,3.17502e-06,0,1.65368e-06,-4.59591e+08,-4.59265e+08,-4.59483e+08,113443,-0.0142214,0.180124,-0,0.180684,-31585.4,-16730.4,-0,35742.8,113443
step02_gravity_refstate-crust.xmf,851,-1.65223e-06,3.01075e-06,0,8.97006e-07,-4.22556e+08,-4.22237e+08,-4.22443e+08,61534.6,-0.0078422,0.175592,-0,0.175768,-35349.8,-15381.6,-0,38551.3,61534.6
step02_gravity_refstate-crust.xmf,852,-1.65498e-06,2.73158e-06,0,4.51897e-07,-3.81013e+08,-3.80712e+08,-3.80899e+08,31000.1,-0.00405921,0.177176,-0,0.177222,-37563.3,-13868.7,-0,40041.8,31000.1
step02_gravity_refstate-crust.xmf,853,-1.65638e-06,2.47203e-06,0,-2.54167e-09,-3.43127e+08,-3.42844e+08,-3.43014e+08,-174.359,-7.86093e-19,0.179741,-0,0.179741,-40000,-12489,-0,41904.4,174.359
step02_gravity_refstate-crust.xmf,854,-2.42438e-06,5.60623e-06,0,5.18507e-06,-8.48173e+08,-8.47622e+08,-8.48006e+08,355696,-0.0459407,0.186143,-0,0.191728,-19767,-30877.4,-0,36662.7,355696
step02_gravity_refstate-crust.xmf,855,-1.51617e-06,3.44947e-06,0,2.47023e-06,-5.22684e+08,-5.22344e+08,-5.2258e+08,169458,-0.0209689,0.185832,-0,0.187011,-27917.5,-19028.1,-0,33785.4,169458
step02_gravity_refstate-crust.xmf,856,-1.62235e-06,3.86366e-06,0,2.77211e-06,-5.8107e+08,-5.80694e+08,-5.80959e+08,190167,-0.0239099,0.182451,-0,0.184011,-26953.3,-21153.9,-0,34263.2,190167
step02_gravity_refstate-crust.xmf,857,-1.66529e-06,3.31255e-06,0,1.24871e-06,-4.65736e+08,-4.65395e+08,-4.65622e+08,85661.3,-0.0108257,0.173802,-0,0.174139,-33720.9,-16954,-0,37743.1,85661.3
step02_gravity_refstate-crust.xmf,858,-1.61082e-06,4.04288e-06,0,3.39603e-06,-6.33791e+08,-6.33403e+08,-6.33681e+08,232967,-0.029509,0.188108,-0,0.190408,-24465.1,-23073.5,-0,33629.3,232967
step02_gravity_refstate-crust.xmf,859,-1.69631e-06,4.276e-06,0,3.69121e-06,-6.71617e+08,-6.71207e+08,-6.715e+08,253217,-0.0323391,0.188028,-0,0.190789,-23544.4,-24450.6,-0,33943.7,253217
step02_gravity_refstate-crust.xmf,860,-2.24555e-06,5.33984e-06,0,4.77755e-06,-8.12732e+08,-8.12212e+08,-8.12578e+08,327740,-0.0426761,0.184626,-0,0.189494,-20709.4,-29587.5,-0,36115.1,327740
step02_gravity_refstate-crust.xmf,861,-1.84646e-06,4.62399e-06,0,4.02452e-06,-7.20278e+08,-7.19834e+08,-7.20151e+08,276082,-0.0357083,0.186423,-0,0.189812,-22613.3,-26222.1,-0,34626,276082
step02_gravity_refstate-crust.xmf,862,-2.03721e-06,4.99706e-06,0,4.38729e-06,-7.68973e+08,-7.68491e+08,-7.68834e+08,300968,-0.0392263,0.184981,-0,0.189094,-21663.6,-27994.7,-0,35398,300968
step02_gravity_refstate-crust.xmf,863,-2.8022e-06,6.32956e-06,0,4.86312e-06,-8.79975e+08,-8.79348e+08,-8.79783e+08,333610,-0.0446124,0.171975,-0,0.177667,-20534.8,-32034.8,-0,38051.4,333610
step02_gravity_refstate-crust.xmf,864,-3.09577e-06,6.82831e-06,0,4.99679e-06,-9.13301e+08,-9.1262e+08,-9.13089e+08,342780,-0.0460581,0.168034,-0,0.174232,-20119.5,-33247.7,-0,38861.3,342780
step02_gravity_refstate-crust.xmf,865,-3.47461e-06,7.38679e-06,0,5.24257e-06,-9.50211e+08,-9.49466e+08,-9.49973e+08,359640,-0.0479961,0.165175,-0,0.172007,-19478.4,-34590.8,-0,39698,359640
step02_gravity_refstate-crust.xmf,866,-3.93412e-06,8.02455e-06,0,5.55126e-06,-9.87475e+08,-9.86654e+08,-9.87205e+08,380817,-0.0500965,0.163179,-0,0.170695,-18733.2,-35946.5,-0,40535,380817
step02_gravity_refstate-crust.xmf,867,-4.91122e-06,9.93634e-06,0,4.6872e-06,-1.06264e+09,-1.06162e+09,-1.0623e+09,321542,-0.0447553,0.135799,-0,0.142984,-18980.3,-38682,-0,43087.7,321542
step02_gravity_refstate-crust.xmf,868,-1.69249e-06,4.12556e-06,0,3.06334e-06,-6.21842e+08,-6.21443e+08,-6.21726e+08,210145,-0.0267548,0.181817,-0,0.183775,-25908,-22638.3,-0,34405.2,210145
step02_gravity_refstate-crust.xmf,869,-1.64526e-06,3.61644e-06,0,1.96607e-06,-5.20568e+08,-5.20207e+08,-5.20455e+08,134873,-0.0169382,0.176292,-0,0.177103,-30437,-18950.7,-0,35854.4,134873
step02_gravity_refstate-crust.xmf,870,-1.73365e-06,3.718e-06,0,1.44802e-06,-5.18171e+08,-5.17797e+08,-5.18052e+08,99334.1,-0.0126067,0.168902,-0,0.169372,-32975.4,-18863.3,-0,37989.5,99334.1
step02_gravity_refstate-crust.xmf,871,-1.77527e-06,3.69776e-06,0,9.41837e-07,-5.07067e+08,-5.06692e+08,-5.06946e+08,64610,-0.00821433,0.165151,-0,0.165356,-35424.9,-18458.8,-0,39945.6,64610
step02_gravity_refstate-crust.xmf,872,-1.73747e-06,3.3545e-06,0,4.61473e-07,-4.60739e+08,-4.6039e+08,-4.6062e+08,31657,-0.00400842,0.168226,-0,0.168274,-37700.5,-16771.8,-0,41262.8,31657
step02_gravity_refstate-crust.xmf,873,-1.70325e-06,3.05732e-06,0,-1.9551e-09,-4.21658e+08,-4.21331e+08,-4.21541e+08,-134.12,-7.72014e-19,0.171835,-0,0.171835,-40000,-15348.7,-0,42843.7,134.12
step02_gravity_refstate-crust.xmf,874,-2.67561e-06,6.18974e-06,0,4.44739e-06,-8.5732e+08,-8.56712e+08,-8.57136e+08,305091,-0.0414824,0.167685,-0,0.17274,-21588.2,-31210.3,-0,37949.1,305091
step02_gravity_refstate-crust.xmf,875,-4.35692e-06,8.98044e-06,0,4.72584e-06,-1.02414e+09,-1.02323e+09,-1.02384e+09,324193,-0.0451593,0.14257,-0,0.149551,-19537.3,-37281.2,-0,42090.3,324193
step02_gravity_refstate-crust.xmf,876,-1.84502e-06,4.5366e-06,0,3.16697e-06,-6.66777e+08,-6.66339e+08,-6.6665e+08,217254,-0.0283833,0.175915,-0,0.17819,-25692.2,-24274.2,-0,35345.8,217254
step02_gravity_refstate-crust.xmf,877,-1.75146e-06,4.07043e-06,0,2.2832e-06,-5.81661e+08,-5.81262e+08,-5.81541e+08,156628,-0.0200413,0.172186,-0,0.173348,-29253.9,-21175.2,-0,36113.4,156628
step02_gravity_refstate-crust.xmf,878,-1.87461e-06,4.53147e-06,0,2.66517e-06,-6.43766e+08,-6.43327e+08,-6.43638e+08,182831,-0.0240044,0.169042,-0,0.170737,-27756.1,-23436.4,-0,36327.2,182831
step02_gravity_refstate-crust.xmf,879,-2.00387e-06,4.94094e-06,0,3.4537e-06,-7.17015e+08,-7.16539e+08,-7.16878e+08,236924,-0.0315643,0.173037,-0,0.175893,-24714.1,-26103.2,-0,35946.7,236924
step02_gravity_refstate-crust.xmf,880,-2.48853e-06,5.95339e-06,0,4.02554e-06,-8.23893e+08,-8.23314e+08,-8.23722e+08,276152,-0.0380362,0.165443,-0,0.16976,-22771.8,-29993.8,-0,37658.8,276152
step02_gravity_refstate-crust.xmf,881,-2.20937e-06,5.39544e-06,0,3.73763e-06,-7.68616e+08,-7.68094e+08,-7.68464e+08,256401,-0.0347693,0.169621,-0,0.173147,-23758.2,-27981.6,-0,36707.2,256401
step02_gravity_refstate-crust.xmf,882,-3.05166e-06,6.97807e-06,0,4.23898e-06,-9.03699e+08,-9.03011e+08,-9.0349e+08,290794,-0.0409638,0.154824,-0,0.160152,-21792.6,-32898.5,-0,39461.8,290794
step02_gravity_refstate-crust.xmf,883,-3.4372e-06,7.64506e-06,0,4.36229e-06,-9.48199e+08,-9.47439e+08,-9.47964e+08,299253,-0.0424325,0.149346,-0,0.155257,-21098.2,-34518.1,-0,40455.3,299253
step02_gravity_refstate-crust.xmf,884,-3.86064e-06,8.2987e-06,0,4.53961e-06,-9.8676e+08,-9.85926e+08,-9.86495e+08,311417,-0.0439149,0.145835,-0,0.152303,-20325.2,-35921.2,-0,41272.9,311417
step02_gravity_refstate-crust.xmf,885,-4.54077e-06,9.87721e-06,0,3.64057e-06,-1.06161e+09,-1.06062e+09,-1.0613e+09,249743,-0.0379415,0.119972,-0,0.125829,-20442.6,-38645.9,-0,43719.7,249743
step02_gravity_refstate-crust.xmf,886,-1.82929e-06,4.19456e-06,0,1.75802e-06,-5.79858e+08,-5.79445e+08,-5.79733e+08,120600,-0.0156357,0.163684,-0,0.164429,-31697.9,-21109.4,-0,38083.6,120600
step02_gravity_refstate-crust.xmf,887,-1.87189e-06,4.24676e-06,0,1.23453e-06,-5.75834e+08,-5.75415e+08,-5.75706e+08,84688.5,-0.011063,0.157715,-0,0.158102,-34147.8,-20962.8,-0,40068.9,84688.5
step02_gravity_refstate-crust.xmf,888,-1.84202e-06,3.96168e-06,0,4.46768e-07,-5.34456e+08,-5.34058e+08,-5.34329e+08,30648.3,-0.00394604,0.158276,-0,0.158325,-37859.3,-19456.1,-0,42566,30648.3
step02_gravity_refstate-crust.xmf,889,-1.79525e-06,3.66787e-06,0,-1.20162e-09,-4.97692e+08,-4.97317e+08,-4.97569e+08,-82.431,-7.5935e-19,0.162526,-0,0.162526,-40000,-18117.4,-0,43911.7,82.431
step02_gravity_refstate-crust.xmf,890,-2.80009e-06,6.60592e-06,0,3.9216e-06,-8.71332e+08,-8.70687e+08,-8.7114e+08,269021,-0.0382769,0.154563,-0,0.159232,-22781.5,-31720.6,-0,39053.7,269021
step02_gravity_refstate-crust.xmf,891,-4.07377e-06,9.03298e-06,0,3.68291e-06,-1.02413e+09,-1.02323e+09,-1.02385e+09,252647,-0.0382604,0.125612,-0,0.131309,-21173.3,-37282.1,-0,42875,252647
step02_gravity_refstate-crust.xmf,892,-2.06774e-06,5.09666e-06,0,2.88806e-06,-7.09513e+08,-7.09021e+08,-7.09371e+08,198121,-0.0269714,0.161875,-0,0.164106,-26892.5,-25830,-0,37288,198121
step02_gravity_refstate-crust.xmf,893,-1.94642e-06,4.69285e-06,0,2.05435e-06,-6.42328e+08,-6.41872e+08,-6.42194e+08,140928,-0.0189045,0.15801,-0,0.159137,-30412.1,-23384,-0,38362.8,140928
step02_gravity_refstate-crust.xmf,894,-1.88778e-06,4.25625e-06,0,7.95994e-07,-5.71975e+08,-5.71553e+08,-5.71845e+08,54605.2,-0.00714922,0.154505,-0,0.154671,-36220.6,-20822.3,-0,41779.2,54605.2
step02_gravity_refstate-crust.xmf,895,-2.2611e-06,5.6045e-06,0,3.12304e-06,-7.65179e+08,-7.6464e+08,-7.65024e+08,214241,-0.0300382,0.156905,-0,0.159754,-25849.3,-27856.6,-0,38002.3,214241
step02_gravity_refstate-crust.xmf,896,-2.48214e-06,6.11712e-06,0,3.31052e-06,-8.16347e+08,-8.15757e+08,-8.16176e+08,227101,-0.0325911,0.151709,-0,0.155171,-24936.9,-29719.3,-0,38795.5,227101
step02_gravity_refstate-crust.xmf,897,-2.73001e-06,6.66147e-06,0,3.40517e-06,-8.64352e+08,-8.63707e+08,-8.64164e+08,233595,-0.0343147,0.145398,-0,0.149392,-24228.7,-31466.9,-0,39713.9,233595
step02_gravity_refstate-crust.xmf,898,-3.00015e-06,7.20435e-06,0,3.47847e-06,-9.07394e+08,-9.06694e+08,-9.07189e+08,238623,-0.0356602,0.139728,-0,0.144206,-23526,-33033.6,-0,40554.8,238623
step02_gravity_refstate-crust.xmf,899,-3.29919e-06,7.752e-06,0,3.57235e-06,-9.46542e+08,-9.45784e+08,-9.46316e+08,245064,-0.0369268,0.135255,-0,0.140205,-22748.1,-34458.5,-0,41290,245064
step02_gravity_refstate-crust.xmf,900,-3.65964e-06,8.38325e-06,0,3.6413e-06,-9.86022e+08,-9.85196e+08,-9.85771e+08,249793,-0.0378405,0.130519,-0,0.135894,-21950,-35895.3,-0,42074.6,249793
step02_gravity_refstate-crust.xmf,901,-4.06727e-06,9.67559e-06,0,2.6986e-06,-1.06155e+09,-1.06061e+09,-1.06127e+09,185124,-0.0311536,0.105154,-0,0.109672,-22019.8,-38645.2,-0,44478.4,185124
step02_gravity_refstate-crust.xmf,902,-2.08462e-06,5.19699e-06,0,2.32107e-06,-7.03197e+08,-7.02697e+08,-7.03054e+08,159225,-0.0221653,0.152109,-0,0.153715,-29165,-25600.2,-0,38806.8,159225
step02_gravity_refstate-crust.xmf,903,-1.97586e-06,4.7719e-06,0,1.50373e-06,-6.40871e+08,-6.40408e+08,-6.40736e+08,103156,-0.0140173,0.150166,-0,0.150819,-32899,-23331,-0,40332.1,103156
step02_gravity_refstate-crust.xmf,904,-1.9821e-06,4.82176e-06,0,9.15729e-07,-6.40199e+08,-6.39732e+08,-6.40063e+08,62819,-0.00863719,0.144179,-0,0.144437,-35622.9,-23306.5,-0,42569.8,62819
step02_gravity_refstate-crust.xmf,905,-1.94095e-06,4.56097e-06,0,4.33582e-07,-6.06373e+08,-6.05927e+08,-6.0624e+08,29743.7,-0.00399702,0.147055,-0,0.14711,-37937.1,-22074.8,-0,43892.1,29743.7
step02_gravity_refstate-crust.xmf,906,-1.89671e-06,4.27842e-06,0,-5.37277e-10,-5.71412e+08,-5.70988e+08,-5.71282e+08,-36.8572,-7.70745e-19,0.151861,-0,0.151861,-40000,-20801.8,-0,45085.6,36.8572
step02_gravity_refstate-crust.xmf,907,-3.69968e-06,8.92233e-06,0,2.81794e-06,-1.02401e+09,-1.02315e+09,-1.02376e+09,193311,-0.0319224,0.111282,-0,0.115771,-22805.4,-37279.1,-0,43701.5,193311
step02_gravity_refstate-crust.xmf,908,-2.25292e-06,5.70073e-06,0,2.54615e-06,-7.61203e+08,-7.60658e+08,-7.61049e+08,174666,-0.0251403,0.145997,-0,0.148146,-28007.1,-27712.1,-0,39400,174666
step02_gravity_refstate-crust.xmf,909,-2.07866e-06,5.27648e-06,0,1.76536e-06,-7.02125e+08,-7.01621e+08,-7.01983e+08,121104,-0.0172317,0.143181,-0,0.144215,-31530.4,-25561.3,-0,40590,121104
step02_gravity_refstate-crust.xmf,910,-2.4269e-06,6.2096e-06,0,2.69649e-06,-8.13445e+08,-8.12852e+08,-8.13278e+08,184979,-0.0275794,0.140071,-0,0.14276,-26978.7,-29614.1,-0,40060.5,184979
step02_gravity_refstate-crust.xmf,911,-2.62282e-06,6.71163e-06,0,2.7868e-06,-8.6107e+08,-8.6043e+08,-8.60891e+08,191175,-0.0293367,0.133951,-0,0.137126,-26103.2,-31347.9,-0,40793,191175
step02_gravity_refstate-crust.xmf,912,-2.83616e-06,7.22143e-06,0,2.82653e-06,-9.05029e+08,-9.04339e+08,-9.04835e+08,193900,-0.0305292,0.127831,-0,0.131426,-25305,-32948.2,-0,41544.3,193900
step02_gravity_refstate-crust.xmf,913,-3.08343e-06,7.75588e-06,0,2.84921e-06,-9.46419e+08,-9.45675e+08,-9.46207e+08,195456,-0.0314133,0.12217,-0,0.126144,-24476.9,-34454.9,-0,42264.1,195456
step02_gravity_refstate-crust.xmf,914,-3.36935e-06,8.33472e-06,0,2.84387e-06,-9.86034e+08,-9.85232e+08,-9.85803e+08,195089,-0.0318923,0.116677,-0,0.120957,-23641.2,-35896.8,-0,42982.4,195089
step02_gravity_refstate-crust.xmf,915,-3.55186e-06,9.3719e-06,0,1.93714e-06,-1.06163e+09,-1.06074e+09,-1.06139e+09,132887,-0.0250823,0.0925947,-0,0.0959318,-23609.2,-38649.8,-0,45290.2,132887
step02_gravity_refstate-crust.xmf,916,-2.19329e-06,5.74371e-06,0,1.97831e-06,-7.57421e+08,-7.56876e+08,-7.5727e+08,135712,-0.0201051,0.136725,-0,0.138195,-30270.2,-27574.7,-0,40946.9,135712
step02_gravity_refstate-crust.xmf,917,-2.06213e-06,5.31164e-06,0,1.22001e-06,-7.01679e+08,-7.01173e+08,-7.01538e+08,83692.9,-0.012062,0.136086,-0,0.136619,-34033,-25545.2,-0,42553.5,83692.9
step02_gravity_refstate-crust.xmf,918,-2.00742e-06,5.13519e-06,0,4.24201e-07,-6.77036e+08,-6.76546e+08,-6.76898e+08,29100.2,-0.00415801,0.134596,-0,0.13466,-37919.2,-24648,-0,45226,29100.2
step02_gravity_refstate-crust.xmf,919,-1.97645e-06,4.8664e-06,0,4.86409e-10,-6.42997e+08,-6.42528e+08,-6.42861e+08,33.3677,-8.0501e-19,0.139942,-0,0.139942,-40000,-23408.5,-0,46346.1,33.3677
step02_gravity_refstate-crust.xmf,920,-3.28059e-06,8.71604e-06,0,2.10566e-06,-1.02449e+09,-1.02367e+09,-1.02426e+09,144448,-0.0261511,0.0989729,-0,0.10237,-24445.5,-37297.8,-0,44594.9,144448
step02_gravity_refstate-crust.xmf,921,-2.33871e-06,6.21523e-06,0,2.14637e-06,-8.10622e+08,-8.10035e+08,-8.10462e+08,147241,-0.0225908,0.130174,-0,0.13212,-29084.4,-29511.7,-0,41434.8,147241
step02_gravity_refstate-crust.xmf,922,-2.12314e-06,5.77861e-06,0,1.4183e-06,-7.58619e+08,-7.58077e+08,-7.58474e+08,97295.1,-0.0148552,0.128126,-0,0.128984,-32701.6,-27618.7,-0,42804,97295.1
step02_gravity_refstate-crust.xmf,923,-2.03948e-06,5.36405e-06,0,7.69444e-07,-7.06747e+08,-7.06239e+08,-7.06607e+08,52783.9,-0.00771747,0.130965,-0,0.131193,-36166.3,-25729.9,-0,44385,52783.9
step02_gravity_refstate-crust.xmf,924,-2.47052e-06,6.70441e-06,0,2.20326e-06,-8.59871e+08,-8.59241e+08,-8.59701e+08,151143,-0.0242549,0.12325,-0,0.125614,-28106.7,-31304.8,-0,42071.1,151143
step02_gravity_refstate-crust.xmf,925,-2.62626e-06,7.18658e-06,0,2.20992e-06,-9.05454e+08,-9.0478e+08,-9.05273e+08,151601,-0.0252813,0.116353,-0,0.119068,-27221,-32964.4,-0,42750.9,151601
step02_gravity_refstate-crust.xmf,926,-2.81113e-06,7.65516e-06,0,2.21924e-06,-9.45055e+08,-9.44337e+08,-9.44862e+08,152240,-0.0261107,0.110869,-0,0.113902,-26300.1,-34406.2,-0,43306.8,152240
step02_gravity_refstate-crust.xmf,927,-3.02394e-06,8.20083e-06,0,2.14735e-06,-9.88328e+08,-9.87558e+08,-9.88121e+08,147308,-0.0261403,0.103941,-0,0.107178,-25389.2,-35981.5,-0,44037.3,147308
step02_gravity_refstate-crust.xmf,928,-3.02547e-06,8.99958e-06,0,1.33974e-06,-1.06123e+09,-1.0604e+09,-1.06102e+09,91906.1,-0.0197934,0.0821125,-0,0.0844644,-25230.4,-38636.8,-0,46145.2,91906.1
step02_gravity_refstate-crust.xmf,929,-2.22844e-06,6.18947e-06,0,1.65958e-06,-8.08757e+08,-8.08179e+08,-8.08604e+08,113847,-0.0179552,0.122319,-0,0.12363,-31132.5,-29444.2,-0,42850.8,113847
step02_gravity_refstate-crust.xmf,930,-2.06356e-06,5.75969e-06,0,8.75617e-07,-7.58423e+08,-7.57887e+08,-7.58282e+08,60067.3,-0.00926987,0.121815,-0,0.122167,-35381.8,-27611.7,-0,44880.7,60067.3
step02_gravity_refstate-crust.xmf,931,-2.00683e-06,5.70649e-06,0,4.1276e-07,-7.52333e+08,-7.51804e+08,-7.52195e+08,28315.4,-0.00441496,0.119846,-0,0.119927,-37787.6,-27390.1,-0,46670.3,28315.4
step02_gravity_refstate-crust.xmf,932,-2.00847e-06,5.41133e-06,0,1.85187e-09,-7.12623e+08,-7.12114e+08,-7.12485e+08,127.038,-8.60292e-19,0.126913,-0,0.126913,-40000,-25944,-0,47676.9,127.038
step02_gravity_refstate-crust.xmf,933,-2.87808e-06,8.49631e-06,0,1.5545e-06,-1.02569e+09,-1.02491e+09,-1.02549e+09,106639,-0.0212638,0.0889557,-0,0.0914618,-25997.5,-37342.6,-0,45501,106639
step02_gravity_refstate-crust.xmf,934,-2.31206e-06,6.6271e-06,0,1.70557e-06,-8.58555e+08,-8.57941e+08,-8.58396e+08,117002,-0.0193857,0.114382,-0,0.116014,-30161.6,-31257.4,-0,43436.8,117002
step02_gravity_refstate-crust.xmf,935,-2.05342e-06,6.20013e-06,0,1.00691e-06,-8.16827e+08,-8.16261e+08,-8.16686e+08,69074.1,-0.0115483,0.111781,-0,0.112376,-34092.7,-29738.7,-0,45240.5,69074.1
step02_gravity_refstate-crust.xmf,936,-2.14531e-06,6.54146e-06,0,1.26975e-06,-8.57218e+08,-8.56623e+08,-8.57071e+08,87104.8,-0.0148797,0.10749,-0,0.108515,-32211.8,-31209.3,-0,44851.1,87104.8
step02_gravity_refstate-crust.xmf,937,-2.3801e-06,7.09091e-06,0,1.66759e-06,-9.07097e+08,-9.06447e+08,-9.06934e+08,114397,-0.0202072,0.106188,-0,0.108093,-29224.3,-33025.1,-0,44099,114397
step02_gravity_refstate-crust.xmf,938,-2.47698e-06,7.56771e-06,0,1.57739e-06,-9.54589e+08,-9.539e+08,-9.54419e+08,108209,-0.0203544,0.0977947,-0,0.0998905,-28286.6,-34754.5,-0,44810.7,108209
step02_gravity_refstate-crust.xmf,939,-2.58767e-06,8.11148e-06,0,1.38747e-06,-1.00502e+09,-1.00428e+09,-1.00484e+09,95180.3,-0.019529,0.0883006,-0,0.0904344,-27286.8,-36590.8,-0,45644.8,95180.3
step02_gravity_refstate-crust.xmf,940,-2.52635e-06,8.5866e-06,0,9.07489e-07,-1.05807e+09,-1.05731e+09,-1.0579e+09,62253.8,-0.0155486,0.0741717,-0,0.0757839,-26890.3,-38523.3,-0,46980.1,62253.8
step02_gravity_refstate-crust.xmf,941,-2.00287e-06,6.4971e-06,0,9.44923e-07,-8.61567e+08,-8.60984e+08,-8.61429e+08,64821.7,-0.0114451,0.102042,-0,0.102682,-33835.4,-31368.2,-0,46138.9,64821.7
step02_gravity_refstate-crust.xmf,942,-1.98244e-06,6.13689e-06,0,5.83372e-07,-8.14847e+08,-8.1429e+08,-8.14711e+08,40019.3,-0.0067012,0.107784,-0,0.107992,-36518.5,-29666.8,-0,47050.2,40019.3
step02_gravity_refstate-crust.xmf,943,-1.97012e-06,5.89244e-06,0,1.24398e-09,-7.80454e+08,-7.79915e+08,-7.80319e+08,85.3371,-5.60102e-19,0.112955,-0,0.112955,-40000,-28414.4,-0,49065,85.3371
step02_gravity_refstate-crust.xmf,944,-2.15872e-06,6.9313e-06,0,1.23838e-06,-9.06567e+08,-9.05944e+08,-9.06419e+08,84952.6,-0.0155698,0.0983772,-0,0.0996017,-31286.1,-33006.5,-0,45478,84952.6
step02_gravity_refstate-crust.xmf,945,-1.90183e-06,6.49974e-06,0,6.51861e-07,-8.71788e+08,-8.71212e+08,-8.71658e+08,44717.7,-0.00819084,0.0963695,-0,0.096717,-35423.6,-31740.7,-0,47563.7,44717.7
step02_gravity_refstate-crust.xmf,946,-1.95139e-06,6.78106e-06,0,8.74758e-07,-9.04447e+08,-9.03848e+08,-9.04313e+08,60008.4,-0.0114122,0.0928244,-0,0.0935233,-33364.2,-32929.9,-0,46878,60008.4
step02_gravity_refstate-crust.xmf,947,-1.92723e-06,6.10187e-06,0,2.49284e-07,-8.13553e+08,-8.13002e+08,-8.13421e+08,17100.9,-0.0028492,0.10616,-0,0.106198,-38508,-29619.9,-0,48581.9,17100.9
step02_gravity_refstate-crust.xmf,948,-2.13641e-06,7.34886e-06,0,1.11488e-06,-9.55854e+08,-9.55203e+08,-9.55707e+08,76481.1,-0.015537,0.0888921,-0,0.0902397,-30344.9,-34801.6,-0,46173.2,76481.1
step02_gravity_refstate-crust.xmf,949,-2.1287e-06,7.76568e-06,0,9.24206e-07,-1.0043e+09,-1.00362e+09,-1.00415e+09,63400.5,-0.0145808,0.0791306,-0,0.0804627,-29406.3,-36565.8,-0,46923.2,63400.5
step02_gravity_refstate-crust.xmf,950,-2.07811e-06,8.17608e-06,0,6.12061e-07,-1.0528e+09,-1.0521e+09,-1.05266e+09,41987.4,-0.0122137,0.0683442,-0,0.069427,-28575.1,-38332.6,-0,47811.4,41987.4
step02_gravity_refstate-crust.xmf,951,-1.76563e-06,6.45845e-06,0,2.72474e-07,-8.75624e+08,-8.7506e+08,-8.75503e+08,18691.7,-0.00362108,0.0923641,-0,0.0924351,-37919.5,-31880.8,-0,49540.6,18691.7
step02_gravity_refstate-crust.xmf,952,-1.8284e-06,6.28598e-06,0,5.37206e-09,-8.46647e+08,-8.46091e+08,-8.46522e+08,368.523,-7.18241e-19,0.0982694,-0,0.0982694,-40000,-30825.4,-0,50499.5,368.523
step02_gravity_refstate-crust.xmf,953,-1.87069e-06,7.10687e-06,0,7.86389e-07,-9.54086e+08,-9.5347e+08,-9.53958e+08,53946.3,-0.0114434,0.0826796,-0,0.0834678,-32443.5,-34737.9,-0,47532.1,53946.3
step02_gravity_refstate-crust.xmf,954,-1.62705e-06,6.89852e-06,0,4.9154e-07,-9.48017e+08,-9.47432e+08,-9.47905e+08,33719.6,-0.00761512,0.0789016,-0,0.0792682,-34788.5,-34517.6,-0,49007.2,33719.6
step02_gravity_refstate-crust.xmf,955,-1.7439e-06,7.4585e-06,0,5.99091e-07,-1.00446e+09,-1.00383e+09,-1.00434e+09,41097.6,-0.0106504,0.072214,-0,0.0729952,-31428.9,-36572.9,-0,48221.9,41097.6
step02_gravity_refstate-crust.xmf,956,-1.61627e-06,7.77804e-06,0,3.36694e-07,-1.05231e+09,-1.05167e+09,-1.0522e+09,23097.2,-0.00869882,0.061752,-0,0.0623617,-30499.8,-38315.9,-0,48972.9,23097.2
step02_gravity_refstate-crust.xmf,957,-1.60673e-06,6.68871e-06,0,3.50656e-07,-9.23231e+08,-9.22662e+08,-9.23121e+08,24055,-0.00516337,0.0821973,-0,0.0823593,-36667.4,-33615,-0,49744,24055
step02_gravity_refstate-crust.xmf,958,-1.58435e-06,6.58522e-06,0,4.25102e-09,-9.11375e+08,-9.10814e+08,-9.11266e+08,291.62,-4.64784e-19,0.0830979,-0,0.0830979,-40000,-33183.3,-0,51972.4,291.62
step02_gravity_refstate-crust.xmf,959,-1.46883e-06,7.17794e-06,0,3.97403e-07,-1.0022e+09,-1.0016e+09,-1.0021e+09,27261.8,-0.00750115,0.0676142,-0,0.068029,-33485.9,-36491.1,-0,49526.8,27261.8
step02_gravity_refstate-crust.xmf,960,-1.43518e-06,6.70817e-06,0,1.40639e-07,-9.43486e+08,-9.42927e+08,-9.43387e+08,9647.84,-0.00228999,0.075787,-0,0.0758216,-38380.5,-34353.1,-0,51509.2,9647.84
step02_gravity_refstate-crust.xmf,961,-1.29764e-06,6.85109e-06,0,2.11583e-07,-9.76877e+08,-9.76318e+08,-9.76788e+08,14514.6,-0.00389929,0.0688027,-0,0.0689131,-36816.5,-35569.5,-0,51192.3,14514.6
step02_gravity_refstate-crust.xmf,962,-1.22486e-06,7.42707e-06,0,1.57247e-07,-1.052e+09,-1.05141e+09,-1.05192e+09,10787.1,-0.00591357,0.0566006,-0,0.0569087,-32475.8,-38305.7,-0,50219.5,10787.1
step02_gravity_refstate-crust.xmf,963,-1.23939e-06,7.00135e-06,0,2.41976e-07,-1.00349e+09,-1.00293e+09,-1.00341e+09,16599.6,-0.00500414,0.0639834,-0,0.0641788,-35318.6,-36539.1,-0,50818.3,16599.6
step02_gravity_refstate-crust.xmf,964,-1.20929e-06,6.76278e-06,0,6.44803e-09,-9.74804e+08,-9.74257e+08,-9.74721e+08,442.335,-3.38038e-19,0.0676736,-0,0.0676736,-40000,-35494.3,-0,53477.5,442.335
step02_gravity_refstate-crust.xmf,965,-9.65695e-07,7.13435e-06,0,7.87847e-08,-1.04943e+09,-1.04888e+09,-1.04937e+09,5404.63,-0.00387213,0.0533885,-0,0.0535288,-34511.4,-38212.9,-0,51490.4,5404.63
step02_gravity_refstate-crust.xmf,966,-1.01509e-06,6.82718e-06,0,6.12756e-08,-1.00443e+09,-1.0039e+09,-1.00436e+09,4203.5,-0.00160752,0.0607542,-0,0.0607755,-38382.2,-36573.9,-0,53017.4,4203.5
step02_gravity_refstate-crust.xmf,967,-7.89793e-07,6.93763e-06,0,3.75279e-08,-1.04105e+09,-1.04052e+09,-1.04099e+09,2574.41,-0.00237048,0.0528362,-0,0.0528893,-36659.9,-37907.9,-0,52734.8,2574.41
step02_gravity_refstate-crust.xmf,968,-7.01305e-07,6.81403e-06,0,3.9948e-09,-1.0371e+09,-1.03659e+09,-1.03705e+09,274.044,-1.99934e-19,0.052255,-0,0.052255,-40000,-37764.5,-0,55010.5,274.044
step02_gravity_refstate-crust.xmf,969,-5.91601e-07,6.83709e-06,0,-1.79294e-09,-1.0539e+09,-1.05339e+09,-1.05386e+09,-122.996,-0.000905191,0.0484519,-0,0.0484604,-38363.5,-38376.4,-0,54263.3,122.996
