Block Name,Point ID,cauchy_strain_0,cauchy_strain_1,cauchy_strain_2,cauchy_strain_3,cauchy_stress_0,cauchy_stress_1,cauchy_stress_2,cauchy_stress_3,displacement_0,displacement_1,displacement_2,displacement_Magnitude,Points_0,Points_1,Points_2,Points_Magnitude,stress_xy
step02_gravity_refstate-mantle.xmf,0,-9.47214e-07,1.20626e-06,0,-5.023e-08,-1.09883e+09,-1.09854e+09,-1.0987e+09,-6713.24,-0.00222445,0.0373275,-0,0.0373937,-37663.8,-40000,-0,54941.4,6713.24
step02_gravity_refstate-mantle.xmf,1,-9.55259e-07,1.21701e-06,0,-9.05412e-10,-1.09883e+09,-1.09854e+09,-1.0987e+09,-121.008,2.57903e-20,0.0376801,0,0.0376801,-40000,-40000,-0,56568.5,121.008
step02_gravity_refstate-mantle.xmf,2,-1.06384e-06,1.30678e-06,0,-2.41136e-08,-1.14086e+09,-1.14055e+09,-1.14072e+09,-3222.78,-0.0013508,0.0359411,-0,0.0359665,-38731.6,-41298,-0,56618.6,3222.78
step02_gravity_refstate-mantle.xmf,3,-1.15911e-06,1.38904e-06,0,-1.37528e-09,-1.17645e+09,-1.17611e+09,-1.17629e+09,-183.806,4.23919e-20,0.0345578,0,0.0345578,-40000,-42396.8,-0,58288,183.806
step02_gravity_refstate-mantle.xmf,4,-1.08484e-06,1.31685e-06,0,-5.40334e-08,-1.1518e+09,-1.15148e+09,-1.15166e+09,-7221.56,-0.00306359,0.0351112,-0,0.0352446,-37191.2,-41635.8,-0,55827.6,7221.56
step02_gravity_refstate-mantle.xmf,5,-9.24016e-07,1.17256e-06,0,-1.01986e-07,-1.09882e+09,-1.09854e+09,-1.0987e+09,-13630.4,-0.00430617,0.0363264,-0,0.0365808,-35440.8,-40000,-0,53442,13630.4
step02_gravity_refstate-mantle.xmf,6,-1.23656e-06,1.45089e-06,0,-3.61361e-08,-1.20864e+09,-1.20828e+09,-1.20847e+09,-4829.59,-0.00256266,0.0328969,-0,0.0329966,-37929.1,-43390.9,-0,57631.5,4829.59
step02_gravity_refstate-mantle.xmf,7,-1.15514e-06,1.36227e-06,0,-8.20013e-08,-1.18413e+09,-1.18379e+09,-1.18397e+09,-10959.5,-0.00514872,0.0330784,-0,0.0334767,-35598.5,-42633.9,-0,55541.9,10959.5
step02_gravity_refstate-mantle.xmf,8,-8.91411e-07,1.12224e-06,0,-1.55452e-07,-1.09882e+09,-1.09855e+09,-1.0987e+09,-20776.2,-0.00622688,0.0347454,-0,0.035299,-33325.6,-40000,-0,52063.3,20776.2
step02_gravity_refstate-mantle.xmf,9,-1.0452e-06,1.25301e-06,0,-1.20171e-07,-1.15027e+09,-1.14997e+09,-1.15013e+09,-16060.9,-0.00640775,0.0334494,-0,0.0340576,-34039.6,-41588.7,-0,53743,16060.9
step02_gravity_refstate-mantle.xmf,10,-8.49486e-07,1.05634e-06,0,-2.13072e-07,-1.09882e+09,-1.09856e+09,-1.0987e+09,-28477,-0.00797654,0.0326333,-0,0.033594,-31312.8,-40000,-0,50798.5,28477
step02_gravity_refstate-mantle.xmf,11,-1.02819e-06,1.20762e-06,0,-1.6571e-07,-1.15331e+09,-1.15301e+09,-1.15317e+09,-22147.1,-0.00826795,0.0318108,-0,0.0328677,-32296.2,-41682.5,-0,52730.2,22147.1
step02_gravity_refstate-mantle.xmf,12,-7.98697e-07,9.8025e-07,0,-2.74728e-07,-1.09881e+09,-1.09857e+09,-1.0987e+09,-36717.3,-0.00955453,0.0300258,-0,0.0315094,-29397.5,-40000,-0,49640.9,36717.3
step02_gravity_refstate-mantle.xmf,13,-9.78556e-07,1.12466e-06,0,-2.26682e-07,-1.15e+09,-1.14972e+09,-1.14987e+09,-30296.1,-0.0101667,0.0296693,-0,0.0313628,-30322.1,-41580.4,-0,51462.2,30296.1
step02_gravity_refstate-mantle.xmf,14,-1.35214e-06,1.56135e-06,0,-1.34211e-09,-1.25455e+09,-1.25416e+09,-1.25437e+09,-179.373,4.95156e-20,0.0309997,0,0.0309997,-40000,-44808.6,-0,60065.1,179.373
step02_gravity_refstate-mantle.xmf,15,-9.17556e-07,1.02916e-06,0,-2.94526e-07,-1.14501e+09,-1.14475e+09,-1.14489e+09,-39363.4,-0.0118083,0.027083,-0,0.0295453,-28436.8,-41426.5,-0,50247.4,39363.4
step02_gravity_refstate-mantle.xmf,16,-7.47721e-07,8.93402e-07,0,-3.45504e-07,-1.09881e+09,-1.09859e+09,-1.09871e+09,-46176.6,-0.0109648,0.0269494,-0,0.0290947,-27575,-40000,-0,48583.7,46176.6
step02_gravity_refstate-mantle.xmf,17,-1.43496e-06,1.63328e-06,0,-3.28862e-08,-1.29309e+09,-1.29268e+09,-1.2929e+09,-4395.24,-0.00297438,0.0288756,-0,0.0290284,-37928.1,-45998.7,-0,59619,4395.24
step02_gravity_refstate-mantle.xmf,18,-1.21419e-06,1.3794e-06,0,-1.22937e-07,-1.21628e+09,-1.21594e+09,-1.21612e+09,-16430.5,-0.00802775,0.0303858,-0,0.0314284,-33536.9,-43627,-0,55027.6,16430.5
step02_gravity_refstate-mantle.xmf,19,-1.33854e-06,1.52363e-06,0,-6.99629e-08,-1.25704e+09,-1.25665e+09,-1.25686e+09,-9350.54,-0.00560714,0.0299498,-0,0.0304702,-35844.1,-44885.3,-0,57441.2,9350.54
step02_gravity_refstate-mantle.xmf,20,-1.14792e-06,1.27292e-06,0,-1.88274e-07,-1.20555e+09,-1.20522e+09,-1.20539e+09,-25162.8,-0.010584,0.028658,-0,0.03055,-31194.1,-43295.5,-0,53362.6,25162.8
step02_gravity_refstate-mantle.xmf,21,-1.07349e-06,1.15577e-06,0,-2.59883e-07,-1.19312e+09,-1.19282e+09,-1.19298e+09,-34733.4,-0.0125073,0.0265929,-0,0.0293874,-29178.2,-42911.8,-0,51892.2,34733.4
step02_gravity_refstate-mantle.xmf,22,-8.76973e-07,9.27796e-07,0,-3.80722e-07,-1.14701e+09,-1.14677e+09,-1.14689e+09,-50883.5,-0.0135786,0.0236107,-0,0.0272368,-26540.8,-41488.2,-0,49251.3,50883.5
step02_gravity_refstate-mantle.xmf,23,-6.98905e-07,7.94177e-07,0,-4.30059e-07,-1.09881e+09,-1.09861e+09,-1.09871e+09,-57477.4,-0.0122185,0.0234227,-0,0.0264181,-25840.6,-40000,-0,47620.8,57477.4
step02_gravity_refstate-mantle.xmf,24,-1.52471e-06,1.72919e-06,0,-1.60269e-09,-1.33338e+09,-1.33295e+09,-1.33318e+09,-214.2,5.30007e-20,0.0269947,0,0.0269947,-40000,-47243,-0,61902.3,214.2
step02_gravity_refstate-mantle.xmf,25,-6.53206e-07,6.94112e-07,0,-5.20538e-07,-1.0988e+09,-1.09862e+09,-1.09872e+09,-69569.9,-0.0133278,0.0194606,-0,0.023587,-24190.1,-40000,-0,46745.7,69569.9
step02_gravity_refstate-mantle.xmf,26,-7.82947e-07,8.03012e-07,0,-4.66043e-07,-1.13077e+09,-1.13056e+09,-1.13067e+09,-62286.6,-0.0141954,0.0207438,-0,0.0251359,-25010.1,-40986.9,-0,48014.9,62286.6
step02_gravity_refstate-mantle.xmf,27,-1.00515e-06,1.04967e-06,0,-3.27966e-07,-1.18213e+09,-1.18186e+09,-1.182e+09,-43832.7,-0.0138156,0.0244909,-0,0.028119,-27597.7,-42572.6,-0,50735.2,43832.7
step02_gravity_refstate-mantle.xmf,28,-6.08926e-07,5.86204e-07,0,-6.26069e-07,-1.0988e+09,-1.09864e+09,-1.09872e+09,-83674.1,-0.0143107,0.0150734,-0,0.0207846,-22619.3,-40000,-0,45952.5,83674.1
step02_gravity_refstate-mantle.xmf,29,-7.9598e-07,7.21639e-07,0,-5.67982e-07,-1.14536e+09,-1.14515e+09,-1.14525e+09,-75910.8,-0.0160742,0.0165356,-0,0.0230609,-23465.9,-41437.1,-0,47620.2,75910.8
step02_gravity_refstate-mantle.xmf,30,-1.59338e-06,1.79485e-06,0,-3.1051e-08,-1.37182e+09,-1.37137e+09,-1.37161e+09,-4149.96,-0.00332613,0.0247056,-0,0.0249285,-37913.7,-48430,-0,61505.4,4149.96
step02_gravity_refstate-mantle.xmf,31,-1.67082e-06,1.88969e-06,0,-1.79957e-09,-1.41316e+09,-1.41268e+09,-1.41294e+09,-240.513,5.51452e-20,0.0225364,0,0.0225364,-40000,-49706.7,-0,63802.5,240.513
step02_gravity_refstate-mantle.xmf,32,-5.67452e-07,4.76802e-07,0,-7.40813e-07,-1.0988e+09,-1.09866e+09,-1.09873e+09,-99009.6,-0.0151825,0.01027,-0,0.0183298,-21124.3,-40000,-0,45235.3,99009.6
step02_gravity_refstate-mantle.xmf,33,-7.232e-07,5.96524e-07,0,-6.76673e-07,-1.13499e+09,-1.13481e+09,-1.13489e+09,-90437.3,-0.0166274,0.0126857,-0,0.0209141,-22051,-41117.1,-0,46656.9,90437.3
step02_gravity_refstate-mantle.xmf,34,-1.50422e-06,1.6813e-06,0,-6.52587e-08,-1.33323e+09,-1.3328e+09,-1.33302e+09,-8721.83,-0.00622658,0.0261991,-0,0.0269289,-35889.7,-47238.1,-0,59325.4,8721.83
step02_gravity_refstate-mantle.xmf,35,-1.40677e-06,1.55362e-06,0,-1.08036e-07,-1.2974e+09,-1.29701e+09,-1.29721e+09,-14439.1,-0.00876919,0.0269522,-0,0.0283429,-33876.9,-46131.8,-0,57234.6,14439.1
step02_gravity_refstate-mantle.xmf,36,-1.30889e-06,1.41861e-06,0,-1.62492e-07,-1.26717e+09,-1.2668e+09,-1.26699e+09,-21717,-0.011043,0.0267555,-0,0.0289449,-31845,-45198.2,-0,55290,21717
step02_gravity_refstate-mantle.xmf,37,-1.22301e-06,1.28128e-06,0,-2.35854e-07,-1.24857e+09,-1.24824e+09,-1.24841e+09,-31521.9,-0.0133709,0.0251883,-0,0.0285172,-29686.9,-44624,-0,53596.8,31521.9
step02_gravity_refstate-mantle.xmf,38,-1.13002e-06,1.13985e-06,0,-3.15212e-07,-1.22746e+09,-1.22716e+09,-1.22731e+09,-42128,-0.0149806,0.0233458,-0,0.0277388,-27831.8,-43972.1,-0,52040,42128
step02_gravity_refstate-mantle.xmf,39,-1.02544e-06,1.00321e-06,0,-3.90497e-07,-1.20038e+09,-1.20011e+09,-1.20024e+09,-52189.9,-0.0157077,0.0216344,-0,0.0267354,-26342.9,-43136,-0,50543.7,52189.9
step02_gravity_refstate-mantle.xmf,40,-9.2137e-07,8.70617e-07,0,-4.71058e-07,-1.17504e+09,-1.1748e+09,-1.17492e+09,-62956.9,-0.0161057,0.0194604,-0,0.0252606,-24949.3,-42353.6,-0,49155.8,62956.9
step02_gravity_refstate-mantle.xmf,41,-1.72013e-06,1.94423e-06,0,-2.86053e-08,-1.44922e+09,-1.44873e+09,-1.44899e+09,-3823.1,-0.00363126,0.0202332,-0,0.0205564,-37890.8,-50820.3,-0,63391,3823.1
step02_gravity_refstate-mantle.xmf,42,-1.787e-06,2.04251e-06,0,-1.93763e-09,-1.4941e+09,-1.49359e+09,-1.49387e+09,-258.965,5.66575e-20,0.0176204,0,0.0176204,-40000,-52206.7,-0,65768.8,258.965
step02_gravity_refstate-mantle.xmf,43,-7.6023e-07,5.24824e-07,0,-7.87108e-07,-1.15319e+09,-1.15302e+09,-1.15309e+09,-105197,-0.0184248,0.00883828,-0,0.020435,-20950,-41679,-0,46648.1,105197
step02_gravity_refstate-mantle.xmf,44,-5.39721e-07,3.56821e-07,0,-8.79971e-07,-1.09881e+09,-1.09869e+09,-1.09874e+09,-117608,-0.0159628,0.00505708,-0,0.0167447,-19701.4,-40000,-0,44588.6,117608
step02_gravity_refstate-mantle.xmf,45,-6.65128e-07,4.25229e-07,0,-8.60348e-07,-1.13058e+09,-1.13043e+09,-1.13049e+09,-114985,-0.0177624,0.00601144,-0,0.018752,-20053.1,-40980.7,-0,45624,114985
step02_gravity_refstate-mantle.xmf,46,-8.61512e-07,6.48311e-07,0,-6.92334e-07,-1.17879e+09,-1.17859e+09,-1.17868e+09,-92530.4,-0.0188109,0.0119775,-0,0.0223005,-22095.7,-42469.4,-0,47873.5,92530.4
step02_gravity_refstate-mantle.xmf,47,-1.63916e-06,1.82572e-06,0,-6.1297e-08,-1.40828e+09,-1.40781e+09,-1.40806e+09,-8192.34,-0.00683255,0.0221256,-0,0.0231566,-35864,-49555.9,-0,61172,8192.34
step02_gravity_refstate-mantle.xmf,48,-1.81744e-06,2.08611e-06,0,-2.43293e-08,-1.52739e+09,-1.52687e+09,-1.52714e+09,-3251.61,-0.00388081,0.0153647,-0,0.0158473,-37867.5,-53234.7,-0,65329,3251.61
step02_gravity_refstate-mantle.xmf,49,-5.18907e-07,2.34292e-07,0,-1.03392e-06,-1.09881e+09,-1.09871e+09,-1.09874e+09,-138183,-0.016668,-0.000559373,-0,0.0166774,-18347,-40000,-0,44007,138183
step02_gravity_refstate-mantle.xmf,50,-6.65917e-07,3.16714e-07,0,-1.0011e-06,-1.13438e+09,-1.13425e+09,-1.13429e+09,-133797,-0.0187372,0.00164327,-0,0.0188091,-18938.3,-41097.9,-0,45251.5,133797
step02_gravity_refstate-mantle.xmf,51,-1.55029e-06,1.6946e-06,0,-1.01637e-07,-1.37146e+09,-1.37103e+09,-1.37125e+09,-13583.7,-0.00961658,0.0232584,-0,0.0251681,-33911.1,-48418.9,-0,59113,13583.7
step02_gravity_refstate-mantle.xmf,52,-1.45635e-06,1.55197e-06,0,-1.53976e-07,-1.33887e+09,-1.33847e+09,-1.33868e+09,-20579,-0.0121408,0.0235497,-0,0.026495,-31940.1,-47412.5,-0,57167.5,20579
step02_gravity_refstate-mantle.xmf,53,-1.36416e-06,1.4019e-06,0,-2.22639e-07,-1.31362e+09,-1.31325e+09,-1.31343e+09,-29755.7,-0.0145205,0.0227746,-0,0.0270097,-29925,-46632.6,-0,55408.5,29755.7
step02_gravity_refstate-mantle.xmf,54,-9.5351e-07,7.89041e-07,0,-5.81971e-07,-1.20054e+09,-1.2003e+09,-1.20041e+09,-77780.4,-0.0185421,0.0152814,-0,0.0240277,-23478.3,-43140.7,-0,49115.7,77780.4
step02_gravity_refstate-mantle.xmf,55,-1.26273e-06,1.24292e-06,0,-3.0193e-07,-1.28517e+09,-1.28483e+09,-1.285e+09,-40352.9,-0.0162713,0.0216107,-0,0.0270514,-28088.4,-45754.1,-0,53687.9,40352.9
step02_gravity_refstate-mantle.xmf,56,-1.15775e-06,1.08139e-06,0,-3.93388e-07,-1.2564e+09,-1.2561e+09,-1.25625e+09,-52576.3,-0.0175413,0.0198667,-0,0.0265025,-26361.9,-44865.8,-0,52037.4,52576.3
step02_gravity_refstate-mantle.xmf,57,-1.05119e-06,9.29719e-07,0,-4.85389e-07,-1.22622e+09,-1.22596e+09,-1.22608e+09,-64872.2,-0.0181733,0.0178437,-0,0.0254689,-24861.3,-43933.9,-0,50480.4,64872.2
step02_gravity_refstate-mantle.xmf,58,-1.74646e-06,1.96299e-06,0,-5.40437e-08,-1.48406e+09,-1.48357e+09,-1.48383e+09,-7222.93,-0.00730287,0.017689,-0,0.0191372,-35855.9,-51896.6,-0,63078.5,7222.93
step02_gravity_refstate-mantle.xmf,59,-1.87138e-06,2.18875e-06,0,-2.02316e-09,-1.57646e+09,-1.57592e+09,-1.57621e+09,-270.396,5.87006e-20,0.0122372,0,0.0122372,-40000,-54750.5,-0,67805.7,270.396
step02_gravity_refstate-mantle.xmf,60,-4.84783e-07,-1.90256e-07,0,-1.62038e-06,-1.09884e+09,-1.0988e+09,-1.09878e+09,-216563,-0.0184836,-0.0197801,-0,0.027072,-14661.8,-40000,-0,42602.4,216563
step02_gravity_refstate-mantle.xmf,61,-4.94235e-07,-4.14168e-08,0,-1.40749e-06,-1.09883e+09,-1.09877e+09,-1.09876e+09,-188111,-0.0179163,-0.0129829,-0,0.0221258,-15830.4,-40000,-0,43018.6,188111
step02_gravity_refstate-mantle.xmf,62,-5.73162e-07,-1.33771e-07,0,-1.57045e-06,-1.12154e+09,-1.12148e+09,-1.12147e+09,-209890,-0.0200855,-0.0162707,-0,0.0258489,-15234.5,-40700.8,-0,43458.6,209890
step02_gravity_refstate-mantle.xmf,63,-5.06475e-07,1.04374e-07,0,-1.20844e-06,-1.09882e+09,-1.09874e+09,-1.09875e+09,-161508,-0.0173139,-0.00657415,-0,0.01852,-17057.8,-40000,-0,43485.3,161508
step02_gravity_refstate-mantle.xmf,64,-6.46882e-07,1.80876e-07,0,-1.17207e-06,-1.13327e+09,-1.13316e+09,-1.13318e+09,-156647,-0.0194818,-0.00380871,-0,0.0198506,-17671.5,-41063.3,-0,44704.3,156647
step02_gravity_refstate-mantle.xmf,65,-6.39272e-07,7.54987e-09,0,-1.4063e-06,-1.13579e+09,-1.1357e+09,-1.1357e+09,-187951,-0.0205317,-0.0105185,-0,0.0230692,-16288.8,-41140.7,-0,44247.9,187951
step02_gravity_refstate-mantle.xmf,66,-7.94053e-07,3.97085e-07,0,-9.62566e-07,-1.1737e+09,-1.17354e+09,-1.1736e+09,-128647,-0.020624,0.00366785,-0,0.0209476,-19568.6,-42311.9,-0,46617.9,128647
step02_gravity_refstate-mantle.xmf,67,-8.86037e-07,5.37041e-07,0,-8.36501e-07,-1.20172e+09,-1.20153e+09,-1.2016e+09,-111798,-0.0210307,0.00761785,-0,0.0223679,-20821,-43177.1,-0,47935.1,111798
step02_gravity_refstate-mantle.xmf,68,-9.69637e-07,6.7728e-07,0,-7.15771e-07,-1.22554e+09,-1.22532e+09,-1.22541e+09,-95662.8,-0.0209449,0.0109876,-0,0.023652,-22084.1,-43912.8,-0,49153.2,95662.8
step02_gravity_refstate-mantle.xmf,69,-1.66071e-06,1.81953e-06,0,-9.43133e-08,-1.44331e+09,-1.44285e+09,-1.44309e+09,-12605,-0.0104075,0.0193349,-0,0.021958,-33863.6,-50638,-0,60917.6,12605
step02_gravity_refstate-mantle.xmf,70,-1.88383e-06,2.22003e-06,0,-1.83344e-08,-1.6056e+09,-1.60505e+09,-1.60535e+09,-2450.39,-0.00415483,0.0101568,-0,0.0109737,-37798.7,-55650.6,-0,67273.6,2450.39
step02_gravity_refstate-mantle.xmf,71,-1.82455e-06,2.09219e-06,0,-4.34213e-08,-1.56008e+09,-1.55956e+09,-1.55983e+09,-5803.25,-0.00772305,0.0129177,-0,0.0150503,-35811,-54244.5,-0,64999.2,5803.25
step02_gravity_refstate-mantle.xmf,72,-1.92253e-06,2.32993e-06,0,-1.44936e-09,-1.66048e+09,-1.65991e+09,-1.66022e+09,-193.706,5.85224e-20,0.00637108,0,0.00637108,-40000,-57345.7,-0,69918,193.706
step02_gravity_refstate-mantle.xmf,73,-5.98989e-07,-3.30346e-07,0,-1.84818e-06,-1.12943e+09,-1.1294e+09,-1.12935e+09,-247010,-0.0213733,-0.0230033,-0,0.0314002,-14103.2,-40943.8,-0,43304.7,247010
step02_gravity_refstate-mantle.xmf,74,-4.86962e-07,-3.66924e-07,0,-1.87342e-06,-1.09886e+09,-1.09884e+09,-1.09879e+09,-250382,-0.0190267,-0.0269607,-0,0.0329984,-13548.9,-40000,-0,42232.4,250382
step02_gravity_refstate-mantle.xmf,75,-7.37751e-07,2.49472e-07,0,-1.12228e-06,-1.16498e+09,-1.16485e+09,-1.16489e+09,-149993,-0.0210727,-0.00118609,-0,0.0211061,-18318.8,-42042.6,-0,45860.2,149993
step02_gravity_refstate-mantle.xmf,76,-1.56978e-06,1.66879e-06,0,-1.44229e-07,-1.40761e+09,-1.40718e+09,-1.4074e+09,-19276.3,-0.0130539,0.0201639,-0,0.0240206,-31983.5,-49535.4,-0,58963.5,19276.3
step02_gravity_refstate-mantle.xmf,77,-1.47368e-06,1.50716e-06,0,-2.08747e-07,-1.37597e+09,-1.37557e+09,-1.37577e+09,-27899.1,-0.0154443,0.0201548,-0,0.0253918,-30099.4,-48558.1,-0,57130.3,27899.1
step02_gravity_refstate-mantle.xmf,78,-1.37301e-06,1.33513e-06,0,-2.90217e-07,-1.34628e+09,-1.34592e+09,-1.3461e+09,-38787.6,-0.0175124,0.0193842,-0,0.0261234,-28240.7,-47641.4,-0,55382.7,38787.6
step02_gravity_refstate-mantle.xmf,79,-1.06013e-06,8.24595e-07,0,-6.01684e-07,-1.25225e+09,-1.25199e+09,-1.2521e+09,-80415,-0.0206627,0.0138333,-0,0.0248658,-23413.5,-44737.4,-0,50493.9,80415
step02_gravity_refstate-mantle.xmf,80,-1.26789e-06,1.15944e-06,0,-3.84817e-07,-1.31479e+09,-1.31447e+09,-1.31462e+09,-51430.8,-0.0190371,0.0181014,-0,0.0262692,-26511.3,-46668.9,-0,53673.4,51430.8
step02_gravity_refstate-mantle.xmf,81,-1.16248e-06,9.84503e-07,0,-4.93191e-07,-1.2837e+09,-1.28341e+09,-1.28355e+09,-65915,-0.0201345,0.016149,-0,0.0258106,-24863.3,-45708.8,-0,52033.4,65915
step02_gravity_refstate-mantle.xmf,82,-1.74627e-06,1.94102e-06,0,-8.03335e-08,-1.51675e+09,-1.51626e+09,-1.51652e+09,-10736.6,-0.0110016,0.0150637,-0,0.0186534,-33848.8,-52906.2,-0,62807.7,10736.6
step02_gravity_refstate-mantle.xmf,83,-1.91937e-06,2.34568e-06,0,-8.20289e-09,-1.68161e+09,-1.68104e+09,-1.68135e+09,-1096.32,-0.004237,0.0047974,-0,0.00640057,-37798.8,-57998.5,-0,69228.4,1096.32
step02_gravity_refstate-mantle.xmf,84,-1.94276e-06,2.47958e-06,0,-9.15507e-10,-1.7464e+09,-1.7458e+09,-1.74614e+09,-122.358,-2.92498e-19,-5.50273e-20,-0,2.97629e-19,-40000,-60000,-0,72111,122.358
step02_gravity_refstate-mantle.xmf,85,-6.55766e-07,-1.94611e-07,0,-1.67343e-06,-1.15187e+09,-1.15181e+09,-1.15178e+09,-223653,-0.0224263,-0.0167444,-0,0.0279878,-15123.8,-41636.8,-0,44298.5,223653
step02_gravity_refstate-mantle.xmf,86,-5.61331e-07,-5.27006e-07,0,-2.10334e-06,-1.12091e+09,-1.12091e+09,-1.12084e+09,-281111,-0.0212879,-0.0303072,-0,0.0370365,-13019,-40680.4,-0,42712.9,281111
step02_gravity_refstate-mantle.xmf,87,-5.06966e-07,-5.75172e-07,0,-2.16369e-06,-1.09888e+09,-1.09889e+09,-1.09881e+09,-289177,-0.0195482,-0.0345185,-0,0.0396693,-12489.1,-40000,-0,41904.4,289177
step02_gravity_refstate-mantle.xmf,88,-4.95605e-07,-8.05672e-07,0,-2.47319e-06,-1.09889e+09,-1.09894e+09,-1.09883e+09,-330542,-0.0200497,-0.0424459,-0,0.046943,-11479.4,-40000,-0,41614.6,330542
step02_gravity_refstate-mantle.xmf,89,-5.72247e-07,-7.62724e-07,0,-2.40167e-06,-1.12835e+09,-1.12837e+09,-1.12827e+09,-320984,-0.0224206,-0.0366193,-0,0.0429379,-12128.4,-40909.4,-0,42669.4,320984
step02_gravity_refstate-mantle.xmf,90,-7.46842e-07,8.53308e-08,0,-1.333e-06,-1.17697e+09,-1.17685e+09,-1.17687e+09,-178156,-0.0226752,-0.00650089,-0,0.0235887,-17124.2,-42412.2,-0,45738.8,178156
step02_gravity_refstate-mantle.xmf,91,-9.59842e-07,5.27072e-07,0,-8.72878e-07,-1.24784e+09,-1.24764e+09,-1.24771e+09,-116660,-0.0231795,0.00660755,-0,0.0241029,-20741.2,-44601.3,-0,49188.1,116660
step02_gravity_refstate-mantle.xmf,92,-8.88752e-07,3.8195e-07,0,-1.01181e-06,-1.22613e+09,-1.22596e+09,-1.22601e+09,-135228,-0.0233157,0.0029738,-0,0.0235045,-19551.2,-43930.7,-0,48084.9,135228
step02_gravity_refstate-mantle.xmf,93,-8.19475e-07,2.33261e-07,0,-1.16591e-06,-1.20468e+09,-1.20454e+09,-1.20458e+09,-155824,-0.0232729,-0.00133301,-0,0.023311,-18355.3,-43268.4,-0,47000.7,155824
step02_gravity_refstate-mantle.xmf,94,-1.03613e-06,6.75525e-07,0,-7.43243e-07,-1.272e+09,-1.27177e+09,-1.27186e+09,-99334.4,-0.0229152,0.00968064,-0,0.0248761,-21961.2,-45347.3,-0,50385.2,99334.4
step02_gravity_refstate-mantle.xmf,95,-1.6566e-06,1.77663e-06,0,-1.29056e-07,-1.4771e+09,-1.47664e+09,-1.47688e+09,-17248.3,-0.0138635,0.0164592,-0,0.0215198,-31971.9,-51681.5,-0,60771.5,17248.3
step02_gravity_refstate-mantle.xmf,96,-1.80622e-06,2.05973e-06,0,-5.97416e-08,-1.59282e+09,-1.59231e+09,-1.59258e+09,-7984.46,-0.0115167,0.0103453,-0,0.015481,-33794.3,-55256.1,-0,64771,7984.46
step02_gravity_refstate-mantle.xmf,97,-1.87369e-06,2.21161e-06,0,-3.03082e-08,-1.63383e+09,-1.63329e+09,-1.63358e+09,-4050.7,-0.00814748,0.00799873,-0,0.0114176,-35700.5,-56522.7,-0,66853.2,4050.7
step02_gravity_refstate-mantle.xmf,98,-1.92673e-06,2.44672e-06,0,-3.17386e-10,-1.74639e+09,-1.74581e+09,-1.74614e+09,-42.4187,-0.00500997,-4.13308e-20,-0,0.00500997,-37408.2,-60000,-0,70706.3,42.4187
step02_gravity_refstate-mantle.xmf,99,-7.03701e-07,-9.38851e-08,0,-1.54727e-06,-1.17133e+09,-1.17125e+09,-1.17124e+09,-206792,-0.0231778,-0.0122737,-0,0.026227,-15938.5,-42238,-0,45145.1,206792
step02_gravity_refstate-mantle.xmf,100,-6.50184e-07,-4.35389e-07,0,-1.95867e-06,-1.16756e+09,-1.16753e+09,-1.16747e+09,-261776,-0.024168,-0.0226027,-0,0.0330904,-14095,-42121.1,-0,44416.8,261776
step02_gravity_refstate-mantle.xmf,101,-6.10009e-07,-5.93965e-07,0,-2.16821e-06,-1.14955e+09,-1.14954e+09,-1.14946e+09,-289781,-0.0235046,-0.0290094,-0,0.0373365,-13136.2,-41564.4,-0,43590.8,289781
step02_gravity_refstate-mantle.xmf,102,-5.29519e-07,-1.05429e-06,0,-2.75184e-06,-1.12497e+09,-1.12504e+09,-1.1249e+09,-367784,-0.0227152,-0.0451944,-0,0.0505817,-11056.5,-40804.6,-0,42276,367784
step02_gravity_refstate-mantle.xmf,103,-1.55898e-06,1.6008e-06,0,-1.92576e-07,-1.44109e+09,-1.44066e+09,-1.44088e+09,-25737.8,-0.016399,0.0170549,-0,0.0236601,-30128,-50569.4,-0,58863.9,25737.8
step02_gravity_refstate-mantle.xmf,104,-1.45682e-06,1.41714e-06,0,-2.71823e-07,-1.40761e+09,-1.40722e+09,-1.40741e+09,-36329.2,-0.0185583,0.0169044,-0,0.0251031,-28347,-49535.4,-0,57072.8,36329.2
step02_gravity_refstate-mantle.xmf,105,-1.35158e-06,1.22629e-06,0,-3.69666e-07,-1.37576e+09,-1.37542e+09,-1.37558e+09,-49405.9,-0.0203734,0.0160008,-0,0.0259056,-26606.5,-48551.9,-0,55364.2,49405.9
step02_gravity_refstate-mantle.xmf,106,-1.13168e-06,8.21079e-07,0,-6.33575e-07,-1.30924e+09,-1.30898e+09,-1.30909e+09,-84677.2,-0.0228718,0.0118245,-0,0.0257476,-23174.7,-46497.4,-0,51952.6,84677.2
step02_gravity_refstate-mantle.xmf,107,-1.24219e-06,1.02817e-06,0,-4.88088e-07,-1.34143e+09,-1.34113e+09,-1.34126e+09,-65232.9,-0.0217494,0.014438,-0,0.0261054,-24906.8,-47491.6,-0,53626.5,65232.9
step02_gravity_refstate-mantle.xmf,108,-1.71952e-06,1.88116e-06,0,-1.05016e-07,-1.54811e+09,-1.54763e+09,-1.54788e+09,-14035.3,-0.0145205,0.0124327,-0,0.0191159,-31943.3,-53875,-0,62633,14035.3
step02_gravity_refstate-mantle.xmf,109,-1.8964e-06,2.32121e-06,0,-9.78637e-09,-1.69693e+09,-1.69637e+09,-1.69668e+09,-1307.95,-0.00790059,0.00360132,-0,0.00868267,-35885.3,-58472,-0,68605.7,1307.95
step02_gravity_refstate-mantle.xmf,110,-1.4379e-08,-3.67788e-06,0,-5.14513e-06,-1.09903e+09,-1.09952e+09,-1.09903e+09,-687647,-0.0219619,-0.0968767,-0,0.0993348,-6341.87,-40000,-0,40499.6,687647
step02_gravity_refstate-mantle.xmf,111,-2.1608e-07,-2.9419e-06,0,-4.61886e-06,-1.09901e+09,-1.09937e+09,-1.09898e+09,-617310,-0.0218839,-0.0871117,-0,0.0898184,-7100.11,-40000,-0,40625.3,617310
step02_gravity_refstate-mantle.xmf,112,7.17298e-08,-3.62678e-06,0,-4.98625e-06,-1.11797e+09,-1.11846e+09,-1.11798e+09,-666412,-0.0235603,-0.0906292,-0,0.0936415,-6661.68,-40585.8,-0,41128.9,666412
step02_gravity_refstate-mantle.xmf,113,-6.91136e-07,-2.8973e-07,0,-1.76618e-06,-1.1871e+09,-1.18704e+09,-1.18701e+09,-236050,-0.0247546,-0.0168218,-0,0.0299293,-15062.3,-42724.6,-0,45301.9,236050
step02_gravity_refstate-mantle.xmf,114,-3.53978e-07,-2.3366e-06,0,-4.12272e-06,-1.09899e+09,-1.09926e+09,-1.09894e+09,-551001,-0.0216694,-0.0775808,-0,0.0805503,-7894.42,-40000,-0,40771.6,551001
step02_gravity_refstate-mantle.xmf,115,-1.4518e-07,-2.91237e-06,0,-4.48169e-06,-1.11878e+09,-1.11915e+09,-1.11876e+09,-598978,-0.0235935,-0.0810646,-0,0.0844282,-7454.9,-40611.2,-0,41289.8,598978
step02_gravity_refstate-mantle.xmf,116,-4.34731e-07,-1.83945e-06,0,-3.65304e-06,-1.09897e+09,-1.09915e+09,-1.09891e+09,-488228,-0.0213534,-0.0683222,-0,0.0715813,-8727.16,-40000,-0,40941,488228
step02_gravity_refstate-mantle.xmf,117,-2.83923e-07,-2.34648e-06,0,-4.01143e-06,-1.12418e+09,-1.12445e+09,-1.12414e+09,-536128,-0.0238438,-0.0712379,-0,0.0751223,-8301.5,-40778.4,-0,41614.8,536128
step02_gravity_refstate-mantle.xmf,118,-4.82392e-07,-1.43371e-06,0,-3.22995e-06,-1.09894e+09,-1.09907e+09,-1.09888e+09,-431683,-0.0209653,-0.0593652,-0,0.0629584,-9600.66,-40000,-0,41136,431683
step02_gravity_refstate-mantle.xmf,119,-4.21207e-07,-1.78656e-06,0,-3.53741e-06,-1.11758e+09,-1.11776e+09,-1.11752e+09,-472774,-0.022975,-0.0628313,-0,0.0669001,-9157.62,-40575.1,-0,41595.7,472774
step02_gravity_refstate-mantle.xmf,120,-5.09295e-07,-1.091e-06,0,-2.83671e-06,-1.09892e+09,-1.099e+09,-1.09885e+09,-379127,-0.0205247,-0.0507334,-0,0.0547278,-10517.3,-40000,-0,41359.6,379127
step02_gravity_refstate-mantle.xmf,121,-4.77991e-07,-1.4683e-06,0,-3.19978e-06,-1.12647e+09,-1.12661e+09,-1.12641e+09,-427651,-0.0233827,-0.0545167,-0,0.0593196,-9981.23,-40850.3,-0,42052.1,427651
step02_gravity_refstate-mantle.xmf,122,-5.36465e-07,-1.03832e-06,0,-2.67653e-06,-1.14745e+09,-1.14752e+09,-1.14738e+09,-357718,-0.0242749,-0.0407711,-0,0.0474505,-11516.1,-41499,-0,43067.3,357718
step02_gravity_refstate-mantle.xmf,123,-9.89166e-07,4.89961e-07,0,-9.04372e-07,-1.28925e+09,-1.28905e+09,-1.28912e+09,-120869,-0.0249258,0.00550854,-0,0.0255272,-20593,-45880,-0,50289.6,120869
step02_gravity_refstate-mantle.xmf,124,-7.38273e-07,-1.33612e-07,0,-1.57144e-06,-1.20493e+09,-1.20485e+09,-1.20483e+09,-210023,-0.0250373,-0.0113784,-0,0.0275015,-16093.6,-43275.5,-0,46171.1,210023
step02_gravity_refstate-mantle.xmf,125,-7.93818e-07,2.71611e-08,0,-1.38239e-06,-1.22413e+09,-1.22402e+09,-1.22402e+09,-184756,-0.0251913,-0.00627191,-0,0.0259603,-17193.7,-43868.6,-0,47117.6,184756
step02_gravity_refstate-mantle.xmf,126,-9.20945e-07,3.35411e-07,0,-1.04953e-06,-1.26983e+09,-1.26967e+09,-1.26971e+09,-140270,-0.0252756,0.00216843,-0,0.0253684,-19458.2,-45280.4,-0,49284.3,140270
step02_gravity_refstate-mantle.xmf,127,-8.54092e-07,1.7925e-07,0,-1.21136e-06,-1.24692e+09,-1.24678e+09,-1.24681e+09,-161899,-0.0253395,-0.00179464,-0,0.0254029,-18306.4,-44572.7,-0,48185.5,161899
step02_gravity_refstate-mantle.xmf,128,-1.04942e-06,6.16051e-07,0,-7.95121e-07,-1.30953e+09,-1.30931e+09,-1.30939e+09,-106268,-0.0246573,0.00781031,-0,0.0258648,-21539,-46506.4,-0,51252.1,106268
step02_gravity_refstate-mantle.xmf,129,-1.62086e-06,1.68899e-06,0,-1.66643e-07,-1.50646e+09,-1.50602e+09,-1.50624e+09,-22271.8,-0.0171702,0.0137398,-0,0.0219909,-30136.5,-52588.5,-0,60611.5,22271.8
step02_gravity_refstate-mantle.xmf,130,-1.75662e-06,1.97933e-06,0,-7.25849e-08,-1.62077e+09,-1.62027e+09,-1.62054e+09,-9700.97,-0.0151959,0.00804778,-0,0.0171954,-31799.3,-56119.5,-0,64502.7,9700.97
step02_gravity_refstate-mantle.xmf,131,-1.84265e-06,2.19226e-06,0,-2.73043e-08,-1.67807e+09,-1.67753e+09,-1.67782e+09,-3649.21,-0.0119626,0.00473279,-0,0.0128648,-33697.6,-57889.2,-0,66982.8,3649.21
step02_gravity_refstate-mantle.xmf,132,-1.8834e-06,2.36149e-06,0,-8.13139e-10,-1.74639e+09,-1.74582e+09,-1.74614e+09,-108.676,-0.00974485,-5.04043e-20,-0,0.00974485,-34922.2,-60000,-0,69423.1,108.676
step02_gravity_refstate-mantle.xmf,133,2.76269e-07,-4.57551e-06,0,-5.69209e-06,-1.09904e+09,-1.09969e+09,-1.09908e+09,-760748,-0.0218598,-0.106827,-0,0.10904,-5617.28,-40000,-0,40392.5,760748
step02_gravity_refstate-mantle.xmf,134,3.96499e-07,-4.49173e-06,0,-5.47718e-06,-1.11838e+09,-1.11904e+09,-1.11844e+09,-732025,-0.0234176,-0.0998582,-0,0.102567,-5930.27,-40598.6,-0,41029.4,732025
step02_gravity_refstate-mantle.xmf,135,1.27462e-06,-7.04042e-06,0,-6.74695e-06,-1.09903e+09,-1.10014e+09,-1.0992e+09,-901730,-0.0208681,-0.127004,-0,0.128707,-4258.41,-40000,-0,40226,901730
step02_gravity_refstate-mantle.xmf,136,6.88839e-07,-5.67957e-06,0,-6.23835e-06,-1.09904e+09,-1.09989e+09,-1.09913e+09,-833756,-0.0215193,-0.116899,-0,0.118863,-4923.76,-40000,-0,40301.9,833756
step02_gravity_refstate-mantle.xmf,137,1.45316e-06,-6.87277e-06,0,-6.41171e-06,-1.11798e+09,-1.1191e+09,-1.11818e+09,-856926,-0.0221486,-0.119315,-0,0.121353,-4502.54,-40587.2,-0,40836.2,856926
step02_gravity_refstate-mantle.xmf,138,8.65623e-07,-5.59133e-06,0,-5.97214e-06,-1.11896e+09,-1.11982e+09,-1.11907e+09,-798177,-0.022992,-0.10954,-0,0.111927,-5196.24,-40616.6,-0,40947.7,798177
step02_gravity_refstate-mantle.xmf,139,-6.31547e-07,-5.78054e-07,0,-2.04749e-06,-1.20407e+09,-1.20407e+09,-1.20399e+09,-273648,-0.0263841,-0.0223337,-0,0.0345675,-14044.2,-43248.7,-0,45471.8,273648
step02_gravity_refstate-mantle.xmf,140,-5.95061e-07,-7.45642e-07,0,-2.27155e-06,-1.18457e+09,-1.18459e+09,-1.18449e+09,-303592,-0.0258502,-0.0284797,-0,0.038462,-13106.7,-42646.1,-0,44614.8,303592
step02_gravity_refstate-mantle.xmf,141,-5.66083e-07,-8.88126e-07,0,-2.47397e-06,-1.16387e+09,-1.16391e+09,-1.16379e+09,-330646,-0.0250215,-0.0346806,-0,0.0427647,-12269.6,-42006.3,-0,43761.5,330646
step02_gravity_refstate-mantle.xmf,142,-4.83409e-07,-1.34188e-06,0,-2.99087e-06,-1.15052e+09,-1.15063e+09,-1.15046e+09,-399729,-0.0249012,-0.0470322,-0,0.0532175,-10721.1,-41593.4,-0,42952.9,399729
step02_gravity_refstate-mantle.xmf,143,-1.51191e-06,1.48157e-06,0,-2.48994e-07,-1.46887e+09,-1.46847e+09,-1.46867e+09,-33278.1,-0.0195878,0.0141131,-0,0.0241426,-28299.8,-51427.7,-0,58699.9,33278.1
step02_gravity_refstate-mantle.xmf,144,-1.4062e-06,1.28097e-06,0,-3.43926e-07,-1.43575e+09,-1.43539e+09,-1.43556e+09,-45965.7,-0.0214885,0.0137237,-0,0.025497,-26640.7,-50404.8,-0,57012,45965.7
step02_gravity_refstate-mantle.xmf,145,-1.29813e-06,1.07369e-06,0,-4.59339e-07,-1.40429e+09,-1.40397e+09,-1.40412e+09,-61390.6,-0.0230879,0.0125764,-0,0.026291,-25011.8,-49433.1,-0,55400.6,61390.6
step02_gravity_refstate-mantle.xmf,146,-1.19209e-06,8.66528e-07,0,-5.94446e-07,-1.3728e+09,-1.37253e+09,-1.37264e+09,-79447.7,-0.0243117,0.0107573,-0,0.0265853,-23452.3,-48460.6,-0,53837.1,79447.7
step02_gravity_refstate-mantle.xmf,147,-1.10167e-06,6.84956e-07,0,-7.29342e-07,-1.34525e+09,-1.34501e+09,-1.3451e+09,-97476.6,-0.0251144,0.00853714,-0,0.0265257,-22117.3,-47609.6,-0,52496.2,97476.6
step02_gravity_refstate-mantle.xmf,148,-1.65955e-06,1.76914e-06,0,-1.32711e-07,-1.57074e+09,-1.57028e+09,-1.57052e+09,-17736.8,-0.0178474,0.0102687,-0,0.0205907,-30072.2,-54574.2,-0,62311.1,17736.8
step02_gravity_refstate-mantle.xmf,149,1.5991e-07,-3.58665e-06,0,-4.82063e-06,-1.13536e+09,-1.13586e+09,-1.13538e+09,-644277,-0.0247518,-0.0850802,-0,0.0886075,-6963.96,-41123.6,-0,41709.1,644277
step02_gravity_refstate-mantle.xmf,150,2.0853e-06,-8.72152e-06,0,-7.14024e-06,-1.09899e+09,-1.10044e+09,-1.09927e+09,-954293,-0.0198058,-0.137015,-0,0.138439,-3617.79,-40000,-0,40163.3,954293
step02_gravity_refstate-mantle.xmf,151,2.22455e-06,-8.35965e-06,0,-6.71022e-06,-1.11695e+09,-1.11837e+09,-1.11725e+09,-896821,-0.0209429,-0.128691,-0,0.130384,-3856.3,-40556.7,-0,40739.7,896821
step02_gravity_refstate-mantle.xmf,152,4.95791e-07,-4.35219e-06,0,-5.21004e-06,-1.13773e+09,-1.13838e+09,-1.13779e+09,-696322,-0.0246628,-0.0927416,-0,0.0959649,-6287.85,-41197.1,-0,41674.2,696322
step02_gravity_refstate-mantle.xmf,153,-6.76766e-07,-3.99255e-07,0,-1.82127e-06,-1.2234e+09,-1.22336e+09,-1.22331e+09,-243413,-0.0267134,-0.0164387,-0,0.0313662,-15061.7,-43845.8,-0,46360.6,243413
step02_gravity_refstate-mantle.xmf,154,4.93883e-08,-3.15403e-06,0,-4.4838e-06,-1.14306e+09,-1.14349e+09,-1.14307e+09,-599260,-0.0252631,-0.0778462,-0,0.0818428,-7539.06,-41361.9,-0,42043.3,599260
step02_gravity_refstate-mantle.xmf,155,-3.10626e-07,-2.0559e-06,0,-3.6748e-06,-1.14272e+09,-1.14296e+09,-1.14268e+09,-491138,-0.0250033,-0.0620259,-0,0.0668759,-9087.54,-41351.9,-0,42338.7,491138
step02_gravity_refstate-mantle.xmf,156,-4.87692e-07,-1.21209e-06,0,-2.78565e-06,-1.17114e+09,-1.17124e+09,-1.17108e+09,-372302,-0.0259394,-0.0407293,-0,0.048288,-11414,-42230.8,-0,43746.1,372302
step02_gravity_refstate-mantle.xmf,157,-9.99076e-07,4.57676e-07,0,-9.05453e-07,-1.33138e+09,-1.33119e+09,-1.33125e+09,-121014,-0.0263239,0.00483956,-0,0.0267651,-20574.4,-47181.5,-0,51472.3,121014
step02_gravity_refstate-mantle.xmf,158,-9.16306e-07,2.69385e-07,0,-1.07213e-06,-1.31107e+09,-1.31091e+09,-1.31095e+09,-143290,-0.0268693,0.00137587,-0,0.0269045,-19334.1,-46554.1,-0,50409.2,143290
step02_gravity_refstate-mantle.xmf,159,-7.27821e-07,-2.26298e-07,0,-1.61076e-06,-1.24361e+09,-1.24355e+09,-1.24352e+09,-215278,-0.0269261,-0.0111128,-0,0.0291292,-16104.3,-44470.3,-0,47296.5,215278
step02_gravity_refstate-mantle.xmf,160,-7.79881e-07,-7.36425e-08,0,-1.42714e-06,-1.26698e+09,-1.26688e+09,-1.26687e+09,-190737,-0.0271513,-0.00659223,-0,0.0279401,-17111.1,-45192,-0,48322.9,190737
step02_gravity_refstate-mantle.xmf,161,-8.43258e-07,8.96936e-08,0,-1.24895e-06,-1.2899e+09,-1.28978e+09,-1.28979e+09,-166923,-0.0271576,-0.0024657,-0,0.0272693,-18174.9,-45900.2,-0,49367.5,166923
step02_gravity_refstate-mantle.xmf,162,-1.55221e-06,1.55224e-06,0,-2.10294e-07,-1.529e+09,-1.52858e+09,-1.52879e+09,-28105.8,-0.0202534,0.0113309,-0,0.0232075,-28340.5,-53284.8,-0,60352.7,28105.8
step02_gravity_refstate-mantle.xmf,163,-1.67324e-06,1.83342e-06,0,-9.27554e-08,-1.63318e+09,-1.63271e+09,-1.63296e+09,-12396.8,-0.0186305,0.00669292,-0,0.0197962,-29829.9,-56502.9,-0,63893.7,12396.8
step02_gravity_refstate-mantle.xmf,164,-1.75505e-06,2.03772e-06,0,-3.88051e-08,-1.68663e+09,-1.68612e+09,-1.6864e+09,-5186.3,-0.0163891,0.00384048,-0,0.0168331,-31246.3,-58154,-0,66016.8,5186.3
step02_gravity_refstate-mantle.xmf,165,-1.8131e-06,2.22818e-06,0,-3.47469e-10,-1.74639e+09,-1.74585e+09,-1.74615e+09,-46.4392,-0.014155,-3.72641e-20,-0,0.014155,-32535.6,-60000,-0,68253.7,46.4392
step02_gravity_refstate-mantle.xmf,166,3.17559e-06,-1.07616e-05,0,-7.27865e-06,-1.09892e+09,-1.10079e+09,-1.09935e+09,-972792,-0.0182017,-0.146719,-0,0.147844,-2997.53,-40000,-0,40112.2,972792
step02_gravity_refstate-mantle.xmf,167,3.14691e-06,-1.00527e-05,0,-6.80039e-06,-1.11612e+09,-1.11789e+09,-1.11654e+09,-908872,-0.0192942,-0.137581,-0,0.138928,-3242.05,-40532.9,-0,40662.4,908872
step02_gravity_refstate-mantle.xmf,168,9.88909e-07,-5.40732e-06,0,-5.6411e-06,-1.13927e+09,-1.14012e+09,-1.1394e+09,-753934,-0.0241659,-0.101851,-0,0.104678,-5521.75,-41245.2,-0,41613.2,753934
step02_gravity_refstate-mantle.xmf,169,2.26252e-06,-7.9862e-06,0,-6.31103e-06,-1.13331e+09,-1.13468e+09,-1.13362e+09,-843469,-0.02179,-0.121251,-0,0.123193,-4098.54,-41063.3,-0,41267.3,843469
step02_gravity_refstate-mantle.xmf,170,1.73494e-06,-6.89915e-06,0,-6.05948e-06,-1.14033e+09,-1.14148e+09,-1.14056e+09,-809850,-0.0230553,-0.112217,-0,0.114561,-4677.96,-41279.3,-0,41543.5,809850
step02_gravity_refstate-mantle.xmf,171,4.50586e-07,-4.02778e-06,0,-4.89833e-06,-1.15473e+09,-1.15533e+09,-1.15479e+09,-654662,-0.0256566,-0.0846849,-0,0.0884862,-6797.09,-41723,-0,42273,654662
step02_gravity_refstate-mantle.xmf,172,-4.16151e-08,-2.73685e-06,0,-4.11033e-06,-1.15601e+09,-1.15637e+09,-1.156e+09,-549345,-0.02599,-0.0691953,-0,0.0739153,-8257.02,-41762.3,-0,42570.7,549345
step02_gravity_refstate-mantle.xmf,173,-3.40165e-07,-1.80498e-06,0,-3.37512e-06,-1.15968e+09,-1.15987e+09,-1.15963e+09,-451085,-0.0258771,-0.0540853,-0,0.059957,-9841.81,-41876.1,-0,43017.1,451085
step02_gravity_refstate-mantle.xmf,174,-5.63172e-07,-7.30435e-07,0,-2.08758e-06,-1.24063e+09,-1.24065e+09,-1.24055e+09,-279005,-0.0281278,-0.0216651,-0,0.0355042,-14031.8,-44377.9,-0,46543.4,279005
step02_gravity_refstate-mantle.xmf,175,-5.14169e-07,-9.38714e-07,0,-2.34216e-06,-1.2213e+09,-1.22136e+09,-1.22124e+09,-313030,-0.0278018,-0.0278676,-0,0.0393642,-13052.3,-43780.8,-0,45685,313030
step02_gravity_refstate-mantle.xmf,176,-4.71108e-07,-1.16666e-06,0,-2.63479e-06,-1.19981e+09,-1.1999e+09,-1.19974e+09,-352140,-0.0272563,-0.0351856,-0,0.0445076,-12035.1,-43116.4,-0,44764.6,352140
step02_gravity_refstate-mantle.xmf,177,-3.66842e-07,-1.61731e-06,0,-3.1275e-06,-1.17827e+09,-1.17844e+09,-1.17822e+09,-417990,-0.0267199,-0.0471245,-0,0.0541726,-10554.2,-42450.6,-0,43743,417990
step02_gravity_refstate-mantle.xmf,178,-1.43888e-06,1.32988e-06,0,-3.0503e-07,-1.49448e+09,-1.49411e+09,-1.49428e+09,-40767.3,-0.0223801,0.0113572,-0,0.0250969,-26641.9,-52218.7,-0,58622.3,40767.3
step02_gravity_refstate-mantle.xmf,179,-1.32126e-06,1.09985e-06,0,-4.20874e-07,-1.46278e+09,-1.46246e+09,-1.46261e+09,-56249.8,-0.0241869,0.0105822,-0,0.0264006,-24991.1,-51239.9,-0,57009.5,56249.8
step02_gravity_refstate-mantle.xmf,180,-1.20862e-06,8.76858e-07,0,-5.52583e-07,-1.4327e+09,-1.43242e+09,-1.43253e+09,-73852.7,-0.0255688,0.00919231,-0,0.027171,-23478.3,-50310.6,-0,55519.3,73852.7
step02_gravity_refstate-mantle.xmf,181,-1.09792e-06,6.52058e-07,0,-7.0528e-07,-1.40359e+09,-1.40335e+09,-1.40344e+09,-94260.7,-0.026662,0.00710279,-0,0.0275919,-22014.4,-49411.7,-0,54093.9,94260.7
step02_gravity_refstate-mantle.xmf,182,-9.89899e-07,4.25626e-07,0,-8.75303e-07,-1.37808e+09,-1.37789e+09,-1.37795e+09,-116984,-0.0275437,0.00428662,-0,0.0278753,-20606.6,-48624,-0,52810.3,116984
step02_gravity_refstate-mantle.xmf,183,-1.57513e-06,1.61605e-06,0,-1.65502e-07,-1.58567e+09,-1.58524e+09,-1.58546e+09,-22119.4,-0.0207867,0.00854625,-0,0.022475,-28322.7,-55035.3,-0,61895.6,22119.4
step02_gravity_refstate-mantle.xmf,184,5.8359e-06,-1.54843e-05,0,-5.98675e-06,-1.09874e+09,-1.10159e+09,-1.09952e+09,-800129,-0.0128199,-0.163689,-0,0.16419,-1793.25,-40000,-0,40040.2,800129
step02_gravity_refstate-mantle.xmf,185,4.49904e-06,-1.30875e-05,0,-6.92689e-06,-1.09883e+09,-1.10118e+09,-1.09943e+09,-925779,-0.0159058,-0.155777,-0,0.156587,-2391.83,-40000,-0,40071.4,925779
step02_gravity_refstate-mantle.xmf,186,5.40406e-06,-1.3834e-05,0,-5.83007e-06,-1.1151e+09,-1.11767e+09,-1.11582e+09,-779189,-0.0143292,-0.153041,-0,0.15371,-2071.88,-40506.6,-0,40559.6,779189
step02_gravity_refstate-mantle.xmf,187,4.28062e-06,-1.19759e-05,0,-6.54096e-06,-1.11542e+09,-1.11759e+09,-1.11599e+09,-874199,-0.0170925,-0.145899,-0,0.146897,-2644.64,-40513.7,-0,40600,874199
step02_gravity_refstate-mantle.xmf,188,3.2711e-06,-9.66112e-06,0,-6.30191e-06,-1.13632e+09,-1.13805e+09,-1.13676e+09,-842251,-0.0199595,-0.128982,-0,0.130518,-3427.48,-41158.7,-0,41301.1,842251
step02_gravity_refstate-mantle.xmf,189,1.10205e-06,-5.23756e-06,0,-5.29835e-06,-1.16274e+09,-1.16359e+09,-1.16289e+09,-708125,-0.0251959,-0.093689,-0,0.0970178,-5886.31,-41971.6,-0,42382.4,708125
step02_gravity_refstate-mantle.xmf,190,-6.19212e-07,-5.26132e-07,0,-1.84516e-06,-1.2603e+09,-1.26029e+09,-1.26021e+09,-246605,-0.0283208,-0.0159497,-0,0.0325033,-15054.2,-44985.6,-0,47437.7,246605
step02_gravity_refstate-mantle.xmf,191,3.58199e-07,-3.54904e-06,0,-4.49143e-06,-1.16928e+09,-1.1698e+09,-1.16932e+09,-600279,-0.0264875,-0.0759603,-0,0.080446,-7459.92,-42172.8,-0,42827.5,600279
step02_gravity_refstate-mantle.xmf,192,-9.55559e-08,-2.41121e-06,0,-3.7719e-06,-1.17241e+09,-1.17272e+09,-1.1724e+09,-504115,-0.0267855,-0.0609274,-0,0.0665553,-8986.07,-42269.4,-0,43214.1,504115
step02_gravity_refstate-mantle.xmf,193,-3.65565e-07,-1.49599e-06,0,-2.93849e-06,-1.19592e+09,-1.19608e+09,-1.19588e+09,-392729,-0.0274339,-0.0418581,-0,0.0500472,-11125.6,-42996.4,-0,44412.5,392729
step02_gravity_refstate-mantle.xmf,194,-8.86673e-07,1.98612e-07,0,-1.0623e-06,-1.35522e+09,-1.35507e+09,-1.3551e+09,-141976,-0.0282249,0.000833924,-0,0.0282372,-19261.8,-47917.7,-0,51644.2,141976
step02_gravity_refstate-mantle.xmf,195,-7.92637e-07,-2.24706e-08,0,-1.26502e-06,-1.33182e+09,-1.33172e+09,-1.33172e+09,-169069,-0.0286401,-0.00313481,-0,0.0288112,-17998.6,-47195.1,-0,50510.7,169069
step02_gravity_refstate-mantle.xmf,196,-6.70801e-07,-3.47525e-07,0,-1.62797e-06,-1.28436e+09,-1.28432e+09,-1.28427e+09,-217578,-0.0285586,-0.0109635,-0,0.0305907,-16057,-45729.1,-0,48466.3,217578
step02_gravity_refstate-mantle.xmf,197,-7.02215e-07,-2.39778e-07,0,-1.47073e-06,-1.31287e+09,-1.31281e+09,-1.31278e+09,-196564,-0.028941,-0.00743583,-0,0.029881,-16846.6,-46609.8,-0,49560.8,196564
step02_gravity_refstate-mantle.xmf,198,-1.45626e-06,1.3779e-06,0,-2.53776e-07,-1.55172e+09,-1.55134e+09,-1.55152e+09,-33917.1,-0.023068,0.00894424,-0,0.0247413,-26621.5,-53986.9,-0,60193.8,33917.1
step02_gravity_refstate-mantle.xmf,199,-1.57662e-06,1.66435e-06,0,-1.17417e-07,-1.63954e+09,-1.6391e+09,-1.63933e+09,-15692.7,-0.0214038,0.00573071,-0,0.0221577,-28141,-56699.5,-0,63298.9,15692.7
step02_gravity_refstate-mantle.xmf,200,-1.64158e-06,1.83505e-06,0,-5.5007e-08,-1.68846e+09,-1.68799e+09,-1.68824e+09,-7351.69,-0.020126,0.00335361,-0,0.0204035,-29048.4,-58210.6,-0,65056,7351.69
step02_gravity_refstate-mantle.xmf,201,-1.7126e-06,2.04282e-06,0,1.42955e-10,-1.74638e+09,-1.74588e+09,-1.74615e+09,19.106,-0.018197,-2.93969e-20,-0,0.018197,-30242,-60000,-0,67190.6,19.106
step02_gravity_refstate-mantle.xmf,202,6.51432e-06,-1.56775e-05,0,-4.61198e-06,-1.11464e+09,-1.11761e+09,-1.11551e+09,-616392,-0.0107578,-0.159322,-0,0.159684,-1472.15,-40495.3,-0,40522.1,616392
step02_gravity_refstate-mantle.xmf,203,3.99559e-06,-1.10627e-05,0,-6.27738e-06,-1.13012e+09,-1.13213e+09,-1.13065e+09,-838972,-0.0181117,-0.137341,-0,0.13853,-2908.56,-40968.4,-0,41071.5,838972
step02_gravity_refstate-mantle.xmf,204,1.59039e-06,-6.25163e-06,0,-5.63344e-06,-1.15743e+09,-1.15847e+09,-1.15764e+09,-752910,-0.024112,-0.103012,-0,0.105796,-5151.86,-41808.1,-0,42124.3,752910
step02_gravity_refstate-mantle.xmf,205,2.78147e-06,-8.42007e-06,0,-5.9297e-06,-1.1516e+09,-1.15309e+09,-1.15197e+09,-792505,-0.0215433,-0.118176,-0,0.120124,-3971.32,-41630.4,-0,41819.4,792505
step02_gravity_refstate-mantle.xmf,206,6.9683e-06,-1.7251e-05,0,-4.25369e-06,-1.09864e+09,-1.10188e+09,-1.09957e+09,-568505,-0.00898908,-0.169854,-0,0.170092,-1195.5,-40000,-0,40017.9,568505
step02_gravity_refstate-mantle.xmf,207,7.64092e-06,-1.83848e-05,0,-2.19761e-06,-1.09859e+09,-1.10207e+09,-1.09961e+09,-293711,-0.00462629,-0.173744,-0,0.173805,-597.755,-40000,-0,40004.5,293711
step02_gravity_refstate-mantle.xmf,208,7.3236e-06,-1.6849e-05,0,-2.79702e-06,-1.11587e+09,-1.1191e+09,-1.11685e+09,-373822,-0.00649594,-0.163049,-0,0.163179,-858.092,-40535.6,-0,40544.6,373822
step02_gravity_refstate-mantle.xmf,209,7.85469e-06,-1.875e-05,0,-8.5642e-10,-1.09857e+09,-1.10213e+09,-1.09962e+09,-114.461,-4.09236e-06,-0.175067,-0,0.175067,0,-40000,0,40000,114.461
step02_gravity_refstate-mantle.xmf,210,7.70206e-06,-1.74551e-05,0,-8.50382e-07,-1.11567e+09,-1.11903e+09,-1.1167e+09,-113654,-0.00199822,-0.165252,-0,0.165264,-259.417,-40530.4,-0,40531.2,113654
step02_gravity_refstate-mantle.xmf,211,8.67576e-07,-4.51126e-06,0,-4.82363e-06,-1.18046e+09,-1.18118e+09,-1.18058e+09,-644678,-0.0263131,-0.0828766,-0,0.0869535,-6647.95,-42519.4,-0,43035.9,644678
step02_gravity_refstate-mantle.xmf,212,2.5382e-07,-3.12349e-06,0,-4.12511e-06,-1.18487e+09,-1.18533e+09,-1.18491e+09,-551321,-0.0272549,-0.0674512,-0,0.0727496,-8166.84,-42655,-0,43429.8,551321
step02_gravity_refstate-mantle.xmf,213,-4.67177e-07,-8.72701e-07,0,-2.07641e-06,-1.27643e+09,-1.27648e+09,-1.27637e+09,-277512,-0.0294249,-0.0206195,-0,0.0359304,-14061.5,-45484.1,-0,47608,277512
step02_gravity_refstate-mantle.xmf,214,-1.34971e-07,-2.14448e-06,0,-3.4692e-06,-1.18981e+09,-1.19008e+09,-1.18979e+09,-463658,-0.0275105,-0.0534533,-0,0.0601173,-9700.83,-42807.4,-0,43892.8,463658
step02_gravity_refstate-mantle.xmf,215,-3.8641e-07,-1.13484e-06,0,-2.35578e-06,-1.25797e+09,-1.25807e+09,-1.25791e+09,-314849,-0.029258,-0.0268962,-0,0.0397422,-13018.2,-44913.6,-0,46762.2,314849
step02_gravity_refstate-mantle.xmf,216,-3.18022e-07,-1.39036e-06,0,-2.63913e-06,-1.23927e+09,-1.23941e+09,-1.23923e+09,-352719,-0.0289379,-0.0334287,-0,0.044214,-12064.9,-44335.9,-0,45948.2,352719
step02_gravity_refstate-mantle.xmf,217,-1.82768e-07,-1.92239e-06,0,-3.20854e-06,-1.20753e+09,-1.20777e+09,-1.20751e+09,-428821,-0.0281449,-0.0467665,-0,0.0545824,-10396.1,-43355.1,-0,44584.1,428821
step02_gravity_refstate-mantle.xmf,218,-2.44463e-07,-1.66254e-06,0,-2.92908e-06,-1.22301e+09,-1.2232e+09,-1.22297e+09,-391472,-0.028584,-0.0401579,-0,0.049292,-11178,-43833.3,-0,45236.1,391472
step02_gravity_refstate-mantle.xmf,219,-1.32801e-06,1.12546e-06,0,-3.66326e-07,-1.51873e+09,-1.5184e+09,-1.51855e+09,-48959.5,-0.025017,0.00861765,-0,0.0264597,-24957.6,-52968,-0,58553.3,48959.5
step02_gravity_refstate-mantle.xmf,220,-8.33628e-07,1.24008e-07,0,-1.01731e-06,-1.40319e+09,-1.40306e+09,-1.40308e+09,-135964,-0.0293687,0.000433479,-0,0.0293719,-19204.7,-49399.8,-0,53001.5,135964
step02_gravity_refstate-mantle.xmf,221,-1.20253e-06,8.78886e-07,0,-4.9521e-07,-1.48898e+09,-1.4887e+09,-1.48882e+09,-66184.8,-0.0265458,0.00759687,-0,0.0276114,-23434.6,-52049.4,-0,57081.7,66184.8
step02_gravity_refstate-mantle.xmf,222,-1.07496e-06,6.25769e-07,0,-6.48185e-07,-1.45959e+09,-1.45936e+09,-1.45945e+09,-86630,-0.0277752,0.00588298,-0,0.0283914,-21956.3,-51141.7,-0,55655.6,86630
step02_gravity_refstate-mantle.xmf,223,-9.52218e-07,3.75253e-07,0,-8.22528e-07,-1.43058e+09,-1.4304e+09,-1.43045e+09,-109931,-0.0286915,0.00351173,-0,0.0289056,-20554,-50245.6,-0,54287.1,109931
step02_gravity_refstate-mantle.xmf,224,-1.46577e-06,1.43565e-06,0,-1.88351e-07,-1.6096e+09,-1.60921e+09,-1.60941e+09,-25173.1,-0.0235406,0.00642874,-0,0.0244026,-26621.9,-55775,-0,61802.7,25173.1
step02_gravity_refstate-mantle.xmf,225,6.00423e-06,-1.42973e-05,0,-4.87309e-06,-1.12695e+09,-1.12966e+09,-1.12775e+09,-651288,-0.0124705,-0.150925,-0,0.15144,-1772.95,-40875.4,-0,40913.9,651288
step02_gravity_refstate-mantle.xmf,226,5.19688e-06,-1.2791e-05,0,-5.50152e-06,-1.13329e+09,-1.13569e+09,-1.13398e+09,-735278,-0.0151478,-0.143382,-0,0.14418,-2271.35,-41069.9,-0,41132.6,735278
step02_gravity_refstate-mantle.xmf,227,4.47761e-06,-1.12602e-05,0,-5.58799e-06,-1.14705e+09,-1.14916e+09,-1.14765e+09,-746835,-0.0172602,-0.133156,-0,0.13427,-2761.52,-41494.1,-0,41585.9,746835
step02_gravity_refstate-mantle.xmf,228,2.34067e-06,-7.4067e-06,0,-5.64865e-06,-1.16535e+09,-1.16665e+09,-1.16566e+09,-754942,-0.0229242,-0.108443,-0,0.11084,-4529.05,-42054.9,-0,42298.1,754942
step02_gravity_refstate-mantle.xmf,229,1.96939e-06,-6.50233e-06,0,-5.31308e-06,-1.17961e+09,-1.18074e+09,-1.17987e+09,-710094,-0.024195,-0.0988792,-0,0.101796,-5129.52,-42495.2,-0,42803.6,710094
step02_gravity_refstate-mantle.xmf,230,3.83397e-06,-9.92536e-06,0,-5.56012e-06,-1.15987e+09,-1.16171e+09,-1.16038e+09,-743109,-0.0191657,-0.123545,-0,0.125023,-3278.25,-41889.2,-0,42017.3,743109
step02_gravity_refstate-mantle.xmf,231,7.63285e-06,-1.83711e-05,0,2.20831e-06,-1.09859e+09,-1.10207e+09,-1.09961e+09,295141,0.00462667,-0.173742,0,0.173804,597.755,-40000,0,40004.5,295141
step02_gravity_refstate-mantle.xmf,232,7.69721e-06,-1.74921e-05,0,1.05051e-06,-1.11494e+09,-1.11831e+09,-1.11597e+09,140401,0.00238359,-0.165554,0,0.165571,309.494,-40507.8,0,40509,140401
step02_gravity_refstate-mantle.xmf,233,-5.4351e-07,-6.41426e-07,0,-1.83759e-06,-1.293e+09,-1.29301e+09,-1.29293e+09,-245594,-0.0294514,-0.0154035,-0,0.0332363,-15044.7,-45996.1,-0,48394,245594
step02_gravity_refstate-mantle.xmf,234,7.16309e-07,-3.9494e-06,0,-4.41046e-06,-1.1967e+09,-1.19732e+09,-1.1968e+09,-589458,-0.0271931,-0.0737768,-0,0.0786287,-7358.18,-43021.3,-0,43646,589458
step02_gravity_refstate-mantle.xmf,235,1.76267e-07,-2.77426e-06,0,-3.79097e-06,-1.20182e+09,-1.20221e+09,-1.20184e+09,-506664,-0.0279584,-0.0596111,-0,0.0658419,-8868.55,-43178.7,-0,44080.1,506664
step02_gravity_refstate-mantle.xmf,236,-7.21218e-07,-1.25691e-07,0,-1.22798e-06,-1.37801e+09,-1.37793e+09,-1.37791e+09,-164119,-0.0298357,-0.00326778,-0,0.0300141,-17926.2,-48622,-0,51821.3,164119
step02_gravity_refstate-mantle.xmf,237,-6.15181e-07,-3.77177e-07,0,-1.45844e-06,-1.35346e+09,-1.35343e+09,-1.35338e+09,-194920,-0.030106,-0.0076121,-0,0.0310534,-16697.7,-47863.8,-0,50692.8,194920
step02_gravity_refstate-mantle.xmf,238,-5.24459e-07,-6.23648e-07,0,-1.71685e-06,-1.32565e+09,-1.32566e+09,-1.32558e+09,-229457,-0.0301119,-0.0127239,-0,0.0326898,-15504.3,-47004.6,-0,49495.6,229457
step02_gravity_refstate-mantle.xmf,239,-1.3275e-06,1.16251e-06,0,-2.91464e-07,-1.57615e+09,-1.57582e+09,-1.57597e+09,-38954.1,-0.0256246,0.00657598,-0,0.0264549,-24945.2,-54741.9,-0,60157.6,38954.1
step02_gravity_refstate-mantle.xmf,240,-1.48497e-06,1.54333e-06,0,-9.33148e-08,-1.67959e+09,-1.67918e+09,-1.67939e+09,-12471.5,-0.0236565,0.00327816,-0,0.0238825,-26773.4,-57936.9,-0,63824,12471.5
step02_gravity_refstate-mantle.xmf,241,-1.58014e-06,1.80623e-06,0,6.52451e-10,-1.74637e+09,-1.74592e+09,-1.74616e+09,87.2,-0.0218289,-1.96258e-20,-0,0.0218289,-28035.6,-60000,-0,66226.9,87.2
step02_gravity_refstate-mantle.xmf,242,1.55469e-06,-5.59019e-06,0,-4.97823e-06,-1.19222e+09,-1.19317e+09,-1.19243e+09,-665341,-0.0254793,-0.0891128,-0,0.0926838,-5852.26,-42884.2,-0,43281.7,665341
step02_gravity_refstate-mantle.xmf,243,6.84844e-06,-1.53863e-05,0,-3.33796e-06,-1.13156e+09,-1.13454e+09,-1.13248e+09,-446118,-0.00851547,-0.153431,-0,0.153667,-1169.54,-41021,-0,41037.6,446118
step02_gravity_refstate-mantle.xmf,244,3.26446e-06,-8.70407e-06,0,-5.37238e-06,-1.17439e+09,-1.17599e+09,-1.17483e+09,-718019,-0.0209066,-0.11356,-0,0.115469,-3840.45,-42337.1,-0,42510.9,718019
step02_gravity_refstate-mantle.xmf,245,7.36249e-06,-1.59944e-05,0,-1.36983e-06,-1.13604e+09,-1.13916e+09,-1.13702e+09,-183078,-0.00341364,-0.154303,-0,0.154341,-460.448,-41161,-0,41163.6,183078
step02_gravity_refstate-mantle.xmf,246,6.95072e-06,-1.71841e-05,0,4.3337e-06,-1.09864e+09,-1.10186e+09,-1.09957e+09,579199,0.00898817,-0.169852,0,0.17009,1195.5,-40000,0,40017.9,579199
step02_gravity_refstate-mantle.xmf,247,7.38325e-06,-1.7074e-05,0,2.74695e-06,-1.113e+09,-1.11627e+09,-1.11399e+09,367130,0.00618152,-0.164794,0,0.16491,812.633,-40446.7,0,40454.9,367130
step02_gravity_refstate-mantle.xmf,248,7.55844e-06,-1.6549e-05,0,2.63107e-07,-1.12937e+09,-1.13259e+09,-1.13038e+09,35164.3,0.000568527,-0.158226,0,0.158227,75.0809,-40954.8,0,40954.9,35164.3
step02_gravity_refstate-mantle.xmf,249,1.26843e-06,-4.87454e-06,0,-4.6096e-06,-1.20798e+09,-1.2088e+09,-1.20815e+09,-616072,-0.0265418,-0.0797156,-0,0.0840181,-6562.86,-43371,-0,43864.8,616072
step02_gravity_refstate-mantle.xmf,250,5.79357e-07,-3.49394e-06,0,-4.05637e-06,-1.21349e+09,-1.21404e+09,-1.21357e+09,-542134,-0.0279539,-0.0655049,-0,0.0712201,-8057.98,-43540.2,-0,44279.6,542134
step02_gravity_refstate-mantle.xmf,251,-3.66823e-07,-9.87298e-07,0,-2.01713e-06,-1.31193e+09,-1.31201e+09,-1.31188e+09,-269590,-0.0303669,-0.0191275,-0,0.0358889,-14156,-46581,-0,48684.5,269590
step02_gravity_refstate-mantle.xmf,252,-2.44158e-07,-1.30584e-06,0,-2.30795e-06,-1.2943e+09,-1.29444e+09,-1.29426e+09,-308457,-0.0302819,-0.0254246,-0,0.0395399,-13036.4,-46036.4,-0,47846.6,308457
step02_gravity_refstate-mantle.xmf,253,1.20839e-07,-2.49122e-06,0,-3.49122e-06,-1.21986e+09,-1.22021e+09,-1.21987e+09,-466601,-0.028595,-0.0525348,-0,0.0598128,-9548.96,-43736.4,-0,44766.6,466601
step02_gravity_refstate-mantle.xmf,254,-1.36006e-07,-1.61948e-06,0,-2.61111e-06,-1.27527e+09,-1.27546e+09,-1.27525e+09,-348975,-0.0300148,-0.0320988,-0,0.0439456,-12009.5,-45448.4,-0,47008.4,348975
step02_gravity_refstate-mantle.xmf,255,-3.99034e-08,-1.92583e-06,0,-2.91313e-06,-1.25671e+09,-1.25696e+09,-1.2567e+09,-389339,-0.0296345,-0.0388741,-0,0.0488815,-11092.5,-44875,-0,46225.6,389339
step02_gravity_refstate-mantle.xmf,256,4.57318e-08,-2.22554e-06,0,-3.21384e-06,-1.23833e+09,-1.23863e+09,-1.23833e+09,-429530,-0.0291581,-0.0457713,-0,0.0542698,-10265.2,-44307,-0,45480.6,429530
step02_gravity_refstate-mantle.xmf,257,-6.31723e-07,-2.26018e-07,0,-1.15155e-06,-1.42583e+09,-1.42578e+09,-1.42575e+09,-153905,-0.0307527,-0.00321844,-0,0.0309206,-17855.4,-50099.8,-0,53186.5,153905
step02_gravity_refstate-mantle.xmf,258,-1.18416e-06,8.84507e-07,0,-4.16834e-07,-1.54502e+09,-1.54475e+09,-1.54486e+09,-55709.8,-0.0273061,0.0059841,-0,0.0279541,-23368.5,-53780.6,-0,58638.2,55709.8
step02_gravity_refstate-mantle.xmf,259,-7.67038e-07,5.69852e-08,0,-9.33342e-07,-1.45374e+09,-1.45363e+09,-1.45364e+09,-124741,-0.0302586,0.000195688,-0,0.0302593,-19166.2,-50961.6,-0,54446.6,124741
step02_gravity_refstate-mantle.xmf,260,-1.03664e-06,5.99254e-07,0,-5.67473e-07,-1.51507e+09,-1.51485e+09,-1.51493e+09,-75842.7,-0.02865,0.00466574,-0,0.0290274,-21855.8,-52855.6,-0,57196.1,75842.7
step02_gravity_refstate-mantle.xmf,261,-9.01123e-07,3.30444e-07,0,-7.37906e-07,-1.4838e+09,-1.48363e+09,-1.48368e+09,-98621.1,-0.0295696,0.00281576,-0,0.0297034,-20498.2,-51889.8,-0,55791.8,98621.1
step02_gravity_refstate-mantle.xmf,262,-1.32434e-06,1.21558e-06,0,-1.99565e-07,-1.63412e+09,-1.63378e+09,-1.63394e+09,-26671.8,-0.0260122,0.00445413,-0,0.0263908,-24956.5,-56532.6,-0,61796.2,26671.8
step02_gravity_refstate-mantle.xmf,263,6.16701e-06,-1.39656e-05,0,-4.08261e-06,-1.14322e+09,-1.14591e+09,-1.14404e+09,-545641,-0.0112969,-0.145005,-0,0.145445,-1628.32,-41380.1,-0,41412.1,545641
step02_gravity_refstate-mantle.xmf,264,5.49624e-06,-1.25477e-05,0,-4.55112e-06,-1.15525e+09,-1.15766e+09,-1.15599e+09,-608257,-0.0138483,-0.136257,-0,0.136959,-2111.58,-41750.9,-0,41804.3,608257
step02_gravity_refstate-mantle.xmf,265,4.82535e-06,-1.12072e-05,0,-4.781e-06,-1.16865e+09,-1.17079e+09,-1.16929e+09,-638981,-0.0160843,-0.127104,-0,0.128117,-2609.66,-42163.6,-0,42244.3,638981
step02_gravity_refstate-mantle.xmf,266,2.76155e-06,-7.63308e-06,0,-5.17436e-06,-1.1893e+09,-1.19069e+09,-1.18967e+09,-691553,-0.0225066,-0.103715,-0,0.106129,-4448.27,-42796.9,-0,43027.4,691553
step02_gravity_refstate-mantle.xmf,267,2.31819e-06,-6.68556e-06,0,-4.91866e-06,-1.20404e+09,-1.20524e+09,-1.20435e+09,-657379,-0.0239622,-0.0942214,-0,0.0972206,-5096.64,-43251.8,-0,43551,657379
step02_gravity_refstate-mantle.xmf,268,4.19994e-06,-9.95384e-06,0,-4.84446e-06,-1.183e+09,-1.18489e+09,-1.18356e+09,-647462,-0.0181265,-0.117735,-0,0.119122,-3142.88,-42606.1,-0,42721.8,647462
step02_gravity_refstate-mantle.xmf,269,5.83896e-06,-1.53863e-05,0,5.92612e-06,-1.09873e+09,-1.10157e+09,-1.09951e+09,792026,0.0128181,-0.163688,0,0.164189,1793.25,-40000,0,40040.2,792026
step02_gravity_refstate-mantle.xmf,270,6.18951e-06,-1.52097e-05,0,5.10851e-06,-1.11231e+09,-1.11517e+09,-1.11314e+09,682752,0.0119738,-0.158682,0,0.159133,1660.08,-40422.4,0,40456.5,682752
step02_gravity_refstate-mantle.xmf,271,6.78804e-06,-1.57065e-05,0,3.91212e-06,-1.1213e+09,-1.12431e+09,-1.12221e+09,522855,0.00930544,-0.157742,0,0.158016,1264.8,-40702.7,0,40722.4,522855
step02_gravity_refstate-mantle.xmf,272,7.28812e-06,-1.60086e-05,0,2.11398e-06,-1.13159e+09,-1.1347e+09,-1.13256e+09,282534,0.00516995,-0.15578,0,0.155865,695.615,-41023.1,0,41029,282534
step02_gravity_refstate-mantle.xmf,273,1.07721e-06,-4.30373e-06,0,-4.23881e-06,-1.22492e+09,-1.22564e+09,-1.22507e+09,-566517,-0.0274305,-0.0711366,-0,0.076242,-7251.54,-43894.6,-0,44489.5,566517
step02_gravity_refstate-mantle.xmf,274,4.77516e-07,-3.13204e-06,0,-3.74209e-06,-1.23061e+09,-1.23109e+09,-1.23068e+09,-500131,-0.028601,-0.0582226,-0,0.0648682,-8719.19,-44069.3,-0,44923.6,500131
step02_gravity_refstate-mantle.xmf,275,-4.999e-07,-5.13738e-07,0,-1.39054e-06,-1.39938e+09,-1.39938e+09,-1.39932e+09,-185845,-0.0310456,-0.00734686,-0,0.031903,-16592,-49282.8,-0,52000.9,185845
step02_gravity_refstate-mantle.xmf,276,-3.75586e-07,-7.99229e-07,0,-1.64158e-06,-1.37468e+09,-1.37474e+09,-1.37463e+09,-219397,-0.0311542,-0.0120187,-0,0.0333921,-15411.7,-48519.9,-0,50908.8,219397
step02_gravity_refstate-mantle.xmf,277,-1.16793e-06,9.12948e-07,0,-3.16776e-07,-1.60087e+09,-1.60059e+09,-1.60071e+09,-42337.1,-0.0278011,0.004419,-0,0.0281501,-23352.9,-55505.9,-0,60218.5,42337.1
step02_gravity_refstate-mantle.xmf,278,-1.29459e-06,1.23968e-06,0,-1.01182e-07,-1.69268e+09,-1.69234e+09,-1.69251e+09,-13522.9,-0.0266073,0.00211422,-0,0.0266912,-24676.1,-58341.9,-0,63345.8,13522.9
step02_gravity_refstate-mantle.xmf,279,-1.4134e-06,1.51911e-06,0,8.408e-10,-1.74636e+09,-1.74597e+09,-1.74617e+09,112.373,-0.0250069,-6.4375e-21,-0,0.0250069,-25910.4,-60000,-0,65355.6,112.373
step02_gravity_refstate-mantle.xmf,280,1.94338e-06,-5.86571e-06,0,-4.62961e-06,-1.2195e+09,-1.22055e+09,-1.21976e+09,-618748,-0.0252458,-0.0850272,-0,0.0886959,-5773.08,-43729,-0,44108.4,618748
step02_gravity_refstate-mantle.xmf,281,6.84172e-06,-1.46486e-05,0,-2.4729e-06,-1.1505e+09,-1.15337e+09,-1.15141e+09,-330503,-0.00698547,-0.145599,-0,0.145767,-986.39,-41607.6,-0,41619.3,330503
step02_gravity_refstate-mantle.xmf,282,3.60424e-06,-8.77814e-06,0,-4.77709e-06,-1.1984e+09,-1.20005e+09,-1.19888e+09,-638458,-0.0200558,-0.108081,-0,0.109926,-3733.18,-43080.6,-0,43242,638458
step02_gravity_refstate-mantle.xmf,283,7.2957e-06,-1.54509e-05,0,6.04405e-07,-1.14652e+09,-1.14956e+09,-1.1475e+09,80778.8,0.00153737,-0.149619,0,0.149627,211.08,-41485.8,0,41486.4,80778.8
step02_gravity_refstate-mantle.xmf,284,4.49766e-06,-1.30908e-05,0,6.93287e-06,-1.09883e+09,-1.10118e+09,-1.09943e+09,926578,0.0159053,-0.155776,0,0.156586,2391.83,-40000,0,40071.4,926578
step02_gravity_refstate-mantle.xmf,285,5.31782e-06,-1.3714e-05,0,5.92057e-06,-1.11487e+09,-1.11742e+09,-1.11559e+09,791285,0.0145881,-0.152591,0,0.153286,2119.59,-40499.5,0,40554.9,791285
step02_gravity_refstate-mantle.xmf,286,-2.36329e-07,-1.11977e-06,0,-1.91864e-06,-1.35244e+09,-1.35255e+09,-1.3524e+09,-256426,-0.0311497,-0.0175326,-0,0.0357449,-14216.8,-47832.8,-0,49900.8,256426
step02_gravity_refstate-mantle.xmf,287,1.64108e-06,-5.17209e-06,0,-4.32113e-06,-1.23612e+09,-1.23703e+09,-1.23634e+09,-577519,-0.026351,-0.0762489,-0,0.0806739,-6460.66,-44242,-0,44711.2,577519
step02_gravity_refstate-mantle.xmf,288,8.98797e-07,-3.81742e-06,0,-3.91515e-06,-1.24168e+09,-1.24231e+09,-1.2418e+09,-523260,-0.0282061,-0.0632425,-0,0.0692474,-7947.28,-44412.3,-0,45117.8,523260
step02_gravity_refstate-mantle.xmf,289,-8.72449e-08,-1.46785e-06,0,-2.21309e-06,-1.33231e+09,-1.3325e+09,-1.3323e+09,-295780,-0.0310117,-0.0236915,-0,0.0390258,-13056.7,-47211.3,-0,48983.5,295780
step02_gravity_refstate-mantle.xmf,290,5.60022e-08,-1.82383e-06,0,-2.52092e-06,-1.31198e+09,-1.31223e+09,-1.31198e+09,-336921,-0.0307157,-0.0303142,-0,0.0431556,-11980.1,-46583.2,-0,48099,336921
step02_gravity_refstate-mantle.xmf,291,4.18976e-07,-2.85508e-06,0,-3.45472e-06,-1.25017e+09,-1.25061e+09,-1.25023e+09,-461724,-0.029193,-0.0515786,-0,0.059267,-9346.32,-44673.9,-0,45641.1,461724
step02_gravity_refstate-mantle.xmf,292,1.95673e-07,-2.19248e-06,0,-2.8408e-06,-1.29193e+09,-1.29225e+09,-1.29196e+09,-379672,-0.0302955,-0.0373459,-0,0.0480888,-10980.3,-45963.9,-0,47257.3,379672
step02_gravity_refstate-mantle.xmf,293,3.22522e-07,-2.55232e-06,0,-3.15675e-06,-1.2723e+09,-1.27268e+09,-1.27234e+09,-421899,-0.0297889,-0.0444303,-0,0.0534924,-10098.3,-45357.5,-0,46468,421899
step02_gravity_refstate-mantle.xmf,294,-3.79588e-07,-6.31649e-07,0,-1.27658e-06,-1.4465e+09,-1.44654e+09,-1.44645e+09,-170615,-0.0316961,-0.00675992,-0,0.032409,-16512.3,-50738.8,-0,53358.1,170615
step02_gravity_refstate-mantle.xmf,295,-5.34125e-07,-3.17204e-07,0,-1.03934e-06,-1.47465e+09,-1.47462e+09,-1.47458e+09,-138908,-0.0314217,-0.0030189,-0,0.0315664,-17774.8,-51608.1,-0,54583.4,138908
step02_gravity_refstate-mantle.xmf,296,-1.00299e-06,6.01882e-07,0,-4.52245e-07,-1.57241e+09,-1.5722e+09,-1.57228e+09,-60442.6,-0.0292318,0.00357306,-0,0.0294494,-21834.6,-54627.2,-0,58829.2,60442.6
step02_gravity_refstate-mantle.xmf,297,-6.9464e-07,-1.54991e-09,0,-8.2116e-07,-1.50439e+09,-1.5043e+09,-1.5043e+09,-109748,-0.0309144,3.11209e-05,-0,0.0309145,-19110.3,-52526.5,-0,55894.9,109748
step02_gravity_refstate-mantle.xmf,298,-8.37787e-07,2.84783e-07,0,-6.26012e-07,-1.5395e+09,-1.53935e+09,-1.53939e+09,-83666.5,-0.0302849,0.00208113,-0,0.0303563,-20378.5,-53610.9,-0,57353.4,83666.5
step02_gravity_refstate-mantle.xmf,299,-1.16809e-06,9.79425e-07,0,-2.08017e-07,-1.65005e+09,-1.64976e+09,-1.6499e+09,-27801.4,-0.0279289,0.0030745,-0,0.0280976,-23481.8,-57025.3,-0,61670.7,27801.4
step02_gravity_refstate-mantle.xmf,300,6.20966e-06,-1.34193e-05,0,-3.28638e-06,-1.16281e+09,-1.16544e+09,-1.16364e+09,-439225,-0.00995854,-0.137711,-0,0.138071,-1476.72,-41987.1,-0,42013,439225
step02_gravity_refstate-mantle.xmf,301,5.63623e-06,-1.22118e-05,0,-3.73086e-06,-1.17654e+09,-1.17892e+09,-1.17729e+09,-498629,-0.0124097,-0.129359,-0,0.129953,-1943.94,-42410.2,-0,42454.7,498629
step02_gravity_refstate-mantle.xmf,302,5.04691e-06,-1.10031e-05,0,-3.965e-06,-1.19223e+09,-1.19437e+09,-1.1929e+09,-529922,-0.014588,-0.120425,-0,0.121305,-2428.74,-42894,-0,42962.7,529922
step02_gravity_refstate-mantle.xmf,303,3.09257e-06,-7.74442e-06,0,-4.66524e-06,-1.214e+09,-1.21545e+09,-1.21441e+09,-623510,-0.0218076,-0.0986458,-0,0.101028,-4360.77,-43561.8,-0,43779.5,623510
step02_gravity_refstate-mantle.xmf,304,2.65105e-06,-6.8479e-06,0,-4.47698e-06,-1.22998e+09,-1.23125e+09,-1.23033e+09,-598348,-0.0233379,-0.0895968,-0,0.0925864,-5005.88,-44054.8,-0,44338.3,598348
step02_gravity_refstate-mantle.xmf,305,4.42546e-06,-9.81423e-06,0,-4.14531e-06,-1.20747e+09,-1.20937e+09,-1.20806e+09,-554020,-0.0169205,-0.111331,-0,0.11261,-3009.85,-43363.7,-0,43468,554020
step02_gravity_refstate-mantle.xmf,306,7.04912e-06,-1.47397e-05,0,-8.47777e-07,-1.15878e+09,-1.16169e+09,-1.15972e+09,-113305,-0.00237165,-0.143743,-0,0.143763,-335.28,-41864.6,-0,41866,113305
step02_gravity_refstate-mantle.xmf,307,3.14886e-06,-1.07386e-05,0,7.2825e-06,-1.09893e+09,-1.10078e+09,-1.09935e+09,973306,0.0182002,-0.146717,0,0.147842,2997.53,-40000,0,40112.2,973306
step02_gravity_refstate-mantle.xmf,308,4.20016e-06,-1.19831e-05,0,6.65729e-06,-1.11297e+09,-1.11513e+09,-1.11353e+09,889747,0.0171121,-0.146739,0,0.147733,2649.98,-40437.4,0,40524.2,889747
step02_gravity_refstate-mantle.xmf,309,5.89836e-06,-1.39826e-05,0,4.89642e-06,-1.12976e+09,-1.13241e+09,-1.13054e+09,654407,0.0128741,-0.149004,0,0.149559,1848.24,-40962.4,0,41004,654407
step02_gravity_refstate-mantle.xmf,310,6.50223e-06,-1.4472e-05,0,3.63672e-06,-1.14134e+09,-1.14415e+09,-1.14221e+09,486048,0.00974603,-0.147583,0,0.147905,1377.76,-41323.1,0,41346,486048
step02_gravity_refstate-mantle.xmf,311,6.88358e-06,-1.46125e-05,0,2.14487e-06,-1.15376e+09,-1.15663e+09,-1.15468e+09,286662,0.00598444,-0.144694,0,0.144818,846.765,-41708.9,0,41717.5,286662
step02_gravity_refstate-mantle.xmf,312,1.40002e-06,-4.57949e-06,0,-4.00056e-06,-1.25301e+09,-1.25381e+09,-1.2532e+09,-534675,-0.0273078,-0.0680883,-0,0.0733602,-7153.02,-44763.7,-0,45331.6,534675
step02_gravity_refstate-mantle.xmf,313,7.59582e-07,-3.4481e-06,0,-3.65182e-06,-1.25664e+09,-1.2572e+09,-1.25674e+09,-488065,-0.0287941,-0.0569176,-0,0.0637864,-8546.03,-44874.3,-0,45680.8,488065
step02_gravity_refstate-mantle.xmf,314,-2.25398e-07,-9.52029e-07,0,-1.52636e-06,-1.42104e+09,-1.42114e+09,-1.42101e+09,-203998,-0.03179,-0.0111294,-0,0.0336818,-15310.1,-49952.5,-0,52246.1,203998
step02_gravity_refstate-mantle.xmf,315,-7.34809e-08,-1.28007e-06,0,-1.79348e-06,-1.39626e+09,-1.39642e+09,-1.39625e+09,-239698,-0.0317116,-0.0161397,-0,0.0355825,-14160.6,-49187.1,-0,51184.9,239698
step02_gravity_refstate-mantle.xmf,316,-9.7132e-07,6.34291e-07,0,-2.93395e-07,-1.63799e+09,-1.63778e+09,-1.63786e+09,-39212.2,-0.0296568,0.00230502,-0,0.0297462,-21814.8,-56653.2,-0,60708.1,39212.2
step02_gravity_refstate-mantle.xmf,317,-1.07873e-06,8.91135e-07,0,-1.24613e-07,-1.69566e+09,-1.69539e+09,-1.69551e+09,-16654.5,-0.0288753,0.0014456,-0,0.0289115,-22770.9,-58434.4,-0,62714.4,16654.5
step02_gravity_refstate-mantle.xmf,318,-1.20604e-06,1.17454e-06,0,1.52267e-09,-1.74634e+09,-1.74603e+09,-1.74618e+09,203.505,-0.0276898,1.28794e-21,-0,0.0276898,-23860.6,-60000,-0,64570.3,203.505
step02_gravity_refstate-mantle.xmf,319,2.27921e-06,-6.07004e-06,0,-4.24341e-06,-1.24692e+09,-1.24803e+09,-1.24722e+09,-567132,-0.0246717,-0.0808536,-0,0.084534,-5667.94,-44577.5,-0,44936.4,567132
step02_gravity_refstate-mantle.xmf,320,6.64255e-06,-1.37516e-05,0,-1.85364e-06,-1.17152e+09,-1.17425e+09,-1.17241e+09,-247740,-0.00580148,-0.136873,-0,0.136996,-854.597,-42258.1,-0,42266.7,247740
step02_gravity_refstate-mantle.xmf,321,3.83854e-06,-8.72953e-06,0,-4.19051e-06,-1.2231e+09,-1.22478e+09,-1.22362e+09,-560061,-0.0190257,-0.102294,-0,0.104048,-3621.81,-43845.5,-0,43994.9,560061
step02_gravity_refstate-mantle.xmf,322,6.94296e-06,-1.431e-05,0,7.46793e-07,-1.16663e+09,-1.16947e+09,-1.16756e+09,99808.9,0.00215715,-0.140246,0,0.140262,310.663,-42107.6,0,42108.7,99808.9
step02_gravity_refstate-mantle.xmf,323,2.05104e-06,-8.68727e-06,0,7.15586e-06,-1.099e+09,-1.10043e+09,-1.09927e+09,956381,0.0198084,-0.137014,0,0.138439,3617.79,-40000,0,40163.3,956381
step02_gravity_refstate-mantle.xmf,324,3.24261e-06,-1.01225e-05,0,6.70596e-06,-1.11924e+09,-1.12102e+09,-1.11967e+09,896252,0.0193134,-0.136654,0,0.138012,3238.8,-40629.5,0,40758.4,896252
step02_gravity_refstate-mantle.xmf,325,4.69264e-06,-1.20535e-05,0,5.86161e-06,-1.13249e+09,-1.13472e+09,-1.13311e+09,783404,0.0164017,-0.140998,0,0.141949,2522.37,-41043.5,0,41121,783404
step02_gravity_refstate-mantle.xmf,326,8.39914e-08,-1.62775e-06,0,-2.07594e-06,-1.37295e+09,-1.37318e+09,-1.37296e+09,-277449,-0.031489,-0.0217912,-0,0.0382938,-13047.5,-48467.3,-0,50192.8,277449
step02_gravity_refstate-mantle.xmf,327,1.95719e-06,-5.38507e-06,0,-3.98909e-06,-1.26435e+09,-1.26533e+09,-1.26461e+09,-533142,-0.025866,-0.0724733,-0,0.0769508,-6355.8,-45115.6,-0,45561.1,533142
step02_gravity_refstate-mantle.xmf,328,1.15735e-06,-4.01023e-06,0,-3.68097e-06,-1.27166e+09,-1.27235e+09,-1.27181e+09,-491961,-0.0282408,-0.0596794,-0,0.066024,-7938.42,-45339.6,-0,46029.3,491961
step02_gravity_refstate-mantle.xmf,329,2.51907e-07,-2.00617e-06,0,-2.37742e-06,-1.35049e+09,-1.35079e+09,-1.35052e+09,-317743,-0.0311231,-0.0281555,-0,0.0419688,-11957.1,-47773.6,-0,49247.3,317743
step02_gravity_refstate-mantle.xmf,330,4.3402e-07,-2.42382e-06,0,-2.69727e-06,-1.32876e+09,-1.32914e+09,-1.32882e+09,-360490,-0.0306146,-0.0352249,-0,0.0466696,-10893.5,-47102.7,-0,48345.9,360490
step02_gravity_refstate-mantle.xmf,331,8.3024e-07,-3.38574e-06,0,-3.40679e-06,-1.28357e+09,-1.28413e+09,-1.28368e+09,-455317,-0.0291832,-0.0516012,-0,0.0592819,-8891.31,-45706.8,-0,46563.6,455317
step02_gravity_refstate-mantle.xmf,332,6.33558e-07,-2.89075e-06,0,-3.0367e-06,-1.30764e+09,-1.30811e+09,-1.30773e+09,-405855,-0.0299615,-0.0429936,-0,0.0524036,-9859.85,-46450.4,-0,47485.4,405855
step02_gravity_refstate-mantle.xmf,333,-2.59733e-07,-7.3177e-07,0,-1.12352e-06,-1.49506e+09,-1.49512e+09,-1.49502e+09,-150158,-0.0321255,-0.00596114,-0,0.0326739,-16428.5,-52239.2,-0,54761.6,150158
step02_gravity_refstate-mantle.xmf,334,-8.27134e-08,-1.07727e-06,0,-1.36979e-06,-1.46753e+09,-1.46767e+09,-1.46752e+09,-183072,-0.0321616,-0.00994987,-0,0.0336655,-15221.7,-51389.3,-0,53596.3,183072
step02_gravity_refstate-mantle.xmf,335,-4.28943e-07,-4.04181e-07,0,-8.96573e-07,-1.52425e+09,-1.52425e+09,-1.52419e+09,-119827,-0.0319051,-0.00276816,-0,0.032025,-17638.2,-53140.7,-0,55991.4,119827
step02_gravity_refstate-mantle.xmf,336,-7.74646e-07,2.658e-07,0,-4.67191e-07,-1.59969e+09,-1.59955e+09,-1.59959e+09,-62440,-0.0307892,0.0014494,-0,0.0308233,-20288.5,-55470.5,-0,59064.4,62440
step02_gravity_refstate-mantle.xmf,337,-5.53327e-07,-1.30108e-07,0,-6.67853e-07,-1.56747e+09,-1.56741e+09,-1.5674e+09,-89258.6,-0.031646,-0.000519069,-0,0.0316502,-18720.2,-54475.6,-0,57602.5,89258.6
step02_gravity_refstate-mantle.xmf,338,6.16356e-06,-1.28346e-05,0,-2.63273e-06,-1.1817e+09,-1.18424e+09,-1.18253e+09,-351864,-0.00877339,-0.130731,-0,0.131025,-1345.85,-42571.7,-0,42593,351864
step02_gravity_refstate-mantle.xmf,339,5.76922e-06,-1.1932e-05,0,-2.72493e-06,-1.20082e+09,-1.20319e+09,-1.2016e+09,-364186,-0.00989532,-0.122254,-0,0.122654,-1600.48,-43162.1,-0,43191.7,364186
step02_gravity_refstate-mantle.xmf,340,5.11709e-06,-1.06288e-05,0,-3.24068e-06,-1.21692e+09,-1.21902e+09,-1.2176e+09,-433117,-0.0131244,-0.113199,-0,0.113957,-2265.65,-43658.2,-0,43717,433117
step02_gravity_refstate-mantle.xmf,341,3.36087e-06,-7.7913e-06,0,-4.13992e-06,-1.23974e+09,-1.24123e+09,-1.24019e+09,-553301,-0.020824,-0.0934302,-0,0.0957227,-4240.3,-44358.5,-0,44560.7,553301
step02_gravity_refstate-mantle.xmf,342,2.94928e-06,-6.96216e-06,0,-3.99253e-06,-1.25775e+09,-1.25907e+09,-1.25814e+09,-533601,-0.0223521,-0.0847759,-0,0.0876731,-4862.78,-44914.3,-0,45176.8,533601
step02_gravity_refstate-mantle.xmf,343,4.53119e-06,-9.56608e-06,0,-3.52138e-06,-1.23225e+09,-1.23413e+09,-1.23285e+09,-470632,-0.0156815,-0.104773,-0,0.10594,-2881.7,-44130.4,-0,44224.4,470632
step02_gravity_refstate-mantle.xmf,344,6.74556e-06,-1.37404e-05,0,-4.75519e-07,-1.17927e+09,-1.182e+09,-1.18017e+09,-63553.1,-0.00145974,-0.134867,-0,0.134875,-216.404,-42498,-0,42498.5,63553.1
step02_gravity_refstate-mantle.xmf,345,2.07083e-06,-8.11035e-06,0,6.68711e-06,-1.11662e+09,-1.11798e+09,-1.1169e+09,893732,0.0211088,-0.127615,0,0.129349,3938.1,-40546,0,40736.8,893732
step02_gravity_refstate-mantle.xmf,346,5.59827e-06,-1.28667e-05,0,4.62094e-06,-1.14864e+09,-1.15111e+09,-1.14939e+09,617588,0.0136064,-0.139445,0,0.140107,2041.19,-41546.6,0,41596.7,617588
step02_gravity_refstate-mantle.xmf,347,6.18378e-06,-1.3363e-05,0,3.37339e-06,-1.16207e+09,-1.16468e+09,-1.1629e+09,450854,0.0101584,-0.13784,0,0.138213,1506.69,-41964.1,0,41991.1,450854
step02_gravity_refstate-mantle.xmf,348,6.52094e-06,-1.35089e-05,0,2.07627e-06,-1.17436e+09,-1.17703e+09,-1.17523e+09,277494,0.00646797,-0.135307,0,0.135462,962.232,-42345.4,0,42356.4,277494
step02_gravity_refstate-mantle.xmf,349,1.66544e-06,-4.75178e-06,0,-3.70887e-06,-1.28211e+09,-1.28297e+09,-1.28233e+09,-495691,-0.0269849,-0.0643055,-0,0.069738,-7096.89,-45663.9,-0,46212.1,495691
step02_gravity_refstate-mantle.xmf,350,9.04923e-08,-1.4261e-06,0,-1.63099e-06,-1.44081e+09,-1.44101e+09,-1.44082e+09,-217982,-0.032016,-0.0145863,-0,0.0351822,-14075.9,-50563.9,-0,52486.6,217982
step02_gravity_refstate-mantle.xmf,351,2.66731e-07,-1.78949e-06,0,-1.90607e-06,-1.41523e+09,-1.41551e+09,-1.41527e+09,-254747,-0.0317146,-0.0198815,-0,0.0374311,-12970,-49774.3,-0,51436.4,254747
step02_gravity_refstate-mantle.xmf,352,-7.14708e-07,2.58374e-07,0,-3.07567e-07,-1.65297e+09,-1.65284e+09,-1.65288e+09,-41106.3,-0.031131,0.000878907,-0,0.0311434,-20135.6,-57116.7,-0,60562.1,41106.3
step02_gravity_refstate-mantle.xmf,353,-8.23867e-07,4.98152e-07,0,-1.37366e-07,-1.70132e+09,-1.70114e+09,-1.70121e+09,-18359,-0.0306439,0.000727311,-0,0.0306525,-20922.7,-58610.1,-0,62232.6,18359
step02_gravity_refstate-mantle.xmf,354,-9.58341e-07,7.7667e-07,0,1.44318e-09,-1.74632e+09,-1.74609e+09,-1.7462e+09,192.88,-0.0298318,8.09157e-21,-0,0.0298318,-21880.6,-60000,-0,63865.2,192.88
step02_gravity_refstate-mantle.xmf,355,2.56968e-06,-6.21371e-06,0,-3.825e-06,-1.27522e+09,-1.27639e+09,-1.27556e+09,-511211,-0.0238066,-0.076507,-0,0.0801253,-5529.62,-45453.3,-0,45788.4,511211
step02_gravity_refstate-mantle.xmf,356,1.26554e-06,-7.02288e-06,0,6.74567e-06,-1.09903e+09,-1.10014e+09,-1.0992e+09,901559,0.0208695,-0.127005,0,0.128708,4258.41,-40000,0,40226,901559
step02_gravity_refstate-mantle.xmf,357,6.35503e-06,-1.28117e-05,0,-1.36387e-06,-1.19528e+09,-1.19784e+09,-1.19613e+09,-182281,-0.00482475,-0.127432,-0,0.127523,-749.128,-42992.4,-0,42998.9,182281
step02_gravity_refstate-mantle.xmf,358,3.99293e-06,-8.61152e-06,0,-3.6465e-06,-1.24745e+09,-1.24913e+09,-1.24798e+09,-487355,-0.0178869,-0.096638,-0,0.0982794,-3496.45,-44598.9,-0,44735.7,487355
step02_gravity_refstate-mantle.xmf,359,6.59477e-06,-1.33259e-05,0,8.95253e-07,-1.18606e+09,-1.18872e+09,-1.18694e+09,119651,0.00288361,-0.13177,0,0.131801,435.722,-42707.8,0,42710,119651
step02_gravity_refstate-mantle.xmf,360,2.75497e-06,-8.87502e-06,0,6.38544e-06,-1.13234e+09,-1.13389e+09,-1.1327e+09,853414,0.0208237,-0.12646,0,0.128163,3717.27,-41034.1,0,41202.1,853414
step02_gravity_refstate-mantle.xmf,361,3.652e-06,-1.00988e-05,0,6.04165e-06,-1.14228e+09,-1.14411e+09,-1.14276e+09,807467,0.0192382,-0.129527,0,0.130948,3230.86,-41344,0,41470.1,807467
step02_gravity_refstate-mantle.xmf,362,4.61696e-06,-1.12193e-05,0,5.24385e-06,-1.15608e+09,-1.1582e+09,-1.1567e+09,700841,0.0167736,-0.130693,0,0.131765,2694.04,-41774,0,41860.8,700841
step02_gravity_refstate-mantle.xmf,363,4.49425e-07,-2.1736e-06,0,-2.19201e-06,-1.39091e+09,-1.39126e+09,-1.39097e+09,-292962,-0.0312719,-0.025788,-0,0.0405333,-11905.4,-49023.2,-0,50448.1,292962
step02_gravity_refstate-mantle.xmf,364,2.22685e-06,-5.5441e-06,0,-3.64107e-06,-1.2922e+09,-1.29323e+09,-1.29249e+09,-486629,-0.0251398,-0.0686996,-0,0.0731549,-6224.44,-45977.1,-0,46396.6,486629
step02_gravity_refstate-mantle.xmf,365,1.40261e-06,-4.18065e-06,0,-3.43212e-06,-1.30065e+09,-1.3014e+09,-1.30084e+09,-458703,-0.0280058,-0.0563805,-0,0.062953,-7884.55,-46236.4,-0,46903.8,458703
step02_gravity_refstate-mantle.xmf,366,6.52755e-07,-2.60255e-06,0,-2.49399e-06,-1.36747e+09,-1.3679e+09,-1.36755e+09,-333322,-0.0306738,-0.0324691,-0,0.0446668,-10845.8,-48299.3,-0,49502.1,333322
step02_gravity_refstate-mantle.xmf,367,8.95913e-07,-3.09968e-06,0,-2.80165e-06,-1.34596e+09,-1.34649e+09,-1.34608e+09,-374441,-0.0298931,-0.0398887,-0,0.0498468,-9783.91,-47635.2,-0,48629.6,374441
step02_gravity_refstate-mantle.xmf,368,1.21511e-06,-3.7321e-06,0,-3.12149e-06,-1.32655e+09,-1.32721e+09,-1.32671e+09,-417187,-0.0287957,-0.0484371,-0,0.0563502,-8646.84,-47036.2,-0,47824.4,417187
step02_gravity_refstate-mantle.xmf,369,-1.37998e-07,-8.27949e-07,0,-9.51627e-07,-1.54266e+09,-1.54275e+09,-1.54264e+09,-127185,-0.0323834,-0.00516,-0,0.032792,-16273.3,-53710.3,-0,56121.4,127185
step02_gravity_refstate-mantle.xmf,370,5.33429e-08,-1.18288e-06,0,-1.18017e-06,-1.51495e+09,-1.51511e+09,-1.51495e+09,-157729,-0.0323468,-0.00858058,-0,0.0334655,-15114.8,-52854.5,-0,54973.2,157729
step02_gravity_refstate-mantle.xmf,371,2.50732e-07,-1.55665e-06,0,-1.43501e-06,-1.48653e+09,-1.48677e+09,-1.48656e+09,-191789,-0.0321166,-0.0128533,-0,0.0345931,-13957.1,-51977.2,-0,53818.5,191789
step02_gravity_refstate-mantle.xmf,372,-2.96224e-07,-5.3418e-07,0,-7.72998e-07,-1.56662e+09,-1.56665e+09,-1.56658e+09,-103311,-0.0322584,-0.00283038,-0,0.0323823,-17269.3,-54450,-0,57122.9,103311
step02_gravity_refstate-mantle.xmf,373,-5.23673e-07,-8.00549e-08,0,-4.43003e-07,-1.62887e+09,-1.62881e+09,-1.6288e+09,-59207.4,-0.0318282,-0.000111373,-0,0.0318284,-18887.1,-56372.5,-0,59452.3,59207.4
step02_gravity_refstate-mantle.xmf,374,1.31204e-06,-6.59053e-06,0,6.33036e-06,-1.11758e+09,-1.11863e+09,-1.11775e+09,846053,0.02231,-0.117614,0,0.119712,4630.01,-40574.4,0,40837.7,846053
step02_gravity_refstate-mantle.xmf,375,5.5783e-06,-1.11008e-05,0,-2.16086e-06,-1.22743e+09,-1.22966e+09,-1.22817e+09,-288799,-0.00886216,-0.113191,-0,0.113537,-1511.95,-43984.6,-0,44010.6,288799
step02_gravity_refstate-mantle.xmf,376,5.06116e-06,-1.01627e-05,0,-2.66711e-06,-1.24203e+09,-1.24407e+09,-1.24271e+09,-356460,-0.011874,-0.105778,-0,0.106443,-2138.44,-44434.8,-0,44486.2,356460
step02_gravity_refstate-mantle.xmf,377,3.63362e-06,-7.81918e-06,0,-3.52446e-06,-1.26885e+09,-1.27038e+09,-1.26933e+09,-471043,-0.0192497,-0.0880129,-0,0.0900934,-4003.44,-45259.5,-0,45436.2,471043
step02_gravity_refstate-mantle.xmf,378,3.16332e-06,-6.9791e-06,0,-3.51596e-06,-1.28578e+09,-1.28714e+09,-1.28621e+09,-469908,-0.021248,-0.079689,-0,0.0824731,-4720.62,-45781.7,-0,46024.4,469908
step02_gravity_refstate-mantle.xmf,379,4.54721e-06,-9.26026e-06,0,-3.00611e-06,-1.25625e+09,-1.2581e+09,-1.25686e+09,-401767,-0.0145598,-0.0984093,-0,0.0994806,-2771.89,-44872.9,-0,44958.5,401767
step02_gravity_refstate-mantle.xmf,380,6.48854e-06,-1.29577e-05,0,-3.54986e-08,-1.19672e+09,-1.19932e+09,-1.19759e+09,-4744.39,-0.000183104,-0.127756,-0,0.127756,-27.9207,-43037.4,-0,43037.4,4744.39
step02_gravity_refstate-mantle.xmf,381,2.02391e-06,-7.53256e-06,0,6.25307e-06,-1.13418e+09,-1.13546e+09,-1.13445e+09,835722,0.0222326,-0.118438,0,0.120507,4299.04,-41089.6,0,41313.9,835722
step02_gravity_refstate-mantle.xmf,382,5.40824e-06,-1.19885e-05,0,4.16367e-06,-1.17046e+09,-1.17278e+09,-1.17118e+09,556475,0.0137255,-0.130134,0,0.130855,2156.16,-42221.4,0,42276.4,556475
step02_gravity_refstate-mantle.xmf,383,5.89513e-06,-1.24138e-05,0,3.05572e-06,-1.18389e+09,-1.18634e+09,-1.18468e+09,408398,0.0103028,-0.128565,0,0.128977,1608.06,-42638.6,0,42668.9,408398
step02_gravity_refstate-mantle.xmf,384,6.18698e-06,-1.25982e-05,0,2.00225e-06,-1.19404e+09,-1.19655e+09,-1.19487e+09,267601,0.00697859,-0.126912,0,0.127104,1090.34,-42953.6,0,42967.4,267601
step02_gravity_refstate-mantle.xmf,385,1.93028e-06,-4.93916e-06,0,-3.41686e-06,-1.30998e+09,-1.31089e+09,-1.31023e+09,-456664,-0.0263302,-0.0611547,-0,0.0665821,-6943.52,-46526,-0,47041.2,456664
step02_gravity_refstate-mantle.xmf,386,4.3947e-07,-1.92771e-06,0,-1.7027e-06,-1.45834e+09,-1.45866e+09,-1.4584e+09,-227565,-0.0317311,-0.0177565,-0,0.0363615,-12873.8,-51106.7,-0,52703.3,227565
step02_gravity_refstate-mantle.xmf,387,6.37285e-07,-2.31938e-06,0,-1.97522e-06,-1.43223e+09,-1.43263e+09,-1.43232e+09,-263988,-0.0312002,-0.0232635,-0,0.0389184,-11822.4,-50300.4,-0,51671.1,263988
step02_gravity_refstate-mantle.xmf,388,-2.8714e-07,-4.73347e-07,0,-5.90713e-07,-1.60902e+09,-1.60904e+09,-1.60898e+09,-78948.8,-0.0323318,-0.00183265,-0,0.0323837,-17499,-55760,-0,58441.3,78948.8
step02_gravity_refstate-mantle.xmf,389,-5.06386e-07,-1.40034e-08,0,-2.17886e-07,-1.68955e+09,-1.68948e+09,-1.68948e+09,-29120.4,-0.0319308,3.47155e-05,-0,0.0319308,-18961.2,-58247.2,-0,61255.7,29120.4
step02_gravity_refstate-mantle.xmf,390,-6.67594e-07,3.23617e-07,0,2.92001e-09,-1.7463e+09,-1.74617e+09,-1.74621e+09,390.26,-0.0313908,2.79356e-20,-0,0.0313908,-19964.7,-60000,-0,63234.4,390.26
step02_gravity_refstate-mantle.xmf,391,6.98101e-07,-5.6771e-06,0,6.23105e-06,-1.09904e+09,-1.09989e+09,-1.09913e+09,832780,0.0215194,-0.116899,0,0.118864,4923.76,-40000,0,40301.9,832780
step02_gravity_refstate-mantle.xmf,392,2.79867e-06,-6.29721e-06,0,-3.41809e-06,-1.30287e+09,-1.30408e+09,-1.30324e+09,-456828,-0.0227698,-0.0722082,-0,0.0757132,-5368.73,-46308.7,-0,46618.9,456828
step02_gravity_refstate-mantle.xmf,393,5.98075e-06,-1.18831e-05,0,-1.49863e-06,-1.216e+09,-1.21839e+09,-1.2168e+09,-200291,-0.00573706,-0.119061,-0,0.119199,-939.193,-43632.4,-0,43642.5,200291
step02_gravity_refstate-mantle.xmf,394,4.12249e-06,-8.53149e-06,0,-3.20098e-06,-1.26731e+09,-1.26901e+09,-1.26786e+09,-427810,-0.016674,-0.0923839,-0,0.0938765,-3327.28,-45213.6,-0,45335.9,427810
step02_gravity_refstate-mantle.xmf,395,6.26223e-06,-1.244e-05,0,1.04104e-06,-1.20565e+09,-1.20815e+09,-1.20649e+09,139135,0.00364222,-0.123737,0,0.123791,577.544,-43313.2,0,43317.1,139135
step02_gravity_refstate-mantle.xmf,396,6.17679e-06,-1.20879e-05,0,-2.17872e-07,-1.21749e+09,-1.21993e+09,-1.21831e+09,-29118.7,-0.000942408,-0.119688,-0,0.119692,-153.121,-43679.1,-0,43679.3,29118.7
step02_gravity_refstate-mantle.xmf,397,2.85534e-06,-8.56275e-06,0,5.97917e-06,-1.14959e+09,-1.15112e+09,-1.14997e+09,799116,0.0213252,-0.119644,0,0.12153,3891.22,-41568.6,0,41750.4,799116
step02_gravity_refstate-mantle.xmf,398,3.71702e-06,-9.64074e-06,0,5.48988e-06,-1.16395e+09,-1.16573e+09,-1.16444e+09,733722,0.0194772,-0.121256,0,0.122811,3379.71,-42015.1,0,42150.8,733722
step02_gravity_refstate-mantle.xmf,399,4.55142e-06,-1.05653e-05,0,4.70112e-06,-1.1791e+09,-1.18112e+09,-1.17971e+09,628304,0.0168261,-0.121747,0,0.122904,2823.37,-42486.3,0,42580,628304
step02_gravity_refstate-mantle.xmf,400,8.54139e-07,-2.74823e-06,0,-2.25419e-06,-1.4076e+09,-1.40808e+09,-1.40772e+09,-301273,-0.030512,-0.0294381,-0,0.0423979,-10784,-49540,-0,50700.2,301273
step02_gravity_refstate-mantle.xmf,401,2.45519e-06,-5.6617e-06,0,-3.29555e-06,-1.31909e+09,-1.32017e+09,-1.31941e+09,-440450,-0.0242273,-0.0650816,-0,0.0694448,-6059.08,-46809,-0,47199.5,440450
step02_gravity_refstate-mantle.xmf,402,1.76308e-06,-4.53181e-06,0,-3.17784e-06,-1.33071e+09,-1.33156e+09,-1.33095e+09,-424718,-0.0270659,-0.0546515,-0,0.0609864,-7512.23,-47166.5,-0,47761,424718
step02_gravity_refstate-mantle.xmf,403,1.10044e-06,-3.22789e-06,0,-2.53283e-06,-1.3847e+09,-1.38528e+09,-1.38485e+09,-338512,-0.0296468,-0.0362447,-0,0.0468253,-9755.76,-48833,-0,49798,338512
step02_gravity_refstate-mantle.xmf,404,1.36889e-06,-3.7385e-06,0,-2.78817e-06,-1.36467e+09,-1.36535e+09,-1.36485e+09,-372638,-0.028646,-0.0431937,-0,0.0518295,-8797.67,-48214.7,-0,49010.8,372638
step02_gravity_refstate-mantle.xmf,405,-4.3432e-08,-8.78133e-07,0,-7.50032e-07,-1.59054e+09,-1.59066e+09,-1.59054e+09,-100242,-0.032508,-0.00405695,-0,0.0327602,-16183.5,-55189.9,-0,57513.7,100242
step02_gravity_refstate-mantle.xmf,406,1.8387e-07,-1.27221e-06,0,-9.57367e-07,-1.56455e+09,-1.56475e+09,-1.56458e+09,-127952,-0.0323936,-0.00700951,-0,0.0331433,-14972.1,-54387.5,-0,56410.7,127952
step02_gravity_refstate-mantle.xmf,407,6.08198e-07,-2.053e-06,0,-1.46546e-06,-1.5039e+09,-1.50426e+09,-1.50398e+09,-195859,-0.0315733,-0.0153918,-0,0.0351252,-12733.1,-52514.9,-0,54036.5,195859
step02_gravity_refstate-mantle.xmf,408,4.00074e-07,-1.66362e-06,0,-1.20321e-06,-1.53433e+09,-1.53461e+09,-1.53439e+09,-160809,-0.0320647,-0.0108317,-0,0.0338448,-13821.7,-53454.4,-0,55212.5,160809
step02_gravity_refstate-mantle.xmf,409,-2.8813e-07,-3.92888e-07,0,-3.89806e-07,-1.65467e+09,-1.65468e+09,-1.65463e+09,-52097.6,-0.0323673,-0.00099068,-0,0.0323824,-17719.2,-57170.3,-0,59853.2,52097.6
step02_gravity_refstate-mantle.xmf,410,7.7173e-07,-5.4173e-06,0,5.914e-06,-1.1175e+09,-1.11833e+09,-1.11761e+09,790405,0.022986,-0.108614,0,0.11102,5282.64,-40571.5,0,40914,790405
step02_gravity_refstate-mantle.xmf,411,2.90836e-07,-4.58116e-06,0,5.68756e-06,-1.09904e+09,-1.09969e+09,-1.09908e+09,760143,0.0218596,-0.106827,0,0.109041,5617.28,-40000,0,40392.5,760143
step02_gravity_refstate-mantle.xmf,412,1.3321e-06,-6.19217e-06,0,5.94885e-06,-1.13521e+09,-1.13622e+09,-1.13539e+09,795063,0.0234204,-0.109248,0,0.11173,4992.92,-41120.3,0,41422.4,795063
step02_gravity_refstate-mantle.xmf,413,5.81211e-06,-1.12754e-05,0,-1.01724e-06,-1.2366e+09,-1.23889e+09,-1.23738e+09,-135955,-0.00430425,-0.112128,-0,0.112211,-734.778,-44269.3,-0,44275.4,135955
step02_gravity_refstate-mantle.xmf,414,5.39998e-06,-1.0485e-05,0,-1.70029e-06,-1.2523e+09,-1.25442e+09,-1.25302e+09,-227244,-0.00769724,-0.105338,-0,0.105619,-1378.02,-44753.2,-0,44774.4,227244
step02_gravity_refstate-mantle.xmf,415,4.9575e-06,-9.697e-06,0,-2.217e-06,-1.26645e+09,-1.2684e+09,-1.26711e+09,-296303,-0.0108064,-0.0987359,-0,0.0993255,-2030.89,-45189.4,-0,45235,296303
step02_gravity_refstate-mantle.xmf,416,3.34194e-06,-6.97878e-06,0,-3.03931e-06,-1.31554e+09,-1.31692e+09,-1.31599e+09,-406204,-0.0198244,-0.0744888,-0,0.0770817,-4508.09,-46702.1,-0,46919.1,406204
step02_gravity_refstate-mantle.xmf,417,3.63892e-06,-7.57556e-06,0,-3.12651e-06,-1.29581e+09,-1.29731e+09,-1.2963e+09,-417858,-0.0186035,-0.0815338,-0,0.0836293,-4016,-46093.1,-0,46267.7,417858
step02_gravity_refstate-mantle.xmf,418,4.51124e-06,-8.94449e-06,0,-2.60413e-06,-1.27849e+09,-1.28029e+09,-1.27909e+09,-348042,-0.0136333,-0.0925648,-0,0.0935634,-2686.64,-45560.3,-0,45639.4,348042
step02_gravity_refstate-mantle.xmf,419,4.06278e-06,-8.22033e-06,0,-2.9035e-06,-1.28812e+09,-1.28976e+09,-1.28866e+09,-388052,-0.0162785,-0.0868219,-0,0.0883348,-3360.65,-45856.6,-0,45979.6,388052
step02_gravity_refstate-mantle.xmf,420,2.045e-06,-7.10505e-06,0,5.82087e-06,-1.15416e+09,-1.15539e+09,-1.15444e+09,777959,0.0231266,-0.109811,0,0.11222,4629.17,-41708.2,0,41964.3,777959
step02_gravity_refstate-mantle.xmf,421,5.27652e-06,-1.12513e-05,0,3.62789e-06,-1.19468e+09,-1.19689e+09,-1.19539e+09,484868,0.013403,-0.121049,0,0.121789,2210.42,-42970.8,0,43027.6,484868
step02_gravity_refstate-mantle.xmf,422,5.75977e-06,-1.16578e-05,0,2.36885e-06,-1.2105e+09,-1.21282e+09,-1.21127e+09,316596,0.00886989,-0.119365,0,0.119694,1456.33,-43461.4,0,43485.8,316596
step02_gravity_refstate-mantle.xmf,423,2.17877e-06,-5.14487e-06,0,-3.16182e-06,-1.33314e+09,-1.33412e+09,-1.33343e+09,-422577,-0.0254007,-0.0590974,-0,0.064325,-6685.21,-47242.5,-0,47713.2,422577
step02_gravity_refstate-mantle.xmf,424,1.65853e-06,-4.24501e-06,0,-2.94208e-06,-1.35412e+09,-1.35491e+09,-1.35434e+09,-393209,-0.0275233,-0.0488816,-0,0.0560976,-7972.01,-47889.4,-0,48548.4,393209
step02_gravity_refstate-mantle.xmf,425,8.11159e-07,-2.44483e-06,0,-1.73783e-06,-1.47385e+09,-1.47429e+09,-1.47396e+09,-232261,-0.0309561,-0.0206279,-0,0.0371993,-11703.1,-51586.9,-0,52897.8,232261
step02_gravity_refstate-mantle.xmf,426,1.03459e-06,-2.86572e-06,0,-1.99499e-06,-1.44813e+09,-1.44865e+09,-1.44827e+09,-266631,-0.0301795,-0.0262838,-0,0.0400205,-10694.7,-50792.8,-0,51906.5,266631
step02_gravity_refstate-mantle.xmf,427,1.14214e-08,-8.60842e-07,0,-4.90591e-07,-1.64595e+09,-1.64606e+09,-1.64595e+09,-65567.5,-0.0325661,-0.0025287,-0,0.0326641,-16214.7,-56901.6,-0,59166.8,65567.5
step02_gravity_refstate-mantle.xmf,428,-1.45475e-07,-5.37902e-07,0,-2.17517e-07,-1.69885e+09,-1.6989e+09,-1.69883e+09,-29071.2,-0.0325431,-0.000744761,-0,0.0325516,-17110.7,-58535.6,-0,60985.2,29071.2
step02_gravity_refstate-mantle.xmf,429,-3.37e-07,-1.76731e-07,0,1.85269e-09,-1.74627e+09,-1.74625e+09,-1.74622e+09,247.611,-0.032322,3.62606e-20,-0,0.032322,-18107.5,-60000,-0,62672.8,247.611
step02_gravity_refstate-mantle.xmf,430,3.87665e-07,-4.46585e-06,0,5.45592e-06,-1.11833e+09,-1.11898e+09,-1.11838e+09,729183,0.0234247,-0.0995126,0,0.102232,5957.4,-40596.8,0,41031.6,729183
step02_gravity_refstate-mantle.xmf,431,2.98386e-06,-6.33898e-06,0,-3.02046e-06,-1.33033e+09,-1.33158e+09,-1.33073e+09,-403684,-0.0215722,-0.0679496,-0,0.0712917,-5173.78,-47158.3,-0,47441.2,403684
step02_gravity_refstate-mantle.xmf,432,5.9043e-06,-1.15272e-05,0,1.10789e-06,-1.22862e+09,-1.23095e+09,-1.22941e+09,148070,0.00436309,-0.114946,0,0.115029,731.548,-44022.7,0,44028.8,148070
step02_gravity_refstate-mantle.xmf,433,2.93283e-06,-8.21412e-06,0,5.51416e-06,-1.17066e+09,-1.17215e+09,-1.17105e+09,736967,0.0217344,-0.111925,0,0.114016,4091.26,-42220.9,0,42418.7,736967
step02_gravity_refstate-mantle.xmf,434,3.74441e-06,-9.19126e-06,0,4.96125e-06,-1.18717e+09,-1.1889e+09,-1.18767e+09,663071,0.0195544,-0.113045,0,0.114724,3527.22,-42733.8,0,42879.1,663071
step02_gravity_refstate-mantle.xmf,435,4.46936e-06,-9.96844e-06,0,4.19346e-06,-1.20332e+09,-1.20525e+09,-1.20392e+09,560456,0.0167177,-0.113127,0,0.114355,2939.09,-43235.4,0,43335.2,560456
step02_gravity_refstate-mantle.xmf,436,1.28538e-06,-3.33153e-06,0,-2.24531e-06,-1.4244e+09,-1.42501e+09,-1.42457e+09,-300086,-0.0292181,-0.0325134,-0,0.0437129,-9690.62,-50060.2,-0,50989.5,300086
step02_gravity_refstate-mantle.xmf,437,2.60244e-06,-5.67529e-06,0,-2.96448e-06,-1.34598e+09,-1.34709e+09,-1.34633e+09,-396202,-0.0233986,-0.0609479,-0,0.0652851,-5954.8,-47640.9,-0,48011.6,396202
step02_gravity_refstate-mantle.xmf,438,2.16397e-06,-4.95304e-06,0,-2.89588e-06,-1.35984e+09,-1.3608e+09,-1.36013e+09,-387034,-0.0254566,-0.0535602,-0,0.0593021,-6937.24,-48067.9,-0,48565.9,387034
step02_gravity_refstate-mantle.xmf,439,1.56481e-06,-3.84133e-06,0,-2.47467e-06,-1.40298e+09,-1.4037e+09,-1.40319e+09,-330739,-0.0280687,-0.0391224,-0,0.0481499,-8712.16,-49399.2,-0,50161.6,330739
step02_gravity_refstate-mantle.xmf,440,1.85931e-06,-4.37735e-06,0,-2.6769e-06,-1.38304e+09,-1.38388e+09,-1.38329e+09,-357767,-0.0267909,-0.0459166,-0,0.0531609,-7798.68,-48784,-0,49403.4,357767
step02_gravity_refstate-mantle.xmf,441,9.8519e-07,-2.56478e-06,0,-1.46777e-06,-1.51867e+09,-1.51915e+09,-1.5188e+09,-196168,-0.0305373,-0.0177183,-0,0.0353053,-11518,-52972.3,-0,54210.1,196168
step02_gravity_refstate-mantle.xmf,442,2.83016e-07,-1.31423e-06,0,-7.05838e-07,-1.61502e+09,-1.61524e+09,-1.61506e+09,-94335.2,-0.0323636,-0.00515039,-0,0.0327709,-14876.8,-55947.1,-0,57891.3,94335.2
step02_gravity_refstate-mantle.xmf,443,5.40147e-07,-1.75103e-06,0,-9.35388e-07,-1.5852e+09,-1.5855e+09,-1.58527e+09,-125015,-0.0318946,-0.00850733,-0,0.0330097,-13648.7,-55026.4,-0,56693.8,125015
step02_gravity_refstate-mantle.xmf,444,7.74752e-07,-2.1715e-06,0,-1.19928e-06,-1.55169e+09,-1.55208e+09,-1.55179e+09,-160284,-0.0312569,-0.0128044,-0,0.0337779,-12524.6,-53991.7,-0,55425.4,160284
step02_gravity_refstate-mantle.xmf,445,8.10936e-07,-5.17506e-06,0,5.63515e-06,-1.13165e+09,-1.13245e+09,-1.13176e+09,753138,0.0239449,-0.102007,0,0.10478,5608.85,-41009.3,0,41391.1,753138
step02_gravity_refstate-mantle.xmf,446,-8.30406e-10,-3.68389e-06,0,5.14632e-06,-1.09903e+09,-1.09952e+09,-1.09903e+09,687806,0.0219626,-0.0968762,0,0.0993345,6341.87,-40000,0,40499.6,687806
step02_gravity_refstate-mantle.xmf,447,1.29044e-06,-5.68469e-06,0,5.49084e-06,-1.15617e+09,-1.1571e+09,-1.15634e+09,733850,0.0246091,-0.0990956,0,0.102106,5509.13,-41768.6,0,42130.4,733850
step02_gravity_refstate-mantle.xmf,448,5.52998e-06,-1.05293e-05,0,-7.0601e-07,-1.26239e+09,-1.26454e+09,-1.26313e+09,-94358.2,-0.00332073,-0.103643,-0,0.103696,-598.311,-45065.8,-0,45069.8,94358.2
step02_gravity_refstate-mantle.xmf,449,5.7994e-06,-1.11308e-05,0,1.06294e-07,-1.24508e+09,-1.24734e+09,-1.24585e+09,14206.3,0.000370838,-0.109815,0,0.109816,64.3117,-44531.3,0,44531.4,14206.3
step02_gravity_refstate-mantle.xmf,450,5.20703e-06,-9.90877e-06,0,-1.33506e-06,-1.27715e+09,-1.27917e+09,-1.27785e+09,-178430,-0.00665279,-0.0978374,-0,0.0980634,-1248.78,-45521.3,-0,45538.4,178430
step02_gravity_refstate-mantle.xmf,451,4.85538e-06,-9.2978e-06,0,-1.82668e-06,-1.28947e+09,-1.29136e+09,-1.29012e+09,-244136,-0.00966495,-0.0924684,-0,0.0929721,-1887.72,-45900.9,-0,45939.7,244136
step02_gravity_refstate-mantle.xmf,452,3.53391e-06,-7.03246e-06,0,-2.59123e-06,-1.34014e+09,-1.34155e+09,-1.34061e+09,-346318,-0.018025,-0.0708678,-0,0.0731242,-4155.94,-47463,-0,47644.6,346318
step02_gravity_refstate-mantle.xmf,453,3.95905e-06,-7.80239e-06,0,-2.56136e-06,-1.31699e+09,-1.31856e+09,-1.31752e+09,-342326,-0.0158867,-0.0793239,-0,0.0808991,-3437.23,-46748.8,-0,46874.9,342326
step02_gravity_refstate-mantle.xmf,454,4.46129e-06,-8.63303e-06,0,-2.2227e-06,-1.30162e+09,-1.30337e+09,-1.30222e+09,-297064,-0.0126024,-0.0867516,-0,0.0876622,-2571.7,-46275.5,-0,46346.9,297064
step02_gravity_refstate-mantle.xmf,455,2.17986e-06,-6.89015e-06,0,5.3757e-06,-1.17736e+09,-1.17857e+09,-1.17765e+09,718462,0.0236499,-0.102137,0,0.104839,4865.26,-42426.1,0,42704.1,718462
step02_gravity_refstate-mantle.xmf,456,5.10105e-06,-1.05358e-05,0,3.15271e-06,-1.22056e+09,-1.22265e+09,-1.22124e+09,421360,0.0129987,-0.112045,0,0.112796,2258.81,-43770.8,0,43829,421360
step02_gravity_refstate-mantle.xmf,457,5.42676e-06,-1.0741e-05,0,2.12027e-06,-1.2378e+09,-1.23996e+09,-1.23852e+09,283375,0.00896713,-0.10949,0,0.109856,1566.56,-44304.8,0,44332.5,283375
step02_gravity_refstate-mantle.xmf,458,1.20088e-06,-2.96505e-06,0,-1.71752e-06,-1.48992e+09,-1.49048e+09,-1.49008e+09,-229546,-0.0297027,-0.0229707,-0,0.0375487,-10564,-52084.6,-0,53145.1,229546
step02_gravity_refstate-mantle.xmf,459,1.45592e-06,-3.41987e-06,0,-1.94569e-06,-1.46512e+09,-1.46577e+09,-1.46532e+09,-260041,-0.0286254,-0.0287228,-0,0.0405514,-9571.49,-51319.1,-0,52204.1,260041
step02_gravity_refstate-mantle.xmf,460,3.66211e-07,-1.33848e-06,0,-4.60887e-07,-1.66137e+09,-1.6616e+09,-1.66142e+09,-61597.5,-0.0322904,-0.00339804,-0,0.0324687,-14748.5,-57379.3,-0,59244.4,61597.5
step02_gravity_refstate-mantle.xmf,461,2.27759e-07,-1.06597e-06,0,-2.09714e-07,-1.70613e+09,-1.7063e+09,-1.70616e+09,-28028.3,-0.0324745,-0.00129086,-0,0.0325002,-15425.9,-58761.6,-0,60752.7,28028.3
step02_gravity_refstate-mantle.xmf,462,3.60645e-08,-7.24635e-07,0,1.58308e-09,-1.74623e+09,-1.74633e+09,-1.74624e+09,211.578,-0.0325926,3.78903e-20,-0,0.0325926,-16303.5,-60000,-0,62175.6,211.578
step02_gravity_refstate-mantle.xmf,463,6.0105e-07,-4.55384e-06,0,5.26767e-06,-1.14049e+09,-1.14118e+09,-1.14057e+09,704024,0.0247236,-0.0937934,0,0.0969972,6167.97,-41282.7,0,41740.9,704024
step02_gravity_refstate-mantle.xmf,464,1.26487e-07,-3.7026e-06,0,4.99271e-06,-1.12203e+09,-1.12254e+09,-1.12204e+09,667276,0.023851,-0.0902091,0,0.0933089,6658.35,-40711.3,0,41252.2,667276
step02_gravity_refstate-mantle.xmf,465,3.10747e-06,-6.30357e-06,0,-2.63635e-06,-1.35874e+09,-1.36e+09,-1.35916e+09,-352348,-0.0203919,-0.0632532,-0,0.066459,-4999.6,-48036.7,-0,48296.2,352348
step02_gravity_refstate-mantle.xmf,466,5.5371e-06,-1.06394e-05,0,1.11546e-06,-1.25518e+09,-1.25734e+09,-1.25592e+09,149081,0.00493407,-0.105577,0,0.105692,879.116,-44842.8,0,44851.4,149081
step02_gravity_refstate-mantle.xmf,467,3.02871e-06,-7.9111e-06,0,5.01401e-06,-1.1951e+09,-1.19657e+09,-1.19551e+09,670123,0.0218886,-0.104068,0,0.106345,4266.42,-42977.3,0,43188.5,670123
step02_gravity_refstate-mantle.xmf,468,3.76193e-06,-8.77111e-06,0,4.4384e-06,-1.21262e+09,-1.21429e+09,-1.21312e+09,593192,0.0194087,-0.104903,0,0.106683,3651.45,-43521,0,43674,593192
step02_gravity_refstate-mantle.xmf,469,4.39749e-06,-9.43198e-06,0,3.68979e-06,-1.22953e+09,-1.23138e+09,-1.23012e+09,493140,0.0163347,-0.104752,0,0.106018,3011.73,-44046.1,0,44148.9,493140
step02_gravity_refstate-mantle.xmf,470,1.74575e-06,-3.92658e-06,0,-2.15033e-06,-1.44252e+09,-1.44327e+09,-1.44275e+09,-287392,-0.0273039,-0.0349733,-0,0.0443693,-8569.61,-50621.5,-0,51341.7,287392
step02_gravity_refstate-mantle.xmf,471,2.71278e-06,-5.63518e-06,0,-2.61085e-06,-1.37681e+09,-1.37793e+09,-1.37718e+09,-348940,-0.0225021,-0.0560092,-0,0.0603604,-5862.61,-48594.1,-0,48946.4,348940
step02_gravity_refstate-mantle.xmf,472,2.05118e-06,-4.46307e-06,0,-2.33235e-06,-1.42055e+09,-1.42142e+09,-1.42083e+09,-311718,-0.025829,-0.0416097,-0,0.0489745,-7616.13,-49943.7,-0,50521.1,311718
step02_gravity_refstate-mantle.xmf,473,2.35999e-06,-5.02529e-06,0,-2.51104e-06,-1.39645e+09,-1.39744e+09,-1.39677e+09,-335601,-0.024319,-0.0488816,-0,0.0545969,-6736.03,-49199.8,-0,49658.8,335601
step02_gravity_refstate-mantle.xmf,474,1.36086e-06,-3.05975e-06,0,-1.42809e-06,-1.53275e+09,-1.53334e+09,-1.53293e+09,-190865,-0.0290755,-0.0195667,-0,0.0350463,-10360.5,-53408.5,-0,54404.1,190865
step02_gravity_refstate-mantle.xmf,475,1.14963e-06,-2.67574e-06,0,-1.18521e-06,-1.56371e+09,-1.56422e+09,-1.56386e+09,-158403,-0.0299816,-0.0146899,-0,0.033387,-11265.3,-54364.3,-0,55519.2,158403
step02_gravity_refstate-mantle.xmf,476,6.28911e-07,-1.76467e-06,0,-6.34651e-07,-1.63785e+09,-1.63817e+09,-1.63793e+09,-84821.1,-0.0317457,-0.00574211,-0,0.0322608,-13585.7,-56653.3,-0,58259.5,84821.1
step02_gravity_refstate-mantle.xmf,477,9.62215e-07,-2.29881e-06,0,-8.75026e-07,-1.60658e+09,-1.60701e+09,-1.60671e+09,-116947,-0.0307326,-0.00966226,-0,0.0322157,-12188.5,-55688.2,-0,57006.5,116947
step02_gravity_refstate-mantle.xmf,478,-2.03165e-07,-2.94526e-06,0,4.6219e-06,-1.09901e+09,-1.09937e+09,-1.09898e+09,617716,0.0218837,-0.0871117,0,0.0898184,7100.11,-40000,0,40625.3,617716
step02_gravity_refstate-mantle.xmf,479,1.59538e-06,-5.76007e-06,0,5.10287e-06,-1.18471e+09,-1.18569e+09,-1.18492e+09,681999,0.0251639,-0.092295,0,0.0956639,5668.37,-42652.2,0,43027.2,681999
step02_gravity_refstate-mantle.xmf,480,5.2483e-06,-9.84077e-06,0,-4.82119e-07,-1.28921e+09,-1.29123e+09,-1.28992e+09,-64435.2,-0.00252638,-0.0953231,-0,0.0953566,-480.281,-45894.3,-0,45896.8,64435.2
step02_gravity_refstate-mantle.xmf,481,5.45326e-06,-1.02996e-05,0,2.34476e-07,-1.27277e+09,-1.27488e+09,-1.2735e+09,31337.7,0.00105089,-0.100614,0,0.10062,193.067,-45386.5,0,45386.9,31337.7
step02_gravity_refstate-mantle.xmf,482,5.02546e-06,-9.45327e-06,0,-1.04902e-06,-1.29938e+09,-1.30131e+09,-1.30005e+09,-140201,-0.005608,-0.0914975,-0,0.0916692,-1096.04,-46207.6,-0,46220.6,140201
step02_gravity_refstate-mantle.xmf,483,4.75093e-06,-8.91948e-06,0,-1.44099e-06,-1.31365e+09,-1.31548e+09,-1.31429e+09,-192588,-0.00828755,-0.0862254,-0,0.0866228,-1682.34,-46648.1,-0,46678.5,192588
step02_gravity_refstate-mantle.xmf,484,3.55672e-06,-6.84316e-06,0,-2.20636e-06,-1.37043e+09,-1.37182e+09,-1.37091e+09,-294880,-0.0168725,-0.0649255,-0,0.067082,-4019.95,-48399.4,-0,48566.1,294880
step02_gravity_refstate-mantle.xmf,485,3.95908e-06,-7.53378e-06,0,-2.074e-06,-1.35015e+09,-1.35168e+09,-1.35068e+09,-277191,-0.0142913,-0.0723285,-0,0.0737269,-3217.24,-47773.7,-0,47881.9,277191
step02_gravity_refstate-mantle.xmf,486,4.36934e-06,-8.24258e-06,0,-1.82264e-06,-1.3309e+09,-1.33258e+09,-1.33148e+09,-243596,-0.0114093,-0.0795938,-0,0.0804074,-2432.03,-47180.1,-0,47242.7,243596
step02_gravity_refstate-mantle.xmf,487,2.3646e-06,-6.76641e-06,0,4.91985e-06,-1.20331e+09,-1.20453e+09,-1.20362e+09,657539,0.023808,-0.0950282,0,0.0979652,5027.19,-43229.1,0,43520.5,657539
step02_gravity_refstate-mantle.xmf,488,4.8772e-06,-9.82715e-06,0,2.77829e-06,-1.24761e+09,-1.24957e+09,-1.24826e+09,371318,0.0128055,-0.103051,0,0.103843,2352.94,-44606.6,0,44668.6,371318
step02_gravity_refstate-mantle.xmf,489,5.12309e-06,-9.94612e-06,0,1.91156e-06,-1.26557e+09,-1.26759e+09,-1.26626e+09,255480,0.00905543,-0.100226,0,0.100634,1679.59,-45162.8,0,45194.1,255480
step02_gravity_refstate-mantle.xmf,490,1.60597e-06,-3.48635e-06,0,-1.63853e-06,-1.50674e+09,-1.50742e+09,-1.50696e+09,-218989,-0.0279299,-0.0247812,-0,0.0373388,-9416.65,-52605.6,-0,53441.7,218989
step02_gravity_refstate-mantle.xmf,491,1.90115e-06,-3.98384e-06,0,-1.82008e-06,-1.48332e+09,-1.48411e+09,-1.48357e+09,-243254,-0.0264253,-0.0306057,-0,0.0404352,-8393.59,-51882.8,-0,52557.3,243254
step02_gravity_refstate-mantle.xmf,492,1.49813e-06,-3.13895e-06,0,-1.1551e-06,-1.57286e+09,-1.57348e+09,-1.57306e+09,-154379,-0.0284063,-0.016271,-0,0.0327362,-10124.6,-54648.2,-0,55578.2,154379
step02_gravity_refstate-mantle.xmf,493,6.56097e-07,-1.69987e-06,0,-3.06625e-07,-1.69423e+09,-1.69454e+09,-1.69432e+09,-40980.5,-0.0316942,-0.00267362,-0,0.0318068,-13641.4,-58395.3,-0,59967.5,40980.5
step02_gravity_refstate-mantle.xmf,494,4.44418e-07,-1.3115e-06,0,2.82214e-09,-1.74619e+09,-1.74643e+09,-1.74625e+09,377.179,-0.0321722,6.69517e-20,-0,0.0321722,-14547.3,-60000,-0,61738.4,377.179
step02_gravity_refstate-mantle.xmf,495,8.92877e-07,-4.73521e-06,0,5.0515e-06,-1.16633e+09,-1.16708e+09,-1.16645e+09,675133,0.0256999,-0.0884749,0,0.0921319,6308.7,-42082.3,0,42552.5,675133
step02_gravity_refstate-mantle.xmf,496,3.30848e-07,-3.8082e-06,0,4.8284e-06,-1.14787e+09,-1.14842e+09,-1.14791e+09,645316,0.0254046,-0.0841908,0,0.0879402,6916.45,-41510.7,0,42082.9,645316
step02_gravity_refstate-mantle.xmf,497,-1.21543e-07,-2.89407e-06,0,4.43094e-06,-1.12716e+09,-1.12753e+09,-1.12714e+09,592195,0.0242194,-0.0789343,0,0.0825663,7575.65,-40870.3,0,41566.5,592195
step02_gravity_refstate-mantle.xmf,498,3.16915e-06,-6.19393e-06,0,-2.27293e-06,-1.38952e+09,-1.39077e+09,-1.38994e+09,-303777,-0.019299,-0.05788,-0,0.0610127,-4863.89,-48988.1,-0,49228.9,303777
step02_gravity_refstate-mantle.xmf,499,5.20656e-06,-9.84359e-06,0,1.05196e-06,-1.28356e+09,-1.28557e+09,-1.28425e+09,140595,0.00522586,-0.096399,0,0.0965405,988.793,-45719.3,0,45730,140595
step02_gravity_refstate-mantle.xmf,500,3.11232e-06,-7.63828e-06,0,4.5245e-06,-1.22109e+09,-1.22252e+09,-1.2215e+09,604699,0.0218031,-0.0965574,0,0.0989884,4408.25,-43781.2,0,44002.5,604699
step02_gravity_refstate-mantle.xmf,501,3.73352e-06,-8.34679e-06,0,3.9752e-06,-1.23854e+09,-1.24015e+09,-1.23904e+09,531286,0.0192258,-0.0970572,0,0.0989431,3781.31,-44322.6,0,44483.6,531286
step02_gravity_refstate-mantle.xmf,502,4.26775e-06,-8.88922e-06,0,3.2891e-06,-1.25575e+09,-1.25751e+09,-1.25632e+09,439588,0.0161455,-0.0966125,0,0.0979523,3128.87,-44856.4,0,44965.4,439588
step02_gravity_refstate-mantle.xmf,503,2.21187e-06,-4.5109e-06,0,-1.9779e-06,-1.46002e+09,-1.46092e+09,-1.46032e+09,-264347,-0.0247419,-0.0369327,-0,0.0444543,-7405.72,-51163.8,-0,51697,264347
step02_gravity_refstate-mantle.xmf,504,2.82197e-06,-5.60006e-06,0,-2.23362e-06,-1.41158e+09,-1.41271e+09,-1.41196e+09,-298524,-0.0213285,-0.050684,-0,0.0549888,-5693.87,-49668.8,-0,49994.1,298524
step02_gravity_refstate-mantle.xmf,505,2.54761e-06,-5.07213e-06,0,-2.07181e-06,-1.44023e+09,-1.44124e+09,-1.44057e+09,-276897,-0.0227579,-0.0432679,-0,0.048888,-6429.36,-50553.2,-0,50960.4,276897
step02_gravity_refstate-mantle.xmf,506,1.73329e-06,-3.53371e-06,0,-1.33897e-06,-1.54774e+09,-1.54844e+09,-1.54797e+09,-178953,-0.0271908,-0.0208201,-0,0.0342464,-9232.16,-53872.7,-0,54658.1,178953
step02_gravity_refstate-mantle.xmf,507,1.31538e-06,-2.81407e-06,0,-9.57775e-07,-1.59969e+09,-1.60024e+09,-1.59987e+09,-128007,-0.0292756,-0.0123923,-0,0.0317904,-10875.5,-55476.5,-0,56532.5,128007
step02_gravity_refstate-mantle.xmf,508,9.48944e-07,-2.1721e-06,0,-5.38202e-07,-1.65958e+09,-1.66e+09,-1.65971e+09,-71930.7,-0.0307927,-0.00567607,-0,0.0313114,-12440.2,-57325.7,-0,58660,71930.7
step02_gravity_refstate-mantle.xmf,509,-3.39835e-07,-2.3377e-06,0,4.12001e-06,-1.09899e+09,-1.09925e+09,-1.09894e+09,550639,0.0216692,-0.0775808,0,0.0805502,7894.42,-40000,0,40771.6,550639
step02_gravity_refstate-mantle.xmf,510,1.16239e-06,-4.85163e-06,0,4.76446e-06,-1.1935e+09,-1.19431e+09,-1.19366e+09,636770,0.0263151,-0.0828614,0,0.0869396,6461.53,-42923.2,0,43406.8,636770
step02_gravity_refstate-mantle.xmf,511,1.82976e-06,-5.76725e-06,0,4.71358e-06,-1.21197e+09,-1.21299e+09,-1.21222e+09,629969,0.025376,-0.0860243,0,0.0896891,5812.4,-43495.9,0,43882.5,629969
step02_gravity_refstate-mantle.xmf,512,4.94882e-06,-9.12689e-06,0,-5.482e-07,-1.31869e+09,-1.32057e+09,-1.31935e+09,-73267,-0.00322834,-0.0865405,-0,0.0866007,-650.608,-46804.6,-0,46809.1,73267
step02_gravity_refstate-mantle.xmf,513,5.14098e-06,-9.56193e-06,0,2.95256e-07,-1.30153e+09,-1.3035e+09,-1.30222e+09,39461,0.00148649,-0.0917531,0,0.0917652,289.33,-46274.7,0,46275.6,39461
step02_gravity_refstate-mantle.xmf,514,4.60873e-06,-8.47031e-06,0,-1.08053e-06,-1.34204e+09,-1.34379e+09,-1.34266e+09,-144412,-0.00689953,-0.0790565,-0,0.079357,-1464.45,-47525.3,-0,47547.8,144412
step02_gravity_refstate-mantle.xmf,515,3.54223e-06,-6.62879e-06,0,-1.86628e-06,-1.40139e+09,-1.40275e+09,-1.40187e+09,-249428,-0.0158226,-0.0588973,-0,0.0609856,-3898.29,-49356.3,-0,49510,249428
step02_gravity_refstate-mantle.xmf,516,3.9006e-06,-7.2306e-06,0,-1.70496e-06,-1.38218e+09,-1.38367e+09,-1.3827e+09,-227868,-0.0130874,-0.0654987,-0,0.0667935,-3065.92,-48763.7,-0,48860,227868
step02_gravity_refstate-mantle.xmf,517,4.26186e-06,-7.85419e-06,0,-1.45324e-06,-1.36198e+09,-1.3636e+09,-1.36255e+09,-194226,-0.0101298,-0.0723433,-0,0.073049,-2256.3,-48140.6,-0,48193.4,194226
step02_gravity_refstate-mantle.xmf,518,2.50494e-06,-6.62159e-06,0,4.48222e-06,-1.22974e+09,-1.23096e+09,-1.23008e+09,599049,0.0237708,-0.0882615,0,0.0914064,5171.81,-44047.1,0,44349.7,599049
step02_gravity_refstate-mantle.xmf,519,4.59927e-06,-9.10574e-06,0,2.50545e-06,-1.27703e+09,-1.27886e+09,-1.27765e+09,334853,0.012901,-0.0937037,0,0.0945876,2518.12,-45515.5,0,45585.1,334853
step02_gravity_refstate-mantle.xmf,520,4.84377e-06,-9.24505e-06,0,1.71077e-06,-1.29407e+09,-1.29596e+09,-1.29472e+09,228644,0.00910025,-0.0914455,0,0.0918972,1787.47,-46043.1,0,46077.8,228644
step02_gravity_refstate-mantle.xmf,521,2.0216e-06,-4.00269e-06,0,-1.49369e-06,-1.52488e+09,-1.52569e+09,-1.52515e+09,-199631,-0.0255526,-0.0259739,-0,0.0364359,-8221.77,-53167.4,-0,53799.3,199631
step02_gravity_refstate-mantle.xmf,522,2.33828e-06,-4.52434e-06,0,-1.63085e-06,-1.50064e+09,-1.50156e+09,-1.50095e+09,-217963,-0.0236035,-0.031976,-0,0.039744,-7176.31,-52419.4,-0,52908.3,217963
step02_gravity_refstate-mantle.xmf,523,1.80418e-06,-3.53276e-06,0,-1.09109e-06,-1.58234e+09,-1.58306e+09,-1.58259e+09,-145825,-0.026692,-0.0172522,-0,0.0317821,-9133.46,-54942.1,-0,55696.1,145825
step02_gravity_refstate-mantle.xmf,524,1.33866e-06,-2.74042e-06,0,-6.39234e-07,-1.64817e+09,-1.64872e+09,-1.64835e+09,-85433.6,-0.0291532,-0.00809758,-0,0.0302569,-10971,-56974.5,-0,58021.2,85433.6
step02_gravity_refstate-mantle.xmf,525,1.63881e-06,-3.23047e-06,0,-8.80249e-07,-1.61375e+09,-1.6144e+09,-1.61397e+09,-117645,-0.0276007,-0.0128263,-0,0.0304353,-9802.08,-55911.9,-0,56764.6,117645
step02_gravity_refstate-mantle.xmf,526,1.11086e-06,-2.32118e-06,0,-2.85628e-07,-1.70121e+09,-1.70167e+09,-1.70136e+09,-38174.1,-0.0301651,-0.00317611,-0,0.0303318,-11920.9,-58612.3,-0,59812.3,38174.1
step02_gravity_refstate-mantle.xmf,527,8.76906e-07,-1.92014e-06,0,1.25335e-09,-1.74615e+09,-1.74652e+09,-1.74627e+09,167.51,-0.0310394,7.11888e-20,-0,0.0310394,-12833.5,-60000,-0,61357.1,167.51
step02_gravity_refstate-mantle.xmf,528,5.79598e-07,-3.97004e-06,0,4.64549e-06,-1.17476e+09,-1.17537e+09,-1.17484e+09,620870,0.0264983,-0.079072,0,0.0833939,7092.61,-42342.6,0,42932.5,620870
step02_gravity_refstate-mantle.xmf,529,1.29553e-07,-3.18323e-06,0,4.38972e-06,-1.15687e+09,-1.15732e+09,-1.15689e+09,586686,0.0260141,-0.0746809,0,0.079082,7710.04,-41789,0,42494.3,586686
step02_gravity_refstate-mantle.xmf,530,-3.2975e-07,-2.21126e-06,0,3.91877e-06,-1.12164e+09,-1.12189e+09,-1.1216e+09,523744,0.0235883,-0.0697517,0,0.0736322,8458.74,-40700.2,0,41569.9,523744
step02_gravity_refstate-mantle.xmf,531,-4.30302e-07,-1.84188e-06,0,3.65222e-06,-1.09897e+09,-1.09915e+09,-1.09891e+09,488119,0.0213535,-0.0683219,0,0.0715811,8727.16,-40000,0,40941,488119
step02_gravity_refstate-mantle.xmf,532,3.22335e-06,-6.11138e-06,0,-1.95416e-06,-1.4171e+09,-1.41835e+09,-1.41753e+09,-261174,-0.0181375,-0.0533203,-0,0.0563207,-4672.74,-49840.6,-0,50059.2,261174
step02_gravity_refstate-mantle.xmf,533,4.90512e-06,-9.13057e-06,0,1.00199e-06,-1.31306e+09,-1.31494e+09,-1.31372e+09,133916,0.00557454,-0.0875319,0,0.0877093,1118.13,-46630.5,0,46643.9,133916
step02_gravity_refstate-mantle.xmf,534,3.13638e-06,-7.34621e-06,0,4.10156e-06,-1.24633e+09,-1.24773e+09,-1.24675e+09,548174,0.0216952,-0.0895252,0,0.0921164,4558.39,-44561.8,0,44794.3,548174
step02_gravity_refstate-mantle.xmf,535,3.65715e-06,-7.89621e-06,0,3.54299e-06,-1.26627e+09,-1.26781e+09,-1.26676e+09,473521,0.0191321,-0.0889536,0,0.0909878,3952.65,-45179.9,0,45352.5,473521
step02_gravity_refstate-mantle.xmf,536,4.13464e-06,-8.46089e-06,0,3.01005e-06,-1.27712e+09,-1.27881e+09,-1.27768e+09,402293,0.0161334,-0.0901803,0,0.0916121,3257.42,-45516.9,0,45633.3,402293
step02_gravity_refstate-mantle.xmf,537,2.67573e-06,-5.07516e-06,0,-1.71426e-06,-1.47746e+09,-1.4785e+09,-1.47782e+09,-229110,-0.0213745,-0.0383563,-0,0.0439098,-6142.27,-51704.3,-0,52067.9,229110
step02_gravity_refstate-mantle.xmf,538,3.04928e-06,-5.70262e-06,0,-1.77172e-06,-1.44939e+09,-1.45056e+09,-1.4498e+09,-236791,-0.0188391,-0.0461354,-0,0.0498336,-5086.54,-50838,-0,51091.8,236791
step02_gravity_refstate-mantle.xmf,539,2.07233e-06,-3.94413e-06,0,-1.19062e-06,-1.56599e+09,-1.5668e+09,-1.56627e+09,-159127,-0.0250079,-0.0210157,-0,0.0326658,-8182.87,-54437.8,-0,55049.4,159127
step02_gravity_refstate-mantle.xmf,540,-1.54298e-07,-2.57384e-06,0,4.07935e-06,-1.14367e+09,-1.144e+09,-1.14365e+09,545205,0.0252549,-0.0698592,0,0.074284,8291.47,-41381,0,42203.5,545205
step02_gravity_refstate-mantle.xmf,541,-4.71569e-07,-1.43779e-06,0,3.22836e-06,-1.09894e+09,-1.09907e+09,-1.09888e+09,431470,0.0209659,-0.0593651,0,0.0629586,9600.66,-40000,0,41136,431470
step02_gravity_refstate-mantle.xmf,542,-4.21205e-07,-1.7854e-06,0,3.53345e-06,-1.118e+09,-1.11818e+09,-1.11794e+09,472246,0.0230078,-0.0626909,0,0.0667796,9169.37,-40588.2,0,41611,472246
step02_gravity_refstate-mantle.xmf,543,8.13544e-07,-4.08735e-06,0,4.41149e-06,-1.20222e+09,-1.20287e+09,-1.20233e+09,589595,0.0272215,-0.0739109,0,0.0787644,7270.79,-43192,0,43799.7,589595
step02_gravity_refstate-mantle.xmf,544,1.38911e-06,-4.9075e-06,0,4.44573e-06,-1.221e+09,-1.22184e+09,-1.22119e+09,594172,0.0266406,-0.0772614,0,0.0817255,6616.28,-43773.9,0,44271.1,594172
step02_gravity_refstate-mantle.xmf,545,2.00121e-06,-5.71767e-06,0,4.33487e-06,-1.23878e+09,-1.23981e+09,-1.23905e+09,579355,0.025406,-0.080002,0,0.0839392,5956.37,-44325.2,0,44723.6,579355
step02_gravity_refstate-mantle.xmf,546,4.85088e-06,-8.87774e-06,0,2.89934e-07,-1.33251e+09,-1.33434e+09,-1.33316e+09,38749.7,0.00166162,-0.0829035,0,0.0829202,342.586,-47231.4,0,47232.7,38749.7
step02_gravity_refstate-mantle.xmf,547,4.67864e-06,-8.47835e-06,0,-3.29611e-07,-1.35295e+09,-1.3547e+09,-1.35357e+09,-44052.6,-0.00221337,-0.0773552,-0,0.0773868,-473.049,-47862.6,-0,47864.9,44052.6
step02_gravity_refstate-mantle.xmf,548,4.42214e-06,-7.98224e-06,0,-8.08305e-07,-1.3741e+09,-1.37576e+09,-1.37469e+09,-108030,-0.0057977,-0.0711776,-0,0.0714134,-1292.39,-48515.6,-0,48532.8,108030
step02_gravity_refstate-mantle.xmf,549,3.4937e-06,-6.38439e-06,0,-1.57129e-06,-1.43362e+09,-1.43494e+09,-1.43409e+09,-210004,-0.0149813,-0.0526406,-0,0.0547309,-3821.13,-50352,-0,50496.8,210004
step02_gravity_refstate-mantle.xmf,550,3.81313e-06,-6.91303e-06,0,-1.4047e-06,-1.41511e+09,-1.41654e+09,-1.41562e+09,-187738,-0.0121234,-0.058588,-0,0.0598292,-2955.83,-49781.1,-0,49868.8,187738
step02_gravity_refstate-mantle.xmf,551,4.12826e-06,-7.45485e-06,0,-1.15766e-06,-1.39477e+09,-1.39632e+09,-1.39532e+09,-154722,-0.00906951,-0.0649006,-0,0.0655313,-2112.6,-49153.4,-0,49198.8,154722
step02_gravity_refstate-mantle.xmf,552,2.59639e-06,-6.46805e-06,0,4.09906e-06,-1.25454e+09,-1.25575e+09,-1.25489e+09,547839,0.0236354,-0.0822162,0,0.0855461,5300.35,-44814.1,0,45126.5,547839
step02_gravity_refstate-mantle.xmf,553,4.16548e-06,-8.28367e-06,0,2.63341e-06,-1.29825e+09,-1.29992e+09,-1.29881e+09,351955,0.0150456,-0.0853713,0,0.086687,3120.96,-46170.2,0,46275.5,351955
step02_gravity_refstate-mantle.xmf,554,4.49463e-06,-8.66907e-06,0,2.09626e-06,-1.30497e+09,-1.30673e+09,-1.30557e+09,280166,0.0119384,-0.086345,0,0.0871664,2438.09,-46378.8,0,46442.9,280166
step02_gravity_refstate-mantle.xmf,555,4.57531e-06,-8.59315e-06,0,1.59596e-06,-1.32333e+09,-1.32509e+09,-1.32394e+09,213300,0.00945518,-0.0828945,0,0.083432,1964.92,-46946.8,0,46987.9,213300
step02_gravity_refstate-mantle.xmf,556,2.73985e-06,-5.01003e-06,0,-1.3869e-06,-1.5168e+09,-1.51783e+09,-1.51716e+09,-185359,-0.020214,-0.0327795,-0,0.038511,-5931.03,-52919.9,-0,53251.2,185359
step02_gravity_refstate-mantle.xmf,557,2.43449e-06,-4.51137e-06,0,-1.2833e-06,-1.54474e+09,-1.54566e+09,-1.54506e+09,-171513,-0.0224613,-0.0264028,-0,0.0346643,-6943.6,-53782.2,-0,54228.5,171513
step02_gravity_refstate-mantle.xmf,558,2.06134e-06,-3.81052e-06,0,-8.80949e-07,-1.61138e+09,-1.61216e+09,-1.61165e+09,-117739,-0.0248888,-0.0153306,-0,0.0292315,-8325.59,-55840,-0,56457.2,117739
step02_gravity_refstate-mantle.xmf,559,1.81184e-06,-3.37058e-06,0,-5.96459e-07,-1.65549e+09,-1.65618e+09,-1.65573e+09,-79716.7,-0.0264755,-0.00922481,-0,0.0280365,-9292.31,-57202.1,-0,57951.9,79716.7
step02_gravity_refstate-mantle.xmf,560,1.56234e-06,-2.94229e-06,0,-3.02866e-07,-1.69994e+09,-1.70054e+09,-1.70015e+09,-40478,-0.0279513,-0.00414193,-0,0.0282565,-10262.6,-58574.6,-0,59466.8,40478
step02_gravity_refstate-mantle.xmf,561,1.32618e-06,-2.5396e-06,0,9.0482e-10,-1.7461e+09,-1.74662e+09,-1.74628e+09,120.929,-0.0291927,8.52719e-20,-0,0.0291927,-11156.7,-60000,-0,61028.4,120.929
step02_gravity_refstate-mantle.xmf,562,3.23303e-07,-3.31176e-06,0,4.24127e-06,-1.18323e+09,-1.18371e+09,-1.18327e+09,566846,0.0271284,-0.0699784,0,0.0750528,7916.83,-42604.2,0,43333.5,566846
step02_gravity_refstate-mantle.xmf,563,-4.76072e-08,-2.63007e-06,0,3.97318e-06,-1.16515e+09,-1.16549e+09,-1.16514e+09,531016,0.0264562,-0.0655461,0,0.0706839,8552.69,-42044.9,0,42906,531016
step02_gravity_refstate-mantle.xmf,564,-3.10079e-07,-2.05785e-06,0,3.67504e-06,-1.14284e+09,-1.14307e+09,-1.1428e+09,491169,0.0250079,-0.0619201,0,0.0667794,9097.84,-41355.4,0,42344.3,491169
step02_gravity_refstate-mantle.xmf,565,-4.80313e-07,-1.47361e-06,0,3.20607e-06,-1.12665e+09,-1.12678e+09,-1.12658e+09,428491,0.0234026,-0.0546132,0,0.0594161,9969.81,-40855.7,0,42054.5,428491
step02_gravity_refstate-mantle.xmf,566,4.62423e-06,-8.48104e-06,0,9.60785e-07,-1.34415e+09,-1.3459e+09,-1.34477e+09,128409,0.00602058,-0.0788165,0,0.0790461,1278.55,-47590.5,0,47607.6,128409
step02_gravity_refstate-mantle.xmf,567,3.08278e-06,-7.04796e-06,0,3.78916e-06,-1.26782e+09,-1.26917e+09,-1.26823e+09,506421,0.0217333,-0.0834821,0,0.0862647,4735.99,-45225.9,0,45473.2,506421
step02_gravity_refstate-mantle.xmf,568,3.80496e-06,-7.8599e-06,0,3.1048e-06,-1.28915e+09,-1.29071e+09,-1.28965e+09,414956,0.017763,-0.08458,0,0.0864252,3744.96,-45887.6,0,46040.1,414956
step02_gravity_refstate-mantle.xmf,569,3.05216e-06,-5.51314e-06,0,-1.39814e-06,-1.49423e+09,-1.49537e+09,-1.49464e+09,-186862,-0.0176811,-0.0387484,-0,0.0425917,-4942.13,-52223.6,-0,52456.9,186862
step02_gravity_refstate-mantle.xmf,570,2.34988e-06,-4.274e-06,0,-1.02497e-06,-1.58462e+09,-1.58551e+09,-1.58494e+09,-136987,-0.0227691,-0.0203932,-0,0.0305666,-7256.09,-55014.2,-0,55490.7,136987
step02_gravity_refstate-mantle.xmf,571,-4.91757e-07,-1.10029e-06,0,2.83577e-06,-1.09892e+09,-1.099e+09,-1.09885e+09,379001,0.0205245,-0.0507336,0,0.054728,10517.3,-40000,0,41359.6,379001
step02_gravity_refstate-mantle.xmf,572,5.30596e-07,-3.43492e-06,0,4.05258e-06,-1.2112e+09,-1.21173e+09,-1.21127e+09,541627,0.0279376,-0.0653236,0,0.0710471,8106.95,-43469.2,0,44218.7,541627
step02_gravity_refstate-mantle.xmf,573,1.02508e-06,-4.17066e-06,0,4.15005e-06,-1.22996e+09,-1.23065e+09,-1.23009e+09,554654,0.0276497,-0.0689071,0,0.0742475,7435.24,-44050.1,0,44673.2,554654
step02_gravity_refstate-mantle.xmf,574,3.3864e-06,-6.05882e-06,0,-1.33031e-06,-1.47092e+09,-1.47218e+09,-1.47137e+09,-177795,-0.0146863,-0.0452722,-0,0.0475947,-3903.43,-51504.4,-0,51652.1,177795
step02_gravity_refstate-mantle.xmf,575,1.56891e-06,-4.91617e-06,0,4.12472e-06,-1.24806e+09,-1.24893e+09,-1.24827e+09,551269,0.0267607,-0.071892,0,0.0767111,6765.05,-44611.1,0,45121.2,551269
step02_gravity_refstate-mantle.xmf,576,2.13508e-06,-5.65751e-06,0,3.98947e-06,-1.26437e+09,-1.26541e+09,-1.26466e+09,533193,0.025282,-0.0745978,0,0.0787656,6071.03,-45116.7,0,45523.4,533193
step02_gravity_refstate-mantle.xmf,577,4.58288e-06,-8.26443e-06,0,3.4163e-07,-1.36485e+09,-1.36657e+09,-1.36547e+09,45658.8,0.00224283,-0.0742646,0,0.0742984,489.048,-48230.3,0,48232.8,45658.8
step02_gravity_refstate-mantle.xmf,578,4.44515e-06,-7.93254e-06,0,-1.84425e-07,-1.38601e+09,-1.38766e+09,-1.3866e+09,-24648.4,-0.00142862,-0.069039,-0,0.0690538,-321.793,-48883.8,-0,48884.9,24648.4
step02_gravity_refstate-mantle.xmf,579,4.24117e-06,-7.52787e-06,0,-5.96366e-07,-1.40729e+09,-1.40887e+09,-1.40786e+09,-79704.3,-0.00485153,-0.0634091,-0,0.0635944,-1133.74,-49540.9,-0,49553.9,79704.3
step02_gravity_refstate-mantle.xmf,580,3.70947e-06,-6.5891e-06,0,-1.15251e-06,-1.45004e+09,-1.45142e+09,-1.45054e+09,-154033,-0.0113592,-0.0514574,-0,0.0526962,-2882.41,-50860.2,-0,50941.8,154033
step02_gravity_refstate-mantle.xmf,581,3.99126e-06,-7.07364e-06,0,-9.16463e-07,-1.4288e+09,-1.43027e+09,-1.42933e+09,-122485,-0.00815392,-0.057485,-0,0.0580605,-1983.25,-50204.6,-0,50243.7,122485
step02_gravity_refstate-mantle.xmf,582,2.72657e-06,-6.40281e-06,0,3.7282e-06,-1.2798e+09,-1.28102e+09,-1.28016e+09,498274,0.0231399,-0.0770798,0,0.0804783,5315.19,-45595.3,0,45904.1,498274
step02_gravity_refstate-mantle.xmf,583,3.27106e-06,-7.08092e-06,0,3.38332e-06,-1.29175e+09,-1.29313e+09,-1.29219e+09,452180,0.020564,-0.0794042,0,0.0820238,4553.98,-45966.4,0,46191.5,452180
step02_gravity_refstate-mantle.xmf,584,4.13116e-06,-7.94677e-06,0,2.18181e-06,-1.32887e+09,-1.33049e+09,-1.32943e+09,291599,0.0136945,-0.0783331,0,0.0795211,2960.43,-47116.7,0,47209.6,291599
step02_gravity_refstate-mantle.xmf,585,3.71466e-06,-7.51787e-06,0,2.82764e-06,-1.3124e+09,-1.31391e+09,-1.3129e+09,377914,0.0175863,-0.0785034,0,0.0804491,3852.33,-46606.3,0,46765.2,377914
step02_gravity_refstate-mantle.xmf,586,4.30728e-06,-7.97655e-06,0,1.50342e-06,-1.35432e+09,-1.35596e+09,-1.35489e+09,200932,0.0100569,-0.0743289,0,0.0750062,2211.63,-47903.7,0,47954.8,200932
step02_gravity_refstate-mantle.xmf,587,3.0544e-06,-5.37081e-06,0,-1.10453e-06,-1.53321e+09,-1.53434e+09,-1.53362e+09,-147621,-0.0166219,-0.0325616,-0,0.0365588,-4764.54,-53428.1,-0,53640.1,147621
step02_gravity_refstate-mantle.xmf,588,2.79406e-06,-4.97268e-06,0,-1.12479e-06,-1.54991e+09,-1.55095e+09,-1.55029e+09,-150328,-0.0191132,-0.0281878,-0,0.0340568,-5685.74,-53943.3,-0,54242.1,150328
step02_gravity_refstate-mantle.xmf,589,2.65323e-06,-4.6942e-06,0,-9.72353e-07,-1.58128e+09,-1.58227e+09,-1.58164e+09,-129955,-0.020069,-0.0226793,-0,0.0302839,-6163.2,-54912.1,-0,55256.9,129955
step02_gravity_refstate-mantle.xmf,590,2.4608e-06,-4.33038e-06,0,-7.76374e-07,-1.61891e+09,-1.61981e+09,-1.61923e+09,-103762,-0.0215488,-0.0164142,-0,0.0270883,-6874.33,-56073.9,-0,56493.7,103762
step02_gravity_refstate-mantle.xmf,591,2.23578e-06,-3.93449e-06,0,-5.54595e-07,-1.65824e+09,-1.65907e+09,-1.65854e+09,-74121.6,-0.0233256,-0.0104334,-0,0.0255527,-7742.68,-57288.6,-0,57809.4,74121.6
step02_gravity_refstate-mantle.xmf,592,2.00214e-06,-3.53258e-06,0,-2.88292e-07,-1.70146e+09,-1.7022e+09,-1.70172e+09,-38530.2,-0.0250738,-0.00481018,-0,0.0255311,-8649.89,-58622.9,-0,59257.6,38530.2
step02_gravity_refstate-mantle.xmf,593,1.7744e-06,-3.14821e-06,0,-5.8973e-11,-1.74606e+09,-1.74671e+09,-1.74629e+09,-7.88174,-0.0266425,9.19797e-20,-0,0.0266425,-9511.38,-60000,-0,60749.2,7.88174
step02_gravity_refstate-mantle.xmf,594,1.16268e-07,-2.7372e-06,0,3.83356e-06,-1.19311e+09,-1.19349e+09,-1.19312e+09,512356,0.0276584,-0.0608819,0,0.06687,8807.78,-42909.4,0,43804,512356
step02_gravity_refstate-mantle.xmf,595,-1.93406e-07,-2.14995e-06,0,3.58029e-06,-1.17263e+09,-1.1729e+09,-1.17261e+09,478506,0.0267313,-0.0569409,0,0.0629034,9427.9,-42276.4,0,43314.9,478506
step02_gravity_refstate-mantle.xmf,596,-5.26786e-07,-1.09098e-06,0,2.78733e-06,-1.12574e+09,-1.12582e+09,-1.12567e+09,372527,0.0228166,-0.0457224,0,0.0510993,10990.1,-40828.3,0,42281.6,372527
step02_gravity_refstate-mantle.xmf,597,-3.72189e-07,-1.75731e-06,0,3.36883e-06,-1.15202e+09,-1.15221e+09,-1.15197e+09,450244,0.0253908,-0.0547401,0,0.0603421,9815.45,-41639.6,0,42780.8,450244
step02_gravity_refstate-mantle.xmf,598,4.37274e-06,-7.90591e-06,0,9.09957e-07,-1.37627e+09,-1.37791e+09,-1.37685e+09,121616,0.0064509,-0.0704289,0,0.0707237,1445.95,-48582.5,0,48604,121616
step02_gravity_refstate-mantle.xmf,599,3.33556e-06,-5.82773e-06,0,-1.05423e-06,-1.51031e+09,-1.51153e+09,-1.51075e+09,-140898,-0.0137531,-0.0382844,-0,0.0406798,-3778.62,-52721.3,-0,52856.6,140898
step02_gravity_refstate-mantle.xmf,600,-5.13786e-07,-8.11908e-07,0,2.484e-06,-1.0989e+09,-1.09894e+09,-1.09883e+09,331987,0.0200494,-0.042446,0,0.0469429,11479.4,-40000,0,41614.6,331987
step02_gravity_refstate-mantle.xmf,601,-5.11759e-07,-5.74332e-07,0,2.16679e-06,-1.09888e+09,-1.09889e+09,-1.09881e+09,289591,0.0195484,-0.0345183,0,0.0396693,12489.1,-40000,0,41904.4,289591
step02_gravity_refstate-mantle.xmf,602,-5.72903e-07,-7.89358e-07,0,2.43955e-06,-1.1274e+09,-1.12743e+09,-1.12732e+09,326046,0.0224104,-0.0375945,0,0.0437672,12002.6,-40880,0,42605.6,326046
step02_gravity_refstate-mantle.xmf,603,-5.05843e-07,-3.71295e-07,0,1.88268e-06,-1.09886e+09,-1.09884e+09,-1.09879e+09,251620,0.0190264,-0.0269604,0,0.032998,13548.9,-40000,0,42232.4,251620
step02_gravity_refstate-mantle.xmf,604,-5.9543e-07,-5.46014e-07,0,2.13351e-06,-1.13034e+09,-1.13034e+09,-1.13026e+09,285143,0.0220688,-0.0300212,0,0.03726,13037.6,-40971.4,0,42995.8,285143
step02_gravity_refstate-mantle.xmf,605,-4.86735e-07,-2.01029e-07,0,1.6285e-06,-1.09884e+09,-1.0988e+09,-1.09878e+09,217649,0.0184836,-0.0197799,0,0.0270719,14661.8,-40000,0,42602.4,217649
step02_gravity_refstate-mantle.xmf,606,-6.02315e-07,-3.35707e-07,0,1.85582e-06,-1.12991e+09,-1.12987e+09,-1.12983e+09,248031,0.0214267,-0.0231672,0,0.0315566,14076.4,-40958.4,0,43309.8,248031
step02_gravity_refstate-mantle.xmf,607,-9.5558e-07,1.21716e-06,0,1.36324e-09,-1.09883e+09,-1.09854e+09,-1.0987e+09,182.198,-1.63547e-19,0.0376803,-0,0.0376803,40000,-40000,0,56568.5,182.198
step02_gravity_refstate-mantle.xmf,608,-9.47562e-07,1.2065e-06,0,5.10763e-08,-1.09883e+09,-1.09854e+09,-1.0987e+09,6826.35,0.00222426,0.0373275,0,0.0373937,37663.8,-40000,0,54941.4,6826.35
step02_gravity_refstate-mantle.xmf,609,-1.08849e-06,1.32639e-06,0,3.00254e-08,-1.15087e+09,-1.15055e+09,-1.15073e+09,4012.9,0.00175346,0.0354744,0,0.0355177,38392.6,-41607.1,0,56613.9,4012.9
step02_gravity_refstate-mantle.xmf,610,-1.15979e-06,1.38937e-06,0,1.61692e-09,-1.17645e+09,-1.17611e+09,-1.17629e+09,216.102,-2.50133e-19,0.0345579,-0,0.0345579,40000,-42396.8,0,58288,216.102
step02_gravity_refstate-mantle.xmf,611,-4.70159e-07,-1.39458e-06,0,3.03652e-06,-1.15207e+09,-1.1522e+09,-1.15201e+09,405831,0.0250614,-0.0478677,0,0.0540314,10612.6,-41641.4,0,42972.4,405831
step02_gravity_refstate-mantle.xmf,612,3.10507e-07,-2.88105e-06,0,3.68986e-06,-1.22221e+09,-1.22264e+09,-1.22225e+09,493149,0.028537,-0.0568662,0,0.0636249,8983.81,-43809.3,0,44721,493149
step02_gravity_refstate-mantle.xmf,613,7.2679e-07,-3.54153e-06,0,3.84321e-06,-1.239e+09,-1.23957e+09,-1.2391e+09,513645,0.0284427,-0.0609995,0,0.0673047,8265.28,-44329.2,0,45093.1,513645
step02_gravity_refstate-mantle.xmf,614,1.20129e-06,-4.2192e-06,0,3.88636e-06,-1.25667e+09,-1.25739e+09,-1.25683e+09,519412,0.0278528,-0.0642609,0,0.0700374,7581.27,-44876.2,0,45512.1,519412
step02_gravity_refstate-mantle.xmf,615,3.61014e-06,-6.28532e-06,0,-9.23013e-07,-1.4873e+09,-1.48862e+09,-1.48778e+09,-123361,-0.0105888,-0.0442039,-0,0.0454544,-2790.64,-52011.2,-0,52086,123361
step02_gravity_refstate-mantle.xmf,616,1.70461e-06,-4.89378e-06,0,3.82641e-06,-1.27357e+09,-1.27445e+09,-1.2738e+09,511399,0.026747,-0.0669959,0,0.0721378,6899.17,-45400,0,45921.2,511399
step02_gravity_refstate-mantle.xmf,617,2.22729e-06,-5.56107e-06,0,3.66228e-06,-1.28994e+09,-1.29098e+09,-1.29023e+09,489464,0.0251045,-0.0693175,0,0.0737234,6190.07,-45907.3,0,46322.8,489464
step02_gravity_refstate-mantle.xmf,618,4.34503e-06,-7.72615e-06,0,3.87785e-07,-1.39764e+09,-1.39926e+09,-1.39822e+09,51827.5,0.00290754,-0.06606,0,0.066124,667.568,-49243,0,49247.5,51827.5
step02_gravity_refstate-mantle.xmf,619,4.23688e-06,-7.44982e-06,0,-5.01198e-08,-1.41979e+09,-1.42135e+09,-1.42035e+09,-6698.51,-0.000495163,-0.0610542,-0,0.0610563,-117.106,-49927,-0,49927.1,6698.51
step02_gravity_refstate-mantle.xmf,620,4.07231e-06,-7.10983e-06,0,-4.20423e-07,-1.44201e+09,-1.44351e+09,-1.44256e+09,-56189.5,-0.00393178,-0.0557032,-0,0.0558417,-960.946,-50613.4,-0,50622.5,56189.5
step02_gravity_refstate-mantle.xmf,621,3.86004e-06,-6.71841e-06,0,-7.0919e-07,-1.46453e+09,-1.46594e+09,-1.46505e+09,-94783.2,-0.00727256,-0.0500586,-0,0.0505841,-1842.92,-51308.5,-0,51341.6,94783.2
step02_gravity_refstate-mantle.xmf,622,2.72206e-06,-6.16265e-06,0,3.4003e-06,-1.30545e+09,-1.30664e+09,-1.30582e+09,454450,0.0230506,-0.0709671,0,0.0746167,5491.4,-46388.4,0,46712.3,454450
step02_gravity_refstate-mantle.xmf,623,3.18887e-06,-6.68871e-06,0,3.01234e-06,-1.32307e+09,-1.32439e+09,-1.3235e+09,402600,0.0204903,-0.0715421,0,0.0744186,4767.6,-46934.5,0,47176,402600
step02_gravity_refstate-mantle.xmf,624,3.59973e-06,-7.10016e-06,0,2.49646e-06,-1.34374e+09,-1.34517e+09,-1.34422e+09,333652,0.017352,-0.0707967,0,0.0728921,3990.07,-47574.6,0,47741.6,333652
step02_gravity_refstate-mantle.xmf,625,4.07842e-06,-7.44347e-06,0,1.3697e-06,-1.3871e+09,-1.38864e+09,-1.38765e+09,183061,0.0103828,-0.066054,0,0.0668651,2407.63,-48916.4,0,48975.6,183061
step02_gravity_refstate-mantle.xmf,626,3.90605e-06,-7.36152e-06,0,1.92508e-06,-1.36501e+09,-1.36652e+09,-1.36553e+09,257287,0.0138608,-0.0690203,0,0.0703983,3182.87,-48233,0,48337.9,257287
step02_gravity_refstate-mantle.xmf,627,3.01078e-06,-5.17558e-06,0,-8.48313e-07,-1.57662e+09,-1.57772e+09,-1.57703e+09,-113377,-0.0161461,-0.0255029,-0,0.0301844,-4760.65,-54769.3,-0,54975.8,113377
step02_gravity_refstate-mantle.xmf,628,3.28417e-06,-5.61774e-06,0,-8.19601e-07,-1.54969e+09,-1.55088e+09,-1.55013e+09,-109540,-0.0129576,-0.0314982,-0,0.0340593,-3663.91,-53937.9,-0,54062.2,109540
step02_gravity_refstate-mantle.xmf,629,2.81227e-06,-4.79917e-06,0,-6.839e-07,-1.61849e+09,-1.6195e+09,-1.61886e+09,-91403.2,-0.0178392,-0.0181789,-0,0.0254697,-5466.11,-56062.1,-0,56327.9,91403.2
step02_gravity_refstate-mantle.xmf,630,2.6181e-06,-4.43942e-06,0,-4.9029e-07,-1.6601e+09,-1.66104e+09,-1.66045e+09,-65527.2,-0.0196489,-0.011511,-0,0.0227724,-6231.65,-57347.1,-0,57684.7,65527.2
step02_gravity_refstate-mantle.xmf,631,2.41874e-06,-4.08578e-06,0,-2.61412e-07,-1.70249e+09,-1.70336e+09,-1.70281e+09,-34937.7,-0.0215099,-0.00543321,-0,0.0221854,-7038.7,-58656,-0,59076.8,34937.7
step02_gravity_refstate-mantle.xmf,632,2.20438e-06,-3.72402e-06,0,-1.05359e-09,-1.74601e+09,-1.7468e+09,-1.74631e+09,-140.812,-0.0234222,9.84207e-20,-0,0.0234222,-7892.26,-60000,-0,60516.8,140.812
step02_gravity_refstate-mantle.xmf,633,-5.96133e-07,-1.52359e-07,0,1.60019e-06,-1.12899e+09,-1.12893e+09,-1.12891e+09,213866,0.020693,-0.0164745,0,0.0264501,15193,-40930.5,0,43659.3,213866
step02_gravity_refstate-mantle.xmf,634,-4.98356e-07,-3.87442e-08,0,1.40661e-06,-1.09883e+09,-1.09877e+09,-1.09876e+09,187993,0.0179157,-0.0129828,0,0.0221252,15830.4,-40000,0,43018.6,187993
step02_gravity_refstate-mantle.xmf,635,-9.25186e-07,1.17343e-06,0,1.01858e-07,-1.09882e+09,-1.09854e+09,-1.0987e+09,13613.4,0.0043063,0.0363264,0,0.0365808,35440.8,-40000,0,53442,13613.4
step02_gravity_refstate-mantle.xmf,636,-1.09131e-06,1.31742e-06,0,6.62037e-08,-1.15557e+09,-1.15525e+09,-1.15543e+09,8848.12,0.0038135,0.0347029,0,0.0349118,36529.7,-41752.3,0,55476.8,8848.12
step02_gravity_refstate-mantle.xmf,637,-1.26052e-06,1.47745e-06,0,3.35446e-08,-1.21855e+09,-1.21818e+09,-1.21838e+09,4483.23,0.00264959,0.0324431,0,0.0325511,37900.3,-43696.9,0,57843.3,4483.23
step02_gravity_refstate-mantle.xmf,638,-1.35269e-06,1.56167e-06,0,1.47057e-09,-1.25455e+09,-1.25416e+09,-1.25437e+09,196.542,-2.75816e-19,0.0309998,-0,0.0309998,40000,-44808.6,0,60065.1,196.542
step02_gravity_refstate-mantle.xmf,639,-3.20808e-07,-1.73681e-06,0,3.22755e-06,-1.1779e+09,-1.17809e+09,-1.17786e+09,431362,0.0267893,-0.0493119,0,0.0561189,10286.8,-42439.2,0,43668.1,431362
step02_gravity_refstate-mantle.xmf,640,-7.42805e-08,-2.18002e-06,0,3.39675e-06,-1.20545e+09,-1.20573e+09,-1.20544e+09,453975,0.0281287,-0.0510476,0,0.0582845,9866.82,-43290.9,0,44401.1,453975
step02_gravity_refstate-mantle.xmf,641,-5.25039e-07,-1.08517e-06,0,2.70659e-06,-1.15445e+09,-1.15452e+09,-1.15438e+09,361736,0.0247876,-0.0406257,0,0.0475907,11505.2,-41715.1,0,43272.6,361736
step02_gravity_refstate-mantle.xmf,642,4.15308e-06,-7.41087e-06,0,8.63708e-07,-1.40819e+09,-1.40973e+09,-1.40874e+09,115435,0.00693845,-0.0626064,0,0.0629897,1633.49,-49568.2,0,49595.1,115435
step02_gravity_refstate-mantle.xmf,643,3.5236e-06,-6.01623e-06,0,-7.1113e-07,-1.52616e+09,-1.52744e+09,-1.52663e+09,-95042.5,-0.00974513,-0.0369966,-0,0.0382586,-2656.58,-53211.8,-0,53278.1,95042.5
step02_gravity_refstate-mantle.xmf,644,-8.91163e-07,1.12224e-06,0,1.5548e-07,-1.09882e+09,-1.09855e+09,-1.0987e+09,20779.9,0.00622681,0.0347453,0,0.0352989,33325.6,-40000,0,52063.3,20779.9
step02_gravity_refstate-mantle.xmf,645,-1.05584e-06,1.26502e-06,0,1.13722e-07,-1.15165e+09,-1.15134e+09,-1.15151e+09,15199,0.00607886,0.0336395,0,0.0341844,34373.1,-41631.3,0,53987.7,15199
step02_gravity_refstate-mantle.xmf,646,-8.48764e-07,1.05625e-06,0,2.13434e-07,-1.09882e+09,-1.09856e+09,-1.0987e+09,28525.4,0.00797662,0.0326333,0,0.033594,31312.8,-40000,0,50798.5,28525.4
step02_gravity_refstate-mantle.xmf,647,-1.00637e-06,1.19002e-06,0,1.70115e-07,-1.14654e+09,-1.14624e+09,-1.1464e+09,22735.9,0.0082172,0.0319727,0,0.0330118,32208.1,-41473.3,0,52511,22735.9
step02_gravity_refstate-mantle.xmf,648,-8.00906e-07,9.78159e-07,0,2.77377e-07,-1.09881e+09,-1.09857e+09,-1.09871e+09,37071.4,0.00955432,0.030026,0,0.0315094,29397.5,-40000,0,49640.9,37071.4
step02_gravity_refstate-mantle.xmf,649,-7.50908e-07,8.90614e-07,0,3.48828e-07,-1.09881e+09,-1.09859e+09,-1.09871e+09,46620.9,0.0109648,0.0269494,0,0.0290947,27575,-40000,0,48583.7,46620.9
step02_gravity_refstate-mantle.xmf,650,-9.0292e-07,1.01377e-06,0,3.00895e-07,-1.1399e+09,-1.13965e+09,-1.13978e+09,40214.6,0.011693,0.0271575,0,0.0295678,28383.9,-41268.7,0,50087.4,40214.6
step02_gravity_refstate-mantle.xmf,651,-9.55073e-07,1.10504e-06,0,2.32758e-07,-1.14298e+09,-1.14271e+09,-1.14286e+09,31108.2,0.0100986,0.0297512,0,0.0314184,30200.8,-41363.7,0,51215.7,31108.2
step02_gravity_refstate-mantle.xmf,652,-7.00546e-07,7.9511e-07,0,4.29702e-07,-1.09881e+09,-1.09861e+09,-1.09871e+09,57429.6,0.0122181,0.0234228,0,0.026418,25840.6,-40000,0,47620.8,57429.6
step02_gravity_refstate-mantle.xmf,653,-8.60807e-07,9.25197e-07,0,3.74753e-07,-1.14108e+09,-1.14085e+09,-1.14097e+09,50085.7,0.013269,0.0239782,0,0.0274047,26641.3,-41305.2,0,49151.6,50085.7
step02_gravity_refstate-mantle.xmf,654,-6.47068e-07,6.96705e-07,0,5.17624e-07,-1.0988e+09,-1.09862e+09,-1.09872e+09,69180.5,0.0133282,0.0194605,0,0.0235871,24190.1,-40000,0,46745.7,69180.5
step02_gravity_refstate-mantle.xmf,655,-8.15059e-07,8.12783e-07,0,4.73587e-07,-1.13962e+09,-1.1394e+09,-1.13951e+09,63294.9,0.0146531,0.0202999,0,0.0250359,24914.5,-41259.9,0,48198.7,63294.9
step02_gravity_refstate-mantle.xmf,656,-4.95271e-07,9.92581e-08,0,1.20811e-06,-1.09882e+09,-1.09874e+09,-1.09875e+09,161464,0.0173146,-0.00657429,0,0.0185207,17057.8,-40000,0,43485.3,161464
step02_gravity_refstate-mantle.xmf,657,-6.28773e-07,2.80649e-08,0,1.37181e-06,-1.13244e+09,-1.13235e+09,-1.13236e+09,183342,0.0201928,-0.00972213,0,0.0224114,16444.1,-41037.5,0,44209.6,183342
step02_gravity_refstate-mantle.xmf,658,-5.9086e-07,-8.0598e-07,0,2.40177e-06,-1.1599e+09,-1.15993e+09,-1.15982e+09,320996,0.0246332,-0.0333109,0,0.0414296,12477.8,-41883.9,0,43703,320996
step02_gravity_refstate-mantle.xmf,659,-6.235e-07,-5.29288e-07,0,2.06162e-06,-1.16565e+09,-1.16564e+09,-1.16557e+09,275535,0.0243102,-0.0252627,0,0.0350598,13669,-42062,0,44227.3,275535
step02_gravity_refstate-mantle.xmf,660,-6.41029e-07,-3.16499e-07,0,1.81805e-06,-1.15413e+09,-1.15409e+09,-1.15404e+09,242982,0.0229797,-0.0202477,0,0.0306274,14514,-41706.5,0,44159.8,242982
step02_gravity_refstate-mantle.xmf,661,-1.44781e-06,1.64614e-06,0,3.13786e-08,-1.29898e+09,-1.29856e+09,-1.29878e+09,4193.75,0.00290493,0.0285914,0,0.0287386,37994.5,-46180.4,0,59801.4,4193.75
step02_gravity_refstate-mantle.xmf,662,-1.52525e-06,1.72953e-06,0,1.71192e-09,-1.33338e+09,-1.33295e+09,-1.33318e+09,228.798,-3.03127e-19,0.0269948,-0,0.0269948,40000,-47243,0,61902.3,228.798
step02_gravity_refstate-mantle.xmf,663,-4.33382e-07,-1.36502e-06,0,2.90571e-06,-1.17566e+09,-1.17579e+09,-1.17561e+09,388348,0.0263532,-0.0428891,0,0.0503385,11107.8,-42370.4,0,43802.2,388348
step02_gravity_refstate-mantle.xmf,664,1.76674e-07,-2.50509e-06,0,3.39672e-06,-1.23428e+09,-1.23464e+09,-1.2343e+09,453972,0.0289928,-0.0501398,0,0.0579187,9714.73,-44182.1,0,45237.5,453972
step02_gravity_refstate-mantle.xmf,665,4.90331e-07,-3.00984e-06,0,3.53228e-06,-1.24933e+09,-1.24979e+09,-1.24939e+09,472089,0.0290704,-0.0534649,0,0.060857,9103.17,-44647.8,0,45566.3,472089
step02_gravity_refstate-mantle.xmf,666,8.91586e-07,-3.60926e-06,0,3.62534e-06,-1.26558e+09,-1.26618e+09,-1.2657e+09,484527,0.0287269,-0.0569222,0,0.0637603,8413.78,-45151.1,0,45928.4,484527
step02_gravity_refstate-mantle.xmf,667,1.33877e-06,-4.22528e-06,0,3.62123e-06,-1.28283e+09,-1.28358e+09,-1.28301e+09,483978,0.0279338,-0.0597221,0,0.065932,7733.55,-45685.4,0,46335.4,483978
step02_gravity_refstate-mantle.xmf,668,3.7376e-06,-6.39168e-06,0,-5.32206e-07,-1.50212e+09,-1.50348e+09,-1.50262e+09,-71129.3,-0.00642518,-0.042599,-0,0.0430808,-1691.43,-52469.7,-0,52497,71129.3
step02_gravity_refstate-mantle.xmf,669,1.79282e-06,-4.8178e-06,0,3.5321e-06,-1.29921e+09,-1.30009e+09,-1.29945e+09,472065,0.0267201,-0.0619764,0,0.067491,7067.5,-46192.8,0,46730.3,472065
step02_gravity_refstate-mantle.xmf,670,2.24178e-06,-5.37742e-06,0,3.36459e-06,-1.31489e+09,-1.31591e+09,-1.31519e+09,449678,0.025105,-0.0637673,0,0.0685312,6397.13,-46678.8,0,47115.1,449678
step02_gravity_refstate-mantle.xmf,671,4.12975e-06,-7.24956e-06,0,4.37016e-07,-1.43092e+09,-1.43244e+09,-1.43147e+09,58407.2,0.00378711,-0.0581997,0,0.0583228,911.991,-50270.6,0,50278.8,58407.2
step02_gravity_refstate-mantle.xmf,672,4.04919e-06,-7.0145e-06,0,6.76523e-08,-1.45486e+09,-1.45634e+09,-1.4554e+09,9041.72,0.00054269,-0.0532177,0,0.0532205,134.285,-51010.2,0,51010.4,9041.72
step02_gravity_refstate-mantle.xmf,673,3.91649e-06,-6.72833e-06,0,-2.74931e-07,-1.4784e+09,-1.47982e+09,-1.47892e+09,-36744.6,-0.00300957,-0.0480375,-0,0.0481316,-767.023,-51737.1,-0,51742.8,36744.6
step02_gravity_refstate-mantle.xmf,674,2.68792e-06,-5.88894e-06,0,3.0753e-06,-1.33381e+09,-1.33495e+09,-1.33417e+09,411014,0.0230155,-0.0644257,0,0.0684134,5710.33,-47264.7,0,47608.4,411014
step02_gravity_refstate-mantle.xmf,675,3.1109e-06,-6.34011e-06,0,2.67564e-06,-1.35488e+09,-1.35615e+09,-1.3553e+09,357600,0.0203658,-0.0641739,0,0.0673279,4963.1,-47917.4,0,48173.8,357600
step02_gravity_refstate-mantle.xmf,676,3.46735e-06,-6.68586e-06,0,2.2031e-06,-1.3768e+09,-1.37815e+09,-1.37726e+09,294445,0.0172715,-0.0630311,0,0.0653546,4171.81,-48595.9,0,48774.6,294445
step02_gravity_refstate-mantle.xmf,677,3.88536e-06,-6.99368e-06,0,1.23658e-06,-1.41969e+09,-1.42115e+09,-1.42021e+09,165269,0.0106448,-0.0583996,0,0.0593618,2588.54,-49922.9,0,49990,165269
step02_gravity_refstate-mantle.xmf,678,3.72547e-06,-6.8987e-06,0,1.7088e-06,-1.39873e+09,-1.40015e+09,-1.39922e+09,228381,0.0139705,-0.0610116,0,0.0625907,3374.76,-49274.5,0,49389.9,228381
step02_gravity_refstate-mantle.xmf,679,3.43574e-06,-5.76067e-06,0,-5.37266e-07,-1.56709e+09,-1.56832e+09,-1.56755e+09,-71805.6,-0.00916888,-0.0296318,-0,0.031018,-2577.48,-54476.1,-0,54537,71805.6
step02_gravity_refstate-mantle.xmf,680,3.23843e-06,-5.4521e-06,0,-6.30921e-07,-1.58613e+09,-1.58729e+09,-1.58656e+09,-84322.6,-0.0123004,-0.0253964,-0,0.0282184,-3555.44,-55063.7,-0,55178.3,84322.6
step02_gravity_refstate-mantle.xmf,681,3.10654e-06,-5.18335e-06,0,-5.43933e-07,-1.62013e+09,-1.62124e+09,-1.62055e+09,-72696.7,-0.0137075,-0.0193237,-0,0.0236918,-4073.5,-56113.9,-0,56261.6,72696.7
step02_gravity_refstate-mantle.xmf,682,2.94742e-06,-4.87212e-06,0,-4.05275e-07,-1.66061e+09,-1.66166e+09,-1.66101e+09,-54165,-0.0154781,-0.0125393,-0,0.01992,-4733.68,-57364,-0,57559,54165
step02_gravity_refstate-mantle.xmf,683,2.77755e-06,-4.55885e-06,0,-2.25019e-07,-1.70257e+09,-1.70355e+09,-1.70294e+09,-30073.8,-0.0174781,-0.00604661,-0,0.0184945,-5486.92,-58659.7,-0,58915.7,30073.8
step02_gravity_refstate-mantle.xmf,684,2.59578e-06,-4.24225e-06,0,-2.02415e-09,-1.74597e+09,-1.74688e+09,-1.74632e+09,-270.528,-0.0195866,1.03301e-19,-0,0.0195866,-6293.86,-60000,-0,60329.2,270.528
step02_gravity_refstate-mantle.xmf,685,-7.63506e-07,6.96663e-07,0,5.81073e-07,-1.13847e+09,-1.13828e+09,-1.13837e+09,77660.4,0.0159216,0.016066,0,0.0226189,23237.3,-41224.6,0,47322.7,77660.4
step02_gravity_refstate-mantle.xmf,686,-6.10362e-07,5.87071e-07,0,6.2569e-07,-1.0988e+09,-1.09864e+09,-1.09872e+09,83623.4,0.0143103,0.0150736,0,0.0207846,22619.3,-40000,0,45952.5,83623.4
step02_gravity_refstate-mantle.xmf,687,-6.50183e-07,1.76443e-07,0,1.17887e-06,-1.13793e+09,-1.13782e+09,-1.13784e+09,157556,0.0197964,-0.00381531,0,0.0201608,17675.6,-41207.3,0,44838.3,157556
step02_gravity_refstate-mantle.xmf,688,-6.72291e-07,-1.28459e-07,0,1.58093e-06,-1.15976e+09,-1.15969e+09,-1.15967e+09,211291,0.0226335,-0.0139215,0,0.0265722,15631.6,-41880.7,0,44702.8,211291
step02_gravity_refstate-mantle.xmf,689,-1.21926e-06,1.41307e-06,0,8.33715e-08,-1.20925e+09,-1.20889e+09,-1.20908e+09,11142.6,0.00567965,0.0318925,0,0.0323943,35391.4,-43409.6,0,56008.4,11142.6
step02_gravity_refstate-mantle.xmf,690,-1.3763e-06,1.56473e-06,0,6.53257e-08,-1.27371e+09,-1.27332e+09,-1.27353e+09,8730.78,0.00569599,0.0291791,0,0.0297298,35895.3,-45400.2,0,57876.2,8730.78
step02_gravity_refstate-mantle.xmf,691,-1.6065e-06,1.80881e-06,0,3.01357e-08,-1.37807e+09,-1.37762e+09,-1.37786e+09,4027.63,0.003175,0.0243774,0,0.0245833,38022.9,-48623,0,61724.7,4027.63
step02_gravity_refstate-mantle.xmf,692,-2.70439e-07,-1.64943e-06,0,2.98527e-06,-1.20883e+09,-1.20901e+09,-1.20879e+09,398981,0.0280651,-0.0422077,0,0.0506867,10993.7,-43395.2,0,44766.1,398981
step02_gravity_refstate-mantle.xmf,693,-4.78349e-07,-1.15373e-06,0,2.6644e-06,-1.18597e+09,-1.18606e+09,-1.1859e+09,356098,0.026606,-0.0370035,0,0.0455756,11846.6,-42688.9,0,44302.2,356098
step02_gravity_refstate-mantle.xmf,694,-3.09416e-08,-2.06935e-06,0,3.14974e-06,-1.23194e+09,-1.23221e+09,-1.23193e+09,420963,0.0289829,-0.0447769,0,0.0533384,10460.8,-44109.6,0,45333.1,420963
step02_gravity_refstate-mantle.xmf,695,3.97598e-06,-7.03445e-06,0,8.26817e-07,-1.43592e+09,-1.43739e+09,-1.43645e+09,110504,0.00747565,-0.0561485,0,0.056644,1830.75,-50424.7,0,50457.9,110504
step02_gravity_refstate-mantle.xmf,696,3.62081e-06,-6.0838e-06,0,-3.91878e-07,-1.5426e+09,-1.54389e+09,-1.54308e+09,-52374.5,-0.00578302,-0.0348852,-0,0.0353613,-1577.51,-53720,-0,53743.1,52374.5
step02_gravity_refstate-mantle.xmf,697,3.32365e-06,-5.47835e-06,0,-3.85205e-07,-1.61711e+09,-1.61828e+09,-1.61755e+09,-51482.6,-0.00930983,-0.0208634,-0,0.0228463,-2701.65,-56021.2,-0,56086.3,51482.6
step02_gravity_refstate-mantle.xmf,698,-1.16799e-06,1.33491e-06,0,1.33901e-07,-1.20038e+09,-1.20005e+09,-1.20023e+09,17895.9,0.00819016,0.0307664,0,0.0318379,33177.7,-43136,0,54419.4,17895.9
step02_gravity_refstate-mantle.xmf,699,-9.81346e-07,1.02913e-06,0,3.32087e-07,-1.1744e+09,-1.17413e+09,-1.17426e+09,44383.5,0.0136728,0.024542,0,0.0280937,27484,-42333.7,0,50472.9,44383.5
step02_gravity_refstate-mantle.xmf,700,-1.10211e-06,1.23008e-06,0,1.99961e-07,-1.19019e+09,-1.18988e+09,-1.19005e+09,26724.8,0.0105746,0.0289077,0,0.0307811,30889.9,-42821.4,0,52800.2,26724.8
step02_gravity_refstate-mantle.xmf,701,-1.04321e-06,1.12882e-06,0,2.67924e-07,-1.18326e+09,-1.18297e+09,-1.18312e+09,35808.1,0.0124086,0.0266927,0,0.0294359,29006.8,-42607.3,0,51543.9,35808.1
step02_gravity_refstate-mantle.xmf,702,-5.22146e-07,2.35101e-07,0,1.03451e-06,-1.09881e+09,-1.09871e+09,-1.09874e+09,138262,0.0166681,-0.000559326,0,0.0166775,18347,-40000,0,44007,138262
step02_gravity_refstate-mantle.xmf,703,-9.80076e-07,9.47048e-07,0,4.21451e-07,-1.18772e+09,-1.18746e+09,-1.18759e+09,56327,0.0158058,0.0209102,0,0.0262118,25786.5,-42745,0,49920.8,56327
step02_gravity_refstate-mantle.xmf,704,-5.75413e-07,4.75986e-07,0,7.44338e-07,-1.09881e+09,-1.09866e+09,-1.09873e+09,99480.8,0.0151823,0.0102702,0,0.0183298,21124.3,-40000,0,45235.3,99480.8
step02_gravity_refstate-mantle.xmf,705,-7.49337e-07,5.86716e-07,0,7.01819e-07,-1.142e+09,-1.14182e+09,-1.1419e+09,93798.1,0.0171902,0.0117489,0,0.0208216,21790.1,-41333.5,0,46725.4,93798.1
step02_gravity_refstate-mantle.xmf,706,-5.45881e-07,3.58952e-07,0,8.80344e-07,-1.09881e+09,-1.09869e+09,-1.09874e+09,117658,0.0159628,0.00505722,0,0.0167447,19701.4,-40000,0,44588.6,117658
step02_gravity_refstate-mantle.xmf,707,-7.02015e-07,3.29657e-07,0,1.00298e-06,-1.14368e+09,-1.14354e+09,-1.14359e+09,134048,0.0192727,0.00185037,0,0.0193613,19012.3,-41385,0,45543.2,134048
step02_gravity_refstate-mantle.xmf,708,-7.40755e-07,4.71813e-07,0,8.41393e-07,-1.14772e+09,-1.14755e+09,-1.14762e+09,112452,0.0185127,0.00710471,0,0.0198292,20421,-41509.8,0,46261,112452
step02_gravity_refstate-mantle.xmf,709,-8.94759e-07,7.81163e-07,0,5.57514e-07,-1.17467e+09,-1.17445e+09,-1.17455e+09,74511.8,0.0171913,0.0165497,0,0.0238628,23731.3,-42342.2,0,48539,74511.8
step02_gravity_refstate-mantle.xmf,710,-7.30126e-07,6.63453e-08,0,1.35068e-06,-1.17165e+09,-1.17154e+09,-1.17155e+09,180519,0.022462,-0.00718898,0,0.0235844,16973.7,-42248.1,0,45530.3,180519
step02_gravity_refstate-mantle.xmf,711,-5.6628e-07,-8.58412e-07,0,2.3616e-06,-1.19432e+09,-1.19436e+09,-1.19424e+09,315628,0.0265411,-0.029749,0,0.0398677,12873.3,-42947.1,0,44835,315628
step02_gravity_refstate-mantle.xmf,712,-6.70962e-07,-3.28583e-07,0,1.80908e-06,-1.18165e+09,-1.18161e+09,-1.18156e+09,241784,0.0245938,-0.0182427,0,0.0306211,14814.6,-42556.4,0,45061.3,241784
step02_gravity_refstate-mantle.xmf,713,-1.51183e-06,1.69252e-06,0,5.95691e-08,-1.33574e+09,-1.33531e+09,-1.33553e+09,7961.41,0.00582933,0.0261738,0,0.0268151,36166.9,-47315.6,0,59555.1,7961.41
step02_gravity_refstate-mantle.xmf,714,-1.6719e-06,1.89037e-06,0,2.15852e-09,-1.41316e+09,-1.41268e+09,-1.41294e+09,288.486,-3.34167e-19,0.0225367,-0,0.0225367,40000,-49706.7,0,63802.5,288.486
step02_gravity_refstate-mantle.xmf,715,2.73609e-07,-2.50394e-06,0,3.20796e-06,-1.26012e+09,-1.26049e+09,-1.26016e+09,428745,0.029586,-0.0458034,0,0.0545279,10036.7,-44981.1,0,46087.3,428745
step02_gravity_refstate-mantle.xmf,716,6.49273e-07,-3.11357e-06,0,3.3783e-06,-1.27356e+09,-1.27406e+09,-1.27364e+09,451510,0.0293595,-0.0505567,0,0.0584633,9188.11,-45397,0,46317.5,451510
step02_gravity_refstate-mantle.xmf,717,1.47667e-06,-4.23827e-06,0,3.34889e-06,-1.31051e+09,-1.31128e+09,-1.31071e+09,447579,0.0278628,-0.0553202,0,0.0619408,7850.05,-46541.3,0,47198.7,447579
step02_gravity_refstate-mantle.xmf,718,1.00893e-06,-3.61284e-06,0,3.39154e-06,-1.29171e+09,-1.29233e+09,-1.29184e+09,453279,0.0289181,-0.0526593,0,0.0600771,8605.24,-45958.9,0,46757.6,453279
step02_gravity_refstate-mantle.xmf,719,3.77337e-06,-6.38002e-06,0,-1.6642e-07,-1.51677e+09,-1.51813e+09,-1.51727e+09,-22242,-0.00219901,-0.0403342,-0,0.0403941,-582.561,-52922.4,-0,52925.6,22242
step02_gravity_refstate-mantle.xmf,720,1.88605e-06,-4.77845e-06,0,3.27879e-06,-1.32235e+09,-1.32324e+09,-1.3226e+09,438210,0.0265564,-0.0579378,0,0.0637341,7163.13,-46908.3,0,47452.1,438210
step02_gravity_refstate-mantle.xmf,721,2.22459e-06,-5.15064e-06,0,3.06435e-06,-1.34265e+09,-1.34364e+09,-1.34295e+09,409551,0.0251617,-0.0577392,0,0.0629835,6657.13,-47536.7,0,48000.6,409551
step02_gravity_refstate-mantle.xmf,722,3.90338e-06,-6.77638e-06,0,5.57587e-07,-1.46619e+09,-1.46762e+09,-1.46672e+09,74521.5,0.00553592,-0.0501659,0,0.0504705,1398.29,-51360,0,51379,74521.5
step02_gravity_refstate-mantle.xmf,723,3.8745e-06,-6.61248e-06,0,1.33224e-07,-1.49224e+09,-1.49364e+09,-1.49276e+09,17805.4,0.00141281,-0.045312,0,0.0453341,365.058,-52164.9,0,52166.1,17805.4
step02_gravity_refstate-mantle.xmf,724,2.64481e-06,-5.61136e-06,0,2.74469e-06,-1.36551e+09,-1.36661e+09,-1.36586e+09,366828,0.0229522,-0.0576058,0,0.0620099,5942,-48244.3,0,48608.9,366828
step02_gravity_refstate-mantle.xmf,725,3.02741e-06,-6.00993e-06,0,2.36248e-06,-1.38808e+09,-1.38929e+09,-1.38849e+09,315745,0.0202601,-0.056966,0,0.0604615,5164.57,-48943.3,0,49215,315745
step02_gravity_refstate-mantle.xmf,726,3.33755e-06,-6.30486e-06,0,1.93983e-06,-1.41069e+09,-1.41198e+09,-1.41114e+09,259258,0.0172639,-0.0555395,0,0.0581608,4369.18,-49643.1,0,49835,259258
step02_gravity_refstate-mantle.xmf,727,3.74677e-06,-6.63094e-06,0,1.04782e-06,-1.45462e+09,-1.45601e+09,-1.45512e+09,140041,0.0103308,-0.0509917,0,0.0520276,2621.44,-51001.8,0,51069.2,140041
step02_gravity_refstate-mantle.xmf,728,3.57074e-06,-6.49976e-06,0,1.50144e-06,-1.4332e+09,-1.43455e+09,-1.43368e+09,200667,0.014022,-0.0534184,0,0.0552281,3547.34,-50339.4,0,50464.2,200667
step02_gravity_refstate-mantle.xmf,729,3.51837e-06,-5.8118e-06,0,-2.85825e-07,-1.58492e+09,-1.58617e+09,-1.58539e+09,-38200.6,-0.00539583,-0.0271427,-0,0.0276739,-1518.06,-55027.4,-0,55048.3,38200.6
step02_gravity_refstate-mantle.xmf,730,3.20497e-06,-5.20689e-06,0,-2.91373e-07,-1.66188e+09,-1.663e+09,-1.66231e+09,-38941.9,-0.0108777,-0.0131878,-0,0.0170951,-3239.96,-57404,-0,57495.4,38941.9
step02_gravity_refstate-mantle.xmf,731,3.07092e-06,-4.94115e-06,0,-1.70856e-07,-1.70329e+09,-1.70436e+09,-1.7037e+09,-22834.9,-0.0129649,-0.00644106,-0,0.0144768,-3944.04,-58682.9,-0,58815.3,22834.9
step02_gravity_refstate-mantle.xmf,732,2.92823e-06,-4.67846e-06,0,-2.77647e-09,-1.74593e+09,-1.74695e+09,-1.74633e+09,-371.076,-0.0152142,1.04589e-19,-0,0.0152142,-4710.75,-60000,-0,60184.6,371.076
step02_gravity_refstate-mantle.xmf,733,-1.10735e-06,1.1138e-06,0,3.26805e-07,-1.22002e+09,-1.21972e+09,-1.21987e+09,43677.5,0.0150132,0.0232315,0,0.0276604,27601.3,-43742.3,0,51722.5,43677.5
step02_gravity_refstate-mantle.xmf,734,-8.51875e-07,6.7704e-07,0,6.53608e-07,-1.17227e+09,-1.17207e+09,-1.17216e+09,87354.7,0.0181428,0.0133163,0,0.0225052,22511.3,-42268.1,0,47889,87354.7
step02_gravity_refstate-mantle.xmf,735,-7.72394e-07,2.28682e-07,0,1.15859e-06,-1.18218e+09,-1.18204e+09,-1.18207e+09,154846,0.0221541,-0.0017305,0,0.0222216,18218.9,-42573.4,0,46307.9,154846
step02_gravity_refstate-mantle.xmf,736,-6.14556e-07,-6.00288e-07,0,2.06e-06,-1.20446e+09,-1.20446e+09,-1.20438e+09,275319,0.0264463,-0.0227194,0,0.0348651,13976.8,-43260.8,0,45462.6,275319
step02_gravity_refstate-mantle.xmf,737,-7.2191e-07,-1.21277e-07,0,1.5649e-06,-1.19134e+09,-1.19126e+09,-1.19124e+09,209149,0.0243449,-0.0118933,0,0.0270947,16000.5,-42855.8,0,45745.4,209149
step02_gravity_refstate-mantle.xmf,738,-1.32114e-06,1.47407e-06,0,1.13995e-07,-1.25953e+09,-1.25916e+09,-1.25935e+09,15235.4,0.00842888,0.0286309,0,0.0298459,33741.4,-44962.3,0,56214.7,15235.4
step02_gravity_refstate-mantle.xmf,739,-1.456e-06,1.61242e-06,0,9.6305e-08,-1.32022e+09,-1.31981e+09,-1.32002e+09,12871.2,0.00862741,0.0260229,0,0.0274158,34177.1,-46836.5,0,57980.4,12871.2
step02_gravity_refstate-mantle.xmf,740,-1.73599e-06,1.96417e-06,0,2.71049e-08,-1.45907e+09,-1.45858e+09,-1.45884e+09,3622.57,0.00348387,0.0196535,0,0.0199599,37993,-51124.7,0,63696.2,3622.57
step02_gravity_refstate-mantle.xmf,741,-1.674e-06,1.86484e-06,0,6.03506e-08,-1.42834e+09,-1.42787e+09,-1.42812e+09,8065.86,0.00690149,0.0209956,0,0.0221008,35902,-50175.5,0,61697.1,8065.86
step02_gravity_refstate-mantle.xmf,742,-1.78795e-06,2.04315e-06,0,2.21042e-09,-1.4941e+09,-1.49359e+09,-1.49387e+09,295.423,-3.44322e-19,0.0176206,-0,0.0176206,40000,-52206.7,0,65768.8,295.423
step02_gravity_refstate-mantle.xmf,743,-9.49462e-08,-1.82931e-06,0,2.88913e-06,-1.24893e+09,-1.24916e+09,-1.24892e+09,386132,0.0294247,-0.0387039,0,0.048619,11186,-44634.7,0,46015,386132
step02_gravity_refstate-mantle.xmf,744,-3.81738e-07,-1.28291e-06,0,2.62958e-06,-1.22105e+09,-1.22117e+09,-1.221e+09,351444,0.0282277,-0.0341538,0,0.044309,12069,-43772.8,0,45406.2,351444
step02_gravity_refstate-mantle.xmf,745,3.64314e-06,-6.05639e-06,0,-9.55538e-08,-1.55905e+09,-1.56035e+09,-1.55954e+09,-12770.8,-0.00162904,-0.0322418,-0,0.032283,-447.309,-54228.5,-0,54230.3,12770.8
step02_gravity_refstate-mantle.xmf,746,3.44938e-06,-5.62394e-06,0,-2.04419e-07,-1.62136e+09,-1.62257e+09,-1.62182e+09,-27320.6,-0.00496272,-0.0207442,-0,0.0213295,-1424.67,-56152.8,-0,56170.9,27320.6
step02_gravity_refstate-mantle.xmf,747,-1.25878e-06,1.37116e-06,0,1.71123e-07,-1.24725e+09,-1.2469e+09,-1.24708e+09,22870.6,0.0109588,0.0273909,0,0.0295018,31612,-44583.1,0,54653.2,22870.6
step02_gravity_refstate-mantle.xmf,748,-1.18967e-06,1.25166e-06,0,2.41611e-07,-1.23511e+09,-1.23479e+09,-1.23495e+09,32291.3,0.0131938,0.0255492,0,0.0287548,29557.6,-44208.4,0,53179.3,32291.3
step02_gravity_refstate-mantle.xmf,749,-1.10542e-06,1.01874e-06,0,4.24016e-07,-1.23807e+09,-1.23778e+09,-1.23792e+09,56669.8,0.017548,0.0194702,0,0.026211,25830.3,-44299.7,0,51280.3,56669.8
step02_gravity_refstate-mantle.xmf,750,-1.03441e-06,8.80478e-07,0,5.27516e-07,-1.22468e+09,-1.22443e+09,-1.22455e+09,70502.5,0.0187102,0.0166138,0,0.0250217,24288.9,-43886.3,0,50159.4,70502.5
step02_gravity_refstate-mantle.xmf,751,-8.81893e-07,5.67929e-07,0,7.97773e-07,-1.19312e+09,-1.19293e+09,-1.19301e+09,106622,0.020333,0.00878806,0,0.0221509,21140.6,-42911.7,0,47836.6,106622
step02_gravity_refstate-mantle.xmf,752,-8.31086e-07,3.97974e-07,0,9.78188e-07,-1.18825e+09,-1.18809e+09,-1.18814e+09,130735,0.0214045,0.00353053,0,0.0216937,19579.4,-42761.1,0,47030.4,130735
step02_gravity_refstate-mantle.xmf,753,-9.64499e-07,7.26686e-07,0,6.58596e-07,-1.2131e+09,-1.21287e+09,-1.21297e+09,88021.3,0.0198611,0.012838,0,0.0236491,22657.4,-43528.5,0,49072.3,88021.3
step02_gravity_refstate-mantle.xmf,754,-7.94365e-07,4.58561e-08,0,1.37408e-06,-1.21604e+09,-1.21593e+09,-1.21593e+09,183646,0.0247795,-0.00621926,0,0.0255481,17203.8,-43618.8,0,46888.9,183646
step02_gravity_refstate-mantle.xmf,755,-4.99375e-07,-9.47091e-07,0,2.31701e-06,-1.23024e+09,-1.2303e+09,-1.23017e+09,309669,0.0281426,-0.0269513,0,0.0389663,13160.2,-44056.9,0,45980.5,309669
step02_gravity_refstate-mantle.xmf,756,-6.77849e-07,-3.59428e-07,0,1.79471e-06,-1.2141e+09,-1.21406e+09,-1.21401e+09,239862,0.0262136,-0.0162725,0,0.0308537,15114.4,-43558.6,0,46106.4,239862
step02_gravity_refstate-mantle.xmf,757,-1.56727e-06,1.72921e-06,0,8.54116e-08,-1.37739e+09,-1.37695e+09,-1.37718e+09,11415.3,0.00880519,0.02324,0,0.0248522,34472,-48602.1,0,59585.9,11415.3
step02_gravity_refstate-mantle.xmf,758,-1.8293e-06,2.10717e-06,0,2.10142e-08,-1.53814e+09,-1.53761e+09,-1.53789e+09,2808.54,0.00357429,0.0146883,0,0.0151169,38048.4,-53566.8,0,65704.5,2808.54
step02_gravity_refstate-mantle.xmf,759,-1.87276e-06,2.18984e-06,0,3.10015e-09,-1.57646e+09,-1.57592e+09,-1.57621e+09,414.335,-4.1251e-19,0.0122378,-0,0.0122378,40000,-54750.5,0,67805.7,414.335
step02_gravity_refstate-mantle.xmf,760,6.22558e-07,-2.92413e-06,0,3.12867e-06,-1.29542e+09,-1.2959e+09,-1.29551e+09,418147,0.0298074,-0.0451219,0,0.0540784,9695.54,-46072.9,0,47082,418147
step02_gravity_refstate-mantle.xmf,761,2.11807e-07,-2.26836e-06,0,2.94668e-06,-1.27983e+09,-1.28016e+09,-1.27986e+09,393824,0.0300581,-0.0399915,0,0.050028,10690,-45590.1,0,46826.6,393824
step02_gravity_refstate-mantle.xmf,762,1.70168e-06,-4.36351e-06,0,3.03562e-06,-1.34463e+09,-1.34544e+09,-1.34486e+09,405711,0.0273108,-0.051271,0,0.0580913,7767.52,-47596.4,0,48226.1,405711
step02_gravity_refstate-mantle.xmf,763,1.1394e-06,-3.62821e-06,0,3.12723e-06,-1.322e+09,-1.32264e+09,-1.32215e+09,417954,0.0289801,-0.0481723,0,0.0562176,8776.82,-46895.5,0,47709.7,417954
step02_gravity_refstate-mantle.xmf,764,3.72258e-06,-6.25733e-06,0,1.63151e-07,-1.53141e+09,-1.53274e+09,-1.53191e+09,21805.2,0.00207398,-0.0374808,0,0.0375381,556.91,-53374.6,0,53377.5,21805.2
step02_gravity_refstate-mantle.xmf,765,2.19133e-06,-4.90494e-06,0,2.73888e-06,-1.37472e+09,-1.37567e+09,-1.37502e+09,366052,0.0252394,-0.0511668,0,0.0570532,6962.67,-48527.8,0,49024.7,366052
step02_gravity_refstate-mantle.xmf,766,3.73779e-06,-6.37312e-06,0,4.79164e-07,-1.50694e+09,-1.50829e+09,-1.50744e+09,64040.3,0.0056847,-0.041802,0,0.0421867,1500.65,-52618.7,0,52640.1,64040.3
step02_gravity_refstate-mantle.xmf,767,3.66816e-06,-6.36118e-06,0,8.3414e-07,-1.48798e+09,-1.48932e+09,-1.48847e+09,111483,0.0093207,-0.0445649,0,0.0455291,2443.39,-52032.4,0,52089.8,111483
step02_gravity_refstate-mantle.xmf,768,2.59822e-06,-5.34907e-06,0,2.42725e-06,-1.39886e+09,-1.39992e+09,-1.39921e+09,324403,0.0228677,-0.0509317,0,0.0558299,6169.26,-49275,0,49659.7,324403
step02_gravity_refstate-mantle.xmf,769,2.94256e-06,-5.70405e-06,0,2.07609e-06,-1.42196e+09,-1.42311e+09,-1.42235e+09,277469,0.0201968,-0.0500526,0,0.0539739,5371.49,-49989.8,0,50277.6,277469
step02_gravity_refstate-mantle.xmf,770,3.22415e-06,-5.96905e-06,0,1.69108e-06,-1.44558e+09,-1.44681e+09,-1.44601e+09,226013,0.0172238,-0.0483766,0,0.0513513,4549.69,-50720.8,0,50924.4,226013
step02_gravity_refstate-mantle.xmf,771,3.4599e-06,-6.17895e-06,0,1.28551e-06,-1.46823e+09,-1.46951e+09,-1.46869e+09,171808,0.0137719,-0.0463825,0,0.0483839,3624.67,-51421.3,0,51548.9,171808
step02_gravity_refstate-mantle.xmf,772,3.53692e-06,-5.78848e-06,0,-5.88611e-08,-1.60234e+09,-1.60359e+09,-1.60281e+09,-7866.78,-0.00134342,-0.0243329,-0,0.02437,-379.751,-55565.7,-0,55567,7866.78
step02_gravity_refstate-mantle.xmf,773,3.38881e-06,-5.43507e-06,0,-1.44662e-07,-1.66247e+09,-1.66365e+09,-1.66292e+09,-19334.1,-0.00547721,-0.0136753,-0,0.0147314,-1602.39,-57423,-0,57445.3,19334.1
step02_gravity_refstate-mantle.xmf,774,3.28344e-06,-5.2132e-06,0,-1.02159e-07,-1.70482e+09,-1.70595e+09,-1.70526e+09,-13653.5,-0.00800839,-0.00655052,-0,0.0103462,-2384.63,-58731,-0,58779.4,13653.5
step02_gravity_refstate-mantle.xmf,775,3.18288e-06,-5.01034e-06,0,-3.42825e-09,-1.74591e+09,-1.747e+09,-1.74633e+09,-458.185,-0.0104068,1.01899e-19,-0,0.0104068,-3137.45,-60000,-0,60082,458.185
step02_gravity_refstate-mantle.xmf,776,-1.1719e-06,1.12653e-06,0,3.57015e-07,-1.25567e+09,-1.25536e+09,-1.25551e+09,47715.1,0.0168095,0.0209515,0,0.0268612,26972.2,-44843.1,0,52329.8,47715.1
step02_gravity_refstate-mantle.xmf,777,-8.47872e-07,2.50266e-07,0,1.1433e-06,-1.22625e+09,-1.2261e+09,-1.22614e+09,152802,0.0241202,-0.000418277,0,0.0241238,18629.5,-43934.3,0,47720.9,152802
step02_gravity_refstate-mantle.xmf,778,-5.76586e-07,-6.64325e-07,0,2.02259e-06,-1.23991e+09,-1.23992e+09,-1.23983e+09,270319,0.027967,-0.02042,0,0.0346284,14262.4,-44355.7,0,46592.3,270319
step02_gravity_refstate-mantle.xmf,779,-7.35358e-07,-1.96588e-07,0,1.61255e-06,-1.22721e+09,-1.22714e+09,-1.22712e+09,215517,0.0262226,-0.0115721,0,0.0286625,16029.7,-43963.8,0,46794.9,215517
step02_gravity_refstate-mantle.xmf,780,-1.40026e-06,1.50681e-06,0,1.50428e-07,-1.30725e+09,-1.30686e+09,-1.30706e+09,20104.7,0.0113065,0.0252311,0,0.0276486,32169.2,-46435.9,0,56490.3,20104.7
step02_gravity_refstate-mantle.xmf,781,-1.5206e-06,1.64343e-06,0,1.26821e-07,-1.36792e+09,-1.3675e+09,-1.36772e+09,16949.7,0.0114317,0.0226878,0,0.0254051,32699.2,-48309.6,0,58335.7,16949.7
step02_gravity_refstate-mantle.xmf,782,-1.62722e-06,1.77724e-06,0,1.03165e-07,-1.4273e+09,-1.42684e+09,-1.42708e+09,13788,0.0110496,0.0199791,0,0.0228311,33379.9,-50143.4,0,60237.6,13788
step02_gravity_refstate-mantle.xmf,783,-1.77608e-06,2.00791e-06,0,4.75188e-08,-1.50443e+09,-1.50393e+09,-1.5042e+09,6350.89,0.00688094,0.0165157,0,0.0178918,36152.1,-52525.7,0,63764.6,6350.89
step02_gravity_refstate-mantle.xmf,784,-1.89201e-06,2.24752e-06,0,1.42339e-08,-1.61968e+09,-1.61913e+09,-1.61943e+09,1902.36,0.00426595,0.00918255,0,0.0101251,37750.4,-56085.6,0,67606.9,1902.36
step02_gravity_refstate-mantle.xmf,785,-1.92259e-06,2.33009e-06,0,1.04726e-09,-1.66048e+09,-1.65991e+09,-1.66022e+09,139.966,-3.3614e-19,0.00637079,-0,0.00637079,40000,-57345.7,0,69918,139.966
step02_gravity_refstate-mantle.xmf,786,-2.74142e-07,-1.38126e-06,0,2.53586e-06,-1.25678e+09,-1.25692e+09,-1.25674e+09,338918,0.0294392,-0.030926,0,0.0426976,12346,-44877,0,46544.2,338918
step02_gravity_refstate-mantle.xmf,787,1.29724e-08,-1.862e-06,0,2.70044e-06,-1.28379e+09,-1.28404e+09,-1.2838e+09,360914,0.0302248,-0.0342825,0,0.0457036,11569.2,-45712.2,0,47153.5,360914
step02_gravity_refstate-mantle.xmf,788,3.58023e-06,-5.91175e-06,0,1.56779e-07,-1.57864e+09,-1.57991e+09,-1.57912e+09,20953.5,0.00262174,-0.0285606,0,0.0286807,731.214,-54833.4,0,54838.3,20953.5
step02_gravity_refstate-mantle.xmf,789,3.46152e-06,-5.59614e-06,0,-7.09651e-08,-1.63994e+09,-1.64115e+09,-1.6404e+09,-9484.48,-0.00198636,-0.0177039,-0,0.017815,-573.442,-56727.1,-0,56730,9484.48
step02_gravity_refstate-mantle.xmf,790,-1.33212e-06,1.38399e-06,0,2.15349e-07,-1.29339e+09,-1.29302e+09,-1.29321e+09,28781.3,0.0137713,0.0239151,0,0.0275967,30169,-46007.9,0,55017.2,28781.3
step02_gravity_refstate-mantle.xmf,791,-1.25735e-06,1.24205e-06,0,2.99642e-07,-1.27947e+09,-1.27913e+09,-1.2793e+09,40047.1,0.0160216,0.0219466,0,0.0271726,28170.3,-45578.1,0,53581,40047.1
step02_gravity_refstate-mantle.xmf,792,-1.21969e-06,1.11401e-06,0,4.00027e-07,-1.28959e+09,-1.28928e+09,-1.28943e+09,53463.7,0.0186393,0.0185851,0,0.0263217,26272.2,-45890.6,0,52878.9,53463.7
step02_gravity_refstate-mantle.xmf,793,-1.14354e-06,9.6212e-07,0,5.05063e-07,-1.27452e+09,-1.27424e+09,-1.27437e+09,67501.7,0.0200254,0.0160948,0,0.0256916,24701.4,-45425.3,0,51707,67501.7
step02_gravity_refstate-mantle.xmf,794,-1.06859e-06,7.98121e-07,0,6.33356e-07,-1.26143e+09,-1.26118e+09,-1.26129e+09,84648.1,0.0213253,0.0128608,0,0.0249032,23107.4,-45021,0,50604.8,84648.1
step02_gravity_refstate-mantle.xmf,795,-9.26735e-07,4.46863e-07,0,9.5263e-07,-1.23596e+09,-1.23577e+09,-1.23583e+09,127319,0.0232913,0.00464621,0,0.0237502,20075.1,-44234.2,0,48576.4,127319
step02_gravity_refstate-mantle.xmf,796,-9.94519e-07,6.24979e-07,0,7.82847e-07,-1.24779e+09,-1.24757e+09,-1.24765e+09,104627,0.0223896,0.00903004,0,0.024142,21552.8,-44599.6,0,49534.3,104627
step02_gravity_refstate-mantle.xmf,797,-8.18596e-07,7.15862e-08,0,1.30668e-06,-1.2535e+09,-1.25338e+09,-1.25339e+09,174638,0.0260969,-0.00404156,0,0.026408,17739.2,-44775.9,0,48161.8,174638
step02_gravity_refstate-mantle.xmf,798,-4.12971e-07,-1.03115e-06,0,2.24023e-06,-1.26601e+09,-1.26609e+09,-1.26595e+09,299406,0.0293632,-0.0243124,0,0.038122,13428,-45162.1,0,47116.1,299406
step02_gravity_refstate-mantle.xmf,799,-6.46019e-07,-4.40659e-07,0,1.78674e-06,-1.25218e+09,-1.25215e+09,-1.2521e+09,238798,0.0278514,-0.0149188,0,0.0315955,15288.5,-44735,0,47275.3,238798
step02_gravity_refstate-mantle.xmf,800,-7.44617e-07,-1.91454e-07,0,1.54553e-06,-1.26374e+09,-1.26367e+09,-1.26364e+09,206561,0.0274808,-0.00919002,0,0.0289768,16502.1,-45092.1,0,48016.8,206561
step02_gravity_refstate-mantle.xmf,801,-1.72516e-06,1.90902e-06,0,8.30044e-08,-1.49165e+09,-1.49117e+09,-1.49142e+09,11093.5,0.0105114,0.0166252,0,0.0196694,34031.9,-52131,0,62256,11093.5
step02_gravity_refstate-mantle.xmf,802,-1.84281e-06,2.13603e-06,0,3.07045e-08,-1.57351e+09,-1.57298e+09,-1.57327e+09,4103.66,0.0067162,0.0121455,0,0.0138787,36385.1,-54659.4,0,65662.2,4103.66
step02_gravity_refstate-mantle.xmf,803,-1.9233e-06,2.36376e-06,0,4.68315e-09,-1.68817e+09,-1.6876e+09,-1.68792e+09,625.902,0.00346488,0.00433304,0,0.00554803,38202.8,-58201.4,0,69619.4,625.902
step02_gravity_refstate-mantle.xmf,804,-1.94153e-06,2.47632e-06,0,6.58573e-10,-1.7464e+09,-1.7458e+09,-1.74614e+09,88.0183,1.54175e-18,-4.23869e-19,0,1.59895e-18,40000,-60000,0,72111,88.0183
step02_gravity_refstate-mantle.xmf,805,3.69864e-07,-2.40253e-06,0,2.81717e-06,-1.30858e+09,-1.30895e+09,-1.30862e+09,376515,0.0304133,-0.0375858,0,0.0483494,10743.9,-46478.7,0,47704.3,376515
step02_gravity_refstate-mantle.xmf,806,7.99681e-07,-3.0114e-06,0,2.87429e-06,-1.33248e+09,-1.33299e+09,-1.33258e+09,384149,0.0299739,-0.0408364,0,0.0506562,9841.85,-47218.4,0,48233.1,384149
step02_gravity_refstate-mantle.xmf,807,1.27497e-06,-3.63168e-06,0,2.82034e-06,-1.35804e+09,-1.3587e+09,-1.35821e+09,376938,0.0289001,-0.0431939,0,0.0519705,8940.75,-48009.7,0,48835.1,376938
step02_gravity_refstate-mantle.xmf,808,3.57758e-06,-5.99941e-06,0,4.31554e-07,-1.5505e+09,-1.55178e+09,-1.55098e+09,57677.1,0.00638982,-0.0332897,0,0.0338974,1757.18,-53964.1,0,53992.7,57677.1
step02_gravity_refstate-mantle.xmf,809,1.75256e-06,-4.213e-06,0,2.65697e-06,-1.38422e+09,-1.38502e+09,-1.38446e+09,355104,0.0272274,-0.0445484,0,0.0522101,8049.7,-48820.2,0,49479.3,355104
step02_gravity_refstate-mantle.xmf,810,2.17946e-06,-4.69958e-06,0,2.41227e-06,-1.40973e+09,-1.41065e+09,-1.41002e+09,322399,0.0251593,-0.0448274,0,0.0514051,7212.81,-49609.7,0,50131.3,322399
step02_gravity_refstate-mantle.xmf,811,3.51069e-06,-6.00648e-06,0,7.50748e-07,-1.52449e+09,-1.52576e+09,-1.52496e+09,100337,0.00999948,-0.0372263,0,0.0385459,2724.95,-53160.2,0,53230,100337
step02_gravity_refstate-mantle.xmf,812,3.34516e-06,-5.86792e-06,0,1.09702e-06,-1.50427e+09,-1.50551e+09,-1.50472e+09,146617,0.0137566,-0.0394116,0,0.0417435,3758.07,-52534.9,0,52669.1,146617
step02_gravity_refstate-mantle.xmf,813,2.54686e-06,-5.10316e-06,0,2.13251e-06,-1.43281e+09,-1.43383e+09,-1.43315e+09,285009,0.0228097,-0.0445516,0,0.0500512,6396.94,-50323.9,0,50728.9,285009
step02_gravity_refstate-mantle.xmf,814,2.8605e-06,-5.42265e-06,0,1.80828e-06,-1.45669e+09,-1.4578e+09,-1.45708e+09,241676,0.0201676,-0.0433956,0,0.047853,5579.85,-51063.1,0,51367,241676
step02_gravity_refstate-mantle.xmf,815,3.1217e-06,-5.66739e-06,0,1.45811e-06,-1.48116e+09,-1.48233e+09,-1.48157e+09,194876,0.0172066,-0.0415207,0,0.0449448,4725.25,-51819.8,0,52034.8,194876
step02_gravity_refstate-mantle.xmf,816,3.48152e-06,-5.63211e-06,0,1.07199e-07,-1.62974e+09,-1.63096e+09,-1.63021e+09,14327.2,0.0026079,-0.0194492,0,0.0196233,749.521,-56412.1,0,56417,14327.2
step02_gravity_refstate-mantle.xmf,817,3.43149e-06,-5.47411e-06,0,-8.1247e-10,-1.67383e+09,-1.67502e+09,-1.67429e+09,-108.587,-9.37248e-05,-0.0119413,-0,0.0119416,-27.5261,-57774.2,-0,57774.2,108.587
step02_gravity_refstate-mantle.xmf,818,3.39429e-06,-5.35273e-06,0,-3.16042e-08,-1.70774e+09,-1.70891e+09,-1.70819e+09,-4223.9,-0.00274464,-0.00624894,-0,0.00682512,-808.409,-58821.6,-0,58827.1,4223.9
step02_gravity_refstate-mantle.xmf,819,3.34342e-06,-5.21952e-06,0,-3.42152e-09,-1.74589e+09,-1.74703e+09,-1.74634e+09,-457.286,-0.00528737,9.30263e-20,-0,0.00528737,-1568.5,-60000,-0,60020.5,457.286
step02_gravity_refstate-mantle.xmf,820,-8.89228e-07,2.20762e-07,0,1.15464e-06,-1.27663e+09,-1.27649e+09,-1.27652e+09,154318,0.0261456,-0.000220566,0,0.0261465,18782.6,-45490.4,0,49215.5,154318
step02_gravity_refstate-mantle.xmf,821,-5.17511e-07,-7.48319e-07,0,1.99384e-06,-1.27109e+09,-1.27112e+09,-1.27102e+09,266476,0.029087,-0.0190516,0,0.0347709,14393.2,-45319.2,0,47549.9,266476
step02_gravity_refstate-mantle.xmf,822,-7.96114e-07,-3.37932e-08,0,1.3645e-06,-1.28532e+09,-1.28522e+09,-1.28521e+09,182365,0.027551,-0.00505332,0,0.0280106,17486.7,-45758.6,0,48986.1,182365
step02_gravity_refstate-mantle.xmf,823,-1.45527e-06,1.51227e-06,0,1.90442e-07,-1.3532e+09,-1.3528e+09,-1.35301e+09,25452.6,0.0141348,0.0218144,0,0.0259934,30729.1,-47855.1,0,56871.7,25452.6
step02_gravity_refstate-mantle.xmf,824,-1.56067e-06,1.64923e-06,0,1.57223e-07,-1.41437e+09,-1.41394e+09,-1.41416e+09,21012.8,0.0141518,0.0193491,0,0.0239721,31337.5,-49744,0,58792.1,21012.8
step02_gravity_refstate-mantle.xmf,825,-1.65338e-06,1.78075e-06,0,1.26183e-07,-1.47666e+09,-1.4762e+09,-1.47643e+09,16864.3,0.0139251,0.0164601,0,0.0215602,31931.9,-51667.9,0,60739,16864.3
step02_gravity_refstate-mantle.xmf,826,-1.80117e-06,2.04268e-06,0,5.94211e-08,-1.55822e+09,-1.55771e+09,-1.55798e+09,7941.63,0.00997585,0.0127406,0,0.0161815,34561.5,-54187.2,0,64270.9,7941.63
step02_gravity_refstate-mantle.xmf,827,-1.85887e-06,2.18523e-06,0,3.10926e-08,-1.62499e+09,-1.62445e+09,-1.62474e+09,4155.52,0.00891917,0.00853812,0,0.0123471,35274.5,-56249.5,0,66395,4155.52
step02_gravity_refstate-mantle.xmf,828,-1.90027e-06,2.31439e-06,0,1.20105e-08,-1.68473e+09,-1.68416e+09,-1.68447e+09,1605.21,0.00722926,0.00449457,0,0.00851254,36232.6,-58095,0,68467.7,1605.21
step02_gravity_refstate-mantle.xmf,829,-1.92585e-06,2.44421e-06,0,8.56441e-10,-1.74639e+09,-1.74581e+09,-1.74614e+09,114.463,0.0050102,-4.41071e-19,0,0.0050102,37408.2,-60000,0,70706.3,114.463
step02_gravity_refstate-mantle.xmf,830,-1.71421e-07,-1.44817e-06,0,2.40201e-06,-1.29204e+09,-1.29221e+09,-1.29201e+09,321029,0.03031,-0.0276672,0,0.0410386,12642.2,-45966.6,0,47673.4,321029
step02_gravity_refstate-mantle.xmf,831,1.35035e-07,-1.92923e-06,0,2.53116e-06,-1.31787e+09,-1.31815e+09,-1.31789e+09,338289,0.0307781,-0.0309153,0,0.043624,11808,-46765.6,0,48233.3,338289
step02_gravity_refstate-mantle.xmf,832,3.44717e-06,-5.67639e-06,0,3.48242e-07,-1.59822e+09,-1.59943e+09,-1.59868e+09,46542.6,0.00691621,-0.0245526,0,0.0255081,1969.73,-55437.9,0,55472.9,46542.6
step02_gravity_refstate-mantle.xmf,833,-1.38423e-06,1.37197e-06,0,2.65028e-07,-1.34123e+09,-1.34086e+09,-1.34104e+09,35421,0.0166043,0.0203173,0,0.0262392,28823.4,-47485.2,0,55548.5,35421
step02_gravity_refstate-mantle.xmf,834,-1.31562e-06,1.22018e-06,0,3.57929e-07,-1.33629e+09,-1.33595e+09,-1.33612e+09,47837.2,0.0190106,0.0179993,0,0.0261797,26953,-47333,0,54469,47837.2
step02_gravity_refstate-mantle.xmf,835,-1.23506e-06,1.04974e-06,0,4.67948e-07,-1.32438e+09,-1.32408e+09,-1.32422e+09,62541.2,0.0209092,0.01555,0,0.0260576,25217.4,-46965.2,0,53307.1,62541.2
step02_gravity_refstate-mantle.xmf,836,-1.15166e-06,8.68773e-07,0,5.96796e-07,-1.31115e+09,-1.31088e+09,-1.31099e+09,79761.8,0.0224725,0.0126721,0,0.0257991,23578.2,-46556.4,0,52186.4,79761.8
step02_gravity_refstate-mantle.xmf,837,-1.06668e-06,6.75109e-07,0,7.48925e-07,-1.29781e+09,-1.29758e+09,-1.29767e+09,100094,0.0238052,0.00919519,0,0.0255194,21980.6,-46144.4,0,51112.2,100094
step02_gravity_refstate-mantle.xmf,838,-9.82809e-07,4.68596e-07,0,9.25851e-07,-1.28593e+09,-1.28573e+09,-1.28579e+09,123740,0.0249629,0.0050779,0,0.0254741,20432.7,-45777.4,0,50130.5,123740
step02_gravity_refstate-mantle.xmf,839,-3.4005e-07,-1.06491e-06,0,2.11446e-06,-1.30075e+09,-1.30084e+09,-1.3007e+09,282597,0.0302267,-0.0213482,0,0.0370053,13775.8,-46235.6,0,48244.2,282597
step02_gravity_refstate-mantle.xmf,840,-5.56882e-07,-6.08697e-07,0,1.8064e-06,-1.29661e+09,-1.29662e+09,-1.29653e+09,241425,0.0294715,-0.0145659,0,0.0328745,15211.2,-46107.5,0,48551.9,241425
step02_gravity_refstate-mantle.xmf,841,-6.79585e-07,-3.02114e-07,0,1.52552e-06,-1.31076e+09,-1.31071e+09,-1.31067e+09,203886,0.0290744,-0.00859804,0,0.0303191,16557.4,-46544.7,0,49402,203886
step02_gravity_refstate-mantle.xmf,842,-1.73431e-06,1.90935e-06,0,9.73622e-08,-1.54194e+09,-1.54145e+09,-1.5417e+09,13012.5,0.0134943,0.013038,0,0.0187639,32513.3,-53684.2,0,62762.3,13012.5
step02_gravity_refstate-mantle.xmf,843,5.07133e-07,-2.46576e-06,0,2.60569e-06,-1.34325e+09,-1.34365e+09,-1.34332e+09,348251,0.0306946,-0.0339287,0,0.0457527,10930.8,-47550.6,0,48790.8,348251
step02_gravity_refstate-mantle.xmf,844,9.23585e-07,-3.02202e-06,0,2.59619e-06,-1.36934e+09,-1.36987e+09,-1.36947e+09,346981,0.030042,-0.0362698,0,0.0470958,10052.1,-48358,0,49391.7,346981
step02_gravity_refstate-mantle.xmf,845,1.36345e-06,-3.5743e-06,0,2.49854e-06,-1.39588e+09,-1.39654e+09,-1.39606e+09,333930,0.0288092,-0.0378839,0,0.0475937,9160.17,-49179.3,0,50025.1,333930
step02_gravity_refstate-mantle.xmf,846,3.36345e-06,-5.65638e-06,0,6.21131e-07,-1.56956e+09,-1.57077e+09,-1.57001e+09,83014.1,0.0106048,-0.028796,0,0.0306867,3005.24,-54552.3,0,54635,83014.1
step02_gravity_refstate-mantle.xmf,847,1.78342e-06,-4.07542e-06,0,2.32722e-06,-1.42129e+09,-1.42207e+09,-1.42153e+09,311033,0.0271112,-0.0387138,0,0.0472628,8290.74,-49965.7,0,50648.8,311033
step02_gravity_refstate-mantle.xmf,848,2.16276e-06,-4.51116e-06,0,2.10906e-06,-1.44476e+09,-1.44566e+09,-1.44505e+09,281877,0.0250722,-0.0389201,0,0.0462967,7444.78,-50692.2,0,51235.9,281877
step02_gravity_refstate-mantle.xmf,849,3.21491e-06,-5.54759e-06,0,9.22899e-07,-1.544e+09,-1.54517e+09,-1.54443e+09,123345,0.0141342,-0.0319912,0,0.0349745,4009.05,-53762,0,53911.3,123345
step02_gravity_refstate-mantle.xmf,850,3.00893e-06,-5.36451e-06,0,1.24031e-06,-1.51892e+09,-1.52004e+09,-1.51932e+09,165768,0.0174316,-0.0345319,0,0.0386822,4972.63,-52986.3,0,53219.1,165768
step02_gravity_refstate-mantle.xmf,851,2.50051e-06,-4.8844e-06,0,1.85519e-06,-1.46718e+09,-1.46817e+09,-1.46751e+09,247947,0.022739,-0.0385362,0,0.0447448,6604.79,-51385.9,0,51808.7,247947
step02_gravity_refstate-mantle.xmf,852,2.78135e-06,-5.16459e-06,0,1.55859e-06,-1.49173e+09,-1.49279e+09,-1.4921e+09,208305,0.0201949,-0.037063,0,0.0422078,5791.77,-52145.5,0,52466.1,208305
step02_gravity_refstate-mantle.xmf,853,3.34394e-06,-5.41748e-06,0,2.58901e-07,-1.64518e+09,-1.64635e+09,-1.64563e+09,34602.1,0.00767985,-0.0163701,0,0.0180821,2245.36,-56888.6,0,56932.9,34602.1
step02_gravity_refstate-mantle.xmf,854,3.39707e-06,-5.44455e-06,0,1.10497e-07,-1.66833e+09,-1.66951e+09,-1.66878e+09,14767.9,0.00425203,-0.0127657,0,0.0134552,1244.05,-57604,0,57617.4,14767.9
step02_gravity_refstate-mantle.xmf,855,3.39513e-06,-5.36057e-06,0,3.29633e-08,-1.70687e+09,-1.70804e+09,-1.70733e+09,4405.55,0.00247965,-0.00639567,0,0.00685954,730.203,-58794.8,0,58799.3,4405.55
step02_gravity_refstate-mantle.xmf,856,3.39719e-06,-5.28954e-06,0,-3.67769e-09,-1.74588e+09,-1.74704e+09,-1.74634e+09,-491.523,1.35328e-07,9.14481e-20,0,1.35328e-07,-6.83358e-08,-60000,-0,60000,491.523
step02_gravity_refstate-mantle.xmf,857,-7.89807e-07,-3.28234e-08,0,1.29399e-06,-1.32195e+09,-1.32185e+09,-1.32184e+09,172941,0.0284683,-0.00365384,0,0.0287018,17852.4,-46890.2,0,50173.7,172941
step02_gravity_refstate-mantle.xmf,858,-1.4846e-06,1.49003e-06,0,2.31661e-07,-1.39894e+09,-1.39854e+09,-1.39874e+09,30961.5,0.016889,0.0183867,0,0.0249662,29383.6,-49267.7,0,57364.7,30961.5
step02_gravity_refstate-mantle.xmf,859,-1.57065e-06,1.62027e-06,0,1.882e-07,-1.4601e+09,-1.45968e+09,-1.45989e+09,25152.9,0.0169377,0.0159625,0,0.0232742,29944.5,-51156.7,0,59276.3,25152.9
step02_gravity_refstate-mantle.xmf,860,-1.64699e-06,1.74827e-06,0,1.45372e-07,-1.52346e+09,-1.52301e+09,-1.52324e+09,19429,0.0167621,0.0130621,0,0.0212506,30489.3,-53113.7,0,61242.6,19429
step02_gravity_refstate-mantle.xmf,861,-1.79907e-06,2.0528e-06,0,6.18589e-08,-1.61318e+09,-1.61267e+09,-1.61294e+09,8267.44,0.0129516,0.00886034,0,0.0156923,33045.1,-55885,0,64923.8,8267.44
step02_gravity_refstate-mantle.xmf,862,-1.84798e-06,2.21114e-06,0,2.32608e-08,-1.6823e+09,-1.68176e+09,-1.68206e+09,3108.81,0.0116314,0.00446601,0,0.0124593,33881.7,-58020.1,0,67188.6,3108.81
step02_gravity_refstate-mantle.xmf,863,-1.88246e-06,2.36024e-06,0,5.51362e-10,-1.74639e+09,-1.74582e+09,-1.74614e+09,73.6895,0.00974527,-4.39963e-19,0,0.00974527,34922.2,-60000,0,69423.1,73.6895
step02_gravity_refstate-mantle.xmf,864,-8.70964e-08,-1.47372e-06,0,2.23307e-06,-1.32741e+09,-1.3276e+09,-1.3274e+09,298449,0.0309405,-0.0242553,0,0.0393146,12987.6,-47059.9,0,48819.1,298449
step02_gravity_refstate-mantle.xmf,865,2.41225e-07,-1.95965e-06,0,2.3238e-06,-1.35461e+09,-1.3549e+09,-1.35464e+09,310575,0.031187,-0.0272274,0,0.0414,12094.4,-47900.9,0,49404.2,310575
step02_gravity_refstate-mantle.xmf,866,3.24882e-06,-5.37172e-06,0,4.79704e-07,-1.61483e+09,-1.61598e+09,-1.61526e+09,64112.5,0.0111841,-0.0208514,0,0.0236614,3268.65,-55950.5,0,56045.9,64112.5
step02_gravity_refstate-mantle.xmf,867,-1.40212e-06,1.32389e-06,0,3.17211e-07,-1.38658e+09,-1.38622e+09,-1.3864e+09,42395.2,0.019323,0.0168299,0,0.0256246,27535.3,-48886.1,0,56107.4,42395.2
step02_gravity_refstate-mantle.xmf,868,-9.10366e-07,2.48546e-07,0,1.07154e-06,-1.32621e+09,-1.32605e+09,-1.32608e+09,143211,0.0273582,0.00120871,0,0.0273848,19319.4,-47021.6,0,50835.7,143211
step02_gravity_refstate-mantle.xmf,869,-1.31173e-06,1.13863e-06,0,4.23245e-07,-1.37329e+09,-1.37296e+09,-1.37311e+09,56566.7,0.0214592,0.014798,0,0.0260668,25746.8,-48475.5,0,54888.7,56566.7
step02_gravity_refstate-mantle.xmf,870,-1.21847e-06,9.40914e-07,0,5.4864e-07,-1.36146e+09,-1.36117e+09,-1.3613e+09,73325.7,0.0233108,0.0122371,0,0.0263276,24052.7,-48110.3,0,53787.8,73325.7
step02_gravity_refstate-mantle.xmf,871,-1.12005e-06,7.28187e-07,0,6.97486e-07,-1.34769e+09,-1.34744e+09,-1.34754e+09,93219,0.0248411,0.00919793,0,0.0264893,22425.8,-47684.9,0,52695,93219
step02_gravity_refstate-mantle.xmf,872,-1.02006e-06,5.03459e-07,0,8.68994e-07,-1.3346e+09,-1.3344e+09,-1.33446e+09,116141,0.0261206,0.00560239,0,0.0267146,20872.1,-47280.8,0,51682.9,116141
step02_gravity_refstate-mantle.xmf,873,-3.24195e-07,-9.98787e-07,0,1.92899e-06,-1.33443e+09,-1.33452e+09,-1.33439e+09,257809,0.0307832,-0.0174297,0,0.0353752,14373.3,-47276.4,0,49413,257809
step02_gravity_refstate-mantle.xmf,874,-4.86846e-07,-6.52083e-07,0,1.6739e-06,-1.34286e+09,-1.34288e+09,-1.34279e+09,223717,0.0304751,-0.0120592,0,0.0327743,15583.1,-47536.4,0,50025.4,223717
step02_gravity_refstate-mantle.xmf,875,-6.35307e-07,-3.28784e-07,0,1.42481e-06,-1.35401e+09,-1.35397e+09,-1.35393e+09,190425,0.0300027,-0.00693001,0,0.0307927,16884.9,-47880.9,0,50770.8,190425
step02_gravity_refstate-mantle.xmf,876,-1.71044e-06,1.87051e-06,0,1.05764e-07,-1.58773e+09,-1.58725e+09,-1.5875e+09,14135.3,0.0163938,0.00973713,0,0.0190675,31005.2,-55098.8,0,63223.4,14135.3
step02_gravity_refstate-mantle.xmf,877,6.171e-07,-2.47617e-06,0,2.34976e-06,-1.3815e+09,-1.38191e+09,-1.38158e+09,314045,0.0308838,-0.0297203,0,0.0428614,11188.6,-48732.8,0,50000.7,314045
step02_gravity_refstate-mantle.xmf,878,1.01754e-06,-2.99376e-06,0,2.30186e-06,-1.40815e+09,-1.40868e+09,-1.40828e+09,307644,0.0300436,-0.0315519,0,0.0435677,10287.9,-49557.3,0,50613.9,307644
step02_gravity_refstate-mantle.xmf,879,1.4206e-06,-3.48943e-06,0,2.18437e-06,-1.43423e+09,-1.43489e+09,-1.43442e+09,291941,0.0287112,-0.0326903,0,0.0435085,9393.02,-50364.5,0,51232.9,291941
step02_gravity_refstate-mantle.xmf,880,3.09992e-06,-5.259e-06,0,7.38675e-07,-1.58638e+09,-1.5875e+09,-1.5868e+09,98723.9,0.0145699,-0.024559,0,0.0285557,4272.41,-55071.2,0,55236.7,98723.9
step02_gravity_refstate-mantle.xmf,881,1.80358e-06,-3.94301e-06,0,2.01343e-06,-1.45891e+09,-1.45968e+09,-1.45915e+09,269095,0.0269732,-0.0332009,0,0.0427768,8510.06,-51128.3,0,51831.7,269095
step02_gravity_refstate-mantle.xmf,882,2.14508e-06,-4.34249e-06,0,1.82518e-06,-1.47962e+09,-1.48049e+09,-1.47991e+09,243935,0.0249905,-0.0334211,0,0.0417312,7658,-51769.3,0,52332.7,243935
step02_gravity_refstate-mantle.xmf,883,2.90257e-06,-5.08736e-06,0,1.02696e-06,-1.55786e+09,-1.55893e+09,-1.55825e+09,137253,0.0177609,-0.0277382,0,0.0329372,5242.68,-54189.2,0,54442.3,137253
step02_gravity_refstate-mantle.xmf,884,2.66981e-06,-4.87805e-06,0,1.33667e-06,-1.52764e+09,-1.52865e+09,-1.528e+09,178647,0.0206128,-0.030664,0,0.0369482,6133.02,-53254.7,0,53606.7,178647
step02_gravity_refstate-mantle.xmf,885,2.47878e-06,-4.72715e-06,0,1.6074e-06,-1.4988e+09,-1.49976e+09,-1.49913e+09,214829,0.0225699,-0.0334563,0,0.0403574,6735.07,-52363,0,52794.3,214829
step02_gravity_refstate-mantle.xmf,886,3.15854e-06,-5.14321e-06,0,3.26357e-07,-1.65968e+09,-1.66079e+09,-1.6601e+09,43617.6,0.0118179,-0.0133933,0,0.0178618,3533.06,-57336,0,57444.8,43617.6
step02_gravity_refstate-mantle.xmf,887,3.28986e-06,-5.23308e-06,0,1.35919e-07,-1.69614e+09,-1.69728e+09,-1.69658e+09,18165.6,0.00801878,-0.00795017,0,0.0112919,2383.89,-58462.9,0,58511.5,18165.6
step02_gravity_refstate-mantle.xmf,888,3.34208e-06,-5.21726e-06,0,-5.04669e-09,-1.74589e+09,-1.74703e+09,-1.74634e+09,-674.491,0.00528842,1.09542e-19,0,0.00528842,1568.5,-60000,0,60020.5,674.491
step02_gravity_refstate-mantle.xmf,889,-7.80801e-07,-1.67201e-08,0,1.19284e-06,-1.36383e+09,-1.36372e+09,-1.36372e+09,159424,0.0292488,-0.00217086,0,0.0293292,18285.3,-48183.9,0,51536.8,159424
step02_gravity_refstate-mantle.xmf,890,-1.48095e-06,1.43191e-06,0,2.721e-07,-1.44353e+09,-1.44314e+09,-1.44333e+09,36366.2,0.019576,0.0150131,0,0.0246701,28058,-50644.8,0,57897.7,36366.2
step02_gravity_refstate-mantle.xmf,891,-1.54698e-06,1.55315e-06,0,2.15538e-07,-1.505e+09,-1.50458e+09,-1.50479e+09,28806.7,0.0196872,0.0126316,0,0.0233911,28535.6,-52543.5,0,59792.1,28806.7
step02_gravity_refstate-mantle.xmf,892,-1.6093e-06,1.68236e-06,0,1.54857e-07,-1.57081e+09,-1.57037e+09,-1.57059e+09,20696.6,0.0195137,0.00971736,0,0.0217993,29051.5,-54576.3,0,61826.9,20696.6
step02_gravity_refstate-mantle.xmf,893,-1.75612e-06,2.02119e-06,0,4.92618e-08,-1.67166e+09,-1.67115e+09,-1.67142e+09,6583.84,0.0162123,0.00479199,0,0.0169057,31325.9,-57691.4,0,65647.7,6583.84
step02_gravity_refstate-mantle.xmf,894,-1.81238e-06,2.22659e-06,0,4.75771e-10,-1.74639e+09,-1.74585e+09,-1.74615e+09,63.5867,0.0141555,-4.75727e-19,0,0.0141555,32535.6,-60000,0,68253.7,63.5867
step02_gravity_refstate-mantle.xmf,895,-8.51414e-09,-1.4827e-06,0,2.04278e-06,-1.36489e+09,-1.36509e+09,-1.36489e+09,273017,0.0314233,-0.0208739,0,0.0377246,13342.2,-48218.2,0,50030.1,273017
step02_gravity_refstate-mantle.xmf,896,3.37565e-07,-1.97364e-06,0,2.09732e-06,-1.39329e+09,-1.3936e+09,-1.39333e+09,280307,0.0314626,-0.023603,0,0.0393319,12372.2,-49096.4,0,50631.3,280307
step02_gravity_refstate-mantle.xmf,897,2.99776e-06,-5.00529e-06,0,5.42344e-07,-1.63083e+09,-1.6319e+09,-1.63123e+09,72484.2,0.0151258,-0.0172123,0,0.0229141,4560.76,-56444.1,0,56628.1,72484.2
step02_gravity_refstate-mantle.xmf,898,-1.38049e-06,1.23216e-06,0,3.70923e-07,-1.42732e+09,-1.42697e+09,-1.42714e+09,49573.8,0.0218866,0.0135463,0,0.0257396,26246.8,-50144.4,0,56598.2,49573.8
step02_gravity_refstate-mantle.xmf,899,-9.16652e-07,2.72993e-07,0,9.82081e-07,-1.3738e+09,-1.37364e+09,-1.37368e+09,131255,0.0282474,0.00210126,0,0.0283255,19755.2,-48491.9,0,52361.5,131255
step02_gravity_refstate-mantle.xmf,900,-1.27441e-06,1.01763e-06,0,4.89386e-07,-1.41325e+09,-1.41295e+09,-1.41308e+09,65406.5,0.0238965,0.0115037,0,0.0265213,24523.4,-49710,0,55429.9,65406.5
step02_gravity_refstate-mantle.xmf,901,-1.16166e-06,7.86859e-07,0,6.29444e-07,-1.39981e+09,-1.39955e+09,-1.39965e+09,84125.2,0.0256149,0.00892835,0,0.0271264,22873.1,-49294.9,0,54343,84125.2
step02_gravity_refstate-mantle.xmf,902,-1.04317e-06,5.40339e-07,0,7.93835e-07,-1.38544e+09,-1.38523e+09,-1.3853e+09,106096,0.027027,0.00583245,0,0.0276491,21289.8,-48851.2,0,53288.8,106096
step02_gravity_refstate-mantle.xmf,903,-2.30401e-07,-1.05648e-06,0,1.78203e-06,-1.37488e+09,-1.37499e+09,-1.37484e+09,238168,0.0313964,-0.0151407,0,0.0348565,14609.5,-48526.2,0,50677.7,238168
step02_gravity_refstate-mantle.xmf,904,-4.20683e-07,-6.80935e-07,0,1.53216e-06,-1.38578e+09,-1.38581e+09,-1.38572e+09,204773,0.0311457,-0.00999258,0,0.0327094,15893,-48862.6,0,51382.3,204773
step02_gravity_refstate-mantle.xmf,905,-5.94341e-07,-3.34207e-07,0,1.29573e-06,-1.39781e+09,-1.39777e+09,-1.39773e+09,173175,0.0306715,-0.00530255,0,0.0311264,17234.3,-49234,0,52163.3,173175
step02_gravity_refstate-mantle.xmf,906,-1.65634e-06,1.80533e-06,0,9.73995e-08,-1.63245e+09,-1.63199e+09,-1.63223e+09,13017.4,0.0190773,0.00664011,0,0.0201999,29559.6,-56480.4,0,63748,13017.4
step02_gravity_refstate-mantle.xmf,907,7.06852e-07,-2.46415e-06,0,2.08547e-06,-1.42063e+09,-1.42105e+09,-1.42072e+09,278723,0.030973,-0.0256417,0,0.0402097,11438.1,-49942.2,0,51235.3,278723
step02_gravity_refstate-mantle.xmf,908,1.08284e-06,-2.93738e-06,0,2.00808e-06,-1.44745e+09,-1.44799e+09,-1.44759e+09,268380,0.0300136,-0.0269498,0,0.0403374,10533.4,-50772,0,51853.1,268380
step02_gravity_refstate-mantle.xmf,909,1.46118e-06,-3.3951e-06,0,1.87449e-06,-1.47388e+09,-1.47453e+09,-1.47408e+09,250526,0.0285955,-0.0276463,0,0.0397746,9616.27,-51589.8,0,52478.4,250526
step02_gravity_refstate-mantle.xmf,910,2.8037e-06,-4.82809e-06,0,7.94591e-07,-1.60088e+09,-1.6019e+09,-1.60126e+09,106197,0.0181614,-0.0207171,0,0.0275506,5530.6,-55518.2,0,55793,106197
step02_gravity_refstate-mantle.xmf,911,1.83689e-06,-3.83723e-06,0,1.69413e-06,-1.49968e+09,-1.50044e+09,-1.49993e+09,226421,0.0267062,-0.0278157,0,0.0385608,8657.53,-52388.2,0,53098.7,226421
step02_gravity_refstate-mantle.xmf,912,2.25547e-06,-4.31872e-06,0,1.44578e-06,-1.52755e+09,-1.52843e+09,-1.52785e+09,193228,0.0239149,-0.0275249,0,0.0364629,7471.57,-53250.7,0,53772.3,193228
step02_gravity_refstate-mantle.xmf,913,2.56703e-06,-4.61195e-06,0,1.09592e-06,-1.56655e+09,-1.56751e+09,-1.56689e+09,146470,0.0210458,-0.024256,0,0.0321135,6478.52,-54456.6,0,54840.6,146470
step02_gravity_refstate-mantle.xmf,914,2.96013e-06,-4.87323e-06,0,3.68718e-07,-1.66692e+09,-1.66797e+09,-1.66732e+09,49279.2,0.0151361,-0.0116567,0,0.0191044,4627.45,-57559,0,57744.7,49279.2
step02_gravity_refstate-mantle.xmf,915,3.02024e-06,-4.87279e-06,0,1.91268e-07,-1.70192e+09,-1.70298e+09,-1.70233e+09,25563,0.0138164,-0.00656557,0,0.015297,4223.11,-58640.6,0,58792.5,25563
step02_gravity_refstate-mantle.xmf,916,3.18682e-06,-5.01832e-06,0,-2.45524e-09,-1.74591e+09,-1.747e+09,-1.74633e+09,-328.142,0.0104054,7.80272e-20,0,0.0104054,3137.45,-60000,0,60082,328.142
step02_gravity_refstate-mantle.xmf,917,-7.61723e-07,-2.58601e-09,0,1.07645e-06,-1.40917e+09,-1.40907e+09,-1.40907e+09,143868,0.02991,-0.00103462,0,0.0299279,18665.9,-49584.6,0,52981.6,143868
step02_gravity_refstate-mantle.xmf,918,-1.43983e-06,1.33111e-06,0,3.1041e-07,-1.48473e+09,-1.48436e+09,-1.48454e+09,41486.4,0.0221392,0.0118371,0,0.025105,26717.6,-51917.5,0,58388.9,41486.4
step02_gravity_refstate-mantle.xmf,919,-1.48922e-06,1.45231e-06,0,2.31014e-07,-1.55074e+09,-1.55035e+09,-1.55054e+09,30875,0.0222888,0.00940553,0,0.024192,27145.2,-53956.7,0,60400.2,30875
step02_gravity_refstate-mantle.xmf,920,-1.53949e-06,1.58174e-06,0,1.42918e-07,-1.62617e+09,-1.62575e+09,-1.62597e+09,19101,0.0221745,0.00616916,0,0.0230166,27600.8,-56286.7,0,62689.7,19101
step02_gravity_refstate-mantle.xmf,921,-1.64176e-06,1.83652e-06,0,5.33993e-08,-1.69099e+09,-1.69053e+09,-1.69077e+09,7136.81,0.020154,0.00320747,0,0.0204076,29035,-58288.9,0,65120.1,7136.81
step02_gravity_refstate-mantle.xmf,922,-1.71287e-06,2.04318e-06,0,-3.83384e-11,-1.74638e+09,-1.74588e+09,-1.74615e+09,-5.12393,0.0181969,-3.20418e-19,0,0.0181969,30242,-60000,0,67190.6,5.12393
step02_gravity_refstate-mantle.xmf,923,4.16604e-07,-1.96542e-06,0,1.85876e-06,-1.43284e+09,-1.43315e+09,-1.43289e+09,248423,0.0316342,-0.0200999,0,0.0374797,12645.5,-50318.5,0,51883.2,248423
step02_gravity_refstate-mantle.xmf,924,7.94958e-08,-1.50523e-06,0,1.84386e-06,-1.40474e+09,-1.40496e+09,-1.40475e+09,246432,0.0317767,-0.0178923,0,0.0364676,13616.4,-49449.7,0,51290.2,246432
step02_gravity_refstate-mantle.xmf,925,2.75487e-06,-4.66307e-06,0,5.77465e-07,-1.63997e+09,-1.64096e+09,-1.64034e+09,77178.2,0.0182275,-0.0148424,0,0.0235061,5658.8,-56725.6,0,57007.2,77178.2
step02_gravity_refstate-mantle.xmf,926,-1.32009e-06,1.09705e-06,0,4.19561e-07,-1.46955e+09,-1.46923e+09,-1.46938e+09,56074.3,0.0243649,0.0102799,0,0.0264448,24937.1,-51449,0,57173.9,56074.3
step02_gravity_refstate-mantle.xmf,927,-9.16286e-07,3.03218e-07,0,8.78182e-07,-1.42191e+09,-1.42175e+09,-1.42179e+09,117369,0.0289044,0.00268689,0,0.0290291,20153.4,-49978,0,53888.4,117369
step02_gravity_refstate-mantle.xmf,928,-1.19278e-06,8.47275e-07,0,5.49703e-07,-1.45443e+09,-1.45416e+09,-1.45427e+09,73467.9,0.0262122,0.00825557,0,0.0274816,23264.3,-50982.1,0,56039.3,73467.9
step02_gravity_refstate-mantle.xmf,929,-1.0569e-06,5.82038e-07,0,7.01909e-07,-1.43825e+09,-1.43803e+09,-1.4381e+09,93810.2,0.0277087,0.00575029,0,0.0282991,21675.8,-50482.4,0,54939.1,93810.2
step02_gravity_refstate-mantle.xmf,930,-1.52067e-07,-1.08083e-06,0,1.60589e-06,-1.41636e+09,-1.41649e+09,-1.41634e+09,214627,0.0318238,-0.0127533,0,0.0342841,14880,-49808.2,0,51983.4,214627
step02_gravity_refstate-mantle.xmf,931,-3.63801e-07,-6.86458e-07,0,1.36725e-06,-1.42942e+09,-1.42946e+09,-1.42937e+09,182733,0.0316193,-0.00801083,0,0.0326183,16210,-50211.1,0,52762.8,182733
step02_gravity_refstate-mantle.xmf,932,-5.63556e-07,-3.13724e-07,0,1.14428e-06,-1.44213e+09,-1.44209e+09,-1.44205e+09,152934,0.0311299,-0.00375936,0,0.0313561,17609.2,-50603.2,0,53579.6,152934
step02_gravity_refstate-mantle.xmf,933,7.71544e-07,-2.42228e-06,0,1.81078e-06,-1.46104e+09,-1.46146e+09,-1.46114e+09,242011,0.0310169,-0.0215849,0,0.0377883,11704.8,-51190.9,0,52512,242011
step02_gravity_refstate-mantle.xmf,934,1.13e-06,-2.86518e-06,0,1.71126e-06,-1.48833e+09,-1.48887e+09,-1.48849e+09,228710,0.0299615,-0.0224478,0,0.0374379,10774.7,-52035.4,0,53139.2,228710
step02_gravity_refstate-mantle.xmf,935,1.49128e-06,-3.29595e-06,0,1.56274e-06,-1.5157e+09,-1.51634e+09,-1.5159e+09,208860,0.0284635,-0.0226872,0,0.0363989,9821.38,-52882,0,53786.2,208860
step02_gravity_refstate-mantle.xmf,936,2.495e-06,-4.39608e-06,0,8.32219e-07,-1.60913e+09,-1.61005e+09,-1.60946e+09,111226,0.0212836,-0.017918,0,0.0278217,6735.3,-55771.8,0,56177.1,111226
step02_gravity_refstate-mantle.xmf,937,1.86129e-06,-3.72525e-06,0,1.3667e-06,-1.5438e+09,-1.54454e+09,-1.54404e+09,182660,0.0264296,-0.022317,0,0.0345915,8785.66,-53751.3,0,54464.5,182660
step02_gravity_refstate-mantle.xmf,938,2.20103e-06,-4.09228e-06,0,1.10603e-06,-1.57624e+09,-1.57708e+09,-1.57653e+09,147820,0.0239953,-0.0205752,0,0.0316088,7757.93,-54754.7,0,55301.6,147820
step02_gravity_refstate-mantle.xmf,939,2.74564e-06,-4.5605e-06,0,3.53834e-07,-1.68044e+09,-1.68142e+09,-1.68081e+09,47289.9,0.0179921,-0.00908632,0,0.0201563,5647.75,-57976,0,58250.5,47289.9
step02_gravity_refstate-mantle.xmf,940,2.92957e-06,-4.68382e-06,0,-1.13412e-09,-1.74593e+09,-1.74695e+09,-1.74633e+09,-151.575,0.0152133,4.71131e-20,0,0.0152133,4710.75,-60000,0,60184.6,151.575
step02_gravity_refstate-mantle.xmf,941,-7.47844e-07,2.97953e-08,0,9.43641e-07,-1.45466e+09,-1.45456e+09,-1.45456e+09,126118,0.0303606,-8.03355e-05,0,0.0303607,19048.3,-50990.1,0,54431.9,126118
step02_gravity_refstate-mantle.xmf,942,-1.35739e-06,1.1844e-06,0,3.37648e-07,-1.52866e+09,-1.52832e+09,-1.52848e+09,45126.6,0.0246507,0.00865246,0,0.0261251,25318.9,-53274.7,0,58985.1,45126.6
step02_gravity_refstate-mantle.xmf,943,-1.38404e-06,1.28944e-06,0,2.39296e-07,-1.5913e+09,-1.59094e+09,-1.59111e+09,31981.9,0.0248226,0.00654531,0,0.0256711,25629.1,-55209.8,0,60868.5,31981.9
step02_gravity_refstate-mantle.xmf,944,-1.49196e-06,1.57533e-06,0,7.36496e-08,-1.69252e+09,-1.69211e+09,-1.69232e+09,9843.27,0.0235567,0.00267937,0,0.0237086,26865.1,-58336.5,0,64225.2,9843.27
step02_gravity_refstate-mantle.xmf,945,-1.58026e-06,1.80673e-06,0,-6.58288e-10,-1.74637e+09,-1.74592e+09,-1.74616e+09,-87.9802,0.0218287,-2.70434e-19,0,0.0218287,28035.6,-60000,0,66226.9,87.9802
step02_gravity_refstate-mantle.xmf,946,4.85083e-07,-1.93944e-06,0,1.596e-06,-1.47618e+09,-1.4765e+09,-1.47624e+09,213305,0.0317346,-0.01655,0,0.0357909,12917.4,-51657.9,0,53248.5,213305
step02_gravity_refstate-mantle.xmf,947,1.52783e-07,-1.50284e-06,0,1.62245e-06,-1.44665e+09,-1.44687e+09,-1.44667e+09,216840,0.0320177,-0.0149128,0,0.0353203,13900.9,-50744.8,0,52614.3,216840
step02_gravity_refstate-mantle.xmf,948,2.46374e-06,-4.2507e-06,0,5.73876e-07,-1.651e+09,-1.6519e+09,-1.65133e+09,76698.5,0.0212715,-0.0121887,0,0.0245162,6850.75,-57065.6,0,57475.3,76698.5
step02_gravity_refstate-mantle.xmf,949,2.76161e-06,-4.51532e-06,0,1.49419e-07,-1.71714e+09,-1.71811e+09,-1.71751e+09,19969.9,0.0175823,-0.00398993,0,0.0180293,5535.45,-59109.9,0,59368.5,19969.9
step02_gravity_refstate-mantle.xmf,950,-1.20975e-06,9.06202e-07,0,4.56717e-07,-1.51249e+09,-1.51221e+09,-1.51233e+09,61040.3,0.0267113,0.00711776,0,0.0276434,23557.6,-52775.7,0,57794.7,61040.3
step02_gravity_refstate-mantle.xmf,951,-9.11817e-07,3.39294e-07,0,7.58266e-07,-1.47231e+09,-1.47214e+09,-1.47218e+09,101342,0.029397,0.00297029,0,0.0295467,20516.4,-51534.8,0,55468.5,101342
step02_gravity_refstate-mantle.xmf,952,-1.05843e-06,6.21566e-07,0,5.91492e-07,-1.49778e+09,-1.49755e+09,-1.49763e+09,79052.9,0.028328,0.00515339,0,0.0287929,21959.5,-52321.3,0,56742.8,79052.9
step02_gravity_refstate-mantle.xmf,953,-9.17172e-08,-1.07187e-06,0,1.40106e-06,-1.46019e+09,-1.46032e+09,-1.46017e+09,187251,0.0321215,-0.0102878,0,0.0337287,15189.7,-51162.3,0,53369.5,187251
step02_gravity_refstate-mantle.xmf,954,-3.25767e-07,-6.58134e-07,0,1.18067e-06,-1.47389e+09,-1.47394e+09,-1.47385e+09,157796,0.0319327,-0.00606982,0,0.0325045,16564.9,-51585.3,0,54179.7,157796
step02_gravity_refstate-mantle.xmf,955,-5.48605e-07,-2.62788e-07,0,9.7484e-07,-1.48704e+09,-1.487e+09,-1.48696e+09,130287,0.0314148,-0.00233446,0,0.0315014,18020.9,-51990.8,0,55025.4,130287
step02_gravity_refstate-mantle.xmf,956,-1.40123e-06,1.37042e-06,0,1.53193e-07,-1.64724e+09,-1.64687e+09,-1.64706e+09,20474.3,0.0249156,0.00437037,0,0.025296,25810.7,-56938,0,62515,20474.3
step02_gravity_refstate-mantle.xmf,957,8.22924e-07,-2.36795e-06,0,1.52888e-06,-1.50333e+09,-1.50376e+09,-1.50344e+09,204335,0.0310169,-0.0176615,0,0.0356928,11953.4,-52498,0,53841.6,204335
step02_gravity_refstate-mantle.xmf,958,1.15764e-06,-2.77663e-06,0,1.41755e-06,-1.53006e+09,-1.53059e+09,-1.53022e+09,189455,0.0299204,-0.0181194,0,0.0349792,11014.3,-53324.8,0,54450.4,189455
step02_gravity_refstate-mantle.xmf,959,1.49179e-06,-3.16674e-06,0,1.25162e-06,-1.55901e+09,-1.55963e+09,-1.55921e+09,167279,0.028437,-0.0177381,0,0.0335157,10069.6,-54220.1,0,55147.2,167279
step02_gravity_refstate-mantle.xmf,960,2.15862e-06,-3.91674e-06,0,8.11455e-07,-1.62034e+09,-1.62116e+09,-1.62063e+09,108451,0.0240897,-0.0147575,0,0.0282506,7979.29,-56117.3,0,56681.8,108451
step02_gravity_refstate-mantle.xmf,961,1.83241e-06,-3.55518e-06,0,1.04608e-06,-1.58917e+09,-1.58989e+09,-1.58941e+09,139808,0.0264771,-0.0166637,0,0.0312844,9047.62,-55153.1,0,55890.3,139808
step02_gravity_refstate-mantle.xmf,962,2.42743e-06,-4.09625e-06,0,2.68988e-07,-1.70149e+09,-1.70236e+09,-1.70181e+09,35950.3,0.021429,-0.00557439,0,0.0221422,7004.08,-58625.2,0,59042.1,35950.3
step02_gravity_refstate-mantle.xmf,963,2.59405e-06,-4.24171e-06,0,-1.34108e-09,-1.74597e+09,-1.74688e+09,-1.74632e+09,-179.235,0.0195873,6.76064e-20,0,0.0195873,6293.86,-60000,0,60329.2,179.235
step02_gravity_refstate-mantle.xmf,964,-7.29157e-07,5.91904e-08,0,8.16793e-07,-1.4961e+09,-1.49599e+09,-1.496e+09,109164,0.0306765,0.000456487,0,0.0306799,19322.4,-52270.3,0,55727.3,109164
step02_gravity_refstate-mantle.xmf,965,-1.22505e-06,9.80362e-07,0,3.50092e-07,-1.57079e+09,-1.5705e+09,-1.57063e+09,46789.8,0.0269817,0.00574678,0,0.0275869,23842.8,-54576.6,0,59557.4,46789.8
step02_gravity_refstate-mantle.xmf,966,-1.24309e-06,1.08654e-06,0,2.28225e-07,-1.63007e+09,-1.62976e+09,-1.62991e+09,30502.3,0.0270467,0.00409961,0,0.0273556,24131.7,-56407.9,0,61353,30502.3
step02_gravity_refstate-mantle.xmf,967,-1.28464e-06,1.22125e-06,0,1.04476e-07,-1.69214e+09,-1.6918e+09,-1.69197e+09,13963.2,0.026724,0.00210885,0,0.0268071,24584.5,-58325.2,0,63294.8,13963.2
step02_gravity_refstate-mantle.xmf,968,-1.41283e-06,1.51858e-06,0,-1.17513e-09,-1.74636e+09,-1.74597e+09,-1.74617e+09,-157.057,0.0250073,-2.17933e-19,0,0.0250073,25910.4,-60000,0,65355.6,157.057
step02_gravity_refstate-mantle.xmf,969,5.5244e-07,-1.91605e-06,0,1.3245e-06,-1.52184e+09,-1.52217e+09,-1.52191e+09,177020,0.0317522,-0.0132462,0,0.0344044,13121.4,-53069,0,54667,177020
step02_gravity_refstate-mantle.xmf,970,2.13831e-07,-1.48145e-06,0,1.3809e-06,-1.49136e+09,-1.49159e+09,-1.49139e+09,184557,0.0321743,-0.0119973,0,0.0343383,14178.2,-52126.4,0,54020.2,184557
step02_gravity_refstate-mantle.xmf,971,2.11506e-06,-3.75708e-06,0,5.28746e-07,-1.66373e+09,-1.66451e+09,-1.66401e+09,70666.9,0.0242682,-0.00937522,0,0.0260162,8189.06,-57457.6,0,58038.2,70666.9
step02_gravity_refstate-mantle.xmf,972,-1.04514e-06,6.53895e-07,0,4.76451e-07,-1.55339e+09,-1.55316e+09,-1.55325e+09,63677.6,0.0287848,0.00427543,0,0.0291006,22112.2,-54039.4,0,58388.4,63677.6
step02_gravity_refstate-mantle.xmf,973,-8.30832e-07,2.71017e-07,0,6.50137e-07,-1.53242e+09,-1.53227e+09,-1.53231e+09,86890.8,0.0302806,0.00202774,0,0.0303485,20305.4,-53392.1,0,57122.9,86890.8
step02_gravity_refstate-mantle.xmf,974,-5.15781e-08,-1.03159e-06,0,1.17664e-06,-1.50587e+09,-1.506e+09,-1.50587e+09,157258,0.03232,-0.00789148,0,0.0332694,15522.9,-52573.9,0,54817.7,157258
step02_gravity_refstate-mantle.xmf,975,-3.15704e-07,-5.86103e-07,0,9.74612e-07,-1.51972e+09,-1.51975e+09,-1.51967e+09,130257,0.0321163,-0.00417486,0,0.0323865,16990.7,-53000.9,0,55657.8,130257
step02_gravity_refstate-mantle.xmf,976,-5.7208e-07,-1.5397e-07,0,7.91699e-07,-1.5314e+09,-1.53134e+09,-1.53132e+09,105811,0.031495,-0.000936889,0,0.0315089,18564.2,-53361.2,0,56498.2,105811
step02_gravity_refstate-mantle.xmf,977,8.70871e-07,-2.33153e-06,0,1.29369e-06,-1.53971e+09,-1.54014e+09,-1.53983e+09,172902,0.0309622,-0.0146287,0,0.034244,12100.6,-53622.1,0,54970.5,172902
step02_gravity_refstate-mantle.xmf,978,1.1337e-06,-2.62438e-06,0,1.11925e-06,-1.57308e+09,-1.57358e+09,-1.57323e+09,149588,0.0300443,-0.0137021,0,0.0330213,11370.4,-54653.9,0,55824.1,149588
step02_gravity_refstate-mantle.xmf,979,1.44532e-06,-2.9857e-06,0,9.40516e-07,-1.6036e+09,-1.6042e+09,-1.6038e+09,125700,0.0286389,-0.0127922,0,0.031366,10432,-55597.8,0,56568.1,125700
step02_gravity_refstate-mantle.xmf,980,1.79627e-06,-3.39742e-06,0,7.48833e-07,-1.6328e+09,-1.6335e+09,-1.63304e+09,100082,0.0266071,-0.0115922,0,0.0290227,9295.11,-56501.1,0,57260.6,100082
step02_gravity_refstate-mantle.xmf,981,1.98832e-06,-3.50115e-06,0,2.49674e-07,-1.70739e+09,-1.70812e+09,-1.70765e+09,33368.9,0.025163,-0.00414233,0,0.0255017,8701.82,-58806,0,59446.3,33368.9
step02_gravity_refstate-mantle.xmf,982,2.20393e-06,-3.72487e-06,0,4.00432e-10,-1.74601e+09,-1.7468e+09,-1.74631e+09,53.5177,0.0234221,4.37492e-20,0,0.0234221,7892.26,-60000,0,60516.8,53.5177
step02_gravity_refstate-mantle.xmf,983,-1.04677e-06,7.25713e-07,0,3.37872e-07,-1.61159e+09,-1.61135e+09,-1.61145e+09,45156.6,0.0289844,0.00328282,0,0.0291697,22345.1,-55837.3,0,60142.4,45156.6
step02_gravity_refstate-mantle.xmf,984,-1.06533e-06,8.40577e-07,0,1.93537e-07,-1.66711e+09,-1.66686e+09,-1.66697e+09,25866.2,0.0289386,0.00214951,0,0.0290183,22637,-57552.6,0,61844.4,25866.2
step02_gravity_refstate-mantle.xmf,985,-1.20645e-06,1.17654e-06,0,-7.82961e-10,-1.74634e+09,-1.74603e+09,-1.74618e+09,-104.643,0.0276892,-9.75125e-20,0,0.0276892,23860.6,-60000,0,64570.3,104.643
step02_gravity_refstate-mantle.xmf,986,6.69856e-07,-1.97189e-06,0,1.05217e-06,-1.57025e+09,-1.57061e+09,-1.57034e+09,140622,0.0315662,-0.0105137,0,0.033271,13043.4,-54565.1,0,56102.4,140622
step02_gravity_refstate-mantle.xmf,987,2.5838e-07,-1.43863e-06,0,1.12442e-06,-1.53813e+09,-1.53836e+09,-1.53817e+09,150279,0.0322693,-0.00921041,0,0.033558,14445.8,-53571.4,0,55484.9,150279
step02_gravity_refstate-mantle.xmf,988,1.77005e-06,-3.27501e-06,0,4.81711e-07,-1.67256e+09,-1.67324e+09,-1.6728e+09,64380.7,0.0267134,-0.00730989,0,0.0276955,9467.8,-57729.4,0,58500.7,64380.7
step02_gravity_refstate-mantle.xmf,989,-8.28946e-07,3.49539e-07,0,4.64118e-07,-1.59443e+09,-1.59427e+09,-1.59432e+09,62029.4,0.0304741,0.00189604,0,0.030533,20645.3,-55307.8,0,59035.4,62029.4
step02_gravity_refstate-mantle.xmf,990,-5.85854e-07,-5.62843e-08,0,6.01216e-07,-1.58123e+09,-1.58116e+09,-1.58115e+09,80352.5,0.0315634,-7.87336e-05,0,0.0315635,18999.6,-54900.5,0,58095.2,80352.5
step02_gravity_refstate-mantle.xmf,991,-3.43703e-08,-9.59497e-07,0,9.39953e-07,-1.55292e+09,-1.55304e+09,-1.55291e+09,125625,0.0324462,-0.00565783,0,0.0329358,15878.2,-54027.5,0,56312.4,125625
step02_gravity_refstate-mantle.xmf,992,-3.17043e-07,-4.98347e-07,0,7.62669e-07,-1.56717e+09,-1.5672e+09,-1.56713e+09,101931,0.0322236,-0.0026163,0,0.0323297,17393.2,-54467.1,0,57176.8,101931
step02_gravity_refstate-mantle.xmf,993,-1.08665e-06,9.39269e-07,0,7.43882e-08,-1.71483e+09,-1.71456e+09,-1.71468e+09,9941.98,0.0288013,0.000930047,0,0.0288163,22870.6,-59026.6,0,63302.5,9941.98
step02_gravity_refstate-mantle.xmf,994,1.02089e-06,-2.37189e-06,0,8.38457e-07,-1.61318e+09,-1.61363e+09,-1.61331e+09,112060,0.0305001,-0.00951046,0,0.0319485,11982.2,-55892.3,0,57162.3,112060
step02_gravity_refstate-mantle.xmf,995,1.37956e-06,-2.77854e-06,0,5.94537e-07,-1.65468e+09,-1.65524e+09,-1.65486e+09,79459.8,0.0289389,-0.00769377,0,0.0299442,10833.2,-57175.7,0,58192.9,79459.8
step02_gravity_refstate-mantle.xmf,996,1.54786e-06,-2.91212e-06,0,2.72927e-07,-1.70422e+09,-1.70482e+09,-1.70443e+09,36476.7,0.028031,-0.00372615,0,0.0282776,10319.8,-58706.9,0,59607,36476.7
step02_gravity_refstate-mantle.xmf,997,1.77378e-06,-3.14852e-06,0,1.082e-09,-1.74606e+09,-1.74671e+09,-1.74629e+09,144.61,0.0266426,3.62825e-20,0,0.0266426,9511.38,-60000,0,60749.2,144.61
step02_gravity_refstate-mantle.xmf,998,-8.28424e-07,4.28044e-07,0,2.95266e-07,-1.65037e+09,-1.6502e+09,-1.65026e+09,39462.3,0.0305705,0.0014145,0,0.0306032,20851.9,-57036.1,0,60728.2,39462.3
step02_gravity_refstate-mantle.xmf,999,-8.5427e-07,5.52827e-07,0,1.27912e-07,-1.70321e+09,-1.70302e+09,-1.7031e+09,17095.5,0.0304662,0.000765249,0,0.0304759,21139.5,-58668.4,0,62360.7,17095.5
step02_gravity_refstate-mantle.xmf,1000,-9.56257e-07,7.7437e-07,0,-1.77842e-09,-1.74632e+09,-1.74609e+09,-1.7462e+09,-237.686,0.0298326,-8.39869e-20,0,0.0298326,21880.6,-60000,0,63865.2,237.686
step02_gravity_refstate-mantle.xmf,1001,2.83347e-07,-1.37265e-06,0,8.60898e-07,-1.58613e+09,-1.58635e+09,-1.58617e+09,115059,0.0323288,-0.00661663,0,0.0329989,14703.4,-55054.5,0,56984.1,115059
step02_gravity_refstate-mantle.xmf,1002,-5.84361e-07,1.98276e-08,0,4.12818e-07,-1.63287e+09,-1.63279e+09,-1.6328e+09,55173.1,0.0316377,0.0002453,0,0.0316386,19256.2,-56496.1,0,59687.6,55173.1
step02_gravity_refstate-mantle.xmf,1003,-3.26199e-07,-4.00719e-07,0,5.49203e-07,-1.61588e+09,-1.61589e+09,-1.61583e+09,73401,0.0322759,-0.00144265,0,0.0323081,17743.1,-55971.7,0,58716.7,73401
step02_gravity_refstate-mantle.xmf,1004,-3.40841e-08,-8.65229e-07,0,6.95926e-07,-1.60158e+09,-1.60169e+09,-1.60157e+09,93010.5,0.0325232,-0.00370166,0,0.0327332,16223.1,-55530.8,0,57852,93010.5
step02_gravity_refstate-mantle.xmf,1005,6.0785e-07,-1.77312e-06,0,7.36269e-07,-1.61993e+09,-1.62025e+09,-1.62001e+09,98402.3,0.0317767,-0.00673451,0,0.0324825,13574.6,-56099.8,0,57718.8,98402.3
step02_gravity_refstate-mantle.xmf,1006,8.90832e-07,-2.09541e-06,0,5.42766e-07,-1.65752e+09,-1.65792e+09,-1.65764e+09,72540.7,0.030981,-0.00561336,0,0.0314854,12639.5,-57261.8,0,58640.2,72540.7
step02_gravity_refstate-mantle.xmf,1007,1.11886e-06,-2.32981e-06,0,2.8249e-07,-1.70122e+09,-1.70168e+09,-1.70137e+09,37754.8,0.0301293,-0.00319117,0,0.0302978,11889,-58612.8,0,59806.4,37754.8
step02_gravity_refstate-mantle.xmf,1008,1.32576e-06,-2.53999e-06,0,1.75165e-09,-1.7461e+09,-1.74662e+09,-1.74628e+09,234.109,0.0291926,3.08556e-20,0,0.0291926,11156.7,-60000,0,61028.4,234.109
step02_gravity_refstate-mantle.xmf,1009,-5.51934e-07,5.93239e-08,0,2.04793e-07,-1.69176e+09,-1.69167e+09,-1.69168e+09,27370.6,0.0318004,0.000150774,0,0.0318008,19216,-58315.3,0,61399.8,27370.6
step02_gravity_refstate-mantle.xmf,1010,-6.66468e-07,3.22025e-07,0,-2.46086e-09,-1.7463e+09,-1.74617e+09,-1.74621e+09,-328.893,0.0313911,-2.86357e-20,0,0.0313911,19964.7,-60000,0,63234.4,328.893
step02_gravity_refstate-mantle.xmf,1011,2.60677e-07,-1.24201e-06,0,5.86702e-07,-1.63515e+09,-1.63535e+09,-1.63518e+09,78412.7,0.032408,-0.00410757,0,0.0326672,15072.5,-56568.8,0,58542.4,78412.7
step02_gravity_refstate-mantle.xmf,1012,-3.40106e-07,-3.07572e-07,0,3.62344e-07,-1.65883e+09,-1.65882e+09,-1.65878e+09,48427.2,0.0322859,-0.000718768,0,0.0322939,18001.1,-57298.6,0,60059.7,48427.2
step02_gravity_refstate-mantle.xmf,1013,-5.76856e-08,-7.38128e-07,0,4.45725e-07,-1.65194e+09,-1.65203e+09,-1.65193e+09,59571.1,0.0325618,-0.00202844,0,0.0326249,16584.5,-57086.5,0,59446.7,59571.1
step02_gravity_refstate-mantle.xmf,1014,5.38784e-07,-1.58839e-06,0,4.87769e-07,-1.66062e+09,-1.6609e+09,-1.66069e+09,65190.3,0.0319703,-0.00408658,0,0.0322304,14032.9,-57356.5,0,59048.2,65190.3
step02_gravity_refstate-mantle.xmf,1015,6.78659e-07,-1.71689e-06,0,2.68018e-07,-1.70035e+09,-1.70067e+09,-1.70044e+09,35820.6,0.0316361,-0.00239282,0,0.0317264,13564,-58584.3,0,60134,35820.6
step02_gravity_refstate-mantle.xmf,1016,8.77499e-07,-1.92131e-06,0,2.01202e-09,-1.74615e+09,-1.74652e+09,-1.74627e+09,268.907,0.0310398,2.02544e-20,0,0.0310398,12833.5,-60000,0,61357.1,268.907
step02_gravity_refstate-mantle.xmf,1017,-1.62592e-07,-5.03418e-07,0,2.01148e-07,-1.7017e+09,-1.70174e+09,-1.70167e+09,26883.4,0.0325303,-0.000658362,0,0.0325369,17205.5,-58623.5,0,61096.2,26883.4
step02_gravity_refstate-mantle.xmf,1018,-3.36188e-07,-1.77839e-07,0,-1.56858e-09,-1.74627e+09,-1.74625e+09,-1.74622e+09,-209.641,0.0323222,5.01235e-20,0,0.0323222,18107.5,-60000,0,62672.8,209.641
step02_gravity_refstate-mantle.xmf,1019,2.53494e-07,-1.11863e-06,0,2.87345e-07,-1.69125e+09,-1.69144e+09,-1.69129e+09,38403.6,0.0324524,-0.00184509,0,0.0325048,15319.1,-58302.2,0,60281.2,38403.6
step02_gravity_refstate-mantle.xmf,1020,4.44255e-07,-1.31228e-06,0,2.95932e-09,-1.74619e+09,-1.74643e+09,-1.74625e+09,395.513,0.032171,1.01809e-20,0,0.032171,14547.3,-60000,0,61738.4,395.513
step02_gravity_refstate-mantle.xmf,1021,3.70185e-08,-7.26535e-07,0,-3.1435e-09,-1.74623e+09,-1.74633e+09,-1.74624e+09,-420.129,0.0325936,1.59609e-19,0,0.0325936,16303.5,-60000,0,62175.6,420.129
step02_gravity_refstate-intrusion.xmf,0,-7.52973e-06,2.10998e-05,0,-1.42494e-05,-8.23985e+08,-8.21255e+08,-8.23267e+08,-1.35882e+06,0.022316,-0.254959,0,0.255934,-2000,-30000,-0,30066.6,1.35882e+06
step02_gravity_refstate-intrusion.xmf,1,-1.02366e-05,2.27107e-05,0,-9.24576e-06,-8.24305e+08,-8.21163e+08,-8.23329e+08,-881675,0.0181047,-0.271206,0,0.27181,-1499.28,-30000,-0,30037.4,881675
step02_gravity_refstate-intrusion.xmf,2,-6.76584e-06,1.71164e-05,0,-1.57832e-05,-8.3788e+08,-8.35603e+08,-8.37235e+08,-1.50509e+06,0.0182244,-0.26459,0,0.265217,-2000,-30501.8,-0,30567.3,1.50509e+06
step02_gravity_refstate-intrusion.xmf,3,-4.52608e-06,1.07245e-05,0,-1.77493e-05,-8.6538e+08,-8.63926e+08,-8.64948e+08,-1.69258e+06,0.0115796,-0.278447,0,0.278687,-2000,-31502.2,-0,31565.6,1.69258e+06
step02_gravity_refstate-intrusion.xmf,4,-5.70478e-06,1.39315e-05,0,-1.68872e-05,-8.51631e+08,-8.49758e+08,-8.51087e+08,-1.61036e+06,0.01479,-0.272325,0,0.272726,-2000,-31001.7,-0,31066.2,1.61036e+06
step02_gravity_refstate-intrusion.xmf,5,-3.32518e-06,7.60951e-06,0,-1.84126e-05,-8.7911e+08,-8.78068e+08,-8.78793e+08,-1.75582e+06,0.00850953,-0.282997,0,0.283125,-2000,-32002.2,-0,32064.7,1.75582e+06
step02_gravity_refstate-intrusion.xmf,6,-1.18743e-05,2.46302e-05,0,-6.03404e-06,-8.24445e+08,-8.20964e+08,-8.23313e+08,-575406,0.0125748,-0.282137,0,0.282417,-999.317,-30000,-0,30016.6,575406
step02_gravity_refstate-intrusion.xmf,7,-2.1243e-06,4.57973e-06,0,-1.88821e-05,-8.92819e+08,-8.9218e+08,-8.92616e+08,-1.8006e+06,0.00554066,-0.28602,0,0.286074,-2000,-32501.7,-0,32563.2,1.8006e+06
step02_gravity_refstate-intrusion.xmf,8,-1.27247e-05,2.56953e-05,0,-3.00178e-06,-8.24514e+08,-8.20851e+08,-8.23301e+08,-286249,0.00642896,-0.288583,0,0.288654,-499.831,-30000,-0,30004.2,286249
step02_gravity_refstate-intrusion.xmf,9,-9.46825e-07,1.57386e-06,0,-1.92164e-05,-9.06521e+08,-9.06281e+08,-9.06431e+08,-1.83248e+06,0.00264661,-0.287547,0,0.287559,-2000,-33000.8,-0,33061.4,1.83248e+06
step02_gravity_refstate-intrusion.xmf,10,-1.29929e-05,2.60292e-05,0,-2.23218e-08,-8.24536e+08,-8.20815e+08,-8.23297e+08,-2128.61,-4.21579e-07,-0.290721,-0,0.290721,-2.07592e-10,-30000,-0,30000,2128.61
step02_gravity_refstate-intrusion.xmf,11,2.56194e-07,-1.34529e-06,0,-1.93679e-05,-9.20229e+08,-9.20382e+08,-9.20254e+08,-1.84692e+06,-0.000194311,-0.287599,-0,0.287599,-2000,-33500.5,-0,33560.1,1.84692e+06
step02_gravity_refstate-intrusion.xmf,12,-1.27265e-05,2.56671e-05,0,2.94348e-06,-8.24516e+08,-8.20855e+08,-8.23303e+08,280690,-0.00643006,-0.288583,-0,0.288654,499.831,-30000,0,30004.2,280690
step02_gravity_refstate-intrusion.xmf,13,1.43213e-06,-4.29058e-06,0,-1.9417e-05,-9.3396e+08,-9.34506e+08,-9.34097e+08,-1.85161e+06,-0.00299495,-0.286181,-0,0.286197,-2000,-34000.8,-0,34059.6,1.85161e+06
step02_gravity_refstate-intrusion.xmf,14,-1.1687e-05,2.4586e-05,0,6.01124e-06,-8.24419e+08,-8.2096e+08,-8.23305e+08,573232,-0.0125754,-0.282136,-0,0.282416,999.317,-30000,0,30016.6,573232
step02_gravity_refstate-intrusion.xmf,15,2.58183e-06,-7.23302e-06,0,-1.93462e-05,-9.47694e+08,-9.4863e+08,-9.4794e+08,-1.84485e+06,-0.00576065,-0.283298,-0,0.283357,-2000,-34501.1,-0,34559,1.84485e+06
step02_gravity_refstate-intrusion.xmf,16,-1.02839e-05,2.22167e-05,0,8.70699e-06,-8.24341e+08,-8.21241e+08,-8.2336e+08,830299,-0.0181031,-0.271204,-0,0.271808,1499.28,-30000,0,30037.4,830299
step02_gravity_refstate-intrusion.xmf,17,3.71655e-06,-1.01638e-05,0,-1.91414e-05,-9.61413e+08,-9.62737e+08,-9.61768e+08,-1.82532e+06,-0.00849582,-0.278954,-0,0.279084,-2000,-35000.7,-0,35057.8,1.82532e+06
step02_gravity_refstate-intrusion.xmf,18,-7.52397e-06,2.09888e-05,0,1.43942e-05,-8.2399e+08,-8.21271e+08,-8.23273e+08,1.37263e+06,-0.0222834,-0.254962,-0,0.255934,2000,-30000,0,30066.6,1.37263e+06
step02_gravity_refstate-intrusion.xmf,19,4.82556e-06,-1.31125e-05,0,-1.88073e-05,-9.75122e+08,-9.76833e+08,-9.75582e+08,-1.79347e+06,-0.0112071,-0.273147,-0,0.273377,-2000,-35499.9,-0,35556.2,1.79347e+06
step02_gravity_refstate-intrusion.xmf,20,-6.76919e-06,1.71003e-05,0,1.5786e-05,-8.37881e+08,-8.35605e+08,-8.37236e+08,1.50535e+06,-0.0182234,-0.264595,-0,0.265222,2000,-30501.8,0,30567.3,1.50535e+06
step02_gravity_refstate-intrusion.xmf,21,-5.72176e-06,1.3809e-05,0,1.6942e-05,-8.51641e+08,-8.49778e+08,-8.51095e+08,1.61559e+06,-0.0147894,-0.272327,-0,0.272729,2000,-31001.7,0,31066.2,1.61559e+06
step02_gravity_refstate-intrusion.xmf,22,5.90361e-06,-1.61007e-05,0,-1.83316e-05,-9.88848e+08,-9.90946e+08,-9.89411e+08,-1.7481e+06,-0.0139069,-0.265854,-0,0.266217,-2000,-35999.3,-0,36054.8,1.7481e+06
step02_gravity_refstate-intrusion.xmf,23,-4.53187e-06,1.06301e-05,0,1.77971e-05,-8.65386e+08,-8.6394e+08,-8.64954e+08,1.69713e+06,-0.0115783,-0.278447,-0,0.278688,2000,-31502.2,0,31565.6,1.69713e+06
step02_gravity_refstate-intrusion.xmf,24,-3.33438e-06,7.55417e-06,0,1.84403e-05,-8.79115e+08,-8.78077e+08,-8.78797e+08,1.75847e+06,-0.00850862,-0.282997,-0,0.283125,2000,-32002.2,0,32064.7,1.75847e+06
step02_gravity_refstate-intrusion.xmf,25,6.93344e-06,-1.91436e-05,0,-1.76959e-05,-1.0026e+09,-1.00509e+09,-1.00326e+09,-1.68748e+06,-0.0166072,-0.257045,-0,0.257581,-2000,-36499.4,-0,36554.2,1.68748e+06
step02_gravity_refstate-intrusion.xmf,26,-2.13885e-06,4.54913e-06,0,1.88979e-05,-8.92823e+08,-8.92185e+08,-8.92619e+08,1.8021e+06,-0.00554042,-0.28602,-0,0.286074,2000,-32501.7,0,32563.2,1.8021e+06
step02_gravity_refstate-intrusion.xmf,27,-9.43369e-07,1.5755e-06,0,1.92083e-05,-9.0652e+08,-9.0628e+08,-9.0643e+08,1.8317e+06,-0.00264592,-0.287547,-0,0.287559,2000,-33000.8,0,33061.4,1.8317e+06
step02_gravity_refstate-intrusion.xmf,28,7.87565e-06,-2.22672e-05,0,-1.68845e-05,-1.01638e+09,-1.01925e+09,-1.01713e+09,-1.61011e+06,-0.0193297,-0.246691,-0,0.247447,-2000,-36999.8,-0,37053.8,1.61011e+06
step02_gravity_refstate-intrusion.xmf,29,1.41485e-06,-4.29814e-06,0,1.94267e-05,-9.33963e+08,-9.34508e+08,-9.34098e+08,1.85253e+06,0.00299563,-0.286181,0,0.286196,2000,-34000.8,0,34059.6,1.85253e+06
step02_gravity_refstate-intrusion.xmf,30,2.78736e-07,-1.36958e-06,0,1.93796e-05,-9.20227e+08,-9.20384e+08,-9.20254e+08,1.84804e+06,0.000194895,-0.287598,0,0.287598,2000,-33500.5,0,33560.1,1.84804e+06
step02_gravity_refstate-intrusion.xmf,31,2.57756e-06,-7.23489e-06,0,1.93432e-05,-9.47695e+08,-9.48631e+08,-9.47941e+08,1.84457e+06,0.00576063,-0.283298,0,0.283357,2000,-34501.1,0,34559,1.84457e+06
step02_gravity_refstate-intrusion.xmf,32,8.61103e-06,-2.56544e-05,0,-1.60181e-05,-1.03019e+09,-1.03346e+09,-1.03101e+09,-1.52748e+06,-0.0221429,-0.234764,-0,0.235806,-2000,-37499.7,-0,37553,1.52748e+06
step02_gravity_refstate-intrusion.xmf,33,3.71258e-06,-1.01604e-05,0,1.91422e-05,-9.61414e+08,-9.62737e+08,-9.61768e+08,1.8254e+06,0.00849488,-0.278954,0,0.279083,2000,-35000.7,0,35057.8,1.8254e+06
step02_gravity_refstate-intrusion.xmf,34,4.829e-06,-1.31126e-05,0,1.88034e-05,-9.75122e+08,-9.76833e+08,-9.75582e+08,1.79309e+06,0.0112069,-0.273148,0,0.273378,2000,-35499.9,0,35556.2,1.79309e+06
step02_gravity_refstate-intrusion.xmf,35,7.70028e-06,-2.78317e-05,0,-1.46561e-05,-1.0442e+09,-1.04759e+09,-1.04493e+09,-1.39761e+06,-0.0255162,-0.221022,-0,0.22249,-2000,-38000,-0,38052.6,1.39761e+06
step02_gravity_refstate-intrusion.xmf,36,5.90663e-06,-1.6095e-05,0,1.83331e-05,-9.88847e+08,-9.90945e+08,-9.8941e+08,1.74824e+06,0.0139077,-0.265854,0,0.266217,2000,-35999.3,0,36054.8,1.74824e+06
step02_gravity_refstate-intrusion.xmf,37,1.17404e-05,-3.07718e-05,0,-9.14412e-06,-1.04375e+09,-1.0478e+09,-1.04487e+09,-871983,-0.020556,-0.236808,-0,0.237699,-1499.83,-38000,-0,38029.6,871983
step02_gravity_refstate-intrusion.xmf,38,1.34895e-05,-3.30292e-05,0,-5.90284e-06,-1.04361e+09,-1.04805e+09,-1.0449e+09,-562895,-0.0142448,-0.247097,-0,0.247507,-1000,-38000,-0,38013.2,562895
step02_gravity_refstate-intrusion.xmf,39,1.44067e-05,-3.43428e-05,0,-2.91507e-06,-1.04355e+09,-1.04819e+09,-1.04492e+09,-277981,-0.00727469,-0.253111,-0,0.253215,-500.172,-38000,-0,38003.3,277981
step02_gravity_refstate-intrusion.xmf,40,1.46977e-05,-3.47509e-05,0,-2.18821e-08,-1.04353e+09,-1.04824e+09,-1.04493e+09,-2086.68,-5.93348e-07,-0.255094,-0,0.255094,0,-38000,0,38000,2086.68
step02_gravity_refstate-intrusion.xmf,41,6.93287e-06,-1.91354e-05,0,1.7703e-05,-1.0026e+09,-1.00509e+09,-1.00326e+09,1.68816e+06,0.0166085,-0.257044,0,0.25758,2000,-36499.4,0,36554.2,1.68816e+06
step02_gravity_refstate-intrusion.xmf,42,1.44129e-05,-3.431e-05,0,2.86835e-06,-1.04354e+09,-1.04819e+09,-1.04492e+09,273526,0.0072723,-0.25311,0,0.253214,500.172,-38000,0,38003.3,273526
step02_gravity_refstate-intrusion.xmf,43,7.87134e-06,-2.22605e-05,0,1.6893e-05,-1.01638e+09,-1.01925e+09,-1.01713e+09,1.61092e+06,0.0193308,-0.246691,0,0.247447,2000,-36999.8,0,37053.8,1.61092e+06
step02_gravity_refstate-intrusion.xmf,44,1.35087e-05,-3.29523e-05,0,5.78963e-06,-1.0436e+09,-1.04803e+09,-1.04489e+09,552099,0.0142468,-0.247097,0,0.247507,1000,-38000,0,38013.2,552099
step02_gravity_refstate-intrusion.xmf,45,8.61253e-06,-2.5648e-05,0,1.60254e-05,-1.03019e+09,-1.03346e+09,-1.03101e+09,1.52818e+06,0.0221428,-0.234764,0,0.235806,2000,-37499.7,0,37553,1.52818e+06
step02_gravity_refstate-intrusion.xmf,46,1.2078e-05,-3.0229e-05,0,8.50826e-06,-1.04367e+09,-1.0477e+09,-1.04482e+09,811348,0.0205608,-0.236801,0,0.237691,1499.83,-38000,0,38029.6,811348
step02_gravity_refstate-intrusion.xmf,47,7.7156e-06,-2.77932e-05,0,1.47505e-05,-1.04419e+09,-1.04758e+09,-1.04493e+09,1.40661e+06,0.0255109,-0.221008,0,0.222476,2000,-38000,0,38052.6,1.40661e+06
step02_gravity_refstate-intrusion.xmf,48,-7.98113e-06,1.90985e-05,0,-1.20551e-05,-8.34164e+08,-8.31582e+08,-8.33403e+08,-1.14958e+06,0.0165341,-0.274801,0,0.275298,-1636.38,-30363.9,-0,30408,1.14958e+06
step02_gravity_refstate-intrusion.xmf,49,-9.23188e-06,2.02468e-05,0,-8.84978e-06,-8.35321e+08,-8.3251e+08,-8.34441e+08,-843915,0.0129699,-0.286042,0,0.286336,-1249.3,-30401.5,-0,30427.2,843915
step02_gravity_refstate-intrusion.xmf,50,-7.34515e-06,1.69525e-05,0,-1.25225e-05,-8.43861e+08,-8.41544e+08,-8.43161e+08,-1.19415e+06,0.0138396,-0.282924,0,0.283262,-1579.07,-30716,-0,30756.6,1.19415e+06
step02_gravity_refstate-intrusion.xmf,51,-4.5072e-06,9.89655e-06,0,-1.40275e-05,-8.72476e+08,-8.71102e+08,-8.72046e+08,-1.33767e+06,0.00820856,-0.296928,0,0.297041,-1577.41,-31758.9,-0,31798,1.33767e+06
step02_gravity_refstate-intrusion.xmf,52,-6.22324e-06,1.37801e-05,0,-1.23092e-05,-8.57439e+08,-8.55532e+08,-8.56846e+08,-1.1738e+06,0.0103772,-0.293946,0,0.294129,-1466.13,-31210,-0,31244.4,1.1738e+06
step02_gravity_refstate-intrusion.xmf,53,-3.08112e-06,6.48889e-06,0,-1.46524e-05,-8.86655e+08,-8.85742e+08,-8.86361e+08,-1.39725e+06,0.00570469,-0.300589,0,0.300644,-1593.77,-32275.9,-0,32315.2,1.39725e+06
step02_gravity_refstate-intrusion.xmf,54,-1.03121e-05,2.13712e-05,0,-5.10493e-06,-8.36018e+08,-8.32997e+08,-8.35034e+08,-486806,0.007886,-0.295877,0,0.295982,-739.405,-30423.2,-0,30432.2,486806
step02_gravity_refstate-intrusion.xmf,55,-8.24686e-06,1.76189e-05,0,-8.11132e-06,-8.46302e+08,-8.43835e+08,-8.45515e+08,-773495,0.00929098,-0.297957,0,0.298102,-1050.12,-30801.3,-0,30819.2,773495
step02_gravity_refstate-intrusion.xmf,56,-1.66192e-06,3.11018e-06,0,-1.49603e-05,-9.01169e+08,-9.00713e+08,-9.0101e+08,-1.42661e+06,0.00314864,-0.303193,0,0.303209,-1591.41,-32805.2,-0,32843.8,1.42661e+06
step02_gravity_refstate-intrusion.xmf,57,-4.12108e-06,8.55005e-06,0,-1.06765e-05,-8.80077e+08,-8.78869e+08,-8.79684e+08,-1.01811e+06,0.00531873,-0.310678,0,0.310723,-1193.27,-32035,-0,32057.2,1.01811e+06
step02_gravity_refstate-intrusion.xmf,58,-5.50776e-06,1.17274e-05,0,-1.03045e-05,-8.67413e+08,-8.6577e+08,-8.66888e+08,-982635,0.00712876,-0.306004,0,0.306088,-1193.2,-31572.8,-0,31595.4,982635
step02_gravity_refstate-intrusion.xmf,59,-1.08041e-05,2.19193e-05,0,-1.71506e-06,-8.36323e+08,-8.33202e+08,-8.35292e+08,-163548,0.00270007,-0.300516,0,0.300528,-249.916,-30432.7,-0,30433.7,163548
step02_gravity_refstate-intrusion.xmf,60,-2.52976e-07,-2.9837e-07,0,-1.52096e-05,-9.1594e+08,-9.15944e+08,-9.15915e+08,-1.45039e+06,0.000620576,-0.303835,0,0.303835,-1594.48,-33343.7,-0,33381.8,1.45039e+06
step02_gravity_refstate-intrusion.xmf,61,-2.53383e-06,4.89744e-06,0,-1.09183e-05,-8.94911e+08,-8.94203e+08,-8.9467e+08,-1.04117e+06,0.00326571,-0.314491,0,0.314508,-1185.71,-32576.2,-0,32597.8,1.04117e+06
step02_gravity_refstate-intrusion.xmf,62,-6.89138e-06,1.44912e-05,0,-7.29006e-06,-8.58705e+08,-8.56665e+08,-8.58047e+08,-695180,0.00639005,-0.308343,0,0.308409,-886.275,-31253.8,-0,31266.4,695180
step02_gravity_refstate-intrusion.xmf,63,-5.2664e-06,1.08275e-05,0,-6.90912e-06,-8.72791e+08,-8.71256e+08,-8.72289e+08,-658854,0.00433304,-0.316376,0,0.316405,-796.266,-31768.1,-0,31778.1,658854
step02_gravity_refstate-intrusion.xmf,64,-8.62088e-06,1.76813e-05,0,-3.51255e-06,-8.49031e+08,-8.46522e+08,-8.48208e+08,-334957,0.00393981,-0.308387,0,0.308413,-451.938,-30898.7,-0,30902,334957
step02_gravity_refstate-intrusion.xmf,65,-1.08277e-05,2.19394e-05,0,1.71232e-06,-8.36065e+08,-8.32941e+08,-8.35033e+08,163287,-0.00281055,-0.300266,-0,0.300279,259.15,-30423.3,0,30424.4,163287
step02_gravity_refstate-intrusion.xmf,66,-8.56959e-07,1.03219e-06,0,-1.0972e-05,-9.10942e+08,-9.10762e+08,-9.1086e+08,-1.04629e+06,0.00113686,-0.316625,0,0.316627,-1169.52,-33161.1,-0,33181.8,1.04629e+06
step02_gravity_refstate-intrusion.xmf,67,-3.5685e-06,7.03881e-06,0,-7.07056e-06,-8.87447e+08,-8.86436e+08,-8.87107e+08,-674249,0.0028942,-0.32131,0,0.321323,-785.34,-32303.2,-0,32312.8,674249
step02_gravity_refstate-intrusion.xmf,68,-9.3655e-06,1.90301e-05,0,-4.95442e-08,-8.45389e+08,-8.42682e+08,-8.44496e+08,-4724.54,-7.61913e-07,-0.307885,-0,0.307885,0.0331425,-30764.8,0,30764.8,4724.54
step02_gravity_refstate-intrusion.xmf,69,1.10598e-06,-3.48195e-06,0,-1.56502e-05,-9.30113e+08,-9.3055e+08,-9.30218e+08,-1.4924e+06,-0.00180834,-0.301476,-0,0.301482,-1633.15,-33860.6,-0,33900,1.4924e+06
step02_gravity_refstate-intrusion.xmf,70,7.491e-07,-2.71357e-06,0,-1.11058e-05,-9.26641e+08,-9.26971e+08,-9.26713e+08,-1.05905e+06,-0.000861446,-0.316057,-0,0.316058,-1172.79,-33733.8,-0,33754.2,1.05905e+06
step02_gravity_refstate-intrusion.xmf,71,-1.80854e-06,3.08166e-06,0,-7.20906e-06,-9.03166e+08,-9.027e+08,-9.02994e+08,-687456,0.00146698,-0.324267,0,0.32427,-780.936,-32877,-0,32886.3,687456
step02_gravity_refstate-intrusion.xmf,72,-6.50404e-06,1.33148e-05,0,-3.13688e-06,-8.64789e+08,-8.62899e+08,-8.64169e+08,-299133,0.00245933,-0.317922,0,0.317932,-375.79,-31475.1,-0,31477.3,299133
step02_gravity_refstate-intrusion.xmf,73,-4.6232e-06,9.22041e-06,0,-2.94426e-06,-8.79917e+08,-8.78597e+08,-8.79477e+08,-280764,0.00155522,-0.324406,0,0.32441,-334.969,-32027.8,-0,32029.5,280764
step02_gravity_refstate-intrusion.xmf,74,-7.60697e-06,1.54571e-05,0,4.73699e-07,-8.5724e+08,-8.55041e+08,-8.56515e+08,45172,-0.000483024,-0.315331,-0,0.315332,63.5697,-31198.6,0,31198.6,45172
step02_gravity_refstate-intrusion.xmf,75,-8.70081e-06,1.78382e-05,0,3.53804e-06,-8.48435e+08,-8.45904e+08,-8.47605e+08,337388,-0.00414499,-0.307827,-0,0.307855,470.944,-30876.9,0,30880.5,337388
step02_gravity_refstate-intrusion.xmf,76,-1.02383e-05,2.1165e-05,0,5.08968e-06,-8.36275e+08,-8.33281e+08,-8.35299e+08,485352,-0.00796114,-0.295936,-0,0.296043,749.574,-30432.6,0,30441.8,485352
step02_gravity_refstate-intrusion.xmf,77,2.13486e-06,-6.00194e-06,0,-1.64756e-05,-9.41411e+08,-9.42187e+08,-9.41614e+08,-1.57112e+06,-0.00390615,-0.296429,-0,0.296455,-1716.75,-34272.4,-0,34315.4,1.57112e+06
step02_gravity_refstate-intrusion.xmf,78,-6.66072e-08,-8.59419e-07,0,-7.41099e-06,-9.19129e+08,-9.19204e+08,-9.19122e+08,-706712,7.61586e-05,-0.324716,0,0.324716,-791.856,-33459.6,-0,33469,706712
step02_gravity_refstate-intrusion.xmf,79,-2.77728e-06,5.14873e-06,0,-3.00155e-06,-8.95527e+08,-8.94771e+08,-8.95262e+08,-286228,0.000921963,-0.328504,0,0.328505,-330.488,-32597.8,-0,32599.5,286228
step02_gravity_refstate-intrusion.xmf,80,3.26411e-06,-8.77776e-06,0,-1.56348e-05,-9.53491e+08,-9.54639e+08,-9.53802e+08,-1.49094e+06,-0.00579496,-0.295864,-0,0.29592,-1644.02,-34712.7,-0,34751.6,1.49094e+06
step02_gravity_refstate-intrusion.xmf,81,2.36183e-06,-6.50189e-06,0,-1.24607e-05,-9.42979e+08,-9.43824e+08,-9.43204e+08,-1.18825e+06,-0.00324903,-0.309424,-0,0.309441,-1315.32,-34329.7,-0,34354.9,1.18825e+06
step02_gravity_refstate-intrusion.xmf,82,1.63566e-06,-4.76146e-06,0,-7.56908e-06,-9.35142e+08,-9.35752e+08,-9.35298e+08,-721787,-0.00133256,-0.322831,-0,0.322834,-805.646,-34044,-0,34053.5,721787
step02_gravity_refstate-intrusion.xmf,83,-9.68791e-07,1.12266e-06,0,-3.15526e-06,-9.11382e+08,-9.11183e+08,-9.1129e+08,-300886,0.000332747,-0.330227,0,0.330227,-340.732,-33176.7,-0,33178.5,300886
step02_gravity_refstate-intrusion.xmf,84,-5.61664e-06,1.13505e-05,0,1.15205e-06,-8.72202e+08,-8.70584e+08,-8.71666e+08,109860,-0.000753401,-0.322503,-0,0.322504,134.399,-31745.8,0,31746.1,109860
step02_gravity_refstate-intrusion.xmf,85,-3.70751e-06,7.18169e-06,0,1.31317e-06,-8.87799e+08,-8.86761e+08,-8.87446e+08,125224,-0.000543905,-0.327707,-0,0.327708,146.848,-32315.6,0,32315.9,125224
step02_gravity_refstate-intrusion.xmf,86,-8.95468e-06,1.99823e-05,0,9.02698e-06,-8.35954e+08,-8.33194e+08,-8.351e+08,860813,-0.0129105,-0.286322,-0,0.286613,1257.89,-30425.5,0,30451.5,860813
step02_gravity_refstate-intrusion.xmf,87,-6.51245e-06,1.34006e-05,0,5.02663e-06,-8.63554e+08,-8.61655e+08,-8.62933e+08,479339,-0.00401836,-0.315058,-0,0.315084,603.769,-31430.2,0,31436,479339
step02_gravity_refstate-intrusion.xmf,88,-7.51899e-06,1.61434e-05,0,8.52569e-06,-8.51564e+08,-8.49308e+08,-8.50847e+08,813010,-0.00867092,-0.300738,-0,0.300863,1072.35,-30993.8,0,31012.4,813010
step02_gravity_refstate-intrusion.xmf,89,7.94699e-07,-2.84105e-06,0,-3.23176e-06,-9.27248e+08,-9.27595e+08,-9.27324e+08,-308181,-0.000274137,-0.329682,-0,0.329683,-346.141,-33755.9,-0,33757.7,308181
step02_gravity_refstate-intrusion.xmf,90,-1.8583e-06,3.0913e-06,0,1.28676e-06,-9.03665e+08,-9.03193e+08,-9.03488e+08,122706,-0.000260679,-0.330679,-0,0.330679,140.333,-32894.9,0,32895.2,122706
step02_gravity_refstate-intrusion.xmf,91,-7.88521e-06,1.88757e-05,0,1.21121e-05,-8.34162e+08,-8.3161e+08,-8.3341e+08,1.15501e+06,-0.0165331,-0.2748,-0,0.275297,1636.38,-30363.9,0,30408,1.15501e+06
step02_gravity_refstate-intrusion.xmf,92,4.57774e-06,-1.20432e-05,0,-1.50704e-05,-9.679e+08,-9.69485e+08,-9.68336e+08,-1.43711e+06,-0.0080618,-0.291591,-0,0.291702,-1610.46,-35237.8,-0,35274.5,1.43711e+06
step02_gravity_refstate-intrusion.xmf,93,4.04861e-06,-1.0511e-05,0,-1.14523e-05,-9.59671e+08,-9.6106e+08,-9.60057e+08,-1.0921e+06,-0.00519157,-0.306721,-0,0.306765,-1226,-34938.4,-0,34959.9,1.0921e+06
step02_gravity_refstate-intrusion.xmf,94,3.34321e-06,-8.702e-06,0,-7.52918e-06,-9.51402e+08,-9.5255e+08,-9.51721e+08,-717982,-0.0027504,-0.318801,-0,0.318812,-807.698,-34637.2,-0,34646.6,717982
step02_gravity_refstate-intrusion.xmf,95,2.5347e-06,-6.78255e-06,0,-3.23666e-06,-9.43185e+08,-9.44074e+08,-9.43427e+08,-308648,-0.00088269,-0.326871,-0,0.326872,-347.769,-34337.6,-0,34339.4,308648
step02_gravity_refstate-intrusion.xmf,96,-7.9689e-08,-8.7885e-07,0,1.30415e-06,-9.19403e+08,-9.1948e+08,-9.19396e+08,124364,-1.12589e-05,-0.331303,-0,0.331303,140.35,-33469.5,0,33469.8,124364
step02_gravity_refstate-intrusion.xmf,97,-4.53077e-06,9.11379e-06,0,5.51667e-06,-8.79815e+08,-8.78513e+08,-8.79383e+08,526069,-0.00288695,-0.321457,-0,0.32147,625.173,-32024.3,0,32030.4,526069
step02_gravity_refstate-intrusion.xmf,98,-2.66472e-06,4.9581e-06,0,5.61323e-06,-8.95929e+08,-8.95202e+08,-8.95675e+08,535278,-0.00167595,-0.325689,-0,0.325693,615.946,-32612.7,0,32618.5,535278
step02_gravity_refstate-intrusion.xmf,99,-7.16808e-06,1.66047e-05,0,1.27042e-05,-8.45137e+08,-8.4287e+08,-8.44454e+08,1.21147e+06,-0.0136463,-0.28335,-0,0.283679,1590.46,-30762.8,0,30803.8,1.21147e+06
step02_gravity_refstate-intrusion.xmf,100,-5.11578e-06,1.07441e-05,0,1.01738e-05,-8.7135e+08,-8.69838e+08,-8.70862e+08,970171,-0.0064238,-0.308271,-0,0.308338,1166.49,-31716.3,0,31737.7,970171
step02_gravity_refstate-intrusion.xmf,101,5.5676e-06,-1.41882e-05,0,-1.09081e-05,-9.75098e+08,-9.76982e+08,-9.75629e+08,-1.04019e+06,-0.00699575,-0.300609,-0,0.30069,-1194.16,-35500.9,-0,35520.9,1.04019e+06
step02_gravity_refstate-intrusion.xmf,102,1.65591e-06,-4.79191e-06,0,1.3138e-06,-9.35078e+08,-9.35693e+08,-9.35236e+08,125284,0.000233185,-0.329678,0,0.329678,140.96,-34041.7,0,34042,125284
step02_gravity_refstate-intrusion.xmf,103,-8.90329e-07,9.79664e-07,0,5.77393e-06,-9.11784e+08,-9.11605e+08,-9.11699e+08,550602,-0.000572199,-0.327314,-0,0.327315,621.803,-33191.5,0,33197.3,550602
step02_gravity_refstate-intrusion.xmf,104,-5.81619e-06,1.31023e-05,0,1.33848e-05,-8.59589e+08,-8.57785e+08,-8.59034e+08,1.27637e+06,-0.0106003,-0.291763,-0,0.291955,1571.04,-31289.1,0,31328.5,1.27637e+06
step02_gravity_refstate-intrusion.xmf,105,5.88467e-06,-1.5387e-05,0,-1.45853e-05,-9.82349e+08,-9.84378e+08,-9.8291e+08,-1.39086e+06,-0.0103568,-0.284828,-0,0.285016,-1597.1,-35764.1,-0,35799.8,1.39086e+06
step02_gravity_refstate-intrusion.xmf,106,5.02098e-06,-1.26581e-05,0,-7.12064e-06,-9.67323e+08,-9.69009e+08,-9.67802e+08,-679024,-0.00397217,-0.31313,-0,0.313155,-777.101,-35218,-0,35226.5,679024
step02_gravity_refstate-intrusion.xmf,107,4.27395e-06,-1.07739e-05,0,-3.08625e-06,-9.59263e+08,-9.60698e+08,-9.59671e+08,-294304,-0.00143997,-0.321805,-0,0.321808,-336.284,-34924.3,-0,34925.9,294304
step02_gravity_refstate-intrusion.xmf,108,3.39975e-06,-8.7349e-06,0,1.4206e-06,-9.50984e+08,-9.52141e+08,-9.51308e+08,135469,0.000515413,-0.325718,0,0.325719,152.043,-34622.2,0,34622.6,135469
step02_gravity_refstate-intrusion.xmf,109,7.98968e-07,-2.84109e-06,0,5.88498e-06,-9.27243e+08,-9.2759e+08,-9.2732e+08,561192,0.000498712,-0.326688,0,0.326689,628.782,-33755.8,0,33761.6,561192
step02_gravity_refstate-intrusion.xmf,110,-3.37296e-06,6.72281e-06,0,9.64009e-06,-8.87807e+08,-8.86845e+08,-8.87486e+08,919279,-0.00382668,-0.315889,-0,0.315912,1065.39,-32316.8,0,32334.3,919279
step02_gravity_refstate-intrusion.xmf,111,-1.57359e-06,2.64529e-06,0,1.00761e-05,-9.04401e+08,-9.03999e+08,-9.04251e+08,960857,-0.00184933,-0.318286,-0,0.318292,1083.9,-32922.4,0,32940.2,960857
step02_gravity_refstate-intrusion.xmf,112,-4.44954e-06,9.84642e-06,0,1.4816e-05,-8.72074e+08,-8.70711e+08,-8.7165e+08,1.41286e+06,-0.00865453,-0.293953,-0,0.294081,1660.73,-31744.5,0,31787.9,1.41286e+06
step02_gravity_refstate-intrusion.xmf,113,7.05278e-06,-1.79149e-05,0,-1.04338e-05,-9.90326e+08,-9.92707e+08,-9.90998e+08,-994970,-0.00881157,-0.292046,-0,0.292179,-1180.24,-36055.8,-0,36075.1,994970
step02_gravity_refstate-intrusion.xmf,114,6.63738e-06,-1.65167e-05,0,-6.86354e-06,-9.82958e+08,-9.85166e+08,-9.83591e+08,-654507,-0.0052396,-0.304909,-0,0.304954,-771.907,-35788.1,-0,35796.4,654507
step02_gravity_refstate-intrusion.xmf,115,2.44185e-06,-6.59767e-06,0,5.92165e-06,-9.42548e+08,-9.4341e+08,-9.42781e+08,564688,0.00155977,-0.323986,0,0.32399,633.732,-34314.3,0,34320.1,564688
step02_gravity_refstate-intrusion.xmf,116,4.47472e-08,-1.06789e-06,0,1.03578e-05,-9.19797e+08,-9.19903e+08,-9.19801e+08,987720,-1.00188e-05,-0.318335,-0,0.318335,1100.13,-33484.2,0,33502.2,987720
step02_gravity_refstate-intrusion.xmf,117,-3.2908e-06,6.92515e-06,0,1.43235e-05,-8.84923e+08,-8.83949e+08,-8.84609e+08,1.36589e+06,-0.00592361,-0.301104,-0,0.301162,1566.11,-32212.6,0,32250.7,1.36589e+06
step02_gravity_refstate-intrusion.xmf,118,7.16617e-06,-1.88147e-05,0,-1.40122e-05,-9.96895e+08,-9.99373e+08,-9.97578e+08,-1.3362e+06,-0.0126708,-0.276064,-0,0.276354,-1588.31,-36293.7,-0,36328.4,1.3362e+06
step02_gravity_refstate-intrusion.xmf,119,6.00108e-06,-1.48574e-05,0,-2.87065e-06,-9.75234e+08,-9.77223e+08,-9.75806e+08,-273745,-0.00191945,-0.314474,-0,0.31448,-319.338,-35506.8,-0,35508.3,273745
step02_gravity_refstate-intrusion.xmf,120,5.14623e-06,-1.27644e-05,0,1.47659e-06,-9.6708e+08,-9.68788e+08,-9.67571e+08,140808,0.00082267,-0.319378,0,0.319379,160.219,-35209.6,0,35209.9,140808
step02_gravity_refstate-intrusion.xmf,121,4.16609e-06,-1.05421e-05,0,6.12337e-06,-9.5868e+08,-9.60083e+08,-9.59077e+08,583924,0.00277183,-0.318575,0,0.318588,660.18,-34902.9,0,34909.2,583924
step02_gravity_refstate-intrusion.xmf,122,1.5668e-06,-4.59618e-06,0,1.04619e-05,-9.34589e+08,-9.35177e+08,-9.34739e+08,997644,0.0017595,-0.31662,0,0.316625,1107.8,-34023.8,0,34041.8,997644
step02_gravity_refstate-intrusion.xmf,123,-5.5211e-07,4.44994e-07,0,1.47245e-05,-9.12792e+08,-9.12696e+08,-9.12739e+08,1.40413e+06,-0.00113234,-0.305304,-0,0.305306,1551.74,-33228.9,0,33265.2,1.40413e+06
step02_gravity_refstate-intrusion.xmf,124,-1.98223e-06,3.81866e-06,0,1.44313e-05,-8.98211e+08,-8.97658e+08,-8.98022e+08,1.37616e+06,-0.00357069,-0.304421,-0,0.304442,1544.52,-32697.2,0,32733.7,1.37616e+06
step02_gravity_refstate-intrusion.xmf,125,8.54889e-06,-2.18604e-05,0,-9.82752e-06,-1.00606e+09,-1.00896e+09,-1.00688e+09,-937152,-0.0107138,-0.280918,-0,0.281122,-1169.03,-36628.7,-0,36647.4,937152
step02_gravity_refstate-intrusion.xmf,126,8.27258e-06,-2.05435e-05,0,-6.46682e-06,-9.98621e+08,-1.00137e+09,-9.9941e+08,-616676,-0.00646861,-0.2945,-0,0.294571,-760.955,-36359,-0,36367,616676
step02_gravity_refstate-intrusion.xmf,127,7.71194e-06,-1.88691e-05,0,-2.67289e-06,-9.90979e+08,-9.93514e+08,-9.91715e+08,-254887,-0.00240832,-0.304857,-0,0.304867,-311.318,-36081.2,-0,36082.6,254887
step02_gravity_refstate-intrusion.xmf,128,2.99646e-06,-7.9524e-06,0,1.03884e-05,-9.48678e+08,-9.49722e+08,-9.48963e+08,990636,0.00341731,-0.313446,0,0.313465,1105.9,-34537.7,0,34555.4,990636
step02_gravity_refstate-intrusion.xmf,129,8.28188e-07,-2.8384e-06,0,1.48811e-05,-9.27166e+08,-9.27515e+08,-9.27245e+08,1.41906e+06,0.00124232,-0.304473,0,0.304475,1557.61,-33753.1,0,33789,1.41906e+06
step02_gravity_refstate-intrusion.xmf,130,8.36301e-06,-2.22998e-05,0,-1.33119e-05,-1.01141e+09,-1.01433e+09,-1.01221e+09,-1.26943e+06,-0.0150056,-0.265451,-0,0.265875,-1580.91,-36821.4,-0,36855.4,1.26943e+06
step02_gravity_refstate-intrusion.xmf,131,6.891e-06,-1.69448e-05,0,1.50874e-06,-9.83194e+08,-9.85467e+08,-9.83851e+08,143874,0.00117745,-0.310631,0,0.310633,171.004,-35797.2,0,35797.6,143874
step02_gravity_refstate-intrusion.xmf,132,5.88472e-06,-1.45871e-05,0,5.89016e-06,-9.74957e+08,-9.76909e+08,-9.75518e+08,561686,0.00386301,-0.311263,0,0.311287,649.553,-35496.7,0,35502.6,561686
step02_gravity_refstate-intrusion.xmf,133,4.81649e-06,-1.23494e-05,0,1.09879e-05,-9.67136e+08,-9.68773e+08,-9.67595e+08,1.04781e+06,0.00596783,-0.304613,0,0.304672,1187.8,-35210.6,0,35230.7,1.04781e+06
step02_gravity_refstate-intrusion.xmf,134,2.16195e-06,-6.04706e-06,0,1.48669e-05,-9.41283e+08,-9.42066e+08,-9.41489e+08,1.41771e+06,0.00354329,-0.30218,0,0.302201,1557.81,-34267.8,0,34303.2,1.41771e+06
step02_gravity_refstate-intrusion.xmf,135,9.96477e-06,-2.57351e-05,0,-9.03234e-06,-1.02115e+09,-1.02455e+09,-1.0221e+09,-861324,-0.0127141,-0.267919,-0,0.26822,-1166.06,-37177.8,-0,37196,861324
step02_gravity_refstate-intrusion.xmf,136,9.97645e-06,-2.47762e-05,0,-6.25894e-06,-1.01472e+09,-1.01803e+09,-1.01567e+09,-596852,-0.00824589,-0.280656,-0,0.280777,-796.94,-36945.7,-0,36954.3,596852
step02_gravity_refstate-intrusion.xmf,137,9.47184e-06,-2.30854e-05,0,-2.68541e-06,-1.00662e+09,-1.00973e+09,-1.00753e+09,-256080,-0.00318054,-0.292747,-0,0.292764,-334.168,-36651.8,-0,36653.3,256080
step02_gravity_refstate-intrusion.xmf,138,8.67845e-06,-2.10952e-05,0,1.40029e-06,-9.99148e+08,-1.00199e+09,-9.99976e+08,133532,0.00140881,-0.299609,0,0.299612,162.597,-36379.3,0,36379.7,133532
step02_gravity_refstate-intrusion.xmf,139,3.49705e-06,-9.29609e-06,0,1.4917e-05,-9.55619e+08,-9.56839e+08,-9.55953e+08,1.42248e+06,0.00591569,-0.297566,0,0.297625,1575.57,-34790.4,0,34826,1.42248e+06
step02_gravity_refstate-intrusion.xmf,140,9.13015e-06,-2.52315e-05,0,-1.27817e-05,-1.02406e+09,-1.02733e+09,-1.02493e+09,-1.21886e+06,-0.0173752,-0.25391,-0,0.254504,-1601.55,-37280.1,-0,37314.5,1.21886e+06
step02_gravity_refstate-intrusion.xmf,141,7.60056e-06,-1.88135e-05,0,5.59951e-06,-9.91269e+08,-9.93788e+08,-9.91994e+08,533969,0.00497267,-0.301422,0,0.301463,644.486,-36091.3,0,36097,533969
step02_gravity_refstate-intrusion.xmf,142,6.50229e-06,-1.63073e-05,0,9.7995e-06,-9.83324e+08,-9.85499e+08,-9.83944e+08,934480,0.00734896,-0.298571,0,0.298661,1088.21,-35801.1,0,35817.6,934480
step02_gravity_refstate-intrusion.xmf,143,4.55908e-06,-1.20249e-05,0,1.5593e-05,-9.67955e+08,-9.69536e+08,-9.6839e+08,1.48695e+06,0.00830684,-0.28974,0,0.289859,1662.31,-35239.7,0,35278.9,1.48695e+06
step02_gravity_refstate-intrusion.xmf,144,1.07568e-05,-2.84637e-05,0,-8.91256e-06,-1.03272e+09,-1.03646e+09,-1.03375e+09,-849902,-0.0156346,-0.254196,-0,0.254676,-1270.26,-37598,-0,37619.4,849902
step02_gravity_refstate-intrusion.xmf,145,1.17678e-05,-2.91463e-05,0,-5.26917e-06,-1.02947e+09,-1.03338e+09,-1.0306e+09,-502468,-0.0093478,-0.266688,-0,0.266852,-760.495,-37483.8,-0,37491.5,502468
step02_gravity_refstate-intrusion.xmf,146,1.10088e-05,-2.67432e-05,0,-2.95844e-06,-1.01961e+09,-1.02321e+09,-1.02065e+09,-282117,-0.00440919,-0.280516,-0,0.28055,-397.07,-37125.3,-0,37127.4,282117
step02_gravity_refstate-intrusion.xmf,147,1.07857e-05,-2.59625e-05,0,8.43404e-07,-1.01636e+09,-1.01986e+09,-1.01739e+09,80427,0.00116446,-0.284982,0,0.284984,108.371,-37007.5,0,37007.7,80427
step02_gravity_refstate-intrusion.xmf,148,9.40957e-06,-2.30467e-05,0,5.11368e-06,-1.00741e+09,-1.0105e+09,-1.00831e+09,487640,0.00593563,-0.289409,0,0.28947,622.003,-36680.1,0,36685.4,487640
step02_gravity_refstate-intrusion.xmf,149,5.77949e-06,-1.51051e-05,0,1.43929e-05,-9.80752e+08,-9.82744e+08,-9.81304e+08,1.37251e+06,0.00995764,-0.286524,0,0.286697,1572.88,-35706,0,35740.6,1.37251e+06
step02_gravity_refstate-intrusion.xmf,150,9.4594e-06,-2.70916e-05,0,-1.20881e-05,-1.0339e+09,-1.03739e+09,-1.0348e+09,-1.15272e+06,-0.019624,-0.2435,-0,0.244289,-1636.51,-37636.5,-0,37672,1.15272e+06
step02_gravity_refstate-intrusion.xmf,151,1.27281e-05,-3.04062e-05,0,-1.33312e-06,-1.03088e+09,-1.03499e+09,-1.0321e+09,-127126,-0.00256866,-0.269789,-0,0.269801,-202.117,-37537.8,-0,37538.3,127126
step02_gravity_refstate-intrusion.xmf,152,8.14766e-06,-2.06314e-05,0,9.34861e-06,-1.0004e+09,-1.00314e+09,-1.00118e+09,891484,0.00938955,-0.286971,0,0.287124,1094.47,-36422.9,0,36439.3,891484
step02_gravity_refstate-intrusion.xmf,153,7.01634e-06,-1.81905e-05,0,1.38722e-05,-9.94004e+08,-9.96408e+08,-9.94673e+08,1.32285e+06,0.0119873,-0.279,0,0.279258,1557.44,-36188.9,0,36222.4,1.32285e+06
step02_gravity_refstate-intrusion.xmf,154,1.08346e-05,-2.6685e-05,0,4.46293e-06,-1.02029e+09,-1.02387e+09,-1.02133e+09,425585,0.00663595,-0.278035,0,0.278114,596.058,-37149.6,0,37154.3,425585
step02_gravity_refstate-intrusion.xmf,155,9.94089e-06,-2.5079e-05,0,8.49986e-06,-1.0176e+09,-1.02094e+09,-1.01855e+09,810547,0.0113561,-0.273045,0,0.273281,1077.62,-37049.8,0,37065.5,810547
step02_gravity_refstate-intrusion.xmf,156,1.26758e-05,-3.03433e-05,0,2.00919e-06,-1.03086e+09,-1.03497e+09,-1.03207e+09,191596,0.00381341,-0.269386,0,0.269413,300.542,-37536.9,0,37538.2,191596
step02_gravity_refstate-intrusion.xmf,157,8.23941e-06,-2.1806e-05,0,1.32868e-05,-1.00889e+09,-1.01175e+09,-1.00967e+09,1.26703e+06,0.0144788,-0.267874,0,0.268265,1567.71,-36730.1,0,36763.5,1.26703e+06
step02_gravity_refstate-intrusion.xmf,158,1.19586e-05,-2.96274e-05,0,5.38801e-06,-1.03131e+09,-1.03527e+09,-1.03245e+09,513801,0.00994017,-0.26428,0,0.264466,792.955,-37550.7,0,37559.1,513801
step02_gravity_refstate-intrusion.xmf,159,9.25813e-06,-2.51042e-05,0,1.27387e-05,-1.02303e+09,-1.02631e+09,-1.02392e+09,1.21476e+06,0.0171446,-0.254985,0,0.255561,1596.19,-37243.8,0,37278,1.21476e+06
step02_gravity_refstate-intrusion.xmf,160,1.09662e-05,-2.83998e-05,0,8.97076e-06,-1.0322e+09,-1.03595e+09,-1.03324e+09,855452,0.0155132,-0.254774,0,0.255246,1267.19,-37580.1,0,37601.5,855452
step02_gravity_refstate-intrusion.xmf,161,9.42793e-06,-2.70765e-05,0,1.20632e-05,-1.03391e+09,-1.03739e+09,-1.0348e+09,1.15035e+06,0.0196235,-0.243499,0,0.244288,1636.52,-37636.5,0,37672.1,1.15035e+06
step02_gravity_refstate-crust.xmf,0,-9.47214e-07,2.00775e-06,0,-1.00391e-07,-1.09874e+09,-1.09854e+09,-1.09867e+09,-6886.83,-0.00222445,0.0373275,-0,0.0373937,-37663.8,-40000,-0,54941.4,6886.83
step02_gravity_refstate-crust.xmf,1,-9.56508e-07,2.03068e-06,0,-1.16579e-09,-1.09874e+09,-1.09854e+09,-1.09867e+09,-79.9734,-2.29156e-19,0.0376801,-0,0.0376801,-40000,-40000,-0,56568.5,79.9734
step02_gravity_refstate-crust.xmf,2,-9.25092e-07,1.95046e-06,0,-1.99614e-07,-1.09874e+09,-1.09854e+09,-1.09868e+09,-13693.5,-0.00430617,0.0363264,-0,0.0365808,-35440.8,-40000,-0,53442,13693.5
step02_gravity_refstate-crust.xmf,3,-8.90284e-07,1.86242e-06,0,-3.04003e-07,-1.09874e+09,-1.09855e+09,-1.09868e+09,-20854.6,-0.00622688,0.0347454,-0,0.035299,-33325.6,-40000,-0,52063.3,20854.6
step02_gravity_refstate-crust.xmf,4,-8.47456e-07,1.74894e-06,0,-4.16929e-07,-1.09874e+09,-1.09856e+09,-1.09868e+09,-28601.3,-0.00797654,0.0326333,-0,0.033594,-31312.8,-40000,-0,50798.5,28601.3
step02_gravity_refstate-crust.xmf,5,-7.98697e-07,1.6137e-06,0,-5.40875e-07,-1.09874e+09,-1.09857e+09,-1.09869e+09,-37104,-0.00955453,0.0300258,-0,0.0315094,-29397.5,-40000,-0,49640.9,37104
step02_gravity_refstate-crust.xmf,6,-7.47721e-07,1.46058e-06,0,-6.80822e-07,-1.09874e+09,-1.09859e+09,-1.09869e+09,-46704.4,-0.0109648,0.0269494,-0,0.0290947,-27575,-40000,-0,48583.7,46704.4
step02_gravity_refstate-crust.xmf,7,-6.95857e-07,1.29202e-06,0,-8.38328e-07,-1.09874e+09,-1.09861e+09,-1.09869e+09,-57509.3,-0.0122185,0.0234227,-0,0.0264181,-25840.6,-40000,-0,47620.8,57509.3
step02_gravity_refstate-crust.xmf,8,-6.47201e-07,1.11129e-06,0,-1.01801e-06,-1.09874e+09,-1.09862e+09,-1.0987e+09,-69835.7,-0.0133278,0.0194606,-0,0.023587,-24190.1,-40000,-0,46745.7,69835.7
step02_gravity_refstate-crust.xmf,9,-6.01534e-07,9.17805e-07,0,-1.22095e-06,-1.09875e+09,-1.09864e+09,-1.09871e+09,-83756.9,-0.0143107,0.0150734,-0,0.0207846,-22619.3,-40000,-0,45952.5,83756.9
step02_gravity_refstate-crust.xmf,10,-5.63466e-07,7.13576e-07,0,-1.4533e-06,-1.09875e+09,-1.09866e+09,-1.09871e+09,-99696.1,-0.0151825,0.01027,-0,0.0183298,-21124.3,-40000,-0,45235.3,99696.1
step02_gravity_refstate-crust.xmf,11,-5.31284e-07,4.96044e-07,0,-1.71704e-06,-1.09876e+09,-1.09869e+09,-1.09872e+09,-117789,-0.0159628,0.00505708,-0,0.0167447,-19701.4,-40000,-0,44588.6,117789
step02_gravity_refstate-crust.xmf,12,-5.07678e-07,2.636e-07,0,-2.01681e-06,-1.09877e+09,-1.09871e+09,-1.09873e+09,-138353,-0.016668,-0.000559373,-0,0.0166774,-18347,-40000,-0,44007,138353
step02_gravity_refstate-crust.xmf,13,-4.84783e-07,-5.68187e-07,0,-3.178e-06,-1.0988e+09,-1.0988e+09,-1.09876e+09,-218011,-0.0184836,-0.0197801,-0,0.027072,-14661.8,-40000,-0,42602.4,218011
step02_gravity_refstate-crust.xmf,14,-4.88023e-07,-2.42631e-07,0,-2.72788e-06,-1.09878e+09,-1.09877e+09,-1.09875e+09,-187133,-0.0179163,-0.0129829,-0,0.0221258,-15830.4,-40000,-0,43018.6,187133
step02_gravity_refstate-crust.xmf,15,-4.93519e-07,1.31284e-08,0,-2.3579e-06,-1.09877e+09,-1.09874e+09,-1.09874e+09,-161752,-0.0173139,-0.00657415,-0,0.01852,-17057.8,-40000,-0,43485.3,161752
step02_gravity_refstate-crust.xmf,16,-4.86962e-07,-9.13651e-07,0,-3.66978e-06,-1.09881e+09,-1.09884e+09,-1.09878e+09,-251747,-0.0190267,-0.0269607,-0,0.0329984,-13548.9,-40000,-0,42232.4,251747
step02_gravity_refstate-crust.xmf,17,-4.93475e-07,-1.31047e-06,0,-4.22331e-06,-1.09883e+09,-1.09889e+09,-1.0988e+09,-289719,-0.0195482,-0.0345185,-0,0.0396693,-12489.1,-40000,-0,41904.4,289719
step02_gravity_refstate-crust.xmf,18,-4.95605e-07,-1.77342e-06,0,-4.84171e-06,-1.09885e+09,-1.09894e+09,-1.09882e+09,-332142,-0.0200497,-0.0424459,-0,0.046943,-11479.4,-40000,-0,41614.6,332142
step02_gravity_refstate-crust.xmf,19,-9.00861e-09,-7.14318e-06,0,-1.00395e-05,-1.09902e+09,-1.09951e+09,-1.09902e+09,-688710,-0.0219619,-0.0968767,-0,0.0993348,-6341.87,-40000,-0,40499.6,688710
step02_gravity_refstate-crust.xmf,20,-2.03628e-07,-5.77496e-06,0,-8.96682e-06,-1.09899e+09,-1.09937e+09,-1.09897e+09,-615124,-0.0218839,-0.0871117,-0,0.0898184,-7100.11,-40000,-0,40625.3,615124
step02_gravity_refstate-crust.xmf,21,-3.37919e-07,-4.64852e-06,0,-7.99905e-06,-1.09896e+09,-1.09925e+09,-1.09893e+09,-548735,-0.0216694,-0.0775808,-0,0.0805503,-7894.42,-40000,-0,40771.6,548735
step02_gravity_refstate-crust.xmf,22,-4.23221e-07,-3.71486e-06,0,-7.09812e-06,-1.09893e+09,-1.09915e+09,-1.0989e+09,-486931,-0.0213534,-0.0683222,-0,0.0715813,-8727.16,-40000,-0,40941,486931
step02_gravity_refstate-crust.xmf,23,-4.69723e-07,-2.93817e-06,0,-6.26403e-06,-1.0989e+09,-1.09907e+09,-1.09886e+09,-429713,-0.0209653,-0.0593652,-0,0.0629584,-9600.66,-40000,-0,41136,429713
step02_gravity_refstate-crust.xmf,24,-4.91683e-07,-2.31773e-06,0,-5.53219e-06,-1.09887e+09,-1.099e+09,-1.09884e+09,-379508,-0.0205247,-0.0507334,-0,0.0547278,-10517.3,-40000,-0,41359.6,379508
step02_gravity_refstate-crust.xmf,25,2.79078e-07,-8.79443e-06,0,-1.10779e-05,-1.09906e+09,-1.09969e+09,-1.09908e+09,-759944,-0.0218598,-0.106827,-0,0.10904,-5617.28,-40000,-0,40392.5,759944
step02_gravity_refstate-crust.xmf,26,1.24689e-06,-1.31741e-05,0,-1.31511e-05,-1.09914e+09,-1.10013e+09,-1.09923e+09,-902166,-0.0208681,-0.127004,-0,0.128707,-4258.41,-40000,-0,40226,902166
step02_gravity_refstate-crust.xmf,27,7.03013e-07,-1.07981e-05,0,-1.21075e-05,-1.0991e+09,-1.09989e+09,-1.09915e+09,-830575,-0.0215193,-0.116899,-0,0.118863,-4923.76,-40000,-0,40301.9,830575
step02_gravity_refstate-crust.xmf,28,2.03016e-06,-1.61013e-05,0,-1.39334e-05,-1.09918e+09,-1.10042e+09,-1.09932e+09,-955834,-0.0198058,-0.137015,-0,0.138439,-3617.79,-40000,-0,40163.3,955834
step02_gravity_refstate-crust.xmf,29,3.10249e-06,-1.96479e-05,0,-1.42207e-05,-1.09921e+09,-1.10077e+09,-1.09942e+09,-975540,-0.0182017,-0.146719,-0,0.147844,-2997.53,-40000,-0,40112.2,975540
step02_gravity_refstate-crust.xmf,30,5.8359e-06,-2.77373e-05,0,-1.15601e-05,-1.09925e+09,-1.10155e+09,-1.09965e+09,-793023,-0.0128199,-0.163689,-0,0.16419,-1793.25,-40000,-0,40040.2,793023
step02_gravity_refstate-crust.xmf,31,4.47846e-06,-2.40496e-05,0,-1.3606e-05,-1.09925e+09,-1.1012e+09,-1.09955e+09,-933374,-0.0159058,-0.155777,-0,0.156587,-2391.83,-40000,-0,40071.4,933374
step02_gravity_refstate-crust.xmf,32,6.95982e-06,-3.10456e-05,0,-8.276e-06,-1.09927e+09,-1.10187e+09,-1.09974e+09,-567734,-0.00898908,-0.169854,-0,0.170092,-1195.5,-40000,-0,40017.9,567734
step02_gravity_refstate-crust.xmf,33,7.64107e-06,-3.3107e-05,0,-4.27209e-06,-1.09928e+09,-1.10207e+09,-1.0998e+09,-293065,-0.00462629,-0.173744,-0,0.173805,-597.755,-40000,-0,40004.5,293065
step02_gravity_refstate-crust.xmf,34,7.87967e-06,-3.3878e-05,0,1.17627e-07,-1.09929e+09,-1.10215e+09,-1.09983e+09,8069.23,-4.09236e-06,-0.175067,-0,0.175067,0,-40000,0,40000,8069.23
step02_gravity_refstate-crust.xmf,35,7.63597e-06,-3.31807e-05,0,4.37488e-06,-1.09928e+09,-1.10208e+09,-1.09981e+09,300117,0.00462667,-0.173742,0,0.173804,597.755,-40000,0,40004.5,300117
step02_gravity_refstate-crust.xmf,36,7.00392e-06,-3.12571e-05,0,8.38131e-06,-1.09927e+09,-1.1019e+09,-1.09975e+09,574958,0.00898817,-0.169852,0,0.17009,1195.5,-40000,0,40017.9,574958
step02_gravity_refstate-crust.xmf,37,5.8786e-06,-2.80931e-05,0,1.16455e-05,-1.09926e+09,-1.10159e+09,-1.09966e+09,798878,0.0128181,-0.163688,0,0.164189,1793.25,-40000,0,40040.2,798878
step02_gravity_refstate-crust.xmf,38,4.48788e-06,-2.40589e-05,0,1.36037e-05,-1.09924e+09,-1.1012e+09,-1.09955e+09,933214,0.0159053,-0.155776,0,0.156586,2391.83,-40000,0,40071.4,933214
step02_gravity_refstate-crust.xmf,39,3.14013e-06,-1.9906e-05,0,1.42129e-05,-1.09922e+09,-1.1008e+09,-1.09943e+09,975003,0.0182002,-0.146717,0,0.147842,2997.53,-40000,0,40112.2,975003
step02_gravity_refstate-crust.xmf,40,2.05104e-06,-1.6231e-05,0,1.38882e-05,-1.09918e+09,-1.10044e+09,-1.09932e+09,952731,0.0198084,-0.137014,0,0.138439,3617.79,-40000,0,40163.3,952731
step02_gravity_refstate-crust.xmf,41,1.26554e-06,-1.3247e-05,0,1.3088e-05,-1.09914e+09,-1.10014e+09,-1.09923e+09,897835,0.0208695,-0.127005,0,0.128708,4258.41,-40000,0,40226,897835
step02_gravity_refstate-crust.xmf,42,6.98101e-07,-1.07939e-05,0,1.21077e-05,-1.0991e+09,-1.09989e+09,-1.09915e+09,830590,0.0215194,-0.116899,0,0.118864,4923.76,-40000,0,40301.9,830590
step02_gravity_refstate-crust.xmf,43,2.90836e-07,-8.80661e-06,0,1.10502e-05,-1.09906e+09,-1.09969e+09,-1.09908e+09,758042,0.0218596,-0.106827,0,0.109041,5617.28,-40000,0,40392.5,758042
step02_gravity_refstate-crust.xmf,44,-8.30406e-10,-7.14736e-06,0,9.98699e-06,-1.09902e+09,-1.09951e+09,-1.09902e+09,685108,0.0219626,-0.0968762,0,0.0993345,6341.87,-40000,0,40499.6,685108
step02_gravity_refstate-crust.xmf,45,-2.03165e-07,-5.7732e-06,0,8.96691e-06,-1.09899e+09,-1.09937e+09,-1.09897e+09,615130,0.0218837,-0.0871117,0,0.0898184,7100.11,-40000,0,40625.3,615130
step02_gravity_refstate-crust.xmf,46,-3.39835e-07,-4.64954e-06,0,8.00096e-06,-1.09896e+09,-1.09925e+09,-1.09893e+09,548866,0.0216692,-0.0775808,0,0.0805502,7894.42,-40000,0,40771.6,548866
step02_gravity_refstate-crust.xmf,47,-4.22649e-07,-3.72002e-06,0,7.10011e-06,-1.09893e+09,-1.09915e+09,-1.0989e+09,487067,0.0213535,-0.0683219,0,0.0715811,8727.16,-40000,0,40941,487067
step02_gravity_refstate-crust.xmf,48,-4.71569e-07,-2.93828e-06,0,6.26192e-06,-1.0989e+09,-1.09907e+09,-1.09887e+09,429567,0.0209659,-0.0593651,0,0.0629586,9600.66,-40000,0,41136,429567
step02_gravity_refstate-crust.xmf,49,-4.91757e-07,-2.28541e-06,0,5.50611e-06,-1.09887e+09,-1.09899e+09,-1.09884e+09,377719,0.0205245,-0.0507336,0,0.054728,10517.3,-40000,0,41359.6,377719
step02_gravity_refstate-crust.xmf,50,-4.98862e-07,-1.74358e-06,0,4.81915e-06,-1.09885e+09,-1.09893e+09,-1.09882e+09,330593,0.0200494,-0.042446,0,0.0469429,11479.4,-40000,0,41614.6,330593
step02_gravity_refstate-crust.xmf,51,-4.96297e-07,-1.28491e-06,0,4.2032e-06,-1.09883e+09,-1.09888e+09,-1.0988e+09,288339,0.0195484,-0.0345183,0,0.0396693,12489.1,-40000,0,41904.4,288339
step02_gravity_refstate-crust.xmf,52,-4.90701e-07,-8.90875e-07,0,3.65292e-06,-1.09881e+09,-1.09884e+09,-1.09878e+09,250591,0.0190264,-0.0269604,0,0.032998,13548.9,-40000,0,42232.4,250591
step02_gravity_refstate-crust.xmf,53,-4.86735e-07,-5.47528e-07,0,3.16341e-06,-1.0988e+09,-1.0988e+09,-1.09876e+09,217010,0.0184836,-0.0197799,0,0.0270719,14661.8,-40000,0,42602.4,217010
step02_gravity_refstate-crust.xmf,54,-9.56672e-07,2.03053e-06,0,1.11606e-09,-1.09874e+09,-1.09854e+09,-1.09867e+09,76.5615,7.22277e-20,0.0376803,0,0.0376803,40000,-40000,0,56568.5,76.5615
step02_gravity_refstate-crust.xmf,55,-9.47793e-07,2.00759e-06,0,1.00035e-07,-1.09874e+09,-1.09854e+09,-1.09867e+09,6862.37,0.00222426,0.0373275,0,0.0373937,37663.8,-40000,0,54941.4,6862.37
step02_gravity_refstate-crust.xmf,56,-4.8752e-07,-2.43753e-07,0,2.72919e-06,-1.09878e+09,-1.09877e+09,-1.09875e+09,187222,0.0179157,-0.0129828,0,0.0221252,15830.4,-40000,0,43018.6,187222
step02_gravity_refstate-crust.xmf,57,-9.2476e-07,1.95004e-06,0,1.99342e-07,-1.09874e+09,-1.09854e+09,-1.09868e+09,13674.9,0.0043063,0.0363264,0,0.0365808,35440.8,-40000,0,53442,13674.9
step02_gravity_refstate-crust.xmf,58,-8.9048e-07,1.86229e-06,0,3.03747e-07,-1.09874e+09,-1.09855e+09,-1.09868e+09,20837,0.00622681,0.0347453,0,0.0352989,33325.6,-40000,0,52063.3,20837
step02_gravity_refstate-crust.xmf,59,-8.47608e-07,1.7487e-06,0,4.16615e-07,-1.09874e+09,-1.09856e+09,-1.09868e+09,28579.8,0.00797662,0.0326333,0,0.033594,31312.8,-40000,0,50798.5,28579.8
step02_gravity_refstate-crust.xmf,60,-7.99881e-07,1.61893e-06,0,5.38042e-07,-1.09874e+09,-1.09857e+09,-1.09869e+09,36909.7,0.00955432,0.030026,0,0.0315094,29397.5,-40000,0,49640.9,36909.7
step02_gravity_refstate-crust.xmf,61,-7.47706e-07,1.46048e-06,0,6.80996e-07,-1.09874e+09,-1.09859e+09,-1.09869e+09,46716.3,0.0109648,0.0269494,0,0.0290947,27575,-40000,0,48583.7,46716.3
step02_gravity_refstate-crust.xmf,62,-6.96307e-07,1.29266e-06,0,8.39099e-07,-1.09874e+09,-1.09861e+09,-1.09869e+09,57562.2,0.0122181,0.0234228,0,0.026418,25840.6,-40000,0,47620.8,57562.2
step02_gravity_refstate-crust.xmf,63,-6.47068e-07,1.11117e-06,0,1.01753e-06,-1.09874e+09,-1.09862e+09,-1.0987e+09,69802.7,0.0133282,0.0194605,0,0.0235871,24190.1,-40000,0,46745.7,69802.7
step02_gravity_refstate-crust.xmf,64,-4.95271e-07,3.07115e-08,0,2.3439e-06,-1.09877e+09,-1.09874e+09,-1.09874e+09,160791,0.0173146,-0.00657429,0,0.0185207,17057.8,-40000,0,43485.3,160791
step02_gravity_refstate-crust.xmf,65,-6.02236e-07,9.18064e-07,0,1.22142e-06,-1.09875e+09,-1.09864e+09,-1.09871e+09,83789.2,0.0143103,0.0150736,0,0.0207846,22619.3,-40000,0,45952.5,83789.2
step02_gravity_refstate-crust.xmf,66,-5.09968e-07,2.79319e-07,0,2.00568e-06,-1.09876e+09,-1.09871e+09,-1.09873e+09,137589,0.0166681,-0.000559326,0,0.0166775,18347,-40000,0,44007,137589
step02_gravity_refstate-crust.xmf,67,-5.63648e-07,7.13698e-07,0,1.45366e-06,-1.09875e+09,-1.09866e+09,-1.09871e+09,99721,0.0151823,0.0102702,0,0.0183298,21124.3,-40000,0,45235.3,99721
step02_gravity_refstate-crust.xmf,68,-5.33355e-07,5.09486e-07,0,1.70753e-06,-1.09876e+09,-1.09869e+09,-1.09872e+09,117136,0.0159628,0.00505722,0,0.0167447,19701.4,-40000,0,44588.6,117136
step02_gravity_refstate-crust.xmf,69,5.50341e-07,-8.46186e-08,0,-5.04991e-07,-4.64683e+07,-4.65119e+07,-4.65061e+07,-34642.4,0.0342538,0.0173579,0,0.0384008,-20852.4,-1693.82,-0,20921.1,34642.4
step02_gravity_refstate-crust.xmf,70,9.60388e-07,-3.61948e-07,0,-1.17817e-08,91335.4,623.178,25452.8,-808.224,0.0396904,0.021485,0,0.0451324,-21926.5,0,-0,21926.5,808.224
step02_gravity_refstate-crust.xmf,71,4.21229e-07,-1.59167e-07,0,-5.60467e-09,40042.3,227.12,11146,-384.481,0.0412623,0.0119962,0,0.0429707,-19656.4,0,-0,19656.4,384.481
step02_gravity_refstate-crust.xmf,72,9.91254e-07,-2.46058e-07,0,-4.46595e-07,-4.57815e+07,-4.58664e+07,-4.58495e+07,-30636.4,0.0325621,0.0268327,0,0.0421934,-23130.1,-1670.35,-0,23190.3,30636.4
step02_gravity_refstate-crust.xmf,73,2.97303e-07,1.42906e-07,0,-1.03562e-06,-9.88074e+07,-9.8818e+07,-9.88278e+07,-71043.3,0.0291375,0.0125484,0,0.0317247,-19785,-3598.61,-0,20109.6,71043.3
step02_gravity_refstate-crust.xmf,74,1.04949e-07,9.96884e-08,0,-5.79132e-07,-4.78079e+07,-4.78083e+07,-4.78151e+07,-39728.5,0.0348268,0.00764669,0,0.0356564,-18660.6,-1741.07,-0,18741.6,39728.5
step02_gravity_refstate-crust.xmf,75,-6.50769e-08,2.59743e-07,0,-9.93542e-07,-8.7437e+07,-8.74147e+07,-8.74325e+07,-68157,0.0304477,0.00364335,0,0.0306649,-17848.5,-3183.37,-0,18130.1,68157
step02_gravity_refstate-crust.xmf,76,-3.05875e-07,4.12514e-07,0,-1.22031e-06,-1.05888e+08,-1.05838e+08,-1.05867e+08,-83713.4,0.0284752,-0.00326016,0,0.0286612,-16440.1,-3854.35,-0,16885.9,83713.4
step02_gravity_refstate-crust.xmf,77,2.16263e-08,3.2461e-07,0,-1.37147e-06,-1.29973e+08,-1.29953e+08,-1.29975e+08,-94083,0.0267674,0.00436142,0,0.0271204,-18095.4,-4732.4,-0,18704,94083
step02_gravity_refstate-crust.xmf,78,-2.01973e-07,4.90703e-07,0,-1.64077e-06,-1.55796e+08,-1.55748e+08,-1.55782e+08,-112557,0.0248409,-0.00377125,0,0.0251255,-16503.7,-5671.85,-0,17451.2,112557
step02_gravity_refstate-crust.xmf,79,1.42903e-06,-5.40027e-07,0,-1.24349e-08,135842,765.024,37810.9,-853.031,0.0369099,0.0305253,0,0.0478971,-24260.6,0,-0,24260.6,853.031
step02_gravity_refstate-crust.xmf,80,6.72709e-07,-4.17665e-08,0,-8.20797e-07,-8.56695e+07,-8.57186e+07,-8.57157e+07,-56306.7,0.0293137,0.0223225,0,0.0368455,-21987.8,-3121.54,-0,22208.3,56306.7
step02_gravity_refstate-crust.xmf,81,-5.39444e-07,5.87563e-07,0,-1.48012e-06,-1.3257e+08,-1.32493e+08,-1.32533e+08,-101536,0.0257489,-0.0111527,0,0.0280604,-14902.8,-4825.09,-0,15664.4,101536
step02_gravity_refstate-crust.xmf,82,-3.864e-07,3.09614e-07,0,-6.95658e-07,-5.40168e+07,-5.39691e+07,-5.39903e+07,-47722.1,0.0337532,-0.00272937,0,0.0338634,-16408.3,-1965.45,-0,16525.6,47722.1
step02_gravity_refstate-crust.xmf,83,-1.52734e-07,5.86873e-08,0,-9.7966e-09,-14477.6,25.9358,-4000.01,-672.047,0.0415793,0.00232688,0,0.0416444,-17443.5,0,-0,17443.5,672.047
step02_gravity_refstate-crust.xmf,84,2.8666e-07,2.40108e-07,0,-1.44891e-06,-1.53391e+08,-1.53395e+08,-1.53411e+08,-99395.4,0.0248313,0.0123815,0,0.0277469,-19830.7,-5585.9,-0,20602.4,99395.4
step02_gravity_refstate-crust.xmf,85,1.04486e-07,3.87853e-07,0,-1.74042e-06,-1.80713e+08,-1.80694e+08,-1.80721e+08,-119393,0.023507,0.00429267,0,0.0238957,-18216.4,-6580.07,-0,19368.4,119393
step02_gravity_refstate-crust.xmf,86,-7.86414e-08,5.4401e-07,0,-1.98686e-06,-2.05336e+08,-2.05293e+08,-2.05331e+08,-136299,0.0223461,-0.00413806,0,0.0227261,-16617,-7475.99,-0,18221.3,136299
step02_gravity_refstate-crust.xmf,87,-3.93439e-07,6.68456e-07,0,-1.88061e-06,-1.81688e+08,-1.81615e+08,-1.81661e+08,-129010,0.0229791,-0.0120008,0,0.0259241,-14959.2,-6613.97,-0,16356.1,129010
step02_gravity_refstate-crust.xmf,88,1.33678e-06,-3.61585e-07,0,-4.30951e-07,-5.23418e+07,-5.24583e+07,-5.24335e+07,-29563.2,0.0291467,0.0357564,0,0.0461308,-25463.4,-1910.4,-0,25535,29563.2
step02_gravity_refstate-crust.xmf,89,1.01773e-06,-1.59899e-07,0,-7.47165e-07,-9.04376e+07,-9.05183e+07,-9.05074e+07,-51255.5,0.0269238,0.0317363,0,0.0416183,-24289.8,-3296.34,-0,24512.5,51255.5
step02_gravity_refstate-crust.xmf,90,5.52425e-07,1.01775e-07,0,-1.21798e-06,-1.35865e+08,-1.35896e+08,-1.35903e+08,-83553.6,0.025317,0.0205105,0,0.0325827,-21584.5,-4948.69,-0,22144.5,83553.6
step02_gravity_refstate-crust.xmf,91,1.83401e-06,-6.93259e-07,0,-1.52775e-08,174331,960.777,48518.3,-1048.03,0.0329907,0.0388567,0,0.0509729,-26665.5,0,-0,26665.5,1048.03
step02_gravity_refstate-crust.xmf,92,-2.53155e-07,7.28605e-07,0,-2.20266e-06,-2.29021e+08,-2.28953e+08,-2.29003e+08,-151103,0.0212417,-0.0127823,0,0.0247911,-15042,-8337.83,-0,17198.3,151103
step02_gravity_refstate-crust.xmf,93,-5.73865e-07,8.69714e-07,0,-2.0779e-06,-2.07973e+08,-2.07874e+08,-2.07934e+08,-142544,0.0212108,-0.02042,0,0.0294427,-13427.8,-7570.5,-0,15414.9,142544
step02_gravity_refstate-crust.xmf,94,-6.23917e-07,5.01303e-07,0,-1.07274e-06,-8.87511e+07,-8.86739e+07,-8.87083e+07,-73590.1,0.029375,-0.00953906,0,0.030885,-15059.2,-3229.32,-0,15401.6,73590.1
step02_gravity_refstate-crust.xmf,95,-1.24633e-07,7.80747e-07,0,-2.47564e-06,-2.73904e+08,-2.73842e+08,-2.73895e+08,-169829,0.0202392,-0.014049,0,0.0246374,-15035.8,-9972.45,-0,18042.3,169829
step02_gravity_refstate-crust.xmf,96,-4.2015e-07,9.47854e-07,0,-2.3952e-06,-2.55081e+08,-2.54987e+08,-2.55052e+08,-164310,0.0201268,-0.0216089,0,0.0295303,-13502.3,-9286.25,-0,16387.4,164310
step02_gravity_refstate-crust.xmf,97,7.73112e-07,-5.97853e-09,0,-1.05041e-06,-1.2569e+08,-1.25744e+08,-1.25743e+08,-72057.8,0.0250715,0.0271164,0,0.0369307,-23116.2,-4578.99,-0,23565.3,72057.8
step02_gravity_refstate-crust.xmf,98,5.27778e-07,1.80207e-07,0,-1.51819e-06,-1.83142e+08,-1.83166e+08,-1.83178e+08,-104148,0.0223327,0.0198781,0,0.0298979,-21497.4,-6669.88,-0,22508.4,104148
step02_gravity_refstate-crust.xmf,99,3.41426e-07,2.93913e-07,0,-1.76442e-06,-2.0482e+08,-2.04823e+08,-2.04843e+08,-121039,0.0219125,0.012256,0,0.0251071,-19909.3,-7458.5,-0,21260.5,121039
step02_gravity_refstate-crust.xmf,100,1.59757e-06,-4.30194e-07,0,-4.15113e-07,-6.49642e+07,-6.51033e+07,-6.50738e+07,-28476.8,0.0240773,0.0447824,0,0.0508447,-28130.2,-2370.88,-0,28230,28476.8
step02_gravity_refstate-crust.xmf,101,-7.30167e-07,7.83283e-07,0,-1.71422e-06,-1.58501e+08,-1.58397e+08,-1.58451e+08,-117595,0.023204,-0.0192705,0,0.0301626,-13357.8,-5768.64,-0,14550.2,117595
step02_gravity_refstate-crust.xmf,102,-9.31314e-07,6.78278e-07,0,-1.21667e-06,-1.01987e+08,-1.01877e+08,-1.01924e+08,-83463.5,0.0268583,-0.0180092,0,0.0323372,-13307,-3710.24,-0,13814.6,83463.5
step02_gravity_refstate-crust.xmf,103,-9.05354e-07,4.98901e-07,0,-6.54286e-07,-4.92881e+07,-4.91918e+07,-4.9226e+07,-44884,0.0329167,-0.0126224,0,0.0352538,-14237.9,-1791.49,-0,14350.2,44884
step02_gravity_refstate-crust.xmf,104,-7.53173e-07,2.8754e-07,0,-1.27642e-08,-71472,-79.1028,-19804.3,-875.627,0.0406197,-0.00724653,0,0.041261,-15281,0,-0,15281,875.627
step02_gravity_refstate-crust.xmf,105,1.84373e-08,5.95671e-07,0,-2.27044e-06,-2.51649e+08,-2.5161e+08,-2.5165e+08,-155752,0.0207937,-0.00556053,0,0.0215243,-16527.8,-9162.53,-0,18897.6,155752
step02_gravity_refstate-crust.xmf,106,-2.6827e-07,1.01588e-06,0,-2.67153e-06,-2.99168e+08,-2.99079e+08,-2.99149e+08,-183267,0.0196786,-0.0227715,0,0.0300963,-13580.6,-10892,-0,17408.8,183267
step02_gravity_refstate-crust.xmf,107,2.16514e-07,4.26764e-07,0,-2.06065e-06,-2.35249e+08,-2.35234e+08,-2.35264e+08,-141361,0.021093,0.00413195,0,0.0214939,-18345.9,-8566.01,-0,20247.2,141361
step02_gravity_refstate-crust.xmf,108,2.17512e-06,-8.27833e-07,0,-1.14836e-08,206516,513.497,57302.9,-787.773,0.0280294,0.0462242,0,0.0540585,-29148.2,0,-0,29148.2,787.773
step02_gravity_refstate-crust.xmf,109,1.21025e-06,-2.00883e-07,0,-7.43313e-07,-1.07712e+08,-1.07809e+08,-1.07795e+08,-50991.3,0.0232978,0.0392762,0,0.0456662,-26295.8,-3925.95,-0,26587.3,50991.3
step02_gravity_refstate-crust.xmf,110,9.36451e-07,-4.38406e-08,0,-1.04127e-06,-1.42541e+08,-1.42608e+08,-1.42605e+08,-71430.8,0.0225068,0.0336122,0,0.0404516,-24722.9,-5193.07,-0,25262.5,71430.8
step02_gravity_refstate-crust.xmf,111,7.3502e-07,6.76471e-08,0,-1.28716e-06,-1.68493e+08,-1.68538e+08,-1.68543e+08,-88298.9,0.0220531,0.0277956,0,0.0354815,-23290,-6137.22,-0,24085.1,88298.9
step02_gravity_refstate-crust.xmf,112,5.62534e-07,2.16085e-07,0,-1.74473e-06,-2.28948e+08,-2.28971e+08,-2.28986e+08,-119689,0.0200618,0.0201002,0,0.0283988,-21617.8,-8337.68,-0,23170,119689
step02_gravity_refstate-crust.xmf,113,-5.59786e-07,1.56424e-06,0,-2.96055e-06,-3.46698e+08,-3.46552e+08,-3.46659e+08,-203094,0.01885,-0.0384394,0,0.0428125,-11150.4,-12622,-0,16841.8,203094
step02_gravity_refstate-crust.xmf,114,-4.01046e-07,1.27006e-06,0,-2.83181e-06,-3.23444e+08,-3.23329e+08,-3.23416e+08,-194262,0.0192452,-0.0305484,0,0.0361052,-12352.2,-11775.6,-0,17065.8,194262
step02_gravity_refstate-crust.xmf,115,-2.39334e-07,1.30888e-06,0,-3.0832e-06,-3.64303e+08,-3.64196e+08,-3.64286e+08,-211507,0.0195772,-0.0317711,0,0.0373185,-12473.9,-13263.9,-0,18207.9,211507
step02_gravity_refstate-crust.xmf,116,-5.62381e-07,1.20319e-06,0,-2.55112e-06,-2.79661e+08,-2.7954e+08,-2.79622e+08,-175007,0.0192086,-0.0294396,0,0.035152,-12192.5,-10180.9,-0,15884.2,175007
step02_gravity_refstate-crust.xmf,117,-7.28814e-07,1.10485e-06,0,-2.23721e-06,-2.33993e+08,-2.33867e+08,-2.33943e+08,-153472,0.0196423,-0.0284052,0,0.0345352,-12018.2,-8517.51,-0,14730.4,153472
step02_gravity_refstate-crust.xmf,118,-9.0432e-07,1.00025e-06,0,-1.88869e-06,-1.86063e+08,-1.85932e+08,-1.86001e+08,-129564,0.0207855,-0.0273046,0,0.0343159,-11864.4,-6771.69,-0,13660.9,129564
step02_gravity_refstate-crust.xmf,119,-1.08465e-07,1.04088e-06,0,-2.90718e-06,-3.40809e+08,-3.4073e+08,-3.40801e+08,-199432,0.0196437,-0.0236463,0,0.0307412,-13702.6,-12408.7,-0,18486.1,199432
step02_gravity_refstate-crust.xmf,120,5.82726e-09,8.20375e-07,0,-2.71577e-06,-3.17234e+08,-3.17178e+08,-3.17234e+08,-186302,0.0197603,-0.015582,0,0.0251648,-14986.6,-11550.5,-0,18921.2,186302
step02_gravity_refstate-crust.xmf,121,1.17408e-07,6.32618e-07,0,-2.50016e-06,-2.92858e+08,-2.92822e+08,-2.92866e+08,-171511,0.019947,-0.00722809,0,0.0212162,-16388,-10663.2,-0,19551.8,171511
step02_gravity_refstate-crust.xmf,122,1.90833e-06,-5.72131e-07,0,-2.83886e-07,-5.70598e+07,-5.72299e+07,-5.71907e+07,-19474.6,0.0200881,0.0517292,0,0.0554927,-30736.1,-2084.15,-0,30806.7,19474.6
step02_gravity_refstate-crust.xmf,123,2.40587e-06,-9.21562e-07,0,-1.67227e-09,228173,-88.6465,63130.5,-114.718,0.0221143,0.0523866,0,0.056863,-31715.7,0,-0,31715.7,114.718
step02_gravity_refstate-crust.xmf,124,6.62846e-07,1.41392e-07,0,-1.52054e-06,-2.05351e+08,-2.05387e+08,-2.05397e+08,-104309,0.0204088,0.0255228,0,0.0326792,-22792.3,-7478.91,-0,23988,104309
step02_gravity_refstate-crust.xmf,125,4.23708e-07,3.0791e-07,0,-1.97531e-06,-2.49635e+08,-2.49643e+08,-2.49664e+08,-135506,0.0200169,0.0127726,0,0.0237448,-20117,-9090.4,-0,22075.5,135506
step02_gravity_refstate-crust.xmf,126,1.31868e-06,-1.99373e-07,0,-7.32406e-07,-1.32662e+08,-1.32766e+08,-1.32753e+08,-50243,0.0190368,0.0462574,0,0.0500215,-28358.6,-4834.73,-0,28767.8,50243
step02_gravity_refstate-crust.xmf,127,-4.05116e-07,1.6194e-06,0,-3.23074e-06,-3.86263e+08,-3.86124e+08,-3.86235e+08,-221629,0.0195024,-0.0399993,0,0.0445004,-11280.7,-14063.2,-0,18028.5,221629
step02_gravity_refstate-crust.xmf,128,-7.08512e-07,1.49246e-06,0,-2.67944e-06,-3.05511e+08,-3.0536e+08,-3.05462e+08,-183810,0.01842,-0.0370128,0,0.041343,-10989,-11121.9,-0,15635,183810
step02_gravity_refstate-crust.xmf,129,-1.0837e-06,8.95676e-07,0,-1.51399e-06,-1.38563e+08,-1.38427e+08,-1.38488e+08,-103859,0.0228103,-0.0261519,0,0.0347021,-11758.6,-5041.51,-0,12793.8,103859
step02_gravity_refstate-crust.xmf,130,-1.37359e-06,6.88006e-07,0,-6.62255e-07,-5.07011e+07,-5.05597e+07,-5.06069e+07,-45430.7,0.0304776,-0.0215444,0,0.0373235,-12232.3,-1841.33,-0,12370.1,45430.7
step02_gravity_refstate-crust.xmf,131,-1.36607e-06,5.19209e-07,0,-1.49567e-08,-129731,-400.77,-36018.5,-1026.03,0.0383962,-0.016448,0,0.0417709,-13162.3,0,-0,13162.3,1026.03
step02_gravity_refstate-crust.xmf,132,-6.68836e-08,1.31665e-06,0,-3.31491e-06,-4.03788e+08,-4.03693e+08,-4.03783e+08,-227403,0.0200959,-0.0330394,0,0.038671,-12576.4,-14702.1,-0,19347.3,227403
step02_gravity_refstate-crust.xmf,133,2.24665e-07,4.94829e-07,0,-2.30588e-06,-2.73867e+08,-2.73849e+08,-2.73883e+08,-158183,0.0200987,0.000202949,0,0.0200998,-17709,-9972.09,-0,20323.7,158183
step02_gravity_refstate-crust.xmf,134,5.96473e-08,1.04219e-06,0,-3.12194e-06,-3.81891e+08,-3.81823e+08,-3.81895e+08,-214165,0.0198576,-0.0247045,0,0.031696,-13787.6,-13905,-0,19581.8,214165
step02_gravity_refstate-crust.xmf,135,1.56268e-06,-3.33439e-07,0,-5.23935e-07,-1.08109e+08,-1.08239e+08,-1.08216e+08,-35942,0.0180121,0.0509072,0,0.0539998,-30076,-3941.63,-0,30333.2,35942
step02_gravity_refstate-crust.xmf,136,2.09614e-06,-6.57422e-07,0,-1.85696e-07,-5.41416e+07,-5.43305e+07,-5.42854e+07,-12738.7,0.0152807,0.0568516,0,0.0588694,-33212,-1978.54,-0,33270.9,12738.7
step02_gravity_refstate-crust.xmf,137,2.6329e-06,-1.00211e-06,0,-7.88946e-09,249978,615.668,69360.7,-541.217,0.0153739,0.057097,0,0.0591306,-34375.2,0,-0,34375.2,541.217
step02_gravity_refstate-crust.xmf,138,1.06539e-06,-5.98137e-08,0,-1.01411e-06,-1.6616e+08,-1.66237e+08,-1.66233e+08,-69568.1,0.019235,0.0405049,0,0.04484,-26566.3,-6053.44,-0,27247.2,69568.1
step02_gravity_refstate-crust.xmf,139,8.48927e-07,6.01453e-08,0,-1.3303e-06,-2.00233e+08,-2.00287e+08,-2.00291e+08,-91258.6,0.0192433,0.033393,0,0.0385409,-24672.6,-7293.22,-0,25727.9,91258.6
step02_gravity_refstate-crust.xmf,140,7.37066e-07,1.40713e-07,0,-1.59948e-06,-2.39432e+08,-2.39472e+08,-2.39482e+08,-109724,0.018397,0.0285426,0,0.0339578,-23531.7,-8719.94,-0,25095.4,109724
step02_gravity_refstate-crust.xmf,141,6.37073e-07,2.18891e-07,0,-1.89447e-06,-2.74896e+08,-2.74925e+08,-2.7494e+08,-129960,0.0181982,0.0213442,0,0.0280491,-21965.3,-10010.8,-0,24139,129960
step02_gravity_refstate-crust.xmf,142,-2.27799e-07,1.64365e-06,0,-3.48639e-06,-4.23744e+08,-4.23615e+08,-4.23728e+08,-239166,0.0202861,-0.0413535,0,0.0460612,-11423.9,-15428.4,-0,19197.5,239166
step02_gravity_refstate-crust.xmf,143,-6.1072e-07,2.0056e-06,0,-3.34797e-06,-4.05873e+08,-4.05694e+08,-4.05831e+08,-229671,0.0193323,-0.0481972,0,0.0519299,-10129.4,-14776.9,-0,17915.4,229671
step02_gravity_refstate-crust.xmf,144,-7.52176e-07,1.93366e-06,0,-3.06265e-06,-3.69131e+08,-3.68947e+08,-3.6908e+08,-210098,0.0184303,-0.0464341,0,0.049958,-9976.42,-13438.5,-0,16736.9,210098
step02_gravity_refstate-crust.xmf,145,-8.7694e-07,1.81719e-06,0,-2.76802e-06,-3.29876e+08,-3.29692e+08,-3.29816e+08,-189886,0.0177036,-0.0444936,0,0.0478863,-9836.48,-12008.7,-0,15523.1,189886
step02_gravity_refstate-crust.xmf,146,-8.77483e-07,1.39174e-06,0,-2.36404e-06,-2.60774e+08,-2.60618e+08,-2.60713e+08,-162173,0.0182584,-0.0360654,0,0.0404238,-10712.6,-9492.33,-0,14313.1,162173
step02_gravity_refstate-crust.xmf,147,-1.06385e-06,1.25348e-06,0,-2.00439e-06,-2.12153e+08,-2.11994e+08,-2.1208e+08,-137501,0.0186496,-0.0350444,0,0.0396978,-10433.1,-7721.28,-0,12979.5,137501
step02_gravity_refstate-crust.xmf,148,-1.25023e-06,1.11232e-06,0,-1.64089e-06,-1.63702e+08,-1.6354e+08,-1.63616e+08,-112565,0.0199151,-0.03358,0,0.0390414,-10292.3,-5956.4,-0,11891.6,112565
step02_gravity_refstate-crust.xmf,149,-1.28998e-06,8.13417e-07,0,-1.11304e-06,-9.51033e+07,-9.4959e+07,-9.50148e+07,-76354.3,0.0255602,-0.0252951,0,0.0359606,-11646.8,-3458.37,-0,12149.4,76354.3
step02_gravity_refstate-crust.xmf,150,-4.52811e-07,2.03107e-06,0,-3.60318e-06,-4.3781e+08,-4.3764e+08,-4.37779e+08,-247178,0.0202505,-0.0494289,0,0.0534163,-10309.4,-15940.2,-0,18983.5,247178
step02_gravity_refstate-crust.xmf,151,-7.68909e-07,2.54871e-06,0,-3.68317e-06,-4.52438e+08,-4.5221e+08,-4.52385e+08,-252665,0.0199231,-0.0588302,0,0.0621122,-9039.42,-16472.3,-0,18789.5,252665
step02_gravity_refstate-crust.xmf,152,-3.79845e-07,2.15066e-06,0,-3.8507e-06,-4.68838e+08,-4.68664e+08,-4.68812e+08,-264158,0.0210518,-0.0532564,0,0.0572662,-10088.8,-17070.3,-0,19828.7,264158
step02_gravity_refstate-crust.xmf,153,4.00916e-07,3.82943e-07,0,-2.22218e-06,-2.82653e+08,-2.82654e+08,-2.82681e+08,-152441,0.0194533,0.0073143,0,0.0207829,-19108.2,-10292.5,-0,21703.9,152441
step02_gravity_refstate-crust.xmf,154,1.59427e-07,8.21584e-07,0,-2.91764e-06,-3.58817e+08,-3.58771e+08,-3.58828e+08,-200150,0.0196361,-0.016551,0,0.0256809,-15034.7,-13065,-0,19918.2,200150
step02_gravity_refstate-crust.xmf,155,3.3437e-07,4.93361e-07,0,-2.4723e-06,-3.11763e+08,-3.11753e+08,-3.11786e+08,-169600,0.0193417,-0.000190209,0,0.0193426,-17763.4,-11352.2,-0,21081.1,169600
step02_gravity_refstate-crust.xmf,156,2.44153e-07,6.4326e-07,0,-2.70049e-06,-3.34723e+08,-3.34696e+08,-3.3474e+08,-185254,0.0194716,-0.00845606,0,0.0212285,-16341.7,-12187.9,-0,20386.1,185254
step02_gravity_refstate-crust.xmf,157,2.38797e-07,1.01207e-06,0,-3.30868e-06,-4.21351e+08,-4.21298e+08,-4.21367e+08,-226976,0.0202108,-0.0257352,0,0.0327227,-13859.7,-15342.2,-0,20675.5,226976
step02_gravity_refstate-crust.xmf,158,1.67572e-06,-3.54569e-07,0,-4.22927e-07,-1.16429e+08,-1.16569e+08,-1.16544e+08,-29012.8,0.013877,0.0563712,0,0.0580541,-32366.4,-4244.96,-0,32643.6,29012.8
step02_gravity_refstate-crust.xmf,159,2.24627e-06,-7.04719e-07,0,-1.23954e-07,-5.34161e+07,-5.36185e+07,-5.35702e+07,-8503.23,0.00987128,0.0604742,0,0.0612746,-35704.7,-1952.66,-0,35758,8503.23
step02_gravity_refstate-crust.xmf,160,2.75036e-06,-1.0461e-06,0,-4.38429e-09,261160,723.084,72485.6,-300.762,0.00794563,0.0601068,0,0.0606297,-37134.2,0,-0,37134.2,300.762
step02_gravity_refstate-crust.xmf,161,5.54815e-07,2.87964e-07,0,-2.13958e-06,-3.02831e+08,-3.0285e+08,-3.02869e+08,-146775,0.0182666,0.0143326,0,0.0232184,-20552.5,-11027.6,-0,23324.1,146775
step02_gravity_refstate-crust.xmf,162,1.35713e-06,-1.8068e-07,0,-6.72329e-07,-1.5836e+08,-1.58465e+08,-1.58453e+08,-46121.8,0.0148818,0.0523679,0,0.0544413,-30457.1,-5770.45,-0,30999,46121.8
step02_gravity_refstate-crust.xmf,163,1.1537e-06,-6.10429e-08,0,-9.35714e-07,-1.91159e+08,-1.91242e+08,-1.91238e+08,-64189.9,0.0157637,0.0472263,0,0.0497877,-28583.7,-6963.9,-0,29419.8,64189.9
step02_gravity_refstate-crust.xmf,164,-1.00725e-06,1.70364e-06,0,-2.47316e-06,-2.90005e+08,-2.89819e+08,-2.89936e+08,-169659,0.0172039,-0.0429374,0,0.0462558,-9636.83,-10556.5,-0,14293.6,169659
step02_gravity_refstate-crust.xmf,165,-1.46507e-06,9.8621e-07,0,-1.25063e-06,-1.14957e+08,-1.14789e+08,-1.14857e+08,-85793.3,0.0221576,-0.0321914,0,0.03908,-10180.3,-4180.74,-0,11005.3,85793.3
step02_gravity_refstate-crust.xmf,166,-1.80485e-06,8.8316e-07,0,-6.96554e-07,-5.70137e+07,-5.68293e+07,-5.68899e+07,-47783.6,0.0264549,-0.0305105,0,0.0403825,-10108.6,-2069.7,-0,10318.3,47783.6
step02_gravity_refstate-crust.xmf,167,-1.96272e-06,7.42908e-07,0,-1.97612e-08,-186524,-917.555,-51881,-1355.62,0.0349508,-0.0249976,0,0.0429702,-11080.7,0,-0,11080.7,1355.62
step02_gravity_refstate-crust.xmf,168,-8.5584e-07,2.43486e-06,0,-3.4051e-06,-4.20769e+08,-4.20544e+08,-4.20711e+08,-233590,0.0189598,-0.0557551,0,0.0588907,-9071.36,-15318.8,-0,17803.3,233590
step02_gravity_refstate-crust.xmf,169,-6.7524e-07,2.6576e-06,0,-3.97024e-06,-4.83224e+08,-4.82995e+08,-4.83177e+08,-272358,0.0209501,-0.0621524,0,0.0655883,-8981.03,-17593.6,-0,19753.3,272358
step02_gravity_refstate-crust.xmf,170,1.26441e-07,1.28112e-06,0,-3.52332e-06,-4.41742e+08,-4.41663e+08,-4.41751e+08,-241700,0.0206975,-0.034131,0,0.0399163,-12686.5,-16084.6,-0,20485.6,241700
step02_gravity_refstate-crust.xmf,171,-4.26349e-08,1.65499e-06,0,-3.75059e-06,-4.6269e+08,-4.62573e+08,-4.62687e+08,-257291,0.0211689,-0.0436229,0,0.0484879,-11434,-16847.1,-0,20360.7,257291
step02_gravity_refstate-crust.xmf,172,-2.53423e-07,2.21459e-06,0,-4.12056e-06,-5.0028e+08,-5.00111e+08,-5.00263e+08,-282670,0.0220004,-0.0565314,0,0.0606615,-9979.67,-18215.6,-0,20770.2,282670
step02_gravity_refstate-crust.xmf,173,3.25317e-07,7.93958e-07,0,-3.0899e-06,-3.99902e+08,-3.9987e+08,-3.99925e+08,-211967,0.0197167,-0.0174775,0,0.0263479,-15082.2,-14561.4,-0,20964.4,211967
step02_gravity_refstate-crust.xmf,174,1.88541e-06,-4.68911e-07,0,-2.69651e-07,-9.84059e+07,-9.85674e+07,-9.85353e+07,-18498.1,0.0110398,0.0596725,0,0.0606852,-34373.9,-3589.47,-0,34560.8,18498.1
step02_gravity_refstate-crust.xmf,175,2.28628e-06,-7.1966e-07,0,-5.31496e-08,-5.6183e+07,-5.63892e+07,-5.63398e+07,-3646.06,0.00473253,0.0624285,0,0.0626076,-37941.8,-2053.53,-0,37997.4,3646.06
step02_gravity_refstate-crust.xmf,176,2.76293e-06,-1.0489e-06,0,6.06114e-09,262439,946.463,72901.2,415.794,9.77002e-19,0.0611692,0,0.0611692,-40000,0,-0,40000,415.794
step02_gravity_refstate-crust.xmf,177,9.7214e-07,3.45607e-08,0,-1.21963e-06,-2.23815e+08,-2.2388e+08,-2.23882e+08,-83666.9,0.0163376,0.0410426,0,0.0441748,-26710.6,-8152.21,-0,27926.9,83666.9
step02_gravity_refstate-crust.xmf,178,8.47372e-07,1.06176e-07,0,-1.49301e-06,-2.5998e+08,-2.60031e+08,-2.60038e+08,-102420,0.0163428,0.0351668,0,0.0387787,-25166.1,-9468.42,-0,26888.4,102420
step02_gravity_refstate-crust.xmf,179,7.67653e-07,1.59939e-07,0,-1.75732e-06,-2.95573e+08,-2.95615e+08,-2.95626e+08,-120552,0.01636,0.0289851,0,0.0332834,-23706.7,-10764,-0,26036,120552
step02_gravity_refstate-crust.xmf,180,7.12768e-07,2.08508e-07,0,-2.01594e-06,-3.24981e+08,-3.25016e+08,-3.2503e+08,-138293,0.0167054,0.0219437,0,0.0275789,-22178.2,-11834.5,-0,25138.2,138293
step02_gravity_refstate-crust.xmf,181,-9.86691e-07,2.35382e-06,0,-3.10992e-06,-3.88331e+08,-3.88102e+08,-3.88263e+08,-213341,0.0178711,-0.054235,0,0.0571035,-8843.36,-14137.2,-0,16675.3,213341
step02_gravity_refstate-crust.xmf,182,-1.09093e-06,2.21759e-06,0,-2.80459e-06,-3.5204e+08,-3.51813e+08,-3.51965e+08,-192395,0.0169014,-0.052119,0,0.0547909,-8670.66,-12815.4,-0,15473,192395
step02_gravity_refstate-crust.xmf,183,-1.18359e-06,2.04577e-06,0,-2.50312e-06,-3.13741e+08,-3.1352e+08,-3.1366e+08,-171714,0.0161465,-0.0499332,0,0.0524789,-8508.05,-11420.5,-0,14241.3,171714
step02_gravity_refstate-crust.xmf,184,-1.23755e-06,1.60432e-06,0,-2.07755e-06,-2.42678e+08,-2.42483e+08,-2.42593e+08,-142520,0.0165024,-0.0433145,0,0.0463517,-8934.81,-8832.41,-0,12563.5,142520
step02_gravity_refstate-crust.xmf,185,-1.39825e-06,1.36922e-06,0,-1.70739e-06,-1.89468e+08,-1.89278e+08,-1.89372e+08,-117127,0.0172037,-0.0408083,0,0.0442864,-8848.64,-6894.22,-0,11217.3,117127
step02_gravity_refstate-crust.xmf,186,-1.59883e-06,1.20086e-06,0,-1.35667e-06,-1.41896e+08,-1.41704e+08,-1.41786e+08,-93067.5,0.0185555,-0.0390677,0,0.0432503,-8726.71,-5161.24,-0,10138.7,93067.5
step02_gravity_refstate-crust.xmf,187,-1.17748e-06,2.96463e-06,0,-3.41131e-06,-4.36684e+08,-4.364e+08,-4.36603e+08,-234016,0.0182736,-0.0643065,0,0.0668524,-7893.75,-15897.7,-0,17749.6,234016
step02_gravity_refstate-crust.xmf,188,-1.11972e-06,3.13334e-06,0,-3.71834e-06,-4.67303e+08,-4.67011e+08,-4.67226e+08,-255078,0.0193754,-0.0677233,0,0.0704404,-7892.23,-17012.9,-0,18754.4,255078
step02_gravity_refstate-crust.xmf,189,-5.1846e-07,2.71151e-06,0,-4.29025e-06,-5.14577e+08,-5.14356e+08,-5.14542e+08,-294311,0.0221227,-0.0650731,0,0.0687308,-9002.1,-18735.8,-0,20786.2,294311
step02_gravity_refstate-crust.xmf,190,-1.01161e-06,3.24923e-06,0,-4.07442e-06,-4.99167e+08,-4.98875e+08,-4.99098e+08,-279505,0.0206947,-0.0711279,0,0.0740773,-7939.17,-18173.6,-0,19832.1,279505
step02_gravity_refstate-crust.xmf,191,-5.65443e-08,1.84183e-06,0,-3.96399e-06,-4.87929e+08,-4.87799e+08,-4.87925e+08,-271930,0.0217749,-0.0492167,0,0.0538185,-10862.9,-17766.2,-0,20824,271930
step02_gravity_refstate-crust.xmf,192,5.21402e-07,3.67051e-07,0,-2.38808e-06,-3.3021e+08,-3.30221e+08,-3.30246e+08,-163822,0.0184257,0.0071952,0,0.0197807,-19210.8,-12024.3,-0,22663.6,163822
step02_gravity_refstate-crust.xmf,193,4.0597e-07,6.12556e-07,0,-2.86854e-06,-3.79092e+08,-3.79078e+08,-3.7912e+08,-196782,0.0192298,-0.00914117,0,0.0212919,-16399.7,-13803.8,-0,21435.9,196782
step02_gravity_refstate-crust.xmf,194,4.71748e-07,4.72451e-07,0,-2.63695e-06,-3.56611e+08,-3.56611e+08,-3.56643e+08,-180895,0.0187666,-0.00081339,0,0.0187842,-17793.8,-12985.4,-0,22028.2,180895
step02_gravity_refstate-crust.xmf,195,4.95337e-07,7.44329e-07,0,-3.23189e-06,-4.39089e+08,-4.39072e+08,-4.39123e+08,-221708,0.0198983,-0.0184844,0,0.0271591,-15096.5,-15988.6,-0,21989.6,221708
step02_gravity_refstate-crust.xmf,196,4.41109e-07,9.33805e-07,0,-3.45986e-06,-4.5952e+08,-4.59487e+08,-4.59551e+08,-237347,0.0205803,-0.0263593,0,0.0334419,-13972.4,-16732.5,-0,21799.2,237347
step02_gravity_refstate-crust.xmf,197,1.38037e-06,-1.48257e-07,0,-5.56756e-07,-1.84662e+08,-1.84767e+08,-1.84757e+08,-38193.4,0.0107469,0.0577166,0,0.0587086,-32726.1,-6728.17,-0,33410.6,38193.4
step02_gravity_refstate-crust.xmf,198,1.88757e-06,-4.37838e-07,0,-1.4683e-07,-1.11765e+08,-1.11924e+08,-1.11894e+08,-10072.5,0.00531622,0.063126,0,0.0633495,-37215.6,-4075.87,-0,37438.1,10072.5
step02_gravity_refstate-crust.xmf,199,1.60128e-06,-2.60629e-07,0,-3.36398e-07,-1.54082e+08,-1.5421e+08,-1.54192e+08,-23076.9,0.00823094,0.0613316,0,0.0618815,-35011.9,-5615.6,-0,35459.4,23076.9
step02_gravity_refstate-crust.xmf,200,2.13756e-06,-6.04594e-07,0,3.25795e-09,-7.80552e+07,-7.82433e+07,-7.82018e+07,223.495,1.07738e-18,0.0635259,0,0.0635259,-40000,-2849.39,-0,40101.4,223.495
step02_gravity_refstate-crust.xmf,201,6.63952e-07,2.60475e-07,0,-2.25744e-06,-3.51915e+08,-3.51942e+08,-3.5196e+08,-154860,0.0171513,0.0146703,0,0.0225696,-20719.4,-12814.9,-0,24362.1,154860
step02_gravity_refstate-crust.xmf,202,1.17393e-06,-3.95279e-08,0,-8.1874e-07,-2.18172e+08,-2.18255e+08,-2.18252e+08,-56165.6,0.012306,0.0530822,0,0.05449,-30642.2,-7947.45,-0,31656.1,56165.6
step02_gravity_refstate-crust.xmf,203,1.0354e-06,3.73029e-08,0,-1.0848e-06,-2.50973e+08,-2.51041e+08,-2.51044e+08,-74417.3,0.013306,0.0477218,0,0.0495421,-28736.7,-9141.17,-0,30155.5,74417.3
step02_gravity_refstate-crust.xmf,204,-1.27741e-06,1.89454e-06,0,-2.23073e-06,-2.78747e+08,-2.78529e+08,-2.78659e+08,-153028,0.0156498,-0.0483249,0,0.0507958,-8308.96,-10145.8,-0,13114,153028
step02_gravity_refstate-crust.xmf,205,-1.88138e-06,1.07788e-06,0,-9.62117e-07,-9.35636e+07,-9.33606e+07,-9.34346e+07,-66001.2,0.0207171,-0.0377704,0,0.043079,-8537.8,-3400.34,-0,9190.01,66001.2
step02_gravity_refstate-crust.xmf,206,-2.52026e-06,9.58256e-07,0,-1.6765e-08,-239325,-698.619,-66435,-1150.08,0.0303767,-0.0326259,0,0.044578,-9029.63,0,-0,9029.63,1150.08
step02_gravity_refstate-crust.xmf,207,-1.26251e-06,2.83422e-06,0,-3.10122e-06,-4.05646e+08,-4.05364e+08,-4.05559e+08,-212744,0.0171211,-0.0618144,0,0.0641417,-7753.79,-14767.2,-0,16679.1,212744
step02_gravity_refstate-crust.xmf,208,-8.14916e-07,3.242e-06,0,-4.45044e-06,-5.29951e+08,-5.29673e+08,-5.29895e+08,-305300,0.0221385,-0.07366,0,0.076915,-8093.08,-19295.1,-0,20923.7,305300
step02_gravity_refstate-crust.xmf,209,-1.22218e-06,4.44536e-06,0,-5.23077e-06,-5.87728e+08,-5.87339e+08,-5.87644e+08,-358831,0.0235137,-0.0930298,0,0.0959554,-6726.32,-21398.7,-0,22431,358831
step02_gravity_refstate-crust.xmf,210,-1.50056e-06,4.55855e-06,0,-4.76972e-06,-5.62427e+08,-5.62012e+08,-5.62324e+08,-327203,0.0218826,-0.0907832,0,0.0933833,-6503.97,-20476.7,-0,21484.8,327203
step02_gravity_refstate-crust.xmf,211,-8.63869e-07,3.7715e-06,0,-5.02487e-06,-5.73304e+08,-5.72986e+08,-5.73245e+08,-344706,0.0235755,-0.0842489,0,0.0874853,-7475.73,-20874.1,-0,22172.3,344706
step02_gravity_refstate-crust.xmf,212,-2.94456e-07,2.64467e-06,0,-4.58653e-06,-5.43834e+08,-5.43632e+08,-5.43814e+08,-314636,0.023257,-0.0671184,0,0.0710336,-9105.12,-19801.7,-0,21794.8,314636
step02_gravity_refstate-crust.xmf,213,-5.61244e-07,3.17518e-06,0,-4.80342e-06,-5.58201e+08,-5.57944e+08,-5.58162e+08,-329514,0.0234633,-0.0755849,0,0.0791429,-8265.26,-20324.5,-0,21940.8,329514
step02_gravity_refstate-crust.xmf,214,-1.1559e-06,3.90291e-06,0,-4.61489e-06,-5.45937e+08,-5.4559e+08,-5.45858e+08,-316582,0.022025,-0.0824067,0,0.0852993,-7237.09,-19876.8,-0,21153.3,316582
step02_gravity_refstate-crust.xmf,215,3.37806e-07,1.19147e-06,0,-3.68952e-06,-4.79369e+08,-4.79311e+08,-4.79392e+08,-253101,0.021293,-0.0349397,0,0.0409166,-12817.5,-17455.1,-0,21655.7,253101
step02_gravity_refstate-crust.xmf,216,-5.39166e-08,2.16054e-06,0,-4.36551e-06,-5.29572e+08,-5.2942e+08,-5.29568e+08,-299474,0.0229352,-0.0585075,0,0.0628423,-10026.8,-19282.7,-0,21733.9,299474
step02_gravity_refstate-crust.xmf,217,1.42428e-07,1.76312e-06,0,-4.1572e-06,-5.16444e+08,-5.16333e+08,-5.16454e+08,-285184,0.0225257,-0.0504276,0,0.05523,-10952.5,-18805,-0,21762,285184
step02_gravity_refstate-crust.xmf,218,2.62214e-07,1.4586e-06,0,-3.93373e-06,-4.99404e+08,-4.99322e+08,-4.99422e+08,-269854,0.0219539,-0.0427771,0,0.0480817,-11849,-18184.6,-0,21704.4,269854
step02_gravity_refstate-crust.xmf,219,5.43046e-07,5.76847e-07,0,-3.00636e-06,-4.1998e+08,-4.19977e+08,-4.20017e+08,-206236,0.0192323,-0.010694,0,0.0220055,-16287.4,-15292.9,-0,22341.7,206236
step02_gravity_refstate-crust.xmf,220,9.23321e-07,9.24471e-08,0,-1.34851e-06,-2.84403e+08,-2.8446e+08,-2.84466e+08,-92508,0.013933,0.0418991,0,0.044155,-26992.6,-10357.8,-0,28911.7,92508
step02_gravity_refstate-crust.xmf,221,8.51384e-07,1.29723e-07,0,-1.60167e-06,-3.16423e+08,-3.16473e+08,-3.16482e+08,-109875,0.0144286,0.0357759,0,0.0385759,-25382.7,-11523.3,-0,27876,109875
step02_gravity_refstate-crust.xmf,222,8.09933e-07,1.57439e-07,0,-1.84999e-06,-3.46423e+08,-3.46468e+08,-3.46479e+08,-126909,0.0149665,0.0291726,0,0.0327877,-23818.5,-12615.4,-0,26953.1,126909
step02_gravity_refstate-crust.xmf,223,7.90155e-07,1.84351e-07,0,-2.09403e-06,-3.73732e+08,-3.73774e+08,-3.73786e+08,-143651,0.0156043,0.0221148,0,0.0270658,-22289.3,-13609.6,-0,26115.8,143651
step02_gravity_refstate-crust.xmf,224,1.16895e-06,1.15794e-09,0,-6.73735e-07,-2.463e+08,-2.4638e+08,-2.4638e+08,-46218.2,0.00903768,0.0578482,0,0.0585499,-32712.4,-8971.54,-0,33920.3,46218.2
step02_gravity_refstate-crust.xmf,225,-1.34534e-06,2.66718e-06,0,-2.77591e-06,-3.71699e+08,-3.71424e+08,-3.71607e+08,-190427,0.0159264,-0.0595851,0,0.0616769,-7525.37,-13530.8,-0,15482.7,190427
step02_gravity_refstate-crust.xmf,226,-1.40569e-06,2.45485e-06,0,-2.46252e-06,-3.34906e+08,-3.34641e+08,-3.3481e+08,-168929,0.0149447,-0.0569731,0,0.0589006,-7348.89,-12190.7,-0,14234.4,168929
step02_gravity_refstate-crust.xmf,227,-1.45913e-06,2.21436e-06,0,-2.16848e-06,-2.96379e+08,-2.96127e+08,-2.96278e+08,-148757,0.0142467,-0.0543191,0,0.0561563,-7203.41,-10787.5,-0,12971.5,148757
step02_gravity_refstate-crust.xmf,228,-1.51292e-06,1.9437e-06,0,-1.89485e-06,-2.54841e+08,-2.54604e+08,-2.54737e+08,-129987,0.0140127,-0.0513522,0,0.0532297,-7159.91,-9274.62,-0,11716.8,129987
step02_gravity_refstate-crust.xmf,229,-1.55716e-06,1.65464e-06,0,-1.67695e-06,-2.12252e+08,-2.12031e+08,-2.12145e+08,-115039,0.0146718,-0.0476261,0,0.0498348,-7412.41,-7723.49,-0,10705,115039
step02_gravity_refstate-crust.xmf,230,-1.71276e-06,1.44265e-06,0,-1.38016e-06,-1.67689e+08,-1.67472e+08,-1.67571e+08,-94679.2,0.0153296,-0.0455276,0,0.0480391,-7298.42,-6100.19,-0,9512.06,94679.2
step02_gravity_refstate-crust.xmf,231,-1.93572e-06,1.27353e-06,0,-1.06555e-06,-1.22425e+08,-1.22204e+08,-1.22292e+08,-73097,0.0166133,-0.0437243,0,0.0467741,-7171.35,-4451.13,-0,8440.43,73097
step02_gravity_refstate-crust.xmf,232,-2.34913e-06,1.05428e-06,0,-4.87658e-07,-4.50073e+07,-4.47738e+07,-4.48462e+07,-33453.4,0.0230284,-0.0379618,0,0.0444005,-7939.86,-1630.66,-0,8105.58,33453.4
step02_gravity_refstate-crust.xmf,233,-1.52451e-06,3.30058e-06,0,-3.07095e-06,-4.22797e+08,-4.22466e+08,-4.22693e+08,-210667,0.0163804,-0.0685981,0,0.0705267,-6836.83,-15391.3,-0,16841.4,210667
step02_gravity_refstate-crust.xmf,234,-1.54033e-06,3.56269e-06,0,-3.35017e-06,-4.51705e+08,-4.51355e+08,-4.516e+08,-229821,0.0173137,-0.0724737,0,0.0745131,-6788.29,-16444.1,-0,17790.1,229821
step02_gravity_refstate-crust.xmf,235,-1.49336e-06,3.77035e-06,0,-3.72858e-06,-4.83775e+08,-4.83414e+08,-4.83673e+08,-255780,0.0186959,-0.0763207,0,0.0785773,-6861.63,-17612.1,-0,18901.5,255780
step02_gravity_refstate-crust.xmf,236,-1.37542e-06,3.89804e-06,0,-4.16467e-06,-5.16186e+08,-5.15824e+08,-5.16092e+08,-285696,0.0203263,-0.0799234,0,0.0824676,-7002.55,-18792.7,-0,20055,285696
step02_gravity_refstate-crust.xmf,237,-1.88021e-06,5.22315e-06,0,-4.88686e-06,-5.77036e+08,-5.76549e+08,-5.76907e+08,-335239,0.0215404,-0.0988575,0,0.101177,-5831.45,-21008.1,-0,21802.4,335239
step02_gravity_refstate-crust.xmf,238,-1.67773e-06,5.23595e-06,0,-5.41072e-06,-6.02077e+08,-6.01602e+08,-6.01962e+08,-371175,0.0231979,-0.102514,0,0.105106,-5961.69,-21920.5,-0,22716.8,371175
step02_gravity_refstate-crust.xmf,239,-9.28482e-07,4.33181e-06,0,-5.6944e-06,-6.13793e+08,-6.13432e+08,-6.13729e+08,-390636,0.0249908,-0.0960673,0,0.0992647,-6845.59,-22348.7,-0,23373.6,390636
step02_gravity_refstate-crust.xmf,240,-5.5152e-07,3.58994e-06,0,-5.39266e-06,-5.98885e+08,-5.98601e+08,-5.98847e+08,-369937,0.0248803,-0.0860603,0,0.0895847,-7652.92,-21806.3,-0,23110.2,369937
step02_gravity_refstate-crust.xmf,241,-2.10382e-08,2.48674e-06,0,-4.84401e-06,-5.71163e+08,-5.70991e+08,-5.71162e+08,-332299,0.0242422,-0.0684722,0,0.072637,-9247.11,-20797.5,-0,22760.6,332299
step02_gravity_refstate-crust.xmf,242,-2.61474e-07,2.99846e-06,0,-5.11529e-06,-5.85019e+08,-5.84795e+08,-5.85001e+08,-350909,0.0246235,-0.0771223,0,0.0809578,-8433.43,-21301.8,-0,22910.5,350909
step02_gravity_refstate-crust.xmf,243,6.55282e-07,3.27386e-07,0,-2.51085e-06,-3.78699e+08,-3.78721e+08,-3.78744e+08,-172244,0.0176908,0.00699222,0,0.0190225,-19288.4,-13790.1,-0,23710.9,172244
step02_gravity_refstate-crust.xmf,244,6.42473e-07,4.20557e-07,0,-2.78321e-06,-4.08509e+08,-4.08524e+08,-4.08553e+08,-190928,0.0183905,-0.0017753,0,0.018476,-17773.2,-14875.4,-0,23176.8,190928
step02_gravity_refstate-crust.xmf,245,6.44451e-07,8.31722e-07,0,-3.57626e-06,-4.96384e+08,-4.96371e+08,-4.96428e+08,-245332,0.0209003,-0.0271299,0,0.034247,-14033.5,-18075.2,-0,22883.5,245332
step02_gravity_refstate-crust.xmf,246,6.69495e-07,5.43605e-07,0,-3.11792e-06,-4.54122e+08,-4.54131e+08,-4.54168e+08,-213890,0.0193498,-0.0124585,0,0.0230137,-16113.6,-16536.3,-0,23088.9,213890
step02_gravity_refstate-crust.xmf,247,7.06431e-07,6.10297e-07,0,-3.30494e-06,-4.78197e+08,-4.78204e+08,-4.78246e+08,-226719,0.0199314,-0.0179817,0,0.026844,-15326.1,-17413.1,-0,23197,226719
step02_gravity_refstate-crust.xmf,248,5.77203e-07,1.05025e-06,0,-3.82025e-06,-5.15317e+08,-5.15284e+08,-5.15356e+08,-262069,0.0217503,-0.0353589,0,0.041513,-12965,-18764.6,-0,22807.9,262069
step02_gravity_refstate-crust.xmf,249,1.34108e-06,-8.61027e-08,0,-3.96178e-07,-2.14932e+08,-2.1503e+08,-2.15024e+08,-27177.8,0.00649241,0.0620751,0,0.0624137,-35282.5,-7830.1,-0,36140.9,27177.8
step02_gravity_refstate-crust.xmf,250,1.48998e-06,-1.65271e-07,0,-1.94056e-07,-1.88051e+08,-1.88165e+08,-1.88154e+08,-13312.2,0.00379473,0.0641535,0,0.0642657,-37476.8,-6851.97,-0,38098,13312.2
step02_gravity_refstate-crust.xmf,251,1.6723e-06,-2.82426e-07,0,9.03719e-10,-1.54154e+08,-1.54288e+08,-1.54269e+08,61.9951,7.66754e-19,0.0647521,0,0.0647521,-40000,-5618.47,-0,40392.7,61.9951
step02_gravity_refstate-crust.xmf,252,7.73502e-07,2.16551e-07,0,-2.32811e-06,-4.00109e+08,-4.00147e+08,-4.00162e+08,-159708,0.0162991,0.014786,0,0.0220065,-20825.7,-14569.8,-0,25416.3,159708
step02_gravity_refstate-crust.xmf,253,1.03738e-06,6.22402e-08,0,-9.2748e-07,-2.78692e+08,-2.78759e+08,-2.78763e+08,-63625.1,0.0104527,0.0531885,0,0.0542058,-30693.7,-10150.3,-0,32328.5,63625.1
step02_gravity_refstate-crust.xmf,254,9.56041e-07,1.02611e-07,0,-1.17904e-06,-3.10596e+08,-3.10654e+08,-3.10661e+08,-80881.9,0.0114613,0.0479178,0,0.0492694,-28850.5,-11311.6,-0,30988.8,80881.9
step02_gravity_refstate-crust.xmf,255,-2.20797e-06,1.17467e-06,0,-7.57969e-07,-8.2484e+07,-8.2252e+07,-8.23326e+07,-51996.7,0.0182994,-0.0424012,0,0.0461815,-7029.21,-2995.8,-0,7640.98,51996.7
step02_gravity_refstate-crust.xmf,256,-3.00669e-06,1.14021e-06,0,-2.00607e-08,-285644,-1167.22,-79385.4,-1376.16,0.0247873,-0.0390871,0,0.046284,-7002.37,0,-0,7002.37,1376.16
step02_gravity_refstate-crust.xmf,257,-1.64946e-06,3.22534e-06,0,-2.69398e-06,-3.93591e+08,-3.93256e+08,-3.93478e+08,-184807,0.0147333,-0.0675162,0,0.0691051,-6352.08,-14327.4,-0,15672.4,184807
step02_gravity_refstate-crust.xmf,258,-1.81575e-06,4.70925e-06,0,-4.24627e-06,-5.35016e+08,-5.34568e+08,-5.34891e+08,-291294,0.0197419,-0.0894907,0,0.0916424,-6064.17,-19477.7,-0,20399.9,291294
step02_gravity_refstate-crust.xmf,259,-2.02452e-06,5.20398e-06,0,-4.45916e-06,-5.56266e+08,-5.5577e+08,-5.56127e+08,-305899,0.0200905,-0.0961578,0,0.0982342,-5671.89,-20251.3,-0,21030.6,305899
step02_gravity_refstate-crust.xmf,260,-1.41676e-06,5.19351e-06,0,-5.96102e-06,-6.27409e+08,-6.26955e+08,-6.27311e+08,-408926,0.0247969,-0.106472,0,0.109322,-6052.28,-22843.7,-0,23631.9,408926
step02_gravity_refstate-crust.xmf,261,-9.90103e-07,5.27016e-06,0,-7.01175e-06,-6.72719e+08,-6.7229e+08,-6.72651e+08,-481006,0.0271254,-0.11678,0,0.119889,-5912.11,-24495.2,-0,25198.5,481006
step02_gravity_refstate-crust.xmf,262,-1.76291e-06,6.24348e-06,0,-6.75248e-06,-6.6109e+08,-6.60541e+08,-6.60969e+08,-463220,0.0256542,-0.121481,0,0.12416,-5326.15,-24070.2,-0,24652.4,463220
step02_gravity_refstate-crust.xmf,263,-1.1266e-06,5.11979e-06,0,-6.47885e-06,-6.50937e+08,-6.50508e+08,-6.5086e+08,-444449,0.0261541,-0.110575,0,0.113626,-6084.16,-23701.4,-0,24469.8,444449
step02_gravity_refstate-crust.xmf,264,1.62359e-07,2.06089e-06,0,-4.57865e-06,-5.56776e+08,-5.56646e+08,-5.56787e+08,-314095,0.0237432,-0.0602167,0,0.0647286,-10073.7,-20273.8,-0,22638.6,314095
step02_gravity_refstate-crust.xmf,265,3.62357e-07,1.62808e-06,0,-4.3156e-06,-5.44126e+08,-5.4404e+08,-5.44151e+08,-296050,0.0231657,-0.0513061,0,0.0562936,-11059.2,-19813.5,-0,22690.9,296050
step02_gravity_refstate-crust.xmf,266,5.34608e-07,1.27811e-06,0,-4.08198e-06,-5.34316e+08,-5.34265e+08,-5.34353e+08,-280024,0.0225382,-0.0430675,0,0.0486084,-12042.9,-19456.4,-0,22882,280024
step02_gravity_refstate-crust.xmf,267,7.09114e-07,4.4233e-07,0,-2.95824e-06,-4.43211e+08,-4.43229e+08,-4.4326e+08,-202936,0.018722,-0.00656754,0,0.0198405,-17046.8,-16139.1,-0,23474.8,202936
step02_gravity_refstate-crust.xmf,268,8.53909e-07,7.01235e-07,0,-3.65986e-06,-5.31742e+08,-5.31752e+08,-5.318e+08,-251067,0.0210942,-0.0278928,0,0.034971,-14065.3,-19363.1,-0,23932.5,251067
step02_gravity_refstate-crust.xmf,269,1.01996e-06,1.03674e-07,0,-7.52598e-07,-3.06842e+08,-3.06904e+08,-3.06912e+08,-51628.2,0.00779666,0.0575761,0,0.0581016,-32635.2,-11175.2,-0,34495.6,51628.2
step02_gravity_refstate-crust.xmf,270,1.13573e-06,4.89253e-08,0,-5.25112e-07,-2.73851e+08,-2.73926e+08,-2.73929e+08,-36022.7,0.00633279,0.0610795,0,0.0614069,-34554.5,-9974.49,-0,35965.4,36022.7
step02_gravity_refstate-crust.xmf,271,8.9637e-07,1.25165e-07,0,-1.4223e-06,-3.40835e+08,-3.40887e+08,-3.40896e+08,-97570,0.0122861,0.0421594,0,0.0439131,-27130.6,-12412.2,-0,29835.1,97570
step02_gravity_refstate-crust.xmf,272,8.65402e-07,1.35993e-07,0,-1.66113e-06,-3.69587e+08,-3.69637e+08,-3.69647e+08,-113953,0.0130578,0.035906,0,0.0382066,-25481.5,-13458.9,-0,28817.5,113953
step02_gravity_refstate-crust.xmf,273,8.57585e-07,1.41642e-07,0,-1.89624e-06,-3.96207e+08,-3.96257e+08,-3.96266e+08,-130082,0.0138576,0.0291991,0,0.0323205,-23887.4,-14428,-0,27906.5,130082
step02_gravity_refstate-crust.xmf,274,8.68883e-07,1.47652e-07,0,-2.12643e-06,-4.22298e+08,-4.22347e+08,-4.22357e+08,-145873,0.0146682,0.0221982,0,0.0266067,-22369.4,-15377.9,-0,27145.4,145873
step02_gravity_refstate-crust.xmf,275,-1.66354e-06,2.9202e-06,0,-2.35525e-06,-3.55463e+08,-3.55149e+08,-3.55349e+08,-161570,0.0135601,-0.0639511,0,0.065373,-6193.2,-12938.8,-0,14344.6,161570
step02_gravity_refstate-crust.xmf,276,-1.67865e-06,2.62566e-06,0,-2.0508e-06,-3.17691e+08,-3.17396e+08,-3.17576e+08,-140685,0.0126175,-0.0608567,0,0.062151,-6010.99,-11563.1,-0,13032.2,140685
step02_gravity_refstate-crust.xmf,277,-1.69544e-06,2.30975e-06,0,-1.78344e-06,-2.77609e+08,-2.77335e+08,-2.77493e+08,-122344,0.0120732,-0.0576105,0,0.0588619,-5913.19,-10103.4,-0,11706.6,122344
step02_gravity_refstate-crust.xmf,278,-1.73437e-06,1.99472e-06,0,-1.54639e-06,-2.35632e+08,-2.35377e+08,-2.35513e+08,-106083,0.0120019,-0.0543768,0,0.0556856,-5899.32,-8574.5,-0,10407.9,106083
step02_gravity_refstate-crust.xmf,279,-1.82918e-06,1.71613e-06,0,-1.30716e-06,-1.92351e+08,-1.92108e+08,-1.92225e+08,-89670.9,0.0123071,-0.0515708,0,0.053019,-5864.35,-6997.98,-0,9130.3,89670.9
step02_gravity_refstate-crust.xmf,280,-2.00137e-06,1.48732e-06,0,-1.04784e-06,-1.47719e+08,-1.4748e+08,-1.47582e+08,-71881.7,0.0129973,-0.0492633,0,0.050949,-5766.03,-5372.06,-0,7880.74,71881.7
step02_gravity_refstate-crust.xmf,281,-2.26522e-06,1.31796e-06,0,-7.68901e-07,-1.01852e+08,-1.01607e+08,-1.01697e+08,-52746.6,0.0143317,-0.0471638,0,0.0492932,-5681.94,-3700.92,-0,6780.95,52746.6
step02_gravity_refstate-crust.xmf,282,-2.67064e-06,1.20584e-06,0,-4.34071e-07,-4.95767e+07,-4.93108e+07,-4.93935e+07,-29777.3,0.017344,-0.0444303,0,0.0476955,-5815.08,-1795.95,-0,6086.1,29777.3
step02_gravity_refstate-crust.xmf,283,-1.87133e-06,3.79725e-06,0,-2.85997e-06,-4.30461e+08,-4.30073e+08,-4.30333e+08,-196194,0.014808,-0.0749959,0,0.0764439,-5760.67,-15669.7,-0,16695,196194
step02_gravity_refstate-crust.xmf,284,-1.92309e-06,4.20723e-06,0,-3.26012e-06,-4.68541e+08,-4.6812e+08,-4.68409e+08,-223644,0.0162172,-0.0804529,0,0.0820711,-5778.41,-17056.4,-0,18008.7,223644
step02_gravity_refstate-crust.xmf,285,-1.91238e-06,4.47733e-06,0,-3.68055e-06,-4.99789e+08,-4.9935e+08,-4.99657e+08,-252486,0.0177476,-0.0847419,0,0.0865804,-5891.16,-18194.5,-0,19124.5,252486
step02_gravity_refstate-crust.xmf,286,-2.45598e-06,5.89144e-06,0,-4.3895e-06,-5.65636e+08,-5.65064e+08,-5.65468e+08,-301119,0.0190887,-0.103012,0,0.104766,-4995.87,-20591.7,-0,21189.1,301119
step02_gravity_refstate-crust.xmf,287,-1.59582e-06,6.31001e-06,0,-7.24901e-06,-6.7837e+08,-6.77828e+08,-6.78261e+08,-497282,0.0266012,-0.126269,0,0.12904,-5259.36,-24700.1,-0,25253.8,497282
step02_gravity_refstate-crust.xmf,288,-1.99621e-06,6.25793e-06,0,-6.19068e-06,-6.40345e+08,-6.39779e+08,-6.40208e+08,-424680,0.0243044,-0.117007,0,0.119505,-5302.97,-23314,-0,23909.5,424680
step02_gravity_refstate-crust.xmf,289,-2.3909e-06,6.1021e-06,0,-4.93742e-06,-5.91062e+08,-5.90479e+08,-5.90898e+08,-338707,0.0207661,-0.107868,0,0.109849,-5087.22,-21518,-0,22111.2,338707
step02_gravity_refstate-crust.xmf,290,-2.23193e-06,6.20984e-06,0,-5.56691e-06,-6.16742e+08,-6.16163e+08,-6.16589e+08,-381890,0.0225962,-0.112656,0,0.1149,-5200.27,-22453.7,-0,23048,381890
step02_gravity_refstate-crust.xmf,291,-6.19063e-07,4.20613e-06,0,-6.15314e-06,-6.39318e+08,-6.38987e+08,-6.39275e+08,-422105,0.0262592,-0.0997211,0,0.10312,-6875.97,-23279,-0,24273.3,422105
step02_gravity_refstate-crust.xmf,292,-2.50954e-07,4.04689e-06,0,-6.64522e-06,-6.66457e+08,-6.66162e+08,-6.66439e+08,-455862,0.0274027,-0.10432,0,0.107859,-6831.27,-24268.3,-0,25211.4,455862
step02_gravity_refstate-crust.xmf,293,-9.36888e-07,5.57416e-06,0,-7.54448e-06,-6.90859e+08,-6.90413e+08,-6.90795e+08,-517552,0.0277805,-0.123919,0,0.126995,-5641.27,-25156.3,-0,25781,517552
step02_gravity_refstate-crust.xmf,294,-1.83711e-06,7.01987e-06,0,-7.73201e-06,-6.92431e+08,-6.91823e+08,-6.92305e+08,-530416,0.026833,-0.134539,0,0.137189,-4892.03,-25212.1,-0,25682.3,530416
step02_gravity_refstate-crust.xmf,295,-1.02304e-06,6.11635e-06,0,-8.17968e-06,-7.08939e+08,-7.08449e+08,-7.08868e+08,-561126,0.0282721,-0.133435,0,0.136398,-5244.74,-25815,-0,26342.3,561126
step02_gravity_refstate-crust.xmf,296,-2.14666e-07,3.39902e-06,0,-5.77199e-06,-6.25946e+08,-6.25698e+08,-6.25931e+08,-395959,0.0260428,-0.0888188,0,0.0925581,-7721.9,-22792.6,-0,24065.1,395959
step02_gravity_refstate-crust.xmf,297,5.4994e-08,2.79134e-06,0,-5.40115e-06,-6.11094e+08,-6.10906e+08,-6.11097e+08,-370519,0.0255775,-0.0789105,0,0.0829523,-8534.64,-22252,-0,23832.6,370519
step02_gravity_refstate-crust.xmf,298,4.15674e-07,1.89296e-06,0,-4.75677e-06,-5.822e+08,-5.82099e+08,-5.82229e+08,-326314,0.0243767,-0.061301,0,0.06597,-10160.4,-21200.2,-0,23509.2,326314
step02_gravity_refstate-crust.xmf,299,2.64182e-07,2.2929e-06,0,-5.06311e-06,-5.9668e+08,-5.9654e+08,-5.96698e+08,-347330,0.0250143,-0.069739,0,0.0740894,-9352.58,-21727.3,-0,23654.8,347330
step02_gravity_refstate-crust.xmf,300,7.98403e-07,2.60423e-07,0,-2.57288e-06,-4.26929e+08,-4.26966e+08,-4.26984e+08,-176500,0.0170565,0.00717365,0,0.0185037,-19417.8,-15546.4,-0,24874.5,176500
step02_gravity_refstate-crust.xmf,301,8.67119e-07,5.49842e-07,0,-3.41524e-06,-5.14276e+08,-5.14298e+08,-5.14336e+08,-234285,0.0201664,-0.0201831,0,0.0285314,-15110.7,-18727.1,-0,24063.2,234285
step02_gravity_refstate-crust.xmf,302,8.4397e-07,3.87545e-07,0,-3.04099e-06,-4.78637e+08,-4.78668e+08,-4.78695e+08,-208612,0.0187302,-0.00811635,0,0.0204131,-16880.5,-17429.3,-0,24263.8,208612
step02_gravity_refstate-crust.xmf,303,8.28345e-07,3.06196e-07,0,-2.79748e-06,-4.54809e+08,-4.54845e+08,-4.54866e+08,-191907,0.0177953,-5.29133e-05,0,0.0177953,-18179.4,-16561.6,-0,24592.2,191907
step02_gravity_refstate-crust.xmf,304,8.24248e-07,8.79974e-07,0,-3.91363e-06,-5.50531e+08,-5.50527e+08,-5.50587e+08,-268475,0.0220348,-0.0359161,0,0.0421367,-13056.4,-20047.3,-0,23924.1,268475
step02_gravity_refstate-crust.xmf,305,9.79434e-07,1.56355e-07,0,-5.80634e-07,-3.36454e+08,-3.3651e+08,-3.36521e+08,-39831.5,0.00551361,0.0606283,0,0.0608785,-34414.7,-12253.1,-0,36531,39831.5
step02_gravity_refstate-crust.xmf,306,1.19702e-06,3.24142e-08,0,-2.50646e-07,-2.64793e+08,-2.64873e+08,-2.64875e+08,-17194.3,0.00319119,0.0642414,0,0.0643206,-37347,-9644.94,-0,38572.3,17194.3
step02_gravity_refstate-crust.xmf,307,1.33637e-06,-5.53534e-08,0,4.80689e-10,-2.2825e+08,-2.28346e+08,-2.28342e+08,32.9753,6.43777e-19,0.0652054,0,0.0652054,-40000,-8315,-0,40855.1,32.9753
step02_gravity_refstate-crust.xmf,308,8.82102e-07,1.58374e-07,0,-2.35033e-06,-4.48038e+08,-4.48087e+08,-4.48098e+08,-161233,0.0155248,0.0148908,0,0.0215117,-20910.8,-16315.1,-0,26522.5,161233
step02_gravity_refstate-crust.xmf,309,9.40401e-07,1.33608e-07,0,-9.91608e-07,-3.37754e+08,-3.37809e+08,-3.37818e+08,-68024.3,0.00905762,0.0530291,0,0.0537971,-30713.9,-12300.3,-0,33085.3,68024.3
step02_gravity_refstate-crust.xmf,310,9.01873e-07,1.45729e-07,0,-1.22703e-06,-3.67702e+08,-3.67754e+08,-3.67764e+08,-84173.9,0.0100914,0.0478056,0,0.0488591,-28898.7,-13390.4,-0,31850.2,84173.9
step02_gravity_refstate-crust.xmf,311,-3.40401e-06,1.29709e-06,0,-1.18461e-08,-323126,-630.638,-89611.3,-812.645,0.0183636,-0.0441545,0,0.047821,-4992.34,0,-0,4992.34,812.645
step02_gravity_refstate-crust.xmf,312,-1.94073e-06,3.6452e-06,0,-2.45447e-06,-4.02179e+08,-4.01796e+08,-4.02046e+08,-168376,0.0130937,-0.0731773,0,0.0743395,-5308.61,-14639.5,-0,15572.3,168376
step02_gravity_refstate-crust.xmf,313,-2.43369e-06,5.5971e-06,0,-3.94767e-06,-5.41211e+08,-5.4066e+08,-5.41044e+08,-270810,0.0177202,-0.0981249,0,0.0997121,-4963.99,-19702.2,-0,20317.9,270810
step02_gravity_refstate-crust.xmf,314,-2.07354e-06,7.70106e-06,0,-8.34437e-06,-7.09318e+08,-7.08648e+08,-7.09176e+08,-572423,0.0271629,-0.144439,0,0.146971,-4515.23,-25827,-0,26218.7,572423
step02_gravity_refstate-crust.xmf,315,-2.47641e-06,7.54712e-06,0,-6.99929e-06,-6.71851e+08,-6.71163e+08,-6.71681e+08,-480151,0.0248697,-0.132566,0,0.134879,-4620.59,-24461.1,-0,24893.6,480151
step02_gravity_refstate-crust.xmf,316,-2.44522e-06,7.07945e-06,0,-6.38786e-06,-6.51972e+08,-6.51319e+08,-6.51805e+08,-438207,0.0239368,-0.125304,0,0.12757,-4793.22,-23736.8,-0,24215.9,438207
step02_gravity_refstate-crust.xmf,317,-1.15578e-06,6.69464e-06,0,-8.86714e-06,-7.26473e+08,-7.25935e+08,-7.26394e+08,-608286,0.0286756,-0.14361,0,0.146445,-4857.18,-26453.7,-0,26895.9,608286
step02_gravity_refstate-crust.xmf,318,-2.41762e-07,4.36825e-06,0,-7.21817e-06,-6.89173e+08,-6.88857e+08,-6.89157e+08,-495166,0.0281351,-0.113594,0,0.117026,-6378.94,-25095.8,-0,25893.8,495166
step02_gravity_refstate-crust.xmf,319,-1.89757e-07,4.71632e-06,0,-7.81481e-06,-7.08219e+08,-7.07883e+08,-7.08206e+08,-536096,0.0286895,-0.122373,0,0.125692,-5979.16,-25790,-0,26474,536096
step02_gravity_refstate-crust.xmf,320,5.01978e-07,1.60725e-06,0,-4.50044e-06,-5.6859e+08,-5.68514e+08,-5.68624e+08,-308731,0.0237611,-0.0543074,0,0.059278,-10869.5,-20704.6,-0,23384.3,308731
step02_gravity_refstate-crust.xmf,321,7.63146e-07,1.17015e-06,0,-4.25563e-06,-5.67958e+08,-5.6793e+08,-5.6801e+08,-291936,0.0230894,-0.0455478,0,0.0510659,-11919.4,-20682,-0,23870.8,291936
step02_gravity_refstate-crust.xmf,322,9.0131e-07,4.16866e-07,0,-3.2059e-06,-5.04398e+08,-5.04431e+08,-5.04459e+08,-219925,0.0192941,-0.013308,0,0.0234385,-16119.8,-18367.4,-0,24437.8,219925
step02_gravity_refstate-crust.xmf,323,1.04721e-06,4.21981e-07,0,-3.443e-06,-5.47962e+08,-5.48005e+08,-5.48034e+08,-236190,0.0200781,-0.0206869,0,0.0288284,-15124,-19954,-0,25037.9,236190
step02_gravity_refstate-crust.xmf,324,1.0698e-06,5.33554e-07,0,-3.69013e-06,-5.66059e+08,-5.66095e+08,-5.66132e+08,-253143,0.021039,-0.0281903,0,0.0351758,-14129.9,-20613.1,-0,24991,253143
step02_gravity_refstate-crust.xmf,325,9.08749e-07,1.80474e-07,0,-7.93772e-07,-3.65407e+08,-3.65457e+08,-3.65469e+08,-54452.8,0.00679451,0.0571719,0,0.0575742,-32585.6,-13307,-0,35197.9,54452.8
step02_gravity_refstate-crust.xmf,326,1.04908e-06,1.22994e-07,0,-3.9276e-07,-3.12133e+08,-3.12197e+08,-3.12205e+08,-26943.4,0.00410046,0.0629822,0,0.0631156,-36113,-11368,-0,37860,26943.4
step02_gravity_refstate-crust.xmf,327,8.80969e-07,1.43397e-07,0,-1.45413e-06,-3.9475e+08,-3.948e+08,-3.9481e+08,-99753.1,0.0110358,0.0420721,0,0.0434954,-27181.3,-14375,-0,30748.4,99753.1
step02_gravity_refstate-crust.xmf,328,8.82645e-07,1.32517e-07,0,-1.67934e-06,-4.20401e+08,-4.20453e+08,-4.20462e+08,-115203,0.0119597,0.0357907,0,0.0377361,-25515.6,-15308.9,-0,29755.8,115203
step02_gravity_refstate-crust.xmf,329,9.03322e-07,1.18281e-07,0,-1.90012e-06,-4.45402e+08,-4.45455e+08,-4.45464e+08,-130349,0.0128703,0.0291225,0,0.0318396,-23923.5,-16219.1,-0,28903.2,130349
step02_gravity_refstate-crust.xmf,330,9.41163e-07,1.03846e-07,0,-2.11463e-06,-4.7052e+08,-4.70577e+08,-4.70584e+08,-145064,0.0137659,0.0222217,0,0.02614,-22421.1,-17133.7,-0,28218.3,145064
step02_gravity_refstate-crust.xmf,331,-1.91437e-06,3.33565e-06,0,-2.17193e-06,-3.70484e+08,-3.70123e+08,-3.70352e+08,-148994,0.0120309,-0.0697312,0,0.0707615,-5158.98,-13485.2,-0,14438.4,148994
step02_gravity_refstate-crust.xmf,332,-1.93448e-06,3.11037e-06,0,-1.84728e-06,-3.40729e+08,-3.40383e+08,-3.40596e+08,-126723,0.0107162,-0.067603,0,0.0684471,-4766.82,-12401.6,-0,13286.1,126723
step02_gravity_refstate-crust.xmf,333,-1.89668e-06,2.72326e-06,0,-1.59541e-06,-3.0092e+08,-3.00603e+08,-3.0079e+08,-109445,0.0100221,-0.063682,0,0.0644658,-4669.55,-10951.8,-0,11905.8,109445
step02_gravity_refstate-crust.xmf,334,-1.89388e-06,2.35393e-06,0,-1.36457e-06,-2.59528e+08,-2.59236e+08,-2.59398e+08,-93609.3,0.00958906,-0.0601409,0,0.0609006,-4571.84,-9444.35,-0,10492.7,93609.3
step02_gravity_refstate-crust.xmf,335,-1.94162e-06,2.02096e-06,0,-1.1506e-06,-2.17215e+08,-2.16943e+08,-2.17082e+08,-78931.3,0.00945709,-0.0570324,0,0.0578112,-4474.22,-7903.21,-0,9081.81,78931.3
step02_gravity_refstate-crust.xmf,336,-2.05805e-06,1.73156e-06,0,-9.39648e-07,-1.73417e+08,-1.73157e+08,-1.73275e+08,-64459.9,0.00965287,-0.0543062,0,0.0551574,-4366.54,-6307.76,-0,7671.67,64459.9
step02_gravity_refstate-crust.xmf,337,-2.27178e-06,1.49931e-06,0,-7.16259e-07,-1.27509e+08,-1.2725e+08,-1.27353e+08,-49135.4,0.010212,-0.05192,0,0.0529147,-4228.52,-4635.23,-0,6274.21,49135.4
step02_gravity_refstate-crust.xmf,338,-2.59469e-06,1.35039e-06,0,-4.82409e-07,-8.18946e+07,-8.1624e+07,-8.17166e+07,-33093.2,0.0112288,-0.0498375,0,0.0510868,-4094.19,-2973.05,-0,5059.78,33093.2
step02_gravity_refstate-crust.xmf,339,-3.05604e-06,1.30047e-06,0,-2.29707e-07,-3.66998e+07,-3.64009e+07,-3.64901e+07,-15757.9,0.0128888,-0.0478259,0,0.0495322,-4007.13,-1325.74,-0,4220.75,15757.9
step02_gravity_refstate-crust.xmf,340,-2.37811e-06,5.23794e-06,0,-3.5237e-06,-5.13675e+08,-5.13152e+08,-5.13512e+08,-241726,0.0163465,-0.0928351,0,0.0942632,-4942.21,-18699.3,-0,19341.4,241726
step02_gravity_refstate-crust.xmf,341,-2.2026e-06,4.13963e-06,0,-2.33954e-06,-4.20933e+08,-4.20498e+08,-4.20782e+08,-160493,0.0120502,-0.0788818,0,0.0797969,-4550.96,-15322,-0,15983.6,160493
step02_gravity_refstate-crust.xmf,342,-2.27641e-06,4.52666e-06,0,-2.69533e-06,-4.53332e+08,-4.52866e+08,-4.53176e+08,-184900,0.0133689,-0.0833979,0,0.0844626,-4691.1,-16501.8,-0,17155.6,184900
step02_gravity_refstate-crust.xmf,343,-2.34219e-06,4.89183e-06,0,-3.07007e-06,-4.83345e+08,-4.82849e+08,-4.83185e+08,-210607,0.0147338,-0.0879949,0,0.0892198,-4804.77,-17594.8,-0,18239,210607
step02_gravity_refstate-crust.xmf,344,-2.91432e-06,8.6217e-06,0,-7.60488e-06,-6.91852e+08,-6.91061e+08,-6.91652e+08,-521695,0.0250633,-0.144137,0,0.1463,-4164.2,-25189.1,-0,25531,521695
step02_gravity_refstate-crust.xmf,345,-2.95548e-06,6.42318e-06,0,-3.7351e-06,-5.53324e+08,-5.52681e+08,-5.53122e+08,-256228,0.0161251,-0.105928,0,0.107148,-4143.38,-20142.3,-0,20564.1,256228
step02_gravity_refstate-crust.xmf,346,-2.99743e-06,6.7675e-06,0,-4.26666e-06,-5.78356e+08,-5.77686e+08,-5.7815e+08,-292693,0.0177751,-0.111227,0,0.112639,-4252.53,-21054,-0,21479.1,292693
step02_gravity_refstate-crust.xmf,347,-2.76833e-06,7.25711e-06,0,-5.76818e-06,-6.33103e+08,-6.32416e+08,-6.32913e+08,-395697,0.022103,-0.122582,0,0.124559,-4578.03,-23048.8,-0,23499.1,395697
step02_gravity_refstate-crust.xmf,348,-3.04579e-06,7.22421e-06,0,-4.96846e-06,-6.08804e+08,-6.08099e+08,-6.08595e+08,-340836,0.0196621,-0.118792,0,0.120408,-4281.58,-22163,-0,22572.8,340836
step02_gravity_refstate-crust.xmf,349,-2.32808e-06,8.66679e-06,0,-9.1183e-06,-7.26433e+08,-7.25679e+08,-7.26274e+08,-625515,0.0274517,-0.155255,0,0.157663,-4148.62,-26450.5,-0,26773.9,625515
step02_gravity_refstate-crust.xmf,350,-1.54652e-07,5.08044e-06,0,-8.45669e-06,-7.26351e+08,-7.25992e+08,-7.26341e+08,-580129,0.0291344,-0.131712,0,0.134896,-5583.6,-26450.8,-0,27033.7,580129
step02_gravity_refstate-crust.xmf,351,-1.2244e-06,7.30279e-06,0,-9.66161e-06,-7.43407e+08,-7.42822e+08,-7.43323e+08,-662786,0.0289832,-0.154139,0,0.15684,-4499.07,-27070.8,-0,27442.2,662786
step02_gravity_refstate-crust.xmf,352,-2.57334e-06,9.6034e-06,0,-9.97035e-06,-7.4283e+08,-7.41994e+08,-7.42653e+08,-683966,0.0276635,-0.166449,0,0.168732,-3812.65,-27047.9,-0,27315.3,683966
step02_gravity_refstate-crust.xmf,353,-1.2324e-06,8.01857e-06,0,-1.06208e-05,-7.59942e+08,-7.59307e+08,-7.59858e+08,-728586,0.0291303,-0.165527,0,0.168071,-4146.75,-27673.9,-0,27982.8,728586
step02_gravity_refstate-crust.xmf,354,-2.88211e-06,1.05342e-05,0,-1.08853e-05,-7.58327e+08,-7.57406e+08,-7.58129e+08,-746728,0.0276878,-0.178477,0,0.180611,-3479.72,-27612.3,-0,27830.7,746728
step02_gravity_refstate-crust.xmf,355,1.28849e-07,3.17909e-06,0,-6.11511e-06,-6.51374e+08,-6.51165e+08,-6.51383e+08,-419496,0.0269388,-0.0918862,0,0.0957537,-7720.59,-23719.4,-0,24944.2,419496
step02_gravity_refstate-crust.xmf,356,4.1402e-07,3.28916e-06,0,-6.83704e-06,-6.89093e+08,-6.88895e+08,-6.89121e+08,-469021,0.0280576,-0.10295,0,0.106704,-7178.98,-25093.9,-0,26100.6,469021
step02_gravity_refstate-crust.xmf,357,4.07768e-07,2.53762e-06,0,-5.6725e-06,-6.38059e+08,-6.37913e+08,-6.38087e+08,-389134,0.0263494,-0.0810837,0,0.0852576,-8578.15,-23234.7,-0,24767.7,389134
step02_gravity_refstate-crust.xmf,358,5.89378e-07,2.03433e-06,0,-5.24936e-06,-6.22844e+08,-6.22745e+08,-6.22885e+08,-360106,0.0255948,-0.0708772,0,0.0753569,-9448.41,-22680.8,-0,24570.1,360106
step02_gravity_refstate-crust.xmf,359,7.86475e-07,1.34487e-06,0,-4.55668e-06,-5.91888e+08,-5.91849e+08,-5.91942e+08,-312588,0.0239633,-0.0532756,0,0.0584169,-11134.8,-21553.5,-0,24259.8,312588
step02_gravity_refstate-crust.xmf,360,7.11218e-07,1.65118e-06,0,-4.8888e-06,-6.08197e+08,-6.08133e+08,-6.08246e+08,-335371,0.0248122,-0.0618791,0,0.0666683,-10281.2,-22147.5,-0,24417.5,335371
step02_gravity_refstate-crust.xmf,361,9.36181e-07,1.75745e-07,0,-2.577e-06,-4.74179e+08,-4.74231e+08,-4.74243e+08,-176782,0.0163846,0.00757597,0,0.0180513,-19560.1,-17267,-0,26091.1,176782
step02_gravity_refstate-crust.xmf,362,1.03409e-06,3.23164e-07,0,-3.2134e-06,-5.33056e+08,-5.33104e+08,-5.33127e+08,-220439,0.0191153,-0.0135046,0,0.0234045,-16148.6,-19411.1,-0,25250.1,220439
step02_gravity_refstate-crust.xmf,363,9.81131e-07,2.06679e-07,0,-2.80137e-06,-4.98325e+08,-4.98378e+08,-4.98392e+08,-192174,0.017314,9.74995e-05,0,0.0173143,-18274.8,-18146.3,-0,25753.7,192174
step02_gravity_refstate-crust.xmf,364,1.01732e-06,2.53059e-07,0,-3.01168e-06,-5.18041e+08,-5.18094e+08,-5.18111e+08,-206601,0.0182364,-0.00696775,0,0.0195222,-17139.1,-18864.3,-0,25487.5,206601
step02_gravity_refstate-crust.xmf,365,1.0631e-06,6.85457e-07,0,-3.96192e-06,-5.84048e+08,-5.84074e+08,-5.84121e+08,-271788,0.0220665,-0.0364042,0,0.0425699,-13116.3,-21268.2,-0,24987.5,271788
step02_gravity_refstate-crust.xmf,366,8.63108e-07,2.34739e-07,0,-6.01565e-07,-3.92627e+08,-3.9267e+08,-3.92687e+08,-41267.4,0.00483111,0.0601284,0,0.0603222,-34349.9,-14297.8,-0,37206.8,41267.4
step02_gravity_refstate-crust.xmf,367,9.10697e-07,2.16084e-07,0,-4.07159e-07,-3.67989e+08,-3.68036e+08,-3.68051e+08,-27931.1,0.00353849,0.0626401,0,0.06274,-36115.4,-13401,-0,38521.5,27931.1
step02_gravity_refstate-crust.xmf,368,9.85438e-07,1.75197e-07,0,-2.14076e-07,-3.37991e+08,-3.38047e+08,-3.38059e+08,-14685.6,0.00205971,0.0643365,0,0.0643694,-37913.2,-12309.2,-0,39861.4,14685.6
step02_gravity_refstate-crust.xmf,369,1.08938e-06,1.09289e-07,0,-4.74092e-10,-3.00557e+08,-3.00624e+08,-3.00631e+08,-32.5227,4.14509e-19,0.065135,0,0.065135,-40000,-10946.6,-0,41470.8,32.5227
step02_gravity_refstate-crust.xmf,370,9.80802e-07,9.20876e-08,0,-2.32123e-06,-4.95583e+08,-4.95644e+08,-4.9565e+08,-159236,0.0146751,0.0151098,0,0.0210633,-20996,-18046.3,-0,27685.8,159236
step02_gravity_refstate-crust.xmf,371,8.66636e-07,1.87497e-07,0,-1.01309e-06,-3.94263e+08,-3.94309e+08,-3.94322e+08,-69498,0.00792629,0.052785,0,0.0533768,-30747.9,-14357.3,-0,33934.7,69498
step02_gravity_refstate-crust.xmf,372,8.17749e-07,2.44891e-07,0,-7.92887e-07,-4.20845e+08,-4.20885e+08,-4.20901e+08,-54392,0.00587461,0.0568614,0,0.0571641,-32644.3,-15325,-0,36062.5,54392
step02_gravity_refstate-crust.xmf,373,8.59708e-07,1.77948e-07,0,-1.23425e-06,-4.22203e+08,-4.22249e+08,-4.22262e+08,-84669.3,0.00896336,0.0475725,0,0.0484095,-28928.1,-15374.5,-0,32759.8,84669.3
step02_gravity_refstate-crust.xmf,374,-2.13317e-06,3.81151e-06,0,-2.08876e-06,-3.93358e+08,-3.9295e+08,-3.93212e+08,-143289,0.0111388,-0.075243,0,0.076063,-4458.53,-14317.9,-0,14996,143289
step02_gravity_refstate-crust.xmf,375,-3.67189e-06,1.39176e-06,0,-1.6909e-08,-348870,-1503.62,-96978.4,-1159.95,0.0112826,-0.0476496,0,0.0489672,-2992.92,0,-0,2992.92,1159.95
step02_gravity_refstate-crust.xmf,376,-2.86589e-06,6.00403e-06,0,-3.24587e-06,-5.25853e+08,-5.25244e+08,-5.25656e+08,-222667,0.0145391,-0.100294,0,0.101343,-4042.09,-19141.9,-0,19564,222667
step02_gravity_refstate-crust.xmf,377,-3.32047e-06,9.55594e-06,0,-8.23262e-06,-7.0962e+08,-7.08737e+08,-7.09392e+08,-564758,0.0252388,-0.155067,0,0.157108,-3794.71,-25835.8,-0,26113,564758
step02_gravity_refstate-crust.xmf,378,-3.18885e-06,8.13459e-06,0,-6.16818e-06,-6.53441e+08,-6.52664e+08,-6.53222e+08,-423137,0.0222174,-0.132574,0,0.134422,-4147.57,-23788.9,-0,24147.7,423137
step02_gravity_refstate-crust.xmf,379,-3.50348e-06,7.62889e-06,0,-4.18242e-06,-5.92977e+08,-5.92214e+08,-5.92737e+08,-286914,0.0166518,-0.119181,0,0.120339,-3653.48,-21585.6,-0,21892.6,286914
step02_gravity_refstate-crust.xmf,380,-3.7498e-06,1.08278e-05,0,-8.97979e-06,-7.26515e+08,-7.25515e+08,-7.26258e+08,-616014,0.0253671,-0.166314,0,0.168237,-3461.35,-26451.1,-0,26676.6,616014
step02_gravity_refstate-crust.xmf,381,-4.23873e-06,1.21486e-05,0,-9.7886e-06,-7.42604e+08,-7.4148e+08,-7.42313e+08,-671498,0.0253694,-0.178189,0,0.179986,-3144.66,-27036.9,-0,27219.2,671498
step02_gravity_refstate-crust.xmf,382,-1.23698e-07,5.43463e-06,0,-9.14052e-06,-7.43798e+08,-7.43416e+08,-7.43789e+08,-627039,0.0294458,-0.141468,0,0.1445,-5206.09,-27086.6,-0,27582.4,627039
step02_gravity_refstate-crust.xmf,383,-1.44655e-06,9.01292e-06,0,-1.16152e-05,-7.74089e+08,-7.73372e+08,-7.7399e+08,-796801,0.0289533,-0.178213,0,0.180549,-3758.32,-28189.6,-0,28439,796801
step02_gravity_refstate-crust.xmf,384,3.69262e-07,3.06273e-06,0,-6.4175e-06,-6.72404e+08,-6.72219e+08,-6.72429e+08,-440240,0.0275408,-0.0958476,0,0.099726,-7587.7,-24485.8,-0,25634.5,440240
step02_gravity_refstate-crust.xmf,385,4.54391e-07,3.53196e-06,0,-7.3429e-06,-7.07885e+08,-7.07674e+08,-7.07917e+08,-503723,0.0285769,-0.111422,0,0.115028,-6730.41,-25778.6,-0,26642.7,503723
step02_gravity_refstate-crust.xmf,386,5.81939e-07,3.73133e-06,0,-7.8899e-06,-7.26229e+08,-7.26013e+08,-7.26269e+08,-541247,0.0289738,-0.119833,0,0.123286,-6329.73,-26447.2,-0,27194.1,541247
step02_gravity_refstate-crust.xmf,387,1.17843e-06,1.95644e-07,0,-3.1741e-06,-5.64867e+08,-5.64935e+08,-5.64948e+08,-217743,0.018662,-0.0131347,0,0.0228209,-16248.9,-20569.6,-0,26213.3,217743
step02_gravity_refstate-crust.xmf,388,1.23015e-06,2.55039e-07,0,-3.40308e-06,-5.82172e+08,-5.82239e+08,-5.82256e+08,-233451,0.0196295,-0.020324,0,0.0282557,-15234.5,-21199.9,-0,26106.1,233451
step02_gravity_refstate-crust.xmf,389,1.27944e-06,3.3772e-07,0,-3.66009e-06,-5.99844e+08,-5.99909e+08,-5.99932e+08,-251082,0.0206485,-0.0280668,0,0.034844,-14216.9,-21843.6,-0,26062.7,251082
step02_gravity_refstate-crust.xmf,390,8.68986e-07,1.54682e-07,0,-1.45323e-06,-4.46842e+08,-4.46891e+08,-4.46901e+08,-99691.7,0.00999138,0.0416963,0,0.0428767,-27154.8,-16271.5,-0,31656.6,99691.7
step02_gravity_refstate-crust.xmf,391,8.96049e-07,1.25508e-07,0,-1.6677e-06,-4.69622e+08,-4.69675e+08,-4.69684e+08,-114404,0.0109996,0.0353629,0,0.0370341,-25465.4,-17100.9,-0,30674.5,114404
step02_gravity_refstate-crust.xmf,392,9.38592e-07,9.37804e-08,0,-1.86248e-06,-4.93755e+08,-4.93813e+08,-4.9382e+08,-127766,0.0118687,0.0290532,0,0.031384,-23950.8,-17979.6,-0,29948.4,127766
step02_gravity_refstate-crust.xmf,393,9.96636e-07,6.03939e-08,0,-2.05751e-06,-5.17793e+08,-5.17858e+08,-5.17862e+08,-141145,0.0127661,0.0223255,0,0.0257178,-22473.1,-18854.9,-0,29335.1,141145
step02_gravity_refstate-crust.xmf,394,7.60735e-07,3.06977e-07,0,-5.80164e-07,-4.45922e+08,-4.45953e+08,-4.45974e+08,-39799.2,0.0040753,0.0598236,0,0.0599623,-34495.8,-16237.8,-0,38126.4,39799.2
step02_gravity_refstate-crust.xmf,395,-2.10683e-06,3.18322e-06,0,-1.35487e-06,-3.26033e+08,-3.2567e+08,-3.25889e+08,-92943.9,0.00797556,-0.0694559,0,0.0699124,-3512.12,-11866,-0,12374.8,92943.9
step02_gravity_refstate-crust.xmf,396,-2.1909e-06,3.66166e-06,0,-1.65868e-06,-3.67787e+08,-3.67386e+08,-3.67637e+08,-113785,0.00907989,-0.0740204,0,0.0745752,-3748.65,-13386.5,-0,13901.4,113785
step02_gravity_refstate-crust.xmf,397,-2.05191e-06,2.73758e-06,0,-1.12197e-06,-2.83893e+08,-2.83565e+08,-2.83753e+08,-76967.1,0.00726448,-0.0653176,0,0.0657203,-3340.05,-10331.4,-0,10857.8,76967.1
step02_gravity_refstate-crust.xmf,398,-2.04758e-06,2.33995e-06,0,-9.27088e-07,-2.41558e+08,-2.41257e+08,-2.41418e+08,-63598.3,0.00683433,-0.0617214,0,0.0620986,-3187.52,-8789.51,-0,9349.64,63598.3
step02_gravity_refstate-crust.xmf,399,-2.10891e-06,1.99302e-06,0,-7.50268e-07,-1.98421e+08,-1.98139e+08,-1.98276e+08,-51468.4,0.00663771,-0.0586042,0,0.0589789,-3033.68,-7218.25,-0,7829.84,51468.4
step02_gravity_refstate-crust.xmf,400,-2.25752e-06,1.70107e-06,0,-5.78737e-07,-1.53557e+08,-1.53285e+08,-1.53402e+08,-39701.3,0.00665645,-0.0558721,0,0.0562673,-2861.71,-5583.88,-0,6274.48,39701.3
step02_gravity_refstate-crust.xmf,401,-2.53006e-06,1.4845e-06,0,-3.95618e-07,-1.06621e+08,-1.06346e+08,-1.06448e+08,-27139.4,0.00673854,-0.053526,0,0.0539485,-2600.71,-3873.72,-0,4665.77,27139.4
step02_gravity_refstate-crust.xmf,402,-3.04699e-06,1.37155e-06,0,-2.03737e-07,-5.22016e+07,-5.18984e+07,-5.19925e+07,-13976.4,0.00692536,-0.0511372,0,0.051604,-2242.55,-1890.25,-0,2932.93,13976.4
step02_gravity_refstate-crust.xmf,403,-2.76923e-06,5.57861e-06,0,-2.78173e-06,-4.96829e+08,-4.96256e+08,-4.96639e+08,-190827,0.0129177,-0.0949444,0,0.0958191,-3887.06,-18085,-0,18498,190827
step02_gravity_refstate-crust.xmf,404,-2.38418e-06,4.2339e-06,0,-1.79197e-06,-4.05383e+08,-4.04929e+08,-4.05219e+08,-122929,0.00930528,-0.0800422,0,0.0805813,-3524.53,-14755.3,-0,15170.4,122929
step02_gravity_refstate-crust.xmf,405,-2.53631e-06,4.72965e-06,0,-2.06642e-06,-4.38934e+08,-4.38436e+08,-4.3876e+08,-141757,0.0102765,-0.0852824,0,0.0858993,-3590.42,-15976.9,-0,16375.4,141757
step02_gravity_refstate-crust.xmf,406,-2.65468e-06,5.15043e-06,0,-2.39574e-06,-4.67853e+08,-4.67317e+08,-4.6767e+08,-164348,0.011505,-0.0899288,0,0.0906617,-3737.7,-17029.9,-0,17435.2,164348
step02_gravity_refstate-crust.xmf,407,-3.60665e-06,9.20284e-06,0,-6.66799e-06,-6.73487e+08,-6.72609e+08,-6.7324e+08,-457424,0.0224539,-0.142758,0,0.144513,-3788.04,-24518.6,-0,24809.5,457424
step02_gravity_refstate-crust.xmf,408,-4.13811e-06,1.03952e-05,0,-7.1808e-06,-6.92383e+08,-6.91386e+08,-6.92099e+08,-492603,0.0224578,-0.1538,0,0.155431,-3414.2,-25206.3,-0,25436.4,492603
step02_gravity_refstate-crust.xmf,409,-3.34643e-06,6.7913e-06,0,-2.94246e-06,-5.39809e+08,-5.39113e+08,-5.39579e+08,-201853,0.0126932,-0.107481,0,0.108228,-3253.08,-19649.3,-0,19916.7,201853
step02_gravity_refstate-crust.xmf,410,-3.5639e-06,7.45787e-06,0,-3.46948e-06,-5.70191e+08,-5.69435e+08,-5.69946e+08,-238006,0.0142608,-0.115017,0,0.115898,-3313.96,-20755.5,-0,21018.4,238006
step02_gravity_refstate-crust.xmf,411,-3.57983e-06,8.39519e-06,0,-5.30809e-06,-6.33263e+08,-6.32441e+08,-6.33017e+08,-364135,0.0196257,-0.12985,0,0.131325,-3794.46,-23053.1,-0,23363.3,364135
step02_gravity_refstate-crust.xmf,412,-3.87473e-06,8.41152e-06,0,-4.43365e-06,-6.1361e+08,-6.12767e+08,-6.13344e+08,-304148,0.0167997,-0.127193,0,0.128298,-3370.9,-22336.4,-0,22589.4,304148
step02_gravity_refstate-crust.xmf,413,-3.25625e-06,1.17755e-05,0,-1.19338e-05,-7.72579e+08,-7.71548e+08,-7.72355e+08,-818657,0.0274809,-0.19111,0,0.193076,-3159.04,-28131.6,-0,28308.4,818657
step02_gravity_refstate-crust.xmf,414,-4.79551e-06,1.34344e-05,0,-1.06727e-05,-7.57956e+08,-7.56705e+08,-7.57627e+08,-732147,0.0252344,-0.190714,0,0.192376,-2847.77,-27595.5,-0,27742.1,732147
step02_gravity_refstate-crust.xmf,415,7.07556e-07,3.92585e-06,0,-8.47629e-06,-7.43984e+08,-7.43764e+08,-7.44033e+08,-581474,0.0292244,-0.128789,0,0.132063,-5933.43,-27094.4,-0,27736.5,581474
step02_gravity_refstate-crust.xmf,416,-1.86979e-08,5.79326e-06,0,-9.92099e-06,-7.61173e+08,-7.60774e+08,-7.61171e+08,-680580,0.0295745,-0.15198,0,0.154831,-4836.51,-27720.1,-0,28138.9,680580
step02_gravity_refstate-crust.xmf,417,8.63135e-08,6.33307e-06,0,-1.09479e-05,-7.79362e+08,-7.78933e+08,-7.79368e+08,-751028,0.029394,-0.165089,0,0.167686,-4405.64,-28383.6,-0,28723.5,751028
step02_gravity_refstate-crust.xmf,418,8.10128e-07,2.22734e-06,0,-5.93232e-06,-6.66931e+08,-6.66834e+08,-6.66987e+08,-406957,0.0268877,-0.0839557,0,0.0881561,-8545.66,-24287,-0,25746.6,406957
step02_gravity_refstate-crust.xmf,419,9.15917e-07,2.34524e-06,0,-6.35232e-06,-6.89133e+08,-6.89035e+08,-6.89196e+08,-435769,0.0274837,-0.0918786,0,0.0959011,-8041.33,-25095.9,-0,26352.8,435769
step02_gravity_refstate-crust.xmf,420,1.02092e-06,2.47825e-06,0,-6.77649e-06,-7.0783e+08,-7.0773e+08,-7.079e+08,-464867,0.0279423,-0.0995786,0,0.103425,-7578.7,-25777.2,-0,26868.2,464867
step02_gravity_refstate-crust.xmf,421,9.43088e-07,1.73201e-06,0,-5.40949e-06,-6.50508e+08,-6.50454e+08,-6.50572e+08,-371091,0.0259357,-0.0724066,0,0.0769115,-9484.32,-23688.9,-0,25517,371091
step02_gravity_refstate-crust.xmf,422,1.02349e-06,1.37158e-06,0,-4.98732e-06,-6.35218e+08,-6.35194e+08,-6.35288e+08,-342130,0.0250088,-0.0626338,0,0.0674421,-10357.6,-23132,-0,25345,342130
step02_gravity_refstate-crust.xmf,423,1.08393e-06,8.67537e-07,0,-4.2814e-06,-6.02307e+08,-6.02322e+08,-6.02382e+08,-293704,0.0230766,-0.0448642,0,0.0504512,-12153.6,-21933.3,-0,25075.5,293704
step02_gravity_refstate-crust.xmf,424,1.07115e-06,1.08799e-06,0,-4.6183e-06,-6.1983e+08,-6.19829e+08,-6.19904e+08,-316815,0.02406,-0.0535929,0,0.0587459,-11237.4,-22571.6,-0,25214.2,316815
step02_gravity_refstate-crust.xmf,425,1.05519e-06,8.79731e-08,0,-2.53836e-06,-5.19756e+08,-5.19822e+08,-5.19828e+08,-174131,0.0156324,0.00774867,0,0.0174475,-19631.1,-18926.6,-0,27268.9,174131
step02_gravity_refstate-crust.xmf,426,1.1244e-06,1.61065e-07,0,-2.98581e-06,-5.48795e+08,-5.48861e+08,-5.48873e+08,-204827,0.0178607,-0.00713597,0,0.0192335,-17149.1,-19984.2,-0,26333.7,204827
step02_gravity_refstate-crust.xmf,427,1.12423e-06,8.45535e-08,0,-2.75821e-06,-5.45922e+08,-5.45993e+08,-5.45999e+08,-189213,0.0166225,-6.07308e-05,0,0.0166226,-18291.4,-19879.5,-0,27014.2,189213
step02_gravity_refstate-crust.xmf,428,1.304e-06,4.48871e-07,0,-3.93644e-06,-6.1692e+08,-6.16979e+08,-6.1701e+08,-270040,0.0217036,-0.0362833,0,0.0422791,-13215.1,-22465.6,-0,26064.2,270040
step02_gravity_refstate-crust.xmf,429,8.07073e-07,2.84692e-07,0,-4.41576e-07,-4.16661e+08,-4.16697e+08,-4.16717e+08,-30292.1,0.00334511,0.0618685,0,0.0619588,-35817.7,-15172.7,-0,38898.9,30292.1
step02_gravity_refstate-crust.xmf,430,8.08919e-07,2.94248e-07,0,-2.30078e-07,-4.12335e+08,-4.1237e+08,-4.12391e+08,-15783.3,0.00177168,0.0636348,0,0.0636595,-37804.3,-15015.2,-0,40677,15783.3
step02_gravity_refstate-crust.xmf,431,9.00292e-07,2.35621e-07,0,-1.07632e-09,-3.71269e+08,-3.71314e+08,-3.7133e+08,-73.8356,3.57591e-19,0.0646913,0,0.0646913,-40000,-13520.4,-0,42223.2,73.8356
step02_gravity_refstate-crust.xmf,432,1.05691e-06,2.81979e-08,0,-2.25012e-06,-5.41354e+08,-5.41425e+08,-5.41427e+08,-154358,0.013691,0.0152947,0,0.0205273,-21051.7,-19712.9,-0,28840.4,154358
step02_gravity_refstate-crust.xmf,433,7.97209e-07,2.38973e-07,0,-9.91388e-07,-4.50427e+08,-4.50465e+08,-4.50482e+08,-68009.2,0.0068399,0.0526261,0,0.0530687,-30859,-16401.8,-0,34947,68009.2
step02_gravity_refstate-crust.xmf,434,7.27811e-07,3.11748e-07,0,-7.56461e-07,-4.75909e+08,-4.75937e+08,-4.75959e+08,-51893.2,0.00493966,0.0566189,0,0.056834,-32805.6,-17329.4,-0,37101.4,51893.2
step02_gravity_refstate-crust.xmf,435,8.07606e-07,2.12921e-07,0,-1.20253e-06,-4.80533e+08,-4.80574e+08,-4.80588e+08,-82493.2,0.00779935,0.0472664,0,0.0479056,-28965,-17497.9,-0,33840,82493.2
step02_gravity_refstate-crust.xmf,436,-3.82234e-06,1.44909e-06,0,-8.0487e-09,-363151,-1531.08,-100939,-552.141,0.00381336,-0.0494369,0,0.0495837,-997.56,0,-0,997.56,552.141
step02_gravity_refstate-crust.xmf,437,-3.18303e-06,6.26345e-06,0,-2.46136e-06,-5.11405e+08,-5.10757e+08,-5.11187e+08,-168850,0.0110469,-0.101505,0,0.102104,-3078.65,-18615,-0,18867.9,168850
step02_gravity_refstate-crust.xmf,438,-4.71054e-06,1.15576e-05,0,-7.73605e-06,-7.10196e+08,-7.0908e+08,-7.09872e+08,-530693,0.0224062,-0.165133,0,0.166646,-3078.55,-25854.2,-0,26036.9,530693
step02_gravity_refstate-crust.xmf,439,-4.11383e-06,9.43309e-06,0,-5.66222e-06,-6.549e+08,-6.5397e+08,-6.54618e+08,-388429,0.0195657,-0.140478,0,0.141834,-3393.56,-23840.2,-0,24080.6,388429
step02_gravity_refstate-crust.xmf,440,-4.05287e-06,8.37448e-06,0,-3.59607e-06,-5.94599e+08,-5.93746e+08,-5.94321e+08,-246690,0.0139647,-0.124271,0,0.125053,-2919.63,-21643.5,-0,21839.6,246690
step02_gravity_refstate-crust.xmf,441,-5.36494e-06,1.32128e-05,0,-8.39682e-06,-7.27621e+08,-7.26347e+08,-7.27253e+08,-576022,0.0223004,-0.17722,0,0.178618,-2767.98,-26488.5,-0,26632.8,576022
step02_gravity_refstate-crust.xmf,442,-5.66183e-07,7.84631e-06,0,-1.19083e-05,-7.87462e+08,-7.86885e+08,-7.87424e+08,-816912,0.0290699,-0.179744,0,0.182079,-3869.04,-28678.2,-0,28938,816912
step02_gravity_refstate-crust.xmf,443,-1.85959e-06,1.02127e-05,0,-1.26119e-05,-7.86569e+08,-7.85741e+08,-7.86442e+08,-865174,0.0284946,-0.191476,0,0.193584,-3383.55,-28644.1,-0,28843.3,865174
step02_gravity_refstate-crust.xmf,444,-6.05396e-06,1.47839e-05,0,-8.98176e-06,-7.4299e+08,-7.4156e+08,-7.42574e+08,-616148,0.0220367,-0.189114,0,0.190394,-2491.72,-27047.7,-0,27162.2,616148
step02_gravity_refstate-crust.xmf,445,8.61635e-07,4.08213e-06,0,-9.09427e-06,-7.61455e+08,-7.61234e+08,-7.61514e+08,-623867,0.0292571,-0.138108,0,0.141173,-5556.8,-27731.3,-0,28282.6,623867
step02_gravity_refstate-crust.xmf,446,1.13059e-06,2.6072e-06,0,-7.23811e-06,-7.26162e+08,-7.2606e+08,-7.26239e+08,-496534,0.0282879,-0.10772,0,0.111372,-7125.59,-26445.2,-0,27388.4,496534
step02_gravity_refstate-crust.xmf,447,1.28783e-06,2.70951e-06,0,-7.73504e-06,-7.44227e+08,-7.4413e+08,-7.44315e+08,-530624,0.0284641,-0.116202,0,0.119638,-6691.36,-27103.7,-0,27917.5,530624
step02_gravity_refstate-crust.xmf,448,1.23474e-06,4.52281e-08,0,-2.88125e-06,-5.78533e+08,-5.78615e+08,-5.78618e+08,-197654,0.0169789,-0.00540089,0,0.0178172,-17439.2,-21067.2,-0,27348.7,197654
step02_gravity_refstate-crust.xmf,449,1.31522e-06,5.38117e-08,0,-3.08585e-06,-5.98457e+08,-5.98543e+08,-5.98547e+08,-211689,0.0178775,-0.0124465,0,0.0217835,-16373,-21792.8,-0,27258.1,211689
step02_gravity_refstate-crust.xmf,450,1.39354e-06,8.1706e-08,0,-3.31897e-06,-6.16655e+08,-6.16745e+08,-6.1675e+08,-227682,0.0188647,-0.0199907,0,0.0274864,-15309.7,-22455.7,-0,27178,227682
step02_gravity_refstate-crust.xmf,451,1.46815e-06,1.29142e-07,0,-3.5722e-06,-6.33608e+08,-6.337e+08,-6.33708e+08,-245053,0.0198724,-0.0277817,0,0.0341575,-14290.5,-23073.3,-0,27140.2,245053
step02_gravity_refstate-crust.xmf,452,7.05816e-07,3.59819e-07,0,-3.80272e-07,-4.64433e+08,-4.64457e+08,-4.64481e+08,-26086.7,0.00255514,0.061842,0,0.0618948,-36323.3,-16911.6,-0,40067.2,26086.7
step02_gravity_refstate-crust.xmf,453,8.54826e-07,1.62098e-07,0,-1.44695e-06,-4.95786e+08,-4.95834e+08,-4.95845e+08,-99260.7,0.00918382,0.0405597,0,0.0415865,-26908.8,-18053.3,-0,32403.8,99260.7
step02_gravity_refstate-crust.xmf,454,8.97136e-07,1.21965e-07,0,-1.61679e-06,-5.17699e+08,-5.17752e+08,-5.17761e+08,-110912,0.00996488,0.0350785,0,0.0364665,-25447.9,-18851.2,-0,31669.6,110912
step02_gravity_refstate-crust.xmf,455,9.55093e-07,7.55765e-08,0,-1.79166e-06,-5.40282e+08,-5.40342e+08,-5.40347e+08,-122908,0.0107892,0.0289494,0,0.0308946,-23960.1,-19673.5,-0,31002.1,122908
step02_gravity_refstate-crust.xmf,456,1.02744e-06,2.59879e-08,0,-1.97191e-06,-5.6224e+08,-5.62308e+08,-5.6231e+08,-135273,0.0116715,0.0223007,0,0.0251703,-22482.8,-20473.1,-0,30407.6,135273
step02_gravity_refstate-crust.xmf,457,6.55623e-07,3.85307e-07,0,-5.34142e-07,-4.99222e+08,-4.99241e+08,-4.99267e+08,-36642.1,0.00329681,0.0595023,0,0.0595935,-34741.4,-18177.9,-0,39209.7,36642.1
step02_gravity_refstate-crust.xmf,458,-2.20612e-06,3.13617e-06,0,-8.28701e-07,-3.08778e+08,-3.08411e+08,-3.08626e+08,-56848.9,0.00501186,-0.0699924,0,0.0701716,-2209.94,-11237.3,-0,11452.5,56848.9
step02_gravity_refstate-crust.xmf,459,-2.32189e-06,3.65326e-06,0,-1.02821e-06,-3.49938e+08,-3.49529e+08,-3.49779e+08,-70535.3,0.00573395,-0.0747804,0,0.0749999,-2379.67,-12736.1,-0,12956.5,70535.3
step02_gravity_refstate-crust.xmf,460,-2.49023e-06,4.21226e-06,0,-1.20825e-06,-3.88584e+08,-3.88124e+08,-3.88413e+08,-82885.8,0.00635453,-0.0801714,0,0.0804228,-2439.88,-14143.2,-0,14352.2,82885.8
step02_gravity_refstate-crust.xmf,461,-2.23698e-06,1.9178e-06,0,-3.6992e-07,-1.79304e+08,-1.79019e+08,-1.79151e+08,-25376.5,0.00358834,-0.0590569,0,0.0591658,-1587.52,-6521.67,-0,6712.1,25376.5
step02_gravity_refstate-crust.xmf,462,-2.14951e-06,2.66875e-06,0,-6.37275e-07,-2.65792e+08,-2.65462e+08,-2.65645e+08,-43717.1,0.00430389,-0.065799,0,0.0659397,-1965.96,-9671.88,-0,9869.66,43717.1
step02_gravity_refstate-crust.xmf,463,-2.15491e-06,2.27038e-06,0,-4.86018e-07,-2.23554e+08,-2.2325e+08,-2.23406e+08,-33340.8,0.00380005,-0.0622689,0,0.0623847,-1740.57,-8133.5,-0,8317.65,33340.8
step02_gravity_refstate-crust.xmf,464,-2.42234e-06,1.63899e-06,0,-2.60685e-07,-1.34007e+08,-1.33729e+08,-1.33841e+08,-17883,0.00341142,-0.0562894,0,0.0563927,-1396.68,-4871.4,-0,5067.67,17883
step02_gravity_refstate-crust.xmf,465,-2.75502e-06,1.45857e-06,0,-1.43284e-07,-8.80167e+07,-8.77276e+07,-8.78277e+07,-9829.31,0.00275265,-0.053947,0,0.0540172,-998.487,-3195.45,-0,3347.81,9829.31
step02_gravity_refstate-crust.xmf,466,-3.19424e-06,1.39394e-06,0,-1.74003e-08,-4.59526e+07,-4.56379e+07,-4.57335e+07,-1193.66,0.000113478,-0.0520101,0,0.0520102,-35.7565,-1662.19,-0,1662.57,1193.66
step02_gravity_refstate-crust.xmf,467,-3.01964e-06,5.73385e-06,0,-1.99244e-06,-4.80649e+08,-4.80048e+08,-4.80441e+08,-136682,0.00930045,-0.0957131,0,0.0961639,-2823.75,-17495.2,-0,17721.6,136682
step02_gravity_refstate-crust.xmf,468,-2.68025e-06,4.76066e-06,0,-1.39961e-06,-4.22626e+08,-4.22116e+08,-4.22442e+08,-96013.6,0.00702608,-0.0856006,0,0.0858885,-2486.69,-15382.7,-0,15582.4,96013.6
step02_gravity_refstate-crust.xmf,469,-2.86595e-06,5.28449e-06,0,-1.66155e-06,-4.53516e+08,-4.52957e+08,-4.5332e+08,-113982,0.00801732,-0.0908932,0,0.0912461,-2618.58,-16507.3,-0,16713.7,113982
step02_gravity_refstate-crust.xmf,470,-4.72269e-06,1.07627e-05,0,-5.97735e-06,-6.74006e+08,-6.72943e+08,-6.73682e+08,-410046,0.0192577,-0.151142,0,0.152364,-3012.17,-24535.4,-0,24719.6,410046
step02_gravity_refstate-crust.xmf,471,-5.40205e-06,1.21743e-05,0,-6.33784e-06,-6.92915e+08,-6.91709e+08,-6.92544e+08,-434776,0.0189459,-0.16246,0,0.163561,-2669.55,-25223.2,-0,25364.1,434776
step02_gravity_refstate-crust.xmf,472,-3.60634e-06,6.98513e-06,0,-2.06665e-06,-5.26767e+08,-5.26041e+08,-5.2652e+08,-141772,0.00895252,-0.107977,0,0.108348,-2312.99,-19173.7,-0,19312.7,141772
step02_gravity_refstate-crust.xmf,473,-3.87241e-06,7.65619e-06,0,-2.48325e-06,-5.54393e+08,-5.53603e+08,-5.54128e+08,-170351,0.0102866,-0.114894,0,0.115354,-2427.76,-20179.4,-0,20325,170351
step02_gravity_refstate-crust.xmf,474,-4.4205e-06,9.57822e-06,0,-4.65437e-06,-6.35717e+08,-6.34756e+08,-6.35414e+08,-319290,0.0165774,-0.1372,0,0.138198,-2993.11,-23140.9,-0,23333.6,319290
step02_gravity_refstate-crust.xmf,475,-4.12429e-06,8.25499e-06,0,-2.85558e-06,-5.77721e+08,-5.76872e+08,-5.77438e+08,-195893,0.0113622,-0.121449,0,0.121979,-2472.98,-21028.6,-0,21173.5,195893
step02_gravity_refstate-crust.xmf,476,-4.5841e-06,9.39901e-06,0,-3.68461e-06,-6.16427e+08,-6.15468e+08,-6.16113e+08,-252765,0.0135108,-0.133462,0,0.134144,-2556.29,-22437.7,-0,22582.8,252765
step02_gravity_refstate-crust.xmf,477,-4.8545e-07,8.23659e-06,0,-1.27621e-05,-7.9982e+08,-7.99222e+08,-7.99787e+08,-875477,0.0284574,-0.189737,0,0.191859,-3622.55,-29129,-0,29353.4,875477
step02_gravity_refstate-crust.xmf,478,-3.79276e-06,1.34081e-05,0,-1.31466e-05,-7.85983e+08,-7.84803e+08,-7.85723e+08,-901859,0.026936,-0.205049,0,0.206811,-2831.96,-28619.9,-0,28759.7,901859
step02_gravity_refstate-crust.xmf,479,-5.56641e-06,1.53254e-05,0,-1.16494e-05,-7.72275e+08,-7.70841e+08,-7.71893e+08,-799148,0.0247381,-0.204393,0,0.205885,-2541.84,-28116.6,-0,28231.3,799148
step02_gravity_refstate-crust.xmf,480,-6.77612e-06,1.64166e-05,0,-9.84971e-06,-7.58918e+08,-7.57327e+08,-7.58454e+08,-675690,0.0218815,-0.202,0,0.203182,-2256.35,-27627.2,-0,27719.2,675690
step02_gravity_refstate-crust.xmf,481,1.45854e-06,2.76417e-06,0,-8.23443e-06,-7.61822e+08,-7.61733e+08,-7.61922e+08,-564882,0.0283936,-0.124798,0,0.127987,-6287.91,-27745.1,-0,28448.7,564882
step02_gravity_refstate-crust.xmf,482,1.05852e-06,4.21648e-06,0,-9.76391e-06,-7.78902e+08,-7.78685e+08,-7.78974e+08,-669804,0.0289751,-0.148198,0,0.151004,-5181.87,-28367.5,-0,28836.9,669804
step02_gravity_refstate-crust.xmf,483,4.55389e-07,6.07907e-06,0,-1.15664e-05,-7.97984e+08,-7.97599e+08,-7.98016e+08,-793454,0.0285853,-0.174463,0,0.176789,-4189.89,-29062.7,-0,29363.1,793454
step02_gravity_refstate-crust.xmf,484,1.31347e-06,1.34813e-06,0,-5.47106e-06,-6.77353e+08,-6.7735e+08,-6.77443e+08,-375315,0.0258251,-0.073152,0,0.0775768,-9554.05,-24667.1,-0,26452.7,375315
step02_gravity_refstate-crust.xmf,485,1.26336e-06,1.63631e-06,0,-5.87527e-06,-6.89713e+08,-6.89688e+08,-6.898e+08,-403043,0.0266007,-0.0819398,0,0.0861494,-8853.5,-25117.4,-0,26632,403043
step02_gravity_refstate-crust.xmf,486,1.40843e-06,1.62774e-06,0,-6.16285e-06,-7.07773e+08,-7.07758e+08,-7.0787e+08,-422772,0.0268595,-0.0877886,0,0.0918057,-8469.41,-25775.4,-0,27131.2,422772
step02_gravity_refstate-crust.xmf,487,1.53581e-06,1.71226e-06,0,-6.56993e-06,-7.26242e+08,-7.2623e+08,-7.26347e+08,-450697,0.0271701,-0.095748,0,0.0995284,-7958.88,-26448.4,-0,27620,450697
step02_gravity_refstate-crust.xmf,488,1.33803e-06,1.05914e-06,0,-5.03578e-06,-6.62799e+08,-6.62818e+08,-6.62891e+08,-345454,0.0248813,-0.0635211,0,0.0682203,-10390.7,-24136.9,-0,26278.5,345454
step02_gravity_refstate-crust.xmf,489,1.35806e-06,8.00702e-07,0,-4.63427e-06,-6.48431e+08,-6.48469e+08,-6.48524e+08,-317911,0.0238428,-0.0540334,0,0.0590601,-11295.6,-23613.5,-0,26176.1,317911
step02_gravity_refstate-crust.xmf,490,1.34988e-06,5.99391e-07,0,-4.26888e-06,-6.33343e+08,-6.33395e+08,-6.33436e+08,-292845,0.0227614,-0.0448771,0,0.0503194,-12247.2,-23063.9,-0,26113.9,292845
step02_gravity_refstate-crust.xmf,491,1.50862e-06,2.07918e-07,0,-3.84279e-06,-6.47218e+08,-6.47307e+08,-6.47322e+08,-263615,0.0209195,-0.0356393,0,0.0413254,-13335.9,-23569,-0,27080.4,263615
step02_gravity_refstate-crust.xmf,492,1.14672e-06,-3.50275e-09,0,-2.42941e-06,-5.65675e+08,-5.65754e+08,-5.65754e+08,-166657,0.0145014,0.0085319,0,0.0168251,-19785.1,-20598.6,-0,28561.4,166657
step02_gravity_refstate-crust.xmf,493,1.10023e-06,-2.34446e-08,0,-2.13745e-06,-5.84663e+08,-5.8474e+08,-5.84738e+08,-146629,0.0124688,0.0156934,0,0.0200438,-21130.5,-21289.7,-0,29995.8,146629
step02_gravity_refstate-crust.xmf,494,7.41241e-07,3.4571e-07,0,-1.4658e-09,-4.40575e+08,-4.40602e+08,-4.40625e+08,-100.554,2.3338e-19,0.0639575,0,0.0639575,-40000,-16043.1,-0,43097.3,100.554
step02_gravity_refstate-crust.xmf,495,7.17903e-07,3.00534e-07,0,-9.22259e-07,-5.05742e+08,-5.0577e+08,-5.05791e+08,-63267,0.00566157,0.0527656,0,0.0530685,-31144.5,-18415.4,-0,36181.6,63267
step02_gravity_refstate-crust.xmf,496,6.27142e-07,3.90015e-07,0,-6.87627e-07,-5.29738e+08,-5.29754e+08,-5.29781e+08,-47171.2,0.00394183,0.0565057,0,0.056643,-33116.9,-19288.8,-0,38324.8,47171.2
step02_gravity_refstate-crust.xmf,497,7.92327e-07,2.15598e-07,0,-1.25381e-06,-5.2144e+08,-5.2148e+08,-5.21495e+08,-86011.1,0.00757977,0.0445772,0,0.045217,-28181.4,-18987.1,-0,33980.9,86011.1
step02_gravity_refstate-crust.xmf,498,-2.3333e-06,1.80403e-06,0,-4.13503e-08,-1.59256e+08,-1.58972e+08,-1.59096e+08,-2836.63,0.000463477,-0.0583651,0,0.058367,-198.385,-5791.22,-0,5794.61,2836.63
step02_gravity_refstate-crust.xmf,499,-3.81661e-06,1.44812e-06,0,-8.18976e-09,-362556,-1395.61,-100737,-561.817,-0.00381164,-0.0494362,-0,0.0495829,997.56,0,0,997.56,561.817
step02_gravity_refstate-crust.xmf,500,-3.38674e-06,6.39394e-06,0,-1.63988e-06,-4.99185e+08,-4.98514e+08,-4.98953e+08,-112496,0.00738606,-0.101982,0,0.102249,-2074.86,-18169.5,-0,18287.6,112496
step02_gravity_refstate-crust.xmf,501,-6.16844e-06,1.36404e-05,0,-6.78616e-06,-7.11967e+08,-7.10608e+08,-7.11544e+08,-465530,0.0186083,-0.174811,0,0.175799,-2354.84,-25916,-0,26022.8,465530
step02_gravity_refstate-crust.xmf,502,-5.03412e-06,1.07085e-05,0,-4.82734e-06,-6.55791e+08,-6.54712e+08,-6.55446e+08,-331156,0.016131,-0.147392,0,0.148272,-2629.99,-23871,-0,24015.4,331156
step02_gravity_refstate-crust.xmf,503,-4.60995e-06,9.12875e-06,0,-2.75421e-06,-5.96422e+08,-5.95479e+08,-5.96105e+08,-188939,0.0104286,-0.129104,0,0.129525,-2084.5,-21708.8,-0,21808.7,188939
step02_gravity_refstate-crust.xmf,504,-7.21883e-06,1.58188e-05,0,-7.25067e-06,-7.31859e+08,-7.30279e+08,-7.31364e+08,-497396,0.0179481,-0.189424,0,0.190273,-2017.99,-26639.3,-0,26715.7,497396
step02_gravity_refstate-crust.xmf,505,-1.96216e-06,1.12318e-05,0,-1.38071e-05,-7.99564e+08,-7.98659e+08,-7.9943e+08,-947165,0.0278063,-0.204677,0,0.206558,-3078.91,-29118.4,-0,29280.7,947165
step02_gravity_refstate-crust.xmf,506,-7.33856e-06,1.66952e-05,0,-8.38184e-06,-7.4742e+08,-7.45771e+08,-7.46917e+08,-574994,0.0194367,-0.19827,0,0.19922,-2048.55,-27206.7,-0,27283.7,574994
step02_gravity_refstate-crust.xmf,507,1.65125e-06,2.7849e-06,0,-8.7464e-06,-7.7916e+08,-7.79082e+08,-7.79273e+08,-600003,0.0279889,-0.133655,0,0.136554,-5905.52,-28377.1,-0,28985.1,600003
step02_gravity_refstate-crust.xmf,508,1.24635e-06,4.28979e-06,0,-1.04126e-05,-7.96031e+08,-7.95822e+08,-7.96116e+08,-714307,0.0282008,-0.158464,0,0.160954,-4836.81,-28992,-0,29392.7,714307
step02_gravity_refstate-crust.xmf,509,4.72725e-07,6.29257e-06,0,-1.22951e-05,-8.1341e+08,-8.13011e+08,-8.13443e+08,-843445,0.0271947,-0.18581,0,0.18779,-3895.49,-29624.7,-0,29879.7,843445
step02_gravity_refstate-crust.xmf,510,1.67932e-06,1.7734e-06,0,-7.00259e-06,-7.44568e+08,-7.44562e+08,-7.44684e+08,-480378,0.0273052,-0.104109,0,0.10763,-7464.44,-27116.3,-0,28124.9,480378
step02_gravity_refstate-crust.xmf,511,1.84961e-06,1.75316e-06,0,-7.39767e-06,-7.62431e+08,-7.62437e+08,-7.62558e+08,-507480,0.0271214,-0.112031,0,0.115267,-7037.27,-27767.3,-0,28645.1,507480
step02_gravity_refstate-crust.xmf,512,1.57148e-06,-3.72154e-08,0,-3.43816e-06,-6.58858e+08,-6.58968e+08,-6.58965e+08,-235858,0.0188745,-0.026868,0,0.032835,-14411.5,-23992.7,-0,27988.2,235858
step02_gravity_refstate-crust.xmf,513,1.22899e-06,-4.51053e-08,0,-2.56861e-06,-5.93799e+08,-5.93886e+08,-5.93883e+08,-176207,0.0150436,0.00231108,0,0.01522,-18694.8,-21622.8,-0,28583.9,176207
step02_gravity_refstate-crust.xmf,514,1.32923e-06,-7.01029e-08,0,-2.75556e-06,-6.14649e+08,-6.14745e+08,-6.1474e+08,-189031,0.0158717,-0.0046524,0,0.0165395,-17554.2,-22382.2,-0,28444.9,189031
step02_gravity_refstate-crust.xmf,515,1.42716e-06,-8.70725e-08,0,-2.96159e-06,-6.34307e+08,-6.34411e+08,-6.34405e+08,-203165,0.0167643,-0.0120708,0,0.0206578,-16424.8,-23098.2,-0,28342.6,203165
step02_gravity_refstate-crust.xmf,516,1.52974e-06,-9.22288e-08,0,-3.19681e-06,-6.52508e+08,-6.52619e+08,-6.52613e+08,-219301,0.0177363,-0.0200071,0,0.0267369,-15306.9,-23761.2,-0,28264.8,219301
step02_gravity_refstate-crust.xmf,517,1.0284e-06,2.85825e-09,0,-1.87123e-06,-6.04465e+08,-6.04536e+08,-6.04536e+08,-128366,0.0104734,0.0219576,0,0.0243275,-22414.1,-22010.3,-0,31414.1,128366
step02_gravity_refstate-crust.xmf,518,6.46731e-07,4.11902e-07,0,-1.79577e-07,-4.85797e+08,-4.85814e+08,-4.85842e+08,-12319,0.00114514,0.0629124,0,0.0629228,-38222,-17689.2,-0,42116.9,12319
step02_gravity_refstate-crust.xmf,519,5.82274e-07,4.53081e-07,0,-3.40959e-07,-5.22326e+08,-5.22335e+08,-5.22366e+08,-23389.8,0.0019718,0.0611784,0,0.0612102,-36529.6,-19018.8,-0,41184.1,23389.8
step02_gravity_refstate-crust.xmf,520,8.27e-07,1.78238e-07,0,-1.3878e-06,-5.42701e+08,-5.42746e+08,-5.42758e+08,-95203.4,0.00814792,0.0401444,0,0.0409629,-26872.7,-19761.2,-0,33356.4,95203.4
step02_gravity_refstate-crust.xmf,521,8.77997e-07,1.29334e-07,0,-1.53378e-06,-5.65303e+08,-5.65354e+08,-5.65363e+08,-105218,0.00877873,0.0348576,0,0.0359461,-25447.1,-20584.2,-0,32730.1,105218
step02_gravity_refstate-crust.xmf,522,9.515e-07,6.65157e-08,0,-1.70548e-06,-5.84413e+08,-5.84474e+08,-5.84479e+08,-116996,0.00965017,0.0285385,0,0.0301259,-23890.4,-21280.1,-0,31993.7,116996
step02_gravity_refstate-crust.xmf,523,5.40783e-07,4.74253e-07,0,-4.87031e-07,-5.53972e+08,-5.53977e+08,-5.5401e+08,-33410.3,0.00258454,0.0588465,0,0.0589032,-34891.8,-20170.8,-0,40302.6,33410.3
step02_gravity_refstate-crust.xmf,524,7.19419e-07,2.82788e-07,0,-1.05787e-06,-5.36735e+08,-5.36765e+08,-5.36785e+08,-72569.6,0.00612418,0.0487621,0,0.0491452,-29677.2,-19543.7,-0,35534.4,72569.6
step02_gravity_refstate-crust.xmf,525,-2.23046e-06,2.98395e-06,0,-3.32978e-07,-2.90361e+08,-2.90003e+08,-2.90207e+08,-22842.3,0.00206183,-0.0692772,0,0.0693079,-917.916,-10566.5,-0,10606.3,22842.3
step02_gravity_refstate-crust.xmf,526,-2.36272e-06,3.56568e-06,0,-4.84028e-07,-3.35218e+08,-3.34811e+08,-3.35055e+08,-33204.3,0.00276063,-0.0744328,0,0.074484,-1159.19,-12199.9,-0,12254.8,33204.3
step02_gravity_refstate-crust.xmf,527,-2.53214e-06,4.11587e-06,0,-5.88532e-07,-3.72754e+08,-3.72298e+08,-3.72581e+08,-40373.3,0.00315037,-0.0795849,0,0.0796472,-1232.08,-13566.6,-0,13622.5,40373.3
step02_gravity_refstate-crust.xmf,528,-2.73724e-06,4.69451e-06,0,-7.22886e-07,-4.08025e+08,-4.07515e+08,-4.07837e+08,-49590,0.00367953,-0.0851065,0,0.085186,-1326.75,-14850.7,-0,14909.9,49590
step02_gravity_refstate-crust.xmf,529,-2.21246e-06,2.15588e-06,0,-7.88389e-08,-2.06331e+08,-2.06031e+08,-2.06179e+08,-5408.35,0.000696387,-0.0617177,0,0.0617216,-314.674,-7506.08,-0,7512.67,5408.35
step02_gravity_refstate-crust.xmf,530,-2.19785e-06,2.56414e-06,0,-1.02779e-07,-2.49918e+08,-2.49592e+08,-2.49768e+08,-7050.67,0.00077744,-0.0654311,0,0.0654357,-354.04,-9093.61,-0,9100.5,7050.67
step02_gravity_refstate-crust.xmf,531,-2.5321e-06,1.57938e-06,0,-1.73592e-08,-1.19428e+08,-1.19146e+08,-1.19254e+08,-1190.84,0.000284695,-0.0559276,0,0.0559284,-112.32,-4340.1,-0,4341.55,1190.84
step02_gravity_refstate-crust.xmf,532,-2.76045e-06,1.45751e-06,0,1.01243e-07,-8.81591e+07,-8.78698e+07,-8.79698e+07,6945.26,-0.00226247,-0.0540336,-0,0.054081,820.354,-3200.61,0,3304.07,6945.26
step02_gravity_refstate-crust.xmf,533,-3.11882e-06,1.36783e-06,0,1.38277e-07,-4.73058e+07,-4.6998e+07,-4.70918e+07,9485.79,-0.00621704,-0.05116,-0,0.0515363,1973.53,-1711.71,0,2612.43,9485.79
step02_gravity_refstate-crust.xmf,534,-3.19565e-06,5.86114e-06,0,-1.13158e-06,-4.69576e+08,-4.68954e+08,-4.69357e+08,-77626.6,0.00532344,-0.0963929,0,0.0965398,-1624.61,-17091.5,-0,17168.6,77626.6
step02_gravity_refstate-crust.xmf,535,-2.96438e-06,5.28639e-06,0,-8.89694e-07,-4.4043e+08,-4.39864e+08,-4.40227e+08,-61033,0.00434243,-0.0908147,0,0.0909185,-1438.52,-16030.5,-0,16094.9,61033
step02_gravity_refstate-crust.xmf,536,-5.81125e-06,1.22194e-05,0,-4.82426e-06,-6.73868e+08,-6.72631e+08,-6.73469e+08,-330944,0.014981,-0.158266,0,0.158974,-2203.5,-24528.2,-0,24627,330944
step02_gravity_refstate-crust.xmf,537,-6.52152e-06,1.37517e-05,0,-5.20963e-06,-6.95154e+08,-6.93764e+08,-6.94707e+08,-357380,0.0149782,-0.170117,0,0.170775,-1978.02,-25302.7,-0,25379.9,357380
step02_gravity_refstate-crust.xmf,538,-3.72015e-06,7.00288e-06,0,-1.20121e-06,-5.14849e+08,-5.14114e+08,-5.14594e+08,-82403.1,0.00524735,-0.107367,0,0.107495,-1379.88,-18739.4,-0,18790.1,82403.1
step02_gravity_refstate-crust.xmf,539,-4.05856e-06,7.76911e-06,0,-1.48885e-06,-5.42873e+08,-5.42062e+08,-5.42595e+08,-102135,0.00621289,-0.114631,0,0.114799,-1486.1,-19759.4,-0,19815.3,102135
step02_gravity_refstate-crust.xmf,540,-4.4903e-06,8.73029e-06,0,-1.83789e-06,-5.734e+08,-5.72493e+08,-5.73092e+08,-126079,0.0072519,-0.123548,0,0.123761,-1554.51,-20870.6,-0,20928.4,126079
step02_gravity_refstate-crust.xmf,541,-5.18226e-06,1.06083e-05,0,-3.70445e-06,-6.36621e+08,-6.35537e+08,-6.36265e+08,-254125,0.0128102,-0.14292,0,0.143493,-2197.48,-23172.3,-0,23276.2,254125
step02_gravity_refstate-crust.xmf,542,-5.18906e-06,1.0219e-05,0,-2.65389e-06,-6.17981e+08,-6.16925e+08,-6.17626e+08,-182057,0.00946925,-0.138287,0,0.138611,-1715.11,-22493.1,-0,22558.4,182057
step02_gravity_refstate-crust.xmf,543,-5.50839e-07,8.77539e-06,0,-1.37353e-05,-8.14009e+08,-8.13369e+08,-8.13971e+08,-942245,0.0270898,-0.202921,0,0.204721,-3318.43,-29646.2,-0,29831.3,942245
step02_gravity_refstate-crust.xmf,544,-4.32908e-06,1.51907e-05,0,-1.46597e-05,-7.99061e+08,-7.97722e+08,-7.98764e+08,-1.00565e+06,0.0261262,-0.219717,0,0.221265,-2541.09,-29096.6,-0,29207.4,1.00565e+06
step02_gravity_refstate-crust.xmf,545,-8.50528e-06,1.89997e-05,0,-8.48595e-06,-7.60325e+08,-7.58438e+08,-7.59742e+08,-582136,0.0180798,-0.211076,0,0.211848,-1744.6,-27675.4,-0,27730.3,582136
step02_gravity_refstate-crust.xmf,546,-6.50205e-06,1.75996e-05,0,-1.28059e-05,-7.8634e+08,-7.84687e+08,-7.85894e+08,-878482,0.0240385,-0.219063,0,0.220378,-2264.6,-28628.5,-0,28717.9,878482
step02_gravity_refstate-crust.xmf,547,-7.87304e-06,1.88415e-05,0,-1.05345e-05,-7.73572e+08,-7.7174e+08,-7.73032e+08,-722666,0.0210725,-0.216359,0,0.217383,-1982.34,-28160,-0,28229.7,722666
step02_gravity_refstate-crust.xmf,548,2.01309e-06,1.70285e-06,0,-7.78395e-06,-7.79777e+08,-7.79798e+08,-7.79915e+08,-533979,0.0266024,-0.120009,0,0.122922,-6638.49,-28399.3,-0,29164.9,533979
step02_gravity_refstate-crust.xmf,549,1.80258e-06,2.79176e-06,0,-9.25876e-06,-7.96028e+08,-7.9596e+08,-7.96152e+08,-635151,0.0271646,-0.142988,0,0.145545,-5532.03,-28991.8,-0,29514.9,635151
step02_gravity_refstate-crust.xmf,550,1.24719e-06,4.35036e-06,0,-1.09997e-05,-8.1246e+08,-8.12247e+08,-8.12546e+08,-754578,0.0267886,-0.169031,0,0.171141,-4511.23,-29590.2,-0,29932.1,754578
step02_gravity_refstate-crust.xmf,551,1.63857e-06,7.17451e-07,0,-5.0192e-06,-6.90067e+08,-6.9013e+08,-6.9018e+08,-344317,0.024326,-0.0642774,0,0.0687266,-10402.6,-25130.3,-0,27198.3,344317
step02_gravity_refstate-crust.xmf,552,1.66738e-06,9.66678e-07,0,-5.52006e-06,-7.05589e+08,-7.05637e+08,-7.05704e+08,-378676,0.0253636,-0.0751857,0,0.0793487,-9481.57,-25695.9,-0,27389.4,378676
step02_gravity_refstate-crust.xmf,553,1.79981e-06,9.92329e-07,0,-5.87244e-06,-7.2586e+08,-7.25915e+08,-7.25983e+08,-402850,0.0256234,-0.0831852,0,0.0870421,-8894,-26434.5,-0,27890.6,402850
step02_gravity_refstate-crust.xmf,554,1.92725e-06,1.05989e-06,0,-6.30007e-06,-7.44976e+08,-7.45036e+08,-7.45108e+08,-432185,0.0258558,-0.092506,0,0.0960515,-8257.25,-27131,-0,28359.8,432185
step02_gravity_refstate-crust.xmf,555,1.59661e-06,5.41091e-07,0,-4.62048e-06,-6.7562e+08,-6.75692e+08,-6.75729e+08,-316965,0.0233703,-0.0551063,0,0.0598571,-11253.7,-24603.9,-0,27055.5,316965
step02_gravity_refstate-crust.xmf,556,1.59399e-06,2.97547e-07,0,-4.18246e-06,-6.64854e+08,-6.64943e+08,-6.64963e+08,-286917,0.0219659,-0.044612,0,0.0497266,-12334.1,-24211.6,-0,27172.2,286917
step02_gravity_refstate-crust.xmf,557,1.65935e-06,-4.1834e-08,0,-3.63349e-06,-6.75321e+08,-6.75437e+08,-6.75434e+08,-249258,0.0194655,-0.0332252,0,0.0385074,-13632,-24592.4,-0,28117.9,249258
step02_gravity_refstate-crust.xmf,558,1.19229e-06,-7.33497e-08,0,-2.28235e-06,-6.08463e+08,-6.0855e+08,-6.08545e+08,-156570,0.0130836,0.00942029,0,0.0161221,-19935.6,-22156.4,-0,29805,156570
step02_gravity_refstate-crust.xmf,559,1.10225e-06,-5.48671e-08,0,-1.98865e-06,-6.27168e+08,-6.27247e+08,-6.27243e+08,-136421,0.0109257,0.0162829,0,0.0196088,-21235.3,-22837,-0,31184.4,136421
step02_gravity_refstate-crust.xmf,560,5.91665e-07,4.55742e-07,0,-1.74968e-09,-5.0868e+08,-5.08689e+08,-5.0872e+08,-120.028,1.78059e-19,0.0629635,0,0.0629635,-40000,-18522.1,-0,44080.2,120.028
step02_gravity_refstate-crust.xmf,561,9.47749e-07,4.94423e-08,0,-1.67015e-06,-6.18341e+08,-6.18403e+08,-6.18406e+08,-114572,0.00895439,0.0266844,0,0.0281467,-23473,-22515.2,-0,32525.7,114572
step02_gravity_refstate-crust.xmf,562,6.1785e-07,3.79385e-07,0,-8.335e-07,-5.6111e+08,-5.61126e+08,-5.61152e+08,-57178.1,0.00446049,0.0527532,0,0.0529415,-31443.2,-20430.8,-0,37497.9,57178.1
step02_gravity_refstate-crust.xmf,563,5.15962e-07,4.77656e-07,0,-6.31529e-07,-5.84547e+08,-5.84549e+08,-5.84582e+08,-43322.9,0.00306421,0.0557613,0,0.0558454,-33186.6,-21283.8,-0,39425.3,43322.9
step02_gravity_refstate-crust.xmf,564,7.35319e-07,2.57213e-07,0,-1.16997e-06,-5.66643e+08,-5.66676e+08,-5.66694e+08,-80259.7,0.00643804,0.04463,0,0.0450919,-28326.2,-20632.6,-0,35043.9,80259.7
step02_gravity_refstate-crust.xmf,565,9.74449e-07,1.7792e-08,0,-1.69756e-06,-6.45828e+08,-6.45894e+08,-6.45895e+08,-116453,0.00867132,0.0232809,0,0.0248434,-22706.5,-23516,-0,32689.3,116453
step02_gravity_refstate-crust.xmf,566,-2.43537e-06,1.64052e-06,0,2.21854e-07,-1.33104e+08,-1.32825e+08,-1.32937e+08,15219.2,-0.00291904,-0.0563717,-0,0.0564472,1191.9,-4838.48,0,4983.12,15219.2
step02_gravity_refstate-crust.xmf,567,-2.25423e-06,1.92356e-06,0,2.73624e-07,-1.78359e+08,-1.78072e+08,-1.78204e+08,18770.6,-0.00265578,-0.0593011,-0,0.0593605,1171.09,-6487.19,0,6592.05,18770.6
step02_gravity_refstate-crust.xmf,568,-3.66964e-06,1.39357e-06,0,-3.24239e-09,-348543,-1207.14,-96805.8,-222.428,-0.0112897,-0.0476502,-0,0.0489694,2992.92,0,0,2992.92,222.428
step02_gravity_refstate-crust.xmf,569,-3.48328e-06,6.44708e-06,0,-9.59422e-07,-4.91853e+08,-4.91172e+08,-4.91614e+08,-65816.4,0.00434568,-0.102022,0,0.102114,-1229.27,-17902.3,-0,17944.5,65816.4
step02_gravity_refstate-crust.xmf,570,-7.48868e-06,1.55229e-05,0,-5.314e-06,-7.13742e+08,-7.12163e+08,-7.13228e+08,-364541,0.0139771,-0.182754,0,0.183288,-1658.27,-25978.2,-0,26031.1,364541
step02_gravity_refstate-crust.xmf,571,-5.67028e-06,1.15747e-05,0,-3.84264e-06,-6.5391e+08,-6.52727e+08,-6.53521e+08,-263605,0.0126638,-0.151053,0,0.151583,-2002.23,-23801.2,-0,23885.3,263605
step02_gravity_refstate-crust.xmf,572,-5.03529e-06,9.70482e-06,0,-1.72965e-06,-5.98086e+08,-5.97075e+08,-5.97741e+08,-118654,0.00641533,-0.132683,0,0.132838,-1240.39,-21768.6,-0,21803.9,118654
step02_gravity_refstate-crust.xmf,573,-8.69013e-06,1.85497e-05,0,-6.76566e-06,-7.46545e+08,-7.44676e+08,-7.45949e+08,-464125,0.0153063,-0.204222,0,0.204795,-1542.14,-27172.3,-0,27216,464125
step02_gravity_refstate-crust.xmf,574,4.93072e-08,6.83451e-06,0,-1.31763e-05,-8.28139e+08,-8.27674e+08,-8.28143e+08,-903896,0.0249201,-0.198806,0,0.200362,-3578.96,-30160,-0,30371.6,903896
step02_gravity_refstate-crust.xmf,575,-1.92297e-06,1.22308e-05,0,-1.49628e-05,-8.12106e+08,-8.11135e+08,-8.11974e+08,-1.02645e+06,0.0265974,-0.218493,0,0.220106,-2800.59,-29576.7,-0,29709,1.02645e+06
step02_gravity_refstate-crust.xmf,576,1.00656e-06,4.53882e-06,0,-1.16974e-05,-8.28281e+08,-8.28039e+08,-8.2835e+08,-802444,0.0245685,-0.180373,0,0.182038,-4189.43,-30165.5,-0,30455,802444
step02_gravity_refstate-crust.xmf,577,2.15753e-06,1.66453e-06,0,-8.20307e-06,-7.96699e+08,-7.96732e+08,-7.96847e+08,-562731,0.0257055,-0.128523,0,0.131069,-6241.09,-29015.9,-0,29679.5,562731
step02_gravity_refstate-crust.xmf,578,1.84472e-06,2.8215e-06,0,-9.78253e-06,-8.12228e+08,-8.12161e+08,-8.12355e+08,-671082,0.0258137,-0.152769,0,0.154934,-5170.18,-29581.8,-0,30030.2,671082
step02_gravity_refstate-crust.xmf,579,1.62286e-06,-2.11782e-07,0,-3.15729e-06,-6.83828e+08,-6.83954e+08,-6.83939e+08,-216590,0.0169519,-0.0228153,0,0.0284236,-14914.1,-24901.7,-0,29026.3,216590
step02_gravity_refstate-crust.xmf,580,2.09286e-06,1.02785e-06,0,-6.65346e-06,-7.62809e+08,-7.62882e+08,-7.62952e+08,-456427,0.0256447,-0.100265,0,0.103492,-7777.39,-27780.9,-0,28849,456427
step02_gravity_refstate-crust.xmf,581,2.23674e-06,8.81129e-07,0,-6.88737e-06,-7.81047e+08,-7.8114e+08,-7.812e+08,-472474,0.024861,-0.106902,0,0.109754,-7401.65,-28445.2,-0,29392.4,472474
step02_gravity_refstate-crust.xmf,582,1.27887e-06,-1.24163e-07,0,-2.43187e-06,-6.31121e+08,-6.31217e+08,-6.31209e+08,-166826,0.0137269,0.00279834,0,0.0140092,-18757.8,-22981.6,-0,29664.9,166826
step02_gravity_refstate-crust.xmf,583,1.38467e-06,-1.70472e-07,0,-2.6029e-06,-6.5069e+08,-6.50797e+08,-6.50785e+08,-178559,0.0144665,-0.00414642,0,0.015049,-17608.9,-23694.4,-0,29521.1,178559
step02_gravity_refstate-crust.xmf,584,1.50089e-06,-2.35049e-07,0,-2.78567e-06,-6.74007e+08,-6.74126e+08,-6.7411e+08,-191097,0.0151374,-0.01204,0,0.0193417,-16396.6,-24543.6,-0,29516.7,191097
step02_gravity_refstate-crust.xmf,585,5.09718e-07,5.16562e-07,0,-1.61513e-07,-5.47297e+08,-5.47297e+08,-5.47332e+08,-11079.8,0.00086618,0.0619027,0,0.0619088,-38288.5,-19927.8,-0,43164,11079.8
step02_gravity_refstate-crust.xmf,586,4.51239e-07,5.56411e-07,0,-3.06888e-07,-5.80196e+08,-5.80189e+08,-5.80227e+08,-21052.5,0.00146951,0.0601938,0,0.0602117,-36620.6,-21125.3,-0,42277,21052.5
step02_gravity_refstate-crust.xmf,587,7.72633e-07,2.12262e-07,0,-1.29486e-06,-5.92683e+08,-5.92721e+08,-5.92736e+08,-88827.6,0.0068573,0.039775,0,0.0403617,-26868.4,-21580.7,-0,34462.1,88827.6
step02_gravity_refstate-crust.xmf,588,8.38457e-07,1.42921e-07,0,-1.44212e-06,-6.1684e+08,-6.16887e+08,-6.16897e+08,-98929.3,0.00744509,0.0337583,0,0.0345695,-25225,-22460.3,-0,33775.2,98929.3
step02_gravity_refstate-crust.xmf,589,4.13575e-07,5.76026e-07,0,-4.42291e-07,-6.09416e+08,-6.09404e+08,-6.09444e+08,-30341.1,0.00189537,0.0578459,0,0.0578769,-34938.7,-22188.9,-0,41389.2,30341.1
step02_gravity_refstate-crust.xmf,590,6.24555e-07,3.55428e-07,0,-9.60964e-07,-5.90903e+08,-5.90921e+08,-5.90946e+08,-65922.1,0.00482444,0.0486169,0,0.0488557,-29862.3,-21515.5,-0,36805.9,65922.1
step02_gravity_refstate-crust.xmf,591,8.67908e-07,1.06093e-07,0,-1.50047e-06,-6.43128e+08,-6.4318e+08,-6.43188e+08,-102932,0.00738261,0.0297314,0,0.0306343,-24223,-23417.4,-0,33691.6,102932
step02_gravity_refstate-crust.xmf,592,-2.23793e-06,2.91515e-06,0,7.73962e-08,-2.82173e+08,-2.81819e+08,-2.82019e+08,5309.38,-0.0005049,-0.0686546,-0,0.0686564,226.458,-10268.2,0,10270.7,5309.38
step02_gravity_refstate-crust.xmf,593,-2.3258e-06,3.33707e-06,0,2.84431e-08,-3.17287e+08,-3.16898e+08,-3.17127e+08,1951.2,-0.000206904,-0.0726572,-0,0.0726574,88.957,-11546.9,0,11547.2,1951.2
step02_gravity_refstate-crust.xmf,594,-2.48896e-06,3.91354e-06,0,-1.03253e-08,-3.56447e+08,-3.56008e+08,-3.56276e+08,-708.316,5.3163e-05,-0.0778084,0,0.0778084,-21.2392,-12972.8,-0,12972.8,708.316
step02_gravity_refstate-crust.xmf,595,-2.69805e-06,4.5075e-06,0,-6.93658e-08,-3.9333e+08,-3.92836e+08,-3.93145e+08,-4758.49,0.000364063,-0.0834208,0,0.0834216,-135.116,-14315.6,-0,14316.3,4758.49
step02_gravity_refstate-crust.xmf,596,-2.9341e-06,5.10929e-06,0,-1.96575e-07,-4.26842e+08,-4.2629e+08,-4.2664e+08,-13485,0.000968137,-0.0892167,0,0.0892219,-330.311,-15535.6,-0,15539.1,13485
step02_gravity_refstate-crust.xmf,597,-2.18248e-06,2.25633e-06,0,3.12687e-07,-2.19418e+08,-2.19113e+08,-2.19268e+08,21450.3,-0.00248481,-0.0624299,-0,0.0624794,1132.56,-7982.78,0,8062.72,21450.3
step02_gravity_refstate-crust.xmf,598,-2.57087e-06,1.4616e-06,0,3.93614e-07,-1.00432e+08,-1.00155e+08,-1.00256e+08,27002,-0.00738276,-0.0529205,-0,0.0534329,2805.99,-3648.19,0,4602.49,27002
step02_gravity_refstate-crust.xmf,599,-2.94133e-06,1.30581e-06,0,2.93752e-07,-4.84295e+07,-4.81381e+07,-4.82277e+07,20151.4,-0.0121928,-0.0484744,-0,0.0499844,3959.46,-1753.25,0,4330.27,20151.4
step02_gravity_refstate-crust.xmf,600,-3.12143e-06,5.55582e-06,0,-3.95957e-07,-4.50423e+08,-4.49827e+08,-4.50208e+08,-27162.6,0.00186382,-0.0936613,0,0.0936798,-595.742,-16394.1,-0,16404.9,27162.6
step02_gravity_refstate-crust.xmf,601,-3.37984e-06,6.15352e-06,0,-3.6704e-07,-4.75685e+08,-4.75031e+08,-4.75453e+08,-25178.9,0.00170726,-0.0990876,0,0.0991023,-504.702,-17313.7,-0,17321,25178.9
step02_gravity_refstate-crust.xmf,602,-3.68545e-06,6.82915e-06,0,-3.98361e-07,-5.02574e+08,-5.01852e+08,-5.02321e+08,-27327.6,0.00176892,-0.105419,0,0.105434,-479.542,-18292.4,-0,18298.6,27327.6
step02_gravity_refstate-crust.xmf,603,-7.4354e-06,1.50072e-05,0,-3.78013e-06,-6.96919e+08,-6.95379e+08,-6.96409e+08,-259317,0.0105726,-0.175795,0,0.176113,-1332.57,-25365.2,-0,25400.2,259317
step02_gravity_refstate-crust.xmf,604,-6.62294e-06,1.34593e-05,0,-3.98393e-06,-6.81065e+08,-6.79687e+08,-6.8061e+08,-273298,0.0119291,-0.165634,0,0.166063,-1644.47,-24788.9,-0,24843.4,273298
step02_gravity_refstate-crust.xmf,605,-4.04682e-06,7.60851e-06,0,-5.11731e-07,-5.30347e+08,-5.29547e+08,-5.30069e+08,-35104.7,0.00216894,-0.112629,0,0.11265,-535.026,-19303.2,-0,19310.6,35104.7
step02_gravity_refstate-crust.xmf,606,-4.46932e-06,8.50693e-06,0,-6.75692e-07,-5.58536e+08,-5.57646e+08,-5.58229e+08,-46352.5,0.00271779,-0.12077,0,0.1208,-605.972,-20329.1,-0,20338.2,46352.5
step02_gravity_refstate-crust.xmf,607,-5.93053e-06,1.16542e-05,0,-2.5418e-06,-6.42185e+08,-6.40979e+08,-6.41778e+08,-174368,0.00842998,-0.149354,0,0.149592,-1363.04,-23373.4,-0,23413.2,174368
step02_gravity_refstate-crust.xmf,608,-6.36643e-06,1.27367e-05,0,-3.28518e-06,-6.65246e+08,-6.63936e+08,-6.64809e+08,-225364,0.0102442,-0.158908,0,0.159237,-1505.95,-24212.9,-0,24259.7,225364
step02_gravity_refstate-crust.xmf,609,-4.97443e-06,9.52686e-06,0,-6.66625e-07,-5.85839e+08,-5.84844e+08,-5.85498e+08,-45730.5,0.00256159,-0.129762,0,0.129787,-513.76,-21322.7,-0,21328.9,45730.5
step02_gravity_refstate-crust.xmf,610,-5.65136e-06,1.08911e-05,0,-1.4249e-06,-6.21037e+08,-6.19903e+08,-6.2065e+08,-97747.9,0.00498628,-0.142204,0,0.142292,-870.839,-22603.5,-0,22620.3,97747.9
step02_gravity_refstate-crust.xmf,611,-8.65055e-06,1.7785e-05,0,-5.0558e-06,-7.30931e+08,-7.29117e+08,-7.30337e+08,-346828,0.012196,-0.196227,0,0.196606,-1301.4,-26602.8,-0,26634.6,346828
step02_gravity_refstate-crust.xmf,612,-1.25934e-06,1.02095e-05,0,-1.46481e-05,-8.2742e+08,-8.26633e+08,-8.27333e+08,-1.00486e+06,0.0246409,-0.21911,0,0.220491,-2966.36,-30133.8,-0,30279.4,1.00486e+06
step02_gravity_refstate-crust.xmf,613,-7.87187e-06,2.07523e-05,0,-1.38629e-05,-7.99388e+08,-7.97425e+08,-7.98848e+08,-950995,0.0228558,-0.234791,0,0.235901,-2000.3,-29102.8,-0,29171.5,950995
step02_gravity_refstate-crust.xmf,614,-5.1763e-06,1.71363e-05,0,-1.70447e-05,-8.1111e+08,-8.09579e+08,-8.10755e+08,-1.16926e+06,0.0248036,-0.235426,0,0.236729,-2266.96,-29534.9,-0,29621.7,1.16926e+06
step02_gravity_refstate-crust.xmf,615,-1.00582e-05,2.13284e-05,0,-6.20933e-06,-7.61009e+08,-7.58855e+08,-7.60319e+08,-425960,0.0129386,-0.218657,0,0.21904,-1185.97,-27697.6,-0,27723,425960
step02_gravity_refstate-crust.xmf,616,-9.90679e-06,2.1994e-05,0,-8.37659e-06,-7.747e+08,-7.72512e+08,-7.7402e+08,-574634,0.0163192,-0.226314,0,0.226902,-1438.86,-28197.7,-0,28234.4,574634
step02_gravity_refstate-crust.xmf,617,-9.28077e-06,2.20097e-05,0,-1.09082e-05,-7.87549e+08,-7.85403e+08,-7.86913e+08,-748300,0.0197167,-0.232083,0,0.232919,-1707.47,-28668,-0,28718.9,748300
step02_gravity_refstate-crust.xmf,618,3.10987e-07,4.90593e-06,0,-1.27959e-05,-8.43717e+08,-8.43402e+08,-8.43739e+08,-877800,0.021397,-0.193196,0,0.194377,-3856.65,-30725.2,-0,30966.3,877800
step02_gravity_refstate-crust.xmf,619,2.33457e-06,8.11088e-07,0,-7.21593e-06,-7.97879e+08,-7.97983e+08,-7.98039e+08,-495013,0.0239238,-0.114811,0,0.117277,-6973.96,-29058.3,-0,29883.4,495013
step02_gravity_refstate-crust.xmf,620,2.19868e-06,1.62764e-06,0,-8.62252e-06,-8.12961e+08,-8.13e+08,-8.13112e+08,-591505,0.024338,-0.137364,0,0.139504,-5858.24,-29608.1,-0,30182.1,591505
step02_gravity_refstate-crust.xmf,621,1.65273e-06,2.87306e-06,0,-1.03391e-05,-8.28232e+08,-8.28148e+08,-8.28345e+08,-709263,0.0237357,-0.16308,0,0.164798,-4821.13,-30163.7,-0,30546.6,709263
step02_gravity_refstate-crust.xmf,622,-9.57762e-07,7.51769e-06,0,-1.45389e-05,-8.42588e+08,-8.42006e+08,-8.42522e+08,-997371,0.0215212,-0.212775,0,0.213861,-3277.79,-30683,-0,30857.6,997371
step02_gravity_refstate-crust.xmf,623,1.81737e-06,2.47993e-07,0,-4.53268e-06,-7.0179e+08,-7.01898e+08,-7.01915e+08,-310942,0.0224173,-0.0554763,0,0.0598344,-11254.3,-25557.1,-0,27925.4,310942
step02_gravity_refstate-crust.xmf,624,1.90241e-06,3.4102e-07,0,-4.89173e-06,-7.16671e+08,-7.16778e+08,-7.16802e+08,-335573,0.023164,-0.0641674,0,0.0682204,-10459.2,-26099.4,-0,28117.1,335573
step02_gravity_refstate-crust.xmf,625,1.98751e-06,4.40091e-07,0,-5.27626e-06,-7.31272e+08,-7.31378e+08,-7.31408e+08,-361952,0.0237945,-0.0730082,0,0.0767879,-9717.77,-26631.4,-0,28349,361952
step02_gravity_refstate-crust.xmf,626,2.09203e-06,5.10556e-07,0,-5.67773e-06,-7.48225e+08,-7.48334e+08,-7.48369e+08,-389492,0.0241396,-0.0822726,0,0.0857409,-9010.54,-27249.1,-0,28700.3,389492
step02_gravity_refstate-crust.xmf,627,2.18108e-06,5.70203e-07,0,-6.04573e-06,-7.62121e+08,-7.62232e+08,-7.62271e+08,-414737,0.0242792,-0.0903148,0,0.0935213,-8447,-27755.5,-0,29012.4,414737
step02_gravity_refstate-crust.xmf,628,1.73131e-06,1.8401e-07,0,-4.23932e-06,-6.87657e+08,-6.87763e+08,-6.87775e+08,-290817,0.0217125,-0.0479471,0,0.0526342,-12000.2,-25042.1,-0,27768.9,290817
step02_gravity_refstate-crust.xmf,629,1.74567e-06,-2.5575e-07,0,-3.37692e-06,-7.04868e+08,-7.05005e+08,-7.04988e+08,-231657,0.0175112,-0.0309147,0,0.0355297,-13887.2,-25668.1,-0,29184,231657
step02_gravity_refstate-crust.xmf,630,1.76244e-06,-4.94543e-08,0,-3.84865e-06,-6.9305e+08,-6.93174e+08,-6.93171e+08,-264017,0.0199977,-0.0401102,0,0.044819,-12841.8,-25238.2,-0,28317.5,264017
step02_gravity_refstate-crust.xmf,631,1.19467e-06,-1.17866e-07,0,-2.12346e-06,-6.48361e+08,-6.48451e+08,-6.48443e+08,-145669,0.011481,0.00996494,0,0.0152024,-20010.1,-23608.9,-0,30948.1,145669
step02_gravity_refstate-crust.xmf,632,1.06186e-06,-5.99963e-08,0,-1.82805e-06,-6.67406e+08,-6.67483e+08,-6.67479e+08,-125404,0.00916601,0.0167736,0,0.0191146,-21317.3,-24301.8,-0,32326.5,125404
step02_gravity_refstate-crust.xmf,633,4.37334e-07,5.76692e-07,0,-1.80446e-09,-5.75788e+08,-5.75778e+08,-5.75818e+08,-123.786,1.22666e-19,0.0617021,0,0.0617021,-40000,-20964.8,-0,45161.1,123.786
step02_gravity_refstate-crust.xmf,634,5.06206e-07,4.67719e-07,0,-7.56199e-07,-6.15053e+08,-6.15056e+08,-6.15088e+08,-51875.2,0.00335239,0.0521162,0,0.0522239,-31534.6,-22394.4,-0,38677.4,51875.2
step02_gravity_refstate-crust.xmf,635,3.90579e-07,5.79976e-07,0,-5.69269e-07,-6.38143e+08,-6.3813e+08,-6.3817e+08,-39051.9,0.00214412,0.0548386,0,0.0548805,-33252.3,-23234.7,-0,40565.6,39051.9
step02_gravity_refstate-crust.xmf,636,6.46954e-07,3.18988e-07,0,-1.07298e-06,-6.19601e+08,-6.19623e+08,-6.19645e+08,-73606.7,0.00507776,0.0440744,0,0.0443659,-28326,-22560.3,-0,36212.3,73606.7
step02_gravity_refstate-crust.xmf,637,8.49076e-07,9.95232e-08,0,-1.47289e-06,-6.71884e+08,-6.71936e+08,-6.71943e+08,-101040,0.00667972,0.0275731,0,0.0283707,-23718.3,-24464.2,-0,34074.2,101040
step02_gravity_refstate-crust.xmf,638,-3.38937e-06,1.28846e-06,0,2.01331e-09,-321867,-967.3,-89355.9,138.113,-0.0183589,-0.0441557,-0,0.0478202,4992.34,0,0,4992.34,138.113
step02_gravity_refstate-crust.xmf,639,-2.18575e-06,2.66479e-06,0,3.65151e-07,-2.61238e+08,-2.60905e+08,-2.61088e+08,25049.3,-0.00248462,-0.0661539,-0,0.0662005,1130.55,-9505.92,0,9572.91,25049.3
step02_gravity_refstate-crust.xmf,640,-2.24998e-06,3.11083e-06,0,4.49979e-07,-3.00643e+08,-3.00276e+08,-3.00489e+08,30868.6,-0.00276154,-0.0702057,-0,0.07026,1217.98,-10940.9,0,11008.5,30868.6
step02_gravity_refstate-crust.xmf,641,-2.26764e-06,1.71699e-06,0,5.38118e-07,-1.54336e+08,-1.54062e+08,-1.5418e+08,36914.9,-0.00616793,-0.0562231,-0,0.0565604,2649.76,-5612.23,0,6206.32,36914.9
step02_gravity_refstate-crust.xmf,642,-2.14235e-06,2.02611e-06,0,6.35124e-07,-1.98778e+08,-1.98492e+08,-1.98631e+08,43569.5,-0.00559813,-0.0593736,-0,0.0596369,2545.92,-7231.18,0,7666.27,43569.5
step02_gravity_refstate-crust.xmf,643,-8.45869e-06,1.69154e-05,0,-3.41219e-06,-7.14804e+08,-7.13063e+08,-7.14224e+08,-234076,0.00874776,-0.188135,0,0.188338,-995.048,-26015.1,-0,26034.1,234076
step02_gravity_refstate-crust.xmf,644,-7.17535e-06,1.41597e-05,0,-2.61231e-06,-6.80066e+08,-6.78602e+08,-6.79573e+08,-179205,0.00773564,-0.168349,0,0.168527,-1043.45,-24751.4,-0,24773.3,179205
step02_gravity_refstate-crust.xmf,645,-5.39596e-06,1.03379e-05,0,-5.52713e-07,-6.05772e+08,-6.04693e+08,-6.05402e+08,-37916.1,0.00205077,-0.13707,0,0.137085,-379.34,-22047.9,-0,22051.2,37916.1
step02_gravity_refstate-crust.xmf,646,-9.89543e-06,2.03153e-05,0,-4.4386e-06,-7.46951e+08,-7.44879e+08,-7.46272e+08,-304488,0.00986242,-0.210077,0,0.210308,-953.323,-27184.9,-0,27201.6,304488
step02_gravity_refstate-crust.xmf,647,-2.58891e-06,1.41915e-05,0,-1.56139e-05,-8.21041e+08,-8.19889e+08,-8.20863e+08,-1.07111e+06,0.0248143,-0.233017,0,0.234334,-2503.55,-29902.3,-0,30006.9,1.07111e+06
step02_gravity_refstate-crust.xmf,648,-5.34812e-07,5.19764e-06,0,-1.45131e-05,-8.5786e+08,-8.57467e+08,-8.57824e+08,-995597,0.0176017,-0.207717,0,0.208461,-3512.39,-31237.1,-0,31434,995597
step02_gravity_refstate-crust.xmf,649,-2.26251e-06,8.06186e-06,0,-1.70299e-05,-8.55306e+08,-8.54598e+08,-8.55151e+08,-1.16825e+06,0.0175311,-0.230218,0,0.230884,-2923.02,-31141.6,-0,31278.5,1.16825e+06
step02_gravity_refstate-crust.xmf,650,1.24008e-06,3.00485e-06,0,-1.11424e-05,-8.43801e+08,-8.4368e+08,-8.43886e+08,-764369,0.0208764,-0.174319,0,0.175564,-4473.13,-30729.1,-0,31052.9,764369
step02_gravity_refstate-crust.xmf,651,2.39008e-06,7.50784e-07,0,-7.57029e-06,-8.13937e+08,-8.1405e+08,-8.14101e+08,-519322,0.0225819,-0.122914,0,0.124971,-6566.27,-29643,-0,30361.6,519322
step02_gravity_refstate-crust.xmf,652,2.09353e-06,1.61337e-06,0,-9.09427e-06,-8.28907e+08,-8.28939e+08,-8.2905e+08,-623867,0.0223655,-0.146654,0,0.14835,-5487.03,-30188.1,-0,30682.8,623867
step02_gravity_refstate-crust.xmf,653,1.56249e-06,-3.1447e-07,0,-2.7746e-06,-7.03583e+08,-7.03712e+08,-7.0369e+08,-190337,0.0143738,-0.0157768,0,0.0213427,-15828.5,-25620.5,-0,30115.6,190337
step02_gravity_refstate-crust.xmf,654,1.66418e-06,-3.63459e-07,0,-2.95004e-06,-7.18296e+08,-7.18435e+08,-7.1841e+08,-202373,0.0149116,-0.0225288,0,0.0270167,-14904.7,-26156.4,-0,30105,202373
step02_gravity_refstate-crust.xmf,655,2.35857e-06,2.44456e-07,0,-6.01542e-06,-7.82903e+08,-7.83048e+08,-7.83065e+08,-412658,0.0227129,-0.0934691,0,0.0961891,-8253.94,-28512.3,-0,29683,412658
step02_gravity_refstate-crust.xmf,656,2.4227e-06,1.80984e-07,0,-6.32978e-06,-8.005e+08,-8.00654e+08,-8.00666e+08,-434223,0.0217692,-0.101798,0,0.104099,-7733.9,-29153.1,-0,30161.5,434223
step02_gravity_refstate-crust.xmf,657,1.28397e-06,-1.81929e-07,0,-2.26292e-06,-6.68082e+08,-6.68182e+08,-6.6817e+08,-155236,0.0120485,0.00341995,0,0.0125244,-18828.5,-24327.1,-0,30762.3,155236
step02_gravity_refstate-crust.xmf,658,1.38765e-06,-2.4582e-07,0,-2.41954e-06,-6.84145e+08,-6.84257e+08,-6.8424e+08,-165980,0.0127244,-0.00326325,0,0.0131362,-17708.8,-24912.2,-0,30565,165980
step02_gravity_refstate-crust.xmf,659,9.13691e-07,3.38122e-08,0,-1.56967e-06,-6.88011e+08,-6.88072e+08,-6.88074e+08,-107680,0.00697324,0.022635,0,0.0236848,-22570.6,-25051.5,-0,33719.5,107680
step02_gravity_refstate-crust.xmf,660,3.59273e-07,6.38257e-07,0,-1.40151e-07,-6.1008e+08,-6.1006e+08,-6.10104e+08,-9614.33,0.000583003,0.060612,0,0.0606148,-38359.1,-22213,-0,44326.5,9614.33
step02_gravity_refstate-crust.xmf,661,3.04876e-07,6.77892e-07,0,-2.6683e-07,-6.38759e+08,-6.38734e+08,-6.3878e+08,-18304.5,0.000939456,0.0589746,0,0.0589821,-36740.4,-23256.9,-0,43482.7,18304.5
step02_gravity_refstate-crust.xmf,662,6.85136e-07,2.66705e-07,0,-1.18363e-06,-6.45356e+08,-6.45385e+08,-6.45403e+08,-81197.2,0.0053184,0.0390862,0,0.0394464,-26799,-23498,-0,35641.9,81197.2
step02_gravity_refstate-crust.xmf,663,7.37737e-07,1.96534e-07,0,-1.29576e-06,-6.72647e+08,-6.72685e+08,-6.72698e+08,-88889.2,0.00550349,0.0331853,0,0.0336385,-25164.3,-24491.7,-0,35115.3,88889.2
step02_gravity_refstate-crust.xmf,664,2.77592e-07,6.89537e-07,0,-3.94563e-07,-6.62462e+08,-6.62434e+08,-6.62481e+08,-27067,0.00118537,0.0566995,0,0.0567119,-35002,-24119.8,-0,42507.7,27067
step02_gravity_refstate-crust.xmf,665,5.1203e-07,4.42288e-07,0,-8.68473e-07,-6.44194e+08,-6.44199e+08,-6.4423e+08,-59577.2,0.0035065,0.0479591,0,0.0480871,-29908.7,-23455.3,-0,38008.9,59577.2
step02_gravity_refstate-crust.xmf,666,-2.67854e-06,1.19832e-06,0,4.14608e-07,-4.78563e+07,-4.75903e+07,-4.76725e+07,28442.1,-0.017783,-0.0440358,-0,0.0474909,5937.98,-1733.27,0,6185.78,28442.1
step02_gravity_refstate-crust.xmf,667,-2.37743e-06,3.59294e-06,0,4.93754e-07,-3.38875e+08,-3.38466e+08,-3.38712e+08,33871.5,-0.00284562,-0.0748849,-0,0.0749389,1187.66,-12333,0,12390.1,33871.5
step02_gravity_refstate-crust.xmf,668,-2.58217e-06,4.22695e-06,0,5.99408e-07,-3.8022e+08,-3.79753e+08,-3.80043e+08,41119.4,-0.00320414,-0.0807135,-0,0.0807771,1232.92,-13838.4,0,13893.2,41119.4
step02_gravity_refstate-crust.xmf,669,-3.15517e-06,5.64684e-06,0,2.82685e-07,-4.52707e+08,-4.52103e+08,-4.5249e+08,19392.2,-0.00135961,-0.0942166,-0,0.0942264,430.859,-16477.2,0,16482.9,19392.2
step02_gravity_refstate-crust.xmf,670,-2.85077e-06,4.92917e-06,0,4.62411e-07,-4.18476e+08,-4.17942e+08,-4.18281e+08,31721.4,-0.0023247,-0.0874321,-0,0.087463,812.098,-15231.1,0,15252.8,31721.4
step02_gravity_refstate-crust.xmf,671,-2.1037e-06,2.39808e-06,0,7.30617e-07,-2.41709e+08,-2.414e+08,-2.41565e+08,50120.4,-0.00535975,-0.0629055,-0,0.0631334,2477.53,-8794.86,0,9137.16,50120.4
step02_gravity_refstate-crust.xmf,672,-2.43132e-06,1.34443e-06,0,6.30236e-07,-9.35021e+07,-9.32431e+07,-9.33353e+07,43234.2,-0.0128035,-0.0487141,-0,0.0503686,4891.24,-3396.28,0,5954.75,43234.2
step02_gravity_refstate-crust.xmf,673,-3.51407e-06,6.45856e-06,0,3.38791e-07,-4.87895e+08,-4.87211e+08,-4.87654e+08,23241.1,-0.00153116,-0.101914,-0,0.101926,435.701,-17758.1,0,17763.4,23241.1
step02_gravity_refstate-crust.xmf,674,-3.88342e-06,7.25678e-06,0,3.64078e-07,-5.17817e+08,-5.17053e+08,-5.17551e+08,24975.7,-0.00157448,-0.109349,-0,0.10936,405.498,-18847.2,0,18851.5,24975.7
step02_gravity_refstate-crust.xmf,675,-8.04067e-06,1.57961e-05,0,-1.95358e-06,-6.97083e+08,-6.95448e+08,-6.96532e+08,-134015,0.00541253,-0.179012,0,0.179094,-665.007,-25369.9,-0,25378.7,134015
step02_gravity_refstate-crust.xmf,676,-4.30261e-06,8.13834e-06,0,3.76004e-07,-5.46644e+08,-5.4579e+08,-5.46349e+08,25793.9,-0.00154125,-0.117394,-0,0.117404,358.276,-19896.3,0,19899.5,25793.9
step02_gravity_refstate-crust.xmf,677,-4.76469e-06,9.09088e-06,0,3.98141e-07,-5.73891e+08,-5.72941e+08,-5.73565e+08,27312.5,-0.0015422,-0.125897,-0,0.125906,323.538,-20887.9,0,20890.4,27312.5
step02_gravity_refstate-crust.xmf,678,-6.75037e-06,1.31364e-05,0,-1.67489e-06,-6.61077e+08,-6.59713e+08,-6.60614e+08,-114898,0.00519871,-0.159893,0,0.159978,-759.972,-24060.2,-0,24072.2,114898
step02_gravity_refstate-crust.xmf,679,-5.31699e-06,1.01333e-05,0,4.79154e-07,-6.00931e+08,-5.99871e+08,-6.00566e+08,32870,-0.00178508,-0.135302,-0,0.135313,336.577,-21871.7,0,21874.3,32870
step02_gravity_refstate-crust.xmf,680,-5.81367e-06,1.11353e-05,0,-9.06926e-08,-6.21908e+08,-6.20746e+08,-6.21509e+08,-6221.51,0.000293549,-0.143536,0,0.143537,-50.7789,-22634.9,-0,22635,6221.51
step02_gravity_refstate-crust.xmf,681,-6.25619e-06,1.20464e-05,0,-9.08944e-07,-6.40313e+08,-6.39057e+08,-6.39884e+08,-62353.5,0.00298153,-0.150967,0,0.150996,-476.106,-23304.6,-0,23309.4,62353.5
step02_gravity_refstate-crust.xmf,682,-9.50773e-06,1.90004e-05,0,-2.63057e-06,-7.30816e+08,-7.28861e+08,-7.30164e+08,-180457,0.00625207,-0.20031,0,0.200408,-647.45,-26597.1,-0,26604.9,180457
step02_gravity_refstate-crust.xmf,683,-1.0654e-05,2.56613e-05,0,-1.06756e-05,-8.00553e+08,-7.98062e+08,-7.99822e+08,-732348,0.0180071,-0.24813,0,0.248782,-1472.68,-29141.6,-0,29178.7,732348
step02_gravity_refstate-crust.xmf,684,-2.47096e-06,1.01143e-05,0,-1.62263e-05,-8.40688e+08,-8.39824e+08,-8.40518e+08,-1.11312e+06,0.021247,-0.22921,0,0.230193,-2827.71,-30611.7,-0,30742.1,1.11312e+06
step02_gravity_refstate-crust.xmf,685,-1.31436e-06,5.32394e-06,0,-1.68625e-05,-8.69694e+08,-8.69239e+08,-8.69604e+08,-1.15677e+06,0.0138885,-0.223782,0,0.224213,-3160.96,-31665,-0,31822.4,1.15677e+06
step02_gravity_refstate-crust.xmf,686,-2.51295e-06,7.25658e-06,0,-1.92055e-05,-8.67383e+08,-8.66713e+08,-8.67211e+08,-1.3175e+06,0.0137452,-0.241682,0,0.242073,-2739.54,-31579,-0,31697.6,1.3175e+06
step02_gravity_refstate-crust.xmf,687,-9.65511e-06,2.57927e-05,0,-1.3636e-05,-8.11947e+08,-8.09515e+08,-8.11285e+08,-935428,0.0209192,-0.252289,0,0.253154,-1746.63,-29560.6,-0,29612.2,935428
step02_gravity_refstate-crust.xmf,688,-6.68239e-06,2.10998e-05,0,-1.82023e-05,-8.23885e+08,-8.21979e+08,-8.23427e+08,-1.24868e+06,0.022316,-0.254959,0,0.255934,-2000,-30000,-0,30066.6,1.24868e+06
step02_gravity_refstate-crust.xmf,689,-4.12889e-06,1.41678e-05,0,-1.69169e-05,-8.3286e+08,-8.31605e+08,-8.32577e+08,-1.1605e+06,0.0220939,-0.240736,0,0.241748,-2458.58,-30326.3,-0,30425.8,1.1605e+06
step02_gravity_refstate-crust.xmf,690,-1.10924e-05,2.28951e-05,0,-3.16983e-06,-7.61079e+08,-7.58748e+08,-7.60319e+08,-217450,0.00658261,-0.223558,0,0.223655,-584.979,-27698.4,-0,27704.6,217450
step02_gravity_refstate-crust.xmf,691,-1.13979e-05,2.43971e-05,0,-5.28574e-06,-7.75797e+08,-7.73342e+08,-7.75015e+08,-362602,0.0102514,-0.234194,0,0.234418,-864.196,-28235.3,-0,28248.6,362602
step02_gravity_refstate-crust.xmf,692,-1.12462e-05,2.52894e-05,0,-7.90389e-06,-7.88826e+08,-7.86319e+08,-7.88054e+08,-542207,0.0143052,-0.242368,0,0.24279,-1173.7,-28711.6,-0,28735.6,542207
step02_gravity_refstate-crust.xmf,693,5.44319e-07,3.12304e-06,0,-1.24036e-05,-8.59244e+08,-8.59067e+08,-8.59281e+08,-850889,0.017181,-0.186694,0,0.187483,-4126.37,-31288.7,-0,31559.6,850889
step02_gravity_refstate-crust.xmf,694,2.45667e-06,1.39022e-07,0,-6.65998e-06,-8.15291e+08,-8.1545e+08,-8.1546e+08,-456875,0.0206888,-0.109904,0,0.111834,-7265.27,-29691.6,-0,30567.6,456875
step02_gravity_refstate-crust.xmf,695,2.31733e-06,6.82947e-07,0,-7.94636e-06,-8.29917e+08,-8.30029e+08,-8.30076e+08,-545120,0.0206714,-0.131322,0,0.132939,-6174.41,-30224.4,-0,30848.6,545120
step02_gravity_refstate-crust.xmf,696,1.78724e-06,1.6028e-06,0,-9.68559e-06,-8.44573e+08,-8.44586e+08,-8.44695e+08,-664432,0.0197057,-0.156564,0,0.157799,-5123.48,-30757.2,-0,31181,664432
step02_gravity_refstate-crust.xmf,697,1.43998e-06,-3.10031e-07,0,-2.45176e-06,-7.09944e+08,-7.10064e+08,-7.10043e+08,-168191,0.01228,-0.00786519,0,0.0145829,-16958.6,-25851.6,-0,30917.6,168191
step02_gravity_refstate-crust.xmf,698,1.52386e-06,-3.86866e-07,0,-2.55931e-06,-7.31844e+08,-7.31975e+08,-7.31948e+08,-175569,0.0122541,-0.0144113,0,0.0189169,-15968.2,-26649.1,-0,31067,175569
step02_gravity_refstate-crust.xmf,699,1.88277e-06,-7.49952e-08,0,-4.06096e-06,-7.12411e+08,-7.12546e+08,-7.12541e+08,-278582,0.0202941,-0.0470051,0,0.0511989,-12102.7,-25943.6,-0,28627.7,278582
step02_gravity_refstate-crust.xmf,700,1.98949e-06,-6.20054e-08,0,-4.34314e-06,-7.28131e+08,-7.28272e+08,-7.28268e+08,-297939,0.02082,-0.05492,0,0.0587339,-11316.3,-26516.3,-0,28830.1,297939
step02_gravity_refstate-crust.xmf,701,2.09158e-06,-2.56769e-08,0,-4.6743e-06,-7.42565e+08,-7.4271e+08,-7.42708e+08,-320657,0.0213717,-0.0634509,0,0.0669535,-10535.7,-27042.2,-0,29022.1,320657
step02_gravity_refstate-crust.xmf,702,2.19106e-06,2.06173e-08,0,-5.04088e-06,-7.56949e+08,-7.57098e+08,-7.57099e+08,-345804,0.0218119,-0.0724564,0,0.0756682,-9780.23,-27566.4,-0,29249.9,345804
step02_gravity_refstate-crust.xmf,703,2.28449e-06,7.81497e-08,0,-5.44415e-06,-7.71093e+08,-7.71245e+08,-7.7125e+08,-373469,0.0220982,-0.0818483,0,0.084779,-9060.43,-28081.8,-0,29507.3,373469
step02_gravity_refstate-crust.xmf,704,1.76672e-06,-4.25707e-07,0,-3.12027e-06,-7.36534e+08,-7.36685e+08,-7.36655e+08,-214051,0.0151548,-0.0297183,0,0.0333593,-13982.9,-26820.8,-0,30246.9,214051
step02_gravity_refstate-crust.xmf,705,1.85779e-06,-2.96793e-07,0,-3.5844e-06,-7.23504e+08,-7.23652e+08,-7.23631e+08,-245890,0.0178831,-0.0383864,0,0.0423476,-13010.9,-26346.9,-0,29384.4,245890
step02_gravity_refstate-crust.xmf,706,1.14953e-06,-1.338e-07,0,-1.94894e-06,-6.8661e+08,-6.86698e+08,-6.86689e+08,-133697,0.00959247,0.0105453,0,0.0142555,-20085.6,-25001.2,-0,32070.1,133697
step02_gravity_refstate-crust.xmf,707,7.42795e-07,1.61016e-07,0,-1.33207e-06,-7.07246e+08,-7.07286e+08,-7.07297e+08,-91379.9,0.00493664,0.0283163,0,0.0287434,-23944.6,-25751.2,-0,35163.5,91379.9
step02_gravity_refstate-crust.xmf,708,9.76801e-07,-3.72371e-08,0,-1.65833e-06,-7.08272e+08,-7.08342e+08,-7.08339e+08,-113762,0.00709389,0.0170713,0,0.0184866,-21363.7,-25789.3,-0,33488.7,113762
step02_gravity_refstate-crust.xmf,709,2.71186e-07,7.15066e-07,0,-1.54201e-09,-6.42102e+08,-6.42072e+08,-6.42121e+08,-105.782,6.13878e-20,0.0601428,0,0.0601428,-40000,-23378.6,-0,46331,105.782
step02_gravity_refstate-crust.xmf,710,3.77808e-07,5.71777e-07,0,-6.7762e-07,-6.67532e+08,-6.67519e+08,-6.67558e+08,-46484.7,0.0021932,0.0512485,0,0.0512954,-31596.3,-24304.6,-0,39862.7,46484.7
step02_gravity_refstate-crust.xmf,711,2.50115e-07,6.98263e-07,0,-5.06138e-07,-6.9085e+08,-6.90819e+08,-6.90867e+08,-34721.1,0.00117363,0.0537121,0,0.0537249,-33315.7,-25153.2,-0,41744.6,34721.1
step02_gravity_refstate-crust.xmf,712,5.28e-07,4.05118e-07,0,-9.63378e-07,-6.71566e+08,-6.71574e+08,-6.71602e+08,-66087.7,0.00353303,0.043497,0,0.0436403,-28363.8,-24451.8,-0,37448.5,66087.7
step02_gravity_refstate-crust.xmf,713,-2.99193e-06,1.13956e-06,0,6.5285e-09,-284032,-611.111,-78785.1,447.855,-0.0247885,-0.0390867,-0,0.0462843,7002.37,0,0,7002.37,447.855
step02_gravity_refstate-crust.xmf,714,-2.13623e-06,2.81723e-06,0,8.26235e-07,-2.82446e+08,-2.82106e+08,-2.823e+08,56679.7,-0.00533341,-0.0668322,-0,0.0670446,2421.93,-10278.5,0,10559.9,56679.7
step02_gravity_refstate-crust.xmf,715,-2.22536e-06,3.27638e-06,0,9.22275e-07,-3.21028e+08,-3.2065e+08,-3.20875e+08,63268,-0.0054371,-0.0711784,-0,0.0713858,2363.71,-11683.4,0,11920.1,63268
step02_gravity_refstate-crust.xmf,716,-2.22678e-06,1.54272e-06,0,7.4671e-07,-1.36594e+08,-1.36335e+08,-1.36441e+08,51224.3,-0.00995184,-0.0524719,-0,0.0534073,4203.83,-4966.2,0,6506.56,51224.3
step02_gravity_refstate-crust.xmf,717,-2.07149e-06,1.80211e-06,0,8.96192e-07,-1.80166e+08,-1.799e+08,-1.80024e+08,61478.8,-0.00883426,-0.0555118,-0,0.0562104,4011.08,-6553.53,0,7683.59,61478.8
step02_gravity_refstate-crust.xmf,718,-1.99432e-06,2.12492e-06,0,1.03925e-06,-2.23231e+08,-2.22949e+08,-2.23094e+08,71292.4,-0.00828445,-0.0588251,-0,0.0594056,3891.45,-8122.18,0,9006.28,71292.4
step02_gravity_refstate-crust.xmf,719,-8.93078e-06,1.75491e-05,0,-1.10326e-06,-7.14009e+08,-7.12192e+08,-7.13396e+08,-75683.3,0.0027972,-0.190139,0,0.190159,-313.445,-25985.2,-0,25987.1,75683.3
step02_gravity_refstate-crust.xmf,720,-7.49529e-06,1.45427e-05,0,-8.62383e-07,-6.789e+08,-6.77389e+08,-6.78386e+08,-59159.5,0.00257487,-0.169713,0,0.169732,-343.727,-24708.2,-0,24710.6,59159.5
step02_gravity_refstate-crust.xmf,721,-1.84368e-06,5.2074e-06,0,-1.95957e-05,-8.79166e+08,-8.78682e+08,-8.79039e+08,-1.34426e+06,0.0106344,-0.241711,0,0.241945,-2796.57,-32007.5,-0,32129.4,1.34426e+06
step02_gravity_refstate-crust.xmf,722,-1.05039e-05,2.11727e-05,0,-1.56726e-06,-7.45835e+08,-7.43662e+08,-7.45115e+08,-107514,0.00348687,-0.212368,0,0.212396,-331.657,-27143.2,-0,27145.2,107514
step02_gravity_refstate-crust.xmf,723,-4.43951e-06,1.2409e-05,0,-1.90524e-05,-8.46466e+08,-8.4531e+08,-8.46161e+08,-1.307e+06,0.0184175,-0.24787,0,0.248553,-2444.21,-30817.7,-0,30914.5,1.307e+06
step02_gravity_refstate-crust.xmf,724,-3.93852e-06,1.00693e-05,0,-2.07657e-05,-8.59871e+08,-8.5891e+08,-8.59601e+08,-1.42453e+06,0.0147565,-0.254501,0,0.254929,-2418.95,-31304.1,-0,31397.4,1.42453e+06
step02_gravity_refstate-crust.xmf,725,-1.20528e-05,2.83396e-05,0,-7.3292e-06,-8.02273e+08,-7.99502e+08,-8.01446e+08,-502783,0.0126764,-0.258044,0,0.258355,-999.336,-29202.7,-0,29219.7,502783
step02_gravity_refstate-crust.xmf,726,-9.23777e-07,3.57836e-06,0,-1.73863e-05,-8.81961e+08,-8.81652e+08,-8.81898e+08,-1.1927e+06,0.0103796,-0.224754,0,0.224994,-3185.3,-32110.5,-0,32268.1,1.1927e+06
step02_gravity_refstate-crust.xmf,727,-1.96746e-07,3.05571e-06,0,-1.46147e-05,-8.75287e+08,-8.75064e+08,-8.75273e+08,-1.00257e+06,0.0126225,-0.203466,0,0.203857,-3697.28,-31869.6,-0,32083.4,1.00257e+06
step02_gravity_refstate-crust.xmf,728,1.34183e-06,1.57284e-06,0,-1.05693e-05,-8.5995e+08,-8.59934e+08,-8.60042e+08,-725056,0.0163549,-0.167268,0,0.168065,-4764.62,-31315.2,-0,31675.6,725056
step02_gravity_refstate-crust.xmf,729,2.39974e-06,3.00278e-08,0,-6.92219e-06,-8.30943e+08,-8.31105e+08,-8.31107e+08,-474863,0.0188158,-0.116998,0,0.118502,-6884.36,-30261.1,-0,31034.3,474863
step02_gravity_refstate-crust.xmf,730,2.10211e-06,6.14877e-07,0,-8.41429e-06,-8.4572e+08,-8.45822e+08,-8.45864e+08,-577220,0.0181327,-0.140106,0,0.141274,-5796.19,-30798.7,-0,31339.4,577220
step02_gravity_refstate-crust.xmf,731,1.61406e-06,-4.62648e-07,0,-2.69714e-06,-7.50111e+08,-7.50254e+08,-7.50222e+08,-185024,0.0123401,-0.0213393,0,0.0246504,-14996.6,-27314.4,-0,31160.4,185024
step02_gravity_refstate-crust.xmf,732,2.43165e-06,-2.45684e-07,0,-5.97161e-06,-8.16728e+08,-8.16912e+08,-8.16895e+08,-409652,0.0190222,-0.0997705,0,0.101568,-7856.48,-29743.3,-0,30763.4,409652
step02_gravity_refstate-crust.xmf,733,2.35873e-06,-3.1751e-07,0,-5.1558e-06,-7.94904e+08,-7.95087e+08,-7.95065e+08,-353688,0.0193405,-0.0816485,0,0.0839079,-9067.5,-28948.3,-0,30335.2,353688
step02_gravity_refstate-crust.xmf,734,2.39942e-06,-3.41592e-07,0,-5.51294e-06,-8.10599e+08,-8.10787e+08,-8.10764e+08,-378188,0.018647,-0.0909241,0,0.0928165,-8418.14,-29519.8,-0,30696.7,378188
step02_gravity_refstate-crust.xmf,735,2.38318e-06,-3.99404e-07,0,-6.05358e-06,-8.32258e+08,-8.32449e+08,-8.32422e+08,-415275,0.0169045,-0.104187,0,0.105549,-7585.54,-30308.2,-0,31243.1,415275
step02_gravity_refstate-crust.xmf,736,1.23686e-06,-2.06743e-07,0,-2.0746e-06,-7.02746e+08,-7.02845e+08,-7.02831e+08,-142317,0.0100556,0.0043935,0,0.0109735,-18954.5,-25588.9,-0,31844.3,142317
step02_gravity_refstate-crust.xmf,737,1.2922e-06,-2.718e-07,0,-2.14191e-06,-7.24264e+08,-7.24371e+08,-7.24352e+08,-146935,0.00990396,-0.000952566,0,0.00994967,-18020,-26372.4,-0,31940.9,146935
step02_gravity_refstate-crust.xmf,738,7.92897e-07,9.45458e-08,0,-1.40911e-06,-7.28855e+08,-7.28903e+08,-7.2891e+08,-96665.1,0.00483168,0.0230298,0,0.0235311,-22683.1,-26538.1,-0,34911.2,96665.1
step02_gravity_refstate-crust.xmf,739,1.92247e-07,7.82019e-07,0,-1.08925e-07,-6.73368e+08,-6.73327e+08,-6.73381e+08,-7472.26,0.000271932,0.0590487,0,0.0590493,-38558.8,-24516.6,-0,45693,7472.26
step02_gravity_refstate-crust.xmf,740,1.50766e-07,8.12026e-07,0,-2.3264e-07,-6.95438e+08,-6.95393e+08,-6.95449e+08,-15959.1,0.000427618,0.0574909,0,0.0574925,-36811.6,-25320,-0,44678.8,15959.1
step02_gravity_refstate-crust.xmf,741,5.52739e-07,3.56205e-07,0,-1.05228e-06,-6.98243e+08,-6.98256e+08,-6.98281e+08,-72186.4,0.00345016,0.0385963,0,0.0387502,-26833.3,-25423,-0,36964.3,72186.4
step02_gravity_refstate-crust.xmf,742,1.32364e-07,8.17037e-07,0,-3.46444e-07,-7.13824e+08,-7.13777e+08,-7.13833e+08,-23766,0.000455215,0.0554147,0,0.0554165,-35112,-25989.3,-0,43684,23766
step02_gravity_refstate-crust.xmf,743,3.76994e-07,5.48955e-07,0,-7.74665e-07,-6.96246e+08,-6.96235e+08,-6.96272e+08,-53142.1,0.00208305,0.047114,0,0.04716,-29948,-25349.9,-0,39236.5,53142.1
step02_gravity_refstate-crust.xmf,744,5.71276e-07,3.07596e-07,0,-1.1225e-06,-7.25658e+08,-7.25676e+08,-7.25697e+08,-77003.7,0.00314273,0.0335672,0,0.033714,-25407.9,-26421.1,-0,36655.6,77003.7
step02_gravity_refstate-crust.xmf,745,-2.12219e-06,1.20807e-06,0,8.5428e-07,-9.60737e+07,-9.58453e+07,-9.59282e+07,58603.6,-0.0173027,-0.0433597,-0,0.0466846,6910.96,-3490.95,0,7742.61,58603.6
step02_gravity_refstate-crust.xmf,746,-2.33595e-06,1.06213e-06,0,5.15051e-07,-4.73885e+07,-4.71554e+07,-4.72282e+07,35332.5,-0.0227621,-0.0381472,-0,0.0444221,7912,-1717.42,0,8096.25,35332.5
step02_gravity_refstate-crust.xmf,747,-2.36486e-06,3.75084e-06,0,1.01652e-06,-3.57528e+08,-3.57108e+08,-3.57365e+08,69733.4,-0.00564289,-0.0759312,-0,0.0761406,2306.32,-13012.4,0,13215.2,69733.4
step02_gravity_refstate-crust.xmf,748,-2.70436e-06,4.70637e-06,0,1.11752e-06,-4.14582e+08,-4.14073e+08,-4.14396e+08,76661.9,-0.00566097,-0.0851665,-0,0.0853544,2027.37,-15089.6,0,15225.2,76661.9
step02_gravity_refstate-crust.xmf,749,-2.9705e-06,5.32122e-06,0,1.01481e-06,-4.44094e+08,-4.43525e+08,-4.4389e+08,69616.3,-0.0049442,-0.0912303,-0,0.0913641,1625.18,-16163.9,0,16245.4,69616.3
step02_gravity_refstate-crust.xmf,750,-1.99044e-06,2.50348e-06,0,1.17051e-06,-2.64885e+08,-2.64577e+08,-2.64749e+08,80297.3,-0.00802935,-0.0625999,-0,0.0631127,3761.08,-9639.23,0,10347,80297.3
step02_gravity_refstate-crust.xmf,751,-2.11374e-06,1.39873e-06,0,9.17794e-07,-1.26674e+08,-1.26433e+08,-1.26529e+08,62960.7,-0.0134599,-0.0483517,-0,0.0501902,5695.21,-4605.32,0,7324.24,62960.7
step02_gravity_refstate-crust.xmf,752,-3.26766e-06,6.00639e-06,0,1.01321e-06,-4.74581e+08,-4.73945e+08,-4.74357e+08,69505.9,-0.00472074,-0.0978328,-0,0.0979467,1413.81,-17273.7,0,17331.4,69505.9
step02_gravity_refstate-crust.xmf,753,-3.60478e-06,6.7583e-06,0,1.13698e-06,-5.05232e+08,-5.04521e+08,-5.04984e+08,77997,-0.00504696,-0.104988,-0,0.105109,1370.31,-18389.3,0,18440.3,77997
step02_gravity_refstate-crust.xmf,754,-3.9854e-06,7.58534e-06,0,1.2921e-06,-5.35173e+08,-5.34379e+08,-5.349e+08,88638.1,-0.00545544,-0.112818,-0,0.11295,1337.09,-19479.1,0,19525,88638.1
step02_gravity_refstate-crust.xmf,755,-8.22231e-06,1.60009e-05,0,1.47065e-07,-6.96541e+08,-6.9488e+08,-6.95977e+08,10088.6,-0.000339853,-0.179752,-0,0.179752,41.4687,-25349.8,0,25349.8,10088.6
step02_gravity_refstate-crust.xmf,756,-4.42857e-06,8.44141e-06,0,1.34456e-06,-5.62895e+08,-5.62012e+08,-5.62592e+08,92236.5,-0.00549398,-0.121131,-0,0.121255,1215.47,-20487.9,0,20523.9,92236.5
step02_gravity_refstate-crust.xmf,757,-4.86847e-06,9.41709e-06,0,1.4945e-06,-5.87933e+08,-5.86953e+08,-5.87599e+08,102523,-0.00567519,-0.129413,-0,0.129537,1139.53,-21399.2,0,21429.5,102523
step02_gravity_refstate-crust.xmf,758,-6.89166e-06,1.33035e-05,0,-3.68409e-08,-6.59928e+08,-6.58543e+08,-6.59456e+08,-2527.28,9.16208e-05,-0.16035,0,0.16035,-13.3146,-24018.1,-0,24018.1,2527.28
step02_gravity_refstate-crust.xmf,759,-5.72656e-06,1.10444e-05,0,1.21688e-06,-6.22488e+08,-6.21338e+08,-6.22095e+08,83478.1,-0.00425824,-0.143061,-0,0.143124,737.598,-22656.2,0,22668.2,83478.1
step02_gravity_refstate-crust.xmf,760,-6.29132e-06,1.21204e-05,0,6.54893e-07,-6.40891e+08,-6.39628e+08,-6.40459e+08,44925.6,-0.00218327,-0.151381,-0,0.151396,347.437,-23325.6,0,23328.2,44925.6
step02_gravity_refstate-crust.xmf,761,-9.76481e-06,1.93201e-05,0,-1.80115e-08,-7.29945e+08,-7.2795e+08,-7.29275e+08,-1235.59,2.1806e-05,-0.201099,0,0.201099,-2.22766,-26564.8,-0,26564.8,1235.59
step02_gravity_refstate-crust.xmf,762,-3.16832e-06,7.65753e-06,0,-2.19942e-05,-8.72874e+08,-8.72132e+08,-8.72657e+08,-1.5088e+06,0.0113285,-0.259717,0,0.259964,-2398.19,-31776.9,-0,31867.3,1.5088e+06
step02_gravity_refstate-crust.xmf,763,-1.13404e-05,2.31227e-05,0,4.40091e-07,-7.59669e+08,-7.57305e+08,-7.58891e+08,30190.2,-0.000940069,-0.223925,-0,0.223927,83.3307,-27646.4,0,27646.5,30190.2
step02_gravity_refstate-crust.xmf,764,-1.14535e-05,2.91163e-05,0,-9.72147e-06,-8.1268e+08,-8.09897e+08,-8.11894e+08,-666893,0.0156267,-0.264836,0,0.265297,-1246.59,-29585.2,-0,29611.4,666893
step02_gravity_refstate-crust.xmf,765,-1.02366e-05,2.97003e-05,0,-1.27095e-05,-8.23914e+08,-8.21175e+08,-8.23212e+08,-871871,0.0181047,-0.271206,0,0.27181,-1499.28,-30000,-0,30037.4,871871
step02_gravity_refstate-crust.xmf,766,-6.88544e-06,1.71164e-05,0,-2.17309e-05,-8.37862e+08,-8.36215e+08,-8.3739e+08,-1.49074e+06,0.0182244,-0.26459,0,0.265217,-2000,-30501.8,-0,30567.3,1.49074e+06
step02_gravity_refstate-crust.xmf,767,-1.21343e-05,2.55986e-05,0,-1.63033e-06,-7.76037e+08,-7.73448e+08,-7.75204e+08,-111841,0.00318668,-0.2381,0,0.238121,-263.084,-28242.9,-0,28244.2,111841
step02_gravity_refstate-crust.xmf,768,-1.25166e-05,2.78383e-05,0,-3.93373e-06,-7.91634e+08,-7.88866e+08,-7.90776e+08,-269854,0.0072016,-0.251723,0,0.251826,-568.847,-28812.7,-0,28818.3,269854
step02_gravity_refstate-crust.xmf,769,-1.0062e-06,2.75666e-06,0,-1.98002e-05,-8.93013e+08,-8.92755e+08,-8.92944e+08,-1.35829e+06,0.00693809,-0.2398,0,0.2399,-2879.59,-32511.2,-0,32638.5,1.35829e+06
step02_gravity_refstate-crust.xmf,770,7.81024e-07,1.40709e-06,0,-1.19244e-05,-8.75449e+08,-8.75406e+08,-8.75503e+08,-818012,0.0123164,-0.179343,0,0.179765,-4395.34,-31876.9,-0,32178.5,818012
step02_gravity_refstate-crust.xmf,771,2.23395e-06,-7.62835e-08,0,-7.28237e-06,-8.46886e+08,-8.47045e+08,-8.47039e+08,-499571,0.0163824,-0.124963,0,0.126032,-6485.48,-30840.7,-0,31515.2,499571
step02_gravity_refstate-crust.xmf,772,1.75542e-06,5.01507e-07,0,-9.04609e-06,-8.6116e+08,-8.61246e+08,-8.6128e+08,-620562,0.0150085,-0.149539,0,0.15029,-5421.9,-31359.3,-0,31824.5,620562
step02_gravity_refstate-crust.xmf,773,1.34767e-06,-3.43539e-07,0,-2.21687e-06,-7.4517e+08,-7.45286e+08,-7.45262e+08,-152077,0.00968204,-0.00673381,0,0.0117935,-17066.8,-27133.6,-0,32054.8,152077
step02_gravity_refstate-crust.xmf,774,1.41245e-06,-4.25275e-07,0,-2.32172e-06,-7.64292e+08,-7.64418e+08,-7.64389e+08,-159270,0.00953708,-0.013349,0,0.0164059,-16050.5,-27829.9,-0,32126.6,159270
step02_gravity_refstate-crust.xmf,775,1.97258e-06,-3.31657e-07,0,-3.81187e-06,-7.40349e+08,-7.40507e+08,-7.40485e+08,-261494,0.0181878,-0.0459182,0,0.049389,-12192.8,-26960.6,-0,29589.5,261494
step02_gravity_refstate-crust.xmf,776,2.08104e-06,-3.45151e-07,0,-4.09298e-06,-7.54801e+08,-7.54967e+08,-7.54943e+08,-280778,0.0186212,-0.0541717,0,0.0572829,-11368.3,-27487.2,-0,29745.3,280778
step02_gravity_refstate-crust.xmf,777,2.18328e-06,-3.39276e-07,0,-4.41854e-06,-7.67907e+08,-7.6808e+08,-7.68056e+08,-303112,0.0190665,-0.0629293,0,0.0657543,-10566.4,-27964.7,-0,29894.4,303112
step02_gravity_refstate-crust.xmf,778,2.27588e-06,-3.34705e-07,0,-4.76116e-06,-7.81434e+08,-7.81613e+08,-7.8159e+08,-326616,0.0192784,-0.0719156,0,0.0744548,-9812.16,-28457.6,-0,30101.7,326616
step02_gravity_refstate-crust.xmf,779,1.69635e-06,-5.42121e-07,0,-2.84298e-06,-7.68029e+08,-7.68182e+08,-7.68145e+08,-195028,0.0122761,-0.0285278,0,0.031057,-14059,-27966.9,-0,31301.8,195028
step02_gravity_refstate-crust.xmf,780,1.86505e-06,-4.8879e-07,0,-3.30162e-06,-7.53883e+08,-7.54044e+08,-7.5401e+08,-226491,0.0152863,-0.0370844,0,0.0401114,-13106.4,-27452.6,-0,30420.8,226491
step02_gravity_refstate-crust.xmf,781,2.28771e-06,-6.74662e-07,0,-5.22656e-06,-8.31666e+08,-8.3187e+08,-8.31823e+08,-358542,0.0151167,-0.0907287,0,0.0919794,-8405.8,-30285.9,-0,31430.7,358542
step02_gravity_refstate-crust.xmf,782,1.05296e-06,-1.17322e-07,0,-1.7643e-06,-7.25827e+08,-7.25907e+08,-7.25899e+08,-121031,0.00732777,0.0110248,0,0.0132379,-20142.8,-26428.5,-0,33229.5,121031
step02_gravity_refstate-crust.xmf,783,5.95072e-07,2.50557e-07,0,-1.18852e-06,-7.49241e+08,-7.49265e+08,-7.49282e+08,-81532.5,0.00280979,0.0284973,0,0.0286355,-24073,-27279.7,-0,36382.6,81532.5
step02_gravity_refstate-crust.xmf,784,8.25654e-07,2.87124e-08,0,-1.47174e-06,-7.54422e+08,-7.54477e+08,-7.54479e+08,-100962,0.00439789,0.0172634,0,0.0178148,-21402.5,-27468.9,-0,34822.5,100962
step02_gravity_refstate-crust.xmf,785,9.02498e-08,8.73741e-07,0,-1.54089e-09,-7.07823e+08,-7.0777e+08,-7.0783e+08,-105.705,1.20417e-20,0.058243,0,0.058243,-40000,-25770.7,-0,47582.9,105.705
step02_gravity_refstate-crust.xmf,786,2.28979e-07,6.95465e-07,0,-6.00599e-07,-7.20389e+08,-7.20357e+08,-7.20405e+08,-41201.1,0.000937526,0.0501065,0,0.0501153,-31636.3,-26228.5,-0,41094.8,41201.1
step02_gravity_refstate-crust.xmf,787,9.56129e-08,8.32217e-07,0,-4.47771e-07,-7.43591e+08,-7.43541e+08,-7.43598e+08,-30717.1,0.000150025,0.0522894,0,0.0522896,-33347,-27072.9,-0,42953,30717.1
step02_gravity_refstate-crust.xmf,788,3.80314e-07,5.154e-07,0,-8.54519e-07,-7.22944e+08,-7.22934e+08,-7.2297e+08,-58620,0.00183291,0.0427414,0,0.0427806,-28402.3,-26321.8,-0,38723.8,58620
step02_gravity_refstate-crust.xmf,789,-2.49985e-06,9.54534e-07,0,9.7193e-09,-237215,-244.464,-65725.5,666.744,-0.0303753,-0.0326265,-0,0.0445775,9029.63,0,0,9029.63,666.744
step02_gravity_refstate-crust.xmf,790,-2.0465e-06,2.92559e-06,0,1.29581e-06,-3.04539e+08,-3.04198e+08,-3.04399e+08,88892.4,-0.00799108,-0.066812,-0,0.0672882,3623.29,-11083.3,0,11660.5,88892.4
step02_gravity_refstate-crust.xmf,791,-2.14788e-06,3.37983e-06,0,1.42866e-06,-3.42028e+08,-3.41649e+08,-3.41881e+08,98006.3,-0.00815746,-0.0713759,-0,0.0718406,3505.45,-12448.4,0,12932.6,98006.3
step02_gravity_refstate-crust.xmf,792,-2.49053e-06,4.19371e-06,0,1.18815e-06,-3.86999e+08,-3.8654e+08,-3.86828e+08,81507.1,-0.00625916,-0.079987,-0,0.0802315,2411.17,-14085.5,0,14290.4,81507.1
step02_gravity_refstate-crust.xmf,793,-1.96965e-06,1.58791e-06,0,1.09e-06,-1.63369e+08,-1.63125e+08,-1.63234e+08,74773.7,-0.0121147,-0.0508638,-0,0.0522866,5503.13,-5942.09,0,8098.95,74773.7
step02_gravity_refstate-crust.xmf,794,-1.86076e-06,1.85309e-06,0,1.2791e-06,-2.0539e+08,-2.05136e+08,-2.05263e+08,87746.2,-0.0112244,-0.0538794,-0,0.0550361,5358.95,-7472.79,0,9195.7,87746.2
step02_gravity_refstate-crust.xmf,795,-1.82372e-06,2.19097e-06,0,1.44881e-06,-2.48259e+08,-2.47984e+08,-2.48134e+08,99388.5,-0.0106437,-0.0576175,-0,0.0585923,5147.27,-9034.14,0,10397.6,99388.5
step02_gravity_refstate-crust.xmf,796,-1.85462e-06,1.36373e-06,0,1.18504e-06,-1.43836e+08,-1.43615e+08,-1.43708e+08,81293.7,-0.0154327,-0.0454201,-0,0.0479703,6966.92,-5231.09,0,8712.19,81293.7
step02_gravity_refstate-crust.xmf,797,-8.89075e-06,1.75163e-05,0,1.3419e-06,-7.13794e+08,-7.11982e+08,-7.13184e+08,92054.1,-0.00342898,-0.189863,-0,0.189894,384.931,-25977.5,0,25980.4,92054.1
step02_gravity_refstate-crust.xmf,798,-7.46405e-06,1.44749e-05,0,1.0177e-06,-6.78424e+08,-6.76919e+08,-6.77912e+08,69814.2,-0.00293171,-0.169388,-0,0.169413,392.49,-24690.9,0,24694,69814.2
step02_gravity_refstate-crust.xmf,799,-5.25563e-06,1.01926e-05,0,1.65083e-06,-6.07222e+08,-6.06162e+08,-6.06861e+08,113247,-0.00598661,-0.13633,-0,0.136461,1112.85,-22101,0,22129,113247
step02_gravity_refstate-crust.xmf,800,-2.20341e-06,5.04539e-06,0,-2.26729e-05,-8.86142e+08,-8.85644e+08,-8.85991e+08,-1.55536e+06,0.00802474,-0.262008,0,0.26213,-2412.95,-32259.8,-0,32349.9,1.55536e+06
step02_gravity_refstate-crust.xmf,801,-1.04384e-05,2.09998e-05,0,9.3756e-07,-7.43485e+08,-7.41328e+08,-7.42768e+08,64316.6,-0.0021171,-0.210838,-0,0.210848,203.965,-27057.6,0,27058.3,64316.6
step02_gravity_refstate-crust.xmf,802,-4.84361e-06,1.06428e-05,0,-2.47421e-05,-8.65387e+08,-8.64325e+08,-8.65055e+08,-1.69731e+06,0.0115796,-0.278447,0,0.278687,-2000,-31502.2,-0,31565.6,1.69731e+06
step02_gravity_refstate-crust.xmf,803,-5.92033e-06,1.38235e-05,0,-2.34596e-05,-8.51626e+08,-8.50271e+08,-8.5122e+08,-1.60933e+06,0.01479,-0.272325,0,0.272726,-2000,-31001.7,-0,31066.2,1.60933e+06
step02_gravity_refstate-crust.xmf,804,-1.2502e-05,3.10887e-05,0,-6.00157e-06,-8.13531e+08,-8.10541e+08,-8.12673e+08,-411708,0.00988846,-0.27335,0,0.273529,-768.106,-29615,-0,29624.9,411708
step02_gravity_refstate-crust.xmf,805,-1.27255e-05,2.98638e-05,0,-4.29886e-06,-8.03972e+08,-8.01051e+08,-8.03099e+08,-294902,0.00753345,-0.264585,0,0.264693,-582.626,-29264.2,-0,29270,294902
step02_gravity_refstate-crust.xmf,806,-2.29665e-07,1.6308e-06,0,-1.63378e-05,-8.92091e+08,-8.91963e+08,-8.92075e+08,-1.12077e+06,0.00754384,-0.21454,0,0.214673,-3452.4,-32479,-0,32662,1.12077e+06
step02_gravity_refstate-crust.xmf,807,1.34727e-06,3.04472e-07,0,-9.97215e-06,-8.76233e+08,-8.76304e+08,-8.76325e+08,-684090,0.0113682,-0.159764,0,0.160168,-5048.97,-31906,-0,32303.1,684090
step02_gravity_refstate-crust.xmf,808,2.23744e-06,-5.21708e-07,0,-6.30265e-06,-8.47924e+08,-8.48113e+08,-8.48077e+08,-432362,0.0145809,-0.110991,0,0.111945,-7193.56,-30877.8,-0,31704.6,432362
step02_gravity_refstate-crust.xmf,809,1.95253e-06,-2.00022e-07,0,-7.77969e-06,-8.62497e+08,-8.62645e+08,-8.62631e+08,-533687,0.0134178,-0.133456,0,0.134129,-6091.34,-31407.7,-0,31992.9,533687
step02_gravity_refstate-crust.xmf,810,4.15719e-07,8.08808e-07,0,-1.35828e-05,-8.90708e+08,-8.90681e+08,-8.90736e+08,-931783,0.00788637,-0.191716,0,0.191878,-4048.2,-32430,-0,32681.7,931783
step02_gravity_refstate-crust.xmf,811,1.47982e-06,-5.09527e-07,0,-2.44042e-06,-7.82174e+08,-7.82311e+08,-7.82276e+08,-167413,0.00930334,-0.0202249,0,0.0222621,-15068.1,-28481,-0,32221.4,167413
step02_gravity_refstate-crust.xmf,812,2.22355e-06,-6.39395e-07,0,-4.42153e-06,-8.06369e+08,-8.06565e+08,-8.06521e+08,-303317,0.0159607,-0.0709235,0,0.0726972,-9855.38,-29364.7,-0,30974.4,303317
step02_gravity_refstate-crust.xmf,813,2.26237e-06,-6.74253e-07,0,-4.76764e-06,-8.20086e+08,-8.20287e+08,-8.20241e+08,-327060,0.0154753,-0.080271,0,0.0817491,-9133.51,-29864.2,-0,31229.6,327060
step02_gravity_refstate-crust.xmf,814,2.11256e-06,-8.3079e-07,0,-5.42151e-06,-8.51483e+08,-8.51685e+08,-8.51628e+08,-371916,0.0122147,-0.0978774,0,0.0986367,-7929.5,-31006.4,-0,32004.2,371916
step02_gravity_refstate-crust.xmf,815,1.12403e-06,-1.94355e-07,0,-1.86751e-06,-7.41209e+08,-7.41299e+08,-7.41286e+08,-128111,0.00753465,0.00517242,0,0.0091392,-19042.4,-26988.7,-0,33030.3,128111
step02_gravity_refstate-crust.xmf,816,1.16852e-06,-2.63269e-07,0,-1.94127e-06,-7.58506e+08,-7.58604e+08,-7.58586e+08,-133171,0.0073857,-0.000212271,0,0.00738875,-18087.5,-27618.5,-0,33014.2,133171
step02_gravity_refstate-crust.xmf,817,6.32819e-07,1.86553e-07,0,-1.25871e-06,-7.69261e+08,-7.69291e+08,-7.69304e+08,-86347.6,0.00249222,0.0233901,0,0.0235225,-22818.5,-28008.6,-0,36127,86347.6
step02_gravity_refstate-crust.xmf,818,1.41835e-08,9.41812e-07,0,-9.89675e-08,-7.3597e+08,-7.35906e+08,-7.3597e+08,-6789.17,1.60609e-05,0.0570688,0,0.0570688,-38504.7,-26795.2,-0,46910.5,6789.17
step02_gravity_refstate-crust.xmf,819,-3.90197e-09,9.51379e-07,0,-2.19454e-07,-7.49757e+08,-7.49691e+08,-7.49756e+08,-15054.6,-7.5456e-05,0.0556198,-0,0.0556198,-36631.2,-27297.1,-0,45683.4,15054.6
step02_gravity_refstate-crust.xmf,820,3.91242e-07,4.72112e-07,0,-9.29644e-07,-7.48097e+08,-7.48091e+08,-7.48123e+08,-63773.6,0.00147012,0.0380721,0,0.0381005,-26907.6,-27237.5,-0,38287.1,63773.6
step02_gravity_refstate-crust.xmf,821,2.98028e-09,9.31776e-07,0,-3.29419e-07,-7.59427e+08,-7.59364e+08,-7.59428e+08,-22598.1,-0.000201976,0.0537189,-0,0.0537193,-34886,-27649.2,-0,44514.1,22598.1
step02_gravity_refstate-crust.xmf,822,2.15942e-07,6.79798e-07,0,-6.82142e-07,-7.48637e+08,-7.48605e+08,-7.48652e+08,-46794.9,0.000521199,0.0460991,0,0.0461021,-30017,-27256.8,-0,40545.7,46794.9
step02_gravity_refstate-crust.xmf,823,4.05503e-07,4.19862e-07,0,-9.99388e-07,-7.70815e+08,-7.70814e+08,-7.70843e+08,-68558,0.00104103,0.033246,0,0.0332623,-25489.7,-28064.6,-0,37912.4,68558
step02_gravity_refstate-crust.xmf,824,-1.91438e-06,1.04859e-06,0,8.86767e-07,-8.43066e+07,-8.41034e+07,-8.41753e+07,60832.2,-0.0215962,-0.0368839,-0,0.0427412,8682.37,-3063.15,0,9206.87,60832.2
step02_gravity_refstate-crust.xmf,825,-1.85785e-06,8.91153e-07,0,6.29621e-07,-5.20209e+07,-5.18324e+07,-5.18935e+07,43192,-0.0268407,-0.030538,-0,0.040657,10060.6,-1887.74,0,10236.1,43192
step02_gravity_refstate-crust.xmf,826,-1.71742e-06,1.15945e-06,0,1.19968e-06,-1.23523e+08,-1.23326e+08,-1.23406e+08,82298.3,-0.0189885,-0.0391541,-0,0.0435156,8494.05,-4491.84,0,9608.62,82298.3
step02_gravity_refstate-crust.xmf,827,-3.03698e-06,5.59598e-06,0,1.51786e-06,-4.65732e+08,-4.6514e+08,-4.65524e+08,104125,-0.00724143,-0.0942211,-0,0.0944989,2263.59,-16951.8,0,17102.3,104125
step02_gravity_refstate-crust.xmf,828,-2.28175e-06,3.83177e-06,0,1.57916e-06,-3.77263e+08,-3.76844e+08,-3.77107e+08,108330,-0.00856594,-0.0761491,-0,0.0766294,3444.02,-13731.3,0,14156.7,108330
step02_gravity_refstate-crust.xmf,829,-2.47108e-06,4.39965e-06,0,1.77303e-06,-4.14469e+08,-4.13998e+08,-4.143e+08,121630,-0.00910603,-0.0819513,-0,0.0824556,3360.51,-15086,0,15455.7,121630
step02_gravity_refstate-crust.xmf,830,-2.77813e-06,5.06655e-06,0,1.63237e-06,-4.43503e+08,-4.42965e+08,-4.43313e+08,111981,-0.00802497,-0.0887938,-0,0.0891557,2700.1,-16142.8,0,16367,111981
step02_gravity_refstate-crust.xmf,831,-1.8462e-06,2.56954e-06,0,1.60572e-06,-2.8886e+08,-2.88557e+08,-2.88733e+08,110152,-0.0104245,-0.0617244,-0,0.0625985,4939.91,-10512.7,0,11615.5,110152
step02_gravity_refstate-crust.xmf,832,-3.25502e-06,6.16457e-06,0,1.75786e-06,-4.92246e+08,-4.916e+08,-4.92023e+08,120589,-0.00803087,-0.0997348,-0,0.100058,2320.14,-17917.1,0,18066.7,120589
step02_gravity_refstate-crust.xmf,833,-3.96913e-06,7.77227e-06,0,2.18835e-06,-5.52673e+08,-5.51867e+08,-5.524e+08,150121,-0.00904042,-0.11554,-0,0.115893,2124.37,-20116.6,0,20228.4,150121
step02_gravity_refstate-crust.xmf,834,-3.572e-06,6.91078e-06,0,2.01718e-06,-5.23137e+08,-5.22418e+08,-5.22892e+08,138379,-0.00879061,-0.107112,-0,0.107472,2298.03,-19041.6,0,19179.8,138379
step02_gravity_refstate-crust.xmf,835,-7.9394e-06,1.55883e-05,0,2.23235e-06,-6.9598e+08,-6.94366e+08,-6.95436e+08,153139,-0.00610352,-0.178076,-0,0.178181,755.742,-25329.9,0,25341.2,153139
step02_gravity_refstate-crust.xmf,836,-4.39991e-06,8.63881e-06,0,2.39483e-06,-5.79915e+08,-5.79021e+08,-5.79614e+08,164286,-0.00948727,-0.124056,-0,0.124419,2012.53,-21108,0,21203.7,164286
step02_gravity_refstate-crust.xmf,837,-4.84565e-06,9.5933e-06,0,2.52924e-06,-6.02231e+08,-6.0124e+08,-6.01898e+08,173506,-0.00940483,-0.132191,-0,0.132525,1820.24,-21920.1,0,21995.5,173506
step02_gravity_refstate-crust.xmf,838,-6.71883e-06,1.30925e-05,0,1.6488e-06,-6.59942e+08,-6.58583e+08,-6.59481e+08,113108,-0.00517238,-0.159354,-0,0.159438,759.99,-24018.9,0,24030.9,113108
step02_gravity_refstate-crust.xmf,839,-5.38223e-06,1.06177e-05,0,2.45679e-06,-6.22516e+08,-6.21419e+08,-6.22147e+08,168536,-0.00866301,-0.140756,-0,0.141022,1530.29,-22658,0,22709.6,168536
step02_gravity_refstate-crust.xmf,840,-6.0126e-06,1.17697e-05,0,2.11715e-06,-6.40874e+08,-6.39654e+08,-6.40461e+08,145236,-0.00706584,-0.149616,-0,0.149783,1141.14,-23325.5,0,23353.4,145236
step02_gravity_refstate-crust.xmf,841,-9.49992e-06,1.91862e-05,0,2.90753e-06,-7.31737e+08,-7.29769e+08,-7.31085e+08,199456,-0.00688589,-0.20066,-0,0.200779,711.281,-26630.9,0,26640.4,199456
step02_gravity_refstate-crust.xmf,842,-1.25812e-06,2.45135e-06,0,-2.3309e-05,-8.99559e+08,-8.99304e+08,-8.99472e+08,-1.599e+06,0.00469886,-0.264135,0,0.264177,-2407.2,-32748,-0,32836.4,1.599e+06
step02_gravity_refstate-crust.xmf,843,-3.52653e-06,7.55811e-06,0,-2.56086e-05,-8.79108e+08,-8.78347e+08,-8.78866e+08,-1.75675e+06,0.00850953,-0.282997,0,0.283125,-2000,-32002.2,-0,32064.7,1.75675e+06
step02_gravity_refstate-crust.xmf,844,-1.04862e-05,2.15624e-05,0,3.23215e-06,-7.51236e+08,-7.49038e+08,-7.50517e+08,221726,-0.00697664,-0.215277,-0,0.21539,651.623,-27340.5,0,27348.2,221726
step02_gravity_refstate-crust.xmf,845,-1.20942e-05,2.55802e-05,0,2.10513e-06,-7.76235e+08,-7.7365e+08,-7.75405e+08,144412,-0.00406864,-0.238045,-0,0.23808,336.256,-28250.3,0,28252.3,144412
step02_gravity_refstate-crust.xmf,846,-1.18743e-05,3.22193e-05,0,-8.34357e-06,-8.23989e+08,-8.20964e+08,-8.23175e+08,-572369,0.0125748,-0.282137,0,0.282417,-999.317,-30000,-0,30016.6,572369
step02_gravity_refstate-crust.xmf,847,-1.27708e-05,2.80328e-05,0,4.78648e-07,-7.89828e+08,-7.87029e+08,-7.88952e+08,32835.2,-0.000862182,-0.251925,-0,0.251927,67.8573,-28746.2,0,28746.3,32835.2
step02_gravity_refstate-crust.xmf,848,-1.3057e-05,3.02819e-05,0,-1.20877e-06,-8.02981e+08,-8.00008e+08,-8.02086e+08,-82921.6,0.00214212,-0.265743,0,0.265751,-164.566,-29227.4,-0,29227.9,82921.6
step02_gravity_refstate-crust.xmf,849,-1.30231e-05,3.2106e-05,0,-2.23213e-06,-8.14137e+08,-8.11041e+08,-8.13243e+08,-153124,0.00373471,-0.278049,0,0.278074,-286.313,-29636.5,-0,29637.9,153124
step02_gravity_refstate-crust.xmf,850,-7.1143e-08,2.90877e-07,0,-1.83739e-05,-9.05739e+08,-9.05714e+08,-9.05734e+08,-1.26045e+06,0.00349083,-0.226915,0,0.226942,-3175.31,-32974.5,-0,33127,1.26045e+06
step02_gravity_refstate-crust.xmf,851,9.40303e-07,-1.07095e-07,0,-1.12369e-05,-8.91358e+08,-8.9143e+08,-8.91422e+08,-770854,0.00722601,-0.170651,0,0.170804,-4682.73,-32454.4,-0,32790.5,770854
step02_gravity_refstate-crust.xmf,852,1.99859e-06,-6.77859e-07,0,-6.68508e-06,-8.6432e+08,-8.64503e+08,-8.64457e+08,-458596,0.0116177,-0.118835,0,0.119402,-6772.26,-31473.5,-0,32193.8,458596
step02_gravity_refstate-crust.xmf,853,1.60262e-06,-4.28066e-07,0,-8.44167e-06,-8.77911e+08,-8.7805e+08,-8.78021e+08,-579098,0.00991859,-0.142545,0,0.14289,-5701.45,-31967,-0,32471.5,579098
step02_gravity_refstate-crust.xmf,854,1.19932e-06,-3.3438e-07,0,-2.00869e-06,-7.77867e+08,-7.77972e+08,-7.77949e+08,-137796,0.00695634,-0.00593057,0,0.00914124,-17128.8,-28323.4,-0,33100,137796
step02_gravity_refstate-crust.xmf,855,1.22727e-06,-4.15332e-07,0,-2.09632e-06,-7.96869e+08,-7.96981e+08,-7.96953e+08,-143807,0.00644828,-0.0124037,0,0.0139797,-16114.7,-29015.1,-0,33189.8,143807
step02_gravity_refstate-crust.xmf,856,1.96652e-06,-5.44171e-07,0,-3.52211e-06,-7.69324e+08,-7.69496e+08,-7.69459e+08,-241616,0.0154327,-0.044851,0,0.0474318,-12254.3,-28015.1,-0,30578,241616
step02_gravity_refstate-crust.xmf,857,2.08408e-06,-5.73222e-07,0,-3.83345e-06,-7.80918e+08,-7.81101e+08,-7.81061e+08,-262974,0.0159774,-0.0537969,0,0.0561194,-11362.8,-28437.7,-0,30623.7,262974
step02_gravity_refstate-crust.xmf,858,2.16002e-06,-5.98693e-07,0,-4.12449e-06,-7.92913e+08,-7.93102e+08,-7.93061e+08,-282940,0.0161768,-0.0622703,0,0.0643373,-10586.4,-28874.6,-0,30754.1,282940
step02_gravity_refstate-crust.xmf,859,1.52341e-06,-5.96281e-07,0,-2.56215e-06,-7.99989e+08,-8.00134e+08,-8.00093e+08,-175764,0.00883781,-0.0273114,0,0.0287058,-14126,-29129.6,-0,32374,175764
step02_gravity_refstate-crust.xmf,860,1.77006e-06,-6.24831e-07,0,-3.00054e-06,-7.85409e+08,-7.85573e+08,-7.8553e+08,-205837,0.0120535,-0.0360364,0,0.0379988,-13151.6,-28599.8,-0,31478.8,205837
step02_gravity_refstate-crust.xmf,861,2.07477e-06,-8.90444e-07,0,-4.8734e-06,-8.47318e+08,-8.47522e+08,-8.47461e+08,-334315,0.0117615,-0.087888,0,0.0886715,-8561.28,-30854.5,-0,32020.2,334315
step02_gravity_refstate-crust.xmf,862,9.19724e-07,-7.70459e-08,0,-1.60883e-06,-7.64538e+08,-7.64607e+08,-7.64601e+08,-110366,0.00491318,0.0106623,0,0.0117398,-20045.8,-27837.4,-0,34303.9,110366
step02_gravity_refstate-crust.xmf,863,4.13288e-07,3.68175e-07,0,-1.05983e-06,-7.91868e+08,-7.91871e+08,-7.91896e+08,-72704.6,0.000507183,0.0285221,0,0.0285266,-24209.8,-28831,-0,37647.6,72704.6
step02_gravity_refstate-crust.xmf,864,5.9306e-07,1.68625e-07,0,-1.27088e-06,-7.95582e+08,-7.95611e+08,-7.95622e+08,-87182.6,0.00143386,0.0194008,0,0.0194537,-21912.2,-28966.6,-0,36320.9,87182.6
step02_gravity_refstate-crust.xmf,865,-1.028e-07,1.05103e-06,0,-2.29164e-09,-7.73152e+08,-7.73073e+08,-7.73145e+08,-157.206,-6.07523e-20,0.0559563,-0,0.0559563,-40000,-28148.6,-0,48911.6,157.206
step02_gravity_refstate-crust.xmf,866,5.73319e-08,8.43135e-07,0,-5.24962e-07,-7.74121e+08,-7.74067e+08,-7.74125e+08,-36012.4,-0.000421787,0.0487903,-0,0.0487921,-31739.8,-28184.2,-0,42447.2,36012.4
step02_gravity_refstate-crust.xmf,867,-9.09565e-08,1.00283e-06,0,-3.74e-07,-7.99523e+08,-7.99448e+08,-7.99517e+08,-25656.4,-0.000954404,0.0509001,-0,0.050909,-33698.3,-29108.6,-0,44529.7,25656.4
step02_gravity_refstate-crust.xmf,868,2.04053e-07,6.51254e-07,0,-7.53913e-07,-7.75191e+08,-7.7516e+08,-7.75205e+08,-51718.5,-3.54719e-05,0.0417182,-0,0.0417182,-28435.3,-28223.4,-0,40064,51718.5
step02_gravity_refstate-crust.xmf,869,-1.94497e-06,7.44412e-07,0,1.19185e-08,-184487,4.70279,-51062,817.607,-0.0349514,-0.0249977,-0,0.0429707,11080.7,0,0,11080.7,817.607
step02_gravity_refstate-crust.xmf,870,-1.56201e-06,9.73013e-07,0,1.1225e-06,-1.02527e+08,-1.02353e+08,-1.0242e+08,77003.2,-0.0227215,-0.0323446,-0,0.0395277,10034.3,-3727.79,0,10704.4,77003.2
step02_gravity_refstate-crust.xmf,871,-1.91515e-06,2.97649e-06,0,1.75751e-06,-3.26769e+08,-3.26434e+08,-3.26638e+08,120565,-0.0104581,-0.0661419,-0,0.0669636,4740.51,-11893.2,0,12803.2,120565
step02_gravity_refstate-crust.xmf,872,-2.01384e-06,3.40962e-06,0,1.93422e-06,-3.63211e+08,-3.62839e+08,-3.63073e+08,132688,-0.0107818,-0.070818,-0,0.071634,4598.27,-13220.2,0,13997,132688
step02_gravity_refstate-crust.xmf,873,-1.70961e-06,1.58802e-06,0,1.4381e-06,-1.87321e+08,-1.87094e+08,-1.87203e+08,98653.8,-0.0141454,-0.0481134,-0,0.0501497,6857.19,-6815.14,0,9667.84,98653.8
step02_gravity_refstate-crust.xmf,874,-1.63109e-06,1.88003e-06,0,1.66992e-06,-2.32455e+08,-2.32214e+08,-2.32343e+08,114557,-0.0132744,-0.051663,-0,0.0533412,6647.03,-8459.06,0,10758.2,114557
step02_gravity_refstate-crust.xmf,875,-1.63497e-06,2.23012e-06,0,1.84925e-06,-2.74736e+08,-2.74471e+08,-2.74624e+08,126858,-0.0126784,-0.0560792,-0,0.0574945,6285.21,-9998.87,0,11810.2,126858
step02_gravity_refstate-crust.xmf,876,-1.54292e-06,1.33085e-06,0,1.51164e-06,-1.68502e+08,-1.68305e+08,-1.68396e+08,103699,-0.0170553,-0.0416642,-0,0.0450199,8369.4,-6130.29,0,10374.4,103699
step02_gravity_refstate-crust.xmf,877,-8.26829e-06,1.6696e-05,0,3.70488e-06,-7.13119e+08,-7.11407e+08,-7.12552e+08,254155,-0.00959069,-0.186471,-0,0.186718,1105.57,-25954.2,0,25977.8,254155
step02_gravity_refstate-crust.xmf,878,-7.04721e-06,1.39024e-05,0,2.80289e-06,-6.78083e+08,-6.76646e+08,-6.776e+08,192278,-0.00827231,-0.166963,-0,0.167168,1129.54,-24679.3,0,24705.1,192278
step02_gravity_refstate-crust.xmf,879,-3.92493e-06,7.88868e-06,0,2.89634e-06,-5.6938e+08,-5.6857e+08,-5.69111e+08,198689,-0.0118162,-0.118087,-0,0.118676,2670.33,-20725.2,0,20896.5,198689
step02_gravity_refstate-crust.xmf,880,-4.70192e-07,8.21908e-07,0,-2.10981e-05,-9.05779e+08,-9.0569e+08,-9.05747e+08,-1.44733e+06,0.00338074,-0.247097,0,0.24712,-2745.84,-32975.2,-0,33089.3,1.44733e+06
step02_gravity_refstate-crust.xmf,881,-2.2811e-06,4.54322e-06,0,-2.62598e-05,-8.92817e+08,-8.92348e+08,-8.9266e+08,-1.80142e+06,0.00554066,-0.28602,0,0.286074,-2000,-32501.7,-0,32563.2,1.80142e+06
step02_gravity_refstate-crust.xmf,882,-1.12226e-05,2.3416e-05,0,3.46085e-06,-7.64794e+08,-7.62418e+08,-7.64024e+08,237415,-0.00700309,-0.226535,-0,0.226643,612.222,-27833.9,0,27840.7,237415
step02_gravity_refstate-crust.xmf,883,-1.27247e-05,3.35722e-05,0,-4.14533e-06,-8.24026e+08,-8.2085e+08,-8.23153e+08,-284370,0.00642896,-0.288583,0,0.288654,-499.831,-30000,-0,30004.2,284370
step02_gravity_refstate-crust.xmf,884,3.98075e-07,-4.21399e-07,0,-1.53093e-05,-9.05859e+08,-9.05916e+08,-9.05887e+08,-1.05022e+06,0.00335214,-0.203913,0,0.203941,-3725.78,-32979.7,-0,33189.5,1.05022e+06
step02_gravity_refstate-crust.xmf,885,1.248e-06,-7.46952e-07,0,-9.39259e-06,-8.9251e+08,-8.92646e+08,-8.92595e+08,-644332,0.00617398,-0.152519,0,0.152644,-5306.58,-32496.6,-0,32927,644332
step02_gravity_refstate-crust.xmf,886,1.97447e-06,-8.7181e-07,0,-5.89842e-06,-8.63563e+08,-8.63758e+08,-8.63698e+08,-404631,0.0106053,-0.107175,0,0.107698,-7378.25,-31445.5,-0,32299.5,404631
step02_gravity_refstate-crust.xmf,887,1.69236e-06,-8.42914e-07,0,-7.19991e-06,-8.79011e+08,-8.79185e+08,-8.79127e+08,-493914,0.00850684,-0.126902,0,0.127187,-6370.75,-32006.8,-0,32634.7,493914
step02_gravity_refstate-crust.xmf,888,7.40366e-07,-9.15814e-07,0,-1.27409e-05,-9.0618e+08,-9.06294e+08,-9.06231e+08,-874025,0.00290185,-0.182181,0,0.182204,-4320.49,-32992,-0,33273.7,874025
step02_gravity_refstate-crust.xmf,889,1.25866e-06,-4.99386e-07,0,-2.2012e-06,-8.14476e+08,-8.14596e+08,-8.14562e+08,-151003,0.0058426,-0.0191742,0,0.0200446,-15129,-29656.1,-0,33292.2,151003
step02_gravity_refstate-crust.xmf,890,2.00581e-06,-7.96847e-07,0,-3.79611e-06,-8.1777e+08,-8.17963e+08,-8.17908e+08,-260413,0.0126365,-0.0610542,0,0.0623482,-10636.2,-29778.6,-0,31621.1,260413
step02_gravity_refstate-crust.xmf,891,2.01809e-06,-8.68398e-07,0,-4.06388e-06,-8.31592e+08,-8.3179e+08,-8.3173e+08,-278782,0.0119034,-0.0695631,0,0.0705741,-9907.64,-30281.8,-0,31861.4,278782
step02_gravity_refstate-crust.xmf,892,1.99674e-06,-9.4061e-07,0,-4.41558e-06,-8.45407e+08,-8.45608e+08,-8.45544e+08,-302909,0.0109465,-0.0793438,0,0.0800954,-9146.61,-30784.5,-0,32114.6,302909
step02_gravity_refstate-crust.xmf,893,1.82781e-06,-1.05554e-06,0,-4.71159e-06,-8.63192e+08,-8.6339e+08,-8.63318e+08,-323215,0.00851326,-0.087962,0,0.088373,-8519.92,-31431.1,-0,32565.4,323215
step02_gravity_refstate-crust.xmf,894,1.00744e-06,-1.66275e-07,0,-1.72826e-06,-7.71375e+08,-7.71455e+08,-7.71444e+08,-118559,0.00541938,0.00515471,0,0.00747935,-19003.9,-28086.5,-0,33911.6,118559
step02_gravity_refstate-crust.xmf,895,9.89475e-07,-2.1115e-07,0,-1.75018e-06,-7.90743e+08,-7.90825e+08,-7.90811e+08,-120062,0.00466202,0.000890014,0,0.00474622,-18227.4,-28791.5,-0,34076.2,120062
step02_gravity_refstate-crust.xmf,896,7.37203e-07,3.82168e-08,0,-1.42454e-06,-7.87133e+08,-7.87181e+08,-7.87183e+08,-97723.5,0.00275246,0.0142535,0,0.0145168,-20770.2,-28659.4,-0,35394.4,97723.5
step02_gravity_refstate-crust.xmf,897,4.11974e-07,3.24689e-07,0,-1.11297e-06,-8.13559e+08,-8.13565e+08,-8.13587e+08,-76349.8,-0.00024742,0.0238598,-0,0.0238611,-23038.8,-29620.6,-0,37525.5,76349.8
step02_gravity_refstate-crust.xmf,898,-1.78916e-07,1.12084e-06,0,-1.20388e-07,-8.01769e+08,-8.0168e+08,-8.01756e+08,-8258.61,-0.000377533,0.0544015,-0,0.0544028,-37959.7,-29190.2,-0,47885.3,8258.61
step02_gravity_refstate-crust.xmf,899,-1.34434e-07,1.06611e-06,0,-2.5023e-07,-7.9739e+08,-7.97308e+08,-7.97381e+08,-17165.8,-0.000683524,0.0531865,-0,0.0531909,-35760.2,-29030.9,-0,46060.7,17165.8
step02_gravity_refstate-crust.xmf,900,2.18471e-07,5.98532e-07,0,-8.3391e-07,-7.95346e+08,-7.9532e+08,-7.95361e+08,-57206.2,-0.000511332,0.0371563,-0,0.0371598,-26909.1,-28957.2,-0,39529.9,57206.2
step02_gravity_refstate-crust.xmf,901,3.13897e-08,8.33557e-07,0,-6.0095e-07,-8.02928e+08,-8.02873e+08,-8.0293e+08,-41225.2,-0.00117292,0.0447046,-0,0.04472,-30064,-29232.8,-0,41933.3,41225.2
step02_gravity_refstate-crust.xmf,902,2.27288e-07,5.46251e-07,0,-9.00878e-07,-8.13269e+08,-8.13247e+08,-8.13285e+08,-61800.3,-0.00103565,0.0328201,-0,0.0328365,-25589.2,-29609.6,-0,39134.8,61800.3
step02_gravity_refstate-crust.xmf,903,-1.39687e-06,6.86904e-07,0,6.18352e-07,-4.67971e+07,-4.66542e+07,-4.67013e+07,42418.9,-0.0308662,-0.0215851,-0,0.0376648,12200.2,-1699.11,0,12318,42418.9
step02_gravity_refstate-crust.xmf,904,-1.36592e-06,1.10031e-06,0,1.49981e-06,-1.48226e+08,-1.48057e+08,-1.48133e+08,102887,-0.0200761,-0.0344986,-0,0.0399149,9930.02,-5392.51,0,11299.8,102887
step02_gravity_refstate-crust.xmf,905,-2.84182e-06,5.46092e-06,0,2.19553e-06,-4.74227e+08,-4.73658e+08,-4.74032e+08,150613,-0.010388,-0.0929383,-0,0.0935171,3258.72,-17261.7,0,17566.6,150613
step02_gravity_refstate-crust.xmf,906,-2.14594e-06,3.85777e-06,0,2.13353e-06,-3.98859e+08,-3.98447e+08,-3.98712e+08,146360,-0.01134,-0.0758934,-0,0.076736,4491.43,-14518.1,0,15197,146360
step02_gravity_refstate-crust.xmf,907,-2.57134e-06,4.84959e-06,0,2.16675e-06,-4.47947e+08,-4.47438e+08,-4.47771e+08,148639,-0.0106826,-0.0866303,-0,0.0872864,3653.19,-16305.1,0,16709.3,148639
step02_gravity_refstate-crust.xmf,908,-1.68199e-06,2.58848e-06,0,2.0026e-06,-3.12123e+08,-3.1183e+08,-3.12008e+08,137378,-0.0124765,-0.0604824,-0,0.0617558,5969.28,-11360.4,0,12833.2,137378
step02_gravity_refstate-crust.xmf,909,-3.09754e-06,6.14716e-06,0,2.56133e-06,-5.09661e+08,-5.09026e+08,-5.09448e+08,175707,-0.0115531,-0.100382,-0,0.101045,3259.51,-18551.7,0,18835.9,175707
step02_gravity_refstate-crust.xmf,910,-3.41949e-06,6.94279e-06,0,2.9789e-06,-5.44893e+08,-5.44183e+08,-5.44659e+08,204352,-0.0126916,-0.109047,-0,0.109783,3190.07,-19834.3,0,20089.2,204352
step02_gravity_refstate-crust.xmf,911,-7.24605e-06,1.46544e-05,0,4.11935e-06,-6.95962e+08,-6.94459e+08,-6.95465e+08,282588,-0.0115409,-0.174388,-0,0.174769,1471.47,-25330.6,0,25373.3,282588
step02_gravity_refstate-crust.xmf,912,-4.18247e-06,8.60246e-06,0,3.43857e-06,-5.94978e+08,-5.94101e+08,-5.94691e+08,235886,-0.0133017,-0.125325,-0,0.126029,2753.59,-21657.2,0,21831.5,235886
step02_gravity_refstate-crust.xmf,913,-4.78476e-06,9.80858e-06,0,3.55141e-06,-6.2065e+08,-6.19649e+08,-6.20322e+08,243627,-0.0128324,-0.136045,-0,0.136649,2365.26,-22591.2,0,22714.7,243627
step02_gravity_refstate-crust.xmf,914,-6.21395e-06,1.24265e-05,0,3.18957e-06,-6.59589e+08,-6.58311e+08,-6.59163e+08,218805,-0.0101453,-0.156197,-0,0.156526,1530.53,-24007.1,0,24055.8,218805
step02_gravity_refstate-crust.xmf,915,-5.44102e-06,1.10225e-05,0,3.46917e-06,-6.40597e+08,-6.39468e+08,-6.40224e+08,237985,-0.0117872,-0.145805,-0,0.14628,1966.87,-23316.6,0,23399.5,237985
step02_gravity_refstate-crust.xmf,916,-2.54644e-07,-1.33557e-07,0,-2.36518e-05,-9.12883e+08,-9.12875e+08,-9.12866e+08,-1.62252e+06,0.00146373,-0.264592,0,0.264596,-2409.15,-33233.2,-0,33320.4,1.62252e+06
step02_gravity_refstate-crust.xmf,917,-8.24551e-06,1.73183e-05,0,5.55188e-06,-7.29018e+08,-7.27264e+08,-7.28452e+08,380859,-0.0136201,-0.193402,-0,0.193881,1484.83,-26534.1,0,26575.6,380859
step02_gravity_refstate-crust.xmf,918,-1.03797e-06,1.57386e-06,0,-2.66919e-05,-9.06515e+08,-9.06336e+08,-9.06444e+08,-1.83106e+06,0.00264661,-0.287547,0,0.287559,-2000,-33000.8,-0,33061.4,1.83106e+06
step02_gravity_refstate-crust.xmf,919,-9.32072e-06,1.96372e-05,0,5.58953e-06,-7.46102e+08,-7.44116e+08,-7.45463e+08,383442,-0.0125416,-0.207084,-0,0.207463,1237.57,-27155.3,0,27183.5,383442
step02_gravity_refstate-crust.xmf,920,-1.03172e-05,2.19514e-05,0,5.75195e-06,-7.6191e+08,-7.59696e+08,-7.61202e+08,394584,-0.0118962,-0.220476,-0,0.220797,1078.08,-27730.3,0,27751.3,394584
step02_gravity_refstate-crust.xmf,921,-1.13396e-05,2.44402e-05,0,5.44674e-06,-7.7578e+08,-7.73326e+08,-7.75002e+08,373646,-0.0105378,-0.233946,-0,0.234183,889.444,-28235,0,28249,373646
step02_gravity_refstate-crust.xmf,922,-1.22851e-05,2.7125e-05,0,4.46458e-06,-7.88789e+08,-7.86085e+08,-7.87946e+08,306270,-0.00820104,-0.248216,-0,0.248352,654.628,-28708.9,0,28716.4,306270
step02_gravity_refstate-crust.xmf,923,-1.28984e-05,2.97491e-05,0,2.99206e-06,-8.01415e+08,-7.9849e+08,-8.00531e+08,205256,-0.00526419,-0.263043,-0,0.263096,406.414,-29170.2,0,29173,205256
step02_gravity_refstate-crust.xmf,924,-1.29929e-05,3.40046e-05,0,4.23858e-09,-8.24038e+08,-8.20814e+08,-8.23146e+08,290.766,-4.21579e-07,-0.290721,-0,0.290721,-2.07592e-10,-30000,-0,30000,290.766
step02_gravity_refstate-crust.xmf,925,-1.30798e-05,3.20607e-05,0,1.5454e-06,-8.13425e+08,-8.10328e+08,-8.12527e+08,106014,-0.0025811,-0.277548,-0,0.27756,197.502,-29610.3,0,29610.9,106014
step02_gravity_refstate-crust.xmf,926,3.18586e-07,-1.32957e-06,0,-2.05827e-05,-9.17696e+08,-9.17809e+08,-9.17718e+08,-1.41197e+06,0.000195631,-0.241488,0,0.241488,-2857.95,-33408.9,-0,33530.9,1.41197e+06
step02_gravity_refstate-crust.xmf,927,6.25212e-07,-1.90105e-06,0,-1.73222e-05,-9.19879e+08,-9.20052e+08,-9.19922e+08,-1.1883e+06,-0.000693037,-0.216845,-0,0.216846,-3396.14,-33488.7,-0,33660.5,1.1883e+06
step02_gravity_refstate-crust.xmf,928,9.66643e-07,-1.32061e-06,0,-1.06248e-05,-9.06836e+08,-9.06993e+08,-9.06902e+08,-728862,0.0021727,-0.163115,0,0.16313,-4917.02,-33016.1,-0,33380.3,728862
step02_gravity_refstate-crust.xmf,929,1.72131e-06,-1.12191e-06,0,-5.21047e-06,-8.73912e+08,-8.74107e+08,-8.7403e+08,-357438,0.00719821,-0.0978617,0,0.0981261,-7883.38,-31820.9,-0,32782.8,357438
step02_gravity_refstate-crust.xmf,930,1.61834e-06,-1.15423e-06,0,-5.99957e-06,-8.82375e+08,-8.82566e+08,-8.82487e+08,-411570,0.00632335,-0.11091,0,0.11109,-7142.83,-32128.5,-0,32912.9,411570
step02_gravity_refstate-crust.xmf,931,1.30656e-06,-1.20779e-06,0,-7.91291e-06,-8.96439e+08,-8.96612e+08,-8.96529e+08,-542826,0.00415737,-0.135777,0,0.13584,-5956.22,-32639.2,-0,33178.2,542826
step02_gravity_refstate-crust.xmf,932,9.88476e-07,-2.80442e-07,0,-1.81694e-06,-8.10541e+08,-8.10628e+08,-8.10609e+08,-124642,0.0039179,-0.00502516,0,0.00637198,-17214.4,-29512.1,-0,34165.8,124642
step02_gravity_refstate-crust.xmf,933,9.74219e-07,-3.56713e-07,0,-1.90149e-06,-8.29373e+08,-8.29465e+08,-8.2944e+08,-130442,0.00306267,-0.0114887,0,0.0118899,-16182.1,-30197.6,-0,34260.1,130442
step02_gravity_refstate-crust.xmf,934,1.85971e-06,-7.2116e-07,0,-3.23133e-06,-8.03164e+08,-8.03341e+08,-8.03292e+08,-221670,0.0117646,-0.0451823,0,0.0466888,-12142.4,-29246.4,-0,31666.8,221670
step02_gravity_refstate-crust.xmf,935,1.98617e-06,-7.30788e-07,0,-3.61733e-06,-8.04483e+08,-8.0467e+08,-8.04619e+08,-248149,0.0132962,-0.0544768,0,0.056076,-11249.1,-29294.9,-0,31380.5,248149
step02_gravity_refstate-crust.xmf,936,1.25747e-06,-5.87245e-07,0,-2.31956e-06,-8.31755e+08,-8.31882e+08,-8.31841e+08,-159122,0.00502285,-0.0263342,0,0.0268089,-14162,-30285.1,-0,33432.7,159122
step02_gravity_refstate-crust.xmf,937,1.55069e-06,-6.90645e-07,0,-2.70405e-06,-8.17844e+08,-8.17998e+08,-8.1795e+08,-185498,0.00813616,-0.034976,0,0.0359099,-13183.3,-29779.6,-0,32567.3,185498
step02_gravity_refstate-crust.xmf,938,8.04758e-07,-5.93195e-08,0,-1.52895e-06,-7.99651e+08,-7.9971e+08,-7.99706e+08,-104886,0.00278227,0.00810188,0,0.0085663,-19532.4,-29115.2,-0,35060.1,104886
step02_gravity_refstate-crust.xmf,939,2.15435e-07,5.02912e-07,0,-9.58883e-07,-8.33555e+08,-8.33535e+08,-8.3357e+08,-65779.4,-0.00180752,0.0283566,-0,0.0284142,-24350.7,-30348,-0,38909.6,65779.4
step02_gravity_refstate-crust.xmf,940,5.75824e-07,1.15149e-07,0,-1.32259e-06,-8.18883e+08,-8.18915e+08,-8.18923e+08,-90729.9,0.00052006,0.0139782,0,0.0139879,-20730.5,-29814.8,-0,36313.5,90729.9
step02_gravity_refstate-crust.xmf,941,3.84668e-07,2.83391e-07,0,-1.16317e-06,-8.3562e+08,-8.35627e+08,-8.35647e+08,-79793.1,-0.00120831,0.0190544,-0,0.0190927,-21908.1,-30423.6,-0,37490.8,79793.1
step02_gravity_refstate-crust.xmf,942,-3.0045e-07,1.24222e-06,0,-1.44564e-09,-8.38289e+08,-8.38184e+08,-8.38269e+08,-99.1708,-1.25851e-19,0.0532374,-0,0.0532374,-40000,-30519.5,-0,50313.4,99.1708
step02_gravity_refstate-crust.xmf,943,-2.40602e-07,1.15786e-06,0,-2.76258e-07,-8.36532e+08,-8.36436e+08,-8.36515e+08,-18951.3,-0.00139275,0.0508629,-0,0.0508819,-34955.2,-30455.6,-0,46361.7,18951.3
step02_gravity_refstate-crust.xmf,944,-1.28045e-07,1.0066e-06,0,-4.64093e-07,-8.29446e+08,-8.29368e+08,-8.29437e+08,-31836.8,-0.00184586,0.0470006,-0,0.0470368,-31782.6,-30197.9,-0,43841.2,31836.8
step02_gravity_refstate-crust.xmf,945,1.79815e-09,8.12601e-07,0,-6.77508e-07,-8.33193e+08,-8.33138e+08,-8.33193e+08,-46477,-0.00220391,0.0398707,-0,0.0399316,-28311.7,-30334.5,-0,41493.8,46477
step02_gravity_refstate-crust.xmf,946,-1.38042e-06,8.18766e-07,0,1.02211e-06,-8.54897e+07,-8.53389e+07,-8.5395e+07,70116.9,-0.0259962,-0.026096,-0,0.0368348,11395.9,-3108.02,0,11812.2,70116.9
step02_gravity_refstate-crust.xmf,947,-1.34628e-06,5.17618e-07,0,1.24103e-08,-127599,263.956,-35244.6,851.344,-0.038396,-0.0164477,-0,0.0417706,13162.3,0,0,13162.3,851.344
step02_gravity_refstate-crust.xmf,948,-1.17529e-06,8.95846e-07,0,1.41147e-06,-1.28172e+08,-1.2803e+08,-1.28091e+08,96826.5,-0.0231352,-0.0268926,-0,0.0354746,11518.2,-4662.86,0,12426.2,96826.5
step02_gravity_refstate-crust.xmf,949,-1.74115e-06,2.9568e-06,0,2.19499e-06,-3.48068e+08,-3.47746e+08,-3.47949e+08,150576,-0.0127319,-0.0647664,-0,0.066006,5791.72,-12669.3,0,13930.4,150576
step02_gravity_refstate-crust.xmf,950,-1.82499e-06,3.36018e-06,0,2.41503e-06,-3.84057e+08,-3.83701e+08,-3.83932e+08,165671,-0.0132299,-0.0695329,-0,0.0707803,5630.95,-13979.8,0,15071.2,165671
step02_gravity_refstate-crust.xmf,951,-2.2728e-06,4.31539e-06,0,2.39464e-06,-4.32589e+08,-4.32137e+08,-4.32433e+08,164272,-0.0121878,-0.0810244,-0,0.0819359,4461.87,-15746.3,0,16366.3,164272
step02_gravity_refstate-crust.xmf,952,-1.48189e-06,2.25627e-06,0,2.15661e-06,-2.99306e+08,-2.9905e+08,-2.99205e+08,147944,-0.0140474,-0.0551843,-0,0.0569441,7049.16,-10894,0,12975.8,147944
step02_gravity_refstate-crust.xmf,953,-1.42991e-06,1.57127e-06,0,1.79838e-06,-2.14864e+08,-2.14658e+08,-2.14766e+08,123369,-0.0157917,-0.0448303,-0,0.0475303,8183.67,-7818.97,0,11318.5,123369
step02_gravity_refstate-crust.xmf,954,-1.37128e-06,1.89031e-06,0,2.08989e-06,-2.65786e+08,-2.65562e+08,-2.65692e+08,143367,-0.0150643,-0.0492247,-0,0.0514782,7887.42,-9673.59,0,12481.6,143367
step02_gravity_refstate-crust.xmf,955,-1.23047e-06,1.27728e-06,0,1.82621e-06,-1.94563e+08,-1.94391e+08,-1.94479e+08,125278,-0.0182621,-0.0372896,-0,0.0415213,9745.96,-7080.27,0,12046.3,125278
step02_gravity_refstate-crust.xmf,956,-7.23366e-06,1.52712e-05,0,5.59037e-06,-7.12796e+08,-7.11252e+08,-7.123e+08,383500,-0.0149138,-0.181006,-0,0.181619,1794.35,-25944.4,0,26006.4,383500
step02_gravity_refstate-crust.xmf,957,-3.5201e-06,7.4204e-06,0,3.64662e-06,-5.74266e+08,-5.73516e+08,-5.74025e+08,250158,-0.0149556,-0.115315,-0,0.116281,3453.9,-20904,0,21187.4,250158
step02_gravity_refstate-crust.xmf,958,-6.33516e-06,1.29434e-05,0,4.36557e-06,-6.78321e+08,-6.76998e+08,-6.77886e+08,299478,-0.013146,-0.162886,-0,0.163416,1855.94,-24689.3,0,24759,299478
step02_gravity_refstate-crust.xmf,959,8.11875e-07,-2.22111e-06,0,-1.42761e-05,-9.20593e+08,-9.20801e+08,-9.20648e+08,-979342,-0.00133934,-0.193565,-0,0.19357,-3979.04,-33514.9,-0,33750.3,979342
step02_gravity_refstate-crust.xmf,960,1.07082e-06,-1.513e-06,0,-9.12988e-06,-9.07132e+08,-9.07309e+08,-9.07205e+08,-626310,0.00154659,-0.148426,0,0.148434,-5436.12,-33027,-0,33471.4,626310
step02_gravity_refstate-crust.xmf,961,1.41492e-06,-1.30081e-06,0,-6.72391e-06,-8.93265e+08,-8.93451e+08,-8.93362e+08,-461260,0.00416767,-0.121001,0,0.121073,-6618.78,-32523.9,-0,33190.6,461260
step02_gravity_refstate-crust.xmf,962,8.80058e-07,-2.34553e-06,0,-1.18343e-05,-9.21974e+08,-9.22195e+08,-9.22034e+08,-811835,-0.00228701,-0.172485,-0,0.1725,-4583.95,-33565.3,-0,33876.9,811835
step02_gravity_refstate-crust.xmf,963,7.84734e-07,-2.78902e-06,0,-2.35036e-05,-9.2663e+08,-9.26875e+08,-9.26684e+08,-1.61235e+06,-0.00185733,-0.261686,-0,0.261693,-2449.59,-33733.7,-0,33822.6,1.61235e+06
step02_gravity_refstate-crust.xmf,964,9.62209e-07,-4.35937e-07,0,-2.00648e-06,-8.46789e+08,-8.46885e+08,-8.46855e+08,-137644,0.00208403,-0.0182355,0,0.0183542,-15181.8,-30831.4,-0,34366.6,137644
step02_gravity_refstate-crust.xmf,965,1.75749e-06,-8.30401e-07,0,-3.28053e-06,-8.27391e+08,-8.27569e+08,-8.27512e+08,-225045,0.0096829,-0.0517742,0,0.0526718,-11438.7,-30127.8,-0,32226.2,225045
step02_gravity_refstate-crust.xmf,966,1.72378e-06,-9.19767e-07,0,-3.47454e-06,-8.42879e+08,-8.4306e+08,-8.42997e+08,-238353,0.00849786,-0.0594464,0,0.0600508,-10706.8,-30691.4,-0,32505.3,238353
step02_gravity_refstate-crust.xmf,967,1.669e-06,-1.01332e-06,0,-3.7429e-06,-8.56923e+08,-8.57107e+08,-8.57038e+08,-256763,0.00726734,-0.0680825,0,0.0684693,-9955.79,-31202.3,-0,32752.2,256763
step02_gravity_refstate-crust.xmf,968,1.58385e-06,-1.11737e-06,0,-4.06779e-06,-8.71111e+08,-8.71297e+08,-8.7122e+08,-279050,0.005601,-0.0771305,0,0.0773336,-9235.71,-31718.4,-0,33035.6,279050
step02_gravity_refstate-crust.xmf,969,1.39654e-06,-1.23954e-06,0,-4.48445e-06,-8.8454e+08,-8.84721e+08,-8.84635e+08,-307633,0.00365926,-0.0867099,0,0.0867871,-8543.37,-32206.3,-0,33320.2,307633
step02_gravity_refstate-crust.xmf,970,7.61818e-07,-1.22331e-07,0,-1.58642e-06,-8.2406e+08,-8.24121e+08,-8.24113e+08,-108828,0.00168035,0.00185391,0,0.00250211,-18360.9,-30003.6,-0,35175.8,108828
step02_gravity_refstate-crust.xmf,971,1.99838e-07,4.59367e-07,0,-1.02217e-06,-8.54259e+08,-8.54241e+08,-8.54273e+08,-70121.2,-0.00275146,0.0236425,-0,0.0238021,-23134.1,-31101.7,-0,38762.1,70121.2
step02_gravity_refstate-crust.xmf,972,-2.9962e-07,1.22964e-06,0,-1.88854e-07,-8.46664e+08,-8.46559e+08,-8.46643e+08,-12955.4,-0.00111316,0.0516781,-0,0.0516901,-36479.7,-30824.3,-0,47758.8,12955.4
step02_gravity_refstate-crust.xmf,973,-3.94551e-07,1.33458e-06,0,-9.18696e-08,-8.71609e+08,-8.71491e+08,-8.71582e+08,-6302.26,-0.000709848,0.0513761,-0,0.051381,-38216,-31732.3,-0,49672.9,6302.26
step02_gravity_refstate-crust.xmf,974,6.82012e-08,7.10989e-07,0,-7.74745e-07,-8.35301e+08,-8.35256e+08,-8.35305e+08,-53147.5,-0.00224253,0.0360036,-0,0.0360734,-26837.9,-30411.3,-0,40560.1,53147.5
step02_gravity_refstate-crust.xmf,975,-2.72896e-07,1.1689e-06,0,-3.46665e-07,-8.57799e+08,-8.57701e+08,-8.57781e+08,-23781.2,-0.00215777,0.0482944,-0,0.0483426,-33459.5,-31229.8,-0,45769.4,23781.2
step02_gravity_refstate-crust.xmf,976,-1.64272e-07,1.00152e-06,0,-5.38346e-07,-8.57475e+08,-8.57395e+08,-8.57464e+08,-36930.5,-0.00289648,0.0429828,-0,0.0430803,-30113.5,-31218.1,-0,43375,36930.5
step02_gravity_refstate-crust.xmf,977,4.86735e-08,6.79471e-07,0,-8.25848e-07,-8.52729e+08,-8.52686e+08,-8.52732e+08,-56653.2,-0.00298455,0.032396,-0,0.0325332,-25737.7,-31045.7,-0,40327,56653.2
step02_gravity_refstate-crust.xmf,978,-9.79908e-07,6.88098e-07,0,1.17149e-06,-9.79375e+07,-9.78231e+07,-9.78703e+07,80364.5,-0.0270539,-0.0185569,-0,0.0328066,13166.4,-3562.61,0,13639.9,80364.5
step02_gravity_refstate-crust.xmf,979,-9.09129e-07,4.95157e-07,0,6.2997e-07,-4.71185e+07,-4.70222e+07,-4.70561e+07,43215.9,-0.0331831,-0.0125438,-0,0.0354749,14246.6,-1712.48,0,14349.2,43215.9
step02_gravity_refstate-crust.xmf,980,-1.02194e-06,1.02978e-06,0,1.79006e-06,-1.75377e+08,-1.75236e+08,-1.75307e+08,122798,-0.0206773,-0.0293025,-0,0.0358635,11351.3,-6382.22,0,13022.5,122798
step02_gravity_refstate-crust.xmf,981,-2.4313e-06,4.8391e-06,0,2.66468e-06,-4.64866e+08,-4.64367e+08,-4.64699e+08,182797,-0.0129742,-0.0868358,-0,0.0877997,4355.07,-16921.6,0,17473,182797
step02_gravity_refstate-crust.xmf,982,-2.60867e-06,5.36668e-06,0,2.96494e-06,-4.95615e+08,-4.95068e+08,-4.95436e+08,203395,-0.0138676,-0.0929749,-0,0.0940034,4257.67,-18041.1,0,18536.7,203395
step02_gravity_refstate-crust.xmf,983,-1.92347e-06,3.75019e-06,0,2.65597e-06,-4.18051e+08,-4.17662e+08,-4.17919e+08,182200,-0.0139646,-0.0743933,-0,0.0756926,5522.49,-15217.6,0,16188.7,182200
step02_gravity_refstate-crust.xmf,984,-1.48467e-06,2.5289e-06,0,2.36674e-06,-3.32353e+08,-3.32078e+08,-3.32251e+08,162359,-0.0143612,-0.0583776,-0,0.0601181,6974.17,-12097.6,0,13963.9,162359
step02_gravity_refstate-crust.xmf,985,-2.78512e-06,5.92207e-06,0,3.37418e-06,-5.27661e+08,-5.27064e+08,-5.2747e+08,231469,-0.0151203,-0.0997367,-0,0.100876,4219.18,-19207.9,0,19665.9,231469
step02_gravity_refstate-crust.xmf,986,-6.26941e-06,1.34071e-05,0,5.75174e-06,-6.98106e+08,-6.96757e+08,-6.97676e+08,394570,-0.0164997,-0.169723,-0,0.170523,2183.61,-25410.7,0,25504.3,394570
step02_gravity_refstate-crust.xmf,987,-2.94106e-06,6.45884e-06,0,3.85222e-06,-5.57689e+08,-5.57044e+08,-5.57487e+08,264262,-0.0165302,-0.106563,-0,0.107838,4206.12,-20301.3,0,20732.5,264262
step02_gravity_refstate-crust.xmf,988,-3.48879e-06,7.72125e-06,0,4.34208e-06,-5.97957e+08,-5.97188e+08,-5.97718e+08,297867,-0.017169,-0.12011,-0,0.121331,3720.61,-21767.1,0,22082.8,297867
step02_gravity_refstate-crust.xmf,989,-4.04495e-06,8.80151e-06,0,4.45822e-06,-6.19419e+08,-6.18538e+08,-6.19142e+08,305834,-0.0166032,-0.130001,-0,0.131057,3233.72,-22547.8,0,22778.5,305834
step02_gravity_refstate-crust.xmf,990,-4.67032e-06,1.00041e-05,0,4.57654e-06,-6.40392e+08,-6.39386e+08,-6.40072e+08,313950,-0.0159619,-0.140348,-0,0.141253,2793.98,-23310.7,0,23477.6,313950
step02_gravity_refstate-crust.xmf,991,-5.42339e-06,1.13998e-05,0,4.57234e-06,-6.59823e+08,-6.58669e+08,-6.59451e+08,313662,-0.0148736,-0.151218,-0,0.151948,2340.6,-24017.2,0,24131,313662
step02_gravity_refstate-crust.xmf,992,2.04208e-07,-1.37386e-06,0,-2.69339e-05,-9.20227e+08,-9.20336e+08,-9.20241e+08,-1.84766e+06,-0.000194311,-0.287599,-0,0.287599,-2000,-33500.5,-0,33560.1,1.84766e+06
step02_gravity_refstate-crust.xmf,993,-6.86098e-06,1.53246e-05,0,7.24328e-06,-7.27861e+08,-7.26339e+08,-7.2739e+08,496889,-0.0184381,-0.185766,-0,0.186678,2133.51,-26494.5,0,26580.2,496889
step02_gravity_refstate-crust.xmf,994,-7.75466e-06,1.72924e-05,0,7.65863e-06,-7.43773e+08,-7.42054e+08,-7.43241e+08,525382,-0.0178673,-0.198316,-0,0.199119,1879.65,-27073.2,0,27138.4,525382
step02_gravity_refstate-crust.xmf,995,-8.7869e-06,1.96245e-05,0,8.07488e-06,-7.59717e+08,-7.57768e+08,-7.59114e+08,553937,-0.01717,-0.212082,-0,0.212776,1644.3,-27653.1,0,27701.9,553937
step02_gravity_refstate-crust.xmf,996,-9.92687e-06,2.2252e-05,0,8.27566e-06,-7.74288e+08,-7.72081e+08,-7.73607e+08,567710,-0.0161468,-0.226211,-0,0.226787,1423.96,-28183,0,28219,567710
step02_gravity_refstate-crust.xmf,997,-1.11297e-05,2.52071e-05,0,7.99173e-06,-7.87857e+08,-7.85364e+08,-7.87093e+08,548233,-0.0145289,-0.241144,-0,0.241582,1197.56,-28676.7,0,28701.7,548233
step02_gravity_refstate-crust.xmf,998,-1.21106e-05,2.82764e-05,0,7.01423e-06,-8.00648e+08,-7.97878e+08,-7.99818e+08,481176,-0.0121573,-0.256931,-0,0.257219,958.501,-29143.2,0,29158.9,481176
step02_gravity_refstate-crust.xmf,999,-1.25891e-05,3.10685e-05,0,5.63817e-06,-8.12725e+08,-8.0973e+08,-8.11862e+08,386778,-0.00934762,-0.27294,-0,0.2731,724.561,-29585.2,0,29594.1,386778
step02_gravity_refstate-crust.xmf,1000,-1.27265e-05,3.35821e-05,0,4.15211e-06,-8.24026e+08,-8.20849e+08,-8.23153e+08,284835,-0.00643006,-0.288583,-0,0.288654,499.831,-30000,0,30004.2,284835
step02_gravity_refstate-crust.xmf,1001,1.27751e-06,-4.01025e-06,0,-1.98124e-05,-9.34076e+08,-9.34439e+08,-9.34163e+08,-1.35913e+06,-0.0043501,-0.233472,-0,0.233512,-2992.06,-34004.9,-0,34136.3,1.35913e+06
step02_gravity_refstate-crust.xmf,1002,1.14231e-06,-3.83789e-06,0,-1.60342e-05,-9.34616e+08,-9.34957e+08,-9.34694e+08,-1.09995e+06,-0.00528187,-0.20518,-0,0.205248,-3640.11,-34024.3,-0,34218.5,1.09995e+06
step02_gravity_refstate-crust.xmf,1003,8.74572e-07,-2.24392e-06,0,-9.88261e-06,-9.21305e+08,-9.21519e+08,-9.21365e+08,-677947,-0.00259896,-0.154719,-0,0.154741,-5172.78,-33541.1,-0,33937.6,677947
step02_gravity_refstate-crust.xmf,1004,1.23667e-06,-1.38592e-06,0,-5.06241e-06,-8.95769e+08,-8.95949e+08,-8.95854e+08,-347281,0.00185763,-0.0974543,0,0.097472,-7848.96,-32614.2,-0,33545.4,347281
step02_gravity_refstate-crust.xmf,1005,1.06191e-06,-1.61752e-06,0,-5.89728e-06,-9.07413e+08,-9.07597e+08,-9.07486e+08,-404554,-0.0003675,-0.110188,-0,0.110188,-7115.21,-33037.1,-0,33794.6,404554
step02_gravity_refstate-crust.xmf,1006,9.04282e-07,-2.08244e-06,0,-8.141e-06,-9.18576e+08,-9.18781e+08,-9.18638e+08,-558472,-0.00234503,-0.137597,-0,0.137617,-5827.98,-33442.1,-0,33946.1,558472
step02_gravity_refstate-crust.xmf,1007,1.11112e-06,-1.64324e-06,0,-6.94305e-06,-9.07163e+08,-9.07351e+08,-9.07239e+08,-476293,0.000420796,-0.12396,0,0.12396,-6447.01,-33028.1,-0,33651.4,476293
step02_gravity_refstate-crust.xmf,1008,7.22593e-07,-1.88831e-07,0,-1.66313e-06,-8.44338e+08,-8.44401e+08,-8.44388e+08,-114091,0.000603532,-0.0043801,0,0.00442149,-17272.4,-30741.6,-0,35261.6,114091
step02_gravity_refstate-crust.xmf,1009,6.64104e-07,-2.57456e-07,0,-1.75828e-06,-8.6259e+08,-8.62653e+08,-8.62636e+08,-120618,-0.000564246,-0.0107769,-0,0.0107916,-16233.4,-31405.7,-0,35353.1,120618
step02_gravity_refstate-crust.xmf,1010,8.98692e-07,-5.16013e-07,0,-2.12823e-06,-8.64025e+08,-8.64122e+08,-8.64086e+08,-145996,0.000824735,-0.0252682,0,0.0252816,-14214.4,-31458.5,-0,34520.9,145996
step02_gravity_refstate-crust.xmf,1011,1.20706e-06,-6.71556e-07,0,-2.44223e-06,-8.49589e+08,-8.49718e+08,-8.49672e+08,-167537,0.0037671,-0.0335005,0,0.0337116,-13261.2,-30934,-0,33656.7,167537
step02_gravity_refstate-crust.xmf,1012,1.51408e-06,-7.79028e-07,0,-2.82991e-06,-8.36464e+08,-8.36621e+08,-8.36568e+08,-194132,0.00685528,-0.0422028,0,0.042756,-12353,-30457.2,-0,32867,194132
step02_gravity_refstate-crust.xmf,1013,5.58585e-07,5.12151e-08,0,-1.39323e-06,-8.39145e+08,-8.3918e+08,-8.39184e+08,-95575.8,-0.000378049,0.00817147,-0,0.00818021,-19544.8,-30552.3,-0,36269,95575.8
step02_gravity_refstate-crust.xmf,1014,1.95192e-08,6.43472e-07,0,-8.88262e-07,-8.73105e+08,-8.73063e+08,-8.73107e+08,-60934.7,-0.00397979,0.0281064,-0,0.0283867,-24522.6,-31787.3,-0,40147.1,60934.7
step02_gravity_refstate-crust.xmf,1015,3.526e-07,2.31731e-07,0,-1.2294e-06,-8.56066e+08,-8.56074e+08,-8.5609e+08,-84336.5,-0.00223003,0.0137853,-0,0.0139645,-20739.5,-31167.7,-0,37437.3,84336.5
step02_gravity_refstate-crust.xmf,1016,1.61144e-07,4.14837e-07,0,-1.09079e-06,-8.7479e+08,-8.74772e+08,-8.74801e+08,-74828.1,-0.00385314,0.0187276,-0,0.0191199,-21949.7,-31848.9,-0,38680,74828.1
step02_gravity_refstate-crust.xmf,1017,-4.95501e-07,1.44311e-06,0,-1.51482e-09,-9.03397e+08,-9.03264e+08,-9.03363e+08,-103.916,-1.91887e-19,0.0500559,-0,0.0500559,-40000,-32889.3,-0,51785.2,103.916
step02_gravity_refstate-crust.xmf,1018,-3.89099e-07,1.30435e-06,0,-2.49515e-07,-8.83354e+08,-8.83238e+08,-8.83327e+08,-17116.7,-0.00207528,0.0488568,-0,0.0489008,-35052.8,-32159.8,-0,47570.5,17116.7
step02_gravity_refstate-crust.xmf,1019,-3.13605e-07,1.17577e-06,0,-4.23279e-07,-8.84626e+08,-8.84524e+08,-8.84605e+08,-29036.9,-0.00326633,0.0447857,-0,0.0449046,-31767.7,-32206.3,-0,45237.5,29036.9
step02_gravity_refstate-crust.xmf,1020,-8.84552e-08,8.46015e-07,0,-7.08249e-07,-8.69568e+08,-8.69504e+08,-8.69562e+08,-48585.9,-0.00371791,0.0360029,-0,0.0361944,-27201.3,-31658.5,-0,41739.3,48585.9
step02_gravity_refstate-crust.xmf,1021,-2.1184e-07,9.99532e-07,0,-6.01839e-07,-8.85598e+08,-8.85515e+08,-8.85583e+08,-41286.1,-0.00411923,0.0389816,-0,0.0391987,-28675.6,-32241.8,-0,43148.8,41286.1
step02_gravity_refstate-crust.xmf,1022,-7.35753e-07,2.85939e-07,0,1.36727e-08,-69604.2,483.867,-19131.5,937.949,-0.0406199,-0.00724675,-0,0.0412613,15281,0,0,15281,937.949
step02_gravity_refstate-crust.xmf,1023,-8.11402e-07,8.06131e-07,0,1.67012e-06,-1.54609e+08,-1.54498e+08,-1.54553e+08,114570,-0.0231267,-0.0208829,-0,0.0311599,12997.8,-5626.66,0,14163.4,114570
step02_gravity_refstate-crust.xmf,1024,-1.51554e-06,2.86016e-06,0,2.60975e-06,-3.68967e+08,-3.68666e+08,-3.68863e+08,179029,-0.0148725,-0.0625852,-0,0.064328,6833.28,-13430.9,0,15069.3,179029
step02_gravity_refstate-crust.xmf,1025,-1.56961e-06,3.20976e-06,0,2.861e-06,-4.03905e+08,-4.03577e+08,-4.03797e+08,196264,-0.0155281,-0.0672373,-0,0.0690071,6664.01,-14703.2,0,16142.9,196264
step02_gravity_refstate-crust.xmf,1026,-2.03556e-06,4.17924e-06,0,2.93181e-06,-4.51121e+08,-4.50695e+08,-4.50981e+08,201122,-0.0148131,-0.0797453,-0,0.0811094,5398.88,-16421.7,0,17286.5,201122
step02_gravity_refstate-crust.xmf,1027,-1.26247e-06,2.11812e-06,0,2.42978e-06,-3.11533e+08,-3.11301e+08,-3.11447e+08,166683,-0.0156591,-0.0515132,-0,0.0538407,8129.74,-11339.8,0,13953,166683
step02_gravity_refstate-crust.xmf,1028,-1.13912e-06,1.51002e-06,0,2.13352e-06,-2.42227e+08,-2.42046e+08,-2.42149e+08,146359,-0.0171804,-0.0407807,-0,0.044252,9501.94,-8816.26,0,12962,146359
step02_gravity_refstate-crust.xmf,1029,-9.2119e-07,1.20822e-06,0,2.12088e-06,-2.23363e+08,-2.23217e+08,-2.23299e+08,145492,-0.0190464,-0.0326357,-0,0.037787,11057.2,-8129.88,0,13724.3,145492
step02_gravity_refstate-crust.xmf,1030,-6.23748e-06,1.39089e-05,0,6.84662e-06,-7.14175e+08,-7.12793e+08,-7.13747e+08,469678,-0.0187101,-0.176052,-0,0.177043,2343.18,-25996.6,0,26101.9,469678
step02_gravity_refstate-crust.xmf,1031,-3.05024e-06,6.88768e-06,0,4.27261e-06,-5.8029e+08,-5.79608e+08,-5.8008e+08,293101,-0.017689,-0.112153,-0,0.113539,4188.83,-21124.3,0,21535.7,293101
step02_gravity_refstate-crust.xmf,1032,-5.09926e-06,1.13535e-05,0,5.97064e-06,-6.81165e+08,-6.80036e+08,-6.80815e+08,409586,-0.0186038,-0.156387,-0,0.15749,2772.04,-24795.4,0,24949.9,409586
step02_gravity_refstate-crust.xmf,1033,9.98145e-07,-3.67986e-06,0,-1.31733e-05,-9.35665e+08,-9.35986e+08,-9.35734e+08,-903688,-0.00623228,-0.182925,-0,0.183031,-4229.77,-34062.2,-0,34323.8,903688
step02_gravity_refstate-crust.xmf,1034,8.20609e-07,-3.51623e-06,0,-1.08237e-05,-9.38913e+08,-9.39211e+08,-9.3897e+08,-742509,-0.00780381,-0.162237,-0,0.162424,-4853.77,-34180,-0,34522.9,742509
step02_gravity_refstate-crust.xmf,1035,1.43712e-06,-4.3093e-06,0,-2.70033e-05,-9.33957e+08,-9.34351e+08,-9.34056e+08,-1.85243e+06,-0.00299495,-0.286181,-0,0.286197,-2000,-34000.8,-0,34059.6,1.85243e+06
step02_gravity_refstate-crust.xmf,1036,1.81977e-06,-5.49068e-06,0,-2.35442e-05,-9.40829e+08,-9.4133e+08,-9.40954e+08,-1.61513e+06,-0.00522828,-0.260064,-0,0.260117,-2439.94,-34250.7,-0,34337.5,1.61513e+06
step02_gravity_refstate-crust.xmf,1037,6.04271e-07,-3.2875e-07,0,-1.87795e-06,-8.79679e+08,-8.79743e+08,-8.7972e+08,-128827,-0.00189197,-0.0174248,-0,0.0175273,-15230.9,-32027.5,-0,35464.7,128827
step02_gravity_refstate-crust.xmf,1038,1.41802e-06,-8.73962e-07,0,-2.99564e-06,-8.53707e+08,-8.53864e+08,-8.53804e+08,-205501,0.00540284,-0.050014,0,0.050305,-11527.7,-31084.4,-0,33153.1,205501
step02_gravity_refstate-crust.xmf,1039,1.32627e-06,-9.69738e-07,0,-3.21348e-06,-8.68502e+08,-8.6866e+08,-8.68593e+08,-220445,0.0039137,-0.0579927,0,0.0581246,-10756.5,-31622.6,-0,33401.9,220445
step02_gravity_refstate-crust.xmf,1040,1.21556e-06,-1.08175e-06,0,-3.50623e-06,-8.81633e+08,-8.8179e+08,-8.81716e+08,-240527,0.00237915,-0.0666464,0,0.0666889,-9994.95,-32100,-0,33620,240527
step02_gravity_refstate-crust.xmf,1041,1.08526e-06,-1.21637e-06,0,-3.8696e-06,-8.94686e+08,-8.94844e+08,-8.94761e+08,-265455,0.000475484,-0.0757354,0,0.0757369,-9264.18,-32574.5,-0,33866.2,265455
step02_gravity_refstate-crust.xmf,1042,8.58634e-07,-1.39238e-06,0,-4.33724e-06,-9.07167e+08,-9.07322e+08,-9.07226e+08,-297535,-0.00168911,-0.0854406,-0,0.0854573,-8555.63,-33027.6,-0,34117.8,297535
step02_gravity_refstate-crust.xmf,1043,4.91922e-07,-7.58811e-09,0,-1.46932e-06,-8.59844e+08,-8.59878e+08,-8.59878e+08,-100795,-0.0015594,0.00219565,-0,0.00269307,-18407.3,-31305.5,-0,36316.1,100795
step02_gravity_refstate-crust.xmf,1044,-1.0418e-08,6.01573e-07,0,-9.63422e-07,-8.93498e+08,-8.93456e+08,-8.93498e+08,-66090.7,-0.00511866,0.0234459,-0,0.0239981,-23288.3,-32529.6,-0,40006.5,66090.7
step02_gravity_refstate-crust.xmf,1045,-4.81899e-07,1.41547e-06,0,-1.64826e-07,-9.06077e+08,-9.05947e+08,-9.06044e+08,-11307.1,-0.00167778,0.0489006,-0,0.0489293,-36608.4,-32986.9,-0,49277.9,11307.1
step02_gravity_refstate-crust.xmf,1046,-5.80934e-07,1.5329e-06,0,-8.31876e-08,-9.35619e+08,-9.35474e+08,-9.35579e+08,-5706.67,-0.00104463,0.0480339,-0,0.0480453,-38210.6,-34062.2,-0,51188.7,5706.67
step02_gravity_refstate-crust.xmf,1047,-4.4953e-07,1.3421e-06,0,-3.16877e-07,-9.13173e+08,-9.1305e+08,-9.13142e+08,-21737.8,-0.00323151,0.0458202,-0,0.045934,-33506.2,-33245.2,-0,47200.7,21737.8
step02_gravity_refstate-crust.xmf,1048,-3.49792e-07,1.16991e-06,0,-4.94867e-07,-9.09234e+08,-9.0913e+08,-9.0921e+08,-33947.9,-0.00445156,0.0411751,-0,0.0414151,-30239.9,-33102,-0,44835.2,33947.9
step02_gravity_refstate-crust.xmf,1049,-1.31223e-07,8.21306e-07,0,-7.70047e-07,-8.91888e+08,-8.91823e+08,-8.91879e+08,-52825.2,-0.00484365,0.0319531,-0,0.0323181,-25953.2,-32470.8,-0,41568.3,52825.2
step02_gravity_refstate-crust.xmf,1050,-4.0655e-07,3.00958e-07,0,6.2319e-07,-4.79803e+07,-4.79318e+07,-4.79525e+07,42750.8,-0.0344692,-0.00283649,-0,0.0345857,16370.6,-1745.59,0,16463.4,42750.8
step02_gravity_refstate-crust.xmf,1051,-5.66081e-07,4.83482e-07,0,1.0902e-06,-8.97966e+07,-8.97246e+07,-8.97577e+07,74787.5,-0.0294196,-0.00842587,-0,0.0306024,15299.2,-3267.59,0,15644.2,74787.5
step02_gravity_refstate-crust.xmf,1052,-6.53256e-07,9.36765e-07,0,2.07835e-06,-2.07495e+08,-2.07386e+08,-2.0745e+08,142575,-0.0209266,-0.0228295,-0,0.0309695,12942.1,-7552.86,0,14984.8,142575
step02_gravity_refstate-crust.xmf,1053,-2.14608e-06,4.63856e-06,0,3.25879e-06,-4.83123e+08,-4.82658e+08,-4.82976e+08,223553,-0.0157866,-0.085494,-0,0.0869393,5278.16,-17587.1,0,18362,223553
step02_gravity_refstate-crust.xmf,1054,-2.24855e-06,5.07036e-06,0,3.63456e-06,-5.1395e+08,-5.13448e+08,-5.13796e+08,249331,-0.0169661,-0.091348,-0,0.0929102,5204.45,-18709.6,0,19420,249331
step02_gravity_refstate-crust.xmf,1055,-1.64179e-06,3.55794e-06,0,3.12435e-06,-4.37212e+08,-4.36856e+08,-4.371e+08,214331,-0.0163352,-0.0721656,-0,0.0739913,6501.19,-15916,0,17192.6,214331
step02_gravity_refstate-crust.xmf,1056,-1.23277e-06,2.40135e-06,0,2.72277e-06,-3.53598e+08,-3.53348e+08,-3.53513e+08,186782,-0.0162031,-0.0553775,-0,0.0576993,8044,-12871.8,0,15178.6,186782
step02_gravity_refstate-crust.xmf,1057,-1.06302e-06,1.74415e-06,0,2.43012e-06,-2.88178e+08,-2.87985e+08,-2.88105e+08,166706,-0.0168976,-0.0442091,-0,0.0473284,9347.71,-10489.8,0,14050.5,166706
step02_gravity_refstate-crust.xmf,1058,-2.33847e-06,5.50303e-06,0,4.07331e-06,-5.44277e+08,-5.43739e+08,-5.44116e+08,279429,-0.0182898,-0.0976051,-0,0.0993039,5136.68,-19814,0,20469,279429
step02_gravity_refstate-crust.xmf,1059,-5.10316e-06,1.21335e-05,0,7.30147e-06,-7.06128e+08,-7.04945e+08,-7.05778e+08,500881,-0.0210974,-0.165892,-0,0.167228,2880.19,-25705.4,0,25866.3,500881
step02_gravity_refstate-crust.xmf,1060,-2.42951e-06,5.97749e-06,0,4.59179e-06,-5.74766e+08,-5.74189e+08,-5.74599e+08,314997,-0.0197374,-0.104559,-0,0.106405,5052.84,-20924.4,0,21525.8,314997
step02_gravity_refstate-crust.xmf,1061,-2.78827e-06,6.79319e-06,0,4.89472e-06,-5.98891e+08,-5.98234e+08,-5.987e+08,335778,-0.0199245,-0.113835,-0,0.115565,4580.16,-21802.5,0,22278.4,335778
step02_gravity_refstate-crust.xmf,1062,-3.2284e-06,7.70339e-06,0,5.15609e-06,-6.19889e+08,-6.19139e+08,-6.19668e+08,353708,-0.0198354,-0.123206,-0,0.124792,4113.45,-22566.6,0,22938.4,353708
step02_gravity_refstate-crust.xmf,1063,-3.7443e-06,8.7522e-06,0,5.42494e-06,-6.40398e+08,-6.39541e+08,-6.40141e+08,372151,-0.0196083,-0.133262,-0,0.134696,3659.14,-23312.7,0,23598.2,372151
step02_gravity_refstate-crust.xmf,1064,-4.38097e-06,9.99462e-06,0,5.64396e-06,-6.59665e+08,-6.58678e+08,-6.59364e+08,387176,-0.0190596,-0.144005,-0,0.145261,3195.41,-24013.5,0,24225.2,387176
step02_gravity_refstate-crust.xmf,1065,-5.4632e-06,1.32754e-05,0,8.2199e-06,-7.25962e+08,-7.24676e+08,-7.25587e+08,563885,-0.0219198,-0.177043,-0,0.178395,2724.23,-26427.8,0,26567.8,563885
step02_gravity_refstate-crust.xmf,1066,-6.06373e-06,1.48047e-05,0,8.97936e-06,-7.42439e+08,-7.41008e+08,-7.42023e+08,615984,-0.0219698,-0.188863,-0,0.190137,2488.65,-27027.6,0,27142,615984
step02_gravity_refstate-crust.xmf,1067,-6.87025e-06,1.67656e-05,0,9.74963e-06,-7.58247e+08,-7.56625e+08,-7.57775e+08,668825,-0.0216472,-0.202048,-0,0.203204,2230.01,-27602.9,0,27692.8,668825
step02_gravity_refstate-crust.xmf,1068,-7.86253e-06,1.91481e-05,0,1.04967e-05,-7.73117e+08,-7.71264e+08,-7.72578e+08,720072,-0.0210336,-0.216069,-0,0.21709,1981.58,-28143.9,0,28213.6,720072
step02_gravity_refstate-crust.xmf,1069,-9.10788e-06,2.21019e-05,0,1.1047e-05,-7.87077e+08,-7.84936e+08,-7.86452e+08,757827,-0.0199854,-0.231079,-0,0.231941,1739.77,-28651.7,0,28704.5,757827
step02_gravity_refstate-crust.xmf,1070,-1.05894e-05,2.56717e-05,0,1.08304e-05,-7.99974e+08,-7.97487e+08,-7.99248e+08,742965,-0.0181495,-0.247288,-0,0.247953,1487.76,-29120.8,0,29158.7,742965
step02_gravity_refstate-crust.xmf,1071,-1.14828e-05,2.90476e-05,0,9.70124e-06,-8.12316e+08,-8.09535e+08,-8.11528e+08,665505,-0.0156414,-0.264424,-0,0.264886,1247.62,-29571.7,0,29598,665505
step02_gravity_refstate-crust.xmf,1072,-1.18819e-05,3.22692e-05,0,8.34358e-06,-8.23988e+08,-8.20959e+08,-8.23173e+08,572369,-0.0125754,-0.282136,-0,0.282416,999.317,-30000,0,30016.6,572369
step02_gravity_refstate-crust.xmf,1073,1.7344e-06,-5.89015e-06,0,-1.76299e-05,-9.48211e+08,-9.48734e+08,-9.4833e+08,-1.20941e+06,-0.00878787,-0.215788,-0,0.215967,-3327.76,-34518.5,-0,34678.5,1.20941e+06
step02_gravity_refstate-crust.xmf,1074,1.36281e-06,-5.29608e-06,0,-1.46915e-05,-9.48723e+08,-9.4918e+08,-9.48817e+08,-1.00783e+06,-0.00978778,-0.193409,-0,0.193656,-3882.42,-34536.5,-0,34754.1,1.00783e+06
step02_gravity_refstate-crust.xmf,1075,6.95673e-07,-2.86794e-06,0,-9.12593e-06,-9.33763e+08,-9.34008e+08,-9.33811e+08,-626039,-0.00665505,-0.146458,-0,0.14661,-5430.72,-33993,-0,34424,626039
step02_gravity_refstate-crust.xmf,1076,6.52498e-07,-1.64116e-06,0,-4.95984e-06,-9.18789e+08,-9.18946e+08,-9.18834e+08,-340245,-0.0040082,-0.0961288,-0,0.0962123,-7852.55,-33449.5,-0,34358.9,340245
step02_gravity_refstate-crust.xmf,1077,6.97799e-07,-2.11735e-06,0,-6.79878e-06,-9.2468e+08,-9.24873e+08,-9.24728e+08,-466397,-0.00469331,-0.12142,-0,0.121511,-6508.98,-33663.4,-0,34286.9,466397
step02_gravity_refstate-crust.xmf,1078,2.04961e-06,-6.38794e-06,0,-2.06923e-05,-9.47728e+08,-9.48307e+08,-9.47868e+08,-1.41949e+06,-0.00772132,-0.238431,-0,0.238556,-2834.42,-34501.4,-0,34617.6,1.41949e+06
step02_gravity_refstate-crust.xmf,1079,4.17032e-07,-6.7482e-08,0,-1.56549e-06,-8.78999e+08,-8.79032e+08,-8.79028e+08,-107393,-0.00287305,-0.00394179,-0,0.00487771,-17318.6,-32002.4,-0,36388,107393
step02_gravity_refstate-crust.xmf,1080,3.23976e-07,-1.3352e-07,0,-1.68837e-06,-8.96125e+08,-8.96156e+08,-8.96147e+08,-115822,-0.00424887,-0.0103315,-0,0.011171,-16265.3,-32625.4,-0,36455.2,115822
step02_gravity_refstate-crust.xmf,1081,4.78893e-07,-4.00113e-07,0,-2.0232e-06,-8.9683e+08,-8.9689e+08,-8.96863e+08,-138792,-0.00354054,-0.024285,-0,0.0245417,-14270.5,-32651.3,-0,35633.6,138792
step02_gravity_refstate-crust.xmf,1082,7.81706e-07,-5.92496e-07,0,-2.26852e-06,-8.81417e+08,-8.81511e+08,-8.81471e+08,-155620,-0.000830392,-0.032318,-0,0.0323286,-13313.3,-32091.1,-0,34743.1,155620
step02_gravity_refstate-crust.xmf,1083,1.11324e-06,-7.56528e-07,0,-2.58792e-06,-8.6659e+08,-8.66719e+08,-8.66667e+08,-177531,0.00223207,-0.0408011,0,0.0408621,-12411.4,-31552.4,-0,33905.7,177531
step02_gravity_refstate-crust.xmf,1084,7.0204e-07,-1.10752e-06,0,-3.38944e-06,-9.06002e+08,-9.06126e+08,-9.0605e+08,-232516,-0.00256901,-0.0657063,-0,0.0657565,-9992.66,-32985,-0,34465.4,232516
step02_gravity_refstate-crust.xmf,1085,2.9753e-07,1.79311e-07,0,-1.30977e-06,-8.76565e+08,-8.76574e+08,-8.76586e+08,-89850,-0.00345892,0.00817325,-0,0.00887502,-19576.6,-31913.7,-0,37439.7,89850
step02_gravity_refstate-crust.xmf,1086,-1.69592e-07,7.84774e-07,0,-8.46246e-07,-9.12563e+08,-9.12498e+08,-9.12552e+08,-58052.5,-0.00603111,0.0276303,-0,0.0282808,-24695.6,-33223.3,-0,41396.4,58052.5
step02_gravity_refstate-crust.xmf,1087,1.05791e-07,3.6716e-07,0,-1.17448e-06,-8.94878e+08,-8.9486e+08,-8.94885e+08,-80569.4,-0.00510282,0.0135298,-0,0.0144601,-20777.2,-32579.9,-0,38641.2,80569.4
step02_gravity_refstate-crust.xmf,1088,-6.198e-08,5.52175e-07,0,-1.0558e-06,-9.13918e+08,-9.13876e+08,-9.13914e+08,-72428,-0.0064156,0.0183579,-0,0.0194466,-22030.3,-33272.7,-0,39905,72428
step02_gravity_refstate-crust.xmf,1089,-6.76948e-07,1.64531e-06,0,-2.02107e-09,-9.68502e+08,-9.68343e+08,-9.68456e+08,-138.645,-3.05869e-19,0.0463973,-0,0.0463973,-40000,-35259.1,-0,53321.7,138.645
step02_gravity_refstate-crust.xmf,1090,-5.55697e-07,1.4769e-06,0,-2.30991e-07,-9.38747e+08,-9.38607e+08,-9.38708e+08,-15846,-0.00285605,0.0460802,-0,0.0461686,-35083.8,-34176,-0,48978.3,15846
step02_gravity_refstate-crust.xmf,1091,-4.86345e-07,1.34342e-06,0,-3.95243e-07,-9.38084e+08,-9.37958e+08,-9.3805e+08,-27113.7,-0.00455115,0.0424142,-0,0.0426576,-31820.8,-34152,-0,46678.9,27113.7
step02_gravity_refstate-crust.xmf,1092,-2.63355e-07,9.92615e-07,0,-6.65025e-07,-9.12283e+08,-9.12196e+08,-9.12265e+08,-45620.7,-0.00544113,0.0350131,-0,0.0354333,-27376.8,-33213,-0,43041.8,45620.7
step02_gravity_refstate-crust.xmf,1093,-3.88145e-07,1.15731e-06,0,-5.66146e-07,-9.33266e+08,-9.3316e+08,-9.3324e+08,-38837.6,-0.00572513,0.0374609,-0,0.0378959,-28840.6,-33976.7,-0,44566.7,38837.6
step02_gravity_refstate-crust.xmf,1094,-6.11237e-07,6.28714e-07,0,1.49298e-06,-1.32317e+08,-1.32232e+08,-1.32275e+08,102419,-0.0255278,-0.0131399,-0,0.0287111,14490.1,-4815.63,0,15269.4,102419
step02_gravity_refstate-crust.xmf,1095,-1.35211e-07,5.73885e-08,0,1.40901e-08,-12585.4,626.892,-3309.96,966.583,-0.0415786,0.00232764,-0,0.0416437,17443.5,0,0,17443.5,966.583
step02_gravity_refstate-crust.xmf,1096,-4.65145e-07,6.81441e-07,0,1.83362e-06,-1.75786e+08,-1.75707e+08,-1.75754e+08,125786,-0.0231273,-0.0133413,-0,0.0266995,14661.5,-6398.83,0,15997,125786
step02_gravity_refstate-crust.xmf,1097,-1.24091e-06,2.687e-06,0,2.98119e-06,-3.8952e+08,-3.8925e+08,-3.89435e+08,204509,-0.0168158,-0.0595891,-0,0.0619163,7868.38,-14180,0,16216.8,204509
step02_gravity_refstate-crust.xmf,1098,-1.27375e-06,2.99589e-06,0,3.24555e-06,-4.23844e+08,-4.23551e+08,-4.23756e+08,222645,-0.0175301,-0.0643982,-0,0.0667416,7634.41,-15429.9,0,17215.3,222645
step02_gravity_refstate-crust.xmf,1099,-1.71123e-06,3.92639e-06,0,3.43249e-06,-4.69776e+08,-4.69389e+08,-4.69658e+08,235469,-0.0172962,-0.0774583,-0,0.0793659,6346.42,-17101.8,0,18241.4,235469
step02_gravity_refstate-crust.xmf,1100,-9.88165e-07,1.97275e-06,0,2.73685e-06,-3.3321e+08,-3.33006e+08,-3.33142e+08,187748,-0.0172238,-0.0476044,-0,0.0506245,9276.12,-12129.9,0,15270.2,187748
step02_gravity_refstate-crust.xmf,1101,-8.41252e-07,1.4144e-06,0,2.42958e-06,-2.7069e+08,-2.70536e+08,-2.70633e+08,166670,-0.018252,-0.0362997,-0,0.0406301,10767.8,-9853.54,0,14595.8,166670
step02_gravity_refstate-crust.xmf,1102,-6.37473e-07,1.14889e-06,0,2.39447e-06,-2.56682e+08,-2.5656e+08,-2.56639e+08,164261,-0.0193909,-0.0286557,-0,0.0345999,12153.9,-9343.98,0,15330.6,164261
step02_gravity_refstate-crust.xmf,1103,-4.23527e-06,1.04096e-05,0,7.07089e-06,-6.91395e+08,-6.90391e+08,-6.91105e+08,485063,-0.0221372,-0.154117,-0,0.155699,3356.74,-25169.9,0,25392.8,485063
step02_gravity_refstate-crust.xmf,1104,1.04347e-06,-4.73926e-06,0,-1.25001e-05,-9.49073e+08,-9.4947e+08,-9.49145e+08,-857504,-0.0104804,-0.175738,-0,0.17605,-4380.52,-34548.8,-0,34825.4,857504
step02_gravity_refstate-crust.xmf,1105,4.96779e-07,-2.79546e-06,0,-7.85917e-06,-9.38174e+08,-9.384e+08,-9.38208e+08,-539139,-0.0082823,-0.133049,-0,0.133306,-5944.02,-34152.9,-0,34666.2,539139
step02_gravity_refstate-crust.xmf,1106,4.22764e-07,-2.02817e-06,0,-5.74792e-06,-9.31838e+08,-9.32006e+08,-9.31867e+08,-394307,-0.00705835,-0.107139,-0,0.107371,-7190.05,-33923.1,-0,34676.7,394307
step02_gravity_refstate-crust.xmf,1107,4.74261e-07,-3.6856e-06,0,-9.12225e-06,-9.49373e+08,-9.49659e+08,-9.49406e+08,-625786,-0.011318,-0.145383,-0,0.145823,-5401.37,-34559.1,-0,34978.7,625786
step02_gravity_refstate-crust.xmf,1108,2.64197e-06,-7.23302e-06,0,-2.69007e-05,-9.47689e+08,-9.48367e+08,-9.47871e+08,-1.84539e+06,-0.00576065,-0.283298,-0,0.283357,-2000,-34501.1,-0,34559,1.84539e+06
step02_gravity_refstate-crust.xmf,1109,2.80761e-06,-8.13206e-06,0,-2.33835e-05,-9.54572e+08,-9.55322e+08,-9.54764e+08,-1.6041e+06,-0.00843536,-0.25706,-0,0.257198,-2432.41,-34750.9,-0,34835.9,1.6041e+06
step02_gravity_refstate-crust.xmf,1110,2.24378e-07,-2.03429e-07,0,-1.84176e-06,-9.1253e+08,-9.12559e+08,-9.12545e+08,-126345,-0.00581543,-0.0169445,-0,0.0179147,-15254,-33222.2,-0,36556.8,126345
step02_gravity_refstate-crust.xmf,1111,9.8379e-07,-8.51971e-07,0,-2.78658e-06,-8.80269e+08,-8.80395e+08,-8.80337e+08,-191159,0.000862716,-0.0485279,0,0.0485355,-11590.2,-32049.7,-0,34081.1,191159
step02_gravity_refstate-crust.xmf,1112,8.39309e-07,-9.70893e-07,0,-3.07377e-06,-8.94966e+08,-8.9509e+08,-8.95024e+08,-210860,-0.000989708,-0.0572611,-0,0.0572696,-10738.6,-32584,-0,34308,210860
step02_gravity_refstate-crust.xmf,1113,5.24368e-07,-1.27415e-06,0,-3.77619e-06,-9.18315e+08,-9.18439e+08,-9.18351e+08,-259047,-0.00473959,-0.0742928,-0,0.0744438,-9291.44,-33432.3,-0,34699.5,259047
step02_gravity_refstate-crust.xmf,1114,2.59184e-07,-1.51468e-06,0,-4.28501e-06,-9.30414e+08,-9.30536e+08,-9.30432e+08,-293952,-0.007178,-0.0838477,-0,0.0841543,-8579.81,-33871.4,-0,34941.1,293952
step02_gravity_refstate-crust.xmf,1115,2.03463e-07,1.22886e-07,0,-1.41164e-06,-8.95905e+08,-8.9591e+08,-8.95919e+08,-96838.4,-0.00482004,0.0022718,-0,0.00532859,-18435.5,-32617.3,-0,37466.7,96838.4
step02_gravity_refstate-crust.xmf,1116,-2.05428e-07,7.31459e-07,0,-9.46747e-07,-9.33016e+08,-9.32952e+08,-9.33002e+08,-64946.9,-0.0073601,0.0226714,-0,0.0238362,-23341.2,-33967.7,-0,41214.3,64946.9
step02_gravity_refstate-crust.xmf,1117,-6.38192e-07,1.58527e-06,0,-1.54708e-07,-9.60468e+08,-9.60316e+08,-9.60424e+08,-10612.9,-0.00219515,0.0459316,-0,0.0459841,-36607.6,-34966.7,-0,50623.9,10612.9
step02_gravity_refstate-crust.xmf,1118,-7.51309e-07,1.73336e-06,0,-9.33955e-08,-1.0013e+09,-1.00113e+09,-1.00125e+09,-6406.93,-0.00163457,0.044013,-0,0.0440434,-37833.5,-36453,-0,52537.5,6406.93
step02_gravity_refstate-crust.xmf,1119,-6.05878e-07,1.50343e-06,0,-3.06407e-07,-9.66805e+08,-9.66661e+08,-9.66764e+08,-21019.5,-0.00425771,0.0429556,-0,0.0431661,-33428.4,-35197.4,-0,48541.9,21019.5
step02_gravity_refstate-crust.xmf,1120,-5.08709e-07,1.3214e-06,0,-4.74443e-07,-9.57899e+08,-9.57774e+08,-9.57864e+08,-32546.8,-0.00580776,0.0390775,-0,0.0395067,-30301.7,-34873.3,-0,46198.9,32546.8
step02_gravity_refstate-crust.xmf,1121,-3.06447e-07,9.60769e-07,0,-7.42757e-07,-9.33886e+08,-9.33799e+08,-9.33865e+08,-50953.1,-0.00670774,0.0309047,-0,0.0316243,-26067.1,-33999.3,-0,42842.1,50953.1
step02_gravity_refstate-crust.xmf,1122,-2.58089e-07,4.78556e-07,0,1.531e-06,-1.42198e+08,-1.42148e+08,-1.42181e+08,105027,-0.0256845,-0.00410076,-0,0.0260098,16388,-5176.57,0,17186.2,105027
step02_gravity_refstate-crust.xmf,1123,8.16415e-08,1.12797e-07,0,5.95862e-07,-4.90793e+07,-4.90772e+07,-4.90849e+07,40876.2,-0.034681,0.00716645,-0,0.0354137,18555.6,-1787.29,0,18641.5,40876.2
step02_gravity_refstate-crust.xmf,1124,-1.35178e-07,3.09873e-07,0,1.07709e-06,-9.37175e+07,-9.3687e+07,-9.37082e+07,73888.4,-0.0298022,0.00167541,-0,0.0298492,17444.3,-3411.81,0,17774.8,73888.4
step02_gravity_refstate-crust.xmf,1125,-3.14914e-07,7.4539e-07,0,2.15536e-06,-2.20702e+08,-2.20629e+08,-2.2068e+08,147858,-0.0214197,-0.0138489,-0,0.0255068,14792.5,-8034.76,0,16833.7,147858
step02_gravity_refstate-crust.xmf,1126,-1.75453e-06,4.28772e-06,0,3.79668e-06,-5.01258e+08,-5.00843e+08,-5.01137e+08,260452,-0.0184261,-0.0828938,-0,0.084917,6225.76,-18248.3,0,19281.1,260452
step02_gravity_refstate-crust.xmf,1127,-1.79415e-06,4.63643e-06,0,4.19659e-06,-5.31762e+08,-5.31321e+08,-5.31639e+08,287886,-0.019661,-0.0886215,-0,0.0907762,6109.24,-19359.3,0,20300.3,287886
step02_gravity_refstate-crust.xmf,1128,-1.30776e-06,3.28913e-06,0,3.52923e-06,-4.56575e+08,-4.56259e+08,-4.56485e+08,242105,-0.0184229,-0.0692641,-0,0.0716723,7440.96,-16621.9,0,18211.4,242105
step02_gravity_refstate-crust.xmf,1129,-9.47435e-07,2.21485e-06,0,3.02522e-06,-3.74263e+08,-3.74046e+08,-3.74198e+08,207530,-0.0177941,-0.0516377,-0,0.0546176,9103.61,-13625,0,16386.5,207530
step02_gravity_refstate-crust.xmf,1130,-7.59179e-07,1.60087e-06,0,2.71973e-06,-3.15067e+08,-3.14905e+08,-3.15015e+08,186573,-0.0181778,-0.0396464,-0,0.043615,10588.8,-11469.7,0,15610.2,186573
step02_gravity_refstate-crust.xmf,1131,-4.24597e-07,9.22226e-07,0,2.33813e-06,-2.46407e+08,-2.46314e+08,-2.46377e+08,160396,-0.0203351,-0.0206773,-0,0.0290011,13623.9,-8970.39,0,16311.9,160396
step02_gravity_refstate-crust.xmf,1132,-1.83691e-06,4.99185e-06,0,4.61793e-06,-5.60083e+08,-5.59614e+08,-5.59957e+08,316790,-0.0208489,-0.094684,-0,0.0969522,5959.37,-20390.7,0,21243.7,316790
step02_gravity_refstate-crust.xmf,1133,-4.03385e-06,1.11197e-05,0,8.69928e-06,-7.22867e+08,-7.21828e+08,-7.22591e+08,596771,-0.0246526,-0.16653,-0,0.168345,3352.78,-26317.6,0,26530.3,596771
step02_gravity_refstate-crust.xmf,1134,-2.11102e-06,5.86897e-06,0,5.24788e-06,-5.99969e+08,-5.99421e+08,-5.99824e+08,360005,-0.0220349,-0.107028,-0,0.109273,5413.87,-21843,0,22503.9,360005
step02_gravity_refstate-crust.xmf,1135,-3.62534e-06,1.00222e-05,0,8.00985e-06,-7.06375e+08,-7.05439e+08,-7.06127e+08,549476,-0.0244851,-0.155927,-0,0.157838,3650.72,-25717.2,0,25975,549476
step02_gravity_refstate-crust.xmf,1136,-3.84409e-06,9.47087e-06,0,6.60073e-06,-6.75136e+08,-6.74223e+08,-6.74872e+08,452810,-0.0219234,-0.14527,-0,0.146915,3612.52,-24578.1,0,24842.2,452810
step02_gravity_refstate-crust.xmf,1137,-2.40677e-06,6.57196e-06,0,5.59303e-06,-6.20348e+08,-6.19732e+08,-6.20182e+08,383682,-0.022324,-0.115515,-0,0.117652,4985.01,-22584.8,0,23128.4,383682
step02_gravity_refstate-crust.xmf,1138,-2.78424e-06,7.42302e-06,0,5.96906e-06,-6.40513e+08,-6.39813e+08,-6.40322e+08,409477,-0.0224802,-0.124979,-0,0.126985,4534.96,-23318.8,0,23755.6,409477
step02_gravity_refstate-crust.xmf,1139,-3.26265e-06,8.42269e-06,0,6.30266e-06,-6.58398e+08,-6.57596e+08,-6.58174e+08,432362,-0.0223273,-0.134859,-0,0.136694,4072.08,-23969.5,0,24312.9,432362
step02_gravity_refstate-crust.xmf,1140,-4.41246e-06,1.23224e-05,0,9.62383e-06,-7.40887e+08,-7.39739e+08,-7.40585e+08,660195,-0.0249877,-0.178384,-0,0.180125,3088.52,-26974,0,27150.2,660195
step02_gravity_refstate-crust.xmf,1141,-4.8856e-06,1.3768e-05,0,1.06349e-05,-7.57497e+08,-7.56218e+08,-7.57162e+08,729554,-0.0250676,-0.190999,-0,0.192637,2820.88,-27579,0,27722.9,729554
step02_gravity_refstate-crust.xmf,1142,-5.52385e-06,1.55837e-05,0,1.1693e-05,-7.72362e+08,-7.70914e+08,-7.71983e+08,802139,-0.0247804,-0.204318,-0,0.205816,2548.13,-28120.4,0,28235.6,802139
step02_gravity_refstate-crust.xmf,1143,-6.3644e-06,1.7912e-05,0,1.28732e-05,-7.86335e+08,-7.84669e+08,-7.85898e+08,883104,-0.0241706,-0.2186,-0,0.219932,2284.93,-28629.3,0,28720.3,883104
step02_gravity_refstate-crust.xmf,1144,-7.69571e-06,2.1382e-05,0,1.40978e-05,-7.99543e+08,-7.97549e+08,-7.99016e+08,967111,-0.0229722,-0.234577,-0,0.235699,2014.42,-29110.2,0,29179.8,967111
step02_gravity_refstate-crust.xmf,1145,-9.68978e-06,2.6293e-05,0,1.43865e-05,-8.12018e+08,-8.09549e+08,-8.11353e+08,986913,-0.0210072,-0.252119,-0,0.252993,1755.64,-29563.8,0,29615.9,986913
step02_gravity_refstate-crust.xmf,1146,-1.02839e-05,3.01187e-05,0,1.24013e-05,-8.23902e+08,-8.2113e+08,-8.23196e+08,850732,-0.0181031,-0.271204,-0,0.271808,1499.28,-30000,0,30037.4,850732
step02_gravity_refstate-crust.xmf,1147,2.72318e-06,-8.54655e-06,0,-1.967e-05,-9.61867e+08,-9.6264e+08,-9.62054e+08,-1.34936e+06,-0.0116649,-0.229374,-0,0.22967,-2944.1,-35015.5,-0,35139.1,1.34936e+06
step02_gravity_refstate-crust.xmf,1148,1.97527e-06,-7.44788e-06,0,-1.6024e-05,-9.62639e+08,-9.63286e+08,-9.62775e+08,-1.09924e+06,-0.0132947,-0.202643,-0,0.203079,-3560.74,-35042.3,-0,35222.7,1.09924e+06
step02_gravity_refstate-crust.xmf,1149,1.28222e-06,-6.23286e-06,0,-1.32635e-05,-9.62102e+08,-9.62618e+08,-9.6219e+08,-909879,-0.0140734,-0.18107,-0,0.181616,-4146.83,-35021.8,-0,35266.5,909879
step02_gravity_refstate-crust.xmf,1150,7.2557e-07,-5.05118e-06,0,-1.09075e-05,-9.59969e+08,-9.60366e+08,-9.60019e+08,-748256,-0.0140753,-0.160895,-0,0.161509,-4789.81,-34943.8,-0,35270.5,748256
step02_gravity_refstate-crust.xmf,1151,3.37821e-08,-1.85944e-06,0,-4.93917e-06,-9.41759e+08,-9.41889e+08,-9.41761e+08,-338827,-0.0097488,-0.0941656,-0,0.0946689,-7882.54,-34282.9,-0,35177.5,338827
step02_gravity_refstate-crust.xmf,1152,1.96807e-07,-2.6149e-06,0,-6.68818e-06,-9.44942e+08,-9.45135e+08,-9.44956e+08,-458809,-0.0104213,-0.118403,-0,0.118861,-6569.12,-34398.3,-0,35020,458809
step02_gravity_refstate-crust.xmf,1153,1.06375e-07,5.95374e-08,0,-1.54194e-06,-9.13477e+08,-9.1348e+08,-9.13484e+08,-105777,-0.00625605,-0.00391558,-0,0.00738037,-17322.1,-33256.6,-0,37497.4,105777
step02_gravity_refstate-crust.xmf,1154,-6.92696e-09,-1.57603e-08,0,-1.70862e-06,-9.29092e+08,-9.29093e+08,-9.29092e+08,-117211,-0.00773199,-0.01046,-0,0.0130075,-16230.5,-33824.5,-0,37517,117211
step02_gravity_refstate-crust.xmf,1155,4.69506e-08,-2.73416e-07,0,-2.03409e-06,-9.29848e+08,-9.2987e+08,-9.29852e+08,-139539,-0.00777415,-0.0236349,-0,0.0248807,-14302.9,-33851.8,-0,36749.4,139539
step02_gravity_refstate-crust.xmf,1156,3.04612e-07,-4.77017e-07,0,-2.21077e-06,-9.13838e+08,-9.13891e+08,-9.13859e+08,-151659,-0.00550725,-0.0314011,-0,0.0318804,-13347.1,-33269.7,-0,35847.1,151659
step02_gravity_refstate-crust.xmf,1157,6.25838e-07,-6.81517e-07,0,-2.45588e-06,-8.98108e+08,-8.98198e+08,-8.98151e+08,-168473,-0.00274565,-0.0398686,-0,0.039963,-12422.9,-32698,-0,34978.4,168473
step02_gravity_refstate-crust.xmf,1158,4.26407e-07,-9.78013e-07,0,-3.08662e-06,-9.17024e+08,-9.17121e+08,-9.17053e+08,-211742,-0.00508052,-0.0579856,-0,0.0582077,-10606.5,-33385.4,-0,35029.7,211742
step02_gravity_refstate-crust.xmf,1159,1.69764e-07,-1.0972e-06,0,-3.35811e-06,-9.29454e+08,-9.29541e+08,-9.29466e+08,-230366,-0.00730467,-0.0643078,-0,0.0647213,-10030,-33836.7,-0,35292,230366
step02_gravity_refstate-crust.xmf,1160,3.13975e-08,3.11942e-07,0,-1.28352e-06,-9.14405e+08,-9.14386e+08,-9.14407e+08,-88049.5,-0.00649926,0.00789167,-0,0.0102234,-19588.3,-33290.4,-0,38625.8,88049.5
step02_gravity_refstate-crust.xmf,1161,-3.41471e-07,9.08122e-07,0,-8.43821e-07,-9.53636e+08,-9.5355e+08,-9.53613e+08,-57886.1,-0.00803092,0.0263506,-0,0.0275473,-24690.6,-34718.1,-0,42602.5,57886.1
step02_gravity_refstate-crust.xmf,1162,-1.31104e-07,4.96292e-07,0,-1.17235e-06,-9.33895e+08,-9.33852e+08,-9.33886e+08,-80423.2,-0.0078485,0.0129721,-0,0.0151616,-20790,-33999.6,-0,39852.2,80423.2
step02_gravity_refstate-crust.xmf,1163,-2.64847e-07,6.7199e-07,0,-1.06919e-06,-9.53431e+08,-9.53367e+08,-9.53413e+08,-73346.7,-0.00881685,0.0174976,-0,0.0195935,-22035.6,-34710.6,-0,41114.4,73346.7
step02_gravity_refstate-crust.xmf,1164,-8.32367e-07,1.84021e-06,0,-4.43141e-10,-1.0336e+09,-1.03342e+09,-1.03355e+09,-30.3995,-2.76775e-19,0.0422657,-0,0.0422657,-40000,-37628.9,-0,54917.5,30.3995
step02_gravity_refstate-crust.xmf,1165,-7.25654e-07,1.66921e-06,0,-2.0985e-07,-9.99303e+08,-9.99139e+08,-9.99253e+08,-14395.7,-0.00348055,0.0427882,-0,0.0429295,-35303.5,-36380.3,-0,50693.8,14395.7
step02_gravity_refstate-crust.xmf,1166,-6.55893e-07,1.51107e-06,0,-3.93443e-07,-9.96761e+08,-9.96612e+08,-9.96716e+08,-26990.2,-0.00592974,0.0391716,-0,0.0396178,-31680.7,-36287.8,-0,48171.2,26990.2
step02_gravity_refstate-crust.xmf,1167,-5.36164e-07,1.29546e-06,0,-5.53791e-07,-9.78398e+08,-9.78273e+08,-9.78362e+08,-37990.1,-0.00710209,0.0356311,-0,0.0363321,-28933.5,-35619.4,-0,45890,37990.1
step02_gravity_refstate-crust.xmf,1168,-4.25921e-07,1.13459e-06,0,-6.43148e-07,-9.56184e+08,-9.56077e+08,-9.56154e+08,-44119.9,-0.00705847,0.0336403,-0,0.0343728,-27515.7,-34810.9,-0,44372.4,44119.9
step02_gravity_refstate-crust.xmf,1169,4.35261e-07,-1.61101e-07,0,1.22831e-08,41519.4,608.988,11660.5,842.622,-0.0412623,0.0119964,-0,0.0429709,19656.4,0,0,19656.4,842.622
step02_gravity_refstate-crust.xmf,1170,-1.42766e-07,5.53475e-07,0,1.9385e-06,-1.9739e+08,-1.97343e+08,-1.97381e+08,132981,-0.0226531,-0.00529123,-0,0.0232628,16358.5,-7186.47,0,17867.5,132981
step02_gravity_refstate-crust.xmf,1171,-9.45653e-07,2.47524e-06,0,3.28988e-06,-4.10428e+08,-4.10193e+08,-4.10363e+08,225686,-0.0184368,-0.0563059,-0,0.0592475,8821.12,-14942,0,17351.6,225686
step02_gravity_refstate-crust.xmf,1172,-9.44485e-07,2.71911e-06,0,3.55712e-06,-4.43275e+08,-4.43023e+08,-4.4321e+08,244018,-0.0192133,-0.06092,-0,0.063878,8568.7,-16138.2,0,18272,244018
step02_gravity_refstate-crust.xmf,1173,-1.32109e-06,3.57645e-06,0,3.85634e-06,-4.8838e+08,-4.88044e+08,-4.88289e+08,264545,-0.0194696,-0.0742865,-0,0.0767955,7274.64,-17780.2,0,19210.8,264545
step02_gravity_refstate-crust.xmf,1174,-6.82991e-07,1.79551e-06,0,3.01456e-06,-3.59045e+08,-3.58875e+08,-3.58998e+08,206799,-0.0185562,-0.0433871,-0,0.0471886,10399.4,-13071.4,0,16703.5,206799
step02_gravity_refstate-crust.xmf,1175,-5.43593e-07,1.28126e-06,0,2.66772e-06,-2.98952e+08,-2.98826e+08,-2.98914e+08,183006,-0.0190299,-0.0314326,-0,0.0367443,11980.7,-10883.4,0,16186,183006
step02_gravity_refstate-crust.xmf,1176,-3.51179e-07,1.01875e-06,0,2.576e-06,-2.83245e+08,-2.83151e+08,-2.83221e+08,176714,-0.0197284,-0.0232616,-0,0.030501,13381.7,-10312,0,16894,176714
step02_gravity_refstate-crust.xmf,1177,-1.8176e-07,7.92357e-07,0,2.42376e-06,-2.63909e+08,-2.63842e+08,-2.63896e+08,166270,-0.020381,-0.0147612,-0,0.0251651,14849.4,-9608.36,0,17686.9,166270
step02_gravity_refstate-crust.xmf,1178,-1.85582e-06,5.27493e-06,0,4.99159e-06,-5.82231e+08,-5.81742e+08,-5.82104e+08,342423,-0.0218555,-0.0997395,-0,0.102106,5844.74,-21197.4,0,21988.4,342423
step02_gravity_refstate-crust.xmf,1179,-3.16713e-06,8.86403e-06,0,7.46011e-06,-6.90562e+08,-6.89737e+08,-6.90345e+08,511764,-0.0244946,-0.145732,-0,0.147776,4009.33,-25141.5,0,25459.2,511764
step02_gravity_refstate-crust.xmf,1180,7.63968e-08,-3.42187e-06,0,-7.72498e-06,-9.56782e+08,-9.57022e+08,-9.56787e+08,-529933,-0.0135965,-0.129778,-0,0.130489,-5993.99,-34827.6,-0,35339.6,529933
step02_gravity_refstate-crust.xmf,1181,-1.61098e-07,-2.35851e-06,0,-5.74529e-06,-9.53688e+08,-9.53838e+08,-9.53676e+08,-394127,-0.0127132,-0.104695,-0,0.105464,-7227.83,-34715.6,-0,35460.1,394127
step02_gravity_refstate-crust.xmf,1182,1.43161e-07,-4.53706e-06,0,-8.9738e-06,-9.67555e+08,-9.67876e+08,-9.67564e+08,-615603,-0.016483,-0.142165,-0,0.143117,-5420.98,-35218.3,-0,35633.1,615603
step02_gravity_refstate-crust.xmf,1183,3.82137e-06,-1.01638e-05,0,-2.66241e-05,-9.61408e+08,-9.62367e+08,-9.6167e+08,-1.82641e+06,-0.00849582,-0.278954,-0,0.279084,-2000,-35000.7,-0,35057.8,1.82641e+06
step02_gravity_refstate-crust.xmf,1184,3.73815e-06,-1.07393e-05,0,-2.29754e-05,-9.68296e+08,-9.6929e+08,-9.68553e+08,-1.57611e+06,-0.0116102,-0.252355,-0,0.252622,-2432.25,-35250.3,-0,35334.1,1.57611e+06
step02_gravity_refstate-crust.xmf,1185,-1.19081e-07,-9.83032e-08,0,-1.90437e-06,-9.43289e+08,-9.43287e+08,-9.4328e+08,-130639,-0.00928077,-0.0169887,-0,0.0193584,-15222.8,-34340.7,-0,37563.5,130639
step02_gravity_refstate-crust.xmf,1186,3.38259e-07,-7.97124e-07,0,-2.72879e-06,-9.16189e+08,-9.16267e+08,-9.16212e+08,-187195,-0.00526801,-0.0486005,-0,0.0488852,-11478.2,-33354.9,-0,35274.6,187195
step02_gravity_refstate-crust.xmf,1187,-4.87518e-08,-1.31149e-06,0,-3.80599e-06,-9.41771e+08,-9.41858e+08,-9.41768e+08,-261091,-0.00974042,-0.0729232,-0,0.0735708,-9311.35,-34283.9,-0,35525.9,261091
step02_gravity_refstate-crust.xmf,1188,-3.51887e-07,-1.6263e-06,0,-4.36609e-06,-9.54122e+08,-9.54209e+08,-9.54098e+08,-299514,-0.0124621,-0.0823332,-0,0.083271,-8590.75,-34731.8,-0,35778.5,299514
step02_gravity_refstate-crust.xmf,1189,-7.71348e-08,2.46636e-07,0,-1.42202e-06,-9.3194e+08,-9.31918e+08,-9.31934e+08,-97550.4,-0.00793427,0.00190795,-0,0.00816045,-18411.8,-33928.3,-0,38602.1,97550.4
step02_gravity_refstate-crust.xmf,1190,-3.69514e-07,8.374e-07,0,-9.66331e-07,-9.71288e+08,-9.71205e+08,-9.71262e+08,-66290.3,-0.00935554,0.021522,-0,0.0234675,-23324.1,-35360.5,-0,42360.1,66290.3
step02_gravity_refstate-crust.xmf,1191,-8.67501e-07,1.8887e-06,0,-7.05587e-08,-1.05305e+09,-1.05286e+09,-1.05299e+09,-4840.33,-0.00145334,0.0407469,-0,0.0407728,-38330.1,-38336.8,-0,54211.7,4840.33
step02_gravity_refstate-crust.xmf,1192,-7.29822e-07,1.63859e-06,0,-3.08176e-07,-1.01487e+09,-1.01471e+09,-1.01482e+09,-21140.9,-0.00516448,0.0400381,-0,0.0403698,-33269.1,-36946.9,-0,49718.3,21140.9
step02_gravity_refstate-crust.xmf,1193,-6.20051e-07,1.42613e-06,0,-4.80123e-07,-9.98153e+08,-9.98013e+08,-9.98111e+08,-32936.4,-0.00693096,0.036818,-0,0.0374646,-30153.6,-36338.5,-0,47219.9,32936.4
step02_gravity_refstate-crust.xmf,1194,-4.65883e-07,1.0883e-06,0,-7.4502e-07,-9.77945e+08,-9.77839e+08,-9.77913e+08,-51108.4,-0.00850413,0.0292967,-0,0.030506,-26080,-35602.9,-0,44133.1,51108.4
step02_gravity_refstate-crust.xmf,1195,6.69664e-08,3.02786e-07,0,1.36788e-06,-1.31757e+08,-1.3174e+08,-1.31761e+08,93836.7,-0.0266236,0.0056728,-0,0.0272212,18373.6,-4797.47,0,18989.6,93836.7
step02_gravity_refstate-crust.xmf,1196,5.44722e-07,-7.57219e-08,0,5.13298e-07,-4.6452e+07,-4.64946e+07,-4.64894e+07,35212.3,-0.0343071,0.0169546,-0,0.038268,20759.2,-1693.22,0,20828.2,35212.3
step02_gravity_refstate-crust.xmf,1197,2.79391e-07,1.4008e-07,0,1.01756e-06,-9.7766e+07,-9.77756e+07,-9.77852e+07,69804.5,-0.0292457,0.0123576,-0,0.0317494,19742.1,-3560.62,0,20060.6,69804.5
step02_gravity_refstate-crust.xmf,1198,-2.27644e-08,6.0544e-07,0,2.23498e-06,-2.43604e+08,-2.43561e+08,-2.43603e+08,153319,-0.0210117,-0.00625339,-0,0.0219225,16362.1,-8869.5,0,18611.4,153319
step02_gravity_refstate-crust.xmf,1199,-1.2964e-06,3.83419e-06,0,4.23362e-06,-5.19526e+08,-5.19174e+08,-5.19437e+08,290427,-0.0206689,-0.0793918,-0,0.0820382,7143.4,-18914.6,0,20218.5,290427
step02_gravity_refstate-crust.xmf,1200,-1.2846e-06,4.12717e-06,0,4.64627e-06,-5.50373e+08,-5.50002e+08,-5.50285e+08,318734,-0.0218922,-0.0853045,-0,0.0880689,6951.92,-20038.1,0,21209.8,318734
step02_gravity_refstate-crust.xmf,1201,-9.32358e-07,2.94675e-06,0,3.84941e-06,-4.75294e+08,-4.75028e+08,-4.7523e+08,264070,-0.0201566,-0.0655747,-0,0.0686027,8358.09,-17304.3,0,19217.1,264070
step02_gravity_refstate-crust.xmf,1202,-6.53793e-07,2.02004e-06,0,3.28288e-06,-3.97709e+08,-3.97525e+08,-3.97664e+08,225206,-0.0190861,-0.0480897,-0,0.0517387,10047,-14479.5,0,17623.8,225206
step02_gravity_refstate-crust.xmf,1203,-4.4407e-07,1.41614e-06,0,2.94573e-06,-3.425e+08,-3.42372e+08,-3.42469e+08,202077,-0.0191309,-0.0345864,-0,0.0395248,11796.2,-12469.4,0,17165,202077
step02_gravity_refstate-crust.xmf,1204,-1.33193e-06,4.48078e-06,0,5.03513e-06,-5.7681e+08,-5.76412e+08,-5.76719e+08,345410,-0.0228498,-0.0918811,-0,0.0946797,6655.53,-21000.9,0,22030.3,345410
step02_gravity_refstate-crust.xmf,1205,-2.8688e-06,9.9417e-06,0,9.81023e-06,-7.40084e+08,-7.39205e+08,-7.39887e+08,672982,-0.0272206,-0.167194,-0,0.169395,3716.33,-26947.3,0,27202.3,672982
step02_gravity_refstate-crust.xmf,1206,-1.43566e-06,4.90452e-06,0,5.4133e-06,-5.99697e+08,-5.99262e+08,-5.99598e+08,371353,-0.0235886,-0.0989587,-0,0.101731,6298.96,-21834.3,0,22724.8,371353
step02_gravity_refstate-crust.xmf,1207,-2.66452e-06,9.06246e-06,0,8.93828e-06,-7.22781e+08,-7.21977e+08,-7.22599e+08,613166,-0.0268707,-0.15623,-0,0.158524,4015.07,-26316.8,0,26621.3,613166
step02_gravity_refstate-crust.xmf,1208,-1.61973e-06,5.45442e-06,0,5.8061e-06,-6.20759e+08,-6.20273e+08,-6.20647e+08,398299,-0.0241316,-0.10704,-0,0.109726,5869,-22601.2,0,23350.8,398299
step02_gravity_refstate-crust.xmf,1209,-2.41932e-06,8.21575e-06,0,8.21759e-06,-7.05973e+08,-7.05243e+08,-7.05807e+08,563727,-0.0265499,-0.146,-0,0.148394,4342.64,-25704.6,0,26068.8,563727
step02_gravity_refstate-crust.xmf,1210,-2.62923e-06,7.73526e-06,0,7.02442e-06,-6.74255e+08,-6.73544e+08,-6.74074e+08,481875,-0.024694,-0.134855,-0,0.137097,4486.08,-24548.2,0,24954.8,481875
step02_gravity_refstate-crust.xmf,1211,-1.86098e-06,6.11365e-06,0,6.24296e-06,-6.41257e+08,-6.4071e+08,-6.4113e+08,428267,-0.0245853,-0.115982,-0,0.118559,5418.59,-23347.6,0,23968.1,428267
step02_gravity_refstate-crust.xmf,1212,-2.16328e-06,6.88602e-06,0,6.72391e-06,-6.60873e+08,-6.60253e+08,-6.60725e+08,461261,-0.0249286,-0.125641,-0,0.12809,4965.05,-24061.7,0,24568.6,461261
step02_gravity_refstate-crust.xmf,1213,9.59978e-07,-3.60808e-07,0,1.11196e-08,91338.4,732.497,25483.9,762.805,-0.0396903,0.0214853,-0,0.0451325,21926.5,0,0,21926.5,762.805
step02_gravity_refstate-crust.xmf,1214,-3.08207e-06,1.09228e-05,0,1.0794e-05,-7.56471e+08,-7.5551e+08,-7.5626e+08,740470,-0.0274208,-0.178772,-0,0.180863,3428.27,-27544.5,0,27757.1,740470
step02_gravity_refstate-crust.xmf,1215,-3.34038e-06,1.20945e-05,0,1.19249e-05,-7.72151e+08,-7.71092e+08,-7.71922e+08,818046,-0.0273832,-0.19143,-0,0.193378,3136.36,-28116.1,0,28290.5,818046
step02_gravity_refstate-crust.xmf,1216,-3.64791e-06,1.34583e-05,0,1.31672e-05,-7.86203e+08,-7.85029e+08,-7.85952e+08,903272,-0.0270447,-0.204505,-0,0.206285,2858.32,-28628.6,0,28770.9,903272
step02_gravity_refstate-crust.xmf,1217,-4.04983e-06,1.52033e-05,0,1.46534e-05,-7.9961e+08,-7.98289e+08,-7.99332e+08,1.00523e+06,-0.0262783,-0.219088,-0,0.220658,2574.37,-29117.8,0,29231.3,1.00523e+06
step02_gravity_refstate-crust.xmf,1218,-4.5772e-06,1.75506e-05,0,1.65471e-05,-8.12271e+08,-8.10753e+08,-8.11957e+08,1.13513e+06,-0.0248393,-0.235827,-0,0.237131,2279.62,-29580.2,0,29667.9,1.13513e+06
step02_gravity_refstate-crust.xmf,1219,-6.39788e-06,2.09888e-05,0,1.80122e-05,-8.23858e+08,-8.2198e+08,-8.23419e+08,1.23564e+06,-0.0222834,-0.254962,-0,0.255934,2000,-30000,0,30066.6,1.23564e+06
step02_gravity_refstate-crust.xmf,1220,2.78338e-06,-1.00221e-05,0,-1.73401e-05,-9.76447e+08,-9.77326e+08,-9.76638e+08,-1.18953e+06,-0.0163085,-0.21152,-0,0.212147,-3236.48,-35544.3,-0,35691.3,1.18953e+06
step02_gravity_refstate-crust.xmf,1221,1.78586e-06,-8.56485e-06,0,-1.40868e-05,-9.78513e+08,-9.79223e+08,-9.78635e+08,-966357,-0.018222,-0.187479,-0,0.188362,-3839.82,-35617.7,-0,35824.1,966357
step02_gravity_refstate-crust.xmf,1222,9.55636e-07,-6.70852e-06,0,-1.19526e-05,-9.73832e+08,-9.74358e+08,-9.73898e+08,-819952,-0.0177027,-0.169591,-0,0.170513,-4410.72,-35446.8,-0,35720.2,819952
step02_gravity_refstate-crust.xmf,1223,-5.77373e-07,-2.06237e-06,0,-5.06458e-06,-9.64938e+08,-9.6504e+08,-9.64898e+08,-347430,-0.0150845,-0.0922945,-0,0.093519,-7895.89,-35124,-0,36000.6,347430
step02_gravity_refstate-crust.xmf,1224,-3.16485e-07,-3.04636e-06,0,-6.6587e-06,-9.64923e+08,-9.6511e+08,-9.64901e+08,-456787,-0.0156571,-0.115404,-0,0.116461,-6615.12,-35123,-0,35740.5,456787
step02_gravity_refstate-crust.xmf,1225,3.94951e-07,-5.98578e-06,0,-1.03513e-05,-9.78187e+08,-9.78625e+08,-9.78214e+08,-710099,-0.0191989,-0.154367,-0,0.155557,-4889.42,-35604.2,-0,35938.4,710099
step02_gravity_refstate-crust.xmf,1226,3.55545e-06,-1.11124e-05,0,-2.0198e-05,-9.7522e+08,-9.76226e+08,-9.75464e+08,-1.38558e+06,-0.0145623,-0.232077,-0,0.232533,-2784.64,-35501,-0,35610.1,1.38558e+06
step02_gravity_refstate-crust.xmf,1227,-1.9501e-07,1.68766e-07,0,-1.60899e-06,-9.49158e+08,-9.49133e+08,-9.49145e+08,-110377,-0.00954545,-0.00461457,-0,0.0106023,-17224.6,-34554.5,-0,38609.6,110377
step02_gravity_refstate-crust.xmf,1228,-2.90844e-07,5.81421e-08,0,-1.82491e-06,-9.60004e+08,-9.5998e+08,-9.59984e+08,-125189,-0.0107855,-0.011608,-0,0.0158453,-16049.5,-34948.8,-0,38457.8,125189
step02_gravity_refstate-crust.xmf,1229,-3.11636e-07,-1.81133e-07,0,-2.14774e-06,-9.59782e+08,-9.59773e+08,-9.59761e+08,-147335,-0.0112725,-0.0233375,-0,0.0259173,-14309.8,-34940.3,-0,37757,147335
step02_gravity_refstate-crust.xmf,1230,-1.65759e-07,-3.60501e-07,0,-2.28448e-06,-9.46331e+08,-9.46345e+08,-9.4632e+08,-156715,-0.00990925,-0.0306089,-0,0.0321729,-13383.3,-34450.9,-0,36959.2,156715
step02_gravity_refstate-crust.xmf,1231,7.51809e-08,-5.67399e-07,0,-2.45771e-06,-9.3073e+08,-9.30774e+08,-9.30735e+08,-168599,-0.00780495,-0.0387528,-0,0.0395309,-12463.8,-33883.6,-0,36103.2,168599
step02_gravity_refstate-crust.xmf,1232,-3.05088e-08,-8.95761e-07,0,-3.0436e-06,-9.38521e+08,-9.3858e+08,-9.38519e+08,-208791,-0.00904395,-0.0551712,-0,0.0559076,-10793,-34166.3,-0,35830.5,208791
step02_gravity_refstate-crust.xmf,1233,-3.50718e-07,-1.07861e-06,0,-3.44242e-06,-9.52856e+08,-9.52906e+08,-9.52832e+08,-236150,-0.0117254,-0.0629264,-0,0.0640095,-10068,-34686.6,-0,36118.2,236150
step02_gravity_refstate-crust.xmf,1234,-2.1901e-07,4.34749e-07,0,-1.31703e-06,-9.53389e+08,-9.53344e+08,-9.53374e+08,-90348.3,-0.00940514,0.00742296,-0,0.0119815,-19601.4,-34708.9,-0,39861.3,90348.3
step02_gravity_refstate-crust.xmf,1235,-4.7777e-07,9.94798e-07,0,-8.81301e-07,-9.93248e+08,-9.93147e+08,-9.93215e+08,-60457.3,-0.00985226,0.0243906,-0,0.0263053,-24489.4,-36159.8,-0,43672.2,60457.3
step02_gravity_refstate-crust.xmf,1236,-3.34601e-07,6.0839e-07,0,-1.21146e-06,-9.72542e+08,-9.72477e+08,-9.72519e+08,-83106.1,-0.0102901,0.0124411,-0,0.0161451,-20849.6,-35405.9,-0,41088.7,83106.1
step02_gravity_refstate-crust.xmf,1237,-4.24006e-07,7.71873e-07,0,-1.10401e-06,-9.9079e+08,-9.90708e+08,-9.90761e+08,-75734.9,-0.0107919,0.0168579,-0,0.0200163,-22129.4,-36070.2,-0,42317.5,75734.9
step02_gravity_refstate-crust.xmf,1238,-8.46684e-07,1.8465e-06,0,-1.50664e-07,-1.04907e+09,-1.04889e+09,-1.04901e+09,-10335.5,-0.00301109,0.0403383,-0,0.0404505,-36488.7,-38191.9,-0,52820.9,10335.5
step02_gravity_refstate-crust.xmf,1239,-8.30878e-07,1.78741e-06,0,-2.53376e-07,-1.05236e+09,-1.05218e+09,-1.0523e+09,-17381.6,-0.00484264,0.0386977,-0,0.0389995,-34335.9,-38311.6,-0,51446.4,17381.6
step02_gravity_refstate-crust.xmf,1240,-7.96933e-07,1.69566e-06,0,-3.59984e-07,-1.05329e+09,-1.05312e+09,-1.05323e+09,-24694.9,-0.00653137,0.0366028,-0,0.0371809,-32262.6,-38345.4,-0,50112.4,24694.9
step02_gravity_refstate-crust.xmf,1241,-7.34743e-07,1.5678e-06,0,-4.66398e-07,-1.04538e+09,-1.04522e+09,-1.04533e+09,-31994.9,-0.0078437,0.0345685,-0,0.0354472,-30359.2,-38057.5,-0,48683.2,31994.9
step02_gravity_refstate-crust.xmf,1242,-6.44613e-07,1.41395e-06,0,-5.41768e-07,-1.01736e+09,-1.01722e+09,-1.01731e+09,-37165.3,-0.00806564,0.034053,-0,0.0349951,-29117.4,-37037.6,-0,47112.6,37165.3
step02_gravity_refstate-crust.xmf,1243,-5.97463e-07,1.28754e-06,0,-6.44816e-07,-1.00993e+09,-1.0098e+09,-1.00988e+09,-44234.4,-0.0087854,0.0314924,-0,0.0326949,-27616.3,-36766.9,-0,45983.3,44234.4
step02_gravity_refstate-crust.xmf,1244,6.562e-08,3.85859e-07,0,1.69631e-06,-1.74707e+08,-1.74685e+08,-1.74712e+08,116367,-0.0238458,0.00372005,-0,0.0241342,18082.9,-6361.25,0,19169.2,116367
step02_gravity_refstate-crust.xmf,1245,1.33775e-07,4.4257e-07,0,2.0085e-06,-2.22617e+08,-2.22595e+08,-2.22626e+08,137783,-0.0216247,0.00232968,-0,0.0217499,17950.8,-8105.81,0,19696,137783
step02_gravity_refstate-crust.xmf,1246,-6.3992e-07,2.22733e-06,0,3.5272e-06,-4.30814e+08,-4.30617e+08,-4.3077e+08,241966,-0.0197268,-0.0527043,-0,0.0562751,9708.51,-15685.1,0,18446.6,241966
step02_gravity_refstate-crust.xmf,1247,-6.01458e-07,2.40183e-06,0,3.78602e-06,-4.61987e+08,-4.61781e+08,-4.61945e+08,259721,-0.0205263,-0.0569423,-0,0.060529,9459.37,-16820.4,0,19297.8,259721
step02_gravity_refstate-crust.xmf,1248,-8.67247e-07,3.12609e-06,0,4.18458e-06,-5.06734e+08,-5.0646e+08,-5.06674e+08,287062,-0.0212762,-0.0699773,-0,0.0731402,8224.88,-18449.5,0,20199.8,287062
step02_gravity_refstate-crust.xmf,1249,-3.44477e-07,1.59008e-06,0,3.26382e-06,-3.90444e+08,-3.90311e+08,-3.9042e+08,223898,-0.0196551,-0.0389767,-0,0.0436521,11491.9,-14215.6,0,18279.7,223898
step02_gravity_refstate-crust.xmf,1250,-2.40638e-07,1.10648e-06,0,2.83743e-06,-3.26617e+08,-3.26524e+08,-3.266e+08,194647,-0.0195305,-0.0258733,-0,0.0324171,13212.9,-11891.5,0,17776.1,194647
step02_gravity_refstate-crust.xmf,1251,-6.56663e-08,8.55463e-07,0,2.68508e-06,-3.08491e+08,-3.08428e+08,-3.08487e+08,184196,-0.0198089,-0.0169615,-0,0.0260784,14691.1,-11232,0,18492.9,184196
step02_gravity_refstate-crust.xmf,1252,8.3289e-08,6.49914e-07,0,2.49166e-06,-2.88798e+08,-2.88759e+08,-2.88804e+08,170928,-0.0200284,-0.00808564,-0,0.021599,16212.1,-10515.3,0,19323.7,170928
step02_gravity_refstate-crust.xmf,1253,-2.20722e-06,7.51395e-06,0,7.6665e-06,-6.91735e+08,-6.91069e+08,-6.91584e+08,525922,-0.0262838,-0.137723,-0,0.140208,4643.69,-25186,0,25610.5,525922
step02_gravity_refstate-crust.xmf,1254,9.5629e-07,-2.29849e-07,0,4.63889e-07,-4.70164e+07,-4.70978e+07,-4.7082e+07,31822.8,-0.0326056,0.0260773,-0,0.041751,22939.2,-1715.19,0,23003.2,31822.8
step02_gravity_refstate-crust.xmf,1255,-3.75659e-07,-3.98673e-06,0,-7.67677e-06,-9.75477e+08,-9.75725e+08,-9.75451e+08,-526626,-0.0184713,-0.126684,-0,0.128023,-6019.74,-35505.5,-0,36012.2,526626
step02_gravity_refstate-crust.xmf,1256,-7.02196e-07,-2.64742e-06,0,-5.85971e-06,-9.74508e+08,-9.74642e+08,-9.7446e+08,-401976,-0.0175617,-0.102381,-0,0.103876,-7251.3,-35471,-0,36204.6,401976
step02_gravity_refstate-crust.xmf,1257,-2.63281e-07,-5.21874e-06,0,-8.82857e-06,-9.85416e+08,-9.85756e+08,-9.85398e+08,-605640,-0.0210508,-0.138276,-0,0.139869,-5450.29,-35865.9,-0,36277.7,605640
step02_gravity_refstate-crust.xmf,1258,4.96252e-06,-1.31125e-05,0,-2.6167e-05,-9.75116e+08,-9.76356e+08,-9.75457e+08,-1.79506e+06,-0.0112071,-0.273147,-0,0.273377,-2000,-35499.9,-0,35556.2,1.79506e+06
step02_gravity_refstate-crust.xmf,1259,4.62705e-06,-1.33757e-05,0,-2.24661e-05,-9.81888e+08,-9.83123e+08,-9.82206e+08,-1.54117e+06,-0.0146603,-0.247004,-0,0.247439,-2420.46,-35744.6,-0,35826.5,1.54117e+06
step02_gravity_refstate-crust.xmf,1260,-3.79716e-07,-4.51983e-08,0,-2.03592e-06,-9.68034e+08,-9.68011e+08,-9.68008e+08,-139664,-0.0118467,-0.0176696,-0,0.0212735,-15112.1,-35240.6,-0,38344.2,139664
step02_gravity_refstate-crust.xmf,1261,-2.44817e-07,-6.82854e-07,0,-2.77485e-06,-9.47906e+08,-9.47936e+08,-9.47889e+08,-190354,-0.0104747,-0.0462031,-0,0.0473755,-11632,-34507.4,-0,36415.2,190354
step02_gravity_refstate-crust.xmf,1262,-5.91412e-07,-1.35504e-06,0,-3.97659e-06,-9.64934e+08,-9.64986e+08,-9.64893e+08,-272794,-0.0142645,-0.0717649,-0,0.0731688,-9314.05,-35124.9,-0,36338.8,272794
step02_gravity_refstate-crust.xmf,1263,-9.4693e-07,-1.79615e-06,0,-4.66384e-06,-9.80714e+08,-9.80773e+08,-9.80649e+08,-319939,-0.0176759,-0.0810554,-0,0.0829604,-8565.23,-35697.3,-0,36710.5,319939
step02_gravity_refstate-crust.xmf,1264,-3.59793e-07,3.50875e-07,0,-1.53449e-06,-9.75213e+08,-9.75164e+08,-9.75188e+08,-105266,-0.0113244,0.000805442,-0,0.011353,-18287.7,-35502.7,-0,39936,105266
step02_gravity_refstate-crust.xmf,1265,-4.84271e-07,9.03328e-07,0,-1.00873e-06,-1.00313e+09,-1.00303e+09,-1.00309e+09,-69198.7,-0.0108603,0.0202521,-0,0.0229803,-23243,-36519.3,-0,43288.5,69198.7
step02_gravity_refstate-crust.xmf,1266,-5.82291e-07,1.1587e-06,0,-8.01857e-07,-1.02191e+09,-1.02179e+09,-1.02187e+09,-55007.4,-0.0103019,0.026437,-0,0.0283733,-25660.1,-37202.9,-0,45194,55007.4
step02_gravity_refstate-crust.xmf,1267,2.9977e-07,2.37751e-07,0,1.44116e-06,-1.51763e+08,-1.51767e+08,-1.51783e+08,98863.7,-0.0249496,0.0122402,-0,0.0277904,19797.8,-5526.65,0,20554.7,98863.7
step02_gravity_refstate-crust.xmf,1268,6.34583e-07,-2.82759e-08,0,8.1839e-07,-8.36234e+07,-8.36689e+07,-8.36669e+07,56141.5,-0.0297182,0.0209619,-0,0.0363672,21670.9,-3046.92,0,21884.1,56141.5
step02_gravity_refstate-crust.xmf,1269,2.23113e-07,4.8654e-07,0,2.27643e-06,-2.69131e+08,-2.69113e+08,-2.69146e+08,156163,-0.0201986,0.000659861,-0,0.0202093,17780.1,-9799.64,0,20301.9,156163
step02_gravity_refstate-crust.xmf,1270,-7.06216e-07,3.22939e-06,0,4.59307e-06,-5.40956e+08,-5.40686e+08,-5.40908e+08,315085,-0.0226819,-0.0742191,-0,0.0776076,8187.3,-19696.2,0,21330.1,315085
step02_gravity_refstate-crust.xmf,1271,-7.6429e-07,3.60729e-06,0,4.99317e-06,-5.71268e+08,-5.70968e+08,-5.71216e+08,342531,-0.0236445,-0.0822386,-0,0.0855701,7675.42,-20800.1,0,22171,342531
step02_gravity_refstate-crust.xmf,1272,-5.35816e-07,2.54518e-06,0,4.06506e-06,-4.92513e+08,-4.92302e+08,-4.92476e+08,278863,-0.021458,-0.0610035,-0,0.0646674,9269.68,-17932.2,0,20186.4,278863
step02_gravity_refstate-crust.xmf,1273,-3.98996e-07,1.84468e-06,0,3.47076e-06,-4.20837e+08,-4.20683e+08,-4.2081e+08,238094,-0.0200082,-0.0454228,-0,0.0496343,10751.6,-15322.2,0,18718.1,238094
step02_gravity_refstate-crust.xmf,1274,-1.39526e-07,1.21525e-06,0,3.10244e-06,-3.70327e+08,-3.70235e+08,-3.70318e+08,212827,-0.0197206,-0.0294759,-0,0.0354644,12910,-13483.5,0,18667.4,212827
step02_gravity_refstate-crust.xmf,1275,-8.2723e-07,3.98561e-06,0,5.39572e-06,-5.97232e+08,-5.96902e+08,-5.97175e+08,370146,-0.024503,-0.089931,-0,0.0932094,7220.78,-21745.7,0,22913.2,370146
step02_gravity_refstate-crust.xmf,1276,-1.57214e-06,8.432e-06,0,1.05107e-05,-7.56175e+08,-7.55489e+08,-7.56067e+08,721036,-0.0288705,-0.166219,-0,0.168707,4056.01,-27536,0,27833.1,721036
step02_gravity_refstate-crust.xmf,1277,-1.52756e-06,7.78312e-06,0,9.61823e-06,-7.39601e+08,-7.38962e+08,-7.39496e+08,659811,-0.0286429,-0.155348,-0,0.157966,4373.94,-26931.8,0,27284.7,659811
step02_gravity_refstate-crust.xmf,1278,-9.04883e-07,4.39681e-06,0,5.82107e-06,-6.20577e+08,-6.20214e+08,-6.20515e+08,399325,-0.0252712,-0.0978195,-0,0.101031,6778.54,-22595.9,0,23590.7,399325
step02_gravity_refstate-crust.xmf,1279,-1.44405e-06,7.1497e-06,0,8.829e-06,-7.22628e+08,-7.22039e+08,-7.22529e+08,605669,-0.0282965,-0.145018,-0,0.147753,4711.42,-26313.2,0,26731.7,605669
step02_gravity_refstate-crust.xmf,1280,-1.02826e-06,4.88762e-06,0,6.27991e-06,-6.42005e+08,-6.41599e+08,-6.41935e+08,430802,-0.0259267,-0.106348,-0,0.109463,6315.24,-23376.3,0,24214.3,430802
step02_gravity_refstate-crust.xmf,1281,-1.35055e-06,6.54216e-06,0,8.11487e-06,-7.04765e+08,-7.04224e+08,-7.04673e+08,556680,-0.0278463,-0.13505,-0,0.137891,5070.89,-25662.3,0,26158.6,556680
step02_gravity_refstate-crust.xmf,1282,-1.44476e-06,6.24039e-06,0,7.4191e-06,-6.83118e+08,-6.82591e+08,-6.83019e+08,508951,-0.0269618,-0.126708,-0,0.129545,5309.52,-24873.4,0,25433.8,508951
step02_gravity_refstate-crust.xmf,1283,-1.19312e-06,5.47057e-06,0,6.79387e-06,-6.6241e+08,-6.61953e+08,-6.62328e+08,466059,-0.0264981,-0.115627,-0,0.118624,5842.1,-24119.3,0,24816.8,466059
step02_gravity_refstate-crust.xmf,1284,1.42793e-06,-5.37157e-07,0,1.38686e-08,135842,1037.31,37886.3,951.383,-0.0369078,0.0305259,-0,0.0478959,24260.6,0,0,24260.6,951.383
step02_gravity_refstate-crust.xmf,1285,-1.60751e-06,9.13999e-06,0,1.14995e-05,-7.71855e+08,-7.71118e+08,-7.71745e+08,788869,-0.0288801,-0.177778,-0,0.180109,3744.48,-28107.8,0,28356.1,788869
step02_gravity_refstate-crust.xmf,1286,-1.62162e-06,9.86602e-06,0,1.25522e-05,-7.86328e+08,-7.8554e+08,-7.86217e+08,861082,-0.0286152,-0.189672,-0,0.191818,3452.41,-28635.8,0,28843.1,861082
step02_gravity_refstate-crust.xmf,1287,-1.64142e-06,1.06459e-05,0,1.36766e-05,-8.00067e+08,-7.99224e+08,-7.99954e+08,938218,-0.0279505,-0.202477,-0,0.204397,3164.12,-29137.1,0,29308.4,938218
step02_gravity_refstate-crust.xmf,1288,-1.78163e-06,1.1539e-05,0,1.48173e-05,-8.13553e+08,-8.12639e+08,-8.13431e+08,1.01647e+06,-0.0266037,-0.216927,-0,0.218552,2868.56,-29628.9,0,29767.4,1.01647e+06
step02_gravity_refstate-crust.xmf,1289,-3.07168e-06,1.31654e-05,0,1.62622e-05,-8.28492e+08,-8.27378e+08,-8.28281e+08,1.11558e+06,-0.0234234,-0.235676,-0,0.236837,2530.81,-30170,0,30276,1.11558e+06
step02_gravity_refstate-crust.xmf,1290,-7.17788e-06,1.75899e-05,0,2.15708e-05,-8.37874e+08,-8.36175e+08,-8.37382e+08,1.47976e+06,-0.0182234,-0.264595,-0,0.265222,2000,-30501.8,0,30567.3,1.47976e+06
step02_gravity_refstate-crust.xmf,1291,3.9234e-06,-1.28966e-05,0,-1.90888e-05,-9.87473e+08,-9.88627e+08,-9.87742e+08,-1.30949e+06,-0.0178446,-0.223531,-0,0.224242,-2854.17,-35945.8,-0,36059,1.30949e+06
step02_gravity_refstate-crust.xmf,1292,2.86694e-06,-1.16147e-05,0,-1.60722e-05,-9.91219e+08,-9.92212e+08,-9.91416e+08,-1.10256e+06,-0.0203975,-0.201864,-0,0.202892,-3331.74,-36079.9,-0,36233.4,1.10256e+06
step02_gravity_refstate-crust.xmf,1293,8.719e-07,-7.81196e-06,0,-1.17478e-05,-9.87604e+08,-9.882e+08,-9.87664e+08,-805899,-0.0213162,-0.167247,-0,0.1686,-4369.5,-35946.2,-0,36210.8,805899
step02_gravity_refstate-crust.xmf,1294,-1.00604e-06,-2.28595e-06,0,-5.34402e-06,-9.84489e+08,-9.84577e+08,-9.8442e+08,-366600,-0.019044,-0.0914161,-0,0.0933787,-7854.27,-35833.7,-0,36684.4,366600
step02_gravity_refstate-crust.xmf,1295,-8.11886e-07,-3.4182e-06,0,-6.73136e-06,-9.84619e+08,-9.84798e+08,-9.84564e+08,-461771,-0.0201887,-0.112423,-0,0.114221,-6649.06,-35837.5,-0,36449.1,461771
step02_gravity_refstate-crust.xmf,1296,5.28381e-08,-6.79952e-06,0,-1.01067e-05,-9.95021e+08,-9.95491e+08,-9.95025e+08,-693322,-0.0233461,-0.150048,-0,0.151854,-4904.72,-36214.4,-0,36545.1,693322
step02_gravity_refstate-crust.xmf,1297,-4.32697e-07,2.0142e-07,0,-1.7833e-06,-9.82071e+08,-9.82027e+08,-9.82041e+08,-122334,-0.0123715,-0.00692472,-0,0.0141776,-16855,-35751.8,-0,39525.7,122334
step02_gravity_refstate-crust.xmf,1298,-5.21692e-07,5.9146e-08,0,-2.03968e-06,-9.88375e+08,-9.88335e+08,-9.88339e+08,-139922,-0.0134153,-0.0141537,-0,0.0195013,-15651.9,-35980.7,-0,39237.7,139922
step02_gravity_refstate-crust.xmf,1299,-5.78902e-07,-1.06455e-07,0,-2.30548e-06,-9.89558e+08,-9.89526e+08,-9.89518e+08,-158156,-0.0141654,-0.0221974,-0,0.0263322,-14446.4,-36023.3,-0,38812.1,158156
step02_gravity_refstate-crust.xmf,1300,-5.18186e-07,-2.87007e-07,0,-2.44978e-06,-9.75117e+08,-9.75101e+08,-9.75082e+08,-168055,-0.0133153,-0.0299344,-0,0.0327623,-13425.2,-35497.6,-0,37951.5,168055
step02_gravity_refstate-crust.xmf,1301,-3.98751e-07,-4.73401e-07,0,-2.59329e-06,-9.61423e+08,-9.61428e+08,-9.61395e+08,-177900,-0.0121088,-0.0376815,-0,0.0395792,-12518.7,-34999.2,-0,37170.7,177900
step02_gravity_refstate-crust.xmf,1302,-5.18871e-07,-8.45805e-07,0,-3.18189e-06,-9.64057e+08,-9.6408e+08,-9.64022e+08,-218278,-0.0132509,-0.0536738,-0,0.0552853,-10856.8,-35094.1,-0,36735.1,218278
step02_gravity_refstate-crust.xmf,1303,-8.21768e-07,-1.08079e-06,0,-3.65601e-06,-9.76659e+08,-9.76677e+08,-9.76603e+08,-250802,-0.0156867,-0.0617186,-0,0.0636809,-10091.1,-35551.2,-0,36955.7,250802
step02_gravity_refstate-crust.xmf,1304,-4.20218e-07,5.30225e-07,0,-1.39559e-06,-9.92418e+08,-9.92353e+08,-9.9239e+08,-95737.5,-0.0119049,0.00704431,-0,0.0138329,-19669.7,-36129.1,-0,41136.5,95737.5
step02_gravity_refstate-crust.xmf,1305,-5.67486e-07,1.0155e-06,0,-9.72597e-07,-1.03042e+09,-1.03031e+09,-1.03038e+09,-66720.2,-0.0115873,0.0213418,-0,0.0242845,-23909.2,-37512.8,-0,44484.4,66720.2
step02_gravity_refstate-crust.xmf,1306,-4.82736e-07,6.90613e-07,0,-1.27553e-06,-1.0104e+09,-1.01032e+09,-1.01036e+09,-87501.6,-0.0122828,0.011963,-0,0.0171458,-20954.7,-36783.6,-0,42333.6,87501.6
step02_gravity_refstate-crust.xmf,1307,-5.38296e-07,8.6502e-07,0,-1.13808e-06,-1.02988e+09,-1.02978e+09,-1.02984e+09,-78072,-0.0124139,0.0165054,-0,0.0206527,-22362.8,-37493,-0,43655.7,78072
step02_gravity_refstate-crust.xmf,1308,-7.10105e-07,1.46192e-06,0,-5.90867e-07,-1.05529e+09,-1.05514e+09,-1.05524e+09,-40533.4,-0.00939935,0.0309563,-0,0.0323518,-28497.7,-38418.4,-0,47834,40533.4
step02_gravity_refstate-crust.xmf,1309,3.118e-07,3.02355e-07,0,1.75919e-06,-2.00877e+08,-2.00877e+08,-2.00898e+08,120680,-0.0221888,0.0110054,-0,0.0247682,19641.4,-7314.84,0,20959.2,120680
step02_gravity_refstate-crust.xmf,1310,5.4364e-07,8.53249e-08,0,1.15299e-06,-1.27614e+08,-1.27645e+08,-1.27651e+08,79095.4,-0.0259634,0.0203291,-0,0.0329753,21537.3,-4648.23,0,22033.2,79095.4
step02_gravity_refstate-crust.xmf,1311,8.6475e-07,-8.48484e-08,0,8.54111e-07,-9.92682e+07,-9.93333e+07,-9.93275e+07,58592,-0.0270049,0.0281459,-0,0.0390059,23376.9,-3617.33,0,23655.2,58592
step02_gravity_refstate-crust.xmf,1312,3.56853e-07,3.48533e-07,0,2.03015e-06,-2.48434e+08,-2.48434e+08,-2.48458e+08,139269,-0.020333,0.0093496,-0,0.0223796,19420.6,-9046.46,0,21424.3,139269
step02_gravity_refstate-crust.xmf,1313,-3.1993e-07,1.93872e-06,0,3.6958e-06,-4.50935e+08,-4.5078e+08,-4.50913e+08,253532,-0.020714,-0.0485612,-0,0.0527945,10587.2,-16418.4,0,19536,253532
step02_gravity_refstate-crust.xmf,1314,-2.50583e-07,2.06472e-06,0,3.94572e-06,-4.81593e+08,-4.81435e+08,-4.81576e+08,270676,-0.0215089,-0.052648,-0,0.0568722,10317.1,-17535.1,0,20345.1,270676
step02_gravity_refstate-crust.xmf,1315,-3.92616e-07,2.595e-06,0,4.36088e-06,-5.21909e+08,-5.21704e+08,-5.21882e+08,299156,-0.022492,-0.0641614,-0,0.0679895,9215.11,-19003.1,0,21119.5,299156
step02_gravity_refstate-crust.xmf,1316,-7.73129e-08,1.52116e-06,0,3.54711e-06,-4.35656e+08,-4.35547e+08,-4.35651e+08,243332,-0.0206014,-0.0393188,-0,0.0443891,11846.2,-15862.5,0,19797.8,243332
step02_gravity_refstate-crust.xmf,1317,-4.15133e-08,1.29381e-06,0,3.32076e-06,-4.0664e+08,-4.06548e+08,-4.06637e+08,227804,-0.0201422,-0.0325659,-0,0.0382916,12674.2,-14806,0,19489.8,227804
step02_gravity_refstate-crust.xmf,1318,8.26641e-08,9.02381e-07,0,2.94405e-06,-3.56844e+08,-3.56787e+08,-3.56849e+08,201962,-0.0196898,-0.0192781,-0,0.027556,14555.5,-12993,0,19511,201962
step02_gravity_refstate-crust.xmf,1319,1.99243e-07,6.78947e-07,0,2.71491e-06,-3.32808e+08,-3.32775e+08,-3.32821e+08,186243,-0.0195504,-0.0100778,-0,0.021995,16044.1,-12118,0,20106.2,186243
step02_gravity_refstate-crust.xmf,1320,3.26542e-07,5.06357e-07,0,2.50127e-06,-3.15389e+08,-3.15377e+08,-3.15412e+08,171587,-0.0193404,-0.00115101,-0,0.0193746,17597.1,-11484.2,0,21013,171587
step02_gravity_refstate-crust.xmf,1321,1.27392e-06,-3.26745e-07,0,4.82037e-07,-5.93677e+07,-5.94775e+07,-5.94551e+07,33067.7,-0.0286254,0.0353655,-0,0.0454987,25330.1,-2165.99,0,25422.5,33067.7
step02_gravity_refstate-crust.xmf,1322,-5.92184e-06,1.3809e-05,0,2.3461e-05,-8.51627e+08,-8.50273e+08,-8.5122e+08,1.60942e+06,-0.0147894,-0.272327,-0,0.272729,2000,-31001.7,0,31066.2,1.60942e+06
step02_gravity_refstate-crust.xmf,1323,-4.35835e-06,1.23957e-05,0,1.87029e-05,-8.4457e+08,-8.43421e+08,-8.44271e+08,1.28302e+06,-0.0189702,-0.24655,-0,0.247278,2454.28,-30749,0,30846.8,1.28302e+06
step02_gravity_refstate-crust.xmf,1324,1.66363e-06,-1.01732e-05,0,-1.33376e-05,-9.968e+08,-9.97612e+08,-9.96915e+08,-914960,-0.0229525,-0.180829,-0,0.18228,-3852.52,-36280.5,-0,36484.5,914960
step02_gravity_refstate-crust.xmf,1325,-8.32488e-07,-4.46963e-06,0,-7.74671e-06,-9.93971e+08,-9.9422e+08,-9.93914e+08,-531424,-0.0226358,-0.123654,-0,0.125709,-6028.48,-36176.2,-0,36675.1,531424
step02_gravity_refstate-crust.xmf,1326,-1.15265e-06,-2.82858e-06,0,-6.00619e-06,-9.93201e+08,-9.93316e+08,-9.93122e+08,-412025,-0.0211855,-0.0992573,-0,0.101493,-7324.26,-36149.4,-0,36884,412025
step02_gravity_refstate-crust.xmf,1327,-6.73586e-07,-5.80458e-06,0,-8.82128e-06,-1.00273e+09,-1.00308e+09,-1.00268e+09,-605140,-0.0247882,-0.134678,-0,0.13694,-5456.17,-36493.7,-0,36899.3,605140
step02_gravity_refstate-crust.xmf,1328,6.0598e-06,-1.61007e-05,0,-2.55163e-05,-9.88841e+08,-9.90361e+08,-9.89257e+08,-1.75042e+06,-0.0139069,-0.265854,-0,0.266217,-2000,-35999.3,-0,36054.8,1.75042e+06
step02_gravity_refstate-crust.xmf,1329,5.36279e-06,-1.59006e-05,0,-2.15537e-05,-9.95363e+08,-9.96821e+08,-9.9573e+08,-1.47858e+06,-0.0177444,-0.239286,-0,0.239943,-2431.47,-36234.2,-0,36315.7,1.47858e+06
step02_gravity_refstate-crust.xmf,1330,-6.87485e-07,-6.30666e-07,0,-2.98594e-06,-9.76492e+08,-9.76488e+08,-9.76445e+08,-204835,-0.014506,-0.0450383,-0,0.0473167,-11681.8,-35546.4,-0,37416.7,204835
step02_gravity_refstate-crust.xmf,1331,-1.38973e-06,-2.26202e-06,0,-5.40146e-06,-1.00204e+09,-1.0021e+09,-1.00195e+09,-370540,-0.0216338,-0.0864247,-0,0.0890912,-8086.46,-36471.2,-0,37356.9,370540
step02_gravity_refstate-crust.xmf,1332,-1.00991e-06,-1.37589e-06,0,-4.16807e-06,-9.84874e+08,-9.84899e+08,-9.84804e+08,-285930,-0.0175571,-0.0697048,-0,0.071882,-9397.54,-35849.1,-0,37060.4,285930
step02_gravity_refstate-crust.xmf,1333,-5.36674e-07,3.13363e-07,0,-1.77835e-06,-1.00805e+09,-1.008e+09,-1.00802e+09,-121995,-0.0138065,-0.0032198,-0,0.014177,-17579.8,-36697.5,-0,40691,121995
step02_gravity_refstate-crust.xmf,1334,-6.80203e-07,1.32225e-06,0,-7.3204e-07,-1.0576e+09,-1.05746e+09,-1.05755e+09,-50218,-0.0106545,0.0274005,-0,0.0293991,-26761.6,-38502.1,-0,46889.2,50218
step02_gravity_refstate-crust.xmf,1335,-6.44788e-07,1.16314e-06,0,-9.00726e-07,-1.06197e+09,-1.06185e+09,-1.06193e+09,-61789.8,-0.0119516,0.0229533,-0,0.0258785,-24953.8,-38661.3,-0,46015.1,61789.8
step02_gravity_refstate-crust.xmf,1336,5.15346e-07,1.78605e-07,0,1.49786e-06,-1.77955e+08,-1.77979e+08,-1.77991e+08,102753,-0.0226859,0.0193786,-0,0.0298359,21380.4,-6481.01,0,22341.1,102753
step02_gravity_refstate-crust.xmf,1337,4.30572e-07,3.79372e-07,0,2.26472e-06,-2.94804e+08,-2.94807e+08,-2.94833e+08,155360,-0.0191415,0.00743141,-0,0.0205334,19163.7,-10735,0,21965.6,155360
step02_gravity_refstate-crust.xmf,1338,-2.40033e-07,2.79636e-06,0,4.87696e-06,-5.68441e+08,-5.68233e+08,-5.68425e+08,334560,-0.0240829,-0.0722769,-0,0.0761835,8781.25,-20698,0,22483.7,334560
step02_gravity_refstate-crust.xmf,1339,-2.72924e-07,3.10737e-06,0,5.24136e-06,-5.93379e+08,-5.93148e+08,-5.93361e+08,359557,-0.0248993,-0.0797467,-0,0.0835434,8250.07,-21606.3,0,23127.8,359557
step02_gravity_refstate-crust.xmf,1340,-1.78554e-07,2.17111e-06,0,4.18469e-06,-5.08761e+08,-5.086e+08,-5.08748e+08,287070,-0.0222878,-0.0565565,-0,0.0607896,10067.5,-18524.6,0,21083.5,287070
step02_gravity_refstate-crust.xmf,1341,-1.79024e-07,2.48768e-06,0,4.58486e-06,-5.47291e+08,-5.47108e+08,-5.47279e+08,314521,-0.0234377,-0.065491,-0,0.0695585,9343.34,-19927.8,0,22009.4,314521
step02_gravity_refstate-crust.xmf,1342,1.45202e-07,1.02394e-06,0,3.20751e-06,-4.00424e+08,-4.00364e+08,-4.00434e+08,220035,-0.0200061,-0.0249759,-0,0.0320006,13857.4,-14580,0,20114.8,220035
step02_gravity_refstate-crust.xmf,1343,-2.92042e-07,3.45051e-06,0,5.6922e-06,-6.20399e+08,-6.20142e+08,-6.20379e+08,390485,-0.0258174,-0.0883276,-0,0.0920234,7702.51,-22590.4,0,23867.4,390485
step02_gravity_refstate-crust.xmf,1344,-3.10579e-07,6.76496e-06,0,1.07617e-05,-7.71724e+08,-7.71239e+08,-7.71703e+08,738255,-0.0294842,-0.163933,-0,0.166564,4374.85,-28104.6,0,28443.1,738255
step02_gravity_refstate-crust.xmf,1345,-3.86696e-07,6.34708e-06,0,9.93529e-06,-7.55887e+08,-7.55425e+08,-7.55861e+08,681561,-0.0295039,-0.153312,-0,0.156125,4708.75,-27527.1,0,27926.9,681561
step02_gravity_refstate-crust.xmf,1346,-4.2716e-07,5.91701e-06,0,9.16962e-06,-7.39539e+08,-7.39104e+08,-7.3951e+08,629036,-0.0293138,-0.143172,-0,0.146142,5059.94,-26931.1,0,27402.3,629036
step02_gravity_refstate-crust.xmf,1347,-3.23739e-07,3.79885e-06,0,6.13515e-06,-6.42588e+08,-6.42306e+08,-6.42566e+08,420872,-0.0265674,-0.0964024,-0,0.0999962,7219.35,-23398.6,0,24487.1,420872
step02_gravity_refstate-crust.xmf,1348,-3.95017e-07,5.3805e-06,0,8.45497e-06,-7.2308e+08,-7.22684e+08,-7.23053e+08,580011,-0.0290011,-0.133183,-0,0.136304,5453.23,-26331.2,0,26890,580011
step02_gravity_refstate-crust.xmf,1349,-3.58748e-07,4.17599e-06,0,6.62365e-06,-6.63625e+08,-6.63314e+08,-6.636e+08,454382,-0.0272647,-0.104872,-0,0.108358,6750.97,-24164.9,0,25090.2,454382
step02_gravity_refstate-crust.xmf,1350,-3.8116e-07,4.97308e-06,0,7.79976e-06,-7.04451e+08,-7.04084e+08,-7.04425e+08,535064,-0.0285286,-0.12326,-0,0.126518,5873.2,-25652.4,0,26316.2,535064
step02_gravity_refstate-crust.xmf,1351,-4.02095e-07,4.6018e-06,0,7.17774e-06,-6.83988e+08,-6.83645e+08,-6.83961e+08,492393,-0.0279072,-0.114039,-0,0.117404,6281.83,-24906.8,0,25686.8,492393
step02_gravity_refstate-crust.xmf,1352,1.83577e-06,-6.94768e-07,0,1.00011e-08,174463,867.902,48529,686.076,-0.0329946,0.0388556,-0,0.0509745,26665.5,0,0,26665.5,686.076
step02_gravity_refstate-crust.xmf,1353,-2.19414e-07,7.1662e-06,0,1.16145e-05,-7.86656e+08,-7.86149e+08,-7.86641e+08,796758,-0.0291701,-0.174891,-0,0.177307,4060.36,-28649.2,0,28935.5,796758
step02_gravity_refstate-crust.xmf,1354,-1.65011e-07,7.57249e-06,0,1.24606e-05,-8.00604e+08,-8.00074e+08,-8.00593e+08,854799,-0.0284594,-0.186223,-0,0.188385,3761.85,-29157.9,0,29399.5,854799
step02_gravity_refstate-crust.xmf,1355,-2.66976e-07,8.05061e-06,0,1.32913e-05,-8.14146e+08,-8.13575e+08,-8.14128e+08,911785,-0.0271433,-0.198384,-0,0.200233,3469.6,-29651.2,0,29853.5,911785
step02_gravity_refstate-crust.xmf,1356,-8.32776e-07,8.752e-06,0,1.41912e-05,-8.27555e+08,-8.26898e+08,-8.27498e+08,973518,-0.0248761,-0.211534,-0,0.212992,3186.29,-30138.2,0,30306.1,973518
step02_gravity_refstate-crust.xmf,1357,-3.98253e-06,1.03916e-05,0,2.06658e-05,-8.58075e+08,-8.57089e+08,-8.57802e+08,1.41768e+06,-0.0151969,-0.254176,-0,0.25463,2412.02,-31239.1,0,31332,1.41768e+06
step02_gravity_refstate-crust.xmf,1358,-2.04508e-06,9.46579e-06,0,1.57896e-05,-8.40696e+08,-8.39906e+08,-8.40555e+08,1.08316e+06,-0.0214887,-0.225026,-0,0.226049,2934.89,-30612.8,0,30753.1,1.08316e+06
step02_gravity_refstate-crust.xmf,1359,-4.80447e-06,1.07166e-05,0,2.46787e-05,-8.6538e+08,-8.64315e+08,-8.6505e+08,1.69296e+06,-0.0115783,-0.278447,-0,0.278688,2000,-31502.2,0,31565.6,1.69296e+06
step02_gravity_refstate-crust.xmf,1360,4.23144e-06,-1.48651e-05,0,-1.79964e-05,-1.00115e+09,-1.00246e+09,-1.00144e+09,-1.23455e+06,-0.021241,-0.215505,-0,0.216549,-2880.23,-36442,-0,36555.6,1.23455e+06
step02_gravity_refstate-crust.xmf,1361,2.7771e-06,-1.31491e-05,0,-1.50129e-05,-1.00666e+09,-1.00775e+09,-1.00685e+09,-1.02989e+06,-0.0242019,-0.193821,-0,0.195326,-3361.35,-36639.2,-0,36793.1,1.02989e+06
step02_gravity_refstate-crust.xmf,1362,5.34772e-07,-8.80756e-06,0,-1.13619e-05,-1.00409e+09,-1.00473e+09,-1.00413e+09,-779427,-0.0251903,-0.16229,-0,0.164233,-4369.29,-36543.4,-0,36803.7,779427
step02_gravity_refstate-crust.xmf,1363,-1.3278e-06,-3.77539e-06,0,-6.99378e-06,-1.00559e+09,-1.00576e+09,-1.0055e+09,-479773,-0.0240747,-0.109564,-0,0.112178,-6654.93,-36598.5,-0,37198.6,479773
step02_gravity_refstate-crust.xmf,1364,-3.62819e-07,-7.45486e-06,0,-9.98056e-06,-1.01195e+09,-1.01244e+09,-1.01193e+09,-684666,-0.0267633,-0.145455,-0,0.147896,-4913.24,-36828.1,-0,37154.4,684666
step02_gravity_refstate-crust.xmf,1365,-6.10899e-07,1.56057e-07,0,-2.05045e-06,-1.01271e+09,-1.01266e+09,-1.01267e+09,-140661,-0.0147848,-0.0101862,-0,0.017954,-16322.1,-36866.5,-0,40318.1,140661
step02_gravity_refstate-crust.xmf,1366,-7.01673e-07,-1.37681e-08,0,-2.35105e-06,-1.01561e+09,-1.01557e+09,-1.01557e+09,-161282,-0.0157207,-0.0175319,-0,0.023548,-15126.6,-36971.6,-0,39946.4,161282
step02_gravity_refstate-crust.xmf,1367,-7.70869e-07,-2.87789e-07,0,-2.71399e-06,-1.00334e+09,-1.00331e+09,-1.00329e+09,-186180,-0.0160617,-0.0298503,-0,0.0338972,-13398.1,-36524.2,-0,38904,186180
step02_gravity_refstate-crust.xmf,1368,-7.456e-07,-4.43357e-07,0,-2.84068e-06,-9.9e+08,-9.89979e+08,-9.89949e+08,-194871,-0.0154644,-0.0370388,-0,0.0401375,-12537.8,-36038.2,-0,38156.9,194871
step02_gravity_refstate-crust.xmf,1369,-9.22803e-07,-8.56275e-07,0,-3.46966e-06,-9.90169e+08,-9.90164e+08,-9.90105e+08,-238019,-0.0168778,-0.0527925,-0,0.0554248,-10863.8,-36043,-0,37644.7,238019
step02_gravity_refstate-crust.xmf,1370,-1.28581e-06,-1.67821e-06,0,-4.68242e-06,-1.00178e+09,-1.00181e+09,-1.0017e+09,-321214,-0.0203858,-0.0737136,-0,0.0764805,-9009.4,-36463.2,-0,37559.7,321214
step02_gravity_refstate-crust.xmf,1371,-1.2087e-06,-1.22145e-06,0,-4.12365e-06,-1.0031e+09,-1.0031e+09,-1.00302e+09,-282882,-0.0193828,-0.0622496,-0,0.0651974,-9948.46,-36512.1,-0,37843.1,282882
step02_gravity_refstate-crust.xmf,1372,-5.0595e-07,4.45605e-07,0,-1.59283e-06,-1.0094e+09,-1.00934e+09,-1.00937e+09,-109268,-0.0133223,0.00228593,-0,0.013517,-18692.4,-36747,-0,41228,109268
step02_gravity_refstate-crust.xmf,1373,-5.57375e-07,5.71743e-07,0,-1.52105e-06,-1.03352e+09,-1.03344e+09,-1.03348e+09,-104344,-0.0139936,0.0063124,-0,0.0153515,-19691.3,-37624.9,-0,42466.2,104344
step02_gravity_refstate-crust.xmf,1374,-6.15399e-07,1.00129e-06,0,-1.07815e-06,-1.06441e+09,-1.0643e+09,-1.06437e+09,-73961.1,-0.0130086,0.0184849,-0,0.0226035,-23361.2,-38749.9,-0,45247.1,73961.1
step02_gravity_refstate-crust.xmf,1375,-5.6123e-07,7.33866e-07,0,-1.33665e-06,-1.04284e+09,-1.04275e+09,-1.0428e+09,-91694.5,-0.0136175,0.0115637,-0,0.017865,-21070.5,-37964.4,-0,43419.6,91694.5
step02_gravity_refstate-crust.xmf,1376,5.1323e-07,2.32543e-07,0,1.77758e-06,-2.28945e+08,-2.28964e+08,-2.2898e+08,121942,-0.0203012,0.0180314,-0,0.0271527,21172.7,-8337.4,0,22755.1,121942
step02_gravity_refstate-crust.xmf,1377,7.38869e-07,4.23215e-08,0,1.20296e-06,-1.53063e+08,-1.53111e+08,-1.53114e+08,82522.7,-0.023053,0.0276182,-0,0.0359751,23240.3,-5575.47,0,23899.7,82522.7
step02_gravity_refstate-crust.xmf,1378,1.02948e-06,-1.04562e-07,0,9.10799e-07,-1.27612e+08,-1.2769e+08,-1.27683e+08,62480.8,-0.0228653,0.0361418,-0,0.0427674,25397.6,-4649.85,0,25819.7,62480.8
step02_gravity_refstate-crust.xmf,1379,5.31033e-07,2.73209e-07,0,2.00355e-06,-2.72412e+08,-2.7243e+08,-2.72449e+08,137443,-0.0189483,0.0158919,-0,0.0247304,20808.1,-9920.01,0,23051.7,137443
step02_gravity_refstate-crust.xmf,1380,1.7064e-08,1.63325e-06,0,3.81797e-06,-4.74084e+08,-4.73973e+08,-4.74085e+08,261913,-0.0214379,-0.0441901,-0,0.0491157,11450.4,-17262.1,0,20714.5,261913
step02_gravity_refstate-crust.xmf,1381,1.05621e-07,1.73758e-06,0,4.0723e-06,-5.06706e+08,-5.06594e+08,-5.06713e+08,279360,-0.0222638,-0.0489893,-0,0.053811,11061.5,-18450.3,0,21512,279360
step02_gravity_refstate-crust.xmf,1382,9.67463e-08,1.98327e-06,0,4.37535e-06,-5.35653e+08,-5.35524e+08,-5.3566e+08,300149,-0.0231112,-0.056431,-0,0.0609802,10347.5,-19504.5,0,22079.3,300149
step02_gravity_refstate-crust.xmf,1383,2.06143e-07,1.13343e-06,0,3.43546e-06,-4.36347e+08,-4.36283e+08,-4.36361e+08,235673,-0.0205218,-0.0301192,-0,0.036446,13265.3,-15888.2,0,20698,235673
step02_gravity_refstate-crust.xmf,1384,3.47996e-07,7.57095e-07,0,3.06013e-06,-3.98833e+08,-3.98805e+08,-3.98857e+08,209925,-0.0196417,-0.0161392,-0,0.0254219,15298.7,-14522.5,0,21093.9,209925
step02_gravity_refstate-crust.xmf,1385,3.1424e-07,6.73689e-07,0,2.8656e-06,-3.68771e+08,-3.68746e+08,-3.68793e+08,196580,-0.0193996,-0.0112496,-0,0.0224254,15994,-13427.8,0,20883.3,196580
step02_gravity_refstate-crust.xmf,1386,4.27772e-07,5.18586e-07,0,2.69793e-06,-3.60076e+08,-3.6007e+08,-3.60105e+08,185078,-0.0189579,-0.00363223,-0,0.0193027,17297.9,-13111.5,0,21705.5,185078
step02_gravity_refstate-crust.xmf,1387,5.4585e-07,3.64003e-07,0,2.45e-06,-3.46724e+08,-3.46737e+08,-3.46762e+08,168070,-0.0182338,0.00631326,-0,0.0192959,19084.7,-12625.6,0,22883,168070
step02_gravity_refstate-crust.xmf,1388,1.28504e-06,-2.64769e-07,0,6.24645e-07,-9.1866e+07,-9.19723e+07,-9.19541e+07,42850.7,-0.024177,0.0400773,-0,0.0468051,26566,-3349.26,0,26776.3,42850.7
step02_gravity_refstate-crust.xmf,1389,1.62139e-06,-4.64782e-07,0,3.85954e-07,-5.65027e+07,-5.66458e+07,-5.66139e+07,26476.4,-0.0252593,0.0437347,-0,0.050505,27833.7,-2062.88,0,27910,26476.4
step02_gravity_refstate-crust.xmf,1390,-2.87291e-06,9.48485e-06,0,1.76535e-05,-8.51654e+08,-8.50806e+08,-8.51457e+08,1.21103e+06,-0.0181333,-0.235771,-0,0.236467,2764.29,-31008.4,0,31131.3,1.21103e+06
step02_gravity_refstate-crust.xmf,1391,-3.1142e-06,7.7054e-06,0,2.16545e-05,-8.72188e+08,-8.71446e+08,-8.71974e+08,1.4855e+06,-0.0116087,-0.25777,-0,0.258031,2432.8,-31752.2,0,31845.3,1.4855e+06
step02_gravity_refstate-crust.xmf,1392,-3.56638e-06,7.60364e-06,0,2.55782e-05,-8.7911e+08,-8.78344e+08,-8.78866e+08,1.75466e+06,-0.00850862,-0.282997,-0,0.283125,2000,-32002.2,0,32064.7,1.75466e+06
step02_gravity_refstate-crust.xmf,1393,1.28075e-06,-1.12972e-05,0,-1.26918e-05,-1.01298e+09,-1.01384e+09,-1.01306e+09,-870659,-0.0265545,-0.174466,-0,0.176475,-3854.84,-36866.1,-0,37067.1,870659
step02_gravity_refstate-crust.xmf,1394,-1.12657e-06,-4.97521e-06,0,-8.05183e-06,-1.00973e+09,-1.00999e+09,-1.00965e+09,-552355,-0.0255609,-0.122312,-0,0.124954,-5963.11,-36748,-0,37228.6,552355
step02_gravity_refstate-crust.xmf,1395,-1.49327e-06,-2.97364e-06,0,-6.21767e-06,-1.01045e+09,-1.01055e+09,-1.01034e+09,-426532,-0.023728,-0.0960114,-0,0.0989,-7410.86,-36775.7,-0,37514.9,426532
step02_gravity_refstate-crust.xmf,1396,-1.09633e-06,-6.21397e-06,0,-8.88331e-06,-1.01983e+09,-1.02018e+09,-1.01976e+09,-609395,-0.0275437,-0.130223,-0,0.133104,-5488.79,-37114,-0,37517.7,609395
step02_gravity_refstate-crust.xmf,1397,7.0941e-06,-1.91436e-05,0,-2.46513e-05,-1.00259e+09,-1.00439e+09,-1.00308e+09,-1.69108e+06,-0.0166072,-0.257045,-0,0.257581,-2000,-36499.4,-0,36554.2,1.69108e+06
step02_gravity_refstate-crust.xmf,1398,5.95403e-06,-1.84556e-05,0,-2.03533e-05,-1.00918e+09,-1.01086e+09,-1.00959e+09,-1.39623e+06,-0.0208481,-0.230315,-0,0.231256,-2438.88,-36735.9,-0,36816.7,1.39623e+06
step02_gravity_refstate-crust.xmf,1399,-7.68949e-07,-1.76964e-07,0,-2.6259e-06,-1.01669e+09,-1.01665e+09,-1.01664e+09,-180137,-0.0164781,-0.0240168,-0,0.0291262,-14169.6,-37010.3,-0,39630,180137
step02_gravity_refstate-crust.xmf,1400,-9.85109e-07,-6.56218e-07,0,-3.3033e-06,-1.00325e+09,-1.00323e+09,-1.00318e+09,-226607,-0.0175274,-0.0443708,-0,0.0477072,-11686.1,-36519.3,-0,38343.5,226607
step02_gravity_refstate-crust.xmf,1401,-1.57528e-06,-2.078e-06,0,-5.36315e-06,-1.02076e+09,-1.0208e+09,-1.02065e+09,-367912,-0.0230254,-0.0775979,-0,0.080942,-8613.15,-37152.3,-0,38137.6,367912
step02_gravity_refstate-crust.xmf,1402,-5.89622e-07,3.96748e-07,0,-1.78551e-06,-1.03772e+09,-1.03765e+09,-1.03768e+09,-122486,-0.0149623,-0.000129296,-0,0.0149629,-18274.8,-37777.5,-0,41965.5,122486
step02_gravity_refstate-crust.xmf,1403,-6.36638e-07,2.20767e-07,0,-2.06369e-06,-1.03984e+09,-1.03978e+09,-1.0398e+09,-141569,-0.0158082,-0.00657014,-0,0.0171192,-17003.6,-37854.1,-0,41497.7,141569
step02_gravity_refstate-crust.xmf,1404,-5.83466e-07,8.36301e-07,0,-1.27095e-06,-1.0667e+09,-1.0666e+09,-1.06666e+09,-87187.3,-0.0139703,0.013667,-0,0.0195437,-21856.5,-38833.1,-0,44561.4,87187.3
step02_gravity_refstate-crust.xmf,1405,6.78519e-07,1.39044e-07,0,1.52743e-06,-2.08615e+08,-2.08652e+08,-2.08661e+08,104781,-0.0201753,0.0260089,-0,0.0329167,22907.7,-7597.78,0,24134.8,104781
step02_gravity_refstate-crust.xmf,1406,5.71874e-07,2.97375e-07,0,2.20686e-06,-3.16734e+08,-3.16753e+08,-3.16773e+08,151390,-0.0180635,0.0131958,-0,0.0223701,20353.1,-11533.8,0,23394,151390
step02_gravity_refstate-crust.xmf,1407,1.83014e-07,2.10402e-06,0,4.67194e-06,-5.64975e+08,-5.64843e+08,-5.64988e+08,320495,-0.0239978,-0.0620308,-0,0.066511,9932.52,-20572.5,0,22844.7,320495
step02_gravity_refstate-crust.xmf,1408,2.09698e-07,2.33037e-06,0,5.0205e-06,-5.9162e+08,-5.91475e+08,-5.91635e+08,344407,-0.0248741,-0.0694378,-0,0.0737586,9339.31,-21543,0,23480.3,344407
step02_gravity_refstate-crust.xmf,1409,2.14132e-07,2.60894e-06,0,5.42591e-06,-6.18029e+08,-6.17864e+08,-6.18043e+08,372218,-0.0257736,-0.0779263,-0,0.0820779,8702.12,-22504.9,0,24128.7,372218
step02_gravity_refstate-crust.xmf,1410,2.75345e-07,1.23532e-06,0,3.66514e-06,-4.70208e+08,-4.70142e+08,-4.70227e+08,251428,-0.0211751,-0.035276,-0,0.0411434,12710.2,-17121.4,0,21323.5,251428
step02_gravity_refstate-crust.xmf,1411,4.11305e-07,8.38191e-07,0,3.27862e-06,-4.34891e+08,-4.34862e+08,-4.34919e+08,224913,-0.020093,-0.0214696,-0,0.0294053,14605.5,-15835.6,0,21542.7,224913
step02_gravity_refstate-crust.xmf,1412,2.49598e-07,2.8541e-06,0,5.85199e-06,-6.42271e+08,-6.42092e+08,-6.42288e+08,401447,-0.0265918,-0.0859897,-0,0.0900075,8160.91,-23387.9,0,24770.9,401447
step02_gravity_refstate-crust.xmf,1413,7.70672e-07,5.0762e-06,0,1.05735e-05,-7.87156e+08,-7.8686e+08,-7.87209e+08,725343,-0.028972,-0.16016,-0,0.16276,4696.29,-28668.2,0,29050.3,725343
step02_gravity_refstate-crust.xmf,1414,6.45697e-07,4.86324e-06,0,9.88519e-06,-7.71833e+08,-7.71544e+08,-7.71877e+08,678124,-0.0293717,-0.150054,-0,0.152901,5035.3,-28109.5,0,28556.9,678124
step02_gravity_refstate-crust.xmf,1415,3.73425e-07,4.4422e-06,0,8.60841e-06,-7.40106e+08,-7.39827e+08,-7.40132e+08,590537,-0.0293397,-0.131826,-0,0.135051,5720.84,-26952.7,0,27553.1,590537
step02_gravity_refstate-crust.xmf,1416,5.20488e-07,4.62603e-06,0,9.20844e-06,-7.55955e+08,-7.55674e+08,-7.55991e+08,631699,-0.0294587,-0.140328,-0,0.143387,5391.46,-27530.6,0,28053.5,631699
step02_gravity_refstate-crust.xmf,1417,2.90193e-07,3.10412e-06,0,6.3049e-06,-6.64463e+08,-6.6427e+08,-6.64483e+08,432516,-0.0273256,-0.094157,-0,0.098042,7654.13,-24196.4,0,25378.2,432516
step02_gravity_refstate-crust.xmf,1418,5.42318e-07,3.79898e-06,0,7.93424e-06,-7.25998e+08,-7.25775e+08,-7.26035e+08,544289,-0.0289989,-0.12057,-0,0.124009,6280.48,-26438.8,0,27174.5,544289
step02_gravity_refstate-crust.xmf,1419,3.40483e-07,3.35642e-06,0,6.79119e-06,-6.85179e+08,-6.84972e+08,-6.85202e+08,465876,-0.0279744,-0.102496,-0,0.106245,7177.37,-24951.2,0,25963,465876
step02_gravity_refstate-crust.xmf,1420,4.15848e-07,3.60113e-06,0,7.3286e-06,-7.0541e+08,-7.05192e+08,-7.05439e+08,502742,-0.0285422,-0.111242,-0,0.114845,6720.41,-25688.4,0,26553,502742
step02_gravity_refstate-crust.xmf,1421,1.28162e-06,-2.02612e-07,0,7.43188e-07,-1.25903e+08,-1.26005e+08,-1.25991e+08,50982.7,-0.0202581,0.0442472,-0,0.0486643,27733.8,-4588.51,0,28110.8,50982.7
step02_gravity_refstate-crust.xmf,1422,2.17271e-06,-8.25347e-07,0,1.12435e-08,206354,687.373,57306.2,771.305,-0.0280262,0.0462265,-0,0.0540589,29148.2,0,0,29148.2,771.305
step02_gravity_refstate-crust.xmf,1423,8.25129e-07,5.32798e-06,0,1.12625e-05,-8.0134e+08,-8.01031e+08,-8.01396e+08,772609,-0.028197,-0.170632,-0,0.172946,4370.52,-29185.2,0,29510.6,772609
step02_gravity_refstate-crust.xmf,1424,7.43172e-07,5.61922e-06,0,1.194e-05,-8.14782e+08,-8.14447e+08,-8.14833e+08,819085,-0.026914,-0.181402,-0,0.183387,4064.07,-29674.7,0,29951.7,819085
step02_gravity_refstate-crust.xmf,1425,3.87887e-07,5.99661e-06,0,1.26888e-05,-8.28165e+08,-8.2778e+08,-8.28191e+08,870453,-0.0248781,-0.192736,-0,0.194335,3773.17,-30161,0,30396.1,870453
step02_gravity_refstate-crust.xmf,1426,-3.95431e-07,6.51258e-06,0,1.38468e-05,-8.41574e+08,-8.411e+08,-8.41547e+08,949889,-0.0219144,-0.205376,-0,0.206542,3479.67,-30646.8,0,30843.7,949889
step02_gravity_refstate-crust.xmf,1427,-2.37121e-06,7.50858e-06,0,1.83193e-05,-8.63445e+08,-8.62767e+08,-8.63282e+08,1.25671e+06,-0.0150504,-0.236643,-0,0.237121,2827.8,-31436.6,0,31563.5,1.25671e+06
step02_gravity_refstate-crust.xmf,1428,-1.39641e-06,6.96731e-06,0,1.57001e-05,-8.54043e+08,-8.5347e+08,-8.53948e+08,1.07702e+06,-0.0183481,-0.219362,-0,0.220128,3183.05,-31097.4,0,31259.9,1.07702e+06
step02_gravity_refstate-crust.xmf,1429,-2.31572e-06,4.54199e-06,0,2.62367e-05,-8.9282e+08,-8.9235e+08,-8.92662e+08,1.79984e+06,-0.00554042,-0.28602,-0,0.286074,2000,-32501.7,0,32563.2,1.79984e+06
step02_gravity_refstate-crust.xmf,1430,-1.89849e-06,4.41146e-06,0,2.19266e-05,-8.875e+08,-8.87067e+08,-8.8737e+08,1.50416e+06,-0.00790153,-0.256644,-0,0.256765,2521.37,-32309.5,0,32407.7,1.50416e+06
step02_gravity_refstate-crust.xmf,1431,4.24895e-06,-1.66961e-05,0,-1.66951e-05,-1.01546e+09,-1.0169e+09,-1.01575e+09,-1.14528e+06,-0.0245551,-0.206762,-0,0.208215,-2894.01,-36960.1,-0,37073.3,1.14528e+06
step02_gravity_refstate-crust.xmf,1432,2.37312e-06,-1.43166e-05,0,-1.40808e-05,-1.02169e+09,-1.02284e+09,-1.02186e+09,-965942,-0.027359,-0.186138,-0,0.188138,-3367.35,-37183.2,-0,37335.4,965942
step02_gravity_refstate-crust.xmf,1433,4.8678e-08,-9.53839e-06,0,-1.11058e-05,-1.02058e+09,-1.02123e+09,-1.02058e+09,-761859,-0.0282627,-0.156741,-0,0.159269,-4371.75,-37140.5,-0,37396.9,761859
step02_gravity_refstate-crust.xmf,1434,-1.66228e-06,-2.73384e-06,0,-6.08226e-06,-1.02285e+09,-1.02293e+09,-1.02274e+09,-417243,-0.0244453,-0.0883262,-0,0.0916466,-7828.06,-37227,-0,38041.1,417243
step02_gravity_refstate-crust.xmf,1435,-1.67704e-06,-3.62177e-06,0,-6.9324e-06,-1.02503e+09,-1.02516e+09,-1.02491e+09,-475562,-0.0259169,-0.100271,-0,0.103567,-7039.78,-37304.7,-0,37963.1,475562
step02_gravity_refstate-crust.xmf,1436,-1.56184e-06,-4.90722e-06,0,-7.96954e-06,-1.02665e+09,-1.02688e+09,-1.02654e+09,-546710,-0.0273767,-0.114585,-0,0.11781,-6203.45,-37362.3,-0,37873.8,546710
step02_gravity_refstate-crust.xmf,1437,-7.75655e-07,-7.99755e-06,0,-1.00615e-05,-1.02903e+09,-1.02952e+09,-1.02897e+09,-690221,-0.0291536,-0.140655,-0,0.143645,-4913.82,-37447.2,-0,37768.2,690221
step02_gravity_refstate-crust.xmf,1438,-7.05934e-07,2.37219e-08,0,-2.39313e-06,-1.04232e+09,-1.04227e+09,-1.04227e+09,-164169,-0.016728,-0.0136707,-0,0.0216035,-15747.4,-37943.8,-0,41081.7,164169
step02_gravity_refstate-crust.xmf,1439,-7.82815e-07,-2.02226e-07,0,-2.7865e-06,-1.04392e+09,-1.04388e+09,-1.04386e+09,-191154,-0.0177386,-0.0218912,-0,0.0281759,-14449.2,-38001.3,-0,40655.7,191154
step02_gravity_refstate-crust.xmf,1440,-8.86048e-07,-3.5895e-07,0,-3.00938e-06,-1.03101e+09,-1.03098e+09,-1.03095e+09,-206443,-0.0179642,-0.0293006,-0,0.0343691,-13427.5,-37531,-0,39860.6,206443
step02_gravity_refstate-crust.xmf,1441,-9.4764e-07,-4.9516e-07,0,-3.16099e-06,-1.01741e+09,-1.01738e+09,-1.01734e+09,-216844,-0.0179058,-0.0365485,-0,0.040699,-12540.5,-37035.1,-0,39100.7,216844
step02_gravity_refstate-crust.xmf,1442,-1.19126e-06,-9.57076e-07,0,-3.87932e-06,-1.01608e+09,-1.01606e+09,-1.016e+09,-266121,-0.0195942,-0.0521475,-0,0.0557073,-10843.2,-36985.1,-0,38541.8,266121
step02_gravity_refstate-crust.xmf,1443,-1.45021e-06,-1.6032e-06,0,-4.77509e-06,-1.01928e+09,-1.01929e+09,-1.01918e+09,-327571,-0.0217733,-0.0681376,-0,0.0715319,-9373.73,-37099.6,-0,38265.5,327571
step02_gravity_refstate-crust.xmf,1444,-5.8259e-07,6.48845e-07,0,-1.50681e-06,-1.06825e+09,-1.06816e+09,-1.06821e+09,-103367,-0.0148536,0.00840597,-0,0.0170672,-20402.1,-38889.2,-0,43916,103367
step02_gravity_refstate-crust.xmf,1445,6.841e-07,1.8228e-07,0,1.77003e-06,-2.63677e+08,-2.63712e+08,-2.63724e+08,121424,-0.0180686,0.0248882,-0,0.0307555,22727.2,-9602.48,0,24672.5,121424
step02_gravity_refstate-crust.xmf,1446,8.50501e-07,4.32179e-08,0,1.27702e-06,-1.90497e+08,-1.90552e+08,-1.90555e+08,87603.6,-0.0196929,0.0335954,-0,0.0389418,24718.8,-6938.73,0,25674.3,87603.6
step02_gravity_refstate-crust.xmf,1447,6.50306e-07,2.31225e-07,0,2.03363e-06,-3.08607e+08,-3.08636e+08,-3.08651e+08,139507,-0.0174617,0.0195664,-0,0.0262251,21644.9,-11238.1,0,24388.5,139507
step02_gravity_refstate-crust.xmf,1448,6.83679e-07,2.48713e-07,0,2.23743e-06,-3.53349e+08,-3.53378e+08,-3.53396e+08,153488,-0.0170046,0.0155506,-0,0.023043,20898.6,-12867.2,0,24542.1,153488
step02_gravity_refstate-crust.xmf,1449,3.71624e-07,1.30656e-06,0,3.89347e-06,-5.03409e+08,-5.03345e+08,-5.03434e+08,267092,-0.0219074,-0.0400743,-0,0.0456715,12248.2,-18330.6,0,22046.1,267092
step02_gravity_refstate-crust.xmf,1450,4.53701e-07,1.40079e-06,0,4.13731e-06,-5.33719e+08,-5.33654e+08,-5.3375e+08,283819,-0.0226878,-0.0455822,-0,0.0509163,11713.3,-19434.6,0,22691.5,283819
step02_gravity_refstate-crust.xmf,1451,5.25016e-07,1.52997e-06,0,4.42621e-06,-5.63599e+08,-5.6353e+08,-5.63635e+08,303638,-0.0235612,-0.0522919,-0,0.0573548,11076.1,-20522.9,0,23321,303638
step02_gravity_refstate-crust.xmf,1452,4.94388e-07,9.03222e-07,0,3.49085e-06,-4.69938e+08,-4.6991e+08,-4.69972e+08,239472,-0.0206781,-0.0265692,-0,0.0336676,13993.2,-17112,0,22104.9,239472
step02_gravity_refstate-crust.xmf,1453,5.07373e-07,5.47576e-07,0,2.88565e-06,-3.98012e+08,-3.98009e+08,-3.98047e+08,197955,-0.0190204,-0.00750684,-0,0.0204482,16749.3,-14492.9,0,22149.1,197955
step02_gravity_refstate-crust.xmf,1454,5.79197e-07,5.93691e-07,0,3.08525e-06,-4.34062e+08,-4.34061e+08,-4.34101e+08,211648,-0.0193838,-0.0125543,-0,0.0230942,16030.7,-15805.7,0,22512.3,211648
step02_gravity_refstate-crust.xmf,1455,6.29707e-07,3.81161e-07,0,2.66817e-06,-3.94954e+08,-3.94971e+08,-3.94997e+08,183036,-0.0181297,0.00161509,-0,0.0182015,18339.7,-14381.8,0,23306.3,183036
step02_gravity_refstate-crust.xmf,1456,8.9059e-07,3.48429e-06,0,8.15863e-06,-7.41745e+08,-7.41567e+08,-7.41806e+08,559682,-0.0290044,-0.123378,-0,0.126742,6236.58,-27013,0,27723.5,559682
step02_gravity_refstate-crust.xmf,1457,1.03307e-06,-3.86691e-08,0,1.05558e-06,-1.8039e+08,-1.80463e+08,-1.80461e+08,72412.6,-0.0182862,0.0411791,-0,0.0450567,26750.5,-6571.39,0,27545.9,72412.6
step02_gravity_refstate-crust.xmf,1458,1.89349e-06,-5.61968e-07,0,2.93943e-07,-5.89672e+07,-5.91357e+07,-5.90971e+07,20164.5,-0.0200727,0.0516264,-0,0.0553913,30677.2,-2153.55,0,30752.7,20164.5
step02_gravity_refstate-crust.xmf,1459,1.48017e-06,-2.77877e-07,0,5.87454e-07,-1.23842e+08,-1.23962e+08,-1.23943e+08,40299.3,-0.0172435,0.0508854,-0,0.0537277,30001,-4514.15,0,30338.7,40299.3
step02_gravity_refstate-crust.xmf,1460,2.43948e-06,-9.28442e-07,0,9.80635e-09,231615,576.141,64267.3,672.715,-0.0221143,0.0523866,-0,0.0568629,31715.7,0,0,31715.7,672.715
step02_gravity_refstate-crust.xmf,1461,-1.23543e-06,2.37881e-06,0,2.36842e-05,-9.0022e+08,-8.99972e+08,-9.00135e+08,1.62474e+06,-0.00447386,-0.266943,-0,0.26698,2355.97,-32772.1,0,32856.7,1.62474e+06
step02_gravity_refstate-crust.xmf,1462,-1.0599e-06,1.58275e-06,0,2.668e-05,-9.06517e+08,-9.06336e+08,-9.06444e+08,1.83025e+06,-0.00264592,-0.287547,-0,0.287559,2000,-33000.8,0,33061.4,1.83025e+06
step02_gravity_refstate-crust.xmf,1463,-1.80091e-06,5.42837e-06,0,1.88944e-05,-8.75663e+08,-8.75167e+08,-8.7554e+08,1.29616e+06,-0.0117487,-0.237525,-0,0.237815,2872.46,-31880.5,0,32009.7,1.29616e+06
step02_gravity_refstate-crust.xmf,1464,6.81721e-07,-1.20268e-05,0,-1.227e-05,-1.02874e+09,-1.02961e+09,-1.02878e+09,-841724,-0.0292263,-0.167679,-0,0.170207,-3859.32,-37436.4,-0,37634.8,841724
step02_gravity_refstate-crust.xmf,1465,-1.38364e-06,-6.62484e-06,0,-9.19464e-06,-1.03785e+09,-1.03821e+09,-1.03776e+09,-630752,-0.0291666,-0.125438,-0,0.128785,-5517.21,-37768.3,-0,38169.1,630752
step02_gravity_refstate-crust.xmf,1466,8.03598e-06,-2.22672e-05,0,-2.3555e-05,-1.01637e+09,-1.01844e+09,-1.01692e+09,-1.61587e+06,-0.0193297,-0.246691,-0,0.247447,-2000,-36999.8,-0,37053.8,1.61587e+06
step02_gravity_refstate-crust.xmf,1467,6.29392e-06,-2.09588e-05,0,-1.87069e-05,-1.0231e+09,-1.02497e+09,-1.02354e+09,-1.28329e+06,-0.0238782,-0.220295,-0,0.221586,-2440.81,-37240.1,-0,37320,1.28329e+06
step02_gravity_refstate-crust.xmf,1468,-1.68552e-06,-2.62622e-06,0,-6.13133e-06,-1.04038e+09,-1.04044e+09,-1.04026e+09,-420609,-0.0248244,-0.0805292,-0,0.0842686,-8264.44,-37865.1,-0,38756.5,420609
step02_gravity_refstate-crust.xmf,1469,-1.13352e-06,-7.80758e-07,0,-3.70185e-06,-1.02921e+09,-1.02919e+09,-1.02913e+09,-253947,-0.0196138,-0.0440642,-0,0.0482323,-11645.2,-37463.7,-0,39231.8,253947
step02_gravity_refstate-crust.xmf,1470,-1.42407e-06,-1.40591e-06,0,-4.64283e-06,-1.03277e+09,-1.03277e+09,-1.03267e+09,-318498,-0.0218107,-0.0599011,-0,0.0637483,-10032,-37591.1,-0,38906.7,318498
step02_gravity_refstate-crust.xmf,1471,-1.57026e-06,-1.9792e-06,0,-5.39903e-06,-1.03835e+09,-1.03838e+09,-1.03824e+09,-370373,-0.0234306,-0.0701698,-0,0.0739783,-9099.97,-37792.6,-0,38872.8,370373
step02_gravity_refstate-crust.xmf,1472,-5.8599e-07,4.59879e-07,0,-1.76146e-06,-1.06763e+09,-1.06756e+09,-1.06759e+09,-120836,-0.0156252,0.00277704,-0,0.01587,-19015.6,-38866.5,-0,43268.9,120836
step02_gravity_refstate-crust.xmf,1473,-6.03106e-07,2.57126e-07,0,-2.0563e-06,-1.06869e+09,-1.06863e+09,-1.06864e+09,-141062,-0.0164202,-0.00333299,-0,0.0167551,-17686.9,-38904.5,-0,42736.3,141062
step02_gravity_refstate-crust.xmf,1474,-6.33865e-07,3.72231e-08,0,-2.39279e-06,-1.06996e+09,-1.06992e+09,-1.06992e+09,-164146,-0.0172082,-0.00984731,-0,0.0198266,-16422.3,-38950.6,-0,42271,164146
step02_gravity_refstate-crust.xmf,1475,7.7632e-07,1.18925e-07,0,1.52606e-06,-2.38725e+08,-2.3877e+08,-2.38778e+08,104688,-0.0179449,0.0312257,-0,0.0360147,24169,-8694.33,0,25685.3,104688
step02_gravity_refstate-crust.xmf,1476,7.24769e-07,2.62925e-07,0,2.43354e-06,-3.92395e+08,-3.92426e+08,-3.92444e+08,166941,-0.0170242,0.0106415,-0,0.0200764,20007,-14288.9,0,24585.6,166941
step02_gravity_refstate-crust.xmf,1477,6.45028e-07,1.61658e-06,0,4.75689e-06,-5.96025e+08,-5.95958e+08,-5.96069e+08,326323,-0.0244896,-0.0593685,-0,0.0642212,10475.4,-21704,0,24099.7,326323
step02_gravity_refstate-crust.xmf,1478,6.06594e-07,1.94108e-06,0,5.13793e-06,-6.17771e+08,-6.17679e+08,-6.17812e+08,352462,-0.0253792,-0.0684732,-0,0.0730253,9655.35,-22496,0,24480.5,352462
step02_gravity_refstate-crust.xmf,1479,6.96396e-07,2.0753e-06,0,5.50763e-06,-6.42737e+08,-6.42643e+08,-6.42785e+08,377823,-0.0261566,-0.0758889,-0,0.0802701,9104.59,-23405.5,0,25114,377823
step02_gravity_refstate-crust.xmf,1480,5.87162e-07,9.51615e-07,0,3.69028e-06,-5.0182e+08,-5.01795e+08,-5.0186e+08,253153,-0.0213042,-0.0313285,-0,0.0378859,13458,-18273.1,0,22694.1,253153
step02_gravity_refstate-crust.xmf,1481,6.63935e-07,6.3306e-07,0,3.28067e-06,-4.69221e+08,-4.69223e+08,-4.69267e+08,225054,-0.019894,-0.017691,-0,0.0266222,15339.4,-17086.1,0,22961.5,225054
step02_gravity_refstate-crust.xmf,1482,7.92989e-07,2.21025e-06,0,5.89494e-06,-6.654e+08,-6.65303e+08,-6.65454e+08,404393,-0.0268395,-0.0833755,-0,0.087589,8585.34,-24231.2,0,25707.2,404393
step02_gravity_refstate-crust.xmf,1483,1.52911e-06,3.55894e-06,0,1.00709e-05,-8.02386e+08,-8.02247e+08,-8.02491e+08,690866,-0.0273258,-0.15517,-0,0.157557,5018.17,-29223.4,0,29651.1,690866
step02_gravity_refstate-crust.xmf,1484,1.21726e-06,3.18653e-06,0,8.36044e-06,-7.55659e+08,-7.55524e+08,-7.55742e+08,573526,-0.0288003,-0.12645,-0,0.129688,6156.01,-27520.4,0,28200.5,573526
step02_gravity_refstate-crust.xmf,1485,1.46046e-06,3.45276e-06,0,9.52426e-06,-7.87855e+08,-7.87718e+08,-7.87955e+08,653364,-0.028185,-0.145733,-0,0.148434,5358.91,-28693.9,0,29190,653364
step02_gravity_refstate-crust.xmf,1486,1.33527e-06,3.34409e-06,0,8.95367e-06,-7.72165e+08,-7.72027e+08,-7.72256e+08,614222,-0.0286658,-0.136191,-0,0.139175,5733.88,-28122,0,28700.6,614222
step02_gravity_refstate-crust.xmf,1487,8.92199e-07,2.35307e-06,0,6.31035e-06,-6.86349e+08,-6.86248e+08,-6.8641e+08,432890,-0.0274342,-0.091129,-0,0.0951689,8082.15,-24994.5,0,26268.7,432890
step02_gravity_refstate-crust.xmf,1488,1.38152e-06,2.54558e-06,0,7.65727e-06,-7.45723e+08,-7.45643e+08,-7.45818e+08,525289,-0.0282864,-0.114711,-0,0.118147,6792.72,-27158.3,0,27994.9,525289
step02_gravity_refstate-crust.xmf,1489,1.17588e-06,2.56587e-06,0,7.24289e-06,-7.27194e+08,-7.27099e+08,-7.27275e+08,496862,-0.0282578,-0.107606,-0,0.111255,7139.89,-26483,0,27428.6,496862
step02_gravity_refstate-crust.xmf,1490,1.00701e-06,2.4924e-06,0,6.76616e-06,-7.06646e+08,-7.06544e+08,-7.06715e+08,464159,-0.0279361,-0.0993451,-0,0.103198,7587.97,-25734.1,0,26829.5,464159
step02_gravity_refstate-crust.xmf,1491,1.2078e-06,-1.00794e-07,0,8.6024e-07,-1.77845e+08,-1.77935e+08,-1.77928e+08,59012.5,-0.0159471,0.0482561,-0,0.0508229,28938,-6479.37,0,29654.5,59012.5
step02_gravity_refstate-crust.xmf,1492,2.08747e-06,-6.36037e-07,0,2.09453e-07,-5.80002e+07,-5.81871e+07,-5.81434e+07,14368.4,-0.0151376,0.0568957,-0,0.0588751,33185.6,-2119.02,0,33253.2,14368.4
step02_gravity_refstate-crust.xmf,1493,2.63272e-06,-1.00114e-06,0,8.78688e-09,250000,716.774,69394.7,602.78,-0.0153737,0.0570974,-0,0.0591309,34375.2,0,0,34375.2,602.78
step02_gravity_refstate-crust.xmf,1494,1.43417e-06,3.83762e-06,0,1.07233e-05,-8.15631e+08,-8.15467e+08,-8.1573e+08,735617,-0.0261462,-0.165811,-0,0.16786,4655.23,-29705.6,0,30068.2,735617
step02_gravity_refstate-crust.xmf,1495,1.20264e-06,4.01897e-06,0,1.13393e-05,-8.28875e+08,-8.28682e+08,-8.28958e+08,777875,-0.0242753,-0.175787,-0,0.177456,4354.05,-30187.1,0,30499.5,777875
step02_gravity_refstate-crust.xmf,1496,7.20712e-07,4.22289e-06,0,1.21676e-05,-8.4253e+08,-8.4229e+08,-8.42579e+08,834694,-0.021577,-0.18639,-0,0.187635,4064.96,-30682.6,0,30950.7,834694
step02_gravity_refstate-crust.xmf,1497,8.31702e-07,-2.84419e-06,0,2.45182e-05,-9.27153e+08,-9.27405e+08,-9.2721e+08,1.68195e+06,0.00186699,-0.269172,0,0.269179,2311.25,-33752.9,0,33831.9,1.68195e+06
step02_gravity_refstate-crust.xmf,1498,1.40642e-06,-4.2883e-06,0,2.6987e-05,-9.3396e+08,-9.3435e+08,-9.34056e+08,1.85131e+06,0.00299563,-0.286181,0,0.286196,2000,-34000.8,0,34059.6,1.85131e+06
step02_gravity_refstate-crust.xmf,1499,1.77041e-07,-1.37542e-06,0,2.6924e-05,-9.2023e+08,-9.20337e+08,-9.20243e+08,1.84698e+06,0.000194895,-0.287598,0,0.287598,2000,-33500.5,0,33560.1,1.84698e+06
step02_gravity_refstate-crust.xmf,1500,-9.9941e-08,-4.78421e-07,0,2.32781e-05,-9.14089e+08,-9.14115e+08,-9.14082e+08,1.59688e+06,-0.0011782,-0.262056,-0,0.262058,2456.24,-33277.2,0,33367.7,1.59688e+06
step02_gravity_refstate-crust.xmf,1501,-2.47675e-08,4.43516e-06,0,1.3581e-05,-8.56613e+08,-8.56307e+08,-8.56611e+08,931654,-0.0180192,-0.199321,-0,0.200134,3740.48,-31192.6,0,31416.1,931654
step02_gravity_refstate-crust.xmf,1502,-8.41319e-07,4.43864e-06,0,1.59387e-05,-8.70681e+08,-8.70319e+08,-8.70623e+08,1.0934e+06,-0.0138055,-0.216398,-0,0.216838,3346.17,-31701.5,0,31877.6,1.0934e+06
step02_gravity_refstate-crust.xmf,1503,-6.4822e-07,1.41793e-06,0,2.0568e-05,-9.01414e+08,-9.01272e+08,-9.01369e+08,1.41097e+06,-0.00457604,-0.244429,-0,0.244471,2796.49,-32816.4,0,32935.4,1.41097e+06
step02_gravity_refstate-crust.xmf,1504,-9.0154e-07,3.03374e-06,0,1.80536e-05,-8.87139e+08,-8.86869e+08,-8.87078e+08,1.23847e+06,-0.00881159,-0.228694,-0,0.228863,3109.37,-32298.2,0,32447.6,1.23847e+06
step02_gravity_refstate-crust.xmf,1505,3.74994e-06,-1.80245e-05,0,-1.53495e-05,-1.0297e+09,-1.03119e+09,-1.02996e+09,-1.05297e+06,-0.0274211,-0.197718,-0,0.19961,-2896.88,-37474.5,-0,37586.3,1.05297e+06
step02_gravity_refstate-crust.xmf,1506,1.59692e-06,-1.4983e-05,0,-1.34847e-05,-1.03669e+09,-1.03783e+09,-1.0368e+09,-925052,-0.0296327,-0.178044,-0,0.180494,-3372.08,-37725,-0,37875.4,925052
step02_gravity_refstate-crust.xmf,1507,-4.12211e-07,-1.01322e-05,0,-1.1153e-05,-1.03689e+09,-1.03756e+09,-1.03686e+09,-765097,-0.0301593,-0.151237,-0,0.154214,-4359.34,-37731.8,-0,37982.8,765097
step02_gravity_refstate-crust.xmf,1508,-1.75387e-06,-3.43784e-06,0,-6.93145e-06,-1.04193e+09,-1.04204e+09,-1.04181e+09,-475498,-0.0261996,-0.0914895,-0,0.0951669,-7466.09,-37920,-0,38648,475498
step02_gravity_refstate-crust.xmf,1509,-1.74815e-06,-4.47255e-06,0,-7.80953e-06,-1.04286e+09,-1.04305e+09,-1.04274e+09,-535734,-0.0275317,-0.103351,-0,0.106955,-6690.11,-37952.4,-0,38537.5,535734
step02_gravity_refstate-crust.xmf,1510,-1.03078e-06,-8.53023e-06,0,-1.03918e-05,-1.04683e+09,-1.04734e+09,-1.04675e+09,-712878,-0.0301531,-0.135367,-0,0.138684,-4911.33,-38093.4,-0,38408.7,712878
step02_gravity_refstate-crust.xmf,1511,-6.53732e-07,-1.98199e-07,0,-2.76423e-06,-1.07136e+09,-1.07133e+09,-1.07131e+09,-189626,-0.0180062,-0.0168237,-0,0.0246426,-15208,-39000.9,-0,41861.1,189626
step02_gravity_refstate-crust.xmf,1512,-8.62153e-07,-4.7182e-07,0,-3.2408e-06,-1.05483e+09,-1.0548e+09,-1.05477e+09,-222319,-0.0188692,-0.0282126,-0,0.0339411,-13525.4,-38398,-0,40710.4,222319
step02_gravity_refstate-crust.xmf,1513,-9.75555e-07,-6.59823e-07,0,-3.56468e-06,-1.04756e+09,-1.04753e+09,-1.04749e+09,-244537,-0.0195655,-0.0361836,-0,0.0411347,-12506.8,-38132.3,-0,40131,244537
step02_gravity_refstate-crust.xmf,1514,-1.2597e-06,-1.10739e-06,0,-4.23849e-06,-1.03797e+09,-1.03796e+09,-1.03788e+09,-290760,-0.0209684,-0.0509224,-0,0.0550706,-10883.3,-37781.5,-0,39317.8,290760
step02_gravity_refstate-crust.xmf,1515,7.35556e-07,1.74519e-07,0,1.84813e-06,-3.06385e+08,-3.06423e+08,-3.06435e+08,126782,-0.0164994,0.0263412,-0,0.031082,23116.5,-11157.5,0,25668.3,126782
step02_gravity_refstate-crust.xmf,1516,8.96343e-07,6.5229e-08,0,1.33865e-06,-2.34572e+08,-2.34629e+08,-2.34633e+08,91831.3,-0.0167043,0.0378709,-0,0.0413913,25847.9,-8543.54,0,27223.3,91831.3
step02_gravity_refstate-crust.xmf,1517,8.10397e-07,1.28314e-07,0,1.61206e-06,-2.84232e+08,-2.84279e+08,-2.84288e+08,110587,-0.0159332,0.0331394,-0,0.0367707,24685.5,-10351.2,0,26767.9,110587
step02_gravity_refstate-crust.xmf,1518,7.52854e-07,1.87385e-07,0,2.02045e-06,-3.48017e+08,-3.48056e+08,-3.48069e+08,138603,-0.0159653,0.0232258,-0,0.0281838,22490.3,-12673.2,0,25815.2,138603
step02_gravity_refstate-crust.xmf,1519,7.95533e-07,1.86424e-07,0,2.19271e-06,-3.92327e+08,-3.92369e+08,-3.92382e+08,150420,-0.0157239,0.0192473,-0,0.0248536,21714.6,-14286.6,0,25992.9,150420
step02_gravity_refstate-crust.xmf,1520,6.90032e-07,9.9277e-07,0,3.89619e-06,-5.32648e+08,-5.32627e+08,-5.32695e+08,267279,-0.021979,-0.0363061,-0,0.0424406,12924.1,-19395.9,0,23307.4,267279
step02_gravity_refstate-crust.xmf,1521,7.88311e-07,1.04989e-06,0,4.12686e-06,-5.61824e+08,-5.61806e+08,-5.61878e+08,283103,-0.022718,-0.0420557,-0,0.0477995,12321.1,-20458.6,0,23882.3,283103
step02_gravity_refstate-crust.xmf,1522,9.02526e-07,1.09825e-06,0,4.38417e-06,-5.91121e+08,-5.91108e+08,-5.91183e+08,300754,-0.0234825,-0.0483277,-0,0.0537308,11702,-21525.7,0,24500.9,300754
step02_gravity_refstate-crust.xmf,1523,7.58741e-07,6.58037e-07,0,3.46008e-06,-5.01538e+08,-5.01545e+08,-5.0159e+08,237362,-0.0204445,-0.0224781,-0,0.0303849,14732.2,-18263.1,0,23464.4,237362
step02_gravity_refstate-crust.xmf,1524,7.07821e-07,4.01248e-07,0,2.85777e-06,-4.33017e+08,-4.33038e+08,-4.33066e+08,196043,-0.0183963,-0.00332862,-0,0.018695,17567.9,-15767.9,0,23606.3,196043
step02_gravity_refstate-crust.xmf,1525,7.93245e-07,4.17016e-07,0,3.038e-06,-4.69021e+08,-4.69047e+08,-4.69075e+08,208407,-0.0188276,-0.0084554,-0,0.0206391,16802.6,-17079,0,23958.7,208407
step02_gravity_refstate-crust.xmf,1526,7.97768e-07,2.6251e-07,0,2.61031e-06,-4.33162e+08,-4.33199e+08,-4.33217e+08,179067,-0.0171771,0.00583071,-0,0.0181398,19182.8,-15773.3,0,24835,179067
step02_gravity_refstate-crust.xmf,1527,1.01523e-06,1.93892e-08,0,1.11842e-06,-2.31054e+08,-2.31122e+08,-2.31123e+08,76723.6,-0.0148737,0.0450774,-0,0.0474679,27896,-8415.88,0,29137.8,76723.6
step02_gravity_refstate-crust.xmf,1528,1.65912e-06,-3.49764e-07,0,4.32577e-07,-1.18562e+08,-1.187e+08,-1.18676e+08,29674.8,-0.0139198,0.0562283,-0,0.0579257,32283.4,-4322.53,0,32571.5,29674.8
step02_gravity_refstate-crust.xmf,1529,1.34578e-06,-1.47947e-07,0,6.6979e-07,-1.75852e+08,-1.75954e+08,-1.75944e+08,45947.6,-0.0131651,0.0542762,-0,0.05585,31182,-6407.27,0,31833.4,45947.6
step02_gravity_refstate-crust.xmf,1530,2.20106e-06,-6.73694e-07,0,1.32835e-07,-5.96272e+07,-5.98244e+07,-5.97782e+07,9112.49,-0.00948714,0.0607241,-0,0.0614607,35787.5,-2178.65,0,35853.7,9112.49
step02_gravity_refstate-crust.xmf,1531,2.75146e-06,-1.04663e-06,0,3.13986e-09,261259,710.391,72509.5,215.394,-0.00794719,0.0601068,-0,0.0606299,37134.2,0,0,37134.2,215.394
step02_gravity_refstate-crust.xmf,1532,1.73066e-06,-5.1356e-06,0,2.35725e-05,-9.39213e+08,-9.39684e+08,-9.39332e+08,1.61707e+06,0.00483801,-0.260735,0,0.26078,2433.25,-34192,0,34278.5,1.61707e+06
step02_gravity_refstate-crust.xmf,1533,2.61663e-06,-7.23411e-06,0,2.68665e-05,-9.47692e+08,-9.48368e+08,-9.47872e+08,1.84304e+06,0.00576063,-0.283298,0,0.283357,2000,-34501.1,0,34559,1.84304e+06
step02_gravity_refstate-crust.xmf,1534,1.76539e-07,-1.26417e-05,0,-1.23052e-05,-1.04447e+09,-1.04535e+09,-1.04448e+09,-844133,-0.0306008,-0.161032,-0,0.163913,-3845.08,-38006.1,-0,38200.1,844133
step02_gravity_refstate-crust.xmf,1535,-1.61696e-06,-5.62678e-06,0,-8.69466e-06,-1.04565e+09,-1.04593e+09,-1.04554e+09,-596453,-0.0285951,-0.113436,-0,0.116985,-6065.39,-38052.8,-0,38533.2,596453
step02_gravity_refstate-crust.xmf,1536,-1.41487e-06,-7.21619e-06,0,-9.86259e-06,-1.05908e+09,-1.05948e+09,-1.05899e+09,-676574,-0.0290594,-0.120023,-0,0.123491,-5520.48,-38540.1,-0,38933.4,676574
step02_gravity_refstate-crust.xmf,1537,9.09566e-06,-2.56544e-05,0,-2.23321e-05,-1.03012e+09,-1.03251e+09,-1.03075e+09,-1.53198e+06,-0.0221429,-0.234764,-0,0.235806,-2000,-37499.7,-0,37553,1.53198e+06
step02_gravity_refstate-crust.xmf,1538,5.87992e-06,-2.26808e-05,0,-1.61447e-05,-1.03709e+09,-1.03905e+09,-1.03749e+09,-1.10752e+06,-0.0267347,-0.20913,-0,0.210832,-2443.22,-37744.9,-0,37823.9,1.10752e+06
step02_gravity_refstate-crust.xmf,1539,-1.56703e-06,-3.40667e-06,0,-7.03511e-06,-1.06016e+09,-1.06028e+09,-1.06005e+09,-482608,-0.025494,-0.083416,-0,0.0872248,-7882.11,-38584.5,-0,39381.3,482608
step02_gravity_refstate-crust.xmf,1540,-6.98676e-07,-4.72848e-07,0,-3.19601e-06,-1.07402e+09,-1.074e+09,-1.07397e+09,-219246,-0.0187967,-0.0238751,-0,0.0303865,-14097.9,-39097,-0,41561.2,219246
step02_gravity_refstate-crust.xmf,1541,-1.4861e-06,-2.6284e-06,0,-6.22925e-06,-1.05911e+09,-1.05919e+09,-1.05901e+09,-427326,-0.0243043,-0.0730935,-0,0.0770283,-8711.04,-38548,-0,39520,427326
step02_gravity_refstate-crust.xmf,1542,-1.13369e-06,-1.09938e-06,0,-4.25374e-06,-1.0542e+09,-1.05419e+09,-1.05412e+09,-291806,-0.0209237,-0.0457123,-0,0.0502734,-11368.3,-38372.8,-0,40021.3,291806
step02_gravity_refstate-crust.xmf,1543,-1.24888e-06,-1.51223e-06,0,-4.84324e-06,-1.05668e+09,-1.0567e+09,-1.0566e+09,-332246,-0.0219972,-0.0541448,-0,0.0584426,-10464.5,-38462.2,-0,39860.3,332246
step02_gravity_refstate-crust.xmf,1544,-1.38226e-06,-1.98854e-06,0,-5.47601e-06,-1.05728e+09,-1.05732e+09,-1.05718e+09,-375654,-0.0231149,-0.0632419,-0,0.0673338,-9585.65,-38482.5,-0,39658.4,375654
step02_gravity_refstate-crust.xmf,1545,-7.9369e-07,-7.90003e-07,0,-3.68961e-06,-1.07486e+09,-1.07486e+09,-1.07481e+09,-253107,-0.0195835,-0.0314255,-0,0.037028,-13025.2,-39127.1,-0,41238.1,253107
step02_gravity_refstate-crust.xmf,1546,8.07919e-07,1.49196e-07,0,1.79489e-06,-3.39984e+08,-3.40029e+08,-3.40039e+08,123130,-0.0148657,0.0305425,-0,0.0339681,24130.3,-12381,0,27121.2,123130
step02_gravity_refstate-crust.xmf,1547,8.53276e-07,1.77195e-07,0,2.35593e-06,-4.32749e+08,-4.32795e+08,-4.32807e+08,161617,-0.0158089,0.0146391,-0,0.0215458,20843.1,-15758.4,0,26129.7,161617
step02_gravity_refstate-crust.xmf,1548,9.13417e-07,1.42251e-06,0,4.90336e-06,-6.2476e+08,-6.24725e+08,-6.24822e+08,336370,-0.0248723,-0.0613105,-0,0.0661635,10439,-22750.9,0,25031.5,336370
step02_gravity_refstate-crust.xmf,1549,1.03067e-06,1.44936e-06,0,5.1374e-06,-6.44244e+08,-6.44215e+08,-6.44314e+08,352425,-0.0253651,-0.0662933,-0,0.0709802,10038.2,-23460.7,0,25518.1,352425
step02_gravity_refstate-crust.xmf,1550,1.16239e-06,1.48895e-06,0,5.44114e-06,-6.66676e+08,-6.66653e+08,-6.66755e+08,373262,-0.025913,-0.0727709,-0,0.077247,9538.62,-24278,0,26084.6,373262
step02_gravity_refstate-crust.xmf,1551,1.07352e-06,1.05545e-06,0,4.59834e-06,-6.20328e+08,-6.2033e+08,-6.20402e+08,315446,-0.0240255,-0.0533128,-0,0.0584763,11270.1,-22589.7,0,25244.9,315446
step02_gravity_refstate-crust.xmf,1552,8.63067e-07,6.73723e-07,0,3.63875e-06,-5.3237e+08,-5.32383e+08,-5.3243e+08,249618,-0.0210305,-0.0273504,-0,0.0345011,14142.9,-19386,0,23996.6,249618
step02_gravity_refstate-crust.xmf,1553,8.83281e-07,4.28934e-07,0,3.20925e-06,-5.01847e+08,-5.01878e+08,-5.01908e+08,220154,-0.0193483,-0.0136061,-0,0.0236534,16067.7,-18274.5,0,24333.7,220154
step02_gravity_refstate-crust.xmf,1554,1.29063e-06,1.55055e-06,0,5.78573e-06,-6.88008e+08,-6.8799e+08,-6.88096e+08,396901,-0.0264196,-0.0799934,-0,0.0842434,9008.42,-25055.2,0,26625.5,396901
step02_gravity_refstate-crust.xmf,1555,1.97438e-06,2.2416e-06,0,9.42623e-06,-8.19096e+08,-8.19078e+08,-8.19232e+08,646640,-0.0244178,-0.149284,-0,0.151268,5345.61,-29831.5,0,30306.6,646640
step02_gravity_refstate-crust.xmf,1556,1.98428e-06,2.23429e-06,0,8.95837e-06,-8.03218e+08,-8.032e+08,-8.03354e+08,614544,-0.0260455,-0.140277,-0,0.142675,5689.95,-29253.4,0,29801.7,614544
step02_gravity_refstate-crust.xmf,1557,1.70368e-06,2.11567e-06,0,7.66537e-06,-7.60606e+08,-7.60578e+08,-7.60723e+08,525844,-0.027659,-0.115962,-0,0.119215,6793.56,-27700.8,0,28521.7,525844
step02_gravity_refstate-crust.xmf,1558,1.92174e-06,2.19902e-06,0,8.50124e-06,-7.8863e+08,-7.88611e+08,-7.88762e+08,583185,-0.0269381,-0.131587,-0,0.134316,6055.83,-28722,0,29353.5,583185
step02_gravity_refstate-crust.xmf,1559,1.79613e-06,2.19049e-06,0,8.06794e-06,-7.73077e+08,-7.7305e+08,-7.732e+08,553461,-0.0275252,-0.123317,-0,0.126351,6428.15,-28155.3,0,28879.8,553461
step02_gravity_refstate-crust.xmf,1560,1.42575e-06,1.61137e-06,0,6.16227e-06,-7.08411e+08,-7.08398e+08,-7.08508e+08,422732,-0.0268332,-0.0876956,-0,0.091709,8479.68,-25798.7,0,27156.5,422732
step02_gravity_refstate-crust.xmf,1561,1.82027e-06,1.54697e-06,0,6.95726e-06,-7.51589e+08,-7.51608e+08,-7.51714e+08,477268,-0.026913,-0.104065,-0,0.107489,7495.44,-27372.1,0,28379.8,477268
step02_gravity_refstate-crust.xmf,1562,1.59563e-06,1.62144e-06,0,6.5475e-06,-7.28882e+08,-7.2888e+08,-7.28991e+08,449158,-0.0270426,-0.0954886,-0,0.0992441,7989.06,-26544.6,0,27720.8,449158
step02_gravity_refstate-crust.xmf,1563,1.13143e-06,-1.43966e-08,0,9.02449e-07,-2.29429e+08,-2.29507e+08,-2.29506e+08,61908,-0.0126081,0.0515361,-0,0.0530559,30052.3,-8357.13,0,31192.6,61908
step02_gravity_refstate-crust.xmf,1564,1.78755e-06,-3.97477e-07,0,2.90583e-07,-1.1701e+08,-1.1716e+08,-1.17133e+08,19934,-0.00982768,0.0604387,-0,0.0612325,34693.1,-4266.5,0,34954.4,19934
step02_gravity_refstate-crust.xmf,1565,2.2878e-06,-7.19655e-07,0,5.5102e-08,-5.6054e+07,-5.62603e+07,-5.62109e+07,3780,-0.00475304,0.0624202,-0,0.0626009,37933.9,-2048.84,0,37989.2,3780
step02_gravity_refstate-crust.xmf,1566,2.76318e-06,-1.04884e-06,0,-6.27138e-09,262469,963.475,72914.2,-430.217,-3.51753e-19,0.0611694,-0,0.0611694,40000,0,0,40000,430.217
step02_gravity_refstate-crust.xmf,1567,1.70328e-06,2.72063e-06,0,1.02513e-05,-8.29346e+08,-8.29276e+08,-8.29463e+08,703242,-0.0234174,-0.16158,-0,0.163268,4883.43,-30204.3,0,30596.5,703242
step02_gravity_refstate-crust.xmf,1568,1.47214e-06,2.52924e-06,0,1.06279e-05,-8.42786e+08,-8.42714e+08,-8.42887e+08,729075,-0.0208287,-0.168096,-0,0.169381,4688.79,-30692.3,0,31048.4,729075
step02_gravity_refstate-crust.xmf,1569,9.46196e-07,2.58513e-06,0,1.16393e-05,-8.57322e+08,-8.5721e+08,-8.57387e+08,798453,-0.0175317,-0.179195,-0,0.180051,4357.03,-31219.5,0,31522.1,798453
step02_gravity_refstate-crust.xmf,1570,3.79088e-06,-1.02107e-05,0,2.65779e-05,-9.61413e+08,-9.62374e+08,-9.61673e+08,1.82325e+06,0.00849488,-0.278954,0,0.279083,2000,-35000.7,0,35057.8,1.82325e+06
step02_gravity_refstate-crust.xmf,1571,2.81516e-06,-8.29845e-06,0,2.24377e-05,-9.55801e+08,-9.56564e+08,-9.55995e+08,1.53923e+06,0.00905955,-0.250472,0,0.250636,2551.21,-34795.4,0,34888.8,1.53923e+06
step02_gravity_refstate-crust.xmf,1572,9.36951e-07,-2.9915e-06,0,2.13393e-05,-9.28099e+08,-9.28369e+08,-9.28163e+08,1.46388e+06,0.00249084,-0.246004,0,0.246016,2749.49,-33787.5,0,33899.2,1.46388e+06
step02_gravity_refstate-crust.xmf,1573,3.73059e-07,2.42102e-06,0,1.31116e-05,-8.71904e+08,-8.71764e+08,-8.7193e+08,899454,-0.0135901,-0.191587,-0,0.192068,4019.23,-31747.8,0,32001.2,899454
step02_gravity_refstate-crust.xmf,1574,3.04997e-07,-1.1227e-06,0,1.93639e-05,-9.15284e+08,-9.15382e+08,-9.15305e+08,1.32837e+06,-0.000801917,-0.233316,-0,0.233317,3032.15,-33321.3,0,33459,1.32837e+06
step02_gravity_refstate-crust.xmf,1575,-2.41937e-08,5.30688e-07,0,1.70829e-05,-9.01614e+08,-9.01576e+08,-9.01612e+08,1.17189e+06,-0.00470196,-0.218478,-0,0.218529,3367.76,-32824.9,0,32997.2,1.17189e+06
step02_gravity_refstate-crust.xmf,1576,-3.06343e-08,1.8517e-06,0,1.50184e-05,-8.86216e+08,-8.86087e+08,-8.86214e+08,1.03026e+06,-0.00933893,-0.205171,-0,0.205383,3678.54,-32266.3,0,32475.3,1.03026e+06
step02_gravity_refstate-crust.xmf,1577,2.36736e-06,-1.85658e-05,0,-1.48032e-05,-1.04449e+09,-1.04593e+09,-1.04465e+09,-1.0155e+06,-0.0293982,-0.187894,-0,0.19018,-2899.21,-38006.6,-0,38117,1.0155e+06
step02_gravity_refstate-crust.xmf,1578,9.03673e-07,-1.55257e-05,0,-1.35656e-05,-1.05219e+09,-1.05331e+09,-1.05225e+09,-930597,-0.0304006,-0.169284,-0,0.171992,-3379.48,-38285.6,-0,38434.4,930597
step02_gravity_refstate-crust.xmf,1579,-5.63154e-07,-1.09523e-05,0,-1.16217e-05,-1.05392e+09,-1.05464e+09,-1.05389e+09,-797250,-0.0305204,-0.14622,-0,0.149372,-4294.7,-38349.9,-0,38589.6,797250
step02_gravity_refstate-crust.xmf,1580,-1.60143e-06,-4.36654e-06,0,-7.89861e-06,-1.06089e+09,-1.06108e+09,-1.06078e+09,-541844,-0.026657,-0.0942087,-0,0.0979074,-7095.1,-38609.5,-0,39256,541844
step02_gravity_refstate-crust.xmf,1581,-1.56225e-06,-5.58916e-06,0,-8.84706e-06,-1.06148e+09,-1.06176e+09,-1.06138e+09,-606908,-0.0277763,-0.105794,-0,0.109379,-6327.12,-38629.4,-0,39144.1,606908
step02_gravity_refstate-crust.xmf,1582,-7.73658e-07,-9.83194e-06,0,-1.12839e-05,-1.06545e+09,-1.06607e+09,-1.0654e+09,-774077,-0.029341,-0.133018,-0,0.136215,-4720.18,-38770.5,-0,39056.8,774077
step02_gravity_refstate-crust.xmf,1583,-8.41007e-07,-1.13621e-06,0,-4.21848e-06,-1.07521e+09,-1.07523e+09,-1.07515e+09,-289388,-0.0204268,-0.0396284,-0,0.0445833,-11973.3,-39138.9,-0,40929.4,289388
step02_gravity_refstate-crust.xmf,1584,9.13452e-07,8.97502e-08,0,1.35638e-06,-2.82376e+08,-2.82433e+08,-2.82439e+08,93047.9,-0.0141072,0.0414704,-0,0.0438042,26869.4,-10284,0,28770.2,93047.9
step02_gravity_refstate-crust.xmf,1585,8.34366e-07,1.47989e-07,0,1.95276e-06,-3.89203e+08,-3.8925e+08,-3.8926e+08,133959,-0.0144003,0.0271324,-0,0.030717,23407.6,-14172.9,0,27364,133959
step02_gravity_refstate-crust.xmf,1586,8.79062e-07,1.33113e-07,0,2.10025e-06,-4.3203e+08,-4.32081e+08,-4.32091e+08,144077,-0.0143526,0.022933,-0,0.027054,22536.4,-15732.3,0,27484.4,144077
step02_gravity_refstate-crust.xmf,1587,1.25268e-06,9.83534e-07,0,4.78545e-06,-6.46275e+08,-6.46293e+08,-6.46361e+08,328282,-0.0243699,-0.0577402,-0,0.0626724,10904.9,-23534.9,0,25938.5,328282
step02_gravity_refstate-crust.xmf,1588,9.75146e-07,6.83041e-07,0,3.82272e-06,-5.61752e+08,-5.61773e+08,-5.61819e+08,262239,-0.0216311,-0.0324429,-0,0.0389928,13553.2,-20456.2,0,24538.6,262239
step02_gravity_refstate-crust.xmf,1589,1.09439e-06,6.91527e-07,0,4.02591e-06,-5.9025e+08,-5.90278e+08,-5.90325e+08,276177,-0.0222591,-0.0380931,-0,0.0441198,12925.8,-21494.2,0,25081.4,276177
step02_gravity_refstate-crust.xmf,1590,1.24077e-06,6.60151e-07,0,4.21544e-06,-6.18836e+08,-6.18876e+08,-6.18921e+08,289179,-0.0227509,-0.0434124,-0,0.0490127,12376,-22535.4,0,25710.1,289179
step02_gravity_refstate-crust.xmf,1591,9.82206e-07,4.28255e-07,0,3.36747e-06,-5.32443e+08,-5.32481e+08,-5.32511e+08,231009,-0.0198672,-0.0185094,-0,0.0271533,15403.6,-19388.8,0,24762.8,231009
step02_gravity_refstate-crust.xmf,1592,9.68405e-07,2.60376e-07,0,2.94893e-06,-5.03515e+08,-5.03564e+08,-5.03582e+08,202297,-0.018055,-0.00486932,-0,0.0187001,17455.6,-18335.3,0,25315.6,202297
step02_gravity_refstate-crust.xmf,1593,8.82556e-07,2.58441e-07,0,2.77548e-06,-4.70085e+08,-4.70128e+08,-4.70146e+08,190398,-0.0175175,0.000822518,-0,0.0175368,18357.7,-17117.9,0,25100.4,190398
step02_gravity_refstate-crust.xmf,1594,9.31037e-07,1.55957e-07,0,2.50181e-06,-4.71958e+08,-4.72011e+08,-4.72022e+08,171624,-0.0160205,0.009899,-0,0.018832,19984.9,-17186.1,0,26358.3,171624
step02_gravity_refstate-crust.xmf,1595,2.08926e-06,1.3229e-06,0,7.21756e-06,-7.73108e+08,-7.73161e+08,-7.73251e+08,495125,-0.0260913,-0.110463,-0,0.113503,7168.06,-28156.3,0,29054.4,495125
step02_gravity_refstate-crust.xmf,1596,9.86216e-07,7.0976e-08,0,1.11906e-06,-2.80995e+08,-2.81058e+08,-2.81063e+08,76767.6,-0.0121579,0.0483371,-0,0.0498426,28958,-10234,0,30713.2,76767.6
step02_gravity_refstate-crust.xmf,1597,1.45839e-06,-1.842e-07,0,4.77691e-07,-1.74063e+08,-1.74176e+08,-1.74163e+08,32769.6,-0.00985961,0.0592582,-0,0.0600728,33581.3,-6342.55,0,34175.1,32769.6
step02_gravity_refstate-crust.xmf,1598,1.22056e-06,-3.55371e-08,0,6.7967e-07,-2.29062e+08,-2.29149e+08,-2.29146e+08,46625.3,-0.00987379,0.0571659,-0,0.0580123,32387.1,-8344.13,0,33444.7,46625.3
step02_gravity_refstate-crust.xmf,1599,1.85003e-06,-4.09062e-07,0,1.37805e-07,-1.1919e+08,-1.19345e+08,-1.19317e+08,9453.43,-0.00462389,0.063462,-0,0.0636302,37521.8,-4346.1,0,37772.7,9453.43
step02_gravity_refstate-crust.xmf,1600,2.1336e-06,-6.02144e-07,0,-3.4111e-09,-7.80555e+07,-7.82432e+07,-7.82019e+07,-234.002,-3.32671e-19,0.0635273,-0,0.0635273,40000,-2849.39,0,40101.4,234.002
step02_gravity_refstate-crust.xmf,1601,4.92994e-06,-1.31492e-05,0,2.61348e-05,-9.75122e+08,-9.76362e+08,-9.7546e+08,1.79285e+06,0.0112069,-0.273148,0,0.273378,2000,-35499.9,0,35556.2,1.79285e+06
step02_gravity_refstate-crust.xmf,1602,3.88277e-06,-1.10219e-05,0,2.32897e-05,-9.69167e+08,-9.7019e+08,-9.69434e+08,1.59768e+06,0.0116318,-0.254482,0,0.254747,2385.17,-35282.1,0,35362.7,1.59768e+06
step02_gravity_refstate-crust.xmf,1603,1.72962e-06,-5.35561e-06,0,1.98359e-05,-9.42716e+08,-9.43203e+08,-9.42835e+08,1.36074e+06,0.00664791,-0.233164,0,0.233259,2967.04,-34319.2,0,34447.3,1.36074e+06
step02_gravity_refstate-crust.xmf,1604,8.1592e-08,-1.32816e-05,0,-1.2685e-05,-1.05888e+09,-1.0598e+09,-1.05888e+09,-870188,-0.0303199,-0.154786,-0,0.157727,-3822.64,-38529.3,-0,38718.5,870188
step02_gravity_refstate-crust.xmf,1605,-7.57452e-07,-8.77012e-06,0,-1.08856e-05,-1.07564e+09,-1.07619e+09,-1.07558e+09,-746753,-0.0274868,-0.120886,-0,0.123972,-5197.01,-39142.9,-0,39486.4,746753
step02_gravity_refstate-crust.xmf,1606,8.25239e-06,-3.39393e-05,0,-1.9952e-05,-1.04431e+09,-1.0472e+09,-1.04488e+09,-1.36871e+06,-0.0255162,-0.221022,-0,0.22249,-2000,-38000,-0,38052.6,1.36871e+06
step02_gravity_refstate-crust.xmf,1607,3.67367e-06,-2.3965e-05,0,-1.70837e-05,-1.05222e+09,-1.05412e+09,-1.05247e+09,-1.17194e+06,-0.0282138,-0.196877,-0,0.198889,-2437.11,-38284.8,-0,38362.3,1.17194e+06
step02_gravity_refstate-crust.xmf,1608,-1.13053e-06,-4.44134e-06,0,-8.01062e-06,-1.07968e+09,-1.07991e+09,-1.0796e+09,-549528,-0.0246268,-0.0856814,-0,0.0891504,-7495.82,-39295.4,-0,40004,549528
step02_gravity_refstate-crust.xmf,1609,-1.11957e-06,-3.50843e-06,0,-7.12393e-06,-1.0793e+09,-1.07947e+09,-1.07923e+09,-488702,-0.0238001,-0.075638,-0,0.0792941,-8309.34,-39283.1,-0,40152.3,488702
step02_gravity_refstate-crust.xmf,1610,-1.07884e-06,-2.74532e-06,0,-6.30381e-06,-1.07869e+09,-1.0788e+09,-1.07861e+09,-432441,-0.0229593,-0.0660586,-0,0.0699348,-9157.96,-39262.1,-0,40316,432441
step02_gravity_refstate-crust.xmf,1611,-9.46965e-07,-1.60068e-06,0,-4.87525e-06,-1.07695e+09,-1.077e+09,-1.07689e+09,-334442,-0.0212734,-0.0481855,-0,0.0526726,-10971.3,-39201.1,-0,40707.5,334442
step02_gravity_refstate-crust.xmf,1612,-1.01762e-06,-2.11562e-06,0,-5.55042e-06,-1.0779e+09,-1.07798e+09,-1.07783e+09,-380759,-0.0221081,-0.0568617,-0,0.0610084,-10049.6,-39234.6,-0,40501.2,380759
step02_gravity_refstate-crust.xmf,1613,8.64014e-07,1.24984e-07,0,1.55404e-06,-3.31691e+08,-3.31742e+08,-3.3175e+08,106607,-0.0135417,0.0379194,-0,0.0402649,25956.3,-12079.2,0,28629.3,106607
step02_gravity_refstate-crust.xmf,1614,8.57859e-07,1.34113e-07,0,1.7139e-06,-3.81262e+08,-3.81311e+08,-3.81321e+08,117574,-0.0131034,0.0344633,-0,0.0368703,25132.2,-13883.9,0,28712.2,117574
step02_gravity_refstate-crust.xmf,1615,9.41859e-07,1.08268e-07,0,2.22805e-06,-4.72018e+08,-4.72075e+08,-4.72082e+08,152844,-0.0144372,0.0186141,-0,0.0235567,21675.4,-17188.3,0,27663.3,152844
step02_gravity_refstate-crust.xmf,1616,1.41864e-06,9.34858e-07,0,4.99636e-06,-6.69347e+08,-6.6938e+08,-6.69444e+08,342750,-0.0246887,-0.0629574,-0,0.0676251,10468,-24375.4,0,26528.1,342750
step02_gravity_refstate-crust.xmf,1617,1.56461e-06,9.17928e-07,0,5.24164e-06,-6.90161e+08,-6.90205e+08,-6.90268e+08,359577,-0.0249907,-0.0688902,-0,0.073283,9982.76,-25133.7,0,27043.7,359577
step02_gravity_refstate-crust.xmf,1618,1.40743e-06,5.8897e-07,0,4.3834e-06,-6.46392e+08,-6.46448e+08,-6.46488e+08,300701,-0.0230532,-0.0483714,-0,0.0535839,11892.5,-23539.1,0,26372.7,300701
step02_gravity_refstate-crust.xmf,1619,1.09434e-06,4.13196e-07,0,3.51998e-06,-5.622e+08,-5.62247e+08,-5.62275e+08,241470,-0.0203609,-0.0233564,-0,0.0309853,14779.4,-20472.5,0,25249.9,241470
step02_gravity_refstate-crust.xmf,1620,1.05227e-06,2.5346e-07,0,3.09663e-06,-5.32678e+08,-5.32732e+08,-5.3275e+08,212429,-0.0185655,-0.0100138,-0,0.0210939,16681.8,-19397.3,0,25583.9,212429
step02_gravity_refstate-crust.xmf,1621,1.9567e-06,1.43036e-06,0,9.26882e-06,-8.39616e+08,-8.39652e+08,-8.3975e+08,635841,-0.0204347,-0.150787,-0,0.152165,5340.76,-30577.2,0,31040.1,635841
step02_gravity_refstate-crust.xmf,1622,1.68317e-06,9.59839e-07,0,5.57158e-06,-7.09871e+08,-7.09921e+08,-7.09987e+08,382211,-0.025408,-0.0766545,-0,0.0807556,9371.5,-25851.9,0,27498.1,382211
step02_gravity_refstate-crust.xmf,1623,2.23467e-06,1.35903e-06,0,8.39453e-06,-8.15533e+08,-8.15593e+08,-8.15687e+08,575865,-0.0236445,-0.134672,-0,0.136732,5991.2,-29701.5,0,30299.7,575865
step02_gravity_refstate-crust.xmf,1624,2.26923e-06,1.23341e-06,0,7.94109e-06,-8.0557e+08,-8.05641e+08,-8.05726e+08,544758,-0.0242919,-0.126523,-0,0.128834,6366.79,-29338.7,0,30021.6,544758
step02_gravity_refstate-crust.xmf,1625,2.20428e-06,1.25172e-06,0,7.54821e-06,-7.89457e+08,-7.89522e+08,-7.89608e+08,517807,-0.0253822,-0.118173,-0,0.120869,6769.64,-28751.8,0,29538,517807
step02_gravity_refstate-crust.xmf,1626,1.8429e-06,9.26884e-07,0,5.87205e-06,-7.29825e+08,-7.29888e+08,-7.29951e+08,402822,-0.0255059,-0.0837521,-0,0.0875498,8861.04,-26578.9,0,28017.1,402822
step02_gravity_refstate-crust.xmf,1627,2.02676e-06,8.33498e-07,0,6.15798e-06,-7.5052e+08,-7.50602e+08,-7.50659e+08,422438,-0.0252652,-0.0908903,-0,0.0943365,8385.24,-27332.9,0,28590.2,422438
step02_gravity_refstate-crust.xmf,1628,2.20801e-06,6.86156e-07,0,6.40788e-06,-7.71076e+08,-7.7118e+08,-7.71227e+08,439581,-0.024592,-0.09787,-0,0.100912,7950.78,-28081.8,0,29185.6,439581
step02_gravity_refstate-crust.xmf,1629,1.05606e-06,6.10599e-08,0,8.80975e-07,-2.8025e+08,-2.80318e+08,-2.80322e+08,60434.9,-0.00992233,0.0543525,-0,0.0552508,31160.8,-10207.1,0,32790,60434.9
step02_gravity_refstate-crust.xmf,1630,1.54274e-06,-2.17995e-07,0,2.97239e-07,-1.70607e+08,-1.70728e+08,-1.70713e+08,20390.6,-0.00655667,0.0625146,-0,0.0628575,35839,-6217.02,0,36374.2,20390.6
step02_gravity_refstate-crust.xmf,1631,1.55319e-06,1.2651e-06,0,9.99183e-06,-8.5764e+08,-8.5766e+08,-8.57746e+08,685439,-0.0166464,-0.160721,-0,0.16158,4993.92,-31231.5,0,31628.2,685439
step02_gravity_refstate-crust.xmf,1632,1.09473e-06,1.05511e-06,0,1.10331e-05,-8.72951e+08,-8.72954e+08,-8.73026e+08,756872,-0.0128089,-0.171196,-0,0.171674,4653.48,-31786.7,0,32125.5,756872
step02_gravity_refstate-crust.xmf,1633,6.01808e-06,-1.61432e-05,0,2.54728e-05,-9.88847e+08,-9.90368e+08,-9.8926e+08,1.74744e+06,0.0139077,-0.265854,0,0.266217,2000,-35999.3,0,36054.8,1.74744e+06
step02_gravity_refstate-crust.xmf,1634,4.63925e-06,-1.33613e-05,0,2.23844e-05,-9.82023e+08,-9.83257e+08,-9.82341e+08,1.53557e+06,0.0147234,-0.246592,0,0.247031,2427.27,-35749.6,0,35831.9,1.53557e+06
step02_gravity_refstate-crust.xmf,1635,3.27228e-06,-1.03804e-05,0,1.97599e-05,-9.71965e+08,-9.72902e+08,-9.7219e+08,1.35553e+06,0.0140184,-0.229664,0,0.230091,2863.27,-35382.5,0,35498.2,1.35553e+06
step02_gravity_refstate-crust.xmf,1636,2.24268e-06,-7.59376e-06,0,1.81492e-05,-9.58065e+08,-9.5874e+08,-9.58219e+08,1.24504e+06,0.0112528,-0.219315,0,0.219603,3191.57,-34876.6,0,35022.4,1.24504e+06
step02_gravity_refstate-crust.xmf,1637,1.04077e-06,-3.24253e-06,0,1.78349e-05,-9.30097e+08,-9.3039e+08,-9.30168e+08,1.22348e+06,0.00358929,-0.219925,0,0.219954,3302.46,-33860.3,0,34021,1.22348e+06
step02_gravity_refstate-crust.xmf,1638,7.03279e-07,5.81018e-07,0,1.24201e-05,-8.87753e+08,-8.87761e+08,-8.87801e+08,852016,-0.00864794,-0.182561,-0,0.182765,4311.42,-32323.3,0,32609.5,852016
step02_gravity_refstate-crust.xmf,1639,6.35476e-07,-1.68542e-06,0,1.59465e-05,-9.16837e+08,-9.16996e+08,-9.1688e+08,1.09393e+06,-6.32358e-05,-0.207298,-0,0.207298,3630.95,-33378.3,0,33575.2,1.09393e+06
step02_gravity_refstate-crust.xmf,1640,5.1999e-07,-3.2838e-07,0,1.40963e-05,-9.02568e+08,-9.02626e+08,-9.02604e+08,967008,-0.00425519,-0.194668,-0,0.194715,3970.26,-32860.5,0,33099.5,967008
step02_gravity_refstate-crust.xmf,1641,2.08362e-06,-1.94332e-05,0,-1.49848e-05,-1.05939e+09,-1.06087e+09,-1.05954e+09,-1.02796e+06,-0.0292515,-0.177686,-0,0.180077,-2896.96,-38546.6,-0,38655.3,1.02796e+06
step02_gravity_refstate-crust.xmf,1642,9.43065e-07,-1.58896e-05,0,-1.35383e-05,-1.06887e+09,-1.07002e+09,-1.06893e+09,-928730,-0.0288779,-0.158074,-0,0.16069,-3447.36,-38892.4,-0,39044.9,928730
step02_gravity_refstate-crust.xmf,1643,-1.20747e-07,-1.24173e-05,0,-1.24268e-05,-1.07086e+09,-1.0717e+09,-1.07085e+09,-852478,-0.0288305,-0.142875,-0,0.145755,-4112.72,-38966,-0,39182.4,852478
step02_gravity_refstate-crust.xmf,1644,-9.07726e-07,-7.27978e-06,0,-1.01254e-05,-1.08052e+09,-1.08096e+09,-1.08046e+09,-694605,-0.026109,-0.108774,-0,0.111864,-5854.04,-39322.5,-0,39755.9,694605
step02_gravity_refstate-crust.xmf,1645,-1.08617e-06,-5.61187e-06,0,-8.97514e-06,-1.07995e+09,-1.08027e+09,-1.07988e+09,-615695,-0.025413,-0.096349,-0,0.0996441,-6703.74,-39303.8,-0,39871.4,615695
step02_gravity_refstate-crust.xmf,1646,-1.32086e-07,-1.0956e-05,0,-1.20719e-05,-1.08396e+09,-1.08471e+09,-1.08396e+09,-828134,-0.0259725,-0.127679,-0,0.130294,-4627.93,-39445.3,-0,39715.9,828134
step02_gravity_refstate-crust.xmf,1647,8.34576e-06,-3.15918e-05,0,-1.57995e-05,-1.05831e+09,-1.06104e+09,-1.05888e+09,-1.08385e+06,-0.0250826,-0.204393,-0,0.205926,-1992.31,-38513.5,-0,38565,1.08385e+06
step02_gravity_refstate-crust.xmf,1648,1.20707e-05,-4.07232e-05,0,-1.24578e-05,-1.04417e+09,-1.0478e+09,-1.045e+09,-854607,-0.020556,-0.236808,-0,0.237699,-1499.83,-38000,-0,38029.6,854607
step02_gravity_refstate-crust.xmf,1649,1.27671e-05,-4.0357e-05,0,-9.42059e-06,-1.05473e+09,-1.05838e+09,-1.05561e+09,-646252,-0.0165942,-0.227425,-0,0.22803,-1201.14,-38387.7,-0,38406.5,646252
step02_gravity_refstate-crust.xmf,1650,1.35662e-05,-4.35815e-05,0,-8.1919e-06,-1.04413e+09,-1.04805e+09,-1.04506e+09,-561964,-0.0142448,-0.247097,-0,0.247507,-1000,-38000,-0,38013.2,561964
step02_gravity_refstate-crust.xmf,1651,1.38972e-05,-4.22593e-05,0,-5.88742e-06,-1.05593e+09,-1.05978e+09,-1.05688e+09,-403877,-0.010553,-0.231869,-0,0.232109,-750.086,-38432.9,-0,38440.2,403877
step02_gravity_refstate-crust.xmf,1652,1.44577e-05,-4.52196e-05,0,-4.05365e-06,-1.0441e+09,-1.04819e+09,-1.04509e+09,-278080,-0.00727469,-0.253111,-0,0.253215,-500.172,-38000,-0,38003.3,278080
step02_gravity_refstate-crust.xmf,1653,1.43823e-05,-4.39419e-05,0,-2.38379e-06,-1.05215e+09,-1.05615e+09,-1.05313e+09,-163528,-0.00445518,-0.24117,-0,0.241212,-309.225,-38294.6,-0,38295.8,163528
step02_gravity_refstate-crust.xmf,1654,1.47027e-05,-4.56855e-05,0,4.52802e-08,-1.04409e+09,-1.04824e+09,-1.0451e+09,3106.22,-5.93348e-07,-0.255094,-0,0.255094,0,-38000,0,38000,3106.22
step02_gravity_refstate-crust.xmf,1655,9.1198e-07,1.16819e-07,0,1.31151e-06,-3.31223e+08,-3.31277e+08,-3.31285e+08,89969.5,-0.0117975,0.0449255,-0,0.0464487,27933.1,-12062.4,0,30426.2,89969.5
step02_gravity_refstate-crust.xmf,1656,8.83683e-07,1.22031e-07,0,1.85247e-06,-4.31176e+08,-4.31228e+08,-4.31236e+08,127080,-0.0128648,0.0305474,-0,0.0331458,24241.5,-15701.1,0,28882.1,127080
step02_gravity_refstate-crust.xmf,1657,9.26764e-07,9.73155e-08,0,1.96512e-06,-4.72143e+08,-4.722e+08,-4.72207e+08,134807,-0.0128555,0.0265655,-0,0.0295125,23366.6,-17192.7,0,29010.2,134807
step02_gravity_refstate-crust.xmf,1658,1.58914e-06,5.01341e-07,0,4.55569e-06,-6.73256e+08,-6.7333e+08,-6.73365e+08,312520,-0.0231982,-0.0535724,-0,0.0583795,11403.9,-24517.8,0,27040.1,312520
step02_gravity_refstate-crust.xmf,1659,1.21606e-06,3.85795e-07,0,3.66968e-06,-5.90738e+08,-5.90795e+08,-5.90822e+08,251740,-0.0208095,-0.0282473,-0,0.0350848,14177.5,-21511.9,0,25763.6,251740
step02_gravity_refstate-crust.xmf,1660,1.3477e-06,3.49164e-07,0,3.8301e-06,-6.18666e+08,-6.18735e+08,-6.18759e+08,262745,-0.0212348,-0.033575,-0,0.0397265,13549.3,-22529.2,0,26289.7,262745
step02_gravity_refstate-crust.xmf,1661,1.49329e-06,2.88023e-07,0,3.98283e-06,-6.46223e+08,-6.46305e+08,-6.46325e+08,273222,-0.0215213,-0.0389114,-0,0.0444664,12951.7,-23532.9,0,26861.5,273222
step02_gravity_refstate-crust.xmf,1662,1.15629e-06,2.22542e-07,0,3.21759e-06,-5.61978e+08,-5.62042e+08,-5.62057e+08,220727,-0.018936,-0.014475,-0,0.0238348,16047.3,-20464.4,0,26005.9,220727
step02_gravity_refstate-crust.xmf,1663,1.08281e-06,1.44667e-07,0,2.86129e-06,-5.33268e+08,-5.33333e+08,-5.33343e+08,196285,-0.017346,-0.00286754,-0,0.0175815,17819,-19418.8,0,26355.4,196285
step02_gravity_refstate-crust.xmf,1664,1.03657e-06,1.25577e-07,0,2.6561e-06,-5.13248e+08,-5.1331e+08,-5.13319e+08,182209,-0.0163701,0.00434881,-0,0.0169379,19022.7,-18689.7,0,26667.7,182209
step02_gravity_refstate-crust.xmf,1665,1.0193e-06,7.10286e-08,0,2.33565e-06,-5.10394e+08,-5.10459e+08,-5.10464e+08,160225,-0.0145626,0.0142382,-0,0.0203665,20835.8,-18585.6,0,27920.6,160225
step02_gravity_refstate-crust.xmf,1666,2.19482e-06,1.16715e-06,0,8.52225e-06,-8.2816e+08,-8.28231e+08,-8.28311e+08,584626,-0.0218147,-0.139104,-0,0.140804,5814.61,-30160.7,0,30716.1,584626
step02_gravity_refstate-crust.xmf,1667,2.37997e-06,5.24833e-07,0,6.64731e-06,-7.90791e+08,-7.90919e+08,-7.90955e+08,456006,-0.0234537,-0.104711,-0,0.107305,7549.51,-28800,0,29773,456006
step02_gravity_refstate-crust.xmf,1668,9.4546e-07,1.21555e-07,0,1.06562e-06,-3.30188e+08,-3.30245e+08,-3.30253e+08,73101.5,-0.00988608,0.0512074,-0,0.052153,30013,-12024.9,0,32332.3,73101.5
step02_gravity_refstate-crust.xmf,1669,1.09579e-06,6.74189e-08,0,6.37404e-07,-2.82716e+08,-2.82787e+08,-2.82791e+08,43725.9,-0.00737864,0.0592613,-0,0.0597189,33472.9,-10297.1,0,35020.9,43725.9
step02_gravity_refstate-crust.xmf,1670,1.28481e-06,-4.23919e-08,0,4.28516e-07,-2.30931e+08,-2.31022e+08,-2.31019e+08,29396.2,-0.00637578,0.0619296,-0,0.062257,35145.2,-8412.41,0,36138,29396.2
step02_gravity_refstate-crust.xmf,1671,1.44369e-06,-1.32094e-07,0,1.70006e-07,-2.0029e+08,-2.00398e+08,-2.00389e+08,11662.4,-0.00309796,0.0644717,-0,0.0645461,37865.5,-7297.38,0,38562.3,11662.4
step02_gravity_refstate-crust.xmf,1672,1.66636e-06,-2.79752e-07,0,-1.46171e-09,-1.54155e+08,-1.54288e+08,-1.54269e+08,-100.274,-2.24317e-19,0.0647535,-0,0.0647535,40000,-5618.47,0,40392.7,100.274
step02_gravity_refstate-crust.xmf,1673,7.08442e-06,-1.91354e-05,0,2.46565e-05,-1.00259e+09,-1.00439e+09,-1.00308e+09,1.69144e+06,0.0166085,-0.257044,0,0.25758,2000,-36499.4,0,36554.2,1.69144e+06
step02_gravity_refstate-crust.xmf,1674,5.44712e-06,-1.60007e-05,0,2.172e-05,-9.95276e+08,-9.96748e+08,-9.9565e+08,1.48999e+06,0.0176004,-0.240476,0,0.241119,2408.34,-36231.3,0,36311.2,1.48999e+06
step02_gravity_refstate-crust.xmf,1675,1.49646e-06,-5.16877e-06,0,1.64114e-05,-9.4526e+08,-9.45717e+08,-9.45363e+08,1.12582e+06,0.00828397,-0.207471,0,0.207636,3540.43,-34411.2,0,34592.8,1.12582e+06
step02_gravity_refstate-crust.xmf,1676,-1.97327e-07,-9.21872e-06,0,-1.12784e-05,-1.08914e+09,-1.08976e+09,-1.08913e+09,-773698,-0.0245686,-0.115379,-0,0.117965,-5262.43,-39636.3,-0,39984.1,773698
step02_gravity_refstate-crust.xmf,1677,5.24763e-06,-2.57254e-05,0,-1.53369e-05,-1.06914e+09,-1.07127e+09,-1.0695e+09,-1.05211e+06,-0.0259202,-0.18279,-0,0.184619,-2394.76,-38904.5,-0,38978.2,1.05211e+06
step02_gravity_refstate-crust.xmf,1678,1.14412e-05,-3.70431e-05,0,-1.19439e-05,-1.05971e+09,-1.06304e+09,-1.0605e+09,-819352,-0.0202501,-0.213929,-0,0.214886,-1534.35,-38568.8,-0,38599.3,819352
step02_gravity_refstate-crust.xmf,1679,1.42554e-05,-4.32046e-05,0,2.82423e-08,-1.05687e+09,-1.06082e+09,-1.05785e+09,1937.42,-1.70681e-07,-0.234325,-0,0.234325,0,-38467.3,0,38467.3,1937.42
step02_gravity_refstate-crust.xmf,1680,1.39524e-05,-4.21887e-05,0,-2.59731e-06,-1.06112e+09,-1.06497e+09,-1.06208e+09,-178175,-0.00478417,-0.226911,-0,0.226962,-343.983,-38622.3,-0,38623.9,178175
step02_gravity_refstate-crust.xmf,1681,8.77991e-07,1.35502e-07,0,1.47053e-06,-3.79063e+08,-3.79114e+08,-3.79123e+08,100878,-0.0115418,0.0414666,-0,0.0430429,26985.7,-13803.9,0,30311.3,100878
step02_gravity_refstate-crust.xmf,1682,8.75627e-07,1.33948e-07,0,1.60295e-06,-4.26508e+08,-4.26559e+08,-4.26568e+08,109962,-0.0113619,0.0378335,-0,0.0395028,26055.8,-15531.2,0,30333.5,109962
step02_gravity_refstate-crust.xmf,1683,9.85623e-07,6.52682e-08,0,2.06417e-06,-5.10626e+08,-5.1069e+08,-5.10694e+08,141602,-0.0129067,0.0224131,-0,0.0258637,22488.1,-18594,0,29179.6,141602
step02_gravity_refstate-crust.xmf,1684,1.79668e-06,5.60874e-07,0,5.09944e-06,-7.09467e+08,-7.09552e+08,-7.0959e+08,349821,-0.0240972,-0.0677016,-0,0.0718623,10135,-25837,0,27753.7,349821
step02_gravity_refstate-crust.xmf,1685,1.76754e-06,3.9205e-07,0,4.73985e-06,-6.99162e+08,-6.99256e+08,-6.99283e+08,325154,-0.0232479,-0.059647,-0,0.0640174,10852.3,-25461.4,0,27677.7,325154
step02_gravity_refstate-crust.xmf,1686,1.65149e-06,1.83912e-07,0,4.09264e-06,-6.73497e+08,-6.73598e+08,-6.7361e+08,280755,-0.0214895,-0.0435897,-0,0.0485989,12454.2,-24526.3,0,27507.2,280755
step02_gravity_refstate-crust.xmf,1687,1.27154e-06,1.7966e-07,0,3.33526e-06,-5.91012e+08,-5.91087e+08,-5.91099e+08,228799,-0.0192608,-0.0190706,-0,0.0271048,15419.4,-21521.8,0,26475.4,228799
step02_gravity_refstate-crust.xmf,1688,1.17196e-06,1.02295e-07,0,2.93406e-06,-5.6075e+08,-5.60824e+08,-5.60831e+08,201276,-0.0174821,-0.00615654,-0,0.0185345,17312.4,-20419.6,0,26770.8,201276
step02_gravity_refstate-crust.xmf,1689,2.36436e-06,5.78656e-07,0,7.65927e-06,-8.2464e+08,-8.24763e+08,-8.24802e+08,525426,-0.0211392,-0.12644,-0,0.128195,6402.96,-30032.3,0,30707.3,525426
step02_gravity_refstate-crust.xmf,1690,2.1923e-06,4.50003e-07,0,8.0091e-06,-8.41848e+08,-8.41967e+08,-8.41998e+08,549424,-0.0184882,-0.134469,-0,0.135734,6041.28,-30657.9,0,31247.4,549424
step02_gravity_refstate-crust.xmf,1691,1.95698e-06,4.54538e-07,0,5.27479e-06,-7.29674e+08,-7.29777e+08,-7.29809e+08,361850,-0.0238982,-0.073056,-0,0.0768655,9711.57,-26573.1,0,28292.2,361850
step02_gravity_refstate-crust.xmf,1692,2.42617e-06,3.09343e-07,0,6.86737e-06,-8.11143e+08,-8.11288e+08,-8.11309e+08,471102,-0.0217064,-0.112515,-0,0.114589,7117.41,-29540.8,0,30386.1,471102
step02_gravity_refstate-crust.xmf,1693,2.12223e-06,3.31653e-07,0,5.4708e-06,-7.50563e+08,-7.50686e+08,-7.50709e+08,375297,-0.0234866,-0.0792755,-0,0.0826814,9241.41,-27334.1,0,28854.1,375297
step02_gravity_refstate-crust.xmf,1694,2.27078e-06,1.87102e-07,0,5.65625e-06,-7.71003e+08,-7.71146e+08,-7.71159e+08,388018,-0.0227385,-0.0856936,-0,0.0886591,8781.89,-28078.6,0,29419.9,388018
step02_gravity_refstate-crust.xmf,1695,2.38107e-06,1.86451e-08,0,5.8153e-06,-7.90812e+08,-7.90974e+08,-7.90976e+08,398929,-0.0215519,-0.0920238,-0,0.0945139,8352.74,-28800,0,29986.8,398929
step02_gravity_refstate-crust.xmf,1696,9.75451e-07,1.31263e-07,0,8.23789e-07,-3.30053e+08,-3.30111e+08,-3.3012e+08,56511.9,-0.0078304,0.0564618,-0,0.0570022,32152.7,-12020.1,0,34326,56511.9
step02_gravity_refstate-crust.xmf,1697,6.14732e-06,-1.86155e-05,0,2.0694e-05,-1.00894e+09,-1.01064e+09,-1.00936e+09,1.41961e+06,0.0205671,-0.232265,0,0.233174,2400.77,-36727.5,0,36805.9,1.41961e+06
step02_gravity_refstate-crust.xmf,1698,1.90276e-06,3.38598e-07,0,8.57501e-06,-8.57732e+08,-8.5784e+08,-8.57863e+08,588246,-0.0154728,-0.143587,-0,0.144418,5658.98,-31234.8,0,31743.3,588246
step02_gravity_refstate-crust.xmf,1699,1.52231e-06,1.07073e-07,0,9.31852e-06,-8.73677e+08,-8.73774e+08,-8.73781e+08,639250,-0.0117418,-0.152721,-0,0.153172,5305.94,-31813.4,0,32252.8,639250
step02_gravity_refstate-crust.xmf,1700,1.14671e-06,-2.9918e-07,0,1.03434e-05,-8.89041e+08,-8.8914e+08,-8.8912e+08,709558,-0.00765716,-0.162633,-0,0.162813,4949.9,-32370.6,0,32746.9,709558
step02_gravity_refstate-crust.xmf,1701,3.87042e-06,-1.28859e-05,0,1.88242e-05,-9.87377e+08,-9.88526e+08,-9.87642e+08,1.29134e+06,0.0179302,-0.222282,0,0.223004,2883.17,-35942.2,0,36057.6,1.29134e+06
step02_gravity_refstate-crust.xmf,1702,2.35496e-06,-9.02977e-06,0,1.63011e-05,-9.72914e+08,-9.73695e+08,-9.73076e+08,1.11826e+06,0.0158603,-0.204734,0,0.205348,3431.75,-35415.5,0,35581.3,1.11826e+06
step02_gravity_refstate-crust.xmf,1703,1.67459e-06,-6.80345e-06,0,1.50854e-05,-9.59795e+08,-9.60377e+08,-9.5991e+08,1.03486e+06,0.0128169,-0.196175,0,0.196594,3745.61,-34938.5,0,35138.7,1.03486e+06
step02_gravity_refstate-crust.xmf,1704,1.02084e-06,-3.31299e-06,0,1.46653e-05,-9.31956e+08,-9.32254e+08,-9.32026e+08,1.00604e+06,0.00476002,-0.195415,0,0.195473,3899.28,-33927.8,0,34151.1,1.00604e+06
step02_gravity_refstate-crust.xmf,1705,8.87228e-07,-9.91325e-07,0,1.16159e-05,-9.03853e+08,-9.03982e+08,-9.03914e+08,796852,-0.00340736,-0.173123,-0,0.173157,4597.12,-32907.7,0,33227.3,796852
step02_gravity_refstate-crust.xmf,1706,8.33347e-07,-2.05289e-06,0,1.30528e-05,-9.18213e+08,-9.18411e+08,-9.1827e+08,895423,0.000821088,-0.18387,0,0.183872,4253.43,-33428.7,0,33698.2,895423
step02_gravity_refstate-crust.xmf,1707,2.72447e-06,-1.9965e-05,0,-1.44197e-05,-1.07321e+09,-1.07476e+09,-1.07339e+09,-989193,-0.0270796,-0.166927,-0,0.169109,-2929.76,-39051.3,-0,39161,989193
step02_gravity_refstate-crust.xmf,1708,8.11694e-07,-1.43064e-05,0,-1.32123e-05,-1.08549e+09,-1.08653e+09,-1.08555e+09,-906367,-0.0252591,-0.140483,-0,0.142735,-3864.88,-39499.6,-0,39688.3,906367
step02_gravity_refstate-crust.xmf,1709,9.29549e-06,-3.27053e-05,0,-1.26012e-05,-1.07163e+09,-1.07451e+09,-1.07226e+09,-864443,-0.0206716,-0.194531,-0,0.195626,-1748.38,-39000.5,-0,39039.7,864443
step02_gravity_refstate-crust.xmf,1710,1.19588e-05,-3.76068e-05,0,-8.88575e-06,-1.06895e+09,-1.07235e+09,-1.06977e+09,-609563,-0.0151653,-0.207429,-0,0.207983,-1188.38,-38906.4,-0,38924.6,609563
step02_gravity_refstate-crust.xmf,1711,1.43598e-05,-4.39278e-05,0,2.45095e-06,-1.05215e+09,-1.05615e+09,-1.05313e+09,168135,0.0044549,-0.241171,0,0.241212,309.225,-38294.6,0,38295.8,168135
step02_gravity_refstate-crust.xmf,1712,1.44129e-05,-4.52347e-05,0,4.01916e-06,-1.04411e+09,-1.0482e+09,-1.04509e+09,275714,0.0072723,-0.25311,0,0.253214,500.172,-38000,0,38003.3,275714
step02_gravity_refstate-crust.xmf,1713,1.28969e-05,-3.96763e-05,0,-4.56361e-06,-1.07053e+09,-1.07414e+09,-1.07142e+09,-313064,-0.00789925,-0.211347,-0,0.211494,-610.648,-38964.6,-0,38969.4,313064
step02_gravity_refstate-crust.xmf,1714,8.87669e-07,1.51432e-07,0,1.22468e-06,-3.79415e+08,-3.79466e+08,-3.79476e+08,84012.9,-0.00980143,0.0478917,-0,0.0488844,28948.3,-13816.8,0,32076.6,84012.9
step02_gravity_refstate-crust.xmf,1715,8.9701e-07,1.16214e-07,0,1.71088e-06,-4.71112e+08,-4.71166e+08,-4.71174e+08,117366,-0.0112725,0.0340132,-0,0.0358325,25125.2,-17155.1,0,30423.2,117366
step02_gravity_refstate-crust.xmf,1716,9.33084e-07,8.72926e-08,0,1.79519e-06,-5.11459e+08,-5.11518e+08,-5.11523e+08,123150,-0.0112218,0.0301726,-0,0.0321918,24227.6,-18624.1,0,30558.7,123150
step02_gravity_refstate-crust.xmf,1717,1.81751e-06,7.6994e-08,0,4.20951e-06,-6.99166e+08,-6.99285e+08,-6.9929e+08,288772,-0.0212842,-0.0484797,-0,0.0529462,11951,-25461.3,0,28126.6,288772
step02_gravity_refstate-crust.xmf,1718,1.39562e-06,1.2323e-07,0,3.4491e-06,-6.1953e+08,-6.19618e+08,-6.19626e+08,236608,-0.0195095,-0.0238318,-0,0.030799,14794.3,-22560.5,0,26978.6,236608
step02_gravity_refstate-crust.xmf,1719,1.52661e-06,5.10824e-08,0,3.55682e-06,-6.47513e+08,-6.47615e+08,-6.47618e+08,243998,-0.0196357,-0.0287373,-0,0.034805,14176.2,-23579.6,0,27513,243998
step02_gravity_refstate-crust.xmf,1720,1.65898e-06,-3.88189e-08,0,3.64745e-06,-6.74734e+08,-6.7485e+08,-6.74848e+08,250215,-0.0195564,-0.0335628,-0,0.0388447,13592.2,-24571,0,28079.9,250215
step02_gravity_refstate-crust.xmf,1721,1.27757e-06,4.9022e-08,0,3.01888e-06,-5.90596e+08,-5.9068e+08,-5.90684e+08,207095,-0.0176461,-0.0102786,-0,0.0204215,16692.7,-21506.5,0,27224.5,207095
step02_gravity_refstate-crust.xmf,1722,1.14476e-06,4.31297e-08,0,2.67108e-06,-5.54633e+08,-5.54708e+08,-5.54711e+08,183236,-0.0160816,0.00188744,-0,0.016192,18622.3,-20196.7,0,27471.7,183236
step02_gravity_refstate-crust.xmf,1723,1.10608e-06,2.2315e-08,0,2.41061e-06,-5.48717e+08,-5.48791e+08,-5.48793e+08,165368,-0.014568,0.0101748,-0,0.0177694,20083.5,-19981.1,0,28330,165368
step02_gravity_refstate-crust.xmf,1724,1.05217e-06,2.18084e-08,0,2.13572e-06,-5.48265e+08,-5.48335e+08,-5.48337e+08,146511,-0.012885,0.0183524,-0,0.022424,21660.1,-19964.4,0,29457.4,146511
step02_gravity_refstate-crust.xmf,1725,2.462e-06,-1.28424e-07,0,5.99071e-06,-8.09207e+08,-8.09385e+08,-8.09376e+08,410962,-0.0199714,-0.0981897,-0,0.1002,7956.08,-29469.8,0,30524.8,410962
step02_gravity_refstate-crust.xmf,1726,8.89362e-07,1.76865e-07,0,9.78406e-07,-3.79161e+08,-3.7921e+08,-3.79222e+08,67118.7,-0.0079697,0.0535471,-0,0.0541369,31013.7,-13807.6,0,33948.5,67118.7
step02_gravity_refstate-crust.xmf,1727,9.85423e-07,1.49168e-07,0,5.89541e-07,-3.33069e+08,-3.33126e+08,-3.33136e+08,40442.5,-0.00565428,0.0605001,-0,0.0607637,34320.8,-12129.9,0,36401.2,40442.5
step02_gravity_refstate-crust.xmf,1728,1.09556e-06,8.63755e-08,0,4.2532e-07,-2.92929e+08,-2.92999e+08,-2.93005e+08,29176.9,-0.00480329,0.0625502,-0,0.0627344,35670.9,-10669,0,37232.2,29176.9
step02_gravity_refstate-crust.xmf,1729,1.19786e-06,3.25888e-08,0,2.15219e-07,-2.64661e+08,-2.64741e+08,-2.64743e+08,14764,-0.00276503,0.0644883,-0,0.0645476,37704.1,-9640.15,0,38917,14764
step02_gravity_refstate-crust.xmf,1730,1.33485e-06,-5.49702e-08,0,-6.23286e-10,-2.2825e+08,-2.28346e+08,-2.28342e+08,-42.7575,-1.96558e-19,0.0652057,-0,0.0652057,40000,-8315,0,40855.1,42.7575
step02_gravity_refstate-crust.xmf,1731,7.94819e-06,-2.23958e-05,0,2.34533e-05,-1.01638e+09,-1.01846e+09,-1.01693e+09,1.60889e+06,0.0193308,-0.246691,0,0.247447,2000,-36999.8,0,37053.8,1.60889e+06
step02_gravity_refstate-crust.xmf,1732,4.70304e-06,-1.5667e-05,0,1.88149e-05,-1.00171e+09,-1.00311e+09,-1.00203e+09,1.2907e+06,0.0207304,-0.221411,0,0.222379,2736.54,-36463.1,0,36565.6,1.2907e+06
step02_gravity_refstate-crust.xmf,1733,1.17719e-06,-4.7316e-06,0,1.36423e-05,-9.46578e+08,-9.46984e+08,-9.46659e+08,935859,0.00942769,-0.18562,0,0.185859,4106.2,-34458.6,0,34702.4,935859
step02_gravity_refstate-crust.xmf,1734,2.01588e-06,-1.78773e-05,0,-1.38969e-05,-1.08482e+09,-1.08619e+09,-1.08496e+09,-953328,-0.0245906,-0.152326,-0,0.154298,-3248.89,-39474.5,-0,39608,953328
step02_gravity_refstate-crust.xmf,1735,3.91181e-06,-2.22571e-05,0,-1.4026e-05,-1.08533e+09,-1.08713e+09,-1.0856e+09,-962184,-0.0227259,-0.162857,-0,0.164435,-2673.12,-39493.9,-0,39584.3,962184
step02_gravity_refstate-crust.xmf,1736,1.38944e-05,-4.22575e-05,0,5.88745e-06,-1.05593e+09,-1.05978e+09,-1.05688e+09,403879,0.0105525,-0.231869,0,0.232109,750.086,-38432.9,0,38440.2,403879
step02_gravity_refstate-crust.xmf,1737,1.357e-05,-4.35813e-05,0,8.19765e-06,-1.04413e+09,-1.04805e+09,-1.04506e+09,562358,0.0142468,-0.247097,0,0.247507,1000,-38000,0,38013.2,562358
step02_gravity_refstate-crust.xmf,1738,1.32829e-05,-4.05422e-05,0,8.88841e-08,-1.07027e+09,-1.07396e+09,-1.07118e+09,6097.45,-1.02916e-06,-0.213908,-0,0.213908,0,-38955.3,0,38955.3,6097.45
step02_gravity_refstate-crust.xmf,1739,1.39516e-05,-4.2188e-05,0,2.59777e-06,-1.06112e+09,-1.06497e+09,-1.06208e+09,178207,0.00478368,-0.226912,0,0.226962,343.983,-38622.3,0,38623.9,178207
step02_gravity_refstate-crust.xmf,1740,8.61076e-07,1.60834e-07,0,1.35412e-06,-4.26555e+08,-4.26603e+08,-4.26614e+08,92892.9,-0.00971376,0.0444936,-0,0.0455416,27952.5,-15532.9,0,31978.3,92892.9
step02_gravity_refstate-crust.xmf,1741,8.59014e-07,1.54073e-07,0,1.46069e-06,-4.71039e+08,-4.71087e+08,-4.71098e+08,100203,-0.00965669,0.0409059,-0,0.0420303,26966.9,-17152.3,0,31959.6,100203
step02_gravity_refstate-crust.xmf,1742,9.87114e-07,5.1337e-08,0,1.88511e-06,-5.49047e+08,-5.49111e+08,-5.49114e+08,129319,-0.011279,0.0257051,-0,0.0280708,23222.2,-19992.7,0,30642.7,129319
step02_gravity_refstate-crust.xmf,1743,1.98462e-06,1.40419e-07,0,4.75733e-06,-7.28054e+08,-7.2818e+08,-7.2819e+08,326353,-0.0223476,-0.0632758,-0,0.0671062,10548,-26513.8,0,28534.9,326353
step02_gravity_refstate-crust.xmf,1744,1.7806e-06,-1.3066e-07,0,3.73682e-06,-6.98976e+08,-6.99107e+08,-6.99098e+08,256346,-0.019367,-0.0384389,-0,0.0430422,13025.4,-25453.9,0,28593.1,256346
step02_gravity_refstate-crust.xmf,1745,1.38892e-06,-1.42581e-08,0,3.10116e-06,-6.19871e+08,-6.19968e+08,-6.19967e+08,212740,-0.0177536,-0.0147026,-0,0.0230511,16049.1,-22572.6,0,27696.5,212740
step02_gravity_refstate-crust.xmf,1746,1.24582e-06,-2.08179e-08,0,2.72248e-06,-5.88947e+08,-5.89034e+08,-5.89033e+08,186762,-0.0160174,-0.0017997,-0,0.0161182,18015.4,-21446.2,0,28008.9,186762
step02_gravity_refstate-crust.xmf,1747,2.27274e-06,-1.27199e-07,0,7.01877e-06,-8.42766e+08,-8.4293e+08,-8.42921e+08,481488,-0.0168366,-0.120774,-0,0.121942,6691.18,-30690.7,0,31411.7,481488
step02_gravity_refstate-crust.xmf,1748,2.05074e-06,-2.93924e-07,0,7.3931e-06,-8.58509e+08,-8.5867e+08,-8.5865e+08,507167,-0.0139525,-0.128191,-0,0.128948,6330.37,-31262.7,0,31897.2,507167
step02_gravity_refstate-crust.xmf,1749,2.13322e-06,-1.3787e-08,0,4.8614e-06,-7.50278e+08,-7.50426e+08,-7.50425e+08,333492,-0.0216564,-0.0683969,-0,0.0717435,10112.5,-27323.2,0,29134.6,333492
step02_gravity_refstate-crust.xmf,1750,2.38732e-06,-8.7208e-08,0,6.68278e-06,-8.30366e+08,-8.30536e+08,-8.3053e+08,458439,-0.0185142,-0.113693,-0,0.115191,7058.93,-30239.8,0,31052.8,458439
step02_gravity_refstate-crust.xmf,1751,2.33636e-06,-3.23453e-07,0,5.09443e-06,-7.918e+08,-7.91982e+08,-7.9196e+08,349478,-0.0194862,-0.0801755,-0,0.0825095,9176.62,-28835.2,0,30260.2,349478
step02_gravity_refstate-crust.xmf,1752,2.25495e-06,-1.65602e-07,0,4.98019e-06,-7.71454e+08,-7.7162e+08,-7.71608e+08,341641,-0.0207489,-0.0741746,-0,0.077022,9641.69,-28094.4,0,29702.8,341641
step02_gravity_refstate-crust.xmf,1753,2.35629e-06,-4.82506e-07,0,5.18351e-06,-8.10597e+08,-8.10792e+08,-8.10759e+08,355589,-0.0178206,-0.0857095,-0,0.0875425,8767.51,-29519.4,0,30793.9,355589
step02_gravity_refstate-crust.xmf,1754,8.89197e-07,2.02776e-07,0,7.29026e-07,-3.7947e+08,-3.79517e+08,-3.79531e+08,50011.2,-0.00603005,0.0582493,-0,0.0585606,33187.6,-13818.9,0,35949.7,50011.2
step02_gravity_refstate-crust.xmf,1755,9.88096e-07,1.60948e-07,0,4.22295e-07,-3.35193e+08,-3.3525e+08,-3.35261e+08,28969.4,-0.00407207,0.0626238,-0,0.0627561,35897,-12207.3,0,37915.9,28969.4
step02_gravity_refstate-crust.xmf,1756,8.72092e-06,-2.59942e-05,0,2.19169e-05,-1.03018e+09,-1.03256e+09,-1.03078e+09,1.5035e+06,0.0221428,-0.234764,0,0.235806,2000,-37499.7,0,37553,1.5035e+06
step02_gravity_refstate-crust.xmf,1757,6.32455e-06,-2.08877e-05,0,1.89463e-05,-1.02262e+09,-1.02448e+09,-1.02305e+09,1.29971e+06,0.0236518,-0.221521,0,0.22278,2421.18,-37222.7,0,37301.3,1.29971e+06
step02_gravity_refstate-crust.xmf,1758,4.50257e-06,-1.70125e-05,0,1.71374e-05,-1.01406e+09,-1.01553e+09,-1.01437e+09,1.17562e+06,0.023929,-0.210529,0,0.211884,2821.13,-36909.6,0,37017.3,1.17562e+06
step02_gravity_refstate-crust.xmf,1759,1.73866e-06,-5.25371e-07,0,7.8797e-06,-8.74189e+08,-8.74345e+08,-8.74309e+08,540547,-0.0104871,-0.135708,-0,0.136113,5987.59,-31832,0,32390.2,540547
step02_gravity_refstate-crust.xmf,1760,1.38199e-06,-8.6904e-07,0,8.62915e-06,-8.89968e+08,-8.90123e+08,-8.90063e+08,591960,-0.00653607,-0.144478,-0,0.144626,5614.33,-32404.4,0,32887.2,591960
step02_gravity_refstate-crust.xmf,1761,1.07843e-06,-1.41436e-06,0,9.57198e-06,-9.05126e+08,-9.05297e+08,-9.052e+08,656638,-0.00236199,-0.153532,-0,0.15355,5252.61,-32954.2,0,33370.2,656638
step02_gravity_refstate-crust.xmf,1762,3.35628e-06,-1.37516e-05,0,1.61358e-05,-1.00255e+09,-1.00373e+09,-1.00278e+09,1.10692e+06,0.0226445,-0.203209,0,0.204467,3164.69,-36491.2,0,36628.2,1.10692e+06
step02_gravity_refstate-crust.xmf,1763,2.50152e-06,-1.08364e-05,0,1.53567e-05,-9.88535e+08,-9.8945e+08,-9.88706e+08,1.05347e+06,0.020103,-0.197278,0,0.198299,3479.22,-35981.9,0,36149.8,1.05347e+06
step02_gravity_refstate-crust.xmf,1764,1.61656e-06,-8.05748e-06,0,1.38151e-05,-9.75382e+08,-9.76046e+08,-9.75493e+08,947714,0.0175068,-0.185412,0,0.186236,3924.4,-35503.8,0,35720.1,947714
step02_gravity_refstate-crust.xmf,1765,1.14339e-06,-5.93681e-06,0,1.27116e-05,-9.60485e+08,-9.6097e+08,-9.60563e+08,872016,0.013753,-0.177119,0,0.177652,4273.48,-34962.8,0,35223,872016
step02_gravity_refstate-crust.xmf,1766,8.96294e-07,-3.36082e-06,0,1.18479e-05,-9.34101e+08,-9.34393e+08,-9.34163e+08,812766,0.00606103,-0.171972,0,0.172079,4561.41,-34005.3,0,34309.9,812766
step02_gravity_refstate-crust.xmf,1767,9.00831e-07,-2.19335e-06,0,1.07162e-05,-9.19185e+08,-9.19397e+08,-9.19247e+08,735132,0.00167923,-0.163257,0,0.163266,4886.67,-33464.1,0,33819,735132
step02_gravity_refstate-crust.xmf,1768,6.425e-06,-2.77808e-05,0,-1.31191e-05,-1.08506e+09,-1.0874e+09,-1.0855e+09,-899970,-0.0197835,-0.173769,-0,0.174892,-2084.96,-39485.5,-0,39540.5,899970
step02_gravity_refstate-crust.xmf,1769,8.93673e-06,-3.24204e-05,0,-1.02054e-05,-1.08483e+09,-1.08767e+09,-1.08545e+09,-700092,-0.0153108,-0.183138,-0,0.183777,-1492.38,-39480.4,-0,39508.6,700092
step02_gravity_refstate-crust.xmf,1770,1.04402e-05,-3.55108e-05,0,-6.61344e-06,-1.08471e+09,-1.08786e+09,-1.08542e+09,-453682,-0.00998394,-0.189525,-0,0.189788,-931.641,-39477,-0,39488,453682
step02_gravity_refstate-crust.xmf,1771,1.28056e-05,-4.03591e-05,0,9.51781e-06,-1.05473e+09,-1.05837e+09,-1.05561e+09,652922,0.0165919,-0.227426,0,0.228031,1201.14,-38387.7,0,38406.5,652922
step02_gravity_refstate-crust.xmf,1772,1.19412e-05,-4.06048e-05,0,1.27953e-05,-1.04418e+09,-1.04779e+09,-1.045e+09,877757,0.0205608,-0.236801,0,0.237691,1499.83,-38000,0,38029.6,877757
step02_gravity_refstate-crust.xmf,1773,1.1367e-05,-3.73783e-05,0,-3.22821e-06,-1.0824e+09,-1.08574e+09,-1.08318e+09,-221455,-0.0050875,-0.195744,-0,0.195811,-449.795,-39393.9,-0,39396.4,221455
step02_gravity_refstate-crust.xmf,1774,8.38507e-07,1.99439e-07,0,1.10539e-06,-4.28387e+08,-4.28431e+08,-4.28444e+08,75830.1,-0.00798096,0.0504498,-0,0.0510772,29949.7,-15599.6,0,33768.8,75830.1
step02_gravity_refstate-crust.xmf,1775,8.72758e-07,1.36328e-07,0,1.54388e-06,-5.11508e+08,-5.11558e+08,-5.11567e+08,105910,-0.00959768,0.0372929,-0,0.0385081,26024.7,-18625.7,0,32003.2,105910
step02_gravity_refstate-crust.xmf,1776,8.96957e-07,1.1537e-07,0,1.589e-06,-5.5353e+08,-5.53584e+08,-5.53592e+08,109005,-0.00930659,0.0339677,-0,0.0352196,25202,-20155.6,0,32270.6,109005
step02_gravity_refstate-crust.xmf,1777,1.95656e-06,-7.95922e-08,0,4.27269e-06,-7.24911e+08,-7.25051e+08,-7.25045e+08,293107,-0.020727,-0.0533038,-0,0.0571918,11471.9,-26398.9,0,28783.8,293107
step02_gravity_refstate-crust.xmf,1778,1.91005e-06,-2.40255e-07,0,3.8057e-06,-7.23702e+08,-7.2385e+08,-7.23833e+08,261071,-0.0188294,-0.0431373,-0,0.0470678,12498.7,-26354.5,0,29168,261071
step02_gravity_refstate-crust.xmf,1779,1.71585e-06,-2.48613e-07,0,3.32233e-06,-7.00001e+08,-7.00135e+08,-7.00118e+08,227912,-0.0173825,-0.0289596,-0,0.0337759,14127.4,-25490.8,0,29143.8,227912
step02_gravity_refstate-crust.xmf,1780,1.50386e-06,-9.14942e-08,0,3.17218e-06,-6.48838e+08,-6.48947e+08,-6.48941e+08,217612,-0.0177184,-0.0192465,-0,0.0261604,15411,-23627.5,0,28209.2,217612
step02_gravity_refstate-crust.xmf,1781,1.61428e-06,-1.73379e-07,0,3.23988e-06,-6.75877e+08,-6.76e+08,-6.75988e+08,222256,-0.0175681,-0.0239463,-0,0.0296996,14775.4,-24612.3,0,28706.7,222256
step02_gravity_refstate-crust.xmf,1782,1.34408e-06,-8.69864e-08,0,2.77807e-06,-6.20005e+08,-6.20103e+08,-6.20097e+08,190576,-0.0159706,-0.00594255,-0,0.0170404,17350.9,-22577.2,0,28474.3,190576
step02_gravity_refstate-crust.xmf,1783,1.18772e-06,-4.29217e-08,0,2.44617e-06,-5.85891e+08,-5.85976e+08,-5.85973e+08,167808,-0.014408,0.00642173,-0,0.0157744,19406.1,-21334.7,0,28840.3,167808
step02_gravity_refstate-crust.xmf,1784,1.1212e-06,-2.87424e-08,0,2.18369e-06,-5.84616e+08,-5.84694e+08,-5.84692e+08,149801,-0.0127515,0.0143893,-0,0.0192264,20876.5,-21288,0,29816.2,149801
step02_gravity_refstate-crust.xmf,1785,1.03733e-06,9.14671e-09,0,1.93004e-06,-5.85129e+08,-5.852e+08,-5.85201e+08,132401,-0.0111086,0.0218624,-0,0.0245227,22392.6,-21306.4,0,30909.5,132401
step02_gravity_refstate-crust.xmf,1786,2.23547e-06,-5.53086e-07,0,6.10752e-06,-8.45559e+08,-8.45751e+08,-8.45713e+08,418976,-0.0147121,-0.107865,-0,0.108864,7365.84,-30791.6,0,31660.4,418976
step02_gravity_refstate-crust.xmf,1787,2.37614e-06,-3.90473e-07,0,5.94483e-06,-8.27992e+08,-8.28182e+08,-8.28155e+08,407815,-0.0173921,-0.10197,-0,0.103442,7717.93,-30152.9,0,31124.9,407815
step02_gravity_refstate-crust.xmf,1788,2.32011e-06,-6.42627e-07,0,5.26291e-06,-8.29825e+08,-8.30028e+08,-8.29984e+08,361035,-0.0154575,-0.0908093,-0,0.0921155,8403.34,-30219,0,31365.7,361035
step02_gravity_refstate-crust.xmf,1789,8.13361e-07,2.43836e-07,0,8.60864e-07,-4.30128e+08,-4.30167e+08,-4.30184e+08,59055.2,-0.00623001,0.0555124,-0,0.0558609,32033.8,-15662.9,0,35658,59055.2
step02_gravity_refstate-crust.xmf,1790,8.88508e-07,2.27233e-07,0,4.62801e-07,-3.78994e+08,-3.7904e+08,-3.79055e+08,31748.2,-0.00388115,0.0619815,-0,0.0621029,35614.5,-13801.6,0,38195.2,31748.2
step02_gravity_refstate-crust.xmf,1791,9.91242e-07,1.70091e-07,0,2.53289e-07,-3.35647e+08,-3.35703e+08,-3.35715e+08,17375.6,-0.00245092,0.0641103,-0,0.0641571,37531.5,-12223.8,0,39472,17375.6
step02_gravity_refstate-crust.xmf,1792,1.09027e-06,1.08585e-07,0,3.08037e-10,-3.00557e+08,-3.00624e+08,-3.00631e+08,21.1313,-1.73608e-19,0.0651343,-0,0.0651343,40000,-10946.6,0,41470.8,21.1313
step02_gravity_refstate-crust.xmf,1793,8.22549e-06,-3.43324e-05,0,1.98325e-05,-1.04433e+09,-1.04725e+09,-1.04489e+09,1.36051e+06,0.0255109,-0.221008,0,0.222476,2000,-38000,0,38052.6,1.36051e+06
step02_gravity_refstate-crust.xmf,1794,5.43181e-06,-2.24842e-05,0,1.6827e-05,-1.037e+09,-1.03891e+09,-1.03737e+09,1.15433e+06,0.0266676,-0.209547,0,0.211237,2435.31,-37740.2,0,37818.7,1.15433e+06
step02_gravity_refstate-crust.xmf,1795,9.21009e-07,-4.41244e-06,0,1.17082e-05,-9.47219e+08,-9.47585e+08,-9.47282e+08,803181,0.0101091,-0.169487,0,0.169788,4581.79,-34481.4,0,34784.4,803181
step02_gravity_refstate-crust.xmf,1796,1.14906e-05,-3.71845e-05,0,1.19628e-05,-1.05938e+09,-1.06272e+09,-1.06017e+09,820646,0.0202465,-0.214453,0,0.215407,1530.93,-38556.7,0,38587,820646
step02_gravity_refstate-crust.xmf,1797,1.29102e-05,-3.96791e-05,0,4.56371e-06,-1.07053e+09,-1.07414e+09,-1.07142e+09,313070,0.00789896,-0.211347,0,0.211494,610.658,-38964.7,0,38969.4,313070
step02_gravity_refstate-crust.xmf,1798,1.1964e-05,-3.76152e-05,0,8.88769e-06,-1.06895e+09,-1.07236e+09,-1.06978e+09,609695,0.0151659,-0.207427,0,0.207981,1188.45,-38906.5,0,38924.7,609695
step02_gravity_refstate-crust.xmf,1799,1.10115e-05,-3.72994e-05,0,-3.84914e-08,-1.08441e+09,-1.08772e+09,-1.08516e+09,-2640.51,-4.04202e-06,-0.194042,-0,0.194042,0,-39465.8,0,39465.8,2640.51
step02_gravity_refstate-crust.xmf,1800,9.56937e-06,-3.54509e-05,0,-1.99063e-06,-1.09183e+09,-1.09492e+09,-1.09248e+09,-136557,-0.00260733,-0.183993,-0,0.184012,-273.339,-39732.9,-0,39733.8,136557
step02_gravity_refstate-crust.xmf,1801,8.12798e-07,2.0594e-07,0,1.20992e-06,-4.74436e+08,-4.74478e+08,-4.74492e+08,83000.4,-0.00796248,0.0471552,-0,0.0478228,28911.4,-17275.9,0,33679.8,83000.4
step02_gravity_refstate-crust.xmf,1802,8.07414e-07,1.98544e-07,0,1.30007e-06,-5.16916e+08,-5.16957e+08,-5.16971e+08,89184.7,-0.00794743,0.0435509,-0,0.0442701,27845.1,-18822.4,0,33610,89184.7
step02_gravity_refstate-crust.xmf,1803,9.45114e-07,6.88192e-08,0,1.68996e-06,-5.86757e+08,-5.86817e+08,-5.86822e+08,115931,-0.00950859,0.0288495,-0,0.0303761,23965.6,-21365.4,0,32106.6,115931
step02_gravity_refstate-crust.xmf,1804,2.08588e-06,-2.39451e-07,0,4.32511e-06,-7.49315e+08,-7.49474e+08,-7.49458e+08,296702,-0.0198432,-0.0581027,-0,0.0613977,11010.3,-27287.6,0,29425.2,296702
step02_gravity_refstate-crust.xmf,1805,1.80658e-06,-3.39575e-07,0,3.38485e-06,-7.22554e+08,-7.22701e+08,-7.22678e+08,232201,-0.0169923,-0.0337485,-0,0.0377849,13534,-26312.1,0,29588.8,232201
step02_gravity_refstate-crust.xmf,1806,1.44089e-06,-1.61862e-07,0,2.8245e-06,-6.49987e+08,-6.50097e+08,-6.50086e+08,193761,-0.0158046,-0.0102593,-0,0.0188425,16680,-23669,0,28955.9,193761
step02_gravity_refstate-crust.xmf,1807,1.27138e-06,-1.0783e-07,0,2.48022e-06,-6.19693e+08,-6.19788e+08,-6.1978e+08,170143,-0.0142049,0.00246558,-0,0.0144172,18709.4,-22565.5,0,29312.8,170143
step02_gravity_refstate-crust.xmf,1808,2.08882e-06,-5.84503e-07,0,6.55637e-06,-8.57686e+08,-8.5787e+08,-8.5783e+08,449767,-0.012941,-0.116095,-0,0.116814,6917.09,-31232.5,0,31989.3,449767
step02_gravity_refstate-crust.xmf,1809,1.82653e-06,-8.90103e-07,0,6.69238e-06,-8.7364e+08,-8.73826e+08,-8.73765e+08,459097,-0.00937957,-0.120156,-0,0.120522,6695.21,-31811.7,0,32508.6,459097
step02_gravity_refstate-crust.xmf,1810,2.17978e-06,-3.90661e-07,0,4.38521e-06,-7.71581e+08,-7.71758e+08,-7.71731e+08,300826,-0.0187584,-0.0632587,-0,0.0659813,10534.1,-28098.4,0,30008.1,300826
step02_gravity_refstate-crust.xmf,1811,2.23065e-06,-6.79784e-07,0,4.51341e-06,-8.11983e+08,-8.12182e+08,-8.12136e+08,309620,-0.0157022,-0.0741105,-0,0.0757557,9600.2,-29569,0,31088.4,309620
step02_gravity_refstate-crust.xmf,1812,2.23131e-06,-5.37179e-07,0,4.44758e-06,-7.92403e+08,-7.92593e+08,-7.92556e+08,305104,-0.0173927,-0.0686305,-0,0.0708001,10060.4,-28856.4,0,30559.8,305104
step02_gravity_refstate-crust.xmf,1813,2.15114e-06,-8.2499e-07,0,4.5653e-06,-8.31537e+08,-8.31741e+08,-8.31685e+08,313179,-0.0134328,-0.0793438,-0,0.0804729,9177.71,-30280.4,0,31640.7,313179
step02_gravity_refstate-crust.xmf,1814,7.88628e-07,2.8249e-07,0,6.22105e-07,-4.31936e+08,-4.31971e+08,-4.3199e+08,42676.4,-0.00451285,0.0594386,-0,0.0596097,34146.1,-15728.7,0,37594.6,42676.4
step02_gravity_refstate-crust.xmf,1815,8.85488e-06,-3.27479e-05,0,1.58574e-05,-1.05678e+09,-1.05963e+09,-1.05739e+09,1.08782e+06,0.024792,-0.207682,0,0.209157,1939.8,-38458.3,0,38507.2,1.08782e+06
step02_gravity_refstate-crust.xmf,1816,4.12001e-06,-2.37617e-05,0,1.63239e-05,-1.05144e+09,-1.05335e+09,-1.05172e+09,1.11982e+06,0.0282283,-0.197456,0,0.199463,2438.19,-38258.7,0,38336.3,1.11982e+06
step02_gravity_refstate-crust.xmf,1817,3.85765e-06,-1.80062e-05,0,1.55987e-05,-1.02894e+09,-1.03044e+09,-1.02921e+09,1.07007e+06,0.0271733,-0.199293,0,0.201137,2866.75,-37447.5,0,37557.1,1.07007e+06
step02_gravity_refstate-crust.xmf,1818,2.47559e-06,-1.43e-05,0,1.42376e-05,-1.01937e+09,-1.02052e+09,-1.01954e+09,976697,0.0268357,-0.188448,0,0.190349,3334.57,-37099,0,37248.6,976697
step02_gravity_refstate-crust.xmf,1819,1.46795e-06,-1.19732e-06,0,7.18347e-06,-8.90519e+08,-8.90702e+08,-8.9062e+08,492786,-0.00535591,-0.127381,-0,0.127493,6330.44,-32424.3,0,33036.5,492786
step02_gravity_refstate-crust.xmf,1820,1.12321e-06,-1.64695e-06,0,7.89821e-06,-9.06729e+08,-9.06919e+08,-9.06806e+08,541817,-0.00111257,-0.135602,-0,0.135606,5941.68,-33012.4,0,33542.8,541817
step02_gravity_refstate-crust.xmf,1821,8.68675e-07,-2.25651e-06,0,8.78622e-06,-9.21356e+08,-9.2157e+08,-9.21415e+08,602735,0.00295184,-0.14432,0,0.14435,5554.83,-33542.9,0,33999.7,602735
step02_gravity_refstate-crust.xmf,1822,1.8117e-06,-1.12628e-05,0,1.35254e-05,-1.00376e+09,-1.00466e+09,-1.00389e+09,927845,0.0243736,-0.18231,0,0.183932,3728.09,-36532.9,0,36722.6,927845
step02_gravity_refstate-crust.xmf,1823,1.26826e-06,-8.77254e-06,0,1.26489e-05,-9.89216e+08,-9.89905e+08,-9.89303e+08,867715,0.0214373,-0.175202,0,0.176509,4101.81,-36004.9,0,36237.8,867715
step02_gravity_refstate-crust.xmf,1824,8.97289e-07,-6.69465e-06,0,1.17282e-05,-9.74177e+08,-9.74698e+08,-9.74239e+08,804557,0.017839,-0.16798,0,0.168924,4459.46,-35459.2,0,35738.5,804557
step02_gravity_refstate-crust.xmf,1825,6.83245e-07,-5.02689e-06,0,1.07236e-05,-9.59748e+08,-9.6014e+08,-9.59795e+08,735640,0.014032,-0.159937,0,0.160551,4823.43,-34935.6,0,35267,735640
step02_gravity_refstate-crust.xmf,1826,6.90243e-07,-3.8259e-06,0,1.01243e-05,-9.45284e+08,-9.45593e+08,-9.45331e+08,694529,0.00989485,-0.155473,0,0.155788,5054.96,-34410.9,0,34780.2,694529
step02_gravity_refstate-crust.xmf,1827,7.93317e-07,-2.85023e-06,0,9.9028e-06,-9.31232e+08,-9.31482e+08,-9.31286e+08,679332,0.00567533,-0.15417,0,0.154275,5159.84,-33901.2,0,34291.6,679332
step02_gravity_refstate-crust.xmf,1828,1.15412e-05,-3.74577e-05,0,3.17428e-06,-1.08238e+09,-1.08574e+09,-1.08317e+09,217756,0.00509422,-0.195748,0,0.195814,449.795,-39393.9,0,39396.4,217756
step02_gravity_refstate-crust.xmf,1829,7.62066e-07,2.65626e-07,0,9.64279e-07,-4.78783e+08,-4.78818e+08,-4.78836e+08,66149.5,-0.00628618,0.0525553,-0,0.0529299,30937.6,-17434.1,0,35511.7,66149.5
step02_gravity_refstate-crust.xmf,1830,8.23674e-07,1.79632e-07,0,1.38541e-06,-5.46815e+08,-5.46859e+08,-5.46871e+08,95039,-0.0080706,0.0400213,-0,0.040827,26844.8,-19910.9,0,33422.9,95039
step02_gravity_refstate-crust.xmf,1831,8.59371e-07,1.30639e-07,0,1.49277e-06,-5.92401e+08,-5.92451e+08,-5.9246e+08,102404,-0.00815739,0.0340928,-0,0.0350551,25280.4,-21570.6,0,33232.4,102404
step02_gravity_refstate-crust.xmf,1832,1.99687e-06,-3.80557e-07,0,3.83763e-06,-7.47931e+08,-7.48094e+08,-7.48068e+08,263262,-0.0179925,-0.0479837,-0,0.0512462,11975.1,-27236.7,0,29753,263262
step02_gravity_refstate-crust.xmf,1833,1.89118e-06,-4.43429e-07,0,3.40866e-06,-7.46216e+08,-7.46376e+08,-7.46346e+08,233834,-0.0161211,-0.0380254,-0,0.0413016,13017.3,-27173.7,0,30130.7,233834
step02_gravity_refstate-crust.xmf,1834,1.71945e-06,-3.7639e-07,0,3.07809e-06,-7.22454e+08,-7.22598e+08,-7.22572e+08,211157,-0.0154456,-0.0263435,-0,0.0305377,14417,-26308,0,29999.4,211157
step02_gravity_refstate-crust.xmf,1835,1.61721e-06,-3.35363e-07,0,2.89812e-06,-7.0585e+08,-7.05984e+08,-7.05961e+08,198811,-0.0150479,-0.019531,-0,0.0246556,15316.5,-25703.2,0,29920.7,198811
step02_gravity_refstate-crust.xmf,1836,1.53087e-06,-2.45223e-07,0,2.85754e-06,-6.78339e+08,-6.7846e+08,-6.78444e+08,196028,-0.0154758,-0.014587,-0,0.0212669,16029.1,-24701.4,0,29446.4,196028
step02_gravity_refstate-crust.xmf,1837,1.35009e-06,-1.76765e-07,0,2.50752e-06,-6.5128e+08,-6.51385e+08,-6.51373e+08,172016,-0.0139079,-0.00168257,-0,0.0140093,18000.1,-23715.7,0,29773.1,172016
step02_gravity_refstate-crust.xmf,1838,1.18107e-06,-8.93186e-08,0,2.20686e-06,-6.19422e+08,-6.19509e+08,-6.19503e+08,151390,-0.0124871,0.0104444,-0,0.0162793,20118.1,-22555.3,0,30223.8,151390
step02_gravity_refstate-crust.xmf,1839,1.0854e-06,-3.71027e-08,0,1.95416e-06,-6.20229e+08,-6.20306e+08,-6.20303e+08,134055,-0.0107868,0.0180652,-0,0.0210406,21597.3,-22584.4,0,31249,134055
step02_gravity_refstate-crust.xmf,1840,9.76824e-07,3.27231e-08,0,1.7177e-06,-6.21813e+08,-6.21878e+08,-6.2188e+08,117834,-0.00918635,0.0250717,-0,0.0267017,23104,-22641.7,0,32348.7,117834
step02_gravity_refstate-crust.xmf,1841,1.89358e-06,-1.01177e-06,0,5.70499e-06,-8.67913e+08,-8.68112e+08,-8.68043e+08,391363,-0.00938253,-0.105321,-0,0.105738,7471.85,-31603.3,0,32474.6,391363
step02_gravity_refstate-crust.xmf,1842,2.11897e-06,-8.5204e-07,0,5.31644e-06,-8.49923e+08,-8.50127e+08,-8.50068e+08,364708,-0.0123235,-0.0961562,-0,0.0969427,8035.73,-30949.5,0,31975.7,364708
step02_gravity_refstate-crust.xmf,1843,2.02883e-06,-9.49204e-07,0,4.67509e-06,-8.49793e+08,-8.49998e+08,-8.49933e+08,320711,-0.0108421,-0.0846838,-0,0.085375,8768.06,-30944.3,0,32162.5,320711
step02_gravity_refstate-crust.xmf,1844,7.1757e-07,3.24935e-07,0,7.2685e-07,-4.81686e+08,-4.81713e+08,-4.81735e+08,49861.9,-0.00468348,0.0570002,-0,0.0571923,33044.8,-17539.7,0,37411.2,49861.9
step02_gravity_refstate-crust.xmf,1845,7.65338e-07,3.16978e-07,0,4.10965e-07,-4.35838e+08,-4.35869e+08,-4.35891e+08,28192.2,-0.00296469,0.0619518,-0,0.0620227,36085.8,-15870.7,0,39421.6,28192.2
step02_gravity_refstate-crust.xmf,1846,8.22935e-07,2.85046e-07,0,2.26867e-07,-4.05922e+08,-4.05959e+08,-4.05978e+08,15563.1,-0.00177897,0.0637202,-0,0.0637451,37834.2,-14781.8,0,40619.3,15563.1
step02_gravity_refstate-crust.xmf,1847,9.00709e-07,2.3546e-07,0,9.23192e-10,-3.71269e+08,-3.71314e+08,-3.7133e+08,63.331,-1.25811e-19,0.0646912,-0,0.0646912,40000,-13520.4,0,42223.2,63.331
step02_gravity_refstate-crust.xmf,1848,2.48676e-06,-1.85699e-05,0,1.48056e-05,-1.04429e+09,-1.04573e+09,-1.04446e+09,1.01566e+06,0.0293228,-0.188787,0,0.191051,2875,-37999.7,0,38108.3,1.01566e+06
step02_gravity_refstate-crust.xmf,1849,9.23533e-06,-3.25312e-05,0,1.27968e-05,-1.07081e+09,-1.07367e+09,-1.07144e+09,877861,0.0210995,-0.194924,0,0.196062,1776.84,-38970.8,0,39011.3,877861
step02_gravity_refstate-crust.xmf,1850,1.04522e-05,-3.55146e-05,0,6.62062e-06,-1.0847e+09,-1.08786e+09,-1.08542e+09,454174,0.00998458,-0.189526,0,0.189789,931.641,-39477,0,39488,454174
step02_gravity_refstate-crust.xmf,1851,7.30834e-07,2.74481e-07,0,1.05217e-06,-5.24939e+08,-5.2497e+08,-5.24989e+08,72178.8,-0.00626278,0.0492551,-0,0.0496516,29816.7,-19114.3,0,35417.4,72178.8
step02_gravity_refstate-crust.xmf,1852,7.96452e-07,1.95576e-07,0,1.33751e-06,-5.85221e+08,-5.85262e+08,-5.85276e+08,91753.5,-0.00723462,0.039088,-0,0.0397519,26649.5,-21309.1,0,34121.5,91753.5
step02_gravity_refstate-crust.xmf,1853,7.24129e-07,2.70823e-07,0,1.14234e-06,-5.71286e+08,-5.71317e+08,-5.71335e+08,78364.4,-0.00619453,0.0451269,-0,0.0455501,28508.6,-20801.6,0,35290.9,78364.4
step02_gravity_refstate-crust.xmf,1854,8.68214e-07,1.15857e-07,0,1.50162e-06,-6.25111e+08,-6.25163e+08,-6.25171e+08,103011,-0.00769702,0.0313183,-0,0.0322503,24603,-22761.5,0,33517.1,103011
step02_gravity_refstate-crust.xmf,1855,2.06494e-06,-5.18472e-07,0,3.86532e-06,-7.71335e+08,-7.71513e+08,-7.71477e+08,265161,-0.0168073,-0.0528731,-0,0.0554801,11466.4,-28088.8,0,30339.1,265161
step02_gravity_refstate-crust.xmf,1856,1.75183e-06,-4.67091e-07,0,3.04267e-06,-7.4437e+08,-7.44522e+08,-7.4449e+08,208727,-0.0144589,-0.0292834,-0,0.0326585,14019.9,-27105.9,0,30517,208727
step02_gravity_refstate-crust.xmf,1857,1.41776e-06,-2.45696e-07,0,2.52895e-06,-6.7968e+08,-6.79794e+08,-6.79777e+08,173486,-0.0135044,-0.00579721,-0,0.0146961,17319.2,-24749.8,0,30207.7,173486
step02_gravity_refstate-crust.xmf,1858,1.23984e-06,-1.5e-07,0,2.21671e-06,-6.52863e+08,-6.52958e+08,-6.52948e+08,152067,-0.0120468,0.00652379,-0,0.0136999,19384.1,-23772.9,0,30674,152067
step02_gravity_refstate-crust.xmf,1859,1.46434e-06,-1.32975e-06,0,6.01896e-06,-8.90044e+08,-8.90236e+08,-8.90145e+08,412900,-0.00439329,-0.111822,-0,0.111908,7078.21,-32406.8,0,33170.8,412900
step02_gravity_refstate-crust.xmf,1860,2.08808e-06,-6.53952e-07,0,3.88402e-06,-7.93439e+08,-7.93627e+08,-7.93582e+08,266444,-0.0152848,-0.0577759,-0,0.0597635,10976.6,-28893.4,0,30908.1,266444
step02_gravity_refstate-crust.xmf,1861,1.95802e-06,-9.08835e-07,0,3.9438e-06,-8.34955e+08,-8.35152e+08,-8.35089e+08,270545,-0.0111208,-0.0681002,-0,0.0690022,10014.3,-30403.9,0,32010.7,270545
step02_gravity_refstate-crust.xmf,1862,2.06386e-06,-7.80479e-07,0,3.92408e-06,-8.13962e+08,-8.14157e+08,-8.14104e+08,269192,-0.0135291,-0.0630648,-0,0.0644997,10475.4,-29640.3,0,31436.9,269192
step02_gravity_refstate-crust.xmf,1863,1.80634e-06,-1.01297e-06,0,4.04452e-06,-8.53063e+08,-8.53256e+08,-8.53187e+08,277454,-0.00872668,-0.0736529,-0,0.0741681,9540.21,-31062.3,0,32494.4,277454
step02_gravity_refstate-crust.xmf,1864,6.78298e-07,3.71423e-07,0,4.9438e-07,-4.83575e+08,-4.83596e+08,-4.83621e+08,33914.5,-0.00317003,0.0603036,-0,0.0603869,35183.4,-17608.3,0,39343.7,33914.5
step02_gravity_refstate-crust.xmf,1865,5.31065e-06,-2.5259e-05,0,1.48864e-05,-1.0691e+09,-1.07119e+09,-1.06946e+09,1.02121e+06,0.0259345,-0.182754,0,0.184585,2397.16,-38903.8,0,38977.6,1.02121e+06
step02_gravity_refstate-crust.xmf,1866,2.29625e-06,-1.94832e-05,0,1.46836e-05,-1.05938e+09,-1.06087e+09,-1.05954e+09,1.00729e+06,0.0292497,-0.17769,0,0.180081,2896.63,-38546.9,0,38655.6,1.00729e+06
step02_gravity_refstate-crust.xmf,1867,1.7884e-06,-1.54063e-05,0,1.37643e-05,-1.03659e+09,-1.03777e+09,-1.03672e+09,944234,0.0294674,-0.180869,0,0.183254,3280.74,-37721.6,0,37864,944234
step02_gravity_refstate-crust.xmf,1868,8.86937e-07,-1.11334e-05,0,1.22338e-05,-1.01817e+09,-1.01899e+09,-1.01823e+09,839238,0.0276529,-0.169296,0,0.171539,3956.16,-37053.7,0,37264.3,839238
step02_gravity_refstate-crust.xmf,1869,1.06916e-06,-1.71248e-06,0,6.54883e-06,-9.08296e+08,-9.08487e+08,-9.0837e+08,449249,0.000136747,-0.119247,0,0.119247,6663.6,-33069.1,0,33733.8,449249
step02_gravity_refstate-crust.xmf,1870,7.38106e-07,-2.23871e-06,0,7.24261e-06,-9.24509e+08,-9.24713e+08,-9.24559e+08,496843,0.00445493,-0.127221,0,0.127299,6247.04,-33657.2,0,34232,496843
step02_gravity_refstate-crust.xmf,1871,5.02989e-07,-3.08193e-06,0,8.27944e-06,-9.40662e+08,-9.40908e+08,-9.40696e+08,567970,0.00891245,-0.137688,0,0.137976,5742.77,-34243,0,34721.2,567970
step02_gravity_refstate-crust.xmf,1872,5.87806e-07,-8.98767e-06,0,1.14644e-05,-1.00446e+09,-1.00512e+09,-1.0045e+09,786458,0.0252477,-0.163254,0,0.165194,4331.84,-36556.8,0,36812.6,786458
step02_gravity_refstate-crust.xmf,1873,3.62679e-07,-7.0921e-06,0,1.06427e-05,-9.90001e+08,-9.90512e+08,-9.90026e+08,730091,0.0221231,-0.156679,0,0.158233,4707.89,-36032.5,0,36338.7,730091
step02_gravity_refstate-crust.xmf,1874,2.46143e-07,-5.47425e-06,0,9.76543e-06,-9.75052e+08,-9.75444e+08,-9.75069e+08,669908,0.0184323,-0.149517,0,0.150649,5089.6,-35490.3,0,35853.4,669908
step02_gravity_refstate-crust.xmf,1875,2.78994e-07,-4.14646e-06,0,8.91838e-06,-9.59083e+08,-9.59387e+08,-9.59102e+08,611801,0.0141401,-0.1426,0,0.1433,5455.54,-34911.1,0,35334.8,611801
step02_gravity_refstate-crust.xmf,1876,8.93339e-06,-3.24124e-05,0,1.02093e-05,-1.08485e+09,-1.08768e+09,-1.08546e+09,700359,0.0153104,-0.183114,0,0.183753,1492.82,-39480.9,0,39509.1,700359
step02_gravity_refstate-crust.xmf,1877,6.56693e-07,3.54626e-07,0,8.10159e-07,-5.30761e+08,-5.30782e+08,-5.30806e+08,55576.9,-0.00468854,0.0541991,-0,0.0544015,31930.2,-19326.1,0,37323.4,55576.9
step02_gravity_refstate-crust.xmf,1878,7.60099e-07,2.04363e-07,0,1.30254e-06,-6.2455e+08,-6.24588e+08,-6.24602e+08,89354.5,-0.00643204,0.0371951,-0,0.0377471,26185.5,-22740.8,0,34681.8,89354.5
step02_gravity_refstate-crust.xmf,1879,1.9228e-06,-5.69771e-07,0,3.40832e-06,-7.70275e+08,-7.70446e+08,-7.70407e+08,233811,-0.0149236,-0.0427564,-0,0.045286,12467.3,-28049.5,0,30695.4,233811
step02_gravity_refstate-crust.xmf,1880,1.78572e-06,-5.58066e-07,0,3.03157e-06,-7.68773e+08,-7.68933e+08,-7.68895e+08,207966,-0.0131669,-0.0332787,-0,0.0357888,13501.3,-27994.3,0,31080,207966
step02_gravity_refstate-crust.xmf,1881,1.61992e-06,-4.40716e-07,0,2.74084e-06,-7.39503e+08,-7.39645e+08,-7.39615e+08,188021,-0.013056,-0.0208156,-0,0.0245713,15087,-26928.2,0,30866.6,188021
step02_gravity_refstate-crust.xmf,1882,1.46662e-06,-3.2307e-07,0,2.51195e-06,-7.07816e+08,-7.07939e+08,-7.07917e+08,172320,-0.0127394,-0.00938898,-0,0.0158254,16734.9,-25774.2,0,30730.6,172320
step02_gravity_refstate-crust.xmf,1883,1.29312e-06,-2.12204e-07,0,2.22965e-06,-6.83465e+08,-6.83568e+08,-6.83554e+08,152954,-0.0115523,0.00225738,-0,0.0117708,18612.7,-24887.1,0,31077.3,152954
step02_gravity_refstate-crust.xmf,1884,1.11846e-06,-9.00346e-08,0,1.95544e-06,-6.54273e+08,-6.54356e+08,-6.54349e+08,134143,-0.0102932,0.0142437,-0,0.0175736,20819.1,-23823.8,0,31638.7,134143
step02_gravity_refstate-crust.xmf,1885,1.00166e-06,-4.42447e-09,0,1.72555e-06,-6.55699e+08,-6.55768e+08,-6.55767e+08,118373,-0.00867509,0.0214012,-0,0.0230926,22293.6,-23875.4,0,32665.5,118373
step02_gravity_refstate-crust.xmf,1886,8.78558e-07,9.01635e-08,0,1.51424e-06,-6.57441e+08,-6.57496e+08,-6.57502e+08,103877,-0.0072168,0.0278786,-0,0.0287975,23780.4,-23938.5,0,33742.5,103877
step02_gravity_refstate-crust.xmf,1887,1.75168e-06,-1.13143e-06,0,4.80764e-06,-8.69397e+08,-8.69595e+08,-8.69517e+08,329804,-0.00747944,-0.0907374,-0,0.0910451,8327.44,-31656.6,0,32733.6,329804
step02_gravity_refstate-crust.xmf,1888,1.61335e-06,-1.12076e-06,0,4.17536e-06,-8.70422e+08,-8.7061e+08,-8.70533e+08,286429,-0.00593489,-0.0788361,-0,0.0790591,9116.6,-31693.4,0,32978.5,286429
step02_gravity_refstate-crust.xmf,1889,6.0253e-07,4.2161e-07,0,5.88081e-07,-5.3337e+08,-5.33382e+08,-5.33411e+08,40342.4,-0.00332141,0.057986,-0,0.0580811,34044.6,-19421,0,39194.5,40342.4
step02_gravity_refstate-crust.xmf,1890,6.6513e-07,3.95466e-07,0,2.38777e-07,-4.78763e+08,-4.78781e+08,-4.78808e+08,16380.1,-0.00155182,0.0627051,-0,0.0627243,37650.7,-17433.1,0,41490.8,16380.1
step02_gravity_refstate-crust.xmf,1891,7.4071e-07,3.46069e-07,0,1.78115e-09,-4.40575e+08,-4.40602e+08,-4.40625e+08,122.187,-1.10636e-19,0.0639579,-0,0.0639579,40000,-16043.1,0,43097.3,122.187
step02_gravity_refstate-crust.xmf,1892,1.02255e-06,-1.56038e-05,0,1.35731e-05,-1.05183e+09,-1.05297e+09,-1.0519e+09,931117,0.0303667,-0.17052,0,0.173203,3340.53,-38272.9,0,38418.4,931117
step02_gravity_refstate-crust.xmf,1893,9.83048e-07,-1.28469e-05,0,1.26263e-05,-1.03036e+09,-1.03131e+09,-1.03043e+09,866161,0.0293061,-0.171219,0,0.173709,3710.55,-37495.4,0,37678.6,866161
step02_gravity_refstate-crust.xmf,1894,6.47466e-06,-2.75185e-05,0,1.29112e-05,-1.08513e+09,-1.08746e+09,-1.08557e+09,885710,0.0197706,-0.17363,0,0.174752,2087.57,-39488.9,0,39544,885710
step02_gravity_refstate-crust.xmf,1895,6.10351e-07,3.76256e-07,0,8.77898e-07,-5.77394e+08,-5.77411e+08,-5.77436e+08,60223.8,-0.00453862,0.0510763,-0,0.0512776,30798.1,-21023.7,0,37289.7,60223.8
step02_gravity_refstate-crust.xmf,1896,6.68269e-07,3.00635e-07,0,1.11577e-06,-6.22865e+08,-6.2289e+08,-6.22911e+08,76541.8,-0.00527561,0.0427298,-0,0.0430543,27884.4,-22679.2,0,35942.8,76541.8
step02_gravity_refstate-crust.xmf,1897,7.50121e-07,2.00681e-07,0,1.30435e-06,-6.59281e+08,-6.59318e+08,-6.59332e+08,89478.7,-0.00580379,0.0342947,-0,0.0347823,25441.8,-24005.1,0,34979,89478.7
step02_gravity_refstate-crust.xmf,1898,1.92299e-06,-6.8745e-07,0,3.4043e-06,-7.93618e+08,-7.93797e+08,-7.9375e+08,233535,-0.0133274,-0.0474353,-0,0.0492719,11942.6,-28899.2,0,31269.6,233535
step02_gravity_refstate-crust.xmf,1899,1.61702e-06,-5.24922e-07,0,2.69296e-06,-7.66846e+08,-7.66993e+08,-7.66957e+08,184737,-0.0115628,-0.0244748,-0,0.0270687,14558.9,-27923.5,0,31491,184737
step02_gravity_refstate-crust.xmf,1900,1.47576e-06,-3.93375e-07,0,2.45266e-06,-7.37481e+08,-7.37609e+08,-7.37582e+08,168252,-0.0114622,-0.012575,-0,0.0170151,16216.9,-26854.1,0,31370.8,168252
step02_gravity_refstate-crust.xmf,1901,1.34368e-06,-2.63552e-07,0,2.27117e-06,-7.06609e+08,-7.06719e+08,-7.06701e+08,155802,-0.0112139,-0.00201793,-0,0.0113941,17874.8,-25729.8,0,31329.4,155802
step02_gravity_refstate-crust.xmf,1902,1.14825e-06,-1.42295e-07,0,1.94835e-06,-6.87783e+08,-6.87872e+08,-6.87862e+08,133657,-0.00959499,0.0102578,-0,0.0140458,20030.6,-25043.9,0,32069,133657
step02_gravity_refstate-crust.xmf,1903,1.40254e-06,-1.33671e-06,0,5.0664e-06,-8.8899e+08,-8.89178e+08,-8.89086e+08,347555,-0.00351815,-0.0972513,-0,0.0973149,7880.19,-32368.2,0,33313.6,347555
step02_gravity_refstate-crust.xmf,1904,9.8844e-07,-1.62375e-06,0,5.44899e-06,-9.0832e+08,-9.085e+08,-9.08388e+08,373800,0.000946866,-0.103922,0,0.103927,7445.42,-33069.8,0,33897.6,373800
step02_gravity_refstate-crust.xmf,1905,1.86869e-06,-8.01253e-07,0,3.406e-06,-8.16386e+08,-8.16569e+08,-8.16514e+08,233652,-0.0113375,-0.0523813,-0,0.0535942,11412.2,-29727.7,0,31842.9,233652
step02_gravity_refstate-crust.xmf,1906,1.5208e-06,-9.99109e-07,0,3.45507e-06,-8.61136e+08,-8.61309e+08,-8.61241e+08,237018,-0.0057933,-0.0626069,-0,0.0628744,10386,-31355.1,0,33030.5,237018
step02_gravity_refstate-crust.xmf,1907,1.74625e-06,-9.03599e-07,0,3.4183e-06,-8.38064e+08,-8.38245e+08,-8.38183e+08,234495,-0.00894982,-0.0573151,-0,0.0580097,10906.1,-30516.2,0,32406.5,234495
step02_gravity_refstate-crust.xmf,1908,1.44455e-06,-1.075e-06,0,3.70388e-06,-8.7195e+08,-8.72123e+08,-8.72049e+08,254086,-0.00456505,-0.0693604,-0,0.0695105,9811.79,-31748.4,0,33230,254086
step02_gravity_refstate-crust.xmf,1909,5.59112e-07,4.67697e-07,0,3.76873e-07,-5.34791e+08,-5.34797e+08,-5.34829e+08,25853.5,-0.00210385,0.0605815,-0,0.0606181,36119.3,-19472.6,0,41034,25853.5
step02_gravity_refstate-crust.xmf,1910,2.54152e-06,-1.96594e-05,0,1.44749e-05,-1.07278e+09,-1.0743e+09,-1.07295e+09,992976,0.0271947,-0.167125,0,0.169323,2934.87,-39035.4,0,39145.6,992976
step02_gravity_refstate-crust.xmf,1911,1.09469e-06,-1.62945e-05,0,1.36451e-05,-1.06704e+09,-1.06824e+09,-1.06712e+09,936057,0.0291054,-0.160692,0,0.163307,3379.34,-38826,0,38972.7,936057
step02_gravity_refstate-crust.xmf,1912,3.28656e-07,-1.28083e-05,0,1.24691e-05,-1.04398e+09,-1.04488e+09,-1.044e+09,855380,0.0305613,-0.162855,0,0.165697,3783.33,-37988.7,0,38176.6,855380
step02_gravity_refstate-crust.xmf,1913,-7.34484e-08,-1.06472e-05,0,1.1441e-05,-1.0336e+09,-1.03433e+09,-1.03359e+09,784850,0.0299079,-0.156185,0,0.159023,4211.22,-37612.5,0,37847.5,784850
step02_gravity_refstate-crust.xmf,1914,-2.27749e-07,-8.7845e-06,0,1.06363e-05,-1.0203e+09,-1.02089e+09,-1.02029e+09,729648,0.0282131,-0.151255,0,0.153864,4585.59,-37130.6,0,37412.7,729648
step02_gravity_refstate-crust.xmf,1915,5.81559e-07,-2.03036e-06,0,5.97778e-06,-9.26355e+08,-9.26534e+08,-9.26395e+08,410075,0.00548427,-0.110977,0,0.111112,7011.38,-33724.1,0,34445.2,410075
step02_gravity_refstate-crust.xmf,1916,2.29396e-07,-2.61376e-06,0,6.6555e-06,-9.43301e+08,-9.43497e+08,-9.43317e+08,456567,0.00997073,-0.118529,0,0.118947,6570.57,-34338.7,0,34961.7,456567
step02_gravity_refstate-crust.xmf,1917,-3.19196e-07,-7.12149e-06,0,9.82956e-06,-1.0063e+09,-1.00677e+09,-1.00628e+09,674308,0.0257091,-0.145594,0,0.147846,4967.43,-36623.1,0,36958.4,674308
step02_gravity_refstate-crust.xmf,1918,-3.38468e-07,-5.65943e-06,0,9.00449e-06,-9.91751e+08,-9.92116e+08,-9.91727e+08,617708,0.022542,-0.139222,0,0.141035,5360.31,-36095.5,0,36491.4,617708
step02_gravity_refstate-crust.xmf,1919,-2.57203e-07,-4.41632e-06,0,8.18204e-06,-9.7641e+08,-9.76695e+08,-9.76392e+08,561288,0.0187798,-0.132477,0,0.133801,5759.12,-35539.3,0,36002.9,561288
step02_gravity_refstate-crust.xmf,1920,-6.47999e-08,-3.40421e-06,0,7.39799e-06,-9.60168e+08,-9.60397e+08,-9.60164e+08,507502,0.014517,-0.125672,0,0.126508,6156.73,-34950.3,0,35488.5,507502
step02_gravity_refstate-crust.xmf,1921,3.86567e-06,-2.2127e-05,0,1.40424e-05,-1.08519e+09,-1.08697e+09,-1.08545e+09,963312,0.0228392,-0.162655,0,0.164251,2690.08,-39488.8,0,39580.3,963312
step02_gravity_refstate-crust.xmf,1922,5.66093e-07,4.03343e-07,0,9.15484e-07,-6.23669e+08,-6.2368e+08,-6.23708e+08,62802.2,-0.00408917,0.0479727,-0,0.0481467,29786.4,-22708.2,0,37455.2,62802.2
step02_gravity_refstate-crust.xmf,1923,5.28362e-07,4.6452e-07,0,6.58231e-07,-5.82287e+08,-5.82291e+08,-5.82323e+08,45154.7,-0.0032471,0.0553151,-0,0.0554103,32907,-21201.6,0,39145.6,45154.7
step02_gravity_refstate-crust.xmf,1924,6.28167e-07,3.08208e-07,0,1.11384e-06,-6.61338e+08,-6.6136e+08,-6.61382e+08,76409.6,-0.00460179,0.039841,-0,0.0401059,27086.7,-24079.7,0,36242.5,76409.6
step02_gravity_refstate-crust.xmf,1925,1.75041e-06,-6.63907e-07,0,2.99777e-06,-7.93256e+08,-7.93422e+08,-7.93376e+08,205647,-0.0115157,-0.037662,-0,0.0393832,12953.5,-28885.3,0,31656.9,205647
step02_gravity_refstate-crust.xmf,1926,1.5978e-06,-5.96489e-07,0,2.66983e-06,-7.92312e+08,-7.92462e+08,-7.92421e+08,183150,-0.00989247,-0.0285804,-0,0.030244,13992.7,-28850.4,0,32064.7,183150
step02_gravity_refstate-crust.xmf,1927,1.45837e-06,-4.58039e-07,0,2.40009e-06,-7.65635e+08,-7.65766e+08,-7.65735e+08,164646,-0.00996485,-0.0160413,-0,0.0188844,15670.5,-27878.9,0,31981.2,164646
step02_gravity_refstate-crust.xmf,1928,1.29523e-06,-3.05302e-07,0,2.12796e-06,-7.38871e+08,-7.3898e+08,-7.38959e+08,145978,-0.00936227,-0.00301777,-0,0.00983662,17661,-26904.1,0,32182.9,145978
step02_gravity_refstate-crust.xmf,1929,1.18391e-06,-1.97322e-07,0,1.95532e-06,-7.21613e+08,-7.21707e+08,-7.21694e+08,134135,-0.00874253,0.00537187,-0,0.010261,19102.5,-26275.5,0,32485.5,134135
step02_gravity_refstate-crust.xmf,1930,1.00225e-06,-4.28354e-08,0,1.70711e-06,-6.89577e+08,-6.89649e+08,-6.89646e+08,117108,-0.00790298,0.0177927,-0,0.0194688,21519.5,-25108.7,0,33068.7,117108
step02_gravity_refstate-crust.xmf,1931,8.71138e-07,7.08095e-08,0,1.50038e-06,-6.91006e+08,-6.91061e+08,-6.91066e+08,102926,-0.00642457,0.0246329,-0,0.0254569,23031,-25160.4,0,34109.7,102926
step02_gravity_refstate-crust.xmf,1932,7.38893e-07,1.86632e-07,0,1.30931e-06,-6.91923e+08,-6.91961e+08,-6.91974e+08,89818.6,-0.00514219,0.0308979,-0,0.0313229,24587.3,-25193.4,0,35202.9,89818.6
step02_gravity_refstate-crust.xmf,1933,1.27445e-06,-1.28408e-06,0,4.31174e-06,-8.89349e+08,-8.89525e+08,-8.89436e+08,295785,-0.0023361,-0.0840988,-0,0.0841313,8700.68,-32380.8,0,33529.4,295785
step02_gravity_refstate-crust.xmf,1934,1.14258e-06,-1.16162e-06,0,3.73863e-06,-8.89782e+08,-8.8994e+08,-8.8986e+08,256470,-0.00124007,-0.0722965,-0,0.0723071,9533,-32396.2,0,33769.7,256470
step02_gravity_refstate-crust.xmf,1935,4.81129e-07,5.24552e-07,0,4.65355e-07,-5.81393e+08,-5.8139e+08,-5.81426e+08,31923.3,-0.0022377,0.0584079,-0,0.0584507,34939.2,-21169,0,40851.8,31923.3
step02_gravity_refstate-crust.xmf,1936,5.14104e-07,5.12834e-07,0,1.72747e-07,-5.4577e+08,-5.4577e+08,-5.45805e+08,11850.4,-0.000928198,0.0618821,-0,0.061889,38178.8,-19872.2,0,43040.9,11850.4
step02_gravity_refstate-crust.xmf,1937,5.91724e-07,4.55408e-07,0,1.39378e-09,-5.0868e+08,-5.08689e+08,-5.0872e+08,95.6134,-6.67192e-20,0.0629631,-0,0.0629631,40000,-18522.1,0,44080.2,95.6134
step02_gravity_refstate-crust.xmf,1938,9.7826e-08,-1.3148e-05,0,1.26487e-05,-1.05943e+09,-1.06034e+09,-1.05944e+09,867697,0.0302788,-0.154083,0,0.15703,3841.28,-38549.8,0,38740.7,867697
step02_gravity_refstate-crust.xmf,1939,1.7142e-06,-1.71483e-05,0,1.38497e-05,-1.08393e+09,-1.08522e+09,-1.08404e+09,950087,0.0250725,-0.151001,0,0.153068,3348.73,-39441.8,0,39583.7,950087
step02_gravity_refstate-crust.xmf,1940,4.69711e-07,4.98424e-07,0,7.13492e-07,-6.26186e+08,-6.26184e+08,-6.26218e+08,48945.5,-0.00299992,0.0524375,-0,0.0525233,31789.1,-22799.6,0,39119.9,48945.5
step02_gravity_refstate-crust.xmf,1941,4.96778e-07,4.40307e-07,0,9.04541e-07,-6.69985e+08,-6.69989e+08,-6.70019e+08,62051.5,-0.00325045,0.0452671,-0,0.0453837,29009.5,-24394.2,0,37902.9,62051.5
step02_gravity_refstate-crust.xmf,1942,6.08186e-07,3.09431e-07,0,1.12412e-06,-6.94362e+08,-6.94383e+08,-6.94404e+08,77114.5,-0.00393886,0.0367398,-0,0.0369503,26241.8,-25281.9,0,36439.1,77114.5
step02_gravity_refstate-crust.xmf,1943,1.67769e-06,-7.55032e-07,0,2.98113e-06,-8.17037e+08,-8.17204e+08,-8.17152e+08,204506,-0.0094948,-0.0422678,-0,0.0433211,12401.7,-29750.7,0,32232,204506
step02_gravity_refstate-crust.xmf,1944,1.41371e-06,-5.1765e-07,0,2.36694e-06,-7.91667e+08,-7.91799e+08,-7.91764e+08,162372,-0.00834689,-0.020028,-0,0.0216978,15071,-28826.3,0,32528.3,162372
step02_gravity_refstate-crust.xmf,1945,1.28752e-06,-3.67368e-07,0,2.12576e-06,-7.67037e+08,-7.67151e+08,-7.67126e+08,145827,-0.00822384,-0.0078761,-0,0.011387,16849.7,-27929.4,0,32618.5,145827
step02_gravity_refstate-crust.xmf,1946,9.92813e-07,-7.64137e-08,0,1.68217e-06,-7.23688e+08,-7.23762e+08,-7.23756e+08,115397,-0.00686033,0.0139815,-0,0.0155739,20725.3,-26350.5,0,33524.4,115397
step02_gravity_refstate-crust.xmf,1947,8.75006e-07,-1.48678e-06,0,4.5988e-06,-9.08703e+08,-9.08865e+08,-9.08763e+08,315477,0.00178879,-0.0902252,0,0.0902429,8244.66,-33083.5,0,34095.3,315477
step02_gravity_refstate-crust.xmf,1948,4.41775e-07,-1.77625e-06,0,5.01037e-06,-9.27541e+08,-9.27693e+08,-9.27572e+08,343712,0.0061992,-0.0965804,0,0.0967791,7794.5,-33767.1,0,34655,343712
step02_gravity_refstate-crust.xmf,1949,1.54412e-06,-8.34971e-07,0,2.98062e-06,-8.39697e+08,-8.3986e+08,-8.39803e+08,204471,-0.00711921,-0.0469738,-0,0.0475102,11862.9,-30575,0,32795.7,204471
step02_gravity_refstate-crust.xmf,1950,1.04376e-06,-1.03239e-06,0,3.21187e-06,-8.86906e+08,-8.87049e+08,-8.86978e+08,220334,-0.000787295,-0.060485,-0,0.0604901,10485,-32291.3,0,33950.9,220334
step02_gravity_refstate-crust.xmf,1951,1.33249e-06,-9.09623e-07,0,3.01814e-06,-8.62675e+08,-8.62829e+08,-8.62767e+08,207044,-0.00422625,-0.052232,-0,0.0524027,11292.4,-31410.5,0,33378.7,207044
step02_gravity_refstate-crust.xmf,1952,4.5309e-07,5.57128e-07,0,3.03043e-07,-5.79259e+08,-5.79251e+08,-5.7929e+08,20788.7,-0.00144715,0.0602666,-0,0.0602839,36685.6,-21091.2,0,42316.3,20788.7
step02_gravity_refstate-crust.xmf,1953,3.70664e-07,-1.37438e-05,0,1.28927e-05,-1.07507e+09,-1.07603e+09,-1.07509e+09,884437,0.0279748,-0.145424,0,0.14809,3886.13,-39119.1,0,39311.6,884437
step02_gravity_refstate-crust.xmf,1954,-6.06597e-07,-1.04842e-05,0,1.14148e-05,-1.0516e+09,-1.05228e+09,-1.05156e+09,783057,0.03054,-0.144989,0,0.14817,4390.57,-38265.9,0,38517,783057
step02_gravity_refstate-crust.xmf,1955,-9.48533e-07,-6.94679e-06,0,9.3979e-06,-1.0227e+09,-1.02311e+09,-1.02263e+09,644696,0.0281697,-0.135307,0,0.138208,5225.6,-37217.7,0,37582.8,644696
step02_gravity_refstate-crust.xmf,1956,-8.74617e-07,-8.48322e-06,0,1.02991e-05,-1.03673e+09,-1.03725e+09,-1.03667e+09,706519,0.0298668,-0.140218,0,0.143364,4831.72,-37726.5,0,38034.6,706519
step02_gravity_refstate-crust.xmf,1957,2.93884e-08,-2.19608e-06,0,5.55832e-06,-9.45358e+08,-9.45511e+08,-9.4536e+08,381301,0.0106166,-0.103337,0,0.103881,7339.62,-34413.4,0,35187.4,381301
step02_gravity_refstate-crust.xmf,1958,-3.32687e-07,-2.77011e-06,0,6.2024e-06,-9.62252e+08,-9.62419e+08,-9.62229e+08,425485,0.0149063,-0.110068,0,0.111073,6900.02,-35026.1,0,35699.3,425485
step02_gravity_refstate-crust.xmf,1959,-9.3761e-07,-5.62115e-06,0,8.54048e-06,-1.00877e+09,-1.00909e+09,-1.00871e+09,585877,0.0257433,-0.129522,0,0.132056,5630.47,-36712.9,0,37142.1,585877
step02_gravity_refstate-crust.xmf,1960,-8.34864e-07,-4.48324e-06,0,7.71417e-06,-9.94253e+08,-9.94503e+08,-9.94195e+08,529192,0.0226795,-0.123249,0,0.125318,6045.46,-36186.4,0,36688,529192
step02_gravity_refstate-crust.xmf,1961,-6.26653e-07,-3.52698e-06,0,6.92528e-06,-9.78578e+08,-9.78777e+08,-9.78535e+08,475074,0.0189871,-0.116708,0,0.118243,6470.65,-35618.1,0,36201.1,475074
step02_gravity_refstate-crust.xmf,1962,4.35541e-07,5.14036e-07,0,7.64579e-07,-6.58941e+08,-6.58936e+08,-6.58971e+08,52450.1,-0.00274509,0.0496197,-0,0.0496956,30734.5,-23992,0,38990.1,52450.1
step02_gravity_refstate-crust.xmf,1963,3.89045e-07,5.87183e-07,0,5.19527e-07,-6.30268e+08,-6.30254e+08,-6.30295e+08,35639.6,-0.0020297,0.0559683,-0,0.0560051,33876.8,-22948,0,40917.6,35639.6
step02_gravity_refstate-crust.xmf,1964,4.98571e-07,4.17667e-07,0,9.70337e-07,-6.96985e+08,-6.9699e+08,-6.97019e+08,66565.1,-0.00301036,0.0413933,-0,0.0415026,27756.9,-25377.1,0,37609.1,66565.1
step02_gravity_refstate-crust.xmf,1965,1.49394e-06,-6.73954e-07,0,2.62992e-06,-8.17529e+08,-8.17677e+08,-8.17631e+08,180413,-0.00782484,-0.0329309,-0,0.0338478,13415.6,-29767.9,0,32651.3,180413
step02_gravity_refstate-crust.xmf,1966,1.33689e-06,-5.64715e-07,0,2.347e-06,-8.17386e+08,-8.17517e+08,-8.17478e+08,161005,-0.00636391,-0.0242052,-0,0.0250278,14465.9,-29762.3,0,33091.7,161005
step02_gravity_refstate-crust.xmf,1967,1.2371e-06,-4.13877e-07,0,2.10059e-06,-7.93767e+08,-7.9388e+08,-7.93852e+08,144100,-0.0066686,-0.0120038,-0,0.0137318,16179.6,-28902.3,0,33122.8,144100
step02_gravity_refstate-crust.xmf,1968,1.09437e-06,-2.54257e-07,0,1.86054e-06,-7.76123e+08,-7.76216e+08,-7.76198e+08,127633,-0.00608539,-0.000486543,-0,0.00610481,18014,-28259.6,0,33512.8,127633
step02_gravity_refstate-crust.xmf,1969,1.08896e-06,-2.0252e-07,0,1.82301e-06,-7.55706e+08,-7.55795e+08,-7.55781e+08,125058,-0.00674697,0.00412734,-0,0.00790927,18838.3,-27516.3,0,33347.1,125058
step02_gravity_refstate-crust.xmf,1970,9.58827e-07,-9.09372e-08,0,1.64292e-06,-7.5731e+08,-7.57382e+08,-7.57375e+08,112704,-0.0054249,0.0105397,-0,0.0118539,20026,-27574.4,0,34079.1,112704
step02_gravity_refstate-crust.xmf,1971,8.39461e-07,5.02481e-08,0,1.47307e-06,-7.25342e+08,-7.25396e+08,-7.254e+08,101053,-0.00538357,0.0210901,-0,0.0217664,22235.9,-26410.3,0,34524.5,101053
step02_gravity_refstate-crust.xmf,1972,7.08284e-07,1.79942e-07,0,1.29525e-06,-7.26061e+08,-7.26097e+08,-7.26109e+08,88854.1,-0.004166,0.0275066,-0,0.0278203,23769.2,-26436.1,0,35550.5,88854.1
step02_gravity_refstate-crust.xmf,1973,5.74585e-07,3.10093e-07,0,1.12368e-06,-7.27367e+08,-7.27386e+08,-7.27407e+08,77084.4,-0.00308485,0.0334439,-0,0.0335859,25377.9,-26483.3,0,36679.7,77084.4
step02_gravity_refstate-crust.xmf,1974,7.40452e-07,-1.31605e-06,0,3.91778e-06,-9.09633e+08,-9.09775e+08,-9.09684e+08,268760,0.002691,-0.0774637,0,0.0775104,9091.56,-33117.1,0,34342.4,268760
step02_gravity_refstate-crust.xmf,1975,6.21616e-07,-1.10771e-06,0,3.39005e-06,-9.10442e+08,-9.10561e+08,-9.10485e+08,232558,0.00347429,-0.0655307,0,0.0656227,9992.44,-33146.4,0,34619.8,232558
step02_gravity_refstate-crust.xmf,1976,3.52386e-07,6.37717e-07,0,3.34637e-07,-6.2574e+08,-6.25721e+08,-6.25764e+08,22956.1,-0.00128697,0.0586924,-0,0.0587065,36048.8,-22783.1,0,42644.9,22956.1
step02_gravity_refstate-crust.xmf,1977,3.64903e-07,6.34611e-07,0,1.60171e-07,-6.08599e+08,-6.08581e+08,-6.08624e+08,10987.7,-0.00066755,0.0605545,-0,0.0605582,38141.9,-22159.1,0,44111.6,10987.7
step02_gravity_refstate-crust.xmf,1978,4.3694e-07,5.7693e-07,0,1.88809e-09,-5.75788e+08,-5.75778e+08,-5.75818e+08,129.523,-4.80581e-20,0.0617021,-0,0.0617021,40000,-20964.8,0,45161.1,129.523
step02_gravity_refstate-crust.xmf,1979,-3.41196e-07,-1.15458e-05,0,1.20711e-05,-1.06661e+09,-1.06738e+09,-1.06659e+09,828080,0.0294419,-0.141373,0,0.144406,4277.85,-38811.9,0,39046.9,828080
step02_gravity_refstate-crust.xmf,1980,3.05381e-07,6.46263e-07,0,5.71333e-07,-6.79928e+08,-6.79905e+08,-6.79949e+08,39193.4,-0.00157606,0.052872,-0,0.0528955,32629.2,-24755.7,0,40957.4,39193.4
step02_gravity_refstate-crust.xmf,1981,3.27222e-07,6.00203e-07,0,7.03502e-07,-7.00824e+08,-7.00805e+08,-7.00846e+08,48260.3,-0.0016999,0.0486575,-0,0.0486872,30682.5,-25516.4,0,39906.2,48260.3
step02_gravity_refstate-crust.xmf,1982,4.50097e-07,4.38499e-07,0,9.62617e-07,-7.29305e+08,-7.29305e+08,-7.29335e+08,66035.5,-0.0021614,0.0387886,-0,0.0388488,27042.9,-26553.6,0,37900,66035.5
step02_gravity_refstate-crust.xmf,1983,3.47945e-07,5.56037e-07,0,8.08137e-07,-7.25059e+08,-7.25044e+08,-7.25083e+08,55438.2,-0.00156589,0.0440982,-0,0.044126,28942.9,-26398.8,0,39173.8,55438.2
step02_gravity_refstate-crust.xmf,1984,1.35495e-06,-7.33731e-07,0,2.62426e-06,-8.41054e+08,-8.41197e+08,-8.41146e+08,180024,-0.00550248,-0.0374783,-0,0.0378801,12841.3,-30623.7,0,33207.1,180024
step02_gravity_refstate-crust.xmf,1985,1.15497e-06,-4.53041e-07,0,2.09152e-06,-8.18515e+08,-8.18626e+08,-8.18594e+08,143478,-0.00493678,-0.0162808,-0,0.0170128,15515.2,-29802.8,0,33599.6,143478
step02_gravity_refstate-crust.xmf,1986,1.05879e-06,-2.98165e-07,0,1.86725e-06,-7.99406e+08,-7.99499e+08,-7.99479e+08,128093,-0.00490677,-0.00489637,-0,0.00693187,17253.6,-29107,0,33836.4,128093
step02_gravity_refstate-crust.xmf,1987,7.88341e-07,4.14003e-08,0,1.43987e-06,-7.59948e+08,-7.59999e+08,-7.60002e+08,98774.7,-0.00401288,0.0175035,-0,0.0179576,21456.2,-27669.9,0,35014.2,98774.7
step02_gravity_refstate-crust.xmf,1988,3.06532e-07,-1.51741e-06,0,4.25942e-06,-9.29028e+08,-9.29153e+08,-9.29049e+08,292196,0.00686634,-0.0835009,0,0.0837827,8608.03,-33821.1,0,34899.4,292196
step02_gravity_refstate-crust.xmf,1989,-1.11883e-07,-1.81446e-06,0,4.7299e-06,-9.46892e+08,-9.47009e+08,-9.46884e+08,324471,0.0109597,-0.0899454,0,0.0906107,8121.28,-34469.3,0,35413.1,324471
step02_gravity_refstate-crust.xmf,1990,1.15435e-06,-7.88515e-07,0,2.65558e-06,-8.6404e+08,-8.64174e+08,-8.6412e+08,182173,-0.00281804,-0.0424652,-0,0.0425586,12245.1,-31459.7,0,33758.8,182173
step02_gravity_refstate-crust.xmf,1991,8.72296e-07,-8.63586e-07,0,2.7792e-06,-8.88242e+08,-8.88361e+08,-8.88302e+08,190653,0.000440026,-0.0490878,0,0.0490898,11512.3,-32339.5,0,34327.5,190653
step02_gravity_refstate-crust.xmf,1992,4.97291e-07,-9.23051e-07,0,2.93652e-06,-9.11343e+08,-9.1144e+08,-9.11377e+08,201445,0.0041773,-0.0544194,0,0.0545795,10943,-33178.9,0,34937,201445
step02_gravity_refstate-crust.xmf,1993,9.20547e-07,-1.40552e-05,0,1.32714e-05,-1.08881e+09,-1.08984e+09,-1.08888e+09,910420,0.0242722,-0.137449,0,0.139576,3938.1,-39621.4,0,39816.6,910420
step02_gravity_refstate-crust.xmf,1994,-1.55416e-07,-1.09427e-05,0,1.20523e-05,-1.08163e+09,-1.08237e+09,-1.08162e+09,826784,0.0265511,-0.129592,0,0.132284,4572.08,-39360.3,0,39624.9,826784
step02_gravity_refstate-crust.xmf,1995,-8.17321e-07,-9.68566e-06,0,1.11984e-05,-1.06466e+09,-1.06527e+09,-1.0646e+09,768207,0.0294237,-0.133071,0,0.136285,4731.96,-38741.6,0,39029.6,768207
step02_gravity_refstate-crust.xmf,1996,-1.16733e-06,-8.19016e-06,0,1.02868e-05,-1.05289e+09,-1.05337e+09,-1.05281e+09,705674,0.0298813,-0.129832,0,0.133226,5092.47,-38314,0,38650.9,705674
step02_gravity_refstate-crust.xmf,1997,-1.3848e-06,-5.49808e-06,0,8.39054e-06,-1.02541e+09,-1.02569e+09,-1.02531e+09,575591,0.0277057,-0.120819,0,0.123955,5889.02,-37316.8,0,37778.6,575591
step02_gravity_refstate-crust.xmf,1998,-1.35401e-06,-6.71637e-06,0,9.28542e-06,-1.03899e+09,-1.03936e+09,-1.03889e+09,636980,0.0292562,-0.125676,0,0.129036,5491.31,-37809.5,0,38206.2,636980
step02_gravity_refstate-crust.xmf,1999,-5.0774e-07,-2.23048e-06,0,5.29846e-06,-9.64118e+08,-9.64236e+08,-9.64083e+08,363474,0.0150283,-0.0962736,0,0.0974395,7658.1,-35094.2,0,35920,363474
step02_gravity_refstate-crust.xmf,2000,-8.57961e-07,-2.78612e-06,0,5.94942e-06,-9.80704e+08,-9.80836e+08,-9.80645e+08,408130,0.0189023,-0.102463,0,0.104192,7212.25,-35695.7,0,36417,408130
step02_gravity_refstate-crust.xmf,2001,-1.33607e-06,-4.4523e-06,0,7.5335e-06,-1.01229e+09,-1.0125e+09,-1.0122e+09,516798,0.0255269,-0.115011,0,0.11781,6310.47,-36841.1,0,37377.7,516798
step02_gravity_refstate-crust.xmf,2002,-1.15803e-06,-3.53191e-06,0,6.705e-06,-9.97667e+08,-9.9783e+08,-9.97588e+08,459963,0.0226131,-0.108556,0,0.110886,6767.19,-36310.9,0,36936.1,459963
step02_gravity_refstate-crust.xmf,2003,2.34236e-07,7.28123e-07,0,3.76959e-07,-6.77133e+08,-6.77099e+08,-6.77149e+08,25859.4,-0.000966824,0.0564138,-0,0.0564221,35083.1,-24653.8,0,42879.3,25859.4
step02_gravity_refstate-crust.xmf,2004,1.18125e-06,-6.12061e-07,0,2.32845e-06,-8.41998e+08,-8.42121e+08,-8.42079e+08,159732,-0.00407898,-0.0285524,-0,0.0288423,13863.6,-30657.6,0,33646.5,159732
step02_gravity_refstate-crust.xmf,2005,1.04341e-06,-4.82202e-07,0,2.09843e-06,-8.42008e+08,-8.42113e+08,-8.42079e+08,143952,-0.00294653,-0.020503,-0,0.0207137,14885.6,-30657.6,0,34080.4,143952
step02_gravity_refstate-crust.xmf,2006,9.73682e-07,-3.2782e-07,0,1.86588e-06,-8.242e+08,-8.2429e+08,-8.24267e+08,128000,-0.0032608,-0.00926191,-0,0.00981915,16527.4,-30009.3,0,34259.4,128000
step02_gravity_refstate-crust.xmf,2007,8.74783e-07,-1.0622e-07,0,1.59969e-06,-7.92893e+08,-7.9296e+08,-7.92953e+08,109739,-0.00357415,0.0063939,-0,0.00732506,19212.3,-28869.4,0,34677.9,109739
step02_gravity_refstate-crust.xmf,2008,9.16335e-07,-1.82007e-07,0,1.68988e-06,-8.04438e+08,-8.04514e+08,-8.04501e+08,115926,-0.00347839,0.00113732,-0,0.0036596,18253.6,-29289.8,0,34512.1,115926
step02_gravity_refstate-crust.xmf,2009,7.14327e-07,4.5438e-08,0,1.41082e-06,-7.94403e+08,-7.94449e+08,-7.94452e+08,96782.5,-0.00230976,0.0138081,-0,0.0139999,20679.1,-28924,0,35555.9,96782.5
step02_gravity_refstate-crust.xmf,2010,6.42697e-07,1.80505e-07,0,1.26564e-06,-7.6174e+08,-7.61772e+08,-7.61784e+08,86823.1,-0.00283786,0.0239792,-0,0.0241465,22949.7,-27734.8,0,35998.7,86823.1
step02_gravity_refstate-crust.xmf,2011,5.11828e-07,3.23522e-07,0,1.10704e-06,-7.63737e+08,-7.6375e+08,-7.63773e+08,75942.7,-0.00182743,0.0300103,-0,0.0300659,24524.3,-27807.2,0,37076.7,75942.7
step02_gravity_refstate-crust.xmf,2012,3.79585e-07,4.64691e-07,0,9.53249e-07,-7.66919e+08,-7.66913e+08,-7.66945e+08,65392.9,-0.0009547,0.0354846,-0,0.0354974,26166.2,-27922.7,0,38266.8,65392.9
step02_gravity_refstate-crust.xmf,2013,1.68618e-07,-1.26126e-06,0,3.65956e-06,-9.31518e+08,-9.31616e+08,-9.3153e+08,251046,0.00762327,-0.0711901,0,0.0715971,9478.47,-33911.6,0,35211.3,251046
step02_gravity_refstate-crust.xmf,2014,5.86884e-08,-9.9254e-07,0,3.19938e-06,-9.3401e+08,-9.34082e+08,-9.34014e+08,219477,0.0082245,-0.0595979,0,0.0601627,10412.9,-34002.3,0,35561,219477
step02_gravity_refstate-crust.xmf,2015,1.89936e-07,7.78903e-07,0,1.81123e-07,-6.76907e+08,-6.76867e+08,-6.7692e+08,12425,-0.000438152,0.0585238,-0,0.0585255,37593.8,-24645.5,0,44952.1,12425
step02_gravity_refstate-crust.xmf,2016,2.69549e-07,7.1586e-07,0,3.08176e-09,-6.42102e+08,-6.42072e+08,-6.42121e+08,211.409,-3.31352e-20,0.0601438,-0,0.0601438,40000,-23378.6,0,46331,211.409
step02_gravity_refstate-crust.xmf,2017,1.71711e-07,7.5257e-07,0,5.43523e-07,-7.32188e+08,-7.32148e+08,-7.322e+08,37285.7,-0.000549774,0.0507644,-0,0.0507674,32175.2,-26657.9,0,41783.8,37285.7
step02_gravity_refstate-crust.xmf,2018,1.21527e-07,8.20489e-07,0,4.01942e-07,-7.25836e+08,-7.25788e+08,-7.25844e+08,27573.2,-0.000383001,0.0539979,-0,0.0539993,34212.4,-26426.5,0,43230.2,27573.2
step02_gravity_refstate-crust.xmf,2019,2.14514e-07,6.91765e-07,0,6.51707e-07,-7.40426e+08,-7.40393e+08,-7.4044e+08,44707.1,-0.000639845,0.047533,-0,0.0475373,30591.1,-26957.9,0,40774.3,44707.1
step02_gravity_refstate-crust.xmf,2020,2.63154e-07,5.97509e-07,0,8.09877e-07,-7.68759e+08,-7.68736e+08,-7.68777e+08,55557.6,-0.000332159,0.0404557,-0,0.0404571,27893.1,-27989.4,0,39515,55557.6
step02_gravity_refstate-crust.xmf,2021,9.86638e-07,-6.50097e-07,0,2.35606e-06,-8.65755e+08,-8.65867e+08,-8.65822e+08,161626,-0.00150404,-0.0333703,-0,0.0334041,13232,-31521.6,0,34186.2,161626
step02_gravity_refstate-crust.xmf,2022,9.1414e-07,-3.66551e-07,0,1.91861e-06,-8.42056e+08,-8.42144e+08,-8.42119e+08,131617,-0.00204198,-0.0138642,-0,0.0140138,15808.7,-30659,0,34494.8,131617
step02_gravity_refstate-crust.xmf,2023,7.90455e-07,-1.89028e-07,0,1.66635e-06,-8.32452e+08,-8.32519e+08,-8.32506e+08,114312,-0.00152282,-0.00263298,-0,0.00304164,17576.7,-30309.2,0,35036.9,114312
step02_gravity_refstate-crust.xmf,2024,5.60633e-07,1.90984e-07,0,1.24154e-06,-7.9644e+08,-7.96465e+08,-7.96478e+08,85169.6,-0.00124731,0.0203784,-0,0.0204165,22142.1,-28997.7,0,36484.8,85169.6
step02_gravity_refstate-crust.xmf,2025,-2.46365e-07,-1.47846e-06,0,4.09689e-06,-9.49603e+08,-9.49687e+08,-9.49586e+08,281047,0.0114207,-0.0778635,0,0.0786966,8920.63,-34567.9,0,35700.4,281047
step02_gravity_refstate-crust.xmf,2026,-6.02296e-07,-1.78718e-06,0,4.61408e-06,-9.65613e+08,-9.65694e+08,-9.65571e+08,316526,0.0149284,-0.084177,0,0.0854905,8417.62,-35148.9,0,36142.8,316526
step02_gravity_refstate-crust.xmf,2027,7.17709e-07,-6.85959e-07,0,2.43581e-06,-8.8983e+08,-8.89926e+08,-8.89879e+08,167096,0.00154762,-0.0386439,0,0.0386749,12577.5,-32397,0,34752.8,167096
step02_gravity_refstate-crust.xmf,2028,3.84273e-07,-7.23153e-07,0,2.58104e-06,-9.12999e+08,-9.13075e+08,-9.13025e+08,177060,0.00491298,-0.0439121,0,0.0441861,11957.5,-33239.1,0,35324.5,177060
step02_gravity_refstate-crust.xmf,2029,-5.64104e-09,-7.76713e-07,0,2.81259e-06,-9.35774e+08,-9.35826e+08,-9.35773e+08,192944,0.00856385,-0.0491431,0,0.0498837,11370.7,-34066.5,0,35914.1,192944
step02_gravity_refstate-crust.xmf,2030,-1.01505e-06,-8.10365e-06,0,1.05227e-05,-1.07037e+09,-1.07086e+09,-1.07031e+09,721859,0.0281693,-0.120153,0,0.123411,5333.66,-38951.4,0,39314.9,721859
step02_gravity_refstate-crust.xmf,2031,-1.44185e-06,-6.55242e-06,0,9.36479e-06,-1.05484e+09,-1.05519e+09,-1.05474e+09,642424,0.0289389,-0.116795,0,0.120327,5760.71,-38386.5,0,38816.3,642424
step02_gravity_refstate-crust.xmf,2032,-1.62532e-06,-4.427e-06,0,7.63624e-06,-1.02851e+09,-1.0287e+09,-1.0284e+09,523846,0.0270521,-0.108571,0,0.111891,6519.39,-37430.5,0,37994,523846
step02_gravity_refstate-crust.xmf,2033,-1.59609e-06,-5.35718e-06,0,8.41805e-06,-1.04115e+09,-1.0414e+09,-1.04104e+09,577478,0.0283562,-0.112719,0,0.116231,6156.89,-37889.2,0,38386.2,577478
step02_gravity_refstate-crust.xmf,2034,-9.68971e-07,-2.18535e-06,0,5.18489e-06,-9.82375e+08,-9.82459e+08,-9.82309e+08,355683,0.0185366,-0.0897087,0,0.0916038,7974.41,-35757,0,36635.5,355683
step02_gravity_refstate-crust.xmf,2035,-1.30614e-06,-2.74555e-06,0,5.89388e-06,-9.99986e+08,-1.00008e+09,-9.99896e+08,404320,0.0220781,-0.0953651,0,0.0978874,7518.5,-36395.9,0,37164.4,404320
step02_gravity_refstate-crust.xmf,2036,-1.5728e-06,-3.52915e-06,0,6.78609e-06,-1.01925e+09,-1.01939e+09,-1.01915e+09,465526,0.025334,-0.100911,0,0.104042,7046.71,-37095.1,0,37758.5,465526
step02_gravity_refstate-crust.xmf,2037,8.56352e-08,8.66362e-07,0,2.65809e-07,-7.21581e+08,-7.21527e+08,-7.21587e+08,18234.5,-0.000241643,0.0561902,-0,0.0561907,36165.7,-26271.6,0,44700.7,18234.5
step02_gravity_refstate-crust.xmf,2038,1.61488e-07,7.18072e-07,0,6.75583e-07,-7.70514e+08,-7.70476e+08,-7.70525e+08,46345,9.66107e-05,0.0447282,0,0.0447283,29650.4,-28053.1,0,40818.2,46345
step02_gravity_refstate-crust.xmf,2039,6.80433e-08,8.30948e-07,0,5.41283e-07,-7.73543e+08,-7.73491e+08,-7.73548e+08,37132,0.00039226,0.0483893,0,0.0483908,31504.5,-28163.2,0,42257.5,37132
step02_gravity_refstate-crust.xmf,2040,8.47058e-07,-5.03126e-07,0,2.10463e-06,-8.66164e+08,-8.66256e+08,-8.66222e+08,144378,-0.000481199,-0.0246523,-0,0.024657,14287.8,-31536.2,0,34621.9,144378
step02_gravity_refstate-crust.xmf,2041,7.42839e-07,-3.59188e-07,0,1.90426e-06,-8.65003e+08,-8.65079e+08,-8.65054e+08,130632,0.000226537,-0.0166633,0,0.0166648,15364.4,-31493.8,0,35041.7,130632
step02_gravity_refstate-crust.xmf,2042,6.80676e-07,-2.25502e-07,0,1.72078e-06,-8.5862e+08,-8.58683e+08,-8.58667e+08,118046,0.000376992,-0.00851523,0,0.00852357,16589.2,-31261.3,0,35390.3,118046
step02_gravity_refstate-crust.xmf,2043,6.96448e-07,-6.91998e-08,0,1.5266e-06,-8.30599e+08,-8.30652e+08,-8.30647e+08,104725,-0.00088072,0.00360402,-0,0.00371007,18673.4,-30241.5,0,35542.2,104725
step02_gravity_refstate-crust.xmf,2044,5.84831e-07,6.32492e-08,0,1.38127e-06,-8.29089e+08,-8.29125e+08,-8.29129e+08,94755.1,-0.000206169,0.0101321,-0,0.0101342,19934.1,-30186.3,0,36174.3,94755.1
step02_gravity_refstate-crust.xmf,2045,4.54249e-07,2.1315e-07,0,1.22998e-06,-8.30588e+08,-8.30605e+08,-8.30619e+08,84376.4,0.000630197,0.0166908,0,0.0167027,21345.8,-30240.6,0,37015.3,84376.4
step02_gravity_refstate-crust.xmf,2046,4.27974e-07,3.36166e-07,0,1.09204e-06,-7.98229e+08,-7.98235e+08,-7.98259e+08,74914.1,-0.000390531,0.0264046,-0,0.0264075,23656.4,-29062.6,0,37473.4,74914.1
step02_gravity_refstate-crust.xmf,2047,1.68339e-07,6.41639e-07,0,8.08244e-07,-8.08586e+08,-8.08554e+08,-8.08598e+08,55445.5,0.00109129,0.0370017,0,0.0370178,26960,-29439.1,0,39918.7,55445.5
step02_gravity_refstate-crust.xmf,2048,2.92658e-07,4.94761e-07,0,9.45557e-07,-8.04083e+08,-8.04069e+08,-8.04103e+08,64865.2,0.000500868,0.0319875,0,0.0319914,25275.2,-29275.4,0,38676.7,64865.2
step02_gravity_refstate-crust.xmf,2049,-4.46056e-07,-1.15254e-06,0,3.60964e-06,-9.57161e+08,-9.5721e+08,-9.57131e+08,247621,0.0125923,-0.0656705,0,0.0668668,9825.64,-34842.8,0,36201.7,247621
step02_gravity_refstate-crust.xmf,2050,-4.50799e-07,-8.45759e-07,0,3.1428e-06,-9.58853e+08,-9.5888e+08,-9.58822e+08,215596,0.0124333,-0.0537322,0,0.055152,10866.5,-34904.9,0,36557.2,215596
step02_gravity_refstate-crust.xmf,2051,9.00432e-08,8.72884e-07,0,1.79718e-09,-7.07823e+08,-7.0777e+08,-7.0783e+08,123.287,-1.86093e-21,0.0582423,-0,0.0582423,40000,-25770.7,0,47582.9,123.287
step02_gravity_refstate-crust.xmf,2052,-2.98415e-07,-9.08063e-06,0,1.12195e-05,-1.08676e+09,-1.08737e+09,-1.08674e+09,769661,0.0251559,-0.116149,0,0.118842,5264.09,-39549.5,0,39898.3,769661
step02_gravity_refstate-crust.xmf,2053,-1.70701e-06,-4.14646e-06,0,7.50786e-06,-1.04171e+09,-1.04188e+09,-1.0416e+09,515039,0.0271243,-0.0999088,0,0.103525,6915.62,-37911.3,0,38536.9,515039
step02_gravity_refstate-crust.xmf,2054,2.10909e-09,9.17398e-07,0,4.12871e-07,-7.7252e+08,-7.72457e+08,-7.7252e+08,28322.9,0.000432007,0.051503,0,0.0515048,33442.3,-28125.8,0,43697.2,28322.9
step02_gravity_refstate-crust.xmf,2055,-5.76503e-08,9.90985e-07,0,2.61285e-07,-7.71662e+08,-7.7159e+08,-7.71658e+08,17924.1,0.000350684,0.0541656,0,0.0541667,35779,-28094.4,0,45491,17924.1
step02_gravity_refstate-crust.xmf,2056,-1.04019e-09,9.51811e-07,0,1.34535e-07,-7.4232e+08,-7.42255e+08,-7.4232e+08,9229.13,1.29578e-05,0.0566334,0,0.0566334,37936.4,-27026.4,0,46578.9,9229.13
step02_gravity_refstate-crust.xmf,2057,6.22697e-08,7.75208e-07,0,6.80175e-07,-8.1156e+08,-8.11511e+08,-8.11564e+08,46660,0.00140683,0.0414566,0,0.0414805,28714.2,-29547.1,0,41201.2,46660
step02_gravity_refstate-crust.xmf,2058,5.96823e-07,-5.1747e-07,0,2.16683e-06,-8.9073e+08,-8.90806e+08,-8.9077e+08,148645,0.00238227,-0.0293484,0,0.029445,13645.5,-32429.5,0,35183.4,148645
step02_gravity_refstate-crust.xmf,2059,5.24732e-07,-6.01839e-08,0,1.52825e-06,-8.61962e+08,-8.62002e+08,-8.61998e+08,104838,0.00149719,-0.000605846,0,0.00161513,17902.8,-31382.6,0,36130,104838
step02_gravity_refstate-crust.xmf,2060,3.14556e-07,3.6762e-07,0,1.08144e-06,-8.34495e+08,-8.34492e+08,-8.34517e+08,74186.6,0.001456,0.0227856,0,0.0228321,22830.5,-30382.5,0,38004.3,74186.6
step02_gravity_refstate-crust.xmf,2061,-6.76433e-07,-1.45878e-06,0,4.15913e-06,-9.68072e+08,-9.68125e+08,-9.68025e+08,285316,0.0149836,-0.0746512,0,0.07614,9083.27,-35238.6,0,36390.5,285316
step02_gravity_refstate-crust.xmf,2062,-9.72607e-07,-1.70251e-06,0,4.5625e-06,-9.8261e+08,-9.8266e+08,-9.82543e+08,312987,0.0178284,-0.0783755,0,0.0803777,8748.05,-35766.3,0,36820.6,312987
step02_gravity_refstate-crust.xmf,2063,2.9085e-07,-5.35365e-07,0,2.29685e-06,-9.14765e+08,-9.14822e+08,-9.14785e+08,157564,0.00553878,-0.0343482,0,0.0347919,12997.8,-33303.3,0,35749.9,157564
step02_gravity_refstate-crust.xmf,2064,-4.37586e-07,-6.17947e-07,0,2.80233e-06,-9.61296e+08,-9.61308e+08,-9.61266e+08,192240,0.0123751,-0.0438682,0,0.0455803,11841.2,-34994.2,0,36943.3,192240
step02_gravity_refstate-crust.xmf,2065,-6.04955e-08,-5.64517e-07,0,2.50517e-06,-9.3814e+08,-9.38175e+08,-9.38136e+08,171855,0.00890262,-0.0392877,0,0.0402837,12387.9,-34152.8,0,36330.1,171855
step02_gravity_refstate-crust.xmf,2066,-7.03614e-07,-7.3727e-06,0,1.02235e-05,-1.08361e+09,-1.08407e+09,-1.08357e+09,701329,0.0255238,-0.107639,0,0.110623,5873.68,-39435.8,0,39870.8,701329
step02_gravity_refstate-crust.xmf,2067,-1.29542e-06,-6.38325e-06,0,9.44377e-06,-1.06825e+09,-1.0686e+09,-1.06816e+09,647842,0.027621,-0.10903,0,0.112474,6032.57,-38875.6,0,39340.9,647842
step02_gravity_refstate-crust.xmf,2068,-1.54399e-06,-5.29221e-06,0,8.55865e-06,-1.05759e+09,-1.05785e+09,-1.05748e+09,587123,0.0277987,-0.104616,0,0.108247,6449.34,-38488.1,0,39024.7,587123
step02_gravity_refstate-crust.xmf,2069,-1.32909e-06,-2.11533e-06,0,5.20507e-06,-1.00121e+09,-1.00127e+09,-1.00112e+09,357068,0.0212299,-0.0833497,0,0.086011,8302.94,-36441.5,0,37375.4,357068
step02_gravity_refstate-crust.xmf,2070,-1.58916e-06,-2.68867e-06,0,5.98154e-06,-1.01971e+09,-1.01978e+09,-1.0196e+09,410334,0.0241094,-0.0882578,0,0.0914915,7853.97,-37112.8,0,37934.8,410334
step02_gravity_refstate-crust.xmf,2071,-1.69773e-06,-3.28934e-06,0,6.6852e-06,-1.03448e+09,-1.03458e+09,-1.03436e+09,458605,0.0258424,-0.092006,0,0.0955664,7493,-37649.2,0,38387.6,458605
step02_gravity_refstate-crust.xmf,2072,-2.68479e-08,8.93708e-07,0,5.56651e-07,-8.12934e+08,-8.1287e+08,-8.12932e+08,38186.3,0.00148142,0.0453924,0,0.0454165,30563.7,-29596.9,0,42545.5,38186.3
step02_gravity_refstate-crust.xmf,2073,-1.05949e-07,9.9979e-07,0,4.33996e-07,-8.1514e+08,-8.15064e+08,-8.15132e+08,29772.1,0.00140874,0.0486502,0,0.0486706,32497.1,-29677.1,0,44009,29772.1
step02_gravity_refstate-crust.xmf,2074,4.99353e-07,-3.59573e-07,0,1.94712e-06,-8.91118e+08,-8.91177e+08,-8.91152e+08,133572,0.00302663,-0.0209168,0,0.0211347,14728.4,-32443.5,0,35630.1,133572
step02_gravity_refstate-crust.xmf,2075,4.25266e-07,-2.04519e-07,0,1.75692e-06,-8.90059e+08,-8.90102e+08,-8.90088e+08,120524,0.00343424,-0.0128312,0,0.0132829,15886.5,-32404.9,0,36089.6,120524
step02_gravity_refstate-crust.xmf,2076,3.41986e-07,-5.20587e-08,0,1.58297e-06,-8.90007e+08,-8.90034e+08,-8.90031e+08,108592,0.00389556,-0.00516205,0,0.006467,17108.2,-32402.9,0,36642.1,108592
step02_gravity_refstate-crust.xmf,2077,4.28116e-07,8.25516e-08,0,1.38452e-06,-8.61858e+08,-8.61882e+08,-8.61888e+08,94978.2,0.00207743,0.00609102,0,0.00643554,19145.9,-31378.7,0,36758.5,94978.2
step02_gravity_refstate-crust.xmf,2078,3.10579e-07,2.41092e-07,0,1.23366e-06,-8.63742e+08,-8.63746e+08,-8.63763e+08,84629,0.00275121,0.0129744,0,0.0132629,20575.1,-31447,0,37579.9,84629
step02_gravity_refstate-crust.xmf,2079,1.97217e-07,3.95469e-07,0,1.09796e-06,-8.66998e+08,-8.66984e+08,-8.67011e+08,75320.3,0.00334261,0.0190745,0,0.0193651,22007.2,-31565.3,0,38479.7,75320.3
step02_gravity_refstate-crust.xmf,2080,1.7649e-07,5.31544e-07,0,9.40053e-07,-8.41586e+08,-8.41561e+08,-8.41598e+08,64487.6,0.00225667,0.0283705,0,0.0284601,24399.1,-30640.3,0,39168.2,64487.6
step02_gravity_refstate-crust.xmf,2081,-4.8717e-08,8.3444e-07,0,6.89872e-07,-8.52284e+08,-8.52224e+08,-8.52281e+08,47325.2,0.00296596,0.0379865,0,0.0381021,27775.7,-31029.4,0,41645.1,47325.2
step02_gravity_refstate-crust.xmf,2082,5.60435e-08,6.90996e-07,0,8.12066e-07,-8.47788e+08,-8.47744e+08,-8.47792e+08,55707.7,0.00276487,0.0334539,0,0.033568,26053.4,-30865.9,0,40391.6,55707.7
step02_gravity_refstate-crust.xmf,2083,-8.84828e-07,-1.27334e-06,0,3.96379e-06,-9.78278e+08,-9.78304e+08,-9.78217e+08,271916,0.0163529,-0.0676726,0,0.0696204,9586.56,-35609.6,0,36877.5,271916
step02_gravity_refstate-crust.xmf,2084,-8.68298e-07,-9.79385e-07,0,3.56786e-06,-9.80882e+08,-9.8089e+08,-9.80823e+08,244755,0.0160516,-0.0579742,0,0.0601553,10408.3,-35705,0,37191.1,244755
step02_gravity_refstate-crust.xmf,2085,-8.19479e-07,-7.14198e-07,0,3.20189e-06,-9.83664e+08,-9.83657e+08,-9.83608e+08,219649,0.0156648,-0.0481954,0,0.0506773,11337.7,-35806.8,0,37558.9,219649
step02_gravity_refstate-crust.xmf,2086,-1.02517e-07,1.0505e-06,0,1.71898e-09,-7.73152e+08,-7.73073e+08,-7.73145e+08,117.922,2.46245e-20,0.0559557,0,0.0559557,40000,-28148.6,0,48911.6,117.922
step02_gravity_refstate-crust.xmf,2087,-1.67767e-06,-3.48608e-06,0,7.03711e-06,-1.04946e+09,-1.04958e+09,-1.04934e+09,482746,0.0261335,-0.0889431,0,0.0927029,7576.56,-38194.3,0,38938.5,482746
step02_gravity_refstate-crust.xmf,2088,-1.70652e-07,1.08673e-06,0,3.1566e-07,-8.17918e+08,-8.17832e+08,-8.17907e+08,21654.3,0.00119249,0.0510986,0,0.0511125,34451.3,-29778.1,0,45537.1,21654.3
step02_gravity_refstate-crust.xmf,2089,-1.82493e-07,1.12233e-06,0,1.14977e-07,-8.02313e+08,-8.02224e+08,-8.02301e+08,7887.39,0.000376976,0.0543882,0,0.0543895,37982.5,-29210,0,47915.5,7887.39
step02_gravity_refstate-crust.xmf,2090,-1.38908e-07,9.63804e-07,0,5.73709e-07,-8.55592e+08,-8.55516e+08,-8.55582e+08,39356.5,0.00291888,0.0419491,0,0.0420505,29564.5,-31149.6,0,42946,39356.5
step02_gravity_refstate-crust.xmf,2091,2.18374e-07,-3.6042e-07,0,2.06035e-06,-9.16191e+08,-9.1623e+08,-9.16206e+08,141340,0.00601089,-0.0255186,0,0.026217,14075.7,-33355.2,0,36203.5,141340
step02_gravity_refstate-crust.xmf,2092,2.50259e-07,9.85115e-08,0,1.42302e-06,-8.91453e+08,-8.91464e+08,-8.9147e+08,97619.5,0.00440854,0.00197856,0,0.00483218,18376.8,-32455.4,0,37296.9,97619.5
step02_gravity_refstate-crust.xmf,2093,7.099e-08,5.53722e-07,0,9.67009e-07,-8.73994e+08,-8.73961e+08,-8.73999e+08,66336.8,0.00397749,0.0244777,0,0.0247987,23463.3,-31819.8,0,39535.1,66336.8
step02_gravity_refstate-crust.xmf,2094,-1.2728e-06,-1.61131e-06,0,4.60643e-06,-1.00155e+09,-1.00158e+09,-1.00147e+09,316001,0.0202144,-0.0722892,0,0.0750623,9121.57,-36454.9,0,37578.8,316001
step02_gravity_refstate-crust.xmf,2095,-9.80312e-08,-3.71744e-07,0,2.24791e-06,-9.40524e+08,-9.40542e+08,-9.40517e+08,154206,0.00915032,-0.0301508,0,0.0315087,13449.4,-34239.7,0,36786.5,154206
step02_gravity_refstate-crust.xmf,2096,-7.38689e-07,-4.97899e-07,0,2.88896e-06,-9.86869e+08,-9.86853e+08,-9.86818e+08,198183,0.0153041,-0.039145,0,0.0420303,12301.6,-35924.2,0,37972.1,198183
step02_gravity_refstate-crust.xmf,2097,-4.27735e-07,-4.07494e-07,0,2.5188e-06,-9.64167e+08,-9.64165e+08,-9.64137e+08,172790,0.0123096,-0.0345954,0,0.0367202,12871.7,-35099.1,0,37384.9,172790
step02_gravity_refstate-crust.xmf,2098,-1.05342e-06,-5.64926e-06,0,9.00257e-06,-1.07819e+09,-1.07851e+09,-1.07812e+09,617576,0.0257098,-0.0974965,0,0.100829,6648.45,-39239.6,0,39798.8,617576
step02_gravity_refstate-crust.xmf,2099,-1.50585e-06,-4.30219e-06,0,7.82873e-06,-1.06152e+09,-1.06171e+09,-1.06142e+09,537051,0.0265054,-0.0929583,0,0.0966633,7174.72,-38632.9,0,39293.5,537051
step02_gravity_refstate-crust.xmf,2100,-1.53625e-06,-2.08284e-06,0,5.36018e-06,-1.02189e+09,-1.02193e+09,-1.02178e+09,367708,0.0230677,-0.0770256,0,0.0804056,8650.15,-37193.4,0,38186.1,367708
step02_gravity_refstate-crust.xmf,2101,-1.63888e-06,-2.75643e-06,0,6.26998e-06,-1.04179e+09,-1.04186e+09,-1.04167e+09,430121,0.0250431,-0.0817859,0,0.0855341,8159.65,-37916.3,0,38784.4,430121
step02_gravity_refstate-crust.xmf,2102,-2.14407e-07,1.14432e-06,0,2.13478e-07,-8.20264e+08,-8.20171e+08,-8.20249e+08,14644.6,0.00089086,0.0526146,0,0.0526222,36193.5,-29863.4,0,46923.3,14644.6
step02_gravity_refstate-crust.xmf,2103,-2.18273e-07,1.08057e-06,0,4.58945e-07,-8.58504e+08,-8.58415e+08,-8.58489e+08,31483.6,0.00266748,0.0453655,0,0.0454439,31459.9,-31255.5,0,44346.7,31483.6
step02_gravity_refstate-crust.xmf,2104,-2.87442e-07,1.18187e-06,0,3.46562e-07,-8.62057e+08,-8.61956e+08,-8.62037e+08,23774.1,0.00225514,0.0480625,0,0.0481154,33419.5,-31384.7,0,45846.1,23774.1
step02_gravity_refstate-crust.xmf,2105,1.60676e-07,-1.96048e-07,0,1.85557e-06,-9.17213e+08,-9.17238e+08,-9.17224e+08,127292,0.00635143,-0.0172494,0,0.0183816,15205,-33392.4,0,36691.2,127292
step02_gravity_refstate-crust.xmf,2106,1.02244e-07,-3.66528e-08,0,1.67879e-06,-9.18525e+08,-9.18534e+08,-9.18532e+08,115165,0.00665169,-0.00957242,0,0.0116566,16374.7,-33440.2,0,37234.1,115165
step02_gravity_refstate-crust.xmf,2107,5.69556e-08,1.1096e-07,0,1.51473e-06,-9.19127e+08,-9.19124e+08,-9.19131e+08,103910,0.00681276,-0.00235474,0,0.00720823,17601.1,-33462.2,0,37808.9,103910
step02_gravity_refstate-crust.xmf,2108,1.50768e-07,2.63187e-07,0,1.27451e-06,-8.95372e+08,-8.95365e+08,-8.95383e+08,87431.5,0.00501374,0.00888128,0,0.0101988,19755.4,-32597.9,0,38117,87431.5
step02_gravity_refstate-crust.xmf,2109,-2.54321e-07,1.02985e-06,0,5.99532e-07,-8.96995e+08,-8.96907e+08,-8.96978e+08,41127.9,0.00455057,0.0383626,0,0.0386316,28585.1,-32656.6,0,43400,41127.9
step02_gravity_refstate-crust.xmf,2110,4.67098e-08,4.29528e-07,0,1.13212e-06,-8.99497e+08,-8.99471e+08,-8.99501e+08,77663.2,0.00546508,0.0154321,0,0.0163712,21238.6,-32748,0,39032.1,77663.2
step02_gravity_refstate-crust.xmf,2111,-4.25228e-08,5.77877e-07,0,1.01054e-06,-9.04112e+08,-9.04069e+08,-9.04109e+08,69323.1,0.00577214,0.0208623,0,0.0216461,22638.6,-32915.8,0,39949.5,69323.1
step02_gravity_refstate-crust.xmf,2112,-9.32679e-08,7.51789e-07,0,8.27886e-07,-8.90923e+08,-8.90866e+08,-8.90917e+08,56792.9,0.00488617,0.0295241,0,0.0299257,25115.9,-32435.7,0,41023,56792.9
step02_gravity_refstate-crust.xmf,2113,-1.69694e-07,8.94514e-07,0,7.09332e-07,-8.92063e+08,-8.9199e+08,-8.92051e+08,48660.2,0.00471377,0.0344812,0,0.0348019,26888.3,-32477.1,0,42163.3,48660.2
step02_gravity_refstate-crust.xmf,2114,-1.22598e-06,-1.2105e-06,0,4.11716e-06,-1.00278e+09,-1.00278e+09,-1.0027e+09,282437,0.0193255,-0.0620709,0,0.0650098,9965.39,-36500.4,0,37836.3,282437
step02_gravity_refstate-crust.xmf,2115,-1.1331e-06,-9.04714e-07,0,3.7122e-06,-1.00555e+09,-1.00554e+09,-1.00548e+09,254657,0.0186207,-0.0525001,0,0.0557045,10843.9,-36602.2,0,38174.7,254657
step02_gravity_refstate-crust.xmf,2116,-1.02571e-06,-6.51672e-07,0,3.35275e-06,-1.00851e+09,-1.00848e+09,-1.00844e+09,229998,0.0179387,-0.0435218,0,0.0470738,11764.4,-36710.6,0,38549.6,229998
step02_gravity_refstate-crust.xmf,2117,-3.01192e-07,1.24279e-06,0,2.15048e-09,-8.38289e+08,-8.38184e+08,-8.38269e+08,147.523,5.94413e-20,0.0532381,0,0.0532381,40000,-30519.5,0,50313.4,147.523
step02_gravity_refstate-crust.xmf,2118,-1.52487e-06,-3.39307e-06,0,7.03048e-06,-1.06207e+09,-1.06219e+09,-1.06196e+09,482291,0.0253366,-0.0823589,0,0.086168,7944.5,-38654.1,0,39462.1,482291
step02_gravity_refstate-crust.xmf,2119,-3.4238e-07,1.26151e-06,0,2.39408e-07,-8.65866e+08,-8.65756e+08,-8.65843e+08,16423.4,0.00170431,0.0499599,0,0.0499889,35376.4,-31523.3,0,47383.6,16423.4
step02_gravity_refstate-crust.xmf,2120,-3.83325e-07,1.32068e-06,0,1.18084e-07,-8.68788e+08,-8.68671e+08,-8.68762e+08,8100.55,0.000886537,0.0513246,0,0.0513323,37715.3,-31629.6,0,49222.7,8100.55
step02_gravity_refstate-crust.xmf,2121,-3.27883e-07,1.15253e-06,0,4.91087e-07,-9.0039e+08,-9.00288e+08,-9.00367e+08,33688.6,0.00413655,0.0418329,0,0.0420369,30397.8,-32780,0,44705.2,33688.6
step02_gravity_refstate-crust.xmf,2122,-1.21491e-07,-1.96296e-07,0,2.02532e-06,-9.42679e+08,-9.42685e+08,-9.42671e+08,138937,0.0092942,-0.021653,0,0.0235634,14557.3,-34318.4,0,37278.3,138937
step02_gravity_refstate-crust.xmf,2123,-5.35169e-10,2.49662e-07,0,1.37151e-06,-9.21119e+08,-9.21102e+08,-9.21119e+08,94085.8,0.00702596,0.00391923,0,0.00804515,18787.9,-33534.6,0,38439,94085.8
step02_gravity_refstate-crust.xmf,2124,-1.2851e-07,7.10998e-07,0,9.10075e-07,-9.10456e+08,-9.10398e+08,-9.10447e+08,62431.1,0.00603651,0.0251111,0,0.0258264,23891.2,-33146.6,0,40859.4,62431.1
step02_gravity_refstate-crust.xmf,2125,-1.43288e-06,-1.60571e-06,0,4.81307e-06,-1.02388e+09,-1.0239e+09,-1.02379e+09,330177,0.0220055,-0.066655,0,0.0701935,9475.97,-37267.3,0,38453.1,330177
step02_gravity_refstate-crust.xmf,2126,-4.12766e-07,-2.24689e-07,0,2.27963e-06,-9.67376e+08,-9.67363e+08,-9.67348e+08,156383,0.0122414,-0.0261557,0,0.0288786,13923.3,-35216.3,0,37868.8,156383
step02_gravity_refstate-crust.xmf,2127,-8.9627e-07,-4.467e-07,0,3.0315e-06,-1.01182e+09,-1.01179e+09,-1.01176e+09,207961,0.0173237,-0.0352343,0,0.0392627,12710.5,-36831.9,0,38963.4,207961
step02_gravity_refstate-crust.xmf,2128,-6.80525e-07,-2.98712e-07,0,2.61534e-06,-9.90785e+08,-9.90759e+08,-9.90739e+08,179412,0.0149819,-0.0305435,0,0.03402,13326.8,-36067.3,0,38450.7,179412
step02_gravity_refstate-crust.xmf,2129,-1.0397e-06,-4.45502e-06,0,8.0078e-06,-1.08011e+09,-1.08034e+09,-1.08004e+09,549335,0.0245606,-0.0853988,0,0.0888605,7512.17,-39311.4,0,40022.7,549335
step02_gravity_refstate-crust.xmf,2130,-1.51661e-06,-2.12546e-06,0,5.57212e-06,-1.04275e+09,-1.04279e+09,-1.04264e+09,382248,0.0237279,-0.0708973,0,0.0747625,9011.83,-37952.8,0,39008.1,382248
step02_gravity_refstate-crust.xmf,2131,-1.40372e-06,-2.74175e-06,0,6.34818e-06,-1.06144e+09,-1.06153e+09,-1.06134e+09,435485,0.0243414,-0.0735823,0,0.077504,8651.27,-38632.7,0,39589.6,435485
step02_gravity_refstate-crust.xmf,2132,-4.59032e-07,1.36248e-06,0,2.82319e-07,-9.10695e+08,-9.1057e+08,-9.10664e+08,19367.1,0.00286506,0.0467191,0,0.0468069,34216,-33155,0,47644.4,19367.1
step02_gravity_refstate-crust.xmf,2133,-3.98406e-07,1.26677e-06,0,3.83708e-07,-9.05297e+08,-9.05182e+08,-9.05269e+08,26322.4,0.00357415,0.0446598,0,0.0448026,32306.3,-32958.6,0,46151.5,26322.4
step02_gravity_refstate-crust.xmf,2134,-1.35555e-07,-3.52306e-08,0,1.82697e-06,-9.44302e+08,-9.44296e+08,-9.44293e+08,125330,0.0093234,-0.013757,0,0.0166187,15709.8,-34377.7,0,37797.1,125330
step02_gravity_refstate-crust.xmf,2135,-1.58708e-07,1.17103e-07,0,1.65135e-06,-9.45846e+08,-9.45827e+08,-9.45835e+08,113283,0.00930467,-0.00651974,0,0.0113615,16889,-34434,0,38352.8,113283
step02_gravity_refstate-crust.xmf,2136,-1.79355e-07,2.56769e-07,0,1.49537e-06,-9.47815e+08,-9.47785e+08,-9.47802e+08,102582,0.00928467,-1.19091e-05,0,0.00928468,18069.9,-34505.8,0,38950.9,102582
step02_gravity_refstate-crust.xmf,2137,-1.5225e-07,4.54607e-07,0,1.22825e-06,-9.36864e+08,-9.36823e+08,-9.36854e+08,84258.3,0.00812511,0.0106352,0,0.0133837,20258.5,-34107.6,0,39670.3,84258.3
step02_gravity_refstate-crust.xmf,2138,-4.34231e-07,1.21654e-06,0,5.31301e-07,-9.40905e+08,-9.40792e+08,-9.40875e+08,36447.3,0.00574222,0.0382297,0,0.0386586,29395.5,-34254.7,0,45138.5,36447.3
step02_gravity_refstate-crust.xmf,2139,-3.69425e-07,1.08992e-06,0,6.39216e-07,-9.37348e+08,-9.37248e+08,-9.37323e+08,43850.2,0.00631558,0.034722,0,0.0352916,27655.5,-34125.3,0,43924.5,43850.2
step02_gravity_refstate-crust.xmf,2140,-1.93803e-07,6.13102e-07,0,1.07384e-06,-9.37603e+08,-9.37548e+08,-9.3759e+08,73665.5,0.00791096,0.0172922,0,0.0190158,21883.6,-34134.5,0,40547,73665.5
step02_gravity_refstate-crust.xmf,2141,-2.50029e-07,7.54347e-07,0,9.5155e-07,-9.4108e+08,-9.41011e+08,-9.41063e+08,65276.3,0.00780102,0.0223925,0,0.0237124,23323.1,-34261.1,0,41446.2,65276.3
step02_gravity_refstate-crust.xmf,2142,-3.1115e-07,8.99259e-07,0,8.24873e-07,-9.43955e+08,-9.43872e+08,-9.43933e+08,56586.3,0.00750908,0.0273322,0,0.0283449,24915.4,-34365.7,0,42447.4,56586.3
step02_gravity_refstate-crust.xmf,2143,-2.81276e-07,9.53007e-07,0,7.3399e-07,-9.27634e+08,-9.27549e+08,-9.27614e+08,50351.7,0.00639,0.0315582,0,0.0321987,26230.6,-33771.8,0,42761.9,50351.7
step02_gravity_refstate-crust.xmf,2144,-1.34838e-06,-1.22273e-06,0,4.34749e-06,-1.02685e+09,-1.02684e+09,-1.02676e+09,298238,0.0210407,-0.0569465,0,0.0607092,10335.7,-37376.1,0,38778.8,298238
step02_gravity_refstate-crust.xmf,2145,-1.21069e-06,-9.17871e-07,0,3.92134e-06,-1.02982e+09,-1.0298e+09,-1.02974e+09,269004,0.0201225,-0.0478959,0,0.0519513,11229.8,-37485.4,0,39131.4,269004
step02_gravity_refstate-crust.xmf,2146,-1.06992e-06,-6.65735e-07,0,3.5284e-06,-1.0318e+09,-1.03178e+09,-1.03173e+09,242048,0.0192382,-0.0396706,0,0.0440892,12135.5,-37558.5,0,39470.4,242048
step02_gravity_refstate-crust.xmf,2147,-4.95463e-07,1.44268e-06,0,1.19407e-09,-9.03397e+08,-9.03264e+08,-9.03363e+08,81.9129,7.20726e-20,0.0500553,0,0.0500553,40000,-32889.3,0,51785.2,81.9129
step02_gravity_refstate-crust.xmf,2148,-1.08672e-06,-3.54019e-06,0,7.14668e-06,-1.08028e+09,-1.08045e+09,-1.0802e+09,490262,0.0237157,-0.0755202,0,0.0791564,8308.63,-39318.7,0,40187,490262
step02_gravity_refstate-crust.xmf,2149,-5.1188e-07,1.44249e-06,0,1.83573e-07,-9.17628e+08,-9.17494e+08,-9.17593e+08,12593.1,0.00201545,0.0480224,0,0.0480647,36170.5,-33407.3,0,49237.7,12593.1
step02_gravity_refstate-crust.xmf,2150,-4.90859e-07,1.32788e-06,0,4.30204e-07,-9.43866e+08,-9.43741e+08,-9.43832e+08,29512,0.00501117,0.0411537,0,0.0414577,31165,-34362.5,0,46390.1,29512
step02_gravity_refstate-crust.xmf,2151,-3.88215e-07,-5.68179e-08,0,2.05637e-06,-9.69987e+08,-9.69965e+08,-9.69961e+08,141067,0.0120617,-0.0181363,0,0.0217809,15042.4,-35311.7,0,38382.2,141067
step02_gravity_refstate-crust.xmf,2152,-2.1988e-07,3.82527e-07,0,1.37661e-06,-9.52159e+08,-9.52118e+08,-9.52144e+08,94435.3,0.00942142,0.00517597,0,0.0107496,19116.8,-34664,0,39585.9,94435.3
step02_gravity_refstate-crust.xmf,2153,-1.37526e-06,-1.70482e-06,0,5.0773e-06,-1.04652e+09,-1.04654e+09,-1.04642e+09,348303,0.0226813,-0.0615368,0,0.0655837,9809.09,-38091.3,0,39334,348303
step02_gravity_refstate-crust.xmf,2154,-6.16735e-07,-1.19272e-07,0,2.35922e-06,-9.94456e+08,-9.94421e+08,-9.94413e+08,161842,0.0146041,-0.0223553,0,0.0267028,14421.1,-36201.5,0,38968.1,161842
step02_gravity_refstate-crust.xmf,2155,-9.3676e-07,-4.76347e-07,0,3.21272e-06,-1.03296e+09,-1.03293e+09,-1.0329e+09,220393,0.0185016,-0.0329682,0,0.0378049,12947.5,-37601.4,0,39768.1,220393
step02_gravity_refstate-crust.xmf,2156,-8.45104e-07,-2.51984e-07,0,2.78349e-06,-1.01993e+09,-1.01988e+09,-1.01987e+09,190947,0.0170288,-0.0270893,0,0.031997,13741.2,-37127.6,0,39588.9,190947
step02_gravity_refstate-crust.xmf,2157,-5.85146e-07,1.53717e-06,0,8.50525e-08,-9.3713e+08,-9.36984e+08,-9.3709e+08,5834.6,0.00107397,0.0479382,0,0.0479502,38173.5,-34117.2,0,51197.6,5834.6
step02_gravity_refstate-crust.xmf,2158,-1.33946e-06,-2.23214e-06,0,5.7446e-06,-1.06095e+09,-1.06101e+09,-1.06086e+09,394080,0.0234318,-0.0658334,0,0.0698791,9324.81,-38616.1,0,39726,394080
step02_gravity_refstate-crust.xmf,2159,-1.00071e-06,-2.82046e-06,0,6.36648e-06,-1.0801e+09,-1.08023e+09,-1.08003e+09,436740,0.0229018,-0.0663012,0,0.0701452,9122.26,-39313.8,0,40358.3,436740
step02_gravity_refstate-crust.xmf,2160,-6.15438e-07,1.53636e-06,0,2.39511e-07,-9.60342e+08,-9.60194e+08,-9.603e+08,16430.4,0.00330947,0.044672,0,0.0447944,34819.2,-34962.1,0,49342.9,16430.4
step02_gravity_refstate-crust.xmf,2161,-5.58491e-07,1.44246e-06,0,3.32021e-07,-9.53012e+08,-9.52875e+08,-9.52974e+08,22776.6,0.00426295,0.043184,0,0.0433939,32982.2,-34695.3,0,47870.5,22776.6
step02_gravity_refstate-crust.xmf,2162,-3.633e-07,9.92128e-08,0,1.84868e-06,-9.71787e+08,-9.71756e+08,-9.71762e+08,126819,0.0117877,-0.0106528,0,0.0158881,16210.5,-35377.6,0,38914.7,126819
step02_gravity_refstate-crust.xmf,2163,-5.78051e-07,1.38193e-06,0,4.78913e-07,-9.81294e+08,-9.8116e+08,-9.81255e+08,32853.4,0.00649538,0.0377098,0,0.0382651,30172.1,-35724.8,0,46761.3,32853.4
step02_gravity_refstate-crust.xmf,2164,-3.62452e-07,2.48584e-07,0,1.66258e-06,-9.73901e+08,-9.73859e+08,-9.73876e+08,114053,0.0115338,-0.00379647,0,0.0121426,17405.9,-35454.7,0,39496.9,114053
step02_gravity_refstate-crust.xmf,2165,-3.64156e-07,3.87482e-07,0,1.49872e-06,-9.76798e+08,-9.76747e+08,-9.76773e+08,102812,0.0113253,0.00234365,0,0.0115653,18601.9,-35560.4,0,40132,102812
step02_gravity_refstate-crust.xmf,2166,-3.55773e-07,6.43962e-07,0,1.17926e-06,-9.7387e+08,-9.73801e+08,-9.73845e+08,80897,0.0102542,0.0137329,0,0.0171389,21180.6,-35454.3,0,41299.2,80897
step02_gravity_refstate-crust.xmf,2167,-3.67736e-07,5.21349e-07,0,1.34224e-06,-9.78419e+08,-9.78358e+08,-9.78394e+08,92077.6,0.0109924,0.00808835,0,0.0136475,19846.5,-35619.6,0,40775.5,92077.6
step02_gravity_refstate-crust.xmf,2168,-5.30871e-07,1.26582e-06,0,5.85152e-07,-9.79635e+08,-9.79512e+08,-9.79599e+08,40141.5,0.00740652,0.03458,0,0.0353643,28429.3,-35664.4,0,45608.9,40141.5
step02_gravity_refstate-crust.xmf,2169,-4.67655e-07,1.11608e-06,0,7.09061e-07,-9.7388e+08,-9.73771e+08,-9.73848e+08,48641.6,0.00812174,0.0307029,0,0.0317589,26578.1,-35454.9,0,44310.8,48641.6
step02_gravity_refstate-crust.xmf,2170,-3.77867e-07,7.79294e-07,0,1.03918e-06,-9.74919e+08,-9.7484e+08,-9.74893e+08,71287.6,0.00981115,0.0189066,0,0.0213007,22583,-35492.6,0,42068,71287.6
step02_gravity_refstate-crust.xmf,2171,-4.18542e-07,9.1796e-07,0,9.11613e-07,-9.78714e+08,-9.78622e+08,-9.78685e+08,62536.6,0.00942886,0.0235215,0,0.0253409,24028.6,-35630.8,0,42975.9,62536.6
step02_gravity_refstate-crust.xmf,2172,-1.26845e-06,-1.33612e-06,0,4.61195e-06,-1.0512e+09,-1.0512e+09,-1.05111e+09,316380,0.0216598,-0.052321,0,0.0566272,10679,-38262.8,0,39725.1,316380
step02_gravity_refstate-crust.xmf,2173,-1.11271e-06,-1.00303e-06,0,4.10694e-06,-1.05309e+09,-1.05309e+09,-1.05302e+09,281736,0.0206363,-0.0435753,0,0.0482147,11612.5,-38332.9,0,40053.3,281736
step02_gravity_refstate-crust.xmf,2174,-9.84285e-07,-7.12438e-07,0,3.64312e-06,-1.05305e+09,-1.05304e+09,-1.05299e+09,249918,0.0196952,-0.0357319,0,0.0408004,12545.3,-38332.4,0,40333.1,249918
step02_gravity_refstate-crust.xmf,2175,-6.77094e-07,1.64535e-06,0,1.9822e-09,-9.68502e+08,-9.68343e+08,-9.68456e+08,135.979,1.07522e-19,0.0463973,0,0.0463973,40000,-35259.1,0,53321.7,135.979
step02_gravity_refstate-crust.xmf,2176,-6.50034e-07,1.59778e-06,0,1.5526e-07,-9.64956e+08,-9.64802e+08,-9.64912e+08,10650.8,0.00226391,0.0456476,0,0.0457037,36564,-35130,0,50705.5,10650.8
step02_gravity_refstate-crust.xmf,2177,-6.13096e-07,1.46862e-06,0,3.91084e-07,-9.81351e+08,-9.81208e+08,-9.81309e+08,26828.3,0.00557861,0.040063,0,0.0404495,31722.5,-35726.8,0,47777.9,26828.3
step02_gravity_refstate-crust.xmf,2178,-5.52222e-07,4.54642e-08,0,2.10754e-06,-9.96129e+08,-9.96088e+08,-9.96091e+08,144577,0.0140727,-0.0147359,0,0.0203762,15562,-36262.9,0,39461.1,144577
step02_gravity_refstate-crust.xmf,2179,-4.72886e-07,1.04265e-06,0,8.14953e-07,-9.86601e+08,-9.86497e+08,-9.86568e+08,55905.8,0.00922412,0.0267905,0,0.028334,25256,-35917.9,0,43908.5,55905.8
step02_gravity_refstate-crust.xmf,2180,-1.05153e-06,-2.05482e-06,0,5.49244e-06,-1.07321e+09,-1.07328e+09,-1.07314e+09,376782,0.0223185,-0.0575569,0,0.0617326,10015.8,-39063.8,0,40327.4,376782
step02_gravity_refstate-crust.xmf,2181,-6.97592e-07,-4.84146e-08,0,2.42053e-06,-1.01998e+09,-1.01993e+09,-1.01993e+09,166048,0.0160775,-0.0182942,0,0.024355,15008.7,-37130.3,0,40049,166048
step02_gravity_refstate-crust.xmf,2182,-8.57451e-07,-4.50277e-07,0,3.19417e-06,-1.04947e+09,-1.04944e+09,-1.04941e+09,219120,0.0187192,-0.028445,0,0.0340518,13506,-38202.8,0,40519.9,219120
step02_gravity_refstate-crust.xmf,2183,-7.58529e-07,1.7362e-06,0,9.27356e-08,-1.00267e+09,-1.0025e+09,-1.00262e+09,6361.66,0.00158546,0.0439514,0,0.04398,37908.1,-36502.8,0,52625.8,6361.66
step02_gravity_refstate-crust.xmf,2184,-7.48029e-07,1.70175e-06,0,1.94329e-07,-1.00721e+09,-1.00704e+09,-1.00716e+09,13331,0.0033218,0.0425394,0,0.0426689,35638.1,-36668,0,51133.3,13331
step02_gravity_refstate-crust.xmf,2185,-7.17934e-07,1.62369e-06,0,3.07952e-07,-1.00939e+09,-1.00923e+09,-1.00934e+09,21125.5,0.0050714,0.0403725,0,0.0406897,33278.2,-36747.4,0,49576.3,21125.5
step02_gravity_refstate-crust.xmf,2186,-6.95555e-07,1.5368e-06,0,4.2854e-07,-1.01919e+09,-1.01904e+09,-1.01914e+09,29397.9,0.00684124,0.0370026,0,0.0376297,31015.2,-37104.2,0,48359.8,29397.9
step02_gravity_refstate-crust.xmf,2187,-5.18035e-07,1.97778e-07,0,1.90097e-06,-1.00025e+09,-1.0002e+09,-1.00021e+09,130407,0.0137605,-0.00791529,0,0.0158746,16703.7,-36413.3,0,40061.7,130407
step02_gravity_refstate-crust.xmf,2188,-6.5901e-07,1.43178e-06,0,5.32299e-07,-1.01959e+09,-1.01944e+09,-1.01954e+09,36515.7,0.0079941,0.0342853,0,0.0352049,29314.1,-37118.7,0,47298.1,36515.7
step02_gravity_refstate-crust.xmf,2189,-5.12626e-07,3.52419e-07,0,1.70564e-06,-1.00475e+09,-1.00469e+09,-1.00472e+09,117007,0.0134368,-0.0014556,0,0.0135154,17914.8,-36577.5,0,40729,117007
step02_gravity_refstate-crust.xmf,2190,-4.9588e-07,4.96994e-07,0,1.51725e-06,-1.0081e+09,-1.00803e+09,-1.00806e+09,104083,0.0130184,0.00451385,0,0.0137788,19168.8,-36699.5,0,41404.1,104083
step02_gravity_refstate-crust.xmf,2191,-4.84573e-07,7.7443e-07,0,1.16641e-06,-1.00783e+09,-1.00774e+09,-1.0078e+09,80016,0.011747,0.0152784,0,0.0192723,21822.7,-36690.3,0,42689.7,80016
step02_gravity_refstate-crust.xmf,2192,-4.87785e-07,6.39537e-07,0,1.33706e-06,-1.00969e+09,-1.00961e+09,-1.00966e+09,91722.2,0.0124763,0.0100884,0,0.0160447,20477.1,-36757.8,0,42076.7,91722.2
step02_gravity_refstate-crust.xmf,2193,-6.18355e-07,1.30587e-06,0,6.51534e-07,-1.01923e+09,-1.0191e+09,-1.01919e+09,44695.2,0.00909106,0.0309434,0,0.0322512,27563.7,-37105.6,0,46223.2,44695.2
step02_gravity_refstate-crust.xmf,2194,-5.00634e-07,9.16833e-07,0,1.00891e-06,-1.00843e+09,-1.00834e+09,-1.0084e+09,69211.4,0.0110618,0.0202326,0,0.0230591,23292.1,-36712.4,0,43477.8,69211.4
step02_gravity_refstate-crust.xmf,2195,-5.4127e-07,1.06271e-06,0,8.75802e-07,-1.01502e+09,-1.01491e+09,-1.01498e+09,60080,0.0105628,0.0243404,0,0.0265335,24759.7,-36952.3,0,44480.5,60080
step02_gravity_refstate-crust.xmf,2196,-5.8763e-07,1.18558e-06,0,7.74936e-07,-1.02143e+09,-1.02131e+09,-1.02139e+09,53160.6,0.0100915,0.027295,0,0.0291008,25998.2,-37185.7,0,45372.7,53160.6
step02_gravity_refstate-crust.xmf,2197,-7.92397e-07,-2.02688e-07,0,2.78662e-06,-1.04644e+09,-1.0464e+09,-1.04639e+09,191162,0.0177626,-0.0212051,0,0.0276617,14548.9,-38093.3,0,40777,191162
step02_gravity_refstate-crust.xmf,2198,-9.63451e-07,-1.54311e-06,0,4.80337e-06,-1.0759e+09,-1.07594e+09,-1.07583e+09,329511,0.0212192,-0.0474708,0,0.0519974,11057.3,-39162.9,0,40693.9,329511
step02_gravity_refstate-crust.xmf,2199,-8.67613e-07,-1.13498e-06,0,4.21277e-06,-1.07586e+09,-1.07587e+09,-1.0758e+09,288996,0.0203669,-0.0390818,0,0.0440704,12036.8,-39162.4,0,40970.4,288996
step02_gravity_refstate-crust.xmf,2200,-7.90997e-07,-7.89412e-07,0,3.6901e-06,-1.07512e+09,-1.07512e+09,-1.07507e+09,253141,0.0195788,-0.0313577,0,0.036968,13033.3,-39136.6,0,41249.7,253141
step02_gravity_refstate-crust.xmf,2201,-8.32443e-07,1.84035e-06,0,5.29414e-10,-1.0336e+09,-1.03342e+09,-1.03355e+09,36.3178,9.91662e-20,0.0422658,0,0.0422658,40000,-37628.9,0,54917.5,36.3178
step02_gravity_refstate-crust.xmf,2202,-6.35141e-07,1.08632e-07,0,2.1531e-06,-1.01921e+09,-1.01916e+09,-1.01917e+09,147703,0.0153575,-0.0119412,0,0.0194537,16028.7,-37103.1,0,40417.3,147703
step02_gravity_refstate-crust.xmf,2203,-6.80549e-07,1.17364e-08,0,2.40347e-06,-1.04369e+09,-1.04364e+09,-1.04364e+09,164878,0.0167839,-0.0136544,0,0.0216365,15750.1,-37993.7,0,41128.9,164878
step02_gravity_refstate-crust.xmf,2204,-7.03211e-07,-4.92398e-07,0,3.21076e-06,-1.07336e+09,-1.07335e+09,-1.07332e+09,220258,0.0187983,-0.023973,0,0.0304645,14085.1,-39073.3,0,41534.5,220258
step02_gravity_refstate-crust.xmf,2205,-8.74463e-07,1.89298e-06,0,6.89014e-08,-1.05404e+09,-1.05385e+09,-1.05398e+09,4726.64,0.00142668,0.040687,0,0.040712,38364.5,-38372.7,0,54261.4,4726.64
step02_gravity_refstate-crust.xmf,2206,-8.58244e-07,1.85652e-06,0,1.49336e-07,-1.05232e+09,-1.05214e+09,-1.05226e+09,10244.4,0.00296708,0.0401586,0,0.040268,36567.6,-38310.2,0,52960.9,10244.4
step02_gravity_refstate-crust.xmf,2207,-8.3428e-07,1.79379e-06,0,2.49747e-07,-1.05365e+09,-1.05347e+09,-1.05359e+09,17132.6,0.00479381,0.038676,0,0.0389719,34412.6,-38358.7,0,51532.6,17132.6
step02_gravity_refstate-crust.xmf,2208,-7.63923e-07,1.59204e-06,0,4.764e-07,-1.05868e+09,-1.05852e+09,-1.05862e+09,32681.1,0.00816075,0.0336887,0,0.034663,30280.3,-38541.6,0,49013.8,32681.1
step02_gravity_refstate-crust.xmf,2209,-8.00659e-07,1.70173e-06,0,3.6009e-07,-1.0556e+09,-1.05543e+09,-1.05555e+09,24702.2,0.00656421,0.0364643,0,0.0370504,32266.6,-38429.7,0,50179.4,24702.2
step02_gravity_refstate-crust.xmf,2210,-6.38048e-07,2.30271e-07,0,2.03898e-06,-1.03484e+09,-1.03478e+09,-1.03479e+09,139874,0.0155871,-0.0065913,0,0.0169234,16992.2,-37672,0,41326.9,139874
step02_gravity_refstate-crust.xmf,2211,-7.21995e-07,1.46171e-06,0,6.02044e-07,-1.0595e+09,-1.05935e+09,-1.05945e+09,41300.2,0.0095461,0.0305998,0,0.0320543,28424.2,-38571.4,0,47913.3,41300.2
step02_gravity_refstate-crust.xmf,2212,-5.85654e-07,4.1684e-07,0,1.75229e-06,-1.03717e+09,-1.0371e+09,-1.03712e+09,120207,0.0148459,0.000647082,0,0.01486,18437,-37757.3,0,42018.3,120207
step02_gravity_refstate-crust.xmf,2213,-5.62692e-07,8.91005e-07,0,1.13093e-06,-1.03747e+09,-1.03737e+09,-1.03743e+09,77582,0.0125879,0.0169547,0,0.0211168,22571.1,-37769.1,0,43999.6,77582
step02_gravity_refstate-crust.xmf,2214,-5.62541e-07,5.82215e-07,0,1.52193e-06,-1.03849e+09,-1.03842e+09,-1.03846e+09,104405,0.0141542,0.00659235,0,0.0156141,19782.5,-37806,0,42669,104405
step02_gravity_refstate-crust.xmf,2215,-5.56159e-07,7.40127e-07,0,1.31507e-06,-1.03831e+09,-1.03822e+09,-1.03827e+09,90213.5,0.0133967,0.0120042,0,0.0179882,21156.9,-37799.7,0,43317.8,90213.5
step02_gravity_refstate-crust.xmf,2216,-6.82261e-07,1.32144e-06,0,7.38117e-07,-1.06023e+09,-1.06009e+09,-1.06018e+09,50634.8,0.0107634,0.0271365,0,0.0291931,26697.9,-38598.1,0,46931.7,50634.8
step02_gravity_refstate-crust.xmf,2217,-5.7677e-07,1.0262e-06,0,9.76051e-07,-1.0364e+09,-1.03629e+09,-1.03636e+09,66957.1,0.0117803,0.0212017,0,0.0242547,23937.4,-37730.5,0,44683.2,66957.1
step02_gravity_refstate-crust.xmf,2218,-6.29338e-07,1.16192e-06,0,8.88392e-07,-1.05665e+09,-1.05652e+09,-1.0566e+09,60943.7,0.0117912,0.023226,0,0.0260477,24972.8,-38467.5,0,45862.7,60943.7
step02_gravity_refstate-crust.xmf,2219,-6.75523e-07,-2.09495e-07,0,2.78051e-06,-1.07193e+09,-1.0719e+09,-1.07189e+09,190743,0.0180112,-0.0167669,0,0.0246075,15216.7,-39021.7,0,41883.6,190743
step02_gravity_refstate-crust.xmf,2220,-6.11324e-07,2.1565e-08,0,2.40295e-06,-1.07108e+09,-1.07104e+09,-1.07104e+09,164843,0.0172439,-0.00992427,0,0.0198958,16408.4,-38991.4,0,42303.2,164843
step02_gravity_refstate-crust.xmf,2221,-6.1663e-07,1.00225e-06,0,1.0806e-06,-1.06599e+09,-1.06588e+09,-1.06595e+09,74129,0.0130567,0.0184138,0,0.0225731,23356.6,-38807.6,0,45294.2,74129
step02_gravity_refstate-crust.xmf,2222,-6.03771e-07,2.62717e-07,0,2.04682e-06,-1.06805e+09,-1.06799e+09,-1.06801e+09,140412,0.0163857,-0.00318661,0,0.0166926,17715.9,-38881.4,0,42727.2,140412
step02_gravity_refstate-crust.xmf,2223,-5.85442e-07,4.65253e-07,0,1.75424e-06,-1.0683e+09,-1.06823e+09,-1.06826e+09,120341,0.0156183,0.00296395,0,0.0158971,19061.5,-38890.9,0,43311,120341
step02_gravity_refstate-crust.xmf,2224,-5.94613e-07,8.31693e-07,0,1.27949e-06,-1.06783e+09,-1.06773e+09,-1.06779e+09,87773.2,0.0140006,0.0136479,0,0.019552,21861,-38874.3,0,44599.5,87773.2
step02_gravity_refstate-crust.xmf,2225,-5.83058e-07,6.5354e-07,0,1.50159e-06,-1.06843e+09,-1.06835e+09,-1.06839e+09,103009,0.0148384,0.00854234,0,0.0171216,20439,-38895.9,0,43939.1,103009
