Block Name,Point ID,cauchy_strain_0,cauchy_strain_1,cauchy_strain_2,cauchy_strain_3,cauchy_stress_0,cauchy_stress_1,cauchy_stress_2,cauchy_stress_3,displacement_0,displacement_1,displacement_2,displacement_Magnitude,Points_0,Points_1,Points_2,Points_Magnitude,stress_xy
step02_gravity_refstate-mantle.xmf,0,2.19071e-05,-2.97897e-05,0,2.08782e-05,-1.09645e+09,-1.10335e+09,-1.09937e+09,2.79038e+06,-0.0416048,0.486192,-0,0.487969,-1000,-40000,-0,40012.5,2.79038e+06
step02_gravity_refstate-mantle.xmf,1,1.30561e-05,-1.6381e-05,0,1.76962e-05,-1.09725e+09,-1.10118e+09,-1.099e+09,2.3651e+06,-0.0514745,0.460575,-0,0.463443,-1513.8,-40000,-0,40028.6,2.3651e+06
step02_gravity_refstate-mantle.xmf,2,1.12727e-05,-1.64609e-05,0,2.13929e-05,-1.10935e+09,-1.11306e+09,-1.11086e+09,2.85916e+06,-0.0436703,0.474833,-0,0.476837,-1365.48,-40361.7,-0,40384.8,2.85916e+06
step02_gravity_refstate-mantle.xmf,3,8.02639e-06,-1.10525e-05,0,2.00225e-05,-1.11153e+09,-1.11408e+09,-1.1126e+09,2.67601e+06,-0.0468484,0.451383,-0,0.453807,-1783.07,-40421,-0,40460.3,2.67601e+06
step02_gravity_refstate-mantle.xmf,4,1.66163e-05,-2.48364e-05,0,2.53347e-05,-1.11338e+09,-1.11892e+09,-1.1156e+09,3.38598e+06,-0.0365255,0.499927,-0,0.50126,-1000,-40500.4,-0,40512.7,3.38598e+06
step02_gravity_refstate-mantle.xmf,5,7.27057e-06,-1.01706e-05,0,1.56602e-05,-1.09799e+09,-1.10032e+09,-1.09896e+09,2.09299e+06,-0.0568669,0.43215,-0,0.435876,-2053.41,-40000,-0,40052.7,2.09299e+06
step02_gravity_refstate-mantle.xmf,6,9.96116e-06,-1.37377e-05,0,2.35091e-05,-1.12161e+09,-1.12478e+09,-1.12295e+09,3.142e+06,-0.0384573,0.476319,-0,0.477869,-1434.25,-40738.7,-0,40763.9,3.142e+06
step02_gravity_refstate-mantle.xmf,7,2.92466e-06,-5.73304e-06,0,1.39451e-05,-1.09856e+09,-1.09972e+09,-1.09895e+09,1.86377e+06,-0.05965,0.403859,-0,0.408241,-2618.77,-40000,-0,40085.6,1.86377e+06
step02_gravity_refstate-mantle.xmf,8,4.48567e-06,-6.56306e-06,0,1.75064e-05,-1.11303e+09,-1.1145e+09,-1.11363e+09,2.33973e+06,-0.0495212,0.42244,-0,0.425333,-2310.14,-40455.1,-0,40521,2.33973e+06
step02_gravity_refstate-mantle.xmf,9,5.32099e-06,-6.8571e-06,0,2.13792e-05,-1.12842e+09,-1.13005e+09,-1.12913e+09,2.85733e+06,-0.039404,0.443182,-0,0.44493,-2001.29,-40935.4,-0,40984.3,2.85733e+06
step02_gravity_refstate-mantle.xmf,10,5.45967e-07,2.53596e-06,0,5.16956e-09,-1.09839e+09,-1.09813e+09,-1.09846e+09,690.912,3.67719e-19,0.0431124,0,0.0431124,-40000,-40000,-0,56568.5,690.912
step02_gravity_refstate-mantle.xmf,11,9.12543e-07,2.48458e-06,0,2.39825e-09,-1.16968e+09,-1.16947e+09,-1.1698e+09,320.526,-4.47365e-20,0.0375674,-0,0.0375674,-40000,-42204.4,-0,58148.2,320.526
step02_gravity_refstate-mantle.xmf,12,7.87894e-07,2.51448e-06,0,-3.75737e-08,-1.14849e+09,-1.14826e+09,-1.14859e+09,-5021.72,0.00123046,0.0393483,0,0.0393675,-38450.2,-41549,-0,56610.4,5021.72
step02_gravity_refstate-mantle.xmf,13,5.15208e-07,2.56329e-06,0,-2.0099e-08,-1.0984e+09,-1.09812e+09,-1.09846e+09,-2686.23,0.00126006,0.0434957,0,0.043514,-37629,-40000,-0,54917.6,2686.23
step02_gravity_refstate-mantle.xmf,14,1.37124e-05,-1.84224e-05,0,3.08861e-05,-1.12966e+09,-1.13396e+09,-1.1315e+09,4.12793e+06,-0.0292306,0.510754,-0,0.51159,-1000,-41000.4,-0,41012.6,4.12793e+06
step02_gravity_refstate-mantle.xmf,15,1.65232e-06,-3.16549e-06,0,1.51785e-05,-1.11458e+09,-1.11522e+09,-1.1148e+09,2.0286e+06,-0.0505694,0.392882,-0,0.396123,-2888.51,-40492.7,-0,40595.6,2.0286e+06
step02_gravity_refstate-mantle.xmf,16,8.77768e-06,-1.04965e-05,0,2.6846e-05,-1.13696e+09,-1.13954e+09,-1.13814e+09,3.58796e+06,-0.0310599,0.480628,-0,0.48163,-1455.63,-41213.2,-0,41238.9,3.58796e+06
step02_gravity_refstate-mantle.xmf,17,1.11754e-06,2.44574e-06,0,-6.88144e-08,-1.20713e+09,-1.20696e+09,-1.20728e+09,-9197.04,0.00192954,0.0348823,0,0.0349356,-38286.3,-43362.6,-0,57846,9197.04
step02_gravity_refstate-mantle.xmf,18,8.54165e-07,2.52633e-06,0,-1.02485e-07,-1.16706e+09,-1.16683e+09,-1.16717e+09,-13697.1,0.00304452,0.0384836,0,0.0386039,-36553.1,-42123,-0,55771.7,13697.1
step02_gravity_refstate-mantle.xmf,19,1.33154e-06,2.38168e-06,0,2.36907e-09,-1.24096e+09,-1.24082e+09,-1.24114e+09,316.626,-6.90594e-20,0.0322023,-0,0.0322023,-40000,-44408.8,-0,59767.4,316.626
step02_gravity_refstate-mantle.xmf,20,2.48818e-05,-2.80365e-05,0,-1.86188e-05,-1.09566e+09,-1.10273e+09,-1.09898e+09,-2.4884e+06,0.0415867,0.486205,0,0.48798,1000,-40000,0,40012.5,2.4884e+06
step02_gravity_refstate-mantle.xmf,21,1.66089e-05,-2.47809e-05,0,-2.53336e-05,-1.11338e+09,-1.11891e+09,-1.1156e+09,-3.38583e+06,0.0365238,0.49993,0,0.501262,1000,-40500.4,0,40512.7,3.38583e+06
step02_gravity_refstate-mantle.xmf,22,1.19594e-05,-1.6659e-05,0,-2.18357e-05,-1.1092e+09,-1.11303e+09,-1.1108e+09,-2.91835e+06,0.0436736,0.474854,0,0.476859,1364.96,-40361.1,0,40384.2,2.91835e+06
step02_gravity_refstate-mantle.xmf,23,1.29536e-05,-1.63408e-05,0,-1.77013e-05,-1.09727e+09,-1.10118e+09,-1.099e+09,-2.36577e+06,0.0514927,0.460585,0,0.463454,1513.8,-40000,0,40028.6,2.36577e+06
step02_gravity_refstate-mantle.xmf,24,3.02489e-07,-2.57023e-06,0,1.23323e-05,-1.09887e+09,-1.09925e+09,-1.09891e+09,1.64822e+06,-0.06054,0.376265,-0,0.381104,-3211.88,-40000,-0,40128.7,1.64822e+06
step02_gravity_refstate-mantle.xmf,25,2.94213e-06,-3.89048e-06,0,1.82134e-05,-1.12653e+09,-1.12745e+09,-1.12693e+09,2.43422e+06,-0.0427117,0.413555,-0,0.415755,-2514.86,-40868.9,-0,40946.2,2.43422e+06
step02_gravity_refstate-mantle.xmf,26,5.35158e-06,-5.63625e-06,0,2.41354e-05,-1.14271e+09,-1.14418e+09,-1.14343e+09,3.22569e+06,-0.0312068,0.454309,-0,0.455379,-1867.7,-41380.4,-0,41422.5,3.22569e+06
step02_gravity_refstate-mantle.xmf,27,4.19928e-07,2.62973e-06,0,-4.24906e-08,-1.09841e+09,-1.09812e+09,-1.09847e+09,-5678.87,0.00233351,0.0445946,0,0.0446556,-35372.8,-40000,-0,53396.9,5678.87
step02_gravity_refstate-mantle.xmf,28,2.94641e-07,2.72883e-06,0,-5.14563e-08,-1.09843e+09,-1.0981e+09,-1.09847e+09,-6877.13,0.00313493,0.0463624,0,0.0464682,-33225.7,-40000,-0,51999.5,6877.13
step02_gravity_refstate-mantle.xmf,29,7.09789e-07,2.62119e-06,0,-1.58372e-07,-1.15912e+09,-1.15886e+09,-1.15921e+09,-21166.5,0.00464711,0.0404431,0,0.0407093,-34255.1,-41877.2,-0,54102.8,21166.5
step02_gravity_refstate-mantle.xmf,30,1.55751e-06,2.32992e-06,0,-1.05174e-07,-1.28012e+09,-1.28001e+09,-1.28033e+09,-14056.5,0.0032294,0.0295585,0,0.0297344,-37935,-45619.7,-0,59331.5,14056.5
step02_gravity_refstate-mantle.xmf,31,9.79815e-06,-1.37656e-05,0,-2.39199e-05,-1.12164e+09,-1.12479e+09,-1.12295e+09,-3.1969e+06,0.0384744,0.47626,0,0.477812,1435.03,-40738.2,0,40763.4,3.1969e+06
step02_gravity_refstate-mantle.xmf,32,7.99333e-06,-1.10141e-05,0,-2.0023e-05,-1.11162e+09,-1.11416e+09,-1.11269e+09,-2.67607e+06,0.0468248,0.451238,0,0.453661,1786.15,-40423.8,0,40463.3,2.67607e+06
step02_gravity_refstate-mantle.xmf,33,1.06562e-05,-1.20805e-05,0,3.46253e-05,-1.146e+09,-1.14904e+09,-1.14743e+09,4.62768e+06,-0.0224598,0.5184,-0,0.518886,-1000,-41500.9,-0,41512.9,4.62768e+06
step02_gravity_refstate-mantle.xmf,34,6.51987e-06,-6.01684e-06,0,2.94176e-05,-1.1537e+09,-1.15538e+09,-1.15458e+09,3.93166e+06,-0.0236745,0.481367,-0,0.481949,-1504.17,-41726.7,-0,41753.8,3.93166e+06
step02_gravity_refstate-mantle.xmf,35,-1.73666e-06,-1.80936e-07,0,1.0831e-05,-1.09911e+09,-1.0989e+09,-1.09888e+09,1.44757e+06,-0.0599976,0.349641,-0,0.354751,-3834.57,-40000,-0,40183.4,1.44757e+06
step02_gravity_refstate-mantle.xmf,36,-3.1878e-06,1.60943e-06,0,9.48151e-06,-1.09928e+09,-1.09864e+09,-1.09885e+09,1.2672e+06,-0.0583316,0.324148,-0,0.329355,-4488.57,-40000,-0,40251.1,1.2672e+06
step02_gravity_refstate-mantle.xmf,37,-2.05068e-06,1.17786e-06,0,1.07556e-05,-1.11248e+09,-1.11205e+09,-1.11221e+09,1.43749e+06,-0.0515835,0.336194,-0,0.340128,-4161.57,-40414.5,-0,40628.2,1.43749e+06
step02_gravity_refstate-mantle.xmf,38,-4.2399e-07,-4.51617e-07,0,1.31122e-05,-1.11762e+09,-1.11762e+09,-1.11756e+09,1.75245e+06,-0.0492997,0.363322,-0,0.366652,-3519.88,-40579.8,-0,40732.2,1.75245e+06
step02_gravity_refstate-mantle.xmf,39,1.15462e-06,-1.20677e-06,0,1.65636e-05,-1.13295e+09,-1.13327e+09,-1.13311e+09,2.21373e+06,-0.040144,0.390435,-0,0.392494,-2962.15,-41062.1,-0,41168.8,2.21373e+06
step02_gravity_refstate-mantle.xmf,40,2.76724e-06,-2.4496e-06,0,2.04373e-05,-1.1428e+09,-1.14349e+09,-1.14317e+09,2.73144e+06,-0.0335161,0.421042,-0,0.422374,-2410.34,-41373.8,-0,41443.9,2.73144e+06
step02_gravity_refstate-mantle.xmf,41,1.29688e-07,2.85805e-06,0,-4.91782e-08,-1.09846e+09,-1.09809e+09,-1.09847e+09,-6572.66,0.00359922,0.0487841,0,0.0489167,-31182.5,-40000,-0,50718.3,6572.66
step02_gravity_refstate-mantle.xmf,42,5.66225e-07,2.73946e-06,0,-1.98559e-07,-1.15616e+09,-1.15587e+09,-1.15624e+09,-26537.5,0.00591217,0.0426267,0,0.0430347,-32125.1,-41785.3,-0,52707,26537.5
step02_gravity_refstate-mantle.xmf,43,-6.98383e-08,3.01252e-06,0,-3.23177e-08,-1.09849e+09,-1.09807e+09,-1.09848e+09,-4319.26,0.00368482,0.0518651,0,0.0519958,-29238.1,-40000,-0,49546.6,4319.26
step02_gravity_refstate-mantle.xmf,44,3.77273e-07,2.88478e-06,0,-2.15819e-07,-1.15112e+09,-1.15079e+09,-1.15118e+09,-28844.2,0.00660118,0.0455671,0,0.0460428,-30155.3,-41628.7,-0,51403.2,28844.2
step02_gravity_refstate-mantle.xmf,45,1.27263e-06,2.42402e-06,0,-1.45827e-07,-1.23649e+09,-1.23634e+09,-1.23666e+09,-19489.7,0.00416581,0.0330722,0,0.0333335,-36779.5,-44270.5,-0,57555.3,19489.7
step02_gravity_refstate-mantle.xmf,46,1.76347e-06,2.25912e-06,0,1.39677e-09,-1.31224e+09,-1.31218e+09,-1.31248e+09,186.678,-7.83831e-20,0.0270865,-0,0.0270865,-40000,-46613.3,-0,61423.1,186.678
step02_gravity_refstate-mantle.xmf,47,7.25873e-06,-1.01605e-05,0,-1.5657e-05,-1.09799e+09,-1.10032e+09,-1.09896e+09,-2.09256e+06,0.0568723,0.432153,0,0.435879,2053.41,-40000,0,40052.7,2.09256e+06
step02_gravity_refstate-mantle.xmf,48,1.3828e-05,-1.81774e-05,0,-3.06579e-05,-1.12962e+09,-1.13389e+09,-1.13147e+09,-4.09742e+06,0.0292368,0.510753,0,0.511589,1000,-41000.4,0,41012.6,4.09742e+06
step02_gravity_refstate-mantle.xmf,49,3.69391e-06,-2.25444e-06,0,2.48435e-05,-1.15669e+09,-1.15748e+09,-1.15718e+09,3.32033e+06,-0.0249556,0.446943,-0,0.447639,-2007.11,-41809.5,-0,41857.7,3.32033e+06
step02_gravity_refstate-mantle.xmf,50,-2.70966e-06,2.67456e-06,0,9.69728e-06,-1.11922e+09,-1.1185e+09,-1.11886e+09,1.29604e+06,-0.0465305,0.314559,-0,0.317982,-4711.82,-40622,-0,40894.4,1.29604e+06
step02_gravity_refstate-mantle.xmf,51,-2.89344e-07,3.18364e-06,0,1.96303e-09,-1.09852e+09,-1.09805e+09,-1.09848e+09,262.359,0.00336691,0.0556239,0,0.0557257,-27387.8,-40000,-0,48477.7,262.359
step02_gravity_refstate-mantle.xmf,52,1.43053e-07,3.05334e-06,0,-1.99619e-07,-1.14363e+09,-1.14325e+09,-1.14365e+09,-26679.1,0.00662751,0.0494192,0,0.0498616,-28272,-41396.2,-0,50129.3,26679.1
step02_gravity_refstate-mantle.xmf,53,1.13723e-06,2.49701e-06,0,-2.05345e-07,-1.22125e+09,-1.22107e+09,-1.2214e+09,-27444.3,0.00579492,0.034965,0,0.0354419,-35117.7,-43799,-0,56139.2,27444.3
step02_gravity_refstate-mantle.xmf,54,1.01774e-06,2.59624e-06,0,-2.76599e-07,-1.21558e+09,-1.21537e+09,-1.21572e+09,-36967.5,0.00777124,0.0367934,0,0.0376051,-33097.9,-43623.3,-0,54758.2,36967.5
step02_gravity_refstate-mantle.xmf,55,1.52434e-06,2.37347e-06,0,-2.10591e-07,-1.2795e+09,-1.27939e+09,-1.2797e+09,-28145.4,0.00640755,0.0302181,0,0.03089,-35865.9,-45600.6,-0,58015.3,28145.4
step02_gravity_refstate-mantle.xmf,56,2.00912e-06,2.1966e-06,0,-1.05204e-07,-1.35473e+09,-1.3547e+09,-1.355e+09,-14060.5,0.0038401,0.0243083,0,0.0246097,-38090.9,-47927.1,-0,61220.3,14060.5
step02_gravity_refstate-mantle.xmf,57,2.92998e-06,-5.72828e-06,0,-1.39383e-05,-1.09856e+09,-1.09972e+09,-1.09895e+09,-1.86286e+06,0.0596491,0.403858,0,0.408239,2618.77,-40000,0,40085.6,1.86286e+06
step02_gravity_refstate-mantle.xmf,58,4.47248e-06,-6.54617e-06,0,-1.74923e-05,-1.11303e+09,-1.1145e+09,-1.11363e+09,-2.33784e+06,0.049531,0.422304,0,0.425198,2312.69,-40455.2,0,40521.3,2.33784e+06
step02_gravity_refstate-mantle.xmf,59,1.06211e-05,-1.19743e-05,0,-3.46345e-05,-1.146e+09,-1.14902e+09,-1.14742e+09,-4.62891e+06,0.0224617,0.518409,0,0.518896,1000,-41500.9,0,41512.9,4.62891e+06
step02_gravity_refstate-mantle.xmf,60,8.41697e-06,-9.99974e-06,0,-2.66099e-05,-1.13685e+09,-1.13931e+09,-1.13797e+09,-3.55641e+06,0.0312145,0.479918,0,0.480932,1465.17,-41208.5,0,41234.5,3.55641e+06
step02_gravity_refstate-mantle.xmf,61,5.36342e-06,-6.92394e-06,0,-2.14232e-05,-1.12839e+09,-1.13004e+09,-1.12911e+09,-2.86321e+06,0.0393763,0.443617,0,0.445361,1993.93,-40934.8,0,40983.3,2.86321e+06
step02_gravity_refstate-mantle.xmf,62,7.5256e-06,-6.10071e-06,0,3.70734e-05,-1.16238e+09,-1.1642e+09,-1.16338e+09,4.95487e+06,-0.0165075,0.522958,-0,0.523218,-1000,-42001.1,-0,42013,4.95487e+06
step02_gravity_refstate-mantle.xmf,63,4.33703e-06,-2.12499e-06,0,2.82736e-05,-1.16387e+09,-1.16473e+09,-1.16445e+09,3.77876e+06,-0.0203805,0.466617,-0,0.467062,-1725.81,-42035.9,-0,42071.3,3.77876e+06
step02_gravity_refstate-mantle.xmf,64,-4.00335e-06,2.8844e-06,0,8.23347e-06,-1.09935e+09,-1.09843e+09,-1.09881e+09,1.1004e+06,-0.0558298,0.299879,-0,0.305032,-5175.58,-40000,-0,40333.4,1.1004e+06
step02_gravity_refstate-mantle.xmf,65,-4.55704e-06,3.82297e-06,0,7.10992e-06,-1.09939e+09,-1.09827e+09,-1.09878e+09,950240,-0.0526917,0.276892,-0,0.281861,-5897.33,-40000,-0,40432.4,950240
step02_gravity_refstate-mantle.xmf,66,-3.44399e-06,3.71029e-06,0,8.01846e-06,-1.1188e+09,-1.11784e+09,-1.11834e+09,1.07167e+06,-0.0443874,0.287501,-0,0.290907,-5488.29,-40606.7,-0,40975.9,1.07167e+06
step02_gravity_refstate-mantle.xmf,67,-4.85254e-06,4.45387e-06,0,6.07833e-06,-1.0994e+09,-1.09816e+09,-1.09875e+09,812369,-0.049101,0.255199,-0,0.25988,-6655.64,-40000,-0,40549.9,812369
step02_gravity_refstate-mantle.xmf,68,-4.91048e-06,4.91033e-06,0,5.23383e-06,-1.09938e+09,-1.09806e+09,-1.09872e+09,699501,-0.0451987,0.234795,-0,0.239105,-7452.39,-40000,-0,40688.3,699501
step02_gravity_refstate-mantle.xmf,69,-4.18336e-06,4.94869e-06,0,5.36402e-06,-1.11744e+09,-1.11622e+09,-1.11688e+09,716902,-0.038266,0.237559,-0,0.240621,-7228.54,-40562.8,-0,41201.9,716902
step02_gravity_refstate-mantle.xmf,70,-1.39418e-06,1.75394e-06,0,1.18556e-05,-1.12909e+09,-1.12867e+09,-1.1289e+09,1.5845e+06,-0.0422574,0.339034,-0,0.341658,-4073.37,-40933.3,-0,41135.4,1.5845e+06
step02_gravity_refstate-mantle.xmf,71,-3.41667e-07,1.24733e-06,0,1.44335e-05,-1.14004e+09,-1.13982e+09,-1.13999e+09,1.92904e+06,-0.0365052,0.36231,-0,0.364144,-3535.9,-41277.2,-0,41428.3,1.92904e+06
step02_gravity_refstate-mantle.xmf,72,6.81424e-07,9.96398e-07,0,1.76355e-05,-1.15206e+09,-1.15202e+09,-1.15215e+09,2.35699e+06,-0.0296905,0.387686,-0,0.388821,-3016.21,-41654.8,-0,41763.8,2.35699e+06
step02_gravity_refstate-mantle.xmf,73,1.58832e-06,8.97939e-07,0,2.15307e-05,-1.1632e+09,-1.1633e+09,-1.16342e+09,2.87758e+06,-0.0231509,0.415557,-0,0.416201,-2512.01,-42004.8,-0,42079.9,2.87758e+06
step02_gravity_refstate-mantle.xmf,74,8.83542e-07,2.74069e-06,0,-3.52599e-07,-1.2151e+09,-1.21485e+09,-1.21522e+09,-47124.8,0.00997226,0.0391759,0,0.0404252,-30774.1,-43607.8,-0,53373.1,47124.8
step02_gravity_refstate-mantle.xmf,75,-6.58709e-08,3.22489e-06,0,-1.81334e-07,-1.14156e+09,-1.14112e+09,-1.14155e+09,-24235.3,0.00653974,0.053286,0,0.0536859,-26555.5,-41331.2,-0,49127,24235.3
step02_gravity_refstate-mantle.xmf,76,5.71113e-07,2.9311e-06,0,-3.46264e-07,-1.19256e+09,-1.19225e+09,-1.19264e+09,-46278.2,0.00994762,0.0439275,0,0.0450398,-28812.4,-42910,-0,51685.9,46278.2
step02_gravity_refstate-mantle.xmf,77,-5.56318e-07,3.37878e-06,0,5.43257e-08,-1.09856e+09,-1.09803e+09,-1.09849e+09,7260.63,0.00263327,0.0600882,0,0.0601458,-25627,-40000,-0,47505.2,7260.63
step02_gravity_refstate-mantle.xmf,78,-8.38905e-07,3.58332e-06,0,1.27915e-07,-1.0986e+09,-1.09801e+09,-1.09849e+09,17095.8,0.00148287,0.0652903,0,0.0653072,-23951.4,-40000,-0,46622.6,17095.8
step02_gravity_refstate-mantle.xmf,79,-2.79725e-07,3.42038e-06,0,-1.59805e-07,-1.14411e+09,-1.14361e+09,-1.14407e+09,-21358,0.00647335,0.0576432,0,0.0580055,-24807.7,-41408.9,-0,48271.3,21358
step02_gravity_refstate-mantle.xmf,80,-1.13716e-06,3.79417e-06,0,2.26571e-07,-1.09865e+09,-1.09799e+09,-1.0985e+09,30281.1,-7.44343e-05,0.0712646,-0,0.0712646,-22356.9,-40000,-0,45823.9,30281.1
step02_gravity_refstate-mantle.xmf,81,-6.08682e-07,3.64028e-06,0,-6.9191e-08,-1.13679e+09,-1.13622e+09,-1.13671e+09,-9247.38,0.00496528,0.0637937,0,0.0639866,-23159.6,-41181.2,-0,47246.8,9247.38
step02_gravity_refstate-mantle.xmf,82,1.83207e-06,2.27232e-06,0,-1.90934e-07,-1.32756e+09,-1.3275e+09,-1.3278e+09,-25518.3,0.00641709,0.0265335,0,0.0272984,-36523.7,-47086.8,-0,59591.5,25518.3
step02_gravity_refstate-mantle.xmf,83,2.18213e-06,2.13514e-06,0,1.16271e-09,-1.38353e+09,-1.38354e+09,-1.38382e+09,155.396,-8.74152e-20,0.0222409,-0,0.0222409,-40000,-48817.8,-0,63112.4,155.396
step02_gravity_refstate-mantle.xmf,84,1.60947e-06,-3.12288e-06,0,-1.51208e-05,-1.11445e+09,-1.11508e+09,-1.11466e+09,-2.0209e+06,0.0506667,0.392326,0,0.395584,2899.53,-40488.6,0,40592.3,2.0209e+06
step02_gravity_refstate-mantle.xmf,85,6.3775e-06,-5.7196e-06,0,-2.9265e-05,-1.15372e+09,-1.15534e+09,-1.15458e+09,-3.91127e+06,0.0236693,0.481354,0,0.481935,1504.38,-41727.1,0,41754.2,3.91127e+06
step02_gravity_refstate-mantle.xmf,86,5.33747e-07,2.54667e-06,0,-4.36394e-09,-1.09839e+09,-1.09812e+09,-1.09846e+09,-583.241,1.06334e-19,0.0431124,0,0.0431124,40000,-40000,0,56568.5,583.241
step02_gravity_refstate-mantle.xmf,87,5.15277e-07,2.56328e-06,0,2.01449e-08,-1.0984e+09,-1.09812e+09,-1.09846e+09,2692.37,-0.00126002,0.0434957,-0,0.0435139,37629,-40000,0,54917.6,2692.37
step02_gravity_refstate-mantle.xmf,88,7.86875e-07,2.51437e-06,0,3.72906e-08,-1.14826e+09,-1.14803e+09,-1.14837e+09,4983.89,-0.001222,0.0393641,-0,0.0393831,38458.5,-41542,0,56610.9,4983.89
step02_gravity_refstate-mantle.xmf,89,9.1262e-07,2.4845e-06,0,-2.13472e-09,-1.16968e+09,-1.16947e+09,-1.1698e+09,-285.305,1.67736e-19,0.0375674,0,0.0375674,40000,-42204.4,0,58148.2,285.305
step02_gravity_refstate-mantle.xmf,90,-4.84044e-06,5.19694e-06,0,4.43252e-06,-1.09934e+09,-1.098e+09,-1.09869e+09,592406,-0.0411059,0.215652,-0,0.219535,-8289.57,-40000,-0,40849.9,592406
step02_gravity_refstate-mantle.xmf,91,-4.12418e-06,5.16527e-06,0,4.64546e-06,-1.1188e+09,-1.11756e+09,-1.11825e+09,620865,-0.0349238,0.221487,-0,0.224224,-7886.9,-40606,-0,41364.9,620865
step02_gravity_refstate-mantle.xmf,92,4.53068e-06,-1.62849e-06,0,3.22086e-05,-1.17074e+09,-1.17156e+09,-1.17135e+09,4.30468e+06,-0.0161277,0.488771,-0,0.489037,-1432.49,-42250.8,-0,42275.1,4.30468e+06
step02_gravity_refstate-mantle.xmf,93,2.59392e-06,1.17698e-06,0,2.6976e-05,-1.17435e+09,-1.17454e+09,-1.1747e+09,3.60535e+06,-0.0165137,0.450459,-0,0.450762,-1959.48,-42356.7,-0,42402,3.60535e+06
step02_gravity_refstate-mantle.xmf,94,-3.89528e-06,4.27599e-06,0,6.8726e-06,-1.11715e+09,-1.11606e+09,-1.11663e+09,918523,-0.0428699,0.267684,-0,0.271095,-6129.87,-40554.2,-0,41014.9,918523
step02_gravity_refstate-mantle.xmf,95,-3.65764e-06,4.80669e-06,0,6.06593e-06,-1.12826e+09,-1.12713e+09,-1.12777e+09,810711,-0.0354041,0.250597,-0,0.253086,-6671.74,-40900.4,-0,41440.9,810711
step02_gravity_refstate-mantle.xmf,96,-1.89476e-06,3.09999e-06,0,1.0797e-05,-1.13788e+09,-1.13722e+09,-1.13763e+09,1.44302e+06,-0.0366272,0.319904,-0,0.321994,-4528.55,-41205,-0,41453.1,1.44302e+06
step02_gravity_refstate-mantle.xmf,97,3.16452e-07,3.09141e-06,0,-3.16939e-07,-1.17717e+09,-1.1768e+09,-1.17721e+09,-42358.9,0.00941567,0.0480463,0,0.0489602,-27352.3,-42433.3,-0,50485,42358.9
step02_gravity_refstate-mantle.xmf,98,-1.45336e-06,4.00994e-06,0,3.50059e-07,-1.0987e+09,-1.09797e+09,-1.09851e+09,46785.3,-0.00202454,0.0780473,-0,0.0780735,-20839.5,-40000,-0,45103,46785.3
step02_gravity_refstate-mantle.xmf,99,-8.5981e-07,3.84632e-06,0,1.38413e-08,-1.13702e+09,-1.13639e+09,-1.1369e+09,1849.9,0.00388463,0.0697496,0,0.0698577,-21635.1,-41187.1,-0,46523.7,1849.9
step02_gravity_refstate-mantle.xmf,100,1.46365e-06,2.44214e-06,0,-2.98196e-07,-1.27687e+09,-1.27674e+09,-1.27707e+09,-39853.9,0.00907463,0.0313463,0,0.0326334,-34025,-45519.2,-0,56830.4,39853.9
step02_gravity_refstate-mantle.xmf,101,1.36085e-06,2.55536e-06,0,-3.81483e-07,-1.27228e+09,-1.27212e+09,-1.27246e+09,-50985.1,0.0117174,0.0332064,0,0.0352132,-32011.5,-45376.7,-0,55531.8,50985.1
step02_gravity_refstate-mantle.xmf,102,1.84712e-06,2.30882e-06,0,-2.82506e-07,-1.33385e+09,-1.33378e+09,-1.33409e+09,-37756.9,0.00974553,0.0267376,0,0.0284583,-34804.2,-47281.3,-0,58709.9,37756.9
step02_gravity_refstate-mantle.xmf,103,2.20111e-06,2.17882e-06,0,-2.21741e-07,-1.38959e+09,-1.3896e+09,-1.38989e+09,-29635.7,0.00899916,0.0224432,0,0.0241802,-35922.5,-49005.4,-0,60761.4,29635.7
step02_gravity_refstate-mantle.xmf,104,2.40086e-06,2.08452e-06,0,-1.04041e-07,-1.42409e+09,-1.42413e+09,-1.42441e+09,-13905.1,0.00470246,0.019724,0,0.0202768,-38039.7,-50072,-0,62882.6,13905.1
step02_gravity_refstate-mantle.xmf,105,2.5622e-06,2.02875e-06,0,9.08858e-10,-1.45493e+09,-1.455e+09,-1.45527e+09,121.469,-9.26949e-20,0.0176424,-0,0.0176424,-40000,-51025.6,-0,64835.3,121.469
step02_gravity_refstate-mantle.xmf,106,7.53039e-06,-6.11505e-06,0,-3.70867e-05,-1.16238e+09,-1.1642e+09,-1.16338e+09,-4.95664e+06,0.0165041,0.522956,0,0.523217,1000,-42001.1,0,42013,4.95664e+06
step02_gravity_refstate-mantle.xmf,107,3.01004e-07,-2.57071e-06,0,-1.23345e-05,-1.09887e+09,-1.09925e+09,-1.09891e+09,-1.6485e+06,0.0605402,0.376265,0,0.381104,3211.88,-40000,0,40128.7,1.6485e+06
step02_gravity_refstate-mantle.xmf,108,2.91615e-06,-3.85858e-06,0,-1.81751e-05,-1.12649e+09,-1.1274e+09,-1.12688e+09,-2.4291e+06,0.042757,0.413201,0,0.415407,2521.29,-40867.4,0,40945.1,2.4291e+06
step02_gravity_refstate-mantle.xmf,109,5.3503e-06,-5.63441e-06,0,-2.41289e-05,-1.14271e+09,-1.14417e+09,-1.14342e+09,-3.22483e+06,0.0312129,0.454283,0,0.455354,1868.07,-41380.1,0,41422.2,3.22483e+06
step02_gravity_refstate-mantle.xmf,110,8.50313e-07,2.52679e-06,0,1.00978e-07,-1.16627e+09,-1.16604e+09,-1.16638e+09,13495.8,-0.00300938,0.0385352,-0,0.0386526,36576.6,-42098.7,0,55768.7,13495.8
step02_gravity_refstate-mantle.xmf,111,1.10452e-06,2.44815e-06,0,6.58151e-08,-1.20473e+09,-1.20455e+09,-1.20488e+09,8796.19,-0.00184725,0.0350543,-0,0.0351029,38338.9,-43288.2,0,57825.1,8796.19
step02_gravity_refstate-mantle.xmf,112,-4.02774e-06,5.33e-06,0,3.90532e-06,-1.1199e+09,-1.11865e+09,-1.11936e+09,521946,-0.0312659,0.204287,-0,0.206666,-8668.78,-40641.1,-0,41555.3,521946
step02_gravity_refstate-mantle.xmf,113,-3.29584e-06,5.23184e-06,0,5.0184e-06,-1.13988e+09,-1.13874e+09,-1.13943e+09,670709,-0.0271858,0.227755,-0,0.229372,-7479.27,-41262.6,-0,41935,670709
step02_gravity_refstate-mantle.xmf,114,4.45545e-06,-4.62877e-07,0,3.85807e-05,-1.17875e+09,-1.1794e+09,-1.17934e+09,5.15632e+06,-0.0112835,0.524603,-0,0.524725,-1000,-42500.6,-0,42512.4,5.15632e+06
step02_gravity_refstate-mantle.xmf,115,-2.50449e-06,3.864e-06,0,9.24361e-06,-1.13781e+09,-1.13696e+09,-1.13747e+09,1.23541e+06,-0.0354837,0.299224,-0,0.301321,-5081.22,-41200.5,-0,41512.7,1.23541e+06
step02_gravity_refstate-mantle.xmf,116,-2.95762e-06,4.61674e-06,0,7.39163e-06,-1.1399e+09,-1.13889e+09,-1.13951e+09,987892,-0.0320709,0.270421,-0,0.272317,-5936.37,-41264.2,-0,41689,987892
step02_gravity_refstate-mantle.xmf,117,-1.15543e-06,3.034e-06,0,1.26107e-05,-1.14837e+09,-1.14781e+09,-1.14822e+09,1.68542e+06,-0.0314992,0.337081,-0,0.338549,-4085.58,-41533.8,-0,41734.3,1.68542e+06
step02_gravity_refstate-mantle.xmf,118,-4.91765e-07,3.11498e-06,0,1.51983e-05,-1.15996e+09,-1.15948e+09,-1.1599e+09,2.03125e+06,-0.0255371,0.358971,-0,0.359878,-3577.92,-41896.5,-0,42049,2.03125e+06
step02_gravity_refstate-mantle.xmf,119,9.89061e-08,3.4513e-06,0,1.84052e-05,-1.17142e+09,-1.17097e+09,-1.17143e+09,2.45986e+06,-0.0194699,0.383655,-0,0.384149,-3066.95,-42255.1,-0,42366.2,2.45986e+06
step02_gravity_refstate-mantle.xmf,120,4.14291e-07,4.3069e-06,0,2.24682e-05,-1.18339e+09,-1.18287e+09,-1.18344e+09,3.00287e+06,-0.0132372,0.411629,-0,0.411842,-2550.34,-42629.1,-0,42705.3,3.00287e+06
step02_gravity_refstate-mantle.xmf,121,-3.16444e-06,5.00623e-06,0,1.45508e-06,-1.09899e+09,-1.0979e+09,-1.09857e+09,194471,-0.0167965,0.125279,-0,0.1264,-14284.9,-40000,-0,42474.2,194471
step02_gravity_refstate-mantle.xmf,122,-2.81805e-06,4.83379e-06,0,1.15771e-06,-1.09893e+09,-1.09791e+09,-1.09855e+09,154728,-0.0132706,0.113948,-0,0.114718,-15469.2,-40000,-0,42887,154728
step02_gravity_refstate-mantle.xmf,123,-2.43649e-06,4.89827e-06,0,1.00816e-06,-1.12856e+09,-1.12758e+09,-1.12824e+09,134741,-0.00860275,0.115849,-0,0.116168,-14779,-40918.1,-0,43505.3,134741
step02_gravity_refstate-mantle.xmf,124,-3.50722e-06,5.1551e-06,0,1.79795e-06,-1.09905e+09,-1.09789e+09,-1.09858e+09,240296,-0.020542,0.137618,-0,0.139142,-13158,-40000,-0,42108.6,240296
step02_gravity_refstate-mantle.xmf,125,-2.74866e-06,5.0636e-06,0,1.32898e-06,-1.12664e+09,-1.12559e+09,-1.12627e+09,177618,-0.0120115,0.127727,-0,0.128291,-13645.6,-40856.9,-0,43075.4,177618
step02_gravity_refstate-mantle.xmf,126,1.00129e-06,2.82791e-06,0,-4.57168e-07,-1.24635e+09,-1.24611e+09,-1.24649e+09,-61100.5,0.0138427,0.0390373,0,0.041419,-28875,-44574.4,-0,53109.7,61100.5
step02_gravity_refstate-mantle.xmf,127,2.49942e-07,3.22319e-06,0,-3.55226e-07,-1.18715e+09,-1.18675e+09,-1.18718e+09,-47476,0.0107214,0.0503272,0,0.0514565,-25890.3,-42741.4,-0,49971.3,47476
step02_gravity_refstate-mantle.xmf,128,6.70792e-07,3.02483e-06,0,-4.41485e-07,-1.22094e+09,-1.22063e+09,-1.22103e+09,-59004.5,0.013189,0.0441444,0,0.0460725,-27231.3,-43787.6,-0,51564.6,59004.5
step02_gravity_refstate-mantle.xmf,129,-1.78532e-06,4.22714e-06,0,5.01171e-07,-1.09876e+09,-1.09795e+09,-1.09852e+09,66981.4,-0.00434642,0.0856734,-0,0.0857836,-19395.5,-40000,-0,44454.3,66981.4
step02_gravity_refstate-mantle.xmf,130,-1.12027e-06,4.06961e-06,0,1.07381e-07,-1.14001e+09,-1.13931e+09,-1.13986e+09,14351.4,0.00276135,0.0767526,0,0.0768023,-20063.4,-41278.3,-0,45896,14351.4
step02_gravity_refstate-mantle.xmf,131,9.58859e-08,3.43274e-06,0,-3.54683e-07,-1.19423e+09,-1.19379e+09,-1.19425e+09,-47403.3,0.011808,0.0547358,0,0.055995,-23997.6,-42959.8,-0,49208,47403.3
step02_gravity_refstate-mantle.xmf,132,-2.76014e-07,3.67675e-06,0,-2.4162e-07,-1.17916e+09,-1.17863e+09,-1.17912e+09,-32292.5,0.00981768,0.0621001,0,0.0628714,-22315.6,-42492.3,-0,47995.6,32292.5
step02_gravity_refstate-mantle.xmf,133,-2.46913e-06,4.6433e-06,0,9.01755e-07,-1.09887e+09,-1.09792e+09,-1.09854e+09,120520,-0.00999918,0.103591,-0,0.104072,-16713.6,-40000,-0,43351.4,120520
step02_gravity_refstate-mantle.xmf,134,-2.07399e-06,4.70198e-06,0,7.06095e-07,-1.13239e+09,-1.13148e+09,-1.13211e+09,94369.6,-0.00494893,0.104216,-0,0.104333,-16027.1,-41038.2,-0,44056.8,94369.6
step02_gravity_refstate-mantle.xmf,135,-2.11318e-06,4.43451e-06,0,6.85639e-07,-1.09881e+09,-1.09793e+09,-1.09853e+09,91635.6,-0.00701297,0.0941761,-0,0.0944369,-18021.3,-40000,-0,43872.2,91635.6
step02_gravity_refstate-mantle.xmf,136,-1.54283e-06,4.28689e-06,0,3.30496e-07,-1.12771e+09,-1.12693e+09,-1.1275e+09,44170.8,-0.00092318,0.0856675,-0,0.0856725,-18746.2,-40896,-0,44987.8,44170.8
step02_gravity_refstate-mantle.xmf,137,-1.60761e-06,4.46314e-06,0,3.98615e-07,-1.13928e+09,-1.13847e+09,-1.13907e+09,53274.9,-0.000874241,0.0921973,-0,0.0922014,-17490.8,-41253.6,-0,44808.3,53274.9
step02_gravity_refstate-mantle.xmf,138,1.27664e-06,2.67091e-06,0,-4.45116e-07,-1.27156e+09,-1.27138e+09,-1.27173e+09,-59489.7,0.0139687,0.035039,0,0.0377207,-30277.1,-45354.5,-0,54532,59489.7
step02_gravity_refstate-mantle.xmf,139,2.75162e-06,1.99468e-06,0,-8.92627e-08,-1.49552e+09,-1.49562e+09,-1.49588e+09,-11930,0.00532809,0.0152166,0,0.0161224,-38060.1,-52280.5,-0,64667.1,11930
step02_gravity_refstate-mantle.xmf,140,2.88257e-06,1.95474e-06,0,7.45904e-10,-1.52662e+09,-1.52675e+09,-1.52701e+09,99.6901,-9.3661e-20,0.0132255,-0,0.0132255,-40000,-53242.2,-0,66593.8,99.6901
step02_gravity_refstate-mantle.xmf,141,-1.73469e-06,-1.8443e-07,0,-1.08319e-05,-1.09911e+09,-1.0989e+09,-1.09888e+09,-1.44769e+06,0.0599967,0.34964,0,0.354751,3834.57,-40000,0,40183.4,1.44769e+06
step02_gravity_refstate-mantle.xmf,142,-4.24508e-07,-4.5032e-07,0,-1.31125e-05,-1.11762e+09,-1.11762e+09,-1.11756e+09,-1.75249e+06,0.0492997,0.363322,0,0.366652,3519.88,-40579.8,0,40732.2,1.75249e+06
step02_gravity_refstate-mantle.xmf,143,4.5301e-06,-1.6287e-06,0,-3.22081e-05,-1.17074e+09,-1.17156e+09,-1.17135e+09,-4.30461e+06,0.0161284,0.48877,0,0.489037,1432.49,-42250.8,0,42275.1,4.30461e+06
step02_gravity_refstate-mantle.xmf,144,1.10402e-06,-1.16721e-06,0,-1.64531e-05,-1.13265e+09,-1.13296e+09,-1.1328e+09,-2.19896e+06,0.0403394,0.389464,0,0.391548,2980.98,-41052.6,0,41160.7,2.19896e+06
step02_gravity_refstate-mantle.xmf,145,2.75779e-06,-2.44182e-06,0,-2.04145e-05,-1.14277e+09,-1.14346e+09,-1.14314e+09,-2.7284e+06,0.0335401,0.42087,0,0.422204,2413.25,-41372.9,0,41443.2,2.7284e+06
step02_gravity_refstate-mantle.xmf,146,3.69058e-06,-2.25006e-06,0,-2.48396e-05,-1.15669e+09,-1.15749e+09,-1.15719e+09,-3.31981e+06,0.0249557,0.446904,0,0.4476,2007.71,-41809.7,0,41857.9,3.31981e+06
step02_gravity_refstate-mantle.xmf,147,-3.18434e-06,1.60859e-06,0,-9.48201e-06,-1.09928e+09,-1.09864e+09,-1.09885e+09,-1.26727e+06,0.058331,0.324148,0,0.329354,4488.57,-40000,0,40251.1,1.26727e+06
step02_gravity_refstate-mantle.xmf,148,-2.04312e-06,1.21041e-06,0,-1.08528e-05,-1.11248e+09,-1.11204e+09,-1.11221e+09,-1.45047e+06,0.0515835,0.336194,0,0.340128,4161.57,-40414.5,0,40628.2,1.45047e+06
step02_gravity_refstate-mantle.xmf,149,4.35357e-07,2.6271e-06,0,4.01864e-08,-1.09841e+09,-1.09812e+09,-1.09847e+09,5370.91,-0.00233356,0.0445945,-0,0.0446555,35372.8,-40000,0,53396.9,5370.91
step02_gravity_refstate-mantle.xmf,150,1.33137e-06,2.38183e-06,0,-1.67635e-09,-1.24096e+09,-1.24082e+09,-1.24114e+09,-224.044,2.56023e-19,0.0322024,0,0.0322024,40000,-44408.8,0,59767.4,224.044
step02_gravity_refstate-mantle.xmf,151,-4.68037e-06,5.32387e-06,0,3.76537e-06,-1.09929e+09,-1.09796e+09,-1.09867e+09,503241,-0.036915,0.19774,-0,0.201157,-9169.24,-40000,-0,41037.5,503241
step02_gravity_refstate-mantle.xmf,152,-4.44328e-06,5.37522e-06,0,3.16622e-06,-1.09924e+09,-1.09792e+09,-1.09864e+09,423165,-0.0327064,0.181021,-0,0.183952,-10093.6,-40000,-0,41253.9,423165
step02_gravity_refstate-mantle.xmf,153,-3.79518e-06,5.39495e-06,0,3.21891e-06,-1.12329e+09,-1.12206e+09,-1.12278e+09,430207,-0.0265464,0.186738,-0,0.188615,-9542.37,-40747.4,-0,41849.8,430207
step02_gravity_refstate-mantle.xmf,154,-3.47414e-06,5.33402e-06,0,4.22262e-06,-1.13574e+09,-1.13457e+09,-1.13528e+09,564353,-0.0264732,0.211281,-0,0.212933,-8217.29,-41134.1,-0,41946.9,564353
step02_gravity_refstate-mantle.xmf,155,2.11416e-06,2.93914e-06,0,3.30048e-05,-1.18661e+09,-1.1865e+09,-1.18689e+09,4.41109e+06,-0.0103047,0.484871,-0,0.484981,-1478.74,-42736.5,-0,42762.1,4.41109e+06
step02_gravity_refstate-mantle.xmf,156,-1.71601e-06,4.2129e-06,0,1.0742e-05,-1.15493e+09,-1.15414e+09,-1.1547e+09,1.43567e+06,-0.0270663,0.311632,-0,0.312805,-4690.78,-41735.6,-0,41998.3,1.43567e+06
step02_gravity_refstate-mantle.xmf,157,-2.71131e-06,5.25375e-06,0,6.08841e-06,-1.15364e+09,-1.15258e+09,-1.15328e+09,813716,-0.0230442,0.24515,-0,0.246231,-6724.87,-41691.8,-0,42230.7,813716
step02_gravity_refstate-mantle.xmf,158,1.97128e-07,6.26316e-06,0,2.80467e-05,-1.19668e+09,-1.19587e+09,-1.19671e+09,3.74844e+06,-0.00699233,0.445411,-0,0.445466,-1995.91,-43043.4,-0,43089.7,3.74844e+06
step02_gravity_refstate-mantle.xmf,159,-4.14413e-06,5.34484e-06,0,2.64761e-06,-1.09917e+09,-1.09791e+09,-1.09862e+09,353853,-0.0285399,0.165452,-0,0.167895,-11064.9,-40000,-0,41502.2,353853
step02_gravity_refstate-mantle.xmf,160,-3.40753e-06,5.37495e-06,0,2.53181e-06,-1.12762e+09,-1.12645e+09,-1.12716e+09,338377,-0.0212296,0.168112,-0,0.169447,-10588,-40883.7,-0,42232.4,338377
step02_gravity_refstate-mantle.xmf,161,-3.84541e-06,5.27583e-06,0,2.19084e-06,-1.09912e+09,-1.0979e+09,-1.0986e+09,292806,-0.02447,0.150997,-0,0.152967,-12085.5,-40000,-0,41785.9,292806
step02_gravity_refstate-mantle.xmf,162,-3.42801e-06,5.30713e-06,0,2.14474e-06,-1.11943e+09,-1.11826e+09,-1.11897e+09,286645,-0.0204406,0.154651,-0,0.155996,-11575.2,-40630.3,-0,42246.9,286645
step02_gravity_refstate-mantle.xmf,163,-2.98767e-06,5.20372e-06,0,1.67056e-06,-1.12896e+09,-1.12787e+09,-1.12856e+09,223270,-0.0146837,0.140849,-0,0.141613,-12494.6,-40927.5,-0,42792.2,223270
step02_gravity_refstate-mantle.xmf,164,-2.0499e-06,4.96607e-06,0,9.961e-07,-1.15445e+09,-1.15351e+09,-1.15418e+09,133129,-0.0039488,0.119391,-0,0.119457,-14022.8,-41720.6,-0,44014.2,133129
step02_gravity_refstate-mantle.xmf,165,-5.54812e-07,3.86626e-06,0,-1.38188e-07,-1.1706e+09,-1.17001e+09,-1.17053e+09,-18468.8,0.00813239,0.0681481,0,0.0686316,-21081.3,-42226.6,-0,47196.4,18468.8
step02_gravity_refstate-mantle.xmf,166,1.84315e-06,2.39327e-06,0,-3.89685e-07,-1.34038e+09,-1.34031e+09,-1.34063e+09,-52081.3,0.0140043,0.0275023,0,0.0308625,-32633.8,-47483.5,-0,57616.3,52081.3
step02_gravity_refstate-mantle.xmf,167,1.67156e-06,2.53397e-06,0,-4.63486e-07,-1.32276e+09,-1.32264e+09,-1.32298e+09,-61944.9,0.0162971,0.0303449,0,0.0344443,-30815.5,-46938.1,-0,56149.6,61944.9
step02_gravity_refstate-mantle.xmf,168,2.12244e-06,2.27072e-06,0,-3.32168e-07,-1.38092e+09,-1.3809e+09,-1.3812e+09,-44394.3,0.0134332,0.0239121,0,0.0274269,-33752,-48737.1,-0,59283.3,44394.3
step02_gravity_refstate-mantle.xmf,169,2.60642e-06,2.06558e-06,0,-1.91607e-07,-1.46487e+09,-1.46495e+09,-1.46522e+09,-25608.2,0.0101473,0.0174538,0,0.0201892,-36103.8,-51333.2,-0,62758.1,25608.2
step02_gravity_refstate-mantle.xmf,170,3.02616e-06,1.94501e-06,0,-6.78878e-08,-1.56575e+09,-1.56589e+09,-1.56615e+09,-9073.2,0.00577057,0.0109369,0,0.0123659,-38089,-54451.7,-0,66451.1,9073.2
step02_gravity_refstate-mantle.xmf,171,3.12493e-06,1.92311e-06,0,-5.55189e-10,-1.5988e+09,-1.59896e+09,-1.59921e+09,-74.201,1.58496e-18,0.00889611,0,0.00889611,-40000,-55473.1,-0,68390.6,74.201
step02_gravity_refstate-mantle.xmf,172,3.27552e-06,1.95237e-06,0,4.40304e-10,-1.67163e+09,-1.67181e+09,-1.67207e+09,58.8466,-7.81402e-20,0.00453483,-0,0.00453483,-40000,-57724.1,-0,70228.7,58.8466
step02_gravity_refstate-mantle.xmf,173,3.2169e-06,1.93922e-06,0,-4.52682e-08,-1.63521e+09,-1.63538e+09,-1.63564e+09,-6050.1,0.00615114,0.00676294,0,0.00914188,-38083.4,-56598.6,-0,68218.3,6050.1
step02_gravity_refstate-mantle.xmf,174,4.5431e-06,-5.79109e-07,0,-3.85191e-05,-1.17874e+09,-1.17942e+09,-1.17934e+09,-5.14807e+06,0.0112839,0.524604,0,0.524725,1000,-42500.6,0,42512.4,5.14807e+06
step02_gravity_refstate-mantle.xmf,175,4.3242e-06,-2.11421e-06,0,-2.82702e-05,-1.16387e+09,-1.16473e+09,-1.16445e+09,-3.77831e+06,0.0203793,0.4666,0,0.467045,1726.06,-42036.1,0,42071.5,3.77831e+06
step02_gravity_refstate-mantle.xmf,176,-2.70529e-06,2.6875e-06,0,-9.69525e-06,-1.11944e+09,-1.11872e+09,-1.11908e+09,-1.29577e+06,0.0463981,0.314407,0,0.317812,4715.43,-40628.9,0,40901.7,1.29577e+06
step02_gravity_refstate-mantle.xmf,177,7.20599e-07,2.6189e-06,0,1.56013e-07,-1.15913e+09,-1.15888e+09,-1.15923e+09,20851.2,-0.00463373,0.0404275,-0,0.0406922,34274.4,-41877.7,0,54115.4,20851.2
step02_gravity_refstate-mantle.xmf,178,2.95037e-07,2.72875e-06,0,5.16569e-08,-1.09843e+09,-1.0981e+09,-1.09847e+09,6903.94,-0.00313479,0.0463624,-0,0.0464683,33225.7,-40000,0,51999.5,6903.94
step02_gravity_refstate-mantle.xmf,179,1.2392e-06,2.4325e-06,0,1.3927e-07,-1.23068e+09,-1.23052e+09,-1.23085e+09,18613.4,-0.00395807,0.0334828,-0,0.0337159,36856.1,-44090.8,0,57466.2,18613.4
step02_gravity_refstate-mantle.xmf,180,1.5e-06,2.34398e-06,0,9.29086e-08,-1.27038e+09,-1.27027e+09,-1.27058e+09,12417.2,-0.00276044,0.0302191,-0,0.030345,38166.4,-45318.6,0,59249.1,12417.2
step02_gravity_refstate-mantle.xmf,181,-3.1707e-06,5.42732e-06,0,3.56509e-06,-1.14298e+09,-1.14183e+09,-1.14256e+09,476474,-0.0212384,0.195858,-0,0.197006,-8893.46,-41359.9,-0,42305.3,476474
step02_gravity_refstate-mantle.xmf,182,-2.6973e-06,5.48587e-06,0,4.22489e-06,-1.15715e+09,-1.15606e+09,-1.15679e+09,564657,-0.0175346,0.208985,-0,0.209719,-8158.02,-41800.9,-0,42589.6,564657
step02_gravity_refstate-mantle.xmf,183,1.49505e-06,4.85517e-06,0,3.94543e-05,-1.19511e+09,-1.19466e+09,-1.19531e+09,5.27307e+06,-0.00661723,0.523512,-0,0.523554,-1000,-42999.8,-0,43011.5,5.27307e+06
step02_gravity_refstate-mantle.xmf,184,-2.07096e-06,4.92256e-06,0,9.00698e-06,-1.15975e+09,-1.15882e+09,-1.15947e+09,1.20378e+06,-0.0233131,0.287461,-0,0.288405,-5329.84,-41884,-0,42221.8,1.20378e+06
step02_gravity_refstate-mantle.xmf,185,-2.29746e-06,5.58188e-06,0,5.08101e-06,-1.16784e+09,-1.16679e+09,-1.16753e+09,679077,-0.0145855,0.223658,-0,0.224133,-7454.37,-42134,-0,42788.3,679077
step02_gravity_refstate-mantle.xmf,186,-1.09897e-06,4.56889e-06,0,1.2952e-05,-1.16811e+09,-1.16735e+09,-1.16797e+09,1.73104e+06,-0.0207046,0.331662,-0,0.332307,-4157.31,-42147.9,-0,42352.4,1.73104e+06
step02_gravity_refstate-mantle.xmf,187,-7.508e-07,5.14498e-06,0,1.56173e-05,-1.17983e+09,-1.17904e+09,-1.17973e+09,2.08725e+06,-0.0149443,0.353802,-0,0.354117,-3632.58,-42513.5,-0,42668.4,2.08725e+06
step02_gravity_refstate-mantle.xmf,188,-5.79776e-07,6.07905e-06,0,1.88988e-05,-1.19092e+09,-1.19003e+09,-1.19084e+09,2.52583e+06,-0.00955359,0.378789,-0,0.37891,-3103.93,-42859.6,-0,42971.8,2.52583e+06
step02_gravity_refstate-mantle.xmf,189,-8.66579e-07,7.79035e-06,0,2.27821e-05,-1.20285e+09,-1.20169e+09,-1.20273e+09,3.04482e+06,-0.00412617,0.405209,-0,0.40523,-2596.49,-43230.7,-0,43308.6,3.04482e+06
step02_gravity_refstate-mantle.xmf,190,-1.70901e-06,4.78306e-06,0,6.73904e-07,-1.16083e+09,-1.15996e+09,-1.1606e+09,90067.3,-0.000237682,0.107436,-0,0.107437,-15164.8,-41919.4,-0,44578.1,90067.3
step02_gravity_refstate-mantle.xmf,191,-2.32882e-06,5.10168e-06,0,1.2909e-06,-1.14979e+09,-1.1488e+09,-1.14948e+09,172528,-0.00713576,0.129814,-0,0.13001,-13134.4,-41575.1,-0,43600.5,172528
step02_gravity_refstate-mantle.xmf,192,1.43855e-06,2.71598e-06,0,-5.17174e-07,-1.30134e+09,-1.30117e+09,-1.30153e+09,-69120.3,0.0178662,0.0342726,0,0.0386499,-28909.5,-46275.5,-0,54563.6,69120.3
step02_gravity_refstate-mantle.xmf,193,1.14289e-06,2.91984e-06,0,-5.35334e-07,-1.27631e+09,-1.27607e+09,-1.27646e+09,-71547.4,0.0180915,0.0391441,0,0.0431227,-27182.4,-45500.7,-0,53001.9,71547.4
step02_gravity_refstate-mantle.xmf,194,7.34537e-07,3.16771e-06,0,-5.02657e-07,-1.24462e+09,-1.2443e+09,-1.24472e+09,-67180.1,0.0167519,0.0458487,0,0.0488132,-25385.7,-44519.9,-0,51248.9,67180.1
step02_gravity_refstate-mantle.xmf,195,-1.01234e-06,4.2126e-06,0,7.86263e-08,-1.16418e+09,-1.16348e+09,-1.16404e+09,10508.4,0.00535879,0.0804887,0,0.0806669,-18810.1,-42026,-0,46043.5,10508.4
step02_gravity_refstate-mantle.xmf,196,2.68325e-07,3.54868e-06,0,-4.09648e-07,-1.22447e+09,-1.22403e+09,-1.22451e+09,-54749.4,0.0158076,0.0559853,0,0.0581742,-22604.4,-43895.4,-0,49373.7,54749.4
step02_gravity_refstate-mantle.xmf,197,-5.09841e-07,3.98435e-06,0,-1.40389e-07,-1.18637e+09,-1.18576e+09,-1.1863e+09,-18763,0.00998901,0.0710838,0,0.0717822,-20041,-42714.1,-0,47182,18763
step02_gravity_refstate-mantle.xmf,198,-8.314e-08,3.76393e-06,0,-3.00251e-07,-1.20696e+09,-1.20644e+09,-1.20695e+09,-40128.5,0.0135023,0.0629847,0,0.0644157,-21284.2,-43352.5,-0,48295.5,40128.5
step02_gravity_refstate-mantle.xmf,199,-1.33276e-06,4.56858e-06,0,3.75464e-07,-1.1693e+09,-1.16851e+09,-1.16912e+09,50180.7,0.00357878,0.0956832,0,0.0957501,-16433.6,-42183,-0,45271.1,50180.7
step02_gravity_refstate-mantle.xmf,200,2.47048e-06,2.16263e-06,0,-2.95447e-07,-1.44029e+09,-1.44033e+09,-1.44062e+09,-39486.5,0.0145443,0.0196708,0,0.0244638,-34132.5,-50573.2,-0,61013.7,39486.5
step02_gravity_refstate-mantle.xmf,201,2.9195e-06,1.99783e-06,0,-1.54162e-07,-1.53553e+09,-1.53566e+09,-1.53592e+09,-20603.8,0.0112266,0.0130072,0,0.017182,-36145.6,-53517.7,-0,64580.6,20603.8
step02_gravity_refstate-mantle.xmf,202,3.30138e-06,1.97766e-06,0,-2.17699e-08,-1.69278e+09,-1.69296e+09,-1.69322e+09,-2909.55,0.00551802,0.00326484,0,0.00641153,-38327.5,-58377.6,-0,69835.1,2909.55
step02_gravity_refstate-mantle.xmf,203,3.3252e-06,2.03385e-06,0,6.91353e-09,-1.74529e+09,-1.74546e+09,-1.74574e+09,923.993,4.91665e-19,-4.21389e-20,0,4.93467e-19,-40000,-60000,-0,72111,923.993
step02_gravity_refstate-mantle.xmf,204,-1.43959e-06,1.75798e-06,0,-1.18892e-05,-1.12918e+09,-1.12875e+09,-1.12899e+09,-1.58899e+06,0.0422109,0.339032,0,0.341649,4073.32,-40935.8,0,41138,1.58899e+06
step02_gravity_refstate-mantle.xmf,205,1.49819e-06,4.85518e-06,0,-3.94436e-05,-1.19511e+09,-1.19466e+09,-1.19531e+09,-5.27164e+06,0.00661895,0.523512,0,0.523554,1000,-42999.8,0,43011.5,5.27164e+06
step02_gravity_refstate-mantle.xmf,206,2.23018e-06,2.89654e-06,0,-3.29211e-05,-1.18659e+09,-1.1865e+09,-1.18688e+09,-4.3999e+06,0.0103046,0.484879,0,0.484989,1478.63,-42736.5,0,42762.1,4.3999e+06
step02_gravity_refstate-mantle.xmf,207,2.35027e-06,1.18051e-06,0,-2.69631e-05,-1.17441e+09,-1.17457e+09,-1.17472e+09,-3.60362e+06,0.0165122,0.450447,0,0.450749,1959.66,-42356.8,0,42402.1,3.60362e+06
step02_gravity_refstate-mantle.xmf,208,-3.46616e-07,1.25054e-06,0,-1.44221e-05,-1.13999e+09,-1.13978e+09,-1.13994e+09,-1.92752e+06,0.0365308,0.362201,0,0.364039,3538.26,-41275.7,0,41427.1,1.92752e+06
step02_gravity_refstate-mantle.xmf,209,6.81636e-07,9.95326e-07,0,-1.76348e-05,-1.15206e+09,-1.15202e+09,-1.15215e+09,-2.35689e+06,0.02969,0.387686,0,0.388821,3016.21,-41654.8,0,41763.9,2.35689e+06
step02_gravity_refstate-mantle.xmf,210,1.5848e-06,9.03264e-07,0,-2.15266e-05,-1.16322e+09,-1.16331e+09,-1.16343e+09,-2.87703e+06,0.0231435,0.415505,0,0.416149,2512.87,-42005.4,0,42080.5,2.87703e+06
step02_gravity_refstate-mantle.xmf,211,-4.00187e-06,2.8836e-06,0,-8.23409e-06,-1.09935e+09,-1.09843e+09,-1.09881e+09,-1.10049e+06,0.0558296,0.299879,0,0.305032,5175.58,-40000,0,40333.4,1.10049e+06
step02_gravity_refstate-mantle.xmf,212,-4.55818e-06,3.82633e-06,0,-7.10963e-06,-1.09939e+09,-1.09827e+09,-1.09878e+09,-950202,0.0526922,0.276893,0,0.281862,5897.33,-40000,0,40432.4,950202
step02_gravity_refstate-mantle.xmf,213,-3.4411e-06,3.71573e-06,0,-8.01577e-06,-1.11891e+09,-1.11796e+09,-1.11845e+09,-1.07131e+06,0.0443189,0.287412,0,0.290809,5490.59,-40610.3,0,40979.8,1.07131e+06
step02_gravity_refstate-mantle.xmf,214,-4.91076e-06,4.91119e-06,0,-5.2335e-06,-1.09938e+09,-1.09806e+09,-1.09872e+09,-699458,0.0451991,0.234795,0,0.239106,7452.39,-40000,0,40688.3,699458
step02_gravity_refstate-mantle.xmf,215,-4.85217e-06,4.45477e-06,0,-6.07697e-06,-1.0994e+09,-1.09816e+09,-1.09875e+09,-812187,0.0491015,0.2552,0,0.25988,6655.64,-40000,0,40549.9,812187
step02_gravity_refstate-mantle.xmf,216,-4.16735e-06,4.95129e-06,0,-5.3576e-06,-1.11744e+09,-1.11622e+09,-1.11688e+09,-716043,0.0382633,0.237558,0,0.240619,7228.55,-40563,0,41202.1,716043
step02_gravity_refstate-mantle.xmf,217,1.30121e-07,2.8581e-06,0,4.91359e-08,-1.09845e+09,-1.09809e+09,-1.09847e+09,6567.01,-0.00359922,0.0487842,-0,0.0489168,31182.5,-40000,0,50718.3,6567.01
step02_gravity_refstate-mantle.xmf,218,5.63883e-07,2.7362e-06,0,1.95021e-07,-1.15495e+09,-1.15466e+09,-1.15503e+09,26064.6,-0.0058159,0.0426516,-0,0.0430463,32196.8,-41747.8,0,52721.1,26064.6
step02_gravity_refstate-mantle.xmf,219,-6.96361e-08,3.01251e-06,0,3.23845e-08,-1.09849e+09,-1.09807e+09,-1.09848e+09,4328.19,-0.00368496,0.0518651,-0,0.0519959,29238.1,-40000,0,49546.6,4328.19
step02_gravity_refstate-mantle.xmf,220,3.86023e-07,2.8807e-06,0,2.16124e-07,-1.15173e+09,-1.1514e+09,-1.15178e+09,28885,-0.00662614,0.0454722,-0,0.0459524,30183.5,-41647.4,0,51434.9,28885
step02_gravity_refstate-mantle.xmf,221,1.13806e-06,2.49614e-06,0,2.03977e-07,-1.22119e+09,-1.22101e+09,-1.22134e+09,27261.6,-0.00574943,0.034949,-0,0.0354187,35156.1,-43797,0,56161.7,27261.6
step02_gravity_refstate-mantle.xmf,222,1.7632e-06,2.25892e-06,0,-1.85003e-09,-1.31224e+09,-1.31218e+09,-1.31248e+09,-247.256,4.35277e-19,0.0270858,0,0.0270858,40000,-46613.3,0,61423.1,247.256
step02_gravity_refstate-mantle.xmf,223,-2.80284e-06,5.44356e-06,0,2.86981e-06,-1.15233e+09,-1.15123e+09,-1.15196e+09,383551,-0.0150592,0.178065,-0,0.178701,-9751.35,-41651.2,-0,42777.5,383551
step02_gravity_refstate-mantle.xmf,224,-1.90256e-07,7.53737e-06,0,3.42664e-05,-1.20334e+09,-1.20231e+09,-1.20331e+09,4.5797e+06,-0.00444317,0.485763,-0,0.485783,-1433.17,-43249.7,-0,43273.5,4.5797e+06
step02_gravity_refstate-mantle.xmf,225,-1.43779e-06,5.43841e-06,0,1.08581e-05,-1.1754e+09,-1.17448e+09,-1.17521e+09,1.45118e+06,-0.0160445,0.305075,-0,0.305496,-4780.79,-42372.9,-0,42641.8,1.45118e+06
step02_gravity_refstate-mantle.xmf,226,-2.11348e-06,5.43756e-06,0,7.40564e-06,-1.16737e+09,-1.16636e+09,-1.16709e+09,989764,-0.0179151,0.262382,-0,0.262993,-6056.86,-42120.3,-0,42553.6,989764
step02_gravity_refstate-mantle.xmf,227,-1.89753e-06,5.76778e-06,0,6.18313e-06,-1.17812e+09,-1.17709e+09,-1.17786e+09,826375,-0.0112897,0.240114,-0,0.24038,-6755.01,-42454.7,-0,42988.7,826375
step02_gravity_refstate-mantle.xmf,228,-1.60951e-06,1.02455e-05,0,2.68056e-05,-1.21449e+09,-1.2129e+09,-1.21427e+09,3.58257e+06,0.000424236,0.430013,0,0.430013,-2155.52,-43591.5,-0,43644.8,3.58257e+06
step02_gravity_refstate-mantle.xmf,229,-2.66756e-06,5.29717e-06,0,1.91427e-06,-1.14702e+09,-1.14596e+09,-1.14666e+09,255842,-0.011985,0.150738,-0,0.151214,-11530.2,-41487.7,-0,43060.2,255842
step02_gravity_refstate-mantle.xmf,230,-2.16356e-06,5.18422e-06,0,1.47097e-06,-1.16189e+09,-1.16091e+09,-1.1616e+09,196595,-0.00532027,0.13683,-0,0.136933,-12391.9,-41950.1,-0,43742,196595
step02_gravity_refstate-mantle.xmf,231,-1.71061e-06,5.04452e-06,0,1.09952e-06,-1.17484e+09,-1.17394e+09,-1.17461e+09,146950,0.000140017,0.124112,0,0.124112,-13289.3,-42352.8,-0,44388.8,146950
step02_gravity_refstate-mantle.xmf,232,-1.35135e-06,4.8764e-06,0,7.65924e-07,-1.18481e+09,-1.18398e+09,-1.18463e+09,102366,0.00434571,0.111957,0,0.112041,-14300.7,-42662.7,-0,44995.8,102366
step02_gravity_refstate-mantle.xmf,233,5.93826e-07,3.35982e-06,0,-4.83327e-07,-1.24418e+09,-1.24381e+09,-1.24426e+09,-64596.6,0.0177689,0.0501003,0,0.053158,-23791.6,-44505.8,-0,50465.9,64596.6
step02_gravity_refstate-mantle.xmf,234,-8.4138e-07,4.34799e-06,0,1.11494e-07,-1.18544e+09,-1.18475e+09,-1.18533e+09,14901.2,0.00819457,0.0848652,0,0.08526,-17643.6,-42684.4,-0,46187.2,14901.2
step02_gravity_refstate-mantle.xmf,235,2.28725e-06,2.28735e-06,0,-3.89094e-07,-1.41095e+09,-1.41095e+09,-1.41125e+09,-52002.4,0.0176802,0.0225688,0,0.0286695,-32364.7,-49665.9,-0,59280.4,52002.4
step02_gravity_refstate-mantle.xmf,236,2.08268e-06,2.43753e-06,0,-4.7046e-07,-1.38291e+09,-1.38287e+09,-1.38319e+09,-62877,0.0200904,0.0258874,0,0.0327686,-30632.3,-48798.9,-0,57616.6,62877
step02_gravity_refstate-mantle.xmf,237,1.87155e-06,2.60234e-06,0,-5.30855e-07,-1.35837e+09,-1.35827e+09,-1.35862e+09,-70948.8,0.0217924,0.0294677,0,0.0366505,-28999.4,-48039.7,-0,56114,70948.8
step02_gravity_refstate-mantle.xmf,238,2.79517e-06,2.08218e-06,0,-2.48615e-07,-1.50548e+09,-1.50558e+09,-1.50586e+09,-33227.3,0.0160027,0.0153454,0,0.0221713,-34265.9,-52589,-0,62767.5,33227.3
step02_gravity_refstate-mantle.xmf,239,3.1461e-06,1.97442e-06,0,-1.08218e-07,-1.60364e+09,-1.6038e+09,-1.60406e+09,-14463.3,0.0119729,0.00882088,0,0.0148714,-36181.9,-55623.1,-0,66355.5,14463.3
step02_gravity_refstate-mantle.xmf,240,3.295e-06,2.00123e-06,0,-5.43698e-08,-1.68029e+09,-1.68047e+09,-1.68073e+09,-7266.53,0.0121368,0.00410191,0,0.0128112,-36308.7,-57991.9,-0,68420.6,7266.53
step02_gravity_refstate-mantle.xmf,241,3.33104e-06,2.05315e-06,0,7.12922e-09,-1.74529e+09,-1.74546e+09,-1.74573e+09,952.821,0.00812382,-5.36726e-20,0,0.00812382,-37557.9,-60000,-0,70785.6,952.821
step02_gravity_refstate-mantle.xmf,242,-1.8942e-07,7.53755e-06,0,-3.4273e-05,-1.20334e+09,-1.20231e+09,-1.20331e+09,-4.58059e+06,0.00444296,0.48581,0,0.48583,1432.58,-43249.7,0,43273.4,4.58059e+06
step02_gravity_refstate-mantle.xmf,243,-1.91831e-06,3.11534e-06,0,-1.0777e-05,-1.13791e+09,-1.13724e+09,-1.13766e+09,-1.44035e+06,0.0366117,0.319877,0,0.321966,4529.16,-41205.8,0,41454,1.44035e+06
step02_gravity_refstate-mantle.xmf,244,-3.89325e-06,4.27709e-06,0,-6.8715e-06,-1.1172e+09,-1.11611e+09,-1.11668e+09,-918376,0.0428405,0.267651,0,0.271058,6130.76,-40555.9,0,41016.6,918376
step02_gravity_refstate-mantle.xmf,245,-4.84349e-06,5.19663e-06,0,-4.43683e-06,-1.09934e+09,-1.098e+09,-1.09869e+09,-592983,0.0411058,0.215653,0,0.219536,8289.57,-40000,0,40849.9,592983
step02_gravity_refstate-mantle.xmf,246,-4.1244e-06,5.16551e-06,0,-4.64553e-06,-1.1188e+09,-1.11756e+09,-1.11825e+09,-620875,0.0349239,0.221487,0,0.224224,7886.9,-40606,0,41364.9,620875
step02_gravity_refstate-mantle.xmf,247,-3.65663e-06,4.80706e-06,0,-6.06578e-06,-1.12828e+09,-1.12715e+09,-1.12779e+09,-810691,0.0353925,0.250587,0,0.253074,6672,-40901.1,0,41441.7,810691
step02_gravity_refstate-mantle.xmf,248,-2.89624e-07,3.18386e-06,0,-1.85497e-09,-1.09852e+09,-1.09805e+09,-1.09848e+09,-247.917,-0.00336704,0.0556239,-0,0.0557257,27387.8,-40000,0,48477.7,247.917
step02_gravity_refstate-mantle.xmf,249,1.55497e-07,3.04815e-06,0,2.05327e-07,-1.14479e+09,-1.1444e+09,-1.14481e+09,27442,-0.0067009,0.0492127,-0,0.0496668,28323.5,-41431.9,0,50187.9,27442
step02_gravity_refstate-mantle.xmf,250,1.53913e-06,2.36361e-06,0,1.96227e-07,-1.28062e+09,-1.28051e+09,-1.28082e+09,26225.7,-0.00598558,0.0300226,-0,0.0306135,36159.8,-45635.1,0,58224.5,26225.7
step02_gravity_refstate-mantle.xmf,251,1.02467e-06,2.59102e-06,0,2.73495e-07,-1.21541e+09,-1.2152e+09,-1.21554e+09,36552.6,-0.00769349,0.0367505,-0,0.0375471,33167.1,-43618,0,54795.8,36552.6
step02_gravity_refstate-mantle.xmf,252,1.94748e-06,2.21997e-06,0,1.31016e-07,-1.34414e+09,-1.3441e+09,-1.3444e+09,17510.2,-0.00464667,0.0251134,-0,0.0255397,37615,-47599.7,0,60668.1,17510.2
step02_gravity_refstate-mantle.xmf,253,-2.27821e-06,5.38957e-06,0,2.26284e-06,-1.16472e+09,-1.16369e+09,-1.16441e+09,302429,-0.00829644,0.16088,-0,0.161094,-10652.4,-42037.3,-0,43366,302429
step02_gravity_refstate-mantle.xmf,254,-2.22667e-06,5.55293e-06,0,3.43209e-06,-1.17026e+09,-1.16922e+09,-1.16997e+09,458699,-0.0100749,0.189621,-0,0.189889,-8972.36,-42209.3,-0,43152.4,458699
step02_gravity_refstate-mantle.xmf,255,-1.83533e-06,5.71983e-06,0,4.2513e-06,-1.18234e+09,-1.18133e+09,-1.1821e+09,568186,-0.0067214,0.20421,-0,0.20432,-8175.05,-42585.4,-0,43363,568186
step02_gravity_refstate-mantle.xmf,256,-1.34648e-06,9.99774e-06,0,3.98379e-05,-1.21148e+09,-1.20996e+09,-1.2113e+09,5.32433e+06,-0.00234076,0.519797,-0,0.519803,-1000,-43499.6,-0,43511.1,5.32433e+06
step02_gravity_refstate-mantle.xmf,257,-1.36627e-06,9.86769e-06,0,3.08158e-05,-1.21201e+09,-1.21051e+09,-1.21183e+09,4.11853e+06,-0.00114714,0.458722,-0,0.458723,-1756.57,-43515.6,-0,43551.1,4.11853e+06
step02_gravity_refstate-mantle.xmf,258,-1.54338e-06,5.95007e-06,0,9.02854e-06,-1.18321e+09,-1.1822e+09,-1.183e+09,1.20666e+06,-0.0110492,0.279901,-0,0.280119,-5433.59,-42614.7,-0,42959.7,1.20666e+06
step02_gravity_refstate-mantle.xmf,259,-1.50705e-06,5.95093e-06,0,5.15687e-06,-1.19198e+09,-1.19098e+09,-1.19178e+09,689216,-0.00370536,0.218764,-0,0.218796,-7476.98,-42885.9,-0,43532.9,689216
step02_gravity_refstate-mantle.xmf,260,-1.07256e-06,6.20299e-06,0,1.31174e-05,-1.18859e+09,-1.18762e+09,-1.18844e+09,1.75315e+06,-0.00984068,0.325324,-0,0.325473,-4224.89,-42784.7,-0,42992.8,1.75315e+06
step02_gravity_refstate-mantle.xmf,261,-1.05486e-06,7.30716e-06,0,1.58024e-05,-1.20034e+09,-1.19922e+09,-1.2002e+09,2.112e+06,-0.00438579,0.347634,-0,0.347662,-3678.49,-43150.8,-0,43307.3,2.112e+06
step02_gravity_refstate-mantle.xmf,262,-1.32497e-06,8.86919e-06,0,1.89638e-05,-1.21116e+09,-1.2098e+09,-1.21098e+09,2.53451e+06,0.000341128,0.371746,0,0.371746,-3147.88,-43487.1,-0,43600.9,2.53451e+06
step02_gravity_refstate-mantle.xmf,263,-2.06358e-06,1.11197e-05,0,2.24934e-05,-1.22208e+09,-1.22032e+09,-1.22181e+09,3.00624e+06,0.00456007,0.396432,0,0.396458,-2649.27,-43825.4,-0,43905.4,3.00624e+06
step02_gravity_refstate-mantle.xmf,264,-9.965e-07,4.68128e-06,0,4.5879e-07,-1.19545e+09,-1.1947e+09,-1.19532e+09,61317.3,0.00827057,0.100077,0,0.100418,-15425.4,-42993.4,-0,45676.9,61317.3
step02_gravity_refstate-mantle.xmf,265,1.61995e-06,2.79659e-06,0,-5.69354e-07,-1.33298e+09,-1.33282e+09,-1.3332e+09,-76094.2,0.0227788,0.033887,0,0.0408314,-27327.7,-47254.3,-0,54587.3,76094.2
step02_gravity_refstate-mantle.xmf,266,1.32856e-06,3.01138e-06,0,-5.76658e-07,-1.30731e+09,-1.30708e+09,-1.30749e+09,-77070.4,0.0228386,0.0391561,0,0.0453299,-25699,-46459.9,-0,53093.9,77070.4
step02_gravity_refstate-mantle.xmf,267,1.0591e-06,3.22944e-06,0,-5.53663e-07,-1.28802e+09,-1.28773e+09,-1.28816e+09,-73997,0.0226426,0.0446713,0,0.0500821,-24137.7,-45862.8,-0,51826.9,73997
step02_gravity_refstate-mantle.xmf,268,7.9071e-07,3.43957e-06,0,-5.02287e-07,-1.27121e+09,-1.27085e+09,-1.27131e+09,-67130.7,0.0218786,0.0504605,0,0.0549994,-22745.1,-45342.2,-0,50727.3,67130.7
step02_gravity_refstate-mantle.xmf,269,-3.75647e-07,4.11542e-06,0,-1.15772e-07,-1.20724e+09,-1.20664e+09,-1.20719e+09,-15472.9,0.0130161,0.0745484,0,0.0756761,-18877.9,-43360.2,-0,47291.4,15472.9
step02_gravity_refstate-mantle.xmf,270,4.73622e-07,3.65341e-06,0,-4.20056e-07,-1.25225e+09,-1.25183e+09,-1.25231e+09,-56140.5,0.0201015,0.0571485,0,0.0605807,-21442.5,-44755.1,-0,49626.6,56140.5
step02_gravity_refstate-mantle.xmf,271,6.57203e-08,3.88543e-06,0,-2.8893e-07,-1.22921e+09,-1.2287e+09,-1.22922e+09,-38615.5,0.0169311,0.0654383,0,0.0675931,-20129.3,-44041.2,-0,48423.3,38615.5
step02_gravity_refstate-mantle.xmf,272,-6.12319e-07,4.47184e-06,0,1.93821e-07,-1.20936e+09,-1.20868e+09,-1.20928e+09,25904.2,0.0123116,0.0889417,0,0.0897897,-16583.9,-43425.1,-0,46484.1,25904.2
step02_gravity_refstate-mantle.xmf,273,2.64776e-06,2.19689e-06,0,-3.43623e-07,-1.47549e+09,-1.47555e+09,-1.47584e+09,-45925.2,0.0200233,0.0180456,0,0.0269551,-32452.4,-51661.6,-0,61008.8,45925.2
step02_gravity_refstate-mantle.xmf,274,3.05317e-06,2.04196e-06,0,-1.91153e-07,-1.5709e+09,-1.57104e+09,-1.57131e+09,-25547.6,0.0173744,0.0111693,0,0.0206549,-34286.5,-54611.4,-0,64482.3,25547.6
step02_gravity_refstate-mantle.xmf,275,-1.35465e-06,1.00278e-05,0,-3.98298e-05,-1.21148e+09,-1.20995e+09,-1.21129e+09,-5.32325e+06,0.0023423,0.519799,0,0.519804,1000,-43499.6,0,43511.1,5.32325e+06
step02_gravity_refstate-mantle.xmf,276,-1.22268e-06,3.03654e-06,0,-1.2593e-05,-1.14831e+09,-1.14774e+09,-1.14815e+09,-1.68306e+06,0.0315329,0.336763,0,0.338236,4093.16,-41531.4,0,41732.6,1.68306e+06
step02_gravity_refstate-mantle.xmf,277,7.24317e-08,6.36172e-06,0,-2.78948e-05,-1.1967e+09,-1.19586e+09,-1.19671e+09,-3.72814e+06,0.00699326,0.445419,0,0.445474,1995.79,-43043.3,0,43089.6,3.72814e+06
step02_gravity_refstate-mantle.xmf,278,-4.92489e-07,3.11491e-06,0,-1.51942e-05,-1.15995e+09,-1.15947e+09,-1.15989e+09,-2.03071e+06,0.0255421,0.358942,0,0.35985,3578.53,-41896.2,0,42048.8,2.03071e+06
step02_gravity_refstate-mantle.xmf,279,9.612e-08,3.46327e-06,0,-1.84074e-05,-1.17151e+09,-1.17106e+09,-1.17152e+09,-2.46014e+06,0.0194234,0.383629,0,0.38412,3067.26,-42257.9,0,42369,2.46014e+06
step02_gravity_refstate-mantle.xmf,280,4.13707e-07,4.30889e-06,0,-2.2469e-05,-1.1834e+09,-1.18288e+09,-1.18345e+09,-3.00298e+06,0.0132314,0.41163,0,0.411842,2550.3,-42629.5,0,42705.7,3.00298e+06
step02_gravity_refstate-mantle.xmf,281,-2.49898e-06,3.87123e-06,0,-9.24805e-06,-1.13799e+09,-1.13713e+09,-1.13765e+09,-1.236e+06,0.0353884,0.299215,0,0.3013,5080.88,-41206.1,0,41518.2,1.236e+06
step02_gravity_refstate-mantle.xmf,282,-2.95445e-06,4.62164e-06,0,-7.38914e-06,-1.14003e+09,-1.13901e+09,-1.13963e+09,-987559,0.0320028,0.270345,0,0.272233,5938.26,-41268,0,41693.1,987559
step02_gravity_refstate-mantle.xmf,283,-4.02303e-06,5.33008e-06,0,-3.90409e-06,-1.12002e+09,-1.11877e+09,-1.11949e+09,-521782,0.0312196,0.204273,0,0.206645,8668.49,-40644.8,0,41558.9,521782
step02_gravity_refstate-mantle.xmf,284,-3.29501e-06,5.23213e-06,0,-5.01857e-06,-1.1399e+09,-1.13876e+09,-1.13946e+09,-670732,0.0271755,0.227755,0,0.229371,7479.13,-41263.4,0,41935.7,670732
step02_gravity_refstate-mantle.xmf,285,8.6575e-07,2.72475e-06,0,3.29943e-07,-1.2091e+09,-1.20885e+09,-1.20922e+09,44096.9,-0.00932241,0.0392723,-0,0.0403636,31122.8,-43422.4,0,53424.1,44096.9
step02_gravity_refstate-mantle.xmf,286,-6.17189e-08,3.22391e-06,0,1.8317e-07,-1.14201e+09,-1.14157e+09,-1.142e+09,24480.6,-0.00657784,0.0532341,-0,0.0536389,26558.5,-41345.1,0,49140.3,24480.6
step02_gravity_refstate-mantle.xmf,287,6.6687e-07,2.90076e-06,0,3.71433e-07,-1.20304e+09,-1.20274e+09,-1.20313e+09,49642.1,-0.0106076,0.0427413,-0,0.0440379,28961.7,-43234.4,0,52038.4,49642.1
step02_gravity_refstate-mantle.xmf,288,-5.56408e-07,3.37875e-06,0,-5.4262e-08,-1.09856e+09,-1.09803e+09,-1.09849e+09,-7252.11,-0.00263333,0.0600881,-0,0.0601458,25627,-40000,0,47505.2,7252.11
step02_gravity_refstate-mantle.xmf,289,-8.38899e-07,3.58332e-06,0,-1.27777e-07,-1.0986e+09,-1.09801e+09,-1.09849e+09,-17077.5,-0.00148277,0.0652904,-0,0.0653072,23951.4,-40000,0,46622.6,17077.5
step02_gravity_refstate-mantle.xmf,290,-1.13701e-06,3.79371e-06,0,-2.2685e-07,-1.09865e+09,-1.09799e+09,-1.0985e+09,-30318.5,7.41174e-05,0.0712643,0,0.0712644,22356.9,-40000,0,45823.9,30318.5
step02_gravity_refstate-mantle.xmf,291,-6.08342e-07,3.64005e-06,0,6.92464e-08,-1.1368e+09,-1.13623e+09,-1.13672e+09,9254.78,-0.00496728,0.0637889,-0,0.0639821,23160.5,-41181.6,0,47247.6,9254.78
step02_gravity_refstate-mantle.xmf,292,-2.77749e-07,3.41941e-06,0,1.60642e-07,-1.14426e+09,-1.14376e+09,-1.14422e+09,21469.8,-0.00649065,0.0576038,-0,0.0579684,24815.8,-41413.6,0,48279.5,21469.8
step02_gravity_refstate-mantle.xmf,293,1.4668e-06,2.43864e-06,0,2.93162e-07,-1.27689e+09,-1.27676e+09,-1.27709e+09,39181.1,-0.00893961,0.0312887,-0,0.0325407,34117.8,-45519.7,0,56886.5,39181.1
step02_gravity_refstate-mantle.xmf,294,2.18146e-06,2.13597e-06,0,-7.40145e-10,-1.38353e+09,-1.38354e+09,-1.38382e+09,-98.9204,4.44439e-19,0.0222417,0,0.0222417,40000,-48817.8,0,63112.4,98.9204
step02_gravity_refstate-mantle.xmf,295,-1.79717e-06,5.53251e-06,0,2.77102e-06,-1.18399e+09,-1.18301e+09,-1.18375e+09,370346,-0.0030861,0.17162,-0,0.171648,-9810.23,-42636,-0,43750.1,370346
step02_gravity_refstate-mantle.xmf,296,-2.54967e-06,1.21358e-05,0,3.48957e-05,-1.21948e+09,-1.21752e+09,-1.21914e+09,4.66381e+06,0.000678079,0.483738,0,0.483739,-1397.47,-43744.4,-0,43766.7,4.66381e+06
step02_gravity_refstate-mantle.xmf,297,-3.03552e-06,1.3375e-05,0,3.0474e-05,-1.22601e+09,-1.22382e+09,-1.22561e+09,4.07285e+06,0.00396426,0.4518,0,0.451818,-1782.87,-43946,-0,43982.2,4.07285e+06
step02_gravity_refstate-mantle.xmf,298,-1.14781e-06,6.77511e-06,0,1.09836e-05,-1.19768e+09,-1.19662e+09,-1.19753e+09,1.46796e+06,-0.00448918,0.298731,-0,0.298765,-4835.69,-43066.6,-0,43337.2,1.46796e+06
step02_gravity_refstate-mantle.xmf,299,-1.40378e-06,6.22594e-06,0,7.48641e-06,-1.19255e+09,-1.19153e+09,-1.19236e+09,1.00056e+06,-0.00541465,0.25584,-0,0.255898,-6120.9,-42904.9,-0,43339.3,1.00056e+06
step02_gravity_refstate-mantle.xmf,300,-1.1516e-06,6.33152e-06,0,6.271e-06,-1.203e+09,-1.202e+09,-1.20285e+09,838119,0.000374202,0.23395,0,0.23395,-6808.83,-43229.9,-0,43762.8,838119
step02_gravity_refstate-mantle.xmf,301,-3.19112e-06,1.40089e-05,0,2.62113e-05,-1.23249e+09,-1.23019e+09,-1.23206e+09,3.50313e+06,0.00774185,0.420582,0,0.420654,-2196.45,-44146.6,-0,44201.2,3.50313e+06
step02_gravity_refstate-mantle.xmf,302,-1.765e-06,5.29064e-06,0,1.763e-06,-1.17976e+09,-1.17881e+09,-1.17952e+09,235625,-0.00144562,0.145198,-0,0.145205,-11541.3,-42504.9,-0,44044,235625
step02_gravity_refstate-mantle.xmf,303,-1.36156e-06,5.15777e-06,0,1.34841e-06,-1.19346e+09,-1.19259e+09,-1.19328e+09,180215,0.00423104,0.131056,0,0.131124,-12448.3,-42930.7,-0,44699,180215
step02_gravity_refstate-mantle.xmf,304,-9.80938e-07,4.99674e-06,0,9.78516e-07,-1.20638e+09,-1.20559e+09,-1.20625e+09,130779,0.00906939,0.117711,0,0.118059,-13424,-43332,-0,45363.7,130779
step02_gravity_refstate-mantle.xmf,305,-6.54849e-07,4.81387e-06,0,6.50923e-07,-1.21815e+09,-1.21742e+09,-1.21806e+09,86995.8,0.0130132,0.105339,0,0.10614,-14467.2,-43697.1,-0,46029.7,86995.8
step02_gravity_refstate-mantle.xmf,306,-1.63949e-07,4.25731e-06,0,-2.75944e-08,-1.22832e+09,-1.22773e+09,-1.2283e+09,-3687.99,0.0166412,0.0785777,0,0.0803205,-17732.4,-44013.2,-0,47451,3687.99
step02_gravity_refstate-mantle.xmf,307,2.4733e-06,2.34257e-06,0,-4.32298e-07,-1.44565e+09,-1.44567e+09,-1.44598e+09,-57776.7,0.0233138,0.0212191,0,0.0315244,-30670.1,-50739.1,-0,59288.4,57776.7
step02_gravity_refstate-mantle.xmf,308,2.27904e-06,2.50814e-06,0,-5.0387e-07,-1.41765e+09,-1.41762e+09,-1.41796e+09,-67342.3,0.0256868,0.024766,0,0.0356814,-29013.5,-49873.5,-0,57698.8,67342.3
step02_gravity_refstate-mantle.xmf,309,2.05697e-06,2.69725e-06,0,-5.55377e-07,-1.39032e+09,-1.39024e+09,-1.3906e+09,-74226.1,0.0272951,0.0289173,0,0.0397647,-27392.3,-49028.3,-0,56161.5,74226.1
step02_gravity_refstate-mantle.xmf,310,2.94629e-06,2.14103e-06,0,-2.77016e-07,-1.54076e+09,-1.54087e+09,-1.54116e+09,-37023.2,0.0220308,0.0136492,0,0.0259163,-32496.2,-53679.8,-0,62749.7,37023.2
step02_gravity_refstate-mantle.xmf,311,3.23494e-06,2.04583e-06,0,-1.26502e-07,-1.63418e+09,-1.63434e+09,-1.63461e+09,-16907,0.0187097,0.0071889,0,0.0200433,-34178.2,-56567.1,-0,66090.8,16907
step02_gravity_refstate-mantle.xmf,312,3.34205e-06,2.11395e-06,0,2.9355e-09,-1.74528e+09,-1.74545e+09,-1.74573e+09,392.329,0.0159024,-4.28337e-20,0,0.0159024,-35227.2,-60000,-0,69577,392.329
step02_gravity_refstate-mantle.xmf,313,-2.5509e-06,1.21373e-05,0,-3.4899e-05,-1.21949e+09,-1.21752e+09,-1.21914e+09,-4.66425e+06,-0.000678483,0.483748,-0,0.483749,1397.34,-43744.4,0,43766.8,4.66425e+06
step02_gravity_refstate-mantle.xmf,314,-1.42263e-06,9.87346e-06,0,-3.07739e-05,-1.21202e+09,-1.21051e+09,-1.21183e+09,-4.11293e+06,0.00114652,0.45873,0,0.458732,1756.45,-43515.7,0,43551.1,4.11293e+06
step02_gravity_refstate-mantle.xmf,315,-1.75697e-06,4.19388e-06,0,-1.07576e-05,-1.15466e+09,-1.15386e+09,-1.15443e+09,-1.43775e+06,0.0272284,0.311969,0,0.313155,4683.01,-41727,0,41988.9,1.43775e+06
step02_gravity_refstate-mantle.xmf,316,-4.68171e-06,5.32723e-06,0,-3.76362e-06,-1.09929e+09,-1.09795e+09,-1.09867e+09,-503008,0.0369158,0.197741,0,0.201158,9169.24,-40000,0,41037.5,503008
step02_gravity_refstate-mantle.xmf,317,-3.47091e-06,5.33444e-06,0,-4.22269e-06,-1.13583e+09,-1.13465e+09,-1.13536e+09,-564362,0.026439,0.211272,0,0.21292,8217.04,-41136.7,0,41949.3,564362
step02_gravity_refstate-mantle.xmf,318,-2.71048e-06,5.25435e-06,0,-6.08749e-06,-1.15367e+09,-1.1526e+09,-1.1533e+09,-813593,0.0230303,0.245127,0,0.246206,6725.57,-41692.6,0,42231.6,813593
step02_gravity_refstate-mantle.xmf,319,3.24156e-07,3.09197e-06,0,3.20549e-07,-1.17849e+09,-1.17812e+09,-1.17854e+09,42841.4,-0.00953585,0.0479856,-0,0.0489239,27319.8,-42474.3,0,50501.8,42841.4
step02_gravity_refstate-mantle.xmf,320,-1.45312e-06,4.00958e-06,0,-3.4976e-07,-1.0987e+09,-1.09797e+09,-1.09851e+09,-46745.4,0.00202496,0.0780472,0,0.0780734,20839.5,-40000,0,45103,46745.4
step02_gravity_refstate-mantle.xmf,321,-8.59648e-07,3.84579e-06,0,-1.3892e-08,-1.13697e+09,-1.13634e+09,-1.13686e+09,-1856.67,-0.00388213,0.0697372,-0,0.0698452,21639.3,-41185.7,0,46524.4,1856.67
step02_gravity_refstate-mantle.xmf,322,1.88163e-06,2.29341e-06,0,2.66098e-07,-1.3383e+09,-1.33824e+09,-1.33855e+09,35564.1,-0.00938284,0.0263017,-0,0.0279252,35071.9,-47419,0,58979.7,35564.1
step02_gravity_refstate-mantle.xmf,323,1.34815e-06,2.55253e-06,0,3.77204e-07,-1.26961e+09,-1.26945e+09,-1.26979e+09,50413.3,-0.0114956,0.0333602,-0,0.0352853,32075.9,-45294.3,0,55501.7,50413.3
step02_gravity_refstate-mantle.xmf,324,2.38936e-06,2.08757e-06,0,1.05001e-07,-1.42161e+09,-1.42165e+09,-1.42193e+09,14033.4,-0.00471504,0.0198858,-0,0.0204371,38023.7,-49995.3,0,62811.9,14033.4
step02_gravity_refstate-mantle.xmf,325,2.56098e-06,2.02565e-06,0,8.7223e-10,-1.45493e+09,-1.455e+09,-1.45527e+09,116.574,-2.45267e-19,0.0176425,-0,0.0176425,40000,-51025.6,0,64835.3,116.574
step02_gravity_refstate-mantle.xmf,326,2.88232e-06,1.95488e-06,0,-6.95547e-10,-1.52662e+09,-1.52675e+09,-1.52701e+09,-92.9598,5.45562e-19,0.0132256,0,0.0132256,40000,-53242.2,0,66593.8,92.9598
step02_gravity_refstate-mantle.xmf,327,2.74088e-06,1.9925e-06,0,9.03624e-08,-1.49325e+09,-1.49335e+09,-1.49361e+09,12076.9,-0.00518931,0.0153524,-0,0.0162057,38103.7,-52210.4,0,64636,12076.9
step02_gravity_refstate-mantle.xmf,328,-1.32444e-06,5.44252e-06,0,2.20584e-06,-1.19796e+09,-1.19705e+09,-1.19778e+09,294811,0.00329598,0.154649,0,0.154684,-10693,-43070.6,-0,44378.1,294811
step02_gravity_refstate-mantle.xmf,329,-1.17269e-06,6.0157e-06,0,4.45365e-06,-1.20416e+09,-1.2032e+09,-1.204e+09,595230,0.00234336,0.202321,0,0.202335,-8081.19,-43264.6,-0,44012.9,595230
step02_gravity_refstate-mantle.xmf,330,-1.2326e-06,5.79081e-06,0,3.5822e-06,-1.20237e+09,-1.20143e+09,-1.2022e+09,478761,0.00260088,0.185276,0,0.185294,-8905.81,-43208.2,-0,44116.4,478761
step02_gravity_refstate-mantle.xmf,331,-4.11609e-06,1.50892e-05,0,3.98235e-05,-1.22785e+09,-1.22529e+09,-1.2273e+09,5.32241e+06,0.00169499,0.513516,0,0.513519,-1000,-44000,-0,44011.4,5.32241e+06
step02_gravity_refstate-mantle.xmf,332,-1.03885e-06,6.98148e-06,0,9.09446e-06,-1.20676e+09,-1.20569e+09,-1.20663e+09,1.21547e+06,0.000736285,0.273123,0,0.273124,-5493.22,-43348.4,-0,43695.1,1.21547e+06
step02_gravity_refstate-mantle.xmf,333,-8.11629e-07,6.34649e-06,0,5.25001e-06,-1.21552e+09,-1.21457e+09,-1.21542e+09,701664,0.00658982,0.213147,0,0.213249,-7522.53,-43618.9,-0,44262.8,701664
step02_gravity_refstate-mantle.xmf,334,-1.04857e-06,7.91646e-06,0,1.31888e-05,-1.21008e+09,-1.20888e+09,-1.20994e+09,1.76269e+06,0.00111972,0.318669,0,0.318671,-4270.29,-43453.2,-0,43662.6,1.76269e+06
step02_gravity_refstate-mantle.xmf,335,-1.34103e-06,9.49063e-06,0,1.57382e-05,-1.2213e+09,-1.21985e+09,-1.22112e+09,2.10341e+06,0.00594927,0.340431,0,0.340483,-3715.1,-43801.7,-0,43959,2.10341e+06
step02_gravity_refstate-mantle.xmf,336,-2.01187e-06,1.16463e-05,0,1.87717e-05,-1.23181e+09,-1.22999e+09,-1.23154e+09,2.50884e+06,0.00997494,0.36424,0,0.364376,-3165.61,-44127.6,-0,44241,2.50884e+06
step02_gravity_refstate-mantle.xmf,337,-3.08533e-06,1.41136e-05,0,2.21888e-05,-1.23962e+09,-1.23732e+09,-1.23921e+09,2.96553e+06,0.0121001,0.38971,0,0.389898,-2647.2,-44368,-0,44446.9,2.96553e+06
step02_gravity_refstate-mantle.xmf,338,-3.1685e-07,4.61725e-06,0,3.67835e-07,-1.23202e+09,-1.23136e+09,-1.23198e+09,49161.1,0.0168774,0.093723,0,0.0952305,-15555,-44127.3,-0,46788.6,49161.1
step02_gravity_refstate-mantle.xmf,339,1.80946e-06,2.90514e-06,0,-5.79551e-07,-1.364e+09,-1.36385e+09,-1.36424e+09,-77457,0.0281142,0.0337372,0,0.0439159,-25816.3,-48213.9,-0,54690.6,77457
step02_gravity_refstate-mantle.xmf,340,1.54388e-06,3.12588e-06,0,-5.7225e-07,-1.33951e+09,-1.3393e+09,-1.33971e+09,-76481.2,0.0282147,0.0392215,0,0.0483156,-24292,-47456.3,-0,53312.3,76481.2
step02_gravity_refstate-mantle.xmf,341,1.28938e-06,3.34361e-06,0,-5.3429e-07,-1.31948e+09,-1.3192e+09,-1.31965e+09,-71407.8,0.0278878,0.0449704,0,0.0529157,-22882.2,-46836.3,-0,52127.1,71407.8
step02_gravity_refstate-mantle.xmf,342,1.0071e-06,3.56757e-06,0,-4.64488e-07,-1.29938e+09,-1.29904e+09,-1.29952e+09,-62078.9,0.0267982,0.0515795,0,0.0581257,-21522.7,-46214.4,-0,50980.3,62078.9
step02_gravity_refstate-mantle.xmf,343,2.52592e-07,4.03179e-06,0,-2.15449e-07,-1.25192e+09,-1.25141e+09,-1.25195e+09,-28794.8,0.0209782,0.0686899,0,0.0718219,-18918.1,-44744.2,-0,48579.2,28794.8
step02_gravity_refstate-mantle.xmf,344,6.56629e-07,3.80199e-06,0,-3.58064e-07,-1.2762e+09,-1.27578e+09,-1.27629e+09,-47855.2,0.0244603,0.0595996,0,0.0644238,-20183.2,-45496.6,-0,49772.5,47855.2
step02_gravity_refstate-mantle.xmf,345,4.40795e-08,4.41535e-06,0,1.33534e-07,-1.24932e+09,-1.24873e+09,-1.24932e+09,17846.8,0.0208222,0.0829514,0,0.0855248,-16651.6,-44663.6,-0,47666.6,17846.8
step02_gravity_refstate-mantle.xmf,346,2.81044e-06,2.27037e-06,0,-3.62432e-07,-1.5098e+09,-1.50987e+09,-1.51017e+09,-48439.1,0.0258915,0.0165683,0,0.0307388,-30784.7,-52722.8,-0,61052.3,48439.1
step02_gravity_refstate-mantle.xmf,347,3.16493e-06,2.12784e-06,0,-1.99974e-07,-1.6051e+09,-1.60524e+09,-1.60553e+09,-26726.5,0.023655,0.00940862,0,0.0254574,-32483,-55668.8,-0,64452.7,26726.5
step02_gravity_refstate-mantle.xmf,348,3.3312e-06,2.09163e-06,0,-6.03277e-08,-1.69776e+09,-1.69793e+09,-1.69821e+09,-8062.79,0.0194419,0.0031231,0,0.0196912,-34130.3,-58532,-0,67755.9,8062.79
step02_gravity_refstate-mantle.xmf,349,-4.11996e-06,1.50931e-05,0,-3.98344e-05,-1.22785e+09,-1.22529e+09,-1.2273e+09,-5.32387e+06,-0.00169537,0.513518,-0,0.51352,1000,-44000,0,44011.4,5.32387e+06
step02_gravity_refstate-mantle.xmf,350,-1.16048e-06,4.5667e-06,0,-1.29501e-05,-1.16809e+09,-1.16732e+09,-1.16793e+09,-1.73078e+06,0.020723,0.331635,0,0.332282,4158.04,-42146.8,0,42351.4,1.73078e+06
step02_gravity_refstate-mantle.xmf,351,-1.72306e-06,1.02487e-05,0,-2.67665e-05,-1.21451e+09,-1.21291e+09,-1.21428e+09,-3.57734e+06,-0.000423833,0.430001,-0,0.430002,2155.71,-43591.5,0,43644.7,3.57734e+06
step02_gravity_refstate-mantle.xmf,352,-8.63703e-07,7.78532e-06,0,-2.27853e-05,-1.20283e+09,-1.20168e+09,-1.20272e+09,-3.04526e+06,0.00413392,0.405237,0,0.405258,2596.08,-43230.2,0,43308.1,3.04526e+06
step02_gravity_refstate-mantle.xmf,353,-7.50947e-07,5.14621e-06,0,-1.56205e-05,-1.17985e+09,-1.17906e+09,-1.17975e+09,-2.08769e+06,0.0149349,0.353821,0,0.354136,3632.13,-42514.1,0,42669,2.08769e+06
step02_gravity_refstate-mantle.xmf,354,-5.79407e-07,6.07827e-06,0,-1.88992e-05,-1.19092e+09,-1.19003e+09,-1.19084e+09,-2.52588e+06,0.00955281,0.37879,0,0.37891,3103.92,-42859.7,0,42971.9,2.52588e+06
step02_gravity_refstate-mantle.xmf,355,-2.07105e-06,4.92762e-06,0,-8.998e-06,-1.15982e+09,-1.15888e+09,-1.15954e+09,-1.20258e+06,0.02327,0.287312,0,0.288252,5333.84,-41886.1,0,42224.3,1.20258e+06
step02_gravity_refstate-mantle.xmf,356,-2.81624e-06,4.8326e-06,0,-1.15761e-06,-1.09893e+09,-1.09791e+09,-1.09855e+09,-154715,0.0132705,0.113947,0,0.114718,15469.2,-40000,0,42887,154715
step02_gravity_refstate-mantle.xmf,357,-3.16227e-06,5.00531e-06,0,-1.4547e-06,-1.09899e+09,-1.0979e+09,-1.09857e+09,-194420,0.0167964,0.125279,0,0.1264,14284.9,-40000,0,42474.2,194420
step02_gravity_refstate-mantle.xmf,358,-2.38374e-06,4.88211e-06,0,-9.74623e-07,-1.12997e+09,-1.129e+09,-1.12965e+09,-130258,0.0080621,0.114793,0,0.115076,14867.7,-40961.9,0,43576.7,130258
step02_gravity_refstate-mantle.xmf,359,-4.44625e-06,5.37786e-06,0,-3.16432e-06,-1.09924e+09,-1.09792e+09,-1.09864e+09,-422912,0.0327068,0.181021,0,0.183952,10093.6,-40000,0,41253.9,422912
step02_gravity_refstate-mantle.xmf,360,-3.78378e-06,5.39452e-06,0,-3.21484e-06,-1.12362e+09,-1.12239e+09,-1.12311e+09,-429663,0.0264231,0.186669,0,0.18853,9543.08,-40757.6,0,41859.9,429663
step02_gravity_refstate-mantle.xmf,361,-3.16088e-06,5.42863e-06,0,-3.56445e-06,-1.14325e+09,-1.14211e+09,-1.14283e+09,-476389,0.021132,0.195828,0,0.196965,8892.64,-41368.4,0,42313.4,476389
step02_gravity_refstate-mantle.xmf,362,-2.29743e-06,5.5819e-06,0,-5.08144e-06,-1.16784e+09,-1.16679e+09,-1.16753e+09,-679134,0.0145862,0.223666,0,0.224141,7454.04,-42134,0,42788.3,679134
step02_gravity_refstate-mantle.xmf,363,-2.69717e-06,5.48599e-06,0,-4.22479e-06,-1.15715e+09,-1.15606e+09,-1.15679e+09,-564643,0.0175347,0.208985,0,0.20972,8158.02,-41800.9,0,42589.6,564643
step02_gravity_refstate-mantle.xmf,364,1.18315e-06,2.7023e-06,0,4.3818e-07,-1.25999e+09,-1.25979e+09,-1.26015e+09,58562.7,-0.0134177,0.0361834,-0,0.0385911,30123.1,-44996.6,0,54148.8,58562.7
step02_gravity_refstate-mantle.xmf,365,2.55733e-07,3.22306e-06,0,3.5717e-07,-1.18786e+09,-1.18747e+09,-1.1879e+09,47735.7,-0.0107933,0.0502807,-0,0.0514261,25879.8,-42763.6,0,49984.9,47735.7
step02_gravity_refstate-mantle.xmf,366,6.96133e-07,3.02147e-06,0,4.48508e-07,-1.22397e+09,-1.22366e+09,-1.22406e+09,59943.1,-0.0134659,0.0439004,-0,0.0459193,27211.4,-43881.2,0,51633.5,59943.1
step02_gravity_refstate-mantle.xmf,367,-2.46853e-06,4.64257e-06,0,-9.017e-07,-1.09887e+09,-1.09792e+09,-1.09854e+09,-120512,0.00999927,0.103591,0,0.104072,16713.6,-40000,0,43351.4,120512
step02_gravity_refstate-mantle.xmf,368,-2.06472e-06,4.6976e-06,0,-6.99952e-07,-1.13258e+09,-1.13168e+09,-1.13231e+09,-93548.6,0.00486104,0.104001,0,0.104114,16049.9,-41044.3,0,44070.8,93548.6
step02_gravity_refstate-mantle.xmf,369,-2.11301e-06,4.43404e-06,0,-6.85969e-07,-1.09881e+09,-1.09794e+09,-1.09853e+09,-91679.8,0.00701272,0.0941759,0,0.0944366,18021.3,-40000,0,43872.2,91679.8
step02_gravity_refstate-mantle.xmf,370,-1.61346e-06,4.46415e-06,0,-4.01877e-07,-1.13899e+09,-1.13818e+09,-1.13877e+09,-53710.9,0.000935904,0.092267,0,0.0922718,17486.5,-41244.5,0,44798.3,53710.9
step02_gravity_refstate-mantle.xmf,371,-1.78469e-06,4.22681e-06,0,-5.01323e-07,-1.09876e+09,-1.09795e+09,-1.09852e+09,-67001.9,0.00434653,0.0856733,0,0.0857835,19395.5,-40000,0,44454.3,67001.9
step02_gravity_refstate-mantle.xmf,372,-1.52794e-06,4.28759e-06,0,-3.29104e-07,-1.12746e+09,-1.12668e+09,-1.12726e+09,-43984.7,0.00096316,0.0857009,0,0.0857064,18746,-40888.6,0,44981,43984.7
step02_gravity_refstate-mantle.xmf,373,-1.12259e-06,4.06758e-06,0,-1.08356e-07,-1.13955e+09,-1.13886e+09,-1.1394e+09,-14481.8,-0.00271408,0.076711,-0,0.076759,20082.8,-41264.2,0,45891.8,14481.8
step02_gravity_refstate-mantle.xmf,374,-2.73713e-07,3.67578e-06,0,2.42513e-07,-1.17929e+09,-1.17876e+09,-1.17925e+09,32411.8,-0.00983686,0.0620609,-0,0.0628357,22321.9,-42496.4,0,48002.2,32411.8
step02_gravity_refstate-mantle.xmf,375,9.05188e-08,3.43479e-06,0,3.53053e-07,-1.19384e+09,-1.19339e+09,-1.19385e+09,47185.6,-0.0117633,0.0548091,-0,0.0560572,23987.3,-42947.5,0,49192.3,47185.6
step02_gravity_refstate-mantle.xmf,376,1.75988e-06,2.39976e-06,0,3.70887e-07,-1.32601e+09,-1.32593e+09,-1.32625e+09,49569.1,-0.0127815,0.0283478,-0,0.0310961,32958.3,-47038.9,0,57436.2,49569.1
step02_gravity_refstate-mantle.xmf,377,2.25927e-06,2.16334e-06,0,2.19885e-07,-1.40007e+09,-1.40008e+09,-1.40037e+09,29387.7,-0.0092484,0.0217403,-0,0.0236257,35918.2,-49329.4,0,61020.5,29387.7
step02_gravity_refstate-mantle.xmf,378,3.02433e-06,1.94487e-06,0,6.74941e-08,-1.56519e+09,-1.56534e+09,-1.5656e+09,9020.59,-0.00570353,0.010969,-0,0.0123632,38110,-54434.5,0,66449.1,9020.59
step02_gravity_refstate-mantle.xmf,379,3.12547e-06,1.92563e-06,0,-7.57901e-10,-1.5988e+09,-1.59896e+09,-1.59921e+09,-101.294,5.98709e-19,0.00889615,0,0.00889615,40000,-55473.1,0,68390.6,101.294
step02_gravity_refstate-mantle.xmf,380,-8.70951e-07,5.67676e-06,0,2.82934e-06,-1.21584e+09,-1.21497e+09,-1.21573e+09,378141,0.00867522,0.165156,0,0.165383,-9862.58,-43626.7,-0,44727.6,378141
step02_gravity_refstate-mantle.xmf,381,-4.84785e-06,1.66482e-05,0,3.46695e-05,-1.23538e+09,-1.23251e+09,-1.23473e+09,4.63358e+06,0.00551479,0.476903,0,0.476935,-1395.25,-44231.6,-0,44253.6,4.63358e+06
step02_gravity_refstate-mantle.xmf,382,-4.86433e-06,1.73733e-05,0,2.98363e-05,-1.24227e+09,-1.2393e+09,-1.24162e+09,3.98762e+06,0.00975442,0.443168,0,0.443276,-1795.97,-44446.3,-0,44482.6,3.98762e+06
step02_gravity_refstate-mantle.xmf,383,-4.46945e-06,1.72766e-05,0,2.54892e-05,-1.24854e+09,-1.24563e+09,-1.24794e+09,3.40663e+06,0.0140552,0.412069,0,0.412309,-2208.26,-44642.3,-0,44696.9,3.40663e+06
step02_gravity_refstate-mantle.xmf,384,-8.66094e-07,8.0824e-06,0,1.09891e-05,-1.22e+09,-1.21881e+09,-1.21989e+09,1.46869e+06,0.00658154,0.29154,0,0.291614,-4889.32,-43761.4,-0,44033.6,1.46869e+06
step02_gravity_refstate-mantle.xmf,385,-7.68769e-07,7.01319e-06,0,7.59511e-06,-1.21723e+09,-1.21619e+09,-1.21713e+09,1.01509e+06,0.00629336,0.249354,0,0.249434,-6167.03,-43673.7,-0,44107,1.01509e+06
step02_gravity_refstate-mantle.xmf,386,-4.69049e-07,6.92723e-06,0,6.40528e-06,-1.22857e+09,-1.22758e+09,-1.2285e+09,856065,0.0117556,0.227221,0,0.227525,-6862.78,-44025.6,-0,44557.2,856065
step02_gravity_refstate-mantle.xmf,387,-5.87976e-07,6.19609e-06,0,4.33649e-06,-1.22431e+09,-1.2234e+09,-1.22423e+09,579572,0.0107409,0.193629,0,0.193927,-8303.44,-43891.4,-0,44669.9,579572
step02_gravity_refstate-mantle.xmf,388,-9.09932e-07,5.32052e-06,0,1.74051e-06,-1.21296e+09,-1.21213e+09,-1.21284e+09,232619,0.0092534,0.139131,0,0.139438,-11584.3,-43536.5,-0,45051.3,232619
step02_gravity_refstate-mantle.xmf,389,1.90282e-08,4.80466e-06,0,6.56444e-07,-1.25451e+09,-1.25387e+09,-1.25451e+09,87733.7,0.0220567,0.0991857,0,0.101609,-14545.5,-44824.8,-0,47125.8,87733.7
step02_gravity_refstate-mantle.xmf,390,-5.88675e-07,5.16482e-06,0,1.33062e-06,-1.22658e+09,-1.22581e+09,-1.2265e+09,177838,0.0140901,0.124763,0,0.125556,-12529.1,-43958.9,-0,45709.6,177838
step02_gravity_refstate-mantle.xmf,391,-2.72067e-07,4.99354e-06,0,9.73686e-07,-1.24047e+09,-1.23977e+09,-1.24044e+09,130133,0.0183642,0.111509,0,0.113011,-13509.9,-44389.7,-0,46400,130133
step02_gravity_refstate-mantle.xmf,392,4.30625e-07,4.20612e-06,0,-5.70771e-08,-1.26956e+09,-1.26905e+09,-1.26962e+09,-7628.36,0.0246031,0.0729269,0,0.0769652,-17771.7,-45290.9,-0,48652.8,7628.36
step02_gravity_refstate-mantle.xmf,393,2.64862e-06,2.4323e-06,0,-4.39313e-07,-1.47977e+09,-1.47979e+09,-1.48012e+09,-58714.2,0.029122,0.0199513,0,0.0353008,-29086.9,-51794.4,-0,59402.9,58714.2
step02_gravity_refstate-mantle.xmf,394,2.45943e-06,2.62251e-06,0,-4.98662e-07,-1.45076e+09,-1.45074e+09,-1.45109e+09,-66646.2,0.0316036,0.0238963,0,0.039621,-27429.3,-50897.8,-0,57818.3,66646.2
step02_gravity_refstate-mantle.xmf,395,2.22502e-06,2.83086e-06,0,-5.39213e-07,-1.42004e+09,-1.41996e+09,-1.42033e+09,-72065.8,0.0329228,0.0286548,0,0.0436464,-25879.4,-49947.6,-0,56254,72065.8
step02_gravity_refstate-mantle.xmf,396,3.07386e-06,2.23679e-06,0,-2.73869e-07,-1.57417e+09,-1.57428e+09,-1.57458e+09,-36602.6,0.0279249,0.0120429,0,0.0304111,-30864.8,-54712.8,-0,62818.2,36602.6
step02_gravity_refstate-mantle.xmf,397,3.31746e-06,2.17459e-06,0,-1.08465e-07,-1.67771e+09,-1.67786e+09,-1.67815e+09,-14496.3,0.0257565,0.00463739,0,0.0261707,-32182.8,-57912.6,-0,66254.1,14496.3
step02_gravity_refstate-mantle.xmf,398,3.35882e-06,2.21243e-06,0,5.93031e-09,-1.74527e+09,-1.74542e+09,-1.74572e+09,792.586,0.0233554,-6.17411e-20,0,0.0233554,-33002,-60000,-0,68477.2,792.586
step02_gravity_refstate-mantle.xmf,399,-3.14636e-06,1.33796e-05,0,-3.04716e-05,-1.22604e+09,-1.22384e+09,-1.22562e+09,-4.07253e+06,-0.0039643,0.451854,-0,0.451871,1782.09,-43946.2,0,43982.4,4.07253e+06
step02_gravity_refstate-mantle.xmf,400,-4.85568e-06,1.66635e-05,0,-3.4673e-05,-1.23543e+09,-1.23255e+09,-1.23478e+09,-4.63405e+06,-0.00552771,0.47691,-0,0.476942,1394.84,-44233.2,0,44255.2,4.63405e+06
step02_gravity_refstate-mantle.xmf,401,-1.48378e-06,5.43829e-06,0,-1.08391e-05,-1.17535e+09,-1.17443e+09,-1.17516e+09,-1.44864e+06,0.0160684,0.304951,0,0.305374,4784.23,-42371.2,0,42640.5,1.44864e+06
step02_gravity_refstate-mantle.xmf,402,-2.11376e-06,5.43851e-06,0,-7.39825e-06,-1.16739e+09,-1.16638e+09,-1.1671e+09,-988777,0.0178975,0.26226,0,0.26287,6060.72,-42120.9,0,42554.7,988777
step02_gravity_refstate-mantle.xmf,403,-4.14407e-06,5.34422e-06,0,-2.64518e-06,-1.09917e+09,-1.09791e+09,-1.09862e+09,-353528,0.0285404,0.165452,0,0.167896,11064.9,-40000,0,41502.2,353528
step02_gravity_refstate-mantle.xmf,404,-3.33272e-06,5.37533e-06,0,-2.50869e-06,-1.13009e+09,-1.12893e+09,-1.12965e+09,-335286,0.0203786,0.167626,0,0.16886,10592.6,-40960.6,0,42308,335286
step02_gravity_refstate-mantle.xmf,405,-3.84771e-06,5.27473e-06,0,-2.18966e-06,-1.09912e+09,-1.0979e+09,-1.0986e+09,-292649,0.0244698,0.150997,0,0.152967,12085.5,-40000,0,41785.9,292649
step02_gravity_refstate-mantle.xmf,406,-3.37525e-06,5.30568e-06,0,-2.12466e-06,-1.12133e+09,-1.12017e+09,-1.12088e+09,-283961,0.0198606,0.154337,0,0.15561,11575.2,-40689.5,0,42303.9,283961
step02_gravity_refstate-mantle.xmf,407,-3.50912e-06,5.15556e-06,0,-1.79602e-06,-1.09905e+09,-1.09789e+09,-1.09858e+09,-240037,0.0205423,0.137618,0,0.139143,13158,-40000,0,42108.6,240037
step02_gravity_refstate-mantle.xmf,408,-2.64566e-06,5.04941e-06,0,-1.27798e-06,-1.13043e+09,-1.1294e+09,-1.13008e+09,-170802,0.010901,0.126575,0,0.127044,13696.7,-40974.7,0,43203.3,170802
step02_gravity_refstate-mantle.xmf,409,-2.88637e-06,5.20412e-06,0,-1.65911e-06,-1.13185e+09,-1.13077e+09,-1.13146e+09,-221739,0.0138931,0.140534,0,0.141219,12482.5,-41017.3,0,42874.6,221739
step02_gravity_refstate-mantle.xmf,410,-1.89817e-06,5.7677e-06,0,-6.18515e-06,-1.17811e+09,-1.17708e+09,-1.17785e+09,-826646,0.0112981,0.240151,0,0.240417,6753.75,-42454.3,0,42988.1,826646
step02_gravity_refstate-mantle.xmf,411,1.03118e-06,2.8512e-06,0,4.762e-07,-1.25322e+09,-1.25298e+09,-1.25336e+09,63644.2,-0.0147986,0.0390864,-0,0.0417941,28448.1,-44786.7,0,53057.9,63644.2
step02_gravity_refstate-mantle.xmf,412,-5.54225e-07,3.86623e-06,0,1.38372e-07,-1.17064e+09,-1.17005e+09,-1.17057e+09,18493.4,-0.00813839,0.0681456,-0,0.0686298,21080.6,-42227.9,0,47197.4,18493.4
step02_gravity_refstate-mantle.xmf,413,2.12005e-06,2.27245e-06,0,3.34843e-07,-1.38033e+09,-1.38031e+09,-1.38061e+09,44751.8,-0.0135057,0.0239758,-0,0.0275181,33707.6,-48718.9,0,59243,44751.8
step02_gravity_refstate-mantle.xmf,414,1.69145e-06,2.5255e-06,0,4.63021e-07,-1.32537e+09,-1.32526e+09,-1.32559e+09,61882.8,-0.0163761,0.0300986,-0,0.0342651,30858.9,-47018.9,0,56241,61882.8
step02_gravity_refstate-mantle.xmf,415,2.62523e-06,2.06192e-06,0,1.90132e-07,-1.46881e+09,-1.46888e+09,-1.46916e+09,25411.2,-0.0102537,0.0172054,-0,0.0200291,36091.5,-51454.8,0,62850.6,25411.2
step02_gravity_refstate-mantle.xmf,416,2.91907e-06,1.99185e-06,0,1.53076e-07,-1.53531e+09,-1.53544e+09,-1.5357e+09,20458.6,-0.0110096,0.0130084,-0,0.017042,36218.9,-53510.9,0,64616,20458.6
step02_gravity_refstate-mantle.xmf,417,3.2187e-06,1.94271e-06,0,4.2671e-08,-1.63521e+09,-1.63538e+09,-1.63564e+09,5702.98,-0.00621921,0.00676401,-0,0.0091886,38062.2,-56598.6,0,68206.5,5702.98
step02_gravity_refstate-mantle.xmf,418,3.2755e-06,1.95236e-06,0,-4.25011e-10,-1.67163e+09,-1.67181e+09,-1.67207e+09,-56.8027,5.3504e-19,0.00453478,0,0.00453478,40000,-57724.1,0,70228.7,56.8027
step02_gravity_refstate-mantle.xmf,419,-4.95659e-07,5.55049e-06,0,2.28066e-06,-1.23037e+09,-1.22957e+09,-1.23031e+09,304811,0.014283,0.148299,0,0.148985,-10746.1,-44077.7,-0,45368.7,304811
step02_gravity_refstate-mantle.xmf,420,-6.84206e-06,2.02335e-05,0,3.9434e-05,-1.24422e+09,-1.2406e+09,-1.2433e+09,5.27036e+06,0.00561072,0.504674,0,0.504706,-1000,-44500.4,-0,44511.6,5.27036e+06
step02_gravity_refstate-mantle.xmf,421,-3.89711e-06,1.68373e-05,0,2.22051e-05,-1.25448e+09,-1.2517e+09,-1.25395e+09,2.96771e+06,0.0179789,0.386848,0,0.387265,-2573.38,-44828.3,-0,44902.1,2.96771e+06
step02_gravity_refstate-mantle.xmf,422,-5.61818e-07,8.00454e-06,0,9.18277e-06,-1.23056e+09,-1.22942e+09,-1.23049e+09,1.22728e+06,0.0119933,0.266316,0,0.266586,-5530.69,-44089.4,-0,44434.9,1.22728e+06
step02_gravity_refstate-mantle.xmf,423,-1.62996e-07,6.76848e-06,0,5.37735e-06,-1.2405e+09,-1.23957e+09,-1.24048e+09,718683,0.0169129,0.206167,0,0.20686,-7601.45,-44395.8,-0,45041.9,718683
step02_gravity_refstate-mantle.xmf,424,-9.95874e-07,9.58235e-06,0,1.31206e-05,-1.23181e+09,-1.23039e+09,-1.23168e+09,1.75357e+06,0.0116484,0.311291,0,0.311508,-4305.29,-44129,-0,44338.5,1.75357e+06
step02_gravity_refstate-mantle.xmf,425,-1.5468e-06,1.16357e-05,0,1.55077e-05,-1.24277e+09,-1.241e+09,-1.24256e+09,2.07261e+06,0.0159547,0.332812,0,0.333194,-3727.39,-44469,-0,44624.9,2.07261e+06
step02_gravity_refstate-mantle.xmf,426,-2.69262e-06,1.47636e-05,0,1.85262e-05,-1.25394e+09,-1.2516e+09,-1.25358e+09,2.47603e+06,0.019544,0.358235,0,0.358768,-3106.81,-44814.4,-0,44922,2.47603e+06
step02_gravity_refstate-mantle.xmf,427,3.16034e-07,4.60917e-06,0,3.86893e-07,-1.27058e+09,-1.27e+09,-1.27062e+09,51708.3,0.0255932,0.0877607,0,0.0914164,-15610.6,-45322.6,-0,47935.7,51708.3
step02_gravity_refstate-mantle.xmf,428,1.98702e-06,3.05197e-06,0,-5.41903e-07,-1.39311e+09,-1.39297e+09,-1.39338e+09,-72425.4,0.0336115,0.0338729,0,0.0477191,-24392,-49114.9,-0,54838.4,72425.4
step02_gravity_refstate-mantle.xmf,429,1.75236e-06,3.27965e-06,0,-5.11381e-07,-1.37033e+09,-1.37012e+09,-1.37056e+09,-68346.1,0.0338534,0.0395309,0,0.0520456,-22962.9,-48410.1,-0,53580.1,68346.1
step02_gravity_refstate-mantle.xmf,430,1.50051e-06,3.50818e-06,0,-4.50414e-07,-1.34829e+09,-1.34802e+09,-1.34849e+09,-60197.8,0.0333426,0.0459072,0,0.056738,-21613.5,-47728.3,-0,52394,60197.8
step02_gravity_refstate-mantle.xmf,431,1.21345e-06,3.74675e-06,0,-3.52216e-07,-1.32535e+09,-1.32501e+09,-1.32551e+09,-47073.7,0.031963,0.0535118,0,0.0623309,-20263.9,-47018.2,-0,51199,47073.7
step02_gravity_refstate-mantle.xmf,432,8.80039e-07,4.00845e-06,0,-1.97416e-07,-1.30096e+09,-1.30054e+09,-1.30108e+09,-26384.7,0.0295844,0.0631231,0,0.069712,-18814.3,-46263.4,-0,49942.7,26384.7
step02_gravity_refstate-mantle.xmf,433,5.97756e-07,4.41329e-06,0,1.65666e-07,-1.2874e+09,-1.28689e+09,-1.28748e+09,22141.2,0.0286484,0.0776266,0,0.0827443,-16668.2,-45843.6,-0,48779.8,22141.2
step02_gravity_refstate-mantle.xmf,434,2.9597e-06,2.38376e-06,0,-3.45811e-07,-1.54486e+09,-1.54493e+09,-1.54525e+09,-46217.7,0.0318493,0.0150074,0,0.035208,-29216.3,-53807,-0,61227.3,46217.7
step02_gravity_refstate-mantle.xmf,435,3.24044e-06,2.23431e-06,0,-1.90483e-07,-1.63142e+09,-1.63155e+09,-1.63185e+09,-25458.1,0.0291617,0.00805622,0,0.030254,-30930.2,-56482.4,-0,64396.8,25458.1
step02_gravity_refstate-mantle.xmf,436,-6.84174e-06,2.02326e-05,0,-3.94365e-05,-1.24422e+09,-1.2406e+09,-1.2433e+09,-5.27069e+06,-0.00561133,0.504674,-0,0.504705,1000,-44500.4,0,44511.6,5.27069e+06
step02_gravity_refstate-mantle.xmf,437,-3.30017e-06,1.40195e-05,0,-2.62127e-05,-1.23253e+09,-1.23021e+09,-1.23209e+09,-3.50333e+06,-0.00773794,0.420792,-0,0.420863,2193.14,-44147.1,0,44201.5,3.50333e+06
step02_gravity_refstate-mantle.xmf,438,-1.1329e-06,6.2066e-06,0,-1.31093e-05,-1.18864e+09,-1.18766e+09,-1.18849e+09,-1.75206e+06,0.00982063,0.3253,0,0.325448,4225.29,-42785.9,0,42994,1.75206e+06
step02_gravity_refstate-mantle.xmf,439,-2.0366e-06,1.10562e-05,0,-2.25231e-05,-1.22172e+09,-1.21997e+09,-1.22145e+09,-3.01021e+06,-0.00439262,0.396754,-0,0.396778,2645.95,-43814.1,0,43893.9,3.01021e+06
step02_gravity_refstate-mantle.xmf,440,-1.32067e-06,8.8535e-06,0,-1.8988e-05,-1.21107e+09,-1.20971e+09,-1.21089e+09,-2.53775e+06,-0.00029191,0.371974,-0,0.371974,3144.07,-43484.3,0,43597.8,2.53775e+06
step02_gravity_refstate-mantle.xmf,441,-1.05661e-06,7.31895e-06,0,-1.58169e-05,-1.20049e+09,-1.19937e+09,-1.20035e+09,-2.11392e+06,0.00431352,0.347673,0,0.3477,3676.98,-43155.3,0,43311.7,2.11392e+06
step02_gravity_refstate-mantle.xmf,442,-1.54397e-06,5.95017e-06,0,-9.01661e-06,-1.18322e+09,-1.18222e+09,-1.18301e+09,-1.20507e+06,0.0110362,0.279735,0,0.279953,5438.35,-42615,0,42960.6,1.20507e+06
step02_gravity_refstate-mantle.xmf,443,-1.6677e-06,4.76315e-06,0,-6.44627e-07,-1.16175e+09,-1.16089e+09,-1.16153e+09,-86154.4,-0.000169695,0.10629,-0,0.10629,15278.2,-41948.1,0,44643.8,86154.4
step02_gravity_refstate-mantle.xmf,444,-1.90125e-06,4.92886e-06,0,-9.17904e-07,-1.15917e+09,-1.15826e+09,-1.15892e+09,-122678,0.00236827,0.116755,0,0.116779,14210.4,-41867.2,0,44213.1,122678
step02_gravity_refstate-mantle.xmf,445,-2.78355e-06,5.44505e-06,0,-2.86856e-06,-1.15292e+09,-1.15182e+09,-1.15255e+09,-383383,0.0148423,0.177984,0,0.178602,9750.32,-41669.5,0,42795.1,383383
step02_gravity_refstate-mantle.xmf,446,-1.50718e-06,5.95101e-06,0,-5.15711e-06,-1.19198e+09,-1.19098e+09,-1.19178e+09,-689247,0.00370672,0.21877,0,0.218801,7476.77,-42885.9,0,43532.8,689247
step02_gravity_refstate-mantle.xmf,447,-2.22218e-06,5.553e-06,0,-3.427e-06,-1.17038e+09,-1.16934e+09,-1.17008e+09,-458019,0.0100152,0.189475,0,0.18974,8978.74,-42212.8,0,43157.2,458019
step02_gravity_refstate-mantle.xmf,448,-1.83392e-06,5.7201e-06,0,-4.24938e-06,-1.18238e+09,-1.18137e+09,-1.18214e+09,-567929,0.00669947,0.204161,0,0.204271,8176.89,-42586.8,0,43364.7,567929
step02_gravity_refstate-mantle.xmf,449,1.43557e-06,2.72254e-06,0,5.19325e-07,-1.30139e+09,-1.30122e+09,-1.30158e+09,69407.8,-0.0179954,0.0343863,-0,0.0388104,28822.2,-46277.1,0,54518.7,69407.8
step02_gravity_refstate-mantle.xmf,450,1.14725e-06,2.92115e-06,0,5.36475e-07,-1.277e+09,-1.27676e+09,-1.27715e+09,71699.9,-0.018183,0.039129,-0,0.0431474,27155.9,-45522.1,0,53006.7,71699.9
step02_gravity_refstate-mantle.xmf,451,7.34545e-07,3.16781e-06,0,5.02749e-07,-1.24463e+09,-1.2443e+09,-1.24473e+09,67192.5,-0.0167522,0.0458472,-0,0.0488119,25386.1,-44520.1,0,51249.3,67192.5
step02_gravity_refstate-mantle.xmf,452,-1.31565e-06,4.56789e-06,0,-3.72842e-07,-1.1703e+09,-1.16951e+09,-1.17012e+09,-49830.3,-0.00378073,0.0956044,-0,0.0956791,16425.5,-42213.9,0,45296.9,49830.3
step02_gravity_refstate-mantle.xmf,453,-9.91524e-07,4.2138e-06,0,-8.09135e-08,-1.16366e+09,-1.16296e+09,-1.16353e+09,-10814.1,-0.00526724,0.0805678,-0,0.0807398,18808,-42010.1,0,46028.1,10814.1
step02_gravity_refstate-mantle.xmf,454,-5.13604e-07,3.98487e-06,0,1.39416e-07,-1.18607e+09,-1.18547e+09,-1.186e+09,18633,-0.00994219,0.0711167,-0,0.0718083,20041.7,-42705,0,47174,18633
step02_gravity_refstate-mantle.xmf,455,-8.28876e-08,3.76372e-06,0,3.00385e-07,-1.20697e+09,-1.20645e+09,-1.20695e+09,40146.4,-0.0135038,0.0629773,-0,0.0644088,21285.7,-43352.8,0,48296.4,40146.4
step02_gravity_refstate-mantle.xmf,456,2.68887e-07,3.54835e-06,0,4.09821e-07,-1.22451e+09,-1.22407e+09,-1.22454e+09,54772.5,-0.0158114,0.0559754,-0,0.0581657,22606.2,-43896.4,0,49375.4,54772.5
step02_gravity_refstate-mantle.xmf,457,1.98703e-06,2.39191e-06,0,4.20713e-07,-1.36456e+09,-1.36451e+09,-1.36483e+09,56228.3,-0.0165787,0.0262489,-0,0.031046,31884.9,-48231.3,0,57817.9,56228.3
step02_gravity_refstate-mantle.xmf,458,2.47402e-06,2.1615e-06,0,2.95068e-07,-1.44087e+09,-1.44091e+09,-1.4412e+09,39435.9,-0.0145633,0.0196322,-0,0.0244441,34131.9,-50591,0,61028.2,39435.9
step02_gravity_refstate-mantle.xmf,459,3.14388e-06,1.97171e-06,0,1.06292e-07,-1.60305e+09,-1.60321e+09,-1.60347e+09,14205.9,-0.0116134,0.00884387,-0,0.0145974,36294.5,-55604.9,0,66401.8,14205.9
step02_gravity_refstate-mantle.xmf,460,3.30174e-06,1.97754e-06,0,2.16849e-08,-1.69272e+09,-1.6929e+09,-1.69316e+09,2898.18,-0.00552374,0.00326839,-0,0.00641826,38325.8,-58375.8,0,69832.6,2898.18
step02_gravity_refstate-mantle.xmf,461,3.32526e-06,2.03388e-06,0,-6.89461e-09,-1.74529e+09,-1.74546e+09,-1.74574e+09,-921.465,-2.50548e-18,-3.17983e-19,-0,2.52558e-18,40000,-60000,0,72111,921.465
step02_gravity_refstate-mantle.xmf,462,-3.5019e-07,6.03329e-06,0,3.58148e-06,-1.23513e+09,-1.23428e+09,-1.23508e+09,478665,0.0152416,0.174903,0,0.175565,-9129.96,-44226.8,-0,45159.4,478665
step02_gravity_refstate-mantle.xmf,463,-8.87898e-08,5.88151e-06,0,2.97394e-06,-1.24785e+09,-1.24705e+09,-1.24784e+09,397467,0.0198703,0.157863,0,0.159108,-9953.32,-44621.2,-0,45717.8,397467
step02_gravity_refstate-mantle.xmf,464,-7.08915e-06,2.12703e-05,0,3.38499e-05,-1.2517e+09,-1.24791e+09,-1.25075e+09,4.52403e+06,0.0104428,0.466902,0,0.467019,-1401.68,-44732.5,-0,44754.5,4.52403e+06
step02_gravity_refstate-mantle.xmf,465,-6.47708e-06,2.11983e-05,0,2.87816e-05,-1.25822e+09,-1.25452e+09,-1.25736e+09,3.84666e+06,0.0153634,0.432975,0,0.433248,-1806.17,-44937.9,-0,44974.2,3.84666e+06
step02_gravity_refstate-mantle.xmf,466,-5.37713e-06,2.00449e-05,0,2.43299e-05,-1.26348e+09,-1.26008e+09,-1.26276e+09,3.25169e+06,0.0199086,0.401652,0,0.402145,-2236.92,-45104.8,-0,45160.3,3.25169e+06
step02_gravity_refstate-mantle.xmf,467,-5.84882e-07,9.3378e-06,0,1.10131e-05,-1.24233e+09,-1.24101e+09,-1.24225e+09,1.4719e+06,0.0169722,0.284551,0,0.285056,-4914.65,-44456.2,-0,44727,1.4719e+06
step02_gravity_refstate-mantle.xmf,468,-1.89636e-07,7.82534e-06,0,7.7752e-06,-1.24265e+09,-1.24158e+09,-1.24263e+09,1.03916e+06,0.0175734,0.242688,0,0.243323,-6193.83,-44464.8,-0,44894.1,1.03916e+06
step02_gravity_refstate-mantle.xmf,469,1.34102e-07,7.58889e-06,0,6.65333e-06,-1.25551e+09,-1.25451e+09,-1.25553e+09,889218,0.022837,0.220304,0,0.221484,-6894.5,-44863.5,-0,45390.2,889218
step02_gravity_refstate-mantle.xmf,470,8.12141e-08,6.56132e-06,0,4.52777e-06,-1.25209e+09,-1.25122e+09,-1.2521e+09,605136,0.0213573,0.186598,0,0.187816,-8375.44,-44754.8,-0,45531.8,605136
step02_gravity_refstate-mantle.xmf,471,-4.12963e-06,1.85216e-05,0,2.06821e-05,-1.26883e+09,-1.2658e+09,-1.26828e+09,2.76417e+06,0.0241396,0.373013,0,0.373793,-2680.12,-45274.5,-0,45353.8,2.76417e+06
step02_gravity_refstate-mantle.xmf,472,-1.70102e-07,5.40557e-06,0,1.82722e-06,-1.24565e+09,-1.2449e+09,-1.24562e+09,244208,0.0193996,0.132861,0,0.13427,-11645.4,-44551.3,-0,46048.1,244208
step02_gravity_refstate-mantle.xmf,473,6.119e-07,4.86451e-06,0,7.5235e-07,-1.29253e+09,-1.29196e+09,-1.29261e+09,100552,0.0309795,0.0929378,0,0.0979651,-14606.6,-46003.3,-0,48266.5,100552
step02_gravity_refstate-mantle.xmf,474,3.7369e-07,5.05885e-06,0,1.07035e-06,-1.27702e+09,-1.2764e+09,-1.27707e+09,143053,0.027796,0.10506,0,0.108675,-13582.3,-45523.2,-0,47506.2,143053
step02_gravity_refstate-mantle.xmf,475,1.07008e-07,5.24422e-06,0,1.43772e-06,-1.2612e+09,-1.26052e+09,-1.26122e+09,192152,0.0239021,0.118632,0,0.121016,-12574.4,-45033.3,-0,46755.9,192152
step02_gravity_refstate-mantle.xmf,476,8.39065e-07,4.24802e-06,0,1.45002e-08,-1.30313e+09,-1.30268e+09,-1.30324e+09,1937.96,0.0310303,0.0697409,0,0.0763327,-17570.5,-46330.7,-0,49550.6,1937.96
step02_gravity_refstate-mantle.xmf,477,2.34761e-06,3.01776e-06,0,-4.79352e-07,-1.44459e+09,-1.4445e+09,-1.4449e+09,-64065.4,0.0383478,0.0289732,0,0.0480625,-24424.8,-50707.2,-0,56283.1,64065.4
step02_gravity_refstate-mantle.xmf,478,2.81534e-06,2.56909e-06,0,-4.06908e-07,-1.51551e+09,-1.51554e+09,-1.51589e+09,-54383.3,0.0352417,0.0185655,0,0.0398329,-27552.8,-52900.1,-0,59645.4,54383.3
step02_gravity_refstate-mantle.xmf,479,2.63736e-06,2.80707e-06,0,-4.43921e-07,-1.48621e+09,-1.48619e+09,-1.48657e+09,-59330.1,0.0382611,0.0230425,0,0.044664,-25774,-51994.5,-0,58032.1,59330.1
step02_gravity_refstate-mantle.xmf,480,3.18332e-06,2.37108e-06,0,-2.38682e-07,-1.60932e+09,-1.60943e+09,-1.60975e+09,-31899.8,0.0336306,0.0101861,0,0.0351394,-29369.8,-55799.8,-0,63057.1,31899.8
step02_gravity_refstate-mantle.xmf,481,3.32648e-06,2.38313e-06,0,-1.19375e-07,-1.67937e+09,-1.6795e+09,-1.67981e+09,-15954.4,0.0341497,0.00494287,0,0.0345055,-29661.5,-57964.6,-0,65113,15954.4
step02_gravity_refstate-mantle.xmf,482,3.36982e-06,2.35439e-06,0,5.34279e-09,-1.74526e+09,-1.74539e+09,-1.74571e+09,714.064,0.0305055,-7.43799e-20,0,0.0305055,-30876.9,-60000,-0,67478.7,714.064
step02_gravity_refstate-mantle.xmf,483,-4.97427e-06,1.73697e-05,0,-2.98335e-05,-1.24228e+09,-1.23929e+09,-1.24161e+09,-3.98725e+06,-0.0097413,0.443244,-0,0.443351,1795.09,-44445.6,0,44481.8,3.98725e+06
step02_gravity_refstate-mantle.xmf,484,-7.12081e-06,2.13301e-05,0,-3.38572e-05,-1.25189e+09,-1.24809e+09,-1.25094e+09,-4.52502e+06,-0.0104905,0.466881,-0,0.466999,1400.34,-44738.4,0,44760.3,4.52502e+06
step02_gravity_refstate-mantle.xmf,485,-1.18519e-06,6.77308e-06,0,-1.09418e-05,-1.19765e+09,-1.19658e+09,-1.19749e+09,-1.46238e+06,0.00450479,0.298528,0,0.298562,4841.24,-43065.2,0,43336.5,1.46238e+06
step02_gravity_refstate-mantle.xmf,486,-1.41419e-06,6.21297e-06,0,-7.48336e-06,-1.19214e+09,-1.19112e+09,-1.19196e+09,-1.00015e+06,0.00561036,0.255929,0,0.255991,6120.54,-42892.3,0,43326.8,1.00015e+06
step02_gravity_refstate-mantle.xmf,487,-2.626e-06,5.29973e-06,0,-1.91895e-06,-1.14876e+09,-1.1477e+09,-1.14841e+09,-256467,0.0115174,0.150907,0,0.151346,11498,-41541.7,0,43103.6,256467
step02_gravity_refstate-mantle.xmf,488,-2.04244e-06,5.07964e-06,0,-1.22344e-06,-1.16086e+09,-1.15991e+09,-1.16059e+09,-163513,0.0040473,0.128038,0,0.128102,13136.6,-41919,0,43929.1,163513
step02_gravity_refstate-mantle.xmf,489,-1.31706e-06,4.8266e-06,0,-6.93795e-07,-1.18353e+09,-1.18271e+09,-1.18335e+09,-92725.7,-0.00442192,0.109259,-0,0.109348,14600,-42623.2,0,45054.4,92725.7
step02_gravity_refstate-mantle.xmf,490,-2.24714e-06,5.39253e-06,0,-2.26639e-06,-1.16583e+09,-1.16481e+09,-1.16553e+09,-302903,0.00793763,0.160877,0,0.161073,10640.8,-42071.8,0,43396.5,302903
step02_gravity_refstate-mantle.xmf,491,-1.15167e-06,6.33164e-06,0,-6.27116e-06,-1.203e+09,-1.202e+09,-1.20285e+09,-838140,-0.000374146,0.23395,-0,0.23395,6808.83,-43229.9,0,43762.8,838140
step02_gravity_refstate-mantle.xmf,492,-8.57066e-07,4.35091e-06,0,-1.16253e-07,-1.18451e+09,-1.18382e+09,-1.1844e+09,-15537.2,-0.0080057,0.085045,-0,0.085421,17635.3,-42655.6,0,46157.4,15537.2
step02_gravity_refstate-mantle.xmf,493,5.93245e-07,3.36006e-06,0,4.83212e-07,-1.24413e+09,-1.24376e+09,-1.24421e+09,64581.3,-0.0177638,0.0501082,-0,0.0531637,23790.6,-44504.3,0,50464.1,64581.3
step02_gravity_refstate-mantle.xmf,494,2.29404e-06,2.29003e-06,0,3.91977e-07,-1.41217e+09,-1.41217e+09,-1.41248e+09,52387.7,-0.017925,0.0225335,-0,0.0287935,32280.6,-49703.7,0,59266.3,52387.7
step02_gravity_refstate-mantle.xmf,495,2.09873e-06,2.43595e-06,0,4.70543e-07,-1.38548e+09,-1.38543e+09,-1.38576e+09,62888.1,-0.0203087,0.0257253,-0,0.0327755,30596.5,-48878.1,0,57664.7,62888.1
step02_gravity_refstate-mantle.xmf,496,1.87642e-06,2.60047e-06,0,5.30617e-07,-1.35902e+09,-1.35892e+09,-1.35927e+09,70917,-0.0218203,0.0294047,-0,0.0366165,29008.5,-48059.8,0,56135.9,70917
step02_gravity_refstate-mantle.xmf,497,2.80188e-06,2.07878e-06,0,2.45196e-07,-1.50678e+09,-1.50688e+09,-1.50716e+09,32770.5,-0.015889,0.0152458,-0,0.0220204,34318.1,-52629.1,0,62829.6,32770.5
step02_gravity_refstate-mantle.xmf,498,3.06744e-06,2.03062e-06,0,1.85296e-07,-1.57473e+09,-1.57487e+09,-1.57514e+09,24764.8,-0.0170618,0.0109002,-0,0.0202465,34411.9,-54729.6,0,64649.1,24764.8
step02_gravity_refstate-mantle.xmf,499,3.29006e-06,1.99832e-06,0,5.74632e-08,-1.677e+09,-1.67717e+09,-1.67744e+09,7679.95,-0.0121454,0.0043061,-0,0.0128862,36301.4,-57890.1,0,68330.5,7679.95
step02_gravity_refstate-mantle.xmf,500,3.33121e-06,2.0529e-06,0,-7.77338e-09,-1.74529e+09,-1.74546e+09,-1.74573e+09,-1038.91,-0.00812347,-4.17979e-19,-0,0.00812347,37557.9,-60000,0,70785.6,1038.91
step02_gravity_refstate-mantle.xmf,501,1.91394e-07,5.72993e-06,0,2.45373e-06,-1.26275e+09,-1.26201e+09,-1.26278e+09,327942,0.0246016,0.141647,0,0.143768,-10811.5,-45082.9,-0,46361.1,327942
step02_gravity_refstate-mantle.xmf,502,-9.52992e-06,2.55289e-05,0,3.86308e-05,-1.26054e+09,-1.25585e+09,-1.25926e+09,5.163e+06,0.00951012,0.493239,0,0.49333,-1000,-45000.2,-0,45011.3,5.163e+06
step02_gravity_refstate-mantle.xmf,503,-1.44529e-07,8.97985e-06,0,9.34285e-06,-1.25411e+09,-1.25289e+09,-1.25409e+09,1.24867e+06,0.0223032,0.259554,0,0.26051,-5547.08,-44822,-0,45163.9,1.24867e+06
step02_gravity_refstate-mantle.xmf,504,3.94627e-07,7.29637e-06,0,5.64765e-06,-1.26786e+09,-1.26694e+09,-1.26791e+09,754808,0.027259,0.199149,0,0.201006,-7646.19,-45246.1,-0,45887.6,754808
step02_gravity_refstate-mantle.xmf,505,-8.97689e-07,1.11258e-05,0,1.29965e-05,-1.25342e+09,-1.25181e+09,-1.2533e+09,1.73698e+06,0.0214184,0.303553,0,0.304308,-4324.37,-44801.2,-0,45009.4,1.73698e+06
step02_gravity_refstate-mantle.xmf,506,-1.60282e-06,1.35647e-05,0,1.50894e-05,-1.26438e+09,-1.26236e+09,-1.26417e+09,2.0167e+06,0.025319,0.323588,0,0.324577,-3744.34,-45141.4,-0,45296.4,2.0167e+06
step02_gravity_refstate-mantle.xmf,507,-2.68541e-06,1.66855e-05,0,1.71932e-05,-1.27591e+09,-1.27332e+09,-1.27555e+09,2.29787e+06,0.0287615,0.342241,0,0.343447,-3214.04,-45498.2,-0,45611.6,2.29787e+06
step02_gravity_refstate-mantle.xmf,508,8.45363e-07,4.66101e-06,0,4.74527e-07,-1.30897e+09,-1.30846e+09,-1.30909e+09,63420.6,0.0337623,0.0818102,0,0.0885031,-15666.8,-46512.3,-0,49079.9,63420.6
step02_gravity_refstate-mantle.xmf,509,2.1291e-06,3.24867e-06,0,-4.56784e-07,-1.41874e+09,-1.41859e+09,-1.41902e+09,-61049.2,0.0389819,0.03444,0,0.0520164,-23041.7,-49907.8,-0,54970.1,61049.2
step02_gravity_refstate-mantle.xmf,510,1.91009e-06,3.48839e-06,0,-3.96469e-07,-1.39608e+09,-1.39587e+09,-1.39634e+09,-52988.1,0.0392034,0.0404992,0,0.0563657,-21686.8,-49207.1,-0,53774.1,52988.1
step02_gravity_refstate-mantle.xmf,511,1.67741e-06,3.7314e-06,0,-3.00254e-07,-1.37405e+09,-1.37378e+09,-1.37428e+09,-40128.9,0.0387543,0.0474403,0,0.0612575,-20373.6,-48525.8,-0,52629.2,40128.9
step02_gravity_refstate-mantle.xmf,512,1.43408e-06,3.97892e-06,0,-1.61458e-07,-1.35275e+09,-1.35241e+09,-1.35294e+09,-21578.9,0.0376924,0.0554477,0,0.0670459,-19074.4,-47866.8,-0,51527.3,21578.9
step02_gravity_refstate-mantle.xmf,513,1.05251e-06,4.44851e-06,0,2.34845e-07,-1.3241e+09,-1.32365e+09,-1.32424e+09,31387,0.0357197,0.0721252,0,0.0804857,-16737.8,-46980.4,-0,49872.9,31387
step02_gravity_refstate-mantle.xmf,514,1.23184e-06,4.22615e-06,0,2.5293e-08,-1.33723e+09,-1.33683e+09,-1.33739e+09,3380.41,0.0368187,0.0637277,0,0.0735991,-17836.9,-47386.5,-0,50632.4,3380.41
step02_gravity_refstate-mantle.xmf,515,2.60504e-06,3.04234e-06,0,-4.00936e-07,-1.48933e+09,-1.48928e+09,-1.48968e+09,-53585.1,0.0423509,0.0250064,0,0.0491825,-24297,-52091.2,-0,57479.1,53585.1
step02_gravity_refstate-mantle.xmf,516,3.08692e-06,2.54606e-06,0,-2.94702e-07,-1.58288e+09,-1.58295e+09,-1.58329e+09,-39386.9,0.0378253,0.0130824,0,0.0400237,-27746.5,-54982.7,-0,61587.1,39386.9
step02_gravity_refstate-mantle.xmf,517,-4.60739e-06,1.74254e-05,0,-2.55268e-05,-1.24891e+09,-1.24596e+09,-1.24829e+09,-3.41166e+06,-0.0141304,0.412719,-0,0.41296,2195.07,-44653.1,0,44707,3.41166e+06
step02_gravity_refstate-mantle.xmf,518,-9.53383e-06,2.55348e-05,0,-3.86268e-05,-1.26054e+09,-1.25585e+09,-1.25926e+09,-5.16247e+06,-0.00950922,0.493238,-0,0.49333,1000,-45000.2,0,45011.3,5.16247e+06
step02_gravity_refstate-mantle.xmf,519,-3.00195e-06,1.39622e-05,0,-2.22602e-05,-1.23851e+09,-1.23624e+09,-1.23811e+09,-2.97508e+06,-0.0116123,0.390649,-0,0.390821,2639.26,-44333.8,0,44412.3,2.97508e+06
step02_gravity_refstate-mantle.xmf,520,-1.10001e-06,7.93519e-06,0,-1.31818e-05,-1.21029e+09,-1.20908e+09,-1.21014e+09,-1.76175e+06,-0.00121158,0.31881,-0,0.318812,4265.82,-43459.3,0,43668.2,1.76175e+06
step02_gravity_refstate-mantle.xmf,521,-1.96272e-06,1.14028e-05,0,-1.89045e-05,-1.22988e+09,-1.22809e+09,-1.22962e+09,-2.52659e+06,-0.00906017,0.365751,-0,0.365863,3149.98,-44067.6,0,44180,2.52659e+06
step02_gravity_refstate-mantle.xmf,522,-1.35703e-06,9.59647e-06,0,-1.58363e-05,-1.22225e+09,-1.22079e+09,-1.22207e+09,-2.11652e+06,-0.00638354,0.340955,-0,0.341015,3698,-43831.3,0,43987,2.11652e+06
step02_gravity_refstate-mantle.xmf,523,-1.03608e-06,6.98601e-06,0,-9.09362e-06,-1.20688e+09,-1.20581e+09,-1.20675e+09,-1.21536e+06,-0.000795065,0.273073,-0,0.273074,5493.93,-43352.1,0,43698.9,1.21536e+06
step02_gravity_refstate-mantle.xmf,524,-1.00295e-06,4.66954e-06,0,-4.40658e-07,-1.19478e+09,-1.19402e+09,-1.19465e+09,-58894,-0.00818975,0.0995187,-0,0.0998551,15502.8,-42972.6,0,45683.5,58894
step02_gravity_refstate-mantle.xmf,525,-2.14758e-06,5.20941e-06,0,-1.53458e-06,-1.16321e+09,-1.16223e+09,-1.16293e+09,-205097,0.00525165,0.138569,0,0.138669,12238.2,-41991.1,0,43738.2,205097
step02_gravity_refstate-mantle.xmf,526,-1.36564e-06,4.97456e-06,0,-9.48377e-07,-1.18705e+09,-1.1862e+09,-1.18687e+09,-126751,-0.00406895,0.118135,-0,0.118205,13663,-42732.1,0,44863.2,126751
step02_gravity_refstate-mantle.xmf,527,-1.78416e-06,5.53436e-06,0,-2.77105e-06,-1.18441e+09,-1.18343e+09,-1.18417e+09,-370351,0.00292629,0.171526,0,0.171551,9811.44,-42649.2,0,43763.2,370351
step02_gravity_refstate-mantle.xmf,528,-8.13047e-07,6.34537e-06,0,-5.24909e-06,-1.21547e+09,-1.21451e+09,-1.21536e+09,-701541,-0.00656733,0.213149,-0,0.213251,7522.86,-43617.2,0,44261.2,701541
step02_gravity_refstate-mantle.xmf,529,-1.17181e-06,6.01583e-06,0,-4.45245e-06,-1.20419e+09,-1.20323e+09,-1.20403e+09,-595070,-0.00235658,0.202293,-0,0.202307,8082.21,-43265.5,0,44014,595070
step02_gravity_refstate-mantle.xmf,530,-1.22931e-06,5.79105e-06,0,-3.57872e-06,-1.20248e+09,-1.20155e+09,-1.20232e+09,-478296,-0.00265319,0.18517,-0,0.185189,8910.06,-43211.9,0,44120.9,478296
step02_gravity_refstate-mantle.xmf,531,1.62099e-06,2.79772e-06,0,5.69533e-07,-1.33318e+09,-1.33302e+09,-1.3334e+09,76118.2,-0.0228218,0.0338956,-0,0.0408625,27311.4,-47260.5,0,54584.5,76118.2
step02_gravity_refstate-mantle.xmf,532,1.32865e-06,3.01148e-06,0,5.76646e-07,-1.30733e+09,-1.3071e+09,-1.3075e+09,77068.7,-0.0228422,0.0391572,-0,0.0453327,25697.7,-46460.5,0,53093.7,77068.7
step02_gravity_refstate-mantle.xmf,533,-6.11333e-07,4.47224e-06,0,-1.94102e-07,-1.20947e+09,-1.20879e+09,-1.20939e+09,-25941.7,-0.0123328,0.0889467,-0,0.0897976,16581.3,-43428.4,0,46486.2,25941.7
step02_gravity_refstate-mantle.xmf,534,-3.62239e-07,4.11928e-06,0,1.12445e-07,-1.2064e+09,-1.2058e+09,-1.20635e+09,15028.2,-0.0128618,0.0747358,-0,0.0758345,18863.3,-43334.3,0,47261.9,15028.2
step02_gravity_refstate-mantle.xmf,535,1.05913e-06,3.22945e-06,0,5.53663e-07,-1.28803e+09,-1.28774e+09,-1.28817e+09,73997,-0.0226433,0.044671,-0,0.0500821,24137.6,-45863,0,51827,73997
step02_gravity_refstate-mantle.xmf,536,7.90787e-07,3.43952e-06,0,5.02314e-07,-1.27121e+09,-1.27086e+09,-1.27132e+09,67134.3,-0.0218791,0.050459,-0,0.0549982,22745.3,-45342.4,0,50727.6,67134.3
step02_gravity_refstate-mantle.xmf,537,6.54775e-08,3.88549e-06,0,2.89051e-07,-1.2292e+09,-1.22869e+09,-1.22921e+09,38631.7,-0.016929,0.0654382,-0,0.0675925,20129.7,-44040.8,0,48423.1,38631.7
step02_gravity_refstate-mantle.xmf,538,4.73618e-07,3.65341e-06,0,4.20053e-07,-1.25225e+09,-1.25183e+09,-1.25231e+09,56140.1,-0.0201014,0.0571485,-0,0.0605807,21442.5,-44755.1,0,49626.6,56140.1
step02_gravity_refstate-mantle.xmf,539,2.65458e-06,2.19505e-06,0,3.42004e-07,-1.47675e+09,-1.47681e+09,-1.4771e+09,45708.9,-0.0200504,0.0179564,-0,0.0269156,32459.4,-51700.6,0,61045.6,45708.9
step02_gravity_refstate-mantle.xmf,540,3.21913e-06,2.02522e-06,0,1.25261e-07,-1.63135e+09,-1.63151e+09,-1.63178e+09,16741.1,-0.0170022,0.0072933,-0,0.0185005,34697.3,-56479.7,0,66286.2,16741.1
step02_gravity_refstate-mantle.xmf,541,2.97928e-07,6.36296e-06,0,3.83029e-06,-1.2649e+09,-1.26409e+09,-1.26494e+09,511918,0.0256847,0.168287,0,0.170235,-9177.2,-45151.6,-0,46074.8,511918
step02_gravity_refstate-mantle.xmf,542,4.96803e-07,6.17469e-06,0,3.22661e-06,-1.27867e+09,-1.27791e+09,-1.27874e+09,431237,0.0297567,0.151283,0,0.154181,-10002.4,-45577.8,-0,46662.5,431237
step02_gravity_refstate-mantle.xmf,543,-9.10503e-06,2.57535e-05,0,3.25666e-05,-1.26745e+09,-1.26279e+09,-1.26623e+09,4.35253e+06,0.0152111,0.455185,0,0.455439,-1405.96,-45217.1,-0,45238.9,4.35253e+06
step02_gravity_refstate-mantle.xmf,544,-7.72881e-06,2.46568e-05,0,2.7265e-05,-1.27357e+09,-1.26924e+09,-1.27254e+09,3.64396e+06,0.0207834,0.421031,0,0.421544,-1821.97,-45412.6,-0,45449.1,3.64396e+06
step02_gravity_refstate-mantle.xmf,545,-6.07658e-06,2.27573e-05,0,2.29431e-05,-1.27948e+09,-1.27563e+09,-1.27867e+09,3.06634e+06,0.0259125,0.390303,0,0.391162,-2249.19,-45601.3,-0,45656.7,3.06634e+06
step02_gravity_refstate-mantle.xmf,546,-3.5166e-07,1.04751e-05,0,1.10965e-05,-1.26318e+09,-1.26173e+09,-1.26313e+09,1.48305e+06,0.0258957,0.278197,0,0.2794,-4912.73,-45104.5,-0,45371.3,1.48305e+06
step02_gravity_refstate-mantle.xmf,547,2.80639e-07,8.82994e-06,0,8.26657e-06,-1.27017e+09,-1.26903e+09,-1.27021e+09,1.10483e+06,0.0286576,0.237487,0,0.23921,-6127.25,-45320.7,-0,45733,1.10483e+06
step02_gravity_refstate-mantle.xmf,548,5.72454e-07,8.3087e-06,0,6.96317e-06,-1.28302e+09,-1.28199e+09,-1.2831e+09,930628,0.0329359,0.212555,0,0.215091,-6932.07,-45718.2,-0,46240.7,930628
step02_gravity_refstate-mantle.xmf,549,5.92623e-07,7.03846e-06,0,4.84951e-06,-1.28085e+09,-1.27999e+09,-1.28093e+09,648137,0.0313289,0.179927,0,0.182634,-8404.45,-45648.1,-0,46415.3,648137
step02_gravity_refstate-mantle.xmf,550,-4.29874e-06,2.05405e-05,0,1.93647e-05,-1.28684e+09,-1.28352e+09,-1.28627e+09,2.58809e+06,0.0310434,0.360218,0,0.361554,-2715.56,-45835,-0,45915.4,2.58809e+06
step02_gravity_refstate-mantle.xmf,551,4.6545e-07,5.58081e-06,0,2.01164e-06,-1.28049e+09,-1.27981e+09,-1.28055e+09,268856,0.0294735,0.126035,0,0.129435,-11712.9,-45632.2,-0,47111.5,268856
step02_gravity_refstate-mantle.xmf,552,1.07584e-06,5.00227e-06,0,9.00959e-07,-1.33078e+09,-1.33026e+09,-1.33093e+09,120413,0.0392246,0.0865988,0,0.095068,-14663.5,-47188.4,-0,49414.2,120413
step02_gravity_refstate-mantle.xmf,553,8.93018e-07,5.22244e-06,0,1.2545e-06,-1.31464e+09,-1.31406e+09,-1.31476e+09,167664,0.0367536,0.0987266,0,0.105346,-13616.3,-46689.1,-0,48634.1,167664
step02_gravity_refstate-mantle.xmf,554,7.04797e-07,5.4188e-06,0,1.63211e-06,-1.2988e+09,-1.29817e+09,-1.2989e+09,218132,0.0337523,0.111647,0,0.116637,-12641.2,-46199.1,-0,47897.4,218132
step02_gravity_refstate-mantle.xmf,555,2.43342e-06,3.25365e-06,0,-3.83594e-07,-1.46613e+09,-1.46602e+09,-1.46646e+09,-51267.4,0.0434727,0.0295815,0,0.0525827,-23081.9,-51373.9,-0,56321,51267.4
step02_gravity_refstate-mantle.xmf,556,2.96679e-06,2.75439e-06,0,-3.32029e-07,-1.55716e+09,-1.55719e+09,-1.55756e+09,-44375.7,0.0413981,0.0164614,0,0.0445509,-26183.9,-54188.1,-0,60182.7,44375.7
step02_gravity_refstate-mantle.xmf,557,2.81729e-06,2.99331e-06,0,-3.45091e-07,-1.53076e+09,-1.53074e+09,-1.53114e+09,-46121.5,0.0442614,0.020571,0,0.0488082,-24669.3,-53372.3,-0,58797.8,46121.5
step02_gravity_refstate-mantle.xmf,558,3.2486e-06,2.57129e-06,0,-1.88089e-07,-1.64246e+09,-1.64255e+09,-1.64289e+09,-25138.1,0.0395874,0.00834422,0,0.0404572,-27793.2,-56824.3,-0,63257.2,25138.1
step02_gravity_refstate-mantle.xmf,559,3.36632e-06,2.55266e-06,0,2.85694e-09,-1.74524e+09,-1.74535e+09,-1.74569e+09,381.83,0.0373423,-6.30149e-20,0,0.0373423,-28846.4,-60000,-0,66574.1,381.83
step02_gravity_refstate-mantle.xmf,560,-6.61562e-06,2.13044e-05,0,-2.87229e-05,-1.25865e+09,-1.25491e+09,-1.25776e+09,-3.83882e+06,-0.0154953,0.432794,-0,0.433072,1804.96,-44950.4,0,44986.6,3.83882e+06
step02_gravity_refstate-mantle.xmf,561,-9.18129e-06,2.59016e-05,0,-3.25586e-05,-1.26793e+09,-1.26324e+09,-1.2667e+09,-4.35146e+06,-0.0153344,0.454979,-0,0.455237,1403.67,-45231.7,0,45253.5,4.35146e+06
step02_gravity_refstate-mantle.xmf,562,-8.8896e-07,8.08789e-06,0,-1.09608e-05,-1.22008e+09,-1.21888e+09,-1.21996e+09,-1.46491e+06,-0.00661411,0.291548,-0,0.291623,4888.64,-43763.5,0,44035.7,1.46491e+06
step02_gravity_refstate-mantle.xmf,563,-7.67187e-07,7.01423e-06,0,-7.59292e-06,-1.2173e+09,-1.21626e+09,-1.21719e+09,-1.01479e+06,-0.00632354,0.249298,-0,0.249378,6168.44,-43675.7,0,44109.1,1.01479e+06
step02_gravity_refstate-mantle.xmf,564,-1.7411e-06,5.29887e-06,0,-1.77678e-06,-1.1809e+09,-1.17996e+09,-1.18067e+09,-237467,0.00113979,0.145522,0,0.145526,11504.7,-42540.5,0,44068.7,237467
step02_gravity_refstate-mantle.xmf,565,-1.38679e-06,5.13969e-06,0,-1.30842e-06,-1.19216e+09,-1.19129e+09,-1.19198e+09,-174870,-0.00396271,0.13019,-0,0.13025,12535.6,-42890.4,0,44684.8,174870
step02_gravity_refstate-mantle.xmf,566,-7.23916e-07,4.83594e-06,0,-6.86677e-07,-1.2149e+09,-1.21415e+09,-1.2148e+09,-91774.4,-0.0121044,0.106987,-0,0.10767,14345.5,-43596.2,0,45895.8,91774.4
step02_gravity_refstate-mantle.xmf,567,-1.31077e-06,5.4456e-06,0,-2.20828e-06,-1.19852e+09,-1.19762e+09,-1.19834e+09,-295137,-0.00348446,0.154598,-0,0.154638,10690.2,-43088,0,44394.3,295137
step02_gravity_refstate-mantle.xmf,568,-4.69062e-07,6.92721e-06,0,-6.40531e-06,-1.22857e+09,-1.22758e+09,-1.2285e+09,-856069,-0.0117554,0.227221,-0,0.227524,6862.79,-44025.6,0,44557.2,856069
step02_gravity_refstate-mantle.xmf,569,-5.88086e-07,6.1962e-06,0,-4.33654e-06,-1.22431e+09,-1.2234e+09,-1.22423e+09,-579579,-0.0107409,0.193629,-0,0.193927,8303.44,-43891.4,0,44669.9,579579
step02_gravity_refstate-mantle.xmf,570,-1.66118e-07,4.25784e-06,0,2.70702e-08,-1.22818e+09,-1.22759e+09,-1.22816e+09,3617.93,-0.016613,0.0786116,-0,0.0803479,17730,-44008.8,0,47446,3617.93
step02_gravity_refstate-mantle.xmf,571,2.47772e-06,2.34036e-06,0,4.31208e-07,-1.4464e+09,-1.44641e+09,-1.44673e+09,57631,-0.0233055,0.0211517,-0,0.0314728,30688.3,-50762.2,0,59317.6,57631
step02_gravity_refstate-mantle.xmf,572,2.28169e-06,2.50711e-06,0,5.034e-07,-1.41806e+09,-1.41803e+09,-1.41837e+09,67279.4,-0.0257,0.0247286,-0,0.035665,29019,-49886.1,0,57712.5,67279.4
step02_gravity_refstate-mantle.xmf,573,2.05775e-06,2.69697e-06,0,5.55309e-07,-1.39043e+09,-1.39035e+09,-1.39071e+09,74217,-0.0273003,0.0289062,-0,0.0397602,27393.9,-49031.6,0,56165.2,74217
step02_gravity_refstate-mantle.xmf,574,2.96058e-06,2.13222e-06,0,2.69389e-07,-1.54415e+09,-1.54426e+09,-1.54454e+09,36003.8,-0.0217697,0.0133808,-0,0.0255532,32617.2,-53784.5,0,62901.9,36003.8
step02_gravity_refstate-mantle.xmf,575,3.20024e-06,2.10898e-06,0,1.78113e-07,-1.6194e+09,-1.61955e+09,-1.61983e+09,23804.9,-0.0229588,0.00839651,-0,0.024446,32787.1,-56110.6,0,64987.6,23804.9
step02_gravity_refstate-mantle.xmf,576,3.31756e-06,2.08701e-06,0,7.64105e-08,-1.68649e+09,-1.68666e+09,-1.68693e+09,10212.3,-0.0198186,0.00386358,-0,0.0201916,33995.7,-58183.7,0,67387.3,10212.3
step02_gravity_refstate-mantle.xmf,577,3.3426e-06,2.11194e-06,0,-5.02478e-09,-1.74528e+09,-1.74545e+09,-1.74573e+09,-671.562,-0.0159018,-3.73488e-19,-0,0.0159018,35227.2,-60000,0,69577,671.562
step02_gravity_refstate-mantle.xmf,578,6.95155e-07,5.99763e-06,0,2.70551e-06,-1.2938e+09,-1.29309e+09,-1.29389e+09,361591,0.0336672,0.135521,0,0.13964,-10844.1,-46046,-0,47305.7,361591
step02_gravity_refstate-mantle.xmf,579,-1.21712e-05,3.10761e-05,0,3.73012e-05,-1.27681e+09,-1.27103e+09,-1.27518e+09,4.98531e+06,0.0134816,0.479112,0,0.479302,-1000,-45499.4,-0,45510.4,4.98531e+06
step02_gravity_refstate-mantle.xmf,580,3.3212e-08,9.95686e-06,0,9.85476e-06,-1.2718e+09,-1.27047e+09,-1.2718e+09,1.31709e+06,0.0293852,0.258652,0,0.260315,-5412.75,-45372,-0,45693.8,1.31709e+06
step02_gravity_refstate-mantle.xmf,581,7.54317e-07,7.93898e-06,0,6.01926e-06,-1.29596e+09,-1.295e+09,-1.29606e+09,804474,0.0366696,0.192117,0,0.195586,-7663.5,-46118,-0,46750.4,804474
step02_gravity_refstate-mantle.xmf,582,-7.62367e-07,1.24496e-05,0,1.28556e-05,-1.27431e+09,-1.27255e+09,-1.27421e+09,1.71814e+06,0.0300085,0.295186,0,0.296708,-4342.51,-45450.8,-0,45657.8,1.71814e+06
step02_gravity_refstate-mantle.xmf,583,-1.49425e-06,1.50721e-05,0,1.46312e-05,-1.28552e+09,-1.28331e+09,-1.28532e+09,1.95546e+06,0.0335459,0.312944,0,0.314737,-3773.41,-45798.9,-0,45954.1,1.95546e+06
step02_gravity_refstate-mantle.xmf,584,-2.60199e-06,1.82676e-05,0,1.64452e-05,-1.29574e+09,-1.29295e+09,-1.29539e+09,2.19789e+06,0.0359306,0.330519,0,0.332467,-3234.63,-46115.2,-0,46228.5,2.19789e+06
step02_gravity_refstate-mantle.xmf,585,1.26136e-06,4.77591e-06,0,5.97331e-07,-1.34751e+09,-1.34704e+09,-1.34768e+09,79833.3,0.0412705,0.0757044,0,0.0862231,-15730.7,-47705.8,-0,50232.5,79833.3
step02_gravity_refstate-mantle.xmf,586,2.23936e-06,3.50248e-06,0,-3.24589e-07,-1.44288e+09,-1.44271e+09,-1.44318e+09,-43381.3,0.0442979,0.035231,0,0.0565997,-21758.1,-50655.1,-0,55130.3,43381.3
step02_gravity_refstate-mantle.xmf,587,2.03594e-06,3.76633e-06,0,-2.21699e-07,-1.42086e+09,-1.42063e+09,-1.42113e+09,-29630.1,0.0446353,0.0417763,0,0.0611356,-20438.3,-49974.2,-0,53992.1,29630.1
step02_gravity_refstate-mantle.xmf,588,1.82673e-06,4.02696e-06,0,-7.9844e-08,-1.39954e+09,-1.39925e+09,-1.39979e+09,-10671.1,0.0443222,0.0491848,0,0.0662088,-19178.9,-49315,-0,52913.1,10671.1
step02_gravity_refstate-mantle.xmf,589,1.62344e-06,4.28158e-06,0,1.0271e-07,-1.37999e+09,-1.37963e+09,-1.38021e+09,13727.2,0.0435515,0.0573347,0,0.072,-17978.9,-48710.2,-0,51922.3,13727.2
step02_gravity_refstate-mantle.xmf,590,1.4349e-06,4.52709e-06,0,3.24124e-07,-1.3627e+09,-1.36228e+09,-1.36289e+09,43319.1,0.0424855,0.0660884,0,0.0785665,-16844.1,-48175.4,-0,51035.2,43319.1
step02_gravity_refstate-mantle.xmf,591,2.6734e-06,3.27368e-06,0,-3.08375e-07,-1.51212e+09,-1.51204e+09,-1.51247e+09,-41214.4,0.0470925,0.0247826,0,0.0532154,-23160.6,-52796.1,-0,57652.7,41214.4
step02_gravity_refstate-mantle.xmf,592,3.14809e-06,2.77996e-06,0,-2.33253e-07,-1.61303e+09,-1.61308e+09,-1.61345e+09,-31174.3,0.0437084,0.0116494,0,0.0452342,-26223.5,-55915.1,-0,61759,31174.3
step02_gravity_refstate-mantle.xmf,593,3.32932e-06,2.66003e-06,0,-8.59377e-08,-1.6994e+09,-1.69949e+09,-1.69985e+09,-11485.6,0.041407,0.00381572,0,0.0415824,-27556.9,-58584,-0,64741.6,11485.6
step02_gravity_refstate-mantle.xmf,594,-3.69287e-06,1.64489e-05,0,-2.1467e-05,-1.25416e+09,-1.25147e+09,-1.25367e+09,-2.86907e+06,-0.0181979,0.381946,-0,0.382379,2662.46,-44818.9,0,44897.9,2.86907e+06
step02_gravity_refstate-mantle.xmf,595,-5.47315e-06,2.01986e-05,0,-2.41524e-05,-1.26434e+09,-1.26091e+09,-1.26361e+09,-3.22796e+06,-0.0202486,0.400918,-0,0.401429,2240.31,-45131.2,0,45186.8,3.22796e+06
step02_gravity_refstate-mantle.xmf,596,-1.219e-05,3.10791e-05,0,-3.73152e-05,-1.27682e+09,-1.27103e+09,-1.27519e+09,-4.98718e+06,-0.0134798,0.479112,-0,0.479301,1000,-45499.4,0,45510.4,4.98718e+06
step02_gravity_refstate-mantle.xmf,597,-2.52248e-06,1.36455e-05,0,-1.91938e-05,-1.24421e+09,-1.24205e+09,-1.24388e+09,-2.56525e+06,-0.0152184,0.365422,-0,0.365739,3050.42,-44512.3,0,44616.7,2.56525e+06
step02_gravity_refstate-mantle.xmf,598,-1.03999e-06,9.62707e-06,0,-1.31428e-05,-1.23203e+09,-1.2306e+09,-1.23189e+09,-1.75653e+06,-0.011728,0.311988,-0,0.312209,4286.87,-44135.5,0,44343.2,1.75653e+06
step02_gravity_refstate-mantle.xmf,599,-1.68172e-06,1.2015e-05,0,-1.59587e-05,-1.24362e+09,-1.24179e+09,-1.2434e+09,-2.13287e+06,-0.0161769,0.337123,-0,0.337511,3627.08,-44495.5,0,44643.1,2.13287e+06
step02_gravity_refstate-mantle.xmf,600,-5.61896e-07,8.00453e-06,0,-9.18278e-06,-1.23056e+09,-1.22942e+09,-1.23049e+09,-1.22728e+06,-0.0119932,0.266316,-0,0.266586,5530.69,-44089.4,0,44434.9,1.22728e+06
step02_gravity_refstate-mantle.xmf,601,-3.19015e-07,4.6203e-06,0,-3.71395e-07,-1.23198e+09,-1.23132e+09,-1.23193e+09,-49636.9,-0.0168627,0.0938508,-0,0.0953536,15540.1,-44125.9,0,46782.4,49636.9
step02_gravity_refstate-mantle.xmf,602,-8.88243e-07,5.04851e-06,0,-1.08725e-06,-1.21151e+09,-1.21072e+09,-1.21139e+09,-145311,-0.0102285,0.120078,-0,0.120513,13137.2,-43491,0,45431.9,145311
step02_gravity_refstate-mantle.xmf,603,-8.69804e-07,5.67546e-06,0,-2.82392e-06,-1.21589e+09,-1.21502e+09,-1.21577e+09,-377418,-0.00869803,0.165025,-0,0.165254,9869.7,-43628.1,0,44730.6,377418
step02_gravity_refstate-mantle.xmf,604,-1.63044e-07,6.76835e-06,0,-5.37703e-06,-1.2405e+09,-1.23957e+09,-1.24048e+09,-718640,-0.0169125,0.206163,-0,0.206855,7601.66,-44395.8,0,45041.9,718640
step02_gravity_refstate-mantle.xmf,605,1.80947e-06,2.90511e-06,0,5.79551e-07,-1.364e+09,-1.36385e+09,-1.36424e+09,77456.9,-0.0281142,0.0337372,-0,0.0439159,25816.3,-48213.9,0,54690.6,77456.9
step02_gravity_refstate-mantle.xmf,606,1.54388e-06,3.12588e-06,0,5.72247e-07,-1.33951e+09,-1.3393e+09,-1.33971e+09,76480.8,-0.0282147,0.0392215,-0,0.0483156,24292.1,-47456.3,0,53312.3,76480.8
step02_gravity_refstate-mantle.xmf,607,4.34629e-08,4.416e-06,0,-1.3422e-07,-1.24929e+09,-1.2487e+09,-1.24929e+09,-17938.6,-0.0208163,0.082979,-0,0.0855502,16648.2,-44662.7,0,47664.6,17938.6
step02_gravity_refstate-mantle.xmf,608,2.75326e-07,4.03255e-06,0,2.13393e-07,-1.25175e+09,-1.25124e+09,-1.25178e+09,28520,-0.0209498,0.0687252,-0,0.0718474,18915.3,-44739.1,0,48573.4,28520
step02_gravity_refstate-mantle.xmf,609,1.28939e-06,3.34361e-06,0,5.3429e-07,-1.31948e+09,-1.3192e+09,-1.31965e+09,71407.8,-0.0278879,0.0449703,-0,0.0529157,22882.1,-46836.4,0,52127.1,71407.8
step02_gravity_refstate-mantle.xmf,610,1.0071e-06,3.56757e-06,0,4.64491e-07,-1.29938e+09,-1.29904e+09,-1.29952e+09,62079.2,-0.0267982,0.0515795,-0,0.0581256,21522.7,-46214.4,0,50980.3,62079.2
step02_gravity_refstate-mantle.xmf,611,6.56604e-07,3.80201e-06,0,3.58077e-07,-1.2762e+09,-1.27578e+09,-1.27629e+09,47856.9,-0.0244603,0.0595998,-0,0.0644239,20183.1,-45496.6,0,49772.5,47856.9
step02_gravity_refstate-mantle.xmf,612,2.81636e-06,2.26705e-06,0,3.60114e-07,-1.51101e+09,-1.51108e+09,-1.51139e+09,48129.2,-0.0258549,0.0164657,-0,0.0306528,30815,-52760.2,0,61100,48129.2
step02_gravity_refstate-mantle.xmf,613,7.54217e-07,6.78983e-06,0,4.15311e-06,-1.29445e+09,-1.29364e+09,-1.29455e+09,555063,0.0350297,0.161704,0,0.165455,-9207.53,-46068.5,-0,46979.7,555063
step02_gravity_refstate-mantle.xmf,614,8.85841e-07,6.55805e-06,0,3.52635e-06,-1.30859e+09,-1.30783e+09,-1.30871e+09,471296,0.0383692,0.144806,0,0.149803,-10037.9,-46505.6,-0,47576.6,471296
step02_gravity_refstate-mantle.xmf,615,-1.08675e-05,3.0235e-05,0,3.06378e-05,-1.28341e+09,-1.27791e+09,-1.28195e+09,4.09474e+06,0.0201341,0.44092,0,0.441379,-1412.48,-45709.6,-0,45731.4,4.09474e+06
step02_gravity_refstate-mantle.xmf,616,-8.63928e-06,2.79343e-05,0,2.53264e-05,-1.28954e+09,-1.28465e+09,-1.28839e+09,3.38487e+06,0.0263003,0.407351,0,0.408199,-1832.17,-45908.2,-0,45944.7,3.38487e+06
step02_gravity_refstate-mantle.xmf,617,-6.37001e-06,2.51551e-05,0,2.12852e-05,-1.29681e+09,-1.29259e+09,-1.29596e+09,2.84477e+06,0.0319827,0.376943,0,0.378297,-2257.05,-46140.7,-0,46195.9,2.84477e+06
step02_gravity_refstate-mantle.xmf,618,-1.52088e-07,1.14424e-05,0,1.11405e-05,-1.28329e+09,-1.28174e+09,-1.28327e+09,1.48892e+06,0.0336357,0.270485,0,0.272568,-4937.53,-45729.8,-0,45995.6,1.48892e+06
step02_gravity_refstate-mantle.xmf,619,2.77819e-07,1.04637e-05,0,9.67449e-06,-1.2904e+09,-1.28904e+09,-1.29044e+09,1.293e+06,0.0360745,0.247707,0,0.25032,-5574.9,-45949.6,-0,46286.5,1.293e+06
step02_gravity_refstate-mantle.xmf,620,5.80733e-07,9.59794e-06,0,8.32529e-06,-1.29812e+09,-1.29692e+09,-1.2982e+09,1.11268e+06,0.0382947,0.225091,0,0.228325,-6285.77,-46188,-0,46613.7,1.11268e+06
step02_gravity_refstate-mantle.xmf,621,7.67118e-07,9.08544e-06,0,7.30083e-06,-1.31039e+09,-1.30928e+09,-1.31049e+09,975756,0.0415284,0.204135,0,0.208316,-6974.59,-46566.9,-0,47086.3,975756
step02_gravity_refstate-mantle.xmf,622,8.89531e-07,7.63094e-06,0,5.22822e-06,-1.31005e+09,-1.30915e+09,-1.31017e+09,698752,0.0402186,0.172978,0,0.177592,-8419.91,-46553.5,-0,47308.8,698752
step02_gravity_refstate-mantle.xmf,623,-4.20225e-06,2.21278e-05,0,1.82752e-05,-1.3052e+09,-1.30168e+09,-1.30464e+09,2.44248e+06,0.0371459,0.347247,0,0.349228,-2731.54,-46406.6,-0,46487,2.44248e+06
step02_gravity_refstate-mantle.xmf,624,9.98362e-07,5.88959e-06,0,2.28677e-06,-1.32098e+09,-1.32032e+09,-1.32111e+09,305627,0.0399041,0.117534,0,0.124123,-11815.6,-46887.2,-0,48353.1,305627
step02_gravity_refstate-mantle.xmf,625,1.40073e-06,5.21679e-06,0,1.064e-06,-1.36918e+09,-1.36867e+09,-1.36936e+09,142204,0.0466236,0.0800699,0,0.092655,-14718.8,-48377.1,-0,50566.6,142204
step02_gravity_refstate-mantle.xmf,626,1.25171e-06,5.45972e-06,0,1.43693e-06,-1.3524e+09,-1.35184e+09,-1.35257e+09,192046,0.0447522,0.0916883,0,0.102027,-13698.7,-47858.6,-0,49780.6,192046
step02_gravity_refstate-mantle.xmf,627,1.12063e-06,5.69165e-06,0,1.85488e-06,-1.33675e+09,-1.33614e+09,-1.3369e+09,247904,0.0426047,0.104225,0,0.112596,-12721.6,-47374.8,-0,49053.1,247904
step02_gravity_refstate-mantle.xmf,628,2.49693e-06,3.54858e-06,0,-2.46729e-07,-1.48915e+09,-1.48901e+09,-1.48948e+09,-32975.4,0.0486794,0.0300545,0,0.0572097,-21809,-52086.1,-0,56467.7,32975.4
step02_gravity_refstate-mantle.xmf,629,3.01975e-06,3.02873e-06,0,-2.51205e-07,-1.58545e+09,-1.58545e+09,-1.58585e+09,-33573.5,0.047233,0.0154396,0,0.0496925,-24702.6,-55063,-0,60350.3,33573.5
step02_gravity_refstate-mantle.xmf,630,2.87059e-06,3.31056e-06,0,-2.32278e-07,-1.56077e+09,-1.56071e+09,-1.56115e+09,-31044,0.0501628,0.0196807,0,0.0538854,-23250.8,-54300.3,-0,59068.8,31044
step02_gravity_refstate-mantle.xmf,631,3.25996e-06,2.85059e-06,0,-1.33099e-07,-1.66771e+09,-1.66776e+09,-1.66814e+09,-17788.7,0.04564,0.00695276,0,0.0461665,-26113.8,-57605.1,-0,63247.8,17788.7
step02_gravity_refstate-mantle.xmf,632,3.33718e-06,2.81875e-06,0,1.2916e-09,-1.74522e+09,-1.74529e+09,-1.74567e+09,172.623,0.0438455,-4.58411e-20,0,0.0438455,-26905.6,-60000,-0,65756.4,172.623
step02_gravity_refstate-mantle.xmf,633,-7.90026e-06,2.49171e-05,0,-2.70907e-05,-1.27471e+09,-1.27032e+09,-1.27365e+09,-3.62067e+06,-0.0211561,0.420281,-0,0.420813,1820.31,-45447.3,0,45483.7,3.62067e+06
step02_gravity_refstate-mantle.xmf,634,-1.09959e-05,3.05076e-05,0,-3.05975e-05,-1.28425e+09,-1.27871e+09,-1.28278e+09,-4.08936e+06,-0.0203388,0.440472,-0,0.440942,1407.68,-45735.6,0,45757.3,4.08936e+06
step02_gravity_refstate-mantle.xmf,635,-5.95737e-07,9.33765e-06,0,-1.09772e-05,-1.24234e+09,-1.24101e+09,-1.24226e+09,-1.4671e+06,-0.0169733,0.284557,-0,0.285062,4914.46,-44456.3,0,44727.1,1.4671e+06
step02_gravity_refstate-mantle.xmf,636,-1.8966e-07,7.82533e-06,0,-7.77519e-06,-1.24265e+09,-1.24158e+09,-1.24263e+09,-1.03915e+06,-0.0175733,0.242688,-0,0.243323,6193.83,-44464.8,0,44894.1,1.03915e+06
step02_gravity_refstate-mantle.xmf,637,-9.13427e-07,5.31579e-06,0,-1.73221e-06,-1.2127e+09,-1.21187e+09,-1.21258e+09,-231509,-0.00918509,0.138956,-0,0.139259,11600.2,-43528.4,0,45047.6,231509
step02_gravity_refstate-mantle.xmf,638,-5.60272e-07,5.17951e-06,0,-1.36234e-06,-1.22796e+09,-1.22719e+09,-1.22788e+09,-182076,-0.0144585,0.125222,-0,0.126054,12472.8,-44001.6,0,45735.3,182076
step02_gravity_refstate-mantle.xmf,639,-2.63336e-07,5.01022e-06,0,-1.00365e-06,-1.24096e+09,-1.24026e+09,-1.24093e+09,-134137,-0.018476,0.112191,-0,0.113702,13438.3,-44404.9,0,46393.8,134137
step02_gravity_refstate-mantle.xmf,640,1.00559e-08,4.80775e-06,0,-6.60665e-07,-1.25398e+09,-1.25334e+09,-1.25398e+09,-88297.8,-0.0219276,0.0994219,-0,0.101811,14528.4,-44808.3,0,47104.8,88297.8
step02_gravity_refstate-mantle.xmf,641,-4.91391e-07,5.54835e-06,0,-2.27281e-06,-1.23059e+09,-1.22978e+09,-1.23052e+09,-303761,-0.0143606,0.148045,-0,0.148739,10760.4,-44084.3,0,45378.6,303761
step02_gravity_refstate-mantle.xmf,642,1.34074e-07,7.58888e-06,0,-6.65327e-06,-1.25551e+09,-1.25451e+09,-1.25553e+09,-889210,-0.0228368,0.220303,-0,0.221484,6894.53,-44863.5,0,45390.2,889210
step02_gravity_refstate-mantle.xmf,643,-3.50755e-07,6.03291e-06,0,-3.58094e-06,-1.23511e+09,-1.23425e+09,-1.23506e+09,-478592,-0.015233,0.174899,-0,0.175561,9130.37,-44226.1,0,45158.7,478592
step02_gravity_refstate-mantle.xmf,644,8.08284e-08,6.56051e-06,0,-4.52637e-06,-1.25208e+09,-1.25122e+09,-1.25209e+09,-604949,-0.0213551,0.186572,-0,0.18779,8376.74,-44754.6,0,45531.8,604949
step02_gravity_refstate-mantle.xmf,645,4.30641e-07,4.20612e-06,0,5.70764e-08,-1.26956e+09,-1.26905e+09,-1.26962e+09,7628.26,-0.0246031,0.0729269,-0,0.0769652,17771.7,-45290.9,0,48652.8,7628.26
step02_gravity_refstate-mantle.xmf,646,2.6494e-06,2.43182e-06,0,4.39099e-07,-1.47989e+09,-1.47992e+09,-1.48025e+09,58685.5,-0.0291216,0.0199394,-0,0.0352937,29089.6,-51798.3,0,59407.7,58685.5
step02_gravity_refstate-mantle.xmf,647,2.45954e-06,2.62246e-06,0,4.98642e-07,-1.45078e+09,-1.45076e+09,-1.45111e+09,66643.5,-0.0316043,0.0238945,-0,0.0396204,27429.6,-50898.4,0,57818.9,66643.5
step02_gravity_refstate-mantle.xmf,648,2.22501e-06,2.83086e-06,0,5.3922e-07,-1.42004e+09,-1.41996e+09,-1.42033e+09,72066.8,-0.0329228,0.0286548,-0,0.0436464,25879.4,-49947.6,0,56254,72066.8
step02_gravity_refstate-mantle.xmf,649,3.08472e-06,2.22832e-06,0,2.6733e-07,-1.57735e+09,-1.57746e+09,-1.57776e+09,35728.7,-0.0277256,0.0117831,-0,0.0301255,30960.3,-54811.1,0,62950.7,35728.7
step02_gravity_refstate-mantle.xmf,650,3.33087e-06,2.20617e-06,0,9.41286e-08,-1.68764e+09,-1.68779e+09,-1.68809e+09,12580.3,-0.0268489,0.00400073,-0,0.0271453,31883.8,-58219.7,0,66378.5,12580.3
step02_gravity_refstate-mantle.xmf,651,3.35885e-06,2.21105e-06,0,-4.86057e-09,-1.74527e+09,-1.74542e+09,-1.74572e+09,-649.615,-0.0233568,-3.85513e-19,-0,0.0233568,33002,-60000,0,68477.2,649.615
step02_gravity_refstate-mantle.xmf,652,9.94292e-07,6.33293e-06,0,2.97168e-06,-1.32217e+09,-1.32146e+09,-1.3223e+09,397165,0.0411107,0.129604,0,0.135968,-10879.2,-46925.2,-0,48169.8,397165
step02_gravity_refstate-mantle.xmf,653,-1.47379e-05,3.70181e-05,0,3.52324e-05,-1.29305e+09,-1.28613e+09,-1.29108e+09,4.70881e+06,0.0175732,0.462121,0,0.462455,-1000,-45998.9,-0,46009.8,4.70881e+06
step02_gravity_refstate-mantle.xmf,654,8.70851e-07,8.65725e-06,0,6.41086e-06,-1.32256e+09,-1.32152e+09,-1.32267e+09,856811,0.0443068,0.185393,0,0.190614,-7657.99,-46942.3,-0,47562.8,856811
step02_gravity_refstate-mantle.xmf,655,-6.2606e-07,1.35738e-05,0,1.27278e-05,-1.29548e+09,-1.29358e+09,-1.29539e+09,1.70107e+06,0.0376151,0.285239,0,0.287709,-4379.93,-46108.4,-0,46316,1.70107e+06
step02_gravity_refstate-mantle.xmf,656,-1.41639e-06,1.62922e-05,0,1.43441e-05,-1.30646e+09,-1.30409e+09,-1.30627e+09,1.91709e+06,0.0404139,0.301531,0,0.304228,-3804.06,-46449.2,-0,46604.7,1.91709e+06
step02_gravity_refstate-mantle.xmf,657,-2.57836e-06,1.95364e-05,0,1.60664e-05,-1.31464e+09,-1.31168e+09,-1.31429e+09,2.14727e+06,0.0414773,0.319274,0,0.321957,-3237.85,-46702.5,-0,46814.6,2.14727e+06
step02_gravity_refstate-mantle.xmf,658,1.56419e-06,4.95957e-06,0,7.32545e-07,-1.38686e+09,-1.3864e+09,-1.38707e+09,97904.7,0.0481272,0.0693912,0,0.0844474,-15785.7,-48923.7,-0,51407.3,97904.7
step02_gravity_refstate-mantle.xmf,659,2.30877e-06,3.83662e-06,0,-1.4061e-07,-1.46682e+09,-1.46662e+09,-1.46713e+09,-18792.5,0.0496656,0.0361803,0,0.0614466,-20496.8,-51396,-0,55332.3,18792.5
step02_gravity_refstate-mantle.xmf,660,2.11595e-06,4.131e-06,0,1.34595e-08,-1.44546e+09,-1.44519e+09,-1.44574e+09,1798.87,0.0500896,0.0431943,0,0.0661416,-19227.4,-50735.5,-0,54256.6,1798.87
step02_gravity_refstate-mantle.xmf,661,1.92263e-06,4.41248e-06,0,2.06095e-07,-1.42452e+09,-1.42418e+09,-1.42477e+09,27544.6,0.0498417,0.0510579,0,0.0713519,-18037.1,-50088,-0,53236.6,27544.6
step02_gravity_refstate-mantle.xmf,662,1.73665e-06,4.68756e-06,0,4.44941e-07,-1.40474e+09,-1.40434e+09,-1.40497e+09,59466.4,0.0491277,0.0598143,0,0.0774034,-16891.2,-49476.5,-0,52280.4,59466.4
step02_gravity_refstate-mantle.xmf,663,2.70022e-06,3.61783e-06,0,-1.7221e-07,-1.53705e+09,-1.53692e+09,-1.53741e+09,-23015.9,0.0524411,0.0246311,0,0.0579375,-21861.7,-53567.2,-0,57856.6,23015.9
step02_gravity_refstate-mantle.xmf,664,3.15189e-06,3.09494e-06,0,-1.62685e-07,-1.63946e+09,-1.63946e+09,-1.63988e+09,-21742.9,0.0494871,0.0103527,0,0.0505584,-24676.6,-56732.3,-0,61866.7,21742.9
step02_gravity_refstate-mantle.xmf,665,3.30205e-06,2.9229e-06,0,-5.95315e-08,-1.71361e+09,-1.71366e+09,-1.71405e+09,-7956.38,0.0467311,0.00288827,0,0.0468202,-25994.4,-59023.4,-0,64493.9,7956.38
step02_gravity_refstate-mantle.xmf,666,-2.65284e-06,1.51363e-05,0,-1.81197e-05,-1.25896e+09,-1.25659e+09,-1.25861e+09,-2.4217e+06,-0.0217903,0.353484,-0,0.354155,3154.91,-44970.9,0,45081.5,2.4217e+06
step02_gravity_refstate-mantle.xmf,667,-4.11903e-06,1.86612e-05,0,-2.03753e-05,-1.27032e+09,-1.26727e+09,-1.26977e+09,-2.72316e+06,-0.0247728,0.371435,-0,0.37226,2693.52,-45320.8,0,45400.8,2.72316e+06
step02_gravity_refstate-mantle.xmf,668,-6.093e-06,2.29567e-05,0,-2.26075e-05,-1.28109e+09,-1.27721e+09,-1.28028e+09,-3.0215e+06,-0.0265395,0.388744,-0,0.389649,2256.42,-45651.5,0,45707.2,3.0215e+06
step02_gravity_refstate-mantle.xmf,669,-1.47418e-05,3.69378e-05,0,-3.5292e-05,-1.29305e+09,-1.28615e+09,-1.29108e+09,-4.71678e+06,-0.0175763,0.462124,-0,0.462458,1000,-45998.9,0,46009.8,4.71678e+06
step02_gravity_refstate-mantle.xmf,670,-9.18089e-07,1.11751e-05,0,-1.29628e-05,-1.25381e+09,-1.25219e+09,-1.25368e+09,-1.73247e+06,-0.0215758,0.303696,-0,0.304461,4317.51,-44813.1,0,45020.6,1.73247e+06
step02_gravity_refstate-mantle.xmf,671,-1.44435e-07,8.97969e-06,0,-9.34284e-06,-1.25411e+09,-1.25289e+09,-1.25409e+09,-1.24867e+06,-0.022303,0.259554,-0,0.260511,5547.08,-44822,0,45163.9,1.24867e+06
step02_gravity_refstate-mantle.xmf,672,3.14058e-07,4.60863e-06,0,-3.85755e-07,-1.27045e+09,-1.26988e+09,-1.27049e+09,-51556.1,-0.0255644,0.0877597,-0,0.0914074,15613,-45318.7,0,47932.7,51556.1
step02_gravity_refstate-mantle.xmf,673,-8.87228e-08,5.88034e-06,0,-2.97001e-06,-1.24788e+09,-1.24708e+09,-1.24787e+09,-396942,-0.0198793,0.157775,-0,0.159023,9958.26,-44622,0,45719.6,396942
step02_gravity_refstate-mantle.xmf,674,3.94612e-07,7.29639e-06,0,-5.64774e-06,-1.26786e+09,-1.26694e+09,-1.26791e+09,-754820,-0.0272589,0.19915,-0,0.201007,7646.15,-45246.1,0,45887.6,754820
step02_gravity_refstate-mantle.xmf,675,1.98702e-06,3.05197e-06,0,5.41906e-07,-1.39311e+09,-1.39297e+09,-1.39338e+09,72425.8,-0.0336116,0.0338729,-0,0.0477191,24392,-49114.9,0,54838.4,72425.8
step02_gravity_refstate-mantle.xmf,676,1.75236e-06,3.27965e-06,0,5.11381e-07,-1.37033e+09,-1.37012e+09,-1.37056e+09,68346,-0.0338534,0.0395309,-0,0.0520456,22962.9,-48410.1,0,53580.1,68346
step02_gravity_refstate-mantle.xmf,677,5.97654e-07,4.41334e-06,0,-1.65652e-07,-1.2874e+09,-1.28689e+09,-1.28748e+09,-22139.3,-0.0286482,0.0776269,-0,0.0827445,16668.2,-45843.6,0,48779.7,22139.3
step02_gravity_refstate-mantle.xmf,678,8.80029e-07,4.00846e-06,0,1.97408e-07,-1.30096e+09,-1.30054e+09,-1.30108e+09,26383.5,-0.0295844,0.0631231,-0,0.069712,18814.2,-46263.4,0,49942.7,26383.5
step02_gravity_refstate-mantle.xmf,679,1.50051e-06,3.50817e-06,0,4.50417e-07,-1.34829e+09,-1.34802e+09,-1.34849e+09,60198.2,-0.0333425,0.0459072,-0,0.0567379,21613.5,-47728.2,0,52394,60198.2
step02_gravity_refstate-mantle.xmf,680,1.21345e-06,3.74675e-06,0,3.5222e-07,-1.32535e+09,-1.32501e+09,-1.32551e+09,47074.2,-0.0319629,0.0535117,-0,0.0623309,20263.9,-47018.2,0,51199,47074.2
step02_gravity_refstate-mantle.xmf,681,2.96274e-06,2.38154e-06,0,3.4448e-07,-1.5456e+09,-1.54568e+09,-1.546e+09,46039.8,-0.031823,0.0149398,-0,0.0351554,29235.6,-53830.1,0,61256.9,46039.8
step02_gravity_refstate-mantle.xmf,682,3.2467e-06,2.23165e-06,0,1.84084e-07,-1.63456e+09,-1.63469e+09,-1.63499e+09,24602.8,-0.0290697,0.00782499,-0,0.0301044,30978.1,-56579.5,0,64504.9,24602.8
step02_gravity_refstate-mantle.xmf,683,1.00765e-06,7.3337e-06,0,4.51016e-06,-1.32461e+09,-1.32377e+09,-1.32475e+09,602782,0.0433632,0.154701,0,0.160664,-9230.31,-47003.3,-0,47901,602782
step02_gravity_refstate-mantle.xmf,684,1.08476e-06,7.03034e-06,0,3.81777e-06,-1.33839e+09,-1.3376e+09,-1.33854e+09,510244,0.0458641,0.137945,0,0.14537,-10075.9,-47428.8,-0,48487.2,510244
step02_gravity_refstate-mantle.xmf,685,-1.21722e-05,3.4588e-05,0,2.79669e-05,-1.29959e+09,-1.29334e+09,-1.29797e+09,3.73777e+06,0.0251334,0.42434,0,0.425084,-1416.75,-46212.1,-0,46233.8,3.73777e+06
step02_gravity_refstate-mantle.xmf,686,-8.91523e-06,3.0688e-05,0,2.29323e-05,-1.30657e+09,-1.30127e+09,-1.30538e+09,3.0649e+06,0.031865,0.391063,0,0.392359,-1844.3,-46439.3,-0,46475.9,3.0649e+06
step02_gravity_refstate-mantle.xmf,687,-6.06348e-06,2.66275e-05,0,1.96895e-05,-1.31434e+09,-1.30997e+09,-1.31353e+09,2.6315e+06,0.0373688,0.36148,0,0.363406,-2282.43,-46688,-0,46743.8,2.6315e+06
step02_gravity_refstate-mantle.xmf,688,-3.20664e-08,1.23134e-05,0,1.11382e-05,-1.30467e+09,-1.30302e+09,-1.30467e+09,1.48862e+06,0.0407048,0.260254,0,0.263418,-5008.96,-46393.1,-0,46662.7,1.48862e+06
step02_gravity_refstate-mantle.xmf,689,3.42447e-07,1.12872e-05,0,9.78155e-06,-1.31373e+09,-1.31226e+09,-1.31377e+09,1.3073e+06,0.043219,0.237331,0,0.241234,-5660.48,-46672.7,-0,47014.7,1.3073e+06
step02_gravity_refstate-mantle.xmf,690,5.60881e-07,1.05269e-05,0,8.62435e-06,-1.32463e+09,-1.3233e+09,-1.3247e+09,1.15264e+06,0.0458104,0.215771,0,0.22058,-6326.34,-47009,-0,47432.8,1.15264e+06
step02_gravity_refstate-mantle.xmf,691,7.00915e-07,9.88338e-06,0,7.6274e-06,-1.33423e+09,-1.333e+09,-1.33432e+09,1.0194e+06,0.0477544,0.197044,0,0.202748,-6978.55,-47304.7,-0,47816.7,1.0194e+06
step02_gravity_refstate-mantle.xmf,692,9.62717e-07,8.48003e-06,0,5.75889e-06,-1.3416e+09,-1.34059e+09,-1.34172e+09,769676,0.0483575,0.166446,0,0.173329,-8350.39,-47530.6,-0,48258.5,769676
step02_gravity_refstate-mantle.xmf,693,-4.05157e-06,2.31676e-05,0,1.75964e-05,-1.32251e+09,-1.31887e+09,-1.32197e+09,2.35175e+06,0.041681,0.333945,0,0.336536,-2756.64,-46945.1,-0,47026,2.35175e+06
step02_gravity_refstate-mantle.xmf,694,1.15658e-06,6.79083e-06,0,3.26769e-06,-1.35241e+09,-1.35166e+09,-1.35256e+09,436727,0.0481428,0.123675,0,0.132715,-10864,-47861.6,-0,49079.1,436727
step02_gravity_refstate-mantle.xmf,695,1.59256e-06,5.50062e-06,0,1.20999e-06,-1.40763e+09,-1.4071e+09,-1.40784e+09,161715,0.0530942,0.073334,0,0.0905366,-14765.2,-49566.8,-0,51719.3,161715
step02_gravity_refstate-mantle.xmf,696,1.45106e-06,5.78196e-06,0,1.61476e-06,-1.38959e+09,-1.38902e+09,-1.38979e+09,215813,0.0516457,0.0847842,0,0.0992756,-13746.5,-49009.6,-0,50901,215813
step02_gravity_refstate-mantle.xmf,697,1.23968e-06,6.35994e-06,0,2.59003e-06,-1.35996e+09,-1.35927e+09,-1.36012e+09,346157,0.0485874,0.109957,0,0.120214,-11830.8,-48094.2,-0,49528,346157
step02_gravity_refstate-mantle.xmf,698,1.33241e-06,6.06304e-06,0,2.07309e-06,-1.37342e+09,-1.37279e+09,-1.3736e+09,277068,0.0500581,0.0970809,0,0.109227,-12766.4,-48509.8,-0,50161.6,277068
step02_gravity_refstate-mantle.xmf,699,2.51357e-06,3.93299e-06,0,-6.89978e-08,-1.51317e+09,-1.51298e+09,-1.5135e+09,-9221.56,0.0539359,0.0304479,0,0.0619367,-20554.5,-52829.1,-0,56686.9,9221.56
step02_gravity_refstate-mantle.xmf,700,3.02029e-06,3.37975e-06,0,-1.53276e-07,-1.61243e+09,-1.61238e+09,-1.61284e+09,-20485.4,0.0528049,0.0143149,0,0.0547108,-23267,-55897.4,-0,60546.4,20485.4
step02_gravity_refstate-mantle.xmf,701,2.8489e-06,3.73255e-06,0,-9.95683e-08,-1.58888e+09,-1.58876e+09,-1.58926e+09,-13307.3,0.0558454,0.018798,0,0.0589243,-21831.6,-55169.5,-0,59332,13307.3
step02_gravity_refstate-mantle.xmf,702,3.2204e-06,3.21676e-06,0,-7.39708e-08,-1.69618e+09,-1.69618e+09,-1.69661e+09,-9886.2,0.0516635,0.00495009,0,0.0519001,-24416.7,-58485.2,-0,63377.4,9886.2
step02_gravity_refstate-mantle.xmf,703,3.27057e-06,3.16231e-06,0,1.53476e-09,-1.74521e+09,-1.74522e+09,-1.74565e+09,205.12,0.0499803,-7.20819e-20,0,0.0499803,-25049.3,-60000,-0,65019,205.12
step02_gravity_refstate-mantle.xmf,704,-8.79623e-06,2.83704e-05,0,-2.50566e-05,-1.29123e+09,-1.28626e+09,-1.29005e+09,-3.34881e+06,-0.0267553,0.406613,-0,0.407493,1820.29,-45960.3,0,45996.4,3.34881e+06
step02_gravity_refstate-mantle.xmf,705,-1.22939e-05,3.48831e-05,0,-2.79171e-05,-1.30039e+09,-1.29409e+09,-1.29875e+09,-3.73112e+06,-0.0252797,0.423985,-0,0.424738,1409.23,-46236.7,0,46258.1,3.73112e+06
step02_gravity_refstate-mantle.xmf,706,-1.62148e-06,1.37023e-05,0,-1.51346e-05,-1.26544e+09,-1.26339e+09,-1.26523e+09,-2.02274e+06,-0.0257328,0.323733,-0,0.324754,3730.77,-45174.3,0,45328.1,2.02274e+06
step02_gravity_refstate-mantle.xmf,707,-3.58261e-07,1.04882e-05,0,-1.10655e-05,-1.2633e+09,-1.26185e+09,-1.26325e+09,-1.47891e+06,-0.0259423,0.278227,-0,0.279433,4910.82,-45108.2,0,45374.7,1.47891e+06
step02_gravity_refstate-mantle.xmf,708,2.80626e-07,8.82995e-06,0,-8.2666e-06,-1.27017e+09,-1.26903e+09,-1.27021e+09,-1.10483e+06,-0.0286575,0.237487,-0,0.23921,6127.25,-45320.7,0,45733,1.10483e+06
step02_gravity_refstate-mantle.xmf,709,-1.71637e-07,5.40431e-06,0,-1.82381e-06,-1.24561e+09,-1.24487e+09,-1.24559e+09,-243752,-0.0193912,0.132765,-0,0.134174,11653,-44550.2,0,46049.1,243752
step02_gravity_refstate-mantle.xmf,710,1.04628e-07,5.24202e-06,0,-1.4323e-06,-1.26109e+09,-1.2604e+09,-1.2611e+09,-191427,-0.0238691,0.118509,-0,0.120889,12586.5,-45029.7,0,46755.7,191427
step02_gravity_refstate-mantle.xmf,711,3.63709e-07,5.05835e-06,0,-1.06905e-06,-1.27642e+09,-1.27579e+09,-1.27647e+09,-142878,-0.0276463,0.105174,-0,0.108746,13580.5,-45504.5,0,47487.8,142878
step02_gravity_refstate-mantle.xmf,712,6.06161e-07,4.86337e-06,0,-7.50325e-07,-1.29216e+09,-1.29159e+09,-1.29224e+09,-100281,-0.0308944,0.0929819,-0,0.0979801,14608,-45991.8,0,48255.9,100281
step02_gravity_refstate-mantle.xmf,713,1.885e-07,5.72697e-06,0,-2.44509e-06,-1.26269e+09,-1.26195e+09,-1.26272e+09,-326787,-0.024581,0.141495,-0,0.143614,10822.5,-45081,0,46361.8,326787
step02_gravity_refstate-mantle.xmf,714,5.72426e-07,8.30873e-06,0,-6.96319e-06,-1.28302e+09,-1.28199e+09,-1.2831e+09,-930630,-0.0329359,0.212555,-0,0.215092,6932.05,-45718.2,0,46240.7,930630
step02_gravity_refstate-mantle.xmf,715,2.94521e-07,6.36095e-06,0,-3.83035e-06,-1.26469e+09,-1.26388e+09,-1.26473e+09,-511926,-0.0256147,0.168369,-0,0.170306,9175,-45145,0,46067.9,511926
step02_gravity_refstate-mantle.xmf,716,5.92687e-07,7.0396e-06,0,-4.85121e-06,-1.28086e+09,-1.28e+09,-1.28094e+09,-648364,-0.0313316,0.179956,-0,0.182663,8402.94,-45648.3,0,46415.2,648364
step02_gravity_refstate-mantle.xmf,717,8.39047e-07,4.24803e-06,0,-1.44965e-08,-1.30313e+09,-1.30268e+09,-1.30324e+09,-1937.46,-0.0310302,0.0697411,-0,0.0763328,17570.5,-46330.7,0,49550.6,1937.46
step02_gravity_refstate-mantle.xmf,718,2.3476e-06,3.01776e-06,0,4.79367e-07,-1.44459e+09,-1.4445e+09,-1.4449e+09,64067.4,-0.0383478,0.0289732,-0,0.0480625,24424.8,-50707.2,0,56283.1,64067.4
step02_gravity_refstate-mantle.xmf,719,2.8156e-06,2.56882e-06,0,4.06848e-07,-1.51557e+09,-1.5156e+09,-1.51595e+09,54375.2,-0.0352404,0.0185594,-0,0.0398288,27554.4,-52901.8,0,59647.7,54375.2
step02_gravity_refstate-mantle.xmf,720,2.63736e-06,2.80706e-06,0,4.43925e-07,-1.48621e+09,-1.48619e+09,-1.48657e+09,59330.6,-0.0382612,0.0230425,-0,0.044664,25774,-51994.5,0,58032.1,59330.6
step02_gravity_refstate-mantle.xmf,721,3.1891e-06,2.37059e-06,0,2.34691e-07,-1.61166e+09,-1.61177e+09,-1.61208e+09,31366.4,-0.0336445,0.0100076,-0,0.0351014,29386.1,-55872,0,63128.6,31366.4
step02_gravity_refstate-mantle.xmf,722,3.32863e-06,2.38915e-06,0,1.16237e-07,-1.68134e+09,-1.68147e+09,-1.68179e+09,15535.1,-0.0342881,0.0048041,-0,0.034623,29627.9,-58025.6,0,65152,15535.1
step02_gravity_refstate-mantle.xmf,723,3.37088e-06,2.3539e-06,0,-6.05789e-09,-1.74526e+09,-1.74539e+09,-1.74571e+09,-809.638,-0.0305044,-4.60647e-19,-0,0.0305044,30876.9,-60000,0,67478.7,809.638
step02_gravity_refstate-mantle.xmf,724,-1.70165e-05,4.31371e-05,0,3.22963e-05,-1.30923e+09,-1.30119e+09,-1.30695e+09,4.3164e+06,0.0217574,0.442112,0,0.442647,-1000,-46499.1,-0,46509.9,4.3164e+06
step02_gravity_refstate-mantle.xmf,725,7.86038e-07,9.40721e-06,0,6.8455e-06,-1.34316e+09,-1.34201e+09,-1.34327e+09,914901,0.0493794,0.181672,0,0.188263,-7561.03,-47580.1,-0,48177.1,914901
step02_gravity_refstate-mantle.xmf,726,-6.53831e-07,1.4644e-05,0,1.2741e-05,-1.31699e+09,-1.31495e+09,-1.31691e+09,1.70284e+06,0.0439269,0.274626,0,0.278117,-4414.28,-46775.5,-0,46983.4,1.70284e+06
step02_gravity_refstate-mantle.xmf,727,-1.72318e-06,1.78331e-05,0,1.45542e-05,-1.32884e+09,-1.32623e+09,-1.32861e+09,1.94517e+06,0.0458285,0.291278,0,0.294861,-3760.89,-47142.6,-0,47292.4,1.94517e+06
step02_gravity_refstate-mantle.xmf,728,-2.9956e-06,2.09183e-05,0,1.62025e-05,-1.33006e+09,-1.32687e+09,-1.32966e+09,2.16547e+06,0.0446293,0.312054,0,0.315229,-3175.64,-47179.6,-0,47286.4,2.16547e+06
step02_gravity_refstate-mantle.xmf,729,1.75217e-06,5.21425e-06,0,8.58886e-07,-1.42697e+09,-1.42651e+09,-1.42721e+09,114790,0.0542573,0.0629019,0,0.0830693,-15812.6,-50164.8,-0,52597.9,114790
step02_gravity_refstate-mantle.xmf,730,2.31997e-06,4.26295e-06,0,8.82439e-08,-1.49069e+09,-1.49043e+09,-1.491e+09,11793.8,0.0549016,0.0371157,0,0.0662704,-19284.6,-52134.4,-0,55586.8,11793.8
step02_gravity_refstate-mantle.xmf,731,2.1276e-06,4.59553e-06,0,3.00201e-07,-1.46938e+09,-1.46905e+09,-1.46966e+09,40121.9,0.0553276,0.0446815,0,0.0711167,-18065.1,-51475.5,-0,54553.5,40121.9
step02_gravity_refstate-mantle.xmf,732,1.93052e-06,4.91194e-06,0,5.53801e-07,-1.44748e+09,-1.44709e+09,-1.44774e+09,74015.6,0.0550183,0.0533622,0,0.0766456,-16910.7,-50798.8,-0,53539.6,74015.6
step02_gravity_refstate-mantle.xmf,733,2.65989e-06,4.06989e-06,0,-7.76837e-09,-1.56258e+09,-1.56239e+09,-1.56293e+09,-1038.24,0.0577334,0.0243293,0,0.0626504,-20557.4,-54356.7,-0,58114.2,1038.24
step02_gravity_refstate-mantle.xmf,734,3.09786e-06,3.44578e-06,0,-1.04789e-07,-1.65965e+09,-1.6596e+09,-1.66006e+09,-14005.1,0.0544843,0.00932212,0,0.0552761,-23273,-57356.5,-0,61898.3,14005.1
step02_gravity_refstate-mantle.xmf,735,-2.70542e-06,1.68063e-05,0,-1.71882e-05,-1.27685e+09,-1.27424e+09,-1.27649e+09,-2.2972e+06,-0.0291012,0.342069,-0,0.343304,3207.33,-45527.3,0,45640.1,2.2972e+06
step02_gravity_refstate-mantle.xmf,736,-4.2608e-06,2.06688e-05,0,-1.91829e-05,-1.28771e+09,-1.28438e+09,-1.28714e+09,-2.56379e+06,-0.0313373,0.359867,-0,0.361229,2711.3,-45862.4,0,45942.5,2.56379e+06
step02_gravity_refstate-mantle.xmf,737,-6.26692e-06,2.53015e-05,0,-2.09507e-05,-1.2981e+09,-1.29388e+09,-1.29727e+09,-2.80006e+06,-0.0324231,0.375826,-0,0.377222,2258.61,-46181.8,0,46237,2.80006e+06
step02_gravity_refstate-mantle.xmf,738,-1.70054e-05,4.3125e-05,0,-3.22336e-05,-1.30922e+09,-1.30119e+09,-1.30695e+09,-4.30803e+06,-0.0217539,0.442101,-0,0.442636,1000,-46499.1,0,46509.9,4.30803e+06
step02_gravity_refstate-mantle.xmf,739,-7.58661e-07,1.24861e-05,0,-1.27998e-05,-1.27457e+09,-1.2728e+09,-1.27447e+09,-1.7107e+06,-0.0301051,0.295246,-0,0.296777,4338.31,-45458.9,0,45665.4,1.7107e+06
step02_gravity_refstate-mantle.xmf,740,3.33987e-08,9.95786e-06,0,-9.85562e-06,-1.27181e+09,-1.27048e+09,-1.27181e+09,-1.3172e+06,-0.0293898,0.258657,-0,0.260322,5412.45,-45372.4,0,45694.1,1.3172e+06
step02_gravity_refstate-mantle.xmf,741,8.44371e-07,4.66099e-06,0,-4.74249e-07,-1.30892e+09,-1.30841e+09,-1.30904e+09,-63383.3,-0.0337525,0.0818167,-0,0.0885054,15666.8,-46510.8,0,49078.6,63383.3
step02_gravity_refstate-mantle.xmf,742,4.98024e-07,6.17274e-06,0,-3.22161e-06,-1.27876e+09,-1.27801e+09,-1.27883e+09,-430568,-0.0297817,0.151152,-0,0.154058,10009.4,-45580.7,0,46666.8,430568
step02_gravity_refstate-mantle.xmf,743,7.54307e-07,7.93902e-06,0,-6.01931e-06,-1.29596e+09,-1.295e+09,-1.29606e+09,-804480,-0.0366696,0.192119,-0,0.195587,7663.46,-46118,0,46750.4,804480
step02_gravity_refstate-mantle.xmf,744,2.12906e-06,3.24868e-06,0,4.56794e-07,-1.41873e+09,-1.41858e+09,-1.41902e+09,61050.5,-0.0389818,0.0344404,-0,0.0520165,23041.6,-49907.8,0,54970,61050.5
step02_gravity_refstate-mantle.xmf,745,1.91007e-06,3.48838e-06,0,3.96471e-07,-1.39608e+09,-1.39587e+09,-1.39633e+09,52988.3,-0.0392031,0.0404993,-0,0.0563656,21686.8,-49207.1,0,53774.1,52988.3
step02_gravity_refstate-mantle.xmf,746,1.05244e-06,4.44853e-06,0,-2.34836e-07,-1.3241e+09,-1.32364e+09,-1.32424e+09,-31385.9,-0.0357195,0.0721257,-0,0.080486,16737.7,-46980.3,0,49872.9,31385.9
step02_gravity_refstate-mantle.xmf,747,1.23183e-06,4.22616e-06,0,-2.52903e-08,-1.33723e+09,-1.33683e+09,-1.33739e+09,-3380.04,-0.0368186,0.0637279,-0,0.0735993,17836.9,-47386.5,0,50632.3,3380.04
step02_gravity_refstate-mantle.xmf,748,1.43407e-06,3.9789e-06,0,1.6147e-07,-1.35275e+09,-1.35241e+09,-1.35294e+09,21580.4,-0.0376922,0.0554474,-0,0.0670456,19074.4,-47866.8,0,51527.3,21580.4
step02_gravity_refstate-mantle.xmf,749,1.67741e-06,3.73139e-06,0,3.00265e-07,-1.37405e+09,-1.37378e+09,-1.37428e+09,40130.4,-0.038754,0.0474401,-0,0.0612571,20373.7,-48525.7,0,52629.2,40130.4
step02_gravity_refstate-mantle.xmf,750,2.60499e-06,3.04237e-06,0,4.00959e-07,-1.48933e+09,-1.48927e+09,-1.48968e+09,53588.2,-0.0423509,0.0250064,-0,0.0491825,24297,-52091.2,0,57479.1,53588.2
step02_gravity_refstate-mantle.xmf,751,3.08697e-06,2.54584e-06,0,2.94764e-07,-1.58288e+09,-1.58295e+09,-1.58329e+09,39395.2,-0.0378252,0.0130823,-0,0.0400237,27746.5,-54982.7,0,61587.1,39395.2
step02_gravity_refstate-mantle.xmf,752,1.03727e-06,7.96215e-06,0,4.78715e-06,-1.35516e+09,-1.35423e+09,-1.35529e+09,639802,0.0504358,0.146455,0,0.154896,-9290.68,-47948.6,-0,48840.4,639802
step02_gravity_refstate-mantle.xmf,753,1.0966e-06,7.60181e-06,0,4.07387e-06,-1.36889e+09,-1.36802e+09,-1.36903e+09,544473,0.052376,0.130502,0,0.14062,-10112.3,-48372.3,-0,49418,544473
step02_gravity_refstate-mantle.xmf,754,-1.25143e-05,3.8399e-05,0,2.43546e-05,-1.31615e+09,-1.30934e+09,-1.31448e+09,3.25499e+06,0.0300016,0.405168,0,0.406277,-1420.42,-46731,-0,46752.6,3.25499e+06
step02_gravity_refstate-mantle.xmf,755,-8.38573e-06,3.22323e-05,0,2.08008e-05,-1.32342e+09,-1.31799e+09,-1.3223e+09,2.78003e+06,0.0364438,0.373699,0,0.375472,-1858.31,-46967.4,-0,47004.1,2.78003e+06
step02_gravity_refstate-mantle.xmf,756,-5.72986e-06,2.74236e-05,0,1.88285e-05,-1.33134e+09,-1.32691e+09,-1.33057e+09,2.51643e+06,0.0410875,0.345769,0,0.348202,-2313.3,-47217.5,-0,47274.1,2.51643e+06
step02_gravity_refstate-mantle.xmf,757,-1.73866e-07,1.32912e-05,0,1.12383e-05,-1.32729e+09,-1.32549e+09,-1.32726e+09,1.50199e+06,0.0467146,0.249553,0,0.253887,-5065.15,-47093.3,-0,47364.9,1.50199e+06
step02_gravity_refstate-mantle.xmf,758,1.11573e-07,1.22613e-05,0,9.982e-06,-1.3373e+09,-1.33567e+09,-1.33731e+09,1.33409e+06,0.0489711,0.227641,0,0.232849,-5700.5,-47401.7,-0,47743.3,1.33409e+06
step02_gravity_refstate-mantle.xmf,759,3.0038e-07,1.14141e-05,0,8.85575e-06,-1.34742e+09,-1.34593e+09,-1.34746e+09,1.18357e+06,0.0509369,0.207504,0,0.213664,-6348.07,-47713.5,-0,48133.9,1.18357e+06
step02_gravity_refstate-mantle.xmf,760,4.67228e-07,1.06291e-05,0,7.81692e-06,-1.35604e+09,-1.35468e+09,-1.3561e+09,1.04473e+06,0.0523785,0.189349,0,0.19646,-7013.38,-47979,-0,48488.9,1.04473e+06
step02_gravity_refstate-mantle.xmf,761,6.28176e-07,9.87184e-06,0,6.82044e-06,-1.36357e+09,-1.36233e+09,-1.36365e+09,911551,0.0534281,0.172257,0,0.180352,-7725.91,-48210.5,-0,48825.7,911551
step02_gravity_refstate-mantle.xmf,762,-4.28862e-06,2.3976e-05,0,1.723e-05,-1.33953e+09,-1.33575e+09,-1.33895e+09,2.30278e+06,0.0446371,0.319525,0,0.322628,-2807.15,-47471.2,-0,47554.1,2.30278e+06
step02_gravity_refstate-mantle.xmf,763,1.16643e-06,7.27485e-06,0,3.43973e-06,-1.38318e+09,-1.38236e+09,-1.38333e+09,459721,0.0541476,0.115949,0,0.127969,-10943,-48813.2,-0,50024.8,459721
step02_gravity_refstate-mantle.xmf,764,1.66993e-06,5.82133e-06,0,1.30733e-06,-1.44476e+09,-1.4442e+09,-1.44498e+09,174724,0.0584332,0.0665275,0,0.0885458,-14807.6,-50715.2,-0,52832.7,174724
step02_gravity_refstate-mantle.xmf,765,1.51791e-06,6.16047e-06,0,1.74323e-06,-1.42645e+09,-1.42583e+09,-1.42665e+09,232983,0.0574705,0.0775957,0,0.0965606,-13791.4,-50149.5,-0,52011.2,232983
step02_gravity_refstate-mantle.xmf,766,1.38669e-06,6.49614e-06,0,2.23616e-06,-1.40931e+09,-1.40862e+09,-1.40949e+09,298862,0.0562537,0.0896699,0,0.105854,-12810.8,-49619.9,-0,51246.9,298862
step02_gravity_refstate-mantle.xmf,767,1.27588e-06,6.84411e-06,0,2.78237e-06,-1.3946e+09,-1.39386e+09,-1.39478e+09,371864,0.0550389,0.102314,0,0.116179,-11880.4,-49165.9,-0,50580.9,371864
step02_gravity_refstate-mantle.xmf,768,2.46043e-06,4.42044e-06,0,1.37739e-07,-1.53786e+09,-1.5376e+09,-1.53819e+09,18408.8,0.0590148,0.0306132,0,0.0664824,-19339.2,-53592.9,-0,56975.4,18408.8
step02_gravity_refstate-mantle.xmf,769,2.73638e-06,4.25903e-06,0,3.49426e-08,-1.61365e+09,-1.61345e+09,-1.61402e+09,4670.08,0.0610208,0.0179822,0,0.0636152,-20438.1,-55935.5,-0,59552.5,4670.08
step02_gravity_refstate-mantle.xmf,770,2.94399e-06,3.88672e-06,0,-4.45266e-08,-1.64906e+09,-1.64893e+09,-1.64945e+09,-5950.99,0.058861,0.0118563,0,0.0600432,-21714.2,-57029.5,-0,61023.5,5950.99
step02_gravity_refstate-mantle.xmf,771,3.07016e-06,3.74184e-06,0,-3.67767e-08,-1.70011e+09,-1.70002e+09,-1.70052e+09,-4915.21,0.0578265,0.0052793,0,0.0580669,-22476.6,-58607.2,-0,62769.4,4915.21
step02_gravity_refstate-mantle.xmf,772,3.1568e-06,3.58978e-06,0,2.69509e-10,-1.7452e+09,-1.74514e+09,-1.74562e+09,36.0199,0.0556925,-8.44131e-20,0,0.0556925,-23273,-60000,-0,64355.5,36.0199
step02_gravity_refstate-mantle.xmf,773,-8.94239e-06,3.11203e-05,0,-2.26233e-05,-1.30771e+09,-1.30235e+09,-1.30651e+09,-3.02361e+06,-0.0320253,0.391095,-0,0.392404,1823.66,-46475.4,0,46511.2,3.02361e+06
step02_gravity_refstate-mantle.xmf,774,-1.25578e-05,3.85401e-05,0,-2.43154e-05,-1.31655e+09,-1.30972e+09,-1.31487e+09,-3.24975e+06,-0.0300633,0.404904,-0,0.406019,1416.78,-46743.4,0,46764.8,3.24975e+06
step02_gravity_refstate-mantle.xmf,775,-1.48442e-06,1.50669e-05,0,-1.46126e-05,-1.28575e+09,-1.28354e+09,-1.28555e+09,-1.95297e+06,-0.033635,0.312624,-0,0.314428,3778.67,-45805.9,0,45961.5,1.95297e+06
step02_gravity_refstate-mantle.xmf,776,-1.5614e-07,1.14573e-05,0,-1.10816e-05,-1.28335e+09,-1.28179e+09,-1.28333e+09,-1.48105e+06,-0.0336542,0.270465,-0,0.272551,4937.56,-45731.4,0,45997.2,1.48105e+06
step02_gravity_refstate-mantle.xmf,777,2.77571e-07,1.04644e-05,0,-9.67517e-06,-1.2904e+09,-1.28904e+09,-1.29044e+09,-1.29309e+06,-0.0360758,0.247716,-0,0.250329,5574.59,-45949.7,0,46286.6,1.29309e+06
step02_gravity_refstate-mantle.xmf,778,4.44897e-07,5.56638e-06,0,-1.9906e-06,-1.27938e+09,-1.27869e+09,-1.27944e+09,-266044,-0.0291553,0.125927,-0,0.129258,11736.1,-45597.7,0,47083.8,266044
step02_gravity_refstate-mantle.xmf,779,6.73075e-07,5.3959e-06,0,-1.59783e-06,-1.2968e+09,-1.29617e+09,-1.29689e+09,-213551,-0.0332271,0.111598,-0,0.11644,12675.2,-46137,0,47846.4,213551
step02_gravity_refstate-mantle.xmf,780,8.78135e-07,5.20713e-06,0,-1.23315e-06,-1.31356e+09,-1.31298e+09,-1.31368e+09,-164811,-0.0364812,0.0986057,-0,0.105138,13646.4,-46655.6,0,48610.4,164811
step02_gravity_refstate-mantle.xmf,781,1.07113e-06,5.00031e-06,0,-8.9893e-07,-1.33041e+09,-1.32988e+09,-1.33055e+09,-120142,-0.0391471,0.0866518,-0,0.0950843,14664.1,-47176.8,0,49403.3,120142
step02_gravity_refstate-mantle.xmf,782,5.80704e-07,9.598e-06,0,-8.32532e-06,-1.29812e+09,-1.29692e+09,-1.2982e+09,-1.11268e+06,-0.0382947,0.225092,-0,0.228326,6285.75,-46188,0,46613.7,1.11268e+06
step02_gravity_refstate-mantle.xmf,783,6.98478e-07,5.99546e-06,0,-2.69021e-06,-1.29461e+09,-1.2939e+09,-1.2947e+09,-359547,-0.03387,0.134932,-0,0.139118,10874.7,-46071,0,47337.1,359547
step02_gravity_refstate-mantle.xmf,784,7.67082e-07,9.08549e-06,0,-7.30085e-06,-1.31039e+09,-1.30928e+09,-1.31049e+09,-975759,-0.0415284,0.204135,-0,0.208317,6974.57,-46566.9,0,47086.3,975759
step02_gravity_refstate-mantle.xmf,785,7.54557e-07,6.7893e-06,0,-4.15174e-06,-1.29448e+09,-1.29367e+09,-1.29458e+09,-554880,-0.0350374,0.161669,-0,0.165422,9209.12,-46069.5,0,46980.9,554880
step02_gravity_refstate-mantle.xmf,786,8.89305e-07,7.63132e-06,0,-5.22848e-06,-1.31005e+09,-1.30915e+09,-1.31017e+09,-698787,-0.0402189,0.172984,-0,0.177598,8419.59,-46553.5,0,47308.8,698787
step02_gravity_refstate-mantle.xmf,787,2.4329e-06,3.25384e-06,0,3.83679e-07,-1.46606e+09,-1.46595e+09,-1.46638e+09,51278.6,-0.0434689,0.0295917,-0,0.0525853,23080.7,-51371.6,0,56318.4,51278.6
step02_gravity_refstate-mantle.xmf,788,2.96678e-06,2.75438e-06,0,3.32038e-07,-1.55716e+09,-1.55719e+09,-1.55756e+09,44376.9,-0.0413981,0.0164614,-0,0.0445509,26183.9,-54188.1,0,60182.7,44376.9
step02_gravity_refstate-mantle.xmf,789,2.81722e-06,2.99332e-06,0,3.45149e-07,-1.53076e+09,-1.53074e+09,-1.53114e+09,46129.2,-0.0442615,0.020571,-0,0.0488082,24669.3,-53372.3,0,58797.8,46129.2
step02_gravity_refstate-mantle.xmf,790,3.24953e-06,2.57202e-06,0,1.87216e-07,-1.64292e+09,-1.64301e+09,-1.64335e+09,25021.4,-0.0396132,0.00830952,-0,0.0404753,27788.8,-56838.5,0,63268,25021.4
step02_gravity_refstate-mantle.xmf,791,3.36638e-06,2.55278e-06,0,-2.84536e-09,-1.74524e+09,-1.74535e+09,-1.74569e+09,-380.282,-0.0373422,-3.58606e-19,-0,0.0373422,28846.4,-60000,0,66574.1,380.282
step02_gravity_refstate-mantle.xmf,792,7.66816e-07,9.17916e-06,0,5.8264e-06,-1.37306e+09,-1.37194e+09,-1.37316e+09,778698,0.0546235,0.154498,0,0.16387,-8535.37,-48503,-0,49248.3,778698
step02_gravity_refstate-mantle.xmf,793,-1.85591e-05,4.95449e-05,0,2.75828e-05,-1.32523e+09,-1.31613e+09,-1.32275e+09,3.68644e+06,0.0257077,0.418933,0,0.419721,-1000,-46999.6,-0,47010.3,3.68644e+06
step02_gravity_refstate-mantle.xmf,794,-1.02983e-06,1.57551e-05,0,1.27386e-05,-1.3393e+09,-1.33705e+09,-1.33916e+09,1.70252e+06,0.0488005,0.262489,0,0.266987,-4465.46,-47464.9,-0,47674.5,1.70252e+06
step02_gravity_refstate-mantle.xmf,795,-3.21461e-06,2.11709e-05,0,1.57371e-05,-1.34489e+09,-1.34163e+09,-1.34446e+09,2.10326e+06,0.0471894,0.297324,0,0.301046,-3315.68,-47636.8,-0,47752,2.10326e+06
step02_gravity_refstate-mantle.xmf,796,1.83748e-06,5.49606e-06,0,9.36911e-07,-1.46541e+09,-1.46492e+09,-1.46565e+09,125218,0.0592705,0.0564,0,0.0818166,-15835.2,-51353.3,-0,53739.3,125218
step02_gravity_refstate-mantle.xmf,797,2.25304e-06,4.79251e-06,0,3.4376e-07,-1.51496e+09,-1.51462e+09,-1.51526e+09,45943.5,0.0598512,0.0377694,0,0.0707722,-18140.2,-52885,-0,55909.6,45943.5
step02_gravity_refstate-mantle.xmf,798,2.0327e-06,5.23823e-06,0,6.62026e-07,-1.49479e+09,-1.49436e+09,-1.49506e+09,88479.8,0.0606379,0.0462902,0,0.0762872,-16839.9,-52261.5,-0,54907.6,88479.8
step02_gravity_refstate-mantle.xmf,799,2.54017e-06,4.61406e-06,0,1.62313e-07,-1.58689e+09,-1.58662e+09,-1.58723e+09,21693.1,0.0624933,0.0238056,0,0.0668739,-19324.6,-55108.5,-0,58398.5,21693.1
step02_gravity_refstate-mantle.xmf,800,-2.60124e-06,1.82879e-05,0,-1.64369e-05,-1.29603e+09,-1.29324e+09,-1.29568e+09,-2.19679e+06,-0.0360274,0.330332,-0,0.332291,3235.14,-46124.3,0,46237.6,2.19679e+06
step02_gravity_refstate-mantle.xmf,801,-4.10759e-06,2.2189e-05,0,-1.81163e-05,-1.30565e+09,-1.30214e+09,-1.3051e+09,-2.42124e+06,-0.0372784,0.347006,-0,0.349002,2729.66,-46421.4,0,46501.6,2.42124e+06
step02_gravity_refstate-mantle.xmf,802,-5.96935e-06,2.68142e-05,0,-1.94793e-05,-1.31495e+09,-1.31057e+09,-1.31416e+09,-2.60341e+06,-0.0374677,0.361468,-0,0.363405,2271.37,-46708.2,0,46763.4,2.60341e+06
step02_gravity_refstate-mantle.xmf,803,-1.85683e-05,4.95109e-05,0,-2.75816e-05,-1.32524e+09,-1.31614e+09,-1.32276e+09,-3.68628e+06,-0.0256998,0.418935,-0,0.419722,1000,-46999.6,0,47010.3,3.68628e+06
step02_gravity_refstate-mantle.xmf,804,-6.18659e-07,1.35989e-05,0,-1.26647e-05,-1.2957e+09,-1.2938e+09,-1.29562e+09,-1.69263e+06,-0.0376865,0.285209,-0,0.287688,4378.18,-46115.3,0,46322.7,1.69263e+06
step02_gravity_refstate-mantle.xmf,805,1.26099e-06,4.77589e-06,0,-5.97236e-07,-1.34749e+09,-1.34702e+09,-1.34766e+09,-79820.5,-0.0412674,0.0757066,-0,0.0862235,15730.8,-47705.3,0,50232,79820.5
step02_gravity_refstate-mantle.xmf,806,8.87726e-07,6.55872e-06,0,-3.52216e-06,-1.30893e+09,-1.30817e+09,-1.30905e+09,-470736,-0.038455,0.144628,-0,0.149653,10044.8,-46516.1,0,47588.3,470736
step02_gravity_refstate-mantle.xmf,807,8.70774e-07,8.65774e-06,0,-6.41152e-06,-1.32256e+09,-1.32152e+09,-1.32267e+09,-856900,-0.0443069,0.185403,-0,0.190624,7657.54,-46942.3,0,47562.7,856900
step02_gravity_refstate-mantle.xmf,808,2.23905e-06,3.50243e-06,0,3.2469e-07,-1.44284e+09,-1.44267e+09,-1.44313e+09,43394.8,-0.0442929,0.0352359,-0,0.0565988,21758.1,-50653.6,0,55129,43394.8
step02_gravity_refstate-mantle.xmf,809,2.03592e-06,3.76626e-06,0,2.21714e-07,-1.42086e+09,-1.42062e+09,-1.42113e+09,29632,-0.0446339,0.0417761,-0,0.0611345,20438.6,-49974,0,53992,29632
step02_gravity_refstate-mantle.xmf,810,1.43484e-06,4.52711e-06,0,-3.24134e-07,-1.36269e+09,-1.36228e+09,-1.36289e+09,-43320.4,-0.0424852,0.0660895,-0,0.0785672,16844,-48175.3,0,51035.1,43320.4
step02_gravity_refstate-mantle.xmf,811,1.62344e-06,4.28158e-06,0,-1.02704e-07,-1.37999e+09,-1.37963e+09,-1.38021e+09,-13726.3,-0.0435515,0.0573347,-0,0.072,17978.9,-48710.2,0,51922.3,13726.3
step02_gravity_refstate-mantle.xmf,812,1.82675e-06,4.02688e-06,0,7.98918e-08,-1.39954e+09,-1.39925e+09,-1.39979e+09,10677.5,-0.0443216,0.0491836,-0,0.0662075,19179.3,-49315,0,52913.2,10677.5
step02_gravity_refstate-mantle.xmf,813,2.67234e-06,3.27415e-06,0,3.08582e-07,-1.51194e+09,-1.51186e+09,-1.5123e+09,41242,-0.0470871,0.0248062,-0,0.0532216,23157.6,-52790.6,0,57646.5,41242
step02_gravity_refstate-mantle.xmf,814,3.14806e-06,2.78025e-06,0,2.33231e-07,-1.613e+09,-1.61305e+09,-1.61342e+09,31171.4,-0.043715,0.0116534,-0,0.0452416,26221.1,-55914.3,0,61757.2,31171.4
step02_gravity_refstate-mantle.xmf,815,3.33014e-06,2.65856e-06,0,8.4948e-08,-1.70004e+09,-1.70013e+09,-1.70048e+09,11353.3,-0.0413624,0.00376033,-0,0.041533,27572.5,-58603.7,0,64766,11353.3
step02_gravity_refstate-mantle.xmf,816,8.61317e-07,8.65934e-06,0,4.9827e-06,-1.38527e+09,-1.38423e+09,-1.38538e+09,665938,0.0561273,0.137934,0,0.148916,-9340.06,-48879.4,-0,49763.7,665938
step02_gravity_refstate-mantle.xmf,817,9.4824e-07,8.22456e-06,0,4.23823e-06,-1.39905e+09,-1.39807e+09,-1.39917e+09,566440,0.0576856,0.122548,0,0.135446,-10153.4,-49304.4,-0,50339,566440
step02_gravity_refstate-mantle.xmf,818,-1.13418e-05,4.03205e-05,0,2.06091e-05,-1.33238e+09,-1.32548e+09,-1.33087e+09,2.7544e+06,0.0337968,0.384328,0,0.385812,-1430.81,-47245.2,-0,47266.9,2.7544e+06
step02_gravity_refstate-mantle.xmf,819,-7.82314e-06,3.28406e-05,0,1.99786e-05,-1.33996e+09,-1.33452e+09,-1.33891e+09,2.67014e+06,0.0389272,0.356316,0,0.358436,-1871,-47483.5,-0,47520.4,2.67014e+06
step02_gravity_refstate-mantle.xmf,820,-6.32373e-06,2.83307e-05,0,1.84501e-05,-1.34808e+09,-1.34345e+09,-1.34724e+09,2.46585e+06,0.0427839,0.329738,0,0.332502,-2355.05,-47733,-0,47791.1,2.46585e+06
step02_gravity_refstate-mantle.xmf,821,-6.55013e-07,1.4388e-05,0,1.13385e-05,-1.34972e+09,-1.34771e+09,-1.34964e+09,1.51539e+06,0.0511381,0.239092,0,0.244499,-5095.47,-47785.9,-0,48056.8,1.51539e+06
step02_gravity_refstate-mantle.xmf,822,-3.79867e-07,1.32836e-05,0,1.01083e-05,-1.35968e+09,-1.35786e+09,-1.35963e+09,1.35097e+06,0.0530726,0.21829,0,0.224649,-5720.76,-48092.6,-0,48431.7,1.35097e+06
step02_gravity_refstate-mantle.xmf,823,-1.32738e-07,1.22784e-05,0,8.93861e-06,-1.36938e+09,-1.36772e+09,-1.36936e+09,1.19465e+06,0.0547475,0.198525,0,0.205935,-6388.76,-48391.1,-0,48811,1.19465e+06
step02_gravity_refstate-mantle.xmf,824,2.77803e-07,1.05917e-05,0,6.84822e-06,-1.38846e+09,-1.38708e+09,-1.38849e+09,915264,0.0574987,0.162712,0,0.172572,-7814.52,-48978.9,-0,49598.4,915264
step02_gravity_refstate-mantle.xmf,825,8.69842e-08,1.13871e-05,0,7.8661e-06,-1.37856e+09,-1.37705e+09,-1.37857e+09,1.0513e+06,0.0561576,0.180334,0,0.188876,-7077.95,-48674,-0,49186,1.0513e+06
step02_gravity_refstate-mantle.xmf,826,-2.32578e-06,1.86986e-05,0,1.412e-05,-1.35152e+09,-1.34871e+09,-1.35121e+09,1.88714e+06,0.0496206,0.273546,0,0.27801,-3908.68,-47841.4,-0,48000.8,1.88714e+06
step02_gravity_refstate-mantle.xmf,827,-5.23258e-06,2.497e-05,0,1.6776e-05,-1.35606e+09,-1.35202e+09,-1.35536e+09,2.24212e+06,0.0459807,0.305344,0,0.308786,-2856.51,-47978,-0,48063,2.24212e+06
step02_gravity_refstate-mantle.xmf,828,1.0554e-06,7.79625e-06,0,3.54131e-06,-1.41343e+09,-1.41252e+09,-1.41357e+09,473296,0.0590735,0.108022,0,0.12312,-11014.6,-49748.3,-0,50953,473296
step02_gravity_refstate-mantle.xmf,829,1.66336e-06,6.1623e-06,0,1.3512e-06,-1.48058e+09,-1.47998e+09,-1.4808e+09,180587,0.0627846,0.0597158,0,0.0866481,-14834.2,-51822.6,-0,53903.9,180587
step02_gravity_refstate-mantle.xmf,830,1.48631e-06,6.5587e-06,0,1.79909e-06,-1.46227e+09,-1.46159e+09,-1.46247e+09,240448,0.0621977,0.0701861,0,0.0937798,-13838.1,-51256.8,-0,53091.9,240448
step02_gravity_refstate-mantle.xmf,831,1.32293e-06,6.96815e-06,0,2.32132e-06,-1.44488e+09,-1.44413e+09,-1.44506e+09,310244,0.0613582,0.0818628,0,0.102305,-12854.5,-50719.5,-0,52323.1,310244
step02_gravity_refstate-mantle.xmf,832,1.18173e-06,7.37239e-06,0,2.89928e-06,-1.42838e+09,-1.42756e+09,-1.42854e+09,387488,0.060264,0.0945009,0,0.112081,-11917,-50210.1,-0,51604.9,387488
step02_gravity_refstate-mantle.xmf,833,2.32793e-06,4.99751e-06,0,3.50907e-07,-1.56184e+09,-1.56148e+09,-1.56215e+09,46898.7,0.0635438,0.0304522,0,0.0704638,-18207.4,-54334.1,-0,57303.6,46898.7
step02_gravity_refstate-mantle.xmf,834,2.54428e-06,4.83908e-06,0,1.51546e-07,-1.63351e+09,-1.63321e+09,-1.63385e+09,20254.1,0.0652429,0.0172775,0,0.0674918,-19180.4,-56549.1,-0,59713.4,20254.1
step02_gravity_refstate-mantle.xmf,835,2.75844e-06,4.4504e-06,0,4.81009e-08,-1.66059e+09,-1.66036e+09,-1.66096e+09,6428.69,0.0634668,0.0119409,0,0.0645804,-20226.9,-57385.9,-0,60846.3,6428.69
step02_gravity_refstate-mantle.xmf,836,2.87075e-06,4.30217e-06,0,8.67709e-09,-1.7007e+09,-1.70051e+09,-1.70108e+09,1159.69,0.0626531,0.00598677,0,0.0629385,-20854.6,-58625.3,-0,62224.1,1159.69
step02_gravity_refstate-mantle.xmf,837,2.9789e-06,4.12154e-06,0,-5.26559e-10,-1.74519e+09,-1.74504e+09,-1.74559e+09,-70.3746,0.0609136,-9.53254e-20,0,0.0609136,-21571.8,-60000,-0,63760.1,70.3746
step02_gravity_refstate-mantle.xmf,838,-8.2745e-06,3.25243e-05,0,-2.0431e-05,-1.32392e+09,-1.31846e+09,-1.32281e+09,-2.7306e+06,-0.0364221,0.37393,-0,0.375699,1842.31,-46984.2,0,47020.3,2.7306e+06
step02_gravity_refstate-mantle.xmf,839,-1.13122e-05,4.0263e-05,0,-2.05766e-05,-1.33252e+09,-1.32563e+09,-1.33101e+09,-2.75006e+06,-0.0338434,0.384047,-0,0.385535,1432.99,-47249.6,0,47271.3,2.75006e+06
step02_gravity_refstate-mantle.xmf,840,-1.41583e-06,1.62931e-05,0,-1.43412e-05,-1.30653e+09,-1.30416e+09,-1.30634e+09,-1.9167e+06,-0.0404358,0.301461,-0,0.304161,3804.96,-46451.4,0,46607,1.9167e+06
step02_gravity_refstate-mantle.xmf,841,-5.04364e-08,1.23259e-05,0,-1.10879e-05,-1.30462e+09,-1.30297e+09,-1.30461e+09,-1.4819e+06,-0.0406883,0.260352,-0,0.263512,5006.54,-46391.5,0,46660.8,1.4819e+06
step02_gravity_refstate-mantle.xmf,842,3.42326e-07,1.12877e-05,0,-9.78165e-06,-1.31373e+09,-1.31227e+09,-1.31378e+09,-1.30732e+06,-0.0432201,0.237331,-0,0.241234,5660.4,-46672.9,0,47014.9,1.30732e+06
step02_gravity_refstate-mantle.xmf,843,9.25925e-07,5.84347e-06,0,-2.22841e-06,-1.31649e+09,-1.31583e+09,-1.31661e+09,-297826,-0.0387992,0.118194,-0,0.1244,11828.5,-46748,0,48221.2,297826
step02_gravity_refstate-mantle.xmf,844,1.3999e-06,5.21575e-06,0,-1.06301e-06,-1.36909e+09,-1.36858e+09,-1.36928e+09,-142071,-0.0466057,0.0800735,-0,0.0926491,14720.1,-48374.4,0,50564.4,142071
step02_gravity_refstate-mantle.xmf,845,1.09051e-06,5.66927e-06,0,-1.83249e-06,-1.33437e+09,-1.33376e+09,-1.33451e+09,-244912,-0.0420757,0.104623,-0,0.112767,12723.6,-47301,0,48982.4,244912
step02_gravity_refstate-mantle.xmf,846,1.24425e-06,5.45217e-06,0,-1.43161e-06,-1.3515e+09,-1.35094e+09,-1.35167e+09,-191335,-0.0445707,0.0918431,-0,0.102087,13698.5,-47830.7,0,49753.6,191335
step02_gravity_refstate-mantle.xmf,847,5.60851e-07,1.05269e-05,0,-8.6244e-06,-1.32463e+09,-1.3233e+09,-1.3247e+09,-1.15265e+06,-0.0458105,0.215771,-0,0.220581,6326.31,-47009,0,47432.8,1.15265e+06
step02_gravity_refstate-mantle.xmf,848,1.01402e-06,6.33334e-06,0,-2.97161e-06,-1.32348e+09,-1.32277e+09,-1.32362e+09,-397155,-0.0414305,0.129285,-0,0.135762,10883.5,-46965.9,0,48210.5,397155
step02_gravity_refstate-mantle.xmf,849,7.00873e-07,9.88354e-06,0,-7.62756e-06,-1.33423e+09,-1.333e+09,-1.33432e+09,-1.01942e+06,-0.0477545,0.197046,-0,0.20275,6978.45,-47304.7,0,47816.7,1.01942e+06
step02_gravity_refstate-mantle.xmf,850,1.00756e-06,7.32693e-06,0,-4.50135e-06,-1.32452e+09,-1.32368e+09,-1.32466e+09,-601606,-0.0433346,0.154605,-0,0.160564,9237.02,-47000.6,0,47899.7,601606
step02_gravity_refstate-mantle.xmf,851,9.07201e-07,8.49748e-06,0,-5.72636e-06,-1.3416e+09,-1.34059e+09,-1.34172e+09,-765328,-0.0483581,0.166488,-0,0.173369,8348.26,-47530.4,0,48257.9,765328
step02_gravity_refstate-mantle.xmf,852,2.49545e-06,3.54923e-06,0,2.4683e-07,-1.48893e+09,-1.48879e+09,-1.48926e+09,32988.8,-0.0486698,0.030089,-0,0.0572197,21804.8,-52079.2,0,56459.7,32988.8
step02_gravity_refstate-mantle.xmf,853,3.0197e-06,3.02877e-06,0,2.51263e-07,-1.58545e+09,-1.58545e+09,-1.58585e+09,33581.4,-0.0472331,0.0154396,-0,0.0496925,24702.6,-55063,0,60350.3,33581.4
step02_gravity_refstate-mantle.xmf,854,2.86932e-06,3.31088e-06,0,2.32759e-07,-1.56051e+09,-1.56045e+09,-1.56089e+09,31108.3,-0.0501551,0.0197115,-0,0.0538894,23248,-54292.2,0,59060.3,31108.3
step02_gravity_refstate-mantle.xmf,855,3.25988e-06,2.85159e-06,0,1.32953e-07,-1.66774e+09,-1.66779e+09,-1.66818e+09,17769.2,-0.0456605,0.00695261,-0,0.0461868,26107.7,-57606.1,0,63246.1,17769.2
step02_gravity_refstate-mantle.xmf,856,3.33721e-06,2.81873e-06,0,-1.33248e-09,-1.74522e+09,-1.74529e+09,-1.74567e+09,-178.085,-0.0438455,-2.75142e-19,-0,0.0438455,26905.6,-60000,0,65756.4,178.085
step02_gravity_refstate-mantle.xmf,857,4.19006e-07,9.94459e-06,0,5.92177e-06,-1.40049e+09,-1.39922e+09,-1.40055e+09,791445,0.0589737,0.145715,0,0.157197,-8575.87,-49350,-0,50089.6,791445
step02_gravity_refstate-mantle.xmf,858,-1.75214e-05,5.53925e-05,0,1.9727e-05,-1.34071e+09,-1.33096e+09,-1.33837e+09,2.63652e+06,0.0283591,0.392722,0,0.393744,-1000,-47499.6,-0,47510.1,2.63652e+06
step02_gravity_refstate-mantle.xmf,859,-1.76332e-06,1.68642e-05,0,1.25935e-05,-1.36112e+09,-1.35863e+09,-1.36089e+09,1.68312e+06,0.0519814,0.24977,0,0.255122,-4524.26,-48137,-0,48349.1,1.68312e+06
step02_gravity_refstate-mantle.xmf,860,-4.22466e-06,2.21755e-05,0,1.51864e-05,-1.36381e+09,-1.36028e+09,-1.36324e+09,2.02966e+06,0.0488147,0.282264,0,0.286454,-3390.68,-48217,-0,48336.1,2.02966e+06
step02_gravity_refstate-mantle.xmf,861,1.83697e-06,5.80552e-06,0,1.00295e-06,-1.49832e+09,-1.49779e+09,-1.49857e+09,134044,0.0630781,0.0510599,0,0.0811539,-15760.9,-52370.8,-0,54691,134044
step02_gravity_refstate-mantle.xmf,862,2.11713e-06,5.36557e-06,0,5.94148e-07,-1.53652e+09,-1.53608e+09,-1.5368e+09,79407.9,0.0639086,0.0381244,0,0.0744162,-17150.1,-53551.4,-0,56230.6,79407.9
step02_gravity_refstate-mantle.xmf,863,2.34604e-06,5.22865e-06,0,3.08491e-07,-1.61218e+09,-1.61179e+09,-1.61249e+09,41229.8,0.066587,0.0224566,0,0.0702718,-18223.4,-55889.8,-0,58785.7,41229.8
step02_gravity_refstate-mantle.xmf,864,-2.57867e-06,1.95424e-05,0,-1.60618e-05,-1.31482e+09,-1.31187e+09,-1.31448e+09,-2.14666e+06,-0.0415261,0.319127,-0,0.321817,3238.75,-46708.2,0,46820.3,2.14666e+06
step02_gravity_refstate-mantle.xmf,865,-4.04944e-06,2.3234e-05,0,-1.75204e-05,-1.32276e+09,-1.31911e+09,-1.32221e+09,-2.3416e+06,-0.0417144,0.333958,-0,0.336553,2752.07,-46952.8,0,47033.4,2.3416e+06
step02_gravity_refstate-mantle.xmf,866,-5.76673e-06,2.74925e-05,0,-1.86796e-05,-1.33158e+09,-1.32714e+09,-1.33081e+09,-2.49653e+06,-0.0411077,0.345672,-0,0.348108,2310.78,-47224.9,0,47281.4,2.49653e+06
step02_gravity_refstate-mantle.xmf,867,-1.7493e-05,5.53667e-05,0,-1.97147e-05,-1.3407e+09,-1.33097e+09,-1.33837e+09,-2.63487e+06,-0.0283565,0.392721,-0,0.393744,1000,-47499.6,0,47510.1,2.63487e+06
step02_gravity_refstate-mantle.xmf,868,-6.81971e-07,1.46565e-05,0,-1.26613e-05,-1.31704e+09,-1.31499e+09,-1.31695e+09,-1.69219e+06,-0.0439377,0.274588,-0,0.278081,4414.85,-46776.8,0,46984.7,1.69219e+06
step02_gravity_refstate-mantle.xmf,869,1.56399e-06,4.95944e-06,0,-7.32476e-07,-1.38683e+09,-1.38638e+09,-1.38704e+09,-97895.5,-0.0481232,0.0693956,-0,0.0844488,15785.6,-48922.9,0,51406.6,97895.5
step02_gravity_refstate-mantle.xmf,870,1.08508e-06,7.02796e-06,0,-3.81709e-06,-1.33839e+09,-1.3376e+09,-1.33854e+09,-510154,-0.0458641,0.137945,-0,0.145369,10075.9,-47428.8,0,48487.2,510154
step02_gravity_refstate-mantle.xmf,871,7.86025e-07,9.40751e-06,0,-6.84579e-06,-1.34316e+09,-1.34201e+09,-1.34327e+09,-914939,-0.0493795,0.181675,-0,0.188266,7560.89,-47580.1,0,48177.1,914939
step02_gravity_refstate-mantle.xmf,872,2.30875e-06,3.83536e-06,0,1.41446e-07,-1.46678e+09,-1.46658e+09,-1.46709e+09,18904.2,-0.0496514,0.0361715,-0,0.0614299,20501.2,-51394.8,0,55332.8,18904.2
step02_gravity_refstate-mantle.xmf,873,2.11607e-06,4.13045e-06,0,-1.30899e-08,-1.44546e+09,-1.44519e+09,-1.44574e+09,-1749.46,-0.0500856,0.0431872,-0,0.0661339,19229.2,-50735.5,0,54257.3,1749.46
step02_gravity_refstate-mantle.xmf,874,1.7366e-06,4.68756e-06,0,-4.44946e-07,-1.40473e+09,-1.40434e+09,-1.40496e+09,-59467,-0.0491268,0.0598158,-0,0.077404,16891.1,-49476.3,0,52280.2,59467
step02_gravity_refstate-mantle.xmf,875,1.92261e-06,4.41249e-06,0,-2.06083e-07,-1.42451e+09,-1.42418e+09,-1.42477e+09,-27543,-0.0498415,0.0510582,-0,0.0713521,18037.1,-50087.9,0,53236.6,27543
step02_gravity_refstate-mantle.xmf,876,2.6968e-06,3.6196e-06,0,1.72642e-07,-1.53647e+09,-1.53634e+09,-1.53683e+09,23073.6,-0.0524282,0.0247181,-0,0.0579629,21850.7,-53549.3,0,57835.8,23073.6
step02_gravity_refstate-mantle.xmf,877,3.15182e-06,3.09763e-06,0,1.61961e-07,-1.6397e+09,-1.63971e+09,-1.64012e+09,21646,-0.0495304,0.0103374,-0,0.0505977,24665.3,-56739.8,0,61869.1,21646
step02_gravity_refstate-mantle.xmf,878,3.30205e-06,2.92298e-06,0,5.94987e-08,-1.71365e+09,-1.7137e+09,-1.71409e+09,7952,-0.0467322,0.00288484,-0,0.0468212,25994.2,-59024.6,0,64494.9,7952
step02_gravity_refstate-mantle.xmf,879,5.32765e-07,9.41472e-06,0,5.08357e-06,-1.41496e+09,-1.41378e+09,-1.41503e+09,679420,0.0605961,0.129323,0,0.142816,-9361.84,-49796.4,-0,50668.8,679420
step02_gravity_refstate-mantle.xmf,880,6.60646e-07,8.92424e-06,0,4.30715e-06,-1.43083e+09,-1.42973e+09,-1.43092e+09,575650,0.0621755,0.113735,0,0.129621,-10183.6,-50286.1,-0,51306.9,575650
step02_gravity_refstate-mantle.xmf,881,-1.22419e-05,4.01782e-05,0,2.0522e-05,-1.34887e+09,-1.34186e+09,-1.34723e+09,2.74277e+06,0.0346178,0.363573,0,0.365217,-1443.48,-47748.1,-0,47769.9,2.74277e+06
step02_gravity_refstate-mantle.xmf,882,-9.69684e-06,3.41014e-05,0,1.92648e-05,-1.35693e+09,-1.35108e+09,-1.35564e+09,2.57474e+06,0.0388703,0.337735,0,0.339965,-1906.9,-47998.6,-0,48036.5,2.57474e+06
step02_gravity_refstate-mantle.xmf,883,-8.2562e-06,2.97081e-05,0,1.73524e-05,-1.36559e+09,-1.36051e+09,-1.36448e+09,2.31915e+06,0.0425842,0.313492,0,0.316371,-2378.99,-48264.3,-0,48322.9,2.31915e+06
step02_gravity_refstate-mantle.xmf,884,-1.37576e-06,1.5477e-05,0,1.12735e-05,-1.37133e+09,-1.36907e+09,-1.37114e+09,1.5067e+06,0.0540512,0.228381,0,0.234691,-5124.33,-48451.2,-0,48721.4,1.5067e+06
step02_gravity_refstate-mantle.xmf,885,-2.20203e-07,1.14184e-05,0,6.82859e-06,-1.41394e+09,-1.41239e+09,-1.41391e+09,912641,0.0607066,0.153585,0,0.165147,-7841.44,-49764.9,-0,50378.9,912641
step02_gravity_refstate-mantle.xmf,886,-1.0479e-06,1.42836e-05,0,1.00421e-05,-1.38193e+09,-1.37988e+09,-1.38179e+09,1.34213e+06,0.0559606,0.208022,0,0.215418,-5754.68,-48777.8,-0,49116.1,1.34213e+06
step02_gravity_refstate-mantle.xmf,887,-7.38696e-07,1.32058e-05,0,8.89013e-06,-1.39234e+09,-1.39048e+09,-1.39224e+09,1.18817e+06,0.0576799,0.188787,0,0.197401,-6421.61,-49098.9,-0,49517,1.18817e+06
step02_gravity_refstate-mantle.xmf,888,-4.56478e-07,1.22451e-05,0,7.82174e-06,-1.40266e+09,-1.40096e+09,-1.4026e+09,1.04538e+06,0.0592221,0.170769,0,0.180746,-7117.77,-49417,-0,49926.9,1.04538e+06
step02_gravity_refstate-mantle.xmf,889,-3.38569e-06,1.98658e-05,0,1.36641e-05,-1.37256e+09,-1.36946e+09,-1.37211e+09,1.8262e+06,0.0514016,0.259451,0,0.264494,-3963.06,-48487.3,-0,48648.9,1.8262e+06
step02_gravity_refstate-mantle.xmf,890,-6.79866e-06,2.61767e-05,0,1.57426e-05,-1.37441e+09,-1.37e+09,-1.3735e+09,2.104e+06,0.0460265,0.290072,0,0.293701,-2886.63,-48537.6,-0,48623.3,2.104e+06
step02_gravity_refstate-mantle.xmf,891,1.87214e-06,5.93753e-06,0,9.12711e-07,-1.53148e+09,-1.53094e+09,-1.53173e+09,121984,0.0657263,0.0437749,0,0.0789696,-16016.8,-53395.6,-0,55746.1,121984
step02_gravity_refstate-mantle.xmf,892,1.61482e-06,6.47761e-06,0,1.32283e-06,-1.51531e+09,-1.51466e+09,-1.51552e+09,176796,0.0662292,0.0525907,0,0.08457,-14891.5,-52895.7,-0,54951.9,176796
step02_gravity_refstate-mantle.xmf,893,8.08284e-07,8.43622e-06,0,3.58532e-06,-1.44675e+09,-1.44573e+09,-1.44685e+09,479178,0.0635115,0.0993394,0,0.117907,-11043.5,-50777.5,-0,51964.5,479178
step02_gravity_refstate-mantle.xmf,894,1.38759e-06,6.96589e-06,0,1.78641e-06,-1.49744e+09,-1.49669e+09,-1.49762e+09,238754,0.0660286,0.0625952,0,0.0909831,-13871.9,-52343.5,-0,54150.5,238754
step02_gravity_refstate-mantle.xmf,895,1.17199e-06,7.46253e-06,0,2.32543e-06,-1.48005e+09,-1.47921e+09,-1.48021e+09,310794,0.0654887,0.0737986,0,0.0986661,-12881,-51806.2,-0,53383.5,310794
step02_gravity_refstate-mantle.xmf,896,9.75877e-07,7.95869e-06,0,2.93224e-06,-1.46318e+09,-1.46224e+09,-1.46331e+09,391894,0.0646425,0.0861229,0,0.107684,-11931,-51284.9,-0,52654.5,391894
step02_gravity_refstate-mantle.xmf,897,2.10737e-06,5.67686e-06,0,5.2872e-07,-1.59002e+09,-1.58954e+09,-1.5903e+09,70663.4,0.0676838,0.0289088,0,0.073599,-17175,-55204.9,-0,57814.9,70663.4
step02_gravity_refstate-mantle.xmf,898,2.36292e-06,5.38981e-06,0,1.94677e-07,-1.66653e+09,-1.66613e+09,-1.66685e+09,26018.6,0.0685744,0.0133862,0,0.0698687,-18303.3,-57569.4,-0,60409,26018.6
step02_gravity_refstate-mantle.xmf,899,2.57873e-06,5.01546e-06,0,6.78125e-08,-1.7039e+09,-1.70357e+09,-1.70424e+09,9063.14,0.0671314,0.00646928,0,0.0674423,-19229,-58724,-0,61792,9063.14
step02_gravity_refstate-mantle.xmf,900,2.72291e-06,4.76969e-06,0,-1.94819e-09,-1.7452e+09,-1.74492e+09,-1.74556e+09,-260.375,0.0655638,-1.05327e-19,0,0.0655638,-19941.4,-60000,-0,63227.1,260.375
step02_gravity_refstate-mantle.xmf,901,-8.14542e-06,3.28592e-05,0,-1.97135e-05,-1.34015e+09,-1.33467e+09,-1.33907e+09,-2.63471e+06,-0.0389505,0.356104,-0,0.358228,1872.95,-47487.5,0,47524.5,2.63471e+06
step02_gravity_refstate-mantle.xmf,902,-1.22656e-05,4.02407e-05,0,-2.04888e-05,-1.34894e+09,-1.34192e+09,-1.3473e+09,-2.73832e+06,-0.0345903,0.363548,-0,0.365189,1441.63,-47750.3,0,47772,2.73832e+06
step02_gravity_refstate-mantle.xmf,903,-1.71475e-06,1.78129e-05,0,-1.45458e-05,-1.32876e+09,-1.32615e+09,-1.32853e+09,-1.94405e+06,-0.0458186,0.291202,-0,0.294785,3764.29,-47140.1,0,47290.1,1.94405e+06
step02_gravity_refstate-mantle.xmf,904,-2.18633e-07,1.32958e-05,0,-1.11878e-05,-1.3273e+09,-1.3255e+09,-1.32727e+09,-1.49524e+06,-0.0467162,0.249547,-0,0.253882,5065.25,-47093.5,0,47365.1,1.49524e+06
step02_gravity_refstate-mantle.xmf,905,1.11519e-07,1.22614e-05,0,-9.98202e-06,-1.3373e+09,-1.33567e+09,-1.33731e+09,-1.3341e+06,-0.0489714,0.227641,-0,0.232849,5700.49,-47401.8,0,47743.3,1.3341e+06
step02_gravity_refstate-mantle.xmf,906,1.21288e-06,6.35262e-06,0,-2.65687e-06,-1.35354e+09,-1.35285e+09,-1.3537e+09,-355091,-0.0474394,0.113084,-0,0.122631,11674.9,-47895.6,0,49298,355091
step02_gravity_refstate-mantle.xmf,907,1.59227e-06,5.50071e-06,0,-1.21035e-06,-1.40758e+09,-1.40706e+09,-1.40779e+09,-161763,-0.0530888,0.0733514,-0,0.0905475,14764,-49565.4,0,51717.5,161763
step02_gravity_refstate-mantle.xmf,908,1.45062e-06,5.77999e-06,0,-1.61356e-06,-1.38944e+09,-1.38886e+09,-1.38963e+09,-215652,-0.0516177,0.0848071,-0,0.0992806,13747.1,-49004.7,0,50896.4,215652
step02_gravity_refstate-mantle.xmf,909,1.32816e-06,6.05904e-06,0,-2.07637e-06,-1.37245e+09,-1.37182e+09,-1.37263e+09,-277507,-0.0498952,0.0974238,-0,0.109457,12750.7,-48479.9,0,50128.6,277507
step02_gravity_refstate-mantle.xmf,910,3.0034e-07,1.14142e-05,0,-8.85577e-06,-1.34742e+09,-1.34593e+09,-1.34746e+09,-1.18357e+06,-0.0509369,0.207505,-0,0.213665,6348.04,-47713.5,0,48133.9,1.18357e+06
step02_gravity_refstate-mantle.xmf,911,1.15234e-06,6.87366e-06,0,-3.37867e-06,-1.35322e+09,-1.35245e+09,-1.35337e+09,-451560,-0.048454,0.125159,-0,0.134211,10741.8,-47886.7,0,49076.7,451560
step02_gravity_refstate-mantle.xmf,912,4.66984e-07,1.06299e-05,0,-7.81763e-06,-1.35604e+09,-1.35468e+09,-1.3561e+09,-1.04483e+06,-0.0523788,0.18936,-0,0.196471,7012.89,-47979,0,48488.8,1.04483e+06
step02_gravity_refstate-mantle.xmf,913,1.0362e-06,7.97239e-06,0,-4.80045e-06,-1.35519e+09,-1.35426e+09,-1.35532e+09,-641580,-0.0504534,0.146636,-0,0.155073,9279.19,-47949.5,0,48839.1,641580
step02_gravity_refstate-mantle.xmf,914,6.27283e-07,9.87482e-06,0,-6.82338e-06,-1.36357e+09,-1.36233e+09,-1.36365e+09,-911944,-0.0534296,0.172299,-0,0.180393,7723.72,-48210.6,0,48825.4,911944
step02_gravity_refstate-mantle.xmf,915,2.50931e-06,3.93492e-06,0,6.8967e-08,-1.51245e+09,-1.51226e+09,-1.51279e+09,9217.44,-0.0539074,0.0305703,-0,0.0619722,20541.1,-52807,0,56661.4,9217.44
step02_gravity_refstate-mantle.xmf,916,3.0197e-06,3.38001e-06,0,1.53739e-07,-1.61243e+09,-1.61238e+09,-1.61284e+09,20547.3,-0.052805,0.0143149,-0,0.0547109,23267,-55897.4,0,60546.4,20547.3
step02_gravity_refstate-mantle.xmf,917,2.84357e-06,3.73417e-06,0,1.01105e-07,-1.58757e+09,-1.58745e+09,-1.58795e+09,13512.7,-0.0558199,0.0189749,-0,0.0589569,21815.1,-55129,0,59288.3,13512.7
step02_gravity_refstate-mantle.xmf,918,3.22007e-06,3.21849e-06,0,7.38534e-08,-1.69618e+09,-1.69618e+09,-1.69661e+09,9870.51,-0.0516871,0.00495217,-0,0.0519238,24409.4,-58485.4,0,63374.8,9870.51
step02_gravity_refstate-mantle.xmf,919,3.27063e-06,3.16225e-06,0,-1.52989e-09,-1.74521e+09,-1.74522e+09,-1.74565e+09,-204.47,-0.0499804,-4.73277e-19,-0,0.0499804,25049.3,-60000,0,65019,204.47
step02_gravity_refstate-mantle.xmf,920,-3.84076e-08,1.07328e-05,0,5.9147e-06,-1.42714e+09,-1.4257e+09,-1.42714e+09,790499,0.0622346,0.137106,0,0.150569,-8582.76,-50172.2,-0,50901,790499
step02_gravity_refstate-mantle.xmf,921,-2.01174e-05,4.49944e-05,0,1.49554e-05,-1.35833e+09,-1.34963e+09,-1.35564e+09,1.99879e+06,0.0254867,0.364319,0,0.365209,-1000,-48000,-0,48010.4,1.99879e+06
step02_gravity_refstate-mantle.xmf,922,-2.78012e-06,1.80749e-05,0,1.22683e-05,-1.3828e+09,-1.38002e+09,-1.38243e+09,1.63965e+06,0.0537308,0.237603,0,0.243602,-4543.78,-48803,-0,49014.1,1.63965e+06
step02_gravity_refstate-mantle.xmf,923,-5.59228e-06,2.33534e-05,0,1.43009e-05,-1.38359e+09,-1.37973e+09,-1.38285e+09,1.91131e+06,0.0491029,0.267689,0,0.272155,-3417.89,-48822.1,-0,48941.6,1.91131e+06
step02_gravity_refstate-mantle.xmf,924,1.83184e-06,6.20308e-06,0,8.40993e-07,-1.56895e+09,-1.56836e+09,-1.56919e+09,112399,0.0685196,0.0365664,0,0.0776662,-16059.9,-54553.5,-0,56868.3,112399
step02_gravity_refstate-mantle.xmf,925,2.0656e-06,5.92723e-06,0,4.25742e-07,-1.6343e+09,-1.63378e+09,-1.63457e+09,56900.4,0.069974,0.0210363,0,0.0730677,-17149.6,-56572.9,-0,59115.2,56900.4
step02_gravity_refstate-mantle.xmf,926,-3.00276e-06,2.09358e-05,0,-1.62092e-05,-1.33012e+09,-1.32692e+09,-1.32972e+09,-2.16636e+06,-0.0446324,0.312106,-0,0.315281,3173.22,-47181.5,0,47288.1,2.16636e+06
step02_gravity_refstate-mantle.xmf,927,-4.43965e-06,2.40684e-05,0,-1.71574e-05,-1.33952e+09,-1.33571e+09,-1.33893e+09,-2.29308e+06,-0.0445878,0.319939,-0,0.323031,2796.81,-47470.3,0,47552.6,2.29308e+06
step02_gravity_refstate-mantle.xmf,928,-6.65515e-06,2.83986e-05,0,-1.82508e-05,-1.34833e+09,-1.34364e+09,-1.34744e+09,-2.43922e+06,-0.0427652,0.329711,-0,0.332473,2351.54,-47738.5,0,47796.4,2.43922e+06
step02_gravity_refstate-mantle.xmf,929,-1.97017e-05,4.56036e-05,0,-1.3514e-05,-1.35819e+09,-1.34946e+09,-1.35556e+09,-1.80615e+06,-0.0254754,0.364337,-0,0.365227,1000,-48000,0,48010.4,1.80615e+06
step02_gravity_refstate-mantle.xmf,930,-1.10537e-06,1.57637e-05,0,-1.26752e-05,-1.33933e+09,-1.33707e+09,-1.33918e+09,-1.69405e+06,-0.0488035,0.262455,-0,0.266953,4466.38,-47465.2,0,47674.9,1.69405e+06
step02_gravity_refstate-mantle.xmf,931,1.75209e-06,5.2143e-06,0,-8.58952e-07,-1.42696e+09,-1.4265e+09,-1.4272e+09,-114799,-0.0542564,0.0629056,-0,0.0830715,15812.3,-50164.4,0,52597.5,114799
step02_gravity_refstate-mantle.xmf,932,1.09523e-06,7.61258e-06,0,-4.09295e-06,-1.36864e+09,-1.36777e+09,-1.36879e+09,-547022,-0.0523495,0.130862,-0,0.140944,10091.5,-48364.6,0,49406.2,547022
step02_gravity_refstate-mantle.xmf,933,7.19983e-07,9.19078e-06,0,-5.80798e-06,-1.37331e+09,-1.37218e+09,-1.37341e+09,-776237,-0.054668,0.154466,-0,0.163855,8533.28,-48510.4,0,49255.2,776237
step02_gravity_refstate-mantle.xmf,934,2.31856e-06,4.26264e-06,0,-8.7485e-08,-1.49048e+09,-1.49022e+09,-1.49079e+09,-11692.4,-0.0548838,0.0371487,-0,0.0662741,19283.1,-52127.8,0,55580.1,11692.4
step02_gravity_refstate-mantle.xmf,935,2.12751e-06,4.59546e-06,0,-2.99884e-07,-1.46938e+09,-1.46905e+09,-1.46966e+09,-40079.5,-0.0553276,0.0446817,-0,0.0711168,18065.1,-51475.5,0,54553.4,40079.5
step02_gravity_refstate-mantle.xmf,936,1.93055e-06,4.9119e-06,0,-5.53792e-07,-1.44748e+09,-1.44708e+09,-1.44774e+09,-74014.3,-0.0550181,0.0533631,-0,0.076646,16910.6,-50798.7,0,53539.5,74014.3
step02_gravity_refstate-mantle.xmf,937,2.64786e-06,4.07678e-06,0,7.26153e-09,-1.56012e+09,-1.55993e+09,-1.56048e+09,970.504,-0.0576804,0.0247322,-0,0.0627591,20514.3,-54280.9,0,58028,970.504
step02_gravity_refstate-mantle.xmf,938,3.09671e-06,3.45142e-06,0,1.04169e-07,-1.65971e+09,-1.65966e+09,-1.66012e+09,13922.1,-0.0545541,0.00933153,-0,0.0553464,23251,-57358.4,0,61891.8,13922.1
step02_gravity_refstate-mantle.xmf,939,2.97954e-08,1.03068e-05,0,5.08112e-06,-1.4481e+09,-1.44673e+09,-1.44811e+09,679091,0.0643749,0.119463,0,0.135704,-9345.83,-50819,-0,51671.2,679091
step02_gravity_refstate-mantle.xmf,940,2.64698e-07,9.65035e-06,0,4.22271e-06,-1.46438e+09,-1.46313e+09,-1.46442e+09,564365,0.065818,0.103594,0,0.122734,-10227.2,-51321.7,-0,52330.8,564365
step02_gravity_refstate-mantle.xmf,941,-1.57886e-05,4.1117e-05,0,1.68317e-05,-1.3663e+09,-1.35869e+09,-1.36419e+09,2.24956e+06,0.0320161,0.341725,0,0.343221,-1467.14,-48265.1,-0,48287.4,2.24956e+06
step02_gravity_refstate-mantle.xmf,942,-1.27283e-05,3.51068e-05,0,1.61258e-05,-1.3754e+09,-1.36901e+09,-1.3737e+09,2.15521e+06,0.0368197,0.318476,0,0.320598,-1910.93,-48551.5,-0,48589.1,2.15521e+06
step02_gravity_refstate-mantle.xmf,943,-1.01583e-05,3.05804e-05,0,1.52236e-05,-1.38436e+09,-1.37892e+09,-1.38301e+09,2.03464e+06,0.0412008,0.295984,0,0.298838,-2390.46,-48833.9,-0,48892.3,2.03464e+06
step02_gravity_refstate-mantle.xmf,944,-2.28048e-06,1.65784e-05,0,1.09848e-05,-1.39358e+09,-1.39106e+09,-1.39328e+09,1.46812e+06,0.055878,0.216843,0,0.223926,-5147.37,-49135.5,-0,49404.4,1.46812e+06
step02_gravity_refstate-mantle.xmf,945,-7.86366e-07,1.22378e-05,0,6.72384e-06,-1.43808e+09,-1.43634e+09,-1.43797e+09,898641,0.0629171,0.145063,0,0.15812,-7824.57,-50508.9,-0,51111.3,898641
step02_gravity_refstate-mantle.xmf,946,-1.10139e-06,1.31259e-05,0,7.64757e-06,-1.42738e+09,-1.42548e+09,-1.42723e+09,1.0221e+06,0.0614448,0.160767,0,0.172109,-7136.35,-50178.6,-0,50683.5,1.0221e+06
step02_gravity_refstate-mantle.xmf,947,-1.85132e-06,1.52915e-05,0,9.79177e-06,-1.40486e+09,-1.40257e+09,-1.40461e+09,1.30867e+06,0.0578859,0.197032,0,0.205359,-5779.57,-49483.3,-0,49819.7,1.30867e+06
step02_gravity_refstate-mantle.xmf,948,-1.46139e-06,1.41498e-05,0,8.67919e-06,-1.4162e+09,-1.41412e+09,-1.41601e+09,1.15997e+06,0.0597502,0.178273,0,0.188019,-6444.58,-49833.5,-0,50248.5,1.15997e+06
step02_gravity_refstate-mantle.xmf,949,-4.64936e-06,2.10808e-05,0,1.29386e-05,-1.39381e+09,-1.39037e+09,-1.39319e+09,1.72924e+06,0.0518585,0.245929,0,0.251337,-3970.41,-49138.1,-0,49298.2,1.72924e+06
step02_gravity_refstate-mantle.xmf,950,-8.35878e-06,2.72173e-05,0,1.41778e-05,-1.39396e+09,-1.38921e+09,-1.39285e+09,1.89487e+06,0.0449264,0.274294,0,0.277949,-2882.17,-49133.8,-0,49218.3,1.89487e+06
step02_gravity_refstate-mantle.xmf,951,1.53833e-06,6.78511e-06,0,1.2246e-06,-1.55185e+09,-1.55115e+09,-1.55206e+09,163667,0.0691364,0.0447208,0,0.0823395,-14964.9,-54024.8,-0,56059.2,163667
step02_gravity_refstate-mantle.xmf,952,1.24682e-06,7.37021e-06,0,1.69261e-06,-1.5336e+09,-1.53278e+09,-1.53376e+09,226217,0.0691929,0.0543469,0,0.0879843,-13910,-53460.5,-0,55240.5,226217
step02_gravity_refstate-mantle.xmf,953,4.4704e-07,9.14753e-06,0,3.53229e-06,-1.4816e+09,-1.48043e+09,-1.48166e+09,472091,0.0671418,0.0900422,0,0.112319,-11028.2,-51853.4,-0,53013.2,472091
step02_gravity_refstate-mantle.xmf,954,9.6519e-07,7.95994e-06,0,2.23654e-06,-1.51579e+09,-1.51485e+09,-1.51592e+09,298913,0.068839,0.0651237,0,0.0947624,-12902.4,-52910.1,-0,54460.5,298913
step02_gravity_refstate-mantle.xmf,955,6.97465e-07,8.55026e-06,0,2.84996e-06,-1.49837e+09,-1.49732e+09,-1.49847e+09,380897,0.0681278,0.0770417,0,0.102844,-11943.4,-52371.8,-0,53716.4,380897
step02_gravity_refstate-mantle.xmf,956,1.76004e-06,6.49302e-06,0,7.03984e-07,-1.61199e+09,-1.61135e+09,-1.61222e+09,94087.5,0.0710053,0.0280748,0,0.0763541,-16074.7,-55883.2,-0,58149.1,94087.5
step02_gravity_refstate-mantle.xmf,957,1.99937e-06,6.14722e-06,0,3.05149e-07,-1.672e+09,-1.67145e+09,-1.67227e+09,40783.1,0.0714519,0.0141773,0,0.0728448,-17053.8,-57737.7,-0,60203.6,40783.1
step02_gravity_refstate-mantle.xmf,958,2.1781e-06,5.87148e-06,0,1.36642e-07,-1.70545e+09,-1.70496e+09,-1.70574e+09,18262.2,0.0708876,0.00728712,0,0.0712612,-17658.9,-58771.4,-0,61367.1,18262.2
step02_gravity_refstate-mantle.xmf,959,2.37326e-06,5.54758e-06,0,-3.03569e-09,-1.74521e+09,-1.74478e+09,-1.74552e+09,-405.72,0.0695511,-1.21535e-19,0,0.0695511,-18377.3,-60000,-0,62751.3,405.72
step02_gravity_refstate-mantle.xmf,960,-1.02662e-05,3.41627e-05,0,-1.8828e-05,-1.35708e+09,-1.35115e+09,-1.35571e+09,-2.51636e+06,-0.0388325,0.33782,-0,0.340044,1903.45,-47999.6,0,48037.4,2.51636e+06
step02_gravity_refstate-mantle.xmf,961,-1.60746e-05,4.15647e-05,0,-1.66709e-05,-1.3664e+09,-1.35869e+09,-1.36425e+09,-2.22807e+06,-0.0316233,0.342289,-0,0.343747,1443.7,-48267.4,0,48288.9,2.22807e+06
step02_gravity_refstate-mantle.xmf,962,-3.21698e-06,2.11781e-05,0,-1.57411e-05,-1.34487e+09,-1.34161e+09,-1.34444e+09,-2.1038e+06,-0.0471829,0.297385,-0,0.301104,3314.19,-47636.4,0,47751.5,2.1038e+06
step02_gravity_refstate-mantle.xmf,963,-2.32449e-06,1.86948e-05,0,-1.41167e-05,-1.35154e+09,-1.34873e+09,-1.35123e+09,-1.8867e+06,-0.0496248,0.273502,-0,0.277968,3909.78,-47841.9,0,48001.3,1.8867e+06
step02_gravity_refstate-mantle.xmf,964,-7.21138e-07,1.43925e-05,0,-1.1288e-05,-1.34974e+09,-1.34772e+09,-1.34964e+09,-1.50864e+06,-0.0511381,0.239092,-0,0.244499,5095.47,-47785.9,0,48056.8,1.50864e+06
step02_gravity_refstate-mantle.xmf,965,-3.79884e-07,1.32836e-05,0,-1.01082e-05,-1.35968e+09,-1.35786e+09,-1.35963e+09,-1.35096e+06,-0.0530726,0.21829,-0,0.224649,5720.76,-48092.6,0,48431.7,1.35096e+06
step02_gravity_refstate-mantle.xmf,966,1.1729e-06,7.23852e-06,0,-3.43286e-06,-1.38086e+09,-1.38005e+09,-1.38101e+09,-458801,-0.0537353,0.116587,-0,0.128374,10933.8,-48741.6,0,49952.9,458801
step02_gravity_refstate-mantle.xmf,967,1.66969e-06,5.82181e-06,0,-1.30795e-06,-1.44472e+09,-1.44417e+09,-1.44495e+09,-174808,-0.0584312,0.0665457,-0,0.0885581,14805.9,-50714.1,0,52831.1,174808
step02_gravity_refstate-mantle.xmf,968,1.51724e-06,6.16182e-06,0,-1.74545e-06,-1.42635e+09,-1.42573e+09,-1.42655e+09,-233279,-0.0574629,0.0776554,-0,0.096604,13786.5,-50146.3,0,52006.9,233279
step02_gravity_refstate-mantle.xmf,969,1.27389e-06,6.84747e-06,0,-2.80103e-06,-1.39344e+09,-1.3927e+09,-1.39361e+09,-374358,-0.0548814,0.102937,-0,0.116654,11846.5,-49130,0,50538.1,374358
step02_gravity_refstate-mantle.xmf,970,1.38629e-06,6.497e-06,0,-2.23802e-06,-1.40917e+09,-1.40849e+09,-1.40936e+09,-299112,-0.0562388,0.0897415,-0,0.105907,12806.1,-49615.8,0,51241.8,299112
step02_gravity_refstate-mantle.xmf,971,-1.32808e-07,1.22785e-05,0,-8.93872e-06,-1.36938e+09,-1.36772e+09,-1.36936e+09,-1.19466e+06,-0.0547475,0.198527,-0,0.205937,6388.68,-48391.1,0,48811,1.19466e+06
step02_gravity_refstate-mantle.xmf,972,8.6738e-08,1.13877e-05,0,-7.86665e-06,-1.37856e+09,-1.37705e+09,-1.37857e+09,-1.05138e+06,-0.0561577,0.180342,-0,0.188883,7077.56,-48674.1,0,49185.9,1.05138e+06
step02_gravity_refstate-mantle.xmf,973,8.60993e-07,8.66135e-06,0,-4.98698e-06,-1.38516e+09,-1.38412e+09,-1.38528e+09,-666511,-0.0561134,0.138035,-0,0.149004,9335.33,-48876.1,0,49759.7,666511
step02_gravity_refstate-mantle.xmf,974,2.7698e-07,1.0594e-05,0,-6.8503e-06,-1.38846e+09,-1.38708e+09,-1.3885e+09,-915542,-0.0574994,0.16274,-0,0.172599,7812.95,-48979,0,49598.2,915542
step02_gravity_refstate-mantle.xmf,975,2.44888e-06,4.42857e-06,0,-1.42309e-07,-1.53555e+09,-1.53529e+09,-1.53588e+09,-19019.6,-0.0589405,0.0310612,-0,0.0666242,19293.3,-53521.5,0,56892.7,19019.6
step02_gravity_refstate-mantle.xmf,976,2.7156e-06,4.28128e-06,0,-4.08705e-08,-1.60881e+09,-1.6086e+09,-1.60917e+09,-5462.34,-0.0610608,0.0187946,-0,0.0638878,20335.2,-55785.7,0,59376.5,5462.34
step02_gravity_refstate-mantle.xmf,977,2.93965e-06,3.88873e-06,0,4.44629e-08,-1.64649e+09,-1.64636e+09,-1.64688e+09,5942.46,-0.0588682,0.0121988,-0,0.0601189,21681.6,-56950.2,0,60937.8,5942.46
step02_gravity_refstate-mantle.xmf,978,3.06875e-06,3.7475e-06,0,3.62207e-08,-1.70027e+09,-1.70018e+09,-1.70068e+09,4840.89,-0.0578819,0.00526875,-0,0.0581212,22459.3,-58612,0,62767.7,4840.89
step02_gravity_refstate-mantle.xmf,979,3.15698e-06,3.58957e-06,0,-2.74506e-10,-1.7452e+09,-1.74514e+09,-1.74562e+09,-36.6878,-0.0556925,-5.00795e-19,-0,0.0556925,23273,-60000,0,64355.5,36.6878
step02_gravity_refstate-mantle.xmf,980,-4.8774e-07,1.13951e-05,0,5.78052e-06,-1.45099e+09,-1.4494e+09,-1.45092e+09,772566,0.0644482,0.128648,0,0.143888,-8604.51,-50907.5,-0,51629.5,772566
step02_gravity_refstate-mantle.xmf,981,-1.85533e-05,4.32602e-05,0,1.21807e-05,-1.37347e+09,-1.36521e+09,-1.37099e+09,1.62795e+06,0.0247296,0.340993,0,0.341888,-1118.55,-48473.6,-0,48486.6,1.62795e+06
step02_gravity_refstate-mantle.xmf,982,-3.90293e-06,1.92157e-05,0,1.16541e-05,-1.40498e+09,-1.40189e+09,-1.40446e+09,1.55757e+06,0.0543942,0.224789,0,0.231277,-4548.95,-49483.5,-0,49692.1,1.55757e+06
step02_gravity_refstate-mantle.xmf,983,-6.98643e-06,2.44332e-05,0,1.30539e-05,-1.40448e+09,-1.40028e+09,-1.40355e+09,1.74465e+06,0.0482511,0.252907,0,0.257469,-3399.56,-49460.8,-0,49577.5,1.74465e+06
step02_gravity_refstate-mantle.xmf,984,1.41768e-06,7.1312e-06,0,1.06898e-06,-1.59186e+09,-1.5911e+09,-1.59205e+09,142869,0.0716826,0.0360646,0,0.0802437,-14977.7,-55260.9,-0,57254.7,142869
step02_gravity_refstate-mantle.xmf,985,1.67986e-06,6.74983e-06,0,5.25019e-07,-1.65359e+09,-1.65291e+09,-1.65381e+09,70168.8,0.0727391,0.019617,0,0.0753379,-16054.2,-57168.4,-0,59379.8,70168.8
step02_gravity_refstate-mantle.xmf,986,-5.43431e-06,2.50114e-05,0,-1.66365e-05,-1.35614e+09,-1.35207e+09,-1.35541e+09,-2.22347e+06,-0.0459661,0.305412,-0,0.308851,2853.59,-47979.3,0,48064.1,2.22347e+06
step02_gravity_refstate-mantle.xmf,987,-8.45921e-06,2.97284e-05,0,-1.71302e-05,-1.36572e+09,-1.36061e+09,-1.36459e+09,-2.28945e+06,-0.042577,0.313419,-0,0.316297,2378.75,-48267,0,48325.6,2.28945e+06
step02_gravity_refstate-mantle.xmf,988,-2.52881e-05,5.39645e-05,0,-9.68545e-06,-1.35871e+09,-1.34812e+09,-1.35533e+09,-1.29446e+06,-0.0131789,0.375525,-0,0.375757,499.828,-48000,0,48002.6,1.29446e+06
step02_gravity_refstate-mantle.xmf,989,-1.93046e-05,4.42016e-05,0,-1.12073e-05,-1.37249e+09,-1.36401e+09,-1.36991e+09,-1.49786e+06,-0.0219619,0.34531,-0,0.346008,966.202,-48440.9,0,48450.5,1.49786e+06
step02_gravity_refstate-mantle.xmf,990,-1.8546e-06,1.68677e-05,0,-1.25244e-05,-1.36114e+09,-1.35864e+09,-1.36089e+09,-1.67388e+06,-0.0519814,0.249768,-0,0.25512,4524.4,-48136.9,0,48349.1,1.67388e+06
step02_gravity_refstate-mantle.xmf,991,1.83749e-06,5.49603e-06,0,-9.36892e-07,-1.46541e+09,-1.46492e+09,-1.46565e+09,-125216,-0.0592704,0.0564006,-0,0.081817,15835.1,-51353.3,0,53739.3,125216
step02_gravity_refstate-mantle.xmf,992,9.50115e-07,8.21841e-06,0,-4.23889e-06,-1.39864e+09,-1.39767e+09,-1.39877e+09,-566527,-0.0576239,0.122692,-0,0.13555,10150.4,-49291.9,0,50326.2,566527
step02_gravity_refstate-mantle.xmf,993,3.77129e-07,9.94708e-06,0,-5.89914e-06,-1.4005e+09,-1.39922e+09,-1.40055e+09,-788420,-0.0589746,0.145738,-0,0.157218,8574.46,-49350,0,50089.4,788420
step02_gravity_refstate-mantle.xmf,994,2.24829e-06,4.79465e-06,0,-3.48019e-07,-1.51363e+09,-1.51329e+09,-1.51393e+09,-46512.8,-0.059779,0.0380497,-0,0.0708612,18117.4,-52844,0,55863.4,46512.8
step02_gravity_refstate-mantle.xmf,995,2.03185e-06,5.24211e-06,0,-6.64532e-07,-1.49482e+09,-1.49439e+09,-1.49509e+09,-88814.8,-0.060654,0.0463148,-0,0.0763149,16833.5,-52262.4,0,54906.6,88814.8
step02_gravity_refstate-mantle.xmf,996,2.51401e-06,4.61791e-06,0,-1.67039e-07,-1.57961e+09,-1.57933e+09,-1.57995e+09,-22324.8,-0.0622435,0.0250292,-0,0.0670874,19245.1,-54883.4,0,58159.8,22324.8
step02_gravity_refstate-mantle.xmf,997,-2.7377e-05,5.81719e-05,0,2.78869e-08,-1.35881e+09,-1.34738e+09,-1.35515e+09,3727.08,-6.08258e-06,0.380435,-0,0.380435,1.02887e-10,-48000,0,48000,3727.08
step02_gravity_refstate-mantle.xmf,998,-2.59544e-05,5.47484e-05,0,9.76382e-06,-1.35879e+09,-1.348e+09,-1.35532e+09,1.30493e+06,0.0131446,0.375541,0,0.375771,-499.828,-48000,-0,48002.6,1.30493e+06
step02_gravity_refstate-mantle.xmf,999,-2.46715e-05,5.15969e-05,0,3.98488e-06,-1.37271e+09,-1.36252e+09,-1.36942e+09,532580,0.00596974,0.355912,0,0.355962,-238.034,-48430.7,-0,48431.3,532580
step02_gravity_refstate-mantle.xmf,1000,-2.09842e-05,4.63289e-05,0,9.79204e-06,-1.37294e+09,-1.36394e+09,-1.37013e+09,1.30871e+06,0.0170024,0.349174,0,0.349588,-720.061,-48448.8,-0,48454.2,1.30871e+06
step02_gravity_refstate-mantle.xmf,1001,-2.54929e-05,5.2721e-05,0,-3.40992e-06,-1.37076e+09,-1.36031e+09,-1.36736e+09,-455736,-0.00448361,0.359568,-0,0.359596,176.968,-48367.9,0,48368.2,455736
step02_gravity_refstate-mantle.xmf,1002,-1.70089e-07,1.03203e-05,0,3.96078e-06,-1.49936e+09,-1.49796e+09,-1.49934e+09,529358,0.0686405,0.0920038,0,0.114788,-10302.5,-52401,-0,53404.2,529358
step02_gravity_refstate-mantle.xmf,1003,-4.2093e-07,1.09187e-05,0,4.6368e-06,-1.48529e+09,-1.48378e+09,-1.48524e+09,619708,0.0674527,0.10434,0,0.124245,-9584.37,-51966.3,-0,52842.8,619708
step02_gravity_refstate-mantle.xmf,1004,-7.46625e-07,1.16924e-05,0,5.44034e-06,-1.47219e+09,-1.47053e+09,-1.47209e+09,727102,0.0661063,0.118443,0,0.135642,-8800.65,-51561.5,-0,52307.1,727102
step02_gravity_refstate-mantle.xmf,1005,-1.64747e-05,3.92888e-05,0,1.23974e-05,-1.38452e+09,-1.37707e+09,-1.38232e+09,1.65692e+06,0.028531,0.320524,0,0.321791,-1421.76,-48818.9,-0,48839.6,1.65692e+06
step02_gravity_refstate-mantle.xmf,1006,-1.35069e-05,3.44366e-05,0,1.30553e-05,-1.39472e+09,-1.38831e+09,-1.39292e+09,1.74483e+06,0.0345058,0.297909,0,0.299901,-1912.86,-49141.3,-0,49178.5,1.74483e+06
step02_gravity_refstate-mantle.xmf,1007,-1.11065e-05,3.06702e-05,0,1.31073e-05,-1.40234e+09,-1.39676e+09,-1.40085e+09,1.75179e+06,0.0394921,0.27912,0,0.2819,-2392.55,-49383,-0,49440.9,1.75179e+06
step02_gravity_refstate-mantle.xmf,1008,-1.19148e-06,1.2714e-05,0,6.38389e-06,-1.46045e+09,-1.45859e+09,-1.46029e+09,853207,0.0645457,0.134475,0,0.149163,-7954.77,-51198.4,-0,51812.7,853207
step02_gravity_refstate-mantle.xmf,1009,-3.2918e-06,1.76631e-05,0,1.04649e-05,-1.41684e+09,-1.41404e+09,-1.4164e+09,1.39863e+06,0.0567364,0.2046,0,0.212321,-5148.02,-49849.9,-0,50115,1.39863e+06
step02_gravity_refstate-mantle.xmf,1010,-1.75308e-06,1.39197e-05,0,7.31392e-06,-1.45232e+09,-1.45022e+09,-1.45208e+09,977506,0.0629463,0.149877,0,0.162559,-7166.38,-50946.4,-0,51448,977506
step02_gravity_refstate-mantle.xmf,1011,-2.26398e-06,1.50963e-05,0,8.29882e-06,-1.44139e+09,-1.43907e+09,-1.44108e+09,1.10914e+06,0.0610364,0.166895,0,0.177706,-6447.07,-50608.4,-0,51017.4,1.10914e+06
step02_gravity_refstate-mantle.xmf,1012,-2.73888e-06,1.62847e-05,0,9.34461e-06,-1.42889e+09,-1.42635e+09,-1.42852e+09,1.24891e+06,0.0589652,0.185217,0,0.194377,-5786.79,-50222.3,-0,50554.6,1.24891e+06
step02_gravity_refstate-mantle.xmf,1013,-5.82863e-06,2.20501e-05,0,1.19197e-05,-1.41524e+09,-1.41152e+09,-1.41446e+09,1.59307e+06,0.0514424,0.231837,0,0.237476,-3967.53,-49794.8,-0,49952.6,1.59307e+06
step02_gravity_refstate-mantle.xmf,1014,-9.91793e-06,2.81975e-05,0,1.21778e-05,-1.4155e+09,-1.41041e+09,-1.41418e+09,1.62756e+06,0.0421481,0.258839,0,0.262248,-2764.68,-49791.2,-0,49867.9,1.62756e+06
step02_gravity_refstate-mantle.xmf,1015,1.06347e-06,7.7966e-06,0,1.51947e-06,-1.57237e+09,-1.57147e+09,-1.57251e+09,203077,0.0718631,0.0452405,0,0.0849177,-13914.9,-54658,-0,56401.4,203077
step02_gravity_refstate-mantle.xmf,1016,7.15909e-07,8.46455e-06,0,2.05591e-06,-1.55283e+09,-1.5518e+09,-1.55293e+09,274773,0.0715446,0.0557508,0,0.0907017,-12899.2,-54054,-0,55571.8,274773
step02_gravity_refstate-mantle.xmf,1017,5.09283e-08,9.81139e-06,0,3.33728e-06,-1.51601e+09,-1.51471e+09,-1.51602e+09,446028,0.0698245,0.0800313,0,0.10621,-11022.7,-52915.6,-0,54051.5,446028
step02_gravity_refstate-mantle.xmf,1018,3.65358e-07,9.1638e-06,0,2.68183e-06,-1.53423e+09,-1.53306e+09,-1.53428e+09,358426,0.0708613,0.0675148,0,0.0978753,-11908.4,-53478.9,-0,54788.7,358426
step02_gravity_refstate-mantle.xmf,1019,1.29482e-06,7.44234e-06,0,8.50522e-07,-1.6321e+09,-1.63128e+09,-1.63227e+09,113672,0.0735693,0.0270277,0,0.0783769,-14972.1,-56503.7,-0,58453.7,113672
step02_gravity_refstate-mantle.xmf,1020,1.65181e-06,6.90345e-06,0,2.69779e-07,-1.70013e+09,-1.69943e+09,-1.70035e+09,36055.9,0.073782,0.00971508,0,0.0744189,-16103.1,-58606.3,-0,60778.3,36055.9
step02_gravity_refstate-mantle.xmf,1021,1.91645e-06,6.46788e-06,0,-5.70939e-09,-1.74523e+09,-1.74462e+09,-1.74549e+09,-763.061,0.0727752,-1.6759e-19,0,0.0727752,-16875.3,-60000,-0,62328,763.061
step02_gravity_refstate-mantle.xmf,1022,-1.25501e-05,3.51348e-05,0,-1.60411e-05,-1.37577e+09,-1.36939e+09,-1.37409e+09,-2.1439e+06,-0.0367419,0.318105,-0,0.32022,1908.76,-48564,0,48601.5,2.1439e+06
step02_gravity_refstate-mantle.xmf,1023,-2.225e-05,4.71934e-05,0,-7.42552e-06,-1.37799e+09,-1.36871e+09,-1.37502e+09,-992421,-0.0124375,0.34478,-0,0.345004,531.603,-48598.8,0,48601.7,992421
step02_gravity_refstate-mantle.xmf,1024,-1.65634e-05,3.93171e-05,0,-1.20363e-05,-1.38628e+09,-1.37882e+09,-1.38407e+09,-1.60865e+06,-0.0278226,0.319013,-0,0.320224,1392.04,-48872.7,0,48892.5,1.60865e+06
step02_gravity_refstate-mantle.xmf,1025,-4.22433e-06,2.21737e-05,0,-1.51848e-05,-1.36381e+09,-1.36028e+09,-1.36324e+09,-2.02945e+06,-0.048816,0.282254,-0,0.286444,3390.99,-48217.1,0,48336.2,2.02945e+06
step02_gravity_refstate-mantle.xmf,1026,-3.38324e-06,1.98601e-05,0,-1.36618e-05,-1.37255e+09,-1.36944e+09,-1.3721e+09,-1.82589e+06,-0.0514036,0.259439,-0,0.264482,3963.88,-48486.7,0,48648.5,1.82589e+06
step02_gravity_refstate-mantle.xmf,1027,-1.45072e-06,1.54808e-05,0,-1.12155e-05,-1.37134e+09,-1.36908e+09,-1.37115e+09,-1.49895e+06,-0.0540512,0.22838,-0,0.234689,5124.41,-48451.1,0,48721.4,1.49895e+06
step02_gravity_refstate-mantle.xmf,1028,-1.04784e-06,1.42834e-05,0,-1.0042e-05,-1.38193e+09,-1.37988e+09,-1.38179e+09,-1.34211e+06,-0.0559606,0.208021,-0,0.215417,5754.75,-48777.8,0,49116.1,1.34211e+06
step02_gravity_refstate-mantle.xmf,1029,1.05434e-06,7.80242e-06,0,-3.55983e-06,-1.41271e+09,-1.41181e+09,-1.41285e+09,-475772,-0.0589919,0.108494,-0,0.123495,10989.4,-49726.2,0,50926.1,475772
step02_gravity_refstate-mantle.xmf,1030,1.66316e-06,6.16279e-06,0,-1.35169e-06,-1.48056e+09,-1.47996e+09,-1.48078e+09,-180653,-0.0627841,0.0597283,-0,0.0866563,14832.9,-51821.8,0,53902.8,180653
step02_gravity_refstate-mantle.xmf,1031,1.48552e-06,6.5608e-06,0,-1.80132e-06,-1.4622e+09,-1.46152e+09,-1.4624e+09,-240747,-0.062196,0.0702353,-0,0.0938154,13833.4,-51254.6,0,53088.6,240747
step02_gravity_refstate-mantle.xmf,1032,1.32e-06,6.97618e-06,0,-2.33103e-06,-1.44466e+09,-1.4439e+09,-1.44483e+09,-311542,-0.0613501,0.0820568,-0,0.102456,12838.1,-50712.6,0,52312.4,311542
step02_gravity_refstate-mantle.xmf,1033,1.17952e-06,7.37916e-06,0,-2.90892e-06,-1.42813e+09,-1.4273e+09,-1.42829e+09,-388777,-0.0602452,0.0947102,-0,0.112248,11902.3,-50202.2,0,51593.9,388777
step02_gravity_refstate-mantle.xmf,1034,-7.38712e-07,1.32059e-05,0,-8.89017e-06,-1.39234e+09,-1.39048e+09,-1.39224e+09,-1.18817e+06,-0.0576798,0.188787,-0,0.197402,6421.57,-49098.9,0,49517,1.18817e+06
step02_gravity_refstate-mantle.xmf,1035,-4.56447e-07,1.2245e-05,0,-7.82172e-06,-1.40266e+09,-1.40096e+09,-1.4026e+09,-1.04537e+06,-0.0592221,0.170769,-0,0.180746,7117.78,-49417,0,49926.9,1.04537e+06
step02_gravity_refstate-mantle.xmf,1036,5.39684e-07,9.40342e-06,0,-5.08552e-06,-1.41445e+09,-1.41326e+09,-1.41452e+09,-679680,-0.0605287,0.129501,-0,0.142949,9359.83,-49780.5,0,50652.8,679680
step02_gravity_refstate-mantle.xmf,1037,-2.20185e-07,1.14184e-05,0,-6.82856e-06,-1.41394e+09,-1.41239e+09,-1.41391e+09,-912637,-0.0607067,0.153585,-0,0.165147,7841.44,-49764.9,0,50378.9,912637
step02_gravity_refstate-mantle.xmf,1038,2.32248e-06,4.98017e-06,0,-3.50235e-07,-1.558e+09,-1.55764e+09,-1.55831e+09,-46808.9,-0.0632856,0.0310729,-0,0.0705024,18198.1,-54215.3,0,57188,46808.9
step02_gravity_refstate-mantle.xmf,1039,2.48882e-06,4.92671e-06,0,-1.95556e-07,-1.6221e+09,-1.62177e+09,-1.62243e+09,-26136,-0.0654335,0.0194962,-0,0.0682762,18903,-56196.3,0,59290.4,26136
step02_gravity_refstate-mantle.xmf,1040,2.68971e-06,4.60496e-06,0,-7.59447e-08,-1.65705e+09,-1.6568e+09,-1.65741e+09,-10150,-0.0643331,0.0128538,-0,0.0656046,19866,-57276.7,0,60624.1,10150
step02_gravity_refstate-mantle.xmf,1041,2.85968e-06,4.33101e-06,0,-1.18117e-08,-1.69963e+09,-1.69943e+09,-1.70001e+09,-1578.64,-0.0628553,0.00617137,-0,0.0631575,20777.7,-58592.1,0,62167.1,1578.64
step02_gravity_refstate-mantle.xmf,1042,2.97993e-06,4.12031e-06,0,6.54712e-10,-1.74519e+09,-1.74504e+09,-1.74559e+09,87.5023,-0.0609135,-5.85494e-19,-0,0.0609135,21571.8,-60000,0,63760.1,87.5023
step02_gravity_refstate-mantle.xmf,1043,-1.88697e-05,4.26419e-05,0,9.69178e-06,-1.38449e+09,-1.37627e+09,-1.38197e+09,1.29531e+06,0.0203534,0.32939,0,0.330019,-957.822,-48810.3,-0,48819.7,1.29531e+06
step02_gravity_refstate-mantle.xmf,1044,-4.94771e-06,2.01562e-05,0,1.08173e-05,-1.42719e+09,-1.42384e+09,-1.42653e+09,1.44574e+06,0.0542416,0.211491,0,0.218336,-4543.65,-50165,-0,50370.4,1.44574e+06
step02_gravity_refstate-mantle.xmf,1045,-8.03711e-06,2.50226e-05,0,1.15864e-05,-1.42558e+09,-1.42116e+09,-1.4245e+09,1.54853e+06,0.0469483,0.237138,0,0.241741,-3390.62,-50106.8,-0,50221.4,1.54853e+06
step02_gravity_refstate-mantle.xmf,1046,-5.82307e-07,1.08959e-05,0,3.63963e-06,-1.53034e+09,-1.52881e+09,-1.53026e+09,486436,0.0704683,0.0816689,0,0.107868,-10322.8,-53356.8,-0,54346.2,486436
step02_gravity_refstate-mantle.xmf,1047,8.69367e-07,8.19909e-06,0,1.2682e-06,-1.61186e+09,-1.61088e+09,-1.61198e+09,169494,0.0738965,0.0355813,0,0.0820166,-13893.3,-55877.7,-0,57579,169494
step02_gravity_refstate-mantle.xmf,1048,1.18215e-06,7.70756e-06,0,5.81267e-07,-1.67184e+09,-1.67097e+09,-1.672e+09,77686.3,0.0748483,0.0178017,0,0.0769362,-14942.8,-57731.3,-0,59633.8,77686.3
step02_gravity_refstate-mantle.xmf,1049,-6.91006e-06,2.61755e-05,0,-1.55967e-05,-1.37451e+09,-1.37009e+09,-1.37358e+09,-2.0845e+06,-0.046029,0.289989,-0,0.29362,2887.42,-48539.8,0,48625.6,2.0845e+06
step02_gravity_refstate-mantle.xmf,1050,-1.00818e-05,3.05228e-05,0,-1.51025e-05,-1.38471e+09,-1.37929e+09,-1.38337e+09,-2.01844e+06,-0.0412536,0.29541,-0,0.298276,2399.09,-48845,0,48903.9,2.01844e+06
step02_gravity_refstate-mantle.xmf,1051,-1.90649e-05,4.26058e-05,0,-9.00776e-06,-1.3872e+09,-1.37896e+09,-1.38465e+09,-1.20389e+06,-0.0193094,0.326499,-0,0.327069,917.901,-48892.7,0,48901.4,1.20389e+06
step02_gravity_refstate-mantle.xmf,1052,-2.86206e-06,1.80723e-05,0,-1.21934e-05,-1.38281e+09,-1.38001e+09,-1.38243e+09,-1.62964e+06,-0.0537327,0.237588,-0,0.243588,4544.63,-48802.6,0,49013.8,1.62964e+06
step02_gravity_refstate-mantle.xmf,1053,1.83711e-06,5.80548e-06,0,-1.00304e-06,-1.49832e+09,-1.49779e+09,-1.49856e+09,-134057,-0.0630781,0.0510605,-0,0.0811543,15760.9,-52370.7,0,54690.9,134057
step02_gravity_refstate-mantle.xmf,1054,6.63834e-07,8.91903e-06,0,-4.30889e-06,-1.43054e+09,-1.42944e+09,-1.43063e+09,-575883,-0.0621403,0.113837,-0,0.129693,10181.8,-50277.2,0,51297.8,575883
step02_gravity_refstate-mantle.xmf,1055,-7.23953e-08,1.07343e-05,0,-5.89154e-06,-1.42715e+09,-1.42571e+09,-1.42714e+09,-787404,-0.0622346,0.137106,-0,0.150569,8582.76,-50172.2,0,50901,787404
step02_gravity_refstate-mantle.xmf,1056,2.11176e-06,5.38575e-06,0,-5.97464e-07,-1.53807e+09,-1.53763e+09,-1.53835e+09,-79851.1,-0.0640826,0.0379495,-0,0.0744764,17128.7,-53599.3,0,56269.7,79851.1
step02_gravity_refstate-mantle.xmf,1057,2.33787e-06,5.12074e-06,0,-3.12115e-07,-1.59312e+09,-1.59275e+09,-1.59343e+09,-41714.2,-0.0655363,0.0255016,-0,0.0703231,18226.7,-55300.8,0,58227,41714.2
step02_gravity_refstate-mantle.xmf,1058,-2.27686e-05,4.77434e-05,0,-1.5719e-06,-1.38467e+09,-1.37525e+09,-1.38163e+09,-210085,-0.0022793,0.338045,-0,0.338053,99.7643,-48802.9,0,48803,210085
step02_gravity_refstate-mantle.xmf,1059,-2.10133e-05,4.47136e-05,0,5.12479e-06,-1.38978e+09,-1.381e+09,-1.38697e+09,684928,0.0104657,0.328411,0,0.328578,-485.045,-48964.8,-0,48967.2,684928
step02_gravity_refstate-mantle.xmf,1060,-8.93247e-07,1.15602e-05,0,4.28147e-06,-1.51671e+09,-1.51505e+09,-1.51659e+09,572218,0.0692794,0.0930242,0,0.115988,-9623.65,-52935.4,-0,53803.1,572218
step02_gravity_refstate-mantle.xmf,1061,-1.29602e-06,1.24024e-05,0,5.05038e-06,-1.50283e+09,-1.501e+09,-1.50266e+09,674983,0.0677741,0.106623,0,0.12634,-8836.8,-52506,-0,53244.4,674983
step02_gravity_refstate-mantle.xmf,1062,-1.82144e-06,1.34692e-05,0,5.92839e-06,-1.49004e+09,-1.48799e+09,-1.48979e+09,792330,0.065949,0.121998,0,0.138682,-7994.17,-52110.1,-0,52719.7,792330
step02_gravity_refstate-mantle.xmf,1063,-1.29812e-05,3.24684e-05,0,1.09869e-05,-1.41664e+09,-1.41057e+09,-1.41491e+09,1.4684e+06,0.0341066,0.272288,0,0.274416,-2062.9,-49816.8,-0,49859.5,1.4684e+06
step02_gravity_refstate-mantle.xmf,1064,-1.80465e-05,4.01931e-05,0,8.11169e-06,-1.39993e+09,-1.39215e+09,-1.39752e+09,1.08413e+06,0.0196502,0.308981,0,0.309605,-1005.1,-49286.5,-0,49296.8,1.08413e+06
step02_gravity_refstate-mantle.xmf,1065,-1.54615e-05,3.62358e-05,0,9.93365e-06,-1.40848e+09,-1.40157e+09,-1.40641e+09,1.32763e+06,0.0272788,0.290873,0,0.292149,-1516.69,-49557.8,-0,49581,1.32763e+06
step02_gravity_refstate-mantle.xmf,1066,-2.4519e-06,1.47105e-05,0,6.81823e-06,-1.47961e+09,-1.47731e+09,-1.47928e+09,911257,0.0638974,0.137627,0,0.151736,-7180.84,-51786.8,-0,52282.3,911257
step02_gravity_refstate-mantle.xmf,1067,-4.21611e-06,1.85547e-05,0,9.7569e-06,-1.43992e+09,-1.43688e+09,-1.43936e+09,1.30401e+06,0.0568585,0.19174,0,0.199993,-5148.97,-50559.1,-0,50820.6,1.30401e+06
step02_gravity_refstate-mantle.xmf,1068,-3.02565e-06,1.59153e-05,0,7.74913e-06,-1.46703e+09,-1.4645e+09,-1.46663e+09,1.03567e+06,0.061668,0.15453,0,0.166381,-6454.68,-51397.6,-0,51801.3,1.03567e+06
step02_gravity_refstate-mantle.xmf,1069,-3.6098e-06,1.71881e-05,0,8.72841e-06,-1.45369e+09,-1.45091e+09,-1.45321e+09,1.16655e+06,0.0593045,0.17261,0,0.182514,-5778.44,-50985,-0,51311.4,1.16655e+06
step02_gravity_refstate-mantle.xmf,1070,-6.73939e-06,2.26594e-05,0,1.07652e-05,-1.43663e+09,-1.4327e+09,-1.43573e+09,1.43877e+06,0.0505861,0.217076,0,0.222892,-3972.01,-50450.9,-0,50607,1.43877e+06
step02_gravity_refstate-mantle.xmf,1071,-1.01708e-05,2.77161e-05,0,1.06056e-05,-1.43576e+09,-1.4307e+09,-1.43441e+09,1.41744e+06,0.0412508,0.239808,0,0.24333,-2845.55,-50414.2,-0,50494.5,1.41744e+06
step02_gravity_refstate-mantle.xmf,1072,4.48353e-07,8.9536e-06,0,1.77465e-06,-1.59156e+09,-1.59042e+09,-1.59162e+09,237181,0.0736512,0.0454657,0,0.0865542,-12876.6,-55249.6,-0,56730.3,237181
step02_gravity_refstate-mantle.xmf,1073,5.62685e-09,9.7606e-06,0,2.38418e-06,-1.57163e+09,-1.57032e+09,-1.57163e+09,318646,0.072942,0.0569015,0,0.0925112,-11863.8,-54633,-0,55906.3,318646
step02_gravity_refstate-mantle.xmf,1074,-5.11441e-07,1.07113e-05,0,3.14367e-06,-1.55231e+09,-1.55081e+09,-1.55224e+09,420152,0.0717696,0.0704654,0,0.100579,-10790.2,-54035.4,-0,55102.2,420152
step02_gravity_refstate-mantle.xmf,1075,6.9694e-07,8.5367e-06,0,9.49688e-07,-1.65102e+09,-1.64997e+09,-1.65111e+09,126926,0.0753073,0.0255748,0,0.0795315,-13859.4,-57086.9,-0,58745.2,126926
step02_gravity_refstate-mantle.xmf,1076,9.76031e-07,8.12524e-06,0,3.13492e-07,-1.70952e+09,-1.70856e+09,-1.70965e+09,41898.2,0.0758358,0.00904062,0,0.0763728,-14634.6,-58894.8,-0,60685.8,41898.2
step02_gravity_refstate-mantle.xmf,1077,1.34526e-06,7.52946e-06,0,-4.65324e-09,-1.74526e+09,-1.74444e+09,-1.74544e+09,-621.906,0.0751254,-1.61475e-19,0,0.0751254,-15431.1,-60000,-0,61952.6,621.906
step02_gravity_refstate-mantle.xmf,1078,-1.31613e-05,3.41899e-05,0,-1.31455e-05,-1.39537e+09,-1.38904e+09,-1.39361e+09,-1.75689e+06,-0.034787,0.296555,-0,0.298588,1939.97,-49162.9,0,49201.2,1.75689e+06
step02_gravity_refstate-mantle.xmf,1079,-2.04671e-05,4.3703e-05,0,-5.23208e-06,-1.39374e+09,-1.38516e+09,-1.39101e+09,-699267,-0.0111082,0.322579,-0,0.32277,528.956,-49088.2,0,49091,699267
step02_gravity_refstate-mantle.xmf,1080,-1.78258e-05,3.99272e-05,0,-8.3513e-06,-1.40015e+09,-1.39243e+09,-1.39777e+09,-1.11615e+06,-0.0203887,0.308096,-0,0.308769,1047.82,-49294.2,0,49305.3,1.11615e+06
step02_gravity_refstate-mantle.xmf,1081,-5.58958e-06,2.334e-05,0,-1.4295e-05,-1.38354e+09,-1.37967e+09,-1.38279e+09,-1.91053e+06,-0.0491073,0.267711,-0,0.272177,3418.53,-48820.4,0,48940,1.91053e+06
step02_gravity_refstate-mantle.xmf,1082,-4.63948e-06,2.10589e-05,0,-1.29291e-05,-1.39375e+09,-1.39032e+09,-1.39313e+09,-1.72798e+06,-0.0518791,0.245855,-0,0.251269,3974.72,-49136.4,0,49296.9,1.72798e+06
step02_gravity_refstate-mantle.xmf,1083,-2.34853e-06,1.65771e-05,0,-1.0924e-05,-1.39359e+09,-1.39107e+09,-1.39328e+09,-1.46e+06,-0.0558786,0.216837,-0,0.223921,5147.73,-49135.4,0,49404.3,1.46e+06
step02_gravity_refstate-mantle.xmf,1084,-1.8512e-06,1.52913e-05,0,-9.79161e-06,-1.40486e+09,-1.40256e+09,-1.40461e+09,-1.30865e+06,-0.057886,0.197031,-0,0.205358,5779.64,-49483.3,0,49819.6,1.30865e+06
step02_gravity_refstate-mantle.xmf,1085,1.87171e-06,5.93754e-06,0,-9.12189e-07,-1.53148e+09,-1.53094e+09,-1.53173e+09,-121914,-0.0657265,0.0437751,-0,0.0789698,16016.8,-53395.6,0,55746.1,121914
step02_gravity_refstate-mantle.xmf,1086,1.61481e-06,6.47744e-06,0,-1.32271e-06,-1.51529e+09,-1.51464e+09,-1.51551e+09,-176780,-0.066228,0.0525931,-0,0.0845705,14891.5,-52895.2,0,54951.5,176780
step02_gravity_refstate-mantle.xmf,1087,8.08739e-07,8.43536e-06,0,-3.58891e-06,-1.44651e+09,-1.44549e+09,-1.44661e+09,-479657,-0.0634866,0.0994516,-0,0.117988,11038.9,-50770.1,0,51956.3,479657
step02_gravity_refstate-mantle.xmf,1088,1.38738e-06,6.96642e-06,0,-1.78695e-06,-1.49742e+09,-1.49667e+09,-1.49761e+09,-238826,-0.0660283,0.0626072,-0,0.0909912,13870.8,-52342.9,0,54149.6,238826
step02_gravity_refstate-mantle.xmf,1089,1.17125e-06,7.46443e-06,0,-2.32736e-06,-1.48002e+09,-1.47918e+09,-1.48017e+09,-311051,-0.0654891,0.0738313,-0,0.0986908,12877.8,-51805.2,0,53381.8,311051
step02_gravity_refstate-mantle.xmf,1090,9.7557e-07,7.9588e-06,0,-2.93214e-06,-1.46313e+09,-1.46219e+09,-1.46326e+09,-391881,-0.0646376,0.0861387,-0,0.107694,11930.6,-51283.4,0,52652.9,391881
step02_gravity_refstate-mantle.xmf,1091,-1.46133e-06,1.41497e-05,0,-8.67915e-06,-1.4162e+09,-1.41412e+09,-1.41601e+09,-1.15997e+06,-0.0597503,0.178273,-0,0.188019,6444.6,-49833.5,0,50248.5,1.15997e+06
step02_gravity_refstate-mantle.xmf,1092,-1.10137e-06,1.31259e-05,0,-7.64755e-06,-1.42738e+09,-1.42548e+09,-1.42723e+09,-1.02209e+06,-0.0614448,0.160767,-0,0.172109,7136.35,-50178.6,0,50683.5,1.02209e+06
step02_gravity_refstate-mantle.xmf,1093,3.0014e-08,1.03062e-05,0,-5.07998e-06,-1.44813e+09,-1.44676e+09,-1.44814e+09,-678940,-0.0643778,0.119439,-0,0.135684,9346.93,-50819.9,0,51672.3,678940
step02_gravity_refstate-mantle.xmf,1094,-7.86368e-07,1.22378e-05,0,-6.72383e-06,-1.43808e+09,-1.43634e+09,-1.43797e+09,-898640,-0.0629172,0.145063,-0,0.15812,7824.57,-50508.9,0,51111.3,898640
step02_gravity_refstate-mantle.xmf,1095,2.10784e-06,5.66133e-06,0,-5.29372e-07,-1.5882e+09,-1.58772e+09,-1.58848e+09,-70750.5,-0.0675656,0.0292168,-0,0.073612,17178.8,-55148.5,0,57762.2,70750.5
step02_gravity_refstate-mantle.xmf,1096,2.15111e-06,5.73587e-06,0,-3.97553e-07,-1.62899e+09,-1.62851e+09,-1.62928e+09,-53132.9,-0.0691678,0.0213864,-0,0.0723986,17426.2,-56409,0,59039.4,53132.9
step02_gravity_refstate-mantle.xmf,1097,2.36616e-06,5.37558e-06,0,-1.97718e-07,-1.66519e+09,-1.66479e+09,-1.6655e+09,-26425.1,-0.0684938,0.0135871,-0,0.0698284,18320.6,-57527.7,0,60374.5,26425.1
step02_gravity_refstate-mantle.xmf,1098,2.56046e-06,5.05572e-06,0,-7.09599e-08,-1.70314e+09,-1.7028e+09,-1.70348e+09,-9483.79,-0.067327,0.00664023,-0,0.0676536,19147.9,-58700.5,0,61744.5,9483.79
step02_gravity_refstate-mantle.xmf,1099,2.72415e-06,4.76769e-06,0,1.76125e-09,-1.7452e+09,-1.74492e+09,-1.74556e+09,235.392,-0.0655636,-6.28804e-19,-0,0.0655636,19941.4,-60000,0,63227.1,235.392
step02_gravity_refstate-mantle.xmf,1100,-1.16897e-05,3.01454e-05,0,1.04014e-05,-1.43001e+09,-1.42442e+09,-1.42845e+09,1.39014e+06,0.0366905,0.253513,0,0.256154,-2380.13,-50232.5,-0,50288.9,1.39014e+06
step02_gravity_refstate-mantle.xmf,1101,-5.7825e-06,2.08088e-05,0,9.86661e-06,-1.44897e+09,-1.44541e+09,-1.4482e+09,1.31867e+06,0.053657,0.197741,0,0.204891,-4546.43,-50833.8,-0,51036.7,1.31867e+06
step02_gravity_refstate-mantle.xmf,1102,-8.66674e-06,2.52012e-05,0,1.02224e-05,-1.44612e+09,-1.4416e+09,-1.44497e+09,1.36622e+06,0.0455916,0.221204,0,0.225854,-3395.12,-50737.9,-0,50851.3,1.36622e+06
step02_gravity_refstate-mantle.xmf,1103,-1.25718e-06,1.20145e-05,0,3.82815e-06,-1.54655e+09,-1.54478e+09,-1.54638e+09,511633,0.070582,0.0813282,0,0.107685,-9713.27,-53855.8,-0,54724.7,511633
step02_gravity_refstate-mantle.xmf,1104,2.01369e-07,9.38344e-06,0,1.40537e-06,-1.63078e+09,-1.62956e+09,-1.63081e+09,187828,0.0751513,0.0345091,0,0.0826958,-12843.1,-56460.8,-0,57903.1,187828
step02_gravity_refstate-mantle.xmf,1105,6.30255e-07,8.66346e-06,0,6.20808e-07,-1.68344e+09,-1.68236e+09,-1.68352e+09,82970.9,0.0760192,0.0168157,0,0.0778568,-13921,-58088.2,-0,59733,82970.9
step02_gravity_refstate-mantle.xmf,1106,-1.5466e-05,3.6422e-05,0,-1.01931e-05,-1.40617e+09,-1.39924e+09,-1.40411e+09,-1.3623e+06,-0.0275702,0.293391,-0,0.294684,1519.93,-49487,0,49510.3,1.3623e+06
step02_gravity_refstate-mantle.xmf,1107,-8.31325e-06,2.70809e-05,0,-1.40472e-05,-1.39414e+09,-1.38941e+09,-1.39303e+09,-1.87741e+06,-0.0450379,0.273755,-0,0.277435,2897.24,-49139.4,0,49224.7,1.87741e+06
step02_gravity_refstate-mantle.xmf,1108,-1.10949e-05,3.06393e-05,0,-1.28954e-05,-1.4043e+09,-1.39873e+09,-1.40282e+09,-1.72347e+06,-0.0393226,0.277197,-0,0.279972,2395.26,-49443.7,0,49501.7,1.72347e+06
step02_gravity_refstate-mantle.xmf,1109,-3.95595e-06,1.92085e-05,0,-1.15867e-05,-1.40498e+09,-1.40188e+09,-1.40445e+09,-1.54857e+06,-0.0543993,0.224769,-0,0.231258,4550.26,-49482.9,0,49691.7,1.54857e+06
step02_gravity_refstate-mantle.xmf,1110,2.67217e-07,9.64588e-06,0,-4.22193e-06,-1.46428e+09,-1.46302e+09,-1.46431e+09,-564260,-0.0658079,0.103603,-0,0.122737,10229.1,-51318.5,0,52328,564260
step02_gravity_refstate-mantle.xmf,1111,-4.87731e-07,1.13951e-05,0,-5.78055e-06,-1.45099e+09,-1.4494e+09,-1.45092e+09,-772571,-0.0644483,0.128648,-0,0.143888,8604.51,-50907.5,0,51629.5,772571
step02_gravity_refstate-mantle.xmf,1112,1.83347e-06,6.19755e-06,0,-8.40122e-07,-1.56867e+09,-1.56808e+09,-1.56891e+09,-112282,-0.0684928,0.0366046,-0,0.0776606,16063.9,-54544.7,0,56861,112282
step02_gravity_refstate-mantle.xmf,1113,-2.037e-05,4.31909e-05,0,-4.58941e-07,-1.40138e+09,-1.39289e+09,-1.39866e+09,-61337.5,-0.000656221,0.314463,-0,0.314463,31.7814,-49323.6,0,49323.6,61337.5
step02_gravity_refstate-mantle.xmf,1114,-1.89934e-05,4.07809e-05,0,3.67715e-06,-1.40995e+09,-1.40196e+09,-1.40741e+09,491451,0.00928432,0.301645,0,0.301788,-482.175,-49591.3,-0,49593.6,491451
step02_gravity_refstate-mantle.xmf,1115,-1.80321e-06,1.30237e-05,0,4.57065e-06,-1.53314e+09,-1.53116e+09,-1.5329e+09,610868,0.0688569,0.0944937,0,0.11692,-8860.05,-53440.4,-0,54169.9,610868
step02_gravity_refstate-mantle.xmf,1116,-2.38295e-06,1.41068e-05,0,5.37746e-06,-1.51933e+09,-1.51713e+09,-1.51902e+09,718698,0.0667918,0.109124,0,0.127942,-8029.28,-53012.9,-0,53617.5,718698
step02_gravity_refstate-mantle.xmf,1117,-3.0243e-06,1.53014e-05,0,6.21159e-06,-1.50634e+09,-1.50389e+09,-1.50594e+09,830179,0.0644392,0.124636,0,0.140309,-7227.63,-52610.4,-0,53104.5,830179
step02_gravity_refstate-mantle.xmf,1118,-1.48724e-05,3.44432e-05,0,8.12729e-06,-1.42832e+09,-1.42173e+09,-1.42633e+09,1.08621e+06,0.0256382,0.26901,0,0.270229,-1531.78,-50170.1,-0,50193.4,1.08621e+06
step02_gravity_refstate-mantle.xmf,1119,-1.69736e-05,3.76468e-05,0,6.37805e-06,-1.41929e+09,-1.41199e+09,-1.41703e+09,852426,0.0179815,0.285722,0,0.286287,-1000.98,-49885.3,-0,49895.4,852426
step02_gravity_refstate-mantle.xmf,1120,-1.31802e-05,3.20098e-05,0,9.14177e-06,-1.43398e+09,-1.42794e+09,-1.43222e+09,1.2218e+06,0.0313401,0.256576,0,0.258483,-1976.9,-50349.9,-0,50388.7,1.2218e+06
step02_gravity_refstate-mantle.xmf,1121,-3.72438e-06,1.66134e-05,0,7.07031e-06,-1.49348e+09,-1.49076e+09,-1.49298e+09,944947,0.0618061,0.141212,0,0.154146,-6459.94,-52211.7,-0,52609.8,944947
step02_gravity_refstate-mantle.xmf,1122,-5.14039e-06,1.94276e-05,0,8.90653e-06,-1.46445e+09,-1.46116e+09,-1.46376e+09,1.19036e+06,0.0562255,0.178281,0,0.186937,-5102.21,-51312.7,-0,51565.7,1.19036e+06
step02_gravity_refstate-mantle.xmf,1123,-4.44672e-06,1.8019e-05,0,7.99068e-06,-1.47933e+09,-1.47633e+09,-1.47874e+09,1.06795e+06,0.0589637,0.159439,0,0.169993,-5735.34,-51773.4,-0,52090.2,1.06795e+06
step02_gravity_refstate-mantle.xmf,1124,-1.2165e-05,3.01665e-05,0,8.92373e-06,-1.44574e+09,-1.44008e+09,-1.44412e+09,1.19266e+06,0.0338802,0.240915,0,0.243286,-2260.37,-50715.3,-0,50765.7,1.19266e+06
step02_gravity_refstate-mantle.xmf,1125,-7.33433e-06,2.29237e-05,0,9.65334e-06,-1.45714e+09,-1.45309e+09,-1.45616e+09,1.29017e+06,0.0497156,0.202186,0,0.208209,-4000.46,-51081.1,-0,51237.5,1.29017e+06
step02_gravity_refstate-mantle.xmf,1126,-1.06045e-05,2.76448e-05,0,9.1068e-06,-1.45544e+09,-1.45033e+09,-1.45403e+09,1.21712e+06,0.0391113,0.223967,0,0.227356,-2792.81,-51019,-0,51095.4,1.21712e+06
step02_gravity_refstate-mantle.xmf,1127,-3.11548e-07,1.0258e-05,0,1.96708e-06,-1.60988e+09,-1.60847e+09,-1.60984e+09,262900,0.0744247,0.0451883,0,0.087069,-11845.1,-55813.9,-0,57057,262900
step02_gravity_refstate-mantle.xmf,1128,-8.6261e-07,1.1203e-05,0,2.6172e-06,-1.59053e+09,-1.58891e+09,-1.59041e+09,349789,0.0732305,0.0570808,0,0.0928489,-10857,-55214.8,-0,56272.1,349789
step02_gravity_refstate-mantle.xmf,1129,-1.55394e-06,1.23688e-05,0,3.28509e-06,-1.57753e+09,-1.57567e+09,-1.57732e+09,439052,0.0716371,0.0687007,0,0.0992555,-9834.51,-54811.7,-0,55687,439052
step02_gravity_refstate-mantle.xmf,1130,-4.27178e-09,9.74104e-06,0,9.20992e-07,-1.67361e+09,-1.6723e+09,-1.6736e+09,123091,0.0761877,0.0219874,0,0.079297,-12800.5,-57783.1,-0,59183.9,123091
step02_gravity_refstate-mantle.xmf,1131,2.57773e-07,9.3349e-06,0,4.00405e-07,-1.71119e+09,-1.70998e+09,-1.71123e+09,53514.1,0.0766353,0.00991041,0,0.0772734,-13367.9,-58944.9,-0,60441.7,53514.1
step02_gravity_refstate-mantle.xmf,1132,6.35975e-07,8.75878e-06,0,-6.63574e-09,-1.74532e+09,-1.74423e+09,-1.7454e+09,-886.866,0.0765015,-1.68462e-19,0,0.0765015,-14040.5,-60000,-0,61620.9,886.866
step02_gravity_refstate-mantle.xmf,1133,-1.33422e-05,3.33332e-05,0,-1.12705e-05,-1.41097e+09,-1.40473e+09,-1.40919e+09,-1.5063e+06,-0.0333152,0.280036,-0,0.28201,1957.49,-49641.5,0,49680.1,1.5063e+06
step02_gravity_refstate-mantle.xmf,1134,-1.88008e-05,4.05138e-05,0,-4.0783e-06,-1.4106e+09,-1.40267e+09,-1.40809e+09,-545064,-0.0103614,0.300426,-0,0.300604,541.307,-49612,0,49614.9,545064
step02_gravity_refstate-mantle.xmf,1135,-1.66992e-05,3.73429e-05,0,-6.891e-06,-1.41889e+09,-1.41167e+09,-1.41666e+09,-920983,-0.0195043,0.285175,-0,0.285841,1090.21,-49874,0,49885.9,920983
step02_gravity_refstate-mantle.xmf,1136,-6.90934e-06,2.43045e-05,0,-1.30347e-05,-1.40425e+09,-1.40007e+09,-1.40332e+09,-1.74209e+06,-0.0484219,0.25253,-0,0.257131,3422.28,-49453.7,0,49571.9,1.74209e+06
step02_gravity_refstate-mantle.xmf,1137,-5.81159e-06,2.20288e-05,0,-1.19227e-05,-1.41511e+09,-1.41139e+09,-1.41434e+09,-1.59347e+06,-0.0514676,0.231842,-0,0.237486,3971.13,-49790.9,0,49949,1.59347e+06
step02_gravity_refstate-mantle.xmf,1138,-3.34005e-06,1.76629e-05,0,-1.04124e-05,-1.41685e+09,-1.41404e+09,-1.4164e+09,-1.39162e+06,-0.0567369,0.204598,-0,0.21232,5148.11,-49849.8,0,50114.9,1.39162e+06
step02_gravity_refstate-mantle.xmf,1139,-2.73895e-06,1.62847e-05,0,-9.34446e-06,-1.42889e+09,-1.42635e+09,-1.42852e+09,-1.24889e+06,-0.0589654,0.185217,-0,0.194377,5786.82,-50222.3,0,50554.6,1.24889e+06
step02_gravity_refstate-mantle.xmf,1140,1.53849e-06,6.78456e-06,0,-1.22449e-06,-1.55183e+09,-1.55113e+09,-1.55203e+09,-163653,-0.0691341,0.0447231,-0,0.0823388,14965.4,-54024.1,0,56058.6,163653
step02_gravity_refstate-mantle.xmf,1141,1.24716e-06,7.36938e-06,0,-1.69252e-06,-1.53355e+09,-1.53274e+09,-1.53372e+09,-226205,-0.0691889,0.0543538,-0,0.0879855,13910.5,-53459.2,0,55239.4,226205
step02_gravity_refstate-mantle.xmf,1142,4.62849e-07,9.11455e-06,0,-3.51212e-06,-1.48143e+09,-1.48027e+09,-1.48149e+09,-469395,-0.0671142,0.0898088,-0,0.112116,11056.6,-51848.2,0,53014,469395
step02_gravity_refstate-mantle.xmf,1143,9.63808e-07,7.96267e-06,0,-2.23807e-06,-1.51578e+09,-1.51485e+09,-1.51591e+09,-299118,-0.0688414,0.0651484,-0,0.0947811,12899.2,-52909.8,0,54459.5,299118
step02_gravity_refstate-mantle.xmf,1144,6.90371e-07,8.5641e-06,0,-2.85971e-06,-1.49833e+09,-1.49728e+09,-1.49842e+09,-382200,-0.0681345,0.0771829,-0,0.102954,11928.1,-52370.5,0,53711.7,382200
step02_gravity_refstate-mantle.xmf,1145,-2.26397e-06,1.50963e-05,0,-8.29882e-06,-1.44139e+09,-1.43907e+09,-1.44108e+09,-1.10914e+06,-0.0610364,0.166895,-0,0.177706,6447.07,-50608.4,0,51017.4,1.10914e+06
step02_gravity_refstate-mantle.xmf,1146,-1.75307e-06,1.39197e-05,0,-7.31391e-06,-1.45232e+09,-1.45022e+09,-1.45208e+09,-977505,-0.0629464,0.149877,-0,0.162559,7166.38,-50946.4,0,51448,977505
step02_gravity_refstate-mantle.xmf,1147,-4.2056e-07,1.09183e-05,0,-4.63549e-06,-1.48533e+09,-1.48381e+09,-1.48527e+09,-619533,-0.0674555,0.104317,-0,0.124227,9585.44,-51967.4,0,52844,619533
step02_gravity_refstate-mantle.xmf,1148,-1.19147e-06,1.2714e-05,0,-6.38389e-06,-1.46045e+09,-1.45859e+09,-1.46029e+09,-853207,-0.0645457,0.134475,-0,0.149163,7954.77,-51198.4,0,51812.7,853207
step02_gravity_refstate-mantle.xmf,1149,-7.46623e-07,1.16924e-05,0,-5.44031e-06,-1.47219e+09,-1.47053e+09,-1.47209e+09,-727098,-0.0661064,0.118443,-0,0.135642,8800.65,-51561.5,0,52307.1,727098
step02_gravity_refstate-mantle.xmf,1150,1.77735e-06,6.45649e-06,0,-7.02567e-07,-1.61063e+09,-1.61001e+09,-1.61087e+09,-93898,-0.070868,0.0282243,-0,0.0762816,16114.8,-55841.4,0,58120.1,93898
step02_gravity_refstate-mantle.xmf,1151,2.02321e-06,6.09927e-06,0,-3.05338e-07,-1.67055e+09,-1.67e+09,-1.67082e+09,-40808.4,-0.0712825,0.0143551,-0,0.0727135,17118.4,-57692.8,0,60178.9,40808.4
step02_gravity_refstate-mantle.xmf,1152,2.15481e-06,5.91607e-06,0,-1.41622e-07,-1.7049e+09,-1.70439e+09,-1.70519e+09,-18927.8,-0.071032,0.00744154,-0,0.0714207,17588.4,-58754.3,0,61330.5,18927.8
step02_gravity_refstate-mantle.xmf,1153,2.37464e-06,5.54537e-06,0,3.19086e-09,-1.74521e+09,-1.74478e+09,-1.74552e+09,426.459,-0.0695507,-7.03853e-19,-0,0.0695507,18377.3,-60000,0,62751.3,426.459
step02_gravity_refstate-mantle.xmf,1154,-6.47283e-06,2.13153e-05,0,8.96739e-06,-1.4685e+09,-1.46479e+09,-1.46763e+09,1.19849e+06,0.0526633,0.18572,0,0.193042,-4511.26,-51433.7,-0,51631.2,1.19849e+06
step02_gravity_refstate-mantle.xmf,1155,-9.11922e-06,2.52474e-05,0,8.962e-06,-1.46646e+09,-1.46187e+09,-1.46524e+09,1.19777e+06,0.0440481,0.205686,0,0.21035,-3380.24,-51363.1,-0,51474.2,1.19777e+06
step02_gravity_refstate-mantle.xmf,1156,-2.22542e-06,1.35136e-05,0,3.99621e-06,-1.56366e+09,-1.56155e+09,-1.56336e+09,534093,0.0696012,0.0815654,0,0.107225,-8907.63,-54381.6,-0,55106.2,534093
step02_gravity_refstate-mantle.xmf,1157,-5.89938e-07,1.06911e-05,0,1.48399e-06,-1.64764e+09,-1.64613e+09,-1.64756e+09,198335,0.0753746,0.0331987,0,0.0823619,-11794.2,-56979.4,-0,58187.2,198335
step02_gravity_refstate-mantle.xmf,1158,-1.45306e-05,3.42267e-05,0,-8.96878e-06,-1.42396e+09,-1.41744e+09,-1.42202e+09,-1.19868e+06,-0.0278457,0.271803,-0,0.273226,1656.29,-50037.1,0,50064.5,1.19868e+06
step02_gravity_refstate-mantle.xmf,1159,-1.19953e-05,3.08352e-05,0,-1.06669e-05,-1.42499e+09,-1.41926e+09,-1.42338e+09,-1.42563e+06,-0.0359305,0.26013,-0,0.2626,2275.98,-50077,0,50128.7,1.42563e+06
step02_gravity_refstate-mantle.xmf,1160,-9.40568e-06,2.76147e-05,0,-1.22934e-05,-1.4146e+09,-1.40966e+09,-1.41335e+09,-1.64301e+06,-0.0432797,0.257173,-0,0.260789,2874.64,-49765.4,0,49848.4,1.64301e+06
step02_gravity_refstate-mantle.xmf,1161,-4.95142e-06,2.01227e-05,0,-1.07728e-05,-1.42688e+09,-1.42353e+09,-1.42622e+09,-1.43979e+06,-0.0542793,0.211553,-0,0.218406,4550.06,-50155.3,0,50361.2,1.43979e+06
step02_gravity_refstate-mantle.xmf,1162,-1.6752e-07,1.03145e-05,0,-3.9541e-06,-1.4995e+09,-1.4981e+09,-1.49948e+09,-528466,-0.0686516,0.0918891,-0,0.114702,10309.4,-52405.4,0,53409.8,528466
step02_gravity_refstate-mantle.xmf,1163,1.41877e-06,7.12972e-06,0,-1.06943e-06,-1.59181e+09,-1.59105e+09,-1.592e+09,-142929,-0.0716781,0.0360694,-0,0.0802418,14979.1,-55259.4,0,57253.6,142929
step02_gravity_refstate-mantle.xmf,1164,1.70356e-06,6.70369e-06,0,-5.22225e-07,-1.6524e+09,-1.65173e+09,-1.65263e+09,-69795.4,-0.0726021,0.0197418,-0,0.0752384,16112.7,-57131.7,0,59360.4,69795.4
step02_gravity_refstate-mantle.xmf,1165,-1.85516e-05,3.97389e-05,0,-3.51478e-07,-1.41969e+09,-1.4119e+09,-1.41721e+09,-46975,-0.000663753,0.290865,-0,0.290866,35.7424,-49892.5,0,49892.5,46975
step02_gravity_refstate-mantle.xmf,1166,-1.74698e-05,3.78109e-05,0,2.79515e-06,-1.42952e+09,-1.42213e+09,-1.42719e+09,373571,0.00835242,0.277827,0,0.277952,-473.799,-50198.4,-0,50200.7,373571
step02_gravity_refstate-mantle.xmf,1167,-2.90156e-06,1.46816e-05,0,4.75545e-06,-1.54907e+09,-1.54672e+09,-1.54869e+09,635566,0.067197,0.0958243,0,0.117037,-8039.31,-53929.6,-0,54525.5,635566
step02_gravity_refstate-mantle.xmf,1168,-3.58664e-06,1.58782e-05,0,5.52105e-06,-1.53484e+09,-1.53224e+09,-1.53436e+09,737888,0.0645554,0.110829,0,0.128259,-7237.92,-53488.3,-0,53975.8,737888
step02_gravity_refstate-mantle.xmf,1169,-4.33356e-06,1.71862e-05,0,6.30061e-06,-1.52078e+09,-1.5179e+09,-1.5202e+09,842076,0.0615951,0.126955,0,0.141109,-6463.67,-53052.4,-0,53444.7,842076
step02_gravity_refstate-mantle.xmf,1170,-1.4002e-05,3.24197e-05,0,7.01551e-06,-1.44917e+09,-1.44296e+09,-1.4473e+09,937622,0.0256434,0.246002,0,0.247335,-1649.29,-50814.7,-0,50841.4,937622
step02_gravity_refstate-mantle.xmf,1171,-1.59231e-05,3.53334e-05,0,5.10258e-06,-1.43966e+09,-1.43281e+09,-1.43753e+09,681960,0.0167531,0.262665,0,0.263199,-1007.83,-50515.5,-0,50525.5,681960
step02_gravity_refstate-mantle.xmf,1172,-5.16761e-06,1.86503e-05,0,7.09239e-06,-1.50646e+09,-1.50327e+09,-1.50577e+09,947898,0.0582877,0.144514,0,0.155826,-5709.15,-52608.1,-0,52917,947898
step02_gravity_refstate-mantle.xmf,1173,-6.24334e-06,2.05137e-05,0,7.99011e-06,-1.48978e+09,-1.48621e+09,-1.48895e+09,1.06788e+06,0.0541825,0.16608,0,0.174695,-4890.88,-52090.6,-0,52319.7,1.06788e+06
step02_gravity_refstate-mantle.xmf,1174,-1.23727e-05,2.98081e-05,0,7.46958e-06,-1.46318e+09,-1.45754e+09,-1.46152e+09,998309,0.0312563,0.226223,0,0.228373,-2159.67,-51251.6,-0,51297,998309
step02_gravity_refstate-mantle.xmf,1175,-7.91007e-06,2.31029e-05,0,8.33125e-06,-1.48197e+09,-1.47782e+09,-1.48091e+09,1.11347e+06,0.0483136,0.184605,0,0.190822,-4000.51,-51844.7,-0,51998.9,1.11347e+06
step02_gravity_refstate-mantle.xmf,1176,-1.08223e-05,2.73975e-05,0,7.83855e-06,-1.47418e+09,-1.46907e+09,-1.47273e+09,1.04762e+06,0.0371596,0.20882,0,0.2121,-2742.92,-51595.6,-0,51668.5,1.04762e+06
step02_gravity_refstate-mantle.xmf,1177,-1.19392e-06,1.16715e-05,0,2.06576e-06,-1.62765e+09,-1.62593e+09,-1.62749e+09,276089,0.0741172,0.0440676,0,0.0862282,-10840.6,-56360.6,-0,57393.7,276089
step02_gravity_refstate-mantle.xmf,1178,-2.601e-06,1.39468e-05,0,3.34834e-06,-1.59556e+09,-1.59335e+09,-1.59522e+09,447506,0.0700668,0.0677879,0,0.0974913,-8941.92,-55365.8,-0,56083.2,447506
step02_gravity_refstate-mantle.xmf,1179,-1.87522e-06,1.27737e-05,0,2.68683e-06,-1.61101e+09,-1.60905e+09,-1.61076e+09,359094,0.0723463,0.0554348,0,0.0911428,-9877.13,-55844.8,-0,56711.5,359094
step02_gravity_refstate-mantle.xmf,1180,-8.6409e-07,1.1097e-05,0,1.02672e-06,-1.68022e+09,-1.67862e+09,-1.6801e+09,137221,0.0757899,0.0226732,0,0.0791087,-11652.1,-57985,-0,59144.2,137221
step02_gravity_refstate-mantle.xmf,1181,-5.84445e-07,1.0693e-05,0,5.2377e-07,-1.7102e+09,-1.70869e+09,-1.71012e+09,70001.9,0.0764224,0.0117071,0,0.0773139,-12117,-58912,-0,60145.2,70001.9
step02_gravity_refstate-mantle.xmf,1182,-2.04333e-07,1.01395e-05,0,-7.29787e-09,-1.74538e+09,-1.744e+09,-1.74536e+09,-975.361,0.0767934,-1.91138e-19,0,0.0767934,-12699.5,-60000,-0,61329.3,975.361
step02_gravity_refstate-mantle.xmf,1183,-1.73511e-05,3.77014e-05,0,-3.35539e-06,-1.42915e+09,-1.42179e+09,-1.42683e+09,-448448,-0.00998325,0.277773,-0,0.277952,566.988,-50187.4,0,50190.6,448448
step02_gravity_refstate-mantle.xmf,1184,-1.53442e-05,3.47541e-05,0,-6.14377e-06,-1.43911e+09,-1.43242e+09,-1.43706e+09,-821115,-0.0200686,0.261226,-0,0.261996,1218.21,-50501,0,50515.7,821115
step02_gravity_refstate-mantle.xmf,1185,-7.94449e-06,2.49057e-05,0,-1.161e-05,-1.42529e+09,-1.4209e+09,-1.42423e+09,-1.55167e+06,-0.0471527,0.236857,-0,0.241505,3414.06,-50098.3,0,50214.5,1.55167e+06
step02_gravity_refstate-mantle.xmf,1186,-6.73612e-06,2.26506e-05,0,-1.07558e-05,-1.43679e+09,-1.43287e+09,-1.43589e+09,-1.43751e+06,-0.0506063,0.216876,-0,0.222702,3976.22,-50456,0,50612.5,1.43751e+06
step02_gravity_refstate-mantle.xmf,1187,-4.24721e-06,1.85442e-05,0,-9.71266e-06,-1.43983e+09,-1.43679e+09,-1.43926e+09,-1.2981e+06,-0.0568611,0.19179,-0,0.200041,5149.4,-50556,0,50817.5,1.2981e+06
step02_gravity_refstate-mantle.xmf,1188,-3.60958e-06,1.7188e-05,0,-8.72839e-06,-1.45369e+09,-1.45091e+09,-1.45321e+09,-1.16655e+06,-0.0593047,0.17261,-0,0.182514,5778.44,-50985,0,51311.4,1.16655e+06
step02_gravity_refstate-mantle.xmf,1189,1.06449e-06,7.79492e-06,0,-1.51928e-06,-1.57233e+09,-1.57143e+09,-1.57247e+09,-203052,-0.0718592,0.0452411,-0,0.0849146,13916.6,-54656.8,0,56400.7,203052
step02_gravity_refstate-mantle.xmf,1190,7.17109e-07,8.46253e-06,0,-2.05489e-06,-1.55285e+09,-1.55181e+09,-1.55294e+09,-274636,-0.0715437,0.0557332,-0,0.0906901,12901.6,-54054.4,0,55572.7,274636
step02_gravity_refstate-mantle.xmf,1191,6.79544e-08,9.77794e-06,0,-3.31931e-06,-1.51595e+09,-1.51465e+09,-1.51595e+09,-443626,-0.0698189,0.0798066,-0,0.106037,11050.5,-52913.6,0,54055.1,443626
step02_gravity_refstate-mantle.xmf,1192,3.66032e-07,9.16187e-06,0,-2.6797e-06,-1.53431e+09,-1.53314e+09,-1.53436e+09,-358142,-0.0708655,0.0674687,-0,0.0978465,11911.6,-53481.4,0,54791.8,358142
step02_gravity_refstate-mantle.xmf,1193,-3.02568e-06,1.59153e-05,0,-7.74909e-06,-1.46703e+09,-1.4645e+09,-1.46663e+09,-1.03567e+06,-0.0616681,0.154531,-0,0.166381,6454.68,-51397.6,0,51801.3,1.03567e+06
step02_gravity_refstate-mantle.xmf,1194,-9.02544e-07,1.15797e-05,0,-4.30317e-06,-1.51621e+09,-1.51454e+09,-1.51609e+09,-575119,-0.0692357,0.093422,-0,0.116281,9602.08,-52919.8,0,53783.9,575119
step02_gravity_refstate-mantle.xmf,1195,-2.45188e-06,1.47105e-05,0,-6.81823e-06,-1.47961e+09,-1.47731e+09,-1.47928e+09,-911257,-0.0638975,0.137627,-0,0.151737,7180.84,-51786.8,0,52282.3,911257
step02_gravity_refstate-mantle.xmf,1196,-1.29603e-06,1.24026e-05,0,-5.05039e-06,-1.50283e+09,-1.501e+09,-1.50266e+09,-674985,-0.0677741,0.106623,-0,0.12634,8836.8,-52506,0,53244.4,674985
step02_gravity_refstate-mantle.xmf,1197,-1.82145e-06,1.34692e-05,0,-5.9284e-06,-1.49004e+09,-1.48799e+09,-1.48979e+09,-792330,-0.0659491,0.121998,-0,0.138682,7994.17,-52110.1,0,52719.7,792330
step02_gravity_refstate-mantle.xmf,1198,1.29405e-06,7.4439e-06,0,-8.50388e-07,-1.63218e+09,-1.63136e+09,-1.63236e+09,-113654,-0.0735744,0.0270116,-0,0.0783761,14970.8,-56506.4,0,58455.9,113654
step02_gravity_refstate-mantle.xmf,1199,1.65137e-06,6.90428e-06,0,-2.70299e-07,-1.70003e+09,-1.69933e+09,-1.70025e+09,-36125.5,-0.0737822,0.00973715,-0,0.074422,16102,-58603.3,0,60775.1,36125.5
step02_gravity_refstate-mantle.xmf,1200,1.91703e-06,6.4669e-06,0,5.52853e-09,-1.74523e+09,-1.74462e+09,-1.74549e+09,738.888,-0.072775,-9.20855e-19,-0,0.072775,16875.3,-60000,0,62328,738.888
step02_gravity_refstate-mantle.xmf,1201,-9.46521e-06,2.52782e-05,0,7.87953e-06,-1.48451e+09,-1.47986e+09,-1.48324e+09,1.0531e+06,0.0423518,0.19241,0,0.197016,-3329.08,-51918.4,-0,52025,1.0531e+06
step02_gravity_refstate-mantle.xmf,1202,-3.34218e-06,1.51533e-05,0,4.04654e-06,-1.5801e+09,-1.57763e+09,-1.57965e+09,540821,0.067365,0.0813991,0,0.105659,-8056.73,-54886.1,-0,55474.3,540821
step02_gravity_refstate-mantle.xmf,1203,-1.48259e-06,1.20862e-05,0,1.47003e-06,-1.6643e+09,-1.66249e+09,-1.6641e+09,196469,0.0745834,0.0308719,0,0.0807202,-10780.4,-57491.8,-0,58493.8,196469
step02_gravity_refstate-mantle.xmf,1204,-1.35807e-05,3.23796e-05,0,-8.28009e-06,-1.43909e+09,-1.43295e+09,-1.43728e+09,-1.10663e+06,-0.0288237,0.253793,-0,0.255425,1822.66,-50506.1,0,50539,1.10663e+06
step02_gravity_refstate-mantle.xmf,1205,-1.0107e-05,2.77028e-05,0,-1.05534e-05,-1.43603e+09,-1.43097e+09,-1.43467e+09,-1.41046e+06,-0.0412437,0.239546,-0,0.24307,2847.26,-50422.7,0,50503,1.41046e+06
step02_gravity_refstate-mantle.xmf,1206,-5.80217e-06,2.08103e-05,0,-9.81649e-06,-1.44919e+09,-1.44564e+09,-1.44842e+09,-1.31197e+06,-0.053649,0.197599,-0,0.204752,4546.41,-50840.6,0,51043.5,1.31197e+06
step02_gravity_refstate-mantle.xmf,1207,-5.74616e-07,1.08856e-05,0,-3.65152e-06,-1.52951e+09,-1.52798e+09,-1.52944e+09,-488025,-0.0704243,0.0819842,-0,0.108079,10318.8,-53331.2,0,54320.3,488025
step02_gravity_refstate-mantle.xmf,1208,8.65741e-07,8.20582e-06,0,-1.26785e-06,-1.61211e+09,-1.61113e+09,-1.61222e+09,-169448,-0.0739115,0.0355401,-0,0.0820122,13888,-55885.3,0,57585.1,169448
step02_gravity_refstate-mantle.xmf,1209,1.18469e-06,7.70165e-06,0,-5.80784e-07,-1.6717e+09,-1.67083e+09,-1.67186e+09,-77621.7,-0.0748364,0.0178206,-0,0.0769289,14950.2,-57727.1,0,59631.6,77621.7
step02_gravity_refstate-mantle.xmf,1210,-1.71245e-05,3.69885e-05,0,-3.73267e-07,-1.43852e+09,-1.43129e+09,-1.43623e+09,-49887.2,-0.000886199,0.268441,-0,0.268443,51.7631,-50476.5,0,50476.5,49887.2
step02_gravity_refstate-mantle.xmf,1211,-1.62215e-05,3.53229e-05,0,2.11345e-06,-1.45025e+09,-1.44337e+09,-1.44809e+09,282463,0.00743637,0.254406,0,0.254515,-455.96,-50840.8,-0,50842.8,282463
step02_gravity_refstate-mantle.xmf,1212,-4.0857e-06,1.63784e-05,0,4.76234e-06,-1.56447e+09,-1.56173e+09,-1.56392e+09,636487,0.0643675,0.0961567,0,0.115712,-7232.45,-54401.5,-0,54880.1,636487
step02_gravity_refstate-mantle.xmf,1213,-4.85744e-06,1.7661e-05,0,5.47375e-06,-1.54909e+09,-1.54608e+09,-1.54844e+09,731567,0.0611043,0.111853,0,0.127455,-6455.28,-53924.6,-0,54309.6,731567
step02_gravity_refstate-mantle.xmf,1214,-5.69225e-06,1.90474e-05,0,6.14756e-06,-1.53446e+09,-1.53115e+09,-1.5337e+09,821621,0.0575564,0.128187,0,0.140515,-5714.93,-53470.6,-0,53775.2,821621
step02_gravity_refstate-mantle.xmf,1215,-1.49638e-05,3.32933e-05,0,4.15242e-06,-1.46113e+09,-1.45468e+09,-1.45913e+09,554970,0.0158005,0.239763,0,0.240283,-1020.41,-51180,-0,51190.2,554970
step02_gravity_refstate-mantle.xmf,1216,-1.35216e-05,3.1064e-05,0,5.58235e-06,-1.47196e+09,-1.466e+09,-1.47015e+09,746081,0.0235363,0.224094,0,0.225326,-1608.4,-51518.4,-0,51543.5,746081
step02_gravity_refstate-mantle.xmf,1217,-6.66904e-06,2.06482e-05,0,6.78449e-06,-1.51984e+09,-1.51619e+09,-1.51895e+09,906747,0.0534884,0.145949,0,0.155442,-4970.85,-53016.6,-0,53249.1,906747
step02_gravity_refstate-mantle.xmf,1218,-1.20608e-05,2.88477e-05,0,6.47634e-06,-1.48214e+09,-1.47668e+09,-1.48053e+09,865563,0.0304823,0.208505,0,0.210721,-2206.55,-51837.1,-0,51884,865563
step02_gravity_refstate-mantle.xmf,1219,-7.89041e-06,2.25704e-05,0,7.19644e-06,-1.50791e+09,-1.50384e+09,-1.50686e+09,961805,0.0485159,0.163495,0,0.170542,-4206.84,-52645,-0,52812.8,961805
step02_gravity_refstate-mantle.xmf,1220,-9.14982e-06,2.44924e-05,0,7.27762e-06,-1.49951e+09,-1.49501e+09,-1.49828e+09,972654,0.0433303,0.178148,0,0.183342,-3537.93,-52381.8,-0,52501.1,972654
step02_gravity_refstate-mantle.xmf,1221,-1.05977e-05,2.6647e-05,0,7.01575e-06,-1.49154e+09,-1.48657e+09,-1.49013e+09,937655,0.0370835,0.193,0,0.196531,-2848.9,-52131.7,-0,52209.5,937655
step02_gravity_refstate-mantle.xmf,1222,-3.71235e-06,1.55532e-05,0,3.29864e-06,-1.61165e+09,-1.60908e+09,-1.61116e+09,440864,0.0673145,0.0664461,0,0.094585,-8058.16,-55859.4,-0,56437.7,440864
step02_gravity_refstate-mantle.xmf,1223,-2.19189e-06,1.31905e-05,0,2.04458e-06,-1.64556e+09,-1.6435e+09,-1.64527e+09,273258,0.0726785,0.0417492,0,0.0838163,-9846.8,-56911,-0,57756.6,273258
step02_gravity_refstate-mantle.xmf,1224,-2.94677e-06,1.4359e-05,0,2.64667e-06,-1.62878e+09,-1.62647e+09,-1.62839e+09,353728,0.0702289,0.0533373,0,0.0881871,-8933.34,-56390.6,-0,57093.8,353728
step02_gravity_refstate-mantle.xmf,1225,-1.63751e-06,1.23367e-05,0,7.45039e-07,-1.70533e+09,-1.70346e+09,-1.70511e+09,99574.5,0.0749037,0.0154002,0,0.0764705,-10778.2,-58758.7,-0,59739.1,99574.5
step02_gravity_refstate-mantle.xmf,1226,-1.1739e-06,1.16621e-05,0,-9.79275e-09,-1.74547e+09,-1.74375e+09,-1.74531e+09,-1308.8,0.0759052,-2.56001e-19,0,0.0759052,-11403.8,-60000,-0,61074.1,1308.8
step02_gravity_refstate-mantle.xmf,1227,-1.20087e-05,2.99606e-05,0,-8.91871e-06,-1.44676e+09,-1.44115e+09,-1.44516e+09,-1.19199e+06,-0.0342284,0.239417,-0,0.241851,2296.05,-50747.4,0,50799.3,1.19199e+06
step02_gravity_refstate-mantle.xmf,1228,-1.60657e-05,3.5218e-05,0,-2.9791e-06,-1.44892e+09,-1.44206e+09,-1.44677e+09,-398157,-0.0102507,0.255108,-0,0.255314,627.978,-50800.3,0,50804.1,398157
step02_gravity_refstate-mantle.xmf,1229,-1.35737e-05,3.16808e-05,0,-6.72931e-06,-1.45663e+09,-1.45059e+09,-1.45482e+09,-899372,-0.0260322,0.237796,-0,0.239217,1717.91,-51046.2,0,51075.1,899372
step02_gravity_refstate-mantle.xmf,1230,-8.65305e-06,2.51548e-05,0,-1.01903e-05,-1.44661e+09,-1.44209e+09,-1.44545e+09,-1.36193e+06,-0.0456658,0.220603,-0,0.22528,3407.61,-50752.8,0,50867.1,1.36193e+06
step02_gravity_refstate-mantle.xmf,1231,-7.42274e-06,2.29915e-05,0,-9.55741e-06,-1.45867e+09,-1.45461e+09,-1.45768e+09,-1.27735e+06,-0.0495076,0.201398,-0,0.207394,3983.76,-51128.1,0,51283.1,1.27735e+06
step02_gravity_refstate-mantle.xmf,1232,-5.16286e-06,1.94094e-05,0,-8.86912e-06,-1.46445e+09,-1.46117e+09,-1.46376e+09,-1.18536e+06,-0.0562256,0.178282,-0,0.186938,5102.21,-51312.7,0,51565.7,1.18536e+06
step02_gravity_refstate-mantle.xmf,1233,-4.44737e-06,1.80193e-05,0,-7.9897e-06,-1.47934e+09,-1.47634e+09,-1.47874e+09,-1.06782e+06,-0.0589638,0.159435,-0,0.169989,5735.34,-51773.7,0,52090.4,1.06782e+06
step02_gravity_refstate-mantle.xmf,1234,4.47986e-07,8.95452e-06,0,-1.77552e-06,-1.59152e+09,-1.59038e+09,-1.59158e+09,-237299,-0.0736502,0.0454815,-0,0.0865616,12875.3,-55248.5,0,56728.9,237299
step02_gravity_refstate-mantle.xmf,1235,6.89169e-09,9.75858e-06,0,-2.38075e-06,-1.57182e+09,-1.57051e+09,-1.57182e+09,-318187,-0.0729511,0.0568174,-0,0.0924666,11868.1,-54639,0,55913,318187
step02_gravity_refstate-mantle.xmf,1236,-5.05186e-07,1.07005e-05,0,-3.13636e-06,-1.55245e+09,-1.55095e+09,-1.55238e+09,-419175,-0.0717819,0.0703333,-0,0.100496,10801.3,-54039.8,0,55108.7,419175
step02_gravity_refstate-mantle.xmf,1237,-3.72431e-06,1.66134e-05,0,-7.07036e-06,-1.49348e+09,-1.49076e+09,-1.49298e+09,-944954,-0.0618062,0.141211,-0,0.154145,6459.94,-52211.7,0,52609.8,944954
step02_gravity_refstate-mantle.xmf,1238,-1.27019e-06,1.20339e-05,0,-3.8288e-06,-1.54688e+09,-1.54511e+09,-1.54671e+09,-511719,-0.0705804,0.0812922,-0,0.107657,9703.17,-53866.1,0,54733,511719
step02_gravity_refstate-mantle.xmf,1239,-1.80603e-06,1.30273e-05,0,-4.56968e-06,-1.53323e+09,-1.53124e+09,-1.53298e+09,-610737,-0.0688573,0.0944697,-0,0.116901,8858.9,-53443.1,0,54172.4,610737
step02_gravity_refstate-mantle.xmf,1240,-3.02398e-06,1.53009e-05,0,-6.21135e-06,-1.50634e+09,-1.5039e+09,-1.50594e+09,-830147,-0.0644402,0.124632,-0,0.140306,7227.91,-52610.4,0,53104.6,830147
step02_gravity_refstate-mantle.xmf,1241,-2.38203e-06,1.41047e-05,0,-5.37602e-06,-1.51935e+09,-1.51715e+09,-1.51903e+09,-718505,-0.0667954,0.109101,-0,0.127924,8030.59,-53013.5,0,53618.3,718505
step02_gravity_refstate-mantle.xmf,1242,6.94891e-07,8.53868e-06,0,-9.49157e-07,-1.6511e+09,-1.65005e+09,-1.65119e+09,-126855,-0.0753114,0.0255611,-0,0.079531,13856.8,-57089.3,0,58746.9,126855
step02_gravity_refstate-mantle.xmf,1243,9.81891e-07,8.11487e-06,0,-3.10626e-07,-1.70976e+09,-1.70881e+09,-1.7099e+09,-41515.1,-0.075827,0.00896682,-0,0.0763554,14646.7,-58902.5,0,60696.2,41515.1
step02_gravity_refstate-mantle.xmf,1244,1.34509e-06,7.52975e-06,0,4.55066e-09,-1.74526e+09,-1.74444e+09,-1.74544e+09,608.195,-0.0751255,-8.47076e-19,-0,0.0751255,15431.1,-60000,0,61952.6,608.195
step02_gravity_refstate-mantle.xmf,1245,-4.4872e-06,1.6772e-05,0,3.96984e-06,-1.59451e+09,-1.59167e+09,-1.59391e+09,530569,0.0640355,0.0808498,0,0.103137,-7226.89,-55327.8,-0,55797.8,530569
step02_gravity_refstate-mantle.xmf,1246,-2.46719e-06,1.35717e-05,0,1.3822e-06,-1.67943e+09,-1.67729e+09,-1.6791e+09,184731,0.0727043,0.0280422,0,0.0779249,-9770.17,-57956.3,-0,58774.1,184731
step02_gravity_refstate-mantle.xmf,1247,-1.04752e-05,2.74595e-05,0,-8.97414e-06,-1.45781e+09,-1.45274e+09,-1.45641e+09,-1.19939e+06,-0.0392939,0.221395,-0,0.224855,2827.92,-51092.6,0,51170.8,1.19939e+06
step02_gravity_refstate-mantle.xmf,1248,-1.48743e-05,3.34237e-05,0,-4.80599e-06,-1.45708e+09,-1.45063e+09,-1.45509e+09,-642321,-0.0177312,0.243059,-0,0.243705,1135.96,-51055.8,0,51068.5,642321
step02_gravity_refstate-mantle.xmf,1249,-6.45967e-06,2.12843e-05,0,-8.94863e-06,-1.46884e+09,-1.46514e+09,-1.46798e+09,-1.19598e+06,-0.0527261,0.185295,-0,0.192651,4523.26,-51444.4,0,51642.9,1.19598e+06
step02_gravity_refstate-mantle.xmf,1250,1.96288e-07,9.39235e-06,0,-1.40816e-06,-1.63076e+09,-1.62953e+09,-1.63079e+09,-188201,-0.0751523,0.034548,-0,0.0827129,12834.6,-56460.1,0,57900.5,188201
step02_gravity_refstate-mantle.xmf,1251,6.65689e-07,8.60168e-06,0,-6.02179e-07,-1.68443e+09,-1.68337e+09,-1.68452e+09,-80481.2,-0.0759947,0.0164294,-0,0.0777503,13987.1,-58119,0,59778.4,80481.2
step02_gravity_refstate-mantle.xmf,1252,-1.58314e-05,3.44691e-05,0,-6.12023e-07,-1.46062e+09,-1.4539e+09,-1.4585e+09,-81796.8,-0.00192692,0.243916,-0,0.243923,121.938,-51161.4,0,51161.6,81796.8
step02_gravity_refstate-mantle.xmf,1253,-1.51456e-05,3.32085e-05,0,1.57239e-06,-1.47232e+09,-1.46586e+09,-1.4703e+09,210150,0.00646097,0.231077,0,0.231167,-425.128,-51524.3,-0,51526.1,210150
step02_gravity_refstate-mantle.xmf,1254,-5.26701e-06,1.80116e-05,0,4.63066e-06,-1.57766e+09,-1.57455e+09,-1.57696e+09,618888,0.0605248,0.0961822,0,0.113641,-6451.15,-54805.4,-0,55183.8,618888
step02_gravity_refstate-mantle.xmf,1255,-6.12836e-06,1.93787e-05,0,5.23941e-06,-1.56193e+09,-1.55852e+09,-1.56111e+09,700247,0.0565786,0.112211,0,0.125668,-5687.21,-54317.2,-0,54614.1,700247
step02_gravity_refstate-mantle.xmf,1256,-7.04602e-06,2.08289e-05,0,5.74542e-06,-1.5476e+09,-1.54387e+09,-1.54665e+09,767875,0.0523586,0.128237,0,0.138515,-4968.43,-53871.9,-0,54100.6,767875
step02_gravity_refstate-mantle.xmf,1257,-1.41452e-05,3.15902e-05,0,3.34664e-06,-1.48341e+09,-1.4773e+09,-1.48152e+09,447278,0.0147526,0.217436,0,0.217936,-1014.88,-51869.2,-0,51879.2,447278
step02_gravity_refstate-mantle.xmf,1258,-1.29705e-05,2.9785e-05,0,4.6434e-06,-1.49388e+09,-1.48816e+09,-1.49214e+09,620590,0.0225006,0.203351,0,0.204592,-1623.84,-52195.8,-0,52221.1,620590
step02_gravity_refstate-mantle.xmf,1259,-8.08476e-06,2.24514e-05,0,6.12637e-06,-1.53388e+09,-1.52979e+09,-1.5328e+09,818790,0.0475954,0.144911,0,0.152527,-4255.57,-53445.3,-0,53614.5,818790
step02_gravity_refstate-mantle.xmf,1260,-1.17506e-05,2.79504e-05,0,5.49964e-06,-1.50362e+09,-1.49831e+09,-1.50205e+09,735026,0.0294916,0.189378,0,0.191661,-2235.82,-52500.3,-0,52547.9,735026
step02_gravity_refstate-mantle.xmf,1261,-9.26646e-06,2.4251e-05,0,6.23488e-06,-1.52249e+09,-1.51801e+09,-1.52125e+09,833292,0.0420866,0.160764,0,0.166181,-3548.2,-53090.3,-0,53208.7,833292
step02_gravity_refstate-mantle.xmf,1262,-1.05168e-05,2.61163e-05,0,6.01371e-06,-1.51292e+09,-1.50803e+09,-1.51152e+09,803732,0.0359397,0.175396,0,0.179041,-2867.39,-52791.2,-0,52869,803732
step02_gravity_refstate-mantle.xmf,1263,-4.82613e-06,1.71194e-05,0,3.17179e-06,-1.62475e+09,-1.62182e+09,-1.6241e+09,423910,0.0635328,0.0652527,0,0.0910732,-7196.08,-56260.6,-0,56718.9,423910
step02_gravity_refstate-mantle.xmf,1264,-4.06187e-06,1.59582e-05,0,2.5198e-06,-1.64425e+09,-1.64157e+09,-1.64371e+09,336771,0.0669488,0.0509193,0,0.0841125,-8002.21,-56865.1,-0,57425.4,336771
step02_gravity_refstate-mantle.xmf,1265,-3.24138e-06,1.47231e-05,0,1.92302e-06,-1.66184e+09,-1.65944e+09,-1.66141e+09,257011,0.0701438,0.0387098,0,0.0801162,-8888.35,-57410.7,-0,58094.7,257011
step02_gravity_refstate-mantle.xmf,1266,-2.85872e-06,1.41503e-05,0,6.91509e-07,-1.71387e+09,-1.71159e+09,-1.71348e+09,92420.1,0.0720171,0.0139295,0,0.0733518,-9483.71,-59018.9,-0,59776,92420.1
step02_gravity_refstate-mantle.xmf,1267,-2.25578e-06,1.32954e-05,0,-5.19949e-09,-1.74557e+09,-1.74349e+09,-1.74527e+09,-694.912,0.0737506,-2.37231e-19,0,0.0737506,-10149.4,-60000,-0,60852.4,694.912
step02_gravity_refstate-mantle.xmf,1268,-1.19825e-05,2.92893e-05,0,-7.6738e-06,-1.46447e+09,-1.45896e+09,-1.46287e+09,-1.0256e+06,-0.0327633,0.223321,-0,0.225711,2291.6,-51292.9,0,51344.1,1.0256e+06
step02_gravity_refstate-mantle.xmf,1269,-1.47657e-05,3.28024e-05,0,-3.1043e-06,-1.47177e+09,-1.46541e+09,-1.4698e+09,-414889,-0.0121276,0.230164,-0,0.230483,802.866,-51508.7,0,51515,414889
step02_gravity_refstate-mantle.xmf,1270,-1.39603e-05,3.17794e-05,0,-5.08523e-06,-1.46995e+09,-1.46384e+09,-1.46809e+09,-679641,-0.0205781,0.228042,-0,0.228969,1384.26,-51455.3,0,51473.9,679641
step02_gravity_refstate-mantle.xmf,1271,-9.12631e-06,2.51341e-05,0,-8.74236e-06,-1.47028e+09,-1.4657e+09,-1.46906e+09,-1.16842e+06,-0.0440025,0.202358,-0,0.207086,3404.15,-51480.7,0,51593.1,1.16842e+06
step02_gravity_refstate-mantle.xmf,1272,-7.734e-06,2.28491e-05,0,-8.35844e-06,-1.48215e+09,-1.47806e+09,-1.48112e+09,-1.11711e+06,-0.0489362,0.183253,-0,0.189674,4081.86,-51850.9,0,52011.4,1.11711e+06
step02_gravity_refstate-mantle.xmf,1273,-6.22e-06,2.04848e-05,0,-7.98923e-06,-1.48975e+09,-1.48618e+09,-1.48891e+09,-1.06776e+06,-0.0542533,0.165937,-0,0.174581,4902.05,-52089.6,0,52319.8,1.06776e+06
step02_gravity_refstate-mantle.xmf,1274,-5.16729e-06,1.86503e-05,0,-7.09269e-06,-1.50647e+09,-1.50328e+09,-1.50578e+09,-947939,-0.0582876,0.144509,-0,0.155821,5709.15,-52608.4,0,52917.3,947939
step02_gravity_refstate-mantle.xmf,1275,-3.12803e-07,1.02593e-05,0,-1.96452e-06,-1.61006e+09,-1.60864e+09,-1.61001e+09,-262558,-0.0744305,0.0451297,-0,0.0870436,11845.7,-55819.3,0,57062.4,262558
step02_gravity_refstate-mantle.xmf,1276,-8.65356e-07,1.12062e-05,0,-2.6063e-06,-1.59115e+09,-1.58954e+09,-1.59104e+09,-348332,-0.0732526,0.0568412,-0,0.0927192,10860.8,-55234.1,0,56291.8,348332
step02_gravity_refstate-mantle.xmf,1277,-4.33373e-06,1.71861e-05,0,-6.30033e-06,-1.52078e+09,-1.51791e+09,-1.5202e+09,-842040,-0.0615952,0.126955,-0,0.141108,6463.67,-53052.5,0,53444.8,842040
step02_gravity_refstate-mantle.xmf,1278,-1.55416e-06,1.23691e-05,0,-3.28529e-06,-1.57753e+09,-1.57567e+09,-1.57732e+09,-439079,-0.0716373,0.0687007,-0,0.0992557,9834.51,-54811.7,0,55687,439079
step02_gravity_refstate-mantle.xmf,1279,-2.22679e-06,1.35151e-05,0,-3.99407e-06,-1.56377e+09,-1.56166e+09,-1.56347e+09,-533807,-0.0696034,0.0815174,-0,0.10719,8907.75,-54385,0,55109.7,533807
step02_gravity_refstate-mantle.xmf,1280,-2.89233e-06,1.46665e-05,0,-4.74633e-06,-1.54924e+09,-1.54689e+09,-1.54885e+09,-634347,-0.0672294,0.0956446,-0,0.116909,8049.95,-53934.8,0,54532.2,634347
step02_gravity_refstate-mantle.xmf,1281,-3.58607e-06,1.58772e-05,0,-5.52102e-06,-1.53483e+09,-1.53223e+09,-1.53435e+09,-737884,-0.0645568,0.110829,-0,0.12826,7238.28,-53488.1,0,53975.6,737884
step02_gravity_refstate-mantle.xmf,1282,-2.33565e-08,9.76932e-06,0,-9.25262e-07,-1.67361e+09,-1.6723e+09,-1.6736e+09,-123661,-0.0761871,0.0220517,-0,0.0793142,12773.6,-57783.1,0,59178.1,123661
step02_gravity_refstate-mantle.xmf,1283,2.48692e-07,9.34983e-06,0,-4.00775e-07,-1.71128e+09,-1.71006e+09,-1.71131e+09,-53563.6,-0.0766399,0.00990136,-0,0.0772768,13353.4,-58947.5,0,60441.1,53563.6
step02_gravity_refstate-mantle.xmf,1284,6.3617e-07,8.75867e-06,0,6.98294e-09,-1.74532e+09,-1.74423e+09,-1.7454e+09,933.269,-0.0765016,-9.37601e-19,-0,0.0765016,14040.5,-60000,0,61620.9,933.269
step02_gravity_refstate-mantle.xmf,1285,-5.5804e-06,1.82707e-05,0,3.79277e-06,-1.60646e+09,-1.60327e+09,-1.60571e+09,506904,0.0599266,0.0801064,0,0.100041,-6446.95,-55693.4,-0,56065.3,506904
step02_gravity_refstate-mantle.xmf,1286,-3.37948e-06,1.48892e-05,0,1.23963e-06,-1.6916e+09,-1.68915e+09,-1.69114e+09,165677,0.0701936,0.0250606,0,0.0745331,-8903.27,-58329.4,-0,59005,165677
step02_gravity_refstate-mantle.xmf,1287,-1.26684e-05,2.97889e-05,0,-6.09024e-06,-1.47858e+09,-1.47291e+09,-1.47689e+09,-813960,-0.0274537,0.214566,-0,0.216315,1941.46,-51725.4,0,51761.8,813960
step02_gravity_refstate-mantle.xmf,1288,-1.09756e-05,2.73826e-05,0,-7.29798e-06,-1.48182e+09,-1.47669e+09,-1.48035e+09,-975375,-0.0359823,0.203133,-0,0.206295,2684.48,-51830.5,0,51899.9,975375
step02_gravity_refstate-mantle.xmf,1289,-5.88684e-07,1.06874e-05,0,-1.48307e-06,-1.64761e+09,-1.6461e+09,-1.64753e+09,-198213,-0.0753752,0.0332008,-0,0.0823633,11796.2,-56978.5,0,58186.8,198213
step02_gravity_refstate-mantle.xmf,1290,-1.47333e-05,3.23813e-05,0,-6.87961e-07,-1.48378e+09,-1.47748e+09,-1.48181e+09,-91946,-0.0027217,0.219868,-0,0.219885,184.764,-51878.9,0,51879.2,91946
step02_gravity_refstate-mantle.xmf,1291,-1.42189e-05,3.1413e-05,0,1.25099e-06,-1.49529e+09,-1.48919e+09,-1.49339e+09,167195,0.00598085,0.208116,0,0.208202,-419.368,-52235.3,-0,52237,167195
step02_gravity_refstate-mantle.xmf,1292,-6.40754e-06,1.95334e-05,0,4.31588e-06,-1.59092e+09,-1.58745e+09,-1.59006e+09,576817,0.0558572,0.0946635,0,0.109915,-5705.27,-55211.1,-0,55505.1,576817
step02_gravity_refstate-mantle.xmf,1293,-7.32436e-06,2.09348e-05,0,4.7727e-06,-1.57548e+09,-1.5717e+09,-1.5745e+09,637871,0.0512158,0.110405,0,0.121706,-4955.41,-54731.7,-0,54955.6,637871
step02_gravity_refstate-mantle.xmf,1294,-8.29599e-06,2.24151e-05,0,5.09338e-06,-1.56097e+09,-1.55686e+09,-1.55986e+09,680730,0.0462101,0.126343,0,0.134529,-4237.85,-54280.8,-0,54445.9,680730
step02_gravity_refstate-mantle.xmf,1295,-1.33931e-05,3.00722e-05,0,2.75924e-06,-1.50692e+09,-1.50111e+09,-1.50513e+09,368772,0.0141728,0.194917,0,0.195431,-1033.78,-52596.6,-0,52606.7,368772
step02_gravity_refstate-mantle.xmf,1296,-1.2465e-05,2.86859e-05,0,3.85642e-06,-1.51635e+09,-1.51085e+09,-1.51469e+09,515411,0.0215529,0.182969,0,0.184234,-1633.43,-52890.7,-0,52915.9,515411
step02_gravity_refstate-mantle.xmf,1297,-9.3783e-06,2.4047e-05,0,5.20262e-06,-1.54749e+09,-1.54302e+09,-1.54624e+09,695330,0.040483,0.14246,0,0.1481,-3515.79,-53861.3,-0,53975.9,695330
step02_gravity_refstate-mantle.xmf,1298,-1.14613e-05,2.7242e-05,0,4.65051e-06,-1.52509e+09,-1.51992e+09,-1.52356e+09,621540,0.0282521,0.171132,0,0.173448,-2228.61,-53163.6,-0,53210.3,621540
step02_gravity_refstate-mantle.xmf,1299,-1.05249e-05,2.57739e-05,0,5.02574e-06,-1.53523e+09,-1.53038e+09,-1.53383e+09,671689,0.034057,0.158118,0,0.161744,-2804.87,-53479.5,-0,53553,671689
step02_gravity_refstate-mantle.xmf,1300,-5.77642e-06,1.84228e-05,0,3.07049e-06,-1.63167e+09,-1.62844e+09,-1.6309e+09,410370,0.0595056,0.0657862,0,0.0887059,-6454.53,-56471.4,-0,56839.1,410370
step02_gravity_refstate-mantle.xmf,1301,-5.25756e-06,1.76457e-05,0,2.45636e-06,-1.65279e+09,-1.64973e+09,-1.65209e+09,328293,0.062214,0.0512474,0,0.0806032,-7001.15,-57125.1,-0,57552.6,328293
step02_gravity_refstate-mantle.xmf,1302,-4.43789e-06,1.64369e-05,0,1.63821e-06,-1.68074e+09,-1.67795e+09,-1.68014e+09,218947,0.0661295,0.0332684,0,0.0740264,-7855.65,-57990.8,-0,58520.5,218947
step02_gravity_refstate-mantle.xmf,1303,-4.02141e-06,1.58255e-05,0,7.44384e-07,-1.71522e+09,-1.71256e+09,-1.71468e+09,99486.9,0.0681236,0.0149581,0,0.0697465,-8351.4,-59057.1,-0,59644.7,99486.9
step02_gravity_refstate-mantle.xmf,1304,-3.44757e-06,1.50335e-05,0,-6.11934e-09,-1.74568e+09,-1.74321e+09,-1.74522e+09,-817.849,0.0702791,-2.44055e-19,0,0.0702791,-8931.98,-60000,-0,60661.2,817.849
step02_gravity_refstate-mantle.xmf,1305,-1.34173e-05,3.06006e-05,0,-4.45603e-06,-1.48713e+09,-1.48124e+09,-1.48533e+09,-595549,-0.0200795,0.211243,-0,0.212195,1413.98,-51986.4,0,52005.6,595549
step02_gravity_refstate-mantle.xmf,1306,-9.31808e-06,2.48051e-05,0,-7.4253e-06,-1.49515e+09,-1.49059e+09,-1.4939e+09,-992392,-0.0427415,0.182665,-0,0.187598,3444.18,-52246.9,0,52360.3,992392
step02_gravity_refstate-mantle.xmf,1307,-7.87968e-06,2.257e-05,0,-7.22854e-06,-1.5073e+09,-1.50323e+09,-1.50624e+09,-966095,-0.0485579,0.163908,-0,0.17095,4208.08,-52626,0,52794,966095
step02_gravity_refstate-mantle.xmf,1308,-6.68688e-06,2.06732e-05,0,-6.77977e-06,-1.51995e+09,-1.51629e+09,-1.51905e+09,-906117,-0.0534174,0.146002,-0,0.155467,4960.88,-53019.9,0,53251.5,906117
step02_gravity_refstate-mantle.xmf,1309,-5.6926e-06,1.90471e-05,0,-6.14722e-06,-1.53446e+09,-1.53115e+09,-1.5337e+09,-821576,-0.0575565,0.128187,-0,0.140516,5714.93,-53470.6,0,53775.2,821576
step02_gravity_refstate-mantle.xmf,1310,-1.18758e-06,1.1661e-05,0,-2.05829e-06,-1.6279e+09,-1.62619e+09,-1.62774e+09,-275090,-0.0741344,0.0439285,-0,0.0861721,10850.9,-56368.4,0,57403.2,275090
step02_gravity_refstate-mantle.xmf,1311,-1.87678e-06,1.27752e-05,0,-2.68086e-06,-1.6113e+09,-1.60934e+09,-1.61105e+09,-358297,-0.0723531,0.0553135,-0,0.0910745,9878.45,-55853.7,0,56720.5,358297
step02_gravity_refstate-mantle.xmf,1312,-4.85403e-06,1.76565e-05,0,-5.47505e-06,-1.54903e+09,-1.54603e+09,-1.54839e+09,-731740,-0.0611161,0.11186,-0,0.127467,6457.48,-53922.9,0,54308.2,731740
step02_gravity_refstate-mantle.xmf,1313,-2.60246e-06,1.39489e-05,0,-3.34745e-06,-1.59563e+09,-1.59342e+09,-1.59528e+09,-447386,-0.0700653,0.0677653,-0,0.0974745,8941.1,-55367.8,0,56085.1,447386
step02_gravity_refstate-mantle.xmf,1314,-3.33997e-06,1.51505e-05,0,-4.04579e-06,-1.58012e+09,-1.57764e+09,-1.57967e+09,-540720,-0.0673723,0.081373,-0,0.105644,8058.89,-54886.7,0,55475.2,540720
step02_gravity_refstate-mantle.xmf,1315,-4.08211e-06,1.63741e-05,0,-4.76385e-06,-1.56441e+09,-1.56167e+09,-1.56386e+09,-636689,-0.0643775,0.0961646,-0,0.115724,7234.76,-54399.7,0,54878.6,636689
step02_gravity_refstate-mantle.xmf,1316,-8.28598e-07,1.10425e-05,0,-1.04074e-06,-1.67899e+09,-1.6774e+09,-1.67888e+09,-139095,-0.0758081,0.0229948,-0,0.0792189,11691.5,-57947.2,0,59114.9,139095
step02_gravity_refstate-mantle.xmf,1317,-6.30232e-07,1.07644e-05,0,-5.26827e-07,-1.71025e+09,-1.70872e+09,-1.71016e+09,-70410.4,-0.0763869,0.0117669,-0,0.0772879,12058.4,-58913.4,0,60134.7,70410.4
step02_gravity_refstate-mantle.xmf,1318,-2.0355e-07,1.01382e-05,0,7.84579e-09,-1.74538e+09,-1.744e+09,-1.74536e+09,1048.59,-0.0767933,-1.11604e-18,-0,0.0767933,12699.5,-60000,0,61329.3,1048.59
step02_gravity_refstate-mantle.xmf,1319,-1.3888e-05,3.09991e-05,0,-2.50067e-06,-1.49618e+09,-1.49018e+09,-1.49433e+09,-334214,-0.0115086,0.206018,-0,0.206339,813.967,-52264,0,52270.4,334214
step02_gravity_refstate-mantle.xmf,1320,-6.57475e-06,1.9587e-05,0,3.43321e-06,-1.62003e+09,-1.61654e+09,-1.61916e+09,458848,0.055378,0.0768061,0,0.0946885,-5746.2,-56109.5,-0,56403,458848
step02_gravity_refstate-mantle.xmf,1321,-1.20756e-05,2.85022e-05,0,-5.49119e-06,-1.498e+09,-1.49258e+09,-1.49639e+09,-733898,-0.0281486,0.195585,-0,0.1976,2095.17,-52326,0,52367.9,733898
step02_gravity_refstate-mantle.xmf,1322,-1.48216e-06,1.20852e-05,0,-1.46921e-06,-1.66434e+09,-1.66253e+09,-1.66414e+09,-196360,-0.074585,0.0308548,-0,0.0807152,10781.2,-57493,0,58495.1,196360
step02_gravity_refstate-mantle.xmf,1323,-1.38651e-05,3.07033e-05,0,-5.76403e-07,-1.50727e+09,-1.50131e+09,-1.50542e+09,-77036.3,-0.00265731,0.196923,-0,0.196941,191.587,-52606,0,52606.3,77036.3
step02_gravity_refstate-mantle.xmf,1324,-1.34287e-05,2.98817e-05,0,1.03811e-06,-1.5195e+09,-1.51371e+09,-1.51771e+09,138743,0.00582864,0.185125,0,0.185217,-432.976,-52984.6,-0,52986.4,138743
step02_gravity_refstate-mantle.xmf,1325,-7.49674e-06,2.0952e-05,0,3.85287e-06,-1.604e+09,-1.60019e+09,-1.60299e+09,514936,0.0502912,0.0919533,0,0.104808,-4958.92,-55611.5,-0,55832.1,514936
step02_gravity_refstate-mantle.xmf,1326,-8.42267e-06,2.2326e-05,0,4.13799e-06,-1.58885e+09,-1.58474e+09,-1.58772e+09,553043,0.0449603,0.10723,0,0.116274,-4221.96,-55140.8,-0,55302.2,553043
step02_gravity_refstate-mantle.xmf,1327,-9.41462e-06,2.37936e-05,0,4.2343e-06,-1.57439e+09,-1.56995e+09,-1.57313e+09,565915,0.0389829,0.122849,0,0.128886,-3485.02,-54691.4,-0,54802.3,565915
step02_gravity_refstate-mantle.xmf,1328,-1.27015e-05,2.86985e-05,0,2.29004e-06,-1.53301e+09,-1.52748e+09,-1.53131e+09,306064,0.0139744,0.171027,0,0.171597,-1078.2,-53403.7,-0,53414.5,306064
step02_gravity_refstate-mantle.xmf,1329,-1.16661e-05,2.71515e-05,0,3.52753e-06,-1.54384e+09,-1.53865e+09,-1.54228e+09,471455,0.0238571,0.15749,0,0.159286,-1920.76,-53741.1,-0,53775.4,471455
step02_gravity_refstate-mantle.xmf,1330,-1.04885e-05,2.53783e-05,0,4.06541e-06,-1.56016e+09,-1.55537e+09,-1.55876e+09,543343,0.0320991,0.139015,0,0.142673,-2729.41,-54248.7,-0,54317.3,543343
step02_gravity_refstate-mantle.xmf,1331,-6.54644e-06,1.94245e-05,0,2.50768e-06,-1.65264e+09,-1.64917e+09,-1.65177e+09,335152,0.0558085,0.0562869,0,0.0792641,-5913.79,-57116.6,-0,57422,335152
step02_gravity_refstate-mantle.xmf,1332,-5.87679e-06,1.84491e-05,0,1.68032e-06,-1.68256e+09,-1.67931e+09,-1.68177e+09,224575,0.0595759,0.0362568,0,0.0697412,-6586.87,-58042.6,-0,58415.2,224575
step02_gravity_refstate-mantle.xmf,1333,-5.3048e-06,1.76344e-05,0,8.35464e-07,-1.71387e+09,-1.71081e+09,-1.71316e+09,111660,0.0626228,0.0174576,0,0.0650106,-7170.67,-59011.7,-0,59445.8,111660
step02_gravity_refstate-mantle.xmf,1334,-4.70308e-06,1.68163e-05,0,-4.8124e-09,-1.7458e+09,-1.74293e+09,-1.74518e+09,-643.177,0.0654526,-2.81926e-19,0,0.0654526,-7747.36,-60000,-0,60498.1,643.177
step02_gravity_refstate-mantle.xmf,1335,-1.06991e-05,2.64368e-05,0,-6.10583e-06,-1.50845e+09,-1.50349e+09,-1.50702e+09,-816044,-0.0352843,0.179928,-0,0.183355,2779.96,-52652.7,0,52726.1,816044
step02_gravity_refstate-mantle.xmf,1336,-1.28236e-05,2.93376e-05,0,-3.79154e-06,-1.50873e+09,-1.50309e+09,-1.50701e+09,-506739,-0.0196644,0.190923,-0,0.191933,1458.09,-52654.5,0,52674.6,506739
step02_gravity_refstate-mantle.xmf,1337,-9.3351e-06,2.43669e-05,0,-6.27425e-06,-1.52088e+09,-1.51637e+09,-1.51963e+09,-838553,-0.0417914,0.162423,-0,0.167714,3506.52,-53040.3,0,53156.1,838553
step02_gravity_refstate-mantle.xmf,1338,-8.11923e-06,2.2499e-05,0,-6.11581e-06,-1.53393e+09,-1.52984e+09,-1.53285e+09,-817378,-0.0474237,0.145096,-0,0.15265,4234.64,-53447,0,53614.5,817378
step02_gravity_refstate-mantle.xmf,1339,-7.04596e-06,2.08291e-05,0,-5.7457e-06,-1.54762e+09,-1.5439e+09,-1.54668e+09,-767913,-0.0523572,0.128222,-0,0.138499,4968.35,-53872.8,0,54101.4,767913
step02_gravity_refstate-mantle.xmf,1340,-6.116e-06,1.93613e-05,0,-5.22904e-06,-1.56229e+09,-1.55889e+09,-1.56147e+09,-698861,-0.0566358,0.11189,-0,0.125407,5698.29,-54328.3,0,54626.3,698861
step02_gravity_refstate-mantle.xmf,1341,-2.18922e-06,1.31848e-05,0,-2.03454e-06,-1.64593e+09,-1.64388e+09,-1.64564e+09,-271916,-0.0726959,0.04157,-0,0.0837423,9853.24,-56922.5,0,57769,271916
step02_gravity_refstate-mantle.xmf,1342,-2.94535e-06,1.43542e-05,0,-2.64112e-06,-1.62891e+09,-1.6266e+09,-1.62852e+09,-352986,-0.0702395,0.0532595,-0,0.0881485,8936.77,-56394.7,0,57098.4,352986
step02_gravity_refstate-mantle.xmf,1343,-5.2826e-06,1.80329e-05,0,-4.6203e-06,-1.57814e+09,-1.57502e+09,-1.57743e+09,-617503,-0.0604757,0.0959827,-0,0.113446,6443.64,-54820.1,0,55197.5,617503
step02_gravity_refstate-mantle.xmf,1344,-3.72665e-06,1.55704e-05,0,-3.29614e-06,-1.61183e+09,-1.60925e+09,-1.61133e+09,-440529,-0.0672766,0.0664264,-0,0.0945442,8048.17,-55864.9,0,56441.6,440529
step02_gravity_refstate-mantle.xmf,1345,-4.50329e-06,1.67919e-05,0,-3.95802e-06,-1.59506e+09,-1.59222e+09,-1.59446e+09,-528989,-0.0639963,0.0806188,-0,0.102932,7219.58,-55344.8,0,55813.7,528989
step02_gravity_refstate-mantle.xmf,1346,-1.64318e-06,1.2345e-05,0,-7.45964e-07,-1.70531e+09,-1.70344e+09,-1.70509e+09,-99698.1,-0.0748934,0.0154172,-0,0.0764638,10771.9,-58758.2,0,59737.4,99698.1
step02_gravity_refstate-mantle.xmf,1347,-1.17329e-06,1.1661e-05,0,9.83015e-09,-1.74547e+09,-1.74375e+09,-1.74531e+09,1313.8,-0.0759051,-1.46405e-18,-0,0.0759051,11403.8,-60000,0,61074.1,1313.8
step02_gravity_refstate-mantle.xmf,1348,-1.31925e-05,2.95985e-05,0,-2.0598e-06,-1.51954e+09,-1.51382e+09,-1.51777e+09,-275293,-0.0110427,0.184083,-0,0.184414,824.688,-52986.6,0,52993,275293
step02_gravity_refstate-mantle.xmf,1349,-7.56888e-06,2.08833e-05,0,2.95307e-06,-1.63439e+09,-1.63059e+09,-1.63338e+09,394677,0.0497592,0.0720858,0,0.0875919,-4999.99,-56549.7,-0,56770.3,394677
step02_gravity_refstate-mantle.xmf,1350,-1.1716e-05,2.75779e-05,0,-4.60814e-06,-1.52098e+09,-1.51573e+09,-1.51941e+09,-615878,-0.0272282,0.175455,-0,0.177555,2122.3,-53035.7,0,53078.2,615878
step02_gravity_refstate-mantle.xmf,1351,-2.45364e-06,1.35516e-05,0,-1.37003e-06,-1.67988e+09,-1.67774e+09,-1.67955e+09,-183105,-0.0727448,0.027808,-0,0.0778787,9785.71,-57970.3,0,58790.4,183105
step02_gravity_refstate-mantle.xmf,1352,-1.31282e-05,2.92805e-05,0,-5.03967e-07,-1.53205e+09,-1.52638e+09,-1.53029e+09,-67355.2,-0.00274578,0.173915,-0,0.173937,209.102,-53372.6,0,53373,67355.2
step02_gravity_refstate-mantle.xmf,1353,-1.27704e-05,2.86079e-05,0,8.3064e-07,-1.5447e+09,-1.53917e+09,-1.54299e+09,111015,0.00554756,0.16233,0,0.162425,-433.655,-53764,-0,53765.8,111015
step02_gravity_refstate-mantle.xmf,1354,-8.48019e-06,2.22026e-05,0,3.25481e-06,-1.61759e+09,-1.61349e+09,-1.61646e+09,435005,0.0439639,0.0875021,0,0.0979256,-4218.14,-56028,-0,56186.5,435005
step02_gravity_refstate-mantle.xmf,1355,-9.39676e-06,2.35306e-05,0,3.3572e-06,-1.60242e+09,-1.59802e+09,-1.60116e+09,448690,0.0377142,0.102523,0,0.109239,-3462,-55556.7,-0,55664.4,448690
step02_gravity_refstate-mantle.xmf,1356,-1.03232e-05,2.48819e-05,0,3.24659e-06,-1.58739e+09,-1.58269e+09,-1.58602e+09,433907,0.0308983,0.117963,0,0.121943,-2715.46,-55089.8,-0,55156.7,433907
step02_gravity_refstate-mantle.xmf,1357,-1.2126e-05,2.75681e-05,0,1.96951e-06,-1.55854e+09,-1.55323e+09,-1.55692e+09,263225,0.0142805,0.148545,0,0.14923,-1154.97,-54193.2,-0,54205.5,263225
step02_gravity_refstate-mantle.xmf,1358,-1.12738e-05,2.62799e-05,0,2.80481e-06,-1.57258e+09,-1.56756e+09,-1.57107e+09,374863,0.022992,0.13369,0,0.135653,-1934.56,-54629.2,-0,54663.5,374863
step02_gravity_refstate-mantle.xmf,1359,-7.68576e-06,2.09332e-05,0,2.09474e-06,-1.66492e+09,-1.6611e+09,-1.66389e+09,279962,0.0488527,0.0525281,0,0.0717341,-4966.39,-57492.1,-0,57706.2,279962
step02_gravity_refstate-mantle.xmf,1360,-6.92493e-06,1.9868e-05,0,1.6975e-06,-1.68148e+09,-1.6779e+09,-1.68055e+09,226870,0.0537276,0.0397206,0,0.066816,-5670.31,-58005.9,-0,58282.4,226870
step02_gravity_refstate-mantle.xmf,1361,-6.73313e-06,1.9587e-05,0,8.73643e-07,-1.71282e+09,-1.7093e+09,-1.71192e+09,116762,0.0549586,0.020106,0,0.0585209,-5895.58,-58974.6,-0,59268.6,116762
step02_gravity_refstate-mantle.xmf,1362,-5.9818e-06,1.859e-05,0,-2.28871e-09,-1.74593e+09,-1.74265e+09,-1.74514e+09,-305.886,0.0592774,-3.34632e-19,0,0.0592774,-6591.22,-60000,-0,60360.9,305.886
step02_gravity_refstate-mantle.xmf,1363,-1.05234e-05,2.57815e-05,0,-5.08989e-06,-1.53363e+09,-1.52878e+09,-1.53223e+09,-680264,-0.0342221,0.159325,-0,0.162959,2812.66,-53430.1,0,53504,680264
step02_gravity_refstate-mantle.xmf,1364,-1.23237e-05,2.82589e-05,0,-3.14143e-06,-1.53204e+09,-1.52662e+09,-1.53039e+09,-419852,-0.0189085,0.170099,-0,0.171147,1470.19,-53375.2,0,53395.4,419852
step02_gravity_refstate-mantle.xmf,1365,-9.36231e-06,2.40306e-05,0,-5.22988e-06,-1.54694e+09,-1.54248e+09,-1.54569e+09,-698974,-0.0406006,0.142781,-0,0.148441,3525.49,-53844.4,0,53959.7,698974
step02_gravity_refstate-mantle.xmf,1366,-8.29673e-06,2.24168e-05,0,-5.09462e-06,-1.56091e+09,-1.55681e+09,-1.5598e+09,-680897,-0.0462048,0.126391,-0,0.134572,4236.92,-54279,0,54444.1,680897
step02_gravity_refstate-mantle.xmf,1367,-7.32904e-06,2.09482e-05,0,-4.79622e-06,-1.57479e+09,-1.57101e+09,-1.57381e+09,-641015,-0.0511985,0.1109,-0,0.122148,4949.6,-54710.4,0,54933.8,641015
step02_gravity_refstate-mantle.xmf,1368,-6.46245e-06,1.96099e-05,0,-4.29719e-06,-1.59163e+09,-1.58814e+09,-1.59076e+09,-574320,-0.055605,0.0945176,-0,0.109661,5669.03,-55232.8,0,55523,574320
step02_gravity_refstate-mantle.xmf,1369,-3.19516e-06,1.4656e-05,0,-1.93131e-06,-1.66103e+09,-1.65865e+09,-1.66061e+09,-258119,-0.0702765,0.0389147,-0,0.0803314,8929.57,-57386,0,58076.6,258119
step02_gravity_refstate-mantle.xmf,1370,-4.02194e-06,1.58899e-05,0,-2.49668e-06,-1.64463e+09,-1.64197e+09,-1.64409e+09,-333682,-0.0671181,0.0505278,-0,0.0840113,8044.68,-56876.8,0,57442.9,333682
step02_gravity_refstate-mantle.xmf,1371,-5.65436e-06,1.83659e-05,0,-3.73464e-06,-1.60876e+09,-1.60555e+09,-1.608e+09,-499135,-0.0596471,0.0790964,-0,0.0990657,6405.15,-55764.2,0,56130.9,499135
step02_gravity_refstate-mantle.xmf,1372,-4.85348e-06,1.71425e-05,0,-3.10999e-06,-1.62707e+09,-1.62413e+09,-1.62642e+09,-415650,-0.0634841,0.0640513,-0,0.0901821,7191.8,-56332.2,0,56789.4,415650
step02_gravity_refstate-mantle.xmf,1373,-2.86801e-06,1.41637e-05,0,-6.99539e-07,-1.71355e+09,-1.71128e+09,-1.71317e+09,-93493.4,-0.0719857,0.0140823,-0,0.0733502,9472.81,-59009.2,0,59764.7,93493.4
step02_gravity_refstate-mantle.xmf,1374,-2.25559e-06,1.32954e-05,0,5.70172e-09,-1.74557e+09,-1.74349e+09,-1.74527e+09,762.035,-0.0737507,-1.33713e-18,-0,0.0737507,10149.4,-60000,0,60852.4,762.035
step02_gravity_refstate-mantle.xmf,1375,-1.25832e-05,2.83927e-05,0,-1.72475e-06,-1.54383e+09,-1.53836e+09,-1.54215e+09,-230513,-0.0108876,0.162197,-0,0.162562,853.791,-53738.1,0,53744.9,230513
step02_gravity_refstate-mantle.xmf,1376,-8.52811e-06,2.21225e-05,0,2.41882e-06,-1.64729e+09,-1.6432e+09,-1.64615e+09,323275,0.0429708,0.0672932,0,0.0798427,-4194.26,-56945,-0,57099.3,323275
step02_gravity_refstate-mantle.xmf,1377,-1.14066e-05,2.67984e-05,0,-3.75842e-06,-1.54604e+09,-1.54093e+09,-1.54452e+09,-502313,-0.0258908,0.154519,-0,0.156673,2105.46,-53810,0,53851.2,502313
step02_gravity_refstate-mantle.xmf,1378,-3.37868e-06,1.48871e-05,0,-1.30173e-06,-1.68885e+09,-1.68641e+09,-1.6884e+09,-173976,-0.0701577,0.0263483,-0,0.0749422,8892.54,-58244.7,0,58919.6,173976
step02_gravity_refstate-mantle.xmf,1379,-1.25188e-05,2.81067e-05,0,-5.0091e-07,-1.55749e+09,-1.55206e+09,-1.55581e+09,-66946.6,-0.00321319,0.151296,-0,0.15133,256.689,-54159.5,0,54160.1,66946.6
step02_gravity_refstate-mantle.xmf,1380,-1.22157e-05,2.75399e-05,0,6.28385e-07,-1.57137e+09,-1.56606e+09,-1.56974e+09,83983.7,0.0050817,0.139189,0,0.139281,-415.683,-54589.1,-0,54590.7,83983.7
step02_gravity_refstate-mantle.xmf,1381,-9.36593e-06,2.33127e-05,0,2.56802e-06,-1.63092e+09,-1.62655e+09,-1.62966e+09,343216,0.0365813,0.0820596,0,0.0898442,-3432.64,-56436.5,-0,56540.8,343216
step02_gravity_refstate-mantle.xmf,1382,-1.01832e-05,2.44832e-05,0,2.50351e-06,-1.61567e+09,-1.61103e+09,-1.6143e+09,334595,0.0296787,0.0965691,0,0.101027,-2682.15,-55963,-0,56027.2,334595
step02_gravity_refstate-mantle.xmf,1383,-1.09706e-05,2.56251e-05,0,2.18664e-06,-1.60065e+09,-1.59576e+09,-1.59918e+09,292245,0.0220853,0.111213,0,0.113385,-1924.77,-55496.8,-0,55530.2,292245
step02_gravity_refstate-mantle.xmf,1384,-1.16804e-05,2.6687e-05,0,1.55012e-06,-1.58588e+09,-1.58075e+09,-1.58432e+09,207174,0.0136735,0.125623,0,0.126365,-1151.84,-55038.5,-0,55050.5,207174
step02_gravity_refstate-mantle.xmf,1385,-7.79771e-06,2.1025e-05,0,1.26465e-06,-1.69591e+09,-1.69206e+09,-1.69487e+09,169021,0.047923,0.032638,0,0.0579815,-4905,-58448.8,-0,58654.2,169021
step02_gravity_refstate-mantle.xmf,1386,-8.63807e-06,2.21782e-05,0,1.59804e-06,-1.67827e+09,-1.67415e+09,-1.67711e+09,213578,0.041461,0.0464737,0,0.0622802,-4088.28,-57901.1,-0,58045.3,213578
step02_gravity_refstate-mantle.xmf,1387,-7.22761e-06,2.02889e-05,0,5.40977e-10,-1.74606e+09,-1.74239e+09,-1.7451e+09,72.3016,0.0518027,-2.2145e-19,0,0.0518027,-5459.16,-60000,-0,60247.8,72.3016
step02_gravity_refstate-mantle.xmf,1388,-1.04175e-05,2.52863e-05,0,-4.12241e-06,-1.56008e+09,-1.55531e+09,-1.55869e+09,-550961,-0.0326873,0.13869,-0,0.14249,2785.58,-54246.4,0,54317.9,550961
step02_gravity_refstate-mantle.xmf,1389,-1.19503e-05,2.74592e-05,0,-2.58745e-06,-1.55356e+09,-1.54829e+09,-1.55196e+09,-345813,-0.0181088,0.151612,-0,0.152689,1461.97,-54040.2,0,54060,345813
step02_gravity_refstate-mantle.xmf,1390,-9.40318e-06,2.3777e-05,0,-4.23825e-06,-1.57441e+09,-1.56998e+09,-1.57316e+09,-566442,-0.0390734,0.122764,-0,0.128832,3494.76,-54692.1,0,54803.6,566442
step02_gravity_refstate-mantle.xmf,1391,-8.424e-06,2.23282e-05,0,-4.13705e-06,-1.5889e+09,-1.58479e+09,-1.58777e+09,-552917,-0.0449578,0.107194,-0,0.11624,4221.87,-55142.4,0,55303.8,552917
step02_gravity_refstate-mantle.xmf,1392,-7.56646e-06,2.10455e-05,0,-3.82175e-06,-1.60478e+09,-1.60096e+09,-1.60377e+09,-510776,-0.0498943,0.0917802,-0,0.104466,4909.26,-55635.5,0,55851.7,510776
step02_gravity_refstate-mantle.xmf,1393,-6.76193e-06,1.98395e-05,0,-3.35315e-06,-1.6228e+09,-1.61924e+09,-1.62189e+09,-448148,-0.0544074,0.0759542,-0,0.0934302,5610.14,-56194.3,0,56473.6,448148
step02_gravity_refstate-mantle.xmf,1394,-4.19925e-06,1.60807e-05,0,-1.69563e-06,-1.67698e+09,-1.67427e+09,-1.67642e+09,-226621,-0.0670598,0.0344721,-0,0.0754012,8067.08,-57875.5,0,58435.1,226621
step02_gravity_refstate-mantle.xmf,1395,-5.12317e-06,1.74208e-05,0,-2.23048e-06,-1.66035e+09,-1.65734e+09,-1.65967e+09,-298104,-0.0629537,0.0464649,-0,0.0782442,7159.62,-57359.1,0,57804.2,298104
step02_gravity_refstate-mantle.xmf,1396,-5.96793e-06,1.86602e-05,0,-2.81405e-06,-1.64137e+09,-1.63808e+09,-1.64057e+09,-376098,-0.0587015,0.0608262,-0,0.0845322,6345.72,-56770.2,0,57123.8,376098
step02_gravity_refstate-mantle.xmf,1397,-4.17124e-06,1.60383e-05,0,-8.07405e-07,-1.71282e+09,-1.71012e+09,-1.71226e+09,-107910,-0.0675377,0.016359,-0,0.0694907,8207.54,-58982.6,0,59550.9,107910
step02_gravity_refstate-mantle.xmf,1398,-3.44744e-06,1.50324e-05,0,7.54364e-09,-1.74568e+09,-1.74321e+09,-1.74522e+09,1008.21,-0.0702792,-1.55443e-18,-0,0.0702792,8931.98,-60000,0,60661.2,1008.21
step02_gravity_refstate-mantle.xmf,1399,-1.2005e-05,2.72884e-05,0,-1.60272e-06,-1.57016e+09,-1.56491e+09,-1.56856e+09,-214204,-0.012103,0.139153,-0,0.139678,994.131,-54552.4,0,54561.4,214204
step02_gravity_refstate-mantle.xmf,1400,-9.36151e-06,2.31926e-05,0,1.85139e-06,-1.65948e+09,-1.65513e+09,-1.65823e+09,247438,0.0353298,0.0617826,0,0.0711708,-3368.83,-57318.6,-0,57417.5,247438
step02_gravity_refstate-mantle.xmf,1401,-7.80957e-06,2.10599e-05,0,5.55911e-07,-1.72433e+09,-1.72047e+09,-1.72329e+09,74297.5,0.0476807,0.0141728,0,0.0497425,-4903.48,-59326.8,-0,59529.1,74297.5
step02_gravity_refstate-mantle.xmf,1402,-1.13001e-05,2.63231e-05,0,-2.69405e-06,-1.57354e+09,-1.56851e+09,-1.57203e+09,-360060,-0.0223628,0.133149,-0,0.135014,1881.43,-54659,0,54691.4,360060
step02_gravity_refstate-mantle.xmf,1403,-1.17675e-05,2.66958e-05,0,4.25741e-07,-1.59852e+09,-1.59338e+09,-1.59695e+09,56900.3,0.00426905,0.116472,0,0.116551,-362.705,-55428.4,-0,55429.6,56900.3
step02_gravity_refstate-mantle.xmf,1404,-1.19993e-05,2.7132e-05,0,-5.2446e-07,-1.58398e+09,-1.57875e+09,-1.58237e+09,-70094.1,-0.00413868,0.128595,-0,0.128661,344.783,-54978.8,0,54979.9,70094.1
step02_gravity_refstate-mantle.xmf,1405,-1.00582e-05,2.41692e-05,0,1.87237e-06,-1.64354e+09,-1.63897e+09,-1.6422e+09,250243,0.0287763,0.0757059,0,0.0809905,-2659.13,-56824.1,-0,56886.3,250243
step02_gravity_refstate-mantle.xmf,1406,-1.07418e-05,2.51344e-05,0,1.62235e-06,-1.62942e+09,-1.62462e+09,-1.62798e+09,216827,0.0209509,0.088795,0,0.0912332,-1878.28,-56385.8,-0,56417,216827
step02_gravity_refstate-mantle.xmf,1407,-1.13273e-05,2.59985e-05,0,1.16718e-06,-1.61383e+09,-1.60884e+09,-1.61232e+09,155994,0.0128809,0.102927,0,0.10373,-1122.23,-55902.5,-0,55913.7,155994
step02_gravity_refstate-mantle.xmf,1408,-9.49199e-06,2.3305e-05,0,1.16916e-06,-1.68781e+09,-1.68343e+09,-1.68654e+09,156259,0.0329261,0.0419727,0,0.0533464,-3161.47,-58193.1,-0,58278.9,156259
step02_gravity_refstate-mantle.xmf,1409,-8.81054e-06,2.238e-05,0,7.34139e-07,-1.71356e+09,-1.70939e+09,-1.71238e+09,98117.7,0.0394975,0.0225632,0,0.0454878,-3909.65,-58990.7,-0,59120.2,98117.7
step02_gravity_refstate-mantle.xmf,1410,-8.37464e-06,2.18227e-05,0,5.3013e-09,-1.74618e+09,-1.74215e+09,-1.74507e+09,708.519,0.043121,-3.35702e-19,0,0.043121,-4346.66,-60000,-0,60157.2,708.519
step02_gravity_refstate-mantle.xmf,1411,-1.03186e-05,2.48718e-05,0,-3.22817e-06,-1.58805e+09,-1.58335e+09,-1.58668e+09,-431445,-0.0308588,0.117465,-0,0.121451,2713.8,-55110.2,0,55177,431445
step02_gravity_refstate-mantle.xmf,1412,-9.4036e-06,2.35395e-05,0,-3.34678e-06,-1.60263e+09,-1.59823e+09,-1.60137e+09,-447297,-0.0376387,0.102414,-0,0.109111,3454.66,-55563.1,0,55670.3,447297
step02_gravity_refstate-mantle.xmf,1413,-8.53126e-06,2.22681e-05,0,-3.2143e-06,-1.61848e+09,-1.61437e+09,-1.61734e+09,-429592,-0.0435824,0.087123,-0,0.0974158,4176.31,-56055.4,0,56210.7,429592
step02_gravity_refstate-mantle.xmf,1414,-7.7607e-06,2.11416e-05,0,-2.88632e-06,-1.63583e+09,-1.63196e+09,-1.63479e+09,-385757,-0.0485292,0.071956,-0,0.0867915,4843.75,-56593.4,0,56800.3,385757
step02_gravity_refstate-mantle.xmf,1415,-7.05283e-06,2.01139e-05,0,-2.4405e-06,-1.65441e+09,-1.65078e+09,-1.65347e+09,-326173,-0.0528856,0.0570953,-0,0.0778252,5487.91,-57169.5,0,57432.3,326173
step02_gravity_refstate-mantle.xmf,1416,-5.27731e-06,1.75854e-05,0,-1.34878e-06,-1.69393e+09,-1.69088e+09,-1.69323e+09,-180265,-0.0626509,0.0283313,-0,0.068759,7155.54,-58395.8,0,58832.6,180265
step02_gravity_refstate-mantle.xmf,1417,-6.25655e-06,1.89694e-05,0,-1.8633e-06,-1.67601e+09,-1.67264e+09,-1.67518e+09,-249030,-0.0575302,0.0411662,-0,0.0707417,6237.38,-57839.3,0,58174.6,249030
step02_gravity_refstate-mantle.xmf,1418,-4.70086e-06,1.68124e-05,0,2.07839e-09,-1.7458e+09,-1.74293e+09,-1.74518e+09,277.776,-0.0654517,-1.15752e-18,-0,0.0654517,7747.36,-60000,0,60498.1,277.776
step02_gravity_refstate-mantle.xmf,1419,-1.15333e-05,2.64169e-05,0,-1.4599e-06,-1.59572e+09,-1.59065e+09,-1.59418e+09,-195115,-0.0134991,0.117537,-0,0.118309,1151.88,-55342.9,0,55354.8,195115
step02_gravity_refstate-mantle.xmf,1420,-9.92777e-06,2.395e-05,0,1.39849e-06,-1.66903e+09,-1.6645e+09,-1.6677e+09,186908,0.0284952,0.0567197,0,0.0634752,-2677.17,-57611.7,-0,57673.9,186908
step02_gravity_refstate-mantle.xmf,1421,-1.09219e-05,2.55634e-05,0,-2.17944e-06,-1.60198e+09,-1.59711e+09,-1.60052e+09,-291282,-0.0223673,0.110049,-0,0.112299,1953.67,-55538.2,0,55572.5,291282
step02_gravity_refstate-mantle.xmf,1422,-5.3274e-06,1.76611e-05,0,-5.77809e-07,-1.72366e+09,-1.72059e+09,-1.72295e+09,-77224.1,-0.0625822,0.01213,-0,0.0637469,7169.29,-59313.9,0,59745.6,77224.1
step02_gravity_refstate-mantle.xmf,1423,-1.13979e-05,2.60082e-05,0,2.83918e-07,-1.62735e+09,-1.62235e+09,-1.62583e+09,37945.7,0.00369456,0.0930025,0,0.0930759,-324.276,-56319.8,-0,56320.8,37945.7
step02_gravity_refstate-mantle.xmf,1424,-1.15733e-05,2.6347e-05,0,-4.88352e-07,-1.61141e+09,-1.60635e+09,-1.60987e+09,-65268.3,-0.00486992,0.105848,-0,0.10596,420.352,-55827.1,0,55828.7,65268.3
step02_gravity_refstate-mantle.xmf,1425,-1.05773e-05,2.47975e-05,0,1.09276e-06,-1.66139e+09,-1.65666e+09,-1.65997e+09,146047,0.0197025,0.06431,0,0.0672604,-1808.12,-57373.5,-0,57401.9,146047
step02_gravity_refstate-mantle.xmf,1426,-1.10626e-05,2.54913e-05,0,8.37089e-07,-1.64181e+09,-1.63693e+09,-1.64033e+09,111877,0.0119885,0.0807419,0,0.081627,-1072.49,-56767.3,-0,56777.4,111877
step02_gravity_refstate-mantle.xmf,1427,-1.0192e-05,2.42351e-05,0,8.42468e-07,-1.69006e+09,-1.68546e+09,-1.6887e+09,112596,0.0235263,0.0419549,0,0.048101,-2208.94,-58260.4,-0,58302.2,112596
step02_gravity_refstate-mantle.xmf,1428,-9.79582e-06,2.3681e-05,0,5.1783e-07,-1.71652e+09,-1.71205e+09,-1.71522e+09,69208,0.0283716,0.0217838,0,0.0357698,-2715.58,-59079,-0,59141.4,69208
step02_gravity_refstate-mantle.xmf,1429,-9.3678e-06,2.31353e-05,0,7.20487e-09,-1.74629e+09,-1.74195e+09,-1.74504e+09,962.931,0.0333835,-3.25829e-19,0,0.0333835,-3249.15,-60000,-0,60087.9,962.931
step02_gravity_refstate-mantle.xmf,1430,-1.01543e-05,2.44451e-05,0,-2.50338e-06,-1.61627e+09,-1.61164e+09,-1.61491e+09,-334577,-0.0298785,0.0960218,-0,0.100563,2703.46,-55981.7,0,56046.9,334577
step02_gravity_refstate-mantle.xmf,1431,-9.36528e-06,2.33085e-05,0,-2.53629e-06,-1.63207e+09,-1.6277e+09,-1.63082e+09,-338975,-0.0365102,0.0812463,-0,0.0890728,3428.27,-56472.2,0,56576.2,338975
step02_gravity_refstate-mantle.xmf,1432,-8.59026e-06,2.2202e-05,0,-2.34823e-06,-1.64929e+09,-1.64518e+09,-1.64815e+09,-313841,-0.0424157,0.06617,-0,0.0785974,4134.61,-57006.6,0,57156.3,313841
step02_gravity_refstate-mantle.xmf,1433,-7.95437e-06,2.1311e-05,0,-2.05174e-06,-1.66533e+09,-1.66142e+09,-1.66427e+09,-274215,-0.0469136,0.0531595,-0,0.0709001,4718.96,-57503.9,0,57697.2,274215
step02_gravity_refstate-mantle.xmf,1434,-7.41415e-06,2.05415e-05,0,-1.59327e-06,-1.685e+09,-1.68126e+09,-1.68401e+09,-212940,-0.0505978,0.038787,-0,0.063754,5239.62,-58113.1,0,58348.9,212940
step02_gravity_refstate-mantle.xmf,1435,-6.52506e-06,1.93109e-05,0,-8.72923e-07,-1.71303e+09,-1.70957e+09,-1.71216e+09,-116666,-0.0562006,0.01968,-0,0.0595467,6083.35,-58981.7,0,59294.6,116666
step02_gravity_refstate-mantle.xmf,1436,-5.98139e-06,1.85885e-05,0,2.70804e-09,-1.74593e+09,-1.74265e+09,-1.74514e+09,361.93,-0.059278,-1.88415e-18,-0,0.059278,6591.22,-60000,0,60360.9,361.93
step02_gravity_refstate-mantle.xmf,1437,-1.11815e-05,2.57691e-05,0,-1.21214e-06,-1.62167e+09,-1.61673e+09,-1.62018e+09,-162002,-0.01388,0.0964511,-0,0.0974447,1221.03,-56145.1,0,56158.4,162002
step02_gravity_refstate-mantle.xmf,1438,-1.06369e-05,2.49995e-05,0,-1.6653e-06,-1.63164e+09,-1.62687e+09,-1.63021e+09,-222567,-0.0221078,0.0867646,-0,0.0895368,1990.6,-56454.6,0,56489.7,222567
step02_gravity_refstate-mantle.xmf,1439,-1.11324e-05,2.55304e-05,0,1.46572e-07,-1.65493e+09,-1.65003e+09,-1.65344e+09,19589.3,0.00268438,0.0710676,0,0.0711183,-241.254,-57172.1,-0,57172.6,19589.3
step02_gravity_refstate-mantle.xmf,1440,-1.12413e-05,2.57389e-05,0,-4.20839e-07,-1.6396e+09,-1.63465e+09,-1.63809e+09,-56245.2,-0.00542458,0.0831118,-0,0.0832887,481.98,-56698.3,0,56700.4,56245.2
step02_gravity_refstate-mantle.xmf,1441,-1.09052e-05,2.52291e-05,0,5.39964e-07,-1.66622e+09,-1.66139e+09,-1.66476e+09,72166.2,0.0101197,0.0617848,0,0.0626081,-920.199,-57521.7,-0,57529,72166.2
step02_gravity_refstate-mantle.xmf,1442,-1.06905e-05,2.48908e-05,0,4.95693e-07,-1.68982e+09,-1.68507e+09,-1.68839e+09,66249.4,0.0133718,0.0432481,0,0.0452681,-1235.99,-58251.3,-0,58264.4,66249.4
step02_gravity_refstate-mantle.xmf,1443,-1.04201e-05,2.45028e-05,0,3.2415e-07,-1.71748e+09,-1.71281e+09,-1.71608e+09,43322.7,0.0177534,0.0218616,0,0.0281623,-1665.51,-59106.4,-0,59129.8,43322.7
step02_gravity_refstate-mantle.xmf,1444,-1.01315e-05,2.4138e-05,0,9.09286e-09,-1.74637e+09,-1.74179e+09,-1.74502e+09,1215.26,0.0227827,-3.17632e-19,0,0.0227827,-2161.95,-60000,-0,60038.9,1215.26
step02_gravity_refstate-mantle.xmf,1445,-9.99289e-06,2.40825e-05,0,-1.86602e-06,-1.64544e+09,-1.64089e+09,-1.64411e+09,-249393,-0.0293085,0.074106,-0,0.0796912,2716.31,-56883.1,0,56947.9,249393
step02_gravity_refstate-mantle.xmf,1446,-9.3312e-06,2.31497e-05,0,-1.81799e-06,-1.66139e+09,-1.65705e+09,-1.66014e+09,-242975,-0.0355326,0.0603364,-0,0.0700217,3394.5,-57377.6,0,57478,242975
step02_gravity_refstate-mantle.xmf,1447,-8.56213e-06,2.20764e-05,0,-1.49226e-06,-1.68341e+09,-1.67931e+09,-1.68226e+09,-199440,-0.0420576,0.0427507,-0,0.0599706,4166.77,-58060.2,0,58209.5,199440
step02_gravity_refstate-mantle.xmf,1448,-7.94501e-06,2.12296e-05,0,-7.27334e-07,-1.71699e+09,-1.7131e+09,-1.71593e+09,-97208.2,-0.0466747,0.0191184,-0,0.0504385,4770.42,-59099.7,0,59291.9,97208.2
step02_gravity_refstate-mantle.xmf,1449,-7.22885e-06,2.02874e-05,0,-1.91729e-09,-1.74606e+09,-1.74239e+09,-1.7451e+09,-256.246,-0.0518023,-1.82989e-18,-0,0.0518023,5459.16,-60000,0,60247.8,256.246
step02_gravity_refstate-mantle.xmf,1450,-1.08878e-05,2.52308e-05,0,-9.34408e-07,-1.6509e+09,-1.64607e+09,-1.64944e+09,-124884,-0.0142433,0.0732968,-0,0.0746678,1286.99,-57048.6,0,57063.1,124884
step02_gravity_refstate-mantle.xmf,1451,-1.0393e-05,2.45598e-05,0,-1.21173e-06,-1.66211e+09,-1.65744e+09,-1.66072e+09,-161948,-0.022297,0.0632727,-0,0.0670865,2056.86,-57396.4,0,57433.3,161948
step02_gravity_refstate-mantle.xmf,1452,-1.09405e-05,2.51919e-05,0,6.12245e-08,-1.68687e+09,-1.68204e+09,-1.6854e+09,8182.66,0.00193339,0.0460616,0,0.0461022,-177.159,-58159.1,-0,58159.4,8182.66
step02_gravity_refstate-mantle.xmf,1453,-1.09884e-05,2.52956e-05,0,-3.61056e-07,-1.66791e+09,-1.66306e+09,-1.66645e+09,-48255.2,-0.00641736,0.0607135,-0,0.0610517,582.862,-57573.6,0,57576.6,48255.2
step02_gravity_refstate-mantle.xmf,1454,-1.07624e-05,2.49494e-05,0,1.15075e-07,-1.71753e+09,-1.71276e+09,-1.7161e+09,15379.8,0.00667103,0.0222383,0,0.0232173,-619.257,-59107,-0,59110.2,15379.8
step02_gravity_refstate-mantle.xmf,1455,-1.06128e-05,2.47654e-05,0,1.0483e-08,-1.74643e+09,-1.7417e+09,-1.74501e+09,1401.05,0.0115598,-3.15086e-19,0,0.0115598,-1080.34,-60000,-0,60009.7,1401.05
step02_gravity_refstate-mantle.xmf,1456,-9.87571e-06,2.38704e-05,0,-1.39815e-06,-1.66932e+09,-1.66481e+09,-1.668e+09,-186863,-0.0289715,0.0563924,-0,0.0633992,2725.73,-57620.8,0,57685.3,186863
step02_gravity_refstate-mantle.xmf,1457,-9.4629e-06,2.32702e-05,0,-1.15994e-06,-1.68877e+09,-1.6844e+09,-1.68751e+09,-155025,-0.0332347,0.0412124,-0,0.0529434,3195.3,-58223,0,58310.6,155025
step02_gravity_refstate-mantle.xmf,1458,-8.95498e-06,2.25727e-05,0,-6.53846e-07,-1.71651e+09,-1.7123e+09,-1.71531e+09,-87386.6,-0.0379703,0.0207247,-0,0.043258,3739.71,-59081.4,0,59199.7,87386.6
step02_gravity_refstate-mantle.xmf,1459,-8.38111e-06,2.18319e-05,0,-5.02655e-09,-1.74619e+09,-1.74215e+09,-1.74507e+09,-671.799,-0.0431228,-1.99101e-18,-0,0.0431228,4346.66,-60000,0,60157.2,671.799
step02_gravity_refstate-mantle.xmf,1460,-1.06507e-05,2.48302e-05,0,-6.98644e-07,-1.6794e+09,-1.67465e+09,-1.67797e+09,-93373.7,-0.0153819,0.0510761,-0,0.053342,1417.88,-57929.4,0,57946.7,93373.7
step02_gravity_refstate-mantle.xmf,1461,-1.01364e-05,2.41707e-05,0,-8.81061e-07,-1.68882e+09,-1.68424e+09,-1.68747e+09,-117754,-0.0242303,0.0427804,-0,0.0491657,2276.82,-58222.3,0,58266.8,117754
step02_gravity_refstate-mantle.xmf,1462,-1.07926e-05,2.5021e-05,0,-2.9521e-07,-1.69336e+09,-1.68857e+09,-1.69191e+09,-39454.9,-0.00823267,0.0408361,-0,0.0416577,759.068,-58360.1,0,58365.1,39454.9
step02_gravity_refstate-mantle.xmf,1463,-1.07887e-05,2.49902e-05,0,-9.58548e-08,-1.71817e+09,-1.71339e+09,-1.71673e+09,-12811,-0.00478246,0.0217793,-0,0.0222982,443.674,-59126.6,0,59128.3,12811
step02_gravity_refstate-mantle.xmf,1464,-1.07777e-05,2.4981e-05,0,9.27072e-09,-1.74644e+09,-1.74166e+09,-1.745e+09,1239.03,-7.45115e-07,-3.01594e-19,-0,7.45115e-07,-6.27115e-08,-60000,-0,60000,1239.03
step02_gravity_refstate-mantle.xmf,1465,-9.78583e-06,2.36766e-05,0,-5.19331e-07,-1.7168e+09,-1.71233e+09,-1.71549e+09,-69408.6,-0.0284964,0.0215682,-0,0.0357384,2728.53,-59087.6,0,59150.6,69408.6
step02_gravity_refstate-mantle.xmf,1466,-9.36865e-06,2.3138e-05,0,-7.49658e-09,-1.74629e+09,-1.74195e+09,-1.74504e+09,-1001.92,-0.0333839,-2.07932e-18,-0,0.0333839,3249.15,-60000,0,60087.9,1001.92
step02_gravity_refstate-mantle.xmf,1467,-1.0453e-05,2.45803e-05,0,-3.6536e-07,-1.71292e+09,-1.70824e+09,-1.71152e+09,-48830.3,-0.0165577,0.0253804,-0,0.0303038,1549.08,-58965.6,0,58985.9,48830.3
step02_gravity_refstate-mantle.xmf,1468,-1.06098e-05,2.47613e-05,0,1.22536e-08,-1.74643e+09,-1.7417e+09,-1.74501e+09,1637.69,-0.0115633,-3.43367e-19,-0,0.0115633,1080.34,-60000,0,60009.7,1637.69
step02_gravity_refstate-mantle.xmf,1469,-1.01337e-05,2.41397e-05,0,-1.36417e-08,-1.74637e+09,-1.74179e+09,-1.74502e+09,-1823.22,-0.0227815,-2.45257e-18,-0,0.0227815,2161.95,-60000,0,60038.9,1823.22
step02_gravity_refstate-intrusion.xmf,0,2.91609e-05,-2.97897e-05,0,3.46376e-05,-1.09673e+09,-1.1008e+09,-1.09874e+09,2.38906e+06,-0.0416048,0.486192,-0,0.487969,-1000,-40000,-0,40012.5,2.38906e+06
step02_gravity_refstate-intrusion.xmf,1,2.48564e-05,-2.48364e-05,0,4.92727e-05,-1.1132e+09,-1.11663e+09,-1.11492e+09,3.39849e+06,-0.0365255,0.499927,-0,0.50126,-1000,-40500.4,-0,40512.7,3.39849e+06
step02_gravity_refstate-intrusion.xmf,2,2.13483e-05,-1.84224e-05,0,6.01938e-05,-1.12953e+09,-1.13228e+09,-1.13101e+09,4.15175e+06,-0.0292306,0.510754,-0,0.51159,-1000,-41000.4,-0,41012.6,4.15175e+06
step02_gravity_refstate-intrusion.xmf,3,2.91345e-05,-2.97311e-05,0,-3.46617e-05,-1.09673e+09,-1.10079e+09,-1.09874e+09,-2.39072e+06,0.0415867,0.486205,0,0.48798,1000,-40000,0,40012.5,2.39072e+06
step02_gravity_refstate-intrusion.xmf,4,2.47616e-05,-2.47809e-05,0,-4.92818e-05,-1.11321e+09,-1.11663e+09,-1.11492e+09,-3.39912e+06,0.0365238,0.49993,0,0.501262,1000,-40500.4,0,40512.7,3.39912e+06
step02_gravity_refstate-intrusion.xmf,5,1.7507e-05,-1.20805e-05,0,6.7394e-05,-1.14592e+09,-1.14796e+09,-1.14713e+09,4.64838e+06,-0.0224598,0.5184,-0,0.518886,-1000,-41500.9,-0,41512.9,4.64838e+06
step02_gravity_refstate-intrusion.xmf,6,2.14832e-05,-1.84423e-05,0,-6.0376e-05,-1.12952e+09,-1.13228e+09,-1.131e+09,-4.16432e+06,0.0292368,0.510753,0,0.511589,1000,-41000.4,0,41012.6,4.16432e+06
step02_gravity_refstate-intrusion.xmf,7,1.72231e-05,-1.19743e-05,0,-6.73452e-05,-1.14595e+09,-1.14796e+09,-1.14713e+09,-4.64501e+06,0.0224617,0.518409,0,0.518896,1000,-41500.9,0,41512.9,4.64501e+06
step02_gravity_refstate-intrusion.xmf,8,1.34651e-05,-6.10071e-06,0,7.19824e-05,-1.16233e+09,-1.16368e+09,-1.16326e+09,4.96485e+06,-0.0165075,0.522958,-0,0.523218,-1000,-42001.1,-0,42013,4.96485e+06
step02_gravity_refstate-intrusion.xmf,9,1.33952e-05,-6.11505e-06,0,-7.19867e-05,-1.16233e+09,-1.16368e+09,-1.16326e+09,-4.96515e+06,0.0165041,0.522956,0,0.523217,1000,-42001.1,0,42013,4.96515e+06
step02_gravity_refstate-intrusion.xmf,10,9.52878e-06,-4.62877e-07,0,7.48552e-05,-1.17871e+09,-1.1794e+09,-1.17937e+09,5.163e+06,-0.0112835,0.524603,-0,0.524725,-1000,-42500.6,-0,42512.4,5.163e+06
step02_gravity_refstate-intrusion.xmf,11,9.5541e-06,-4.68113e-07,0,-7.48536e-05,-1.17871e+09,-1.1794e+09,-1.17937e+09,-5.16289e+06,0.0112839,0.524604,0,0.524725,1000,-42500.6,0,42512.4,5.16289e+06
step02_gravity_refstate-intrusion.xmf,12,5.78112e-06,4.85517e-06,0,7.64576e-05,-1.19508e+09,-1.19514e+09,-1.19548e+09,5.27352e+06,-0.00661723,0.523512,-0,0.523554,-1000,-42999.8,-0,43011.5,5.27352e+06
step02_gravity_refstate-intrusion.xmf,13,5.80014e-06,4.85518e-06,0,-7.64756e-05,-1.19508e+09,-1.19514e+09,-1.19548e+09,-5.27476e+06,0.00661895,0.523512,0,0.523554,1000,-42999.8,0,43011.5,5.27476e+06
step02_gravity_refstate-intrusion.xmf,14,2.21337e-06,9.99774e-06,0,7.71421e-05,-1.21145e+09,-1.21092e+09,-1.21161e+09,5.32073e+06,-0.00234076,0.519797,-0,0.519803,-1000,-43499.6,-0,43511.1,5.32073e+06
step02_gravity_refstate-intrusion.xmf,15,2.17994e-06,1.00278e-05,0,-7.71654e-05,-1.21146e+09,-1.21091e+09,-1.21161e+09,-5.32234e+06,0.0023423,0.519799,0,0.519804,1000,-43499.6,0,43511.1,5.32234e+06
step02_gravity_refstate-intrusion.xmf,16,-1.19539e-06,1.50892e-05,0,7.70658e-05,-1.22783e+09,-1.22671e+09,-1.22775e+09,5.31547e+06,0.00169499,0.513516,0,0.513519,-1000,-44000,-0,44011.4,5.31547e+06
step02_gravity_refstate-intrusion.xmf,17,-1.2193e-06,1.50931e-05,0,-7.70586e-05,-1.22783e+09,-1.22671e+09,-1.22775e+09,-5.31497e+06,-0.00169537,0.513518,-0,0.51352,1000,-44000,0,44011.4,5.31497e+06
step02_gravity_refstate-intrusion.xmf,18,-4.43979e-06,2.02335e-05,0,7.62762e-05,-1.24419e+09,-1.24249e+09,-1.24388e+09,5.26101e+06,0.00561072,0.504674,0,0.504706,-1000,-44500.4,-0,44511.6,5.26101e+06
step02_gravity_refstate-intrusion.xmf,19,-4.44075e-06,2.02326e-05,0,-7.628e-05,-1.24419e+09,-1.24249e+09,-1.24388e+09,-5.26127e+06,-0.00561133,0.504674,-0,0.504705,1000,-44500.4,0,44511.6,5.26127e+06
step02_gravity_refstate-intrusion.xmf,20,-7.53577e-06,2.55289e-05,0,7.46658e-05,-1.26051e+09,-1.25823e+09,-1.25999e+09,5.14993e+06,0.00951012,0.493239,0,0.49333,-1000,-45000.2,-0,45011.3,5.14993e+06
step02_gravity_refstate-intrusion.xmf,21,-7.52467e-06,2.55348e-05,0,-7.46788e-05,-1.26051e+09,-1.25823e+09,-1.25999e+09,-5.15083e+06,-0.00950922,0.493238,-0,0.49333,1000,-45000.2,0,45011.3,5.15083e+06
step02_gravity_refstate-intrusion.xmf,22,-1.03971e-05,3.10761e-05,0,7.20169e-05,-1.27678e+09,-1.27392e+09,-1.27606e+09,4.96723e+06,0.0134816,0.479112,0,0.479302,-1000,-45499.4,-0,45510.4,4.96723e+06
step02_gravity_refstate-intrusion.xmf,23,-1.04052e-05,3.10791e-05,0,-7.20325e-05,-1.27678e+09,-1.27392e+09,-1.27606e+09,-4.96831e+06,-0.0134798,0.479112,-0,0.479301,1000,-45499.4,0,45510.4,4.96831e+06
step02_gravity_refstate-intrusion.xmf,24,-1.2837e-05,3.70181e-05,0,6.82482e-05,-1.293e+09,-1.28956e+09,-1.29212e+09,4.70729e+06,0.0175732,0.462121,0,0.462455,-1000,-45998.9,-0,46009.8,4.70729e+06
step02_gravity_refstate-intrusion.xmf,25,-1.28877e-05,3.69378e-05,0,-6.8032e-05,-1.29301e+09,-1.28957e+09,-1.29212e+09,-4.69238e+06,-0.0175763,0.462124,-0,0.462458,1000,-45998.9,0,46009.8,4.69238e+06
step02_gravity_refstate-intrusion.xmf,26,-1.47361e-05,4.31371e-05,0,6.2116e-05,-1.30919e+09,-1.30519e+09,-1.30817e+09,4.28433e+06,0.0217574,0.442112,0,0.442647,-1000,-46499.1,-0,46509.9,4.28433e+06
step02_gravity_refstate-intrusion.xmf,27,-1.46924e-05,4.3125e-05,0,-6.2138e-05,-1.30918e+09,-1.30519e+09,-1.30817e+09,-4.28585e+06,-0.0217539,0.442101,-0,0.442636,1000,-46499.1,0,46509.9,4.28585e+06
step02_gravity_refstate-intrusion.xmf,28,-1.52046e-05,4.95449e-05,0,5.3935e-05,-1.32522e+09,-1.32076e+09,-1.32418e+09,3.72007e+06,0.0257077,0.418933,0,0.419721,-1000,-46999.6,-0,47010.3,3.72007e+06
step02_gravity_refstate-intrusion.xmf,29,-1.52222e-05,4.95109e-05,0,-5.38168e-05,-1.32523e+09,-1.32076e+09,-1.32418e+09,-3.71191e+06,-0.0256998,0.418935,-0,0.419722,1000,-46999.6,0,47010.3,3.71191e+06
step02_gravity_refstate-intrusion.xmf,30,-1.47001e-05,5.53925e-05,0,4.14412e-05,-1.34116e+09,-1.33633e+09,-1.34015e+09,2.85833e+06,0.0283591,0.392722,0,0.393744,-1000,-47499.6,-0,47510.1,2.85833e+06
step02_gravity_refstate-intrusion.xmf,31,-1.46513e-05,5.53667e-05,0,-4.14614e-05,-1.34116e+09,-1.33633e+09,-1.34015e+09,-2.85972e+06,-0.0283565,0.392721,-0,0.393744,1000,-47499.6,0,47510.1,2.85972e+06
step02_gravity_refstate-intrusion.xmf,32,-2.32685e-05,7.5648e-05,0,2.37894e-05,-1.35756e+09,-1.35074e+09,-1.35596e+09,1.64083e+06,0.0254867,0.364319,0,0.365209,-1000,-48000,-0,48010.4,1.64083e+06
step02_gravity_refstate-intrusion.xmf,33,-2.33733e-05,7.558e-05,0,-2.38837e-05,-1.35758e+09,-1.35075e+09,-1.35596e+09,-1.64733e+06,-0.0254754,0.364337,-0,0.365227,1000,-48000,0,48010.4,1.64733e+06
step02_gravity_refstate-intrusion.xmf,34,-2.60134e-05,0.000103803,0,-1.70227e-05,-1.35691e+09,-1.34795e+09,-1.35511e+09,-1.17411e+06,-0.0131789,0.375525,-0,0.375757,499.828,-48000,0,48002.6,1.17411e+06
step02_gravity_refstate-intrusion.xmf,35,-2.66961e-05,0.000110787,0,-9.552e-07,-1.35674e+09,-1.34726e+09,-1.3549e+09,-65883.1,-6.08258e-06,0.380435,-0,0.380435,1.02887e-10,-48000,0,48000,65883.1
step02_gravity_refstate-intrusion.xmf,36,-2.6083e-05,0.000105676,0,2.03821e-05,-1.35685e+09,-1.34776e+09,-1.35505e+09,1.40582e+06,0.0131446,0.375541,0,0.375771,-499.828,-48000,-0,48002.6,1.40582e+06
step02_gravity_refstate-intrusion.xmf,37,4.48756e-05,-6.82333e-05,0,1.95164e-05,-1.0964e+09,-1.1042e+09,-1.0995e+09,1.34611e+06,-0.0218512,0.510745,-0,0.511212,-499.828,-40000,-0,40003.1,1.34611e+06
step02_gravity_refstate-intrusion.xmf,38,4.63371e-05,-7.40345e-05,0,3.24458e-08,-1.09645e+09,-1.10475e+09,-1.09964e+09,2237.89,4.66032e-06,0.519852,0,0.519852,-1.02887e-10,-40000,-0,40000,2237.89
step02_gravity_refstate-intrusion.xmf,39,4.48756e-05,-6.82052e-05,0,-1.949e-05,-1.0964e+09,-1.1042e+09,-1.0995e+09,-1.34428e+06,0.0218678,0.51075,0,0.511218,499.828,-40000,0,40003.1,1.34428e+06
step02_gravity_refstate-intrusion.xmf,40,3.77888e-05,-4.82864e-05,0,2.61211e-05,-1.10823e+09,-1.11417e+09,-1.11084e+09,1.80165e+06,-0.0265557,0.525484,-0,0.526154,-636.528,-40363.5,-0,40368.6,1.80165e+06
step02_gravity_refstate-intrusion.xmf,41,4.33828e-05,-5.77698e-05,0,9.50416e-06,-1.10938e+09,-1.11636e+09,-1.11237e+09,655532,-0.0103383,0.544008,-0,0.544106,-241.272,-40406.9,-0,40407.6,655532
step02_gravity_refstate-intrusion.xmf,42,4.33606e-05,-5.77686e-05,0,-9.75533e-06,-1.10934e+09,-1.11632e+09,-1.11233e+09,-672856,0.0106372,0.54379,0,0.543894,248.271,-40405.7,0,40406.4,672856
step02_gravity_refstate-intrusion.xmf,43,3.90437e-05,-4.856e-05,0,-2.47332e-05,-1.10812e+09,-1.11416e+09,-1.11081e+09,-1.70592e+06,0.0265519,0.525488,0,0.526159,636.385,-40363.7,0,40368.7,1.70592e+06
step02_gravity_refstate-intrusion.xmf,44,3.37197e-05,-3.77186e-05,0,2.81882e-05,-1.12082e+09,-1.12575e+09,-1.12315e+09,1.94423e+06,-0.0206853,0.5465,-0,0.546892,-567.006,-40750.4,-0,40754.3,1.94423e+06
step02_gravity_refstate-intrusion.xmf,45,3.32355e-05,-3.68765e-05,0,-2.99256e-05,-1.12084e+09,-1.12568e+09,-1.12313e+09,-2.06406e+06,0.0217412,0.544332,0,0.544766,599.413,-40750.4,0,40754.8,2.06406e+06
step02_gravity_refstate-intrusion.xmf,46,3.56053e-05,-4.03067e-05,0,1.31569e-06,-1.12598e+09,-1.13122e+09,-1.12844e+09,90747.5,-0.000173177,0.571713,-0,0.571713,-4.72709,-40913.1,-0,40913.1,90747.5
step02_gravity_refstate-intrusion.xmf,47,2.54557e-05,-2.43337e-05,0,-3.18709e-05,-1.13967e+09,-1.1431e+09,-1.14142e+09,-2.19823e+06,0.0141876,0.567408,0,0.567585,518.069,-41320.2,0,41323.5,2.19823e+06
step02_gravity_refstate-intrusion.xmf,48,2.67399e-05,-2.53828e-05,0,3.1688e-05,-1.13716e+09,-1.14075e+09,-1.139e+09,2.18562e+06,-0.0150828,0.564807,-0,0.565009,-528.703,-41245.6,-0,41249,2.18562e+06
step02_gravity_refstate-intrusion.xmf,49,2.51972e-05,-2.3041e-05,0,4.40028e-06,-1.14581e+09,-1.14913e+09,-1.14754e+09,303501,-0.00163818,0.590343,-0,0.590346,-65.4055,-41510.4,-0,41510.4,303501
step02_gravity_refstate-intrusion.xmf,50,1.80634e-05,-1.32526e-05,0,-4.7531e-05,-1.15418e+09,-1.15634e+09,-1.15543e+09,-3.27836e+06,0.0142409,0.559828,0,0.560009,696.855,-41756.6,0,41762.4,3.27836e+06
step02_gravity_refstate-intrusion.xmf,51,1.97092e-05,-1.472e-05,0,3.65693e-05,-1.15434e+09,-1.15671e+09,-1.1557e+09,2.5223e+06,-0.0112419,0.574405,-0,0.574515,-539.5,-41765.1,-0,41768.6,2.5223e+06
step02_gravity_refstate-intrusion.xmf,52,2.0727e-05,-1.65818e-05,0,-2.14775e-05,-1.15466e+09,-1.15723e+09,-1.15609e+09,-1.48137e+06,0.00679286,0.588489,0,0.588529,320.241,-41776.4,0,41777.7,1.48137e+06
step02_gravity_refstate-intrusion.xmf,53,1.75114e-05,-1.13402e-05,0,5.3324e-06,-1.16476e+09,-1.16675e+09,-1.16597e+09,367792,-0.00125129,0.600062,-0,0.600063,-72.7117,-42083.6,-0,42083.7,367792
step02_gravity_refstate-intrusion.xmf,54,1.44506e-05,-7.30371e-06,0,-3.77369e-05,-1.16907e+09,-1.17057e+09,-1.17007e+09,-2.60283e+06,0.00800307,0.58057,0,0.580626,524.397,-42211.4,0,42214.6,2.60283e+06
step02_gravity_refstate-intrusion.xmf,55,1.38088e-05,-6.40716e-06,0,4.09176e-05,-1.17039e+09,-1.17178e+09,-1.17134e+09,2.82221e+06,-0.00836487,0.577199,-0,0.57726,-567.563,-42250.8,-0,42254.7,2.82221e+06
step02_gravity_refstate-intrusion.xmf,56,1.18955e-05,-3.76628e-06,0,1.97278e-05,-1.17905e+09,-1.18013e+09,-1.17987e+09,1.36068e+06,-0.00325288,0.598045,-0,0.598054,-269.91,-42515,-0,42515.9,1.36068e+06
step02_gravity_refstate-intrusion.xmf,57,1.13575e-05,-2.74121e-06,0,-9.91106e-06,-1.18152e+09,-1.1825e+09,-1.18231e+09,-683597,0.00152561,0.602577,0,0.602579,135.735,-42590.9,0,42591.1,683597
step02_gravity_refstate-intrusion.xmf,58,8.73718e-06,8.36158e-07,0,-4.29949e-05,-1.18746e+09,-1.18801e+09,-1.18807e+09,-2.96549e+06,0.00527884,0.578061,0,0.578085,574.294,-42769.8,0,42773.6,2.96549e+06
step02_gravity_refstate-intrusion.xmf,59,8.90703e-06,6.03248e-07,0,4.47312e-05,-1.18682e+09,-1.1874e+09,-1.18744e+09,3.08525e+06,-0.00559761,0.575889,-0,0.575916,-597.611,-42750.2,-0,42754.4,3.08525e+06
step02_gravity_refstate-intrusion.xmf,60,7.32179e-06,2.74794e-06,0,1.28871e-05,-1.19404e+09,-1.19436e+09,-1.19455e+09,888863,-0.00127161,0.601699,-0,0.6017,-171.899,-42970.5,-0,42970.8,888863
step02_gravity_refstate-intrusion.xmf,61,6.88443e-06,3.35357e-06,0,-1.64366e-05,-1.1954e+09,-1.19564e+09,-1.19587e+09,-1.13369e+06,0.00152512,0.600126,0,0.600128,218.311,-43011.6,0,43012.1,1.13369e+06
step02_gravity_refstate-intrusion.xmf,62,3.86837e-06,7.63136e-06,0,-4.13632e-05,-1.20539e+09,-1.20513e+09,-1.20566e+09,-2.85295e+06,0.00220142,0.578671,0,0.578675,541.809,-43315.1,0,43318.5,2.85295e+06
step02_gravity_refstate-intrusion.xmf,63,4.67421e-06,6.60154e-06,0,4.22865e-05,-1.20264e+09,-1.2025e+09,-1.20296e+09,2.91663e+06,-0.00267575,0.578029,-0,0.578035,-555.758,-43231.5,-0,43235.1,2.91663e+06
step02_gravity_refstate-intrusion.xmf,64,3.05222e-06,8.89167e-06,0,2.54041e-06,-1.20916e+09,-1.20876e+09,-1.20937e+09,175220,-0.000103006,0.601303,-0,0.601303,-33.2343,-43430.3,-0,43430.3,175220
step02_gravity_refstate-intrusion.xmf,65,2.61072e-07,1.27955e-05,0,-5.45341e-05,-1.21967e+09,-1.21881e+09,-1.21969e+09,-3.76138e+06,0.00019232,0.557181,0,0.557181,710.069,-43750.3,0,43756,3.76138e+06
step02_gravity_refstate-intrusion.xmf,66,4.08218e-07,1.27456e-05,0,4.06506e-05,-1.21928e+09,-1.21843e+09,-1.21931e+09,2.8038e+06,-0.000191048,0.575229,-0,0.575229,-531.803,-43738.5,-0,43741.7,2.8038e+06
step02_gravity_refstate-intrusion.xmf,67,3.49211e-07,1.28208e-05,0,-2.55582e-05,-1.21928e+09,-1.21842e+09,-1.2193e+09,-1.76283e+06,0.000117333,0.588995,0,0.588995,334.985,-43738.4,0,43739.6,1.76283e+06
step02_gravity_refstate-intrusion.xmf,68,-1.94285e-06,1.61588e-05,0,4.92969e-06,-1.22778e+09,-1.22653e+09,-1.22765e+09,340016,0.000122644,0.59395,0,0.59395,-65.5242,-43997.2,-0,43997.3,340016
step02_gravity_refstate-intrusion.xmf,69,-3.32172e-06,1.83172e-05,0,-3.96248e-05,-1.23438e+09,-1.23289e+09,-1.23415e+09,-2.73305e+06,-0.0018389,0.568932,-0,0.568935,521.805,-44199,0,44202.1,2.73305e+06
step02_gravity_refstate-intrusion.xmf,70,-3.79346e-06,1.90366e-05,0,4.02244e-05,-1.23634e+09,-1.23477e+09,-1.23608e+09,2.7744e+06,0.00212965,0.567109,0,0.567113,-530.208,-44258.7,-0,44261.9,2.7744e+06
step02_gravity_refstate-intrusion.xmf,71,-6.84612e-06,2.38016e-05,0,1.2112e-06,-1.24654e+09,-1.24443e+09,-1.24607e+09,83540.5,0.000109294,0.582889,0,0.582889,-16.0856,-44569.1,-0,44569.1,83540.5
step02_gravity_refstate-intrusion.xmf,72,-7.52781e-06,2.50529e-05,0,-4.23283e-05,-1.25244e+09,-1.25019e+09,-1.25192e+09,-2.91952e+06,-0.00458391,0.553015,-0,0.553034,567.503,-44750.3,0,44753.9,2.91952e+06
step02_gravity_refstate-intrusion.xmf,73,-7.53141e-06,2.50496e-05,0,4.23312e-05,-1.25244e+09,-1.25019e+09,-1.25192e+09,2.91971e+06,0.00458407,0.553022,0,0.553041,-567.424,-44750.3,-0,44753.9,2.91971e+06
step02_gravity_refstate-intrusion.xmf,74,-1.04822e-05,2.96344e-05,0,1.63299e-05,-1.26067e+09,-1.2579e+09,-1.25994e+09,1.12632e+06,0.00231784,0.567579,0,0.567584,-221.941,-44999.9,-0,45000.4,1.12632e+06
step02_gravity_refstate-intrusion.xmf,75,-1.07395e-05,3.01618e-05,0,-1.32177e-05,-1.26161e+09,-1.25879e+09,-1.26087e+09,-911668,-0.00196213,0.567937,-0,0.567941,182.909,-45028.9,0,45029.3,911668
step02_gravity_refstate-intrusion.xmf,76,-1.13141e-05,3.15763e-05,0,-4.32408e-05,-1.26883e+09,-1.26587e+09,-1.26805e+09,-2.98245e+06,-0.00737258,0.535959,-0,0.536009,599.047,-45251.4,0,45255.4,2.98245e+06
step02_gravity_refstate-intrusion.xmf,77,-1.13926e-05,3.1523e-05,0,4.15437e-05,-1.2685e+09,-1.26554e+09,-1.26772e+09,2.8654e+06,0.00706605,0.538315,0,0.538361,-576.664,-45241.1,-0,45244.7,2.8654e+06
step02_gravity_refstate-intrusion.xmf,78,-1.43248e-05,3.62838e-05,0,9.50952e-06,-1.27411e+09,-1.27062e+09,-1.27313e+09,655901,0.00187118,0.556527,0,0.55653,-132.443,-45410,-0,45410.2,655901
step02_gravity_refstate-intrusion.xmf,79,-1.47056e-05,3.71511e-05,0,-1.91197e-05,-1.27655e+09,-1.27297e+09,-1.27554e+09,-1.31875e+06,-0.00402222,0.549555,-0,0.54957,271.889,-45484.9,0,45485.7,1.31875e+06
step02_gravity_refstate-intrusion.xmf,80,-1.55778e-05,3.93644e-05,0,-3.85113e-05,-1.28512e+09,-1.28133e+09,-1.28404e+09,-2.65625e+06,-0.00956717,0.521086,-0,0.521174,567.563,-45749.2,0,45752.7,2.65625e+06
step02_gravity_refstate-intrusion.xmf,81,-1.64947e-05,4.04349e-05,0,3.52072e-05,-1.28649e+09,-1.28256e+09,-1.28535e+09,2.42835e+06,0.00908753,0.52291,0,0.522989,-524.118,-45789.7,-0,45792.7,2.42835e+06
step02_gravity_refstate-intrusion.xmf,82,-1.94712e-05,4.54131e-05,0,-5.22589e-06,-1.29073e+09,-1.28626e+09,-1.28939e+09,-360446,-0.00139786,0.536763,-0,0.536765,72.9854,-45916.4,0,45916.5,360446
step02_gravity_refstate-intrusion.xmf,83,-2.00431e-05,4.84458e-05,0,-3.322e-05,-1.301e+09,-1.29627e+09,-1.29962e+09,-2.29129e+06,-0.0117059,0.501944,-0,0.502081,539.5,-46234.9,0,46238,2.29129e+06
step02_gravity_refstate-intrusion.xmf,84,-1.83978e-05,4.62746e-05,0,4.44309e-05,-1.30118e+09,-1.29672e+09,-1.29991e+09,3.06454e+06,0.0147088,0.488318,0,0.488539,-696.855,-46243.4,-0,46248.6,3.06454e+06
step02_gravity_refstate-intrusion.xmf,85,-2.17752e-05,5.12542e-05,0,1.96204e-05,-1.30072e+09,-1.29569e+09,-1.29922e+09,1.35328e+06,0.00713169,0.515188,0,0.515237,-320.13,-46223.8,-0,46224.9,1.35328e+06
step02_gravity_refstate-intrusion.xmf,86,-2.45676e-05,5.90543e-05,0,2.72359e-05,-1.31551e+09,-1.30974e+09,-1.31382e+09,1.87855e+06,0.0137032,0.479563,0,0.479759,-518.069,-46679.8,-0,46682.7,1.87855e+06
step02_gravity_refstate-intrusion.xmf,87,-2.60451e-05,5.90699e-05,0,-4.36399e-06,-1.3095e+09,-1.30363e+09,-1.30771e+09,-300998,-0.00164609,0.50703,-0,0.507033,65.4055,-46489.6,0,46489.7,300998
step02_gravity_refstate-intrusion.xmf,88,-2.51389e-05,6.05716e-05,0,-2.70621e-05,-1.31793e+09,-1.31202e+09,-1.3162e+09,-1.86655e+06,-0.0143757,0.474473,-0,0.474691,528.703,-46754.4,0,46757.4,1.86655e+06
step02_gravity_refstate-intrusion.xmf,89,-3.41724e-05,7.88878e-05,0,-1.11535e-07,-1.32901e+09,-1.32121e+09,-1.32665e+09,-7692.92,-0.000160172,0.466592,-0,0.466592,4.72709,-47086.9,0,47086.9,7692.92
step02_gravity_refstate-intrusion.xmf,90,-2.89753e-05,7.36507e-05,0,-2.25127e-05,-1.33392e+09,-1.32684e+09,-1.33192e+09,-1.55277e+06,-0.0178826,0.439235,-0,0.439599,567.006,-47249.6,0,47253,1.55277e+06
step02_gravity_refstate-intrusion.xmf,91,-2.73719e-05,7.19479e-05,0,2.50087e-05,-1.33381e+09,-1.32696e+09,-1.33193e+09,1.72493e+06,0.0187598,0.437522,0,0.437924,-599.413,-47249.6,-0,47253.4,1.72493e+06
step02_gravity_refstate-intrusion.xmf,92,-3.66884e-05,9.60748e-05,0,8.17536e-06,-1.34512e+09,-1.33597e+09,-1.34259e+09,563880,0.00841588,0.420467,0,0.420551,-248.271,-47594.3,-0,47595,563880
step02_gravity_refstate-intrusion.xmf,93,-3.66499e-05,9.60829e-05,0,-7.99564e-06,-1.34508e+09,-1.33593e+09,-1.34255e+09,-551484,-0.00818917,0.42068,-0,0.420759,241.272,-47593.1,0,47593.8,551484
step02_gravity_refstate-intrusion.xmf,94,-3.05405e-05,8.54212e-05,0,-2.23629e-05,-1.34621e+09,-1.33822e+09,-1.34411e+09,-1.54244e+06,-0.0203967,0.405692,-0,0.406205,636.528,-47636.5,0,47640.7,1.54244e+06
step02_gravity_refstate-intrusion.xmf,95,-3.04849e-05,8.53126e-05,0,2.23994e-05,-1.34621e+09,-1.33822e+09,-1.3441e+09,1.54495e+06,0.0203966,0.405701,0,0.406213,-636.385,-47636.3,-0,47640.6,1.54495e+06
step02_gravity_refstate-crust.xmf,0,3.62518e-05,-4.54459e-05,0,3.88537e-05,-1.09662e+09,-1.10223e+09,-1.09911e+09,2.66537e+06,-0.0416048,0.486192,-0,0.487969,-1000,-40000,-0,40012.5,2.66537e+06
step02_gravity_refstate-crust.xmf,1,1.30561e-05,-2.74889e-05,0,3.38557e-05,-1.09844e+09,-1.10122e+09,-1.09933e+09,2.3225e+06,-0.0514745,0.460575,-0,0.463443,-1513.8,-40000,-0,40028.6,2.3225e+06
step02_gravity_refstate-crust.xmf,2,6.95932e-06,-1.72909e-05,0,3.03232e-05,-1.09868e+09,-1.10035e+09,-1.09916e+09,2.08017e+06,-0.0568669,0.43215,-0,0.435876,-2053.41,-40000,-0,40052.7,2.08017e+06
step02_gravity_refstate-crust.xmf,3,2.92466e-06,-1.01533e-05,0,2.70288e-05,-1.09883e+09,-1.09972e+09,-1.09903e+09,1.85418e+06,-0.05965,0.403859,-0,0.408241,-2618.77,-40000,-0,40085.6,1.85418e+06
step02_gravity_refstate-crust.xmf,4,5.45967e-07,5.13919e-06,0,-5.42566e-09,-1.09844e+09,-1.09813e+09,-1.09848e+09,-372.201,7.60695e-20,0.0431124,0,0.0431124,-40000,-40000,-0,56568.5,372.201
step02_gravity_refstate-crust.xmf,5,5.15208e-07,5.17995e-06,0,-4.98892e-08,-1.09844e+09,-1.09812e+09,-1.09848e+09,-3422.4,0.00126006,0.0434957,0,0.043514,-37629,-40000,-0,54917.6,3422.4
step02_gravity_refstate-crust.xmf,6,2.48818e-05,-4.13329e-05,0,-3.24806e-05,-1.09771e+09,-1.10226e+09,-1.09942e+09,-2.22817e+06,0.0415867,0.486205,0,0.48798,1000,-40000,0,40012.5,2.22817e+06
step02_gravity_refstate-crust.xmf,7,1.29536e-05,-2.71347e-05,0,-3.37991e-05,-1.09843e+09,-1.10118e+09,-1.09932e+09,-2.31862e+06,0.0514927,0.460585,0,0.463454,1513.8,-40000,0,40028.6,2.31862e+06
step02_gravity_refstate-crust.xmf,8,1.2094e-07,-4.9328e-06,0,2.39599e-05,-1.09892e+09,-1.09926e+09,-1.09892e+09,1.64365e+06,-0.06054,0.376265,-0,0.381104,-3211.88,-40000,-0,40128.7,1.64365e+06
step02_gravity_refstate-crust.xmf,9,4.35429e-07,5.2773e-06,0,-8.38604e-08,-1.09845e+09,-1.09812e+09,-1.09848e+09,-5752.82,0.00233351,0.0445946,0,0.0446556,-35372.8,-40000,-0,53396.9,5752.82
step02_gravity_refstate-crust.xmf,10,3.08953e-07,5.42668e-06,0,-1.01888e-07,-1.09845e+09,-1.0981e+09,-1.09848e+09,-6989.54,0.00313493,0.0463624,0,0.0464682,-33225.7,-40000,-0,51999.5,6989.54
step02_gravity_refstate-crust.xmf,11,-1.86287e-06,-9.13089e-07,0,2.11486e-05,-1.09897e+09,-1.0989e+09,-1.09884e+09,1.45079e+06,-0.0599976,0.349641,-0,0.354751,-3834.57,-40000,-0,40183.4,1.45079e+06
step02_gravity_refstate-crust.xmf,12,-3.1878e-06,1.94709e-06,0,1.84473e-05,-1.09899e+09,-1.09864e+09,-1.09877e+09,1.26549e+06,-0.0583316,0.324148,-0,0.329355,-4488.57,-40000,-0,40251.1,1.26549e+06
step02_gravity_refstate-crust.xmf,13,1.43241e-07,5.62006e-06,0,-9.72628e-08,-1.09847e+09,-1.09809e+09,-1.09847e+09,-6672.23,0.00359922,0.0487841,0,0.0489167,-31182.5,-40000,-0,50718.3,6672.23
step02_gravity_refstate-crust.xmf,14,-5.73213e-08,5.84971e-06,0,-6.48444e-08,-1.09848e+09,-1.09807e+09,-1.09847e+09,-4448.33,0.00368482,0.0518651,0,0.0519958,-29238.1,-40000,-0,49546.6,4448.33
step02_gravity_refstate-crust.xmf,15,6.91211e-06,-1.71103e-05,0,-3.03193e-05,-1.09868e+09,-1.10033e+09,-1.09915e+09,-2.0799e+06,0.0568723,0.432153,0,0.435879,2053.41,-40000,0,40052.7,2.0799e+06
step02_gravity_refstate-crust.xmf,16,-2.89344e-07,6.10761e-06,0,1.25293e-09,-1.09849e+09,-1.09805e+09,-1.09847e+09,85.9512,0.00336691,0.0556239,0,0.0557257,-27387.8,-40000,-0,48477.7,85.9512
step02_gravity_refstate-crust.xmf,17,2.92998e-06,-1.0154e-05,0,-2.70167e-05,-1.09883e+09,-1.09972e+09,-1.09903e+09,-1.85335e+06,0.0596491,0.403858,0,0.408239,2618.77,-40000,0,40085.6,1.85335e+06
step02_gravity_refstate-crust.xmf,18,-4.07431e-06,4.14749e-06,0,1.60392e-05,-1.099e+09,-1.09843e+09,-1.09872e+09,1.10029e+06,-0.0558298,0.299879,-0,0.305032,-5175.58,-40000,-0,40333.4,1.10029e+06
step02_gravity_refstate-crust.xmf,19,-4.59158e-06,5.76341e-06,0,1.38617e-05,-1.09899e+09,-1.09827e+09,-1.09867e+09,950912,-0.0526917,0.276892,-0,0.281861,-5897.33,-40000,-0,40432.4,950912
step02_gravity_refstate-crust.xmf,20,-4.87861e-06,7.03295e-06,0,1.19083e-05,-1.09896e+09,-1.09815e+09,-1.09863e+09,816911,-0.049101,0.255199,-0,0.25988,-6655.64,-40000,-0,40549.9,816911
step02_gravity_refstate-crust.xmf,21,-4.91869e-06,7.75616e-06,0,1.0193e-05,-1.09894e+09,-1.09807e+09,-1.0986e+09,699243,-0.0451987,0.234795,-0,0.239105,-7452.39,-40000,-0,40688.3,699243
step02_gravity_refstate-crust.xmf,22,-5.48108e-07,6.38883e-06,0,1.03718e-07,-1.09851e+09,-1.09803e+09,-1.09847e+09,7115.02,0.00263327,0.0600882,0,0.0601458,-25627,-40000,-0,47505.2,7115.02
step02_gravity_refstate-crust.xmf,23,-8.28566e-07,6.68485e-06,0,2.47972e-07,-1.09853e+09,-1.09801e+09,-1.09847e+09,17010.9,0.00148287,0.0652903,0,0.0653072,-23951.4,-40000,-0,46622.6,17010.9
step02_gravity_refstate-crust.xmf,24,-1.1298e-06,6.99059e-06,0,4.37855e-07,-1.09855e+09,-1.09799e+09,-1.09847e+09,30036.8,-7.44343e-05,0.0712646,-0,0.0712646,-22356.9,-40000,-0,45823.9,30036.8
step02_gravity_refstate-crust.xmf,25,5.45962e-07,5.13921e-06,0,5.45357e-09,-1.09844e+09,-1.09813e+09,-1.09848e+09,374.115,-2.44232e-20,0.0431124,-0,0.0431124,40000,-40000,0,56568.5,374.115
step02_gravity_refstate-crust.xmf,26,5.15277e-07,5.17976e-06,0,4.9977e-08,-1.09844e+09,-1.09812e+09,-1.09848e+09,3428.42,-0.00126002,0.0434957,-0,0.0435139,37629,-40000,0,54917.6,3428.42
step02_gravity_refstate-crust.xmf,27,-4.84044e-06,8.30736e-06,0,8.67653e-06,-1.0989e+09,-1.098e+09,-1.09857e+09,595210,-0.0411059,0.215652,-0,0.219535,-8289.57,-40000,-0,40849.9,595210
step02_gravity_refstate-crust.xmf,28,-1.44635e-06,7.29788e-06,0,6.78736e-07,-1.09857e+09,-1.09797e+09,-1.09847e+09,46561.3,-0.00202454,0.0780473,-0,0.0780735,-20839.5,-40000,-0,45103,46561.3
step02_gravity_refstate-crust.xmf,29,1.17834e-07,-4.93573e-06,0,-2.39486e-05,-1.09892e+09,-1.09926e+09,-1.09892e+09,-1.64287e+06,0.0605402,0.376265,0,0.381104,3211.88,-40000,0,40128.7,1.64287e+06
step02_gravity_refstate-crust.xmf,30,-3.15585e-06,8.62422e-06,0,2.83027e-06,-1.0987e+09,-1.0979e+09,-1.09849e+09,194156,-0.0167965,0.125279,-0,0.1264,-14284.9,-40000,-0,42474.2,194156
step02_gravity_refstate-crust.xmf,31,-2.79996e-06,8.38056e-06,0,2.26603e-06,-1.09867e+09,-1.09791e+09,-1.09848e+09,155450,-0.0132706,0.113948,-0,0.114718,-15469.2,-40000,-0,42887,155450
step02_gravity_refstate-crust.xmf,32,-3.50095e-06,8.7942e-06,0,3.49723e-06,-1.09874e+09,-1.09789e+09,-1.09849e+09,239910,-0.020542,0.137618,-0,0.139142,-13158,-40000,-0,42108.6,239910
step02_gravity_refstate-crust.xmf,33,-1.77414e-06,7.59976e-06,0,9.75853e-07,-1.09859e+09,-1.09795e+09,-1.09847e+09,66943.5,-0.00434642,0.0856734,-0,0.0857836,-19395.5,-40000,-0,44454.3,66943.5
step02_gravity_refstate-crust.xmf,34,-2.45236e-06,8.13658e-06,0,1.76902e-06,-1.09865e+09,-1.09792e+09,-1.09848e+09,121355,-0.00999918,0.103591,-0,0.104072,-16713.6,-40000,-0,43351.4,121355
step02_gravity_refstate-crust.xmf,35,-2.11481e-06,7.89267e-06,0,1.33241e-06,-1.09862e+09,-1.09793e+09,-1.09847e+09,91403.5,-0.00701297,0.0941761,-0,0.0944369,-18021.3,-40000,-0,43872.2,91403.5
step02_gravity_refstate-crust.xmf,36,-1.859e-06,-1.00238e-06,0,-2.11026e-05,-1.09897e+09,-1.09891e+09,-1.09884e+09,-1.44764e+06,0.0599967,0.34964,0,0.354751,3834.57,-40000,0,40183.4,1.44764e+06
step02_gravity_refstate-crust.xmf,37,-3.18434e-06,1.93661e-06,0,-1.84459e-05,-1.09899e+09,-1.09864e+09,-1.09877e+09,-1.26539e+06,0.058331,0.324148,0,0.329354,4488.57,-40000,0,40251.1,1.26539e+06
step02_gravity_refstate-crust.xmf,38,4.35357e-07,5.27716e-06,0,8.42567e-08,-1.09845e+09,-1.09812e+09,-1.09848e+09,5780.01,-0.00233356,0.0445945,-0,0.0446555,35372.8,-40000,0,53396.9,5780.01
step02_gravity_refstate-crust.xmf,39,-4.66573e-06,8.64816e-06,0,7.34328e-06,-1.09887e+09,-1.09796e+09,-1.09855e+09,503749,-0.036915,0.19774,-0,0.201157,-9169.24,-40000,-0,41037.5,503749
step02_gravity_refstate-crust.xmf,40,-4.42746e-06,8.83467e-06,0,6.18152e-06,-1.09884e+09,-1.09793e+09,-1.09853e+09,424052,-0.0327064,0.181021,-0,0.183952,-10093.6,-40000,-0,41253.9,424052
step02_gravity_refstate-crust.xmf,41,-4.14057e-06,8.89662e-06,0,5.16542e-06,-1.0988e+09,-1.09791e+09,-1.09852e+09,354348,-0.0285399,0.165452,-0,0.167895,-11064.9,-40000,-0,41502.2,354348
step02_gravity_refstate-crust.xmf,42,-3.82416e-06,8.86192e-06,0,4.28208e-06,-1.09877e+09,-1.0979e+09,-1.09851e+09,293751,-0.02447,0.150997,-0,0.152967,-12085.5,-40000,-0,41785.9,293751
step02_gravity_refstate-crust.xmf,43,3.09086e-07,5.42585e-06,0,1.01409e-07,-1.09845e+09,-1.0981e+09,-1.09848e+09,6956.63,-0.00313479,0.0463624,-0,0.0464683,33225.7,-40000,0,51999.5,6956.63
step02_gravity_refstate-crust.xmf,44,-4.07189e-06,4.14154e-06,0,-1.60429e-05,-1.099e+09,-1.09843e+09,-1.09872e+09,-1.10054e+06,0.0558296,0.299879,0,0.305032,5175.58,-40000,0,40333.4,1.10054e+06
step02_gravity_refstate-crust.xmf,45,-4.59648e-06,5.77269e-06,0,-1.3865e-05,-1.09899e+09,-1.09827e+09,-1.09867e+09,-951141,0.0526922,0.276893,0,0.281862,5897.33,-40000,0,40432.4,951141
step02_gravity_refstate-crust.xmf,46,-4.91945e-06,7.75742e-06,0,-1.01932e-05,-1.09894e+09,-1.09807e+09,-1.0986e+09,-699253,0.0451991,0.234795,0,0.239106,7452.39,-40000,0,40688.3,699253
step02_gravity_refstate-crust.xmf,47,-4.87374e-06,7.00556e-06,0,-1.19131e-05,-1.09896e+09,-1.09815e+09,-1.09863e+09,-817242,0.0491015,0.2552,0,0.25988,6655.64,-40000,0,40549.9,817242
step02_gravity_refstate-crust.xmf,48,1.4309e-07,5.61932e-06,0,9.63937e-08,-1.09847e+09,-1.09809e+09,-1.09847e+09,6612.61,-0.00359922,0.0487842,-0,0.0489168,31182.5,-40000,0,50718.3,6612.61
step02_gravity_refstate-crust.xmf,49,-5.76859e-08,5.84944e-06,0,6.42616e-08,-1.09848e+09,-1.09807e+09,-1.09847e+09,4408.35,-0.00368496,0.0518651,-0,0.0519959,29238.1,-40000,0,49546.6,4408.35
step02_gravity_refstate-crust.xmf,50,-4.84349e-06,8.30787e-06,0,-8.67389e-06,-1.0989e+09,-1.098e+09,-1.09857e+09,-595029,0.0411058,0.215653,0,0.219536,8289.57,-40000,0,40849.9,595029
step02_gravity_refstate-crust.xmf,51,-2.89624e-07,6.1088e-06,0,-4.25583e-10,-1.09849e+09,-1.09805e+09,-1.09847e+09,-29.195,-0.00336704,0.0556239,-0,0.0557257,27387.8,-40000,0,48477.7,29.195
step02_gravity_refstate-crust.xmf,52,-5.48241e-07,6.38953e-06,0,-1.03072e-07,-1.09851e+09,-1.09803e+09,-1.09847e+09,-7070.77,-0.00263333,0.0600881,-0,0.0601458,25627,-40000,0,47505.2,7070.77
step02_gravity_refstate-crust.xmf,53,-8.25073e-07,6.66935e-06,0,-2.56615e-07,-1.09853e+09,-1.09801e+09,-1.09847e+09,-17603.8,-0.00148277,0.0652904,-0,0.0653072,23951.4,-40000,0,46622.6,17603.8
step02_gravity_refstate-crust.xmf,54,-1.13035e-06,6.99316e-06,0,-4.3568e-07,-1.09855e+09,-1.09799e+09,-1.09847e+09,-29887.7,7.41174e-05,0.0712643,0,0.0712644,22356.9,-40000,0,45823.9,29887.7
step02_gravity_refstate-crust.xmf,55,-4.66943e-06,8.65122e-06,0,-7.34259e-06,-1.09887e+09,-1.09796e+09,-1.09855e+09,-503702,0.0369158,0.197741,0,0.201158,9169.24,-40000,0,41037.5,503702
step02_gravity_refstate-crust.xmf,56,-1.4457e-06,7.29816e-06,0,-6.79253e-07,-1.09857e+09,-1.09797e+09,-1.09847e+09,-46596.8,0.00202496,0.0780472,0,0.0780734,20839.5,-40000,0,45103,46596.8
step02_gravity_refstate-crust.xmf,57,-2.79952e-06,8.38256e-06,0,-2.26477e-06,-1.09867e+09,-1.09791e+09,-1.09848e+09,-155363,0.0132705,0.113947,0,0.114718,15469.2,-40000,0,42887,155363
step02_gravity_refstate-crust.xmf,58,-3.15682e-06,8.62855e-06,0,-2.82926e-06,-1.0987e+09,-1.0979e+09,-1.09849e+09,-194087,0.0167964,0.125279,0,0.1264,14284.9,-40000,0,42474.2,194087
step02_gravity_refstate-crust.xmf,59,-4.4298e-06,8.83601e-06,0,-6.17903e-06,-1.09884e+09,-1.09793e+09,-1.09853e+09,-423881,0.0327068,0.181021,0,0.183952,10093.6,-40000,0,41253.9,423881
step02_gravity_refstate-crust.xmf,60,-2.45237e-06,8.13873e-06,0,-1.76777e-06,-1.09865e+09,-1.09792e+09,-1.09848e+09,-121269,0.00999927,0.103591,0,0.104072,16713.6,-40000,0,43351.4,121269
step02_gravity_refstate-crust.xmf,61,-2.10663e-06,7.86671e-06,0,-1.34073e-06,-1.09862e+09,-1.09794e+09,-1.09848e+09,-91973.9,0.00701272,0.0941759,0,0.0944366,18021.3,-40000,0,43872.2,91973.9
step02_gravity_refstate-crust.xmf,62,-1.76976e-06,7.57855e-06,0,-9.85345e-07,-1.09859e+09,-1.09795e+09,-1.09847e+09,-67594.6,0.00434653,0.0856733,0,0.0857835,19395.5,-40000,0,44454.3,67594.6
step02_gravity_refstate-crust.xmf,63,-4.14064e-06,8.89929e-06,0,-5.16467e-06,-1.0988e+09,-1.09791e+09,-1.09852e+09,-354296,0.0285404,0.165452,0,0.167896,11064.9,-40000,0,41502.2,354296
step02_gravity_refstate-crust.xmf,64,-3.82281e-06,8.86148e-06,0,-4.27974e-06,-1.09877e+09,-1.0979e+09,-1.09851e+09,-293590,0.0244698,0.150997,0,0.152967,12085.5,-40000,0,41785.9,293590
step02_gravity_refstate-crust.xmf,65,-3.50133e-06,8.79767e-06,0,-3.49652e-06,-1.09873e+09,-1.09789e+09,-1.09849e+09,-239861,0.0205423,0.137618,0,0.139143,13158,-40000,0,42108.6,239861
step02_gravity_refstate-crust.xmf,66,2.07553e-06,-6.45543e-07,0,1.77947e-07,-5.71365e+07,-5.73232e+07,-5.72789e+07,12207.1,-0.00780356,0.247619,-0,0.247742,-3647.86,-2087.51,-0,4202.93,12207.1
step02_gravity_refstate-crust.xmf,67,2.43413e-06,-9.24729e-07,0,-3.79448e-10,231179,761.24,64197.7,-26.0302,-0.0125049,0.244586,-0,0.244905,-4841.35,0,-0,4841.35,26.0302
step02_gravity_refstate-crust.xmf,68,2.61181e-06,-9.87496e-07,0,1.15891e-08,248255,1343.04,69085.3,795.012,-0.00638665,0.246988,-0,0.247071,-2418.42,0,-0,2418.42,795.012
step02_gravity_refstate-crust.xmf,69,2.14902e-06,-6.62388e-07,0,8.39362e-08,-6.04846e+07,-6.06774e+07,-6.0632e+07,5758.02,-0.00275958,0.249393,-0,0.249409,-1285.04,-2209.67,-0,2556.16,5758.02
step02_gravity_refstate-crust.xmf,70,1.9149e-06,-5.87368e-07,0,2.76218e-07,-5.42556e+07,-5.44272e+07,-5.43869e+07,18948.5,-0.0126334,0.24431,-0,0.244636,-6020.94,-1982.07,-0,6338.79,18948.5
step02_gravity_refstate-crust.xmf,71,1.71448e-06,-4.2026e-07,0,4.20474e-07,-1.11209e+08,-1.11355e+08,-1.11327e+08,28844.5,-0.00874217,0.247212,-0,0.247367,-4814.81,-4054.96,-0,6294.85,28844.5
step02_gravity_refstate-crust.xmf,72,1.8128e-06,-4.5493e-07,0,2.53274e-07,-1.15217e+08,-1.15373e+08,-1.15342e+08,17374.6,-0.00474681,0.249755,-0,0.2498,-2585.05,-4201.24,-0,4932.84,17374.6
step02_gravity_refstate-crust.xmf,73,2.66661e-06,-1.00712e-06,0,9.95585e-09,253511,1492.87,70581.4,682.971,3.143e-06,0.247801,0,0.247801,6.99292e-08,0,0,6.99292e-08,682.971
step02_gravity_refstate-crust.xmf,74,2.1226e-06,-8.12777e-07,0,6.51537e-09,201320,-47.1595,55709.4,446.955,-0.0181013,0.240692,-0,0.241372,-7275.8,0,-0,7275.8,446.955
step02_gravity_refstate-crust.xmf,75,1.6445e-06,-4.95158e-07,0,3.53319e-07,-5.08241e+07,-5.09708e+07,-5.09369e+07,24237.7,-0.0171834,0.239455,-0,0.24007,-8466.06,-1856.19,-0,8667.16,24237.7
step02_gravity_refstate-crust.xmf,76,1.78392e-06,-6.80856e-07,0,3.48257e-09,169293,208.95,46915.7,238.904,-0.0229493,0.235463,-0,0.236579,-9728.87,0,-0,9728.87,238.904
step02_gravity_refstate-crust.xmf,77,1.58871e-06,-3.24591e-07,0,4.83361e-07,-1.67593e+08,-1.67724e+08,-1.67702e+08,33158.6,-0.00626118,0.249296,-0,0.249374,-3804.8,-6107.31,-0,7195.54,33158.6
step02_gravity_refstate-crust.xmf,78,1.83296e-06,-4.63143e-07,0,4.10966e-08,-1.21078e+08,-1.21236e+08,-1.21204e+08,2819.23,-0.00063081,0.250861,-0,0.250862,-344.948,-4414.68,-0,4428.14,2819.23
step02_gravity_refstate-crust.xmf,79,2.09411e-06,-6.4083e-07,0,-6.77087e-08,-6.74346e+07,-6.76222e+07,-6.75782e+07,-4644.82,0.00270715,0.249558,0,0.249573,1288.13,-2462.5,0,2779.07,4644.82
step02_gravity_refstate-crust.xmf,80,1.25559e-06,-3.1827e-07,0,4.71876e-07,-5.77511e+07,-5.78591e+07,-5.78373e+07,32370.7,-0.020701,0.232909,-0,0.233827,-11139.7,-2107.08,-0,11337.2,32370.7
step02_gravity_refstate-crust.xmf,81,1.54608e-06,-3.44954e-07,0,5.80617e-07,-1.07845e+08,-1.07975e+08,-1.07951e+08,39830.3,-0.0125855,0.243184,-0,0.24351,-7117.34,-3931.93,-0,8131.21,39830.3
step02_gravity_refstate-crust.xmf,82,1.46186e-06,-2.6267e-07,0,6.99984e-07,-1.64551e+08,-1.64669e+08,-1.64651e+08,48018.9,-0.00956202,0.246036,-0,0.246221,-5946.01,-5996.14,-0,8444.45,48018.9
step02_gravity_refstate-crust.xmf,83,1.65414e-06,-3.66909e-07,0,2.21456e-07,-1.72627e+08,-1.72766e+08,-1.7274e+08,15191.9,-0.00272424,0.251235,-0,0.25125,-1641.24,-6290.78,-0,6501.35,15191.9
step02_gravity_refstate-crust.xmf,84,1.43508e-06,-2.51207e-07,0,7.49587e-07,-2.18613e+08,-2.18729e+08,-2.18712e+08,51421.6,-0.0076845,0.24816,-0,0.248279,-4989.05,-7964.25,-0,9397.87,51421.6
step02_gravity_refstate-crust.xmf,85,1.54334e-06,-3.18275e-07,0,4.57458e-07,-2.2181e+08,-2.21938e+08,-2.21916e+08,31381.6,-0.0045083,0.250948,-0,0.250989,-2863.15,-8080.96,-0,8573.19,31381.6
step02_gravity_refstate-crust.xmf,86,2.61433e-06,-9.92784e-07,0,2.158e-09,248310,862.375,68967.4,148.039,0.00638212,0.246989,0,0.247071,2418.42,0,0,2418.42,148.039
step02_gravity_refstate-crust.xmf,87,1.33358e-06,-5.10647e-07,0,9.47359e-09,126484,-29.4872,35000.9,649.888,-0.0268447,0.229106,-0,0.230673,-12207.6,0,-0,12207.6,649.888
step02_gravity_refstate-crust.xmf,88,1.30469e-06,-2.38133e-07,0,7.11582e-07,-1.07201e+08,-1.07306e+08,-1.0729e+08,48814.5,-0.015762,0.238192,-0,0.238712,-9316.91,-3907.65,-0,10103.2,48814.5
step02_gravity_refstate-crust.xmf,89,1.47251e-06,-2.88552e-07,0,7.41887e-07,-2.67115e+08,-2.67235e+08,-2.67216e+08,50893.4,-0.00631477,0.250011,-0,0.250091,-4082.35,-9730.09,-0,10551.8,50893.4
step02_gravity_refstate-crust.xmf,90,1.6569e-06,-3.73378e-07,0,-5.78146e-08,-1.78866e+08,-1.79005e+08,-1.78979e+08,-3966.08,0.00077136,0.251721,0,0.251722,467.321,-6517.91,0,6534.64,3966.08
step02_gravity_refstate-crust.xmf,91,1.77042e-06,-4.2994e-07,0,-1.74754e-07,-1.31832e+08,-1.31983e+08,-1.31954e+08,-11988.2,0.00299864,0.250618,0,0.250636,1686.19,-4805.98,0,5093.2,11988.2
step02_gravity_refstate-crust.xmf,92,2.08875e-06,-6.558e-07,0,-1.71978e-07,-5.46898e+07,-5.48781e+07,-5.48331e+07,-11797.7,0.00800816,0.247486,0,0.247615,3716.32,-1998.47,0,4219.59,11797.7
step02_gravity_refstate-crust.xmf,93,9.69533e-07,-2.54921e-07,0,3.71572e-07,-3.99697e+07,-4.00537e+07,-4.00362e+07,25489.9,-0.024645,0.226057,-0,0.227396,-13463.4,-1458.66,-0,13542.2,25489.9
step02_gravity_refstate-crust.xmf,94,8.60245e-07,-3.32e-07,0,8.17931e-09,81480.1,-307.864,22467.3,561.101,-0.029638,0.221866,-0,0.223836,-14719.3,0,-0,14719.3,561.101
step02_gravity_refstate-crust.xmf,95,1.03895e-06,-9.76764e-08,0,8.49203e-07,-1.15156e+08,-1.15234e+08,-1.15227e+08,58255.4,-0.0178766,0.232678,-0,0.233364,-11378.4,-4196.42,-0,12127.6,58255.4
step02_gravity_refstate-crust.xmf,96,1.28842e-06,-1.66073e-07,0,8.87937e-07,-1.60304e+08,-1.60404e+08,-1.60392e+08,60912.4,-0.0126384,0.241455,-0,0.241786,-8127.8,-5840.99,-0,10008.9,60912.4
step02_gravity_refstate-crust.xmf,97,1.27875e-06,-1.39319e-07,0,1.00392e-06,-2.13318e+08,-2.13415e+08,-2.13406e+08,68868.7,-0.0106537,0.243955,-0,0.244188,-7152.2,-7771.01,-0,10561.4,68868.7
step02_gravity_refstate-crust.xmf,98,1.32316e-06,-1.7827e-07,0,1.04987e-06,-2.61877e+08,-2.6198e+08,-2.61968e+08,72021.2,-0.00927748,0.246243,-0,0.246418,-6205.85,-9538.97,-0,11380,72021.2
step02_gravity_refstate-crust.xmf,99,1.5927e-06,-3.60381e-07,0,1.26461e-07,-2.26032e+08,-2.26166e+08,-2.26141e+08,8675.24,-0.00118527,0.252292,-0,0.252295,-745.706,-8234.82,-0,8268.51,8675.24
step02_gravity_refstate-crust.xmf,100,1.56801e-06,-3.79686e-07,0,3.74232e-07,-2.72275e+08,-2.72409e+08,-2.72383e+08,25672.3,-0.00311742,0.252332,-0,0.252351,-1972.21,-9918.2,-0,10112.4,25672.3
step02_gravity_refstate-crust.xmf,101,1.40366e-06,-2.65035e-07,0,1.0634e-06,-3.07715e+08,-3.0783e+08,-3.07812e+08,72948.9,-0.0083577,0.248223,-0,0.248364,-5391.56,-11208,-0,12437.3,72948.9
step02_gravity_refstate-crust.xmf,102,1.57418e-06,-4.26585e-07,0,6.65718e-07,-3.2052e+08,-3.20657e+08,-3.20628e+08,45668.2,-0.00498797,0.252004,-0,0.252053,-3077.47,-11674.5,-0,12073.4,45668.2
step02_gravity_refstate-crust.xmf,103,1.86914e-06,-4.99082e-07,0,-2.35613e-07,-9.90457e+07,-9.92081e+07,-9.91739e+07,-16163,0.00557291,0.24919,0,0.249253,2922.01,-3612.65,0,4646.44,16163
step02_gravity_refstate-crust.xmf,104,2.38417e-06,-9.13296e-07,0,-2.20368e-09,226113,-92.8497,62559.3,-151.172,0.0125102,0.244587,0,0.244907,4841.35,0,0,4841.35,151.172
step02_gravity_refstate-crust.xmf,105,1.78059e-06,-5.04623e-07,0,-3.55851e-07,-6.75666e+07,-6.77234e+07,-6.76888e+07,-24411.4,0.0127274,0.244,0,0.244332,6355.87,-2466.25,0,6817.59,24411.4
step02_gravity_refstate-crust.xmf,106,2.16001e-06,-8.24206e-07,0,-1.71634e-09,204991,273.805,56814.3,-117.741,0.018096,0.240692,0,0.241372,7275.8,0,0,7275.8,117.741
step02_gravity_refstate-crust.xmf,107,5.73766e-07,-6.52221e-08,0,4.98892e-07,-5.29e+07,-5.29439e+07,-5.29394e+07,34224,-0.0252826,0.219372,-0,0.220824,-15645,-1928.1,-0,15763.4,34224
step02_gravity_refstate-crust.xmf,108,8.0417e-07,-4.02192e-08,0,8.03185e-07,-9.63569e+07,-9.64148e+07,-9.6412e+07,55098.5,-0.0208358,0.226089,-0,0.227047,-13549.3,-3511.16,-0,13996.8,55098.5
step02_gravity_refstate-crust.xmf,109,1.05086e-06,-3.51348e-08,0,1.03849e-06,-1.58358e+08,-1.58432e+08,-1.5843e+08,71240.1,-0.0152971,0.235708,-0,0.236204,-10349.4,-5769.36,-0,11848.9,71240.1
step02_gravity_refstate-crust.xmf,110,1.52829e-06,-4.06583e-07,0,1.05514e-06,-3.54686e+08,-3.54819e+08,-3.54791e+08,72382.4,-0.00764527,0.250225,-0,0.250342,-4618.57,-12918.2,-0,13719,72382.4
step02_gravity_refstate-crust.xmf,111,1.60233e-06,-3.4589e-07,0,-3.4246e-07,-1.85479e+08,-1.85613e+08,-1.85589e+08,-23492.7,0.00408231,0.250821,0,0.250854,2511.49,-6758.51,0,7210.07,23492.7
step02_gravity_refstate-crust.xmf,112,1.57983e-06,-3.58142e-07,0,-2.17689e-07,-2.31682e+08,-2.31815e+08,-2.3179e+08,-14933.4,0.00212816,0.252153,0,0.252162,1344.5,-8440.44,0,8546.85,14933.4
step02_gravity_refstate-crust.xmf,113,1.66269e-06,-5.40426e-07,0,7.49285e-07,-3.67058e+08,-3.67209e+08,-3.67172e+08,51400.9,-0.005302,0.252817,-0,0.252872,-3077.74,-13369,-0,13718.7,51400.9
step02_gravity_refstate-crust.xmf,114,1.68237e-06,-5.64734e-07,0,1.03898e-06,-3.97124e+08,-3.97278e+08,-3.9724e+08,71273.7,-0.00713596,0.252084,-0,0.252185,-3983.73,-14463.6,-0,15002.2,71273.7
step02_gravity_refstate-crust.xmf,115,1.67484e-06,-3.86905e-07,0,-3.6495e-07,-1.42435e+08,-1.42577e+08,-1.4255e+08,-25035.6,0.00571646,0.249513,0,0.249579,3316.23,-5191.68,0,6160.43,25035.6
step02_gravity_refstate-crust.xmf,116,1.68692e-06,-4.0232e-07,0,-4.38247e-07,-1.14408e+08,-1.14551e+08,-1.14524e+08,-30063.8,0.00870304,0.247234,0,0.247387,4832.43,-4171.35,0,6383.77,30063.8
step02_gravity_refstate-crust.xmf,117,1.62323e-06,-4.80551e-07,0,-3.56017e-07,-5.13798e+07,-5.15241e+07,-5.14911e+07,-24422.8,0.0177026,0.238707,0,0.239362,8800.82,-1876.36,0,8998.62,24422.8
step02_gravity_refstate-crust.xmf,118,3.67627e-07,-1.40415e-07,0,1.1169e-08,34882.9,31.2484,9663.75,766.195,-0.0311976,0.21403,-0,0.216292,-17270.8,0,-0,17270.8,766.195
step02_gravity_refstate-crust.xmf,119,-1.4742e-07,5.64191e-08,0,9.69408e-09,-13983.4,-0.0888678,-3870.44,665.014,-0.03146,0.205909,-0,0.208299,-19869.6,0,-0,19869.6,665.014
step02_gravity_refstate-crust.xmf,120,9.26658e-08,1.76619e-07,0,6.19674e-07,-6.89399e+07,-6.89341e+07,-6.89463e+07,42509.6,-0.0249907,0.209999,-0,0.211481,-18507.2,-2510.47,-0,18676.7,42509.6
step02_gravity_refstate-crust.xmf,121,-6.57429e-07,2.46849e-07,0,9.16945e-09,-62562.4,-528.912,-17462.8,629.025,-0.0303895,0.197819,-0,0.200139,-22522.7,0,-0,22522.7,629.025
step02_gravity_refstate-crust.xmf,122,-3.32453e-07,3.1267e-07,0,4.97486e-07,-5.75975e+07,-5.75533e+07,-5.75747e+07,34127.6,-0.0255688,0.201089,-0,0.202708,-21274.9,-2096.03,-0,21377.9,34127.6
step02_gravity_refstate-crust.xmf,123,8.04741e-07,9.63073e-08,0,1.13591e-06,-1.56112e+08,-1.56161e+08,-1.56167e+08,77923.3,-0.0174157,0.22919,-0,0.229851,-12536.6,-5686.83,-0,13766.1,77923.3
step02_gravity_refstate-crust.xmf,124,1.34769e-06,-2.18439e-07,0,1.3841e-06,-3.47063e+08,-3.4717e+08,-3.47155e+08,94949.4,-0.010227,0.246202,-0,0.246414,-6475.53,-12640.3,-0,14202.4,94949.4
step02_gravity_refstate-crust.xmf,125,1.07781e-06,-1.90699e-09,0,1.21239e-06,-2.10427e+08,-2.10501e+08,-2.10501e+08,83170.1,-0.0132467,0.23855,-0,0.238918,-9329.07,-7665.15,-0,12074.2,83170.1
step02_gravity_refstate-crust.xmf,126,1.22603e-06,-9.76242e-08,0,1.36593e-06,-3.04679e+08,-3.0477e+08,-3.04763e+08,93703,-0.0109089,0.24383,-0,0.244073,-7347.59,-11097,-0,13309,93703
step02_gravity_refstate-crust.xmf,127,1.1339e-06,-2.23347e-08,0,1.3174e-06,-2.59856e+08,-2.59935e+08,-2.59933e+08,90373.8,-0.0118618,0.241278,-0,0.241569,-8309.47,-9464.86,-0,12594.9,90373.8
step02_gravity_refstate-crust.xmf,128,1.49659e-06,-3.79133e-07,0,1.39863e-06,-3.89523e+08,-3.89652e+08,-3.89626e+08,95945.8,-0.00979556,0.248416,-0,0.248609,-5727.92,-14186.5,-0,15299.2,95945.8
step02_gravity_refstate-crust.xmf,129,1.59754e-06,-4.08735e-07,0,-2.7481e-08,-2.74701e+08,-2.74838e+08,-2.7481e+08,-1885.2,0.000273603,0.253062,0,0.253062,171.92,-10006.6,0,10008.1,1885.2
step02_gravity_refstate-crust.xmf,130,1.6392e-06,-4.8239e-07,0,2.21391e-07,-3.15532e+08,-3.15678e+08,-3.15645e+08,15187.5,-0.00163022,0.253538,-0,0.253543,-996.172,-11493.1,-0,11536.2,15187.5
step02_gravity_refstate-crust.xmf,131,1.72149e-06,-5.97112e-07,0,3.57048e-07,-3.61384e+08,-3.61543e+08,-3.61502e+08,24493.5,-0.00250334,0.254216,-0,0.254228,-1446.3,-13162.6,-0,13241.8,24493.5
step02_gravity_refstate-crust.xmf,132,1.81153e-06,-7.10326e-07,0,6.15867e-07,-4.01574e+08,-4.01747e+08,-4.01698e+08,42248.5,-0.00417443,0.254529,-0,0.254563,-2262.62,-14625.9,-0,14799.9,42248.5
step02_gravity_refstate-crust.xmf,133,1.50742e-06,-2.82224e-07,0,-6.06485e-07,-1.81405e+08,-1.81528e+08,-1.81509e+08,-41604.9,0.0074086,0.248358,0,0.248468,4629.03,-6609.9,0,8069.61,41604.9
step02_gravity_refstate-crust.xmf,134,1.78568e-06,-6.82232e-07,0,-2.6364e-09,169430,130.754,46931.9,-180.857,0.0229487,0.235463,0,0.236579,9728.87,0,0,9728.87,180.857
step02_gravity_refstate-crust.xmf,135,1.44478e-06,-3.03605e-07,0,-6.32178e-07,-1.03966e+08,-1.04086e+08,-1.04065e+08,-43367.4,0.0144351,0.240674,0,0.241107,8264.91,-3790.35,0,9092.6,43367.4
step02_gravity_refstate-crust.xmf,136,1.88652e-06,-8.02451e-07,0,9.80632e-07,-4.40462e+08,-4.40647e+08,-4.40592e+08,67271.4,-0.00649242,0.254303,-0,0.254386,-3289.21,-16041.9,-0,16375.6,67271.4
step02_gravity_refstate-crust.xmf,137,1.69085e-06,-6.0028e-07,0,1.4066e-06,-4.34203e+08,-4.3436e+08,-4.34319e+08,96492.8,-0.00947953,0.250819,-0,0.250998,-5017.76,-15813.5,-0,16590.5,96492.8
step02_gravity_refstate-crust.xmf,138,-6.55139e-07,4.17798e-07,0,4.13234e-07,-5.13167e+07,-5.12431e+07,-5.12717e+07,28347.8,-0.025081,0.194852,-0,0.19646,-23309.4,-1866.23,-0,23384,28347.8
step02_gravity_refstate-crust.xmf,139,-1.11094e-06,4.22064e-07,0,1.97923e-08,-105509,-345.501,-29299.1,1357.75,-0.0279952,0.190094,-0,0.192145,-25237.6,0,-0,25237.6,1357.75
step02_gravity_refstate-crust.xmf,140,3.69431e-07,1.99662e-07,0,9.56767e-07,-1.13979e+08,-1.1399e+08,-1.14004e+08,65634.2,-0.0215456,0.21674,-0,0.217808,-16398.1,-4151.31,-0,16915.4,65634.2
step02_gravity_refstate-crust.xmf,141,5.17055e-07,2.57544e-07,0,1.2385e-06,-1.61342e+08,-1.6136e+08,-1.61378e+08,84961.2,-0.0187508,0.221767,-0,0.222559,-14793.4,-5876.31,-0,15917.8,84961.2
step02_gravity_refstate-crust.xmf,142,8.35888e-07,1.61093e-07,0,1.35877e-06,-2.07853e+08,-2.07899e+08,-2.0791e+08,93211.6,-0.0153883,0.23212,-0,0.23263,-11522.7,-7570.73,-0,13787.2,93211.6
step02_gravity_refstate-crust.xmf,143,1.51225e-06,-3.0943e-07,0,-5.48e-07,-2.34513e+08,-2.34638e+08,-2.34616e+08,-37592.8,0.00526389,0.250558,0,0.250613,3374.33,-8543.3,0,9185.54,37592.8
step02_gravity_refstate-crust.xmf,144,1.56337e-06,-3.85852e-07,0,-4.24594e-07,-2.80254e+08,-2.80388e+08,-2.80362e+08,-29127.1,0.00353696,0.252244,0,0.252269,2234.24,-10208.7,0,10450.3,29127.1
step02_gravity_refstate-crust.xmf,145,1.42317e-06,-2.50699e-07,0,-7.13913e-07,-1.46529e+08,-1.46644e+08,-1.46627e+08,-48974.5,0.0111152,0.244244,0,0.244497,6798.06,-5339.91,0,8644.55,48974.5
step02_gravity_refstate-crust.xmf,146,1.31126e-06,-3.59443e-07,0,-4.11203e-07,-5.02322e+07,-5.03469e+07,-5.03222e+07,-28208.5,0.0211566,0.232916,0,0.233875,11102.6,-1833.5,0,11253,28208.5
step02_gravity_refstate-crust.xmf,147,1.2331e-06,-2.10247e-07,0,-7.32356e-07,-1.03683e+08,-1.03783e+08,-1.03768e+08,-50239.6,0.017011,0.235932,0,0.236545,10181,-3779.36,0,10859.8,50239.6
step02_gravity_refstate-crust.xmf,148,1.92761e-06,-8.81282e-07,0,1.40812e-06,-4.78891e+08,-4.79084e+08,-4.79023e+08,96596.7,-0.00922897,0.253452,-0,0.25362,-4367.17,-17440.9,-0,17979.4,96596.7
step02_gravity_refstate-crust.xmf,149,-1.94073e-07,4.9288e-07,0,9.74065e-07,-1.24905e+08,-1.24858e+08,-1.24892e+08,66820.9,-0.021325,0.202388,-0,0.203508,-20578.4,-4547.28,-0,21074.8,66820.9
step02_gravity_refstate-crust.xmf,150,-4.66863e-07,5.47158e-07,0,8.14089e-07,-1.07949e+08,-1.07879e+08,-1.07917e+08,55846.5,-0.0215656,0.195893,-0,0.197076,-22654.7,-3928.94,-0,22992.8,55846.5
step02_gravity_refstate-crust.xmf,151,-7.62039e-07,6.02401e-07,0,6.38731e-07,-9.08732e+07,-9.07796e+07,-9.0821e+07,43817,-0.0212179,0.189507,-0,0.190691,-24856.9,-3306.18,-0,25075.8,43817
step02_gravity_refstate-crust.xmf,152,5.90024e-07,3.23339e-07,0,1.46166e-06,-2.08288e+08,-2.08306e+08,-2.08329e+08,100270,-0.0169184,0.225117,-0,0.225752,-13659.6,-7585.82,-0,15624.7,100270
step02_gravity_refstate-crust.xmf,153,1.27804e-06,-1.42599e-07,0,1.72418e-06,-3.86138e+08,-3.86236e+08,-3.86226e+08,118278,-0.012242,0.24363,-0,0.243937,-7535.41,-14062.7,-0,15954.4,118278
step02_gravity_refstate-crust.xmf,154,1.13692e-06,-4.23662e-09,0,1.67372e-06,-3.4554e+08,-3.45618e+08,-3.45618e+08,114817,-0.0125467,0.241131,-0,0.241458,-8358.96,-12584.3,-0,15107.5,114817
step02_gravity_refstate-crust.xmf,155,8.97463e-07,1.69851e-07,0,1.54933e-06,-2.61978e+08,-2.62028e+08,-2.62039e+08,106284,-0.0141089,0.234899,-0,0.235322,-10521.9,-9541.45,-0,14203.8,106284
step02_gravity_refstate-crust.xmf,156,1.0119e-06,1.01651e-07,0,1.62993e-06,-3.06025e+08,-3.06088e+08,-3.06094e+08,111813,-0.0131548,0.238276,-0,0.238639,-9344.19,-11145.4,-0,14544.2,111813
step02_gravity_refstate-crust.xmf,157,1.45696e-06,-3.32933e-07,0,1.77246e-06,-4.29254e+08,-4.29377e+08,-4.29354e+08,121590,-0.0121011,0.246249,-0,0.246547,-6751.07,-15632.8,-0,17028.3,121590
step02_gravity_refstate-crust.xmf,158,1.64543e-06,-4.95062e-07,0,-2.50699e-07,-3.22428e+08,-3.22575e+08,-3.22541e+08,-17198,0.00192156,0.25359,0,0.253597,1166.87,-11744.2,0,11802,17198
step02_gravity_refstate-crust.xmf,159,1.75075e-06,-6.29937e-07,0,-5.30504e-08,-3.63738e+08,-3.63902e+08,-3.63858e+08,-3639.26,0.000411777,0.254689,0,0.25469,236.18,-13248.4,0,13250.5,3639.26
step02_gravity_refstate-crust.xmf,160,1.87915e-06,-7.88733e-07,0,1.62981e-07,-4.05016e+08,-4.05199e+08,-4.05145e+08,11180.5,-0.00107763,0.255692,-0,0.255694,-574.643,-14751.4,-0,14762.6,11180.5
step02_gravity_refstate-crust.xmf,161,2.02067e-06,-9.60694e-07,0,4.73881e-07,-4.45824e+08,-4.46029e+08,-4.45963e+08,32508.2,-0.00309728,0.256525,-0,0.256544,-1522.38,-16237.4,-0,16308.6,32508.2
step02_gravity_refstate-crust.xmf,162,2.1698e-06,-1.14879e-06,0,9.10108e-07,-4.89519e+08,-4.89747e+08,-4.89668e+08,62433.4,-0.00583762,0.257038,-0,0.257104,-2616.05,-17828.4,-0,18019.3,62433.4
step02_gravity_refstate-crust.xmf,163,1.40154e-06,-2.27685e-07,0,-8.51711e-07,-2.41016e+08,-2.41128e+08,-2.41112e+08,-58427.4,0.00800829,0.247884,0,0.248013,5267.1,-8779.76,0,10238.5,58427.4
step02_gravity_refstate-crust.xmf,164,1.20877e-06,-1.27914e-07,0,-9.29334e-07,-1.52278e+08,-1.5237e+08,-1.52361e+08,-63752.3,0.0140669,0.238971,0,0.239385,9124.95,-5548.53,0,10679.5,63752.3
step02_gravity_refstate-crust.xmf,165,1.34622e-06,-5.15339e-07,0,-5.8853e-09,127690,-13.1918,35339.1,-403.731,0.0268474,0.229105,0,0.230672,12207.6,0,0,12207.6,403.731
step02_gravity_refstate-crust.xmf,166,2.17416e-06,-1.16972e-06,0,1.43069e-06,-5.20674e+08,-5.20903e+08,-5.20823e+08,98145.4,-0.00922294,0.256024,-0,0.256191,-3904.98,-18962.6,-0,19360.5,98145.4
step02_gravity_refstate-crust.xmf,167,1.67745e-06,-5.83607e-07,0,1.81989e-06,-4.73353e+08,-4.73508e+08,-4.73468e+08,124845,-0.0120724,0.249072,-0,0.249364,-6018.54,-17238.8,-0,18259.2,124845
step02_gravity_refstate-crust.xmf,168,2.35955e-06,-1.39941e-06,0,1.05612e-06,-5.28665e+08,-5.28923e+08,-5.28827e+08,72449.5,-0.00671547,0.258675,-0,0.258763,-2729.95,-19254,-0,19446.5,72449.5
step02_gravity_refstate-crust.xmf,169,8.4566e-08,3.98023e-07,0,1.06577e-06,-1.33721e+08,-1.337e+08,-1.33727e+08,73111.7,-0.0210035,0.209552,-0,0.210602,-18438.4,-4869.21,-0,19070.5,73111.7
step02_gravity_refstate-crust.xmf,170,-1.11432e-06,6.25701e-07,0,4.14473e-07,-6.10755e+07,-6.09561e+07,-6.09991e+07,28432.8,-0.0210589,0.184183,-0,0.185383,-27031.5,-2219.98,-0,27122.5,28432.8
step02_gravity_refstate-crust.xmf,171,1.94045e-07,5.01198e-07,0,1.38524e-06,-1.84541e+08,-1.8452e+08,-1.84554e+08,95027.7,-0.0188758,0.213113,-0,0.213948,-17184.6,-6719.96,-0,18451.8,95027.7
step02_gravity_refstate-crust.xmf,172,3.73893e-07,4.69792e-07,0,1.52172e-06,-2.11723e+08,-2.11716e+08,-2.11749e+08,104390,-0.0177221,0.21884,-0,0.219556,-15443.5,-7710.22,-0,17261.2,104390
step02_gravity_refstate-crust.xmf,173,6.38961e-07,3.79643e-07,0,1.68345e-06,-2.60322e+08,-2.6034e+08,-2.60366e+08,115485,-0.0158109,0.227648,-0,0.228197,-12726.7,-9480.45,-0,15869.7,115485
step02_gravity_refstate-crust.xmf,174,-1.51587e-06,5.7424e-07,0,1.59043e-08,-144038,-656.629,-40049.5,1091.03,-0.0243563,0.183071,-0,0.184685,-28021.6,0,-0,28021.6,1091.03
step02_gravity_refstate-crust.xmf,175,1.47405e-06,-3.1145e-07,0,-7.92905e-07,-2.85771e+08,-2.85893e+08,-2.85872e+08,-54393.3,0.00651472,0.250065,0,0.25015,4186.29,-10409.3,0,11219.5,54393.3
step02_gravity_refstate-crust.xmf,176,1.58411e-06,-4.4075e-07,0,-6.78789e-07,-3.28461e+08,-3.286e+08,-3.2857e+08,-46564.9,0.00510315,0.252074,0,0.252126,3122.98,-11963.7,0,12364.6,46564.9
step02_gravity_refstate-crust.xmf,177,2.38487e-06,-1.42031e-06,0,6.73935e-07,-5.18419e+08,-5.1868e+08,-5.18583e+08,46232,-0.00428127,0.25943,-0,0.259465,-1766.77,-18881,-0,18963.5,46232
step02_gravity_refstate-crust.xmf,178,1.35566e-06,-1.89401e-07,0,-8.75349e-07,-2.05041e+08,-2.05147e+08,-2.05134e+08,-60048.9,0.0095986,0.245695,0,0.245883,6299.52,-7469.9,0,9771.56,60048.9
step02_gravity_refstate-crust.xmf,179,1.20095e-06,-8.96095e-08,0,-1.05261e-06,-2.01021e+08,-2.0111e+08,-2.01103e+08,-72208.7,0.0119244,0.241753,0,0.242047,8079.7,-7323.09,0,10904.6,72208.7
step02_gravity_refstate-crust.xmf,180,9.22214e-07,-1.97464e-07,0,-4.79281e-07,-5.36592e+07,-5.3736e+07,-5.37224e+07,-32878.7,0.0236468,0.225903,0,0.227137,13552.2,-1956.94,0,13692.8,32878.7
step02_gravity_refstate-crust.xmf,181,9.25677e-07,-6.32512e-08,0,-8.48004e-07,-1.08264e+08,-1.08332e+08,-1.08327e+08,-58173.1,0.019298,0.229348,0,0.230158,12497.1,-3945.1,0,13105,58173.1
step02_gravity_refstate-crust.xmf,182,8.60615e-07,-3.30957e-07,0,-8.88912e-09,81565.6,-176.298,22527.4,-609.794,0.0296368,0.221867,0,0.223838,14719.3,0,0,14719.3,609.794
step02_gravity_refstate-crust.xmf,183,9.59146e-07,1.11547e-08,0,-1.08436e-06,-1.56101e+08,-1.56166e+08,-1.56167e+08,-74387.1,0.0163269,0.232949,0,0.23352,11306.1,-5686.91,0,12655.8,74387.1
step02_gravity_refstate-crust.xmf,184,1.92899e-06,-8.82514e-07,0,1.8604e-06,-5.14767e+08,-5.1496e+08,-5.149e+08,127623,-0.0120611,0.252049,-0,0.252337,-5362.29,-18747.1,-0,19498.9,127623
step02_gravity_refstate-crust.xmf,185,2.48184e-06,-1.56053e-06,0,1.37599e-06,-5.5776e+08,-5.58037e+08,-5.5793e+08,94392.8,-0.00862469,0.25922,-0,0.259363,-3274.65,-20313.4,-0,20575.7,94392.8
step02_gravity_refstate-crust.xmf,186,-9.16347e-08,6.52949e-07,0,1.33503e-06,-1.82644e+08,-1.82593e+08,-1.82638e+08,91583.1,-0.0190606,0.204435,-0,0.205322,-19636,-6649.98,-0,20731.5,91583.1
step02_gravity_refstate-crust.xmf,187,-3.38469e-07,7.44581e-07,0,1.21432e-06,-1.73262e+08,-1.73188e+08,-1.73239e+08,83302.1,-0.0188952,0.197027,-0,0.197931,-21842.9,-6307.57,-0,22735.3,83302.1
step02_gravity_refstate-crust.xmf,188,-5.75395e-07,8.11419e-07,0,1.0593e-06,-1.61633e+08,-1.61538e+08,-1.61593e+08,72667.9,-0.01831,0.19018,-0,0.19106,-24036.7,-5883.33,-0,24746.3,72667.9
step02_gravity_refstate-crust.xmf,189,-8.13059e-07,8.49814e-07,0,8.70056e-07,-1.45523e+08,-1.45409e+08,-1.45467e+08,59685.8,-0.0173538,0.18392,-0,0.184737,-26294.5,-5295.94,-0,26822.5,59685.8
step02_gravity_refstate-crust.xmf,190,3.97558e-07,5.59958e-07,0,1.74288e-06,-2.57038e+08,-2.57027e+08,-2.57065e+08,119562,-0.0169176,0.22024,-0,0.220888,-14819.8,-9360.21,-0,17528.3,119562
step02_gravity_refstate-crust.xmf,191,1.03098e-06,1.22787e-07,0,1.97914e-06,-3.82714e+08,-3.82776e+08,-3.82785e+08,135769,-0.0142913,0.237839,-0,0.238268,-9370.88,-13937.4,-0,16794.8,135769
step02_gravity_refstate-crust.xmf,192,1.18513e-06,-2.65979e-08,0,2.07602e-06,-4.2505e+08,-4.25133e+08,-4.25131e+08,142415,-0.0143943,0.240472,-0,0.240903,-8567.08,-15479.1,-0,17691.8,142415
step02_gravity_refstate-crust.xmf,193,9.19502e-07,2.22603e-07,0,1.89e-06,-3.46656e+08,-3.46704e+08,-3.46719e+08,129654,-0.0143706,0.23556,-0,0.235998,-10117.3,-12624.4,-0,16178.2,129654
step02_gravity_refstate-crust.xmf,194,7.34943e-07,3.78517e-07,0,1.89533e-06,-3.19213e+08,-3.19237e+08,-3.19263e+08,130019,-0.0152534,0.230735,-0,0.231238,-11605.6,-11624.8,-0,16426.4,130019
step02_gravity_refstate-crust.xmf,195,1.3931e-06,-2.37891e-07,0,2.13645e-06,-4.68146e+08,-4.68258e+08,-4.68241e+08,146560,-0.0144588,0.24375,-0,0.244178,-7668.03,-17048.6,-0,18693.7,146560
step02_gravity_refstate-crust.xmf,196,-1.38346e-06,7.49242e-07,0,3.55006e-07,-6.60527e+07,-6.59064e+07,-6.59578e+07,24353.4,-0.0173279,0.177538,-0,0.178382,-29787.7,-2400.28,-0,29884.3,24353.4
step02_gravity_refstate-crust.xmf,197,-1.84772e-06,7.00536e-07,0,1.41742e-08,-175546,-735.417,-48792.2,972.351,-0.0195611,0.177076,-0,0.178154,-30882.2,0,-0,30882.2,972.351
step02_gravity_refstate-crust.xmf,198,1.72177e-06,-6.04011e-07,0,-5.1463e-07,-3.68779e+08,-3.68938e+08,-3.68897e+08,-35303.6,0.00365748,0.2539,0,0.253926,2096.91,-13431.8,0,13594.5,35303.6
step02_gravity_refstate-crust.xmf,199,1.8834e-06,-7.98123e-07,0,-3.22321e-07,-4.09291e+08,-4.09475e+08,-4.0942e+08,-22111.2,0.00220916,0.25558,0,0.25559,1170.41,-14907,0,14952.9,22111.2
step02_gravity_refstate-crust.xmf,200,2.06829e-06,-1.02204e-06,0,-7.19421e-08,-4.49273e+08,-4.49485e+08,-4.49415e+08,-4935.23,0.000493675,0.257207,0,0.257208,239.68,-16363,0,16364.8,4935.23
step02_gravity_refstate-crust.xmf,201,2.29291e-06,-1.30594e-06,0,2.6066e-07,-4.93637e+08,-4.93884e+08,-4.93795e+08,17881.3,-0.00163524,0.258951,-0,0.258956,-714.218,-17978.6,-0,17992.8,17881.3
step02_gravity_refstate-crust.xmf,202,2.6281e-06,-1.71607e-06,0,7.84844e-07,-5.55241e+08,-5.55539e+08,-5.55421e+08,53840.3,-0.00485573,0.261477,-0,0.261522,-1817.94,-20222.1,-0,20303.6,53840.3
step02_gravity_refstate-crust.xmf,203,1.25371e-06,-1.15596e-07,0,-1.12274e-06,-2.48337e+08,-2.48431e+08,-2.48423e+08,-77019.9,0.0104086,0.244264,0,0.244485,7083.29,-9045.83,0,11489.1,77019.9
step02_gravity_refstate-crust.xmf,204,1.34244e-06,-1.96744e-07,0,-1.1176e-06,-2.91029e+08,-2.91135e+08,-2.91122e+08,-76667.1,0.00913276,0.2468,0,0.246969,6030.15,-10600.3,0,12195.5,76667.1
step02_gravity_refstate-crust.xmf,205,1.00552e-06,4.41234e-08,0,-1.24961e-06,-2.04367e+08,-2.04433e+08,-2.04436e+08,-85723.3,0.0141238,0.236401,0,0.236822,10100.1,-7444.31,0,12547.1,85723.3
step02_gravity_refstate-crust.xmf,206,5.20195e-07,-3.944e-08,0,-4.9814e-07,-5.35598e+07,-5.35982e+07,-5.35955e+07,-34172.4,0.0254318,0.218198,0,0.219675,16011.9,-1951.94,0,16130.5,34172.4
step02_gravity_refstate-crust.xmf,207,3.59397e-07,-1.37412e-07,0,-7.7215e-09,34096.1,14.9903,9441.47,-529.695,0.0311994,0.214033,0,0.216295,17270.8,0,0,17270.8,529.695
step02_gravity_refstate-crust.xmf,208,2.2185e-06,-1.2256e-06,0,1.88369e-06,-5.54989e+08,-5.55225e+08,-5.55141e+08,129221,-0.0120057,0.25537,-0,0.255652,-4744.72,-20212,-0,20761.4,129221
step02_gravity_refstate-crust.xmf,209,1.63407e-06,-5.24386e-07,0,2.2296e-06,-5.10393e+08,-5.10541e+08,-5.10505e+08,152950,-0.0146678,0.246977,-0,0.247413,-6903.24,-18587.2,-0,19827.7,152950
step02_gravity_refstate-crust.xmf,210,2.55949e-06,-1.64771e-06,0,1.91323e-06,-5.94035e+08,-5.94323e+08,-5.9421e+08,131248,-0.0118867,0.259089,-0,0.259362,-4169.01,-21634.2,-0,22032.3,131248
step02_gravity_refstate-crust.xmf,211,2.81075e-06,-1.95501e-06,0,1.22968e-06,-5.90819e+08,-5.91146e+08,-5.91012e+08,84356.2,-0.0075068,0.262725,-0,0.262832,-2570.65,-21517.7,-0,21670.7,84356.2
step02_gravity_refstate-crust.xmf,212,-1.06727e-06,9.0782e-07,0,6.94934e-07,-1.34922e+08,-1.34786e+08,-1.34849e+08,47672.5,-0.0154094,0.17773,-0,0.178397,-28790.8,-4909.06,-0,29206.3,47672.5
step02_gravity_refstate-crust.xmf,213,1.85695e-07,6.97547e-07,0,1.72574e-06,-2.49843e+08,-2.49808e+08,-2.49856e+08,118386,-0.0175278,0.213429,-0,0.214148,-16706.2,-9097.61,-0,19022.8,118386
step02_gravity_refstate-crust.xmf,214,4.55799e-07,6.22692e-07,0,1.9806e-06,-3.1151e+08,-3.11499e+08,-3.11541e+08,135869,-0.0165531,0.222478,-0,0.223093,-13900,-11343.6,-0,17941.2,135869
step02_gravity_refstate-crust.xmf,215,-1.60811e-06,8.36977e-07,0,2.65243e-07,-6.62025e+07,-6.60348e+07,-6.60922e+07,18195.7,-0.0131534,0.172302,-0,0.172804,-32575.5,-2404.96,-0,32664.2,18195.7
step02_gravity_refstate-crust.xmf,216,-2.09735e-06,7.94303e-07,0,1.23004e-08,-199300,-932.103,-55421.3,843.804,-0.0137621,0.172432,-0,0.17298,-33826.9,0,-0,33826.9,843.804
step02_gravity_refstate-crust.xmf,217,1.46819e-06,-3.29452e-07,0,-1.06416e-06,-3.33569e+08,-3.33693e+08,-3.3367e+08,-73001.2,0.00796894,0.249289,0,0.249416,4976.12,-12149.4,0,13128.9,73001.2
step02_gravity_refstate-crust.xmf,218,1.62861e-06,-5.09167e-07,0,-9.58239e-07,-3.74407e+08,-3.74554e+08,-3.74519e+08,-65735.2,0.00677318,0.251731,0,0.251822,3928.77,-13636.5,0,14191.1,65735.2
step02_gravity_refstate-crust.xmf,219,2.52048e-06,-1.58811e-06,0,3.33811e-07,-5.32379e+08,-5.32661e+08,-5.32552e+08,22899.5,-0.00208471,0.260931,-0,0.26094,-824.828,-19389.5,-0,19407.1,22899.5
step02_gravity_refstate-crust.xmf,220,1.06518e-06,3.16014e-08,0,-1.34828e-06,-2.51445e+08,-2.51516e+08,-2.51518e+08,-92492.1,0.012574,0.239562,0,0.239891,8948.27,-9158.46,0,12804.3,92492.1
step02_gravity_refstate-crust.xmf,221,1.15803e-07,1.25823e-07,0,-4.92433e-07,-5.37669e+07,-5.37662e+07,-5.37749e+07,-33780.9,0.0261964,0.210183,0,0.211809,18477,-1958.1,0,18580.4,33780.9
step02_gravity_refstate-crust.xmf,222,-1.43905e-07,5.55419e-08,0,-7.15068e-09,-13630.2,51.8997,-3758.27,-490.536,0.0314594,0.205908,0,0.208298,19869.6,0,0,19869.6,490.536
step02_gravity_refstate-crust.xmf,223,6.10351e-07,7.15505e-08,0,-8.84141e-07,-1.06014e+08,-1.06051e+08,-1.06056e+08,-60652.1,0.0212049,0.221999,0,0.223009,14826.6,-3862.14,0,15321.3,60652.1
step02_gravity_refstate-crust.xmf,224,6.72283e-07,1.67832e-07,0,-1.19091e-06,-1.58083e+08,-1.58118e+08,-1.58129e+08,-81696.2,0.0181748,0.225618,0,0.226349,13646.2,-5758.16,0,14811.3,81696.2
step02_gravity_refstate-crust.xmf,225,7.53501e-07,2.18244e-07,0,-1.40803e-06,-2.0949e+08,-2.09527e+08,-2.09542e+08,-96591.1,0.0159416,0.229813,0,0.230365,12244.5,-7630.09,0,14427.2,96591.1
step02_gravity_refstate-crust.xmf,226,1.89673e-06,-8.44249e-07,0,2.31778e-06,-5.50308e+08,-5.50496e+08,-5.50438e+08,159000,-0.0149145,0.250317,-0,0.250761,-6235.08,-20040.9,-0,20988.4,159000
step02_gravity_refstate-crust.xmf,227,2.94164e-06,-2.153e-06,0,1.68324e-06,-6.2173e+08,-6.22079e+08,-6.21932e+08,115470,-0.0101955,0.263569,-0,0.263766,-3236.4,-22643.3,-0,22873.4,115470
step02_gravity_refstate-crust.xmf,228,3.16191e-06,-2.41299e-06,0,1.05084e-06,-6.22986e+08,-6.23368e+08,-6.23203e+08,72087.5,-0.00625442,0.266383,-0,0.266456,-1934.26,-22689.5,-0,22771.8,72087.5
step02_gravity_refstate-crust.xmf,229,-3.9449e-08,8.28927e-07,0,1.6594e-06,-2.42001e+08,-2.41942e+08,-2.41999e+08,113835,-0.0177734,0.205909,-0,0.206674,-18785.9,-8811.43,-0,20749.7,113835
step02_gravity_refstate-crust.xmf,230,-2.65519e-07,9.56656e-07,0,1.56074e-06,-2.37006e+08,-2.36923e+08,-2.36988e+08,107067,-0.0175136,0.1981,-0,0.198873,-20968.6,-8628.86,-0,22674.6,107067
step02_gravity_refstate-crust.xmf,231,-4.75395e-07,1.03454e-06,0,1.39847e-06,-2.25439e+08,-2.25335e+08,-2.25406e+08,95935.2,-0.0169047,0.190816,-0,0.191564,-23182.7,-8207,-0,24592.6,95935.2
step02_gravity_refstate-crust.xmf,232,-6.72815e-07,1.09736e-06,0,1.21727e-06,-2.15119e+08,-2.14997e+08,-2.15072e+08,83504.7,-0.0158316,0.184013,-0,0.184692,-25424.5,-7830.58,-0,26603.1,83504.7
step02_gravity_refstate-crust.xmf,233,-8.63482e-07,1.14802e-06,0,1.01251e-06,-2.05045e+08,-2.04907e+08,-2.04986e+08,69458.3,-0.0142059,0.177568,-0,0.178136,-27819.5,-7463.15,-0,28803.2,69458.3
step02_gravity_refstate-crust.xmf,234,2.10771e-07,8.26145e-07,0,1.99205e-06,-3.05805e+08,-3.05763e+08,-3.0582e+08,136654,-0.0172117,0.21465,-0,0.215339,-15976.7,-11135.3,-0,19474.3,136654
step02_gravity_refstate-crust.xmf,235,7.68338e-07,3.96454e-07,0,2.14184e-06,-3.755e+08,-3.75526e+08,-3.75553e+08,146931,-0.015821,0.23126,-0,0.231801,-11237,-13674.2,-0,17699,146931
step02_gravity_refstate-crust.xmf,236,8.87265e-07,3.07295e-07,0,2.28878e-06,-4.19236e+08,-4.19276e+08,-4.19297e+08,157011,-0.016187,0.233664,-0,0.234224,-10446,-15266.8,-0,18498.5,157011
step02_gravity_refstate-crust.xmf,237,1.03776e-06,1.79166e-07,0,2.48687e-06,-4.69955e+08,-4.70014e+08,-4.70027e+08,170599,-0.0169917,0.236126,-0,0.236736,-9698.33,-17113.7,-0,19670.7,170599
step02_gravity_refstate-crust.xmf,238,1.33618e-06,-1.47806e-07,0,2.51151e-06,-5.08977e+08,-5.09078e+08,-5.09068e+08,172289,-0.0168365,0.241319,-0,0.241905,-8398.12,-18535,-0,20348.8,172289
step02_gravity_refstate-crust.xmf,239,-1.26778e-06,9.81897e-07,0,5.33793e-07,-1.32927e+08,-1.32773e+08,-1.3284e+08,36618.2,-0.0123581,0.172049,-0,0.172492,-31461.9,-4835.73,-0,31831.4,36618.2
step02_gravity_refstate-crust.xmf,240,-1.74924e-06,8.98612e-07,0,1.73199e-07,-6.79215e+07,-6.77398e+07,-6.78015e+07,11881.4,-0.00840866,0.168565,-0,0.168774,-35365.1,-2467.06,-0,35451.1,11881.4
step02_gravity_refstate-crust.xmf,241,-2.25463e-06,8.54696e-07,0,4.23958e-09,-214210,-909.904,-59542,290.835,-0.0071595,0.169444,-0,0.169595,-36863.6,0,-0,36863.6,290.835
step02_gravity_refstate-crust.xmf,242,1.81767e-06,-7.28369e-07,0,-8.054e-07,-4.13919e+08,-4.14094e+08,-4.14044e+08,-55250.4,0.00547637,0.254096,0,0.254155,2917.19,-15075.4,0,15355,55250.4
step02_gravity_refstate-crust.xmf,243,2.0316e-06,-9.82934e-07,0,-6.0413e-07,-4.52525e+08,-4.52732e+08,-4.52664e+08,-41443.3,0.00399928,0.256404,0,0.256435,1942.16,-16481.3,0,16595.4,41443.3
step02_gravity_refstate-crust.xmf,244,2.26751e-06,-1.27158e-06,0,-3.70286e-07,-4.91177e+08,-4.9142e+08,-4.91333e+08,-25401.6,0.00241123,0.258665,0,0.258676,1061.51,-17889,0,17920.5,25401.6
step02_gravity_refstate-crust.xmf,245,2.5207e-06,-1.58695e-06,0,-1.63996e-07,-5.30187e+08,-5.30468e+08,-5.30359e+08,-11250.1,0.00105997,0.260959,0,0.260961,420.651,-19309.7,0,19314.3,11250.1
step02_gravity_refstate-crust.xmf,246,2.76745e-06,-1.89576e-06,0,1.60442e-07,-5.64146e+08,-5.64466e+08,-5.64336e+08,11006.3,-0.000969158,0.263125,-0,0.263127,-351.127,-20546.6,-0,20549.6,11006.3
step02_gravity_refstate-crust.xmf,247,2.98063e-06,-2.16925e-06,0,5.96566e-07,-5.94354e+08,-5.94708e+08,-5.94559e+08,40924.4,-0.00359926,0.26489,-0,0.264915,-1200.74,-21646.8,-0,21680,40924.4
step02_gravity_refstate-crust.xmf,248,1.17269e-06,-4.50426e-08,0,-1.40337e-06,-2.95947e+08,-2.96031e+08,-2.96028e+08,-96271.1,0.0114619,0.24249,0,0.242761,7860.29,-10778.9,0,13340.5,96271.1
step02_gravity_refstate-crust.xmf,249,1.30759e-06,-1.71586e-07,0,-1.40853e-06,-3.39296e+08,-3.39398e+08,-3.39386e+08,-96625.4,0.0105451,0.245384,0,0.24561,6788.55,-12357.4,0,14099.3,96625.4
step02_gravity_refstate-crust.xmf,250,-2.86607e-07,2.85659e-07,0,-4.68428e-07,-5.38154e+07,-5.37762e+07,-5.37958e+07,-32134.2,0.0259583,0.201953,0,0.203615,21016.4,-1958.49,0,21107.5,32134.2
step02_gravity_refstate-crust.xmf,251,-6.56575e-07,2.45096e-07,0,-1.09558e-08,-62542.1,-687.421,-17501,-751.565,0.0303876,0.197818,0,0.200138,22522.7,0,0,22522.7,751.565
step02_gravity_refstate-crust.xmf,252,8.57866e-07,1.9958e-07,0,-1.55414e-06,-2.56332e+08,-2.56377e+08,-2.56391e+08,-106614,0.0144597,0.233716,0,0.234163,10911.1,-9335.81,0,14360,106614
step02_gravity_refstate-crust.xmf,253,2.70812e-07,2.20841e-07,0,-8.98416e-07,-1.06113e+08,-1.06116e+08,-1.06131e+08,-61631.3,0.0222509,0.214065,0,0.215219,17209,-3864.58,0,17637.6,61631.3
step02_gravity_refstate-crust.xmf,254,2.16965e-06,-1.16225e-06,0,2.40264e-06,-5.86339e+08,-5.86567e+08,-5.86487e+08,164821,-0.0152225,0.253568,-0,0.254024,-5701.66,-21353.2,-0,22101.3,164821
step02_gravity_refstate-crust.xmf,255,1.54635e-06,-4.08204e-07,0,2.65236e-06,-5.4644e+08,-5.46574e+08,-5.46546e+08,181952,-0.0173595,0.244357,-0,0.244973,-7743.18,-19899.3,-0,21352.8,181952
step02_gravity_refstate-crust.xmf,256,3.30978e-06,-2.64944e-06,0,1.53759e-06,-6.51719e+08,-6.52128e+08,-6.51946e+08,105479,-0.00908392,0.267724,-0,0.267878,-2607,-23735.8,-0,23878.5,105479
step02_gravity_refstate-crust.xmf,257,2.73447e-06,-1.90633e-06,0,2.21813e-06,-6.27049e+08,-6.27367e+08,-6.27237e+08,152164,-0.0134618,0.26072,-0,0.261068,-4325.61,-22836.5,-0,23242.5,152164
step02_gravity_refstate-crust.xmf,258,-1.04774e-06,1.19975e-06,0,8.06492e-07,-1.98914e+08,-1.98759e+08,-1.98842e+08,55325.4,-0.0119117,0.171696,-0,0.172109,-30349.9,-7239.27,-0,31201.3,55325.4
step02_gravity_refstate-crust.xmf,259,-1.20555e-08,9.94794e-07,0,1.94115e-06,-2.99167e+08,-2.99098e+08,-2.99166e+08,133163,-0.0173966,0.206989,-0,0.207719,-18000.2,-10893,-0,21039.6,133163
step02_gravity_refstate-crust.xmf,260,5.17092e-07,6.57306e-07,0,2.20512e-06,-3.65117e+08,-3.65108e+08,-3.65153e+08,151271,-0.0168199,0.224317,-0,0.224947,-13097.7,-13295.6,-0,18663.4,151271
step02_gravity_refstate-crust.xmf,261,2.54601e-07,9.12324e-07,0,2.23709e-06,-3.59835e+08,-3.5979e+08,-3.59852e+08,153464,-0.0175146,0.216285,-0,0.216993,-15135.1,-13102.6,-0,20018.7,153464
step02_gravity_refstate-crust.xmf,262,1.03029e-06,2.33737e-07,0,2.76496e-06,-5.13094e+08,-5.13149e+08,-5.13165e+08,189676,-0.0187632,0.234949,-0,0.235697,-9898.15,-18684.2,-0,21144.1,189676
step02_gravity_refstate-crust.xmf,263,-1.42602e-06,1.03313e-06,0,3.64709e-07,-1.29873e+08,-1.29704e+08,-1.29775e+08,25019,-0.00883599,0.167835,-0,0.168067,-34139.2,-4723.99,-0,34464.5,25019
step02_gravity_refstate-crust.xmf,264,-1.86441e-06,9.2226e-07,0,6.88428e-08,-6.09591e+07,-6.0768e+07,-6.08312e+07,4722.62,-0.00417334,0.166959,-0,0.167011,-37781.3,-2213.16,-0,37846.1,4722.62
step02_gravity_refstate-crust.xmf,265,-2.27037e-06,8.57702e-07,0,-8.03624e-09,-215831,-1245.03,-60083.4,-551.286,-8.63111e-19,0.168388,-0,0.168388,-40000,0,-0,40000,551.286
step02_gravity_refstate-crust.xmf,266,1.48051e-06,-3.53138e-07,0,-1.35563e-06,-3.79408e+08,-3.79534e+08,-3.7951e+08,-92996.1,0.00959481,0.248345,0,0.24853,5701.71,-13818.2,0,14948.3,92996.1
step02_gravity_refstate-crust.xmf,267,1.68734e-06,-5.84724e-07,0,-1.25769e-06,-4.18748e+08,-4.18904e+08,-4.18863e+08,-86277.4,0.00856046,0.251309,0,0.251454,4639.05,-15250.8,0,15940.8,86277.4
step02_gravity_refstate-crust.xmf,268,3.29771e-06,-2.58574e-06,0,3.48245e-07,-6.25604e+08,-6.26008e+08,-6.25831e+08,23889.6,-0.00203744,0.26801,-0,0.268018,-618.217,-22785.1,-0,22793.5,23889.6
step02_gravity_refstate-crust.xmf,269,-6.8682e-07,4.36832e-07,0,-4.43645e-07,-5.49929e+07,-5.49158e+07,-5.49457e+07,-30434,0.0246011,0.193938,0,0.195492,23593.9,-1999.97,0,23678.5,30434
step02_gravity_refstate-crust.xmf,270,-1.11206e-06,4.168e-07,0,-1.25111e-08,-105859,-978.53,-29571,-858.26,0.0279979,0.190093,0,0.192144,25237.6,0,0,25237.6,858.26
step02_gravity_refstate-crust.xmf,271,9.63151e-07,1.4564e-07,0,-1.64266e-06,-3.01375e+08,-3.01431e+08,-3.01441e+08,-112686,0.0134878,0.237158,0,0.237541,9717.03,-10976,0,14659.2,112686
step02_gravity_refstate-crust.xmf,272,-6.13339e-08,3.7368e-07,0,-8.7525e-07,-1.06754e+08,-1.06725e+08,-1.0675e+08,-60042.1,0.0224591,0.205942,0,0.207163,19608.9,-3886.83,0,19990.4,60042.1
step02_gravity_refstate-crust.xmf,273,3.70375e-07,3.20896e-07,0,-1.22378e-06,-1.56406e+08,-1.56409e+08,-1.56431e+08,-83951.3,0.0194847,0.217542,0,0.218413,16042.9,-5696.1,0,17024.1,83951.3
step02_gravity_refstate-crust.xmf,274,4.63091e-07,4.24118e-07,0,-1.5546e-06,-2.19465e+08,-2.19468e+08,-2.19497e+08,-106646,0.0172494,0.221567,0,0.222238,14638.7,-7992.39,0,16678.4,106646
step02_gravity_refstate-crust.xmf,275,6.17065e-07,3.99656e-07,0,-1.70565e-06,-2.6282e+08,-2.62835e+08,-2.62862e+08,-117007,0.0159214,0.226964,0,0.227522,12913.3,-9571.33,0,16073.7,117007
step02_gravity_refstate-crust.xmf,276,3.5314e-06,-2.90415e-06,0,8.33024e-07,-6.53606e+08,-6.54048e+08,-6.53848e+08,57145.4,-0.00481867,0.270177,-0,0.27022,-1350.34,-23805,-0,23843.2,57145.4
step02_gravity_refstate-crust.xmf,277,1.78387e-06,-7.02317e-07,0,2.78181e-06,-5.81781e+08,-5.81952e+08,-5.81904e+08,190832,-0.0178495,0.247647,-0,0.24829,-7129.79,-21186.5,-0,22354,190832
step02_gravity_refstate-crust.xmf,278,2.40571e-06,-1.46841e-06,0,2.54933e-06,-6.18751e+08,-6.19017e+08,-6.18916e+08,174884,-0.0158242,0.256361,-0,0.256849,-5376.98,-22533.7,-0,23166.4,174884
step02_gravity_refstate-crust.xmf,279,3.0377e-06,-2.30909e-06,0,2.18039e-06,-6.51285e+08,-6.51652e+08,-6.51493e+08,149575,-0.0129573,0.264219,-0,0.264537,-3830.21,-23719.4,-0,24026.7,149575
step02_gravity_refstate-crust.xmf,280,-2.27543e-07,1.1468e-06,0,1.8437e-06,-2.9358e+08,-2.93486e+08,-2.93565e+08,126478,-0.0171465,0.199062,-0,0.1998,-20119.5,-10688.9,-0,22782.6,126478
step02_gravity_refstate-crust.xmf,281,-4.24924e-07,1.26541e-06,0,1.69712e-06,-2.86509e+08,-2.86393e+08,-2.8648e+08,116422,-0.0164671,0.191356,-0,0.192063,-22291.2,-10430.9,-0,24611,116422
step02_gravity_refstate-crust.xmf,282,-6.0462e-07,1.35169e-06,0,1.51038e-06,-2.78089e+08,-2.77955e+08,-2.78047e+08,103612,-0.0153757,0.184045,-0,0.184686,-24530.4,-10123.7,-0,26537.3,103612
step02_gravity_refstate-crust.xmf,283,-7.64971e-07,1.41223e-06,0,1.29915e-06,-2.69532e+08,-2.69383e+08,-2.69479e+08,89121.5,-0.0138958,0.177386,-0,0.177929,-26809,-9811.67,-0,28548.1,89121.5
step02_gravity_refstate-crust.xmf,284,-9.1022e-07,1.4664e-06,0,1.06744e-06,-2.63433e+08,-2.6327e+08,-2.63371e+08,73226.6,-0.0119199,0.171162,-0,0.171576,-29233.4,-9589.14,-0,30766,73226.6
step02_gravity_refstate-crust.xmf,285,1.66781e-08,1.13338e-06,0,2.20324e-06,-3.54789e+08,-3.54712e+08,-3.5479e+08,151142,-0.0177124,0.208278,-0,0.20903,-17136.5,-12918.3,-0,21460.2,151142
step02_gravity_refstate-crust.xmf,286,5.92218e-07,6.31083e-07,0,2.41455e-06,-4.13156e+08,-4.13154e+08,-4.13197e+08,165638,-0.017441,0.226156,-0,0.226828,-12356.7,-15044.7,-0,19468.7,165638
step02_gravity_refstate-crust.xmf,287,7.02212e-07,5.58212e-07,0,2.59478e-06,-4.56319e+08,-4.56329e+08,-4.56368e+08,178002,-0.0181667,0.228531,-0,0.229252,-11563.2,-16616.5,-0,20243.9,178002
step02_gravity_refstate-crust.xmf,288,7.29343e-07,5.79235e-07,0,2.83884e-06,-5.01094e+08,-5.01104e+08,-5.01144e+08,194744,-0.0195744,0.22852,-0,0.229356,-11353.3,-18246.7,-0,21490.4,194744
step02_gravity_refstate-crust.xmf,289,1.19684e-06,4.90539e-08,0,2.89071e-06,-5.44594e+08,-5.44673e+08,-5.44676e+08,198303,-0.0193302,0.237767,-0,0.238551,-9239.27,-19831.4,-0,21878,198303
step02_gravity_refstate-crust.xmf,290,-1.1851e-06,1.24398e-06,0,5.90928e-07,-1.9514e+08,-1.94973e+08,-1.95058e+08,40537.7,-0.00908562,0.166909,-0,0.167157,-32942.1,-7101.39,-0,33698.8,40537.7
step02_gravity_refstate-crust.xmf,291,-1.51537e-06,1.06943e-06,0,1.82079e-07,-1.31153e+08,-1.30976e+08,-1.31049e+08,12490.6,-0.00436589,0.164776,-0,0.164834,-37158,-4770.28,-0,37462.9,12490.6
step02_gravity_refstate-crust.xmf,292,-1.73524e-06,9.66956e-07,0,-4.4034e-09,-8.70235e+07,-8.68381e+07,-8.69044e+07,-302.073,-8.84866e-19,0.165499,-0,0.165499,-40000,-3162.65,-0,40124.8,302.073
step02_gravity_refstate-crust.xmf,293,1.92434e-06,-8.61116e-07,0,-1.1128e-06,-4.56928e+08,-4.57119e+08,-4.5706e+08,-76338.3,0.00736325,0.254262,0,0.254368,3614.69,-16641.4,0,17029.4,76338.3
step02_gravity_refstate-crust.xmf,294,2.18778e-06,-1.17864e-06,0,-9.25089e-07,-4.94415e+08,-4.94646e+08,-4.94565e+08,-63461.1,0.00598638,0.257193,0,0.257263,2652,-18006.7,0,18200.9,63461.1
step02_gravity_refstate-crust.xmf,295,2.4632e-06,-1.51818e-06,0,-7.27523e-07,-5.30799e+08,-5.31073e+08,-5.30968e+08,-49908.1,0.00461658,0.260007,0,0.260048,1846.26,-19331.9,0,19419.9,49908.1
step02_gravity_refstate-crust.xmf,296,2.76059e-06,-1.89134e-06,0,-4.6973e-07,-5.66199e+08,-5.66518e+08,-5.66388e+08,-32223.5,0.00293296,0.262927,0,0.262943,1058.47,-20621.3,0,20648.4,32223.5
step02_gravity_refstate-crust.xmf,297,3.04834e-06,-2.25494e-06,0,-9.89276e-08,-5.97483e+08,-5.97847e+08,-5.97692e+08,-6786.43,0.000640206,0.265668,0,0.265668,210.734,-21760.8,0,21761.8,6786.43
step02_gravity_refstate-crust.xmf,298,1.10888e-06,2.74061e-08,0,-1.70129e-06,-3.442e+08,-3.44274e+08,-3.44276e+08,-116708,0.0127915,0.240432,0,0.240772,8594.41,-12535.5,0,15198.8,116708
step02_gravity_refstate-crust.xmf,299,1.28465e-06,-1.43546e-07,0,-1.71071e-06,-3.85297e+08,-3.85395e+08,-3.85385e+08,-117355,0.012158,0.243781,0,0.244084,7482.08,-14032.1,0,15902.2,117355
step02_gravity_refstate-crust.xmf,300,-3.81432e-07,5.12694e-07,0,-8.25163e-07,-1.07215e+08,-1.07153e+08,-1.07189e+08,-56606.2,0.0218772,0.197918,0,0.199123,22029.2,-3902.51,0,22372.2,56606.2
step02_gravity_refstate-crust.xmf,301,-1.02093e-06,5.90553e-07,0,-4.40286e-07,-6.23591e+07,-6.22486e+07,-6.22891e+07,-30203.6,0.0217916,0.186184,0,0.187455,26262.1,-2267.03,0,26359.7,30203.6
step02_gravity_refstate-crust.xmf,302,7.37796e-07,3.55433e-07,0,-1.84903e-06,-3.07581e+08,-3.07607e+08,-3.07631e+08,-126843,0.015174,0.230783,0,0.231281,11636.7,-11201.3,0,16151.8,126843
step02_gravity_refstate-crust.xmf,303,7.63046e-08,4.79636e-07,0,-1.23333e-06,-1.5941e+08,-1.59383e+08,-1.59416e+08,-84606.7,0.0198852,0.209483,0,0.210425,18339.5,-5804.54,0,19236.2,84606.7
step02_gravity_refstate-crust.xmf,304,4.12207e-07,5.86089e-07,0,-1.82173e-06,-2.74329e+08,-2.74317e+08,-2.74357e+08,-124971,0.0167339,0.220914,0,0.221546,14538.5,-9989.79,0,17639.9,124971
step02_gravity_refstate-crust.xmf,305,-1.51305e-06,5.68739e-07,0,-1.26827e-08,-143958,-1147.74,-40163.2,-870.031,0.024353,0.183069,0,0.184682,28021.6,0,0,28021.6,870.031
step02_gravity_refstate-crust.xmf,306,3.7403e-06,-3.22944e-06,0,1.37541e-06,-6.81628e+08,-6.82106e+08,-6.81884e+08,94353,-0.00784292,0.272176,-0,0.272289,-2033.3,-24825.5,-0,24908.6,94353
step02_gravity_refstate-crust.xmf,307,2.02611e-06,-9.85072e-07,0,2.92253e-06,-6.14813e+08,-6.15019e+08,-6.14952e+08,200485,-0.0184624,0.250769,-0,0.251448,-6651.06,-22389.6,-0,23356.6,200485
step02_gravity_refstate-crust.xmf,308,1.39308e-06,-2.06835e-07,0,3.0663e-06,-5.79621e+08,-5.79731e+08,-5.79717e+08,210348,-0.0200529,0.240966,-0,0.241799,-8578.59,-21107,-0,22783.7,210348
step02_gravity_refstate-crust.xmf,309,3.42435e-06,-2.82589e-06,0,2.11011e-06,-6.79917e+08,-6.80346e+08,-6.80152e+08,144753,-0.0122407,0.268694,-0,0.268973,-3274.1,-24762.5,-0,24978,144753
step02_gravity_refstate-crust.xmf,310,2.68097e-06,-1.86275e-06,0,2.69763e-06,-6.49446e+08,-6.49757e+08,-6.4963e+08,185058,-0.0162675,0.25966,-0,0.260169,-5015.47,-23651.7,-0,24177.6,185058
step02_gravity_refstate-crust.xmf,311,-1.04575e-06,1.50847e-06,0,8.20062e-07,-2.58949e+08,-2.58773e+08,-2.58877e+08,56256.2,-0.0094347,0.165719,-0,0.165987,-31816.2,-9425.39,-0,33183,56256.2
step02_gravity_refstate-crust.xmf,312,-2.04509e-07,1.32332e-06,0,2.10653e-06,-3.48673e+08,-3.48568e+08,-3.48659e+08,144508,-0.0174493,0.200056,-0,0.200816,-19228.3,-12695,-0,23041.1,144508
step02_gravity_refstate-crust.xmf,313,3.09539e-07,9.55659e-07,0,2.4583e-06,-4.08919e+08,-4.08874e+08,-4.0894e+08,168639,-0.0182211,0.217983,-0,0.218743,-14328.1,-14889.8,-0,20664,168639
step02_gravity_refstate-crust.xmf,314,4.59431e-08,1.23577e-06,0,2.43834e-06,-4.05115e+08,-4.05034e+08,-4.05119e+08,167270,-0.0184809,0.209549,-0,0.210362,-16318.5,-14750.7,-0,21997.2,167270
step02_gravity_refstate-crust.xmf,315,8.34829e-07,5.04099e-07,0,3.04223e-06,-5.40853e+08,-5.40876e+08,-5.4091e+08,208697,-0.0207473,0.23035,-0,0.231283,-10801.7,-19694.4,-0,22462.2,208697
step02_gravity_refstate-crust.xmf,316,-1.29637e-06,1.24875e-06,0,3.78011e-07,-1.85898e+08,-1.85723e+08,-1.85809e+08,25931.6,-0.00625622,0.164063,-0,0.164182,-35332.7,-6764.49,-0,35974.4,25931.6
step02_gravity_refstate-crust.xmf,317,1.49849e-06,-3.72478e-07,0,-1.67065e-06,-4.24125e+08,-4.24253e+08,-4.24228e+08,-114607,0.0114276,0.247246,0,0.24751,6373.44,-15446.2,0,16709.4,114607
step02_gravity_refstate-crust.xmf,318,1.74902e-06,-6.57689e-07,0,-1.58296e-06,-4.6176e+08,-4.61925e+08,-4.6188e+08,-108591,0.0105244,0.250803,0,0.251024,5283.73,-16816.9,0,17627.4,108591
step02_gravity_refstate-crust.xmf,319,3.33045e-06,-2.63034e-06,0,-3.69804e-07,-6.29209e+08,-6.29618e+08,-6.29438e+08,-25368.5,0.00221389,0.268328,0,0.268337,664.871,-22916.4,0,22926,25368.5
step02_gravity_refstate-crust.xmf,320,3.62988e-06,-3.03319e-06,0,6.72358e-08,-6.55995e+08,-6.56452e+08,-6.56244e+08,4612.38,-0.000360386,0.27128,-0,0.27128,-99.5591,-23892.1,-0,23892.3,4612.38
step02_gravity_refstate-crust.xmf,321,3.92635e-06,-3.4405e-06,0,5.60864e-07,-6.83442e+08,-6.83948e+08,-6.83712e+08,38475.3,-0.00313609,0.274203,-0,0.274221,-797.155,-24892,-0,24904.7,38475.3
step02_gravity_refstate-crust.xmf,322,-7.08208e-07,6.36169e-07,0,-7.49e-07,-1.06402e+08,-1.06309e+08,-1.06353e+08,-51381.4,0.0205813,0.190229,0,0.191339,24495,-3871.78,0,24799.1,51381.4
step02_gravity_refstate-crust.xmf,323,8.75685e-07,2.65857e-07,0,-1.93482e-06,-3.49834e+08,-3.49876e+08,-3.49894e+08,-132729,0.014692,0.234502,0,0.234961,10420.1,-12740,0,16458.6,132729
step02_gravity_refstate-crust.xmf,324,-2.00105e-07,6.27726e-07,0,-1.18213e-06,-1.60155e+08,-1.60098e+08,-1.60141e+08,-81094.4,0.0197052,0.201382,0,0.202344,20662.7,-5830.75,0,21469.7,81094.4
step02_gravity_refstate-crust.xmf,325,1.742e-07,5.90836e-07,0,-1.54194e-06,-2.12802e+08,-2.12773e+08,-2.12814e+08,-105777,0.0181674,0.212719,0,0.213493,17136.9,-7748.89,0,18807.4,105777
step02_gravity_refstate-crust.xmf,326,2.32459e-07,6.95207e-07,0,-1.80511e-06,-2.6464e+08,-2.64608e+08,-2.64656e+08,-123830,0.0172953,0.215105,0,0.215799,16157.5,-9636.49,0,18813,123830
step02_gravity_refstate-crust.xmf,327,4.78284e-07,6.11643e-07,0,-2.00799e-06,-3.179e+08,-3.17891e+08,-3.17933e+08,-137748,0.016492,0.223217,0,0.223825,13666.5,-11576.4,0,17910.5,137748
step02_gravity_refstate-crust.xmf,328,-1.308e-06,7.2907e-07,0,-3.93982e-07,-6.96332e+07,-6.94935e+07,-6.95435e+07,-27027.1,0.0180206,0.178896,0,0.179801,29125.4,-2530.9,0,29235.2,27027.1
step02_gravity_refstate-crust.xmf,329,-1.79719e-06,6.87697e-07,0,-5.62512e-09,-170477,-13.1,-47189.1,-385.883,0.0195592,0.177075,0,0.178152,30882.2,0,0,30882.2,385.883
step02_gravity_refstate-crust.xmf,330,1.60774e-06,-4.77824e-07,0,3.21631e-06,-6.10143e+08,-6.10286e+08,-6.10253e+08,220639,-0.0206424,0.244269,-0,0.245139,-7980.3,-22218.6,-0,23608.3,220639
step02_gravity_refstate-crust.xmf,331,2.26778e-06,-1.30751e-06,0,3.09995e-06,-6.46228e+08,-6.46473e+08,-6.46384e+08,212657,-0.0191542,0.253963,-0,0.254685,-6246.94,-23533.7,-0,24348.7,212657
step02_gravity_refstate-crust.xmf,332,3.03265e-06,-2.33983e-06,0,2.76379e-06,-6.7829e+08,-6.78658e+08,-6.78498e+08,189596,-0.0162015,0.263898,-0,0.264395,-4520.7,-24702.5,-0,25112.7,189596
step02_gravity_refstate-crust.xmf,333,-4.02478e-07,1.47818e-06,0,1.9601e-06,-3.42466e+08,-3.42337e+08,-3.42439e+08,134463,-0.0167531,0.191946,-0,0.192676,-21376.8,-12468.5,-0,24747.3,134463
step02_gravity_refstate-crust.xmf,334,-5.7557e-07,1.59988e-06,0,1.77564e-06,-3.36659e+08,-3.3651e+08,-3.3662e+08,121809,-0.0156611,0.184194,-0,0.184859,-23566.3,-12256.6,-0,26563,121809
step02_gravity_refstate-crust.xmf,335,-7.2241e-07,1.68191e-06,0,1.55816e-06,-3.29522e+08,-3.29357e+08,-3.29473e+08,106890,-0.0142154,0.177117,-0,0.177686,-25791.6,-11996.3,-0,28445,106890
step02_gravity_refstate-crust.xmf,336,-8.4937e-07,1.74341e-06,0,1.31692e-06,-3.23437e+08,-3.23259e+08,-3.23378e+08,90341,-0.0124084,0.170611,-0,0.171061,-28103.5,-11774.3,-0,30470.4,90341
step02_gravity_refstate-crust.xmf,337,-9.55237e-07,1.78822e-06,0,1.05739e-06,-3.18523e+08,-3.18334e+08,-3.18457e+08,72537.1,-0.0102542,0.164899,-0,0.165218,-30501.2,-11595,-0,32630.8,72537.1
step02_gravity_refstate-crust.xmf,338,-1.91274e-07,1.47842e-06,0,2.35099e-06,-4.00815e+08,-4.00701e+08,-4.00802e+08,161278,-0.0182418,0.200977,-0,0.201803,-18361.5,-14593.6,-0,23454.6,161278
step02_gravity_refstate-crust.xmf,339,3.69743e-07,9.48362e-07,0,2.67586e-06,-4.53588e+08,-4.53548e+08,-4.53613e+08,183564,-0.0191551,0.219772,-0,0.220606,-13565.4,-16516.3,-0,21373,183564
step02_gravity_refstate-crust.xmf,340,4.24804e-07,9.49222e-07,0,2.8966e-06,-4.97144e+08,-4.97108e+08,-4.97174e+08,198707,-0.0203519,0.221087,-0,0.222022,-12954.2,-18102.2,-0,22259.9,198707
step02_gravity_refstate-crust.xmf,341,4.85888e-07,9.2613e-07,0,3.11966e-06,-5.37501e+08,-5.37471e+08,-5.37534e+08,214009,-0.0216477,0.222493,-0,0.223544,-12386.6,-19571.7,-0,23162,214009
step02_gravity_refstate-crust.xmf,342,9.89827e-07,3.32181e-07,0,3.23963e-06,-5.76475e+08,-5.7652e+08,-5.76543e+08,222239,-0.0217352,0.233243,-0,0.234253,-10120,-20991.7,-0,23303.7,222239
step02_gravity_refstate-crust.xmf,343,-1.14833e-06,1.55228e-06,0,5.19795e-07,-2.5807e+08,-2.57885e+08,-2.57992e+08,35658,-0.00608929,0.160923,-0,0.161038,-34872.2,-9393.06,-0,36115.1,35658
step02_gravity_refstate-crust.xmf,344,-1.27177e-06,1.38249e-06,0,2.27632e-07,-2.1534e+08,-2.15158e+08,-2.15253e+08,15615.5,-0.00321378,0.160806,-0,0.160838,-37497.2,-7836.67,-0,38307.3,15615.5
step02_gravity_refstate-crust.xmf,345,-1.39944e-06,1.21259e-06,0,-1.83716e-09,-1.7099e+08,-1.7081e+08,-1.70894e+08,-126.029,-6.42803e-19,0.162163,-0,0.162163,-40000,-6221.26,-0,40480.9,126.029
step02_gravity_refstate-crust.xmf,346,2.03055e-06,-9.92833e-07,0,-1.45719e-06,-4.98719e+08,-4.98926e+08,-4.98858e+08,-99963.2,0.00946318,0.254356,0,0.254532,4262.24,-18163,0,18656.4,99963.2
step02_gravity_refstate-crust.xmf,347,2.33048e-06,-1.36046e-06,0,-1.30375e-06,-5.34089e+08,-5.34342e+08,-5.34248e+08,-89437.4,0.00828822,0.257807,0,0.25794,3355.33,-19451.4,0,19738.6,89437.4
step02_gravity_refstate-crust.xmf,348,2.65507e-06,-1.76952e-06,0,-1.11789e-06,-5.68735e+08,-5.69039e+08,-5.68917e+08,-76687,0.00694941,0.261304,0,0.261397,2529.6,-20713.4,0,20867.3,76687
step02_gravity_refstate-crust.xmf,349,3.02859e-06,-2.26143e-06,0,-8.78135e-07,-6.05302e+08,-6.05665e+08,-6.0551e+08,-60240.1,0.00533566,0.265176,0,0.26523,1733.37,-22045.4,0,22113.4,60240.1
step02_gravity_refstate-crust.xmf,350,4.20528e-06,-3.83699e-06,0,1.15478e-06,-7.11201e+08,-7.11753e+08,-7.1149e+08,79217.7,-0.00630979,0.27703,-0,0.277102,-1476.42,-25903.1,-0,25945.1,79217.7
step02_gravity_refstate-crust.xmf,351,1.04881e-06,1.12939e-07,0,-2.0075e-06,-3.91014e+08,-3.91078e+08,-3.91086e+08,-137714,0.0143743,0.238105,0,0.238539,9281.17,-14239.7,0,16997.3,137714
step02_gravity_refstate-crust.xmf,352,1.2595e-06,-1.00871e-07,0,-2.03572e-06,-4.31002e+08,-4.31096e+08,-4.31089e+08,-139650,0.0140266,0.241937,0,0.242343,8137.42,-15696,0,17680,139650
step02_gravity_refstate-crust.xmf,353,-4.5659e-07,7.54088e-07,0,-1.10278e-06,-1.60738e+08,-1.60655e+08,-1.60707e+08,-75650.9,0.0189148,0.193711,0,0.194632,22943.4,-5851.15,0,23677.8,75650.9
step02_gravity_refstate-crust.xmf,354,-8.91598e-07,8.60144e-07,0,-8.03447e-07,-1.39337e+08,-1.39217e+08,-1.39276e+08,-55116.5,0.0169241,0.18195,0,0.182735,27079.7,-5070.42,0,27550.3,55116.5
step02_gravity_refstate-crust.xmf,355,6.40539e-07,5.09977e-07,0,-2.11753e-06,-3.56019e+08,-3.56028e+08,-3.56063e+08,-145263,0.0161573,0.22791,0,0.228482,12216.7,-12964.6,0,17813.7,145263
step02_gravity_refstate-crust.xmf,356,2.84477e-07,7.61149e-07,0,-1.99673e-06,-3.06819e+08,-3.06786e+08,-3.06838e+08,-136976,0.0170524,0.21718,0,0.217849,15316.5,-11172.4,0,18958.3,136976
step02_gravity_refstate-crust.xmf,357,-8.78666e-08,7.52675e-07,0,-1.50917e-06,-2.13532e+08,-2.13474e+08,-2.13526e+08,-103529,0.0182507,0.204441,0,0.205254,19412.1,-7774.66,0,20911.1,103529
step02_gravity_refstate-crust.xmf,358,-1.56611e-06,8.31886e-07,0,-2.89283e-07,-7.12041e+07,-7.10396e+07,-7.10967e+07,-19844.8,0.0132723,0.172478,0,0.172988,32373.5,-2587.21,0,32476.7,19844.8
step02_gravity_refstate-crust.xmf,359,-2.06336e-06,7.89447e-07,0,2.97667e-09,-195729,-26.1449,-54182.2,204.2,0.0137672,0.172432,0,0.17298,33826.9,0,0,33826.9,204.2
step02_gravity_refstate-crust.xmf,360,3.90066e-06,-3.48793e-06,0,2.02796e-06,-7.09578e+08,-7.10085e+08,-7.09846e+08,139118,-0.0112904,0.273832,-0,0.274064,-2716.57,-25843.3,-0,25985.7,139118
step02_gravity_refstate-crust.xmf,361,1.81893e-06,-7.25441e-07,0,3.42392e-06,-6.43146e+08,-6.43321e+08,-6.43271e+08,234881,-0.0216155,0.247281,-0,0.248224,-7536.24,-23420.6,-0,24603.3,234881
step02_gravity_refstate-crust.xmf,362,1.17151e-06,8.5529e-08,0,3.42209e-06,-6.06685e+08,-6.0676e+08,-6.06766e+08,234755,-0.0224736,0.236681,-0,0.237745,-9425.27,-22091.9,-0,24018.5,234755
step02_gravity_refstate-crust.xmf,363,3.4653e-06,-2.91949e-06,0,2.77604e-06,-7.07999e+08,-7.08437e+08,-7.08237e+08,190437,-0.0158084,0.269087,-0,0.269551,-3960.41,-25784.9,-0,26087.3,190437
step02_gravity_refstate-crust.xmf,364,2.56061e-06,-1.73728e-06,0,3.28353e-06,-6.76547e+08,-6.76842e+08,-6.76723e+08,225250,-0.0196477,0.257897,-0,0.258644,-5785.29,-24638,-0,25308.2,225250
step02_gravity_refstate-crust.xmf,365,-1.04874e-06,1.8408e-06,0,7.88821e-07,-3.18972e+08,-3.18774e+08,-3.189e+08,54113.1,-0.00772524,0.15988,-0,0.160067,-33016.8,-11611.1,-0,34999,54113.1
step02_gravity_refstate-crust.xmf,366,-3.98839e-07,1.67935e-06,0,2.20681e-06,-3.96183e+08,-3.9604e+08,-3.96155e+08,151387,-0.0175427,0.192456,-0,0.193254,-20465.9,-14424.4,-0,25038.3,151387
step02_gravity_refstate-crust.xmf,367,8.36163e-08,1.29999e-06,0,2.65995e-06,-4.51076e+08,-4.50993e+08,-4.51082e+08,182472,-0.0195173,0.211008,-0,0.211909,-15513.2,-16424.2,-0,22592.4,182472
step02_gravity_refstate-crust.xmf,368,-1.79088e-07,1.60445e-06,0,2.58469e-06,-4.49457e+08,-4.49334e+08,-4.49444e+08,177310,-0.0193662,0.202006,-0,0.202932,-17505.2,-16364.7,-0,23963.2,177310
step02_gravity_refstate-crust.xmf,369,6.03067e-07,8.30634e-07,0,3.31263e-06,-5.71704e+08,-5.71689e+08,-5.71746e+08,227247,-0.0227478,0.225062,-0,0.226209,-11685.1,-20817.2,-0,23872.5,227247
step02_gravity_refstate-crust.xmf,370,1.51706e-06,-3.8257e-07,0,-2.00569e-06,-4.68228e+08,-4.68359e+08,-4.68333e+08,-137590,0.0134385,0.246092,0,0.246459,6964.88,-17051.9,0,18419.4,137590
step02_gravity_refstate-crust.xmf,371,1.80802e-06,-7.24907e-07,0,-1.92973e-06,-5.03561e+08,-5.03735e+08,-5.03685e+08,-132379,0.0126349,0.250281,0,0.250599,5848.58,-18338.8,0,19248.9,132379
step02_gravity_refstate-crust.xmf,372,3.31544e-06,-2.64027e-06,0,-9.7128e-07,-6.3796e+08,-6.38368e+08,-6.38187e+08,-66629.8,0.00575711,0.268124,0,0.268186,1698.09,-23234.9,0,23296.9,66629.8
step02_gravity_refstate-crust.xmf,373,3.62131e-06,-3.03398e-06,0,-6.87715e-07,-6.5965e+08,-6.60106e+08,-6.59898e+08,-47177.2,0.00399825,0.27112,0,0.27115,1097.38,-24025.2,0,24050.2,47177.2
step02_gravity_refstate-crust.xmf,374,3.97347e-06,-3.50829e-06,0,-2.95989e-07,-6.85435e+08,-6.85949e+08,-6.85708e+08,-20304.9,0.0016969,0.274693,0,0.274698,427.822,-24964.6,0,24968.3,20304.9
step02_gravity_refstate-crust.xmf,375,4.35176e-06,-4.03167e-06,0,2.05574e-07,-7.12977e+08,-7.13552e+08,-7.13275e+08,14102.3,-0.00108965,0.278533,-0,0.278535,-251.131,-25968,-0,25969.2,14102.3
step02_gravity_refstate-crust.xmf,376,-6.68702e-07,8.57972e-07,0,-1.00986e-06,-1.62276e+08,-1.62171e+08,-1.6223e+08,-69276.2,0.0176712,0.187134,0,0.187967,25016.6,-5906.43,0,25704.4,69276.2
step02_gravity_refstate-crust.xmf,377,7.93085e-07,3.9758e-07,0,-2.21732e-06,-3.95917e+08,-3.95944e+08,-3.95971e+08,-152108,0.0161028,0.231719,0,0.232278,11035.5,-14417.6,0,18156.2,152108
step02_gravity_refstate-crust.xmf,378,-3.22982e-07,9.04963e-07,0,-1.42731e-06,-2.15004e+08,-2.14919e+08,-2.14981e+08,-97913.3,0.0177448,0.196357,0,0.197157,21673,-7827.51,0,23043.2,97913.3
step02_gravity_refstate-crust.xmf,379,-5.99726e-09,8.76751e-07,0,-1.79491e-06,-2.6654e+08,-2.66479e+08,-2.66539e+08,-123131,0.0175192,0.207177,0,0.207916,18242.4,-9704.98,0,20663.3,123131
step02_gravity_refstate-crust.xmf,380,6.66592e-08,9.81834e-07,0,-2.065e-06,-3.20988e+08,-3.20925e+08,-3.20993e+08,-141659,0.0174263,0.209999,0,0.21072,17033.2,-11687.7,0,20657.5,141659
step02_gravity_refstate-crust.xmf,381,2.44628e-07,9.05611e-07,0,-2.20599e-06,-3.53215e+08,-3.5317e+08,-3.53232e+08,-151331,0.0174556,0.215956,0,0.216661,15270,-12861.5,0,19964.8,151331
step02_gravity_refstate-crust.xmf,382,4.32353e-07,7.35575e-07,0,-2.23112e-06,-3.64073e+08,-3.64053e+08,-3.64103e+08,-153055,0.0171063,0.221782,0,0.22244,13743.4,-13257.3,0,19095.5,153055
step02_gravity_refstate-crust.xmf,383,-1.86639e-06,8.68596e-07,0,-1.25622e-07,-4.72271e+07,-4.70395e+07,-4.70991e+07,-8617.64,0.00911213,0.169315,0,0.16956,35288,-1713.15,0,35329.5,8617.64
step02_gravity_refstate-crust.xmf,384,-2.25069e-06,8.53163e-07,0,-8.70404e-09,-213837,-912.664,-59439.6,-597.097,0.00715345,0.169445,0,0.169596,36863.6,0,0,36863.6,597.097
step02_gravity_refstate-crust.xmf,385,-1.15094e-06,9.82264e-07,0,-6.54314e-07,-1.44589e+08,-1.44442e+08,-1.4451e+08,-44885.9,0.0135882,0.174329,0,0.174858,30133.6,-5260.75,0,30589.4,44885.9
step02_gravity_refstate-crust.xmf,386,4.41315e-06,-4.20319e-06,0,1.86689e-06,-7.37687e+08,-7.38278e+08,-7.3799e+08,128069,-0.0100041,0.279338,-0,0.279517,-2170.46,-26867.6,-0,26955.1,128069
step02_gravity_refstate-crust.xmf,387,4.707e-06,-4.53838e-06,0,8.4993e-07,-7.40005e+08,-7.40639e+08,-7.40328e+08,58305.2,-0.00445092,0.28223,-0,0.282265,-940.72,-26952.6,-0,26969,58305.2
step02_gravity_refstate-crust.xmf,388,1.33637e-06,-1.27149e-07,0,3.65523e-06,-6.3921e+08,-6.39311e+08,-6.39302e+08,250749,-0.0235538,0.239578,-0,0.240733,-8906.94,-23276.3,-0,24922.3,250749
step02_gravity_refstate-crust.xmf,389,2.06135e-06,-1.05833e-06,0,3.64885e-06,-6.74486e+08,-6.747e+08,-6.74627e+08,250311,-0.0224698,0.250925,-0,0.251929,-7059.87,-24562,-0,25556.5,250311
step02_gravity_refstate-crust.xmf,390,2.94376e-06,-2.27251e-06,0,3.41775e-06,-7.06232e+08,-7.0659e+08,-7.06434e+08,234458,-0.0197801,0.26289,-0,0.263633,-5228.12,-25719.5,-0,26245.5,234458
step02_gravity_refstate-crust.xmf,391,-5.74675e-07,1.83744e-06,0,2.01771e-06,-3.91466e+08,-3.913e+08,-3.91426e+08,138415,-0.0164345,0.184242,-0,0.184974,-22620.8,-14252.2,-0,26736.2,138415
step02_gravity_refstate-crust.xmf,392,-7.18603e-07,1.95136e-06,0,1.79335e-06,-3.86123e+08,-3.85939e+08,-3.86073e+08,123024,-0.0149694,0.176612,-0,0.177245,-24817.8,-14057.3,-0,28522.4,123024
step02_gravity_refstate-crust.xmf,393,-8.34494e-07,2.03086e-06,0,1.5468e-06,-3.81067e+08,-3.80871e+08,-3.8101e+08,106110,-0.0132176,0.169736,-0,0.17025,-27041.2,-13872.9,-0,30392.1,106110
step02_gravity_refstate-crust.xmf,394,-9.25929e-07,2.07816e-06,0,1.28271e-06,-3.75509e+08,-3.75303e+08,-3.75446e+08,87994,-0.0112135,0.163787,-0,0.16417,-29303.5,-13670.3,-0,32335.3,87994
step02_gravity_refstate-crust.xmf,395,-9.97957e-07,2.11358e-06,0,1.00765e-06,-3.7189e+08,-3.71677e+08,-3.71822e+08,69124.8,-0.00897826,0.158692,-0,0.158945,-31620.6,-13538.3,-0,34396.9,69124.8
step02_gravity_refstate-crust.xmf,396,-4.07942e-07,1.86587e-06,0,2.44326e-06,-4.47535e+08,-4.47379e+08,-4.47507e+08,167608,-0.0187001,0.192875,-0,0.19378,-19581.4,-16294.2,-0,25474.2,167608
step02_gravity_refstate-crust.xmf,397,1.17348e-07,1.32627e-06,0,2.89141e-06,-4.94378e+08,-4.94295e+08,-4.94386e+08,198351,-0.0207429,0.212522,-0,0.213532,-14751.1,-18000.8,-0,23272.9,198351
step02_gravity_refstate-crust.xmf,398,1.65928e-07,1.33123e-06,0,3.11315e-06,-5.34157e+08,-5.34077e+08,-5.34168e+08,213562,-0.0220499,0.214185,-0,0.215317,-14031.1,-19449.2,-0,23982.2,213562
step02_gravity_refstate-crust.xmf,399,2.38283e-07,1.28556e-06,0,3.33446e-06,-5.70283e+08,-5.70211e+08,-5.703e+08,228744,-0.0233456,0.216521,-0,0.217775,-13265.4,-20764.7,-0,24640.3,228744
step02_gravity_refstate-crust.xmf,400,7.34108e-07,6.84791e-07,0,3.52308e-06,-6.03979e+08,-6.03983e+08,-6.0403e+08,241683,-0.0238295,0.227954,-0,0.229196,-11000.5,-21992.5,-0,24590.3,241683
step02_gravity_refstate-crust.xmf,401,3.42832e-07,1.20278e-06,0,3.53183e-06,-6.00985e+08,-6.00926e+08,-6.01008e+08,242283,-0.0244974,0.219237,-0,0.220601,-12534.8,-21882.7,-0,25218.5,242283
step02_gravity_refstate-crust.xmf,402,-1.08989e-06,1.97158e-06,0,5.3259e-07,-3.37529e+08,-3.37319e+08,-3.37454e+08,36535.7,-0.00508172,0.155167,-0,0.15525,-35428.1,-12286.7,-0,37498.2,36535.7
step02_gravity_refstate-crust.xmf,403,-1.14987e-06,1.75e-06,0,2.58437e-07,-2.93151e+08,-2.92952e+08,-2.93072e+08,17728.8,-0.00273851,0.156284,-0,0.156308,-37635.6,-10670.5,-0,39119,17728.8
step02_gravity_refstate-crust.xmf,404,-1.21374e-06,1.55568e-06,0,-1.40549e-09,-2.52331e+08,-2.52141e+08,-2.52248e+08,-96.4168,-5.40407e-19,0.158062,-0,0.158062,-40000,-9183.87,-0,41040.8,96.4168
step02_gravity_refstate-crust.xmf,405,2.11676e-06,-1.1021e-06,0,-1.84413e-06,-5.38319e+08,-5.3854e+08,-5.38464e+08,-126507,0.0118051,0.254253,0,0.254527,4888.02,-19604.9,0,20205.1,126507
step02_gravity_refstate-crust.xmf,406,2.45093e-06,-1.52101e-06,0,-1.7231e-06,-5.71479e+08,-5.71752e+08,-5.71648e+08,-118205,0.0107873,0.258244,0,0.258469,4007.39,-20812.8,0,21195.1,118205
step02_gravity_refstate-crust.xmf,407,2.79862e-06,-1.97005e-06,0,-1.59048e-06,-6.03509e+08,-6.03837e+08,-6.03701e+08,-109107,0.00973448,0.262162,0,0.262343,3256.27,-21979.6,0,22219.5,109107
step02_gravity_refstate-crust.xmf,408,3.13023e-06,-2.40604e-06,0,-1.51386e-06,-6.337e+08,-6.3408e+08,-6.33915e+08,-103851,0.00904548,0.265753,0,0.265907,2745.55,-23079.4,0,23242.2,103851
step02_gravity_refstate-crust.xmf,409,9.84861e-07,2.13535e-07,0,-2.32174e-06,-4.36966e+08,-4.37019e+08,-4.37034e+08,-159272,0.016165,0.235593,0,0.236147,9897.11,-15912.5,0,18739.3,159272
step02_gravity_refstate-crust.xmf,410,1.22065e-06,-3.83674e-08,0,-2.4136e-06,-4.80574e+08,-4.8066e+08,-4.80658e+08,-165573,0.0162988,0.239776,0,0.24033,8767.95,-17500.7,0,19574.2,165573
step02_gravity_refstate-crust.xmf,411,-5.3264e-07,1.02191e-06,0,-1.31314e-06,-2.14816e+08,-2.14709e+08,-2.1478e+08,-90081.7,0.0167998,0.189004,0,0.18975,23850,-7820.02,0,25099.3,90081.7
step02_gravity_refstate-crust.xmf,412,-7.21218e-07,1.10696e-06,0,-1.16061e-06,-2.11353e+08,-2.11228e+08,-2.11304e+08,-79618,0.0154813,0.182301,0,0.182957,26044.1,-7693.32,0,27156.6,79618
step02_gravity_refstate-crust.xmf,413,5.42078e-07,6.73412e-07,0,-2.36766e-06,-4.00042e+08,-4.00033e+08,-4.0008e+08,-162422,0.0173463,0.224852,0,0.22552,12752,-14567.2,0,19360.2,162422
step02_gravity_refstate-crust.xmf,414,-2.38531e-07,1.05075e-06,0,-1.72964e-06,-2.68348e+08,-2.6826e+08,-2.68332e+08,-118653,0.0172369,0.19891,0,0.199656,20430.7,-9770.14,0,22646.6,118653
step02_gravity_refstate-crust.xmf,415,4.49564e-08,1.12778e-06,0,-2.26869e-06,-3.66682e+08,-3.66608e+08,-3.66685e+08,-155632,0.017848,0.209433,0,0.210192,16737.2,-13351.3,0,21410.1,155632
step02_gravity_refstate-crust.xmf,416,-1.83255e-06,9.24011e-07,0,-8.66122e-08,-6.64657e+07,-6.62766e+07,-6.634e+07,-5941.6,0.00444635,0.16687,0,0.166929,37592.4,-2413.77,0,37669.8,5941.6
step02_gravity_refstate-crust.xmf,417,-1.53805e-06,9.88878e-07,0,-2.65232e-07,-1.11041e+08,-1.10868e+08,-1.10936e+08,-18194.9,0.00771446,0.167274,0,0.167452,35174.6,-4037.87,0,35405.6,18194.9
step02_gravity_refstate-crust.xmf,418,-8.97097e-07,1.19337e-06,0,-9.84294e-07,-2.10457e+08,-2.10314e+08,-2.10396e+08,-67522.6,0.0135476,0.175766,0,0.176287,28422.3,-7660.13,0,29436.5,67522.6
step02_gravity_refstate-crust.xmf,419,-1.27946e-06,1.09565e-06,0,-5.07695e-07,-1.57674e+08,-1.57511e+08,-1.57586e+08,-34827.9,0.00988525,0.168588,0,0.168878,32894.3,-5736.8,0,33390.8,34827.9
step02_gravity_refstate-crust.xmf,420,-2.26718e-06,8.56041e-07,0,8.57685e-09,-215547,-1294.22,-60018.6,588.372,3.3323e-19,0.168389,0,0.168389,40000,0,0,40000,588.372
step02_gravity_refstate-crust.xmf,421,4.97646e-06,-5.00866e-06,0,1.67682e-06,-7.65725e+08,-7.6641e+08,-7.66066e+08,115030,-0.0086167,0.285301,-0,0.285431,-1682.99,-27889.4,-0,27940.1,115030
step02_gravity_refstate-crust.xmf,422,3.97322e-06,-3.6463e-06,0,2.76207e-06,-7.36123e+08,-7.36646e+08,-7.36396e+08,189478,-0.0150417,0.27484,-0,0.275251,-3387.04,-26809.7,-0,27022.8,189478
step02_gravity_refstate-crust.xmf,423,1.53422e-06,-3.63553e-07,0,3.90242e-06,-6.7165e+08,-6.7178e+08,-6.71755e+08,267706,-0.0246912,0.242894,-0,0.244146,-8397.16,-24457.7,-0,25859.1,267706
step02_gravity_refstate-crust.xmf,424,8.62149e-07,5.02477e-07,0,3.76979e-06,-6.3585e+08,-6.35875e+08,-6.35909e+08,258608,-0.024977,0.230946,-0,0.232293,-10370.4,-23153,-0,25369.4,258608
step02_gravity_refstate-crust.xmf,425,3.3996e-06,-2.88594e-06,0,3.50536e-06,-7.34979e+08,-7.3541e+08,-7.35212e+08,240468,-0.0196391,0.268627,-0,0.269344,-4651.16,-26766.9,-0,27168,240468
step02_gravity_refstate-crust.xmf,426,2.36065e-06,-1.51551e-06,0,3.89062e-06,-7.04678e+08,-7.04944e+08,-7.0484e+08,266896,-0.0231166,0.255472,-0,0.256515,-6521.81,-25661.7,-0,26477.5,266896
step02_gravity_refstate-crust.xmf,427,-1.04995e-06,2.15621e-06,0,7.49149e-07,-3.73162e+08,-3.72943e+08,-3.7309e+08,51391.6,-0.00674662,0.154678,-0,0.154825,-33792.8,-13584.4,-0,36421,51391.6
step02_gravity_refstate-crust.xmf,428,-5.95362e-07,2.07218e-06,0,2.25069e-06,-4.44949e+08,-4.44766e+08,-4.44908e+08,154397,-0.0175858,0.184121,-0,0.184959,-21689.3,-16199.6,-0,27071.3,154397
step02_gravity_refstate-crust.xmf,429,-1.62096e-07,1.69589e-06,0,2.81237e-06,-4.94135e+08,-4.94007e+08,-4.94124e+08,192928,-0.0206843,0.203281,-0,0.204331,-16658.2,-17991.4,-0,24519.1,192928
step02_gravity_refstate-crust.xmf,430,-4.17823e-07,2.02139e-06,0,2.67634e-06,-4.95144e+08,-4.94977e+08,-4.95116e+08,183597,-0.0201123,0.193649,-0,0.194691,-18665.4,-18027.7,-0,25949.8,183597
step02_gravity_refstate-crust.xmf,431,1.37351e-08,1.64291e-06,0,3.47662e-06,-5.99531e+08,-5.99419e+08,-5.99532e+08,238496,-0.0246827,0.210962,-0,0.212401,-13974.6,-21829.1,-0,25919.1,238496
step02_gravity_refstate-crust.xmf,432,1.56293e-06,-4.26726e-07,0,-2.31921e-06,-5.10919e+08,-5.11055e+08,-5.11026e+08,-159098,0.015319,0.245559,0,0.246037,7300.56,-18606.2,0,19987.2,159098
step02_gravity_refstate-crust.xmf,433,1.84283e-06,-7.66854e-07,0,-2.31234e-06,-5.43423e+08,-5.43602e+08,-5.4355e+08,-158627,0.0149527,0.249554,0,0.250001,6392.07,-19790.1,0,20796.8,158627
step02_gravity_refstate-crust.xmf,434,3.47454e-06,-2.86993e-06,0,-1.39355e-06,-6.61935e+08,-6.62371e+08,-6.62174e+08,-95597.5,0.00813562,0.269547,0,0.26967,2249.28,-24108,0,24212.7,95597.5
step02_gravity_refstate-crust.xmf,435,3.88106e-06,-3.40417e-06,0,-1.1456e-06,-6.87808e+08,-6.88308e+08,-6.88074e+08,-78588.4,0.00648926,0.273668,0,0.273745,1640.35,-25050.8,0,25104.4,78588.4
step02_gravity_refstate-crust.xmf,436,4.32453e-06,-4.00847e-06,0,-7.64669e-07,-7.1463e+08,-7.15201e+08,-7.14926e+08,-52456.3,0.00420664,0.278254,0,0.278286,967.904,-26028.1,0,26046.1,52456.3
step02_gravity_refstate-crust.xmf,437,4.78739e-06,-4.65535e-06,0,-2.55356e-07,-7.41277e+08,-7.41925e+08,-7.41606e+08,-17517.4,0.00136189,0.282985,0,0.282989,285.517,-26999.1,0,27000.6,17517.4
step02_gravity_refstate-crust.xmf,438,5.30653e-06,-5.43438e-06,0,4.44481e-07,-7.71089e+08,-7.71826e+08,-7.71453e+08,30491.4,-0.00217756,0.288361,-0,0.288369,-411.26,-28085.3,-0,28088.3,30491.4
step02_gravity_refstate-crust.xmf,439,6.9142e-07,5.65978e-07,0,-2.50321e-06,-4.40668e+08,-4.40677e+08,-4.40716e+08,-171720,0.0177611,0.228389,0,0.229079,11673,-16046.6,0,19843.2,171720
step02_gravity_refstate-crust.xmf,440,3.01992e-07,9.35813e-07,0,-2.43081e-06,-4.0142e+08,-4.01376e+08,-4.01441e+08,-166753,0.0180764,0.217892,0,0.218641,14410.1,-14616.8,0,20525.6,166753
step02_gravity_refstate-crust.xmf,441,-4.40023e-07,1.20378e-06,0,-1.6091e-06,-2.69326e+08,-2.69213e+08,-2.69295e+08,-110384,0.0164719,0.190923,0,0.191632,22631,-9805.15,0,24663.8,110384
step02_gravity_refstate-crust.xmf,442,-1.78608e-07,1.19147e-06,0,-1.99698e-06,-3.20253e+08,-3.20159e+08,-3.20241e+08,-136993,0.017298,0.20112,0,0.201863,19288.9,-11660.2,0,22539.3,136993
step02_gravity_refstate-crust.xmf,443,8.08384e-08,1.1941e-06,0,-2.43886e-06,-4.0448e+08,-4.04403e+08,-4.04485e+08,-167306,0.0184517,0.210734,0,0.211541,16050.8,-14727.7,0,21783.7,167306
step02_gravity_refstate-crust.xmf,444,-1.44912e-07,1.32103e-06,0,-2.23434e-06,-3.69092e+08,-3.68992e+08,-3.69082e+08,-153276,0.0177996,0.202675,0,0.203456,18342.5,-13438.6,0,22738.6,153276
step02_gravity_refstate-crust.xmf,445,-1.05672e-06,1.28705e-06,0,-8.06016e-07,-2.15782e+08,-2.15621e+08,-2.15709e+08,-55292.7,0.0110242,0.169791,0,0.170148,30884.6,-7853.46,0,31867.4,55292.7
step02_gravity_refstate-crust.xmf,446,-1.72913e-06,9.63892e-07,0,3.97151e-09,-8.70229e+07,-8.68382e+07,-8.69043e+07,272.446,2.62151e-19,0.165497,0,0.165497,40000,-3162.65,0,40124.8,272.446
step02_gravity_refstate-crust.xmf,447,5.54871e-06,-5.83926e-06,0,1.58087e-06,-7.92645e+08,-7.93426e+08,-7.93025e+08,108447,-0.0077455,0.291357,-0,0.29146,-1366.43,-28870.4,-0,28902.8,108447
step02_gravity_refstate-crust.xmf,448,4.52536e-06,-4.42781e-06,0,2.69341e-06,-7.63106e+08,-7.63721e+08,-7.63417e+08,184768,-0.0140586,0.280985,-0,0.281337,-2849.55,-27793.1,-0,27938.8,184768
step02_gravity_refstate-crust.xmf,449,1.00326e-06,3.1205e-07,0,4.04755e-06,-6.68548e+08,-6.68595e+08,-6.68617e+08,277662,-0.0262676,0.234052,-0,0.235522,-9792.4,-24343.7,-0,26239.4,277662
step02_gravity_refstate-crust.xmf,450,1.7691e-06,-7.00766e-07,0,4.18717e-06,-7.03352e+08,-7.03521e+08,-7.03473e+08,287240,-0.0257532,0.247037,-0,0.248376,-7843.7,-25612.3,-0,26786.4,287240
step02_gravity_refstate-crust.xmf,451,2.73333e-06,-2.05288e-06,0,4.09524e-06,-7.33007e+08,-7.33335e+08,-7.33195e+08,280934,-0.0234875,0.260826,-0,0.261881,-5947.02,-26693.7,-0,27348.2,280934
step02_gravity_refstate-crust.xmf,452,-7.41282e-07,2.219e-06,0,2.01486e-06,-4.40516e+08,-4.40313e+08,-4.40465e+08,138219,-0.0160705,0.175942,-0,0.176674,-23858.4,-16037.9,-0,28747.8,138219
step02_gravity_refstate-crust.xmf,453,-8.52398e-07,2.32137e-06,0,1.75781e-06,-4.36329e+08,-4.36111e+08,-4.3627e+08,120586,-0.0142897,0.168558,-0,0.169162,-26038.7,-15885.1,-0,30501.6,120586
step02_gravity_refstate-crust.xmf,454,-9.34674e-07,2.38306e-06,0,1.48477e-06,-4.31481e+08,-4.31253e+08,-4.31417e+08,101855,-0.0122867,0.162122,-0,0.162587,-28245.7,-15708.4,-0,32319.8,101855
step02_gravity_refstate-crust.xmf,455,-1.0388e-06,2.42688e-06,0,9.04783e-07,-4.21386e+08,-4.21148e+08,-4.21315e+08,62068.1,-0.00772315,0.152281,-0,0.152477,-32821.7,-15340.5,-0,36229.7,62068.1
step02_gravity_refstate-crust.xmf,456,-9.93932e-07,2.41198e-06,0,1.20607e-06,-4.26024e+08,-4.2579e+08,-4.25956e+08,82736.6,-0.0101428,0.156824,-0,0.157151,-30449.8,-15509.5,-0,34172.1,82736.6
step02_gravity_refstate-crust.xmf,457,-6.33725e-07,2.30435e-06,0,2.47637e-06,-4.97093e+08,-4.96891e+08,-4.97049e+08,169879,-0.0190135,0.183757,-0,0.184738,-20800.2,-18098.2,-0,27571.5,169879
step02_gravity_refstate-crust.xmf,458,-1.43725e-07,1.7405e-06,0,3.05689e-06,-5.36162e+08,-5.36033e+08,-5.36152e+08,209703,-0.0221431,0.205005,-0,0.206197,-15784.7,-19521.6,-0,25104.8,209703
step02_gravity_refstate-crust.xmf,459,-1.22988e-07,1.78918e-06,0,3.31179e-06,-5.77815e+08,-5.77684e+08,-5.77807e+08,227189,-0.0237532,0.206623,-0,0.207984,-14979.9,-21038.2,-0,25826.4,227189
step02_gravity_refstate-crust.xmf,460,4.38655e-07,1.09972e-06,0,3.76597e-06,-6.32178e+08,-6.32132e+08,-6.32208e+08,258345,-0.0257491,0.221911,-0,0.223399,-11867.6,-23018.5,-0,25897.8,258345
step02_gravity_refstate-crust.xmf,461,6.6029e-08,1.60915e-06,0,3.6902e-06,-6.28319e+08,-6.28213e+08,-6.28324e+08,253147,-0.0259228,0.212934,-0,0.214506,-13357.9,-22877.3,-0,26491.6,253147
step02_gravity_refstate-crust.xmf,462,-1.07572e-06,2.39806e-06,0,5.76349e-07,-4.11958e+08,-4.1172e+08,-4.11885e+08,39537.6,-0.00498508,0.149265,-0,0.149348,-35414.1,-14997.1,-0,38458.7,39537.6
step02_gravity_refstate-crust.xmf,463,-1.0994e-06,2.17365e-06,0,2.71785e-07,-3.71102e+08,-3.70877e+08,-3.71027e+08,18644.5,-0.00246306,0.150639,-0,0.150659,-37767.6,-13509.3,-0,40111,18644.5
step02_gravity_refstate-crust.xmf,464,-1.125e-06,1.95718e-06,0,-9.41334e-10,-3.31261e+08,-3.3105e+08,-3.31184e+08,-64.5755,-4.81506e-19,0.153013,-0,0.153013,-40000,-12058.4,-0,41778,64.5755
step02_gravity_refstate-crust.xmf,465,2.17191e-06,-1.17832e-06,0,-2.27264e-06,-5.76116e+08,-5.76346e+08,-5.76265e+08,-155903,0.0143654,0.253905,0,0.254311,5488.63,-20981,0,21687.1,155903
step02_gravity_refstate-crust.xmf,466,2.52007e-06,-1.624e-06,0,-2.19234e-06,-6.05755e+08,-6.0604e+08,-6.05928e+08,-150395,0.0135413,0.258238,0,0.258593,4660.85,-22060.8,0,22547.8,150395
step02_gravity_refstate-crust.xmf,467,2.87576e-06,-2.09003e-06,0,-2.12858e-06,-6.35173e+08,-6.35513e+08,-6.3537e+08,-146021,0.0128221,0.262424,0,0.262737,3987.82,-23132.5,0,23473.7,146021
step02_gravity_refstate-crust.xmf,468,3.2382e-06,-2.57284e-06,0,-2.07605e-06,-6.63221e+08,-6.63619e+08,-6.63443e+08,-142417,0.0121787,0.266534,0,0.266812,3439.75,-24154.3,0,24398,142417
step02_gravity_refstate-crust.xmf,469,5.81252e-06,-6.16868e-06,0,5.40131e-07,-7.97082e+08,-7.97904e+08,-7.9748e+08,37053,-0.00262656,0.293799,-0,0.293811,-451.428,-29032.5,-0,29036,37053
step02_gravity_refstate-crust.xmf,470,6.1717e-06,-6.69636e-06,0,1.31375e-06,-8.16446e+08,-8.17328e+08,-8.16869e+08,90123.1,-0.00610531,0.297615,-0,0.297678,-979.502,-29738.1,-0,29754.2,90123.1
step02_gravity_refstate-crust.xmf,471,1.30671e-06,-1.15972e-07,0,-2.61828e-06,-5.17836e+08,-5.17934e+08,-5.17926e+08,-179614,0.0174413,0.240522,0,0.241153,8603.6,-18857.4,0,20727.4,179614
step02_gravity_refstate-crust.xmf,472,8.60924e-07,3.95696e-07,0,-2.65527e-06,-4.80611e+08,-4.80643e+08,-4.8067e+08,-182151,0.0182926,0.231896,0,0.232616,10681.7,-17501.2,0,20503.5,182151
step02_gravity_refstate-crust.xmf,473,-6.17796e-07,1.32435e-06,0,-1.46417e-06,-2.70086e+08,-2.69952e+08,-2.70043e+08,-100442,0.0153118,0.183638,0,0.184275,24774.3,-9832.29,0,26654.1,100442
step02_gravity_refstate-crust.xmf,474,-7.8177e-07,1.43178e-06,0,-1.27685e-06,-2.71103e+08,-2.70951e+08,-2.71049e+08,-87591.7,0.0136389,0.17642,0,0.176946,27114.4,-9868.82,0,28854.6,87591.7
step02_gravity_refstate-crust.xmf,475,4.10296e-07,8.85394e-07,0,-2.61529e-06,-4.431e+08,-4.43067e+08,-4.43128e+08,-179409,0.0187758,0.22092,0,0.221716,13387.6,-16134.5,0,20965.4,179409
step02_gravity_refstate-crust.xmf,476,-3.89565e-07,1.37901e-06,0,-1.89289e-06,-3.23005e+08,-3.22883e+08,-3.22978e+08,-129852,0.0166921,0.192733,0,0.193455,21436.6,-11759.9,0,24450.4,129852
step02_gravity_refstate-crust.xmf,477,-1.18409e-07,1.41425e-06,0,-2.41419e-06,-4.07536e+08,-4.07431e+08,-4.07528e+08,-165613,0.0184813,0.204009,0,0.204845,17572,-14838.5,0,22999.1,165613
step02_gravity_refstate-crust.xmf,478,-1.50065e-06,1.09135e-06,0,-1.5705e-07,-1.37125e+08,-1.36947e+08,-1.37022e+08,-10773.7,0.00362765,0.164266,0,0.164306,37607.4,-4987.8,0,37936.7,10773.7
step02_gravity_refstate-crust.xmf,479,-1.2937e-06,1.24367e-06,0,-3.85023e-07,-1.86557e+08,-1.86383e+08,-1.86469e+08,-26412.6,0.00629988,0.164075,0,0.164196,35291.7,-6788.5,0,35938.7,26412.6
step02_gravity_refstate-crust.xmf,480,-9.16502e-07,1.52186e-06,0,-1.0681e-06,-2.73349e+08,-2.73182e+08,-2.73286e+08,-73271.9,0.0115834,0.170032,0,0.170426,29474.4,-9950.21,0,31108.7,73271.9
step02_gravity_refstate-crust.xmf,481,-1.13099e-06,1.41436e-06,0,-6.41847e-07,-2.3356e+08,-2.33385e+08,-2.33482e+08,-44030.7,0.00824498,0.164648,0,0.164854,33188.1,-8500.6,0,34259.5,44030.7
step02_gravity_refstate-crust.xmf,482,5.12598e-06,-5.29358e-06,0,2.60745e-06,-7.89388e+08,-7.90103e+08,-7.8974e+08,178871,-0.0130042,0.287499,-0,0.287793,-2374.22,-28751,-0,28848.9,178871
step02_gravity_refstate-crust.xmf,483,5.76349e-06,-6.22112e-06,0,2.51195e-06,-8.14138e+08,-8.14961e+08,-8.14534e+08,172320,-0.0119347,0.29421,-0,0.294452,-1969.64,-29653.2,-0,29718.6,172320
step02_gravity_refstate-crust.xmf,484,3.9343e-06,-3.67101e-06,0,3.57891e-06,-7.62087e+08,-7.62609e+08,-7.62357e+08,245513,-0.019089,0.275087,-0,0.275749,-4051.59,-27754.8,-0,28048.9,245513
step02_gravity_refstate-crust.xmf,485,1.19054e-06,7.74448e-08,0,4.34771e-06,-7.01569e+08,-7.01645e+08,-7.0165e+08,298253,-0.0276029,0.237898,-0,0.239494,-9182.74,-25546.2,-0,27146.5,298253
step02_gravity_refstate-crust.xmf,486,5.21891e-07,9.69164e-07,0,4.05962e-06,-6.65325e+08,-6.65294e+08,-6.65361e+08,278490,-0.0271781,0.224726,-0,0.226364,-11228.3,-24225.4,-0,26701.1,278490
step02_gravity_refstate-crust.xmf,487,3.19524e-06,-2.6786e-06,0,4.35919e-06,-7.63813e+08,-7.64216e+08,-7.64032e+08,299041,-0.0239926,0.267041,-0,0.268116,-5397.12,-27816.2,-0,28334.9,299041
step02_gravity_refstate-crust.xmf,488,2.06918e-06,-1.17478e-06,0,4.48038e-06,-7.32308e+08,-7.32531e+08,-7.3245e+08,307354,-0.0265035,0.252235,-0,0.253624,-7222.95,-26667,-0,27627.9,307354
step02_gravity_refstate-crust.xmf,489,-7.86643e-07,2.48811e-06,0,2.22671e-06,-4.93511e+08,-4.93287e+08,-4.93457e+08,152752,-0.0174311,0.175043,-0,0.175909,-22925.8,-17967.4,-0,29127.7,152752
step02_gravity_refstate-crust.xmf,490,-4.18026e-07,2.13261e-06,0,2.90806e-06,-5.37875e+08,-5.377e+08,-5.37846e+08,199493,-0.0216391,0.194928,-0,0.196125,-17735.9,-19583.5,-0,26421.1,199493
step02_gravity_refstate-crust.xmf,491,-6.52545e-07,2.45866e-06,0,2.70647e-06,-5.40227e+08,-5.40014e+08,-5.40182e+08,185664,-0.0206207,0.184965,-0,0.186111,-19725,-19668.7,-0,27855.5,185664
step02_gravity_refstate-crust.xmf,492,-2.45606e-07,2.02783e-06,0,3.54141e-06,-6.21776e+08,-6.2162e+08,-6.2176e+08,242941,-0.0254948,0.204192,-0,0.205778,-14871.9,-22638.5,-0,27086.5,242941
step02_gravity_refstate-crust.xmf,493,1.53655e-06,-3.88688e-07,0,-2.6884e-06,-5.49276e+08,-5.49408e+08,-5.49382e+08,-184425,0.0175984,0.244064,0,0.244697,7822.63,-20002.6,0,21477.8,184425
step02_gravity_refstate-crust.xmf,494,1.82831e-06,-7.49448e-07,0,-2.7324e-06,-5.8087e+08,-5.81047e+08,-5.80995e+08,-187443,0.0175108,0.248333,0,0.24895,6964.45,-21153.4,0,22270.4,187443
step02_gravity_refstate-crust.xmf,495,3.63332e-06,-3.1118e-06,0,-1.94384e-06,-6.89975e+08,-6.90438e+08,-6.90224e+08,-133347,0.0111081,0.271085,0,0.271312,2851.2,-25129.1,0,25290.3,133347
step02_gravity_refstate-crust.xmf,496,4.12846e-06,-3.77544e-06,0,-1.70853e-06,-7.16511e+08,-7.17053e+08,-7.16794e+08,-117205,0.00940215,0.276238,0,0.276398,2187.38,-26096.1,0,26187.7,117205
step02_gravity_refstate-crust.xmf,497,4.65877e-06,-4.5084e-06,0,-1.34375e-06,-7.42951e+08,-7.4358e+08,-7.43271e+08,-92181.5,0.00712495,0.281796,0,0.281886,1500.55,-27059.7,0,27101.3,92181.5
step02_gravity_refstate-crust.xmf,498,5.18983e-06,-5.25627e-06,0,-8.15447e-07,-7.66819e+08,-7.67535e+08,-7.67175e+08,-55939.7,0.00420999,0.287156,0,0.287187,809.684,-27929.7,0,27941.4,55939.7
step02_gravity_refstate-crust.xmf,499,5.74524e-06,-6.06801e-06,0,-5.73117e-07,-7.93905e+08,-7.94715e+08,-7.94299e+08,-39315.8,0.0028216,0.293057,0,0.293071,490.34,-28916.7,0,28920.9,39315.8
step02_gravity_refstate-crust.xmf,500,6.31437e-06,-6.89346e-06,0,-8.51259e-10,-8.17376e+08,-8.18282e+08,-8.17809e+08,-58.3963,4.78235e-05,0.298812,0,0.298812,7.42351,-29772.3,0,29772.3,58.3963
step02_gravity_refstate-crust.xmf,501,6.84675e-06,-7.68805e-06,0,8.42857e-07,-8.39221e+08,-8.40218e+08,-8.3969e+08,57820,-0.00369437,0.304296,-0,0.304318,-539.254,-30568.5,-0,30573.2,57820
step02_gravity_refstate-crust.xmf,502,6.4878e-06,-7.27967e-06,0,2.2778e-06,-8.37642e+08,-8.38587e+08,-8.38087e+08,156257,-0.0102827,0.301523,-0,0.301698,-1533.83,-30510.2,-0,30548.7,156257
step02_gravity_refstate-crust.xmf,503,1.02806e-06,2.23407e-07,0,-2.81352e-06,-5.19101e+08,-5.19156e+08,-5.19172e+08,-193007,0.0190041,0.234896,0,0.235663,9899.03,-18902.9,0,21338,193007
step02_gravity_refstate-crust.xmf,504,5.47904e-07,7.94496e-07,0,-2.78469e-06,-4.83496e+08,-4.83479e+08,-4.83534e+08,-191029,0.0195893,0.224206,0,0.22506,12383.2,-17605.6,0,21524.5,191029
step02_gravity_refstate-crust.xmf,505,1.38998e-07,1.20545e-06,0,-2.64892e-06,-4.45664e+08,-4.45591e+08,-4.45674e+08,-181716,0.01933,0.212943,0,0.213819,15143.1,-16227.3,0,22195.4,181716
step02_gravity_refstate-crust.xmf,506,-5.64902e-07,1.53857e-06,0,-1.73387e-06,-3.24649e+08,-3.24505e+08,-3.24611e+08,-118943,0.0156433,0.184712,0,0.185373,23614,-11819.3,0,26406.8,118943
step02_gravity_refstate-crust.xmf,507,-3.52684e-07,1.53679e-06,0,-2.14551e-06,-3.73149e+08,-3.7302e+08,-3.73125e+08,-147182,0.0173558,0.194462,0,0.195235,20303.8,-13585.8,0,24429.9,147182
step02_gravity_refstate-crust.xmf,508,-1.40144e-07,1.54701e-06,0,-2.61643e-06,-4.50825e+08,-4.50709e+08,-4.50815e+08,-179487,0.0194582,0.203604,0,0.204532,17135.8,-16414.5,0,23729.2,179487
step02_gravity_refstate-crust.xmf,509,-3.19152e-07,1.67847e-06,0,-2.40856e-06,-4.24743e+08,-4.24606e+08,-4.24721e+08,-165228,0.0184659,0.196533,0,0.197398,19077.8,-15464.5,0,24558.3,165228
step02_gravity_refstate-crust.xmf,510,-1.01955e-06,1.56048e-06,0,-8.70069e-07,-2.70496e+08,-2.70319e+08,-2.70426e+08,-59686.7,0.00967829,0.165768,0,0.166051,31463.6,-9845.95,0,32968.2,59686.7
step02_gravity_refstate-crust.xmf,511,-1.3975e-06,1.21249e-06,0,2.67241e-09,-1.70989e+08,-1.7081e+08,-1.70894e+08,183.327,2.12455e-19,0.162163,0,0.162163,40000,-6221.26,0,40480.9,183.327
step02_gravity_refstate-crust.xmf,512,7.28081e-06,-8.37821e-06,0,1.88509e-06,-8.59605e+08,-8.60679e+08,-8.60104e+08,129318,-0.00796967,0.309203,-0,0.309306,-1076.9,-31311.3,-0,31329.8,129318
step02_gravity_refstate-crust.xmf,513,4.54464e-06,-4.54526e-06,0,3.55028e-06,-7.87353e+08,-7.87976e+08,-7.87664e+08,243549,-0.0181051,0.282081,-0,0.282662,-3451.86,-28675.7,-0,28882.7,243549
step02_gravity_refstate-crust.xmf,514,6.23651e-07,8.19871e-07,0,4.39812e-06,-6.99923e+08,-6.99909e+08,-6.99965e+08,301711,-0.0287682,0.227956,-0,0.229764,-10591.2,-25485.2,-0,27598.3,301711
step02_gravity_refstate-crust.xmf,515,1.43201e-06,-2.86713e-07,0,4.69046e-06,-7.333e+08,-7.33418e+08,-7.33399e+08,321765,-0.0288029,0.242937,-0,0.244638,-8502.17,-26701.9,-0,28022.8,321765
step02_gravity_refstate-crust.xmf,516,2.38396e-06,-1.6419e-06,0,4.72669e-06,-7.56711e+08,-7.56987e+08,-7.56875e+08,324251,-0.0270531,0.257333,-0,0.258751,-6685.83,-27555.9,-0,28355.4,324251
step02_gravity_refstate-crust.xmf,517,-1.07105e-06,2.73904e-06,0,7.73608e-07,-4.70417e+08,-4.70156e+08,-4.70343e+08,53069.5,-0.00648228,0.145678,-0,0.145822,-34016.7,-17125.9,-0,38084.6,53069.5
step02_gravity_refstate-crust.xmf,518,-8.95527e-07,2.61463e-06,0,1.95383e-06,-4.89828e+08,-4.89587e+08,-4.89767e+08,134033,-0.0155674,0.167094,-0,0.167818,-25079.4,-17833.1,-0,30773.3,134033
step02_gravity_refstate-crust.xmf,519,-9.7105e-07,2.69774e-06,0,1.67034e-06,-4.8649e+08,-4.86239e+08,-4.86424e+08,114586,-0.013518,0.160065,-0,0.160635,-27241.3,-17711.4,-0,32492.8,114586
step02_gravity_refstate-crust.xmf,520,-1.01996e-06,2.73616e-06,0,1.37584e-06,-4.8148e+08,-4.81222e+08,-4.8141e+08,94382.6,-0.0112882,0.154127,-0,0.15454,-29453.9,-17528.9,-0,34275.3,94382.6
step02_gravity_refstate-crust.xmf,521,-1.05131e-06,2.74715e-06,0,1.07947e-06,-4.76144e+08,-4.75884e+08,-4.76072e+08,74051.4,-0.00895964,0.149342,-0,0.14961,-31688.3,-17334.5,-0,36119.7,74051.4
step02_gravity_refstate-crust.xmf,522,-8.58215e-07,2.77386e-06,0,2.46574e-06,-5.4986e+08,-5.49611e+08,-5.49801e+08,169150,-0.0191808,0.174115,-0,0.175168,-21874.2,-20019,-0,29652,169150
step02_gravity_refstate-crust.xmf,523,-4.24436e-07,2.20293e-06,0,3.15262e-06,-5.76839e+08,-5.76659e+08,-5.7681e+08,216270,-0.0232196,0.19664,-0,0.198006,-16815.9,-21002.1,-0,26904.7,216270
step02_gravity_refstate-crust.xmf,524,1.05316e-07,1.57978e-06,0,3.96684e-06,-6.62459e+08,-6.62358e+08,-6.62466e+08,272126,-0.0274837,0.215052,-0,0.216801,-12713,-24120.4,-0,27265.6,272126
step02_gravity_refstate-crust.xmf,525,-2.5379e-07,2.09204e-06,0,3.80825e-06,-6.58888e+08,-6.58727e+08,-6.58871e+08,261246,-0.0271882,0.205466,-0,0.207257,-14218.2,-23989.7,-0,27886.6,261246
step02_gravity_refstate-crust.xmf,526,-4.82645e-07,2.36364e-06,0,3.36373e-06,-6.16324e+08,-6.16129e+08,-6.16291e+08,230752,-0.0247669,0.196185,-0,0.197742,-16308.7,-22439.6,-0,27740,230752
step02_gravity_refstate-crust.xmf,527,-1.08867e-06,2.60741e-06,0,2.37982e-07,-4.45243e+08,-4.4499e+08,-4.45169e+08,16325.5,-0.0020268,0.143991,-0,0.144005,-38139.9,-16209.2,-0,41441.4,16325.5
step02_gravity_refstate-crust.xmf,528,-1.09357e-06,2.39004e-06,0,-3.10949e-10,-4.07989e+08,-4.0775e+08,-4.07914e+08,-21.3311,-3.94204e-19,0.14694,-0,0.14694,-40000,-14852.5,-0,42668.5,21.3311
step02_gravity_refstate-crust.xmf,529,7.42152e-06,-8.72919e-06,0,3.03845e-06,-8.74813e+08,-8.75921e+08,-8.75323e+08,208438,-0.0128013,0.311857,-0,0.312119,-1643.34,-31865,-0,31907.3,208438
step02_gravity_refstate-crust.xmf,530,8.19421e-06,-9.8583e-06,0,1.56422e-06,-8.84961e+08,-8.86199e+08,-8.85523e+08,107306,-0.00619098,0.318474,-0,0.318535,-744.991,-32235.8,-0,32244.4,107306
step02_gravity_refstate-crust.xmf,531,2.16393e-06,-1.17805e-06,0,-2.72205e-06,-6.09324e+08,-6.09553e+08,-6.09473e+08,-186733,0.0170461,0.252985,0,0.253559,6095.05,-22190,0,23011.8,186733
step02_gravity_refstate-crust.xmf,532,2.51728e-06,-1.64066e-06,0,-2.70252e-06,-6.3695e+08,-6.37235e+08,-6.37123e+08,-185393,0.0165047,0.257587,0,0.258115,5326.58,-23196.4,0,23800.2,185393
step02_gravity_refstate-crust.xmf,533,2.89328e-06,-2.14255e-06,0,-2.68987e-06,-6.64739e+08,-6.65084e+08,-6.64937e+08,-184525,0.0159758,0.262233,0,0.262719,4658.13,-24208.9,0,24652.9,184525
step02_gravity_refstate-crust.xmf,534,3.28428e-06,-2.671e-06,0,-2.68773e-06,-6.91765e+08,-6.92174e+08,-6.91991e+08,-184379,0.015492,0.266884,0,0.267334,4094.6,-25193.6,0,25524.1,184379
step02_gravity_refstate-crust.xmf,535,7.59895e-06,-8.81562e-06,0,2.20953e-07,-8.62543e+08,-8.63669e+08,-8.63064e+08,15157.4,-0.000872897,0.311644,-0,0.311645,-115.459,-31418.8,-0,31419,15157.4
step02_gravity_refstate-crust.xmf,536,1.20517e-06,2.52501e-08,0,-2.9745e-06,-5.54653e+08,-5.54734e+08,-5.54736e+08,-204051,0.0197533,0.23781,0,0.238629,9226.54,-20197.6,0,22205.2,204051
step02_gravity_refstate-crust.xmf,537,6.90073e-07,6.47721e-07,0,-2.9808e-06,-5.22247e+08,-5.2225e+08,-5.22294e+08,-204483,0.0204941,0.227414,0,0.228336,11485.2,-19016.7,0,22215.9,204483
step02_gravity_refstate-crust.xmf,538,-7.2082e-07,1.67108e-06,0,-1.54728e-06,-3.27234e+08,-3.2707e+08,-3.27185e+08,-106143,0.0141906,0.177117,0,0.177685,25835.3,-11913,0,28449.6,106143
step02_gravity_refstate-crust.xmf,539,-8.49374e-07,1.78229e-06,0,-1.33018e-06,-3.30481e+08,-3.30301e+08,-3.30423e+08,-91250.2,0.0123652,0.170118,0,0.170566,28118.4,-12030.8,0,30584.1,91250.2
step02_gravity_refstate-crust.xmf,540,2.33779e-07,1.16913e-06,0,-2.85745e-06,-4.87127e+08,-4.87063e+08,-4.87143e+08,-196021,0.0203907,0.215876,0,0.216837,14124.2,-17737.1,0,22673.7,196021
step02_gravity_refstate-crust.xmf,541,-5.43896e-07,1.73425e-06,0,-1.99622e-06,-3.76515e+08,-3.76358e+08,-3.76477e+08,-136941,0.0164278,0.185919,0,0.186644,22435.7,-13707.9,0,26291.9,136941
step02_gravity_refstate-crust.xmf,542,-1.26648e-06,1.39794e-06,0,-2.13662e-07,-2.18689e+08,-2.18506e+08,-2.18602e+08,-14657.2,0.00297821,0.160535,0,0.160563,37668.5,-7958.63,0,38500.1,14657.2
step02_gravity_refstate-crust.xmf,543,-1.15097e-06,1.59128e-06,0,-4.70439e-07,-2.64521e+08,-2.64333e+08,-2.64443e+08,-32272.1,0.00542768,0.159921,0,0.160013,35410,-9627.98,0,36695.6,32272.1
step02_gravity_refstate-crust.xmf,544,-9.70894e-07,1.88261e-06,0,-1.0745e-06,-3.35696e+08,-3.355e+08,-3.35629e+08,-73710.9,0.0100248,0.163402,0,0.163709,30655.8,-12220.3,0,33001.8,73710.9
step02_gravity_refstate-crust.xmf,545,-1.05948e-06,1.7582e-06,0,-7.48686e-07,-3.03152e+08,-3.02959e+08,-3.0308e+08,-51359.9,0.00762422,0.160622,0,0.160803,33193.6,-11035,0,34979.8,51359.9
step02_gravity_refstate-crust.xmf,546,5.16454e-06,-5.45456e-06,0,3.58156e-06,-8.11947e+08,-8.12675e+08,-8.12301e+08,245695,-0.0173958,0.289013,-0,0.289536,-2990.78,-29572.2,-0,29723,245695
step02_gravity_refstate-crust.xmf,547,5.88533e-06,-6.52033e-06,0,3.59226e-06,-8.36765e+08,-8.37616e+08,-8.37168e+08,246429,-0.0165183,0.296776,-0,0.297235,-2548.9,-30477,-0,30583.4,246429
step02_gravity_refstate-crust.xmf,548,6.67214e-06,-7.66897e-06,0,3.41674e-06,-8.58028e+08,-8.59012e+08,-8.58486e+08,234388,-0.0149045,0.304712,-0,0.305077,-2080.81,-31252.5,-0,31321.7,234388
step02_gravity_refstate-crust.xmf,549,3.84918e-06,-3.64159e-06,0,4.34664e-06,-7.87153e+08,-7.87667e+08,-7.87417e+08,298179,-0.0227943,0.275245,-0,0.276187,-4572.84,-28667,-0,29029.5,298179
step02_gravity_refstate-crust.xmf,550,7.83919e-07,5.96592e-07,0,4.76218e-06,-7.34184e+08,-7.34197e+08,-7.34238e+08,326685,-0.0303742,0.232334,-0,0.234311,-9883.68,-26732.8,-0,28501.4,326685
step02_gravity_refstate-crust.xmf,551,1.25309e-07,1.52846e-06,0,4.30436e-06,-6.97794e+08,-6.97698e+08,-6.97803e+08,295279,-0.0291996,0.217502,-0,0.219453,-12063.9,-25406.8,-0,28125.4,295279
step02_gravity_refstate-crust.xmf,552,2.61704e-06,-1.97284e-06,0,5.09766e-06,-7.83027e+08,-7.83342e+08,-7.83207e+08,349700,-0.0283115,0.261372,-0,0.262901,-6384.95,-28514.4,-0,29220.5,349700
step02_gravity_refstate-crust.xmf,553,1.71984e-06,-7.57728e-07,0,5.04082e-06,-7.60605e+08,-7.60775e+08,-7.60723e+08,345800,-0.0296897,0.248651,-0,0.250417,-7830.45,-27696.4,-0,28782,345800
step02_gravity_refstate-crust.xmf,554,-1.08398e-06,2.77917e-06,0,4.99801e-07,-4.74882e+08,-4.74617e+08,-4.74808e+08,34286.3,-0.0042151,0.14257,-0,0.142632,-36123.1,-17288.5,-0,40047.1,34286.3
step02_gravity_refstate-crust.xmf,555,-9.61823e-07,2.91444e-06,0,2.14369e-06,-5.42554e+08,-5.42288e+08,-5.42488e+08,147057,-0.0170235,0.165405,-0,0.166279,-24126.9,-19752.8,-0,31181.4,147057
step02_gravity_refstate-crust.xmf,556,-6.99126e-07,2.62136e-06,0,2.94834e-06,-5.84593e+08,-5.84365e+08,-5.84545e+08,202256,-0.0223245,0.185421,-0,0.18676,-18807,-21283.9,-0,28402.6,202256
step02_gravity_refstate-crust.xmf,557,-8.3107e-07,2.8113e-06,0,2.70371e-06,-5.77183e+08,-5.76933e+08,-5.77126e+08,185474,-0.020905,0.177989,-0,0.179212,-20439.4,-21013.9,-0,29314.7,185474
step02_gravity_refstate-crust.xmf,558,-5.58324e-07,2.5265e-06,0,3.5991e-06,-6.55618e+08,-6.55406e+08,-6.5558e+08,246898,-0.0264206,0.195927,-0,0.197701,-15767.5,-23870.1,-0,28607.6,246898
step02_gravity_refstate-crust.xmf,559,8.13454e-06,-9.86421e-06,0,3.22313e-06,-8.93991e+08,-8.95226e+08,-8.94549e+08,221106,-0.0126904,0.319063,-0,0.319315,-1490.87,-32564.3,-0,32598.4,221106
step02_gravity_refstate-crust.xmf,560,1.44417e-06,-2.63698e-07,0,-3.10775e-06,-5.87643e+08,-5.8776e+08,-5.87742e+08,-213192,0.0202386,0.241697,0,0.242543,8441.2,-21399.2,0,23003.9,213192
step02_gravity_refstate-crust.xmf,561,1.76369e-06,-6.6601e-07,0,-3.16226e-06,-6.15487e+08,-6.15654e+08,-6.15608e+08,-216931,0.0201368,0.246671,0,0.247492,7519.53,-22413.5,0,23641.3,216931
step02_gravity_refstate-crust.xmf,562,3.75302e-06,-3.3157e-06,0,-2.56396e-06,-7.18055e+08,-7.1854e+08,-7.18312e+08,-175887,0.0143252,0.272432,0,0.272809,3419.43,-26151.6,0,26374.2,175887
step02_gravity_refstate-crust.xmf,563,4.32164e-06,-4.09175e-06,0,-2.36801e-06,-7.44051e+08,-7.44628e+08,-7.44347e+08,-162446,0.0126681,0.278518,0,0.278806,2726.74,-27099.1,0,27235.9,162446
step02_gravity_refstate-crust.xmf,564,4.93215e-06,-4.94313e-06,0,-2.04507e-06,-7.69324e+08,-7.70002e+08,-7.69662e+08,-140292,0.010501,0.284949,0,0.285142,2040.14,-28020.3,0,28094.5,140292
step02_gravity_refstate-crust.xmf,565,5.55858e-06,-5.83701e-06,0,-1.72016e-06,-7.94403e+08,-7.95185e+08,-7.94785e+08,-118003,0.00844704,0.291436,0,0.291558,1483.75,-28934.5,0,28972.5,118003
step02_gravity_refstate-crust.xmf,566,6.21662e-06,-6.78556e-06,0,-1.30511e-06,-8.18269e+08,-8.19161e+08,-8.18695e+08,-89530.3,0.00611776,0.298073,0,0.298135,974.504,-29804.5,0,29820.5,89530.3
step02_gravity_refstate-crust.xmf,567,6.90759e-06,-7.79212e-06,0,-6.87822e-07,-8.40902e+08,-8.4191e+08,-8.41376e+08,-47184.6,0.00309179,0.304875,0,0.30489,447.765,-30629.8,0,30633,47184.6
step02_gravity_refstate-crust.xmf,568,8.46671e-07,4.82415e-07,0,-3.1725e-06,-5.58954e+08,-5.58979e+08,-5.59012e+08,-217633,0.0214532,0.230552,0,0.231548,10695.7,-20353.4,0,22992.6,217633
step02_gravity_refstate-crust.xmf,569,3.52806e-07,1.0962e-06,0,-3.0499e-06,-5.25234e+08,-5.25183e+08,-5.25258e+08,-209223,0.0214837,0.219003,0,0.220054,13164.9,-19124.8,0,23217.9,209223
step02_gravity_refstate-crust.xmf,570,-5.10537e-08,1.52811e-06,0,-2.84675e-06,-4.91265e+08,-4.91156e+08,-4.91261e+08,-195287,0.0206835,0.207248,0,0.208278,15872.2,-17887.1,0,23914,195287
step02_gravity_refstate-crust.xmf,571,-6.9473e-07,1.90102e-06,0,-1.79876e-06,-3.79696e+08,-3.79518e+08,-3.79649e+08,-123395,0.0150947,0.177808,0,0.178448,24602.9,-13823.4,0,28220.3,123395
step02_gravity_refstate-crust.xmf,572,-5.29641e-07,1.91098e-06,0,-2.23919e-06,-4.25064e+08,-4.24896e+08,-4.25027e+08,-153609,0.0175389,0.187255,0,0.188074,21276.6,-15475.7,0,26309.5,153609
step02_gravity_refstate-crust.xmf,573,-3.65537e-07,1.89396e-06,0,-2.60643e-06,-4.74371e+08,-4.74216e+08,-4.74346e+08,-178801,0.0196316,0.195275,0,0.196259,18633.8,-17271.4,0,25407.1,178801
step02_gravity_refstate-crust.xmf,574,-1.21293e-06,1.55548e-06,0,1.76072e-09,-2.52331e+08,-2.52141e+08,-2.52248e+08,120.786,1.88239e-19,0.158062,0,0.158062,40000,-9183.87,0,41040.8,120.786
step02_gravity_refstate-crust.xmf,575,6.68931e-06,-7.80938e-06,0,4.43573e-06,-8.74146e+08,-8.75141e+08,-8.74605e+08,304291,-0.0189545,0.306613,-0,0.307199,-2522.03,-31839.1,-0,31938.9,304291
step02_gravity_refstate-crust.xmf,576,7.41704e-06,-8.90686e-06,0,4.44948e-06,-8.91722e+08,-8.92842e+08,-8.92231e+08,305235,-0.0181113,0.314091,-0,0.314613,-2207.53,-32480.2,-0,32555.2,305235
step02_gravity_refstate-crust.xmf,577,4.44131e-06,-4.52201e-06,0,4.45907e-06,-8.10572e+08,-8.11187e+08,-8.10876e+08,305893,-0.0222509,0.282413,-0,0.283288,-4021.99,-29520.6,-0,29793.4,305893
step02_gravity_refstate-crust.xmf,578,3.23702e-06,-2.82843e-06,0,4.9097e-06,-7.904e+08,-7.90816e+08,-7.90622e+08,336805,-0.0263271,0.268943,-0,0.270229,-5502.69,-28784,-0,29305.3,336805
step02_gravity_refstate-crust.xmf,579,1.79254e-07,1.45725e-06,0,4.69204e-06,-7.33947e+08,-7.33859e+08,-7.33959e+08,321874,-0.0310601,0.220557,-0,0.222734,-11390.6,-26723,-0,29049.4,321874
step02_gravity_refstate-crust.xmf,580,1.06464e-06,1.66403e-07,0,5.17105e-06,-7.64887e+08,-7.64949e+08,-7.6496e+08,354734,-0.0316452,0.238881,-0,0.240968,-9020.78,-27851,-0,29275.5,354734
step02_gravity_refstate-crust.xmf,581,2.00978e-06,-1.16951e-06,0,5.27771e-06,-7.80422e+08,-7.8064e+08,-7.8056e+08,362051,-0.0302018,0.253732,-0,0.255523,-7295.01,-28418.4,-0,29339.8,362051
step02_gravity_refstate-crust.xmf,582,-1.08926e-06,3.07483e-06,0,6.18897e-07,-5.24283e+08,-5.23998e+08,-5.24209e+08,42456.3,-0.00519475,0.138303,-0,0.1384,-35227.3,-19087.4,-0,40066.1,42456.3
step02_gravity_refstate-crust.xmf,583,-1.0911e-06,3.08789e-06,0,9.24875e-07,-5.28207e+08,-5.2792e+08,-5.28132e+08,63446.4,-0.00771566,0.141399,-0,0.141609,-32914.1,-19230.3,-0,38120.1,63446.4
step02_gravity_refstate-crust.xmf,584,-1.0283e-06,3.01175e-06,0,1.836e-06,-5.39108e+08,-5.38831e+08,-5.39038e+08,125949,-0.0148285,0.157724,-0,0.158419,-26297.8,-19627.3,-0,32814.7,125949
step02_gravity_refstate-crust.xmf,585,-1.06643e-06,3.0679e-06,0,1.53434e-06,-5.3615e+08,-5.35866e+08,-5.36077e+08,105255,-0.0125592,0.151167,-0,0.151688,-28447.6,-19519.5,-0,34500.4,105255
step02_gravity_refstate-crust.xmf,586,-1.08487e-06,3.09058e-06,0,1.23035e-06,-5.32588e+08,-5.32301e+08,-5.32513e+08,84402,-0.0101799,0.145683,-0,0.146038,-30651,-19389.8,-0,36269.1,84402
step02_gravity_refstate-crust.xmf,587,-1.06243e-06,3.26066e-06,0,2.27877e-06,-5.96691e+08,-5.96394e+08,-5.96618e+08,156323,-0.0183061,0.161984,-0,0.163015,-23478.1,-21723.9,-0,31986.7,156323
step02_gravity_refstate-crust.xmf,588,-9.87134e-07,3.1348e-06,0,2.56995e-06,-6.01953e+08,-6.0167e+08,-6.01885e+08,176299,-0.0202839,0.169667,-0,0.170875,-21622,-21915.6,-0,30786.4,176299
step02_gravity_refstate-crust.xmf,589,-6.71853e-07,2.6447e-06,0,3.18084e-06,-6.14303e+08,-6.14075e+08,-6.14257e+08,218206,-0.0239232,0.188697,-0,0.190207,-17663.1,-22365.7,-0,28499.3,218206
step02_gravity_refstate-crust.xmf,590,-2.76325e-07,2.14393e-06,0,4.10392e-06,-6.94645e+08,-6.94479e+08,-6.94626e+08,281529,-0.0289197,0.206964,-0,0.208975,-13584.2,-25291.5,-0,28708.7,281529
step02_gravity_refstate-crust.xmf,591,-6.08875e-07,2.64865e-06,0,3.85948e-06,-6.92246e+08,-6.92022e+08,-6.92204e+08,264761,-0.0281259,0.196711,-0,0.198711,-15111.9,-25203.5,-0,29386.9,264761
step02_gravity_refstate-crust.xmf,592,-7.87326e-07,2.88874e-06,0,3.34364e-06,-6.52699e+08,-6.52447e+08,-6.52645e+08,229374,-0.025259,0.186619,-0,0.18832,-17351.4,-23763.5,-0,29424,229374
step02_gravity_refstate-crust.xmf,593,-1.09022e-06,3.06221e-06,0,3.04722e-07,-5.21171e+08,-5.20886e+08,-5.21096e+08,20903.9,-0.00256847,0.136428,-0,0.136452,-37639.5,-18974.1,-0,42151.5,20903.9
step02_gravity_refstate-crust.xmf,594,-1.08905e-06,2.83297e-06,0,2.80629e-11,-4.8272e+08,-4.82451e+08,-4.82645e+08,1.92511,-4.99234e-19,0.139834,-0,0.139834,-40000,-17573.9,-0,43690.3,1.92511
step02_gravity_refstate-crust.xmf,595,8.42474e-06,-1.00901e-05,0,-6.71722e-07,-8.86338e+08,-8.87608e+08,-8.86916e+08,-46080.1,0.00272129,0.319686,0,0.319698,323.936,-32286.5,0,32288.1,46080.1
step02_gravity_refstate-crust.xmf,596,9.04433e-06,-1.11299e-05,0,2.53603e-06,-9.08946e+08,-9.1033e+08,-9.09567e+08,173972,-0.00943284,0.326819,-0,0.326955,-1021.03,-33110.5,-0,33126.2,173972
step02_gravity_refstate-crust.xmf,597,2.0903e-06,-1.08881e-06,0,-3.17148e-06,-6.39693e+08,-6.39911e+08,-6.39836e+08,-217564,0.0197795,0.251525,0,0.252301,6689.47,-23295.4,0,24236.9,217564
step02_gravity_refstate-crust.xmf,598,2.44491e-06,-1.5729e-06,0,-3.22876e-06,-6.65914e+08,-6.66189e+08,-6.66081e+08,-221493,0.019531,0.256347,0,0.25709,5968.54,-24250.7,0,24974.4,221493
step02_gravity_refstate-crust.xmf,599,2.83601e-06,-2.10642e-06,0,-3.28958e-06,-6.93244e+08,-6.93583e+08,-6.93439e+08,-225665,0.0192859,0.261447,0,0.262157,5310.1,-25246.5,0,25798.9,225665
step02_gravity_refstate-crust.xmf,600,3.2864e-06,-2.72576e-06,0,-3.32779e-06,-7.2031e+08,-7.20723e+08,-7.20536e+08,-228287,0.018836,0.267061,0,0.267725,4665.66,-26232.7,0,26644.4,228287
step02_gravity_refstate-crust.xmf,601,7.49187e-06,-8.72314e-06,0,-1.5795e-06,-8.6395e+08,-8.65063e+08,-8.64464e+08,-108354,0.00669337,0.311057,0,0.311129,884.99,-31469.8,0,31482.2,108354
step02_gravity_refstate-crust.xmf,602,1.03984e-06,2.53883e-07,0,-3.37812e-06,-5.95111e+08,-5.95165e+08,-5.95183e+08,-231739,0.0224117,0.234215,0,0.235285,9897.1,-21670.2,0,23823.3,231739
step02_gravity_refstate-crust.xmf,603,4.81107e-07,9.58124e-07,0,-3.27492e-06,-5.62054e+08,-5.62022e+08,-5.62087e+08,-224660,0.0226183,0.222396,0,0.223543,12242,-20465.6,0,23847.6,224660
step02_gravity_refstate-crust.xmf,604,-8.21842e-07,2.03708e-06,0,-1.58072e-06,-3.8412e+08,-3.83924e+08,-3.84063e+08,-108438,0.013441,0.170315,0,0.170845,26779.3,-13984.1,0,30210.7,108438
step02_gravity_refstate-crust.xmf,605,-9.1714e-07,2.1553e-06,0,-1.3568e-06,-3.90856e+08,-3.90646e+08,-3.90794e+08,-93076.2,0.0116308,0.163784,0,0.164196,28855.3,-14229.1,0,32172.9,93076.2
step02_gravity_refstate-crust.xmf,606,2.23658e-08,1.51476e-06,0,-3.06738e-06,-5.3022e+08,-5.30118e+08,-5.30222e+08,-210422,0.0219878,0.210039,0,0.211186,14876,-19305.6,0,24372.2,210422
step02_gravity_refstate-crust.xmf,607,-5.35979e-07,2.08511e-06,0,-2.46915e-06,-4.72433e+08,-4.72253e+08,-4.72397e+08,-169384,0.0188547,0.188106,0,0.189048,20261.3,-17200.5,0,26577.7,169384
step02_gravity_refstate-crust.xmf,608,-7.00041e-07,2.11705e-06,0,-2.04497e-06,-4.29891e+08,-4.29698e+08,-4.29843e+08,-140285,0.0162842,0.178466,0,0.179207,23411.8,-15651.1,0,28161.5,140285
step02_gravity_refstate-crust.xmf,609,-3.2445e-07,1.91556e-06,0,-2.81614e-06,-5.07632e+08,-5.07479e+08,-5.0761e+08,-193187,0.0208438,0.197961,0,0.199056,17573.1,-18482.5,0,25503.3,193187
step02_gravity_refstate-crust.xmf,610,-1.1474e-06,1.76869e-06,0,-2.53966e-07,-2.96493e+08,-2.96293e+08,-2.96415e+08,-17422.1,0.00267242,0.156041,0,0.156064,37686,-10792.2,0,39200.9,17422.1
step02_gravity_refstate-crust.xmf,611,-1.08844e-06,1.96654e-06,0,-5.40058e-07,-3.36797e+08,-3.36587e+08,-3.36722e+08,-37048,0.00515529,0.155296,0,0.155381,35361.3,-12260.1,0,37426.3,37048
step02_gravity_refstate-crust.xmf,612,-1.03854e-06,2.14786e-06,0,-8.41734e-07,-3.73934e+08,-3.73715e+08,-3.73862e+08,-57743,0.00750628,0.15581,0,0.155991,33061.9,-13612.5,0,35754.6,57743
step02_gravity_refstate-crust.xmf,613,5.08239e-06,-5.49654e-06,0,4.67001e-06,-8.35705e+08,-8.36431e+08,-8.36054e+08,320363,-0.0220707,0.290057,-0,0.290896,-3575.66,-30436.7,-0,30646.1,320363
step02_gravity_refstate-crust.xmf,614,5.85476e-06,-6.68098e-06,0,4.86857e-06,-8.60803e+08,-8.61663e+08,-8.61204e+08,333984,-0.0216445,0.298838,-0,0.29962,-3123.81,-31351.7,-0,31507,333984
step02_gravity_refstate-crust.xmf,615,6.43735e-06,-7.66478e-06,0,5.62432e-06,-8.88277e+08,-8.89244e+08,-8.88719e+08,385828,-0.0235126,0.30668,-0,0.30758,-3030.98,-32352.8,-0,32494.5,385828
step02_gravity_refstate-crust.xmf,616,8.3748e-06,-1.0379e-05,0,4.38645e-06,-9.10004e+08,-9.1129e+08,-9.10578e+08,300910,-0.0166978,0.322907,-0,0.323339,-1847,-33147.4,-0,33198.8,300910
step02_gravity_refstate-crust.xmf,617,3.64584e-06,-3.48327e-06,0,5.13411e-06,-8.10103e+08,-8.10592e+08,-8.10353e+08,352200,-0.0264136,0.274627,-0,0.275894,-5061.97,-29502,-0,29933.1,352200
step02_gravity_refstate-crust.xmf,618,3.58088e-07,1.17907e-06,0,4.93174e-06,-7.51405e+08,-7.51348e+08,-7.51429e+08,338318,-0.0318856,0.225633,-0,0.227875,-10651.8,-27358.9,-0,29359.3,338318
step02_gravity_refstate-crust.xmf,619,4.99937e-07,9.59632e-07,0,5.19422e-06,-7.69464e+08,-7.69433e+08,-7.69498e+08,356324,-0.0327824,0.229537,-0,0.231867,-10103.6,-28016.6,-0,29782.8,356324
step02_gravity_refstate-crust.xmf,620,-3.1926e-07,2.17978e-06,0,4.44016e-06,-7.29068e+08,-7.28896e+08,-7.29046e+08,304595,-0.0306827,0.208861,-0,0.211103,-12950.8,-26544.5,-0,29535.3,304595
step02_gravity_refstate-crust.xmf,621,2.84505e-06,-2.36588e-06,0,5.5184e-06,-8.07907e+08,-8.08264e+08,-8.08102e+08,378562,-0.0295712,0.265745,-0,0.267386,-6096.55,-29420.5,-0,30045.5,378562
step02_gravity_refstate-crust.xmf,622,2.01863e-06,-1.23841e-06,0,5.70974e-06,-8.03967e+08,-8.0419e+08,-8.04106e+08,391688,-0.031938,0.255444,-0,0.257432,-7217.53,-29275.5,-0,30152,391688
step02_gravity_refstate-crust.xmf,623,1.367e-06,-3.08499e-07,0,5.63354e-06,-7.94757e+08,-7.94872e+08,-7.94851e+08,386461,-0.032921,0.245717,-0,0.247912,-8250.21,-28939,-0,30092,386461
step02_gravity_refstate-crust.xmf,624,-1.10493e-06,3.33627e-06,0,1.98057e-06,-5.90946e+08,-5.90641e+08,-5.9087e+08,135867,-0.0161507,0.15491,-0,0.15575,-25418.4,-21514.7,-0,33301.3,135867
step02_gravity_refstate-crust.xmf,625,-9.09097e-07,3.02343e-06,0,2.80353e-06,-6.10252e+08,-6.09982e+08,-6.1019e+08,192322,-0.0218266,0.175868,-0,0.177217,-20157.8,-22217.8,-0,29999.5,192322
step02_gravity_refstate-crust.xmf,626,-9.25288e-07,3.10636e-06,0,3.04384e-06,-6.41056e+08,-6.40779e+08,-6.40992e+08,208808,-0.023518,0.178341,-0,0.179885,-19032.7,-23339.3,-0,30115.9,208808
step02_gravity_refstate-crust.xmf,627,-8.78765e-07,3.06884e-06,0,3.57526e-06,-6.90577e+08,-6.90306e+08,-6.90516e+08,245263,-0.0268874,0.186566,-0,0.188494,-16690.3,-25142.3,-0,30177.9,245263
step02_gravity_refstate-crust.xmf,628,-1.09287e-06,3.35894e-06,0,5.00648e-07,-5.71111e+08,-5.70806e+08,-5.71036e+08,34344.5,-0.00425332,0.131859,-0,0.131927,-36079.7,-20792.7,-0,41642.2,34344.5
step02_gravity_refstate-crust.xmf,629,9.29034e-06,-1.15394e-05,0,4.71374e-07,-9.08488e+08,-9.09917e+08,-9.09125e+08,32336.3,-0.00178428,0.328502,-0,0.328507,-191.264,-33094.1,-0,33094.7,32336.3
step02_gravity_refstate-crust.xmf,630,9.5794e-06,-1.21825e-05,0,4.08769e-06,-9.29403e+08,-9.30895e+08,-9.3006e+08,280416,-0.0145063,0.333447,-0,0.333762,-1438.06,-33855.7,-0,33886.2,280416
step02_gravity_refstate-crust.xmf,631,1.02925e-05,-1.30027e-05,0,1.91847e-06,-9.30186e+08,-9.31785e+08,-9.30893e+08,131607,-0.00660896,0.337441,-0,0.337506,-638.2,-33885.9,-0,33891.9,131607
step02_gravity_refstate-crust.xmf,632,1.67154e-06,-5.48171e-07,0,-3.53335e-06,-6.44399e+08,-6.44551e+08,-6.44513e+08,-242388,0.0224178,0.245006,0,0.24603,7958.52,-23465.9,0,24778.7,242388
step02_gravity_refstate-crust.xmf,633,1.32195e-06,-7.7227e-08,0,-3.56732e-06,-6.30843e+08,-6.30939e+08,-6.30933e+08,-244718,0.0231905,0.239141,0,0.240263,8978.43,-22971.7,0,24664,244718
step02_gravity_refstate-crust.xmf,634,3.77844e-06,-3.41795e-06,0,-3.26985e-06,-7.4483e+08,-7.45324e+08,-7.4509e+08,-224312,0.0178669,0.273153,0,0.273737,3997.33,-27126.3,0,27419.2,224312
step02_gravity_refstate-crust.xmf,635,4.48708e-06,-4.38533e-06,0,-3.0643e-06,-7.7119e+08,-7.71798e+08,-7.71497e+08,-210211,0.0159472,0.280838,0,0.28129,3178.88,-28087.3,0,28266.6,210211
step02_gravity_refstate-crust.xmf,636,5.16416e-06,-5.35073e-06,0,-2.8635e-06,-7.96096e+08,-7.96818e+08,-7.96451e+08,-196436,0.0141865,0.288101,0,0.28845,2541.44,-28995.3,0,29106.5,196436
step02_gravity_refstate-crust.xmf,637,5.88274e-06,-6.38006e-06,0,-2.5822e-06,-8.19665e+08,-8.20507e+08,-8.20069e+08,-177139,0.0121758,0.295478,0,0.295729,1967.98,-29854.7,0,29919.5,177139
step02_gravity_refstate-crust.xmf,638,6.65193e-06,-7.49349e-06,0,-2.18207e-06,-8.42099e+08,-8.43069e+08,-8.42555e+08,-149690,0.00976424,0.303075,0,0.303232,1427.46,-30672.8,0,30706,149690
step02_gravity_refstate-crust.xmf,639,8.01035e-06,-9.57107e-06,0,-2.84157e-06,-8.87651e+08,-8.88857e+08,-8.882e+08,-194931,0.0114637,0.317317,0,0.317524,1381.22,-32333.4,0,32362.9,194931
step02_gravity_refstate-crust.xmf,640,6.31482e-07,7.9179e-07,0,-3.50618e-06,-5.98206e+08,-5.98195e+08,-5.98249e+08,-240524,0.0238082,0.225925,0,0.227176,11385.7,-21782.1,0,24578.3,240524
step02_gravity_refstate-crust.xmf,641,-1.0024e-06,2.32189e-06,0,-1.11515e-06,-4.09304e+08,-4.09076e+08,-4.09235e+08,-76499.5,0.00952573,0.15688,0,0.157169,31054.1,-14900.7,0,34444,76499.5
step02_gravity_refstate-crust.xmf,642,1.42883e-07,1.42547e-06,0,-3.2808e-06,-5.65431e+08,-5.65343e+08,-5.6544e+08,-225063,0.0232505,0.213689,0,0.21495,13827.4,-20587.8,0,24800.3,225063
step02_gravity_refstate-crust.xmf,643,-2.81548e-07,1.97846e-06,0,-3.07724e-06,-5.52776e+08,-5.52621e+08,-5.52756e+08,-211099,0.0225603,0.200445,0,0.20171,16444.5,-20126.3,0,25990.2,211099
step02_gravity_refstate-crust.xmf,644,-8.25632e-07,2.29048e-06,0,-1.81106e-06,-4.35395e+08,-4.35181e+08,-4.35338e+08,-124239,0.0146839,0.170244,0,0.170876,25562.8,-15851.2,0,30078.6,124239
step02_gravity_refstate-crust.xmf,645,-5.3651e-07,2.23246e-06,0,-2.68391e-06,-5.15594e+08,-5.15404e+08,-5.15558e+08,-184116,0.020305,0.189151,0,0.190238,19285.6,-18772,0,26913.2,184116
step02_gravity_refstate-crust.xmf,646,-7.08234e-07,2.30971e-06,0,-2.27641e-06,-4.76072e+08,-4.75865e+08,-4.76024e+08,-156162,0.0176956,0.179421,0,0.180291,22228.7,-17332.6,0,28187.5,156162
step02_gravity_refstate-crust.xmf,647,-1.12522e-06,1.95737e-06,0,1.05881e-09,-3.31261e+08,-3.3105e+08,-3.31184e+08,72.6341,1.81292e-19,0.153013,0,0.153013,40000,-12058.4,0,41778,72.6341
step02_gravity_refstate-crust.xmf,648,7.32246e-06,-8.99155e-06,0,5.84943e-06,-9.09318e+08,-9.10437e+08,-9.0982e+08,401271,-0.0231261,0.316164,-0,0.317009,-2674.07,-33120.3,-0,33228.1,401271
step02_gravity_refstate-crust.xmf,649,4.1762e-06,-4.3113e-06,0,5.4539e-06,-8.34345e+08,-8.34927e+08,-8.34631e+08,374137,-0.0266768,0.281836,-0,0.283095,-4596.32,-30385.4,-0,30731.1,374137
step02_gravity_refstate-crust.xmf,650,5.64731e-09,1.65922e-06,0,5.04722e-06,-7.68022e+08,-7.67908e+08,-7.68022e+08,346240,-0.0329652,0.219943,-0,0.2224,-11229.2,-27963.2,-0,30133.6,346240
step02_gravity_refstate-crust.xmf,651,-3.84781e-07,2.27775e-06,0,4.77581e-06,-7.6282e+08,-7.62637e+08,-7.62794e+08,327621,-0.0324516,0.210079,-0,0.21257,-12450.3,-27773.2,-0,30436.2,327621
step02_gravity_refstate-crust.xmf,652,5.84535e-07,7.83032e-07,0,5.61544e-06,-7.97012e+08,-7.96999e+08,-7.97052e+08,385219,-0.034322,0.23359,-0,0.236098,-9554.55,-29019.6,-0,30552,385219
step02_gravity_refstate-crust.xmf,653,-1.10186e-06,3.41237e-06,0,7.57801e-07,-5.80126e+08,-5.79816e+08,-5.8005e+08,51985.1,-0.00644204,0.133297,-0,0.133452,-34078.3,-21120.9,-0,40092.7,51985.1
step02_gravity_refstate-crust.xmf,654,-1.12202e-06,3.43299e-06,0,1.05575e-06,-5.84107e+08,-5.83795e+08,-5.8403e+08,72424.2,-0.00891832,0.136869,-0,0.137159,-31845.3,-21265.8,-0,38293,72424.2
step02_gravity_refstate-crust.xmf,655,-1.1282e-06,3.39682e-06,0,1.67161e-06,-5.88409e+08,-5.88099e+08,-5.88332e+08,114673,-0.0138291,0.147988,-0,0.148632,-27487,-21422.3,-0,34848.9,114673
step02_gravity_refstate-crust.xmf,656,-1.13172e-06,3.42846e-06,0,1.36209e-06,-5.86525e+08,-5.86212e+08,-5.86447e+08,93439.4,-0.0114027,0.141867,-0,0.142324,-29634.4,-21353.8,-0,36526.5,93439.4
step02_gravity_refstate-crust.xmf,657,-1.19454e-06,3.65738e-06,0,2.10754e-06,-6.39913e+08,-6.3958e+08,-6.39831e+08,144577,-0.0174346,0.152013,-0,0.15301,-24566.5,-23297.5,-0,33856.9,144577
step02_gravity_refstate-crust.xmf,658,-1.16125e-06,3.56312e-06,0,2.42197e-06,-6.43494e+08,-6.4317e+08,-6.43414e+08,166147,-0.0196756,0.159664,-0,0.160872,-22686.5,-23427.9,-0,32612,166147
step02_gravity_refstate-crust.xmf,659,-1.08784e-06,3.41211e-06,0,2.73261e-06,-6.46678e+08,-6.46369e+08,-6.46603e+08,187457,-0.0217449,0.167925,-0,0.169327,-20885.8,-23543.8,-0,31472.7,187457
step02_gravity_refstate-crust.xmf,660,-6.77666e-07,2.76194e-06,0,4.13987e-06,-7.26584e+08,-7.26348e+08,-7.26538e+08,283995,-0.0298071,0.197761,-0,0.199995,-14477.1,-26453.6,-0,30155.9,283995
step02_gravity_refstate-crust.xmf,661,-9.59634e-07,3.22964e-06,0,3.8196e-06,-7.25624e+08,-7.25337e+08,-7.25558e+08,262024,-0.0285176,0.187156,-0,0.189316,-15993.7,-26418.2,-0,30882.3,262024
step02_gravity_refstate-crust.xmf,662,-1.07063e-06,3.4098e-06,0,3.25538e-06,-6.89425e+08,-6.89118e+08,-6.89352e+08,223319,-0.0252522,0.176577,-0,0.178374,-18336.5,-25100.2,-0,31084.5,223319
step02_gravity_refstate-crust.xmf,663,-1.08549e-06,3.2675e-06,0,6.88426e-10,-5.5566e+08,-5.55361e+08,-5.55585e+08,47.226,-4.37403e-19,0.131733,-0,0.131733,-40000,-20230,-0,44824.7,47.226
step02_gravity_refstate-crust.xmf,664,-1.08124e-06,3.49008e-06,0,2.6002e-07,-5.93621e+08,-5.93307e+08,-5.93547e+08,17837.4,-0.00224423,0.127625,-0,0.127645,-37916.4,-21612.4,-0,43643.5,17837.4
step02_gravity_refstate-crust.xmf,665,9.27293e-06,-1.14374e-05,0,-1.76298e-06,-9.09792e+08,-9.11212e+08,-9.10428e+08,-120941,0.00662084,0.328175,0,0.328241,709.076,-33141.7,0,33149.3,120941
step02_gravity_refstate-crust.xmf,666,1.11215e-05,-1.43953e-05,0,3.54412e-06,-9.50293e+08,-9.52043e+08,-9.51056e+08,243127,-0.0115003,0.346021,-0,0.346212,-1006.04,-34619.1,-0,34633.7,243127
step02_gravity_refstate-crust.xmf,667,1.95766e-06,-9.26785e-07,0,-3.6063e-06,-6.66085e+08,-6.66283e+08,-6.66219e+08,-247392,0.022399,0.249439,0,0.250443,7268.6,-24256,0,25321.6,247392
step02_gravity_refstate-crust.xmf,668,2.30498e-06,-1.42481e-06,0,-3.7739e-06,-6.94452e+08,-6.94708e+08,-6.94611e+08,-258890,0.0226291,0.254564,0,0.255568,6583.98,-25289.4,0,26132.4,258890
step02_gravity_refstate-crust.xmf,669,2.71455e-06,-2.00338e-06,0,-3.93656e-06,-7.23153e+08,-7.23476e+08,-7.23339e+08,-270048,0.0227537,0.26031,0,0.261302,5914.7,-26335,0,26991,270048
step02_gravity_refstate-crust.xmf,670,3.22644e-06,-2.74475e-06,0,-4.1249e-06,-7.54149e+08,-7.54559e+08,-7.54371e+08,-282968,0.0227566,0.267241,0,0.268208,5221.72,-27464.4,0,27956.4,282968
step02_gravity_refstate-crust.xmf,671,6.99727e-06,-8.11736e-06,0,-3.19862e-06,-8.643e+08,-8.65337e+08,-8.6478e+08,-219426,0.0137179,0.307646,0,0.307952,1853.06,-31481.5,0,31535.9,219426
step02_gravity_refstate-crust.xmf,672,8.09134e-07,5.70098e-07,0,-3.75006e-06,-6.3248e+08,-6.32497e+08,-6.32536e+08,-257254,0.0249561,0.229867,0,0.231218,10560.4,-23030.2,0,25336,257254
step02_gravity_refstate-crust.xmf,673,2.5719e-07,1.29563e-06,0,-3.52789e-06,-5.99767e+08,-5.99696e+08,-5.99785e+08,-242013,0.0245428,0.217329,0,0.218711,12874,-21838.2,0,25350.4,242013
step02_gravity_refstate-crust.xmf,674,-9.23396e-07,2.4241e-06,0,-1.56708e-06,-4.41416e+08,-4.41186e+08,-4.41353e+08,-107502,0.0128625,0.162942,0,0.163449,27670.3,-16070.2,0,31998.4,107502
step02_gravity_refstate-crust.xmf,675,-9.93112e-07,2.54359e-06,0,-1.3281e-06,-4.50432e+08,-4.5019e+08,-4.50364e+08,-91107.4,0.0109975,0.156615,0,0.157001,29643.3,-16398.4,0,33876.7,91107.4
step02_gravity_refstate-crust.xmf,676,-1.09097e-07,1.76572e-06,0,-3.2246e-06,-5.6577e+08,-5.65641e+08,-5.65762e+08,-221208,0.0232763,0.206391,0,0.2077,15164.2,-20599.7,0,25579.3,221208
step02_gravity_refstate-crust.xmf,677,-7.21894e-07,2.47786e-06,0,-2.49978e-06,-5.18985e+08,-5.18765e+08,-5.18935e+08,-171485,0.0192266,0.1805,0,0.181521,21104.3,-18895.1,0,28327,171485
step02_gravity_refstate-crust.xmf,678,-8.59117e-07,2.54631e-06,0,-2.04495e-06,-4.86987e+08,-4.86754e+08,-4.86928e+08,-140284,0.0161728,0.170048,0,0.170815,24353.8,-17729.7,0,30124,140284
step02_gravity_refstate-crust.xmf,679,-5.49077e-07,2.33864e-06,0,-2.928e-06,-5.5694e+08,-5.56742e+08,-5.56902e+08,-200861,0.0219261,0.190748,0,0.192004,18255.7,-20277.4,0,27284.4,200861
step02_gravity_refstate-crust.xmf,680,-1.09858e-06,2.16953e-06,0,-2.85993e-07,-3.70412e+08,-3.70188e+08,-3.70336e+08,-19619.1,0.00259625,0.150763,0,0.150786,37646.8,-13484.1,0,39988.8,19619.1
step02_gravity_refstate-crust.xmf,681,-1.07336e-06,2.37964e-06,0,-5.92438e-07,-4.09227e+08,-4.0899e+08,-4.09153e+08,-40641.2,0.00513159,0.149662,0,0.14975,35278.2,-14897.7,0,38294.8,40641.2
step02_gravity_refstate-crust.xmf,682,-1.05619e-06,2.60123e-06,0,-9.18811e-07,-4.50158e+08,-4.49907e+08,-4.50086e+08,-63030.5,0.00769931,0.149582,0,0.14978,32857.8,-16388.2,0,36717.9,63030.5
step02_gravity_refstate-crust.xmf,683,4.77889e-06,-5.2738e-06,0,5.86518e-06,-8.59569e+08,-8.60258e+08,-8.59897e+08,402351,-0.0271009,0.289891,-0,0.291155,-4171.41,-31304.6,-0,31581.3,402351
step02_gravity_refstate-crust.xmf,684,5.4104e-06,-6.30895e-06,0,6.39143e-06,-8.84321e+08,-8.85125e+08,-8.84692e+08,438452,-0.0277866,0.29837,-0,0.299661,-3819.96,-32206.7,-0,32432.4,438452
step02_gravity_refstate-crust.xmf,685,6.113e-06,-7.47312e-06,0,6.99442e-06,-9.07812e+08,-9.08744e+08,-9.08232e+08,479818,-0.0285185,0.307481,-0,0.308801,-3501.56,-33063,-0,33247.9,479818
step02_gravity_refstate-crust.xmf,686,8.43773e-06,-1.07574e-05,0,6.02853e-06,-9.29036e+08,-9.30353e+08,-9.29615e+08,413557,-0.0220308,0.326813,-0,0.327554,-2277.4,-33840,-0,33916.5,413557
step02_gravity_refstate-crust.xmf,687,9.82679e-06,-1.28667e-05,0,5.95254e-06,-9.4839e+08,-9.49947e+08,-9.49064e+08,408344,-0.0200654,0.339054,-0,0.339647,-1839.2,-34546.9,-0,34595.8,408344
step02_gravity_refstate-crust.xmf,688,3.2317e-06,-3.05412e-06,0,5.96549e-06,-8.32556e+08,-8.32988e+08,-8.32778e+08,409233,-0.0303539,0.272326,-0,0.274013,-5634.4,-30318.4,-0,30837.5,409233
step02_gravity_refstate-crust.xmf,689,-3.50234e-09,1.64288e-06,0,5.43637e-06,-7.96973e+08,-7.9686e+08,-7.96973e+08,372935,-0.0346347,0.222611,-0,0.225289,-10733,-29017.1,-0,30938.5,372935
step02_gravity_refstate-crust.xmf,690,-7.70467e-07,2.87268e-06,0,4.44931e-06,-7.59429e+08,-7.59179e+08,-7.59376e+08,305223,-0.0314856,0.199103,-0,0.201577,-13853.7,-27649.1,-0,30925.7,305223
step02_gravity_refstate-crust.xmf,691,2.31371e-06,-1.74609e-06,0,6.20787e-06,-8.30739e+08,-8.31018e+08,-8.30898e+08,425860,-0.033178,0.261644,-0,0.263739,-6719.85,-30250.5,-0,30987.9,425860
step02_gravity_refstate-crust.xmf,692,1.45622e-06,-5.49677e-07,0,6.22871e-06,-8.26888e+08,-8.27026e+08,-8.26988e+08,427290,-0.0348973,0.250326,-0,0.252747,-7824.94,-30108.7,-0,31108.9,427290
step02_gravity_refstate-crust.xmf,693,6.84097e-07,5.52247e-07,0,6.12209e-06,-8.25228e+08,-8.25237e+08,-8.25275e+08,419976,-0.0359681,0.238566,-0,0.241262,-8975.48,-30046.9,-0,31358.8,419976
step02_gravity_refstate-crust.xmf,694,-1.08563e-06,3.71101e-06,0,5.33881e-07,-6.30474e+08,-6.30144e+08,-6.30399e+08,36624.3,-0.00467301,0.124708,-0,0.124795,-35623.8,-22954.4,-0,42378.8,36624.3
step02_gravity_refstate-crust.xmf,695,-1.20124e-06,3.72167e-06,0,1.7906e-06,-6.38199e+08,-6.37861e+08,-6.38117e+08,122835,-0.0150602,0.144725,-0,0.145506,-26545.5,-23235.2,-0,35278,122835
step02_gravity_refstate-crust.xmf,696,-1.17617e-06,3.60708e-06,0,3.47621e-06,-7.25523e+08,-7.25195e+08,-7.25442e+08,238468,-0.0268334,0.176747,-0,0.178772,-17562.7,-26414.2,-0,31720,238468
step02_gravity_refstate-crust.xmf,697,1.03666e-05,-1.32267e-05,0,-6.06695e-07,-9.30347e+08,-9.31966e+08,-9.31058e+08,-41619.3,0.00209173,0.338335,0,0.338342,200.87,-33891.7,0,33892.3,41619.3
step02_gravity_refstate-crust.xmf,698,1.16555e-05,-1.50977e-05,0,8.71979e-07,-9.5053e+08,-9.52366e+08,-9.5133e+08,59817.8,-0.00276062,0.3487,-0,0.348711,-237.596,-34628.8,-0,34629.6,59817.8
step02_gravity_refstate-crust.xmf,699,3.96838e-06,-3.74412e-06,0,-3.85561e-06,-7.74609e+08,-7.75138e+08,-7.74881e+08,-264495,0.0204203,0.275992,0,0.276746,4188.07,-28210.7,0,28519.8,264495
step02_gravity_refstate-crust.xmf,700,1.46876e-06,-3.06695e-07,0,-3.88939e-06,-6.6681e+08,-6.66932e+08,-6.66911e+08,-266812,0.0246206,0.241941,0,0.243191,8542.7,-24281.4,0,25740.3,266812
step02_gravity_refstate-crust.xmf,701,4.60778e-06,-4.65797e-06,0,-3.85101e-06,-7.98239e+08,-7.98875e+08,-7.98556e+08,-264179,0.0193811,0.283174,0,0.283837,3579.58,-29072.1,0,29291.7,264179
step02_gravity_refstate-crust.xmf,702,5.3399e-06,-5.71504e-06,0,-3.76765e-06,-8.22209e+08,-8.22967e+08,-8.22575e+08,-258461,0.017993,0.291148,0,0.291704,2979.72,-29946.1,0,30094,258461
step02_gravity_refstate-crust.xmf,703,6.14257e-06,-6.85942e-06,0,-3.56685e-06,-8.44415e+08,-8.45307e+08,-8.44836e+08,-244686,0.0161656,0.299385,0,0.299821,2409.78,-30756,0,30850.3,244686
step02_gravity_refstate-crust.xmf,704,7.04912e-06,-8.31232e-06,0,-4.24313e-06,-8.8006e+08,-8.81114e+08,-8.80543e+08,-291078,0.0178173,0.309884,0,0.310396,2290.05,-32055.1,0,32136.8,291078
step02_gravity_refstate-crust.xmf,705,8.77976e-06,-1.08638e-05,0,-3.79192e-06,-9.12281e+08,-9.13628e+08,-9.12883e+08,-260126,0.0142369,0.325689,0,0.326,1539.84,-33231.2,0,33266.8,260126
step02_gravity_refstate-crust.xmf,706,9.95911e-07,3.51164e-07,0,-4.01025e-06,-6.66316e+08,-6.6636e+08,-6.66384e+08,-275103,0.026196,0.23371,0,0.235174,9849.77,-24262.5,0,26185.6,275103
step02_gravity_refstate-crust.xmf,707,3.79874e-07,1.15316e-06,0,-3.79427e-06,-6.34546e+08,-6.34493e+08,-6.34572e+08,-260287,0.0259289,0.220888,0,0.222405,12017.4,-23104.6,0,26043,260287
step02_gravity_refstate-crust.xmf,708,-1.02684e-06,2.59002e-06,0,-1.13862e-06,-4.52662e+08,-4.52413e+08,-4.52591e+08,-78109.4,0.00949143,0.152818,0,0.153113,31137.1,-16479.5,0,35229.1,78109.4
step02_gravity_refstate-crust.xmf,709,-5.7512e-08,1.74877e-06,0,-3.46347e-06,-6.01022e+08,-6.00898e+08,-6.01018e+08,-237594,0.0247354,0.208812,0,0.210272,14329.8,-21883.3,0,26157.6,237594
step02_gravity_refstate-crust.xmf,710,-3.21142e-07,2.11755e-06,0,-3.34131e-06,-5.99475e+08,-5.99307e+08,-5.99453e+08,-229214,0.0243897,0.200679,0,0.202156,15763.9,-21826.5,0,26923.9,229214
step02_gravity_refstate-crust.xmf,711,-9.51624e-07,2.698e-06,0,-1.772e-06,-4.91397e+08,-4.91147e+08,-4.91332e+08,-121560,0.0142732,0.16202,0,0.162647,26491.5,-17890.1,0,31966.5,121560
step02_gravity_refstate-crust.xmf,712,-7.38604e-07,2.64024e-06,0,-2.72114e-06,-5.60966e+08,-5.60734e+08,-5.60915e+08,-186670,0.0208777,0.181577,0,0.182774,20029.6,-20423.6,0,28606.1,186670
step02_gravity_refstate-crust.xmf,713,-8.64435e-07,2.68917e-06,0,-2.27521e-06,-5.23182e+08,-5.22938e+08,-5.23122e+08,-156079,0.0178169,0.172043,0,0.172963,22976.2,-19047.6,0,29844.9,156079
step02_gravity_refstate-crust.xmf,714,-5.575e-07,2.45839e-06,0,-3.16855e-06,-5.98549e+08,-5.98342e+08,-5.98511e+08,-217363,0.0236631,0.19208,0,0.193532,17315.1,-21792.3,0,27833.8,217363
step02_gravity_refstate-crust.xmf,715,-1.09407e-06,2.39024e-06,0,4.45969e-10,-4.07989e+08,-4.0775e+08,-4.07914e+08,30.5935,1.79618e-19,0.14694,0,0.14694,40000,-14852.5,0,42668.5,30.5935
step02_gravity_refstate-crust.xmf,716,7.04159e-06,-8.87156e-06,0,7.42541e-06,-9.28629e+08,-9.29721e+08,-9.29112e+08,509383,-0.0284945,0.317889,-0,0.319164,-3120.21,-33822.4,-0,33966,509383
step02_gravity_refstate-crust.xmf,717,3.72125e-06,-3.87039e-06,0,6.49001e-06,-8.58749e+08,-8.5927e+08,-8.59004e+08,445215,-0.031225,0.280192,-0,0.281927,-5161.59,-31272.7,-0,31695.8,445215
step02_gravity_refstate-crust.xmf,718,1.19675e-05,-1.60378e-05,0,5.2113e-06,-9.70918e+08,-9.72839e+08,-9.71739e+08,357495,-0.0159973,0.355818,-0,0.356178,-1256.81,-35370.8,-0,35393.1,357495
step02_gravity_refstate-crust.xmf,719,1.27584e-05,-1.68712e-05,0,2.68636e-06,-9.69224e+08,-9.71256e+08,-9.70099e+08,184284,-0.00798457,0.358631,-0,0.35872,-619.412,-35311,-0,35316.5,184284
step02_gravity_refstate-crust.xmf,720,-4.96017e-07,2.37482e-06,0,5.1431e-06,-7.94357e+08,-7.9416e+08,-7.94323e+08,352816,-0.0341718,0.211553,-0,0.214295,-11967.9,-28921,-0,31299.5,352816
step02_gravity_refstate-crust.xmf,721,-8.79836e-07,3.02917e-06,0,4.7621e-06,-7.92099e+08,-7.91831e+08,-7.92038e+08,326680,-0.0331413,0.200049,-0,0.202775,-13309.8,-28838.3,-0,31761.6,326680
step02_gravity_refstate-crust.xmf,722,-1.13878e-08,1.57424e-06,0,5.89227e-06,-8.25103e+08,-8.24994e+08,-8.25102e+08,404210,-0.036337,0.226269,-0,0.229168,-10184.4,-30041.1,-0,31720.5,404210
step02_gravity_refstate-crust.xmf,723,-1.11594e-06,3.75009e-06,0,8.54437e-07,-6.35794e+08,-6.35461e+08,-6.35718e+08,58614.4,-0.00743602,0.127661,-0,0.127877,-33098.7,-23148,-0,40390,58614.4
step02_gravity_refstate-crust.xmf,724,-1.16064e-06,3.77976e-06,0,1.15995e-06,-6.39239e+08,-6.389e+08,-6.3916e+08,79572.6,-0.0100168,0.131949,-0,0.132329,-30815.9,-23273.3,-0,38616.9,79572.6
step02_gravity_refstate-crust.xmf,725,-1.18883e-06,3.77058e-06,0,1.47047e-06,-6.39484e+08,-6.39144e+08,-6.39402e+08,100874,-0.0125618,0.137741,-0,0.138313,-28640.1,-23282.1,-0,36909.5,100874
step02_gravity_refstate-crust.xmf,726,-1.20042e-06,3.67853e-06,0,2.91313e-06,-6.89044e+08,-6.88709e+08,-6.88962e+08,199841,-0.0232763,0.166754,-0,0.168371,-20068.6,-25086.2,-0,32125.8,199841
step02_gravity_refstate-crust.xmf,727,-1.28551e-06,4.03952e-06,0,1.89328e-06,-6.84924e+08,-6.84558e+08,-6.84836e+08,129879,-0.0162005,0.141535,-0,0.142459,-25620.7,-24936.4,-0,35752.5,129879
step02_gravity_refstate-crust.xmf,728,-1.29729e-06,3.97808e-06,0,2.22133e-06,-6.86408e+08,-6.86046e+08,-6.86319e+08,152383,-0.0186435,0.149112,-0,0.150273,-23725.4,-24990.3,-0,34458.8,152383
step02_gravity_refstate-crust.xmf,729,-1.27506e-06,3.86838e-06,0,2.56117e-06,-6.88382e+08,-6.88029e+08,-6.88294e+08,175696,-0.0210209,0.15742,-0,0.158817,-21882.2,-25062.1,-0,33270.7,175696
step02_gravity_refstate-crust.xmf,730,-1.05284e-06,3.37514e-06,0,4.07726e-06,-7.57438e+08,-7.57134e+08,-7.57365e+08,279700,-0.0300729,0.18811,-0,0.190498,-15324.1,-27576.2,-0,31548,279700
step02_gravity_refstate-crust.xmf,731,-1.26181e-06,3.76969e-06,0,3.69842e-06,-7.56366e+08,-7.56021e+08,-7.5628e+08,253711,-0.0283193,0.17763,-0,0.179874,-16808.2,-27537,-0,32261.5,253711
step02_gravity_refstate-crust.xmf,732,-1.35833e-06,3.9947e-06,0,3.10103e-06,-7.34554e+08,-7.34187e+08,-7.34461e+08,212730,-0.024798,0.164947,-0,0.166801,-19270.3,-26742.9,-0,32962.5,212730
step02_gravity_refstate-crust.xmf,733,-1.06193e-06,3.67835e-06,0,9.10375e-10,-6.2701e+08,-6.26685e+08,-6.26937e+08,62.4517,-4.09051e-19,0.122708,-0,0.122708,-40000,-22828.3,-0,46055.8,62.4517
step02_gravity_refstate-crust.xmf,734,-1.05629e-06,3.82793e-06,0,2.34403e-07,-6.53097e+08,-6.52762e+08,-6.53025e+08,16080.1,-0.00209069,0.119658,-0,0.119677,-38001.9,-23778.3,-0,44828,16080.1
step02_gravity_refstate-crust.xmf,735,1.00823e-05,-1.28012e-05,0,-2.98098e-06,-9.31161e+08,-9.32731e+08,-9.31853e+08,-204495,0.0104389,0.336526,0,0.336688,1011.46,-33920.8,0,33935.9,204495
step02_gravity_refstate-crust.xmf,736,3.44356e-06,-3.10038e-06,0,-4.60755e-06,-7.83121e+08,-7.8357e+08,-7.83358e+08,-316078,0.0245652,0.270821,0,0.271933,5142.61,-28519.5,0,28979.4,316078
step02_gravity_refstate-crust.xmf,737,1.75649e-06,-6.82564e-07,0,-4.09953e-06,-6.96259e+08,-6.96427e+08,-6.9638e+08,-281228,0.0253304,0.246744,0,0.24804,7861.32,-25354.1,0,26544.9,281228
step02_gravity_refstate-crust.xmf,738,2.08551e-06,-1.18249e-06,0,-4.35824e-06,-7.24779e+08,-7.25003e+08,-7.24922e+08,-298975,0.0259023,0.252201,0,0.253528,7182.15,-26392.9,0,27352.7,298975
step02_gravity_refstate-crust.xmf,739,2.4673e-06,-1.74569e-06,0,-4.61547e-06,-7.52676e+08,-7.52965e+08,-7.52846e+08,-316621,0.0263937,0.258182,0,0.259527,6536.04,-27409.2,0,28177.7,316621
step02_gravity_refstate-crust.xmf,740,6.38345e-06,-7.33232e-06,0,-4.51245e-06,-8.67646e+08,-8.68587e+08,-8.68084e+08,-309554,0.0196738,0.30354,0,0.304177,2710,-31602,0,31718,309554
step02_gravity_refstate-crust.xmf,741,7.72057e-06,-9.36754e-06,0,-4.40419e-06,-8.97182e+08,-8.98355e+08,-8.97712e+08,-302127,0.0174618,0.316867,0,0.317348,2065.41,-32679.6,0,32744.8,302127
step02_gravity_refstate-crust.xmf,742,5.12472e-07,9.80194e-07,0,-4.08272e-06,-6.67913e+08,-6.67881e+08,-6.67948e+08,-280074,0.0273209,0.224613,0,0.226268,11231.4,-24319.6,0,26787.9,280074
step02_gravity_refstate-crust.xmf,743,7.7587e-10,1.68266e-06,0,-3.7457e-06,-6.36452e+08,-6.36337e+08,-6.36452e+08,-256955,0.0262956,0.211775,0,0.213401,13466.6,-23173.3,0,26802,256955
step02_gravity_refstate-crust.xmf,744,-1.01892e-06,2.81541e-06,0,-1.49027e-06,-4.97088e+08,-4.96825e+08,-4.97018e+08,-102232,0.0121671,0.15475,0,0.155228,28654,-18097.2,0,33890.4,102232
step02_gravity_refstate-crust.xmf,745,-1.05807e-06,2.88632e-06,0,-1.17867e-06,-4.99846e+08,-4.99576e+08,-4.99774e+08,-80856.7,0.00973588,0.148434,0,0.148753,30996.5,-18197.6,0,35943.5,80856.7
step02_gravity_refstate-crust.xmf,746,-8.95155e-07,2.87567e-06,0,-2.48918e-06,-5.64563e+08,-5.64304e+08,-5.64501e+08,-170757,0.0194674,0.172789,0,0.173882,21832.4,-20554.3,0,29985.6,170757
step02_gravity_refstate-crust.xmf,747,-1.00185e-06,2.98597e-06,0,-2.01696e-06,-5.4466e+08,-5.44386e+08,-5.44591e+08,-138364,0.0161355,0.161597,0,0.162401,25055.7,-19829.4,0,31953,138364
step02_gravity_refstate-crust.xmf,748,-7.79895e-07,2.78156e-06,0,-2.9601e-06,-6.01231e+08,-6.00987e+08,-6.01178e+08,-203063,0.0225989,0.182748,0,0.18414,19006,-21889.6,0,28989.4,203063
step02_gravity_refstate-crust.xmf,749,-1.08778e-06,2.60276e-06,0,-3.03803e-07,-4.4471e+08,-4.44456e+08,-4.44635e+08,-20840.9,0.00258354,0.14432,0,0.144343,37627.7,-16189.7,0,40962.8,20840.9
step02_gravity_refstate-crust.xmf,750,-1.08393e-06,2.80987e-06,0,-6.13704e-07,-4.80757e+08,-4.8049e+08,-4.80683e+08,-42100.1,0.00514416,0.14292,0,0.143013,35264.7,-17502.4,0,39369.2,42100.1
step02_gravity_refstate-crust.xmf,751,4.24793e-06,-4.76284e-06,0,7.06601e-06,-8.82984e+08,-8.83602e+08,-8.83276e+08,484729,-0.0320827,0.288423,-0,0.290201,-4740.29,-32155.7,-0,32503.3,484729
step02_gravity_refstate-crust.xmf,752,4.82975e-06,-5.77198e-06,0,7.74065e-06,-9.06491e+08,-9.07219e+08,-9.06823e+08,531008,-0.0330088,0.297377,-0,0.299203,-4351.71,-33012.3,-0,33297.9,531008
step02_gravity_refstate-crust.xmf,753,5.52884e-06,-6.9698e-06,0,8.4376e-06,-9.27938e+08,-9.28796e+08,-9.28318e+08,578819,-0.0336729,0.30724,-0,0.30908,-3960.53,-33794.1,-0,34025.4,578819
step02_gravity_refstate-crust.xmf,754,8.1748e-06,-1.06354e-05,0,7.91077e-06,-9.48748e+08,-9.50038e+08,-9.49309e+08,542679,-0.0281742,0.329585,-0,0.330787,-2736.09,-34556.7,-0,34664.9,542679
step02_gravity_refstate-crust.xmf,755,1.05019e-05,-1.41436e-05,0,7.52506e-06,-9.69282e+08,-9.70973e+08,-9.70003e+08,516219,-0.0237991,0.347956,-0,0.348769,-1967.91,-35308.3,-0,35363.1,516219
step02_gravity_refstate-crust.xmf,756,1.37047e-05,-1.87185e-05,0,5.00767e-06,-9.87218e+08,-9.89442e+08,-9.88158e+08,343526,-0.0139749,0.368243,-0,0.368508,-980.326,-35967.1,-0,35980.5,343526
step02_gravity_refstate-crust.xmf,757,2.67818e-06,-2.45698e-06,0,6.81062e-06,-8.57005e+08,-8.57357e+08,-8.57188e+08,467209,-0.0342873,0.269308,-0,0.271482,-6173.93,-31207.1,-0,31812,467209
step02_gravity_refstate-crust.xmf,758,-5.55412e-07,2.42064e-06,0,5.53827e-06,-8.23166e+08,-8.22961e+08,-8.23127e+08,379925,-0.0358561,0.214194,-0,0.217174,-11415.8,-29969.7,-0,32070.3,379925
step02_gravity_refstate-crust.xmf,759,-1.17982e-06,3.54032e-06,0,4.36166e-06,-7.89226e+08,-7.88902e+08,-7.89145e+08,299210,-0.0316409,0.189144,-0,0.191772,-14670.9,-28733.3,-0,32262,299210
step02_gravity_refstate-crust.xmf,760,1.57704e-06,-9.04269e-07,0,6.94199e-06,-8.57656e+08,-8.57826e+08,-8.57764e+08,476221,-0.0368695,0.256051,-0,0.258692,-7366.75,-31228.8,-0,32085.9,476221
step02_gravity_refstate-crust.xmf,761,7.90066e-07,2.57296e-07,0,6.63379e-06,-8.48337e+08,-8.48373e+08,-8.48391e+08,455078,-0.0373387,0.243893,-0,0.246734,-8442.3,-30888.1,-0,32021.1,455078
step02_gravity_refstate-crust.xmf,762,-1.44758e-08,1.43672e-06,0,6.48958e-06,-8.54891e+08,-8.54791e+08,-8.5489e+08,445185,-0.0382365,0.231273,-0,0.234413,-9558.48,-31125.3,-0,32559.9,445185
step02_gravity_refstate-crust.xmf,763,-1.07644e-06,4.05235e-06,0,6.61316e-07,-6.89623e+08,-6.89271e+08,-6.89549e+08,45366.3,-0.00595727,0.118155,-0,0.118305,-34235,-25108.3,-0,42455.4,45366.3
step02_gravity_refstate-crust.xmf,764,-1.25028e-06,4.07711e-06,0,1.575e-06,-6.85742e+08,-6.85377e+08,-6.85656e+08,108045,-0.0137101,0.134429,-0,0.135127,-27585.4,-24966.4,-0,37205.9,108045
step02_gravity_refstate-crust.xmf,765,-1.39477e-06,4.05742e-06,0,3.33639e-06,-7.55986e+08,-7.55611e+08,-7.5589e+08,228877,-0.0264139,0.168182,-0,0.170244,-18236,-27523,-0,33016.2,228877
step02_gravity_refstate-crust.xmf,766,-1.04716e-06,4.03185e-06,0,4.29502e-07,-6.89178e+08,-6.8883e+08,-6.89106e+08,29463.8,-0.00387869,0.11583,-0,0.115895,-36200.5,-25092.2,-0,44046.5,29463.8
step02_gravity_refstate-crust.xmf,767,1.13908e-05,-1.48798e-05,0,-1.96519e-06,-9.50038e+08,-9.5184e+08,-9.50819e+08,-134812,0.00639114,0.347753,0,0.347812,553.761,-34610.1,0,34614.5,134812
step02_gravity_refstate-crust.xmf,768,1.2933e-05,-1.70763e-05,0,-3.12853e-07,-9.6872e+08,-9.70778e+08,-9.69607e+08,-21461.7,0.00114554,0.359534,0,0.359536,88.5507,-35293.1,0,35293.2,21461.7
step02_gravity_refstate-crust.xmf,769,1.45955e-05,-1.96434e-05,0,1.77164e-06,-9.87716e+08,-9.90065e+08,-9.88717e+08,121535,-0.00473037,0.371954,-0,0.371984,-324.251,-35987.4,-0,35988.9,121535
step02_gravity_refstate-crust.xmf,770,3.93363e-06,-3.79771e-06,0,-4.64842e-06,-8.01679e+08,-8.0221e+08,-8.01949e+08,-318882,0.023989,0.277014,0,0.278051,4600.43,-29196,0,29556.2,318882
step02_gravity_refstate-crust.xmf,771,2.78513e-06,-2.23931e-06,0,-4.98384e-06,-7.8091e+08,-7.81255e+08,-7.81101e+08,-341891,0.02739,0.263428,0,0.264848,6104.6,-28437.6,0,29085.5,341891
step02_gravity_refstate-crust.xmf,772,1.20178e-06,2.96687e-08,0,-4.31762e-06,-6.97728e+08,-6.97808e+08,-6.9781e+08,-296188,0.0273152,0.238175,0,0.239737,9143.88,-25406.4,0,27001.8,296188
step02_gravity_refstate-crust.xmf,773,9.25639e-06,-1.17775e-05,0,-5.06773e-06,-9.32162e+08,-9.33605e+08,-9.32797e+08,-347647,0.0180598,0.33219,0,0.33268,1792.59,-33955.5,0,34002.8,347647
step02_gravity_refstate-crust.xmf,774,4.59166e-06,-4.78257e-06,0,-4.78494e-06,-8.24704e+08,-8.25347e+08,-8.25019e+08,-328247,0.0233422,0.284792,0,0.285747,4021.23,-30035.3,0,30303.3,328247
step02_gravity_refstate-crust.xmf,775,5.41285e-06,-6.0276e-06,0,-4.93477e-06,-8.51084e+08,-8.51868e+08,-8.51455e+08,-338525,0.0225785,0.29429,0,0.295154,3434.07,-30997.1,0,31186.8,338525
step02_gravity_refstate-crust.xmf,776,6.80465e-06,-8.14213e-06,0,-5.41123e-06,-8.91842e+08,-8.92868e+08,-8.92309e+08,-371211,0.0222814,0.309706,0,0.310506,2793.34,-32483.3,0,32603.2,371211
step02_gravity_refstate-crust.xmf,777,7.92454e-06,-9.84421e-06,0,-5.46698e-06,-9.14078e+08,-9.15297e+08,-9.14622e+08,-375035,0.02092,0.320843,0,0.321525,2322.6,-33294.8,0,33375.7,375035
step02_gravity_refstate-crust.xmf,778,6.83744e-07,7.68119e-07,0,-4.37431e-06,-6.99384e+08,-6.99378e+08,-6.99431e+08,-300077,0.0286575,0.228841,0,0.230628,10469.5,-25465.7,0,27533.9,300077
step02_gravity_refstate-crust.xmf,779,7.84272e-08,1.58969e-06,0,-4.03928e-06,-6.70069e+08,-6.69965e+08,-6.70074e+08,-277095,0.0278515,0.215044,0,0.21684,12648,-24397.3,0,27480.9,277095
step02_gravity_refstate-crust.xmf,780,-3.12771e-07,2.15643e-06,0,-3.60713e-06,-6.37102e+08,-6.36933e+08,-6.37081e+08,-247449,0.0260841,0.202593,0,0.204265,14943.4,-23196.4,0,27593.1,247449
step02_gravity_refstate-crust.xmf,781,-5.82489e-07,2.55835e-06,0,-3.42647e-06,-6.37902e+08,-6.37687e+08,-6.37862e+08,-235056,0.0254286,0.193496,0,0.19516,16437.9,-23225.1,0,28453.6,235056
step02_gravity_refstate-crust.xmf,782,-1.06389e-06,3.10872e-06,0,-1.67136e-06,-5.46499e+08,-5.46212e+08,-5.46426e+08,-114656,0.0136368,0.152961,0,0.153568,27482.8,-19896.3,0,33928.8,114656
step02_gravity_refstate-crust.xmf,783,-9.32853e-07,3.054e-06,0,-2.70707e-06,-6.04543e+08,-6.04269e+08,-6.04479e+08,-185705,0.0211884,0.17366,0,0.174948,20728.8,-22009.9,0,30234.4,185705
step02_gravity_refstate-crust.xmf,784,-9.80475e-07,3.02542e-06,0,-2.26424e-06,-5.6573e+08,-5.65456e+08,-5.65663e+08,-155327,0.0180133,0.165852,0,0.166827,23400.4,-20596.7,0,31173.8,155327
step02_gravity_refstate-crust.xmf,785,-8.14612e-07,2.92523e-06,0,-3.19653e-06,-6.40524e+08,-6.40268e+08,-6.40469e+08,-219282,0.0243717,0.18392,0,0.185528,18040.9,-23320.2,0,29484,219282
step02_gravity_refstate-crust.xmf,786,-1.09051e-06,3.05405e-06,0,-8.69288e-07,-5.22344e+08,-5.2206e+08,-5.22269e+08,-59633.2,0.00725816,0.141316,0,0.141502,33331.2,-19016.8,0,38374.5,59633.2
step02_gravity_refstate-crust.xmf,787,-1.08892e-06,2.83279e-06,0,-1.51988e-10,-4.8272e+08,-4.82451e+08,-4.82645e+08,-10.4264,1.81017e-19,0.139833,0,0.139833,40000,-17573.9,0,43690.3,10.4264
step02_gravity_refstate-crust.xmf,788,6.45098e-06,-8.38074e-06,0,9.09213e-06,-9.48077e+08,-9.49095e+08,-9.4852e+08,623720,-0.0340049,0.318444,-0,0.320254,-3551.91,-34528.8,-0,34711,623720
step02_gravity_refstate-crust.xmf,789,3.10616e-06,-3.21744e-06,0,7.43872e-06,-8.81918e+08,-8.82352e+08,-8.82131e+08,510296,-0.0354044,0.277485,-0,0.279735,-5676.57,-32114.7,-0,32612.5,510296
step02_gravity_refstate-crust.xmf,790,9.37277e-06,-1.24297e-05,0,7.60262e-06,-9.58728e+08,-9.60223e+08,-9.59371e+08,521540,-0.0255094,0.339253,-0,0.340211,-2279.76,-34922.1,-0,34996.4,521540
step02_gravity_refstate-crust.xmf,791,1.21017e-05,-1.66002e-05,0,7.66526e-06,-9.86482e+08,-9.88451e+08,-9.87312e+08,525837,-0.0224636,0.361296,-0,0.361994,-1644.79,-35937.1,-0,35974.7,525837
step02_gravity_refstate-crust.xmf,792,-9.87125e-07,3.10924e-06,0,5.13522e-06,-8.2124e+08,-8.20959e+08,-8.21172e+08,352276,-0.034801,0.202536,-0,0.205504,-12663.6,-29898.9,-0,32470.2,352276
step02_gravity_refstate-crust.xmf,793,-1.3419e-06,3.75117e-06,0,4.67613e-06,-8.22865e+08,-8.22516e+08,-8.22773e+08,320782,-0.0332322,0.189907,-0,0.192792,-14045.6,-29957.6,-0,33086.8,320782
step02_gravity_refstate-crust.xmf,794,-6.20336e-07,2.42684e-06,0,5.9759e-06,-8.49206e+08,-8.48997e+08,-8.49164e+08,409947,-0.0374722,0.217553,-0,0.220757,-10858.7,-30917.5,-0,32768.9,409947
step02_gravity_refstate-crust.xmf,795,-1.13027e-06,4.08478e-06,0,9.36173e-07,-6.90614e+08,-6.90256e+08,-6.90536e+08,64221.5,-0.00839201,0.121904,-0,0.122192,-32023.3,-25144.2,-0,40715.2,64221.5
step02_gravity_refstate-crust.xmf,796,-1.20634e-06,4.16145e-06,0,1.23034e-06,-6.98786e+08,-6.98418e+08,-6.98703e+08,84401.5,-0.0109508,0.125981,-0,0.126456,-29772.2,-25441.6,-0,39162,84401.5
step02_gravity_refstate-crust.xmf,797,-1.41106e-06,4.18466e-06,0,2.69936e-06,-7.3204e+08,-7.31656e+08,-7.31943e+08,185176,-0.0222928,0.155164,-0,0.156758,-21075.6,-26651.4,-0,33977.6,185176
step02_gravity_refstate-crust.xmf,798,-1.32449e-06,4.37654e-06,0,1.65456e-06,-7.28942e+08,-7.28551e+08,-7.28851e+08,113503,-0.0146543,0.131124,-0,0.13194,-26610,-26539.3,-0,37582.2,113503
step02_gravity_refstate-crust.xmf,799,-1.38192e-06,4.36531e-06,0,1.97192e-06,-7.30302e+08,-7.29908e+08,-7.30207e+08,135274,-0.0171494,0.138071,-0,0.139132,-24749.7,-26588.5,-0,36324.9,135274
step02_gravity_refstate-crust.xmf,800,-1.4143e-06,4.30837e-06,0,2.31272e-06,-7.31147e+08,-7.30754e+08,-7.3105e+08,158652,-0.0196656,0.145941,-0,0.14726,-22940.9,-26619.1,-0,35140.6,158652
step02_gravity_refstate-crust.xmf,801,-1.386e-06,3.96282e-06,0,3.93278e-06,-7.87605e+08,-7.87238e+08,-7.8751e+08,269788,-0.0297472,0.178186,-0,0.180652,-16118.3,-28674.1,-0,32893.8,269788
step02_gravity_refstate-crust.xmf,802,-1.51889e-06,4.27885e-06,0,3.50276e-06,-7.86018e+08,-7.8562e+08,-7.85914e+08,240290,-0.0275507,0.167743,-0,0.16999,-17614.7,-28616.2,-0,33603.1,240290
step02_gravity_refstate-crust.xmf,803,-1.55743e-06,4.44204e-06,0,3.10309e-06,-7.79621e+08,-7.7921e+08,-7.79514e+08,212872,-0.0252189,0.158948,-0,0.160936,-19119.2,-28383.5,-0,34222.3,212872
step02_gravity_refstate-crust.xmf,804,-1.00248e-06,4.05378e-06,0,2.51491e-09,-6.96972e+08,-6.96625e+08,-6.96903e+08,172.523,-4.18479e-19,0.112857,-0,0.112857,-40000,-25376.2,-0,47370.4,172.523
step02_gravity_refstate-crust.xmf,805,-1.00798e-06,4.29941e-06,0,4.8038e-07,-7.39333e+08,-7.38969e+08,-7.39264e+08,32954.1,-0.0044696,0.109121,-0,0.109213,-35353.2,-26918.7,-0,44434.9,32954.1
step02_gravity_refstate-crust.xmf,806,-9.71014e-07,4.24308e-06,0,2.30344e-07,-7.33362e+08,-7.33004e+08,-7.33295e+08,15801.6,-0.00211513,0.107974,-0,0.107995,-37788.5,-26701.4,-0,46270.3,15801.6
step02_gravity_refstate-crust.xmf,807,1.06703e-05,-1.39158e-05,0,-4.49784e-06,-9.49342e+08,-9.51029e+08,-9.50074e+08,-308552,0.0148999,0.343587,0,0.34391,1325.89,-34583.4,0,34608.8,308552
step02_gravity_refstate-crust.xmf,808,1.58829e-05,-2.17822e-05,0,4.52281e-06,-1.0044e+09,-1.00698e+09,-1.00549e+09,310265,-0.0112799,0.382956,-0,0.383122,-695.003,-36596.6,-0,36603.2,310265
step02_gravity_refstate-crust.xmf,809,3.20689e-06,-2.87811e-06,0,-5.26658e-06,-8.04266e+08,-8.04684e+08,-8.04486e+08,-361288,0.0277615,0.269619,0,0.271045,5598.22,-29288.6,0,29818.9,361288
step02_gravity_refstate-crust.xmf,810,1.47102e-06,-3.31778e-07,0,-4.59827e-06,-7.27025e+08,-7.27149e+08,-7.27126e+08,-315441,0.0282979,0.243268,0,0.244909,8447.99,-26473.5,0,27788.8,315441
step02_gravity_refstate-crust.xmf,811,1.77128e-06,-8.20933e-07,0,-4.93482e-06,-7.54618e+08,-7.54796e+08,-7.5474e+08,-338529,0.029122,0.249066,0,0.250762,7756.98,-27478.5,0,28552.4,338529
step02_gravity_refstate-crust.xmf,812,2.07926e-06,-1.30139e-06,0,-5.28724e-06,-7.8117e+08,-7.81402e+08,-7.81313e+08,-362705,0.0300118,0.254778,0,0.25654,7174.31,-28445.7,0,29336.5,362705
step02_gravity_refstate-crust.xmf,813,5.86936e-06,-6.78591e-06,0,-5.57818e-06,-8.75671e+08,-8.76539e+08,-8.76073e+08,-382663,0.024233,0.30072,0,0.301695,3342.36,-31892.9,0,32067.6,382663
step02_gravity_refstate-crust.xmf,814,1.79952e-07,1.44491e-06,0,-4.35803e-06,-7.01806e+08,-7.01719e+08,-7.01818e+08,-298961,0.0293756,0.218925,0,0.220888,11835.3,-25552.9,0,28160.7,298961
step02_gravity_refstate-crust.xmf,815,-3.01311e-07,2.1435e-06,0,-3.90965e-06,-6.72393e+08,-6.72225e+08,-6.72372e+08,-268202,0.027797,0.205206,0,0.20708,14098.6,-24481.2,0,28250.7,268202
step02_gravity_refstate-crust.xmf,816,-1.09439e-06,3.19872e-06,0,-1.36836e-06,-5.5171e+08,-5.51416e+08,-5.51635e+08,-93869.6,0.0113214,0.146039,0,0.146478,29644,-20086.1,0,35808.1,93869.6
step02_gravity_refstate-crust.xmf,817,-1.04739e-06,3.25345e-06,0,-2.44281e-06,-6.06575e+08,-6.0628e+08,-6.06503e+08,-167577,0.0195097,0.165313,0,0.16646,22450.5,-22083.8,0,31491.6,167577
step02_gravity_refstate-crust.xmf,818,-1.09869e-06,3.35046e-06,0,-2.1513e-06,-6.01209e+08,-6.00904e+08,-6.01134e+08,-147580,0.0174565,0.158004,0,0.158965,24306.4,-21888.4,0,32709.3,147580
step02_gravity_refstate-crust.xmf,819,-1.13196e-06,3.43139e-06,0,-1.8372e-06,-5.98565e+08,-5.98252e+08,-5.98488e+08,-126032,0.0151462,0.150545,0,0.151305,26358.1,-21792.1,0,34200.1,126032
step02_gravity_refstate-crust.xmf,820,-9.88856e-07,3.203e-06,0,-2.94556e-06,-6.41868e+08,-6.41581e+08,-6.418e+08,-202065,0.0229672,0.175039,0,0.176539,19627.4,-23368.8,0,30517.8,202065
step02_gravity_refstate-crust.xmf,821,-1.10602e-06,3.28095e-06,0,-1.07185e-06,-5.60157e+08,-5.59856e+08,-5.60081e+08,-73529.1,0.00898107,0.139928,0,0.140216,31782.7,-20393.7,0,37762.9,73529.1
step02_gravity_refstate-crust.xmf,822,-1.09063e-06,3.05392e-06,0,-3.10132e-07,-5.19905e+08,-5.19621e+08,-5.1983e+08,-21275.1,0.00260895,0.136591,0,0.136616,37602.1,-18928,0,42097.4,21275.1
step02_gravity_refstate-crust.xmf,823,-1.09804e-06,3.25635e-06,0,-5.94179e-07,-5.53918e+08,-5.53619e+08,-5.53843e+08,-40760.7,0.00501872,0.134694,0,0.134788,35386.9,-20166.5,0,40729.9,40760.7
step02_gravity_refstate-crust.xmf,824,3.53938e-06,-4.02568e-06,0,8.16886e-06,-9.05559e+08,-9.06078e+08,-9.05802e+08,560384,-0.0366174,0.285961,-0,0.288296,-5242.25,-32975.9,-0,33390,560384
step02_gravity_refstate-crust.xmf,825,4.04963e-06,-4.97627e-06,0,8.96141e-06,-9.27389e+08,-9.28008e+08,-9.27667e+08,614753,-0.0376983,0.295282,-0,0.297679,-4817.89,-33771.2,-0,34113.2,614753
step02_gravity_refstate-crust.xmf,826,4.69643e-06,-6.14595e-06,0,9.79002e-06,-9.47281e+08,-9.48025e+08,-9.47603e+08,671595,-0.0384897,0.305759,-0,0.308172,-4382.23,-34496.2,-0,34773.4,671595
step02_gravity_refstate-crust.xmf,827,9.02721e-06,-1.23121e-05,0,9.11338e-06,-9.70115e+08,-9.71579e+08,-9.70734e+08,625178,-0.0297495,0.340679,-0,0.341975,-2566.94,-35335.5,-0,35428.6,625178
step02_gravity_refstate-crust.xmf,828,7.33863e-06,-9.89779e-06,0,9.95506e-06,-9.67073e+08,-9.68255e+08,-9.67576e+08,682917,-0.0346189,0.329677,-0,0.33149,-3222.87,-35221.6,-0,35368.8,682917
step02_gravity_refstate-crust.xmf,829,1.01783e-05,-1.41926e-05,0,9.72942e-06,-9.85144e+08,-9.86816e+08,-9.85843e+08,667438,-0.0296034,0.35166,-0,0.352904,-2304.9,-35884.4,-0,35958.3,667438
step02_gravity_refstate-crust.xmf,830,1.40799e-05,-1.97987e-05,0,7.96524e-06,-1.00318e+09,-1.0055e+09,-1.00415e+09,546415,-0.0209481,0.3758,-0,0.376384,-1350.26,-36548.1,-0,36573,546415
step02_gravity_refstate-crust.xmf,831,2.07342e-06,-1.79599e-06,0,7.58431e-06,-8.82359e+08,-8.82625e+08,-8.82502e+08,520283,-0.0378098,0.266451,-0,0.26912,-6587.74,-32128.8,-0,32797.2,520283
step02_gravity_refstate-crust.xmf,832,-1.07155e-06,3.18552e-06,0,5.50508e-06,-8.47217e+08,-8.46925e+08,-8.47143e+08,377649,-0.0363439,0.205275,-0,0.208468,-12070.6,-30844.4,-0,33122.1,377649
step02_gravity_refstate-crust.xmf,833,-1.5935e-06,4.2638e-06,0,4.19446e-06,-8.25293e+08,-8.24891e+08,-8.25184e+08,287740,-0.0312092,0.177767,-0,0.180486,-15446.5,-30045.8,-0,33783.8,287740
step02_gravity_refstate-crust.xmf,834,4.30424e-07,6.69093e-07,0,7.15421e-06,-8.77004e+08,-8.76988e+08,-8.77034e+08,490779,-0.039605,0.242907,-0,0.246115,-8485.84,-31931,-0,33039.3,490779
step02_gravity_refstate-crust.xmf,835,-7.99236e-07,2.58045e-06,0,6.42168e-06,-8.7662e+08,-8.76388e+08,-8.76565e+08,440527,-0.0391062,0.219532,-0,0.222988,-10453.4,-31915,-0,33583.3,440527
step02_gravity_refstate-crust.xmf,836,-1.05798e-06,4.35877e-06,0,7.12108e-07,-7.43319e+08,-7.42947e+08,-7.43246e+08,48850.6,-0.00661644,0.111523,-0,0.111719,-33231.1,-27063.7,-0,42857.4,48850.6
step02_gravity_refstate-crust.xmf,837,-1.26539e-06,4.38054e-06,0,1.39038e-06,-7.30497e+08,-7.3011e+08,-7.3041e+08,95380.3,-0.0124983,0.125359,-0,0.12598,-28271.7,-26596.1,-0,38815.5,95380.3
step02_gravity_refstate-crust.xmf,838,-1.5664e-06,4.57589e-06,0,2.71794e-06,-7.76707e+08,-7.76285e+08,-7.76599e+08,186451,-0.0227753,0.150152,-0,0.15187,-20690.2,-28277.5,-0,35038.6,186451
step02_gravity_refstate-crust.xmf,839,1.23237e-05,-1.63269e-05,0,-3.84408e-06,-9.6839e+08,-9.70355e+08,-9.69235e+08,-263704,0.0118546,0.356573,0,0.35677,932.64,-35279.8,0,35292.1,263704
step02_gravity_refstate-crust.xmf,840,1.49042e-05,-2.02259e-05,0,-1.66993e-06,-9.9071e+08,-9.9312e+08,-9.91733e+08,-114557,0.0044988,0.374194,0,0.374221,302.231,-36096.8,0,36098.1,114557
step02_gravity_refstate-crust.xmf,841,1.673e-05,-2.29587e-05,0,3.39456e-07,-1.00574e+09,-1.00846e+09,-1.00689e+09,23286.7,-0.000729356,0.386432,-0,0.386433,-43.9002,-36647.2,-0,36647.2,23286.7
step02_gravity_refstate-crust.xmf,842,3.73921e-06,-3.65168e-06,0,-5.49035e-06,-8.26418e+08,-8.26925e+08,-8.26675e+08,-376638,0.0277544,0.276858,0,0.278246,5046.95,-30096.1,0,30516.3,376638
step02_gravity_refstate-crust.xmf,843,2.43182e-06,-1.85712e-06,0,-5.65107e-06,-8.05698e+08,-8.05992e+08,-8.05865e+08,-387663,0.0307576,0.260964,0,0.26277,6618.87,-29339.2,0,30076.5,387663
step02_gravity_refstate-crust.xmf,844,8.62598e-07,4.63287e-07,0,-4.73218e-06,-7.29624e+08,-7.29651e+08,-7.29683e+08,-324627,0.0299472,0.233682,0,0.235593,9720.75,-26566.9,0,28289.5,324627
step02_gravity_refstate-crust.xmf,845,9.60949e-06,-1.25454e-05,0,-6.27867e-06,-9.48488e+08,-9.50008e+08,-9.49147e+08,-430717,0.0214094,0.337812,0,0.33849,1977.17,-34550.1,0,34606.6,430717
step02_gravity_refstate-crust.xmf,846,8.04521e-06,-1.03886e-05,0,-7.05829e-06,-9.36174e+08,-9.37439e+08,-9.36726e+08,-484199,0.0256524,0.326122,0,0.327129,2620.08,-34098.8,0,34199.3,484199
step02_gravity_refstate-crust.xmf,847,4.3783e-06,-4.67093e-06,0,-5.8022e-06,-8.49563e+08,-8.50184e+08,-8.49863e+08,-398031,0.0276141,0.285213,0,0.286547,4491.02,-30939.7,0,31263.9,398031
step02_gravity_refstate-crust.xmf,848,4.99101e-06,-5.6506e-06,0,-6.24234e-06,-8.73383e+08,-8.74113e+08,-8.73726e+08,-428224,0.0280357,0.29343,0,0.294766,4084.37,-31807.8,0,32069,428224
step02_gravity_refstate-crust.xmf,849,5.74268e-06,-6.82476e-06,0,-6.61385e-06,-8.94596e+08,-8.95458e+08,-8.9499e+08,-453710,0.0279643,0.302448,0,0.303738,3656.25,-32581.3,0,32785.8,453710
step02_gravity_refstate-crust.xmf,850,6.75545e-06,-8.37993e-06,0,-6.85631e-06,-9.14755e+08,-9.15794e+08,-9.15219e+08,-470343,0.0270501,0.313233,0,0.314399,3149.16,-33316.9,0,33465.4,470343
step02_gravity_refstate-crust.xmf,851,3.24015e-07,1.25624e-06,0,-4.6865e-06,-7.31718e+08,-7.31654e+08,-7.31741e+08,-321494,0.0308469,0.223416,0,0.225535,11038.4,-26642.2,0,28838.4,321494
step02_gravity_refstate-crust.xmf,852,-2.54361e-07,2.08026e-06,0,-4.2271e-06,-7.04734e+08,-7.04574e+08,-7.04717e+08,-289979,0.0294699,0.208629,0,0.2107,13238.7,-25658.8,0,28872.8,289979
step02_gravity_refstate-crust.xmf,853,-6.0628e-07,2.63336e-06,0,-3.6995e-06,-6.74479e+08,-6.74257e+08,-6.74438e+08,-253785,0.0271939,0.195289,0,0.197173,15588.4,-24556.7,0,29086.6,253785
step02_gravity_refstate-crust.xmf,854,-8.50813e-07,3.02692e-06,0,-3.45254e-06,-6.75737e+08,-6.75471e+08,-6.75678e+08,-236844,0.0261259,0.185729,0,0.187558,17087.7,-24602.1,0,29954.2,236844
step02_gravity_refstate-crust.xmf,855,-1.14641e-06,3.50874e-06,0,-1.52663e-06,-6.01404e+08,-6.01085e+08,-6.01326e+08,-104727,0.0127824,0.143383,0,0.143952,28439.7,-21895.5,0,35891.9,104727
step02_gravity_refstate-crust.xmf,856,-1.13467e-06,3.50173e-06,0,-2.65026e-06,-6.51104e+08,-6.50786e+08,-6.51026e+08,-181808,0.0212421,0.164831,0,0.166194,21393.8,-23704.9,0,31931.5,181808
step02_gravity_refstate-crust.xmf,857,-1.03061e-06,3.33857e-06,0,-3.17687e-06,-6.76456e+08,-6.76157e+08,-6.76386e+08,-217933,0.0247028,0.176593,0,0.178313,18605.5,-24628.1,0,30865.9,217933
step02_gravity_refstate-crust.xmf,858,-1.10632e-06,3.36862e-06,0,-8.16705e-07,-5.72813e+08,-5.72506e+08,-5.72737e+08,-56026,0.00692396,0.134887,0,0.135064,33645.5,-20854.6,0,39584.5,56026
step02_gravity_refstate-crust.xmf,859,-1.08552e-06,3.26769e-06,0,-9.65897e-10,-5.5566e+08,-5.55361e+08,-5.55585e+08,-66.2605,1.89703e-19,0.131732,0,0.131732,40000,-20230,0,44824.7,66.2605
step02_gravity_refstate-crust.xmf,860,5.48528e-06,-7.41183e-06,0,1.06358e-05,-9.6591e+08,-9.66795e+08,-9.66286e+08,729615,-0.0392064,0.316965,-0,0.31938,-3974.68,-35175.6,-0,35399.5,729615
step02_gravity_refstate-crust.xmf,861,2.33536e-06,-2.3543e-06,0,8.29695e-06,-9.04855e+08,-9.05176e+08,-9.05015e+08,569171,-0.0392079,0.273735,-0,0.276529,-6153.6,-32947.9,-0,33517.7,569171
step02_gravity_refstate-crust.xmf,862,1.18297e-05,-1.66959e-05,0,1.03748e-05,-1.00205e+09,-1.00401e+09,-1.00286e+09,711710,-0.0291381,0.365861,-0,0.36702,-1998.57,-36502.8,-0,36557.4,711710
step02_gravity_refstate-crust.xmf,863,1.64587e-05,-2.33242e-05,0,7.92454e-06,-1.0194e+09,-1.02213e+09,-1.02053e+09,543623,-0.0190782,0.391838,-0,0.392302,-1072.89,-37142.7,-0,37158.2,543623
step02_gravity_refstate-crust.xmf,864,1.85402e-05,-2.57537e-05,0,3.53114e-06,-1.02098e+09,-1.02402e+09,-1.02225e+09,242236,-0.0077415,0.399081,-0,0.399156,-415.762,-37205,-0,37207.3,242236
step02_gravity_refstate-crust.xmf,865,1.15709e-06,-4.47567e-07,0,7.56168e-06,-8.8499e+08,-8.851e+08,-8.8507e+08,518731,-0.0395276,0.255051,-0,0.258096,-7505.65,-32222.9,-0,33085.5,518731
step02_gravity_refstate-crust.xmf,866,-1.36955e-06,3.71656e-06,0,5.08134e-06,-8.45698e+08,-8.45349e+08,-8.45604e+08,348580,-0.0349963,0.195093,-0,0.198207,-13133.8,-30788.7,-0,33473,348580
step02_gravity_refstate-crust.xmf,867,-1.62464e-06,4.27073e-06,0,4.46546e-06,-8.41503e+08,-8.41099e+08,-8.41391e+08,306330,-0.0325773,0.181564,-0,0.184464,-14692.3,-30635.8,-0,33976.7,306330
step02_gravity_refstate-crust.xmf,868,-1.23377e-06,3.34187e-06,0,5.88652e-06,-8.73547e+08,-8.73233e+08,-8.73462e+08,403815,-0.0378181,0.207251,-0,0.210674,-11581.8,-31802.5,-0,33845.8,403815
step02_gravity_refstate-crust.xmf,869,-3.63663e-07,1.84515e-06,0,6.88861e-06,-8.82612e+08,-8.82461e+08,-8.82587e+08,472559,-0.0399965,0.230152,-0,0.233601,-9512.52,-32133.8,-0,33512.2,472559
step02_gravity_refstate-crust.xmf,870,-9.38879e-07,4.60334e-06,0,5.02708e-07,-7.97839e+08,-7.97459e+08,-7.97775e+08,34485.8,-0.00486765,0.100917,-0,0.101034,-34341.9,-29049.5,-0,44980.4,34485.8
step02_gravity_refstate-crust.xmf,871,-1.1308e-06,4.37718e-06,0,9.44323e-07,-7.39071e+08,-7.38693e+08,-7.38993e+08,64780.6,-0.00870606,0.11584,-0,0.116166,-31363.7,-26908.8,-0,41325.1,64780.6
step02_gravity_refstate-crust.xmf,872,-1.19304e-06,4.58333e-06,0,1.09858e-06,-7.67608e+08,-7.67212e+08,-7.67526e+08,75362.8,-0.0101833,0.115082,-0,0.115531,-29750.5,-27947.8,-0,40818.8,75362.8
step02_gravity_refstate-crust.xmf,873,-1.30236e-06,4.66691e-06,0,1.38159e-06,-7.73089e+08,-7.7268e+08,-7.73e+08,94777.3,-0.0126807,0.120278,-0,0.120944,-27659.8,-28147,-0,39462.9,94777.3
step02_gravity_refstate-crust.xmf,874,-1.54087e-06,4.65142e-06,0,2.37321e-06,-7.74385e+08,-7.7396e+08,-7.74279e+08,162802,-0.0204033,0.142344,-0,0.143799,-22233,-28193.2,-0,35904.9,162802
step02_gravity_refstate-crust.xmf,875,-1.40224e-06,4.70841e-06,0,1.6816e-06,-7.7482e+08,-7.74401e+08,-7.74724e+08,115358,-0.0151724,0.126596,-0,0.127502,-25783.3,-28209.7,-0,38217.4,115358
step02_gravity_refstate-crust.xmf,876,-1.48566e-06,4.70519e-06,0,2.01386e-06,-7.74819e+08,-7.74395e+08,-7.74717e+08,138151,-0.0177754,0.134056,-0,0.13523,-23971.8,-28209.3,-0,37019.1,138151
step02_gravity_refstate-crust.xmf,877,-1.69823e-06,4.57867e-06,0,3.68212e-06,-8.20859e+08,-8.20428e+08,-8.20742e+08,252594,-0.0286884,0.166732,-0,0.169182,-16966.8,-29884.4,-0,34364.9,252594
step02_gravity_refstate-crust.xmf,878,-1.72095e-06,4.91109e-06,0,2.80844e-06,-8.15012e+08,-8.14557e+08,-8.14894e+08,192659,-0.0235572,0.147689,-0,0.149556,-19975.5,-29672,-0,35769.3,192659
step02_gravity_refstate-crust.xmf,879,-1.73339e-06,4.77991e-06,0,3.22837e-06,-8.17425e+08,-8.16978e+08,-8.17306e+08,221466,-0.0261528,0.156887,-0,0.159052,-18454.7,-29759.6,-0,35017.3,221466
step02_gravity_refstate-crust.xmf,880,-8.96597e-07,4.38391e-06,0,2.39092e-09,-7.65745e+08,-7.65383e+08,-7.65683e+08,164.017,-3.22234e-19,0.102291,-0,0.102291,-40000,-27880.9,-0,48758,164.017
step02_gravity_refstate-crust.xmf,881,-9.04795e-07,4.48051e-06,0,3.3373e-07,-7.81523e+08,-7.81154e+08,-7.81461e+08,22893.9,-0.00320569,0.101366,-0,0.101417,-36338.9,-28455.4,-0,46154.4,22893.9
step02_gravity_refstate-crust.xmf,882,1.0807e-05,-1.4444e-05,0,-6.37418e-06,-9.63977e+08,-9.65709e+08,-9.64718e+08,-437269,0.0202375,0.348118,0,0.348705,1692.66,-35115.9,0,35156.7,437269
step02_gravity_refstate-crust.xmf,883,1.34841e-05,-1.81098e-05,0,-2.36211e-06,-9.77748e+08,-9.79915e+08,-9.78673e+08,-162041,0.00690338,0.364497,0,0.364562,506.728,-35622.4,0,35626,162041
step02_gravity_refstate-crust.xmf,884,2.86869e-06,-2.54314e-06,0,-6.01001e-06,-8.28418e+08,-8.2879e+08,-8.28615e+08,-412287,0.0312339,0.268018,0,0.269831,6047.09,-30167.1,0,30767.2,412287
step02_gravity_refstate-crust.xmf,885,1.09552e-06,1.37964e-07,0,-5.07258e-06,-7.57874e+08,-7.57939e+08,-7.57949e+08,-347979,0.0311549,0.238923,0,0.240946,9020.52,-27595.8,0,29032.7,347979
step02_gravity_refstate-crust.xmf,886,1.33844e-06,-3.00568e-07,0,-5.49454e-06,-7.84923e+08,-7.85036e+08,-7.85015e+08,-376926,0.0322865,0.244837,0,0.246956,8336.13,-28580.9,0,29771.8,376926
step02_gravity_refstate-crust.xmf,887,1.63817e-06,-7.79147e-07,0,-5.87741e-06,-8.08552e+08,-8.08718e+08,-8.08665e+08,-403190,0.0331881,0.251152,0,0.253335,7695.84,-29441.6,0,30430.8,403190
step02_gravity_refstate-crust.xmf,888,-1.77637e-07,1.95331e-06,0,-4.57424e-06,-7.34663e+08,-7.34517e+08,-7.34651e+08,-313793,0.0310941,0.212893,0,0.215152,12369.2,-26748.4,0,29469.9,313793
step02_gravity_refstate-crust.xmf,889,-6.2022e-07,2.64415e-06,0,-4.01345e-06,-7.07759e+08,-7.07535e+08,-7.07717e+08,-275322,0.0289626,0.198109,0,0.200215,14688.7,-25768.3,0,29660.8,275322
step02_gravity_refstate-crust.xmf,890,-1.14171e-06,3.57281e-06,0,-1.21771e-06,-6.07088e+08,-6.06765e+08,-6.0701e+08,-83535.2,0.0103416,0.136829,0,0.13722,30576.6,-22102.6,0,37728.7,83535.2
step02_gravity_refstate-crust.xmf,891,-1.18487e-06,3.62456e-06,0,-2.31323e-06,-6.45252e+08,-6.44922e+08,-6.4517e+08,-158688,0.0189453,0.156577,0,0.157719,23322.6,-23491.8,0,33103,158688
step02_gravity_refstate-crust.xmf,892,-1.21356e-06,3.82301e-06,0,-1.67149e-06,-6.50067e+08,-6.49722e+08,-6.49984e+08,-114664,0.0142274,0.140699,0,0.141417,27241.4,-23667.4,0,36086.5,114664
step02_gravity_refstate-crust.xmf,893,-1.21365e-06,3.7437e-06,0,-1.99456e-06,-6.47283e+08,-6.46943e+08,-6.472e+08,-136827,0.0166739,0.1484,0,0.149334,25224.2,-23565.9,0,34519.7,136827
step02_gravity_refstate-crust.xmf,894,-1.14685e-06,3.55571e-06,0,-2.91782e-06,-6.7681e+08,-6.76488e+08,-6.76732e+08,-200162,0.0232073,0.168839,0,0.170426,19981.2,-24640.8,0,31724.1,200162
step02_gravity_refstate-crust.xmf,895,-1.12398e-06,3.62146e-06,0,-9.22386e-07,-6.14015e+08,-6.13689e+08,-6.13938e+08,-63275.7,0.00792995,0.131312,0,0.131552,32702.4,-22354.9,0,39613,63275.7
step02_gravity_refstate-crust.xmf,896,-1.08518e-06,3.54212e-06,0,-3.18022e-07,-6.02438e+08,-6.02121e+08,-6.02364e+08,-21816.3,0.00273,0.126769,0,0.126799,37460.1,-21933.5,0,43408.9,21816.3
step02_gravity_refstate-crust.xmf,897,-1.10205e-06,3.61637e-06,0,-6.41514e-07,-6.14033e+08,-6.13709e+08,-6.13957e+08,-44007.9,0.00554929,0.12785,0,0.127971,34851.1,-22355.6,0,41405,44007.9
step02_gravity_refstate-crust.xmf,898,2.65072e-06,-3.03789e-06,0,9.12161e-06,-9.27071e+08,-9.27461e+08,-9.27253e+08,625742,-0.0406307,0.282207,-0,0.285117,-5707.7,-33757,-0,34236.1,625742
step02_gravity_refstate-crust.xmf,899,3.64501e-06,-5.02005e-06,0,1.09848e-05,-9.66108e+08,-9.66702e+08,-9.66358e+08,753555,-0.0428215,0.303143,-0,0.306153,-4765.85,-35179.1,-0,35500.5,753555
step02_gravity_refstate-crust.xmf,900,3.07325e-06,-3.91634e-06,0,1.00465e-05,-9.47934e+08,-9.48414e+08,-9.48145e+08,689193,-0.0419108,0.292065,-0,0.295057,-5242.67,-34516.9,-0,34912.7,689193
step02_gravity_refstate-crust.xmf,901,8.20369e-06,-1.16018e-05,0,1.10246e-05,-9.84406e+08,-9.85765e+08,-9.84969e+08,756286,-0.0353525,0.340952,-0,0.34278,-2946.1,-35853.5,-0,35974.4,756286
step02_gravity_refstate-crust.xmf,902,6.26713e-06,-8.82809e-06,0,1.16724e-05,-9.83393e+08,-9.84429e+08,-9.83823e+08,800725,-0.0400199,0.328434,-0,0.330863,-3620.47,-35813.1,-0,35995.6,800725
step02_gravity_refstate-crust.xmf,903,9.35739e-06,-1.36202e-05,0,1.20905e-05,-1.00077e+09,-1.00234e+09,-1.00141e+09,829409,-0.0357487,0.353725,-0,0.355527,-2648.77,-36450.8,-0,36546.9,829409
step02_gravity_refstate-crust.xmf,904,1.37151e-05,-1.99878e-05,0,1.13813e-05,-1.01815e+09,-1.02046e+09,-1.01909e+09,780755,-0.0285737,0.381209,-0,0.382279,-1717.48,-37091.2,-0,37130.9,780755
step02_gravity_refstate-crust.xmf,905,1.94844e-05,-2.82856e-05,0,8.11094e-06,-1.0352e+09,-1.03848e+09,-1.03654e+09,556411,-0.0169011,0.409656,-0,0.410004,-819.342,-37722.5,-0,37731.4,556411
step02_gravity_refstate-crust.xmf,906,1.26153e-06,-8.16285e-07,0,8.19692e-06,-9.04903e+08,-9.05046e+08,-9.0499e+08,562309,-0.0408726,0.261105,-0,0.264284,-7079.65,-32947.7,-0,33699.8,562309
step02_gravity_refstate-crust.xmf,907,-1.54028e-06,3.93169e-06,0,5.34088e-06,-8.69807e+08,-8.69432e+08,-8.69702e+08,366384,-0.036101,0.1956,-0,0.198904,-12740.3,-31666.1,-0,34132.9,366384
step02_gravity_refstate-crust.xmf,908,-1.68554e-06,4.2953e-06,0,4.78733e-06,-8.59507e+08,-8.59096e+08,-8.59391e+08,328411,-0.0339564,0.185227,-0,0.188314,-13970.2,-31291,-0,34268,328411
step02_gravity_refstate-crust.xmf,909,-1.88065e-06,4.75442e-06,0,4.27769e-06,-8.63175e+08,-8.6272e+08,-8.63046e+08,293450,-0.0317735,0.173631,-0,0.176514,-15198.5,-31424.5,-0,34906.9,293450
step02_gravity_refstate-crust.xmf,910,3.81089e-07,5.6155e-07,0,7.85906e-06,-9.03927e+08,-9.03914e+08,-9.03953e+08,539131,-0.0415481,0.248115,-0,0.25157,-8033.23,-32910.8,-0,33877,539131
step02_gravity_refstate-crust.xmf,911,-3.65414e-07,1.72177e-06,0,7.40947e-06,-9.0236e+08,-9.02217e+08,-9.02335e+08,508290,-0.0414131,0.235137,-0,0.238756,-9014.38,-32852.5,-0,34066.8,508290
step02_gravity_refstate-crust.xmf,912,-9.95993e-07,2.74864e-06,0,6.88454e-06,-9.02181e+08,-9.01925e+08,-9.02113e+08,472279,-0.0406698,0.221893,-0,0.22559,-10050.5,-32845,-0,34348.4,472279
step02_gravity_refstate-crust.xmf,913,-1.4465e-06,3.55415e-06,0,6.29565e-06,-9.00198e+08,-8.99855e+08,-9.00099e+08,431881,-0.0392784,0.209208,-0,0.212863,-11113.8,-32772.2,-0,34605.4,431881
step02_gravity_refstate-crust.xmf,914,-1.03797e-06,4.65879e-06,0,7.5156e-07,-7.95027e+08,-7.94636e+08,-7.94956e+08,51557,-0.00717356,0.105215,-0,0.105459,-32041.2,-28946.8,-0,43180.5,51557
step02_gravity_refstate-crust.xmf,915,-1.67108e-06,4.99221e-06,0,2.41591e-06,-8.14386e+08,-8.13929e+08,-8.14272e+08,165732,-0.0209155,0.138916,-0,0.140482,-21541.9,-29649.5,-0,36649,165732
step02_gravity_refstate-crust.xmf,916,-1.92364e-06,4.9638e-06,0,3.81696e-06,-8.57737e+08,-8.57264e+08,-8.57605e+08,261844,-0.0294748,0.164461,-0,0.167081,-16425.9,-31226.7,-0,35283.3,261844
step02_gravity_refstate-crust.xmf,917,-8.27902e-07,4.54731e-06,0,1.68797e-07,-8.02139e+08,-8.0177e+08,-8.02082e+08,11579.5,-0.00160179,0.0968363,-0,0.0968496,-38039.7,-29206.3,-0,47958.6,11579.5
step02_gravity_refstate-crust.xmf,918,1.21654e-05,-1.64954e-05,0,-6.28386e-06,-9.78913e+08,-9.80879e+08,-9.79748e+08,-431073,0.0187211,0.359198,0,0.359686,1413.44,-35662,0,35690,431073
step02_gravity_refstate-crust.xmf,919,1.39901e-05,-1.90284e-05,0,-4.95749e-06,-9.89342e+08,-9.91607e+08,-9.90302e+08,-340084,0.013784,0.369913,0,0.37017,952.308,-36045.1,0,36057.7,340084
step02_gravity_refstate-crust.xmf,920,2.23295e-05,-3.18678e-05,0,1.49694e-06,-1.03917e+09,-1.04289e+09,-1.0407e+09,102690,-0.00265889,0.419225,-0,0.419233,-120.406,-37873.1,-0,37873.3,102690
step02_gravity_refstate-crust.xmf,921,2.32635e-05,-3.41697e-05,0,8.20904e-06,-1.05048e+09,-1.05442e+09,-1.05208e+09,563140,-0.0146253,0.429497,-0,0.429746,-602.103,-38285,-0,38289.8,563140
step02_gravity_refstate-crust.xmf,922,1.63364e-05,-2.26265e-05,0,-4.01541e-06,-1.0069e+09,-1.00957e+09,-1.00802e+09,-275457,0.0100401,0.385562,0,0.385693,605.075,-36688.3,0,36693.3,275457
step02_gravity_refstate-crust.xmf,923,1.90339e-05,-2.66588e-05,0,-2.15004e-06,-1.02252e+09,-1.02565e+09,-1.02383e+09,-147493,0.00482317,0.401235,0,0.401264,254.617,-37261.6,0,37262.5,147493
step02_gravity_refstate-crust.xmf,924,9.04065e-06,-1.20315e-05,0,-8.14563e-06,-9.59938e+08,-9.61384e+08,-9.60558e+08,-558790,0.0273876,0.337521,0,0.338631,2467.16,-34965.5,0,35052.4,558790
step02_gravity_refstate-crust.xmf,925,1.06919e-05,-1.46539e-05,0,-8.44603e-06,-9.788e+08,-9.80538e+08,-9.79533e+08,-579397,0.0258675,0.352045,0,0.352994,2039.66,-35654.8,0,35713,579397
step02_gravity_refstate-crust.xmf,926,3.39535e-06,-3.32447e-06,0,-6.36951e-06,-8.50889e+08,-8.5135e+08,-8.51122e+08,-436948,0.0316134,0.275841,0,0.277646,5490.16,-30986.1,0,31468.7,436948
step02_gravity_refstate-crust.xmf,927,1.99884e-06,-1.36484e-06,0,-6.27686e-06,-8.30588e+08,-8.30819e+08,-8.30726e+08,-430593,0.0339275,0.258067,0,0.260288,7075.17,-30244.4,0,31060.9,430593
step02_gravity_refstate-crust.xmf,928,4.50147e-07,1.00239e-06,0,-5.09333e-06,-7.61061e+08,-7.61023e+08,-7.61091e+08,-349402,0.0323323,0.228306,0,0.230584,10283.7,-27710.5,0,29557.2,349402
step02_gravity_refstate-crust.xmf,929,6.34518e-06,-8.15029e-06,0,-8.40222e-06,-9.35276e+08,-9.3627e+08,-9.35711e+08,-576392,0.0321708,0.314741,0,0.316381,3542.26,-34062.7,0,34246.4,576392
step02_gravity_refstate-crust.xmf,930,3.9316e-06,-4.25959e-06,0,-6.88153e-06,-8.73604e+08,-8.74165e+08,-8.73873e+08,-472073,0.0321051,0.28414,0,0.285948,4992.4,-31813.7,0,32203.1,472073
step02_gravity_refstate-crust.xmf,931,4.56884e-06,-5.30629e-06,0,-7.41353e-06,-8.95759e+08,-8.96437e+08,-8.96073e+08,-508568,0.0325378,0.293247,0,0.295047,4519.19,-32621.3,0,32932.8,508568
step02_gravity_refstate-crust.xmf,932,5.35791e-06,-6.58692e-06,0,-7.93693e-06,-9.16326e+08,-9.17145e+08,-9.16693e+08,-544474,0.0326079,0.303426,0,0.305173,4036.99,-33371.2,0,33614.5,544474
step02_gravity_refstate-crust.xmf,933,-7.57552e-08,1.80835e-06,0,-4.9421e-06,-7.63779e+08,-7.6365e+08,-7.63774e+08,-339028,0.0327187,0.217479,0,0.219927,11552.1,-27808.6,0,30112.7,339028
step02_gravity_refstate-crust.xmf,934,-5.95319e-07,2.59462e-06,0,-4.35709e-06,-7.38413e+08,-7.38194e+08,-7.38372e+08,-298896,0.0307342,0.202031,0,0.204356,13744.9,-26884.3,0,30194.1,298896
step02_gravity_refstate-crust.xmf,935,-8.89818e-07,3.11182e-06,0,-3.73473e-06,-7.09945e+08,-7.09671e+08,-7.09884e+08,-256203,0.0279278,0.187939,0,0.190002,16145.1,-25847.5,0,30475.5,256203
step02_gravity_refstate-crust.xmf,936,-1.09856e-06,3.4833e-06,0,-3.42497e-06,-7.11146e+08,-7.10832e+08,-7.11071e+08,-234953,0.0264378,0.177996,0,0.179948,17658,-25890.9,0,31339.2,234953
step02_gravity_refstate-crust.xmf,937,-1.18978e-06,3.87901e-06,0,-1.35038e-06,-6.54976e+08,-6.54629e+08,-6.54895e+08,-92636.2,0.0116864,0.133544,0,0.134054,29349.6,-23846.3,0,37815.9,92636.2
step02_gravity_refstate-crust.xmf,938,-1.25072e-06,3.80227e-06,0,-2.4543e-06,-6.74982e+08,-6.74635e+08,-6.74896e+08,-168365,0.0201691,0.156365,0,0.157661,22488.6,-24574.2,0,33311.1,168365
step02_gravity_refstate-crust.xmf,939,-1.2325e-06,3.75307e-06,0,-3.0883e-06,-7.09815e+08,-7.09473e+08,-7.0973e+08,-211857,0.024555,0.168593,0,0.170372,19243.1,-25842.3,0,32219.9,211857
step02_gravity_refstate-crust.xmf,940,-1.29068e-06,3.90458e-06,0,-2.72679e-06,-7.0225e+08,-7.01894e+08,-7.02161e+08,-187058,0.0222548,0.159967,0,0.161508,20995.9,-25566.9,0,33083.2,187058
step02_gravity_refstate-crust.xmf,941,-1.06532e-06,3.68048e-06,0,-1.27934e-09,-6.2701e+08,-6.26685e+08,-6.26937e+08,-87.7624,1.30798e-19,0.122709,0,0.122709,40000,-22828.3,0,46055.8,87.7624
step02_gravity_refstate-crust.xmf,942,4.3245e-06,-6.15592e-06,0,1.19024e-05,-9.82202e+08,-9.82921e+08,-9.82498e+08,816508,-0.0436361,0.314107,-0,0.317123,-4352.27,-35766,-0,36029.8,816508
step02_gravity_refstate-crust.xmf,943,1.40312e-06,-1.24964e-06,0,8.98068e-06,-9.26893e+08,-9.27075e+08,-9.26989e+08,616075,-0.042463,0.268435,-0,0.271773,-6624.82,-33748.2,-0,34392.3,616075
step02_gravity_refstate-crust.xmf,944,1.08192e-05,-1.58841e-05,0,1.32582e-05,-1.01698e+09,-1.01882e+09,-1.01773e+09,909515,-0.0361943,0.368031,-0,0.369807,-2363.1,-37043.5,-0,37118.8,909515
step02_gravity_refstate-crust.xmf,945,1.62012e-05,-2.36463e-05,0,1.22065e-05,-1.03393e+09,-1.03667e+09,-1.03504e+09,837369,-0.027815,0.398579,-0,0.399548,-1446.59,-37670.3,-0,37698.1,837369
step02_gravity_refstate-crust.xmf,946,1.91331e-05,-2.88166e-05,0,1.37247e-05,-1.04898e+09,-1.05227e+09,-1.0503e+09,941515,-0.0268933,0.417754,-0,0.418619,-1196.33,-38222.1,-0,38240.8,941515
step02_gravity_refstate-crust.xmf,947,-1.77685e-06,4.21341e-06,0,5.6766e-06,-8.98144e+08,-8.97733e+08,-8.98022e+08,389414,-0.0373964,0.196622,-0,0.200146,-12245.9,-32697.2,-0,34915.1,389414
step02_gravity_refstate-crust.xmf,948,-7.8782e-07,4.70629e-06,0,2.93531e-07,-8.34429e+08,-8.34052e+08,-8.34375e+08,20136.2,-0.00288812,0.0927072,-0,0.0927522,-36122.4,-30382.3,-0,47200.8,20136.2
step02_gravity_refstate-crust.xmf,949,-9.2465e-07,4.76647e-06,0,5.67103e-07,-8.26792e+08,-8.26402e+08,-8.26729e+08,38903.3,-0.00552341,0.0977654,-0,0.0979213,-33152.2,-30103.8,-0,44780.6,38903.3
step02_gravity_refstate-crust.xmf,950,-1.21591e-06,4.90445e-06,0,1.09847e-06,-8.17329e+08,-8.16909e+08,-8.17246e+08,75355.1,-0.010407,0.109292,-0,0.109786,-28732.7,-29758.4,-0,41365.8,75355.1
step02_gravity_refstate-crust.xmf,951,-1.34956e-06,4.99377e-06,0,1.36636e-06,-8.19784e+08,-8.19349e+08,-8.19692e+08,93732.1,-0.012764,0.11484,-0,0.115548,-26830.4,-29847.3,-0,40134,93732.1
step02_gravity_refstate-crust.xmf,952,-1.59461e-06,5.0487e-06,0,2.03921e-06,-8.17178e+08,-8.16722e+08,-8.17069e+08,139890,-0.0181848,0.130155,-0,0.13142,-23181.2,-29751.6,-0,37716.4,139890
step02_gravity_refstate-crust.xmf,953,-1.48393e-06,5.05326e-06,0,1.68032e-06,-8.20247e+08,-8.19799e+08,-8.20146e+08,115270,-0.0153791,0.121769,-0,0.122736,-24962.5,-29863.8,-0,38922.6,115270
step02_gravity_refstate-crust.xmf,954,-1.93058e-06,5.14945e-06,0,3.33246e-06,-8.54548e+08,-8.54063e+08,-8.54416e+08,228607,-0.0268241,0.154517,-0,0.156828,-17827.3,-31110.9,-0,35856.6,228607
step02_gravity_refstate-crust.xmf,955,-1.81048e-06,5.32397e-06,0,2.46554e-06,-8.50961e+08,-8.50471e+08,-8.50837e+08,169136,-0.0213342,0.136163,-0,0.137824,-20799,-30981,-0,37315.1,169136
step02_gravity_refstate-crust.xmf,956,-1.89053e-06,5.26651e-06,0,2.88185e-06,-8.52372e+08,-8.51881e+08,-8.52242e+08,197695,-0.0240942,0.145068,-0,0.147056,-19283.5,-31032,-0,36535.4,197695
step02_gravity_refstate-crust.xmf,957,-7.2912e-07,4.65666e-06,0,3.42806e-09,-8.33527e+08,-8.33158e+08,-8.33477e+08,235.165,-2.61812e-19,0.0911315,-0,0.0911315,-40000,-30349.7,-0,50210.6,235.165
step02_gravity_refstate-crust.xmf,958,2.57872e-05,-3.72275e-05,0,2.23928e-06,-1.05397e+09,-1.0583e+09,-1.05574e+09,153614,-0.00388355,0.437751,-0,0.437768,-150.678,-38417.7,-0,38418,153614
step02_gravity_refstate-crust.xmf,959,2.74874e-05,-4.03929e-05,0,6.91645e-06,-1.06266e+09,-1.06732e+09,-1.06455e+09,474469,-0.0108266,0.448579,-0,0.448709,-381.471,-38735.9,-0,38737.8,474469
step02_gravity_refstate-crust.xmf,960,1.2495e-05,-1.74088e-05,0,-8.33665e-06,-9.94124e+08,-9.96175e+08,-9.94981e+08,-571894,0.0235672,0.366004,0,0.366762,1646.79,-36215.7,0,36253.1,571894
step02_gravity_refstate-crust.xmf,961,2.41084e-06,-2.05139e-06,0,-6.72761e-06,-8.52133e+08,-8.52439e+08,-8.52298e+08,-461514,0.0345925,0.265607,0,0.267851,6479.05,-31029.3,0,31698.5,461514
step02_gravity_refstate-crust.xmf,962,6.33534e-07,7.27601e-07,0,-5.499e-06,-7.8902e+08,-7.89013e+08,-7.89063e+08,-377231,0.0337814,0.233705,0,0.236134,9565.98,-28728.7,0,30279.5,377231
step02_gravity_refstate-crust.xmf,963,8.26265e-07,3.12832e-07,0,-6.05655e-06,-8.18482e+08,-8.18517e+08,-8.18539e+08,-415479,0.0353321,0.240477,0,0.243059,8797.02,-29801.5,0,31072.8,415479
step02_gravity_refstate-crust.xmf,964,1.36424e-06,-4.45103e-07,0,-6.30051e-06,-8.30486e+08,-8.3061e+08,-8.3058e+08,-432215,0.0353248,0.249439,0,0.251928,7917.6,-30239.5,0,31258.9,432215
step02_gravity_refstate-crust.xmf,965,7.39628e-06,-9.63868e-06,0,-8.50554e-06,-9.47729e+08,-9.48898e+08,-9.48237e+08,-583480,0.0308137,0.324635,0,0.326094,3094.66,-34518,0,34656.5,583480
step02_gravity_refstate-crust.xmf,966,-5.60671e-07,2.51154e-06,0,-4.72391e-06,-7.66813e+08,-7.66603e+08,-7.66775e+08,-324060,0.0324391,0.206316,0,0.20885,12865.5,-27918.2,0,30740,324060
step02_gravity_refstate-crust.xmf,967,-9.37907e-07,3.15864e-06,0,-4.07149e-06,-7.43181e+08,-7.429e+08,-7.43116e+08,-279304,0.0298118,0.190936,0,0.19325,15169.9,-27057.3,0,31019.7,279304
step02_gravity_refstate-crust.xmf,968,-1.14995e-06,3.91713e-06,0,-1.03915e-06,-6.61519e+08,-6.61171e+08,-6.6144e+08,-71285.8,0.00912463,0.127208,0,0.127535,31522.4,-24084.7,0,39670.3,71285.8
step02_gravity_refstate-crust.xmf,969,-1.25086e-06,4.18788e-06,0,-1.46806e-06,-7.01578e+08,-7.01204e+08,-7.01492e+08,-100709,0.0129556,0.130353,0,0.130995,28114.9,-25543.1,0,37985.5,100709
step02_gravity_refstate-crust.xmf,970,-1.31609e-06,4.04943e-06,0,-2.16421e-06,-6.93655e+08,-6.93287e+08,-6.93565e+08,-148465,0.0182669,0.146775,0,0.147908,24019,-25254.2,0,34852.3,148465
step02_gravity_refstate-crust.xmf,971,-1.29777e-06,4.13873e-06,0,-1.80553e-06,-6.96889e+08,-6.96516e+08,-6.968e+08,-123859,0.0156169,0.138153,0,0.139032,26044.6,-25372.1,0,36360.2,123859
step02_gravity_refstate-crust.xmf,972,-1.10488e-06,3.93682e-06,0,-7.46151e-07,-6.67761e+08,-6.67415e+08,-6.67685e+08,-51185.9,0.0066271,0.122128,0,0.122307,33721.4,-24312.1,0,41571.8,51185.9
step02_gravity_refstate-crust.xmf,973,-1.06676e-06,3.9253e-06,0,-4.67681e-07,-6.69268e+08,-6.68926e+08,-6.69195e+08,-32082.9,0.00417359,0.118922,0,0.118995,35990.1,-24367.1,0,43463.2,32082.9
step02_gravity_refstate-crust.xmf,974,-1.04119e-06,3.9248e-06,0,-2.10847e-07,-6.7151e+08,-6.7117e+08,-6.71439e+08,-14464.1,0.00186966,0.116972,0,0.116987,38185.5,-24448.9,0,45341.8,14464.1
step02_gravity_refstate-crust.xmf,975,2.31077e-05,-3.50947e-05,0,1.50295e-05,-1.06261e+09,-1.0666e+09,-1.06419e+09,1.03103e+06,-0.0251478,0.438799,-0,0.439519,-945.134,-38724.4,-0,38735.9,1.03103e+06
step02_gravity_refstate-crust.xmf,976,2.76105e-06,-3.98149e-06,0,1.18103e-05,-9.81935e+08,-9.82397e+08,-9.82124e+08,810187,-0.0458969,0.301136,-0,0.304614,-5010.31,-35753.3,-0,36102.7,810187
step02_gravity_refstate-crust.xmf,977,1.59704e-06,-1.8092e-06,0,9.90279e-06,-9.48633e+08,-9.48867e+08,-9.48743e+08,679331,-0.0440929,0.277226,-0,0.280711,-6143.51,-34539.6,-0,35081.7,679331
step02_gravity_refstate-crust.xmf,978,1.84614e-06,-2.5054e-06,0,1.10631e-05,-9.71089e+08,-9.71387e+08,-9.71215e+08,758932,-0.0458649,0.288036,-0,0.291665,-5627.7,-35357.1,-0,35802.1,758932
step02_gravity_refstate-crust.xmf,979,6.96976e-06,-1.03876e-05,0,1.29542e-05,-9.99843e+08,-1.00103e+09,-1.00032e+09,888655,-0.0410128,0.340061,-0,0.342526,-3318.4,-36412.4,-0,36563.3,888655
step02_gravity_refstate-crust.xmf,980,4.85065e-06,-7.26437e-06,0,1.31015e-05,-9.98688e+08,-9.9952e+08,-9.99021e+08,898763,-0.0448622,0.325043,-0,0.328124,-4013.3,-36366.6,-0,36587.4,898763
step02_gravity_refstate-crust.xmf,981,2.98449e-06,-4.59424e-06,0,1.28554e-05,-9.97211e+08,-9.97731e+08,-9.97416e+08,881878,-0.0473172,0.309537,-0,0.313133,-4718.56,-36309.4,-0,36614.7,881878
step02_gravity_refstate-crust.xmf,982,7.86181e-06,-1.21528e-05,0,1.44082e-05,-1.01603e+09,-1.01741e+09,-1.01657e+09,988404,-0.0420506,0.353115,-0,0.35561,-3019.14,-37002.7,-0,37125.6,988404
step02_gravity_refstate-crust.xmf,983,1.24233e-05,-1.90335e-05,0,1.49968e-05,-1.03282e+09,-1.03497e+09,-1.03367e+09,1.02878e+06,-0.0365352,0.384234,-0,0.385967,-2078.93,-37621.5,-0,37678.9,1.02878e+06
step02_gravity_refstate-crust.xmf,984,3.31702e-07,3.4644e-07,0,8.63648e-06,-9.27605e+08,-9.27604e+08,-9.27628e+08,592463,-0.0433406,0.254329,-0,0.257995,-7566.77,-33772.3,-0,34609.6,592463
step02_gravity_refstate-crust.xmf,985,-1.97854e-06,4.69727e-06,0,5.06874e-06,-8.94772e+08,-8.94314e+08,-8.94636e+08,347715,-0.0351606,0.184801,-0,0.188116,-13419.6,-32574.3,-0,35230.3,347715
step02_gravity_refstate-crust.xmf,986,-2.16311e-06,5.37174e-06,0,3.93287e-06,-8.92357e+08,-8.9184e+08,-8.92209e+08,269795,-0.0300035,0.162282,-0,0.165033,-15896.8,-32486.7,-0,36167.6,269795
step02_gravity_refstate-crust.xmf,987,-2.10879e-06,5.08675e-06,0,4.48526e-06,-8.93203e+08,-8.92709e+08,-8.93058e+08,307689,-0.0326776,0.173279,-0,0.176333,-14637.6,-32517.3,-0,35660,307689
step02_gravity_refstate-crust.xmf,988,-5.14799e-07,1.7439e-06,0,8.07772e-06,-9.27601e+08,-9.27446e+08,-9.27566e+08,554131,-0.0432319,0.239883,-0,0.243747,-8552.7,-33770.9,-0,34837,554131
step02_gravity_refstate-crust.xmf,989,-1.18613e-06,2.86833e-06,0,7.43129e-06,-9.26553e+08,-9.26275e+08,-9.26472e+08,509787,-0.0422761,0.22562,-0,0.229547,-9575.53,-33731.7,-0,35064.5,509787
step02_gravity_refstate-crust.xmf,990,-1.68784e-06,3.78282e-06,0,6.7481e-06,-9.2603e+08,-9.25655e+08,-9.25914e+08,462919,-0.0407281,0.211767,-0,0.215648,-10626,-33712.1,-0,35347.1,462919
step02_gravity_refstate-crust.xmf,991,-2.03189e-06,4.49617e-06,0,6.05407e-06,-9.25165e+08,-9.24717e+08,-9.25026e+08,415309,-0.0386833,0.198468,-0,0.202202,-11711.1,-33680.3,-0,35658.3,415309
step02_gravity_refstate-crust.xmf,992,-7.92392e-07,4.85019e-06,0,4.03004e-07,-8.57948e+08,-8.57561e+08,-8.57894e+08,27646.1,-0.00395229,0.0905897,-0,0.0906759,-34327.6,-31238.8,-0,46413.8,27646.1
step02_gravity_refstate-crust.xmf,993,-9.18136e-07,4.94425e-06,0,6.19083e-07,-8.56353e+08,-8.55951e+08,-8.5629e+08,42469.1,-0.00605236,0.0947598,-0,0.0949529,-31897.9,-31180.3,-0,44605.9,42469.1
step02_gravity_refstate-crust.xmf,994,-1.09837e-06,4.84768e-06,0,8.75266e-07,-8.20004e+08,-8.19596e+08,-8.19929e+08,60043.2,-0.00838986,0.104372,-0,0.104709,-30435.3,-29856.1,-0,42634.4,60043.2
step02_gravity_refstate-crust.xmf,995,-1.70188e-06,5.34837e-06,0,2.08083e-06,-8.52077e+08,-8.51594e+08,-8.51961e+08,142745,-0.0185707,0.127584,-0,0.128929,-22355.6,-31022.1,-0,38238,142745
step02_gravity_refstate-crust.xmf,996,-2.14202e-06,5.54325e-06,0,3.41705e-06,-8.90177e+08,-8.8965e+08,-8.9003e+08,234409,-0.0272183,0.152081,-0,0.154498,-17219.6,-32407.7,-0,36698.4,234409
step02_gravity_refstate-crust.xmf,997,-6.38968e-07,4.78477e-06,0,1.32902e-07,-8.66886e+08,-8.66514e+08,-8.66843e+08,9117.09,-0.00127076,0.0858597,-0,0.0858692,-37976.8,-31564.7,-0,49381.8,9117.09
step02_gravity_refstate-crust.xmf,998,1.48596e-05,-2.09058e-05,0,-8.03214e-06,-1.00871e+09,-1.01117e+09,-1.00973e+09,-551004,0.0204281,0.380985,0,0.381532,1259.26,-36750.9,0,36772.5,551004
step02_gravity_refstate-crust.xmf,999,2.50464e-05,-3.60852e-05,0,-4.47061e-06,-1.05236e+09,-1.05656e+09,-1.05408e+09,-306684,0.00788926,0.43473,0,0.434802,312.165,-38357.8,0,38359,306684
step02_gravity_refstate-crust.xmf,1000,1.76256e-05,-2.50812e-05,0,-7.41026e-06,-1.02372e+09,-1.02665e+09,-1.02493e+09,-508344,0.0168682,0.397594,0,0.397952,906.422,-37302,0,37313,508344
step02_gravity_refstate-crust.xmf,1001,2.09547e-05,-3.00593e-05,0,-6.33657e-06,-1.0382e+09,-1.0417e+09,-1.03963e+09,-434689,0.0127907,0.415308,0,0.415505,594.423,-37834.8,0,37839.5,434689
step02_gravity_refstate-crust.xmf,1002,2.85767e-05,-4.12106e-05,0,-1.02569e-06,-1.06169e+09,-1.06648e+09,-1.06365e+09,-70362.1,0.00180543,0.449112,0,0.449116,63.8051,-38703.8,0,38703.8,70362.1
step02_gravity_refstate-crust.xmf,1003,8.82712e-06,-1.22681e-05,0,-1.02e-05,-9.79611e+08,-9.81058e+08,-9.80216e+08,-699722,0.0326204,0.342613,0,0.344163,2720.44,-35680.4,0,35784,699722
step02_gravity_refstate-crust.xmf,1004,1.04801e-05,-1.48908e-05,0,-1.07533e-05,-9.95631e+08,-9.97372e+08,-9.9635e+08,-737678,0.0314394,0.357093,0,0.358475,2309.71,-36266.3,0,36339.8,737678
step02_gravity_refstate-crust.xmf,1005,2.86987e-06,-2.76691e-06,0,-7.23533e-06,-8.74679e+08,-8.75066e+08,-8.74876e+08,-496344,0.0354257,0.273598,0,0.275882,5940.55,-31850.9,0,32400.1,496344
step02_gravity_refstate-crust.xmf,1006,1.54634e-06,-8.47325e-07,0,-6.80245e-06,-8.52379e+08,-8.52544e+08,-8.52486e+08,-466648,0.0365101,0.255069,0,0.257668,7439.49,-31036.7,0,31915.8,466648
step02_gravity_refstate-crust.xmf,1007,-1.80734e-08,1.63109e-06,0,-5.37784e-06,-7.91909e+08,-7.91795e+08,-7.91907e+08,-368920,0.0343369,0.222144,0,0.224782,10816.9,-28832.7,0,30794.9,368920
step02_gravity_refstate-crust.xmf,1008,8.22597e-07,2.48478e-07,0,-6.63965e-06,-8.49666e+08,-8.49706e+08,-8.49723e+08,-455480,0.0374194,0.24418,0,0.24703,8414.93,-30936.7,0,32060.7,455480
step02_gravity_refstate-crust.xmf,1009,4.6709e-06,-5.96172e-06,0,-9.31086e-06,-9.3815e+08,-9.38879e+08,-9.3847e+08,-638725,0.0374369,0.303053,0,0.305357,4429.21,-34163.9,0,34449.9,638725
step02_gravity_refstate-crust.xmf,1010,7.54146e-06,-1.02126e-05,0,-9.73113e-06,-9.64872e+08,-9.6609e+08,-9.65389e+08,-667556,0.0335634,0.330336,0,0.332037,3127.82,-35141.8,0,35280.7,667556
step02_gravity_refstate-crust.xmf,1011,5.64887e-06,-7.56243e-06,0,-1.01784e-05,-9.58524e+08,-9.5943e+08,-9.58912e+08,-698235,0.0377853,0.31581,0,0.318063,3923.46,-34907.2,0,35127,698235
step02_gravity_refstate-crust.xmf,1012,3.31504e-06,-3.64318e-06,0,-7.92788e-06,-8.97438e+08,-8.97916e+08,-8.97666e+08,-543852,0.0363774,0.282217,0,0.284552,5446.48,-32679.9,0,33130.7,543852
step02_gravity_refstate-crust.xmf,1013,3.92267e-06,-4.69828e-06,0,-8.62209e-06,-9.18867e+08,-9.19458e+08,-9.19136e+08,-591475,0.0370635,0.292234,0,0.294575,4929.56,-33460.9,0,33822,591475
step02_gravity_refstate-crust.xmf,1014,-5.1074e-07,2.4253e-06,0,-5.11062e-06,-7.94433e+08,-7.94231e+08,-7.94398e+08,-350588,0.0341321,0.210768,0,0.213514,12055,-28923.8,0,31335.4,350588
step02_gravity_refstate-crust.xmf,1015,-9.47099e-07,3.13891e-06,0,-4.43258e-06,-7.71973e+08,-7.71693e+08,-7.71908e+08,-304075,0.03165,0.195139,0,0.197689,14182.1,-28105.5,0,31480.9,304075
step02_gravity_refstate-crust.xmf,1016,-1.17694e-06,3.61955e-06,0,-3.71694e-06,-7.46149e+08,-7.4582e+08,-7.46068e+08,-254982,0.0283081,0.180044,0,0.182256,16656.8,-27165.1,0,31865.3,254982
step02_gravity_refstate-crust.xmf,1017,-1.34281e-06,3.96609e-06,0,-3.31844e-06,-7.46396e+08,-7.46032e+08,-7.46304e+08,-227645,0.0262237,0.169166,0,0.171187,18301,-27174,0,32762.1,227645
step02_gravity_refstate-crust.xmf,1018,-1.18587e-06,4.21627e-06,0,-1.1508e-06,-7.08321e+08,-7.0795e+08,-7.08239e+08,-78945,0.0103319,0.123343,0,0.123775,30228.3,-25788.9,0,39734.3,78945
step02_gravity_refstate-crust.xmf,1019,-1.35278e-06,4.10534e-06,0,-2.43402e-06,-7.11194e+08,-7.1082e+08,-7.11102e+08,-166974,0.0203833,0.151397,0,0.152763,22437.7,-25892.6,0,34261.9,166974
step02_gravity_refstate-crust.xmf,1020,-1.42401e-06,4.18965e-06,0,-2.94046e-06,-7.45293e+08,-7.44908e+08,-7.45196e+08,-201716,0.023982,0.159615,0,0.161406,19908.2,-27133.9,0,33653.9,201716
step02_gravity_refstate-crust.xmf,1021,-1.00605e-06,4.05461e-06,0,-1.00464e-09,-6.96972e+08,-6.96625e+08,-6.96903e+08,-68.9184,8.55522e-20,0.112858,0,0.112858,40000,-25376.2,0,47370.4,68.9184
step02_gravity_refstate-crust.xmf,1022,2.85961e-05,-4.34868e-05,0,1.47731e-05,-1.07424e+09,-1.07918e+09,-1.0762e+09,1.01343e+06,-0.0206899,0.46212,-0,0.462583,-645.934,-39157.1,-0,39162.5,1.01343e+06
step02_gravity_refstate-crust.xmf,1023,3.55902e-07,4.33511e-08,0,9.47331e-06,-9.49242e+08,-9.49264e+08,-9.49267e+08,649869,-0.0450601,0.261883,-0,0.265731,-7072.38,-34559.6,-0,35275.9,649869
step02_gravity_refstate-crust.xmf,1024,1.48845e-06,-2.38253e-06,0,1.22244e-05,-9.93527e+08,-9.93793e+08,-9.93629e+08,838593,-0.048371,0.293775,-0,0.297731,-5438.49,-36172.7,-0,36579.2,838593
step02_gravity_refstate-crust.xmf,1025,9.06008e-06,-1.41458e-05,0,1.60512e-05,-1.03206e+09,-1.03366e+09,-1.03269e+09,1.10111e+06,-0.0431578,0.36798,-0,0.370503,-2720.34,-37588.1,-0,37686.4,1.10111e+06
step02_gravity_refstate-crust.xmf,1026,1.47074e-05,-2.24871e-05,0,1.67208e-05,-1.04807e+09,-1.05062e+09,-1.04908e+09,1.14705e+06,-0.0367847,0.402531,-0,0.404208,-1801.21,-38180.7,-0,38223.2,1.14705e+06
step02_gravity_refstate-crust.xmf,1027,1.71093e-05,-2.72697e-05,0,1.93527e-05,-1.06224e+09,-1.06528e+09,-1.06341e+09,1.32759e+06,-0.0368781,0.422545,-0,0.424152,-1538.17,-38698.9,-0,38729.4,1.32759e+06
step02_gravity_refstate-crust.xmf,1028,-2.25422e-06,5.05511e-06,0,5.36437e-06,-9.24567e+08,-9.24066e+08,-9.24412e+08,367996,-0.0362286,0.185502,-0,0.189007,-12852.5,-33658.5,-0,36028.9,367996
step02_gravity_refstate-crust.xmf,1029,-5.90887e-07,4.94308e-06,0,2.37714e-07,-9.00493e+08,-9.00113e+08,-9.00452e+08,16307.2,-0.00226925,0.0814836,-0,0.0815152,-35695.7,-32788.6,-0,48469.3,16307.2
step02_gravity_refstate-crust.xmf,1030,-1.06565e-06,5.09059e-06,0,8.17843e-07,-8.62974e+08,-8.62551e+08,-8.62901e+08,56104,-0.00793902,0.0981355,-0,0.0984561,-29799.7,-31421,-0,43304.7,56104
step02_gravity_refstate-crust.xmf,1031,-1.22149e-06,5.21224e-06,0,1.04691e-06,-8.64862e+08,-8.64421e+08,-8.64778e+08,71817.8,-0.0100447,0.103043,-0,0.103531,-27883.8,-31489.3,-0,42060.5,71817.8
step02_gravity_refstate-crust.xmf,1032,-1.39417e-06,5.32755e-06,0,1.32115e-06,-8.65991e+08,-8.65529e+08,-8.65895e+08,90630.8,-0.0124602,0.109157,-0,0.109866,-25986.9,-31529.9,-0,40858.9,90630.8
step02_gravity_refstate-crust.xmf,1033,-1.58105e-06,5.42871e-06,0,1.66325e-06,-8.67147e+08,-8.66666e+08,-8.67038e+08,114099,-0.0153108,0.11679,-0,0.117789,-24022.6,-31571.4,-0,39671.6,114099
step02_gravity_refstate-crust.xmf,1034,-2.07102e-06,5.64304e-06,0,2.93377e-06,-8.88429e+08,-8.879e+08,-8.88287e+08,201257,-0.0243354,0.142316,-0,0.144382,-18619.2,-32344.5,-0,37320.8,201257
step02_gravity_refstate-crust.xmf,1035,-1.83359e-06,5.67534e-06,0,2.11832e-06,-8.87263e+08,-8.86748e+08,-8.87137e+08,145317,-0.0187943,0.125089,-0,0.126493,-21482.6,-32303.1,-0,38794.2,145317
step02_gravity_refstate-crust.xmf,1036,-1.96375e-06,5.68388e-06,0,2.49724e-06,-8.87613e+08,-8.87088e+08,-8.87478e+08,171310,-0.021479,0.133212,-0,0.134932,-20055.3,-32315.3,-0,38032.8,171310
step02_gravity_refstate-crust.xmf,1037,-4.9921e-07,4.8698e-06,0,3.40036e-09,-9.00502e+08,-9.00134e+08,-9.00468e+08,233.265,-1.69242e-19,0.0795103,-0,0.0795103,-40000,-32789.2,-0,51721.7,233.265
step02_gravity_refstate-crust.xmf,1038,3.32608e-05,-4.90436e-05,0,-3.70248e-07,-1.07327e+09,-1.07892e+09,-1.07555e+09,-25399,0.000236349,0.468395,0,0.468395,6.92885,-39132.2,0,39132.2,25399
step02_gravity_refstate-crust.xmf,1039,1.24713e-05,-1.79364e-05,0,-1.11045e-05,-1.01086e+09,-1.01294e+09,-1.01171e+09,-761772,0.0297718,0.372756,0,0.373943,1917.25,-36823.9,0,36873.8,761772
step02_gravity_refstate-crust.xmf,1040,1.82025e-06,-1.38451e-06,0,-7.39272e-06,-8.75323e+08,-8.75543e+08,-8.75448e+08,-507141,0.0377338,0.262178,0,0.26488,6904.64,-31872.2,0,32611.5,507141
step02_gravity_refstate-crust.xmf,1041,8.49289e-08,1.45186e-06,0,-5.8302e-06,-8.19338e+08,-8.19244e+08,-8.19344e+08,-399952,0.0359769,0.227226,0,0.230056,10120.5,-29831.4,0,31501.4,399952
step02_gravity_refstate-crust.xmf,1042,8.21837e-08,1.29795e-06,0,-6.38392e-06,-8.47369e+08,-8.47286e+08,-8.47375e+08,-437937,0.0377393,0.231982,0,0.235031,9528.2,-30851.7,0,32289.5,437937
step02_gravity_refstate-crust.xmf,1043,6.75467e-06,-9.57636e-06,0,-1.13243e-05,-9.80324e+08,-9.81445e+08,-9.80788e+08,-776845,0.038284,0.330815,0,0.333022,3434.15,-35702.2,0,35867,776845
step02_gravity_refstate-crust.xmf,1044,3.18344e-06,-3.95714e-06,0,-9.72947e-06,-9.41893e+08,-9.42383e+08,-9.42111e+08,-667441,0.0411197,0.291229,0,0.294118,5241.35,-34297.3,0,34695.5,667441
step02_gravity_refstate-crust.xmf,1045,-9.40109e-07,3.08814e-06,0,-4.79969e-06,-7.97602e+08,-7.97326e+08,-7.97538e+08,-329259,0.0333497,0.199534,0,0.202302,13298.4,-29038.5,0,31938.7,329259
step02_gravity_refstate-crust.xmf,1046,-1.30786e-06,3.79628e-06,0,-4.07623e-06,-7.84829e+08,-7.84479e+08,-7.84739e+08,-279630,0.0303804,0.182398,0,0.18491,15610.3,-28573.1,0,32559.2,279630
step02_gravity_refstate-crust.xmf,1047,-1.11384e-06,4.24217e-06,0,-8.56748e-07,-7.18117e+08,-7.17749e+08,-7.1804e+08,-58772.9,0.00781466,0.117081,0,0.117342,32348.9,-26145.8,0,41593.9,58772.9
step02_gravity_refstate-crust.xmf,1048,-1.23529e-06,4.5147e-06,0,-1.24495e-06,-7.53119e+08,-7.52724e+08,-7.53034e+08,-85403.9,0.0114045,0.119762,0,0.120304,28921,-27420,0,39853.3,85403.9
step02_gravity_refstate-crust.xmf,1049,-1.45917e-06,4.3582e-06,0,-2.57726e-06,-7.46714e+08,-7.46315e+08,-7.46614e+08,-176800,0.0216418,0.150494,0,0.152042,21528.5,-27185.7,0,34677.6,176800
step02_gravity_refstate-crust.xmf,1050,-1.32432e-06,4.50321e-06,0,-1.56093e-06,-7.47064e+08,-7.46664e+08,-7.46973e+08,-107080,0.0140228,0.127054,0,0.127825,26934.4,-27199.2,0,38278.7,107080
step02_gravity_refstate-crust.xmf,1051,-1.45401e-06,4.47682e-06,0,-2.22745e-06,-7.49879e+08,-7.49473e+08,-7.4978e+08,-152803,0.0192164,0.14182,0,0.143116,23180.9,-27301.2,0,35814.9,152803
step02_gravity_refstate-crust.xmf,1052,-1.3944e-06,4.47556e-06,0,-1.89411e-06,-7.43936e+08,-7.43533e+08,-7.4384e+08,-129936,0.0166511,0.134757,0,0.135782,25022.9,-27085,0,36874.7,129936
step02_gravity_refstate-crust.xmf,1053,-1.04517e-06,4.24193e-06,0,-5.77985e-07,-7.2524e+08,-7.24878e+08,-7.25169e+08,-39649.8,0.00532411,0.112236,0,0.112362,34617.2,-26405.4,0,43538.4,39649.8
step02_gravity_refstate-crust.xmf,1054,-9.97724e-07,4.22179e-06,0,-3.3402e-07,-7.2723e+08,-7.26872e+08,-7.27162e+08,-22913.8,0.00308454,0.109567,0,0.109611,36821.2,-26478,0,45352.9,22913.8
step02_gravity_refstate-crust.xmf,1055,-9.65354e-07,4.22319e-06,0,-1.3312e-07,-7.30911e+08,-7.30555e+08,-7.30845e+08,-9132.01,0.00122179,0.107949,0,0.107956,38722.1,-26612.2,0,46985.2,9132.01
step02_gravity_refstate-crust.xmf,1056,2.13979e-05,-3.32035e-05,0,2.23359e-05,-1.07631e+09,-1.08005e+09,-1.07777e+09,1.53224e+06,-0.0366382,0.446849,-0,0.448348,-1260.61,-39219.2,-0,39239.4,1.53224e+06
step02_gravity_refstate-crust.xmf,1057,4.4291e-07,-3.59892e-07,0,1.04075e-05,-9.69367e+08,-9.69422e+08,-9.69397e+08,713954,-0.0467388,0.27072,-0,0.274725,-6565.18,-35292,-0,35897.4,713954
step02_gravity_refstate-crust.xmf,1058,5.28384e-06,-8.54033e-06,0,1.46307e-05,-1.01522e+09,-1.01617e+09,-1.01558e+09,1.00367e+06,-0.0463017,0.336942,-0,0.340109,-3695.5,-36968.2,-0,37152.5,1.00367e+06
step02_gravity_refstate-crust.xmf,1059,3.18604e-06,-5.32051e-06,0,1.42031e-05,-1.014e+09,-1.01459e+09,-1.01422e+09,974333,-0.0489953,0.319912,-0,0.323642,-4394.47,-36920.4,-0,37181,974333
step02_gravity_refstate-crust.xmf,1060,1.40187e-06,-2.63354e-06,0,1.34611e-05,-1.0123e+09,-1.01257e+09,-1.01239e+09,923433,-0.0503501,0.302414,-0,0.306577,-5124.79,-36855.2,-0,37209.8,923433
step02_gravity_refstate-crust.xmf,1061,5.80764e-06,-9.92141e-06,0,1.64182e-05,-1.03167e+09,-1.03274e+09,-1.03206e+09,1.12629e+06,-0.0479147,0.350261,-0,0.353523,-3384.6,-37566.9,-0,37719.1,1.12629e+06
step02_gravity_refstate-crust.xmf,1062,1.01949e-05,-1.68625e-05,0,1.83659e-05,-1.04738e+09,-1.04924e+09,-1.04808e+09,1.2599e+06,-0.0441952,0.3847,-0,0.387231,-2421.5,-38146.1,-0,38222.9,1.2599e+06
step02_gravity_refstate-crust.xmf,1063,-7.45436e-07,1.76379e-06,0,8.96712e-06,-9.55242e+08,-9.5507e+08,-9.55191e+08,615145,-0.0453261,0.246137,-0,0.250276,-8026.39,-34776.3,-0,35690.5,615145
step02_gravity_refstate-crust.xmf,1064,-2.35835e-06,5.94362e-06,0,3.4894e-06,-9.23189e+08,-9.2262e+08,-9.23028e+08,239373,-0.027364,0.149896,-0,0.152373,-16622.8,-33609.3,-0,37495.4,239373
step02_gravity_refstate-crust.xmf,1065,-2.37601e-06,5.47696e-06,0,4.69919e-06,-9.24266e+08,-9.23727e+08,-9.24103e+08,322365,-0.0334556,0.172984,-0,0.17619,-14050.3,-33647.7,-0,36463.4,322365
step02_gravity_refstate-crust.xmf,1066,-2.4134e-06,5.7819e-06,0,4.06251e-06,-9.24642e+08,-9.2408e+08,-9.24477e+08,278688,-0.030411,0.160806,-0,0.163657,-15318.4,-33661.7,-0,36983.3,278688
step02_gravity_refstate-crust.xmf,1067,-1.46261e-06,3.06734e-06,0,8.0524e-06,-9.51838e+08,-9.51527e+08,-9.51738e+08,552395,-0.0439348,0.229596,-0,0.233762,-9108.28,-34651.4,-0,35828.5,552395
step02_gravity_refstate-crust.xmf,1068,-1.96761e-06,4.03631e-06,0,7.25328e-06,-9.512e+08,-9.50788e+08,-9.51065e+08,497575,-0.0421625,0.214947,-0,0.219043,-10123,-34627.7,-0,36077,497575
step02_gravity_refstate-crust.xmf,1069,-2.31058e-06,4.79491e-06,0,6.45338e-06,-9.50461e+08,-9.49974e+08,-9.50303e+08,442702,-0.0398798,0.200774,-0,0.204697,-11182.6,-34600.6,-0,36362.8,442702
step02_gravity_refstate-crust.xmf,1070,-2.51632e-06,5.36681e-06,0,5.68928e-06,-9.49908e+08,-9.49367e+08,-9.49736e+08,390284,-0.0372465,0.187323,-0,0.19099,-12273.7,-34580.5,-0,36694.1,390284
step02_gravity_refstate-crust.xmf,1071,-7.10873e-07,5.06965e-06,0,3.96834e-07,-9.04601e+08,-9.04205e+08,-9.04553e+08,27222.8,-0.00385464,0.0839419,-0,0.0840304,-33068.5,-32937.9,-0,46673.7,27222.8
step02_gravity_refstate-crust.xmf,1072,-1.69911e-06,5.62063e-06,0,1.81515e-06,-8.85477e+08,-8.84975e+08,-8.8536e+08,124520,-0.0165032,0.118574,-0,0.119717,-22830.6,-32238.5,-0,39503.9,124520
step02_gravity_refstate-crust.xmf,1073,-2.25562e-06,6.02872e-06,0,2.9729e-06,-9.22398e+08,-9.2183e+08,-9.22243e+08,203941,-0.0243222,0.139752,-0,0.141853,-17961.2,-33581,-0,38082.7,203941
step02_gravity_refstate-crust.xmf,1074,-3.94445e-07,4.96644e-06,0,8.62019e-08,-9.30808e+08,-9.3044e+08,-9.30781e+08,5913.45,-0.000776441,0.0745179,-0,0.074522,-37956.4,-33893.1,-0,50886.4,5913.45
step02_gravity_refstate-crust.xmf,1075,1.50821e-05,-2.20337e-05,0,-1.1568e-05,-1.02558e+09,-1.02812e+09,-1.02661e+09,-793565,0.0274216,0.390056,0,0.391019,1533.96,-37364.1,0,37395.6,793565
step02_gravity_refstate-crust.xmf,1076,2.81554e-05,-4.07573e-05,0,-8.68048e-06,-1.06466e+09,-1.06938e+09,-1.06659e+09,-595481,0.0134201,0.450617,0,0.450817,463.462,-38810.7,0,38813.5,595481
step02_gravity_refstate-crust.xmf,1077,2.22267e-05,-3.27935e-05,0,-1.19397e-05,-1.05396e+09,-1.05774e+09,-1.05549e+09,-819062,0.0215414,0.429564,0,0.430104,878.088,-38409.7,0,38419.7,819062
step02_gravity_refstate-crust.xmf,1078,1.81912e-05,-2.68046e-05,0,-1.18225e-05,-1.03975e+09,-1.04283e+09,-1.04099e+09,-811021,0.0247551,0.408551,0,0.4093,1193.94,-37885.1,0,37903.9,811021
step02_gravity_refstate-crust.xmf,1079,8.10391e-06,-1.18408e-05,0,-1.23285e-05,-9.97255e+08,-9.98623e+08,-9.97811e+08,-845736,0.0380911,0.345485,0,0.347579,2995.47,-36320.5,0,36443.8,845736
step02_gravity_refstate-crust.xmf,1080,9.73177e-06,-1.45285e-05,0,-1.33385e-05,-1.01261e+09,-1.01427e+09,-1.01327e+09,-915020,0.0374918,0.361051,0,0.362993,2582.09,-36881.9,0,36972.1,915020
step02_gravity_refstate-crust.xmf,1081,2.14864e-06,-1.94662e-06,0,-8.04391e-06,-8.98377e+08,-8.98658e+08,-8.98525e+08,-551813,0.0390697,0.269899,0,0.272712,6402.85,-32712,0,33332.7,551813
step02_gravity_refstate-crust.xmf,1082,9.0696e-07,-7.29423e-08,0,-7.27296e-06,-8.74841e+08,-8.74908e+08,-8.74903e+08,-498925,0.0390422,0.250071,0,0.2531,7900.17,-31853,0,32818.1,498925
step02_gravity_refstate-crust.xmf,1083,-5.27319e-07,2.34121e-06,0,-5.55193e-06,-8.21275e+08,-8.21079e+08,-8.21239e+08,-380862,0.0357978,0.214987,0,0.217947,11351.1,-29900.8,0,31982.9,380862
step02_gravity_refstate-crust.xmf,1084,1.39118e-07,1.13243e-06,0,-6.95536e-06,-8.73875e+08,-8.73807e+08,-8.73884e+08,-477138,0.0394956,0.237471,0,0.240733,8944.52,-31816.6,0,33050,477138
step02_gravity_refstate-crust.xmf,1085,3.83003e-06,-5.12337e-06,0,-1.05501e-05,-9.58819e+08,-9.59433e+08,-9.59081e+08,-723734,0.0417072,0.302105,0,0.30497,4748.84,-34914.3,0,35235.8,723734
step02_gravity_refstate-crust.xmf,1086,2.38285e-06,-2.60378e-06,0,-9.01059e-06,-9.24059e+08,-9.24401e+08,-9.24222e+08,-618126,0.0408141,0.278747,0,0.281719,5920.45,-33646.9,0,34163.8,618126
step02_gravity_refstate-crust.xmf,1087,-9.68715e-07,3.1019e-06,0,-5.17331e-06,-8.23933e+08,-8.23654e+08,-8.23866e+08,-354889,0.0349883,0.20308,0,0.206072,12572.2,-29997,0,32525.1,354889
step02_gravity_refstate-crust.xmf,1088,-1.21398e-06,3.5899e-06,0,-4.47393e-06,-8.0099e+08,-8.00661e+08,-8.00907e+08,-306912,0.0322595,0.189793,0,0.192515,14403.3,-29161.5,0,32524.6,306912
step02_gravity_refstate-crust.xmf,1089,-1.48245e-06,4.20285e-06,0,-3.56779e-06,-7.83278e+08,-7.82888e+08,-7.83176e+08,-244751,0.0278852,0.169787,0,0.172061,17378.8,-28516.5,0,33394.8,244751
step02_gravity_refstate-crust.xmf,1090,-1.56818e-06,4.46651e-06,0,-3.13235e-06,-7.83246e+08,-7.82832e+08,-7.83138e+08,-214879,0.0254267,0.159203,0,0.161221,18984.4,-28515.4,0,34256.9,214879
step02_gravity_refstate-crust.xmf,1091,-1.1371e-06,4.52195e-06,0,-9.62481e-07,-7.62298e+08,-7.61909e+08,-7.6222e+08,-66026.2,0.00896288,0.113191,0,0.113545,30871.5,-27754.6,0,41513.5,66026.2
step02_gravity_refstate-crust.xmf,1092,-1.59536e-06,4.65042e-06,0,-2.72781e-06,-7.84881e+08,-7.84452e+08,-7.84771e+08,-187128,0.0228987,0.14943,0,0.151174,20575,-28575.1,0,35211.8,187128
step02_gravity_refstate-crust.xmf,1093,-8.94388e-07,4.38154e-06,0,-3.08303e-09,-7.65745e+08,-7.65383e+08,-7.65683e+08,-211.496,1.25439e-19,0.102289,0,0.102289,40000,-27880.9,0,48758,211.496
step02_gravity_refstate-crust.xmf,1094,2.70553e-05,-4.42565e-05,0,2.451e-05,-1.0867e+09,-1.09159e+09,-1.08855e+09,1.68138e+06,-0.0304268,0.476475,-0,0.477446,-833.394,-39603.3,-0,39612,1.68138e+06
step02_gravity_refstate-crust.xmf,1095,3.95239e-05,-5.82827e-05,0,1.04455e-05,-1.08522e+09,-1.09193e+09,-1.08793e+09,716561,-0.0117306,0.489958,-0,0.490099,-297.518,-39578.3,-0,39579.4,716561
step02_gravity_refstate-crust.xmf,1096,2.75004e-07,-4.50476e-07,0,1.14174e-05,-9.90048e+08,-9.90097e+08,-9.90066e+08,783232,-0.0486428,0.277878,-0,0.282103,-6205.74,-36044.1,-0,36574.4,783232
step02_gravity_refstate-crust.xmf,1097,-4.3797e-07,1.07947e-06,0,9.79925e-06,-9.69175e+08,-9.69071e+08,-9.69145e+08,672229,-0.046719,0.257372,-0,0.261577,-7314.41,-35283.7,-0,36033.9,672229
step02_gravity_refstate-crust.xmf,1098,-2.60425e-08,-4.06633e-07,0,1.24979e-05,-1.01012e+09,-1.01015e+09,-1.01012e+09,857353,-0.0505892,0.284987,-0,0.289442,-5884.7,-36773.8,-0,37241.7,857353
step02_gravity_refstate-crust.xmf,1099,6.63344e-06,-1.1529e-05,0,1.8419e-05,-1.04743e+09,-1.04868e+09,-1.04789e+09,1.26354e+06,-0.0494739,0.365671,-0,0.369003,-3058.59,-38141.8,-0,38264.2,1.26354e+06
step02_gravity_refstate-crust.xmf,1100,1.19384e-05,-1.96866e-05,0,2.06889e-05,-1.06124e+09,-1.06341e+09,-1.06206e+09,1.41926e+06,-0.0451172,0.402663,-0,0.405183,-2137.53,-38653.3,-0,38712.4,1.41926e+06
step02_gravity_refstate-crust.xmf,1101,1.33703e-05,-2.32618e-05,0,2.38782e-05,-1.07338e+09,-1.0759e+09,-1.0743e+09,1.63804e+06,-0.0458405,0.421342,-0,0.423828,-1873.75,-39095.7,-0,39140.6,1.63804e+06
step02_gravity_refstate-crust.xmf,1102,-2.62659e-06,5.81537e-06,0,4.96081e-06,-9.5092e+08,-9.50341e+08,-9.5074e+08,340311,-0.034299,0.174228,-0,0.177572,-13407.3,-34617.6,-0,37123.2,340311
step02_gravity_refstate-crust.xmf,1103,-8.39722e-07,5.20484e-06,0,5.56333e-07,-9.07525e+08,-9.0711e+08,-9.07467e+08,38164.5,-0.00539976,0.087186,-0,0.087353,-30944.6,-33044,-0,45271.1,38164.5
step02_gravity_refstate-crust.xmf,1104,-4.44478e-07,5.14421e-06,0,2.15427e-07,-9.52773e+08,-9.5239e+08,-9.52743e+08,14778.3,-0.00188583,0.0733829,-0,0.0734071,-34257.3,-34692.8,-0,48756.1,14778.3
step02_gravity_refstate-crust.xmf,1105,-1.02285e-06,5.36374e-06,0,7.41698e-07,-9.10191e+08,-9.09753e+08,-9.10121e+08,50880.5,-0.00715423,0.0913333,-0,0.0916131,-28938.7,-33140.6,-0,43997.1,50880.5
step02_gravity_refstate-crust.xmf,1106,-1.21681e-06,5.51939e-06,0,9.66035e-07,-9.11406e+08,-9.10944e+08,-9.11323e+08,66270,-0.00922886,0.0966577,-0,0.0970973,-27015.3,-33184.3,-0,42790.4,66270
step02_gravity_refstate-crust.xmf,1107,-1.42194e-06,5.66781e-06,0,1.23141e-06,-9.12386e+08,-9.11899e+08,-9.12288e+08,84474.8,-0.0115765,0.102889,-0,0.103539,-25180.8,-33219.3,-0,41684.5,84474.8
step02_gravity_refstate-crust.xmf,1108,-1.61075e-06,5.82099e-06,0,1.49382e-06,-9.17335e+08,-9.16825e+08,-9.17224e+08,102476,-0.0137732,0.108599,-0,0.109469,-23549.8,-33399,-0,40866.7,102476
step02_gravity_refstate-crust.xmf,1109,-2.11694e-06,6.05643e-06,0,2.50215e-06,-9.2267e+08,-9.22109e+08,-9.22525e+08,171647,-0.0212687,0.130116,-0,0.131843,-19355.8,-33591.5,-0,38769,171647
step02_gravity_refstate-crust.xmf,1110,-1.7841e-06,5.96206e-06,0,1.75634e-06,-9.23499e+08,-9.22968e+08,-9.23377e+08,120485,-0.0158301,0.114028,-0,0.115121,-22128.3,-33622.9,-0,40251.2,120485
step02_gravity_refstate-crust.xmf,1111,-1.96039e-06,6.03451e-06,0,2.10356e-06,-9.23578e+08,-9.2303e+08,-9.23444e+08,144305,-0.0184503,0.121606,-0,0.122998,-20719.3,-33625.2,-0,39496.1,144305
step02_gravity_refstate-crust.xmf,1112,-2.43505e-06,6.40161e-06,0,3.00631e-06,-9.52744e+08,-9.52138e+08,-9.52577e+08,206233,-0.0241053,0.137631,-0,0.139726,-17329.9,-34685.7,-0,38774,206233
step02_gravity_refstate-crust.xmf,1113,-2.05586e-07,5.02034e-06,0,4.08269e-09,-9.66847e+08,-9.66489e+08,-9.66833e+08,280.072,-4.97945e-20,0.0675562,-0,0.0675562,-40000,-35206,-0,53286.6,280.072
step02_gravity_refstate-crust.xmf,1114,-3.34734e-07,5.0665e-06,0,1.27794e-07,-9.56105e+08,-9.55735e+08,-9.56082e+08,8766.7,-0.00106924,0.0709162,-0,0.0709242,-36207,-34814.5,-0,50229.4,8766.7
step02_gravity_refstate-crust.xmf,1115,3.99411e-05,-5.9002e-05,0,-8.55812e-06,-1.08545e+09,-1.09224e+09,-1.08819e+09,-587087,0.00974031,0.491258,0,0.491355,245.833,-39587.2,0,39587.9,587087
step02_gravity_refstate-crust.xmf,1116,3.18315e-05,-4.75526e-05,0,-1.30655e-05,-1.07603e+09,-1.08147e+09,-1.07821e+09,-896296,0.016745,0.468335,0,0.468635,500.253,-39229,0,39232.2,896296
step02_gravity_refstate-crust.xmf,1117,1.18102e-05,-1.77292e-05,0,-1.42484e-05,-1.02736e+09,-1.02938e+09,-1.02817e+09,-977440,0.0364909,0.37825,0,0.380006,2182.77,-37422.3,0,37485.9,977440
step02_gravity_refstate-crust.xmf,1118,1.07267e-06,-4.91339e-07,0,-7.95683e-06,-8.98301e+08,-8.98408e+08,-8.98374e+08,-545839,0.0405769,0.257202,0,0.260383,7357.27,-32707.1,0,33524.4,545839
step02_gravity_refstate-crust.xmf,1119,-5.21682e-07,2.27766e-06,0,-6.00916e-06,-8.47456e+08,-8.47264e+08,-8.47421e+08,-412228,0.0374791,0.219451,0,0.222629,10693.2,-30853.9,0,32654.4,412228
step02_gravity_refstate-crust.xmf,1120,-6.72749e-07,2.33667e-06,0,-6.55585e-06,-8.76781e+08,-8.76575e+08,-8.76735e+08,-449732,0.0393192,0.222722,0,0.226166,10176.5,-31921,0,33503.9,449732
step02_gravity_refstate-crust.xmf,1121,4.43499e-06,-6.06972e-06,0,-1.10537e-05,-9.6911e+08,-9.69831e+08,-9.69414e+08,-758286,0.0417868,0.310332,0,0.313132,4398.4,-35290,0,35563,758286
step02_gravity_refstate-crust.xmf,1122,4.85272e-06,-7.00952e-06,0,-1.19356e-05,-9.82428e+08,-9.83242e+08,-9.82761e+08,-818779,0.0426477,0.318509,0,0.321352,4127.8,-35775.1,0,36012.4,818779
step02_gravity_refstate-crust.xmf,1123,5.69418e-06,-8.63694e-06,0,-1.31605e-05,-9.99243e+08,-1.00023e+09,-9.99634e+08,-902811,0.0433725,0.331668,0,0.334492,3709.94,-36388.1,0,36576.7,902811
step02_gravity_refstate-crust.xmf,1124,2.40375e-06,-3.19198e-06,0,-1.07524e-05,-9.63226e+08,-9.6361e+08,-9.63391e+08,-737612,0.0444688,0.290564,0,0.293947,5444.72,-35072,0,35492.1,737612
step02_gravity_refstate-crust.xmf,1125,2.03389e-06,-2.37705e-06,0,-9.90161e-06,-9.47068e+08,-9.47371e+08,-9.47208e+08,-679251,0.0434588,0.281209,0,0.284547,5895.93,-34483.5,0,34983.9,679251
step02_gravity_refstate-crust.xmf,1126,-1.33362e-06,3.7235e-06,0,-4.75969e-06,-8.26654e+08,-8.26307e+08,-8.26563e+08,-326515,0.0336303,0.19144,0,0.194371,13812.5,-30095.5,0,33113.8,326515
step02_gravity_refstate-crust.xmf,1127,-1.53093e-06,4.15246e-06,0,-4.29511e-06,-8.23888e+08,-8.23498e+08,-8.23783e+08,-294644,0.0316997,0.180634,0,0.183394,15121.9,-29994.7,0,33591,294644
step02_gravity_refstate-crust.xmf,1128,-1.02459e-06,4.57541e-06,0,-6.71829e-07,-7.84075e+08,-7.83691e+08,-7.84005e+08,-46087.5,0.00639218,0.105341,0,0.105535,32969.2,-28548,0,43611.4,46087.5
step02_gravity_refstate-crust.xmf,1129,-1.17507e-06,4.78473e-06,0,-1.03503e-06,-8.01698e+08,-8.01289e+08,-8.01617e+08,-71002.8,0.00979123,0.109798,0,0.110234,29550.1,-29189.3,0,41535.8,71002.8
step02_gravity_refstate-crust.xmf,1130,-1.29453e-06,4.81462e-06,0,-1.31042e-06,-7.96045e+08,-7.95626e+08,-7.95956e+08,-89895.1,0.0121942,0.11621,0,0.116848,27693,-28983,0,40086.4,89895.1
step02_gravity_refstate-crust.xmf,1131,-1.57238e-06,4.77288e-06,0,-2.33255e-06,-7.87681e+08,-7.87246e+08,-7.87573e+08,-160013,0.0202115,0.139974,0,0.141426,22251.1,-28677.3,0,36297.4,160013
step02_gravity_refstate-crust.xmf,1132,-1.40825e-06,4.82725e-06,0,-1.62579e-06,-7.9132e+08,-7.90892e+08,-7.91223e+08,-111529,0.0148171,0.123599,0,0.124484,25818.4,-28810.6,0,38686.4,111529
step02_gravity_refstate-crust.xmf,1133,-1.50451e-06,4.82242e-06,0,-1.96537e-06,-7.89289e+08,-7.88855e+08,-7.89186e+08,-134824,0.0174993,0.131428,0,0.132588,23999,-28736.2,0,37439.6,134824
step02_gravity_refstate-crust.xmf,1134,-8.61934e-07,4.51007e-06,0,-1.92902e-07,-7.92161e+08,-7.91793e+08,-7.92102e+08,-13233.1,0.00181029,0.0985734,0,0.09859,37849.6,-28842.9,0,47586.9,13233.1
step02_gravity_refstate-crust.xmf,1135,-9.27203e-07,4.52651e-06,0,-4.17934e-07,-7.87336e+08,-7.86962e+08,-7.87273e+08,-28670.2,0.00399382,0.101332,0,0.10141,35417.6,-28667,0,45565.4,28670.2
step02_gravity_refstate-crust.xmf,1136,2.1431e-05,-3.58646e-05,0,2.89185e-05,-1.08904e+09,-1.09297e+09,-1.09051e+09,1.98381e+06,-0.0422344,0.462311,-0,0.464236,-1265.71,-39678.7,-0,39698.9,1.98381e+06
step02_gravity_refstate-crust.xmf,1137,-7.4119e-07,1.25148e-06,0,1.05283e-05,-9.87995e+08,-9.87859e+08,-9.87944e+08,722240,-0.0482692,0.261835,-0,0.266247,-7027.34,-35967.9,-0,36648,722240
step02_gravity_refstate-crust.xmf,1138,3.18161e-06,-6.07178e-06,0,1.59305e-05,-1.03154e+09,-1.03218e+09,-1.03176e+09,1.09283e+06,-0.0509881,0.331481,-0,0.335379,-4080.51,-37557.8,-0,37778.8,1.09283e+06
step02_gravity_refstate-crust.xmf,1139,1.16491e-06,-2.83007e-06,0,1.48979e-05,-1.03072e+09,-1.03099e+09,-1.0308e+09,1.02199e+06,-0.0524181,0.311914,-0,0.316288,-4813.82,-37524.7,-0,37832.2,1.02199e+06
step02_gravity_refstate-crust.xmf,1140,-3.6929e-07,-3.17768e-07,0,1.36556e-05,-1.02894e+09,-1.02894e+09,-1.02892e+09,936774,-0.0524693,0.292611,-0,0.297278,-5570.68,-37457.6,-0,37869.6,936774
step02_gravity_refstate-crust.xmf,1141,3.31928e-06,-7.06493e-06,0,1.79655e-05,-1.04849e+09,-1.0492e+09,-1.04872e+09,1.23243e+06,-0.0529416,0.345592,-0,0.349623,-3727.47,-38173.7,-0,38355.3,1.23243e+06
step02_gravity_refstate-crust.xmf,1142,7.24028e-06,-1.35926e-05,0,2.09204e-05,-1.06135e+09,-1.06277e+09,-1.06184e+09,1.43514e+06,-0.0507915,0.382239,-0,0.385599,-2740.43,-38647.6,-0,38744.6,1.43514e+06
step02_gravity_refstate-crust.xmf,1143,1.4554e-05,-2.55065e-05,0,2.82827e-05,-1.08668e+09,-1.08943e+09,-1.08768e+09,1.94019e+06,-0.0487186,0.43999,-0,0.442679,-1706.45,-39581,-0,39617.7,1.94019e+06
step02_gravity_refstate-crust.xmf,1144,-1.43324e-06,2.52009e-06,0,9.61128e-06,-9.84617e+08,-9.84346e+08,-9.84519e+08,659334,-0.0471623,0.246821,-0,0.251287,-7852.47,-35844.1,-0,36694.1,659334
step02_gravity_refstate-crust.xmf,1145,-1.84333e-06,3.40348e-06,0,8.66506e-06,-9.76598e+08,-9.76238e+08,-9.76472e+08,594423,-0.0454271,0.232838,-0,0.237228,-8717.72,-35551.8,-0,36605.1,594423
step02_gravity_refstate-crust.xmf,1146,-2.58229e-06,6.36326e-06,0,3.54168e-06,-9.54728e+08,-9.54114e+08,-9.54551e+08,242959,-0.0271865,0.147673,-0,0.150154,-16048,-34757.2,-0,38283.2,242959
step02_gravity_refstate-crust.xmf,1147,-2.70686e-06,6.24888e-06,0,4.20209e-06,-9.58152e+08,-9.57537e+08,-9.57966e+08,288263,-0.0306025,0.159523,-0,0.162432,-14677.6,-34881.2,-0,37843.5,288263
step02_gravity_refstate-crust.xmf,1148,-2.32882e-06,4.40284e-06,0,7.74238e-06,-9.76058e+08,-9.75596e+08,-9.75898e+08,531127,-0.0433934,0.217567,-0,0.221852,-9684.49,-35531.8,-0,36827.9,531127
step02_gravity_refstate-crust.xmf,1149,-2.63812e-06,5.15778e-06,0,6.85543e-06,-9.7524e+08,-9.74705e+08,-9.75059e+08,470282,-0.0409084,0.20303,-0,0.20711,-10684.6,-35501.9,-0,37074.8,470282
step02_gravity_refstate-crust.xmf,1150,-2.8745e-06,6.12463e-06,0,5.23928e-06,-9.73719e+08,-9.73101e+08,-9.73521e+08,359415,-0.0350724,0.176159,-0,0.179617,-12797.5,-35447.1,-0,37686.5,359415
step02_gravity_refstate-crust.xmf,1151,-2.80909e-06,5.71964e-06,0,6.01391e-06,-9.7432e+08,-9.73735e+08,-9.74128e+08,412554,-0.0380898,0.189176,-0,0.192973,-11726.9,-35468.6,-0,37356.9,412554
step02_gravity_refstate-crust.xmf,1152,-5.85339e-07,5.28378e-06,0,3.27573e-07,-9.54294e+08,-9.53891e+08,-9.54254e+08,22471.5,-0.00293627,0.0761546,-0,0.0762112,-32072.6,-34747.8,-0,47287,22471.5
step02_gravity_refstate-crust.xmf,1153,-2.26459e-06,6.41002e-06,0,2.51358e-06,-9.53652e+08,-9.53057e+08,-9.53496e+08,172432,-0.0209378,0.12775,-0,0.129455,-18656.3,-34719.4,-0,39414.4,172432
step02_gravity_refstate-crust.xmf,1154,-8.20017e-08,5.09281e-06,0,4.09446e-08,-9.97355e+08,-9.97e+08,-9.9735e+08,2808.8,-0.000132433,0.0623881,-0,0.0623883,-37790.9,-36317.3,-0,52412.8,2808.8
step02_gravity_refstate-crust.xmf,1155,1.43656e-05,-2.20656e-05,0,-1.56397e-05,-1.04163e+09,-1.04413e+09,-1.04262e+09,-1.07288e+06,0.0350933,0.397247,0,0.398794,1804.34,-37945.6,0,37988.5,1.07288e+06
step02_gravity_refstate-crust.xmf,1156,2.34748e-05,-3.6367e-05,0,-1.83429e-05,-1.07055e+09,-1.07465e+09,-1.07216e+09,-1.25833e+06,0.0291112,0.447294,0,0.44824,1013.6,-39013,0,39026.1,1.25833e+06
step02_gravity_refstate-crust.xmf,1157,1.76567e-05,-2.72805e-05,0,-1.70176e-05,-1.05525e+09,-1.05833e+09,-1.05646e+09,-1.1674e+06,0.0332913,0.41805,0,0.419374,1454.52,-38446.6,0,38474.1,1.1674e+06
step02_gravity_refstate-crust.xmf,1158,3.00891e-05,-4.61837e-05,0,-2.25712e-05,-1.08539e+09,-1.09062e+09,-1.08745e+09,-1.54838e+06,0.0277625,0.477339,0,0.478146,759.568,-39564.8,0,39572.1,1.54838e+06
step02_gravity_refstate-crust.xmf,1159,6.87289e-06,-1.07624e-05,0,-1.44888e-05,-1.01486e+09,-1.01607e+09,-1.01533e+09,-993930,0.0436547,0.346832,0,0.349569,3270.65,-36958.2,0,37102.6,993930
step02_gravity_refstate-crust.xmf,1160,8.42039e-06,-1.3468e-05,0,-1.59176e-05,-1.02923e+09,-1.03074e+09,-1.02981e+09,-1.09195e+06,0.0434727,0.363651,0,0.366241,2834.15,-37483.5,0,37590.5,1.09195e+06
step02_gravity_refstate-crust.xmf,1161,1.19793e-06,-8.01843e-07,0,-8.70002e-06,-9.21588e+08,-9.21725e+08,-9.2167e+08,-596821,0.0423006,0.263932,0,0.267301,6914.68,-33554.9,0,34260,596821
step02_gravity_refstate-crust.xmf,1162,1.53216e-07,8.75902e-07,0,-7.65093e-06,-8.98977e+08,-8.98927e+08,-8.98988e+08,-524854,0.0412485,0.243849,0,0.247313,8362.94,-32730.1,0,33781.7,524854
step02_gravity_refstate-crust.xmf,1163,-1.05648e-06,3.11186e-06,0,-5.60662e-06,-8.49972e+08,-8.49686e+08,-8.49899e+08,-384614,0.0366362,0.206798,0,0.210018,11888.4,-30944.6,0,33149.7,384614
step02_gravity_refstate-crust.xmf,1164,-5.82885e-07,2.08072e-06,0,-7.19183e-06,-9.00482e+08,-9.00299e+08,-9.00442e+08,-493359,0.0411138,0.230371,0,0.234011,9392.79,-32783.8,0,34102.8,493359
step02_gravity_refstate-crust.xmf,1165,3.16434e-06,-4.47001e-06,0,-1.17349e-05,-9.80203e+08,-9.80727e+08,-9.8042e+08,-805011,0.0452377,0.303595,0,0.306947,4871.58,-35691.2,0,36022.1,805011
step02_gravity_refstate-crust.xmf,1166,1.06555e-06,-9.43519e-07,0,-9.55407e-06,-9.44178e+08,-9.44316e+08,-9.44251e+08,-655409,0.0442345,0.269343,0,0.272951,6610.34,-34376.6,0,35006.4,655409
step02_gravity_refstate-crust.xmf,1167,-1.45224e-06,3.85408e-06,0,-5.12858e-06,-8.55032e+08,-8.54668e+08,-8.54932e+08,-351820,0.035254,0.194116,0,0.197292,13101.6,-31128.4,0,33773.2,351820
step02_gravity_refstate-crust.xmf,1168,-1.66558e-06,4.49209e-06,0,-3.80717e-06,-8.20263e+08,-8.1984e+08,-8.20149e+08,-261172,0.0293643,0.169839,0,0.172359,16562.8,-29862.7,0,34148.3,261172
step02_gravity_refstate-crust.xmf,1169,-1.73106e-06,4.75213e-06,0,-3.32675e-06,-8.1897e+08,-8.18525e+08,-8.18851e+08,-228215,0.0267379,0.158949,0,0.161182,18109.5,-29815.8,0,34884.6,228215
step02_gravity_refstate-crust.xmf,1170,-1.75335e-06,4.97141e-06,0,-2.86222e-06,-8.22736e+08,-8.22274e+08,-8.22616e+08,-196348,0.0239398,0.148042,0,0.149965,19688.5,-29953.1,0,35844.5,196348
step02_gravity_refstate-crust.xmf,1171,-1.07405e-06,4.75435e-06,0,-8.2254e-07,-8.07406e+08,-8.07006e+08,-8.07332e+08,-56426.3,0.00787891,0.104931,0,0.105227,31156.7,-29397.4,0,42836.3,56426.3
step02_gravity_refstate-crust.xmf,1172,-1.71243e-06,5.09541e-06,0,-2.43445e-06,-8.25961e+08,-8.25494e+08,-8.25844e+08,-167003,0.0210895,0.138114,0,0.139715,21297.6,-30070.9,0,36849,167003
step02_gravity_refstate-crust.xmf,1173,-7.29409e-07,4.65698e-06,0,-2.59097e-09,-8.33527e+08,-8.33158e+08,-8.33477e+08,-177.741,8.45137e-20,0.091132,0,0.091132,40000,-30349.7,0,50210.6,177.741
step02_gravity_refstate-crust.xmf,1174,4.24791e-05,-6.56725e-05,0,2.03276e-05,-1.09679e+09,-1.10421e+09,-1.09971e+09,1.39447e+06,-0.0218512,0.510745,-0,0.511212,-499.828,-40000,-0,40003.1,1.39447e+06
step02_gravity_refstate-crust.xmf,1175,4.48756e-05,-7.15642e-05,0,2.07304e-07,-1.09678e+09,-1.10476e+09,-1.09986e+09,14221.1,4.66032e-06,0.519852,0,0.519852,-1.02887e-10,-40000,-0,40000,14221.1
step02_gravity_refstate-crust.xmf,1176,-1.0818e-06,1.41493e-06,0,1.14365e-05,-1.00827e+09,-1.0081e+09,-1.0082e+09,784546,-0.0499946,0.26799,-0,0.272613,-6672.03,-36704.9,-0,37306.4,784546
step02_gravity_refstate-crust.xmf,1177,-1.50506e-06,1.68382e-06,0,1.23636e-05,-1.02738e+09,-1.02716e+09,-1.02728e+09,848146,-0.0516103,0.274205,-0,0.27902,-6342.73,-37399.4,-0,37933.5,848146
step02_gravity_refstate-crust.xmf,1178,3.80279e-06,-8.32568e-06,0,2.00836e-05,-1.06324e+09,-1.06407e+09,-1.0635e+09,1.37773e+06,-0.054596,0.361528,-0,0.365627,-3361.76,-38710.7,-0,38856.4,1.37773e+06
step02_gravity_refstate-crust.xmf,1179,8.07273e-06,-1.53112e-05,0,2.33631e-05,-1.07323e+09,-1.07484e+09,-1.07378e+09,1.60271e+06,-0.052178,0.397832,-0,0.401239,-2483.02,-39081,-0,39159.8,1.60271e+06
step02_gravity_refstate-crust.xmf,1180,7.75386e-06,-1.643e-05,0,2.67222e-05,-1.08601e+09,-1.08767e+09,-1.08654e+09,1.83314e+06,-0.0543942,0.414102,-0,0.417659,-2268.3,-39543.1,-0,39608.1,1.83314e+06
step02_gravity_refstate-crust.xmf,1181,-2.87156e-06,6.40293e-06,0,4.57329e-06,-9.74203e+08,-9.73567e+08,-9.74006e+08,313727,-0.0321141,0.164599,-0,0.167703,-13820.7,-35465.1,-0,38062.9,313727
step02_gravity_refstate-crust.xmf,1182,-1.50486e-07,5.18289e-06,0,8.2686e-08,-1.00076e+09,-1.0004e+09,-1.00075e+09,5672.26,-0.000326313,0.0632446,-0,0.0632454,-35367.6,-36441.2,-0,50782.2,5672.26
step02_gravity_refstate-crust.xmf,1183,-7.45841e-07,5.44963e-06,0,4.62974e-07,-9.56404e+08,-9.55979e+08,-9.56353e+08,31760,-0.00422296,0.0797118,-0,0.0798236,-29990.4,-34824.3,-0,45958.2,31760
step02_gravity_refstate-crust.xmf,1184,-2.763e-07,5.31481e-06,0,1.43594e-07,-1.00166e+09,-1.00128e+09,-1.00164e+09,9850.54,-0.000743571,0.065397,-0,0.0654013,-33170.5,-36473.6,-0,49301.2,9850.54
step02_gravity_refstate-crust.xmf,1185,-1.20159e-06,5.82872e-06,0,8.58448e-07,-9.56833e+08,-9.56351e+08,-9.56751e+08,58889.5,-0.00792184,0.0902418,-0,0.0905888,-26109.3,-34838.6,-0,43536.5,58889.5
step02_gravity_refstate-crust.xmf,1186,-9.64564e-07,5.64379e-06,0,6.338e-07,-9.58189e+08,-9.57736e+08,-9.58123e+08,43478.7,-0.00581558,0.0841976,-0,0.0843983,-28008.3,-34888.7,-0,44740.2,43478.7
step02_gravity_refstate-crust.xmf,1187,-1.43973e-06,6.00547e-06,0,1.12211e-06,-9.56363e+08,-9.55852e+08,-9.56264e+08,76976.8,-0.0102656,0.0968465,-0,0.097389,-24339.1,-34820.8,-0,42483.9,76976.8
step02_gravity_refstate-crust.xmf,1188,-1.66256e-06,6.17846e-06,0,1.39262e-06,-9.58989e+08,-9.58451e+08,-9.58875e+08,95533.8,-0.0125149,0.103083,-0,0.10384,-22764.6,-34915.8,-0,41681.4,95533.8
step02_gravity_refstate-crust.xmf,1189,-2.08005e-06,6.39937e-06,0,2.07252e-06,-9.57991e+08,-9.57409e+08,-9.57848e+08,142175,-0.0178059,0.118291,-0,0.119623,-19962.9,-34878.1,-0,40187.1,142175
step02_gravity_refstate-crust.xmf,1190,-1.87916e-06,6.33665e-06,0,1.69268e-06,-9.62057e+08,-9.61493e+08,-9.61928e+08,116118,-0.0148814,0.109721,-0,0.110725,-21298.2,-35026.8,-0,40993.8,116118
step02_gravity_refstate-crust.xmf,1191,-2.40732e-06,6.74617e-06,0,2.5221e-06,-9.80888e+08,-9.8026e+08,-9.80723e+08,173016,-0.0204444,0.125811,-0,0.127462,-18007.3,-35710.9,-0,39994.1,173016
step02_gravity_refstate-crust.xmf,1192,-2.61197e-06,6.79259e-06,0,3.01345e-06,-9.82271e+08,-9.81626e+08,-9.82092e+08,206723,-0.023522,0.135302,-0,0.137331,-16731.9,-35760.5,-0,39481.3,206723
step02_gravity_refstate-crust.xmf,1193,1.43676e-07,5.11226e-06,0,6.09306e-10,-1.03276e+09,-1.03242e+09,-1.03277e+09,41.7984,6.54981e-20,0.0553904,0,0.0553904,-40000,-37607.2,-0,54902.7,41.7984
step02_gravity_refstate-crust.xmf,1194,4.26085e-05,-6.45124e-05,0,-2.12054e-05,-1.09673e+09,-1.10408e+09,-1.09965e+09,-1.45469e+06,0.0218678,0.51075,0,0.511218,499.828,-40000,0,40003.1,1.45469e+06
step02_gravity_refstate-crust.xmf,1195,1.03858e-05,-1.65891e-05,0,-1.74828e-05,-1.04349e+09,-1.04534e+09,-1.0442e+09,-1.19932e+06,0.043249,0.382112,0,0.384552,2430.34,-38005.6,0,38083.2,1.19932e+06
step02_gravity_refstate-crust.xmf,1196,1.7431e-07,6.44062e-07,0,-8.36652e-06,-9.21957e+08,-9.21925e+08,-9.21969e+08,-573943,0.0429493,0.25036,0,0.254018,7844.41,-33566.5,0,34470.9,573943
step02_gravity_refstate-crust.xmf,1197,-1.06781e-06,3.04042e-06,0,-6.01992e-06,-8.69581e+08,-8.69299e+08,-8.69507e+08,-412967,0.0380657,0.211429,0,0.214829,11240.6,-31658.3,0,33594.7,412967
step02_gravity_refstate-crust.xmf,1198,-1.16072e-06,3.00099e-06,0,-6.77368e-06,-9.04331e+08,-9.04046e+08,-9.04251e+08,-464674,0.0405195,0.218847,0,0.222567,10276.8,-32923,0,34489.7,464674
step02_gravity_refstate-crust.xmf,1199,3.48955e-06,-5.58327e-06,0,-1.32889e-05,-1.00088e+09,-1.00151e+09,-1.00112e+09,-911621,0.0470075,0.316197,0,0.319672,4443.48,-36443.7,0,36713.6,911621
step02_gravity_refstate-crust.xmf,1200,4.18333e-06,-7.09107e-06,0,-1.48158e-05,-1.01768e+09,-1.01845e+09,-1.01796e+09,-1.01636e+06,0.0481466,0.330562,0,0.33405,3988.04,-37055.5,0,37269.5,1.01636e+06
step02_gravity_refstate-crust.xmf,1201,1.11619e-06,-1.32773e-06,0,-1.05076e-05,-9.65125e+08,-9.65293e+08,-9.65202e+08,-720820,0.0459982,0.277374,0,0.281162,6188.86,-35138.8,0,35679.7,720820
step02_gravity_refstate-crust.xmf,1202,1.3182e-06,-1.9842e-06,0,-1.1595e-05,-9.8397e+08,-9.84196e+08,-9.8406e+08,-795419,0.0475681,0.287608,0,0.291515,5704.52,-35824.7,0,36276,795419
step02_gravity_refstate-crust.xmf,1203,-1.72777e-06,4.40926e-06,0,-4.58396e-06,-8.55759e+08,-8.55338e+08,-8.5564e+08,-314460,0.0331317,0.181579,0,0.184577,14435.4,-31154.6,0,34336.4,314460
step02_gravity_refstate-crust.xmf,1204,-1.86507e-06,4.80381e-06,0,-4.03079e-06,-8.55071e+08,-8.54614e+08,-8.54943e+08,-276512,0.0305799,0.169546,0,0.172282,15852.4,-31129.6,0,34933.5,276512
step02_gravity_refstate-crust.xmf,1205,-8.5071e-07,4.79534e-06,0,-4.55355e-07,-8.41806e+08,-8.41418e+08,-8.41747e+08,-31237.4,0.00444003,0.0937573,0,0.0938624,34077.5,-30650.8,0,45833.9,31237.4
step02_gravity_refstate-crust.xmf,1206,-9.483e-07,4.8787e-06,0,-6.28787e-07,-8.42908e+08,-8.42508e+08,-8.42843e+08,-43134.8,0.00612689,0.0966784,0,0.0968723,32155.8,-30690.6,0,44451.2,43134.8
step02_gravity_refstate-crust.xmf,1207,-1.06497e-06,4.98585e-06,0,-8.21779e-07,-8.46047e+08,-8.45632e+08,-8.45974e+08,-56374,0.00796157,0.100181,0,0.100497,30236.5,-30804.6,0,43164.5,56374
step02_gravity_refstate-crust.xmf,1208,-1.20349e-06,5.06868e-06,0,-1.0512e-06,-8.4395e+08,-8.4352e+08,-8.43867e+08,-72112.3,0.0100698,0.10537,0,0.10585,28417.4,-30727.8,0,41853.9,72112.3
step02_gravity_refstate-crust.xmf,1209,-1.35781e-06,5.12297e-06,0,-1.34135e-06,-8.38153e+08,-8.37709e+08,-8.3806e+08,-92016.3,0.0126126,0.112404,0,0.11311,26558.4,-30516.2,0,40454.8,92016.3
step02_gravity_refstate-crust.xmf,1210,-1.6245e-06,5.15228e-06,0,-2.03517e-06,-8.29486e+08,-8.29021e+08,-8.29374e+08,-139613,0.0181971,0.128822,0,0.130101,22981.4,-30199.7,0,37949.5,139613
step02_gravity_refstate-crust.xmf,1211,-1.5022e-06,5.15611e-06,0,-1.66981e-06,-8.3343e+08,-8.32973e+08,-8.33327e+08,-114549,0.0153453,0.120237,0,0.121212,24739.2,-30343.8,0,39150.6,114549
step02_gravity_refstate-crust.xmf,1212,-7.53301e-07,4.75132e-06,0,-2.80454e-07,-8.47054e+08,-8.46676e+08,-8.47002e+08,-19239.1,0.00272472,0.0905127,0,0.0905537,36145.8,-30842.1,0,47515.9,19239.1
step02_gravity_refstate-crust.xmf,1213,-6.41471e-07,4.78302e-06,0,-1.23845e-07,-8.66577e+08,-8.66205e+08,-8.66533e+08,-8495.74,0.00118901,0.0858586,0,0.0858669,38106.4,-31553.4,0,49474.4,8495.74
step02_gravity_refstate-crust.xmf,1214,-1.85518e-06,2.87235e-06,0,1.03265e-05,-1.00593e+09,-1.00561e+09,-1.0058e+09,708397,-0.0486492,0.251311,-0,0.255976,-7502.44,-36618.9,-0,37379.5,708397
step02_gravity_refstate-crust.xmf,1215,5.46585e-07,-2.78906e-06,0,1.67359e-05,-1.05134e+09,-1.05157e+09,-1.05138e+09,1.14808e+06,-0.0548849,0.322519,-0,0.327156,-4508.45,-38273.1,-0,38537.7,1.14808e+06
step02_gravity_refstate-crust.xmf,1216,-2.02211e-06,2.03603e-06,0,1.33311e-05,-1.04564e+09,-1.04536e+09,-1.0455e+09,914516,-0.0530784,0.280428,-0,0.285407,-6036.24,-38062.5,-0,38538.2,914516
step02_gravity_refstate-crust.xmf,1217,-9.14138e-07,-8.71057e-08,0,1.4943e-05,-1.04734e+09,-1.04729e+09,-1.04728e+09,1.02509e+06,-0.0543139,0.300629,-0,0.305496,-5268.4,-38125.8,-0,38488.1,1.02509e+06
step02_gravity_refstate-crust.xmf,1218,9.5974e-07,-4.2014e-06,0,1.89126e-05,-1.06598e+09,-1.06633e+09,-1.06604e+09,1.2974e+06,-0.0564755,0.341374,-0,0.346014,-3969.7,-38805.3,-0,39007.8,1.2974e+06
step02_gravity_refstate-crust.xmf,1219,4.4683e-06,-1.01274e-05,0,2.21244e-05,-1.0726e+09,-1.0736e+09,-1.0729e+09,1.51773e+06,-0.0552485,0.377168,-0,0.381193,-3014.67,-39051.3,-0,39167.5,1.51773e+06
step02_gravity_refstate-crust.xmf,1220,-2.3876e-06,3.97963e-06,0,9.26276e-06,-1.00325e+09,-1.00281e+09,-1.00309e+09,635425,-0.0467534,0.235426,-0,0.240023,-8362.26,-36520.8,-0,37465.9,635425
step02_gravity_refstate-crust.xmf,1221,-2.77504e-06,4.89116e-06,0,8.22883e-06,-1.00126e+09,-1.00074e+09,-1.00107e+09,564498,-0.0444146,0.220002,-0,0.22444,-9266.67,-36448.3,-0,37607.9,564498
step02_gravity_refstate-crust.xmf,1222,-2.79e-06,6.8448e-06,0,3.47756e-06,-9.87325e+08,-9.86664e+08,-9.87133e+08,238561,-0.0261105,0.143627,-0,0.145981,-15621.7,-35943.8,-0,39191.8,238561
step02_gravity_refstate-crust.xmf,1223,-3.0246e-06,5.61437e-06,0,7.24019e-06,-9.99971e+08,-9.99379e+08,-9.99764e+08,496677,-0.0416775,0.205007,-0,0.209201,-10220.5,-36401.4,-0,37809,496677
step02_gravity_refstate-crust.xmf,1224,-2.95374e-06,6.82399e-06,0,4.0522e-06,-9.9095e+08,-9.9028e+08,-9.90748e+08,277981,-0.02911,0.153729,-0,0.156461,-14476.6,-36075.2,-0,38871.4,277981
step02_gravity_refstate-crust.xmf,1225,-3.14408e-06,6.14761e-06,0,6.31699e-06,-9.98696e+08,-9.98058e+08,-9.9848e+08,433345,-0.0386519,0.190716,-0,0.194593,-11219.3,-36355.3,-0,38047.1,433345
step02_gravity_refstate-crust.xmf,1226,-3.09367e-06,6.74493e-06,0,4.71482e-06,-9.95363e+08,-9.94688e+08,-9.9515e+08,323437,-0.0322111,0.164823,-0,0.167941,-13341,-36235.1,-0,38613,323437
step02_gravity_refstate-crust.xmf,1227,-3.16044e-06,6.51968e-06,0,5.47047e-06,-9.97343e+08,-9.96679e+08,-9.97126e+08,375274,-0.0354453,0.177232,-0,0.180742,-12262.2,-36306.6,-0,38321.4,375274
step02_gravity_refstate-crust.xmf,1228,-4.36883e-07,5.48501e-06,0,2.23752e-07,-1.00343e+09,-1.00303e+09,-1.0034e+09,15349.4,-0.00138625,0.0681787,-0,0.0681927,-31093.7,-36537.7,-0,47977.3,15349.4
step02_gravity_refstate-crust.xmf,1229,-1.18617e-06,6.12048e-06,0,7.58814e-07,-9.9675e+08,-9.96249e+08,-9.96669e+08,52054.6,-0.00641065,0.084862,-0,0.0851038,-25149.7,-36292.4,-0,44154.7,52054.6
step02_gravity_refstate-crust.xmf,1230,-2.20162e-06,6.66808e-06,0,2.12179e-06,-9.80404e+08,-9.79795e+08,-9.80253e+08,145555,-0.0177,0.11763,-0,0.118954,-19218.6,-35694,-0,40539.1,145555
step02_gravity_refstate-crust.xmf,1231,2.40632e-07,5.14215e-06,0,-4.53967e-09,-1.05199e+09,-1.05165e+09,-1.05201e+09,-311.421,0.000423282,0.0520282,0,0.05203,-38314,-38307.6,-0,54179.7,311.421
step02_gravity_refstate-crust.xmf,1232,1.57868e-07,5.19027e-06,0,-9.52597e-10,-1.04725e+09,-1.0469e+09,-1.04726e+09,-65.3481,0.00072283,0.053674,0,0.0536789,-36486.4,-38134.7,-0,52778,65.3481
step02_gravity_refstate-crust.xmf,1233,1.25739e-05,-2.0829e-05,0,-1.98908e-05,-1.05739e+09,-1.05968e+09,-1.05825e+09,-1.36451e+06,0.0429013,0.402545,0,0.404825,2053.42,-38514,0,38568.7,1.36451e+06
step02_gravity_refstate-crust.xmf,1234,1.58015e-05,-2.64483e-05,0,-2.26283e-05,-1.07083e+09,-1.07373e+09,-1.07191e+09,-1.5523e+06,0.0419249,0.426606,0,0.428661,1667.57,-39007.5,0,39043.2,1.5523e+06
step02_gravity_refstate-crust.xmf,1235,2.05513e-05,-3.4679e-05,0,-2.65927e-05,-1.08476e+09,-1.08855e+09,-1.08617e+09,-1.82426e+06,0.0408482,0.455666,0,0.457493,1295.93,-39521.3,0,39542.6,1.82426e+06
step02_gravity_refstate-crust.xmf,1236,5.33242e-06,-9.2661e-06,0,-1.64308e-05,-1.03211e+09,-1.03312e+09,-1.03248e+09,-1.12715e+06,0.0485903,0.347634,0,0.351014,3488.04,-37582.4,0,37743.9,1.12715e+06
step02_gravity_refstate-crust.xmf,1237,6.67142e-06,-1.1767e-05,0,-1.81498e-05,-1.04494e+09,-1.04621e+09,-1.0454e+09,-1.24508e+06,0.0488275,0.364839,0,0.368092,3050.98,-38050.9,0,38173,1.24508e+06
step02_gravity_refstate-crust.xmf,1238,1.41406e-07,5.3131e-07,0,-9.10451e-06,-9.44281e+08,-9.44254e+08,-9.44291e+08,-624569,0.0447138,0.256327,0,0.260197,7419.62,-34378.9,0,35170.4,624569
step02_gravity_refstate-crust.xmf,1239,-6.64512e-07,1.96853e-06,0,-7.85546e-06,-9.23314e+08,-9.23133e+08,-9.23268e+08,-538885,0.0428026,0.236235,0,0.240082,8829.83,-33614.5,0,34754.9,538885
step02_gravity_refstate-crust.xmf,1240,-1.60571e-06,3.96351e-06,0,-5.60605e-06,-8.83598e+08,-8.83215e+08,-8.83487e+08,-384575,0.0370415,0.198051,0,0.201485,12313.6,-32167.9,0,34444.1,384575
step02_gravity_refstate-crust.xmf,1241,-1.38427e-06,3.45272e-06,0,-6.26898e-06,-8.95707e+08,-8.95376e+08,-8.95613e+08,-430052,0.039139,0.209739,0,0.213359,11117.2,-32608.9,0,34451.8,430052
step02_gravity_refstate-crust.xmf,1242,-1.27323e-06,3.04169e-06,0,-7.253e-06,-9.24381e+08,-9.24085e+08,-9.24294e+08,-497556,0.0418937,0.222656,0,0.226563,9811.79,-33652.6,0,35053.8,497556
step02_gravity_refstate-crust.xmf,1243,1.63967e-06,-2.72385e-06,0,-1.27939e-05,-1.00208e+09,-1.00238e+09,-1.0022e+09,-877663,0.0491536,0.299123,0,0.303135,5226.16,-36484.2,0,36856.6,877663
step02_gravity_refstate-crust.xmf,1244,3.46374e-08,3.26044e-07,0,-9.99922e-06,-9.65544e+08,-9.65524e+08,-9.65546e+08,-685946,0.0464879,0.263436,0,0.267506,6974.05,-35152.2,0,35837.4,685946
step02_gravity_refstate-crust.xmf,1245,-1.91756e-06,4.62965e-06,0,-4.95938e-06,-8.86147e+08,-8.85698e+08,-8.86015e+08,-340214,0.034718,0.184044,0,0.18729,13642.2,-32260.5,0,35026.4,340214
step02_gravity_refstate-crust.xmf,1246,-1.9317e-06,5.09548e-06,0,-3.50007e-06,-8.55532e+08,-8.55049e+08,-8.55399e+08,-240105,0.0278146,0.158142,0,0.160569,17304.1,-31146.6,0,35630.6,240105
step02_gravity_refstate-crust.xmf,1247,-1.92877e-06,5.30097e-06,0,-3.00195e-06,-8.5841e+08,-8.57914e+08,-8.58277e+08,-205934,0.0248569,0.147026,0,0.149113,18806.3,-31251.7,0,36473.9,205934
step02_gravity_refstate-crust.xmf,1248,-1.86988e-06,5.43411e-06,0,-2.53164e-06,-8.6289e+08,-8.62389e+08,-8.62762e+08,-173670,0.0217928,0.136419,0,0.138149,20353.5,-31415.2,0,37432.4,173670
step02_gravity_refstate-crust.xmf,1249,-1.75705e-06,5.48718e-06,0,-2.09798e-06,-8.67204e+08,-8.66708e+08,-8.67084e+08,-143922,0.0187003,0.126528,0,0.127902,21979.5,-31572.8,0,38470,143922
step02_gravity_refstate-crust.xmf,1250,-4.99005e-07,4.86937e-06,0,-3.17949e-09,-9.00502e+08,-9.00134e+08,-9.00468e+08,-218.113,5.38302e-20,0.0795102,0,0.0795102,40000,-32789.2,0,51721.7,218.113
step02_gravity_refstate-crust.xmf,1251,-2.30636e-06,3.24954e-06,0,1.10844e-05,-1.02608e+09,-1.0257e+09,-1.02592e+09,760388,-0.0500216,0.256397,-0,0.261231,-7146.98,-37351.2,-0,38028.8,760388
step02_gravity_refstate-crust.xmf,1252,-2.80256e-06,3.7193e-06,0,1.18016e-05,-1.04462e+09,-1.04417e+09,-1.04443e+09,809587,-0.0511501,0.261318,-0,0.266277,-6824.53,-38024.9,-0,38632.5,809587
step02_gravity_refstate-crust.xmf,1253,1.18267e-06,-5.38704e-06,0,2.1565e-05,-1.0811e+09,-1.08155e+09,-1.08118e+09,1.47936e+06,-0.058247,0.361056,-0,0.365724,-3496.9,-39354.9,-0,39510,1.47936e+06
step02_gravity_refstate-crust.xmf,1254,3.65812e-06,-9.77086e-06,0,2.42124e-05,-1.08514e+09,-1.08606e+09,-1.08539e+09,1.66097e+06,-0.057572,0.386999,-0,0.391258,-2882.18,-39505.1,-0,39610.1,1.66097e+06
step02_gravity_refstate-crust.xmf,1255,6.44945e-08,5.30688e-06,0,7.99413e-09,-1.04944e+09,-1.04908e+09,-1.04944e+09,548.397,0.00104783,0.0549028,0,0.0549128,-34293.4,-38214.3,-0,51345.6,548.397
step02_gravity_refstate-crust.xmf,1256,-6.22702e-07,5.68484e-06,0,3.3193e-07,-1.00536e+09,-1.00492e+09,-1.00531e+09,22770.4,-0.0023487,0.0718248,-0,0.0718632,-29064.5,-36607.3,-0,46742.3,22770.4
step02_gravity_refstate-crust.xmf,1257,-7.902e-08,5.46999e-06,0,3.70326e-08,-1.05065e+09,-1.05027e+09,-1.05065e+09,2540.44,0.001103,0.0570816,0,0.0570923,-32175.7,-38258.2,-0,49989.7,2540.44
step02_gravity_refstate-crust.xmf,1258,-8.85478e-07,5.94736e-06,0,4.8722e-07,-1.00861e+09,-1.00815e+09,-1.00855e+09,33423.3,-0.00373911,0.0765766,-0,0.0766678,-26929.5,-36725.3,-0,45540.6,33423.3
step02_gravity_refstate-crust.xmf,1259,-1.46779e-06,6.33904e-06,0,1.02642e-06,-9.95984e+08,-9.95448e+08,-9.95883e+08,70412.1,-0.00879048,0.0918596,-0,0.0922793,-23389.8,-36263.7,-0,43152.4,70412.1
step02_gravity_refstate-crust.xmf,1260,-1.71852e-06,6.54612e-06,0,1.29485e-06,-9.98323e+08,-9.97756e+08,-9.98205e+08,88826.9,-0.0109951,0.0982423,-0,0.0988557,-21875.2,-36348.1,-0,42423,88826.9
step02_gravity_refstate-crust.xmf,1261,-2.03656e-06,6.74833e-06,0,1.71451e-06,-9.98122e+08,-9.9752e+08,-9.97983e+08,117615,-0.0142897,0.107751,-0,0.108694,-20118.5,-36339.8,-0,41537.2,117615
step02_gravity_refstate-crust.xmf,1262,-2.29327e-06,6.97565e-06,0,2.06018e-06,-1.00662e+09,-1.00599e+09,-1.00646e+09,141328,-0.0165905,0.114635,-0,0.115829,-18685.6,-36648.6,-0,41137.2,141328
step02_gravity_refstate-crust.xmf,1263,-2.54556e-06,7.11604e-06,0,2.49861e-06,-1.00929e+09,-1.00863e+09,-1.00912e+09,171405,-0.0194892,0.12336,-0,0.12489,-17374.8,-36745.1,-0,40645.9,171405
step02_gravity_refstate-crust.xmf,1264,-2.77968e-06,7.22776e-06,0,2.96642e-06,-1.01282e+09,-1.01214e+09,-1.01263e+09,203497,-0.0223243,0.132187,-0,0.134059,-16175,-36872.8,-0,40264.5,203497
step02_gravity_refstate-crust.xmf,1265,8.09335e-06,-1.423e-05,0,-2.03139e-05,-1.05847e+09,-1.06001e+09,-1.05903e+09,-1.39353e+06,0.0495517,0.382923,0,0.386116,2677.86,-38545.5,0,38638.4,1.39353e+06
step02_gravity_refstate-crust.xmf,1266,-7.75392e-07,1.91351e-06,0,-8.55403e-06,-9.45564e+08,-9.45379e+08,-9.4551e+08,-586806,0.0445003,0.242075,0,0.246132,8325.54,-34424,0,35416.5,586806
step02_gravity_refstate-crust.xmf,1267,-1.7047e-06,3.83816e-06,0,-6.61434e-06,-9.22677e+08,-9.22297e+08,-9.2256e+08,-453744,0.0403644,0.210085,0,0.213927,10794.7,-33590,0,35282,453744
step02_gravity_refstate-crust.xmf,1268,1.8138e-06,-3.6607e-06,0,-1.4362e-05,-1.02013e+09,-1.02051e+09,-1.02026e+09,-985236,0.0508462,0.312061,0,0.316176,4758.75,-37140.6,0,37444.2,985236
step02_gravity_refstate-crust.xmf,1269,2.28752e-06,-5.00189e-06,0,-1.63333e-05,-1.03828e+09,-1.03878e+09,-1.03844e+09,-1.12046e+06,0.0525137,0.329189,0,0.333351,4213.46,-37801.2,0,38035.3,1.12046e+06
step02_gravity_refstate-crust.xmf,1270,-1.04252e-09,3.78566e-08,0,-1.09915e-05,-9.85449e+08,-9.85447e+08,-9.85449e+08,-754018,0.0482485,0.271953,0,0.276199,6504.51,-35876.3,0,36461.2,754018
step02_gravity_refstate-crust.xmf,1271,-2.09029e-08,-3.33602e-07,0,-1.2132e-05,-1.00436e+09,-1.00438e+09,-1.00436e+09,-832256,0.0500249,0.281799,0,0.286204,6026.82,-36564.1,0,37057.4,832256
step02_gravity_refstate-crust.xmf,1272,-6.4573e-07,4.96129e-06,0,-2.96232e-07,-8.96024e+08,-8.9564e+08,-8.9598e+08,-20321.5,0.00288189,0.083184,0,0.0832339,34823.4,-32625.7,0,47719.1,20321.5
step02_gravity_refstate-crust.xmf,1273,-2.09168e-06,5.12217e-06,0,-4.28909e-06,-8.87584e+08,-8.87089e+08,-8.87441e+08,-294232,0.0318158,0.170274,0,0.173221,15082.2,-32312.9,0,35659.4,294232
step02_gravity_refstate-crust.xmf,1274,-2.14303e-06,5.43077e-06,0,-3.70579e-06,-8.89344e+08,-8.88825e+08,-8.89197e+08,-254217,0.0288342,0.158104,0,0.160712,16474,-32377.2,0,36327.4,254217
step02_gravity_refstate-crust.xmf,1275,-7.56499e-07,5.03975e-06,0,-4.33836e-07,-8.93432e+08,-8.93034e+08,-8.9338e+08,-29761.2,0.00423185,0.0861775,0,0.0862813,32953,-32531,0,46305.2,29761.2
step02_gravity_refstate-crust.xmf,1276,-8.95796e-07,5.14415e-06,0,-6.01355e-07,-8.91609e+08,-8.91195e+08,-8.91548e+08,-41252.9,0.00586749,0.090049,0,0.09024,31011.2,-32464.3,0,44895.7,41252.9
step02_gravity_refstate-crust.xmf,1277,-1.06095e-06,5.25229e-06,0,-8.0607e-07,-8.88187e+08,-8.87754e+08,-8.88115e+08,-55296.4,0.00781998,0.0951232,0,0.0954441,29116.2,-32339.2,0,43515.2,55296.4
step02_gravity_refstate-crust.xmf,1278,-1.24268e-06,5.35417e-06,0,-1.05364e-06,-8.83643e+08,-8.8319e+08,-8.83558e+08,-72279.8,0.0101058,0.101346,0,0.101848,27268.1,-32173.2,0,42174.2,72279.8
step02_gravity_refstate-crust.xmf,1279,-1.42928e-06,5.43901e-06,0,-1.3506e-06,-8.78615e+08,-8.78144e+08,-8.78517e+08,-92651.5,0.0127236,0.10869,0,0.109432,25449.6,-31989.5,0,40878,92651.5
step02_gravity_refstate-crust.xmf,1280,-1.60529e-06,5.48469e-06,0,-1.7005e-06,-8.72519e+08,-8.72032e+08,-8.72409e+08,-116654,0.0156281,0.117194,0,0.118232,23690.2,-31766.9,0,39627.8,116654
step02_gravity_refstate-crust.xmf,1281,-5.70429e-07,4.90071e-06,0,-1.85427e-07,-8.9628e+08,-8.95904e+08,-8.96241e+08,-12720.3,0.00179306,0.081469,0,0.0814888,36630.7,-32635.2,0,49059.8,12720.3
step02_gravity_refstate-crust.xmf,1282,-4.00006e-07,4.95827e-06,0,-8.55293e-08,-9.28597e+08,-9.2823e+08,-9.2857e+08,-5867.31,0.000759048,0.0748796,0,0.0748834,38046.6,-33812.6,0,50900.2,5867.31
step02_gravity_refstate-crust.xmf,1283,-2.87695e-06,4.49481e-06,0,9.85017e-06,-1.02543e+09,-1.02493e+09,-1.02524e+09,675722,-0.0478396,0.23918,-0,0.243917,-7985.53,-37327.2,-0,38171.9,675722
step02_gravity_refstate-crust.xmf,1284,-9.00893e-07,-1.0047e-06,0,1.75218e-05,-1.06983e+09,-1.06984e+09,-1.06977e+09,1.20199e+06,-0.056933,0.322904,-0,0.327885,-4536.96,-38943.1,-0,39206.5,1.20199e+06
step02_gravity_refstate-crust.xmf,1285,-1.90033e-06,1.00768e-06,0,1.57366e-05,-1.06573e+09,-1.06553e+09,-1.0656e+09,1.07953e+06,-0.0557449,0.303369,-0,0.308448,-5162.53,-38792.9,-0,39134.9,1.07953e+06
step02_gravity_refstate-crust.xmf,1286,-3.42102e-06,4.35772e-06,0,1.24354e-05,-1.06294e+09,-1.06241e+09,-1.06271e+09,853071,-0.0518679,0.265023,-0,0.270051,-6563.34,-38690.4,-0,39243.1,853071
step02_gravity_refstate-crust.xmf,1287,-2.75452e-06,2.78269e-06,0,1.41345e-05,-1.06427e+09,-1.06389e+09,-1.06408e+09,969626,-0.0542003,0.284951,-0,0.29006,-5805.16,-38738.8,-0,39171.3,969626
step02_gravity_refstate-crust.xmf,1288,-1.27061e-06,-1.11514e-06,0,1.9138e-05,-1.08298e+09,-1.08297e+09,-1.08289e+09,1.31287e+06,-0.0584065,0.335132,-0,0.340183,-4195.73,-39420.2,-0,39642.8,1.31287e+06
step02_gravity_refstate-crust.xmf,1289,-3.26967e-06,5.47227e-06,0,8.69706e-06,-1.02578e+09,-1.02518e+09,-1.02555e+09,596619,-0.0451605,0.222578,-0,0.227113,-8855.37,-37339.6,-0,38375.3,596619
step02_gravity_refstate-crust.xmf,1290,-3.46674e-06,6.18078e-06,0,7.59624e-06,-1.02502e+09,-1.02435e+09,-1.02478e+09,521102,-0.042104,0.206761,-0,0.211004,-9774.06,-37312.3,-0,38571.2,521102
step02_gravity_refstate-crust.xmf,1291,-2.99943e-06,7.30524e-06,0,3.48345e-06,-1.01665e+09,-1.01594e+09,-1.01644e+09,238964,-0.025204,0.141504,-0,0.143731,-15043.1,-37011.2,-0,39951.5,238964
step02_gravity_refstate-crust.xmf,1292,-3.528e-06,6.67672e-06,0,6.59617e-06,-1.02396e+09,-1.02326e+09,-1.02372e+09,452497,-0.0388593,0.192011,-0,0.195904,-10723.1,-37274.5,-0,38786.2,452497
step02_gravity_refstate-crust.xmf,1293,-3.20061e-06,7.30959e-06,0,4.0988e-06,-1.01926e+09,-1.01854e+09,-1.01904e+09,281178,-0.0283971,0.15222,-0,0.154847,-13926.3,-37105.6,-0,39632.9,281178
step02_gravity_refstate-crust.xmf,1294,-3.48364e-06,7.00394e-06,0,5.67557e-06,-1.02222e+09,-1.0215e+09,-1.02198e+09,389344,-0.0354424,0.177954,-0,0.181449,-11738.7,-37211.6,-0,39019.3,389344
step02_gravity_refstate-crust.xmf,1295,-3.37404e-06,7.21454e-06,0,4.84978e-06,-1.02108e+09,-1.02036e+09,-1.02085e+09,332695,-0.0319431,0.164744,-0,0.167813,-12791.7,-37171,-0,39310.4,332695
step02_gravity_refstate-crust.xmf,1296,-2.60937e-07,5.67166e-06,0,9.05592e-08,-1.05197e+09,-1.05157e+09,-1.05195e+09,6212.36,0.000849944,0.0599767,0,0.0599828,-30152.5,-38305.9,-0,48749.4,6212.36
step02_gravity_refstate-crust.xmf,1297,-9.67564e-07,6.20956e-06,0,5.03591e-07,-1.03169e+09,-1.03119e+09,-1.03162e+09,34546.3,-0.00328795,0.0756665,-0,0.0757379,-25549.4,-37565.2,-0,45430.4,34546.3
step02_gravity_refstate-crust.xmf,1298,-1.20831e-06,6.41473e-06,0,6.85278e-07,-1.03065e+09,-1.03012e+09,-1.03056e+09,47010.1,-0.00494402,0.0809713,-0,0.0811221,-24097,-37526.8,-0,44597.3,47010.1
step02_gravity_refstate-crust.xmf,1299,9.1292e-06,-1.71849e-05,0,-2.3972e-05,-1.07402e+09,-1.07583e+09,-1.07465e+09,-1.64448e+06,0.0511433,0.404137,0,0.40736,2332.49,-39111.1,0,39180.6,1.64448e+06
step02_gravity_refstate-crust.xmf,1300,1.32169e-05,-2.33938e-05,0,-2.74781e-05,-1.08552e+09,-1.08803e+09,-1.08643e+09,-1.88499e+06,0.0499888,0.432986,0,0.435862,1839.25,-39536.7,0,39579.5,1.88499e+06
step02_gravity_refstate-crust.xmf,1301,4.19064e-06,-8.06183e-06,0,-1.78556e-05,-1.04657e+09,-1.04741e+09,-1.04686e+09,-1.2249e+06,0.0520148,0.349567,0,0.353415,3578.99,-38105.9,0,38273.6,1.2249e+06
step02_gravity_refstate-crust.xmf,1302,4.33576e-06,-9.0062e-06,0,-1.96361e-05,-1.05826e+09,-1.05918e+09,-1.05856e+09,-1.34703e+06,0.0533565,0.361471,0,0.365388,3316.97,-38530.6,0,38673.1,1.34703e+06
step02_gravity_refstate-crust.xmf,1303,-8.85675e-07,1.88638e-06,0,-9.29691e-06,-9.66866e+08,-9.66676e+08,-9.66806e+08,-637768,0.046196,0.248299,0,0.25256,7848.72,-35199.1,0,36063.5,637768
step02_gravity_refstate-crust.xmf,1304,-1.47387e-06,3.12067e-06,0,-7.84778e-06,-9.46707e+08,-9.46392e+08,-9.46606e+08,-538358,0.0434624,0.227361,0,0.231478,9297.84,-34464.7,0,35696.8,538358
step02_gravity_refstate-crust.xmf,1305,-1.96751e-06,4.43248e-06,0,-5.9311e-06,-9.17798e+08,-9.17359e+08,-9.17663e+08,-406873,0.0382673,0.197523,0,0.201195,11892.8,-33412.3,0,35465.7,406873
step02_gravity_refstate-crust.xmf,1306,-2.20804e-06,5.03142e-06,0,-5.20514e-06,-9.17566e+08,-9.17069e+08,-9.17414e+08,-357073,0.035641,0.183623,0,0.18705,13145,-33403.8,0,35897.1,357073
step02_gravity_refstate-crust.xmf,1307,-1.94627e-06,4.06001e-06,0,-7.09133e-06,-9.46815e+08,-9.46403e+08,-9.46681e+08,-486465,0.0417441,0.213149,0,0.217199,10299,-34468.1,0,35973.9,486465
step02_gravity_refstate-crust.xmf,1308,3.6854e-08,-7.47852e-07,0,-1.33903e-05,-1.0223e+09,-1.02236e+09,-1.02231e+09,-918573,0.051817,0.292861,0,0.29741,5554.84,-37217,0,37629.2,918573
step02_gravity_refstate-crust.xmf,1309,-1.08997e-06,1.81447e-06,0,-1.01912e-05,-9.87529e+08,-9.8733e+08,-9.87455e+08,-699120,0.0479426,0.25567,0,0.260126,7355.61,-35950.4,0,36695.2,699120
step02_gravity_refstate-crust.xmf,1310,-2.33249e-06,5.45793e-06,0,-4.54984e-06,-9.18296e+08,-9.17762e+08,-9.18136e+08,-312119,0.0328298,0.170963,0,0.174087,14375.3,-33430.5,0,36390.2,312119
step02_gravity_refstate-crust.xmf,1311,-2.12447e-06,5.65822e-06,0,-3.13656e-06,-8.92803e+08,-8.92269e+08,-8.92657e+08,-215168,0.0256148,0.146238,0,0.148465,17933.7,-32503.5,0,37122.8,215168
step02_gravity_refstate-crust.xmf,1312,-2.03927e-06,5.78001e-06,0,-2.62358e-06,-8.97332e+08,-8.96795e+08,-8.97192e+08,-179978,0.0222914,0.134986,0,0.136814,19446.7,-32669,0,38018.9,179978
step02_gravity_refstate-crust.xmf,1313,-1.90076e-06,5.82814e-06,0,-2.15514e-06,-9.02486e+08,-9.01956e+08,-9.02356e+08,-147842,0.0189975,0.124548,0,0.125988,21002.7,-32857.3,0,38996.3,147842
step02_gravity_refstate-crust.xmf,1314,-1.7184e-06,5.81435e-06,0,-1.72637e-06,-9.08611e+08,-9.08095e+08,-9.08493e+08,-118429,0.0157117,0.11461,0,0.115682,22654.7,-33081,0,40094.7,118429
step02_gravity_refstate-crust.xmf,1315,-2.04864e-07,5.01963e-06,0,-4.36613e-09,-9.66847e+08,-9.66489e+08,-9.66833e+08,-299.516,1.29873e-20,0.0675555,0,0.0675555,40000,-35206,0,53286.6,299.516
step02_gravity_refstate-crust.xmf,1316,-3.33385e-06,4.96872e-06,0,1.04366e-05,-1.04461e+09,-1.04404e+09,-1.04438e+09,715949,-0.0487042,0.243443,-0,0.248267,-7620.93,-38024.4,-0,38780.6,715949
step02_gravity_refstate-crust.xmf,1317,-3.81431e-06,5.55394e-06,0,1.0931e-05,-1.06227e+09,-1.06163e+09,-1.06201e+09,749866,-0.0492015,0.247086,-0,0.251937,-7308.32,-38666.3,-0,39350.9,749866
step02_gravity_refstate-crust.xmf,1318,-2.61078e-06,1.58601e-06,0,1.70085e-05,-1.08312e+09,-1.08283e+09,-1.08294e+09,1.16678e+06,-0.0571439,0.312498,-0,0.31768,-4848.39,-39424,-0,39721,1.16678e+06
step02_gravity_refstate-crust.xmf,1319,-4.65176e-07,5.90199e-06,0,1.73883e-07,-1.05343e+09,-1.05299e+09,-1.0534e+09,11928.4,0.000250186,0.0635985,0,0.063599,-28213.3,-38358.4,-0,47616.8,11928.4
step02_gravity_refstate-crust.xmf,1320,-1.49473e-06,6.66243e-06,0,9.33317e-07,-1.03136e+09,-1.0308e+09,-1.03126e+09,64025.5,-0.00707093,0.0875266,-0,0.0878118,-22463,-37551.9,-0,43757.7,64025.5
step02_gravity_refstate-crust.xmf,1321,-6.83992e-07,6.14989e-06,0,2.67344e-07,-1.05766e+09,-1.05719e+09,-1.05762e+09,18339.8,-0.000402697,0.0669568,-0,0.066958,-26507.4,-38512,-0,46752.7,18339.8
step02_gravity_refstate-crust.xmf,1322,-9.11091e-07,6.42432e-06,0,3.87198e-07,-1.06354e+09,-1.06304e+09,-1.06348e+09,26561.8,-0.0012208,0.0707157,-0,0.0707263,-24820.2,-38725.7,-0,45997,26561.8
step02_gravity_refstate-crust.xmf,1323,-1.78858e-06,6.90136e-06,0,1.23212e-06,-1.03229e+09,-1.03169e+09,-1.03216e+09,84523.4,-0.00949574,0.0947944,-0,0.0952688,-20919.4,-37584.9,-0,43014.5,84523.4
step02_gravity_refstate-crust.xmf,1324,-2.08855e-06,7.13592e-06,0,1.5823e-06,-1.03439e+09,-1.03375e+09,-1.03424e+09,108545,-0.0121489,0.102725,-0,0.103441,-19428,-37660.5,-0,42376.4,108545
step02_gravity_refstate-crust.xmf,1325,-2.38945e-06,7.34774e-06,0,1.99413e-06,-1.03655e+09,-1.03588e+09,-1.03639e+09,136797,-0.015054,0.111458,-0,0.11247,-18015.4,-37738.3,-0,41817.9,136797
step02_gravity_refstate-crust.xmf,1326,-2.93677e-06,7.69046e-06,0,2.91305e-06,-1.0434e+09,-1.04267e+09,-1.0432e+09,199835,-0.0207372,0.129283,-0,0.130936,-15566.3,-37986.1,-0,41051.8,199835
step02_gravity_refstate-crust.xmf,1327,-2.67009e-06,7.53128e-06,0,2.43487e-06,-1.0396e+09,-1.0389e+09,-1.03942e+09,167032,-0.0179054,0.120248,-0,0.121574,-16742.7,-37848.6,-0,41386.5,167032
step02_gravity_refstate-crust.xmf,1328,4.79054e-06,-1.04585e-05,0,-2.21325e-05,-1.0718e+09,-1.07285e+09,-1.07213e+09,-1.51829e+06,0.0549214,0.378014,0,0.381983,2984.36,-39023.2,0,39137.1,1.51829e+06
step02_gravity_refstate-crust.xmf,1329,-1.68398e-06,3.20774e-06,0,-8.50885e-06,-9.68497e+08,-9.68162e+08,-9.68382e+08,-583707,0.0450576,0.232781,0,0.237102,8780.96,-35257.3,0,36334.3,583707
step02_gravity_refstate-crust.xmf,1330,-2.28511e-06,4.79475e-06,0,-6.32405e-06,-9.46153e+08,-9.45668e+08,-9.45997e+08,-433830,0.0395105,0.199402,0,0.203278,11348,-34443.8,0,36265.1,433830
step02_gravity_refstate-crust.xmf,1331,1.86839e-06,-4.99009e-06,0,-1.81818e-05,-1.05665e+09,-1.05712e+09,-1.05678e+09,-1.24727e+06,0.0550194,0.339883,0,0.344307,3967.75,-38468.2,0,38672.3,1.24727e+06
step02_gravity_refstate-crust.xmf,1332,-5.03553e-08,-1.31823e-06,0,-1.49485e-05,-1.03933e+09,-1.03942e+09,-1.03933e+09,-1.02546e+06,0.0536185,0.305529,0,0.310198,5079.86,-37835.7,0,38175.2,1.02546e+06
step02_gravity_refstate-crust.xmf,1333,-1.24515e-06,1.69197e-06,0,-1.11712e-05,-1.00653e+09,-1.00632e+09,-1.00644e+09,-766346,0.0496716,0.264229,0,0.268857,6857.46,-36641.1,0,37277.3,766346
step02_gravity_refstate-crust.xmf,1334,-1.44602e-06,1.58996e-06,0,-1.22614e-05,-1.02484e+09,-1.02464e+09,-1.02475e+09,-841130,0.0514074,0.273513,0,0.278302,6379.25,-37307.1,0,37848.6,841130
step02_gravity_refstate-crust.xmf,1335,-4.03685e-07,5.0436e-06,0,-1.5203e-07,-9.43145e+08,-9.42772e+08,-9.43118e+08,-10429.3,0.00136561,0.0734371,0,0.0734498,36031.1,-34342.3,0,49775.8,10429.3
step02_gravity_refstate-crust.xmf,1336,-5.02781e-07,5.14513e-06,0,-2.50703e-07,-9.44746e+08,-9.44359e+08,-9.44712e+08,-17198.3,0.00227129,0.075326,0,0.0753602,33893.9,-34400.4,0,48292.7,17198.3
step02_gravity_refstate-crust.xmf,1337,-2.37411e-06,5.79645e-06,0,-3.88784e-06,-9.20819e+08,-9.20259e+08,-9.20657e+08,-266706,0.0296046,0.158092,0,0.16084,15713.1,-33522.7,0,37022.6,266706
step02_gravity_refstate-crust.xmf,1338,-2.33247e-06,6.01245e-06,0,-3.2819e-06,-9.24738e+08,-9.24165e+08,-9.24578e+08,-225138,0.0261664,0.145701,0,0.148032,17105.8,-33665.9,0,37762.4,225138
step02_gravity_refstate-crust.xmf,1339,-6.50624e-07,5.2574e-06,0,-3.84261e-07,-9.40984e+08,-9.40579e+08,-9.4094e+08,-26360.3,0.00358452,0.0791761,0,0.0792572,31799.6,-34263,0,46745.8,26360.3
step02_gravity_refstate-crust.xmf,1340,-8.57894e-07,5.39117e-06,0,-5.63293e-07,-9.34e+08,-9.33572e+08,-9.33941e+08,-38641.9,0.00534113,0.0845175,0,0.0846861,29819.6,-34008.1,0,45230,38641.9
step02_gravity_refstate-crust.xmf,1341,-1.0643e-06,5.52737e-06,0,-7.70698e-07,-9.29075e+08,-9.28622e+08,-9.29002e+08,-52869.9,0.00734081,0.0902775,0,0.0905755,27951.6,-33828.1,0,43882.1,52869.9
step02_gravity_refstate-crust.xmf,1342,-1.28435e-06,5.65469e-06,0,-1.02837e-06,-9.23253e+08,-9.22777e+08,-9.23165e+08,-70546.5,0.00973989,0.0971597,0,0.0976467,26139.4,-33615.5,0,42582.5,70546.5
step02_gravity_refstate-crust.xmf,1343,-1.50638e-06,5.7541e-06,0,-1.34477e-06,-9.16076e+08,-9.15578e+08,-9.15973e+08,-92251.2,0.012548,0.105293,0,0.106038,24383.2,-33353.5,0,41315.8,92251.2
step02_gravity_refstate-crust.xmf,1344,-8.22483e-08,5.08598e-06,0,-4.3715e-08,-9.95566e+08,-9.95212e+08,-9.95561e+08,-2998.85,0.000160913,0.0627559,0,0.0627561,37701.6,-36252.1,0,52303.2,2998.85
step02_gravity_refstate-crust.xmf,1345,-3.71692e-06,6.00382e-06,0,9.17326e-06,-1.04693e+09,-1.04627e+09,-1.04668e+09,629285,-0.0457514,0.226229,-0,0.230809,-8431.78,-38108.9,-0,39030.6,629285
step02_gravity_refstate-crust.xmf,1346,-4.37803e-06,6.24828e-06,0,1.13762e-05,-1.08063e+09,-1.0799e+09,-1.08033e+09,780409,-0.0491998,0.249999,-0,0.254794,-7024.67,-39333.4,-0,39955.8,780409
step02_gravity_refstate-crust.xmf,1347,-3.46397e-06,3.53308e-06,0,1.50105e-05,-1.08209e+09,-1.08161e+09,-1.08185e+09,1.02972e+06,-0.055096,0.291146,-0,0.296313,-5522.33,-39386.1,-0,39771.3,1.02972e+06
step02_gravity_refstate-crust.xmf,1348,-4.04574e-06,5.07775e-06,0,1.3131e-05,-1.0814e+09,-1.08077e+09,-1.08112e+09,900789,-0.052417,0.270305,-0,0.27534,-6245.01,-39360.8,-0,39853.1,900789
step02_gravity_refstate-crust.xmf,1349,-3.94608e-06,6.84479e-06,0,7.95242e-06,-1.05052e+09,-1.04978e+09,-1.05025e+09,545536,-0.0422084,0.209046,-0,0.213265,-9294.61,-38240,-0,39353.4,545536
step02_gravity_refstate-crust.xmf,1350,-3.94294e-06,7.29362e-06,0,6.87072e-06,-1.0498e+09,-1.04903e+09,-1.04953e+09,471331,-0.038702,0.193614,-0,0.197444,-10203,-38214.3,-0,39552.9,471331
step02_gravity_refstate-crust.xmf,1351,-3.19869e-06,7.78706e-06,0,3.48808e-06,-1.0454e+09,-1.04465e+09,-1.04519e+09,239282,-0.0239717,0.13974,-0,0.141781,-14427.8,-38058.1,-0,40701.1,239282
step02_gravity_refstate-crust.xmf,1352,-3.83675e-06,7.58333e-06,0,5.86559e-06,-1.04857e+09,-1.04779e+09,-1.04831e+09,402380,-0.0350113,0.178715,-0,0.182112,-11188.4,-38170.5,-0,39776.5,402380
step02_gravity_refstate-crust.xmf,1353,-3.44889e-06,7.80934e-06,0,4.18098e-06,-1.0465e+09,-1.04573e+09,-1.04627e+09,286815,-0.0275718,0.151752,-0,0.154236,-13299.7,-38097.1,-0,40351.8,286815
step02_gravity_refstate-crust.xmf,1354,-3.66623e-06,7.74745e-06,0,4.97229e-06,-1.04751e+09,-1.04673e+09,-1.04726e+09,341099,-0.0312819,0.164773,-0,0.167716,-12218.7,-38132.9,-0,40042.6,341099
step02_gravity_refstate-crust.xmf,1355,-1.19205e-06,6.69826e-06,0,5.77527e-07,-1.06447e+09,-1.06393e+09,-1.06439e+09,39618.4,-0.00282603,0.0763886,-0,0.0764409,-23192.6,-38758.6,-0,45167.8,39618.4
step02_gravity_refstate-crust.xmf,1356,6.87973e-06,-1.5256e-05,0,-2.68645e-05,-1.08858e+09,-1.0901e+09,-1.08906e+09,-1.8429e+06,0.0556513,0.412705,0,0.416441,2331.77,-39635.2,0,39703.7,1.8429e+06
step02_gravity_refstate-crust.xmf,1357,1.44205e-06,-5.15272e-06,0,-2.00079e-05,-1.07089e+09,-1.07134e+09,-1.07099e+09,-1.37254e+06,0.0569031,0.351317,0,0.355896,3706.42,-38984.6,0,39160.4,1.37254e+06
step02_gravity_refstate-crust.xmf,1358,-1.8904e-06,3.30176e-06,0,-9.24171e-06,-9.89549e+08,-9.89193e+08,-9.89419e+08,-633981,0.0466728,0.239058,0,0.243572,8260.11,-36023,0,36957.9,633981
step02_gravity_refstate-crust.xmf,1359,-2.2294e-06,4.27873e-06,0,-7.64338e-06,-9.69948e+08,-9.69502e+08,-9.69795e+08,-524336,0.0431796,0.217428,0,0.221674,9757.12,-35309.5,0,36632.8,524336
step02_gravity_refstate-crust.xmf,1360,-2.48641e-06,5.37115e-06,0,-5.54507e-06,-9.45609e+08,-9.4507e+08,-9.45438e+08,-380392,0.0367461,0.185419,0,0.189025,12507.1,-34424.1,0,36625.8,380392
step02_gravity_refstate-crust.xmf,1361,-2.60061e-06,5.83193e-06,0,-4.7987e-06,-9.47402e+08,-9.46824e+08,-9.47224e+08,-329191,0.033633,0.171739,0,0.175002,13709.4,-34489.6,0,37114.4,329191
step02_gravity_refstate-crust.xmf,1362,-2.57565e-06,5.10174e-06,0,-6.76821e-06,-9.71014e+08,-9.70487e+08,-9.70837e+08,-464299,0.0407033,0.202418,0,0.20647,10784.7,-35348.2,0,36956.8,464299
step02_gravity_refstate-crust.xmf,1363,-1.40255e-07,-1.75603e-06,0,-1.65569e-05,-1.0551e+09,-1.05521e+09,-1.05509e+09,-1.1358e+06,0.0553779,0.318284,0,0.323066,4660.91,-38408.7,0,38690.5,1.1358e+06
step02_gravity_refstate-crust.xmf,1364,-1.59974e-06,1.44374e-06,0,-1.34908e-05,-1.04231e+09,-1.0421e+09,-1.0422e+09,-925472,0.0531706,0.284311,0,0.289241,5891.39,-37942.1,0,38396.8,925472
step02_gravity_refstate-crust.xmf,1365,-2.17294e-06,3.36974e-06,0,-1.00741e-05,-1.00904e+09,-1.00866e+09,-1.00889e+09,-691084,0.0482685,0.246272,0,0.250958,7742.86,-36731.5,0,37538.8,691084
step02_gravity_refstate-crust.xmf,1366,-2.61756e-06,6.1608e-06,0,-4.0966e-06,-9.50244e+08,-9.49642e+08,-9.50064e+08,-281027,0.030248,0.158579,0,0.161438,14960.2,-34593.5,0,37689.8,281027
step02_gravity_refstate-crust.xmf,1367,-2.21762e-06,6.15223e-06,0,-2.69924e-06,-9.30422e+08,-9.29848e+08,-9.3027e+08,-185168,0.0225571,0.133685,0,0.135574,18565.2,-33873.5,0,38627.5,185168
step02_gravity_refstate-crust.xmf,1368,-2.05668e-06,6.18526e-06,0,-2.20508e-06,-9.36334e+08,-9.35769e+08,-9.36193e+08,-151269,0.0190527,0.122743,0,0.124213,20046.2,-34089.4,0,39546.7,151269
step02_gravity_refstate-crust.xmf,1369,-1.84596e-06,6.15452e-06,0,-1.75337e-06,-9.42594e+08,-9.42045e+08,-9.42467e+08,-120281,0.0156204,0.112491,0,0.11357,21609.9,-34318.1,0,40555.2,120281
step02_gravity_refstate-crust.xmf,1370,-1.60058e-06,6.07772e-06,0,-1.34676e-06,-9.50782e+08,-9.50255e+08,-9.50672e+08,-92387.9,0.0122547,0.10264,0,0.103369,23262.3,-34617.1,0,41707,92387.9
step02_gravity_refstate-crust.xmf,1371,1.43777e-07,5.11242e-06,0,-3.58416e-10,-1.03276e+09,-1.03242e+09,-1.03277e+09,-24.5874,-3.10437e-20,0.0553907,-0,0.0553907,40000,-37607.2,0,54902.7,24.5874
step02_gravity_refstate-crust.xmf,1372,-4.02811e-06,6.24836e-06,0,9.79828e-06,-1.06135e+09,-1.06065e+09,-1.06108e+09,672162,-0.0466379,0.232376,-0,0.23701,-7977.68,-38633,-0,39448.1,672162
step02_gravity_refstate-crust.xmf,1373,-4.49533e-06,7.13844e-06,0,9.74203e-06,-1.07988e+09,-1.07908e+09,-1.07957e+09,668304,-0.0455917,0.230556,-0,0.235021,-7855.62,-39306.9,-0,40084.2,668304
step02_gravity_refstate-crust.xmf,1374,-1.49644e-06,6.97715e-06,0,8.23401e-07,-1.06507e+09,-1.06449e+09,-1.06496e+09,56485.3,-0.00486871,0.0830531,-0,0.0831957,-21612.9,-38779.6,-0,44395.7,56485.3
step02_gravity_refstate-crust.xmf,1375,-3.06902e-06,8.1459e-06,0,2.87256e-06,-1.07168e+09,-1.07091e+09,-1.07147e+09,197058,-0.0189211,0.127026,-0,0.128428,-14937.8,-39015.9,-0,41777.7,197058
step02_gravity_refstate-crust.xmf,1376,-1.80858e-06,7.24958e-06,0,1.11875e-06,-1.06597e+09,-1.06535e+09,-1.06585e+09,76746.3,-0.00720861,0.0903998,-0,0.0906867,-20123.3,-38811.7,-0,43718.4,76746.3
step02_gravity_refstate-crust.xmf,1377,-2.12971e-06,7.50776e-06,0,1.47374e-06,-1.06677e+09,-1.06611e+09,-1.06662e+09,101098,-0.00988402,0.0986196,-0,0.0991136,-18705.6,-38839.7,-0,43109.4,101098
step02_gravity_refstate-crust.xmf,1378,-2.44859e-06,7.74826e-06,0,1.88273e-06,-1.06814e+09,-1.06744e+09,-1.06798e+09,129155,-0.0127482,0.10746,-0,0.108214,-17368.2,-38889,-0,42591.2,129155
step02_gravity_refstate-crust.xmf,1379,-2.75761e-06,7.96313e-06,0,2.33709e-06,-1.07003e+09,-1.06929e+09,-1.06984e+09,160325,-0.0156903,0.116706,-0,0.117756,-16133,-38956.6,-0,42165,160325
step02_gravity_refstate-crust.xmf,1380,3.91749e-06,-1.03368e-05,0,-2.46281e-05,-1.08577e+09,-1.08674e+09,-1.08603e+09,-1.68949e+06,0.0574538,0.390087,0,0.394295,2814.9,-39528.2,0,39628.4,1.68949e+06
step02_gravity_refstate-crust.xmf,1381,9.15564e-07,-5.23234e-06,0,-2.20892e-05,-1.08528e+09,-1.0857e+09,-1.08535e+09,-1.51532e+06,0.058824,0.36416,0,0.36888,3438.59,-39506.4,0,39655.8,1.51532e+06
step02_gravity_refstate-crust.xmf,1382,-2.51272e-06,4.48888e-06,0,-8.25305e-06,-9.91552e+08,-9.91071e+08,-9.91379e+08,-566159,0.0445951,0.22256,0,0.226984,9211.88,-36095.2,0,37252.2,566159
step02_gravity_refstate-crust.xmf,1383,-2.78756e-06,5.72854e-06,0,-5.90507e-06,-9.71732e+08,-9.71148e+08,-9.71541e+08,-405088,0.0377663,0.187866,0,0.191624,11871.7,-35374.5,0,37313.4,405088
step02_gravity_refstate-crust.xmf,1384,-5.33499e-07,-1.73128e-06,0,-1.80938e-05,-1.07031e+09,-1.07039e+09,-1.07027e+09,-1.24123e+06,0.0571067,0.328902,0,0.333823,4355.8,-38960.9,0,39203.6,1.24123e+06
step02_gravity_refstate-crust.xmf,1385,-1.82509e-06,1.12711e-06,0,-1.49742e-05,-1.05805e+09,-1.05785e+09,-1.05793e+09,-1.02723e+06,0.0548983,0.296832,0,0.301866,5397.43,-38513.8,0,38890.2,1.02723e+06
step02_gravity_refstate-crust.xmf,1386,-2.8476e-06,3.75777e-06,0,-1.18991e-05,-1.04653e+09,-1.04608e+09,-1.04633e+09,-816275,0.0512981,0.262186,0,0.267157,6776.81,-38094.3,0,38692.4,816275
step02_gravity_refstate-crust.xmf,1387,-2.42336e-06,3.41655e-06,0,-1.09791e-05,-1.02697e+09,-1.02657e+09,-1.0268e+09,-753166,0.0498573,0.254587,0,0.259423,7226.53,-37383.4,0,38075.4,753166
step02_gravity_refstate-crust.xmf,1388,-1.85508e-07,5.18734e-06,0,-9.55049e-08,-9.96476e+08,-9.96107e+08,-9.96463e+08,-6551.63,0.000472172,0.0642604,0,0.0642621,35130.3,-36285,0,50504.9,6551.63
step02_gravity_refstate-crust.xmf,1389,-3.34415e-07,5.34448e-06,0,-1.68602e-07,-9.97316e+08,-9.96926e+08,-9.97293e+08,-11566.1,0.00105232,0.0669006,0,0.0669089,32678,-36315.2,0,48853.3,11566.1
step02_gravity_refstate-crust.xmf,1390,-5.96513e-07,5.47257e-06,0,-3.39682e-07,-9.79824e+08,-9.79408e+08,-9.79783e+08,-23302.2,0.00279198,0.0739684,0,0.0740211,30512.7,-35677.5,0,46945.8,23302.2
step02_gravity_refstate-crust.xmf,1391,-2.55123e-06,6.39534e-06,0,-3.41733e-06,-9.54924e+08,-9.5431e+08,-9.54749e+08,-234429,0.0265611,0.145565,0,0.147969,16288.3,-34764.5,0,38391.2,234429
step02_gravity_refstate-crust.xmf,1392,-2.41422e-06,6.52943e-06,0,-2.78445e-06,-9.62006e+08,-9.61393e+08,-9.61841e+08,-191013,0.0225656,0.132533,0,0.134441,17713.9,-35023.1,0,39248,191013
step02_gravity_refstate-crust.xmf,1393,-8.25453e-07,5.64014e-06,0,-5.02365e-07,-9.74201e+08,-9.73757e+08,-9.74144e+08,-34462.3,0.00439729,0.0792639,0,0.0793858,28638.7,-35472.1,0,45590,34462.3
step02_gravity_refstate-crust.xmf,1394,-1.06821e-06,5.81318e-06,0,-7.1025e-07,-9.69238e+08,-9.68765e+08,-9.69164e+08,-48723.1,0.00640865,0.0854155,0,0.0856556,26793.6,-35290.7,0,44309.5,48723.1
step02_gravity_refstate-crust.xmf,1395,-1.32708e-06,5.96448e-06,0,-9.82144e-07,-9.61323e+08,-9.60823e+08,-9.61232e+08,-67375.1,0.00899607,0.0930908,0,0.0935244,25030.9,-35001.8,0,43031.1,67375.1
step02_gravity_refstate-crust.xmf,1396,2.40781e-07,5.14205e-06,0,4.28524e-09,-1.05199e+09,-1.05165e+09,-1.05201e+09,293.968,-0.000423419,0.0520282,-0,0.0520299,38314,-38307.6,0,54179.7,293.968
step02_gravity_refstate-crust.xmf,1397,-4.41526e-06,7.39348e-06,0,8.5602e-06,-1.07304e+09,-1.07223e+09,-1.07273e+09,587230,-0.0426983,0.215091,-0,0.219288,-8671.76,-39058.6,-0,40009.6,587230
step02_gravity_refstate-crust.xmf,1398,-4.35281e-06,7.96038e-06,0,7.14168e-06,-1.07467e+09,-1.07382e+09,-1.07437e+09,489919,-0.0381519,0.195768,-0,0.199451,-9672.29,-39119,-0,40297,489919
step02_gravity_refstate-crust.xmf,1399,-4.17431e-06,8.20517e-06,0,6.04028e-06,-1.07408e+09,-1.07323e+09,-1.0738e+09,414363,-0.0341406,0.179779,-0,0.182992,-10637.1,-39098.9,-0,40520,414363
step02_gravity_refstate-crust.xmf,1400,-3.3755e-06,8.27107e-06,0,3.50171e-06,-1.07235e+09,-1.07155e+09,-1.07212e+09,240217,-0.0224751,0.138541,-0,0.140352,-13799.1,-39039.3,-0,41406.3,240217
step02_gravity_refstate-crust.xmf,1401,-3.95156e-06,8.32532e-06,0,5.10223e-06,-1.07383e+09,-1.07299e+09,-1.07356e+09,350013,-0.0302466,0.16534,-0,0.168083,-11610,-39090.7,-0,40778.3,350013
step02_gravity_refstate-crust.xmf,1402,-3.67239e-06,8.33458e-06,0,4.23925e-06,-1.07289e+09,-1.07206e+09,-1.07263e+09,290813,-0.0262763,0.151294,-0,0.153559,-12692.8,-39057.5,-0,41068.2,290813
step02_gravity_refstate-crust.xmf,1403,-1.22622e-06,-1.2515e-06,0,-1.95178e-05,-1.08508e+09,-1.08508e+09,-1.08499e+09,-1.33892e+06,0.0586753,0.338411,0,0.34346,4108.49,-39496.5,0,39709.6,1.33892e+06
step02_gravity_refstate-crust.xmf,1404,-2.80151e-06,4.71174e-06,0,-8.92954e-06,-1.0123e+09,-1.01178e+09,-1.01211e+09,-612566,0.0460023,0.228579,0,0.233162,8661.73,-36849.7,0,37854,612566
step02_gravity_refstate-crust.xmf,1405,-2.89321e-06,5.40878e-06,0,-7.25629e-06,-9.93721e+08,-9.93152e+08,-9.93523e+08,-497781,0.0418849,0.206474,0,0.210679,10206.2,-36174.1,0,37586.3,497781
step02_gravity_refstate-crust.xmf,1406,-2.87514e-06,6.1948e-06,0,-5.08602e-06,-9.73697e+08,-9.73075e+08,-9.735e+08,-348901,0.0344257,0.173545,0,0.176927,13023.4,-35446.4,0,37763.1,348901
step02_gravity_refstate-crust.xmf,1407,-2.87464e-06,6.54612e-06,0,-4.30556e-06,-9.77641e+08,-9.76995e+08,-9.77444e+08,-295362,0.0307427,0.15951,0,0.162445,14228.1,-35590.5,0,38329.2,295362
step02_gravity_refstate-crust.xmf,1408,-3.09473e-06,6.08411e-06,0,-6.30644e-06,-9.95995e+08,-9.95365e+08,-9.95783e+08,-432622,0.0387004,0.190983,0,0.194865,11243.3,-36257.1,0,37960.3,432622
step02_gravity_refstate-crust.xmf,1409,-2.97606e-06,3.42965e-06,0,-1.33115e-05,-1.06221e+09,-1.06177e+09,-1.06201e+09,-913170,0.053236,0.276195,0,0.281279,6136.41,-38664.2,0,39148.1,913170
step02_gravity_refstate-crust.xmf,1410,-1.78701e-06,5.92714e-07,0,-1.63653e-05,-1.06877e+09,-1.06861e+09,-1.06865e+09,-1.12266e+06,0.0562912,0.309535,0,0.314611,4957.61,-38903.3,0,39217.9,1.12266e+06
step02_gravity_refstate-crust.xmf,1411,-3.1333e-06,4.888e-06,0,-9.7116e-06,-1.03115e+09,-1.0306e+09,-1.03094e+09,-666216,0.0474308,0.235908,0,0.240629,8101.5,-37535,0,38399.3,666216
step02_gravity_refstate-crust.xmf,1412,-3.34631e-07,5.51818e-06,0,-1.62712e-07,-1.0211e+09,-1.0207e+09,-1.02108e+09,-11162.1,0.000514244,0.0645386,0,0.0645407,31152.3,-37181.5,0,48507,11162.1
step02_gravity_refstate-crust.xmf,1413,-2.78248e-06,6.77009e-06,0,-3.58479e-06,-9.82659e+08,-9.82004e+08,-9.82468e+08,-245917,0.0268496,0.146047,0,0.148494,15483.6,-35773.9,0,38980.9,245917
step02_gravity_refstate-crust.xmf,1414,-2.20604e-06,6.57172e-06,0,-2.22157e-06,-9.69314e+08,-9.68711e+08,-9.69162e+08,-152400,0.0187309,0.120778,0,0.122222,19145,-35290.1,0,40148.7,152400
step02_gravity_refstate-crust.xmf,1415,-1.97096e-06,6.50313e-06,0,-1.75792e-06,-9.75041e+08,-9.74459e+08,-9.74905e+08,-120593,0.0151503,0.11025,0,0.111286,20651,-35499.4,0,41069.1,120593
step02_gravity_refstate-crust.xmf,1416,-1.70211e-06,6.4044e-06,0,-1.34357e-06,-9.82817e+08,-9.82261e+08,-9.82701e+08,-92169,0.0117274,0.100361,0,0.101044,22189.5,-35783.5,0,42105,92169
step02_gravity_refstate-crust.xmf,1417,-1.41132e-06,6.27898e-06,0,-9.80261e-07,-9.93309e+08,-9.92781e+08,-9.93212e+08,-67245.9,0.00845315,0.0908849,0,0.0912772,23771.4,-36166.4,0,43279.2,67245.9
step02_gravity_refstate-crust.xmf,1418,1.65646e-07,5.19207e-06,0,-3.85373e-10,-1.04743e+09,-1.04709e+09,-1.04744e+09,-26.4366,-0.000739515,0.0536829,-0,0.053688,36408.5,-38141.5,0,52729.1,26.4366
step02_gravity_refstate-crust.xmf,1419,-3.23143e-06,5.73932e-06,0,-7.79678e-06,-1.01566e+09,-1.01505e+09,-1.01544e+09,-534859,0.0430118,0.211259,0,0.215594,9624.77,-36972.1,0,38204.4,534859
step02_gravity_refstate-crust.xmf,1420,-3.17026e-06,6.5837e-06,0,-5.39536e-06,-9.98672e+08,-9.98003e+08,-9.98455e+08,-370122,0.0351453,0.176046,0,0.17952,12331.5,-36355,0,38389.5,370122
step02_gravity_refstate-crust.xmf,1421,-3.65332e-06,4.89306e-06,0,-1.19623e-05,-1.06538e+09,-1.06479e+09,-1.06513e+09,-820616,0.0510416,0.25915,0,0.264129,6781.06,-38779,0,39367.4,820616
step02_gravity_refstate-crust.xmf,1422,-2.57976e-06,1.44233e-06,0,-1.72326e-05,-1.08402e+09,-1.08375e+09,-1.08385e+09,-1.18215e+06,0.0573313,0.314583,0,0.319764,4784.62,-39456.7,0,39745.7,1.18215e+06
step02_gravity_refstate-crust.xmf,1423,-3.30464e-06,3.29463e-06,0,-1.49838e-05,-1.07896e+09,-1.07851e+09,-1.07873e+09,-1.02789e+06,0.0551007,0.291251,0,0.296418,5531.63,-39272.4,0,39660.1,1.02789e+06
step02_gravity_refstate-crust.xmf,1424,-3.26893e-06,4.77343e-06,0,-1.0568e-05,-1.04288e+09,-1.04233e+09,-1.04266e+09,-724963,0.0489433,0.24508,0,0.249919,7559.33,-37961.3,0,38706.7,724963
step02_gravity_refstate-crust.xmf,1425,-3.83336e-06,5.6548e-06,0,-1.07307e-05,-1.06158e+09,-1.06093e+09,-1.06132e+09,-736123,0.0488442,0.24486,0,0.249684,7410.86,-38641.2,0,39345.4,736123
step02_gravity_refstate-crust.xmf,1426,4.8916e-08,5.3136e-06,0,-1.1242e-08,-1.0481e+09,-1.04773e+09,-1.0481e+09,-771.201,-0.00101019,0.0552856,-0,0.0552948,34164.4,-38165.4,0,51223.1,771.201
step02_gravity_refstate-crust.xmf,1427,-5.25559e-07,5.67646e-06,0,-2.61746e-07,-1.01714e+09,-1.01672e+09,-1.01711e+09,-17955.8,0.00147045,0.0686341,0,0.0686499,29408.3,-37036.7,0,47292.3,17955.8
step02_gravity_refstate-crust.xmf,1428,-7.42571e-08,5.46905e-06,0,-3.4808e-08,-1.05107e+09,-1.05069e+09,-1.05106e+09,-2387.83,-0.00112313,0.0569615,-0,0.0569726,32204.1,-38273.3,0,50019.5,2387.83
step02_gravity_refstate-crust.xmf,1429,-2.61972e-06,6.92341e-06,0,-2.89796e-06,-9.91327e+08,-9.90673e+08,-9.91148e+08,-198800,0.0226345,0.132583,0,0.134501,16788.2,-36090.4,0,39804,198800
step02_gravity_refstate-crust.xmf,1430,-2.38932e-06,7.00973e-06,0,-2.22865e-06,-1.00566e+09,-1.00502e+09,-1.0055e+09,-152885,0.0178012,0.118193,0,0.119526,18204.7,-36613.4,0,40889.5,152885
step02_gravity_refstate-crust.xmf,1431,-7.78176e-07,5.89207e-06,0,-4.09604e-07,-1.01429e+09,-1.01383e+09,-1.01423e+09,-28098.8,0.00286213,0.0737018,0,0.0737573,27528.7,-36932.1,0,46063.1,28098.8
step02_gravity_refstate-crust.xmf,1432,-1.07169e-06,6.14316e-06,0,-6.18945e-07,-1.01259e+09,-1.0121e+09,-1.01252e+09,-42459.6,0.00483176,0.0801158,0,0.0802613,25502.1,-36869.5,0,44829.9,42459.6
step02_gravity_refstate-crust.xmf,1433,-3.55926e-06,6.03626e-06,0,-8.43583e-06,-1.03577e+09,-1.03511e+09,-1.03553e+09,-578698,0.0442154,0.217594,0,0.222041,9014.21,-37703.2,0,38765.8,578698
step02_gravity_refstate-crust.xmf,1434,-3.43237e-06,6.48289e-06,0,-6.71662e-06,-1.01896e+09,-1.01828e+09,-1.01872e+09,-460760,0.039513,0.194658,0,0.198628,10626.8,-37092.3,0,38584.5,460760
step02_gravity_refstate-crust.xmf,1435,-3.1429e-06,6.936e-06,0,-4.54547e-06,-1.00286e+09,-1.00217e+09,-1.00264e+09,-311819,0.0311993,0.161289,0,0.164279,13489.1,-36508.1,0,38920.4,311819
step02_gravity_refstate-crust.xmf,1436,-3.02482e-06,7.17382e-06,0,-3.7414e-06,-1.00904e+09,-1.00835e+09,-1.00884e+09,-256660,0.026904,0.146722,0,0.149168,14715.2,-36734.2,0,39571.9,256660
step02_gravity_refstate-crust.xmf,1437,-3.48275e-06,6.99205e-06,0,-5.72864e-06,-1.02245e+09,-1.02174e+09,-1.02222e+09,-392985,0.0356714,0.178863,0,0.182386,11667.3,-37220.2,0,39006,392985
step02_gravity_refstate-crust.xmf,1438,-4.11946e-06,5.33337e-06,0,-1.28112e-05,-1.0818e+09,-1.08115e+09,-1.08151e+09,-878848,0.0518972,0.266847,0,0.271847,6368.35,-39375.5,0,39887.2,878848
step02_gravity_refstate-crust.xmf,1439,-3.95159e-06,6.29972e-06,0,-9.31946e-06,-1.05559e+09,-1.05488e+09,-1.05531e+09,-639315,0.0457074,0.226754,0,0.231315,8309.75,-38423.4,0,39311.7,639315
step02_gravity_refstate-crust.xmf,1440,-4.39663e-06,6.35269e-06,0,-1.12095e-05,-1.08075e+09,-1.08001e+09,-1.08045e+09,-768969,0.0488576,0.248074,0,0.252839,7101.22,-39337.7,0,39973.5,768969
step02_gravity_refstate-crust.xmf,1441,-2.19431e-07,5.66977e-06,0,-6.88558e-08,-1.05706e+09,-1.05666e+09,-1.05705e+09,-4723.51,-0.00117004,0.0587567,-0,0.0587684,30248.1,-38491.3,0,48954.3,4723.51
step02_gravity_refstate-crust.xmf,1442,-2.81994e-06,7.28412e-06,0,-3.04034e-06,-1.01559e+09,-1.0149e+09,-1.0154e+09,-208567,0.0227327,0.133588,0,0.135508,15930.8,-36973.4,0,40259.4,208567
step02_gravity_refstate-crust.xmf,1443,-2.07729e-06,6.86506e-06,0,-1.74045e-06,-1.00589e+09,-1.00527e+09,-1.00574e+09,-119395,0.0143482,0.108054,0,0.109003,19745,-36622.5,0,41606.2,119395
step02_gravity_refstate-crust.xmf,1444,-1.79794e-06,6.73962e-06,0,-1.32339e-06,-1.0135e+09,-1.01292e+09,-1.01338e+09,-90784.2,0.0108505,0.0980691,0,0.0986675,21184.9,-36900.8,0,42549.6,90784.2
step02_gravity_refstate-crust.xmf,1445,-1.49859e-06,6.58707e-06,0,-9.67043e-07,-1.02215e+09,-1.0216e+09,-1.02205e+09,-66339.1,0.00763889,0.0888809,0,0.0892086,22657.4,-37216.6,0,43571,66339.1
step02_gravity_refstate-crust.xmf,1446,-1.23005e-06,6.43003e-06,0,-7.03697e-07,-1.0301e+09,-1.02958e+09,-1.03002e+09,-48273.6,0.0051256,0.0815175,0,0.0816785,23986.6,-37507,0,44521.1,48273.6
step02_gravity_refstate-crust.xmf,1447,-3.77217e-06,6.87262e-06,0,-7.18693e-06,-1.04009e+09,-1.03936e+09,-1.03983e+09,-493023,0.0402976,0.199361,0,0.203393,10005.2,-37860.8,0,39160.5,493023
step02_gravity_refstate-crust.xmf,1448,-3.41742e-06,7.33748e-06,0,-4.82363e-06,-1.02642e+09,-1.02568e+09,-1.02618e+09,-330901,0.0316628,0.16409,0,0.167117,12729.7,-37365.3,0,39474.2,330901
step02_gravity_refstate-crust.xmf,1449,-4.4693e-06,7.13619e-06,0,-9.65153e-06,-1.07894e+09,-1.07815e+09,-1.07864e+09,-662095,0.0454129,0.229436,0,0.233888,7916.72,-39272.9,0,40062.9,662095
step02_gravity_refstate-crust.xmf,1450,-4.28327e-07,5.88586e-06,0,-1.51793e-07,-1.05638e+09,-1.05594e+09,-1.05635e+09,-10413,-0.00052647,0.0626153,-0,0.0626175,28369.2,-38465.8,0,47795.7,10413
step02_gravity_refstate-crust.xmf,1451,-2.59096e-06,7.35067e-06,0,-2.4166e-06,-1.02711e+09,-1.02643e+09,-1.02693e+09,-165779,0.0183475,0.12073,0,0.122116,17108.3,-37394,0,41121.8,165779
step02_gravity_refstate-crust.xmf,1452,-2.13885e-06,7.20359e-06,0,-1.63311e-06,-1.03773e+09,-1.03708e+09,-1.03758e+09,-112031,0.0123916,0.103644,0,0.104382,19139.4,-37781.9,0,42353.2,112031
step02_gravity_refstate-crust.xmf,1453,-6.88518e-07,6.14272e-06,0,-2.73437e-07,-1.05644e+09,-1.05597e+09,-1.05639e+09,-18757.8,0.000487698,0.067179,0,0.0671807,26526,-38467.3,0,46726.5,18757.8
step02_gravity_refstate-crust.xmf,1454,-9.38641e-07,6.4149e-06,0,-4.12891e-07,-1.05965e+09,-1.05915e+09,-1.05959e+09,-28324.3,0.0015967,0.0716914,0,0.0717092,24800.3,-38583.9,0,45866.9,28324.3
step02_gravity_refstate-crust.xmf,1455,-4.11826e-06,7.24343e-06,0,-7.75448e-06,-1.05937e+09,-1.05859e+09,-1.05909e+09,-531957,0.041154,0.205531,0,0.209611,9363.88,-38561.9,0,39682.6,531957
step02_gravity_refstate-crust.xmf,1456,-3.79775e-06,7.44103e-06,0,-6.05713e-06,-1.04488e+09,-1.04411e+09,-1.04462e+09,-415519,0.0360396,0.182245,0,0.185774,11017.3,-38035.9,0,39599.4,415519
step02_gravity_refstate-crust.xmf,1457,-3.024e-06,7.67724e-06,0,-3.12557e-06,-1.0407e+09,-1.03996e+09,-1.04049e+09,-214414,0.0220961,0.133297,0,0.135116,15215.5,-37887.3,0,40828.4,214414
step02_gravity_refstate-crust.xmf,1458,-3.29088e-06,7.65836e-06,0,-3.85774e-06,-1.03764e+09,-1.03689e+09,-1.03742e+09,-264641,0.0263232,0.146655,0,0.148998,13978.3,-37775,0,40278.3,264641
step02_gravity_refstate-crust.xmf,1459,-3.69737e-06,7.76488e-06,0,-5.06204e-06,-1.0488e+09,-1.04801e+09,-1.04854e+09,-347256,0.0316295,0.166181,0,0.169165,12084,-38179.6,0,40046.3,347256
step02_gravity_refstate-crust.xmf,1460,-2.76493e-06,7.62453e-06,0,-2.58294e-06,-1.04339e+09,-1.04268e+09,-1.0432e+09,-177190,0.0186711,0.122901,0,0.124311,16294.5,-37986.3,0,41333.7,177190
step02_gravity_refstate-crust.xmf,1461,-2.3699e-06,7.40531e-06,0,-1.92992e-06,-1.04239e+09,-1.04172e+09,-1.04223e+09,-132392,0.0143872,0.109882,0,0.11082,18016.2,-37951.2,0,42010.5,132392
step02_gravity_refstate-crust.xmf,1462,-1.89079e-06,7.01707e-06,0,-1.34247e-06,-1.036e+09,-1.03539e+09,-1.03587e+09,-92093.8,0.010234,0.0971729,0,0.0977104,20306.7,-37719.7,0,42838.5,92093.8
step02_gravity_refstate-crust.xmf,1463,-1.20756e-06,6.68575e-06,0,-5.95381e-07,-1.06167e+09,-1.06113e+09,-1.06159e+09,-40843.1,0.00309014,0.0770062,0,0.0770681,23208.8,-38656.8,0,45088.8,40843.1
step02_gravity_refstate-crust.xmf,1464,-1.56732e-06,6.95196e-06,0,-9.11512e-07,-1.0565e+09,-1.05592e+09,-1.05639e+09,-62529.7,0.00596622,0.0857203,0,0.0859277,21508.8,-38467.4,0,44072.3,62529.7
step02_gravity_refstate-crust.xmf,1465,-4.1056e-06,7.82461e-06,0,-6.49942e-06,-1.06406e+09,-1.06324e+09,-1.06378e+09,-445860,0.0366159,0.187382,0,0.190926,10345,-38733.7,0,40091.4,445860
step02_gravity_refstate-crust.xmf,1466,-3.51135e-06,7.90392e-06,0,-4.25293e-06,-1.05128e+09,-1.0505e+09,-1.05104e+09,-291751,0.0276806,0.1527,0,0.155189,13102.6,-38271,0,40451.8,291751
step02_gravity_refstate-crust.xmf,1467,-4.50158e-06,7.74859e-06,0,-8.24761e-06,-1.07934e+09,-1.0785e+09,-1.07903e+09,-565786,0.0414001,0.210766,0,0.214793,8801.73,-39288.4,0,40262.2,565786
step02_gravity_refstate-crust.xmf,1468,-2.80344e-06,7.97908e-06,0,-2.41409e-06,-1.06948e+09,-1.06874e+09,-1.06929e+09,-165606,0.016215,0.118253,0,0.119359,15970.4,-38936.5,0,42084.5,165606
step02_gravity_refstate-crust.xmf,1469,-2.49747e-06,7.7294e-06,0,-1.9715e-06,-1.06408e+09,-1.06337e+09,-1.0639e+09,-135245,0.0135803,0.109508,0,0.110347,17247.5,-38740.6,0,42406.5,135245
step02_gravity_refstate-crust.xmf,1470,-2.14132e-06,7.54046e-06,0,-1.47821e-06,-1.06885e+09,-1.06818e+09,-1.0687e+09,-101405,0.00980885,0.0986206,0,0.0991072,18617.1,-38915.4,0,43139.4,101405
step02_gravity_refstate-crust.xmf,1471,-1.83915e-06,7.29068e-06,0,-1.14403e-06,-1.06757e+09,-1.06694e+09,-1.06744e+09,-78480.7,0.00733366,0.0909452,0,0.0912404,19949.2,-38869.6,0,43690,78480.7
step02_gravity_refstate-crust.xmf,1472,-4.40489e-06,8.20225e-06,0,-6.98095e-06,-1.08115e+09,-1.08029e+09,-1.08085e+09,-478893,0.0371456,0.193256,0,0.196793,9706.5,-39355.3,0,40534.6,478893
step02_gravity_refstate-crust.xmf,1473,-4.006e-06,8.29993e-06,0,-5.30129e-06,-1.07368e+09,-1.07284e+09,-1.07341e+09,-363668,0.0311228,0.16847,0,0.171321,11393.6,-39085,0,40711.8,363668
step02_gravity_refstate-crust.xmf,1474,-3.08692e-06,8.14758e-06,0,-2.90855e-06,-1.07143e+09,-1.07066e+09,-1.07122e+09,-199527,0.0191415,0.127687,0,0.129114,14877.1,-39006.8,0,41747.5,199527
step02_gravity_refstate-crust.xmf,1475,-3.70229e-06,8.36107e-06,0,-4.29587e-06,-1.07406e+09,-1.07323e+09,-1.0738e+09,-294697,0.0264711,0.15218,0,0.154465,12593.5,-39100.1,0,41078.2,294697
step02_gravity_refstate-crust.xmf,1476,-3.40104e-06,8.27726e-06,0,-3.55681e-06,-1.07243e+09,-1.07163e+09,-1.07219e+09,-243997,0.0227767,0.139534,0,0.14138,13706.9,-39041.8,0,41378.1,243997
step02_gravity_refstate-crust.xmf,1477,-4.24573e-06,8.51103e-06,0,-5.91011e-06,-1.08474e+09,-1.08386e+09,-1.08445e+09,-405434,0.032859,0.177462,0,0.180478,10579.2,-39487,0,40879.6,405434
