Block Name,Point ID,cauchy_strain_0,cauchy_strain_1,cauchy_strain_2,cauchy_strain_3,cauchy_stress_0,cauchy_stress_1,cauchy_stress_2,cauchy_stress_3,displacement_0,displacement_1,displacement_2,displacement_Magnitude,Points_0,Points_1,Points_2,Points_Magnitude,stress_xy
step02_gravity_refstate-mantle.xmf,0,5.69298e-06,-5.57767e-06,0,4.74959e-06,-1.09795e+09,-1.09946e+09,-1.09871e+09,634783,-0.00895901,0.155085,-0,0.155343,-1000,-40000,-0,40012.5,634783
step02_gravity_refstate-mantle.xmf,1,3.24902e-06,-2.62006e-06,0,4.00679e-06,-1.09823e+09,-1.09902e+09,-1.09867e+09,535508,-0.011265,0.147966,-0,0.148394,-1513.8,-40000,-0,40028.6,535508
step02_gravity_refstate-mantle.xmf,2,3.56875e-06,-2.79792e-06,0,5.28817e-06,-1.10989e+09,-1.11074e+09,-1.11037e+09,706764,-0.00885165,0.151106,-0,0.151365,-1365.48,-40361.7,-0,40384.8,706764
step02_gravity_refstate-mantle.xmf,3,2.44146e-06,-1.50775e-06,0,4.753e-06,-1.11194e+09,-1.11247e+09,-1.11227e+09,635239,-0.00982267,0.145058,-0,0.145391,-1783.07,-40421,-0,40460.3,635239
step02_gravity_refstate-mantle.xmf,4,4.49977e-06,-3.9278e-06,0,6.63365e-06,-1.11427e+09,-1.1154e+09,-1.11487e+09,886588,-0.00677216,0.15746,-0,0.157605,-1000,-40500.4,-0,40512.7,886588
step02_gravity_refstate-mantle.xmf,5,1.95917e-06,-1.19484e-06,0,3.59413e-06,-1.09839e+09,-1.09882e+09,-1.09866e+09,480355,-0.0126414,0.140811,-0,0.141377,-2053.41,-40000,-0,40052.7,480355
step02_gravity_refstate-mantle.xmf,6,3.07191e-06,-1.93347e-06,0,6.01861e-06,-1.12213e+09,-1.1228e+09,-1.12254e+09,804388,-0.00743163,0.150918,-0,0.1511,-1434.25,-40738.7,-0,40763.9,804388
step02_gravity_refstate-mantle.xmf,7,9.25256e-07,-1.58249e-07,0,3.24462e-06,-1.09853e+09,-1.09868e+09,-1.09866e+09,433644,-0.0134285,0.13383,-0,0.134502,-2618.77,-40000,-0,40085.6,433644
step02_gravity_refstate-mantle.xmf,8,1.52127e-06,-4.28731e-07,0,4.13577e-06,-1.11316e+09,-1.11342e+09,-1.11336e+09,552746,-0.0106867,0.13784,-0,0.138253,-2310.14,-40455.1,-0,40521,552746
step02_gravity_refstate-mantle.xmf,9,1.81788e-06,-4.65609e-07,0,5.28512e-06,-1.12865e+09,-1.12895e+09,-1.12889e+09,706356,-0.0079556,0.142382,-0,0.142605,-2001.29,-40935.4,-0,40984.3,706356
step02_gravity_refstate-mantle.xmf,10,1.41151e-07,1.93127e-06,0,1.28959e-09,-1.09853e+09,-1.09829e+09,-1.09855e+09,172.353,9.53582e-20,0.0443801,0,0.0443801,-40000,-40000,-0,56568.5,172.353
step02_gravity_refstate-mantle.xmf,11,2.32976e-07,2.00279e-06,0,5.99145e-10,-1.16987e+09,-1.16963e+09,-1.1699e+09,80.0758,-1.13082e-20,0.0400411,-0,0.0400411,-40000,-42204.4,-0,58148.2,80.0758
step02_gravity_refstate-mantle.xmf,12,2.01765e-07,1.98517e-06,0,-9.36694e-09,-1.14866e+09,-1.14842e+09,-1.14868e+09,-1251.89,0.000315037,0.0413838,0,0.041385,-38450.2,-41549,-0,56610.4,1251.89
step02_gravity_refstate-mantle.xmf,13,1.33473e-07,1.93809e-06,0,-4.99971e-09,-1.09853e+09,-1.09829e+09,-1.09855e+09,-668.211,0.000326077,0.0444762,0,0.0444774,-37629,-40000,-0,54917.6,668.211
step02_gravity_refstate-mantle.xmf,14,3.52517e-06,-2.37317e-06,0,7.8022e-06,-1.13054e+09,-1.13133e+09,-1.13101e+09,1.04276e+06,-0.00504519,0.159033,-0,0.159113,-1000,-41000.4,-0,41012.6,1.04276e+06
step02_gravity_refstate-mantle.xmf,15,7.2601e-07,4.0984e-07,0,3.61145e-06,-1.11448e+09,-1.11452e+09,-1.11458e+09,482670,-0.0111336,0.13054,-0,0.131014,-2888.51,-40492.7,-0,40595.6,482670
step02_gravity_refstate-mantle.xmf,16,2.49428e-06,-9.52474e-07,0,6.8139e-06,-1.13753e+09,-1.13799e+09,-1.13787e+09,910678,-0.00570459,0.151246,-0,0.151354,-1455.63,-41213.2,-0,41238.9,910678
step02_gravity_refstate-mantle.xmf,17,2.8431e-07,2.03742e-06,0,-1.71618e-08,-1.20735e+09,-1.20711e+09,-1.20738e+09,-2293.68,0.000490819,0.0377441,0,0.0377473,-38286.3,-43362.6,-0,57846,2293.68
step02_gravity_refstate-mantle.xmf,18,2.18388e-07,2.0101e-06,0,-2.5548e-08,-1.16724e+09,-1.167e+09,-1.16726e+09,-3414.5,0.000777804,0.0403831,0,0.0403906,-36553.1,-42123,-0,55771.7,3414.5
step02_gravity_refstate-mantle.xmf,19,3.37877e-07,2.06146e-06,0,5.93237e-10,-1.2412e+09,-1.24097e+09,-1.24125e+09,79.2861,-1.74173e-20,0.035561,-0,0.035561,-40000,-44408.8,-0,59767.4,79.2861
step02_gravity_refstate-mantle.xmf,20,5.70214e-06,-5.05348e-06,0,-4.48058e-06,-1.0979e+09,-1.09934e+09,-1.09867e+09,-598829,0.00895927,0.155083,0,0.155342,1000,-40000,0,40012.5,598829
step02_gravity_refstate-mantle.xmf,21,4.49872e-06,-3.91919e-06,0,-6.63268e-06,-1.11427e+09,-1.11539e+09,-1.11487e+09,-886458,0.00677217,0.157461,0,0.157606,1000,-40500.4,0,40512.7,886458
step02_gravity_refstate-mantle.xmf,22,3.57317e-06,-2.80781e-06,0,-5.31357e-06,-1.10987e+09,-1.11072e+09,-1.11035e+09,-710159,0.00885246,0.151113,0,0.151372,1364.96,-40361.1,0,40384.2,710159
step02_gravity_refstate-mantle.xmf,23,3.22928e-06,-2.61499e-06,0,-4.00548e-06,-1.09824e+09,-1.09902e+09,-1.09867e+09,-535333,0.0112677,0.147966,0,0.148394,1513.8,-40000,0,40028.6,535333
step02_gravity_refstate-mantle.xmf,24,2.92709e-07,5.92037e-07,0,2.89763e-06,-1.09861e+09,-1.09857e+09,-1.09865e+09,387268,-0.0137728,0.127066,-0,0.127811,-3211.88,-40000,-0,40128.7,387268
step02_gravity_refstate-mantle.xmf,25,1.14173e-06,2.24329e-07,0,4.4284e-06,-1.12658e+09,-1.1267e+09,-1.12673e+09,591856,-0.00900798,0.135166,-0,0.135466,-2514.86,-40868.9,-0,40946.2,591856
step02_gravity_refstate-mantle.xmf,26,1.69631e-06,8.29921e-09,0,6.07062e-06,-1.14304e+09,-1.14326e+09,-1.14326e+09,811339,-0.00595193,0.144538,-0,0.14466,-1867.7,-41380.4,-0,41422.5,811339
step02_gravity_refstate-mantle.xmf,27,1.09699e-07,1.95466e-06,0,-1.05516e-08,-1.09853e+09,-1.09829e+09,-1.09855e+09,-1410.22,0.000605016,0.0447518,0,0.0447559,-35372.8,-40000,-0,53396.9,1410.22
step02_gravity_refstate-mantle.xmf,28,7.84489e-08,1.97938e-06,0,-1.27305e-08,-1.09854e+09,-1.09828e+09,-1.09855e+09,-1701.43,0.000815546,0.0451952,0,0.0452026,-33225.7,-40000,-0,51999.5,1701.43
step02_gravity_refstate-mantle.xmf,29,1.82324e-07,2.02439e-06,0,-3.94324e-08,-1.15928e+09,-1.15904e+09,-1.15931e+09,-5270.14,0.00118953,0.041212,0,0.0412292,-34255.1,-41877.2,-0,54102.8,5270.14
step02_gravity_refstate-mantle.xmf,30,3.94439e-07,2.09489e-06,0,-2.62358e-08,-1.28039e+09,-1.28016e+09,-1.28044e+09,-3506.41,0.000817802,0.0330971,0,0.0331072,-37935,-45619.7,-0,59331.5,3506.41
step02_gravity_refstate-mantle.xmf,31,2.9669e-06,-1.93361e-06,0,-6.03896e-06,-1.12213e+09,-1.12279e+09,-1.12253e+09,-807108,0.00743635,0.150904,0,0.151087,1435.03,-40738.2,0,40763.4,807108
step02_gravity_refstate-mantle.xmf,32,2.43433e-06,-1.49898e-06,0,-4.75391e-06,-1.11204e+09,-1.11256e+09,-1.11236e+09,-635361,0.0098164,0.145019,0,0.145351,1786.15,-40423.8,0,40463.3,635361
step02_gravity_refstate-mantle.xmf,33,2.62637e-06,-9.37904e-07,0,8.51271e-06,-1.14682e+09,-1.14729e+09,-1.14717e+09,1.13772e+06,-0.00366911,0.159861,-0,0.159903,-1000,-41500.9,-0,41512.9,1.13772e+06
step02_gravity_refstate-mantle.xmf,34,1.76567e-06,1.7756e-07,0,7.32751e-06,-1.15422e+09,-1.15443e+09,-1.15446e+09,979322,-0.00415381,0.150596,-0,0.150653,-1504.17,-41726.7,-0,41753.8,979322
step02_gravity_refstate-mantle.xmf,35,-2.1317e-07,1.16614e-06,0,2.56982e-06,-1.09867e+09,-1.09849e+09,-1.09864e+09,343456,-0.0137732,0.120551,-0,0.121336,-3834.57,-40000,-0,40183.4,343456
step02_gravity_refstate-mantle.xmf,36,-5.88547e-07,1.60447e-06,0,2.27123e-06,-1.09871e+09,-1.09842e+09,-1.09864e+09,303550,-0.0134967,0.114308,-0,0.115102,-4488.57,-40000,-0,40251.1,303550
step02_gravity_refstate-mantle.xmf,37,-2.75768e-07,1.49245e-06,0,2.59187e-06,-1.11207e+09,-1.11184e+09,-1.11204e+09,346404,-0.0117359,0.116759,-0,0.117347,-4161.57,-40414.5,-0,40628.2,346404
step02_gravity_refstate-mantle.xmf,38,1.8437e-07,1.07532e-06,0,3.15364e-06,-1.11736e+09,-1.11724e+09,-1.11739e+09,421484,-0.0109993,0.123202,-0,0.123692,-3519.88,-40579.8,-0,40732.2,421484
step02_gravity_refstate-mantle.xmf,39,6.48455e-07,8.82905e-07,0,4.05909e-06,-1.13289e+09,-1.13286e+09,-1.13298e+09,542497,-0.00854669,0.129268,-0,0.129551,-2962.15,-41062.1,-0,41168.8,542497
step02_gravity_refstate-mantle.xmf,40,1.07096e-06,6.46479e-07,0,5.09866e-06,-1.14291e+09,-1.14296e+09,-1.14305e+09,681437,-0.00673218,0.136393,-0,0.13656,-2410.34,-41373.8,-0,41443.9,681437
step02_gravity_refstate-mantle.xmf,41,3.73267e-08,2.0116e-06,0,-1.20665e-08,-1.09855e+09,-1.09828e+09,-1.09855e+09,-1612.69,0.000941479,0.0458027,0,0.0458123,-31182.5,-40000,-0,50718.3,1612.69
step02_gravity_refstate-mantle.xmf,42,1.46499e-07,2.05039e-06,0,-4.93585e-08,-1.15631e+09,-1.15606e+09,-1.15633e+09,-6596.76,0.00151618,0.0418855,0,0.041913,-32125.1,-41785.3,-0,52707,6596.76
step02_gravity_refstate-mantle.xmf,43,-1.2375e-08,2.05007e-06,0,-7.71636e-09,-1.09855e+09,-1.09828e+09,-1.09855e+09,-1031.29,0.000972538,0.0465756,0,0.0465857,-29238.1,-40000,-0,49546.6,1031.29
step02_gravity_refstate-mantle.xmf,44,9.93646e-08,2.08065e-06,0,-5.35067e-08,-1.15125e+09,-1.15099e+09,-1.15126e+09,-7151.17,0.00169814,0.0428365,0,0.0428701,-30155.3,-41628.7,-0,51403.2,7151.17
step02_gravity_refstate-mantle.xmf,45,3.2314e-07,2.06675e-06,0,-3.6369e-08,-1.23673e+09,-1.2365e+09,-1.23677e+09,-4860.72,0.00105749,0.0359815,0,0.0359971,-36779.5,-44270.5,-0,57555.3,4860.72
step02_gravity_refstate-mantle.xmf,46,4.45991e-07,2.11522e-06,0,3.51319e-10,-1.31254e+09,-1.31232e+09,-1.3126e+09,46.9538,-1.97398e-20,0.0309573,-0,0.0309573,-40000,-46613.3,-0,61423.1,46.9538
step02_gravity_refstate-mantle.xmf,47,1.95867e-06,-1.1947e-06,0,-3.59363e-06,-1.09839e+09,-1.09882e+09,-1.09866e+09,-480289,0.0126425,0.140811,0,0.141378,2053.41,-40000,0,40052.7,480289
step02_gravity_refstate-mantle.xmf,48,3.56124e-06,-2.37943e-06,0,-7.75542e-06,-1.13053e+09,-1.13132e+09,-1.13101e+09,-1.03651e+06,0.00504652,0.159032,0,0.159112,1000,-41000.4,0,41012.6,1.03651e+06
step02_gravity_refstate-mantle.xmf,49,1.18621e-06,8.6687e-07,0,6.23786e-06,-1.15697e+09,-1.15701e+09,-1.15713e+09,833690,-0.00462889,0.142141,-0,0.142216,-2007.11,-41809.5,-0,41857.7,833690
step02_gravity_refstate-mantle.xmf,50,-4.56657e-07,1.8689e-06,0,2.37261e-06,-1.1188e+09,-1.11849e+09,-1.11874e+09,317099,-0.0106071,0.111203,-0,0.111707,-4711.82,-40622,-0,40894.4,317099
step02_gravity_refstate-mantle.xmf,51,-6.70224e-08,2.09264e-06,0,1.01704e-09,-1.09856e+09,-1.09827e+09,-1.09855e+09,135.927,0.000902655,0.0475186,0,0.0475271,-27387.8,-40000,-0,48477.7,135.927
step02_gravity_refstate-mantle.xmf,52,4.09761e-08,2.11376e-06,0,-4.92388e-08,-1.14373e+09,-1.14346e+09,-1.14374e+09,-6580.77,0.0017142,0.0441177,0,0.044151,-28272,-41396.2,-0,50129.3,6580.77
step02_gravity_refstate-mantle.xmf,53,2.89265e-07,2.06695e-06,0,-5.11881e-08,-1.22147e+09,-1.22123e+09,-1.22151e+09,-6841.29,0.00147291,0.0371401,0,0.0371693,-35117.7,-43799,-0,56139.2,6841.29
step02_gravity_refstate-mantle.xmf,54,2.59403e-07,2.08504e-06,0,-6.88778e-08,-1.21579e+09,-1.21554e+09,-1.21582e+09,-9205.52,0.00197695,0.0378516,0,0.0379032,-33097.9,-43623.3,-0,54758.2,9205.52
step02_gravity_refstate-mantle.xmf,55,3.86131e-07,2.10506e-06,0,-5.25238e-08,-1.27977e+09,-1.27954e+09,-1.27982e+09,-7019.81,0.00162279,0.0332917,0,0.0333312,-35865.9,-45600.6,-0,58015.3,7019.81
step02_gravity_refstate-mantle.xmf,56,5.07468e-07,2.14991e-06,0,-2.62547e-08,-1.35506e+09,-1.35484e+09,-1.35513e+09,-3508.93,0.000969932,0.0281928,0,0.0282095,-38090.9,-47927.1,-0,61220.3,3508.93
step02_gravity_refstate-mantle.xmf,57,9.26066e-07,-1.57014e-07,0,-3.24344e-06,-1.09853e+09,-1.09868e+09,-1.09866e+09,-433486,0.0134285,0.13383,0,0.134502,2618.77,-40000,0,40085.6,433486
step02_gravity_refstate-mantle.xmf,58,1.51765e-06,-4.24899e-07,0,-4.13254e-06,-1.11316e+09,-1.11342e+09,-1.11337e+09,-552314,0.01069,0.137806,0,0.13822,2312.69,-40455.2,0,40521.3,552314
step02_gravity_refstate-mantle.xmf,59,2.62106e-06,-9.20938e-07,0,-8.51526e-06,-1.14682e+09,-1.14729e+09,-1.14717e+09,-1.13806e+06,0.00366922,0.159863,0,0.159905,1000,-41500.9,0,41512.9,1.13806e+06
step02_gravity_refstate-mantle.xmf,60,2.43158e-06,-9.1924e-07,0,-6.73875e-06,-1.13739e+09,-1.13784e+09,-1.13772e+09,-900635,0.00574406,0.151079,0,0.151188,1465.17,-41208.5,0,41234.5,900635
step02_gravity_refstate-mantle.xmf,61,1.82782e-06,-4.79122e-07,0,-5.29678e-06,-1.12862e+09,-1.12893e+09,-1.12887e+09,-707914,0.00794501,0.142491,0,0.142712,1993.93,-40934.8,0,40983.3,707914
step02_gravity_refstate-mantle.xmf,62,1.80291e-06,3.7866e-07,0,8.95691e-06,-1.16308e+09,-1.16327e+09,-1.16332e+09,1.19709e+06,-0.00253565,0.160002,-0,0.160022,-1000,-42001.1,-0,42013,1.19709e+06
step02_gravity_refstate-mantle.xmf,63,1.23548e-06,1.01605e-06,0,7.0326e-06,-1.16428e+09,-1.16431e+09,-1.16444e+09,939907,-0.00355647,0.146562,-0,0.146605,-1725.81,-42035.9,-0,42071.3,939907
step02_gravity_refstate-mantle.xmf,64,-8.10364e-07,1.924e-06,0,1.98822e-06,-1.09874e+09,-1.09837e+09,-1.09863e+09,265726,-0.013008,0.108353,-0,0.109131,-5175.58,-40000,-0,40333.4,265726
step02_gravity_refstate-mantle.xmf,65,-9.71497e-07,2.16485e-06,0,1.73055e-06,-1.09875e+09,-1.09833e+09,-1.09862e+09,231287,-0.0123521,0.102697,-0,0.103438,-5897.33,-40000,-0,40432.4,231287
step02_gravity_refstate-mantle.xmf,66,-6.71817e-07,2.14102e-06,0,1.97694e-06,-1.11833e+09,-1.11795e+09,-1.11824e+09,264218,-0.0102281,0.104567,-0,0.105066,-5488.29,-40606.7,-0,40975.9,264218
step02_gravity_refstate-mantle.xmf,67,-1.06914e-06,2.33127e-06,0,1.48992e-06,-1.09876e+09,-1.0983e+09,-1.09862e+09,199128,-0.0115718,0.0973447,-0,0.0980301,-6655.64,-40000,-0,40549.9,199128
step02_gravity_refstate-mantle.xmf,68,-1.10686e-06,2.45683e-06,0,1.29168e-06,-1.09876e+09,-1.09828e+09,-1.09861e+09,172633,-0.0107006,0.0922956,-0,0.0929138,-7452.39,-40000,-0,40688.3,172633
step02_gravity_refstate-mantle.xmf,69,-9.22105e-07,2.48171e-06,0,1.34303e-06,-1.11693e+09,-1.11648e+09,-1.11681e+09,179496,-0.00896102,0.0922787,-0,0.0927128,-7228.54,-40562.8,-0,41201.9,179496
step02_gravity_refstate-mantle.xmf,70,-8.22836e-08,1.62915e-06,0,2.90776e-06,-1.12882e+09,-1.12859e+09,-1.1288e+09,388623,-0.0094072,0.116832,-0,0.11721,-4073.37,-40933.3,-0,41135.4,388623
step02_gravity_refstate-mantle.xmf,71,2.23281e-07,1.49849e-06,0,3.5725e-06,-1.13989e+09,-1.13972e+09,-1.13992e+09,477465,-0.00785694,0.122124,-0,0.122377,-3535.9,-41277.2,-0,41428.3,477465
step02_gravity_refstate-mantle.xmf,72,4.93287e-07,1.46952e-06,0,4.41785e-06,-1.15206e+09,-1.15193e+09,-1.15213e+09,590446,-0.00607062,0.127884,-0,0.128028,-3016.21,-41654.8,-0,41763.8,590446
step02_gravity_refstate-mantle.xmf,73,6.7242e-07,1.53978e-06,0,5.41916e-06,-1.16335e+09,-1.16323e+09,-1.16344e+09,724271,-0.00441228,0.134246,-0,0.134319,-2512.01,-42004.8,-0,42079.9,724271
step02_gravity_refstate-mantle.xmf,74,2.25897e-07,2.12056e-06,0,-8.76704e-08,-1.21529e+09,-1.21504e+09,-1.21532e+09,-11717.1,0.00253876,0.0384721,0,0.0385558,-30774.1,-43607.8,-0,53373.1,11717.1
step02_gravity_refstate-mantle.xmf,75,-1.1031e-08,2.15396e-06,0,-4.43908e-08,-1.14164e+09,-1.14135e+09,-1.14164e+09,-5932.83,0.00170133,0.0451758,0,0.0452078,-26555.5,-41331.2,-0,49127,5932.83
step02_gravity_refstate-mantle.xmf,76,1.47874e-07,2.14138e-06,0,-8.58336e-08,-1.19272e+09,-1.19245e+09,-1.19274e+09,-11471.7,0.00254218,0.0406554,0,0.0407348,-28812.4,-42910,-0,51685.9,11471.7
step02_gravity_refstate-mantle.xmf,77,-1.33308e-07,2.14112e-06,0,1.43706e-08,-1.09857e+09,-1.09827e+09,-1.09855e+09,1920.63,0.000728949,0.0486386,0,0.0486441,-25627,-40000,-0,47505.2,1920.63
step02_gravity_refstate-mantle.xmf,78,-2.0336e-07,2.19183e-06,0,3.30808e-08,-1.09858e+09,-1.09826e+09,-1.09856e+09,4421.25,0.000451397,0.0499439,0,0.0499459,-23951.4,-40000,-0,46622.6,4421.25
step02_gravity_refstate-mantle.xmf,79,-6.40778e-08,2.20556e-06,0,-3.85059e-08,-1.14416e+09,-1.14386e+09,-1.14415e+09,-5146.32,0.00169459,0.0461651,0,0.0461962,-24807.7,-41408.9,-0,48271.3,5146.32
step02_gravity_refstate-mantle.xmf,80,-2.77074e-07,2.24393e-06,0,5.812e-08,-1.09859e+09,-1.09826e+09,-1.09856e+09,7767.74,7.27387e-05,0.0514429,0,0.0514429,-22356.9,-40000,-0,45823.9,7767.74
step02_gravity_refstate-mantle.xmf,81,-1.45653e-07,2.25136e-06,0,-1.53299e-08,-1.1368e+09,-1.13648e+09,-1.13678e+09,-2048.85,0.00132761,0.0480149,0,0.0480332,-23159.6,-41181.2,-0,47246.8,2048.85
step02_gravity_refstate-mantle.xmf,82,4.63142e-07,2.13669e-06,0,-4.76406e-08,-1.32786e+09,-1.32764e+09,-1.32793e+09,-6367.16,0.00162214,0.0300812,0,0.0301249,-36523.7,-47086.8,-0,59591.5,6367.16
step02_gravity_refstate-mantle.xmf,83,5.50773e-07,2.16863e-06,0,2.935e-10,-1.38388e+09,-1.38366e+09,-1.38395e+09,39.2263,-2.20036e-20,0.0262348,-0,0.0262348,-40000,-48817.8,-0,63112.4,39.2263
step02_gravity_refstate-mantle.xmf,84,7.13894e-07,4.20555e-07,0,-3.59738e-06,-1.11435e+09,-1.11439e+09,-1.11444e+09,-480789,0.0111618,0.130409,0,0.130885,2899.53,-40488.6,0,40592.3,480789
step02_gravity_refstate-mantle.xmf,85,1.75667e-06,2.20933e-07,0,-7.30104e-06,-1.15423e+09,-1.15444e+09,-1.15447e+09,-975784,0.00415284,0.150592,0,0.150649,1504.38,-41727.1,0,41754.2,975784
step02_gravity_refstate-mantle.xmf,86,1.38101e-07,1.93394e-06,0,-1.08907e-09,-1.09853e+09,-1.09829e+09,-1.09855e+09,-145.554,2.72948e-20,0.0443801,0,0.0443801,40000,-40000,0,56568.5,145.554
step02_gravity_refstate-mantle.xmf,87,1.3349e-07,1.93808e-06,0,5.01106e-09,-1.09853e+09,-1.09829e+09,-1.09855e+09,669.729,-0.000326066,0.0444762,-0,0.0444774,37629,-40000,0,54917.6,669.729
step02_gravity_refstate-mantle.xmf,88,2.0151e-07,1.98488e-06,0,9.29629e-09,-1.14843e+09,-1.14819e+09,-1.14846e+09,1242.45,-0.000312883,0.0413972,-0,0.0413984,38458.5,-41542,0,56610.9,1242.45
step02_gravity_refstate-mantle.xmf,89,2.32995e-07,2.00277e-06,0,-5.3332e-10,-1.16987e+09,-1.16963e+09,-1.1699e+09,-71.2783,4.27231e-20,0.0400411,0,0.0400411,40000,-42204.4,0,58148.2,71.2783
step02_gravity_refstate-mantle.xmf,90,-1.11232e-06,2.53909e-06,0,1.10093e-06,-1.09875e+09,-1.09826e+09,-1.0986e+09,147139,-0.00976833,0.0875463,-0,0.0880896,-8289.57,-40000,-0,40849.9,147139
step02_gravity_refstate-mantle.xmf,91,-9.25728e-07,2.54815e-06,0,1.16959e-06,-1.11833e+09,-1.11786e+09,-1.1182e+09,156316,-0.00820263,0.0882346,-0,0.0886151,-7886.9,-40606,-0,41364.9,156316
step02_gravity_refstate-mantle.xmf,92,1.17638e-06,1.2473e-06,0,7.89795e-06,-1.17123e+09,-1.17122e+09,-1.17139e+09,1.05556e+06,-0.00260486,0.151511,-0,0.151533,-1432.49,-42250.8,-0,42275.1,1.05556e+06
step02_gravity_refstate-mantle.xmf,93,7.92352e-07,1.75898e-06,0,6.71872e-06,-1.17469e+09,-1.17457e+09,-1.1748e+09,897957,-0.00282214,0.1422,-0,0.142228,-1959.48,-42356.7,-0,42402,897957
step02_gravity_refstate-mantle.xmf,94,-8.12469e-07,2.29387e-06,0,1.703e-06,-1.11665e+09,-1.11623e+09,-1.11654e+09,227606,-0.00995651,0.0997442,-0,0.10024,-6129.87,-40554.2,-0,41014.9,227606
step02_gravity_refstate-mantle.xmf,95,-7.761e-07,2.44776e-06,0,1.52666e-06,-1.12783e+09,-1.1274e+09,-1.12773e+09,204038,-0.00819601,0.0950862,-0,0.0954388,-6671.74,-40900.4,-0,41440.9,204038
step02_gravity_refstate-mantle.xmf,96,-2.35029e-07,1.97961e-06,0,2.68659e-06,-1.13762e+09,-1.13732e+09,-1.13759e+09,359062,-0.00814536,0.111807,-0,0.112103,-4528.55,-41205,-0,41453.1,359062
step02_gravity_refstate-mantle.xmf,97,8.43356e-08,2.16307e-06,0,-7.82681e-08,-1.1773e+09,-1.17702e+09,-1.17731e+09,-10460.5,0.00241653,0.0423552,0,0.0424241,-27352.3,-42433.3,-0,50485,10460.5
step02_gravity_refstate-mantle.xmf,98,-3.54913e-07,2.29702e-06,0,8.94428e-08,-1.09861e+09,-1.09825e+09,-1.09856e+09,11954,-0.00040314,0.0531447,-0,0.0531462,-20839.5,-40000,-0,45103,11954
step02_gravity_refstate-mantle.xmf,99,-2.07665e-07,2.30255e-06,0,6.14657e-09,-1.13701e+09,-1.13667e+09,-1.13698e+09,821.49,0.00106783,0.0495023,0,0.0495138,-21635.1,-41187.1,-0,46523.7,821.49
step02_gravity_refstate-mantle.xmf,100,3.70937e-07,2.11915e-06,0,-7.43367e-08,-1.27714e+09,-1.2769e+09,-1.27719e+09,-9935.1,0.00229881,0.0336978,0,0.0337761,-34025,-45519.2,-0,56830.4,9935.1
step02_gravity_refstate-mantle.xmf,101,3.45201e-07,2.14207e-06,0,-9.49975e-08,-1.27253e+09,-1.27229e+09,-1.27258e+09,-12696.4,0.00296954,0.0343791,0,0.0345071,-32011.5,-45376.7,-0,55531.8,12696.4
step02_gravity_refstate-mantle.xmf,102,4.66882e-07,2.15331e-06,0,-7.04728e-08,-1.33416e+09,-1.33393e+09,-1.33422e+09,-9418.69,0.00246308,0.0298272,0,0.0299287,-34804.2,-47281.3,-0,58709.9,9418.69
step02_gravity_refstate-mantle.xmf,103,5.55482e-07,2.1868e-06,0,-5.53438e-08,-1.38995e+09,-1.38973e+09,-1.39002e+09,-7396.7,0.00227113,0.0259789,0,0.026078,-35922.5,-49005.4,-0,60761.4,7396.7
step02_gravity_refstate-mantle.xmf,104,6.05509e-07,2.20401e-06,0,-2.59777e-08,-1.42447e+09,-1.42425e+09,-1.42455e+09,-3471.92,0.001186,0.0235253,0,0.0235552,-38039.7,-50072,-0,62882.6,3471.92
step02_gravity_refstate-mantle.xmf,105,6.45901e-07,2.22656e-06,0,2.29999e-10,-1.45533e+09,-1.45512e+09,-1.45541e+09,30.7393,-2.33244e-20,0.0213825,-0,0.0213825,-40000,-51025.6,-0,64835.3,30.7393
step02_gravity_refstate-mantle.xmf,106,1.80368e-06,3.76031e-07,0,-8.95856e-06,-1.16308e+09,-1.16327e+09,-1.16332e+09,-1.19731e+06,0.0025352,0.160001,0,0.160021,1000,-42001.1,0,42013,1.19731e+06
step02_gravity_refstate-mantle.xmf,107,2.9235e-07,5.92166e-07,0,-2.89822e-06,-1.09861e+09,-1.09857e+09,-1.09865e+09,-387348,0.0137728,0.127067,0,0.127811,3211.88,-40000,0,40128.7,387348
step02_gravity_refstate-mantle.xmf,108,1.13425e-06,2.31985e-07,0,-4.41848e-06,-1.12654e+09,-1.12666e+09,-1.12669e+09,-590530,0.00902182,0.13508,0,0.135381,2521.29,-40867.4,0,40945.1,590530
step02_gravity_refstate-mantle.xmf,109,1.69625e-06,8.43025e-09,0,-6.0691e-06,-1.14303e+09,-1.14326e+09,-1.14326e+09,-811135,0.00595347,0.144532,0,0.144654,1868.07,-41380.1,0,41422.2,811135
step02_gravity_refstate-mantle.xmf,110,2.17424e-07,2.00929e-06,0,2.51725e-08,-1.16645e+09,-1.16621e+09,-1.16648e+09,3364.3,-0.0007689,0.0404295,-0,0.0404368,36576.6,-42098.7,0,55768.7,3364.3
step02_gravity_refstate-mantle.xmf,111,2.8105e-07,2.03517e-06,0,1.64136e-08,-1.20494e+09,-1.20471e+09,-1.20498e+09,2193.68,-0.00046998,0.037893,-0,0.037896,38338.9,-43288.2,0,57825.1,2193.68
step02_gravity_refstate-mantle.xmf,112,-9.2189e-07,2.60144e-06,0,9.89472e-07,-1.11946e+09,-1.11899e+09,-1.11933e+09,132243,-0.00736377,0.0839111,-0,0.0842335,-8668.78,-40641.1,-0,41555.3,132243
step02_gravity_refstate-mantle.xmf,113,-7.1814e-07,2.58464e-06,0,1.28472e-06,-1.13954e+09,-1.13909e+09,-1.13944e+09,171703,-0.00627114,0.0889562,-0,0.089177,-7479.27,-41262.6,-0,41935,171703
step02_gravity_refstate-mantle.xmf,114,1.05208e-06,1.605e-06,0,9.22253e-06,-1.17931e+09,-1.17924e+09,-1.17945e+09,1.23259e+06,-0.00156788,0.159507,-0,0.159514,-1000,-42500.6,-0,42512.4,1.23259e+06
step02_gravity_refstate-mantle.xmf,115,-4.23382e-07,2.18399e-06,0,2.31369e-06,-1.13749e+09,-1.13715e+09,-1.13744e+09,309225,-0.0079804,0.106724,-0,0.107022,-5081.22,-41200.5,-0,41512.7,309225
step02_gravity_refstate-mantle.xmf,116,-5.78783e-07,2.39609e-06,0,1.86929e-06,-1.13957e+09,-1.13918e+09,-1.1395e+09,249830,-0.00729042,0.0995355,-0,0.0998022,-5936.37,-41264.2,-0,41689,249830
step02_gravity_refstate-mantle.xmf,117,-2.35516e-08,1.96192e-06,0,3.16122e-06,-1.14822e+09,-1.14795e+09,-1.14821e+09,422497,-0.0068087,0.115627,-0,0.115827,-4085.58,-41533.8,-0,41734.3,422497
step02_gravity_refstate-mantle.xmf,118,1.48078e-07,1.99819e-06,0,3.83747e-06,-1.15992e+09,-1.15967e+09,-1.15994e+09,512878,-0.00527283,0.120555,-0,0.12067,-3577.92,-41896.5,-0,42049,512878
step02_gravity_refstate-mantle.xmf,119,2.74413e-07,2.12935e-06,0,4.66148e-06,-1.17149e+09,-1.17124e+09,-1.17152e+09,623007,-0.00375143,0.126145,-0,0.126201,-3066.95,-42255.1,-0,42366.2,623007
step02_gravity_refstate-mantle.xmf,120,2.88948e-07,2.4194e-06,0,5.65441e-06,-1.18357e+09,-1.18328e+09,-1.18361e+09,755712,-0.00226345,0.132452,-0,0.132471,-2550.34,-42629.1,-0,42705.3,755712
step02_gravity_refstate-mantle.xmf,121,-7.664e-07,2.53533e-06,0,3.68369e-07,-1.09868e+09,-1.09823e+09,-1.09857e+09,49232.5,-0.00400374,0.0649886,-0,0.0651118,-14284.9,-40000,-0,42474.2,49232.5
step02_gravity_refstate-mantle.xmf,122,-6.85052e-07,2.49561e-06,0,2.93608e-07,-1.09866e+09,-1.09824e+09,-1.09857e+09,39240.7,-0.00314774,0.0621489,-0,0.0622285,-15469.2,-40000,-0,42887,39240.7
step02_gravity_refstate-mantle.xmf,123,-5.88863e-07,2.54644e-06,0,2.61237e-07,-1.12836e+09,-1.12794e+09,-1.12828e+09,34914.3,-0.00197268,0.0614315,-0,0.0614632,-14779,-40918.1,-0,43505.3,34914.3
step02_gravity_refstate-mantle.xmf,124,-8.45219e-07,2.5682e-06,0,4.54236e-07,-1.09869e+09,-1.09823e+09,-1.09858e+09,60708.6,-0.00490923,0.0680787,-0,0.0682554,-13158,-40000,-0,42108.6,60708.6
step02_gravity_refstate-mantle.xmf,125,-6.61483e-07,2.58178e-06,0,3.43062e-07,-1.12639e+09,-1.12596e+09,-1.1263e+09,45850.2,-0.0027987,0.0644912,-0,0.0645519,-13645.6,-40856.9,-0,43075.4,45850.2
step02_gravity_refstate-mantle.xmf,126,2.55293e-07,2.17954e-06,0,-1.13508e-07,-1.24657e+09,-1.24631e+09,-1.2466e+09,-15170.4,0.00351616,0.0370351,0,0.0372016,-28875,-44574.4,-0,53109.7,15170.4
step02_gravity_refstate-mantle.xmf,127,6.78151e-08,2.20778e-06,0,-8.74151e-08,-1.18727e+09,-1.18698e+09,-1.18728e+09,-11683,0.00275074,0.042499,0,0.0425879,-25890.3,-42741.4,-0,49971.3,11683
step02_gravity_refstate-mantle.xmf,128,1.72765e-07,2.19856e-06,0,-1.09247e-07,-1.22112e+09,-1.22085e+09,-1.22114e+09,-14600.9,0.00336078,0.0394619,0,0.0396047,-27231.3,-43787.6,-0,51564.6,14600.9
step02_gravity_refstate-mantle.xmf,129,-4.3627e-07,2.35019e-06,0,1.27762e-07,-1.09862e+09,-1.09825e+09,-1.09856e+09,17075.4,-0.000970517,0.055058,-0,0.0550666,-19395.5,-40000,-0,44454.3,17075.4
step02_gravity_refstate-mantle.xmf,130,-2.71576e-07,2.36102e-06,0,3.06074e-08,-1.13997e+09,-1.13961e+09,-1.13993e+09,4090.68,0.000799092,0.0511387,0,0.051145,-20063.4,-41278.3,-0,45896,4090.68
step02_gravity_refstate-mantle.xmf,131,2.95497e-08,2.26849e-06,0,-8.64957e-08,-1.19434e+09,-1.19404e+09,-1.19435e+09,-11560.2,0.00303256,0.0433002,0,0.0434062,-23997.6,-42959.8,-0,49208,11560.2
step02_gravity_refstate-mantle.xmf,132,-6.28052e-08,2.31114e-06,0,-5.7398e-08,-1.17922e+09,-1.17891e+09,-1.17922e+09,-7671.24,0.00254518,0.0458033,0,0.045874,-22315.6,-42492.3,-0,47995.6,7671.24
step02_gravity_refstate-mantle.xmf,133,-6.01835e-07,2.45062e-06,0,2.29079e-07,-1.09865e+09,-1.09824e+09,-1.09857e+09,30616.5,-0.00235098,0.0595522,-0,0.0595986,-16713.6,-40000,-0,43351.4,30616.5
step02_gravity_refstate-mantle.xmf,134,-5.02744e-07,2.50504e-06,0,1.84261e-07,-1.13223e+09,-1.13183e+09,-1.13216e+09,24626.5,-0.0010821,0.0583537,-0,0.0583637,-16027.1,-41038.2,-0,44056.8,24626.5
step02_gravity_refstate-mantle.xmf,135,-5.16003e-07,2.4005e-06,0,1.74411e-07,-1.09863e+09,-1.09824e+09,-1.09856e+09,23310,-0.00162213,0.057191,-0,0.057214,-18021.3,-40000,-0,43872.2,23310
step02_gravity_refstate-mantle.xmf,136,-3.75484e-07,2.3994e-06,0,8.69263e-08,-1.12761e+09,-1.12724e+09,-1.12756e+09,11617.7,-0.000109077,0.053886,-0,0.0538861,-18746.2,-40896,-0,44987.8,11617.7
step02_gravity_refstate-mantle.xmf,137,-3.90321e-07,2.45611e-06,0,1.06066e-07,-1.13918e+09,-1.1388e+09,-1.13913e+09,14175.7,-8.43872e-05,0.05505,-0,0.0550501,-17490.8,-41253.6,-0,44808.3,14175.7
step02_gravity_refstate-mantle.xmf,138,3.2411e-07,2.17019e-06,0,-1.10722e-07,-1.27181e+09,-1.27156e+09,-1.27185e+09,-14797.9,0.00354096,0.0348728,0,0.0350521,-30277.1,-45354.5,-0,54532,14797.9
step02_gravity_refstate-mantle.xmf,139,6.93305e-07,2.2661e-06,0,-2.23e-08,-1.49594e+09,-1.49573e+09,-1.49603e+09,-2980.4,0.00134251,0.0185883,0,0.0186367,-38060.1,-52280.5,-0,64667.1,2980.4
step02_gravity_refstate-mantle.xmf,140,7.26098e-07,2.29291e-06,0,1.88775e-10,-1.52706e+09,-1.52685e+09,-1.52716e+09,25.2297,-2.35653e-20,0.0163731,-0,0.0163731,-40000,-53242.2,-0,66593.8,25.2297
step02_gravity_refstate-mantle.xmf,141,-2.12942e-07,1.16581e-06,0,-2.57006e-06,-1.09867e+09,-1.09849e+09,-1.09864e+09,-343488,0.013773,0.120551,0,0.121335,3834.57,-40000,0,40183.4,343488
step02_gravity_refstate-mantle.xmf,142,1.84226e-07,1.07569e-06,0,-3.15379e-06,-1.11736e+09,-1.11724e+09,-1.11739e+09,-421504,0.0109993,0.123202,0,0.123692,3519.88,-40579.8,0,40732.2,421504
step02_gravity_refstate-mantle.xmf,143,1.17627e-06,1.2473e-06,0,-7.89783e-06,-1.17123e+09,-1.17122e+09,-1.17139e+09,-1.05555e+06,0.00260496,0.151511,0,0.151533,1432.49,-42250.8,0,42275.1,1.05555e+06
step02_gravity_refstate-mantle.xmf,144,6.34364e-07,8.91547e-07,0,-4.02986e-06,-1.13259e+09,-1.13255e+09,-1.13267e+09,-538591,0.00860143,0.129042,0,0.129328,2980.98,-41052.6,0,41160.7,538591
step02_gravity_refstate-mantle.xmf,145,1.06856e-06,6.47823e-07,0,-5.09268e-06,-1.14288e+09,-1.14294e+09,-1.14302e+09,-680636,0.00673905,0.136353,0,0.136519,2413.25,-41372.9,0,41443.2,680636
step02_gravity_refstate-mantle.xmf,146,1.18548e-06,8.67771e-07,0,-6.23693e-06,-1.15698e+09,-1.15702e+09,-1.15713e+09,-833565,0.0046291,0.142131,0,0.142207,2007.71,-41809.7,0,41857.9,833565
step02_gravity_refstate-mantle.xmf,147,-5.87654e-07,1.6043e-06,0,-2.27151e-06,-1.09871e+09,-1.09842e+09,-1.09864e+09,-303588,0.0134966,0.114308,0,0.115102,4488.57,-40000,0,40251.1,303588
step02_gravity_refstate-mantle.xmf,148,-2.70159e-07,1.50055e-06,0,-2.61642e-06,-1.11207e+09,-1.11183e+09,-1.11204e+09,-349685,0.011736,0.116759,0,0.117347,4161.57,-40414.5,0,40628.2,349685
step02_gravity_refstate-mantle.xmf,149,1.13544e-07,1.95401e-06,0,9.98214e-09,-1.09853e+09,-1.09829e+09,-1.09855e+09,1334.11,-0.000605031,0.0447518,-0,0.0447559,35372.8,-40000,0,53396.9,1334.11
step02_gravity_refstate-mantle.xmf,150,3.37834e-07,2.06149e-06,0,-4.19596e-10,-1.2412e+09,-1.24097e+09,-1.24125e+09,-56.079,6.49007e-20,0.0355611,0,0.0355611,40000,-44408.8,0,59767.4,56.079
step02_gravity_refstate-mantle.xmf,151,-1.08942e-06,2.58134e-06,0,9.39192e-07,-1.09874e+09,-1.09825e+09,-1.0986e+09,125523,-0.00879853,0.083092,-0,0.0835565,-9169.24,-40000,-0,41037.5,125523
step02_gravity_refstate-mantle.xmf,152,-1.04606e-06,2.60322e-06,0,7.93089e-07,-1.09873e+09,-1.09824e+09,-1.09859e+09,105996,-0.00781217,0.0789256,-0,0.0793113,-10093.6,-40000,-0,41253.9,105996
step02_gravity_refstate-mantle.xmf,153,-8.79926e-07,2.63266e-06,0,8.20695e-07,-1.12289e+09,-1.12242e+09,-1.12277e+09,109686,-0.00625494,0.0793995,-0,0.0796455,-9542.37,-40747.4,-0,41849.8,109686
step02_gravity_refstate-mantle.xmf,154,-7.80019e-07,2.61755e-06,0,1.08157e-06,-1.13539e+09,-1.13493e+09,-1.13528e+09,144551,-0.00615433,0.0850212,-0,0.0852436,-8217.29,-41134.1,-0,41946.9,144551
step02_gravity_refstate-mantle.xmf,155,5.65552e-07,2.28277e-06,0,8.02381e-06,-1.187e+09,-1.18677e+09,-1.18707e+09,1.07238e+06,-0.00146877,0.149806,-0,0.149813,-1478.74,-42736.5,-0,42762.1,1.07238e+06
step02_gravity_refstate-mantle.xmf,156,-2.12713e-07,2.28072e-06,0,2.7222e-06,-1.15476e+09,-1.15443e+09,-1.15473e+09,363822,-0.00588497,0.109119,-0,0.109277,-4690.78,-41735.6,-0,41998.3,363822
step02_gravity_refstate-mantle.xmf,157,-5.57942e-07,2.59489e-06,0,1.56741e-06,-1.15339e+09,-1.15297e+09,-1.15332e+09,209485,-0.00519881,0.092727,-0,0.0928727,-6724.87,-41691.8,-0,42230.7,209485
step02_gravity_refstate-mantle.xmf,158,1.42316e-07,2.96788e-06,0,6.91507e-06,-1.19697e+09,-1.19659e+09,-1.19699e+09,924199,-0.000869799,0.139978,-0,0.139981,-1995.91,-43043.4,-0,43089.7,924199
step02_gravity_refstate-mantle.xmf,159,-9.85092e-07,2.60371e-06,0,6.65318e-07,-1.09872e+09,-1.09824e+09,-1.09859e+09,88919.8,-0.00682559,0.0750396,-0,0.0753493,-11064.9,-40000,-0,41502.2,88919.8
step02_gravity_refstate-mantle.xmf,160,-8.01012e-07,2.64295e-06,0,6.50765e-07,-1.12728e+09,-1.12682e+09,-1.12717e+09,86974.8,-0.00499236,0.07457,-0,0.0747369,-10588,-40883.7,-0,42232.4,86974.8
step02_gravity_refstate-mantle.xmf,161,-9.21203e-07,2.59304e-06,0,5.52322e-07,-1.0987e+09,-1.09823e+09,-1.09858e+09,73817.8,-0.00585363,0.0714266,-0,0.0716661,-12085.5,-40000,-0,41785.9,73817.8
step02_gravity_refstate-mantle.xmf,162,-8.154e-07,2.62309e-06,0,5.48641e-07,-1.11908e+09,-1.11862e+09,-1.11897e+09,73325.9,-0.00483419,0.0715313,-0,0.0716945,-11575.2,-40630.3,-0,42246.9,73325.9
step02_gravity_refstate-mantle.xmf,163,-7.14106e-07,2.6145e-06,0,4.31203e-07,-1.12868e+09,-1.12824e+09,-1.12859e+09,57630.2,-0.00343492,0.0676878,-0,0.0677749,-12494.6,-40927.5,-0,42792.2,57630.2
step02_gravity_refstate-mantle.xmf,164,-4.92683e-07,2.59452e-06,0,2.6374e-07,-1.15431e+09,-1.1539e+09,-1.15425e+09,35248.8,-0.000805458,0.0612511,-0,0.0612564,-14022.8,-41720.6,-0,44014.2,35248.8
step02_gravity_refstate-mantle.xmf,165,-1.31829e-07,2.34782e-06,0,-3.07748e-08,-1.17063e+09,-1.1703e+09,-1.17062e+09,-4113.05,0.00213227,0.04769,0,0.0477376,-21081.3,-42226.6,-0,47196.4,4113.05
step02_gravity_refstate-mantle.xmf,166,4.65828e-07,2.18228e-06,0,-9.71485e-08,-1.3407e+09,-1.34047e+09,-1.34076e+09,-12983.9,0.00353884,0.0297005,0,0.0299106,-32633.8,-47483.5,-0,57616.3,12983.9
step02_gravity_refstate-mantle.xmf,167,4.22829e-07,2.19669e-06,0,-1.15429e-07,-1.32305e+09,-1.32282e+09,-1.32311e+09,-15427.1,0.00412091,0.0312711,0,0.0315415,-30815.5,-46938.1,-0,56149.6,15427.1
step02_gravity_refstate-mantle.xmf,168,5.35731e-07,2.1996e-06,0,-8.28739e-08,-1.38127e+09,-1.38105e+09,-1.38134e+09,-11076.1,0.00339078,0.0267863,0,0.0270001,-33752,-48737.1,-0,59283.3,11076.1
step02_gravity_refstate-mantle.xmf,169,6.56923e-07,2.24761e-06,0,-4.78568e-08,-1.46528e+09,-1.46507e+09,-1.46537e+09,-6396.06,0.00255766,0.0208053,0,0.0209619,-36103.8,-51333.2,-0,62758.1,6396.06
step02_gravity_refstate-mantle.xmf,170,7.62037e-07,2.33679e-06,0,-1.69689e-08,-1.56621e+09,-1.56599e+09,-1.56631e+09,-2267.89,0.00145315,0.0135909,0,0.0136683,-38089,-54451.7,-0,66451.1,2267.89
step02_gravity_refstate-mantle.xmf,171,7.86775e-07,2.3704e-06,0,-1.39029e-10,-1.59926e+09,-1.59905e+09,-1.59937e+09,-18.5812,3.9915e-19,0.0111704,0,0.0111704,-40000,-55473.1,-0,68390.6,18.5812
step02_gravity_refstate-mantle.xmf,172,8.24481e-07,2.46389e-06,0,1.10648e-10,-1.67212e+09,-1.6719e+09,-1.67223e+09,14.7881,-1.96657e-20,0.00572968,-0,0.00572968,-40000,-57724.1,-0,70228.7,14.7881
step02_gravity_refstate-mantle.xmf,173,8.09797e-07,2.41752e-06,0,-1.13209e-08,-1.63569e+09,-1.63548e+09,-1.6358e+09,-1513.04,0.00154847,0.00848619,0,0.00862631,-38083.4,-56598.6,-0,68218.3,1513.04
step02_gravity_refstate-mantle.xmf,174,1.06735e-06,1.58952e-06,0,-9.21063e-06,-1.17931e+09,-1.17924e+09,-1.17945e+09,-1.231e+06,0.00156792,0.159507,0,0.159514,1000,-42500.6,0,42512.4,1.231e+06
step02_gravity_refstate-mantle.xmf,175,1.23443e-06,1.01675e-06,0,-7.03233e-06,-1.16428e+09,-1.16431e+09,-1.16445e+09,-939870,0.00355627,0.146557,0,0.1466,1726.06,-42036.1,0,42071.5,939870
step02_gravity_refstate-mantle.xmf,176,-4.55621e-07,1.87225e-06,0,-2.37274e-06,-1.11902e+09,-1.11871e+09,-1.11896e+09,-317116,0.0105752,0.111157,0,0.111659,4715.43,-40628.9,0,40901.7,317116
step02_gravity_refstate-mantle.xmf,177,1.85016e-07,2.02382e-06,0,3.88528e-08,-1.1593e+09,-1.15905e+09,-1.15932e+09,5192.67,-0.00118609,0.0412075,-0,0.0412245,34274.4,-41877.7,0,54115.4,5192.67
step02_gravity_refstate-mantle.xmf,178,7.85471e-08,1.97936e-06,0,1.27804e-08,-1.09854e+09,-1.09828e+09,-1.09855e+09,1708.1,-0.000815511,0.0451952,-0,0.0452026,33225.7,-40000,0,51999.5,1708.1
step02_gravity_refstate-mantle.xmf,179,3.14771e-07,2.06199e-06,0,3.47308e-08,-1.23091e+09,-1.23068e+09,-1.23095e+09,4641.77,-0.00100514,0.0363461,-0,0.03636,36856.1,-44090.8,0,57466.2,4641.77
step02_gravity_refstate-mantle.xmf,180,3.80044e-07,2.08687e-06,0,2.31788e-08,-1.27064e+09,-1.27042e+09,-1.2707e+09,3097.85,-0.000699361,0.0337158,-0,0.0337231,38166.4,-45318.6,0,59249.1,3097.85
step02_gravity_refstate-mantle.xmf,181,-7.22418e-07,2.66025e-06,0,9.2214e-07,-1.14268e+09,-1.14223e+09,-1.14258e+09,123244,-0.00491509,0.0808821,-0,0.0810313,-8893.46,-41359.9,-0,42305.3,123244
step02_gravity_refstate-mantle.xmf,182,-5.98928e-07,2.68632e-06,0,1.10067e-06,-1.15693e+09,-1.15649e+09,-1.15685e+09,147104,-0.00397093,0.08358,-0,0.0836743,-8158.02,-41800.9,-0,42589.6,147104
step02_gravity_refstate-mantle.xmf,183,3.56338e-07,2.76396e-06,0,9.37117e-06,-1.19553e+09,-1.19521e+09,-1.19558e+09,1.25246e+06,-0.000710592,0.158417,-0,0.158418,-1000,-42999.8,-0,43011.5,1.25246e+06
step02_gravity_refstate-mantle.xmf,184,-3.49274e-07,2.48428e-06,0,2.30539e-06,-1.15958e+09,-1.1592e+09,-1.15953e+09,308115,-0.00509901,0.102967,-0,0.103093,-5329.84,-41884,-0,42221.8,308115
step02_gravity_refstate-mantle.xmf,185,-4.93037e-07,2.71622e-06,0,1.32823e-06,-1.16769e+09,-1.16726e+09,-1.16762e+09,177518,-0.00321555,0.0867996,-0,0.0868592,-7454.37,-42134,-0,42788.3,177518
step02_gravity_refstate-mantle.xmf,186,-5.04249e-08,2.38024e-06,0,3.30504e-06,-1.16807e+09,-1.16774e+09,-1.16806e+09,441718,-0.00428334,0.113535,-0,0.113616,-4157.31,-42147.9,-0,42352.4,441718
step02_gravity_refstate-mantle.xmf,187,1.91138e-08,2.54887e-06,0,3.9916e-06,-1.17988e+09,-1.17954e+09,-1.17988e+09,533477,-0.00285802,0.118509,-0,0.118544,-3632.58,-42513.5,-0,42668.4,533477
step02_gravity_refstate-mantle.xmf,188,2.8736e-08,2.82048e-06,0,4.80743e-06,-1.19105e+09,-1.19068e+09,-1.19106e+09,642513,-0.00156476,0.124165,-0,0.124175,-3103.93,-42859.6,-0,42971.8,642513
step02_gravity_refstate-mantle.xmf,189,-9.14405e-08,3.28029e-06,0,5.72513e-06,-1.20305e+09,-1.2026e+09,-1.20304e+09,765163,-0.000333646,0.130065,-0,0.130065,-2596.49,-43230.7,-0,43308.6,765163
step02_gravity_refstate-mantle.xmf,190,-4.12029e-07,2.55963e-06,0,1.80794e-07,-1.16073e+09,-1.16034e+09,-1.16068e+09,24163.1,9.96683e-05,0.0579802,0,0.0579803,-15164.8,-41919.4,-0,44578.1,24163.1
step02_gravity_refstate-mantle.xmf,191,-5.57704e-07,2.61944e-06,0,3.39466e-07,-1.14961e+09,-1.14919e+09,-1.14954e+09,45369.6,-0.00157987,0.0640626,-0,0.0640821,-13134.4,-41575.1,-0,43600.5,45369.6
step02_gravity_refstate-mantle.xmf,192,3.64467e-07,2.21694e-06,0,-1.28571e-07,-1.30162e+09,-1.30137e+09,-1.30166e+09,-17183.5,0.00452227,0.0332832,0,0.033589,-28909.5,-46275.5,-0,54563.6,17183.5
step02_gravity_refstate-mantle.xmf,193,2.90503e-07,2.2383e-06,0,-1.32713e-07,-1.27655e+09,-1.27629e+09,-1.27659e+09,-17737.1,0.00458673,0.0356846,0,0.0359781,-27182.4,-45500.7,-0,53001.9,17737.1
step02_gravity_refstate-mantle.xmf,194,1.88517e-07,2.26262e-06,0,-1.23923e-07,-1.24481e+09,-1.24454e+09,-1.24484e+09,-16562.4,0.0042606,0.0388263,0,0.0390594,-25385.7,-44519.9,-0,51248.9,16562.4
step02_gravity_refstate-mantle.xmf,195,-2.44272e-07,2.42541e-06,0,2.55518e-08,-1.16416e+09,-1.1638e+09,-1.16413e+09,3415,0.00145685,0.0510653,0,0.0510861,-18810.1,-42026,-0,46043.5,3415
step02_gravity_refstate-mantle.xmf,196,7.22649e-08,2.33382e-06,0,-9.92819e-08,-1.22462e+09,-1.22431e+09,-1.22463e+09,-13269,0.00403886,0.0422819,0,0.0424744,-22604.4,-43895.4,-0,49373.7,13269
step02_gravity_refstate-mantle.xmf,197,-1.20537e-07,2.39616e-06,0,-3.00629e-08,-1.18641e+09,-1.18608e+09,-1.1864e+09,-4017.9,0.00260216,0.0477519,0,0.0478228,-20041,-42714.1,-0,47182,4017.9
step02_gravity_refstate-mantle.xmf,198,-1.50054e-08,2.36639e-06,0,-7.09847e-08,-1.20706e+09,-1.20674e+09,-1.20706e+09,-9487.1,0.00347081,0.0448179,0,0.0449521,-21284.2,-43352.5,-0,48295.5,9487.1
step02_gravity_refstate-mantle.xmf,199,-3.21591e-07,2.51868e-06,0,1.03878e-07,-1.16925e+09,-1.16887e+09,-1.16921e+09,13883.2,0.00103415,0.0546679,0,0.0546777,-16433.6,-42183,-0,45271.1,13883.2
step02_gravity_refstate-mantle.xmf,200,6.22835e-07,2.24288e-06,0,-7.37672e-08,-1.44068e+09,-1.44047e+09,-1.44077e+09,-9858.98,0.00366711,0.022665,0,0.0229597,-34132.5,-50573.2,-0,61013.7,9858.98
step02_gravity_refstate-mantle.xmf,201,7.353e-07,2.3143e-06,0,-3.85293e-08,-1.53598e+09,-1.53577e+09,-1.53608e+09,-5149.44,0.00282765,0.0158203,0,0.016071,-36145.6,-53517.7,-0,64580.6,5149.44
step02_gravity_refstate-mantle.xmf,202,8.30953e-07,2.49524e-06,0,-5.44643e-09,-1.69327e+09,-1.69305e+09,-1.69338e+09,-727.915,0.00138889,0.00411276,0,0.00434095,-38327.5,-58377.6,-0,69835.1,727.915
step02_gravity_refstate-mantle.xmf,203,8.36924e-07,2.5714e-06,0,1.73056e-09,-1.74579e+09,-1.74555e+09,-1.7459e+09,231.289,1.23741e-19,-5.24382e-20,0,1.34393e-19,-40000,-60000,-0,72111,231.289
step02_gravity_refstate-mantle.xmf,204,-9.29738e-08,1.63019e-06,0,-2.91685e-06,-1.1289e+09,-1.12867e+09,-1.12889e+09,-389836,0.00939582,0.116828,0,0.117205,4073.32,-40935.8,0,41138,389836
step02_gravity_refstate-mantle.xmf,205,3.56772e-07,2.76434e-06,0,-9.36947e-06,-1.19553e+09,-1.19521e+09,-1.19558e+09,-1.25223e+06,0.000710842,0.158417,0,0.158418,1000,-42999.8,0,43011.5,1.25223e+06
step02_gravity_refstate-mantle.xmf,206,5.8884e-07,2.27235e-06,0,-8.00755e-06,-1.18699e+09,-1.18677e+09,-1.18707e+09,-1.07021e+06,0.00146873,0.149808,0,0.149815,1478.63,-42736.5,0,42762.1,1.07021e+06
step02_gravity_refstate-mantle.xmf,207,7.41556e-07,1.76026e-06,0,-6.71129e-06,-1.17471e+09,-1.17457e+09,-1.17481e+09,-896965,0.00282183,0.142196,0,0.142224,1959.66,-42356.8,0,42402.1,896965
step02_gravity_refstate-mantle.xmf,208,2.21933e-07,1.49922e-06,0,-3.56956e-06,-1.13985e+09,-1.13968e+09,-1.13988e+09,-477071,0.00786379,0.1221,0,0.122352,3538.26,-41275.7,0,41427.1,477071
step02_gravity_refstate-mantle.xmf,209,4.93304e-07,1.46923e-06,0,-4.41765e-06,-1.15206e+09,-1.15193e+09,-1.15213e+09,-590419,0.0060705,0.127884,0,0.128028,3016.21,-41654.8,0,41763.9,590419
step02_gravity_refstate-mantle.xmf,210,6.71468e-07,1.541e-06,0,-5.4181e-06,-1.16337e+09,-1.16325e+09,-1.16346e+09,-724129,0.00441089,0.134233,0,0.134305,2512.87,-42005.4,0,42080.5,724129
step02_gravity_refstate-mantle.xmf,211,-8.09997e-07,1.9239e-06,0,-1.98834e-06,-1.09874e+09,-1.09837e+09,-1.09863e+09,-265742,0.013008,0.108353,0,0.109131,5175.58,-40000,0,40333.4,265742
step02_gravity_refstate-mantle.xmf,212,-9.71676e-07,2.16553e-06,0,-1.73045e-06,-1.09875e+09,-1.09833e+09,-1.09862e+09,-231275,0.0123523,0.102698,0,0.103438,5897.33,-40000,0,40432.4,231275
step02_gravity_refstate-mantle.xmf,213,-6.7118e-07,2.1425e-06,0,-1.97653e-06,-1.11844e+09,-1.11807e+09,-1.11835e+09,-264164,0.0102117,0.104541,0,0.105038,5490.59,-40610.3,0,40979.8,264164
step02_gravity_refstate-mantle.xmf,214,-1.1069e-06,2.45698e-06,0,-1.29161e-06,-1.09876e+09,-1.09828e+09,-1.09861e+09,-172624,0.0107007,0.0922956,0,0.0929139,7452.39,-40000,0,40688.3,172624
step02_gravity_refstate-mantle.xmf,215,-1.06902e-06,2.33142e-06,0,-1.48965e-06,-1.09876e+09,-1.0983e+09,-1.09862e+09,-199091,0.0115719,0.0973447,0,0.0980301,6655.64,-40000,0,40549.9,199091
step02_gravity_refstate-mantle.xmf,216,-9.18689e-07,2.48187e-06,0,-1.34224e-06,-1.11694e+09,-1.11649e+09,-1.11682e+09,-179390,0.00896033,0.0922782,0,0.0927122,7228.55,-40563,0,41202.1,179390
step02_gravity_refstate-mantle.xmf,217,3.74348e-08,2.01161e-06,0,1.2056e-08,-1.09855e+09,-1.09828e+09,-1.09855e+09,1611.28,-0.000941482,0.0458027,-0,0.0458124,31182.5,-40000,0,50718.3,1611.28
step02_gravity_refstate-mantle.xmf,218,1.45906e-07,2.04814e-06,0,4.84803e-08,-1.1551e+09,-1.15485e+09,-1.15512e+09,6479.39,-0.00149174,0.0419429,-0,0.0419694,32196.8,-41747.8,0,52721.1,6479.39
step02_gravity_refstate-mantle.xmf,219,-1.23247e-08,2.05007e-06,0,7.73301e-09,-1.09855e+09,-1.09828e+09,-1.09855e+09,1033.52,-0.000972575,0.0465756,-0,0.0465857,29238.1,-40000,0,49546.6,1033.52
step02_gravity_refstate-mantle.xmf,220,1.0155e-07,2.08035e-06,0,5.35847e-08,-1.15186e+09,-1.15159e+09,-1.15187e+09,7161.59,-0.00170425,0.0427872,-0,0.0428212,30183.5,-41647.4,0,51434.9,7161.59
step02_gravity_refstate-mantle.xmf,221,2.89474e-07,2.06665e-06,0,5.08476e-08,-1.22141e+09,-1.22117e+09,-1.22145e+09,6795.78,-0.00146135,0.0371389,-0,0.0371676,35156.1,-43797,0,56161.7,6795.78
step02_gravity_refstate-mantle.xmf,222,4.45922e-07,2.11517e-06,0,-4.64792e-10,-1.31254e+09,-1.31232e+09,-1.3126e+09,-62.1195,1.10013e-19,0.0309571,0,0.0309571,40000,-46613.3,0,61423.1,62.1195
step02_gravity_refstate-mantle.xmf,223,-6.47146e-07,2.68768e-06,0,7.49622e-07,-1.15209e+09,-1.15165e+09,-1.15201e+09,100187,-0.00344147,0.0760522,-0,0.07613,-9751.35,-41651.2,-0,42777.5,100187
step02_gravity_refstate-mantle.xmf,224,-3.70158e-09,3.32166e-06,0,8.26086e-06,-1.20365e+09,-1.2032e+09,-1.20365e+09,1.10406e+06,-0.0003217,0.149211,-0,0.149211,-1433.17,-43249.7,-0,43273.5,1.10406e+06
step02_gravity_refstate-mantle.xmf,225,-1.86156e-07,2.62676e-06,0,2.79895e-06,-1.17536e+09,-1.17499e+09,-1.17534e+09,374080,-0.00330477,0.106696,-0,0.106747,-4780.79,-42372.9,-0,42641.8,374080
step02_gravity_refstate-mantle.xmf,226,-4.03204e-07,2.64706e-06,0,1.91787e-06,-1.16723e+09,-1.16682e+09,-1.16718e+09,256324,-0.00390242,0.0964512,-0,0.0965301,-6056.86,-42120.3,-0,42553.6,256324
step02_gravity_refstate-mantle.xmf,227,-3.84423e-07,2.76746e-06,0,1.61917e-06,-1.17804e+09,-1.17762e+09,-1.17799e+09,216403,-0.00238003,0.0904747,-0,0.090506,-6755.01,-42454.7,-0,42988.7,216403
step02_gravity_refstate-mantle.xmf,228,-3.1724e-07,3.88608e-06,0,6.62635e-06,-1.21473e+09,-1.21417e+09,-1.21469e+09,885612,0.000635721,0.135506,0,0.135507,-2155.52,-43591.5,-0,43644.8,885612
step02_gravity_refstate-mantle.xmf,229,-6.31674e-07,2.65683e-06,0,5.00726e-07,-1.1468e+09,-1.14636e+09,-1.14671e+09,66922.1,-0.00274239,0.0694262,-0,0.0694804,-11530.2,-41487.7,-0,43060.2,66922.1
step02_gravity_refstate-mantle.xmf,230,-5.14972e-07,2.6535e-06,0,3.8975e-07,-1.16174e+09,-1.16132e+09,-1.16167e+09,52090,-0.0011177,0.0653181,-0,0.0653277,-12391.9,-41950.1,-0,43742,52090
step02_gravity_refstate-mantle.xmf,231,-4.09207e-07,2.63936e-06,0,2.95023e-07,-1.17476e+09,-1.17435e+09,-1.1747e+09,39429.8,0.000216297,0.0615766,0,0.061577,-13289.3,-42352.8,-0,44388.8,39429.8
step02_gravity_refstate-mantle.xmf,232,-3.24357e-07,2.61284e-06,0,2.08582e-07,-1.18477e+09,-1.18438e+09,-1.18473e+09,27877,0.00124467,0.0580954,0,0.0581087,-14300.7,-42662.7,-0,44995.8,27877
step02_gravity_refstate-mantle.xmf,233,1.53285e-07,2.31023e-06,0,-1.18406e-07,-1.24436e+09,-1.24407e+09,-1.24438e+09,-15824.9,0.00452254,0.0399154,0,0.0401708,-23791.6,-44505.8,-0,50465.9,15824.9
step02_gravity_refstate-mantle.xmf,234,-2.02131e-07,2.48488e-06,0,3.62688e-08,-1.18546e+09,-1.1851e+09,-1.18543e+09,4847.32,0.00217174,0.0512568,0,0.0513028,-17643.6,-42684.4,-0,46187.2,4847.32
step02_gravity_refstate-mantle.xmf,235,5.7689e-07,2.23944e-06,0,-9.70903e-08,-1.41132e+09,-1.4111e+09,-1.4114e+09,-12976.1,0.00445991,0.0249192,0,0.0253152,-32364.7,-49665.9,-0,59280.4,12976.1
step02_gravity_refstate-mantle.xmf,236,5.25587e-07,2.24395e-06,0,-1.17284e-07,-1.38327e+09,-1.38304e+09,-1.38334e+09,-15675,0.00507079,0.0271818,0,0.0276508,-30632.3,-48798.9,-0,57616.6,15675
step02_gravity_refstate-mantle.xmf,237,4.7263e-07,2.25626e-06,0,-1.32167e-07,-1.3587e+09,-1.35846e+09,-1.35876e+09,-17664.1,0.0055039,0.0293089,0,0.0298212,-28999.4,-48039.7,-0,56114,17664.1
step02_gravity_refstate-mantle.xmf,238,7.04115e-07,2.29993e-06,0,-6.21213e-08,-1.50592e+09,-1.50571e+09,-1.50601e+09,-8302.51,0.00403158,0.0180745,0,0.0185186,-34265.9,-52589,-0,62767.5,8302.51
step02_gravity_refstate-mantle.xmf,239,7.92042e-07,2.38903e-06,0,-2.70608e-08,-1.60412e+09,-1.6039e+09,-1.60422e+09,-3616.68,0.00301436,0.010868,0,0.0112783,-36181.9,-55623.1,-0,66355.5,3616.68
step02_gravity_refstate-mantle.xmf,240,8.29339e-07,2.48641e-06,0,-1.36025e-08,-1.68079e+09,-1.68056e+09,-1.6809e+09,-1817.97,0.00305486,0.00509099,0,0.0059372,-36308.7,-57991.9,-0,68420.6,1817.97
step02_gravity_refstate-mantle.xmf,241,8.38376e-07,2.57625e-06,0,1.78544e-09,-1.74579e+09,-1.74555e+09,-1.7459e+09,238.624,0.00204468,-6.39486e-20,0,0.00204468,-37557.9,-60000,-0,70785.6,238.624
step02_gravity_refstate-mantle.xmf,242,-3.6116e-09,3.32176e-06,0,-8.2623e-06,-1.20365e+09,-1.2032e+09,-1.20365e+09,-1.10426e+06,0.000321638,0.149222,0,0.149222,1432.58,-43249.7,0,43273.4,1.10426e+06
step02_gravity_refstate-mantle.xmf,243,-2.43439e-07,1.98324e-06,0,-2.68249e-06,-1.13765e+09,-1.13735e+09,-1.13761e+09,-358515,0.00814174,0.1118,0,0.112096,4529.16,-41205.8,0,41454,358515
step02_gravity_refstate-mantle.xmf,244,-8.12021e-07,2.29422e-06,0,-1.70282e-06,-1.1167e+09,-1.11629e+09,-1.11659e+09,-227582,0.00994939,0.0997339,0,0.100229,6130.76,-40555.9,0,41016.6,227582
step02_gravity_refstate-mantle.xmf,245,-1.11305e-06,2.53903e-06,0,-1.10186e-06,-1.09875e+09,-1.09826e+09,-1.0986e+09,-147264,0.00976831,0.0875465,0,0.0880898,8289.57,-40000,0,40849.9,147264
step02_gravity_refstate-mantle.xmf,246,-9.25777e-07,2.5482e-06,0,-1.1696e-06,-1.11833e+09,-1.11786e+09,-1.1182e+09,-156317,0.00820264,0.0882347,0,0.0886151,7886.9,-40606,0,41364.9,156317
step02_gravity_refstate-mantle.xmf,247,-7.75855e-07,2.44789e-06,0,-1.52666e-06,-1.12786e+09,-1.12742e+09,-1.12775e+09,-204037,0.00819319,0.0950827,0,0.0954351,6672,-40901.1,0,41441.7,204037
step02_gravity_refstate-mantle.xmf,248,-6.70913e-08,2.09269e-06,0,-9.89545e-10,-1.09856e+09,-1.09827e+09,-1.09855e+09,-132.253,-0.00090269,0.0475186,-0,0.0475271,27387.8,-40000,0,48477.7,132.253
step02_gravity_refstate-mantle.xmf,249,4.40822e-08,2.11384e-06,0,5.06663e-08,-1.14489e+09,-1.14461e+09,-1.1449e+09,6771.56,-0.0017323,0.0440177,-0,0.0440518,28323.5,-41431.9,0,50187.9,6771.56
step02_gravity_refstate-mantle.xmf,250,3.89834e-07,2.10392e-06,0,4.8941e-08,-1.28089e+09,-1.28066e+09,-1.28094e+09,6540.96,-0.00151582,0.0331904,-0,0.033225,36159.8,-45635.1,0,58224.5,6540.96
step02_gravity_refstate-mantle.xmf,251,2.61129e-07,2.08352e-06,0,6.81185e-08,-1.21561e+09,-1.21537e+09,-1.21565e+09,9104.03,-0.00195717,0.0378485,-0,0.037899,33167.1,-43618,0,54795.8,9104.03
step02_gravity_refstate-mantle.xmf,252,4.92035e-07,2.14322e-06,0,3.26929e-08,-1.34446e+09,-1.34424e+09,-1.34453e+09,4369.4,-0.001174,0.0289162,-0,0.02894,37615,-47599.7,0,60668.1,4369.4
step02_gravity_refstate-mantle.xmf,253,-5.33837e-07,2.69983e-06,0,5.97906e-07,-1.16456e+09,-1.16413e+09,-1.16449e+09,79910.1,-0.00181245,0.0712321,-0,0.0712552,-10652.4,-42037.3,-0,43366,79910.1
step02_gravity_refstate-mantle.xmf,254,-5.0584e-07,2.73509e-06,0,9.04916e-07,-1.17012e+09,-1.16969e+09,-1.17006e+09,120942,-0.00219574,0.0781977,-0,0.0782285,-8972.36,-42209.3,-0,43152.4,120942
step02_gravity_refstate-mantle.xmf,255,-4.06887e-07,2.78814e-06,0,1.12326e-06,-1.18227e+09,-1.18185e+09,-1.18222e+09,150123,-0.00135425,0.0813379,-0,0.0813492,-8175.05,-42585.4,-0,43363,150123
step02_gravity_refstate-mantle.xmf,256,-2.95067e-07,3.88617e-06,0,9.4282e-06,-1.21175e+09,-1.2112e+09,-1.21172e+09,1.26008e+06,7.56606e-05,0.156754,0,0.156754,-1000,-43499.6,-0,43511.1,1.26008e+06
step02_gravity_refstate-mantle.xmf,257,-2.69897e-07,3.81917e-06,0,7.50522e-06,-1.21227e+09,-1.21173e+09,-1.21224e+09,1.00307e+06,0.000321458,0.142438,0,0.142439,-1756.57,-43515.6,-0,43551.1,1.00307e+06
step02_gravity_refstate-mantle.xmf,258,-2.64928e-07,2.78993e-06,0,2.35139e-06,-1.18319e+09,-1.18278e+09,-1.18316e+09,314263,-0.00221558,0.100152,-0,0.100176,-5433.59,-42614.7,-0,42959.7,314263
step02_gravity_refstate-mantle.xmf,259,-3.25201e-07,2.85405e-06,0,1.364e-06,-1.19198e+09,-1.19156e+09,-1.19194e+09,182299,-0.000603577,0.0845661,-0,0.0845683,-7476.98,-42885.9,-0,43532.9,182299
step02_gravity_refstate-mantle.xmf,260,-1.06506e-07,2.83532e-06,0,3.38886e-06,-1.18866e+09,-1.18826e+09,-1.18864e+09,452921,-0.00179529,0.111159,-0,0.111173,-4224.89,-42784.7,-0,42992.8,452921
step02_gravity_refstate-mantle.xmf,261,-1.30791e-07,3.13237e-06,0,4.06745e-06,-1.20049e+09,-1.20005e+09,-1.20047e+09,543615,-0.000501747,0.11616,-0,0.116161,-3678.49,-43150.8,-0,43307.3,543615
step02_gravity_refstate-mantle.xmf,262,-2.27876e-07,3.5377e-06,0,4.83562e-06,-1.21136e+09,-1.21086e+09,-1.21133e+09,646280,0.000577539,0.121597,0,0.121598,-3147.88,-43487.1,-0,43600.9,646280
step02_gravity_refstate-mantle.xmf,263,-4.36606e-07,4.09117e-06,0,5.65751e-06,-1.22231e+09,-1.22171e+09,-1.22226e+09,756127,0.00148989,0.127112,0,0.127121,-2649.27,-43825.4,-0,43905.4,756127
step02_gravity_refstate-mantle.xmf,264,-2.39258e-07,2.57939e-06,0,1.28667e-07,-1.19547e+09,-1.19509e+09,-1.19543e+09,17196.3,0.00220711,0.0546483,0,0.0546928,-15425.4,-42993.4,-0,45676.9,17196.3
step02_gravity_refstate-mantle.xmf,265,4.09539e-07,2.27495e-06,0,-1.41445e-07,-1.33329e+09,-1.33304e+09,-1.33334e+09,-18904.1,0.00575804,0.0316657,0,0.032185,-27327.7,-47254.3,-0,54587.3,18904.1
step02_gravity_refstate-mantle.xmf,266,3.36528e-07,2.2984e-06,0,-1.42755e-07,-1.30758e+09,-1.30732e+09,-1.30763e+09,-19079.3,0.00578023,0.0342265,0,0.0347112,-25699,-46459.9,-0,53093.9,19079.3
step02_gravity_refstate-mantle.xmf,267,2.69021e-07,2.33021e-06,0,-1.36322e-07,-1.28827e+09,-1.28799e+09,-1.2883e+09,-18219.5,0.0057382,0.036526,0,0.036974,-24137.7,-45862.8,-0,51826.9,18219.5
step02_gravity_refstate-mantle.xmf,268,2.01886e-07,2.36289e-06,0,-1.22645e-07,-1.27143e+09,-1.27114e+09,-1.27145e+09,-16391.5,0.0055536,0.0387662,0,0.0391619,-22745.1,-45342.2,-0,50727.3,16391.5
step02_gravity_refstate-mantle.xmf,269,-8.74997e-08,2.4543e-06,0,-2.20913e-08,-1.20731e+09,-1.20697e+09,-1.2073e+09,-2952.51,0.00336353,0.0477135,0,0.0478319,-18877.9,-43360.2,-0,47291.4,2952.51
step02_gravity_refstate-mantle.xmf,270,1.22816e-07,2.39375e-06,0,-1.01025e-07,-1.25243e+09,-1.25213e+09,-1.25245e+09,-13501.9,0.00511603,0.0413202,0,0.0416357,-21442.5,-44755.1,-0,49626.6,13501.9
step02_gravity_refstate-mantle.xmf,271,2.15367e-08,2.42389e-06,0,-6.68841e-08,-1.22934e+09,-1.22902e+09,-1.22934e+09,-8939.06,0.00433191,0.0444472,0,0.0446577,-20129.3,-44041.2,-0,48423.3,8939.06
step02_gravity_refstate-mantle.xmf,272,-1.45907e-07,2.54556e-06,0,5.9686e-08,-1.20942e+09,-1.20906e+09,-1.2094e+09,7977.03,0.00320192,0.0512395,0,0.0513395,-16583.9,-43425.1,-0,46484.1,7977.03
step02_gravity_refstate-mantle.xmf,273,6.67118e-07,2.29324e-06,0,-8.5829e-08,-1.47591e+09,-1.47569e+09,-1.476e+09,-11471,0.00504598,0.020384,0,0.0209993,-32452.4,-51661.6,-0,61008.8,11471
step02_gravity_refstate-mantle.xmf,274,7.68724e-07,2.36727e-06,0,-4.77962e-08,-1.57137e+09,-1.57116e+09,-1.57147e+09,-6387.96,0.00437493,0.0133535,0,0.0140519,-34286.5,-54611.4,-0,64482.3,6387.96
step02_gravity_refstate-mantle.xmf,275,-2.96278e-07,3.89104e-06,0,-9.42666e-06,-1.21175e+09,-1.2112e+09,-1.21172e+09,-1.25987e+06,-7.54054e-05,0.156754,-0,0.156754,1000,-43499.6,0,43511.1,1.25987e+06
step02_gravity_refstate-mantle.xmf,276,-4.67471e-08,1.96285e-06,0,-3.15582e-06,-1.14814e+09,-1.14787e+09,-1.14814e+09,-421775,0.00681859,0.115552,0,0.115753,4093.16,-41531.4,0,41732.6,421775
step02_gravity_refstate-mantle.xmf,277,1.21768e-07,2.98597e-06,0,-6.8869e-06,-1.19697e+09,-1.19659e+09,-1.19698e+09,-920435,0.000869956,0.139981,0,0.139983,1995.79,-43043.3,0,43089.6,920435
step02_gravity_refstate-mantle.xmf,278,1.47898e-07,1.99814e-06,0,-3.83645e-06,-1.15991e+09,-1.15966e+09,-1.15993e+09,-512741,0.00527414,0.120548,0,0.120663,3578.53,-41896.2,0,42048.8,512741
step02_gravity_refstate-mantle.xmf,279,2.734e-07,2.1325e-06,0,-4.66217e-06,-1.17158e+09,-1.17133e+09,-1.17161e+09,-623099,0.00374105,0.126135,0,0.12619,3067.26,-42257.9,0,42369,623099
step02_gravity_refstate-mantle.xmf,280,2.88755e-07,2.4199e-06,0,-5.6546e-06,-1.18358e+09,-1.1833e+09,-1.18362e+09,-755738,0.00226217,0.132451,0,0.132471,2550.3,-42629.5,0,42705.7,755738
step02_gravity_refstate-mantle.xmf,281,-4.22065e-07,2.18594e-06,0,-2.31523e-06,-1.13768e+09,-1.13733e+09,-1.13762e+09,-309430,0.00795722,0.106715,0,0.107011,5080.88,-41206.1,0,41518.2,309430
step02_gravity_refstate-mantle.xmf,282,-5.78181e-07,2.39752e-06,0,-1.86888e-06,-1.1397e+09,-1.1393e+09,-1.13962e+09,-249776,0.00727417,0.0995118,0,0.0997773,5938.26,-41268,0,41693.1,249776
step02_gravity_refstate-mantle.xmf,283,-9.20756e-07,2.60161e-06,0,-9.89281e-07,-1.11958e+09,-1.11911e+09,-1.11945e+09,-132217,0.00735232,0.0839028,0,0.0842243,8668.49,-40644.8,0,41558.9,132217
step02_gravity_refstate-mantle.xmf,284,-7.17942e-07,2.58475e-06,0,-1.28479e-06,-1.13956e+09,-1.13912e+09,-1.13946e+09,-171712,0.0062686,0.0889551,0,0.0891757,7479.13,-41263.4,0,41935.7,171712
step02_gravity_refstate-mantle.xmf,285,2.2143e-07,2.10948e-06,0,8.20433e-08,-1.20929e+09,-1.20904e+09,-1.20932e+09,10965.1,-0.00237449,0.0387612,-0,0.0388339,31122.8,-43422.4,0,53424.1,10965.1
step02_gravity_refstate-mantle.xmf,286,-9.99462e-09,2.15424e-06,0,4.48472e-08,-1.14209e+09,-1.1418e+09,-1.14209e+09,5993.83,-0.00171085,0.0451441,-0,0.0451765,26558.5,-41345.1,0,49140.3,5993.83
step02_gravity_refstate-mantle.xmf,287,1.71785e-07,2.14624e-06,0,9.21375e-08,-1.20321e+09,-1.20295e+09,-1.20323e+09,12314.2,-0.00270653,0.0398997,-0,0.0399914,28961.7,-43234.4,0,52038.4,12314.2
step02_gravity_refstate-mantle.xmf,288,-1.3333e-07,2.14111e-06,0,-1.43552e-08,-1.09857e+09,-1.09827e+09,-1.09855e+09,-1918.58,-0.000728967,0.0486386,-0,0.0486441,25627,-40000,0,47505.2,1918.58
step02_gravity_refstate-mantle.xmf,289,-2.03358e-07,2.19182e-06,0,-3.30471e-08,-1.09858e+09,-1.09826e+09,-1.09856e+09,-4416.74,-0.000451375,0.0499439,-0,0.0499459,23951.4,-40000,0,46622.6,4416.74
step02_gravity_refstate-mantle.xmf,290,-2.77036e-07,2.24381e-06,0,-5.81885e-08,-1.09859e+09,-1.09826e+09,-1.09856e+09,-7776.89,-7.282e-05,0.0514428,-0,0.0514428,22356.9,-40000,0,45823.9,7776.89
step02_gravity_refstate-mantle.xmf,291,-1.45568e-07,2.25131e-06,0,1.53441e-08,-1.13682e+09,-1.1365e+09,-1.1368e+09,2050.74,-0.00132811,0.0480132,-0,0.0480316,23160.5,-41181.6,0,47247.6,2050.74
step02_gravity_refstate-mantle.xmf,292,-6.35851e-08,2.2055e-06,0,3.87158e-08,-1.14431e+09,-1.14401e+09,-1.1443e+09,5174.36,-0.00169887,0.0461489,-0,0.0461802,24815.8,-41413.6,0,48279.5,5174.36
step02_gravity_refstate-mantle.xmf,293,3.71724e-07,2.11829e-06,0,7.30835e-08,-1.27715e+09,-1.27692e+09,-1.2772e+09,9767.62,-0.00226459,0.0336825,-0,0.0337585,34117.8,-45519.7,0,56886.5,9767.62
step02_gravity_refstate-mantle.xmf,294,5.50606e-07,2.16884e-06,0,-1.87138e-10,-1.38388e+09,-1.38366e+09,-1.38395e+09,-25.011,1.12123e-19,0.026235,0,0.026235,40000,-48817.8,0,63112.4,25.011
step02_gravity_refstate-mantle.xmf,295,-4.15103e-07,2.75977e-06,0,7.37063e-07,-1.18392e+09,-1.18349e+09,-1.18386e+09,98508.4,-0.000518705,0.0731093,-0,0.0731111,-9810.23,-42636,-0,43750.1,98508.4
step02_gravity_refstate-mantle.xmf,296,-5.56906e-07,4.341e-06,0,8.37433e-06,-1.2197e+09,-1.21904e+09,-1.21962e+09,1.11923e+06,0.000669893,0.147981,0,0.147983,-1397.47,-43744.4,-0,43766.7,1.11923e+06
step02_gravity_refstate-mantle.xmf,297,-6.73041e-07,4.60996e-06,0,7.42257e-06,-1.22623e+09,-1.22552e+09,-1.22614e+09,992027,0.00134108,0.14017,0,0.140177,-1782.87,-43946,-0,43982.2,992027
step02_gravity_refstate-mantle.xmf,298,-1.75522e-07,3.01417e-06,0,2.86545e-06,-1.19778e+09,-1.19736e+09,-1.19776e+09,382967,-0.000636893,0.104219,-0,0.104221,-4835.69,-43066.6,-0,43337.2,382967
step02_gravity_refstate-mantle.xmf,299,-2.72091e-07,2.89783e-06,0,1.96796e-06,-1.19258e+09,-1.19215e+09,-1.19254e+09,263017,-0.000945515,0.0937873,-0,0.093792,-6120.9,-42904.9,-0,43339.3,263017
step02_gravity_refstate-mantle.xmf,300,-2.38838e-07,2.96166e-06,0,1.659e-06,-1.20309e+09,-1.20266e+09,-1.20305e+09,221725,0.000391437,0.0878863,0,0.0878872,-6808.83,-43229.9,-0,43762.8,221725
step02_gravity_refstate-mantle.xmf,301,-7.24447e-07,4.76251e-06,0,6.49091e-06,-1.23272e+09,-1.23199e+09,-1.23262e+09,867510,0.00213238,0.132461,0,0.132478,-2196.45,-44146.6,-0,44201.2,867510
step02_gravity_refstate-mantle.xmf,302,-4.18001e-07,2.7021e-06,0,4.70912e-07,-1.17968e+09,-1.17926e+09,-1.17962e+09,62937.4,-0.00014931,0.0666618,-0,0.066662,-11541.3,-42504.9,-0,44044,62937.4
step02_gravity_refstate-mantle.xmf,303,-3.24433e-07,2.69157e-06,0,3.6353e-07,-1.19344e+09,-1.19304e+09,-1.1934e+09,48585.8,0.00123467,0.0625209,0,0.0625331,-12448.3,-42930.7,-0,44699,48585.8
step02_gravity_refstate-mantle.xmf,304,-2.35021e-07,2.671e-06,0,2.66753e-07,-1.20642e+09,-1.20603e+09,-1.20638e+09,35651.5,0.00241887,0.0586035,0,0.0586534,-13424,-43332,-0,45363.7,35651.5
step02_gravity_refstate-mantle.xmf,305,-1.56923e-07,2.6419e-06,0,1.80616e-07,-1.21822e+09,-1.21785e+09,-1.2182e+09,24139.4,0.00338717,0.0549741,0,0.0550783,-14467.2,-43697.1,-0,46029.7,24139.4
step02_gravity_refstate-mantle.xmf,306,-3.62231e-08,2.51599e-06,0,1.96817e-09,-1.22844e+09,-1.2281e+09,-1.22843e+09,263.046,0.00427153,0.0477909,0,0.0479815,-17732.4,-44013.2,-0,47451,263.046
step02_gravity_refstate-mantle.xmf,307,6.23306e-07,2.29454e-06,0,-1.07909e-07,-1.44605e+09,-1.44583e+09,-1.44614e+09,-14422.1,0.00587728,0.0227712,0,0.0235174,-30670.1,-50739.1,-0,59288.4,14422.1
step02_gravity_refstate-mantle.xmf,308,5.74503e-07,2.30302e-06,0,-1.2565e-07,-1.41804e+09,-1.41781e+09,-1.41812e+09,-16793.1,0.00647818,0.0251245,0,0.0259462,-29013.5,-49873.5,-0,57698.8,16793.1
step02_gravity_refstate-mantle.xmf,309,5.18696e-07,2.31823e-06,0,-1.38272e-07,-1.39069e+09,-1.39045e+09,-1.39076e+09,-18480,0.00688733,0.0275674,0,0.0284147,-27392.3,-49028.3,-0,56161.5,18480
step02_gravity_refstate-mantle.xmf,310,7.41879e-07,2.3565e-06,0,-6.92585e-08,-1.54122e+09,-1.54101e+09,-1.54132e+09,-9256.39,0.00554837,0.0156872,0,0.0166394,-32496.2,-53679.8,-0,62749.7,9256.39
step02_gravity_refstate-mantle.xmf,311,8.14258e-07,2.44309e-06,0,-3.16474e-08,-1.63467e+09,-1.63445e+09,-1.63478e+09,-4229.67,0.00470977,0.0086538,0,0.00985242,-34178.2,-56567.1,-0,66090.8,4229.67
step02_gravity_refstate-mantle.xmf,312,8.41115e-07,2.59151e-06,0,7.35702e-10,-1.74578e+09,-1.74555e+09,-1.7459e+09,98.3266,0.00400238,-4.90197e-20,0,0.00400238,-35227.2,-60000,-0,69577,98.3266
step02_gravity_refstate-mantle.xmf,313,-5.57146e-07,4.3413e-06,0,-8.37497e-06,-1.2197e+09,-1.21905e+09,-1.21963e+09,-1.11932e+06,-0.000669983,0.147983,-0,0.147985,1397.34,-43744.4,0,43766.8,1.11932e+06
step02_gravity_refstate-mantle.xmf,314,-2.80379e-07,3.8203e-06,0,-7.49733e-06,-1.21228e+09,-1.21173e+09,-1.21224e+09,-1.00202e+06,-0.000321592,0.14244,-0,0.142441,1756.45,-43515.7,0,43551.1,1.00202e+06
step02_gravity_refstate-mantle.xmf,315,-2.27357e-07,2.27529e-06,0,-2.72569e-06,-1.15449e+09,-1.15415e+09,-1.15446e+09,-364289,0.00592203,0.109213,0,0.109373,4683.01,-41727,0,41988.9,364289
step02_gravity_refstate-mantle.xmf,316,-1.08971e-06,2.58208e-06,0,-9.38811e-07,-1.09874e+09,-1.09825e+09,-1.0986e+09,-125472,0.00879871,0.0830922,0,0.0835567,9169.24,-40000,0,41037.5,125472
step02_gravity_refstate-mantle.xmf,317,-7.79254e-07,2.61777e-06,0,-1.08165e-06,-1.13547e+09,-1.13502e+09,-1.13537e+09,-144563,0.00614593,0.0850157,0,0.0852376,8217.04,-41136.7,0,41949.3,144563
step02_gravity_refstate-mantle.xmf,318,-5.57784e-07,2.59509e-06,0,-1.56721e-06,-1.15342e+09,-1.153e+09,-1.15335e+09,-209457,0.00519551,0.0927202,0,0.0928656,6725.57,-41692.6,0,42231.6,209457
step02_gravity_refstate-mantle.xmf,319,8.62602e-08,2.16479e-06,0,7.91606e-08,-1.17862e+09,-1.17834e+09,-1.17863e+09,10579.8,-0.00244676,0.0422831,-0,0.0423539,27319.8,-42474.3,0,50501.8,10579.8
step02_gravity_refstate-mantle.xmf,320,-3.54854e-07,2.29693e-06,0,-8.93722e-08,-1.09861e+09,-1.09825e+09,-1.09856e+09,-11944.6,0.000403235,0.0531447,0,0.0531462,20839.5,-40000,0,45103,11944.6
step02_gravity_refstate-mantle.xmf,321,-2.07625e-07,2.30237e-06,0,-6.15607e-09,-1.13696e+09,-1.13662e+09,-1.13693e+09,-822.759,-0.00106717,0.0495011,-0,0.0495126,21639.3,-41185.7,0,46524.4,822.759
step02_gravity_refstate-mantle.xmf,322,4.75521e-07,2.15472e-06,0,6.63806e-08,-1.33861e+09,-1.33839e+09,-1.33868e+09,8871.77,-0.00237108,0.0295007,-0,0.0295958,35071.9,-47419,0,58979.7,8871.77
step02_gravity_refstate-mantle.xmf,323,3.42025e-07,2.13819e-06,0,9.39467e-08,-1.26986e+09,-1.26962e+09,-1.26991e+09,12556,-0.00291372,0.0345412,-0,0.0346639,32075.9,-45294.3,0,55501.7,12556
step02_gravity_refstate-mantle.xmf,324,6.0263e-07,2.20184e-06,0,2.62162e-08,-1.42199e+09,-1.42177e+09,-1.42207e+09,3503.8,-0.00118922,0.0236947,-0,0.0237245,38023.7,-49995.3,0,62811.9,3503.8
step02_gravity_refstate-mantle.xmf,325,6.45597e-07,2.22578e-06,0,2.18405e-10,-1.45533e+09,-1.45512e+09,-1.45542e+09,29.1899,-6.1898e-20,0.0213825,-0,0.0213825,40000,-51025.6,0,64835.3,29.1899
step02_gravity_refstate-mantle.xmf,326,7.26035e-07,2.29294e-06,0,-1.76159e-10,-1.52706e+09,-1.52685e+09,-1.52716e+09,-23.5437,1.37397e-19,0.0163731,0,0.0163731,40000,-53242.2,0,66593.8,23.5437
step02_gravity_refstate-mantle.xmf,327,6.90619e-07,2.26286e-06,0,2.25774e-08,-1.49367e+09,-1.49346e+09,-1.49376e+09,3017.47,-0.00130757,0.0187462,-0,0.0187917,38103.7,-52210.4,0,64636,3017.47
step02_gravity_refstate-mantle.xmf,328,-3.1271e-07,2.76429e-06,0,5.90784e-07,-1.19796e+09,-1.19755e+09,-1.19792e+09,78958.2,0.00102424,0.0682498,0,0.0682575,-10693,-43070.6,-0,44378.1,78958.2
step02_gravity_refstate-mantle.xmf,329,-2.6322e-07,2.9018e-06,0,1.18332e-06,-1.20422e+09,-1.2038e+09,-1.20419e+09,158151,0.000830458,0.0799301,0,0.0799345,-8081.19,-43264.6,-0,44012.9,158151
step02_gravity_refstate-mantle.xmf,330,-2.81913e-07,2.84955e-06,0,9.54482e-07,-1.2024e+09,-1.20198e+09,-1.20237e+09,127566,0.00087876,0.0757395,0,0.0757446,-8905.81,-43208.2,-0,44116.4,127566
step02_gravity_refstate-mantle.xmf,331,-9.19573e-07,4.99564e-06,0,9.40943e-06,-1.228e+09,-1.22721e+09,-1.22787e+09,1.25757e+06,0.000820583,0.154531,0,0.154533,-1000,-44000,-0,44011.4,1.25757e+06
step02_gravity_refstate-mantle.xmf,332,-1.97428e-07,3.10574e-06,0,2.39271e-06,-1.2069e+09,-1.20646e+09,-1.20688e+09,319785,0.000527222,0.0974839,0,0.0974853,-5493.22,-43348.4,-0,43695.1,319785
step02_gravity_refstate-mantle.xmf,333,-1.84684e-07,3.00185e-06,0,1.3945e-06,-1.21567e+09,-1.21524e+09,-1.21564e+09,186374,0.00185523,0.0821423,0,0.0821632,-7522.53,-43618.9,-0,44262.8,186374
step02_gravity_refstate-mantle.xmf,334,-1.74322e-07,3.31624e-06,0,3.43195e-06,-1.21027e+09,-1.20981e+09,-1.21025e+09,458680,0.000679794,0.108625,0,0.108627,-4270.29,-43453.2,-0,43662.6,458680
step02_gravity_refstate-mantle.xmf,335,-2.78163e-07,3.71882e-06,0,4.06769e-06,-1.22155e+09,-1.22101e+09,-1.22151e+09,543646,0.00177608,0.113504,0,0.113518,-3715.1,-43801.7,-0,43959,543646
step02_gravity_refstate-mantle.xmf,336,-4.6648e-07,4.24678e-06,0,4.79767e-06,-1.23209e+09,-1.23146e+09,-1.23203e+09,641208,0.00264726,0.118876,0,0.118906,-3165.61,-44127.6,-0,44241,641208
step02_gravity_refstate-mantle.xmf,337,-7.29694e-07,4.81816e-06,0,5.59115e-06,-1.23988e+09,-1.23914e+09,-1.23979e+09,747257,0.0030683,0.124725,0,0.124762,-2647.2,-44368,-0,44446.9,747257
step02_gravity_refstate-mantle.xmf,338,-7.47531e-08,2.61102e-06,0,1.0609e-07,-1.23213e+09,-1.23177e+09,-1.23212e+09,14178.9,0.00433933,0.0514336,0,0.0516163,-15555,-44127.3,-0,46788.6,14178.9
step02_gravity_refstate-mantle.xmf,339,4.56485e-07,2.33934e-06,0,-1.43913e-07,-1.36434e+09,-1.36409e+09,-1.3644e+09,-19234,0.00709862,0.0301014,0,0.0309271,-25816.3,-48213.9,-0,54690.6,19234
step02_gravity_refstate-mantle.xmf,340,3.89734e-07,2.36585e-06,0,-1.41492e-07,-1.33982e+09,-1.33956e+09,-1.33987e+09,-18910.4,0.00712978,0.0326875,0,0.033456,-24292,-47456.3,-0,53312.3,18910.4
step02_gravity_refstate-mantle.xmf,341,3.25773e-07,2.39688e-06,0,-1.31229e-07,-1.31976e+09,-1.31949e+09,-1.31981e+09,-17538.8,0.00705346,0.0351042,0,0.0358058,-22882.2,-46836.3,-0,52127.1,17538.8
step02_gravity_refstate-mantle.xmf,342,2.54947e-07,2.42931e-06,0,-1.12716e-07,-1.29964e+09,-1.29935e+09,-1.29968e+09,-15064.5,0.00678642,0.0377256,0,0.0383312,-21522.7,-46214.4,-0,50980.3,15064.5
step02_gravity_refstate-mantle.xmf,343,6.69175e-08,2.48867e-06,0,-4.70664e-08,-1.25208e+09,-1.25176e+09,-1.25209e+09,-6290.43,0.00534543,0.0442374,0,0.0445592,-18918.1,-44744.2,-0,48579.2,6290.43
step02_gravity_refstate-mantle.xmf,344,1.67362e-07,2.46045e-06,0,-8.46088e-08,-1.27642e+09,-1.27611e+09,-1.27644e+09,-11308,0.00620814,0.0408314,0,0.0413007,-20183.2,-45496.6,-0,49772.5,11308
step02_gravity_refstate-mantle.xmf,345,1.38889e-08,2.58231e-06,0,4.42975e-08,-1.24948e+09,-1.24913e+09,-1.24948e+09,5920.36,0.00531442,0.0479418,0,0.0482355,-16651.6,-44663.6,-0,47666.6,5920.36
step02_gravity_refstate-mantle.xmf,346,7.07736e-07,2.35239e-06,0,-9.05888e-08,-1.51025e+09,-1.51003e+09,-1.51034e+09,-12107.2,0.00652208,0.0181433,0,0.0192799,-30784.7,-52722.8,-0,61052.3,12107.2
step02_gravity_refstate-mantle.xmf,347,7.96667e-07,2.42931e-06,0,-5.00385e-08,-1.60559e+09,-1.60537e+09,-1.6057e+09,-6687.64,0.00595517,0.0109289,0,0.0124461,-32483,-55668.8,-0,64452.7,6687.64
step02_gravity_refstate-mantle.xmf,348,8.38381e-07,2.52975e-06,0,-1.50986e-08,-1.69826e+09,-1.69804e+09,-1.69838e+09,-2017.93,0.00489335,0.00376813,0,0.00617606,-34130.3,-58532,-0,67755.9,2017.93
step02_gravity_refstate-mantle.xmf,349,-9.20356e-07,4.99649e-06,0,-9.41134e-06,-1.228e+09,-1.22721e+09,-1.22787e+09,-1.25782e+06,-0.000820636,0.154531,-0,0.154534,1000,-44000,0,44011.4,1.25782e+06
step02_gravity_refstate-mantle.xmf,350,-7.21853e-08,2.3799e-06,0,-3.30357e-06,-1.16804e+09,-1.16771e+09,-1.16803e+09,-441522,0.00428774,0.11353,0,0.113611,4158.04,-42146.8,0,42351.4,441522
step02_gravity_refstate-mantle.xmf,351,-3.38782e-07,3.88667e-06,0,-6.61876e-06,-1.21474e+09,-1.21417e+09,-1.21469e+09,-884597,-0.000635653,0.135503,-0,0.135505,2155.71,-43591.5,0,43644.7,884597
step02_gravity_refstate-mantle.xmf,352,-9.07203e-08,3.27916e-06,0,-5.72587e-06,-1.20304e+09,-1.20259e+09,-1.20303e+09,-765262,0.000335219,0.130073,0,0.130073,2596.08,-43230.2,0,43308.1,765262
step02_gravity_refstate-mantle.xmf,353,1.90028e-08,2.54924e-06,0,-3.99247e-06,-1.17989e+09,-1.17956e+09,-1.1799e+09,-533594,0.00285578,0.118513,0,0.118548,3632.13,-42514.1,0,42669,533594
step02_gravity_refstate-mantle.xmf,354,2.87804e-08,2.82033e-06,0,-4.80749e-06,-1.19106e+09,-1.19068e+09,-1.19106e+09,-642521,0.00156456,0.124165,0,0.124175,3103.92,-42859.7,0,42971.9,642521
step02_gravity_refstate-mantle.xmf,355,-3.49583e-07,2.48577e-06,0,-2.30329e-06,-1.15965e+09,-1.15927e+09,-1.1596e+09,-307835,0.00508932,0.102927,0,0.103053,5333.84,-41886.1,0,42224.3,307835
step02_gravity_refstate-mantle.xmf,356,-6.8459e-07,2.49532e-06,0,-2.93585e-07,-1.09866e+09,-1.09824e+09,-1.09857e+09,-39237.6,0.0031477,0.0621488,0,0.0622285,15469.2,-40000,0,42887,39237.6
step02_gravity_refstate-mantle.xmf,357,-7.65793e-07,2.53508e-06,0,-3.68271e-07,-1.09868e+09,-1.09823e+09,-1.09857e+09,-49219.4,0.00400373,0.0649885,0,0.0651118,14284.9,-40000,0,42474.2,49219.4
step02_gravity_refstate-mantle.xmf,358,-5.76163e-07,2.54442e-06,0,-2.52911e-07,-1.12977e+09,-1.12936e+09,-1.1297e+09,-33801.6,0.00183969,0.0611089,0,0.0611366,14867.7,-40961.9,0,43576.7,33801.6
step02_gravity_refstate-mantle.xmf,359,-1.04666e-06,2.60379e-06,0,-7.92675e-07,-1.09873e+09,-1.09824e+09,-1.09859e+09,-105941,0.00781224,0.0789257,0,0.0793114,10093.6,-40000,0,41253.9,105941
step02_gravity_refstate-mantle.xmf,360,-8.77217e-07,2.63301e-06,0,-8.1986e-07,-1.12322e+09,-1.12275e+09,-1.1231e+09,-109574,0.00622455,0.0793693,0,0.079613,9543.08,-40757.6,0,41859.9,109574
step02_gravity_refstate-mantle.xmf,361,-7.20118e-07,2.66096e-06,0,-9.22179e-07,-1.14295e+09,-1.1425e+09,-1.14286e+09,-123249,0.00488899,0.0808636,0,0.0810113,8892.64,-41368.4,0,42313.4,123249
step02_gravity_refstate-mantle.xmf,362,-4.93027e-07,2.71622e-06,0,-1.32834e-06,-1.16769e+09,-1.16726e+09,-1.16762e+09,-177533,0.0032157,0.0868017,0,0.0868612,7454.04,-42134,0,42788.3,177533
step02_gravity_refstate-mantle.xmf,363,-5.98902e-07,2.68634e-06,0,-1.10065e-06,-1.15693e+09,-1.15649e+09,-1.15685e+09,-147102,0.00397094,0.08358,0,0.0836743,8158.02,-41800.9,0,42589.6,147102
step02_gravity_refstate-mantle.xmf,364,3.00742e-07,2.1643e-06,0,1.08957e-07,-1.26023e+09,-1.25998e+09,-1.26027e+09,14562,-0.00340386,0.0356944,-0,0.0358563,30123.1,-44996.6,0,54148.8,14562
step02_gravity_refstate-mantle.xmf,365,6.92579e-08,2.20861e-06,0,8.78955e-08,-1.18799e+09,-1.1877e+09,-1.188e+09,11747.2,-0.00276878,0.0424562,-0,0.0425464,25879.8,-42763.6,0,49984.9,11747.2
step02_gravity_refstate-mantle.xmf,366,1.79082e-07,2.20132e-06,0,1.10997e-07,-1.22415e+09,-1.22388e+09,-1.22417e+09,14834.7,-0.00343011,0.0392658,-0,0.0394153,27211.4,-43881.2,0,51633.5,14834.7
step02_gravity_refstate-mantle.xmf,367,-6.01688e-07,2.45044e-06,0,-2.29068e-07,-1.09865e+09,-1.09824e+09,-1.09857e+09,-30614.9,0.00235099,0.0595522,0,0.0595986,16713.6,-40000,0,43351.4,30614.9
step02_gravity_refstate-mantle.xmf,368,-5.00502e-07,2.50424e-06,0,-1.82724e-07,-1.13243e+09,-1.13203e+09,-1.13236e+09,-24421.1,0.00106051,0.0582916,0,0.0583012,16049.9,-41044.3,0,44070.8,24421.1
step02_gravity_refstate-mantle.xmf,369,-5.15964e-07,2.40038e-06,0,-1.74489e-07,-1.09863e+09,-1.09824e+09,-1.09856e+09,-23320.4,0.00162207,0.0571909,0,0.0572139,18021.3,-40000,0,43872.2,23320.4
step02_gravity_refstate-mantle.xmf,370,-3.91757e-07,2.456e-06,0,-1.0686e-07,-1.13889e+09,-1.13851e+09,-1.13884e+09,-14281.8,9.97039e-05,0.0550796,0,0.0550797,17486.5,-41244.5,0,44798.3,14281.8
step02_gravity_refstate-mantle.xmf,371,-4.36116e-07,2.35011e-06,0,-1.27801e-07,-1.09862e+09,-1.09825e+09,-1.09856e+09,-17080.6,0.000970539,0.055058,0,0.0550665,19395.5,-40000,0,44454.3,17080.6
step02_gravity_refstate-mantle.xmf,372,-3.71843e-07,2.39927e-06,0,-8.66607e-08,-1.12737e+09,-1.127e+09,-1.12732e+09,-11582.2,0.000119047,0.0539042,0,0.0539043,18746,-40888.6,0,44981,11582.2
step02_gravity_refstate-mantle.xmf,373,-2.7216e-07,2.35998e-06,0,-3.08198e-08,-1.13951e+09,-1.13916e+09,-1.13947e+09,-4119.07,-0.000787145,0.0511471,-0,0.0511532,20082.8,-41264.2,0,45891.8,4119.07
step02_gravity_refstate-mantle.xmf,374,-6.22342e-08,2.31106e-06,0,5.76237e-08,-1.17936e+09,-1.17904e+09,-1.17935e+09,7701.41,-0.00254993,0.0457878,-0,0.0458587,22321.9,-42496.4,0,48002.2,7701.41
step02_gravity_refstate-mantle.xmf,375,2.82153e-08,2.26852e-06,0,8.6085e-08,-1.19395e+09,-1.19365e+09,-1.19395e+09,11505.3,-0.00302146,0.0433358,-0,0.043441,23987.3,-42947.5,0,49192.3,11505.3
step02_gravity_refstate-mantle.xmf,376,4.45007e-07,2.16684e-06,0,9.24658e-08,-1.32632e+09,-1.32609e+09,-1.32638e+09,12358.1,-0.00323137,0.0306119,-0,0.030782,32958.3,-47038.9,0,57436.2,12358.1
step02_gravity_refstate-mantle.xmf,377,5.70035e-07,2.19534e-06,0,5.48867e-08,-1.40043e+09,-1.40022e+09,-1.40051e+09,7335.61,-0.00233353,0.0252691,-0,0.0253766,35918.2,-49329.4,0,61020.5,7335.61
step02_gravity_refstate-mantle.xmf,378,7.61579e-07,2.3361e-06,0,1.68705e-08,-1.56565e+09,-1.56544e+09,-1.56575e+09,2254.74,-0.00143628,0.0136307,-0,0.0137062,38110,-54434.5,0,66449.1,2254.74
step02_gravity_refstate-mantle.xmf,379,7.86911e-07,2.37103e-06,0,-1.91268e-10,-1.59926e+09,-1.59905e+09,-1.59937e+09,-25.563,1.50724e-19,0.0111704,0,0.0111704,40000,-55473.1,0,68390.6,25.563
step02_gravity_refstate-mantle.xmf,380,-2.06068e-07,2.84892e-06,0,7.56162e-07,-1.21593e+09,-1.21553e+09,-1.21591e+09,101061,0.00234246,0.0701024,0,0.0701416,-9862.58,-43626.7,-0,44727.6,101061
step02_gravity_refstate-mantle.xmf,381,-1.08516e-06,5.33457e-06,0,8.31752e-06,-1.2355e+09,-1.23465e+09,-1.23536e+09,1.11164e+06,0.00160535,0.145665,0,0.145674,-1395.25,-44231.6,-0,44253.6,1.11164e+06
step02_gravity_refstate-mantle.xmf,382,-1.11273e-06,5.51047e-06,0,7.28516e-06,-1.24245e+09,-1.24156e+09,-1.2423e+09,973661,0.00249668,0.137416,0,0.137439,-1795.97,-44446.3,-0,44482.6,973661
step02_gravity_refstate-mantle.xmf,383,-1.05747e-06,5.52556e-06,0,6.33716e-06,-1.24878e+09,-1.2479e+09,-1.24863e+09,846962,0.00342405,0.129729,0,0.129774,-2208.26,-44642.3,-0,44696.9,846962
step02_gravity_refstate-mantle.xmf,384,-1.74634e-07,3.40022e-06,0,2.88334e-06,-1.22024e+09,-1.21976e+09,-1.22022e+09,385359,0.0018927,0.101487,0,0.101505,-4889.32,-43761.4,-0,44033.6,385359
step02_gravity_refstate-mantle.xmf,385,-1.66341e-07,3.15416e-06,0,2.00896e-06,-1.21742e+09,-1.21698e+09,-1.2174e+09,268497,0.0018024,0.0911128,0,0.0911307,-6167.03,-43673.7,-0,44107,268497
step02_gravity_refstate-mantle.xmf,386,-1.13638e-07,3.169e-06,0,1.69669e-06,-1.2288e+09,-1.22836e+09,-1.22879e+09,226763,0.0030847,0.085084,0,0.0851399,-6862.78,-44025.6,-0,44557.2,226763
step02_gravity_refstate-mantle.xmf,387,-1.42551e-07,2.98774e-06,0,1.15341e-06,-1.22448e+09,-1.22406e+09,-1.22446e+09,154153,0.0028459,0.0768657,0,0.0769184,-8303.44,-43891.4,-0,44669.9,154153
step02_gravity_refstate-mantle.xmf,388,-2.18318e-07,2.75907e-06,0,4.6843e-07,-1.21302e+09,-1.21263e+09,-1.213e+09,62605.7,0.00247514,0.0636958,0,0.0637439,-11584.3,-43536.5,-0,45051.3,62605.7
step02_gravity_refstate-mantle.xmf,389,4.83171e-09,2.68791e-06,0,1.80801e-07,-1.25469e+09,-1.25433e+09,-1.25469e+09,24164.1,0.0056236,0.0517852,0,0.0520897,-14545.5,-44824.8,-0,47125.8,24164.1
step02_gravity_refstate-mantle.xmf,390,-1.42331e-07,2.74079e-06,0,3.59813e-07,-1.22669e+09,-1.2263e+09,-1.22667e+09,48089,0.00365958,0.0594802,0,0.0595927,-12529.1,-43958.9,-0,45709.6,48089
step02_gravity_refstate-mantle.xmf,391,-6.63967e-08,2.71711e-06,0,2.64981e-07,-1.24062e+09,-1.24024e+09,-1.24061e+09,35414.7,0.00471141,0.0555233,0,0.0557228,-13509.9,-44389.7,-0,46400,35414.7
step02_gravity_refstate-mantle.xmf,392,1.09349e-07,2.55471e-06,0,-6.16327e-09,-1.26977e+09,-1.26944e+09,-1.26978e+09,-823.721,0.0062511,0.0444902,0,0.0449272,-17771.7,-45290.9,-0,48652.8,823.721
step02_gravity_refstate-mantle.xmf,393,6.67021e-07,2.35759e-06,0,-1.09748e-07,-1.4802e+09,-1.47997e+09,-1.48029e+09,-14667.9,0.00733771,0.0206307,0,0.0218967,-29086.9,-51794.4,-0,59402.9,14667.9
step02_gravity_refstate-mantle.xmf,394,6.19375e-07,2.37116e-06,0,-1.24454e-07,-1.45118e+09,-1.45095e+09,-1.45127e+09,-16633.2,0.00796534,0.0231719,0,0.0245027,-27429.3,-50897.8,-0,57818.3,16633.2
step02_gravity_refstate-mantle.xmf,395,5.60341e-07,2.38728e-06,0,-1.34323e-07,-1.42043e+09,-1.42019e+09,-1.42051e+09,-17952.2,0.00830122,0.0259765,0,0.0272707,-25879.4,-49947.6,-0,56254,17952.2
step02_gravity_refstate-mantle.xmf,396,7.73765e-07,2.4201e-06,0,-6.85322e-08,-1.57465e+09,-1.57443e+09,-1.57475e+09,-9159.33,0.007031,0.0133844,0,0.0151187,-30864.8,-54712.8,-0,62818.2,9159.33
step02_gravity_refstate-mantle.xmf,397,8.34905e-07,2.52687e-06,0,-2.71619e-08,-1.67821e+09,-1.67799e+09,-1.67833e+09,-3630.19,0.00648276,0.00538255,0,0.00842604,-32182.8,-57912.6,-0,66254.1,3630.19
step02_gravity_refstate-mantle.xmf,398,8.45289e-07,2.6162e-06,0,1.4875e-09,-1.74578e+09,-1.74554e+09,-1.74589e+09,198.805,0.0058781,-6.76807e-20,0,0.0058781,-33002,-60000,-0,68477.2,198.805
step02_gravity_refstate-mantle.xmf,399,-6.93937e-07,4.61092e-06,0,-7.42266e-06,-1.22624e+09,-1.22553e+09,-1.22615e+09,-992038,-0.00134106,0.140183,-0,0.140189,1782.09,-43946.2,0,43982.4,992038
step02_gravity_refstate-mantle.xmf,400,-1.08695e-06,5.33794e-06,0,-8.31827e-06,-1.23555e+09,-1.23469e+09,-1.23541e+09,-1.11174e+06,-0.00160782,0.145665,-0,0.145674,1394.84,-44233.2,0,44255.2,1.11174e+06
step02_gravity_refstate-mantle.xmf,401,-2.03455e-07,2.62672e-06,0,-2.79417e-06,-1.17531e+09,-1.17493e+09,-1.17528e+09,-373441,0.00331083,0.106668,0,0.106719,4784.23,-42371.2,0,42640.5,373441
step02_gravity_refstate-mantle.xmf,402,-4.03427e-07,2.64746e-06,0,-1.91597e-06,-1.16725e+09,-1.16684e+09,-1.16719e+09,-256069,0.00389862,0.09642,0,0.0964988,6060.72,-42120.9,0,42554.7,256069
step02_gravity_refstate-mantle.xmf,403,-9.84942e-07,2.60353e-06,0,-6.6476e-07,-1.09872e+09,-1.09824e+09,-1.09859e+09,-88845.2,0.0068257,0.0750395,0,0.0753493,11064.9,-40000,0,41502.2,88845.2
step02_gravity_refstate-mantle.xmf,404,-7.83076e-07,2.64643e-06,0,-6.46078e-07,-1.12977e+09,-1.12931e+09,-1.12966e+09,-86348.3,0.0047824,0.0743484,0,0.074502,10592.6,-40960.6,0,42308,86348.3
step02_gravity_refstate-mantle.xmf,405,-9.21653e-07,2.59276e-06,0,-5.52034e-07,-1.0987e+09,-1.09824e+09,-1.09858e+09,-73779.4,0.00585355,0.0714265,0,0.071666,12085.5,-40000,0,41785.9,73779.4
step02_gravity_refstate-mantle.xmf,406,-8.02568e-07,2.62521e-06,0,-5.44314e-07,-1.121e+09,-1.12054e+09,-1.12089e+09,-72747.6,0.00469044,0.0713759,0,0.0715298,11575.2,-40689.5,0,42303.9,72747.6
step02_gravity_refstate-mantle.xmf,407,-8.4555e-07,2.56826e-06,0,-4.53791e-07,-1.09869e+09,-1.09823e+09,-1.09858e+09,-60649.2,0.00490928,0.0680787,0,0.0682554,13158,-40000,0,42108.6,60649.2
step02_gravity_refstate-mantle.xmf,408,-6.36413e-07,2.5832e-06,0,-3.30978e-07,-1.1302e+09,-1.12977e+09,-1.13011e+09,-44235.3,0.00252397,0.0640475,0,0.0640972,13696.7,-40974.7,0,43203.3,44235.3
step02_gravity_refstate-mantle.xmf,409,-6.89432e-07,2.61844e-06,0,-4.29516e-07,-1.13159e+09,-1.13114e+09,-1.13149e+09,-57404.8,0.00323871,0.0674908,0,0.0675685,12482.5,-41017.3,0,42874.6,57404.8
step02_gravity_refstate-mantle.xmf,410,-3.84583e-07,2.7674e-06,0,-1.61969e-06,-1.17803e+09,-1.17761e+09,-1.17798e+09,-216471,0.00238195,0.0904844,0,0.0905157,6753.75,-42454.3,0,42988.1,216471
step02_gravity_refstate-mantle.xmf,411,2.6273e-07,2.19355e-06,0,1.18185e-07,-1.25344e+09,-1.25318e+09,-1.25348e+09,15795.4,-0.0037573,0.0367346,-0,0.0369263,28448.1,-44786.7,0,53057.9,15795.4
step02_gravity_refstate-mantle.xmf,412,-1.31686e-07,2.34786e-06,0,3.08196e-08,-1.17068e+09,-1.17035e+09,-1.17066e+09,4119.04,-0.00213377,0.0476874,-0,0.0477352,21080.6,-42227.9,0,47197.4,4119.04
step02_gravity_refstate-mantle.xmf,413,5.35128e-07,2.19935e-06,0,8.35411e-08,-1.38068e+09,-1.38046e+09,-1.38075e+09,11165.3,-0.00340913,0.026832,-0,0.0270477,33707.6,-48718.9,0,59243,11165.3
step02_gravity_refstate-mantle.xmf,414,4.27805e-07,2.19766e-06,0,1.15324e-07,-1.32567e+09,-1.32543e+09,-1.32573e+09,15413.1,-0.00414047,0.0310831,-0,0.0313577,30858.9,-47018.9,0,56241,15413.1
step02_gravity_refstate-mantle.xmf,415,6.61633e-07,2.25136e-06,0,4.74905e-08,-1.46922e+09,-1.46901e+09,-1.46931e+09,6347.11,-0.00258436,0.0205323,-0,0.0206943,36091.5,-51454.8,0,62850.6,6347.11
step02_gravity_refstate-mantle.xmf,416,7.35197e-07,2.31253e-06,0,3.82586e-08,-1.53576e+09,-1.53555e+09,-1.53586e+09,5113.27,-0.00277302,0.015833,-0,0.016074,36218.9,-53510.9,0,64616,5113.27
step02_gravity_refstate-mantle.xmf,417,8.10247e-07,2.4184e-06,0,1.06696e-08,-1.63569e+09,-1.63548e+09,-1.6358e+09,1425.99,-0.0015656,0.00848646,-0,0.00862967,38062.2,-56598.6,0,68206.5,1425.99
step02_gravity_refstate-mantle.xmf,418,8.24476e-07,2.46389e-06,0,-1.06792e-10,-1.67212e+09,-1.6719e+09,-1.67223e+09,-14.2727,1.34672e-19,0.00572967,0,0.00572967,40000,-57724.1,0,70228.7,14.2727
step02_gravity_refstate-mantle.xmf,419,-1.23066e-07,2.8423e-06,0,6.09909e-07,-1.23052e+09,-1.23012e+09,-1.2305e+09,81514.4,0.00370774,0.0652221,0,0.0653274,-10746.1,-44077.7,-0,45368.7,81514.4
step02_gravity_refstate-mantle.xmf,420,-1.52711e-06,6.11045e-06,0,9.31841e-06,-1.24424e+09,-1.24321e+09,-1.24403e+09,1.2454e+06,0.00154625,0.151752,0,0.151759,-1000,-44500.4,-0,44511.6,1.2454e+06
step02_gravity_refstate-mantle.xmf,421,-9.64256e-07,5.47276e-06,0,5.59999e-06,-1.25478e+09,-1.25392e+09,-1.25465e+09,748439,0.00428892,0.123388,0,0.123462,-2573.38,-44828.3,-0,44902.1,748439
step02_gravity_refstate-mantle.xmf,422,-1.41274e-07,3.4242e-06,0,2.42132e-06,-1.23085e+09,-1.23038e+09,-1.23083e+09,323609,0.00313203,0.0947526,0,0.0948044,-5530.69,-44089.4,-0,44434.9,323609
step02_gravity_refstate-mantle.xmf,423,-5.71489e-08,3.1598e-06,0,1.42259e-06,-1.24078e+09,-1.24035e+09,-1.24077e+09,190129,0.00431895,0.0792768,0,0.0793944,-7601.45,-44395.8,-0,45041.9,190129
step02_gravity_refstate-mantle.xmf,424,-2.37207e-07,3.78756e-06,0,3.42344e-06,-1.23212e+09,-1.23159e+09,-1.23209e+09,457542,0.00303954,0.105863,0,0.105907,-4305.29,-44129,-0,44338.5,457542
step02_gravity_refstate-mantle.xmf,425,-4.07005e-07,4.29686e-06,0,4.01659e-06,-1.24313e+09,-1.2425e+09,-1.24307e+09,536817,0.00397196,0.11069,0,0.110761,-3727.39,-44469,-0,44624.9,536817
step02_gravity_refstate-mantle.xmf,426,-7.07908e-07,5.03458e-06,0,4.74738e-06,-1.25431e+09,-1.25355e+09,-1.25422e+09,634488,0.00469349,0.116437,0,0.116531,-3106.81,-44814.4,-0,44922,634488
step02_gravity_refstate-mantle.xmf,427,7.83853e-08,2.65873e-06,0,1.09317e-07,-1.27079e+09,-1.27045e+09,-1.2708e+09,14610.2,0.00649979,0.0481715,0,0.0486081,-15610.6,-45322.6,-0,47935.7,14610.2
step02_gravity_refstate-mantle.xmf,428,5.00326e-07,2.41116e-06,0,-1.34573e-07,-1.39349e+09,-1.39323e+09,-1.39356e+09,-17985.6,0.00847869,0.0286692,0,0.0298967,-24392,-49114.9,-0,54838.4,17985.6
step02_gravity_refstate-mantle.xmf,429,4.41062e-07,2.44163e-06,0,-1.26342e-07,-1.37068e+09,-1.37041e+09,-1.37074e+09,-16885.6,0.00854375,0.0312397,0,0.0323869,-22962.9,-48410.1,-0,53580.1,16885.6
step02_gravity_refstate-mantle.xmf,430,3.77465e-07,2.47323e-06,0,-1.10225e-07,-1.34862e+09,-1.34834e+09,-1.34867e+09,-14731.6,0.00841998,0.0339352,0,0.0349642,-21613.5,-47728.3,-0,52394,14731.6
step02_gravity_refstate-mantle.xmf,431,3.05053e-07,2.50624e-06,0,-8.43691e-08,-1.32565e+09,-1.32535e+09,-1.32569e+09,-11275.9,0.00807891,0.0369661,0,0.0378386,-20263.9,-47018.2,-0,51199,11275.9
step02_gravity_refstate-mantle.xmf,432,2.21039e-07,2.54324e-06,0,-4.35792e-08,-1.30123e+09,-1.30091e+09,-1.30125e+09,-5824.36,0.00748888,0.0405512,0,0.0412369,-18814.3,-46263.4,-0,49942.7,5824.36
step02_gravity_refstate-mantle.xmf,433,1.48771e-07,2.62979e-06,0,5.07694e-08,-1.28764e+09,-1.28731e+09,-1.28766e+09,6785.33,0.0072583,0.0448375,0,0.0454212,-16668.2,-45843.6,-0,48779.8,6785.33
step02_gravity_refstate-mantle.xmf,434,7.45017e-07,2.42239e-06,0,-8.65415e-08,-1.54533e+09,-1.54511e+09,-1.54543e+09,-11566.3,0.00802019,0.0157961,0,0.0177156,-29216.3,-53807,-0,61227.3,11566.3
step02_gravity_refstate-mantle.xmf,435,8.15561e-07,2.48715e-06,0,-4.77009e-08,-1.63192e+09,-1.6317e+09,-1.63203e+09,-6375.23,0.00734057,0.00903464,0,0.0116408,-30930.2,-56482.4,-0,64396.8,6375.23
step02_gravity_refstate-mantle.xmf,436,-1.52714e-06,6.11026e-06,0,-9.31886e-06,-1.24424e+09,-1.24321e+09,-1.24403e+09,-1.24547e+06,-0.00154637,0.151752,-0,0.151759,1000,-44500.4,0,44511.6,1.24547e+06
step02_gravity_refstate-mantle.xmf,437,-7.46088e-07,4.76485e-06,0,-6.49273e-06,-1.23274e+09,-1.232e+09,-1.23264e+09,-867753,-0.00213136,0.13251,-0,0.132527,2193.14,-44147.1,0,44201.5,867753
step02_gravity_refstate-mantle.xmf,438,-1.27114e-07,2.83643e-06,0,-3.38637e-06,-1.1887e+09,-1.1883e+09,-1.18868e+09,-452588,0.00179075,0.111151,0,0.111166,4225.29,-42785.9,0,42994,452588
step02_gravity_refstate-mantle.xmf,439,-4.29021e-07,4.07583e-06,0,-5.66424e-06,-1.22195e+09,-1.22135e+09,-1.22189e+09,-757026,-0.0014548,0.127205,-0,0.127214,2645.95,-43814.1,0,43893.9,757026
step02_gravity_refstate-mantle.xmf,440,-2.26522e-07,3.53395e-06,0,-4.84094e-06,-1.21127e+09,-1.21077e+09,-1.21124e+09,-646992,-0.000567165,0.121656,-0,0.121658,3144.07,-43484.3,0,43597.8,646992
step02_gravity_refstate-mantle.xmf,441,-1.31816e-07,3.13576e-06,0,-4.07113e-06,-1.20064e+09,-1.2002e+09,-1.20062e+09,-544106,0.000485518,0.116163,0,0.116164,3676.98,-43155.3,0,43311.7,544106
step02_gravity_refstate-mantle.xmf,442,-2.65217e-07,2.79011e-06,0,-2.34837e-06,-1.1832e+09,-1.18279e+09,-1.18317e+09,-313859,0.00221298,0.10011,0,0.100135,5438.35,-42615,0,42960.6,313859
step02_gravity_refstate-mantle.xmf,443,-4.0221e-07,2.55608e-06,0,-1.73264e-07,-1.16166e+09,-1.16127e+09,-1.16161e+09,-23156.7,-0.000199461,0.0576532,-0,0.0576536,15278.2,-41948.1,0,44643.8,23156.7
step02_gravity_refstate-mantle.xmf,444,-4.57155e-07,2.59192e-06,0,-2.44237e-07,-1.15905e+09,-1.15864e+09,-1.15899e+09,-32642.3,0.000416525,0.0603912,0,0.0603926,14210.4,-41867.2,0,44213.1,32642.3
step02_gravity_refstate-mantle.xmf,445,-6.42637e-07,2.68891e-06,0,-7.49595e-07,-1.15268e+09,-1.15224e+09,-1.1526e+09,-100183,0.00338831,0.0760076,0,0.0760831,9750.32,-41669.5,0,42795.1,100183
step02_gravity_refstate-mantle.xmf,446,-3.25223e-07,2.85406e-06,0,-1.36406e-06,-1.19198e+09,-1.19155e+09,-1.19193e+09,-182306,0.000603884,0.0845676,0,0.0845697,7476.77,-42885.9,0,43532.8,182306
step02_gravity_refstate-mantle.xmf,447,-5.04885e-07,2.73536e-06,0,-9.03642e-07,-1.17024e+09,-1.16981e+09,-1.17017e+09,-120772,0.00218145,0.0781564,0,0.0781869,8978.74,-42212.8,0,43157.2,120772
step02_gravity_refstate-mantle.xmf,448,-4.06608e-07,2.78831e-06,0,-1.12277e-06,-1.18232e+09,-1.18189e+09,-1.18226e+09,-150059,0.00134902,0.0813239,0,0.0813351,8176.89,-42586.8,0,43364.7,150059
step02_gravity_refstate-mantle.xmf,449,3.63712e-07,2.21865e-06,0,1.29094e-07,-1.30167e+09,-1.30142e+09,-1.30171e+09,17253.4,-0.00455499,0.0333093,-0,0.0336193,28822.2,-46277.1,0,54518.7,17253.4
step02_gravity_refstate-mantle.xmf,450,2.91587e-07,2.23945e-06,0,1.32993e-07,-1.27724e+09,-1.27698e+09,-1.27728e+09,17774.5,-0.00460974,0.0356485,-0,0.0359453,27155.9,-45522.1,0,53006.7,17774.5
step02_gravity_refstate-mantle.xmf,451,1.8852e-07,2.26265e-06,0,1.23946e-07,-1.24482e+09,-1.24454e+09,-1.24485e+09,16565.4,-0.00426065,0.0388257,-0,0.0390588,25386.1,-44520.1,0,51249.3,16565.4
step02_gravity_refstate-mantle.xmf,452,-3.17429e-07,2.51977e-06,0,-1.03303e-07,-1.17025e+09,-1.16987e+09,-1.17021e+09,-13806.5,-0.00108442,0.0546057,-0,0.0546165,16425.5,-42213.9,0,45296.9,13806.5
step02_gravity_refstate-mantle.xmf,453,-2.39324e-07,2.42507e-06,0,-2.61317e-08,-1.16364e+09,-1.16329e+09,-1.16361e+09,-3492.5,-0.00143405,0.051107,-0,0.0511271,18808,-42010.1,0,46028.1,3492.5
step02_gravity_refstate-mantle.xmf,454,-1.21468e-07,2.39593e-06,0,2.98247e-08,-1.18612e+09,-1.18578e+09,-1.1861e+09,3986.07,-0.00259048,0.0477729,-0,0.0478431,20041.7,-42705,0,47174,3986.07
step02_gravity_refstate-mantle.xmf,455,-1.49426e-08,2.36635e-06,0,7.10193e-08,-1.20707e+09,-1.20675e+09,-1.20706e+09,9491.73,-0.00347115,0.0448157,-0,0.0449499,21285.7,-43352.8,0,48296.4,9491.73
step02_gravity_refstate-mantle.xmf,456,7.24049e-08,2.33378e-06,0,9.93258e-08,-1.22465e+09,-1.22435e+09,-1.22466e+09,13274.9,-0.00403981,0.0422779,-0,0.0424705,22606.2,-43896.4,0,49375.4,13274.9
step02_gravity_refstate-mantle.xmf,457,5.01766e-07,2.21066e-06,0,1.04894e-07,-1.3649e+09,-1.36467e+09,-1.36497e+09,14019.1,-0.00418644,0.0281925,-0,0.0285016,31884.9,-48231.3,0,57817.9,14019.1
step02_gravity_refstate-mantle.xmf,458,6.23721e-07,2.24328e-06,0,7.36734e-08,-1.44126e+09,-1.44105e+09,-1.44135e+09,9846.44,-0.00367188,0.0226249,-0,0.0229209,34131.9,-50591,0,61028.2,9846.44
step02_gravity_refstate-mantle.xmf,459,7.91489e-07,2.38765e-06,0,2.65792e-08,-1.60353e+09,-1.60332e+09,-1.60363e+09,3552.31,-0.00292386,0.0109082,-0,0.0112932,36294.5,-55604.9,0,66401.8,3552.31
step02_gravity_refstate-mantle.xmf,460,8.31042e-07,2.49514e-06,0,5.42511e-09,-1.69321e+09,-1.69299e+09,-1.69332e+09,725.066,-0.00139033,0.00411734,-0,0.00434574,38325.8,-58375.8,0,69832.6,725.066
step02_gravity_refstate-mantle.xmf,461,8.36937e-07,2.57141e-06,0,-1.72581e-09,-1.74579e+09,-1.74555e+09,-1.7459e+09,-230.655,-6.306e-19,-4.01147e-19,-0,7.47379e-19,40000,-60000,0,72111,230.655
step02_gravity_refstate-mantle.xmf,462,-9.08163e-08,2.96942e-06,0,9.51785e-07,-1.23533e+09,-1.23492e+09,-1.23532e+09,127206,0.00393451,0.0716846,0,0.0717925,-9129.96,-44226.8,-0,45159.4,127206
step02_gravity_refstate-mantle.xmf,463,-3.19119e-08,2.95289e-06,0,7.88393e-07,-1.24808e+09,-1.24768e+09,-1.24808e+09,105369,0.00506549,0.0668296,0,0.0670213,-9953.32,-44621.2,-0,45717.8,105369
step02_gravity_refstate-mantle.xmf,464,-1.59941e-06,6.34874e-06,0,8.14712e-06,-1.25175e+09,-1.25068e+09,-1.25153e+09,1.08886e+06,0.00256088,0.142621,0,0.142644,-1401.68,-44732.5,-0,44754.5,1.08886e+06
step02_gravity_refstate-mantle.xmf,465,-1.50766e-06,6.37536e-06,0,7.06946e-06,-1.25837e+09,-1.25732e+09,-1.25817e+09,944833,0.00361808,0.134325,0,0.134374,-1806.17,-44937.9,-0,44974.2,944833
step02_gravity_refstate-mantle.xmf,466,-1.31219e-06,6.18506e-06,0,6.0917e-06,-1.26375e+09,-1.26275e+09,-1.26358e+09,814156,0.00462994,0.126591,0,0.126675,-2236.92,-45104.8,-0,45160.3,814156
step02_gravity_refstate-mantle.xmf,467,-1.73254e-07,3.77459e-06,0,2.8874e-06,-1.2427e+09,-1.24218e+09,-1.24268e+09,385901,0.00426051,0.0987622,0,0.0988541,-4914.65,-44456.2,-0,44727,385901
step02_gravity_refstate-mantle.xmf,468,-7.59485e-08,3.42004e-06,0,2.05053e-06,-1.24299e+09,-1.24252e+09,-1.24298e+09,274054,0.00444391,0.0883137,0,0.0884254,-6193.83,-44464.8,-0,44894.1,274054
step02_gravity_refstate-mantle.xmf,469,-6.71211e-09,3.394e-06,0,1.74752e-06,-1.25589e+09,-1.25543e+09,-1.25588e+09,233556,0.00571002,0.0821254,0,0.0823236,-6894.5,-44863.5,-0,45390.2,233556
step02_gravity_refstate-mantle.xmf,470,-3.57377e-09,3.13134e-06,0,1.19377e-06,-1.25239e+09,-1.25197e+09,-1.25239e+09,159548,0.00540052,0.073842,0,0.0740392,-8375.44,-44754.8,-0,45531.8,159548
step02_gravity_refstate-mantle.xmf,471,-1.07761e-06,5.9152e-06,0,5.25518e-06,-1.26922e+09,-1.26828e+09,-1.26907e+09,702355,0.00560461,0.119401,0,0.119532,-2680.12,-45274.5,-0,45353.8,702355
step02_gravity_refstate-mantle.xmf,472,-4.66268e-08,2.82888e-06,0,4.88235e-07,-1.24583e+09,-1.24545e+09,-1.24583e+09,65252.5,0.00496292,0.0606527,0,0.0608554,-11645.4,-44551.3,-0,46048.1,65252.5
step02_gravity_refstate-mantle.xmf,473,1.47517e-07,2.7522e-06,0,2.01463e-07,-1.2928e+09,-1.29246e+09,-1.29282e+09,26925.5,0.00783319,0.0484414,0,0.0490707,-14606.6,-46003.3,-0,48266.5,26925.5
step02_gravity_refstate-mantle.xmf,474,8.73457e-08,2.7826e-06,0,2.85742e-07,-1.27727e+09,-1.27691e+09,-1.27729e+09,38189.4,0.0070404,0.0522173,0,0.0526898,-13582.3,-45523.2,-0,47506.2,38189.4
step02_gravity_refstate-mantle.xmf,475,2.11425e-08,2.8094e-06,0,3.83742e-07,-1.26142e+09,-1.26105e+09,-1.26143e+09,51287.1,0.0060743,0.0563634,0,0.0566898,-12574.4,-45033.3,-0,46755.9,51287.1
step02_gravity_refstate-mantle.xmf,476,2.0931e-07,2.60692e-06,0,1.07132e-08,-1.3034e+09,-1.30308e+09,-1.30343e+09,1431.82,0.00785044,0.0421105,0,0.042836,-17570.5,-46330.7,-0,49550.6,1431.82
step02_gravity_refstate-mantle.xmf,477,5.90576e-07,2.46358e-06,0,-1.19563e-07,-1.44501e+09,-1.44476e+09,-1.44509e+09,-15979.6,0.00966373,0.0247714,0,0.0265897,-24424.8,-50707.2,-0,56283.1,15979.6
step02_gravity_refstate-mantle.xmf,478,7.08606e-07,2.43432e-06,0,-1.01822e-07,-1.51598e+09,-1.51575e+09,-1.51607e+09,-13608.5,0.00887587,0.0183275,0,0.0203636,-27552.8,-52900.1,-0,59645.4,13608.5
step02_gravity_refstate-mantle.xmf,479,6.63618e-07,2.45963e-06,0,-1.11043e-07,-1.48667e+09,-1.48643e+09,-1.48676e+09,-14840.9,0.00963799,0.0210556,0,0.0231566,-25774,-51994.5,-0,58032.1,14840.9
step02_gravity_refstate-mantle.xmf,480,8.01165e-07,2.49537e-06,0,-5.98147e-08,-1.60983e+09,-1.6096e+09,-1.60993e+09,-7994.23,0.00846593,0.0108751,0,0.0137819,-29369.8,-55799.8,-0,63057.1,7994.23
step02_gravity_refstate-mantle.xmf,481,8.37138e-07,2.58113e-06,0,-2.99412e-08,-1.67989e+09,-1.67966e+09,-1.68e+09,-4001.64,0.00859501,0.00535597,0,0.0101272,-29661.5,-57964.6,-0,65113,4001.64
step02_gravity_refstate-mantle.xmf,482,8.48034e-07,2.65179e-06,0,1.34379e-09,-1.74578e+09,-1.74554e+09,-1.74589e+09,179.597,0.00767747,-6.97302e-20,0,0.00767747,-30876.9,-60000,-0,67478.7,179.597
step02_gravity_refstate-mantle.xmf,483,-1.13379e-06,5.50961e-06,0,-7.28553e-06,-1.24243e+09,-1.24154e+09,-1.24227e+09,-973711,-0.00249398,0.137435,-0,0.137458,1795.09,-44445.6,0,44481.8,973711
step02_gravity_refstate-mantle.xmf,484,-1.60649e-06,6.36174e-06,0,-8.14872e-06,-1.25194e+09,-1.25087e+09,-1.25172e+09,-1.08908e+06,-0.00256984,0.142608,-0,0.142631,1400.34,-44738.4,0,44760.3,1.08908e+06
step02_gravity_refstate-mantle.xmf,485,-1.90206e-07,3.01367e-06,0,-2.8553e-06,-1.19774e+09,-1.19731e+09,-1.19772e+09,-381610,0.000640937,0.10417,0,0.104172,4841.24,-43065.2,0,43336.5,381610
step02_gravity_refstate-mantle.xmf,486,-2.73932e-07,2.89365e-06,0,-1.96687e-06,-1.19217e+09,-1.19175e+09,-1.19214e+09,-262872,0.000991609,0.0938264,0,0.0938316,6120.54,-42892.3,0,43326.8,262872
step02_gravity_refstate-mantle.xmf,487,-6.21455e-07,2.65966e-06,0,-5.02495e-07,-1.14854e+09,-1.14811e+09,-1.14846e+09,-67158.4,0.00262625,0.0693968,0,0.0694465,11498,-41541.7,0,43103.6,67158.4
step02_gravity_refstate-mantle.xmf,488,-4.88497e-07,2.62875e-06,0,-3.24577e-07,-1.16073e+09,-1.16031e+09,-1.16067e+09,-43379.7,0.000816101,0.0631538,0,0.063159,13136.6,-41919,0,43929.1,43379.7
step02_gravity_refstate-mantle.xmf,489,-3.16716e-07,2.59921e-06,0,-1.89399e-07,-1.1835e+09,-1.18311e+09,-1.18345e+09,-25313.2,-0.00126067,0.0574722,-0,0.057486,14600,-42623.2,0,45054.4,25313.2
step02_gravity_refstate-mantle.xmf,490,-5.26464e-07,2.70215e-06,0,-5.99211e-07,-1.16568e+09,-1.16525e+09,-1.16561e+09,-80084.5,0.00172415,0.0711848,0,0.0712057,10640.8,-42071.8,0,43396.5,80084.5
step02_gravity_refstate-mantle.xmf,491,-2.38828e-07,2.96168e-06,0,-1.65905e-06,-1.20309e+09,-1.20266e+09,-1.20305e+09,-221731,-0.000391442,0.0878863,-0,0.0878872,6808.83,-43229.9,0,43762.8,221731
step02_gravity_refstate-mantle.xmf,492,-2.05976e-07,2.48444e-06,0,-3.74458e-08,-1.18453e+09,-1.18417e+09,-1.1845e+09,-5004.63,-0.00212482,0.0513421,-0,0.0513861,17635.3,-42655.6,0,46157.4,5004.63
step02_gravity_refstate-mantle.xmf,493,1.53141e-07,2.31024e-06,0,1.18376e-07,-1.24431e+09,-1.24402e+09,-1.24433e+09,15821,-0.00452128,0.0399196,-0,0.0401748,23790.6,-44504.3,0,50464.1,15821
step02_gravity_refstate-mantle.xmf,494,5.78583e-07,2.24157e-06,0,9.78095e-08,-1.41255e+09,-1.41232e+09,-1.41262e+09,13072.2,-0.00452156,0.0248474,-0,0.0252554,32280.6,-49703.7,0,59266.3,13072.2
step02_gravity_refstate-mantle.xmf,495,5.29597e-07,2.2466e-06,0,1.1731e-07,-1.38583e+09,-1.3856e+09,-1.3859e+09,15678.5,-0.00512557,0.0270117,-0,0.0274937,30596.5,-48878.1,0,57664.7,15678.5
step02_gravity_refstate-mantle.xmf,496,4.73848e-07,2.25657e-06,0,1.3211e-07,-1.35935e+09,-1.35911e+09,-1.35941e+09,17656.6,-0.00551085,0.0292608,-0,0.0297752,29008.5,-48059.8,0,56135.9,17656.6
step02_gravity_refstate-mantle.xmf,497,7.05797e-07,2.30061e-06,0,6.12679e-08,-1.50722e+09,-1.50701e+09,-1.50731e+09,8188.46,-0.00400291,0.0179781,-0,0.0184184,34318.1,-52629.1,0,62829.6,8188.46
step02_gravity_refstate-mantle.xmf,498,7.72304e-07,2.36895e-06,0,4.63325e-08,-1.5752e+09,-1.57498e+09,-1.5753e+09,6192.34,-0.00429614,0.0130664,-0,0.0137546,34411.9,-54729.6,0,64649.1,6192.34
step02_gravity_refstate-mantle.xmf,499,8.28101e-07,2.48178e-06,0,1.43759e-08,-1.67749e+09,-1.67727e+09,-1.6776e+09,1921.33,-0.00305705,0.00534392,-0,0.00615655,36301.4,-57890.1,0,68330.5,1921.33
step02_gravity_refstate-mantle.xmf,500,8.3842e-07,2.57619e-06,0,-1.9467e-09,-1.74579e+09,-1.74555e+09,-1.7459e+09,-260.177,-0.00204459,-5.20821e-19,-0,0.00204459,37557.9,-60000,0,70785.6,260.177
step02_gravity_refstate-mantle.xmf,501,3.3681e-08,2.93654e-06,0,6.47702e-07,-1.26302e+09,-1.26263e+09,-1.26302e+09,86565.3,0.00623073,0.0620712,0,0.0623831,-10811.5,-45082.9,-0,46361.1,86565.3
step02_gravity_refstate-mantle.xmf,502,-2.12209e-06,7.24733e-06,0,9.14877e-06,-1.26045e+09,-1.2592e+09,-1.26017e+09,1.22273e+06,0.00227113,0.148413,0,0.148431,-1000,-45000.2,-0,45011.3,1.22273e+06
step02_gravity_refstate-mantle.xmf,503,-9.48366e-08,3.72915e-06,0,2.44844e-06,-1.25453e+09,-1.25402e+09,-1.25452e+09,327234,0.00551935,0.0919978,0,0.0921632,-5547.08,-44822,-0,45163.9,327234
step02_gravity_refstate-mantle.xmf,504,5.17289e-08,3.3449e-06,0,1.4752e-06,-1.26826e+09,-1.26782e+09,-1.26827e+09,197161,0.00679717,0.0762512,0,0.0765536,-7646.19,-45246.1,-0,45887.6,197161
step02_gravity_refstate-mantle.xmf,505,-2.8522e-07,4.22938e-06,0,3.38431e-06,-1.25386e+09,-1.25326e+09,-1.25382e+09,452313,0.00523095,0.102976,0,0.103109,-4324.37,-44801.2,-0,45009.4,452313
step02_gravity_refstate-mantle.xmf,506,-4.98048e-07,4.82813e-06,0,3.90389e-06,-1.26487e+09,-1.26416e+09,-1.2648e+09,521755,0.00603873,0.107436,0,0.107606,-3744.34,-45141.4,-0,45296.4,521755
step02_gravity_refstate-mantle.xmf,507,-7.95397e-07,5.57284e-06,0,4.41876e-06,-1.27642e+09,-1.27557e+09,-1.27632e+09,590568,0.00671025,0.111521,0,0.111723,-3214.04,-45498.2,-0,45611.6,590568
step02_gravity_refstate-mantle.xmf,508,2.06988e-07,2.72015e-06,0,1.28247e-07,-1.30927e+09,-1.30894e+09,-1.3093e+09,17140.2,0.00852769,0.0448623,0,0.0456656,-15666.8,-46512.3,-0,49079.9,17140.2
step02_gravity_refstate-mantle.xmf,509,5.3522e-07,2.49135e-06,0,-1.13546e-07,-1.41914e+09,-1.41888e+09,-1.41922e+09,-15175.4,0.00982615,0.0274948,0,0.0291979,-23041.7,-49907.8,-0,54970.1,15175.4
step02_gravity_refstate-mantle.xmf,510,4.79589e-07,2.52522e-06,0,-9.78927e-08,-1.39647e+09,-1.3962e+09,-1.39653e+09,-13083.4,0.00988457,0.0301803,0,0.0317578,-21686.8,-49207.1,-0,53774.1,13083.4
step02_gravity_refstate-mantle.xmf,511,4.20384e-07,2.56076e-06,0,-7.29497e-08,-1.37442e+09,-1.37414e+09,-1.37448e+09,-9749.73,0.00977442,0.0330375,0,0.0344531,-20373.6,-48525.8,-0,52629.2,9749.73
step02_gravity_refstate-mantle.xmf,512,3.58335e-07,2.59838e-06,0,-3.69215e-08,-1.3531e+09,-1.3528e+09,-1.35315e+09,-4934.55,0.00951035,0.0361097,0,0.037341,-19074.4,-47866.8,-0,51527.3,4934.55
step02_gravity_refstate-mantle.xmf,513,2.60139e-07,2.68398e-06,0,6.56261e-08,-1.32442e+09,-1.32409e+09,-1.32445e+09,8770.92,0.00901718,0.0417005,0,0.0426643,-16737.8,-46980.4,-0,49872.9,8770.92
step02_gravity_refstate-mantle.xmf,514,3.06388e-07,2.64287e-06,0,1.13497e-08,-1.33756e+09,-1.33725e+09,-1.3376e+09,1516.88,0.00929233,0.0389524,0,0.0400454,-17836.9,-47386.5,-0,50632.4,1516.88
step02_gravity_refstate-mantle.xmf,515,6.55166e-07,2.5226e-06,0,-1.00447e-07,-1.4898e+09,-1.48955e+09,-1.48989e+09,-13424.7,0.0106666,0.0213777,0,0.0238911,-24297,-52091.2,-0,57479.1,13424.7
step02_gravity_refstate-mantle.xmf,516,7.76867e-07,2.50807e-06,0,-7.39097e-08,-1.58338e+09,-1.58315e+09,-1.58348e+09,-9878.03,0.00952257,0.0131416,0,0.016229,-27746.5,-54982.7,-0,61587.1,9878.03
step02_gravity_refstate-mantle.xmf,517,-1.08757e-06,5.55756e-06,0,-6.34909e-06,-1.24913e+09,-1.24824e+09,-1.24899e+09,-848556,-0.00343755,0.12987,-0,0.129915,2195.07,-44653.1,0,44707,848556
step02_gravity_refstate-mantle.xmf,518,-2.12279e-06,7.24809e-06,0,-9.14813e-06,-1.26045e+09,-1.2592e+09,-1.26017e+09,-1.22265e+06,-0.00227101,0.148413,-0,0.14843,1000,-45000.2,0,45011.3,1.22265e+06
step02_gravity_refstate-mantle.xmf,519,-7.06714e-07,4.77961e-06,0,-5.60801e-06,-1.23878e+09,-1.23804e+09,-1.23868e+09,-749511,-0.00296569,0.125,-0,0.125035,2639.26,-44333.8,0,44412.3,749511
step02_gravity_refstate-mantle.xmf,520,-1.92069e-07,3.32131e-06,0,-3.4308e-06,-1.21047e+09,-1.21001e+09,-1.21045e+09,-458526,-0.000700727,0.108652,-0,0.108654,4265.82,-43459.3,0,43668.2,458526
step02_gravity_refstate-mantle.xmf,521,-4.46812e-07,4.18433e-06,0,-4.82668e-06,-1.23015e+09,-1.22953e+09,-1.23009e+09,-645086,-0.00245072,0.119329,-0,0.119354,3149.98,-44067.6,0,44180,645086
step02_gravity_refstate-mantle.xmf,522,-2.851e-07,3.74724e-06,0,-4.09149e-06,-1.2225e+09,-1.22196e+09,-1.22246e+09,-546827,-0.00187178,0.113592,-0,0.113607,3698,-43831.3,0,43987,546827
step02_gravity_refstate-mantle.xmf,523,-1.97058e-07,3.1072e-06,0,-2.39257e-06,-1.20702e+09,-1.20658e+09,-1.207e+09,-319767,-0.00054085,0.0974663,-0,0.0974678,5493.93,-43352.1,0,43698.9,319767
step02_gravity_refstate-mantle.xmf,524,-2.40864e-07,2.57561e-06,0,-1.23883e-07,-1.19479e+09,-1.19441e+09,-1.19476e+09,-16557,-0.00218651,0.0545372,-0,0.054581,15502.8,-42972.6,0,45683.5,16557
step02_gravity_refstate-mantle.xmf,525,-5.10562e-07,2.66096e-06,0,-4.06603e-07,-1.16307e+09,-1.16265e+09,-1.163e+09,-54342.5,0.00109793,0.0656991,0,0.0657082,12238.2,-41991.1,0,43738.2,54342.5
step02_gravity_refstate-mantle.xmf,526,-3.27392e-07,2.63938e-06,0,-2.56846e-07,-1.18702e+09,-1.18662e+09,-1.18697e+09,-34327.4,-0.0011825,0.0595513,-0,0.0595631,13663,-42732.1,0,44863.2,34327.4
step02_gravity_refstate-mantle.xmf,527,-4.12176e-07,2.76094e-06,0,-7.37163e-07,-1.18434e+09,-1.18392e+09,-1.18429e+09,-98521.9,0.000479782,0.0730676,0,0.0730692,9811.44,-42649.2,0,43763.2,98521.9
step02_gravity_refstate-mantle.xmf,528,-1.84969e-07,3.00146e-06,0,-1.39426e-06,-1.21561e+09,-1.21519e+09,-1.21559e+09,-186342,-0.00184988,0.0821452,-0,0.0821661,7522.86,-43617.2,0,44261.2,186342
step02_gravity_refstate-mantle.xmf,529,-2.63045e-07,2.9019e-06,0,-1.18302e-06,-1.20425e+09,-1.20383e+09,-1.20422e+09,-158110,-0.00083363,0.0799218,-0,0.0799261,8082.21,-43265.5,0,44014,158110
step02_gravity_refstate-mantle.xmf,530,-2.81222e-07,2.84985e-06,0,-9.53568e-07,-1.20252e+09,-1.2021e+09,-1.20249e+09,-127444,-0.000891356,0.0757078,-0,0.075713,8910.06,-43211.9,0,44120.9,127444
step02_gravity_refstate-mantle.xmf,531,4.09797e-07,2.27547e-06,0,1.41488e-07,-1.33349e+09,-1.33324e+09,-1.33354e+09,18909.8,-0.00576886,0.0316583,-0,0.0321796,27311.4,-47260.5,0,54584.5,18909.8
step02_gravity_refstate-mantle.xmf,532,3.3655e-07,2.29844e-06,0,1.42752e-07,-1.3076e+09,-1.30734e+09,-1.30765e+09,19078.8,-0.00578113,0.034226,-0,0.0347108,25697.7,-46460.5,0,53093.7,19078.8
step02_gravity_refstate-mantle.xmf,533,-1.45669e-07,2.54579e-06,0,-5.97703e-08,-1.20953e+09,-1.20917e+09,-1.20951e+09,-7988.3,-0.00320719,0.0512361,-0,0.0513364,16581.3,-43428.4,0,46486.2,7988.3
step02_gravity_refstate-mantle.xmf,534,-8.44069e-08,2.45423e-06,0,2.12576e-08,-1.20648e+09,-1.20614e+09,-1.20647e+09,2841.08,-0.00332521,0.0477973,-0,0.0479128,18863.3,-43334.3,0,47261.9,2841.08
step02_gravity_refstate-mantle.xmf,535,2.6903e-07,2.33022e-06,0,1.36322e-07,-1.28827e+09,-1.288e+09,-1.28831e+09,18219.4,-0.00573837,0.0365257,-0,0.0369737,24137.6,-45863,0,51827,18219.4
step02_gravity_refstate-mantle.xmf,536,2.01905e-07,2.36288e-06,0,1.22651e-07,-1.27143e+09,-1.27114e+09,-1.27146e+09,16392.4,-0.00555373,0.0387655,-0,0.0391613,22745.3,-45342.4,0,50727.6,16392.4
step02_gravity_refstate-mantle.xmf,537,2.14778e-08,2.42388e-06,0,6.69141e-08,-1.22933e+09,-1.22901e+09,-1.22933e+09,8943.08,-0.00433139,0.0444477,-0,0.0446582,20129.7,-44040.8,0,48423.1,8943.08
step02_gravity_refstate-mantle.xmf,538,1.22816e-07,2.39374e-06,0,1.01024e-07,-1.25243e+09,-1.25213e+09,-1.25245e+09,13501.8,-0.00511603,0.0413202,-0,0.0416357,21442.5,-44755.1,0,49626.6,13501.8
step02_gravity_refstate-mantle.xmf,539,6.68825e-07,2.29427e-06,0,8.54264e-08,-1.47717e+09,-1.47695e+09,-1.47726e+09,11417.2,-0.00505273,0.0202937,-0,0.0209132,32459.4,-51700.6,0,61045.6,11417.2
step02_gravity_refstate-mantle.xmf,540,8.10309e-07,2.43457e-06,0,3.13348e-08,-1.63184e+09,-1.63162e+09,-1.63195e+09,4187.89,-0.00428002,0.00884865,-0,0.0098294,34697.3,-56479.7,0,66286.2,4187.89
step02_gravity_refstate-mantle.xmf,541,4.89647e-08,3.10225e-06,0,1.0051e-06,-1.26522e+09,-1.26482e+09,-1.26523e+09,134332,0.0064659,0.0686554,0,0.0689592,-9177.2,-45151.6,-0,46074.8,134332
step02_gravity_refstate-mantle.xmf,542,9.85855e-08,3.07372e-06,0,8.42036e-07,-1.27901e+09,-1.27862e+09,-1.27903e+09,112538,0.00747753,0.0637427,0,0.0641798,-10002.4,-45577.8,-0,46662.5,112538
step02_gravity_refstate-mantle.xmf,543,-2.06825e-06,7.33085e-06,0,7.89298e-06,-1.26745e+09,-1.2662e+09,-1.26718e+09,1.0549e+06,0.00348708,0.13923,0,0.139274,-1405.96,-45217.1,-0,45238.9,1.0549e+06
step02_gravity_refstate-mantle.xmf,544,-1.83414e-06,7.17048e-06,0,6.76322e-06,-1.27374e+09,-1.27254e+09,-1.2735e+09,903905,0.00470879,0.130857,0,0.130942,-1821.97,-45412.6,-0,45449.1,903905
step02_gravity_refstate-mantle.xmf,545,-1.53651e-06,6.85162e-06,0,5.79741e-06,-1.27981e+09,-1.27869e+09,-1.27961e+09,774824,0.00587711,0.123179,0,0.123319,-2249.19,-45601.3,-0,45656.7,774824
step02_gravity_refstate-mantle.xmf,546,-1.72928e-07,4.11299e-06,0,2.89021e-06,-1.26367e+09,-1.26309e+09,-1.26364e+09,386277,0.0063019,0.0962225,0,0.0964286,-4912.73,-45104.5,-0,45371.3,386277
step02_gravity_refstate-mantle.xmf,547,-7.97985e-09,3.73403e-06,0,2.15163e-06,-1.27066e+09,-1.27016e+09,-1.27066e+09,287565,0.00704604,0.0857341,0,0.0860232,-6127.25,-45320.7,-0,45733,287565
step02_gravity_refstate-mantle.xmf,548,6.97405e-08,3.62723e-06,0,1.79962e-06,-1.28352e+09,-1.28304e+09,-1.28353e+09,240520,0.00812159,0.0788858,0,0.0793028,-6932.07,-45718.2,-0,46240.7,240520
step02_gravity_refstate-mantle.xmf,549,1.02724e-07,3.29969e-06,0,1.25863e-06,-1.28127e+09,-1.28084e+09,-1.28128e+09,168216,0.00781105,0.0708201,0,0.0712496,-8404.45,-45648.1,-0,46415.3,168216
step02_gravity_refstate-mantle.xmf,550,-1.19716e-06,6.46088e-06,0,4.94531e-06,-1.28734e+09,-1.28632e+09,-1.28718e+09,660941,0.00709595,0.115479,0,0.115697,-2715.56,-45835,-0,45915.4,660941
step02_gravity_refstate-mantle.xmf,551,1.01267e-07,2.92227e-06,0,5.27982e-07,-1.28079e+09,-1.28041e+09,-1.2808e+09,70564.9,0.00743802,0.0573212,0,0.0578018,-11712.9,-45632.2,-0,47111.5,70564.9
step02_gravity_refstate-mantle.xmf,552,2.60157e-07,2.83454e-06,0,2.34015e-07,-1.33114e+09,-1.33079e+09,-1.33117e+09,31276.2,0.0098803,0.0450074,0,0.0460791,-14663.5,-47188.4,-0,49414.2,31276.2
step02_gravity_refstate-mantle.xmf,553,2.11781e-07,2.87206e-06,0,3.26314e-07,-1.31498e+09,-1.31463e+09,-1.31501e+09,43611.8,0.00925794,0.0488355,0,0.0497053,-13616.3,-46689.1,-0,48634.1,43611.8
step02_gravity_refstate-mantle.xmf,554,1.62369e-07,2.90358e-06,0,4.25874e-07,-1.29913e+09,-1.29876e+09,-1.29915e+09,56918.1,0.00850458,0.0528399,0,0.05352,-12641.2,-46199.1,-0,47897.4,56918.1
step02_gravity_refstate-mantle.xmf,555,6.11598e-07,2.54857e-06,0,-9.59862e-08,-1.46658e+09,-1.46633e+09,-1.46667e+09,-12828.6,0.0109504,0.0237772,0,0.0261776,-23081.9,-51373.9,-0,56321,12828.6
step02_gravity_refstate-mantle.xmf,556,7.46531e-07,2.53006e-06,0,-8.33504e-08,-1.55766e+09,-1.55742e+09,-1.55776e+09,-11139.8,0.0104228,0.0154621,0,0.0186471,-26183.9,-54188.1,-0,60182.7,11139.8
step02_gravity_refstate-mantle.xmf,557,7.08693e-07,2.55903e-06,0,-8.67274e-08,-1.53126e+09,-1.53101e+09,-1.53135e+09,-11591.1,0.0111446,0.0179801,0,0.0211539,-24669.3,-53372.3,-0,58797.8,11591.1
step02_gravity_refstate-mantle.xmf,558,8.1756e-07,2.5847e-06,0,-4.72489e-08,-1.64298e+09,-1.64275e+09,-1.64309e+09,-6314.81,0.00996418,0.00844558,0,0.0130619,-27793.2,-56824.3,-0,63257.2,6314.81
step02_gravity_refstate-mantle.xmf,559,8.47173e-07,2.70146e-06,0,7.22682e-10,-1.74577e+09,-1.74552e+09,-1.74589e+09,96.5864,0.00939801,-5.28425e-20,0,0.00939801,-28846.4,-60000,-0,66574.1,96.5864
step02_gravity_refstate-mantle.xmf,560,-1.53751e-06,6.39902e-06,0,-7.0599e-06,-1.25878e+09,-1.25772e+09,-1.25858e+09,-943556,-0.00364421,0.134266,-0,0.134315,1804.96,-44950.4,0,44986.6,943556
step02_gravity_refstate-mantle.xmf,561,-2.08539e-06,7.36301e-06,0,-7.89176e-06,-1.26793e+09,-1.26667e+09,-1.26765e+09,-1.05473e+06,-0.00351035,0.139163,-0,0.139208,1403.67,-45231.7,0,45253.5,1.05473e+06
step02_gravity_refstate-mantle.xmf,562,-1.85468e-07,3.40169e-06,0,-2.87711e-06,-1.22031e+09,-1.21984e+09,-1.22029e+09,-384525,-0.00190016,0.101486,-0,0.101504,4888.64,-43763.5,0,44035.7,384525
step02_gravity_refstate-mantle.xmf,563,-1.66088e-07,3.1546e-06,0,-2.00838e-06,-1.21749e+09,-1.21704e+09,-1.21746e+09,-268419,-0.00180946,0.0910961,-0,0.0911141,6168.44,-43675.7,0,44109.1,268419
step02_gravity_refstate-mantle.xmf,564,-4.1225e-07,2.70574e-06,0,-4.74776e-07,-1.18083e+09,-1.18041e+09,-1.18077e+09,-63453.8,7.36137e-05,0.0666942,0,0.0666942,11504.7,-42540.5,0,44068.7,63453.8
step02_gravity_refstate-mantle.xmf,565,-3.30456e-07,2.68525e-06,0,-3.52933e-07,-1.19214e+09,-1.19174e+09,-1.1921e+09,-47169.5,-0.00116774,0.0623596,-0,0.0623705,12535.6,-42890.4,0,44684.8,47169.5
step02_gravity_refstate-mantle.xmf,566,-1.7358e-07,2.64306e-06,0,-1.90037e-07,-1.21496e+09,-1.21458e+09,-1.21493e+09,-25398.4,-0.00316307,0.0555326,-0,0.0556226,14345.5,-43596.2,0,45895.8,25398.4
step02_gravity_refstate-mantle.xmf,567,-3.09556e-07,2.76594e-06,0,-5.91487e-07,-1.19852e+09,-1.19811e+09,-1.19848e+09,-79052.2,-0.00107035,0.0682129,-0,0.0682213,10690.2,-43088,0,44394.3,79052.2
step02_gravity_refstate-mantle.xmf,568,-1.13642e-07,3.16899e-06,0,-1.6967e-06,-1.2288e+09,-1.22836e+09,-1.22879e+09,-226763,-0.00308468,0.0850839,-0,0.0851398,6862.79,-44025.6,0,44557.2,226763
step02_gravity_refstate-mantle.xmf,569,-1.42575e-07,2.98777e-06,0,-1.15342e-06,-1.22448e+09,-1.22406e+09,-1.22446e+09,-154154,-0.00284589,0.0768657,-0,0.0769184,8303.44,-43891.4,0,44669.9,154154
step02_gravity_refstate-mantle.xmf,570,-3.67557e-08,2.51594e-06,0,-2.10479e-09,-1.2283e+09,-1.22795e+09,-1.22829e+09,-281.305,-0.00426453,0.0478058,-0,0.0479957,17730,-44008.8,0,47446,281.305
step02_gravity_refstate-mantle.xmf,571,6.24415e-07,2.29487e-06,0,1.07639e-07,-1.4468e+09,-1.44658e+09,-1.44688e+09,14386,-0.00587511,0.0227148,-0,0.0234623,30688.3,-50762.2,0,59317.6,14386
step02_gravity_refstate-mantle.xmf,572,5.75168e-07,2.30325e-06,0,1.25534e-07,-1.41845e+09,-1.41822e+09,-1.41853e+09,16777.6,-0.00648147,0.0250939,-0,0.0259174,29019,-49886.1,0,57712.5,16777.6
step02_gravity_refstate-mantle.xmf,573,5.1889e-07,2.31828e-06,0,1.38255e-07,-1.3908e+09,-1.39056e+09,-1.39087e+09,18477.8,-0.00688864,0.0275591,-0,0.028407,27393.9,-49031.6,0,56165.2,18477.8
step02_gravity_refstate-mantle.xmf,574,7.45466e-07,2.3583e-06,0,6.73543e-08,-1.54461e+09,-1.54439e+09,-1.54471e+09,9001.9,-0.00548249,0.0154292,-0,0.0163743,32617.2,-53784.5,0,62901.9,9001.9
step02_gravity_refstate-mantle.xmf,575,8.05529e-07,2.44148e-06,0,4.45715e-08,-1.61989e+09,-1.61967e+09,-1.62e+09,5956.99,-0.00577959,0.00983392,-0,0.0114066,32787.1,-56110.6,0,64987.6,5956.99
step02_gravity_refstate-mantle.xmf,576,8.3496e-07,2.51527e-06,0,1.91242e-08,-1.68699e+09,-1.68677e+09,-1.6871e+09,2555.95,-0.00498823,0.00464978,-0,0.0068193,33995.7,-58183.7,0,67387.3,2555.95
step02_gravity_refstate-mantle.xmf,577,8.41252e-07,2.591e-06,0,-1.25935e-09,-1.74578e+09,-1.74555e+09,-1.7459e+09,-168.312,-0.00400225,-4.52553e-19,-0,0.00400225,35227.2,-60000,0,69577,168.312
step02_gravity_refstate-mantle.xmf,578,1.49286e-07,3.04776e-06,0,7.01688e-07,-1.29416e+09,-1.29377e+09,-1.29418e+09,93780.5,0.00845491,0.0590693,0,0.0596713,-10844.1,-46046,-0,47305.7,93780.5
step02_gravity_refstate-mantle.xmf,579,-2.7064e-06,8.42251e-06,0,8.88257e-06,-1.27664e+09,-1.27515e+09,-1.27628e+09,1.18716e+06,0.0030118,0.144502,0,0.144533,-1000,-45499.4,-0,45510.4,1.18716e+06
step02_gravity_refstate-mantle.xmf,580,-8.67776e-08,4.013e-06,0,2.55787e-06,-1.27232e+09,-1.27177e+09,-1.2723e+09,341859,0.00715783,0.0909431,0,0.0912243,-5412.75,-45372,-0,45693.8,341859
step02_gravity_refstate-mantle.xmf,581,1.22515e-07,3.55177e-06,0,1.54479e-06,-1.29646e+09,-1.296e+09,-1.29647e+09,206462,0.00907023,0.073147,0,0.0737072,-7663.5,-46118,-0,46750.4,206462
step02_gravity_refstate-mantle.xmf,582,-3.13096e-07,4.61486e-06,0,3.32336e-06,-1.27486e+09,-1.27421e+09,-1.27482e+09,444168,0.00717872,0.0999274,0,0.100185,-4342.51,-45450.8,-0,45657.8,444168
step02_gravity_refstate-mantle.xmf,583,-5.38043e-07,5.2622e-06,0,3.75853e-06,-1.28613e+09,-1.28535e+09,-1.28606e+09,502328,0.00789224,0.103814,0,0.104114,-3773.41,-45798.9,-0,45954.1,502328
step02_gravity_refstate-mantle.xmf,584,-8.46521e-07,6.02766e-06,0,4.20292e-06,-1.29637e+09,-1.29545e+09,-1.29626e+09,561721,0.00831978,0.107711,0,0.108031,-3234.63,-46115.2,-0,46228.5,561721
step02_gravity_refstate-mantle.xmf,585,3.09023e-07,2.79612e-06,0,1.55232e-07,-1.34788e+09,-1.34755e+09,-1.34792e+09,20746.7,0.0103961,0.0414514,0,0.0427352,-15730.7,-47705.8,-0,50232.5,20746.7
step02_gravity_refstate-mantle.xmf,586,5.62147e-07,2.58408e-06,0,-8.09814e-08,-1.44332e+09,-1.44305e+09,-1.4434e+09,-10823.2,0.0111594,0.0264294,0,0.0286887,-21758.1,-50655.1,-0,55130.3,10823.2
step02_gravity_refstate-mantle.xmf,587,5.10086e-07,2.62499e-06,0,-5.48067e-08,-1.42129e+09,-1.421e+09,-1.42136e+09,-7324.92,0.0112452,0.0292232,0,0.0313121,-20438.3,-49974.2,-0,53992.1,7324.92
step02_gravity_refstate-mantle.xmf,588,4.56316e-07,2.66609e-06,0,-1.85844e-08,-1.39995e+09,-1.39966e+09,-1.40002e+09,-2483.8,0.0111669,0.0321808,0,0.0340632,-19178.9,-49315,-0,52913.1,2483.8
step02_gravity_refstate-mantle.xmf,589,4.03777e-07,2.70792e-06,0,2.81643e-08,-1.38038e+09,-1.38008e+09,-1.38044e+09,3764.16,0.0109728,0.0352197,0,0.0368894,-17978.9,-48710.2,-0,51922.3,3764.16
step02_gravity_refstate-mantle.xmf,590,3.54691e-07,2.75027e-06,0,8.50063e-08,-1.36308e+09,-1.36276e+09,-1.36312e+09,11361.1,0.0107038,0.0382844,0,0.0397525,-16844.1,-48175.4,-0,51035.2,11361.1
step02_gravity_refstate-mantle.xmf,591,6.72123e-07,2.60765e-06,0,-7.77004e-08,-1.51261e+09,-1.51235e+09,-1.5127e+09,-10384.7,0.0118576,0.0200713,0,0.0233123,-23160.6,-52796.1,-0,57652.7,10384.7
step02_gravity_refstate-mantle.xmf,592,7.92247e-07,2.60231e-06,0,-5.87092e-08,-1.61355e+09,-1.61331e+09,-1.61366e+09,-7846.48,0.0110021,0.011022,0,0.0155734,-26223.5,-55915.1,-0,61759,7846.48
step02_gravity_refstate-mantle.xmf,593,8.37915e-07,2.67417e-06,0,-2.16154e-08,-1.69994e+09,-1.69969e+09,-1.70005e+09,-2888.9,0.0104212,0.00383717,0,0.0111052,-27556.9,-58584,-0,64741.6,2888.9
step02_gravity_refstate-mantle.xmf,594,-9.21597e-07,5.39e-06,0,-5.43469e-06,-1.25448e+09,-1.25363e+09,-1.25435e+09,-726346,-0.00434791,0.122212,-0,0.122289,2662.46,-44818.9,0,44897.9,726346
step02_gravity_refstate-mantle.xmf,595,-1.33842e-06,6.22175e-06,0,-6.05824e-06,-1.26461e+09,-1.2636e+09,-1.26443e+09,-809684,-0.00470071,0.126378,-0,0.126465,2240.31,-45131.2,0,45186.8,809684
step02_gravity_refstate-mantle.xmf,596,-2.70951e-06,8.42269e-06,0,-8.88509e-06,-1.27664e+09,-1.27515e+09,-1.27628e+09,-1.18749e+06,-0.00301159,0.144502,-0,0.144533,1000,-45499.4,0,45510.4,1.18749e+06
step02_gravity_refstate-mantle.xmf,597,-6.26594e-07,4.74149e-06,0,-4.90043e-06,-1.24454e+09,-1.24382e+09,-1.24446e+09,-654943,-0.00376181,0.118622,-0,0.118681,3050.42,-44512.3,0,44616.7,654943
step02_gravity_refstate-mantle.xmf,598,-2.52959e-07,3.79847e-06,0,-3.43089e-06,-1.23234e+09,-1.2318e+09,-1.23231e+09,-458538,-0.00305707,0.106026,-0,0.106071,4286.87,-44135.5,0,44343.2,458538
step02_gravity_refstate-mantle.xmf,599,-4.40878e-07,4.38493e-06,0,-4.12737e-06,-1.24399e+09,-1.24334e+09,-1.24393e+09,-551624,-0.00401398,0.111713,-0,0.111785,3627.08,-44495.5,0,44643.1,551624
step02_gravity_refstate-mantle.xmf,600,-1.41283e-07,3.4242e-06,0,-2.42132e-06,-1.23085e+09,-1.23038e+09,-1.23083e+09,-323609,-0.00313202,0.0947526,-0,0.0948044,5530.69,-44089.4,0,44434.9,323609
step02_gravity_refstate-mantle.xmf,601,-7.52818e-08,2.61172e-06,0,-1.07023e-07,-1.23209e+09,-1.23173e+09,-1.23208e+09,-14303.6,-0.00433573,0.0514677,-0,0.05165,15540.1,-44125.9,0,46782.4,14303.6
step02_gravity_refstate-mantle.xmf,602,-2.13034e-07,2.69068e-06,0,-2.95478e-07,-1.21156e+09,-1.21117e+09,-1.21153e+09,-39490.7,-0.00270646,0.0589729,-0,0.059035,13137.2,-43491,0,45431.9,39490.7
step02_gravity_refstate-mantle.xmf,603,-2.05828e-07,2.84869e-06,0,-7.5473e-07,-1.21598e+09,-1.21557e+09,-1.21595e+09,-100870,-0.00234798,0.0700675,-0,0.0701068,9869.7,-43628.1,0,44730.6,100870
step02_gravity_refstate-mantle.xmf,604,-5.71553e-08,3.15976e-06,0,-1.42251e-06,-1.24078e+09,-1.24035e+09,-1.24077e+09,-190118,-0.00431886,0.0792757,-0,0.0793933,7601.66,-44395.8,0,45041.9,190118
step02_gravity_refstate-mantle.xmf,605,4.5649e-07,2.33933e-06,0,1.43913e-07,-1.36434e+09,-1.36409e+09,-1.3644e+09,19233.9,-0.00709862,0.0301014,-0,0.0309271,25816.3,-48213.9,0,54690.6,19233.9
step02_gravity_refstate-mantle.xmf,606,3.89735e-07,2.36585e-06,0,1.41491e-07,-1.33982e+09,-1.33956e+09,-1.33987e+09,18910.3,-0.00712978,0.0326875,-0,0.033456,24292.1,-47456.3,0,53312.3,18910.3
step02_gravity_refstate-mantle.xmf,607,1.37331e-08,2.58244e-06,0,-4.44769e-08,-1.24945e+09,-1.2491e+09,-1.24945e+09,-5944.34,-0.00531296,0.0479501,-0,0.0482435,16648.2,-44662.7,0,47664.6,5944.34
step02_gravity_refstate-mantle.xmf,608,7.23322e-08,2.48865e-06,0,4.6585e-08,-1.25192e+09,-1.25159e+09,-1.25193e+09,6226.09,-0.00533837,0.0442539,-0,0.0445747,18915.3,-44739.1,0,48573.4,6226.09
step02_gravity_refstate-mantle.xmf,609,3.25774e-07,2.39688e-06,0,1.31229e-07,-1.31976e+09,-1.31949e+09,-1.31981e+09,17538.8,-0.00705349,0.0351041,-0,0.0358058,22882.1,-46836.4,0,52127.1,17538.8
step02_gravity_refstate-mantle.xmf,610,2.54946e-07,2.42931e-06,0,1.12717e-07,-1.29964e+09,-1.29935e+09,-1.29968e+09,15064.6,-0.00678642,0.0377256,-0,0.0383312,21522.7,-46214.4,0,50980.3,15064.6
step02_gravity_refstate-mantle.xmf,611,1.67356e-07,2.46046e-06,0,8.46117e-08,-1.27642e+09,-1.27611e+09,-1.27644e+09,11308.3,-0.00620814,0.0408314,-0,0.0413007,20183.1,-45496.6,0,49772.5,11308.3
step02_gravity_refstate-mantle.xmf,612,7.09222e-07,2.35299e-06,0,9.00112e-08,-1.51146e+09,-1.51124e+09,-1.51155e+09,12030,-0.00651279,0.0180507,-0,0.0191897,30815,-52760.2,0,61100,12030
step02_gravity_refstate-mantle.xmf,613,1.48045e-07,3.25398e-06,0,1.07129e-06,-1.29488e+09,-1.29446e+09,-1.2949e+09,143178,0.00874326,0.0656026,0,0.0661827,-9207.53,-46068.5,-0,46979.7,143178
step02_gravity_refstate-mantle.xmf,614,1.8662e-07,3.21116e-06,0,9.04413e-07,-1.30902e+09,-1.30861e+09,-1.30904e+09,120875,0.00959063,0.0606842,0,0.0614374,-10037.9,-46505.6,-0,47576.6,120875
step02_gravity_refstate-mantle.xmf,615,-2.49791e-06,8.31799e-06,0,7.52055e-06,-1.28341e+09,-1.28196e+09,-1.28308e+09,1.00512e+06,0.00444884,0.135263,0,0.135337,-1412.48,-45709.6,-0,45731.4,1.00512e+06
step02_gravity_refstate-mantle.xmf,616,-2.10878e-06,7.95025e-06,0,6.37102e-06,-1.28978e+09,-1.28844e+09,-1.2895e+09,851487,0.00583171,0.126953,0,0.127087,-1832.17,-45908.2,-0,45944.7,851487
step02_gravity_refstate-mantle.xmf,617,-1.69556e-06,7.48514e-06,0,5.42926e-06,-1.29726e+09,-1.29603e+09,-1.29703e+09,725620,0.00716812,0.119205,0,0.119421,-2257.05,-46140.7,-0,46195.9,725620
step02_gravity_refstate-mantle.xmf,618,-1.66568e-07,4.40296e-06,0,2.86841e-06,-1.28388e+09,-1.28327e+09,-1.28386e+09,383363,0.0080984,0.0933457,0,0.0936964,-4937.53,-45729.8,-0,45995.6,383363
step02_gravity_refstate-mantle.xmf,619,-4.91436e-08,4.17924e-06,0,2.48099e-06,-1.29099e+09,-1.29043e+09,-1.29098e+09,331584,0.00875205,0.0873168,0,0.0877543,-5574.9,-45949.6,-0,46286.5,331584
step02_gravity_refstate-mantle.xmf,620,4.267e-08,3.97617e-06,0,2.12622e-06,-1.2987e+09,-1.29818e+09,-1.29871e+09,284169,0.00935866,0.0812892,0,0.0818262,-6285.77,-46188,-0,46613.7,284169
step02_gravity_refstate-mantle.xmf,621,1.04909e-07,3.86168e-06,0,1.85231e-06,-1.31097e+09,-1.31047e+09,-1.31098e+09,247562,0.0102054,0.0754478,0,0.0761349,-6974.59,-46566.9,-0,47086.3,247562
step02_gravity_refstate-mantle.xmf,622,1.65992e-07,3.48983e-06,0,1.33284e-06,-1.31055e+09,-1.31011e+09,-1.31057e+09,178134,0.00997926,0.0676692,0,0.0684011,-8419.91,-46553.5,-0,47308.8,178134
step02_gravity_refstate-mantle.xmf,623,-1.25525e-06,6.92681e-06,0,4.65308e-06,-1.30582e+09,-1.30473e+09,-1.30565e+09,621885,0.00846689,0.111461,0,0.111782,-2731.54,-46406.6,-0,46487,621885
step02_gravity_refstate-mantle.xmf,624,2.27255e-07,3.05262e-06,0,5.86558e-07,-1.32138e+09,-1.321e+09,-1.32141e+09,78393.5,0.0100135,0.0532449,0,0.0541783,-11815.6,-46887.2,-0,48353.1,78393.5
step02_gravity_refstate-mantle.xmf,625,3.40477e-07,2.93438e-06,0,2.69916e-07,-1.3696e+09,-1.36925e+09,-1.36964e+09,36074.3,0.011724,0.0414643,0,0.04309,-14718.8,-48377.1,-0,50566.6,36074.3
step02_gravity_refstate-mantle.xmf,626,2.99522e-07,2.97757e-06,0,3.65679e-07,-1.35282e+09,-1.35246e+09,-1.35286e+09,48873.1,0.0112467,0.0452162,0,0.0465939,-13698.7,-47858.6,-0,49780.6,48873.1
step02_gravity_refstate-mantle.xmf,627,2.62474e-07,3.01947e-06,0,4.73587e-07,-1.33716e+09,-1.33679e+09,-1.33719e+09,63294.9,0.0106989,0.0491344,0,0.0502857,-12721.6,-47374.8,-0,49053.1,63294.9
step02_gravity_refstate-mantle.xmf,628,6.27139e-07,2.64999e-06,0,-6.23413e-08,-1.48963e+09,-1.48936e+09,-1.48971e+09,-8331.92,0.0122574,0.0226513,0,0.0257552,-21809,-52086.1,-0,56467.7,8331.92
step02_gravity_refstate-mantle.xmf,629,7.59852e-07,2.63223e-06,0,-6.34227e-08,-1.58597e+09,-1.58572e+09,-1.58607e+09,-8476.45,0.01189,0.0135815,0,0.0180507,-24702.6,-55063,-0,60350.3,8476.45
step02_gravity_refstate-mantle.xmf,630,7.22096e-07,2.67397e-06,0,-5.89572e-08,-1.56128e+09,-1.56102e+09,-1.56138e+09,-7879.63,0.0126279,0.0160615,0,0.0204312,-23250.8,-54300.3,-0,59068.8,7879.63
step02_gravity_refstate-mantle.xmf,631,8.20524e-07,2.68447e-06,0,-3.35798e-08,-1.66825e+09,-1.668e+09,-1.66836e+09,-4487.94,0.011487,0.00657006,0,0.0132332,-26113.8,-57605.1,-0,63247.8,4487.94
step02_gravity_refstate-mantle.xmf,632,8.3996e-07,2.76806e-06,0,3.29249e-10,-1.74577e+09,-1.74551e+09,-1.74588e+09,44.0041,0.0110348,-3.77806e-20,0,0.0110348,-26905.6,-60000,-0,65756.4,44.0041
step02_gravity_refstate-mantle.xmf,633,-1.87708e-06,7.23042e-06,0,-6.73298e-06,-1.27487e+09,-1.27365e+09,-1.27462e+09,-899863,-0.00478343,0.130633,-0,0.130721,1820.31,-45447.3,0,45483.7,899863
step02_gravity_refstate-mantle.xmf,634,-2.52748e-06,8.37722e-06,0,-7.51377e-06,-1.28425e+09,-1.2828e+09,-1.28392e+09,-1.00421e+06,-0.00448721,0.135128,-0,0.135202,1407.68,-45735.6,0,45757.3,1.00421e+06
step02_gravity_refstate-mantle.xmf,635,-1.80621e-07,3.77456e-06,0,-2.87952e-06,-1.24271e+09,-1.24218e+09,-1.24269e+09,-384848,-0.00426076,0.0987635,-0,0.0988554,4914.46,-44456.3,0,44727.1,384848
step02_gravity_refstate-mantle.xmf,636,-7.59483e-08,3.42004e-06,0,-2.05053e-06,-1.24299e+09,-1.24252e+09,-1.24298e+09,-274054,-0.0044439,0.0883137,-0,0.0884254,6193.83,-44464.8,0,44894.1,274054
step02_gravity_refstate-mantle.xmf,637,-2.19134e-07,2.75752e-06,0,-4.66246e-07,-1.21276e+09,-1.21236e+09,-1.21273e+09,-62313.8,-0.00245831,0.0636634,-0,0.0637109,11600.2,-43528.4,0,45047.6,62313.8
step02_gravity_refstate-mantle.xmf,638,-1.35734e-07,2.74637e-06,0,-3.68e-07,-1.22807e+09,-1.22768e+09,-1.22805e+09,-49183.2,-0.00375029,0.0595341,-0,0.0596521,12472.8,-44001.6,0,45735.3,49183.2
step02_gravity_refstate-mantle.xmf,639,-6.44947e-08,2.72201e-06,0,-2.72752e-07,-1.24111e+09,-1.24074e+09,-1.2411e+09,-36453.3,-0.00473905,0.0556723,-0,0.0558737,13438.3,-44404.9,0,46393.8,36453.3
step02_gravity_refstate-mantle.xmf,640,2.63651e-09,2.68801e-06,0,-1.8193e-07,-1.25416e+09,-1.2538e+09,-1.25416e+09,-24315,-0.00559166,0.051869,-0,0.0521696,14528.4,-44808.3,0,47104.8,24315
step02_gravity_refstate-mantle.xmf,641,-1.22065e-07,2.84209e-06,0,-6.07811e-07,-1.23073e+09,-1.23034e+09,-1.23072e+09,-81233.9,-0.00372673,0.0651487,-0,0.0652552,10760.4,-44084.3,0,45378.6,81233.9
step02_gravity_refstate-mantle.xmf,642,-6.71393e-09,3.39399e-06,0,-1.74751e-06,-1.25589e+09,-1.25543e+09,-1.25588e+09,-233554,-0.00571,0.0821252,-0,0.0823235,6894.53,-44863.5,0,45390.2,233554
step02_gravity_refstate-mantle.xmf,643,-9.09369e-08,2.96929e-06,0,-9.5164e-07,-1.23531e+09,-1.2349e+09,-1.23529e+09,-127187,-0.00393245,0.0716848,-0,0.0717926,9130.37,-44226.1,0,45158.7,127187
step02_gravity_refstate-mantle.xmf,644,-3.63642e-09,3.13112e-06,0,-1.19341e-06,-1.25238e+09,-1.25196e+09,-1.25238e+09,-159499,-0.00540004,0.0738358,-0,0.074033,8376.74,-44754.6,0,45531.8,159499
step02_gravity_refstate-mantle.xmf,645,1.09353e-07,2.55471e-06,0,6.16254e-09,-1.26977e+09,-1.26944e+09,-1.26978e+09,823.624,-0.0062511,0.0444902,-0,0.0449272,17771.7,-45290.9,0,48652.8,823.624
step02_gravity_refstate-mantle.xmf,646,6.67217e-07,2.35762e-06,0,1.09695e-07,-1.48033e+09,-1.4801e+09,-1.48042e+09,14660.7,-0.0073376,0.0206208,-0,0.0218874,29089.6,-51798.3,0,59407.7,14660.7
step02_gravity_refstate-mantle.xmf,647,6.19402e-07,2.37117e-06,0,1.24448e-07,-1.4512e+09,-1.45097e+09,-1.45128e+09,16632.5,-0.0079655,0.0231705,-0,0.0245014,27429.6,-50898.4,0,57818.9,16632.5
step02_gravity_refstate-mantle.xmf,648,5.6034e-07,2.38728e-06,0,1.34324e-07,-1.42043e+09,-1.42019e+09,-1.42051e+09,17952.4,-0.00830122,0.0259765,-0,0.0272707,25879.4,-49947.6,0,56254,17952.4
step02_gravity_refstate-mantle.xmf,649,7.76493e-07,2.42173e-06,0,6.68962e-08,-1.57783e+09,-1.57761e+09,-1.57793e+09,8940.67,-0.00698069,0.0131363,-0,0.0148759,30960.3,-54811.1,0,62950.7,8940.67
step02_gravity_refstate-mantle.xmf,650,8.38266e-07,2.54653e-06,0,2.35748e-08,-1.68815e+09,-1.68793e+09,-1.68827e+09,3150.77,-0.00675756,0.00461256,-0,0.00818171,31883.8,-58219.7,0,66378.5,3150.77
step02_gravity_refstate-mantle.xmf,651,8.45296e-07,2.61586e-06,0,-1.21967e-09,-1.74578e+09,-1.74554e+09,-1.74589e+09,-163.009,-0.00587843,-4.48561e-19,-0,0.00587843,33002,-60000,0,68477.2,163.009
step02_gravity_refstate-mantle.xmf,652,2.19682e-07,3.16835e-06,0,7.58572e-07,-1.3226e+09,-1.32221e+09,-1.32263e+09,101383,0.0102911,0.0562123,0,0.0571465,-10879.2,-46925.2,-0,48169.8,101383
step02_gravity_refstate-mantle.xmf,653,-3.27758e-06,9.65734e-06,0,8.48578e-06,-1.29283e+09,-1.2911e+09,-1.29239e+09,1.13412e+06,0.00378069,0.139987,0,0.140038,-1000,-45998.9,-0,46009.8,1.13412e+06
step02_gravity_refstate-mantle.xmf,654,1.46377e-07,3.76564e-06,0,1.61845e-06,-1.32312e+09,-1.32264e+09,-1.32314e+09,216306,0.0109393,0.0701602,0,0.0710079,-7657.99,-46942.3,-0,47562.8,216306
step02_gravity_refstate-mantle.xmf,655,-3.22189e-07,4.94581e-06,0,3.24584e-06,-1.29613e+09,-1.29542e+09,-1.29608e+09,433806,0.00894803,0.0964375,0,0.0968518,-4379.93,-46108.4,-0,46316,433806
step02_gravity_refstate-mantle.xmf,656,-5.55333e-07,5.61791e-06,0,3.62875e-06,-1.30715e+09,-1.30633e+09,-1.30708e+09,484983,0.00950186,0.0999738,0,0.100424,-3804.06,-46449.2,-0,46604.7,484983
step02_gravity_refstate-mantle.xmf,657,-8.76453e-07,6.3966e-06,0,4.04396e-06,-1.31536e+09,-1.31439e+09,-1.31524e+09,540476,0.00963344,0.104027,0,0.104472,-3237.85,-46702.5,-0,46814.6,540476
step02_gravity_refstate-mantle.xmf,658,3.84531e-07,2.88887e-06,0,1.85256e-07,-1.38728e+09,-1.38695e+09,-1.38734e+09,24759.4,0.0121079,0.037893,0,0.0397804,-15785.7,-48923.7,-0,51407.3,24759.4
step02_gravity_refstate-mantle.xmf,659,5.78941e-07,2.69657e-06,0,-3.57575e-08,-1.46729e+09,-1.46701e+09,-1.46737e+09,-4778.99,0.0125054,0.0253923,0,0.0283047,-20496.8,-51396,-0,55332.3,4778.99
step02_gravity_refstate-mantle.xmf,660,5.29233e-07,2.7461e-06,0,2.97707e-09,-1.44592e+09,-1.44562e+09,-1.44599e+09,397.885,0.0126111,0.0282875,0,0.0309713,-19227.4,-50735.5,-0,54256.6,397.885
step02_gravity_refstate-mantle.xmf,661,4.79053e-07,2.79312e-06,0,5.16317e-08,-1.42496e+09,-1.42465e+09,-1.42503e+09,6900.58,0.0125468,0.031358,0,0.033775,-18037.1,-50088,-0,53236.6,6900.58
step02_gravity_refstate-mantle.xmf,662,4.30311e-07,2.84015e-06,0,1.12169e-07,-1.40518e+09,-1.40485e+09,-1.40523e+09,14991.4,0.0123641,0.0345774,0,0.0367214,-16891.2,-49476.5,-0,52280.4,14991.4
step02_gravity_refstate-mantle.xmf,663,6.78813e-07,2.72339e-06,0,-4.42364e-08,-1.53756e+09,-1.53729e+09,-1.53765e+09,-5912.19,0.0132015,0.018643,0,0.0228439,-21861.7,-53567.2,-0,57856.6,5912.19
step02_gravity_refstate-mantle.xmf,664,7.93381e-07,2.71234e-06,0,-4.1237e-08,-1.64e+09,-1.63974e+09,-1.6401e+09,-5511.33,0.0124559,0.00912677,0,0.0154417,-24676.6,-56732.3,-0,61866.7,5511.33
step02_gravity_refstate-mantle.xmf,665,8.31218e-07,2.75675e-06,0,-1.50225e-08,-1.71416e+09,-1.7139e+09,-1.71427e+09,-2007.76,0.0117612,0.00271897,0,0.0120714,-25994.4,-59023.4,-0,64493.9,2007.76
step02_gravity_refstate-mantle.xmf,666,-7.18309e-07,5.14286e-06,0,-4.64848e-06,-1.25937e+09,-1.25859e+09,-1.25928e+09,-621269,-0.00518343,0.115049,-0,0.115166,3154.91,-44970.9,0,45081.5,621269
step02_gravity_refstate-mantle.xmf,667,-1.08715e-06,5.95371e-06,0,-5.19111e-06,-1.27071e+09,-1.26977e+09,-1.27057e+09,-693791,-0.00574189,0.11895,-0,0.119089,2693.52,-45320.8,0,45400.8,693791
step02_gravity_refstate-mantle.xmf,668,-1.55544e-06,6.90479e-06,0,-5.73166e-06,-1.28144e+09,-1.28031e+09,-1.28123e+09,-766036,-0.00601035,0.122733,-0,0.12288,2256.42,-45651.5,0,45707.2,766036
step02_gravity_refstate-mantle.xmf,669,-3.27887e-06,9.64565e-06,0,-8.49624e-06,-1.29283e+09,-1.29111e+09,-1.2924e+09,-1.13552e+06,-0.00378127,0.139988,-0,0.140039,1000,-45998.9,0,46009.8,1.13552e+06
step02_gravity_refstate-mantle.xmf,670,-2.95589e-07,4.2421e-06,0,-3.37771e-06,-1.25425e+09,-1.25364e+09,-1.25421e+09,-451431,-0.00526581,0.102994,-0,0.103129,4317.51,-44813.1,0,45020.6,451431
step02_gravity_refstate-mantle.xmf,671,-9.48048e-08,3.72911e-06,0,-2.44844e-06,-1.25453e+09,-1.25402e+09,-1.25452e+09,-327234,-0.00551934,0.0919978,-0,0.0921632,5547.08,-44822,0,45163.9,327234
step02_gravity_refstate-mantle.xmf,672,7.7912e-08,2.65843e-06,0,-1.09032e-07,-1.27066e+09,-1.27032e+09,-1.27067e+09,-14572.2,-0.00649266,0.0481772,-0,0.0486127,15613,-45318.7,0,47932.7,14572.2
step02_gravity_refstate-mantle.xmf,673,-3.18813e-08,2.95263e-06,0,-7.87359e-07,-1.24811e+09,-1.24771e+09,-1.2481e+09,-105230,-0.00506775,0.0668064,-0,0.0669984,9958.26,-44622,0,45719.6,105230
step02_gravity_refstate-mantle.xmf,674,5.17276e-08,3.3449e-06,0,-1.47523e-06,-1.26826e+09,-1.26782e+09,-1.26827e+09,-197164,-0.00679717,0.0762515,-0,0.0765539,7646.15,-45246.1,0,45887.6,197164
step02_gravity_refstate-mantle.xmf,675,5.00326e-07,2.41115e-06,0,1.34573e-07,-1.39349e+09,-1.39323e+09,-1.39356e+09,17985.7,-0.00847869,0.0286692,-0,0.0298967,24392,-49114.9,0,54838.4,17985.7
step02_gravity_refstate-mantle.xmf,676,4.41062e-07,2.44163e-06,0,1.26341e-07,-1.37068e+09,-1.37041e+09,-1.37074e+09,16885.5,-0.00854375,0.0312397,-0,0.0323869,22962.9,-48410.1,0,53580.1,16885.5
step02_gravity_refstate-mantle.xmf,677,1.48747e-07,2.6298e-06,0,-5.07664e-08,-1.28764e+09,-1.28731e+09,-1.28766e+09,-6784.92,-0.00725826,0.0448376,-0,0.0454213,16668.2,-45843.6,0,48779.7,6784.92
step02_gravity_refstate-mantle.xmf,678,2.21037e-07,2.54324e-06,0,4.35767e-08,-1.30123e+09,-1.30091e+09,-1.30125e+09,5824.03,-0.00748888,0.0405512,-0,0.041237,18814.2,-46263.4,0,49942.7,5824.03
step02_gravity_refstate-mantle.xmf,679,3.77463e-07,2.47323e-06,0,1.10226e-07,-1.34862e+09,-1.34834e+09,-1.34867e+09,14731.7,-0.00841995,0.0339352,-0,0.0349642,21613.5,-47728.2,0,52394,14731.7
step02_gravity_refstate-mantle.xmf,680,3.05053e-07,2.50624e-06,0,8.43696e-08,-1.32565e+09,-1.32535e+09,-1.32569e+09,11276,-0.00807889,0.0369661,-0,0.0378386,20263.9,-47018.2,0,51199,11276
step02_gravity_refstate-mantle.xmf,681,7.45782e-07,2.42271e-06,0,8.62094e-08,-1.54608e+09,-1.54586e+09,-1.54618e+09,11521.9,-0.00801353,0.015737,-0,0.0176598,29235.6,-53830.1,0,61256.9,11521.9
step02_gravity_refstate-mantle.xmf,682,8.17132e-07,2.4902e-06,0,4.60994e-08,-1.63506e+09,-1.63484e+09,-1.63517e+09,6161.18,-0.00731734,0.00878956,-0,0.0114368,30978.1,-56579.5,0,64504.9,6161.18
step02_gravity_refstate-mantle.xmf,683,2.05098e-07,3.42934e-06,0,1.14343e-06,-1.32511e+09,-1.32468e+09,-1.32514e+09,152819,0.0107921,0.0623784,0,0.063305,-9230.31,-47003.3,-0,47901,152819
step02_gravity_refstate-mantle.xmf,684,2.33871e-07,3.36584e-06,0,9.64231e-07,-1.33888e+09,-1.33846e+09,-1.33891e+09,128869,0.0114447,0.0575008,0,0.0586287,-10075.9,-47428.8,-0,48487.2,128869
step02_gravity_refstate-mantle.xmf,685,-2.86184e-06,9.29695e-06,0,7.01399e-06,-1.29967e+09,-1.29805e+09,-1.29929e+09,937420,0.00543903,0.130767,0,0.130881,-1416.75,-46212.1,-0,46233.8,937420
step02_gravity_refstate-mantle.xmf,686,-2.28491e-06,8.66902e-06,0,5.86657e-06,-1.30696e+09,-1.30549e+09,-1.30665e+09,784068,0.00700263,0.122364,0,0.122564,-1844.3,-46439.3,-0,46475.9,784068
step02_gravity_refstate-mantle.xmf,687,-1.72922e-06,7.95155e-06,0,5.02216e-06,-1.31495e+09,-1.31365e+09,-1.31472e+09,671212,0.00838973,0.11466,0,0.114966,-2282.43,-46688,-0,46743.8,671212
step02_gravity_refstate-mantle.xmf,688,-1.58244e-07,4.66007e-06,0,2.82143e-06,-1.30533e+09,-1.30469e+09,-1.30531e+09,377084,0.00978679,0.0897527,0,0.0902847,-5008.96,-46393.1,-0,46662.7,377084
step02_gravity_refstate-mantle.xmf,689,-4.16277e-08,4.41868e-06,0,2.46477e-06,-1.31438e+09,-1.31378e+09,-1.31437e+09,329416,0.0104868,0.0835802,0,0.0842355,-5660.48,-46672.7,-0,47014.7,329416
step02_gravity_refstate-mantle.xmf,690,3.69494e-08,4.23926e-06,0,2.16256e-06,-1.32526e+09,-1.3247e+09,-1.32527e+09,289027,0.0112005,0.0776518,0,0.0784554,-6326.34,-47009,-0,47432.8,289027
step02_gravity_refstate-mantle.xmf,691,9.15062e-08,4.08601e-06,0,1.90756e-06,-1.33484e+09,-1.3343e+09,-1.33485e+09,254945,0.011744,0.0724926,0,0.0734377,-6978.55,-47304.7,-0,47816.7,254945
step02_gravity_refstate-mantle.xmf,692,1.82322e-07,3.73848e-06,0,1.44301e-06,-1.34216e+09,-1.34168e+09,-1.34218e+09,192859,0.0119879,0.0644731,0,0.0655781,-8350.39,-47530.6,-0,48258.5,192859
step02_gravity_refstate-mantle.xmf,693,-1.25992e-06,7.25363e-06,0,4.41006e-06,-1.32323e+09,-1.32209e+09,-1.32306e+09,589404,0.00957867,0.107365,0,0.107791,-2756.64,-46945.1,-0,47026,589404
step02_gravity_refstate-mantle.xmf,694,2.59366e-07,3.31892e-06,0,8.22448e-07,-1.35289e+09,-1.35248e+09,-1.35293e+09,109920,0.0120366,0.0532289,0,0.0545728,-10864,-47861.6,-0,49079.1,109920
step02_gravity_refstate-mantle.xmf,695,3.89608e-07,3.05007e-06,0,3.02153e-07,-1.40809e+09,-1.40773e+09,-1.40814e+09,40382.7,0.0133435,0.037814,0,0.0400993,-14765.2,-49566.8,-0,51719.3,40382.7
step02_gravity_refstate-mantle.xmf,696,3.50194e-07,3.10159e-06,0,4.04574e-07,-1.39005e+09,-1.38969e+09,-1.3901e+09,54071.3,0.0129691,0.0416088,0,0.0435831,-13746.5,-49009.6,-0,50901,54071.3
step02_gravity_refstate-mantle.xmf,697,2.86834e-07,3.21687e-06,0,6.52103e-07,-1.36043e+09,-1.36003e+09,-1.36046e+09,87153.5,0.0121717,0.049415,0,0.050892,-11830.8,-48094.2,-0,49528,87153.5
step02_gravity_refstate-mantle.xmf,698,3.15703e-07,3.15552e-06,0,5.20851e-07,-1.37388e+09,-1.3735e+09,-1.37392e+09,69611.7,0.0125572,0.0455115,0,0.0472121,-12766.4,-48509.8,-0,50161.6,69611.7
step02_gravity_refstate-mantle.xmf,699,6.31164e-07,2.77479e-06,0,-1.86908e-08,-1.51367e+09,-1.51338e+09,-1.51375e+09,-2498.03,0.0135773,0.0214304,0,0.0253694,-20554.5,-52829.1,-0,56686.9,2498.03
step02_gravity_refstate-mantle.xmf,700,7.60221e-07,2.75191e-06,0,-3.92258e-08,-1.61297e+09,-1.61271e+09,-1.61307e+09,-5242.53,0.0132916,0.0117228,0,0.0177226,-23267,-55897.4,-0,60546.4,5242.53
step02_gravity_refstate-mantle.xmf,701,7.16961e-07,2.8127e-06,0,-2.62715e-08,-1.58941e+09,-1.58913e+09,-1.58951e+09,-3511.18,0.0140572,0.0142218,0,0.0199966,-21831.6,-55169.5,-0,59332,3511.18
step02_gravity_refstate-mantle.xmf,702,8.10877e-07,2.80969e-06,0,-1.88381e-08,-1.69673e+09,-1.69647e+09,-1.69684e+09,-2517.71,0.0130031,0.00431922,0,0.0137017,-24416.7,-58485.2,-0,63377.4,2517.71
step02_gravity_refstate-mantle.xmf,703,8.2346e-07,2.85399e-06,0,4.00257e-10,-1.74577e+09,-1.74549e+09,-1.74588e+09,53.4943,0.0125791,-5.74387e-20,0,0.0125791,-25049.3,-60000,-0,65019,53.4943
step02_gravity_refstate-mantle.xmf,704,-2.1593e-06,8.05086e-06,0,-6.32841e-06,-1.29147e+09,-1.29011e+09,-1.29119e+09,-845792,-0.0059211,0.126714,-0,0.126852,1820.29,-45960.3,0,45996.4,845792
step02_gravity_refstate-mantle.xmf,705,-2.89076e-06,9.36034e-06,0,-7.00682e-06,-1.30047e+09,-1.29883e+09,-1.30008e+09,-936462,-0.00546524,0.130659,-0,0.130773,1409.23,-46236.7,0,46258.1,936462
step02_gravity_refstate-mantle.xmf,706,-5.05998e-07,4.86399e-06,0,-3.91389e-06,-1.26593e+09,-1.26522e+09,-1.26587e+09,-523092,-0.00612869,0.107423,-0,0.107598,3730.77,-45174.3,0,45328.1,523092
step02_gravity_refstate-mantle.xmf,707,-1.77799e-07,4.11646e-06,0,-2.88303e-06,-1.26378e+09,-1.26321e+09,-1.26376e+09,-385317,-0.00631246,0.0962244,-0,0.0964312,4910.82,-45108.2,0,45374.7,385317
step02_gravity_refstate-mantle.xmf,708,-7.98017e-09,3.73403e-06,0,-2.15164e-06,-1.27066e+09,-1.27016e+09,-1.27066e+09,-287566,-0.00704603,0.0857342,-0,0.0860232,6127.25,-45320.7,0,45733,287566
step02_gravity_refstate-mantle.xmf,709,-4.69474e-08,2.8285e-06,0,-4.87292e-07,-1.2458e+09,-1.24542e+09,-1.24579e+09,-65126.6,-0.0049609,0.0606301,-0,0.0608327,11653,-44550.2,0,46049.1,65126.6
step02_gravity_refstate-mantle.xmf,710,2.06092e-08,2.80864e-06,0,-3.82314e-07,-1.26131e+09,-1.26094e+09,-1.26131e+09,-51096.3,-0.00606623,0.0563379,-0,0.0566635,12586.5,-45029.7,0,46755.7,51096.3
step02_gravity_refstate-mantle.xmf,711,8.49375e-08,2.78167e-06,0,-2.85475e-07,-1.27667e+09,-1.27631e+09,-1.27668e+09,-38153.8,-0.0070034,0.052274,-0,0.0527411,13580.5,-45504.5,0,47487.8,38153.8
step02_gravity_refstate-mantle.xmf,712,1.46133e-07,2.75144e-06,0,-2.00989e-07,-1.29243e+09,-1.29208e+09,-1.29245e+09,-26862.1,-0.00781211,0.0484701,-0,0.0490956,14608,-45991.8,0,48255.9,26862.1
step02_gravity_refstate-mantle.xmf,713,3.30744e-08,2.93569e-06,0,-6.45486e-07,-1.26296e+09,-1.26257e+09,-1.26296e+09,-86269.2,-0.00622582,0.0620358,-0,0.0623475,10822.5,-45081,0,46361.8,86269.2
step02_gravity_refstate-mantle.xmf,714,6.97367e-08,3.62724e-06,0,-1.79963e-06,-1.28352e+09,-1.28304e+09,-1.28353e+09,-240521,-0.00812159,0.0788859,-0,0.0793029,6932.05,-45718.2,0,46240.7,240521
step02_gravity_refstate-mantle.xmf,715,4.82132e-08,3.10143e-06,0,-1.00523e-06,-1.26501e+09,-1.2646e+09,-1.26502e+09,-134349,-0.00644885,0.0686858,-0,0.0689879,9175,-45145,0,46067.9,134349
step02_gravity_refstate-mantle.xmf,716,1.02722e-07,3.29999e-06,0,-1.25906e-06,-1.28128e+09,-1.28085e+09,-1.28129e+09,-168274,-0.00781165,0.0708272,-0,0.0712567,8402.94,-45648.3,0,46415.2,168274
step02_gravity_refstate-mantle.xmf,717,2.09306e-07,2.60693e-06,0,-1.07128e-08,-1.3034e+09,-1.30308e+09,-1.30343e+09,-1431.76,-0.00785042,0.0421106,-0,0.0428361,17570.5,-46330.7,0,49550.6,1431.76
step02_gravity_refstate-mantle.xmf,718,5.90572e-07,2.46359e-06,0,1.19567e-07,-1.44501e+09,-1.44476e+09,-1.44509e+09,15980.1,-0.00966373,0.0247714,-0,0.0265897,24424.8,-50707.2,0,56283.1,15980.1
step02_gravity_refstate-mantle.xmf,719,7.08672e-07,2.43432e-06,0,1.01806e-07,-1.51604e+09,-1.51581e+09,-1.51613e+09,13606.4,-0.00887552,0.0183228,-0,0.0203593,27554.4,-52901.8,0,59647.7,13606.4
step02_gravity_refstate-mantle.xmf,720,6.63618e-07,2.45963e-06,0,1.11043e-07,-1.48667e+09,-1.48643e+09,-1.48676e+09,14841,-0.00963799,0.0210556,-0,0.0231566,25774,-51994.5,0,58032.1,14841
step02_gravity_refstate-mantle.xmf,721,8.02617e-07,2.498e-06,0,5.88163e-08,-1.61216e+09,-1.61194e+09,-1.61227e+09,7860.8,-0.00846935,0.0106931,-0,0.0136408,29386.1,-55872,0,63128.6,7860.8
step02_gravity_refstate-mantle.xmf,722,8.3768e-07,2.58497e-06,0,2.91554e-08,-1.68187e+09,-1.68163e+09,-1.68198e+09,3896.62,-0.00862981,0.00520009,-0,0.0100754,29627.9,-58025.6,0,65152,3896.62
step02_gravity_refstate-mantle.xmf,723,8.48299e-07,2.65166e-06,0,-1.52348e-09,-1.74578e+09,-1.74554e+09,-1.74589e+09,-203.613,-0.0076772,-5.05198e-19,-0,0.0076772,30876.9,-60000,0,67478.7,203.613
step02_gravity_refstate-mantle.xmf,724,-3.80693e-06,1.09232e-05,0,7.94308e-06,-1.30903e+09,-1.30707e+09,-1.30853e+09,1.06159e+06,0.00458291,0.134844,0,0.134922,-1000,-46499.1,-0,46509.9,1.06159e+06
step02_gravity_refstate-mantle.xmf,725,1.2736e-07,3.97383e-06,0,1.70883e-06,-1.34375e+09,-1.34324e+09,-1.34377e+09,228385,0.0121945,0.0682024,0,0.069284,-7561.03,-47580.1,-0,48177.1,228385
step02_gravity_refstate-mantle.xmf,726,-3.4001e-07,5.24625e-06,0,3.18959e-06,-1.3177e+09,-1.31696e+09,-1.31766e+09,426289,0.0104777,0.0927379,0,0.0933279,-4414.28,-46775.5,-0,46983.4,426289
step02_gravity_refstate-mantle.xmf,727,-6.28347e-07,6.02523e-06,0,3.60164e-06,-1.32958e+09,-1.32869e+09,-1.3295e+09,481360,0.0108496,0.0963318,0,0.0969408,-3760.89,-47142.6,-0,47292.4,481360
step02_gravity_refstate-mantle.xmf,728,-9.66383e-07,6.75459e-06,0,4.00888e-06,-1.3308e+09,-1.32976e+09,-1.33067e+09,535787,0.0104397,0.101501,0,0.102037,-3175.64,-47179.6,-0,47286.4,535787
step02_gravity_refstate-mantle.xmf,729,4.32835e-07,2.99917e-06,0,2.13581e-07,-1.42744e+09,-1.4271e+09,-1.4275e+09,28545.1,0.0136439,0.0341951,0,0.0368166,-15812.6,-50164.8,-0,52597.9,28545.1
step02_gravity_refstate-mantle.xmf,730,5.81434e-07,2.8318e-06,0,2.04132e-08,-1.49119e+09,-1.49089e+09,-1.49126e+09,2728.22,0.0138189,0.0243341,0,0.0279841,-19284.6,-52134.4,-0,55586.8,2728.22
step02_gravity_refstate-mantle.xmf,731,5.31605e-07,2.89109e-06,0,7.32999e-08,-1.46986e+09,-1.46955e+09,-1.46993e+09,9796.53,0.0139234,0.0273826,0,0.0307192,-18065.1,-51475.5,-0,54553.5,9796.53
step02_gravity_refstate-mantle.xmf,732,4.80136e-07,2.94595e-06,0,1.36855e-07,-1.44796e+09,-1.44763e+09,-1.44803e+09,18290.7,0.0138414,0.0307255,0,0.0336992,-16910.7,-50798.8,-0,53539.6,18290.7
step02_gravity_refstate-mantle.xmf,733,6.68991e-07,2.8666e-06,0,-3.79943e-09,-1.56311e+09,-1.56281e+09,-1.5632e+09,-507.794,0.0145323,0.01712,0,0.0224562,-20557.4,-54356.7,-0,58114.2,507.794
step02_gravity_refstate-mantle.xmf,734,7.80157e-07,2.82392e-06,0,-2.68918e-08,-1.6602e+09,-1.65993e+09,-1.6603e+09,-3594.09,0.0137138,0.00765155,0,0.015704,-23273,-57356.5,-0,61898.3,3594.09
step02_gravity_refstate-mantle.xmf,735,-8.03114e-07,5.60424e-06,0,-4.41688e-06,-1.27736e+09,-1.27651e+09,-1.27726e+09,-590316,-0.00678375,0.111437,-0,0.111643,3207.33,-45527.3,0,45640.1,590316
step02_gravity_refstate-mantle.xmf,736,-1.20221e-06,6.49388e-06,0,-4.9105e-06,-1.28823e+09,-1.2872e+09,-1.28807e+09,-656289,-0.00715908,0.115354,-0,0.115576,2711.3,-45862.4,0,45942.5,656289
step02_gravity_refstate-mantle.xmf,737,-1.69425e-06,7.52626e-06,0,-5.36444e-06,-1.29859e+09,-1.29735e+09,-1.29836e+09,-716957,-0.00726437,0.118877,-0,0.119099,2258.61,-46181.8,0,46237,716957
step02_gravity_refstate-mantle.xmf,738,-3.80486e-06,1.09201e-05,0,-7.9333e-06,-1.30903e+09,-1.30707e+09,-1.30853e+09,-1.06029e+06,-0.00458246,0.134842,-0,0.13492,1000,-46499.1,0,46509.9,1.06029e+06
step02_gravity_refstate-mantle.xmf,739,-3.16343e-07,4.62426e-06,0,-3.31094e-06,-1.27512e+09,-1.27446e+09,-1.27508e+09,-442507,-0.00720025,0.0999301,-0,0.100189,4338.31,-45458.9,0,45665.4,442507
step02_gravity_refstate-mantle.xmf,740,-8.67764e-08,4.01328e-06,0,-2.55807e-06,-1.27233e+09,-1.27178e+09,-1.27232e+09,-341887,-0.00715889,0.090944,-0,0.0912253,5412.45,-45372.4,0,45694.1,341887
step02_gravity_refstate-mantle.xmf,741,2.0675e-07,2.72008e-06,0,-1.28181e-07,-1.30922e+09,-1.30889e+09,-1.30925e+09,-17131.4,-0.00852526,0.0448662,-0,0.045669,15666.8,-46510.8,0,49078.6,17131.4
step02_gravity_refstate-mantle.xmf,742,9.89162e-08,3.07335e-06,0,-8.40707e-07,-1.27911e+09,-1.27871e+09,-1.27912e+09,-112361,-0.0074838,0.0637054,-0,0.0641435,10009.4,-45580.7,0,46666.8,112361
step02_gravity_refstate-mantle.xmf,743,1.22514e-07,3.55178e-06,0,-1.54481e-06,-1.29646e+09,-1.296e+09,-1.29647e+09,-206464,-0.00907024,0.0731473,-0,0.0737075,7663.46,-46118,0,46750.4,206464
step02_gravity_refstate-mantle.xmf,744,5.35211e-07,2.49135e-06,0,1.13548e-07,-1.41914e+09,-1.41888e+09,-1.41921e+09,15175.6,-0.00982612,0.027495,-0,0.0291981,23041.6,-49907.8,0,54970,15175.6
step02_gravity_refstate-mantle.xmf,745,4.79585e-07,2.52522e-06,0,9.78927e-08,-1.39647e+09,-1.39619e+09,-1.39653e+09,13083.4,-0.00988448,0.0301805,-0,0.0317579,21686.8,-49207.1,0,53774.1,13083.4
step02_gravity_refstate-mantle.xmf,746,2.60121e-07,2.68398e-06,0,-6.56247e-08,-1.32442e+09,-1.32409e+09,-1.32445e+09,-8770.75,-0.00901713,0.0417007,-0,0.0426645,16737.7,-46980.3,0,49872.9,8770.75
step02_gravity_refstate-mantle.xmf,747,3.06384e-07,2.64287e-06,0,-1.13495e-08,-1.33756e+09,-1.33725e+09,-1.3376e+09,-1516.86,-0.0092923,0.0389525,-0,0.0400455,17836.9,-47386.5,0,50632.3,1516.86
step02_gravity_refstate-mantle.xmf,748,3.58334e-07,2.59838e-06,0,3.69239e-08,-1.3531e+09,-1.3528e+09,-1.35315e+09,4934.88,-0.00951031,0.0361096,-0,0.037341,19074.4,-47866.8,0,51527.3,4934.88
step02_gravity_refstate-mantle.xmf,749,4.20383e-07,2.56076e-06,0,7.29521e-08,-1.37442e+09,-1.37413e+09,-1.37448e+09,9750.05,-0.00977434,0.0330375,-0,0.0344531,20373.7,-48525.7,0,52629.2,9750.05
step02_gravity_refstate-mantle.xmf,750,6.55152e-07,2.52261e-06,0,1.00452e-07,-1.4898e+09,-1.48955e+09,-1.48989e+09,13425.4,-0.0106666,0.0213777,-0,0.0238911,24297,-52091.2,0,57479.1,13425.4
step02_gravity_refstate-mantle.xmf,751,7.76879e-07,2.50801e-06,0,7.39249e-08,-1.58338e+09,-1.58315e+09,-1.58348e+09,9880.07,-0.00952256,0.0131415,-0,0.016229,27746.5,-54982.7,0,61587.1,9880.07
step02_gravity_refstate-mantle.xmf,752,2.15531e-07,3.61995e-06,0,1.19723e-06,-1.35569e+09,-1.35524e+09,-1.35572e+09,160010,0.0125538,0.0587918,0,0.0601172,-9290.68,-47948.6,-0,48840.4,160010
step02_gravity_refstate-mantle.xmf,753,2.4048e-07,3.54194e-06,0,1.0169e-06,-1.36941e+09,-1.36897e+09,-1.36944e+09,135909,0.013072,0.0541067,0,0.0556633,-10112.3,-48372.3,-0,49418,135909
step02_gravity_refstate-mantle.xmf,754,-3.08749e-06,1.02169e-05,0,6.32931e-06,-1.31644e+09,-1.31467e+09,-1.31603e+09,845912,0.0064444,0.125648,0,0.125813,-1420.42,-46731,-0,46752.6,845912
step02_gravity_refstate-mantle.xmf,755,-2.30875e-06,9.1905e-06,0,5.34753e-06,-1.32401e+09,-1.32248e+09,-1.3237e+09,714697,0.00805718,0.117461,0,0.117737,-1858.31,-46967.4,-0,47004.1,714697
step02_gravity_refstate-mantle.xmf,756,-1.69628e-06,8.25038e-06,0,4.70267e-06,-1.33206e+09,-1.33073e+09,-1.33183e+09,628511,0.00936602,0.110015,0,0.110413,-2313.3,-47217.5,-0,47274.1,628511
step02_gravity_refstate-mantle.xmf,757,-1.85383e-07,4.92635e-06,0,2.79692e-06,-1.32798e+09,-1.3273e+09,-1.32796e+09,373808,0.0112773,0.0859624,0,0.0866989,-5065.15,-47093.3,-0,47364.9,373808
step02_gravity_refstate-mantle.xmf,758,-8.3922e-08,4.67959e-06,0,2.4766e-06,-1.33797e+09,-1.33733e+09,-1.33796e+09,330997,0.0119285,0.0799872,0,0.0808717,-5700.5,-47401.7,-0,47743.3,330997
step02_gravity_refstate-mantle.xmf,759,-1.22953e-08,4.47681e-06,0,2.19392e-06,-1.34806e+09,-1.34746e+09,-1.34806e+09,293217,0.0124942,0.074447,0,0.0754882,-6348.07,-47713.5,-0,48133.9,293217
step02_gravity_refstate-mantle.xmf,760,4.69653e-08,4.28855e-06,0,1.93654e-06,-1.35666e+09,-1.35609e+09,-1.35666e+09,258819,0.0129153,0.0694744,0,0.0706647,-7013.38,-47979,-0,48488.9,258819
step02_gravity_refstate-mantle.xmf,761,1.00498e-07,4.10628e-06,0,1.6908e-06,-1.36416e+09,-1.36362e+09,-1.36417e+09,225975,0.013229,0.0648204,0,0.0661566,-7725.91,-48210.5,-0,48825.7,225975
step02_gravity_refstate-mantle.xmf,762,-1.27018e-06,7.47591e-06,0,4.22257e-06,-1.34024e+09,-1.33907e+09,-1.34007e+09,564347,0.0104379,0.102978,0,0.103506,-2807.15,-47471.2,-0,47554.1,564347
step02_gravity_refstate-mantle.xmf,763,2.65904e-07,3.47349e-06,0,8.57123e-07,-1.38369e+09,-1.38326e+09,-1.38372e+09,114554,0.0135425,0.0497379,0,0.0515486,-10943,-48813.2,-0,50024.8,114554
step02_gravity_refstate-mantle.xmf,764,4.11441e-07,3.17249e-06,0,3.23433e-07,-1.44525e+09,-1.44488e+09,-1.44531e+09,43226.8,0.0146861,0.0341646,0,0.0371874,-14807.6,-50715.2,-0,52832.7,43226.8
step02_gravity_refstate-mantle.xmf,765,3.6974e-07,3.23788e-06,0,4.32478e-07,-1.42694e+09,-1.42656e+09,-1.42699e+09,57800.7,0.0144326,0.0379,0,0.0405551,-13791.4,-50149.5,-0,52011.2,57800.7
step02_gravity_refstate-mantle.xmf,766,3.32409e-07,3.30409e-06,0,5.55988e-07,-1.4098e+09,-1.4094e+09,-1.40984e+09,74307.8,0.0141122,0.0418159,0,0.0441331,-12810.8,-49619.9,-0,51246.9,74307.8
step02_gravity_refstate-mantle.xmf,767,2.99431e-07,3.37645e-06,0,6.92892e-07,-1.3951e+09,-1.39469e+09,-1.39514e+09,92605,0.0137892,0.0457398,0,0.0477731,-11880.4,-49165.9,-0,50580.9,92605
step02_gravity_refstate-mantle.xmf,768,6.18101e-07,2.9259e-06,0,3.20822e-08,-1.53839e+09,-1.53808e+09,-1.53847e+09,4287.79,0.0148538,0.0200928,0,0.0249871,-19339.2,-53592.9,-0,56975.4,4287.79
step02_gravity_refstate-mantle.xmf,769,6.89362e-07,2.97346e-06,0,6.92307e-09,-1.6142e+09,-1.6139e+09,-1.6143e+09,925.269,0.0153604,0.0125668,0,0.0198461,-20438.1,-55935.5,-0,59552.5,925.269
step02_gravity_refstate-mantle.xmf,770,7.41732e-07,2.92176e-06,0,-1.22723e-08,-1.64961e+09,-1.64932e+09,-1.64971e+09,-1640.19,0.0148163,0.00892481,0,0.0172967,-21714.2,-57029.5,-0,61023.5,1640.19
step02_gravity_refstate-mantle.xmf,771,7.73656e-07,2.94558e-06,0,-9.70409e-09,-1.70068e+09,-1.70039e+09,-1.70078e+09,-1296.95,0.0145555,0.00415669,0,0.0151374,-22476.6,-58607.2,-0,62769.4,1296.95
step02_gravity_refstate-mantle.xmf,772,7.95277e-07,2.96083e-06,0,8.70775e-11,-1.74576e+09,-1.74547e+09,-1.74587e+09,11.6379,0.0140177,-5.76409e-20,0,0.0140177,-23273,-60000,-0,64355.5,11.6379
step02_gravity_refstate-mantle.xmf,773,-2.31691e-06,8.7653e-06,0,-5.82473e-06,-1.30812e+09,-1.30664e+09,-1.30781e+09,-778476,-0.00702989,0.122335,-0,0.122537,1823.66,-46475.4,0,46511.2,778476
step02_gravity_refstate-mantle.xmf,774,-3.09928e-06,1.02481e-05,0,-6.32248e-06,-1.31685e+09,-1.31506e+09,-1.31643e+09,-845000,-0.00645633,0.125574,-0,0.12574,1416.78,-46743.4,0,46764.8,845000
step02_gravity_refstate-mantle.xmf,775,-5.36084e-07,5.26191e-06,0,-3.75323e-06,-1.28636e+09,-1.28558e+09,-1.28628e+09,-501619,-0.00791362,0.103724,-0,0.104025,3778.67,-45805.9,0,45961.5,501619
step02_gravity_refstate-mantle.xmf,776,-1.6809e-07,4.40671e-06,0,-2.8541e-06,-1.28393e+09,-1.28332e+09,-1.28391e+09,-381451,-0.00810275,0.0933384,-0,0.0936894,4937.56,-45731.4,0,45997.2,381451
step02_gravity_refstate-mantle.xmf,777,-4.92065e-08,4.17943e-06,0,-2.48116e-06,-1.29099e+09,-1.29043e+09,-1.29099e+09,-331607,-0.00875235,0.0873186,-0,0.0877562,5574.59,-45949.7,0,46286.6,331607
step02_gravity_refstate-mantle.xmf,778,9.65996e-08,2.91703e-06,0,-5.22842e-07,-1.27967e+09,-1.2793e+09,-1.27969e+09,-69877.8,-0.00736,0.0573466,-0,0.057817,11736.1,-45597.7,0,47083.8,69877.8
step02_gravity_refstate-mantle.xmf,779,1.55047e-07,2.89511e-06,0,-4.1761e-07,-1.29712e+09,-1.29675e+09,-1.29714e+09,-55813.6,-0.00837518,0.0529234,-0,0.053582,12675.2,-46137,0,47846.4,55813.6
step02_gravity_refstate-mantle.xmf,780,2.08347e-07,2.86679e-06,0,-3.21102e-07,-1.3139e+09,-1.31354e+09,-1.31393e+09,-42915.3,-0.00919068,0.0488575,-0,0.0497144,13646.4,-46655.6,0,48610.4,42915.3
step02_gravity_refstate-mantle.xmf,781,2.59019e-07,2.83358e-06,0,-2.33555e-07,-1.33076e+09,-1.33042e+09,-1.3308e+09,-31214.7,-0.00986102,0.0450389,-0,0.0461058,14664.1,-47176.8,0,49403.3,31214.7
step02_gravity_refstate-mantle.xmf,782,4.26646e-08,3.97618e-06,0,-2.12623e-06,-1.29871e+09,-1.29818e+09,-1.29871e+09,-284171,-0.00935867,0.0812894,-0,0.0818263,6285.75,-46188,0,46613.7,284171
step02_gravity_refstate-mantle.xmf,783,1.50381e-07,3.04812e-06,0,-6.97526e-07,-1.29497e+09,-1.29458e+09,-1.29499e+09,-93224.4,-0.00850543,0.0588827,-0,0.0594939,10874.7,-46071,0,47337.1,93224.4
step02_gravity_refstate-mantle.xmf,784,1.04902e-07,3.86169e-06,0,-1.85232e-06,-1.31097e+09,-1.31047e+09,-1.31098e+09,-247563,-0.0102054,0.075448,-0,0.0761351,6974.57,-46566.9,0,47086.3,247563
step02_gravity_refstate-mantle.xmf,785,1.48141e-07,3.25388e-06,0,-1.07092e-06,-1.29491e+09,-1.29449e+09,-1.29493e+09,-143129,-0.00874521,0.0655924,-0,0.0661729,9209.12,-46069.5,0,46980.9,143129
step02_gravity_refstate-mantle.xmf,786,1.6594e-07,3.48992e-06,0,-1.33291e-06,-1.31055e+09,-1.31011e+09,-1.31057e+09,-178143,-0.00997934,0.0676707,-0,0.0684026,8419.59,-46553.5,0,47308.8,178143
step02_gravity_refstate-mantle.xmf,787,6.11466e-07,2.54853e-06,0,9.60059e-08,-1.46651e+09,-1.46625e+09,-1.46659e+09,12831.2,-0.0109495,0.0237838,-0,0.0261832,23080.7,-51371.6,0,56318.4,12831.2
step02_gravity_refstate-mantle.xmf,788,7.46529e-07,2.53006e-06,0,8.33525e-08,-1.55766e+09,-1.55742e+09,-1.55776e+09,11140.1,-0.0104229,0.0154621,-0,0.0186471,26183.9,-54188.1,0,60182.7,11140.1
step02_gravity_refstate-mantle.xmf,789,7.08675e-07,2.55903e-06,0,8.67415e-08,-1.53126e+09,-1.53101e+09,-1.53135e+09,11593,-0.0111446,0.0179801,-0,0.0211539,24669.3,-53372.3,0,58797.8,11593
step02_gravity_refstate-mantle.xmf,790,8.17794e-07,2.58543e-06,0,4.70299e-08,-1.64344e+09,-1.64321e+09,-1.64355e+09,6285.54,-0.00997066,0.00840933,-0,0.0130434,27788.8,-56838.5,0,63268,6285.54
step02_gravity_refstate-mantle.xmf,791,8.47188e-07,2.70149e-06,0,-7.19792e-10,-1.74577e+09,-1.74552e+09,-1.74589e+09,-96.2002,-0.00939799,-3.66679e-19,-0,0.00939799,28846.4,-60000,0,66574.1,96.2002
step02_gravity_refstate-mantle.xmf,792,1.47085e-07,3.94191e-06,0,1.4451e-06,-1.37363e+09,-1.37312e+09,-1.37365e+09,193137,0.0135757,0.0598973,0,0.0614165,-8535.37,-48503,-0,49248.3,193137
step02_gravity_refstate-mantle.xmf,793,-4.22611e-06,1.22304e-05,0,7.11895e-06,-1.32522e+09,-1.32302e+09,-1.32466e+09,951448,0.00538639,0.129047,0,0.129159,-1000,-46999.6,-0,47010.3,951448
step02_gravity_refstate-mantle.xmf,794,-4.00638e-07,5.53187e-06,0,3.13544e-06,-1.34001e+09,-1.33922e+09,-1.33996e+09,419052,0.0117393,0.0886077,0,0.089382,-4465.46,-47464.9,-0,47674.5,419052
step02_gravity_refstate-mantle.xmf,795,-9.54564e-07,6.81835e-06,0,3.84018e-06,-1.34559e+09,-1.34455e+09,-1.34546e+09,513239,0.0112069,0.0971084,0,0.0977529,-3315.68,-47636.8,-0,47752,513239
step02_gravity_refstate-mantle.xmf,796,4.56385e-07,3.1136e-06,0,2.30872e-07,-1.4659e+09,-1.46555e+09,-1.46597e+09,30856.1,0.0149051,0.0305281,0,0.0339725,-15835.2,-51353.3,-0,53739.3,30856.1
step02_gravity_refstate-mantle.xmf,797,5.64877e-07,2.99295e-06,0,8.30911e-08,-1.51547e+09,-1.51515e+09,-1.51555e+09,11105.1,0.015062,0.023162,0,0.0276286,-18140.2,-52885,-0,55909.6,11105.1
step02_gravity_refstate-mantle.xmf,798,5.07992e-07,3.08193e-06,0,1.62004e-07,-1.4953e+09,-1.49495e+09,-1.49536e+09,21651.8,0.0152555,0.0264049,0,0.0304951,-16839.9,-52261.5,-0,54907.6,21651.8
step02_gravity_refstate-mantle.xmf,799,6.39641e-07,3.03119e-06,0,3.80951e-08,-1.58744e+09,-1.58712e+09,-1.58752e+09,5091.41,0.0157308,0.0155881,0,0.0221461,-19324.6,-55108.5,-0,58398.5,5091.41
step02_gravity_refstate-mantle.xmf,800,-8.4697e-07,6.03363e-06,0,-4.20002e-06,-1.29667e+09,-1.29575e+09,-1.29655e+09,-561332,-0.00834214,0.10765,-0,0.107973,3235.14,-46124.3,0,46237.6,561332
step02_gravity_refstate-mantle.xmf,801,-1.24533e-06,6.94293e-06,0,-4.62006e-06,-1.30629e+09,-1.3052e+09,-1.30613e+09,-617471,-0.0084971,0.11138,-0,0.111704,2729.66,-46421.4,0,46501.6,617471
step02_gravity_refstate-mantle.xmf,802,-1.724e-06,7.99576e-06,0,-4.98206e-06,-1.31559e+09,-1.3143e+09,-1.31536e+09,-665853,-0.00841027,0.114632,-0,0.11494,2271.37,-46708.2,0,46763.4,665853
step02_gravity_refstate-mantle.xmf,803,-4.22869e-06,1.22267e-05,0,-7.11962e-06,-1.32522e+09,-1.32302e+09,-1.32466e+09,-951538,-0.0053854,0.129047,-0,0.12916,1000,-46999.6,0,47010.3,951538
step02_gravity_refstate-mantle.xmf,804,-3.2135e-07,4.95232e-06,0,-3.23057e-06,-1.29635e+09,-1.29565e+09,-1.29631e+09,-431765,-0.00896457,0.0964192,-0,0.096835,4378.18,-46115.3,0,46322.7,431765
step02_gravity_refstate-mantle.xmf,805,3.08935e-07,2.79609e-06,0,-1.5521e-07,-1.34786e+09,-1.34753e+09,-1.34791e+09,-20743.8,-0.0103954,0.0414527,-0,0.0427363,15730.8,-47705.3,0,50232,20743.8
step02_gravity_refstate-mantle.xmf,806,1.8714e-07,3.21175e-06,0,-9.03214e-07,-1.30936e+09,-1.30895e+09,-1.30938e+09,-120715,-0.00961196,0.060623,-0,0.0613803,10044.8,-46516.1,0,47588.3,120715
step02_gravity_refstate-mantle.xmf,807,1.46347e-07,3.76576e-06,0,-1.61862e-06,-1.32312e+09,-1.32263e+09,-1.32314e+09,-216328,-0.0109393,0.0701627,-0,0.0710104,7657.54,-46942.3,0,47562.7,216328
step02_gravity_refstate-mantle.xmf,808,5.62071e-07,2.58401e-06,0,8.10052e-08,-1.44327e+09,-1.443e+09,-1.44335e+09,10826.3,-0.0111581,0.0264331,-0,0.0286917,21758.1,-50653.6,0,55129,10826.3
step02_gravity_refstate-mantle.xmf,809,5.10083e-07,2.62496e-06,0,5.48098e-08,-1.42128e+09,-1.421e+09,-1.42135e+09,7325.33,-0.0112448,0.0292236,-0,0.0313123,20438.6,-49974,0,53992,7325.33
step02_gravity_refstate-mantle.xmf,810,3.54676e-07,2.75027e-06,0,-8.50095e-08,-1.36307e+09,-1.36275e+09,-1.36312e+09,-11361.5,-0.0107037,0.0382848,-0,0.0397529,16844,-48175.3,0,51035.1,11361.5
step02_gravity_refstate-mantle.xmf,811,4.03775e-07,2.70792e-06,0,-2.81632e-08,-1.38038e+09,-1.38008e+09,-1.38044e+09,-3764.01,-0.0109728,0.0352197,-0,0.0368894,17978.9,-48710.2,0,51922.3,3764.01
step02_gravity_refstate-mantle.xmf,812,4.5632e-07,2.66607e-06,0,1.85959e-08,-1.39995e+09,-1.39966e+09,-1.40001e+09,2485.35,-0.0111667,0.0321805,-0,0.0340629,19179.3,-49315,0,52913.2,2485.35
step02_gravity_refstate-mantle.xmf,813,6.71856e-07,2.60756e-06,0,7.77506e-08,-1.51243e+09,-1.51217e+09,-1.51252e+09,10391.4,-0.0118563,0.0200871,-0,0.0233251,23157.6,-52790.6,0,57646.5,10391.4
step02_gravity_refstate-mantle.xmf,814,7.9224e-07,2.60235e-06,0,5.87039e-08,-1.61353e+09,-1.61329e+09,-1.61363e+09,7845.78,-0.0110038,0.0110246,-0,0.0155764,26221.1,-55914.3,0,61757.2,7845.78
step02_gravity_refstate-mantle.xmf,815,8.38121e-07,2.67455e-06,0,2.13659e-08,-1.70057e+09,-1.70033e+09,-1.70069e+09,2855.55,-0.01041,0.00378382,-0,0.0110763,27572.5,-58603.7,0,64766,2855.55
step02_gravity_refstate-mantle.xmf,816,1.80933e-07,3.82338e-06,0,1.23544e-06,-1.38582e+09,-1.38533e+09,-1.38584e+09,165116,0.0139915,0.0551311,0,0.0568788,-9340.06,-48879.4,-0,49763.7,165116
step02_gravity_refstate-mantle.xmf,817,2.10956e-07,3.72805e-06,0,1.05025e-06,-1.39958e+09,-1.39911e+09,-1.39961e+09,140366,0.0144144,0.0505739,0,0.0525879,-10153.4,-49304.4,-0,50339,140366
step02_gravity_refstate-mantle.xmf,818,-3.05702e-06,1.08705e-05,0,5.53984e-06,-1.33303e+09,-1.33117e+09,-1.33262e+09,740400,0.00734814,0.120078,0,0.120302,-1430.81,-47245.2,-0,47266.9,740400
step02_gravity_refstate-mantle.xmf,819,-2.24479e-06,9.50152e-06,0,4.97435e-06,-1.34068e+09,-1.33911e+09,-1.34038e+09,664823,0.00882455,0.112485,0,0.11283,-1871,-47483.5,-0,47520.4,664823
step02_gravity_refstate-mantle.xmf,820,-1.72724e-06,8.4757e-06,0,4.48638e-06,-1.34873e+09,-1.34737e+09,-1.3485e+09,599604,0.0100193,0.105274,0,0.10575,-2355.05,-47733,-0,47791.1,599604
step02_gravity_refstate-mantle.xmf,821,-2.69356e-07,5.20466e-06,0,2.78679e-06,-1.3504e+09,-1.34967e+09,-1.35036e+09,372455,0.0124323,0.0822347,0,0.0831692,-5095.47,-47785.9,-0,48056.8,372455
step02_gravity_refstate-mantle.xmf,822,-1.75118e-07,4.94144e-06,0,2.48508e-06,-1.36033e+09,-1.35965e+09,-1.36031e+09,332131,0.0130009,0.0765319,0,0.0776283,-5720.76,-48092.6,-0,48431.7,332131
step02_gravity_refstate-mantle.xmf,823,-9.54338e-08,4.70285e-06,0,2.19984e-06,-1.36999e+09,-1.36935e+09,-1.36998e+09,294008,0.0134898,0.0710987,0,0.0723671,-6388.76,-48391.1,-0,48811,294008
step02_gravity_refstate-mantle.xmf,824,2.99344e-08,4.30505e-06,0,1.68933e-06,-1.38903e+09,-1.38846e+09,-1.38904e+09,225779,0.0142824,0.0611676,0,0.0628129,-7814.52,-48978.9,-0,49598.4,225779
step02_gravity_refstate-mantle.xmf,825,-2.78963e-08,4.49193e-06,0,1.93828e-06,-1.37916e+09,-1.37855e+09,-1.37915e+09,259051,0.0138986,0.0660817,0,0.0675275,-7077.95,-48674,-0,49186,259051
step02_gravity_refstate-mantle.xmf,826,-6.94496e-07,6.23432e-06,0,3.44446e-06,-1.3522e+09,-1.35128e+09,-1.35211e+09,460352,0.0119375,0.0907988,0,0.0915802,-3908.68,-47841.4,-0,48000.8,460352
step02_gravity_refstate-mantle.xmf,827,-1.3726e-06,7.69223e-06,0,4.07209e-06,-1.35665e+09,-1.35544e+09,-1.35647e+09,544234,0.0109822,0.0986797,0,0.0992889,-2856.51,-47978,-0,48063,544234
step02_gravity_refstate-mantle.xmf,828,2.44381e-07,3.63539e-06,0,8.76996e-07,-1.41395e+09,-1.41349e+09,-1.41398e+09,117210,0.0147894,0.046194,0,0.0485037,-11014.6,-49748.3,-0,50953,117210
step02_gravity_refstate-mantle.xmf,829,4.12826e-07,3.29809e-06,0,3.32564e-07,-1.48109e+09,-1.4807e+09,-1.48114e+09,44447.2,0.0157853,0.0305378,0,0.0343763,-14834.2,-51822.6,-0,53903.9,44447.2
step02_gravity_refstate-mantle.xmf,830,3.65606e-07,3.37729e-06,0,4.4387e-07,-1.46278e+09,-1.46238e+09,-1.46283e+09,59323.2,0.0156274,0.0341454,0,0.0375516,-13838.1,-51256.8,-0,53091.9,59323.2
step02_gravity_refstate-mantle.xmf,831,3.2109e-07,3.46107e-06,0,5.73693e-07,-1.44539e+09,-1.44497e+09,-1.44543e+09,76674.1,0.0154025,0.0379951,0,0.0409984,-12854.5,-50719.5,-0,52323.1,76674.1
step02_gravity_refstate-mantle.xmf,832,2.81312e-07,3.5448e-06,0,7.17417e-07,-1.4289e+09,-1.42846e+09,-1.42893e+09,95882.8,0.0151101,0.0420284,0,0.0446621,-11917,-50210.1,-0,51604.9,95882.8
step02_gravity_refstate-mantle.xmf,833,5.85604e-07,3.09826e-06,0,8.45045e-08,-1.56237e+09,-1.56204e+09,-1.56245e+09,11294,0.0159939,0.0186925,0,0.0246011,-18207.4,-54334.1,-0,57303.6,11294
step02_gravity_refstate-mantle.xmf,834,6.42107e-07,3.14168e-06,0,3.5772e-08,-1.63407e+09,-1.63373e+09,-1.63415e+09,4780.92,0.0164253,0.0112119,0,0.0198871,-19180.4,-56549.1,-0,59713.4,4780.92
step02_gravity_refstate-mantle.xmf,835,6.95826e-07,3.0762e-06,0,1.05874e-08,-1.66115e+09,-1.66083e+09,-1.66124e+09,1415.01,0.0159776,0.00824815,0,0.0179809,-20226.9,-57385.9,-0,60846.3,1415.01
step02_gravity_refstate-mantle.xmf,836,7.24219e-07,3.08627e-06,0,1.44373e-09,-1.70126e+09,-1.70095e+09,-1.70136e+09,192.954,0.0157724,0.00429698,0,0.0163473,-20854.6,-58625.3,-0,62224.1,192.954
step02_gravity_refstate-mantle.xmf,837,7.51215e-07,3.09368e-06,0,-1.06813e-10,-1.74576e+09,-1.74545e+09,-1.74586e+09,-14.2756,0.0153337,-5.99344e-20,0,0.0153337,-21571.8,-60000,-0,63760.1,14.2756
step02_gravity_refstate-mantle.xmf,838,-2.30597e-06,9.25538e-06,0,-5.2896e-06,-1.32455e+09,-1.32301e+09,-1.32424e+09,-706955,-0.00804894,0.117506,-0,0.117781,1842.31,-46984.2,0,47020.3,706955
step02_gravity_refstate-mantle.xmf,839,-3.05098e-06,1.08625e-05,0,-5.53086e-06,-1.33317e+09,-1.33131e+09,-1.33276e+09,-739200,-0.0073612,0.120002,-0,0.120228,1432.99,-47249.6,0,47271.3,739200
step02_gravity_refstate-mantle.xmf,840,-5.55153e-07,5.6183e-06,0,-3.62773e-06,-1.30723e+09,-1.3064e+09,-1.30715e+09,-484847,-0.00950734,0.0999527,-0,0.100404,3804.96,-46451.4,0,46607,484847
step02_gravity_refstate-mantle.xmf,841,-1.60331e-07,4.66307e-06,0,-2.80922e-06,-1.30528e+09,-1.30463e+09,-1.30526e+09,-375452,-0.00978248,0.0897798,-0,0.0903111,5006.54,-46391.5,0,46660.8,375452
step02_gravity_refstate-mantle.xmf,842,-4.16564e-08,4.41879e-06,0,-2.46478e-06,-1.31438e+09,-1.31379e+09,-1.31438e+09,-329418,-0.0104871,0.0835801,-0,0.0842355,5660.4,-46672.9,0,47014.9,329418
step02_gravity_refstate-mantle.xmf,843,2.10396e-07,3.03515e-06,0,-5.72985e-07,-1.31688e+09,-1.3165e+09,-1.3169e+09,-76579.4,-0.00974028,0.0536293,-0,0.0545067,11828.5,-46748,0,48221.2,76579.4
step02_gravity_refstate-mantle.xmf,844,3.40279e-07,2.93401e-06,0,-2.69678e-07,-1.36951e+09,-1.36916e+09,-1.36955e+09,-36042.4,-0.0117196,0.0414697,-0,0.0430939,14720.1,-48374.4,0,50564.4,36042.4
step02_gravity_refstate-mantle.xmf,845,2.55308e-07,3.01093e-06,0,-4.68517e-07,-1.33477e+09,-1.3344e+09,-1.3348e+09,-62617.3,-0.0105676,0.0493518,-0,0.0504705,12723.6,-47301,0,48982.4,62617.3
step02_gravity_refstate-mantle.xmf,846,2.97691e-07,2.9746e-06,0,-3.64496e-07,-1.35191e+09,-1.35155e+09,-1.35195e+09,-48714.9,-0.0112014,0.0453,-0,0.0466644,13698.5,-47830.7,0,49753.6,48714.9
step02_gravity_refstate-mantle.xmf,847,3.69432e-08,4.23928e-06,0,-2.16258e-06,-1.32526e+09,-1.3247e+09,-1.32527e+09,-289029,-0.0112005,0.077652,-0,0.0784556,6326.31,-47009,0,47432.8,289029
step02_gravity_refstate-mantle.xmf,848,2.24188e-07,3.17031e-06,0,-7.58039e-07,-1.32392e+09,-1.32352e+09,-1.32395e+09,-101312,-0.0103703,0.0560679,-0,0.0570189,10883.5,-46965.9,0,48210.5,101312
step02_gravity_refstate-mantle.xmf,849,9.14953e-08,4.08605e-06,0,-1.9076e-06,-1.33484e+09,-1.3343e+09,-1.33485e+09,-254951,-0.011744,0.0724931,-0,0.0734382,6978.45,-47304.7,0,47816.7,254951
step02_gravity_refstate-mantle.xmf,850,2.0517e-07,3.42753e-06,0,-1.14129e-06,-1.32502e+09,-1.32459e+09,-1.32505e+09,-152533,-0.0107853,0.0623586,-0,0.0632844,9237.02,-47000.6,0,47899.7,152533
step02_gravity_refstate-mantle.xmf,851,1.71052e-07,3.74271e-06,0,-1.43498e-06,-1.34215e+09,-1.34168e+09,-1.34218e+09,-191785,-0.0119879,0.0644839,-0,0.0655888,8348.26,-47530.4,0,48257.9,191785
step02_gravity_refstate-mantle.xmf,852,6.26767e-07,2.64989e-06,0,6.23631e-08,-1.48941e+09,-1.48914e+09,-1.48949e+09,8334.83,-0.012255,0.0226722,-0,0.0257723,21804.8,-52079.2,0,56459.7,8334.83
step02_gravity_refstate-mantle.xmf,853,7.59839e-07,2.63224e-06,0,6.34375e-08,-1.58597e+09,-1.58572e+09,-1.58607e+09,8478.42,-0.01189,0.0135815,-0,0.0180507,24702.6,-55063,0,60350.3,8478.42
step02_gravity_refstate-mantle.xmf,854,7.21774e-07,2.67375e-06,0,5.90771e-08,-1.56102e+09,-1.56076e+09,-1.56112e+09,7895.66,-0.012626,0.016084,-0,0.0204477,23248,-54292.2,0,59060.3,7895.66
step02_gravity_refstate-mantle.xmf,855,8.20505e-07,2.68475e-06,0,3.35435e-08,-1.66828e+09,-1.66803e+09,-1.66839e+09,4483.08,-0.0114922,0.00656816,-0,0.0132367,26107.7,-57606.1,0,63246.1,4483.08
step02_gravity_refstate-mantle.xmf,856,8.39966e-07,2.76806e-06,0,-3.39548e-10,-1.74577e+09,-1.74551e+09,-1.74588e+09,-45.3806,-0.0110348,-2.62917e-19,-0,0.0110348,26905.6,-60000,0,65756.4,45.3806
step02_gravity_refstate-mantle.xmf,857,7.42014e-08,4.15664e-06,0,1.46178e-06,-1.40105e+09,-1.4005e+09,-1.40106e+09,195368,0.0146939,0.0562965,0,0.0581825,-8575.87,-49350,-0,50089.6,195368
step02_gravity_refstate-mantle.xmf,858,-4.32536e-06,1.34822e-05,0,5.8756e-06,-1.34132e+09,-1.33894e+09,-1.34075e+09,785274,0.00607142,0.122617,0,0.122767,-1000,-47499.6,-0,47510.1,785274
step02_gravity_refstate-mantle.xmf,859,-5.20235e-07,5.80071e-06,0,3.07536e-06,-1.36177e+09,-1.36093e+09,-1.3617e+09,411021,0.0126413,0.0843583,0,0.0853002,-4524.26,-48137,-0,48349.1,411021
step02_gravity_refstate-mantle.xmf,860,-1.09111e-06,7.04417e-06,0,3.69396e-06,-1.36438e+09,-1.3633e+09,-1.36424e+09,493698,0.011805,0.0924554,0,0.093206,-3390.68,-48217,-0,48336.1,493698
step02_gravity_refstate-mantle.xmf,861,4.5844e-07,3.22846e-06,0,2.461e-07,-1.49883e+09,-1.49846e+09,-1.49889e+09,32891.3,0.0158661,0.0274042,0,0.0316658,-15760.9,-52370.8,-0,54691,32891.3
step02_gravity_refstate-mantle.xmf,862,5.31515e-07,3.16141e-06,0,1.44582e-07,-1.53704e+09,-1.53669e+09,-1.53711e+09,19323.4,0.0160829,0.0220464,0,0.0272892,-17150.1,-53551.4,-0,56230.6,19323.4
step02_gravity_refstate-mantle.xmf,863,5.92081e-07,3.21428e-06,0,7.42189e-08,-1.61273e+09,-1.61238e+09,-1.61281e+09,9919.36,0.0167638,0.013772,0,0.0216955,-18223.4,-55889.8,-0,58785.7,9919.36
step02_gravity_refstate-mantle.xmf,864,-8.76328e-07,6.39854e-06,0,-4.04207e-06,-1.31554e+09,-1.31457e+09,-1.31543e+09,-540223,-0.00964571,0.103981,-0,0.104428,3238.75,-46708.2,0,46820.3,540223
step02_gravity_refstate-mantle.xmf,865,-1.25735e-06,7.26963e-06,0,-4.39152e-06,-1.32347e+09,-1.32233e+09,-1.32331e+09,-586926,-0.00958656,0.107358,-0,0.107785,2752.07,-46952.8,0,47033.4,586926
step02_gravity_refstate-mantle.xmf,866,-1.69052e-06,8.26714e-06,0,-4.66512e-06,-1.33229e+09,-1.33096e+09,-1.33207e+09,-623493,-0.00937245,0.109981,-0,0.11038,2310.78,-47224.9,0,47281.4,623493
step02_gravity_refstate-mantle.xmf,867,-4.31293e-06,1.34783e-05,0,-5.86259e-06,-1.34132e+09,-1.33894e+09,-1.34075e+09,-783535,-0.00607167,0.122616,-0,0.122766,1000,-47499.6,0,47510.1,783535
step02_gravity_refstate-mantle.xmf,868,-3.41745e-07,5.24925e-06,0,-3.17047e-06,-1.31774e+09,-1.317e+09,-1.3177e+09,-423733,-0.0104805,0.0927264,-0,0.0933168,4414.85,-46776.8,0,46984.7,423733
step02_gravity_refstate-mantle.xmf,869,3.84481e-07,2.88881e-06,0,-1.85241e-07,-1.38726e+09,-1.38692e+09,-1.38731e+09,-24757.5,-0.0121069,0.0378954,-0,0.0397824,15785.6,-48922.9,0,51406.6,24757.5
step02_gravity_refstate-mantle.xmf,870,2.33949e-07,3.3653e-06,0,-9.64076e-07,-1.33888e+09,-1.33846e+09,-1.33891e+09,-128849,-0.0114447,0.0575007,-0,0.0586286,10075.9,-47428.8,0,48487.2,128849
step02_gravity_refstate-mantle.xmf,871,1.27354e-07,3.97391e-06,0,-1.7089e-06,-1.34375e+09,-1.34324e+09,-1.34377e+09,-228394,-0.0121945,0.0682031,-0,0.0692847,7560.89,-47580.1,0,48177.1,228394
step02_gravity_refstate-mantle.xmf,872,5.7894e-07,2.6962e-06,0,3.59625e-08,-1.46725e+09,-1.46697e+09,-1.46733e+09,4806.39,-0.0125019,0.0253922,-0,0.028303,20501.2,-51394.8,0,55332.8,4806.39
step02_gravity_refstate-mantle.xmf,873,5.29267e-07,2.74596e-06,0,-2.88641e-09,-1.44592e+09,-1.44562e+09,-1.44599e+09,-385.768,-0.0126101,0.0282858,-0,0.0309694,19229.2,-50735.5,0,54257.3,385.768
step02_gravity_refstate-mantle.xmf,874,4.303e-07,2.84014e-06,0,-1.12171e-07,-1.40517e+09,-1.40485e+09,-1.40523e+09,-14991.7,-0.0123639,0.0345781,-0,0.0367221,16891.1,-49476.3,0,52280.2,14991.7
step02_gravity_refstate-mantle.xmf,875,4.79047e-07,2.79313e-06,0,-5.16295e-08,-1.42496e+09,-1.42465e+09,-1.42502e+09,-6900.28,-0.0125468,0.0313582,-0,0.0337751,18037.1,-50087.9,0,53236.6,6900.28
step02_gravity_refstate-mantle.xmf,876,6.77948e-07,2.72315e-06,0,4.43417e-08,-1.53698e+09,-1.53671e+09,-1.53707e+09,5926.27,-0.0131983,0.0186974,-0,0.0228864,21850.7,-53549.3,0,57835.8,5926.27
step02_gravity_refstate-mantle.xmf,877,7.93364e-07,2.71331e-06,0,4.1057e-08,-1.64024e+09,-1.63998e+09,-1.64035e+09,5487.27,-0.0124668,0.00910837,-0,0.0154397,24665.3,-56739.8,0,61869.1,5487.27
step02_gravity_refstate-mantle.xmf,878,8.31217e-07,2.75682e-06,0,1.50141e-08,-1.71419e+09,-1.71394e+09,-1.71431e+09,2006.63,-0.0117615,0.00271569,-0,0.0120709,25994.2,-59024.6,0,64494.9,2006.63
step02_gravity_refstate-mantle.xmf,879,1.10419e-07,4.03973e-06,0,1.25508e-06,-1.4155e+09,-1.41498e+09,-1.41552e+09,167742,0.0151369,0.0514447,0,0.0536254,-9361.84,-49796.4,-0,50668.8,167742
step02_gravity_refstate-mantle.xmf,880,1.48632e-07,3.93437e-06,0,1.06341e-06,-1.43135e+09,-1.43085e+09,-1.43137e+09,142125,0.0155635,0.0467137,0,0.0492382,-10183.6,-50286.1,-0,51306.9,142125
step02_gravity_refstate-mantle.xmf,881,-3.07222e-06,1.11449e-05,0,5.09335e-06,-1.34929e+09,-1.34739e+09,-1.34888e+09,680726,0.00788671,0.11439,0,0.114662,-1443.48,-47748.1,-0,47769.9,680726
step02_gravity_refstate-mantle.xmf,882,-2.36779e-06,9.75024e-06,0,4.70472e-06,-1.35736e+09,-1.35574e+09,-1.35705e+09,628786,0.00921831,0.107163,0,0.107559,-1906.9,-47998.6,-0,48036.5,628786
step02_gravity_refstate-mantle.xmf,883,-1.95645e-06,8.76256e-06,0,4.26003e-06,-1.36596e+09,-1.36453e+09,-1.3657e+09,569353,0.0102941,0.100477,0,0.101003,-2378.99,-48264.3,-0,48322.9,569353
step02_gravity_refstate-mantle.xmf,884,-4.01102e-07,5.47478e-06,0,2.75835e-06,-1.37194e+09,-1.37116e+09,-1.37189e+09,368654,0.0132478,0.0784877,0,0.0795978,-5124.33,-48451.2,-0,48721.4,368654
step02_gravity_refstate-mantle.xmf,885,-7.6972e-08,4.5314e-06,0,1.68227e-06,-1.41448e+09,-1.41387e+09,-1.41447e+09,224835,0.0151293,0.0575754,0,0.05953,-7841.44,-49764.9,-0,50378.9,224835
step02_gravity_refstate-mantle.xmf,886,-3.04617e-07,5.19613e-06,0,2.46226e-06,-1.38252e+09,-1.38178e+09,-1.38248e+09,329081,0.0137975,0.0728522,0,0.0741473,-5754.68,-48777.8,-0,49116.1,329081
step02_gravity_refstate-mantle.xmf,887,-2.1822e-07,4.94514e-06,0,2.18395e-06,-1.39292e+09,-1.39223e+09,-1.39289e+09,291885,0.0142852,0.0675039,0,0.0689989,-6421.61,-49098.9,-0,49517,291885
step02_gravity_refstate-mantle.xmf,888,-1.41392e-07,4.72181e-06,0,1.92452e-06,-1.40322e+09,-1.40257e+09,-1.4032e+09,257212,0.0147176,0.0624619,0,0.0641724,-7117.77,-49417,-0,49926.9,257212
step02_gravity_refstate-mantle.xmf,889,-8.68731e-07,6.50973e-06,0,3.33305e-06,-1.37313e+09,-1.37214e+09,-1.37301e+09,445462,0.0125456,0.0862685,0,0.087176,-3963.06,-48487.3,-0,48648.9,445462
step02_gravity_refstate-mantle.xmf,890,-1.61054e-06,7.96902e-06,0,3.87149e-06,-1.3748e+09,-1.37351e+09,-1.37458e+09,517424,0.0112445,0.094049,0,0.0947188,-2886.63,-48537.6,-0,48623.3,517424
step02_gravity_refstate-mantle.xmf,891,4.69639e-07,3.29903e-06,0,2.23243e-07,-1.532e+09,-1.53162e+09,-1.53206e+09,29836.4,0.0165382,0.0237423,0,0.0289346,-16016.8,-53395.6,-0,55746.1,29836.4
step02_gravity_refstate-mantle.xmf,892,4.03757e-07,3.41599e-06,0,3.24712e-07,-1.51582e+09,-1.51542e+09,-1.51588e+09,43397.8,0.0166594,0.0268495,0,0.031598,-14891.5,-52895.7,-0,54951.9,43397.8
step02_gravity_refstate-mantle.xmf,893,1.90374e-07,3.82979e-06,0,8.8496e-07,-1.44726e+09,-1.44677e+09,-1.44729e+09,118275,0.015923,0.0422698,0,0.0451694,-11043.5,-50777.5,-0,51964.5,118275
step02_gravity_refstate-mantle.xmf,894,3.44835e-07,3.51817e-06,0,4.39521e-07,-1.49795e+09,-1.49753e+09,-1.498e+09,58742,0.0166008,0.0303381,0,0.0345831,-13871.9,-52343.5,-0,54150.5,58742
step02_gravity_refstate-mantle.xmf,895,2.88337e-07,3.62308e-06,0,5.73048e-07,-1.48056e+09,-1.48011e+09,-1.4806e+09,76587.8,0.0164538,0.0340902,0,0.0378532,-12881,-51806.2,-0,53383.5,76587.8
step02_gravity_refstate-mantle.xmf,896,2.36141e-07,3.7285e-06,0,7.23323e-07,-1.46369e+09,-1.46322e+09,-1.46372e+09,96672.1,0.0162262,0.0380848,0,0.0413974,-11931,-51284.9,-0,52654.5,96672.1
step02_gravity_refstate-mantle.xmf,897,5.31741e-07,3.30076e-06,0,1.28383e-07,-1.59056e+09,-1.59019e+09,-1.59063e+09,17158.3,0.0170393,0.0166823,0,0.0238461,-17175,-55204.9,-0,57814.9,17158.3
step02_gravity_refstate-mantle.xmf,898,5.97776e-07,3.31787e-06,0,4.67315e-08,-1.66709e+09,-1.66672e+09,-1.66717e+09,6245.67,0.0172678,0.0082482,0,0.0191366,-18303.3,-57569.4,-0,60409,6245.67
step02_gravity_refstate-mantle.xmf,899,6.51874e-07,3.2682e-06,0,1.60227e-08,-1.70446e+09,-1.70411e+09,-1.70455e+09,2141.43,0.0169033,0.00421878,0,0.0174218,-19229,-58724,-0,61792,2141.43
step02_gravity_refstate-mantle.xmf,900,6.87801e-07,3.25556e-06,0,-4.59173e-10,-1.74576e+09,-1.74542e+09,-1.74585e+09,-61.3685,0.0165073,-6.00568e-20,0,0.0165073,-19941.4,-60000,-0,63227.1,61.3685
step02_gravity_refstate-mantle.xmf,901,-2.2562e-06,9.50659e-06,0,-4.91091e-06,-1.34081e+09,-1.33924e+09,-1.34051e+09,-656343,-0.0088331,0.112426,-0,0.112772,1872.95,-47487.5,0,47524.5,656343
step02_gravity_refstate-mantle.xmf,902,-3.07837e-06,1.11565e-05,0,-5.09137e-06,-1.34936e+09,-1.34746e+09,-1.34895e+09,-680462,-0.00788159,0.114385,-0,0.114657,1441.63,-47750.3,0,47772,680462
step02_gravity_refstate-mantle.xmf,903,-6.26361e-07,6.0204e-06,0,-3.59978e-06,-1.3295e+09,-1.32861e+09,-1.32942e+09,-481111,-0.0108475,0.0963167,-0,0.0969256,3764.29,-47140.1,0,47290.1,481111
step02_gravity_refstate-mantle.xmf,904,-1.90788e-07,4.92742e-06,0,-2.78499e-06,-1.32799e+09,-1.32731e+09,-1.32797e+09,-372214,-0.0112777,0.0859606,-0,0.0866972,5065.25,-47093.5,0,47365.1,372214
step02_gravity_refstate-mantle.xmf,905,-8.39321e-08,4.67961e-06,0,-2.4766e-06,-1.33797e+09,-1.33733e+09,-1.33796e+09,-330998,-0.0119286,0.0799871,-0,0.0808716,5700.49,-47401.8,0,47743.3,330998
step02_gravity_refstate-mantle.xmf,906,2.78804e-07,3.20809e-06,0,-6.70237e-07,-1.354e+09,-1.35361e+09,-1.35404e+09,-89577.2,-0.0118819,0.05052,-0,0.0518985,11674.9,-47895.6,0,49298,89577.2
step02_gravity_refstate-mantle.xmf,907,3.89532e-07,3.05004e-06,0,-3.02248e-07,-1.40804e+09,-1.40769e+09,-1.4081e+09,-40395.4,-0.0133421,0.0378208,-0,0.0401052,14764,-49565.4,0,51717.5,40395.4
step02_gravity_refstate-mantle.xmf,908,3.50079e-07,3.10091e-06,0,-4.04294e-07,-1.3899e+09,-1.38953e+09,-1.38994e+09,-54033.9,-0.012962,0.0416226,-0,0.0435942,13747.1,-49004.7,0,50896.4,54033.9
step02_gravity_refstate-mantle.xmf,909,3.14514e-07,3.15347e-06,0,-5.21804e-07,-1.37291e+09,-1.37253e+09,-1.37295e+09,-69739.2,-0.0125161,0.0456464,-0,0.0473313,12750.7,-48479.9,0,50128.6,69739.2
step02_gravity_refstate-mantle.xmf,910,-1.23043e-08,4.47683e-06,0,-2.19392e-06,-1.34806e+09,-1.34746e+09,-1.34806e+09,-293218,-0.0124942,0.0744471,-0,0.0754883,6348.04,-47713.5,0,48133.9,293218
step02_gravity_refstate-mantle.xmf,911,2.57423e-07,3.34102e-06,0,-8.49712e-07,-1.3537e+09,-1.35329e+09,-1.35374e+09,-113564,-0.0121107,0.0535597,-0,0.0549119,10741.8,-47886.7,0,49076.7,113564
step02_gravity_refstate-mantle.xmf,912,4.68995e-08,4.28874e-06,0,-1.93672e-06,-1.35666e+09,-1.35609e+09,-1.35666e+09,-258842,-0.0129154,0.069477,-0,0.0706673,7012.89,-47979,0,48488.8,258842
step02_gravity_refstate-mantle.xmf,913,2.15139e-07,3.62258e-06,0,-1.20049e-06,-1.35572e+09,-1.35527e+09,-1.35575e+09,-160446,-0.0125577,0.0588356,-0,0.0601609,9279.19,-47949.5,0,48839.1,160446
step02_gravity_refstate-mantle.xmf,914,1.0026e-07,4.10702e-06,0,-1.69152e-06,-1.36416e+09,-1.36362e+09,-1.36417e+09,-226071,-0.0132293,0.064831,-0,0.066167,7723.72,-48210.6,0,48825.4,226071
step02_gravity_refstate-mantle.xmf,915,6.30082e-07,2.77445e-06,0,1.86752e-08,-1.51295e+09,-1.51267e+09,-1.51304e+09,2495.94,-0.0135702,0.0215006,-0,0.0254249,20541.1,-52807,0,56661.4,2495.94
step02_gravity_refstate-mantle.xmf,916,7.60071e-07,2.75198e-06,0,3.93412e-08,-1.61297e+09,-1.61271e+09,-1.61307e+09,5257.95,-0.0132916,0.0117228,-0,0.0177226,23267,-55897.4,0,60546.4,5257.95
step02_gravity_refstate-mantle.xmf,917,7.15606e-07,2.81158e-06,0,2.66587e-08,-1.5881e+09,-1.58782e+09,-1.5882e+09,3562.94,-0.0140508,0.014342,-0,0.0200778,21815.1,-55129,0,59288.3,3562.94
step02_gravity_refstate-mantle.xmf,918,8.10795e-07,2.81013e-06,0,1.8809e-08,-1.69674e+09,-1.69647e+09,-1.69685e+09,2513.83,-0.0130091,0.00431943,-0,0.0137074,24409.4,-58485.4,0,63374.8,2513.83
step02_gravity_refstate-mantle.xmf,919,8.23474e-07,2.85397e-06,0,-3.99165e-10,-1.74577e+09,-1.74549e+09,-1.74588e+09,-53.3483,-0.0125791,-4.18573e-19,-0,0.0125791,25049.3,-60000,0,65019,53.3483
step02_gravity_refstate-mantle.xmf,920,-2.63358e-08,4.37697e-06,0,1.45852e-06,-1.42767e+09,-1.42708e+09,-1.42766e+09,194931,0.0155474,0.052761,0,0.055004,-8582.76,-50172.2,-0,50901,194931
step02_gravity_refstate-mantle.xmf,921,-4.76755e-06,1.34866e-05,0,4.64865e-06,-1.35762e+09,-1.35518e+09,-1.35698e+09,621293,0.006154,0.115616,0,0.11578,-1000,-48000,-0,48010.4,621293
step02_gravity_refstate-mantle.xmf,922,-7.09001e-07,6.09719e-06,0,3.00172e-06,-1.38335e+09,-1.38244e+09,-1.38325e+09,401180,0.0132085,0.0802618,0,0.0813414,-4543.78,-48803,-0,49014.1,401180
step02_gravity_refstate-mantle.xmf,923,-1.33272e-06,7.33101e-06,0,3.52074e-06,-1.384e+09,-1.38284e+09,-1.38382e+09,470547,0.0120782,0.0879009,0,0.0887269,-3417.89,-48822.1,-0,48941.6,470547
step02_gravity_refstate-mantle.xmf,924,4.61957e-07,3.40817e-06,0,2.05401e-07,-1.56948e+09,-1.56908e+09,-1.56954e+09,27451.8,0.0172478,0.0198144,0,0.0262697,-16059.9,-54553.5,-0,56868.3,27451.8
step02_gravity_refstate-mantle.xmf,925,5.23083e-07,3.41458e-06,0,1.03366e-07,-1.63484e+09,-1.63445e+09,-1.63491e+09,13814.8,0.017621,0.0121051,0,0.0213784,-17149.6,-56572.9,-0,59115.2,13814.8
step02_gravity_refstate-mantle.xmf,926,-9.68028e-07,6.75881e-06,0,-4.01031e-06,-1.33086e+09,-1.32982e+09,-1.33073e+09,-535978,-0.0104403,0.101512,-0,0.102047,3173.22,-47181.5,0,47288.1,535978
step02_gravity_refstate-mantle.xmf,927,-1.28737e-06,7.49714e-06,0,-4.20729e-06,-1.34021e+09,-1.33904e+09,-1.34004e+09,-562304,-0.0104234,0.103085,-0,0.103611,2796.81,-47470.3,0,47552.6,562304
step02_gravity_refstate-mantle.xmf,928,-1.75925e-06,8.49019e-06,0,-4.4485e-06,-1.34892e+09,-1.34755e+09,-1.34868e+09,-594543,-0.0100174,0.105261,-0,0.105737,2351.54,-47738.5,0,47796.4,594543
step02_gravity_refstate-mantle.xmf,929,-4.67167e-06,1.3611e-05,0,-4.6169e-06,-1.35759e+09,-1.35514e+09,-1.35696e+09,-617049,-0.00614641,0.115621,-0,0.115784,1000,-48000,0,48010.4,617049
step02_gravity_refstate-mantle.xmf,930,-4.09436e-07,5.5337e-06,0,-3.12115e-06,-1.34002e+09,-1.33923e+09,-1.33997e+09,-417141,-0.0117403,0.0885985,-0,0.0893729,4466.38,-47465.2,0,47674.9,417141
step02_gravity_refstate-mantle.xmf,931,4.32813e-07,2.99917e-06,0,-2.13599e-07,-1.42743e+09,-1.42709e+09,-1.42749e+09,-28547.4,-0.0136437,0.0341966,-0,0.0368179,15812.3,-50164.4,0,52597.5,28547.4
step02_gravity_refstate-mantle.xmf,932,2.39923e-07,3.54442e-06,0,-1.02166e-06,-1.36916e+09,-1.36872e+09,-1.36919e+09,-136545,-0.0130646,0.0542094,-0,0.0557615,10091.5,-48364.6,0,49406.2,136545
step02_gravity_refstate-mantle.xmf,933,1.37401e-07,3.94499e-06,0,-1.44063e-06,-1.37387e+09,-1.37336e+09,-1.37389e+09,-192541,-0.0135869,0.0598772,-0,0.0613993,8533.28,-48510.4,0,49255.2,192541
step02_gravity_refstate-mantle.xmf,934,5.81079e-07,2.83148e-06,0,-2.0232e-08,-1.49097e+09,-1.49067e+09,-1.49105e+09,-2704.01,-0.0138145,0.024354,-0,0.0279992,19283.1,-52127.8,0,55580.1,2704.01
step02_gravity_refstate-mantle.xmf,935,5.31585e-07,2.89107e-06,0,-7.32251e-08,-1.46986e+09,-1.46955e+09,-1.46993e+09,-9786.53,-0.0139234,0.0273827,-0,0.0307193,18065.1,-51475.5,0,54553.4,9786.53
step02_gravity_refstate-mantle.xmf,936,4.80142e-07,2.94593e-06,0,-1.36853e-07,-1.44796e+09,-1.44763e+09,-1.44802e+09,-18290.4,-0.0138413,0.0307259,-0,0.0336996,16910.6,-50798.7,0,53539.5,18290.4
step02_gravity_refstate-mantle.xmf,937,6.65921e-07,2.86548e-06,0,3.6778e-09,-1.56065e+09,-1.56036e+09,-1.56074e+09,491.538,-0.0145189,0.0173608,-0,0.0226318,20514.3,-54280.9,0,58028,491.538
step02_gravity_refstate-mantle.xmf,938,7.79873e-07,2.8254e-06,0,2.67391e-08,-1.66026e+09,-1.65999e+09,-1.66036e+09,3573.68,-0.0137314,0.0076503,-0,0.0157187,23251,-57358.4,0,61891.8,3573.68
step02_gravity_refstate-mantle.xmf,939,-2.08004e-09,4.29439e-06,0,1.2536e-06,-1.44861e+09,-1.44803e+09,-1.44861e+09,167544,0.0161216,0.0472395,0,0.0499147,-9345.83,-50819,-0,51671.2,167544
step02_gravity_refstate-mantle.xmf,940,5.94366e-08,4.14999e-06,0,1.04198e-06,-1.46488e+09,-1.46433e+09,-1.46489e+09,139261,0.0165084,0.0423965,0,0.0454971,-10227.2,-51321.7,-0,52330.8,139261
step02_gravity_refstate-mantle.xmf,941,-3.51011e-06,1.14152e-05,0,4.50704e-06,-1.3661e+09,-1.3641e+09,-1.36563e+09,602366,0.00787772,0.108337,0,0.108623,-1467.14,-48265.1,-0,48287.4,602366
step02_gravity_refstate-mantle.xmf,942,-2.81577e-06,1.00547e-05,0,4.21522e-06,-1.37533e+09,-1.37361e+09,-1.37496e+09,563364,0.00912616,0.101655,0,0.102063,-1910.93,-48551.5,-0,48589.1,563364
step02_gravity_refstate-mantle.xmf,943,-2.30466e-06,9.03081e-06,0,3.88696e-06,-1.38445e+09,-1.38293e+09,-1.38414e+09,519492,0.0102382,0.0953193,0,0.0958676,-2390.46,-48833.9,-0,48892.3,519492
step02_gravity_refstate-mantle.xmf,944,-5.80149e-07,5.75332e-06,0,2.69475e-06,-1.39411e+09,-1.39327e+09,-1.39404e+09,360153,0.01381,0.074502,0,0.0757711,-5147.37,-49135.5,-0,49404.4,360153
step02_gravity_refstate-mantle.xmf,945,-2.03638e-07,4.75712e-06,0,1.65901e-06,-1.43857e+09,-1.43791e+09,-1.43855e+09,221726,0.0157279,0.05419,0,0.0564263,-7824.57,-50508.9,-0,51111.3,221726
step02_gravity_refstate-mantle.xmf,946,-2.82769e-07,4.96124e-06,0,1.88535e-06,-1.42788e+09,-1.42718e+09,-1.42784e+09,251977,0.015332,0.0586891,0,0.0606588,-7136.35,-50178.6,-0,50683.5,251977
step02_gravity_refstate-mantle.xmf,947,-4.71068e-07,5.45829e-06,0,2.40725e-06,-1.40537e+09,-1.40458e+09,-1.40531e+09,321729,0.0143648,0.0689537,0,0.0704341,-5779.57,-49483.3,-0,49819.7,321729
step02_gravity_refstate-mantle.xmf,948,-3.72986e-07,5.19642e-06,0,2.13716e-06,-1.41671e+09,-1.41597e+09,-1.41666e+09,285632,0.0148737,0.0636618,0,0.0653762,-6444.58,-49833.5,-0,50248.5,285632
step02_gravity_refstate-mantle.xmf,949,-1.11465e-06,6.81624e-06,0,3.19055e-06,-1.39422e+09,-1.39316e+09,-1.39407e+09,426417,0.0128226,0.0818816,0,0.0828795,-3970.41,-49138.1,-0,49298.2,426417
step02_gravity_refstate-mantle.xmf,950,-1.93143e-06,8.26938e-06,0,3.58186e-06,-1.39414e+09,-1.39278e+09,-1.39388e+09,478715,0.0111887,0.0892447,0,0.0899433,-2882.17,-49133.8,-0,49218.3,478715
step02_gravity_refstate-mantle.xmf,951,3.87593e-07,3.53423e-06,0,3.002e-07,-1.55237e+09,-1.55195e+09,-1.55242e+09,40121.7,0.0174002,0.02283,0,0.028705,-14964.9,-54024.8,-0,56059.2,40121.7
step02_gravity_refstate-mantle.xmf,952,3.13367e-07,3.65976e-06,0,4.15992e-07,-1.53411e+09,-1.53366e+09,-1.53415e+09,55597.3,0.0174091,0.0262688,0,0.0315139,-13910,-53460.5,-0,55240.5,55597.3
step02_gravity_refstate-mantle.xmf,953,1.07769e-07,4.04436e-06,0,8.71388e-07,-1.48209e+09,-1.48157e+09,-1.48211e+09,116461,0.01686,0.0380743,0,0.0416403,-11028.2,-51853.4,-0,53013.2,116461
step02_gravity_refstate-mantle.xmf,954,2.41337e-07,3.78692e-06,0,5.50651e-07,-1.51629e+09,-1.51582e+09,-1.51632e+09,73594.5,0.0173122,0.0299596,0,0.0346019,-12902.4,-52910.1,-0,54460.5,73594.5
step02_gravity_refstate-mantle.xmf,955,1.72514e-07,3.91453e-06,0,7.02519e-07,-1.49887e+09,-1.49837e+09,-1.49889e+09,93891.7,0.0171223,0.0339039,0,0.0379822,-11943.4,-52371.8,-0,53716.4,93891.7
step02_gravity_refstate-mantle.xmf,956,4.46278e-07,3.53016e-06,0,1.71865e-07,-1.61252e+09,-1.6121e+09,-1.61258e+09,22969.7,0.0178811,0.0151888,0,0.0234613,-16074.7,-55883.2,-0,58149.1,22969.7
step02_gravity_refstate-mantle.xmf,957,5.07721e-07,3.51349e-06,0,7.41322e-08,-1.67254e+09,-1.67214e+09,-1.67261e+09,9907.77,0.0179971,0.00811349,0,0.0197414,-17053.8,-57737.7,-0,60203.6,9907.77
step02_gravity_refstate-mantle.xmf,958,5.52562e-07,3.48382e-06,0,3.30013e-08,-1.706e+09,-1.70561e+09,-1.70607e+09,4410.62,0.0178544,0.00432731,0,0.0183713,-17658.9,-58771.4,-0,61367.1,4410.62
step02_gravity_refstate-mantle.xmf,959,6.01159e-07,3.44983e-06,0,-7.26177e-10,-1.74576e+09,-1.74538e+09,-1.74584e+09,-97.0536,0.0175158,-6.29511e-20,0,0.0175158,-18377.3,-60000,-0,62751.3,97.0536
step02_gravity_refstate-mantle.xmf,960,-2.44683e-06,9.7625e-06,0,-4.62621e-06,-1.35741e+09,-1.35578e+09,-1.35709e+09,-618293,-0.00920999,0.107185,-0,0.10758,1903.45,-47999.6,0,48037.4,618293
step02_gravity_refstate-mantle.xmf,961,-3.56895e-06,1.15172e-05,0,-4.49229e-06,-1.36618e+09,-1.36416e+09,-1.3657e+09,-600394,-0.00779356,0.108508,-0,0.108788,1443.7,-48267.4,0,48288.9,600394
step02_gravity_refstate-mantle.xmf,962,-9.55305e-07,6.82008e-06,0,-3.84117e-06,-1.34557e+09,-1.34453e+09,-1.34545e+09,-513372,-0.0112049,0.0971243,-0,0.0977685,3314.19,-47636.4,0,47751.5,513372
step02_gravity_refstate-mantle.xmf,963,-6.94118e-07,6.23344e-06,0,-3.44369e-06,-1.35222e+09,-1.35129e+09,-1.35213e+09,-460249,-0.0119387,0.0907873,-0,0.0915689,3909.78,-47841.9,0,48001.3,460249
step02_gravity_refstate-mantle.xmf,964,-2.79259e-07,5.20565e-06,0,-2.77551e-06,-1.3504e+09,-1.34967e+09,-1.35037e+09,-370947,-0.0124323,0.0822347,-0,0.0831692,5095.47,-47785.9,0,48056.8,370947
step02_gravity_refstate-mantle.xmf,965,-1.75122e-07,4.94144e-06,0,-2.48508e-06,-1.36033e+09,-1.35965e+09,-1.36031e+09,-332130,-0.0130009,0.0765319,-0,0.0776283,5720.76,-48092.6,0,48431.7,332130
step02_gravity_refstate-mantle.xmf,966,2.67029e-07,3.46194e-06,0,-8.55916e-07,-1.38137e+09,-1.38094e+09,-1.3814e+09,-114393,-0.0134385,0.0500159,-0,0.0517898,10933.8,-48741.6,0,49952.9,114393
step02_gravity_refstate-mantle.xmf,967,4.11373e-07,3.17257e-06,0,-3.2359e-07,-1.44521e+09,-1.44485e+09,-1.44527e+09,-43247.8,-0.0146855,0.0341711,-0,0.0371932,14805.9,-50714.1,0,52831.1,43247.8
step02_gravity_refstate-mantle.xmf,968,3.6955e-07,3.23811e-06,0,-4.33033e-07,-1.42684e+09,-1.42645e+09,-1.42689e+09,-57874.9,-0.0144307,0.0379203,-0,0.0405733,13786.5,-50146.3,0,52006.9,57874.9
step02_gravity_refstate-mantle.xmf,969,2.98599e-07,3.37608e-06,0,-6.97694e-07,-1.39394e+09,-1.39353e+09,-1.39398e+09,-93246.9,-0.0137489,0.0459555,-0,0.0479681,11846.5,-49130,0,50538.1,93246.9
step02_gravity_refstate-mantle.xmf,970,3.32276e-07,3.30416e-06,0,-5.56463e-07,-1.40967e+09,-1.40927e+09,-1.40971e+09,-74371.3,-0.0141084,0.0418408,-0,0.0441554,12806.1,-49615.8,0,51241.8,74371.3
step02_gravity_refstate-mantle.xmf,971,-9.54516e-08,4.70288e-06,0,-2.19987e-06,-1.36999e+09,-1.36935e+09,-1.36998e+09,-294012,-0.0134898,0.0710992,-0,0.0723676,6388.68,-48391.1,0,48811,294012
step02_gravity_refstate-mantle.xmf,972,-2.79582e-08,4.49209e-06,0,-1.93842e-06,-1.37916e+09,-1.37856e+09,-1.37916e+09,-259070,-0.0138986,0.0660836,-0,0.0675293,7077.56,-48674.1,0,49185.9,259070
step02_gravity_refstate-mantle.xmf,973,1.80795e-07,3.82378e-06,0,-1.23652e-06,-1.38571e+09,-1.38522e+09,-1.38574e+09,-165262,-0.0139878,0.0551617,-0,0.0569076,9335.33,-48876.1,0,49759.7,165262
step02_gravity_refstate-mantle.xmf,974,2.97268e-08,4.30562e-06,0,-1.68984e-06,-1.38903e+09,-1.38846e+09,-1.38904e+09,-225847,-0.0142825,0.0611745,-0,0.0628197,7812.95,-48979,0,49598.2,225847
step02_gravity_refstate-mantle.xmf,975,6.15129e-07,2.92527e-06,0,-3.3228e-08,-1.53608e+09,-1.53577e+09,-1.53616e+09,-4440.93,-0.014835,0.0203347,-0,0.0251709,19293.3,-53521.5,0,56892.7,4440.93
step02_gravity_refstate-mantle.xmf,976,6.84064e-07,2.97338e-06,0,-8.32804e-09,-1.60936e+09,-1.60905e+09,-1.60945e+09,-1113.04,-0.0153704,0.0130554,-0,0.0201666,20335.2,-55785.7,0,59376.5,1113.04
step02_gravity_refstate-mantle.xmf,977,7.40613e-07,2.91926e-06,0,1.22899e-08,-1.64705e+09,-1.64675e+09,-1.64714e+09,1642.55,-0.0148182,0.00916493,-0,0.0174234,21681.6,-56950.2,0,60937.8,1642.55
step02_gravity_refstate-mantle.xmf,978,7.73311e-07,2.94718e-06,0,9.56594e-09,-1.70083e+09,-1.70054e+09,-1.70094e+09,1278.49,-0.0145695,0.00414435,-0,0.0151474,22459.3,-58612,0,62767.7,1278.49
step02_gravity_refstate-mantle.xmf,979,7.95322e-07,2.96078e-06,0,-8.88101e-11,-1.74576e+09,-1.74547e+09,-1.74587e+09,-11.8695,-0.0140177,-4.0061e-19,-0,0.0140177,23273,-60000,0,64355.5,11.8695
step02_gravity_refstate-mantle.xmf,980,-1.28003e-07,4.56547e-06,0,1.42714e-06,-1.45148e+09,-1.45085e+09,-1.45146e+09,190738,0.0161381,0.0493924,0,0.051962,-8604.51,-50907.5,-0,51629.5,190738
step02_gravity_refstate-mantle.xmf,981,-4.45242e-06,1.26317e-05,0,3.83424e-06,-1.37295e+09,-1.37067e+09,-1.37236e+09,512447,0.00634125,0.108514,0,0.1087,-1118.55,-48473.6,-0,48486.6,512447
step02_gravity_refstate-mantle.xmf,982,-9.41396e-07,6.39311e-06,0,2.87793e-06,-1.4054e+09,-1.40442e+09,-1.40528e+09,384635,0.0135043,0.07598,0,0.0771708,-4548.95,-49483.5,-0,49692.1,384635
step02_gravity_refstate-mantle.xmf,983,-1.63265e-06,7.63575e-06,0,3.28209e-06,-1.40472e+09,-1.40348e+09,-1.4045e+09,438652,0.0120404,0.0832454,0,0.0841116,-3399.56,-49460.8,-0,49577.5,438652
step02_gravity_refstate-mantle.xmf,984,3.6014e-07,3.66648e-06,0,2.61998e-07,-1.59238e+09,-1.59194e+09,-1.59243e+09,35016.1,0.0180511,0.0183659,0,0.0257517,-14977.7,-55260.9,-0,57254.7,35016.1
step02_gravity_refstate-mantle.xmf,985,4.27871e-07,3.64261e-06,0,1.2821e-07,-1.65412e+09,-1.65369e+09,-1.65417e+09,17135.3,0.0183238,0.0105925,0,0.0211652,-16054.2,-57168.4,-0,59379.8,17135.3
step02_gravity_refstate-mantle.xmf,986,-1.39983e-06,7.70113e-06,0,-4.04431e-06,-1.3567e+09,-1.35548e+09,-1.35651e+09,-540522,-0.010979,0.0986955,-0,0.0993042,2853.59,-47979.3,0,48064.1,540522
step02_gravity_refstate-mantle.xmf,987,-1.99755e-06,8.76702e-06,0,-4.2117e-06,-1.36606e+09,-1.36462e+09,-1.36579e+09,-562894,-0.010294,0.100455,-0,0.100981,2378.75,-48267,0,48325.6,562894
step02_gravity_refstate-mantle.xmf,988,-6.30508e-06,1.62455e-05,0,-2.55688e-06,-1.35772e+09,-1.35471e+09,-1.35688e+09,-341727,-0.00325093,0.119327,-0,0.119372,499.828,-48000,0,48002.6,341727
step02_gravity_refstate-mantle.xmf,989,-4.82812e-06,1.32683e-05,0,-3.64347e-06,-1.37192e+09,-1.3695e+09,-1.37128e+09,-486950,-0.00565786,0.109964,-0,0.11011,966.202,-48440.9,0,48450.5,486950
step02_gravity_refstate-mantle.xmf,990,-5.34611e-07,5.80145e-06,0,-3.06048e-06,-1.36177e+09,-1.36092e+09,-1.3617e+09,-409033,-0.0126413,0.0843578,-0,0.0852997,4524.4,-48136.9,0,48349.1,409033
step02_gravity_refstate-mantle.xmf,991,4.56385e-07,3.1136e-06,0,-2.30868e-07,-1.4659e+09,-1.46555e+09,-1.46596e+09,-30855.5,-0.0149051,0.0305283,-0,0.0339727,15835.1,-51353.3,0,53739.3,30855.5
step02_gravity_refstate-mantle.xmf,992,2.11307e-07,3.72611e-06,0,-1.05048e-06,-1.39917e+09,-1.3987e+09,-1.3992e+09,-140397,-0.0143986,0.0506307,-0,0.0526382,10150.4,-49291.9,0,50326.2,140397
step02_gravity_refstate-mantle.xmf,993,6.52248e-08,4.15725e-06,0,-1.45651e-06,-1.40105e+09,-1.4005e+09,-1.40106e+09,-194662,-0.0146941,0.056302,-0,0.0581879,8574.46,-49350,0,50089.4,194662
step02_gravity_refstate-mantle.xmf,994,5.63621e-07,2.99196e-06,0,-8.41699e-08,-1.51415e+09,-1.51382e+09,-1.51422e+09,-11249.3,-0.0150437,0.0233056,-0,0.0277392,18117.4,-52844,0,55863.4,11249.3
step02_gravity_refstate-mantle.xmf,995,5.07769e-07,3.08294e-06,0,-1.62618e-07,-1.49533e+09,-1.49498e+09,-1.49539e+09,-21733.9,-0.0152595,0.0264094,-0,0.030501,16833.5,-52262.4,0,54906.6,21733.9
step02_gravity_refstate-mantle.xmf,996,6.32889e-07,3.02372e-06,0,-3.92242e-08,-1.58015e+09,-1.57983e+09,-1.58024e+09,-5242.32,-0.0156676,0.0163157,-0,0.0226203,19245.1,-54883.4,0,58159.8,5242.32
step02_gravity_refstate-mantle.xmf,997,-6.73039e-06,1.70692e-05,0,8.38763e-09,-1.35775e+09,-1.35457e+09,-1.35685e+09,1121.01,-6.11677e-07,0.120647,-0,0.120647,1.02887e-10,-48000,0,48000,1121.01
step02_gravity_refstate-mantle.xmf,998,-6.39493e-06,1.63641e-05,0,2.61267e-06,-1.35773e+09,-1.35469e+09,-1.35688e+09,349183,0.00325051,0.119327,0,0.119371,-499.828,-48000,-0,48002.6,349183
step02_gravity_refstate-mantle.xmf,999,-6.3315e-06,1.55017e-05,0,1.06773e-06,-1.37173e+09,-1.36882e+09,-1.37089e+09,142702,0.00151722,0.113389,0,0.113399,-238.034,-48430.7,-0,48431.3,142702
step02_gravity_refstate-mantle.xmf,1000,-5.51272e-06,1.42335e-05,0,2.95749e-06,-1.37225e+09,-1.36961e+09,-1.37151e+09,395269,0.00437163,0.11132,0,0.111406,-720.061,-48448.8,-0,48454.2,395269
step02_gravity_refstate-mantle.xmf,1001,-6.45899e-06,1.57475e-05,0,-8.94536e-07,-1.36971e+09,-1.36674e+09,-1.36884e+09,-119555,-0.00113558,0.114478,-0,0.114484,176.968,-48367.9,0,48368.2,119555
step02_gravity_refstate-mantle.xmf,1002,-4.15548e-08,4.35526e-06,0,9.78693e-07,-1.49983e+09,-1.49924e+09,-1.49982e+09,130802,0.0172503,0.0376027,0,0.0413707,-10302.5,-52401,-0,53404.2,130802
step02_gravity_refstate-mantle.xmf,1003,-1.04936e-07,4.48712e-06,0,1.14609e-06,-1.48576e+09,-1.48514e+09,-1.48574e+09,153175,0.0169384,0.0414628,0,0.0447892,-9584.37,-51966.3,-0,52842.8,153175
step02_gravity_refstate-mantle.xmf,1004,-1.86252e-07,4.66267e-06,0,1.34502e-06,-1.47265e+09,-1.47201e+09,-1.47263e+09,179762,0.0165849,0.0457079,0,0.0486238,-8800.65,-51561.5,-0,52307.1,179762
step02_gravity_refstate-mantle.xmf,1005,-3.90468e-06,1.14467e-05,0,3.64703e-06,-1.38411e+09,-1.38206e+09,-1.38359e+09,487425,0.00731877,0.102338,0,0.1026,-1421.76,-48818.9,-0,48839.6,487425
step02_gravity_refstate-mantle.xmf,1006,-3.14726e-06,1.01243e-05,0,3.56661e-06,-1.39449e+09,-1.39272e+09,-1.39407e+09,476677,0.00877385,0.0956882,0,0.0960896,-1912.86,-49141.3,-0,49178.5,476677
step02_gravity_refstate-mantle.xmf,1007,-2.59231e-06,9.17305e-06,0,3.44042e-06,-1.40228e+09,-1.4007e+09,-1.40193e+09,459812,0.00997887,0.0903075,0,0.0908572,-2392.55,-49383,-0,49440.9,459812
step02_gravity_refstate-mantle.xmf,1008,-2.95513e-07,4.8995e-06,0,1.57887e-06,-1.4609e+09,-1.46021e+09,-1.46086e+09,211016,0.0161768,0.0503614,0,0.0528957,-7954.77,-51198.4,-0,51812.7,211016
step02_gravity_refstate-mantle.xmf,1009,-7.98299e-07,6.04074e-06,0,2.58742e-06,-1.41726e+09,-1.41635e+09,-1.41715e+09,345808,0.0141303,0.0702863,0,0.0716926,-5148.02,-49849.9,-0,50115,345808
step02_gravity_refstate-mantle.xmf,1010,-4.31483e-07,5.18423e-06,0,1.81038e-06,-1.45275e+09,-1.452e+09,-1.4527e+09,241957,0.0157641,0.0546664,0,0.056894,-7166.38,-50946.4,-0,51448,241957
step02_gravity_refstate-mantle.xmf,1011,-5.54383e-07,5.45628e-06,0,2.0545e-06,-1.44181e+09,-1.44101e+09,-1.44174e+09,274583,0.0152665,0.0595226,0,0.0614493,-6447.07,-50608.4,-0,51017.4,274583
step02_gravity_refstate-mantle.xmf,1012,-6.67738e-07,5.72669e-06,0,2.31209e-06,-1.42932e+09,-1.42846e+09,-1.42923e+09,309011,0.0147203,0.0647837,0,0.066435,-5786.79,-50222.3,-0,50554.6,309011
step02_gravity_refstate-mantle.xmf,1013,-1.37748e-06,7.09026e-06,0,2.98481e-06,-1.41552e+09,-1.41439e+09,-1.41533e+09,398919,0.0128541,0.0773333,0,0.0783943,-3967.53,-49794.8,-0,49952.6,398919
step02_gravity_refstate-mantle.xmf,1014,-2.3382e-06,8.61549e-06,0,3.17941e-06,-1.41548e+09,-1.41402e+09,-1.41517e+09,424929,0.0106606,0.0844325,0,0.0851028,-2764.68,-49791.2,-0,49867.9,424929
step02_gravity_refstate-mantle.xmf,1015,2.7086e-07,3.81036e-06,0,3.73475e-07,-1.57287e+09,-1.5724e+09,-1.5729e+09,49914.9,0.0180944,0.0217898,0,0.0283232,-13914.9,-54658,-0,56401.4,49914.9
step02_gravity_refstate-mantle.xmf,1016,1.83055e-07,3.95476e-06,0,5.06401e-07,-1.55332e+09,-1.55282e+09,-1.55335e+09,67680.5,0.0180098,0.0255369,0,0.0312488,-12899.2,-54054,-0,55571.8,67680.5
step02_gravity_refstate-mantle.xmf,1017,1.48061e-08,4.248e-06,0,8.24166e-07,-1.51648e+09,-1.51592e+09,-1.51648e+09,110150,0.0175604,0.0336848,0,0.0379873,-11022.7,-52915.6,-0,54051.5,110150
step02_gravity_refstate-mantle.xmf,1018,9.44541e-08,4.10782e-06,0,6.61624e-07,-1.53471e+09,-1.53418e+09,-1.53473e+09,88426,0.0178311,0.0295329,0,0.0344984,-11908.4,-53478.9,-0,54788.7,88426
step02_gravity_refstate-mantle.xmf,1019,3.31489e-07,3.79073e-06,0,2.08543e-07,-1.63261e+09,-1.63215e+09,-1.63265e+09,27871.7,0.018535,0.0137367,0,0.0230704,-14972.1,-56503.7,-0,58453.7,27871.7
step02_gravity_refstate-mantle.xmf,1020,4.21903e-07,3.73541e-06,0,6.58613e-08,-1.70066e+09,-1.70022e+09,-1.70072e+09,8802.36,0.0185908,0.00526661,0,0.0193224,-16103.1,-58606.3,-0,60778.3,8802.36
step02_gravity_refstate-mantle.xmf,1021,4.8789e-07,3.67973e-06,0,-1.38097e-09,-1.74577e+09,-1.74534e+09,-1.74583e+09,-184.566,0.0183343,-7.84508e-20,0,0.0183343,-16875.3,-60000,-0,62328,184.566
step02_gravity_refstate-mantle.xmf,1022,-2.83921e-06,1.00664e-05,0,-4.15524e-06,-1.37574e+09,-1.37402e+09,-1.37536e+09,-555348,-0.00911402,0.101547,-0,0.101955,1908.76,-48564,0,48601.5,555348
step02_gravity_refstate-mantle.xmf,1023,-5.79536e-06,1.43783e-05,0,-2.1235e-06,-1.37715e+09,-1.37445e+09,-1.37638e+09,-283805,-0.00322027,0.110021,-0,0.110068,531.603,-48598.8,0,48601.7,283805
step02_gravity_refstate-mantle.xmf,1024,-3.9569e-06,1.14986e-05,0,-3.53987e-06,-1.38586e+09,-1.38379e+09,-1.38533e+09,-473104,-0.00715808,0.101911,-0,0.102162,1392.04,-48872.7,0,48892.5,473104
step02_gravity_refstate-mantle.xmf,1025,-1.09098e-06,7.04377e-06,0,-3.69365e-06,-1.36438e+09,-1.3633e+09,-1.36424e+09,-493656,-0.0118053,0.0924528,-0,0.0932035,3390.99,-48217.1,0,48336.2,493656
step02_gravity_refstate-mantle.xmf,1026,-8.68189e-07,6.50843e-06,0,-3.33254e-06,-1.37311e+09,-1.37212e+09,-1.37299e+09,-445394,-0.0125459,0.0862661,-0,0.0871736,3963.88,-48486.7,0,48648.5,445394
step02_gravity_refstate-mantle.xmf,1027,-4.14471e-07,5.47559e-06,0,-2.74563e-06,-1.37194e+09,-1.37116e+09,-1.37189e+09,-366954,-0.0132478,0.0784874,-0,0.0795976,5124.41,-48451.1,0,48721.4,366954
step02_gravity_refstate-mantle.xmf,1028,-3.04602e-07,5.19608e-06,0,-2.46222e-06,-1.38252e+09,-1.38178e+09,-1.38248e+09,-329076,-0.0137975,0.072852,-0,0.0741471,5754.75,-48777.8,0,49116.1,329076
step02_gravity_refstate-mantle.xmf,1029,2.43875e-07,3.6362e-06,0,-8.81644e-07,-1.41323e+09,-1.41278e+09,-1.41327e+09,-117832,-0.0147681,0.046349,-0,0.0486449,10989.4,-49726.2,0,50926.1,117832
step02_gravity_refstate-mantle.xmf,1030,4.12772e-07,3.29818e-06,0,-3.32688e-07,-1.48106e+09,-1.48068e+09,-1.48112e+09,-44463.7,-0.0157851,0.0305422,-0,0.0343802,14832.9,-51821.8,0,53902.8,44463.7
step02_gravity_refstate-mantle.xmf,1031,3.65394e-07,3.37774e-06,0,-4.44424e-07,-1.46271e+09,-1.4623e+09,-1.46276e+09,-59397.3,-0.0156269,0.0341615,-0,0.037566,13833.4,-51254.6,0,53088.6,59397.3
step02_gravity_refstate-mantle.xmf,1032,3.20302e-07,3.46284e-06,0,-5.76103e-07,-1.44516e+09,-1.44474e+09,-1.44521e+09,-76996.2,-0.0154003,0.0380555,-0,0.0410535,12838.1,-50712.6,0,52312.4,76996.2
step02_gravity_refstate-mantle.xmf,1033,2.80682e-07,3.54622e-06,0,-7.1982e-07,-1.42864e+09,-1.42821e+09,-1.42868e+09,-96204,-0.015105,0.0420942,-0,0.0447222,11902.3,-50202.2,0,51593.9,96204
step02_gravity_refstate-mantle.xmf,1034,-2.18225e-07,4.94516e-06,0,-2.18396e-06,-1.39291e+09,-1.39222e+09,-1.39289e+09,-291886,-0.0142851,0.0675042,-0,0.0689991,6421.57,-49098.9,0,49517,291886
step02_gravity_refstate-mantle.xmf,1035,-1.41386e-07,4.7218e-06,0,-1.92452e-06,-1.40322e+09,-1.40257e+09,-1.4032e+09,-257212,-0.0147176,0.0624619,-0,0.0641724,7117.78,-49417,0,49926.9,257212
step02_gravity_refstate-mantle.xmf,1036,1.11929e-07,4.03641e-06,0,-1.2556e-06,-1.41499e+09,-1.41446e+09,-1.415e+09,-167811,-0.0151195,0.0515161,-0,0.053689,9359.83,-49780.5,0,50652.8,167811
step02_gravity_refstate-mantle.xmf,1037,-7.69693e-08,4.53139e-06,0,-1.68226e-06,-1.41448e+09,-1.41387e+09,-1.41447e+09,-224834,-0.0151293,0.0575754,-0,0.05953,7841.44,-49764.9,0,50378.9,224834
step02_gravity_refstate-mantle.xmf,1038,5.84109e-07,3.08949e-06,0,-8.43738e-08,-1.55853e+09,-1.55819e+09,-1.55861e+09,-11276.6,-0.0159287,0.0190671,-0,0.024845,18198.1,-54215.3,0,57188,11276.6
step02_gravity_refstate-mantle.xmf,1039,6.27925e-07,3.15031e-06,0,-4.64551e-08,-1.62265e+09,-1.62231e+09,-1.62273e+09,-6208.73,-0.0164731,0.0124458,-0,0.0206461,18903,-56196.3,0,59290.4,6208.73
step02_gravity_refstate-mantle.xmf,1040,6.78697e-07,3.11068e-06,0,-1.73926e-08,-1.65761e+09,-1.65729e+09,-1.6577e+09,-2324.52,-0.0161961,0.0086906,-0,0.0183804,19866,-57276.7,0,60624.1,2324.52
step02_gravity_refstate-mantle.xmf,1041,7.21469e-07,3.09221e-06,0,-2.19994e-09,-1.70019e+09,-1.69987e+09,-1.70029e+09,-294.022,-0.0158234,0.00440972,-0,0.0164264,20777.7,-58592.1,0,62167.1,294.022
step02_gravity_refstate-mantle.xmf,1042,7.51473e-07,3.09337e-06,0,1.3462e-10,-1.74576e+09,-1.74545e+09,-1.74586e+09,17.992,-0.0153336,-4.25667e-19,-0,0.0153336,21571.8,-60000,0,63760.1,17.992
step02_gravity_refstate-mantle.xmf,1043,-4.81522e-06,1.28128e-05,0,3.00431e-06,-1.38392e+09,-1.38156e+09,-1.38327e+09,401526,0.00531481,0.105198,0,0.105332,-957.822,-48810.3,-0,48819.7,401526
step02_gravity_refstate-mantle.xmf,1044,-1.18011e-06,6.6584e-06,0,2.70355e-06,-1.4275e+09,-1.42645e+09,-1.42734e+09,361330,0.0135745,0.0715627,0,0.0728388,-4543.65,-50165,-0,50370.4,361330
step02_gravity_refstate-mantle.xmf,1045,-1.90155e-06,7.85029e-06,0,2.96779e-06,-1.42567e+09,-1.42437e+09,-1.42542e+09,396645,0.0118331,0.0782972,0,0.0791863,-3390.62,-50106.8,-0,50221.4,396645
step02_gravity_refstate-mantle.xmf,1046,-1.39816e-07,4.53429e-06,0,9.01334e-07,-1.53077e+09,-1.53015e+09,-1.53075e+09,120463,0.0177364,0.0333054,0,0.0377337,-10322.8,-53356.8,-0,54346.2,120463
step02_gravity_refstate-mantle.xmf,1047,2.24896e-07,3.95645e-06,0,3.11959e-07,-1.61235e+09,-1.61185e+09,-1.61238e+09,41693.3,0.0186187,0.0170771,0,0.0252643,-13893.3,-55877.7,-0,57579,41693.3
step02_gravity_refstate-mantle.xmf,1048,3.04691e-07,3.90334e-06,0,1.42578e-07,-1.67235e+09,-1.67187e+09,-1.67239e+09,19055.6,0.018864,0.00903229,0,0.0209149,-14942.8,-57731.3,-0,59633.8,19055.6
step02_gravity_refstate-mantle.xmf,1049,-1.63747e-06,7.96905e-06,0,-3.83825e-06,-1.37487e+09,-1.37359e+09,-1.37466e+09,-512982,-0.011246,0.0940248,-0,0.0946949,2887.42,-48539.8,0,48625.6,512982
step02_gravity_refstate-mantle.xmf,1050,-2.31572e-06,9.01966e-06,0,-3.84554e-06,-1.38481e+09,-1.3833e+09,-1.3845e+09,-513956,-0.0102542,0.0951554,-0,0.0957063,2399.09,-48845,0,48903.9,513956
step02_gravity_refstate-mantle.xmf,1051,-4.89886e-06,1.28327e-05,0,-2.80501e-06,-1.3866e+09,-1.38423e+09,-1.38595e+09,-374889,-0.00506058,0.104343,-0,0.104466,917.901,-48892.7,0,48901.4,374889
step02_gravity_refstate-mantle.xmf,1052,-7.25164e-07,6.09657e-06,0,-2.98524e-06,-1.38334e+09,-1.38243e+09,-1.38324e+09,-398977,-0.0132088,0.0802585,-0,0.0813382,4544.63,-48802.6,0,49013.8,398977
step02_gravity_refstate-mantle.xmf,1053,4.58473e-07,3.22845e-06,0,-2.46123e-07,-1.49883e+09,-1.49846e+09,-1.49889e+09,-32894.3,-0.0158661,0.0274044,-0,0.0316659,15760.9,-52370.7,0,54690.9,32894.3
step02_gravity_refstate-mantle.xmf,1054,1.49332e-07,3.93278e-06,0,-1.06386e-06,-1.43106e+09,-1.43056e+09,-1.43108e+09,-142185,-0.0155544,0.0467545,-0,0.049274,10181.8,-50277.2,0,51297.8,142185
step02_gravity_refstate-mantle.xmf,1055,-3.37183e-08,4.37732e-06,0,-1.45308e-06,-1.42767e+09,-1.42708e+09,-1.42766e+09,-194204,-0.0155474,0.052761,-0,0.055004,8582.76,-50172.2,0,50901,194204
step02_gravity_refstate-mantle.xmf,1056,5.30256e-07,3.16825e-06,0,-1.45398e-07,-1.53859e+09,-1.53824e+09,-1.53866e+09,-19432.5,-0.0161268,0.0219155,-0,0.0272096,17128.7,-53599.3,0,56269.7,19432.5
step02_gravity_refstate-mantle.xmf,1057,5.89401e-07,3.16524e-06,0,-7.49774e-08,-1.59366e+09,-1.59332e+09,-1.59374e+09,-10020.7,-0.0164978,0.0156501,-0,0.0227399,18226.7,-55300.8,0,58227,10020.7
step02_gravity_refstate-mantle.xmf,1058,-5.98693e-06,1.44901e-05,0,-4.50261e-07,-1.38379e+09,-1.38106e+09,-1.38299e+09,-60177.4,-0.000595371,0.107995,-0,0.107996,99.7643,-48802.9,0,48803,60177.4
step02_gravity_refstate-mantle.xmf,1059,-5.53635e-06,1.36251e-05,0,1.54537e-06,-1.38901e+09,-1.38645e+09,-1.38827e+09,206539,0.00275978,0.105039,0,0.105075,-485.045,-48964.8,-0,48967.2,206539
step02_gravity_refstate-mantle.xmf,1060,-2.17209e-07,4.68297e-06,0,1.06114e-06,-1.51714e+09,-1.51648e+09,-1.51711e+09,141821,0.01743,0.0369128,0,0.0408211,-9623.65,-52935.4,-0,53803.1,141821
step02_gravity_refstate-mantle.xmf,1061,-3.16615e-07,4.87465e-06,0,1.2529e-06,-1.50324e+09,-1.50255e+09,-1.5032e+09,167450,0.0170429,0.041093,0,0.044487,-8836.8,-52506,-0,53244.4,167450
step02_gravity_refstate-mantle.xmf,1062,-4.44941e-07,5.12202e-06,0,1.47265e-06,-1.49043e+09,-1.48969e+09,-1.49037e+09,196819,0.016576,0.0456567,0,0.0485726,-7994.17,-52110.1,-0,52719.7,196819
step02_gravity_refstate-mantle.xmf,1063,-3.13056e-06,9.78171e-06,0,3.01208e-06,-1.41639e+09,-1.41466e+09,-1.41597e+09,402564,0.00874561,0.0881037,0,0.0885367,-2062.9,-49816.8,-0,49859.5,402564
step02_gravity_refstate-mantle.xmf,1064,-4.62284e-06,1.21134e-05,0,2.47465e-06,-1.39935e+09,-1.39711e+09,-1.39873e+09,330737,0.00516133,0.0990399,0,0.0991743,-1005.1,-49286.5,-0,49296.8,330737
step02_gravity_refstate-mantle.xmf,1065,-3.81734e-06,1.08517e-05,0,2.86808e-06,-1.40806e+09,-1.4061e+09,-1.40755e+09,383318,0.00707536,0.0935641,0,0.0938312,-1516.69,-49557.8,-0,49581,383318
step02_gravity_refstate-mantle.xmf,1066,-5.97445e-07,5.4139e-06,0,1.69684e-06,-1.47997e+09,-1.47917e+09,-1.47989e+09,226783,0.0160558,0.0501577,0,0.0526649,-7180.84,-51786.8,-0,52282.3,226783
step02_gravity_refstate-mantle.xmf,1067,-1.013e-06,6.2933e-06,0,2.43543e-06,-1.44025e+09,-1.43927e+09,-1.44011e+09,325496,0.0142487,0.0659084,0,0.067431,-5148.97,-50559.1,-0,50820.6,325496
step02_gravity_refstate-mantle.xmf,1068,-7.34574e-07,5.69193e-06,0,1.93096e-06,-1.46738e+09,-1.46652e+09,-1.46728e+09,258072,0.0154864,0.0550914,0,0.0572266,-6454.68,-51397.6,-0,51801.3,258072
step02_gravity_refstate-mantle.xmf,1069,-8.72342e-07,5.98308e-06,0,2.17714e-06,-1.45403e+09,-1.45311e+09,-1.45391e+09,290975,0.0148801,0.0603582,0,0.0621653,-5778.44,-50985,-0,51311.4,290975
step02_gravity_refstate-mantle.xmf,1070,-1.60549e-06,7.29318e-06,0,2.7334e-06,-1.43679e+09,-1.4356e+09,-1.43658e+09,365318,0.0127355,0.0725904,0,0.0736991,-3972.01,-50450.9,-0,50607,365318
step02_gravity_refstate-mantle.xmf,1071,-2.44727e-06,8.58467e-06,0,2.79652e-06,-1.43568e+09,-1.4342e+09,-1.43535e+09,373754,0.010497,0.0786401,0,0.0793376,-2845.55,-50414.2,-0,50494.5,373754
step02_gravity_refstate-mantle.xmf,1072,1.19282e-07,4.12148e-06,0,4.37646e-07,-1.59203e+09,-1.59149e+09,-1.59204e+09,58491.4,0.0185565,0.0207409,0,0.0278303,-12876.6,-55249.6,-0,56730.3,58491.4
step02_gravity_refstate-mantle.xmf,1073,8.32309e-09,4.29984e-06,0,5.89255e-07,-1.57208e+09,-1.5715e+09,-1.57208e+09,78754,0.0183756,0.0247582,0,0.0308323,-11863.8,-54633,-0,55906.3,78754
step02_gravity_refstate-mantle.xmf,1074,-1.20716e-07,4.5143e-06,0,7.78637e-07,-1.55274e+09,-1.55212e+09,-1.55272e+09,104065,0.0180768,0.0292621,0,0.0343954,-10790.2,-54035.4,-0,55102.2,104065
step02_gravity_refstate-mantle.xmf,1075,1.83536e-07,4.08645e-06,0,2.33848e-07,-1.6515e+09,-1.65097e+09,-1.65152e+09,31253.8,0.0189841,0.0122425,0,0.0225892,-13859.4,-57086.9,-0,58745.2,31253.8
step02_gravity_refstate-mantle.xmf,1076,2.54082e-07,4.05203e-06,0,7.69943e-08,-1.71001e+09,-1.7095e+09,-1.71005e+09,10290.3,0.0191191,0.00451679,0,0.0196454,-14634.6,-58894.8,-0,60685.8,10290.3
step02_gravity_refstate-mantle.xmf,1077,3.46071e-07,3.94515e-06,0,-1.13937e-09,-1.74578e+09,-1.7453e+09,-1.74582e+09,-152.277,0.0189352,-6.99157e-20,0,0.0189352,-15431.1,-60000,-0,61952.6,152.277
step02_gravity_refstate-mantle.xmf,1078,-3.08265e-06,1.00688e-05,0,-3.5602e-06,-1.39519e+09,-1.39343e+09,-1.39477e+09,-475821,-0.00884336,0.0952958,-0,0.0957052,1939.97,-49162.9,0,49201.2,475821
step02_gravity_refstate-mantle.xmf,1079,-5.39051e-06,1.33175e-05,0,-1.59088e-06,-1.39299e+09,-1.39049e+09,-1.39227e+09,-212621,-0.00293484,0.103256,-0,0.103297,528.956,-49088.2,0,49091,212621
step02_gravity_refstate-mantle.xmf,1080,-4.54685e-06,1.2014e-05,0,-2.53755e-06,-1.39959e+09,-1.39738e+09,-1.39898e+09,-339144,-0.00534924,0.0987647,-0,0.0989094,1047.82,-49294.2,0,49305.3,339144
step02_gravity_refstate-mantle.xmf,1081,-1.33185e-06,7.32803e-06,0,-3.5197e-06,-1.38394e+09,-1.38279e+09,-1.38377e+09,-470408,-0.0120787,0.0879088,-0,0.0887347,3418.53,-48820.4,0,48940,470408
step02_gravity_refstate-mantle.xmf,1082,-1.11264e-06,6.81102e-06,0,-3.18801e-06,-1.39417e+09,-1.39311e+09,-1.39402e+09,-426078,-0.0128272,0.0818649,-0,0.0828637,3974.72,-49136.4,0,49296.9,426078
step02_gravity_refstate-mantle.xmf,1083,-5.94486e-07,5.75301e-06,0,-2.68113e-06,-1.39411e+09,-1.39326e+09,-1.39403e+09,-358334,-0.0138101,0.0745007,-0,0.0757699,5147.73,-49135.4,0,49404.3,358334
step02_gravity_refstate-mantle.xmf,1084,-4.71045e-07,5.45823e-06,0,-2.40721e-06,-1.40537e+09,-1.40458e+09,-1.40531e+09,-321724,-0.0143648,0.0689535,-0,0.0704338,5779.64,-49483.3,0,49819.6,321724
step02_gravity_refstate-mantle.xmf,1085,4.69533e-07,3.29903e-06,0,-2.23115e-07,-1.532e+09,-1.53162e+09,-1.53206e+09,-29819.4,-0.0165382,0.0237423,-0,0.0289346,16016.8,-53395.6,0,55746.1,29819.4
step02_gravity_refstate-mantle.xmf,1086,4.03754e-07,3.41593e-06,0,-3.24684e-07,-1.51581e+09,-1.5154e+09,-1.51586e+09,-43394,-0.0166591,0.0268509,-0,0.031599,14891.5,-52895.2,0,54951.5,43394
step02_gravity_refstate-mantle.xmf,1087,1.90435e-07,3.82933e-06,0,-8.85867e-07,-1.44702e+09,-1.44654e+09,-1.44705e+09,-118396,-0.0159165,0.0423106,-0,0.0452053,11038.9,-50770.1,0,51956.3,118396
step02_gravity_refstate-mantle.xmf,1088,3.44779e-07,3.51829e-06,0,-4.39657e-07,-1.49793e+09,-1.49751e+09,-1.49798e+09,-58760.1,-0.0166007,0.0303422,-0,0.0345866,13870.8,-52342.9,0,54149.6,58760.1
step02_gravity_refstate-mantle.xmf,1089,2.88144e-07,3.62352e-06,0,-5.73522e-07,-1.48053e+09,-1.48008e+09,-1.48057e+09,-76651.3,-0.0164538,0.0341,-0,0.0378621,12877.8,-51805.2,0,53381.8,76651.3
step02_gravity_refstate-mantle.xmf,1090,2.36059e-07,3.72847e-06,0,-7.23304e-07,-1.46364e+09,-1.46317e+09,-1.46367e+09,-96669.6,-0.0162249,0.0380914,-0,0.0414029,11930.6,-51283.4,0,52652.9,96669.6
step02_gravity_refstate-mantle.xmf,1091,-3.72976e-07,5.19641e-06,0,-2.13716e-06,-1.41671e+09,-1.41597e+09,-1.41666e+09,-285631,-0.0148737,0.0636617,-0,0.0653762,6444.6,-49833.5,0,50248.5,285631
step02_gravity_refstate-mantle.xmf,1092,-2.82766e-07,4.96123e-06,0,-1.88534e-06,-1.42788e+09,-1.42718e+09,-1.42784e+09,-251976,-0.015332,0.0586891,-0,0.0606588,7136.35,-50178.6,0,50683.5,251976
step02_gravity_refstate-mantle.xmf,1093,-2.0219e-09,4.29427e-06,0,-1.25333e-06,-1.44864e+09,-1.44806e+09,-1.44864e+09,-167507,-0.0161224,0.047232,-0,0.0499078,9346.93,-50819.9,0,51672.3,167507
step02_gravity_refstate-mantle.xmf,1094,-2.0364e-07,4.75712e-06,0,-1.659e-06,-1.43857e+09,-1.43791e+09,-1.43855e+09,-221726,-0.0157279,0.05419,-0,0.0564263,7824.57,-50508.9,0,51111.3,221726
step02_gravity_refstate-mantle.xmf,1095,5.31793e-07,3.2948e-06,0,-1.28557e-07,-1.58873e+09,-1.58836e+09,-1.58881e+09,-17181.6,-0.0170093,0.0168653,-0,0.0239532,17178.8,-55148.5,0,57762.2,17181.6
step02_gravity_refstate-mantle.xmf,1096,5.44158e-07,3.36059e-06,0,-9.63296e-08,-1.62953e+09,-1.62916e+09,-1.62961e+09,-12874.4,-0.0174167,0.012509,-0,0.0214433,17426.2,-56409,0,59039.4,12874.4
step02_gravity_refstate-mantle.xmf,1097,5.98548e-07,3.31273e-06,0,-4.74613e-08,-1.66574e+09,-1.66538e+09,-1.66582e+09,-6343.21,-0.0172473,0.00838043,-0,0.0191755,18320.6,-57527.7,0,60374.5,6343.21
step02_gravity_refstate-mantle.xmf,1098,6.47334e-07,3.27736e-06,0,-1.67845e-08,-1.7037e+09,-1.70335e+09,-1.70378e+09,-2243.25,-0.0169527,0.00430882,-0,0.0174917,19147.9,-58700.5,0,61744.5,2243.25
step02_gravity_refstate-mantle.xmf,1099,6.8811e-07,3.25506e-06,0,4.09195e-10,-1.74576e+09,-1.74542e+09,-1.74585e+09,54.6888,-0.0165072,-4.15189e-19,-0,0.0165072,19941.4,-60000,0,63227.1,54.6888
step02_gravity_refstate-mantle.xmf,1100,-2.83144e-06,9.21541e-06,0,2.80271e-06,-1.42983e+09,-1.42822e+09,-1.42945e+09,374582,0.00938745,0.0825543,0,0.0830863,-2380.13,-50232.5,-0,50288.9,374582
step02_gravity_refstate-mantle.xmf,1101,-1.38712e-06,6.8635e-06,0,2.49265e-06,-1.44917e+09,-1.44807e+09,-1.44899e+09,333143,0.0135062,0.067028,0,0.0683752,-4546.43,-50833.8,-0,51036.7,333143
step02_gravity_refstate-mantle.xmf,1102,-2.08534e-06,7.96393e-06,0,2.6518e-06,-1.44613e+09,-1.44479e+09,-1.44585e+09,354413,0.0115605,0.0732845,0,0.0741907,-3395.12,-50737.9,-0,50851.3,354413
step02_gravity_refstate-mantle.xmf,1103,-3.05181e-07,4.83209e-06,0,9.51298e-07,-1.54694e+09,-1.54625e+09,-1.5469e+09,127141,0.0177836,0.0323209,0,0.0368903,-9713.27,-53855.8,-0,54724.7,127141
step02_gravity_refstate-mantle.xmf,1104,5.96024e-08,4.27472e-06,0,3.47079e-07,-1.63124e+09,-1.63068e+09,-1.63125e+09,46387.1,0.0189481,0.0156933,0,0.024603,-12843.1,-56460.8,-0,57903.1,46387.1
step02_gravity_refstate-mantle.xmf,1105,1.67662e-07,4.1561e-06,0,1.52812e-07,-1.68391e+09,-1.68338e+09,-1.68393e+09,20423.4,0.0191686,0.00807873,0,0.0208015,-13921,-58088.2,-0,59733,20423.4
step02_gravity_refstate-mantle.xmf,1106,-3.80596e-06,1.08781e-05,0,-2.93796e-06,-1.40577e+09,-1.4038e+09,-1.40526e+09,-392658,-0.00714565,0.0943169,-0,0.0945872,1519.93,-49487,0,49510.3,392658
step02_gravity_refstate-mantle.xmf,1107,-1.93293e-06,8.2373e-06,0,-3.54515e-06,-1.39432e+09,-1.39297e+09,-1.39407e+09,-473809,-0.0112159,0.0890959,-0,0.089799,2897.24,-49139.4,0,49224.7,473809
step02_gravity_refstate-mantle.xmf,1108,-2.60404e-06,9.18369e-06,0,-3.39378e-06,-1.40424e+09,-1.40267e+09,-1.4039e+09,-453579,-0.00994945,0.0897333,-0,0.0902832,2395.26,-49443.7,0,49501.7,453579
step02_gravity_refstate-mantle.xmf,1109,-9.54638e-07,6.3914e-06,0,-2.86206e-06,-1.40539e+09,-1.40441e+09,-1.40526e+09,-382515,-0.0135054,0.0759757,-0,0.0771667,4550.26,-49482.9,0,49691.7,382515
step02_gravity_refstate-mantle.xmf,1110,6.00371e-08,4.14877e-06,0,-1.04178e-06,-1.46478e+09,-1.46423e+09,-1.46479e+09,-139234,-0.0165058,0.0424044,-0,0.0455035,10229.1,-51318.5,0,52328,139234
step02_gravity_refstate-mantle.xmf,1111,-1.28002e-07,4.56547e-06,0,-1.42715e-06,-1.45148e+09,-1.45085e+09,-1.45146e+09,-190739,-0.0161381,0.0493924,-0,0.051962,8604.51,-50907.5,0,51629.5,190739
step02_gravity_refstate-mantle.xmf,1112,4.62348e-07,3.40647e-06,0,-2.0519e-07,-1.56919e+09,-1.5688e+09,-1.56926e+09,-27423.7,-0.017241,0.0198402,-0,0.0262847,16063.9,-54544.7,0,56861,27423.7
step02_gravity_refstate-mantle.xmf,1113,-5.42133e-06,1.32162e-05,0,-1.45936e-07,-1.40063e+09,-1.39814e+09,-1.39991e+09,-19504.3,-0.000174207,0.100809,-0,0.100809,31.7814,-49323.6,0,49323.6,19504.3
step02_gravity_refstate-mantle.xmf,1114,-5.01624e-06,1.24646e-05,0,1.12234e-06,-1.40927e+09,-1.40694e+09,-1.4086e+09,150000,0.00246059,0.0968704,0,0.0969016,-482.175,-49591.3,-0,49593.6,150000
step02_gravity_refstate-mantle.xmf,1115,-4.39877e-07,5.06662e-06,0,1.13807e-06,-1.5335e+09,-1.53276e+09,-1.53344e+09,152103,0.0173478,0.0363853,0,0.0403092,-8860.05,-53440.4,-0,54169.9,152103
step02_gravity_refstate-mantle.xmf,1116,-5.81869e-07,5.318e-06,0,1.34175e-06,-1.51967e+09,-1.51888e+09,-1.51959e+09,179325,0.0168259,0.0408365,0,0.0441671,-8029.28,-53012.9,-0,53617.5,179325
step02_gravity_refstate-mantle.xmf,1117,-7.3775e-07,5.59687e-06,0,1.55364e-06,-1.50665e+09,-1.5058e+09,-1.50655e+09,207644,0.0162331,0.0454637,0,0.0482748,-7227.63,-52610.4,-0,53104.5,207644
step02_gravity_refstate-mantle.xmf,1118,-3.74235e-06,1.04756e-05,0,2.31712e-06,-1.4279e+09,-1.426e+09,-1.4274e+09,309683,0.00666174,0.0869688,0,0.0872236,-1531.78,-50170.1,-0,50193.4,309683
step02_gravity_refstate-mantle.xmf,1119,-4.38151e-06,1.1456e-05,0,1.89865e-06,-1.41874e+09,-1.41662e+09,-1.41815e+09,253755,0.00472341,0.0919974,0,0.0921186,-1000.98,-49885.3,-0,49895.4,253755
step02_gravity_refstate-mantle.xmf,1120,-3.26116e-06,9.77065e-06,0,2.52203e-06,-1.43367e+09,-1.43193e+09,-1.43324e+09,337070,0.00807934,0.0833071,0,0.083698,-1976.9,-50349.9,-0,50388.7,337070
step02_gravity_refstate-mantle.xmf,1121,-9.0642e-07,5.90353e-06,0,1.77342e-06,-1.49375e+09,-1.49284e+09,-1.49363e+09,237017,0.015571,0.0503519,0,0.0527045,-6459.94,-52211.7,-0,52609.8,237017
step02_gravity_refstate-mantle.xmf,1122,-1.24146e-06,6.55228e-06,0,2.2455e-06,-1.46467e+09,-1.46363e+09,-1.46451e+09,300111,0.0141621,0.0612865,0,0.0629016,-5102.21,-51312.7,-0,51565.7,300111
step02_gravity_refstate-mantle.xmf,1123,-1.0784e-06,6.22952e-06,0,2.01005e-06,-1.47958e+09,-1.4786e+09,-1.47943e+09,268644,0.0148551,0.0557243,0,0.0576704,-5735.34,-51773.4,-0,52090.2,268644
step02_gravity_refstate-mantle.xmf,1124,-3.0033e-06,9.30427e-06,0,2.42859e-06,-1.44549e+09,-1.44384e+09,-1.44509e+09,324581,0.0087058,0.078625,0,0.0791056,-2260.37,-50715.3,-0,50765.7,324581
step02_gravity_refstate-mantle.xmf,1125,-1.76868e-06,7.41239e-06,0,2.47533e-06,-1.45722e+09,-1.45599e+09,-1.45698e+09,330828,0.0125751,0.0678194,0,0.0689754,-4000.46,-51081.1,-0,51237.5,330828
step02_gravity_refstate-mantle.xmf,1126,-2.59902e-06,8.64351e-06,0,2.42284e-06,-1.45528e+09,-1.45378e+09,-1.45494e+09,323812,0.00999459,0.0736732,0,0.074348,-2792.81,-51019,-0,51095.4,323812
step02_gravity_refstate-mantle.xmf,1127,-6.86644e-08,4.46905e-06,0,4.871e-07,-1.61031e+09,-1.6097e+09,-1.6103e+09,65101,0.0187669,0.0196075,0,0.0271413,-11845.1,-55813.9,-0,57057,65101
step02_gravity_refstate-mantle.xmf,1128,-2.06159e-07,4.68254e-06,0,6.49757e-07,-1.59093e+09,-1.59027e+09,-1.5909e+09,86840.1,0.0184671,0.0237225,0,0.0300631,-10857,-55214.8,-0,56272.1,86840.1
step02_gravity_refstate-mantle.xmf,1129,-3.78035e-07,4.95849e-06,0,8.18214e-07,-1.57789e+09,-1.57718e+09,-1.57784e+09,109354,0.0180703,0.027396,0,0.0328189,-9834.51,-54811.7,-0,55687,109354
step02_gravity_refstate-mantle.xmf,1130,9.4681e-09,4.4145e-06,0,2.27708e-07,-1.67404e+09,-1.67346e+09,-1.67405e+09,30433.2,0.0192203,0.00997912,0,0.0216564,-12800.5,-57783.1,-0,59183.9,30433.2
step02_gravity_refstate-mantle.xmf,1131,7.52557e-08,4.35698e-06,0,9.88232e-08,-1.71165e+09,-1.71107e+09,-1.71166e+09,13207.7,0.0193323,0.00463378,0,0.0198799,-13367.9,-58944.9,-0,60441.7,13207.7
step02_gravity_refstate-mantle.xmf,1132,1.69649e-07,4.25291e-06,0,-1.64383e-09,-1.74579e+09,-1.74525e+09,-1.74581e+09,-219.698,0.0192934,-7.04376e-20,0,0.0192934,-14040.5,-60000,-0,61620.9,219.698
step02_gravity_refstate-mantle.xmf,1133,-3.21344e-06,9.97992e-06,0,-3.09809e-06,-1.41071e+09,-1.40895e+09,-1.41028e+09,-414060,-0.00854577,0.0903957,-0,0.0907987,1957.49,-49641.5,0,49680.1,414060
step02_gravity_refstate-mantle.xmf,1134,-4.95553e-06,1.23764e-05,0,-1.24442e-06,-1.40994e+09,-1.40762e+09,-1.40927e+09,-166317,-0.00274412,0.0964947,-0,0.0965337,541.307,-49612,0,49614.9,166317
step02_gravity_refstate-mantle.xmf,1135,-4.28681e-06,1.13426e-05,0,-2.03957e-06,-1.41836e+09,-1.41627e+09,-1.41779e+09,-272588,-0.00511459,0.0918327,-0,0.091975,1090.21,-49874,0,49885.9,272588
step02_gravity_refstate-mantle.xmf,1136,-1.61579e-06,7.60449e-06,0,-3.27452e-06,-1.40448e+09,-1.40325e+09,-1.40427e+09,-437640,-0.0120791,0.0831562,-0,0.0840289,3422.28,-49453.7,0,49571.9,437640
step02_gravity_refstate-mantle.xmf,1137,-1.37376e-06,7.08494e-06,0,-2.98515e-06,-1.41539e+09,-1.41426e+09,-1.41521e+09,-398965,-0.0128595,0.0773401,-0,0.0784019,3971.13,-49790.9,0,49949,398965
step02_gravity_refstate-mantle.xmf,1138,-8.10356e-07,6.04073e-06,0,-2.57499e-06,-1.41726e+09,-1.41635e+09,-1.41715e+09,-344147,-0.0141304,0.070286,-0,0.0716924,5148.11,-49849.8,0,50114.9,344147
step02_gravity_refstate-mantle.xmf,1139,-6.67776e-07,5.72668e-06,0,-2.31205e-06,-1.42932e+09,-1.42846e+09,-1.42923e+09,-309005,-0.0147204,0.0647836,-0,0.066435,5786.82,-50222.3,0,50554.6,309005
step02_gravity_refstate-mantle.xmf,1140,3.8763e-07,3.53406e-06,0,-3.00175e-07,-1.55235e+09,-1.55193e+09,-1.5524e+09,-40118.3,-0.0173996,0.0228319,-0,0.0287061,14965.4,-54024.1,0,56058.6,40118.3
step02_gravity_refstate-mantle.xmf,1141,3.13448e-07,3.6595e-06,0,-4.1597e-07,-1.53406e+09,-1.53362e+09,-1.53411e+09,-55594.4,-0.0174081,0.026273,-0,0.0315168,13910.5,-53459.2,0,55239.4,55594.4
step02_gravity_refstate-mantle.xmf,1142,1.11653e-07,4.03598e-06,0,-8.66385e-07,-1.48192e+09,-1.4814e+09,-1.48194e+09,-115792,-0.0168531,0.0380251,-0,0.0415924,11056.6,-51848.2,0,53014,115792
step02_gravity_refstate-mantle.xmf,1143,2.40993e-07,3.78759e-06,0,-5.51033e-07,-1.51628e+09,-1.51581e+09,-1.51632e+09,-73645.5,-0.0173128,0.0299662,-0,0.0346079,12899.2,-52909.8,0,54459.5,73645.5
step02_gravity_refstate-mantle.xmf,1144,1.70751e-07,3.91793e-06,0,-7.04947e-07,-1.49883e+09,-1.49833e+09,-1.49885e+09,-94216.2,-0.0171239,0.0339416,-0,0.0380166,11928.1,-52370.5,0,53711.7,94216.2
step02_gravity_refstate-mantle.xmf,1145,-5.54385e-07,5.45628e-06,0,-2.0545e-06,-1.44181e+09,-1.44101e+09,-1.44174e+09,-274583,-0.0152665,0.0595227,-0,0.0614493,6447.07,-50608.4,0,51017.4,274583
step02_gravity_refstate-mantle.xmf,1146,-4.31483e-07,5.18423e-06,0,-1.81037e-06,-1.45275e+09,-1.452e+09,-1.4527e+09,-241956,-0.0157641,0.0546664,-0,0.056894,7166.38,-50946.4,0,51448,241956
step02_gravity_refstate-mantle.xmf,1147,-1.04848e-07,4.48706e-06,0,-1.14576e-06,-1.48579e+09,-1.48518e+09,-1.48578e+09,-153131,-0.0169391,0.041455,-0,0.0447823,9585.44,-51967.4,0,52844,153131
step02_gravity_refstate-mantle.xmf,1148,-2.95514e-07,4.8995e-06,0,-1.57887e-06,-1.4609e+09,-1.46021e+09,-1.46086e+09,-211016,-0.0161768,0.0503614,-0,0.0528957,7954.77,-51198.4,0,51812.7,211016
step02_gravity_refstate-mantle.xmf,1149,-1.86253e-07,4.66266e-06,0,-1.34501e-06,-1.47265e+09,-1.47201e+09,-1.47263e+09,-179761,-0.0165849,0.0457079,-0,0.0486238,8800.65,-51561.5,0,52307.1,179761
step02_gravity_refstate-mantle.xmf,1150,4.50525e-07,3.51947e-06,0,-1.71503e-07,-1.61116e+09,-1.61075e+09,-1.61122e+09,-22921.3,-0.0178461,0.0153058,-0,0.0235106,16114.8,-55841.4,0,58120.1,22921.3
step02_gravity_refstate-mantle.xmf,1151,5.13609e-07,3.49981e-06,0,-7.41616e-08,-1.67109e+09,-1.67069e+09,-1.67116e+09,-9911.7,-0.017954,0.0082466,-0,0.0197574,17118.4,-57692.8,0,60178.9,9911.7
step02_gravity_refstate-mantle.xmf,1152,5.46775e-07,3.49431e-06,0,-3.42224e-08,-1.70545e+09,-1.70505e+09,-1.70552e+09,-4573.82,-0.017891,0.00440036,-0,0.0184242,17588.4,-58754.3,0,61330.5,4573.82
step02_gravity_refstate-mantle.xmf,1153,6.01503e-07,3.44928e-06,0,7.61394e-10,-1.74576e+09,-1.74538e+09,-1.74584e+09,101.76,-0.0175157,-4.23329e-19,-0,0.0175157,18377.3,-60000,0,62751.3,101.76
step02_gravity_refstate-mantle.xmf,1154,-1.5669e-06,7.0314e-06,0,2.28543e-06,-1.46862e+09,-1.46747e+09,-1.46841e+09,305448,0.0133078,0.0630187,0,0.0644085,-4511.26,-51433.7,-0,51631.2,305448
step02_gravity_refstate-mantle.xmf,1155,-2.22753e-06,8.03779e-06,0,2.34321e-06,-1.46639e+09,-1.46502e+09,-1.4661e+09,313170,0.0112096,0.0683491,0,0.0692622,-3380.24,-51363.1,-0,51474.2,313170
step02_gravity_refstate-mantle.xmf,1156,-5.44404e-07,5.2275e-06,0,9.98335e-07,-1.56398e+09,-1.56321e+09,-1.56391e+09,133427,0.017561,0.0314298,0,0.036003,-8907.63,-54381.6,-0,55106.2,133427
step02_gravity_refstate-mantle.xmf,1157,-1.37042e-07,4.62225e-06,0,3.68133e-07,-1.64804e+09,-1.6474e+09,-1.64802e+09,49201,0.0190201,0.0143644,0,0.0238349,-11794.2,-56979.4,-0,58187.2,49201
step02_gravity_refstate-mantle.xmf,1158,-3.61901e-06,1.03645e-05,0,-2.53736e-06,-1.42357e+09,-1.42171e+09,-1.42309e+09,-339118,-0.00721581,0.0878411,-0,0.088137,1656.29,-50037.1,0,50064.5,339118
step02_gravity_refstate-mantle.xmf,1159,-2.90438e-06,9.37987e-06,0,-2.87823e-06,-1.4248e+09,-1.42315e+09,-1.42441e+09,-384675,-0.00919747,0.0845176,-0,0.0850166,2275.98,-50077,0,50128.7,384675
step02_gravity_refstate-mantle.xmf,1160,-2.21954e-06,8.4606e-06,0,-3.17972e-06,-1.41463e+09,-1.41321e+09,-1.41434e+09,-424970,-0.0109241,0.0840123,-0,0.0847196,2874.64,-49765.4,0,49848.4,424970
step02_gravity_refstate-mantle.xmf,1161,-1.18349e-06,6.6496e-06,0,-2.69154e-06,-1.42718e+09,-1.42613e+09,-1.42702e+09,-359724,-0.0135822,0.0715934,-0,0.0728704,4550.06,-50155.3,0,50361.2,359724
step02_gravity_refstate-mantle.xmf,1162,-4.09237e-08,4.35398e-06,0,-9.77036e-07,-1.49997e+09,-1.49938e+09,-1.49996e+09,-130581,-0.0172532,0.0375662,-0,0.0413388,10309.4,-52405.4,0,53409.8,130581
step02_gravity_refstate-mantle.xmf,1163,3.60409e-07,3.66605e-06,0,-2.62111e-07,-1.59233e+09,-1.59189e+09,-1.59238e+09,-35031.1,-0.0180499,0.0183699,-0,0.0257537,14979.1,-55259.4,0,57253.6,35031.1
step02_gravity_refstate-mantle.xmf,1164,4.33725e-07,3.62969e-06,0,-1.27492e-07,-1.65293e+09,-1.6525e+09,-1.65299e+09,-17039.3,-0.0182889,0.0106954,-0,0.0211867,16112.7,-57131.7,0,59360.4,17039.3
step02_gravity_refstate-mantle.xmf,1165,-4.92314e-06,1.21991e-05,0,-1.11771e-07,-1.41902e+09,-1.41674e+09,-1.41837e+09,-14938.2,-0.000175952,0.0935767,-0,0.0935768,35.7424,-49892.5,0,49892.5,14938.2
step02_gravity_refstate-mantle.xmf,1166,-4.59753e-06,1.16115e-05,0,8.35515e-07,-1.42891e+09,-1.42674e+09,-1.42829e+09,111667,0.0022037,0.0895734,0,0.0896005,-473.799,-50198.4,-0,50200.7,111667
step02_gravity_refstate-mantle.xmf,1167,-7.1112e-07,5.50072e-06,0,1.19161e-06,-1.54936e+09,-1.54853e+09,-1.54926e+09,159258,0.0169584,0.0358513,0,0.0396599,-8039.31,-53929.6,-0,54525.5,159258
step02_gravity_refstate-mantle.xmf,1168,-8.79058e-07,5.78065e-06,0,1.3878e-06,-1.53509e+09,-1.5342e+09,-1.53497e+09,185480,0.0162964,0.0404385,0,0.0435987,-7237.92,-53488.3,-0,53975.8,185480
step02_gravity_refstate-mantle.xmf,1169,-1.06108e-06,6.08777e-06,0,1.58958e-06,-1.52099e+09,-1.52004e+09,-1.52085e+09,212448,0.0155557,0.0452987,0,0.0478952,-6463.67,-53052.4,-0,53444.7,212448
step02_gravity_refstate-mantle.xmf,1170,-3.54572e-06,9.98654e-06,0,1.96761e-06,-1.44876e+09,-1.44696e+09,-1.44829e+09,262971,0.00664521,0.0799569,0,0.0802326,-1649.29,-50814.7,-0,50841.4,262971
step02_gravity_refstate-mantle.xmf,1171,-4.11908e-06,1.08491e-05,0,1.48315e-06,-1.43913e+09,-1.43713e+09,-1.43858e+09,198224,0.00438385,0.0849506,0,0.0850636,-1007.83,-50515.5,-0,50525.5,198224
step02_gravity_refstate-mantle.xmf,1172,-1.26304e-06,6.4326e-06,0,1.7974e-06,-1.50662e+09,-1.5056e+09,-1.50646e+09,240222,0.0147299,0.0505369,0,0.0526397,-5709.15,-52608.1,-0,52917,240222
step02_gravity_refstate-mantle.xmf,1173,-1.52232e-06,6.87312e-06,0,2.03838e-06,-1.48989e+09,-1.48877e+09,-1.48969e+09,272429,0.0137072,0.0569239,0,0.058551,-4890.88,-52090.6,-0,52319.7,272429
step02_gravity_refstate-mantle.xmf,1174,-3.09904e-06,9.27729e-06,0,2.03754e-06,-1.46287e+09,-1.46121e+09,-1.46245e+09,272318,0.0080463,0.0740262,0,0.0744622,-2159.67,-51251.6,-0,51297,272318
step02_gravity_refstate-mantle.xmf,1175,-1.93543e-06,7.5177e-06,0,2.15508e-06,-1.48197e+09,-1.4807e+09,-1.48171e+09,288026,0.012265,0.0621165,0,0.0633158,-4000.51,-51844.7,-0,51998.9,288026
step02_gravity_refstate-mantle.xmf,1176,-2.6875e-06,8.63892e-06,0,2.09243e-06,-1.47397e+09,-1.47246e+09,-1.47361e+09,279653,0.0095141,0.0688854,0,0.0695393,-2742.92,-51595.6,-0,51668.5,279653
step02_gravity_refstate-mantle.xmf,1177,-2.87967e-07,4.84446e-06,0,5.14049e-07,-1.62802e+09,-1.62734e+09,-1.62798e+09,68702.6,0.0187079,0.0182877,0,0.0261615,-10840.6,-56360.6,-0,57393.7,68702.6
step02_gravity_refstate-mantle.xmf,1178,-6.38781e-07,5.37664e-06,0,8.38988e-07,-1.59585e+09,-1.59504e+09,-1.59576e+09,112131,0.0176989,0.0261446,0,0.031572,-8941.92,-55365.8,-0,56083.2,112131
step02_gravity_refstate-mantle.xmf,1179,-4.57982e-07,5.10106e-06,0,6.7084e-07,-1.61134e+09,-1.6106e+09,-1.61128e+09,89657.8,0.0182673,0.0221296,0,0.0286951,-9877.13,-55844.8,-0,56711.5,89657.8
step02_gravity_refstate-mantle.xmf,1180,-2.05109e-07,4.76278e-06,0,2.55123e-07,-1.6806e+09,-1.67994e+09,-1.68057e+09,34097.2,0.0191345,0.00975358,0,0.021477,-11652.1,-57985,-0,59144.2,34097.2
step02_gravity_refstate-mantle.xmf,1181,-1.34987e-07,4.69664e-06,0,1.29927e-07,-1.7106e+09,-1.70995e+09,-1.71058e+09,17364.8,0.0192927,0.00515124,0,0.0199686,-12117,-58912,-0,60145.2,17364.8
step02_gravity_refstate-mantle.xmf,1182,-3.9904e-08,4.59927e-06,0,-1.82894e-09,-1.74581e+09,-1.74519e+09,-1.7458e+09,-244.437,0.019381,-7.69652e-20,0,0.019381,-12699.5,-60000,-0,61329.3,244.437
step02_gravity_refstate-mantle.xmf,1183,-4.5557e-06,1.15687e-05,0,-1.00172e-06,-1.42854e+09,-1.42639e+09,-1.42793e+09,-133879,-0.00263216,0.0895588,-0,0.0895975,566.988,-50187.4,0,50190.6,133879
step02_gravity_refstate-mantle.xmf,1184,-3.9308e-06,1.06552e-05,0,-1.76563e-06,-1.43864e+09,-1.43669e+09,-1.43811e+09,-235977,-0.00523726,0.0845371,-0,0.0846991,1218.21,-50501,0,50515.7,235977
step02_gravity_refstate-mantle.xmf,1185,-1.87831e-06,7.81965e-06,0,-2.97169e-06,-1.42539e+09,-1.4241e+09,-1.42514e+09,-397167,-0.0118807,0.0782341,-0,0.0791311,3414.06,-50098.3,0,50214.5,397167
step02_gravity_refstate-mantle.xmf,1186,-1.60478e-06,7.29148e-06,0,-2.73122e-06,-1.43696e+09,-1.43577e+09,-1.43674e+09,-365027,-0.0127408,0.0725312,-0,0.0736417,3976.22,-50456,0,50612.5,365027
step02_gravity_refstate-mantle.xmf,1187,-1.02197e-06,6.29053e-06,0,-2.42443e-06,-1.44015e+09,-1.43917e+09,-1.44001e+09,-324025,-0.0142489,0.0659259,-0,0.0674482,5149.4,-50556,0,50817.5,324025
step02_gravity_refstate-mantle.xmf,1188,-8.72294e-07,5.98306e-06,0,-2.17713e-06,-1.45403e+09,-1.45311e+09,-1.45391e+09,-290974,-0.0148801,0.0603582,-0,0.0621653,5778.44,-50985,0,51311.4,290974
step02_gravity_refstate-mantle.xmf,1189,2.7111e-07,3.8099e-06,0,-3.73427e-07,-1.57283e+09,-1.57236e+09,-1.57287e+09,-49908.5,-0.0180934,0.0217921,-0,0.0283243,13916.6,-54656.8,0,56400.7,49908.5
step02_gravity_refstate-mantle.xmf,1190,1.83353e-07,3.95427e-06,0,-5.06145e-07,-1.55333e+09,-1.55283e+09,-1.55336e+09,-67646.3,-0.0180096,0.0255318,-0,0.0312445,12901.6,-54054.4,0,55572.7,67646.3
step02_gravity_refstate-mantle.xmf,1191,1.89977e-08,4.2396e-06,0,-8.19671e-07,-1.51641e+09,-1.51585e+09,-1.51642e+09,-109549,-0.0175589,0.0336322,-0,0.0379399,11050.5,-52913.6,0,54055.1,109549
step02_gravity_refstate-mantle.xmf,1192,9.46268e-08,4.10743e-06,0,-6.61099e-07,-1.53479e+09,-1.53426e+09,-1.5348e+09,-88355.8,-0.0178322,0.0295169,-0,0.0344853,11911.6,-53481.4,0,54791.8,88355.8
step02_gravity_refstate-mantle.xmf,1193,-7.34584e-07,5.69193e-06,0,-1.93095e-06,-1.46738e+09,-1.46652e+09,-1.46728e+09,-258071,-0.0154864,0.0550914,-0,0.0572266,6454.68,-51397.6,0,51801.3,258071
step02_gravity_refstate-mantle.xmf,1194,-2.1951e-07,4.68721e-06,0,-1.06655e-06,-1.51663e+09,-1.51598e+09,-1.5166e+09,-142544,-0.0174187,0.0370405,-0,0.0409318,9602.08,-52919.8,0,53783.9,142544
step02_gravity_refstate-mantle.xmf,1195,-5.97442e-07,5.4139e-06,0,-1.69684e-06,-1.47997e+09,-1.47917e+09,-1.47989e+09,-226783,-0.0160558,0.0501577,-0,0.0526649,7180.84,-51786.8,0,52282.3,226783
step02_gravity_refstate-mantle.xmf,1196,-3.16618e-07,4.87469e-06,0,-1.2529e-06,-1.50324e+09,-1.50255e+09,-1.5032e+09,-167450,-0.0170429,0.041093,-0,0.044487,8836.8,-52506,0,53244.4,167450
step02_gravity_refstate-mantle.xmf,1197,-4.44944e-07,5.12201e-06,0,-1.47265e-06,-1.49043e+09,-1.48969e+09,-1.49037e+09,-196820,-0.016576,0.0456567,-0,0.0485726,7994.17,-52110.1,0,52719.7,196820
step02_gravity_refstate-mantle.xmf,1198,3.313e-07,3.79122e-06,0,-2.08513e-07,-1.6327e+09,-1.63223e+09,-1.63274e+09,-27867.8,-0.0185363,0.0137275,-0,0.023066,14970.8,-56506.4,0,58455.9,27867.8
step02_gravity_refstate-mantle.xmf,1199,4.21792e-07,3.73551e-06,0,-6.59885e-08,-1.70056e+09,-1.70012e+09,-1.70062e+09,-8819.37,-0.0185908,0.00527819,-0,0.0193256,16102,-58603.3,0,60775.1,8819.37
step02_gravity_refstate-mantle.xmf,1200,4.88033e-07,3.67948e-06,0,1.33582e-09,-1.74577e+09,-1.74534e+09,-1.74583e+09,178.533,-0.0183342,-5.07258e-19,-0,0.0183342,16875.3,-60000,0,62328,178.533
step02_gravity_refstate-mantle.xmf,1201,-2.33829e-06,8.09443e-06,0,2.06984e-06,-1.48439e+09,-1.48299e+09,-1.48408e+09,276635,0.0108002,0.0640698,0,0.0649737,-3329.08,-51918.4,-0,52025,276635
step02_gravity_refstate-mantle.xmf,1202,-8.22926e-07,5.66018e-06,0,1.01768e-06,-1.58034e+09,-1.57947e+09,-1.58023e+09,136013,0.0170241,0.0304737,0,0.0349066,-8056.73,-54886.1,-0,55474.3,136013
step02_gravity_refstate-mantle.xmf,1203,-3.59948e-07,4.9927e-06,0,3.66551e-07,-1.66465e+09,-1.66393e+09,-1.6646e+09,48989.6,0.0188382,0.0127845,0,0.0227667,-10780.4,-57491.8,-0,58493.8,48989.6
step02_gravity_refstate-mantle.xmf,1204,-3.38998e-06,9.91285e-06,0,-2.30399e-06,-1.43875e+09,-1.43697e+09,-1.43829e+09,-307928,-0.0074524,0.0824023,-0,0.0827386,1822.66,-50506.1,0,50539,307928
step02_gravity_refstate-mantle.xmf,1205,-2.43844e-06,8.58199e-06,0,-2.77657e-06,-1.43595e+09,-1.43448e+09,-1.43562e+09,-371089,-0.0104955,0.0785599,-0,0.0792579,2847.26,-50422.7,0,50503,371089
step02_gravity_refstate-mantle.xmf,1206,-1.39419e-06,6.86429e-06,0,-2.47982e-06,-1.4494e+09,-1.44829e+09,-1.44921e+09,-331428,-0.0135049,0.0669811,-0,0.068329,4546.41,-50840.6,0,51043.5,331428
step02_gravity_refstate-mantle.xmf,1207,-1.37963e-07,4.53073e-06,0,-9.04235e-07,-1.52994e+09,-1.52932e+09,-1.52993e+09,-120851,-0.0177247,0.0334306,-0,0.0378387,10318.8,-53331.2,0,54320.3,120851
step02_gravity_refstate-mantle.xmf,1208,2.24003e-07,3.95841e-06,0,-3.1188e-07,-1.6126e+09,-1.6121e+09,-1.61263e+09,-41682.8,-0.0186226,0.0170525,-0,0.0252505,13888,-55885.3,0,57585.1,41682.8
step02_gravity_refstate-mantle.xmf,1209,3.05317e-07,3.9017e-06,0,-1.42454e-07,-1.67221e+09,-1.67173e+09,-1.67225e+09,-19039,-0.0188609,0.00904543,-0,0.0209178,14950.2,-57727.1,0,59631.6,19039
step02_gravity_refstate-mantle.xmf,1210,-4.51354e-06,1.13993e-05,0,-1.14462e-07,-1.43791e+09,-1.43578e+09,-1.4373e+09,-15297.8,-0.000233498,0.0866793,-0,0.0866796,51.7631,-50476.5,0,50476.5,15297.8
step02_gravity_refstate-mantle.xmf,1211,-4.24733e-06,1.09144e-05,0,6.14744e-07,-1.44968e+09,-1.44766e+09,-1.44912e+09,82160.5,0.00194964,0.0823587,0,0.0823818,-455.96,-50840.8,-0,50842.8,82160.5
step02_gravity_refstate-mantle.xmf,1212,-1.00696e-06,5.9477e-06,0,1.20229e-06,-1.56466e+09,-1.56373e+09,-1.56453e+09,160685,0.0162748,0.0350979,0,0.0386876,-7232.45,-54401.5,-0,54880.1,160685
step02_gravity_refstate-mantle.xmf,1213,-1.19725e-06,6.24958e-06,0,1.38774e-06,-1.54924e+09,-1.54825e+09,-1.54908e+09,185471,0.0154596,0.0399426,0,0.04283,-6455.28,-53924.6,-0,54309.6,185471
step02_gravity_refstate-mantle.xmf,1214,-1.40266e-06,6.57858e-06,0,1.56641e-06,-1.53456e+09,-1.5335e+09,-1.53438e+09,209350,0.0145748,0.0449078,0,0.0472137,-5714.93,-53470.6,-0,53775.2,209350
step02_gravity_refstate-mantle.xmf,1215,-3.86862e-06,1.03163e-05,0,1.18158e-06,-1.46063e+09,-1.45874e+09,-1.46012e+09,157919,0.00411518,0.0778888,0,0.0779974,-1020.41,-51180,-0,51190.2,157919
step02_gravity_refstate-mantle.xmf,1216,-3.44832e-06,9.67926e-06,0,1.54891e-06,-1.47155e+09,-1.46979e+09,-1.47109e+09,207012,0.00608873,0.0731582,0,0.0734111,-1608.4,-51518.4,-0,51543.5,207012
step02_gravity_refstate-mantle.xmf,1217,-1.64332e-06,6.96249e-06,0,1.74013e-06,-1.51988e+09,-1.51873e+09,-1.51966e+09,232568,0.0135625,0.0502405,0,0.0520389,-4970.85,-53016.6,-0,53249.1,232568
step02_gravity_refstate-mantle.xmf,1218,-3.04043e-06,9.06914e-06,0,1.75782e-06,-1.48183e+09,-1.48021e+09,-1.48142e+09,234933,0.00784007,0.0685052,0,0.0689523,-2206.55,-51837.1,-0,51884,234933
step02_gravity_refstate-mantle.xmf,1219,-1.94823e-06,7.43585e-06,0,1.86427e-06,-1.50788e+09,-1.50663e+09,-1.50762e+09,249159,0.0123298,0.0553911,0,0.0567468,-4206.84,-52645,-0,52812.8,249159
step02_gravity_refstate-mantle.xmf,1220,-2.26854e-06,7.92217e-06,0,1.90796e-06,-1.49939e+09,-1.49803e+09,-1.49909e+09,254999,0.0110445,0.059635,0,0.0606491,-3537.93,-52381.8,-0,52501.1,254999
step02_gravity_refstate-mantle.xmf,1221,-2.64685e-06,8.48271e-06,0,1.86857e-06,-1.49133e+09,-1.48984e+09,-1.49097e+09,249734,0.00949103,0.0639374,0,0.064638,-2848.9,-52131.7,-0,52209.5,249734
step02_gravity_refstate-mantle.xmf,1222,-9.18005e-07,5.80234e-06,0,8.32095e-07,-1.61186e+09,-1.61096e+09,-1.61173e+09,111209,0.0170286,0.0248931,0,0.0301602,-8058.16,-55859.4,-0,56437.7,111209
step02_gravity_refstate-mantle.xmf,1223,-5.37544e-07,5.24823e-06,0,5.11684e-07,-1.64586e+09,-1.64509e+09,-1.64579e+09,68386.6,0.0183656,0.0166518,0,0.0247907,-9846.8,-56911,-0,57756.6,68386.6
step02_gravity_refstate-mantle.xmf,1224,-7.26543e-07,5.5223e-06,0,6.64954e-07,-1.62903e+09,-1.6282e+09,-1.62893e+09,88871.1,0.0177559,0.0205735,0,0.0271761,-8933.34,-56390.6,-0,57093.8,88871.1
step02_gravity_refstate-mantle.xmf,1225,-3.98702e-07,5.10469e-06,0,1.86018e-07,-1.70566e+09,-1.70492e+09,-1.70561e+09,24861.3,0.0189269,0.00638797,0,0.0199758,-10778.2,-58758.7,-0,59739.1,24861.3
step02_gravity_refstate-mantle.xmf,1226,-2.82486e-07,4.98227e-06,0,-2.48784e-09,-1.74583e+09,-1.74512e+09,-1.74579e+09,-332.499,0.0191734,-9.70575e-20,0,0.0191734,-11403.8,-60000,-0,61074.1,332.499
step02_gravity_refstate-mantle.xmf,1227,-2.96549e-06,9.25013e-06,0,-2.41702e-06,-1.44652e+09,-1.44489e+09,-1.44613e+09,-323034,-0.00879163,0.0781804,-0,0.0786732,2296.05,-50747.4,0,50799.3,323034
step02_gravity_refstate-mantle.xmf,1228,-4.1934e-06,1.08711e-05,0,-8.66137e-07,-1.44836e+09,-1.44635e+09,-1.4478e+09,-115759,-0.00268588,0.0825868,-0,0.0826304,627.978,-50800.3,0,50804.1,115759
step02_gravity_refstate-mantle.xmf,1229,-3.43573e-06,9.7976e-06,0,-1.8709e-06,-1.45625e+09,-1.45448e+09,-1.45579e+09,-250045,-0.00673646,0.0774458,-0,0.0777382,1717.91,-51046.2,0,51075.1,250045
step02_gravity_refstate-mantle.xmf,1230,-2.08266e-06,7.95379e-06,0,-2.64347e-06,-1.44661e+09,-1.44527e+09,-1.44633e+09,-353299,-0.0115792,0.0731061,-0,0.0740174,3407.61,-50752.8,0,50867.1,353299
step02_gravity_refstate-mantle.xmf,1231,-1.79182e-06,7.43332e-06,0,-2.45346e-06,-1.45874e+09,-1.45751e+09,-1.4585e+09,-327905,-0.0125274,0.0675464,-0,0.0686983,3983.76,-51128.1,0,51283.1,327905
step02_gravity_refstate-mantle.xmf,1232,-1.24798e-06,6.54785e-06,0,-2.23624e-06,-1.46467e+09,-1.46363e+09,-1.46451e+09,-298874,-0.0141621,0.0612865,-0,0.0629016,5102.21,-51312.7,0,51565.7,298874
step02_gravity_refstate-mantle.xmf,1233,-1.07858e-06,6.22962e-06,0,-2.00982e-06,-1.47959e+09,-1.47861e+09,-1.47944e+09,-268613,-0.0148551,0.0557228,-0,0.057669,5735.34,-51773.7,0,52090.4,268613
step02_gravity_refstate-mantle.xmf,1234,1.1919e-07,4.12167e-06,0,-4.37864e-07,-1.59199e+09,-1.59146e+09,-1.59201e+09,-58520.5,-0.0185562,0.0207469,-0,0.0278346,12875.3,-55248.5,0,56728.9,58520.5
step02_gravity_refstate-mantle.xmf,1235,8.65104e-09,4.29956e-06,0,-5.88406e-07,-1.57227e+09,-1.5717e+09,-1.57227e+09,-78640.4,-0.018378,0.0247261,-0,0.030808,11868.1,-54639,0,55913,78640.4
step02_gravity_refstate-mantle.xmf,1236,-1.19163e-07,4.51177e-06,0,-7.76803e-07,-1.55288e+09,-1.55226e+09,-1.55287e+09,-103820,-0.0180799,0.0292209,-0,0.0343619,10801.3,-54039.8,0,55108.7,103820
step02_gravity_refstate-mantle.xmf,1237,-9.06406e-07,5.90354e-06,0,-1.77343e-06,-1.49376e+09,-1.49285e+09,-1.49364e+09,-237019,-0.015571,0.0503516,-0,0.0527043,6459.94,-52211.7,0,52609.8,237019
step02_gravity_refstate-mantle.xmf,1238,-3.08387e-07,4.83734e-06,0,-9.51527e-07,-1.54727e+09,-1.54658e+09,-1.54723e+09,-127172,-0.0177835,0.0322933,-0,0.0368661,9703.17,-53866.1,0,54733,127172
step02_gravity_refstate-mantle.xmf,1239,-4.40573e-07,5.06761e-06,0,-1.13784e-06,-1.53359e+09,-1.53285e+09,-1.53353e+09,-152072,-0.017348,0.0363743,-0,0.0402994,8858.9,-53443.1,0,54172.4,152072
step02_gravity_refstate-mantle.xmf,1240,-7.37676e-07,5.59674e-06,0,-1.55358e-06,-1.50665e+09,-1.50581e+09,-1.50655e+09,-207636,-0.0162333,0.0454624,-0,0.0482737,7227.91,-52610.4,0,53104.6,207636
step02_gravity_refstate-mantle.xmf,1241,-5.81646e-07,5.31749e-06,0,-1.34139e-06,-1.51969e+09,-1.5189e+09,-1.51961e+09,-179277,-0.0168268,0.0408296,-0,0.0441611,8030.59,-53013.5,0,53618.3,179277
step02_gravity_refstate-mantle.xmf,1242,1.83028e-07,4.08704e-06,0,-2.33721e-07,-1.65158e+09,-1.65105e+09,-1.6516e+09,-31236.7,-0.0189851,0.0122343,-0,0.0225857,13856.8,-57089.3,0,58746.9,31236.7
step02_gravity_refstate-mantle.xmf,1243,2.55541e-07,4.04972e-06,0,-7.6286e-08,-1.71026e+09,-1.70975e+09,-1.71029e+09,-10195.6,-0.0191168,0.00448288,-0,0.0196354,14646.7,-58902.5,0,60696.2,10195.6
step02_gravity_refstate-mantle.xmf,1244,3.46027e-07,3.94522e-06,0,1.11467e-09,-1.74578e+09,-1.7453e+09,-1.74582e+09,148.976,-0.0189352,-4.29958e-19,-0,0.0189352,15431.1,-60000,0,61952.6,148.976
step02_gravity_refstate-mantle.xmf,1245,-1.11143e-06,6.08838e-06,0,1.00563e-06,-1.59466e+09,-1.5937e+09,-1.59451e+09,134403,0.0162092,0.0295353,0,0.0336908,-7226.89,-55327.8,-0,55797.8,134403
step02_gravity_refstate-mantle.xmf,1246,-6.07177e-07,5.3856e-06,0,3.46553e-07,-1.6797e+09,-1.6789e+09,-1.67962e+09,46316.9,0.0183825,0.0111649,0,0.0215074,-9770.17,-57956.3,-0,58774.1,46316.9
step02_gravity_refstate-mantle.xmf,1247,-2.57345e-06,8.6018e-06,0,-2.38195e-06,-1.45767e+09,-1.45617e+09,-1.45732e+09,-318348,-0.0100403,0.072892,-0,0.0735802,2827.92,-51092.6,0,51170.8,318348
step02_gravity_refstate-mantle.xmf,1248,-3.83262e-06,1.03372e-05,0,-1.36666e-06,-1.4566e+09,-1.45471e+09,-1.45609e+09,-182654,-0.00461716,0.0789293,-0,0.0790642,1135.96,-51055.8,0,51068.5,182654
step02_gravity_refstate-mantle.xmf,1249,-1.56412e-06,7.02447e-06,0,-2.2803e-06,-1.46897e+09,-1.46782e+09,-1.46876e+09,-304762,-0.0133235,0.0628924,-0,0.0642882,4523.26,-51444.4,0,51642.9,304762
step02_gravity_refstate-mantle.xmf,1250,5.83359e-08,4.27693e-06,0,-3.47778e-07,-1.63122e+09,-1.63065e+09,-1.63122e+09,-46480.5,-0.0189484,0.0157044,-0,0.0246104,12834.6,-56460.1,0,57900.5,46480.5
step02_gravity_refstate-mantle.xmf,1251,1.76506e-07,4.14178e-06,0,-1.48186e-07,-1.68491e+09,-1.68438e+09,-1.68493e+09,-19805.1,-0.019162,0.00792074,-0,0.0207345,13987.1,-58119,0,59778.4,19805.1
step02_gravity_refstate-mantle.xmf,1252,-4.1422e-06,1.06895e-05,0,-1.79495e-07,-1.46006e+09,-1.45808e+09,-1.45951e+09,-23989.6,-0.000504002,0.0790983,-0,0.0790999,121.938,-51161.4,0,51161.6,23989.6
step02_gravity_refstate-mantle.xmf,1253,-3.94437e-06,1.03377e-05,0,4.46747e-07,-1.47179e+09,-1.46988e+09,-1.47127e+09,59707.7,0.00168377,0.075122,0,0.0751409,-425.128,-51524.3,-0,51526.1,59707.7
step02_gravity_refstate-mantle.xmf,1254,-1.30564e-06,6.37995e-06,0,1.17831e-06,-1.57777e+09,-1.57674e+09,-1.5776e+09,157482,0.0153317,0.0343906,0,0.0376533,-6451.15,-54805.4,-0,55183.8,157482
step02_gravity_refstate-mantle.xmf,1255,-1.52033e-06,6.70572e-06,0,1.34055e-06,-1.56198e+09,-1.56088e+09,-1.56178e+09,179165,0.0143465,0.0393595,0,0.0418926,-5687.21,-54317.2,-0,54614.1,179165
step02_gravity_refstate-mantle.xmf,1256,-1.74983e-06,7.05586e-06,0,1.47957e-06,-1.54759e+09,-1.54641e+09,-1.54736e+09,197744,0.0132942,0.0442522,0,0.046206,-4968.43,-53871.9,-0,54100.6,197744
step02_gravity_refstate-mantle.xmf,1257,-3.6509e-06,9.87767e-06,0,9.35736e-07,-1.48294e+09,-1.48113e+09,-1.48245e+09,125061,0.00382571,0.070939,0,0.0710421,-1014.88,-51869.2,-0,51879.2,125061
step02_gravity_refstate-mantle.xmf,1258,-3.3143e-06,9.37363e-06,0,1.27472e-06,-1.49348e+09,-1.49178e+09,-1.49303e+09,170367,0.00580587,0.066668,0,0.0669203,-1623.84,-52195.8,-0,52221.1,170367
step02_gravity_refstate-mantle.xmf,1259,-2.0117e-06,7.45369e-06,0,1.59089e-06,-1.5338e+09,-1.53254e+09,-1.53353e+09,212622,0.0121074,0.0492843,0,0.0507497,-4255.57,-53445.3,-0,53614.5,212622
step02_gravity_refstate-mantle.xmf,1260,-2.97554e-06,8.87486e-06,0,1.48461e-06,-1.5033e+09,-1.50172e+09,-1.5029e+09,198419,0.00757592,0.0624753,0,0.0629329,-2235.82,-52500.3,-0,52547.9,198419
step02_gravity_refstate-mantle.xmf,1261,-2.31466e-06,7.9067e-06,0,1.63682e-06,-1.52234e+09,-1.52097e+09,-1.52203e+09,218761,0.0107341,0.0539969,0,0.0550535,-3548.2,-53090.3,-0,53208.7,218761
step02_gravity_refstate-mantle.xmf,1262,-2.643e-06,8.38922e-06,0,1.59966e-06,-1.51269e+09,-1.51121e+09,-1.51233e+09,213795,0.00919688,0.058319,0,0.0590398,-2867.39,-52791.2,-0,52869,213795
step02_gravity_refstate-mantle.xmf,1263,-1.20032e-06,6.21697e-06,0,8.05589e-07,-1.62487e+09,-1.62388e+09,-1.62471e+09,107667,0.0160949,0.0238497,0,0.0287725,-7196.08,-56260.6,-0,56718.9,107667
step02_gravity_refstate-mantle.xmf,1264,-1.00825e-06,5.94677e-06,0,6.37341e-07,-1.64442e+09,-1.64349e+09,-1.64428e+09,85180.7,0.0169492,0.0190663,0,0.0255108,-8002.21,-56865.1,-0,57425.4,85180.7
step02_gravity_refstate-mantle.xmf,1265,-8.01769e-07,5.65545e-06,0,4.84216e-07,-1.66206e+09,-1.6612e+09,-1.66196e+09,64715.5,0.0177459,0.0149244,0,0.0231874,-8888.35,-57410.7,-0,58094.7,64715.5
step02_gravity_refstate-mantle.xmf,1266,-7.06188e-07,5.5733e-06,0,1.73799e-07,-1.71411e+09,-1.71327e+09,-1.71402e+09,23228.3,0.0182186,0.00549838,0,0.0190302,-9483.71,-59018.9,-0,59776,23228.3
step02_gravity_refstate-mantle.xmf,1267,-5.54252e-07,5.39451e-06,0,-1.35247e-09,-1.74585e+09,-1.74506e+09,-1.74578e+09,-180.757,0.0186476,-8.60213e-20,0,0.0186476,-10149.4,-60000,-0,60852.4,180.757
step02_gravity_refstate-mantle.xmf,1268,-2.9941e-06,9.13343e-06,0,-2.08022e-06,-1.4642e+09,-1.46258e+09,-1.4638e+09,-278021,-0.00842263,0.0731841,-0,0.0736671,2291.6,-51292.9,0,51344.1,278021
step02_gravity_refstate-mantle.xmf,1269,-3.82379e-06,1.02083e-05,0,-8.80275e-07,-1.47127e+09,-1.4694e+09,-1.47076e+09,-117649,-0.00315585,0.0748755,-0,0.074942,802.866,-51508.7,0,51515,117649
step02_gravity_refstate-mantle.xmf,1270,-3.57376e-06,9.88547e-06,0,-1.42072e-06,-1.46952e+09,-1.46772e+09,-1.46904e+09,-189879,-0.00533475,0.0743252,-0,0.0745165,1384.26,-51455.3,0,51473.9,189879
step02_gravity_refstate-mantle.xmf,1271,-2.23345e-06,8.01879e-06,0,-2.28807e-06,-1.4702e+09,-1.46883e+09,-1.4699e+09,-305800,-0.0112009,0.0673079,-0,0.0682335,3404.15,-51480.7,0,51593.1,305800
step02_gravity_refstate-mantle.xmf,1272,-1.8901e-06,7.45292e-06,0,-2.15839e-06,-1.48216e+09,-1.48091e+09,-1.48191e+09,-288468,-0.0124175,0.0617534,-0,0.0629895,4081.86,-51850.9,0,52011.4,288468
step02_gravity_refstate-mantle.xmf,1273,-1.51644e-06,6.8657e-06,0,-2.03784e-06,-1.48986e+09,-1.48874e+09,-1.48965e+09,-272357,-0.0137244,0.0568886,-0,0.0585207,4902.05,-52089.6,0,52319.8,272357
step02_gravity_refstate-mantle.xmf,1274,-1.26294e-06,6.4326e-06,0,-1.79749e-06,-1.50663e+09,-1.5056e+09,-1.50646e+09,-240235,-0.0147298,0.050535,-0,0.0526379,5709.15,-52608.4,0,52917.3,240235
step02_gravity_refstate-mantle.xmf,1275,-6.89721e-08,4.46959e-06,0,-4.8647e-07,-1.61048e+09,-1.60988e+09,-1.61047e+09,-65016.7,-0.0187684,0.0195825,-0,0.0271243,11845.7,-55819.3,0,57062.4,65016.7
step02_gravity_refstate-mantle.xmf,1276,-2.06828e-07,4.68408e-06,0,-6.47067e-07,-1.59155e+09,-1.5909e+09,-1.59152e+09,-86480.5,-0.0184729,0.0236262,-0,0.0299908,10860.8,-55234.1,0,56291.8,86480.5
step02_gravity_refstate-mantle.xmf,1277,-1.06112e-06,6.08774e-06,0,-1.58951e-06,-1.52099e+09,-1.52004e+09,-1.52085e+09,-212439,-0.0155557,0.0452984,-0,0.0478949,6463.67,-53052.5,0,53444.8,212439
step02_gravity_refstate-mantle.xmf,1278,-3.78089e-07,4.95855e-06,0,-8.18261e-07,-1.57789e+09,-1.57718e+09,-1.57784e+09,-109361,-0.0180703,0.027396,-0,0.0328189,9834.51,-54811.7,0,55687,109361
step02_gravity_refstate-mantle.xmf,1279,-5.44749e-07,5.22804e-06,0,-9.97812e-07,-1.56409e+09,-1.56332e+09,-1.56402e+09,-133358,-0.0175616,0.0314114,-0,0.0359873,8907.75,-54385,0,55109.7,133358
step02_gravity_refstate-mantle.xmf,1280,-7.08853e-07,5.49717e-06,0,-1.18926e-06,-1.54953e+09,-1.5487e+09,-1.54943e+09,-158945,-0.0169664,0.0357965,-0,0.0396138,8049.95,-53934.8,0,54532.2,158945
step02_gravity_refstate-mantle.xmf,1281,-8.7892e-07,5.78038e-06,0,-1.38779e-06,-1.53508e+09,-1.53419e+09,-1.53496e+09,-185478,-0.0162967,0.0404391,-0,0.0435993,7238.28,-53488.1,0,53975.6,185478
step02_gravity_refstate-mantle.xmf,1282,4.7019e-09,4.4216e-06,0,-2.28786e-07,-1.67405e+09,-1.67345e+09,-1.67405e+09,-30577.2,-0.0192204,0.00999523,-0,0.021664,12773.6,-57783.1,0,59178.1,30577.2
step02_gravity_refstate-mantle.xmf,1283,7.29915e-08,4.36082e-06,0,-9.89202e-08,-1.71173e+09,-1.71116e+09,-1.71174e+09,-13220.7,-0.0193336,0.00462623,-0,0.0198794,13353.4,-58947.5,0,60441.1,13220.7
step02_gravity_refstate-mantle.xmf,1284,1.69698e-07,4.25288e-06,0,1.73084e-09,-1.74579e+09,-1.74525e+09,-1.74581e+09,231.326,-0.0192934,-4.43769e-19,-0,0.0192934,14040.5,-60000,0,61620.9,231.326
step02_gravity_refstate-mantle.xmf,1285,-1.38962e-06,6.48618e-06,0,9.67644e-07,-1.60653e+09,-1.60547e+09,-1.60634e+09,129326,0.0151924,0.0286868,0,0.0324613,-6446.95,-55693.4,-0,56065.3,129326
step02_gravity_refstate-mantle.xmf,1286,-8.37533e-07,5.73374e-06,0,3.12281e-07,-1.6918e+09,-1.69093e+09,-1.69169e+09,41736.4,0.0177644,0.00968089,0,0.020231,-8903.27,-58329.4,-0,59005,41736.4
step02_gravity_refstate-mantle.xmf,1287,-3.20848e-06,9.32611e-06,0,-1.66726e-06,-1.47823e+09,-1.47655e+09,-1.4778e+09,-222829,-0.00707768,0.0702963,-0,0.0706517,1941.46,-51725.4,0,51761.8,222829
step02_gravity_refstate-mantle.xmf,1288,-2.73971e-06,8.65806e-06,0,-1.9535e-06,-1.48158e+09,-1.48006e+09,-1.48122e+09,-261086,-0.00921916,0.0670555,-0,0.0676863,2684.48,-51830.5,0,51899.9,261086
step02_gravity_refstate-mantle.xmf,1289,-1.36732e-07,4.62129e-06,0,-3.67902e-07,-1.64801e+09,-1.64738e+09,-1.64799e+09,-49170.1,-0.0190202,0.0143667,-0,0.0238363,11796.2,-56978.5,0,58186.8,49170.1
step02_gravity_refstate-mantle.xmf,1290,-3.8298e-06,1.01209e-05,0,-1.95343e-07,-1.48326e+09,-1.4814e+09,-1.48275e+09,-26107.5,-0.000707583,0.0716137,-0,0.0716171,184.764,-51878.9,0,51879.2,26107.5
step02_gravity_refstate-mantle.xmf,1291,-3.68479e-06,9.86026e-06,0,3.4892e-07,-1.49479e+09,-1.49298e+09,-1.4943e+09,46633.1,0.00155067,0.067945,0,0.0679627,-419.368,-52235.3,-0,52237,46633.1
step02_gravity_refstate-mantle.xmf,1292,-1.59785e-06,6.78806e-06,0,1.10706e-06,-1.59093e+09,-1.58981e+09,-1.59072e+09,147958,0.0141747,0.0332882,0,0.0361804,-5705.27,-55211.1,-0,55505.1,147958
step02_gravity_refstate-mantle.xmf,1293,-1.82959e-06,7.12696e-06,0,1.23223e-06,-1.57544e+09,-1.57424e+09,-1.57519e+09,164688,0.0130141,0.0381865,0,0.0403432,-4955.41,-54731.7,-0,54955.6,164688
step02_gravity_refstate-mantle.xmf,1294,-2.07706e-06,7.49002e-06,0,1.32516e-06,-1.56086e+09,-1.55958e+09,-1.56058e+09,177107,0.0117619,0.0430875,0,0.044664,-4237.85,-54280.8,-0,54445.9,177107
step02_gravity_refstate-mantle.xmf,1295,-3.4484e-06,9.49168e-06,0,7.60202e-07,-1.50647e+09,-1.50474e+09,-1.50601e+09,101601,0.00366096,0.0638686,0,0.0639734,-1033.78,-52596.6,-0,52606.7,101601
step02_gravity_refstate-mantle.xmf,1296,-3.18666e-06,9.1125e-06,0,1.0486e-06,-1.51597e+09,-1.51432e+09,-1.51554e+09,140146,0.00554793,0.0602267,0,0.0604817,-1633.43,-52890.7,-0,52915.9,140146
step02_gravity_refstate-mantle.xmf,1297,-2.35645e-06,7.8985e-06,0,1.36672e-06,-1.54731e+09,-1.54594e+09,-1.54699e+09,182663,0.0103276,0.0479871,0,0.0490859,-3515.79,-53861.3,-0,53975.9,182663
step02_gravity_refstate-mantle.xmf,1298,-2.90929e-06,8.72454e-06,0,1.24934e-06,-1.52477e+09,-1.52322e+09,-1.52438e+09,166974,0.00724882,0.0566542,0,0.0571161,-2228.61,-53163.6,-0,53210.3,166974
step02_gravity_refstate-mantle.xmf,1299,-2.65802e-06,8.34104e-06,0,1.33606e-06,-1.53498e+09,-1.53351e+09,-1.53462e+09,178565,0.00871324,0.0527161,0,0.0534314,-2804.87,-53479.5,-0,53553,178565
step02_gravity_refstate-mantle.xmf,1300,-1.44294e-06,6.55898e-06,0,7.84469e-07,-1.63172e+09,-1.63065e+09,-1.63153e+09,104844,0.0150924,0.0236002,0,0.0280134,-6454.53,-56471.4,-0,56839.1,104844
step02_gravity_refstate-mantle.xmf,1301,-1.31229e-06,6.38757e-06,0,6.25777e-07,-1.65287e+09,-1.65184e+09,-1.65269e+09,83635.1,0.015772,0.0186629,0,0.0244348,-7001.15,-57125.1,-0,57552.6,83635.1
step02_gravity_refstate-mantle.xmf,1302,-1.10521e-06,6.11396e-06,0,4.15481e-07,-1.68087e+09,-1.6799e+09,-1.68072e+09,55529,0.0167527,0.0124263,0,0.0208582,-7855.65,-57990.8,-0,58520.5,55529
step02_gravity_refstate-mantle.xmf,1303,-1.00052e-06,6.00033e-06,0,1.88382e-07,-1.71538e+09,-1.71444e+09,-1.71524e+09,25177.2,0.0172529,0.0056842,0,0.0181652,-8351.4,-59057.1,-0,59644.7,25177.2
step02_gravity_refstate-mantle.xmf,1304,-8.55219e-07,5.83517e-06,0,-1.6244e-09,-1.74588e+09,-1.74499e+09,-1.74577e+09,-217.102,0.0177897,-8.6861e-20,0,0.0177897,-8931.98,-60000,-0,60661.2,217.102
step02_gravity_refstate-mantle.xmf,1305,-3.43593e-06,9.593e-06,0,-1.23261e-06,-1.4867e+09,-1.48496e+09,-1.48625e+09,-164739,-0.00519195,0.0690873,-0,0.0692821,1413.98,-51986.4,0,52005.6,164739
step02_gravity_refstate-mantle.xmf,1306,-2.3091e-06,7.99552e-06,0,-1.94935e-06,-1.49502e+09,-1.49365e+09,-1.49472e+09,-260531,-0.010898,0.061024,-0,0.0619895,3444.18,-52246.9,0,52360.3,260531
step02_gravity_refstate-mantle.xmf,1307,-1.94489e-06,7.43463e-06,0,-1.8722e-06,-1.50727e+09,-1.50601e+09,-1.50701e+09,-250220,-0.0123398,0.0555281,-0,0.0568827,4208.08,-52626,0,52794,250220
step02_gravity_refstate-mantle.xmf,1308,-1.64782e-06,6.96907e-06,0,-1.73921e-06,-1.51999e+09,-1.51884e+09,-1.51977e+09,-232446,-0.0135451,0.0502487,-0,0.0520423,4960.88,-53019.9,0,53251.5,232446
step02_gravity_refstate-mantle.xmf,1309,-1.40275e-06,6.5785e-06,0,-1.56633e-06,-1.53456e+09,-1.5335e+09,-1.53438e+09,-209339,-0.0145748,0.0449078,-0,0.0472137,5714.93,-53470.6,0,53775.2,209339
step02_gravity_refstate-mantle.xmf,1310,-2.86384e-07,4.84214e-06,0,-5.1217e-07,-1.62827e+09,-1.62759e+09,-1.62824e+09,-68451.5,-0.0187122,0.0182378,-0,0.0261297,10850.9,-56368.4,0,57403.2,68451.5
step02_gravity_refstate-mantle.xmf,1311,-4.58374e-07,5.10179e-06,0,-6.69361e-07,-1.61163e+09,-1.61089e+09,-1.61157e+09,-89460.1,-0.0182691,0.0220822,-0,0.0286598,9878.45,-55853.7,0,56720.5,89460.1
step02_gravity_refstate-mantle.xmf,1312,-1.19638e-06,6.24838e-06,0,-1.38804e-06,-1.54919e+09,-1.54819e+09,-1.54903e+09,-185512,-0.0154624,0.0399474,-0,0.0428355,6457.48,-53922.9,0,54308.2,185512
step02_gravity_refstate-mantle.xmf,1313,-6.39144e-07,5.37723e-06,0,-8.38775e-07,-1.59591e+09,-1.59511e+09,-1.59583e+09,-112102,-0.0176986,0.0261352,-0,0.031564,8941.1,-55367.8,0,56085.1,112102
step02_gravity_refstate-mantle.xmf,1314,-8.22359e-07,5.6595e-06,0,-1.01749e-06,-1.58036e+09,-1.57949e+09,-1.58025e+09,-135987,-0.0170259,0.0304661,-0,0.0349007,8058.89,-54886.7,0,55475.2,135987
step02_gravity_refstate-mantle.xmf,1315,-1.00604e-06,5.94654e-06,0,-1.20265e-06,-1.56461e+09,-1.56368e+09,-1.56447e+09,-160735,-0.0162773,0.035103,-0,0.0386933,7234.76,-54399.7,0,54878.6,160735
step02_gravity_refstate-mantle.xmf,1316,-1.96232e-07,4.74763e-06,0,-2.58577e-07,-1.67937e+09,-1.67871e+09,-1.67935e+09,-34558.8,-0.0191384,0.00990909,-0,0.0215515,11691.5,-57947.2,0,59114.9,34558.8
step02_gravity_refstate-mantle.xmf,1317,-1.46452e-07,4.71468e-06,0,-1.30708e-07,-1.71064e+09,-1.70999e+09,-1.71062e+09,-17469.2,-0.0192845,0.00516347,-0,0.0199638,12058.4,-58913.4,0,60134.7,17469.2
step02_gravity_refstate-mantle.xmf,1318,-3.9702e-08,4.59894e-06,0,1.96617e-09,-1.74581e+09,-1.74519e+09,-1.7458e+09,262.779,-0.019381,-4.95271e-19,-0,0.019381,12699.5,-60000,0,61329.3,262.779
step02_gravity_refstate-mantle.xmf,1319,-3.58502e-06,9.73835e-06,0,-6.96339e-07,-1.49571e+09,-1.49393e+09,-1.49523e+09,-93065.7,-0.00298026,0.0673283,-0,0.0673942,813.967,-52264,0,52270.4,93065.7
step02_gravity_refstate-mantle.xmf,1320,-1.64556e-06,6.84253e-06,0,8.81915e-07,-1.62002e+09,-1.61889e+09,-1.6198e+09,117868,0.0140588,0.0270917,0,0.0305223,-5746.2,-56109.5,-0,56403,117868
step02_gravity_refstate-mantle.xmf,1321,-3.06169e-06,9.01604e-06,0,-1.48942e-06,-1.49766e+09,-1.49605e+09,-1.49726e+09,-199061,-0.00723941,0.0643838,-0,0.0647895,2095.17,-52326,0,52367.9,199061
step02_gravity_refstate-mantle.xmf,1322,-3.59841e-07,4.9925e-06,0,-3.6635e-07,-1.66469e+09,-1.66397e+09,-1.66464e+09,-48962.7,-0.0188386,0.0127779,-0,0.0227633,10781.2,-57493,0,58495.1,48962.7
step02_gravity_refstate-mantle.xmf,1323,-3.58716e-06,9.67891e-06,0,-1.60663e-07,-1.50679e+09,-1.50502e+09,-1.50631e+09,-21472.6,-0.000687616,0.0644124,-0,0.0644161,191.587,-52606,0,52606.3,21472.6
step02_gravity_refstate-mantle.xmf,1324,-3.46593e-06,9.46465e-06,0,2.85295e-07,-1.51904e+09,-1.51731e+09,-1.51857e+09,38129.7,0.00150485,0.0606973,0,0.060716,-432.976,-52984.6,-0,52986.4,38129.7
step02_gravity_refstate-mantle.xmf,1325,-1.88037e-06,7.17314e-06,0,9.96129e-07,-1.60392e+09,-1.60271e+09,-1.60367e+09,133133,0.0127836,0.0318895,0,0.0343563,-4958.92,-55611.5,-0,55832.1,133133
step02_gravity_refstate-mantle.xmf,1326,-2.11785e-06,7.50959e-06,0,1.07747e-06,-1.58871e+09,-1.58742e+09,-1.58843e+09,144004,0.0114457,0.0366703,0,0.0384151,-4221.96,-55140.8,-0,55302.2,144004
step02_gravity_refstate-mantle.xmf,1327,-2.37517e-06,7.87504e-06,0,1.1119e-06,-1.57419e+09,-1.57282e+09,-1.57387e+09,148605,0.00994311,0.0415051,0,0.0426795,-3485.02,-54691.4,-0,54802.3,148605
step02_gravity_refstate-mantle.xmf,1328,-3.26205e-06,9.15019e-06,0,6.23161e-07,-1.53258e+09,-1.53093e+09,-1.53215e+09,83285.5,0.00359708,0.0562983,0,0.0564131,-1078.2,-53403.7,-0,53414.5,83285.5
step02_gravity_refstate-mantle.xmf,1329,-2.97523e-06,8.73528e-06,0,9.48242e-07,-1.54348e+09,-1.54192e+09,-1.54308e+09,126733,0.00612046,0.052168,0,0.0525258,-1920.76,-53741.1,-0,53775.4,126733
step02_gravity_refstate-mantle.xmf,1330,-2.65825e-06,8.27727e-06,0,1.07853e-06,-1.55988e+09,-1.55842e+09,-1.55953e+09,144145,0.00820757,0.0464765,0,0.0471957,-2729.41,-54248.7,-0,54317.3,144145
step02_gravity_refstate-mantle.xmf,1331,-1.64196e-06,6.84403e-06,0,6.44179e-07,-1.65262e+09,-1.65149e+09,-1.65241e+09,86094.5,0.0141689,0.0199741,0,0.0244892,-5913.79,-57116.6,-0,57422,86094.5
step02_gravity_refstate-mantle.xmf,1332,-1.47242e-06,6.63101e-06,0,4.29868e-07,-1.68258e+09,-1.6815e+09,-1.68239e+09,57451.9,0.0151151,0.0130928,0,0.0199972,-6586.87,-58042.6,-0,58415.2,57451.9
step02_gravity_refstate-mantle.xmf,1333,-1.32727e-06,6.4606e-06,0,2.13075e-07,-1.71394e+09,-1.7129e+09,-1.71376e+09,28477.5,0.0158799,0.00641157,0,0.0171254,-7170.67,-59011.7,-0,59445.8,28477.5
step02_gravity_refstate-mantle.xmf,1334,-1.17412e-06,6.28946e-06,0,-1.33344e-09,-1.74591e+09,-1.74492e+09,-1.74576e+09,-178.214,0.0165881,-9.76891e-20,0,0.0165881,-7747.36,-60000,-0,60498.1,178.214
step02_gravity_refstate-mantle.xmf,1335,-2.68937e-06,8.46663e-06,0,-1.62765e-06,-1.50821e+09,-1.50672e+09,-1.50785e+09,-217536,-0.00903407,0.0597248,-0,0.0604042,2779.96,-52652.7,0,52726.1,217536
step02_gravity_refstate-mantle.xmf,1336,-3.28282e-06,9.28235e-06,0,-1.03744e-06,-1.50832e+09,-1.50664e+09,-1.50789e+09,-138654,-0.00506973,0.0627001,-0,0.0629047,1458.09,-52654.5,0,52674.6,138654
step02_gravity_refstate-mantle.xmf,1337,-2.33196e-06,7.93438e-06,0,-1.64805e-06,-1.52072e+09,-1.51935e+09,-1.52041e+09,-220262,-0.0106606,0.0545101,-0,0.0555428,3506.52,-53040.3,0,53156.1,220262
step02_gravity_refstate-mantle.xmf,1338,-2.02066e-06,7.46624e-06,0,-1.58852e-06,-1.53386e+09,-1.53259e+09,-1.53359e+09,-212305,-0.0120646,0.0493299,-0,0.0507838,4234.64,-53447,0,53614.5,212305
step02_gravity_refstate-mantle.xmf,1339,-1.74983e-06,7.05595e-06,0,-1.47962e-06,-1.54762e+09,-1.54644e+09,-1.54738e+09,-197751,-0.0132939,0.0442467,-0,0.0462006,4968.35,-53872.8,0,54101.4,197751
step02_gravity_refstate-mantle.xmf,1340,-1.51727e-06,6.70183e-06,0,-1.3378e-06,-1.56234e+09,-1.56125e+09,-1.56214e+09,-178797,-0.0143608,0.0392576,-0,0.0418018,5698.29,-54328.3,0,54626.3,178797
step02_gravity_refstate-mantle.xmf,1341,-5.36905e-07,5.24724e-06,0,-5.09148e-07,-1.64623e+09,-1.64546e+09,-1.64616e+09,-68047.6,-0.01837,0.0165845,-0,0.0247488,9853.24,-56922.5,0,57769,68047.6
step02_gravity_refstate-mantle.xmf,1342,-7.26201e-07,5.52127e-06,0,-6.63544e-07,-1.62917e+09,-1.62833e+09,-1.62907e+09,-88682.6,-0.0177585,0.020546,-0,0.027157,8936.77,-56394.7,0,57098.4,88682.6
step02_gravity_refstate-mantle.xmf,1343,-1.30962e-06,6.38606e-06,0,-1.17587e-06,-1.57824e+09,-1.57722e+09,-1.57807e+09,-157155,-0.0153197,0.0343137,-0,0.0375782,6443.64,-54820.1,0,55197.5,157155
step02_gravity_refstate-mantle.xmf,1344,-9.21595e-07,5.80693e-06,0,-8.31552e-07,-1.61203e+09,-1.61113e+09,-1.61191e+09,-111137,-0.0170192,0.024878,-0,0.0301425,8048.17,-55864.9,0,56441.6,111137
step02_gravity_refstate-mantle.xmf,1345,-1.1155e-06,6.09417e-06,0,-1.00279e-06,-1.59521e+09,-1.59425e+09,-1.59507e+09,-134023,-0.0161997,0.0294455,-0,0.0336076,7219.58,-55344.8,0,55813.7,134023
step02_gravity_refstate-mantle.xmf,1346,-4.0013e-07,5.10677e-06,0,-1.86252e-07,-1.70564e+09,-1.70491e+09,-1.70559e+09,-24892.5,-0.0189244,0.00639335,-0,0.0199752,10771.9,-58758.2,0,59737.4,24892.5
step02_gravity_refstate-mantle.xmf,1347,-2.82328e-07,4.98199e-06,0,2.49646e-09,-1.74583e+09,-1.74512e+09,-1.74579e+09,333.651,-0.0191733,-6.13204e-19,-0,0.0191733,11403.8,-60000,0,61074.1,333.651
step02_gravity_refstate-mantle.xmf,1348,-3.39636e-06,9.38228e-06,0,-5.65832e-07,-1.51909e+09,-1.51738e+09,-1.51864e+09,-75623.4,-0.002849,0.0604088,-0,0.0604759,824.688,-52986.6,0,52993,75623.4
step02_gravity_refstate-mantle.xmf,1349,-1.90372e-06,7.19715e-06,0,7.63896e-07,-1.6343e+09,-1.63308e+09,-1.63404e+09,102095,0.0126492,0.0250854,0,0.0280941,-4999.99,-56549.7,-0,56770.3,102095
step02_gravity_refstate-mantle.xmf,1350,-2.97803e-06,8.81e-06,0,-1.24184e-06,-1.52064e+09,-1.51906e+09,-1.52024e+09,-165973,-0.00699111,0.0579958,-0,0.0584157,2122.3,-53035.7,0,53078.2,165973
step02_gravity_refstate-mantle.xmf,1351,-6.0378e-07,5.38104e-06,0,-3.43464e-07,-1.68016e+09,-1.67936e+09,-1.68008e+09,-45904,-0.0183925,0.0110783,-0,0.0214712,9785.71,-57970.3,0,58790.4,45904
step02_gravity_refstate-mantle.xmf,1352,-3.38367e-06,9.31541e-06,0,-1.38391e-07,-1.53159e+09,-1.52989e+09,-1.53114e+09,-18495.9,-0.000707774,0.0571273,-0,0.0571317,209.102,-53372.6,0,53373,18495.9
step02_gravity_refstate-mantle.xmf,1353,-3.28549e-06,9.14569e-06,0,2.2568e-07,-1.54426e+09,-1.5426e+09,-1.54382e+09,30162.1,0.00142751,0.0534445,0,0.0534636,-433.655,-53764,-0,53765.8,30162.1
step02_gravity_refstate-mantle.xmf,1354,-2.13837e-06,7.5182e-06,0,8.47589e-07,-1.61743e+09,-1.61614e+09,-1.61715e+09,113280,0.0111911,0.0300106,0,0.0320294,-4218.14,-56028,-0,56186.5,113280
step02_gravity_refstate-mantle.xmf,1355,-2.37671e-06,7.8466e-06,0,8.80751e-07,-1.6022e+09,-1.60083e+09,-1.60188e+09,117712,0.00961575,0.0347423,0,0.0360484,-3462,-55556.7,-0,55664.4,117712
step02_gravity_refstate-mantle.xmf,1356,-2.62066e-06,8.18532e-06,0,8.58876e-07,-1.58711e+09,-1.58567e+09,-1.58676e+09,114789,0.00789324,0.039576,0,0.0403554,-2715.46,-55089.8,-0,55156.7,114789
step02_gravity_refstate-mantle.xmf,1357,-3.10748e-06,8.87579e-06,0,5.31144e-07,-1.55813e+09,-1.55653e+09,-1.55772e+09,70987.4,0.00366601,0.049109,0,0.0492457,-1154.97,-54193.2,-0,54205.5,70987.4
step02_gravity_refstate-mantle.xmf,1358,-2.87518e-06,8.54198e-06,0,7.49182e-07,-1.57223e+09,-1.5707e+09,-1.57184e+09,100128,0.00588743,0.0444765,0,0.0448644,-1934.56,-54629.2,-0,54663.5,100128
step02_gravity_refstate-mantle.xmf,1359,-1.93718e-06,7.25004e-06,0,5.42228e-07,-1.66481e+09,-1.66358e+09,-1.66455e+09,72468.8,0.0124197,0.0183158,0,0.0221295,-4966.39,-57492.1,-0,57706.2,72468.8
step02_gravity_refstate-mantle.xmf,1360,-1.74176e-06,6.99512e-06,0,4.37096e-07,-1.68142e+09,-1.68026e+09,-1.68119e+09,58417.9,0.0136467,0.0140541,0,0.0195896,-5670.31,-58005.9,-0,58282.4,58417.9
step02_gravity_refstate-mantle.xmf,1361,-1.6937e-06,6.96135e-06,0,2.24766e-07,-1.71278e+09,-1.71162e+09,-1.71255e+09,30040,0.0139566,0.00716396,0,0.0156878,-5895.58,-58974.6,-0,59268.6,30040
step02_gravity_refstate-mantle.xmf,1362,-1.50101e-06,6.74395e-06,0,-7.04825e-10,-1.74595e+09,-1.74484e+09,-1.74575e+09,-94.1999,0.015042,-1.122e-19,0,0.015042,-6591.22,-60000,-0,60360.9,94.1999
step02_gravity_refstate-mantle.xmf,1363,-2.65707e-06,8.3401e-06,0,-1.35283e-06,-1.53338e+09,-1.53191e+09,-1.53302e+09,-180806,-0.00875559,0.0531104,-0,0.0538273,2812.66,-53430.1,0,53504,180806
step02_gravity_refstate-mantle.xmf,1364,-3.15362e-06,9.02374e-06,0,-8.51905e-07,-1.53165e+09,-1.53002e+09,-1.53123e+09,-113857,-0.0048625,0.0560846,-0,0.0562949,1470.19,-53375.2,0,53395.4,113857
step02_gravity_refstate-mantle.xmf,1365,-2.35201e-06,7.89319e-06,0,-1.37368e-06,-1.54676e+09,-1.54539e+09,-1.54645e+09,-183592,-0.0103572,0.0480981,-0,0.0492006,3525.49,-53844.4,0,53959.7,183592
step02_gravity_refstate-mantle.xmf,1366,-2.07722e-06,7.49036e-06,0,-1.3255e-06,-1.5608e+09,-1.55952e+09,-1.56053e+09,-177153,-0.0117606,0.0431028,-0,0.0446784,4236.92,-54279,0,54444.1,177153
step02_gravity_refstate-mantle.xmf,1367,-1.83063e-06,7.12947e-06,0,-1.23837e-06,-1.57475e+09,-1.57355e+09,-1.5745e+09,-165508,-0.0130097,0.0383512,-0,0.0404978,4949.6,-54710.4,0,54933.8,165508
step02_gravity_refstate-mantle.xmf,1368,-1.61196e-06,6.80881e-06,0,-1.10278e-06,-1.59164e+09,-1.59051e+09,-1.59142e+09,-147386,-0.0141119,0.0332125,-0,0.0360863,5669.03,-55232.8,0,55523,147386
step02_gravity_refstate-mantle.xmf,1369,-7.90139e-07,5.63748e-06,0,-4.86128e-07,-1.66126e+09,-1.6604e+09,-1.66115e+09,-64971,-0.0177785,0.0150239,-0,0.0232764,8929.57,-57386,0,58076.6,64971
step02_gravity_refstate-mantle.xmf,1370,-9.98152e-07,5.92992e-06,0,-6.31355e-07,-1.6448e+09,-1.64387e+09,-1.64466e+09,-84380.6,-0.0169913,0.0189445,-0,0.025448,8044.68,-56876.8,0,57442.9,84380.6
step02_gravity_refstate-mantle.xmf,1371,-1.40867e-06,6.51375e-06,0,-9.53455e-07,-1.60882e+09,-1.60776e+09,-1.60863e+09,-127429,-0.0151233,0.0283002,-0,0.0320876,6405.15,-55764.2,0,56130.9,127429
step02_gravity_refstate-mantle.xmf,1372,-1.20737e-06,6.22595e-06,0,-7.90192e-07,-1.62719e+09,-1.62619e+09,-1.62703e+09,-105609,-0.0160833,0.0234107,-0,0.028403,7191.8,-56332.2,0,56789.4,105609
step02_gravity_refstate-mantle.xmf,1373,-7.0852e-07,5.57629e-06,0,-1.7582e-07,-1.7138e+09,-1.71296e+09,-1.7137e+09,-23498.4,-0.0182108,0.00555641,-0,0.0190396,9472.81,-59009.2,0,59764.7,23498.4
step02_gravity_refstate-mantle.xmf,1374,-5.54201e-07,5.3945e-06,0,1.48321e-09,-1.74585e+09,-1.74506e+09,-1.74578e+09,198.232,-0.0186477,-5.32337e-19,-0,0.0186477,10149.4,-60000,0,60852.4,198.232
step02_gravity_refstate-mantle.xmf,1375,-3.23161e-06,9.0831e-06,0,-4.68685e-07,-1.54341e+09,-1.54176e+09,-1.54298e+09,-62639.7,-0.00280043,0.0534441,-0,0.0535174,853.791,-53738.1,0,53744.9,62639.7
step02_gravity_refstate-mantle.xmf,1376,-2.15467e-06,7.53702e-06,0,6.29887e-07,-1.64712e+09,-1.64583e+09,-1.64683e+09,84184.4,0.0109368,0.0231376,0,0.0255922,-4194.26,-56945,-0,57099.3,84184.4
step02_gravity_refstate-mantle.xmf,1377,-2.904e-06,8.64178e-06,0,-1.00752e-06,-1.5457e+09,-1.54416e+09,-1.54532e+09,-134655,-0.00663737,0.0512707,-0,0.0516986,2105.46,-53810,0,53851.2,134655
step02_gravity_refstate-mantle.xmf,1378,-8.3725e-07,5.72983e-06,0,-3.27945e-07,-1.68906e+09,-1.68819e+09,-1.68895e+09,-43829.9,-0.017755,0.0101731,-0,0.020463,8892.54,-58244.7,0,58919.6,43829.9
step02_gravity_refstate-mantle.xmf,1379,-3.21703e-06,9.02497e-06,0,-1.36049e-07,-1.55705e+09,-1.55542e+09,-1.55662e+09,-18182.9,-0.000825756,0.0499004,-0,0.0499072,256.689,-54159.5,0,54160.1,18182.9
step02_gravity_refstate-mantle.xmf,1380,-3.13472e-06,8.88753e-06,0,1.69234e-07,-1.57095e+09,-1.56935e+09,-1.57054e+09,22618.1,0.00130414,0.046011,0,0.0460294,-415.683,-54589.1,-0,54590.7,22618.1
step02_gravity_refstate-mantle.xmf,1381,-2.37268e-06,7.82791e-06,0,6.7304e-07,-1.63069e+09,-1.62932e+09,-1.63037e+09,89951.8,0.00932295,0.0278846,0,0.0294018,-3432.64,-56436.5,-0,56540.8,89951.8
step02_gravity_refstate-mantle.xmf,1382,-2.58756e-06,8.11795e-06,0,6.60681e-07,-1.61538e+09,-1.61395e+09,-1.61503e+09,88300.1,0.00757534,0.0324999,0,0.0333711,-2682.15,-55963,-0,56027.2,88300.1
step02_gravity_refstate-mantle.xmf,1383,-2.7972e-06,8.40415e-06,0,5.81327e-07,-1.60031e+09,-1.59881e+09,-1.59993e+09,77694.3,0.00564704,0.0371356,0,0.0375625,-1924.77,-55496.8,-0,55530.2,77694.3
step02_gravity_refstate-mantle.xmf,1384,-2.98873e-06,8.67274e-06,0,4.15145e-07,-1.58549e+09,-1.58393e+09,-1.58509e+09,55484.1,0.00350283,0.0416946,0,0.0418415,-1151.84,-55038.5,-0,55050.5,55484.1
step02_gravity_refstate-mantle.xmf,1385,-1.96817e-06,7.31258e-06,0,3.27626e-07,-1.69578e+09,-1.69454e+09,-1.69552e+09,43787.3,0.0121839,0.0113966,0,0.0166832,-4905,-58448.8,-0,58654.2,43787.3
step02_gravity_refstate-mantle.xmf,1386,-2.18581e-06,7.59097e-06,0,4.16364e-07,-1.67808e+09,-1.67677e+09,-1.67779e+09,55647,0.0105518,0.0159991,0,0.0191654,-4088.28,-57901.1,-0,58045.3,55647
step02_gravity_refstate-mantle.xmf,1387,-1.82167e-06,7.18189e-06,0,1.03767e-10,-1.74598e+09,-1.74478e+09,-1.74574e+09,13.8685,0.0131618,-7.4591e-20,0,0.0131618,-5459.16,-60000,-0,60247.8,13.8685
step02_gravity_refstate-mantle.xmf,1388,-2.63896e-06,8.2523e-06,0,-1.09317e-06,-1.55981e+09,-1.55835e+09,-1.55945e+09,-146102,-0.0083566,0.0463938,-0,0.0471404,2785.58,-54246.4,0,54317.9,146102
step02_gravity_refstate-mantle.xmf,1389,-3.05716e-06,8.83726e-06,0,-6.96971e-07,-1.55317e+09,-1.55158e+09,-1.55277e+09,-93150.2,-0.00464801,0.0501562,-0,0.0503711,1461.97,-54040.2,0,54060,93150.2
step02_gravity_refstate-mantle.xmf,1390,-2.37213e-06,7.87065e-06,0,-1.11284e-06,-1.57421e+09,-1.57284e+09,-1.57389e+09,-148731,-0.00996593,0.0414815,-0,0.0426618,3494.76,-54692.1,0,54803.6,148731
step02_gravity_refstate-mantle.xmf,1391,-2.11821e-06,7.5103e-06,0,-1.07726e-06,-1.58876e+09,-1.58747e+09,-1.58848e+09,-143975,-0.0114451,0.0366584,-0,0.0384035,4221.87,-55142.4,0,55303.8,143975
step02_gravity_refstate-mantle.xmf,1392,-1.89853e-06,7.19862e-06,0,-9.88615e-07,-1.6047e+09,-1.60349e+09,-1.60445e+09,-132128,-0.0126839,0.0318028,-0,0.0342389,4909.26,-55635.5,0,55851.7,132128
step02_gravity_refstate-mantle.xmf,1393,-1.69392e-06,6.91146e-06,0,-8.62555e-07,-1.62277e+09,-1.62162e+09,-1.62254e+09,-115280,-0.013816,0.0267204,-0,0.0300809,5610.14,-56194.3,0,56473.6,115280
step02_gravity_refstate-mantle.xmf,1394,-1.04464e-06,6.01893e-06,0,-4.2942e-07,-1.67713e+09,-1.67619e+09,-1.67699e+09,-57392,-0.0169837,0.0129545,-0,0.0213604,8067.08,-57875.5,0,58435.1,57392
step02_gravity_refstate-mantle.xmf,1395,-1.27856e-06,6.3399e-06,0,-5.67949e-07,-1.66044e+09,-1.65942e+09,-1.66027e+09,-75906.3,-0.0159577,0.0169998,-0,0.0233161,7159.62,-57359.1,0,57804.2,75906.3
step02_gravity_refstate-mantle.xmf,1396,-1.49258e-06,6.63284e-06,0,-7.20216e-07,-1.6414e+09,-1.64031e+09,-1.6412e+09,-96256.8,-0.0148927,0.0217784,-0,0.0263835,6345.72,-56770.2,0,57123.8,96256.8
step02_gravity_refstate-mantle.xmf,1397,-1.03847e-06,6.05178e-06,0,-2.04497e-07,-1.71297e+09,-1.71202e+09,-1.71283e+09,-27331,-0.0171069,0.00618778,-0,0.0181916,8207.54,-58982.6,0,59550.9,27331
step02_gravity_refstate-mantle.xmf,1398,-8.55159e-07,5.83482e-06,0,1.99949e-09,-1.74588e+09,-1.74499e+09,-1.74577e+09,267.232,-0.0177897,-5.92668e-19,-0,0.0177897,8931.98,-60000,0,60661.2,267.232
step02_gravity_refstate-mantle.xmf,1399,-3.07571e-06,8.81574e-06,0,-4.31636e-07,-1.56976e+09,-1.56817e+09,-1.56935e+09,-57688.2,-0.00310471,0.0460556,-0,0.0461601,994.131,-54552.4,0,54561.4,57688.2
step02_gravity_refstate-mantle.xmf,1400,-2.37408e-06,7.83313e-06,0,4.84901e-07,-1.65924e+09,-1.65788e+09,-1.65892e+09,64807,0.00900093,0.0210388,0,0.0228833,-3368.83,-57318.6,-0,57417.5,64807
step02_gravity_refstate-mantle.xmf,1401,-1.97223e-06,7.35595e-06,0,1.43909e-07,-1.7242e+09,-1.72296e+09,-1.72394e+09,19233.4,0.0121219,0.00495966,0,0.0130973,-4903.48,-59326.8,-0,59529.1,19233.4
step02_gravity_refstate-mantle.xmf,1402,-2.88264e-06,8.55513e-06,0,-7.19591e-07,-1.57319e+09,-1.57166e+09,-1.57281e+09,-96173.3,-0.00572658,0.0442866,-0,0.0446553,1881.43,-54659,0,54691.4,96173.3
step02_gravity_refstate-mantle.xmf,1403,-3.01369e-06,8.69222e-06,0,1.13904e-07,-1.59812e+09,-1.59655e+09,-1.59771e+09,15223.2,0.00109335,0.0386453,0,0.0386608,-362.705,-55428.4,-0,55429.6,15223.2
step02_gravity_refstate-mantle.xmf,1404,-3.07606e-06,8.79242e-06,0,-1.41128e-07,-1.58357e+09,-1.58198e+09,-1.58315e+09,-18861.8,-0.00106105,0.0425817,-0,0.042595,344.783,-54978.8,0,54979.9,18861.8
step02_gravity_refstate-mantle.xmf,1405,-2.55689e-06,8.07063e-06,0,4.93128e-07,-1.64325e+09,-1.64183e+09,-1.64291e+09,65906.6,0.00733986,0.0255521,0,0.0265854,-2659.13,-56824.1,-0,56886.3,65906.6
step02_gravity_refstate-mantle.xmf,1406,-2.73809e-06,8.30979e-06,0,4.298e-07,-1.62908e+09,-1.6276e+09,-1.62872e+09,57442.8,0.00535092,0.0297448,0,0.0302223,-1878.28,-56385.8,-0,56417,57442.8
step02_gravity_refstate-mantle.xmf,1407,-2.89484e-06,8.52241e-06,0,3.10973e-07,-1.61345e+09,-1.61193e+09,-1.61306e+09,41561.6,0.00329446,0.0342834,0,0.0344414,-1122.23,-55902.5,-0,55913.7,41561.6
step02_gravity_refstate-mantle.xmf,1408,-2.40975e-06,7.89762e-06,0,3.06396e-07,-1.68755e+09,-1.68617e+09,-1.68723e+09,40949.9,0.00838758,0.0142972,0,0.0165759,-3161.47,-58193.1,-0,58278.9,40949.9
step02_gravity_refstate-mantle.xmf,1409,-2.23214e-06,7.68655e-06,0,1.91494e-07,-1.71335e+09,-1.71203e+09,-1.71306e+09,25593.2,0.0100522,0.00777101,0,0.0127057,-3909.65,-58990.7,-0,59120.2,25593.2
step02_gravity_refstate-mantle.xmf,1410,-2.1191e-06,7.57998e-06,0,1.2834e-09,-1.74601e+09,-1.74471e+09,-1.74573e+09,171.526,0.010969,-1.12238e-19,0,0.010969,-4346.66,-60000,-0,60157.2,171.526
step02_gravity_refstate-mantle.xmf,1411,-2.61961e-06,8.18357e-06,0,-8.53887e-07,-1.58777e+09,-1.58633e+09,-1.58742e+09,-114122,-0.00788299,0.0394114,-0,0.0401921,2713.8,-55110.2,0,55177,114122
step02_gravity_refstate-mantle.xmf,1412,-2.37859e-06,7.84928e-06,0,-8.7805e-07,-1.60241e+09,-1.60104e+09,-1.60209e+09,-117351,-0.00959659,0.034703,-0,0.0360054,3454.66,-55563.1,0,55670.3,117351
step02_gravity_refstate-mantle.xmf,1413,-2.15188e-06,7.53662e-06,0,-8.37332e-07,-1.61832e+09,-1.61703e+09,-1.61803e+09,-111909,-0.0110948,0.0298645,-0,0.0318588,4176.31,-56055.4,0,56210.7,111909
step02_gravity_refstate-mantle.xmf,1414,-1.95363e-06,7.26622e-06,0,-7.47588e-07,-1.63572e+09,-1.63449e+09,-1.63546e+09,-99915.2,-0.0123396,0.024974,-0,0.0278562,4843.75,-56593.4,0,56800.3,99915.2
step02_gravity_refstate-mantle.xmf,1415,-1.77256e-06,7.02433e-06,0,-6.29075e-07,-1.65435e+09,-1.65317e+09,-1.65411e+09,-84075.9,-0.013435,0.0200861,-0,0.0241651,5487.91,-57169.5,0,57432.3,84075.9
step02_gravity_refstate-mantle.xmf,1416,-1.31963e-06,6.4239e-06,0,-3.43897e-07,-1.694e+09,-1.69297e+09,-1.69383e+09,-45961.8,-0.0158857,0.0103865,-0,0.0189799,7155.54,-58395.8,0,58832.6,45961.8
step02_gravity_refstate-mantle.xmf,1417,-1.5694e-06,6.75681e-06,0,-4.7791e-07,-1.67601e+09,-1.6749e+09,-1.6758e+09,-63872.7,-0.0146019,0.0147381,-0,0.0207468,6237.38,-57839.3,0,58174.6,63872.7
step02_gravity_refstate-mantle.xmf,1418,-1.17351e-06,6.28833e-06,0,5.70717e-10,-1.74591e+09,-1.74492e+09,-1.74576e+09,76.2763,-0.0165878,-4.27901e-19,-0,0.0165878,7747.36,-60000,0,60498.1,76.2763
step02_gravity_refstate-mantle.xmf,1419,-2.94917e-06,8.61225e-06,0,-3.90226e-07,-1.59534e+09,-1.59379e+09,-1.59495e+09,-52153.7,-0.00345594,0.0390628,-0,0.0392153,1151.88,-55342.9,0,55354.8,52153.7
step02_gravity_refstate-mantle.xmf,1420,-2.52373e-06,8.04434e-06,0,3.67724e-07,-1.66874e+09,-1.66733e+09,-1.66841e+09,49146.2,0.00726425,0.0191963,0,0.0205248,-2677.17,-57611.7,-0,57673.9,49146.2
step02_gravity_refstate-mantle.xmf,1421,-2.78427e-06,8.38921e-06,0,-5.79136e-07,-1.60165e+09,-1.60015e+09,-1.60127e+09,-77401.6,-0.00571854,0.0367604,-0,0.0372025,1953.67,-55538.2,0,55572.5,77401.6
step02_gravity_refstate-mantle.xmf,1422,-1.33337e-06,6.47913e-06,0,-1.47231e-07,-1.72372e+09,-1.72268e+09,-1.72354e+09,-19677.4,-0.01587,0.00445783,-0,0.0164842,7169.29,-59313.9,0,59745.6,19677.4
step02_gravity_refstate-mantle.xmf,1423,-2.91441e-06,8.54193e-06,0,7.55809e-08,-1.62696e+09,-1.62543e+09,-1.62658e+09,10101.4,0.000944679,0.0309694,0,0.0309838,-324.276,-56319.8,-0,56320.8,10101.4
step02_gravity_refstate-mantle.xmf,1424,-2.9613e-06,8.61377e-06,0,-1.30509e-07,-1.61102e+09,-1.60947e+09,-1.61062e+09,-17442.5,-0.00124621,0.0351819,-0,0.035204,420.352,-55827.1,0,55828.7,17442.5
step02_gravity_refstate-mantle.xmf,1425,-2.69545e-06,8.25946e-06,0,2.8874e-07,-1.66105e+09,-1.65959e+09,-1.66069e+09,38590.2,0.00502745,0.0216082,0,0.0221853,-1808.12,-57373.5,-0,57401.9,38590.2
step02_gravity_refstate-mantle.xmf,1426,-2.82455e-06,8.42069e-06,0,2.22226e-07,-1.64144e+09,-1.63994e+09,-1.64106e+09,29700.5,0.00306255,0.0269782,0,0.0271515,-1072.49,-56767.3,-0,56777.4,29700.5
step02_gravity_refstate-mantle.xmf,1427,-2.59402e-06,8.14492e-06,0,2.21867e-07,-1.68975e+09,-1.68831e+09,-1.6894e+09,29652.6,0.00599792,0.0141727,0,0.0153896,-2208.94,-58260.4,-0,58302.2,29652.6
step02_gravity_refstate-mantle.xmf,1428,-2.49014e-06,8.03051e-06,0,1.35937e-07,-1.71624e+09,-1.71483e+09,-1.71591e+09,18168,0.00722839,0.00740519,0,0.0103483,-2715.58,-59079,-0,59141.4,18168
step02_gravity_refstate-mantle.xmf,1429,-2.37815e-06,7.9224e-06,0,1.86347e-09,-1.74604e+09,-1.74466e+09,-1.74572e+09,249.053,0.00850082,-1.07703e-19,0,0.00850082,-3249.15,-60000,-0,60087.9,249.053
step02_gravity_refstate-mantle.xmf,1430,-2.58e-06,8.10858e-06,0,-6.60452e-07,-1.61598e+09,-1.61455e+09,-1.61564e+09,-88269.4,-0.00762593,0.0323245,-0,0.0332118,2703.46,-55981.7,0,56046.9,88269.4
step02_gravity_refstate-mantle.xmf,1431,-2.37266e-06,7.82833e-06,0,-6.6469e-07,-1.63184e+09,-1.63048e+09,-1.63152e+09,-88835.8,-0.00930471,0.0276101,-0,0.0291358,3428.27,-56472.2,0,56576.2,88835.8
step02_gravity_refstate-mantle.xmf,1432,-2.17113e-06,7.56035e-06,0,-6.11707e-07,-1.64912e+09,-1.64782e+09,-1.64883e+09,-81754.6,-0.0107963,0.0227358,-0,0.0251689,4134.61,-57006.6,0,57156.3,81754.6
step02_gravity_refstate-mantle.xmf,1433,-2.00705e-06,7.34854e-06,0,-5.31869e-07,-1.6652e+09,-1.66395e+09,-1.66493e+09,-71084.3,-0.0119306,0.0184583,-0,0.0219784,4718.96,-57503.9,0,57697.2,71084.3
step02_gravity_refstate-mantle.xmf,1434,-1.86823e-06,7.1738e-06,0,-4.11657e-07,-1.68491e+09,-1.6837e+09,-1.68466e+09,-55018,-0.0128588,0.0136134,-0,0.0187263,5239.62,-58113.1,0,58348.9,55018
step02_gravity_refstate-mantle.xmf,1435,-1.63999e-06,6.89023e-06,0,-2.24367e-07,-1.713e+09,-1.71186e+09,-1.71278e+09,-29986.6,-0.0142689,0.00704055,-0,0.0159113,6083.35,-58981.7,0,59294.6,29986.6
step02_gravity_refstate-mantle.xmf,1436,-1.50096e-06,6.74363e-06,0,8.29963e-10,-1.74595e+09,-1.74484e+09,-1.74575e+09,110.925,-0.0150422,-6.77243e-19,-0,0.0150422,6591.22,-60000,0,60360.9,110.925
step02_gravity_refstate-mantle.xmf,1437,-2.85556e-06,8.47036e-06,0,-3.22448e-07,-1.6213e+09,-1.61979e+09,-1.62092e+09,-43095.1,-0.00354832,0.0321699,-0,0.032365,1221.03,-56145.1,0,56158.4,43095.1
step02_gravity_refstate-mantle.xmf,1438,-2.71022e-06,8.27645e-06,0,-4.40753e-07,-1.63131e+09,-1.62984e+09,-1.63094e+09,-58906.6,-0.00564528,0.0290933,-0,0.0296359,1990.6,-56454.6,0,56489.7,58906.6
step02_gravity_refstate-mantle.xmf,1439,-2.84336e-06,8.44678e-06,0,3.88762e-08,-1.65455e+09,-1.65304e+09,-1.65417e+09,5195.8,0.000685618,0.0237372,0,0.0237471,-241.254,-57172.1,-0,57172.6,5195.8
step02_gravity_refstate-mantle.xmf,1440,-2.87235e-06,8.48431e-06,0,-1.11921e-07,-1.63921e+09,-1.6377e+09,-1.63883e+09,-14958.3,-0.0013862,0.0277212,-0,0.0277558,481.98,-56698.3,0,56700.4,14958.3
step02_gravity_refstate-mantle.xmf,1441,-2.7828e-06,8.3798e-06,0,1.42986e-07,-1.66586e+09,-1.66436e+09,-1.66548e+09,19110.1,0.00258331,0.0206874,0,0.0208481,-920.199,-57521.7,-0,57529,19110.1
step02_gravity_refstate-mantle.xmf,1442,-2.72581e-06,8.31778e-06,0,1.30989e-07,-1.68947e+09,-1.68799e+09,-1.68911e+09,17506.7,0.0034111,0.0145293,0,0.0149244,-1235.99,-58251.3,-0,58264.4,17506.7
step02_gravity_refstate-mantle.xmf,1443,-2.65444e-06,8.24762e-06,0,8.54544e-08,-1.71714e+09,-1.71568e+09,-1.71679e+09,11421,0.00452622,0.00737623,0,0.00865422,-1665.51,-59106.4,-0,59129.8,11421
step02_gravity_refstate-mantle.xmf,1444,-2.5785e-06,8.18531e-06,0,2.38994e-09,-1.74606e+09,-1.74462e+09,-1.74572e+09,319.416,0.00580611,-1.04963e-19,0,0.00580611,-2161.95,-60000,-0,60038.9,319.416
step02_gravity_refstate-mantle.xmf,1445,-2.53973e-06,8.05003e-06,0,-4.91182e-07,-1.64516e+09,-1.64374e+09,-1.64482e+09,-65646.5,-0.00747474,0.0250301,-0,0.0261224,2716.31,-56883.1,0,56947.9,65646.5
step02_gravity_refstate-mantle.xmf,1446,-2.36623e-06,7.82423e-06,0,-4.76045e-07,-1.66115e+09,-1.65979e+09,-1.66083e+09,-63623.4,-0.00905208,0.0205561,-0,0.0224609,3394.5,-57377.6,0,57478,63623.4
step02_gravity_refstate-mantle.xmf,1447,-2.16622e-06,7.57078e-06,0,-3.88541e-07,-1.68322e+09,-1.68192e+09,-1.68294e+09,-51928.4,-0.0107023,0.0147403,-0,0.0182158,4166.77,-58060.2,0,58209.5,51928.4
step02_gravity_refstate-mantle.xmf,1448,-2.00709e-06,7.39133e-06,0,-1.88583e-07,-1.71686e+09,-1.7156e+09,-1.71659e+09,-25204.2,-0.011868,0.0066715,-0,0.0136146,4770.42,-59099.7,0,59291.9,25204.2
step02_gravity_refstate-mantle.xmf,1449,-1.82199e-06,7.18155e-06,0,-4.01858e-10,-1.74598e+09,-1.74478e+09,-1.74574e+09,-53.7083,-0.0131617,-6.41324e-19,-0,0.0131617,5459.16,-60000,0,60247.8,53.7083
step02_gravity_refstate-mantle.xmf,1450,-2.77778e-06,8.36194e-06,0,-2.476e-07,-1.65054e+09,-1.64905e+09,-1.65017e+09,-33091.8,-0.00363689,0.0245354,-0,0.0248035,1286.99,-57048.6,0,57063.1,33091.8
step02_gravity_refstate-mantle.xmf,1451,-2.64662e-06,8.19707e-06,0,-3.19726e-07,-1.66179e+09,-1.66034e+09,-1.66143e+09,-42731.4,-0.00568824,0.021295,-0,0.0220416,2056.86,-57396.4,0,57433.3,42731.4
step02_gravity_refstate-mantle.xmf,1452,-2.79212e-06,8.39401e-06,0,1.61831e-08,-1.68649e+09,-1.685e+09,-1.68612e+09,2162.86,0.000493378,0.0154329,0,0.0154408,-177.159,-58159.1,-0,58159.4,2162.86
step02_gravity_refstate-mantle.xmf,1453,-2.80487e-06,8.39943e-06,0,-9.56978e-08,-1.66754e+09,-1.66604e+09,-1.66717e+09,-12790,-0.00163826,0.0203153,-0,0.0203813,582.862,-57573.6,0,57576.6,12790
step02_gravity_refstate-mantle.xmf,1454,-2.74481e-06,8.36543e-06,0,3.03872e-08,-1.71717e+09,-1.71569e+09,-1.71681e+09,4061.25,0.00170142,0.00747434,0,0.00766555,-619.257,-59107,-0,59110.2,4061.25
step02_gravity_refstate-mantle.xmf,1455,-2.70527e-06,8.35044e-06,0,2.77813e-09,-1.74607e+09,-1.7446e+09,-1.74571e+09,371.297,0.00294752,-1.0429e-19,0,0.00294752,-1080.34,-60000,-0,60009.7,371.297
step02_gravity_refstate-mantle.xmf,1456,-2.51005e-06,8.02362e-06,0,-3.67431e-07,-1.66904e+09,-1.66763e+09,-1.6687e+09,-49107.2,-0.00738525,0.0190944,-0,0.0204728,2725.73,-57620.8,0,57685.3,49107.2
step02_gravity_refstate-mantle.xmf,1457,-2.40212e-06,7.88959e-06,0,-3.0386e-07,-1.68852e+09,-1.68714e+09,-1.6882e+09,-40611,-0.00846581,0.0140444,-0,0.0163986,3195.3,-58223,0,58310.6,40611
step02_gravity_refstate-mantle.xmf,1458,-2.26994e-06,7.7404e-06,0,-1.7067e-07,-1.71629e+09,-1.71496e+09,-1.71599e+09,-22810.1,-0.00966509,0.00712364,-0,0.0120067,3739.71,-59081.4,0,59199.7,22810.1
step02_gravity_refstate-mantle.xmf,1459,-2.12071e-06,7.58227e-06,0,-1.2368e-09,-1.74601e+09,-1.74471e+09,-1.74573e+09,-165.298,-0.0109694,-6.86545e-19,-0,0.0109694,4346.66,-60000,0,60157.2,165.298
step02_gravity_refstate-mantle.xmf,1460,-2.71514e-06,8.28941e-06,0,-1.84595e-07,-1.67905e+09,-1.67758e+09,-1.67869e+09,-24671.1,-0.00392433,0.0171562,-0,0.0175993,1417.88,-57929.4,0,57946.7,24671.1
step02_gravity_refstate-mantle.xmf,1461,-2.57943e-06,8.12632e-06,0,-2.31854e-07,-1.68851e+09,-1.68708e+09,-1.68817e+09,-30987.2,-0.0061772,0.0144572,-0,0.0157216,2276.82,-58222.3,0,58266.8,30987.2
step02_gravity_refstate-mantle.xmf,1462,-2.75284e-06,8.35627e-06,0,-7.80378e-08,-1.693e+09,-1.69151e+09,-1.69263e+09,-10429.8,-0.00210032,0.0137022,-0,0.0138623,759.068,-58360.1,0,58365.1,10429.8
step02_gravity_refstate-mantle.xmf,1463,-2.75175e-06,8.37688e-06,0,-2.53557e-08,-1.71781e+09,-1.71632e+09,-1.71744e+09,-3388.8,-0.00121977,0.0073183,-0,0.00741926,443.674,-59126.6,0,59128.3,3388.8
step02_gravity_refstate-mantle.xmf,1464,-2.74878e-06,8.40728e-06,0,2.45576e-09,-1.74608e+09,-1.74459e+09,-1.74571e+09,328.212,-1.93357e-07,-1.00297e-19,-0,1.93357e-07,-6.27115e-08,-60000,-0,60000,328.212
step02_gravity_refstate-mantle.xmf,1465,-2.48752e-06,8.02964e-06,0,-1.36336e-07,-1.71652e+09,-1.71511e+09,-1.71619e+09,-18221.3,-0.0072601,0.00733297,-0,0.010319,2728.53,-59087.6,0,59150.6,18221.3
step02_gravity_refstate-mantle.xmf,1466,-2.37837e-06,7.92309e-06,0,-1.92851e-09,-1.74604e+09,-1.74466e+09,-1.74572e+09,-257.745,-0.00850092,-7.08514e-19,-0,0.00850092,3249.15,-60000,0,60087.9,257.745
step02_gravity_refstate-mantle.xmf,1467,-2.66313e-06,8.26269e-06,0,-9.62843e-08,-1.71258e+09,-1.71112e+09,-1.71223e+09,-12868.4,-0.0042218,0.00855517,-0,0.00954015,1549.08,-58965.6,0,58985.9,12868.4
step02_gravity_refstate-mantle.xmf,1468,-2.70448e-06,8.34937e-06,0,3.21409e-09,-1.74607e+09,-1.7446e+09,-1.74571e+09,429.563,-0.00294844,-1.14854e-19,-0,0.00294844,1080.34,-60000,0,60009.7,429.563
step02_gravity_refstate-mantle.xmf,1469,-2.57907e-06,8.18577e-06,0,-3.58253e-09,-1.74606e+09,-1.74462e+09,-1.74572e+09,-478.806,-0.00580581,-8.28087e-19,-0,0.00580581,2161.95,-60000,0,60038.9,478.806
step02_gravity_refstate-intrusion.xmf,0,6.7004e-06,-5.57767e-06,0,5.63303e-06,-1.0979e+09,-1.09926e+09,-1.09864e+09,623823,-0.00895901,0.155085,-0,0.155343,-1000,-40000,-0,40012.5,623823
step02_gravity_refstate-intrusion.xmf,1,5.36149e-06,-3.9278e-06,0,8.03487e-06,-1.11422e+09,-1.11525e+09,-1.11482e+09,889813,-0.00677216,0.15746,-0,0.157605,-1000,-40500.4,-0,40512.7,889813
step02_gravity_refstate-intrusion.xmf,2,4.1986e-06,-2.37317e-06,0,9.44745e-06,-1.13051e+09,-1.13124e+09,-1.13098e+09,1.04625e+06,-0.00504519,0.159033,-0,0.159113,-1000,-41000.4,-0,41012.6,1.04625e+06
step02_gravity_refstate-intrusion.xmf,3,6.70629e-06,-5.58312e-06,0,-5.63361e-06,-1.0979e+09,-1.09926e+09,-1.09864e+09,-623888,0.00895927,0.155083,0,0.155342,1000,-40000,0,40012.5,623888
step02_gravity_refstate-intrusion.xmf,4,5.34919e-06,-3.91919e-06,0,-8.03182e-06,-1.11423e+09,-1.11525e+09,-1.11482e+09,-889476,0.00677217,0.157461,0,0.157606,1000,-40500.4,0,40512.7,889476
step02_gravity_refstate-intrusion.xmf,5,3.16098e-06,-9.37904e-07,0,1.02998e-05,-1.1468e+09,-1.14726e+09,-1.14715e+09,1.14064e+06,-0.00366911,0.159861,-0,0.159903,-1000,-41500.9,-0,41512.9,1.14064e+06
step02_gravity_refstate-intrusion.xmf,6,4.21099e-06,-2.37612e-06,0,-9.46183e-06,-1.13051e+09,-1.13124e+09,-1.13098e+09,-1.04784e+06,0.00504652,0.159032,0,0.159112,1000,-41000.4,0,41012.6,1.04784e+06
step02_gravity_refstate-intrusion.xmf,7,3.12614e-06,-9.20938e-07,0,-1.02925e-05,-1.14681e+09,-1.14725e+09,-1.14715e+09,-1.13983e+06,0.00366922,0.159863,0,0.159905,1000,-41500.9,0,41512.9,1.13983e+06
step02_gravity_refstate-intrusion.xmf,8,2.23269e-06,3.7866e-07,0,1.0821e-05,-1.16307e+09,-1.16327e+09,-1.16332e+09,1.19836e+06,-0.00253565,0.160002,-0,0.160022,-1000,-42001.1,-0,42013,1.19836e+06
step02_gravity_refstate-intrusion.xmf,9,2.22757e-06,3.76031e-07,0,-1.08232e-05,-1.16307e+09,-1.16328e+09,-1.16332e+09,-1.1986e+06,0.0025352,0.160001,0,0.160021,1000,-42001.1,0,42013,1.1986e+06
step02_gravity_refstate-intrusion.xmf,10,1.40139e-06,1.605e-06,0,1.11386e-05,-1.17931e+09,-1.17928e+09,-1.17946e+09,1.23353e+06,-0.00156788,0.159507,-0,0.159514,-1000,-42500.6,-0,42512.4,1.23353e+06
step02_gravity_refstate-intrusion.xmf,11,1.4035e-06,1.60422e-06,0,-1.11383e-05,-1.17931e+09,-1.17928e+09,-1.17946e+09,-1.23349e+06,0.00156792,0.159507,0,0.159514,1000,-42500.6,0,42512.4,1.23349e+06
step02_gravity_refstate-intrusion.xmf,12,6.42946e-07,2.76396e-06,0,1.1309e-05,-1.19552e+09,-1.19529e+09,-1.19559e+09,1.25241e+06,-0.000710592,0.158417,-0,0.158418,-1000,-42999.8,-0,43011.5,1.25241e+06
step02_gravity_refstate-intrusion.xmf,13,6.43808e-07,2.76434e-06,0,-1.13101e-05,-1.19552e+09,-1.19529e+09,-1.19559e+09,-1.25253e+06,0.000710842,0.158417,0,0.158418,1000,-42999.8,0,43011.5,1.25253e+06
step02_gravity_refstate-intrusion.xmf,14,-6.45186e-08,3.88617e-06,0,1.13718e-05,-1.21175e+09,-1.21131e+09,-1.21174e+09,1.25935e+06,7.56606e-05,0.156754,0,0.156754,-1000,-43499.6,-0,43511.1,1.25935e+06
step02_gravity_refstate-intrusion.xmf,15,-6.82823e-08,3.89104e-06,0,-1.13746e-05,-1.21175e+09,-1.21131e+09,-1.21174e+09,-1.25966e+06,-7.54054e-05,0.156754,-0,0.156754,1000,-43499.6,0,43511.1,1.25966e+06
step02_gravity_refstate-intrusion.xmf,16,-7.37314e-07,4.99564e-06,0,1.13437e-05,-1.22799e+09,-1.22736e+09,-1.22791e+09,1.25625e+06,0.000820583,0.154531,0,0.154533,-1000,-44000,-0,44011.4,1.25625e+06
step02_gravity_refstate-intrusion.xmf,17,-7.39639e-07,4.99649e-06,0,-1.1343e-05,-1.22799e+09,-1.22736e+09,-1.22791e+09,-1.25616e+06,-0.000820636,0.154531,-0,0.154534,1000,-44000,0,44011.4,1.25616e+06
step02_gravity_refstate-intrusion.xmf,18,-1.38382e-06,6.11045e-06,0,1.12306e-05,-1.24423e+09,-1.2434e+09,-1.24408e+09,1.24372e+06,0.00154625,0.151752,0,0.151759,-1000,-44500.4,-0,44511.6,1.24372e+06
step02_gravity_refstate-intrusion.xmf,19,-1.38406e-06,6.11026e-06,0,-1.12312e-05,-1.24423e+09,-1.2434e+09,-1.24408e+09,-1.24379e+06,-0.00154637,0.151752,-0,0.151759,1000,-44500.4,0,44511.6,1.24379e+06
step02_gravity_refstate-intrusion.xmf,20,-2.01534e-06,7.24733e-06,0,1.102e-05,-1.26044e+09,-1.25942e+09,-1.26022e+09,1.2204e+06,0.00227113,0.148413,0,0.148431,-1000,-45000.2,-0,45011.3,1.2204e+06
step02_gravity_refstate-intrusion.xmf,21,-2.01383e-06,7.24809e-06,0,-1.10212e-05,-1.26044e+09,-1.25942e+09,-1.26022e+09,-1.22053e+06,-0.00227101,0.148413,-0,0.14843,1000,-45000.2,0,45011.3,1.22053e+06
step02_gravity_refstate-intrusion.xmf,22,-2.63026e-06,8.42251e-06,0,1.06894e-05,-1.27663e+09,-1.27541e+09,-1.27634e+09,1.18379e+06,0.0030118,0.144502,0,0.144533,-1000,-45499.4,-0,45510.4,1.18379e+06
step02_gravity_refstate-intrusion.xmf,23,-2.63051e-06,8.42269e-06,0,-1.06912e-05,-1.27663e+09,-1.27541e+09,-1.27634e+09,-1.18399e+06,-0.00301159,0.144502,-0,0.144533,1000,-45499.4,0,45510.4,1.18399e+06
step02_gravity_refstate-intrusion.xmf,24,-3.21248e-06,9.65734e-06,0,1.02364e-05,-1.29282e+09,-1.2914e+09,-1.29247e+09,1.13362e+06,0.00378069,0.139987,0,0.140038,-1000,-45998.9,-0,46009.8,1.13362e+06
step02_gravity_refstate-intrusion.xmf,25,-3.21964e-06,9.64565e-06,0,-1.02117e-05,-1.29283e+09,-1.2914e+09,-1.29247e+09,-1.13088e+06,-0.00378127,0.139988,-0,0.140039,1000,-45998.9,0,46009.8,1.13088e+06
step02_gravity_refstate-intrusion.xmf,26,-3.76449e-06,1.09232e-05,0,9.5259e-06,-1.30903e+09,-1.3074e+09,-1.30861e+09,1.05494e+06,0.00458291,0.134844,0,0.134922,-1000,-46499.1,-0,46509.9,1.05494e+06
step02_gravity_refstate-intrusion.xmf,27,-3.75994e-06,1.09201e-05,0,-9.52725e-06,-1.30903e+09,-1.3074e+09,-1.30861e+09,-1.05509e+06,-0.00458246,0.134842,-0,0.13492,1000,-46499.1,0,46509.9,1.05509e+06
step02_gravity_refstate-intrusion.xmf,28,-4.18678e-06,1.22304e-05,0,8.6024e-06,-1.32522e+09,-1.3234e+09,-1.32475e+09,952663,0.00538639,0.129047,0,0.129159,-1000,-46999.6,-0,47010.3,952663
step02_gravity_refstate-intrusion.xmf,29,-4.1891e-06,1.22267e-05,0,-8.58771e-06,-1.32522e+09,-1.3234e+09,-1.32475e+09,-951036,-0.0053854,0.129047,-0,0.12916,1000,-46999.6,0,47010.3,951036
step02_gravity_refstate-intrusion.xmf,30,-4.51962e-06,1.34822e-05,0,7.23277e-06,-1.34137e+09,-1.33938e+09,-1.34087e+09,800986,0.00607142,0.122617,0,0.122767,-1000,-47499.6,-0,47510.1,800986
step02_gravity_refstate-intrusion.xmf,31,-4.51962e-06,1.34783e-05,0,-7.2254e-06,-1.34137e+09,-1.33938e+09,-1.34087e+09,-800169,-0.00607167,0.122616,-0,0.122766,1000,-47499.6,0,47510.1,800169
step02_gravity_refstate-intrusion.xmf,32,-5.2673e-06,1.59978e-05,0,5.47546e-06,-1.35753e+09,-1.35518e+09,-1.35695e+09,606373,0.006154,0.115616,0,0.11578,-1000,-48000,-0,48010.4,606373
step02_gravity_refstate-intrusion.xmf,33,-5.17083e-06,1.59796e-05,0,-5.43565e-06,-1.35751e+09,-1.35517e+09,-1.35694e+09,-601965,-0.00614641,0.115621,-0,0.115784,1000,-48000,0,48010.4,601965
step02_gravity_refstate-intrusion.xmf,34,-6.36225e-06,1.91624e-05,0,-3.04253e-06,-1.35751e+09,-1.35468e+09,-1.3568e+09,-336942,-0.00325093,0.119327,-0,0.119372,499.828,-48000,0,48002.6,336942
step02_gravity_refstate-intrusion.xmf,35,-6.64351e-06,1.99817e-05,0,-7.19204e-08,-1.3575e+09,-1.35455e+09,-1.35676e+09,-7964.74,-6.11677e-07,0.120647,-0,0.120647,1.02887e-10,-48000,0,48000,7964.74
step02_gravity_refstate-intrusion.xmf,36,-6.34269e-06,1.92488e-05,0,3.29e-06,-1.3575e+09,-1.35466e+09,-1.35679e+09,364348,0.00325051,0.119327,0,0.119371,-499.828,-48000,-0,48002.6,364348
step02_gravity_refstate-intrusion.xmf,37,9.26958e-06,-9.48953e-06,0,2.75593e-06,-1.09771e+09,-1.09979e+09,-1.09874e+09,305203,-0.00481884,0.160857,-0,0.160929,-499.828,-40000,-0,40003.1,305203
step02_gravity_refstate-intrusion.xmf,38,9.80596e-06,-1.02192e-05,0,3.33037e-09,-1.09766e+09,-1.09988e+09,-1.09875e+09,368.819,4.13925e-07,0.162839,0,0.162839,-1.02887e-10,-40000,-0,40000,368.819
step02_gravity_refstate-intrusion.xmf,39,9.26415e-06,-9.47965e-06,0,-2.75379e-06,-1.09771e+09,-1.09979e+09,-1.09874e+09,-304965,0.00482141,0.160858,0,0.16093,499.828,-40000,0,40003.1,304965
step02_gravity_refstate-intrusion.xmf,40,7.18659e-06,-6.42066e-06,0,4.45336e-06,-1.10964e+09,-1.11115e+09,-1.11043e+09,493182,-0.00495754,0.162411,-0,0.162486,-636.528,-40363.5,-0,40368.6,493182
step02_gravity_refstate-intrusion.xmf,41,7.76066e-06,-7.2637e-06,0,1.64946e-06,-1.111e+09,-1.11266e+09,-1.11186e+09,182667,-0.0018955,0.165865,-0,0.165876,-241.272,-40406.9,-0,40407.6,182667
step02_gravity_refstate-intrusion.xmf,42,7.75632e-06,-7.26078e-06,0,-1.69459e-06,-1.11096e+09,-1.11262e+09,-1.11182e+09,-187665,0.00195117,0.165827,0,0.165838,248.271,-40405.7,0,40406.4,187665
step02_gravity_refstate-intrusion.xmf,43,7.23685e-06,-6.44227e-06,0,-4.34921e-06,-1.10964e+09,-1.11115e+09,-1.11044e+09,-481649,0.00495616,0.162412,0,0.162487,636.385,-40363.7,0,40368.7,481649
step02_gravity_refstate-intrusion.xmf,44,5.95717e-06,-4.59879e-06,0,4.71999e-06,-1.12226e+09,-1.12343e+09,-1.12292e+09,522710,-0.00355425,0.165347,-0,0.165385,-567.006,-40750.4,-0,40754.3,522710
step02_gravity_refstate-intrusion.xmf,45,5.90271e-06,-4.52066e-06,0,-5.0118e-06,-1.12226e+09,-1.12342e+09,-1.12291e+09,-555026,0.00374217,0.164965,0,0.165008,599.413,-40750.4,0,40754.8,555026
step02_gravity_refstate-intrusion.xmf,46,5.82169e-06,-4.47395e-06,0,1.39003e-07,-1.12754e+09,-1.12868e+09,-1.12818e+09,15393.7,-2.8277e-05,0.169381,-0,0.169381,-4.72709,-40913.1,-0,40913.1,15393.7
step02_gravity_refstate-intrusion.xmf,47,4.17827e-06,-2.31629e-06,0,-5.03588e-06,-1.14086e+09,-1.14158e+09,-1.14133e+09,-557693,0.00227888,0.167865,0,0.16788,518.069,-41320.2,0,41323.5,557693
step02_gravity_refstate-intrusion.xmf,48,4.42412e-06,-2.53483e-06,0,5.04433e-06,-1.13842e+09,-1.13919e+09,-1.13891e+09,558629,-0.00244129,0.167562,-0,0.16758,-528.703,-41245.6,-0,41249,558629
step02_gravity_refstate-intrusion.xmf,49,3.9213e-06,-1.85951e-06,0,6.72107e-07,-1.14704e+09,-1.14768e+09,-1.14747e+09,74431.8,-0.000256,0.171226,-0,0.171226,-65.4055,-41510.4,-0,41510.4,74431.8
step02_gravity_refstate-intrusion.xmf,50,2.92911e-06,-6.16857e-07,0,-7.27893e-06,-1.1551e+09,-1.15549e+09,-1.15542e+09,-806098,0.00221323,0.166017,0,0.166032,696.855,-41756.6,0,41762.4,806098
step02_gravity_refstate-intrusion.xmf,51,3.08904e-06,-7.25725e-07,0,5.61326e-06,-1.15535e+09,-1.15578e+09,-1.1557e+09,621634,-0.00173046,0.168278,-0,0.168287,-539.5,-41765.1,-0,41768.6,621634
step02_gravity_refstate-intrusion.xmf,52,3.17418e-06,-8.66697e-07,0,-3.30785e-06,-1.15571e+09,-1.15616e+09,-1.15607e+09,-366324,0.00103561,0.170464,0,0.170468,320.241,-41776.4,0,41777.7,366324
step02_gravity_refstate-intrusion.xmf,53,2.55098e-06,7.10447e-08,0,7.99577e-07,-1.16571e+09,-1.16598e+09,-1.16599e+09,88548.3,-0.000183334,0.17172,-0,0.17172,-72.7117,-42083.6,-0,42083.7,88548.3
step02_gravity_refstate-intrusion.xmf,54,2.12542e-06,6.09296e-07,0,-5.69169e-06,-1.16988e+09,-1.17005e+09,-1.17012e+09,-630320,0.00115962,0.168497,0,0.168501,524.397,-42211.4,0,42214.6,630320
step02_gravity_refstate-intrusion.xmf,55,2.03035e-06,7.43975e-07,0,6.16826e-06,-1.17117e+09,-1.17131e+09,-1.17139e+09,683097,-0.00120544,0.167912,-0,0.167917,-567.563,-42250.8,-0,42254.7,683097
step02_gravity_refstate-intrusion.xmf,56,1.60823e-06,1.36586e-06,0,2.96659e-06,-1.17975e+09,-1.17978e+09,-1.17993e+09,328532,-0.000438818,0.170605,-0,0.170605,-269.91,-42515,-0,42515.9,328532
step02_gravity_refstate-intrusion.xmf,57,1.49273e-06,1.56712e-06,0,-1.49237e-06,-1.18221e+09,-1.1822e+09,-1.18238e+09,-165271,0.00020107,0.171145,0,0.171145,135.735,-42590.9,0,42591.1,165271
step02_gravity_refstate-intrusion.xmf,58,1.09587e-06,2.12143e-06,0,-6.40646e-06,-1.18804e+09,-1.18792e+09,-1.18816e+09,-709477,0.000653386,0.167079,0,0.16708,574.294,-42769.8,0,42773.6,709477
step02_gravity_refstate-intrusion.xmf,59,1.12981e-06,2.07171e-06,0,6.66524e-06,-1.1874e+09,-1.1873e+09,-1.18753e+09,738135,-0.000699695,0.16679,-0,0.166792,-597.611,-42750.2,-0,42754.4,738135
step02_gravity_refstate-intrusion.xmf,60,7.91021e-07,2.58334e-06,0,1.92211e-06,-1.19456e+09,-1.19436e+09,-1.19465e+09,212862,-0.000137788,0.170224,-0,0.170224,-171.899,-42970.5,-0,42970.8,212862
step02_gravity_refstate-intrusion.xmf,61,7.16554e-07,2.69383e-06,0,-2.4462e-06,-1.19589e+09,-1.19567e+09,-1.19597e+09,-270902,0.000159299,0.169898,0,0.169898,218.311,-43011.6,0,43012.1,270902
step02_gravity_refstate-intrusion.xmf,62,2.02459e-07,3.47308e-06,0,-6.12112e-06,-1.20576e+09,-1.20539e+09,-1.20578e+09,-677877,0.000118392,0.165992,0,0.165992,541.809,-43315.1,0,43318.5,677877
step02_gravity_refstate-intrusion.xmf,63,3.4557e-07,3.26568e-06,0,6.26435e-06,-1.20304e+09,-1.20272e+09,-1.20308e+09,693739,-0.000196663,0.166089,-0,0.166089,-555.758,-43231.5,-0,43235.1,693739
step02_gravity_refstate-intrusion.xmf,64,2.93554e-08,3.75778e-06,0,3.73483e-07,-1.2095e+09,-1.20909e+09,-1.2095e+09,41361,-1.2328e-06,0.169109,-0,0.169109,-33.2343,-43430.3,-0,43430.3,41361
step02_gravity_refstate-intrusion.xmf,65,-4.51473e-07,4.50209e-06,0,-8.0447e-06,-1.21989e+09,-1.21934e+09,-1.21984e+09,-890902,-0.000328135,0.16171,-0,0.16171,710.069,-43750.3,0,43756,890902
step02_gravity_refstate-intrusion.xmf,66,-4.36802e-07,4.49606e-06,0,6.00314e-06,-1.21951e+09,-1.21896e+09,-1.21946e+09,664811,0.000238609,0.164436,0,0.164436,-531.803,-43738.5,-0,43741.7,664811
step02_gravity_refstate-intrusion.xmf,67,-4.50742e-07,4.51672e-06,0,-3.77603e-06,-1.21951e+09,-1.21896e+09,-1.21946e+09,-418172,-0.00015156,0.166494,-0,0.166494,334.985,-43738.4,0,43739.6,418172
step02_gravity_refstate-intrusion.xmf,68,-8.62844e-07,5.17129e-06,0,7.27434e-07,-1.22791e+09,-1.22725e+09,-1.22782e+09,80558.9,5.58316e-05,0.166541,0,0.166541,-65.5242,-43997.2,-0,43997.3,80558.9
step02_gravity_refstate-intrusion.xmf,69,-1.12145e-06,5.61275e-06,0,-5.84821e-06,-1.23446e+09,-1.23372e+09,-1.23434e+09,-647653,-0.000600406,0.162236,-0,0.162237,521.805,-44199,0,44202.1,647653
step02_gravity_refstate-intrusion.xmf,70,-1.20842e-06,5.75694e-06,0,5.93684e-06,-1.2364e+09,-1.23563e+09,-1.23627e+09,657469,0.000657451,0.161791,0,0.161792,-530.208,-44258.7,-0,44261.9,657469
step02_gravity_refstate-intrusion.xmf,71,-1.74097e-06,6.63996e-06,0,1.79019e-07,-1.24648e+09,-1.24555e+09,-1.24629e+09,19825.3,2.79158e-05,0.163217,0,0.163217,-16.0856,-44569.1,-0,44569.1,19825.3
step02_gravity_refstate-intrusion.xmf,72,-1.90463e-06,6.956e-06,0,-6.25863e-06,-1.25235e+09,-1.25137e+09,-1.25214e+09,-693105,-0.00112182,0.158179,-0,0.158183,567.503,-44750.3,0,44753.9,693105
step02_gravity_refstate-intrusion.xmf,73,-1.90517e-06,6.95568e-06,0,6.25872e-06,-1.25236e+09,-1.25137e+09,-1.25214e+09,693115,0.00112176,0.15818,0,0.158184,-567.424,-44750.3,-0,44753.9,693115
step02_gravity_refstate-intrusion.xmf,74,-2.39522e-06,7.75368e-06,0,2.41997e-06,-1.26047e+09,-1.25934e+09,-1.2602e+09,267996,0.000530506,0.159547,0,0.159548,-221.941,-44999.9,-0,45000.4,267996
step02_gravity_refstate-intrusion.xmf,75,-2.44083e-06,7.84475e-06,0,-1.96522e-06,-1.26141e+09,-1.26027e+09,-1.26114e+09,-217636,-0.000446201,0.159504,-0,0.159505,182.909,-45028.9,0,45029.3,217636
step02_gravity_refstate-intrusion.xmf,76,-2.61898e-06,8.23053e-06,0,-6.42691e-06,-1.26862e+09,-1.26742e+09,-1.26833e+09,-711741,-0.00164308,0.153944,-0,0.153953,599.047,-45251.4,0,45255.4,711741
step02_gravity_refstate-intrusion.xmf,77,-2.62401e-06,8.21495e-06,0,6.17736e-06,-1.26828e+09,-1.26708e+09,-1.26799e+09,684105,0.00157488,0.154334,0,0.154342,-576.664,-45241.1,-0,45244.7,684105
step02_gravity_refstate-intrusion.xmf,78,-3.06804e-06,8.94357e-06,0,1.41426e-06,-1.27378e+09,-1.27245e+09,-1.27344e+09,156621,0.000403366,0.156492,0,0.156493,-132.443,-45410,-0,45410.2,156621
step02_gravity_refstate-intrusion.xmf,79,-3.15395e-06,9.12079e-06,0,-2.85678e-06,-1.27621e+09,-1.27485e+09,-1.27586e+09,-316371,-0.000860565,0.155177,-0,0.15518,271.889,-45484.9,0,45485.7,316371
step02_gravity_refstate-intrusion.xmf,80,-3.40064e-06,9.65259e-06,0,-5.79711e-06,-1.28477e+09,-1.28333e+09,-1.2844e+09,-641994,-0.0020175,0.149914,-0,0.149927,567.563,-45749.2,0,45752.7,641994
step02_gravity_refstate-intrusion.xmf,81,-3.53396e-06,9.8219e-06,0,5.31358e-06,-1.2861e+09,-1.28462e+09,-1.28571e+09,588447,0.00190501,0.150043,0,0.150055,-524.118,-45789.7,-0,45792.7,588447
step02_gravity_refstate-intrusion.xmf,82,-3.95575e-06,1.0517e-05,0,-7.75421e-07,-1.29023e+09,-1.28862e+09,-1.28979e+09,-85873.2,-0.000286153,0.151704,-0,0.151704,72.9854,-45916.4,0,45916.5,85873.2
step02_gravity_refstate-intrusion.xmf,83,-4.21485e-06,1.12079e-05,0,-5.1222e-06,-1.30053e+09,-1.29883e+09,-1.30007e+09,-567252,-0.00237838,0.145183,-0,0.145203,539.5,-46234.9,0,46238,567252
step02_gravity_refstate-intrusion.xmf,84,-4.02593e-06,1.0979e-05,0,6.7788e-06,-1.30079e+09,-1.29913e+09,-1.30035e+09,750711,0.00302729,0.143039,0,0.143071,-696.855,-46243.4,-0,46248.6,750711
step02_gravity_refstate-intrusion.xmf,85,-4.40931e-06,1.1504e-05,0,3.03112e-06,-1.30019e+09,-1.29843e+09,-1.2997e+09,335679,0.00143119,0.147283,0,0.147289,-320.13,-46223.8,-0,46224.9,335679
step02_gravity_refstate-intrusion.xmf,86,-5.02319e-06,1.28827e-05,0,4.39938e-06,-1.31497e+09,-1.31298e+09,-1.31441e+09,487205,0.00271717,0.140062,0,0.140088,-518.069,-46679.8,-0,46682.7,487205
step02_gravity_refstate-intrusion.xmf,87,-5.06989e-06,1.2667e-05,0,-6.55759e-07,-1.30883e+09,-1.30687e+09,-1.30827e+09,-72621.3,-0.000325006,0.145087,-0,0.145087,65.4055,-46489.6,0,46489.7,72621.3
step02_gravity_refstate-intrusion.xmf,88,-5.14329e-06,1.31368e-05,0,-4.40994e-06,-1.31738e+09,-1.31536e+09,-1.31682e+09,-488374,-0.00284474,0.138989,-0,0.139018,528.703,-46754.4,0,46757.4,488374
step02_gravity_refstate-intrusion.xmf,89,-6.38061e-06,1.54861e-05,0,-2.50817e-08,-1.32821e+09,-1.32579e+09,-1.3275e+09,-2777.65,-3.02233e-05,0.136775,-0,0.136775,4.72709,-47086.9,0,47086.9,2777.65
step02_gravity_refstate-intrusion.xmf,90,-5.92025e-06,1.5123e-05,0,-4.02319e-06,-1.33342e+09,-1.33109e+09,-1.33276e+09,-445543,-0.0035367,0.13164,-0,0.131687,567.006,-47249.6,0,47253,445543
step02_gravity_refstate-intrusion.xmf,91,-5.76995e-06,1.49464e-05,0,4.37827e-06,-1.3334e+09,-1.33111e+09,-1.33276e+09,484867,0.00372239,0.131334,0,0.131386,-599.413,-47249.6,-0,47253.4,484867
step02_gravity_refstate-intrusion.xmf,92,-7.04945e-06,1.7885e-05,0,1.56231e-06,-1.34459e+09,-1.34183e+09,-1.34381e+09,173016,0.0016938,0.127919,0,0.12793,-248.271,-47594.3,-0,47595,173016
step02_gravity_refstate-intrusion.xmf,93,-7.05219e-06,1.78872e-05,0,-1.52336e-06,-1.34455e+09,-1.34179e+09,-1.34377e+09,-168702,-0.00164689,0.127962,-0,0.127973,241.272,-47593.1,0,47593.8,168702
step02_gravity_refstate-intrusion.xmf,94,-6.44142e-06,1.68076e-05,0,-4.18446e-06,-1.34592e+09,-1.34334e+09,-1.3452e+09,-463403,-0.00421789,0.124895,-0,0.124966,636.528,-47636.5,0,47640.7,463403
step02_gravity_refstate-intrusion.xmf,95,-6.41859e-06,1.67917e-05,0,4.17157e-06,-1.34591e+09,-1.34334e+09,-1.3452e+09,461976,0.00421788,0.124898,0,0.124969,-636.385,-47636.3,-0,47640.6,461976
step02_gravity_refstate-crust.xmf,0,7.18496e-06,-8.97875e-06,0,8.70502e-06,-1.0983e+09,-1.09941e+09,-1.0988e+09,597164,-0.00895901,0.155085,-0,0.155343,-1000,-40000,-0,40012.5,597164
step02_gravity_refstate-crust.xmf,1,3.24902e-06,-3.98275e-06,0,7.719e-06,-1.09853e+09,-1.09902e+09,-1.09875e+09,529524,-0.011265,0.147966,-0,0.148394,-1513.8,-40000,-0,40028.6,529524
step02_gravity_refstate-crust.xmf,2,1.87202e-06,-1.62822e-06,0,6.98457e-06,-1.09858e+09,-1.09882e+09,-1.09871e+09,479141,-0.0126414,0.140811,-0,0.141377,-2053.41,-40000,-0,40052.7,479141
step02_gravity_refstate-crust.xmf,3,9.25256e-07,2.79405e-08,0,6.29565e-06,-1.09862e+09,-1.09868e+09,-1.09868e+09,431881,-0.0134285,0.13383,-0,0.134502,-2618.77,-40000,-0,40085.6,431881
step02_gravity_refstate-crust.xmf,4,1.41151e-07,3.81391e-06,0,-1.35478e-09,-1.09854e+09,-1.09829e+09,-1.09855e+09,-92.9377,2.02129e-20,0.0443801,0,0.0443801,-40000,-40000,-0,56568.5,92.9377
step02_gravity_refstate-crust.xmf,5,1.33473e-07,3.82409e-06,0,-1.24141e-08,-1.09854e+09,-1.09829e+09,-1.09855e+09,-851.604,0.000326077,0.0444762,0,0.0444774,-37629,-40000,-0,54917.6,851.604
step02_gravity_refstate-crust.xmf,6,5.70214e-06,-7.65776e-06,0,-8.18108e-06,-1.09841e+09,-1.09933e+09,-1.0988e+09,-561222,0.00895927,0.155083,0,0.155342,1000,-40000,0,40012.5,561222
step02_gravity_refstate-crust.xmf,7,3.22928e-06,-3.90535e-06,0,-7.72163e-06,-1.09853e+09,-1.09902e+09,-1.09875e+09,-529704,0.0112677,0.147966,0,0.148394,1513.8,-40000,0,40028.6,529704
step02_gravity_refstate-crust.xmf,8,2.47423e-07,1.25624e-06,0,5.63517e-06,-1.09864e+09,-1.09857e+09,-1.09866e+09,386573,-0.0137728,0.127066,-0,0.127811,-3211.88,-40000,-0,40128.7,386573
step02_gravity_refstate-crust.xmf,9,1.13562e-07,3.84838e-06,0,-2.0828e-08,-1.09854e+09,-1.09829e+09,-1.09855e+09,-1428.8,0.000605016,0.0447518,0,0.0447559,-35372.8,-40000,-0,53396.9,1428.8
step02_gravity_refstate-crust.xmf,10,8.20087e-08,3.88564e-06,0,-2.52124e-08,-1.09855e+09,-1.09828e+09,-1.09855e+09,-1729.57,0.000815546,0.0451952,0,0.0452026,-33225.7,-40000,-0,51999.5,1729.57
step02_gravity_refstate-crust.xmf,11,-2.46166e-07,2.21123e-06,0,5.01922e-06,-1.09865e+09,-1.09848e+09,-1.09864e+09,344318,-0.0137732,0.120551,-0,0.121336,-3834.57,-40000,-0,40183.4,344318
step02_gravity_refstate-crust.xmf,12,-5.88547e-07,2.90836e-06,0,4.4188e-06,-1.09866e+09,-1.09842e+09,-1.09862e+09,303130,-0.0134967,0.114308,-0,0.115102,-4488.57,-40000,-0,40251.1,303130
step02_gravity_refstate-crust.xmf,13,4.0689e-08,3.93385e-06,0,-2.38717e-08,-1.09855e+09,-1.09828e+09,-1.09855e+09,-1637.6,0.000941479,0.0458027,0,0.0458123,-31182.5,-40000,-0,50718.3,1637.6
step02_gravity_refstate-crust.xmf,14,-9.28088e-09,3.99106e-06,0,-1.55031e-08,-1.09855e+09,-1.09828e+09,-1.09855e+09,-1063.51,0.000972538,0.0465756,0,0.0465857,-29238.1,-40000,-0,49546.6,1063.51
step02_gravity_refstate-crust.xmf,15,1.86406e-06,-1.59407e-06,0,-6.98543e-06,-1.09858e+09,-1.09882e+09,-1.09871e+09,-479201,0.0126425,0.140811,0,0.141378,2053.41,-40000,0,40052.7,479201
step02_gravity_refstate-crust.xmf,16,-6.70224e-08,4.05523e-06,0,1.3801e-09,-1.09855e+09,-1.09827e+09,-1.09855e+09,94.6749,0.000902655,0.0475186,0,0.0475271,-27387.8,-40000,-0,48477.7,94.6749
step02_gravity_refstate-crust.xmf,17,9.26066e-07,2.69018e-08,0,-6.29302e-06,-1.09862e+09,-1.09868e+09,-1.09868e+09,-431701,0.0134285,0.13383,0,0.134502,2618.77,-40000,0,40085.6,431701
step02_gravity_refstate-crust.xmf,18,-8.29147e-07,3.45162e-06,0,3.87405e-06,-1.09867e+09,-1.09837e+09,-1.09861e+09,265760,-0.013008,0.108353,-0,0.109131,-5175.58,-40000,-0,40333.4,265760
step02_gravity_refstate-crust.xmf,19,-9.81513e-07,3.85882e-06,0,3.37438e-06,-1.09866e+09,-1.09833e+09,-1.0986e+09,231482,-0.0123521,0.102697,-0,0.103438,-5897.33,-40000,-0,40432.4,231482
step02_gravity_refstate-crust.xmf,20,-1.07657e-06,4.18224e-06,0,2.92071e-06,-1.09866e+09,-1.0983e+09,-1.09859e+09,200361,-0.0115718,0.0973447,-0,0.0980301,-6655.64,-40000,-0,40549.9,200361
step02_gravity_refstate-crust.xmf,21,-1.11056e-06,4.37856e-06,0,2.51524e-06,-1.09866e+09,-1.09828e+09,-1.09858e+09,172545,-0.0107006,0.0922956,-0,0.0929138,-7452.39,-40000,-0,40688.3,172545
step02_gravity_refstate-crust.xmf,22,-1.31317e-07,4.12509e-06,0,2.74738e-08,-1.09856e+09,-1.09827e+09,-1.09855e+09,1884.7,0.000728949,0.0486386,0,0.0486441,-25627,-40000,-0,47505.2,1884.7
step02_gravity_refstate-crust.xmf,23,-2.00863e-07,4.19846e-06,0,6.41418e-08,-1.09856e+09,-1.09826e+09,-1.09855e+09,4400.13,0.000451397,0.0499439,0,0.0499459,-23951.4,-40000,-0,46622.6,4400.13
step02_gravity_refstate-crust.xmf,24,-2.75347e-07,4.27401e-06,0,1.12363e-07,-1.09857e+09,-1.09826e+09,-1.09855e+09,7708.11,7.27387e-05,0.0514429,0,0.0514429,-22356.9,-40000,-0,45823.9,7708.11
step02_gravity_refstate-crust.xmf,25,1.4115e-07,3.81392e-06,0,1.36172e-09,-1.09854e+09,-1.09829e+09,-1.09855e+09,93.4139,-6.4882e-21,0.0443801,-0,0.0443801,40000,-40000,0,56568.5,93.4139
step02_gravity_refstate-crust.xmf,26,1.3349e-07,3.82404e-06,0,1.2436e-08,-1.09854e+09,-1.09829e+09,-1.09855e+09,853.113,-0.000326066,0.0444762,-0,0.0444774,37629,-40000,0,54917.6,853.113
step02_gravity_refstate-crust.xmf,27,-1.11232e-06,4.52955e-06,0,2.15294e-06,-1.09865e+09,-1.09826e+09,-1.09857e+09,147692,-0.00976833,0.0875463,-0,0.0880896,-8289.57,-40000,-0,40849.9,147692
step02_gravity_refstate-crust.xmf,28,-3.53323e-07,4.34962e-06,0,1.73484e-07,-1.09857e+09,-1.09825e+09,-1.09855e+09,11901,-0.00040314,0.0531447,-0,0.0531462,-20839.5,-40000,-0,45103,11901
step02_gravity_refstate-crust.xmf,29,2.47561e-07,1.25426e-06,0,-5.63298e-06,-1.09864e+09,-1.09857e+09,-1.09866e+09,-386422,0.0137728,0.127067,0,0.127811,3211.88,-40000,0,40128.7,386422
step02_gravity_refstate-crust.xmf,30,-7.64863e-07,4.666e-06,0,7.16688e-07,-1.09861e+09,-1.09823e+09,-1.09855e+09,49164.8,-0.00400374,0.0649886,-0,0.0651118,-14284.9,-40000,-0,42474.2,49164.8
step02_gravity_refstate-crust.xmf,31,-6.81064e-07,4.60998e-06,0,5.74414e-07,-1.0986e+09,-1.09824e+09,-1.09855e+09,39404.8,-0.00314774,0.0621489,-0,0.0622285,-15469.2,-40000,-0,42887,39404.8
step02_gravity_refstate-crust.xmf,32,-8.44419e-07,4.70245e-06,0,8.83865e-07,-1.09861e+09,-1.09823e+09,-1.09856e+09,60633.1,-0.00490923,0.0680787,-0,0.0682554,-13158,-40000,-0,42108.6,60633.1
step02_gravity_refstate-crust.xmf,33,-4.33688e-07,4.42347e-06,0,2.4877e-07,-1.09858e+09,-1.09825e+09,-1.09855e+09,17065.6,-0.000970517,0.055058,-0,0.0550666,-19395.5,-40000,-0,44454.3,17065.6
step02_gravity_refstate-crust.xmf,34,-5.98089e-07,4.55265e-06,0,4.49119e-07,-1.09859e+09,-1.09824e+09,-1.09855e+09,30809.6,-0.00235098,0.0595522,-0,0.0595986,-16713.6,-40000,-0,43351.4,30809.6
step02_gravity_refstate-crust.xmf,35,-5.16623e-07,4.49449e-06,0,3.39068e-07,-1.09859e+09,-1.09824e+09,-1.09855e+09,23260,-0.00162213,0.057191,-0,0.057214,-18021.3,-40000,-0,43872.2,23260
step02_gravity_refstate-crust.xmf,36,-2.45792e-07,2.19328e-06,0,-5.01031e-06,-1.09865e+09,-1.09849e+09,-1.09864e+09,-343707,0.013773,0.120551,0,0.121335,3834.57,-40000,0,40183.4,343707
step02_gravity_refstate-crust.xmf,37,-5.87654e-07,2.90547e-06,0,-4.41846e-06,-1.09866e+09,-1.09842e+09,-1.09862e+09,-303106,0.0134966,0.114308,0,0.115102,4488.57,-40000,0,40251.1,303106
step02_gravity_refstate-crust.xmf,38,1.13544e-07,3.84834e-06,0,2.0927e-08,-1.09854e+09,-1.09829e+09,-1.09855e+09,1435.59,-0.000605031,0.0447518,-0,0.0447559,35372.8,-40000,0,53396.9,1435.59
step02_gravity_refstate-crust.xmf,39,-1.08739e-06,4.62798e-06,0,1.83116e-06,-1.09864e+09,-1.09825e+09,-1.09857e+09,125618,-0.00879853,0.083092,-0,0.0835565,-9169.24,-40000,-0,41037.5,125618
step02_gravity_refstate-crust.xmf,40,-1.04367e-06,4.68644e-06,0,1.54775e-06,-1.09864e+09,-1.09824e+09,-1.09857e+09,106175,-0.00781217,0.0789256,-0,0.0793113,-10093.6,-40000,-0,41253.9,106175
step02_gravity_refstate-crust.xmf,41,-9.85291e-07,4.7124e-06,0,1.29792e-06,-1.09863e+09,-1.09824e+09,-1.09856e+09,89037.4,-0.00682559,0.0750396,-0,0.0753493,-11064.9,-40000,-0,41502.2,89037.4
step02_gravity_refstate-crust.xmf,42,-9.16744e-07,4.71246e-06,0,1.07895e-06,-1.09862e+09,-1.09824e+09,-1.09856e+09,74016.1,-0.00585363,0.0714266,-0,0.0716661,-12085.5,-40000,-0,41785.9,74016.1
step02_gravity_refstate-crust.xmf,43,8.20421e-08,3.88543e-06,0,2.50931e-08,-1.09855e+09,-1.09828e+09,-1.09855e+09,1721.39,-0.000815511,0.0451952,-0,0.0452026,33225.7,-40000,0,51999.5,1721.39
step02_gravity_refstate-crust.xmf,44,-8.28683e-07,3.45013e-06,0,-3.8746e-06,-1.09867e+09,-1.09837e+09,-1.09861e+09,-265797,0.013008,0.108353,0,0.109131,5175.58,-40000,0,40333.4,265797
step02_gravity_refstate-crust.xmf,45,-9.82677e-07,3.86139e-06,0,-3.3752e-06,-1.09866e+09,-1.09833e+09,-1.0986e+09,-231539,0.0123523,0.102698,0,0.103438,5897.33,-40000,0,40432.4,231539
step02_gravity_refstate-crust.xmf,46,-1.11077e-06,4.37898e-06,0,-2.51525e-06,-1.09866e+09,-1.09828e+09,-1.09858e+09,-172546,0.0107007,0.0922956,0,0.0929139,7452.39,-40000,0,40688.3,172546
step02_gravity_refstate-crust.xmf,47,-1.07544e-06,4.17607e-06,0,-2.92163e-06,-1.09866e+09,-1.0983e+09,-1.09859e+09,-200424,0.0115719,0.0973447,0,0.0980301,6655.64,-40000,0,40549.9,200424
step02_gravity_refstate-crust.xmf,48,4.06527e-08,3.93367e-06,0,2.36557e-08,-1.09855e+09,-1.09828e+09,-1.09855e+09,1622.78,-0.000941482,0.0458027,-0,0.0458124,31182.5,-40000,0,50718.3,1622.78
step02_gravity_refstate-crust.xmf,49,-9.37005e-09,3.99099e-06,0,1.53584e-08,-1.09855e+09,-1.09828e+09,-1.09855e+09,1053.59,-0.000972575,0.0465756,-0,0.0465857,29238.1,-40000,0,49546.6,1053.59
step02_gravity_refstate-crust.xmf,50,-1.11305e-06,4.53e-06,0,-2.15256e-06,-1.09865e+09,-1.09826e+09,-1.09857e+09,-147666,0.00976831,0.0875465,0,0.0880898,8289.57,-40000,0,40849.9,147666
step02_gravity_refstate-crust.xmf,51,-6.70913e-08,4.05552e-06,0,-1.17562e-09,-1.09855e+09,-1.09827e+09,-1.09855e+09,-80.6479,-0.00090269,0.0475186,-0,0.0475271,27387.8,-40000,0,48477.7,80.6479
step02_gravity_refstate-crust.xmf,52,-1.31351e-07,4.12526e-06,0,-2.73148e-08,-1.09856e+09,-1.09827e+09,-1.09855e+09,-1873.8,-0.000728967,0.0486386,-0,0.0486441,25627,-40000,0,47505.2,1873.8
step02_gravity_refstate-crust.xmf,53,-1.99983e-07,4.19455e-06,0,-6.62522e-08,-1.09856e+09,-1.09826e+09,-1.09855e+09,-4544.9,-0.000451375,0.0499439,-0,0.0499459,23951.4,-40000,0,46622.6,4544.9
step02_gravity_refstate-crust.xmf,54,-2.75484e-07,4.27465e-06,0,-1.11833e-07,-1.09857e+09,-1.09826e+09,-1.09855e+09,-7671.72,-7.282e-05,0.0514428,-0,0.0514428,22356.9,-40000,0,45823.9,7671.72
step02_gravity_refstate-crust.xmf,55,-1.08819e-06,4.62882e-06,0,-1.83112e-06,-1.09864e+09,-1.09825e+09,-1.09857e+09,-125615,0.00879871,0.0830922,0,0.0835567,9169.24,-40000,0,41037.5,125615
step02_gravity_refstate-crust.xmf,56,-3.5317e-07,4.34972e-06,0,-1.7361e-07,-1.09857e+09,-1.09825e+09,-1.09855e+09,-11909.6,0.000403235,0.0531447,0,0.0531462,20839.5,-40000,0,45103,11909.6
step02_gravity_refstate-crust.xmf,57,-6.80957e-07,4.61046e-06,0,-5.74127e-07,-1.0986e+09,-1.09824e+09,-1.09855e+09,-39385.1,0.0031477,0.0621488,0,0.0622285,15469.2,-40000,0,42887,39385.1
step02_gravity_refstate-crust.xmf,58,-7.65084e-07,4.66708e-06,0,-7.16463e-07,-1.09861e+09,-1.09823e+09,-1.09855e+09,-49149.4,0.00400373,0.0649885,0,0.0651118,14284.9,-40000,0,42474.2,49149.4
step02_gravity_refstate-crust.xmf,59,-1.04415e-06,4.68681e-06,0,-1.54729e-06,-1.09864e+09,-1.09824e+09,-1.09857e+09,-106144,0.00781224,0.0789257,0,0.0793114,10093.6,-40000,0,41253.9,106144
step02_gravity_refstate-crust.xmf,60,-5.98081e-07,4.55315e-06,0,-4.48818e-07,-1.09859e+09,-1.09824e+09,-1.09855e+09,-30788.9,0.00235099,0.0595522,0,0.0595986,16713.6,-40000,0,43351.4,30788.9
step02_gravity_refstate-crust.xmf,61,-5.14639e-07,4.48803e-06,0,-3.40995e-07,-1.09859e+09,-1.09824e+09,-1.09855e+09,-23392.3,0.00162207,0.0571909,0,0.0572139,18021.3,-40000,0,43872.2,23392.3
step02_gravity_refstate-crust.xmf,62,-4.32569e-07,4.41814e-06,0,-2.51021e-07,-1.09858e+09,-1.09825e+09,-1.09855e+09,-17220.1,0.000970539,0.055058,0,0.0550665,19395.5,-40000,0,44454.3,17220.1
step02_gravity_refstate-crust.xmf,63,-9.85267e-07,4.71292e-06,0,-1.29775e-06,-1.09863e+09,-1.09824e+09,-1.09856e+09,-89025.7,0.0068257,0.0750395,0,0.0753493,11064.9,-40000,0,41502.2,89025.7
step02_gravity_refstate-crust.xmf,64,-9.16395e-07,4.71228e-06,0,-1.07841e-06,-1.09862e+09,-1.09824e+09,-1.09856e+09,-73979,0.00585355,0.0714265,0,0.071666,12085.5,-40000,0,41785.9,73979
step02_gravity_refstate-crust.xmf,65,-8.44514e-07,4.70333e-06,0,-8.83726e-07,-1.09861e+09,-1.09823e+09,-1.09856e+09,-60623.6,0.00490928,0.0680787,0,0.0682554,13158,-40000,0,42108.6,60623.6
step02_gravity_refstate-crust.xmf,66,5.18829e-07,-2.92274e-08,0,4.45309e-08,-5.72833e+07,-5.73209e+07,-5.73189e+07,3054.82,-0.00195074,0.145969,-0,0.145982,-3647.86,-2087.51,-0,4202.93,3054.82
step02_gravity_refstate-crust.xmf,67,6.08612e-07,-2.31213e-07,0,-9.16881e-11,57802.3,190.329,16051.5,-6.28981,-0.00312684,0.145348,-0,0.145382,-4841.35,0,-0,4841.35,6.28981
step02_gravity_refstate-crust.xmf,68,6.53085e-07,-2.46922e-07,0,2.90138e-09,62076.6,336.088,17274.9,199.035,-0.001597,0.14595,-0,0.145958,-2418.42,0,-0,2418.42,199.035
step02_gravity_refstate-crust.xmf,69,5.37211e-07,-2.57092e-08,0,2.10037e-08,-6.06366e+07,-6.06752e+07,-6.06735e+07,1440.85,-0.000689836,0.146397,-0,0.146398,-1285.04,-2209.67,-0,2556.16,1440.85
step02_gravity_refstate-crust.xmf,70,4.78646e-07,-2.13464e-08,0,6.91157e-08,-5.43911e+07,-5.44254e+07,-5.44239e+07,4741.34,-0.00315808,0.145154,-0,0.145189,-6020.94,-1982.07,-0,6338.79,4741.34
step02_gravity_refstate-crust.xmf,71,4.28424e-07,1.51683e-07,0,1.05197e-07,-1.11328e+08,-1.11347e+08,-1.11357e+08,7216.5,-0.00218466,0.145484,-0,0.145501,-4814.81,-4054.96,-0,6294.85,7216.5
step02_gravity_refstate-crust.xmf,72,4.53008e-07,1.52267e-07,0,6.33669e-08,-1.15343e+08,-1.15363e+08,-1.15374e+08,4346.97,-0.00118621,0.146083,-0,0.146087,-2585.05,-4201.24,-0,4932.84,4346.97
step02_gravity_refstate-crust.xmf,73,6.66801e-07,-2.51834e-07,0,2.49111e-09,63392,373.547,17649.4,170.89,7.87366e-07,0.146153,0,0.146153,6.99292e-08,0,0,6.99292e-08,170.89
step02_gravity_refstate-crust.xmf,74,5.3066e-07,-2.03198e-07,0,1.63243e-09,50330.9,-11.7866,13927.6,111.984,-0.00452605,0.144373,-0,0.144444,-7275.8,0,-0,7275.8,111.984
step02_gravity_refstate-crust.xmf,75,4.11017e-07,-6.24446e-09,0,8.8392e-08,-5.09403e+07,-5.0969e+07,-5.09685e+07,6063.69,-0.00429542,0.143954,-0,0.144018,-8466.06,-1856.19,-0,8667.16,6063.69
step02_gravity_refstate-crust.xmf,76,4.45913e-07,-1.70191e-07,0,8.7671e-10,42316.7,51.956,11727,60.1423,-0.00573798,0.143065,-0,0.14318,-9728.87,0,-0,9728.87,60.1423
step02_gravity_refstate-crust.xmf,77,3.9685e-07,3.05553e-07,0,1.20911e-07,-1.67699e+08,-1.67705e+08,-1.67726e+08,8294.5,-0.00156407,0.145345,-0,0.145354,-3804.8,-6107.31,-0,7195.54,8294.5
step02_gravity_refstate-crust.xmf,78,4.58039e-07,1.63721e-07,0,1.02808e-08,-1.21205e+08,-1.21225e+08,-1.21236e+08,705.261,-0.000157633,0.146301,-0,0.146301,-344.948,-4414.68,-0,4428.14,705.261
step02_gravity_refstate-crust.xmf,79,5.23463e-07,-4.31161e-09,0,-1.69446e-08,-6.7582e+07,-6.76182e+07,-6.76179e+07,-1162.4,0.000676706,0.146401,0,0.146402,1288.13,-2462.5,0,2779.07,1162.4
step02_gravity_refstate-crust.xmf,80,3.13736e-07,5.38797e-08,0,1.18027e-07,-5.784e+07,-5.78578e+07,-5.78615e+07,8096.64,-0.00517429,0.142284,-0,0.142378,-11139.7,-2107.08,-0,11337.2,8096.64
step02_gravity_refstate-crust.xmf,81,3.86314e-07,1.62737e-07,0,1.45245e-07,-1.07952e+08,-1.07968e+08,-1.07979e+08,9963.8,-0.00314507,0.144507,-0,0.144541,-7117.34,-3931.93,-0,8131.21,9963.8
step02_gravity_refstate-crust.xmf,82,3.65139e-07,3.14013e-07,0,1.75087e-07,-1.64648e+08,-1.64652e+08,-1.64673e+08,12011,-0.00238862,0.144572,-0,0.144592,-5946.01,-5996.14,-0,8444.45,12011
step02_gravity_refstate-crust.xmf,83,4.13204e-07,3.06572e-07,0,5.53978e-08,-1.72736e+08,-1.72744e+08,-1.72765e+08,3800.29,-0.000680517,0.145759,-0,0.14576,-1641.24,-6290.78,-0,6501.35,3800.29
step02_gravity_refstate-crust.xmf,84,3.58304e-07,4.415e-07,0,1.87475e-07,-2.18703e+08,-2.18698e+08,-2.18728e+08,12860.8,-0.00191884,0.144234,-0,0.144246,-4989.05,-7964.25,-0,9397.87,12860.8
step02_gravity_refstate-crust.xmf,85,3.85367e-07,4.32098e-07,0,1.14418e-07,-2.21907e+08,-2.21903e+08,-2.21933e+08,7849.11,-0.00112575,0.144872,-0,0.144877,-2863.15,-8080.96,-0,8573.19,7849.11
step02_gravity_refstate-crust.xmf,86,6.53713e-07,-2.48245e-07,0,5.38126e-10,62090.1,215.731,17245.4,36.9155,0.00159587,0.14595,0,0.145959,2418.42,0,0,2418.42,36.9155
step02_gravity_refstate-crust.xmf,87,3.33266e-07,-1.27613e-07,0,2.37067e-09,31608.9,-7.38272,8746.84,162.628,-0.00671158,0.141473,-0,0.141632,-12207.6,0,-0,12207.6,162.628
step02_gravity_refstate-crust.xmf,88,3.2596e-07,1.87923e-07,0,1.77976e-07,-1.07291e+08,-1.07301e+08,-1.07314e+08,12209.1,-0.00393875,0.143263,-0,0.143318,-9316.91,-3907.65,-0,10103.2,12209.1
step02_gravity_refstate-crust.xmf,89,3.67514e-07,5.43989e-07,0,1.8553e-07,-2.67202e+08,-2.6719e+08,-2.67227e+08,12727.4,-0.00157622,0.143708,-0,0.143716,-4082.35,-9730.09,-0,10551.8,12727.4
step02_gravity_refstate-crust.xmf,90,4.13879e-07,3.19331e-07,0,-1.44651e-08,-1.78974e+08,-1.78981e+08,-1.79003e+08,-992.308,0.000192678,0.145788,0,0.145788,467.321,-6517.91,0,6534.64,992.308
step02_gravity_refstate-crust.xmf,91,4.42374e-07,1.968e-07,0,-4.3723e-08,-1.31953e+08,-1.3197e+08,-1.31983e+08,-2999.4,0.000749273,0.146126,0,0.146128,1686.19,-4805.98,0,5093.2,2999.4
step02_gravity_refstate-crust.xmf,92,5.22138e-07,-3.74297e-08,0,-4.30397e-08,-5.48376e+07,-5.4876e+07,-5.48734e+07,-2952.52,0.00200191,0.145947,0,0.145961,3716.32,-1998.47,0,4219.59,2952.52
step02_gravity_refstate-crust.xmf,93,2.42216e-07,2.86729e-08,0,9.29254e-08,-4.00385e+07,-4.00531e+07,-4.00551e+07,6374.68,-0.00616038,0.140643,-0,0.140778,-13463.4,-1458.66,-0,13542.2,6374.68
step02_gravity_refstate-crust.xmf,94,2.1488e-07,-8.29337e-08,0,2.04997e-09,20352.7,-77.3117,5611.94,140.628,-0.00740951,0.139661,-0,0.139858,-14719.3,0,-0,14719.3,140.628
step02_gravity_refstate-crust.xmf,95,2.59512e-07,2.41333e-07,0,2.12355e-07,-1.15228e+08,-1.15229e+08,-1.15246e+08,14567.6,-0.00446676,0.141809,-0,0.14188,-11378.4,-4196.42,-0,12127.6,14567.6
step02_gravity_refstate-crust.xmf,96,3.21785e-07,3.28361e-07,0,2.22071e-07,-1.6039e+08,-1.6039e+08,-1.60413e+08,15234.1,-0.00315707,0.143484,-0,0.143518,-8127.8,-5840.99,-0,10008.9,15234.1
step02_gravity_refstate-crust.xmf,97,3.19233e-07,4.57273e-07,0,2.51054e-07,-2.13399e+08,-2.1339e+08,-2.13421e+08,17222.3,-0.00266023,0.143277,-0,0.143302,-7152.2,-7771.01,-0,10561.4,17222.3
step02_gravity_refstate-crust.xmf,98,3.3019e-07,5.595e-07,0,2.62527e-07,-2.61956e+08,-2.6194e+08,-2.61979e+08,18009.4,-0.0023157,0.142881,-0,0.1429,-6205.85,-9538.97,-0,11380,18009.4
step02_gravity_refstate-crust.xmf,99,3.977e-07,4.31293e-07,0,3.16295e-08,-2.26131e+08,-2.26129e+08,-2.26159e+08,2169.78,-0.000295964,0.145129,-0,0.14513,-745.706,-8234.82,-0,8268.51,2169.78
step02_gravity_refstate-crust.xmf,100,3.91382e-07,5.33077e-07,0,9.35932e-08,-2.72367e+08,-2.72357e+08,-2.72394e+08,6420.5,-0.000778136,0.144172,-0,0.144174,-1972.21,-9918.2,-0,10112.4,6420.5
step02_gravity_refstate-crust.xmf,101,3.50148e-07,6.43512e-07,0,2.65891e-07,-3.07794e+08,-3.07774e+08,-3.07818e+08,18240.1,-0.00208536,0.14228,-0,0.142295,-5391.56,-11208,-0,12437.3,18240.1
step02_gravity_refstate-crust.xmf,102,3.92741e-07,6.32611e-07,0,1.66468e-07,-3.20606e+08,-3.20589e+08,-3.20633e+08,11419.7,-0.00124454,0.142888,-0,0.142894,-3077.47,-11674.5,-0,12073.4,11419.7
step02_gravity_refstate-crust.xmf,103,4.67129e-07,1.0396e-07,0,-5.89535e-08,-9.91758e+07,-9.92007e+07,-9.92079e+07,-4044.21,0.00139279,0.146087,0,0.146094,2922.01,-3612.65,0,4646.44,4044.21
step02_gravity_refstate-crust.xmf,104,5.96117e-07,-2.28353e-07,0,-5.54277e-10,56535.4,-23.2426,15641.8,-38.0234,0.00312815,0.145348,0,0.145382,4841.35,0,0,4841.35,38.0234
step02_gravity_refstate-crust.xmf,105,4.45029e-07,3.00036e-08,0,-8.90369e-08,-6.76923e+07,-6.77208e+07,-6.77228e+07,-6107.93,0.00318133,0.145008,0,0.145043,6355.87,-2466.25,0,6817.59,6107.93
step02_gravity_refstate-crust.xmf,106,5.40012e-07,-2.06056e-07,0,-4.34166e-10,51248.6,68.3737,14203.8,-29.7838,0.00452473,0.144374,0,0.144444,7275.8,0,0,7275.8,29.7838
step02_gravity_refstate-crust.xmf,107,1.43267e-07,1.05818e-07,0,1.24737e-07,-5.29406e+07,-5.29432e+07,-5.29504e+07,8556.95,-0.00631906,0.13892,-0,0.139063,-15645,-1928.1,-0,15763.4,8556.95
step02_gravity_refstate-crust.xmf,108,2.00838e-07,2.12306e-07,0,2.00831e-07,-9.64132e+07,-9.64124e+07,-9.6427e+07,13777,-0.00520657,0.140328,-0,0.140424,-13549.3,-3511.16,-0,13996.8,13777
step02_gravity_refstate-crust.xmf,109,2.62412e-07,3.56581e-07,0,2.59677e-07,-1.58429e+08,-1.58422e+08,-1.58447e+08,17813.8,-0.0038211,0.142071,-0,0.142123,-10349.4,-5769.36,-0,11848.9,17813.8
step02_gravity_refstate-crust.xmf,110,3.81099e-07,7.16458e-07,0,2.6381e-07,-3.54766e+08,-3.54743e+08,-3.54792e+08,18097.4,-0.00190691,0.141475,-0,0.141487,-4618.57,-12918.2,-0,13719,18097.4
step02_gravity_refstate-crust.xmf,111,4.00215e-07,3.41446e-07,0,-8.56678e-08,-1.85584e+08,-1.85588e+08,-1.85611e+08,-5876.81,0.00101966,0.145462,0,0.145465,2511.49,-6758.51,0,7210.07,5876.81
step02_gravity_refstate-crust.xmf,112,3.94467e-07,4.44874e-07,0,-5.44525e-08,-2.31779e+08,-2.31776e+08,-2.31806e+08,-3735.44,0.000531379,0.144986,0,0.144987,1344.5,-8440.44,0,8546.85,3735.44
step02_gravity_refstate-crust.xmf,113,4.1465e-07,7.115e-07,0,1.87349e-07,-3.67143e+08,-3.67123e+08,-3.67172e+08,12852.1,-0.0013224,0.141748,-0,0.141754,-3077.74,-13369,-0,13718.7,12852.1
step02_gravity_refstate-crust.xmf,114,4.19393e-07,7.74833e-07,0,2.59753e-07,-3.97208e+08,-3.97183e+08,-3.97236e+08,17819,-0.00177931,0.1406,-0,0.140611,-3983.73,-14463.6,-0,15002.2,17819
step02_gravity_refstate-crust.xmf,115,4.18447e-07,2.31989e-07,0,-9.12989e-08,-1.42549e+08,-1.42561e+08,-1.42577e+08,-6263.1,0.00142826,0.145727,0,0.145734,3316.23,-5191.68,0,6160.43,6263.1
step02_gravity_refstate-crust.xmf,116,4.21523e-07,1.63541e-07,0,-1.09641e-07,-1.14525e+08,-1.14542e+08,-1.14554e+08,-7521.36,0.00217483,0.14546,0,0.145476,4832.43,-4171.35,0,6383.77,7521.36
step02_gravity_refstate-crust.xmf,117,4.0569e-07,-1.31504e-09,0,-8.90677e-08,-5.14947e+07,-5.15226e+07,-5.15225e+07,-6110.04,0.00442517,0.143765,0,0.143833,8800.82,-1876.36,0,8998.62,6110.04
step02_gravity_refstate-crust.xmf,118,9.17261e-08,-3.50349e-08,0,2.79618e-09,8703.6,7.79944,2411.19,191.818,-0.00779893,0.137701,-0,0.137921,-17270.8,0,-0,17270.8,191.818
step02_gravity_refstate-crust.xmf,119,-3.70233e-08,1.41693e-08,0,2.42434e-09,-3511.83,-0.0172385,-972.028,166.309,-0.00786406,0.135669,-0,0.135896,-19869.6,0,-0,19869.6,166.309
step02_gravity_refstate-crust.xmf,120,2.30284e-08,2.03136e-07,0,1.54886e-07,-6.89465e+07,-6.89342e+07,-6.89481e+07,10625.2,-0.00624522,0.136492,-0,0.136635,-18507.2,-2510.47,-0,18676.7,10625.2
step02_gravity_refstate-crust.xmf,121,-1.64492e-07,6.17629e-08,0,2.29268e-09,-15653.4,-132.338,-4369.27,157.278,-0.00759599,0.133645,-0,0.13386,-22522.7,0,-0,22522.7,157.278
step02_gravity_refstate-crust.xmf,122,-8.32035e-08,2.10893e-07,0,1.24319e-07,-5.75741e+07,-5.7554e+07,-5.75684e+07,8528.28,-0.00638972,0.134324,-0,0.134475,-21274.9,-2096.03,-0,21377.9,8528.28
step02_gravity_refstate-crust.xmf,123,2.0091e-07,3.8422e-07,0,2.83989e-07,-1.56167e+08,-1.56154e+08,-1.56181e+08,19481.7,-0.00435018,0.14047,-0,0.140537,-12536.6,-5686.83,-0,13766.1,19481.7
step02_gravity_refstate-crust.xmf,124,3.3598e-07,7.45962e-07,0,3.46008e-07,-3.47134e+08,-3.47106e+08,-3.47157e+08,23736.1,-0.00255077,0.140692,-0,0.140716,-6475.53,-12640.3,-0,14202.4,23736.1
step02_gravity_refstate-crust.xmf,125,2.69018e-07,4.84953e-07,0,3.03141e-07,-2.10496e+08,-2.10481e+08,-2.10514e+08,20795.5,-0.00330759,0.141976,-0,0.142015,-9329.07,-7665.15,-0,12074.2,20795.5
step02_gravity_refstate-crust.xmf,126,3.05754e-07,6.78398e-07,0,3.41484e-07,-3.04749e+08,-3.04723e+08,-3.0477e+08,23425.8,-0.00272175,0.141259,-0,0.141285,-7347.59,-11097,-0,13309,23425.8
step02_gravity_refstate-crust.xmf,127,2.82889e-07,5.93837e-07,0,3.29372e-07,-2.59924e+08,-2.59903e+08,-2.59943e+08,22594.9,-0.00296058,0.141683,-0,0.141714,-8309.47,-9464.86,-0,12594.9,22594.9
step02_gravity_refstate-crust.xmf,128,3.72978e-07,8.03754e-07,0,3.49622e-07,-3.89598e+08,-3.89568e+08,-3.89624e+08,23984.1,-0.00244235,0.139933,-0,0.139954,-5727.92,-14186.5,-0,15299.2,23984.1
step02_gravity_refstate-crust.xmf,129,3.98761e-07,5.31395e-07,0,-6.87678e-09,-2.74794e+08,-2.74785e+08,-2.74821e+08,-471.747,6.82927e-05,0.144298,0,0.144298,171.92,-10006.6,0,10008.1,471.747
step02_gravity_refstate-crust.xmf,130,4.09026e-07,6.07129e-07,0,5.53621e-08,-3.15623e+08,-3.15609e+08,-3.15651e+08,3797.84,-0.000406784,0.143406,-0,0.143406,-996.172,-11493.1,-0,11536.2,3797.84
step02_gravity_refstate-crust.xmf,131,4.29393e-07,6.84202e-07,0,8.92801e-08,-3.61473e+08,-3.61456e+08,-3.61503e+08,6124.61,-0.000624425,0.142272,-0,0.142273,-1446.3,-13162.6,-0,13241.8,6124.61
step02_gravity_refstate-crust.xmf,132,4.51679e-07,7.48634e-07,0,1.53988e-07,-4.01663e+08,-4.01643e+08,-4.01694e+08,10563.5,-0.00104091,0.141062,-0,0.141066,-2262.62,-14625.9,-0,14799.9,10563.5
step02_gravity_refstate-crust.xmf,133,3.7649e-07,3.47975e-07,0,-1.51703e-07,-1.81504e+08,-1.81506e+08,-1.8153e+08,-10406.8,0.00185049,0.144908,0,0.14492,4629.03,-6609.9,0,8069.61,10406.8
step02_gravity_refstate-crust.xmf,134,4.46352e-07,-1.70534e-07,0,-6.64464e-10,42350.8,32.4952,11731.1,-45.5822,0.00573784,0.143065,0,0.14318,9728.87,0,0,9728.87,45.5822
step02_gravity_refstate-crust.xmf,135,3.6099e-07,1.64117e-07,0,-1.58132e-07,-1.04066e+08,-1.0408e+08,-1.04091e+08,-10847.8,0.0036073,0.143913,0,0.143959,8264.91,-3790.35,0,9092.6,10847.8
step02_gravity_refstate-crust.xmf,136,4.70152e-07,8.15399e-07,0,2.45161e-07,-4.40551e+08,-4.40527e+08,-4.40583e+08,16818.1,-0.00161833,0.13963,-0,0.13964,-3289.21,-16041.9,-0,16375.6,16818.1
step02_gravity_refstate-crust.xmf,137,4.21252e-07,8.51579e-07,0,3.51602e-07,-4.34283e+08,-4.34253e+08,-4.34312e+08,24119.9,-0.00236275,0.138988,-0,0.139008,-5017.76,-15813.5,-0,16590.5,24119.9
step02_gravity_refstate-crust.xmf,138,-1.63835e-07,2.2261e-07,0,1.03248e-07,-5.12704e+07,-5.12439e+07,-5.12591e+07,7082.79,-0.00626776,0.132792,-0,0.13294,-23309.4,-1866.23,-0,23384,7082.79
step02_gravity_refstate-crust.xmf,139,-2.77801e-07,1.05542e-07,0,4.94814e-09,-26383.6,-86.3305,-7326.51,339.443,-0.00699715,0.131712,-0,0.131898,-25237.6,0,-0,25237.6,339.443
step02_gravity_refstate-crust.xmf,140,9.21798e-08,3.128e-07,0,2.39157e-07,-1.14005e+08,-1.1399e+08,-1.14011e+08,16406.2,-0.00538301,0.137833,-0,0.137938,-16398.1,-4151.31,-0,16915.4,16406.2
step02_gravity_refstate-crust.xmf,141,1.29015e-07,4.36522e-07,0,3.09576e-07,-1.61378e+08,-1.61357e+08,-1.61387e+08,21236.9,-0.0046832,0.138543,-0,0.138622,-14793.4,-5876.31,-0,15917.8,21236.9
step02_gravity_refstate-crust.xmf,142,2.08584e-07,5.19741e-07,0,3.39676e-07,-2.07908e+08,-2.07886e+08,-2.07922e+08,23301.8,-0.00384214,0.140413,-0,0.140465,-11522.7,-7570.73,-0,13787.2,23301.8
step02_gravity_refstate-crust.xmf,143,3.77554e-07,4.63589e-07,0,-1.37064e-07,-2.34606e+08,-2.346e+08,-2.34632e+08,-9402.57,0.00131428,0.144531,0,0.144537,3374.33,-8543.3,0,9185.54,9402.57
step02_gravity_refstate-crust.xmf,144,3.90193e-07,5.4993e-07,0,-1.06192e-07,-2.80345e+08,-2.80334e+08,-2.80372e+08,-7284.79,0.000882797,0.143964,0,0.143967,2234.24,-10208.7,0,10450.3,7284.79
step02_gravity_refstate-crust.xmf,145,3.55508e-07,2.75461e-07,0,-1.7857e-07,-1.46625e+08,-1.46631e+08,-1.4665e+08,-12249.9,0.00277694,0.144359,0,0.144386,6798.06,-5339.91,0,8644.55,12249.9
step02_gravity_refstate-crust.xmf,146,3.27665e-07,2.62634e-08,0,-1.02856e-07,-5.03251e+07,-5.03458e+07,-5.03476e+07,-7055.9,0.00528839,0.14232,0,0.142419,11102.6,-1833.5,0,11253,7055.9
step02_gravity_refstate-crust.xmf,147,3.08062e-07,1.86773e-07,0,-1.83166e-07,-1.03769e+08,-1.03778e+08,-1.03791e+08,-12565.2,0.0042509,0.142729,0,0.142793,10181,-3779.36,0,10859.8,12565.2
step02_gravity_refstate-crust.xmf,148,4.80081e-07,8.84492e-07,0,3.51975e-07,-4.78977e+08,-4.78949e+08,-4.7901e+08,24145.5,-0.00229951,0.137933,-0,0.137952,-4367.17,-17440.9,-0,17979.4,24145.5
step02_gravity_refstate-crust.xmf,149,-4.8583e-08,4.11126e-07,0,2.43386e-07,-1.24893e+08,-1.24861e+08,-1.24889e+08,16696.3,-0.005327,0.134133,-0,0.134239,-20578.4,-4547.28,-0,21074.8,16696.3
step02_gravity_refstate-crust.xmf,150,-1.16729e-07,3.85521e-07,0,2.03392e-07,-1.07917e+08,-1.07882e+08,-1.07909e+08,13952.7,-0.00538757,0.132674,-0,0.132784,-22654.7,-3928.94,-0,22992.8,13952.7
step02_gravity_refstate-crust.xmf,151,-1.90475e-07,3.59882e-07,0,1.59562e-07,-9.082e+07,-9.07823e+07,-9.0807e+07,10946,-0.00530109,0.13122,-0,0.131327,-24856.9,-3306.18,-0,25075.8,10946
step02_gravity_refstate-crust.xmf,152,1.47171e-07,5.61254e-07,0,3.65327e-07,-2.08327e+08,-2.08299e+08,-2.08337e+08,25061.5,-0.00422387,0.138653,-0,0.138717,-13659.6,-7585.82,-0,15624.7,25061.5
step02_gravity_refstate-crust.xmf,153,3.18371e-07,8.55139e-07,0,4.30911e-07,-3.86203e+08,-3.86166e+08,-3.86224e+08,29560.5,-0.00305201,0.138846,-0,0.138879,-7535.41,-14062.7,-0,15954.4,29560.5
step02_gravity_refstate-crust.xmf,154,2.83315e-07,7.96038e-07,0,4.18324e-07,-3.45601e+08,-3.45566e+08,-3.4562e+08,28697,-0.00312899,0.139468,-0,0.139503,-8358.96,-12584.3,-0,15107.5,28697
step02_gravity_refstate-crust.xmf,155,2.23813e-07,6.46769e-07,0,3.87277e-07,-2.62032e+08,-2.62003e+08,-2.62048e+08,26567.2,-0.00352103,0.14004,-0,0.140084,-10521.9,-9541.45,-0,14203.8,26567.2
step02_gravity_refstate-crust.xmf,156,2.52245e-07,7.31337e-07,0,4.07402e-07,-3.06083e+08,-3.0605e+08,-3.061e+08,27947.8,-0.0032817,0.139835,-0,0.139873,-9344.19,-11145.4,-0,14544.2,27947.8
step02_gravity_refstate-crust.xmf,157,3.62813e-07,9.07084e-07,0,4.42952e-07,-4.29323e+08,-4.29286e+08,-4.29348e+08,30386.5,-0.00301585,0.138024,-0,0.138057,-6751.07,-15632.8,-0,17028.3,30386.5
step02_gravity_refstate-crust.xmf,158,4.10554e-07,6.19864e-07,0,-6.26994e-08,-3.22518e+08,-3.22504e+08,-3.22546e+08,-4301.18,0.000479452,0.143234,0,0.143235,1166.87,-11744.2,0,11802,4301.18
step02_gravity_refstate-crust.xmf,159,4.36703e-07,6.81411e-07,0,-1.32708e-08,-3.63829e+08,-3.63812e+08,-3.63858e+08,-910.377,0.000102711,0.142319,0,0.142319,236.18,-13248.4,0,13250.5,910.377
step02_gravity_refstate-crust.xmf,160,4.68578e-07,7.36934e-07,0,4.07495e-08,-4.05108e+08,-4.05089e+08,-4.0514e+08,2795.41,-0.000268714,0.141237,-0,0.141237,-574.643,-14751.4,-0,14762.6,2795.41
step02_gravity_refstate-crust.xmf,161,5.03683e-07,7.88129e-07,0,1.18483e-07,-4.45918e+08,-4.45899e+08,-4.45953e+08,8127.94,-0.000772069,0.139987,-0,0.139989,-1522.38,-16237.4,-0,16308.6,8127.94
step02_gravity_refstate-crust.xmf,162,5.40578e-07,8.42039e-07,0,2.27531e-07,-4.89616e+08,-4.89595e+08,-4.89653e+08,15608.6,-0.00145458,0.138398,-0,0.138406,-2616.05,-17828.4,-0,18019.3,15608.6
step02_gravity_refstate-crust.xmf,163,3.49851e-07,4.99036e-07,0,-2.13001e-07,-2.41102e+08,-2.41092e+08,-2.41126e+08,-14611.9,0.00199931,0.143732,0,0.143746,5267.1,-8779.76,0,10238.5,14611.9
step02_gravity_refstate-crust.xmf,164,3.01889e-07,3.19389e-07,0,-2.32414e-07,-1.5236e+08,-1.52359e+08,-1.52381e+08,-15943.6,0.00351407,0.142967,0,0.14301,9124.95,-5548.53,0,10679.5,15943.6
step02_gravity_refstate-crust.xmf,165,3.36419e-07,-1.28785e-07,0,-1.47732e-09,31909.4,-3.57812,8831.09,-101.344,0.00671226,0.141473,0,0.141632,12207.6,0,0,12207.6,101.344
step02_gravity_refstate-crust.xmf,166,5.41316e-07,9.089e-07,0,3.57599e-07,-5.20767e+08,-5.20741e+08,-5.20804e+08,24531.3,-0.00229723,0.136822,-0,0.136841,-3904.98,-18962.6,-0,19360.5,24531.3
step02_gravity_refstate-crust.xmf,167,4.17572e-07,9.4625e-07,0,4.54786e-07,-4.73428e+08,-4.73392e+08,-4.73457e+08,31198.3,-0.00300765,0.137058,-0,0.137091,-6018.54,-17238.8,-0,18259.2,31198.3
step02_gravity_refstate-crust.xmf,168,5.87612e-07,8.6981e-07,0,2.64022e-07,-5.28765e+08,-5.28746e+08,-5.28806e+08,18111.9,-0.00167273,0.137133,-0,0.137143,-2729.95,-19254,-0,19446.5,18111.9
step02_gravity_refstate-crust.xmf,169,2.10173e-08,4.07825e-07,0,2.66336e-07,-1.33728e+08,-1.33701e+08,-1.33729e+08,18270.6,-0.00524657,0.13583,-0,0.135931,-18438.4,-4869.21,-0,19070.5,18270.6
step02_gravity_refstate-crust.xmf,170,-2.78515e-07,2.96935e-07,0,1.03532e-07,-6.09966e+07,-6.09571e+07,-6.09775e+07,7102.31,-0.00526209,0.130078,-0,0.130184,-27031.5,-2219.98,-0,27122.5,7102.31
step02_gravity_refstate-crust.xmf,171,4.83216e-08,5.50831e-07,0,3.46158e-07,-1.84555e+08,-1.84521e+08,-1.84558e+08,23746.5,-0.00471314,0.136042,-0,0.136123,-17184.6,-6719.96,-0,18451.8,23746.5
step02_gravity_refstate-crust.xmf,172,9.31919e-08,6.05726e-07,0,3.80274e-07,-2.11748e+08,-2.11713e+08,-2.11755e+08,26086.8,-0.00442413,0.137022,-0,0.137093,-15443.5,-7710.22,-0,17261.2,26086.8
step02_gravity_refstate-crust.xmf,173,1.5927e-07,6.95357e-07,0,4.20713e-07,-2.60362e+08,-2.60325e+08,-2.60373e+08,28860.9,-0.00394546,0.138262,-0,0.138319,-12726.7,-9480.45,-0,15869.7,28860.9
step02_gravity_refstate-crust.xmf,174,-3.78956e-07,1.43556e-07,0,3.97419e-09,-36008.4,-164.022,-10012,272.63,-0.00608736,0.129955,-0,0.130098,-28021.6,0,-0,28021.6,272.63
step02_gravity_refstate-crust.xmf,175,3.67832e-07,5.81277e-07,0,-1.98285e-07,-2.85856e+08,-2.85841e+08,-2.85881e+08,-13602.4,0.00162588,0.143288,0,0.143297,4186.29,-10409.3,0,11219.5,13602.4
step02_gravity_refstate-crust.xmf,176,3.95187e-07,6.47383e-07,0,-1.69743e-07,-3.28547e+08,-3.2853e+08,-3.28574e+08,-11644.3,0.00127319,0.14269,0,0.142695,3122.98,-11963.7,0,12364.6,11644.3
step02_gravity_refstate-crust.xmf,177,5.94082e-07,8.40841e-07,0,1.68499e-07,-5.18522e+08,-5.18505e+08,-5.18563e+08,11559,-0.00106657,0.137773,-0,0.137777,-1766.77,-18881,-0,18963.5,11559
step02_gravity_refstate-crust.xmf,178,3.38484e-07,4.25668e-07,0,-2.18919e-07,-2.05127e+08,-2.05121e+08,-2.05151e+08,-15017.9,0.00239699,0.143858,0,0.143878,6299.52,-7469.9,0,9771.56,15017.9
step02_gravity_refstate-crust.xmf,179,2.99827e-07,4.41348e-07,0,-2.63218e-07,-2.01099e+08,-2.01089e+08,-2.01119e+08,-18056.7,0.00297775,0.14294,0,0.142971,8079.7,-7323.09,0,10904.6,18056.7
step02_gravity_refstate-crust.xmf,180,2.30383e-07,7.45841e-08,0,-1.19854e-07,-5.37245e+07,-5.37352e+07,-5.37403e+07,-8222.02,0.00591046,0.14055,0,0.140674,13552.2,-1956.94,0,13692.8,8222.02
step02_gravity_refstate-crust.xmf,181,2.31203e-07,2.34026e-07,0,-2.12044e-07,-1.08328e+08,-1.08328e+08,-1.08344e+08,-14546.2,0.00482204,0.141041,0,0.141123,12497.1,-3945.1,0,13105,14546.2
step02_gravity_refstate-crust.xmf,182,2.14971e-07,-8.26721e-08,0,-2.22765e-09,20374,-44.3523,5626.95,-152.817,0.00740923,0.139662,0,0.139858,14719.3,0,0,14719.3,152.817
step02_gravity_refstate-crust.xmf,183,2.39489e-07,3.62934e-07,0,-2.71133e-07,-1.56166e+08,-1.56157e+08,-1.56182e+08,-18599.7,0.00407832,0.141411,0,0.14147,11306.1,-5686.91,0,12655.8,18599.7
step02_gravity_refstate-crust.xmf,184,4.80031e-07,9.67199e-07,0,4.64901e-07,-5.1485e+08,-5.14816e+08,-5.14883e+08,31892.2,-0.00300382,0.136084,-0,0.136117,-5362.29,-18747.1,-0,19498.9,31892.2
step02_gravity_refstate-crust.xmf,185,6.17769e-07,8.96836e-07,0,3.43971e-07,-5.57862e+08,-5.57843e+08,-5.57905e+08,23596.4,-0.0021476,0.135941,-0,0.135958,-3274.65,-20313.4,-0,20575.7,23596.4
step02_gravity_refstate-crust.xmf,186,-2.29958e-08,5.84288e-07,0,3.33545e-07,-1.82639e+08,-1.82598e+08,-1.82638e+08,22881.2,-0.00475909,0.1339,-0,0.133985,-19636,-6649.98,-0,20731.5,22881.2
step02_gravity_refstate-crust.xmf,187,-8.46129e-08,5.85465e-07,0,3.03346e-07,-1.73241e+08,-1.73195e+08,-1.73235e+08,20809.6,-0.00471799,0.132187,-0,0.132272,-21842.9,-6307.57,-0,22735.3,20809.6
step02_gravity_refstate-crust.xmf,188,-1.43764e-07,5.7527e-07,0,2.64593e-07,-1.61595e+08,-1.61546e+08,-1.61585e+08,18151.1,-0.00457216,0.130639,-0,0.130719,-24036.7,-5883.33,-0,24746.3,18151.1
step02_gravity_refstate-crust.xmf,189,-2.03116e-07,5.47645e-07,0,2.17306e-07,-1.45468e+08,-1.45417e+08,-1.45454e+08,14907.2,-0.00433388,0.12928,-0,0.129353,-26294.5,-5295.94,-0,26822.5,14907.2
step02_gravity_refstate-crust.xmf,190,9.90183e-08,7.32791e-07,0,4.35486e-07,-2.57064e+08,-2.5702e+08,-2.57071e+08,29874.4,-0.00422139,0.13648,-0,0.136546,-14819.8,-9360.21,-0,17528.3,29874.4
step02_gravity_refstate-crust.xmf,191,2.56682e-07,9.1361e-07,0,4.94517e-07,-3.82766e+08,-3.82721e+08,-3.82784e+08,33923.9,-0.00356247,0.137507,-0,0.137554,-9370.88,-13937.4,-0,16794.8,33923.9
step02_gravity_refstate-crust.xmf,192,2.94933e-07,9.74015e-07,0,5.18681e-07,-4.25106e+08,-4.2506e+08,-4.25127e+08,35581.5,-0.00358685,0.13673,-0,0.136777,-8567.08,-15479.1,-0,17691.8,35581.5
step02_gravity_refstate-crust.xmf,193,2.29014e-07,8.55334e-07,0,4.72272e-07,-3.46706e+08,-3.46663e+08,-3.46721e+08,32397.9,-0.00358338,0.138042,-0,0.138088,-10117.3,-12624.4,-0,16178.2,32397.9
step02_gravity_refstate-crust.xmf,194,1.83045e-07,8.30956e-07,0,4.73597e-07,-3.19255e+08,-3.19211e+08,-3.19268e+08,32488.7,-0.00380421,0.137602,-0,0.137654,-11605.6,-11624.8,-0,16426.4,32488.7
step02_gravity_refstate-crust.xmf,195,3.46585e-07,1.02074e-06,0,5.33735e-07,-4.68209e+08,-4.68162e+08,-4.68232e+08,36614.2,-0.00360167,0.135933,-0,0.13598,-7668.03,-17048.6,-0,18693.7,36614.2
step02_gravity_refstate-crust.xmf,196,-3.45719e-07,3.392e-07,0,8.86632e-08,-6.59549e+07,-6.59079e+07,-6.59311e+07,6082.3,-0.00432955,0.128389,-0,0.128462,-29787.7,-2400.28,-0,29884.3,6082.3
step02_gravity_refstate-crust.xmf,197,-4.6184e-07,1.75101e-07,0,3.54074e-09,-43877.8,-183.667,-12195.6,242.894,-0.0048887,0.128456,-0,0.128549,-30882.2,0,-0,30882.2,242.894
step02_gravity_refstate-crust.xmf,198,4.29421e-07,6.9954e-07,0,-1.2869e-07,-3.68867e+08,-3.68848e+08,-3.68896e+08,-8828.15,0.000912243,0.141966,0,0.141969,2096.91,-13431.8,0,13594.5,8828.15
step02_gravity_refstate-crust.xmf,199,4.69612e-07,7.44454e-07,0,-8.06011e-08,-4.09383e+08,-4.09364e+08,-4.09415e+08,-5529.23,0.000550843,0.141063,0,0.141064,1170.41,-14907,0,14952.9,5529.23
step02_gravity_refstate-crust.xmf,200,5.15573e-07,7.80722e-07,0,-1.79942e-08,-4.49369e+08,-4.49351e+08,-4.49404e+08,-1234.4,0.000123058,0.140028,0,0.140028,239.68,-16363,0,16364.8,1234.4
step02_gravity_refstate-crust.xmf,201,5.71361e-07,8.1215e-07,0,6.51666e-08,-4.93739e+08,-4.93722e+08,-4.93778e+08,4470.43,-0.000407477,0.138707,-0,0.138708,-714.218,-17978.6,-0,17992.8,4470.43
step02_gravity_refstate-crust.xmf,202,6.54444e-07,8.51979e-07,0,1.96229e-07,-5.55351e+08,-5.55337e+08,-5.55396e+08,13461.3,-0.00120929,0.136624,-0,0.136629,-1817.94,-20222.1,-0,20303.6,13461.3
step02_gravity_refstate-crust.xmf,203,3.12871e-07,5.43951e-07,0,-2.80741e-07,-2.48413e+08,-2.48397e+08,-2.48435e+08,-19258.8,0.00259826,0.142676,0,0.142699,7083.29,-9045.83,0,11489.1,19258.8
step02_gravity_refstate-crust.xmf,204,3.34905e-07,6.22112e-07,0,-2.79443e-07,-2.91107e+08,-2.91087e+08,-2.9113e+08,-19169.8,0.00227902,0.142343,0,0.142362,6030.15,-10600.3,0,12195.5,19169.8
step02_gravity_refstate-crust.xmf,205,2.50967e-07,4.8248e-07,0,-3.12434e-07,-2.04432e+08,-2.04416e+08,-2.04449e+08,-21433,0.00352668,0.141544,0,0.141588,10100.1,-7444.31,0,12547.1,21433
step02_gravity_refstate-crust.xmf,206,1.29879e-07,1.13774e-07,0,-1.24542e-07,-5.35967e+07,-5.35978e+07,-5.36056e+07,-8543.56,0.00635631,0.138623,0,0.138768,16011.9,-1951.94,0,16130.5,8543.56
step02_gravity_refstate-crust.xmf,207,8.9665e-08,-3.42822e-08,0,-1.93227e-09,8506.56,3.77925,2355.54,-132.554,0.00779939,0.137701,0,0.137922,17270.8,0,0,17270.8,132.554
step02_gravity_refstate-crust.xmf,208,5.51927e-07,9.74406e-07,0,4.7071e-07,-5.5508e+08,-5.55051e+08,-5.55118e+08,32290.7,-0.00298903,0.135107,-0,0.13514,-4744.72,-20212,-0,20761.4,32290.7
step02_gravity_refstate-crust.xmf,209,4.06364e-07,1.04675e-06,0,5.56985e-07,-5.10462e+08,-5.10418e+08,-5.1049e+08,38209.2,-0.00365241,0.135004,-0,0.135053,-6903.24,-18587.2,-0,19827.7,38209.2
step02_gravity_refstate-crust.xmf,210,6.3655e-07,9.59165e-07,0,4.78137e-07,-5.94137e+08,-5.94115e+08,-5.94181e+08,32800.2,-0.00295837,0.134152,-0,0.134184,-4169.01,-21634.2,-0,22032.3,32800.2
step02_gravity_refstate-crust.xmf,211,6.9953e-07,8.74609e-07,0,3.07418e-07,-5.90933e+08,-5.90921e+08,-5.90981e+08,21088.9,-0.00186877,0.135222,-0,0.135235,-2570.65,-21517.7,-0,21670.7,21088.9
step02_gravity_refstate-crust.xmf,212,-2.66593e-07,5.37623e-07,0,1.73548e-07,-1.34849e+08,-1.34794e+08,-1.3483e+08,11905.4,-0.0038485,0.127857,-0,0.127915,-28790.8,-4909.06,-0,29206.3,11905.4
step02_gravity_refstate-crust.xmf,213,4.61619e-08,7.50509e-07,0,4.31145e-07,-2.49856e+08,-2.49808e+08,-2.49859e+08,29576.5,-0.00437366,0.13493,-0,0.135001,-16706.2,-9097.61,-0,19022.8,29576.5
step02_gravity_refstate-crust.xmf,214,1.13415e-07,8.74154e-07,0,4.948e-07,-3.11537e+08,-3.11485e+08,-3.11545e+08,33943.3,-0.00412811,0.13574,-0,0.135803,-13900,-11343.6,-0,17941.2,33943.3
step02_gravity_refstate-crust.xmf,215,-4.01817e-07,3.61402e-07,0,6.62375e-08,-6.60887e+07,-6.60363e+07,-6.60611e+07,4543.89,-0.0032864,0.127079,-0,0.127122,-32575.5,-2404.96,-0,32664.2,4543.89
step02_gravity_refstate-crust.xmf,216,-5.2418e-07,1.98518e-07,0,3.07187e-09,-49809.8,-232.756,-13851.1,210.73,-0.00343931,0.127294,-0,0.127341,-33826.9,0,-0,33826.9,210.73
step02_gravity_refstate-crust.xmf,217,3.66169e-07,6.87037e-07,0,-2.66073e-07,-3.33649e+08,-3.33627e+08,-3.33674e+08,-18252.6,0.00198796,0.14185,0,0.141864,4976.12,-12149.4,0,13128.9,18252.6
step02_gravity_refstate-crust.xmf,218,4.06083e-07,7.3629e-07,0,-2.39588e-07,-3.7449e+08,-3.74467e+08,-3.74518e+08,-16435.7,0.00168917,0.141248,0,0.141258,3928.77,-13636.5,0,14191.1,16435.7
step02_gravity_refstate-crust.xmf,219,6.27848e-07,8.31083e-07,0,8.34603e-08,-5.32487e+08,-5.32473e+08,-5.3253e+08,5725.38,-0.000519309,0.137532,-0,0.137533,-824.828,-19389.5,-0,19407.1,5725.38
step02_gravity_refstate-crust.xmf,220,2.65754e-07,5.87925e-07,0,-3.37077e-07,-2.5151e+08,-2.51488e+08,-2.51528e+08,-23123.5,0.0031385,0.141434,0,0.141469,8948.27,-9158.46,0,12804.3,23123.5
step02_gravity_refstate-crust.xmf,221,2.88118e-08,1.55471e-07,0,-1.23085e-07,-5.37753e+07,-5.37667e+07,-5.37773e+07,-8443.6,0.00654706,0.136617,0,0.136773,18477,-1958.1,0,18580.4,8443.6
step02_gravity_refstate-crust.xmf,222,-3.61459e-08,1.39506e-08,0,-1.78869e-09,-3423.62,12.9967,-944.013,-122.704,0.00786389,0.135668,0,0.135896,19869.6,0,0,19869.6,122.704
step02_gravity_refstate-crust.xmf,223,1.52393e-07,2.62471e-07,0,-2.21037e-07,-1.06057e+08,-1.06049e+08,-1.06067e+08,-15163.1,0.00529835,0.139222,0,0.139323,14826.6,-3862.14,0,15321.3,15163.1
step02_gravity_refstate-crust.xmf,224,1.67806e-07,4.06615e-07,0,-2.97712e-07,-1.58129e+08,-1.58113e+08,-1.58141e+08,-20423,0.00453958,0.13955,0,0.139624,13646.2,-5758.16,0,14811.3,20423
step02_gravity_refstate-crust.xmf,225,1.88003e-07,5.37789e-07,0,-3.51967e-07,-2.09539e+08,-2.09516e+08,-2.09552e+08,-24144.9,0.00398014,0.139807,0,0.139863,12244.5,-7630.09,0,14427.2,24144.9
step02_gravity_refstate-crust.xmf,226,4.71511e-07,1.0591e-06,0,5.78991e-07,-5.50385e+08,-5.50345e+08,-5.50418e+08,39718.8,-0.00371254,0.13406,-0,0.134111,-6235.08,-20040.9,-0,20988.4,39718.8
step02_gravity_refstate-crust.xmf,227,7.31603e-07,8.96775e-07,0,4.2076e-07,-6.21846e+08,-6.21835e+08,-6.21896e+08,28864.1,-0.00253703,0.133857,-0,0.133881,-3236.4,-22643.3,-0,22873.4,28864.1
step02_gravity_refstate-crust.xmf,228,7.86785e-07,8.34419e-07,0,2.62752e-07,-6.23112e+08,-6.23108e+08,-6.23166e+08,18024.8,-0.00155658,0.134496,-0,0.134505,-1934.26,-22689.5,-0,22771.8,18024.8
step02_gravity_refstate-crust.xmf,229,-9.99792e-09,7.65166e-07,0,4.14515e-07,-2.42001e+08,-2.41948e+08,-2.42e+08,28435.7,-0.00443501,0.133211,-0,0.133285,-18785.9,-8811.43,-0,20749.7,28435.7
step02_gravity_refstate-crust.xmf,230,-6.63851e-08,7.85463e-07,0,3.89816e-07,-2.36992e+08,-2.36933e+08,-2.36987e+08,26741.4,-0.00437012,0.131359,-0,0.131431,-20968.6,-8628.86,-0,22674.6,26741.4
step02_gravity_refstate-crust.xmf,231,-1.18736e-07,7.78152e-07,0,3.49254e-07,-2.2541e+08,-2.25349e+08,-2.25402e+08,23958.8,-0.00421853,0.129762,-0,0.12983,-23182.7,-8207,-0,24592.6,23958.8
step02_gravity_refstate-crust.xmf,232,-1.67989e-07,7.69962e-07,0,3.03974e-07,-2.15076e+08,-2.15012e+08,-2.15065e+08,20852.6,-0.00395103,0.128251,-0,0.128312,-25424.5,-7830.58,-0,26603.1,20852.6
step02_gravity_refstate-crust.xmf,233,-2.15565e-07,7.5931e-07,0,2.52823e-07,-2.04989e+08,-2.04923e+08,-2.04975e+08,17343.7,-0.00354558,0.126817,-0,0.126867,-27819.5,-7463.15,-0,28803.2,17343.7
step02_gravity_refstate-crust.xmf,234,5.23179e-08,9.1175e-07,0,4.97573e-07,-3.05819e+08,-3.0576e+08,-3.05823e+08,34133.5,-0.00429212,0.13393,-0,0.133999,-15976.7,-11135.3,-0,19474.3,34133.5
step02_gravity_refstate-crust.xmf,235,1.91162e-07,9.65353e-07,0,5.35056e-07,-3.7554e+08,-3.75487e+08,-3.75553e+08,36704.8,-0.00394344,0.136091,-0,0.136148,-11237,-13674.2,-0,17699,36704.8
step02_gravity_refstate-crust.xmf,236,2.20619e-07,1.04406e-06,0,5.71685e-07,-4.19279e+08,-4.19222e+08,-4.19294e+08,39217.6,-0.00403301,0.135233,-0,0.135293,-10446,-15266.8,-0,18498.5,39217.6
step02_gravity_refstate-crust.xmf,237,2.57852e-07,1.12922e-06,0,6.21034e-07,-4.70002e+08,-4.69942e+08,-4.70019e+08,42602.9,-0.00423139,0.133954,-0,0.134021,-9698.33,-17113.7,-0,19670.7,42602.9
step02_gravity_refstate-crust.xmf,238,3.32011e-07,1.13769e-06,0,6.2719e-07,-5.09034e+08,-5.08978e+08,-5.09056e+08,43025.2,-0.00419156,0.133649,-0,0.133714,-8398.12,-18535,-0,20348.8,43025.2
step02_gravity_refstate-crust.xmf,239,-3.16651e-07,5.51463e-07,0,1.33292e-07,-1.3284e+08,-1.3278e+08,-1.32818e+08,9143.82,-0.0030864,0.126459,-0,0.126497,-31461.9,-4835.73,-0,31831.4,9143.82
step02_gravity_refstate-crust.xmf,240,-4.37049e-07,3.80721e-07,0,4.32485e-08,-6.77977e+07,-6.77416e+07,-6.77677e+07,2966.85,-0.00210086,0.126135,-0,0.126152,-35365.1,-2467.06,-0,35451.1,2966.85
step02_gravity_refstate-crust.xmf,241,-5.63454e-07,2.13598e-07,0,1.05862e-09,-53533,-227.208,-14880.1,72.6217,-0.00178921,0.126547,-0,0.12656,-36863.6,0,-0,36863.6,72.6217
step02_gravity_refstate-crust.xmf,242,4.53128e-07,7.72624e-07,0,-2.01376e-07,-4.14007e+08,-4.13985e+08,-4.14038e+08,-13814.4,0.00136538,0.140531,0,0.140538,2917.19,-15075.4,0,15355,13814.4
step02_gravity_refstate-crust.xmf,243,5.06356e-07,7.98041e-07,0,-1.51056e-07,-4.52619e+08,-4.52599e+08,-4.52654e+08,-10362.5,0.000996843,0.139704,0,0.139707,1942.16,-16481.3,0,16595.4,10362.5
step02_gravity_refstate-crust.xmf,244,5.65027e-07,8.15071e-07,0,-9.25922e-08,-4.91278e+08,-4.91261e+08,-4.91316e+08,-6351.82,0.000600843,0.138737,0,0.138739,1061.51,-17889,0,17920.5,6351.82
step02_gravity_refstate-crust.xmf,245,6.27935e-07,8.26288e-07,0,-4.10134e-08,-5.30294e+08,-5.30281e+08,-5.30337e+08,-2813.52,0.000264049,0.137637,0,0.137637,420.651,-19309.7,0,19314.3,2813.52
step02_gravity_refstate-crust.xmf,246,6.89206e-07,8.27536e-07,0,4.01129e-08,-5.64262e+08,-5.64252e+08,-5.64309e+08,2751.74,-0.000241358,0.136618,-0,0.136618,-351.127,-20546.6,-0,20549.6,2751.74
step02_gravity_refstate-crust.xmf,247,7.4203e-07,8.29024e-07,0,1.49169e-07,-5.94476e+08,-5.9447e+08,-5.94527e+08,10233,-0.000896082,0.135588,-0,0.135591,-1200.74,-21646.8,-0,21680,10233
step02_gravity_refstate-crust.xmf,248,2.92456e-07,6.71405e-07,0,-3.50836e-07,-2.96014e+08,-2.95988e+08,-2.96035e+08,-24067.4,0.00285988,0.141144,0,0.141173,7860.29,-10778.9,0,13340.5,24067.4
step02_gravity_refstate-crust.xmf,249,3.25992e-07,7.39762e-07,0,-3.52114e-07,-3.39366e+08,-3.39338e+08,-3.39389e+08,-24155,0.00263025,0.140712,0,0.140736,6788.55,-12357.4,0,14099.3,24155
step02_gravity_refstate-crust.xmf,250,-7.17472e-08,1.95436e-07,0,-1.17059e-07,-5.37954e+07,-5.37771e+07,-5.37905e+07,-8030.25,0.00648721,0.134558,0,0.134714,21016.4,-1958.49,0,21107.5,8030.25
step02_gravity_refstate-crust.xmf,251,-1.64278e-07,6.13245e-08,0,-2.73975e-09,-15648.3,-171.972,-4378.83,-187.947,0.00759552,0.133644,0,0.13386,22522.7,0,0,22522.7,187.947
step02_gravity_refstate-crust.xmf,252,2.13937e-07,6.41176e-07,0,-3.88473e-07,-2.56385e+08,-2.56356e+08,-2.564e+08,-26649.2,0.00360871,0.139867,0,0.139914,10911.1,-9335.81,0,14360,26649.2
step02_gravity_refstate-crust.xmf,253,6.75465e-08,2.99935e-07,0,-2.24558e-07,-1.06132e+08,-1.06116e+08,-1.06137e+08,-15404.7,0.00555942,0.137237,0,0.137349,17209,-3864.58,0,17637.6,15404.7
step02_gravity_refstate-crust.xmf,254,5.39184e-07,1.063e-06,0,6.00165e-07,-5.86425e+08,-5.86389e+08,-5.86462e+08,41171.3,-0.00378791,0.133152,-0,0.133206,-5701.66,-21353.2,-0,22101.3,41171.3
step02_gravity_refstate-crust.xmf,255,3.84048e-07,1.15927e-06,0,6.6231e-07,-5.46503e+08,-5.4645e+08,-5.46529e+08,45434.5,-0.00432023,0.132747,-0,0.132817,-7743.18,-19899.3,-0,21352.8,45434.5
step02_gravity_refstate-crust.xmf,256,8.23067e-07,8.41993e-07,0,3.8441e-07,-6.51847e+08,-6.51846e+08,-6.51904e+08,26370.5,-0.00225984,0.133292,-0,0.133311,-2607,-23735.8,-0,23878.5,26370.5
step02_gravity_refstate-crust.xmf,257,6.796e-07,9.71077e-07,0,5.54253e-07,-6.27155e+08,-6.27135e+08,-6.27202e+08,38021.7,-0.00334894,0.132865,-0,0.132907,-4325.61,-22836.5,-0,23242.5,38021.7
step02_gravity_refstate-crust.xmf,258,-2.61539e-07,7.58022e-07,0,2.01362e-07,-1.98845e+08,-1.98775e+08,-1.98827e+08,13813.4,-0.00297309,0.125453,-0,0.125488,-30349.9,-7239.27,-0,31201.3,13813.4
step02_gravity_refstate-crust.xmf,259,-3.22348e-09,9.38479e-07,0,4.84792e-07,-2.99169e+08,-2.99104e+08,-2.99168e+08,33256.7,-0.00433812,0.132183,-0,0.132254,-18000.2,-10893,-0,21039.6,33256.7
step02_gravity_refstate-crust.xmf,260,1.28532e-07,1.00653e-06,0,5.50775e-07,-3.65146e+08,-3.65085e+08,-3.65155e+08,37783.2,-0.00419226,0.134678,-0,0.134743,-13097.7,-13295.6,-0,18663.4,37783.2
step02_gravity_refstate-crust.xmf,261,6.31128e-08,1.05797e-06,0,5.5865e-07,-3.5985e+08,-3.59781e+08,-3.59854e+08,38323.4,-0.00436496,0.13283,-0,0.132901,-15135.1,-13102.6,-0,20018.7,38323.4
step02_gravity_refstate-crust.xmf,262,2.55666e-07,1.24257e-06,0,6.90224e-07,-5.13137e+08,-5.1307e+08,-5.13155e+08,47349.4,-0.00466987,0.131879,-0,0.131961,-9898.15,-18684.2,-0,21144.1,47349.4
step02_gravity_refstate-crust.xmf,263,-3.56158e-07,5.5717e-07,0,9.10641e-08,-1.29774e+08,-1.29712e+08,-1.2975e+08,6247,-0.00220677,0.125439,-0,0.125459,-34139.2,-4723.99,-0,34464.5,6247
step02_gravity_refstate-crust.xmf,264,-4.65827e-07,3.70554e-07,0,1.71902e-08,-6.08272e+07,-6.07698e+07,-6.07952e+07,1179.25,-0.00104271,0.125771,-0,0.125775,-37781.3,-2213.16,-0,37846.1,1179.25
step02_gravity_refstate-crust.xmf,265,-5.67383e-07,2.14349e-07,0,-2.00657e-09,-53937.7,-310.877,-15015.2,-137.651,-2.15667e-19,0.126283,-0,0.126283,-40000,0,-0,40000,137.651
step02_gravity_refstate-crust.xmf,266,3.69016e-07,7.86906e-07,0,-3.38886e-07,-3.79484e+08,-3.79455e+08,-3.79509e+08,-23247.5,0.00239251,0.140242,0,0.140262,5701.71,-13818.2,0,14948.3,23247.5
step02_gravity_refstate-crust.xmf,267,4.20487e-07,8.19764e-07,0,-3.14407e-07,-4.18829e+08,-4.18801e+08,-4.18858e+08,-21568.3,0.00213402,0.139665,0,0.139681,4639.05,-15250.8,0,15940.8,21568.3
step02_gravity_refstate-crust.xmf,268,8.20774e-07,7.97101e-07,0,8.70866e-08,-6.25736e+08,-6.25737e+08,-6.25792e+08,5974.14,-0.000507102,0.134766,-0,0.134767,-618.217,-22785.1,-0,22793.5,5974.14
step02_gravity_refstate-crust.xmf,269,-1.71744e-07,2.35831e-07,0,-1.10844e-07,-5.49442e+07,-5.49162e+07,-5.49324e+07,-7603.89,0.0061477,0.132547,0,0.13269,23593.9,-1999.97,0,23678.5,7603.89
step02_gravity_refstate-crust.xmf,270,-2.78083e-07,1.04225e-07,0,-3.12734e-09,-26471,-244.653,-7394.51,-214.536,0.00699782,0.131712,0,0.131898,25237.6,0,0,25237.6,214.536
step02_gravity_refstate-crust.xmf,271,2.401e-07,7.31607e-07,0,-4.10568e-07,-3.01431e+08,-3.01397e+08,-3.01447e+08,-28165,0.00336485,0.139673,0,0.139714,9717.03,-10976,0,14659.2,28165
step02_gravity_refstate-crust.xmf,272,-1.54295e-08,3.39528e-07,0,-2.18722e-07,-1.06751e+08,-1.06726e+08,-1.0675e+08,-15004.3,0.00561113,0.135199,0,0.135315,19608.9,-3886.83,0,19990.4,15004.3
step02_gravity_refstate-crust.xmf,273,9.23866e-08,4.40936e-07,0,-3.05867e-07,-1.56431e+08,-1.56407e+08,-1.56438e+08,-20982.4,0.00486656,0.137552,0,0.137638,16042.9,-5696.1,0,17024.1,20982.4
step02_gravity_refstate-crust.xmf,274,1.15451e-07,6.12193e-07,0,-3.88508e-07,-2.19496e+08,-2.19462e+08,-2.19504e+08,-26651.6,0.00430589,0.137564,0,0.137632,14638.7,-7992.39,0,16678.4,26651.6
step02_gravity_refstate-crust.xmf,275,1.53801e-07,7.06116e-07,0,-4.26247e-07,-2.62858e+08,-2.6282e+08,-2.62869e+08,-29240.5,0.00397289,0.138037,0,0.138094,12913.3,-9571.33,0,16073.7,29240.5
step02_gravity_refstate-crust.xmf,276,8.78551e-07,7.82376e-07,0,2.0833e-07,-6.53744e+08,-6.53751e+08,-6.53804e+08,14291.4,-0.00119892,0.133802,-0,0.133808,-1350.34,-23805,-0,23843.2,14291.4
step02_gravity_refstate-crust.xmf,277,4.42859e-07,1.16758e-06,0,6.94585e-07,-5.81851e+08,-5.81801e+08,-5.81881e+08,47648.5,-0.00444059,0.131894,-0,0.131969,-7129.79,-21186.5,-0,22354,47648.5
step02_gravity_refstate-crust.xmf,278,5.97567e-07,1.06157e-06,0,6.36778e-07,-6.18844e+08,-6.18813e+08,-6.18885e+08,43683,-0.00393619,0.132208,-0,0.132267,-5376.98,-22533.7,-0,23166.4,43683
step02_gravity_refstate-crust.xmf,279,7.54845e-07,9.26466e-07,0,5.44918e-07,-6.51401e+08,-6.51389e+08,-6.51453e+08,37381.4,-0.00322273,0.132438,-0,0.132477,-3830.21,-23719.4,-0,24026.7,37381.4
step02_gravity_refstate-crust.xmf,280,-5.69241e-08,9.63458e-07,0,4.60392e-07,-2.93569e+08,-2.93499e+08,-2.93565e+08,31582.9,-0.00427565,0.13034,-0,0.13041,-20119.5,-10688.9,-0,22782.6,31582.9
step02_gravity_refstate-crust.xmf,281,-1.06107e-07,9.76666e-07,0,4.23744e-07,-2.86486e+08,-2.86412e+08,-2.86479e+08,29068.8,-0.0041063,0.128585,-0,0.12865,-22291.2,-10430.9,-0,24611,29068.8
step02_gravity_refstate-crust.xmf,282,-1.50885e-07,9.78694e-07,0,3.77088e-07,-2.78054e+08,-2.77977e+08,-2.78044e+08,25868.2,-0.0038343,0.126956,-0,0.127014,-24530.4,-10123.7,-0,26537.3,25868.2
step02_gravity_refstate-crust.xmf,283,-1.90852e-07,9.73988e-07,0,3.2433e-07,-2.69487e+08,-2.69407e+08,-2.69474e+08,22249.1,-0.00346546,0.125488,-0,0.125536,-26809,-9811.67,-0,28548.1,22249.1
step02_gravity_refstate-crust.xmf,284,-2.27057e-07,9.73373e-07,0,2.66469e-07,-2.63378e+08,-2.63296e+08,-2.63363e+08,18279.8,-0.00297281,0.124068,-0,0.124104,-29233.4,-9589.14,-0,30766,18279.8
step02_gravity_refstate-crust.xmf,285,3.8465e-09,1.10144e-06,0,5.50107e-07,-3.54791e+08,-3.54716e+08,-3.54792e+08,37737.3,-0.0044139,0.130979,-0,0.131053,-17136.5,-12918.3,-0,21460.2,37737.3
step02_gravity_refstate-crust.xmf,286,1.47068e-07,1.11089e-06,0,6.0295e-07,-4.13185e+08,-4.13119e+08,-4.13196e+08,41362.4,-0.00434486,0.133568,-0,0.133638,-12356.7,-15044.7,-0,19468.7,41362.4
step02_gravity_refstate-crust.xmf,287,1.74266e-07,1.1924e-06,0,6.47837e-07,-4.56351e+08,-4.56281e+08,-4.56363e+08,44441.6,-0.00452364,0.132586,-0,0.132663,-11563.2,-16616.5,-0,20243.9,44441.6
step02_gravity_refstate-crust.xmf,288,1.80754e-07,1.30111e-06,0,7.08527e-07,-5.01124e+08,-5.01048e+08,-5.01137e+08,48604.9,-0.00487143,0.130782,-0,0.130873,-11353.3,-18246.7,-0,21490.4,48604.9
step02_gravity_refstate-crust.xmf,289,2.96897e-07,1.26931e-06,0,7.21538e-07,-5.44642e+08,-5.44575e+08,-5.44662e+08,49497.5,-0.00480947,0.131183,-0,0.131272,-9239.27,-19831.4,-0,21878,49497.5
step02_gravity_refstate-crust.xmf,290,-2.95815e-07,7.60311e-07,0,1.47531e-07,-1.95061e+08,-1.94989e+08,-1.95041e+08,10120.6,-0.00226776,0.124319,-0,0.124339,-32942.1,-7101.39,-0,33698.8,10120.6
step02_gravity_refstate-crust.xmf,291,-3.78458e-07,5.69158e-07,0,4.54609e-08,-1.31048e+08,-1.30983e+08,-1.31022e+08,3118.62,-0.00109035,0.12466,-0,0.124665,-37158,-4770.28,-0,37462.9,3118.62
step02_gravity_refstate-crust.xmf,292,-4.33493e-07,4.41813e-07,0,-1.09889e-09,-8.69012e+07,-8.68411e+07,-8.68714e+07,-75.3842,-2.21014e-19,0.125244,-0,0.125244,-40000,-3162.65,-0,40124.8,75.3842
step02_gravity_refstate-crust.xmf,293,4.79469e-07,8.38752e-07,0,-2.78199e-07,-4.57016e+08,-4.56991e+08,-4.57049e+08,-19084.4,0.0018351,0.138999,0,0.139011,3614.69,-16641.4,0,17029.4,19084.4
step02_gravity_refstate-crust.xmf,294,5.45023e-07,8.45869e-07,0,-2.31286e-07,-4.94511e+08,-4.9449e+08,-4.94548e+08,-15866.2,0.00149158,0.138235,0,0.138243,2652,-18006.7,0,18200.9,15866.2
step02_gravity_refstate-crust.xmf,295,6.13519e-07,8.44962e-07,0,-1.81907e-07,-5.30905e+08,-5.30889e+08,-5.30947e+08,-12478.8,0.00114997,0.137371,0,0.137376,1846.26,-19331.9,0,19419.9,12478.8
step02_gravity_refstate-crust.xmf,296,6.87448e-07,8.33401e-07,0,-1.17466e-07,-5.66314e+08,-5.66304e+08,-5.66361e+08,-8058.17,0.000730388,0.13647,0,0.136472,1058.47,-20621.3,0,20648.4,8058.17
step02_gravity_refstate-crust.xmf,297,7.58938e-07,8.1477e-07,0,-2.47435e-08,-5.97607e+08,-5.97603e+08,-5.97659e+08,-1697.4,0.000159385,0.135626,0,0.135626,210.734,-21760.8,0,21761.8,1697.4
step02_gravity_refstate-crust.xmf,298,2.76317e-07,8.00858e-07,0,-4.25208e-07,-3.4426e+08,-3.44224e+08,-3.44279e+08,-29169.3,0.00319004,0.139332,0,0.139368,8594.41,-12535.5,0,15198.8,29169.3
step02_gravity_refstate-crust.xmf,299,3.20027e-07,8.52954e-07,0,-4.27552e-07,-3.85361e+08,-3.85325e+08,-3.85383e+08,-29330.1,0.0030311,0.138911,0,0.138944,7482.08,-14032.1,0,15902.2,29330.1
step02_gravity_refstate-crust.xmf,300,-9.53863e-08,3.75242e-07,0,-2.06167e-07,-1.07189e+08,-1.07157e+08,-1.07182e+08,-14143,0.00546549,0.133187,0,0.1333,22029.2,-3902.51,0,22372.2,14143
step02_gravity_refstate-crust.xmf,301,-2.5519e-07,2.91134e-07,0,-1.09985e-07,-6.22867e+07,-6.22493e+07,-6.22692e+07,-7544.96,0.00544519,0.130571,0,0.130685,26262.1,-2267.03,0,26359.7,7544.96
step02_gravity_refstate-crust.xmf,302,1.83793e-07,7.98347e-07,0,-4.62051e-07,-3.07623e+08,-3.07581e+08,-3.07636e+08,-31696.7,0.00378487,0.13792,0,0.137972,11636.7,-11201.3,0,16151.8,31696.7
step02_gravity_refstate-crust.xmf,303,1.89414e-08,4.87456e-07,0,-3.08191e-07,-1.59416e+08,-1.59384e+08,-1.59418e+08,-21141.9,0.00496618,0.135496,0,0.135587,18339.5,-5804.54,0,19236.2,21141.9
step02_gravity_refstate-crust.xmf,304,1.02638e-07,7.79212e-07,0,-4.55159e-07,-2.74355e+08,-2.74309e+08,-2.74362e+08,-31223.9,0.0041748,0.136263,0,0.136327,14538.5,-9989.79,0,17639.9,31223.9
step02_gravity_refstate-crust.xmf,305,-3.78249e-07,1.42181e-07,0,-3.16896e-09,-35988.4,-286.81,-10040.4,-217.391,0.00608652,0.129955,0,0.130097,28021.6,0,0,28021.6,217.391
step02_gravity_refstate-crust.xmf,306,9.29939e-07,7.66086e-07,0,3.43997e-07,-6.8177e+08,-6.81781e+08,-6.81834e+08,23598.2,-0.00195055,0.132729,-0,0.132743,-2033.3,-24825.5,-0,24908.6,23598.2
step02_gravity_refstate-crust.xmf,307,5.02795e-07,1.17347e-06,0,7.29653e-07,-6.1489e+08,-6.14844e+08,-6.14925e+08,50054.2,-0.00459134,0.131014,-0,0.131094,-6651.06,-22389.6,-0,23356.6,50054.2
step02_gravity_refstate-crust.xmf,308,3.45394e-07,1.28649e-06,0,7.65263e-07,-5.79674e+08,-5.79609e+08,-5.79698e+08,52497,-0.00498738,0.130329,-0,0.130424,-8578.59,-21107,-0,22783.7,52497
step02_gravity_refstate-crust.xmf,309,8.50816e-07,8.63569e-07,0,5.27436e-07,-6.80046e+08,-6.80045e+08,-6.80104e+08,36182.1,-0.00304364,0.131954,-0,0.131989,-3274.1,-24762.5,-0,24978,36182.1
step02_gravity_refstate-crust.xmf,310,6.65617e-07,1.03417e-06,0,6.7384e-07,-6.49546e+08,-6.49521e+08,-6.49592e+08,46225.4,-0.004045,0.131397,-0,0.131459,-5015.47,-23651.7,-0,24177.6,46225.4
step02_gravity_refstate-crust.xmf,311,-2.60841e-07,9.73467e-07,0,2.04701e-07,-2.58884e+08,-2.588e+08,-2.58866e+08,14042.5,-0.00235308,0.122806,-0,0.122829,-31816.2,-9425.39,-0,33183,14042.5
step02_gravity_refstate-crust.xmf,312,-5.12254e-08,1.13465e-06,0,5.2589e-07,-3.48664e+08,-3.48583e+08,-3.4866e+08,36076,-0.00434813,0.129104,-0,0.129177,-19228.3,-12695,-0,23041.1,36076
step02_gravity_refstate-crust.xmf,313,7.66458e-08,1.18211e-06,0,6.1374e-07,-4.08935e+08,-4.08859e+08,-4.0894e+08,42102.6,-0.0045385,0.13167,-0,0.131748,-14328.1,-14889.8,-0,20664,42102.6
step02_gravity_refstate-crust.xmf,314,1.10203e-08,1.24317e-06,0,6.0864e-07,-4.05119e+08,-4.05034e+08,-4.0512e+08,41752.7,-0.00460259,0.129691,-0,0.129773,-16318.5,-14750.7,-0,21997.2,41752.7
step02_gravity_refstate-crust.xmf,315,2.06727e-07,1.37429e-06,0,7.5909e-07,-5.40886e+08,-5.40806e+08,-5.409e+08,52073.6,-0.00516084,0.1295,-0,0.129602,-10801.7,-19694.4,-0,22462.2,52073.6
step02_gravity_refstate-crust.xmf,316,-3.23607e-07,7.40162e-07,0,9.4374e-08,-1.85812e+08,-1.85739e+08,-1.85789e+08,6474.05,-0.00156167,0.123754,-0,0.123764,-35332.7,-6764.49,-0,35974.4,6474.05
step02_gravity_refstate-crust.xmf,317,3.73225e-07,8.85331e-07,0,-4.17545e-07,-4.24197e+08,-4.24161e+08,-4.24222e+08,-28643.6,0.00284822,0.138458,0,0.138487,6373.44,-15446.2,0,16709.4,28643.6
step02_gravity_refstate-crust.xmf,318,4.35568e-07,9.00887e-07,0,-3.95645e-07,-4.61839e+08,-4.61807e+08,-4.61869e+08,-27141.2,0.00262247,0.137947,0,0.137972,5283.73,-16816.9,0,17627.4,27141.2
step02_gravity_refstate-crust.xmf,319,8.28888e-07,7.94285e-07,0,-9.24876e-08,-6.29342e+08,-6.29344e+08,-6.29399e+08,-6344.65,0.000550995,0.134656,0,0.134657,664.871,-22916.4,0,22926,6344.65
step02_gravity_refstate-crust.xmf,320,9.03189e-07,7.55492e-07,0,1.6809e-08,-6.56137e+08,-6.56147e+08,-6.56199e+08,1153.1,-8.96716e-05,0.133947,-0,0.133947,-99.5591,-23892.1,-0,23892.3,1153.1
step02_gravity_refstate-crust.xmf,321,9.7658e-07,7.1724e-07,0,1.40296e-07,-6.83593e+08,-6.83611e+08,-6.8366e+08,9624.29,-0.000780042,0.133132,-0,0.133134,-797.155,-24892,-0,24904.7,9624.29
step02_gravity_refstate-crust.xmf,322,-1.77009e-07,4.0413e-07,0,-1.87106e-07,-1.06352e+08,-1.06313e+08,-1.0634e+08,-12835.5,0.00514155,0.131272,0,0.131372,24495,-3871.78,0,24799.1,12835.5
step02_gravity_refstate-crust.xmf,323,2.18072e-07,8.73474e-07,0,-4.83452e-07,-3.49881e+08,-3.49836e+08,-3.49896e+08,-33164.8,0.0036633,0.137684,0,0.137733,10420.1,-12740,0,16458.6,33164.8
step02_gravity_refstate-crust.xmf,324,-5.00717e-08,5.26092e-07,0,-2.95343e-07,-1.60142e+08,-1.60103e+08,-1.60139e+08,-20260.5,0.00492094,0.13346,0,0.133551,20662.7,-5830.75,0,21469.7,20260.5
step02_gravity_refstate-crust.xmf,325,4.33432e-08,6.38406e-07,0,-3.8527e-07,-2.12815e+08,-2.12774e+08,-2.12818e+08,-26429.5,0.00453499,0.135472,0,0.135548,17136.9,-7748.89,0,18807.4,26429.5
step02_gravity_refstate-crust.xmf,326,5.78071e-08,7.84074e-07,0,-4.50964e-07,-2.64655e+08,-2.64606e+08,-2.64659e+08,-30936.1,0.00431502,0.13503,0,0.135099,16157.5,-9636.49,0,18813,30936.1
step02_gravity_refstate-crust.xmf,327,1.19e-07,8.86141e-07,0,-5.01639e-07,-3.17929e+08,-3.17876e+08,-3.17937e+08,-34412.4,0.00411262,0.135756,0,0.135819,13666.5,-11576.4,0,17910.5,34412.4
step02_gravity_refstate-crust.xmf,328,-3.26866e-07,3.42432e-07,0,-9.84002e-08,-6.95406e+07,-6.94947e+07,-6.95182e+07,-6750.25,0.00450257,0.128709,0,0.128787,29125.4,-2530.9,0,29235.2,6750.25
step02_gravity_refstate-crust.xmf,329,-4.49215e-07,1.71892e-07,0,-1.40537e-09,-42611.2,-3.27384,-11795.1,-96.4081,0.00488822,0.128456,0,0.128549,30882.2,0,0,30882.2,96.4081
step02_gravity_refstate-crust.xmf,330,3.98461e-07,1.28953e-06,0,8.02626e-07,-6.10202e+08,-6.10141e+08,-6.10229e+08,55060.2,-0.00513223,0.129628,-0,0.12973,-7980.3,-22218.6,-0,23608.3,55060.2
step02_gravity_refstate-crust.xmf,331,5.62469e-07,1.1658e-06,0,7.73884e-07,-6.46312e+08,-6.46271e+08,-6.46351e+08,53088.4,-0.00476149,0.130147,-0,0.130234,-6246.94,-23533.7,-0,24348.7,53088.4
step02_gravity_refstate-crust.xmf,332,7.52698e-07,9.81824e-07,0,6.90456e-07,-6.78402e+08,-6.78386e+08,-6.78453e+08,47365.3,-0.00402729,0.130846,-0,0.130908,-4520.7,-24702.5,-0,25112.7,47365.3
step02_gravity_refstate-crust.xmf,333,-1.00503e-07,1.15888e-06,0,4.89283e-07,-3.42446e+08,-3.4236e+08,-3.42439e+08,33564.8,-0.00417453,0.127256,-0,0.127324,-21376.8,-12468.5,-0,24747.3,33564.8
step02_gravity_refstate-crust.xmf,334,-1.43582e-07,1.17575e-06,0,4.432e-07,-3.36629e+08,-3.36539e+08,-3.3662e+08,30403.5,-0.00390239,0.125483,-0,0.125544,-23566.3,-12256.6,-0,26563,30403.5
step02_gravity_refstate-crust.xmf,335,-1.80129e-07,1.17966e-06,0,3.88897e-07,-3.29483e+08,-3.2939e+08,-3.29471e+08,26678.3,-0.00354224,0.123913,-0,0.123964,-25791.6,-11996.3,-0,28445,26678.3
step02_gravity_refstate-crust.xmf,336,-2.11733e-07,1.18089e-06,0,3.28672e-07,-3.2339e+08,-3.23294e+08,-3.23375e+08,22546.9,-0.00309206,0.122454,-0,0.122493,-28103.5,-11774.3,-0,30470.4,22546.9
step02_gravity_refstate-crust.xmf,337,-2.3809e-07,1.18066e-06,0,2.6389e-07,-3.18469e+08,-3.18371e+08,-3.18452e+08,18102.9,-0.00255532,0.121158,-0,0.121185,-30501.2,-11595,-0,32630.8,18102.9
step02_gravity_refstate-crust.xmf,338,-4.79993e-08,1.2937e-06,0,5.86747e-07,-4.00807e+08,-4.00715e+08,-4.00804e+08,40250.8,-0.00454255,0.127694,-0,0.127774,-18361.5,-14593.6,-0,23454.6,40250.8
step02_gravity_refstate-crust.xmf,339,9.14598e-08,1.28346e-06,0,6.6788e-07,-4.53605e+08,-4.53523e+08,-4.53611e+08,45816.6,-0.00476873,0.1305,-0,0.130587,-13565.4,-16516.3,-0,21373,45816.6
step02_gravity_refstate-crust.xmf,340,1.04952e-07,1.3843e-06,0,7.22757e-07,-4.97162e+08,-4.97074e+08,-4.97169e+08,49581.2,-0.00506399,0.12909,-0,0.129189,-12954.2,-18102.2,-0,22259.9,49581.2
step02_gravity_refstate-crust.xmf,341,1.19904e-07,1.47183e-06,0,7.78165e-07,-5.37518e+08,-5.37425e+08,-5.37526e+08,53382.1,-0.00538359,0.127687,-0,0.127801,-12386.6,-19571.7,-0,23162,53382.1
step02_gravity_refstate-crust.xmf,342,2.44978e-07,1.41382e-06,0,8.08171e-07,-5.76511e+08,-5.76431e+08,-5.76528e+08,55440.5,-0.00540429,0.12855,-0,0.128664,-10120,-20991.7,-0,23303.7,55440.5
step02_gravity_refstate-crust.xmf,343,-2.8641e-07,9.82324e-07,0,1.29743e-07,-2.57999e+08,-2.57912e+08,-2.57979e+08,8900.38,-0.00151869,0.121626,-0,0.121635,-34872.2,-9393.06,-0,36115.1,8900.38
step02_gravity_refstate-crust.xmf,344,-3.17356e-07,8.41409e-07,0,5.6823e-08,-2.15257e+08,-2.15178e+08,-2.15235e+08,3898.06,-0.000801953,0.122445,-0,0.122447,-37497.2,-7836.67,-0,38307.3,3898.06
step02_gravity_refstate-crust.xmf,345,-3.49375e-07,6.9674e-07,0,-4.57629e-10,-1.70895e+08,-1.70823e+08,-1.70871e+08,-31.3934,-1.60431e-19,0.123502,-0,0.123502,-40000,-6221.26,-0,40480.9,31.3934
step02_gravity_refstate-crust.xmf,346,5.05619e-07,9.02406e-07,0,-3.64234e-07,-4.98807e+08,-4.9878e+08,-4.98842e+08,-24986.5,0.00235747,0.137345,0,0.137365,4262.24,-18163,0,18656.4,24986.5
step02_gravity_refstate-crust.xmf,347,5.80233e-07,8.92144e-07,0,-3.25915e-07,-5.34187e+08,-5.34166e+08,-5.34227e+08,-22357.7,0.00206427,0.136674,0,0.136689,3355.33,-19451.4,0,19738.6,22357.7
step02_gravity_refstate-crust.xmf,348,6.60956e-07,8.69864e-07,0,-2.79489e-07,-5.68844e+08,-5.6883e+08,-5.6889e+08,-19173,0.00173039,0.135943,0,0.135954,2529.6,-20713.4,0,20867.3,19173
step02_gravity_refstate-crust.xmf,349,7.53803e-07,8.3132e-07,0,-2.19592e-07,-6.05423e+08,-6.05418e+08,-6.05475e+08,-15064,0.00132818,0.135108,0,0.135114,1733.37,-22045.4,0,22113.4,15064
step02_gravity_refstate-crust.xmf,350,1.04534e-06,6.82629e-07,0,2.88888e-07,-7.1136e+08,-7.11385e+08,-7.11432e+08,19817.7,-0.00156877,0.132211,-0,0.13222,-1476.42,-25903.1,-0,25945.1,19817.7
step02_gravity_refstate-crust.xmf,351,2.61087e-07,9.30305e-07,0,-5.01593e-07,-3.91067e+08,-3.91021e+08,-3.91085e+08,-34409.3,0.00358288,0.137304,0,0.137351,9281.17,-14239.7,0,16997.3,34409.3
step02_gravity_refstate-crust.xmf,352,3.13466e-07,9.69181e-07,0,-5.08637e-07,-4.31062e+08,-4.31017e+08,-4.31083e+08,-34892.5,0.00349517,0.136882,0,0.136927,8137.42,-15696,0,17680,34892.5
step02_gravity_refstate-crust.xmf,353,-1.14103e-07,5.58925e-07,0,-2.75474e-07,-1.60708e+08,-1.60662e+08,-1.607e+08,-18897.5,0.00472332,0.131534,0,0.131618,22943.4,-5851.15,0,23677.8,18897.5
step02_gravity_refstate-crust.xmf,354,-2.22731e-07,5.35941e-07,0,-2.00666e-07,-1.39276e+08,-1.39224e+08,-1.39261e+08,-13765.7,0.00422673,0.128862,0,0.128931,27079.7,-5070.42,0,27550.3,13765.7
step02_gravity_refstate-crust.xmf,355,1.59352e-07,9.48735e-07,0,-5.28979e-07,-3.56054e+08,-3.56e+08,-3.56065e+08,-36288,0.00402781,0.135852,0,0.135911,12216.7,-12964.6,0,17813.7,36288
step02_gravity_refstate-crust.xmf,356,7.06926e-08,8.97875e-07,0,-4.98773e-07,-3.06837e+08,-3.0678e+08,-3.06842e+08,-34215.8,0.00425248,0.134537,0,0.134604,15316.5,-11172.4,0,18958.3,34215.8
step02_gravity_refstate-crust.xmf,357,-2.20599e-08,6.80439e-07,0,-3.77013e-07,-2.13528e+08,-2.1348e+08,-2.13526e+08,-25863.1,0.00455546,0.133388,0,0.133466,19412.1,-7774.66,0,20911.1,25863.1
step02_gravity_refstate-crust.xmf,358,-3.91318e-07,3.71668e-07,0,-7.22416e-08,-7.10932e+07,-7.10408e+07,-7.10663e+07,-4955.77,0.00331603,0.127094,0,0.127138,32373.5,-2587.21,0,32476.7,4955.77
step02_gravity_refstate-crust.xmf,359,-5.15691e-07,1.97304e-07,0,7.43499e-10,-48918,-6.53374,-13541.6,51.004,0.00344059,0.127294,0,0.127341,33826.9,0,0,33826.9,51.004
step02_gravity_refstate-crust.xmf,360,9.68922e-07,7.66666e-07,0,5.07123e-07,-7.09723e+08,-7.09737e+08,-7.09789e+08,34788.6,-0.00280647,0.131506,-0,0.131536,-2716.57,-25843.3,-0,25985.7,34788.6
step02_gravity_refstate-crust.xmf,361,4.50531e-07,1.30426e-06,0,8.54276e-07,-6.43212e+08,-6.43154e+08,-6.43243e+08,58603.4,-0.0053717,0.128642,-0,0.128754,-7536.24,-23420.6,-0,24603.3,58603.4
step02_gravity_refstate-crust.xmf,362,2.8983e-07,1.42225e-06,0,8.53559e-07,-6.06727e+08,-6.06649e+08,-6.06746e+08,58554.1,-0.00558588,0.127908,-0,0.12803,-9425.27,-22091.9,-0,24018.5,58554.1
step02_gravity_refstate-crust.xmf,363,8.59918e-07,9.05897e-07,0,6.93629e-07,-7.08126e+08,-7.08122e+08,-7.08185e+08,47582.9,-0.00392825,0.130412,-0,0.130471,-3960.41,-25784.9,-0,26087.3,47582.9
step02_gravity_refstate-crust.xmf,364,6.3473e-07,1.12884e-06,0,8.19719e-07,-6.76639e+08,-6.76605e+08,-6.76683e+08,56232.7,-0.00488222,0.129444,-0,0.129536,-5785.29,-24638,-0,25308.2,56232.7
step02_gravity_refstate-crust.xmf,365,-2.61355e-07,1.19476e-06,0,1.96853e-07,-3.18912e+08,-3.18812e+08,-3.18894e+08,13504.1,-0.00192503,0.119892,-0,0.119907,-33016.8,-11611.1,-0,34999,13504.1
step02_gravity_refstate-crust.xmf,366,-9.96146e-08,1.33303e-06,0,5.50699e-07,-3.96164e+08,-3.96066e+08,-3.96157e+08,37777.9,-0.00436809,0.125718,-0,0.125794,-20465.9,-14424.4,-0,25038.3,37777.9
step02_gravity_refstate-crust.xmf,367,2.02592e-08,1.36532e-06,0,6.63763e-07,-4.51081e+08,-4.50988e+08,-4.51082e+08,45534.2,-0.00485795,0.128404,-0,0.128496,-15513.2,-16424.2,-0,22592.4,45534.2
step02_gravity_refstate-crust.xmf,368,-4.50615e-08,1.43743e-06,0,6.44859e-07,-4.49449e+08,-4.49347e+08,-4.49446e+08,44237.3,-0.00481945,0.126215,-0,0.126307,-17505.2,-16364.7,-0,23963.2,44237.3
step02_gravity_refstate-crust.xmf,369,1.48788e-07,1.52713e-06,0,8.26093e-07,-5.71725e+08,-5.71631e+08,-5.71735e+08,56670,-0.00565471,0.126736,-0,0.126862,-11685.1,-20817.2,-0,23872.5,56670
step02_gravity_refstate-crust.xmf,370,3.77522e-07,9.84725e-07,0,-5.01147e-07,-4.68297e+08,-4.68255e+08,-4.68323e+08,-34378.7,0.00334778,0.136516,0,0.136557,6964.88,-17051.9,0,18419.4,34378.7
step02_gravity_refstate-crust.xmf,371,4.49905e-07,9.80733e-07,0,-4.82199e-07,-5.03639e+08,-5.03603e+08,-5.0367e+08,-33078.8,0.0031469,0.136121,0,0.136157,5848.58,-18338.8,0,19248.9,33078.8
step02_gravity_refstate-crust.xmf,372,8.24895e-07,8.12187e-07,0,-2.42878e-07,-6.3809e+08,-6.3809e+08,-6.38146e+08,-16661.4,0.00143261,0.134138,0,0.134146,1698.09,-23234.9,0,23296.9,16661.4
step02_gravity_refstate-crust.xmf,373,9.00909e-07,7.6383e-07,0,-1.72019e-07,-6.59791e+08,-6.598e+08,-6.59852e+08,-11800.5,0.00099474,0.133705,0,0.133708,1097.38,-24025.2,0,24050.2,11800.5
step02_gravity_refstate-crust.xmf,374,9.88329e-07,7.04835e-07,0,-7.4063e-08,-6.85588e+08,-6.85607e+08,-6.85656e+08,-5080.72,0.000422065,0.13314,0,0.133141,427.822,-24964.6,0,24968.3,5080.72
step02_gravity_refstate-crust.xmf,375,1.08207e-06,6.37738e-07,0,5.1426e-08,-7.13142e+08,-7.13172e+08,-7.13216e+08,3527.83,-0.000270936,0.132481,-0,0.132481,-251.131,-25968,-0,25969.2,3527.83
step02_gravity_refstate-crust.xmf,376,-1.67049e-07,5.88349e-07,0,-2.52226e-07,-1.62231e+08,-1.62179e+08,-1.6222e+08,-17302.7,0.00441256,0.129868,0,0.129943,25016.6,-5906.43,0,25704.4,17302.7
step02_gravity_refstate-crust.xmf,377,1.97256e-07,1.01277e-06,0,-5.53862e-07,-3.95957e+08,-3.95901e+08,-3.95971e+08,-37994.9,0.00401283,0.135545,0,0.135604,11035.5,-14417.6,0,18156.2,37994.9
step02_gravity_refstate-crust.xmf,378,-8.07187e-08,7.21786e-07,0,-3.56503e-07,-2.14984e+08,-2.14929e+08,-2.14979e+08,-24456.1,0.00442883,0.13134,0,0.131415,21673,-7827.51,0,23043.2,24456.1
step02_gravity_refstate-crust.xmf,379,-1.67243e-09,8.3373e-07,0,-4.4833e-07,-2.66541e+08,-2.66484e+08,-2.66541e+08,-30755.5,0.0043704,0.133005,0,0.133076,18242.4,-9704.98,0,20663.3,30755.5
step02_gravity_refstate-crust.xmf,380,1.63652e-08,9.85623e-07,0,-5.15698e-07,-3.20994e+08,-3.20927e+08,-3.20995e+08,-35376.9,0.00434456,0.132368,0,0.132439,17033.2,-11687.7,0,20657.5,35376.9
step02_gravity_refstate-crust.xmf,381,6.06506e-08,1.04101e-06,0,-5.50902e-07,-3.5323e+08,-3.53163e+08,-3.53234e+08,-37791.9,0.00435059,0.132945,0,0.133017,15270,-12861.5,0,19964.8,37791.9
step02_gravity_refstate-crust.xmf,382,1.0741e-07,1.02365e-06,0,-5.57224e-07,-3.64097e+08,-3.64034e+08,-3.64105e+08,-38225.5,0.00426345,0.134075,0,0.134143,13743.4,-13257.3,0,19095.5,38225.5
step02_gravity_refstate-crust.xmf,383,-4.66365e-07,3.25505e-07,0,-3.13694e-08,-4.70947e+07,-4.70403e+07,-4.70627e+07,-2151.94,0.00227684,0.126422,0,0.126443,35288,-1713.15,0,35329.5,2151.94
step02_gravity_refstate-crust.xmf,384,-5.6247e-07,2.13216e-07,0,-2.1735e-09,-53439.9,-227.901,-14854.5,-149.102,0.0017877,0.126547,0,0.12656,36863.6,0,0,36863.6,149.102
step02_gravity_refstate-crust.xmf,385,-2.87455e-07,5.78468e-07,0,-1.63392e-07,-1.4451e+08,-1.4445e+08,-1.4449e+08,-11208.7,0.00339332,0.126894,0,0.126939,30133.6,-5260.75,0,30589.4,11208.7
step02_gravity_refstate-crust.xmf,386,1.09604e-06,6.52854e-07,0,4.67054e-07,-7.37849e+08,-7.37879e+08,-7.37924e+08,32039.9,-0.00248595,0.131173,-0,0.131196,-2170.46,-26867.6,-0,26955.1,32039.9
step02_gravity_refstate-crust.xmf,387,1.16979e-06,5.7384e-07,0,2.12707e-07,-7.4018e+08,-7.40221e+08,-7.40261e+08,14591.7,-0.00110623,0.131753,-0,0.131758,-940.72,-26952.6,-0,26969,14591.7
step02_gravity_refstate-crust.xmf,388,3.30374e-07,1.44461e-06,0,9.11486e-07,-6.39255e+08,-6.39179e+08,-6.39278e+08,62527.9,-0.0058516,0.126929,-0,0.127064,-8906.94,-23276.3,-0,24922.3,62527.9
step02_gravity_refstate-crust.xmf,389,5.10241e-07,1.29397e-06,0,9.10262e-07,-6.74558e+08,-6.74505e+08,-6.74593e+08,62444,-0.00558143,0.127817,-0,0.127939,-7059.87,-24562,-0,25556.5,62444
step02_gravity_refstate-crust.xmf,390,7.29411e-07,1.06413e-06,0,8.53315e-07,-7.06336e+08,-7.06313e+08,-7.06386e+08,58537.4,-0.00491322,0.128966,-0,0.129059,-5228.12,-25719.5,-0,26245.5,58537.4
step02_gravity_refstate-crust.xmf,391,-1.43323e-07,1.36147e-06,0,5.03469e-07,-3.91438e+08,-3.91335e+08,-3.91428e+08,34538,-0.00409189,0.123821,-0,0.123889,-22620.8,-14252.2,-0,26736.2,34538
step02_gravity_refstate-crust.xmf,392,-1.79091e-07,1.37745e-06,0,4.47462e-07,-3.86087e+08,-3.8598e+08,-3.86075e+08,30695.9,-0.00372703,0.122088,-0,0.122145,-24817.8,-14057.3,-0,28522.4,30695.9
step02_gravity_refstate-crust.xmf,393,-2.07891e-07,1.38552e-06,0,3.85933e-07,-3.81025e+08,-3.80916e+08,-3.81011e+08,26475,-0.00329084,0.120532,-0,0.120577,-27041.2,-13872.9,-0,30392.1,26475
step02_gravity_refstate-crust.xmf,394,-2.30618e-07,1.38442e-06,0,3.20038e-07,-3.75462e+08,-3.75351e+08,-3.75446e+08,21954.6,-0.00279194,0.119222,-0,0.119254,-29303.5,-13670.3,-0,32335.3,21954.6
step02_gravity_refstate-crust.xmf,395,-2.4852e-07,1.38485e-06,0,2.51408e-07,-3.71838e+08,-3.71726e+08,-3.71821e+08,17246.6,-0.00223542,0.118061,-0,0.118083,-31620.6,-13538.3,-0,34396.9,17246.6
step02_gravity_refstate-crust.xmf,396,-1.01922e-07,1.49807e-06,0,6.09487e-07,-4.47517e+08,-4.47407e+08,-4.4751e+08,41810.8,-0.00465291,0.124005,-0,0.124092,-19581.4,-16294.2,-0,25474.2,41810.8
step02_gravity_refstate-crust.xmf,397,2.84892e-08,1.47191e-06,0,7.21283e-07,-4.94381e+08,-4.94282e+08,-4.94383e+08,49480,-0.00516018,0.127064,-0,0.127168,-14751.1,-18000.8,-0,23272.9,49480
step02_gravity_refstate-crust.xmf,398,4.03779e-08,1.56508e-06,0,7.76339e-07,-5.34161e+08,-5.34056e+08,-5.34163e+08,53256.9,-0.00548242,0.125761,-0,0.125881,-14031.1,-19449.2,-0,23982.2,53256.9
step02_gravity_refstate-crust.xmf,399,5.81409e-08,1.63722e-06,0,8.31263e-07,-5.70288e+08,-5.7018e+08,-5.70292e+08,57024.6,-0.00580171,0.124669,-0,0.124804,-13265.4,-20764.7,-0,24640.3,57024.6
step02_gravity_refstate-crust.xmf,400,1.81059e-07,1.56548e-06,0,8.78346e-07,-6.04003e+08,-6.03908e+08,-6.04016e+08,60254.5,-0.00592101,0.125864,-0,0.126003,-11000.5,-21992.5,-0,24590.3,60254.5
step02_gravity_refstate-crust.xmf,401,8.3882e-08,1.68762e-06,0,8.80219e-07,-6.00993e+08,-6.00883e+08,-6.00999e+08,60383.1,-0.00608528,0.123837,-0,0.123987,-12534.8,-21882.7,-0,25218.5,60383.1
step02_gravity_refstate-crust.xmf,402,-2.71515e-07,1.27013e-06,0,1.32896e-07,-3.37468e+08,-3.37362e+08,-3.37449e+08,9116.69,-0.0012659,0.118203,-0,0.118209,-35428.1,-12286.7,-0,37498.2,9116.69
step02_gravity_refstate-crust.xmf,403,-2.8664e-07,1.11251e-06,0,6.44966e-08,-2.93082e+08,-2.92986e+08,-2.93062e+08,4424.46,-0.000682647,0.119655,-0,0.119657,-37635.6,-10670.5,-0,39119,4424.46
step02_gravity_refstate-crust.xmf,404,-3.02731e-07,9.6991e-07,0,-3.49436e-10,-2.52255e+08,-2.52168e+08,-2.52234e+08,-23.9713,-1.34739e-19,0.121034,-0,0.121034,-40000,-9183.87,-0,41040.8,23.9713
step02_gravity_refstate-crust.xmf,405,5.26686e-07,9.66714e-07,0,-4.60854e-07,-5.38408e+08,-5.38377e+08,-5.38444e+08,-31614.6,0.00293954,0.135593,0,0.135625,4888.02,-19604.9,0,20205.1,31614.6
step02_gravity_refstate-crust.xmf,406,6.09784e-07,9.38579e-07,0,-4.30666e-07,-5.71579e+08,-5.71557e+08,-5.71621e+08,-29543.7,0.00268549,0.135045,0,0.135072,4007.39,-20812.8,0,21195.1,29543.7
step02_gravity_refstate-crust.xmf,407,6.96208e-07,9.00313e-07,0,-3.97584e-07,-6.03621e+08,-6.03607e+08,-6.03669e+08,-27274.2,0.0024228,0.134444,0,0.134466,3256.27,-21979.6,0,22219.5,27274.2
step02_gravity_refstate-crust.xmf,408,7.78545e-07,8.61109e-07,0,-3.78489e-07,-6.33823e+08,-6.33817e+08,-6.33876e+08,-25964.4,0.00225071,0.133772,0,0.133791,2745.55,-23079.4,0,23242.2,25964.4
step02_gravity_refstate-crust.xmf,409,2.44865e-07,1.06157e-06,0,-5.7991e-07,-4.37012e+08,-4.36956e+08,-4.37029e+08,-39781.8,0.00402696,0.135078,0,0.135138,9897.11,-15912.5,0,18739.3,39781.8
step02_gravity_refstate-crust.xmf,410,3.03401e-07,1.09938e-06,0,-6.02816e-07,-4.80628e+08,-4.80573e+08,-4.80648e+08,-41353.2,0.00405886,0.134444,0,0.134505,8767.95,-17500.7,0,19574.2,41353.2
step02_gravity_refstate-crust.xmf,411,-1.3302e-07,7.5048e-07,0,-3.27944e-07,-2.14783e+08,-2.14723e+08,-2.14774e+08,-22496.9,0.00419278,0.129505,0,0.129573,23850,-7820.02,0,25099.3,22496.9
step02_gravity_refstate-crust.xmf,412,-1.80063e-07,7.63656e-07,0,-2.89821e-07,-2.11308e+08,-2.11243e+08,-2.11295e+08,-19881.7,0.00386373,0.12789,0,0.127949,26044.1,-7693.32,0,27156.6,19881.7
step02_gravity_refstate-crust.xmf,413,1.34625e-07,1.09117e-06,0,-5.91265e-07,-4.0007e+08,-4.00004e+08,-4.00079e+08,-40560.8,0.00432177,0.133689,0,0.133759,12752,-14567.2,0,19360.2,40560.8
step02_gravity_refstate-crust.xmf,414,-5.96513e-08,8.81266e-07,0,-4.31951e-07,-2.68335e+08,-2.68271e+08,-2.68331e+08,-29631.9,0.00429952,0.130897,0,0.130967,20430.7,-9770.14,0,22646.6,29631.9
step02_gravity_refstate-crust.xmf,415,1.08702e-08,1.1275e-06,0,-5.66418e-07,-3.66686e+08,-3.66609e+08,-3.66686e+08,-38856.3,0.00444713,0.130907,0,0.130983,16737.2,-13351.3,0,21410.1,38856.3
step02_gravity_refstate-crust.xmf,416,-4.57856e-07,3.83688e-07,0,-2.16268e-08,-6.63359e+07,-6.62781e+07,-6.63045e+07,-1483.6,0.0011109,0.125719,0,0.125724,37592.4,-2413.77,0,37669.8,1483.6
step02_gravity_refstate-crust.xmf,417,-3.84186e-07,5.02688e-07,0,-6.62267e-08,-1.10934e+08,-1.10873e+08,-1.10907e+08,-4543.15,0.00192693,0.125489,0,0.125504,35174.6,-4037.87,0,35405.6,4543.15
step02_gravity_refstate-crust.xmf,418,-2.23932e-07,7.83095e-07,0,-2.45767e-07,-2.104e+08,-2.10331e+08,-2.10385e+08,-16859.6,0.00338104,0.126272,0,0.126317,28422.3,-7660.13,0,29436.5,16859.6
step02_gravity_refstate-crust.xmf,419,-3.19492e-07,6.36898e-07,0,-1.26764e-07,-1.57587e+08,-1.57521e+08,-1.57565e+08,-8696.03,0.00246826,0.125292,0,0.125317,32894.3,-5736.8,0,33390.8,8696.03
step02_gravity_refstate-crust.xmf,420,-5.66588e-07,2.13934e-07,0,2.14149e-09,-53867,-323.157,-14999.1,146.906,8.32639e-20,0.126283,0,0.126283,40000,0,0,40000,146.906
step02_gravity_refstate-crust.xmf,421,1.23567e-06,5.16306e-07,0,4.19736e-07,-7.65905e+08,-7.65955e+08,-7.6599e+08,28793.9,-0.00214043,0.130891,-0,0.130908,-1682.99,-27889.4,-0,27940.1,28793.9
step02_gravity_refstate-crust.xmf,422,9.85681e-07,7.89404e-07,0,6.90459e-07,-7.36267e+08,-7.3628e+08,-7.36334e+08,47365.5,-0.00373648,0.130142,-0,0.130196,-3387.04,-26809.7,-0,27022.8,47365.5
step02_gravity_refstate-crust.xmf,423,3.79008e-07,1.46096e-06,0,9.72874e-07,-6.717e+08,-6.71626e+08,-6.71726e+08,66739.2,-0.00613094,0.125969,-0,0.126118,-8397.16,-24457.7,-0,25859.1,66739.2
step02_gravity_refstate-crust.xmf,424,2.12496e-07,1.59389e-06,0,9.39571e-07,-6.35876e+08,-6.35781e+08,-6.35891e+08,64454.6,-0.00620316,0.124951,-0,0.125105,-10370.4,-23153,-0,25369.4,64454.6
step02_gravity_refstate-crust.xmf,425,8.42167e-07,9.77795e-07,0,8.75321e-07,-7.35099e+08,-7.35089e+08,-7.35156e+08,60047,-0.00487627,0.128657,-0,0.128749,-4651.16,-26766.9,-0,27168,60047
step02_gravity_refstate-crust.xmf,426,5.83902e-07,1.25011e-06,0,9.70513e-07,-7.04758e+08,-7.04712e+08,-7.04798e+08,66577.2,-0.00573941,0.127202,-0,0.127331,-6521.81,-25661.7,-0,26477.5,66577.2
step02_gravity_refstate-crust.xmf,427,-2.61431e-07,1.39837e-06,0,1.86908e-07,-3.73107e+08,-3.72993e+08,-3.73089e+08,12821.9,-0.00167969,0.117019,-0,0.117031,-33792.8,-13584.4,-0,36421,12821.9
step02_gravity_refstate-crust.xmf,428,-1.48455e-07,1.54342e-06,0,5.61399e-07,-4.44922e+08,-4.44806e+08,-4.44912e+08,38512,-0.00437509,0.121914,-0,0.121993,-21689.3,-16199.6,-0,27071.3,38512
step02_gravity_refstate-crust.xmf,429,-4.09533e-08,1.56341e-06,0,7.01418e-07,-4.94127e+08,-4.94017e+08,-4.94124e+08,48117.3,-0.00514435,0.124764,-0,0.12487,-16658.2,-17991.4,-0,24519.1,48117.3
step02_gravity_refstate-crust.xmf,430,-1.0444e-07,1.64676e-06,0,6.67372e-07,-4.95125e+08,-4.95005e+08,-4.95118e+08,45781.7,-0.00500086,0.122315,-0,0.122417,-18665.4,-18027.7,-0,25949.8,45781.7
step02_gravity_refstate-crust.xmf,431,2.23727e-09,1.79384e-06,0,8.66224e-07,-5.99526e+08,-5.99403e+08,-5.99526e+08,59423,-0.00612973,0.121843,-0,0.121997,-13974.6,-21829.1,-0,25919.1,59423
step02_gravity_refstate-crust.xmf,432,3.88585e-07,1.0724e-06,0,-5.79315e-07,-5.10985e+08,-5.10939e+08,-5.11012e+08,-39741,0.00381432,0.134626,0,0.13468,7300.56,-18606.2,0,19987.2,39741
step02_gravity_refstate-crust.xmf,433,4.58128e-07,1.06251e-06,0,-5.77635e-07,-5.43499e+08,-5.43458e+08,-5.43531e+08,-39625.7,0.00372224,0.134185,0,0.134237,6392.07,-19790.1,0,20796.8,39625.7
step02_gravity_refstate-crust.xmf,434,8.64045e-07,8.10435e-07,0,-3.48447e-07,-6.62069e+08,-6.62073e+08,-6.62128e+08,-23903.5,0.00202378,0.133183,0,0.133199,2249.28,-24108,0,24212.7,23903.5
step02_gravity_refstate-crust.xmf,435,9.65014e-07,7.36605e-07,0,-2.86567e-07,-6.87956e+08,-6.87972e+08,-6.88022e+08,-19658.5,0.00161385,0.132746,0,0.132756,1640.35,-25050.8,0,25104.4,19658.5
step02_gravity_refstate-crust.xmf,436,1.07513e-06,6.47467e-07,0,-1.91356e-07,-7.14793e+08,-7.14822e+08,-7.14867e+08,-13127,0.00104589,0.132312,0,0.132316,967.904,-26028.1,0,26046.1,13127
step02_gravity_refstate-crust.xmf,437,1.18994e-06,5.47325e-07,0,-6.39447e-08,-7.41456e+08,-7.415e+08,-7.41537e+08,-4386.6,0.000338492,0.131863,0,0.131864,285.517,-26999.1,0,27000.6,4386.6
step02_gravity_refstate-crust.xmf,438,1.31838e-06,4.21565e-07,0,1.11281e-07,-7.71283e+08,-7.71345e+08,-7.71374e+08,7633.87,-0.000540981,0.131311,-0,0.131312,-411.26,-28085.3,-0,28088.3,7633.87
step02_gravity_refstate-crust.xmf,439,1.71678e-07,1.15817e-06,0,-6.25033e-07,-4.40701e+08,-4.40633e+08,-4.40713e+08,-42877.3,0.00442345,0.13314,0,0.133213,11673,-16046.6,0,19843.2,42877.3
step02_gravity_refstate-crust.xmf,440,7.47923e-08,1.15984e-06,0,-6.06901e-07,-4.01436e+08,-4.01361e+08,-4.01441e+08,-41633.4,0.00450287,0.131903,0,0.131979,14410.1,-14616.8,0,20525.6,41633.4
step02_gravity_refstate-crust.xmf,441,-1.09874e-07,9.21639e-07,0,-4.01793e-07,-2.69301e+08,-2.6923e+08,-2.69293e+08,-27563,0.00410836,0.128877,0,0.128943,22631,-9805.15,0,24663.8,27563
step02_gravity_refstate-crust.xmf,442,-4.47442e-08,1.03617e-06,0,-4.9862e-07,-3.20245e+08,-3.2017e+08,-3.20241e+08,-34205.3,0.00431208,0.130167,0,0.130239,19288.9,-11660.2,0,22539.3,34205.3
step02_gravity_refstate-crust.xmf,443,1.97134e-08,1.23131e-06,0,-6.08788e-07,-4.04485e+08,-4.04402e+08,-4.04486e+08,-41762.9,0.00459547,0.130009,0,0.13009,16050.8,-14727.7,0,21783.7,41762.9
step02_gravity_refstate-crust.xmf,444,-3.64095e-08,1.18123e-06,0,-5.57757e-07,-3.69086e+08,-3.69003e+08,-3.69084e+08,-38262.2,0.00443442,0.129143,0,0.129219,18342.5,-13438.6,0,22738.6,38262.2
step02_gravity_refstate-crust.xmf,445,-2.63728e-07,8.18694e-07,0,-2.01231e-07,-2.15713e+08,-2.15639e+08,-2.15695e+08,-13804.5,0.00275103,0.124683,0,0.124714,30884.6,-7853.46,0,31867.4,13804.5
step02_gravity_refstate-crust.xmf,446,-4.31968e-07,4.41048e-07,0,9.91063e-10,-8.6901e+07,-8.68411e+07,-8.68714e+07,67.9869,6.54735e-20,0.125244,0,0.125244,40000,-3162.65,0,40124.8,67.9869
step02_gravity_refstate-crust.xmf,447,1.37728e-06,3.7098e-07,0,3.95951e-07,-7.92844e+08,-7.92913e+08,-7.92939e+08,27162.2,-0.00192322,0.13064,-0,0.130654,-1366.43,-28870.4,-0,28902.8,27162.2
step02_gravity_refstate-crust.xmf,448,1.12244e-06,6.56602e-07,0,6.73623e-07,-7.63268e+08,-7.633e+08,-7.63345e+08,46210.5,-0.0034911,0.129977,-0,0.130024,-2849.55,-27793.1,-0,27938.8,46210.5
step02_gravity_refstate-crust.xmf,449,2.47058e-07,1.6223e-06,0,1.00844e-06,-6.68576e+08,-6.68482e+08,-6.68593e+08,69179.1,-0.00652002,0.123935,-0,0.124106,-9792.4,-24343.7,-0,26239.4,69179.1
step02_gravity_refstate-crust.xmf,450,4.36677e-07,1.45062e-06,0,1.0436e-06,-7.03408e+08,-7.03339e+08,-7.03438e+08,71590.7,-0.00639104,0.125171,-0,0.125334,-7843.7,-25612.3,-0,26786.4,71590.7
step02_gravity_refstate-crust.xmf,451,6.7572e-07,1.18203e-06,0,1.02158e-06,-7.33098e+08,-7.33063e+08,-7.33145e+08,70080.1,-0.00582886,0.126827,-0,0.12696,-5947.02,-26693.7,-0,27348.2,70080.1
step02_gravity_refstate-crust.xmf,452,-1.84663e-07,1.56968e-06,0,5.02555e-07,-4.40482e+08,-4.40361e+08,-4.40469e+08,34475.2,-0.00399783,0.120035,-0,0.120101,-23858.4,-16037.9,-0,28747.8,34475.2
step02_gravity_refstate-crust.xmf,453,-2.12225e-07,1.58544e-06,0,4.38433e-07,-4.36289e+08,-4.36166e+08,-4.36274e+08,30076.5,-0.00355465,0.118343,-0,0.118397,-26038.7,-15885.1,-0,30501.6,30076.5
step02_gravity_refstate-crust.xmf,454,-2.3263e-07,1.58955e-06,0,3.70335e-07,-4.31437e+08,-4.31312e+08,-4.31421e+08,25405,-0.00305635,0.116911,-0,0.116951,-28245.7,-15708.4,-0,32319.8,25405
step02_gravity_refstate-crust.xmf,455,-2.58462e-07,1.57707e-06,0,2.25683e-07,-4.21335e+08,-4.21209e+08,-4.21317e+08,15481.9,-0.00192125,0.114813,-0,0.114829,-32821.7,-15340.5,-0,36229.7,15481.9
step02_gravity_refstate-crust.xmf,456,-2.47331e-07,1.58411e-06,0,3.00828e-07,-4.25976e+08,-4.25851e+08,-4.25959e+08,20636.8,-0.00252311,0.115783,-0,0.115811,-30449.8,-15509.5,-0,34172.1,20636.8
step02_gravity_refstate-crust.xmf,457,-1.57986e-07,1.72164e-06,0,6.17424e-07,-4.97065e+08,-4.96936e+08,-4.97054e+08,42355.3,-0.00472649,0.119762,-0,0.119855,-20800.2,-18098.2,-0,27571.5,42355.3
step02_gravity_refstate-crust.xmf,458,-3.65265e-08,1.67164e-06,0,7.62103e-07,-5.36153e+08,-5.36036e+08,-5.36151e+08,52280.2,-0.00550394,0.123377,-0,0.1235,-15784.7,-19521.6,-0,25104.8,52280.2
step02_gravity_refstate-crust.xmf,459,-3.15522e-08,1.78004e-06,0,8.25278e-07,-5.77805e+08,-5.77681e+08,-5.77803e+08,56614.1,-0.00590038,0.121833,-0,0.121976,-14979.9,-21038.2,-0,25826.4,56614.1
step02_gravity_refstate-crust.xmf,460,1.0738e-07,1.73417e-06,0,9.38258e-07,-6.32188e+08,-6.32076e+08,-6.32195e+08,64364.5,-0.00639305,0.122889,-0,0.123055,-11867.6,-23018.5,-0,25897.8,64364.5
step02_gravity_refstate-crust.xmf,461,1.50024e-08,1.85203e-06,0,9.19122e-07,-6.28315e+08,-6.28189e+08,-6.28316e+08,63051.8,-0.00643458,0.120851,-0,0.121023,-13357.9,-22877.3,-0,26491.6,63051.8
step02_gravity_refstate-crust.xmf,462,-2.67653e-07,1.5481e-06,0,1.43766e-07,-4.11905e+08,-4.1178e+08,-4.11886e+08,9862.32,-0.00124027,0.114388,-0,0.114395,-35414.1,-14997.1,-0,38458.7,9862.32
step02_gravity_refstate-crust.xmf,463,-2.7372e-07,1.39792e-06,0,6.78061e-08,-3.71043e+08,-3.70928e+08,-3.71024e+08,4651.5,-0.000613222,0.116073,-0,0.116075,-37767.6,-13509.3,-0,40111,4651.5
step02_gravity_refstate-crust.xmf,464,-2.8027e-07,1.25206e-06,0,-2.33255e-10,-3.31198e+08,-3.31092e+08,-3.31178e+08,-16.0013,-1.19907e-19,0.11784,-0,0.11784,-40000,-12058.4,-0,41778,16.0013
step02_gravity_refstate-crust.xmf,465,5.39895e-07,1.03524e-06,0,-5.67776e-07,-5.76203e+08,-5.76169e+08,-5.7624e+08,-38949.5,0.00357522,0.133736,0,0.133784,5488.63,-20981,0,21687.1,38949.5
step02_gravity_refstate-crust.xmf,466,6.26416e-07,9.92348e-07,0,-5.47801e-07,-6.05855e+08,-6.05829e+08,-6.05897e+08,-37579.2,0.0033694,0.133347,0,0.13339,4660.85,-22060.8,0,22547.8,37579.2
step02_gravity_refstate-crust.xmf,467,7.14745e-07,9.43886e-07,0,-5.31961e-07,-6.35284e+08,-6.35268e+08,-6.35333e+08,-36492.5,0.00318968,0.13286,0,0.132898,3987.82,-23132.5,0,23473.7,36492.5
step02_gravity_refstate-crust.xmf,468,8.04692e-07,8.88087e-07,0,-5.18933e-07,-6.63344e+08,-6.63338e+08,-6.63399e+08,-35598.8,0.00302882,0.132357,0,0.132392,3439.75,-24154.3,0,24398,35598.8
step02_gravity_refstate-crust.xmf,469,1.44333e-06,2.98354e-07,0,1.35286e-07,-7.97292e+08,-7.97371e+08,-7.97391e+08,9280.62,-0.000652226,0.130955,-0,0.130957,-451.428,-29032.5,-0,29036,9280.62
step02_gravity_refstate-crust.xmf,470,1.53156e-06,2.11816e-07,0,3.29221e-07,-8.16667e+08,-8.16758e+08,-8.16773e+08,22584.5,-0.00151537,0.130594,-0,0.130602,-979.502,-29738.1,-0,29754.2,22584.5
step02_gravity_refstate-crust.xmf,471,3.24558e-07,1.16614e-06,0,-6.53791e-07,-5.17891e+08,-5.17833e+08,-5.17913e+08,-44850.1,0.00434152,0.133067,0,0.133138,8603.6,-18857.4,0,20727.4,44850.1
step02_gravity_refstate-crust.xmf,472,2.13674e-07,1.20793e-06,0,-6.6292e-07,-4.80649e+08,-4.8058e+08,-4.80663e+08,-45476.3,0.00455412,0.132471,0,0.132549,10681.7,-17501.2,0,20503.5,45476.3
step02_gravity_refstate-crust.xmf,473,-1.54176e-07,9.53404e-07,0,-3.65561e-07,-2.7005e+08,-2.69974e+08,-2.70039e+08,-25077.5,0.00381876,0.127039,0,0.127096,24774.3,-9832.29,0,26654.1,25077.5
step02_gravity_refstate-crust.xmf,474,-1.95029e-07,9.82482e-07,0,-3.18757e-07,-2.71057e+08,-2.70976e+08,-2.71043e+08,-21866.7,0.00340131,0.125211,0,0.125257,27114.4,-9868.82,0,28854.6,21866.7
step02_gravity_refstate-crust.xmf,475,1.01604e-07,1.24351e-06,0,-6.52841e-07,-4.43119e+08,-4.43041e+08,-4.43126e+08,-44784.9,0.00467506,0.131182,0,0.131265,13387.6,-16134.5,0,20965.4,44784.9
step02_gravity_refstate-crust.xmf,476,-9.72821e-08,1.08923e-06,0,-4.72552e-07,-3.22985e+08,-3.22903e+08,-3.22978e+08,-32417.1,0.00416046,0.127996,0,0.128064,21436.6,-11759.9,0,24450.4,32417.1
step02_gravity_refstate-crust.xmf,477,-2.98845e-08,1.29323e-06,0,-6.02528e-07,-4.07532e+08,-4.07441e+08,-4.0753e+08,-41333.4,0.00460204,0.128224,0,0.128306,17572,-14838.5,0,22999.1,41333.4
step02_gravity_refstate-crust.xmf,478,-3.74762e-07,5.88399e-07,0,-3.92112e-08,-1.37021e+08,-1.36955e+08,-1.36996e+08,-2689.89,0.000905933,0.124466,0,0.124469,37607.4,-4987.8,0,37936.7,2689.89
step02_gravity_refstate-crust.xmf,479,-3.2294e-07,7.40414e-07,0,-9.61233e-08,-1.86471e+08,-1.86398e+08,-1.86449e+08,-6594.06,0.00157256,0.123747,0,0.123757,35291.7,-6788.5,0,35938.7,6594.06
step02_gravity_refstate-crust.xmf,480,-2.2859e-07,1.01007e-06,0,-2.66622e-07,-2.73295e+08,-2.7321e+08,-2.73279e+08,-18290.3,0.00288851,0.123563,0,0.123596,29474.4,-9950.21,0,31108.7,18290.3
step02_gravity_refstate-crust.xmf,481,-2.82186e-07,8.91416e-07,0,-1.60226e-07,-2.33488e+08,-2.33407e+08,-2.33468e+08,-10991.5,0.00205701,0.123063,0,0.12308,33188.1,-8500.6,0,34259.5,10991.5
step02_gravity_refstate-crust.xmf,482,1.27112e-06,5.01086e-07,0,6.52514e-07,-7.8957e+08,-7.89623e+08,-7.89657e+08,44762.5,-0.00322807,0.129889,-0,0.12993,-2374.22,-28751,-0,28848.9,44762.5
step02_gravity_refstate-crust.xmf,483,1.42885e-06,3.26513e-07,0,6.29071e-07,-8.14342e+08,-8.14417e+08,-8.1444e+08,43154.3,-0.00296141,0.129897,-0,0.129931,-1969.64,-29653.2,-0,29718.6,43154.3
step02_gravity_refstate-crust.xmf,484,9.74238e-07,8.44681e-07,0,8.94108e-07,-7.62224e+08,-7.62233e+08,-7.62291e+08,61335.8,-0.00473795,0.128565,-0,0.128652,-4051.59,-27754.8,-0,28048.9,61335.8
step02_gravity_refstate-crust.xmf,485,2.92944e-07,1.64057e-06,0,1.08283e-06,-7.01602e+08,-7.0151e+08,-7.01622e+08,74282.1,-0.00684707,0.122993,-0,0.123183,-9182.74,-25546.2,-0,27146.5,74282.1
step02_gravity_refstate-crust.xmf,486,1.27658e-07,1.7785e-06,0,1.01097e-06,-6.65334e+08,-6.65221e+08,-6.65343e+08,69352.2,-0.00674377,0.121785,-0,0.121972,-11228.3,-24225.4,-0,26701.1,69352.2
step02_gravity_refstate-crust.xmf,487,7.89368e-07,1.09782e-06,0,1.0875e-06,-7.6392e+08,-7.63899e+08,-7.63974e+08,74602.2,-0.00595076,0.126439,-0,0.126579,-5397.12,-27816.2,-0,28334.9,74602.2
step02_gravity_refstate-crust.xmf,488,5.10326e-07,1.39995e-06,0,1.11652e-06,-7.32372e+08,-7.32311e+08,-7.32407e+08,76593.1,-0.00657377,0.124721,-0,0.124895,-7222.95,-26667,-0,27627.9,76593.1
step02_gravity_refstate-crust.xmf,489,-1.95881e-07,1.75904e-06,0,5.55166e-07,-4.93477e+08,-4.93343e+08,-4.93463e+08,38084.4,-0.00433261,0.117733,-0,0.117813,-22925.8,-17967.4,-0,29127.7,38084.4
step02_gravity_refstate-crust.xmf,490,-1.04578e-07,1.77316e-06,0,7.24861e-07,-5.37855e+08,-5.37727e+08,-5.37848e+08,49725.5,-0.00537708,0.120782,-0,0.120902,-17735.9,-19583.5,-0,26421.1,49725.5
step02_gravity_refstate-crust.xmf,491,-1.62688e-07,1.85966e-06,0,6.74524e-07,-5.40198e+08,-5.40059e+08,-5.40187e+08,46272.4,-0.00512256,0.118186,-0,0.118297,-19725,-19668.7,-0,27855.5,46272.4
step02_gravity_refstate-crust.xmf,492,-6.21362e-08,1.94104e-06,0,8.81918e-07,-6.2176e+08,-6.21622e+08,-6.21755e+08,60499.6,-0.00632735,0.119011,-0,0.11918,-14871.9,-22638.5,-0,27086.5,60499.6
step02_gravity_refstate-crust.xmf,493,3.81564e-07,1.17071e-06,0,-6.7129e-07,-5.49338e+08,-5.49284e+08,-5.49364e+08,-46050.5,0.00437945,0.132543,0,0.132615,7822.63,-20002.6,0,21477.8,46050.5
step02_gravity_refstate-crust.xmf,494,4.5396e-07,1.15366e-06,0,-6.82302e-07,-5.80942e+08,-5.80894e+08,-5.80973e+08,-46805.9,0.00435653,0.13211,0,0.132182,6964.45,-21153.4,0,22270.4,46805.9
step02_gravity_refstate-crust.xmf,495,9.02809e-07,8.1526e-07,0,-4.85975e-07,-6.90111e+08,-6.90117e+08,-6.90173e+08,-33337.9,0.00276186,0.131973,0,0.132002,2851.2,-25129.1,0,25290.3,33337.9
step02_gravity_refstate-crust.xmf,496,1.02575e-06,7.10601e-07,0,-4.2737e-07,-7.16665e+08,-7.16686e+08,-7.16735e+08,-29317.6,0.00233713,0.131693,0,0.131714,2187.38,-26096.1,0,26187.7,29317.6
step02_gravity_refstate-crust.xmf,497,1.15745e-06,5.88354e-07,0,-3.36311e-07,-7.43123e+08,-7.43162e+08,-7.43203e+08,-23071,0.0017706,0.13146,0,0.131472,1500.55,-27059.7,0,27101.3,23071
step02_gravity_refstate-crust.xmf,498,1.28931e-06,4.56352e-07,0,-2.0422e-07,-7.67009e+08,-7.67066e+08,-7.67098e+08,-14009.5,0.00104592,0.131285,0,0.13129,809.684,-27929.7,0,27941.4,14009.5
step02_gravity_refstate-crust.xmf,499,1.42671e-06,3.1612e-07,0,-1.4363e-07,-7.94113e+08,-7.94189e+08,-7.94211e+08,-9853.01,0.0007007,0.130983,0,0.130984,490.34,-28916.7,0,28920.9,9853.01
step02_gravity_refstate-crust.xmf,500,1.5675e-06,1.64043e-07,0,-2.52693e-10,-8.17603e+08,-8.17699e+08,-8.17711e+08,-17.3347,1.18711e-05,0.13083,0,0.13083,7.42351,-29772.3,0,29772.3,17.3347
step02_gravity_refstate-crust.xmf,501,1.69869e-06,1.62605e-08,0,2.11382e-07,-8.39465e+08,-8.3958e+08,-8.39581e+08,14500.8,-0.000916596,0.130677,-0,0.130681,-539.254,-30568.5,-0,30573.2,14500.8
step02_gravity_refstate-crust.xmf,502,1.60813e-06,1.16033e-07,0,5.70985e-07,-8.3787e+08,-8.37972e+08,-8.3798e+08,39169.6,-0.00255049,0.130092,-0,0.130117,-1533.83,-30510.2,-0,30548.7,39169.6
step02_gravity_refstate-crust.xmf,503,2.55044e-07,1.25389e-06,0,-7.02324e-07,-5.19143e+08,-5.19075e+08,-5.19161e+08,-48179.4,0.00472945,0.131605,0,0.13169,9899.03,-18902.9,0,21338,48179.4
step02_gravity_refstate-crust.xmf,504,1.35684e-07,1.31416e-06,0,-6.94996e-07,-4.8352e+08,-4.83439e+08,-4.83529e+08,-47676.7,0.00487556,0.130431,0,0.130522,12383.2,-17605.6,0,21524.5,47676.7
step02_gravity_refstate-crust.xmf,505,3.40562e-08,1.32926e-06,0,-6.61068e-07,-4.45671e+08,-4.45582e+08,-4.45673e+08,-45349.3,0.0048119,0.129092,0,0.129181,15143.1,-16227.3,0,22195.4,45349.3
step02_gravity_refstate-crust.xmf,506,-1.40932e-07,1.13275e-06,0,-4.32802e-07,-3.2462e+08,-3.24532e+08,-3.2461e+08,-29690.2,0.00389862,0.125946,0,0.126006,23614,-11819.3,0,26406.8,29690.2
step02_gravity_refstate-crust.xmf,507,-8.81151e-08,1.24434e-06,0,-5.35487e-07,-3.73132e+08,-3.73041e+08,-3.73126e+08,-36734.4,0.00432306,0.126964,0,0.127037,20303.8,-13585.8,0,24429.9,36734.4
step02_gravity_refstate-crust.xmf,508,-3.53922e-08,1.42628e-06,0,-6.52791e-07,-4.50818e+08,-4.50718e+08,-4.50816e+08,-44781.5,0.00484242,0.126563,0,0.126655,17135.8,-16414.5,0,23729.2,44781.5
step02_gravity_refstate-crust.xmf,509,-7.98245e-08,1.39878e-06,0,-6.00959e-07,-4.24728e+08,-4.24627e+08,-4.24723e+08,-41225.8,0.00459645,0.125754,0,0.125838,19077.8,-15464.5,0,24558.3,41225.8
step02_gravity_refstate-crust.xmf,510,-2.54275e-07,1.01308e-06,0,-2.1718e-07,-2.70434e+08,-2.70347e+08,-2.70416e+08,-14898.5,0.00241346,0.122562,0,0.122586,31463.6,-9845.95,0,32968.2,14898.5
step02_gravity_refstate-crust.xmf,511,-3.48893e-07,6.96715e-07,0,6.66062e-10,-1.70895e+08,-1.70823e+08,-1.70871e+08,45.6919,5.30205e-20,0.123503,0,0.123503,40000,-6221.26,0,40480.9,45.6919
step02_gravity_refstate-crust.xmf,512,1.80452e-06,-1.07952e-07,0,4.72985e-07,-8.59862e+08,-8.59993e+08,-8.59985e+08,32446.8,-0.00197603,0.130444,-0,0.130459,-1076.9,-31311.3,-0,31329.8,32446.8
step02_gravity_refstate-crust.xmf,513,1.12523e-06,6.84957e-07,0,8.87433e-07,-7.8751e+08,-7.8754e+08,-7.87587e+08,60877.9,-0.00449222,0.128666,-0,0.128745,-3451.86,-28675.7,-0,28882.7,60877.9
step02_gravity_refstate-crust.xmf,514,1.52387e-07,1.82164e-06,0,1.09468e-06,-6.99932e+08,-6.99818e+08,-6.99943e+08,75095.3,-0.00713314,0.120607,-0,0.120817,-10591.2,-25485.2,-0,27598.3,75095.3
step02_gravity_refstate-crust.xmf,515,3.52082e-07,1.62379e-06,0,1.16777e-06,-7.33339e+08,-7.33252e+08,-7.33363e+08,80109.1,-0.00714002,0.122336,-0,0.122544,-8502.17,-26701.9,-0,28022.8,80109.1
step02_gravity_refstate-crust.xmf,516,5.87596e-07,1.34056e-06,0,1.17781e-06,-7.56784e+08,-7.56732e+08,-7.56824e+08,80797.4,-0.00670684,0.124466,-0,0.124646,-6685.83,-27555.9,-0,28355.4,80797.4
step02_gravity_refstate-crust.xmf,517,-2.66237e-07,1.76792e-06,0,1.92914e-07,-4.70369e+08,-4.70229e+08,-4.70351e+08,13233.9,-0.00161108,0.111329,-0,0.111341,-34016.7,-17125.9,-0,38084.6,13233.9
step02_gravity_refstate-crust.xmf,518,-2.22835e-07,1.78195e-06,0,4.87135e-07,-4.89789e+08,-4.89651e+08,-4.89773e+08,33417.5,-0.00386905,0.115899,-0,0.115964,-25079.4,-17833.1,-0,30773.3,33417.5
step02_gravity_refstate-crust.xmf,519,-2.41514e-07,1.79487e-06,0,4.16467e-07,-4.86448e+08,-4.86308e+08,-4.86431e+08,28569.7,-0.00335949,0.114279,-0,0.114329,-27241.3,-17711.4,-0,32492.8,28569.7
step02_gravity_refstate-crust.xmf,520,-2.53606e-07,1.79281e-06,0,3.43056e-07,-4.81435e+08,-4.81294e+08,-4.81417e+08,23533.6,-0.00280531,0.112999,-0,0.113034,-29453.9,-17528.9,-0,34275.3,23533.6
step02_gravity_refstate-crust.xmf,521,-2.61353e-07,1.78319e-06,0,2.69171e-07,-4.76097e+08,-4.75957e+08,-4.7608e+08,18465.1,-0.00222668,0.112017,-0,0.112039,-31688.3,-17334.5,-0,36119.7,18465.1
step02_gravity_refstate-crust.xmf,522,-2.13597e-07,1.96025e-06,0,6.14432e-07,-5.49823e+08,-5.49674e+08,-5.49808e+08,42150,-0.00476293,0.115035,-0,0.115134,-21874.2,-20019,-0,29652,42150
step02_gravity_refstate-crust.xmf,523,-1.0626e-07,1.88069e-06,0,7.85476e-07,-5.76817e+08,-5.76681e+08,-5.7681e+08,53883.6,-0.00576628,0.119386,-0,0.119526,-16815.9,-21002.1,-0,26904.7,53883.6
step02_gravity_refstate-crust.xmf,524,2.44552e-08,1.92375e-06,0,9.87538e-07,-6.62453e+08,-6.62323e+08,-6.62455e+08,67745.1,-0.0068175,0.119529,-0,0.119723,-12713,-24120.4,-0,27265.6,67745.1
step02_gravity_refstate-crust.xmf,525,-6.4388e-08,2.04282e-06,0,9.47856e-07,-6.58869e+08,-6.58725e+08,-6.58865e+08,65022.9,-0.00674254,0.117334,-0,0.117527,-14218.2,-23989.7,-0,27886.6,65022.9
step02_gravity_refstate-crust.xmf,526,-1.20781e-07,2.0119e-06,0,8.37621e-07,-6.16299e+08,-6.16152e+08,-6.1629e+08,57460.8,-0.0061459,0.117295,-0,0.117456,-16308.7,-22439.6,-0,27740,57460.8
step02_gravity_refstate-crust.xmf,527,-2.70694e-07,1.67702e-06,0,5.93535e-08,-4.45192e+08,-4.45058e+08,-4.45173e+08,4071.65,-0.000503943,0.111874,-0,0.111875,-38139.9,-16209.2,-0,41441.4,4071.65
step02_gravity_refstate-crust.xmf,528,-2.72088e-07,1.53692e-06,0,-7.63279e-11,-4.07934e+08,-4.07809e+08,-4.07915e+08,-5.23609,-9.80388e-20,0.113944,-0,0.113944,-40000,-14852.5,-0,42668.5,5.23609
step02_gravity_refstate-crust.xmf,529,1.83665e-06,-1.58281e-07,0,7.62064e-07,-8.7507e+08,-8.75206e+08,-8.75196e+08,52277.6,-0.00317152,0.129992,-0,0.130031,-1643.34,-31865,-0,31907.3,52277.6
step02_gravity_refstate-crust.xmf,530,2.03013e-06,-4.20114e-07,0,3.9302e-07,-8.85244e+08,-8.85413e+08,-8.85384e+08,26961.1,-0.00153409,0.130901,-0,0.13091,-744.991,-32235.8,-0,32244.4,26961.1
step02_gravity_refstate-crust.xmf,531,5.37288e-07,1.1124e-06,0,-6.79797e-07,-6.09407e+08,-6.09368e+08,-6.09444e+08,-46634.1,0.00424003,0.131851,0,0.131919,6095.05,-22190,0,23011.8,46634.1
step02_gravity_refstate-crust.xmf,532,6.24995e-07,1.06074e-06,0,-6.75019e-07,-6.37045e+08,-6.37016e+08,-6.37088e+08,-46306.3,0.00410444,0.131554,0,0.131618,5326.58,-23196.4,0,23800.2,46306.3
step02_gravity_refstate-crust.xmf,533,7.18265e-07,9.99658e-07,0,-6.71983e-07,-6.64847e+08,-6.64827e+08,-6.64896e+08,-46098,0.0039719,0.131195,0,0.131255,4658.13,-24208.9,0,24652.9,46098
step02_gravity_refstate-crust.xmf,534,8.15186e-07,9.30208e-07,0,-6.71596e-07,-6.91887e+08,-6.91879e+08,-6.91943e+08,-46071.5,0.00385053,0.130817,0,0.130874,4094.6,-25193.6,0,25524.1,46071.5
step02_gravity_refstate-crust.xmf,535,1.88456e-06,-2.12046e-07,0,5.54144e-08,-8.62812e+08,-8.62956e+08,-8.62941e+08,3801.43,-0.000216457,0.130844,-0,0.130844,-115.459,-31418.8,-0,31419,3801.43
step02_gravity_refstate-crust.xmf,536,2.98846e-07,1.28664e-06,0,-7.424e-07,-5.547e+08,-5.54633e+08,-5.54721e+08,-50928.6,0.00491404,0.13073,0,0.130822,9226.54,-20197.6,0,22205.2,50928.6
step02_gravity_refstate-crust.xmf,537,1.70816e-07,1.3671e-06,0,-7.43793e-07,-5.22274e+08,-5.22192e+08,-5.22286e+08,-51024.2,0.00509866,0.129597,0,0.129697,11485.2,-19016.7,0,22215.9,51024.2
step02_gravity_refstate-crust.xmf,538,-1.79732e-07,1.17168e-06,0,-3.86184e-07,-3.27195e+08,-3.27103e+08,-3.27183e+08,-26492.2,0.00353617,0.123977,0,0.124027,25835.3,-11913,0,28449.6,26492.2
step02_gravity_refstate-crust.xmf,539,-2.11709e-07,1.20683e-06,0,-3.31969e-07,-3.30435e+08,-3.30338e+08,-3.3042e+08,-22773,0.00308097,0.122137,0,0.122176,28118.4,-12030.8,0,30584.1,22773
step02_gravity_refstate-crust.xmf,540,5.74709e-08,1.41598e-06,0,-7.12934e-07,-4.87136e+08,-4.87043e+08,-4.8714e+08,-48907.2,0.00507354,0.128201,0,0.128301,14124.2,-17737.1,0,22673.7,48907.2
step02_gravity_refstate-crust.xmf,541,-1.35669e-07,1.30125e-06,0,-4.98155e-07,-3.76488e+08,-3.76389e+08,-3.76478e+08,-34173.4,0.00409121,0.124722,0,0.124789,22435.7,-13707.9,0,26291.9,34173.4
step02_gravity_refstate-crust.xmf,542,-3.16023e-07,8.52985e-07,0,-5.33354e-08,-2.18607e+08,-2.18526e+08,-2.18585e+08,-3658.81,0.000743141,0.122316,0,0.122319,37668.5,-7958.63,0,38500.1,3658.81
step02_gravity_refstate-crust.xmf,543,-2.87041e-07,1.00692e-06,0,-1.17421e-07,-2.6445e+08,-2.64362e+08,-2.64431e+08,-8055.06,0.00135356,0.121234,0,0.121242,35410,-9627.98,0,36695.6,8055.06
step02_gravity_refstate-crust.xmf,544,-2.41932e-07,1.24381e-06,0,-2.68136e-07,-3.35642e+08,-3.3554e+08,-3.35626e+08,-18394.1,0.00249749,0.120313,0,0.120339,30655.8,-12220.3,0,33001.8,18394.1
step02_gravity_refstate-crust.xmf,545,-2.64094e-07,1.13767e-06,0,-1.8685e-07,-3.0309e+08,-3.02994e+08,-3.03072e+08,-12817.9,0.00190031,0.12049,0,0.120505,33193.6,-11035,0,34979.8,12817.9
step02_gravity_refstate-crust.xmf,546,1.27833e-06,5.14984e-07,0,8.95793e-07,-8.12125e+08,-8.12177e+08,-8.12212e+08,61451.4,-0.00431444,0.128744,-0,0.128816,-2990.78,-29572.2,-0,29723,61451.4
step02_gravity_refstate-crust.xmf,547,1.45624e-06,3.06361e-07,0,8.99225e-07,-8.36967e+08,-8.37045e+08,-8.37066e+08,61686.8,-0.0040949,0.128962,-0,0.129027,-2548.9,-30477,-0,30583.4,61686.8
step02_gravity_refstate-crust.xmf,548,1.65073e-06,6.83333e-08,0,8.56215e-07,-8.58257e+08,-8.58365e+08,-8.5837e+08,58736.4,-0.00369352,0.129429,-0,0.129482,-2080.81,-31252.5,-0,31321.7,58736.4
step02_gravity_refstate-crust.xmf,549,9.51058e-07,9.11754e-07,0,1.08498e-06,-7.87282e+08,-7.87284e+08,-7.87347e+08,74429.5,-0.00565217,0.126966,-0,0.127092,-4572.84,-28667,-0,29029.5,74429.5
step02_gravity_refstate-crust.xmf,550,1.91489e-07,1.84571e-06,0,1.18466e-06,-7.34197e+08,-7.34083e+08,-7.3421e+08,81267.4,-0.00752528,0.119634,-0,0.11987,-9883.68,-26732.8,-0,28501.4,81267.4
step02_gravity_refstate-crust.xmf,551,2.90806e-08,1.99289e-06,0,1.07087e-06,-6.97785e+08,-6.97651e+08,-6.97787e+08,73461.4,-0.00723743,0.118121,-0,0.118343,-12063.9,-25406.8,-0,28125.4,73461.4
step02_gravity_refstate-crust.xmf,552,6.442e-07,1.31987e-06,0,1.26979e-06,-7.83107e+08,-7.8306e+08,-7.83151e+08,87107.8,-0.00701366,0.123768,-0,0.123967,-6384.95,-28514.4,-0,29220.5,87107.8
step02_gravity_refstate-crust.xmf,553,4.22478e-07,1.57029e-06,0,1.2547e-06,-7.6065e+08,-7.60572e+08,-7.60679e+08,86072.1,-0.00735539,0.122047,-0,0.122269,-7830.45,-27696.4,-0,28782,86072.1
step02_gravity_refstate-crust.xmf,554,-2.69396e-07,1.78819e-06,0,1.24634e-07,-4.74834e+08,-4.74693e+08,-4.74815e+08,8549.92,-0.00104747,0.110375,-0,0.11038,-36123.1,-17288.5,-0,40047.1,8549.92
step02_gravity_refstate-crust.xmf,555,-2.39186e-07,1.97828e-06,0,5.3423e-07,-5.42513e+08,-5.42361e+08,-5.42497e+08,36648.2,-0.00422702,0.113194,-0,0.113273,-24126.9,-19752.8,-0,31181.4,36648.2
step02_gravity_refstate-crust.xmf,556,-1.74283e-07,2.00261e-06,0,7.34427e-07,-5.84561e+08,-5.84412e+08,-5.84549e+08,50381.7,-0.00554158,0.116206,-0,0.116338,-18807,-21283.9,-0,28402.6,50381.7
step02_gravity_refstate-crust.xmf,557,-2.06887e-07,2.03267e-06,0,6.73539e-07,-5.77147e+08,-5.76993e+08,-5.77133e+08,46204.7,-0.005189,0.114711,-0,0.114828,-20439.4,-21013.9,-0,29314.7,46204.7
step02_gravity_refstate-crust.xmf,558,-1.39618e-07,2.14318e-06,0,8.95676e-07,-6.55588e+08,-6.55431e+08,-6.55578e+08,61443.4,-0.00655075,0.115133,-0,0.115319,-15767.5,-23870.1,-0,28607.6,61443.4
step02_gravity_refstate-crust.xmf,559,2.0116e-06,-3.97568e-07,0,8.09426e-07,-8.94269e+08,-8.94434e+08,-8.94407e+08,55526.6,-0.00314218,0.130365,-0,0.130403,-1490.87,-32564.3,-0,32598.4,55526.6
step02_gravity_refstate-crust.xmf,560,3.58013e-07,1.29084e-06,0,-7.75605e-07,-5.87697e+08,-5.87633e+08,-5.87722e+08,-53206.5,0.00503311,0.130118,0,0.130215,8441.2,-21399.2,0,23003.9,53206.5
step02_gravity_refstate-crust.xmf,561,4.37239e-07,1.25486e-06,0,-7.89254e-07,-6.15553e+08,-6.15497e+08,-6.15583e+08,-54142.8,0.00500664,0.129954,0,0.13005,7519.53,-22413.5,0,23641.3,54142.8
step02_gravity_refstate-crust.xmf,562,9.3154e-07,8.29961e-07,0,-6.40843e-07,-7.18192e+08,-7.18199e+08,-7.18256e+08,-43961.8,0.00355964,0.130646,0,0.130694,3419.43,-26151.6,0,26374.2,43961.8
step02_gravity_refstate-crust.xmf,563,1.07263e-06,6.95996e-07,0,-5.92248e-07,-7.44208e+08,-7.44234e+08,-7.44282e+08,-40628.2,0.00314709,0.13057,0,0.130607,2726.74,-27099.1,0,27235.9,40628.2
step02_gravity_refstate-crust.xmf,564,1.2242e-06,5.41427e-07,0,-5.11819e-07,-7.69503e+08,-7.6955e+08,-7.69587e+08,-35110.8,0.00260805,0.130569,0,0.130595,2040.14,-28020.3,0,28094.5,35110.8
step02_gravity_refstate-crust.xmf,565,1.37955e-06,3.75784e-07,0,-4.30825e-07,-7.94604e+08,-7.94672e+08,-7.94698e+08,-29554.6,0.00209726,0.130542,0,0.130559,1483.75,-28934.5,0,28972.5,29554.6
step02_gravity_refstate-crust.xmf,566,1.54265e-06,1.93576e-07,0,-3.27154e-07,-8.18491e+08,-8.18584e+08,-8.18597e+08,-22442.8,0.0015184,0.130583,0,0.130591,974.504,-29804.5,0,29820.5,22442.8
step02_gravity_refstate-crust.xmf,567,1.71378e-06,-6.0764e-09,0,-1.72615e-07,-8.41148e+08,-8.41266e+08,-8.41265e+08,-11841.4,0.000767072,0.130704,0,0.130706,447.765,-30629.8,0,30633,11841.4
step02_gravity_refstate-crust.xmf,568,2.09499e-07,1.41076e-06,0,-7.91465e-07,-5.58985e+08,-5.58903e+08,-5.59e+08,-54294.5,0.00533504,0.128714,0,0.128824,10695.7,-20353.4,0,22992.6,54294.5
step02_gravity_refstate-crust.xmf,569,8.68922e-08,1.48587e-06,0,-7.60764e-07,-5.25247e+08,-5.25151e+08,-5.25253e+08,-52188.4,0.00534315,0.127362,0,0.127474,13164.9,-19124.8,0,23217.9,52188.4
step02_gravity_refstate-crust.xmf,570,-1.33686e-08,1.515e-06,0,-7.10078e-07,-4.91261e+08,-4.91156e+08,-4.9126e+08,-48711.3,0.0051449,0.125874,0,0.125979,15872.2,-17887.1,0,23914,48711.3
step02_gravity_refstate-crust.xmf,571,-1.73162e-07,1.35008e-06,0,-4.48834e-07,-3.79662e+08,-3.79557e+08,-3.7965e+08,-30790,0.00375862,0.122594,0,0.122651,24602.9,-13823.4,0,28220.3,30790
step02_gravity_refstate-crust.xmf,572,-1.32123e-07,1.45738e-06,0,-5.58624e-07,-4.25039e+08,-4.2493e+08,-4.2503e+08,-38321.6,0.00436494,0.123423,0,0.1235,21276.6,-15475.7,0,26309.5,38321.6
step02_gravity_refstate-crust.xmf,573,-9.14133e-08,1.56705e-06,0,-6.50069e-07,-4.74355e+08,-4.74241e+08,-4.74349e+08,-44594.7,0.00488301,0.123567,0,0.123663,18633.8,-17271.4,0,25407.1,44594.7
step02_gravity_refstate-crust.xmf,574,-3.02527e-07,9.69861e-07,0,4.3795e-10,-2.52255e+08,-2.52168e+08,-2.52234e+08,30.0433,4.69284e-20,0.121034,0,0.121034,40000,-9183.87,0,41040.8,30.0433
step02_gravity_refstate-crust.xmf,575,1.65155e-06,7.39407e-08,0,1.11048e-06,-8.74371e+08,-8.74479e+08,-8.74484e+08,76178.6,-0.00469256,0.128722,-0,0.128808,-2522.03,-31839.1,-0,31938.9,76178.6
step02_gravity_refstate-crust.xmf,576,1.83077e-06,-1.59265e-07,0,1.11504e-06,-8.9197e+08,-8.92107e+08,-8.92096e+08,76491.6,-0.00448173,0.129284,-0,0.129362,-2207.53,-32480.2,-0,32555.2,76491.6
step02_gravity_refstate-crust.xmf,577,1.09704e-06,7.46708e-07,0,1.1136e-06,-8.10719e+08,-8.10743e+08,-8.10794e+08,76392.8,-0.00551518,0.127183,-0,0.127302,-4021.99,-29520.6,-0,29793.4,76392.8
step02_gravity_refstate-crust.xmf,578,7.98113e-07,1.12338e-06,0,1.22394e-06,-7.90503e+08,-7.9048e+08,-7.90558e+08,83962.5,-0.00652379,0.125173,-0,0.125343,-5502.69,-28784,-0,29305.3,83962.5
step02_gravity_refstate-crust.xmf,579,4.19026e-08,2.05901e-06,0,1.1665e-06,-7.33936e+08,-7.33798e+08,-7.33939e+08,80021.8,-0.00769134,0.116709,-0,0.116962,-11390.6,-26723,-0,29049.4,80021.8
step02_gravity_refstate-crust.xmf,580,2.60138e-07,1.81035e-06,0,1.28579e-06,-7.64907e+08,-7.648e+08,-7.64924e+08,88205.5,-0.00783432,0.119332,-0,0.119589,-9020.78,-27851,-0,29275.5,88205.5
step02_gravity_refstate-crust.xmf,581,4.935e-07,1.5142e-06,0,1.3135e-06,-7.80477e+08,-7.80407e+08,-7.8051e+08,90106.1,-0.00747883,0.12203,-0,0.122259,-7295.01,-28418.4,-0,29339.8,90106.1
step02_gravity_refstate-crust.xmf,582,-2.70448e-07,1.97579e-06,0,1.54296e-07,-5.24239e+08,-5.24085e+08,-5.24221e+08,10584.7,-0.00128966,0.107239,-0,0.107247,-35227.3,-19087.4,-0,40066.1,10584.7
step02_gravity_refstate-crust.xmf,583,-2.70947e-07,1.98812e-06,0,2.30557e-07,-5.28162e+08,-5.28007e+08,-5.28144e+08,15816.2,-0.00191547,0.10784,-0,0.107857,-32914.1,-19230.3,-0,38120.1,15816.2
step02_gravity_refstate-crust.xmf,584,-2.55574e-07,1.99447e-06,0,4.57581e-07,-5.39066e+08,-5.38911e+08,-5.39048e+08,31390.1,-0.00368166,0.111431,-0,0.111492,-26297.8,-19627.3,-0,32814.7,31390.1
step02_gravity_refstate-crust.xmf,585,-2.64945e-07,2.00156e-06,0,3.82428e-07,-5.36106e+08,-5.35951e+08,-5.36088e+08,26234.5,-0.003118,0.109926,-0,0.10997,-28447.6,-19519.5,-0,34500.4,26234.5
step02_gravity_refstate-crust.xmf,586,-2.6945e-07,1.99894e-06,0,3.06684e-07,-5.32543e+08,-5.32388e+08,-5.32525e+08,21038.5,-0.00252722,0.108715,-0,0.108745,-30651,-19389.8,-0,36269.1,21038.5
step02_gravity_refstate-crust.xmf,587,-2.63972e-07,2.18933e-06,0,5.67592e-07,-5.96648e+08,-5.96479e+08,-5.9663e+08,38936.8,-0.00454059,0.109752,-0,0.109846,-23478.1,-21723.9,-0,31986.7,38936.8
step02_gravity_refstate-crust.xmf,588,-2.45431e-07,2.17025e-06,0,6.4004e-07,-6.01911e+08,-6.01746e+08,-6.01895e+08,43906.7,-0.00503148,0.111407,-0,0.11152,-21622,-21915.6,-0,30786.4,43906.7
step02_gravity_refstate-crust.xmf,589,-1.67595e-07,2.07705e-06,0,7.92063e-07,-6.14271e+08,-6.14117e+08,-6.14259e+08,54335.5,-0.00593555,0.115529,-0,0.115682,-17663.1,-22365.7,-0,28499.3,54335.5
step02_gravity_refstate-crust.xmf,590,-7.01881e-08,2.13844e-06,0,1.02078e-06,-6.94623e+08,-6.94471e+08,-6.94618e+08,70025.7,-0.00716597,0.115675,-0,0.115897,-13584.2,-25291.5,-0,28708.7,70025.7
step02_gravity_refstate-crust.xmf,591,-1.52264e-07,2.25816e-06,0,9.59869e-07,-6.92211e+08,-6.92046e+08,-6.92201e+08,65847,-0.00696748,0.113255,-0,0.11347,-15111.9,-25203.5,-0,29386.9,65847
step02_gravity_refstate-crust.xmf,592,-1.9616e-07,2.22638e-06,0,8.32091e-07,-6.52662e+08,-6.52496e+08,-6.52648e+08,57081.5,-0.00626152,0.112969,-0,0.113142,-17351.4,-23763.5,-0,29424,57081.5
step02_gravity_refstate-crust.xmf,593,-2.70678e-07,1.96546e-06,0,7.59687e-08,-5.21126e+08,-5.20973e+08,-5.21108e+08,5211.45,-0.000637671,0.106907,-0,0.106909,-37639.5,-18974.1,-0,42151.5,5211.45
step02_gravity_refstate-crust.xmf,594,-2.70587e-07,1.81966e-06,0,9.04898e-12,-4.82672e+08,-4.82529e+08,-4.82653e+08,0.62076,-1.23978e-19,0.109377,-0,0.109377,-40000,-17573.9,-0,43690.3,0.62076
step02_gravity_refstate-crust.xmf,595,2.08789e-06,-4.75811e-07,0,-1.69005e-07,-8.86633e+08,-8.86809e+08,-8.86776e+08,-11593.8,0.000674368,0.131102,0,0.131104,323.936,-32286.5,0,32288.1,11593.8
step02_gravity_refstate-crust.xmf,596,2.23735e-06,-6.80739e-07,0,6.37784e-07,-9.09258e+08,-9.09459e+08,-9.09412e+08,43752,-0.00233505,0.131171,-0,0.131192,-1021.03,-33110.5,-0,33126.2,43752
step02_gravity_refstate-crust.xmf,597,5.18311e-07,1.20534e-06,0,-7.91616e-07,-6.3977e+08,-6.39723e+08,-6.39805e+08,-54304.9,0.00491689,0.12989,0,0.129983,6689.47,-23295.4,0,24236.9,54304.9
step02_gravity_refstate-crust.xmf,598,6.06141e-07,1.1452e-06,0,-8.06043e-07,-6.66002e+08,-6.65965e+08,-6.66044e+08,-55294.5,0.0048539,0.129657,0,0.129747,5968.54,-24250.7,0,24974.4,55294.5
step02_gravity_refstate-crust.xmf,599,7.02972e-07,1.07534e-06,0,-8.21365e-07,-6.93346e+08,-6.93321e+08,-6.93394e+08,-56345.6,0.00479155,0.12937,0,0.129458,5310.1,-25246.5,0,25798.9,56345.6
step02_gravity_refstate-crust.xmf,600,8.14468e-07,9.83442e-07,0,-8.31134e-07,-7.20427e+08,-7.20416e+08,-7.20483e+08,-57015.8,0.00467832,0.129164,0,0.129249,4665.66,-26232.7,0,26644.4,57015.8
step02_gravity_refstate-crust.xmf,601,1.85703e-06,-1.84937e-07,0,-3.96601e-07,-8.64213e+08,-8.64353e+08,-8.64341e+08,-27206.8,0.00165949,0.130593,0,0.130604,884.99,-31469.8,0,31482.2,27206.8
step02_gravity_refstate-crust.xmf,602,2.57196e-07,1.43744e-06,0,-8.4259e-07,-5.95148e+08,-5.95067e+08,-5.95166e+08,-57801.7,0.00557102,0.127876,0,0.127997,9897.1,-21670.2,0,23823.3,57801.7
step02_gravity_refstate-crust.xmf,603,1.18533e-07,1.53659e-06,0,-8.16683e-07,-5.6207e+08,-5.61973e+08,-5.62078e+08,-56024.4,0.00562283,0.126529,0,0.126654,12242,-20465.6,0,23847.6,56024.4
step02_gravity_refstate-crust.xmf,604,-2.04736e-07,1.39413e-06,0,-3.94393e-07,-3.84079e+08,-3.83969e+08,-3.84065e+08,-27055.4,0.00334633,0.120579,0,0.120625,26779.3,-13984.1,0,30210.7,27055.4
step02_gravity_refstate-crust.xmf,605,-2.28385e-07,1.43907e-06,0,-3.38497e-07,-3.9081e+08,-3.90696e+08,-3.90795e+08,-23220.9,0.00289514,0.118728,0,0.118763,28855.3,-14229.1,0,32172.9,23220.9
step02_gravity_refstate-crust.xmf,606,4.71915e-09,1.60169e-06,0,-7.64875e-07,-5.30218e+08,-5.30109e+08,-5.30219e+08,-52470.4,0.00546661,0.124901,0,0.125021,14876,-19305.6,0,24372.2,52470.4
step02_gravity_refstate-crust.xmf,607,-1.3372e-07,1.61014e-06,0,-6.15775e-07,-4.72409e+08,-4.72289e+08,-4.724e+08,-42242.2,0.00468921,0.121852,0,0.121942,20261.3,-17200.5,0,26577.7,42242.2
step02_gravity_refstate-crust.xmf,608,-1.74428e-07,1.51978e-06,0,-5.10106e-07,-4.29858e+08,-4.29742e+08,-4.29846e+08,-34993.3,0.00405181,0.121053,0,0.121121,23411.8,-15651.1,0,28161.5,34993.3
step02_gravity_refstate-crust.xmf,609,-8.12959e-08,1.64928e-06,0,-7.02188e-07,-5.07617e+08,-5.07498e+08,-5.07611e+08,-48170.1,0.00518229,0.122867,0,0.122976,17573.1,-18482.5,0,25503.3,48170.1
step02_gravity_refstate-crust.xmf,610,-2.86009e-07,1.12488e-06,0,-6.33803e-08,-2.96425e+08,-2.96328e+08,-2.96405e+08,-4347.89,0.000666139,0.119512,0,0.119514,37686,-10792.2,0,39200.9,4347.89
step02_gravity_refstate-crust.xmf,611,-2.71156e-07,1.26719e-06,0,-1.3476e-07,-3.36735e+08,-3.3663e+08,-3.36717e+08,-9244.53,0.00128424,0.118256,0,0.118263,35361.3,-12260.1,0,37426.3,9244.53
step02_gravity_refstate-crust.xmf,612,-2.58597e-07,1.39807e-06,0,-2.10006e-07,-3.73879e+08,-3.73765e+08,-3.73861e+08,-14406.4,0.00186882,0.117277,0,0.117292,33061.9,-13612.5,0,35754.6,14406.4
step02_gravity_refstate-crust.xmf,613,1.25458e-06,5.62462e-07,0,1.16687e-06,-8.35873e+08,-8.35921e+08,-8.35959e+08,80047.6,-0.00546739,0.12735,-0,0.127468,-3575.66,-30436.7,-0,30646.1,80047.6
step02_gravity_refstate-crust.xmf,614,1.44423e-06,3.25857e-07,0,1.21752e-06,-8.60995e+08,-8.61071e+08,-8.61094e+08,83521.6,-0.00535846,0.127751,-0,0.127863,-3123.81,-31351.7,-0,31507,83521.6
step02_gravity_refstate-crust.xmf,615,1.5845e-06,1.47044e-07,0,1.40636e-06,-8.88484e+08,-8.88583e+08,-8.88593e+08,96476.1,-0.00581368,0.127681,-0,0.127813,-3030.98,-32352.8,-0,32494.5,96476.1
step02_gravity_refstate-crust.xmf,616,2.06647e-06,-4.8564e-07,0,1.10128e-06,-9.10284e+08,-9.10459e+08,-9.10426e+08,75547.8,-0.00412993,0.130102,-0,0.130167,-1847,-33147.4,-0,33198.8,75547.8
step02_gravity_refstate-crust.xmf,617,8.98323e-07,1.00647e-06,0,1.28014e-06,-8.10217e+08,-8.1021e+08,-8.10279e+08,87817.3,-0.00654233,0.125265,-0,0.125436,-5061.97,-29502,-0,29933.1,87817.3
step02_gravity_refstate-crust.xmf,618,8.58556e-08,2.03049e-06,0,1.22575e-06,-7.51399e+08,-7.51265e+08,-7.51405e+08,84086.1,-0.0078928,0.116885,-0,0.117151,-10651.8,-27358.9,-0,29359.3,84086.1
step02_gravity_refstate-crust.xmf,619,1.2049e-07,2.01805e-06,0,1.29055e-06,-7.69461e+08,-7.69331e+08,-7.69469e+08,88531.7,-0.00811077,0.116705,-0,0.116986,-10103.6,-28016.6,-0,29782.8,88531.7
step02_gravity_refstate-crust.xmf,620,-8.0983e-08,2.22703e-06,0,1.10355e-06,-7.29039e+08,-7.28881e+08,-7.29034e+08,75703.5,-0.0075958,0.11409,-0,0.114342,-12950.8,-26544.5,-0,29535.3,75703.5
step02_gravity_refstate-crust.xmf,621,6.99282e-07,1.28073e-06,0,1.37401e-06,-8.0799e+08,-8.0795e+08,-8.08038e+08,94257.1,-0.0073198,0.123193,-0,0.12341,-6096.55,-29420.5,-0,30045.5,94257.1
step02_gravity_refstate-crust.xmf,622,4.94534e-07,1.55257e-06,0,1.41991e-06,-8.04018e+08,-8.03945e+08,-8.04052e+08,97405.7,-0.00790132,0.120886,-0,0.121144,-7217.53,-29275.5,-0,30152,97405.7
step02_gravity_refstate-crust.xmf,623,3.33752e-07,1.76222e-06,0,1.40014e-06,-7.94784e+08,-7.94686e+08,-7.94807e+08,96049.7,-0.00814311,0.119078,-0,0.119356,-8250.21,-28939,-0,30092,96049.7
step02_gravity_refstate-crust.xmf,624,-2.74401e-07,2.19483e-06,0,4.93386e-07,-5.90902e+08,-5.90733e+08,-5.90883e+08,33846.3,-0.00400579,0.108271,-0,0.108345,-25418.4,-21514.7,-0,33301.3,33846.3
step02_gravity_refstate-crust.xmf,625,-2.26168e-07,2.16176e-06,0,6.98118e-07,-6.10213e+08,-6.10049e+08,-6.10197e+08,47890.9,-0.00541406,0.112534,-0,0.112664,-20157.8,-22217.8,-0,29999.5,47890.9
step02_gravity_refstate-crust.xmf,626,-2.30226e-07,2.25351e-06,0,7.57641e-07,-6.41015e+08,-6.40844e+08,-6.40999e+08,51974.1,-0.00583021,0.111534,-0,0.111686,-19032.7,-23339.3,-0,30115.9,51974.1
step02_gravity_refstate-crust.xmf,627,-2.18769e-07,2.35857e-06,0,8.89145e-07,-6.90533e+08,-6.90357e+08,-6.90518e+08,60995.4,-0.00665908,0.11082,-0,0.11102,-16690.3,-25142.3,-0,30177.9,60995.4
step02_gravity_refstate-crust.xmf,628,-2.71057e-07,2.15455e-06,0,1.24783e-07,-5.71071e+08,-5.70905e+08,-5.71052e+08,8560.15,-0.00105482,0.103478,-0,0.103483,-36079.7,-20792.7,-0,41642.2,8560.15
step02_gravity_refstate-crust.xmf,629,2.30098e-06,-7.87422e-07,0,1.18595e-07,-9.08808e+08,-9.09019e+08,-9.08965e+08,8135.65,-0.000441861,0.131633,-0,0.131634,-191.264,-33094.1,-0,33094.7,8135.65
step02_gravity_refstate-crust.xmf,630,2.36355e-06,-8.93063e-07,0,1.02857e-06,-9.29724e+08,-9.29948e+08,-9.29886e+08,70560,-0.003586,0.131235,-0,0.131284,-1438.06,-33855.7,-0,33886.2,70560
step02_gravity_refstate-crust.xmf,631,2.54562e-06,-1.10193e-06,0,4.8344e-07,-9.30541e+08,-9.30791e+08,-9.30716e+08,33164,-0.00163496,0.132183,-0,0.132194,-638.2,-33885.9,-0,33891.9,33164
step02_gravity_refstate-crust.xmf,632,4.13757e-07,1.35149e-06,0,-8.81376e-07,-6.44458e+08,-6.44393e+08,-6.44486e+08,-60462.4,0.00557029,0.128006,0,0.128127,7958.52,-23465.9,0,24778.7,60462.4
step02_gravity_refstate-crust.xmf,633,3.26941e-07,1.43762e-06,0,-8.8967e-07,-6.30889e+08,-6.30813e+08,-6.30911e+08,-61031.4,0.00576216,0.127266,0,0.127397,8978.43,-22971.7,0,24664,61031.4
step02_gravity_refstate-crust.xmf,634,9.3645e-07,8.67416e-07,0,-8.16885e-07,-7.44964e+08,-7.44969e+08,-7.45028e+08,-56038.3,0.00443647,0.129176,0,0.129253,3997.33,-27126.3,0,27419.2,56038.3
step02_gravity_refstate-crust.xmf,635,1.11218e-06,6.86549e-07,0,-7.66161e-07,-7.71349e+08,-7.71378e+08,-7.71425e+08,-52558.6,0.00395886,0.129417,0,0.129478,3178.88,-28087.3,0,28266.6,52558.6
step02_gravity_refstate-crust.xmf,636,1.28002e-06,5.02785e-07,0,-7.16525e-07,-7.96279e+08,-7.96332e+08,-7.96367e+08,-49153.6,0.00352076,0.129591,0,0.129639,2541.44,-28995.3,0,29106.5,49153.6
step02_gravity_refstate-crust.xmf,637,1.45814e-06,2.9976e-07,0,-6.46732e-07,-8.19873e+08,-8.19953e+08,-8.19973e+08,-44365.8,0.00302082,0.129834,0,0.129869,1967.98,-29854.7,0,29919.5,44365.8
step02_gravity_refstate-crust.xmf,638,1.64881e-06,7.28071e-08,0,-5.47124e-07,-8.42333e+08,-8.42441e+08,-8.42446e+08,-37532.7,0.00242173,0.130165,0,0.130188,1427.46,-30672.8,0,30706,37532.7
step02_gravity_refstate-crust.xmf,639,1.98218e-06,-3.39656e-07,0,-7.13526e-07,-8.87928e+08,-8.88087e+08,-8.88064e+08,-48947.9,0.00283935,0.130405,0,0.130436,1381.22,-32333.4,0,32362.9,48947.9
step02_gravity_refstate-crust.xmf,640,1.55602e-07,1.57879e-06,0,-8.74109e-07,-5.98226e+08,-5.98128e+08,-5.98236e+08,-59963.9,0.00591586,0.125649,0,0.125788,11385.7,-21782.1,0,24578.3,59963.9
step02_gravity_refstate-crust.xmf,641,-2.4949e-07,1.52308e-06,0,-2.78174e-07,-4.09254e+08,-4.09133e+08,-4.09237e+08,-19082.7,0.00237026,0.116383,0,0.116407,31054.1,-14900.7,0,34444,19082.7
step02_gravity_refstate-crust.xmf,642,3.44948e-08,1.66084e-06,0,-8.1786e-07,-5.65433e+08,-5.65321e+08,-5.65435e+08,-56105.2,0.00577799,0.124193,0,0.124327,13827.4,-20587.8,0,24800.3,56105.2
step02_gravity_refstate-crust.xmf,643,-7.07867e-08,1.76924e-06,0,-7.66985e-07,-5.52761e+08,-5.52635e+08,-5.52756e+08,-52615.2,0.00560544,0.121478,0,0.121607,16444.5,-20126.3,0,25990.2,52615.2
step02_gravity_refstate-crust.xmf,644,-2.05583e-07,1.57561e-06,0,-4.51722e-07,-4.35357e+08,-4.35234e+08,-4.35342e+08,-30988.1,0.00365285,0.118799,0,0.118855,25562.8,-15851.2,0,30078.6,30988.1
step02_gravity_refstate-crust.xmf,645,-1.33902e-07,1.74651e-06,0,-6.6909e-07,-5.1557e+08,-5.15441e+08,-5.15561e+08,-45899.6,0.00504665,0.120324,0,0.120429,19285.6,-18772,0,26913.2,45899.6
step02_gravity_refstate-crust.xmf,646,-1.76443e-07,1.67439e-06,0,-5.67646e-07,-4.7604e+08,-4.75913e+08,-4.76028e+08,-38940.5,0.00439995,0.119537,0,0.119618,22228.7,-17332.6,0,28187.5,38940.5
step02_gravity_refstate-crust.xmf,647,-2.80325e-07,1.25211e-06,0,2.62457e-10,-3.31198e+08,-3.31092e+08,-3.31178e+08,18.0046,4.51422e-20,0.11784,0,0.11784,40000,-12058.4,0,41778,18.0046
step02_gravity_refstate-crust.xmf,648,1.80112e-06,-1.33695e-07,0,1.46391e-06,-9.09555e+08,-9.09688e+08,-9.09679e+08,100424,-0.00571371,0.128456,-0,0.128583,-2674.07,-33120.3,-0,33228.1,100424
step02_gravity_refstate-crust.xmf,649,1.02806e-06,8.57328e-07,0,1.36015e-06,-8.34475e+08,-8.34487e+08,-8.34546e+08,93306.4,-0.00660321,0.125386,-0,0.12556,-4596.32,-30385.4,-0,30731.1,93306.4
step02_gravity_refstate-crust.xmf,650,-1.30212e-09,2.18826e-06,0,1.25346e-06,-7.68e+08,-7.6785e+08,-7.68e+08,85987.4,-0.00815318,0.114404,-0,0.114694,-11229.2,-27963.2,-0,30133.6,85987.4
step02_gravity_refstate-crust.xmf,651,-9.74557e-08,2.32944e-06,0,1.18598e-06,-7.62786e+08,-7.62619e+08,-7.62779e+08,81358.5,-0.00802488,0.112278,-0,0.112565,-12450.3,-27773.2,-0,30436.2,81358.5
step02_gravity_refstate-crust.xmf,652,1.40662e-07,2.03847e-06,0,1.39415e-06,-7.97008e+08,-7.96878e+08,-7.97018e+08,95638.7,-0.00848344,0.1159,-0,0.11621,-9554.55,-29019.6,-0,30552,95638.7
step02_gravity_refstate-crust.xmf,653,-2.73273e-07,2.18866e-06,0,1.88865e-07,-5.80086e+08,-5.79917e+08,-5.80067e+08,12956.1,-0.00159738,0.103402,-0,0.103415,-34078.3,-21120.9,-0,40092.7,12956.1
step02_gravity_refstate-crust.xmf,654,-2.78339e-07,2.20299e-06,0,2.63089e-07,-5.84066e+08,-5.83896e+08,-5.84047e+08,18047.9,-0.0022114,0.104101,-0,0.104124,-31845.3,-21265.8,-0,38293,18047.9
step02_gravity_refstate-crust.xmf,655,-2.80055e-07,2.20399e-06,0,4.16471e-07,-5.88366e+08,-5.88195e+08,-5.88346e+08,28569.9,-0.00342962,0.106667,-0,0.106722,-27487,-21422.3,-0,34848.9,28569.9
step02_gravity_refstate-crust.xmf,656,-2.80825e-07,2.20747e-06,0,3.39393e-07,-5.86482e+08,-5.86311e+08,-5.86463e+08,23282.4,-0.00282761,0.105231,-0,0.105269,-29634.4,-21353.8,-0,36526.5,23282.4
step02_gravity_refstate-crust.xmf,657,-2.96398e-07,2.38765e-06,0,5.24761e-07,-6.39867e+08,-6.39683e+08,-6.39847e+08,35998.6,-0.0043195,0.10502,-0,0.105109,-24566.5,-23297.5,-0,33856.9,35998.6
step02_gravity_refstate-crust.xmf,658,-2.88291e-07,2.37252e-06,0,6.02945e-07,-6.43448e+08,-6.43265e+08,-6.43428e+08,41362,-0.00487522,0.106739,-0,0.10685,-22686.5,-23427.9,-0,32612,41362
step02_gravity_refstate-crust.xmf,659,-2.70264e-07,2.34239e-06,0,6.80172e-07,-6.46632e+08,-6.46453e+08,-6.46614e+08,46659.8,-0.00538861,0.108629,-0,0.108763,-20885.8,-23543.8,-0,31472.7,46659.8
step02_gravity_refstate-crust.xmf,660,-1.69352e-07,2.36564e-06,0,1.02886e-06,-7.26545e+08,-7.26371e+08,-7.26533e+08,70579.6,-0.00737701,0.111472,-0,0.111716,-14477.1,-26453.6,-0,30155.9,70579.6
step02_gravity_refstate-crust.xmf,661,-2.38764e-07,2.47938e-06,0,9.49273e-07,-7.25576e+08,-7.25389e+08,-7.2556e+08,65120.2,-0.007056,0.108884,-0,0.109112,-15993.7,-26418.2,-0,30882.3,65120.2
step02_gravity_refstate-crust.xmf,662,-2.66024e-07,2.44051e-06,0,8.09656e-07,-6.89377e+08,-6.89192e+08,-6.89359e+08,55542.4,-0.00625266,0.108393,-0,0.108574,-18336.5,-25100.2,-0,31084.5,55542.4
step02_gravity_refstate-crust.xmf,663,-2.6929e-07,2.09613e-06,0,1.72367e-10,-5.55619e+08,-5.55456e+08,-5.556e+08,11.8244,-1.08448e-19,0.104176,-0,0.104176,-40000,-20230,-0,44824.7,11.8244
step02_gravity_refstate-crust.xmf,664,-2.68003e-07,2.23912e-06,0,6.48029e-08,-5.93584e+08,-5.93412e+08,-5.93565e+08,4445.48,-0.000556245,0.101321,-0,0.101322,-37916.4,-21612.4,-0,43643.5,4445.48
step02_gravity_refstate-crust.xmf,665,2.29526e-06,-7.57651e-07,0,-4.43814e-07,-9.10113e+08,-9.10322e+08,-9.1027e+08,-30445.6,0.00163922,0.131448,0,0.131458,709.076,-33141.7,0,33149.3,30445.6
step02_gravity_refstate-crust.xmf,666,2.74409e-06,-1.39968e-06,0,8.93915e-07,-9.50671e+08,-9.50955e+08,-9.50859e+08,61322.6,-0.00284089,0.132728,-0,0.132759,-1006.04,-34619.1,-0,34633.7,61322.6
step02_gravity_refstate-crust.xmf,667,4.84618e-07,1.30729e-06,0,-8.99637e-07,-6.66154e+08,-6.66097e+08,-6.66187e+08,-61715.1,0.0055644,0.127919,0,0.12804,7268.6,-24256,0,25321.6,61715.1
step02_gravity_refstate-crust.xmf,668,5.70354e-07,1.24888e-06,0,-9.41502e-07,-6.94531e+08,-6.94485e+08,-6.94571e+08,-64587,0.00561952,0.127577,0,0.127701,6583.98,-25289.4,0,26132.4,64587
step02_gravity_refstate-crust.xmf,669,6.71457e-07,1.17125e-06,0,-9.8217e-07,-7.23245e+08,-7.2321e+08,-7.23291e+08,-67376.8,0.00564821,0.127302,0,0.127427,5914.7,-26335,0,26991,67376.8
step02_gravity_refstate-crust.xmf,670,7.9771e-07,1.05851e-06,0,-1.02938e-06,-7.54258e+08,-7.5424e+08,-7.54312e+08,-70615.3,0.00564621,0.127107,0,0.127233,5221.72,-27464.4,0,27956.4,70615.3
step02_gravity_refstate-crust.xmf,671,1.73154e-06,-2.96742e-08,0,-8.01923e-07,-8.64541e+08,-8.64662e+08,-8.6466e+08,-55011.9,0.00339929,0.129709,0,0.129754,1853.06,-31481.5,0,31535.9,55011.9
step02_gravity_refstate-crust.xmf,672,1.9936e-07,1.60293e-06,0,-9.34652e-07,-6.32504e+08,-6.32408e+08,-6.32518e+08,-64117.2,0.00619809,0.124861,0,0.125015,10560.4,-23030.2,0,25336,64117.2
step02_gravity_refstate-crust.xmf,673,6.26317e-08,1.70793e-06,0,-8.79181e-07,-5.99771e+08,-5.99659e+08,-5.99776e+08,-60311.8,0.00609627,0.123422,0,0.123573,12874,-21838.2,0,25350.4,60311.8
step02_gravity_refstate-crust.xmf,674,-2.29807e-07,1.62271e-06,0,-3.90843e-07,-4.41373e+08,-4.41246e+08,-4.41357e+08,-26811.8,0.00319912,0.116752,0,0.116796,27670.3,-16070.2,0,31998.4,26811.8
step02_gravity_refstate-crust.xmf,675,-2.47049e-07,1.67322e-06,0,-3.31216e-07,-4.50386e+08,-4.50255e+08,-4.50369e+08,-22721.4,0.00273462,0.114834,0,0.114867,29643.3,-16398.4,0,33876.7,22721.4
step02_gravity_refstate-crust.xmf,676,-2.80528e-08,1.74634e-06,0,-8.03683e-07,-5.65761e+08,-5.6564e+08,-5.65759e+08,-55132.7,0.00578305,0.122354,0,0.12249,15164.2,-20599.7,0,25579.3,55132.7
step02_gravity_refstate-crust.xmf,677,-1.79833e-07,1.81535e-06,0,-6.23113e-07,-5.18953e+08,-5.18816e+08,-5.18941e+08,-42745.5,0.00477744,0.118015,0,0.118111,21104.3,-18895.1,0,28327,42745.5
step02_gravity_refstate-crust.xmf,678,-2.13812e-07,1.75841e-06,0,-5.09862e-07,-4.86949e+08,-4.86814e+08,-4.86934e+08,-34976.5,0.00401993,0.116754,0,0.116823,24353.8,-17729.7,0,30124,34976.5
step02_gravity_refstate-crust.xmf,679,-1.37081e-07,1.86845e-06,0,-7.29629e-07,-5.56914e+08,-5.56777e+08,-5.56905e+08,-50052.6,0.00544609,0.118862,0,0.118986,18255.7,-20277.4,0,27284.4,50052.6
step02_gravity_refstate-crust.xmf,680,-2.7352e-07,1.3953e-06,0,-7.13515e-08,-3.70353e+08,-3.70239e+08,-3.70334e+08,-4894.71,0.00064639,0.116126,0,0.116128,37646.8,-13484.1,0,39988.8,4894.71
step02_gravity_refstate-crust.xmf,681,-2.67081e-07,1.53721e-06,0,-1.47781e-07,-4.09173e+08,-4.09049e+08,-4.09155e+08,-10137.7,0.00127679,0.114582,0,0.114589,35278.2,-14897.7,0,38294.8,10137.7
step02_gravity_refstate-crust.xmf,682,-2.62656e-07,1.68688e-06,0,-2.29144e-07,-4.50109e+08,-4.49975e+08,-4.50091e+08,-15719.3,0.00191432,0.113087,0,0.113103,32857.8,-16388.2,0,36717.9,15719.3
step02_gravity_refstate-crust.xmf,683,1.17494e-06,6.77525e-07,0,1.46305e-06,-8.59716e+08,-8.5975e+08,-8.59797e+08,100365,-0.00670268,0.125597,-0,0.125776,-4171.41,-31304.6,-0,31581.3,100365
step02_gravity_refstate-crust.xmf,684,1.32795e-06,4.79307e-07,0,1.59462e-06,-8.84486e+08,-8.84544e+08,-8.84577e+08,109391,-0.00686528,0.125893,-0,0.12608,-3819.96,-32206.7,-0,32432.4,109391
step02_gravity_refstate-crust.xmf,685,1.49739e-06,2.46828e-07,0,1.7454e-06,-9.07997e+08,-9.08083e+08,-9.081e+08,119735,-0.00703779,0.12639,-0,0.126585,-3501.56,-33063,-0,33247.9,119735
step02_gravity_refstate-crust.xmf,686,2.07358e-06,-5.28646e-07,0,1.51174e-06,-9.29309e+08,-9.29487e+08,-9.29451e+08,103705,-0.00543918,0.129589,-0,0.129703,-2277.4,-33840,-0,33916.5,103705
step02_gravity_refstate-crust.xmf,687,2.41414e-06,-1.011e-06,0,1.49663e-06,-9.4871e+08,-9.48945e+08,-9.48875e+08,102669,-0.00495055,0.131119,-0,0.131212,-1839.2,-34546.9,-0,34595.8,102669
step02_gravity_refstate-crust.xmf,688,7.93133e-07,1.16789e-06,0,1.48505e-06,-8.32648e+08,-8.32622e+08,-8.32702e+08,101875,-0.00750758,0.123132,-0,0.123361,-5634.4,-30318.4,-0,30837.5,101875
step02_gravity_refstate-crust.xmf,689,-4.05706e-09,2.2514e-06,0,1.34896e-06,-7.96948e+08,-7.96793e+08,-7.96947e+08,92538.9,-0.00855671,0.113165,-0,0.113488,-10733,-29017.1,-0,30938.5,92538.9
step02_gravity_refstate-crust.xmf,690,-1.92238e-07,2.469e-06,0,1.10481e-06,-7.59382e+08,-7.59199e+08,-7.59368e+08,75790.3,-0.0077843,0.109757,-0,0.110033,-13853.7,-27649.1,-0,30925.7,75790.3
step02_gravity_refstate-crust.xmf,691,5.65822e-07,1.4897e-06,0,1.54298e-06,-8.30796e+08,-8.30732e+08,-8.30835e+08,105848,-0.00819998,0.12059,-0,0.120868,-6719.85,-30250.5,-0,30987.9,105848
step02_gravity_refstate-crust.xmf,692,3.54284e-07,1.77792e-06,0,1.54641e-06,-8.26911e+08,-8.26814e+08,-8.26936e+08,106084,-0.0086203,0.118033,-0,0.118348,-7824.94,-30108.7,-0,31108.9,106084
step02_gravity_refstate-crust.xmf,693,1.64298e-07,2.04724e-06,0,1.51853e-06,-8.25222e+08,-8.25093e+08,-8.25233e+08,104171,-0.00887991,0.115215,-0,0.115557,-8975.48,-30046.9,-0,31358.8,104171
step02_gravity_refstate-crust.xmf,694,-2.68872e-07,2.37913e-06,0,1.33028e-07,-6.30439e+08,-6.30258e+08,-6.30421e+08,9125.73,-0.00115716,0.0987003,-0,0.0987071,-35623.8,-22954.4,-0,42378.8,9125.73
step02_gravity_refstate-crust.xmf,695,-2.9792e-07,2.39965e-06,0,4.45921e-07,-6.38155e+08,-6.3797e+08,-6.38135e+08,30590.2,-0.0037307,0.103291,-0,0.103359,-26545.5,-23235.2,-0,35278,30590.2
step02_gravity_refstate-crust.xmf,696,-2.91975e-07,2.57272e-06,0,8.64013e-07,-7.25469e+08,-7.25272e+08,-7.25449e+08,59271.3,-0.00663755,0.106293,-0,0.1065,-17562.7,-26414.2,-0,31720,59271.3
step02_gravity_refstate-crust.xmf,697,2.56535e-06,-1.15951e-06,0,-1.52977e-07,-9.30701e+08,-9.30956e+08,-9.30877e+08,-10494.2,0.000517546,0.132398,0,0.132399,200.87,-33891.7,0,33892.3,10494.2
step02_gravity_refstate-crust.xmf,698,2.88135e-06,-1.58165e-06,0,2.20082e-07,-9.50931e+08,-9.51237e+08,-9.51128e+08,15097.6,-0.000682365,0.133389,-0,0.133391,-237.596,-34628.8,-0,34629.6,15097.6
step02_gravity_refstate-crust.xmf,699,9.82039e-07,8.56073e-07,0,-9.62889e-07,-7.74745e+08,-7.74754e+08,-7.74812e+08,-66054.2,0.0050664,0.12798,0,0.12808,4188.07,-28210.7,0,28519.8,66054.2
step02_gravity_refstate-crust.xmf,700,3.62804e-07,1.4639e-06,0,-9.69628e-07,-6.66858e+08,-6.66783e+08,-6.66883e+08,-66516.5,0.00611375,0.126004,0,0.126152,8542.7,-24281.4,0,25740.3,66516.5
step02_gravity_refstate-crust.xmf,701,1.14002e-06,6.82672e-07,0,-9.62446e-07,-7.98398e+08,-7.98429e+08,-7.98476e+08,-66023.8,0.00480703,0.128211,0,0.128302,3579.58,-29072.1,0,29291.7,66023.8
step02_gravity_refstate-crust.xmf,702,1.32109e-06,4.74144e-07,0,-9.42433e-07,-8.22392e+08,-8.2245e+08,-8.22483e+08,-64650.9,0.00446123,0.12857,0,0.128648,2979.72,-29946.1,0,30094,64650.9
step02_gravity_refstate-crust.xmf,703,1.5197e-06,2.39453e-07,0,-8.9314e-07,-8.44627e+08,-8.44714e+08,-8.44731e+08,-61269.4,0.00400688,0.129073,0,0.129135,2409.78,-30756,0,30850.3,61269.4
step02_gravity_refstate-crust.xmf,704,1.74087e-06,-3.85344e-08,0,-1.06289e-06,-8.80298e+08,-8.8042e+08,-8.80417e+08,-72914.5,0.0044109,0.129104,0,0.12918,2290.05,-32055.1,0,32136.8,72914.5
step02_gravity_refstate-crust.xmf,705,2.1684e-06,-6.03461e-07,0,-9.52923e-07,-9.12579e+08,-9.12769e+08,-9.12728e+08,-65370.5,0.00352211,0.130626,0,0.130674,1539.84,-33231.2,0,33266.8,65370.5
step02_gravity_refstate-crust.xmf,706,2.45296e-07,1.62684e-06,0,-9.99187e-07,-6.66345e+08,-6.66251e+08,-6.66362e+08,-68544.2,0.00650246,0.123974,0,0.124145,9849.77,-24262.5,0,26185.6,68544.2
step02_gravity_refstate-crust.xmf,707,9.27744e-08,1.75297e-06,0,-9.45218e-07,-6.34552e+08,-6.34438e+08,-6.34558e+08,-64842,0.00643712,0.122508,0,0.122677,12017.4,-23104.6,0,26043,64842
step02_gravity_refstate-crust.xmf,708,-2.55378e-07,1.68989e-06,0,-2.8396e-07,-4.52614e+08,-4.52481e+08,-4.52597e+08,-19479.7,0.00235991,0.113801,0,0.113825,31137.1,-16479.5,0,35229.1,19479.7
step02_gravity_refstate-crust.xmf,709,-1.54334e-08,1.82362e-06,0,-8.62887e-07,-6.01014e+08,-6.00888e+08,-6.01013e+08,-59194,0.00614222,0.121231,0,0.121387,14329.8,-21883.3,0,26157.6,59194
step02_gravity_refstate-crust.xmf,710,-8.07571e-08,1.91177e-06,0,-8.32317e-07,-5.99457e+08,-5.9932e+08,-5.99451e+08,-57097,0.00605505,0.119278,0,0.119431,15763.9,-21826.5,0,26923.9,57097
step02_gravity_refstate-crust.xmf,711,-2.36699e-07,1.80628e-06,0,-4.41798e-07,-4.91356e+08,-4.91216e+08,-4.9134e+08,-30307.3,0.00354699,0.114566,0,0.114621,26491.5,-17890.1,0,31966.5,30307.3
step02_gravity_refstate-crust.xmf,712,-1.84006e-07,1.95271e-06,0,-6.78011e-07,-5.60933e+08,-5.60787e+08,-5.60921e+08,-46511.6,0.00518416,0.116382,0,0.116497,20029.6,-20423.6,0,28606.1,46511.6
step02_gravity_refstate-crust.xmf,713,-2.15117e-07,1.87756e-06,0,-5.671e-07,-5.23144e+08,-5.23001e+08,-5.23129e+08,-38903.1,0.00442609,0.115718,0,0.115803,22976.2,-19047.6,0,29844.9,38903.1
step02_gravity_refstate-crust.xmf,714,-1.39268e-07,1.99436e-06,0,-7.89194e-07,-5.98522e+08,-5.98376e+08,-5.98513e+08,-54138.7,0.00587335,0.117176,0,0.117323,17315.1,-21792.3,0,27833.8,54138.7
step02_gravity_refstate-crust.xmf,715,-2.72212e-07,1.53697e-06,0,1.0948e-10,-4.07934e+08,-4.07809e+08,-4.07915e+08,7.51032,4.4666e-20,0.113944,0,0.113944,40000,-14852.5,0,42668.5,7.51032
step02_gravity_refstate-crust.xmf,716,1.72289e-06,-5.01704e-08,0,1.85412e-06,-9.28845e+08,-9.28966e+08,-9.28963e+08,127192,-0.0070243,0.127374,-0,0.127567,-3120.21,-33822.4,-0,33966,127192
step02_gravity_refstate-crust.xmf,717,9.11712e-07,1.0274e-06,0,1.61529e-06,-8.58853e+08,-8.58845e+08,-8.58915e+08,110809,-0.0077153,0.123228,-0,0.123469,-5161.59,-31272.7,-0,31695.8,110809
step02_gravity_refstate-crust.xmf,718,2.94294e-06,-1.75616e-06,0,1.31454e-06,-9.71313e+08,-9.71636e+08,-9.71515e+08,90177.7,-0.00394359,0.133496,-0,0.133554,-1256.81,-35370.8,-0,35393.1,90177.7
step02_gravity_refstate-crust.xmf,719,3.14731e-06,-1.97956e-06,0,6.79498e-07,-9.69658e+08,-9.7001e+08,-9.69874e+08,46613.6,-0.00197067,0.134355,-0,0.134369,-619.412,-35311,-0,35316.5,46613.6
step02_gravity_refstate-crust.xmf,720,-1.24951e-07,2.42653e-06,0,1.27587e-06,-7.94314e+08,-7.94139e+08,-7.94305e+08,87524.4,-0.00844003,0.110583,-0,0.110904,-11967.9,-28921,-0,31299.5,87524.4
step02_gravity_refstate-crust.xmf,721,-2.19246e-07,2.58319e-06,0,1.18141e-06,-7.92044e+08,-7.91852e+08,-7.92029e+08,81045,-0.00818349,0.107865,-0,0.108175,-13309.8,-28838.3,-0,31761.6,81045
step02_gravity_refstate-crust.xmf,722,-6.49235e-09,2.29981e-06,0,1.46059e-06,-8.25071e+08,-8.24913e+08,-8.25071e+08,100196,-0.00896619,0.112158,-0,0.112516,-10184.4,-30041.1,-0,31720.5,100196
step02_gravity_refstate-crust.xmf,723,-2.76423e-07,2.40113e-06,0,2.12882e-07,-6.35759e+08,-6.35575e+08,-6.3574e+08,14603.7,-0.00184129,0.0991559,-0,0.099173,-33098.7,-23148,-0,40390,14603.7
step02_gravity_refstate-crust.xmf,724,-2.876e-07,2.41647e-06,0,2.88953e-07,-6.392e+08,-6.39015e+08,-6.3918e+08,19822.1,-0.00248045,0.100043,-0,0.100074,-30815.9,-23273.3,-0,38616.9,19822.1
step02_gravity_refstate-crust.xmf,725,-2.94702e-07,2.41476e-06,0,3.66251e-07,-6.39442e+08,-6.39256e+08,-6.39422e+08,25124.8,-0.00311113,0.101478,-0,0.101525,-28640.1,-23282.1,-0,36909.5,25124.8
step02_gravity_refstate-crust.xmf,726,-2.97975e-07,2.50631e-06,0,7.24664e-07,-6.88994e+08,-6.88801e+08,-6.88973e+08,49711.9,-0.00576208,0.105963,-0,0.10612,-20068.6,-25086.2,-0,32125.8,49711.9
step02_gravity_refstate-crust.xmf,727,-3.18519e-07,2.58643e-06,0,4.71287e-07,-6.84878e+08,-6.84679e+08,-6.84856e+08,32330.3,-0.00400828,0.0999024,-0,0.0999828,-25620.7,-24936.4,-0,35752.5,32330.3
step02_gravity_refstate-crust.xmf,728,-3.21585e-07,2.57459e-06,0,5.52817e-07,-6.86359e+08,-6.8616e+08,-6.86337e+08,37923.2,-0.0046135,0.10171,-0,0.101814,-23725.4,-24990.3,-0,34458.8,37923.2
step02_gravity_refstate-crust.xmf,729,-3.16248e-07,2.5519e-06,0,6.37242e-07,-6.88331e+08,-6.88134e+08,-6.8831e+08,43714.8,-0.00520266,0.103671,-0,0.103801,-21882.2,-25062.1,-0,33270.7,43714.8
step02_gravity_refstate-crust.xmf,730,-2.61703e-07,2.58886e-06,0,1.01257e-06,-7.57383e+08,-7.57188e+08,-7.57365e+08,69462.1,-0.00743336,0.107142,-0,0.107399,-15324.1,-27576.2,-0,31548,69462.1
step02_gravity_refstate-crust.xmf,731,-3.13013e-07,2.68415e-06,0,9.18661e-07,-7.56307e+08,-7.56101e+08,-7.56286e+08,63020.1,-0.00699836,0.104596,-0,0.104829,-16808.2,-27537,-0,32261.5,63020.1
step02_gravity_refstate-crust.xmf,732,-3.3673e-07,2.6897e-06,0,7.70826e-07,-7.34496e+08,-7.34288e+08,-7.34473e+08,52878.6,-0.00613067,0.102795,-0,0.102977,-19270.3,-26742.9,-0,32962.5,52878.6
step02_gravity_refstate-crust.xmf,733,-2.62969e-07,2.363e-06,0,2.27133e-10,-6.26977e+08,-6.26797e+08,-6.26959e+08,15.5813,-1.0125e-19,0.0983832,-0,0.0983832,-40000,-22828.3,-0,46055.8,15.5813
step02_gravity_refstate-crust.xmf,734,-2.61395e-07,2.46041e-06,0,5.84038e-08,-6.53067e+08,-6.52881e+08,-6.53049e+08,4006.5,-0.000517326,0.0962209,-0,0.0962223,-38001.9,-23778.3,-0,44828,4006.5
step02_gravity_refstate-crust.xmf,735,2.49105e-06,-1.04728e-06,0,-7.51129e-07,-9.31505e+08,-9.31747e+08,-9.31676e+08,-51527.4,0.00258152,0.131874,0,0.131899,1011.46,-33920.8,0,33935.9,51527.4
step02_gravity_refstate-crust.xmf,736,8.50108e-07,1.03794e-06,0,-1.14934e-06,-7.83234e+08,-7.83221e+08,-7.83292e+08,-78844.6,0.00609001,0.126126,0,0.126273,5142.61,-28519.5,0,28979.4,78844.6
step02_gravity_refstate-crust.xmf,737,4.33743e-07,1.43862e-06,0,-1.02187e-06,-6.96316e+08,-6.96247e+08,-6.96346e+08,-70100.4,0.00628718,0.125516,0,0.125673,7861.32,-25354.1,0,26544.9,70100.4
step02_gravity_refstate-crust.xmf,738,5.14654e-07,1.38039e-06,0,-1.08628e-06,-7.24844e+08,-7.24785e+08,-7.24879e+08,-74519.1,0.0064261,0.125175,0,0.12534,7182.15,-26392.9,0,27352.7,74519.1
step02_gravity_refstate-crust.xmf,739,6.0852e-07,1.30512e-06,0,-1.15036e-06,-7.52753e+08,-7.52705e+08,-7.52795e+08,-78914.5,0.00654466,0.124935,0,0.125106,6536.04,-27409.2,0,28177.7,78914.5
step02_gravity_refstate-crust.xmf,740,1.57588e-06,1.78079e-07,0,-1.12933e-06,-8.67861e+08,-8.67957e+08,-8.67969e+08,-77471.7,0.00487107,0.12843,0,0.128523,2710,-31602,0,31718,77471.7
step02_gravity_refstate-crust.xmf,741,1.90557e-06,-2.6221e-07,0,-1.10448e-06,-8.97441e+08,-8.9759e+08,-8.97572e+08,-75767.4,0.00432055,0.129567,0,0.12964,2065.41,-32679.6,0,32744.8,75767.4
step02_gravity_refstate-crust.xmf,742,1.25286e-07,1.78724e-06,0,-1.01667e-06,-6.67922e+08,-6.67808e+08,-6.67931e+08,-69743.6,0.00677875,0.121612,0,0.121801,11231.4,-24319.6,0,26787.9,69743.6
step02_gravity_refstate-crust.xmf,743,-1.21093e-09,1.88915e-06,0,-9.32775e-07,-6.36444e+08,-6.36314e+08,-6.36444e+08,-63988.4,0.00652575,0.12013,0,0.120307,13466.6,-23173.3,0,26802,63988.4
step02_gravity_refstate-crust.xmf,744,-2.53307e-07,1.84858e-06,0,-3.71546e-07,-4.97044e+08,-4.969e+08,-4.97027e+08,-25488,0.00302296,0.112514,0,0.112555,28654,-18097.2,0,33890.4,25488
step02_gravity_refstate-crust.xmf,745,-2.6294e-07,1.87254e-06,0,-2.93865e-07,-4.99801e+08,-4.99655e+08,-4.99783e+08,-20159.1,0.00241855,0.11082,0,0.110847,30996.5,-18197.6,0,35943.5,20159.1
step02_gravity_refstate-crust.xmf,746,-2.22698e-07,2.01951e-06,0,-6.20175e-07,-5.64524e+08,-5.64371e+08,-5.64509e+08,-42544,0.0048327,0.114016,0,0.114119,21832.4,-20554.3,0,29985.6,42544
step02_gravity_refstate-crust.xmf,747,-2.49058e-07,2.0009e-06,0,-5.02643e-07,-5.44618e+08,-5.44464e+08,-5.44601e+08,-34481.3,0.00400605,0.112147,0,0.112218,25055.7,-19829.4,0,31953,34481.3
step02_gravity_refstate-crust.xmf,748,-1.9425e-07,2.08085e-06,0,-7.37189e-07,-6.01196e+08,-6.0104e+08,-6.01183e+08,-50571.2,0.00560756,0.114711,0,0.114848,19006,-21889.6,0,28989.4,50571.2
step02_gravity_refstate-crust.xmf,749,-2.70477e-07,1.67464e-06,0,-7.57683e-08,-4.44658e+08,-4.44525e+08,-4.4464e+08,-5197.71,0.00064238,0.111976,0,0.111978,37627.7,-16189.7,0,40962.8,5197.71
step02_gravity_refstate-crust.xmf,750,-2.69361e-07,1.8094e-06,0,-1.5303e-07,-4.80709e+08,-4.80566e+08,-4.8069e+08,-10497.9,0.00127822,0.110227,0,0.110235,35264.7,-17502.4,0,39369.2,10497.9
step02_gravity_refstate-crust.xmf,751,1.03868e-06,8.64096e-07,0,1.7583e-06,-8.83102e+08,-8.83114e+08,-8.83173e+08,120620,-0.0079184,0.123501,-0,0.123754,-4740.29,-32155.7,-0,32503.3,120620
step02_gravity_refstate-crust.xmf,752,1.17809e-06,6.71118e-07,0,1.92568e-06,-9.06623e+08,-9.06658e+08,-9.06704e+08,132102,-0.00813619,0.123958,-0,0.124225,-4351.71,-33012.3,-0,33297.9,132102
step02_gravity_refstate-crust.xmf,753,1.34524e-06,4.27314e-07,0,2.09891e-06,-9.28089e+08,-9.28152e+08,-9.28181e+08,143985,-0.00828822,0.124755,-0,0.12503,-3960.53,-33794.1,-0,34025.4,143985
step02_gravity_refstate-crust.xmf,754,1.99689e-06,-4.39876e-07,0,1.97819e-06,-9.49001e+08,-9.49168e+08,-9.49138e+08,135704,-0.00693707,0.128698,-0,0.128885,-2736.09,-34556.7,-0,34664.9,135704
step02_gravity_refstate-crust.xmf,755,2.56833e-06,-1.2716e-06,0,1.89038e-06,-9.69617e+08,-9.6988e+08,-9.69793e+08,129680,-0.00585755,0.131637,-0,0.131768,-1967.91,-35308.3,-0,35363.1,129680
step02_gravity_refstate-crust.xmf,756,3.36714e-06,-2.3941e-06,0,1.26836e-06,-9.87672e+08,-9.88067e+08,-9.87903e+08,87009.5,-0.00344097,0.135261,-0,0.135304,-980.326,-35967.1,-0,35980.5,87009.5
step02_gravity_refstate-crust.xmf,757,6.5357e-07,1.37578e-06,0,1.69187e-06,-8.57067e+08,-8.57017e+08,-8.57111e+08,116062,-0.00846479,0.120634,-0,0.12093,-6173.93,-31207.1,-0,31812,116062
step02_gravity_refstate-crust.xmf,758,-1.3981e-07,2.50451e-06,0,1.37254e-06,-8.23116e+08,-8.22934e+08,-8.23106e+08,94156,-0.00884469,0.109283,-0,0.10964,-11415.8,-29969.7,-0,32070.3,94156
step02_gravity_refstate-crust.xmf,759,-2.92763e-07,2.70306e-06,0,1.08223e-06,-7.89163e+08,-7.88957e+08,-7.89143e+08,74241.2,-0.00781178,0.105336,-0,0.105626,-14670.9,-28733.3,-0,32262,74241.2
step02_gravity_refstate-crust.xmf,760,3.81954e-07,1.76293e-06,0,1.72138e-06,-8.57676e+08,-8.57581e+08,-8.57702e+08,118086,-0.00909314,0.117277,-0,0.117629,-7366.75,-31228.8,-0,32085.9,118086
step02_gravity_refstate-crust.xmf,761,1.89489e-07,2.02838e-06,0,1.64404e-06,-8.48328e+08,-8.48202e+08,-8.48341e+08,112781,-0.00920811,0.114915,-0,0.115284,-8442.3,-30888.1,-0,32021.1,112781
step02_gravity_refstate-crust.xmf,762,-7.89157e-09,2.33518e-06,0,1.60648e-06,-8.54852e+08,-8.54691e+08,-8.54851e+08,110205,-0.00942016,0.1113,-0,0.111698,-9558.48,-31125.3,-0,32559.9,110205
step02_gravity_refstate-crust.xmf,763,-2.66171e-07,2.60051e-06,0,1.64739e-07,-6.89594e+08,-6.89398e+08,-6.89576e+08,11301.1,-0.00147252,0.0937893,-0,0.0938009,-34235,-25108.3,-0,42455.4,11301.1
step02_gravity_refstate-crust.xmf,764,-3.09639e-07,2.59767e-06,0,3.92141e-07,-6.857e+08,-6.85501e+08,-6.85679e+08,26900.9,-0.00339132,0.0980801,-0,0.0981387,-27585.4,-24966.4,-0,37205.9,26900.9
step02_gravity_refstate-crust.xmf,765,-3.45615e-07,2.75461e-06,0,8.28953e-07,-7.55924e+08,-7.55712e+08,-7.55901e+08,56866.2,-0.00652615,0.102262,-0,0.10247,-18236,-27523,-0,33016.2,56866.2
step02_gravity_refstate-crust.xmf,766,-2.58871e-07,2.59439e-06,0,1.06999e-07,-6.89152e+08,-6.88956e+08,-6.89134e+08,7340.11,-0.000958639,0.0932337,-0,0.0932386,-36200.5,-25092.2,-0,44046.5,7340.11
step02_gravity_refstate-crust.xmf,767,2.8147e-06,-1.5267e-06,0,-4.96153e-07,-9.50423e+08,-9.50721e+08,-9.50616e+08,-34036.1,0.00157953,0.13319,0,0.133199,553.761,-34610.1,0,34614.5,34036.1
step02_gravity_refstate-crust.xmf,768,3.19351e-06,-2.03591e-06,0,-7.93222e-08,-9.69162e+08,-9.69521e+08,-9.69381e+08,-5441.5,0.00028283,0.134628,0,0.134629,88.5507,-35293.1,0,35293.2,5441.5
step02_gravity_refstate-crust.xmf,769,3.5972e-06,-2.63506e-06,0,4.49178e-07,-9.88215e+08,-9.88642e+08,-9.88461e+08,30813.6,-0.00116586,0.136165,-0,0.13617,-324.251,-35987.4,-0,35988.9,30813.6
step02_gravity_refstate-crust.xmf,770,9.71126e-07,9.07313e-07,0,-1.15994e-06,-8.01809e+08,-8.01813e+08,-8.01875e+08,-79571.9,0.00594548,0.126436,0,0.126575,4600.43,-29196,0,29556.2,79571.9
step02_gravity_refstate-crust.xmf,771,6.86134e-07,1.2483e-06,0,-1.24188e-06,-7.80995e+08,-7.80957e+08,-7.81042e+08,-85193.2,0.00678699,0.124422,0,0.124607,6104.6,-28437.6,0,29085.5,85193.2
step02_gravity_refstate-crust.xmf,772,2.95785e-07,1.61974e-06,0,-1.07543e-06,-6.97761e+08,-6.9767e+08,-6.97781e+08,-73774.7,0.0067765,0.123288,0,0.123474,9143.88,-25406.4,0,27001.8,73774.7
step02_gravity_refstate-crust.xmf,773,2.2795e-06,-7.80752e-07,0,-1.27347e-06,-9.3247e+08,-9.3268e+08,-9.32626e+08,-87360.3,0.00446141,0.130697,0,0.130773,1792.59,-33955.5,0,34002.8,87360.3
step02_gravity_refstate-crust.xmf,774,1.13305e-06,7.15354e-07,0,-1.19479e-06,-8.24854e+08,-8.24883e+08,-8.24932e+08,-81962.8,0.00578277,0.126803,0,0.126934,4021.23,-30035.3,0,30303.3,81962.8
step02_gravity_refstate-crust.xmf,775,1.33505e-06,4.6657e-07,0,-1.23326e-06,-8.51261e+08,-8.5132e+08,-8.51352e+08,-84602,0.00559041,0.127314,0,0.127437,3434.07,-30997.1,0,31186.8,84602
step02_gravity_refstate-crust.xmf,776,1.67572e-06,3.52145e-08,0,-1.35423e-06,-8.92064e+08,-8.92177e+08,-8.92179e+08,-92899.8,0.00550979,0.128172,0,0.12829,2793.34,-32483.3,0,32603.2,92899.8
step02_gravity_refstate-crust.xmf,777,1.95067e-06,-3.37907e-07,0,-1.37049e-06,-9.14338e+08,-9.14495e+08,-9.14472e+08,-94015.5,0.00516976,0.129264,0,0.129367,2322.6,-33294.8,0,33375.7,94015.5
step02_gravity_refstate-crust.xmf,778,1.67302e-07,1.80748e-06,0,-1.08886e-06,-6.99397e+08,-6.99285e+08,-6.99409e+08,-74695.5,0.00710608,0.120859,0,0.121068,10469.5,-25465.7,0,27533.9,74695.5
step02_gravity_refstate-crust.xmf,779,1.7749e-08,1.94385e-06,0,-1.0054e-06,-6.7006e+08,-6.69928e+08,-6.70062e+08,-68970.7,0.00690751,0.119101,0,0.119301,12648,-24397.3,0,27480.9,68970.7
step02_gravity_refstate-crust.xmf,780,-7.8847e-08,2.00843e-06,0,-8.98069e-07,-6.37082e+08,-6.36939e+08,-6.37077e+08,-61607.5,0.00647124,0.117802,0,0.11798,14943.4,-23196.4,0,27593.1,61607.5
step02_gravity_refstate-crust.xmf,781,-1.45553e-07,2.11014e-06,0,-8.52963e-07,-6.37873e+08,-6.37718e+08,-6.37863e+08,-58513.3,0.00630681,0.115487,0,0.11566,16437.9,-23225.1,0,28453.6,58513.3
step02_gravity_refstate-crust.xmf,782,-2.64311e-07,2.03562e-06,0,-4.1654e-07,-5.46455e+08,-5.46298e+08,-5.46437e+08,-28574.6,0.00338502,0.109905,0,0.109957,27482.8,-19896.3,0,33928.8,28574.6
step02_gravity_refstate-crust.xmf,783,-2.32033e-07,2.15616e-06,0,-6.74158e-07,-6.04503e+08,-6.04339e+08,-6.04487e+08,-46247.2,0.00525607,0.112273,0,0.112396,20728.8,-22009.9,0,30234.4,46247.2
step02_gravity_refstate-crust.xmf,784,-2.43772e-07,2.0594e-06,0,-5.64144e-07,-5.6569e+08,-5.65532e+08,-5.65673e+08,-38700.3,0.00447095,0.112228,0,0.112317,23400.4,-20596.7,0,31173.8,38700.3
step02_gravity_refstate-crust.xmf,785,-2.0289e-07,2.20731e-06,0,-7.95646e-07,-6.40487e+08,-6.40322e+08,-6.40473e+08,-54581.3,0.00604276,0.112956,0,0.113117,18040.9,-23320.2,0,29484,54581.3
step02_gravity_refstate-crust.xmf,786,-2.70813e-07,1.96617e-06,0,-2.16709e-07,-5.22299e+08,-5.22146e+08,-5.22281e+08,-14866.2,0.00180209,0.108077,0,0.108092,33331.2,-19016.8,0,38374.5,14866.2
step02_gravity_refstate-crust.xmf,787,-2.70554e-07,1.81961e-06,0,-3.95689e-11,-4.82672e+08,-4.82529e+08,-4.82653e+08,-2.71442,4.49484e-20,0.109377,0,0.109377,40000,-17573.9,0,43690.3,2.71442
step02_gravity_refstate-crust.xmf,788,1.56641e-06,1.28459e-07,0,2.26227e-06,-9.48258e+08,-9.48357e+08,-9.48366e+08,155192,-0.00835736,0.125951,-0,0.126228,-3551.91,-34528.8,-0,34711,155192
step02_gravity_refstate-crust.xmf,789,7.56301e-07,1.24715e-06,0,1.84681e-06,-8.81989e+08,-8.81956e+08,-8.82041e+08,126691,-0.00872953,0.120845,-0,0.12116,-5676.57,-32114.7,-0,32612.5,126691
step02_gravity_refstate-crust.xmf,790,2.29189e-06,-8.66303e-07,0,1.9051e-06,-9.59023e+08,-9.5924e+08,-9.5918e+08,130690,-0.00628105,0.130317,-0,0.130469,-2279.76,-34922.1,-0,34996.4,130690
step02_gravity_refstate-crust.xmf,791,2.95806e-06,-1.84373e-06,0,1.92966e-06,-9.8687e+08,-9.872e+08,-9.87073e+08,132374,-0.00552143,0.133553,-0,0.133667,-1644.79,-35937.1,-0,35974.7,132374
step02_gravity_refstate-crust.xmf,792,-2.45432e-07,2.67022e-06,0,1.27266e-06,-8.21176e+08,-8.20976e+08,-8.21159e+08,87304.5,-0.00858246,0.106511,-0,0.106856,-12663.6,-29898.9,-0,32470.2,87304.5
step02_gravity_refstate-crust.xmf,793,-3.32339e-07,2.83265e-06,0,1.15909e-06,-8.22792e+08,-8.22575e+08,-8.22769e+08,79513.5,-0.00819256,0.103251,-0,0.103575,-14045.6,-29957.6,-0,33086.8,79513.5
step02_gravity_refstate-crust.xmf,794,-1.55891e-07,2.56629e-06,0,1.47935e-06,-8.49149e+08,-8.48962e+08,-8.49138e+08,101483,-0.00923084,0.10829,-0,0.108683,-10858.7,-30917.5,-0,32768.9,101483
step02_gravity_refstate-crust.xmf,795,-2.79591e-07,2.61085e-06,0,2.33175e-07,-6.90582e+08,-6.90384e+08,-6.90563e+08,15995.8,-0.00207462,0.0946689,-0,0.0946916,-32023.3,-25144.2,-0,40715.2,15995.8
step02_gravity_refstate-crust.xmf,796,-2.98503e-07,2.64874e-06,0,3.06372e-07,-6.98749e+08,-6.98547e+08,-6.98729e+08,21017.1,-0.002707,0.095212,-0,0.0952505,-29772.2,-25441.6,-0,39162,21017.1
step02_gravity_refstate-crust.xmf,797,-3.49578e-07,2.73106e-06,0,6.7122e-07,-7.31984e+08,-7.31773e+08,-7.3196e+08,46045.7,-0.00551041,0.100507,-0,0.100658,-21075.6,-26651.4,-0,33977.6,46045.7
step02_gravity_refstate-crust.xmf,798,-3.27695e-07,2.7717e-06,0,4.11808e-07,-7.28899e+08,-7.28687e+08,-7.28877e+08,28250,-0.00361996,0.0946924,-0,0.0947616,-26610,-26539.3,-0,37582.2,28250
step02_gravity_refstate-crust.xmf,799,-3.4204e-07,2.772e-06,0,4.90655e-07,-7.30254e+08,-7.30041e+08,-7.30231e+08,33658.9,-0.00423718,0.0963448,-0,0.0964379,-24749.7,-26588.5,-0,36324.9,33658.9
step02_gravity_refstate-crust.xmf,800,-3.502e-07,2.75975e-06,0,5.75274e-07,-7.31094e+08,-7.30881e+08,-7.3107e+08,39463.8,-0.00485991,0.0982586,-0,0.0983787,-22940.9,-26619.1,-0,35140.6,39463.8
step02_gravity_refstate-crust.xmf,801,-3.43407e-07,2.80394e-06,0,9.76149e-07,-7.87538e+08,-7.87322e+08,-7.87515e+08,66963.8,-0.00734291,0.102711,-0,0.102973,-16118.3,-28674.1,-0,32893.8,66963.8
step02_gravity_refstate-crust.xmf,802,-3.75943e-07,2.87862e-06,0,8.69755e-07,-7.8595e+08,-7.85727e+08,-7.85925e+08,59665.2,-0.00679958,0.10021,-0,0.100441,-17614.7,-28616.2,-0,33603.1,59665.2
step02_gravity_refstate-crust.xmf,803,-3.8536e-07,2.90443e-06,0,7.70878e-07,-7.79556e+08,-7.79331e+08,-7.7953e+08,52882.2,-0.00622434,0.0984358,-0,0.0986324,-19119.2,-28383.5,-0,34222.3,52882.2
step02_gravity_refstate-crust.xmf,804,-2.47676e-07,2.61783e-06,0,6.26221e-10,-6.96949e+08,-6.96752e+08,-6.96932e+08,42.9588,-1.03291e-19,0.0920375,-0,0.0920375,-40000,-25376.2,-0,47370.4,42.9588
step02_gravity_refstate-crust.xmf,805,-2.48734e-07,2.77664e-06,0,1.19654e-07,-7.39313e+08,-7.39106e+08,-7.39296e+08,8208.3,-0.00110243,0.0885535,-0,0.0885603,-35353.2,-26918.7,-0,44434.9,8208.3
step02_gravity_refstate-crust.xmf,806,-2.39573e-07,2.74887e-06,0,5.73787e-08,-7.33344e+08,-7.33139e+08,-7.33328e+08,3936.18,-0.000521769,0.0886352,-0,0.0886368,-37788.5,-26701.4,-0,46270.3,3936.18
step02_gravity_refstate-crust.xmf,807,2.62907e-06,-1.279e-06,0,-1.1333e-06,-9.49698e+08,-9.49966e+08,-9.49878e+08,-77744.6,0.00367921,0.132189,0,0.13224,1325.89,-34583.4,0,34608.8,77744.6
step02_gravity_refstate-crust.xmf,808,3.89864e-06,-3.12344e-06,0,1.14771e-06,-1.00493e+09,-1.00542e+09,-1.0052e+09,78732.8,-0.00277229,0.137503,-0,0.137531,-695.003,-36596.6,-0,36603.2,78732.8
step02_gravity_refstate-crust.xmf,809,7.89461e-07,1.14401e-06,0,-1.31237e-06,-8.04364e+08,-8.04339e+08,-8.04418e+08,-90028.7,0.00687519,0.12441,0,0.124599,5598.22,-29288.6,0,29818.9,90028.7
step02_gravity_refstate-crust.xmf,810,3.61941e-07,1.59791e-06,0,-1.14504e-06,-7.27067e+08,-7.26982e+08,-7.27091e+08,-78549.5,0.00701633,0.122805,0,0.123005,8447.99,-26473.5,0,27788.8,78549.5
step02_gravity_refstate-crust.xmf,811,4.35467e-07,1.54053e-06,0,-1.22857e-06,-7.54666e+08,-7.5459e+08,-7.54696e+08,-84280.2,0.00721649,0.122533,0,0.122745,7756.98,-27478.5,0,28552.4,84280.2
step02_gravity_refstate-crust.xmf,812,5.1072e-07,1.48312e-06,0,-1.31597e-06,-7.81226e+08,-7.81159e+08,-7.81261e+08,-90275.4,0.00743204,0.122243,0,0.122468,7174.31,-28445.7,0,29336.5,90275.4
step02_gravity_refstate-crust.xmf,813,1.44496e-06,3.36734e-07,0,-1.39383e-06,-8.75859e+08,-8.75935e+08,-8.75958e+08,-95616.6,0.00599365,0.127128,0,0.12727,3342.36,-31892.9,0,32067.6,95616.6
step02_gravity_refstate-crust.xmf,814,4.25428e-08,1.98141e-06,0,-1.0842e-06,-7.01798e+08,-7.01665e+08,-7.01801e+08,-74375.9,0.00728065,0.118241,0,0.118465,11835.3,-25552.9,0,28160.7,74375.9
step02_gravity_refstate-crust.xmf,815,-7.61872e-08,2.08685e-06,0,-9.72822e-07,-6.7237e+08,-6.72222e+08,-6.72365e+08,-66735.6,0.00689125,0.116514,0,0.116717,14098.6,-24481.2,0,28250.7,66735.6
step02_gravity_refstate-crust.xmf,816,-2.71753e-07,2.06999e-06,0,-3.41035e-07,-5.51667e+08,-5.51506e+08,-5.51648e+08,-23395,0.00280961,0.107935,0,0.107972,29644,-20086.1,0,35808.1,23395
step02_gravity_refstate-crust.xmf,817,-2.60255e-07,2.21038e-06,0,-6.08359e-07,-6.06532e+08,-6.06362e+08,-6.06514e+08,-41733.4,0.00483851,0.110085,0,0.110191,22450.5,-22083.8,0,31491.6,41733.4
step02_gravity_refstate-crust.xmf,818,-2.72878e-07,2.22207e-06,0,-5.35839e-07,-6.01165e+08,-6.00994e+08,-6.01147e+08,-36758.6,0.00432908,0.108531,0,0.108617,24306.4,-21888.4,0,32709.3,36758.6
step02_gravity_refstate-crust.xmf,819,-2.81001e-07,2.23604e-06,0,-4.57663e-07,-5.98522e+08,-5.98349e+08,-5.98502e+08,-31395.7,0.00375571,0.106801,0,0.106867,26358.1,-21792.1,0,34200.1,31395.7
step02_gravity_refstate-crust.xmf,820,-2.45861e-07,2.27937e-06,0,-7.33172e-07,-6.41825e+08,-6.41652e+08,-6.41808e+08,-50295.6,0.00569308,0.110666,0,0.110812,19627.4,-23368.8,0,30517.8,50295.6
step02_gravity_refstate-crust.xmf,821,-2.74509e-07,2.1099e-06,0,-2.67141e-07,-5.60114e+08,-5.59951e+08,-5.60095e+08,-18325.8,0.00222818,0.106014,0,0.106037,31782.7,-20393.7,0,37762.9,18325.8
step02_gravity_refstate-crust.xmf,822,-2.70789e-07,1.96047e-06,0,-7.73184e-08,-5.1986e+08,-5.19707e+08,-5.19842e+08,-5304.04,0.000647737,0.107003,0,0.107005,37602.1,-18928,0,42097.4,5304.04
step02_gravity_refstate-crust.xmf,823,-2.72465e-07,2.08935e-06,0,-1.48106e-07,-5.53876e+08,-5.53714e+08,-5.53857e+08,-10160.1,0.00124515,0.104998,0,0.105005,35386.9,-20166.5,0,40729.9,10160.1
step02_gravity_refstate-crust.xmf,824,8.59322e-07,1.10473e-06,0,2.02651e-06,-9.05639e+08,-9.05622e+08,-9.05698e+08,139019,-0.0090151,0.121174,-0,0.121509,-5242.25,-32975.9,-0,33390,139019
step02_gravity_refstate-crust.xmf,825,9.8012e-07,9.23893e-07,0,2.22143e-06,-9.27479e+08,-9.27483e+08,-9.27547e+08,152390,-0.00926581,0.121805,-0,0.122157,-4817.89,-33771.2,-0,34113.2,152390
step02_gravity_refstate-crust.xmf,826,1.13304e-06,6.85492e-07,0,2.4254e-06,-9.47387e+08,-9.47417e+08,-9.47464e+08,166382,-0.00944367,0.122837,-0,0.1232,-4382.23,-34496.2,-0,34773.4,166382
step02_gravity_refstate-crust.xmf,827,2.19519e-06,-7.9893e-07,0,2.27829e-06,-9.70384e+08,-9.7059e+08,-9.70535e+08,156291,-0.00730843,0.129727,-0,0.129933,-2566.94,-35335.5,-0,35428.6,156291
step02_gravity_refstate-crust.xmf,828,1.77599e-06,-1.97273e-07,0,2.47713e-06,-9.67279e+08,-9.67414e+08,-9.674e+08,169931,-0.00849215,0.127209,-0,0.127493,-3222.87,-35221.6,-0,35368.8,169931
step02_gravity_refstate-crust.xmf,829,2.46946e-06,-1.22747e-06,0,2.43557e-06,-9.8545e+08,-9.85703e+08,-9.85619e+08,167080,-0.00726123,0.131224,-0,0.131424,-2304.9,-35884.4,-0,35958.3,167080
step02_gravity_refstate-crust.xmf,830,3.43518e-06,-2.60716e-06,0,2.01304e-06,-1.00363e+09,-1.00405e+09,-1.00387e+09,138094,-0.0051396,0.13578,-0,0.135877,-1350.26,-36548.1,-0,36573,138094
step02_gravity_refstate-crust.xmf,831,5.02063e-07,1.60123e-06,0,1.87944e-06,-8.8239e+08,-8.82314e+08,-8.82424e+08,128929,-0.00931383,0.118058,-0,0.118424,-6587.74,-32128.8,-0,32797.2,128929
step02_gravity_refstate-crust.xmf,832,-2.66093e-07,2.7489e-06,0,1.36297e-06,-8.47146e+08,-8.46939e+08,-8.47127e+08,93499.5,-0.0089511,0.105373,-0,0.105753,-12070.6,-30844.4,-0,33122.1,93499.5
step02_gravity_refstate-crust.xmf,833,-3.93931e-07,2.96506e-06,0,1.04006e-06,-8.25215e+08,-8.24985e+08,-8.25188e+08,71348.3,-0.00769112,0.100057,-0,0.100352,-15446.5,-30045.8,-0,33783.8,71348.3
step02_gravity_refstate-crust.xmf,834,1.00191e-07,2.19749e-06,0,1.76969e-06,-8.76976e+08,-8.76832e+08,-8.76983e+08,121401,-0.00974674,0.112586,-0,0.113007,-8485.84,-31931,-0,33039.3,121401
step02_gravity_refstate-crust.xmf,835,-1.99572e-07,2.66746e-06,0,1.58744e-06,-8.76549e+08,-8.76353e+08,-8.76536e+08,108898,-0.00961643,0.106795,-0,0.107227,-10453.4,-31915,-0,33583.3,108898
step02_gravity_refstate-crust.xmf,836,-2.61151e-07,2.80058e-06,0,1.77356e-07,-7.43296e+08,-7.43086e+08,-7.43278e+08,12166.6,-0.001632,0.0889062,-0,0.0889212,-33231.1,-27063.7,-0,42857.4,12166.6
step02_gravity_refstate-crust.xmf,837,-3.12926e-07,2.77632e-06,0,3.46133e-07,-7.3046e+08,-7.30248e+08,-7.30438e+08,23744.7,-0.00308649,0.0931567,-0,0.0932078,-28271.7,-26596.1,-0,38815.5,23744.7
step02_gravity_refstate-crust.xmf,838,-3.87456e-07,2.93101e-06,0,6.75496e-07,-7.76645e+08,-7.76418e+08,-7.76619e+08,46339,-0.00562057,0.0964303,-0,0.096594,-20690.2,-28277.5,-0,35038.6,46339
step02_gravity_refstate-crust.xmf,839,3.03649e-06,-1.84088e-06,0,-9.71469e-07,-9.68806e+08,-9.6914e+08,-9.69014e+08,-66642.8,0.0029248,0.133901,0,0.133933,932.64,-35279.8,0,35292.1,66642.8
step02_gravity_refstate-crust.xmf,840,3.67226e-06,-2.77595e-06,0,-4.24804e-07,-9.91216e+08,-9.91659e+08,-9.91468e+08,-29141.6,0.00110843,0.136477,0,0.136481,302.231,-36096.8,0,36098.1,29141.6
step02_gravity_refstate-crust.xmf,841,4.11536e-06,-3.42859e-06,0,8.51174e-08,-1.00631e+09,-1.00683e+09,-1.0066e+09,5839.05,-0.000179342,0.138275,-0,0.138275,-43.9002,-36647.2,-0,36647.2,5839.05
step02_gravity_refstate-crust.xmf,842,9.20221e-07,1.00346e-06,0,-1.36836e-06,-8.26533e+08,-8.26528e+08,-8.26597e+08,-93869.8,0.00686984,0.124696,0,0.124885,5046.95,-30096.1,0,30516.3,93869.8
step02_gravity_refstate-crust.xmf,843,5.96769e-07,1.4025e-06,0,-1.40621e-06,-8.05763e+08,-8.05708e+08,-8.05804e+08,-96466.1,0.00761157,0.122148,0,0.122385,6618.87,-29339.2,0,30076.5,96466.1
step02_gravity_refstate-crust.xmf,844,2.10997e-07,1.80197e-06,0,-1.17741e-06,-7.2964e+08,-7.2953e+08,-7.29654e+08,-80770.5,0.00742102,0.120251,0,0.12048,9720.75,-26566.9,0,28289.5,80770.5
step02_gravity_refstate-crust.xmf,845,2.35925e-06,-9.2784e-07,0,-1.57629e-06,-9.488e+08,-9.49025e+08,-9.48961e+08,-108133,0.00528058,0.130797,0,0.130903,1977.17,-34550.1,0,34606.6,108133
step02_gravity_refstate-crust.xmf,846,1.97066e-06,-4.1338e-07,0,-1.76683e-06,-9.36425e+08,-9.36589e+08,-9.3656e+08,-121205,0.00632563,0.128844,0,0.128999,2620.08,-34098.8,0,34199.3,121205
step02_gravity_refstate-crust.xmf,847,1.07645e-06,8.04219e-07,0,-1.44675e-06,-8.49697e+08,-8.49716e+08,-8.49771e+08,-99247.1,0.00683095,0.125149,0,0.125335,4491.02,-30939.7,0,31263.9,99247.1
step02_gravity_refstate-crust.xmf,848,1.22547e-06,6.17165e-07,0,-1.55684e-06,-8.73535e+08,-8.73577e+08,-8.73619e+08,-106799,0.00692922,0.12547,0,0.125661,4084.37,-31807.8,0,32069,106799
step02_gravity_refstate-crust.xmf,849,1.4085e-06,3.75547e-07,0,-1.65041e-06,-8.94771e+08,-8.94842e+08,-8.94868e+08,-113218,0.00690602,0.12614,0,0.126328,3656.25,-32581.3,0,32785.8,113218
step02_gravity_refstate-crust.xmf,850,1.6558e-06,3.60615e-08,0,-1.71307e-06,-9.14964e+08,-9.15075e+08,-9.15078e+08,-117517,0.00667564,0.127295,0,0.12747,3149.16,-33316.9,0,33465.4,117517
step02_gravity_refstate-crust.xmf,851,7.7766e-08,2.00393e-06,0,-1.16533e-06,-7.31714e+08,-7.31582e+08,-7.31719e+08,-79941.9,0.00763998,0.117559,0,0.117807,11038.4,-26642.2,0,28838.4,79941.9
step02_gravity_refstate-crust.xmf,852,-6.47987e-08,2.14599e-06,0,-1.0512e-06,-7.04711e+08,-7.04559e+08,-7.04706e+08,-72112.5,0.00730072,0.115498,0,0.115728,13238.7,-25658.8,0,28872.8,72112.5
step02_gravity_refstate-crust.xmf,853,-1.51542e-07,2.2133e-06,0,-9.20376e-07,-6.74447e+08,-6.74284e+08,-6.74436e+08,-63137.8,0.00673935,0.11392,0,0.114119,15588.4,-24556.7,0,29086.6,63137.8
step02_gravity_refstate-crust.xmf,854,-2.1188e-07,2.31389e-06,0,-8.58881e-07,-6.75696e+08,-6.75523e+08,-6.75682e+08,-58919.2,0.00647275,0.111462,0,0.11165,17087.7,-24602.1,0,29954.2,58919.2
step02_gravity_refstate-crust.xmf,855,-2.84441e-07,2.26179e-06,0,-3.80333e-07,-6.01361e+08,-6.01187e+08,-6.01342e+08,-26090.9,0.00316887,0.104869,0,0.104916,28439.7,-21895.5,0,35891.9,26090.9
step02_gravity_refstate-crust.xmf,856,-2.81771e-07,2.37486e-06,0,-6.59658e-07,-6.51057e+08,-6.50875e+08,-6.51038e+08,-45252.5,0.00526309,0.107616,0,0.107744,21393.8,-23704.9,0,31931.5,45252.5
step02_gravity_refstate-crust.xmf,857,-2.56185e-07,2.39289e-06,0,-7.90328e-07,-6.76411e+08,-6.76229e+08,-6.76393e+08,-54216.5,0.00611863,0.109141,0,0.109312,18605.5,-24628.1,0,30865.9,54216.5
step02_gravity_refstate-crust.xmf,858,-2.74447e-07,2.1609e-06,0,-2.03546e-07,-5.72772e+08,-5.72605e+08,-5.72753e+08,-13963.3,0.0017172,0.104153,0,0.104167,33645.5,-20854.6,0,39584.5,13963.3
step02_gravity_refstate-crust.xmf,859,-2.69298e-07,2.09618e-06,0,-2.41995e-10,-5.55619e+08,-5.55456e+08,-5.556e+08,-16.6009,4.70237e-20,0.104176,0,0.104176,40000,-20230,0,44824.7,16.6009
step02_gravity_refstate-crust.xmf,860,1.31915e-06,4.2178e-07,0,2.63354e-06,-9.6604e+08,-9.66101e+08,-9.6613e+08,180661,-0.00960005,0.124117,-0,0.124488,-3974.68,-35175.6,-0,35399.5,180661
step02_gravity_refstate-crust.xmf,861,5.63804e-07,1.51771e-06,0,2.05365e-06,-9.04887e+08,-9.04822e+08,-9.04926e+08,140880,-0.00964298,0.118176,-0,0.118568,-6153.6,-32947.9,-0,33517.7,140880
step02_gravity_refstate-crust.xmf,862,2.86488e-06,-1.80468e-06,0,2.60111e-06,-1.00242e+09,-1.00274e+09,-1.00261e+09,178436,-0.00713151,0.133346,-0,0.133537,-1998.57,-36502.8,-0,36557.4,178436
step02_gravity_refstate-crust.xmf,863,4.01256e-06,-3.45209e-06,0,2.00557e-06,-1.01994e+09,-1.02045e+09,-1.02021e+09,137582,-0.00466829,0.138411,-0,0.138489,-1072.89,-37142.7,-0,37158.2,137582
step02_gravity_refstate-crust.xmf,864,4.54175e-06,-4.08732e-06,0,8.95858e-07,-1.02162e+09,-1.02221e+09,-1.02193e+09,61455.8,-0.00189694,0.140127,-0,0.14014,-415.762,-37205,-0,37207.3,61455.8
step02_gravity_refstate-crust.xmf,865,2.77375e-07,1.94086e-06,0,1.87094e-06,-8.84987e+08,-8.84872e+08,-8.85006e+08,128346,-0.00972751,0.115019,-0,0.115429,-7505.65,-32222.9,-0,33085.5,128346
step02_gravity_refstate-crust.xmf,866,-3.3886e-07,2.8765e-06,0,1.25843e-06,-8.45619e+08,-8.45398e+08,-8.45596e+08,86328.3,-0.00861809,0.102945,-0,0.103305,-13133.8,-30788.7,-0,33473,86328.3
step02_gravity_refstate-crust.xmf,867,-4.01287e-07,3.00389e-06,0,1.10661e-06,-8.41421e+08,-8.41187e+08,-8.41393e+08,75913.4,-0.0080223,0.0998702,-0,0.100192,-14692.3,-30635.8,-0,33976.7,75913.4
step02_gravity_refstate-crust.xmf,868,-3.05453e-07,2.84796e-06,0,1.45563e-06,-8.73465e+08,-8.73249e+08,-8.73444e+08,99856.5,-0.00929917,0.103963,-0,0.104378,-11581.8,-31802.5,-0,33845.8,99856.5
step02_gravity_refstate-crust.xmf,869,-9.34748e-08,2.50034e-06,0,1.70238e-06,-8.82554e+08,-8.82376e+08,-8.82548e+08,116783,-0.00983394,0.108995,-0,0.109438,-9512.52,-32133.8,-0,33512.2,116783
step02_gravity_refstate-crust.xmf,870,-2.31042e-07,2.98719e-06,0,1.25211e-07,-7.97829e+08,-7.97609e+08,-7.97813e+08,8589.47,-0.00119664,0.0827329,-0,0.0827416,-34341.9,-29049.5,-0,44980.4,8589.47
step02_gravity_refstate-crust.xmf,871,-2.79328e-07,2.79533e-06,0,2.35154e-07,-7.39044e+08,-7.38833e+08,-7.39024e+08,16131.5,-0.00214834,0.0902493,-0,0.0902749,-31363.7,-26908.8,-0,41325.1,16131.5
step02_gravity_refstate-crust.xmf,872,-2.94549e-07,2.91236e-06,0,2.73511e-07,-7.67579e+08,-7.67359e+08,-7.67559e+08,18762.8,-0.00251013,0.088258,-0,0.0882936,-29750.5,-27947.8,-0,40818.8,18762.8
step02_gravity_refstate-crust.xmf,873,-3.21679e-07,2.94569e-06,0,3.43879e-07,-7.73053e+08,-7.72829e+08,-7.73031e+08,23590.1,-0.00312609,0.0892029,-0,0.0892576,-27659.8,-28147,-0,39462.9,23590.1
step02_gravity_refstate-crust.xmf,874,-3.81043e-07,2.9445e-06,0,5.90052e-07,-7.74329e+08,-7.741e+08,-7.74302e+08,40477.5,-0.00503447,0.0946318,-0,0.0947656,-22233,-28193.2,-0,35904.9,40477.5
step02_gravity_refstate-crust.xmf,875,-3.46499e-07,2.95988e-06,0,4.18417e-07,-7.74777e+08,-7.7455e+08,-7.74753e+08,28703.4,-0.00374138,0.0906696,-0,0.0907467,-25783.3,-28209.7,-0,38217.4,28703.4
step02_gravity_refstate-crust.xmf,876,-3.67258e-07,2.95897e-06,0,5.00906e-07,-7.74769e+08,-7.74541e+08,-7.74744e+08,34362.2,-0.00438468,0.0925335,-0,0.0926373,-23971.8,-28209.3,-0,37019.1,34362.2
step02_gravity_refstate-crust.xmf,877,-4.19595e-07,3.03292e-06,0,9.13616e-07,-8.20783e+08,-8.20546e+08,-8.20754e+08,62674,-0.00706986,0.0976108,-0,0.0978665,-16966.8,-29884.4,-0,34364.9,62674
step02_gravity_refstate-crust.xmf,878,-4.25047e-07,3.10221e-06,0,6.97648e-07,-8.14945e+08,-8.14703e+08,-8.14916e+08,47858.6,-0.00580428,0.0932599,-0,0.0934403,-19975.5,-29672,-0,35769.3,47858.6
step02_gravity_refstate-crust.xmf,879,-4.28181e-07,3.07504e-06,0,8.01506e-07,-8.17352e+08,-8.17112e+08,-8.17323e+08,54983.3,-0.00644465,0.0953905,-0,0.095608,-18454.7,-29759.6,-0,35017.3,54983.3
step02_gravity_refstate-crust.xmf,880,-2.2079e-07,2.85861e-06,0,5.94509e-10,-7.65735e+08,-7.65523e+08,-7.6572e+08,40.7833,-7.92262e-20,0.0851796,-0,0.0851796,-40000,-27880.9,-0,48758,40.7833
step02_gravity_refstate-crust.xmf,881,-2.22701e-07,2.91903e-06,0,8.3128e-08,-7.81514e+08,-7.81298e+08,-7.81499e+08,5702.58,-0.000788734,0.0839251,-0,0.0839288,-36338.9,-28455.4,-0,46154.4,5702.58
step02_gravity_refstate-crust.xmf,882,2.65148e-06,-1.36718e-06,0,-1.60427e-06,-9.64327e+08,-9.64603e+08,-9.64509e+08,-110053,0.0049874,0.132125,0,0.132219,1692.66,-35115.9,0,35156.7,110053
step02_gravity_refstate-crust.xmf,883,3.32522e-06,-2.27202e-06,0,-5.97723e-07,-9.78204e+08,-9.78587e+08,-9.78432e+08,-41003.8,0.00170278,0.135124,0,0.135135,506.728,-35622.4,0,35626,41003.8
step02_gravity_refstate-crust.xmf,884,7.03398e-07,1.28551e-06,0,-1.4954e-06,-8.28496e+08,-8.28456e+08,-8.28544e+08,-102585,0.0077243,0.122345,0,0.122589,6047.09,-30167.1,0,30767.2,102585
step02_gravity_refstate-crust.xmf,885,2.67985e-07,1.78689e-06,0,-1.26159e-06,-7.57895e+08,-7.57791e+08,-7.57914e+08,-86545.2,0.00771496,0.119792,0,0.12004,9020.52,-27595.8,0,29032.7,86545.2
step02_gravity_refstate-crust.xmf,886,3.27099e-07,1.74115e-06,0,-1.36593e-06,-7.84949e+08,-7.84852e+08,-7.84971e+08,-93702.5,0.00798921,0.119512,0,0.119779,8336.13,-28580.9,0,29771.8,93702.5
step02_gravity_refstate-crust.xmf,887,4.00115e-07,1.67768e-06,0,-1.46059e-06,-8.08585e+08,-8.08498e+08,-8.08613e+08,-100196,0.00820646,0.119503,0,0.119785,7695.84,-29441.6,0,30430.8,100196
step02_gravity_refstate-crust.xmf,888,-4.61137e-08,2.1838e-06,0,-1.13684e-06,-7.34638e+08,-7.34485e+08,-7.34635e+08,-77987.6,0.00769735,0.114752,0,0.11501,12369.2,-26748.4,0,29469.9,77987.6
step02_gravity_refstate-crust.xmf,889,-1.55081e-07,2.29292e-06,0,-9.97827e-07,-7.07722e+08,-7.07555e+08,-7.07712e+08,-68451,0.00717204,0.112693,0,0.112921,14688.7,-25768.3,0,29660.8,68451
step02_gravity_refstate-crust.xmf,890,-2.83133e-07,2.29082e-06,0,-3.03394e-07,-6.07047e+08,-6.06871e+08,-6.07028e+08,-20812.8,0.00256306,0.102943,0,0.102975,30576.6,-22102.6,0,37728.7,20812.8
step02_gravity_refstate-crust.xmf,891,-2.94047e-07,2.39183e-06,0,-5.75884e-07,-6.45205e+08,-6.45021e+08,-6.45185e+08,-39505.7,0.00469373,0.105872,0,0.105976,23322.6,-23491.8,0,33103,39505.7
step02_gravity_refstate-crust.xmf,892,-3.00845e-07,2.45222e-06,0,-4.16246e-07,-6.50024e+08,-6.49835e+08,-6.50003e+08,-28554.5,0.00352306,0.101644,0,0.101706,27241.4,-23667.4,0,36086.5,28554.5
step02_gravity_refstate-crust.xmf,893,-3.01035e-07,2.4261e-06,0,-4.96626e-07,-6.47237e+08,-6.4705e+08,-6.47217e+08,-34068.5,0.00412997,0.10372,0,0.103802,25224.2,-23565.9,0,34519.7,34068.5
step02_gravity_refstate-crust.xmf,894,-2.84786e-07,2.44759e-06,0,-7.2595e-07,-6.76762e+08,-6.76574e+08,-6.76742e+08,-49800.1,0.00574705,0.107184,0,0.107338,19981.2,-24640.8,0,31724.1,49800.1
step02_gravity_refstate-crust.xmf,895,-2.78599e-07,2.31888e-06,0,-2.29826e-07,-6.13976e+08,-6.13798e+08,-6.13957e+08,-15766.1,0.00196479,0.10121,0,0.101229,32702.4,-22354.9,0,39613,15766.1
step02_gravity_refstate-crust.xmf,896,-2.6894e-07,2.27241e-06,0,-7.92547e-08,-6.02401e+08,-6.02227e+08,-6.02383e+08,-5436.87,0.0006765,0.100665,0,0.100667,37460.1,-21933.5,0,43408.9,5436.87
step02_gravity_refstate-crust.xmf,897,-2.73093e-07,2.31765e-06,0,-1.59855e-07,-6.13996e+08,-6.13818e+08,-6.13977e+08,-10966,0.00137481,0.100344,0,0.100353,34851.1,-22355.6,0,41405,10966
step02_gravity_refstate-crust.xmf,898,6.37613e-07,1.40366e-06,0,2.25472e-06,-9.27106e+08,-9.27053e+08,-9.27149e+08,154674,-0.00997403,0.118566,-0,0.118985,-5707.7,-33757,-0,34236.1,154674
step02_gravity_refstate-crust.xmf,899,8.70226e-07,1.01488e-06,0,2.70826e-06,-9.6616e+08,-9.6615e+08,-9.66219e+08,185787,-0.0104666,0.120648,-0,0.121101,-4765.85,-35179.1,-0,35500.5,185787
step02_gravity_refstate-crust.xmf,900,7.36401e-07,1.23962e-06,0,2.47981e-06,-9.47974e+08,-9.4794e+08,-9.48025e+08,170115,-0.0102663,0.119365,-0,0.119806,-5242.67,-34516.9,-0,34912.7,170115
step02_gravity_refstate-crust.xmf,901,1.97656e-06,-5.70488e-07,0,2.74257e-06,-9.84629e+08,-9.84804e+08,-9.84765e+08,188140,-0.00865257,0.128584,-0,0.128875,-2946.1,-35853.5,-0,35974.4,188140
step02_gravity_refstate-crust.xmf,902,1.50047e-06,1.20954e-07,0,2.88779e-06,-9.83542e+08,-9.83637e+08,-9.83645e+08,198102,-0.00977528,0.125525,-0,0.125905,-3620.47,-35813.1,-0,35995.6,198102
step02_gravity_refstate-crust.xmf,903,2.24489e-06,-1.02188e-06,0,3.00833e-06,-1.00102e+09,-1.00125e+09,-1.00118e+09,206371,-0.00872694,0.130387,-0,0.130678,-2648.77,-36450.8,-0,36546.9,206371
step02_gravity_refstate-crust.xmf,904,3.30846e-06,-2.58216e-06,0,2.86104e-06,-1.01856e+09,-1.01897e+09,-1.01879e+09,196268,-0.00697318,0.135803,-0,0.135982,-1717.48,-37091.2,-0,37130.9,196268
step02_gravity_refstate-crust.xmf,905,4.73412e-06,-4.66779e-06,0,2.05738e-06,-1.03583e+09,-1.03648e+09,-1.03616e+09,141136,-0.00411688,0.141505,-0,0.141565,-819.342,-37722.5,-0,37731.4,141136
step02_gravity_refstate-crust.xmf,906,3.01546e-07,1.89764e-06,0,2.02549e-06,-9.04894e+08,-9.04785e+08,-9.04915e+08,138949,-0.0100435,0.115024,-0,0.115461,-7079.65,-32947.7,-0,33699.8,138949
step02_gravity_refstate-crust.xmf,907,-3.80239e-07,2.98486e-06,0,1.32144e-06,-8.69719e+08,-8.69488e+08,-8.69693e+08,90651.1,-0.00887742,0.101336,-0,0.101724,-12740.3,-31666.1,-0,34132.9,90651.1
step02_gravity_refstate-crust.xmf,908,-4.15949e-07,3.05116e-06,0,1.18546e-06,-8.59419e+08,-8.59181e+08,-8.5939e+08,81322.7,-0.00835406,0.0994988,-0,0.0998489,-13970.2,-31291,-0,34268,81322.7
step02_gravity_refstate-crust.xmf,909,-4.63525e-07,3.17315e-06,0,1.05988e-06,-8.63085e+08,-8.62835e+08,-8.63053e+08,72707.5,-0.0078141,0.0963439,-0,0.0966603,-15198.5,-31424.5,-0,34906.9,72707.5
step02_gravity_refstate-crust.xmf,910,8.70776e-08,2.23429e-06,0,1.94045e-06,-9.03888e+08,-9.03741e+08,-9.03894e+08,133115,-0.0102035,0.111864,-0,0.112328,-8033.23,-32910.8,-0,33877,133115
step02_gravity_refstate-crust.xmf,911,-9.42306e-08,2.51579e-06,0,1.82882e-06,-9.02296e+08,-9.02117e+08,-9.0229e+08,125457,-0.0101669,0.108753,-0,0.109227,-9014.38,-32852.5,-0,34066.8,125457
step02_gravity_refstate-crust.xmf,912,-2.47233e-07,2.76767e-06,0,1.69923e-06,-9.02097e+08,-9.01891e+08,-9.0208e+08,116567,-0.00998129,0.105472,-0,0.105943,-10050.5,-32845,-0,34348.4,116567
step02_gravity_refstate-crust.xmf,913,-3.56661e-07,2.96117e-06,0,1.55462e-06,-9.00102e+08,-8.99874e+08,-9.00077e+08,106647,-0.00963945,0.102466,-0,0.102919,-11113.8,-32772.2,-0,34605.4,106647
step02_gravity_refstate-crust.xmf,914,-2.55719e-07,2.99444e-06,0,1.8716e-07,-7.95011e+08,-7.94788e+08,-7.94994e+08,12839.2,-0.00176466,0.0839955,-0,0.084014,-32041.2,-28946.8,-0,43180.5,12839.2
step02_gravity_refstate-crust.xmf,915,-4.1266e-07,3.12109e-06,0,6.00456e-07,-8.14326e+08,-8.14084e+08,-8.14298e+08,41191.3,-0.0051521,0.0911124,-0,0.0912579,-21541.9,-29649.5,-0,36649,41191.3
step02_gravity_refstate-crust.xmf,916,-4.74172e-07,3.21273e-06,0,9.46403e-07,-8.5765e+08,-8.57397e+08,-8.57617e+08,64923.2,-0.00724999,0.0944499,-0,0.0947277,-16425.9,-31226.7,-0,35283.3,64923.2
step02_gravity_refstate-crust.xmf,917,-2.03396e-07,2.98321e-06,0,4.20459e-08,-8.02136e+08,-8.01917e+08,-8.02122e+08,2884.35,-0.00039345,0.081424,-0,0.0814249,-38039.7,-29206.3,-0,47958.6,2884.35
step02_gravity_refstate-crust.xmf,918,2.98386e-06,-1.84585e-06,0,-1.58469e-06,-9.7931e+08,-9.79642e+08,-9.79515e+08,-108710,0.00460934,0.133673,0,0.133753,1413.44,-35662,0,35690,108710
step02_gravity_refstate-crust.xmf,919,3.43717e-06,-2.46725e-06,0,-1.25657e-06,-9.89811e+08,-9.90216e+08,-9.90046e+08,-86200.4,0.00339325,0.135501,0,0.135543,952.308,-36045.1,0,36057.7,86200.4
step02_gravity_refstate-crust.xmf,920,5.43781e-06,-5.57679e-06,0,3.72241e-07,-1.03993e+09,-1.04069e+09,-1.0403e+09,25535.7,-0.00064719,0.14359,-0,0.143591,-120.406,-37873.1,-0,37873.3,25535.7
step02_gravity_refstate-crust.xmf,921,5.61956e-06,-6.10039e-06,0,2.06071e-06,-1.05125e+09,-1.05205e+09,-1.05163e+09,141365,-0.00353164,0.145127,-0,0.14517,-602.103,-38285,-0,38289.8,141365
step02_gravity_refstate-crust.xmf,922,4.00997e-06,-3.33504e-06,0,-1.02188e-06,-1.00745e+09,-1.00796e+09,-1.00773e+09,-70100.7,0.00246697,0.137946,0,0.137968,605.075,-36688.3,0,36693.3,70100.7
step02_gravity_refstate-crust.xmf,923,4.66351e-06,-4.31658e-06,0,-5.49169e-07,-1.02317e+09,-1.02378e+09,-1.02349e+09,-37673,0.00118161,0.140539,0,0.140544,254.617,-37261.6,0,37262.5,37673
step02_gravity_refstate-crust.xmf,924,2.20628e-06,-7.61127e-07,0,-2.0397e-06,-9.60218e+08,-9.60422e+08,-9.6037e+08,-139923,0.00673922,0.129779,0,0.129954,2467.16,-34965.5,0,35052.4,139923
step02_gravity_refstate-crust.xmf,925,2.60656e-06,-1.36985e-06,0,-2.12072e-06,-9.79133e+08,-9.79406e+08,-9.79312e+08,-145481,0.00635714,0.131866,0,0.132019,2039.66,-35654.8,0,35713,145481
step02_gravity_refstate-crust.xmf,926,8.32004e-07,1.14456e-06,0,-1.58481e-06,-8.50984e+08,-8.50963e+08,-8.51041e+08,-108718,0.00781239,0.122707,0,0.122956,5490.16,-30986.1,0,31468.7,108718
step02_gravity_refstate-crust.xmf,927,4.87993e-07,1.58421e-06,0,-1.55934e-06,-8.30631e+08,-8.30556e+08,-8.30664e+08,-106970,0.00838315,0.119707,0,0.120001,7075.17,-30244.4,0,31060.9,106970
step02_gravity_refstate-crust.xmf,928,1.0839e-07,2.00913e-06,0,-1.26569e-06,-7.61056e+08,-7.60925e+08,-7.61063e+08,-86826.6,0.00800152,0.116938,0,0.117212,10283.7,-27710.5,0,29557.2,86826.6
step02_gravity_refstate-crust.xmf,929,1.54513e-06,1.50369e-07,0,-2.09347e-06,-9.35456e+08,-9.35552e+08,-9.35562e+08,-143612,0.00791866,0.126053,0,0.126302,3542.26,-34062.7,0,34246.4,143612
step02_gravity_refstate-crust.xmf,930,9.61729e-07,9.66573e-07,0,-1.71219e-06,-8.73711e+08,-8.73711e+08,-8.73777e+08,-117456,0.00792673,0.123127,0,0.123382,4992.4,-31813.7,0,32203.1,117456
step02_gravity_refstate-crust.xmf,931,1.11576e-06,7.60134e-07,0,-1.84466e-06,-8.95885e+08,-8.95909e+08,-8.95961e+08,-126544,0.00802528,0.123745,0,0.124005,4519.19,-32621.3,0,32932.8,126544
step02_gravity_refstate-crust.xmf,932,1.30641e-06,4.92263e-07,0,-1.97563e-06,-9.16475e+08,-9.16531e+08,-9.16565e+08,-135528,0.00803423,0.124711,0,0.12497,4036.99,-33371.2,0,33614.5,135528
step02_gravity_refstate-crust.xmf,933,-2.13277e-08,2.21534e-06,0,-1.22748e-06,-7.63756e+08,-7.63603e+08,-7.63755e+08,-84205,0.00809275,0.114063,0,0.114349,11552.1,-27808.6,0,30112.7,84205
step02_gravity_refstate-crust.xmf,934,-1.49074e-07,2.35151e-06,0,-1.08254e-06,-7.38374e+08,-7.38202e+08,-7.38364e+08,-74262.4,0.00760462,0.11181,0,0.112068,13744.9,-26884.3,0,30194.1,74262.4
step02_gravity_refstate-crust.xmf,935,-2.21549e-07,2.41396e-06,0,-9.28482e-07,-7.09901e+08,-7.0972e+08,-7.09886e+08,-63693.9,0.00691336,0.110024,0,0.110241,16145.1,-25847.5,0,30475.5,63693.9
step02_gravity_refstate-crust.xmf,936,-2.72932e-07,2.50887e-06,0,-8.51517e-07,-7.11096e+08,-7.10905e+08,-7.11077e+08,-58414.1,0.00654263,0.107471,0,0.10767,17658,-25890.9,0,31339.2,58414.1
step02_gravity_refstate-crust.xmf,937,-2.94783e-07,2.47746e-06,0,-3.36328e-07,-6.54936e+08,-6.54746e+08,-6.54916e+08,-23072.1,0.00289293,0.0995881,0,0.0996301,29349.6,-23846.3,0,37815.9,23072.1
step02_gravity_refstate-crust.xmf,938,-3.10234e-07,2.50457e-06,0,-6.10779e-07,-6.74932e+08,-6.74739e+08,-6.74911e+08,-41899.4,0.0049934,0.104173,0,0.104293,22488.6,-24574.2,0,33311.1,41899.4
step02_gravity_refstate-crust.xmf,939,-3.05848e-07,2.57272e-06,0,-7.6795e-07,-7.09762e+08,-7.09564e+08,-7.09741e+08,-52681.3,0.0060755,0.105203,0,0.105379,19243.1,-25842.3,0,32219.9,52681.3
step02_gravity_refstate-crust.xmf,940,-3.20097e-07,2.59287e-06,0,-6.78271e-07,-7.02198e+08,-7.01998e+08,-7.02176e+08,-46529.4,0.00550635,0.103498,0,0.103644,20995.9,-25566.9,0,33083.2,46529.4
step02_gravity_refstate-crust.xmf,941,-2.63818e-07,2.36354e-06,0,-3.19057e-10,-6.26977e+08,-6.26797e+08,-6.26959e+08,-21.8873,3.23583e-20,0.0983834,0,0.0983834,40000,-22828.3,0,46055.8,21.8873
step02_gravity_refstate-crust.xmf,942,1.02869e-06,7.78979e-07,0,2.93105e-06,-9.82273e+08,-9.8229e+08,-9.82343e+08,201070,-0.0106405,0.122043,-0,0.122506,-4352.27,-35766,-0,36029.8,201070
step02_gravity_refstate-crust.xmf,943,3.341e-07,1.84392e-06,0,2.21546e-06,-9.2688e+08,-9.26776e+08,-9.26903e+08,151981,-0.0104134,0.115148,-0,0.115618,-6624.82,-33748.2,-0,34392.3,151981
step02_gravity_refstate-crust.xmf,944,2.5843e-06,-1.53092e-06,0,3.29949e-06,-1.01729e+09,-1.01757e+09,-1.01747e+09,226345,-0.0088052,0.132556,-0,0.132849,-2363.1,-37043.5,-0,37118.8,226345
step02_gravity_refstate-crust.xmf,945,3.89945e-06,-3.44985e-06,0,3.07167e-06,-1.03444e+09,-1.03495e+09,-1.03471e+09,210716,-0.00675918,0.13877,-0,0.138935,-1446.59,-37670.3,-0,37698.1,210716
step02_gravity_refstate-crust.xmf,946,4.58441e-06,-4.71692e-06,0,3.46049e-06,-1.04958e+09,-1.05021e+09,-1.04989e+09,237390,-0.00649105,0.142242,-0,0.14239,-1196.33,-38222.1,-0,38240.8,237390
step02_gravity_refstate-crust.xmf,947,-4.3708e-07,3.11889e-06,0,1.40279e-06,-8.98042e+08,-8.97798e+08,-8.98012e+08,96231.1,-0.00917788,0.099489,-0,0.0999114,-12245.9,-32697.2,-0,34915.1,96231.1
step02_gravity_refstate-crust.xmf,948,-1.93143e-07,3.09723e-06,0,7.31231e-08,-8.34431e+08,-8.34205e+08,-8.34418e+08,5016.25,-0.000707452,0.0781767,-0,0.0781799,-36122.4,-30382.3,-0,47200.8,5016.25
step02_gravity_refstate-crust.xmf,949,-2.27239e-07,3.09452e-06,0,1.41252e-07,-8.26786e+08,-8.26558e+08,-8.2677e+08,9689.89,-0.00135503,0.0799737,-0,0.0799852,-33152.2,-30103.8,-0,44780.6,9689.89
step02_gravity_refstate-crust.xmf,950,-2.99702e-07,3.10679e-06,0,2.73468e-07,-8.17304e+08,-8.1707e+08,-8.17283e+08,18759.9,-0.00255844,0.0835084,-0,0.0835476,-28732.7,-29758.4,-0,41365.8,18759.9
step02_gravity_refstate-crust.xmf,951,-3.32844e-07,3.13451e-06,0,3.40058e-07,-8.1975e+08,-8.19512e+08,-8.19727e+08,23328,-0.00313914,0.0847273,-0,0.0847855,-26830.4,-29847.3,-0,40134,23328
step02_gravity_refstate-crust.xmf,952,-3.93653e-07,3.14175e-06,0,5.07077e-07,-8.17126e+08,-8.16883e+08,-8.17099e+08,34785.5,-0.00447726,0.0887333,-0,0.0888462,-23181.2,-29751.6,-0,37716.4,34785.5
step02_gravity_refstate-crust.xmf,953,-3.66165e-07,3.15017e-06,0,4.18031e-07,-8.20204e+08,-8.19963e+08,-8.20179e+08,28676.9,-0.00378416,0.0864272,-0,0.08651,-24962.5,-29863.8,-0,38922.6,28676.9
step02_gravity_refstate-crust.xmf,954,-4.75933e-07,3.25168e-06,0,8.26902e-07,-8.54468e+08,-8.54212e+08,-8.54435e+08,56725.5,-0.00659786,0.0921983,-0,0.0924341,-17827.3,-31110.9,-0,35856.6,56725.5
step02_gravity_refstate-crust.xmf,955,-4.46417e-07,3.28739e-06,0,6.12635e-07,-8.50896e+08,-8.5064e+08,-8.50865e+08,42026.7,-0.00524559,0.087873,-0,0.0880295,-20799,-30981,-0,37315.1,42026.7
step02_gravity_refstate-crust.xmf,956,-4.66119e-07,3.27603e-06,0,7.15606e-07,-8.52299e+08,-8.52042e+08,-8.52267e+08,49090.6,-0.00592563,0.0899959,-0,0.0901908,-19283.5,-31032,-0,36535.4,49090.6
step02_gravity_refstate-crust.xmf,957,-1.78549e-07,3.08283e-06,0,8.52338e-10,-8.33533e+08,-8.33309e+08,-8.33521e+08,58.4704,-6.39421e-20,0.0778454,-0,0.0778454,-40000,-30349.7,-0,50210.6,58.4704
step02_gravity_refstate-crust.xmf,958,6.20672e-06,-6.84776e-06,0,5.51806e-07,-1.05486e+09,-1.05575e+09,-1.05528e+09,37853.9,-0.000934595,0.146899,-0,0.146902,-150.678,-38417.7,-0,38418,37853.9
step02_gravity_refstate-crust.xmf,959,6.58088e-06,-7.59074e-06,0,1.68824e-06,-1.06359e+09,-1.06456e+09,-1.06404e+09,115813,-0.00257766,0.148801,-0,0.148823,-381.471,-38735.9,-0,38737.8,115813
step02_gravity_refstate-crust.xmf,960,3.04794e-06,-2.02325e-06,0,-2.09877e-06,-9.94519e+08,-9.94867e+08,-9.94728e+08,-143976,0.00578542,0.134084,0,0.134209,1646.79,-36215.7,0,36253.1,143976
step02_gravity_refstate-crust.xmf,961,5.88026e-07,1.46496e-06,0,-1.67083e-06,-8.52186e+08,-8.52126e+08,-8.52226e+08,-114619,0.00854056,0.120061,0,0.120364,6479.05,-31029.3,0,31698.5,114619
step02_gravity_refstate-crust.xmf,962,1.52987e-07,2.00606e-06,0,-1.36567e-06,-7.89019e+08,-7.88891e+08,-7.89029e+08,-93685,0.00835281,0.116462,0,0.116762,9565.98,-28728.7,0,30279.5,93685
step02_gravity_refstate-crust.xmf,963,1.99537e-07,1.97223e-06,0,-1.50285e-06,-8.18481e+08,-8.1836e+08,-8.18495e+08,-103096,0.00872688,0.116159,0,0.116486,8797.02,-29801.5,0,31072.8,103096
step02_gravity_refstate-crust.xmf,964,3.31464e-07,1.81238e-06,0,-1.56373e-06,-8.30505e+08,-8.30403e+08,-8.30528e+08,-107272,0.00872364,0.117561,0,0.117884,7917.6,-30239.5,0,31258.9,107272
step02_gravity_refstate-crust.xmf,965,1.80107e-06,-1.89872e-07,0,-2.12264e-06,-9.47949e+08,-9.48086e+08,-9.48073e+08,-145613,0.00758143,0.127535,0,0.12776,3094.66,-34518,0,34656.5,145613
step02_gravity_refstate-crust.xmf,966,-1.40687e-07,2.39662e-06,0,-1.17284e-06,-7.66772e+08,-7.66598e+08,-7.66762e+08,-80456.7,0.00801963,0.111083,0,0.111372,12865.5,-27918.2,0,30740,80456.7
step02_gravity_refstate-crust.xmf,967,-2.33397e-07,2.50232e-06,0,-1.01142e-06,-7.4313e+08,-7.42943e+08,-7.43114e+08,-69383.7,0.0073729,0.108745,0,0.108995,15169.9,-27057.3,0,31019.7,69383.7
step02_gravity_refstate-crust.xmf,968,-2.84746e-07,2.50203e-06,0,-2.58842e-07,-6.61483e+08,-6.61291e+08,-6.61463e+08,-17756.6,0.00225794,0.0976437,0,0.0976698,31522.4,-24084.7,0,39670.3,17756.6
step02_gravity_refstate-crust.xmf,969,-3.09617e-07,2.66173e-06,0,-3.65504e-07,-7.01538e+08,-7.01334e+08,-7.01517e+08,-25073.5,0.00320284,0.0961405,0,0.0961938,28114.9,-25543.1,0,37985.5,25073.5
step02_gravity_refstate-crust.xmf,970,-3.26161e-07,2.60903e-06,0,-5.38581e-07,-6.93606e+08,-6.93405e+08,-6.93584e+08,-36946.6,0.00451917,0.100707,0,0.100808,24019,-25254.2,0,34852.3,36946.6
step02_gravity_refstate-crust.xmf,971,-3.21426e-07,2.63868e-06,0,-4.49429e-07,-6.96845e+08,-6.96642e+08,-6.96823e+08,-30830.8,0.00386226,0.0983642,0,0.09844,26044.6,-25372.1,0,36360.2,30830.8
step02_gravity_refstate-crust.xmf,972,-2.73433e-07,2.52133e-06,0,-1.85876e-07,-6.67729e+08,-6.67537e+08,-6.6771e+08,-12751.1,0.00163935,0.0960261,0,0.0960401,33721.4,-24312.1,0,41571.8,12751.1
step02_gravity_refstate-crust.xmf,973,-2.63904e-07,2.52194e-06,0,-1.16515e-07,-6.69239e+08,-6.69048e+08,-6.69221e+08,-7992.92,0.00103225,0.0951403,0,0.0951459,35990.1,-24367.1,0,43463.2,7992.92
step02_gravity_refstate-crust.xmf,974,-2.57506e-07,2.527e-06,0,-5.25322e-08,-6.71483e+08,-6.71292e+08,-6.71465e+08,-3603.71,0.000462351,0.0945268,0,0.094528,38185.5,-24448.9,0,45341.8,3603.71
step02_gravity_refstate-crust.xmf,975,5.52583e-06,-6.29019e-06,0,3.76329e-06,-1.06333e+09,-1.06414e+09,-1.06371e+09,258162,-0.00600112,0.146304,-0,0.146427,-945.134,-38724.4,-0,38735.9,258162
step02_gravity_refstate-crust.xmf,976,6.52932e-07,1.31163e-06,0,2.89909e-06,-9.81944e+08,-9.81899e+08,-9.81989e+08,198877,-0.0111776,0.118834,-0,0.119358,-5010.31,-35753.3,-0,36102.7,198877
step02_gravity_refstate-crust.xmf,977,3.7876e-07,1.75959e-06,0,2.43796e-06,-9.48617e+08,-9.48522e+08,-9.48643e+08,167244,-0.0107868,0.115612,-0,0.116114,-6143.51,-34539.6,-0,35081.7,167244
step02_gravity_refstate-crust.xmf,978,4.35854e-07,1.64491e-06,0,2.71615e-06,-9.71069e+08,-9.70986e+08,-9.71099e+08,186328,-0.0111846,0.116475,-0,0.117011,-5627.7,-35357.1,-0,35802.1,186328
step02_gravity_refstate-crust.xmf,979,1.65915e-06,-2.12855e-07,0,3.19965e-06,-1e+09,-1.00013e+09,-1.00011e+09,219496,-0.00998734,0.12703,-0,0.127422,-3318.4,-36412.4,-0,36563.3,219496
step02_gravity_refstate-crust.xmf,980,1.14702e-06,5.54027e-07,0,3.21931e-06,-9.98768e+08,-9.98808e+08,-9.98846e+08,220844,-0.0109037,0.123371,-0,0.123852,-4013.3,-36366.6,-0,36587.4,220844
step02_gravity_refstate-crust.xmf,981,7.01432e-07,1.20227e-06,0,3.14765e-06,-9.97218e+08,-9.97184e+08,-9.97267e+08,215929,-0.0114866,0.119635,-0,0.120185,-4718.56,-36309.4,-0,36614.7,215929
step02_gravity_refstate-crust.xmf,982,1.85896e-06,-5.93397e-07,0,3.55206e-06,-1.01621e+09,-1.01638e+09,-1.01634e+09,243671,-0.0101998,0.128882,-0,0.129285,-3019.14,-37002.7,-0,37125.6,243671
step02_gravity_refstate-crust.xmf,983,2.94564e-06,-2.25336e-06,0,3.73227e-06,-1.03316e+09,-1.03351e+09,-1.03336e+09,256033,-0.00884675,0.13521,-0,0.135499,-2078.93,-37621.5,-0,37678.9,256033
step02_gravity_refstate-crust.xmf,984,7.45185e-08,2.23745e-06,0,2.12785e-06,-9.27554e+08,-9.27405e+08,-9.27559e+08,145970,-0.0106198,0.111582,-0,0.112087,-7566.77,-33772.3,-0,34609.6,145970
step02_gravity_refstate-crust.xmf,985,-4.86412e-07,3.23072e-06,0,1.2537e-06,-8.94669e+08,-8.94414e+08,-8.94635e+08,86003.8,-0.00863059,0.0967993,-0,0.0971833,-13419.6,-32574.3,-0,35230.3,86003.8
step02_gravity_refstate-crust.xmf,986,-5.31793e-07,3.39259e-06,0,9.74605e-07,-8.9226e+08,-8.91991e+08,-8.92224e+08,66857.9,-0.00736448,0.0913687,-0,0.091665,-15896.8,-32486.7,-0,36167.6,66857.9
step02_gravity_refstate-crust.xmf,987,-5.18356e-07,3.32363e-06,0,1.11043e-06,-8.93101e+08,-8.92838e+08,-8.93066e+08,76175.2,-0.00802129,0.0940465,-0,0.0943879,-14637.6,-32517.3,-0,35660,76175.2
step02_gravity_refstate-crust.xmf,988,-1.30591e-07,2.57966e-06,0,1.98974e-06,-9.27523e+08,-9.27337e+08,-9.27514e+08,136496,-0.0105881,0.107991,-0,0.108509,-8552.7,-33770.9,-0,34837,136496
step02_gravity_refstate-crust.xmf,989,-2.92747e-07,2.85274e-06,0,1.83097e-06,-9.26455e+08,-9.26239e+08,-9.26434e+08,125605,-0.0103523,0.104527,-0,0.105039,-9575.53,-33731.7,-0,35064.5,125605
step02_gravity_refstate-crust.xmf,990,-4.14141e-07,3.07596e-06,0,1.66375e-06,-9.25918e+08,-9.25679e+08,-9.2589e+08,114134,-0.00997263,0.101124,-0,0.101615,-10626,-33712.1,-0,35347.1,114134
step02_gravity_refstate-crust.xmf,991,-4.97701e-07,3.24952e-06,0,1.49411e-06,-9.25048e+08,-9.24791e+08,-9.25014e+08,102496,-0.00947253,0.0978834,-0,0.0983407,-11711.1,-33680.3,-0,35658.3,102496
step02_gravity_refstate-crust.xmf,992,-1.94063e-07,3.18724e-06,0,1.004e-07,-8.57953e+08,-8.57721e+08,-8.57939e+08,6887.45,-0.000965895,0.0759794,-0,0.0759855,-34327.6,-31238.8,-0,46413.8,6887.45
step02_gravity_refstate-crust.xmf,993,-2.25332e-07,3.20688e-06,0,1.54211e-07,-8.5635e+08,-8.56115e+08,-8.56335e+08,10578.8,-0.00148098,0.0771374,-0,0.0771516,-31897.9,-31180.3,-0,44605.9,10578.8
step02_gravity_refstate-crust.xmf,994,-2.70476e-07,3.09895e-06,0,2.17952e-07,-8.19986e+08,-8.19755e+08,-8.19968e+08,14951.5,-0.00206109,0.0820947,-0,0.0821206,-30435.3,-29856.1,-0,42634.4,14951.5
step02_gravity_refstate-crust.xmf,995,-4.19597e-07,3.29634e-06,0,5.17355e-07,-8.52022e+08,-8.51767e+08,-8.51993e+08,35490.6,-0.00456394,0.0856507,-0,0.0857722,-22355.6,-31022.1,-0,38238,35490.6
step02_gravity_refstate-crust.xmf,996,-5.26842e-07,3.43058e-06,0,8.47578e-07,-8.90087e+08,-8.89816e+08,-8.90051e+08,58143.8,-0.00668065,0.0889872,-0,0.0892376,-17219.6,-32407.7,-0,36698.4,58143.8
step02_gravity_refstate-crust.xmf,997,-1.55827e-07,3.19164e-06,0,3.31113e-08,-8.669e+08,-8.66671e+08,-8.6689e+08,2271.44,-0.000309792,0.0741496,-0,0.0741503,-37976.8,-31564.7,-0,49381.8,2271.44
step02_gravity_refstate-crust.xmf,998,3.62322e-06,-2.8722e-06,0,-2.03287e-06,-1.00919e+09,-1.00964e+09,-1.00944e+09,-139455,0.005008,0.136607,0,0.136699,1259.26,-36750.9,0,36772.5,139455
step02_gravity_refstate-crust.xmf,999,6.037e-06,-6.56626e-06,0,-1.11703e-06,-1.05322e+09,-1.05408e+09,-1.05363e+09,-76628.4,0.00190169,0.146283,0,0.146296,312.165,-38357.8,0,38359,76628.4
step02_gravity_refstate-crust.xmf,1000,4.29583e-06,-3.89265e-06,0,-1.88191e-06,-1.0243e+09,-1.02486e+09,-1.02459e+09,-129099,0.00412494,0.139488,0,0.139549,906.422,-37302,0,37313,129099
step02_gravity_refstate-crust.xmf,1001,5.09464e-06,-5.11255e-06,0,-1.6076e-06,-1.0389e+09,-1.0396e+09,-1.03925e+09,-110281,0.00311326,0.142673,0,0.142707,594.423,-37834.8,0,37839.5,110281
step02_gravity_refstate-crust.xmf,1002,6.80169e-06,-7.76626e-06,0,-2.47267e-07,-1.06269e+09,-1.06369e+09,-1.06316e+09,-16962.5,0.000430156,0.149028,0,0.149028,63.8051,-38703.8,0,38703.8,16962.5
step02_gravity_refstate-crust.xmf,1003,2.13593e-06,-7.56398e-07,0,-2.54495e-06,-9.79865e+08,-9.80063e+08,-9.80011e+08,-174583,0.00799743,0.129412,0,0.129658,2720.44,-35680.4,0,35784,174583
step02_gravity_refstate-crust.xmf,1004,2.53174e-06,-1.36725e-06,0,-2.68956e-06,-9.95939e+08,-9.96207e+08,-9.96113e+08,-184504,0.00769542,0.131689,0,0.131913,2309.71,-36266.3,0,36339.8,184504
step02_gravity_refstate-crust.xmf,1005,6.99082e-07,1.3414e-06,0,-1.79626e-06,-8.74746e+08,-8.74701e+08,-8.74793e+08,-123223,0.00873715,0.120412,0,0.120728,5940.55,-31850.9,0,32400.1,123223
step02_gravity_refstate-crust.xmf,1006,3.75048e-07,1.76454e-06,0,-1.68704e-06,-8.52399e+08,-8.52303e+08,-8.52424e+08,-115731,0.00900718,0.117413,0,0.117758,7439.49,-31036.7,0,31915.8,115731
step02_gravity_refstate-crust.xmf,1007,-7.49591e-09,2.23676e-06,0,-1.3346e-06,-7.91882e+08,-7.91728e+08,-7.91881e+08,-91553.2,0.0084849,0.113387,0,0.113704,10816.9,-28832.7,0,30794.9,91553.2
step02_gravity_refstate-crust.xmf,1008,1.97368e-07,2.02937e-06,0,-1.6454e-06,-8.4966e+08,-8.49534e+08,-8.49673e+08,-112874,0.00922739,0.114891,0,0.115261,8414.93,-30936.7,0,32060.7,112874
step02_gravity_refstate-crust.xmf,1009,1.12966e-06,7.06572e-07,0,-2.30904e-06,-9.3826e+08,-9.38289e+08,-9.38337e+08,-158400,0.00919576,0.122894,0,0.123238,4429.21,-34163.9,0,34449.9,158400
step02_gravity_refstate-crust.xmf,1010,1.82773e-06,-2.83202e-07,0,-2.42312e-06,-9.65084e+08,-9.65229e+08,-9.6521e+08,-166226,0.00823826,0.127559,0,0.127825,3127.82,-35141.8,0,35280.7,166226
step02_gravity_refstate-crust.xmf,1011,1.36225e-06,3.62851e-07,0,-2.5244e-06,-9.58663e+08,-9.58732e+08,-9.58757e+08,-173174,0.00926451,0.124437,0,0.124782,3923.46,-34907.2,0,35127,173174
step02_gravity_refstate-crust.xmf,1012,8.05419e-07,1.17956e-06,0,-1.96704e-06,-8.97512e+08,-8.97487e+08,-8.97568e+08,-134939,0.00896032,0.120859,0,0.12119,5446.48,-32679.9,0,33130.7,134939
step02_gravity_refstate-crust.xmf,1013,9.50744e-07,9.70911e-07,0,-2.13858e-06,-9.18956e+08,-9.18954e+08,-9.19021e+08,-146707,0.00911677,0.121712,0,0.122053,4929.56,-33460.9,0,33822,146707
step02_gravity_refstate-crust.xmf,1014,-1.28632e-07,2.43917e-06,0,-1.26786e-06,-7.9439e+08,-7.94213e+08,-7.94381e+08,-86975.3,0.00842995,0.110382,0,0.110703,12055,-28923.8,0,31335.4,86975.3
step02_gravity_refstate-crust.xmf,1015,-2.35684e-07,2.56389e-06,0,-1.10031e-06,-7.71919e+08,-7.71727e+08,-7.71902e+08,-75481.3,0.00782048,0.107962,0,0.108245,14182.1,-28105.5,0,31480.9,75481.3
step02_gravity_refstate-crust.xmf,1016,-2.92205e-07,2.6234e-06,0,-9.23426e-07,-7.46093e+08,-7.45893e+08,-7.46073e+08,-63347,0.00699838,0.105842,0,0.106073,16656.8,-27165.1,0,31865.3,63347
step02_gravity_refstate-crust.xmf,1017,-3.32907e-07,2.70988e-06,0,-8.24615e-07,-7.46337e+08,-7.46129e+08,-7.46315e+08,-56568.6,0.00648135,0.103112,0,0.103316,18301,-27174,0,32762.1,56568.6
step02_gravity_refstate-crust.xmf,1018,-2.93325e-07,2.68437e-06,0,-2.86568e-07,-7.08287e+08,-7.08082e+08,-7.08267e+08,-19658.5,0.00255303,0.0939902,0,0.0940249,30228.3,-25788.9,0,39734.3,19658.5
step02_gravity_refstate-crust.xmf,1019,-3.35227e-07,2.66335e-06,0,-6.05511e-07,-7.11143e+08,-7.10937e+08,-7.1112e+08,-41538.1,0.00504097,0.100828,0,0.100954,22437.7,-25892.6,0,34261.9,41538.1
step02_gravity_refstate-crust.xmf,1020,-3.52768e-07,2.76281e-06,0,-7.30912e-07,-7.45235e+08,-7.45021e+08,-7.45211e+08,-50140.6,0.00592614,0.100797,0,0.100971,19908.2,-27133.9,0,33653.9,50140.6
step02_gravity_refstate-crust.xmf,1021,-2.48565e-07,2.61804e-06,0,-2.50185e-10,-6.96949e+08,-6.96752e+08,-6.96932e+08,-17.1627,2.1112e-20,0.0920379,0,0.0920379,40000,-25376.2,0,47370.4,17.1627
step02_gravity_refstate-crust.xmf,1022,6.82611e-06,-8.35415e-06,0,3.5247e-06,-1.07516e+09,-1.07621e+09,-1.07563e+09,241795,-0.00483425,0.1511,-0,0.151178,-645.934,-39157.1,-0,39162.5,241795
step02_gravity_refstate-crust.xmf,1023,7.96851e-08,2.21413e-06,0,2.32909e-06,-9.49181e+08,-9.49034e+08,-9.49186e+08,159775,-0.0110135,0.111748,-0,0.11229,-7072.38,-34559.6,-0,35275.9,159775
step02_gravity_refstate-crust.xmf,1024,3.48019e-07,1.73048e-06,0,2.9881e-06,-9.93479e+08,-9.93384e+08,-9.93503e+08,204983,-0.0117413,0.116031,-0,0.116624,-5438.49,-36172.7,-0,36579.2,204983
step02_gravity_refstate-crust.xmf,1025,2.12437e-06,-1.02527e-06,0,3.94919e-06,-1.03228e+09,-1.03249e+09,-1.03242e+09,270914,-0.0104127,0.131167,-0,0.131579,-2720.34,-37588.1,-0,37686.4,270914
step02_gravity_refstate-crust.xmf,1026,3.46601e-06,-3.0491e-06,0,4.16116e-06,-1.04849e+09,-1.04894e+09,-1.04873e+09,285456,-0.00884792,0.138411,-0,0.138693,-1801.21,-38180.7,-0,38223.2,285456
step02_gravity_refstate-crust.xmf,1027,3.99229e-06,-4.17019e-06,0,4.8145e-06,-1.06271e+09,-1.06327e+09,-1.06299e+09,330274,-0.00878427,0.142128,-0,0.1424,-1538.17,-38698.9,-0,38729.4,330274
step02_gravity_refstate-crust.xmf,1028,-5.52009e-07,3.3862e-06,0,1.32544e-06,-9.24449e+08,-9.24179e+08,-9.24411e+08,90925.3,-0.00887206,0.0947033,-0,0.0951179,-12852.5,-33658.5,-0,36028.9,90925.3
step02_gravity_refstate-crust.xmf,1029,-1.43558e-07,3.30852e-06,0,5.9243e-08,-9.00513e+08,-9.00276e+08,-9.00503e+08,4064.07,-0.00054974,0.0705662,-0,0.0705684,-35695.7,-32788.6,-0,48469.3,4064.07
step02_gravity_refstate-crust.xmf,1030,-2.61885e-07,3.25841e-06,0,2.03699e-07,-8.62962e+08,-8.62721e+08,-8.62944e+08,13973.8,-0.00194319,0.0775053,-0,0.0775296,-29799.7,-31421,-0,43304.7,13973.8
step02_gravity_refstate-crust.xmf,1031,-3.00519e-07,3.29284e-06,0,2.60691e-07,-8.64841e+08,-8.64595e+08,-8.64821e+08,17883.4,-0.00246057,0.0785963,-0,0.0786348,-27883.8,-31489.3,-0,42060.5,17883.4
step02_gravity_refstate-crust.xmf,1032,-3.43281e-07,3.32386e-06,0,3.28866e-07,-8.65959e+08,-8.65707e+08,-8.65935e+08,22560.2,-0.00305482,0.0800438,-0,0.080102,-25986.9,-31529.9,-0,40858.9,22560.2
step02_gravity_refstate-crust.xmf,1033,-3.89478e-07,3.35131e-06,0,4.1382e-07,-8.67103e+08,-8.66846e+08,-8.67076e+08,28388.1,-0.00375662,0.0818682,-0,0.0819543,-24022.6,-31571.4,-0,39671.6,28388.1
step02_gravity_refstate-crust.xmf,1034,-5.09608e-07,3.45185e-06,0,7.28358e-07,-8.88349e+08,-8.88077e+08,-8.88314e+08,49965.4,-0.00597217,0.0866803,-0,0.0868858,-18619.2,-32344.5,-0,37320.8,49965.4
step02_gravity_refstate-crust.xmf,1035,-4.51403e-07,3.45821e-06,0,5.26699e-07,-8.87204e+08,-8.86936e+08,-8.87173e+08,36131.5,-0.00460875,0.0824646,-0,0.0825932,-21482.6,-32303.1,-0,38794.2,36131.5
step02_gravity_refstate-crust.xmf,1036,-4.83369e-07,3.46065e-06,0,6.20482e-07,-8.87543e+08,-8.87272e+08,-8.87509e+08,42565,-0.00526951,0.0844677,-0,0.084632,-20055.3,-32315.3,-0,38032.8,42565
step02_gravity_refstate-crust.xmf,1037,-1.20756e-07,3.29034e-06,0,8.45696e-10,-9.00527e+08,-9.00293e+08,-9.00519e+08,58.0148,-4.06699e-20,0.0700714,-0,0.0700714,-40000,-32789.2,-0,51721.7,58.0148
step02_gravity_refstate-crust.xmf,1038,7.75271e-06,-9.51304e-06,0,-7.85449e-08,-1.07443e+09,-1.07561e+09,-1.07496e+09,-5388.18,5.43732e-05,0.152721,0,0.152721,6.92885,-39132.2,0,39132.2,5388.18
step02_gravity_refstate-crust.xmf,1039,3.01261e-06,-2.08619e-06,0,-2.78404e-06,-1.01123e+09,-1.01158e+09,-1.01144e+09,-190985,0.0072733,0.134312,0,0.134509,1917.25,-36823.9,0,36873.8,190985
step02_gravity_refstate-crust.xmf,1040,4.40622e-07,1.68622e-06,0,-1.83193e-06,-8.75346e+08,-8.7526e+08,-8.75376e+08,-125670,0.00929772,0.117514,0,0.117881,6904.64,-31872.2,0,32611.5,125670
step02_gravity_refstate-crust.xmf,1041,1.72581e-08,2.25615e-06,0,-1.44564e-06,-8.19311e+08,-8.19158e+08,-8.19312e+08,-99170.9,0.00888036,0.112795,0,0.113144,10120.5,-29831.4,0,31501.4,99170.9
step02_gravity_refstate-crust.xmf,1042,1.60961e-08,2.2835e-06,0,-1.58093e-06,-8.47335e+08,-8.47179e+08,-8.47336e+08,-108452,0.00930238,0.112016,0,0.112401,9528.2,-30851.7,0,32289.5,108452
step02_gravity_refstate-crust.xmf,1043,1.62187e-06,-7.52179e-08,0,-2.80747e-06,-9.80491e+08,-9.80607e+08,-9.80602e+08,-192593,0.00936266,0.126383,0,0.126729,3434.15,-35702.2,0,35867,192593
step02_gravity_refstate-crust.xmf,1044,7.64429e-07,1.21368e-06,0,-2.404e-06,-9.41942e+08,-9.41911e+08,-9.41994e+08,-164914,0.0100813,0.119641,0,0.120065,5241.35,-34297.3,0,34695.5,164914
step02_gravity_refstate-crust.xmf,1045,-2.33957e-07,2.6105e-06,0,-1.1905e-06,-7.97544e+08,-7.97349e+08,-7.97528e+08,-81668.1,0.00823291,0.107369,0,0.107684,13298.4,-29038.5,0,31938.7,81668.1
step02_gravity_refstate-crust.xmf,1046,-3.24186e-07,2.75629e-06,0,-1.01167e-06,-7.84764e+08,-7.84552e+08,-7.84742e+08,-69400.6,0.00750073,0.103944,0,0.104215,15610.3,-28573.1,0,32559.2,69400.6
step02_gravity_refstate-crust.xmf,1047,-2.75282e-07,2.71343e-06,0,-2.13372e-07,-7.18089e+08,-7.17883e+08,-7.1807e+08,-14637.3,0.00192985,0.0918395,0,0.0918598,32348.9,-26145.8,0,41593.9,14637.3
step02_gravity_refstate-crust.xmf,1048,-3.05213e-07,2.86185e-06,0,-3.09931e-07,-7.53086e+08,-7.52868e+08,-7.53065e+08,-21261.2,0.00281345,0.0903514,0,0.0903952,28921,-27420,0,39853.3,21261.2
step02_gravity_refstate-crust.xmf,1049,-3.61262e-07,2.80795e-06,0,-6.40828e-07,-7.46658e+08,-7.46441e+08,-7.46633e+08,-43960.8,0.00534637,0.0984312,0,0.0985763,21528.5,-27185.7,0,34677.6,43960.8
step02_gravity_refstate-crust.xmf,1050,-3.27449e-07,2.84497e-06,0,-3.88493e-07,-7.47023e+08,-7.46806e+08,-7.47001e+08,-26650.6,0.00346137,0.0925543,0,0.092619,26934.4,-27199.2,0,38278.7,26650.6
step02_gravity_refstate-crust.xmf,1051,-3.59793e-07,2.84476e-06,0,-5.54017e-07,-7.49827e+08,-7.49607e+08,-7.49802e+08,-38005.6,0.00474552,0.0960665,0,0.0961836,23180.9,-27301.2,0,35814.9,38005.6
step02_gravity_refstate-crust.xmf,1052,-3.44966e-07,2.83082e-06,0,-4.71278e-07,-7.43889e+08,-7.43671e+08,-7.43866e+08,-32329.7,0.00411182,0.0946744,0,0.0947637,25022.9,-27085,0,36874.7,32329.7
step02_gravity_refstate-crust.xmf,1053,-2.58111e-07,2.72983e-06,0,-1.43963e-07,-7.25217e+08,-7.25012e+08,-7.25199e+08,-9875.89,0.00131413,0.0901973,0,0.0902069,34617.2,-26405.4,0,43538.4,9875.89
step02_gravity_refstate-crust.xmf,1054,-2.46274e-07,2.72942e-06,0,-8.32036e-08,-7.2721e+08,-7.27006e+08,-7.27193e+08,-5707.77,0.000761159,0.089409,0,0.0894122,36821.2,-26478,0,45352.9,5707.77
step02_gravity_refstate-crust.xmf,1055,-2.38179e-07,2.73827e-06,0,-3.31622e-08,-7.30893e+08,-7.30689e+08,-7.30877e+08,-2274.92,0.000301418,0.0887793,0,0.0887798,38722.1,-26612.2,0,46985.2,2274.92
step02_gravity_refstate-crust.xmf,1056,4.90679e-06,-5.64535e-06,0,5.63321e-06,-1.07697e+09,-1.07769e+09,-1.0773e+09,386438,-0.00858077,0.146933,-0,0.147183,-1260.61,-39219.2,-0,39239.4,386438
step02_gravity_refstate-crust.xmf,1057,1.00114e-07,2.16342e-06,0,2.5523e-06,-9.69297e+08,-9.69156e+08,-9.69304e+08,175088,-0.0113911,0.112315,-0,0.112891,-6565.18,-35292,-0,35897.4,175088
step02_gravity_refstate-crust.xmf,1058,1.24142e-06,2.94405e-07,0,3.58157e-06,-1.01529e+09,-1.01536e+09,-1.01538e+09,245696,-0.011205,0.124905,-0,0.125407,-3695.5,-36968.2,-0,37152.5,245696
step02_gravity_refstate-crust.xmf,1059,7.43578e-07,1.07142e-06,0,3.46453e-06,-1.014e+09,-1.01398e+09,-1.01405e+09,237667,-0.0118407,0.120771,-0,0.12135,-4394.47,-36920.4,-0,37181,237667
step02_gravity_refstate-crust.xmf,1060,3.24845e-07,1.71506e-06,0,3.27738e-06,-1.01223e+09,-1.01213e+09,-1.01225e+09,224828,-0.0121625,0.116577,-0,0.11721,-5124.79,-36855.2,-0,37209.8,224828
step02_gravity_refstate-crust.xmf,1061,1.3537e-06,1.3245e-08,0,4.00014e-06,-1.03174e+09,-1.03183e+09,-1.03183e+09,274410,-0.0115277,0.126766,-0,0.127289,-3384.6,-37566.9,-0,37719.1,274410
step02_gravity_refstate-crust.xmf,1062,2.3668e-06,-1.61911e-06,0,4.49792e-06,-1.0476e+09,-1.04788e+09,-1.04777e+09,308557,-0.0105866,0.13395,-0,0.134368,-2421.5,-38146.1,-0,38222.9,308557
step02_gravity_refstate-crust.xmf,1063,-1.85546e-07,2.64806e-06,0,2.20248e-06,-9.55142e+08,-9.54948e+08,-9.5513e+08,151090,-0.0110643,0.107356,-0,0.107925,-8026.39,-34776.3,-0,35690.5,151090
step02_gravity_refstate-crust.xmf,1064,-5.78588e-07,3.60473e-06,0,8.65434e-07,-9.23091e+08,-9.22804e+08,-9.23051e+08,59368.8,-0.00670069,0.0859365,-0,0.0861973,-16622.8,-33609.3,-0,37495.4,59368.8
step02_gravity_refstate-crust.xmf,1065,-5.82062e-07,3.49018e-06,0,1.16254e-06,-9.24151e+08,-9.23872e+08,-9.24111e+08,79750.1,-0.00819328,0.0916092,-0,0.0919749,-14050.3,-33647.7,-0,36463.4,79750.1
step02_gravity_refstate-crust.xmf,1066,-5.91569e-07,3.56716e-06,0,1.00635e-06,-9.24534e+08,-9.24249e+08,-9.24493e+08,69035.6,-0.00744707,0.0885452,-0,0.0888578,-15318.4,-33661.7,-0,36983.3,69035.6
step02_gravity_refstate-crust.xmf,1067,-3.58048e-07,2.95856e-06,0,1.97974e-06,-9.5172e+08,-9.51492e+08,-9.51695e+08,135810,-0.010728,0.103522,-0,0.104076,-9108.28,-34651.4,-0,35828.5,135810
step02_gravity_refstate-crust.xmf,1068,-4.79887e-07,3.19446e-06,0,1.7852e-06,-9.5107e+08,-9.50818e+08,-9.51037e+08,122464,-0.0102964,0.0999339,-0,0.100463,-10123,-34627.7,-0,36077,122464
step02_gravity_refstate-crust.xmf,1069,-5.63153e-07,3.37933e-06,0,1.59054e-06,-9.50327e+08,-9.50057e+08,-9.50288e+08,109111,-0.00974107,0.0964702,-0,0.0969608,-11182.6,-34600.6,-0,36362.8,109111
step02_gravity_refstate-crust.xmf,1070,-6.13613e-07,3.51943e-06,0,1.40437e-06,-9.49775e+08,-9.49492e+08,-9.49733e+08,96339.6,-0.00909986,0.0931685,-0,0.0936118,-12273.7,-34580.5,-0,36694.1,96339.6
step02_gravity_refstate-crust.xmf,1071,-1.73343e-07,3.34941e-06,0,9.89109e-08,-9.04615e+08,-9.04373e+08,-9.04603e+08,6785.29,-0.000934827,0.0708712,-0,0.0708774,-33068.5,-32937.9,-0,46673.7,6785.29
step02_gravity_refstate-crust.xmf,1072,-4.18312e-07,3.44091e-06,0,4.51558e-07,-8.85427e+08,-8.85162e+08,-8.85398e+08,30976.9,-0.00404525,0.0809688,-0,0.0810698,-22830.6,-32238.5,-0,39503.9,30976.9
step02_gravity_refstate-crust.xmf,1073,-5.53828e-07,3.62486e-06,0,7.38153e-07,-9.22311e+08,-9.22025e+08,-9.22273e+08,50637.3,-0.00595451,0.0834659,-0,0.083678,-17961.2,-33581,-0,38082.7,50637.3
step02_gravity_refstate-crust.xmf,1074,-9.44157e-08,3.38428e-06,0,2.14911e-08,-9.30842e+08,-9.30603e+08,-9.30835e+08,1474.29,-0.000185571,0.0664966,-0,0.0664968,-37956.4,-33893.1,-0,50886.4,1474.29
step02_gravity_refstate-crust.xmf,1075,3.63589e-06,-3.07865e-06,0,-2.9154e-06,-1.02604e+09,-1.0265e+09,-1.02629e+09,-199997,0.0066822,0.137376,0,0.137539,1533.96,-37364.1,0,37395.6,199997
step02_gravity_refstate-crust.xmf,1076,6.70652e-06,-7.666e-06,0,-2.10133e-06,-1.06563e+09,-1.06662e+09,-1.06609e+09,-144151,0.00318476,0.149116,0,0.14915,463.462,-38810.7,0,38813.5,144151
step02_gravity_refstate-crust.xmf,1077,5.34288e-06,-5.72426e-06,0,-3.00274e-06,-1.05469e+09,-1.05545e+09,-1.05505e+09,-205988,0.00518586,0.144793,0,0.144886,878.088,-38409.7,0,38419.7,205988
step02_gravity_refstate-crust.xmf,1078,4.38201e-06,-4.24795e-06,0,-2.98846e-06,-1.04032e+09,-1.04091e+09,-1.04062e+09,-205008,0.0060076,0.140777,0,0.140905,1193.94,-37885.1,0,37903.9,205008
step02_gravity_refstate-crust.xmf,1079,1.93883e-06,-5.86639e-07,0,-3.05823e-06,-9.97461e+08,-9.97635e+08,-9.97594e+08,-209795,0.00929373,0.128617,0,0.128953,2995.47,-36320.5,0,36443.8,209795
step02_gravity_refstate-crust.xmf,1080,2.32016e-06,-1.20564e-06,0,-3.31318e-06,-1.01286e+09,-1.01311e+09,-1.01302e+09,-227284,0.0091238,0.131187,0,0.131504,2582.09,-36881.9,0,36972.1,227284
step02_gravity_refstate-crust.xmf,1081,5.18765e-07,1.60258e-06,0,-1.9915e-06,-8.98407e+08,-8.98333e+08,-8.98443e+08,-136617,0.00961245,0.117712,0,0.118104,6402.85,-32712,0,33332.7,136617
step02_gravity_refstate-crust.xmf,1082,2.16923e-07,2.00944e-06,0,-1.8e-06,-8.74829e+08,-8.74706e+08,-8.74844e+08,-123480,0.0096133,0.114531,0,0.114934,7900.17,-31853,0,32818.1,123480
step02_gravity_refstate-crust.xmf,1083,-1.32821e-07,2.48056e-06,0,-1.37596e-06,-8.21226e+08,-8.21046e+08,-8.21217e+08,-94390.8,0.00883138,0.109611,0,0.109967,11351.1,-29900.8,0,31982.9,94390.8
step02_gravity_refstate-crust.xmf,1084,2.92291e-08,2.30441e-06,0,-1.72032e-06,-8.73837e+08,-8.73681e+08,-8.73839e+08,-118014,0.00971985,0.111463,0,0.111886,8944.52,-31816.6,0,33050,118014
step02_gravity_refstate-crust.xmf,1085,9.1738e-07,9.6971e-07,0,-2.60494e-06,-9.58883e+08,-9.5888e+08,-9.58946e+08,-178699,0.0102076,0.120987,0,0.121416,4748.84,-34914.3,0,35235.8,178699
step02_gravity_refstate-crust.xmf,1086,5.72753e-07,1.50349e-06,0,-2.22669e-06,-9.24085e+08,-9.24021e+08,-9.24124e+08,-152751,0.01002,0.117939,0,0.118364,5920.45,-33646.9,0,34163.8,152751
step02_gravity_refstate-crust.xmf,1087,-2.41026e-07,2.67463e-06,0,-1.28202e-06,-8.2387e+08,-8.2367e+08,-8.23854e+08,-87946.6,0.00862759,0.10646,0,0.106809,12572.2,-29997,0,32525.1,87946.6
step02_gravity_refstate-crust.xmf,1088,-3.01155e-07,2.74243e-06,0,-1.10976e-06,-8.00925e+08,-8.00716e+08,-8.00904e+08,-76129.4,0.0079607,0.104713,0,0.105015,14403.3,-29161.5,0,32524.6,76129.4
step02_gravity_refstate-crust.xmf,1089,-3.67047e-07,2.85347e-06,0,-8.85886e-07,-7.83211e+08,-7.8299e+08,-7.83186e+08,-60771.8,0.00688317,0.100901,0,0.101135,17378.8,-28516.5,0,33394.8,60771.8
step02_gravity_refstate-crust.xmf,1090,-3.87985e-07,2.91882e-06,0,-7.78088e-07,-7.8318e+08,-7.82954e+08,-7.83154e+08,-53376.8,0.00627481,0.0982619,0,0.0984621,18984.4,-28515.4,0,34256.9,53376.8
step02_gravity_refstate-crust.xmf,1091,-2.80684e-07,2.88488e-06,0,-2.39658e-07,-7.62272e+08,-7.62055e+08,-7.62253e+08,-16440.5,0.00220945,0.0881258,0,0.0881534,30871.5,-27754.6,0,41513.5,16440.5
step02_gravity_refstate-crust.xmf,1092,-3.94507e-07,2.9683e-06,0,-6.77881e-07,-7.84819e+08,-7.84588e+08,-7.84792e+08,-46502.6,0.00564919,0.095715,0,0.0958816,20575,-28575.1,0,35211.8,46502.6
step02_gravity_refstate-crust.xmf,1093,-2.20238e-07,2.85802e-06,0,-7.67097e-10,-7.65735e+08,-7.65523e+08,-7.6572e+08,-52.6229,3.08382e-20,0.0851791,0,0.0851791,40000,-27880.9,0,48758,52.6229
step02_gravity_refstate-crust.xmf,1094,6.83513e-06,-8.91229e-06,0,5.7346e-06,-1.08744e+09,-1.08852e+09,-1.08791e+09,393394,-0.00691483,0.153573,-0,0.153729,-833.394,-39603.3,-0,39612,393394
step02_gravity_refstate-crust.xmf,1095,8.78041e-06,-1.14531e-05,0,2.24447e-06,-1.08665e+09,-1.08804e+09,-1.08725e+09,153971,-0.00262692,0.156859,-0,0.156881,-297.518,-39578.3,-0,39579.4,153971
step02_gravity_refstate-crust.xmf,1096,6.04655e-08,2.18986e-06,0,2.79023e-06,-9.89959e+08,-9.89813e+08,-9.89963e+08,191410,-0.0118095,0.11238,-0,0.112999,-6205.74,-36044.1,-0,36574.4,191410
step02_gravity_refstate-crust.xmf,1097,-1.11071e-07,2.51301e-06,0,2.40293e-06,-9.69078e+08,-9.68898e+08,-9.6907e+08,164841,-0.0113824,0.109017,-0,0.109609,-7314.41,-35283.7,-0,36033.9,164841
step02_gravity_refstate-crust.xmf,1098,-8.30678e-09,2.24609e-06,0,3.04172e-06,-1.01001e+09,-1.00985e+09,-1.01001e+09,208662,-0.0122233,0.112447,-0,0.11311,-5884.7,-36773.8,-0,37241.7,208662
step02_gravity_refstate-crust.xmf,1099,1.52834e-06,-3.21343e-07,0,4.46463e-06,-1.04752e+09,-1.04765e+09,-1.04763e+09,306274,-0.0118108,0.129171,-0,0.12971,-3058.59,-38141.8,-0,38264.2,306274
step02_gravity_refstate-crust.xmf,1100,2.73332e-06,-2.2388e-06,0,5.04958e-06,-1.06152e+09,-1.06186e+09,-1.06171e+09,346401,-0.0107038,0.137142,-0,0.137559,-2137.53,-38653.3,-0,38712.4,346401
step02_gravity_refstate-crust.xmf,1101,3.03034e-06,-2.99854e-06,0,5.76778e-06,-1.07367e+09,-1.07409e+09,-1.07388e+09,395670,-0.0107364,0.140659,-0,0.141068,-1873.75,-39095.7,-0,39140.6,395670
step02_gravity_refstate-crust.xmf,1102,-6.41063e-07,3.63319e-06,0,1.22651e-06,-9.50792e+08,-9.50499e+08,-9.50748e+08,84138.8,-0.00838007,0.0898281,-0,0.0902182,-13407.3,-34617.6,-0,37123.2,84138.8
step02_gravity_refstate-crust.xmf,1103,-2.0532e-07,3.38967e-06,0,1.38663e-07,-9.07531e+08,-9.07285e+08,-9.07517e+08,9512.26,-0.00131148,0.0714615,-0,0.0714735,-30944.6,-33044,-0,45271.1,9512.26
step02_gravity_refstate-crust.xmf,1104,-1.06657e-07,3.47914e-06,0,5.375e-08,-9.52807e+08,-9.52561e+08,-9.52799e+08,3687.25,-0.000446669,0.0644798,-0,0.0644814,-34257.3,-34692.8,-0,48756.1,3687.25
step02_gravity_refstate-crust.xmf,1105,-2.50718e-07,3.43517e-06,0,1.84858e-07,-9.10187e+08,-9.09934e+08,-9.1017e+08,12681.2,-0.00174039,0.0722969,-0,0.0723178,-28938.7,-33140.6,-0,43997.1,12681.2
step02_gravity_refstate-crust.xmf,1106,-2.98754e-07,3.47642e-06,0,2.40721e-07,-9.11391e+08,-9.11132e+08,-9.11371e+08,16513.5,-0.00224902,0.0735368,-0,0.0735712,-27015.3,-33184.3,-0,42790.4,16513.5
step02_gravity_refstate-crust.xmf,1107,-3.49468e-07,3.51522e-06,0,3.06742e-07,-9.12358e+08,-9.12093e+08,-9.12334e+08,21042.5,-0.00282545,0.0750214,-0,0.0750746,-25180.8,-33219.3,-0,41684.5,21042.5
step02_gravity_refstate-crust.xmf,1108,-3.95978e-07,3.56426e-06,0,3.71986e-07,-9.17296e+08,-9.17024e+08,-9.17269e+08,25518.3,-0.00336391,0.0760707,-0,0.0761451,-23549.8,-33399,-0,40866.7,25518.3
step02_gravity_refstate-crust.xmf,1109,-5.20094e-07,3.63318e-06,0,6.21894e-07,-9.22595e+08,-9.2231e+08,-9.2256e+08,42662,-0.00520443,0.0810384,-0,0.0812054,-19355.8,-33591.5,-0,38769,42662
step02_gravity_refstate-crust.xmf,1110,-4.38537e-07,3.61299e-06,0,4.372e-07,-9.23449e+08,-9.23172e+08,-9.23419e+08,29991.9,-0.0038675,0.0769534,-0,0.0770505,-22128.3,-33622.9,-0,40251.2,29991.9
step02_gravity_refstate-crust.xmf,1111,-4.81801e-07,3.63054e-06,0,5.2327e-07,-9.23516e+08,-9.23234e+08,-9.23483e+08,35896.3,-0.0045115,0.0788418,-0,0.0789708,-20719.3,-33625.2,-0,39496.1,35896.3
step02_gravity_refstate-crust.xmf,1112,-5.96553e-07,3.78614e-06,0,7.46799e-07,-9.52651e+08,-9.5235e+08,-9.5261e+08,51230.4,-0.00588621,0.0805566,-0,0.0807714,-17329.9,-34685.7,-0,38774,51230.4
step02_gravity_refstate-crust.xmf,1113,-4.70972e-08,3.48083e-06,0,1.01629e-09,-9.66895e+08,-9.66653e+08,-9.66892e+08,69.7174,-1.05734e-20,0.0618884,-0,0.0618884,-40000,-35206,-0,53286.6,69.7174
step02_gravity_refstate-crust.xmf,1114,-7.93322e-08,3.46752e-06,0,3.18821e-08,-9.56145e+08,-9.55901e+08,-9.56139e+08,2187.11,-0.000251036,0.0635954,-0,0.0635959,-36207,-34814.5,-0,50229.4,2187.11
step02_gravity_refstate-crust.xmf,1115,8.8615e-06,-1.15884e-05,0,-1.8419e-06,-1.08689e+09,-1.08829e+09,-1.0875e+09,-126354,0.0021792,0.157138,0,0.157153,245.833,-39587.2,0,39587.9,126354
step02_gravity_refstate-crust.xmf,1116,7.47138e-06,-9.27281e-06,0,-3.03325e-06,-1.07711e+09,-1.07826e+09,-1.07762e+09,-208081,0.00388318,0.152471,0,0.152521,500.253,-39229,0,39232.2,208081
step02_gravity_refstate-crust.xmf,1117,2.8112e-06,-1.95174e-06,0,-3.54495e-06,-1.02769e+09,-1.02801e+09,-1.02788e+09,-243184,0.00885151,0.134198,0,0.134489,2182.77,-37422.3,0,37485.9,243184
step02_gravity_refstate-crust.xmf,1118,2.55983e-07,1.96195e-06,0,-1.96667e-06,-8.98287e+08,-8.9817e+08,-8.98305e+08,-134914,0.00997498,0.114554,0,0.114987,7357.27,-32707.1,0,33524.4,134914
step02_gravity_refstate-crust.xmf,1119,-1.31737e-07,2.52542e-06,0,-1.48775e-06,-8.47403e+08,-8.4722e+08,-8.47394e+08,-102060,0.00923404,0.108888,0,0.109278,10693.2,-30853.9,0,32654.4,102060
step02_gravity_refstate-crust.xmf,1120,-1.6874e-07,2.60789e-06,0,-1.62052e-06,-8.76714e+08,-8.76523e+08,-8.76702e+08,-111168,0.00966949,0.107577,0,0.108011,10176.5,-31921,0,33503.9,111168
step02_gravity_refstate-crust.xmf,1121,1.06113e-06,7.63636e-07,0,-2.72858e-06,-9.69195e+08,-9.69215e+08,-9.69267e+08,-187181,0.0102158,0.122194,0,0.12262,4398.4,-35290,0,35563,187181
step02_gravity_refstate-crust.xmf,1122,1.15649e-06,5.69739e-07,0,-2.94215e-06,-9.82516e+08,-9.82557e+08,-9.82596e+08,-201832,0.0104047,0.123124,0,0.123563,4127.8,-35775.1,0,36012.4,201832
step02_gravity_refstate-crust.xmf,1123,1.35017e-06,2.18538e-07,0,-3.23982e-06,-9.99349e+08,-9.99427e+08,-9.99442e+08,-222252,0.0105495,0.124979,0,0.125424,3709.94,-36388.1,0,36576.7,222252
step02_gravity_refstate-crust.xmf,1124,5.71101e-07,1.45675e-06,0,-2.64546e-06,-9.63232e+08,-9.63171e+08,-9.63271e+08,-181478,0.0108626,0.11775,0,0.11825,5444.72,-35072,0,35492.1,181478
step02_gravity_refstate-crust.xmf,1125,4.84615e-07,1.61613e-06,0,-2.43956e-06,-9.4707e+08,-9.46993e+08,-9.47104e+08,-167354,0.0106372,0.116729,0,0.117213,5895.93,-34483.5,0,34983.9,167354
step02_gravity_refstate-crust.xmf,1126,-3.30228e-07,2.8345e-06,0,-1.17961e-06,-8.2658e+08,-8.26363e+08,-8.26558e+08,-80921.5,0.00828941,0.103371,0,0.103703,13812.5,-30095.5,0,33113.8,80921.5
step02_gravity_refstate-crust.xmf,1127,-3.7864e-07,2.93426e-06,0,-1.06497e-06,-8.23812e+08,-8.23585e+08,-8.23786e+08,-73056.9,0.00781293,0.100869,0,0.101171,15121.9,-29994.7,0,33591,73056.9
step02_gravity_refstate-crust.xmf,1128,-2.52489e-07,2.94846e-06,0,-1.67314e-07,-7.84059e+08,-7.83839e+08,-7.84042e+08,-11477.7,0.00157326,0.0847518,0,0.0847664,32969.2,-28548,0,43611.4,11477.7
step02_gravity_refstate-crust.xmf,1129,-2.89731e-07,3.04103e-06,0,-2.5769e-07,-8.01674e+08,-8.01445e+08,-8.01654e+08,-17677.5,0.00240898,0.0846953,0,0.0847296,29550.1,-29189.3,0,41535.8,17677.5
step02_gravity_refstate-crust.xmf,1130,-3.19476e-07,3.03532e-06,0,-3.26166e-07,-7.96012e+08,-7.95782e+08,-7.9599e+08,-22375,0.00300255,0.0866767,0,0.0867287,27693,-28983,0,40086.4,22375
step02_gravity_refstate-crust.xmf,1131,-3.88651e-07,3.00527e-06,0,-5.79908e-07,-7.87625e+08,-7.87392e+08,-7.87598e+08,-39781.7,0.00498428,0.0931693,0,0.0933025,22251.1,-28677.3,0,36297.4,39781.7
step02_gravity_refstate-crust.xmf,1132,-3.47785e-07,3.02744e-06,0,-4.04525e-07,-7.91278e+08,-7.91047e+08,-7.91255e+08,-27750.4,0.00365084,0.0888378,0,0.0889128,25818.4,-28810.6,0,38686.4,27750.4
step02_gravity_refstate-crust.xmf,1133,-3.71732e-07,3.02142e-06,0,-4.88827e-07,-7.8924e+08,-7.89007e+08,-7.89215e+08,-33533.6,0.00431373,0.0909284,0,0.0910307,23999,-28736.2,0,37439.6,33533.6
step02_gravity_refstate-crust.xmf,1134,-2.1195e-07,2.95093e-06,0,-4.80495e-08,-7.92155e+08,-7.91938e+08,-7.92141e+08,-3296.19,0.000445014,0.0825251,0,0.0825263,37849.6,-28842.9,0,47586.9,3296.19
step02_gravity_refstate-crust.xmf,1135,-2.28232e-07,2.94386e-06,0,-1.04097e-07,-7.87326e+08,-7.87108e+08,-7.8731e+08,-7141.04,0.000982376,0.0835343,0,0.0835401,35417.6,-28667,0,45565.4,7141.04
step02_gravity_refstate-crust.xmf,1136,4.76062e-06,-5.88575e-06,0,6.97665e-06,-1.08962e+09,-1.09035e+09,-1.08994e+09,478598,-0.00959197,0.149524,-0,0.149831,-1265.71,-39678.7,-0,39698.9,478598
step02_gravity_refstate-crust.xmf,1137,-1.80987e-07,2.59722e-06,0,2.57419e-06,-9.87876e+08,-9.87685e+08,-9.87863e+08,176589,-0.0117209,0.108574,-0,0.109205,-7027.34,-35967.9,-0,36648,176589
step02_gravity_refstate-crust.xmf,1138,7.41496e-07,9.40601e-07,0,3.86086e-06,-1.03151e+09,-1.0315e+09,-1.03156e+09,264855,-0.0122452,0.122106,-0,0.122718,-4080.51,-37557.8,-0,37778.8,264855
step02_gravity_refstate-crust.xmf,1139,2.70905e-07,1.71103e-06,0,3.60761e-06,-1.03063e+09,-1.03053e+09,-1.03064e+09,247482,-0.0125834,0.117332,-0,0.118005,-4813.82,-37524.7,-0,37832.2,247482
step02_gravity_refstate-crust.xmf,1140,-8.46869e-08,2.30722e-06,0,3.30909e-06,-1.0288e+09,-1.02863e+09,-1.02879e+09,227003,-0.012605,0.112716,-0,0.113419,-5570.68,-37457.6,-0,37869.6,227003
step02_gravity_refstate-crust.xmf,1141,7.75796e-07,7.48091e-07,0,4.32225e-06,-1.04844e+09,-1.04844e+09,-1.04849e+09,296506,-0.0126095,0.124088,-0,0.124727,-3727.47,-38173.7,-0,38355.3,296506
step02_gravity_refstate-crust.xmf,1142,1.66582e-06,-7.59082e-07,0,5.02639e-06,-1.06142e+09,-1.06159e+09,-1.06153e+09,344810,-0.012008,0.132004,-0,0.132549,-2740.43,-38647.6,-0,38744.6,344810
step02_gravity_refstate-crust.xmf,1143,3.18551e-06,-3.44055e-06,0,6.69388e-06,-1.087e+09,-1.08746e+09,-1.08722e+09,459200,-0.0111216,0.143984,-0,0.144413,-1706.45,-39581,-0,39617.7,459200
step02_gravity_refstate-crust.xmf,1144,-3.47126e-07,2.89772e-06,0,2.35313e-06,-9.8448e+08,-9.84258e+08,-9.84457e+08,161425,-0.0114598,0.105133,-0,0.105755,-7852.47,-35844.1,-0,36694.1,161425
step02_gravity_refstate-crust.xmf,1145,-4.46689e-07,3.09542e-06,0,2.1253e-06,-9.76456e+08,-9.76213e+08,-9.76426e+08,145796,-0.0110544,0.102324,-0,0.10292,-8717.72,-35551.8,-0,36605.1,145796
step02_gravity_refstate-crust.xmf,1146,-6.31755e-07,3.77989e-06,0,8.7866e-07,-9.54621e+08,-9.54318e+08,-9.54578e+08,60276.1,-0.00663948,0.082905,-0,0.0831704,-16048,-34757.2,-0,38283.2,60276.1
step02_gravity_refstate-crust.xmf,1147,-6.60961e-07,3.75784e-06,0,1.04088e-06,-9.5803e+08,-9.57727e+08,-9.57985e+08,71404,-0.00747225,0.0855872,-0,0.0859127,-14677.6,-34881.2,-0,37843.5,71404
step02_gravity_refstate-crust.xmf,1148,-5.6368e-07,3.33865e-06,0,1.90219e-06,-9.75907e+08,-9.7564e+08,-9.75869e+08,130490,-0.0105633,0.0985789,-0,0.0991432,-9684.49,-35531.8,-0,36827.9,130490
step02_gravity_refstate-crust.xmf,1149,-6.39071e-07,3.52257e-06,0,1.68747e-06,-9.75087e+08,-9.74801e+08,-9.75043e+08,115760,-0.00996301,0.0950351,-0,0.0955559,-10684.6,-35501.9,-0,37074.8,115760
step02_gravity_refstate-crust.xmf,1150,-6.98789e-07,3.75959e-06,0,1.29473e-06,-9.73577e+08,-9.73272e+08,-9.73529e+08,88818.8,-0.00854874,0.0884755,-0,0.0888876,-12797.5,-35447.1,-0,37686.5,88818.8
step02_gravity_refstate-crust.xmf,1151,-6.81611e-07,3.65975e-06,0,1.48327e-06,-9.74171e+08,-9.73874e+08,-9.74125e+08,101752,-0.00928091,0.0916659,-0,0.0921346,-11726.9,-35468.6,-0,37356.9,101752
step02_gravity_refstate-crust.xmf,1152,-1.4165e-07,3.51729e-06,0,8.17515e-08,-9.5432e+08,-9.54069e+08,-9.5431e+08,5608.15,-0.000699299,0.0650529,-0,0.0650567,-32072.6,-34747.8,-0,47287,5608.15
step02_gravity_refstate-crust.xmf,1153,-5.55322e-07,3.79146e-06,0,6.25164e-07,-9.53573e+08,-9.53275e+08,-9.53535e+08,42886.3,-0.00510936,0.078016,-0,0.0781831,-18656.3,-34719.4,-0,39414.4,42886.3
step02_gravity_refstate-crust.xmf,1154,-1.60721e-08,3.56923e-06,0,1.02297e-08,-9.97413e+08,-9.97167e+08,-9.97412e+08,701.756,-2.33743e-05,0.058084,-0,0.058084,-37790.9,-36317.3,-0,52412.8,701.756
step02_gravity_refstate-crust.xmf,1155,3.40125e-06,-2.98643e-06,0,-3.90639e-06,-1.04204e+09,-1.04248e+09,-1.04227e+09,-267978,0.00847479,0.137689,0,0.13795,1804.34,-37945.6,0,37988.5,267978
step02_gravity_refstate-crust.xmf,1156,5.57936e-06,-6.6389e-06,0,-4.61077e-06,-1.07127e+09,-1.07211e+09,-1.07165e+09,-316298,0.00687518,0.14768,0,0.14784,1013.6,-39013,0,39026.1,316298
step02_gravity_refstate-crust.xmf,1157,4.17087e-06,-4.26065e-06,0,-4.27195e-06,-1.05577e+09,-1.05635e+09,-1.05606e+09,-293056,0.00798514,0.141686,0,0.14191,1454.52,-38446.6,0,38474.1,293056
step02_gravity_refstate-crust.xmf,1158,7.18139e-06,-9.43949e-06,0,-5.36263e-06,-1.08637e+09,-1.08751e+09,-1.08686e+09,-367877,0.00631424,0.153886,0,0.154016,759.568,-39564.8,0,39572.1,367877
step02_gravity_refstate-crust.xmf,1159,1.62105e-06,-2.54531e-07,0,-3.56345e-06,-1.015e+09,-1.01513e+09,-1.01511e+09,-244453,0.010582,0.12741,0,0.127848,3270.65,-36958.2,0,37102.6,244453
step02_gravity_refstate-crust.xmf,1160,1.97516e-06,-8.68456e-07,0,-3.91299e-06,-1.02942e+09,-1.02961e+09,-1.02955e+09,-268431,0.0104967,0.130339,0,0.130761,2834.15,-37483.5,0,37590.5,268431
step02_gravity_refstate-crust.xmf,1161,2.84337e-07,1.94098e-06,0,-2.147e-06,-9.21573e+08,-9.21459e+08,-9.21592e+08,-147284,0.0103773,0.114441,0,0.11491,6914.68,-33554.9,0,34260,147284
step02_gravity_refstate-crust.xmf,1162,3.21421e-08,2.30012e-06,0,-1.88919e-06,-8.9893e+08,-8.98774e+08,-8.98932e+08,-129598,0.0101328,0.111178,0,0.111639,8362.94,-32730.1,0,33781.7,129598
step02_gravity_refstate-crust.xmf,1163,-2.62281e-07,2.7371e-06,0,-1.38781e-06,-8.499e+08,-8.49694e+08,-8.49882e+08,-95203.5,0.00902194,0.105556,0,0.105941,11888.4,-30944.6,0,33149.7,95203.5
step02_gravity_refstate-crust.xmf,1164,-1.46922e-07,2.59966e-06,0,-1.77523e-06,-9.00411e+08,-9.00223e+08,-9.00401e+08,-121781,0.0100937,0.10771,0,0.108182,9392.79,-32783.8,0,34102.8,121781
step02_gravity_refstate-crust.xmf,1165,7.4954e-07,1.18751e-06,0,-2.88419e-06,-9.80231e+08,-9.80201e+08,-9.80283e+08,-197855,0.011024,0.11959,0,0.120097,4871.58,-35691.2,0,36022.1,197855
step02_gravity_refstate-crust.xmf,1166,2.50988e-07,1.96072e-06,0,-2.35171e-06,-9.44145e+08,-9.44028e+08,-9.44162e+08,-161327,0.0108234,0.114008,0,0.11452,6610.34,-34376.6,0,35006.4,161327
step02_gravity_refstate-crust.xmf,1167,-3.59028e-07,2.9319e-06,0,-1.2697e-06,-8.5495e+08,-8.54724e+08,-8.54925e+08,-87101.7,0.00867676,0.102035,0,0.102403,13101.6,-31128.4,0,33773.2,87101.7
step02_gravity_refstate-crust.xmf,1168,-4.11545e-07,3.01006e-06,0,-9.44504e-07,-8.20187e+08,-8.19952e+08,-8.20158e+08,-64792.9,0.00723707,0.0984268,0,0.0986925,16562.8,-29862.7,0,34148.3,64792.9
step02_gravity_refstate-crust.xmf,1169,-4.27622e-07,3.07167e-06,0,-8.25813e-07,-8.18897e+08,-8.18657e+08,-8.18867e+08,-56650.7,0.00658867,0.095799,0,0.0960253,18109.5,-29815.8,0,34884.6,56650.7
step02_gravity_refstate-crust.xmf,1170,-4.32929e-07,3.13488e-06,0,-7.10904e-07,-8.22667e+08,-8.22422e+08,-8.22637e+08,-48768,0.00589659,0.092818,0,0.0930051,19688.5,-29953.1,0,35844.5,48768
step02_gravity_refstate-crust.xmf,1171,-2.64565e-07,3.04672e-06,0,-2.04829e-07,-8.07388e+08,-8.07161e+08,-8.0737e+08,-14051.3,0.00193695,0.0830935,0,0.0831161,31156.7,-29397.4,0,42836.3,14051.3
step02_gravity_refstate-crust.xmf,1172,-4.22693e-07,3.17329e-06,0,-6.05002e-07,-8.259e+08,-8.25653e+08,-8.25871e+08,-41503.2,0.00519212,0.0901165,0,0.0902659,21297.6,-30070.9,0,36849,41503.2
step02_gravity_refstate-crust.xmf,1173,-1.7862e-07,3.08291e-06,0,-6.44139e-10,-8.33533e+08,-8.33309e+08,-8.33521e+08,-44.1879,2.06209e-20,0.0778455,0,0.0778455,40000,-30349.7,0,50210.6,44.1879
step02_gravity_refstate-crust.xmf,1174,9.34168e-06,-1.30905e-05,0,4.42365e-06,-1.09824e+09,-1.09978e+09,-1.09888e+09,303463,-0.00481884,0.160857,-0,0.160929,-499.828,-40000,-0,40003.1,303463
step02_gravity_refstate-crust.xmf,1175,9.92985e-06,-1.42199e-05,0,5.15e-09,-1.09822e+09,-1.09988e+09,-1.0989e+09,353.29,4.13925e-07,0.162839,0,0.162839,-1.02887e-10,-40000,-0,40000,353.29
step02_gravity_refstate-crust.xmf,1176,-2.57496e-07,2.68071e-06,0,2.78655e-06,-1.00812e+09,-1.00792e+09,-1.00811e+09,191157,-0.0120863,0.108398,-0,0.10907,-6672.03,-36704.9,-0,37306.4,191157
step02_gravity_refstate-crust.xmf,1177,-3.49247e-07,2.78381e-06,0,3.00149e-06,-1.02721e+09,-1.02699e+09,-1.02718e+09,205902,-0.0124121,0.108304,-0,0.109013,-6342.73,-37399.4,-0,37933.5,205902
step02_gravity_refstate-crust.xmf,1178,8.88772e-07,4.83811e-07,0,4.79495e-06,-1.06319e+09,-1.06321e+09,-1.06325e+09,328934,-0.0128732,0.126686,-0,0.127339,-3361.76,-38710.7,-0,38856.4,328934
step02_gravity_refstate-crust.xmf,1179,1.83436e-06,-1.122e-06,0,5.56645e-06,-1.07332e+09,-1.07352e+09,-1.07345e+09,381859,-0.0121862,0.134752,-0,0.135302,-2483.02,-39081,-0,39159.8,381859
step02_gravity_refstate-crust.xmf,1180,1.84145e-06,-1.36352e-06,0,6.24192e-06,-1.08602e+09,-1.08624e+09,-1.08615e+09,428196,-0.0124554,0.137558,-0,0.138121,-2268.3,-39543.1,-0,39608.1,428196
step02_gravity_refstate-crust.xmf,1181,-6.99198e-07,3.83082e-06,0,1.13217e-06,-9.74071e+08,-9.73761e+08,-9.74023e+08,77666.6,-0.00782856,0.0855566,-0,0.085914,-13820.7,-35465.1,-0,38062.9,77666.6
step02_gravity_refstate-crust.xmf,1182,-3.3092e-08,3.5995e-06,0,2.06804e-08,-1.00082e+09,-1.00057e+09,-1.00082e+09,1418.68,-6.09857e-05,0.0580138,-0,0.0580138,-35367.6,-36441.2,-0,50782.2,1418.68
step02_gravity_refstate-crust.xmf,1183,-1.8149e-07,3.56328e-06,0,1.15556e-07,-9.56422e+08,-9.56165e+08,-9.56409e+08,7927.17,-0.00101088,0.0657753,-0,0.065783,-29990.4,-34824.3,-0,45958.2,7927.17
step02_gravity_refstate-crust.xmf,1184,-6.43875e-08,3.63437e-06,0,3.59369e-08,-1.00171e+09,-1.00146e+09,-1.00171e+09,2465.27,-0.000155195,0.0584782,-0,0.0584784,-33170.5,-36473.6,-0,49301.2,2465.27
step02_gravity_refstate-crust.xmf,1185,-2.94372e-07,3.65798e-06,0,2.14243e-07,-9.56824e+08,-9.56553e+08,-9.56804e+08,14697.1,-0.00191453,0.0683785,-0,0.0684053,-26109.3,-34838.6,-0,43536.5,14697.1
step02_gravity_refstate-crust.xmf,1186,-2.3569e-07,3.61547e-06,0,1.58216e-07,-9.58194e+08,-9.5793e+08,-9.58178e+08,10853.6,-0.0013987,0.0667561,-0,0.0667707,-28008.3,-34888.7,-0,44740.2,10853.6
step02_gravity_refstate-crust.xmf,1187,-3.5318e-07,3.70035e-06,0,2.79935e-07,-9.5634e+08,-9.56062e+08,-9.56316e+08,19203.5,-0.00248931,0.0700698,-0,0.070114,-24339.1,-34820.8,-0,42483.9,19203.5
step02_gravity_refstate-crust.xmf,1188,-4.08004e-07,3.7488e-06,0,3.47289e-07,-9.58953e+08,-9.58668e+08,-9.58925e+08,23824.1,-0.00304026,0.0714205,-0,0.0714852,-22764.6,-34915.8,-0,41681.4,23824.1
step02_gravity_refstate-crust.xmf,1189,-5.10328e-07,3.79976e-06,0,5.16063e-07,-9.57927e+08,-9.57631e+08,-9.57892e+08,35401.9,-0.00433913,0.0753047,-0,0.0754296,-19962.9,-34878.1,-0,40187.1,35401.9
step02_gravity_refstate-crust.xmf,1190,-4.61116e-07,3.79442e-06,0,4.21915e-07,-9.62007e+08,-9.61715e+08,-9.61975e+08,28943.3,-0.00361978,0.0728349,-0,0.0729248,-21298.2,-35026.8,-0,40993.8,28943.3
step02_gravity_refstate-crust.xmf,1191,-5.89227e-07,3.93667e-06,0,6.27972e-07,-9.80805e+08,-9.80495e+08,-9.80765e+08,43078.9,-0.0049745,0.0753295,-0,0.0754935,-18007.3,-35710.9,-0,39994.1,43078.9
step02_gravity_refstate-crust.xmf,1192,-6.38375e-07,3.94978e-06,0,7.4937e-07,-9.82173e+08,-9.81858e+08,-9.82129e+08,51406.8,-0.0057265,0.0775876,-0,0.0777986,-16731.9,-35760.5,-0,39481.3,51406.8
step02_gravity_refstate-crust.xmf,1193,4.04175e-08,3.65574e-06,0,1.52192e-10,-1.03283e+09,-1.03259e+09,-1.03284e+09,10.4403,1.78579e-20,0.05332,0,0.05332,-40000,-37607.2,-0,54902.7,10.4403
step02_gravity_refstate-crust.xmf,1194,9.33323e-06,-1.30571e-05,0,-4.49093e-06,-1.09824e+09,-1.09977e+09,-1.09888e+09,-308078,0.00482141,0.160858,0,0.16093,499.828,-40000,0,40003.1,308078
step02_gravity_refstate-crust.xmf,1195,2.42273e-06,-1.57779e-06,0,-4.29553e-06,-1.04374e+09,-1.04401e+09,-1.0439e+09,-294673,0.0103861,0.133664,0,0.134067,2430.34,-38005.6,0,38083.2,294673
step02_gravity_refstate-crust.xmf,1196,3.66317e-08,2.2971e-06,0,-2.06218e-06,-9.21902e+08,-9.21747e+08,-9.21904e+08,-141465,0.010529,0.111036,0,0.111534,7844.41,-33566.5,0,34470.9,141465
step02_gravity_refstate-crust.xmf,1197,-2.64937e-07,2.76454e-06,0,-1.48876e-06,-8.69503e+08,-8.69295e+08,-8.69485e+08,-102129,0.00936334,0.105294,0,0.105709,11240.6,-31658.3,0,33594.7,102129
step02_gravity_refstate-crust.xmf,1198,-2.86934e-07,2.83458e-06,0,-1.67172e-06,-9.04241e+08,-9.04027e+08,-9.04221e+08,-114680,0.00994198,0.104551,0,0.105023,10276.8,-32923,0,34489.7,114680
step02_gravity_refstate-crust.xmf,1199,8.21626e-07,9.72472e-07,0,-3.2531e-06,-1.0009e+09,-1.00089e+09,-1.00096e+09,-223163,0.011406,0.120979,0,0.121515,4443.48,-36443.7,0,36713.6,223163
step02_gravity_refstate-crust.xmf,1200,9.79339e-07,6.53789e-07,0,-3.61539e-06,-1.0177e+09,-1.01773e+09,-1.01777e+09,-248016,0.011631,0.123099,0,0.123648,3988.04,-37055.5,0,37269.5,248016
step02_gravity_refstate-crust.xmf,1201,2.6148e-07,1.91745e-06,0,-2.57983e-06,-9.65082e+08,-9.64968e+08,-9.651e+08,-176976,0.0112224,0.114314,0,0.114863,6188.86,-35138.8,0,35679.7,176976
step02_gravity_refstate-crust.xmf,1202,3.08226e-07,1.80369e-06,0,-2.83894e-06,-9.83921e+08,-9.83818e+08,-9.83942e+08,-194751,0.0115685,0.115302,0,0.115881,5704.52,-35824.7,0,36276,194751
step02_gravity_refstate-crust.xmf,1203,-4.262e-07,3.07075e-06,0,-1.13545e-06,-8.55671e+08,-8.55431e+08,-8.55642e+08,-77891.8,0.00815247,0.0988593,0,0.0991949,14435.4,-31154.6,0,34336.4,77891.8
step02_gravity_refstate-crust.xmf,1204,-4.59917e-07,3.16693e-06,0,-9.99159e-07,-8.54985e+08,-8.54736e+08,-8.54953e+08,-68542.3,0.00752352,0.0959092,0,0.0962039,15852.4,-31129.6,0,34933.5,68542.3
step02_gravity_refstate-crust.xmf,1205,-2.08715e-07,3.13635e-06,0,-1.13429e-07,-8.41805e+08,-8.41575e+08,-8.41791e+08,-7781.2,0.00108731,0.0779215,0,0.0779291,34077.5,-30650.8,0,45833.9,7781.2
step02_gravity_refstate-crust.xmf,1206,-2.3296e-07,3.15957e-06,0,-1.56615e-07,-8.42902e+08,-8.42669e+08,-8.42886e+08,-10743.8,0.00150125,0.0785745,0,0.0785889,32155.8,-30690.6,0,44451.2,10743.8
step02_gravity_refstate-crust.xmf,1207,-2.61906e-07,3.19335e-06,0,-2.04657e-07,-8.46034e+08,-8.45797e+08,-8.46016e+08,-14039.5,0.00195169,0.0792287,0,0.0792528,30236.5,-30804.6,0,43164.5,14039.5
step02_gravity_refstate-crust.xmf,1208,-2.96315e-07,3.20898e-06,0,-2.61729e-07,-8.43928e+08,-8.43688e+08,-8.43908e+08,-17954.6,0.00247083,0.0806749,0,0.0807128,28417.4,-30727.8,0,41853.9,17954.6
step02_gravity_refstate-crust.xmf,1209,-3.34661e-07,3.20893e-06,0,-3.33847e-07,-8.38121e+08,-8.37878e+08,-8.38098e+08,-22901.9,0.00309831,0.0828425,0,0.0829004,26558.4,-30516.2,0,40454.8,22901.9
step02_gravity_refstate-crust.xmf,1210,-4.00854e-07,3.19577e-06,0,-5.06056e-07,-8.29433e+08,-8.29186e+08,-8.29405e+08,-34715.4,0.00447746,0.0875512,0,0.0876657,22981.4,-30199.7,0,37949.5,34715.4
step02_gravity_refstate-crust.xmf,1211,-3.70507e-07,3.20606e-06,0,-4.15416e-07,-8.33387e+08,-8.33142e+08,-8.33362e+08,-28497.5,0.00377305,0.0851311,0,0.0852147,24739.2,-30343.8,0,39150.6,28497.5
step02_gravity_refstate-crust.xmf,1212,-1.84444e-07,3.13755e-06,0,-6.98666e-08,-8.47059e+08,-8.46831e+08,-8.47046e+08,-4792.85,0.000666439,0.0767382,0,0.0767411,36145.8,-30842.1,0,47515.9,4792.85
step02_gravity_refstate-crust.xmf,1213,-1.56452e-07,3.19049e-06,0,-3.08557e-08,-8.66591e+08,-8.66361e+08,-8.6658e+08,-2116.7,0.000289867,0.0741718,0,0.0741724,38106.4,-31553.4,0,49474.4,2116.7
step02_gravity_refstate-crust.xmf,1214,-4.41728e-07,3.02824e-06,0,2.52093e-06,-1.00577e+09,-1.00553e+09,-1.00574e+09,172936,-0.0117719,0.104467,-0,0.105128,-7502.44,-36618.9,-0,37379.5,172936
step02_gravity_refstate-crust.xmf,1215,1.43293e-07,1.7641e-06,0,4.01932e-06,-1.05119e+09,-1.05108e+09,-1.0512e+09,275725,-0.0130525,0.118135,-0,0.118853,-4508.45,-38273.1,-0,38537.7,275725
step02_gravity_refstate-crust.xmf,1216,-4.57751e-07,2.90078e-06,0,3.22489e-06,-1.04543e+09,-1.0452e+09,-1.0454e+09,221227,-0.0126872,0.10826,-0,0.109001,-6036.24,-38062.5,-0,38538.2,221227
step02_gravity_refstate-crust.xmf,1217,-1.97121e-07,2.39616e-06,0,3.60153e-06,-1.04716e+09,-1.04698e+09,-1.04714e+09,247065,-0.0129551,0.113092,-0,0.113831,-5268.4,-38125.8,-0,38488.1,247065
step02_gravity_refstate-crust.xmf,1218,2.62847e-07,1.4531e-06,0,4.50907e-06,-1.06581e+09,-1.06573e+09,-1.06583e+09,309322,-0.0133017,0.121471,-0,0.122197,-3969.7,-38805.3,-0,39007.8,309322
step02_gravity_refstate-crust.xmf,1219,1.05796e-06,7.81267e-08,0,5.25116e-06,-1.07254e+09,-1.07261e+09,-1.07261e+09,360230,-0.0129125,0.129687,-0,0.130328,-3014.67,-39051.3,-0,39167.5,360230
step02_gravity_refstate-crust.xmf,1220,-5.70833e-07,3.29222e-06,0,2.26642e-06,-1.00308e+09,-1.00281e+09,-1.00304e+09,155476,-0.0113255,0.100758,-0,0.101393,-8362.26,-36520.8,-0,37465.9,155476
step02_gravity_refstate-crust.xmf,1221,-6.65264e-07,3.51128e-06,0,2.01832e-06,-1.00109e+09,-1.0008e+09,-1.00104e+09,138457,-0.0107698,0.0971007,-0,0.0976961,-9266.67,-36448.3,-0,37607.9,138457
step02_gravity_refstate-crust.xmf,1222,-6.806e-07,3.97259e-06,0,8.63886e-07,-9.87212e+08,-9.86893e+08,-9.87166e+08,59262.6,-0.00635531,0.0792509,-0,0.0795053,-15621.7,-35943.8,-0,39191.8,59262.6
step02_gravity_refstate-crust.xmf,1223,-7.27247e-07,3.68705e-06,0,1.78035e-06,-9.99798e+08,-9.99495e+08,-9.99748e+08,122132,-0.010115,0.0934869,-0,0.0940325,-10220.5,-36401.4,-0,37809,122132
step02_gravity_refstate-crust.xmf,1224,-7.18885e-07,3.97365e-06,0,1.00517e-06,-9.90823e+08,-9.90501e+08,-9.90774e+08,68954.9,-0.00708354,0.0814727,-0,0.08178,-14476.6,-36075.2,-0,38871.4,68954.9
step02_gravity_refstate-crust.xmf,1225,-7.58371e-07,3.81723e-06,0,1.55725e-06,-9.9853e+08,-9.98216e+08,-9.98478e+08,106828,-0.00938822,0.0900418,-0,0.0905299,-11219.3,-36355.3,-0,38047.1,106828
step02_gravity_refstate-crust.xmf,1226,-7.5077e-07,3.9617e-06,0,1.16755e-06,-9.95221e+08,-9.94897e+08,-9.95169e+08,80093.7,-0.00783343,0.0838733,-0,0.0842383,-13341,-36235.1,-0,38613,80093.7
step02_gravity_refstate-crust.xmf,1227,-7.64706e-07,3.90815e-06,0,1.35179e-06,-9.97187e+08,-9.96867e+08,-9.97135e+08,92733,-0.00861518,0.0867996,-0,0.087226,-12262.2,-36306.6,-0,38321.4,92733
step02_gravity_refstate-crust.xmf,1228,-1.04292e-07,3.68073e-06,0,5.60313e-08,-1.00347e+09,-1.00321e+09,-1.00347e+09,3843.75,-0.000305889,0.0590272,-0,0.059028,-31093.7,-36537.7,-0,47977.3,3843.75
step02_gravity_refstate-crust.xmf,1229,-2.90031e-07,3.8225e-06,0,1.89874e-07,-9.96748e+08,-9.96466e+08,-9.96728e+08,13025.4,-0.00152919,0.0637685,-0,0.0637868,-25149.7,-36292.4,-0,44154.7,13025.4
step02_gravity_refstate-crust.xmf,1230,-5.39407e-07,3.91742e-06,0,5.28827e-07,-9.80336e+08,-9.8003e+08,-9.80299e+08,36277.5,-0.00430263,0.0733233,-0,0.0734495,-19218.6,-35694,-0,40539.1,36277.5
step02_gravity_refstate-crust.xmf,1231,6.47171e-08,3.70752e-06,0,-1.11241e-09,-1.05207e+09,-1.05182e+09,-1.05207e+09,-76.3114,0.000113494,0.0507987,0,0.0507988,-38314,-38307.6,-0,54179.7,76.3114
step02_gravity_refstate-crust.xmf,1232,4.40559e-08,3.70857e-06,0,-1.80584e-10,-1.04732e+09,-1.04707e+09,-1.04732e+09,-12.3881,0.000196704,0.0516285,0,0.0516289,-36486.4,-38134.7,-0,52778,12.3881
step02_gravity_refstate-crust.xmf,1233,2.90284e-06,-2.54667e-06,0,-4.87956e-06,-1.05769e+09,-1.05806e+09,-1.05789e+09,-334738,0.0102227,0.137497,0,0.137877,2053.42,-38514,0,38568.7,334738
step02_gravity_refstate-crust.xmf,1234,3.60496e-06,-3.85433e-06,0,-5.55612e-06,-1.07122e+09,-1.07173e+09,-1.07147e+09,-381150,0.00987294,0.142273,0,0.142615,1667.57,-39007.5,0,39043.2,381150
step02_gravity_refstate-crust.xmf,1235,4.60993e-06,-5.73882e-06,0,-6.54184e-06,-1.0853e+09,-1.08601e+09,-1.08562e+09,-448770,0.00939634,0.148286,0,0.148583,1295.93,-39521.3,0,39542.6,448770
step02_gravity_refstate-crust.xmf,1236,1.241e-06,1.70875e-07,0,-3.99991e-06,-1.03217e+09,-1.03224e+09,-1.03225e+09,-274394,0.0116834,0.126071,0,0.126611,3488.04,-37582.4,0,37743.9,274394
step02_gravity_refstate-crust.xmf,1237,1.54422e-06,-3.86232e-07,0,-4.40435e-06,-1.04503e+09,-1.04516e+09,-1.04513e+09,-302138,0.0116759,0.129195,0,0.129722,3050.98,-38050.9,0,38173,302138
step02_gravity_refstate-crust.xmf,1238,2.76571e-08,2.32162e-06,0,-2.23956e-06,-9.44217e+08,-9.4406e+08,-9.44219e+08,-153634,0.0109341,0.110763,0,0.111302,7419.62,-34378.9,0,35170.4,153634
step02_gravity_refstate-crust.xmf,1239,-1.66281e-07,2.62487e-06,0,-1.93542e-06,-9.2323e+08,-9.23039e+08,-9.23219e+08,-132770,0.0104868,0.107418,0,0.107929,8829.83,-33614.5,0,34754.9,132770
step02_gravity_refstate-crust.xmf,1240,-3.95936e-07,3.02421e-06,0,-1.38604e-06,-8.83503e+08,-8.83268e+08,-8.83476e+08,-95082.3,0.00910057,0.100932,0,0.101341,12313.6,-32167.9,0,34444.1,95082.3
step02_gravity_refstate-crust.xmf,1241,-3.41626e-07,2.92601e-06,0,-1.54836e-06,-8.95614e+08,-8.9539e+08,-8.95591e+08,-106217,0.00960874,0.102937,0,0.103384,11117.2,-32608.9,0,34451.8,106217
step02_gravity_refstate-crust.xmf,1242,-3.1381e-07,2.89032e-06,0,-1.7875e-06,-9.24281e+08,-9.24061e+08,-9.2426e+08,-122623,0.0102606,0.103959,0,0.104464,9811.79,-33652.6,0,35053.8,122623
step02_gravity_refstate-crust.xmf,1243,3.81743e-07,1.66856e-06,0,-3.12319e-06,-1.00204e+09,-1.00195e+09,-1.00206e+09,-214251,0.0119076,0.116634,0,0.11724,5226.16,-36484.2,0,36856.6,214251
step02_gravity_refstate-crust.xmf,1244,2.48102e-09,2.32149e-06,0,-2.45278e-06,-9.65463e+08,-9.65303e+08,-9.65463e+08,-168261,0.0113346,0.110818,0,0.111396,6974.05,-35152.2,0,35837.4,168261
step02_gravity_refstate-crust.xmf,1245,-4.7188e-07,3.19445e-06,0,-1.22707e-06,-8.86047e+08,-8.85796e+08,-8.86015e+08,-84177.2,0.00852699,0.0972544,0,0.0976275,13642.2,-32260.5,0,35026.4,84177.2
step02_gravity_refstate-crust.xmf,1246,-4.76133e-07,3.24043e-06,0,-8.68263e-07,-8.55449e+08,-8.55194e+08,-8.55416e+08,-59562.9,0.00684164,0.0930321,0,0.0932833,17304.1,-31146.6,0,35630.6,59562.9
step02_gravity_refstate-crust.xmf,1247,-4.75412e-07,3.29831e-06,0,-7.45255e-07,-8.58333e+08,-8.58075e+08,-8.58301e+08,-51124.5,0.00611162,0.0900519,0,0.090259,18806.3,-31251.7,0,36473.9,51124.5
step02_gravity_refstate-crust.xmf,1248,-4.60824e-07,3.34201e-06,0,-6.28975e-07,-8.62822e+08,-8.62561e+08,-8.62791e+08,-43147.7,0.00535501,0.0870808,0,0.0872453,20353.5,-31415.2,0,37432.4,43147.7
step02_gravity_refstate-crust.xmf,1249,-4.32942e-07,3.36551e-06,0,-5.21614e-07,-8.67148e+08,-8.66887e+08,-8.67118e+08,-35782.7,0.00459166,0.0842975,0,0.0844225,21979.5,-31572.8,0,38470,35782.7
step02_gravity_refstate-crust.xmf,1250,-1.20704e-07,3.29023e-06,0,-7.90744e-10,-9.00527e+08,-9.00293e+08,-9.00519e+08,-54.2451,1.28954e-20,0.0700713,0,0.0700713,40000,-32789.2,0,51721.7,54.2451
step02_gravity_refstate-crust.xmf,1251,-5.39953e-07,3.15911e-06,0,2.6984e-06,-1.02589e+09,-1.02563e+09,-1.02585e+09,185110,-0.0120454,0.104015,-0,0.10471,-7146.98,-37351.2,-0,38028.8,185110
step02_gravity_refstate-crust.xmf,1252,-6.44054e-07,3.30476e-06,0,2.86647e-06,-1.0444e+09,-1.04413e+09,-1.04436e+09,196640,-0.0122509,0.103633,-0,0.104355,-6824.53,-38024.9,-0,38632.5,196640
step02_gravity_refstate-crust.xmf,1253,3.55209e-07,1.18232e-06,0,5.09217e-06,-1.08091e+09,-1.08086e+09,-1.08094e+09,349323,-0.0135281,0.124942,-0,0.125672,-3496.9,-39354.9,-0,39510,349323
step02_gravity_refstate-crust.xmf,1254,9.29879e-07,1.64163e-07,0,5.68266e-06,-1.08502e+09,-1.08507e+09,-1.08508e+09,389830,-0.0132558,0.130945,-0,0.131614,-2882.18,-39505.1,-0,39610.1,389830
step02_gravity_refstate-crust.xmf,1255,2.08085e-08,3.74266e-06,0,2.12361e-09,-1.04951e+09,-1.04925e+09,-1.04951e+09,145.68,0.000288127,0.0517445,0,0.0517453,-34293.4,-38214.3,-0,51345.6,145.68
step02_gravity_refstate-crust.xmf,1256,-1.5043e-07,3.73473e-06,0,8.3141e-08,-1.00539e+09,-1.00512e+09,-1.00538e+09,5703.47,-0.000536162,0.0597796,-0,0.059782,-29064.5,-36607.3,-0,46742.3,5703.47
step02_gravity_refstate-crust.xmf,1257,-1.49175e-08,3.78606e-06,0,9.49031e-09,-1.05072e+09,-1.05046e+09,-1.05072e+09,651.035,0.000311989,0.0521846,0,0.0521856,-32175.7,-38258.2,-0,49989.7,651.035
step02_gravity_refstate-crust.xmf,1258,-2.15532e-07,3.80727e-06,0,1.22128e-07,-1.00863e+09,-1.00836e+09,-1.00862e+09,8377.96,-0.000871913,0.0606965,-0,0.0607028,-26929.5,-36725.3,-0,45540.6,8377.96
step02_gravity_refstate-crust.xmf,1259,-3.59482e-07,3.87442e-06,0,2.56721e-07,-9.95965e+08,-9.95675e+08,-9.95941e+08,17611.1,-0.00211199,0.0655856,-0,0.0656196,-23389.8,-36263.7,-0,43152.4,17611.1
step02_gravity_refstate-crust.xmf,1260,-4.21052e-07,3.9305e-06,0,3.23743e-07,-9.9829e+08,-9.97991e+08,-9.98261e+08,22208.8,-0.00265104,0.0669893,-0,0.0670418,-21875.2,-36348.1,-0,42423,22208.8
step02_gravity_refstate-crust.xmf,1261,-4.98836e-07,3.97899e-06,0,4.28253e-07,-9.98069e+08,-9.97762e+08,-9.98035e+08,29378.2,-0.00345837,0.0693868,-0,0.069473,-20118.5,-36339.8,-0,41537.2,29378.2
step02_gravity_refstate-crust.xmf,1262,-5.61036e-07,4.05358e-06,0,5.14488e-07,-1.00655e+09,-1.00624e+09,-1.00651e+09,35293.9,-0.00401725,0.070398,-0,0.0705125,-18685.6,-36648.6,-0,41137.2,35293.9
step02_gravity_refstate-crust.xmf,1263,-6.2182e-07,4.0928e-06,0,6.23352e-07,-1.00921e+09,-1.00889e+09,-1.00917e+09,42761.9,-0.00472441,0.0723559,-0,0.07251,-17374.8,-36745.1,-0,40645.9,42761.9
step02_gravity_refstate-crust.xmf,1264,-6.77663e-07,4.12654e-06,0,7.39268e-07,-1.01272e+09,-1.01239e+09,-1.01267e+09,50713.8,-0.00541408,0.0742651,-0,0.0744622,-16175,-36872.8,-0,40264.5,50713.8
step02_gravity_refstate-crust.xmf,1265,1.8493e-06,-9.25253e-07,0,-4.90702e-06,-1.0586e+09,-1.05879e+09,-1.05873e+09,-336621,0.0117483,0.132446,0,0.132966,2677.86,-38545.5,0,38638.4,336621
step02_gravity_refstate-crust.xmf,1266,-1.9244e-07,2.6625e-06,0,-2.10312e-06,-9.45467e+08,-9.45271e+08,-9.45454e+08,-144274,0.010876,0.107121,0,0.107672,8325.54,-34424,0,35416.5,144274
step02_gravity_refstate-crust.xmf,1267,-4.18139e-07,3.08197e-06,0,-1.63119e-06,-9.22567e+08,-9.22326e+08,-9.22538e+08,-111900,0.00988666,0.100966,0,0.101448,10794.7,-33590,0,35282,111900
step02_gravity_refstate-crust.xmf,1268,4.2371e-07,1.48844e-06,0,-3.48884e-06,-1.02007e+09,-1.01999e+09,-1.0201e+09,-239334,0.0122551,0.118291,0,0.118925,4758.75,-37140.6,0,37444.2,239334
step02_gravity_refstate-crust.xmf,1269,5.36106e-07,1.21214e-06,0,-3.94386e-06,-1.03821e+09,-1.03817e+09,-1.03825e+09,-270549,0.0125698,0.120941,0,0.121592,4213.46,-37801.2,0,38035.3,270549
step02_gravity_refstate-crust.xmf,1270,-5.34654e-09,2.29768e-06,0,-2.68807e-06,-9.85354e+08,-9.85196e+08,-9.85353e+08,-184402,0.0117235,0.111294,0,0.11191,6504.51,-35876.3,0,36461.2,184402
step02_gravity_refstate-crust.xmf,1271,-8.07216e-09,2.25112e-06,0,-2.95626e-06,-1.00425e+09,-1.00409e+09,-1.00425e+09,-202799,0.0121049,0.112148,0,0.112799,6026.82,-36564.1,0,37057.4,202799
step02_gravity_refstate-crust.xmf,1272,-1.57237e-07,3.30272e-06,0,-7.3827e-08,-8.9604e+08,-8.95803e+08,-8.9603e+08,-5064.53,0.000699355,0.0713282,0,0.0713317,34823.4,-32625.7,0,47719.1,5064.53
step02_gravity_refstate-crust.xmf,1273,-5.1431e-07,3.31968e-06,0,-1.06228e-06,-8.87486e+08,-8.87223e+08,-8.8745e+08,-72872.3,0.00781243,0.0937168,0,0.0940419,15082.2,-32312.9,0,35659.4,72872.3
step02_gravity_refstate-crust.xmf,1274,-5.27067e-07,3.40053e-06,0,-9.18717e-07,-8.89251e+08,-8.88982e+08,-8.89215e+08,-63024,0.00707841,0.0905514,0,0.0908277,16474,-32377.2,0,36327.4,63024
step02_gravity_refstate-crust.xmf,1275,-1.84792e-07,3.3162e-06,0,-1.08115e-07,-8.93442e+08,-8.93202e+08,-8.93429e+08,-7416.67,0.00102897,0.072272,0,0.0722793,32953,-32531,0,46305.2,7416.67
step02_gravity_refstate-crust.xmf,1276,-2.19408e-07,3.33787e-06,0,-1.49847e-07,-8.91611e+08,-8.91367e+08,-8.91596e+08,-10279.5,0.00142937,0.0733774,0,0.0733913,31011.2,-32464.3,0,44895.7,10279.5
step02_gravity_refstate-crust.xmf,1277,-2.60431e-07,3.35672e-06,0,-2.00818e-07,-8.88179e+08,-8.87931e+08,-8.88161e+08,-13776.1,0.00190885,0.0749024,0,0.0749267,29116.2,-32339.2,0,43515.2,13776.1
step02_gravity_refstate-crust.xmf,1278,-3.05533e-07,3.37135e-06,0,-2.62409e-07,-8.83623e+08,-8.83371e+08,-8.83602e+08,-18001.3,0.00247143,0.0767965,0,0.0768363,27268.1,-32173.2,0,42174.2,18001.3
step02_gravity_refstate-crust.xmf,1279,-3.51796e-07,3.38057e-06,0,-3.36217e-07,-8.78583e+08,-8.78327e+08,-8.78559e+08,-23064.5,0.00311664,0.0790044,0,0.0790658,25449.6,-31989.5,0,40878,23064.5
step02_gravity_refstate-crust.xmf,1280,-3.95396e-07,3.37752e-06,0,-4.23073e-07,-8.72474e+08,-8.72215e+08,-8.72447e+08,-29022.8,0.00383337,0.0815777,0,0.0816678,23690.2,-31766.9,0,39627.8,29022.8
step02_gravity_refstate-crust.xmf,1281,-1.3851e-07,3.28827e-06,0,-4.6212e-08,-8.963e+08,-8.96065e+08,-8.96291e+08,-3170.14,0.000434618,0.0708796,0,0.070881,36630.7,-32635.2,0,49059.8,3170.14
step02_gravity_refstate-crust.xmf,1282,-9.5819e-08,3.37715e-06,0,-2.13213e-08,-9.28631e+08,-9.28393e+08,-9.28624e+08,-1462.64,0.000181618,0.0667593,0,0.0667595,38046.6,-33812.6,0,50900.2,1462.64
step02_gravity_refstate-crust.xmf,1283,-6.77846e-07,3.46093e-06,0,2.40544e-06,-1.02523e+09,-1.02495e+09,-1.02519e+09,165013,-0.0115345,0.0998112,-0,0.100476,-7985.53,-37327.2,-0,38171.9,165013
step02_gravity_refstate-crust.xmf,1284,-1.5836e-07,2.20754e-06,0,4.18845e-06,-1.06961e+09,-1.06945e+09,-1.0696e+09,287328,-0.013404,0.116586,-0,0.117354,-4536.96,-38943.1,-0,39206.5,287328
step02_gravity_refstate-crust.xmf,1285,-3.99696e-07,2.68152e-06,0,3.77923e-06,-1.06549e+09,-1.06528e+09,-1.06547e+09,259255,-0.0131861,0.112148,-0,0.112921,-5162.53,-38792.9,-0,39134.9,259255
step02_gravity_refstate-crust.xmf,1286,-7.70661e-07,3.48647e-06,0,3.01663e-06,-1.06268e+09,-1.06239e+09,-1.06263e+09,206941,-0.012347,0.102951,-0,0.103688,-6563.34,-38690.4,-0,39243.1,206941
step02_gravity_refstate-crust.xmf,1287,-6.05081e-07,3.10544e-06,0,3.41052e-06,-1.06401e+09,-1.06376e+09,-1.06397e+09,233962,-0.0128605,0.107746,-0,0.10851,-5805.16,-38738.8,-0,39171.3,233962
step02_gravity_refstate-crust.xmf,1288,-1.95078e-07,2.18143e-06,0,4.55262e-06,-1.08272e+09,-1.08256e+09,-1.08271e+09,312310,-0.0136119,0.118417,-0,0.119197,-4195.73,-39420.2,-0,39642.8,312310
step02_gravity_refstate-crust.xmf,1289,-7.75023e-07,3.70209e-06,0,2.13075e-06,-1.02557e+09,-1.02527e+09,-1.02552e+09,146169,-0.0109006,0.0956698,-0,0.0962888,-8855.37,-37339.6,-0,38375.3,146169
step02_gravity_refstate-crust.xmf,1290,-8.26098e-07,3.87685e-06,0,1.86718e-06,-1.02482e+09,-1.0245e+09,-1.02476e+09,128089,-0.0101759,0.0918107,-0,0.0923729,-9774.06,-37312.3,-0,38571.2,128089
step02_gravity_refstate-crust.xmf,1291,-7.29438e-07,4.15204e-06,0,8.67038e-07,-1.01653e+09,-1.01619e+09,-1.01648e+09,59478.8,-0.00611257,0.0762697,-0,0.0765142,-15043.1,-37011.2,-0,39951.5,59478.8
step02_gravity_refstate-crust.xmf,1292,-8.44813e-07,3.99979e-06,0,1.62643e-06,-1.02378e+09,-1.02345e+09,-1.02372e+09,111573,-0.00940261,0.088236,-0,0.0887356,-10723.1,-37274.5,-0,38786.2,111573
step02_gravity_refstate-crust.xmf,1293,-7.76044e-07,4.15616e-06,0,1.01847e-06,-1.01913e+09,-1.01879e+09,-1.01907e+09,69866.9,-0.00688585,0.0787235,-0,0.079024,-13926.3,-37105.6,-0,39632.9,69866.9
step02_gravity_refstate-crust.xmf,1294,-8.3814e-07,4.08026e-06,0,1.40343e-06,-1.02205e+09,-1.02171e+09,-1.02199e+09,96275.2,-0.00858482,0.0848869,-0,0.0853199,-11738.7,-37211.6,-0,39019.3,96275.2
step02_gravity_refstate-crust.xmf,1295,-8.15072e-07,4.1333e-06,0,1.20236e-06,-1.02093e+09,-1.02059e+09,-1.02087e+09,82481.7,-0.00774239,0.0816927,-0,0.0820588,-12791.7,-37171,-0,39310.4,82481.7
step02_gravity_refstate-crust.xmf,1296,-6.01663e-08,3.83924e-06,0,2.3031e-08,-1.05203e+09,-1.05176e+09,-1.05202e+09,1579.92,0.000258725,0.0527952,0,0.0527958,-30152.5,-38305.9,-0,48749.4,1579.92
step02_gravity_refstate-crust.xmf,1297,-2.35612e-07,3.92557e-06,0,1.26602e-07,-1.0317e+09,-1.03142e+09,-1.03169e+09,8684.91,-0.000750438,0.0584997,-0,0.0585045,-25549.4,-37565.2,-0,45430.4,8684.91
step02_gravity_refstate-crust.xmf,1298,-2.95086e-07,3.97375e-06,0,1.72178e-07,-1.03065e+09,-1.03036e+09,-1.03063e+09,11811.4,-0.00115489,0.0599197,-0,0.0599308,-24097,-37526.8,-0,44597.3,11811.4
step02_gravity_refstate-crust.xmf,1299,2.06879e-06,-1.55478e-06,0,-5.71036e-06,-1.07414e+09,-1.07439e+09,-1.07428e+09,-391730,0.0119366,0.13625,0,0.136772,2332.49,-39111.1,0,39180.6,391730
step02_gravity_refstate-crust.xmf,1300,2.88053e-06,-2.93225e-06,0,-6.48882e-06,-1.0858e+09,-1.0862e+09,-1.086e+09,-445133,0.0114438,0.142332,0,0.142791,1839.25,-39536.7,0,39579.5,445133
step02_gravity_refstate-crust.xmf,1301,9.70188e-07,5.0446e-07,0,-4.30877e-06,-1.04656e+09,-1.0466e+09,-1.04663e+09,-295582,0.0124058,0.125246,0,0.125858,3578.99,-38105.9,0,38273.6,295582
step02_gravity_refstate-crust.xmf,1302,1.01026e-06,3.14547e-07,0,-4.70396e-06,-1.05823e+09,-1.05828e+09,-1.0583e+09,-322691,0.0126305,0.127131,0,0.127756,3316.97,-38530.6,0,38673.1,322691
step02_gravity_refstate-crust.xmf,1303,-2.18431e-07,2.70417e-06,0,-2.28063e-06,-9.66757e+08,-9.66557e+08,-9.66742e+08,-156451,0.0112577,0.106953,0,0.107544,7848.72,-35199.1,0,36063.5,156451
step02_gravity_refstate-crust.xmf,1304,-3.60622e-07,2.96015e-06,0,-1.93031e-06,-9.4659e+08,-9.46362e+08,-9.46565e+08,-132419,0.0106192,0.103375,0,0.103919,9297.84,-34464.7,0,35696.8,132419
step02_gravity_refstate-crust.xmf,1305,-4.82546e-07,3.2173e-06,0,-1.46431e-06,-9.17685e+08,-9.17431e+08,-9.17652e+08,-100451,0.00937674,0.0982172,0,0.0986638,11892.8,-33412.3,0,35465.7,100451
step02_gravity_refstate-crust.xmf,1306,-5.41266e-07,3.36469e-06,0,-1.2866e-06,-9.17452e+08,-9.17184e+08,-9.17414e+08,-88260.9,0.00873326,0.0947753,0,0.0951768,13145,-33403.8,0,35897.1,88260.9
step02_gravity_refstate-crust.xmf,1307,-4.75165e-07,3.19056e-06,0,-1.74607e-06,-9.46688e+08,-9.46437e+08,-9.46656e+08,-119781,0.0101994,0.0998358,0,0.100355,10299,-34468.1,0,35973.9,119781
step02_gravity_refstate-crust.xmf,1308,7.1471e-09,2.19075e-06,0,-3.25007e-06,-1.02218e+09,-1.02203e+09,-1.02218e+09,-222954,0.0124753,0.113351,0,0.114036,5554.84,-37217,0,37629.2,222954
step02_gravity_refstate-crust.xmf,1309,-2.63947e-07,2.73287e-06,0,-2.49242e-06,-9.87398e+08,-9.87193e+08,-9.8738e+08,-170980,0.0116426,0.107085,0,0.107716,7355.61,-35950.4,0,36695.2,170980
step02_gravity_refstate-crust.xmf,1310,-5.71858e-07,3.47215e-06,0,-1.12597e-06,-9.18185e+08,-9.17907e+08,-9.18146e+08,-77241.5,0.0080438,0.091566,0,0.0919187,14375.3,-33430.5,0,36390.2,77241.5
step02_gravity_refstate-crust.xmf,1311,-5.2251e-07,3.4653e-06,0,-7.78428e-07,-8.92718e+08,-8.92445e+08,-8.92682e+08,-53400.2,0.00628514,0.0873331,0,0.087559,17933.7,-32503.5,0,37122.8,53400.2
step02_gravity_refstate-crust.xmf,1312,-5.01677e-07,3.50655e-06,0,-6.51746e-07,-8.97258e+08,-8.96983e+08,-8.97223e+08,-44709.8,0.00546587,0.0841846,0,0.0843618,19446.7,-32669,0,38018.9,44709.8
step02_gravity_refstate-crust.xmf,1313,-4.67619e-07,3.53096e-06,0,-5.35882e-07,-9.02425e+08,-9.02151e+08,-9.02393e+08,-36761.5,0.00465368,0.0811888,0,0.081322,21002.7,-32857.3,0,38996.3,36761.5
step02_gravity_refstate-crust.xmf,1314,-4.22663e-07,3.54222e-06,0,-4.29646e-07,-9.08564e+08,-9.08292e+08,-9.08535e+08,-29473.7,0.00384336,0.0782405,0,0.0783349,22654.7,-33081,0,40094.7,29473.7
step02_gravity_refstate-crust.xmf,1315,-4.69173e-08,3.48065e-06,0,-1.08677e-09,-9.66895e+08,-9.66653e+08,-9.66892e+08,-74.5521,2.5483e-21,0.0618882,0,0.0618882,40000,-35206,0,53286.6,74.5521
step02_gravity_refstate-crust.xmf,1316,-7.74344e-07,3.61009e-06,0,2.54535e-06,-1.04439e+09,-1.04409e+09,-1.04433e+09,174611,-0.0116856,0.0992168,-0,0.0999026,-7620.93,-38024.4,-0,38780.6,174611
step02_gravity_refstate-crust.xmf,1317,-8.72854e-07,3.77949e-06,0,2.66557e-06,-1.06202e+09,-1.0617e+09,-1.06196e+09,182858,-0.0117439,0.0985798,-0,0.0992769,-7308.32,-38666.3,-0,39350.9,182858
step02_gravity_refstate-crust.xmf,1318,-5.19248e-07,2.82774e-06,0,4.07361e-06,-1.08284e+09,-1.08261e+09,-1.0828e+09,279449,-0.013379,0.112854,-0,0.113644,-4848.39,-39424,-0,39721,279449
step02_gravity_refstate-crust.xmf,1319,-1.10922e-07,3.89978e-06,0,4.40641e-08,-1.05348e+09,-1.0532e+09,-1.05347e+09,3022.8,0.000118903,0.0535759,0,0.053576,-28213.3,-38358.4,-0,47616.8,3022.8
step02_gravity_refstate-crust.xmf,1320,-3.65612e-07,4.03623e-06,0,2.34381e-07,-1.03134e+09,-1.03104e+09,-1.03132e+09,16078.6,-0.00167445,0.061502,-0,0.0615248,-22463,-37551.9,-0,43757.7,16078.6
step02_gravity_refstate-crust.xmf,1321,-1.65167e-07,3.97106e-06,0,6.77459e-08,-1.0577e+09,-1.05741e+09,-1.05769e+09,4647.37,-3.47715e-05,0.0540451,-0,0.0540452,-26507.4,-38512,-0,46752.7,4647.37
step02_gravity_refstate-crust.xmf,1322,-2.2137e-07,4.05262e-06,0,9.81234e-08,-1.06357e+09,-1.06328e+09,-1.06355e+09,6731.27,-0.000229097,0.054467,-0,0.0544675,-24820.2,-38725.7,-0,45997,6731.27
step02_gravity_refstate-crust.xmf,1323,-4.37662e-07,4.09674e-06,0,3.09214e-07,-1.03226e+09,-1.03195e+09,-1.03223e+09,21212.1,-0.0022673,0.0632437,-0,0.0632844,-20919.4,-37584.9,-0,43014.5,21212.1
step02_gravity_refstate-crust.xmf,1324,-5.10789e-07,4.15845e-06,0,3.96836e-07,-1.03434e+09,-1.03402e+09,-1.0343e+09,27223,-0.00291533,0.0650497,-0,0.065115,-19428,-37660.5,-0,42376.4,27223
step02_gravity_refstate-crust.xmf,1325,-5.83625e-07,4.21418e-06,0,4.99678e-07,-1.03648e+09,-1.03615e+09,-1.03644e+09,34277.9,-0.00362425,0.0670504,-0,0.0671483,-18015.4,-37738.3,-0,41817.9,34277.9
step02_gravity_refstate-crust.xmf,1326,-7.14148e-07,4.31002e-06,0,7.28573e-07,-1.0433e+09,-1.04295e+09,-1.04325e+09,49980.1,-0.00500514,0.0709182,-0,0.0710946,-15566.3,-37986.1,-0,41051.8,49980.1
step02_gravity_refstate-crust.xmf,1327,-6.50925e-07,4.26453e-06,0,6.09564e-07,-1.03952e+09,-1.03918e+09,-1.03947e+09,41816.1,-0.00431822,0.0689869,-0,0.0691219,-16742.7,-37848.6,-0,41386.5,41816.1
step02_gravity_refstate-crust.xmf,1328,1.11967e-06,1.36287e-09,0,-5.25474e-06,-1.07176e+09,-1.07184e+09,-1.07184e+09,-360475,0.012846,0.129969,0,0.130603,2984.36,-39023.2,0,39137.1,360475
step02_gravity_refstate-crust.xmf,1329,-4.08895e-07,3.02991e-06,0,-2.08841e-06,-9.68363e+08,-9.68127e+08,-9.68335e+08,-143265,0.0109775,0.102971,0,0.103554,8780.96,-35257.3,0,36334.3,143265
step02_gravity_refstate-crust.xmf,1330,-5.572e-07,3.36973e-06,0,-1.55915e-06,-9.46022e+08,-9.45752e+08,-9.45984e+08,-106957,0.00965537,0.0964709,0,0.0969529,11348,-34443.8,0,36265.1,106957
step02_gravity_refstate-crust.xmf,1331,4.47328e-07,1.25282e-06,0,-4.35627e-06,-1.05654e+09,-1.05649e+09,-1.05657e+09,-298840,0.013038,0.121941,0,0.122636,3967.75,-38468.2,0,38672.3,298840
step02_gravity_refstate-crust.xmf,1332,-1.93786e-09,2.08981e-06,0,-3.60797e-06,-1.03918e+09,-1.03904e+09,-1.03918e+09,-247507,0.0128281,0.115002,0,0.115715,5079.86,-37835.7,0,38175.2,247507
step02_gravity_refstate-crust.xmf,1333,-2.96489e-07,2.74415e-06,0,-2.72328e-06,-1.00637e+09,-1.00617e+09,-1.00635e+09,-186817,0.0120139,0.107615,0,0.108284,6857.46,-36641.1,0,37277.3,186817
step02_gravity_refstate-crust.xmf,1334,-3.36553e-07,2.75689e-06,0,-2.97777e-06,-1.02467e+09,-1.02446e+09,-1.02465e+09,-204275,0.0123727,0.108352,0,0.109056,6379.25,-37307.1,0,37848.6,204275
step02_gravity_refstate-crust.xmf,1335,-9.66035e-08,3.43192e-06,0,-3.79183e-08,-9.4318e+08,-9.42938e+08,-9.43173e+08,-2601.2,0.000324544,0.0652577,0,0.0652586,36031.1,-34342.3,0,49775.8,2601.2
step02_gravity_refstate-crust.xmf,1336,-1.21228e-07,3.46083e-06,0,-6.25392e-08,-9.44775e+08,-9.4453e+08,-9.44767e+08,-4290.19,0.000541586,0.0656044,0,0.0656067,33893.9,-34400.4,0,48292.7,4290.19
step02_gravity_refstate-crust.xmf,1337,-5.82209e-07,3.56226e-06,0,-9.63451e-07,-9.20715e+08,-9.20431e+08,-9.20675e+08,-66092.8,0.00725155,0.0881635,0,0.0884612,15713.1,-33522.7,0,37022.6,66092.8
step02_gravity_refstate-crust.xmf,1338,-5.72381e-07,3.62562e-06,0,-8.14335e-07,-9.24644e+08,-9.24356e+08,-9.24604e+08,-55863.4,0.00640606,0.08477,0,0.0850117,17105.8,-33665.9,0,37762.4,55863.4
step02_gravity_refstate-crust.xmf,1339,-1.58008e-07,3.48e-06,0,-9.58534e-08,-9.41005e+08,-9.40755e+08,-9.40994e+08,-6575.55,0.000860467,0.0668659,0,0.0668714,31799.6,-34263,0,46745.8,6575.55
step02_gravity_refstate-crust.xmf,1340,-2.0953e-07,3.49702e-06,0,-1.40488e-07,-9.34009e+08,-9.33755e+08,-9.33994e+08,-9637.46,0.0012904,0.068752,0,0.0687641,29819.6,-34008.1,0,45230,9637.46
step02_gravity_refstate-crust.xmf,1341,-2.60759e-07,3.51931e-06,0,-1.92165e-07,-9.29071e+08,-9.28811e+08,-9.29053e+08,-13182.5,0.00178101,0.0705785,0,0.0706009,27951.6,-33828.1,0,43882.1,13182.5
step02_gravity_refstate-crust.xmf,1342,-3.15307e-07,3.53723e-06,0,-2.563e-07,-9.23236e+08,-9.22971e+08,-9.23214e+08,-17582.2,0.00237112,0.0727526,0,0.0727912,26139.4,-33615.5,0,42582.5,17582.2
step02_gravity_refstate-crust.xmf,1343,-3.70269e-07,3.54497e-06,0,-3.34944e-07,-9.16044e+08,-9.15775e+08,-9.16018e+08,-22977.1,0.00306312,0.0753401,0,0.0754024,24383.2,-33353.5,0,41315.8,22977.1
step02_gravity_refstate-crust.xmf,1344,-1.61488e-08,3.5634e-06,0,-1.09177e-08,-9.95624e+08,-9.95378e+08,-9.95623e+08,-748.957,3.01111e-05,0.0583255,0,0.0583255,37701.6,-36252.1,0,52303.2,748.957
step02_gravity_refstate-crust.xmf,1345,-8.69825e-07,3.87033e-06,0,2.24665e-06,-1.04671e+09,-1.04638e+09,-1.04665e+09,154120,-0.0109906,0.094755,-0,0.0953903,-8431.78,-38108.9,-0,39030.6,154120
step02_gravity_refstate-crust.xmf,1346,-9.84597e-07,3.97367e-06,0,2.77822e-06,-1.08035e+09,-1.08001e+09,-1.08028e+09,190586,-0.0116745,0.0976855,-0,0.0983806,-7024.67,-39333.4,-0,39955.8,190586
step02_gravity_refstate-crust.xmf,1347,-7.34721e-07,3.29975e-06,0,3.61883e-06,-1.0818e+09,-1.08152e+09,-1.08175e+09,248252,-0.0129628,0.1077,-0,0.108477,-5522.33,-39386.1,-0,39771.3,248252
step02_gravity_refstate-crust.xmf,1348,-8.88576e-07,3.68024e-06,0,3.18662e-06,-1.0811e+09,-1.08079e+09,-1.08104e+09,218602,-0.0123871,0.10263,-0,0.103375,-6245.01,-39360.8,-0,39853.1,218602
step02_gravity_refstate-crust.xmf,1349,-9.30106e-07,4.08832e-06,0,1.95649e-06,-1.05031e+09,-1.04996e+09,-1.05024e+09,134215,-0.0101498,0.0901823,-0,0.0907516,-9294.61,-38240,-0,39353.4,134215
step02_gravity_refstate-crust.xmf,1350,-9.35921e-07,4.20285e-06,0,1.69667e-06,-1.0496e+09,-1.04924e+09,-1.04953e+09,116392,-0.00932179,0.0864111,-0,0.0869124,-10203,-38214.3,-0,39552.9,116392
step02_gravity_refstate-crust.xmf,1351,-7.754e-07,4.33517e-06,0,8.71019e-07,-1.04528e+09,-1.04493e+09,-1.04523e+09,59751.9,-0.00578901,0.073359,-0,0.0735871,-14427.8,-38058.1,-0,40701.1,59751.9
step02_gravity_refstate-crust.xmf,1352,-9.16777e-07,4.27746e-06,0,1.4534e-06,-1.04839e+09,-1.04803e+09,-1.04832e+09,99703.1,-0.00844455,0.0828098,-0,0.0832392,-11188.4,-38170.5,-0,39776.5,99703.1
step02_gravity_refstate-crust.xmf,1353,-8.32739e-07,4.339e-06,0,1.04179e-06,-1.04636e+09,-1.046e+09,-1.0463e+09,71467,-0.00665921,0.0762648,-0,0.076555,-13299.7,-38097.1,-0,40351.8,71467
step02_gravity_refstate-crust.xmf,1354,-8.80992e-07,4.32109e-06,0,1.23576e-06,-1.04735e+09,-1.04699e+09,-1.04729e+09,84773.3,-0.00755204,0.0794269,-0,0.0797851,-12218.7,-38132.9,-0,40042.6,84773.3
step02_gravity_refstate-crust.xmf,1355,-2.90761e-07,4.12235e-06,0,1.46149e-07,-1.06448e+09,-1.06418e+09,-1.06446e+09,10025.8,-0.000619428,0.0558085,-0,0.0558119,-23192.6,-38758.6,-0,45167.8,10025.8
step02_gravity_refstate-crust.xmf,1356,1.66999e-06,-1.09978e-06,0,-6.26561e-06,-1.08856e+09,-1.08875e+09,-1.08868e+09,-429821,0.0126908,0.136962,0,0.137549,2331.77,-39635.2,0,39703.7,429821
step02_gravity_refstate-crust.xmf,1357,3.83368e-07,1.23365e-06,0,-4.75423e-06,-1.07073e+09,-1.07068e+09,-1.07076e+09,-326140,0.0133437,0.123473,0,0.124192,3706.42,-38984.6,0,39160.4,326140
step02_gravity_refstate-crust.xmf,1358,-4.55535e-07,3.09846e-06,0,-2.263e-06,-9.89398e+08,-9.89154e+08,-9.89367e+08,-155242,0.0113325,0.1028,0,0.103423,8260.11,-36023,0,36957.9,155242
step02_gravity_refstate-crust.xmf,1359,-5.4021e-07,3.29496e-06,0,-1.87853e-06,-9.69802e+08,-9.69539e+08,-9.69765e+08,-128867,0.01052,0.099042,0,0.0995991,9757.12,-35309.5,0,36632.8,128867
step02_gravity_refstate-crust.xmf,1360,-6.06892e-07,3.51108e-06,0,-1.36921e-06,-9.45479e+08,-9.45197e+08,-9.45437e+08,-93928.1,0.00898158,0.0930355,0,0.093468,12507.1,-34424.1,0,36625.8,93928.1
step02_gravity_refstate-crust.xmf,1361,-6.35229e-07,3.62967e-06,0,-1.18684e-06,-9.47278e+08,-9.46985e+08,-9.47234e+08,-81416.9,0.0082202,0.0894875,0,0.0898643,13709.4,-34489.6,0,37114.4,81416.9
step02_gravity_refstate-crust.xmf,1362,-6.24736e-07,3.4997e-06,0,-1.66641e-06,-9.70865e+08,-9.70582e+08,-9.70822e+08,-114316,0.00991843,0.0952268,0,0.0957419,10784.7,-35348.2,0,36956.8,114316
step02_gravity_refstate-crust.xmf,1363,-6.65708e-09,2.01225e-06,0,-3.9735e-06,-1.05493e+09,-1.05479e+09,-1.05492e+09,-272582,0.0131475,0.116758,0,0.117496,4660.91,-38408.7,0,38690.5,272582
step02_gravity_refstate-crust.xmf,1364,-3.6315e-07,2.75342e-06,0,-3.26326e-06,-1.04212e+09,-1.0419e+09,-1.04209e+09,-223860,0.0127201,0.109507,0,0.110244,5891.39,-37942.1,0,38396.8,223860
step02_gravity_refstate-crust.xmf,1365,-5.16229e-07,3.15546e-06,0,-2.45991e-06,-1.00887e+09,-1.00861e+09,-1.00883e+09,-168750,0.0116742,0.102958,0,0.103618,7742.86,-36731.5,0,37538.8,168750
step02_gravity_refstate-crust.xmf,1366,-6.39983e-07,3.71851e-06,0,-1.01487e-06,-9.50128e+08,-9.49829e+08,-9.50084e+08,-69620.2,0.00739108,0.0859823,0,0.0862994,14960.2,-34593.5,0,37689.8,69620.2
step02_gravity_refstate-crust.xmf,1367,-5.44424e-07,3.67417e-06,0,-6.70715e-07,-9.30342e+08,-9.30052e+08,-9.30304e+08,-46011.1,0.00551748,0.0813287,0,0.0815157,18565.2,-33873.5,0,38627.5,46011.1
step02_gravity_refstate-crust.xmf,1368,-5.0509e-07,3.6969e-06,0,-5.48553e-07,-9.36267e+08,-9.35979e+08,-9.36233e+08,-37630.8,0.00465445,0.0781335,0,0.0782721,20046.2,-34089.4,0,39546.7,37630.8
step02_gravity_refstate-crust.xmf,1369,-4.53365e-07,3.70452e-06,0,-4.36674e-07,-9.42543e+08,-9.42258e+08,-9.42512e+08,-29955.9,0.00380899,0.0750782,0,0.0751748,21609.9,-34318.1,0,40555.2,29955.9
step02_gravity_refstate-crust.xmf,1370,-3.92911e-07,3.70505e-06,0,-3.35768e-07,-9.50749e+08,-9.50468e+08,-9.50722e+08,-23033.7,0.00297946,0.0719651,0,0.0720267,23262.3,-34617.1,0,41707,23033.7
step02_gravity_refstate-crust.xmf,1371,4.04428e-08,3.65578e-06,0,-8.97118e-11,-1.03283e+09,-1.03259e+09,-1.03284e+09,-6.15423,-8.29352e-21,0.0533201,-0,0.0533201,40000,-37607.2,0,54902.7,6.15423
step02_gravity_refstate-crust.xmf,1372,-9.31301e-07,3.95296e-06,0,2.39827e-06,-1.06111e+09,-1.06077e+09,-1.06104e+09,164521,-0.011157,0.0950216,-0,0.0956743,-7977.68,-38633,-0,39448.1,164521
step02_gravity_refstate-crust.xmf,1373,-1.03004e-06,4.2003e-06,0,2.39404e-06,-1.07962e+09,-1.07926e+09,-1.07955e+09,164231,-0.0108576,0.0929401,-0,0.0935722,-7855.62,-39306.9,-0,40084.2,164231
step02_gravity_refstate-crust.xmf,1374,-3.6567e-07,4.19224e-06,0,2.08117e-07,-1.06506e+09,-1.06475e+09,-1.06504e+09,14276.9,-0.00111789,0.0574279,-0,0.0574387,-21612.9,-38779.6,-0,44395.7,14276.9
step02_gravity_refstate-crust.xmf,1375,-7.44639e-07,4.4865e-06,0,7.22089e-07,-1.07158e+09,-1.07122e+09,-1.07153e+09,49535.3,-0.0045413,0.0678635,-0,0.0680153,-14937.8,-39015.9,-0,41777.7,49535.3
step02_gravity_refstate-crust.xmf,1376,-4.42125e-07,4.26087e-06,0,2.82482e-07,-1.06595e+09,-1.06562e+09,-1.06592e+09,19378.3,-0.00168939,0.0591907,-0,0.0592148,-20123.3,-38811.7,-0,43718.4,19378.3
step02_gravity_refstate-crust.xmf,1377,-5.20289e-07,4.32521e-06,0,3.71724e-07,-1.06672e+09,-1.06639e+09,-1.06669e+09,25500.3,-0.00234289,0.0611818,-0,0.0612266,-18705.6,-38839.7,-0,43109.4,25500.3
step02_gravity_refstate-crust.xmf,1378,-5.97298e-07,4.38596e-06,0,4.74399e-07,-1.06808e+09,-1.06774e+09,-1.06804e+09,32543.8,-0.00304141,0.063276,-0,0.0633491,-17368.2,-38889,-0,42591.2,32543.8
step02_gravity_refstate-crust.xmf,1379,-6.71157e-07,4.44091e-06,0,5.88277e-07,-1.06995e+09,-1.06959e+09,-1.0699e+09,40355.8,-0.0037572,0.0654257,-0,0.0655335,-16133,-38956.6,-0,42165,40355.8
step02_gravity_refstate-crust.xmf,1380,9.96662e-07,3.13349e-08,0,-5.77182e-06,-1.08565e+09,-1.08572e+09,-1.08572e+09,-395947,0.0132116,0.131646,0,0.132307,2814.9,-39528.2,0,39628.4,395947
step02_gravity_refstate-crust.xmf,1381,3.21812e-07,1.2132e-06,0,-5.21008e-06,-1.08507e+09,-1.08501e+09,-1.0851e+09,-357411,0.0136032,0.125325,0,0.126061,3438.59,-39506.4,0,39655.8,357411
step02_gravity_refstate-crust.xmf,1382,-6.03982e-07,3.39246e-06,0,-2.0245e-06,-9.91386e+08,-9.91112e+08,-9.91345e+08,-138881,0.0108294,0.0985435,0,0.0991367,9211.88,-36095.2,0,37252.2,138881
step02_gravity_refstate-crust.xmf,1383,-6.76704e-07,3.65631e-06,0,-1.45681e-06,-9.71586e+08,-9.71289e+08,-9.7154e+08,-99937,0.00920513,0.0915503,0,0.0920119,11871.7,-35374.5,0,37313.4,99937
step02_gravity_refstate-crust.xmf,1384,-7.06831e-08,2.03514e-06,0,-4.31838e-06,-1.0701e+09,-1.06996e+09,-1.07009e+09,-296241,0.0134307,0.118017,0,0.118779,4355.8,-38960.9,0,39203.6,296241
step02_gravity_refstate-crust.xmf,1385,-3.93179e-07,2.70113e-06,0,-3.60396e-06,-1.05783e+09,-1.05761e+09,-1.0578e+09,-247232,0.0130404,0.111216,0,0.111978,5397.43,-38513.8,0,38890.2,247232
step02_gravity_refstate-crust.xmf,1386,-6.53083e-07,3.31718e-06,0,-2.8897e-06,-1.04631e+09,-1.04603e+09,-1.04626e+09,-198233,0.0122784,0.103682,0,0.104406,6776.81,-38094.3,0,38692.4,198233
step02_gravity_refstate-crust.xmf,1387,-5.67076e-07,3.20133e-06,0,-2.67349e-06,-1.02677e+09,-1.02651e+09,-1.02673e+09,-183401,0.0120045,0.103492,0,0.104185,7226.53,-37383.4,0,38075.4,183401
step02_gravity_refstate-crust.xmf,1388,-4.18453e-08,3.59071e-06,0,-2.388e-08,-9.96528e+08,-9.96279e+08,-9.96525e+08,-1638.17,9.64343e-05,0.0586269,0,0.058627,35130.3,-36285,0,50504.9,1638.17
step02_gravity_refstate-crust.xmf,1389,-7.88813e-08,3.6317e-06,0,-4.21912e-08,-9.97361e+08,-9.97106e+08,-9.97355e+08,-2894.31,0.000230151,0.0592188,0,0.0592193,32678,-36315.2,0,48853.3,2894.31
step02_gravity_refstate-crust.xmf,1390,-1.44176e-07,3.62309e-06,0,-8.48845e-08,-9.79852e+08,-9.79594e+08,-9.79842e+08,-5823.08,0.000655023,0.0624381,0,0.0624415,30512.7,-35677.5,0,46945.8,5823.08
step02_gravity_refstate-crust.xmf,1391,-6.24333e-07,3.78844e-06,0,-8.48133e-07,-9.5482e+08,-9.54518e+08,-9.54778e+08,-58181.9,0.00648632,0.0823633,0,0.0826183,16288.3,-34764.5,0,38391.2,58181.9
step02_gravity_refstate-crust.xmf,1392,-5.91373e-07,3.83933e-06,0,-6.92233e-07,-9.61918e+08,-9.61614e+08,-9.61878e+08,-47487.2,0.00550408,0.078542,0,0.0787346,17713.9,-35023.1,0,39248,47487.2
step02_gravity_refstate-crust.xmf,1393,-2.01029e-07,3.65161e-06,0,-1.25517e-07,-9.74216e+08,-9.73951e+08,-9.74202e+08,-8610.49,0.00104692,0.0642251,0,0.0642336,28638.7,-35472.1,0,45590,8610.49
step02_gravity_refstate-crust.xmf,1394,-2.61215e-07,3.6829e-06,0,-1.7739e-07,-9.69238e+08,-9.68968e+08,-9.69221e+08,-12169,0.00153972,0.06617,0,0.0661879,26793.6,-35290.7,0,44309.5,12169
step02_gravity_refstate-crust.xmf,1395,-3.25317e-07,3.70182e-06,0,-2.45122e-07,-9.61308e+08,-9.61032e+08,-9.61286e+08,-16815.4,0.00217618,0.0687315,0,0.068766,25030.9,-35001.8,0,43031.1,16815.4
step02_gravity_refstate-crust.xmf,1396,6.47543e-08,3.7075e-06,0,1.04916e-09,-1.05207e+09,-1.05182e+09,-1.05207e+09,71.9725,-0.000113528,0.0507987,-0,0.0507988,38314,-38307.6,0,54179.7,71.9725
step02_gravity_refstate-crust.xmf,1397,-1.02577e-06,4.26074e-06,0,2.10879e-06,-1.07279e+09,-1.07243e+09,-1.07272e+09,144663,-0.0102099,0.0897101,-0,0.0902892,-8671.76,-39058.6,-0,40009.6,144663
step02_gravity_refstate-crust.xmf,1398,-1.023e-06,4.41366e-06,0,1.76956e-06,-1.07445e+09,-1.07407e+09,-1.07438e+09,121392,-0.0091426,0.0847639,-0,0.0852556,-9672.29,-39119,-0,40297,121392
step02_gravity_refstate-crust.xmf,1399,-9.90066e-07,4.48187e-06,0,1.5026e-06,-1.07389e+09,-1.07351e+09,-1.07382e+09,103078,-0.00819591,0.0808335,-0,0.0812479,-10637.1,-39098.9,-0,40520,103078
step02_gravity_refstate-crust.xmf,1400,-8.15731e-07,4.51456e-06,0,8.7857e-07,-1.07223e+09,-1.07186e+09,-1.07217e+09,60269.9,-0.00540167,0.0706864,-0,0.0708925,-13799.1,-39039.3,-0,41406.3,60269.9
step02_gravity_refstate-crust.xmf,1401,-9.4401e-07,4.51869e-06,0,1.27354e-06,-1.07366e+09,-1.07328e+09,-1.07359e+09,87364.9,-0.00726877,0.0772538,-0,0.0775951,-11610,-39090.7,-0,40778.3,87364.9
step02_gravity_refstate-crust.xmf,1402,-8.83014e-07,4.52587e-06,0,1.0611e-06,-1.07274e+09,-1.07237e+09,-1.07268e+09,72791.5,-0.00631782,0.0738289,-0,0.0740987,-12692.8,-39057.5,-0,41068.2,72791.5
step02_gravity_refstate-crust.xmf,1403,-1.76262e-07,2.14769e-06,0,-4.63911e-06,-1.08482e+09,-1.08466e+09,-1.08481e+09,-318243,0.0136458,0.119033,0,0.119813,4108.49,-39496.5,0,39709.6,318243
step02_gravity_refstate-crust.xmf,1404,-6.67525e-07,3.48927e-06,0,-2.18614e-06,-1.01211e+09,-1.01183e+09,-1.01207e+09,-149969,0.0111283,0.0983003,0,0.0989282,8661.73,-36849.7,0,37854,149969
step02_gravity_refstate-crust.xmf,1405,-6.96514e-07,3.62321e-06,0,-1.78422e-06,-9.93553e+08,-9.93257e+08,-9.93505e+08,-122398,0.0101741,0.0943709,0,0.0949178,10206.2,-36174.1,0,37586.3,122398
step02_gravity_refstate-crust.xmf,1406,-6.99313e-07,3.77717e-06,0,-1.25732e-06,-9.73558e+08,-9.73251e+08,-9.7351e+08,-86251.8,0.00839151,0.0878263,0,0.0882263,13023.4,-35446.4,0,37763.1,86251.8
step02_gravity_refstate-crust.xmf,1407,-7.0029e-07,3.87455e-06,0,-1.06669e-06,-9.77513e+08,-9.772e+08,-9.77465e+08,-73175.1,0.00749176,0.0840076,0,0.084341,14228.1,-35590.5,0,38329.2,73175.1
step02_gravity_refstate-crust.xmf,1408,-7.47077e-07,3.79582e-06,0,-1.55459e-06,-9.95831e+08,-9.9552e+08,-9.9578e+08,-106645,0.00940335,0.0903329,0,0.090821,11243.3,-36257.1,0,37960.3,106645
step02_gravity_refstate-crust.xmf,1409,-6.64771e-07,3.25979e-06,0,-3.21984e-06,-1.06196e+09,-1.06169e+09,-1.06192e+09,-220881,0.0126564,0.105769,0,0.106523,6136.41,-38664.2,0,39148.1,220881
step02_gravity_refstate-crust.xmf,1410,-3.63299e-07,2.58394e-06,0,-3.92388e-06,-1.06853e+09,-1.06832e+09,-1.0685e+09,-269178,0.0132847,0.113396,0,0.114171,4957.61,-38903.3,0,39217.9,269178
step02_gravity_refstate-crust.xmf,1411,-7.36416e-07,3.56788e-06,0,-2.3725e-06,-1.03094e+09,-1.03064e+09,-1.03089e+09,-162753,0.0114243,0.0985124,0,0.0991727,8101.5,-37535,0,38399.3,162753
step02_gravity_refstate-crust.xmf,1412,-7.87266e-08,3.72979e-06,0,-4.08463e-08,-1.02115e+09,-1.02089e+09,-1.02115e+09,-2802.06,8.78209e-05,0.0566172,0,0.0566172,31152.3,-37181.5,0,48507,2802.06
step02_gravity_refstate-crust.xmf,1413,-6.78921e-07,3.94324e-06,0,-8.90044e-07,-9.82545e+08,-9.82228e+08,-9.82499e+08,-61057,0.00653888,0.0802386,0,0.0805046,15483.6,-35773.9,0,38980.9,61057
step02_gravity_refstate-crust.xmf,1414,-5.4076e-07,3.86788e-06,0,-5.53299e-07,-9.69244e+08,-9.68941e+08,-9.69206e+08,-37956.3,0.00456072,0.0750142,0,0.0751527,19145,-35290.1,0,40148.7,37956.3
step02_gravity_refstate-crust.xmf,1415,-4.83309e-07,3.86527e-06,0,-4.38386e-07,-9.74987e+08,-9.74689e+08,-9.74954e+08,-30073.2,0.00368015,0.0719156,0,0.0720097,20651,-35499.4,0,41069.1,30073.2
step02_gravity_refstate-crust.xmf,1416,-4.17306e-07,3.85965e-06,0,-3.35511e-07,-9.82783e+08,-9.82489e+08,-9.82754e+08,-23016,0.00283739,0.068804,0,0.0688625,22189.5,-35783.5,0,42105,23016
step02_gravity_refstate-crust.xmf,1417,-3.45625e-07,3.85346e-06,0,-2.45132e-07,-9.93293e+08,-9.93005e+08,-9.9327e+08,-16816.1,0.00203052,0.0655639,0,0.0655954,23771.4,-36166.4,0,43279.2,16816.1
step02_gravity_refstate-crust.xmf,1418,4.59955e-08,3.70945e-06,0,-1.48996e-10,-1.04751e+09,-1.04726e+09,-1.04751e+09,-10.2211,-0.000201234,0.0516142,-0,0.0516146,36408.5,-38141.5,0,52729.1,10.2211
step02_gravity_refstate-crust.xmf,1419,-7.71327e-07,3.7489e-06,0,-1.91484e-06,-1.01548e+09,-1.01517e+09,-1.01542e+09,-131358,0.0104091,0.0937212,0,0.0942974,9624.77,-36972.1,0,38204.4,131358
step02_gravity_refstate-crust.xmf,1420,-7.67037e-07,3.92684e-06,0,-1.33367e-06,-9.98518e+08,-9.98196e+08,-9.98465e+08,-91489.9,0.00854113,0.0863936,0,0.0868147,12331.5,-36355,0,38389.5,91489.9
step02_gravity_refstate-crust.xmf,1421,-8.25987e-07,3.621e-06,0,-2.90766e-06,-1.06512e+09,-1.06481e+09,-1.06506e+09,-199465,0.0121508,0.101288,0,0.102014,6781.06,-38779,0,39367.4,199465
step02_gravity_refstate-crust.xmf,1422,-5.06804e-07,2.79322e-06,0,-4.12529e-06,-1.08373e+09,-1.08351e+09,-1.0837e+09,-282995,0.0134105,0.113286,0,0.114077,4784.62,-39456.7,0,39745.7,282995
step02_gravity_refstate-crust.xmf,1423,-7.04087e-07,3.24036e-06,0,-3.6096e-06,-1.07867e+09,-1.0784e+09,-1.07863e+09,-247619,0.0129813,0.108002,0,0.108779,5531.63,-39272.4,0,39660.1,247619
step02_gravity_refstate-crust.xmf,1424,-7.59237e-07,3.55967e-06,0,-2.57604e-06,-1.04265e+09,-1.04236e+09,-1.0426e+09,-176717,0.0117462,0.0997716,0,0.100461,7559.33,-37961.3,0,38706.7,176717
step02_gravity_refstate-crust.xmf,1425,-8.79313e-07,3.80387e-06,0,-2.61846e-06,-1.06133e+09,-1.06101e+09,-1.06127e+09,-179626,0.0116644,0.0980902,0,0.0987813,7410.86,-38641.2,0,39345.4,179626
step02_gravity_refstate-crust.xmf,1426,1.69183e-08,3.74123e-06,0,-2.93989e-09,-1.04817e+09,-1.04791e+09,-1.04817e+09,-201.676,-0.000279304,0.0519585,-0,0.0519592,34164.4,-38165.4,0,51223.1,201.676
step02_gravity_refstate-crust.xmf,1427,-1.26204e-07,3.75991e-06,0,-6.56636e-08,-1.01718e+09,-1.01691e+09,-1.01717e+09,-4504.52,0.000318139,0.0579822,0,0.0579831,29408.3,-37036.7,0,47292.3,4504.52
step02_gravity_refstate-crust.xmf,1428,-1.37284e-08,3.78678e-06,0,-8.93422e-09,-1.05113e+09,-1.05087e+09,-1.05113e+09,-612.888,-0.000316894,0.0521181,-0,0.052119,32204.1,-38273.3,0,50019.5,612.888
step02_gravity_refstate-crust.xmf,1429,-6.40047e-07,4.00288e-06,0,-7.21307e-07,-9.91232e+08,-9.90913e+08,-9.91188e+08,-49481.6,0.00550399,0.0761619,0,0.0763605,16788.2,-36090.4,0,39804,49481.6
step02_gravity_refstate-crust.xmf,1430,-5.8429e-07,4.0592e-06,0,-5.56313e-07,-1.00559e+09,-1.00527e+09,-1.00555e+09,-38163,0.00431393,0.0713688,0,0.071499,18204.7,-36613.4,0,40889.5,38163
step02_gravity_refstate-crust.xmf,1431,-1.88882e-07,3.80674e-06,0,-1.02727e-07,-1.01431e+09,-1.01404e+09,-1.0143e+09,-7047.09,0.000655972,0.0594957,0,0.0594993,27528.7,-36932.1,0,46063.1,7047.09
step02_gravity_refstate-crust.xmf,1432,-2.6155e-07,3.86485e-06,0,-1.55182e-07,-1.0126e+09,-1.01231e+09,-1.01258e+09,-10645.5,0.00113634,0.0612477,0,0.0612583,25502.1,-36869.5,0,44829.9,10645.5
step02_gravity_refstate-crust.xmf,1433,-8.41525e-07,3.86005e-06,0,-2.06935e-06,-1.03556e+09,-1.03524e+09,-1.0355e+09,-141957,0.0106556,0.0935783,0,0.094183,9014.21,-37703.2,0,38765.8,141957
step02_gravity_refstate-crust.xmf,1434,-8.22383e-07,3.94102e-06,0,-1.6552e-06,-1.01877e+09,-1.01845e+09,-1.01872e+09,-113547,0.00956685,0.0893193,0,0.0898302,10626.8,-37092.3,0,38584.5,113547
step02_gravity_refstate-crust.xmf,1435,-7.62467e-07,4.02588e-06,0,-1.12655e-06,-1.00272e+09,-1.00239e+09,-1.00267e+09,-77281.5,0.00758084,0.0823677,0,0.0827158,13489.1,-36508.1,0,38920.4,77281.5
step02_gravity_refstate-crust.xmf,1436,-7.35507e-07,4.10147e-06,0,-9.29921e-07,-1.00892e+09,-1.00859e+09,-1.00887e+09,-63792.6,0.00653214,0.0782145,0,0.0784868,14715.2,-36734.2,0,39571.9,63792.6
step02_gravity_refstate-crust.xmf,1437,-8.37801e-07,4.07755e-06,0,-1.41636e-06,-1.02228e+09,-1.02195e+09,-1.02223e+09,-97162.6,0.00863958,0.0850933,0,0.0855307,11667.3,-37220.2,0,39006,97162.6
step02_gravity_refstate-crust.xmf,1438,-9.09062e-07,3.74406e-06,0,-3.1131e-06,-1.08151e+09,-1.08119e+09,-1.08145e+09,-213559,0.0122706,0.101742,0,0.102479,6368.35,-39375.5,0,39887.2,213559
step02_gravity_refstate-crust.xmf,1439,-9.20214e-07,3.9579e-06,0,-2.28291e-06,-1.05535e+09,-1.05501e+09,-1.05529e+09,-156607,0.0109575,0.0941331,0,0.0947687,8309.75,-38423.4,0,39311.7,156607
step02_gravity_refstate-crust.xmf,1440,-9.9081e-07,4.00033e-06,0,-2.73929e-06,-1.08047e+09,-1.08013e+09,-1.0804e+09,-187915,0.0115969,0.0971992,0,0.0978886,7101.22,-39337.7,0,39973.5,187915
step02_gravity_refstate-crust.xmf,1441,-4.98087e-08,3.85054e-06,0,-1.76159e-08,-1.05712e+09,-1.05685e+09,-1.05712e+09,-1208.45,-0.000338335,0.0520399,-0,0.052041,30248.1,-38491.3,0,48954.3,1208.45
step02_gravity_refstate-crust.xmf,1442,-6.87197e-07,4.14626e-06,0,-7.57792e-07,-1.01549e+09,-1.01515e+09,-1.01544e+09,-51984.5,0.00551167,0.0743811,0,0.0745851,15930.8,-36973.4,0,40259.4,51984.5
step02_gravity_refstate-crust.xmf,1443,-5.08661e-07,4.02555e-06,0,-4.35016e-07,-1.00583e+09,-1.00552e+09,-1.0058e+09,-29842.1,0.00346878,0.0688126,0,0.0688999,19745,-36622.5,0,41606.2,29842.1
step02_gravity_refstate-crust.xmf,1444,-4.40271e-07,4.01322e-06,0,-3.31319e-07,-1.01347e+09,-1.01316e+09,-1.01344e+09,-22728.5,0.00260844,0.0656696,0,0.0657214,21184.9,-36900.8,0,42549.6,22728.5
step02_gravity_refstate-crust.xmf,1445,-3.66681e-07,3.99626e-06,0,-2.42532e-07,-1.02214e+09,-1.02184e+09,-1.02211e+09,-16637.7,0.00181798,0.0626315,0,0.0626579,22657.4,-37216.6,0,43571,16637.7
step02_gravity_refstate-crust.xmf,1446,-3.00452e-07,3.97624e-06,0,-1.76784e-07,-1.03011e+09,-1.02981e+09,-1.03009e+09,-12127.4,0.00119952,0.0601033,0,0.0601153,23986.6,-37507,0,44521.1,12127.4
step02_gravity_refstate-crust.xmf,1447,-8.96241e-07,4.07801e-06,0,-1.77116e-06,-1.03989e+09,-1.03954e+09,-1.03982e+09,-121501,0.00971858,0.0886807,0,0.0892116,10005.2,-37860.8,0,39160.5,121501
step02_gravity_refstate-crust.xmf,1448,-8.24987e-07,4.17507e-06,0,-1.1967e-06,-1.02626e+09,-1.02592e+09,-1.02621e+09,-82093.9,0.00766879,0.0810746,0,0.0814365,12729.7,-37365.3,0,39474.2,82093.9
step02_gravity_refstate-crust.xmf,1449,-1.02556e-06,4.19881e-06,0,-2.37208e-06,-1.07868e+09,-1.07833e+09,-1.07861e+09,-162724,0.0108196,0.0927456,0,0.0933745,7916.72,-39272.9,0,40062.9,162724
step02_gravity_refstate-crust.xmf,1450,-1.01749e-07,3.9026e-06,0,-3.85375e-08,-1.05642e+09,-1.05615e+09,-1.05642e+09,-2643.68,-0.000187167,0.053069,-0,0.0530693,28369.2,-38465.8,0,47795.7,2643.68
step02_gravity_refstate-crust.xmf,1451,-6.32313e-07,4.1915e-06,0,-6.0413e-07,-1.02703e+09,-1.0267e+09,-1.02699e+09,-41443.3,0.00443435,0.0701838,0,0.0703238,17108.3,-37394,0,41121.8,41443.3
step02_gravity_refstate-crust.xmf,1452,-5.2297e-07,4.18266e-06,0,-4.09715e-07,-1.03767e+09,-1.03735e+09,-1.03764e+09,-28106.5,0.00297279,0.0649912,0,0.0650592,19139.4,-37781.9,0,42353.2,28106.5
step02_gravity_refstate-crust.xmf,1453,-1.66296e-07,3.96645e-06,0,-6.92515e-08,-1.05647e+09,-1.05619e+09,-1.05646e+09,-4750.66,5.6132e-05,0.0542093,0,0.0542093,26526,-38467.3,0,46726.5,4750.66
step02_gravity_refstate-crust.xmf,1454,-2.28207e-07,4.04124e-06,0,-1.04498e-07,-1.05968e+09,-1.05938e+09,-1.05966e+09,-7168.6,0.000322891,0.0550571,0,0.055058,24800.3,-38583.9,0,45866.9,7168.6
step02_gravity_refstate-crust.xmf,1455,-9.68744e-07,4.20388e-06,0,-1.91152e-06,-1.05915e+09,-1.05879e+09,-1.05908e+09,-131130,0.00988204,0.0885378,0,0.0890876,9363.88,-38561.9,0,39682.6,131130
step02_gravity_refstate-crust.xmf,1456,-9.07291e-07,4.23325e-06,0,-1.49944e-06,-1.04469e+09,-1.04434e+09,-1.04463e+09,-102862,0.00869592,0.0840093,0,0.0844582,11017.3,-38035.9,0,39599.4,102862
step02_gravity_refstate-crust.xmf,1457,-7.34764e-07,4.29954e-06,0,-7.80892e-07,-1.04059e+09,-1.04024e+09,-1.04054e+09,-53569.2,0.00533766,0.072157,0,0.0723541,15215.5,-37887.3,0,40828.4,53569.2
step02_gravity_refstate-crust.xmf,1458,-7.96824e-07,4.28401e-06,0,-9.61238e-07,-1.03751e+09,-1.03716e+09,-1.03746e+09,-65940.9,0.00636601,0.0757598,0,0.0760267,13978.3,-37775,0,40278.3,65940.9
step02_gravity_refstate-crust.xmf,1459,-8.87851e-07,4.32752e-06,0,-1.25794e-06,-1.04863e+09,-1.04827e+09,-1.04857e+09,-86295,0.0076339,0.0796662,0,0.0800311,12084,-38179.6,0,40046.3,86295
step02_gravity_refstate-crust.xmf,1460,-6.73486e-07,4.29542e-06,0,-6.46669e-07,-1.0433e+09,-1.04296e+09,-1.04325e+09,-44361.5,0.00450222,0.0693219,0,0.069468,16294.5,-37986.3,0,41333.7,44361.5
step02_gravity_refstate-crust.xmf,1461,-5.7882e-07,4.24201e-06,0,-4.84105e-07,-1.04233e+09,-1.042e+09,-1.04229e+09,-33209.6,0.00345777,0.0661489,0,0.0662392,18016.2,-37951.2,0,42010.5,33209.6
step02_gravity_refstate-crust.xmf,1462,-4.62623e-07,4.13356e-06,0,-3.36982e-07,-1.03596e+09,-1.03565e+09,-1.03593e+09,-23117,0.00244599,0.0635193,0,0.0635664,20306.7,-37719.7,0,42838.5,23117
step02_gravity_refstate-crust.xmf,1463,-2.94595e-07,4.11274e-06,0,-1.50542e-07,-1.06168e+09,-1.06138e+09,-1.06166e+09,-10327.2,0.000685491,0.0562118,0,0.056216,23208.8,-38656.8,0,45088.8,10327.2
step02_gravity_refstate-crust.xmf,1464,-3.83145e-07,4.16597e-06,0,-2.29915e-07,-1.05649e+09,-1.05618e+09,-1.05646e+09,-15772.2,0.00139096,0.058856,0,0.0588724,21508.8,-38467.4,0,44072.3,15772.2
step02_gravity_refstate-crust.xmf,1465,-9.73253e-07,4.36405e-06,0,-1.61113e-06,-1.06386e+09,-1.06349e+09,-1.06379e+09,-110524,0.00880079,0.0836129,0,0.0840747,10345,-38733.7,0,40091.4,110524
step02_gravity_refstate-crust.xmf,1466,-8.46856e-07,4.37224e-06,0,-1.06026e-06,-1.05113e+09,-1.05078e+09,-1.05108e+09,-72733.8,0.00668035,0.076085,0,0.0763777,13102.6,-38271,0,40451.8,72733.8
step02_gravity_refstate-crust.xmf,1467,-1.04637e-06,4.36144e-06,0,-2.03744e-06,-1.0791e+09,-1.07873e+09,-1.07903e+09,-139769,0.00989132,0.0880778,0,0.0886314,8801.73,-39288.4,0,40262.2,139769
step02_gravity_refstate-crust.xmf,1468,-6.82066e-07,4.44314e-06,0,-6.07464e-07,-1.06939e+09,-1.06904e+09,-1.06935e+09,-41672,0.00388532,0.0658622,0,0.0659767,15970.4,-38936.5,0,42084.5,41672
step02_gravity_refstate-crust.xmf,1469,-6.09115e-07,4.37153e-06,0,-4.96254e-07,-1.06401e+09,-1.06367e+09,-1.06397e+09,-34043,0.00324705,0.064151,0,0.0642331,17247.5,-38740.6,0,42406.5,34043
step02_gravity_refstate-crust.xmf,1470,-5.23088e-07,4.33805e-06,0,-3.73004e-07,-1.0688e+09,-1.06847e+09,-1.06877e+09,-25588.1,0.00232326,0.060997,0,0.0610412,18617.1,-38915.4,0,43139.4,25588.1
step02_gravity_refstate-crust.xmf,1471,-4.49591e-07,4.27461e-06,0,-2.88942e-07,-1.06754e+09,-1.06722e+09,-1.06751e+09,-19821.4,0.00171904,0.0591856,0,0.0592106,19949.2,-38869.6,0,43690,19821.4
step02_gravity_refstate-crust.xmf,1472,-1.03491e-06,4.48711e-06,0,-1.73371e-06,-1.08094e+09,-1.08056e+09,-1.08086e+09,-118933,0.00889222,0.0835622,0,0.084034,9706.5,-39355.3,0,40534.6,118933
step02_gravity_refstate-crust.xmf,1473,-9.55612e-07,4.51047e-06,0,-1.3224e-06,-1.0735e+09,-1.07313e+09,-1.07344e+09,-90716.7,0.00747825,0.0780485,0,0.078406,11393.6,-39085,0,40711.8,90716.7
step02_gravity_refstate-crust.xmf,1474,-7.48838e-07,4.48614e-06,0,-7.31006e-07,-1.07133e+09,-1.07097e+09,-1.07128e+09,-50147,0.00459501,0.0680513,0,0.0682063,14877.1,-39006.8,0,41747.5,50147
step02_gravity_refstate-crust.xmf,1475,-8.89712e-07,4.53452e-06,0,-1.07537e-06,-1.07391e+09,-1.07354e+09,-1.07385e+09,-73770.1,0.00636332,0.0739458,0,0.0742191,12593.5,-39100.1,0,41078.2,73770.1
step02_gravity_refstate-crust.xmf,1476,-8.21592e-07,4.51585e-06,0,-8.92292e-07,-1.0723e+09,-1.07193e+09,-1.07224e+09,-61211.3,0.00547447,0.0709283,0,0.0711393,13706.9,-39041.8,0,41378.1,61211.3
step02_gravity_refstate-crust.xmf,1477,-1.00575e-06,4.57995e-06,0,-1.47511e-06,-1.08454e+09,-1.08416e+09,-1.08448e+09,-101193,0.00787359,0.0793058,0,0.0796957,10579.2,-39487,0,40879.6,101193
