Block Name,Point ID,cauchy_strain_0,cauchy_strain_1,cauchy_strain_2,cauchy_strain_3,cauchy_stress_0,cauchy_stress_1,cauchy_stress_2,cauchy_stress_3,displacement_0,displacement_1,displacement_2,displacement_Magnitude,Points_0,Points_1,Points_2,Points_Magnitude,stress_xy
step02_gravity_refstate-mantle.xmf,0,2.19125e-06,2.13687e-06,0,-1.53693e-09,-1.38341e+09,-1.38342e+09,-1.38371e+09,-205.411,-3.67191e-19,0.0222743,-0,0.0222743,-40000,-48814.3,-0,63109.7,205.411
step02_gravity_refstate-mantle.xmf,1,2.57211e-06,2.03019e-06,0,6.08135e-10,-1.45479e+09,-1.45486e+09,-1.45513e+09,81.2772,-7.87744e-20,0.0176756,-0,0.0176756,-40000,-51021.4,-0,64831.9,81.2772
step02_gravity_refstate-mantle.xmf,2,2.41707e-06,2.08151e-06,0,-9.15862e-08,-1.42497e+09,-1.42502e+09,-1.4253e+09,-12240.5,0.00422322,0.0196681,0,0.0201165,-38251.1,-50099.5,-0,63032.6,12240.5
step02_gravity_refstate-mantle.xmf,3,2.75273e-06,1.99544e-06,0,-7.67023e-08,-1.4936e+09,-1.4937e+09,-1.49397e+09,-10251.3,0.0045873,0.0153344,0,0.0160058,-38331,-52221.3,-0,64779.1,10251.3
step02_gravity_refstate-mantle.xmf,4,2.89152e-06,1.95739e-06,0,4.03289e-10,-1.52647e+09,-1.5266e+09,-1.52686e+09,53.8996,-8.06849e-20,0.0132557,-0,0.0132557,-40000,-53237.6,-0,66590.1,53.8996
step02_gravity_refstate-mantle.xmf,5,2.00747e-06,2.19951e-06,0,-9.85124e-08,-1.35236e+09,-1.35233e+09,-1.35262e+09,-13166.2,0.00365472,0.024484,0,0.0247553,-38181,-47853.9,-0,61219.1,13166.2
step02_gravity_refstate-mantle.xmf,6,2.23876e-06,2.15866e-06,0,-1.87603e-07,-1.39382e+09,-1.39383e+09,-1.39412e+09,-25073.1,0.00783469,0.0220291,0,0.0233808,-36507.7,-49136.1,-0,61214.1,25073.1
step02_gravity_refstate-mantle.xmf,7,2.08093e-06,2.24908e-06,0,-2.79251e-07,-1.36987e+09,-1.36985e+09,-1.37015e+09,-37321.9,0.0109586,0.0242453,0,0.0266069,-34785,-48395.6,-0,59599.8,37321.9
step02_gravity_refstate-mantle.xmf,8,1.77734e-06,2.29918e-06,0,-2.04362e-07,-1.31681e+09,-1.31674e+09,-1.31704e+09,-27313,0.00680835,0.0274303,0,0.0282626,-36199.1,-46754.4,-0,59129.9,27313
step02_gravity_refstate-mantle.xmf,9,2.61338e-06,2.05568e-06,0,-1.63287e-07,-1.46423e+09,-1.46431e+09,-1.46458e+09,-21823.3,0.00873543,0.0174074,0,0.0194763,-36656,-51313.4,-0,63061.3,21823.3
step02_gravity_refstate-mantle.xmf,10,3.02566e-06,1.94601e-06,0,-5.95769e-08,-1.56305e+09,-1.5632e+09,-1.56346e+09,-7962.46,0.00503702,0.0111026,0,0.0121918,-38332.3,-54368.4,-0,66522.8,7962.46
step02_gravity_refstate-mantle.xmf,11,1.77414e-06,2.25901e-06,0,-2.06338e-09,-1.31215e+09,-1.31209e+09,-1.31239e+09,-275.771,-2.95199e-19,0.027117,-0,0.027117,-40000,-46610.6,-0,61421.1,275.771
step02_gravity_refstate-mantle.xmf,12,1.74449e-06,2.35602e-06,0,-2.9244e-07,-1.31635e+09,-1.31627e+09,-1.31658e+09,-39084.6,0.00990114,0.0282262,0,0.0299124,-34432.2,-46740.3,-0,58053.7,39084.6
step02_gravity_refstate-mantle.xmf,13,1.90155e-06,2.35814e-06,0,-3.57658e-07,-1.3456e+09,-1.34554e+09,-1.34585e+09,-47801,0.0132869,0.0268147,0,0.0299261,-33180.4,-47644.8,-0,58060,47801
step02_gravity_refstate-mantle.xmf,14,2.45547e-06,2.14092e-06,0,-2.54754e-07,-1.43469e+09,-1.43473e+09,-1.43502e+09,-34047.9,0.0123729,0.0197728,0,0.023325,-34974,-50400,-0,61346,34047.9
step02_gravity_refstate-mantle.xmf,15,2.90224e-06,1.99121e-06,0,-1.34051e-07,-1.52907e+09,-1.52919e+09,-1.52945e+09,-17915.9,0.00950538,0.01334,0,0.0163801,-36719.2,-53317.8,-0,64738.6,17915.9
step02_gravity_refstate-mantle.xmf,16,3.13429e-06,1.92895e-06,0,3.7838e-10,-1.59865e+09,-1.59882e+09,-1.59907e+09,50.5705,-8.17037e-20,0.00892,-0,0.00892,-40000,-55468.9,-0,68387.1,50.5705
step02_gravity_refstate-mantle.xmf,17,1.56695e-06,2.32798e-06,0,-9.25978e-08,-1.2796e+09,-1.2795e+09,-1.27981e+09,-12375.7,0.00290228,0.029581,0,0.0297231,-38155,-45603.7,-0,59460.1,12375.7
step02_gravity_refstate-mantle.xmf,18,1.51374e-06,2.47009e-06,0,-3.43634e-07,-1.28603e+09,-1.2859e+09,-1.28623e+09,-45926.7,0.0108558,0.0313016,0,0.0331306,-33123.7,-45802.3,-0,56524.6,45926.7
step02_gravity_refstate-mantle.xmf,19,1.43048e-06,2.4299e-06,0,-2.48836e-07,-1.26632e+09,-1.26619e+09,-1.26651e+09,-33256.9,0.00755145,0.0316982,0,0.0325853,-34872.1,-45192.9,-0,57083,33256.9
step02_gravity_refstate-mantle.xmf,20,1.6707e-06,2.49809e-06,0,-4.24268e-07,-1.31757e+09,-1.31746e+09,-1.31779e+09,-56703.4,0.0148979,0.0301505,0,0.0336304,-31539.8,-46777.8,-0,56417.4,56703.4
step02_gravity_refstate-mantle.xmf,21,1.38671e-06,2.67799e-06,0,-4.73806e-07,-1.28796e+09,-1.28779e+09,-1.28815e+09,-63324.2,0.0159294,0.0344612,0,0.0379647,-29702.2,-45861.9,-0,54640,63324.2
step02_gravity_refstate-mantle.xmf,22,1.2422e-06,2.61534e-06,0,-3.81724e-07,-1.25767e+09,-1.25749e+09,-1.25783e+09,-51017.4,0.0117278,0.0349353,0,0.0368513,-31488,-44924.9,-0,54861.1,51017.4
step02_gravity_refstate-mantle.xmf,23,2.28793e-06,2.247e-06,0,-3.42359e-07,-1.40746e+09,-1.40747e+09,-1.40777e+09,-45756.3,0.015416,0.0223245,0,0.02713,-33327.9,-49558.1,-0,59722.3,45756.3
step02_gravity_refstate-mantle.xmf,24,2.08614e-06,2.38033e-06,0,-4.23104e-07,-1.3787e+09,-1.37866e+09,-1.37898e+09,-56547.9,0.017795,0.0254278,0,0.031036,-31674.4,-48668.7,-0,58068.1,56547.9
step02_gravity_refstate-mantle.xmf,25,2.77499e-06,2.06139e-06,0,-2.16932e-07,-1.49896e+09,-1.49905e+09,-1.49933e+09,-28992.9,0.0136205,0.0155627,0,0.0206812,-35087.1,-52387.2,-0,63051.8,28992.9
step02_gravity_refstate-mantle.xmf,26,3.22246e-06,1.94258e-06,0,-3.73098e-08,-1.63329e+09,-1.63347e+09,-1.63372e+09,-4986.46,0.00540572,0.00688136,0,0.00875071,-38318.4,-56539.5,-0,68300.9,4986.46
step02_gravity_refstate-mantle.xmf,27,3.1361e-06,1.96642e-06,0,-9.88934e-08,-1.59794e+09,-1.59809e+09,-1.59836e+09,-13217.1,0.01046,0.00913518,0,0.0138875,-36657.2,-55446.8,-0,66468.8,13217.1
step02_gravity_refstate-mantle.xmf,28,3.28474e-06,1.95571e-06,0,3.50448e-10,-1.67153e+09,-1.67171e+09,-1.67197e+09,46.8373,-7.49969e-20,0.00454901,-0,0.00454901,-40000,-57721,-0,70226.2,46.8373
step02_gravity_refstate-mantle.xmf,29,1.41833e-06,2.39292e-06,0,-1.67018e-07,-1.25931e+09,-1.25918e+09,-1.2595e+09,-22322,0.00502774,0.0314925,0,0.0318913,-36513.2,-44976.3,-0,57931.7,22322
step02_gravity_refstate-mantle.xmf,30,1.34309e-06,2.38066e-06,0,-2.8481e-09,-1.2409e+09,-1.24076e+09,-1.24108e+09,-380.648,-2.401e-19,0.0322292,-0,0.0322292,-40000,-44407.1,-0,59766.1,380.648
step02_gravity_refstate-mantle.xmf,31,1.01078e-06,2.75113e-06,0,-3.96844e-07,-1.23592e+09,-1.23569e+09,-1.23606e+09,-53038.2,0.0120244,0.0383464,0,0.0401874,-30084.6,-44252,-0,53510,53038.2
step02_gravity_refstate-mantle.xmf,32,9.51951e-07,2.8579e-06,0,-4.41468e-07,-1.23971e+09,-1.23946e+09,-1.23984e+09,-59002.2,0.0137198,0.0400981,0,0.0423803,-28631.9,-44368.9,-0,52805.2,59002.2
step02_gravity_refstate-mantle.xmf,33,1.25736e-06,2.82811e-06,0,-5.12143e-07,-1.28223e+09,-1.28202e+09,-1.28239e+09,-68447.9,0.0176974,0.0372829,0,0.04127,-28048.6,-45684.2,-0,53607.5,68447.9
step02_gravity_refstate-mantle.xmf,34,1.85866e-06,2.54066e-06,0,-4.90125e-07,-1.35091e+09,-1.35082e+09,-1.35116e+09,-65505.2,0.0195951,0.0290633,0,0.035052,-29977.5,-47809.1,-0,56430.1,65505.2
step02_gravity_refstate-mantle.xmf,35,2.63269e-06,2.15721e-06,0,-3.04002e-07,-1.47e+09,-1.47007e+09,-1.47035e+09,-40629.9,0.0173027,0.0180128,0,0.0249768,-33440.3,-51492,-0,61397.8,40629.9
step02_gravity_refstate-mantle.xmf,36,3.02907e-06,2.01901e-06,0,-1.72198e-07,-1.5625e+09,-1.56264e+09,-1.56291e+09,-23014.3,0.0148587,0.0115554,0,0.0188231,-35082,-54351.7,-0,64690.4,23014.3
step02_gravity_refstate-mantle.xmf,37,3.31234e-06,1.98079e-06,0,-2.04685e-08,-1.69337e+09,-1.69355e+09,-1.69381e+09,-2735.61,0.00529106,0.00323312,0,0.00620067,-38401,-58396,-0,69890.8,2735.61
step02_gravity_refstate-mantle.xmf,38,3.33448e-06,2.0379e-06,0,6.51306e-09,-1.74529e+09,-1.74546e+09,-1.74573e+09,870.471,4.95695e-19,-4.16325e-20,0,4.9744e-19,-40000,-60000,-0,72111,870.471
step02_gravity_refstate-mantle.xmf,39,8.73887e-07,3.01458e-06,0,-4.84694e-07,-1.24599e+09,-1.24571e+09,-1.24611e+09,-64779.3,0.0159178,0.0427832,0,0.0456484,-26801.9,-44562.8,-0,52001.8,64779.3
step02_gravity_refstate-mantle.xmf,40,1.12847e-06,2.4456e-06,0,-8.45854e-08,-1.20798e+09,-1.20781e+09,-1.20813e+09,-11304.8,0.00232241,0.0349067,0,0.0349839,-37964.5,-43388.9,-0,57653.3,11304.8
step02_gravity_refstate-mantle.xmf,41,1.07573e-06,2.50032e-06,0,-1.71611e-07,-1.20802e+09,-1.20783e+09,-1.20816e+09,-22935.8,0.00489874,0.0357459,0,0.03608,-35641.5,-43389.8,-0,56151.5,22935.8
step02_gravity_refstate-mantle.xmf,42,1.04564e-06,2.5833e-06,0,-2.69114e-07,-1.21745e+09,-1.21724e+09,-1.21759e+09,-35967.1,0.00773721,0.036542,0,0.0373522,-33282.5,-43681.1,-0,54915.9,35967.1
step02_gravity_refstate-mantle.xmf,43,8.21159e-07,2.73249e-06,0,-3.06353e-07,-1.20094e+09,-1.20068e+09,-1.20105e+09,-40944.1,0.00889924,0.0399267,0,0.0409064,-31211,-43170,-0,53270.8,40944.1
step02_gravity_refstate-mantle.xmf,44,1.63363e-06,2.71456e-06,0,-5.35311e-07,-1.32796e+09,-1.32782e+09,-1.32818e+09,-71544.3,0.0208801,0.0329359,0,0.0389969,-28333.4,-47099.2,-0,54964.7,71544.3
step02_gravity_refstate-mantle.xmf,45,1.36544e-06,2.90621e-06,0,-5.52134e-07,-1.30344e+09,-1.30324e+09,-1.30363e+09,-73792.8,0.0211894,0.0375768,0,0.0431394,-26771.9,-46340.4,-0,53517.9,73792.8
step02_gravity_refstate-mantle.xmf,46,6.02452e-07,3.23023e-06,0,-4.58471e-07,-1.23222e+09,-1.23187e+09,-1.2323e+09,-61274.7,0.0158616,0.0480955,0,0.0506435,-25043.5,-44136,-0,50746.1,61274.7
step02_gravity_refstate-mantle.xmf,47,1.11712e-06,3.09827e-06,0,-5.44688e-07,-1.28476e+09,-1.28449e+09,-1.28491e+09,-72797.5,0.0212083,0.0423297,0,0.0473455,-25299.9,-45762.1,-0,52290.1,72797.5
step02_gravity_refstate-mantle.xmf,48,2.45932e-06,2.28369e-06,0,-3.91729e-07,-1.43981e+09,-1.43983e+09,-1.44013e+09,-52354.6,0.0204665,0.0209666,0,0.0292998,-31752.3,-50558.4,-0,59702.3,52354.6
step02_gravity_refstate-mantle.xmf,49,2.26411e-06,2.43584e-06,0,-4.686e-07,-1.41093e+09,-1.4109e+09,-1.41123e+09,-62628.4,0.0229635,0.0243394,0,0.0334623,-30084.7,-49665.4,-0,58066.7,62628.4
step02_gravity_refstate-mantle.xmf,50,2.91489e-06,2.098e-06,0,-2.50083e-07,-1.53138e+09,-1.53149e+09,-1.53177e+09,-33423.6,0.0188125,0.0139411,0,0.023415,-33531.4,-53389.7,-0,63046.1,33423.6
step02_gravity_refstate-mantle.xmf,51,3.29534e-06,1.99549e-06,0,-5.63002e-08,-1.67546e+09,-1.67563e+09,-1.6759e+09,-7524.52,0.0114849,0.00439983,0,0.0122988,-36509.6,-57842.6,-0,68401.1,7524.52
step02_gravity_refstate-mantle.xmf,52,3.21474e-06,2.02154e-06,0,-1.23044e-07,-1.62655e+09,-1.62671e+09,-1.62698e+09,-16444.8,0.0164198,0.00758909,0,0.0180888,-34875.8,-56331.3,-0,66253.6,16444.8
step02_gravity_refstate-mantle.xmf,53,3.33979e-06,2.05779e-06,0,7.20101e-09,-1.74529e+09,-1.74546e+09,-1.74573e+09,962.415,0.00814042,-5.63113e-20,0,0.00814042,-37559.4,-60000,-0,70786.4,962.415
step02_gravity_refstate-mantle.xmf,54,6.38148e-07,2.8776e-06,0,-3.29259e-07,-1.19304e+09,-1.19274e+09,-1.19312e+09,-44005.4,0.00973909,0.0430125,0,0.0441013,-29421.8,-42925.1,-0,52040.5,44005.4
step02_gravity_refstate-mantle.xmf,55,4.97124e-07,3.02362e-06,0,-3.52672e-07,-1.19299e+09,-1.19266e+09,-1.19306e+09,-47134.6,0.0106977,0.0458873,0,0.0471178,-27748.1,-42923.2,-0,51111.2,47134.6
step02_gravity_refstate-mantle.xmf,56,9.24937e-07,2.48221e-06,0,-7.77808e-10,-1.16965e+09,-1.16944e+09,-1.16977e+09,-103.954,-1.3582e-19,0.0375871,-0,0.0375871,-40000,-42203.5,-0,58147.6,103.954
step02_gravity_refstate-mantle.xmf,57,8.76839e-07,3.29966e-06,0,-5.11404e-07,-1.27005e+09,-1.26972e+09,-1.27017e+09,-68349.2,0.0210362,0.0475169,0,0.0519652,-23837.2,-45306.6,-0,51194.8,68349.2
step02_gravity_refstate-mantle.xmf,58,3.78648e-07,3.42025e-06,0,-4.15697e-07,-1.22332e+09,-1.22291e+09,-1.22337e+09,-55557.9,0.0155682,0.0531128,0,0.0553474,-23588.8,-43860.2,-0,49801.1,55557.9
step02_gravity_refstate-mantle.xmf,59,1.21164e-07,3.61278e-06,0,-3.35206e-07,-1.21171e+09,-1.21124e+09,-1.21173e+09,-44800.2,0.0144125,0.0589106,0,0.060648,-22253.4,-43500.3,-0,48862,44800.2
step02_gravity_refstate-mantle.xmf,60,5.84813e-07,3.50939e-06,0,-4.45068e-07,-1.25249e+09,-1.2521e+09,-1.25257e+09,-59483.3,0.0198337,0.0536573,0,0.0572056,-22465.1,-44762.8,-0,50083.8,59483.3
step02_gravity_refstate-mantle.xmf,61,2.99939e-07,3.20086e-06,0,-3.46553e-07,-1.18943e+09,-1.18905e+09,-1.18947e+09,-46316.7,0.0110751,0.04988,0,0.0510947,-26045,-42812.3,-0,50112.2,46316.7
step02_gravity_refstate-mantle.xmf,62,2.02451e-07,3.72913e-06,0,-3.35701e-07,-1.22974e+09,-1.22927e+09,-1.22977e+09,-44866.4,0.0171479,0.0611173,0,0.0634774,-21168.2,-44058.1,-0,48879.6,44866.4
step02_gravity_refstate-mantle.xmf,63,2.05115e-06,2.60898e-06,0,-5.26882e-07,-1.38408e+09,-1.384e+09,-1.38435e+09,-70417.7,0.0247733,0.0281492,0,0.0374979,-28459.4,-48835.1,-0,56522.6,70417.7
step02_gravity_refstate-mantle.xmf,64,2.77963e-06,2.21218e-06,0,-3.35532e-07,-1.50103e+09,-1.5011e+09,-1.5014e+09,-44843.8,0.0226957,0.0166615,0,0.028155,-31838.9,-52451.5,-0,61358.5,44843.8
step02_gravity_refstate-mantle.xmf,65,3.12905e-06,2.07985e-06,0,-1.89338e-07,-1.59149e+09,-1.59163e+09,-1.59191e+09,-25305,0.0203242,0.0100743,0,0.022684,-33476.6,-55247.9,-0,64598.9,25305
step02_gravity_refstate-mantle.xmf,66,7.75711e-07,2.54307e-06,0,-8.99122e-08,-1.15299e+09,-1.15276e+09,-1.1531e+09,-12016.8,0.0027605,0.0395837,0,0.0396798,-36617.5,-41688.2,-0,55486.4,12016.8
step02_gravity_refstate-mantle.xmf,67,7.97715e-07,2.51322e-06,0,-4.18857e-08,-1.14992e+09,-1.14969e+09,-1.15002e+09,-5598.03,0.00131496,0.0392692,0,0.0392912,-38381.4,-41593.2,-0,56596.2,5598.03
step02_gravity_refstate-mantle.xmf,68,7.06666e-07,2.61447e-06,0,-1.4464e-07,-1.15524e+09,-1.15498e+09,-1.15533e+09,-19331.2,0.00442095,0.0406249,0,0.0408648,-34485.2,-41757.2,-0,54156.2,19331.2
step02_gravity_refstate-mantle.xmf,69,5.81887e-07,2.71953e-06,0,-1.82412e-07,-1.15333e+09,-1.15305e+09,-1.15341e+09,-24379.4,0.00567189,0.0425532,0,0.0429295,-32468,-41697.8,-0,52847.7,24379.4
step02_gravity_refstate-mantle.xmf,70,3.98812e-07,2.8603e-06,0,-1.97679e-07,-1.14824e+09,-1.14792e+09,-1.1483e+09,-26419.9,0.00642223,0.0454408,0,0.0458924,-30470.8,-41539.8,-0,51517.2,26419.9
step02_gravity_refstate-mantle.xmf,71,6.04168e-08,3.3955e-06,0,-3.07013e-07,-1.18326e+09,-1.18281e+09,-1.18327e+09,-41032.2,0.0107466,0.054812,0,0.0558556,-24425.6,-42620.5,-0,49123.5,41032.2
step02_gravity_refstate-mantle.xmf,72,-3.85115e-07,3.81292e-06,0,-1.7563e-07,-1.18026e+09,-1.1797e+09,-1.1802e+09,-23473,0.00988599,0.0665188,0,0.0672494,-21257,-42525.8,-0,47542.7,23473
step02_gravity_refstate-mantle.xmf,73,-2.33616e-07,3.60662e-06,0,-2.22254e-07,-1.17379e+09,-1.17328e+09,-1.17376e+09,-29704.2,0.00951338,0.060886,0,0.0616247,-22874.4,-42326.6,-0,48112.2,29704.2
step02_gravity_refstate-mantle.xmf,74,1.82379e-06,2.79722e-06,0,-5.60911e-07,-1.35947e+09,-1.35934e+09,-1.35971e+09,-74965.8,0.0258984,0.0324145,0,0.0414901,-26898.9,-48073.8,-0,55087.6,74965.8
step02_gravity_refstate-mantle.xmf,75,1.59135e-06,2.99634e-06,0,-5.67827e-07,-1.33789e+09,-1.3377e+09,-1.3381e+09,-75890,0.0264939,0.0371125,0,0.0455989,-25394.5,-47406.3,-0,53779.5,75890
step02_gravity_refstate-mantle.xmf,76,1.35433e-06,3.20329e-06,0,-5.46928e-07,-1.31897e+09,-1.31872e+09,-1.31915e+09,-73096.9,0.0266135,0.0422876,0,0.0499651,-23950.3,-46820.6,-0,52590.8,73096.9
step02_gravity_refstate-mantle.xmf,77,1.08415e-06,3.41514e-06,0,-4.96299e-07,-1.29897e+09,-1.29866e+09,-1.29911e+09,-66330.4,0.0258483,0.0482541,0,0.0547412,-22592.3,-46201.6,-0,51429.6,66330.4
step02_gravity_refstate-mantle.xmf,78,7.64438e-07,3.63637e-06,0,-4.11448e-07,-1.27714e+09,-1.27676e+09,-1.27724e+09,-54990,0.0240896,0.055323,0,0.0603403,-21265.1,-45525.8,-0,50247.5,54990
step02_gravity_refstate-mantle.xmf,79,3.97144e-07,3.86206e-06,0,-2.90172e-07,-1.2545e+09,-1.25403e+09,-1.25455e+09,-38781.5,0.0213653,0.0634654,0,0.0669652,-19976.5,-44824.5,-0,49074.4,38781.5
step02_gravity_refstate-mantle.xmf,80,-1.90829e-07,3.95491e-06,0,-1.81624e-07,-1.20785e+09,-1.20729e+09,-1.20782e+09,-24274,0.0137292,0.0695758,0,0.0709174,-19880.3,-43379.8,-0,47718.3,24274
step02_gravity_refstate-mantle.xmf,81,2.6166e-06,2.35787e-06,0,-4.16781e-07,-1.47073e+09,-1.47076e+09,-1.47108e+09,-55702.8,0.0259719,0.0198541,0,0.0326913,-30147.7,-51514.8,-0,59688,55702.8
step02_gravity_refstate-mantle.xmf,82,2.43164e-06,2.52689e-06,0,-4.82846e-07,-1.442e+09,-1.44198e+09,-1.44232e+09,-64532.4,0.0284622,0.0234674,0,0.0368892,-28530.6,-50626.6,-0,58112.3,64532.4
step02_gravity_refstate-mantle.xmf,83,3.03853e-06,2.17537e-06,0,-2.6238e-07,-1.56286e+09,-1.56298e+09,-1.56327e+09,-35067.1,0.0245723,0.0124491,0,0.027546,-31880.6,-54363.2,-0,63021.7,35067.1
step02_gravity_refstate-mantle.xmf,84,3.26632e-06,2.09734e-06,0,-1.30773e-07,-1.64226e+09,-1.64242e+09,-1.6427e+09,-17477.8,0.0217517,0.00683115,0,0.0227992,-33289.4,-56817.3,-0,65851.2,17477.8
step02_gravity_refstate-mantle.xmf,85,3.32657e-06,2.08493e-06,0,-6.97807e-08,-1.68917e+09,-1.68934e+09,-1.68962e+09,-9326.19,0.0191632,0.00368287,0,0.0195139,-34214,-58266.6,-0,67569.2,9326.19
step02_gravity_refstate-mantle.xmf,86,3.3495e-06,2.11861e-06,0,3.25521e-09,-1.74528e+09,-1.74544e+09,-1.74573e+09,435.058,0.0159304,-4.95218e-20,0,0.0159304,-35231.4,-60000,-0,69579.1,435.058
step02_gravity_refstate-mantle.xmf,87,-7.73778e-07,4.19418e-06,0,4.20563e-08,-1.17789e+09,-1.17722e+09,-1.17778e+09,5620.83,0.00801284,0.0798016,0,0.0802029,-18688,-42451.1,-0,46382.5,5620.83
step02_gravity_refstate-mantle.xmf,88,-3.86063e-08,4.08567e-06,0,-1.29734e-07,-1.23004e+09,-1.22949e+09,-1.23004e+09,-17338.9,0.0174144,0.0727911,0,0.0748452,-18744.7,-44066.8,-0,47887.8,17338.9
step02_gravity_refstate-mantle.xmf,89,2.10008e-07,3.01171e-06,0,-1.98731e-07,-1.14523e+09,-1.14485e+09,-1.14526e+09,-26560.3,0.00679976,0.0486148,0,0.049088,-28676.3,-41445.8,-0,50399.2,26560.3
step02_gravity_refstate-mantle.xmf,90,9.56671e-09,3.18119e-06,0,-1.89112e-07,-1.14447e+09,-1.14404e+09,-1.14447e+09,-25274.8,0.0069513,0.0522715,0,0.0527317,-26923.3,-41421.3,-0,49402.3,25274.8
step02_gravity_refstate-mantle.xmf,91,5.5568e-07,2.53401e-06,0,5.49054e-09,-1.09839e+09,-1.09813e+09,-1.09846e+09,733.811,3.53111e-19,0.0431255,0,0.0431255,-40000,-40000,-0,56568.5,733.811
step02_gravity_refstate-mantle.xmf,92,5.27818e-07,2.55828e-06,0,-1.90559e-08,-1.09839e+09,-1.09812e+09,-1.09846e+09,-2546.82,0.00124166,0.0434865,0,0.0435042,-37707.6,-40000,-0,54971.4,2546.82
step02_gravity_refstate-mantle.xmf,93,-2.21014e-07,3.36471e-06,0,-1.53097e-07,-1.14224e+09,-1.14177e+09,-1.14221e+09,-20461.4,0.00659355,0.0566847,0,0.0570669,-25268.8,-41351.6,-0,48461,20461.4
step02_gravity_refstate-mantle.xmf,94,-2.25741e-07,4.44211e-06,0,2.12089e-07,-1.23066e+09,-1.23004e+09,-1.23063e+09,28345.7,0.0172551,0.0868135,0,0.0885117,-16544.8,-44085.5,-0,47087.8,28345.7
step02_gravity_refstate-mantle.xmf,95,1.90093e-07,4.23717e-06,0,5.93712e-09,-1.25087e+09,-1.25033e+09,-1.2509e+09,793.496,0.0213875,0.0765707,0,0.0795015,-17652.9,-44712.1,-0,48070.7,793.496
step02_gravity_refstate-mantle.xmf,96,-4.81233e-07,4.31032e-06,0,7.89785e-08,-1.20683e+09,-1.20619e+09,-1.20677e+09,10555.5,0.0127362,0.0828693,0,0.0838423,-17580,-43347.4,-0,46776.7,10555.5
step02_gravity_refstate-mantle.xmf,97,7.14145e-08,4.61074e-06,0,4.3663e-07,-1.25311e+09,-1.2525e+09,-1.25312e+09,58355.6,0.0221018,0.0913268,0,0.0939632,-15552.9,-44781.3,-0,47405.3,58355.6
step02_gravity_refstate-mantle.xmf,98,-6.58304e-07,4.668e-06,0,4.98277e-07,-1.2112e+09,-1.21049e+09,-1.21111e+09,66594.7,0.0123728,0.0991247,0,0.0998939,-15340.9,-43482,-0,46108.9,66594.7
step02_gravity_refstate-mantle.xmf,99,2.22406e-06,2.71574e-06,0,-5.28328e-07,-1.41454e+09,-1.41448e+09,-1.41484e+09,-70611,0.030184,0.0276009,0,0.0409009,-26975.8,-49777.6,-0,56617.1,70611
step02_gravity_refstate-mantle.xmf,100,2.91688e-06,2.30582e-06,0,-3.39462e-07,-1.53253e+09,-1.53261e+09,-1.53292e+09,-45369.1,0.0284394,0.0153358,0,0.0323108,-30240.4,-53425.7,-0,61390.5,45369.1
step02_gravity_refstate-mantle.xmf,101,3.21369e-06,2.17494e-06,0,-1.85711e-07,-1.61981e+09,-1.61995e+09,-1.62024e+09,-24820.2,0.025869,0.00861373,0,0.0272654,-31902.1,-56123.5,-0,64556.9,24820.2
step02_gravity_refstate-mantle.xmf,102,-7.388e-07,4.02217e-06,0,-1.42566e-08,-1.16733e+09,-1.16669e+09,-1.16723e+09,-1905.39,0.00721178,0.0741542,0,0.074504,-19965.3,-42124.6,-0,46616.4,1905.39
step02_gravity_refstate-mantle.xmf,103,-8.76039e-07,4.5106e-06,0,3.19049e-07,-1.19127e+09,-1.19055e+09,-1.19116e+09,42640.9,0.00873536,0.0930862,0,0.0934952,-16436.6,-42864.7,-0,45908,42640.9
step02_gravity_refstate-mantle.xmf,104,4.5209e-07,2.61917e-06,0,-3.6835e-08,-1.09841e+09,-1.09812e+09,-1.09847e+09,-4923,0.002313,0.0445213,0,0.0445814,-35524.6,-40000,-0,53497.6,4923
step02_gravity_refstate-mantle.xmf,105,1.82299e-07,2.83536e-06,0,-5.18199e-08,-1.09845e+09,-1.09809e+09,-1.09847e+09,-6925.72,0.00364471,0.0484559,0,0.0485928,-31466.4,-40000,-0,50893.4,6925.72
step02_gravity_refstate-mantle.xmf,106,3.34812e-07,2.71144e-06,0,-4.69347e-08,-1.09842e+09,-1.09811e+09,-1.09847e+09,-6272.82,0.00313291,0.0461837,0,0.0462898,-33445.9,-40000,-0,52140.4,6272.82
step02_gravity_refstate-mantle.xmf,107,-6.49164e-09,2.97559e-06,0,-3.17906e-08,-1.09847e+09,-1.09808e+09,-1.09847e+09,-4248.82,0.0038109,0.051338,0,0.0514793,-29581.4,-40000,-0,49750,4248.82
step02_gravity_refstate-mantle.xmf,108,-4.85377e-07,3.56224e-06,0,-8.55649e-08,-1.13863e+09,-1.13809e+09,-1.13857e+09,-11435.7,0.00567266,0.0619874,0,0.0622464,-23676.8,-41238.8,-0,47552.4,11435.7
step02_gravity_refstate-mantle.xmf,109,-7.55632e-07,3.76991e-06,0,-3.75305e-10,-1.13688e+09,-1.13628e+09,-1.13678e+09,-50.1595,0.00451322,0.0679774,0,0.0681271,-22122.8,-41183.4,-0,46749.2,50.1595
step02_gravity_refstate-mantle.xmf,110,-2.05818e-07,4.80641e-06,0,7.27671e-07,-1.23977e+09,-1.2391e+09,-1.23974e+09,97253.2,0.0188922,0.102748,0,0.10447,-14473.1,-44368,-0,46668.9,97253.2
step02_gravity_refstate-mantle.xmf,111,2.00344e-06,2.92035e-06,0,-5.46072e-07,-1.38933e+09,-1.3892e+09,-1.38959e+09,-72982.6,0.0312652,0.0322606,0,0.0449251,-25467.3,-48997.7,-0,55221,72982.6
step02_gravity_refstate-mantle.xmf,112,1.79945e-06,3.13591e-06,0,-5.30267e-07,-1.36995e+09,-1.36978e+09,-1.37019e+09,-70870.2,0.032158,0.0371746,0,0.0491537,-23995.6,-48398.5,-0,54020.4,70870.2
step02_gravity_refstate-mantle.xmf,113,1.55001e-06,3.34866e-06,0,-4.91904e-07,-1.34729e+09,-1.34704e+09,-1.34749e+09,-65742.9,0.031808,0.0429589,0,0.0534529,-22669.8,-47697.1,-0,52810.3,65742.9
step02_gravity_refstate-mantle.xmf,114,3.72107e-07,4.41603e-06,0,2.00713e-07,-1.26958e+09,-1.26904e+09,-1.26963e+09,26825.3,0.0253971,0.0808781,0,0.0847719,-16627.4,-45291.7,-0,48247.4,26825.3
step02_gravity_refstate-mantle.xmf,115,1.27825e-06,3.57e-06,0,-4.20486e-07,-1.32515e+09,-1.32484e+09,-1.32532e+09,-56198,0.0308017,0.0496128,0,0.0583967,-21359.7,-47012.1,-0,51636.9,56198
step02_gravity_refstate-mantle.xmf,116,9.82316e-07,3.79059e-06,0,-3.17259e-07,-1.30309e+09,-1.30272e+09,-1.30322e+09,-42401.6,0.0290057,0.0571394,0,0.06408,-20101.9,-46329.3,-0,50502.4,42401.6
step02_gravity_refstate-mantle.xmf,117,6.70612e-07,4.03954e-06,0,-1.51271e-07,-1.2823e+09,-1.28185e+09,-1.28239e+09,-20217.4,0.0267437,0.0665091,0,0.0716846,-18690.4,-45685.7,-0,49361,20217.4
step02_gravity_refstate-mantle.xmf,118,2.58603e-06,2.66047e-06,0,-4.60729e-07,-1.47272e+09,-1.47271e+09,-1.47307e+09,-61576.5,0.0342,0.0226953,0,0.0410453,-27027.8,-51577,-0,58229.6,61576.5
step02_gravity_refstate-mantle.xmf,119,2.76752e-06,2.46819e-06,0,-4.0814e-07,-1.50267e+09,-1.50271e+09,-1.50304e+09,-54547.9,0.0316815,0.0186921,0,0.0367847,-28623.8,-52502.9,-0,59798.6,54547.9
step02_gravity_refstate-mantle.xmf,120,3.1442e-06,2.28807e-06,0,-2.48511e-07,-1.59323e+09,-1.59335e+09,-1.59365e+09,-33213.5,0.0302584,0.0109842,0,0.0321904,-30318.8,-55302.3,-0,63068,33213.5
step02_gravity_refstate-mantle.xmf,121,3.33099e-06,2.20532e-06,0,-9.82077e-08,-1.68293e+09,-1.68308e+09,-1.68337e+09,-13125.5,0.0266595,0.00432954,0,0.0270088,-31946.6,-58074.1,-0,66281.1,13125.5
step02_gravity_refstate-mantle.xmf,122,3.36547e-06,2.21765e-06,0,5.33631e-09,-1.74527e+09,-1.74542e+09,-1.74572e+09,713.198,0.023388,-6.06296e-20,0,0.023388,-33009.9,-60000,-0,68481,713.198
step02_gravity_refstate-mantle.xmf,123,-1.01875e-06,3.97277e-06,0,1.03792e-07,-1.13615e+09,-1.13548e+09,-1.13601e+09,13871.8,0.003143,0.0744748,0,0.0745411,-20679.3,-41159.5,-0,46062.3,13871.8
step02_gravity_refstate-mantle.xmf,124,-7.66349e-07,4.83337e-06,0,7.87951e-07,-1.2096e+09,-1.20885e+09,-1.2095e+09,105310,0.0112038,0.109263,0,0.109836,-14265.1,-43432.3,-0,45715,105310
step02_gravity_refstate-mantle.xmf,125,-1.29806e-06,4.175e-06,0,2.40545e-07,-1.13448e+09,-1.13375e+09,-1.13431e+09,32148.9,0.00132698,0.0817763,0,0.081787,-19321.9,-41106.7,-0,45421.3,32148.9
step02_gravity_refstate-mantle.xmf,126,-1.16856e-06,4.42432e-06,0,2.8348e-07,-1.16672e+09,-1.16598e+09,-1.16657e+09,37887.1,0.00456677,0.0901222,0,0.0902378,-17309.6,-42104.2,-0,45523.4,37887.1
step02_gravity_refstate-mantle.xmf,127,-1.35658e-06,4.68449e-06,0,5.8075e-07,-1.17202e+09,-1.17121e+09,-1.17184e+09,77617.2,0.00339255,0.103364,0,0.10342,-15507.6,-42267.1,-0,45022.2,77617.2
step02_gravity_refstate-mantle.xmf,128,-1.34495e-06,4.82807e-06,0,7.77872e-07,-1.18051e+09,-1.17968e+09,-1.18033e+09,103963,0.00412174,0.110892,0,0.110969,-14545.1,-42529.8,-0,44948.2,103963
step02_gravity_refstate-mantle.xmf,129,-4.88263e-07,4.97147e-06,0,1.02507e-06,-1.22613e+09,-1.2254e+09,-1.22606e+09,137000,0.0150516,0.114451,0,0.115437,-13515.2,-43945.1,-0,45976.4,137000
step02_gravity_refstate-mantle.xmf,130,-4.58985e-07,3.32362e-06,0,3.85626e-08,-1.09854e+09,-1.09804e+09,-1.09848e+09,5153.89,0.00302613,0.0589901,0,0.0590677,-26077.3,-40000,-0,47749.6,5153.89
step02_gravity_refstate-mantle.xmf,131,-2.22855e-07,3.13974e-06,0,-1.94274e-09,-1.09851e+09,-1.09806e+09,-1.09848e+09,-259.647,0.00360884,0.0548426,0,0.0549612,-27786.5,-40000,-0,48704.1,259.647
step02_gravity_refstate-mantle.xmf,132,-7.23324e-07,3.5087e-06,0,1.09746e-07,-1.09859e+09,-1.09802e+09,-1.09849e+09,14667.6,0.00206383,0.0638057,0,0.0638391,-24449.7,-40000,-0,46880.6,14667.6
step02_gravity_refstate-mantle.xmf,133,1.36778e-07,5.0156e-06,0,1.08049e-06,-1.26103e+09,-1.26038e+09,-1.26105e+09,144408,0.0241928,0.108026,0,0.110702,-13612,-45027.5,-0,47040,144408
step02_gravity_refstate-mantle.xmf,134,3.96774e-07,4.83832e-06,0,7.73321e-07,-1.27629e+09,-1.2757e+09,-1.27634e+09,103354,0.0276362,0.0962031,0,0.100094,-14590.5,-45500.2,-0,47782.3,103354
step02_gravity_refstate-mantle.xmf,135,6.5242e-07,4.25928e-06,0,5.03513e-08,-1.2869e+09,-1.28642e+09,-1.28699e+09,6729.45,0.0283517,0.0727215,0,0.0780528,-17509.9,-45828.3,-0,49059.4,6729.45
step02_gravity_refstate-mantle.xmf,136,6.36999e-07,4.64279e-06,0,4.94007e-07,-1.29151e+09,-1.29098e+09,-1.2916e+09,66024.1,0.0304759,0.0852157,0,0.0905014,-15628.5,-45971.6,-0,48555.5,66024.1
step02_gravity_refstate-mantle.xmf,137,2.3666e-06,2.86992e-06,0,-4.93224e-07,-1.44183e+09,-1.44176e+09,-1.44215e+09,-65919.4,0.035665,0.0274576,0,0.0450101,-25524.3,-50621.9,-0,56692.7,65919.4
step02_gravity_refstate-mantle.xmf,138,3.0403e-06,2.44004e-06,0,-3.11838e-07,-1.56546e+09,-1.56554e+09,-1.56587e+09,-41677.1,0.0342217,0.0138465,0,0.0369168,-28732.2,-54444.3,-0,61560.7,41677.1
step02_gravity_refstate-mantle.xmf,139,3.27006e-06,2.2837e-06,0,-1.71555e-07,-1.6445e+09,-1.64463e+09,-1.64494e+09,-22928.4,0.030668,0.00727111,0,0.0315182,-30568.3,-56886.9,-0,64579.7,22928.4
step02_gravity_refstate-mantle.xmf,140,-1.55715e-06,4.37396e-06,0,3.91608e-07,-1.13357e+09,-1.13278e+09,-1.13336e+09,52338.4,-0.000653413,0.0896817,-0,0.0896841,-18042.9,-41077.3,-0,44865.3,52338.4
step02_gravity_refstate-mantle.xmf,141,-1.45771e-06,4.57839e-06,0,4.9496e-07,-1.15955e+09,-1.15874e+09,-1.15935e+09,66151.5,0.00180726,0.0983362,0,0.0983528,-16336,-41880.9,-0,44954.2,66151.5
step02_gravity_refstate-mantle.xmf,142,-1.84278e-06,4.82286e-06,0,8.43845e-07,-1.15451e+09,-1.15362e+09,-1.15426e+09,112780,-0.0018644,0.112304,-0,0.112319,-14804,-41723.3,-0,44271.8,112780
step02_gravity_refstate-mantle.xmf,143,-1.2942e-06,4.98364e-06,0,1.04928e-06,-1.18827e+09,-1.18743e+09,-1.1881e+09,140236,0.00475409,0.120562,0,0.120656,-13490,-42770.4,-0,44847.3,140236
step02_gravity_refstate-mantle.xmf,144,-8.2765e-07,5.12805e-06,0,1.3707e-06,-1.21229e+09,-1.2115e+09,-1.21218e+09,183195,0.0105788,0.127085,0,0.127525,-12598.5,-43515.8,-0,45302.9,183195
step02_gravity_refstate-mantle.xmf,145,-1.34909e-07,5.17649e-06,0,1.42026e-06,-1.24563e+09,-1.24492e+09,-1.24562e+09,189818,0.0201045,0.120815,0,0.122476,-12677.2,-44550.5,-0,46319.1,189818
step02_gravity_refstate-mantle.xmf,146,-4.50395e-07,5.32516e-06,0,1.81777e-06,-1.2312e+09,-1.23043e+09,-1.23114e+09,242945,0.015662,0.134496,0,0.135405,-11777,-44102.9,-0,45648.3,242945
step02_gravity_refstate-mantle.xmf,147,-8.86778e-08,5.60066e-06,0,2.37977e-06,-1.24796e+09,-1.2472e+09,-1.24795e+09,318056,0.0205842,0.142822,0,0.144297,-10982.4,-44623.8,-0,45955.3,318056
step02_gravity_refstate-mantle.xmf,148,-7.17846e-07,5.45817e-06,0,2.27363e-06,-1.21862e+09,-1.21779e+09,-1.21852e+09,303870,0.0111911,0.149096,0,0.149516,-10899.6,-43712.7,-0,45051.1,303870
step02_gravity_refstate-mantle.xmf,149,-1.00261e-06,3.70682e-06,0,1.97124e-07,-1.09863e+09,-1.098e+09,-1.0985e+09,26345.6,0.000729492,0.0693158,0,0.0693197,-22899.8,-40000,-0,46091.2,26345.6
step02_gravity_refstate-mantle.xmf,150,-1.29614e-06,3.90943e-06,0,3.07012e-07,-1.09868e+09,-1.09798e+09,-1.0985e+09,41032.1,-0.000963375,0.0755483,-0,0.0755545,-21423.9,-40000,-0,45376,41032.1
step02_gravity_refstate-mantle.xmf,151,1.75756e-07,5.45436e-06,0,1.93518e-06,-1.2624e+09,-1.2617e+09,-1.26242e+09,258636,0.0248253,0.128429,0,0.130806,-11841.3,-45071.2,-0,46600.8,258636
step02_gravity_refstate-mantle.xmf,152,2.16879e-06,3.08642e-06,0,-4.85843e-07,-1.41837e+09,-1.41825e+09,-1.41866e+09,-64932.9,0.0368015,0.0322501,0,0.0489328,-24113.5,-49896.5,-0,55417.6,64932.9
step02_gravity_refstate-mantle.xmf,153,1.95528e-06,3.3115e-06,0,-4.48938e-07,-1.39574e+09,-1.39556e+09,-1.396e+09,-60000.5,0.0372834,0.0377343,0,0.0530465,-22752.3,-49196.4,-0,54202.9,60000.5
step02_gravity_refstate-mantle.xmf,154,1.72207e-06,3.54378e-06,0,-3.79033e-07,-1.37327e+09,-1.37303e+09,-1.3735e+09,-50657.7,0.0370656,0.0440854,0,0.0575967,-21425.9,-48501.5,-0,53023.3,50657.7
step02_gravity_refstate-mantle.xmf,155,8.82534e-07,4.44229e-06,0,2.56399e-07,-1.30849e+09,-1.30801e+09,-1.3086e+09,34267.8,0.0330902,0.0750707,0,0.0820401,-16695.6,-46497,-0,49403.6,34267.8
step02_gravity_refstate-mantle.xmf,156,1.47657e-06,3.76442e-06,0,-2.83063e-07,-1.35136e+09,-1.35105e+09,-1.35155e+09,-37831.4,0.0360675,0.0510514,0,0.0625068,-20207.2,-47823.4,-0,51917.4,37831.4
step02_gravity_refstate-mantle.xmf,157,1.21048e-06,3.97516e-06,0,-1.6241e-07,-1.32887e+09,-1.3285e+09,-1.32903e+09,-21706.1,0.0342168,0.058892,0,0.0681107,-19049.6,-47127.5,-0,50832,21706.1
step02_gravity_refstate-mantle.xmf,158,1.09882e-06,4.23024e-06,0,4.9831e-08,-1.32393e+09,-1.32351e+09,-1.32408e+09,6659.91,0.0348272,0.0661192,0,0.0747307,-17801.2,-46974.9,-0,50234.7,6659.91
step02_gravity_refstate-mantle.xmf,159,2.71977e-06,2.87155e-06,0,-3.95939e-07,-1.50361e+09,-1.50359e+09,-1.50397e+09,-52917.2,0.0405235,0.0221324,0,0.0461736,-25417.9,-52532.6,-0,58358.7,52917.2
step02_gravity_refstate-mantle.xmf,160,2.89719e-06,2.62553e-06,0,-3.67492e-07,-1.53459e+09,-1.53463e+09,-1.53498e+09,-49115.3,0.0374739,0.017494,0,0.0413562,-27162.6,-53490.1,-0,59991.6,49115.3
step02_gravity_refstate-mantle.xmf,161,3.24263e-06,2.44411e-06,0,-2.00194e-07,-1.63467e+09,-1.63478e+09,-1.6351e+09,-26755.9,0.0360239,0.0085535,0,0.0370254,-28858.4,-56583.4,-0,63517.7,26755.9
step02_gravity_refstate-mantle.xmf,162,3.34349e-06,2.39137e-06,0,-9.72672e-08,-1.69189e+09,-1.69201e+09,-1.69233e+09,-12999.8,0.033864,0.00400899,0,0.0341005,-29815.6,-58351.4,-0,65527.5,12999.8
step02_gravity_refstate-mantle.xmf,163,3.37302e-06,2.36479e-06,0,3.59214e-09,-1.74525e+09,-1.74539e+09,-1.7457e+09,480.089,0.0305341,-5.94429e-20,0,0.0305341,-30889.1,-60000,-0,67484.3,480.089
step02_gravity_refstate-mantle.xmf,164,-1.60095e-06,4.11248e-06,0,4.4165e-07,-1.09873e+09,-1.09796e+09,-1.09851e+09,59026.5,-0.00299544,0.0825303,-0,0.0825847,-20018.5,-40000,-0,44729.6,59026.5
step02_gravity_refstate-mantle.xmf,165,-1.91411e-06,4.3125e-06,0,6.03503e-07,-1.09878e+09,-1.09794e+09,-1.09852e+09,80658.2,-0.00534356,0.0902875,-0,0.0904455,-18680.2,-40000,-0,44146.9,80658.2
step02_gravity_refstate-mantle.xmf,166,-1.86773e-06,4.57157e-06,0,6.04469e-07,-1.13123e+09,-1.13037e+09,-1.13098e+09,80787.3,-0.00327126,0.0989642,-0,0.0990183,-16774,-41003.5,-0,44301.9,80787.3
step02_gravity_refstate-mantle.xmf,167,-2.06643e-06,4.73747e-06,0,8.02187e-07,-1.1351e+09,-1.13419e+09,-1.13482e+09,107212,-0.00481237,0.108106,-0,0.108213,-15582.8,-41122,-0,43975.5,107212
step02_gravity_refstate-mantle.xmf,168,-1.9554e-06,4.95096e-06,0,1.05444e-06,-1.15585e+09,-1.15492e+09,-1.15559e+09,140926,-0.00319239,0.120837,-0,0.120879,-13928.8,-41764.2,-0,44025.7,140926
step02_gravity_refstate-mantle.xmf,169,-3.36662e-07,5.74276e-06,0,2.88602e-06,-1.23471e+09,-1.2339e+09,-1.23467e+09,385717,0.0161364,0.158317,0,0.159137,-10142.4,-44213.3,-0,45361.7,385717
step02_gravity_refstate-mantle.xmf,170,-1.12714e-06,5.2728e-06,0,1.83036e-06,-1.20179e+09,-1.20094e+09,-1.20164e+09,244627,0.00644182,0.141453,0,0.1416,-11621.2,-43189.9,-0,44726,244627
step02_gravity_refstate-mantle.xmf,171,2.49823e-07,5.99444e-06,0,3.08717e-06,-1.26453e+09,-1.26376e+09,-1.26456e+09,412600,0.0257983,0.151901,0,0.154076,-10202.4,-45138.9,-0,46277.5,412600
step02_gravity_refstate-mantle.xmf,172,4.46905e-07,5.82722e-06,0,2.57336e-06,-1.27822e+09,-1.2775e+09,-1.27828e+09,343930,0.0295822,0.13674,0,0.139904,-11031.6,-45562.7,-0,46879.2,343930
step02_gravity_refstate-mantle.xmf,173,4.52429e-07,5.30805e-06,0,1.5532e-06,-1.28021e+09,-1.27957e+09,-1.28027e+09,207585,0.0293639,0.114401,0,0.118109,-12745.4,-45623,-0,47369.8,207585
step02_gravity_refstate-mantle.xmf,174,8.95317e-07,4.94945e-06,0,8.95093e-07,-1.31383e+09,-1.31329e+09,-1.31395e+09,119629,0.0359687,0.089883,0,0.0968128,-14661.2,-46663.4,-0,48912.4,119629
step02_gravity_refstate-mantle.xmf,175,6.95338e-07,5.14612e-06,0,1.22504e-06,-1.29815e+09,-1.29756e+09,-1.29825e+09,163727,0.0332466,0.101586,0,0.106888,-13670.3,-46178.3,-0,48159.3,163727
step02_gravity_refstate-mantle.xmf,176,1.08889e-06,4.73487e-06,0,5.96641e-07,-1.3296e+09,-1.32911e+09,-1.32974e+09,79741,0.0381512,0.0791,0,0.0878199,-15704.8,-47151.2,-0,49697.9,79741
step02_gravity_refstate-mantle.xmf,177,2.4786e-06,3.07724e-06,0,-4.17429e-07,-1.46724e+09,-1.46716e+09,-1.46757e+09,-55789.4,0.0411292,0.0275548,0,0.0495063,-24131.2,-51408.1,-0,56790,55789.4
step02_gravity_refstate-mantle.xmf,178,3.13727e-06,2.61203e-06,0,-2.57736e-07,-1.60065e+09,-1.60072e+09,-1.60107e+09,-34446.4,0.0396878,0.0119649,0,0.0414521,-27390.5,-55532.4,-0,61920,34446.4
step02_gravity_refstate-mantle.xmf,179,-2.2323e-06,4.50536e-06,0,7.94903e-07,-1.09883e+09,-1.09793e+09,-1.09853e+09,106239,-0.00798184,0.0988446,-0,0.0991664,-17405.7,-40000,-0,43622.9,106239
step02_gravity_refstate-mantle.xmf,180,-2.44971e-06,4.90826e-06,0,1.12555e-06,-1.1283e+09,-1.12732e+09,-1.12797e+09,150430,-0.00889353,0.119566,-0,0.119896,-14463.6,-40910,-0,43391.5,150430
step02_gravity_refstate-mantle.xmf,181,-1.61182e-06,5.15791e-06,0,1.52113e-06,-1.18003e+09,-1.17913e+09,-1.17982e+09,203299,0.000639368,0.136048,0,0.13605,-12291.9,-42514.2,-0,44255.5,203299
step02_gravity_refstate-mantle.xmf,182,-1.77306e-07,6.328e-06,0,4.37118e-06,-1.23995e+09,-1.23908e+09,-1.23993e+09,584208,0.0175828,0.18557,0,0.186401,-8617.03,-44377.7,-0,45206.5,584208
step02_gravity_refstate-mantle.xmf,183,3.98424e-08,6.16199e-06,0,3.68647e-06,-1.25174e+09,-1.25092e+09,-1.25175e+09,492696,0.021776,0.16823,0,0.169634,-9393.75,-44742.9,-0,45718.4,492696
step02_gravity_refstate-mantle.xmf,184,-5.91171e-07,5.87282e-06,0,3.53309e-06,-1.22329e+09,-1.22243e+09,-1.22322e+09,472197,0.0117588,0.175059,0,0.175453,-9312.22,-43859.2,-0,44836.9,472197
step02_gravity_refstate-mantle.xmf,185,-1.12941e-06,5.53908e-06,0,2.81255e-06,-1.20227e+09,-1.20138e+09,-1.20212e+09,375898,0.004807,0.165647,0,0.165717,-10044.8,-43205.3,-0,44357.6,375898
step02_gravity_refstate-mantle.xmf,186,-1.35333e-06,5.37702e-06,0,2.27237e-06,-1.1938e+09,-1.1929e+09,-1.19362e+09,303702,0.00284556,0.154392,0,0.154418,-10826.4,-42941.8,-0,44285.5,303702
step02_gravity_refstate-mantle.xmf,187,3.46065e-07,6.74892e-06,0,4.6184e-06,-1.26773e+09,-1.26687e+09,-1.26778e+09,617249,0.0272961,0.178904,0,0.180974,-8667.7,-45240.3,-0,46063.1,617249
step02_gravity_refstate-mantle.xmf,188,6.52006e-07,5.66396e-06,0,2.12843e-06,-1.29332e+09,-1.29265e+09,-1.2934e+09,284465,0.0332386,0.122665,0,0.127088,-11874.9,-46029.9,-0,47537,284465
step02_gravity_refstate-mantle.xmf,189,2.28453e-06,3.30962e-06,0,-3.83555e-07,-1.44292e+09,-1.44279e+09,-1.44323e+09,-51262.2,0.0420901,0.0327713,0,0.0533435,-22803.6,-50656.2,-0,55552.3,51262.2
step02_gravity_refstate-mantle.xmf,190,2.08414e-06,3.55033e-06,0,-3.14555e-07,-1.42057e+09,-1.42037e+09,-1.42084e+09,-42040.2,0.0425638,0.0386291,0,0.0574794,-21509.7,-49964.8,-0,54398.1,42040.2
step02_gravity_refstate-mantle.xmf,191,1.87312e-06,3.7931e-06,0,-2.10268e-07,-1.39878e+09,-1.39852e+09,-1.39903e+09,-28102.3,0.0424133,0.0453048,0,0.0620598,-20258.8,-49291,-0,53291.9,28102.3
step02_gravity_refstate-mantle.xmf,192,1.28748e-06,4.51233e-06,0,3.39397e-07,-1.34638e+09,-1.34595e+09,-1.34655e+09,45360.3,0.039981,0.0692385,0,0.0799528,-16784.1,-47670.3,-0,50538.7,45360.3
step02_gravity_refstate-mantle.xmf,193,1.6599e-06,4.02749e-06,0,-7.382e-08,-1.37804e+09,-1.37772e+09,-1.37826e+09,-9866.05,0.0416716,0.0526731,0,0.0671638,-19076.9,-48649.5,-0,52256.1,9866.05
step02_gravity_refstate-mantle.xmf,194,1.47142e-06,4.27549e-06,0,1.15108e-07,-1.36182e+09,-1.36144e+09,-1.36201e+09,15384.1,0.0410417,0.0605804,0,0.0731738,-17900.1,-48147.8,-0,51367.6,15384.1
step02_gravity_refstate-mantle.xmf,195,2.68542e-06,3.12803e-06,0,-3.39953e-07,-1.50788e+09,-1.50783e+09,-1.50824e+09,-45434.8,0.0447749,0.0239713,0,0.050788,-23952.1,-52665,-0,57855.9,45434.8
step02_gravity_refstate-mantle.xmf,196,2.99595e-06,2.83409e-06,0,-2.97333e-07,-1.56736e+09,-1.56738e+09,-1.56776e+09,-39738.5,0.0431634,0.0160582,0,0.0460537,-25795.4,-54503.6,-0,60299.6,39738.5
step02_gravity_refstate-mantle.xmf,197,3.25635e-06,2.66954e-06,0,-1.69948e-07,-1.64849e+09,-1.64857e+09,-1.64892e+09,-22713.6,0.0417504,0.00816182,0,0.0425407,-27198.2,-57011,-0,63166.4,22713.6
step02_gravity_refstate-mantle.xmf,198,3.32945e-06,2.60641e-06,0,-9.87397e-08,-1.69324e+09,-1.69334e+09,-1.69369e+09,-13196.6,0.0400912,0.00425674,0,0.0403165,-27953.9,-58393.7,-0,64739.8,13196.6
step02_gravity_refstate-mantle.xmf,199,3.36691e-06,2.56693e-06,0,3.07359e-09,-1.74524e+09,-1.74535e+09,-1.74569e+09,410.786,0.0373602,-6.33837e-20,0,0.0373602,-28863.5,-60000,-0,66581.5,410.786
step02_gravity_refstate-mantle.xmf,200,1.31887e-07,6.93748e-06,0,5.41488e-06,-1.25535e+09,-1.25444e+09,-1.25537e+09,723699,0.0231814,0.19752,0,0.198876,-7914.02,-44856.9,-0,45549.7,723699
step02_gravity_refstate-mantle.xmf,201,-4.21829e-07,6.43426e-06,0,5.18705e-06,-1.22857e+09,-1.22766e+09,-1.22852e+09,693250,0.0130479,0.203859,0,0.204276,-7880.96,-44024.9,-0,44724.7,693250
step02_gravity_refstate-mantle.xmf,202,-2.2437e-06,5.09896e-06,0,1.4276e-06,-1.15144e+09,-1.15045e+09,-1.15114e+09,190798,-0.0066512,0.133595,-0,0.13376,-12856.1,-41626.4,-0,43566.5,190798
step02_gravity_refstate-mantle.xmf,203,-2.55495e-06,4.68792e-06,0,1.0176e-06,-1.09888e+09,-1.09792e+09,-1.09854e+09,136003,-0.0108811,0.108224,-0,0.10877,-16192.1,-40000,-0,43153.1,136003
step02_gravity_refstate-mantle.xmf,204,-2.72049e-06,5.05846e-06,0,1.43211e-06,-1.12654e+09,-1.1255e+09,-1.12617e+09,191402,-0.0120625,0.131042,-0,0.131596,-13410.5,-40854,-0,42998.7,191402
step02_gravity_refstate-mantle.xmf,205,-2.87274e-06,4.85545e-06,0,1.27524e-06,-1.09894e+09,-1.09791e+09,-1.09856e+09,170435,-0.0140137,0.11845,-0,0.119276,-15036.5,-40000,-0,42732.8,170435
step02_gravity_refstate-mantle.xmf,206,-8.01732e-07,5.98949e-06,0,4.24822e-06,-1.2138e+09,-1.2129e+09,-1.2137e+09,567775,0.00764542,0.19227,0,0.192422,-8535.52,-43564.9,-0,44393.2,567775
step02_gravity_refstate-mantle.xmf,207,-1.83174e-06,5.27286e-06,0,1.99655e-06,-1.17504e+09,-1.17409e+09,-1.17479e+09,266839,-0.00260467,0.150081,-0,0.150103,-11321.9,-42358.7,-0,43845.7,266839
step02_gravity_refstate-mantle.xmf,208,5.29446e-07,6.54594e-06,0,3.9492e-06,-1.28071e+09,-1.27991e+09,-1.28079e+09,527811,0.0311055,0.161876,0,0.164838,-9429.27,-45642.1,-0,46605.9,527811
step02_gravity_refstate-mantle.xmf,209,6.88556e-07,6.33825e-06,0,3.34462e-06,-1.29426e+09,-1.2935e+09,-1.29435e+09,447009,0.0345793,0.145661,0,0.149709,-10237.1,-46061,-0,47184.9,447009
step02_gravity_refstate-mantle.xmf,210,8.31453e-07,6.13449e-06,0,2.81012e-06,-1.30825e+09,-1.30754e+09,-1.30836e+09,375573,0.0377028,0.130638,0,0.135969,-11069.5,-46493.6,-0,47793.1,375573
step02_gravity_refstate-mantle.xmf,211,9.69471e-07,5.54412e-06,0,1.76002e-06,-1.32043e+09,-1.31982e+09,-1.32056e+09,235227,0.0390846,0.106448,0,0.113396,-12851.8,-46869.3,-0,48599.4,235227
step02_gravity_refstate-mantle.xmf,212,1.26426e-06,5.13035e-06,0,1.03917e-06,-1.35157e+09,-1.35105e+09,-1.35174e+09,138884,0.043531,0.0833557,0,0.0940378,-14736.5,-47832.1,-0,50050.7,138884
step02_gravity_refstate-mantle.xmf,213,1.11381e-06,5.3525e-06,0,1.39173e-06,-1.33607e+09,-1.3355e+09,-1.33622e+09,186005,0.0415786,0.0945416,0,0.103281,-13760.1,-47352.8,-0,49311.6,186005
step02_gravity_refstate-mantle.xmf,214,1.43239e-06,4.89418e-06,0,7.22591e-07,-1.36855e+09,-1.36809e+09,-1.36874e+09,96574.3,0.045243,0.0728096,0,0.0857215,-15771.5,-48357.1,-0,50864.1,96574.3
step02_gravity_refstate-mantle.xmf,215,2.53609e-06,3.33945e-06,0,-3.10991e-07,-1.48739e+09,-1.48728e+09,-1.48773e+09,-41563.9,0.0461115,0.0281631,0,0.0540318,-22819.5,-52031.6,-0,56815.6,41563.9
step02_gravity_refstate-mantle.xmf,216,2.86674e-06,3.07254e-06,0,-2.95838e-07,-1.54575e+09,-1.54572e+09,-1.54613e+09,-39538.8,0.0460902,0.0196747,0,0.0501139,-24390.3,-53835.8,-0,59103.1,39538.8
step02_gravity_refstate-mantle.xmf,217,3.166e-06,2.86667e-06,0,-1.99894e-07,-1.62514e+09,-1.62518e+09,-1.62556e+09,-26715.8,0.0453214,0.0109029,0,0.0466144,-25873,-56289.5,-0,61950.9,26715.8
step02_gravity_refstate-mantle.xmf,218,5.42735e-07,7.55042e-06,0,5.70004e-06,-1.28298e+09,-1.28205e+09,-1.28306e+09,761810,0.0326214,0.190427,0,0.193201,-7953.09,-45714.9,-0,46401.5,761810
step02_gravity_refstate-mantle.xmf,219,-1.36217e-07,7.11518e-06,0,6.31831e-06,-1.24258e+09,-1.24161e+09,-1.24256e+09,844442,0.0183764,0.217036,0,0.217812,-7213.05,-44461,-0,45042.3,844442
step02_gravity_refstate-mantle.xmf,220,-3.18839e-06,5.00204e-06,0,1.57197e-06,-1.099e+09,-1.0979e+09,-1.09857e+09,210093,-0.0173452,0.129541,-0,0.130697,-13936,-40000,-0,42358.1,210093
step02_gravity_refstate-mantle.xmf,221,-2.40906e-06,5.21392e-06,0,1.81002e-06,-1.15118e+09,-1.15016e+09,-1.15085e+09,241910,-0.00900792,0.146129,-0,0.146406,-11879.3,-41617.6,-0,43279.8,241910
step02_gravity_refstate-mantle.xmf,222,-1.28391e-06,5.66573e-06,0,3.54998e-06,-1.19677e+09,-1.19584e+09,-1.1966e+09,474455,0.0016688,0.183171,0,0.183178,-9136.78,-43034.7,-0,43993.9,474455
step02_gravity_refstate-mantle.xmf,223,-1.06268e-06,6.01877e-06,0,5.05248e-06,-1.203e+09,-1.20205e+09,-1.20286e+09,675264,0.00262036,0.21021,0,0.210226,-7821.3,-43229.5,-0,43931.3,675264
step02_gravity_refstate-mantle.xmf,224,-1.93221e-06,5.37755e-06,0,2.53355e-06,-1.17374e+09,-1.17276e+09,-1.17348e+09,338608,-0.00479779,0.164617,-0,0.164687,-10394.7,-42318.1,-0,43576.1,338608
step02_gravity_refstate-mantle.xmf,225,-6.83278e-07,6.499e-06,0,6.123e-06,-1.21713e+09,-1.21617e+09,-1.21704e+09,818338,0.00800414,0.22318,0,0.223323,-7184.16,-43669.8,-0,44256.7,818338
step02_gravity_refstate-mantle.xmf,226,6.98881e-07,7.27496e-06,0,4.91795e-06,-1.29597e+09,-1.29509e+09,-1.29607e+09,657285,0.0361589,0.172399,0,0.17615,-8686.09,-46116.4,-0,46927.3,657285
step02_gravity_refstate-mantle.xmf,227,9.58025e-07,5.93007e-06,0,2.33638e-06,-1.32174e+09,-1.32107e+09,-1.32187e+09,312257,0.0402778,0.117081,0,0.123816,-11913.2,-46910.6,-0,48399.7,312257
step02_gravity_refstate-mantle.xmf,228,2.35984e-06,3.59254e-06,0,-2.41183e-07,-1.46561e+09,-1.46545e+09,-1.46593e+09,-32234.2,0.047204,0.0335126,0,0.0578905,-21558.7,-51358.3,-0,55699.7,32234.2
step02_gravity_refstate-mantle.xmf,229,2.17179e-06,3.86186e-06,0,-1.28596e-07,-1.44437e+09,-1.44415e+09,-1.44466e+09,-17186.9,0.0478179,0.0397613,0,0.0621893,-20299.5,-50701.6,-0,54614.3,17186.9
step02_gravity_refstate-mantle.xmf,230,1.9782e-06,4.12805e-06,0,2.24686e-08,-1.42347e+09,-1.42318e+09,-1.42373e+09,3002.92,0.0478057,0.0468553,0,0.0669388,-19096.6,-50055.3,-0,53574.4,3002.92
step02_gravity_refstate-mantle.xmf,231,1.60787e-06,4.64756e-06,0,4.48561e-07,-1.38603e+09,-1.38562e+09,-1.38624e+09,59950.1,0.0465241,0.0632827,0,0.0785442,-16838.3,-48897.5,-0,51715.5,59950.1
step02_gravity_refstate-mantle.xmf,232,1.78879e-06,4.38886e-06,0,2.13115e-07,-1.40395e+09,-1.4036e+09,-1.40419e+09,28482.8,0.0473306,0.0546757,0,0.0723161,-17949.4,-49451.6,-0,52608.4,28482.8
step02_gravity_refstate-mantle.xmf,233,2.73372e-06,3.36631e-06,0,-2.46394e-07,-1.53002e+09,-1.52994e+09,-1.53039e+09,-32930.5,0.0491622,0.0235427,0,0.0545085,-22921.5,-53349.8,-0,58065.4,32930.5
step02_gravity_refstate-mantle.xmf,234,3.04107e-06,3.11089e-06,0,-2.12815e-07,-1.59797e+09,-1.59797e+09,-1.59838e+09,-28442.7,0.0486521,0.0146052,0,0.050797,-24455.5,-55450.2,-0,60603.6,28442.7
step02_gravity_refstate-mantle.xmf,235,3.27518e-06,2.91648e-06,0,-1.00035e-07,-1.68674e+09,-1.68679e+09,-1.68718e+09,-13369.7,0.0466281,0.00535583,0,0.0469347,-25945.4,-58193.3,-0,63715.1,13369.7
step02_gravity_refstate-mantle.xmf,236,3.33666e-06,2.83164e-06,0,3.48269e-09,-1.74522e+09,-1.74529e+09,-1.74567e+09,465.461,0.0438477,-8.40566e-20,0,0.0438477,-26927.8,-60000,-0,65765.5,465.461
step02_gravity_refstate-mantle.xmf,237,3.25577e-07,7.93289e-06,0,6.76369e-06,-1.27035e+09,-1.26934e+09,-1.2704e+09,903967,0.0287257,0.21224,0,0.214175,-7144.85,-45324.2,-0,45883.9,903967
step02_gravity_refstate-mantle.xmf,238,-2.98449e-06,5.17748e-06,0,1.7972e-06,-1.12536e+09,-1.12427e+09,-1.12496e+09,240195,-0.015306,0.143536,-0,0.14435,-12390.1,-40816.2,-0,42655.3,240195
step02_gravity_refstate-mantle.xmf,239,-3.49654e-06,5.12419e-06,0,1.91034e-06,-1.09905e+09,-1.0979e+09,-1.09859e+09,255317,-0.0208438,0.141521,-0,0.143048,-12888,-40000,-0,42025,255317
step02_gravity_refstate-mantle.xmf,240,-1.49073e-06,5.70019e-06,0,4.21949e-06,-1.1889e+09,-1.18794e+09,-1.18871e+09,563934,-0.0024226,0.199004,-0,0.199019,-8431.97,-42790.4,-0,43613.3,563934
step02_gravity_refstate-mantle.xmf,241,-1.93588e-06,5.45463e-06,0,3.10464e-06,-1.17446e+09,-1.17347e+09,-1.1742e+09,414935,-0.00609169,0.178402,-0,0.178506,-9593.33,-42340.6,-0,43413.8,414935
step02_gravity_refstate-mantle.xmf,242,-2.58776e-06,5.29037e-06,0,2.29573e-06,-1.14969e+09,-1.14863e+09,-1.14934e+09,306825,-0.0118984,0.160286,-0,0.160727,-10917.7,-41570.6,-0,42980.3,306825
step02_gravity_refstate-mantle.xmf,243,-1.31877e-06,5.95474e-06,0,5.99163e-06,-1.19214e+09,-1.19117e+09,-1.19197e+09,800781,-0.00286251,0.229281,-0,0.229299,-7136.1,-42892.2,-0,43481.8,800781
step02_gravity_refstate-mantle.xmf,244,8.3828e-07,7.02974e-06,0,4.25574e-06,-1.30997e+09,-1.30915e+09,-1.31009e+09,568779,0.0395134,0.155417,0,0.160362,-9446.56,-46549.2,-0,47498.1,568779
step02_gravity_refstate-mantle.xmf,245,9.62615e-07,6.77852e-06,0,3.63241e-06,-1.32442e+09,-1.32364e+09,-1.32455e+09,485471,0.0425003,0.139163,0,0.145508,-10260.8,-46995.7,-0,48102.8,485471
step02_gravity_refstate-mantle.xmf,246,1.06159e-06,6.51361e-06,0,3.0426e-06,-1.33808e+09,-1.33735e+09,-1.33823e+09,406643,0.0448719,0.124236,0,0.132091,-11110.3,-47417.7,-0,48701.9,406643
step02_gravity_refstate-mantle.xmf,247,1.1577e-06,6.29719e-06,0,2.57428e-06,-1.35203e+09,-1.35135e+09,-1.35219e+09,344052,0.0470361,0.11149,0,0.121006,-11901.8,-47848.7,-0,49306.7,344052
step02_gravity_refstate-mantle.xmf,248,1.50166e-06,5.37931e-06,0,1.17995e-06,-1.38913e+09,-1.38861e+09,-1.38933e+09,157700,0.0501877,0.0767611,0,0.0917119,-14797.1,-48994.7,-0,51180.4,157700
step02_gravity_refstate-mantle.xmf,249,1.25038e-06,5.91713e-06,0,2.00177e-06,-1.35948e+09,-1.35886e+09,-1.35965e+09,267537,0.0473967,0.0993111,0,0.110042,-12871.2,-48078.4,-0,49771.5,267537
step02_gravity_refstate-mantle.xmf,250,1.36313e-06,5.64301e-06,0,1.56462e-06,-1.37289e+09,-1.37231e+09,-1.37307e+09,209112,0.0487381,0.0877952,0,0.100416,-13811.8,-48492.6,-0,50421.2,209112
step02_gravity_refstate-mantle.xmf,251,1.66085e-06,5.111e-06,0,8.41801e-07,-1.40722e+09,-1.40676e+09,-1.40744e+09,112507,0.0514623,0.0664549,0,0.0840513,-15825.6,-49553.6,-0,52019.3,112507
step02_gravity_refstate-mantle.xmf,252,2.57085e-06,3.65126e-06,0,-1.74033e-07,-1.50953e+09,-1.50939e+09,-1.50987e+09,-23259.5,0.0510208,0.0284299,0,0.058407,-21623.8,-52716.4,-0,56979,23259.5
step02_gravity_refstate-mantle.xmf,253,2.89808e-06,3.40073e-06,0,-1.85467e-07,-1.57549e+09,-1.57543e+09,-1.57588e+09,-24787.6,0.0516762,0.0185725,0,0.0549123,-23053.6,-54755.6,-0,59410.8,24787.6
step02_gravity_refstate-mantle.xmf,254,3.15216e-06,3.1752e-06,0,-1.36205e-07,-1.64924e+09,-1.64923e+09,-1.64966e+09,-18203.8,0.0505592,0.0096248,0,0.0514671,-24456.1,-57034.6,-0,62056.8,18203.8
step02_gravity_refstate-mantle.xmf,255,7.53078e-07,8.19182e-06,0,5.99045e-06,-1.31047e+09,-1.30947e+09,-1.31057e+09,800624,0.040809,0.182813,0,0.187312,-7995.71,-46566.8,-0,47248.3,800624
step02_gravity_refstate-mantle.xmf,256,6.03266e-07,8.56292e-06,0,6.83971e-06,-1.29812e+09,-1.29706e+09,-1.2982e+09,914127,0.0377137,0.201232,0,0.204736,-7306.66,-46185.4,-0,46759.8,914127
step02_gravity_refstate-mantle.xmf,257,-1.13535e-08,7.985e-06,0,7.57853e-06,-1.25414e+09,-1.25307e+09,-1.25414e+09,1.01287e+06,0.0228376,0.231401,0,0.232525,-6566.61,-44821.2,-0,45299.7,1.01287e+06
step02_gravity_refstate-mantle.xmf,258,-4.23082e-07,7.22989e-06,0,7.40212e-06,-1.23041e+09,-1.22938e+09,-1.23035e+09,989294,0.013254,0.237672,0,0.238042,-6543.95,-44083.4,-0,44566.5,989294
step02_gravity_refstate-mantle.xmf,259,1.90715e-07,8.76054e-06,0,8.04976e-06,-1.27183e+09,-1.27069e+09,-1.27186e+09,1.07585e+06,0.0294319,0.230499,0,0.23237,-6432.17,-45371.2,-0,45824.8,1.07585e+06
step02_gravity_refstate-mantle.xmf,260,-3.21191e-06,5.26342e-06,0,2.21143e-06,-1.12485e+09,-1.12371e+09,-1.12442e+09,295557,-0.0184861,0.156897,-0,0.157982,-11416.9,-40799.1,-0,42366.3,295557
step02_gravity_refstate-mantle.xmf,261,-1.92158e-06,5.50658e-06,0,3.69137e-06,-1.17494e+09,-1.17394e+09,-1.17468e+09,493352,-0.00724006,0.191528,-0,0.191665,-8906.74,-42355.6,-0,43281.9,493352
step02_gravity_refstate-mantle.xmf,262,-1.78158e-06,5.61774e-06,0,4.97987e-06,-1.17796e+09,-1.17697e+09,-1.17772e+09,665560,-0.00812307,0.216201,-0,0.216354,-7759.81,-42450.1,-0,43153.5,665560
step02_gravity_refstate-mantle.xmf,263,-2.70359e-06,5.33982e-06,0,2.8455e-06,-1.14914e+09,-1.14806e+09,-1.14878e+09,380301,-0.0145121,0.175293,-0,0.175893,-10005.5,-41552.9,-0,42740.6,380301
step02_gravity_refstate-mantle.xmf,264,-9.14676e-07,6.48827e-06,0,7.25033e-06,-1.20666e+09,-1.20567e+09,-1.20654e+09,969006,0.00292506,0.243679,0,0.243697,-6511.93,-43344.8,-0,43831.2,969006
step02_gravity_refstate-mantle.xmf,265,8.53259e-07,7.86233e-06,0,5.2428e-06,-1.32259e+09,-1.32165e+09,-1.3227e+09,700700,0.0434735,0.166239,0,0.17183,-8681.62,-46941.1,-0,47737.2,700700
step02_gravity_refstate-mantle.xmf,266,2.39161e-06,3.95021e-06,0,-5.89115e-08,-1.48834e+09,-1.48813e+09,-1.48865e+09,-7873.52,0.0522537,0.0342565,0,0.0624817,-20360.6,-52061.3,-0,55901.1,7873.52
step02_gravity_refstate-mantle.xmf,267,2.20343e-06,4.25779e-06,0,1.04594e-07,-1.46719e+09,-1.46692e+09,-1.46749e+09,13979,0.0529032,0.0410517,0,0.0669626,-19130.4,-51407.7,-0,54851.8,13979
step02_gravity_refstate-mantle.xmf,268,2.0148e-06,4.56031e-06,0,3.12626e-07,-1.44668e+09,-1.44634e+09,-1.44695e+09,41782.5,0.0529773,0.0487042,0,0.0719632,-17961.1,-50773.7,-0,53856.9,41782.5
step02_gravity_refstate-mantle.xmf,269,1.83456e-06,4.83937e-06,0,5.5387e-07,-1.42673e+09,-1.42633e+09,-1.42698e+09,74024.8,0.052451,0.0570632,0,0.0775069,-16881,-50157,-0,52921.6,74024.8
step02_gravity_refstate-mantle.xmf,270,2.73329e-06,3.7243e-06,0,-1.15813e-07,-1.55409e+09,-1.55396e+09,-1.55445e+09,-15478.4,0.0541924,0.0232086,0,0.058953,-21689.6,-54094.1,-0,58280.5,15478.4
step02_gravity_refstate-mantle.xmf,271,3.02269e-06,3.46222e-06,0,-1.22589e-07,-1.62396e+09,-1.6239e+09,-1.62437e+09,-16384,0.0538279,0.0133578,0,0.0554605,-23111.8,-56253.8,-0,60816.5,16384
step02_gravity_refstate-mantle.xmf,272,3.19385e-06,3.32374e-06,0,-6.16591e-08,-1.69928e+09,-1.69926e+09,-1.69971e+09,-8240.74,0.052769,0.00477635,0,0.0529847,-24106.6,-58581.1,-0,63347.3,8240.74
step02_gravity_refstate-mantle.xmf,273,3.26896e-06,3.172e-06,0,1.38789e-09,-1.74521e+09,-1.74522e+09,-1.74565e+09,185.492,0.0499598,-7.88215e-20,0,0.0499598,-25077,-60000,-0,65029.6,185.492
step02_gravity_refstate-mantle.xmf,274,3.96383e-07,9.193e-06,0,7.94993e-06,-1.29045e+09,-1.28927e+09,-1.2905e+09,1.06251e+06,0.0356881,0.220956,0,0.22382,-6594.22,-45948.7,-0,46419.5,1.06251e+06
step02_gravity_refstate-mantle.xmf,275,-6.9055e-08,9.10895e-06,0,8.97498e-06,-1.26328e+09,-1.26206e+09,-1.26327e+09,1.19951e+06,0.0263189,0.247306,0,0.248702,-5931.85,-45106.2,-0,45494.6,1.19951e+06
step02_gravity_refstate-mantle.xmf,276,1.2152e-07,9.87423e-06,0,9.12032e-06,-1.2834e+09,-1.2821e+09,-1.28342e+09,1.21893e+06,0.0335339,0.240547,0,0.242873,-5959.73,-45731,-0,46117.7,1.21893e+06
step02_gravity_refstate-mantle.xmf,277,-3.78891e-06,5.21358e-06,0,2.29574e-06,-1.09911e+09,-1.09791e+09,-1.0986e+09,306825,-0.0244741,0.15441,-0,0.156338,-11890.1,-40000,-0,41729.8,306825
step02_gravity_refstate-mantle.xmf,278,-2.26226e-06,5.43416e-06,0,4.21306e-06,-1.16397e+09,-1.16294e+09,-1.16367e+09,563076,-0.0128503,0.204814,-0,0.205216,-8363.33,-42014.3,-0,42838.6,563076
step02_gravity_refstate-mantle.xmf,279,-2.74498e-06,5.35519e-06,0,3.52344e-06,-1.14953e+09,-1.14845e+09,-1.14916e+09,470907,-0.0169072,0.192437,-0,0.193178,-9076.03,-41564.9,-0,42544.3,470907
step02_gravity_refstate-mantle.xmf,280,-3.41973e-06,5.29282e-06,0,2.711e-06,-1.12419e+09,-1.12302e+09,-1.12373e+09,362325,-0.0218126,0.171395,-0,0.172777,-10481.7,-40777.3,-0,42102.9,362325
step02_gravity_refstate-mantle.xmf,281,-1.45899e-06,5.79039e-06,0,7.17973e-06,-1.18301e+09,-1.18204e+09,-1.18281e+09,959570,-0.00797571,0.250128,-0,0.250255,-6446.06,-42608.7,-0,43093.5,959570
step02_gravity_refstate-mantle.xmf,282,-2.03171e-06,5.41258e-06,0,5.9349e-06,-1.16708e+09,-1.16609e+09,-1.16681e+09,793199,-0.0143087,0.235841,-0,0.236275,-7055.6,-42111.9,-0,42698.9,793199
step02_gravity_refstate-mantle.xmf,283,1.05924e-06,7.28812e-06,0,3.85972e-06,-1.35501e+09,-1.35417e+09,-1.35515e+09,515851,0.0493932,0.131594,0,0.140559,-10322.2,-47942.4,-0,49041,515851
step02_gravity_refstate-mantle.xmf,284,9.67588e-07,7.72027e-06,0,4.68297e-06,-1.34156e+09,-1.34065e+09,-1.34168e+09,625880,0.0474013,0.149354,0,0.156696,-9378.69,-47527.4,-0,48443.9,625880
step02_gravity_refstate-mantle.xmf,285,7.54529e-07,8.84635e-06,0,6.26634e-06,-1.33433e+09,-1.33324e+09,-1.33443e+09,837496,0.0468999,0.176428,0,0.182555,-8000.13,-47305.6,-0,47977.3,837496
step02_gravity_refstate-mantle.xmf,286,1.14215e-06,6.97436e-06,0,3.25237e-06,-1.36863e+09,-1.36785e+09,-1.36878e+09,434679,0.0512417,0.117342,0,0.128043,-11150,-48362.9,-0,49631.6,434679
step02_gravity_refstate-mantle.xmf,287,1.23427e-06,6.68494e-06,0,2.71614e-06,-1.38285e+09,-1.38212e+09,-1.38301e+09,363012,0.0529206,0.104358,0,0.11701,-11983.6,-48802,-0,50251.8,363012
step02_gravity_refstate-mantle.xmf,288,1.62599e-06,5.67981e-06,0,1.28766e-06,-1.42676e+09,-1.42622e+09,-1.42698e+09,172096,0.0559475,0.0698967,0,0.0895303,-14854.3,-50158.6,-0,52311.9,172096
step02_gravity_refstate-mantle.xmf,289,1.47828e-06,5.98676e-06,0,1.70153e-06,-1.40882e+09,-1.40821e+09,-1.40901e+09,227410,0.0547807,0.0809198,0,0.0977186,-13858.8,-49604.1,-0,51503.7,227410
step02_gravity_refstate-mantle.xmf,290,1.35283e-06,6.30352e-06,0,2.1606e-06,-1.39421e+09,-1.39355e+09,-1.39439e+09,288765,0.0537017,0.092204,0,0.106703,-12925,-49152.8,-0,50823.7,288765
step02_gravity_refstate-mantle.xmf,291,1.79217e-06,5.37862e-06,0,9.30641e-07,-1.44699e+09,-1.44651e+09,-1.44723e+09,124380,0.0569727,0.0596799,0,0.0825081,-15876.8,-50783.7,-0,53207.7,124380
step02_gravity_refstate-mantle.xmf,292,2.55023e-06,4.05965e-06,0,-2.37198e-09,-1.5319e+09,-1.5317e+09,-1.53224e+09,-317.015,0.0559597,0.0287452,0,0.0629108,-20402.8,-53408.3,-0,57172.7,317.015
step02_gravity_refstate-mantle.xmf,293,2.85533e-06,3.8115e-06,0,-6.78578e-08,-1.60098e+09,-1.60085e+09,-1.60136e+09,-9069.2,0.0567979,0.017652,0,0.0594776,-21745.2,-55543.7,-0,59648.6,9069.2
step02_gravity_refstate-mantle.xmf,294,3.08875e-06,3.50902e-06,0,-8.62225e-08,-1.66601e+09,-1.66595e+09,-1.66642e+09,-11523.6,0.0550254,0.00876936,0,0.0557198,-23174.2,-57553.1,-0,62043.5,11523.6
step02_gravity_refstate-mantle.xmf,295,6.36737e-07,9.33458e-06,0,7.10448e-06,-1.32473e+09,-1.32357e+09,-1.32481e+09,949514,0.0450212,0.192956,0,0.198139,-7346.16,-47009.5,-0,47580.1,949514
step02_gravity_refstate-mantle.xmf,296,4.72156e-07,9.88261e-06,0,8.06505e-06,-1.31381e+09,-1.31255e+09,-1.31387e+09,1.07789e+06,0.0425435,0.211813,0,0.216043,-6681.95,-46672.6,-0,47148.5,1.07789e+06
step02_gravity_refstate-mantle.xmf,297,-3.30885e-07,8.20612e-06,0,8.82701e-06,-1.24237e+09,-1.24122e+09,-1.24232e+09,1.17973e+06,0.0180246,0.252969,0,0.25361,-5931.23,-44456,-0,44849.9,1.17973e+06
step02_gravity_refstate-mantle.xmf,298,-6.77014e-07,7.30188e-06,0,8.7158e-06,-1.22e+09,-1.21894e+09,-1.21991e+09,1.16487e+06,0.00840851,0.259212,0,0.259349,-5905.03,-43760.6,-0,44157.2,1.16487e+06
step02_gravity_refstate-mantle.xmf,299,-2.57984e-07,1.04723e-05,0,1.04197e-05,-1.27464e+09,-1.2732e+09,-1.2746e+09,1.39259e+06,0.0304285,0.261705,0,0.263468,-5361.98,-45459.2,-0,45774.3,1.39259e+06
step02_gravity_refstate-mantle.xmf,300,-1.07038e-06,6.36965e-06,0,8.62775e-06,-1.19729e+09,-1.1963e+09,-1.19715e+09,1.1531e+06,-0.00201271,0.265628,-0,0.265636,-5856.27,-43054,-0,43450.5,1.1531e+06
step02_gravity_refstate-mantle.xmf,301,-4.0594e-06,5.26066e-06,0,2.73376e-06,-1.09916e+09,-1.09792e+09,-1.09862e+09,365367,-0.0281972,0.168231,-0,0.170578,-10939.7,-40000,-0,41469,365367
step02_gravity_refstate-mantle.xmf,302,-2.57366e-06,5.26451e-06,0,4.94605e-06,-1.15316e+09,-1.15211e+09,-1.15281e+09,661040,-0.0190735,0.221681,-0,0.2225,-7706.43,-41677.8,-0,42384.3,661040
step02_gravity_refstate-mantle.xmf,303,-3.57459e-06,5.28087e-06,0,3.2724e-06,-1.12374e+09,-1.12255e+09,-1.12326e+09,437356,-0.025095,0.186887,-0,0.188564,-9591.43,-40762.3,-0,41875.6,437356
step02_gravity_refstate-mantle.xmf,304,8.35833e-07,8.47722e-06,0,5.60967e-06,-1.34327e+09,-1.34225e+09,-1.34338e+09,749732,0.0484882,0.162842,0,0.169908,-8582.51,-47581.5,-0,48349.4,749732
step02_gravity_refstate-mantle.xmf,305,2.36014e-06,4.40556e-06,0,1.6123e-07,-1.51088e+09,-1.51061e+09,-1.5112e+09,21548.4,0.057165,0.0350275,0,0.0670431,-19179.4,-52758.8,-0,56136.8,21548.4
step02_gravity_refstate-mantle.xmf,306,2.16608e-06,4.75848e-06,0,3.80597e-07,-1.4903e+09,-1.48995e+09,-1.49059e+09,50866.8,0.0578312,0.0422652,0,0.0716296,-17996.6,-52122.5,-0,55141.9,50866.8
step02_gravity_refstate-mantle.xmf,307,1.97104e-06,5.08474e-06,0,6.35516e-07,-1.46888e+09,-1.46846e+09,-1.46914e+09,84936.7,0.0577367,0.0504788,0,0.0766918,-16903.5,-51460.3,-0,54165.4,84936.7
step02_gravity_refstate-mantle.xmf,308,2.66464e-06,4.1791e-06,0,3.42687e-08,-1.57679e+09,-1.57659e+09,-1.57715e+09,4580.01,0.0590094,0.0229246,0,0.063306,-20447.6,-54796.1,-0,58486.9,4580.01
step02_gravity_refstate-mantle.xmf,309,2.93987e-06,3.92123e-06,0,-3.38433e-08,-1.65496e+09,-1.65483e+09,-1.65535e+09,-4523.16,0.0590406,0.0112061,0,0.0600947,-21735.4,-57211.9,-0,61201.5,4523.16
step02_gravity_refstate-mantle.xmf,310,3.05755e-06,3.77954e-06,0,-3.07557e-08,-1.7026e+09,-1.7025e+09,-1.70301e+09,-4110.5,0.0579602,0.00503398,0,0.0581784,-22461.1,-58683.9,-0,62835.5,4110.5
step02_gravity_refstate-mantle.xmf,311,3.15114e-06,3.60344e-06,0,4.68346e-10,-1.7452e+09,-1.74514e+09,-1.74562e+09,62.5944,0.055642,-8.24274e-20,0,0.055642,-23306.5,-60000,-0,64367.6,62.5944
step02_gravity_refstate-mantle.xmf,312,2.19052e-07,1.06086e-05,0,9.18066e-06,-1.3049e+09,-1.30351e+09,-1.30493e+09,1.22699e+06,0.0402701,0.231659,0,0.235133,-6032.29,-46397.5,-0,46788,1.22699e+06
step02_gravity_refstate-mantle.xmf,313,-1.45236e-07,1.14414e-05,0,1.04404e-05,-1.29576e+09,-1.29421e+09,-1.29574e+09,1.39535e+06,0.0375479,0.252902,0,0.255674,-5412.06,-46115,-0,46431.5,1.39535e+06
step02_gravity_refstate-mantle.xmf,314,-2.05847e-06,5.06693e-06,0,7.16607e-06,-1.1592e+09,-1.15825e+09,-1.15893e+09,957745,-0.019496,0.257568,-0,0.258305,-6330.73,-41867.5,-0,42343.4,957745
step02_gravity_refstate-mantle.xmf,315,-1.48422e-06,5.47175e-06,0,8.55224e-06,-1.17548e+09,-1.17455e+09,-1.17528e+09,1.14301e+06,-0.0125431,0.272035,-0,0.272324,-5783.45,-42375.1,-0,42767.9,1.14301e+06
step02_gravity_refstate-mantle.xmf,316,-4.42801e-07,9.55512e-06,0,1.03777e-05,-1.25354e+09,-1.25221e+09,-1.25348e+09,1.38698e+06,0.0223703,0.268958,0,0.269886,-5341.95,-44804,-0,45121.3,1.38698e+06
step02_gravity_refstate-mantle.xmf,317,-3.09308e-06,5.2197e-06,0,4.27074e-06,-1.13947e+09,-1.13836e+09,-1.13906e+09,570785,-0.023261,0.210267,-0,0.211549,-8299.86,-41251.5,-0,42078.2,570785
step02_gravity_refstate-mantle.xmf,318,-3.74938e-06,5.20495e-06,0,3.90224e-06,-1.12107e+09,-1.11988e+09,-1.12057e+09,521535,-0.0290957,0.203104,-0,0.205178,-8777.72,-40678.7,-0,41615,521535
step02_gravity_refstate-mantle.xmf,319,-4.29268e-06,5.25247e-06,0,3.2285e-06,-1.09921e+09,-1.09794e+09,-1.09864e+09,431489,-0.0319711,0.183007,-0,0.185779,-10034.7,-40000,-0,41239.5,431489
step02_gravity_refstate-mantle.xmf,320,-2.92274e-06,4.91122e-06,0,5.95551e-06,-1.13966e+09,-1.13862e+09,-1.13927e+09,795953,-0.0273216,0.2436,-0,0.245128,-6929.5,-41257.8,-0,41835.7,795953
step02_gravity_refstate-mantle.xmf,321,9.90051e-07,7.85119e-06,0,4.02466e-06,-1.38512e+09,-1.38421e+09,-1.38526e+09,537896,0.055099,0.123762,0,0.135473,-10377.8,-48873.7,-0,49963.4,537896
step02_gravity_refstate-mantle.xmf,322,4.86187e-07,1.00615e-05,0,7.30617e-06,-1.34752e+09,-1.34624e+09,-1.34758e+09,976470,0.050203,0.185618,0,0.192287,-7369.23,-47714.4,-0,48280.1,976470
step02_gravity_refstate-mantle.xmf,323,8.89163e-07,8.2858e-06,0,4.74528e-06,-1.37277e+09,-1.37178e+09,-1.37289e+09,634206,0.0536331,0.138678,0,0.148688,-9562.56,-48492.6,-0,49426.4,634206
step02_gravity_refstate-mantle.xmf,324,6.25377e-07,9.45437e-06,0,6.42981e-06,-1.35612e+09,-1.35494e+09,-1.35621e+09,859344,0.0515821,0.169527,0,0.177201,-8037.38,-47979.5,-0,48648.1,859344
step02_gravity_refstate-mantle.xmf,325,7.61767e-07,8.85112e-06,0,5.58458e-06,-1.36359e+09,-1.36251e+09,-1.36369e+09,746379,0.0525557,0.154336,0,0.163039,-8754.03,-48209.6,-0,48997.9,746379
step02_gravity_refstate-mantle.xmf,326,1.08983e-06,7.47943e-06,0,3.39546e-06,-1.39883e+09,-1.39797e+09,-1.39897e+09,453803,0.0565756,0.110045,0,0.123736,-11194.2,-49296.8,-0,50551.8,453803
step02_gravity_refstate-mantle.xmf,327,1.20765e-06,7.10583e-06,0,2.80631e-06,-1.41317e+09,-1.41238e+09,-1.41333e+09,375063,0.0578623,0.0970687,0,0.113006,-12059.4,-49739.6,-0,51180.7,375063
step02_gravity_refstate-mantle.xmf,328,1.65464e-06,6.0226e-06,0,1.34875e-06,-1.46458e+09,-1.464e+09,-1.46481e+09,180260,0.0608635,0.0627882,0,0.0874455,-14892.9,-51328,-0,53444.9,180260
step02_gravity_refstate-mantle.xmf,329,1.48989e-06,6.37079e-06,0,1.78014e-06,-1.44499e+09,-1.44434e+09,-1.44519e+09,237916,0.059928,0.0736033,0,0.0949148,-13908.6,-50722.6,-0,52595,237916
step02_gravity_refstate-mantle.xmf,330,1.34212e-06,6.73019e-06,0,2.26545e-06,-1.42808e+09,-1.42736e+09,-1.42826e+09,302778,0.0589252,0.0849999,0,0.103427,-12965.2,-50200,-0,51847.2,302778
step02_gravity_refstate-mantle.xmf,331,1.82618e-06,5.70008e-06,0,9.92702e-07,-1.4857e+09,-1.48518e+09,-1.48594e+09,132675,0.0616178,0.053199,0,0.0814057,-15850.9,-51980.5,-0,54343.6,132675
step02_gravity_refstate-mantle.xmf,332,2.45923e-06,4.57306e-06,0,1.91864e-07,-1.55523e+09,-1.55495e+09,-1.55556e+09,25642.6,0.0607238,0.0287893,0,0.0672027,-19207.6,-54129.7,-0,57436.6,25642.6
step02_gravity_refstate-mantle.xmf,333,2.73483e-06,4.31744e-06,0,5.00681e-08,-1.62388e+09,-1.62367e+09,-1.62424e+09,6691.6,0.0615136,0.0167446,0,0.0637519,-20446.2,-56251.4,-0,59852.1,6691.6
step02_gravity_refstate-mantle.xmf,334,3.35581e-07,1.06876e-05,0,8.24681e-06,-1.33736e+09,-1.33597e+09,-1.3374e+09,1.10219e+06,0.0482931,0.203342,0,0.208998,-6722.39,-47401,-0,47875.4,1.10219e+06
step02_gravity_refstate-mantle.xmf,335,1.28688e-07,1.14184e-05,0,9.28916e-06,-1.3273e+09,-1.32579e+09,-1.32732e+09,1.2415e+06,0.0461391,0.222445,0,0.22718,-6090.87,-47090.8,-0,47483.1,1.2415e+06
step02_gravity_refstate-mantle.xmf,336,-6.75029e-07,1.24227e-05,0,1.18916e-05,-1.28605e+09,-1.2843e+09,-1.28596e+09,1.58931e+06,0.0341525,0.276297,0,0.2784,-4807.16,-45813.8,-0,46065.4,1.58931e+06
step02_gravity_refstate-mantle.xmf,337,-1.92517e-06,4.60033e-06,0,8.48137e-06,-1.15426e+09,-1.15339e+09,-1.15401e+09,1.13353e+06,-0.0232195,0.278779,-0,0.279744,-5679.98,-41714.6,-0,42099.5,1.13353e+06
step02_gravity_refstate-mantle.xmf,338,-6.45509e-07,8.39349e-06,0,1.0357e-05,-1.23189e+09,-1.23069e+09,-1.23181e+09,1.38422e+06,0.013276,0.275732,0,0.276052,-5320.96,-44130.9,-0,44450.5,1.38422e+06
step02_gravity_refstate-mantle.xmf,339,-8.70772e-07,7.24425e-06,0,1.03235e-05,-1.21015e+09,-1.20906e+09,-1.21003e+09,1.37973e+06,0.00345433,0.282349,0,0.28237,-5283.94,-43454.7,-0,43774.8,1.37973e+06
step02_gravity_refstate-mantle.xmf,340,-7.7757e-07,1.11726e-05,0,1.20913e-05,-1.26467e+09,-1.26308e+09,-1.26457e+09,1.616e+06,0.0263996,0.285669,0,0.286886,-4765.06,-45149.7,-0,45400.4,1.616e+06
step02_gravity_refstate-mantle.xmf,341,-1.10306e-06,6.06737e-06,0,1.02297e-05,-1.18861e+09,-1.18766e+09,-1.18847e+09,1.3672e+06,-0.00682185,0.288504,-0,0.288585,-5237,-42785,-0,43104.3,1.3672e+06
step02_gravity_refstate-mantle.xmf,342,-3.46146e-06,4.95481e-06,0,5.00154e-06,-1.12773e+09,-1.12661e+09,-1.12727e+09,668455,-0.0305087,0.227653,-0,0.229688,-7626.58,-40885.7,-0,41590.9,668455
step02_gravity_refstate-mantle.xmf,343,-4.4758e-06,5.17556e-06,0,3.78946e-06,-1.09926e+09,-1.09797e+09,-1.09866e+09,506461,-0.0357455,0.198762,-0,0.20195,-9172.9,-40000,-0,41038.3,506461
step02_gravity_refstate-mantle.xmf,344,-2.61382e-06,4.36436e-06,0,7.3609e-06,-1.13761e+09,-1.13667e+09,-1.13726e+09,983784,-0.0306156,0.267847,-0,0.269591,-6095.69,-41194.9,-0,41643.4,983784
step02_gravity_refstate-mantle.xmf,345,2.24823e-06,4.97141e-06,0,4.02662e-07,-1.53434e+09,-1.53397e+09,-1.53464e+09,53815.7,0.0618262,0.0354698,0,0.0712782,-18042.5,-53483.9,-0,56445.2,53815.7
step02_gravity_refstate-mantle.xmf,346,2.01566e-06,5.43319e-06,0,7.10068e-07,-1.5151e+09,-1.51464e+09,-1.51537e+09,94900.5,0.0627398,0.0433948,0,0.076285,-16812.3,-52889.3,-0,55497.1,94900.5
step02_gravity_refstate-mantle.xmf,347,2.52068e-06,4.74356e-06,0,1.89777e-07,-1.60158e+09,-1.60128e+09,-1.60191e+09,25363.8,0.0635994,0.0220581,0,0.0673161,-19231.2,-55562.2,-0,58796.3,25363.8
step02_gravity_refstate-mantle.xmf,348,2.74795e-06,4.47686e-06,0,5.13739e-08,-1.66536e+09,-1.66513e+09,-1.66573e+09,6866.12,0.0633972,0.0112752,0,0.064392,-20313.2,-57533.4,-0,61014.1,6866.12
step02_gravity_refstate-mantle.xmf,349,2.86037e-06,4.31889e-06,0,9.16107e-09,-1.70201e+09,-1.70181e+09,-1.70239e+09,1224.38,0.0625836,0.00583419,0,0.062855,-20895.3,-58665.7,-0,62275.9,1224.38
step02_gravity_refstate-mantle.xmf,350,2.96939e-06,4.13721e-06,0,-5.38203e-10,-1.74519e+09,-1.74504e+09,-1.74559e+09,-71.9308,0.0608301,-9.30854e-20,0,0.0608301,-21611.7,-60000,-0,63773.6,71.9308
step02_gravity_refstate-mantle.xmf,351,-1.7781e-07,1.23049e-05,0,1.04679e-05,-1.31742e+09,-1.31575e+09,-1.31739e+09,1.39904e+06,0.0436915,0.243188,0,0.247082,-5470.29,-46785.8,-0,47104.5,1.39904e+06
step02_gravity_refstate-mantle.xmf,352,-6.58314e-07,1.34271e-05,0,1.18741e-05,-1.30744e+09,-1.30556e+09,-1.30735e+09,1.58697e+06,0.0407657,0.266375,0,0.269477,-4847.07,-46477.3,-0,46729.4,1.58697e+06
step02_gravity_refstate-mantle.xmf,353,-1.3517e-06,4.92401e-06,0,1.00848e-05,-1.1677e+09,-1.16686e+09,-1.16752e+09,1.34783e+06,-0.0172518,0.294476,-0,0.294981,-5171.02,-42134.4,-0,42450.6,1.34783e+06
step02_gravity_refstate-mantle.xmf,354,-8.89654e-07,9.92378e-06,0,1.2219e-05,-1.24291e+09,-1.24147e+09,-1.24279e+09,1.63307e+06,0.0175865,0.293639,0,0.294166,-4743.56,-44473.5,-0,44725.8,1.63307e+06
step02_gravity_refstate-mantle.xmf,355,-3.87236e-06,5.04604e-06,0,4.47897e-06,-1.11784e+09,-1.11665e+09,-1.11732e+09,598614,-0.0327386,0.216658,-0,0.219117,-8167.4,-40577.6,-0,41391.4,598614
step02_gravity_refstate-mantle.xmf,356,-4.5937e-06,5.01412e-06,0,4.42404e-06,-1.0993e+09,-1.09802e+09,-1.09869e+09,591274,-0.0394632,0.215517,-0,0.2191,-8352.15,-40000,-0,40862.7,591274
step02_gravity_refstate-mantle.xmf,357,-3.79839e-06,4.62451e-06,0,5.66903e-06,-1.11692e+09,-1.11579e+09,-1.11641e+09,757665,-0.0373392,0.242924,-0,0.245777,-7081.79,-40548.6,-0,41162.4,757665
step02_gravity_refstate-mantle.xmf,358,-2.26027e-06,3.86813e-06,0,8.54054e-06,-1.13747e+09,-1.13665e+09,-1.13717e+09,1.14144e+06,-0.0320613,0.286062,-0,0.287853,-5528.08,-41191.7,-0,41561,1.14144e+06
step02_gravity_refstate-mantle.xmf,359,-1.63452e-06,3.88165e-06,0,9.85813e-06,-1.14788e+09,-1.14715e+09,-1.14767e+09,1.31754e+06,-0.0274929,0.299917,-0,0.301175,-5095.9,-41517.7,-0,41829.3,1.31754e+06
step02_gravity_refstate-mantle.xmf,360,7.90208e-07,8.47061e-06,0,4.126e-06,-1.41489e+09,-1.41386e+09,-1.415e+09,551440,0.0597625,0.11592,0,0.130419,-10403.3,-49793.5,-0,50868.6,551440
step02_gravity_refstate-mantle.xmf,361,6.75339e-07,8.91112e-06,0,4.83621e-06,-1.40045e+09,-1.39935e+09,-1.40054e+09,646360,0.058218,0.130569,0,0.14296,-9613.12,-49347.7,-0,50275.3,646360
step02_gravity_refstate-mantle.xmf,362,1.65164e-08,1.15184e-05,0,8.37318e-06,-1.35971e+09,-1.35817e+09,-1.35971e+09,1.11908e+06,0.0526687,0.195146,0,0.202129,-6745.46,-48091.5,-0,48562.3,1.11908e+06
step02_gravity_refstate-mantle.xmf,363,2.07744e-07,1.07657e-05,0,7.39457e-06,-1.36946e+09,-1.36805e+09,-1.36948e+09,988284,0.0542659,0.17766,0,0.185763,-7412.78,-48392,-0,48956.4,988284
step02_gravity_refstate-mantle.xmf,364,5.45948e-07,9.43711e-06,0,5.62184e-06,-1.38846e+09,-1.38727e+09,-1.38854e+09,751358,0.0568259,0.145736,0,0.156423,-8847.58,-48977.9,-0,49770.7,751358
step02_gravity_refstate-mantle.xmf,365,3.85094e-07,1.00721e-05,0,6.48706e-06,-1.37861e+09,-1.37732e+09,-1.37867e+09,866996,0.0555817,0.161468,0,0.170767,-8105.58,-48674.3,-0,49344.6,866996
step02_gravity_refstate-mantle.xmf,366,9.20866e-07,8.05355e-06,0,3.46723e-06,-1.43083e+09,-1.42987e+09,-1.43095e+09,463395,0.0612553,0.101933,0,0.118922,-11231.5,-50285.5,-0,51524.6,463395
step02_gravity_refstate-mantle.xmf,367,1.06713e-06,7.63332e-06,0,2.85935e-06,-1.44674e+09,-1.44586e+09,-1.44688e+09,382152,0.0624652,0.089097,0,0.108813,-12091.9,-50776.8,-0,52196.8,382152
step02_gravity_refstate-mantle.xmf,368,1.60813e-06,6.38337e-06,0,1.36409e-06,-1.50026e+09,-1.49962e+09,-1.50047e+09,182311,0.0647813,0.0559831,0,0.0856196,-14887.4,-52430.6,-0,54503.2,182311
step02_gravity_refstate-mantle.xmf,369,1.41671e-06,6.78613e-06,0,1.80315e-06,-1.48059e+09,-1.47987e+09,-1.48077e+09,240991,0.0641735,0.0662357,0,0.0922248,-13926.2,-51822.6,-0,53661.2,240991
step02_gravity_refstate-mantle.xmf,370,1.23239e-06,7.21279e-06,0,2.30823e-06,-1.46307e+09,-1.46227e+09,-1.46323e+09,308495,0.0634307,0.077306,0,0.0999983,-12982.9,-51281.4,-0,52899.4,308495
step02_gravity_refstate-mantle.xmf,371,1.78294e-06,6.03877e-06,0,1.03733e-06,-1.5184e+09,-1.51783e+09,-1.51864e+09,138640,0.0650849,0.047884,0,0.0808017,-15732.7,-52991.3,-0,55277.4,138640
step02_gravity_refstate-mantle.xmf,372,2.28987e-06,5.17428e-06,0,3.78284e-07,-1.57916e+09,-1.57877e+09,-1.57947e+09,50557.7,0.064984,0.0282573,0,0.0708618,-18101.7,-54869.3,-0,57778.1,50557.7
step02_gravity_refstate-mantle.xmf,373,2.5444e-06,4.89856e-06,0,1.48432e-07,-1.6473e+09,-1.64699e+09,-1.64764e+09,19837.9,0.0656065,0.0152069,0,0.0673459,-19254.1,-56975.3,-0,60140.7,19837.9
step02_gravity_refstate-mantle.xmf,374,-1.39105e-06,1.46096e-05,0,1.35077e-05,-1.29673e+09,-1.29459e+09,-1.29654e+09,1.8053e+06,0.0370158,0.291662,0,0.294002,-4253.93,-46144.5,-0,46340.2,1.8053e+06
step02_gravity_refstate-mantle.xmf,375,-1.88946e-07,1.23142e-05,0,9.39456e-06,-1.34964e+09,-1.34797e+09,-1.34962e+09,1.25558e+06,0.050807,0.21343,0,0.219394,-6123.26,-47781.2,-0,48172,1.25558e+06
step02_gravity_refstate-mantle.xmf,376,-4.54494e-07,1.32422e-05,0,1.05186e-05,-1.33958e+09,-1.33775e+09,-1.33952e+09,1.40581e+06,0.0486907,0.233135,0,0.238166,-5516.4,-47470.9,-0,47790.3,1.40581e+06
step02_gravity_refstate-mantle.xmf,377,-1.39896e-06,1.34954e-05,0,1.37518e-05,-1.27622e+09,-1.27423e+09,-1.27603e+09,1.83793e+06,0.0301275,0.301371,0,0.302873,-4234.72,-45508.2,-0,45704.8,1.83793e+06
step02_gravity_refstate-mantle.xmf,378,-9.07699e-07,8.40701e-06,0,1.22397e-05,-1.22141e+09,-1.22017e+09,-1.22129e+09,1.63584e+06,0.00814887,0.300325,0,0.300435,-4729.27,-43805.5,-0,44060,1.63584e+06
step02_gravity_refstate-mantle.xmf,379,-9.28113e-07,6.92892e-06,0,1.22231e-05,-1.20045e+09,-1.1994e+09,-1.20032e+09,1.63362e+06,-0.00164554,0.306862,-0,0.306866,-4690.7,-43153.9,-0,43408,1.63362e+06
step02_gravity_refstate-mantle.xmf,380,-1.44364e-06,1.20544e-05,0,1.44846e-05,-1.25384e+09,-1.25204e+09,-1.25365e+09,1.93587e+06,0.0213989,0.314726,0,0.315452,-4124.7,-44812.9,-0,45002.3,1.93587e+06
step02_gravity_refstate-mantle.xmf,381,-9.4347e-07,5.45404e-06,0,1.20841e-05,-1.17991e+09,-1.17906e+09,-1.17979e+09,1.61503e+06,-0.0117019,0.312791,-0,0.31301,-4641.44,-42515.7,-0,42768.3,1.61503e+06
step02_gravity_refstate-mantle.xmf,382,-4.61551e-06,4.74018e-06,0,5.12865e-06,-1.09933e+09,-1.09808e+09,-1.09871e+09,685444,-0.0430577,0.23329,-0,0.23723,-7570.51,-40000,-0,40710.1,685444
step02_gravity_refstate-mantle.xmf,383,-3.53776e-06,4.27387e-06,0,6.5176e-06,-1.11855e+09,-1.1175e+09,-1.11807e+09,871078,-0.0388666,0.259734,-0,0.262626,-6456.26,-40599.7,-0,41109.8,871078
step02_gravity_refstate-mantle.xmf,384,-2.99051e-06,3.51979e-06,0,7.80246e-06,-1.1189e+09,-1.11803e+09,-1.1185e+09,1.0428e+06,-0.0411886,0.28288,-0,0.285863,-5689.94,-40612.3,-0,41009,1.0428e+06
step02_gravity_refstate-mantle.xmf,385,-2.09519e-06,3.00437e-06,0,9.38572e-06,-1.12868e+09,-1.128e+09,-1.1284e+09,1.2544e+06,-0.0376075,0.302578,-0,0.304906,-5078.87,-40919.1,-0,41233.1,1.2544e+06
step02_gravity_refstate-mantle.xmf,386,2.07689e-06,5.5635e-06,0,6.14898e-07,-1.55691e+09,-1.55645e+09,-1.55719e+09,82181.1,0.0656377,0.0351497,0,0.0744568,-17096.4,-54181.6,-0,56814.9,82181.1
step02_gravity_refstate-mantle.xmf,387,1.83139e-06,6.09326e-06,0,9.03814e-07,-1.54833e+09,-1.54776e+09,-1.54858e+09,120795,0.0670084,0.0407605,0,0.0784318,-16058.3,-53916.3,-0,56256.9,120795
step02_gravity_refstate-mantle.xmf,388,2.25222e-06,5.47118e-06,0,3.31861e-07,-1.62728e+09,-1.62685e+09,-1.62758e+09,44353.3,0.067968,0.020753,0,0.0710658,-17930.6,-56356.3,-0,59140,44353.3
step02_gravity_refstate-mantle.xmf,389,2.56349e-06,5.02675e-06,0,8.07414e-08,-1.69765e+09,-1.69732e+09,-1.69799e+09,10791.1,0.0669636,0.00747718,0,0.0673798,-19252.5,-58530.9,-0,61615.9,10791.1
step02_gravity_refstate-mantle.xmf,390,2.71133e-06,4.78526e-06,0,-2.21466e-09,-1.7452e+09,-1.74492e+09,-1.74556e+09,-295.989,0.0654454,-1.22172e-19,0,0.0654454,-19987.9,-60000,-0,63241.7,295.989
step02_gravity_refstate-mantle.xmf,391,-8.2628e-07,1.43581e-05,0,1.17599e-05,-1.32953e+09,-1.3275e+09,-1.32942e+09,1.57171e+06,0.0462461,0.254455,0,0.258623,-4923.93,-47161,-0,47417.4,1.57171e+06
step02_gravity_refstate-mantle.xmf,392,-1.57225e-06,1.60505e-05,0,1.34608e-05,-1.31875e+09,-1.31639e+09,-1.31854e+09,1.79904e+06,0.0429726,0.28238,0,0.285631,-4218.45,-46827.3,-0,47016.9,1.79904e+06
step02_gravity_refstate-mantle.xmf,393,-2.33301e-06,1.60246e-05,0,1.54713e-05,-1.28752e+09,-1.28506e+09,-1.2872e+09,2.06774e+06,0.0330816,0.316688,0,0.318411,-3729.04,-45857.3,-0,46008.7,2.06774e+06
step02_gravity_refstate-mantle.xmf,394,-9.95368e-07,4.04711e-06,0,1.1768e-05,-1.15988e+09,-1.1592e+09,-1.15974e+09,1.57279e+06,-0.0219015,0.317732,-0,0.318486,-4591.93,-41892.9,-0,42143.8,1.57279e+06
step02_gravity_refstate-mantle.xmf,395,-1.25862e-06,1.00098e-05,0,1.44544e-05,-1.23192e+09,-1.23042e+09,-1.23175e+09,1.93184e+06,0.0122554,0.319863,0,0.320097,-4180.37,-44131.8,-0,44329.4,1.93184e+06
step02_gravity_refstate-mantle.xmf,396,-4.50345e-06,4.30042e-06,0,5.9312e-06,-1.09934e+09,-1.09816e+09,-1.09874e+09,792705,-0.0464446,0.252098,-0,0.256341,-6826.09,-40000,-0,40578.3,792705
step02_gravity_refstate-mantle.xmf,397,-1.13803e-06,2.74307e-06,0,1.12402e-05,-1.13983e+09,-1.13931e+09,-1.13968e+09,1.50225e+06,-0.0324688,0.321748,-0,0.323382,-4543.8,-41269.4,-0,41518.8,1.50225e+06
step02_gravity_refstate-mantle.xmf,398,4.46419e-07,9.21478e-06,0,4.15695e-06,-1.44821e+09,-1.44704e+09,-1.44827e+09,555576,0.0639229,0.106941,0,0.12459,-10393.8,-50822.3,-0,51874.3,555576
step02_gravity_refstate-mantle.xmf,399,-6.88376e-07,1.3238e-05,0,9.41217e-06,-1.37134e+09,-1.36947e+09,-1.37124e+09,1.25794e+06,0.05425,0.204479,0,0.211553,-6140.09,-48450.4,-0,48837.9,1.25794e+06
step02_gravity_refstate-mantle.xmf,400,3.62563e-07,9.56577e-06,0,4.86079e-06,-1.42717e+09,-1.42594e+09,-1.42722e+09,649645,0.0618125,0.122797,0,0.137477,-9623.76,-50172.7,-0,51087.4,649645
step02_gravity_refstate-mantle.xmf,401,2.05779e-07,1.01221e-05,0,5.63921e-06,-1.414e+09,-1.41268e+09,-1.41403e+09,753681,0.0603988,0.137549,0,0.150225,-8877.78,-49766.4,-0,50552,753681
step02_gravity_refstate-mantle.xmf,402,-4.42203e-07,1.23516e-05,0,8.37427e-06,-1.38203e+09,-1.38032e+09,-1.38197e+09,1.11922e+06,0.0560529,0.186267,0,0.194518,-6776.1,-48780,-0,49248.4,1.11922e+06
step02_gravity_refstate-mantle.xmf,403,-2.06698e-07,1.15313e-05,0,7.39865e-06,-1.39245e+09,-1.39088e+09,-1.39242e+09,988830,0.0576419,0.169078,0,0.178633,-7447.32,-49101.3,-0,49662.9,988830
step02_gravity_refstate-mantle.xmf,404,1.42048e-08,1.07805e-05,0,6.48731e-06,-1.40274e+09,-1.4013e+09,-1.40274e+09,867029,0.0590434,0.152943,0,0.163944,-8148.9,-49418.7,-0,50086.1,867029
step02_gravity_refstate-mantle.xmf,405,6.55325e-07,8.6596e-06,0,3.4253e-06,-1.46443e+09,-1.46336e+09,-1.46452e+09,457791,0.0651839,0.0927671,0,0.113378,-11277.6,-51323.4,-0,52547.8,457791
step02_gravity_refstate-mantle.xmf,406,1.53891e-06,6.69676e-06,0,1.30476e-06,-1.53447e+09,-1.53378e+09,-1.53468e+09,174381,0.0678007,0.0488413,0,0.0835608,-14927.9,-53487.8,-0,55531.8,174381
step02_gravity_refstate-mantle.xmf,407,8.39368e-07,8.19628e-06,0,2.81923e-06,-1.48157e+09,-1.48058e+09,-1.48168e+09,376790,0.0663167,0.0803818,0,0.104207,-12113.7,-51852.7,-0,53248.9,376790
step02_gravity_refstate-mantle.xmf,408,1.29131e-06,7.20053e-06,0,1.75446e-06,-1.51583e+09,-1.51504e+09,-1.51601e+09,234483,0.067608,0.0585357,0,0.0894275,-13938.7,-52911.7,-0,54716.8,234483
step02_gravity_refstate-mantle.xmf,409,1.05059e-06,7.71312e-06,0,2.26571e-06,-1.49849e+09,-1.4976e+09,-1.49863e+09,302813,0.0671299,0.0690797,0,0.0963246,-12990.6,-52375.7,-0,53962.7,302813
step02_gravity_refstate-mantle.xmf,410,2.05356e-06,5.7809e-06,0,5.20168e-07,-1.59904e+09,-1.59854e+09,-1.59932e+09,69520.4,0.0682859,0.0276593,0,0.073675,-17126,-55483.4,-0,58066.4,69520.4
step02_gravity_refstate-mantle.xmf,411,2.32219e-06,5.44743e-06,0,2.0044e-07,-1.66754e+09,-1.66713e+09,-1.66786e+09,26788.7,0.0686479,0.0133525,0,0.0699344,-18276.2,-57600.4,-0,60430.4,26788.7
step02_gravity_refstate-mantle.xmf,412,-2.44373e-06,1.74061e-05,0,1.51548e-05,-1.30504e+09,-1.30239e+09,-1.30472e+09,2.02544e+06,0.0383995,0.308483,0,0.310864,-3705.1,-46401.5,-0,46549.2,2.02544e+06
step02_gravity_refstate-mantle.xmf,413,-9.75406e-07,1.42371e-05,0,1.05084e-05,-1.36121e+09,-1.35918e+09,-1.36108e+09,1.40445e+06,0.0523323,0.223301,0,0.229352,-5541.52,-48138.4,-0,48456.3,1.40445e+06
step02_gravity_refstate-mantle.xmf,414,-1.32595e-06,1.54079e-05,0,1.17107e-05,-1.35113e+09,-1.3489e+09,-1.35096e+09,1.56514e+06,0.0501742,0.24352,0,0.248635,-4958.59,-47827.6,-0,48084,1.56514e+06
step02_gravity_refstate-mantle.xmf,415,-2.29248e-06,1.48109e-05,0,1.60943e-05,-1.26957e+09,-1.26728e+09,-1.26926e+09,2.151e+06,0.0266707,0.327024,0,0.32811,-3689.28,-45300.1,-0,45450,2.151e+06
step02_gravity_refstate-mantle.xmf,416,-1.0028e-06,8.10654e-06,0,1.45034e-05,-1.21132e+09,-1.2101e+09,-1.21119e+09,1.93837e+06,0.00297666,0.326528,0,0.326542,-4160.6,-43492.3,-0,43690.8,1.93837e+06
step02_gravity_refstate-mantle.xmf,417,-7.43339e-07,6.23612e-06,0,1.44615e-05,-1.19109e+09,-1.19016e+09,-1.19099e+09,1.93278e+06,-0.00662186,0.333083,-0,0.333148,-4114.68,-42864.3,-0,43061.4,1.93278e+06
step02_gravity_refstate-mantle.xmf,418,-1.8123e-06,1.17501e-05,0,1.6856e-05,-1.23979e+09,-1.23798e+09,-1.23955e+09,2.2528e+06,0.0148312,0.340586,0,0.340908,-3662.21,-44375.7,-0,44526.5,2.2528e+06
step02_gravity_refstate-mantle.xmf,419,-5.04278e-07,4.4573e-06,0,1.41545e-05,-1.17166e+09,-1.17099e+09,-1.17159e+09,1.89175e+06,-0.0162291,0.338019,-0,0.338408,-4076.34,-42261,-0,42457.2,1.89175e+06
step02_gravity_refstate-mantle.xmf,420,-4.21172e-06,3.676e-06,0,6.81606e-06,-1.09933e+09,-1.09827e+09,-1.09876e+09,910967,-0.0495294,0.271947,-0,0.27642,-6117.1,-40000,-0,40465,910967
step02_gravity_refstate-mantle.xmf,421,-2.71551e-06,2.59752e-06,0,8.73342e-06,-1.11197e+09,-1.11126e+09,-1.1116e+09,1.16722e+06,-0.0464401,0.302569,-0,0.306113,-5120.14,-40397.7,-0,40720.9,1.16722e+06
step02_gravity_refstate-mantle.xmf,422,-1.61006e-06,1.58087e-06,0,1.04224e-05,-1.1177e+09,-1.11727e+09,-1.11748e+09,1.39295e+06,-0.044571,0.324716,-0,0.32776,-4504.99,-40579.5,-0,40828.8,1.39295e+06
step02_gravity_refstate-mantle.xmf,423,1.24922e-07,9.73933e-06,0,3.81538e-06,-1.48567e+09,-1.48439e+09,-1.48569e+09,509926,0.0673945,0.0932608,0,0.115063,-10640.5,-51978.7,-0,53056.6,509926
step02_gravity_refstate-mantle.xmf,424,1.77657e-06,6.35602e-06,0,8.05183e-07,-1.58625e+09,-1.58564e+09,-1.58649e+09,107613,0.0695324,0.0333534,0,0.0771181,-16087.4,-55087.9,-0,57388.9,107613
step02_gravity_refstate-mantle.xmf,425,1.45214e-06,6.99118e-06,0,1.1711e-06,-1.5709e+09,-1.57016e+09,-1.57109e+09,156517,0.0703365,0.0408225,0,0.0813247,-14993.9,-54613.1,-0,56634,156517
step02_gravity_refstate-mantle.xmf,426,1.8063e-06,6.44103e-06,0,5.8566e-07,-1.63027e+09,-1.62965e+09,-1.63051e+09,78273.5,0.0712342,0.0237591,0,0.075092,-16381.9,-56448,-0,58777.1,78273.5
step02_gravity_refstate-mantle.xmf,427,2.05857e-06,5.99756e-06,0,3.33317e-07,-1.6608e+09,-1.66027e+09,-1.66107e+09,44547.8,0.0705947,0.0160073,0,0.0723868,-17293.8,-57391.6,-0,59940.6,44547.8
step02_gravity_refstate-mantle.xmf,428,2.11199e-06,5.9976e-06,0,1.66487e-07,-1.70104e+09,-1.70052e+09,-1.70132e+09,22251,0.0710663,0.00826229,0,0.071545,-17521.6,-58635,-0,61197,22251
step02_gravity_refstate-mantle.xmf,429,2.36505e-06,5.55443e-06,0,-2.91649e-09,-1.74521e+09,-1.74478e+09,-1.74552e+09,-389.789,0.0693971,-1.49212e-19,0,0.0693971,-18430.4,-60000,-0,62766.9,389.789
step02_gravity_refstate-mantle.xmf,430,-1.81358e-06,1.68868e-05,0,1.30863e-05,-1.34118e+09,-1.33868e+09,-1.34094e+09,1.74898e+06,0.0476802,0.265872,0,0.270113,-4371.78,-47520.8,-0,47721.4,1.74898e+06
step02_gravity_refstate-mantle.xmf,431,-2.69107e-06,1.88257e-05,0,1.51155e-05,-1.32048e+09,-1.3176e+09,-1.32012e+09,2.02019e+06,0.042131,0.302042,0,0.304966,-3645.92,-46880.3,-0,47021.9,2.02019e+06
step02_gravity_refstate-mantle.xmf,432,-1.66948e-06,1.52314e-05,0,1.03378e-05,-1.38291e+09,-1.38065e+09,-1.38268e+09,1.38165e+06,0.0548809,0.212932,0,0.219891,-5563.01,-48806.3,-0,49122.3,1.38165e+06
step02_gravity_refstate-mantle.xmf,433,-3.62989e-06,1.92565e-05,0,1.71368e-05,-1.29759e+09,-1.29453e+09,-1.2971e+09,2.29034e+06,0.0348157,0.331905,0,0.333726,-3245.76,-46168,-0,46282,2.29034e+06
step02_gravity_refstate-mantle.xmf,434,-3.46389e-06,1.76689e-05,0,1.78644e-05,-1.28082e+09,-1.27799e+09,-1.28036e+09,2.38757e+06,0.029397,0.341571,0,0.342834,-3246.35,-45647.1,-0,45762.3,2.38757e+06
step02_gravity_refstate-mantle.xmf,435,-2.23489e-06,1.35587e-05,0,1.70138e-05,-1.25469e+09,-1.25258e+09,-1.25439e+09,2.2739e+06,0.0207205,0.338318,0,0.338952,-3585.53,-44837.7,-0,44980.9,2.2739e+06
step02_gravity_refstate-mantle.xmf,436,-3.15126e-07,2.75827e-06,0,1.36599e-05,-1.15226e+09,-1.15185e+09,-1.15222e+09,1.82564e+06,-0.0261965,0.342531,-0,0.343531,-4023.1,-41658.9,-0,41852.7,1.82564e+06
step02_gravity_refstate-mantle.xmf,437,-1.42339e-06,9.81451e-06,0,1.70263e-05,-1.22224e+09,-1.22074e+09,-1.22205e+09,2.27556e+06,0.00731566,0.346483,0,0.34656,-3661.9,-43831.1,-0,43983.8,2.27556e+06
step02_gravity_refstate-mantle.xmf,438,-3.69761e-06,2.84122e-06,0,7.80818e-06,-1.09929e+09,-1.09841e+09,-1.09879e+09,1.04356e+06,-0.0521894,0.292832,-0,0.297446,-5441.79,-40000,-0,40368.5,1.04356e+06
step02_gravity_refstate-mantle.xmf,439,-2.16949e-07,1.16591e-06,0,1.28532e-05,-1.13283e+09,-1.13265e+09,-1.1328e+09,1.71784e+06,-0.036587,0.345919,-0,0.347848,-3971.85,-41055.3,-0,41247,1.71784e+06
step02_gravity_refstate-mantle.xmf,440,3.40614e-08,1.00909e-05,0,4.76681e-06,-1.45115e+09,-1.4498e+09,-1.45115e+09,637084,0.0643932,0.115135,0,0.131918,-9652.39,-50912.5,-0,51819.4,637084
step02_gravity_refstate-mantle.xmf,441,-1.31884e-06,1.41514e-05,0,9.26126e-06,-1.39368e+09,-1.39162e+09,-1.39351e+09,1.23777e+06,0.0568129,0.194443,0,0.202573,-6167.36,-49138.8,-0,49524.3,1.23777e+06
step02_gravity_refstate-mantle.xmf,442,-2.04606e-07,1.08149e-05,0,5.59798e-06,-1.43825e+09,-1.43678e+09,-1.43822e+09,748170,0.063068,0.129911,0,0.144411,-8864.62,-50514.4,-0,51286.3,748170
step02_gravity_refstate-mantle.xmf,443,-4.51836e-07,1.15257e-05,0,6.39862e-06,-1.42755e+09,-1.42595e+09,-1.42749e+09,855175,0.061794,0.144052,0,0.156746,-8170.63,-50183.9,-0,50844.7,855175
step02_gravity_refstate-mantle.xmf,444,-1.01239e-06,1.31978e-05,0,8.24727e-06,-1.40499e+09,-1.40309e+09,-1.40485e+09,1.10225e+06,0.0586311,0.176686,0,0.18616,-6802.88,-49487.7,-0,49953.1,1.10225e+06
step02_gravity_refstate-mantle.xmf,445,-7.25489e-07,1.23269e-05,0,7.29086e-06,-1.41636e+09,-1.41461e+09,-1.41626e+09,974424,0.0603015,0.159813,0,0.170812,-7473.14,-49838.5,-0,50395.7,974424
step02_gravity_refstate-mantle.xmf,446,-1.47489e-07,1.03886e-05,0,4.51518e-06,-1.4725e+09,-1.47109e+09,-1.47248e+09,603453,0.0662986,0.105954,0,0.124987,-9851.61,-51571.7,-0,52504.2,603453
step02_gravity_refstate-mantle.xmf,447,3.4849e-07,9.21878e-06,0,3.2327e-06,-1.49938e+09,-1.49819e+09,-1.49942e+09,432051,0.0683422,0.0822746,0,0.106957,-11365.9,-52402.2,-0,53620.7,432051
step02_gravity_refstate-mantle.xmf,448,1.13034e-06,7.61375e-06,0,1.61847e-06,-1.55313e+09,-1.55226e+09,-1.55328e+09,216308,0.0704841,0.0498992,0,0.0863593,-13956.3,-54063.6,-0,55835.9,216308
step02_gravity_refstate-mantle.xmf,449,5.52298e-07,8.76689e-06,0,2.68677e-06,-1.51646e+09,-1.51536e+09,-1.51654e+09,359087,0.0693544,0.0712963,0,0.0994645,-12107.8,-52930.2,-0,54297.3,359087
step02_gravity_refstate-mantle.xmf,450,8.17826e-07,8.23051e-06,0,2.14685e-06,-1.53461e+09,-1.53362e+09,-1.53472e+09,286927,0.070129,0.0603683,0,0.0925333,-12964.9,-53491.3,-0,55040,286927
step02_gravity_refstate-mantle.xmf,451,-3.67744e-06,2.06367e-05,0,1.65076e-05,-1.31407e+09,-1.31082e+09,-1.31358e+09,2.20624e+06,0.0393873,0.321164,0,0.32357,-3257.03,-46680.4,-0,46793.8,2.20624e+06
step02_gravity_refstate-mantle.xmf,452,-2.72032e-06,1.89164e-05,0,1.45027e-05,-1.33552e+09,-1.33263e+09,-1.33516e+09,1.93828e+06,0.0454194,0.288036,0,0.291595,-3791.1,-47345.1,-0,47496.6,1.93828e+06
step02_gravity_refstate-mantle.xmf,453,-2.0865e-06,1.64912e-05,0,1.15e-05,-1.37258e+09,-1.3701e+09,-1.3723e+09,1.53697e+06,0.0527959,0.232367,0,0.23829,-4981.6,-48487.8,-0,48743.1,1.53697e+06
step02_gravity_refstate-mantle.xmf,454,-2.60585e-06,1.80085e-05,0,1.27698e-05,-1.3629e+09,-1.36015e+09,-1.36256e+09,1.70668e+06,0.0505297,0.252811,0,0.257812,-4418.47,-48189.3,-0,48391.5,1.70668e+06
step02_gravity_refstate-mantle.xmf,455,-3.19707e-06,1.60376e-05,0,1.86382e-05,-1.26451e+09,-1.26194e+09,-1.26408e+09,2.49099e+06,0.0234981,0.351088,0,0.351874,-3226.42,-45140.9,-0,45256.1,2.49099e+06
step02_gravity_refstate-mantle.xmf,456,-8.62477e-07,7.5354e-06,0,1.71997e-05,-1.20304e+09,-1.20192e+09,-1.20292e+09,2.29874e+06,-0.00136135,0.354345,-0,0.354347,-3606.97,-43235.9,-0,43386.1,2.29874e+06
step02_gravity_refstate-mantle.xmf,457,-2.55368e-07,5.2599e-06,0,1.70628e-05,-1.1836e+09,-1.18287e+09,-1.18357e+09,2.28044e+06,-0.0104945,0.360611,-0,0.360764,-3558.55,-42633.8,-0,42782.1,2.28044e+06
step02_gravity_refstate-mantle.xmf,458,-2.72646e-06,1.40297e-05,0,1.92323e-05,-1.24886e+09,-1.24662e+09,-1.24849e+09,2.5704e+06,0.0174744,0.359113,0,0.359538,-3212.28,-44655.4,-0,44770.8,2.5704e+06
step02_gravity_refstate-mantle.xmf,459,-2.11455e-06,1.18568e-05,0,1.95981e-05,-1.23261e+09,-1.23074e+09,-1.23233e+09,2.61929e+06,0.0109391,0.365888,0,0.366052,-3207.76,-44152.1,-0,44268.5,2.61929e+06
step02_gravity_refstate-mantle.xmf,460,2.87246e-07,2.89141e-06,0,1.65736e-05,-1.16349e+09,-1.16314e+09,-1.16353e+09,2.21507e+06,-0.0203597,0.36511,-0,0.365677,-3519.08,-42010.1,-0,42157.2,2.21507e+06
step02_gravity_refstate-mantle.xmf,461,-2.8534e-06,1.64239e-06,0,8.86185e-06,-1.0992e+09,-1.0986e+09,-1.09882e+09,1.18439e+06,-0.0542951,0.314727,-0,0.319376,-4798.49,-40000,-0,40286.8,1.18439e+06
step02_gravity_refstate-mantle.xmf,462,-2.52428e-07,-2.75486e-07,0,1.20246e-05,-1.11457e+09,-1.11457e+09,-1.11454e+09,1.60709e+06,-0.0468188,0.350427,-0,0.353541,-3871.88,-40487.2,-0,40671.9,1.60709e+06
step02_gravity_refstate-mantle.xmf,463,-5.25271e-07,1.11889e-05,0,5.31816e-06,-1.46076e+09,-1.45919e+09,-1.46069e+09,710772,0.0650666,0.120423,0,0.136877,-8998.31,-51208.4,-0,51993,710772
step02_gravity_refstate-mantle.xmf,464,-2.45266e-07,1.03158e-05,0,3.56112e-06,-1.51717e+09,-1.51576e+09,-1.51713e+09,475944,0.0696245,0.0832244,0,0.108507,-10670.5,-52950.6,-0,54015,475944
step02_gravity_refstate-mantle.xmf,465,-5.76596e-07,1.10195e-05,0,4.23204e-06,-1.50335e+09,-1.5018e+09,-1.50327e+09,565613,0.0684581,0.0953459,0,0.117377,-9890.13,-52523.3,-0,53446.3,565613
step02_gravity_refstate-mantle.xmf,466,1.35215e-06,7.28038e-06,0,9.73171e-07,-1.61063e+09,-1.60984e+09,-1.61081e+09,130064,0.0724549,0.0318582,0,0.0791496,-15046.1,-55840.6,-0,57832.2,130064
step02_gravity_refstate-mantle.xmf,467,9.44117e-07,8.02272e-06,0,1.40476e-06,-1.5919e+09,-1.59095e+09,-1.59202e+09,187746,0.0727859,0.0405835,0,0.0833355,-13947.1,-55261.1,-0,56993.9,187746
step02_gravity_refstate-mantle.xmf,468,1.65936e-06,6.82197e-06,0,4.19887e-07,-1.6739e+09,-1.67321e+09,-1.67412e+09,56117.9,0.073089,0.015305,0,0.0746743,-16146.1,-57795.8,-0,60008.8,56117.9
step02_gravity_refstate-mantle.xmf,469,1.91061e-06,6.46372e-06,0,-1.93727e-09,-1.74523e+09,-1.74462e+09,-1.74549e+09,-258.916,0.0725899,-1.16331e-19,0,0.0725899,-16934.8,-60000,-0,62344.1,258.916
step02_gravity_refstate-mantle.xmf,470,-3.71496e-06,2.145e-05,0,1.60255e-05,-1.32999e+09,-1.32663e+09,-1.3295e+09,2.14181e+06,0.0428632,0.309456,0,0.312411,-3290.45,-47174.1,-0,47288.7,2.14181e+06
step02_gravity_refstate-mantle.xmf,471,-5.16057e-06,2.42646e-05,0,1.75885e-05,-1.32354e+09,-1.31961e+09,-1.32285e+09,2.3507e+06,0.0396718,0.331564,0,0.333929,-2846.52,-46972.3,-0,47058.5,2.3507e+06
step02_gravity_refstate-mantle.xmf,472,-5.18416e-06,2.30457e-05,0,1.84552e-05,-1.30708e+09,-1.3033e+09,-1.30638e+09,2.46653e+06,0.0356927,0.344254,0,0.3461,-2833.33,-46460.4,-0,46546.7,2.46653e+06
step02_gravity_refstate-mantle.xmf,473,-3.30563e-06,1.99217e-05,0,1.41588e-05,-1.35435e+09,-1.35125e+09,-1.35391e+09,1.89232e+06,0.0480554,0.274197,0,0.278376,-3868.41,-47925.4,-0,48081.3,1.89232e+06
step02_gravity_refstate-mantle.xmf,474,-2.47584e-06,1.62163e-05,0,9.99434e-06,-1.40514e+09,-1.40264e+09,-1.40481e+09,1.33574e+06,0.0565113,0.202034,0,0.209788,-5569.44,-49490.3,-0,49802.6,1.33574e+06
step02_gravity_refstate-mantle.xmf,475,-2.96494e-06,1.7521e-05,0,1.10882e-05,-1.39392e+09,-1.39118e+09,-1.39352e+09,1.48194e+06,0.0543383,0.220944,0,0.227527,-4992.55,-49143.7,-0,49396.6,1.48194e+06
step02_gravity_refstate-mantle.xmf,476,-4.99069e-06,2.11317e-05,0,1.96091e-05,-1.29066e+09,-1.28717e+09,-1.28999e+09,2.62076e+06,0.0308438,0.355827,0,0.357162,-2827.89,-45949.8,-0,46036.7,2.62076e+06
step02_gravity_refstate-mantle.xmf,477,-4.56959e-06,1.90813e-05,0,2.06508e-05,-1.27437e+09,-1.2712e+09,-1.27375e+09,2.75998e+06,0.0254323,0.366439,0,0.367321,-2820.34,-45444,-0,45531.4,2.75998e+06
step02_gravity_refstate-mantle.xmf,478,9.40326e-07,6.27357e-07,0,1.58968e-05,-1.14292e+09,-1.14296e+09,-1.14304e+09,2.12461e+06,-0.030852,0.371244,-0,0.372524,-3415.95,-41373.2,-0,41514,2.12461e+06
step02_gravity_refstate-mantle.xmf,479,-1.36661e-06,9.44997e-06,0,1.99852e-05,-1.21467e+09,-1.21322e+09,-1.21448e+09,2.67102e+06,0.00334183,0.374026,0,0.374041,-3166.18,-43596.7,-0,43711.5,2.67102e+06
step02_gravity_refstate-mantle.xmf,480,1.64307e-06,6.91911e-07,0,1.88559e-05,-1.15455e+09,-1.15468e+09,-1.15477e+09,2.52009e+06,-0.0242708,0.391767,-0,0.392519,-3012.06,-41737.4,-0,41846,2.52009e+06
step02_gravity_refstate-mantle.xmf,481,7.66972e-07,3.39933e-06,0,2.02028e-05,-1.17469e+09,-1.17433e+09,-1.17479e+09,2.7001e+06,-0.0145454,0.392199,-0,0.392469,-2981.31,-42360.4,-0,42465.2,2.7001e+06
step02_gravity_refstate-mantle.xmf,482,-1.63066e-06,9.54496e-08,0,1.00333e-05,-1.09907e+09,-1.09883e+09,-1.09885e+09,1.34095e+06,-0.055662,0.33759,-0,0.342148,-4185.58,-40000,-0,40218.4,1.34095e+06
step02_gravity_refstate-mantle.xmf,483,9.38257e-07,-6.89674e-07,0,1.42051e-05,-1.12639e+09,-1.12661e+09,-1.12652e+09,1.89851e+06,-0.0399062,0.366604,-0,0.36877,-3511.85,-40859.3,-0,41009.9,1.89851e+06
step02_gravity_refstate-mantle.xmf,484,-2.07178e-06,1.51054e-05,0,8.96859e-06,-1.41711e+09,-1.41482e+09,-1.41684e+09,1.19865e+06,0.0585524,0.183898,0,0.192995,-6167.18,-49860,-0,50239.9,1.19865e+06
step02_gravity_refstate-mantle.xmf,485,-9.47444e-07,1.22224e-05,0,6.18458e-06,-1.45261e+09,-1.45085e+09,-1.45249e+09,826569,0.0638719,0.134374,0,0.148782,-8203.52,-50956.7,-0,51612.8,826569
step02_gravity_refstate-mantle.xmf,486,-1.33463e-06,1.31555e-05,0,7.06284e-06,-1.44164e+09,-1.4397e+09,-1.44146e+09,943948,0.0622925,0.1498,0,0.162235,-7478.37,-50617.5,-0,51167,943948
step02_gravity_refstate-mantle.xmf,487,-1.68105e-06,1.40695e-05,0,7.98423e-06,-1.42916e+09,-1.42705e+09,-1.42893e+09,1.06709e+06,0.0604893,0.166374,0,0.177029,-6811.8,-50231.9,-0,50691.7,1.06709e+06
step02_gravity_refstate-mantle.xmf,488,-1.00588e-06,1.19157e-05,0,5.02219e-06,-1.49052e+09,-1.4888e+09,-1.49039e+09,671216,0.0670414,0.109268,0,0.128196,-9040.58,-52126.6,-0,52904.8,671216
step02_gravity_refstate-mantle.xmf,489,2.74004e-08,9.73222e-06,0,2.99114e-06,-1.53099e+09,-1.52969e+09,-1.53099e+09,399766,0.0705543,0.0728619,0,0.101424,-11385.4,-53377.8,-0,54578.5,399766
step02_gravity_refstate-mantle.xmf,490,5.50038e-07,8.74756e-06,0,1.91771e-06,-1.57277e+09,-1.57167e+09,-1.57284e+09,256302,0.0725334,0.0505901,0,0.0884333,-12928.5,-54669.3,-0,56177.2,256302
step02_gravity_refstate-mantle.xmf,491,1.0908e-07,9.56661e-06,0,2.56661e-06,-1.55332e+09,-1.55206e+09,-1.55334e+09,343027,0.0718171,0.0626321,0,0.0952915,-11868,-54067.9,-0,55355.1,343027
step02_gravity_refstate-mantle.xmf,492,1.2146e-06,7.61103e-06,0,7.27296e-07,-1.65224e+09,-1.65139e+09,-1.65241e+09,97203.1,0.0741332,0.0224533,0,0.0774589,-14991.5,-57125.9,-0,59060.3,97203.1
step02_gravity_refstate-mantle.xmf,493,1.63673e-06,6.91173e-06,0,1.75066e-07,-1.71394e+09,-1.71324e+09,-1.71416e+09,23397.6,0.0737148,0.00673728,0,0.0740221,-16201.6,-59032.8,-0,61215.7,23397.6
step02_gravity_refstate-mantle.xmf,494,-7.3166e-06,2.76931e-05,0,1.99707e-05,-1.3163e+09,-1.31162e+09,-1.31532e+09,2.66908e+06,0.035402,0.356456,0,0.358209,-2418.81,-46742.8,-0,46805.4,2.66908e+06
step02_gravity_refstate-mantle.xmf,495,-4.25567e-06,2.20356e-05,0,1.54748e-05,-1.34702e+09,-1.34351e+09,-1.34645e+09,2.0682e+06,0.0453779,0.295778,0,0.299238,-3352.77,-47698,-0,47815.7,2.0682e+06
step02_gravity_refstate-mantle.xmf,496,-3.58736e-06,1.90961e-05,0,1.22491e-05,-1.3837e+09,-1.38067e+09,-1.38322e+09,1.63709e+06,0.0520071,0.2405,0,0.246059,-4435.57,-48827.9,-0,49029,1.63709e+06
step02_gravity_refstate-mantle.xmf,497,-4.39629e-06,2.10451e-05,0,1.34945e-05,-1.3746e+09,-1.3712e+09,-1.37401e+09,1.80355e+06,0.049451,0.260692,0,0.265341,-3894.88,-48546.3,-0,48702.3,1.80355e+06
step02_gravity_refstate-mantle.xmf,498,-4.00419e-06,1.69345e-05,0,2.1557e-05,-1.25874e+09,-1.25594e+09,-1.2582e+09,2.88109e+06,0.0198345,0.37601,0,0.376533,-2804.95,-44959.5,-0,45047,2.88109e+06
step02_gravity_refstate-mantle.xmf,499,-3.99015e-07,6.84189e-06,0,2.08462e-05,-1.19674e+09,-1.19577e+09,-1.19668e+09,2.7861e+06,-0.00457706,0.387748,-0,0.387775,-2998.63,-43042.6,-0,43146.9,2.7861e+06
step02_gravity_refstate-mantle.xmf,500,-3.1524e-06,1.43562e-05,0,2.21647e-05,-1.24251e+09,-1.24017e+09,-1.24209e+09,2.96232e+06,0.0137816,0.384161,0,0.384408,-2799.84,-44457.2,-0,44545.3,2.96232e+06
step02_gravity_refstate-mantle.xmf,501,-2.20586e-06,1.16879e-05,0,2.25688e-05,-1.22612e+09,-1.22426e+09,-1.22582e+09,3.01632e+06,0.00740108,0.391403,0,0.391473,-2788.83,-43950.5,-0,44038.9,3.01632e+06
step02_gravity_refstate-mantle.xmf,502,1.9063e-06,1.20213e-06,0,2.13748e-05,-1.16358e+09,-1.16367e+09,-1.16384e+09,2.85674e+06,-0.0193651,0.407134,-0,0.407594,-2732.29,-42019.4,-0,42108.1,2.85674e+06
step02_gravity_refstate-mantle.xmf,503,-7.08979e-06,2.55685e-05,0,2.15226e-05,-1.29999e+09,-1.29563e+09,-1.29905e+09,2.8765e+06,0.0311105,0.3703,0,0.371605,-2412.32,-46235.4,-0,46298.2,2.8765e+06
step02_gravity_refstate-mantle.xmf,504,1.62566e-06,-2.53072e-06,0,1.3851e-05,-1.11318e+09,-1.11374e+09,-1.1134e+09,1.85119e+06,-0.0470968,0.375615,-0,0.378556,-3303.06,-40451.1,-0,40585.7,1.85119e+06
step02_gravity_refstate-mantle.xmf,505,1.47919e-07,-1.98079e-06,0,1.1264e-05,-1.09885e+09,-1.09914e+09,-1.09887e+09,1.50544e+06,-0.0560966,0.361348,-0,0.365676,-3601.4,-40000,-0,40161.8,1.50544e+06
step02_gravity_refstate-mantle.xmf,506,-1.52137e-06,1.2899e-05,0,5.81592e-06,-1.48008e+09,-1.47815e+09,-1.47988e+09,777298,0.0654697,0.123482,0,0.139764,-8220.98,-51803,-0,52451.3,777298
step02_gravity_refstate-mantle.xmf,507,-5.44327e-07,1.07425e-05,0,3.19768e-06,-1.54786e+09,-1.54635e+09,-1.54779e+09,427370,0.0712905,0.0724976,0,0.101677,-10758.8,-53897.9,-0,54961.2,427370
step02_gravity_refstate-mantle.xmf,508,-9.94802e-07,1.15964e-05,0,3.8675e-06,-1.53395e+09,-1.53227e+09,-1.53382e+09,516891,0.0700124,0.0844703,0,0.109713,-9910.76,-53467.2,-0,54378,516891
step02_gravity_refstate-mantle.xmf,509,-1.47237e-06,1.25139e-05,0,4.60582e-06,-1.52001e+09,-1.51814e+09,-1.51981e+09,615568,0.0684197,0.0977575,0,0.119322,-9077.2,-53035.8,-0,53807,615568
step02_gravity_refstate-mantle.xmf,510,7.54882e-07,8.40803e-06,0,1.11672e-06,-1.63173e+09,-1.6307e+09,-1.63183e+09,149250,0.0745117,0.0306333,0,0.080563,-13907.8,-56491.1,-0,58177.9,149250
step02_gravity_refstate-mantle.xmf,511,3.00968e-07,9.19066e-06,0,1.59112e-06,-1.61116e+09,-1.60998e+09,-1.6112e+09,212654,0.0742788,0.0400765,0,0.0844006,-12904.6,-55854.9,-0,57326.2,212654
step02_gravity_refstate-mantle.xmf,512,1.06782e-06,7.95211e-06,0,3.6608e-07,-1.70229e+09,-1.70137e+09,-1.70244e+09,48926.6,0.0753887,0.0106582,0,0.0761383,-14854.2,-58671.8,-0,60523,48926.6
step02_gravity_refstate-mantle.xmf,513,1.33333e-06,7.53401e-06,0,-7.67e-09,-1.74527e+09,-1.74444e+09,-1.74545e+09,-1025.1,0.074927,-1.75374e-19,0,0.074927,-15496.7,-60000,-0,61968.9,1025.1
step02_gravity_refstate-mantle.xmf,514,-5.21998e-06,2.50275e-05,0,1.70403e-05,-1.3398e+09,-1.33575e+09,-1.3391e+09,2.27743e+06,0.0423632,0.317936,0,0.320746,-2877.23,-47476,-0,47563.1,2.27743e+06
step02_gravity_refstate-mantle.xmf,515,-7.18536e-06,2.90199e-05,0,1.85092e-05,-1.33242e+09,-1.32758e+09,-1.33146e+09,2.47376e+06,0.0386308,0.34162,0,0.343798,-2431.5,-47245.2,-0,47307.7,2.47376e+06
step02_gravity_refstate-mantle.xmf,516,-5.3782e-06,2.3406e-05,0,1.48534e-05,-1.36565e+09,-1.3618e+09,-1.36493e+09,1.98515e+06,0.0466257,0.281779,0,0.285611,-3382.76,-48269.3,-0,48387.7,1.98515e+06
step02_gravity_refstate-mantle.xmf,517,-3.31207e-06,1.70474e-05,0,9.45944e-06,-1.42762e+09,-1.4249e+09,-1.42718e+09,1.26425e+06,0.0573432,0.190657,0,0.199094,-5562.74,-50181.2,-0,50488.6,1.26425e+06
step02_gravity_refstate-mantle.xmf,518,-3.85253e-06,1.84363e-05,0,1.04828e-05,-1.41569e+09,-1.41272e+09,-1.41518e+09,1.40103e+06,0.0550653,0.208824,0,0.215962,-4996.64,-49812.7,-0,50062.7,1.40103e+06
step02_gravity_refstate-mantle.xmf,519,-4.5437e-06,2.00212e-05,0,1.15264e-05,-1.40448e+09,-1.4012e+09,-1.40387e+09,1.54051e+06,0.0525828,0.22784,0,0.233829,-4443.17,-49465.8,-0,49664.9,1.54051e+06
step02_gravity_refstate-mantle.xmf,520,-6.4285e-06,2.29618e-05,0,2.2917e-05,-1.28387e+09,-1.27994e+09,-1.28301e+09,3.06286e+06,0.0262817,0.382557,0,0.383459,-2410.32,-45735.1,-0,45798.6,3.06286e+06
step02_gravity_refstate-mantle.xmf,521,-5.55289e-06,2.01677e-05,0,2.40822e-05,-1.26761e+09,-1.26417e+09,-1.26686e+09,3.21858e+06,0.0210067,0.393679,0,0.394239,-2406.11,-45231.4,-0,45295.3,3.21858e+06
step02_gravity_refstate-mantle.xmf,522,2.56258e-06,-2.35663e-06,0,1.66381e-05,-1.12846e+09,-1.12912e+09,-1.1288e+09,2.22368e+06,-0.037751,0.391763,-0,0.393578,-2996.52,-40929.8,-0,41039.3,2.22368e+06
step02_gravity_refstate-mantle.xmf,523,-1.32987e-06,9.40503e-06,0,2.28441e-05,-1.21212e+09,-1.21068e+09,-1.21194e+09,3.05312e+06,0.00173907,0.397563,0,0.397567,-2761.41,-43518,-0,43605.5,3.05312e+06
step02_gravity_refstate-mantle.xmf,524,2.04213e-06,1.74991e-06,0,2.41063e-05,-1.17102e+09,-1.17106e+09,-1.17129e+09,3.2218e+06,-0.0153721,0.424824,-0,0.425102,-2432.32,-42251.5,-0,42321.5,3.2218e+06
step02_gravity_refstate-mantle.xmf,525,2.61675e-06,-1.50743e-06,0,1.87831e-05,-1.14202e+09,-1.14258e+09,-1.14237e+09,2.51036e+06,-0.0302333,0.399657,-0,0.400799,-2862.75,-41351.3,-0,41450.3,2.51036e+06
step02_gravity_refstate-mantle.xmf,526,3.06557e-06,-1.09508e-06,0,2.23025e-05,-1.15409e+09,-1.15465e+09,-1.1545e+09,2.98073e+06,-0.0232022,0.420617,-0,0.421256,-2503.47,-41728.1,-0,41803.1,2.98073e+06
step02_gravity_refstate-mantle.xmf,527,-1.05089e-05,3.40722e-05,0,2.16406e-05,-1.32473e+09,-1.31877e+09,-1.32333e+09,2.89227e+06,0.033447,0.368964,0,0.370477,-2000,-46998.5,-0,47041,2.89227e+06
step02_gravity_refstate-mantle.xmf,528,-9.69234e-06,3.08622e-05,0,2.39836e-05,-1.30863e+09,-1.3032e+09,-1.30733e+09,3.20541e+06,0.0299119,0.385198,0,0.386358,-2000,-46498.1,-0,46541.1,3.20541e+06
step02_gravity_refstate-mantle.xmf,529,-2.80948e-06,1.59447e-05,0,8.51914e-06,-1.44048e+09,-1.43797e+09,-1.4401e+09,1.13858e+06,0.0595533,0.172672,0,0.182653,-6170.75,-50578.9,-0,50953.9,1.13858e+06
step02_gravity_refstate-mantle.xmf,530,-1.94896e-06,1.39134e-05,0,6.69293e-06,-1.46746e+09,-1.46534e+09,-1.4672e+09,894510,0.063641,0.138883,0,0.15277,-7488.23,-51412.9,-0,51955.4,894510
step02_gravity_refstate-mantle.xmf,531,-2.38108e-06,1.49091e-05,0,7.58699e-06,-1.45415e+09,-1.45184e+09,-1.45383e+09,1.014e+06,0.0616509,0.155329,0,0.167117,-6805.61,-51001.5,-0,51453.6,1.014e+06
step02_gravity_refstate-mantle.xmf,532,-1.99369e-06,1.35189e-05,0,5.38578e-06,-1.50698e+09,-1.50491e+09,-1.50671e+09,719809,0.0665706,0.111915,0,0.130217,-8268.73,-52632.4,-0,53278,719809
step02_gravity_refstate-mantle.xmf,533,-1.97985e-07,1.00584e-05,0,2.14443e-06,-1.59314e+09,-1.59177e+09,-1.59311e+09,286603,0.0736355,0.0503657,0,0.0892126,-11901.8,-55296.9,-0,56563.2,286603
step02_gravity_refstate-mantle.xmf,534,5.47931e-07,8.80463e-06,0,7.7281e-07,-1.6718e+09,-1.67069e+09,-1.67187e+09,103286,0.0757101,0.0203501,0,0.0783974,-13777.8,-57728.5,-0,59349.8,103286
step02_gravity_refstate-mantle.xmf,535,-6.56018e-06,2.59013e-05,0,1.61957e-05,-1.35691e+09,-1.35257e+09,-1.35603e+09,2.16456e+06,0.0435281,0.303635,0,0.306739,-2904.1,-47997.8,-0,48085.6,2.16456e+06
step02_gravity_refstate-mantle.xmf,536,-5.44169e-06,2.19249e-05,0,1.25608e-05,-1.39436e+09,-1.39071e+09,-1.39364e+09,1.67875e+06,0.0498876,0.2472,0,0.252184,-3912.97,-49152.1,-0,49307.6,1.67875e+06
step02_gravity_refstate-mantle.xmf,537,-6.8345e-06,2.45267e-05,0,1.34789e-05,-1.38687e+09,-1.38268e+09,-1.38596e+09,1.80145e+06,0.0465937,0.266793,0,0.270831,-3362.61,-48918.1,-0,49033.5,1.80145e+06
step02_gravity_refstate-mantle.xmf,538,-4.53995e-06,1.72564e-05,0,2.49566e-05,-1.25166e+09,-1.24875e+09,-1.25105e+09,3.33545e+06,0.0155838,0.403061,0,0.403362,-2403.64,-44738.2,-0,44802.7,3.33545e+06
step02_gravity_refstate-mantle.xmf,539,6.80178e-07,4.79416e-06,0,2.44523e-05,-1.18684e+09,-1.18629e+09,-1.18693e+09,3.26805e+06,-0.00874276,0.420187,-0,0.420278,-2481.19,-42738.7,-0,42810.7,3.26805e+06
step02_gravity_refstate-mantle.xmf,540,-3.28681e-06,1.41595e-05,0,2.55124e-05,-1.23532e+09,-1.23299e+09,-1.23488e+09,3.40974e+06,0.00980605,0.41132,0,0.411437,-2398.18,-44233.9,-0,44298.8,3.40974e+06
step02_gravity_refstate-mantle.xmf,541,-1.99971e-06,1.10878e-05,0,2.57202e-05,-1.21948e+09,-1.21773e+09,-1.21921e+09,3.4375e+06,0.00401957,0.417392,0,0.417412,-2399.64,-43745.2,-0,43811,3.4375e+06
step02_gravity_refstate-mantle.xmf,542,-6.40813e-07,7.94142e-06,0,2.53389e-05,-1.20341e+09,-1.20227e+09,-1.20333e+09,3.38654e+06,-0.00206554,0.419974,-0,0.419979,-2433,-43250,-0,43318.4,3.38654e+06
step02_gravity_refstate-mantle.xmf,543,-8.70038e-06,2.75278e-05,0,2.57257e-05,-1.2925e+09,-1.28766e+09,-1.29134e+09,3.43824e+06,0.0256913,0.399796,0,0.400621,-2000,-45998.2,-0,46041.6,3.43824e+06
step02_gravity_refstate-mantle.xmf,544,4.01196e-06,-5.39769e-06,0,1.58497e-05,-1.11172e+09,-1.11298e+09,-1.11226e+09,2.11831e+06,-0.0462729,0.400788,-0,0.40345,-2777.61,-40414.6,-0,40510,2.11831e+06
step02_gravity_refstate-mantle.xmf,545,2.65924e-06,-4.76715e-06,0,1.25656e-05,-1.09854e+09,-1.09953e+09,-1.09889e+09,1.67939e+06,-0.0553245,0.385891,-0,0.389837,-3044.18,-40000,-0,40115.7,1.67939e+06
step02_gravity_refstate-mantle.xmf,546,-4.04334e-06,1.78465e-05,0,8.84188e-06,-1.45019e+09,-1.44726e+09,-1.44964e+09,1.18172e+06,0.057626,0.178472,0,0.187545,-5565.39,-50875.4,-0,51178.9,1.18172e+06
step02_gravity_refstate-mantle.xmf,547,-2.55548e-06,1.45501e-05,0,6.1809e-06,-1.4941e+09,-1.49181e+09,-1.49376e+09,826077,0.064471,0.127079,0,0.142498,-7495.86,-52233.4,-0,52768.6,826077
step02_gravity_refstate-mantle.xmf,548,-7.6697e-07,1.1044e-05,0,2.75405e-06,-1.57849e+09,-1.57692e+09,-1.57839e+09,368078,0.0726115,0.0611762,0,0.0949471,-10900.2,-54843.4,-0,55916.1,368078
step02_gravity_refstate-mantle.xmf,549,-1.35201e-06,1.20625e-05,0,3.40745e-06,-1.5647e+09,-1.56291e+09,-1.56452e+09,455406,0.0711607,0.0728408,0,0.101831,-9958.96,-54416,-0,55319.8,455406
step02_gravity_refstate-mantle.xmf,550,-1.9211e-06,1.30716e-05,0,4.11727e-06,-1.54994e+09,-1.54794e+09,-1.54968e+09,550273,0.0693336,0.0858421,0,0.110345,-9088.37,-53958.8,-0,54718.8,550273
step02_gravity_refstate-mantle.xmf,551,-2.49454e-06,1.41027e-05,0,4.85014e-06,-1.53567e+09,-1.53345e+09,-1.53533e+09,648222,0.0672491,0.099598,0,0.120176,-8278.28,-53516.7,-0,54153.2,648222
step02_gravity_refstate-mantle.xmf,552,7.86303e-08,9.57576e-06,0,1.19985e-06,-1.64915e+09,-1.64788e+09,-1.64916e+09,160360,0.0754657,0.0292566,0,0.0809384,-12856,-57027.7,-0,58458.9,160360
step02_gravity_refstate-mantle.xmf,553,-4.68181e-07,1.04793e-05,0,1.6898e-06,-1.63051e+09,-1.62905e+09,-1.63045e+09,225842,0.0747994,0.038585,0,0.084165,-11887.8,-56450.8,-0,57688.9,225842
step02_gravity_refstate-mantle.xmf,554,1.90711e-07,9.43766e-06,0,4.03121e-07,-1.71109e+09,-1.70986e+09,-1.71112e+09,53877.1,0.076455,0.0100483,0,0.0771125,-13317.9,-58941.6,-0,60427.5,53877.1
step02_gravity_refstate-mantle.xmf,555,6.43519e-07,8.73578e-06,0,-5.98658e-09,-1.74532e+09,-1.74424e+09,-1.7454e+09,-800.107,0.0762916,-1.80588e-19,0,0.0762916,-14111.6,-60000,-0,61637.2,800.107
step02_gravity_refstate-mantle.xmf,556,-6.82181e-06,2.97104e-05,0,1.85121e-05,-1.34856e+09,-1.34368e+09,-1.34765e+09,2.47414e+06,0.0401053,0.326271,0,0.328726,-2446.67,-47748,-0,47810.7,2.47414e+06
step02_gravity_refstate-mantle.xmf,557,-1.04387e-05,3.68456e-05,0,1.83319e-05,-1.34067e+09,-1.33435e+09,-1.33927e+09,2.45006e+06,0.0357106,0.351231,0,0.353042,-2000,-47498.2,-0,47540.3,2.45006e+06
step02_gravity_refstate-mantle.xmf,558,-8.08189e-06,2.72263e-05,0,1.47775e-05,-1.37456e+09,-1.36984e+09,-1.37348e+09,1.97502e+06,0.0434105,0.289408,0,0.292645,-2899.04,-48536.4,-0,48622.9,1.97502e+06
step02_gravity_refstate-mantle.xmf,559,-4.68513e-06,1.91314e-05,0,9.70447e-06,-1.43795e+09,-1.43477e+09,-1.43732e+09,1.297e+06,0.0551571,0.196011,0,0.203624,-4994.01,-50496.4,-0,50742.8,1.297e+06
step02_gravity_refstate-mantle.xmf,560,-5.45581e-06,2.08159e-05,0,1.06419e-05,-1.4261e+09,-1.42259e+09,-1.42537e+09,1.42228e+06,0.0524366,0.214547,0,0.220862,-4431.33,-50129.6,-0,50325.1,1.42228e+06
step02_gravity_refstate-mantle.xmf,561,-6.34632e-06,2.26511e-05,0,1.15492e-05,-1.41483e+09,-1.41096e+09,-1.41398e+09,1.54355e+06,0.0495729,0.233357,0,0.238565,-3906.4,-49780.2,-0,49933.3,1.54355e+06
step02_gravity_refstate-mantle.xmf,562,-7.50054e-06,2.40814e-05,0,2.7109e-05,-1.27636e+09,-1.27214e+09,-1.27536e+09,3.62312e+06,0.0210775,0.412684,0,0.413222,-2000,-45498.8,-0,45542.7,3.62312e+06
step02_gravity_refstate-mantle.xmf,563,-6.13082e-06,2.05638e-05,0,2.81545e-05,-1.2602e+09,-1.25663e+09,-1.25938e+09,3.76285e+06,0.0162156,0.423824,0,0.424135,-2000,-44999.8,-0,45044.2,3.76285e+06
step02_gravity_refstate-mantle.xmf,564,4.46017e-06,-4.05975e-06,0,2.08428e-05,-1.13738e+09,-1.13852e+09,-1.13798e+09,2.78564e+06,-0.0310474,0.422126,-0,0.423266,-2454.79,-41213.6,-0,41286.7,2.78564e+06
step02_gravity_refstate-mantle.xmf,565,2.19115e-06,2.47963e-06,0,2.84536e-05,-1.17901e+09,-1.17897e+09,-1.1793e+09,3.80282e+06,-0.0111575,0.452731,-0,0.452869,-2000,-42501.2,-0,42548.2,3.80282e+06
step02_gravity_refstate-mantle.xmf,566,3.99407e-06,-1.2044e-06,0,2.73787e-05,-1.16276e+09,-1.16346e+09,-1.16329e+09,3.65916e+06,-0.017508,0.453054,-0,0.453392,-2000,-42001.8,-0,42049.4,3.65916e+06
step02_gravity_refstate-mantle.xmf,567,5.41654e-06,-6.24013e-06,0,1.88527e-05,-1.12193e+09,-1.12349e+09,-1.12266e+09,2.51967e+06,-0.0388409,0.420838,-0,0.422627,-2432.4,-40737.3,-0,40809.9,2.51967e+06
step02_gravity_refstate-mantle.xmf,568,-3.6068e-06,1.68191e-05,0,7.95078e-06,-1.46527e+09,-1.46254e+09,-1.46479e+09,1.06262e+06,0.0598424,0.160951,0,0.171716,-6125.47,-51341.7,-0,51705.8,1.06262e+06
step02_gravity_refstate-mantle.xmf,569,-3.09729e-06,1.57265e-05,0,7.08139e-06,-1.48e+09,-1.47748e+09,-1.47958e+09,946427,0.0621481,0.143756,0,0.156614,-6765.72,-51797.2,-0,52237.2,946427
step02_gravity_refstate-mantle.xmf,570,-3.10029e-06,1.52045e-05,0,5.61582e-06,-1.52153e+09,-1.51909e+09,-1.52112e+09,750555,0.0648861,0.114438,0,0.131553,-7499.48,-53078.8,-0,53606,750555
step02_gravity_refstate-mantle.xmf,571,-1.07104e-06,1.14746e-05,0,2.25362e-06,-1.61335e+09,-1.61167e+09,-1.61321e+09,301197,0.0736216,0.0489897,0,0.0884315,-10912.8,-55919.1,-0,56974,301197
step02_gravity_refstate-mantle.xmf,572,-1.00118e-07,9.86254e-06,0,8.04573e-07,-1.68253e+09,-1.68119e+09,-1.68251e+09,107531,0.076126,0.0194476,0,0.0785708,-12774.2,-58058.3,-0,59447,107531
step02_gravity_refstate-mantle.xmf,573,-1.01498e-05,3.12685e-05,0,1.57686e-05,-1.36597e+09,-1.36044e+09,-1.36461e+09,2.10748e+06,0.0398329,0.309883,0,0.312433,-2466.36,-48267.5,-0,48330.5,2.10748e+06
step02_gravity_refstate-mantle.xmf,574,-8.90633e-06,2.77227e-05,0,1.33474e-05,-1.39042e+09,-1.38553e+09,-1.38923e+09,1.78387e+06,0.0425992,0.276987,0,0.280244,-2865.08,-49022.1,-0,49105.8,1.78387e+06
step02_gravity_refstate-mantle.xmf,575,-5.36979e-06,1.97525e-05,0,8.89196e-06,-1.46007e+09,-1.45671e+09,-1.45935e+09,1.18841e+06,0.0548648,0.182669,0,0.190731,-4999.24,-51176.6,-0,51420.2,1.18841e+06
step02_gravity_refstate-mantle.xmf,576,-7.09714e-06,2.42607e-05,0,1.23258e-05,-1.40451e+09,-1.40032e+09,-1.40357e+09,1.64734e+06,0.047257,0.249709,0,0.254141,-3517.55,-49460.6,-0,49585.5,1.64734e+06
step02_gravity_refstate-mantle.xmf,577,-8.74387e-06,2.67508e-05,0,1.22995e-05,-1.40432e+09,-1.39958e+09,-1.40315e+09,1.64383e+06,0.0434922,0.261141,0,0.264738,-3039.18,-49449.9,-0,49543.2,1.64383e+06
step02_gravity_refstate-mantle.xmf,578,-4.62611e-06,1.70004e-05,0,2.88804e-05,-1.244e+09,-1.24111e+09,-1.24338e+09,3.85987e+06,0.0111596,0.433207,0,0.433351,-2000,-44500.2,-0,44545.1,3.85987e+06
step02_gravity_refstate-mantle.xmf,579,2.90255e-07,6.15108e-06,0,2.90868e-05,-1.19527e+09,-1.19449e+09,-1.19531e+09,3.88745e+06,-0.00518728,0.450581,-0,0.45061,-2000,-43000.2,-0,43046.7,3.88745e+06
step02_gravity_refstate-mantle.xmf,580,-3.02506e-06,1.34117e-05,0,2.92761e-05,-1.22776e+09,-1.22556e+09,-1.22735e+09,3.91275e+06,0.00592163,0.440809,0,0.440849,-2000,-44000,-0,44045.4,3.91275e+06
step02_gravity_refstate-mantle.xmf,581,-1.43038e-06,9.76725e-06,0,2.93702e-05,-1.21152e+09,-1.21002e+09,-1.21133e+09,3.92533e+06,0.000485741,0.446606,0,0.446606,-2000,-43499.8,-0,43545.8,3.92533e+06
step02_gravity_refstate-mantle.xmf,582,5.83608e-06,-4.88694e-06,0,2.58075e-05,-1.14648e+09,-1.14791e+09,-1.14726e+09,3.44917e+06,-0.0243267,0.451541,-0,0.452196,-2000,-41501.9,-0,41550,3.44917e+06
step02_gravity_refstate-mantle.xmf,583,6.00885e-06,-8.27695e-06,0,1.75765e-05,-1.10985e+09,-1.11176e+09,-1.11065e+09,2.34909e+06,-0.0449893,0.421592,-0,0.423986,-2365.5,-40362.8,-0,40432,2.34909e+06
step02_gravity_refstate-mantle.xmf,584,6.51787e-06,-8.53952e-06,0,1.42829e-05,-1.09802e+09,-1.10003e+09,-1.09889e+09,1.90891e+06,-0.0529381,0.411061,-0,0.414456,-2511.47,-40000,-0,40078.8,1.90891e+06
step02_gravity_refstate-mantle.xmf,585,-4.6692e-06,1.84181e-05,0,8.2154e-06,-1.46976e+09,-1.46668e+09,-1.46914e+09,1.09799e+06,0.0574126,0.167982,0,0.177522,-5540.13,-51477.4,-0,51774.7,1.09799e+06
step02_gravity_refstate-mantle.xmf,586,-3.75947e-06,1.63612e-05,0,6.40058e-06,-1.50724e+09,-1.50456e+09,-1.50674e+09,855438,0.0622279,0.130606,0,0.144673,-6741.65,-52636,-0,53066,855438
step02_gravity_refstate-mantle.xmf,587,-1.68068e-06,1.24855e-05,0,2.87102e-06,-1.5969e+09,-1.59501e+09,-1.59667e+09,383712,0.071995,0.060401,0,0.0939764,-9993.96,-55409.4,-0,56303.5,383712
step02_gravity_refstate-mantle.xmf,588,-2.32217e-06,1.3555e-05,0,3.53972e-06,-1.58108e+09,-1.57896e+09,-1.58077e+09,473084,0.0699364,0.0729458,0,0.101055,-9101.67,-54919.3,-0,55668.3,473084
step02_gravity_refstate-mantle.xmf,589,-2.96525e-06,1.46406e-05,0,4.2342e-06,-1.56567e+09,-1.56332e+09,-1.56527e+09,565901,0.067567,0.0863959,0,0.109679,-8268.63,-54441.7,-0,55066.1,565901
step02_gravity_refstate-mantle.xmf,590,-3.61319e-06,1.57513e-05,0,4.95143e-06,-1.55015e+09,-1.54757e+09,-1.54967e+09,661759,0.0649431,0.100924,0,0.120013,-7486.58,-53960.9,-0,54477.8,661759
step02_gravity_refstate-mantle.xmf,591,-6.65998e-07,1.07895e-05,0,1.18444e-06,-1.66718e+09,-1.66565e+09,-1.66709e+09,158300,0.0755436,0.02656,0,0.0800766,-11883.9,-57582.8,-0,58796.3,158300
step02_gravity_refstate-mantle.xmf,592,-1.31689e-06,1.1825e-05,0,1.69262e-06,-1.64881e+09,-1.64705e+09,-1.64863e+09,226219,0.0743001,0.0362064,0,0.0826523,-10919.9,-57013.7,-0,58050,226219
step02_gravity_refstate-mantle.xmf,593,-7.02322e-07,1.08802e-05,0,5.68978e-07,-1.70791e+09,-1.70636e+09,-1.70781e+09,76043.9,0.0760927,0.0126793,0,0.0771418,-12000.4,-58840.9,-0,60052.1,76043.9
step02_gravity_refstate-mantle.xmf,594,-1.86744e-07,1.00993e-05,0,-9.21612e-09,-1.74538e+09,-1.74401e+09,-1.74536e+09,-1231.73,0.0765954,-2.25985e-19,0,0.0765954,-12775.3,-60000,-0,61345,1231.73
step02_gravity_refstate-mantle.xmf,595,-1.42526e-05,3.47602e-05,0,1.64266e-05,-1.35791e+09,-1.35136e+09,-1.356e+09,2.19541e+06,0.0350069,0.332307,0,0.334146,-2000,-48000,-0,48041.6,2.19541e+06
step02_gravity_refstate-mantle.xmf,596,-1.05584e-05,3.06199e-05,0,1.35847e-05,-1.38434e+09,-1.37883e+09,-1.38292e+09,1.8156e+06,0.0388112,0.293248,0,0.295805,-2444.32,-48830.4,-0,48891.5,1.8156e+06
step02_gravity_refstate-mantle.xmf,597,-6.22836e-06,2.13302e-05,0,9.62279e-06,-1.44862e+09,-1.44494e+09,-1.44779e+09,1.28609e+06,0.0518325,0.200123,0,0.206726,-4422.38,-50821.4,-0,51013.5,1.28609e+06
step02_gravity_refstate-mantle.xmf,598,-1.03831e-05,2.94253e-05,0,1.21975e-05,-1.40205e+09,-1.39673e+09,-1.40066e+09,1.63019e+06,0.0392452,0.273659,0,0.276459,-2580.27,-49375.7,-0,49443.1,1.63019e+06
step02_gravity_refstate-mantle.xmf,599,-8.60617e-06,2.57618e-05,0,1.10803e-05,-1.42382e+09,-1.41923e+09,-1.42267e+09,1.48088e+06,0.0444426,0.240497,0,0.244569,-3264.9,-50050.7,-0,50157.1,1.48088e+06
step02_gravity_refstate-mantle.xmf,600,-7.27786e-06,2.33319e-05,0,1.03549e-05,-1.43691e+09,-1.43282e+09,-1.43593e+09,1.38393e+06,0.0484297,0.218926,0,0.224219,-3851.4,-50457.6,-0,50604.4,1.38393e+06
step02_gravity_refstate-mantle.xmf,601,7.66616e-06,-8.53265e-06,0,2.35603e-05,-1.13019e+09,-1.13236e+09,-1.13121e+09,3.14884e+06,-0.0317006,0.448186,-0,0.449306,-2000,-41001.5,-0,41050.3,3.14884e+06
step02_gravity_refstate-mantle.xmf,602,9.32611e-06,-1.21629e-05,0,2.00971e-05,-1.11395e+09,-1.11682e+09,-1.1152e+09,2.68598e+06,-0.039678,0.443003,-0,0.444776,-2000,-40501.8,-0,40551.1,2.68598e+06
step02_gravity_refstate-mantle.xmf,603,-4.56105e-06,1.78951e-05,0,7.35956e-06,-1.49057e+09,-1.48757e+09,-1.48996e+09,983605,0.0589613,0.150429,0,0.161571,-5929.43,-52119.5,-0,52455.7,983605
step02_gravity_refstate-mantle.xmf,604,-5.83461e-06,1.99767e-05,0,7.96971e-06,-1.48327e+09,-1.47982e+09,-1.48249e+09,1.06515e+06,0.0546637,0.167358,0,0.176059,-5069.28,-51890.7,-0,52137.7,1.06515e+06
step02_gravity_refstate-mantle.xmf,605,-4.29501e-06,1.69277e-05,0,5.66654e-06,-1.53528e+09,-1.53244e+09,-1.5347e+09,757333,0.0620801,0.11619,0,0.131734,-6743.15,-53499.8,-0,53923.1,757333
step02_gravity_refstate-mantle.xmf,606,-1.9834e-06,1.28821e-05,0,2.27099e-06,-1.63064e+09,-1.62865e+09,-1.63037e+09,303518,0.0725228,0.0471877,0,0.086523,-9995.41,-56450.6,-0,57328.7,303518
step02_gravity_refstate-mantle.xmf,607,-1.17747e-05,3.2979e-05,0,1.39373e-05,-1.3742e+09,-1.36822e+09,-1.37262e+09,1.86272e+06,0.0358147,0.311376,0,0.313428,-2132.11,-48515.2,-0,48562,1.86272e+06
step02_gravity_refstate-mantle.xmf,608,-6.83165e-06,2.17172e-05,0,8.56824e-06,-1.47221e+09,-1.46839e+09,-1.47129e+09,1.14514e+06,0.0510275,0.184333,0,0.191265,-4431.38,-51546.9,-0,51737,1.14514e+06
step02_gravity_refstate-mantle.xmf,609,-1.06093e-05,2.89455e-05,0,1.09171e-05,-1.41843e+09,-1.41315e+09,-1.41702e+09,1.45907e+06,0.0386857,0.258005,0,0.26089,-2626.04,-49879.1,-0,49948.1,1.45907e+06
step02_gravity_refstate-mantle.xmf,610,1.28831e-05,-1.46382e-05,0,1.5714e-05,-1.09714e+09,-1.10082e+09,-1.09887e+09,2.10017e+06,-0.0479765,0.436092,-0,0.438723,-2000,-40000,-0,40050,2.10017e+06
step02_gravity_refstate-mantle.xmf,611,-5.07533e-06,1.82414e-05,0,6.37908e-06,-1.52073e+09,-1.51762e+09,-1.52005e+09,852564,0.0588129,0.132703,0,0.145152,-5999.44,-53048.7,-0,53386.9,852564
step02_gravity_refstate-mantle.xmf,612,-2.672e-06,1.39756e-05,0,2.90004e-06,-1.61312e+09,-1.6109e+09,-1.61277e+09,387591,0.070269,0.059335,0,0.0919694,-9102.27,-55907.8,-0,56643.9,387591
step02_gravity_refstate-mantle.xmf,613,-3.38563e-06,1.5115e-05,0,3.54454e-06,-1.59696e+09,-1.59449e+09,-1.59651e+09,473728,0.0676085,0.0722163,0,0.0989247,-8246.36,-55406.6,-0,56016.9,473728
step02_gravity_refstate-mantle.xmf,614,-4.10591e-06,1.62811e-05,0,4.22035e-06,-1.58036e+09,-1.57764e+09,-1.57981e+09,564050,0.0646115,0.0864937,0,0.107962,-7433.02,-54892.1,-0,55393.1,564050
step02_gravity_refstate-mantle.xmf,615,-4.76388e-06,1.73765e-05,0,4.89889e-06,-1.56332e+09,-1.56036e+09,-1.56269e+09,654737,0.0616288,0.10161,0,0.118839,-6719.17,-54364.2,-0,54777.9,654737
step02_gravity_refstate-mantle.xmf,616,-1.50296e-06,1.21036e-05,0,1.08293e-06,-1.68506e+09,-1.68324e+09,-1.68486e+09,144734,0.0747013,0.022843,0,0.0781159,-10911.1,-58132.8,-0,59147.9,144734
step02_gravity_refstate-mantle.xmf,617,-2.27223e-06,1.32796e-05,0,1.60057e-06,-1.66659e+09,-1.66451e+09,-1.66629e+09,213917,0.0727305,0.0328967,0,0.0798243,-9941.56,-57560.4,-0,58412.6,213917
step02_gravity_refstate-mantle.xmf,618,-1.13944e-06,1.15954e-05,0,-3.48068e-09,-1.74547e+09,-1.74376e+09,-1.74531e+09,-465.193,0.0757345,-1.72785e-19,0,0.0757345,-11483.3,-60000,-0,61089,465.193
step02_gravity_refstate-mantle.xmf,619,-1.28458e-05,3.41552e-05,0,1.25603e-05,-1.38649e+09,-1.38021e+09,-1.38477e+09,1.67869e+06,0.0328442,0.303423,0,0.305195,-1944.02,-48890.7,-0,48929.4,1.67869e+06
step02_gravity_refstate-mantle.xmf,620,-1.42034e-05,3.70666e-05,0,1.3485e-05,-1.37324e+09,-1.36639e+09,-1.37135e+09,1.80227e+06,0.0303602,0.323642,0,0.325063,-1705.74,-48479.9,-0,48509.9,1.80227e+06
step02_gravity_refstate-mantle.xmf,621,-1.19457e-05,3.21257e-05,0,1.20488e-05,-1.39654e+09,-1.39065e+09,-1.39494e+09,1.61032e+06,0.035082,0.287957,0,0.290086,-2175.64,-49202,-0,49250.1,1.61032e+06
step02_gravity_refstate-mantle.xmf,622,-7.9205e-06,2.36004e-05,0,9.0909e-06,-1.46063e+09,-1.45641e+09,-1.45957e+09,1.215e+06,0.0471164,0.202251,0,0.207667,-3826.48,-51186.7,-0,51329.5,1.215e+06
step02_gravity_refstate-mantle.xmf,623,-1.2613e-05,3.24148e-05,0,1.04989e-05,-1.41134e+09,-1.40533e+09,-1.40966e+09,1.40317e+06,0.0325541,0.275846,0,0.27776,-2051.95,-49655.5,-0,49697.9,1.40317e+06
step02_gravity_refstate-mantle.xmf,624,-9.24389e-06,2.58598e-05,0,9.45518e-06,-1.44912e+09,-1.44442e+09,-1.44788e+09,1.26369e+06,0.0427177,0.220991,0,0.225082,-3235.05,-50828.1,-0,50930.9,1.26369e+06
step02_gravity_refstate-mantle.xmf,625,-6.00045e-06,1.98231e-05,0,7.03313e-06,-1.50773e+09,-1.50428e+09,-1.50693e+09,939977,0.0550824,0.149618,0,0.159436,-5264.29,-52645.1,-0,52907.6,939977
step02_gravity_refstate-mantle.xmf,626,-7.28447e-06,2.18869e-05,0,7.50246e-06,-1.49658e+09,-1.49268e+09,-1.4956e+09,1.0027e+06,0.0500492,0.167858,0,0.175161,-4439.35,-52297,-0,52485.1,1.0027e+06
step02_gravity_refstate-mantle.xmf,627,-5.54234e-06,1.86488e-05,0,5.51218e-06,-1.54871e+09,-1.54548e+09,-1.54797e+09,736702,0.058168,0.116865,0,0.130541,-5992.45,-53910.9,-0,54242.9,736702
step02_gravity_refstate-mantle.xmf,628,-2.98329e-06,1.43644e-05,0,2.20422e-06,-1.64652e+09,-1.6442e+09,-1.64612e+09,294594,0.0703442,0.0448959,0,0.0834503,-9071.3,-56938.4,-0,57656.5,294594
step02_gravity_refstate-mantle.xmf,629,-1.64624e-06,1.23212e-05,0,4.80031e-07,-1.71866e+09,-1.7168e+09,-1.71844e+09,64156.1,0.0748087,0.01026,0,0.075509,-10857.3,-59170.6,-0,60158.4,64156.1
step02_gravity_refstate-mantle.xmf,630,-1.64377e-05,4.16219e-05,0,1.36853e-05,-1.35781e+09,-1.35005e+09,-1.35562e+09,1.82904e+06,0.0272921,0.347913,0,0.348982,-1499.28,-48000,-0,48023.4,1.82904e+06
step02_gravity_refstate-mantle.xmf,631,-8.377e-06,2.37016e-05,0,7.87266e-06,-1.48479e+09,-1.4805e+09,-1.48367e+09,1.05218e+06,0.0457484,0.184844,0,0.190421,-3813.71,-51930.4,-0,52070.2,1.05218e+06
step02_gravity_refstate-mantle.xmf,632,-1.25367e-05,3.12357e-05,0,8.99067e-06,-1.43063e+09,-1.42478e+09,-1.42896e+09,1.2016e+06,0.0316235,0.256408,0,0.258351,-2087.08,-50248.9,-0,50292.2,1.2016e+06
step02_gravity_refstate-mantle.xmf,633,-1.07956e-05,2.84312e-05,0,9.4936e-06,-1.43884e+09,-1.4336e+09,-1.4374e+09,1.26882e+06,0.03758,0.239534,0,0.242464,-2651.23,-50507,-0,50576.5,1.26882e+06
step02_gravity_refstate-mantle.xmf,634,-6.40845e-06,2.00539e-05,0,6.07189e-06,-1.53477e+09,-1.53123e+09,-1.53391e+09,811507,0.0542823,0.132879,0,0.143539,-5274.69,-53478,-0,53737.5,811507
step02_gravity_refstate-mantle.xmf,635,-3.72916e-06,1.55025e-05,0,2.80302e-06,-1.62906e+09,-1.62649e+09,-1.62856e+09,374624,0.0674897,0.0572068,0,0.0884731,-8222.71,-56396.9,-0,56993.1,374624
step02_gravity_refstate-mantle.xmf,636,-4.52309e-06,1.67218e-05,0,3.41749e-06,-1.6122e+09,-1.60936e+09,-1.61159e+09,456748,0.0641064,0.0706997,0,0.0954362,-7377.97,-55873.8,-0,56358.8,456748
step02_gravity_refstate-mantle.xmf,637,-5.2214e-06,1.78251e-05,0,4.0455e-06,-1.59431e+09,-1.59123e+09,-1.59362e+09,540681,0.0608057,0.0853608,0,0.104804,-6652.01,-55319.6,-0,55718.1,540681
step02_gravity_refstate-mantle.xmf,638,-5.9585e-06,1.89964e-05,0,4.63306e-06,-1.57749e+09,-1.57416e+09,-1.57669e+09,619208,0.0572233,0.100583,0,0.115722,-5948.27,-54798,-0,55119.9,619208
step02_gravity_refstate-mantle.xmf,639,-3.32287e-06,1.48226e-05,0,1.46745e-06,-1.68102e+09,-1.6786e+09,-1.68058e+09,196125,0.069958,0.0298717,0,0.0760687,-8934.09,-58003,-0,58687,196125
step02_gravity_refstate-mantle.xmf,640,-2.58601e-06,1.3743e-05,0,7.89321e-07,-1.70811e+09,-1.70593e+09,-1.70776e+09,105493,0.0724889,0.0159905,0,0.0742316,-9775.71,-58841.9,-0,59648.4,105493
step02_gravity_refstate-mantle.xmf,641,-2.21932e-06,1.3229e-05,0,-8.85407e-09,-1.74556e+09,-1.7435e+09,-1.74527e+09,-1183.35,0.0736377,-2.45581e-19,0,0.0736377,-10231.2,-60000,-0,60866.1,1183.35
step02_gravity_refstate-mantle.xmf,642,-1.71179e-05,4.16848e-05,0,1.0732e-05,-1.37278e+09,-1.36492e+09,-1.37049e+09,1.43434e+06,0.0229408,0.33553,0,0.336314,-1229.67,-48457.8,-0,48473.4,1.43434e+06
step02_gravity_refstate-mantle.xmf,643,-1.79776e-05,4.57561e-05,0,9.23213e-06,-1.3578e+09,-1.34929e+09,-1.3554e+09,1.23387e+06,0.0186835,0.360183,0,0.360668,-999.317,-48000,-0,48010.4,1.23387e+06
step02_gravity_refstate-mantle.xmf,644,-1.38449e-05,3.46724e-05,0,1.04922e-05,-1.40065e+09,-1.39417e+09,-1.3988e+09,1.40228e+06,0.0293475,0.29258,0,0.294049,-1751.25,-49322.9,-0,49354,1.40228e+06
step02_gravity_refstate-mantle.xmf,645,-1.5493e-05,3.77025e-05,0,1.01754e-05,-1.39031e+09,-1.3832e+09,-1.38824e+09,1.35994e+06,0.0252833,0.310306,0,0.311335,-1425.83,-49000.2,-0,49020.9,1.35994e+06
step02_gravity_refstate-mantle.xmf,646,-9.58359e-06,2.57301e-05,0,8.10209e-06,-1.47283e+09,-1.46811e+09,-1.47155e+09,1.08284e+06,0.0410097,0.202599,0,0.206707,-3207.11,-51557.9,-0,51657.6,1.08284e+06
step02_gravity_refstate-mantle.xmf,647,-1.39821e-05,3.36616e-05,0,8.18781e-06,-1.42415e+09,-1.41778e+09,-1.42228e+09,1.0943e+06,0.0261753,0.269701,0,0.270968,-1640.57,-50045.1,-0,50072,1.0943e+06
step02_gravity_refstate-mantle.xmf,648,-1.10135e-05,2.80145e-05,0,8.00364e-06,-1.4614e+09,-1.45618e+09,-1.45992e+09,1.06969e+06,0.0356469,0.220539,0,0.223402,-2612.45,-51201.1,-0,51267.7,1.06969e+06
step02_gravity_refstate-mantle.xmf,649,-7.47726e-06,2.17573e-05,0,6.49685e-06,-1.52191e+09,-1.518e+09,-1.52091e+09,868304,0.0496115,0.149689,0,0.157696,-4529.01,-53077.9,-0,53270.8,868304
step02_gravity_refstate-mantle.xmf,650,-8.62414e-06,2.35782e-05,0,6.75788e-06,-1.50942e+09,-1.50511e+09,-1.50826e+09,903191,0.0445416,0.166791,0,0.172636,-3822.76,-52689.1,-0,52827.6,903191
step02_gravity_refstate-mantle.xmf,651,-6.76135e-06,2.02686e-05,0,5.14506e-06,-1.56198e+09,-1.55837e+09,-1.56108e+09,687637,0.0532995,0.116112,0,0.12776,-5260.31,-54316.7,-0,54570.8,687637
step02_gravity_refstate-mantle.xmf,652,-4.026e-06,1.58578e-05,0,2.05937e-06,-1.66066e+09,-1.65801e+09,-1.66013e+09,275235,0.0671444,0.042214,0,0.079312,-8160.04,-57372.1,-0,57949.5,275235
step02_gravity_refstate-mantle.xmf,653,-1.87008e-05,4.47052e-05,0,6.6176e-06,-1.37264e+09,-1.36417e+09,-1.37014e+09,884442,0.0141014,0.344102,0,0.344391,-736.008,-48450.9,-0,48456.4,884442
step02_gravity_refstate-mantle.xmf,654,-1.88278e-05,4.79465e-05,0,4.65023e-06,-1.35781e+09,-1.34888e+09,-1.35529e+09,621504,0.0094833,0.367695,0,0.367817,-499.831,-48000,-0,48002.6,621504
step02_gravity_refstate-mantle.xmf,655,-1.50653e-05,3.59547e-05,0,8.43068e-06,-1.41063e+09,-1.40381e+09,-1.40862e+09,1.12676e+06,0.0238529,0.287459,0,0.288447,-1416.98,-49626.2,-0,49646.5,1.12676e+06
step02_gravity_refstate-mantle.xmf,656,-9.8146e-06,2.54749e-05,0,6.8367e-06,-1.497e+09,-1.49229e+09,-1.49569e+09,913725,0.0392895,0.183933,0,0.188083,-3176.5,-52302.5,-0,52398.9,913725
step02_gravity_refstate-mantle.xmf,657,-1.41618e-05,3.30779e-05,0,6.4845e-06,-1.44078e+09,-1.43446e+09,-1.43888e+09,866654,0.0229288,0.254609,0,0.255639,-1484.76,-50556,-0,50577.8,866654
step02_gravity_refstate-mantle.xmf,658,-1.25194e-05,3.04558e-05,0,7.561e-06,-1.45066e+09,-1.44492e+09,-1.44899e+09,1.01053e+06,0.029778,0.237922,0,0.239778,-2049.3,-50865.7,-0,50907,1.01053e+06
step02_gravity_refstate-mantle.xmf,659,-7.70595e-06,2.176e-05,0,5.52479e-06,-1.54827e+09,-1.54433e+09,-1.54724e+09,738389,0.0486043,0.131883,0,0.140554,-4540.38,-53890.8,-0,54081.7,738389
step02_gravity_refstate-mantle.xmf,660,-4.82171e-06,1.70322e-05,0,2.59896e-06,-1.64405e+09,-1.64113e+09,-1.64341e+09,347351,0.0636492,0.0542993,0,0.0836639,-7345.19,-56856.6,-0,57329.1,347351
step02_gravity_refstate-mantle.xmf,661,-5.59674e-06,1.81946e-05,0,3.17169e-06,-1.6261e+09,-1.62292e+09,-1.62535e+09,423896,0.0598605,0.0682323,0,0.0907685,-6573.59,-56299.7,-0,56682.2,423896
step02_gravity_refstate-mantle.xmf,662,-6.33307e-06,1.93196e-05,0,3.71447e-06,-1.60843e+09,-1.605e+09,-1.60758e+09,496438,0.0560184,0.0828935,0,0.100047,-5871.12,-55751.9,-0,56060.2,496438
step02_gravity_refstate-mantle.xmf,663,-7.07047e-06,2.04646e-05,0,4.22361e-06,-1.59061e+09,-1.58693e+09,-1.58967e+09,564485,0.0520517,0.0985666,0,0.111466,-5208.1,-55199.7,-0,55444.8,564485
step02_gravity_refstate-mantle.xmf,664,-4.30308e-06,1.62056e-05,0,1.3981e-06,-1.68828e+09,-1.68554e+09,-1.6877e+09,186856,0.0665315,0.0289655,0,0.0725634,-8037.42,-58224.1,-0,58776.3,186856
step02_gravity_refstate-mantle.xmf,665,-3.88108e-06,1.56201e-05,0,7.62402e-07,-1.71364e+09,-1.71104e+09,-1.71313e+09,101895,0.0683554,0.0155236,0,0.0700959,-8496.89,-59009,-0,59617.6,101895
step02_gravity_refstate-mantle.xmf,666,-3.3848e-06,1.49397e-05,0,-3.88773e-09,-1.74567e+09,-1.74323e+09,-1.74522e+09,-519.595,0.0702292,-2.46035e-19,0,0.0702292,-9014.66,-60000,-0,60673.4,519.595
step02_gravity_refstate-mantle.xmf,667,-1.74658e-05,4.11954e-05,0,8.03299e-06,-1.38492e+09,-1.37708e+09,-1.38258e+09,1.07361e+06,0.018552,0.324211,0,0.324741,-999.327,-48829.2,-0,48839.4,1.07361e+06
step02_gravity_refstate-mantle.xmf,668,-1.93936e-05,4.61672e-05,0,2.23634e-06,-1.37225e+09,-1.36349e+09,-1.36966e+09,298887,0.00475691,0.348933,0,0.348965,-245.296,-48437.7,-0,48438.4,298887
step02_gravity_refstate-mantle.xmf,669,-1.91336e-05,4.86618e-05,0,6.43044e-08,-1.35781e+09,-1.34875e+09,-1.35526e+09,8594.29,2.88611e-06,0.37022,0,0.37022,2.07592e-10,-48000,0,48000,8594.29
step02_gravity_refstate-mantle.xmf,670,-1.5123e-05,3.51657e-05,0,6.49683e-06,-1.42713e+09,-1.42041e+09,-1.42511e+09,868301,0.0203603,0.271581,0,0.272343,-1252.48,-50133.4,-0,50149.1,868301
step02_gravity_refstate-mantle.xmf,671,-1.10243e-05,2.7504e-05,0,6.76365e-06,-1.48427e+09,-1.47912e+09,-1.4828e+09,903962,0.0338865,0.201352,0,0.204184,-2583.13,-51906.3,-0,51970.5,903962
step02_gravity_refstate-mantle.xmf,672,-1.24579e-05,2.97095e-05,0,6.14654e-06,-1.47257e+09,-1.46693e+09,-1.4709e+09,821485,0.0273314,0.218625,0,0.220327,-1962.53,-51540.9,-0,51578.2,821485
step02_gravity_refstate-mantle.xmf,673,-8.7686e-06,2.33897e-05,0,5.73389e-06,-1.53467e+09,-1.53037e+09,-1.53349e+09,766334,0.0433902,0.148402,0,0.154615,-3832.6,-53467.6,-0,53604.7,766334
step02_gravity_refstate-mantle.xmf,674,-9.89307e-06,2.5132e-05,0,5.73505e-06,-1.52167e+09,-1.51699e+09,-1.52035e+09,766490,0.0377003,0.164968,0,0.169221,-3150.69,-53063.1,-0,53156.5,766490
step02_gravity_refstate-mantle.xmf,675,-7.91455e-06,2.17551e-05,0,4.57706e-06,-1.5754e+09,-1.57144e+09,-1.57434e+09,611724,0.0474477,0.113819,0,0.123313,-4524.76,-54727.4,-0,54914.1,611724
step02_gravity_refstate-mantle.xmf,676,-5.04478e-06,1.72795e-05,0,1.79314e-06,-1.67548e+09,-1.6725e+09,-1.67481e+09,239654,0.0631795,0.0378282,0,0.0736385,-7304.02,-57826.6,-0,58286,239654
step02_gravity_refstate-mantle.xmf,677,-1.70617e-05,3.92641e-05,0,6.45779e-06,-1.40087e+09,-1.39335e+09,-1.39859e+09,863084,0.0165876,0.305409,0,0.305859,-927.073,-49319.9,-0,49328.6,863084
step02_gravity_refstate-mantle.xmf,678,-1.86681e-05,4.26549e-05,0,3.59523e-06,-1.38945e+09,-1.38125e+09,-1.38695e+09,480502,0.00865664,0.324321,0,0.324437,-459.86,-48964.9,-0,48967,480502
step02_gravity_refstate-mantle.xmf,679,-1.93837e-05,4.60799e-05,0,-2.39222e-06,-1.37244e+09,-1.36369e+09,-1.36984e+09,-319720,-0.00521074,0.348565,-0,0.348604,268.76,-48443.4,0,48444.1,319720
step02_gravity_refstate-mantle.xmf,680,-1.88489e-05,4.79573e-05,0,-4.55686e-06,-1.35781e+09,-1.34888e+09,-1.35529e+09,-609025,-0.00948826,0.367695,-0,0.367817,499.831,-48000,0,48002.6,609025
step02_gravity_refstate-mantle.xmf,681,-1.63499e-05,3.73596e-05,0,5.15687e-06,-1.41953e+09,-1.41235e+09,-1.41735e+09,689215,0.014826,0.283926,0,0.284313,-874.106,-49896.1,-0,49903.8,689215
step02_gravity_refstate-mantle.xmf,682,-1.10722e-05,2.69703e-05,0,5.49681e-06,-1.50842e+09,-1.50334e+09,-1.50694e+09,734648,0.0316188,0.181947,0,0.184674,-2500.85,-52650.7,-0,52710.1,734648
step02_gravity_refstate-mantle.xmf,683,-1.55499e-05,3.5363e-05,0,4.34721e-06,-1.43752e+09,-1.43071e+09,-1.43544e+09,581004,0.0141958,0.263756,0,0.264138,-884.149,-50452,-0,50459.8,581004
step02_gravity_refstate-mantle.xmf,684,-1.364e-05,3.17949e-05,0,5.58254e-06,-1.46015e+09,-1.45408e+09,-1.45833e+09,746106,0.0219057,0.235146,0,0.236164,-1490.82,-51154.7,-0,51176.5,746106
step02_gravity_refstate-mantle.xmf,685,-8.854e-06,2.3227e-05,0,4.78935e-06,-1.56096e+09,-1.55668e+09,-1.55978e+09,640097,0.0421399,0.129591,0,0.13627,-3822.65,-54278.9,-0,54413.3,640097
step02_gravity_refstate-mantle.xmf,686,-8.04724e-06,2.17369e-05,0,3.72396e-06,-1.60259e+09,-1.59861e+09,-1.60151e+09,497707,0.0463936,0.0957113,0,0.106363,-4506.92,-55566.3,-0,55748.8,497707
step02_gravity_refstate-mantle.xmf,687,-5.8519e-06,1.84366e-05,0,2.28156e-06,-1.65884e+09,-1.65559e+09,-1.65805e+09,304931,0.0591243,0.0499576,0,0.0774044,-6527.62,-57310,-0,57680.6,304931
step02_gravity_refstate-mantle.xmf,688,-6.65443e-06,1.96109e-05,0,2.79736e-06,-1.64034e+09,-1.63683e+09,-1.63945e+09,373868,0.0546675,0.0643461,0,0.0844331,-5766.17,-56736.2,-0,57028.4,373868
step02_gravity_refstate-mantle.xmf,689,-7.40086e-06,2.07276e-05,0,3.27265e-06,-1.62169e+09,-1.61793e+09,-1.6207e+09,437390,0.0502592,0.0796801,0,0.0942068,-5078.55,-56158.2,-0,56387.3,437390
step02_gravity_refstate-mantle.xmf,690,-5.17685e-06,1.74524e-05,0,9.11951e-07,-1.71022e+09,-1.7072e+09,-1.70953e+09,121882,0.0628784,0.0192493,0,0.0657589,-7284.77,-58899.3,-0,59348.1,121882
step02_gravity_refstate-mantle.xmf,691,-4.62473e-06,1.67042e-05,0,-5.12358e-09,-1.7458e+09,-1.74295e+09,-1.74518e+09,-684.766,0.0654833,-3.06169e-19,0,0.0654833,-7829.03,-60000,-0,60508.6,684.766
step02_gravity_refstate-mantle.xmf,692,-1.92022e-05,4.40515e-05,0,-1.06529e-07,-1.38473e+09,-1.37627e+09,-1.38216e+09,-14237.6,-9.92373e-07,0.332256,-0,0.332256,-0.0385542,-48819,-0,48819,14237.6
step02_gravity_refstate-mantle.xmf,693,-1.86282e-05,4.45768e-05,0,-6.91119e-06,-1.37226e+09,-1.36381e+09,-1.36977e+09,-923681,-0.0147846,0.344143,-0,0.34446,772.639,-48439.1,0,48445.3,923681
step02_gravity_refstate-mantle.xmf,694,-1.22638e-05,2.89533e-05,0,4.94009e-06,-1.49604e+09,-1.49053e+09,-1.4944e+09,660243,0.0249131,0.198277,0,0.199836,-1868.87,-52265.3,-0,52298.7,660243
step02_gravity_refstate-mantle.xmf,695,-1.47173e-05,3.32921e-05,0,3.67607e-06,-1.45748e+09,-1.45107e+09,-1.45552e+09,491306,0.0139217,0.242404,0,0.242804,-918.693,-51069,-0,51077.3,491306
step02_gravity_refstate-mantle.xmf,696,-1.36555e-05,3.10968e-05,0,3.79463e-06,-1.48001e+09,-1.47403e+09,-1.47818e+09,507152,0.0169506,0.218222,0,0.218879,-1195.69,-51766.3,-0,51780.1,507152
step02_gravity_refstate-mantle.xmf,697,-1.80231e-05,4.57165e-05,0,-9.12271e-06,-1.35782e+09,-1.3493e+09,-1.35541e+09,-1.21925e+06,-0.0186783,0.360183,-0,0.360667,999.317,-48000,0,48010.4,1.21925e+06
step02_gravity_refstate-mantle.xmf,698,-9.88269e-06,2.47476e-05,0,4.75152e-06,-1.54727e+09,-1.54265e+09,-1.54595e+09,635040,0.0362685,0.145449,0,0.149903,-3130.22,-53853,-0,53943.9,635040
step02_gravity_refstate-mantle.xmf,699,-1.09324e-05,2.6351e-05,0,4.47974e-06,-1.53389e+09,-1.52891e+09,-1.53243e+09,598718,0.0298946,0.16136,0,0.164106,-2456.89,-53436.7,-0,53493.2,598718
step02_gravity_refstate-mantle.xmf,700,-8.9023e-06,2.30054e-05,0,3.92697e-06,-1.58692e+09,-1.58266e+09,-1.58573e+09,524840,0.0410895,0.111127,0,0.11848,-3817.14,-55079.8,-0,55211.9,524840
step02_gravity_refstate-mantle.xmf,701,-5.9523e-06,1.85365e-05,0,1.50965e-06,-1.68814e+09,-1.68486e+09,-1.68734e+09,201764,0.0588552,0.0332083,0,0.0675775,-6536.01,-58214.7,-0,58580.5,201764
step02_gravity_refstate-mantle.xmf,702,-1.76838e-05,3.95842e-05,0,2.58865e-06,-1.40996e+09,-1.40231e+09,-1.4076e+09,345973,0.00706207,0.298662,0,0.298745,-397.32,-49597.2,-0,49598.8,345973
step02_gravity_refstate-mantle.xmf,703,-1.84614e-05,4.1394e-05,0,-7.54764e-07,-1.40036e+09,-1.39236e+09,-1.3979e+09,-100874,-0.00158226,0.311623,-0,0.311627,86.0448,-49300.2,0,49300.3,100874
step02_gravity_refstate-mantle.xmf,704,-1.85026e-05,4.23849e-05,0,-4.77095e-06,-1.38904e+09,-1.38091e+09,-1.38657e+09,-637638,-0.0106295,0.324037,-0,0.324212,565.918,-48952.8,0,48956.1,637638
step02_gravity_refstate-mantle.xmf,705,-1.66569e-05,3.73188e-05,0,2.10147e-06,-1.42913e+09,-1.42192e+09,-1.42691e+09,280862,0.00633321,0.275996,0,0.276069,-378.759,-50190.6,-0,50192,280862
step02_gravity_refstate-mantle.xmf,706,-1.19827e-05,2.7973e-05,0,3.90095e-06,-1.52069e+09,-1.51535e+09,-1.51909e+09,521362,0.0230172,0.177126,0,0.178616,-1804.06,-53026.2,-0,53056.9,521362
step02_gravity_refstate-mantle.xmf,707,-1.57162e-05,3.5149e-05,0,1.73967e-06,-1.44817e+09,-1.44138e+09,-1.44607e+09,232506,0.00599203,0.254788,0,0.254858,-380.003,-50779.5,-0,50780.9,232506
step02_gravity_refstate-mantle.xmf,708,-1.69966e-05,4.13305e-05,0,-1.10161e-05,-1.37197e+09,-1.36417e+09,-1.3697e+09,-1.47231e+06,-0.0232905,0.336157,-0,0.336963,1249.3,-48432.8,0,48448.9,1.47231e+06
step02_gravity_refstate-mantle.xmf,709,-9.79202e-06,2.43906e-05,0,3.92211e-06,-1.57338e+09,-1.56881e+09,-1.57207e+09,524190,0.0351704,0.125676,0,0.130505,-3128.5,-54659.1,-0,54748.5,524190
step02_gravity_refstate-mantle.xmf,710,-8.93225e-06,2.28871e-05,0,3.22948e-06,-1.61003e+09,-1.60578e+09,-1.60884e+09,431620,0.0400466,0.0949486,0,0.103048,-3785.55,-55793.3,-0,55921.6,431620
step02_gravity_refstate-mantle.xmf,711,-8.48053e-06,2.21161e-05,0,2.71083e-06,-1.63407e+09,-1.62998e+09,-1.63293e+09,362302,0.0429363,0.0761541,0,0.0874241,-4194.83,-56536.7,-0,56692.1,362302
step02_gravity_refstate-mantle.xmf,712,-6.91531e-06,1.98755e-05,0,1.72572e-06,-1.67966e+09,-1.67608e+09,-1.67874e+09,230643,0.0533083,0.0408202,0,0.0671421,-5658.62,-57949.9,-0,58225.5,230643
step02_gravity_refstate-mantle.xmf,713,-7.66424e-06,2.09354e-05,0,2.29077e-06,-1.656e+09,-1.65218e+09,-1.65497e+09,306162,0.048491,0.0582797,0,0.0758149,-4944.79,-57216.6,-0,57429.9,306162
step02_gravity_refstate-mantle.xmf,714,-6.47175e-06,1.92441e-05,0,8.31445e-07,-1.71412e+09,-1.71068e+09,-1.71326e+09,111123,0.0560575,0.0189597,0,0.059177,-6116.61,-59015.7,-0,59331.8,111123
step02_gravity_refstate-mantle.xmf,715,-5.88714e-06,1.84618e-05,0,-1.28417e-09,-1.74592e+09,-1.74267e+09,-1.74514e+09,-171.63,0.05939,-3.00073e-19,0,0.05939,-6669.73,-60000,-0,60369.6,171.63
step02_gravity_refstate-mantle.xmf,716,-1.73027e-05,4.09117e-05,0,-8.71339e-06,-1.38403e+09,-1.37625e+09,-1.38172e+09,-1.16454e+06,-0.0195512,0.324478,-0,0.325066,1054.66,-48802.3,0,48813.7,1.16454e+06
step02_gravity_refstate-mantle.xmf,717,-1.29881e-05,2.97301e-05,0,2.98971e-06,-1.50718e+09,-1.50147e+09,-1.50545e+09,399575,0.0154819,0.19293,0,0.193551,-1158.58,-52606.6,-0,52619.4,399575
step02_gravity_refstate-mantle.xmf,718,-1.4686e-05,3.27602e-05,0,1.63334e-06,-1.47146e+09,-1.46512e+09,-1.4695e+09,218295,0.00684667,0.230184,0,0.230285,-464.234,-51499.7,-0,51501.8,218295
step02_gravity_refstate-mantle.xmf,719,-1.65556e-05,4.10627e-05,0,-1.41652e-05,-1.35789e+09,-1.35019e+09,-1.35567e+09,-1.89319e+06,-0.0272906,0.34792,-0,0.348989,1499.28,-48000,0,48023.4,1.89319e+06
step02_gravity_refstate-mantle.xmf,720,-1.07503e-05,2.57631e-05,0,3.63715e-06,-1.55954e+09,-1.55466e+09,-1.5581e+09,486105,0.0285097,0.140928,0,0.143783,-2426.7,-54228.7,-0,54283,486105
step02_gravity_refstate-mantle.xmf,721,-1.1652e-05,2.71444e-05,0,3.12017e-06,-1.54579e+09,-1.5406e+09,-1.54423e+09,417011,0.021528,0.156033,0,0.157511,-1757.14,-53801.5,-0,53830.1,417011
step02_gravity_refstate-mantle.xmf,722,-9.69018e-06,2.39644e-05,0,3.16118e-06,-1.59951e+09,-1.59501e+09,-1.59822e+09,422492,0.0344279,0.106084,0,0.11153,-3145.82,-55466,-0,55555.1,422492
step02_gravity_refstate-mantle.xmf,723,-1.73303e-05,3.85321e-05,0,-9.17803e-07,-1.41944e+09,-1.41197e+09,-1.41712e+09,-122664,-0.0023472,0.287996,-0,0.288005,135.692,-49889.6,0,49889.8,122664
step02_gravity_refstate-mantle.xmf,724,-1.72983e-05,3.91057e-05,0,-4.35343e-06,-1.40929e+09,-1.40175e+09,-1.40697e+09,-581835,-0.0112904,0.297983,-0,0.298197,638.632,-49577.8,0,49581.9,581835
step02_gravity_refstate-mantle.xmf,725,-1.63182e-05,3.83337e-05,0,-7.99912e-06,-1.3995e+09,-1.3922e+09,-1.39732e+09,-1.06908e+06,-0.020263,0.304195,-0,0.304869,1143.77,-49280.2,0,49293.4,1.06908e+06
step02_gravity_refstate-mantle.xmf,726,-1.47496e-05,3.69488e-05,0,-1.13521e-05,-1.38619e+09,-1.37929e+09,-1.38422e+09,-1.5172e+06,-0.0275422,0.312358,-0,0.313569,1558.69,-48876,0,48900.8,1.5172e+06
step02_gravity_refstate-mantle.xmf,727,-1.62762e-05,3.63165e-05,0,-7.62751e-07,-1.43912e+09,-1.43209e+09,-1.43694e+09,-101942,-0.00241828,0.265243,-0,0.265254,148.911,-50499,0,50499.2,101942
step02_gravity_refstate-mantle.xmf,728,-1.24824e-05,2.84537e-05,0,2.30267e-06,-1.53205e+09,-1.52658e+09,-1.53038e+09,307751,0.0141796,0.170833,0,0.17142,-1112.41,-53374.9,-0,53386.5,307751
step02_gravity_refstate-mantle.xmf,729,-1.52766e-05,3.41069e-05,0,-5.87344e-07,-1.46029e+09,-1.45369e+09,-1.45825e+09,-78498.6,-0.00214702,0.242336,-0,0.242345,140.705,-51153.9,0,51154.1,78498.6
step02_gravity_refstate-mantle.xmf,730,-1.38442e-05,3.0991e-05,0,1.44897e-06,-1.495e+09,-1.48901e+09,-1.49315e+09,193654,0.00703537,0.206864,0,0.206983,-506.107,-52227.8,-0,52230.2,193654
step02_gravity_refstate-mantle.xmf,731,-1.44132e-05,3.72575e-05,0,-1.36363e-05,-1.36984e+09,-1.36293e+09,-1.36791e+09,-1.8225e+06,-0.0298482,0.328728,-0,0.330081,1660.48,-48373.8,0,48402.3,1.8225e+06
step02_gravity_refstate-mantle.xmf,732,-1.0528e-05,2.52696e-05,0,2.95338e-06,-1.58608e+09,-1.58129e+09,-1.58467e+09,394719,0.0275434,0.120061,0,0.12318,-2421.47,-55048.7,-0,55101.9,394719
step02_gravity_refstate-mantle.xmf,733,-9.47972e-06,2.34998e-05,0,2.52628e-06,-1.62674e+09,-1.62233e+09,-1.62547e+09,337638,0.034814,0.0855419,0,0.092355,-3267.82,-56307.2,-0,56401.9,337638
step02_gravity_refstate-mantle.xmf,734,-8.55581e-06,2.20902e-05,0,1.73131e-06,-1.67176e+09,-1.66767e+09,-1.67062e+09,231390,0.0415501,0.0506972,0,0.0655486,-4123.29,-57700.6,-0,57847.7,231390
step02_gravity_refstate-mantle.xmf,735,-7.84173e-06,2.11055e-05,0,1.43808e-06,-1.68784e+09,-1.68397e+09,-1.68679e+09,192199,0.0470497,0.0380166,0,0.0604891,-4823.52,-58199.3,-0,58398.9,192199
step02_gravity_refstate-mantle.xmf,736,-7.59272e-06,2.07712e-05,0,8.02411e-07,-1.71425e+09,-1.71046e+09,-1.71324e+09,107242,0.0487592,0.0204323,0,0.0528672,-5078.58,-59016.1,-0,59234.2,107242
step02_gravity_refstate-mantle.xmf,737,-7.12363e-06,2.01494e-05,0,8.12901e-10,-1.74605e+09,-1.74241e+09,-1.7451e+09,108.644,0.0519881,-3.08685e-19,0,0.0519881,-5532.04,-60000,-0,60254.5,108.644
step02_gravity_refstate-mantle.xmf,738,-1.31623e-05,2.97233e-05,0,1.13552e-06,-1.51893e+09,-1.5132e+09,-1.51717e+09,151763,0.00621021,0.184502,0,0.184606,-470.327,-52968.3,-0,52970.4,151763
step02_gravity_refstate-mantle.xmf,739,-1.4381e-05,3.20358e-05,0,-4.57791e-07,-1.4828e+09,-1.4766e+09,-1.48088e+09,-61183.8,-0.00177778,0.219396,-0,0.219403,123.707,-51850,0,51850.2,61183.8
step02_gravity_refstate-mantle.xmf,740,-1.36459e-05,3.62234e-05,0,-1.56776e-05,-1.35766e+09,-1.35099e+09,-1.35583e+09,-2.09531e+06,-0.0350119,0.332314,-0,0.334154,2000,-48000,0,48041.6,2.09531e+06
step02_gravity_refstate-mantle.xmf,741,-1.22025e-05,3.36128e-05,0,-1.35813e-05,-1.37649e+09,-1.37036e+09,-1.37485e+09,-1.81514e+06,-0.0346703,0.311314,-0,0.313239,2045.85,-48584.6,0,48627.6,1.81514e+06
step02_gravity_refstate-mantle.xmf,742,-1.20361e-05,2.7524e-05,0,1.80409e-06,-1.55682e+09,-1.55154e+09,-1.55522e+09,241117,0.0129516,0.149576,0,0.150135,-1058.52,-54140.8,-0,54151.1,241117
step02_gravity_refstate-mantle.xmf,743,-1.13505e-05,2.64236e-05,0,2.46071e-06,-1.57163e+09,-1.56658e+09,-1.57011e+09,328874,0.0202044,0.134867,0,0.136372,-1710.27,-54599.8,-0,54626.6,328874
step02_gravity_refstate-mantle.xmf,744,-1.03102e-05,2.46826e-05,0,2.3134e-06,-1.61389e+09,-1.60921e+09,-1.61251e+09,309186,0.0271088,0.0984882,0,0.102151,-2454.42,-55907.8,-0,55961.7,309186
step02_gravity_refstate-mantle.xmf,745,-9.32758e-06,2.31662e-05,0,1.87766e-06,-1.65579e+09,-1.65144e+09,-1.65454e+09,250949,0.0349135,0.0643052,0,0.0731718,-3347.9,-57204.6,-0,57302.5,250949
step02_gravity_refstate-mantle.xmf,746,-1.62485e-05,3.65661e-05,0,-3.79162e-06,-1.42871e+09,-1.42166e+09,-1.42654e+09,-506750,-0.0113412,0.274946,-0,0.27518,682.845,-50178.4,0,50183.1,506750
step02_gravity_refstate-mantle.xmf,747,-1.54653e-05,3.60281e-05,0,-6.92658e-06,-1.41822e+09,-1.41134e+09,-1.41615e+09,-925737,-0.020147,0.281913,-0,0.282631,1204.79,-49858.1,0,49872.6,925737
step02_gravity_refstate-mantle.xmf,748,-1.40197e-05,3.45851e-05,0,-9.79776e-06,-1.40681e+09,-1.40031e+09,-1.40494e+09,-1.30947e+06,-0.0279857,0.287247,-0,0.288607,1684.03,-49511.6,0,49540.2,1.30947e+06
step02_gravity_refstate-mantle.xmf,749,-1.53429e-05,3.46005e-05,0,-3.14476e-06,-1.44922e+09,-1.44255e+09,-1.44717e+09,-420297,-0.0109419,0.252323,-0,0.25256,701.027,-50813,0,50817.8,420297
step02_gravity_refstate-mantle.xmf,750,-1.26104e-05,2.84894e-05,0,8.6635e-07,-1.54219e+09,-1.5367e+09,-1.5405e+09,115788,0.00564339,0.163657,0,0.163754,-446.548,-53687.3,-0,53689.2,115788
step02_gravity_refstate-mantle.xmf,751,-1.44912e-05,3.26862e-05,0,-2.61291e-06,-1.47087e+09,-1.46456e+09,-1.46893e+09,-349215,-0.0105099,0.229854,-0,0.230095,714.821,-51482.4,0,51487.4,349215
step02_gravity_refstate-mantle.xmf,752,-1.36178e-05,3.04668e-05,0,-4.06183e-07,-1.50586e+09,-1.49997e+09,-1.50404e+09,-54286.3,-0.00186953,0.197092,-0,0.197101,137.387,-52563.4,0,52563.5,54286.3
step02_gravity_refstate-mantle.xmf,753,-1.21866e-05,3.25059e-05,0,-1.20378e-05,-1.39507e+09,-1.3891e+09,-1.39345e+09,-1.60886e+06,-0.0344182,0.290831,-0,0.292861,2112.44,-49156.1,0,49201.4,1.60886e+06
step02_gravity_refstate-mantle.xmf,754,-1.10574e-05,2.58723e-05,0,1.91734e-06,-1.59942e+09,-1.59448e+09,-1.59794e+09,256252,0.0189968,0.112621,0,0.114212,-1662.19,-55458.7,-0,55483.6,256252
step02_gravity_refstate-mantle.xmf,755,-1.00856e-05,2.4224e-05,0,1.76584e-06,-1.64291e+09,-1.63832e+09,-1.64156e+09,236004,0.0271844,0.076326,0,0.0810225,-2524.81,-56804.4,-0,56860.5,236004
step02_gravity_refstate-mantle.xmf,756,-9.24829e-06,2.30087e-05,0,1.25092e-06,-1.6851e+09,-1.68079e+09,-1.68387e+09,167186,0.0346248,0.0433473,0,0.0554785,-3367.29,-58110.4,-0,58207.8,167186
step02_gravity_refstate-mantle.xmf,757,-8.70259e-06,2.2249e-05,0,8.33768e-07,-1.70889e+09,-1.70476e+09,-1.70773e+09,111433,0.0398157,0.0256223,0,0.0473476,-3974.87,-58846.9,-0,58981,111433
step02_gravity_refstate-mantle.xmf,758,-8.27003e-06,2.16878e-05,0,5.12168e-09,-1.74617e+09,-1.74217e+09,-1.74507e+09,684.513,0.0433562,-3.81184e-19,0,0.0433562,-4411.14,-60000,-0,60161.9,684.513
step02_gravity_refstate-mantle.xmf,759,-1.07646e-05,3.55881e-05,0,-1.89577e-05,-1.34084e+09,-1.33465e+09,-1.3394e+09,-2.5337e+06,-0.0357079,0.35123,-0,0.353041,2000,-47498.2,0,47540.3,2.5337e+06
step02_gravity_refstate-mantle.xmf,760,-7.72184e-06,2.94123e-05,0,-1.75789e-05,-1.3487e+09,-1.34373e+09,-1.34766e+09,-2.34942e+06,-0.0400786,0.326475,-0,0.328925,2443.18,-47745.4,0,47807.8,2.34942e+06
step02_gravity_refstate-mantle.xmf,761,-1.04426e-05,3.36613e-05,0,-2.17093e-05,-1.32475e+09,-1.31886e+09,-1.32336e+09,-2.90145e+06,-0.0334494,0.368964,-0,0.370477,2000,-46998.5,0,47041,2.90145e+06
step02_gravity_refstate-mantle.xmf,762,-7.26081e-06,2.86232e-05,0,-1.84033e-05,-1.33241e+09,-1.32761e+09,-1.33144e+09,-2.4596e+06,-0.0386196,0.341691,-0,0.343867,2431.08,-47243.3,0,47305.9,2.4596e+06
step02_gravity_refstate-mantle.xmf,763,-1.29891e-05,2.93117e-05,0,-3.56056e-07,-1.52878e+09,-1.52312e+09,-1.52704e+09,-47586.9,-0.00206428,0.175919,-0,0.175931,159.12,-53272.6,0,53272.9,47586.9
step02_gravity_refstate-mantle.xmf,764,-1.37193e-05,3.09005e-05,0,-2.22625e-06,-1.4933e+09,-1.48734e+09,-1.49147e+09,-297539,-0.0102717,0.207767,-0,0.208021,738.56,-52175.9,0,52181.2,297539
step02_gravity_refstate-mantle.xmf,765,-9.94719e-06,3.05409e-05,0,-1.57742e-05,-1.36625e+09,-1.36084e+09,-1.36492e+09,-2.10823e+06,-0.0397679,0.309806,-0,0.312347,2460.83,-48275.6,0,48338.3,2.10823e+06
step02_gravity_refstate-mantle.xmf,766,-1.0257e-05,3.01069e-05,0,-1.36237e-05,-1.38457e+09,-1.37918e+09,-1.3832e+09,-1.8208e+06,-0.0394232,0.291475,-0,0.294129,2504.29,-48838.4,0,48902.5,1.8208e+06
step02_gravity_refstate-mantle.xmf,767,-1.2195e-05,2.77072e-05,0,7.78822e-07,-1.56156e+09,-1.55623e+09,-1.55993e+09,104090,0.00572091,0.146796,0,0.146907,-467.419,-54286.4,-0,54288.5,104090
step02_gravity_refstate-mantle.xmf,768,-1.17277e-05,2.6823e-05,0,1.10924e-06,-1.58251e+09,-1.57736e+09,-1.58094e+09,148250,0.00978505,0.128555,0,0.128926,-827.282,-54934.4,-0,54940.7,148250
step02_gravity_refstate-mantle.xmf,769,-1.07614e-05,2.5187e-05,0,1.45351e-06,-1.62867e+09,-1.62387e+09,-1.62723e+09,194262,0.0188275,0.0894913,0,0.0914504,-1697.43,-56362.6,-0,56388.2,194262
step02_gravity_refstate-mantle.xmf,770,-9.91033e-06,2.38866e-05,0,1.22112e-06,-1.67355e+09,-1.66903e+09,-1.67222e+09,163203,0.0272813,0.0534024,0,0.0599674,-2584.57,-57751.3,-0,57809.1,163203
step02_gravity_refstate-mantle.xmf,771,-9.72196e-06,3.07355e-05,0,-2.39101e-05,-1.30864e+09,-1.30323e+09,-1.30734e+09,-3.19558e+06,-0.0299142,0.385198,-0,0.386358,2000,-46498.1,0,46541.1,3.19558e+06
step02_gravity_refstate-mantle.xmf,772,-7.31196e-06,2.74026e-05,0,-1.99038e-05,-1.31632e+09,-1.31168e+09,-1.31534e+09,-2.66014e+06,-0.0354043,0.356438,-0,0.358192,2419.18,-46742.8,0,46805.4,2.66014e+06
step02_gravity_refstate-mantle.xmf,773,-8.74503e-06,2.74809e-05,0,-2.56754e-05,-1.29251e+09,-1.28767e+09,-1.29135e+09,-3.43152e+06,-0.0256915,0.399797,-0,0.400621,2000,-45998.2,0,46041.6,3.43152e+06
step02_gravity_refstate-mantle.xmf,774,-7.02755e-06,2.53925e-05,0,-2.15216e-05,-1.30001e+09,-1.29568e+09,-1.29907e+09,-2.87637e+06,-0.0311155,0.370282,-0,0.371587,2412.43,-46235.8,0,46298.7,2.87637e+06
step02_gravity_refstate-mantle.xmf,775,-1.47213e-05,3.4062e-05,0,-5.90901e-06,-1.43794e+09,-1.43142e+09,-1.43598e+09,-789739,-0.0197173,0.260056,-0,0.260803,1250.5,-50467.4,0,50482.9,789739
step02_gravity_refstate-mantle.xmf,776,-1.34612e-05,3.27942e-05,0,-8.48071e-06,-1.4269e+09,-1.42072e+09,-1.4251e+09,-1.13345e+06,-0.0279193,0.264815,-0,0.266283,1781.07,-50131.3,0,50163,1.13345e+06
step02_gravity_refstate-mantle.xmf,777,-1.1617e-05,3.06693e-05,0,-1.06895e-05,-1.41529e+09,-1.40964e+09,-1.41374e+09,-1.42865e+06,-0.0354761,0.266967,-0,0.269313,2316.6,-49779.6,0,49833.5,1.42865e+06
step02_gravity_refstate-mantle.xmf,778,-1.40605e-05,3.24617e-05,0,-4.97568e-06,-1.45907e+09,-1.45285e+09,-1.45719e+09,-665000,-0.0191271,0.238062,-0,0.238829,1285.76,-51120.2,0,51136.4,665000
step02_gravity_refstate-mantle.xmf,779,-1.2461e-05,2.81704e-05,0,-2.89912e-07,-1.55146e+09,-1.54603e+09,-1.5498e+09,-38746.7,-0.00183674,0.155811,-0,0.155822,147.541,-53973.9,0,53974.1,38746.7
step02_gravity_refstate-mantle.xmf,780,-1.34118e-05,3.0913e-05,0,-4.21375e-06,-1.48091e+09,-1.47498e+09,-1.47911e+09,-563168,-0.018662,0.216461,-0,0.217263,1325.28,-51795.1,0,51812.1,563168
step02_gravity_refstate-mantle.xmf,781,-1.3069e-05,2.95513e-05,0,-1.91807e-06,-1.5159e+09,-1.51021e+09,-1.51416e+09,-256350,-0.010248,0.186515,-0,0.186796,774.445,-52875,0,52880.6,256350
step02_gravity_refstate-mantle.xmf,782,-1.04734e-05,2.95633e-05,0,-1.21656e-05,-1.4016e+09,-1.39625e+09,-1.4002e+09,-1.62593e+06,-0.0389906,0.274687,-0,0.277441,2552.81,-49361.6,0,49427.6,1.62593e+06
step02_gravity_refstate-mantle.xmf,783,-7.5504e-06,2.40681e-05,0,-2.70706e-05,-1.27637e+09,-1.27215e+09,-1.27536e+09,-3.61799e+06,-0.0210763,0.412684,-0,0.413221,2000,-45498.8,0,45542.7,3.61799e+06
step02_gravity_refstate-mantle.xmf,784,-6.40154e-06,2.28935e-05,0,-2.29089e-05,-1.28388e+09,-1.27996e+09,-1.28302e+09,-3.06178e+06,-0.0262907,0.382495,-0,0.383397,2411.33,-45735.4,0,45798.9,3.06178e+06
step02_gravity_refstate-mantle.xmf,785,-6.18004e-06,2.05646e-05,0,-2.81237e-05,-1.26021e+09,-1.25664e+09,-1.25939e+09,-3.75873e+06,-0.0162136,0.423824,-0,0.424134,2000,-44999.8,0,45044.2,3.75873e+06
step02_gravity_refstate-mantle.xmf,786,-5.54393e-06,2.01464e-05,0,-2.40566e-05,-1.26779e+09,-1.26435e+09,-1.26704e+09,-3.21516e+06,-0.0210736,0.393492,-0,0.394056,2407.38,-45236.9,0,45300.9,3.21516e+06
step02_gravity_refstate-mantle.xmf,787,-4.67282e-06,1.70006e-05,0,-2.8849e-05,-1.24401e+09,-1.24111e+09,-1.24338e+09,-3.85567e+06,-0.0111585,0.433207,-0,0.433351,2000,-44500.2,0,44545.1,3.85567e+06
step02_gravity_refstate-mantle.xmf,788,-4.49012e-06,1.72188e-05,0,-2.49229e-05,-1.25167e+09,-1.24877e+09,-1.25107e+09,-3.33095e+06,-0.015592,0.40304,-0,0.403341,2403.8,-44738.8,0,44803.3,3.33095e+06
step02_gravity_refstate-mantle.xmf,789,-3.02039e-06,1.34044e-05,0,-2.92827e-05,-1.22776e+09,-1.22556e+09,-1.22735e+09,-3.91364e+06,-0.00592065,0.440809,-0,0.440849,2000,-44000,0,44045.4,3.91364e+06
step02_gravity_refstate-mantle.xmf,790,-3.27707e-06,1.41349e-05,0,-2.55105e-05,-1.23533e+09,-1.233e+09,-1.23489e+09,-3.40948e+06,-0.00980864,0.411314,-0,0.411431,2398.22,-44234.1,0,44299,3.40948e+06
step02_gravity_refstate-mantle.xmf,791,-1.12979e-05,2.60841e-05,0,9.03093e-07,-1.61425e+09,-1.60925e+09,-1.61274e+09,120698,0.00985739,0.102578,0,0.10305,-865.908,-55915.8,-0,55922.5,120698
step02_gravity_refstate-mantle.xmf,792,-1.0525e-05,2.47404e-05,0,1.06402e-06,-1.65838e+09,-1.65367e+09,-1.65697e+09,142207,0.0188825,0.0664777,0,0.0691074,-1742.87,-57280.8,-0,57307.3,142207
step02_gravity_refstate-mantle.xmf,793,-9.76854e-06,2.36362e-05,0,6.13495e-07,-1.70978e+09,-1.70532e+09,-1.70848e+09,81993.6,0.0279105,0.0266568,0,0.038595,-2685.96,-58870.9,-0,58932.1,81993.6
step02_gravity_refstate-mantle.xmf,794,-9.26797e-06,2.30102e-05,0,8.72732e-09,-1.74628e+09,-1.74197e+09,-1.74504e+09,1166.41,0.0336297,-4.05695e-19,0,0.0336297,-3302.13,-60000,-0,60090.8,1166.41
step02_gravity_refstate-mantle.xmf,795,-6.56389e-06,2.59417e-05,0,-1.61435e-05,-1.35688e+09,-1.35254e+09,-1.35601e+09,-2.15757e+06,-0.0435333,0.303621,-0,0.306726,2905.03,-47997.2,0,48085,2.15757e+06
step02_gravity_refstate-mantle.xmf,796,-5.3325e-06,2.48398e-05,0,-1.68686e-05,-1.33978e+09,-1.33575e+09,-1.33907e+09,-2.25449e+06,-0.0423612,0.317953,-0,0.320763,2877.92,-47474.2,0,47561.4,2.25449e+06
step02_gravity_refstate-mantle.xmf,797,-5.16646e-06,2.4044e-05,0,-1.75243e-05,-1.32354e+09,-1.31964e+09,-1.32285e+09,-2.34213e+06,-0.0396709,0.331553,-0,0.333918,2847.19,-46971.6,0,47057.8,2.34213e+06
step02_gravity_refstate-mantle.xmf,798,-1.25272e-05,2.8524e-05,0,-1.61073e-06,-1.5391e+09,-1.53362e+09,-1.53743e+09,-215274,-0.0101057,0.165641,-0,0.165949,798.499,-53592.7,0,53598.6,215274
step02_gravity_refstate-mantle.xmf,799,-1.28057e-05,2.94624e-05,0,-3.57635e-06,-1.50358e+09,-1.49793e+09,-1.50187e+09,-477980,-0.0182489,0.195097,-0,0.195948,1363.67,-52495.9,0,52513.7,477980
step02_gravity_refstate-mantle.xmf,800,-7.92699e-06,2.6891e-05,0,-1.47463e-05,-1.37481e+09,-1.37016e+09,-1.37375e+09,-1.97084e+06,-0.0435509,0.288664,-0,0.291931,2917.51,-48544.3,0,48631.9,1.97084e+06
step02_gravity_refstate-mantle.xmf,801,-8.69362e-06,2.71833e-05,0,-1.31617e-05,-1.3932e+09,-1.38841e+09,-1.39204e+09,-1.75907e+06,-0.0431072,0.272837,-0,0.276221,2936.33,-49108,0,49195.7,1.75907e+06
step02_gravity_refstate-mantle.xmf,802,-1.95571e-06,1.10778e-05,0,-2.57511e-05,-1.21947e+09,-1.21773e+09,-1.21921e+09,-3.44164e+06,-0.00401957,0.417399,-0,0.417418,2399.54,-43745.2,0,43811,3.44164e+06
step02_gravity_refstate-mantle.xmf,803,-1.33857e-06,9.77873e-06,0,-2.93503e-05,-1.2115e+09,-1.21001e+09,-1.21132e+09,-3.92266e+06,-0.000484871,0.446605,-0,0.446605,2000,-43499.8,0,43545.8,3.92266e+06
step02_gravity_refstate-mantle.xmf,804,-1.20349e-05,2.73352e-05,0,-1.16621e-07,-1.57417e+09,-1.56891e+09,-1.57256e+09,-15586.4,-0.000716257,0.136354,-0,0.136356,59.6614,-54676.2,0,54676.2,15586.4
step02_gravity_refstate-mantle.xmf,805,-1.09922e-05,2.54181e-05,0,6.64553e-07,-1.64397e+09,-1.63911e+09,-1.6425e+09,88817.5,0.00994759,0.0789281,0,0.0795525,-898.408,-56834.4,-0,56841.5,88817.5
step02_gravity_refstate-mantle.xmf,806,-1.03591e-05,2.44432e-05,0,6.96123e-07,-1.68824e+09,-1.68359e+09,-1.68686e+09,93036.8,0.0189427,0.0437294,0,0.0476559,-1777.74,-58203.7,-0,58230.8,93036.8
step02_gravity_refstate-mantle.xmf,807,-5.18317e-06,2.28472e-05,0,-1.85151e-05,-1.30712e+09,-1.30337e+09,-1.30643e+09,-2.47455e+06,-0.0356982,0.344249,-0,0.346095,2833.04,-46461.2,0,46547.5,2.47455e+06
step02_gravity_refstate-mantle.xmf,808,-4.97815e-06,2.11142e-05,0,-1.95991e-05,-1.2907e+09,-1.28721e+09,-1.29003e+09,-2.61942e+06,-0.0308686,0.355677,-0,0.357014,2830.41,-45951,0,46038.1,2.61942e+06
step02_gravity_refstate-mantle.xmf,809,-9.50224e-06,2.7595e-05,0,-1.17103e-05,-1.41156e+09,-1.4066e+09,-1.41029e+09,-1.56509e+06,-0.0416485,0.2587,-0,0.262031,2878.78,-49670.7,0,49754.1,1.56509e+06
step02_gravity_refstate-mantle.xmf,810,-1.30071e-05,3.13191e-05,0,-7.27439e-06,-1.44768e+09,-1.44176e+09,-1.44595e+09,-972222,-0.0273836,0.243377,-0,0.244913,1845.84,-50772.7,0,50806.2,972222
step02_gravity_refstate-mantle.xmf,811,-1.15062e-05,2.95996e-05,0,-9.24049e-06,-1.43675e+09,-1.43126e+09,-1.43521e+09,-1.23499e+06,-0.0348102,0.245775,-0,0.248228,2389.11,-50440.5,0,50497.1,1.23499e+06
step02_gravity_refstate-mantle.xmf,812,-1.25926e-05,3.00979e-05,0,-6.21773e-06,-1.46933e+09,-1.46362e+09,-1.46764e+09,-831000,-0.0267865,0.222227,-0,0.223836,1903.57,-51440.8,0,51476,831000
step02_gravity_refstate-mantle.xmf,813,-1.20574e-05,2.74928e-05,0,-1.33452e-06,-1.56285e+09,-1.55757e+09,-1.56124e+09,-178359,-0.00969715,0.145122,-0,0.145446,796.853,-54326.8,0,54332.6,178359
step02_gravity_refstate-mantle.xmf,814,-1.21794e-05,2.89438e-05,0,-5.27995e-06,-1.49159e+09,-1.4861e+09,-1.48997e+09,-705665,-0.0260983,0.201557,-0,0.20324,1947.53,-52128.5,0,52164.8,705665
step02_gravity_refstate-mantle.xmf,815,-1.22893e-05,2.83236e-05,0,-3.05291e-06,-1.52669e+09,-1.52127e+09,-1.52505e+09,-408021,-0.0180236,0.174197,-0,0.175127,1410.43,-53210.4,0,53229.1,408021
step02_gravity_refstate-mantle.xmf,816,-4.53399e-06,1.90134e-05,0,-2.06005e-05,-1.27435e+09,-1.2712e+09,-1.27374e+09,-2.75326e+06,-0.0254625,0.366035,-0,0.36692,2828.25,-45443.4,0,45531.4,2.75326e+06
step02_gravity_refstate-mantle.xmf,817,-3.94262e-06,1.68009e-05,0,-2.14928e-05,-1.25861e+09,-1.25583e+09,-1.25808e+09,-2.87251e+06,-0.0198142,0.375707,-0,0.376229,2811.71,-44955.5,0,45043.4,2.87251e+06
step02_gravity_refstate-mantle.xmf,818,-3.14051e-06,1.43194e-05,0,-2.21504e-05,-1.24248e+09,-1.24014e+09,-1.24206e+09,-2.96039e+06,-0.0137751,0.384091,-0,0.384338,2801.31,-44456.3,0,44544.5,2.96039e+06
step02_gravity_refstate-mantle.xmf,819,-2.18548e-06,1.16552e-05,0,-2.25692e-05,-1.22611e+09,-1.22426e+09,-1.22582e+09,-3.01637e+06,-0.00739899,0.391418,-0,0.391488,2788.6,-43950.4,0,44038.8,3.01637e+06
step02_gravity_refstate-mantle.xmf,820,-6.11359e-07,7.90995e-06,0,-2.53513e-05,-1.20341e+09,-1.20227e+09,-1.20333e+09,-3.38821e+06,0.00206583,0.420012,0,0.420017,2432.41,-43250,0,43318.4,3.38821e+06
step02_gravity_refstate-mantle.xmf,821,-1.16261e-05,2.65336e-05,0,3.4851e-08,-1.60025e+09,-1.59515e+09,-1.59869e+09,4657.84,0.000635491,0.114646,0,0.114647,-54.7945,-55482.3,-0,55482.3,4657.84
step02_gravity_refstate-mantle.xmf,822,-1.12717e-05,2.59453e-05,0,6.67909e-08,-1.62966e+09,-1.62468e+09,-1.62815e+09,8926.61,0.000843928,0.0908243,0,0.0908283,-74.9558,-56391.6,-0,56391.6,8926.61
step02_gravity_refstate-mantle.xmf,823,-1.07665e-05,2.50222e-05,0,4.88618e-07,-1.67294e+09,-1.66815e+09,-1.6715e+09,65303.8,0.0103872,0.0562988,0,0.057249,-957.311,-57729.5,-0,57737.5,65303.8
step02_gravity_refstate-mantle.xmf,824,-1.03855e-05,2.44589e-05,0,3.02871e-07,-1.71764e+09,-1.71298e+09,-1.71625e+09,40478.8,0.0165952,0.0217068,0,0.0273237,-1566.92,-59111.5,-0,59132.2,40478.8
step02_gravity_refstate-mantle.xmf,825,-1.00494e-05,2.40437e-05,0,7.94972e-09,-1.74636e+09,-1.74181e+09,-1.74502e+09,1062.48,0.0229943,-3.19733e-19,0,0.0229943,-2200.02,-60000,-0,60040.3,1062.48
step02_gravity_refstate-mantle.xmf,826,-5.36641e-06,2.31438e-05,0,-1.47424e-05,-1.36511e+09,-1.3613e+09,-1.3644e+09,-1.97032e+06,-0.0466319,0.282042,-0,0.285871,3387.18,-48252.3,0,48371,1.97032e+06
step02_gravity_refstate-mantle.xmf,827,-4.24818e-06,2.20645e-05,0,-1.54443e-05,-1.34686e+09,-1.34334e+09,-1.34629e+09,-2.06413e+06,-0.0453799,0.295749,-0,0.299211,3356.81,-47693.1,0,47811.1,2.06413e+06
step02_gravity_refstate-mantle.xmf,828,-3.76004e-06,2.13464e-05,0,-1.5946e-05,-1.32997e+09,-1.32661e+09,-1.32946e+09,-2.13118e+06,-0.0428523,0.309515,-0,0.312467,3289.71,-47172.6,0,47287.2,2.13118e+06
step02_gravity_refstate-mantle.xmf,829,-3.67876e-06,2.05049e-05,0,-1.64828e-05,-1.31408e+09,-1.31085e+09,-1.31359e+09,-2.20292e+06,-0.0393846,0.321195,-0,0.3236,3256.26,-46680.4,0,46793.8,2.20292e+06
step02_gravity_refstate-mantle.xmf,830,-1.01024e-05,2.78958e-05,0,-1.05503e-05,-1.42656e+09,-1.42148e+09,-1.42521e+09,-1.41005e+06,-0.0399313,0.247529,-0,0.250729,2798.25,-50130.7,0,50208.8,1.41005e+06
step02_gravity_refstate-mantle.xmf,831,-1.18302e-05,2.7428e-05,0,-2.60989e-06,-1.55047e+09,-1.54522e+09,-1.54888e+09,-348812,-0.0180628,0.153444,-0,0.154504,1473.98,-53945.5,0,53965.6,348812
step02_gravity_refstate-mantle.xmf,832,-1.17823e-05,2.78808e-05,0,-4.47138e-06,-1.51427e+09,-1.50897e+09,-1.51269e+09,-597600,-0.0254013,0.181406,-0,0.183176,1981.58,-52828.8,0,52865.9,597600
step02_gravity_refstate-mantle.xmf,833,-6.50269e-06,2.40813e-05,0,-1.36586e-05,-1.38393e+09,-1.37984e+09,-1.38306e+09,-1.82548e+06,-0.0468659,0.268037,-0,0.272104,3398.03,-48828.1,0,48946.2,1.82548e+06
step02_gravity_refstate-mantle.xmf,834,-7.4809e-06,2.4787e-05,0,-1.23886e-05,-1.40359e+09,-1.39928e+09,-1.40259e+09,-1.65573e+06,-0.0463038,0.253611,-0,0.257804,3382.97,-49430.8,0,49546.4,1.65573e+06
step02_gravity_refstate-mantle.xmf,835,3.99587e-06,-1.21589e-06,0,-2.73717e-05,-1.16276e+09,-1.16346e+09,-1.1633e+09,-3.65822e+06,0.0175064,0.453055,0,0.453393,2000,-42001.8,0,42049.4,3.65822e+06
step02_gravity_refstate-mantle.xmf,836,2.12286e-06,2.4932e-06,0,-2.8388e-05,-1.17903e+09,-1.17898e+09,-1.17931e+09,-3.79405e+06,0.0111551,0.452731,0,0.452868,2000,-42501.2,0,42548.2,3.79405e+06
step02_gravity_refstate-mantle.xmf,837,2.03198e-06,1.70963e-06,0,-2.40673e-05,-1.17103e+09,-1.17107e+09,-1.1713e+09,-3.2166e+06,0.0153722,0.424824,0,0.425102,2432.32,-42251.5,0,42321.5,3.2166e+06
step02_gravity_refstate-mantle.xmf,838,3.58702e-07,6.14249e-06,0,-2.90339e-05,-1.19526e+09,-1.19449e+09,-1.19531e+09,-3.88038e+06,0.005186,0.45058,0,0.45061,2000,-43000.2,0,43046.7,3.88038e+06
step02_gravity_refstate-mantle.xmf,839,6.83981e-07,4.78961e-06,0,-2.44795e-05,-1.18684e+09,-1.18629e+09,-1.18693e+09,-3.27168e+06,0.00874302,0.420194,0,0.420285,2481.08,-42738.7,0,42810.7,3.27168e+06
step02_gravity_refstate-mantle.xmf,840,3.13705e-06,-1.15883e-06,0,-2.22442e-05,-1.15407e+09,-1.15465e+09,-1.15449e+09,-2.97294e+06,0.0232028,0.42067,0,0.421309,2502.58,-41727.9,0,41802.8,2.97294e+06
step02_gravity_refstate-mantle.xmf,841,5.70211e-06,-4.82603e-06,0,-2.57236e-05,-1.14651e+09,-1.14791e+09,-1.14727e+09,-3.43796e+06,0.0243264,0.451543,0,0.452197,2000,-41501.9,0,41550,3.43796e+06
step02_gravity_refstate-mantle.xmf,842,9.29821e-06,-1.15186e-05,0,-2.01927e-05,-1.1139e+09,-1.11669e+09,-1.11515e+09,-2.69875e+06,0.039678,0.443006,0,0.444779,2000,-40501.8,0,40551.1,2.69875e+06
step02_gravity_refstate-mantle.xmf,843,7.49864e-06,-8.39205e-06,0,-2.34593e-05,-1.13021e+09,-1.13234e+09,-1.13122e+09,-3.13533e+06,0.0317005,0.448185,0,0.449305,2000,-41001.5,0,41050.3,3.13533e+06
step02_gravity_refstate-mantle.xmf,844,5.4732e-06,-6.39003e-06,0,-1.89443e-05,-1.12197e+09,-1.12355e+09,-1.1227e+09,-2.53191e+06,0.0388264,0.420807,0,0.422595,2433.09,-40738.4,0,40811,2.53191e+06
step02_gravity_refstate-mantle.xmf,845,4.44967e-06,-3.99007e-06,0,-2.08243e-05,-1.13745e+09,-1.13857e+09,-1.13804e+09,-2.78317e+06,0.0310208,0.422029,0,0.423167,2456.61,-41215.8,0,41288.9,2.78317e+06
step02_gravity_refstate-mantle.xmf,846,-1.2946e-06,9.30544e-06,0,-2.28134e-05,-1.21212e+09,-1.2107e+09,-1.21194e+09,-3.04901e+06,-0.00173879,0.397568,-0,0.397572,2761.33,-43518,0,43605.5,3.04901e+06
step02_gravity_refstate-mantle.xmf,847,-1.16648e-05,2.6704e-05,0,-1.03795e-06,-1.58798e+09,-1.58285e+09,-1.58642e+09,-138723,-0.00897524,0.124139,-0,0.124463,763.787,-55103.5,0,55108.8,138723
step02_gravity_refstate-mantle.xmf,848,-1.09969e-05,2.53686e-05,0,5.22369e-08,-1.65944e+09,-1.65458e+09,-1.65797e+09,6981.47,0.00122831,0.067247,0,0.0672582,-111.723,-57312,-0,57312.2,6981.47
step02_gravity_refstate-mantle.xmf,849,-1.06245e-05,2.48183e-05,0,3.65329e-07,-1.69741e+09,-1.69268e+09,-1.69599e+09,48826.3,0.0111346,0.0373998,0,0.0390221,-1038.82,-58486.1,-0,58495.3,48826.3
step02_gravity_refstate-mantle.xmf,850,-3.63461e-06,1.92787e-05,0,-1.71445e-05,-1.29769e+09,-1.29463e+09,-1.2972e+09,-2.29136e+06,-0.0348395,0.331926,-0,0.33375,3243.87,-46171.2,0,46285,2.29136e+06
step02_gravity_refstate-mantle.xmf,851,-3.43023e-06,1.76205e-05,0,-1.78093e-05,-1.28092e+09,-1.2781e+09,-1.28046e+09,-2.38021e+06,-0.0294655,0.341059,-0,0.34233,3256.09,-45650.2,0,45766.2,2.38021e+06
step02_gravity_refstate-mantle.xmf,852,-8.45256e-06,2.54747e-05,0,-1.10186e-05,-1.42462e+09,-1.42009e+09,-1.42349e+09,-1.47264e+06,-0.0447342,0.239056,-0,0.243205,3304.2,-50075.8,0,50184.7,1.47264e+06
step02_gravity_refstate-mantle.xmf,853,-9.47342e-06,2.64126e-05,0,-9.62778e-06,-1.44455e+09,-1.43976e+09,-1.44329e+09,-1.28675e+06,-0.0417595,0.226933,-0,0.230743,3102.54,-50687,0,50781.9,1.28675e+06
step02_gravity_refstate-mantle.xmf,854,-1.12572e-05,2.85454e-05,0,-8.03428e-06,-1.45781e+09,-1.45249e+09,-1.45631e+09,-1.07378e+06,-0.0344864,0.225419,-0,0.228042,2486.79,-51090.1,0,51150.6,1.07378e+06
step02_gravity_refstate-mantle.xmf,855,-1.11107e-05,2.77329e-05,0,-6.92019e-06,-1.47977e+09,-1.47458e+09,-1.47829e+09,-924883,-0.0337074,0.205658,-0,0.208402,2542.27,-51767.4,0,51829.8,924883
step02_gravity_refstate-mantle.xmf,856,-1.14249e-05,2.65187e-05,0,-2.1926e-06,-1.57522e+09,-1.57014e+09,-1.57369e+09,-293040,-0.0179399,0.132667,-0,0.133874,1519.25,-54710.4,0,54731.5,293040
step02_gravity_refstate-mantle.xmf,857,-1.09522e-05,2.6991e-05,0,-5.86432e-06,-1.50278e+09,-1.49771e+09,-1.50132e+09,-783766,-0.0326326,0.185999,-0,0.18884,2565.61,-52477.3,0,52540,783766
step02_gravity_refstate-mantle.xmf,858,-1.13925e-05,2.69295e-05,0,-3.84694e-06,-1.53786e+09,-1.53274e+09,-1.53634e+09,-514143,-0.0252483,0.160917,-0,0.162886,2055.08,-53557.8,0,53597.3,514143
step02_gravity_refstate-mantle.xmf,859,1.28688e-05,-1.46516e-05,0,-1.57205e-05,-1.09715e+09,-1.10083e+09,-1.09887e+09,-2.10104e+06,0.0479805,0.436091,0,0.438722,2000,-40000,0,40050,2.10104e+06
step02_gravity_refstate-mantle.xmf,860,6.78568e-06,-8.57469e-06,0,-1.73617e-05,-1.10969e+09,-1.11174e+09,-1.1106e+09,-2.32039e+06,0.0449954,0.421613,0,0.424008,2365.01,-40362.3,0,40431.5,2.32039e+06
step02_gravity_refstate-mantle.xmf,861,1.90947e-06,1.19647e-06,0,-2.13772e-05,-1.16358e+09,-1.16367e+09,-1.16383e+09,-2.85706e+06,0.0193656,0.407146,0,0.407607,2732.08,-42019.3,0,42108,2.85706e+06
step02_gravity_refstate-mantle.xmf,862,-3.1078e-06,1.5787e-05,0,-1.84968e-05,-1.26421e+09,-1.26168e+09,-1.26379e+09,-2.47209e+06,-0.0234679,0.349953,-0,0.350739,3252.58,-45131.5,0,45248.6,2.47209e+06
step02_gravity_refstate-mantle.xmf,863,-2.69406e-06,1.39305e-05,0,-1.91583e-05,-1.2485e+09,-1.24628e+09,-1.24814e+09,-2.5605e+06,-0.0173685,0.35862,-0,0.359041,3224.94,-44644.3,0,44760.7,2.5605e+06
step02_gravity_refstate-mantle.xmf,864,-2.11653e-06,1.18478e-05,0,-1.96147e-05,-1.23261e+09,-1.23075e+09,-1.23233e+09,-2.62151e+06,-0.0109336,0.366041,-0,0.366205,3204.83,-44152.1,0,44268.3,2.62151e+06
step02_gravity_refstate-mantle.xmf,865,-1.3456e-06,9.36029e-06,0,-1.99763e-05,-1.21467e+09,-1.21324e+09,-1.21449e+09,-2.66984e+06,-0.00334133,0.374016,-0,0.374031,3166.37,-43596.6,0,43711.4,2.66984e+06
step02_gravity_refstate-mantle.xmf,866,-4.34222e-07,6.76397e-06,0,-2.08421e-05,-1.19675e+09,-1.19579e+09,-1.19669e+09,-2.78555e+06,0.00457789,0.387752,0,0.387779,2998.55,-43042.5,0,43146.9,2.78555e+06
step02_gravity_refstate-mantle.xmf,867,-1.13147e-05,2.60137e-05,0,-7.73764e-07,-1.61576e+09,-1.61077e+09,-1.61424e+09,-103414,-0.00830093,0.101556,-0,0.101894,729.376,-55962.1,0,55966.9,103414
step02_gravity_refstate-mantle.xmf,868,-1.10342e-05,2.55452e-05,0,-5.41805e-07,-1.64499e+09,-1.6401e+09,-1.64352e+09,-72412.2,-0.00786374,0.0783138,-0,0.0787077,709.666,-56865.9,0,56870.3,72412.2
step02_gravity_refstate-mantle.xmf,869,-1.08049e-05,2.50544e-05,0,6.8955e-08,-1.68926e+09,-1.68447e+09,-1.68782e+09,9215.84,0.00213351,0.0440073,0,0.044059,-197.283,-58233.7,-0,58234,9215.84
step02_gravity_refstate-mantle.xmf,870,-1.06832e-05,2.48693e-05,0,1.09714e-07,-1.71805e+09,-1.7133e+09,-1.71662e+09,14663.2,0.00591749,0.0217609,0,0.0225511,-553.577,-59123.2,-0,59125.8,14663.2
step02_gravity_refstate-mantle.xmf,871,-1.05321e-05,2.46764e-05,0,1.12874e-08,-1.74642e+09,-1.74171e+09,-1.74501e+09,1508.56,0.0116777,-3.08831e-19,0,0.0116777,-1099.99,-60000,-0,60010.1,1508.56
step02_gravity_refstate-mantle.xmf,872,-4.37921e-06,2.08514e-05,0,-1.3432e-05,-1.37388e+09,-1.37051e+09,-1.3733e+09,-1.79519e+06,-0.0494375,0.261079,-0,0.265719,3897.94,-48523.8,0,48680.1,1.79519e+06
step02_gravity_refstate-mantle.xmf,873,-3.35731e-06,1.97743e-05,0,-1.4046e-05,-1.35425e+09,-1.35116e+09,-1.3538e+09,-1.87724e+06,-0.048043,0.274278,-0,0.278454,3868.28,-47921.5,0,48077.4,1.87724e+06
step02_gravity_refstate-mantle.xmf,874,-2.71755e-06,1.89462e-05,0,-1.44816e-05,-1.33547e+09,-1.33258e+09,-1.33511e+09,-1.93547e+06,-0.045407,0.288124,-0,0.29168,3789.34,-47343.6,0,47495,1.93547e+06
step02_gravity_refstate-mantle.xmf,875,-2.74635e-06,1.88515e-05,0,-1.50829e-05,-1.32046e+09,-1.31757e+09,-1.32009e+09,-2.01584e+06,-0.0421202,0.302118,-0,0.30504,3644.33,-46879.4,0,47020.9,2.01584e+06
step02_gravity_refstate-mantle.xmf,876,-2.43928e-06,1.74324e-05,0,-1.51857e-05,-1.30501e+09,-1.30235e+09,-1.30468e+09,-2.02956e+06,-0.0383822,0.308636,-0,0.311013,3701.65,-46400.6,0,46548,2.02956e+06
step02_gravity_refstate-mantle.xmf,877,-1.0919e-05,2.60577e-05,0,-3.41255e-06,-1.56158e+09,-1.55664e+09,-1.56012e+09,-456087,-0.026557,0.140319,-0,0.14281,2253.15,-54291.5,0,54338.2,456087
step02_gravity_refstate-mantle.xmf,878,-1.08304e-05,2.64225e-05,0,-5.01347e-06,-1.52317e+09,-1.51819e+09,-1.52172e+09,-670050,-0.0314305,0.169322,-0,0.172215,2551.82,-53106.5,0,53167.8,670050
step02_gravity_refstate-mantle.xmf,879,-5.42526e-06,2.18246e-05,0,-1.25718e-05,-1.39373e+09,-1.39009e+09,-1.39301e+09,-1.68022e+06,-0.0498258,0.247908,-0,0.252866,3901.85,-49132.5,0,49287.2,1.68022e+06
step02_gravity_refstate-mantle.xmf,880,-6.40025e-06,2.26418e-05,0,-1.15382e-05,-1.41433e+09,-1.41045e+09,-1.41348e+09,-1.54208e+06,-0.0494238,0.234282,-0,0.239438,3881,-49764.4,0,49915.5,1.54208e+06
step02_gravity_refstate-mantle.xmf,881,7.91744e-07,3.4525e-06,0,-2.02144e-05,-1.17468e+09,-1.17432e+09,-1.17478e+09,-2.70166e+06,0.0145454,0.392196,0,0.392466,2981.36,-42360.4,0,42465.2,2.70166e+06
step02_gravity_refstate-mantle.xmf,882,6.27833e-06,-8.48014e-06,0,-1.41853e-05,-1.09806e+09,-1.10004e+09,-1.0989e+09,-1.89587e+06,0.052943,0.411064,0,0.414459,2511.47,-40000,0,40078.8,1.89587e+06
step02_gravity_refstate-mantle.xmf,883,1.66494e-06,6.83328e-07,0,-1.8884e-05,-1.15455e+09,-1.15468e+09,-1.15477e+09,-2.52385e+06,0.0242708,0.391768,0,0.392519,3012.06,-41737.4,0,41846,2.52385e+06
step02_gravity_refstate-mantle.xmf,884,2.6193e-06,-1.55872e-06,0,-1.87341e-05,-1.14206e+09,-1.14262e+09,-1.14241e+09,-2.50382e+06,0.0302148,0.399672,0,0.400813,2862.5,-41352.4,0,41451.4,2.50382e+06
step02_gravity_refstate-mantle.xmf,885,4.08886e-06,-5.47547e-06,0,-1.56853e-05,-1.11175e+09,-1.11303e+09,-1.1123e+09,-2.09634e+06,0.0462534,0.400734,0,0.403395,2778.81,-40415.9,0,40511.4,2.09634e+06
step02_gravity_refstate-mantle.xmf,886,2.58489e-06,-2.58692e-06,0,-1.67238e-05,-1.12859e+09,-1.12928e+09,-1.12893e+09,-2.23513e+06,0.0376945,0.391692,0,0.393502,2998.08,-40933.2,0,41042.9,2.23513e+06
step02_gravity_refstate-mantle.xmf,887,-1.11058e-05,2.58497e-05,0,-1.73811e-06,-1.60194e+09,-1.597e+09,-1.60046e+09,-232298,-0.0173264,0.111049,-0,0.112393,1516.01,-55536.4,0,55557.1,232298
step02_gravity_refstate-mantle.xmf,888,-1.08197e-05,2.50835e-05,0,-3.60807e-07,-1.67558e+09,-1.67078e+09,-1.67413e+09,-48221.8,-0.00724733,0.0544581,-0,0.0549383,667.431,-57810.9,0,57814.8,48221.8
step02_gravity_refstate-mantle.xmf,889,-2.34717e-06,1.60692e-05,0,-1.55285e-05,-1.28733e+09,-1.28487e+09,-1.28702e+09,-2.07539e+06,-0.0329918,0.31728,-0,0.318991,3717.04,-45851.6,0,46002,2.07539e+06
step02_gravity_refstate-mantle.xmf,890,-2.25309e-06,1.46704e-05,0,-1.60093e-05,-1.27034e+09,-1.26808e+09,-1.27004e+09,-2.13964e+06,-0.0269928,0.32589,-0,0.327006,3707.05,-45323.8,0,45475.1,2.13964e+06
step02_gravity_refstate-mantle.xmf,891,-7.29482e-06,2.33363e-05,0,-1.04093e-05,-1.43566e+09,-1.43156e+09,-1.43468e+09,-1.39121e+06,-0.0482913,0.220341,-0,0.225571,3824.91,-50418.9,0,50563.7,1.39121e+06
step02_gravity_refstate-mantle.xmf,892,-9.65079e-06,2.59727e-05,0,-8.26876e-06,-1.46847e+09,-1.46371e+09,-1.46718e+09,-1.10512e+06,-0.040711,0.206918,-0,0.210885,3148.28,-51423.4,0,51519.7,1.10512e+06
step02_gravity_refstate-mantle.xmf,893,-9.74322e-06,2.55223e-05,0,-7.11893e-06,-1.49173e+09,-1.48702e+09,-1.49043e+09,-951445,-0.0396873,0.187952,-0,0.192097,3186.26,-52140.2,0,52237.5,951445
step02_gravity_refstate-mantle.xmf,894,-1.06264e-05,2.53372e-05,0,-2.77488e-06,-1.58836e+09,-1.58355e+09,-1.58694e+09,-370862,-0.0260184,0.118941,-0,0.121754,2283.74,-55118.6,0,55165.9,370862
step02_gravity_refstate-mantle.xmf,895,-9.81998e-06,2.51478e-05,0,-5.98144e-06,-1.51677e+09,-1.5121e+09,-1.51546e+09,-799419,-0.0382222,0.168483,-0,0.172765,3177.98,-52912.3,0,53007.6,799419
step02_gravity_refstate-mantle.xmf,896,-1.01395e-05,2.519e-05,0,-4.75629e-06,-1.54375e+09,-1.53903e+09,-1.5424e+09,-635679,-0.0346496,0.149605,-0,0.153566,2952.2,-53743.7,0,53824.7,635679
step02_gravity_refstate-mantle.xmf,897,-2.09164e-06,1.32142e-05,0,-1.65245e-05,-1.25416e+09,-1.25211e+09,-1.25388e+09,-2.20849e+06,-0.0207168,0.334187,-0,0.334829,3679.49,-44821.2,0,44972,2.20849e+06
step02_gravity_refstate-mantle.xmf,898,-1.81362e-06,1.16486e-05,0,-1.69294e-05,-1.23865e+09,-1.23685e+09,-1.23841e+09,-2.26262e+06,-0.0143385,0.341421,-0,0.341722,3653.33,-44340.2,0,44490.5,2.26262e+06
step02_gravity_refstate-mantle.xmf,899,-1.38791e-06,9.73708e-06,0,-1.70317e-05,-1.22188e+09,-1.22039e+09,-1.22169e+09,-2.27629e+06,-0.00715286,0.346753,-0,0.346827,3658.56,-43819.9,0,43972.4,2.27629e+06
step02_gravity_refstate-mantle.xmf,900,-8.65656e-07,7.56566e-06,0,-1.72135e-05,-1.20303e+09,-1.2019e+09,-1.20291e+09,-2.30058e+06,0.00136636,0.354367,0,0.354369,3606.58,-43235.6,0,43385.8,2.30058e+06
step02_gravity_refstate-mantle.xmf,901,-1.084e-05,2.53024e-05,0,-1.31348e-06,-1.63054e+09,-1.62571e+09,-1.62909e+09,-175547,-0.0166926,0.0884775,-0,0.0900383,1502.3,-56420.2,0,56440.2,175547
step02_gravity_refstate-mantle.xmf,902,-1.0641e-05,2.49596e-05,0,-9.17415e-07,-1.65997e+09,-1.65522e+09,-1.65855e+09,-122613,-0.016098,0.0656856,-0,0.0676295,1481.15,-57329.8,0,57348.9,122613
step02_gravity_refstate-mantle.xmf,903,-1.07014e-05,2.48532e-05,0,-1.70657e-07,-1.71089e+09,-1.70614e+09,-1.70946e+09,-22808.3,-0.00654162,0.0272467,-0,0.028021,610.98,-58902,0,58905.2,22808.3
step02_gravity_refstate-mantle.xmf,904,-1.06979e-05,2.48906e-05,0,1.61749e-08,-1.74643e+09,-1.74168e+09,-1.745e+09,2161.78,-2.46104e-06,-3.7539e-19,-0,2.46104e-06,-6.37519e-08,-60000,-0,60000,2161.78
step02_gravity_refstate-mantle.xmf,905,-3.60139e-06,1.89781e-05,0,-1.21997e-05,-1.38344e+09,-1.38042e+09,-1.38295e+09,-1.63049e+06,-0.0519863,0.240722,-0,0.246272,4433.32,-48819.3,0,49020.2,1.63049e+06
step02_gravity_refstate-mantle.xmf,906,-2.64528e-06,1.78847e-05,0,-1.26915e-05,-1.36271e+09,-1.35996e+09,-1.36235e+09,-1.69622e+06,-0.050509,0.252936,-0,0.257929,4418.32,-48182.7,0,48384.8,1.69622e+06
step02_gravity_refstate-mantle.xmf,907,-1.58131e-06,1.60257e-05,0,-1.34765e-05,-1.31871e+09,-1.31635e+09,-1.3185e+09,-1.80113e+06,-0.0429569,0.282502,-0,0.28575,4215.6,-46825.8,0,47015.2,1.80113e+06
step02_gravity_refstate-mantle.xmf,908,-1.86105e-06,1.67734e-05,0,-1.30092e-05,-1.34118e+09,-1.33869e+09,-1.34094e+09,-1.73868e+06,-0.0476767,0.265892,-0,0.270132,4371.45,-47520.2,0,47720.8,1.73868e+06
step02_gravity_refstate-mantle.xmf,909,-1.38956e-06,1.46408e-05,0,-1.35243e-05,-1.29691e+09,-1.29476e+09,-1.29672e+09,-1.80753e+06,-0.0370641,0.291773,-0,0.294118,4248.7,-46150.2,0,46345.3,1.80753e+06
step02_gravity_refstate-mantle.xmf,910,-7.95388e-06,2.37871e-05,0,-9.22421e-06,-1.45745e+09,-1.45321e+09,-1.45639e+09,-1.23282e+06,-0.0469059,0.205348,-0,0.210637,3779.58,-51088.9,0,51228.5,1.23282e+06
step02_gravity_refstate-mantle.xmf,911,-9.91553e-06,2.45512e-05,0,-3.817e-06,-1.57413e+09,-1.56952e+09,-1.5728e+09,-510142,-0.034094,0.125808,-0,0.130346,3021.98,-54681.9,0,54765.4,510142
step02_gravity_refstate-mantle.xmf,912,-4.5739e-06,1.99614e-05,0,-1.15089e-05,-1.40415e+09,-1.40087e+09,-1.40354e+09,-1.53817e+06,-0.0525113,0.228395,-0,0.234353,4428.35,-49455.3,0,49653.2,1.53817e+06
step02_gravity_refstate-mantle.xmf,913,-5.4745e-06,2.07745e-05,0,-1.0646e-05,-1.42553e+09,-1.42202e+09,-1.4248e+09,-1.42284e+06,-0.0523558,0.215261,-0,0.221537,4414.89,-50111.7,0,50305.8,1.42284e+06
step02_gravity_refstate-mantle.xmf,914,-2.59734e-07,5.26159e-06,0,-1.70659e-05,-1.1836e+09,-1.18287e+09,-1.18357e+09,-2.28086e+06,0.010495,0.360615,0,0.360768,3558.47,-42633.8,0,42782.1,2.28086e+06
step02_gravity_refstate-mantle.xmf,915,2.65426e-06,-4.70274e-06,0,-1.26861e-05,-1.09854e+09,-1.09952e+09,-1.09889e+09,-1.69549e+06,0.0553195,0.385891,0,0.389836,3044.18,-40000,0,40115.7,1.69549e+06
step02_gravity_refstate-mantle.xmf,916,9.87801e-07,5.6618e-07,0,-1.58261e-05,-1.14296e+09,-1.14302e+09,-1.1431e+09,-2.11516e+06,0.0308279,0.371127,0,0.372406,3418.32,-41374.7,0,41515.7,2.11516e+06
step02_gravity_refstate-mantle.xmf,917,3.37033e-07,2.93272e-06,0,-1.6515e-05,-1.16348e+09,-1.16313e+09,-1.16352e+09,-2.20723e+06,0.0203595,0.365074,0,0.365641,3519.81,-42010.1,0,42157.3,2.20723e+06
step02_gravity_refstate-mantle.xmf,918,1.61735e-06,-2.5534e-06,0,-1.37386e-05,-1.1133e+09,-1.11385e+09,-1.11351e+09,-1.83616e+06,0.0470404,0.375361,0,0.378297,3308.75,-40454.6,0,40589.7,1.83616e+06
step02_gravity_refstate-mantle.xmf,919,-1.04225e-05,2.48438e-05,0,-2.1604e-06,-1.61641e+09,-1.61169e+09,-1.61501e+09,-288738,-0.0251955,0.0972317,-0,0.100443,2275.54,-55985.2,0,56031.4,288738
step02_gravity_refstate-mantle.xmf,920,-1.04817e-05,2.46039e-05,0,-6.03762e-07,-1.68964e+09,-1.68495e+09,-1.68824e+09,-80692.8,-0.0160025,0.0429781,-0,0.0458606,1496.04,-58246.4,0,58265.6,80692.8
step02_gravity_refstate-mantle.xmf,921,-1.4051e-06,1.3437e-05,0,-1.38135e-05,-1.27716e+09,-1.27517e+09,-1.27697e+09,-1.84617e+06,-0.0304467,0.301321,-0,0.302855,4226.12,-45536.9,0,45732.6,1.84617e+06
step02_gravity_refstate-mantle.xmf,922,-1.42566e-06,1.2247e-05,0,-1.42441e-05,-1.25915e+09,-1.25732e+09,-1.25896e+09,-1.90372e+06,-0.0235829,0.310764,-0,0.311658,4171.6,-44977.6,0,45170.6,1.90372e+06
step02_gravity_refstate-mantle.xmf,923,-6.29004e-06,2.14671e-05,0,-9.71525e-06,-1.44695e+09,-1.44324e+09,-1.44611e+09,-1.29844e+06,-0.0515875,0.202103,-0,0.208583,4374.64,-50769.8,0,50957.9,1.29844e+06
step02_gravity_refstate-mantle.xmf,924,-8.29149e-06,2.37288e-05,0,-8.08611e-06,-1.48015e+09,-1.47587e+09,-1.47905e+09,-1.08071e+06,-0.0459343,0.188326,-0,0.193846,3806.58,-51787.8,0,51927.5,1.08071e+06
step02_gravity_refstate-mantle.xmf,925,-8.56003e-06,2.35848e-05,0,-6.95623e-06,-1.50524e+09,-1.50094e+09,-1.50409e+09,-929701,-0.0447853,0.169781,-0,0.175589,3826.33,-52560.4,0,52699.5,929701
step02_gravity_refstate-mantle.xmf,926,-9.77696e-06,2.4088e-05,0,-3.04429e-06,-1.60221e+09,-1.59768e+09,-1.6009e+09,-406869,-0.0332814,0.104656,-0,0.109821,3036.6,-55549,0,55631.9,406869
step02_gravity_refstate-mantle.xmf,927,-8.77197e-06,2.34539e-05,0,-5.83268e-06,-1.53234e+09,-1.52803e+09,-1.53116e+09,-779538,-0.0433273,0.150281,-0,0.156402,3812.97,-53395.7,0,53531.7,779538
step02_gravity_refstate-mantle.xmf,928,-8.9094e-06,2.33025e-05,0,-4.79093e-06,-1.56034e+09,-1.55603e+09,-1.55915e+09,-640308,-0.0417896,0.130392,-0,0.136924,3780.2,-54259.4,0,54390.9,640308
step02_gravity_refstate-mantle.xmf,929,9.14122e-07,-6.67223e-07,0,-1.42093e-05,-1.12658e+09,-1.12679e+09,-1.1267e+09,-1.89908e+06,0.0398133,0.366198,0,0.368356,3520.72,-40865,0,41016.4,1.89908e+06
step02_gravity_refstate-mantle.xmf,930,-1.46074e-06,1.13293e-05,0,-1.48669e-05,-1.24437e+09,-1.24267e+09,-1.24418e+09,-1.98696e+06,-0.0174189,0.320664,-0,0.321137,4066.16,-44518.5,0,44703.8,1.98696e+06
step02_gravity_refstate-mantle.xmf,931,-1.2229e-06,9.86742e-06,0,-1.45271e-05,-1.23003e+09,-1.22855e+09,-1.22987e+09,-1.94155e+06,-0.0114088,0.321128,-0,0.32133,4164.53,-44073.3,0,44269.6,1.94155e+06
step02_gravity_refstate-mantle.xmf,932,-1.00601e-06,8.12645e-06,0,-1.4527e-05,-1.21126e+09,-1.21004e+09,-1.21113e+09,-1.94154e+06,-0.00294585,0.326705,-0,0.326719,4156.89,-43490.5,0,43688.7,1.94154e+06
step02_gravity_refstate-mantle.xmf,933,-7.47434e-07,6.25468e-06,0,-1.44635e-05,-1.19109e+09,-1.19016e+09,-1.19099e+09,-1.93305e+06,0.00662094,0.333083,0,0.333149,4114.67,-42864.4,0,43061.4,1.93305e+06
step02_gravity_refstate-mantle.xmf,934,-1.02547e-05,2.44594e-05,0,-1.60731e-06,-1.6452e+09,-1.64056e+09,-1.64383e+09,-214816,-0.0244943,0.0753364,-0,0.0792184,2264.22,-56874.8,0,56919.9,214816
step02_gravity_refstate-mantle.xmf,935,-1.01393e-05,2.42412e-05,0,-1.09955e-06,-1.67387e+09,-1.66928e+09,-1.67252e+09,-146955,-0.0238982,0.0538223,-0,0.0588894,2247.22,-57760.7,0,57804.4,146955
step02_gravity_refstate-mantle.xmf,936,-1.03063e-05,2.43534e-05,0,-3.23677e-07,-1.71896e+09,-1.71433e+09,-1.71759e+09,-43259.5,-0.0182496,0.0206184,-0,0.0275349,1727.64,-59152.7,0,59177.9,43259.5
step02_gravity_refstate-mantle.xmf,937,-1.05415e-05,2.46907e-05,0,6.6477e-09,-1.74642e+09,-1.74171e+09,-1.74501e+09,888.465,-0.0116736,-2.70879e-19,-0,0.0116736,1099.99,-60000,0,60010.1,888.465
step02_gravity_refstate-mantle.xmf,938,-2.98687e-06,1.74332e-05,0,-1.10455e-05,-1.39376e+09,-1.39103e+09,-1.39336e+09,-1.47623e+06,-0.0543175,0.221132,-0,0.227705,4988.61,-49138.3,0,49390.8,1.47623e+06
step02_gravity_refstate-mantle.xmf,939,-2.11973e-06,1.63987e-05,0,-1.14409e-05,-1.3725e+09,-1.37002e+09,-1.37222e+09,-1.52907e+06,-0.0527842,0.232448,-0,0.238366,4980.44,-48484.8,0,48739.9,1.52907e+06
step02_gravity_refstate-mantle.xmf,940,-1.36672e-06,1.53212e-05,0,-1.16492e-05,-1.35111e+09,-1.34888e+09,-1.35092e+09,-1.55692e+06,-0.0501677,0.243543,-0,0.248657,4958.49,-47826.3,0,48082.7,1.55692e+06
step02_gravity_refstate-mantle.xmf,941,-8.53455e-07,1.42703e-05,0,-1.17209e-05,-1.32955e+09,-1.32752e+09,-1.32943e+09,-1.5665e+06,-0.0462456,0.25446,-0,0.258628,4923.79,-47161,0,47417.3,1.5665e+06
step02_gravity_refstate-mantle.xmf,942,-6.76224e-07,1.33515e-05,0,-1.18446e-05,-1.30751e+09,-1.30564e+09,-1.30742e+09,-1.58303e+06,-0.0407809,0.266462,-0,0.269564,4843.63,-46479.3,0,46731,1.58303e+06
step02_gravity_refstate-mantle.xmf,943,-6.89216e-07,1.23454e-05,0,-1.19518e-05,-1.28624e+09,-1.2845e+09,-1.28615e+09,-1.59736e+06,-0.0342072,0.27651,-0,0.278618,4799.03,-45819.4,0,46070.1,1.59736e+06
step02_gravity_refstate-mantle.xmf,944,-6.8226e-06,2.18134e-05,0,-8.72773e-06,-1.46839e+09,-1.46456e+09,-1.46747e+09,-1.16646e+06,-0.0508672,0.18763,-0,0.194403,4385.32,-51429.2,0,51615.8,1.16646e+06
step02_gravity_refstate-mantle.xmf,945,-8.94962e-06,2.30999e-05,0,-3.88831e-06,-1.58788e+09,-1.5836e+09,-1.58668e+09,-519673,-0.0406253,0.110766,-0,0.117981,3768.91,-55109.4,0,55238.1,519673
step02_gravity_refstate-mantle.xmf,946,-3.85442e-06,1.83466e-05,0,-1.04658e-05,-1.41513e+09,-1.41216e+09,-1.41461e+09,-1.39875e+06,-0.055033,0.209273,-0,0.216388,4990.89,-49795,0,50044.5,1.39875e+06
step02_gravity_refstate-mantle.xmf,947,-4.73472e-06,1.92357e-05,0,-9.75473e-06,-1.43741e+09,-1.43421e+09,-1.43678e+09,-1.30372e+06,-0.0549807,0.197068,-0,0.204594,4955.73,-50479.8,0,50722.5,1.30372e+06
step02_gravity_refstate-mantle.xmf,948,-5.04364e-07,4.45801e-06,0,-1.41577e-05,-1.17166e+09,-1.171e+09,-1.17159e+09,-1.89218e+06,0.0162271,0.338017,0,0.338407,4076.36,-42261.1,0,42457.3,1.89218e+06
step02_gravity_refstate-mantle.xmf,949,1.53717e-07,-1.93697e-06,0,-1.13368e-05,-1.09885e+09,-1.09913e+09,-1.09887e+09,-1.51516e+06,0.0560955,0.361347,0,0.365676,3601.4,-40000,0,40161.8,1.51516e+06
step02_gravity_refstate-mantle.xmf,950,-3.01986e-07,2.73047e-06,0,-1.3654e-05,-1.15226e+09,-1.15186e+09,-1.15222e+09,-1.82486e+06,0.0261961,0.342531,0,0.343531,4023.09,-41658.9,0,41852.7,1.82486e+06
step02_gravity_refstate-mantle.xmf,951,-2.26071e-07,1.13881e-06,0,-1.28274e-05,-1.13267e+09,-1.13249e+09,-1.13264e+09,-1.71438e+06,0.036675,0.34563,0,0.34757,3978.65,-41050.2,0,41242.6,1.71438e+06
step02_gravity_refstate-mantle.xmf,952,-2.54639e-07,-2.6531e-07,0,-1.19107e-05,-1.11468e+09,-1.11468e+09,-1.11465e+09,-1.59186e+06,0.0467508,0.349512,0,0.352625,3893.49,-40490.6,0,40677.4,1.59186e+06
step02_gravity_refstate-mantle.xmf,953,-9.66171e-06,2.37459e-05,0,-2.34196e-06,-1.63094e+09,-1.62647e+09,-1.62965e+09,-313003,-0.0325968,0.0833865,-0,0.0895313,3046.84,-56436.4,0,56518.5,313003
step02_gravity_refstate-mantle.xmf,954,-1.00626e-05,2.407e-05,0,-6.96172e-07,-1.69892e+09,-1.69436e+09,-1.69757e+09,-93043.4,-0.0235136,0.0351745,-0,0.04231,2233.74,-58534.4,0,58577,93043.4
step02_gravity_refstate-mantle.xmf,955,-7.92116e-07,1.12767e-05,0,-1.21431e-05,-1.26572e+09,-1.2641e+09,-1.26561e+09,-1.62292e+06,-0.0267897,0.285814,-0,0.287066,4751.1,-45182.1,0,45431.2,1.62292e+06
step02_gravity_refstate-mantle.xmf,956,-9.29555e-07,1.00768e-05,0,-1.25477e-05,-1.2438e+09,-1.24233e+09,-1.24368e+09,-1.677e+06,-0.0178702,0.297216,-0,0.297753,4643.33,-44501.1,0,44742.7,1.677e+06
step02_gravity_refstate-mantle.xmf,957,-5.57783e-06,2.01447e-05,0,-9.0964e-06,-1.45669e+09,-1.45325e+09,-1.45595e+09,-1.21573e+06,-0.0540804,0.187462,-0,0.195107,4842.09,-51072,0,51301,1.21573e+06
step02_gravity_refstate-mantle.xmf,958,-7.18221e-06,2.18643e-05,0,-7.69997e-06,-1.49197e+09,-1.48809e+09,-1.49101e+09,-1.0291e+06,-0.0502321,0.170989,-0,0.178215,4436.98,-52155.4,0,52343.8,1.0291e+06
step02_gravity_refstate-mantle.xmf,959,-7.42665e-06,2.17418e-05,0,-6.62805e-06,-1.51872e+09,-1.51482e+09,-1.51773e+09,-885838,-0.0497244,0.151862,-0,0.159796,4525.9,-52979.7,0,53172.6,885838
step02_gravity_refstate-mantle.xmf,960,-8.89129e-06,2.27966e-05,0,-3.09868e-06,-1.61592e+09,-1.61168e+09,-1.61473e+09,-414139,-0.0400906,0.0906647,-0,0.0991329,3810.32,-55975.1,0,56104.7,414139
step02_gravity_refstate-mantle.xmf,961,-7.93029e-06,2.17959e-05,0,-4.60143e-06,-1.57478e+09,-1.57081e+09,-1.57373e+09,-614981,-0.0472885,0.114417,-0,0.123804,4501.79,-54708.4,0,54893.3,614981
step02_gravity_refstate-mantle.xmf,962,-7.70222e-06,2.17586e-05,0,-5.56112e-06,-1.54717e+09,-1.54323e+09,-1.54614e+09,-743244,-0.0486042,0.132678,-0,0.141301,4534.6,-53856.8,0,54047.4,743244
step02_gravity_refstate-mantle.xmf,963,-9.01238e-07,8.4901e-06,0,-1.23092e-05,-1.22254e+09,-1.22128e+09,-1.22242e+09,-1.64512e+06,-0.00864302,0.300675,-0,0.300799,4712.82,-43840.4,0,44092.9,1.64512e+06
step02_gravity_refstate-mantle.xmf,964,-9.23032e-07,6.93697e-06,0,-1.22331e-05,-1.20063e+09,-1.19958e+09,-1.2005e+09,-1.63495e+06,0.00156068,0.306878,0,0.306882,4689.33,-43159.5,0,43413.5,1.63495e+06
step02_gravity_refstate-mantle.xmf,965,-9.40221e-07,5.44913e-06,0,-1.20849e-05,-1.17994e+09,-1.17908e+09,-1.17981e+09,-1.61515e+06,0.0116898,0.312792,0,0.31301,4641.31,-42516.5,0,42769.1,1.61515e+06
step02_gravity_refstate-mantle.xmf,966,-9.57647e-06,2.35038e-05,0,-1.67756e-06,-1.6607e+09,-1.65628e+09,-1.65942e+09,-224206,-0.0319014,0.0616927,-0,0.0694528,3038.55,-57355.8,0,57436.2,224206
step02_gravity_refstate-mantle.xmf,967,-9.56523e-06,2.34365e-05,0,-1.02982e-06,-1.6914e+09,-1.68699e+09,-1.69013e+09,-137635,-0.0309082,0.0395879,-0,0.0502247,2980.08,-58304,0,58380.1,137635
step02_gravity_refstate-mantle.xmf,968,-9.71493e-06,2.35968e-05,0,-4.40899e-07,-1.7207e+09,-1.71625e+09,-1.7194e+09,-58926.2,-0.0281562,0.0186634,-0,0.0337801,2717.75,-59208.3,0,59270.6,58926.2
step02_gravity_refstate-mantle.xmf,969,-1.00381e-05,2.40341e-05,0,5.98813e-09,-1.74636e+09,-1.74181e+09,-1.74502e+09,800.314,-0.022991,-2.42233e-19,-0,0.022991,2200.02,-60000,0,60040.3,800.314
step02_gravity_refstate-mantle.xmf,970,-2.46503e-06,1.60965e-05,0,-9.95088e-06,-1.4046e+09,-1.40212e+09,-1.40427e+09,-1.32994e+06,-0.0564994,0.202149,-0,0.209896,5576.69,-49473.4,0,49786.7,1.32994e+06
step02_gravity_refstate-mantle.xmf,971,-1.6964e-06,1.51532e-05,0,-1.02883e-05,-1.38284e+09,-1.38058e+09,-1.38261e+09,-1.37503e+06,-0.0548714,0.212995,-0,0.219949,5562,-48803.8,0,49119.7,1.37503e+06
step02_gravity_refstate-mantle.xmf,972,-1.00515e-06,1.41596e-05,0,-1.04543e-05,-1.36119e+09,-1.35916e+09,-1.36105e+09,-1.39721e+06,-0.0523281,0.22329,-0,0.229339,5542.63,-48137.2,0,48455.2,1.39721e+06
step02_gravity_refstate-mantle.xmf,973,-4.80712e-07,1.3172e-05,0,-1.04731e-05,-1.33957e+09,-1.33775e+09,-1.33951e+09,-1.39973e+06,-0.0486879,0.233142,-0,0.238172,5516.36,-47470.5,0,47789.9,1.39973e+06
step02_gravity_refstate-mantle.xmf,974,-1.94194e-07,1.2238e-05,0,-1.04361e-05,-1.31745e+09,-1.31578e+09,-1.31742e+09,-1.39478e+06,-0.0436963,0.243218,-0,0.247112,5468.99,-46786.4,0,47105,1.39478e+06
step02_gravity_refstate-mantle.xmf,975,-1.54812e-07,1.13802e-05,0,-1.04196e-05,-1.29584e+09,-1.2943e+09,-1.29582e+09,-1.39258e+06,-0.0375686,0.252979,-0,0.255753,5408.78,-46117.1,0,46433.2,1.39258e+06
step02_gravity_refstate-mantle.xmf,976,-2.68267e-07,1.05103e-05,0,-1.04341e-05,-1.27489e+09,-1.27345e+09,-1.27486e+09,-1.39452e+06,-0.0305193,0.261773,-0,0.263546,5357.32,-45467.1,0,45781.7,1.39452e+06
step02_gravity_refstate-mantle.xmf,977,-5.74332e-06,2.00064e-05,0,-8.27814e-06,-1.47566e+09,-1.47222e+09,-1.47489e+09,-1.10637e+06,-0.0545528,0.17291,-0,0.181312,5012.72,-51656.4,0,51899,1.10637e+06
step02_gravity_refstate-mantle.xmf,978,-8.13305e-06,2.18744e-05,0,-3.80326e-06,-1.59915e+09,-1.59514e+09,-1.59806e+09,-508305,-0.0457688,0.098624,-0,0.108727,4416.05,-55459.8,0,55635.4,508305
step02_gravity_refstate-mantle.xmf,979,-3.20736e-06,1.69193e-05,0,-9.47575e-06,-1.4259e+09,-1.42321e+09,-1.42547e+09,-1.26643e+06,-0.0573784,0.191093,-0,0.199522,5586.21,-50128.4,0,50438.7,1.26643e+06
step02_gravity_refstate-mantle.xmf,980,-4.34037e-06,1.81606e-05,0,-8.7453e-06,-1.45506e+09,-1.45206e+09,-1.45448e+09,-1.16881e+06,-0.0572704,0.177238,-0,0.186261,5482.03,-51024.9,0,51318.5,1.16881e+06
step02_gravity_refstate-mantle.xmf,981,-9.95278e-07,4.04453e-06,0,-1.17607e-05,-1.15991e+09,-1.15924e+09,-1.15978e+09,-1.57182e+06,0.0218816,0.317626,0,0.318379,4594.45,-41893.9,0,42145.1,1.57182e+06
step02_gravity_refstate-mantle.xmf,982,-1.60683e-06,1.32162e-07,0,-1.00819e-05,-1.09906e+09,-1.09882e+09,-1.09884e+09,-1.34745e+06,0.055662,0.33759,0,0.342148,4185.58,-40000,0,40218.4,1.34745e+06
step02_gravity_refstate-mantle.xmf,983,-1.15073e-06,2.7661e-06,0,-1.12254e-05,-1.13986e+09,-1.13934e+09,-1.13971e+09,-1.50027e+06,0.0324457,0.321523,0,0.323156,4549.42,-41270.3,0,41520.3,1.50027e+06
step02_gravity_refstate-mantle.xmf,984,-1.55747e-06,1.61977e-06,0,-1.03855e-05,-1.11771e+09,-1.11729e+09,-1.1175e+09,-1.38803e+06,0.0445494,0.324527,0,0.32757,4509.85,-40580.3,0,40830.2,1.38803e+06
step02_gravity_refstate-mantle.xmf,985,-8.81218e-06,2.25431e-05,0,-2.34581e-06,-1.64495e+09,-1.64076e+09,-1.64378e+09,-313518,-0.0398502,0.0700707,-0,0.0806098,3867.45,-56871.9,0,57003.2,313518
step02_gravity_refstate-mantle.xmf,986,-4.40112e-07,9.52291e-06,0,-1.04134e-05,-1.25394e+09,-1.25261e+09,-1.25388e+09,-1.39175e+06,-0.0225234,0.269065,-0,0.270006,5335.35,-44816.1,0,45132.6,1.39175e+06
step02_gravity_refstate-mantle.xmf,987,-5.85762e-06,1.96721e-05,0,-7.21532e-06,-1.50211e+09,-1.4987e+09,-1.50133e+09,-964327,-0.0553155,0.152896,-0,0.162594,5275.16,-52472,0,52736.5,964327
step02_gravity_refstate-mantle.xmf,988,-6.39567e-06,2.004e-05,0,-6.11399e-06,-1.53346e+09,-1.52993e+09,-1.53261e+09,-817135,-0.0542909,0.133746,-0,0.144345,5269.36,-53437.8,0,53696.9,817135
step02_gravity_refstate-mantle.xmf,989,-7.79011e-06,2.12477e-05,0,-3.16127e-06,-1.62412e+09,-1.62024e+09,-1.62308e+09,-422504,-0.0478165,0.0798893,-0,0.0931059,4764.55,-56231.8,0,56433.3,422504
step02_gravity_refstate-mantle.xmf,990,-7.04372e-06,2.04254e-05,0,-4.22665e-06,-1.59052e+09,-1.58685e+09,-1.58958e+09,-564892,-0.0521162,0.0985607,-0,0.111491,5216.7,-55196.8,0,55442.8,564892
step02_gravity_refstate-mantle.xmf,991,-6.75877e-06,2.02604e-05,0,-5.14594e-06,-1.56202e+09,-1.55841e+09,-1.56112e+09,-687755,-0.0532565,0.116141,-0,0.12777,5254.18,-54318,0,54571.5,687755
step02_gravity_refstate-mantle.xmf,992,-6.49585e-07,8.42626e-06,0,-1.04115e-05,-1.23213e+09,-1.23092e+09,-1.23205e+09,-1.3915e+06,-0.0133685,0.276314,-0,0.276638,5302.42,-44138.4,0,44455.8,1.3915e+06
step02_gravity_refstate-mantle.xmf,993,-8.66222e-07,7.25441e-06,0,-1.03398e-05,-1.21038e+09,-1.20929e+09,-1.21026e+09,-1.38192e+06,-0.00355555,0.282459,-0,0.282482,5279.39,-43461.8,0,43781.3,1.38192e+06
step02_gravity_refstate-mantle.xmf,994,-1.34729e-06,4.91809e-06,0,-1.00758e-05,-1.16779e+09,-1.16695e+09,-1.16761e+09,-1.34663e+06,0.0172025,0.29434,0,0.294842,5174.39,-42137.2,0,42453.7,1.34663e+06
step02_gravity_refstate-mantle.xmf,995,-1.09822e-06,6.06266e-06,0,-1.02314e-05,-1.18866e+09,-1.1877e+09,-1.18851e+09,-1.36743e+06,0.00679874,0.288481,0,0.288561,5237.39,-42786.5,0,43105.8,1.36743e+06
step02_gravity_refstate-mantle.xmf,996,-8.83447e-06,2.24635e-05,0,-1.53713e-06,-1.67783e+09,-1.67364e+09,-1.67665e+09,-205438,-0.0388673,0.0473644,-0,0.0612704,3825.5,-57887,0,58013.2,205438
step02_gravity_refstate-mantle.xmf,997,-8.83698e-06,2.24186e-05,0,-7.10833e-07,-1.71392e+09,-1.70975e+09,-1.71274e+09,-95002.8,-0.0383544,0.0223732,-0,0.0444029,3812.26,-59001.9,0,59125,95002.8
step02_gravity_refstate-mantle.xmf,998,-9.26232e-06,2.3012e-05,0,4.97071e-09,-1.74628e+09,-1.74197e+09,-1.74504e+09,664.335,-0.0336321,-2.83281e-19,-0,0.0336321,3302.13,-60000,0,60090.8,664.335
step02_gravity_refstate-mantle.xmf,999,-2.05781e-06,1.4995e-05,0,-8.92797e-06,-1.41656e+09,-1.41428e+09,-1.41629e+09,-1.19322e+06,-0.058539,0.183986,-0,0.193074,6175.93,-49842.7,0,50223.9,1.19322e+06
step02_gravity_refstate-mantle.xmf,1000,-1.33466e-06,1.40711e-05,0,-9.21361e-06,-1.39349e+09,-1.39143e+09,-1.39331e+09,-1.2314e+06,-0.0567971,0.194482,-0,0.202606,6169.65,-49132.5,0,49518.4,1.2314e+06
step02_gravity_refstate-mantle.xmf,1001,-7.09828e-07,1.31585e-05,0,-9.34898e-06,-1.37149e+09,-1.36964e+09,-1.3714e+09,-1.24949e+06,-0.0542777,0.20417,-0,0.211261,6150.87,-48454.9,0,48843.7,1.24949e+06
step02_gravity_refstate-mantle.xmf,1002,-2.13945e-07,1.22543e-05,0,-9.35328e-06,-1.34964e+09,-1.34798e+09,-1.34961e+09,-1.25007e+06,-0.0508053,0.21343,-0,0.219394,6123.41,-47780.9,0,48171.7,1.25007e+06
step02_gravity_refstate-mantle.xmf,1003,1.10249e-07,1.13602e-05,0,-9.25462e-06,-1.3273e+09,-1.3258e+09,-1.32732e+09,-1.23688e+06,-0.0461383,0.222453,-0,0.227188,6090.61,-47090.7,0,47483,1.23688e+06
step02_gravity_refstate-mantle.xmf,1004,2.08906e-07,1.05494e-05,0,-9.15036e-06,-1.30492e+09,-1.30353e+09,-1.30494e+09,-1.22295e+06,-0.0402726,0.231676,-0,0.23515,6031.57,-46397.8,0,46788.2,1.22295e+06
step02_gravity_refstate-mantle.xmf,1005,1.09574e-07,9.82722e-06,0,-9.09447e-06,-1.28341e+09,-1.28211e+09,-1.28342e+09,-1.21548e+06,-0.0335329,0.240577,-0,0.242903,5958.73,-45730.9,0,46117.4,1.21548e+06
step02_gravity_refstate-mantle.xmf,1006,-7.67921e-08,9.08275e-06,0,-8.99759e-06,-1.2634e+09,-1.26217e+09,-1.26339e+09,-1.20253e+06,-0.0263597,0.247339,-0,0.24874,5929.73,-45109.6,0,45497.6,1.20253e+06
step02_gravity_refstate-mantle.xmf,1007,-4.75183e-06,1.83784e-05,0,-7.85548e-06,-1.4795e+09,-1.47641e+09,-1.47887e+09,-1.04988e+06,-0.0577014,0.161085,-0,0.171108,5627.63,-51777.5,0,52082.5,1.04988e+06
step02_gravity_refstate-mantle.xmf,1008,-2.89274e-06,1.59783e-05,0,-8.48833e-06,-1.44159e+09,-1.43907e+09,-1.4412e+09,-1.13447e+06,-0.0595085,0.1726,-0,0.182571,6144.5,-50612.8,0,50984.4,1.13447e+06
step02_gravity_refstate-mantle.xmf,1009,-1.63483e-06,3.8764e-06,0,-9.8357e-06,-1.14794e+09,-1.1472e+09,-1.14772e+09,-1.31454e+06,0.0274556,0.299683,0,0.300938,5102.15,-41519.3,0,41831.6,1.31454e+06
step02_gravity_refstate-mantle.xmf,1010,-2.85155e-06,1.71298e-06,0,-8.90003e-06,-1.0992e+09,-1.09859e+09,-1.09881e+09,-1.18949e+06,0.0542954,0.314727,0,0.319376,4798.49,-40000,0,40286.8,1.18949e+06
step02_gravity_refstate-mantle.xmf,1011,-2.0762e-06,3.06948e-06,0,-9.33215e-06,-1.12884e+09,-1.12815e+09,-1.12856e+09,-1.24724e+06,0.0374981,0.302197,0,0.304514,5089.09,-40924.3,0,41239.5,1.24724e+06
step02_gravity_refstate-mantle.xmf,1012,-7.90506e-06,2.12666e-05,0,-2.15951e-06,-1.66016e+09,-1.65626e+09,-1.6591e+09,-288619,-0.0466737,0.0564431,-0,0.0732411,4721.07,-57344.3,0,57538.3,288619
step02_gravity_refstate-mantle.xmf,1013,-3.32684e-07,8.21514e-06,0,-8.83214e-06,-1.24237e+09,-1.24123e+09,-1.24232e+09,-1.18042e+06,-0.0180258,0.252974,-0,0.253615,5931.04,-44456.1,0,44850,1.18042e+06
step02_gravity_refstate-mantle.xmf,1014,-3.65937e-06,1.67881e-05,0,-7.85415e-06,-1.46777e+09,-1.46504e+09,-1.46728e+09,-1.04971e+06,-0.059902,0.159465,-0,0.170345,6137.7,-51418.5,0,51783.5,1.04971e+06
step02_gravity_refstate-mantle.xmf,1015,-4.52112e-06,1.77351e-05,0,-7.17378e-06,-1.49458e+09,-1.49161e+09,-1.49398e+09,-958776,-0.0592742,0.1471,-0,0.158593,6008.78,-52243.4,0,52587.8,958776
step02_gravity_refstate-mantle.xmf,1016,-5.05418e-06,1.82021e-05,0,-6.3726e-06,-1.52066e+09,-1.51756e+09,-1.51999e+09,-851699,-0.0588689,0.132608,-0,0.145087,6010.43,-53046.6,0,53386,851699
step02_gravity_refstate-mantle.xmf,1017,-5.5323e-06,1.86108e-05,0,-5.50829e-06,-1.54867e+09,-1.54544e+09,-1.54793e+09,-736184,-0.0581806,0.116871,-0,0.130552,5994.56,-53909.4,0,54241.7,736184
step02_gravity_refstate-mantle.xmf,1018,-6.56836e-06,1.96109e-05,0,-3.56998e-06,-1.61356e+09,-1.61006e+09,-1.61269e+09,-477127,-0.0548804,0.0808522,-0,0.0977187,5712.85,-55909.8,0,56200.9,477127
step02_gravity_refstate-mantle.xmf,1019,-5.93753e-06,1.89544e-05,0,-4.64852e-06,-1.57682e+09,-1.57349e+09,-1.57602e+09,-621275,-0.0572635,0.100944,-0,0.116055,5952.19,-54777.2,0,55099.7,621275
step02_gravity_refstate-mantle.xmf,1020,-2.69624e-06,2.5453e-06,0,-8.75168e-06,-1.11197e+09,-1.11127e+09,-1.11161e+09,-1.16966e+06,0.0464401,0.302569,0,0.306113,5120.14,-40397.7,0,40720.9,1.16966e+06
step02_gravity_refstate-mantle.xmf,1021,-6.75315e-07,7.30733e-06,0,-8.72425e-06,-1.22006e+09,-1.219e+09,-1.21997e+09,-1.166e+06,-0.00843492,0.259263,-0,0.2594,5902.98,-43762.5,0,44158.8,1.166e+06
step02_gravity_refstate-mantle.xmf,1022,-1.06174e-06,6.38273e-06,0,-8.63791e-06,-1.19762e+09,-1.19663e+09,-1.19748e+09,-1.15446e+06,0.00185849,0.265633,0,0.265639,5854.08,-43064.4,0,43460.5,1.15446e+06
step02_gravity_refstate-mantle.xmf,1023,-1.91647e-06,4.58977e-06,0,-8.44985e-06,-1.15439e+09,-1.15352e+09,-1.15413e+09,-1.12932e+06,0.0231328,0.278331,0,0.279291,5692.98,-41718.4,0,42105.1,1.12932e+06
step02_gravity_refstate-mantle.xmf,1024,-1.48314e-06,5.45759e-06,0,-8.53289e-06,-1.17535e+09,-1.17442e+09,-1.17515e+09,-1.14042e+06,0.012593,0.271815,0,0.272106,5790.82,-42371.2,0,42765.1,1.14042e+06
step02_gravity_refstate-mantle.xmf,1025,-6.84346e-06,1.98636e-05,0,-2.6937e-06,-1.64417e+09,-1.64061e+09,-1.64326e+09,-360013,-0.05358,0.06275,-0,0.0825129,5615.68,-56854.1,0,57130.8,360013
step02_gravity_refstate-mantle.xmf,1026,-7.97072e-06,2.12827e-05,0,-1.35147e-06,-1.69145e+09,-1.68754e+09,-1.69038e+09,-180624,-0.045967,0.0359747,-0,0.0583707,4692.07,-58310.5,0,58498.9,180624
step02_gravity_refstate-mantle.xmf,1027,-8.26978e-06,2.16931e-05,0,-1.21826e-09,-1.74617e+09,-1.74217e+09,-1.74507e+09,-162.821,-0.0433579,-2.27359e-19,-0,0.0433579,4411.14,-60000,0,60161.9,162.821
step02_gravity_refstate-mantle.xmf,1028,-1.70515e-06,1.40222e-05,0,-7.95219e-06,-1.42927e+09,-1.42716e+09,-1.42904e+09,-1.06281e+06,-0.0604875,0.16641,-0,0.177062,6807.31,-50235,0,50694.2,1.06281e+06
step02_gravity_refstate-mantle.xmf,1029,-1.02788e-06,1.31288e-05,0,-8.20518e-06,-1.40481e+09,-1.40292e+09,-1.40468e+09,-1.09662e+06,-0.0586157,0.176728,-0,0.186195,6804.58,-49482,0,49947.7,1.09662e+06
step02_gravity_refstate-mantle.xmf,1030,-4.62889e-07,1.22909e-05,0,-8.33266e-06,-1.38197e+09,-1.38026e+09,-1.38191e+09,-1.11366e+06,-0.0560445,0.186275,-0,0.194524,6776.91,-48777.9,0,49246.4,1.11366e+06
step02_gravity_refstate-mantle.xmf,1031,-1.54179e-09,1.14507e-05,0,-8.32184e-06,-1.35966e+09,-1.35813e+09,-1.35966e+09,-1.11221e+06,-0.0526584,0.194991,-0,0.201976,6753.37,-48089.6,0,48561.5,1.11221e+06
step02_gravity_refstate-mantle.xmf,1032,3.15097e-07,1.06398e-05,0,-8.21485e-06,-1.33736e+09,-1.33598e+09,-1.3374e+09,-1.09792e+06,-0.0482926,0.203343,-0,0.208999,6722.34,-47401,0,47875.3,1.09792e+06
step02_gravity_refstate-mantle.xmf,1033,4.59905e-07,9.83192e-06,0,-8.03769e-06,-1.31382e+09,-1.31257e+09,-1.31388e+09,-1.07424e+06,-0.0425438,0.211818,-0,0.216048,6681.74,-46672.6,0,47148.5,1.07424e+06
step02_gravity_refstate-mantle.xmf,1034,3.90692e-07,9.13559e-06,0,-7.91236e-06,-1.29046e+09,-1.28929e+09,-1.29051e+09,-1.05749e+06,-0.0356894,0.220963,-0,0.223827,6593.91,-45948.8,0,46419.6,1.05749e+06
step02_gravity_refstate-mantle.xmf,1035,1.67076e-07,8.75716e-06,0,-8.01536e-06,-1.27184e+09,-1.2707e+09,-1.27187e+09,-1.07125e+06,-0.029434,0.230506,-0,0.232378,6431.84,-45371.4,0,45825,1.07125e+06
step02_gravity_refstate-mantle.xmf,1036,-1.36797e-08,7.9973e-06,0,-7.59454e-06,-1.25414e+09,-1.25307e+09,-1.25414e+09,-1.01501e+06,-0.0228377,0.231401,-0,0.232525,6566.61,-44821.2,0,45299.7,1.01501e+06
step02_gravity_refstate-mantle.xmf,1037,-2.42628e-06,1.48969e-05,0,-7.56058e-06,-1.45462e+09,-1.45231e+09,-1.4543e+09,-1.01047e+06,-0.0616289,0.15537,-0,0.167147,6790.13,-51015.7,0,51465.6,1.01047e+06
step02_gravity_refstate-mantle.xmf,1038,-2.26421e-06,3.85593e-06,0,-8.48377e-06,-1.13754e+09,-1.13672e+09,-1.13724e+09,-1.13386e+06,0.0320078,0.28579,0,0.287577,5535.92,-41193.9,0,41564.2,1.13386e+06
step02_gravity_refstate-mantle.xmf,1039,-3.66567e-06,2.84764e-06,0,-7.8298e-06,-1.09928e+09,-1.09841e+09,-1.09879e+09,-1.04645e+06,0.0521894,0.292832,0,0.297446,5441.79,-40000,0,40368.5,1.04645e+06
step02_gravity_refstate-mantle.xmf,1040,-3.05503e-06,3.50349e-06,0,-7.75728e-06,-1.11886e+09,-1.11798e+09,-1.11845e+09,-1.03676e+06,0.0412009,0.282723,0,0.285709,5695.03,-40610.6,0,41008,1.03676e+06
step02_gravity_refstate-mantle.xmf,1041,-6.98651e-06,1.99764e-05,0,-1.82011e-06,-1.67605e+09,-1.67245e+09,-1.67512e+09,-243257,-0.0528047,0.0432923,-0,0.0682829,5579.19,-57838.2,0,58106.6,243257
step02_gravity_refstate-mantle.xmf,1042,-7.93366e-06,2.12284e-05,0,-6.39565e-07,-1.71985e+09,-1.71595e+09,-1.71879e+09,-85477.8,-0.0461625,0.0172354,-0,0.0492751,4748.27,-59187.9,0,59378.1,85477.8
step02_gravity_refstate-mantle.xmf,1043,-4.23745e-07,7.23619e-06,0,-7.40518e-06,-1.23041e+09,-1.22938e+09,-1.23035e+09,-989702,-0.013254,0.237672,-0,0.238042,6543.95,-44083.4,0,44566.5,989702
step02_gravity_refstate-mantle.xmf,1044,-3.12272e-06,1.5676e-05,0,-7.01564e-06,-1.48106e+09,-1.47855e+09,-1.48065e+09,-937640,-0.0621976,0.14308,-0,0.156015,6777.01,-51829.8,0,52271,937640
step02_gravity_refstate-mantle.xmf,1045,-3.75844e-06,1.63512e-05,0,-6.37079e-06,-1.50805e+09,-1.50536e+09,-1.50755e+09,-851457,-0.0622828,0.130013,-0,0.144162,6756.26,-52660.8,0,53092.5,851457
step02_gravity_refstate-mantle.xmf,1046,-5.67541e-06,1.82856e-05,0,-3.11129e-06,-1.62854e+09,-1.62534e+09,-1.62778e+09,-415823,-0.0595181,0.0671691,-0,0.0897446,6519.66,-56375,0,56750.8,415823
step02_gravity_refstate-mantle.xmf,1047,-4.29326e-06,1.68842e-05,0,-5.64806e-06,-1.53544e+09,-1.53261e+09,-1.53487e+09,-754863,-0.0620909,0.116073,-0,0.131637,6746.03,-53504.8,0,53928.4,754863
step02_gravity_refstate-mantle.xmf,1048,-4.74375e-06,1.73206e-05,0,-4.90066e-06,-1.56278e+09,-1.55983e+09,-1.56215e+09,-654973,-0.0616656,0.101843,-0,0.119058,6725.24,-54347.5,0,54762,654973
step02_gravity_refstate-mantle.xmf,1049,-5.27095e-06,1.78634e-05,0,-4.00394e-06,-1.59582e+09,-1.59273e+09,-1.59512e+09,-535127,-0.0606338,0.0847432,-0,0.104201,6624.09,-55365.9,0,55760.7,535127
step02_gravity_refstate-mantle.xmf,1050,-9.11511e-07,6.49777e-06,0,-7.26336e-06,-1.20679e+09,-1.2058e+09,-1.20667e+09,-970748,-0.00298075,0.243769,-0,0.243787,6507.88,-43348.9,0,43834.7,970748
step02_gravity_refstate-mantle.xmf,1051,-1.46485e-06,5.77312e-06,0,-7.16385e-06,-1.18313e+09,-1.18216e+09,-1.18293e+09,-957449,0.00791786,0.250063,0,0.250188,6447.54,-42612.4,0,43097.4,957449
step02_gravity_refstate-mantle.xmf,1052,-2.64496e-06,4.32347e-06,0,-7.30605e-06,-1.13768e+09,-1.13675e+09,-1.13733e+09,-976453,0.0305726,0.267696,0,0.269437,6100.33,-41196.8,0,41646,976453
step02_gravity_refstate-mantle.xmf,1053,-2.0655e-06,5.05431e-06,0,-7.13738e-06,-1.15961e+09,-1.15866e+09,-1.15934e+09,-953911,0.0192876,0.257324,0,0.258046,6336.75,-41880.1,0,42356.8,953911
step02_gravity_refstate-mantle.xmf,1054,-5.92864e-06,1.85428e-05,0,-2.24835e-06,-1.66037e+09,-1.6571e+09,-1.65958e+09,-300492,-0.0587129,0.0493608,-0,0.0767053,6461.03,-57357.1,0,57719.8,300492
step02_gravity_refstate-mantle.xmf,1055,-7.07526e-06,2.00581e-05,0,-9.89696e-07,-1.70763e+09,-1.704e+09,-1.70668e+09,-132273,-0.0522836,0.0238417,-0,0.057463,5552.89,-58813.1,0,59074.6,132273
step02_gravity_refstate-mantle.xmf,1056,-7.12444e-06,2.01583e-05,0,-1.49579e-09,-1.74605e+09,-1.74241e+09,-1.7451e+09,-199.912,-0.0519889,-1.52761e-19,-0,0.0519889,5532.04,-60000,0,60254.5,199.912
step02_gravity_refstate-mantle.xmf,1057,-1.35206e-06,1.31013e-05,0,-7.02748e-06,-1.44166e+09,-1.43972e+09,-1.44147e+09,-939223,-0.0622939,0.149785,-0,0.162222,7479.1,-50617.8,0,51167.3,939223
step02_gravity_refstate-mantle.xmf,1058,-7.45645e-07,1.22741e-05,0,-7.25414e-06,-1.41635e+09,-1.41461e+09,-1.41625e+09,-969515,-0.0602997,0.159823,-0,0.170819,7472.97,-49838,0,50395.1,969515
step02_gravity_refstate-mantle.xmf,1059,-2.27402e-07,1.14788e-05,0,-7.36079e-06,-1.39241e+09,-1.39085e+09,-1.39238e+09,-983770,-0.0576361,0.169086,-0,0.17864,7447.72,-49099.9,0,49661.6,983770
step02_gravity_refstate-mantle.xmf,1060,1.85198e-07,1.07176e-05,0,-7.356e-06,-1.36944e+09,-1.36803e+09,-1.36946e+09,-983129,-0.0542608,0.17764,-0,0.185742,7414.26,-48391.1,0,48955.8,983129
step02_gravity_refstate-mantle.xmf,1061,4.65358e-07,1.00203e-05,0,-7.27441e-06,-1.34753e+09,-1.34625e+09,-1.34759e+09,-972225,-0.0502028,0.185618,-0,0.192288,7369.22,-47714.3,0,48280.1,972225
step02_gravity_refstate-mantle.xmf,1062,6.21543e-07,9.29541e-06,0,-7.07923e-06,-1.32474e+09,-1.32358e+09,-1.32482e+09,-946138,-0.0450213,0.192956,-0,0.198139,7346.14,-47009.5,0,47580.1,946138
step02_gravity_refstate-mantle.xmf,1063,3.10676e-07,7.89211e-06,0,-6.72721e-06,-1.2703e+09,-1.26928e+09,-1.27034e+09,-899091,-0.0287036,0.212233,-0,0.214165,7145.74,-45322.3,0,45882.2,899091
step02_gravity_refstate-mantle.xmf,1064,5.89953e-07,8.52506e-06,0,-6.82117e-06,-1.29813e+09,-1.29707e+09,-1.29821e+09,-911650,-0.0377138,0.201233,-0,0.204736,7306.64,-46185.4,0,46759.8,911650
step02_gravity_refstate-mantle.xmf,1065,-1.34843e-07,7.11386e-06,0,-6.32307e-06,-1.24258e+09,-1.24161e+09,-1.24256e+09,-845079,-0.0183764,0.217036,-0,0.217812,7213.05,-44461,0,45042.3,845079
step02_gravity_refstate-mantle.xmf,1066,-1.96185e-06,1.38615e-05,0,-6.66325e-06,-1.46743e+09,-1.46532e+09,-1.46717e+09,-890543,-0.0636399,0.138895,-0,0.152781,7488.33,-51411.9,0,51954.4,890543
step02_gravity_refstate-mantle.xmf,1067,-4.19826e-06,3.71504e-06,0,-6.83616e-06,-1.09932e+09,-1.09826e+09,-1.09876e+09,-913653,0.0495294,0.271947,0,0.27642,6117.1,-40000,0,40465,913653
step02_gravity_refstate-mantle.xmf,1068,-6.09125e-06,1.87206e-05,0,-1.4046e-06,-1.69208e+09,-1.68876e+09,-1.69126e+09,-187725,-0.0581257,0.0312536,-0,0.0659953,6420.55,-58335.9,0,58688.2,187725
step02_gravity_refstate-mantle.xmf,1069,-6.82952e-07,6.50428e-06,0,-6.12565e-06,-1.21717e+09,-1.21621e+09,-1.21708e+09,-818693,-0.00802322,0.223162,-0,0.223306,7184.49,-43671.1,0,44258.2,818693
step02_gravity_refstate-mantle.xmf,1070,-2.55829e-06,1.45531e-05,0,-6.17293e-06,-1.49427e+09,-1.49199e+09,-1.49393e+09,-825012,-0.0644797,0.126977,-0,0.142411,7497.75,-52238.8,0,52774.1,825012
step02_gravity_refstate-mantle.xmf,1071,-3.10475e-06,1.51582e-05,0,-5.59141e-06,-1.5217e+09,-1.51926e+09,-1.52129e+09,-747293,-0.064896,0.11433,-0,0.131464,7502.23,-53083.9,0,53611.4,747293
step02_gravity_refstate-mantle.xmf,1072,-4.83146e-06,1.70296e-05,0,-2.58034e-06,-1.64476e+09,-1.64184e+09,-1.64411e+09,-344862,-0.0636121,0.0539607,-0,0.0834162,7338.82,-56878.3,0,57349.8,344862
step02_gravity_refstate-mantle.xmf,1073,-4.51131e-06,1.66787e-05,0,-3.39851e-06,-1.61262e+09,-1.60979e+09,-1.61202e+09,-454211,-0.0641636,0.0703909,-0,0.0952463,7391.55,-55887,0,56373.7,454211
step02_gravity_refstate-mantle.xmf,1074,-3.611e-06,1.57051e-05,0,-4.93227e-06,-1.55025e+09,-1.54767e+09,-1.54977e+09,-659198,-0.0649581,0.100839,-0,0.119951,7490.74,-53963.7,0,54481.1,659198
step02_gravity_refstate-mantle.xmf,1075,-4.08557e-06,1.62146e-05,0,-4.1949e-06,-1.58067e+09,-1.57795e+09,-1.58012e+09,-560648,-0.0646975,0.0861655,-0,0.107751,7454.53,-54901.5,0,55405.3,560648
step02_gravity_refstate-mantle.xmf,1076,-3.53735e-06,4.22328e-06,0,-6.50224e-06,-1.11863e+09,-1.11759e+09,-1.11816e+09,-869024,0.0388189,0.259648,0,0.262534,6458.88,-40602.2,0,41112.7,869024
step02_gravity_refstate-mantle.xmf,1077,-1.32044e-06,5.93674e-06,0,-5.99815e-06,-1.19199e+09,-1.19102e+09,-1.19182e+09,-801652,0.00293083,0.229347,0,0.229366,7134.63,-42887.5,0,43476.9,801652
step02_gravity_refstate-mantle.xmf,1078,-2.02116e-06,5.41508e-06,0,-5.9331e-06,-1.16742e+09,-1.16642e+09,-1.16715e+09,-792959,0.0141441,0.235639,0,0.236063,7061.07,-42122.3,0,42710.1,792959
step02_gravity_refstate-mantle.xmf,1079,-2.90255e-06,4.88223e-06,0,-5.95042e-06,-1.13974e+09,-1.1387e+09,-1.13936e+09,-795274,0.0272782,0.243536,0,0.245059,6931.41,-41260.3,0,41838.5,795274
step02_gravity_refstate-mantle.xmf,1080,-5.06396e-06,1.73082e-05,0,-1.76877e-06,-1.67641e+09,-1.67342e+09,-1.67574e+09,-236396,-0.0630958,0.0373817,-0,0.0733381,7288.82,-57855.3,0,58312.7,236396
step02_gravity_refstate-mantle.xmf,1081,-6.22602e-06,1.89011e-05,0,-6.67389e-07,-1.72022e+09,-1.71687e+09,-1.71939e+09,-89196.6,-0.0574772,0.0150472,-0,0.0594142,6344.97,-59204.9,0,59544,89196.6
step02_gravity_refstate-mantle.xmf,1082,-9.69467e-07,1.21775e-05,0,-6.14841e-06,-1.45262e+09,-1.45086e+09,-1.45249e+09,-821735,-0.0638718,0.134373,-0,0.14878,8203.71,-50956.6,0,51612.7,821735
step02_gravity_refstate-mantle.xmf,1083,-4.72152e-07,1.14825e-05,0,-6.36728e-06,-1.42755e+09,-1.42595e+09,-1.42749e+09,-850987,-0.0617938,0.14405,-0,0.156745,8170.77,-50183.8,0,50844.6,850987
step02_gravity_refstate-mantle.xmf,1084,-6.19395e-09,1.07359e-05,0,-6.45408e-06,-1.40274e+09,-1.4013e+09,-1.40274e+09,-862588,-0.0590428,0.152942,-0,0.163943,8149.04,-49418.6,0,50086,862588
step02_gravity_refstate-mantle.xmf,1085,3.63004e-07,1.00306e-05,0,-6.4526e-06,-1.37862e+09,-1.37733e+09,-1.37867e+09,-862390,-0.0555815,0.161472,-0,0.17077,8105.39,-48674.2,0,49344.5,862390
step02_gravity_refstate-mantle.xmf,1086,6.00056e-07,9.42517e-06,0,-6.39887e-06,-1.35613e+09,-1.35495e+09,-1.35621e+09,-855208,-0.0515812,0.169532,-0,0.177205,8037.2,-47979.4,0,48647.9,855208
step02_gravity_refstate-mantle.xmf,1087,7.36051e-07,8.82141e-06,0,-6.24689e-06,-1.33433e+09,-1.33325e+09,-1.33443e+09,-834897,-0.0468999,0.17643,-0,0.182557,8000.05,-47305.5,0,47977.2,834897
step02_gravity_refstate-mantle.xmf,1088,7.41722e-07,8.16469e-06,0,-5.9736e-06,-1.31047e+09,-1.30948e+09,-1.31057e+09,-798372,-0.0408091,0.182813,-0,0.187312,7995.71,-46566.8,0,47248.3,798372
step02_gravity_refstate-mantle.xmf,1089,5.35735e-07,7.5219e-06,0,-5.68844e-06,-1.283e+09,-1.28206e+09,-1.28307e+09,-760261,-0.0326237,0.190417,-0,0.193192,7953.47,-45715.1,0,46401.8,760261
step02_gravity_refstate-mantle.xmf,1090,-4.23652e-07,6.43404e-06,0,-5.18544e-06,-1.22851e+09,-1.22759e+09,-1.22845e+09,-693034,-0.0130212,0.203832,-0,0.204248,7882.71,-44022.7,0,44722.9,693034
step02_gravity_refstate-mantle.xmf,1091,1.30495e-07,6.94267e-06,0,-5.41275e-06,-1.25537e+09,-1.25446e+09,-1.25539e+09,-723414,-0.0231898,0.197488,-0,0.198845,7915.2,-44857.6,0,45550.6,723414
step02_gravity_refstate-mantle.xmf,1092,-1.51925e-06,1.28967e-05,0,-5.8142e-06,-1.48009e+09,-1.47816e+09,-1.47988e+09,-777067,-0.0654701,0.123478,-0,0.139761,8221.07,-51803.2,0,52451.5,777067
step02_gravity_refstate-mantle.xmf,1093,-4.48368e-06,4.32612e-06,0,-5.94214e-06,-1.09933e+09,-1.09815e+09,-1.09873e+09,-794167,0.0464446,0.252098,0,0.256341,6826.09,-40000,0,40578.3,794167
step02_gravity_refstate-mantle.xmf,1094,-5.16221e-06,1.74283e-05,0,-8.62717e-07,-1.71176e+09,-1.70874e+09,-1.71107e+09,-115302,-0.0629324,0.0184013,-0,0.0655675,7296.4,-58946.9,0,59396.8,115302
step02_gravity_refstate-mantle.xmf,1095,-5.88729e-06,1.8464e-05,0,-7.1489e-09,-1.74592e+09,-1.74267e+09,-1.74514e+09,-955.451,-0.0593898,-2.01468e-19,-0,0.0593898,6669.73,-60000,0,60369.6,955.451
step02_gravity_refstate-mantle.xmf,1096,-1.06326e-06,6.00193e-06,0,-5.05344e-06,-1.20305e+09,-1.2021e+09,-1.20291e+09,-675393,-0.00264535,0.21009,-0,0.210107,7826.01,-43230.9,0,43933.6,675393
step02_gravity_refstate-mantle.xmf,1097,-4.02747e-06,1.58391e-05,0,-2.04706e-06,-1.66098e+09,-1.65832e+09,-1.66044e+09,-273589,-0.0671415,0.042064,-0,0.0792298,8159.59,-57381.7,0,57958.9,273589
step02_gravity_refstate-mantle.xmf,1098,-2.00162e-06,1.34728e-05,0,-5.3595e-06,-1.50706e+09,-1.50499e+09,-1.50679e+09,-716297,-0.0665754,0.111869,-0,0.13018,8269.95,-52634.8,0,53280.5,716297
step02_gravity_refstate-mantle.xmf,1099,-2.4998e-06,1.40601e-05,0,-4.82902e-06,-1.53572e+09,-1.5335e+09,-1.53538e+09,-645398,-0.0672527,0.0995678,-0,0.120153,8279.42,-53518,0,54154.7,645398
step02_gravity_refstate-mantle.xmf,1100,-3.72931e-06,1.54751e-05,0,-2.79432e-06,-1.62906e+09,-1.62649e+09,-1.62856e+09,-373460,-0.0674897,0.0572067,-0,0.088473,8222.71,-56396.9,0,56993.1,373460
step02_gravity_refstate-mantle.xmf,1101,-3.38418e-06,1.50776e-05,0,-3.53003e-06,-1.59701e+09,-1.59454e+09,-1.59655e+09,-471789,-0.0676219,0.0721673,-0,0.0988981,8250.3,-55408,0,56018.9,471789
step02_gravity_refstate-mantle.xmf,1102,-2.96592e-06,1.45983e-05,0,-4.21471e-06,-1.56573e+09,-1.56338e+09,-1.56533e+09,-563296,-0.0675797,0.0863345,-0,0.109639,8272.75,-54443.5,0,55068.4,563296
step02_gravity_refstate-mantle.xmf,1103,-3.804e-06,4.63347e-06,0,-5.66951e-06,-1.11696e+09,-1.11583e+09,-1.11645e+09,-757730,0.0373186,0.242893,0,0.245743,7082.78,-40549.8,0,41163.7,757730
step02_gravity_refstate-mantle.xmf,1104,-1.78148e-06,5.61452e-06,0,-4.98423e-06,-1.17805e+09,-1.17706e+09,-1.17781e+09,-666142,0.0080799,0.216149,0,0.2163,7761.31,-42453,0,43156.6,666142
step02_gravity_refstate-mantle.xmf,1105,-2.57607e-06,5.26869e-06,0,-4.95271e-06,-1.15319e+09,-1.15214e+09,-1.15285e+09,-661929,0.0190576,0.221671,0,0.222489,7706.6,-41678.9,0,42385.4,661929
step02_gravity_refstate-mantle.xmf,1106,-4.28551e-06,1.61875e-05,0,-1.39228e-06,-1.68865e+09,-1.68591e+09,-1.68808e+09,-186078,-0.0665642,0.0287572,-0,0.0725105,8045.33,-58235.7,0,58788.8,186078
step02_gravity_refstate-mantle.xmf,1107,-5.30394e-07,1.11983e-05,0,-5.30972e-06,-1.46076e+09,-1.45919e+09,-1.46069e+09,-709644,-0.0650666,0.120423,-0,0.136877,8998.31,-51208.4,0,51993,709644
step02_gravity_refstate-mantle.xmf,1108,-2.21227e-07,1.07825e-05,0,-5.57291e-06,-1.43826e+09,-1.43679e+09,-1.43823e+09,-744820,-0.063068,0.129911,-0,0.144411,8864.65,-50514.4,0,51286.3,744820
step02_gravity_refstate-mantle.xmf,1109,1.87783e-07,1.00852e-05,0,-5.61294e-06,-1.41401e+09,-1.41269e+09,-1.41403e+09,-750170,-0.0603986,0.137548,-0,0.150225,8877.84,-49766.4,0,50552,750170
step02_gravity_refstate-mantle.xmf,1110,5.26652e-07,9.40054e-06,0,-5.59494e-06,-1.38847e+09,-1.38728e+09,-1.38854e+09,-747764,-0.0568268,0.14576,-0,0.156446,8846.06,-48978,0,49770.4,747764
step02_gravity_refstate-mantle.xmf,1111,7.45808e-07,8.81344e-06,0,-5.55084e-06,-1.3636e+09,-1.36252e+09,-1.3637e+09,-741870,-0.0525574,0.154373,-0,0.163074,8751.89,-48209.6,0,48997.6,741870
step02_gravity_refstate-mantle.xmf,1112,8.04949e-07,8.48336e-06,0,-5.58627e-06,-1.34328e+09,-1.34225e+09,-1.34339e+09,-746604,-0.0484884,0.162845,-0,0.16991,8582.38,-47581.5,0,48349.3,746604
step02_gravity_refstate-mantle.xmf,1113,8.50858e-07,7.85255e-06,0,-5.24907e-06,-1.32259e+09,-1.32165e+09,-1.3227e+09,-701539,-0.0434737,0.166248,-0,0.171838,8681.14,-46941.1,0,47737.1,701539
step02_gravity_refstate-mantle.xmf,1114,7.00934e-07,7.25425e-06,0,-4.92209e-06,-1.29597e+09,-1.2951e+09,-1.29607e+09,-657837,-0.036159,0.1724,-0,0.176151,8686.04,-46116.4,0,46927.3,657837
step02_gravity_refstate-mantle.xmf,1115,3.44605e-07,6.72965e-06,0,-4.61116e-06,-1.26775e+09,-1.2669e+09,-1.2678e+09,-616282,-0.0273029,0.178876,-0,0.180947,8668.89,-45241,0,46064,616282
step02_gravity_refstate-mantle.xmf,1116,-8.01818e-07,5.96506e-06,0,-4.24669e-06,-1.21388e+09,-1.21297e+09,-1.21377e+09,-567570,-0.00767912,0.192085,-0,0.192239,8543.67,-43567.1,0,44396.9,567570
step02_gravity_refstate-mantle.xmf,1117,-1.77572e-07,6.30419e-06,0,-4.37602e-06,-1.24008e+09,-1.23921e+09,-1.24005e+09,-584854,-0.0176276,0.185425,-0,0.186261,8622.92,-44381.4,0,45211.3,584854
step02_gravity_refstate-mantle.xmf,1118,-1.01742e-06,1.18699e-05,0,-4.99534e-06,-1.49053e+09,-1.48881e+09,-1.49039e+09,-667627,-0.0670414,0.109268,-0,0.128196,9040.58,-52126.6,0,52904.8,667627
step02_gravity_refstate-mantle.xmf,1119,-3.47232e-06,4.97324e-06,0,-5.01314e-06,-1.12775e+09,-1.12663e+09,-1.12729e+09,-670006,0.0304972,0.227639,0,0.229673,7627,-40886.4,0,41591.7,670006
step02_gravity_refstate-mantle.xmf,1120,-4.60376e-06,4.77277e-06,0,-5.147e-06,-1.09932e+09,-1.09807e+09,-1.09871e+09,-687896,0.0430577,0.233289,0,0.23723,7570.51,-40000,0,40710.1,687896
step02_gravity_refstate-mantle.xmf,1121,-3.32868e-06,1.48036e-05,0,-1.46285e-06,-1.68093e+09,-1.67851e+09,-1.68049e+09,-195509,-0.0699399,0.0299299,-0,0.0760749,8928.67,-58000.2,0,58683.4,195509
step02_gravity_refstate-mantle.xmf,1122,-3.87837e-06,1.56099e-05,0,-7.47316e-07,-1.71389e+09,-1.71128e+09,-1.71337e+09,-99878.8,-0.068369,0.0154003,-0,0.070082,8500.49,-59016.6,0,59625.6,99878.8
step02_gravity_refstate-mantle.xmf,1123,-4.6212e-06,1.67022e-05,0,-7.83805e-09,-1.7458e+09,-1.74295e+09,-1.74518e+09,-1047.56,-0.0654831,-1.59526e-19,-0,0.0654831,7829.03,-60000,0,60508.6,1047.56
step02_gravity_refstate-mantle.xmf,1124,-1.49555e-06,5.68434e-06,0,-4.21248e-06,-1.18888e+09,-1.18792e+09,-1.18868e+09,-562998,0.00241836,0.198786,0,0.198801,8442.29,-42789.6,0,43614.4,562998
step02_gravity_refstate-mantle.xmf,1125,-2.98387e-06,1.4331e-05,0,-2.19184e-06,-1.64652e+09,-1.64421e+09,-1.64612e+09,-292940,-0.0703462,0.0448945,-0,0.0834512,9071.98,-56938.3,0,57656.5,292940
step02_gravity_refstate-mantle.xmf,1126,-1.48145e-06,1.24711e-05,0,-4.58093e-06,-1.52009e+09,-1.51822e+09,-1.51989e+09,-612242,-0.0684245,0.0977144,-0,0.11929,9078.67,-53038,0,53809.4,612242
step02_gravity_refstate-mantle.xmf,1127,-1.92798e-06,1.30332e-05,0,-4.09747e-06,-1.54995e+09,-1.54795e+09,-1.54969e+09,-547626,-0.0693336,0.0858421,-0,0.110345,9088.37,-53958.8,0,54718.8,547626
step02_gravity_refstate-mantle.xmf,1128,-2.67413e-06,1.39419e-05,0,-2.88631e-06,-1.61313e+09,-1.61091e+09,-1.61277e+09,-385756,-0.0702689,0.0593349,-0,0.0919693,9102.27,-55907.8,0,56643.9,385756
step02_gravity_refstate-mantle.xmf,1129,-2.32647e-06,1.35191e-05,0,-3.5232e-06,-1.58109e+09,-1.57897e+09,-1.58078e+09,-470876,-0.0699369,0.0729434,-0,0.101054,9101.85,-54919.3,0,55668.5,470876
step02_gravity_refstate-mantle.xmf,1130,-1.65991e-07,1.03622e-05,0,-4.48371e-06,-1.47251e+09,-1.4711e+09,-1.47249e+09,-599247,-0.0662986,0.105954,-0,0.124987,9851.61,-51571.7,0,52504.2,599247
step02_gravity_refstate-mantle.xmf,1131,-2.26498e-06,5.44511e-06,0,-4.20541e-06,-1.16421e+09,-1.16318e+09,-1.16391e+09,-562053,0.0127196,0.204492,0,0.204887,8376.17,-42021.9,0,42848.5,562053
step02_gravity_refstate-mantle.xmf,1132,-3.09548e-06,5.21409e-06,0,-4.27453e-06,-1.13947e+09,-1.13836e+09,-1.13906e+09,-571291,0.0232611,0.210266,0,0.211549,8299.86,-41251.5,0,42078.2,571291
step02_gravity_refstate-mantle.xmf,1133,2.42557e-08,1.01311e-05,0,-4.78196e-06,-1.45115e+09,-1.4498e+09,-1.45115e+09,-639108,-0.0643932,0.115135,-0,0.131918,9652.39,-50912.5,0,51819.4,639108
step02_gravity_refstate-mantle.xmf,1134,3.51443e-07,9.5417e-06,0,-4.84536e-06,-1.42717e+09,-1.42595e+09,-1.42722e+09,-647583,-0.0618125,0.122797,-0,0.137477,9623.76,-50172.7,0,51087.4,647583
step02_gravity_refstate-mantle.xmf,1135,6.59166e-07,8.88072e-06,0,-4.8141e-06,-1.40046e+09,-1.39936e+09,-1.40054e+09,-643405,-0.0582191,0.130588,-0,0.142978,9611.75,-49347.7,0,50275.1,643405
step02_gravity_refstate-mantle.xmf,1136,8.6889e-07,8.25664e-06,0,-4.72239e-06,-1.37299e+09,-1.37201e+09,-1.37311e+09,-631147,-0.0536732,0.138628,-0,0.148656,9562.21,-48499.3,0,49432.9,631147
step02_gravity_refstate-mantle.xmf,1137,9.43198e-07,7.69062e-06,0,-4.64725e-06,-1.34156e+09,-1.34066e+09,-1.34168e+09,-621105,-0.0474022,0.149393,-0,0.156733,9376.46,-47527.2,0,48443.3,621105
step02_gravity_refstate-mantle.xmf,1138,8.37338e-07,7.01054e-06,0,-4.24893e-06,-1.30998e+09,-1.30915e+09,-1.31009e+09,-567870,-0.0395138,0.155423,-0,0.160367,9446.22,-46549.2,0,47498,567870
step02_gravity_refstate-mantle.xmf,1139,5.27254e-07,6.52998e-06,0,-3.94193e-06,-1.28072e+09,-1.27991e+09,-1.28079e+09,-526839,-0.0311055,0.161872,-0,0.164834,9429.49,-45642.1,0,46606,526839
step02_gravity_refstate-mantle.xmf,1140,4.3199e-08,6.14699e-06,0,-3.67863e-06,-1.25187e+09,-1.25106e+09,-1.25188e+09,-491649,-0.0218193,0.168079,-0,0.169489,9400.71,-44746.9,0,45723.7,491649
step02_gravity_refstate-mantle.xmf,1141,-1.27436e-06,5.64187e-06,0,-3.50954e-06,-1.19723e+09,-1.1963e+09,-1.19706e+09,-469050,-0.00187635,0.182589,-0,0.182599,9162.61,-43048.8,0,44013.1,469050
step02_gravity_refstate-mantle.xmf,1142,-5.69667e-07,5.85648e-06,0,-3.52054e-06,-1.22399e+09,-1.22313e+09,-1.22391e+09,-470521,-0.0120161,0.174722,-0,0.175134,9323.47,-43880.6,0,44860.2,470521
step02_gravity_refstate-mantle.xmf,1143,-5.92021e-07,1.09864e-05,0,-4.20903e-06,-1.50335e+09,-1.50181e+09,-1.50327e+09,-562537,-0.0684581,0.0953458,-0,0.117377,9890.13,-52523.3,0,53446.3,562537
step02_gravity_refstate-mantle.xmf,1144,-3.88091e-06,5.03856e-06,0,-4.466e-06,-1.11784e+09,-1.11665e+09,-1.11732e+09,-596881,0.0327386,0.216658,0,0.219117,8167.4,-40577.6,0,41391.4,596881
step02_gravity_refstate-mantle.xmf,1145,-2.27053e-06,1.32362e-05,0,-1.58845e-06,-1.66641e+09,-1.66434e+09,-1.66611e+09,-212296,-0.0727365,0.0329628,-0,0.0798571,9944.71,-57554.6,0,58407.4,212296
step02_gravity_refstate-mantle.xmf,1146,-2.59215e-06,1.37494e-05,0,-7.72261e-07,-1.70811e+09,-1.70593e+09,-1.70776e+09,-103213,-0.0724888,0.0159905,-0,0.0742316,9775.71,-58841.9,0,59648.4,103213
step02_gravity_refstate-mantle.xmf,1147,-3.38411e-06,1.49379e-05,0,-1.13599e-08,-1.74567e+09,-1.74323e+09,-1.74522e+09,-1518.26,-0.0702292,-1.49454e-19,-0,0.0702292,9014.66,-60000,0,60673.4,1518.26
step02_gravity_refstate-mantle.xmf,1148,-1.93617e-06,5.49927e-06,0,-3.64683e-06,-1.17499e+09,-1.17399e+09,-1.17473e+09,-487399,0.00715811,0.190862,0,0.190996,8939.41,-42357,0,43290.1,487399
step02_gravity_refstate-mantle.xmf,1149,-1.98326e-06,1.28413e-05,0,-2.2581e-06,-1.63046e+09,-1.62848e+09,-1.63019e+09,-301795,-0.0725257,0.0472475,-0,0.086558,9998,-56445,0,57323.6,301795
step02_gravity_refstate-mantle.xmf,1150,-1.00202e-06,1.15561e-05,0,-3.84506e-06,-1.53387e+09,-1.53219e+09,-1.53374e+09,-513892,-0.0700134,0.0844598,-0,0.109706,9915.12,-53464.7,0,54376.3,513892
step02_gravity_refstate-mantle.xmf,1151,-1.35647e-06,1.20222e-05,0,-3.3874e-06,-1.5646e+09,-1.56281e+09,-1.56442e+09,-452726,-0.0711623,0.0728533,-0,0.101841,9962.46,-54412.7,0,55317.2,452726
step02_gravity_refstate-mantle.xmf,1152,-1.68488e-06,1.24491e-05,0,-2.85481e-06,-1.59689e+09,-1.595e+09,-1.59667e+09,-381546,-0.0719944,0.0604063,-0,0.0939793,9993.7,-55409.2,0,56303.2,381546
step02_gravity_refstate-mantle.xmf,1153,1.02397e-07,9.72317e-06,0,-3.80674e-06,-1.48537e+09,-1.48409e+09,-1.48539e+09,-508771,-0.0673713,0.0935037,-0,0.115247,10625.7,-51969.3,0,53044.5,508771
step02_gravity_refstate-mantle.xmf,1154,4.35883e-07,9.18085e-06,0,-4.12358e-06,-1.44818e+09,-1.44701e+09,-1.44824e+09,-551117,-0.063919,0.106961,-0,0.124604,10393.1,-50821.1,0,51873,551117
step02_gravity_refstate-mantle.xmf,1155,-4.58434e-06,5.0415e-06,0,-4.42988e-06,-1.09929e+09,-1.09801e+09,-1.09868e+09,-592053,0.0394634,0.215516,0,0.2191,8352.15,-40000,0,40862.7,592053
step02_gravity_refstate-mantle.xmf,1156,-2.71696e-06,5.33294e-06,0,-3.48952e-06,-1.1507e+09,-1.14963e+09,-1.15034e+09,-466374,0.0163623,0.191621,0,0.192318,9107.58,-41601.3,0,42586.6,466374
step02_gravity_refstate-mantle.xmf,1157,-3.72295e-06,5.18016e-06,0,-3.88532e-06,-1.12172e+09,-1.12053e+09,-1.12123e+09,-519274,0.0288077,0.20282,0,0.204855,8786.49,-40698.9,0,41636.6,519274
step02_gravity_refstate-mantle.xmf,1158,7.8298e-07,8.4311e-06,0,-4.10424e-06,-1.41435e+09,-1.41333e+09,-1.41446e+09,-548532,-0.0596873,0.116098,-0,0.130542,10400.6,-49776.6,0,50851.6,548532
step02_gravity_refstate-mantle.xmf,1159,9.71445e-07,7.82829e-06,0,-4.00624e-06,-1.38502e+09,-1.3841e+09,-1.38515e+09,-535434,-0.0550846,0.123854,-0,0.135551,10373,-48870.3,0,49959.1,535434
step02_gravity_refstate-mantle.xmf,1160,1.03795e-06,7.27327e-06,0,-3.84875e-06,-1.35502e+09,-1.35418e+09,-1.35515e+09,-514385,-0.0494033,0.131722,-0,0.140681,10313.3,-47942.5,0,49039.3,514385
step02_gravity_refstate-mantle.xmf,1161,9.48952e-07,6.76029e-06,0,-3.61271e-06,-1.32437e+09,-1.32359e+09,-1.3245e+09,-482839,-0.0424833,0.139125,-0,0.145467,10264.1,-46993.9,0,48101.8,482839
step02_gravity_refstate-mantle.xmf,1162,6.83755e-07,6.32539e-06,0,-3.33766e-06,-1.2942e+09,-1.29344e+09,-1.29429e+09,-446078,-0.0345618,0.145678,-0,0.149722,10236.8,-46059,0,47182.9,446078
step02_gravity_refstate-mantle.xmf,1163,2.51375e-07,5.98398e-06,0,-3.08246e-06,-1.2646e+09,-1.26384e+09,-1.26463e+09,-411970,-0.025819,0.151818,-0,0.153998,10206.7,-45141.1,0,46280.6,411970
step02_gravity_refstate-mantle.xmf,1164,-1.92231e-06,5.43735e-06,0,-3.05252e-06,-1.17534e+09,-1.17436e+09,-1.17508e+09,-407969,0.00568425,0.177518,0,0.177609,9633.56,-42367.9,0,43449.3,407969
step02_gravity_refstate-mantle.xmf,1165,-3.39756e-07,5.72681e-06,0,-2.88472e-06,-1.2349e+09,-1.23409e+09,-1.23486e+09,-385543,-0.0162066,0.157927,-0,0.158756,10163.8,-44219.1,0,45372.1,385543
step02_gravity_refstate-mantle.xmf,1166,-1.12937e-06,5.53984e-06,0,-2.78057e-06,-1.20284e+09,-1.20195e+09,-1.20269e+09,-371624,-0.00505849,0.164813,-0,0.164891,10088,-43222.9,0,44384.6,371624
step02_gravity_refstate-mantle.xmf,1167,-2.54627e-07,1.02861e-05,0,-3.54515e-06,-1.51694e+09,-1.51554e+09,-1.51691e+09,-473810,-0.0696111,0.0832761,-0,0.108539,10672.8,-52943.6,0,54008.6,473810
step02_gravity_refstate-mantle.xmf,1168,-1.30106e-06,1.17597e-05,0,-1.68967e-06,-1.64784e+09,-1.6461e+09,-1.64767e+09,-225824,-0.0743067,0.036499,-0,0.0827869,10935.8,-56983.7,0,58023.6,225824
step02_gravity_refstate-mantle.xmf,1169,-1.50715e-06,1.20713e-05,0,-1.06726e-06,-1.68506e+09,-1.68325e+09,-1.68486e+09,-142640,-0.0747014,0.022843,-0,0.0781159,10911.1,-58132.8,0,59147.9,142640
step02_gravity_refstate-mantle.xmf,1170,-2.20995e-06,1.32159e-05,0,-4.22165e-09,-1.74556e+09,-1.7435e+09,-1.74527e+09,-564.223,-0.0736377,-1.07504e-19,-0,0.0736377,10231.2,-60000,0,60866.1,564.223
step02_gravity_refstate-mantle.xmf,1171,-1.07507e-06,1.14346e-05,0,-2.2394e-06,-1.6133e+09,-1.61162e+09,-1.61315e+09,-299296,-0.0736183,0.0490197,-0,0.0884454,10911.1,-55917.3,0,56971.9,299296
step02_gravity_refstate-mantle.xmf,1172,-5.4143e-07,1.06943e-05,0,-3.17654e-06,-1.54732e+09,-1.54581e+09,-1.54724e+09,-424545,-0.0712745,0.0725483,-0,0.101702,10775.5,-53880.9,0,54947.8,424545
step02_gravity_refstate-mantle.xmf,1173,-7.70838e-07,1.10012e-05,0,-2.73185e-06,-1.5785e+09,-1.57693e+09,-1.5784e+09,-365112,-0.0726113,0.061176,-0,0.0949468,10900.2,-54843.4,0,55916.1,365112
step02_gravity_refstate-mantle.xmf,1174,3.33358e-07,9.1957e-06,0,-3.21032e-06,-1.49975e+09,-1.49857e+09,-1.49979e+09,-429060,-0.0683699,0.0821279,-0,0.106862,11370.6,-52413.6,0,53632.7,429060
step02_gravity_refstate-mantle.xmf,1175,6.39657e-07,8.6282e-06,0,-3.40833e-06,-1.46393e+09,-1.46286e+09,-1.46402e+09,-455523,-0.0651357,0.0929787,-0,0.113524,11270.2,-51307.7,0,52531,455523
step02_gravity_refstate-mantle.xmf,1176,-4.46703e-06,5.20327e-06,0,-3.78949e-06,-1.09926e+09,-1.09796e+09,-1.09866e+09,-506466,0.0357455,0.198762,0,0.201951,9172.9,-40000,0,41038.3,506466
step02_gravity_refstate-mantle.xmf,1177,-3.54869e-06,5.26668e-06,0,-3.24194e-06,-1.12444e+09,-1.12327e+09,-1.12397e+09,-433285,0.0247821,0.186496,0,0.188136,9606.39,-40784.4,0,41900.4,433285
step02_gravity_refstate-mantle.xmf,1178,-1.64499e-06,1.2319e-05,0,-4.85276e-07,-1.71866e+09,-1.7168e+09,-1.71844e+09,-64857.2,-0.0748087,0.0102601,-0,0.075509,10857.3,-59170.6,0,60158.4,64857.2
step02_gravity_refstate-mantle.xmf,1179,-2.66219e-06,5.32564e-06,0,-2.80215e-06,-1.15056e+09,-1.14949e+09,-1.1502e+09,-374508,0.0139106,0.174491,0,0.175045,10038.3,-41597.1,0,42791.1,374508
step02_gravity_refstate-mantle.xmf,1180,9.04529e-07,8.02382e-06,0,-3.44572e-06,-1.43041e+09,-1.42946e+09,-1.43053e+09,-460520,-0.0612042,0.102094,-0,0.119034,11226.4,-50272.6,0,51510.8,460520
step02_gravity_refstate-mantle.xmf,1181,1.07572e-06,7.44999e-06,0,-3.37435e-06,-1.39843e+09,-1.39758e+09,-1.39857e+09,-450982,-0.0565129,0.110174,-0,0.123822,11191.3,-49284.3,0,50539,450982
step02_gravity_refstate-mantle.xmf,1182,1.1225e-06,6.9684e-06,0,-3.24892e-06,-1.36839e+09,-1.3676e+09,-1.36854e+09,-434218,-0.0512169,0.117662,-0,0.128326,11129.1,-48355.3,0,49619.5,434218
step02_gravity_refstate-mantle.xmf,1183,1.04845e-06,6.50614e-06,0,-3.03464e-06,-1.33809e+09,-1.33736e+09,-1.33823e+09,-405579,-0.0448719,0.124236,-0,0.132091,11110.3,-47417.7,0,48701.9,405579
step02_gravity_refstate-mantle.xmf,1184,8.28177e-07,6.12665e-06,0,-2.80108e-06,-1.3086e+09,-1.30789e+09,-1.30871e+09,-374364,-0.0377866,0.130483,-0,0.135844,11075.9,-46504.3,0,47805.1,374364
step02_gravity_refstate-mantle.xmf,1185,4.49596e-07,5.82006e-06,0,-2.56934e-06,-1.27842e+09,-1.2777e+09,-1.27848e+09,-343393,-0.0296362,0.136612,-0,0.13979,11038,-45568.9,0,46886.7,343393
step02_gravity_refstate-mantle.xmf,1186,-8.4984e-08,5.59351e-06,0,-2.378e-06,-1.24797e+09,-1.24721e+09,-1.24796e+09,-317820,-0.0205871,0.142718,-0,0.144195,10989.4,-44624,0,45957.2,317820
step02_gravity_refstate-mantle.xmf,1187,-1.89609e-06,5.35642e-06,0,-2.47222e-06,-1.1751e+09,-1.17413e+09,-1.17484e+09,-330412,0.00418514,0.163234,0,0.163288,10465.5,-42360.3,0,43633.9,330412
step02_gravity_refstate-mantle.xmf,1188,-7.21349e-07,5.44545e-06,0,-2.26227e-06,-1.2189e+09,-1.21808e+09,-1.21881e+09,-302352,-0.0113101,0.148513,-0,0.148943,10935.1,-43721.6,0,45068.3,302352
step02_gravity_refstate-mantle.xmf,1189,3.25625e-08,9.71505e-06,0,-3.00229e-06,-1.53004e+09,-1.52875e+09,-1.53005e+09,-401255,-0.0704962,0.0731489,-0,0.10159,11385.1,-53348.6,0,54549.9,401255
step02_gravity_refstate-mantle.xmf,1190,-6.5129e-07,1.07295e-05,0,-1.18713e-06,-1.66593e+09,-1.66441e+09,-1.66585e+09,-158660,-0.0755368,0.0269176,-0,0.0801895,11903.8,-57544.3,0,58762.6,158660
step02_gravity_refstate-mantle.xmf,1191,-4.28104e-07,1.03714e-05,0,-1.69743e-06,-1.62777e+09,-1.62633e+09,-1.62771e+09,-226862,-0.0747471,0.0392971,-0,0.0844476,11928.7,-56366,0,57614.4,226862
step02_gravity_refstate-mantle.xmf,1192,-6.97443e-07,1.08639e-05,0,-5.53778e-07,-1.70778e+09,-1.70624e+09,-1.70769e+09,-74012.4,-0.0760943,0.0127152,-0,0.0771494,12004.1,-58837.1,0,60049.2,74012.4
step02_gravity_refstate-mantle.xmf,1193,-1.1459e-06,1.16059e-05,0,-9.97527e-09,-1.74547e+09,-1.74376e+09,-1.74531e+09,-1333.2,-0.0757345,-1.41144e-19,-0,0.0757345,11483.3,-60000,0,61089,1333.2
step02_gravity_refstate-mantle.xmf,1194,-1.33473e-06,5.35291e-06,0,-2.20447e-06,-1.1944e+09,-1.19351e+09,-1.19423e+09,-294628,-0.00318828,0.152703,-0,0.152736,10930.1,-42960.5,0,44329.1,294628
step02_gravity_refstate-mantle.xmf,1195,-1.66876e-07,9.95336e-06,0,-2.13388e-06,-1.59094e+09,-1.58959e+09,-1.59092e+09,-285193,-0.0735582,0.0508502,-0,0.0894234,11937.1,-55229.1,0,56504.4,285193
step02_gravity_refstate-mantle.xmf,1196,1.06681e-07,9.51831e-06,0,-2.53928e-06,-1.55267e+09,-1.55141e+09,-1.55269e+09,-339375,-0.0717815,0.0628497,-0,0.0954079,11864.6,-54047.6,0,55334.6,339375
step02_gravity_refstate-mantle.xmf,1197,5.4924e-07,8.72661e-06,0,-2.66123e-06,-1.51673e+09,-1.51564e+09,-1.5168e+09,-355674,-0.0693678,0.0711318,-0,0.099356,12119.8,-52938.3,0,54307.9,355674
step02_gravity_refstate-mantle.xmf,1198,8.31447e-07,8.15452e-06,0,-2.79178e-06,-1.48132e+09,-1.48034e+09,-1.48143e+09,-373121,-0.0662827,0.0803474,-0,0.104159,12124.9,-51844.9,0,53243.8,373121
step02_gravity_refstate-mantle.xmf,1199,1.05358e-06,7.60217e-06,0,-2.83823e-06,-1.44631e+09,-1.44543e+09,-1.44645e+09,-379330,-0.062413,0.0892186,-0,0.108882,12089.9,-50763.4,0,52183.2,379330
step02_gravity_refstate-mantle.xmf,1200,-4.28132e-06,5.27676e-06,0,-3.22562e-06,-1.09921e+09,-1.09793e+09,-1.09864e+09,-431104,0.031971,0.183008,0,0.185779,10034.7,-40000,0,41239.5,431104
step02_gravity_refstate-mantle.xmf,1201,-3.39138e-06,5.27901e-06,0,-2.6834e-06,-1.12492e+09,-1.12376e+09,-1.12447e+09,-358637,0.0215095,0.171015,0,0.172362,10497.6,-40800.2,0,42129,358637
step02_gravity_refstate-mantle.xmf,1202,-2.56235e-06,5.27441e-06,0,-2.26431e-06,-1.15043e+09,-1.14938e+09,-1.15009e+09,-302625,0.0115706,0.159692,0,0.160111,10948.4,-41593.6,0,43010.5,302625
step02_gravity_refstate-mantle.xmf,1203,1.19016e-06,7.08738e-06,0,-2.79989e-06,-1.41243e+09,-1.41164e+09,-1.41259e+09,-374205,-0.057779,0.0975043,-0,0.113338,12033.6,-49716.7,0,51152.3,374205
step02_gravity_refstate-mantle.xmf,1204,1.22436e-06,6.62767e-06,0,-2.68674e-06,-1.3805e+09,-1.37978e+09,-1.38067e+09,-359083,-0.0525077,0.104945,-0,0.117348,11974.5,-48729.4,0,50179.1,359083
step02_gravity_refstate-mantle.xmf,1205,1.13493e-06,6.36605e-06,0,-2.64265e-06,-1.35286e+09,-1.35216e+09,-1.35301e+09,-353191,-0.0473467,0.112793,-0,0.122328,11779.2,-47874.3,0,49302.1,353191
step02_gravity_refstate-mantle.xmf,1206,9.57393e-07,5.94177e-06,0,-2.33859e-06,-1.32306e+09,-1.32239e+09,-1.32318e+09,-312553,-0.0405825,0.116783,-0,0.123633,11917.8,-46951.3,0,48440.3,312553
step02_gravity_refstate-mantle.xmf,1207,6.50887e-07,5.65809e-06,0,-2.12087e-06,-1.29414e+09,-1.29347e+09,-1.29423e+09,-283454,-0.033433,0.122133,-0,0.126627,11905.5,-46055.4,0,47569.3,283454
step02_gravity_refstate-mantle.xmf,1208,1.66425e-07,5.44755e-06,0,-1.93585e-06,-1.26234e+09,-1.26163e+09,-1.26236e+09,-258727,-0.0248057,0.128308,-0,0.130684,11851.4,-45069.3,0,46601.4,258727
step02_gravity_refstate-mantle.xmf,1209,-4.38586e-07,5.31574e-06,0,-1.81562e-06,-1.23129e+09,-1.23052e+09,-1.23123e+09,-242658,-0.0156947,0.134319,-0,0.135233,11789.1,-44105.8,0,45654.1,242658
step02_gravity_refstate-mantle.xmf,1210,-1.81613e-06,5.25625e-06,0,-1.97218e-06,-1.17548e+09,-1.17454e+09,-1.17524e+09,-263582,0.00240648,0.149587,0,0.149606,11350.9,-42372.5,0,43866.5,263582
step02_gravity_refstate-mantle.xmf,1211,-1.11279e-06,5.25621e-06,0,-1.81375e-06,-1.20203e+09,-1.20117e+09,-1.20188e+09,-242407,-0.00654756,0.141018,-0,0.14117,11650,-43197.1,0,44740.5,242407
step02_gravity_refstate-mantle.xmf,1212,-9.49183e-08,9.87939e-06,0,-8.17947e-07,-1.68292e+09,-1.68158e+09,-1.68291e+09,-109319,-0.0761325,0.0193145,-0,0.0785443,12780.3,-58070.5,0,59460.2,109319
step02_gravity_refstate-mantle.xmf,1213,8.7184e-08,9.52195e-06,0,-1.19491e-06,-1.64818e+09,-1.64692e+09,-1.64819e+09,-159699,-0.0754403,0.0294922,-0,0.0810002,12871.9,-56997.8,0,58433.1,159699
step02_gravity_refstate-mantle.xmf,1214,3.16138e-07,9.11488e-06,0,-1.57875e-06,-1.60965e+09,-1.60847e+09,-1.60969e+09,-211000,-0.0742136,0.0403924,-0,0.0844938,12930.5,-55808,0,57286.4,211000
step02_gravity_refstate-mantle.xmf,1215,-1.88771e-07,1.0104e-05,0,-5.08415e-09,-1.74538e+09,-1.74401e+09,-1.74536e+09,-679.497,-0.0765954,-1.1025e-19,-0,0.0765954,12775.3,-60000,0,61345,679.497
step02_gravity_refstate-mantle.xmf,1216,5.49297e-07,8.69023e-06,0,-1.89757e-06,-1.57185e+09,-1.57076e+09,-1.57192e+09,-253611,-0.0724775,0.0507706,-0,0.0884909,12940.8,-54640.9,0,56152.4,253611
step02_gravity_refstate-mantle.xmf,1217,8.06451e-07,8.19362e-06,0,-2.11916e-06,-1.53448e+09,-1.53349e+09,-1.53459e+09,-283226,-0.0701145,0.0603677,-0,0.0925219,12970.4,-53486.9,0,55037.1,283226
step02_gravity_refstate-mantle.xmf,1218,1.03294e-06,7.69631e-06,0,-2.25554e-06,-1.49814e+09,-1.49725e+09,-1.49828e+09,-301453,-0.0671168,0.0693129,-0,0.0964828,12971,-52364.6,0,53947.2,301453
step02_gravity_refstate-mantle.xmf,1219,1.21932e-06,7.18559e-06,0,-2.28704e-06,-1.46289e+09,-1.46209e+09,-1.46305e+09,-305663,-0.0634069,0.077331,-0,0.100003,12984.9,-51275.8,0,52894.3,305663
step02_gravity_refstate-mantle.xmf,1220,1.32519e-06,6.71487e-06,0,-2.25457e-06,-1.42779e+09,-1.42707e+09,-1.42796e+09,-301323,-0.0589022,0.0851925,-0,0.103572,12950.8,-50190.9,0,51834.8,301323
step02_gravity_refstate-mantle.xmf,1221,-3.20161e-06,5.23731e-06,0,-2.20672e-06,-1.12512e+09,-1.12399e+09,-1.12469e+09,-294929,0.0183632,0.15668,0,0.157753,11428.7,-40807.5,0,42377.7,294929
step02_gravity_refstate-mantle.xmf,1222,-4.04689e-06,5.28112e-06,0,-2.72909e-06,-1.09916e+09,-1.09791e+09,-1.09862e+09,-364743,0.0281975,0.168231,0,0.170578,10939.7,-40000,0,41469,364743
step02_gravity_refstate-mantle.xmf,1223,1.92383e-07,9.4255e-06,0,-3.97885e-07,-1.71109e+09,-1.70986e+09,-1.71112e+09,-53177.4,-0.076455,0.0100483,-0,0.0771125,13317.9,-58941.6,0,60427.5,53177.4
step02_gravity_refstate-mantle.xmf,1224,-2.39086e-06,5.18934e-06,0,-1.80517e-06,-1.15176e+09,-1.15075e+09,-1.15144e+09,-241261,0.00880662,0.145912,0,0.146177,11888.3,-41635.7,0,43299.7,241261
step02_gravity_refstate-mantle.xmf,1225,1.33248e-06,6.28245e-06,0,-2.15834e-06,-1.39246e+09,-1.3918e+09,-1.39264e+09,-288462,-0.0534521,0.0929055,-0,0.107185,12888.4,-49098.6,0,50762,288462
step02_gravity_refstate-mantle.xmf,1226,1.19419e-06,5.90393e-06,0,-2.03777e-06,-1.35308e+09,-1.35245e+09,-1.35324e+09,-272348,-0.0463015,0.102142,-0,0.112146,12714,-47880.3,0,49539.5,272348
step02_gravity_refstate-mantle.xmf,1227,8.99321e-07,5.50378e-06,0,-1.71788e-06,-1.31593e+09,-1.31531e+09,-1.31605e+09,-229595,-0.0380359,0.107085,-0,0.11364,12864.3,-46729.7,0,48468.1,229595
step02_gravity_refstate-mantle.xmf,1228,4.28043e-07,5.29183e-06,0,-1.54398e-06,-1.27909e+09,-1.27844e+09,-1.27915e+09,-206353,-0.0290652,0.114355,-0,0.117991,12765.6,-45588.1,0,47341.7,206353
step02_gravity_refstate-mantle.xmf,1229,-1.47166e-07,5.17096e-06,0,-1.42439e-06,-1.24541e+09,-1.2447e+09,-1.24539e+09,-190370,-0.0200424,0.120755,-0,0.122407,12685.4,-44543.4,0,46314.5,190370
step02_gravity_refstate-mantle.xmf,1230,-8.31425e-07,5.11788e-06,0,-1.38875e-06,-1.21235e+09,-1.21156e+09,-1.21224e+09,-185607,-0.010587,0.127196,-0,0.127636,12588.5,-43517.6,0,45301.8,185607
step02_gravity_refstate-mantle.xmf,1231,-1.591e-06,5.13195e-06,0,-1.51382e-06,-1.18074e+09,-1.17984e+09,-1.18053e+09,-202323,-0.000883378,0.135682,-0,0.135685,12311.7,-42536.1,0,44282,202323
step02_gravity_refstate-mantle.xmf,1232,5.54427e-07,8.8034e-06,0,-7.76664e-07,-1.67211e+09,-1.67101e+09,-1.67219e+09,-103801,-0.0757171,0.020265,-0,0.0783821,13777.2,-57738.3,0,59359.3,103801
step02_gravity_refstate-mantle.xmf,1233,7.54538e-07,8.35771e-06,0,-1.1058e-06,-1.63071e+09,-1.62969e+09,-1.63081e+09,-147791,-0.0744735,0.0308893,-0,0.0806254,13910.8,-56459.4,0,58147.9,147791
step02_gravity_refstate-mantle.xmf,1234,9.41941e-07,7.97215e-06,0,-1.38522e-06,-1.59119e+09,-1.59025e+09,-1.59132e+09,-185135,-0.0727416,0.040719,-0,0.0833629,13956.1,-55239.2,0,56974.9,185135
step02_gravity_refstate-mantle.xmf,1235,6.37176e-07,8.74341e-06,0,-8.35585e-09,-1.74532e+09,-1.74423e+09,-1.7454e+09,-1116.76,-0.0762916,-9.72228e-20,-0,0.0762916,14111.6,-60000,0,61637.2,1116.76
step02_gravity_refstate-mantle.xmf,1236,1.11936e-06,7.57924e-06,0,-1.59599e-06,-1.55293e+09,-1.55206e+09,-1.55308e+09,-213304,-0.0704654,0.0499243,-0,0.0863586,13960.6,-54057.3,0,55830.9,213304
step02_gravity_refstate-mantle.xmf,1237,1.27697e-06,7.17825e-06,0,-1.73515e-06,-1.51584e+09,-1.51505e+09,-1.51601e+09,-231902,-0.0676096,0.0585445,-0,0.0894345,13937.3,-52911.6,0,54716.4,231902
step02_gravity_refstate-mantle.xmf,1238,1.40387e-06,6.76751e-06,0,-1.78739e-06,-1.48054e+09,-1.47982e+09,-1.48072e+09,-238885,-0.06417,0.0662579,-0,0.0922382,13924.6,-51821,0,53659.2,238885
step02_gravity_refstate-mantle.xmf,1239,1.47675e-06,6.35498e-06,0,-1.76771e-06,-1.44478e+09,-1.44413e+09,-1.44498e+09,-236255,-0.0599095,0.0736975,-0,0.0949761,13902,-50716,0,52586.8,236255
step02_gravity_refstate-mantle.xmf,1240,1.4658e-06,5.97198e-06,0,-1.68765e-06,-1.40877e+09,-1.40816e+09,-1.40896e+09,-225554,-0.0547759,0.0809519,-0,0.0977426,13856.2,-49602.4,0,51501.4,225554
step02_gravity_refstate-mantle.xmf,1241,-2.98925e-06,5.15569e-06,0,-1.80435e-06,-1.12511e+09,-1.12402e+09,-1.12471e+09,-241151,0.015375,0.143566,0,0.144387,12391,-40808.4,0,42648.1,241151
step02_gravity_refstate-mantle.xmf,1242,-3.77847e-06,5.23153e-06,0,-2.29142e-06,-1.0991e+09,-1.0979e+09,-1.0986e+09,-306248,0.0244741,0.15441,0,0.156338,11890.1,-40000,0,41729.8,306248
step02_gravity_refstate-mantle.xmf,1243,1.05487e-06,7.92744e-06,0,-3.59782e-07,-1.70238e+09,-1.70147e+09,-1.70253e+09,-48084.9,-0.0753903,0.0106374,-0,0.0761371,14853.7,-58674.5,0,60525.5,48084.9
step02_gravity_refstate-mantle.xmf,1244,-2.163e-06,5.07045e-06,0,-1.39146e-06,-1.15442e+09,-1.15345e+09,-1.15413e+09,-185969,0.00569495,0.132523,0,0.132645,12906.3,-41719,0,43669.8,185969
step02_gravity_refstate-mantle.xmf,1245,1.34551e-06,5.62851e-06,0,-1.55445e-06,-1.37192e+09,-1.37135e+09,-1.3721e+09,-207752,-0.0485823,0.088113,-0,0.100619,13795.4,-48462.5,0,50387.8,207752
step02_gravity_refstate-mantle.xmf,1246,1.08234e-06,5.32897e-06,0,-1.36928e-06,-1.33376e+09,-1.33319e+09,-1.3339e+09,-183004,-0.0410931,0.0949303,-0,0.103443,13759.6,-47281.1,0,49242.6,183004
step02_gravity_refstate-mantle.xmf,1247,6.67641e-07,5.12398e-06,0,-1.19939e-06,-1.29619e+09,-1.2956e+09,-1.29628e+09,-160299,-0.0327681,0.101626,-0,0.106778,13697.5,-46117.6,0,48108.7,160299
step02_gravity_refstate-mantle.xmf,1248,1.38944e-07,5.01161e-06,0,-1.08397e-06,-1.26082e+09,-1.26017e+09,-1.26084e+09,-144872,-0.0241391,0.108066,-0,0.110729,13611.3,-45020.9,0,47033.5,144872
step02_gravity_refstate-mantle.xmf,1249,-4.90754e-07,4.9697e-06,0,-1.04062e-06,-1.22646e+09,-1.22573e+09,-1.2264e+09,-139079,-0.0151377,0.114447,-0,0.115444,13510.8,-43955.3,0,45984.9,139079
step02_gravity_refstate-mantle.xmf,1250,-1.30126e-06,4.97968e-06,0,-1.06859e-06,-1.18841e+09,-1.18757e+09,-1.18823e+09,-142816,-0.00478521,0.120582,-0,0.120677,13486.3,-42774.4,0,44850.1,142816
step02_gravity_refstate-mantle.xmf,1251,1.21998e-06,7.60491e-06,0,-7.268e-07,-1.65224e+09,-1.65139e+09,-1.65241e+09,-97136.9,-0.074133,0.0224535,-0,0.0774588,14991.5,-57125.9,0,59060.3,97136.9
step02_gravity_refstate-mantle.xmf,1252,1.34645e-06,7.23594e-06,0,-9.50008e-07,-1.61023e+09,-1.60944e+09,-1.61041e+09,-126969,-0.0724298,0.0319349,-0,0.0791575,15050.6,-55828,0,57821.1,126969
step02_gravity_refstate-mantle.xmf,1253,1.44374e-06,6.95617e-06,0,-1.15063e-06,-1.57074e+09,-1.57001e+09,-1.57094e+09,-153782,-0.0703231,0.0408466,-0,0.0813252,14996.2,-54608.2,0,56629.9,153782
step02_gravity_refstate-mantle.xmf,1254,1.33953e-06,7.52263e-06,0,-1.56426e-09,-1.74527e+09,-1.74444e+09,-1.74545e+09,-209.063,-0.074927,-6.65829e-20,-0,0.074927,15496.7,-60000,0,61968.9,209.063
step02_gravity_refstate-mantle.xmf,1255,1.52528e-06,6.67468e-06,0,-1.28457e-06,-1.53441e+09,-1.53372e+09,-1.53462e+09,-171683,-0.0677945,0.0488511,-0,0.0835615,14928.6,-53485.8,0,55530.1,171683
step02_gravity_refstate-mantle.xmf,1256,1.59847e-06,6.3695e-06,0,-1.35285e-06,-1.50024e+09,-1.4996e+09,-1.50046e+09,-180809,-0.0647812,0.0559934,-0,0.0856263,14886.3,-52430,0,54502.3,180809
step02_gravity_refstate-mantle.xmf,1257,1.64558e-06,6.00912e-06,0,-1.3387e-06,-1.46452e+09,-1.46393e+09,-1.46474e+09,-178917,-0.060859,0.0628165,-0,0.0874628,14890.5,-51325.9,0,53442.2,178917
step02_gravity_refstate-mantle.xmf,1258,1.61636e-06,5.66675e-06,0,-1.27672e-06,-1.42668e+09,-1.42614e+09,-1.4269e+09,-170633,-0.0559404,0.0699335,-0,0.0895546,14851.2,-50156,0,52308.6,170633
step02_gravity_refstate-mantle.xmf,1259,1.49208e-06,5.36623e-06,0,-1.16786e-06,-1.38895e+09,-1.38843e+09,-1.38915e+09,-156085,-0.0501554,0.076789,-0,0.0917176,14797.5,-48988.8,0,51174.9,156085
step02_gravity_refstate-mantle.xmf,1260,-2.71234e-06,5.03942e-06,0,-1.4341e-06,-1.12691e+09,-1.12588e+09,-1.12655e+09,-191667,0.0119681,0.131,0,0.131546,13408.9,-40865.6,0,43009.3,191667
step02_gravity_refstate-mantle.xmf,1261,-3.48773e-06,5.14049e-06,0,-1.90633e-06,-1.09905e+09,-1.0979e+09,-1.09858e+09,-254781,0.0208438,0.141521,0,0.143048,12888,-40000,0,42025,254781
step02_gravity_refstate-mantle.xmf,1262,1.64836e-06,6.79694e-06,0,-3.99248e-07,-1.6739e+09,-1.67322e+09,-1.67412e+09,-53359.5,-0.073089,0.0153047,-0,0.0746742,16146.1,-57795.8,0,60008.8,53359.5
step02_gravity_refstate-mantle.xmf,1263,1.6372e-06,6.91296e-06,0,-1.85874e-07,-1.71394e+09,-1.71324e+09,-1.71416e+09,-24842,-0.0737148,0.00673729,-0,0.0740221,16201.6,-59032.8,0,61215.7,24842
step02_gravity_refstate-mantle.xmf,1264,-1.97164e-06,4.9346e-06,0,-1.06094e-06,-1.1552e+09,-1.15428e+09,-1.15493e+09,-141795,0.0033403,0.120823,0,0.120869,13939.7,-41744.1,0,44010,141795
step02_gravity_refstate-mantle.xmf,1265,1.25208e-06,5.1143e-06,0,-1.02335e-06,-1.35088e+09,-1.35036e+09,-1.35104e+09,-136771,-0.0433846,0.0833753,-0,0.0939875,14747.5,-47810.6,0,50033.4,136771
step02_gravity_refstate-mantle.xmf,1266,8.79348e-07,4.93632e-06,0,-8.82483e-07,-1.31267e+09,-1.31213e+09,-1.31279e+09,-117944,-0.0357124,0.0899793,-0,0.0968073,14670.7,-46627.5,0,48881,117944
step02_gravity_refstate-mantle.xmf,1267,3.94701e-07,4.83235e-06,0,-7.71864e-07,-1.27599e+09,-1.27539e+09,-1.27604e+09,-103160,-0.0275633,0.0962003,-0,0.100071,14595.9,-45490.7,0,47775,103160
step02_gravity_refstate-mantle.xmf,1268,-1.60737e-07,4.80654e-06,0,-7.41777e-07,-1.242e+09,-1.24133e+09,-1.24198e+09,-99138.4,-0.0194344,0.102779,-0,0.1046,14434.5,-44437.1,0,46722.7,99138.4
step02_gravity_refstate-mantle.xmf,1269,-7.76765e-07,4.84329e-06,0,-7.82973e-07,-1.20989e+09,-1.20914e+09,-1.20979e+09,-104644,-0.0112801,0.109193,-0,0.109774,14267.9,-43441.3,0,45724.4,104644
step02_gravity_refstate-mantle.xmf,1270,1.80222e-06,6.41808e-06,0,-5.76372e-07,-1.6302e+09,-1.62959e+09,-1.63045e+09,-77032.1,-0.0712302,0.0237701,-0,0.0750917,16382.6,-56446,0,58775.4,77032.1
step02_gravity_refstate-mantle.xmf,1271,1.76809e-06,6.33239e-06,0,-7.9039e-07,-1.58621e+09,-1.5856e+09,-1.58645e+09,-105636,-0.0695291,0.0333595,-0,0.0771178,16087.9,-55086.7,0,57387.9,105636
step02_gravity_refstate-mantle.xmf,1272,1.82056e-06,6.07202e-06,0,-8.84143e-07,-1.54834e+09,-1.54777e+09,-1.54858e+09,-118166,-0.0670084,0.0407606,-0,0.0784318,16058.3,-53916.3,0,56256.9,118166
step02_gravity_refstate-mantle.xmf,1273,1.90456e-06,6.47326e-06,0,-4.78133e-09,-1.74523e+09,-1.74462e+09,-1.74549e+09,-639.024,-0.0725899,-8.82991e-20,-0,0.0725899,16934.8,-60000,0,62344.1,639.024
step02_gravity_refstate-mantle.xmf,1274,-1.35242e-06,4.8258e-06,0,-7.82746e-07,-1.18007e+09,-1.17925e+09,-1.17989e+09,-104614,-0.00400647,0.110998,-0,0.11107,14540.8,-42516.3,0,44934,104614
step02_gravity_refstate-mantle.xmf,1275,1.77175e-06,6.04293e-06,0,-1.03108e-06,-1.5184e+09,-1.51783e+09,-1.51864e+09,-137804,-0.065085,0.0478847,-0,0.0808022,15732.6,-52991.2,0,55277.4,137804
step02_gravity_refstate-mantle.xmf,1276,1.8208e-06,5.69189e-06,0,-9.8822e-07,-1.48568e+09,-1.48516e+09,-1.48592e+09,-132076,-0.0616169,0.0532078,-0,0.0814108,15850.1,-51979.8,0,54342.7,132076
step02_gravity_refstate-mantle.xmf,1277,1.78555e-06,5.36623e-06,0,-9.22037e-07,-1.44695e+09,-1.44647e+09,-1.44719e+09,-123230,-0.0569702,0.0596943,-0,0.0825168,15875.5,-50782.5,0,53206.1,123230
step02_gravity_refstate-mantle.xmf,1278,1.65372e-06,5.09967e-06,0,-8.32247e-07,-1.40716e+09,-1.4067e+09,-1.40738e+09,-111230,-0.0514551,0.0664692,-0,0.0840582,15824.8,-49551.9,0,52017.4,111230
step02_gravity_refstate-mantle.xmf,1279,1.42601e-06,4.88384e-06,0,-7.1385e-07,-1.36838e+09,-1.36792e+09,-1.36857e+09,-95406.1,-0.0452117,0.0728248,-0,0.0857178,15772.9,-48351.9,0,50859.6,95406.1
step02_gravity_refstate-mantle.xmf,1280,-2.44005e-06,4.90001e-06,0,-1.1251e-06,-1.12817e+09,-1.12719e+09,-1.12784e+09,-150370,0.00893612,0.119631,0,0.119965,14459,-40905.9,0,43386.1,150370
step02_gravity_refstate-mantle.xmf,1281,-3.18155e-06,5.01614e-06,0,-1.56806e-06,-1.09899e+09,-1.0979e+09,-1.09857e+09,-209571,0.0173447,0.129541,0,0.130697,13936,-40000,0,42358.1,209571
step02_gravity_refstate-mantle.xmf,1282,2.11274e-06,5.98133e-06,0,-1.68364e-07,-1.70104e+09,-1.70052e+09,-1.70132e+09,-22501.8,-0.0710666,0.008262,-0,0.0715452,17521.5,-58635.1,0,61197,22501.8
step02_gravity_refstate-mantle.xmf,1283,2.05184e-06,5.99219e-06,0,-3.21073e-07,-1.66079e+09,-1.66026e+09,-1.66106e+09,-42911.3,-0.0705943,0.0160088,-0,0.0723867,17293.9,-57391.4,0,59940.4,42911.3
step02_gravity_refstate-mantle.xmf,1284,-1.83402e-06,4.81274e-06,0,-8.41567e-07,-1.15402e+09,-1.15313e+09,-1.15378e+09,-112475,0.00189906,0.111958,0,0.111975,14848.2,-41708.3,0,44272.5,112475
step02_gravity_refstate-mantle.xmf,1285,-6.49681e-07,4.65814e-06,0,-5.03669e-07,-1.21151e+09,-1.2108e+09,-1.21142e+09,-67315.3,-0.0124438,0.0990987,-0,0.099877,15338.7,-43491.6,0,46117.1,67315.3
step02_gravity_refstate-mantle.xmf,1286,1.08489e-06,4.72852e-06,0,-5.91788e-07,-1.32951e+09,-1.32902e+09,-1.32965e+09,-79092.5,-0.038131,0.0790979,-0,0.0878092,15706.9,-47148.3,0,49695.8,79092.5
step02_gravity_refstate-mantle.xmf,1287,6.31109e-07,4.63849e-06,0,-4.92318e-07,-1.291e+09,-1.29046e+09,-1.29108e+09,-65798.2,-0.0303636,0.0852554,-0,0.090501,15632.9,-45955.5,0,48541.7,65798.2
step02_gravity_refstate-mantle.xmf,1288,8.34815e-08,4.60961e-06,0,-4.42652e-07,-1.25351e+09,-1.2529e+09,-1.25352e+09,-59160.4,-0.0221919,0.0912919,-0,0.0939504,15550.2,-44793.7,0,47416.1,59160.4
step02_gravity_refstate-mantle.xmf,1289,2.2493e-06,5.45889e-06,0,-3.26231e-07,-1.62728e+09,-1.62686e+09,-1.62759e+09,-43600.7,-0.067968,0.020753,-0,0.0710657,17930.6,-56356.3,0,59140,43600.7
step02_gravity_refstate-mantle.xmf,1290,2.05896e-06,5.79734e-06,0,-5.39499e-07,-1.59903e+09,-1.59853e+09,-1.59931e+09,-72104,-0.0682853,0.0276605,-0,0.0736749,17126,-55483.2,0,58066.2,72104
step02_gravity_refstate-mantle.xmf,1291,2.06724e-06,5.54462e-06,0,-6.00013e-07,-1.55692e+09,-1.55645e+09,-1.55719e+09,-80191.7,-0.0656377,0.0351498,-0,0.0744568,17096.4,-54181.6,0,56814.9,80191.7
step02_gravity_refstate-mantle.xmf,1292,2.00922e-06,5.41151e-06,0,-6.88513e-07,-1.5151e+09,-1.51465e+09,-1.51537e+09,-92019.8,-0.0627398,0.0433948,-0,0.076285,16812.3,-52889.3,0,55497.1,92019.8
step02_gravity_refstate-mantle.xmf,1293,2.36316e-06,5.55631e-06,0,-2.09683e-09,-1.74521e+09,-1.74478e+09,-1.74552e+09,-280.241,-0.0693971,-6.71967e-20,-0,0.0693971,18430.4,-60000,0,62766.9,280.241
step02_gravity_refstate-mantle.xmf,1294,-1.36258e-06,4.68193e-06,0,-5.85841e-07,-1.17222e+09,-1.17142e+09,-1.17204e+09,-78297.6,-0.00346735,0.103158,-0,0.103216,15528.1,-42273.4,0,45035.2,78297.6
step02_gravity_refstate-mantle.xmf,1295,1.96737e-06,5.06915e-06,0,-6.25947e-07,-1.46887e+09,-1.46845e+09,-1.46913e+09,-83657.9,-0.0577362,0.0504817,-0,0.0766934,16903.2,-51460,0,54165,83657.9
step02_gravity_refstate-mantle.xmf,1296,1.82877e-06,4.82741e-06,0,-5.44622e-07,-1.42672e+09,-1.42632e+09,-1.42696e+09,-72788.7,-0.0524487,0.0570679,-0,0.0775088,16880.7,-50156.4,0,52920.9,72788.7
step02_gravity_refstate-mantle.xmf,1297,1.60315e-06,4.63728e-06,0,-4.40712e-07,-1.38599e+09,-1.38558e+09,-1.3862e+09,-58901.2,-0.0465181,0.0632878,-0,0.0785448,16838.4,-48896.3,0,51714.4,58901.2
step02_gravity_refstate-mantle.xmf,1298,1.28461e-06,4.5042e-06,0,-3.34408e-07,-1.34635e+09,-1.34592e+09,-1.34652e+09,-44693.6,-0.0399764,0.069241,-0,0.0799527,16784.2,-47669.5,0,50538,44693.6
step02_gravity_refstate-mantle.xmf,1299,-2.05476e-06,4.72961e-06,0,-7.94844e-07,-1.13529e+09,-1.13438e+09,-1.13501e+09,-106231,0.00475627,0.108017,0,0.108122,15589.7,-41128,0,43983.5,106231
step02_gravity_refstate-mantle.xmf,1300,-2.86643e-06,4.86855e-06,0,-1.26833e-06,-1.09894e+09,-1.0979e+09,-1.09855e+09,-169513,0.0140136,0.11845,0,0.119276,15036.5,-40000,0,42732.8,169513
step02_gravity_refstate-mantle.xmf,1301,2.32778e-06,5.43964e-06,0,-2.05528e-07,-1.66755e+09,-1.66713e+09,-1.66786e+09,-27468.9,-0.0686484,0.0133523,-0,0.0699349,18276,-57600.5,0,60430.4,27468.9
step02_gravity_refstate-mantle.xmf,1302,2.55845e-06,5.01801e-06,0,-7.82227e-08,-1.69767e+09,-1.69734e+09,-1.69801e+09,-10454.5,-0.0669666,0.00747498,-0,0.0673825,19251.4,-58531.5,0,61616.2,10454.5
step02_gravity_refstate-mantle.xmf,1303,-8.82475e-07,4.50602e-06,0,-3.25992e-07,-1.19147e+09,-1.19075e+09,-1.19136e+09,-43568.8,-0.00878427,0.0930039,-0,0.0934178,16443.8,-42870.8,0,45916.3,43568.8
step02_gravity_refstate-mantle.xmf,1304,8.84452e-07,4.43685e-06,0,-2.54748e-07,-1.30849e+09,-1.30801e+09,-1.3086e+09,-34047.1,-0.0330903,0.0750729,-0,0.0820421,16695.4,-46496.9,0,49403.4,34047.1
step02_gravity_refstate-mantle.xmf,1305,3.76242e-07,4.41781e-06,0,-2.06677e-07,-1.26962e+09,-1.26908e+09,-1.26967e+09,-27622.4,-0.0254038,0.08087,-0,0.0847662,16627.9,-45292.8,0,48248.6,27622.4
step02_gravity_refstate-mantle.xmf,1306,-2.12294e-07,4.4415e-06,0,-2.20684e-07,-1.23088e+09,-1.23025e+09,-1.23085e+09,-29494.4,-0.0173015,0.0867884,-0,0.0884961,16544.1,-44092.3,0,47093.9,29494.4
step02_gravity_refstate-mantle.xmf,1307,2.29263e-06,5.17049e-06,0,-3.7785e-07,-1.57916e+09,-1.57878e+09,-1.57947e+09,-50499.6,-0.064984,0.0282573,-0,0.0708618,18101.7,-54869.3,0,57778.1,50499.6
step02_gravity_refstate-mantle.xmf,1308,2.5435e-06,4.87488e-06,0,-1.43106e-07,-1.64731e+09,-1.647e+09,-1.64765e+09,-19126.2,-0.0656068,0.0152068,-0,0.0673461,19254,-56975.3,0,60140.7,19126.2
step02_gravity_refstate-mantle.xmf,1309,2.24189e-06,4.95004e-06,0,-3.90759e-07,-1.53434e+09,-1.53398e+09,-1.53464e+09,-52224.9,-0.0618262,0.0354698,-0,0.0712782,18042.5,-53483.9,0,56445.2,52224.9
step02_gravity_refstate-mantle.xmf,1310,2.71498e-06,4.77734e-06,0,2.12921e-11,-1.7452e+09,-1.74492e+09,-1.74556e+09,2.84569,-0.0654454,-5.17407e-20,-0,0.0654454,19987.9,-60000,0,63241.7,2.84569
step02_gravity_refstate-mantle.xmf,1311,-1.45539e-06,4.57379e-06,0,-4.89134e-07,-1.15968e+09,-1.15888e+09,-1.15949e+09,-65372.8,-0.00185459,0.098215,-0,0.0982325,16349,-41885.1,0,44962.7,65372.8
step02_gravity_refstate-mantle.xmf,1312,2.15679e-06,4.7426e-06,0,-3.66832e-07,-1.4903e+09,-1.48996e+09,-1.49059e+09,-49027.1,-0.0578312,0.0422653,-0,0.0716296,17996.6,-52122.5,0,55141.9,49027.1
step02_gravity_refstate-mantle.xmf,1313,2.00914e-06,4.54747e-06,0,-3.02523e-07,-1.44668e+09,-1.44634e+09,-1.44695e+09,-40432.2,-0.0529772,0.0487046,-0,0.0719633,17961,-50773.6,0,53856.9,40432.2
step02_gravity_refstate-mantle.xmf,1314,1.78444e-06,4.37927e-06,0,-2.06233e-07,-1.40394e+09,-1.4036e+09,-1.40418e+09,-27563,-0.0473298,0.0546768,-0,0.0723164,17949.3,-49451.4,0,52608.2,27563
step02_gravity_refstate-mantle.xmf,1315,1.46961e-06,4.26461e-06,0,-1.08709e-07,-1.36183e+09,-1.36145e+09,-1.36202e+09,-14528.9,-0.0410432,0.0605797,-0,0.0731741,17900,-48148.1,0,51367.8,14528.9
step02_gravity_refstate-mantle.xmf,1316,1.09921e-06,4.21457e-06,0,-3.65265e-08,-1.32398e+09,-1.32357e+09,-1.32413e+09,-4881.77,-0.0348365,0.0661124,-0,0.0747291,17801.1,-46976.5,0,50236.2,4881.77
step02_gravity_refstate-mantle.xmf,1317,-2.54617e-06,4.6982e-06,0,-1.01226e-06,-1.09888e+09,-1.09791e+09,-1.09854e+09,-135289,0.0108815,0.108224,0,0.10877,16192.1,-40000,0,43153.1,135289
step02_gravity_refstate-mantle.xmf,1318,2.51366e-06,4.72255e-06,0,-1.76476e-07,-1.60158e+09,-1.60129e+09,-1.60192e+09,-23586,-0.0635995,0.0220581,-0,0.0673161,19231.2,-55562.3,0,58796.3,23586
step02_gravity_refstate-mantle.xmf,1319,2.85854e-06,4.32261e-06,0,-9.72086e-09,-1.7021e+09,-1.70191e+09,-1.70249e+09,-1299.19,-0.0625997,0.00582415,-0,0.0628701,20890.2,-58668.7,0,62276.9,1299.19
step02_gravity_refstate-mantle.xmf,1320,-1.85111e-06,4.5533e-06,0,-6.00834e-07,-1.13171e+09,-1.13085e+09,-1.13146e+09,-80301.4,0.00313118,0.0987081,0,0.0987578,16798.9,-41018.2,0,44324.9,80301.4
step02_gravity_refstate-mantle.xmf,1321,-1.16173e-06,4.4113e-06,0,-2.86117e-07,-1.16714e+09,-1.1664e+09,-1.16699e+09,-38239.5,-0.00465658,0.0900221,-0,0.0901425,17315.7,-42117.1,0,45537.8,38239.5
step02_gravity_refstate-mantle.xmf,1322,-4.7911e-07,4.30404e-06,0,-9.05413e-08,-1.20761e+09,-1.20697e+09,-1.20755e+09,-12100.8,-0.0128872,0.082792,-0,0.083789,17576,-43371.4,0,46797.4,12100.8
step02_gravity_refstate-mantle.xmf,1323,6.48494e-07,4.25513e-06,0,-3.52216e-08,-1.28714e+09,-1.28665e+09,-1.28722e+09,-4707.36,-0.0283953,0.0726947,-0,0.0780436,17509.4,-45835.4,0,49065.9,4707.36
step02_gravity_refstate-mantle.xmf,1324,1.77972e-07,4.2415e-06,0,-1.23675e-08,-1.25105e+09,-1.25051e+09,-1.25107e+09,-1652.91,-0.0214222,0.0765739,-0,0.079514,17648.7,-44717.5,0,48074.2,1652.91
step02_gravity_refstate-mantle.xmf,1325,2.4588e-06,4.57203e-06,0,-1.89988e-07,-1.55523e+09,-1.55495e+09,-1.55556e+09,-25391.9,-0.0607238,0.0287893,-0,0.0672027,19207.6,-54129.7,0,57436.5,25391.9
step02_gravity_refstate-mantle.xmf,1326,2.74397e-06,4.48134e-06,0,-5.34472e-08,-1.66524e+09,-1.66501e+09,-1.66561e+09,-7143.22,-0.063386,0.0112887,-0,0.0643834,20316,-57529.7,0,61011.5,7143.22
step02_gravity_refstate-mantle.xmf,1327,2.73245e-06,4.29812e-06,0,-4.30394e-08,-1.62388e+09,-1.62367e+09,-1.62424e+09,-5752.21,-0.0615136,0.0167446,-0,0.0637519,20446.2,-56251.4,0,59852.1,5752.21
step02_gravity_refstate-mantle.xmf,1328,2.35345e-06,4.38927e-06,0,-1.50429e-07,-1.51089e+09,-1.51062e+09,-1.5112e+09,-20104.9,-0.057165,0.0350276,-0,0.0670431,19179.4,-52758.8,0,56136.8,20104.9
step02_gravity_refstate-mantle.xmf,1329,2.97106e-06,4.13313e-06,0,7.063e-10,-1.74519e+09,-1.74504e+09,-1.74559e+09,94.3969,-0.0608301,-4.87996e-20,-0,0.0608301,21611.7,-60000,0,63773.6,94.3969
step02_gravity_refstate-mantle.xmf,1330,2.19757e-06,4.24501e-06,0,-9.52322e-08,-1.46719e+09,-1.46692e+09,-1.46749e+09,-12727.8,-0.0529032,0.0410517,-0,0.0669626,19130.4,-51407.7,0,54851.8,12727.8
step02_gravity_refstate-mantle.xmf,1331,1.97437e-06,4.11865e-06,0,-1.57446e-08,-1.42347e+09,-1.42319e+09,-1.42374e+09,-2104.26,-0.0478058,0.0468552,-0,0.0669388,19096.6,-50055.3,0,53574.4,2104.26
step02_gravity_refstate-mantle.xmf,1332,1.65705e-06,4.02212e-06,0,7.73214e-08,-1.37805e+09,-1.37773e+09,-1.37827e+09,10334,-0.0416741,0.0526733,-0,0.0671655,19076.6,-48649.9,0,52256.3,10334
step02_gravity_refstate-mantle.xmf,1333,1.20506e-06,3.97482e-06,0,1.58596e-07,-1.32887e+09,-1.3285e+09,-1.32903e+09,21196.3,-0.0342168,0.058892,-0,0.0681107,19049.6,-47127.5,0,50832,21196.3
step02_gravity_refstate-mantle.xmf,1334,6.6971e-07,4.03741e-06,0,1.52337e-07,-1.28286e+09,-1.28241e+09,-1.28295e+09,20359.8,-0.0268415,0.0664454,-0,0.0716621,18689.3,-45702.8,0,49376.5,20359.8
step02_gravity_refstate-mantle.xmf,1335,-2.22595e-06,4.51552e-06,0,-7.89294e-07,-1.09883e+09,-1.09793e+09,-1.09853e+09,-105489,0.00798171,0.0988444,0,0.0991661,17405.7,-40000,0,43622.9,105489
step02_gravity_refstate-mantle.xmf,1336,2.65938e-06,4.16058e-06,0,-2.39702e-08,-1.57679e+09,-1.57659e+09,-1.57715e+09,-3203.62,-0.0590095,0.0229246,-0,0.0633061,20447.6,-54796.1,0,58486.9,3203.62
step02_gravity_refstate-mantle.xmf,1337,2.93693e-06,3.91036e-06,0,3.52698e-08,-1.65528e+09,-1.65515e+09,-1.65567e+09,4713.81,-0.0590435,0.0111647,-0,0.0600898,21737.9,-57221.8,0,61211.7,4713.81
step02_gravity_refstate-mantle.xmf,1338,3.05633e-06,3.78418e-06,0,2.95007e-08,-1.7029e+09,-1.7028e+09,-1.70331e+09,3942.77,-0.0580102,0.00500495,-0,0.0582257,22446.2,-58693.1,0,62838.8,3942.77
step02_gravity_refstate-mantle.xmf,1339,3.14985e-06,3.6044e-06,0,1.51314e-09,-1.7452e+09,-1.74514e+09,-1.74562e+09,202.231,-0.055642,-4.91792e-20,-0,0.055642,23306.5,-60000,0,64367.6,202.231
step02_gravity_refstate-mantle.xmf,1340,-1.55793e-06,4.36206e-06,0,-3.9901e-07,-1.13356e+09,-1.13277e+09,-1.13336e+09,-53327.7,0.000653831,0.0896775,0,0.0896799,18043.8,-41077.1,0,44865.4,53327.7
step02_gravity_refstate-mantle.xmf,1341,-7.72e-07,4.18967e-06,0,-5.37055e-08,-1.17883e+09,-1.17817e+09,-1.17873e+09,-7177.75,-0.00817648,0.0797099,-0,0.0801282,18682.9,-42480.2,0,46407.1,7177.75
step02_gravity_refstate-mantle.xmf,1342,-1.75091e-08,4.08501e-06,0,1.17559e-07,-1.23046e+09,-1.22991e+09,-1.23045e+09,15711.8,-0.0174897,0.0727001,-0,0.0747743,18751.5,-44079.7,0,47902.4,15711.8
step02_gravity_refstate-mantle.xmf,1343,2.54815e-06,4.0598e-06,0,4.57245e-09,-1.5319e+09,-1.5317e+09,-1.53224e+09,611.108,-0.0559598,0.0287453,-0,0.062911,20402.7,-53408.3,0,57172.7,611.108
step02_gravity_refstate-mantle.xmf,1344,2.85271e-06,3.79328e-06,0,7.6137e-08,-1.60103e+09,-1.60091e+09,-1.60142e+09,10175.7,-0.0568093,0.0176507,-0,0.0594882,21742,-55545.3,0,59648.9,10175.7
step02_gravity_refstate-mantle.xmf,1345,2.38726e-06,3.9374e-06,0,6.65227e-08,-1.48834e+09,-1.48813e+09,-1.48866e+09,8890.76,-0.0522538,0.0342565,-0,0.0624817,20360.6,-52061.3,0,55901.1,8890.76
step02_gravity_refstate-mantle.xmf,1346,3.19115e-06,3.33741e-06,0,5.73635e-08,-1.7002e+09,-1.70018e+09,-1.70062e+09,7666.63,-0.05289,0.00469354,-0,0.0530978,24072.8,-58609.5,0,63360.6,7666.63
step02_gravity_refstate-mantle.xmf,1347,2.16873e-06,3.85181e-06,0,1.34806e-07,-1.44438e+09,-1.44415e+09,-1.44466e+09,18016.8,-0.0478179,0.0397613,-0,0.0621893,20299.5,-50701.6,0,54614.3,18016.8
step02_gravity_refstate-mantle.xmf,1348,1.87206e-06,3.78616e-06,0,2.13964e-07,-1.3988e+09,-1.39854e+09,-1.39905e+09,28596.3,-0.0424152,0.0453027,-0,0.0620595,20258.9,-49291.5,0,53292.4,28596.3
step02_gravity_refstate-mantle.xmf,1349,1.47884e-06,3.76053e-06,0,2.83121e-07,-1.35142e+09,-1.35111e+09,-1.35161e+09,37839.2,-0.0360793,0.0510538,-0,0.0625157,20204.9,-47825.3,0,51918.1,37839.2
step02_gravity_refstate-mantle.xmf,1350,9.89351e-07,3.78811e-06,0,3.13739e-07,-1.3034e+09,-1.30303e+09,-1.30354e+09,41931.2,-0.0290572,0.0571176,-0,0.0640839,20098.5,-46339,0,50509.9,41931.2
step02_gravity_refstate-mantle.xmf,1351,-1.90798e-06,4.32117e-06,0,-5.98214e-07,-1.09878e+09,-1.09794e+09,-1.09852e+09,-79951.3,0.00534353,0.0902874,0,0.0904454,18680.2,-40000,0,44146.9,79951.3
step02_gravity_refstate-mantle.xmf,1352,2.72975e-06,3.70881e-06,0,1.24128e-07,-1.5541e+09,-1.55397e+09,-1.55446e+09,16589.7,-0.0541945,0.0232086,-0,0.0589549,21689.1,-54094.4,0,58280.5,16589.7
step02_gravity_refstate-mantle.xmf,1353,3.09662e-06,3.50016e-06,0,7.59504e-08,-1.66712e+09,-1.66707e+09,-1.66753e+09,10150.8,-0.0548474,0.00860337,-0,0.0555181,23241.1,-57587.5,0,62100.5,10150.8
step02_gravity_refstate-mantle.xmf,1354,3.26801e-06,3.17359e-06,0,3.76268e-09,-1.74521e+09,-1.74522e+09,-1.74565e+09,502.882,-0.0499597,-5.40065e-20,-0,0.0499597,25077,-60000,0,65029.6,502.882
step02_gravity_refstate-mantle.xmf,1355,-1.26701e-06,4.16525e-06,0,-2.28267e-07,-1.13582e+09,-1.1351e+09,-1.13565e+09,-30507.9,-0.0015534,0.0815515,-0,0.0815663,19330.9,-41148.3,0,45462.8,30507.9
step02_gravity_refstate-mantle.xmf,1356,-2.05652e-07,3.95339e-06,0,1.72908e-07,-1.20785e+09,-1.20729e+09,-1.20782e+09,23109.1,-0.0137289,0.0695691,-0,0.0709108,19881.8,-43379.7,0,47718.8,23109.1
step02_gravity_refstate-mantle.xmf,1357,4.15354e-07,3.85973e-06,0,2.82393e-07,-1.25513e+09,-1.25467e+09,-1.25519e+09,37741.8,-0.021473,0.0634359,-0,0.0669717,19966.5,-44844.2,0,49088.4,37741.8
step02_gravity_refstate-mantle.xmf,1358,2.56878e-06,3.65163e-06,0,1.75834e-07,-1.50953e+09,-1.50939e+09,-1.50987e+09,23500.2,-0.0510212,0.0284299,-0,0.0584074,21623.7,-52716.5,0,56979,23500.2
step02_gravity_refstate-mantle.xmf,1359,3.01741e-06,3.4549e-06,0,1.28083e-07,-1.62452e+09,-1.62446e+09,-1.62492e+09,17118.3,-0.0539137,0.0133207,-0,0.0555349,23090.7,-56270.8,0,60824.2,17118.3
step02_gravity_refstate-mantle.xmf,1360,2.89601e-06,3.38546e-06,0,1.92678e-07,-1.57553e+09,-1.57546e+09,-1.57592e+09,25751.4,-0.0516842,0.0185721,-0,0.0549198,23051.5,-54756.6,0,59410.9,25751.4
step02_gravity_refstate-mantle.xmf,1361,2.35728e-06,3.58318e-06,0,2.45935e-07,-1.46561e+09,-1.46545e+09,-1.46593e+09,32869.2,-0.047204,0.0335125,-0,0.0578905,21558.7,-51358.3,0,55699.7,32869.2
step02_gravity_refstate-mantle.xmf,1362,3.15407e-06,3.17478e-06,0,1.34031e-07,-1.64923e+09,-1.64923e+09,-1.64965e+09,17913.3,-0.0505517,0.00962357,-0,0.0514596,24458.4,-57034.5,0,62057.6,17913.3
step02_gravity_refstate-mantle.xmf,1363,3.27873e-06,2.91813e-06,0,9.56844e-08,-1.68624e+09,-1.68628e+09,-1.68667e+09,12788.2,-0.046571,0.00539627,-0,0.0468826,25960.3,-58177.7,0,63707,12788.2
step02_gravity_refstate-mantle.xmf,1364,-7.17631e-07,4.02749e-06,0,1.79788e-08,-1.16957e+09,-1.16894e+09,-1.16947e+09,2402.86,-0.0074993,0.074366,-0,0.0747432,19869.2,-42194.1,0,46638.2,2402.86
step02_gravity_refstate-mantle.xmf,1365,2.08344e-06,3.54266e-06,0,3.17691e-07,-1.42057e+09,-1.42037e+09,-1.42085e+09,42459.4,-0.0425641,0.0386288,-0,0.0574794,21509.7,-49964.9,0,54398.2,42459.4
step02_gravity_refstate-mantle.xmf,1366,1.72358e-06,3.53791e-06,0,3.80461e-07,-1.37327e+09,-1.37303e+09,-1.3735e+09,50848.6,-0.0370656,0.0440854,-0,0.0575967,21425.9,-48501.5,0,53023.2,50848.6
step02_gravity_refstate-mantle.xmf,1367,1.28247e-06,3.56771e-06,0,4.17491e-07,-1.32516e+09,-1.32486e+09,-1.32534e+09,55797.7,-0.0308174,0.0496495,-0,0.0584361,21349.1,-47012.6,0,51633,55797.7
step02_gravity_refstate-mantle.xmf,1368,7.75105e-07,3.63291e-06,0,4.06481e-07,-1.27739e+09,-1.27701e+09,-1.27749e+09,54326.2,-0.0241268,0.0553005,-0,0.0603345,21263.7,-45533.5,0,50253.8,54326.2
step02_gravity_refstate-mantle.xmf,1369,-1.59528e-06,4.12055e-06,0,-4.35755e-07,-1.09872e+09,-1.09796e+09,-1.09851e+09,-58238.7,0.00299523,0.0825303,0,0.0825846,20018.5,-40000,0,44729.6,58238.7
step02_gravity_refstate-mantle.xmf,1370,2.7293e-06,3.35525e-06,0,2.54555e-07,-1.53003e+09,-1.52995e+09,-1.53039e+09,34021.3,-0.049164,0.0235428,-0,0.0545102,22921,-53350,0,58065.4,34021.3
step02_gravity_refstate-mantle.xmf,1371,3.336e-06,2.83047e-06,0,3.71884e-09,-1.74522e+09,-1.74529e+09,-1.74567e+09,497.023,-0.0438477,-4.26883e-20,-0,0.0438477,26927.8,-60000,0,65765.5,497.023
step02_gravity_refstate-mantle.xmf,1372,-9.90367e-07,3.96819e-06,0,-9.47192e-08,-1.13793e+09,-1.13727e+09,-1.1378e+09,-12659.2,-0.00336833,0.0743966,-0,0.0744728,20650,-41214.8,0,46098.6,12659.2
step02_gravity_refstate-mantle.xmf,1373,-3.94564e-07,3.84201e-06,0,1.59199e-07,-1.18172e+09,-1.18115e+09,-1.18167e+09,21277,-0.00999967,0.0674626,-0,0.0681997,21002,-42571,0,47469.7,21277
step02_gravity_refstate-mantle.xmf,1374,2.13511e-07,3.72761e-06,0,3.27445e-07,-1.22981e+09,-1.22934e+09,-1.22984e+09,43763,-0.0171624,0.0611848,-0,0.0635463,21149.9,-44060.4,0,48873.7,43763
step02_gravity_refstate-mantle.xmf,1375,2.53361e-06,3.3394e-06,0,3.12603e-07,-1.48739e+09,-1.48728e+09,-1.48773e+09,41779.4,-0.0461115,0.0281631,-0,0.0540318,22819.5,-52031.6,0,56815.6,41779.4
step02_gravity_refstate-mantle.xmf,1376,3.0394e-06,3.09813e-06,0,2.18374e-07,-1.59797e+09,-1.59796e+09,-1.59838e+09,29185.7,-0.0486577,0.0146079,-0,0.0508032,24453.6,-55450,0,60602.7,29185.7
step02_gravity_refstate-mantle.xmf,1377,2.8652e-06,3.06115e-06,0,3.03432e-07,-1.54575e+09,-1.54573e+09,-1.54614e+09,40553.7,-0.0460904,0.0196747,-0,0.0501141,24390.2,-53835.8,0,59103.1,40553.7
step02_gravity_refstate-mantle.xmf,1378,2.28449e-06,3.30221e-06,0,3.85633e-07,-1.44293e+09,-1.44279e+09,-1.44323e+09,51539.8,-0.0420901,0.0327712,-0,0.0533435,22803.6,-50656.2,0,55552.3,51539.8
step02_gravity_refstate-mantle.xmf,1379,3.32907e-06,2.60965e-06,0,9.84409e-08,-1.6936e+09,-1.6937e+09,-1.69405e+09,13156.6,-0.0401158,0.00422883,-0,0.0403381,27947.9,-58404.9,0,64747.3,13156.6
step02_gravity_refstate-mantle.xmf,1380,3.16332e-06,2.8633e-06,0,2.02332e-07,-1.62391e+09,-1.62395e+09,-1.62434e+09,27041.7,-0.045252,0.011005,-0,0.0465709,25881.9,-56251.7,0,61920.3,27041.7
step02_gravity_refstate-mantle.xmf,1381,3.36675e-06,2.56648e-06,0,4.01459e-09,-1.74524e+09,-1.74535e+09,-1.74569e+09,536.55,-0.0373602,-4.3285e-20,-0,0.0373602,28863.5,-60000,0,66581.5,536.55
step02_gravity_refstate-mantle.xmf,1382,1.95666e-06,3.30528e-06,0,4.49878e-07,-1.39574e+09,-1.39556e+09,-1.396e+09,60126.1,-0.0372834,0.0377342,-0,0.0530465,22752.3,-49196.4,0,54202.9,60126.1
step02_gravity_refstate-mantle.xmf,1383,1.55361e-06,3.34415e-06,0,4.90696e-07,-1.34728e+09,-1.34705e+09,-1.34749e+09,65581.6,-0.031808,0.0429589,-0,0.0534529,22669.8,-47697.1,0,52810.3,65581.6
step02_gravity_refstate-mantle.xmf,1384,1.09057e-06,3.41099e-06,0,4.93057e-07,-1.29895e+09,-1.29864e+09,-1.29909e+09,65897.1,-0.0258481,0.0482633,-0,0.0547491,22590.1,-46201,0,51428.1,65897.1
step02_gravity_refstate-mantle.xmf,1385,5.77505e-07,3.50508e-06,0,4.3838e-07,-1.25077e+09,-1.25038e+09,-1.25085e+09,58589.4,-0.0195928,0.0537739,-0,0.0572321,22485.4,-44709.6,0,50045.4,58589.4
step02_gravity_refstate-mantle.xmf,1386,-1.29142e-06,3.9187e-06,0,-2.98297e-07,-1.09867e+09,-1.09798e+09,-1.0985e+09,-39867.4,0.000963871,0.0755487,0,0.0755549,21423.9,-40000,0,45376,39867.4
step02_gravity_refstate-mantle.xmf,1387,2.67835e-06,3.12888e-06,0,3.46728e-07,-1.50789e+09,-1.50783e+09,-1.50824e+09,46340.2,-0.0447749,0.0239714,-0,0.050788,23952.1,-52665,0,57855.9,46340.2
step02_gravity_refstate-mantle.xmf,1388,3.24353e-06,2.66199e-06,0,1.7599e-07,-1.64671e+09,-1.64679e+09,-1.64714e+09,23521,-0.0414384,0.0082715,-0,0.0422559,27280.8,-56955.9,0,63152.3,23521
step02_gravity_refstate-mantle.xmf,1389,3.34191e-06,2.39629e-06,0,9.45592e-08,-1.69232e+09,-1.69244e+09,-1.69276e+09,12637.8,-0.0339367,0.00398036,-0,0.0341693,29795.2,-58364.7,0,65530.1,12637.8
step02_gravity_refstate-mantle.xmf,1390,3.37363e-06,2.36425e-06,0,5.99211e-09,-1.74525e+09,-1.74539e+09,-1.7457e+09,800.845,-0.0305342,-4.703e-20,-0,0.0305342,30889.1,-60000,0,67484.3,800.845
step02_gravity_refstate-mantle.xmf,1391,-6.09237e-07,3.74317e-06,0,7.22105e-08,-1.14844e+09,-1.14786e+09,-1.14836e+09,9650.93,-0.00602941,0.0663341,-0,0.0666076,22197.2,-41541.3,0,47099.8,9650.93
step02_gravity_refstate-mantle.xmf,1392,4.17409e-09,3.62594e-06,0,3.03125e-07,-1.20116e+09,-1.20068e+09,-1.20116e+09,40512.7,-0.0129901,0.059947,-0,0.0613383,22292.8,-43173.8,0,48589.6,40512.7
step02_gravity_refstate-mantle.xmf,1393,2.47694e-06,3.07901e-06,0,4.17135e-07,-1.46724e+09,-1.46716e+09,-1.46757e+09,55750.1,-0.0411292,0.0275548,-0,0.0495063,24131.2,-51408.1,0,56790,55750.1
step02_gravity_refstate-mantle.xmf,1394,2.99715e-06,2.81888e-06,0,3.02684e-07,-1.56779e+09,-1.56781e+09,-1.56819e+09,40453.8,-0.0430705,0.0159832,-0,0.0459405,25833.5,-54516.8,0,60327.9,40453.8
step02_gravity_refstate-mantle.xmf,1395,2.71502e-06,2.86209e-06,0,4.01643e-07,-1.50361e+09,-1.50359e+09,-1.50398e+09,53679.6,-0.0405235,0.0221325,-0,0.0461736,25417.9,-52532.6,0,58358.7,53679.6
step02_gravity_refstate-mantle.xmf,1396,2.17066e-06,3.0796e-06,0,4.8632e-07,-1.41837e+09,-1.41825e+09,-1.41866e+09,64996.7,-0.0368015,0.0322501,-0,0.0489328,24113.5,-49896.5,0,55417.6,64996.7
step02_gravity_refstate-mantle.xmf,1397,3.24543e-06,2.45032e-06,0,1.97921e-07,-1.63331e+09,-1.63341e+09,-1.63374e+09,26452.2,-0.0361091,0.00867146,-0,0.0371357,28821.8,-56541.3,0,63463.5,26452.2
step02_gravity_refstate-mantle.xmf,1398,3.12238e-06,2.62183e-06,0,2.64547e-07,-1.59583e+09,-1.5959e+09,-1.59625e+09,35356.7,-0.0397886,0.012413,-0,0.0416799,27302,-55383.4,0,61747.3,35356.7
step02_gravity_refstate-mantle.xmf,1399,3.33161e-06,2.20436e-06,0,9.93303e-08,-1.68274e+09,-1.68289e+09,-1.68319e+09,13275.5,-0.0266554,0.00434225,-0,0.0270067,31947.3,-58068.3,0,66276.4,13275.5
step02_gravity_refstate-mantle.xmf,1400,1.80279e-06,3.12899e-06,0,5.31631e-07,-1.36995e+09,-1.36978e+09,-1.37019e+09,71052.5,-0.032158,0.0371746,-0,0.0491537,23995.6,-48398.5,0,54020.4,71052.5
step02_gravity_refstate-mantle.xmf,1401,1.35062e-06,3.19749e-06,0,5.44741e-07,-1.31783e+09,-1.31758e+09,-1.31801e+09,72804.7,-0.0264554,0.0423446,-0,0.0499295,23971.7,-46785.5,0,52569.3,72804.7
step02_gravity_refstate-mantle.xmf,1402,3.46075e-07,3.42132e-06,0,4.03227e-07,-1.21937e+09,-1.21896e+09,-1.21942e+09,53891.3,-0.015084,0.053483,-0,0.0555694,23604.3,-43738,0,49700.9,53891.3
step02_gravity_refstate-mantle.xmf,1403,8.62886e-07,3.29843e-06,0,5.05469e-07,-1.26784e+09,-1.26751e+09,-1.26796e+09,67555.9,-0.0207742,0.047743,-0,0.0520669,23837,-45238.3,0,51134.2,67555.9
step02_gravity_refstate-mantle.xmf,1404,-9.97789e-07,3.71282e-06,0,-1.90852e-07,-1.09863e+09,-1.098e+09,-1.0985e+09,-25507.4,-0.000729902,0.0693156,-0,0.0693194,22899.8,-40000,0,46091.2,25507.4
step02_gravity_refstate-mantle.xmf,1405,3.27075e-06,2.29004e-06,0,1.65676e-07,-1.64421e+09,-1.64435e+09,-1.64465e+09,22142.6,-0.0307471,0.00729853,-0,0.0316014,30542.5,-56878,0,64559.7,22142.6
step02_gravity_refstate-mantle.xmf,1406,3.36456e-06,2.21741e-06,0,5.27591e-09,-1.74527e+09,-1.74542e+09,-1.74572e+09,705.126,-0.0233881,-4.15461e-20,-0,0.0233881,33009.9,-60000,0,68481,705.126
step02_gravity_refstate-mantle.xmf,1407,-1.03546e-07,3.53321e-06,0,2.64008e-07,-1.17968e+09,-1.17919e+09,-1.17966e+09,35284.6,-0.0103128,0.0586101,-0,0.0595104,23342,-42509.1,0,48496.2,35284.6
step02_gravity_refstate-mantle.xmf,1408,-4.35399e-07,3.54887e-06,0,1.09763e-07,-1.14126e+09,-1.14073e+09,-1.1412e+09,14669.8,-0.00600457,0.0613841,-0,0.0616771,23769.8,-41320.3,0,47669.4,14669.8
step02_gravity_refstate-mantle.xmf,1409,2.36502e-06,2.87141e-06,0,4.92379e-07,-1.44183e+09,-1.44176e+09,-1.44215e+09,65806.4,-0.035665,0.0274576,-0,0.0450101,25524.3,-50621.9,0,56692.7,65806.4
step02_gravity_refstate-mantle.xmf,1410,2.87999e-06,2.62752e-06,0,3.74721e-07,-1.53117e+09,-1.5312e+09,-1.53156e+09,50081.4,-0.0375137,0.0178447,-0,0.0415417,27086.6,-53384.4,0,59863,50081.4
step02_gravity_refstate-mantle.xmf,1411,2.00565e-06,2.91508e-06,0,5.45282e-07,-1.38933e+09,-1.38921e+09,-1.38959e+09,72877,-0.0312652,0.0322606,-0,0.044925,25467.3,-48997.7,0,55221,72877
step02_gravity_refstate-mantle.xmf,1412,3.03489e-06,2.44265e-06,0,3.14638e-07,-1.5646e+09,-1.56468e+09,-1.565e+09,42051.4,-0.0342689,0.0139293,-0,0.0369917,28705.3,-54417.5,0,61524.5,42051.4
step02_gravity_refstate-mantle.xmf,1413,3.13766e-06,2.29258e-06,0,2.52073e-07,-1.59255e+09,-1.59267e+09,-1.59297e+09,33689.6,-0.0303474,0.011047,-0,0.0322955,30284.2,-55281.3,0,63033,33689.6
step02_gravity_refstate-mantle.xmf,1414,3.21217e-06,2.17439e-06,0,1.8633e-07,-1.61934e+09,-1.61948e+09,-1.61977e+09,24903.1,-0.0258684,0.00864603,-0,0.027275,31899.3,-56109,0,64542.9,24903.1
step02_gravity_refstate-mantle.xmf,1415,3.32547e-06,2.08567e-06,0,7.16292e-08,-1.68868e+09,-1.68884e+09,-1.68912e+09,9573.25,-0.01914,0.00371494,-0,0.0194972,34220.1,-58251.3,0,67559.1,9573.25
step02_gravity_refstate-mantle.xmf,1416,1.59695e-06,2.99e-06,0,5.66364e-07,-1.33796e+09,-1.33778e+09,-1.33818e+09,75694.5,-0.0264816,0.0370799,-0,0.0455653,25406.9,-47408.6,0,53787.4,75694.5
step02_gravity_refstate-mantle.xmf,1417,1.06377e-07,3.37143e-06,0,3.17634e-07,-1.18531e+09,-1.18488e+09,-1.18533e+09,42451.8,-0.0109581,0.0541603,-0,0.0552578,24575.5,-42684.2,0,49253.4,42451.8
step02_gravity_refstate-mantle.xmf,1418,1.11903e-06,3.09151e-06,0,5.40357e-07,-1.28402e+09,-1.28375e+09,-1.28416e+09,72218.7,-0.0210916,0.0423206,-0,0.0472852,25335,-45739.2,0,52287,72218.7
step02_gravity_refstate-mantle.xmf,1419,6.09147e-07,3.21986e-06,0,4.57081e-07,-1.23148e+09,-1.23113e+09,-1.23156e+09,61088.8,-0.0157527,0.0480439,-0,0.0505605,25092.9,-44113.2,0,50750.6,61088.8
step02_gravity_refstate-mantle.xmf,1420,-7.19775e-07,3.51447e-06,0,-1.04203e-07,-1.09858e+09,-1.09802e+09,-1.09849e+09,-13926.8,-0.00206406,0.0638055,-0,0.0638389,24449.7,-40000,0,46880.6,13926.8
step02_gravity_refstate-mantle.xmf,1421,2.58575e-06,2.65472e-06,0,4.62189e-07,-1.47245e+09,-1.47244e+09,-1.4728e+09,61771.5,-0.0341979,0.0227245,-0,0.0410597,27021.9,-51568.7,0,58219.5,61771.5
step02_gravity_refstate-mantle.xmf,1422,3.25652e-06,2.10039e-06,0,1.32844e-07,-1.64301e+09,-1.64317e+09,-1.64345e+09,17754.6,-0.021636,0.0067761,-0,0.0226723,33328,-56840.4,0,65890.7,17754.6
step02_gravity_refstate-mantle.xmf,1423,3.35105e-06,2.11717e-06,0,5.64544e-09,-1.74528e+09,-1.74544e+09,-1.74573e+09,754.513,-0.015929,-4.19019e-20,-0,0.015929,35231.4,-60000,0,69579.1,754.513
step02_gravity_refstate-mantle.xmf,1424,-1.99235e-07,3.36157e-06,0,1.62614e-07,-1.14293e+09,-1.14245e+09,-1.1429e+09,21733.4,-0.00666742,0.0565051,-0,0.0568971,25307.5,-41372.9,0,48499.3,21733.4
step02_gravity_refstate-mantle.xmf,1425,2.22179e-06,2.71669e-06,0,5.2879e-07,-1.41445e+09,-1.41438e+09,-1.41475e+09,70672.7,-0.0301821,0.0276122,-0,0.0409071,26973.5,-49774.6,0,56613.4,70672.7
step02_gravity_refstate-mantle.xmf,1426,2.76358e-06,2.46492e-06,0,4.10564e-07,-1.50179e+09,-1.50183e+09,-1.50216e+09,54871.9,-0.0316989,0.0187788,-0,0.0368438,28601,-52475.7,0,59763.8,54871.9
step02_gravity_refstate-mantle.xmf,1427,1.8287e-06,2.79134e-06,0,5.58961e-07,-1.35951e+09,-1.35938e+09,-1.35976e+09,74705.2,-0.0258825,0.032393,-0,0.0414634,26909.7,-48075.2,0,55094.1,74705.2
step02_gravity_refstate-mantle.xmf,1428,2.91221e-06,2.30941e-06,0,3.4231e-07,-1.53191e+09,-1.53199e+09,-1.5323e+09,45749.7,-0.0285189,0.0154011,-0,0.0324117,30204.8,-53406.5,0,61356.2,45749.7
step02_gravity_refstate-mantle.xmf,1429,3.03267e-06,2.17558e-06,0,2.64752e-07,-1.5615e+09,-1.56161e+09,-1.5619e+09,35384.1,-0.0245259,0.01254,-0,0.0275458,31883.2,-54321,0,62986.6,35384.1
step02_gravity_refstate-mantle.xmf,1430,3.1273e-06,2.07654e-06,0,1.87785e-07,-1.5909e+09,-1.59104e+09,-1.59132e+09,25097.5,-0.020075,0.010094,-0,0.0224698,33552.8,-55229.7,0,64622.8,25097.5
step02_gravity_refstate-mantle.xmf,1431,3.21394e-06,2.00504e-06,0,1.14875e-07,-1.62726e+09,-1.62742e+09,-1.62769e+09,15353.1,-0.0149756,0.00748554,-0,0.0167422,35327.7,-56353.3,0,66511.2,15353.1
step02_gravity_refstate-mantle.xmf,1432,3.31421e-06,2.00867e-06,0,4.6802e-08,-1.68877e+09,-1.68894e+09,-1.68921e+09,6255.09,-0.0117397,0.00357686,-0,0.0122725,36449.8,-58253.9,0,68717.6,6255.09
step02_gravity_refstate-mantle.xmf,1433,3.33764e-06,2.06019e-06,0,3.14373e-09,-1.74529e+09,-1.74546e+09,-1.74573e+09,420.16,-0.00814178,-4.05854e-20,-0,0.00814178,37559.4,-60000,0,70786.4,420.16
step02_gravity_refstate-mantle.xmf,1434,1.38594e-06,2.89341e-06,0,5.49267e-07,-1.30472e+09,-1.30452e+09,-1.30491e+09,73409.6,-0.0212194,0.0373491,-0,0.042956,26834,-46380.1,0,53583.4,73409.6
step02_gravity_refstate-mantle.xmf,1435,3.13679e-07,3.19232e-06,0,3.47233e-07,-1.18947e+09,-1.18908e+09,-1.18951e+09,46407.7,-0.0110615,0.0497455,-0,0.0509605,26100.1,-42813.4,0,50141.8,46407.7
step02_gravity_refstate-mantle.xmf,1436,8.64708e-07,3.00951e-06,0,4.82293e-07,-1.24426e+09,-1.24397e+09,-1.24438e+09,64458.4,-0.0157026,0.0428139,-0,0.0456027,26867.8,-44509.2,0,51989.9,64458.4
step02_gravity_refstate-mantle.xmf,1437,-4.59068e-07,3.32331e-06,0,-3.88554e-08,-1.09854e+09,-1.09804e+09,-1.09848e+09,-5193.02,-0.00302621,0.0589901,-0,0.0590677,26077.3,-40000,0,47749.6,5193.02
step02_gravity_refstate-mantle.xmf,1438,2.43322e-06,2.52181e-06,0,4.824e-07,-1.44189e+09,-1.44187e+09,-1.44221e+09,64472.8,-0.0284612,0.0234787,-0,0.0368956,28528.2,-50623.1,0,58108.1,64472.8
step02_gravity_refstate-mantle.xmf,1439,3.31219e-06,1.98519e-06,0,1.59097e-08,-1.69264e+09,-1.69281e+09,-1.69308e+09,2126.34,-0.00554207,0.0032799,-0,0.0064399,38324.8,-58373.3,0,69830,2126.34
step02_gravity_refstate-mantle.xmf,1440,3.3479e-06,2.03636e-06,0,-4.67481e-10,-1.74529e+09,-1.74546e+09,-1.74573e+09,-62.4789,7.33116e-20,2.74748e-19,0,2.8436e-19,40000,-60000,0,72111,62.4789
step02_gravity_refstate-mantle.xmf,1441,1.39914e-08,3.18152e-06,0,1.89504e-07,-1.14325e+09,-1.14283e+09,-1.14325e+09,25327.2,-0.00685158,0.0523267,-0,0.0527733,26951.5,-41383.7,0,49386.2,25327.2
step02_gravity_refstate-mantle.xmf,1442,2.0497e-06,2.60963e-06,0,5.2708e-07,-1.38407e+09,-1.384e+09,-1.38435e+09,70444.3,-0.0247717,0.028149,-0,0.0374967,28460,-48834.9,0,56522.7,70444.3
step02_gravity_refstate-mantle.xmf,1443,2.61821e-06,2.35285e-06,0,4.16477e-07,-1.47071e+09,-1.47075e+09,-1.47106e+09,55662.1,-0.0259723,0.0198553,-0,0.0326924,30147.3,-51514.4,0,59687.5,55662.1
step02_gravity_refstate-mantle.xmf,1444,1.63894e-06,2.70972e-06,0,5.3332e-07,-1.32797e+09,-1.32783e+09,-1.32819e+09,71278.2,-0.0208872,0.0329408,-0,0.0390047,28329.4,-47099.5,0,54962.8,71278.2
step02_gravity_refstate-mantle.xmf,1445,2.77821e-06,2.21289e-06,0,3.36209e-07,-1.50096e+09,-1.50103e+09,-1.50133e+09,44934.3,-0.0227082,0.0166689,-0,0.0281694,31833.5,-52449.4,0,61354,44934.3
step02_gravity_refstate-mantle.xmf,1446,2.91398e-06,2.0983e-06,0,2.49955e-07,-1.53116e+09,-1.53127e+09,-1.53155e+09,33406.5,-0.0188075,0.0139554,-0,0.0234196,33531.2,-53382.9,0,63040.2,33406.5
step02_gravity_refstate-mantle.xmf,1447,3.02283e-06,2.01694e-06,0,1.69375e-07,-1.56038e+09,-1.56052e+09,-1.56079e+09,22636.9,-0.0145267,0.0116684,-0,0.0186327,35180.2,-54286.2,0,64688.8,22636.9
step02_gravity_refstate-mantle.xmf,1448,3.21817e-06,1.9481e-06,0,5.00606e-08,-1.63252e+09,-1.63269e+09,-1.63295e+09,6690.6,-0.00681382,0.00694733,-0,0.00973106,37879.4,-56515.6,0,68035.8,6690.6
step02_gravity_refstate-mantle.xmf,1449,3.28943e-06,1.95232e-06,0,1.1806e-09,-1.67153e+09,-1.67171e+09,-1.67197e+09,157.787,8.68166e-20,0.00454912,0,0.00454912,40000,-57721,0,70226.2,157.787
step02_gravity_refstate-mantle.xmf,1450,1.24488e-06,2.82388e-06,0,5.08922e-07,-1.27974e+09,-1.27953e+09,-1.27991e+09,68017.5,-0.0174352,0.0374209,-0,0.0412833,28098.6,-45607.4,0,53568.3,68017.5
step02_gravity_refstate-mantle.xmf,1451,4.84066e-07,3.02126e-06,0,3.4299e-07,-1.18987e+09,-1.18953e+09,-1.18994e+09,45840.6,-0.0104215,0.0460804,-0,0.0472441,27799.8,-42826.6,0,51058.3,45840.6
step02_gravity_refstate-mantle.xmf,1452,-2.19439e-07,3.14377e-06,0,7.56464e-09,-1.09851e+09,-1.09806e+09,-1.09848e+09,1011.01,-0.00360832,0.0548425,-0,0.054961,27786.5,-40000,0,48704.1,1011.01
step02_gravity_refstate-mantle.xmf,1453,2.2673e-06,2.43111e-06,0,4.67131e-07,-1.41091e+09,-1.41089e+09,-1.41122e+09,62432.1,-0.0229637,0.0243406,-0,0.0334634,30084.3,-49665,0,58066.2,62432.1
step02_gravity_refstate-mantle.xmf,1454,3.09157e-06,1.9699e-06,0,1.05517e-07,-1.58377e+09,-1.58392e+09,-1.58419e+09,14102.4,-0.0102039,0.00999304,-0,0.0142822,36695.6,-55009,0,66125.3,14102.4
step02_gravity_refstate-mantle.xmf,1455,9.30282e-07,2.85669e-06,0,4.34359e-07,-1.23621e+09,-1.23595e+09,-1.23633e+09,58052.1,-0.0133845,0.04029,-0,0.042455,28706.9,-44260.5,0,52754.9,58052.1
step02_gravity_refstate-mantle.xmf,1456,2.18423e-07,3.01245e-06,0,2.01619e-07,-1.14468e+09,-1.14431e+09,-1.14471e+09,26946.4,-0.00675981,0.0486441,-0,0.0491116,28688.2,-41428.8,0,50392.1,26946.4
step02_gravity_refstate-mantle.xmf,1457,1.85634e-06,2.54185e-06,0,4.91042e-07,-1.35084e+09,-1.35075e+09,-1.35109e+09,65627.7,-0.0195865,0.0290661,-0,0.0350496,29979.8,-47807,0,56429.6,65627.7
step02_gravity_refstate-mantle.xmf,1458,2.46213e-06,2.27938e-06,0,3.90602e-07,-1.43987e+09,-1.43989e+09,-1.44019e+09,52204,-0.0204667,0.0209617,-0,0.0292964,31753.3,-50560.3,0,59704.4,52204
step02_gravity_refstate-mantle.xmf,1459,1.37897e-06,2.67372e-06,0,4.66968e-07,-1.28612e+09,-1.28595e+09,-1.2863e+09,62410.2,-0.0157372,0.034553,-0,0.0379679,29751.5,-45804.8,0,54619,62410.2
step02_gravity_refstate-mantle.xmf,1460,2.6326e-06,2.15707e-06,0,3.03998e-07,-1.47003e+09,-1.47009e+09,-1.47038e+09,40629.3,-0.0173028,0.018011,-0,0.0249756,33440.6,-51492.8,0,61398.6,40629.3
step02_gravity_refstate-mantle.xmf,1461,2.77481e-06,2.06111e-06,0,2.15982e-07,-1.49885e+09,-1.49894e+09,-1.49922e+09,28866,-0.0135785,0.0155661,-0,0.0206562,35101.4,-52383.7,0,63056.8,28866
step02_gravity_refstate-mantle.xmf,1462,2.89512e-06,1.99343e-06,0,1.34485e-07,-1.52737e+09,-1.52749e+09,-1.52776e+09,17973.9,-0.00951226,0.0134458,-0,0.0164703,36709.3,-53265.6,0,64690,17973.9
step02_gravity_refstate-mantle.xmf,1463,3.01886e-06,1.94788e-06,0,6.17972e-08,-1.56124e+09,-1.56139e+09,-1.56165e+09,8259.19,-0.00521175,0.0112155,-0,0.0123673,38270.9,-54312.5,0,66441.8,8259.19
step02_gravity_refstate-mantle.xmf,1464,3.13543e-06,1.92849e-06,0,8.12954e-10,-1.59865e+09,-1.59882e+09,-1.59907e+09,108.651,6.21895e-20,0.00892018,0,0.00892018,40000,-55468.9,0,68387.1,108.651
step02_gravity_refstate-mantle.xmf,1465,6.40224e-07,2.86878e-06,0,3.22269e-07,-1.19104e+09,-1.19075e+09,-1.19113e+09,43071.3,-0.00954215,0.0430392,-0,0.0440843,29520.8,-42863.5,0,52045.7,43071.3
step02_gravity_refstate-mantle.xmf,1466,-4.3775e-09,2.97969e-06,0,3.71493e-08,-1.09847e+09,-1.09808e+09,-1.09847e+09,4965,-0.0038109,0.0513377,-0,0.0514789,29581.4,-40000,0,49750,4965
step02_gravity_refstate-mantle.xmf,1467,2.08936e-06,2.37631e-06,0,4.21129e-07,-1.37864e+09,-1.3786e+09,-1.37892e+09,56283.9,-0.0177951,0.0254335,-0,0.0310408,31672.9,-48666.7,0,58065.7,56283.9
step02_gravity_refstate-mantle.xmf,1468,9.89634e-07,2.74666e-06,0,3.85788e-07,-1.23151e+09,-1.23127e+09,-1.23164e+09,51560.6,-0.0116271,0.0385743,-0,0.0402885,30199.1,-44115.4,0,53461.7,51560.6
step02_gravity_refstate-mantle.xmf,1469,4.04184e-07,2.86165e-06,0,1.99677e-07,-1.14693e+09,-1.1466e+09,-1.14698e+09,26686.9,-0.00634147,0.0455308,-0,0.0459703,30489.2,-41499.2,0,51495.4,26686.9
step02_gravity_refstate-mantle.xmf,1470,1.66952e-06,2.49706e-06,0,4.22625e-07,-1.31731e+09,-1.3172e+09,-1.31753e+09,56483.8,-0.0148491,0.0301525,-0,0.0336106,31560.6,-46769.7,0,56422.3,56483.8
step02_gravity_refstate-mantle.xmf,1471,2.2935e-06,2.24206e-06,0,3.40707e-07,-1.40795e+09,-1.40796e+09,-1.40826e+09,45535.5,-0.0154033,0.0222833,-0,0.0270889,33341.5,-49573.2,0,59742.4,45535.5
step02_gravity_refstate-mantle.xmf,1472,2.46028e-06,2.13925e-06,0,2.53401e-07,-1.43559e+09,-1.43564e+09,-1.43592e+09,33867,-0.012355,0.0197071,-0,0.0232598,34990.9,-50428,0,61378.7,33867
step02_gravity_refstate-mantle.xmf,1473,2.60536e-06,2.05785e-06,0,1.63475e-07,-1.46261e+09,-1.46268e+09,-1.46295e+09,21848.4,-0.00870525,0.0175107,-0,0.0195552,36657.4,-51263.1,0,63021.2,21848.4
step02_gravity_refstate-mantle.xmf,1474,2.75151e-06,1.99614e-06,0,7.63397e-08,-1.49333e+09,-1.49343e+09,-1.4937e+09,10202.8,-0.0046015,0.0153512,-0,0.0160261,38325.2,-52213.1,0,64769,10202.8
step02_gravity_refstate-mantle.xmf,1475,2.89056e-06,1.95831e-06,0,8.03672e-10,-1.52647e+09,-1.5266e+09,-1.52686e+09,107.411,5.29667e-20,0.0132558,0,0.0132558,40000,-53237.6,0,66590.1,107.411
step02_gravity_refstate-mantle.xmf,1476,1.26046e-06,2.6106e-06,0,3.84697e-07,-1.25984e+09,-1.25966e+09,-1.26001e+09,51414.8,-0.0119776,0.0348648,-0,0.0368649,31383.9,-44992.1,0,54856.6,51414.8
step02_gravity_refstate-mantle.xmf,1477,8.17519e-07,2.7287e-06,0,3.00722e-07,-1.19873e+09,-1.19848e+09,-1.19884e+09,40191.4,-0.00876366,0.0400913,-0,0.0410379,31229.3,-43101.9,0,53226.3,40191.4
step02_gravity_refstate-mantle.xmf,1478,1.82956e-07,2.83506e-06,0,5.16049e-08,-1.09845e+09,-1.09809e+09,-1.09847e+09,6897,-0.00364517,0.0484558,-0,0.0485927,31466.4,-40000,0,50893.4,6897
step02_gravity_refstate-mantle.xmf,1479,1.91055e-06,2.35059e-06,0,3.53305e-07,-1.34631e+09,-1.34625e+09,-1.34657e+09,47219.2,-0.0132062,0.0267265,-0,0.0298112,33238.2,-47666.9,0,58111.2,47219.2
step02_gravity_refstate-mantle.xmf,1480,5.85444e-07,2.72442e-06,0,1.86178e-07,-1.15213e+09,-1.15185e+09,-1.15221e+09,24882.7,-0.0056269,0.0426663,-0,0.0430357,32456.1,-41660.8,0,52811.2,24882.7
step02_gravity_refstate-mantle.xmf,1481,1.52669e-06,2.46162e-06,0,3.3922e-07,-1.28898e+09,-1.28885e+09,-1.28918e+09,45336.8,-0.0108756,0.0310264,-0,0.0328773,33194,-45893.5,0,56639.7,45336.8
step02_gravity_refstate-mantle.xmf,1482,2.10062e-06,2.23861e-06,0,2.75954e-07,-1.37269e+09,-1.37267e+09,-1.37297e+09,36881.3,-0.0109033,0.0240217,-0,0.0263804,34852.1,-48482.5,0,59709.5,36881.3
step02_gravity_refstate-mantle.xmf,1483,2.24838e-06,2.15582e-06,0,1.85252e-07,-1.39565e+09,-1.39566e+09,-1.39595e+09,24758.9,-0.00778916,0.0218977,-0,0.0232418,36543.8,-49192.7,0,61281.1,24758.9
step02_gravity_refstate-mantle.xmf,1484,2.41619e-06,2.08179e-06,0,9.00448e-08,-1.42485e+09,-1.4249e+09,-1.42517e+09,12034.5,-0.00416669,0.0196735,-0,0.0201099,38274,-50095.6,0,63043.4,12034.5
step02_gravity_refstate-mantle.xmf,1485,2.56995e-06,2.03188e-06,0,1.00511e-09,-1.45479e+09,-1.45486e+09,-1.45513e+09,134.333,4.63302e-20,0.0176756,0,0.0176756,40000,-51021.4,0,64831.9,134.333
step02_gravity_refstate-mantle.xmf,1486,1.07104e-06,2.57527e-06,0,2.68455e-07,-1.21947e+09,-1.21927e+09,-1.21961e+09,35879.1,-0.00775152,0.0363284,-0,0.0371461,33347.7,-43743.7,0,55005.3,35879.1
step02_gravity_refstate-mantle.xmf,1487,3.36859e-07,2.71349e-06,0,5.26189e-08,-1.09842e+09,-1.0981e+09,-1.09847e+09,7032.52,-0.00313284,0.0461838,-0,0.04629,33445.9,-40000,0,52140.4,7032.52
step02_gravity_refstate-mantle.xmf,1488,1.76747e-06,2.34654e-06,0,2.89266e-07,-1.32036e+09,-1.32029e+09,-1.3206e+09,38660.5,-0.00990629,0.0278957,-0,0.0296025,34506.7,-46864.4,0,58197.8,38660.5
step02_gravity_refstate-mantle.xmf,1489,7.19978e-07,2.61305e-06,0,1.47418e-07,-1.15534e+09,-1.15509e+09,-1.15544e+09,19702.4,-0.00441849,0.0406107,-0,0.0408504,34493.3,-41760.5,0,54163.9,19702.4
step02_gravity_refstate-mantle.xmf,1490,1.4636e-06,2.4191e-06,0,2.46557e-07,-1.27153e+09,-1.2714e+09,-1.27172e+09,32952.3,-0.00757521,0.0312571,-0,0.032162,34968.9,-45353.9,0,57269.5,32952.3
step02_gravity_refstate-mantle.xmf,1491,1.80779e-06,2.28859e-06,0,1.98263e-07,-1.32232e+09,-1.32225e+09,-1.32256e+09,26497.8,-0.00678833,0.0270122,-0,0.0278521,36280.2,-46924.9,0,59314.4,26497.8
step02_gravity_refstate-mantle.xmf,1492,2.01673e-06,2.19663e-06,0,9.71615e-08,-1.3539e+09,-1.35387e+09,-1.35417e+09,12985.6,-0.00362013,0.0243756,-0,0.0246429,38206.3,-47901.5,0,61272.1,12985.6
step02_gravity_refstate-mantle.xmf,1493,2.19107e-06,2.13696e-06,0,1.42577e-09,-1.38341e+09,-1.38342e+09,-1.38371e+09,190.555,3.69486e-20,0.0222743,0,0.0222743,40000,-48814.3,0,63109.7,190.555
step02_gravity_refstate-mantle.xmf,1494,4.53799e-07,2.62003e-06,0,4.2869e-08,-1.0984e+09,-1.09812e+09,-1.09847e+09,5729.45,-0.002313,0.0445214,-0,0.0445815,35524.6,-40000,0,53497.6,5729.45
step02_gravity_refstate-mantle.xmf,1495,1.09533e-06,2.4952e-06,0,1.69483e-07,-1.20974e+09,-1.20955e+09,-1.20988e+09,22651.4,-0.00487042,0.0355795,-0,0.0359113,35708.6,-43443,0,56235.2,22651.4
step02_gravity_refstate-mantle.xmf,1496,7.93087e-07,2.53997e-06,0,9.29542e-08,-1.15426e+09,-1.15403e+09,-1.15437e+09,12423.3,-0.00277448,0.0394782,-0,0.0395755,36630,-41727.6,0,55524.3,12423.3
step02_gravity_refstate-mantle.xmf,1497,1.41524e-06,2.38975e-06,0,1.63496e-07,-1.25808e+09,-1.25795e+09,-1.25827e+09,21851.3,-0.00490087,0.0315584,-0,0.0319367,36584.3,-44938.3,0,57947.1,21851.3
step02_gravity_refstate-mantle.xmf,1498,1.5795e-06,2.3243e-06,0,9.22275e-08,-1.28165e+09,-1.28155e+09,-1.28186e+09,12326.2,-0.00290545,0.0294313,-0,0.0295744,38167.5,-45667.2,0,59516.8,12326.2
step02_gravity_refstate-mantle.xmf,1499,1.774e-06,2.25907e-06,0,1.93412e-09,-1.31215e+09,-1.31209e+09,-1.31239e+09,258.496,2.49471e-20,0.027117,0,0.027117,40000,-46610.6,0,61421.1,258.496
step02_gravity_refstate-mantle.xmf,1500,5.27664e-07,2.56045e-06,0,2.37124e-08,-1.09839e+09,-1.09812e+09,-1.09846e+09,3169.16,-0.00124174,0.0434865,-0,0.0435042,37707.6,-40000,0,54971.4,3169.16
step02_gravity_refstate-mantle.xmf,1501,1.13511e-06,2.43777e-06,0,8.0823e-08,-1.20842e+09,-1.20825e+09,-1.20858e+09,10802,-0.00232647,0.034873,-0,0.0349506,37965.5,-43402.6,0,57664.2,10802
step02_gravity_refstate-mantle.xmf,1502,8.05768e-07,2.51048e-06,0,4.22564e-08,-1.14983e+09,-1.1496e+09,-1.14994e+09,5647.57,-0.00131221,0.0392752,-0,0.0392971,38383.9,-41590.6,0,56596,5647.57
step02_gravity_refstate-mantle.xmf,1503,5.4326e-07,2.54461e-06,0,-4.39553e-09,-1.09839e+09,-1.09812e+09,-1.09846e+09,-587.462,1.14154e-19,0.0431255,0,0.0431255,40000,-40000,0,56568.5,587.462
step02_gravity_refstate-mantle.xmf,1504,1.34319e-06,2.3806e-06,0,2.84302e-09,-1.2409e+09,-1.24076e+09,-1.24108e+09,379.969,1.31268e-20,0.0322292,0,0.0322292,40000,-44407.1,0,59766.1,379.969
step02_gravity_refstate-mantle.xmf,1505,9.23633e-07,2.48238e-06,0,-2.99194e-09,-1.16965e+09,-1.16944e+09,-1.16977e+09,-399.873,2.10769e-19,0.0375871,0,0.0375871,40000,-42203.5,0,58147.6,399.873
step02_gravity_refstate-intrusion.xmf,0,-9.14177e-06,3.40722e-05,0,3.06108e-05,-1.32473e+09,-1.32061e+09,-1.32386e+09,2.91905e+06,0.033447,0.368964,0,0.370477,-2000,-46998.5,-0,47041,2.91905e+06
step02_gravity_refstate-intrusion.xmf,1,-8.70173e-06,3.08622e-05,0,3.35892e-05,-1.30865e+09,-1.30488e+09,-1.30782e+09,3.20306e+06,0.0299119,0.385198,0,0.386358,-2000,-46498.1,-0,46541.1,3.20306e+06
step02_gravity_refstate-intrusion.xmf,2,-7.84045e-06,2.75278e-05,0,3.60566e-05,-1.29252e+09,-1.28915e+09,-1.29178e+09,3.43836e+06,0.0256913,0.399796,0,0.400621,-2000,-45998.2,-0,46041.6,3.43836e+06
step02_gravity_refstate-intrusion.xmf,3,-9.78917e-06,3.68456e-05,0,2.64711e-05,-1.34085e+09,-1.33641e+09,-1.33992e+09,2.52429e+06,0.0357106,0.351231,0,0.353042,-2000,-47498.2,-0,47540.3,2.52429e+06
step02_gravity_refstate-intrusion.xmf,4,-6.65836e-06,2.41381e-05,0,3.79512e-05,-1.27637e+09,-1.27343e+09,-1.27574e+09,3.61902e+06,0.0210775,0.412684,0,0.413222,-2000,-45498.8,-0,45542.7,3.61902e+06
step02_gravity_refstate-intrusion.xmf,5,-5.30304e-06,2.06346e-05,0,3.94243e-05,-1.26021e+09,-1.25774e+09,-1.2597e+09,3.75951e+06,0.0162156,0.423824,0,0.424135,-2000,-44999.8,-0,45044.2,3.75951e+06
step02_gravity_refstate-intrusion.xmf,6,3.45591e-06,2.42468e-06,0,3.98045e-05,-1.17903e+09,-1.17913e+09,-1.17936e+09,3.79576e+06,-0.0111575,0.452731,-0,0.452869,-2000,-42501.2,-0,42548.2,3.79576e+06
step02_gravity_refstate-intrusion.xmf,7,5.38787e-06,-1.24639e-06,0,3.83134e-05,-1.16278e+09,-1.16341e+09,-1.16329e+09,3.65357e+06,-0.017508,0.453054,-0,0.453392,-2000,-42001.8,-0,42049.4,3.65357e+06
step02_gravity_refstate-intrusion.xmf,8,-3.82002e-06,1.70004e-05,0,4.0491e-05,-1.24402e+09,-1.24203e+09,-1.24365e+09,3.86123e+06,0.0111596,0.433207,0,0.433351,-2000,-44500.2,-0,44545.1,3.86123e+06
step02_gravity_refstate-intrusion.xmf,9,1.54133e-06,6.11581e-06,0,4.07124e-05,-1.19526e+09,-1.19483e+09,-1.19541e+09,3.88234e+06,-0.00518728,0.450581,-0,0.45061,-2000,-43000.2,-0,43046.7,3.88234e+06
step02_gravity_refstate-intrusion.xmf,10,-2.0974e-06,1.34496e-05,0,4.09808e-05,-1.22777e+09,-1.22628e+09,-1.22757e+09,3.90793e+06,0.00592163,0.440809,0,0.440849,-2000,-44000,-0,44045.4,3.90793e+06
step02_gravity_refstate-intrusion.xmf,11,-2.98374e-07,9.83319e-06,0,4.10752e-05,-1.2115e+09,-1.21054e+09,-1.21148e+09,3.91693e+06,0.000485741,0.446606,0,0.446606,-2000,-43499.8,-0,43545.8,3.91693e+06
step02_gravity_refstate-intrusion.xmf,12,7.2137e-06,-4.88694e-06,0,3.61767e-05,-1.14652e+09,-1.14767e+09,-1.14721e+09,3.44981e+06,-0.0243267,0.451541,-0,0.452196,-2000,-41501.9,-0,41550,3.44981e+06
step02_gravity_refstate-intrusion.xmf,13,-1.42526e-05,4.44868e-05,0,2.07868e-05,-1.35734e+09,-1.35174e+09,-1.35598e+09,1.98223e+06,0.0350069,0.332307,0,0.334146,-2000,-48000,-0,48041.6,1.98223e+06
step02_gravity_refstate-intrusion.xmf,14,9.33207e-06,-8.72376e-06,0,3.28706e-05,-1.13022e+09,-1.13194e+09,-1.13111e+09,3.13455e+06,-0.0317006,0.448186,-0,0.449306,-2000,-41001.5,-0,41050.3,3.13455e+06
step02_gravity_refstate-intrusion.xmf,15,1.15283e-05,-1.262e-05,0,2.81814e-05,-1.11393e+09,-1.11623e+09,-1.11503e+09,2.68738e+06,-0.039678,0.443003,-0,0.444776,-2000,-40501.8,-0,40551.1,2.68738e+06
step02_gravity_refstate-intrusion.xmf,16,1.68222e-05,-1.95438e-05,0,2.08007e-05,-1.09727e+09,-1.10074e+09,-1.09888e+09,1.98356e+06,-0.0479765,0.436092,-0,0.438723,-2000,-40000,-0,40050,1.98356e+06
step02_gravity_refstate-intrusion.xmf,17,-1.64377e-05,5.62617e-05,0,1.85832e-05,-1.357e+09,-1.35007e+09,-1.35543e+09,1.77209e+06,0.0272921,0.347913,0,0.348982,-1499.28,-48000,-0,48023.4,1.77209e+06
step02_gravity_refstate-intrusion.xmf,18,-1.79776e-05,6.19528e-05,0,1.25883e-05,-1.35691e+09,-1.34929e+09,-1.3552e+09,1.20042e+06,0.0186835,0.360183,0,0.360668,-999.317,-48000,-0,48010.4,1.20042e+06
step02_gravity_refstate-intrusion.xmf,19,-1.88278e-05,6.49526e-05,0,6.34653e-06,-1.35687e+09,-1.34888e+09,-1.35508e+09,605205,0.0094833,0.367695,0,0.367817,-499.831,-48000,-0,48002.6,605205
step02_gravity_refstate-intrusion.xmf,20,-1.91336e-05,6.59262e-05,0,-1.4535e-07,-1.35686e+09,-1.34875e+09,-1.35504e+09,-13860.6,2.88611e-06,0.37022,0,0.37022,2.07592e-10,-48000,0,48000,13860.6
step02_gravity_refstate-intrusion.xmf,21,-1.88489e-05,6.501e-05,0,-6.53699e-06,-1.35687e+09,-1.34887e+09,-1.35507e+09,-623368,-0.00948826,0.367695,-0,0.367817,499.831,-48000,0,48002.6,623368
step02_gravity_refstate-intrusion.xmf,22,-1.80231e-05,6.20992e-05,0,-1.30066e-05,-1.35691e+09,-1.34927e+09,-1.35519e+09,-1.24031e+06,-0.0186783,0.360183,-0,0.360667,999.317,-48000,0,48010.4,1.24031e+06
step02_gravity_refstate-intrusion.xmf,23,-1.65556e-05,5.71678e-05,0,-1.96392e-05,-1.35697e+09,-1.34994e+09,-1.35539e+09,-1.8728e+06,-0.0272906,0.34792,-0,0.348989,1499.28,-48000,0,48023.4,1.8728e+06
step02_gravity_refstate-intrusion.xmf,24,-1.06367e-05,3.85119e-05,0,-2.18144e-05,-1.35713e+09,-1.35244e+09,-1.35612e+09,-2.08022e+06,-0.0350119,0.332314,-0,0.334154,2000,-48000,0,48041.6,2.08022e+06
step02_gravity_refstate-intrusion.xmf,25,-9.83932e-06,3.6912e-05,0,-2.68063e-05,-1.34086e+09,-1.3364e+09,-1.33992e+09,-2.55625e+06,-0.0357079,0.35123,-0,0.353041,2000,-47498.2,0,47540.3,2.55625e+06
step02_gravity_refstate-intrusion.xmf,26,-9.34247e-06,3.40173e-05,0,-3.05799e-05,-1.32477e+09,-1.32063e+09,-1.32387e+09,-2.9161e+06,-0.0334494,0.368964,-0,0.370477,2000,-46998.5,0,47041,2.9161e+06
step02_gravity_refstate-intrusion.xmf,27,-8.71802e-06,3.08576e-05,0,-3.36049e-05,-1.30865e+09,-1.30488e+09,-1.30782e+09,-3.20457e+06,-0.0299142,0.385198,-0,0.386358,2000,-46498.1,0,46541.1,3.20457e+06
step02_gravity_refstate-intrusion.xmf,28,-7.83202e-06,2.75255e-05,0,-3.60561e-05,-1.29252e+09,-1.28915e+09,-1.29178e+09,-3.43831e+06,-0.0256915,0.399797,-0,0.400621,2000,-45998.2,0,46041.6,3.43831e+06
step02_gravity_refstate-intrusion.xmf,29,-6.69633e-06,2.40836e-05,0,-3.80007e-05,-1.27638e+09,-1.27345e+09,-1.27574e+09,-3.62374e+06,-0.0210763,0.412684,-0,0.413221,2000,-45498.8,0,45542.7,3.62374e+06
step02_gravity_refstate-intrusion.xmf,30,-5.34856e-06,2.057e-05,0,-3.94713e-05,-1.26022e+09,-1.25775e+09,-1.25971e+09,-3.76399e+06,-0.0162136,0.423824,-0,0.424134,2000,-44999.8,0,45044.2,3.76399e+06
step02_gravity_refstate-intrusion.xmf,31,-3.82126e-06,1.70055e-05,0,-4.04823e-05,-1.24402e+09,-1.24203e+09,-1.24365e+09,-3.86039e+06,-0.0111585,0.433207,-0,0.433351,2000,-44500.2,0,44545.1,3.86039e+06
step02_gravity_refstate-intrusion.xmf,32,-2.15207e-06,1.34044e-05,0,-4.10418e-05,-1.22778e+09,-1.22629e+09,-1.22757e+09,-3.91375e+06,-0.00592065,0.440809,-0,0.440849,2000,-44000,0,44045.4,3.91375e+06
step02_gravity_refstate-intrusion.xmf,33,-3.81753e-07,9.77873e-06,0,-4.1144e-05,-1.21152e+09,-1.21055e+09,-1.21148e+09,-3.9235e+06,-0.000484871,0.446605,-0,0.446605,2000,-43499.8,0,43545.8,3.9235e+06
step02_gravity_refstate-intrusion.xmf,34,5.27835e-06,-1.21589e-06,0,-3.84031e-05,-1.16279e+09,-1.16341e+09,-1.16329e+09,-3.66212e+06,0.0175064,0.453055,0,0.453393,2000,-42001.8,0,42049.4,3.66212e+06
step02_gravity_refstate-intrusion.xmf,35,3.51427e-06,2.48691e-06,0,-3.98637e-05,-1.17901e+09,-1.17911e+09,-1.17935e+09,-3.8014e+06,0.0111551,0.452731,0,0.452868,2000,-42501.2,0,42548.2,3.8014e+06
step02_gravity_refstate-intrusion.xmf,36,1.61518e-06,6.13407e-06,0,-4.07573e-05,-1.19525e+09,-1.19482e+09,-1.1954e+09,-3.88662e+06,0.005186,0.45058,0,0.45061,2000,-43000.2,0,43046.7,3.88662e+06
step02_gravity_refstate-intrusion.xmf,37,7.23295e-06,-4.88449e-06,0,-3.61622e-05,-1.14652e+09,-1.14767e+09,-1.14721e+09,-3.44842e+06,0.0243264,0.451543,0,0.452197,2000,-41501.9,0,41550,3.44842e+06
step02_gravity_refstate-intrusion.xmf,38,1.13838e-05,-1.21712e-05,0,-2.83035e-05,-1.11392e+09,-1.11617e+09,-1.11501e+09,-2.69902e+06,0.039678,0.443006,0,0.444779,2000,-40501.8,0,40551.1,2.69902e+06
step02_gravity_refstate-intrusion.xmf,39,9.51168e-06,-8.53689e-06,0,-3.30808e-05,-1.13018e+09,-1.1319e+09,-1.13109e+09,-3.15458e+06,0.0317005,0.448185,0,0.449305,2000,-41001.5,0,41050.3,3.15458e+06
step02_gravity_refstate-intrusion.xmf,40,1.4607e-05,-1.5392e-05,0,-2.17587e-05,-1.09737e+09,-1.10023e+09,-1.09876e+09,-2.07491e+06,0.0479805,0.436091,0,0.438722,2000,-40000,0,40050,2.07491e+06
step02_gravity_refstate-intrusion.xmf,41,2.19987e-05,-2.94667e-05,0,1.68566e-05,-1.09705e+09,-1.10196e+09,-1.09915e+09,1.60744e+06,-0.0382599,0.461442,-0,0.463025,-1499.28,-40000,-0,40028.1,1.60744e+06
step02_gravity_refstate-intrusion.xmf,42,2.51071e-05,-3.44206e-05,0,1.12821e-05,-1.09686e+09,-1.10253e+09,-1.09925e+09,1.07586e+06,-0.0264785,0.480217,-0,0.480947,-999.317,-40000,-0,40012.5,1.07586e+06
step02_gravity_refstate-intrusion.xmf,43,2.67884e-05,-3.70351e-05,0,5.64314e-06,-1.09675e+09,-1.10284e+09,-1.0993e+09,538130,-0.0135192,0.491552,-0,0.491738,-499.831,-40000,-0,40003.1,538130
step02_gravity_refstate-intrusion.xmf,44,2.73331e-05,-3.7865e-05,0,-5.20582e-09,-1.09671e+09,-1.10293e+09,-1.09932e+09,-496.427,-1.27277e-06,0.495345,-0,0.495345,-2.07592e-10,-40000,-0,40000,496.427
step02_gravity_refstate-intrusion.xmf,45,2.68147e-05,-3.70429e-05,0,-5.65785e-06,-1.09675e+09,-1.10284e+09,-1.0993e+09,-539533,0.0135173,0.491554,0,0.49174,499.831,-40000,0,40003.1,539533
step02_gravity_refstate-intrusion.xmf,46,2.51629e-05,-3.45025e-05,0,-1.13421e-05,-1.09685e+09,-1.10254e+09,-1.09925e+09,-1.08158e+06,0.0264767,0.480219,0,0.480949,999.317,-40000,0,40012.5,1.08158e+06
step02_gravity_refstate-intrusion.xmf,47,2.19457e-05,-2.97481e-05,0,-1.73499e-05,-1.09707e+09,-1.102e+09,-1.09916e+09,-1.65448e+06,0.0382565,0.461444,0,0.463027,1499.28,-40000,0,40028.1,1.65448e+06
step02_gravity_refstate-intrusion.xmf,48,-1.30358e-05,3.94911e-05,0,2.30468e-05,-1.31946e+09,-1.31445e+09,-1.31821e+09,2.19774e+06,0.0278616,0.399507,0,0.400478,-1594,-46826.7,-0,46853.9,2.19774e+06
step02_gravity_refstate-intrusion.xmf,49,-1.37663e-05,4.26867e-05,0,2.13424e-05,-1.33304e+09,-1.32765e+09,-1.33172e+09,2.03521e+06,0.0307132,0.379354,0,0.380595,-1650.88,-47248.4,-0,47277.2,2.03521e+06
step02_gravity_refstate-intrusion.xmf,50,-1.16183e-05,3.46433e-05,0,2.53689e-05,-1.30302e+09,-1.2986e+09,-1.30191e+09,2.41918e+06,0.024221,0.419402,0,0.420101,-1575.24,-46317,-0,46343.8,2.41918e+06
step02_gravity_refstate-intrusion.xmf,51,-1.77843e-05,5.08185e-05,0,1.538e-05,-1.33409e+09,-1.32755e+09,-1.33239e+09,1.46664e+06,0.0240466,0.395095,0,0.395827,-1222.44,-47276.3,-0,47292.1,1.46664e+06
step02_gravity_refstate-intrusion.xmf,52,-1.59556e-05,4.37513e-05,0,1.5982e-05,-1.3149e+09,-1.3092e+09,-1.31337e+09,1.52405e+06,0.0204296,0.425972,0,0.426462,-1136.35,-46679.6,-0,46693.4,1.52405e+06
step02_gravity_refstate-intrusion.xmf,53,-9.81119e-06,2.97707e-05,0,2.77523e-05,-1.28602e+09,-1.28225e+09,-1.28509e+09,2.64646e+06,0.0202667,0.435862,0,0.436333,-1582.63,-45792.1,-0,45819.4,2.64646e+06
step02_gravity_refstate-intrusion.xmf,54,-1.57173e-05,4.83404e-05,0,1.94266e-05,-1.34558e+09,-1.33947e+09,-1.34408e+09,1.85252e+06,0.0311991,0.362302,0,0.363643,-1636.94,-47636.7,-0,47664.8,1.85252e+06
step02_gravity_refstate-intrusion.xmf,55,-7.69736e-06,2.50226e-05,0,2.97179e-05,-1.26839e+09,-1.26527e+09,-1.26766e+09,2.8339e+06,0.0159136,0.449794,0,0.450076,-1596.46,-45249,-0,45277.2,2.8339e+06
step02_gravity_refstate-intrusion.xmf,56,-5.55189e-06,2.03266e-05,0,3.11805e-05,-1.25105e+09,-1.24858e+09,-1.25052e+09,2.97337e+06,0.0114,0.461065,0,0.461206,-1607.61,-44715.2,-0,44744,2.97337e+06
step02_gravity_refstate-intrusion.xmf,57,3.03292e-06,3.80242e-06,0,3.08136e-05,-1.18895e+09,-1.18888e+09,-1.18924e+09,2.93839e+06,-0.00632312,0.486511,-0,0.486552,-1575.69,-42808.2,-0,42837.2,2.93839e+06
step02_gravity_refstate-intrusion.xmf,58,5.61113e-06,-8.07227e-07,0,2.99711e-05,-1.17205e+09,-1.17266e+09,-1.17258e+09,2.85805e+06,-0.0117581,0.486473,-0,0.486615,-1587.81,-42290.1,-0,42319.9,2.85805e+06
step02_gravity_refstate-intrusion.xmf,59,8.34351e-06,-5.64329e-06,0,2.83821e-05,-1.15504e+09,-1.15637e+09,-1.15583e+09,2.70652e+06,-0.017662,0.484314,-0,0.484636,-1595.55,-41769,-0,41799.5,2.70652e+06
step02_gravity_refstate-intrusion.xmf,60,-1.3413e-05,3.65625e-05,0,1.81404e-05,-1.29639e+09,-1.29163e+09,-1.29511e+09,1.72987e+06,0.0173578,0.448749,0,0.449084,-1138.49,-46107.3,-0,46121.4,1.72987e+06
step02_gravity_refstate-intrusion.xmf,61,-1.82897e-05,5.5871e-05,0,1.54677e-05,-1.34706e+09,-1.33999e+09,-1.34532e+09,1.475e+06,0.024426,0.372981,0,0.37378,-1242.16,-47683.5,-0,47699.7,1.475e+06
step02_gravity_refstate-intrusion.xmf,62,-3.63279e-06,1.62375e-05,0,3.15412e-05,-1.23552e+09,-1.23363e+09,-1.23517e+09,3.00777e+06,0.00710505,0.470988,0,0.471042,-1590.8,-44237.3,-0,44265.9,3.00777e+06
step02_gravity_refstate-intrusion.xmf,63,9.07111e-07,7.62926e-06,0,3.30518e-05,-1.20292e+09,-1.20228e+09,-1.203e+09,3.15182e+06,-0.00220387,0.478134,-0,0.47814,-1655.33,-43236.4,-0,43268,3.15182e+06
step02_gravity_refstate-intrusion.xmf,64,-1.17732e-06,1.16811e-05,0,2.98581e-05,-1.21735e+09,-1.21612e+09,-1.21723e+09,2.84727e+06,0.00194284,0.484886,0,0.48489,-1503.61,-43679.4,-0,43705.2,2.84727e+06
step02_gravity_refstate-intrusion.xmf,65,1.11312e-05,-1.03406e-05,0,2.59766e-05,-1.13897e+09,-1.14102e+09,-1.14003e+09,2.47713e+06,-0.0236234,0.48047,-0,0.48105,-1594.69,-41277.5,-0,41308.3,2.47713e+06
step02_gravity_refstate-intrusion.xmf,66,-1.8994e-05,5.10236e-05,0,9.55649e-06,-1.32417e+09,-1.31749e+09,-1.32236e+09,911307,0.0144663,0.424095,0,0.424341,-737.088,-46964.6,-0,46970.4,911307
step02_gravity_refstate-intrusion.xmf,67,-1.64736e-05,4.31552e-05,0,1.08322e-05,-1.30549e+09,-1.29981e+09,-1.30392e+09,1.03296e+06,0.012889,0.450794,0,0.450978,-748.171,-46385.6,-0,46391.7,1.03296e+06
step02_gravity_refstate-intrusion.xmf,68,-1.0599e-05,3.0057e-05,0,2.05238e-05,-1.27755e+09,-1.27367e+09,-1.27654e+09,1.95715e+06,0.0141712,0.466463,0,0.466678,-1174.52,-45527,-0,45542.1,1.95715e+06
step02_gravity_refstate-intrusion.xmf,69,-1.99208e-05,5.83776e-05,0,9.41774e-06,-1.34261e+09,-1.33515e+09,-1.34071e+09,898076,0.01528,0.392374,0,0.392672,-751.346,-47542.9,-0,47548.8,898076
step02_gravity_refstate-intrusion.xmf,70,-7.88436e-06,2.4578e-05,0,2.20616e-05,-1.2598e+09,-1.25671e+09,-1.25905e+09,2.10379e+06,0.010731,0.480294,0,0.480414,-1195.02,-44982,-0,44997.9,2.10379e+06
step02_gravity_refstate-intrusion.xmf,71,-5.26284e-06,1.93476e-05,0,2.31559e-05,-1.24274e+09,-1.24039e+09,-1.24223e+09,2.20815e+06,0.00720142,0.490973,0,0.491026,-1209.49,-44457.9,-0,44474.4,2.20815e+06
step02_gravity_refstate-intrusion.xmf,72,1.53332e-05,-1.70645e-05,0,2.16188e-05,-1.12211e+09,-1.12519e+09,-1.12357e+09,2.06157e+06,-0.0294916,0.476916,-0,0.477827,-1538.78,-40764.5,-0,40793.5,2.06157e+06
step02_gravity_refstate-intrusion.xmf,73,1.75245e-05,-2.1129e-05,0,2.02633e-05,-1.10904e+09,-1.11272e+09,-1.11071e+09,1.93231e+06,-0.0364413,0.46384,-0,0.46527,-1636.36,-40363.9,-0,40397.1,1.93231e+06
step02_gravity_refstate-intrusion.xmf,74,1.52046e-06,6.79328e-06,0,2.3771e-05,-1.20087e+09,-1.20037e+09,-1.20102e+09,2.2668e+06,-0.00223958,0.506929,-0,0.506934,-1223.93,-43174.6,-0,43191.9,2.2668e+06
step02_gravity_refstate-intrusion.xmf,75,4.77348e-06,1.1986e-06,0,2.18244e-05,-1.18283e+09,-1.18317e+09,-1.18329e+09,2.08118e+06,-0.00638657,0.512588,-0,0.512628,-1160.41,-42622.7,-0,42638.5,2.08118e+06
step02_gravity_refstate-intrusion.xmf,76,8.27449e-06,-4.82392e-06,0,2.11539e-05,-1.16409e+09,-1.16534e+09,-1.16488e+09,2.01724e+06,-0.011374,0.510121,-0,0.510248,-1189.27,-42049.6,-0,42066.4,2.01724e+06
step02_gravity_refstate-intrusion.xmf,77,1.18081e-05,-1.08026e-05,0,1.97135e-05,-1.14679e+09,-1.14895e+09,-1.14792e+09,1.87988e+06,-0.0163642,0.505442,-0,0.505707,-1201.95,-41521.5,-0,41538.9,1.87988e+06
step02_gravity_refstate-intrusion.xmf,78,-1.34056e-05,3.52925e-05,0,1.24769e-05,-1.28649e+09,-1.28185e+09,-1.28522e+09,1.18979e+06,0.0107494,0.473223,0,0.473345,-763.504,-45799.4,-0,45805.7,1.18979e+06
step02_gravity_refstate-intrusion.xmf,79,-2.99905e-06,1.50433e-05,0,2.37196e-05,-1.22821e+09,-1.22649e+09,-1.22793e+09,2.2619e+06,0.00406007,0.498078,0,0.498094,-1218.81,-44012.4,-0,44029.3,2.2619e+06
step02_gravity_refstate-intrusion.xmf,80,1.46276e-05,-1.54914e-05,0,1.86374e-05,-1.13336e+09,-1.13623e+09,-1.13475e+09,1.77727e+06,-0.0208971,0.498444,-0,0.498881,-1235.76,-41111.5,-0,41130.1,1.77727e+06
step02_gravity_refstate-intrusion.xmf,81,-2.06601e-05,5.64879e-05,0,3.21485e-06,-1.33212e+09,-1.32477e+09,-1.33015e+09,306568,0.00521565,0.417566,0,0.417599,-254.165,-47212,-0,47212.7,306568
step02_gravity_refstate-intrusion.xmf,82,-1.89279e-05,4.88759e-05,0,3.56077e-06,-1.31436e+09,-1.30789e+09,-1.31255e+09,339555,0.00496722,0.446406,0,0.446434,-263.24,-46657.9,-0,46658.7,339555
step02_gravity_refstate-intrusion.xmf,83,-1.5997e-05,4.09278e-05,0,4.29564e-06,-1.29564e+09,-1.29021e+09,-1.29411e+09,409633,0.00455541,0.471891,0,0.471913,-284.812,-46079.5,-0,46080.4,409633
step02_gravity_refstate-intrusion.xmf,84,-1.02957e-05,2.86731e-05,0,1.36238e-05,-1.26803e+09,-1.26432e+09,-1.26705e+09,1.29917e+06,0.00832382,0.491137,0,0.491207,-771.019,-45232,-0,45238.6,1.29917e+06
step02_gravity_refstate-intrusion.xmf,85,-2.04176e-05,6.184e-05,0,3.31006e-06,-1.34612e+09,-1.33827e+09,-1.34417e+09,315647,0.00513587,0.391528,0,0.391562,-251.964,-47654.8,-0,47655.5,315647
step02_gravity_refstate-intrusion.xmf,86,-7.16287e-06,2.27573e-05,0,1.44363e-05,-1.25008e+09,-1.24723e+09,-1.2494e+09,1.37665e+06,0.00587508,0.504897,0,0.504931,-781.354,-44681.9,-0,44688.8,1.37665e+06
step02_gravity_refstate-intrusion.xmf,87,-4.06421e-06,1.6965e-05,0,1.53224e-05,-1.23261e+09,-1.2306e+09,-1.23222e+09,1.46114e+06,0.0034327,0.514611,0,0.514622,-805.659,-44146.6,-0,44153.9,1.46114e+06
step02_gravity_refstate-intrusion.xmf,88,-6.45069e-07,1.07925e-05,0,1.75589e-05,-1.21369e+09,-1.2126e+09,-1.21363e+09,1.67442e+06,0.000583108,0.518438,0,0.518438,-913.907,-43567.4,-0,43576.9,1.67442e+06
step02_gravity_refstate-intrusion.xmf,89,2.0816e-05,-2.61597e-05,0,1.54206e-05,-1.10956e+09,-1.11404e+09,-1.11154e+09,1.47051e+06,-0.0285214,0.483426,-0,0.484267,-1238.14,-40386.8,-0,40405.7,1.47051e+06
step02_gravity_refstate-intrusion.xmf,90,3.32834e-06,3.89561e-06,0,1.52907e-05,-1.19276e+09,-1.19271e+09,-1.19308e+09,1.45812e+06,-0.00290583,0.527087,-0,0.527095,-812.556,-42927.6,-0,42935.2,1.45812e+06
step02_gravity_refstate-intrusion.xmf,91,7.35759e-06,-2.89547e-06,0,1.43124e-05,-1.17319e+09,-1.17416e+09,-1.17389e+09,1.36483e+06,-0.00624128,0.52797,-0,0.528007,-798.336,-42329.8,-0,42337.3,1.36483e+06
step02_gravity_refstate-intrusion.xmf,92,1.1506e-05,-9.81018e-06,0,1.31533e-05,-1.15465e+09,-1.15668e+09,-1.15575e+09,1.2543e+06,-0.00962823,0.524728,-0,0.524817,-791.551,-41764.6,-0,41772.1,1.2543e+06
step02_gravity_refstate-intrusion.xmf,93,1.56731e-05,-1.67867e-05,0,1.25702e-05,-1.13698e+09,-1.14007e+09,-1.13847e+09,1.1987e+06,-0.0138137,0.516314,-0,0.516498,-834.35,-41226,-0,41234.5,1.1987e+06
step02_gravity_refstate-intrusion.xmf,94,1.86901e-05,-2.20505e-05,0,1.39135e-05,-1.12231e+09,-1.1262e+09,-1.12409e+09,1.32679e+06,-0.0204617,0.501408,-0,0.501826,-1016.82,-40777.9,-0,40790.5,1.32679e+06
step02_gravity_refstate-intrusion.xmf,95,-1.25941e-05,3.29926e-05,0,5.20673e-06,-1.27673e+09,-1.27238e+09,-1.27553e+09,496514,0.003877,0.493022,0,0.493037,-306.856,-45497.5,-0,45498.5,496514
step02_gravity_refstate-intrusion.xmf,96,-2.07401e-05,6.05019e-05,0,-3.1243e-06,-1.34185e+09,-1.3341e+09,-1.33987e+09,-297933,-0.00505771,0.399808,-0,0.39984,245.522,-47519.2,0,47519.8,297933
step02_gravity_refstate-intrusion.xmf,97,-1.99825e-05,5.27405e-05,0,-3.11072e-06,-1.3232e+09,-1.31627e+09,-1.3213e+09,-296638,-0.00481276,0.432735,-0,0.432762,242.052,-46933,0,46933.7,296638
step02_gravity_refstate-intrusion.xmf,98,-1.76098e-05,4.49737e-05,0,-3.23113e-06,-1.30499e+09,-1.29902e+09,-1.30331e+09,-308120,-0.00403173,0.460127,-0,0.460144,229.998,-46368,0,46368.5,308120
step02_gravity_refstate-intrusion.xmf,99,-1.43738e-05,3.7094e-05,0,-3.25936e-06,-1.28589e+09,-1.28098e+09,-1.28452e+09,-310813,-0.00293484,0.484204,-0,0.484213,204.96,-45779.3,0,45779.7,310813
step02_gravity_refstate-intrusion.xmf,100,-9.14314e-06,2.61248e-05,0,5.9139e-06,-1.25808e+09,-1.25472e+09,-1.25721e+09,563950,0.00300337,0.509663,0,0.509672,-327.298,-44925.6,-0,44926.8,563950
step02_gravity_refstate-intrusion.xmf,101,-5.74269e-06,1.99472e-05,0,6.09762e-06,-1.23999e+09,-1.23754e+09,-1.23944e+09,581469,0.0018908,0.522369,0,0.522372,-328.122,-44371.9,-0,44373.1,581469
step02_gravity_refstate-intrusion.xmf,102,-2.1737e-06,1.35414e-05,0,6.76507e-06,-1.22147e+09,-1.21997e+09,-1.22126e+09,645117,0.000778728,0.531358,0,0.531359,-357.643,-43805.3,-0,43806.7,645117
step02_gravity_refstate-intrusion.xmf,103,2.27983e-05,-2.92028e-05,0,9.14955e-06,-1.11059e+09,-1.11554e+09,-1.11276e+09,872501,-0.0172201,0.500917,-0,0.501213,-733.7,-40422.4,-0,40429.1,872501
step02_gravity_refstate-intrusion.xmf,104,1.662e-06,6.88912e-06,0,6.84328e-06,-1.20221e+09,-1.20171e+09,-1.20237e+09,652575,-0.000615928,0.537264,-0,0.537264,-364.325,-43216.7,-0,43218.3,652575
step02_gravity_refstate-intrusion.xmf,105,5.78433e-06,-5.91155e-08,0,6.39702e-06,-1.18277e+09,-1.18332e+09,-1.18332e+09,610019,-0.00205796,0.539541,-0,0.539545,-352.357,-42623.3,-0,42624.8,610019
step02_gravity_refstate-intrusion.xmf,106,1.01985e-05,-7.37933e-06,0,5.78716e-06,-1.16353e+09,-1.1652e+09,-1.1645e+09,551864,-0.0034917,0.537666,-0,0.537678,-339.931,-42036.9,-0,42038.3,551864
step02_gravity_refstate-intrusion.xmf,107,1.47015e-05,-1.48782e-05,0,5.59858e-06,-1.1452e+09,-1.14802e+09,-1.1466e+09,533880,-0.00532751,0.531329,-0,0.531356,-359.832,-41478.7,-0,41480.3,533880
step02_gravity_refstate-intrusion.xmf,108,1.9484e-05,-2.31368e-05,0,6.20895e-06,-1.1262e+09,-1.13026e+09,-1.12806e+09,592085,-0.00878399,0.519197,-0,0.519271,-446.289,-40899.7,-0,40902.2,592085
step02_gravity_refstate-intrusion.xmf,109,-1.08259e-05,2.94273e-05,0,-2.85268e-06,-1.26676e+09,-1.26292e+09,-1.26572e+09,-272032,-0.00182963,0.503897,-0,0.5039,168.885,-45191.5,0,45191.8,272032
step02_gravity_refstate-intrusion.xmf,110,-1.96798e-05,5.42217e-05,0,-9.29968e-06,-1.33157e+09,-1.32453e+09,-1.3297e+09,-886818,-0.0149628,0.411984,-0,0.412255,741.25,-47195.6,0,47201.5,886818
step02_gravity_refstate-intrusion.xmf,111,-1.97938e-05,5.98191e-05,0,-9.09535e-06,-1.34597e+09,-1.33837e+09,-1.34408e+09,-867332,-0.0150197,0.386226,-0,0.386518,744.1,-47649.6,0,47655.4,867332
step02_gravity_refstate-intrusion.xmf,112,-1.78651e-05,4.71701e-05,0,-9.81039e-06,-1.31486e+09,-1.30865e+09,-1.31315e+09,-935519,-0.0134223,0.438476,-0,0.438682,722.031,-46675.4,0,46681,935519
step02_gravity_refstate-intrusion.xmf,113,-1.48685e-05,3.87781e-05,0,-1.18577e-05,-1.29564e+09,-1.29052e+09,-1.29422e+09,-1.13075e+06,-0.012084,0.462512,-0,0.46267,773.438,-46081.1,0,46087.6,1.13075e+06
step02_gravity_refstate-intrusion.xmf,114,-1.17566e-05,3.18411e-05,0,-1.14333e-05,-1.27563e+09,-1.27147e+09,-1.27451e+09,-1.09028e+06,-0.00828256,0.486858,-0,0.486929,676.572,-45465.3,0,45470.4,1.09028e+06
step02_gravity_refstate-intrusion.xmf,115,-7.30753e-06,2.27012e-05,0,-2.7712e-06,-1.24803e+09,-1.24516e+09,-1.24733e+09,-264262,-0.00112522,0.518957,-0,0.518958,153.81,-44617.6,0,44617.9,264262
step02_gravity_refstate-intrusion.xmf,116,-3.83421e-06,1.6472e-05,0,-2.71933e-06,-1.2298e+09,-1.22786e+09,-1.22944e+09,-259315,-0.000554662,0.529913,-0,0.529913,145.156,-44060,0,44060.3,259315
step02_gravity_refstate-intrusion.xmf,117,-1.19243e-07,9.96366e-06,0,-2.66077e-06,-1.21105e+09,-1.21009e+09,-1.21104e+09,-253731,-1.53866e-05,0.537491,-0,0.537491,141.341,-43486.9,0,43487.2,253731
step02_gravity_refstate-intrusion.xmf,118,2.37294e-05,-3.06304e-05,0,3.11486e-06,-1.11086e+09,-1.11604e+09,-1.11312e+09,297033,-0.00592914,0.509122,-0,0.509156,-249.916,-40432.7,-0,40433.5,297033
step02_gravity_refstate-intrusion.xmf,119,3.7945e-06,3.31558e-06,0,-2.68205e-06,-1.19225e+09,-1.19229e+09,-1.19261e+09,-255760,0.000552705,0.541305,0,0.541305,145.373,-42912.7,0,42913,255760
step02_gravity_refstate-intrusion.xmf,120,8.06257e-06,-3.79234e-06,0,-2.56297e-06,-1.1731e+09,-1.17423e+09,-1.17387e+09,-244405,0.00117645,0.541245,0,0.541247,146.003,-42329,0,42329.2,244405
step02_gravity_refstate-intrusion.xmf,121,1.26284e-05,-1.13505e-05,0,-2.26853e-06,-1.15418e+09,-1.15647e+09,-1.15539e+09,-216327,0.00176353,0.537059,0,0.537062,140.124,-41752.8,0,41753,216327
step02_gravity_refstate-intrusion.xmf,122,1.72782e-05,-1.91767e-05,0,-1.07355e-06,-1.13612e+09,-1.13959e+09,-1.13777e+09,-102374,0.00129559,0.529109,0,0.529111,75.1292,-41202.8,0,41202.8,102374
step02_gravity_refstate-intrusion.xmf,123,-8.43401e-06,2.50593e-05,0,-1.16033e-05,-1.25651e+09,-1.25332e+09,-1.25571e+09,-1.10649e+06,-0.00564093,0.504418,-0,0.50445,642.995,-44878.6,0,44883.2,1.10649e+06
step02_gravity_refstate-intrusion.xmf,124,-1.83992e-05,5.47182e-05,0,-1.49248e-05,-1.34324e+09,-1.33626e+09,-1.34148e+09,-1.42323e+06,-0.0242678,0.380127,-0,0.380901,1223.49,-47562.9,0,47578.6,1.42323e+06
step02_gravity_refstate-intrusion.xmf,125,-1.69091e-05,4.73288e-05,0,-1.55113e-05,-1.32481e+09,-1.31868e+09,-1.32319e+09,-1.47915e+06,-0.0224141,0.410614,-0,0.411225,1177.32,-46987.5,0,47002.2,1.47915e+06
step02_gravity_refstate-intrusion.xmf,126,2.10139e-05,-2.56397e-05,0,5.12752e-08,-1.12177e+09,-1.12622e+09,-1.12377e+09,4889.6,2.51411e-06,0.519515,0,0.519515,0.0332432,-40765.8,0,40765.8,4889.6
step02_gravity_refstate-intrusion.xmf,127,-1.48695e-05,4.10896e-05,0,-1.72382e-05,-1.30901e+09,-1.30367e+09,-1.30759e+09,-1.64384e+06,-0.0201114,0.432082,-0,0.43255,1176.04,-46498.1,0,46512.9,1.64384e+06
step02_gravity_refstate-intrusion.xmf,128,-1.11617e-05,3.14628e-05,0,-1.98635e-05,-1.28139e+09,-1.27732e+09,-1.28032e+09,-1.89418e+06,-0.01482,0.463306,-0,0.463543,1164.11,-45645.4,0,45660.3,1.89418e+06
step02_gravity_refstate-intrusion.xmf,129,-8.73631e-06,2.6165e-05,0,-2.03406e-05,-1.26419e+09,-1.26086e+09,-1.26336e+09,-1.93968e+06,-0.0110151,0.480479,-0,0.480606,1122.18,-45116.3,0,45130.2,1.93968e+06
step02_gravity_refstate-intrusion.xmf,130,-5.15171e-06,1.8892e-05,0,-1.18567e-05,-1.23816e+09,-1.23587e+09,-1.23767e+09,-1.13065e+06,-0.00338081,0.51709,-0,0.517101,631.546,-44316.2,0,44320.7,1.13065e+06
step02_gravity_refstate-intrusion.xmf,131,-1.85523e-06,1.29512e-05,0,-1.19936e-05,-1.22006e+09,-1.21865e+09,-1.21988e+09,-1.14371e+06,-0.00118948,0.525945,-0,0.525947,630.003,-43762.3,0,43766.8,1.14371e+06
step02_gravity_refstate-intrusion.xmf,132,1.66896e-06,6.82324e-06,0,-1.17838e-05,-1.20177e+09,-1.20128e+09,-1.20193e+09,-1.1237e+06,0.00109586,0.531653,0,0.531654,623.69,-43203,0,43207.5,1.1237e+06
step02_gravity_refstate-intrusion.xmf,133,2.37617e-05,-3.0751e-05,0,-3.26213e-06,-1.11057e+09,-1.11577e+09,-1.11284e+09,-311077,0.00624666,0.508742,0,0.508781,262.532,-40423.8,0,40424.7,311077
step02_gravity_refstate-intrusion.xmf,134,5.52195e-06,3.01422e-07,0,-1.12797e-05,-1.18292e+09,-1.18342e+09,-1.18345e+09,-1.07563e+06,0.00354019,0.533927,0,0.533939,616.969,-42627.5,0,42632,1.07563e+06
step02_gravity_refstate-intrusion.xmf,135,9.81291e-06,-6.86839e-06,0,-1.06602e-05,-1.16355e+09,-1.16514e+09,-1.16448e+09,-1.01655e+06,0.00629806,0.531984,0,0.532021,620.975,-42036.5,0,42041.1,1.01655e+06
step02_gravity_refstate-intrusion.xmf,136,1.96094e-05,-2.32794e-05,0,-6.44861e-06,-1.12552e+09,-1.12961e+09,-1.12739e+09,-614939,0.00942077,0.518249,0,0.518335,474.608,-40879.2,0,40882,614939
step02_gravity_refstate-intrusion.xmf,137,1.46971e-05,-1.5041e-05,0,-9.14837e-06,-1.14376e+09,-1.1466e+09,-1.14516e+09,-872388,0.00890544,0.52629,0,0.526366,592.882,-41434.1,0,41438.3,872388
step02_gravity_refstate-intrusion.xmf,138,-1.26297e-05,3.54118e-05,0,-2.02659e-05,-1.29517e+09,-1.29059e+09,-1.29397e+09,-1.93255e+06,-0.0186314,0.444895,-0,0.445285,1254.32,-46071.2,0,46088.3,1.93255e+06
step02_gravity_refstate-intrusion.xmf,139,-5.90915e-06,2.05592e-05,0,-2.08987e-05,-1.24619e+09,-1.24367e+09,-1.24563e+09,-1.9929e+06,-0.00732483,0.494244,-0,0.494298,1103.8,-44563.8,0,44577.5,1.9929e+06
step02_gravity_refstate-intrusion.xmf,140,-1.41893e-05,4.38234e-05,0,-2.08529e-05,-1.33287e+09,-1.32734e+09,-1.33152e+09,-1.98853e+06,-0.0301108,0.381569,-0,0.382755,1608.02,-47243.3,0,47270.6,1.98853e+06
step02_gravity_refstate-intrusion.xmf,141,-1.27326e-05,3.87197e-05,0,-2.3424e-05,-1.31696e+09,-1.31205e+09,-1.31575e+09,-2.23372e+06,-0.027384,0.40256,-0,0.40349,1593.11,-46749.7,0,46776.8,2.23372e+06
step02_gravity_refstate-intrusion.xmf,142,-1.60198e-05,4.97938e-05,0,-1.94065e-05,-1.34635e+09,-1.34008e+09,-1.34483e+09,-1.8506e+06,-0.0315601,0.360138,-0,0.361518,1661.78,-47661.7,0,47690.6,1.8506e+06
step02_gravity_refstate-intrusion.xmf,143,-1.12089e-05,3.40384e-05,0,-2.60174e-05,-1.30157e+09,-1.29726e+09,-1.3005e+09,-2.48102e+06,-0.024187,0.419407,-0,0.420104,1600.72,-46273.2,0,46300.9,2.48102e+06
step02_gravity_refstate-intrusion.xmf,144,-9.72367e-06,2.986e-05,0,-2.7846e-05,-1.28654e+09,-1.28276e+09,-1.28561e+09,-2.65539e+06,-0.0205111,0.434618,-0,0.435102,1594.48,-45808.4,0,45836.2,2.65539e+06
step02_gravity_refstate-intrusion.xmf,145,-8.03586e-06,2.5651e-05,0,-2.90189e-05,-1.27058e+09,-1.26737e+09,-1.26981e+09,-2.76725e+06,-0.0162916,0.449669,-0,0.449964,1573.12,-45316.1,0,45343.4,2.76725e+06
step02_gravity_refstate-intrusion.xmf,146,-6.02128e-06,2.11953e-05,0,-2.98857e-05,-1.2537e+09,-1.2511e+09,-1.25312e+09,-2.8499e+06,-0.0118004,0.463006,-0,0.463157,1555.75,-44796.2,0,44823.2,2.8499e+06
step02_gravity_refstate-intrusion.xmf,147,-3.05522e-06,1.51876e-05,0,-2.13596e-05,-1.22852e+09,-1.22678e+09,-1.22823e+09,-2.03685e+06,-0.00376977,0.50398,-0,0.503995,1102.76,-44021.9,0,44035.7,2.03685e+06
step02_gravity_refstate-intrusion.xmf,148,-1.84523e-07,9.90984e-06,0,-2.13016e-05,-1.21105e+09,-1.21009e+09,-1.21104e+09,-2.03133e+06,-0.000141905,0.510903,-0,0.510903,1098.6,-43486.5,0,43500.4,2.03133e+06
step02_gravity_refstate-intrusion.xmf,149,3.01744e-06,4.30652e-06,0,-2.06642e-05,-1.19296e+09,-1.19284e+09,-1.19325e+09,-1.97054e+06,0.00374195,0.515513,0,0.515526,1085.01,-42932.8,0,42946.6,1.97054e+06
step02_gravity_refstate-intrusion.xmf,150,2.2708e-05,-2.90258e-05,0,-9.3809e-06,-1.11092e+09,-1.11585e+09,-1.11308e+09,-894562,0.0175219,0.500821,0,0.501128,749.574,-40432.6,0,40439.5,894562
step02_gravity_refstate-intrusion.xmf,151,6.70754e-06,-1.91031e-06,0,-1.94163e-05,-1.17362e+09,-1.17444e+09,-1.17426e+09,-1.85153e+06,0.00807212,0.516964,0,0.517027,1069.6,-42341.9,0,42355.4,1.85153e+06
step02_gravity_refstate-intrusion.xmf,152,1.05778e-05,-8.81715e-06,0,-1.9778e-05,-1.15341e+09,-1.15526e+09,-1.15441e+09,-1.88603e+06,0.0140805,0.509126,0,0.50932,1166.26,-41723.5,0,41739.8,1.88603e+06
step02_gravity_refstate-intrusion.xmf,153,1.65249e-05,-1.86872e-05,0,-1.53814e-05,-1.12952e+09,-1.13288e+09,-1.13109e+09,-1.46677e+06,0.0195182,0.503601,0,0.503979,1074.16,-40996.2,0,41010.3,1.46677e+06
step02_gravity_refstate-intrusion.xmf,154,-3.72012e-06,1.66183e-05,0,-3.06659e-05,-1.23664e+09,-1.2347e+09,-1.23629e+09,-2.9243e+06,-0.00727713,0.473072,-0,0.473128,1553.39,-44272.2,0,44299.4,2.9243e+06
step02_gravity_refstate-intrusion.xmf,155,-1.38349e-06,1.21082e-05,0,-3.10946e-05,-1.21966e+09,-1.21838e+09,-1.21953e+09,-2.96519e+06,-0.00265355,0.480233,-0,0.48024,1558,-43750.8,0,43778.5,2.96519e+06
step02_gravity_refstate-intrusion.xmf,156,9.82652e-07,7.60737e-06,0,-3.07509e-05,-1.20275e+09,-1.20212e+09,-1.20284e+09,-2.93241e+06,0.00215351,0.485782,0,0.485787,1551.92,-43231.4,0,43259.3,2.93241e+06
step02_gravity_refstate-intrusion.xmf,157,3.5987e-06,2.92125e-06,0,-2.99405e-05,-1.18554e+09,-1.1856e+09,-1.18588e+09,-2.85512e+06,0.00726655,0.488991,0,0.489045,1545.72,-42703.8,0,42731.8,2.85512e+06
step02_gravity_refstate-intrusion.xmf,158,2.03987e-05,-2.53611e-05,0,-1.57616e-05,-1.11083e+09,-1.11519e+09,-1.11277e+09,-1.50303e+06,0.0285353,0.483557,0,0.484398,1258.66,-40425.3,0,40444.9,1.50303e+06
step02_gravity_refstate-intrusion.xmf,159,6.09548e-06,-1.48558e-06,0,-2.92892e-05,-1.16959e+09,-1.17031e+09,-1.17017e+09,-2.79302e+06,0.0124422,0.487796,0,0.487954,1567.77,-42215.2,0,42244.3,2.79302e+06
step02_gravity_refstate-intrusion.xmf,160,1.11678e-05,-1.05996e-05,0,-2.56272e-05,-1.1394e+09,-1.14148e+09,-1.14047e+09,-2.44381e+06,0.023242,0.481922,0,0.482482,1574.23,-41290.6,0,41320.6,2.44381e+06
step02_gravity_refstate-intrusion.xmf,161,1.4713e-05,-1.65186e-05,0,-2.25343e-05,-1.12213e+09,-1.12511e+09,-1.12354e+09,-2.14887e+06,0.0302911,0.473841,0,0.474808,1591.5,-40763.4,0,40794.5,2.14887e+06
step02_gravity_refstate-intrusion.xmf,162,8.13733e-06,-5.35363e-06,0,-2.97631e-05,-1.15433e+09,-1.15561e+09,-1.1551e+09,-2.83821e+06,0.0184694,0.479565,0,0.479921,1661.65,-41746.6,0,41779.7,2.83821e+06
step02_gravity_refstate-intrusion.xmf,163,1.81174e-05,-2.26771e-05,0,-2.01344e-05,-1.10903e+09,-1.11292e+09,-1.11076e+09,-1.92002e+06,0.0364432,0.463835,0,0.465264,1636.36,-40363.9,0,40397.1,1.92002e+06
step02_gravity_refstate-crust.xmf,0,5.47302e-07,5.14934e-06,0,-5.71473e-09,-1.09844e+09,-1.09812e+09,-1.09848e+09,-392.031,4.04624e-20,0.0431255,0,0.0431255,-40000,-40000,-0,56568.5,392.031
step02_gravity_refstate-crust.xmf,1,5.20988e-07,5.17518e-06,0,-4.28995e-08,-1.09844e+09,-1.09812e+09,-1.09848e+09,-2942.91,0.00124166,0.0434865,0,0.0435042,-37707.6,-40000,-0,54971.4,2942.91
step02_gravity_refstate-crust.xmf,2,4.45141e-07,5.26409e-06,0,-7.41509e-08,-1.09845e+09,-1.09812e+09,-1.09848e+09,-5086.75,0.002313,0.0445213,0,0.0445814,-35524.6,-40000,-0,53497.6,5086.75
step02_gravity_refstate-crust.xmf,3,1.73894e-07,5.58177e-06,0,-8.71479e-08,-1.09846e+09,-1.09809e+09,-1.09848e+09,-5978.35,0.00364471,0.0484559,0,0.0485928,-31466.4,-40000,-0,50893.4,5978.35
step02_gravity_refstate-crust.xmf,4,3.27509e-07,5.40256e-06,0,-9.1029e-08,-1.09845e+09,-1.09811e+09,-1.09848e+09,-6244.59,0.00313291,0.0461837,0,0.0462898,-33445.9,-40000,-0,52140.4,6244.59
step02_gravity_refstate-crust.xmf,5,-1.19518e-08,5.79506e-06,0,-5.76579e-08,-1.09847e+09,-1.09808e+09,-1.09847e+09,-3955.33,0.0038109,0.051338,0,0.0514793,-29581.4,-40000,-0,49750,3955.33
step02_gravity_refstate-crust.xmf,6,-4.71601e-07,6.30074e-06,0,9.33804e-08,-1.0985e+09,-1.09804e+09,-1.09847e+09,6405.89,0.00302613,0.0589901,0,0.0590677,-26077.3,-40000,-0,47749.6,6405.89
step02_gravity_refstate-crust.xmf,7,-2.30653e-07,6.03942e-06,0,1.39446e-10,-1.09849e+09,-1.09806e+09,-1.09847e+09,9.56601,0.00360884,0.0548426,0,0.0549612,-27786.5,-40000,-0,48704.1,9.56601
step02_gravity_refstate-crust.xmf,8,-7.31632e-07,6.5771e-06,0,2.22523e-07,-1.09852e+09,-1.09802e+09,-1.09847e+09,15265.1,0.00206383,0.0638057,0,0.0638391,-24449.7,-40000,-0,46880.6,15265.1
step02_gravity_refstate-crust.xmf,9,-1.01152e-06,6.86395e-06,0,3.92897e-07,-1.09854e+09,-1.098e+09,-1.09847e+09,26952.7,0.000729492,0.0693158,0,0.0693197,-22899.8,-40000,-0,46091.2,26952.7
step02_gravity_refstate-crust.xmf,10,-1.30537e-06,7.15303e-06,0,6.08977e-07,-1.09856e+09,-1.09798e+09,-1.09847e+09,41775.8,-0.000963375,0.0755483,-0,0.0755545,-21423.9,-40000,-0,45376,41775.8
step02_gravity_refstate-crust.xmf,11,-1.61181e-06,7.43973e-06,0,8.73448e-07,-1.09858e+09,-1.09796e+09,-1.09847e+09,59918.5,-0.00299544,0.0825303,-0,0.0825847,-20018.5,-40000,-0,44729.6,59918.5
step02_gravity_refstate-crust.xmf,12,-1.92604e-06,7.71701e-06,0,1.19102e-06,-1.09861e+09,-1.09794e+09,-1.09847e+09,81704,-0.00534356,0.0902875,-0,0.0904455,-18680.2,-40000,-0,44146.9,81704
step02_gravity_refstate-crust.xmf,13,-2.2323e-06,7.98968e-06,0,1.55185e-06,-1.09863e+09,-1.09793e+09,-1.09848e+09,106457,-0.00798184,0.0988446,-0,0.0991664,-17405.7,-40000,-0,43622.9,106457
step02_gravity_refstate-crust.xmf,14,-2.55495e-06,8.23567e-06,0,1.98479e-06,-1.09865e+09,-1.09791e+09,-1.09848e+09,136157,-0.0108811,0.108224,-0,0.10877,-16192.1,-40000,-0,43153.1,136157
step02_gravity_refstate-crust.xmf,15,-2.88682e-06,8.42712e-06,0,2.50933e-06,-1.09868e+09,-1.09791e+09,-1.09848e+09,172140,-0.0140137,0.11845,-0,0.119276,-15036.5,-40000,-0,42732.8,172140
step02_gravity_refstate-crust.xmf,16,-3.19616e-06,8.59974e-06,0,3.08642e-06,-1.09871e+09,-1.0979e+09,-1.09849e+09,211728,-0.0173452,0.129541,-0,0.130697,-13936,-40000,-0,42358.1,211728
step02_gravity_refstate-crust.xmf,17,-3.49654e-06,8.74999e-06,0,3.72814e-06,-1.09874e+09,-1.0979e+09,-1.0985e+09,255750,-0.0208438,0.141521,-0,0.143048,-12888,-40000,-0,42025,255750
step02_gravity_refstate-crust.xmf,18,-3.78891e-06,8.82918e-06,0,4.48089e-06,-1.09877e+09,-1.0979e+09,-1.09851e+09,307389,-0.0244741,0.15441,-0,0.156338,-11890.1,-40000,-0,41729.8,307389
step02_gravity_refstate-crust.xmf,19,-4.0594e-06,8.833e-06,0,5.3329e-06,-1.0988e+09,-1.09791e+09,-1.09852e+09,365837,-0.0281972,0.168231,-0,0.170578,-10939.7,-40000,-0,41469,365837
step02_gravity_refstate-crust.xmf,20,-4.31347e-06,8.70352e-06,0,6.3373e-06,-1.09883e+09,-1.09794e+09,-1.09853e+09,434739,-0.0319711,0.183007,-0,0.185779,-10034.7,-40000,-0,41239.5,434739
step02_gravity_refstate-crust.xmf,21,-4.48647e-06,8.48716e-06,0,7.43047e-06,-1.09886e+09,-1.09797e+09,-1.09855e+09,509730,-0.0357455,0.198762,-0,0.20195,-9172.9,-40000,-0,41038.3,509730
step02_gravity_refstate-crust.xmf,22,-4.5937e-06,8.1546e-06,0,8.64105e-06,-1.09888e+09,-1.09801e+09,-1.09857e+09,592776,-0.0394632,0.215517,-0,0.2191,-8352.15,-40000,-0,40862.7,592776
step02_gravity_refstate-crust.xmf,23,-4.62845e-06,7.58795e-06,0,1.00669e-05,-1.09891e+09,-1.09807e+09,-1.09859e+09,690591,-0.0430577,0.23329,-0,0.23723,-7570.51,-40000,-0,40710.1,690591
step02_gravity_refstate-crust.xmf,24,-4.5114e-06,6.79634e-06,0,1.16302e-05,-1.09893e+09,-1.09816e+09,-1.09862e+09,797832,-0.0464446,0.252098,-0,0.256341,-6826.09,-40000,-0,40578.3,797832
step02_gravity_refstate-crust.xmf,25,-4.21172e-06,5.73369e-06,0,1.33437e-05,-1.09894e+09,-1.09826e+09,-1.09866e+09,915380,-0.0495294,0.271947,-0,0.27642,-6117.1,-40000,-0,40465,915380
step02_gravity_refstate-crust.xmf,26,-3.68632e-06,4.2279e-06,0,1.52775e-05,-1.09895e+09,-1.09841e+09,-1.0987e+09,1.04804e+06,-0.0521894,0.292832,-0,0.297446,-5441.79,-40000,-0,40368.5,1.04804e+06
step02_gravity_refstate-crust.xmf,27,-2.8534e-06,2.31774e-06,0,1.73566e-05,-1.09894e+09,-1.09858e+09,-1.09874e+09,1.19066e+06,-0.0542951,0.314727,-0,0.319376,-4798.49,-40000,-0,40286.8,1.19066e+06
step02_gravity_refstate-crust.xmf,28,-1.63066e-06,-2.65665e-07,0,1.96294e-05,-1.09891e+09,-1.09882e+09,-1.0988e+09,1.34658e+06,-0.055662,0.33759,-0,0.342148,-4185.58,-40000,-0,40218.4,1.34658e+06
step02_gravity_refstate-crust.xmf,29,1.47919e-07,-3.72557e-06,0,2.20826e-05,-1.09886e+09,-1.09913e+09,-1.09887e+09,1.51487e+06,-0.0560966,0.361348,-0,0.365676,-3601.4,-40000,-0,40161.8,1.51487e+06
step02_gravity_refstate-crust.xmf,30,2.65924e-06,-8.289e-06,0,2.47353e-05,-1.09878e+09,-1.09953e+09,-1.09896e+09,1.69684e+06,-0.0553245,0.385891,-0,0.389837,-3044.18,-40000,-0,40115.7,1.69684e+06
step02_gravity_refstate-crust.xmf,31,6.51787e-06,-1.5006e-05,0,2.78193e-05,-1.09863e+09,-1.10011e+09,-1.09908e+09,1.9084e+06,-0.0529381,0.411061,-0,0.414456,-2511.47,-40000,-0,40078.8,1.9084e+06
step02_gravity_refstate-crust.xmf,32,1.68222e-05,-2.55684e-05,0,3.10046e-05,-1.09794e+09,-1.10085e+09,-1.09909e+09,2.12691e+06,-0.0479765,0.436092,-0,0.438723,-2000,-40000,-0,40050,2.12691e+06
step02_gravity_refstate-crust.xmf,33,1.28688e-05,-2.28755e-05,0,-2.84782e-05,-1.09826e+09,-1.10071e+09,-1.09915e+09,-1.9536e+06,0.0479805,0.436091,0,0.438722,2000,-40000,0,40050,1.9536e+06
step02_gravity_refstate-crust.xmf,34,6.27833e-06,-1.43207e-05,0,-2.73012e-05,-1.09863e+09,-1.10004e+09,-1.09906e+09,-1.87286e+06,0.052943,0.411064,0,0.414459,2511.47,-40000,0,40078.8,1.87286e+06
step02_gravity_refstate-crust.xmf,35,2.65426e-06,-8.22906e-06,0,-2.45677e-05,-1.09878e+09,-1.09952e+09,-1.09896e+09,-1.68535e+06,0.0553195,0.385891,0,0.389836,3044.18,-40000,0,40115.7,1.68535e+06
step02_gravity_refstate-crust.xmf,36,1.53717e-07,-3.7613e-06,0,-2.20154e-05,-1.09886e+09,-1.09913e+09,-1.09887e+09,-1.51025e+06,0.0560955,0.361347,0,0.365676,3601.4,-40000,0,40161.8,1.51025e+06
step02_gravity_refstate-crust.xmf,37,-1.60683e-06,-3.81661e-07,0,-1.95973e-05,-1.09891e+09,-1.09883e+09,-1.0988e+09,-1.34437e+06,0.055662,0.33759,0,0.342148,4185.58,-40000,0,40218.4,1.34437e+06
step02_gravity_refstate-crust.xmf,38,-2.85155e-06,2.22201e-06,0,-1.73459e-05,-1.09894e+09,-1.09859e+09,-1.09875e+09,-1.18993e+06,0.0542954,0.314727,0,0.319376,4798.49,-40000,0,40286.8,1.18993e+06
step02_gravity_refstate-crust.xmf,39,-3.66567e-06,4.17756e-06,0,-1.52431e-05,-1.09895e+09,-1.09841e+09,-1.0987e+09,-1.04568e+06,0.0521894,0.292832,0,0.297446,5441.79,-40000,0,40368.5,1.04568e+06
step02_gravity_refstate-crust.xmf,40,-4.19826e-06,5.66207e-06,0,-1.33363e-05,-1.09895e+09,-1.09827e+09,-1.09866e+09,-914873,0.0495294,0.271947,0,0.27642,6117.1,-40000,0,40465,914873
step02_gravity_refstate-crust.xmf,41,-4.48368e-06,6.75492e-06,0,-1.16034e-05,-1.09893e+09,-1.09816e+09,-1.09862e+09,-795990,0.0464446,0.252098,0,0.256341,6826.09,-40000,0,40578.3,795990
step02_gravity_refstate-crust.xmf,42,-4.60376e-06,7.55771e-06,0,-1.00455e-05,-1.09891e+09,-1.09808e+09,-1.09859e+09,-689121,0.0430577,0.233289,0,0.23723,7570.51,-40000,0,40710.1,689121
step02_gravity_refstate-crust.xmf,43,-4.58434e-06,8.11501e-06,0,-8.65272e-06,-1.09888e+09,-1.09801e+09,-1.09857e+09,-593577,0.0394634,0.215516,0,0.2191,8352.15,-40000,0,40862.7,593577
step02_gravity_refstate-crust.xmf,44,-4.46703e-06,8.4691e-06,0,-7.41561e-06,-1.09886e+09,-1.09797e+09,-1.09855e+09,-508711,0.0357455,0.198762,0,0.201951,9172.9,-40000,0,41038.3,508711
step02_gravity_refstate-crust.xmf,45,-4.28132e-06,8.68167e-06,0,-6.31842e-06,-1.09883e+09,-1.09794e+09,-1.09853e+09,-433443,0.031971,0.183008,0,0.185779,10034.7,-40000,0,41239.5,433443
step02_gravity_refstate-crust.xmf,46,-4.04689e-06,8.77936e-06,0,-5.34912e-06,-1.0988e+09,-1.09792e+09,-1.09852e+09,-366950,0.0281975,0.168231,0,0.170578,10939.7,-40000,0,41469,366950
step02_gravity_refstate-crust.xmf,47,-3.77847e-06,8.7846e-06,0,-4.49435e-06,-1.09877e+09,-1.0979e+09,-1.09851e+09,-308312,0.0244741,0.15441,0,0.156338,11890.1,-40000,0,41729.8,308312
step02_gravity_refstate-crust.xmf,48,-3.48773e-06,8.71492e-06,0,-3.74309e-06,-1.09874e+09,-1.0979e+09,-1.0985e+09,-256776,0.0208438,0.141521,0,0.143048,12888,-40000,0,42025,256776
step02_gravity_refstate-crust.xmf,49,-3.18155e-06,8.5895e-06,0,-3.0801e-06,-1.09871e+09,-1.0979e+09,-1.09849e+09,-211295,0.0173447,0.129541,0,0.130697,13936,-40000,0,42358.1,211295
step02_gravity_refstate-crust.xmf,50,-2.86643e-06,8.41659e-06,0,-2.50251e-06,-1.09868e+09,-1.09791e+09,-1.09848e+09,-171672,0.0140136,0.11845,0,0.119276,15036.5,-40000,0,42732.8,171672
step02_gravity_refstate-crust.xmf,51,-2.54617e-06,8.20644e-06,0,-1.99644e-06,-1.09865e+09,-1.09792e+09,-1.09848e+09,-136956,0.0108815,0.108224,0,0.10877,16192.1,-40000,0,43153.1,136956
step02_gravity_refstate-crust.xmf,52,-2.22595e-06,7.96685e-06,0,-1.56085e-06,-1.09863e+09,-1.09793e+09,-1.09848e+09,-107074,0.00798171,0.0988444,0,0.0991661,17405.7,-40000,0,43622.9,107074
step02_gravity_refstate-crust.xmf,53,-1.90798e-06,7.70558e-06,0,-1.18705e-06,-1.0986e+09,-1.09794e+09,-1.09847e+09,-81431.8,0.00534353,0.0902874,0,0.0904454,18680.2,-40000,0,44146.9,81431.8
step02_gravity_refstate-crust.xmf,54,-1.59528e-06,7.42946e-06,0,-8.70131e-07,-1.09858e+09,-1.09796e+09,-1.09847e+09,-59691,0.00299523,0.0825303,0,0.0825846,20018.5,-40000,0,44729.6,59691
step02_gravity_refstate-crust.xmf,55,-1.29142e-06,7.14477e-06,0,-6.06845e-07,-1.09856e+09,-1.09798e+09,-1.09847e+09,-41629.6,0.000963871,0.0755487,0,0.0755549,21423.9,-40000,0,45376,41629.6
step02_gravity_refstate-crust.xmf,56,-9.97789e-07,6.85796e-06,0,-3.89882e-07,-1.09854e+09,-1.098e+09,-1.09847e+09,-26745.9,-0.000729902,0.0693156,-0,0.0693194,22899.8,-40000,0,46091.2,26745.9
step02_gravity_refstate-crust.xmf,57,-7.19775e-07,6.5736e-06,0,-2.19788e-07,-1.09852e+09,-1.09802e+09,-1.09847e+09,-15077.4,-0.00206406,0.0638055,-0,0.0638389,24449.7,-40000,0,46880.6,15077.4
step02_gravity_refstate-crust.xmf,58,-4.59068e-07,6.29727e-06,0,-9.0767e-08,-1.0985e+09,-1.09804e+09,-1.09847e+09,-6226.62,-0.00302621,0.0589901,-0,0.0590677,26077.3,-40000,0,47749.6,6226.62
step02_gravity_refstate-crust.xmf,59,-2.19439e-07,6.03535e-06,0,3.15905e-10,-1.09849e+09,-1.09806e+09,-1.09847e+09,21.6711,-0.00360832,0.0548425,-0,0.054961,27786.5,-40000,0,48704.1,21.6711
step02_gravity_refstate-crust.xmf,60,-4.3775e-09,5.79423e-06,0,5.76819e-08,-1.09847e+09,-1.09808e+09,-1.09847e+09,3956.98,-0.0038109,0.0513377,-0,0.0514789,29581.4,-40000,0,49750,3956.98
step02_gravity_refstate-crust.xmf,61,1.82956e-07,5.57865e-06,0,8.6162e-08,-1.09846e+09,-1.09809e+09,-1.09847e+09,5910.71,-0.00364517,0.0484558,-0,0.0485927,31466.4,-40000,0,50893.4,5910.71
step02_gravity_refstate-crust.xmf,62,3.36859e-07,5.39998e-06,0,8.87781e-08,-1.09845e+09,-1.09811e+09,-1.09848e+09,6090.18,-0.00313284,0.0461838,-0,0.04629,33445.9,-40000,0,52140.4,6090.18
step02_gravity_refstate-crust.xmf,63,4.53799e-07,5.26294e-06,0,7.17635e-08,-1.09845e+09,-1.09812e+09,-1.09848e+09,4922.97,-0.002313,0.0445214,-0,0.0445815,35524.6,-40000,0,53497.6,4922.97
step02_gravity_refstate-crust.xmf,64,5.27664e-07,5.17569e-06,0,4.06864e-08,-1.09844e+09,-1.09812e+09,-1.09848e+09,2791.09,-0.00124174,0.0434865,-0,0.0435042,37707.6,-40000,0,54971.4,2791.09
step02_gravity_refstate-crust.xmf,65,5.55672e-07,5.13933e-06,0,5.0521e-09,-1.09844e+09,-1.09813e+09,-1.09848e+09,346.574,-2.43627e-20,0.0431255,-0,0.0431255,40000,-40000,0,56568.5,346.574
step02_gravity_refstate-crust.xmf,66,2.77777e-07,5.14408e-06,0,-1.18021e-08,-1.05613e+09,-1.05579e+09,-1.05615e+09,-809.621,0.000458112,0.0512443,0,0.0512463,-38399.3,-38458.4,-0,54346.6,809.621
step02_gravity_refstate-crust.xmf,67,1.94296e-07,5.19014e-06,0,-4.7476e-09,-1.05127e+09,-1.05093e+09,-1.05128e+09,-325.686,0.0008306,0.0529005,0,0.052907,-36539.6,-38281.4,-0,52920.8,325.686
step02_gravity_refstate-crust.xmf,68,1.05461e-07,5.30508e-06,0,1.38453e-09,-1.05373e+09,-1.05337e+09,-1.05373e+09,94.9786,0.00124426,0.054045,0,0.0540593,-34354.9,-38370.6,-0,51503,94.9786
step02_gravity_refstate-crust.xmf,69,1.54977e-07,5.11103e-06,0,-6.12724e-09,-1.03308e+09,-1.03274e+09,-1.03309e+09,-420.328,1.17437e-21,0.0553416,0,0.0553416,-40000,-37619,-0,54910.7,420.328
step02_gravity_refstate-crust.xmf,70,-1.96135e-07,5.66093e-06,0,7.0234e-08,-1.05754e+09,-1.05714e+09,-1.05753e+09,4818.05,0.00131158,0.0586343,0,0.058649,-30297.9,-38508.9,-0,48998.9,4818.05
step02_gravity_refstate-crust.xmf,71,-4.0208e-08,5.46538e-06,0,2.89963e-08,-1.05415e+09,-1.05377e+09,-1.05415e+09,1989.14,0.00135063,0.056317,0,0.0563332,-32259.1,-38385.7,-0,50140.9,1989.14
step02_gravity_refstate-crust.xmf,72,-3.09261e-07,5.85897e-06,0,9.4453e-08,-1.06645e+09,-1.06602e+09,-1.06642e+09,6479.48,0.00148502,0.0597691,0,0.0597876,-28730.2,-38832.8,-0,48305.4,6479.48
step02_gravity_refstate-crust.xmf,73,-8.55857e-07,6.34838e-06,0,3.83434e-07,-1.06e+09,-1.0595e+09,-1.05994e+09,26303.6,-0.00105451,0.0705475,-0,0.0705554,-25169.5,-38596.6,-0,46078.2,26303.6
step02_gravity_refstate-crust.xmf,74,-6.17586e-07,6.04747e-06,0,2.57805e-07,-1.05179e+09,-1.05133e+09,-1.05174e+09,17685.5,-0.00033475,0.0667965,-0,0.0667973,-27093.1,-38298.2,-0,46912.6,17685.5
step02_gravity_refstate-crust.xmf,75,-6.14372e-08,5.09818e-06,0,3.1073e-08,-9.99398e+08,-9.99044e+08,-9.99394e+08,2131.61,-8.93822e-05,0.0620372,-0,0.0620373,-37749.3,-36391.7,-0,52434.4,2131.61
step02_gravity_refstate-crust.xmf,76,-9.75679e-08,5.19552e-06,0,7.11277e-08,-1.00874e+09,-1.00838e+09,-1.00874e+09,4879.36,-8.97224e-05,0.0618199,-0,0.06182,-35291.8,-36732,-0,50938.7,4879.36
step02_gravity_refstate-crust.xmf,77,-1.08426e-06,6.61769e-06,0,5.26377e-07,-1.0656e+09,-1.06507e+09,-1.06552e+09,36109.5,-0.00202572,0.0746743,-0,0.0747017,-23611.9,-38799.9,-0,45419.8,36109.5
step02_gravity_refstate-crust.xmf,78,-2.10714e-07,5.33077e-06,0,1.22159e-07,-1.01168e+09,-1.0113e+09,-1.01167e+09,8380.11,-0.000315253,0.0635382,-0,0.063539,-33130.4,-36838.6,-0,49545.1,8380.11
step02_gravity_refstate-crust.xmf,79,-1.95739e-07,5.02196e-06,0,-3.9293e-09,-9.67486e+08,-9.67128e+08,-9.67473e+08,-269.55,-4.68415e-20,0.0674464,-0,0.0674464,-40000,-35229.3,-0,53302,269.55
step02_gravity_refstate-crust.xmf,80,-5.34428e-07,5.75561e-06,0,2.62993e-07,-1.02492e+09,-1.02449e+09,-1.02488e+09,18041.3,-0.00116248,0.0682067,-0,0.0682167,-28892,-37320,-0,47196.7,18041.3
step02_gravity_refstate-crust.xmf,81,-4.23429e-07,5.51045e-06,0,2.21165e-07,-1.00584e+09,-1.00544e+09,-1.00581e+09,15172,-0.00125523,0.0680693,-0,0.0680809,-30910.4,-36625.5,-0,47925.8,15172
step02_gravity_refstate-crust.xmf,82,-1.36245e-06,6.87168e-06,0,7.41794e-07,-1.06539e+09,-1.06482e+09,-1.06529e+09,50887.1,-0.00382766,0.0807501,-0,0.0808407,-22147.4,-38791.6,-0,44668.7,50887.1
step02_gravity_refstate-crust.xmf,83,-1.6342e-06,7.11731e-06,0,9.89907e-07,-1.06655e+09,-1.06595e+09,-1.06644e+09,67907.6,-0.00574221,0.087039,-0,0.0872282,-20774.5,-38833.4,-0,44041,67907.6
step02_gravity_refstate-crust.xmf,84,-1.18871e-06,6.39928e-06,0,6.96967e-07,-1.02999e+09,-1.02947e+09,-1.02991e+09,47811.9,-0.00480306,0.081277,-0,0.0814188,-24097,-37503,-0,44577.4,47811.9
step02_gravity_refstate-crust.xmf,85,-1.9269e-06,7.35864e-06,0,1.29346e-06,-1.06685e+09,-1.06622e+09,-1.06672e+09,88731.5,-0.00806938,0.0943722,-0,0.0947166,-19438.8,-38843.5,-0,43436,88731.5
step02_gravity_refstate-crust.xmf,86,-2.21951e-06,7.57674e-06,0,1.65528e-06,-1.06703e+09,-1.06636e+09,-1.06688e+09,113552,-0.0106793,0.102484,-0,0.103039,-18161.3,-38849.2,-0,42884.7,113552
step02_gravity_refstate-crust.xmf,87,-1.00846e-06,6.12607e-06,0,5.84678e-07,-1.01611e+09,-1.01562e+09,-1.01604e+09,40108.9,-0.0042214,0.0789018,-0,0.0790146,-25668.8,-36997.8,-0,45030.3,40108.9
step02_gravity_refstate-crust.xmf,88,-3.82331e-07,4.96807e-06,0,8.20283e-08,-9.32189e+08,-9.31822e+08,-9.32163e+08,5627.14,-0.000766319,0.0742972,-0,0.0743012,-37900.8,-33943.4,-0,50878.5,5627.14
step02_gravity_refstate-crust.xmf,89,-3.23228e-07,5.20451e-06,0,1.72786e-07,-9.76719e+08,-9.7634e+08,-9.76697e+08,11853.1,-0.00122294,0.0690844,-0,0.0690953,-34091.1,-35565.2,-0,49265.5,11853.1
step02_gravity_refstate-crust.xmf,90,-3.33644e-07,5.08146e-06,0,1.37165e-07,-9.5678e+08,-9.56409e+08,-9.56758e+08,9409.51,-0.00114856,0.0711105,-0,0.0711197,-35817.2,-34839.1,-0,49966.3,9409.51
step02_gravity_refstate-crust.xmf,91,-8.6885e-07,5.85822e-06,0,5.15381e-07,-9.97353e+08,-9.96891e+08,-9.97293e+08,35355.1,-0.00401654,0.0780297,-0,0.078133,-27303.9,-36315.2,-0,45434.5,35355.1
step02_gravity_refstate-crust.xmf,92,-1.34428e-06,6.63645e-06,0,8.02426e-07,-1.04114e+09,-1.04059e+09,-1.04104e+09,55046.4,-0.00534746,0.0836228,-0,0.0837936,-22857.1,-37908.4,-0,44266.2,55046.4
step02_gravity_refstate-crust.xmf,93,-2.50513e-06,7.82267e-06,0,2.05824e-06,-1.06988e+09,-1.06917e+09,-1.06971e+09,141195,-0.0133714,0.11123,-0,0.112031,-16860.6,-38951.9,-0,42444.5,141195
step02_gravity_refstate-crust.xmf,94,-4.72782e-07,5.3197e-06,0,2.68961e-07,-9.7314e+08,-9.72743e+08,-9.73108e+08,18450.7,-0.00207623,0.0722933,-0,0.0723231,-32232.2,-35434.5,-0,47901.1,18450.7
step02_gravity_refstate-crust.xmf,95,-4.88203e-07,4.87139e-06,0,-3.50367e-09,-9.01443e+08,-9.01076e+08,-9.0141e+08,-240.352,-8.45621e-20,0.0793458,-0,0.0793458,-40000,-32823.5,-0,51743.4,240.352
step02_gravity_refstate-crust.xmf,96,-7.67847e-07,5.60538e-06,0,4.70452e-07,-9.7481e+08,-9.74373e+08,-9.74757e+08,32273,-0.00397307,0.0783642,-0,0.0784648,-28983.4,-35494.5,-0,45824.7,32273
step02_gravity_refstate-crust.xmf,97,-1.88712e-06,7.05096e-06,0,1.37162e-06,-1.03945e+09,-1.03884e+09,-1.03932e+09,94093.3,-0.00996902,0.0977096,-0,0.0982168,-20099.2,-37845.6,-0,42851.7,94093.3
step02_gravity_refstate-crust.xmf,98,-1.6498e-06,6.78524e-06,0,1.1258e-06,-1.03057e+09,-1.02999e+09,-1.03046e+09,77229.8,-0.00837803,0.0923691,-0,0.0927482,-21520.4,-37522.9,-0,43256.2,77229.8
step02_gravity_refstate-crust.xmf,99,-1.48401e-06,6.45378e-06,0,1.0359e-06,-1.00744e+09,-1.0069e+09,-1.00734e+09,71062.7,-0.0083378,0.0914305,-0,0.0918099,-22909.3,-36681,-0,43247.3,71062.7
step02_gravity_refstate-crust.xmf,100,-1.31555e-06,6.17239e-06,0,9.18301e-07,-9.89202e+08,-9.88689e+08,-9.89112e+08,62995.4,-0.00776352,0.0895864,-0,0.0899222,-24365.7,-36017.1,-0,43484.7,62995.4
step02_gravity_refstate-crust.xmf,101,-2.16827e-06,7.1594e-06,0,1.77724e-06,-1.03124e+09,-1.0306e+09,-1.0311e+09,121919,-0.0133158,0.107247,-0,0.108071,-18885.8,-37545.8,-0,42028.1,121919
step02_gravity_refstate-crust.xmf,102,-2.46346e-06,7.42577e-06,0,2.17011e-06,-1.04047e+09,-1.03979e+09,-1.0403e+09,148869,-0.0155974,0.114854,-0,0.115908,-17450.3,-37880.9,-0,41707,148869
step02_gravity_refstate-crust.xmf,103,-2.86028e-06,7.97429e-06,0,2.65048e-06,-1.06756e+09,-1.06682e+09,-1.06737e+09,181823,-0.0172174,0.123043,-0,0.124242,-15543,-38866.5,-0,41859.2,181823
step02_gravity_refstate-crust.xmf,104,-3.14698e-06,8.21542e-06,0,3.16058e-06,-1.07601e+09,-1.07523e+09,-1.0758e+09,216816,-0.0195835,0.132118,-0,0.133562,-14350.9,-39173.3,-0,41719.2,216816
step02_gravity_refstate-crust.xmf,105,-1.17508e-06,5.90942e-06,0,8.28959e-07,-9.69455e+08,-9.68969e+08,-9.69374e+08,56866.6,-0.00731577,0.0885957,-0,0.0888972,-25828.4,-35298.4,-0,43738.8,56866.6
step02_gravity_refstate-crust.xmf,106,-7.06136e-07,5.39045e-06,0,4.373e-07,-9.51675e+08,-9.51257e+08,-9.51627e+08,29998.8,-0.003914,0.0794815,-0,0.0795778,-30565.8,-34652.2,-0,46206.5,29998.8
step02_gravity_refstate-crust.xmf,107,-6.33609e-07,4.78557e-06,0,1.29807e-07,-8.67252e+08,-8.6688e+08,-8.67209e+08,8904.74,-0.00128614,0.0858235,-0,0.0858331,-37920.9,-31578,-0,49347.4,8904.74
step02_gravity_refstate-crust.xmf,108,-5.73286e-07,5.10479e-06,0,2.97944e-07,-9.27208e+08,-9.26818e+08,-9.27169e+08,20438.9,-0.00276946,0.0788258,-0,0.0788744,-33734,-33761.5,-0,47726.6,20438.9
step02_gravity_refstate-crust.xmf,109,-5.82504e-07,4.92748e-06,0,2.25421e-07,-8.97405e+08,-8.97027e+08,-8.97365e+08,15463.9,-0.00217437,0.0818796,-0,0.0819085,-35880.3,-32676.2,-0,48529.7,15463.9
step02_gravity_refstate-crust.xmf,110,-1.05735e-06,5.65385e-06,0,7.55404e-07,-9.47092e+08,-9.46632e+08,-9.4702e+08,51820.7,-0.00692181,0.0883936,-0,0.0886642,-27364.3,-34484.3,-0,44022.4,51820.7
step02_gravity_refstate-crust.xmf,111,-2.68674e-06,7.61213e-06,0,2.52711e-06,-1.04652e+09,-1.04582e+09,-1.04634e+09,173360,-0.0176211,0.121682,-0,0.122951,-16382.2,-38100.6,-0,41473.3,173360
step02_gravity_refstate-crust.xmf,112,-3.37531e-06,8.41037e-06,0,3.62606e-06,-1.08308e+09,-1.08227e+09,-1.08285e+09,248748,-0.0215879,0.140244,-0,0.141896,-13409.4,-39430,-0,41647.7,248748
step02_gravity_refstate-crust.xmf,113,-6.87781e-07,5.2211e-06,0,4.19505e-07,-9.29241e+08,-9.28836e+08,-9.29194e+08,28778,-0.00387854,0.0813547,-0,0.0814471,-31854.6,-33835.2,-0,46470.8,28778
step02_gravity_refstate-crust.xmf,114,-7.18167e-07,4.65941e-06,0,-2.74931e-09,-8.34751e+08,-8.34382e+08,-8.34702e+08,-188.603,-1.14118e-19,0.0909218,-0,0.0909218,-40000,-30394.3,-0,50237.5,188.603
step02_gravity_refstate-crust.xmf,115,-9.64765e-07,5.42119e-06,0,6.88209e-07,-9.24084e+08,-9.23646e+08,-9.24018e+08,47211.2,-0.00647822,0.0887179,-0,0.0889541,-28916.6,-33646.7,-0,44365.2,47211.2
step02_gravity_refstate-crust.xmf,116,-1.95692e-06,6.77931e-06,0,1.62067e-06,-1.00596e+09,-1.00536e+09,-1.00582e+09,111178,-0.0130414,0.105309,-0,0.106114,-20245.1,-36625.5,-0,41848.5,111178
step02_gravity_refstate-crust.xmf,117,-1.76692e-06,6.48653e-06,0,1.43825e-06,-9.87601e+08,-9.87035e+08,-9.8748e+08,98663.6,-0.0121051,0.102302,-0,0.103016,-21610.2,-35957.5,-0,41951.6,98663.6
step02_gravity_refstate-crust.xmf,118,-1.59233e-06,6.19321e-06,0,1.30337e-06,-9.66305e+08,-9.65771e+08,-9.66196e+08,89410.9,-0.0114317,0.100558,-0,0.101206,-22987,-35182.4,-0,42026.3,89410.9
step02_gravity_refstate-crust.xmf,119,-1.43668e-06,5.92155e-06,0,1.18103e-06,-9.44894e+08,-9.44389e+08,-9.44796e+08,81018.6,-0.0107074,0.0991885,-0,0.0997648,-24405.5,-34403.2,-0,42180.6,81018.6
step02_gravity_refstate-crust.xmf,120,-2.42047e-06,7.03239e-06,0,2.35358e-06,-1.00766e+09,-1.00701e+09,-1.00749e+09,161456,-0.0181691,0.120725,-0,0.122085,-17822.4,-36686,-0,40786,161456
step02_gravity_refstate-crust.xmf,121,-2.66275e-06,7.26822e-06,0,2.72444e-06,-1.02031e+09,-1.01963e+09,-1.02013e+09,186896,-0.0200614,0.127185,-0,0.128758,-16573.9,-37145.9,-0,40675.8,186896
step02_gravity_refstate-crust.xmf,122,-2.89533e-06,7.52044e-06,0,3.07441e-06,-1.03439e+09,-1.03367e+09,-1.03419e+09,210904,-0.0215511,0.132955,-0,0.13469,-15483.1,-37657.9,-0,40716.6,210904
step02_gravity_refstate-crust.xmf,123,-3.13086e-06,7.76765e-06,0,3.46287e-06,-1.0479e+09,-1.04715e+09,-1.04769e+09,237553,-0.023055,0.139274,-0,0.14117,-14450.5,-38149.3,-0,40794.4,237553
step02_gravity_refstate-crust.xmf,124,-3.65167e-06,8.2891e-06,0,4.45195e-06,-1.07499e+09,-1.07417e+09,-1.07474e+09,305404,-0.0262745,0.154763,-0,0.156978,-12419.7,-39134.1,-0,41057.6,305404
step02_gravity_refstate-crust.xmf,125,-3.37994e-06,7.99417e-06,0,3.94449e-06,-1.05984e+09,-1.05906e+09,-1.05961e+09,270592,-0.0248697,0.14705,-0,0.149138,-13421.4,-38583.4,-0,40851.1,270592
step02_gravity_refstate-crust.xmf,126,-1.3031e-06,5.6627e-06,0,1.07571e-06,-9.22076e+08,-9.21599e+08,-9.21987e+08,73793.7,-0.0100057,0.0984625,-0,0.0989695,-25862.5,-33572.6,-0,42379.1,73793.7
step02_gravity_refstate-crust.xmf,127,-8.87925e-07,5.22085e-06,0,6.11128e-07,-9.03265e+08,-9.02846e+08,-9.03205e+08,41923.4,-0.00584786,0.088989,-0,0.0891809,-30493.9,-32888.8,-0,44850.3,41923.4
step02_gravity_refstate-crust.xmf,128,-8.24125e-07,4.5455e-06,0,1.74196e-07,-8.01818e+08,-8.0145e+08,-8.01761e+08,11949.8,-0.00169117,0.0969456,-0,0.0969604,-37915.2,-29194.7,-0,47852.9,11949.8
step02_gravity_refstate-crust.xmf,129,-7.86279e-07,4.71081e-06,0,3.1035e-07,-8.34458e+08,-8.34081e+08,-8.34404e+08,21290,-0.00302436,0.0929034,-0,0.0929526,-35907.7,-30383.4,-0,47037.4,21290
step02_gravity_refstate-crust.xmf,130,-8.26729e-07,5.04907e-06,0,5.24887e-07,-8.84421e+08,-8.84018e+08,-8.84364e+08,36007.3,-0.00507137,0.0892945,-0,0.0894384,-32102.5,-32202.7,-0,45470.7,36007.3
step02_gravity_refstate-crust.xmf,131,-7.77137e-07,4.8913e-06,0,4.13895e-07,-8.65481e+08,-8.65092e+08,-8.65428e+08,28393.2,-0.00403387,0.0897385,-0,0.0898291,-33973.7,-31513.1,-0,46338.8,28393.2
step02_gravity_refstate-crust.xmf,132,-1.19204e-06,5.41837e-06,0,9.80926e-07,-8.97998e+08,-8.97545e+08,-8.97917e+08,67291.5,-0.00928767,0.0983259,-0,0.0987636,-27353.7,-32696.1,-0,42629.3,67291.5
step02_gravity_refstate-crust.xmf,133,-2.21409e-06,6.77571e-06,0,2.11979e-06,-9.91211e+08,-9.90595e+08,-9.91059e+08,145418,-0.0170992,0.117069,-0,0.118311,-18937.1,-36087.6,-0,40754.5,145418
step02_gravity_refstate-crust.xmf,134,-8.85611e-07,4.38742e-06,0,-1.89509e-09,-7.67206e+08,-7.66844e+08,-7.67145e+08,-130.003,-1.35466e-19,0.102051,-0,0.102051,-40000,-27934.1,-0,48788.5,130.003
step02_gravity_refstate-crust.xmf,135,-1.10421e-06,5.19647e-06,0,8.90026e-07,-8.73918e+08,-8.73486e+08,-8.73842e+08,61055.8,-0.00851064,0.0986033,-0,0.0989699,-28847.1,-31819.4,-0,42949.2,61055.8
step02_gravity_refstate-crust.xmf,136,-2.39582e-06,6.67056e-06,0,2.63673e-06,-9.76547e+08,-9.75925e+08,-9.76382e+08,180880,-0.0209288,0.12863,-0,0.130322,-17803.3,-35552.8,-0,39761.3,180880
step02_gravity_refstate-crust.xmf,137,-2.04273e-06,6.42761e-06,0,2.00067e-06,-9.6419e+08,-9.63609e+08,-9.6405e+08,137246,-0.0168187,0.116267,-0,0.117477,-20091.4,-35104,-0,40446.9,137246
step02_gravity_refstate-crust.xmf,138,-1.82548e-06,6.15277e-06,0,1.74182e-06,-9.44666e+08,-9.44119e+08,-9.44541e+08,119489,-0.0152393,0.112147,-0,0.113178,-21617.6,-34393.6,-0,40623.2,119489
step02_gravity_refstate-crust.xmf,139,-1.65392e-06,5.88612e-06,0,1.57333e-06,-9.22707e+08,-9.22189e+08,-9.22593e+08,107931,-0.0141688,0.110068,-0,0.110976,-23004.6,-33594.5,-0,40716.1,107931
step02_gravity_refstate-crust.xmf,140,-1.50665e-06,5.62721e-06,0,1.43303e-06,-8.99088e+08,-8.98598e+08,-8.98984e+08,98305.9,-0.0131873,0.108818,-0,0.109614,-24406.6,-32734.8,-0,40832,98305.9
step02_gravity_refstate-crust.xmf,141,-2.59771e-06,6.85543e-06,0,2.96555e-06,-9.89324e+08,-9.88675e+08,-9.89146e+08,203437,-0.0226196,0.134064,-0,0.135959,-16705.9,-36017.4,-0,39703.2,203437
step02_gravity_refstate-crust.xmf,142,-3.88374e-06,8.31158e-06,0,5.2937e-06,-1.07783e+09,-1.07699e+09,-1.07756e+09,363148,-0.0298824,0.168584,-0,0.171212,-11350.6,-39236.6,-0,40845.4,363148
step02_gravity_refstate-crust.xmf,143,-2.81527e-06,7.04829e-06,0,3.36201e-06,-1.0031e+09,-1.00243e+09,-1.00291e+09,230634,-0.0244757,0.140446,-0,0.142562,-15570.7,-36518.5,-0,39699.5,230634
step02_gravity_refstate-crust.xmf,144,-3.04691e-06,7.25235e-06,0,3.8064e-06,-1.01771e+09,-1.017e+09,-1.0175e+09,261119,-0.026342,0.147428,-0,0.149763,-14460.8,-37049.5,-0,39771.6,261119
step02_gravity_refstate-crust.xmf,145,-3.27761e-06,7.44652e-06,0,4.28445e-06,-1.03163e+09,-1.03089e+09,-1.03141e+09,293913,-0.0281346,0.154735,-0,0.157272,-13443.1,-37555.8,-0,39889.3,293913
step02_gravity_refstate-crust.xmf,146,-3.50586e-06,7.62718e-06,0,4.80022e-06,-1.04474e+09,-1.04398e+09,-1.0445e+09,329295,-0.0298713,0.162438,-0,0.165162,-12505.2,-38032.4,-0,40035.6,329295
step02_gravity_refstate-crust.xmf,147,-1.38078e-06,5.38105e-06,0,1.30713e-06,-8.74482e+08,-8.74018e+08,-8.74388e+08,89669,-0.0122048,0.108134,-0,0.108821,-25835.1,-31839.1,-0,41002.3,89669
step02_gravity_refstate-crust.xmf,148,-1.02752e-06,4.99994e-06,0,7.81165e-07,-8.51812e+08,-8.51399e+08,-8.51742e+08,53587.9,-0.00750715,0.0986846,-0,0.0989698,-30441.5,-31014.7,-0,43457.9,53587.9
step02_gravity_refstate-crust.xmf,149,-9.5562e-07,4.25381e-06,0,2.1249e-07,-7.36202e+08,-7.35845e+08,-7.36137e+08,14576.8,-0.0019804,0.107466,-0,0.107484,-37903.9,-26804.9,-0,46424.2,14576.8
step02_gravity_refstate-crust.xmf,150,-9.34084e-07,4.44112e-06,0,3.88977e-07,-7.70651e+08,-7.70282e+08,-7.70587e+08,26683.8,-0.0036802,0.103558,-0,0.103623,-35887,-28059.4,-0,45554.5,26683.8
step02_gravity_refstate-crust.xmf,151,-9.36911e-07,4.63071e-06,0,5.35272e-07,-8.02234e+08,-8.01852e+08,-8.0217e+08,36719.7,-0.00512164,0.100729,-0,0.100859,-33957.1,-29209.5,-0,44791.5,36719.7
step02_gravity_refstate-crust.xmf,152,-9.68573e-07,4.8179e-06,0,6.61988e-07,-8.29408e+08,-8.29011e+08,-8.29342e+08,45412.4,-0.00636707,0.0991146,-0,0.0993189,-32137.7,-30199,-0,44100,45412.4
step02_gravity_refstate-crust.xmf,153,-1.27587e-06,5.14842e-06,0,1.18892e-06,-8.49054e+08,-8.48613e+08,-8.48966e+08,81560.2,-0.0111879,0.107938,-0,0.108516,-27293.2,-30913.5,-0,41237.9,81560.2
step02_gravity_refstate-crust.xmf,154,-2.23724e-06,6.48688e-06,0,2.41682e-06,-9.62897e+08,-9.62299e+08,-9.62744e+08,165794,-0.0197681,0.125155,-0,0.126707,-18751.3,-35056.2,-0,39756.1,165794
step02_gravity_refstate-crust.xmf,155,-2.47178e-06,6.4937e-06,0,3.08933e-06,-9.62614e+08,-9.61999e+08,-9.62444e+08,211928,-0.0241121,0.138848,-0,0.140927,-16915.1,-35045,-0,38913.6,211928
step02_gravity_refstate-crust.xmf,156,-3.71061e-06,7.74174e-06,0,5.37968e-06,-1.05503e+09,-1.05425e+09,-1.05478e+09,369046,-0.0317676,0.171017,-0,0.173942,-11645.6,-38406.4,-0,40133.2,369046
step02_gravity_refstate-crust.xmf,157,-4.09019e-06,8.04655e-06,0,6.34001e-06,-1.0753e+09,-1.07447e+09,-1.07502e+09,434925,-0.0341231,0.184452,-0,0.187582,-10374.6,-39143.2,-0,40494.7,434925
step02_gravity_refstate-crust.xmf,158,-9.95711e-07,4.05534e-06,0,6.45424e-10,-6.98603e+08,-6.98257e+08,-6.98535e+08,44.2761,-3.41854e-19,0.112605,-0,0.112605,-40000,-25435.6,-0,47402.2,44.2761
step02_gravity_refstate-crust.xmf,159,-1.19505e-06,4.93166e-06,0,1.07706e-06,-8.23005e+08,-8.22584e+08,-8.22923e+08,73886.6,-0.0101509,0.10827,-0,0.108745,-28748.2,-29965.1,-0,41525.5,73886.6
step02_gravity_refstate-crust.xmf,160,-2.32727e-06,6.32147e-06,0,2.84953e-06,-9.4816e+08,-9.47567e+08,-9.48001e+08,195478,-0.022858,0.13513,-0,0.137049,-17832.3,-34519.1,-0,38853.1,195478
step02_gravity_refstate-crust.xmf,161,-2.15718e-06,6.18744e-06,0,2.5047e-06,-9.36644e+08,-9.36071e+08,-9.36496e+08,171822,-0.0208049,0.129075,-0,0.130741,-19069,-34100.3,-0,39069.9,171822
step02_gravity_refstate-crust.xmf,162,-1.98352e-06,6.00874e-06,0,2.21907e-06,-9.21692e+08,-9.21143e+08,-9.21556e+08,152228,-0.0190319,0.124351,-0,0.125799,-20348.6,-33556.4,-0,39244.1,152228
step02_gravity_refstate-crust.xmf,163,-1.81474e-06,5.77995e-06,0,2.00213e-06,-9.0115e+08,-9.00629e+08,-9.01026e+08,137346,-0.0176384,0.121423,-0,0.122697,-21651.5,-32808.9,-0,39309.2,137346
step02_gravity_refstate-crust.xmf,164,-1.6598e-06,5.54066e-06,0,1.81579e-06,-8.78108e+08,-8.77614e+08,-8.77994e+08,124564,-0.0163329,0.119335,-0,0.120448,-23007.3,-31970.3,-0,39388.2,124564
step02_gravity_refstate-crust.xmf,165,-1.52239e-06,5.30697e-06,0,1.6462e-06,-8.54045e+08,-8.53576e+08,-8.53941e+08,112929,-0.0150262,0.117759,-0,0.118713,-24413.3,-31094.4,-0,39533.1,112929
step02_gravity_refstate-crust.xmf,166,-2.63409e-06,6.48081e-06,0,3.60604e-06,-9.65971e+08,-9.65346e+08,-9.6579e+08,247375,-0.0269448,0.148271,-0,0.150699,-15715.3,-35166.5,-0,38518.2,247375
step02_gravity_refstate-crust.xmf,167,-3.85412e-06,7.72947e-06,0,5.98213e-06,-1.06014e+09,-1.05934e+09,-1.05987e+09,410374,-0.0338474,0.179989,-0,0.183144,-10932.4,-38591.8,-0,40110.4,410374
step02_gravity_refstate-crust.xmf,168,-2.86879e-06,6.67357e-06,0,4.10457e-06,-9.85681e+08,-9.85027e+08,-9.85485e+08,281573,-0.0290056,0.155443,-0,0.158126,-14471.1,-35883.4,-0,38691.5,281573
step02_gravity_refstate-crust.xmf,169,-3.08094e-06,6.82449e-06,0,4.61298e-06,-1.00167e+09,-1.00099e+09,-1.00146e+09,316451,-0.0309365,0.162823,-0,0.165736,-13416.5,-36465,-0,38854.8,316451
step02_gravity_refstate-crust.xmf,170,-3.28455e-06,6.95215e-06,0,5.15135e-06,-1.01619e+09,-1.01549e+09,-1.01597e+09,353382,-0.0327768,0.170479,-0,0.173602,-12468.6,-36993,-0,39037.8,353382
step02_gravity_refstate-crust.xmf,171,-3.47861e-06,7.07625e-06,0,5.67446e-06,-1.02959e+09,-1.02887e+09,-1.02935e+09,389268,-0.0343465,0.177677,-0,0.180966,-11660.4,-37480.2,-0,39252.1,389268
step02_gravity_refstate-crust.xmf,172,-4.27399e-06,7.94448e-06,0,7.34514e-06,-1.08143e+09,-1.08059e+09,-1.08113e+09,503876,-0.0370714,0.198457,-0,0.20189,-9465.35,-39365.4,-0,40487.4,503876
step02_gravity_refstate-crust.xmf,173,-1.40373e-06,5.0836e-06,0,1.48894e-06,-8.29348e+08,-8.28903e+08,-8.29252e+08,102141,-0.0137199,0.116681,-0,0.117485,-25849.6,-30195.4,-0,39748.8,102141
step02_gravity_refstate-crust.xmf,174,-1.03387e-06,3.91223e-06,0,2.33079e-07,-6.69928e+08,-6.69588e+08,-6.69857e+08,15989.2,-0.00208015,0.117288,-0,0.117307,-37975.1,-24391.3,-0,45133.6,15989.2
step02_gravity_refstate-crust.xmf,175,-1.05665e-06,3.68394e-06,0,8.57609e-10,-6.28738e+08,-6.28413e+08,-6.28665e+08,58.8319,-1.16792e-19,0.122463,-0,0.122463,-40000,-22891.3,-0,46087,58.8319
step02_gravity_refstate-crust.xmf,176,-1.07226e-06,3.54725e-06,0,2.36513e-07,-6.04089e+08,-6.03772e+08,-6.04015e+08,16224.8,-0.0020375,0.126178,-0,0.126194,-38093.5,-21993.6,-0,43986.7,16224.8
step02_gravity_refstate-crust.xmf,177,-1.08052e-06,3.27586e-06,0,1.10543e-11,-5.57407e+08,-5.57108e+08,-5.57332e+08,0.758324,-1.28863e-19,0.131508,-0,0.131508,-40000,-20293.6,-0,44853.5,0.758324
step02_gravity_refstate-crust.xmf,178,-1.12637e-06,4.72513e-06,0,9.47607e-07,-7.96736e+08,-7.96335e+08,-7.96659e+08,65005.8,-0.0089077,0.108679,-0,0.109044,-30340.1,-29008.7,-0,41976.5,65005.8
step02_gravity_refstate-crust.xmf,179,-1.02869e-06,4.12048e-06,0,4.50127e-07,-7.05643e+08,-7.0529e+08,-7.05572e+08,30878.7,-0.00409101,0.113678,-0,0.113751,-35901.9,-25691.8,-0,44147.7,30878.7
step02_gravity_refstate-crust.xmf,180,-1.03935e-06,4.3264e-06,0,6.38479e-07,-7.39405e+08,-7.39037e+08,-7.39333e+08,43799.7,-0.00589468,0.111039,-0,0.111196,-33915.6,-26921.3,-0,43301.5,43799.7
step02_gravity_refstate-crust.xmf,181,-1.0719e-06,4.52967e-06,0,8.00851e-07,-7.70137e+08,-7.69752e+08,-7.70063e+08,54938.3,-0.00748252,0.109359,-0,0.109614,-32058,-28040.3,-0,42590.8,54938.3
step02_gravity_refstate-crust.xmf,182,-1.30748e-06,4.84442e-06,0,1.35934e-06,-7.99355e+08,-7.98933e+08,-7.99265e+08,93251,-0.0125502,0.117017,-0,0.117688,-27281.8,-29103.5,-0,39891.3,93251
step02_gravity_refstate-crust.xmf,183,-2.38349e-06,6.0699e-06,0,3.42682e-06,-9.34418e+08,-9.33838e+08,-9.34255e+08,235080,-0.0265063,0.14776,-0,0.150119,-16612.8,-34018.2,-0,37857.9,235080
step02_gravity_refstate-crust.xmf,184,-3.64316e-06,7.15615e-06,0,6.18549e-06,-1.04021e+09,-1.03947e+09,-1.03996e+09,424324,-0.0357886,0.184683,-0,0.188118,-10979.2,-37866.4,-0,39426,424324
step02_gravity_refstate-crust.xmf,185,-3.80754e-06,7.19917e-06,0,6.78216e-06,-1.05013e+09,-1.04937e+09,-1.04987e+09,465256,-0.0373801,0.192782,-0,0.196373,-10292.1,-38226.7,-0,39587.9,465256
step02_gravity_refstate-crust.xmf,186,-4.38841e-06,7.81606e-06,0,8.2374e-06,-1.0867e+09,-1.08587e+09,-1.0864e+09,565086,-0.039388,0.210485,-0,0.214139,-8762.52,-39556.9,-0,40515.8,565086
step02_gravity_refstate-crust.xmf,187,-1.08349e-06,3.2103e-06,0,2.19607e-07,-5.46264e+08,-5.45969e+08,-5.4619e+08,15065.1,-0.00185694,0.133205,-0,0.133218,-38284.7,-19887.9,-0,43142.1,15065.1
step02_gravity_refstate-crust.xmf,188,-1.24536e-06,4.59823e-06,0,1.27414e-06,-7.65943e+08,-7.65542e+08,-7.65857e+08,87406.2,-0.0116435,0.118897,-0,0.119466,-28501.5,-27887,-0,39875.1,87406.2
step02_gravity_refstate-crust.xmf,189,-2.21244e-06,5.90982e-06,0,3.05495e-06,-9.15836e+08,-9.15279e+08,-9.15684e+08,209570,-0.0245836,0.142255,-0,0.144364,-17842.3,-33342.1,-0,37815.9,209570
step02_gravity_refstate-crust.xmf,190,-2.05688e-06,5.75923e-06,0,2.73797e-06,-8.98631e+08,-8.98095e+08,-8.9849e+08,187825,-0.0227559,0.137396,-0,0.139268,-19061.2,-32716.2,-0,37863.9,187825
step02_gravity_refstate-crust.xmf,191,-1.90402e-06,5.5878e-06,0,2.45964e-06,-8.79787e+08,-8.79273e+08,-8.79657e+08,168732,-0.0210189,0.133311,-0,0.134958,-20329.9,-32030.5,-0,37937.5,168732
step02_gravity_refstate-crust.xmf,192,-1.75746e-06,5.38771e-06,0,2.23076e-06,-8.57939e+08,-8.57449e+08,-8.57818e+08,153030,-0.0194721,0.130432,-0,0.131878,-21609.9,-31235.4,-0,37982,153030
step02_gravity_refstate-crust.xmf,193,-1.48991e-06,4.97386e-06,0,1.79328e-06,-8.10108e+08,-8.09665e+08,-8.10006e+08,123019,-0.0161121,0.125429,-0,0.126459,-24544,-29494.5,-0,38371,123019
step02_gravity_refstate-crust.xmf,194,-1.6139e-06,5.18004e-06,0,1.99635e-06,-8.34395e+08,-8.33928e+08,-8.34284e+08,136950,-0.0177394,0.127531,-0,0.128759,-23077.9,-30378.5,-0,38150.2,136950
step02_gravity_refstate-crust.xmf,195,-2.62532e-06,6.07159e-06,0,4.35677e-06,-9.5358e+08,-9.52984e+08,-9.534e+08,298875,-0.0310299,0.163363,-0,0.166284,-14424.3,-34714.8,-0,37592.3,298875
step02_gravity_refstate-crust.xmf,196,-2.44578e-06,5.91008e-06,0,3.9841e-06,-9.33985e+08,-9.33412e+08,-9.33817e+08,273309,-0.0295373,0.158673,-0,0.161399,-15362.8,-34001.9,-0,37311.5,273309
step02_gravity_refstate-crust.xmf,197,-2.80384e-06,6.17748e-06,0,4.86234e-06,-9.71348e+08,-9.70731e+08,-9.71155e+08,333557,-0.0329484,0.170309,-0,0.173467,-13389.1,-35361.1,-0,37811,333557
step02_gravity_refstate-crust.xmf,198,-2.96574e-06,6.24493e-06,0,5.38782e-06,-9.8659e+08,-9.85958e+08,-9.86387e+08,369605,-0.0347712,0.177531,-0,0.180904,-12473.4,-35915.5,-0,38019.8,369605
step02_gravity_refstate-crust.xmf,199,-3.12349e-06,6.301e-06,0,5.93244e-06,-1.00095e+09,-1.00031e+09,-1.00074e+09,406965,-0.0364659,0.184815,-0,0.188378,-11648.4,-36437.8,-0,38254.4,406965
step02_gravity_refstate-crust.xmf,200,-3.27985e-06,6.37045e-06,0,6.44013e-06,-1.0141e+09,-1.01344e+09,-1.01387e+09,441793,-0.0378556,0.19132,-0,0.195029,-10965.2,-36915.9,-0,38509.9,441793
step02_gravity_refstate-crust.xmf,201,-3.96096e-06,7.17311e-06,0,7.51924e-06,-1.05951e+09,-1.05875e+09,-1.05924e+09,515820,-0.0392384,0.202626,-0,0.20639,-9568.27,-38567.7,-0,39736.8,515820
step02_gravity_refstate-crust.xmf,202,-4.26638e-06,6.97817e-06,0,9.52719e-06,-1.08e+09,-1.07923e+09,-1.07971e+09,653565,-0.0433946,0.227826,-0,0.231922,-8026.13,-39312,-0,40122.9,653565
step02_gravity_refstate-crust.xmf,203,-4.09935e-06,7.05515e-06,0,8.45732e-06,-1.06853e+09,-1.06776e+09,-1.06825e+09,580172,-0.0414239,0.214811,-0,0.218769,-8792.35,-38895.1,-0,39876.5,580172
step02_gravity_refstate-crust.xmf,204,-1.39431e-06,4.80319e-06,0,1.62414e-06,-7.88989e+08,-7.88564e+08,-7.88893e+08,111416,-0.01468,0.123887,-0,0.124754,-25864.8,-28725.7,-0,38654.3,111416
step02_gravity_refstate-crust.xmf,205,-1.08635e-06,2.84186e-06,0,9.67104e-10,-4.84427e+08,-4.84158e+08,-4.84353e+08,66.3433,-1.85545e-19,0.139638,-0,0.139638,-40000,-17636.1,-0,43715.3,66.3433
step02_gravity_refstate-crust.xmf,206,-1.07061e-06,3.77165e-06,0,4.75379e-07,-6.42183e+08,-6.41851e+08,-6.4211e+08,32611,-0.00417521,0.122655,-0,0.122726,-36041.1,-23380.8,-0,42960.7,32611
step02_gravity_refstate-crust.xmf,207,-1.0865e-06,3.38548e-06,0,4.56458e-07,-5.75668e+08,-5.75361e+08,-5.75593e+08,31313,-0.00388588,0.130973,-0,0.131031,-36400.7,-20958.6,-0,42003.2,31313
step02_gravity_refstate-crust.xmf,208,-1.17745e-06,4.40314e-06,0,1.09746e-06,-7.39572e+08,-7.3919e+08,-7.39492e+08,75285.7,-0.00997909,0.118538,-0,0.118958,-30196.1,-26926.9,-0,40458.2,75285.7
step02_gravity_refstate-crust.xmf,209,-1.09323e-06,3.93981e-06,0,7.30404e-07,-6.6849e+08,-6.68145e+08,-6.68415e+08,50105.7,-0.00646811,0.121845,-0,0.122016,-33831.2,-24338.7,-0,41676.4,50105.7
step02_gravity_refstate-crust.xmf,210,-1.12612e-06,4.19692e-06,0,9.20208e-07,-7.09399e+08,-7.09034e+08,-7.09322e+08,63126.3,-0.00829081,0.119243,-0,0.119531,-31943.2,-25828.3,-0,41078.8,63126.3
step02_gravity_refstate-crust.xmf,211,-1.33624e-06,4.50236e-06,0,1.61603e-06,-7.47604e+08,-7.47204e+08,-7.47513e+08,110860,-0.0143589,0.128181,-0,0.128983,-26600.9,-27218.8,-0,38058.8,110860
step02_gravity_refstate-crust.xmf,212,-2.18216e-06,5.58295e-06,0,3.55241e-06,-8.99343e+08,-8.9881e+08,-8.99193e+08,243695,-0.0276118,0.154043,-0,0.156498,-16755.8,-32741.3,-0,36779.7,243695
step02_gravity_refstate-crust.xmf,213,-2.29681e-06,5.71804e-06,0,3.79084e-06,-9.15844e+08,-9.15295e+08,-9.15687e+08,260051,-0.0287742,0.157024,-0,0.159639,-15984,-33341.8,-0,36975.2,260051
step02_gravity_refstate-crust.xmf,214,-3.42104e-06,6.38438e-06,0,7.01964e-06,-1.02572e+09,-1.02505e+09,-1.02549e+09,481547,-0.0393639,0.198844,-0,0.202703,-10290.3,-37338.4,-0,38730.5,481547
step02_gravity_refstate-crust.xmf,215,-3.53158e-06,6.28852e-06,0,7.76029e-06,-1.0361e+09,-1.03543e+09,-1.03586e+09,532356,-0.0412083,0.208514,-0,0.212547,-9559.54,-37715.7,-0,38908.3,532356
step02_gravity_refstate-crust.xmf,216,-4.12973e-06,6.2058e-06,0,1.10541e-05,-1.08197e+09,-1.08127e+09,-1.08169e+09,758313,-0.0467104,0.246911,-0,0.251291,-7184.93,-39383.2,-0,40033.3,758313
step02_gravity_refstate-crust.xmf,217,-1.08521e-06,2.99215e-06,0,3.96378e-07,-5.09729e+08,-5.09449e+08,-5.09655e+08,27191.6,-0.00333171,0.13817,-0,0.138211,-36929.1,-18557.4,-0,41329.6,27191.6
step02_gravity_refstate-crust.xmf,218,-1.24666e-06,4.25559e-06,0,1.41492e-06,-7.12529e+08,-7.12151e+08,-7.12443e+08,97063.8,-0.0125049,0.127982,-0,0.128592,-28345.3,-25941.9,-0,38424.4,97063.8
step02_gravity_refstate-crust.xmf,219,-1.42834e-06,4.62642e-06,0,1.89363e-06,-7.65069e+08,-7.64654e+08,-7.64971e+08,129903,-0.0166633,0.132442,-0,0.133486,-24748.2,-27854.5,-0,37260.5,129903
step02_gravity_refstate-crust.xmf,220,-2.0474e-06,5.45239e-06,0,3.23043e-06,-8.80089e+08,-8.79574e+08,-8.79948e+08,221608,-0.0259071,0.149611,-0,0.151838,-17847.6,-32040.7,-0,36676.2,221608
step02_gravity_refstate-crust.xmf,221,-1.91626e-06,5.31791e-06,0,2.92663e-06,-8.60377e+08,-8.59881e+08,-8.60246e+08,200767,-0.024138,0.14535,-0,0.14734,-19025.1,-31323.4,-0,36648.4,200767
step02_gravity_refstate-crust.xmf,222,-1.78749e-06,5.16965e-06,0,2.64358e-06,-8.39399e+08,-8.38922e+08,-8.39276e+08,181349,-0.022334,0.141447,-0,0.143199,-20291.9,-30559.9,-0,36683.4,181349
step02_gravity_refstate-crust.xmf,223,-1.65927e-06,5.00012e-06,0,2.38032e-06,-8.16211e+08,-8.15754e+08,-8.16097e+08,163290,-0.0205014,0.138049,-0,0.139563,-21661.2,-29716,-0,36772.9,163290
step02_gravity_refstate-crust.xmf,224,-1.52578e-06,4.7987e-06,0,2.10424e-06,-7.888e+08,-7.88366e+08,-7.88695e+08,144351,-0.0184054,0.134718,-0,0.13597,-23310,-28718.3,-0,36987.8,144351
step02_gravity_refstate-crust.xmf,225,-2.35502e-06,5.50378e-06,0,4.54645e-06,-9.24078e+08,-9.23539e+08,-9.23916e+08,311887,-0.032362,0.170545,-0,0.173588,-14326.8,-33641,-0,36564.6,311887
step02_gravity_refstate-crust.xmf,226,-2.47206e-06,5.53353e-06,0,5.00915e-06,-9.40516e+08,-9.39967e+08,-9.40347e+08,343628,-0.0341651,0.176917,-0,0.180186,-13385.7,-34239,-0,36762.5,343628
step02_gravity_refstate-crust.xmf,227,-2.25928e-06,5.47164e-06,0,4.20269e-06,-9.10641e+08,-9.1011e+08,-9.10486e+08,288304,-0.0309071,0.16575,-0,0.168607,-15116.8,-33152.1,-0,36436,288304
step02_gravity_refstate-crust.xmf,228,-2.05898e-06,5.17215e-06,0,4.08263e-06,-8.84664e+08,-8.84168e+08,-8.84523e+08,280069,-0.0305332,0.166942,-0,0.169711,-15547.9,-32206.8,-0,35763.3,280069
step02_gravity_refstate-crust.xmf,229,-2.58666e-06,5.52891e-06,0,5.55419e-06,-9.56826e+08,-9.56269e+08,-9.56649e+08,381017,-0.0360886,0.184359,-0,0.187858,-12436,-34832.3,-0,36985.7,381017
step02_gravity_refstate-crust.xmf,230,-2.6914e-06,5.49685e-06,0,6.13001e-06,-9.71915e+08,-9.71354e+08,-9.71731e+08,420519,-0.0379141,0.192027,-0,0.195734,-11574.4,-35381.2,-0,37226.2,420519
step02_gravity_refstate-crust.xmf,231,-2.79077e-06,5.49083e-06,0,6.63573e-06,-9.85618e+08,-9.8505e+08,-9.85427e+08,455211,-0.0393761,0.198543,-0,0.20241,-10890.1,-35879.6,-0,37495.9,455211
step02_gravity_refstate-crust.xmf,232,-2.9414e-06,5.53088e-06,0,7.18664e-06,-1.00056e+09,-9.99975e+08,-1.00035e+09,493003,-0.0407344,0.204997,-0,0.209005,-10245.4,-36422.9,-0,37836.4,493003
step02_gravity_refstate-crust.xmf,233,-3.62942e-06,6.13292e-06,0,8.62298e-06,-1.04654e+09,-1.04587e+09,-1.04629e+09,591536,-0.0431343,0.219459,-0,0.223658,-8824.78,-38095.2,-0,39103.9,591536
step02_gravity_refstate-crust.xmf,234,-3.70605e-06,5.89586e-06,0,9.65976e-06,-1.05721e+09,-1.05655e+09,-1.05695e+09,662659,-0.0451613,0.23209,-0,0.236443,-8075.98,-38482.8,-0,39321,662659
step02_gravity_refstate-crust.xmf,235,-3.81337e-06,5.17165e-06,0,1.25829e-05,-1.08305e+09,-1.08243e+09,-1.08279e+09,863190,-0.0494478,0.265084,-0,0.269656,-6471.26,-39422.1,-0,39949.7,863190
step02_gravity_refstate-crust.xmf,236,-1.08541e-06,2.5824e-06,0,3.15388e-07,-4.41449e+08,-4.41197e+08,-4.41374e+08,21635.6,-0.00267165,0.144663,-0,0.144687,-37541.5,-16071,-0,40836.7,21635.6
step02_gravity_refstate-crust.xmf,237,-1.09582e-06,3.58077e-06,0,6.7496e-07,-6.07892e+08,-6.07571e+08,-6.07817e+08,46302.2,-0.00581424,0.128995,-0,0.129126,-34595.7,-22132,-0,41069.3,46302.2
step02_gravity_refstate-crust.xmf,238,-1.0903e-06,3.1827e-06,0,6.8473e-07,-5.42021e+08,-5.41727e+08,-5.41946e+08,46972.5,-0.0057539,0.13696,-0,0.137081,-34697.7,-19733.3,-0,39916.6,46972.5
step02_gravity_refstate-crust.xmf,239,-1.09166e-06,2.39852e-06,0,1.62434e-09,-4.09598e+08,-4.09359e+08,-4.09524e+08,111.43,-1.84918e-19,0.146779,-0,0.146779,-40000,-14911.1,-0,42688.9,111.43
step02_gravity_refstate-crust.xmf,240,-1.18582e-06,4.05536e-06,0,1.22314e-06,-6.82801e+08,-6.82441e+08,-6.8272e+08,83907.1,-0.0107355,0.127804,-0,0.128254,-29993.3,-24859.5,-0,38956.3,83907.1
step02_gravity_refstate-crust.xmf,241,-1.14267e-06,3.84725e-06,0,1.0425e-06,-6.50492e+08,-6.50149e+08,-6.50413e+08,71515.4,-0.00904892,0.128627,-0,0.128945,-31587.8,-23683.1,-0,39480.1,71515.4
step02_gravity_refstate-crust.xmf,242,-1.27203e-06,4.07027e-06,0,1.73678e-06,-6.87238e+08,-6.86871e+08,-6.87151e+08,119143,-0.0149136,0.137759,-0,0.138564,-26557.3,-25020.7,-0,36487.4,119143
step02_gravity_refstate-crust.xmf,243,-1.95528e-06,5.06547e-06,0,3.70648e-06,-8.63523e+08,-8.63042e+08,-8.63389e+08,254264,-0.0286187,0.161629,-0,0.164143,-16674.4,-31437.4,-0,35585.7,254264
step02_gravity_refstate-crust.xmf,244,-3.00004e-06,5.3754e-06,0,7.87481e-06,-1.01141e+09,-1.01084e+09,-1.01121e+09,540212,-0.0424104,0.213823,-0,0.217988,-9555.33,-36817.7,-0,38037.4,540212
step02_gravity_refstate-crust.xmf,245,-2.46525e-06,4.78927e-06,0,7.24206e-06,-9.77958e+08,-9.7746e+08,-9.77789e+08,496805,-0.041369,0.210104,-0,0.214138,-10187.5,-35601,-0,37029.9,496805
step02_gravity_refstate-crust.xmf,246,-3.043e-06,5.1462e-06,0,8.71367e-06,-1.02307e+09,-1.02251e+09,-1.02286e+09,597758,-0.0442424,0.224314,-0,0.228635,-8822.63,-37241.6,-0,38272.4,597758
step02_gravity_refstate-crust.xmf,247,-3.69586e-06,5.60813e-06,0,1.06215e-05,-1.06574e+09,-1.0651e+09,-1.06549e+09,728637,-0.0468741,0.243776,-0,0.248242,-7463.21,-38793.2,-0,39504.5,728637
step02_gravity_refstate-crust.xmf,248,-3.28704e-06,3.81717e-06,0,1.42572e-05,-1.08395e+09,-1.08346e+09,-1.08373e+09,978045,-0.0518535,0.284542,-0,0.289228,-5778.77,-39454.9,-0,39875.9,978045
step02_gravity_refstate-crust.xmf,249,-3.30685e-06,4.4597e-06,0,1.19922e-05,-1.06475e+09,-1.06422e+09,-1.06453e+09,822662,-0.0494009,0.260957,-0,0.265592,-6753.1,-38756.9,-0,39340.9,822662
step02_gravity_refstate-crust.xmf,250,-1.3474e-06,4.24476e-06,0,1.98132e-06,-7.15543e+08,-7.15159e+08,-7.15451e+08,135918,-0.0169892,0.139989,-0,0.141016,-24857.6,-26051.2,-0,36007.9,135918
step02_gravity_refstate-crust.xmf,251,-1.07485e-06,2.78018e-06,0,6.64171e-07,-4.75925e+08,-4.75661e+08,-4.75851e+08,45562.1,-0.00557153,0.14392,-0,0.144028,-34853.3,-17326.5,-0,38922.5,45562.1
step02_gravity_refstate-crust.xmf,252,-1.09741e-06,2.16283e-06,0,2.95016e-07,-3.69391e+08,-3.69167e+08,-3.69315e+08,20238.1,-0.00266441,0.150864,-0,0.150887,-37581.9,-13446.9,-0,39915.2,20238.1
step02_gravity_refstate-crust.xmf,253,-1.12324e-06,1.96427e-06,0,2.34909e-09,-3.32709e+08,-3.32497e+08,-3.32632e+08,161.147,-1.93883e-19,0.152889,-0,0.152889,-40000,-12111.1,-0,41793.3,161.147
step02_gravity_refstate-crust.xmf,254,-1.11755e-06,3.65571e-06,0,8.92446e-07,-6.20092e+08,-6.19765e+08,-6.20016e+08,61221.8,-0.0076524,0.130119,-0,0.130343,-32909.3,-22576.2,-0,39908.8,61221.8
step02_gravity_refstate-crust.xmf,255,-1.21038e-06,3.89338e-06,0,1.52289e-06,-6.58959e+08,-6.58609e+08,-6.58876e+08,104470,-0.0130421,0.136526,-0,0.137148,-28152.6,-23991.2,-0,36988.5,104470
step02_gravity_refstate-crust.xmf,256,-1.42674e-06,4.41761e-06,0,2.20057e-06,-7.43103e+08,-7.42702e+08,-7.43005e+08,150959,-0.0188398,0.142026,-0,0.14327,-23387.9,-27054.5,-0,35762.3,150959
step02_gravity_refstate-crust.xmf,257,-1.851e-06,4.9802e-06,0,3.37039e-06,-8.43329e+08,-8.4286e+08,-8.43202e+08,231209,-0.0267994,0.156976,-0,0.159247,-17794.3,-30702.5,-0,35486.3,231209
step02_gravity_refstate-crust.xmf,258,-1.74978e-06,4.87834e-06,0,3.06792e-06,-8.22457e+08,-8.22002e+08,-8.22337e+08,210459,-0.0250004,0.15283,-0,0.154861,-18957.5,-29942.8,-0,35439.6,210459
step02_gravity_refstate-crust.xmf,259,-1.64862e-06,4.76071e-06,0,2.77476e-06,-8.00091e+08,-7.99651e+08,-7.99978e+08,190349,-0.023097,0.148823,-0,0.150605,-20246.1,-29128.8,-0,35473.8,190349
step02_gravity_refstate-crust.xmf,260,-1.54273e-06,4.63483e-06,0,2.44642e-06,-7.74793e+08,-7.7437e+08,-7.74688e+08,167825,-0.0207902,0.14418,-0,0.145671,-21876.1,-28208.1,-0,35696.8,167825
step02_gravity_refstate-crust.xmf,261,-1.75204e-06,4.55525e-06,0,4.15799e-06,-8.46003e+08,-8.4557e+08,-8.45883e+08,285238,-0.0308857,0.174009,-0,0.176728,-15519.4,-30799.5,-0,34488.6,285238
step02_gravity_refstate-crust.xmf,262,-2.07283e-06,4.98957e-06,0,4.60284e-06,-8.94627e+08,-8.94142e+08,-8.94485e+08,315755,-0.0328359,0.175819,-0,0.178859,-14362.7,-32569.1,-0,35595.4,315755
step02_gravity_refstate-crust.xmf,263,-2.12624e-06,4.92868e-06,0,5.0765e-06,-9.10386e+08,-9.09902e+08,-9.1024e+08,348248,-0.0347412,0.182784,-0,0.186056,-13373.3,-33142.5,-0,35738.9,348248
step02_gravity_refstate-crust.xmf,264,-2.17698e-06,4.8411e-06,0,5.61403e-06,-9.26773e+08,-9.26292e+08,-9.26624e+08,385123,-0.036671,0.190348,-0,0.193849,-12408.6,-33738.8,-0,35948.3,385123
step02_gravity_refstate-crust.xmf,265,-2.21703e-06,4.71309e-06,0,6.21475e-06,-9.42993e+08,-9.42518e+08,-9.42841e+08,426332,-0.0385947,0.198552,-0,0.202268,-11484.1,-34328.9,-0,36198.9,426332
step02_gravity_refstate-crust.xmf,266,-2.22224e-06,4.50397e-06,0,6.90751e-06,-9.58368e+08,-9.57906e+08,-9.58215e+08,473855,-0.0405544,0.207852,-0,0.211772,-10578,-34888.3,-0,36456.7,473855
step02_gravity_refstate-crust.xmf,267,-2.45139e-06,4.5349e-06,0,7.88948e-06,-9.88061e+08,-9.87582e+08,-9.87893e+08,541218,-0.0429156,0.218526,-0,0.2227,-9524.82,-35968.5,-0,37208.2,541218
step02_gravity_refstate-crust.xmf,268,-3.05527e-06,4.81208e-06,0,9.72811e-06,-1.03511e+09,-1.03457e+09,-1.0349e+09,667348,-0.0461885,0.236611,-0,0.241077,-8065.45,-37679.3,-0,38532.8,667348
step02_gravity_refstate-crust.xmf,269,-2.97492e-06,4.37431e-06,0,1.09705e-05,-1.04713e+09,-1.04663e+09,-1.04693e+09,752574,-0.0482835,0.251502,-0,0.256095,-7270.89,-38116.6,-0,38803.9,752574
step02_gravity_refstate-crust.xmf,270,-2.98033e-06,3.53072e-06,0,1.34256e-05,-1.07092e+09,-1.07047e+09,-1.07071e+09,920998,-0.0512596,0.277103,-0,0.281804,-6100.37,-38981.2,-0,39455.7,920998
step02_gravity_refstate-crust.xmf,271,-2.42552e-06,1.88832e-06,0,1.61322e-05,-1.08425e+09,-1.08395e+09,-1.08408e+09,1.10667e+06,-0.0537604,0.305241,-0,0.309939,-5109.73,-39466.2,-0,39795.6,1.10667e+06
step02_gravity_refstate-crust.xmf,272,-1.07059e-06,2.36189e-06,0,6.03246e-07,-4.06467e+08,-4.06232e+08,-4.06394e+08,41382.7,-0.005216,0.149989,-0,0.15008,-35191.8,-14797.2,-0,38176.1,41382.7
step02_gravity_refstate-crust.xmf,273,-1.10388e-06,3.35702e-06,0,9.38443e-07,-5.71263e+08,-5.70957e+08,-5.71188e+08,64377.2,-0.00790781,0.136688,-0,0.136917,-32728.1,-20798.2,-0,38777.5,64377.2
step02_gravity_refstate-crust.xmf,274,-1.0754e-06,2.9607e-06,0,9.46429e-07,-5.07805e+08,-5.07529e+08,-5.07732e+08,64925.1,-0.00786865,0.143971,-0,0.144186,-32732.6,-18487.4,-0,37592.6,64925.1
step02_gravity_refstate-crust.xmf,275,-1.14917e-06,1.75022e-06,0,2.66777e-07,-2.93259e+08,-2.9306e+08,-2.9318e+08,18300.9,-0.0028,0.15629,-0,0.156315,-37579.7,-10674.5,-0,39066.4,18300.9
step02_gravity_refstate-crust.xmf,276,-1.16185e-06,3.69609e-06,0,1.34379e-06,-6.27492e+08,-6.27158e+08,-6.27412e+08,92184.1,-0.0114186,0.13671,-0,0.137186,-29580.5,-22845.5,-0,37375.4,92184.1
step02_gravity_refstate-crust.xmf,277,-1.12751e-06,3.47971e-06,0,1.16517e-06,-5.92643e+08,-5.92326e+08,-5.92565e+08,79930.7,-0.00978783,0.137596,-0,0.137944,-31033.6,-21576.6,-0,37797.2,79930.7
step02_gravity_refstate-crust.xmf,278,-1.19382e-06,3.68618e-06,0,1.80702e-06,-6.34263e+08,-6.33929e+08,-6.34182e+08,123962,-0.0150743,0.145559,-0,0.146337,-26467.6,-23091.9,-0,35125,123962
step02_gravity_refstate-crust.xmf,279,-1.24053e-06,3.81869e-06,0,2.05547e-06,-6.60426e+08,-6.60079e+08,-6.60341e+08,141005,-0.0171153,0.148231,-0,0.149216,-24820.7,-24044.4,-0,34557.2,141005
step02_gravity_refstate-crust.xmf,280,-1.69875e-06,4.55379e-06,0,3.78727e-06,-8.26687e+08,-8.26259e+08,-8.26571e+08,259807,-0.0290271,0.1686,-0,0.17108,-16606.7,-30096.6,-0,34374.2,259807
step02_gravity_refstate-crust.xmf,281,-1.76108e-06,4.50254e-06,0,4.57638e-06,-8.6285e+08,-8.6242e+08,-8.62729e+08,313939,-0.0328482,0.180803,-0,0.183763,-14415.5,-31412.8,-0,34562.5,313939
step02_gravity_refstate-crust.xmf,282,-2.39613e-06,4.17777e-06,0,8.68801e-06,-9.99167e+08,-9.98716e+08,-9.99003e+08,595997,-0.0446416,0.228832,-0,0.233146,-8796.4,-36372.5,-0,37421,595997
step02_gravity_refstate-crust.xmf,283,-1.95231e-06,3.84592e-06,0,7.73567e-06,-9.64856e+08,-9.64458e+08,-9.64722e+08,530667,-0.0426779,0.221251,-0,0.22533,-9576.99,-35124.6,-0,36406.8,530667
step02_gravity_refstate-crust.xmf,284,-2.32431e-06,3.75164e-06,0,9.62903e-06,-1.01168e+09,-1.01126e+09,-1.01152e+09,660551,-0.046409,0.240358,-0,0.244798,-8060.4,-36827.6,-0,37699.3,660551
step02_gravity_refstate-crust.xmf,285,-1.97535e-06,1.46386e-06,0,1.49731e-05,-1.06757e+09,-1.06733e+09,-1.06743e+09,1.02715e+06,-0.0529129,0.296323,-0,0.30101,-5432.37,-38860.1,-0,39237.9,1.02715e+06
step02_gravity_refstate-crust.xmf,286,-2.18098e-06,2.28479e-06,0,1.33662e-05,-1.05545e+09,-1.05514e+09,-1.0553e+09,916921,-0.0514566,0.28047,-0,0.285152,-6035.9,-38419.4,-0,38890.7,916921
step02_gravity_refstate-crust.xmf,287,-9.95885e-07,-1.05719e-06,0,1.83994e-05,-1.08423e+09,-1.08423e+09,-1.08416e+09,1.2622e+06,-0.0550005,0.329607,-0,0.334165,-4390.16,-39466.7,-0,39710.1,1.2622e+06
step02_gravity_refstate-crust.xmf,288,-1.29456e-06,3.97785e-06,0,2.34093e-06,-6.90848e+08,-6.90486e+08,-6.90759e+08,160588,-0.0194589,0.151709,-0,0.152951,-23017.7,-25151.9,-0,34094.5,160588
step02_gravity_refstate-crust.xmf,289,-1.0455e-06,2.55684e-06,0,9.1703e-07,-4.42332e+08,-4.42085e+08,-4.4226e+08,62908.3,-0.00772645,0.150395,-0,0.150593,-32809.6,-16103.3,-0,36548.3,62908.3
step02_gravity_refstate-crust.xmf,290,-1.08646e-06,1.95479e-06,0,5.56663e-07,-3.35152e+08,-3.34943e+08,-3.35077e+08,38187.1,-0.00529943,0.155553,-0,0.155643,-35227.6,-12200.2,-0,37280.4,38187.1
step02_gravity_refstate-crust.xmf,291,-1.2119e-06,1.5607e-06,0,3.26244e-09,-2.53544e+08,-2.53354e+08,-2.53461e+08,223.803,-2.16153e-19,0.157972,-0,0.157972,-40000,-9228.03,-0,41050.7,223.803
step02_gravity_refstate-crust.xmf,292,-1.16076e-06,3.58373e-06,0,1.59984e-06,-6.14244e+08,-6.13919e+08,-6.14165e+08,109749,-0.0133776,0.143437,-0,0.144059,-27889.5,-22363,-0,35748.1,109749
step02_gravity_refstate-crust.xmf,293,-1.40104e-06,4.24897e-06,0,2.46647e-06,-7.30173e+08,-7.29786e+08,-7.30077e+08,169200,-0.0206613,0.15005,-0,0.151466,-22138.4,-26583.6,-0,34594.7,169200
step02_gravity_refstate-crust.xmf,294,-1.63183e-06,4.50574e-06,0,3.46765e-06,-8.05963e+08,-8.05542e+08,-8.05851e+08,237881,-0.0272572,0.164177,-0,0.166424,-17688,-29342.2,-0,34261.2,237881
step02_gravity_refstate-crust.xmf,295,-1.56024e-06,4.43052e-06,0,3.17698e-06,-7.83845e+08,-7.83434e+08,-7.83738e+08,217941,-0.0254951,0.160312,-0,0.162327,-18811.4,-28537.2,-0,34179.5,217941
step02_gravity_refstate-crust.xmf,296,-1.49389e-06,4.34754e-06,0,2.90889e-06,-7.61768e+08,-7.61367e+08,-7.61665e+08,199550,-0.0237308,0.156712,-0,0.158498,-19983.7,-27733.6,-0,34183.4,199550
step02_gravity_refstate-crust.xmf,297,-1.45861e-06,4.04369e-06,0,4.1489e-06,-8.09774e+08,-8.09396e+08,-8.09674e+08,284615,-0.0306942,0.179963,-0,0.182562,-15484.3,-29481,-0,33300,284615
step02_gravity_refstate-crust.xmf,298,-1.45741e-06,3.96533e-06,0,4.54451e-06,-8.29477e+08,-8.29105e+08,-8.29377e+08,311754,-0.0325227,0.185929,-0,0.188752,-14415.5,-30198.2,-0,33462.5,311754
step02_gravity_refstate-crust.xmf,299,-1.77668e-06,4.36123e-06,0,5.06864e-06,-8.8003e+08,-8.79609e+08,-8.79908e+08,347709,-0.0347853,0.188011,-0,0.191202,-13363.8,-32037.9,-0,34713.4,347709
step02_gravity_refstate-crust.xmf,300,-1.76394e-06,4.20217e-06,0,5.57837e-06,-8.96279e+08,-8.9587e+08,-8.96158e+08,382677,-0.0366333,0.195547,-0,0.198949,-12392.3,-32629.3,-0,34903.3,382677
step02_gravity_refstate-crust.xmf,301,-1.73473e-06,3.99793e-06,0,6.14274e-06,-9.12601e+08,-9.12208e+08,-9.12482e+08,421392,-0.0384519,0.203599,-0,0.207198,-11465.2,-33223.3,-0,35146,421392
step02_gravity_refstate-crust.xmf,302,-1.67185e-06,3.71964e-06,0,6.77883e-06,-9.28589e+08,-9.28219e+08,-9.28474e+08,465028,-0.0402587,0.212487,-0,0.216268,-10564.6,-33805.2,-0,35417.5,465028
step02_gravity_refstate-crust.xmf,303,-1.77941e-06,3.33453e-06,0,8.52913e-06,-9.76009e+08,-9.75658e+08,-9.75887e+08,585098,-0.0443675,0.232253,-0,0.236453,-8781.05,-35530.6,-0,36599.5,585098
step02_gravity_refstate-crust.xmf,304,-1.46586e-06,3.21168e-06,0,7.48892e-06,-9.40461e+08,-9.4014e+08,-9.40361e+08,513740,-0.0419941,0.223364,-0,0.227277,-9647.06,-34237.5,-0,35570.6,513740
step02_gravity_refstate-crust.xmf,305,-2.18313e-06,3.18177e-06,0,1.07115e-05,-1.02374e+09,-1.02338e+09,-1.02359e+09,734812,-0.0481518,0.253235,-0,0.257772,-7337.45,-37266.5,-0,37982,734812
step02_gravity_refstate-crust.xmf,306,-2.45619e-06,3.07143e-06,0,1.22887e-05,-1.04908e+09,-1.0487e+09,-1.04891e+09,843004,-0.0502266,0.268238,-0,0.2729,-6544.6,-38187.7,-0,38744.4,843004
step02_gravity_refstate-crust.xmf,307,-1.09175e-06,-3.70112e-07,0,1.67275e-05,-1.0725e+09,-1.07246e+09,-1.07243e+09,1.1475e+06,-0.054045,0.315669,-0,0.320262,-4795.72,-39040.6,-0,39334.1,1.1475e+06
step02_gravity_refstate-crust.xmf,308,8.60621e-08,-3.20017e-06,0,2.03791e-05,-1.08927e+09,-1.0895e+09,-1.08928e+09,1.39801e+06,-0.0555089,0.348681,-0,0.353072,-3884.51,-39651.4,-0,39841.2,1.39801e+06
step02_gravity_refstate-crust.xmf,309,-1.03466e-06,2.15256e-06,0,8.61384e-07,-3.75239e+08,-3.7502e+08,-3.75168e+08,59090.9,-0.00764283,0.155951,-0,0.156138,-32916.1,-13660.1,-0,35638,59090.9
step02_gravity_refstate-crust.xmf,310,-1.08345e-06,3.11616e-06,0,1.21498e-06,-5.35864e+08,-5.35576e+08,-5.35789e+08,83347.8,-0.0100552,0.145098,-0,0.145446,-30741,-19509.1,-0,36409,83347.8
step02_gravity_refstate-crust.xmf,311,-1.03273e-06,2.72175e-06,0,1.20857e-06,-4.74338e+08,-4.7408e+08,-4.74267e+08,82907.7,-0.00998158,0.15177,-0,0.152098,-30679.2,-17268.8,-0,35205.5,82907.7
step02_gravity_refstate-crust.xmf,312,-1.27732e-06,1.36865e-06,0,2.2093e-07,-2.12252e+08,-2.12071e+08,-2.12165e+08,15155.8,-0.00313891,0.160899,-0,0.16093,-37567.9,-7724.21,-0,38353.8,15155.8
step02_gravity_refstate-crust.xmf,313,-1.15415e-06,1.54691e-06,0,4.96154e-07,-2.56513e+08,-2.56327e+08,-2.56433e+08,34036.1,-0.00583456,0.160717,-0,0.160823,-35101,-9336.32,-0,36321.4,34036.1
step02_gravity_refstate-crust.xmf,314,-1.39825e-06,1.2163e-06,0,3.91585e-09,-1.71888e+08,-1.71708e+08,-1.71792e+08,268.627,-2.51777e-19,0.162104,-0,0.162104,-40000,-6253.97,-0,40485.9,268.627
step02_gravity_refstate-crust.xmf,315,-1.11053e-06,3.28355e-06,0,1.50382e-06,-5.67962e+08,-5.6766e+08,-5.67885e+08,103162,-0.0123489,0.146733,-0,0.147251,-28709.3,-20677.8,-0,35380.7,103162
step02_gravity_refstate-crust.xmf,316,-1.10883e-06,3.31927e-06,0,1.8164e-06,-5.82546e+08,-5.82242e+08,-5.8247e+08,124605,-0.0148021,0.151908,-0,0.152627,-26537.5,-21208.8,-0,33971.3,124605
step02_gravity_refstate-crust.xmf,317,-1.12071e-06,3.3999e-06,0,2.07924e-06,-6.04848e+08,-6.04538e+08,-6.04771e+08,142636,-0.0168698,0.155632,-0,0.156544,-24796.3,-22020.8,-0,33162.9,142636
step02_gravity_refstate-crust.xmf,318,-1.14515e-06,3.50276e-06,0,2.34308e-06,-6.32293e+08,-6.31974e+08,-6.32215e+08,160735,-0.0189283,0.159002,-0,0.160125,-23164.8,-23020.1,-0,32657.8,160735
step02_gravity_refstate-crust.xmf,319,-1.44485e-06,4.2942e-06,0,2.66644e-06,-7.44229e+08,-7.43835e+08,-7.4413e+08,182918,-0.0220545,0.153006,-0,0.154588,-21142.2,-27095.2,-0,34367.8,182918
step02_gravity_refstate-crust.xmf,320,-1.44425e-06,4.07809e-06,0,3.81712e-06,-7.91005e+08,-7.90626e+08,-7.90906e+08,261854,-0.0290075,0.175,-0,0.177388,-16500.2,-28797.8,-0,33189.9,261854
step02_gravity_refstate-crust.xmf,321,-1.41941e-06,3.84956e-06,0,4.97243e-06,-8.47729e+08,-8.47368e+08,-8.47632e+08,341109,-0.0343415,0.19276,-0,0.195795,-13370.1,-30862.6,-0,33634.2,341109
step02_gravity_refstate-crust.xmf,322,-1.5792e-06,2.75472e-06,0,9.41295e-06,-9.88118e+08,-9.87821e+08,-9.8801e+08,645728,-0.0459777,0.243823,-0,0.24812,-8023.64,-35971.3,-0,36855.3,645728
step02_gravity_refstate-crust.xmf,323,-1.18028e-06,2.57213e-06,0,8.24857e-06,-9.51769e+08,-9.51512e+08,-9.51688e+08,565852,-0.0435525,0.234943,-0,0.238946,-8775.5,-34649.3,-0,35743.3,565852
step02_gravity_refstate-crust.xmf,324,-1.77811e-06,2.32355e-06,0,1.18802e-05,-1.03228e+09,-1.03199e+09,-1.03215e+09,814985,-0.049775,0.268245,-0,0.272824,-6612.75,-37577.4,-0,38154.8,814985
step02_gravity_refstate-crust.xmf,325,-1.34287e-06,2.08997e-06,0,1.03957e-05,-1.00073e+09,-1.0005e+09,-1.00064e+09,713148,-0.0474982,0.256001,-0,0.26037,-7309.79,-36430.5,-0,37156.6,713148
step02_gravity_refstate-crust.xmf,326,-1.30845e-06,1.11115e-06,0,1.3127e-05,-1.03939e+09,-1.03922e+09,-1.0393e+09,900511,-0.0510218,0.282883,-0,0.287448,-5980.2,-37836.4,-0,38306.1,900511
step02_gravity_refstate-crust.xmf,327,-8.00875e-07,-8.18596e-08,0,1.44751e-05,-1.04831e+09,-1.04826e+09,-1.04825e+09,992994,-0.0521229,0.297948,-0,0.302472,-5391.99,-38161.4,-0,38540.4,992994
step02_gravity_refstate-crust.xmf,328,6.16034e-07,-3.23178e-06,0,1.78102e-05,-1.0674e+09,-1.06766e+09,-1.06744e+09,1.22178e+06,-0.0537848,0.332085,-0,0.336413,-4279.35,-38857.1,-0,39092,1.22178e+06
step02_gravity_refstate-crust.xmf,329,-1.34494e-07,-1.56369e-06,0,1.60453e-05,-1.05755e+09,-1.05765e+09,-1.05754e+09,1.10071e+06,-0.0530491,0.314619,-0,0.31906,-4812.92,-38498.3,-0,38798,1.10071e+06
step02_gravity_refstate-crust.xmf,330,1.36213e-06,-4.66863e-06,0,1.96128e-05,-1.07729e+09,-1.07771e+09,-1.07739e+09,1.34544e+06,-0.0543722,0.348932,-0,0.353143,-3831.4,-39218.2,-0,39404.9,1.34544e+06
step02_gravity_refstate-crust.xmf,331,2.11718e-06,-6.74133e-06,0,2.1929e-05,-1.08702e+09,-1.08763e+09,-1.08716e+09,1.50433e+06,-0.0547645,0.366851,-0,0.370917,-3414.04,-39572.1,-0,39719.1,1.50433e+06
step02_gravity_refstate-crust.xmf,332,-1.29088e-06,3.92486e-06,0,2.67071e-06,-7.01122e+08,-7.00764e+08,-7.01034e+08,183211,-0.0217811,0.158853,-0,0.160339,-21254.3,-25525.9,-0,33216.2,183211
step02_gravity_refstate-crust.xmf,333,-9.88211e-07,2.32713e-06,0,1.16471e-06,-4.10808e+08,-4.10581e+08,-4.1074e+08,79899.3,-0.00990493,0.157658,-0,0.157969,-30652.6,-14955.5,-0,34106.4,79899.3
step02_gravity_refstate-crust.xmf,334,-1.04626e-06,1.78944e-06,0,7.97628e-07,-3.11194e+08,-3.10999e+08,-3.11122e+08,54717.3,-0.0078769,0.160579,-0,0.160772,-32903.2,-11327.9,-0,34798.6,54717.3
step02_gravity_refstate-crust.xmf,335,-1.52103e-06,1.07208e-06,0,1.51011e-07,-1.30515e+08,-1.30337e+08,-1.30411e+08,10359.3,-0.00367442,0.164504,-0,0.164545,-37616.9,-4747.03,-0,37915.2,10359.3
step02_gravity_refstate-crust.xmf,336,-1.73997e-06,9.72015e-07,0,2.34301e-09,-8.75205e+07,-8.73345e+07,-8.74012e+07,160.731,-2.9504e-19,0.16546,-0,0.16546,-40000,-3180.74,-0,40126.3,160.731
step02_gravity_refstate-crust.xmf,337,-1.14643e-06,3.56235e-06,0,2.62518e-06,-6.55945e+08,-6.55622e+08,-6.55867e+08,180087,-0.0210764,0.163766,-0,0.165117,-21495.9,-23881.2,-0,32130.8,180087
step02_gravity_refstate-crust.xmf,338,-1.31965e-06,3.93753e-06,0,2.96084e-06,-7.21157e+08,-7.20796e+08,-7.21066e+08,203113,-0.023725,0.163485,-0,0.165198,-19870.8,-26255.2,-0,32926.9,203113
step02_gravity_refstate-crust.xmf,339,-1.39386e-06,4.02897e-06,0,3.53381e-06,-7.68339e+08,-7.67967e+08,-7.68243e+08,242419,-0.0273927,0.171481,-0,0.173655,-17475.8,-27972.7,-0,32983,242419
step02_gravity_refstate-crust.xmf,340,-1.34868e-06,3.96638e-06,0,3.26151e-06,-7.43818e+08,-7.43453e+08,-7.43725e+08,223740,-0.0256729,0.168045,-0,0.169994,-18555.1,-27080.1,-0,32827.2,223740
step02_gravity_refstate-crust.xmf,341,-1.18957e-06,3.59059e-06,0,4.09628e-06,-7.75071e+08,-7.74743e+08,-7.74989e+08,281005,-0.0301566,0.185227,-0,0.187666,-15427.2,-28218,-0,32159.8,281005
step02_gravity_refstate-crust.xmf,342,-1.15613e-06,3.48667e-06,0,4.45238e-06,-7.95119e+08,-7.948e+08,-7.95039e+08,305433,-0.0318389,0.19078,-0,0.193419,-14392.8,-28947.8,-0,32328.5,305433
step02_gravity_refstate-crust.xmf,343,-1.10286e-06,3.34099e-06,0,4.84633e-06,-8.15055e+08,-8.1475e+08,-8.14979e+08,332458,-0.0335144,0.196872,-0,0.199704,-13386.1,-29673.6,-0,32553.2,332458
step02_gravity_refstate-crust.xmf,344,-1.36645e-06,3.62043e-06,0,5.46294e-06,-8.65109e+08,-8.64767e+08,-8.65015e+08,374758,-0.0360918,0.20008,-0,0.203309,-12383.1,-31495.2,-0,33842.2,374758
step02_gravity_refstate-crust.xmf,345,-1.2773e-06,3.3574e-06,0,5.98698e-06,-8.8202e+08,-8.81702e+08,-8.81932e+08,410707,-0.0377891,0.207986,-0,0.211391,-11439.5,-32110.8,-0,34087.7,410707
step02_gravity_refstate-crust.xmf,346,-1.14329e-06,3.00931e-06,0,6.56414e-06,-8.98225e+08,-8.97941e+08,-8.98147e+08,450300,-0.0394225,0.216649,-0,0.220207,-10529,-32700.8,-0,34354.1,450300
step02_gravity_refstate-crust.xmf,347,-9.26575e-07,2.52304e-06,0,7.20121e-06,-9.12988e+08,-9.12751e+08,-9.12924e+08,494003,-0.0409536,0.226466,-0,0.230139,-9629.74,-33238.4,-0,34605.2,494003
step02_gravity_refstate-crust.xmf,348,-8.72306e-07,1.87938e-06,0,9.05692e-06,-9.64066e+08,-9.63877e+08,-9.64006e+08,621304,-0.044945,0.246446,-0,0.250511,-7988.96,-35097.2,-0,35994.9,621304
step02_gravity_refstate-crust.xmf,349,-6.25051e-07,1.90239e-06,0,7.87145e-06,-9.26316e+08,-9.26143e+08,-9.26273e+08,539981,-0.0422867,0.236992,-0,0.240736,-8777.06,-33723.9,-0,34847.3,539981
step02_gravity_refstate-crust.xmf,350,-9.63749e-07,1.19367e-06,0,1.14764e-05,-1.01181e+09,-1.01167e+09,-1.01175e+09,787281,-0.0488494,0.269454,-0,0.273846,-6615.78,-36834,-0,37423.5,787281
step02_gravity_refstate-crust.xmf,351,-9.72414e-07,1.92637e-06,0,1.07968e-06,-3.43326e+08,-3.43128e+08,-3.4326e+08,74066.4,-0.00991597,0.162711,-0,0.163013,-30725.4,-12498.2,-0,33170.1,74066.4
step02_gravity_refstate-crust.xmf,352,-1.02415e-06,2.85763e-06,0,1.49522e-06,-5.02917e+08,-5.0265e+08,-5.02846e+08,102572,-0.0121894,0.154249,-0,0.15473,-28621.7,-18309.5,-0,33977,102572
step02_gravity_refstate-crust.xmf,353,-9.55946e-07,2.46056e-06,0,1.44615e-06,-4.41147e+08,-4.40913e+08,-4.41081e+08,99205.8,-0.0119273,0.160183,-0,0.160627,-28631.6,-16060.3,-0,32828.4,99205.8
step02_gravity_refstate-crust.xmf,354,-1.32938e-06,1.17746e-06,0,3.67126e-07,-1.70176e+08,-1.70004e+08,-1.70084e+08,25184.8,-0.00661115,0.164863,-0,0.164996,-35222.8,-6191.86,-0,35762.9,25184.8
step02_gravity_refstate-crust.xmf,355,-1.1223e-06,1.30482e-06,0,6.57211e-07,-2.12476e+08,-2.12309e+08,-2.12399e+08,45084.7,-0.00918229,0.166641,-0,0.166894,-32614,-7732.88,-0,33518.2,45084.7
step02_gravity_refstate-crust.xmf,356,-1.85568e-06,9.15152e-07,0,7.59307e-08,-6.20645e+07,-6.18744e+07,-6.19372e+07,5208.85,-0.00419527,0.166915,-0,0.166967,-37762.5,-2253.43,-0,37829.7,5208.85
step02_gravity_refstate-crust.xmf,357,-2.31271e-06,8.83876e-07,0,-1.59018e-08,-219423,-137.27,-60771.1,-1090.86,-2.14259e-19,0.16837,-0,0.16837,-40000,0,-0,40000,1090.86
step02_gravity_refstate-crust.xmf,358,-1.00824e-06,2.90878e-06,0,1.79568e-06,-5.23148e+08,-5.22879e+08,-5.23078e+08,123184,-0.0144175,0.15864,-0,0.159294,-26538.4,-19046.1,-0,32665.6,123184
step02_gravity_refstate-crust.xmf,359,-1.00692e-06,3.01461e-06,0,2.05786e-06,-5.51514e+08,-5.51238e+08,-5.51445e+08,141169,-0.0163993,0.161845,-0,0.162673,-24800.4,-20079,-0,31909.7,141169
step02_gravity_refstate-crust.xmf,360,-1.00228e-06,3.0922e-06,0,2.323e-06,-5.78656e+08,-5.78375e+08,-5.78587e+08,159358,-0.0183828,0.165638,-0,0.166655,-23119.8,-21067.3,-0,31278.7,159358
step02_gravity_refstate-crust.xmf,361,-9.92155e-07,3.14257e-06,0,2.59358e-06,-6.05402e+08,-6.05119e+08,-6.05334e+08,177920,-0.0203602,0.169856,-0,0.171072,-21509.4,-22041.1,-0,30797.2,177920
step02_gravity_refstate-crust.xmf,362,-1.21603e-06,3.67835e-06,0,3.80981e-06,-7.59483e+08,-7.59147e+08,-7.59399e+08,261353,-0.0287235,0.180501,-0,0.182772,-16354.1,-27650.5,-0,32124.9,261353
step02_gravity_refstate-crust.xmf,363,-1.00078e-06,3.13926e-06,0,5.2725e-06,-8.3341e+08,-8.33126e+08,-8.33342e+08,361693,-0.0351471,0.203928,-0,0.206935,-12386.5,-30341.9,-0,32772.8,361693
step02_gravity_refstate-crust.xmf,364,-5.223e-07,1.0948e-06,0,9.9479e-06,-9.77033e+08,-9.76922e+08,-9.76997e+08,682426,-0.0462251,0.258395,-0,0.262497,-7255.44,-35569.4,-0,36301.9,682426
step02_gravity_refstate-crust.xmf,365,-2.39812e-07,1.14572e-06,0,8.59189e-06,-9.39381e+08,-9.39286e+08,-9.39365e+08,589404,-0.0434444,0.248235,-0,0.252008,-7961.92,-34199.9,-0,35114.5,589404
step02_gravity_refstate-crust.xmf,366,-3.77009e-07,1.18931e-07,0,1.25658e-05,-1.02089e+09,-1.02086e+09,-1.02087e+09,862013,-0.0498923,0.283946,-0,0.288296,-5951.67,-37165.4,-0,37638.9,862013
step02_gravity_refstate-crust.xmf,367,-7.63597e-08,1.48369e-07,0,1.09163e-05,-9.8961e+08,-9.89594e+08,-9.89605e+08,748858,-0.0473392,0.271109,-0,0.275211,-6561.56,-36027.7,-0,36620.3,748858
step02_gravity_refstate-crust.xmf,368,2.95538e-07,-1.3753e-06,0,1.38108e-05,-1.02983e+09,-1.02995e+09,-1.02985e+09,947423,-0.0506651,0.298833,-0,0.303098,-5339.36,-37491.1,-0,37869.4,947423
step02_gravity_refstate-crust.xmf,369,1.0816e-06,-2.95814e-06,0,1.51517e-05,-1.03948e+09,-1.03976e+09,-1.03956e+09,1.03941e+06,-0.0512559,0.314415,-0,0.318566,-4768.16,-37843.2,-0,38142.5,1.03941e+06
step02_gravity_refstate-crust.xmf,370,3.02878e-06,-6.9233e-06,0,1.85738e-05,-1.062e+09,-1.06269e+09,-1.06221e+09,1.27416e+06,-0.0521147,0.349463,-0,0.353327,-3722.12,-38664.8,-0,38843.5,1.27416e+06
step02_gravity_refstate-crust.xmf,371,2.06555e-06,-4.93158e-06,0,1.68025e-05,-1.05043e+09,-1.05091e+09,-1.05058e+09,1.15265e+06,-0.0516898,0.332169,-0,0.336167,-4196.67,-38242.8,-0,38472.4,1.15265e+06
step02_gravity_refstate-crust.xmf,372,4.00114e-06,-8.7456e-06,0,2.0632e-05,-1.07385e+09,-1.07473e+09,-1.07413e+09,1.41535e+06,-0.0525004,0.3674,-0,0.371132,-3303.1,-39097.3,-0,39236.6,1.41535e+06
step02_gravity_refstate-crust.xmf,373,5.74893e-06,-1.22438e-05,0,2.3256e-05,-1.08355e+09,-1.08478e+09,-1.08394e+09,1.59536e+06,-0.0519941,0.388795,-0,0.392256,-2846.53,-39452,-0,39554.6,1.59536e+06
step02_gravity_refstate-crust.xmf,374,-1.13428e-06,3.55145e-06,0,2.93288e-06,-6.77068e+08,-6.76747e+08,-6.7699e+08,201195,-0.0231945,0.169427,-0,0.171007,-19880.4,-24650.3,-0,31668.1,201195
step02_gravity_refstate-crust.xmf,375,-9.03504e-07,2.07557e-06,0,1.35854e-06,-3.77785e+08,-3.77581e+08,-3.77723e+08,93196.1,-0.0117828,0.165319,-0,0.165738,-28660.5,-13753.2,-0,31789.6,93196.1
step02_gravity_refstate-crust.xmf,376,-9.83015e-07,1.545e-06,0,9.6423e-07,-2.72703e+08,-2.7253e+08,-2.72636e+08,66146.2,-0.0105183,0.167477,-0,0.167807,-30591.6,-9926.45,-0,32161.8,66146.2
step02_gravity_refstate-crust.xmf,377,-1.69291e-06,9.17427e-07,0,2.06639e-07,-7.99622e+07,-7.97831e+07,-7.98461e+07,14175.4,-0.00829388,0.168261,-0,0.168465,-35258.3,-2905.67,-0,35377.8,14175.4
step02_gravity_refstate-crust.xmf,378,-2.25123e-06,8.54604e-07,0,-9.59454e-09,-213835,-775.289,-59401.2,-658.185,-0.00714457,0.16942,-0,0.169571,-36874.5,0,-0,36874.5,658.185
step02_gravity_refstate-crust.xmf,379,-9.6097e-07,3.16245e-06,0,2.8685e-06,-6.30353e+08,-6.3007e+08,-6.30287e+08,196779,-0.0223314,0.174823,-0,0.176244,-19933.5,-22949.6,-0,30397.9,196779
step02_gravity_refstate-crust.xmf,380,-1.12257e-06,3.50815e-06,0,3.25515e-06,-6.99987e+08,-6.99669e+08,-6.9991e+08,223303,-0.0252231,0.174888,-0,0.176697,-18411.3,-25484.6,-0,31439.5,223303
step02_gravity_refstate-crust.xmf,381,-1.09489e-06,3.45704e-06,0,3.6158e-06,-7.25914e+08,-7.25601e+08,-7.25839e+08,248044,-0.0273561,0.180812,-0,0.18287,-16945.8,-26428.5,-0,31394.7,248044
step02_gravity_refstate-crust.xmf,382,-9.36976e-07,3.17002e-06,0,3.97938e-06,-7.3698e+08,-7.36698e+08,-7.36915e+08,272985,-0.0291626,0.189817,-0,0.192045,-15439.6,-26831.6,-0,30956.7,272985
step02_gravity_refstate-crust.xmf,383,-8.70558e-07,3.03982e-06,0,4.32782e-06,-7.60341e+08,-7.60072e+08,-7.60281e+08,296888,-0.0308862,0.195441,-0,0.197867,-14326.5,-27682.1,-0,31169.7,296888
step02_gravity_refstate-crust.xmf,384,-8.07687e-07,2.90809e-06,0,4.67267e-06,-7.8182e+08,-7.81565e+08,-7.81764e+08,320545,-0.0324203,0.200705,-0,0.203307,-13379.8,-28464.2,-0,31452,320545
step02_gravity_refstate-crust.xmf,385,-6.8481e-07,2.66935e-06,0,5.05509e-06,-8.00709e+08,-8.00479e+08,-8.00662e+08,346779,-0.0338806,0.207183,-0,0.209935,-12406.3,-29152,-0,31682.1,346779
step02_gravity_refstate-crust.xmf,386,-8.666e-07,2.80679e-06,0,5.74842e-06,-8.5039e+08,-8.50138e+08,-8.50331e+08,394341,-0.0366616,0.2115,-0,0.214654,-11442.6,-30960.1,-0,33007,394341
step02_gravity_refstate-crust.xmf,387,-6.80985e-07,2.41637e-06,0,6.27106e-06,-8.67681e+08,-8.67468e+08,-8.67634e+08,430195,-0.0381427,0.219912,-0,0.223195,-10507.7,-31589.8,-0,33291.5,430195
step02_gravity_refstate-crust.xmf,388,-4.34e-07,1.92099e-06,0,6.84188e-06,-8.84448e+08,-8.84286e+08,-8.84418e+08,469353,-0.0395124,0.229102,-0,0.232485,-9603.69,-32200.4,-0,33602.1,469353
step02_gravity_refstate-crust.xmf,389,-9.03288e-08,1.27628e-06,0,7.44216e-06,-8.99552e+08,-8.99459e+08,-8.99546e+08,510532,-0.0406626,0.239216,-0,0.242648,-8727.4,-32750.7,-0,33893.6,510532
step02_gravity_refstate-crust.xmf,390,2.16936e-07,2.64098e-07,0,9.36606e-06,-9.5259e+08,-9.52586e+08,-9.52604e+08,642511,-0.0444297,0.259954,-0,0.263723,-7200.17,-34681.3,-0,35420.8,642511
step02_gravity_refstate-crust.xmf,391,3.23318e-07,5.23104e-07,0,8.0562e-06,-9.13732e+08,-9.13718e+08,-9.13754e+08,552656,-0.0415812,0.249618,-0,0.253057,-7920.74,-33267.4,-0,34197.4,552656
step02_gravity_refstate-crust.xmf,392,5.21864e-07,-1.02575e-06,0,1.1923e-05,-1.00078e+09,-1.00089e+09,-1.00082e+09,817916,-0.0481641,0.284636,-0,0.288682,-5903.92,-36435,-0,36910.2,817916
step02_gravity_refstate-crust.xmf,393,5.40652e-06,-1.02397e-05,0,1.88057e-05,-1.05892e+09,-1.05999e+09,-1.05929e+09,1.29007e+06,-0.0496648,0.363753,-0,0.367127,-3258.12,-38557.1,-0,38694.5,1.29007e+06
step02_gravity_refstate-crust.xmf,394,6.97333e-06,-1.28711e-05,0,2.02804e-05,-1.0667e+09,-1.06807e+09,-1.06718e+09,1.39123e+06,-0.0488977,0.379655,-0,0.382791,-2883.57,-38842.7,-0,38949.6,1.39123e+06
step02_gravity_refstate-crust.xmf,395,-8.81573e-07,1.69613e-06,0,1.24532e-06,-3.12229e+08,-3.12052e+08,-3.12168e+08,85428.7,-0.0120022,0.169899,-0,0.170322,-28628.5,-11366.1,-0,30802.3,85428.7
step02_gravity_refstate-crust.xmf,396,-9.24133e-07,2.56183e-06,0,1.72298e-06,-4.6862e+08,-4.68381e+08,-4.68557e+08,118196,-0.0139033,0.163614,-0,0.164204,-26673,-17060.8,-0,31662.6,118196
step02_gravity_refstate-crust.xmf,397,-8.47229e-07,2.18881e-06,0,1.63744e-06,-4.09255e+08,-4.09047e+08,-4.09197e+08,112328,-0.013578,0.168722,-0,0.169268,-26675.5,-14899.3,-0,30554.4,112328
step02_gravity_refstate-crust.xmf,398,-1.02087e-06,1.24884e-06,0,8.46324e-07,-2.10705e+08,-2.1055e+08,-2.10635e+08,58057.9,-0.0118312,0.171517,-0,0.171924,-30190.3,-7668.74,-0,31149,58057.9
step02_gravity_refstate-crust.xmf,399,-1.37364e-06,1.00968e-06,0,4.19263e-07,-1.29926e+08,-1.29763e+08,-1.29832e+08,28761.4,-0.0100934,0.169101,-0,0.169402,-33243.8,-4726.1,-0,33578,28761.4
step02_gravity_refstate-crust.xmf,400,-7.89062e-07,2.76562e-06,0,2.78055e-06,-5.81609e+08,-5.81365e+08,-5.81555e+08,190746,-0.0213412,0.1802,-0,0.18146,-19907.5,-21175.2,-0,29063.6,190746
step02_gravity_refstate-crust.xmf,401,-8.97529e-07,2.63421e-06,0,2.00226e-06,-4.96071e+08,-4.95828e+08,-4.96009e+08,137355,-0.0158338,0.167551,-0,0.168297,-24799.1,-18060.4,-0,30678.5,137355
step02_gravity_refstate-crust.xmf,402,-8.69213e-07,2.70557e-06,0,2.26598e-06,-5.25002e+08,-5.24756e+08,-5.24942e+08,155446,-0.0176989,0.171497,-0,0.172408,-23073.3,-19113.9,-0,29962,155446
step02_gravity_refstate-crust.xmf,403,-8.39743e-07,2.75721e-06,0,2.5254e-06,-5.5419e+08,-5.53944e+08,-5.54133e+08,173242,-0.0195313,0.175571,-0,0.176654,-21463.3,-20176.7,-0,29458,173242
step02_gravity_refstate-crust.xmf,404,-5.08604e-07,2.37097e-06,0,5.46482e-06,-8.18806e+08,-8.18609e+08,-8.18771e+08,374887,-0.0352663,0.21453,-0,0.217409,-11435.3,-29811.1,-0,31929.1,374887
step02_gravity_refstate-crust.xmf,405,7.85329e-07,-8.13464e-07,0,1.02291e-05,-9.66013e+08,-9.66123e+08,-9.66067e+08,701719,-0.0452323,0.272697,-0,0.276423,-6461.41,-35170.6,-0,35759.2,701719
step02_gravity_refstate-crust.xmf,406,8.39824e-07,-3.89522e-07,0,8.70562e-06,-9.27598e+08,-9.27682e+08,-9.27656e+08,597206,-0.0422792,0.260783,-0,0.264188,-7143.94,-33772.9,-0,34520.2,597206
step02_gravity_refstate-crust.xmf,407,1.26886e-06,-2.29797e-06,0,1.29322e-05,-1.01111e+09,-1.01136e+09,-1.0112e+09,887149,-0.0486904,0.298676,-0,0.302619,-5292.24,-36812.1,-0,37190.6,887149
step02_gravity_refstate-crust.xmf,408,1.43277e-06,-2.03317e-06,0,1.11454e-05,-9.79674e+08,-9.79912e+08,-9.79773e+08,764576,-0.0458832,0.285758,-0,0.289418,-5790.79,-35668.7,-0,36135.7,764576
step02_gravity_refstate-crust.xmf,409,2.20175e-06,-4.11265e-06,0,1.40746e-05,-1.02097e+09,-1.0214e+09,-1.02112e+09,965518,-0.0488791,0.313679,-0,0.317464,-4704.82,-37172,-0,37468.6,965518
step02_gravity_refstate-crust.xmf,410,3.37871e-06,-6.22804e-06,0,1.53571e-05,-1.03175e+09,-1.03241e+09,-1.03199e+09,1.0535e+06,-0.0488104,0.330362,-0,0.333948,-4126.89,-37566.1,-0,37792.1,1.0535e+06
step02_gravity_refstate-crust.xmf,411,5.08535e-06,-9.16187e-06,0,1.7002e-05,-1.04428e+09,-1.04526e+09,-1.04463e+09,1.16633e+06,-0.0483294,0.350811,-0,0.354124,-3512.26,-38024.5,-0,38186.4,1.16633e+06
step02_gravity_refstate-crust.xmf,412,7.72558e-06,-1.32542e-05,0,1.7836e-05,-1.05057e+09,-1.05201e+09,-1.0511e+09,1.22355e+06,-0.0456997,0.371417,-0,0.374218,-2900.33,-38257.9,-0,38367.7,1.22355e+06
step02_gravity_refstate-crust.xmf,413,1.0521e-05,-1.95455e-05,0,2.44539e-05,-1.08565e+09,-1.08771e+09,-1.08637e+09,1.67754e+06,-0.0477165,0.414538,-0,0.417275,-2259.37,-39536.3,-0,39600.8,1.67754e+06
step02_gravity_refstate-crust.xmf,414,-9.15817e-07,3.1224e-06,0,3.16467e-06,-6.54618e+08,-6.54341e+08,-6.54555e+08,217096,-0.0242664,0.180298,-0,0.181924,-18419.7,-23833.2,-0,30121.5,217096
step02_gravity_refstate-crust.xmf,415,-7.30453e-07,2.74192e-06,0,3.05318e-06,-6.07824e+08,-6.07585e+08,-6.07773e+08,209448,-0.0231142,0.185344,-0,0.18678,-18404.8,-22129.7,-0,28783,209448
step02_gravity_refstate-crust.xmf,416,-7.87753e-07,1.8236e-06,0,1.51617e-06,-3.47202e+08,-3.47022e+08,-3.47147e+08,104009,-0.0135066,0.173305,-0,0.17383,-26653.7,-12639.9,-0,29498.9,104009
step02_gravity_refstate-crust.xmf,417,-8.89127e-07,1.35303e-06,0,1.09168e-06,-2.45558e+08,-2.45404e+08,-2.45497e+08,74889.4,-0.0128341,0.173973,-0,0.174445,-28486.7,-8938.28,-0,29856,74889.4
step02_gravity_refstate-crust.xmf,418,-1.19858e-06,9.80954e-07,0,6.10566e-07,-1.40714e+08,-1.40564e+08,-1.40631e+08,41884.8,-0.0131001,0.173347,-0,0.173841,-30661.1,-5119.49,-0,31085.6,41884.8
step02_gravity_refstate-crust.xmf,419,-1.58326e-06,8.26691e-07,0,2.77358e-07,-6.69661e+07,-6.68008e+07,-6.68575e+07,19026.7,-0.0135918,0.172745,-0,0.173279,-32286,-2432.84,-0,32377.5,19026.7
step02_gravity_refstate-crust.xmf,420,-2.0977e-06,7.9538e-07,0,-1.12729e-09,-199292,-827.194,-55390.2,-77.3324,-0.0137255,0.172392,-0,0.172938,-33847.7,0,-0,33847.7,77.3324
step02_gravity_refstate-crust.xmf,421,-8.4399e-07,2.9995e-06,0,3.47977e-06,-6.76975e+08,-6.76711e+08,-6.76917e+08,238712,-0.0261008,0.18635,-0,0.188169,-16979,-24647.2,-0,29929.4,238712
step02_gravity_refstate-crust.xmf,422,-7.07613e-07,2.78832e-06,0,3.80275e-06,-6.95797e+08,-6.95557e+08,-6.95748e+08,260869,-0.0278057,0.19373,-0,0.195716,-15519.6,-25332.6,-0,29708.6,260869
step02_gravity_refstate-crust.xmf,423,-5.42554e-07,2.54501e-06,0,4.19669e-06,-7.21641e+08,-7.21429e+08,-7.21603e+08,287893,-0.0296901,0.20172,-0,0.203894,-14012.5,-26273.8,-0,29776.9,287893
step02_gravity_refstate-crust.xmf,424,-5.68164e-07,2.57045e-06,0,4.49801e-06,-7.52328e+08,-7.52112e+08,-7.52289e+08,308564,-0.0313043,0.204029,-0,0.206416,-13331.8,-27390.9,-0,30463.1,308564
step02_gravity_refstate-crust.xmf,425,-4.17367e-07,2.30496e-06,0,4.80025e-06,-7.67866e+08,-7.67679e+08,-7.67837e+08,329297,-0.0324194,0.209852,-0,0.212342,-12441.4,-27956.8,-0,30600.2,329297
step02_gravity_refstate-crust.xmf,426,-2.06811e-07,1.94683e-06,0,5.16609e-06,-7.86037e+08,-7.85889e+08,-7.86023e+08,354393,-0.0336254,0.217086,-0,0.219675,-11435.2,-28618.6,-0,30818.7,354393
step02_gravity_refstate-crust.xmf,427,-2.8622e-07,1.92538e-06,0,5.92473e-06,-8.36379e+08,-8.36227e+08,-8.36359e+08,406437,-0.0365381,0.222503,-0,0.225483,-10496.8,-30451,-0,32209.4,406437
step02_gravity_refstate-crust.xmf,428,-6.12755e-09,1.41603e-06,0,6.42479e-06,-8.54521e+08,-8.54424e+08,-8.54521e+08,440740,-0.0377355,0.231209,-0,0.234268,-9578.8,-31111.9,-0,32553.1,440740
step02_gravity_refstate-crust.xmf,429,3.57418e-07,7.76522e-07,0,6.95663e-06,-8.71828e+08,-8.71799e+08,-8.71852e+08,477225,-0.0387429,0.240737,-0,0.243835,-8688.54,-31742.4,-0,32910,477225
step02_gravity_refstate-crust.xmf,430,7.99385e-07,2.03002e-08,0,7.48368e-06,-8.87443e+08,-8.87496e+08,-8.87498e+08,513380,-0.0394664,0.250617,-0,0.253706,-7865.4,-32311.5,-0,33255,513380
step02_gravity_refstate-crust.xmf,431,1.50438e-06,-1.52549e-06,0,9.39244e-06,-9.41293e+08,-9.415e+08,-9.41396e+08,644321,-0.0426979,0.273034,-0,0.276352,-6379.47,-34272.4,-0,34861.1,644321
step02_gravity_refstate-crust.xmf,432,1.33676e-06,-8.77449e-07,0,8.01644e-06,-9.02249e+08,-9.02401e+08,-9.02341e+08,549928,-0.0399231,0.261046,-0,0.264081,-7084.47,-32851.3,-0,33606.6,549928
step02_gravity_refstate-crust.xmf,433,2.10191e-06,-3.27176e-06,0,1.207e-05,-9.92812e+08,-9.9318e+08,-9.92956e+08,828002,-0.0464045,0.298369,-0,0.301956,-5219.94,-36147.7,-0,36522.7,828002
step02_gravity_refstate-crust.xmf,434,9.37246e-06,-1.70005e-05,0,2.16763e-05,-1.07336e+09,-1.07517e+09,-1.074e+09,1.48699e+06,-0.047018,0.397958,-0,0.400726,-2474.09,-39088.3,-0,39166.5,1.48699e+06
step02_gravity_refstate-crust.xmf,435,1.02911e-05,-1.72547e-05,0,1.89563e-05,-1.05978e+09,-1.06167e+09,-1.06048e+09,1.3004e+06,-0.0434149,0.391352,-0,0.393752,-2419.72,-38597.1,-0,38672.9,1.3004e+06
step02_gravity_refstate-crust.xmf,436,-5.62951e-07,2.37163e-06,0,2.92548e-06,-5.60026e+08,-5.59825e+08,-5.59987e+08,200688,-0.0218797,0.190142,-0,0.191397,-18335.1,-20389.7,-0,27421.1,200688
step02_gravity_refstate-crust.xmf,437,-7.60769e-07,1.46342e-06,0,1.36348e-06,-2.82338e+08,-2.82186e+08,-2.82286e+08,93535,-0.0139209,0.177408,-0,0.177953,-26577.9,-10278,-0,28496,93535
step02_gravity_refstate-crust.xmf,438,-7.92963e-07,2.27531e-06,0,1.90851e-06,-4.39183e+08,-4.38972e+08,-4.39129e+08,130924,-0.0153192,0.172725,-0,0.173403,-24771.6,-15989.2,-0,29483.7,130924
step02_gravity_refstate-crust.xmf,439,-7.06909e-07,1.91414e-06,0,1.78516e-06,-3.796e+08,-3.7942e+08,-3.79551e+08,122462,-0.0149729,0.177368,-0,0.177999,-24737.7,-13819.8,-0,28336.2,122462
step02_gravity_refstate-crust.xmf,440,-9.59841e-07,1.05909e-06,0,8.78493e-07,-1.78873e+08,-1.78735e+08,-1.78808e+08,60264.6,-0.0142798,0.176919,-0,0.177494,-28479.7,-6509.82,-0,29214.2,60264.6
step02_gravity_refstate-crust.xmf,441,-6.43222e-07,2.4244e-06,0,2.6706e-06,-5.33727e+08,-5.33516e+08,-5.33683e+08,183203,-0.0203093,0.18494,-0,0.186052,-19862.8,-19432,-0,27787.3,183203
step02_gravity_refstate-crust.xmf,442,-7.4224e-07,2.32913e-06,0,2.18543e-06,-4.69846e+08,-4.69635e+08,-4.69795e+08,149920,-0.0170501,0.177112,-0,0.17793,-22935.8,-17105.8,-0,28612.2,149920
step02_gravity_refstate-crust.xmf,443,-6.91817e-07,2.38103e-06,0,2.4322e-06,-5.01339e+08,-5.01128e+08,-5.01291e+08,166849,-0.0186818,0.181109,-0,0.18207,-21330.6,-18252.6,-0,28074,166849
step02_gravity_refstate-crust.xmf,444,5.2564e-08,1.54314e-06,0,5.55885e-06,-8.05113e+08,-8.0501e+08,-8.05116e+08,381337,-0.0347613,0.224892,-0,0.227563,-10452.8,-29313.5,-0,31121.5,381337
step02_gravity_refstate-crust.xmf,445,2.48067e-06,-3.10784e-06,0,1.01654e-05,-9.55791e+08,-9.56174e+08,-9.55961e+08,697349,-0.0426672,0.287957,-0,0.291101,-5546.36,-34801.8,-0,35240.9,697349
step02_gravity_refstate-crust.xmf,446,2.00289e-06,-1.96165e-06,0,8.54873e-06,-9.16406e+08,-9.16678e+08,-9.16543e+08,586443,-0.0400532,0.272235,-0,0.275166,-6328.02,-33367.7,-0,33962.5,586443
step02_gravity_refstate-crust.xmf,447,3.00678e-06,-4.73989e-06,0,1.2923e-05,-1.00312e+09,-1.00365e+09,-1.00333e+09,886518,-0.0463558,0.311661,-0,0.31509,-4667.1,-36524.4,-0,36821.3,886518
step02_gravity_refstate-crust.xmf,448,2.99198e-06,-4.23053e-06,0,1.11792e-05,-9.74701e+08,-9.75197e+08,-9.74907e+08,766895,-0.0436062,0.299704,-0,0.30286,-5027.43,-35490.5,-0,35844.8,766895
step02_gravity_refstate-crust.xmf,449,4.2844e-06,-6.93212e-06,0,1.38288e-05,-1.01292e+09,-1.01369e+09,-1.01321e+09,948655,-0.0457218,0.326854,-0,0.330036,-4087.19,-36882.9,-0,37108.7,948655
step02_gravity_refstate-crust.xmf,450,5.95264e-06,-9.64091e-06,0,1.47946e-05,-1.02369e+09,-1.02476e+09,-1.0241e+09,1.01491e+06,-0.044575,0.344138,-0,0.347012,-3499.39,-37277.6,-0,37441.5,1.01491e+06
step02_gravity_refstate-crust.xmf,451,8.17811e-06,-1.31134e-05,0,1.55092e-05,-1.03334e+09,-1.0348e+09,-1.0339e+09,1.06393e+06,-0.0423123,0.362855,-0,0.365314,-2911.78,-37632.6,-0,37745,1.06393e+06
step02_gravity_refstate-crust.xmf,452,1.08317e-05,-1.72249e-05,0,1.60091e-05,-1.04319e+09,-1.04512e+09,-1.04394e+09,1.09823e+06,-0.0393598,0.382086,-0,0.384108,-2378.75,-37995.6,-0,38070,1.09823e+06
step02_gravity_refstate-crust.xmf,453,1.68887e-05,-2.87527e-05,0,2.36963e-05,-1.08616e+09,-1.08929e+09,-1.08732e+09,1.62557e+06,-0.041024,0.43655,-0,0.438473,-1749.64,-39566.7,-0,39605.4,1.62557e+06
step02_gravity_refstate-crust.xmf,454,1.37345e-05,-2.31768e-05,0,2.04539e-05,-1.07107e+09,-1.0736e+09,-1.07201e+09,1.40314e+06,-0.0406012,0.414666,-0,0.416649,-1961.25,-39013.1,-0,39062.4,1.40314e+06
step02_gravity_refstate-crust.xmf,455,-6.40408e-07,2.64586e-06,0,3.33198e-06,-6.32603e+08,-6.32378e+08,-6.32559e+08,228574,-0.0248114,0.191025,-0,0.192629,-16957.2,-23032.1,-0,28601.1,228574
step02_gravity_refstate-crust.xmf,456,-4.60013e-07,2.29873e-06,0,3.17058e-06,-5.8671e+08,-5.86521e+08,-5.86679e+08,217502,-0.0233983,0.195445,-0,0.196841,-16900.4,-21361.5,-0,27238.5,217502
step02_gravity_refstate-crust.xmf,457,-6.40973e-07,1.56496e-06,0,1.62351e-06,-3.1731e+08,-3.17159e+08,-3.17266e+08,111373,-0.0150052,0.181522,-0,0.182141,-24670.9,-11551.8,-0,27241.5,111373
step02_gravity_refstate-crust.xmf,458,-7.67679e-07,1.13705e-06,0,1.15522e-06,-2.14954e+08,-2.14824e+08,-2.14902e+08,79247.9,-0.0151083,0.181033,-0,0.181662,-26430.2,-7824.28,-0,27564,79247.9
step02_gravity_refstate-crust.xmf,459,-1.04895e-06,8.42498e-07,0,6.45815e-07,-1.20744e+08,-1.20614e+08,-1.20672e+08,44302.9,-0.0164888,0.179348,-0,0.180104,-28314.7,-4392.88,-0,28653.4,44302.9
step02_gravity_refstate-crust.xmf,460,-1.35812e-06,7.36497e-07,0,3.59461e-07,-6.55565e+07,-6.54128e+07,-6.54633e+07,24659,-0.0177573,0.178178,-0,0.179061,-29498.2,-2382.3,-0,29594.2,24659
step02_gravity_refstate-crust.xmf,461,-1.84262e-06,6.99079e-07,0,1.08762e-10,-175040,-680.111,-48636.9,7.4611,-0.0195226,0.177017,-0,0.17809,-30911.6,0,-0,30911.6,7.4611
step02_gravity_refstate-crust.xmf,462,-4.34967e-07,2.08367e-06,0,2.76659e-06,-5.13625e+08,-5.13453e+08,-5.13596e+08,189788,-0.0206293,0.193685,-0,0.194781,-18379.3,-18700.5,-0,26220.4,189788
step02_gravity_refstate-crust.xmf,463,-5.10455e-07,2.45199e-06,0,3.62176e-06,-6.55005e+08,-6.54802e+08,-6.5497e+08,248453,-0.0263656,0.197398,-0,0.199151,-15554.3,-23847.8,-0,28472,248453
step02_gravity_refstate-crust.xmf,464,-3.26032e-07,2.19395e-06,0,3.9191e-06,-6.76965e+08,-6.76792e+08,-6.76942e+08,268851,-0.0278046,0.204568,-0,0.206449,-14154.4,-24647.6,-0,28422.8,268851
step02_gravity_refstate-crust.xmf,465,-2.01376e-07,2.02361e-06,0,4.5063e-06,-7.32386e+08,-7.32234e+08,-7.32373e+08,309132,-0.0307183,0.211939,-0,0.214153,-12528.2,-26665.6,-0,29462,309132
step02_gravity_refstate-crust.xmf,466,2.19987e-05,-3.75329e-05,0,2.36956e-05,-1.09787e+09,-1.10196e+09,-1.09938e+09,1.62552e+06,-0.0382599,0.461442,-0,0.463025,-1499.28,-40000,-0,40028.1,1.62552e+06
step02_gravity_refstate-crust.xmf,467,4.29977e-08,1.62726e-06,0,4.83383e-06,-7.51854e+08,-7.51746e+08,-7.51857e+08,331601,-0.0318027,0.219166,-0,0.221462,-11451.9,-27374.7,-0,29673.6,331601
step02_gravity_refstate-crust.xmf,468,3.42054e-07,1.15497e-06,0,5.19e-06,-7.72482e+08,-7.72426e+08,-7.72505e+08,356034,-0.0327889,0.227076,-0,0.229431,-10386.7,-28126.1,-0,29982.7,356034
step02_gravity_refstate-crust.xmf,469,3.55413e-07,9.96189e-07,0,5.99867e-06,-8.24607e+08,-8.24563e+08,-8.24631e+08,411509,-0.0357935,0.233103,-0,0.235835,-9524.23,-30023.6,-0,31498.1,411509
step02_gravity_refstate-crust.xmf,470,7.33511e-07,3.68119e-07,0,6.45414e-06,-8.43449e+08,-8.43474e+08,-8.43499e+08,442754,-0.036634,0.242011,-0,0.244768,-8628.71,-30710.1,-0,31899.3,442754
step02_gravity_refstate-crust.xmf,471,1.19171e-06,-3.77701e-07,0,6.89063e-06,-8.6019e+08,-8.60298e+08,-8.60272e+08,472697,-0.0371538,0.251299,-0,0.25403,-7794.62,-31320.3,-0,32275.7,472697
step02_gravity_refstate-crust.xmf,472,1.72411e-06,-1.23336e-06,0,7.32175e-06,-8.762e+08,-8.76403e+08,-8.76318e+08,502272,-0.0374256,0.260923,-0,0.263594,-7016.09,-31904,-0,32666.4,502272
step02_gravity_refstate-crust.xmf,473,2.85069e-06,-3.2964e-06,0,9.05006e-06,-9.29716e+08,-9.30138e+08,-9.29912e+08,620834,-0.0397132,0.284384,-0,0.287144,-5580.12,-33853.7,-0,34310.5,620834
step02_gravity_refstate-crust.xmf,474,2.37088e-06,-2.24926e-06,0,7.73594e-06,-8.91434e+08,-8.91751e+08,-8.91596e+08,530685,-0.0373675,0.271178,-0,0.273741,-6264.63,-32459.6,-0,33058.6,530685
step02_gravity_refstate-crust.xmf,475,3.52776e-06,-5.20921e-06,0,1.19602e-05,-9.87965e+08,-9.88564e+08,-9.88207e+08,820471,-0.0441516,0.309431,-0,0.312565,-4641.93,-35974,-0,36272.3,820471
step02_gravity_refstate-crust.xmf,476,1.40167e-05,-2.21784e-05,0,1.61852e-05,-1.0532e+09,-1.05568e+09,-1.05416e+09,1.1103e+06,-0.0354681,0.402292,-0,0.403853,-1883.54,-38365.1,-0,38411.3,1.1103e+06
step02_gravity_refstate-crust.xmf,477,-3.0774e-07,1.97407e-06,0,2.99468e-06,-5.39763e+08,-5.39606e+08,-5.39742e+08,205435,-0.0219396,0.199382,-0,0.200585,-16843.5,-19652.4,-0,25882.8,205435
step02_gravity_refstate-crust.xmf,478,-6.05472e-07,1.22662e-06,0,1.43436e-06,-2.537e+08,-2.53574e+08,-2.53658e+08,98397.2,-0.0156741,0.185243,-0,0.185905,-24521.4,-9235.64,-0,26203,98397.2
step02_gravity_refstate-crust.xmf,479,-6.25689e-07,1.97425e-06,0,2.04664e-06,-4.10713e+08,-4.10535e+08,-4.1067e+08,140400,-0.0164218,0.182008,-0,0.182748,-22865.1,-14953,-0,27320.4,140400
step02_gravity_refstate-crust.xmf,480,-5.36736e-07,1.63581e-06,0,1.8825e-06,-3.51448e+08,-3.51299e+08,-3.51411e+08,129139,-0.0160759,0.186053,-0,0.186747,-22819.1,-12795.2,-0,26161.6,129139
step02_gravity_refstate-crust.xmf,481,-8.30649e-07,8.62112e-07,0,8.80736e-07,-1.48048e+08,-1.47932e+08,-1.47991e+08,60418.5,-0.0171946,0.18363,-0,0.184433,-26373.8,-5387.82,-0,26918.5,60418.5
step02_gravity_refstate-crust.xmf,482,-5.30818e-07,2.15256e-06,0,2.56294e-06,-4.92264e+08,-4.9208e+08,-4.92228e+08,175818,-0.0194459,0.188715,-0,0.189714,-19793.5,-17922.6,-0,26702,175818
step02_gravity_refstate-crust.xmf,483,-5.2709e-07,2.00219e-06,0,2.3476e-06,-4.47719e+08,-4.47545e+08,-4.47683e+08,161045,-0.0180936,0.187752,-0,0.188622,-20779.4,-16300.6,-0,26410.1,161045
step02_gravity_refstate-crust.xmf,484,-7.69584e-08,1.84885e-06,0,4.21248e-06,-6.97311e+08,-6.97179e+08,-6.97306e+08,288976,-0.0289979,0.212525,-0,0.214494,-12780.6,-25388.8,-0,28424.2,288976
step02_gravity_refstate-crust.xmf,485,2.23484e-05,-3.6927e-05,0,1.80748e-05,-1.08587e+09,-1.08994e+09,-1.08741e+09,1.23993e+06,-0.031007,0.455227,-0,0.456281,-1239.63,-39565.6,-0,39585,1.23993e+06
step02_gravity_refstate-crust.xmf,486,6.72576e-07,6.66137e-07,0,5.54242e-06,-7.93008e+08,-7.93009e+08,-7.93054e+08,380210,-0.0336292,0.234925,-0,0.23732,-9433.1,-28874,-0,30375.8,380210
step02_gravity_refstate-crust.xmf,487,3.83578e-06,-5.06436e-06,0,1.02927e-05,-9.58971e+08,-9.59582e+08,-9.59234e+08,706079,-0.0405756,0.301967,-0,0.304681,-4750.52,-34920,-0,35241.6,706079
step02_gravity_refstate-crust.xmf,488,3.93446e-06,-4.94582e-06,0,9.409e-06,-9.41201e+08,-9.4181e+08,-9.41471e+08,645457,-0.0385852,0.297437,-0,0.299929,-4829.79,-34273.6,-0,34612.3,645457
step02_gravity_refstate-crust.xmf,489,3.17236e-06,-3.48094e-06,0,8.09643e-06,-9.05616e+08,-9.06073e+08,-9.05834e+08,555415,-0.0368255,0.282237,-0,0.284629,-5521.61,-32977.3,-0,33436.4,555415
step02_gravity_refstate-crust.xmf,490,4.78122e-06,-7.09895e-06,0,1.24307e-05,-9.94879e+08,-9.95694e+08,-9.95207e+08,852748,-0.0428465,0.322443,-0,0.325277,-4077.69,-36227.9,-0,36456.7,852748
step02_gravity_refstate-crust.xmf,491,4.78038e-06,-6.655e-06,0,1.10736e-05,-9.74308e+08,-9.75093e+08,-9.74636e+08,759651,-0.0404244,0.314565,-0,0.317152,-4217.5,-35479.7,-0,35729.5,759651
step02_gravity_refstate-crust.xmf,492,6.48674e-06,-9.78879e-06,0,1.29638e-05,-1.00501e+09,-1.00613e+09,-1.00546e+09,889320,-0.0410791,0.338391,-0,0.340875,-3462.77,-36599.5,-0,36763,889320
step02_gravity_refstate-crust.xmf,493,8.46776e-06,-1.28291e-05,0,1.33646e-05,-1.01556e+09,-1.01703e+09,-1.01615e+09,916813,-0.0387275,0.355029,-0,0.357135,-2888.74,-36987.1,-0,37099.7,916813
step02_gravity_refstate-crust.xmf,494,1.08902e-05,-1.64937e-05,0,1.34357e-05,-1.02597e+09,-1.02785e+09,-1.02672e+09,921689,-0.0354191,0.372573,-0,0.374253,-2335.56,-37370.1,-0,37443,921689
step02_gravity_refstate-crust.xmf,495,1.37866e-05,-2.08429e-05,0,1.29878e-05,-1.03639e+09,-1.03877e+09,-1.03734e+09,890964,-0.0310442,0.390861,-0,0.392092,-1810.41,-37754.3,-0,37797.7,890964
step02_gravity_refstate-crust.xmf,496,1.84762e-05,-3.00354e-05,0,1.8563e-05,-1.07549e+09,-1.07882e+09,-1.07676e+09,1.27342e+06,-0.0342417,0.434307,-0,0.435654,-1499.01,-39182.5,-0,39211.2,1.27342e+06
step02_gravity_refstate-crust.xmf,497,-3.24707e-07,2.14623e-06,0,3.42262e-06,-6.11998e+08,-6.11828e+08,-6.11975e+08,234792,-0.0248148,0.201262,-0,0.202786,-15508.2,-22282.4,-0,27147.9,234792
step02_gravity_refstate-crust.xmf,498,-1.5926e-07,1.84249e-06,0,3.21595e-06,-5.67093e+08,-5.66956e+08,-5.67082e+08,220614,-0.0231938,0.205061,-0,0.206368,-15407.4,-20647.8,-0,25762.7,220614
step02_gravity_refstate-crust.xmf,499,-4.66709e-07,1.31091e-06,0,1.68056e-06,-2.89576e+08,-2.89454e+08,-2.89544e+08,115287,-0.0162404,0.189729,-0,0.190423,-22715.5,-10542.5,-0,25042.8,115287
step02_gravity_refstate-crust.xmf,500,-5.62841e-07,8.86324e-07,0,1.16999e-06,-1.82114e+08,-1.82015e+08,-1.82076e+08,80261,-0.0176355,0.189789,-0,0.190606,-23967,-6629.15,-0,24866.9,80261
step02_gravity_refstate-crust.xmf,501,-1.02096e-06,6.33989e-07,0,5.00684e-07,-7.41017e+07,-7.39881e+07,-7.40316e+07,34346.9,-0.0207611,0.185179,-0,0.18634,-26542.3,-2694.6,-0,26678.8,34346.9
step02_gravity_refstate-crust.xmf,502,-1.50741e-06,5.71076e-07,0,1.8147e-09,-143232,-648.25,-39824.1,124.489,-0.0243228,0.182991,-0,0.1846,-28058.3,0,-0,28058.3,124.489
step02_gravity_refstate-crust.xmf,503,-1.84751e-07,1.70664e-06,0,2.79586e-06,-4.91408e+08,-4.91279e+08,-4.91396e+08,191796,-0.0205096,0.202676,-0,0.203711,-16832.3,-17892.1,-0,24565.3,191796
step02_gravity_refstate-crust.xmf,504,-3.46291e-07,1.83899e-06,0,2.57785e-06,-4.64911e+08,-4.64761e+08,-4.64887e+08,176840,-0.0193694,0.196058,-0,0.197012,-18615.2,-16927,-0,25160.5,176840
step02_gravity_refstate-crust.xmf,505,-1.48509e-07,1.90217e-06,0,3.67537e-06,-6.3535e+08,-6.35209e+08,-6.35339e+08,252130,-0.0260552,0.207567,-0,0.209196,-14170.6,-23132.9,-0,27128.1,252130
step02_gravity_refstate-crust.xmf,506,8.31203e-08,1.59144e-06,0,3.92211e-06,-6.57834e+08,-6.5773e+08,-6.57839e+08,269057,-0.0271107,0.214518,-0,0.216224,-12849.1,-23951.9,-0,27180.8,269057
step02_gravity_refstate-crust.xmf,507,2.28767e-07,1.40291e-06,0,4.48744e-06,-7.15987e+08,-7.15906e+08,-7.16002e+08,307838,-0.0298613,0.220691,-0,0.222702,-11508.2,-26069.3,-0,28496.4,307838
step02_gravity_refstate-crust.xmf,508,2.51071e-05,-4.39534e-05,0,1.57621e-05,-1.0978e+09,-1.10254e+09,-1.09952e+09,1.08128e+06,-0.0264785,0.480217,-0,0.480947,-999.317,-40000,-0,40012.5,1.08128e+06
step02_gravity_refstate-crust.xmf,509,5.79884e-07,8.73322e-07,0,4.76671e-06,-7.36034e+08,-7.36014e+08,-7.36074e+08,326996,-0.0305492,0.228814,-0,0.230844,-10339.2,-26799.7,-0,28725,326996
step02_gravity_refstate-crust.xmf,510,1.00896e-06,2.45901e-07,0,5.05745e-06,-7.57637e+08,-7.57689e+08,-7.57706e+08,346941,-0.0310334,0.23762,-0,0.239638,-9188.96,-27587,-0,29077.1,346941
step02_gravity_refstate-crust.xmf,511,1.04201e-06,4.7274e-08,0,5.92825e-06,-8.13421e+08,-8.13489e+08,-8.13493e+08,406678,-0.0343332,0.242981,-0,0.245394,-8556.87,-29617.7,-0,30829,406678
step02_gravity_refstate-crust.xmf,512,1.52676e-06,-7.10335e-07,0,6.28795e-06,-8.31541e+08,-8.31694e+08,-8.31646e+08,431353,-0.0346284,0.252019,-0,0.254387,-7676.41,-30278.2,-0,31236.1,431353
step02_gravity_refstate-crust.xmf,513,2.04108e-06,-1.5233e-06,0,6.64405e-06,-8.49612e+08,-8.49856e+08,-8.49752e+08,455782,-0.0348112,0.260864,-0,0.263176,-6905.57,-30936.9,-0,31698.2,455782
step02_gravity_refstate-crust.xmf,514,1.25445e-06,-1.43632e-07,0,5.44622e-06,-7.84794e+08,-7.8489e+08,-7.8488e+08,373611,-0.0321467,0.243555,-0,0.245667,-8489,-28576.1,-0,29810.3,373611
step02_gravity_refstate-crust.xmf,515,2.63083e-06,-2.42249e-06,0,6.97792e-06,-8.66551e+08,-8.66898e+08,-8.66732e+08,478686,-0.0347159,0.270009,-0,0.272232,-6185.95,-31554.6,-0,32155.2,478686
step02_gravity_refstate-crust.xmf,516,5.14378e-06,-6.76128e-06,0,9.68102e-06,-9.52722e+08,-9.53538e+08,-9.53074e+08,664118,-0.0369936,0.310568,-0,0.312764,-4139.29,-34695.1,-0,34941.2,664118
step02_gravity_refstate-crust.xmf,517,4.13117e-06,-4.92783e-06,0,8.36244e-06,-9.18807e+08,-9.19428e+08,-9.1909e+08,573663,-0.0357302,0.293831,-0,0.295995,-4801.08,-33459.2,-0,33801.9,573663
step02_gravity_refstate-crust.xmf,518,3.37399e-06,-3.53338e-06,0,7.21003e-06,-8.81e+08,-8.81473e+08,-8.81231e+08,494608,-0.0339904,0.279897,-0,0.281953,-5456.99,-32081.8,-0,32542.6,494608
step02_gravity_refstate-crust.xmf,519,1.79263e-05,-2.83674e-05,0,1.5158e-05,-1.06238e+09,-1.06556e+09,-1.06361e+09,1.03984e+06,-0.0299182,0.422941,-0,0.423998,-1408.96,-38705.6,-0,38731.3,1.03984e+06
step02_gravity_refstate-crust.xmf,520,1.70368e-05,-2.60441e-05,0,1.173e-05,-1.04651e+09,-1.04947e+09,-1.04768e+09,804677,-0.02526,0.409483,-0,0.410261,-1309.29,-38127.9,-0,38150.3,804677
step02_gravity_refstate-crust.xmf,521,2.22176e-05,-3.51156e-05,0,1.19998e-05,-1.07238e+09,-1.07632e+09,-1.07391e+09,823190,-0.0223396,0.445346,-0,0.445906,-940.932,-39076.7,-0,39088,823190
step02_gravity_refstate-crust.xmf,522,-9.71616e-09,1.54301e-06,0,2.99967e-06,-5.20055e+08,-5.19949e+08,-5.20055e+08,205777,-0.0215556,0.208863,-0,0.209972,-15232.4,-18935.5,-0,24301.8,205777
step02_gravity_refstate-crust.xmf,523,-4.18628e-07,1.02584e-06,0,1.45719e-06,-2.31552e+08,-2.31453e+08,-2.31523e+08,99963.1,-0.0170613,0.192786,-0,0.193539,-22545.1,-8429.78,-0,24069.5,99963.1
step02_gravity_refstate-crust.xmf,524,-4.21502e-07,1.65697e-06,0,2.13219e-06,-3.8318e+08,-3.83037e+08,-3.83151e+08,146268,-0.0171826,0.19146,-0,0.19223,-20917.9,-13950.9,-0,25143.3,146268
step02_gravity_refstate-crust.xmf,525,-3.36798e-07,1.34922e-06,0,1.92103e-06,-3.23105e+08,-3.2299e+08,-3.23082e+08,131783,-0.0168667,0.194816,-0,0.195545,-20895.5,-11763.7,-0,23979.3,131783
step02_gravity_refstate-crust.xmf,526,-6.73997e-07,6.77929e-07,0,8.25316e-07,-1.20247e+08,-1.20154e+08,-1.20201e+08,56616.7,-0.0198511,0.189903,-0,0.190938,-24499.4,-4376.04,-0,24887.1,56616.7
step02_gravity_refstate-crust.xmf,527,3.63526e-07,1.21736e-06,0,4.15555e-06,-6.79226e+08,-6.79167e+08,-6.79251e+08,285070,-0.027912,0.221819,-0,0.223569,-11592.1,-24731.2,-0,27313.2,285070
step02_gravity_refstate-crust.xmf,528,2.50769e-05,-4.15899e-05,0,1.11128e-05,-1.08582e+09,-1.09039e+09,-1.08754e+09,762338,-0.0194009,0.467969,-0,0.468371,-749.574,-39567.4,-0,39574.5,762338
step02_gravity_refstate-crust.xmf,529,1.4508e-06,-3.83076e-07,0,5.0813e-06,-7.62904e+08,-7.6303e+08,-7.63004e+08,348577,-0.030309,0.244983,-0,0.246851,-8296.15,-27779.6,-0,28991.9,348577
step02_gravity_refstate-crust.xmf,530,5.24847e-06,-6.59353e-06,0,8.52024e-06,-9.31751e+08,-9.32563e+08,-9.32111e+08,584488,-0.0341076,0.305874,-0,0.30777,-4110.93,-33932.4,-0,34180.5,584488
step02_gravity_refstate-crust.xmf,531,4.26427e-06,-4.85531e-06,0,7.36928e-06,-8.95345e+08,-8.95971e+08,-8.95638e+08,505533,-0.0327666,0.290549,-0,0.292391,-4730.27,-32605.7,-0,32947,505533
step02_gravity_refstate-crust.xmf,532,6.81624e-06,-9.73232e-06,0,1.13039e-05,-9.8645e+08,-9.87585e+08,-9.86917e+08,775447,-0.0375522,0.333161,-0,0.335271,-3393.41,-35925.2,-0,36085.1,775447
step02_gravity_refstate-crust.xmf,533,8.59182e-06,-1.2395e-05,0,1.14065e-05,-9.97238e+08,-9.98678e+08,-9.97828e+08,782484,-0.0350642,0.347689,-0,0.349452,-2835.64,-36321,-0,36431.5,782484
step02_gravity_refstate-crust.xmf,534,1.07049e-05,-1.55514e-05,0,1.12125e-05,-1.00823e+09,-1.01003e+09,-1.00896e+09,769181,-0.0316523,0.363282,-0,0.364658,-2282.46,-36724.8,-0,36795.6,769181
step02_gravity_refstate-crust.xmf,535,1.31914e-05,-1.92372e-05,0,1.0476e-05,-1.01914e+09,-1.02136e+09,-1.02004e+09,718652,-0.0270904,0.379568,-0,0.380533,-1741.23,-37126.3,-0,37167.1,718652
step02_gravity_refstate-crust.xmf,536,1.59416e-05,-2.33366e-05,0,8.91611e-06,-1.0297e+09,-1.0324e+09,-1.03079e+09,611645,-0.021183,0.395901,-0,0.396468,-1218.93,-37515.7,-0,37535.5,611645
step02_gravity_refstate-crust.xmf,537,1.06323e-08,1.64911e-06,0,3.43392e-06,-5.93491e+08,-5.93378e+08,-5.93492e+08,235567,-0.0243152,0.210719,-0,0.212117,-14093.6,-21609.2,-0,25799,235567
step02_gravity_refstate-crust.xmf,538,1.55538e-07,1.39117e-06,0,3.18373e-06,-5.48755e+08,-5.4867e+08,-5.48766e+08,218404,-0.0225086,0.213987,-0,0.215167,-13945.4,-19980.8,-0,24366.1,218404
step02_gravity_refstate-crust.xmf,539,-2.72313e-07,1.05415e-06,0,1.66798e-06,-2.60036e+08,-2.59945e+08,-2.60017e+08,114424,-0.017201,0.197669,-0,0.198416,-20865.9,-9467.39,-0,22913.3,114424
step02_gravity_refstate-crust.xmf,540,-2.62739e-07,7.50738e-07,0,1.32868e-06,-1.87453e+08,-1.87384e+08,-1.87435e+08,91147.3,-0.0186583,0.199343,-0,0.200215,-21064.5,-6824.52,-0,22142.5,91147.3
step02_gravity_refstate-crust.xmf,541,-4.30807e-07,5.93834e-07,0,9.37816e-07,-1.25677e+08,-1.25607e+08,-1.25647e+08,64334.1,-0.0207139,0.19627,-0,0.19736,-22431.5,-4574.57,-0,22893.2,64334.1
step02_gravity_refstate-crust.xmf,542,-6.87094e-07,4.6702e-07,0,5.03158e-07,-6.38259e+07,-6.37467e+07,-6.37788e+07,34516.7,-0.0238376,0.193336,-0,0.1948,-23753.8,-2321.59,-0,23867,34516.7
step02_gravity_refstate-crust.xmf,543,-1.11061e-06,4.2098e-07,0,5.96757e-09,-105519,-452.076,-29331.3,409.375,-0.0279727,0.189995,-0,0.192043,-25280.2,0,-0,25280.2,409.375
step02_gravity_refstate-crust.xmf,544,-2.84321e-07,1.61523e-06,0,2.36289e-06,-4.12126e+08,-4.11996e+08,-4.12107e+08,162094,-0.0182317,0.197651,-0,0.19849,-19004.8,-15005.2,-0,24214.4,162094
step02_gravity_refstate-crust.xmf,545,1.07138e-07,1.29787e-06,0,2.75849e-06,-4.69232e+08,-4.6915e+08,-4.69239e+08,189233,-0.0199352,0.212065,-0,0.213,-15114.3,-17085.3,-0,22811.2,189233
step02_gravity_refstate-crust.xmf,546,-9.23078e-08,1.47056e-06,0,2.57818e-06,-4.40145e+08,-4.40038e+08,-4.40139e+08,176863,-0.0191796,0.205242,-0,0.206136,-16917.6,-16025.8,-0,23303.1,176863
step02_gravity_refstate-crust.xmf,547,2.32093e-07,1.3554e-06,0,3.63779e-06,-6.17096e+08,-6.17019e+08,-6.17112e+08,249552,-0.0251944,0.21697,-0,0.218427,-12806.7,-22469,-0,25862.5,249552
step02_gravity_refstate-crust.xmf,548,5.0343e-07,1.00122e-06,0,3.82453e-06,-6.39779e+08,-6.39745e+08,-6.39813e+08,262363,-0.0258439,0.223634,-0,0.225122,-11556.4,-23295.4,-0,26004.3,262363
step02_gravity_refstate-crust.xmf,549,7.19935e-07,7.17063e-07,0,4.36523e-06,-6.99108e+08,-6.99108e+08,-6.99157e+08,299455,-0.0283596,0.229737,-0,0.231481,-10357.1,-25455.7,-0,27482.1,299455
step02_gravity_refstate-crust.xmf,550,2.67884e-05,-4.73272e-05,0,7.89246e-06,-1.09776e+09,-1.10284e+09,-1.09959e+09,541423,-0.0135192,0.491552,-0,0.491738,-499.831,-40000,-0,40003.1,541423
step02_gravity_refstate-crust.xmf,551,1.14049e-06,1.16798e-07,0,4.55699e-06,-7.19539e+08,-7.19609e+08,-7.19617e+08,312609,-0.0285413,0.237833,-0,0.239539,-9193.92,-26200.3,-0,27766.6,312609
step02_gravity_refstate-crust.xmf,552,2.81368e-06,-2.5234e-06,0,6.33737e-06,-8.44662e+08,-8.45028e+08,-8.44855e+08,434744,-0.0323725,0.269163,-0,0.271103,-6081.4,-30758.2,-0,31353.7,434744
step02_gravity_refstate-crust.xmf,553,1.77099e-06,-9.19668e-07,0,5.67665e-06,-8.01633e+08,-8.01817e+08,-8.01754e+08,389418,-0.0320442,0.252187,-0,0.254215,-7568.42,-29190,-0,30155.2,389418
step02_gravity_refstate-crust.xmf,554,2.48083e-06,-1.94555e-06,0,5.9014e-06,-8.21171e+08,-8.21475e+08,-8.21341e+08,404836,-0.0314858,0.262809,-0,0.264689,-6535.73,-29902.6,-0,30608.5,404836
step02_gravity_refstate-crust.xmf,555,1.90543e-06,-1.0172e-06,0,5.10759e-06,-7.71072e+08,-7.71272e+08,-7.71203e+08,350381,-0.0295318,0.251921,-0,0.253646,-7474.87,-28077.8,-0,29055.7,350381
step02_gravity_refstate-crust.xmf,556,1.61739e-06,-5.71041e-07,0,4.73324e-06,-7.3969e+08,-7.3984e+08,-7.39801e+08,324700,-0.0283451,0.246318,-0,0.247943,-8074.9,-26934.8,-0,28119.2,324700
step02_gravity_refstate-crust.xmf,557,6.59784e-06,-8.9831e-06,0,9.89752e-06,-9.6567e+08,-9.66739e+08,-9.66123e+08,678970,-0.0349433,0.324705,-0,0.32658,-3474.4,-35169,-0,35340.2,678970
step02_gravity_refstate-crust.xmf,558,3.47378e-06,-3.48341e-06,0,6.4145e-06,-8.564e+08,-8.56877e+08,-8.56638e+08,440035,-0.0313198,0.277475,-0,0.279237,-5391.04,-31186.8,-0,31649.3,440035
step02_gravity_refstate-crust.xmf,559,6.53175e-06,-8.51759e-06,0,8.55013e-06,-9.4461e+08,-9.45642e+08,-9.45058e+08,586539,-0.0318424,0.318478,-0,0.320065,-3441.45,-34402.7,-0,34574.4,586539
step02_gravity_refstate-crust.xmf,560,5.2788e-06,-6.34736e-06,0,7.4064e-06,-9.09054e+08,-9.09851e+08,-9.09416e+08,508079,-0.031018,0.301463,-0,0.303054,-4037.34,-33106.5,-0,33351.8,508079
step02_gravity_refstate-crust.xmf,561,4.29611e-06,-4.68046e-06,0,6.45817e-06,-8.70936e+08,-8.71551e+08,-8.7123e+08,443031,-0.0298945,0.287166,-0,0.288718,-4652.53,-31717.4,-0,32056.8,443031
step02_gravity_refstate-crust.xmf,562,2.04279e-05,-3.15145e-05,0,8.91917e-06,-1.05607e+09,-1.05964e+09,-1.05748e+09,611855,-0.0177432,0.427565,-0,0.427933,-827.876,-38481.3,-0,38490.2,611855
step02_gravity_refstate-crust.xmf,563,1.86715e-05,-2.793e-05,0,6.37425e-06,-1.04005e+09,-1.04325e+09,-1.04133e+09,437274,-0.0138126,0.411725,-0,0.411957,-717.382,-37896.4,-0,37903.2,437274
step02_gravity_refstate-crust.xmf,564,2.46023e-05,-3.93436e-05,0,6.76644e-06,-1.07654e+09,-1.08092e+09,-1.07822e+09,464178,-0.0124662,0.458292,-0,0.458462,-499.812,-39231,-0,39234.2,464178
step02_gravity_refstate-crust.xmf,565,2.82187e-07,1.13989e-06,0,2.93373e-06,-5.0271e+08,-5.02652e+08,-5.0273e+08,201254,-0.0207521,0.217222,-0,0.218211,-13724.8,-18304.6,-0,22878.5,201254
step02_gravity_refstate-crust.xmf,566,-1.91628e-07,1.33404e-06,0,2.14289e-06,-3.54668e+08,-3.54563e+08,-3.54655e+08,147003,-0.0175136,0.200732,-0,0.201495,-19000.8,-12913.3,-0,22973.6,147003
step02_gravity_refstate-crust.xmf,567,-1.1747e-07,1.07093e-06,0,1.89931e-06,-2.95764e+08,-2.95682e+08,-2.95756e+08,130293,-0.0173157,0.203271,-0,0.204007,-19007,-10768.8,-0,21845.7,130293
step02_gravity_refstate-crust.xmf,568,8.30253e-07,5.72586e-07,0,3.98678e-06,-6.61297e+08,-6.61314e+08,-6.61354e+08,273493,-0.0261854,0.230747,-0,0.232228,-10335.9,-24079.4,-0,26204,273493
step02_gravity_refstate-crust.xmf,569,2.63511e-05,-4.38784e-05,0,3.34595e-06,-1.08607e+09,-1.09089e+09,-1.08788e+09,229532,-0.00588897,0.475223,-0,0.47526,-223.71,-39578.2,-0,39578.9,229532
step02_gravity_refstate-crust.xmf,570,3.45988e-06,-3.30205e-06,0,5.67423e-06,-8.29948e+08,-8.30412e+08,-8.30186e+08,389252,-0.0287825,0.274533,-0,0.276037,-5357.11,-30224,-0,30695.1,389252
step02_gravity_refstate-crust.xmf,571,6.44111e-06,-8.03778e-06,0,7.2792e-06,-9.22454e+08,-9.23447e+08,-9.22896e+08,499353,-0.028649,0.312746,-0,0.314056,-3365.56,-33596.5,-0,33764.6,499353
step02_gravity_refstate-crust.xmf,572,5.23577e-06,-6.04077e-06,0,6.38322e-06,-8.85394e+08,-8.86167e+08,-8.85753e+08,437889,-0.0279487,0.297248,-0,0.298559,-3934.17,-32245.5,-0,32484.6,437889
step02_gravity_refstate-crust.xmf,573,8.38916e-06,-1.16444e-05,0,9.7171e-06,-9.77441e+08,-9.78815e+08,-9.78016e+08,666593,-0.031656,0.339626,-0,0.341098,-2800.19,-35600.6,-0,35710.6,666593
step02_gravity_refstate-crust.xmf,574,1.03581e-05,-1.44838e-05,0,9.20927e-06,-9.89183e+08,-9.90887e+08,-9.89894e+08,631756,-0.0278447,0.354144,-0,0.355237,-2203.63,-36031.7,-0,36099,631756
step02_gravity_refstate-crust.xmf,575,1.46907e-05,-2.08983e-05,0,6.78567e-06,-1.01201e+09,-1.01445e+09,-1.01302e+09,465497,-0.0175598,0.382775,-0,0.383177,-1125.77,-36870.4,-0,36887.5,465497
step02_gravity_refstate-crust.xmf,576,1.24374e-05,-1.75473e-05,0,8.32454e-06,-1.00061e+09,-1.00266e+09,-1.00146e+09,571064,-0.0232797,0.368402,-0,0.369137,-1656.51,-36451.2,-0,36488.9,571064
step02_gravity_refstate-crust.xmf,577,1.68952e-05,-2.45791e-05,0,4.45527e-06,-1.02315e+09,-1.026e+09,-1.02431e+09,305632,-0.0105337,0.39658,-0,0.39672,-612.463,-37279.2,-0,37284.3,305632
step02_gravity_refstate-crust.xmf,578,2.3188e-05,-3.57673e-05,0,4.29827e-06,-1.06479e+09,-1.06883e+09,-1.06638e+09,294861,-0.0084055,0.443506,-0,0.443585,-361.371,-38803,-0,38804.7,294861
step02_gravity_refstate-crust.xmf,579,3.57544e-07,1.15768e-06,0,3.35664e-06,-5.75275e+08,-5.7522e+08,-5.753e+08,230266,-0.0232866,0.219478,-0,0.220709,-12701.6,-20946.7,-0,24496.9,230266
step02_gravity_refstate-crust.xmf,580,4.59334e-07,9.72727e-07,0,3.08469e-06,-5.32719e+08,-5.32684e+08,-5.32751e+08,211609,-0.0214511,0.221857,-0,0.222892,-12560.2,-19397.6,-0,23109,211609
step02_gravity_refstate-crust.xmf,581,-4.71873e-08,8.05012e-07,0,1.61051e-06,-2.32501e+08,-2.32442e+08,-2.32498e+08,110481,-0.017905,0.20573,-0,0.206507,-18923.7,-8465.48,-0,20730.9,110481
step02_gravity_refstate-crust.xmf,582,-1.12427e-07,4.3765e-07,0,9.72366e-07,-1.2103e+08,-1.20992e+08,-1.21022e+08,66704.3,-0.0216345,0.204742,-0,0.205881,-19913.8,-4406.43,-0,20395.5,66704.3
step02_gravity_refstate-crust.xmf,583,-3.18698e-07,3.20094e-07,0,5.43328e-07,-6.27678e+07,-6.2724e+07,-6.27459e+07,37272.3,-0.0251978,0.201304,-0,0.202875,-21199.6,-2284.33,-0,21322.3,37272.3
step02_gravity_refstate-crust.xmf,584,-6.51934e-07,2.47313e-07,0,7.22781e-09,-61932,-243.638,-17209.3,495.828,-0.0303817,0.197708,-0,0.200028,-22569.7,0,-0,22569.7,495.828
step02_gravity_refstate-crust.xmf,585,-1.59548e-08,1.25035e-06,0,2.3395e-06,-3.85008e+08,-3.84921e+08,-3.85007e+08,160490,-0.0180905,0.207474,-0,0.208261,-17029.9,-14018.5,-0,22057.5,160490
step02_gravity_refstate-crust.xmf,586,4.38511e-07,8.76935e-07,0,2.6433e-06,-4.50675e+08,-4.50645e+08,-4.50705e+08,181331,-0.0188619,0.221626,-0,0.222427,-13190.6,-16410.4,-0,21054.5,181331
step02_gravity_refstate-crust.xmf,587,2.04705e-07,1.07777e-06,0,2.49758e-06,-4.14853e+08,-4.14793e+08,-4.14867e+08,171334,-0.0184864,0.214915,-0,0.215708,-15004.1,-15105.6,-0,21290.9,171334
step02_gravity_refstate-crust.xmf,588,6.08989e-07,8.36228e-07,0,3.50912e-06,-5.99813e+08,-5.99797e+08,-5.99854e+08,240725,-0.023828,0.225399,-0,0.226655,-11484.9,-21840.5,-0,24676.1,240725
step02_gravity_refstate-crust.xmf,589,9.21773e-07,4.34908e-07,0,3.62471e-06,-6.2237e+08,-6.22404e+08,-6.22434e+08,248655,-0.0240223,0.231956,-0,0.233197,-10253.4,-22662.4,-0,24874,248655
step02_gravity_refstate-crust.xmf,590,1.2177e-06,4.35851e-08,0,4.12127e-06,-6.82443e+08,-6.82523e+08,-6.82526e+08,282719,-0.0262157,0.238133,-0,0.239571,-9165.33,-24850,-0,26486.3,282719
step02_gravity_refstate-crust.xmf,591,2.73331e-05,-4.84278e-05,0,4.61973e-08,-1.09774e+09,-1.10294e+09,-1.09962e+09,3169.13,-1.27277e-06,0.495345,-0,0.495345,-2.07592e-10,-40000,-0,40000,3169.13
step02_gravity_refstate-crust.xmf,592,2.48327e-05,-3.93233e-05,0,-1.17068e-06,-1.07363e+09,-1.07803e+09,-1.07533e+09,-80308.6,0.00190584,0.456997,0,0.457001,76.6991,-39126.2,0,39126.2,80308.6
step02_gravity_refstate-crust.xmf,593,1.6882e-06,-6.01054e-07,0,4.20089e-06,-7.02877e+08,-7.03034e+08,-7.02993e+08,288181,-0.0258195,0.245954,-0,0.247305,-8015.31,-25594.9,-0,26820.5,288181
step02_gravity_refstate-crust.xmf,594,2.48864e-06,-1.83318e-06,0,5.19877e-06,-7.87485e+08,-7.87781e+08,-7.87655e+08,356636,-0.0287919,0.26028,-0,0.261868,-6559.74,-28676.4,-0,29417.1,356636
step02_gravity_refstate-crust.xmf,595,2.43637e-06,-1.69301e-06,0,4.62408e-06,-7.55085e+08,-7.55369e+08,-7.55252e+08,317212,-0.0264025,0.258095,-0,0.259442,-6573.64,-27496.9,-0,28271.7,317212
step02_gravity_refstate-crust.xmf,596,8.09057e-06,-1.08157e-05,0,8.23868e-06,-9.56912e+08,-9.58209e+08,-9.57467e+08,565174,-0.0285203,0.331756,-0,0.332979,-2763.83,-34853.3,-0,34962.7,565174
step02_gravity_refstate-crust.xmf,597,4.20545e-06,-4.37518e-06,0,5.65706e-06,-8.45244e+08,-8.45832e+08,-8.45532e+08,388074,-0.0273003,0.283326,-0,0.284639,-4611.09,-30782.2,-0,31125.6,388074
step02_gravity_refstate-crust.xmf,598,7.73985e-06,-9.98087e-06,0,6.93626e-06,-9.355e+08,-9.36716e+08,-9.36031e+08,475827,-0.0254666,0.324387,-0,0.325385,-2702.97,-34073.7,-0,34180.7,475827
step02_gravity_refstate-crust.xmf,599,6.24805e-06,-7.50768e-06,0,6.21196e-06,-9.00053e+08,-9.00997e+08,-9.00481e+08,426140,-0.0256921,0.307332,-0,0.308404,-3278,-32781,-0,32944.5,426140
step02_gravity_refstate-crust.xmf,600,5.09089e-06,-5.63753e-06,0,5.48261e-06,-8.60613e+08,-8.61349e+08,-8.60962e+08,376107,-0.025107,0.29287,-0,0.293944,-3837.88,-31343.3,-0,31577.4,376107
step02_gravity_refstate-crust.xmf,601,2.10577e-05,-3.19598e-05,0,2.44279e-06,-1.05007e+09,-1.05371e+09,-1.05151e+09,167575,-0.0049847,0.426064,-0,0.426093,-236.965,-38264.5,-0,38265.3,167575
step02_gravity_refstate-crust.xmf,602,1.88382e-05,-2.78245e-05,0,1.01972e-06,-1.0341e+09,-1.03731e+09,-1.0354e+09,69953,-0.00227953,0.409163,-0,0.409169,-121.331,-37680.8,-0,37681,69953
step02_gravity_refstate-crust.xmf,603,5.42115e-07,8.1336e-07,0,2.8515e-06,-4.95616e+08,-4.95598e+08,-4.95653e+08,195613,-0.0199333,0.224102,-0,0.224987,-12346.6,-18046.9,-0,21866.1,195613
step02_gravity_refstate-crust.xmf,604,4.55096e-08,5.35858e-07,0,1.3022e-06,-1.71718e+08,-1.71684e+08,-1.71721e+08,89330.6,-0.0194459,0.208725,-0,0.209629,-18503.8,-6252.58,-0,19531.6,89330.6
step02_gravity_refstate-crust.xmf,605,5.12921e-08,1.02616e-06,0,2.08852e-06,-3.27648e+08,-3.27581e+08,-3.27652e+08,143273,-0.0174459,0.209476,-0,0.210201,-17117.8,-11930.2,-0,20865,143273
step02_gravity_refstate-crust.xmf,606,1.20462e-07,7.99886e-07,0,1.81525e-06,-2.68249e+08,-2.68202e+08,-2.68257e+08,124526,-0.0174274,0.21148,-0,0.212196,-17107.3,-9767.59,-0,19699.4,124526
step02_gravity_refstate-crust.xmf,607,1.27505e-06,-2.38375e-08,0,3.71553e-06,-6.44761e+08,-6.4485e+08,-6.44849e+08,254885,-0.0239487,0.238633,-0,0.239832,-9084.8,-23478.3,-0,25174.7,254885
step02_gravity_refstate-crust.xmf,608,2.61776e-05,-4.34518e-05,0,-4.59484e-06,-1.08528e+09,-1.09006e+09,-1.08707e+09,-315206,0.00817353,0.473337,0,0.473407,311.9,-39549.3,0,39550.5,315206
step02_gravity_refstate-crust.xmf,609,2.24892e-06,-1.38245e-06,0,4.20256e-06,-7.22345e+08,-7.22595e+08,-7.225e+08,288295,-0.0247497,0.254535,-0,0.255735,-6824.39,-26304.7,-0,27175.5,288295
step02_gravity_refstate-crust.xmf,610,3.20805e-06,-2.84234e-06,0,5.16317e-06,-8.03232e+08,-8.03647e+08,-8.03452e+08,354193,-0.027269,0.269671,-0,0.271046,-5576.55,-29251.1,-0,29777.9,354193
step02_gravity_refstate-crust.xmf,611,4.004e-06,-3.95488e-06,0,4.9825e-06,-8.17988e+08,-8.18534e+08,-8.18263e+08,341800,-0.0250961,0.278982,-0,0.280108,-4636.6,-29789.8,-0,30148.4,341800
step02_gravity_refstate-crust.xmf,612,7.37488e-06,-9.12397e-06,0,5.76531e-06,-9.13281e+08,-9.14412e+08,-9.13786e+08,395500,-0.0225302,0.317508,-0,0.318306,-2617.76,-33264.6,-0,33367.4,395500
step02_gravity_refstate-crust.xmf,613,5.97354e-06,-6.90413e-06,0,5.22178e-06,-8.75203e+08,-8.76086e+08,-8.75612e+08,358214,-0.0227292,0.301754,-0,0.302609,-3171.7,-31876.1,-0,32033.5,358214
step02_gravity_refstate-crust.xmf,614,9.80104e-06,-1.33361e-05,0,7.6042e-06,-9.69196e+08,-9.70783e+08,-9.69868e+08,521648,-0.0244427,0.344996,-0,0.345861,-2130.25,-35303.6,-0,35367.8,521648
step02_gravity_refstate-crust.xmf,615,1.16404e-05,-1.59091e-05,0,6.50723e-06,-9.81254e+08,-9.83144e+08,-9.82053e+08,446396,-0.0196529,0.357856,-0,0.358395,-1548.19,-35746,-0,35779.5,446396
step02_gravity_refstate-crust.xmf,616,1.5299e-05,-2.14688e-05,0,2.80698e-06,-1.00578e+09,-1.00831e+09,-1.00683e+09,192559,-0.00735795,0.382813,-0,0.382884,-478.222,-36645.3,-0,36648.4,192559
step02_gravity_refstate-crust.xmf,617,1.34845e-05,-1.86484e-05,0,5.10793e-06,-9.93621e+08,-9.95825e+08,-9.94546e+08,350404,-0.0144017,0.370419,-0,0.370699,-1028.59,-36199.4,-0,36214,350404
step02_gravity_refstate-crust.xmf,618,1.68014e-05,-2.42006e-05,0,5.8434e-08,-1.0175e+09,-1.02031e+09,-1.01865e+09,4008.57,-0.000143754,0.393661,-0,0.393661,-8.41606,-37073.6,-0,37073.6,4008.57
step02_gravity_refstate-crust.xmf,619,2.26372e-05,-3.45012e-05,0,-2.97992e-06,-1.06018e+09,-1.0641e+09,-1.06174e+09,-204422,0.00545886,0.438302,0,0.438336,241.514,-38635.2,0,38635.9,204422
step02_gravity_refstate-crust.xmf,620,6.88252e-07,7.05089e-07,0,3.20015e-06,-5.57913e+08,-5.57912e+08,-5.5796e+08,219530,-0.0218301,0.227184,-0,0.22823,-11371.6,-20315.3,-0,23281.4,219530
step02_gravity_refstate-crust.xmf,621,7.38153e-07,5.96875e-07,0,2.91556e-06,-5.16047e+08,-5.16057e+08,-5.16098e+08,200007,-0.0200172,0.228663,-0,0.229537,-11271.4,-18791.1,-0,21912.3,200007
step02_gravity_refstate-crust.xmf,622,7.28029e-07,5.55401e-07,0,2.63712e-06,-4.67697e+08,-4.67709e+08,-4.67747e+08,180906,-0.0183594,0.229097,-0,0.229831,-11397.5,-17030.8,-0,20492.7,180906
step02_gravity_refstate-crust.xmf,623,1.96976e-07,5.8108e-07,0,1.52668e-06,-2.10829e+08,-2.10803e+08,-2.10842e+08,104730,-0.0181691,0.213457,-0,0.214229,-16960.9,-7677.13,-0,18617.5,104730
step02_gravity_refstate-crust.xmf,624,2.21232e-07,2.74497e-07,0,9.6572e-07,-1.16081e+08,-1.16077e+08,-1.16096e+08,66248.4,-0.021769,0.213033,-0,0.214142,-17502.3,-4227.35,-0,18005.6,66248.4
step02_gravity_refstate-crust.xmf,625,7.51208e-08,1.58135e-07,0,5.51583e-07,-6.04697e+07,-6.0464e+07,-6.04748e+07,37838.6,-0.0256818,0.209516,-0,0.211084,-18684.5,-2202.01,-0,18813.8,37838.6
step02_gravity_refstate-crust.xmf,626,-1.57893e-07,6.0108e-08,0,9.80648e-09,-14990.5,-35.5948,-4159,672.725,-0.0314764,0.205796,-0,0.208189,-19919.3,0,-0,19919.3,672.725
step02_gravity_refstate-crust.xmf,627,2.52741e-07,9.08905e-07,0,2.23249e-06,-3.57654e+08,-3.57609e+08,-3.57672e+08,153149,-0.0174552,0.216378,-0,0.217081,-15146.6,-13023.2,-0,19975.6,153149
step02_gravity_refstate-crust.xmf,628,4.83075e-07,7.26715e-07,0,2.33019e-06,-3.88411e+08,-3.88395e+08,-3.88445e+08,159851,-0.0172913,0.223316,-0,0.223984,-13220.2,-14143.6,-0,19360.2,159851
step02_gravity_refstate-crust.xmf,629,9.74287e-07,3.48477e-07,0,3.28641e-06,-5.82281e+08,-5.82324e+08,-5.82348e+08,225448,-0.0219497,0.233015,-0,0.234047,-10165.6,-21203,-0,23514,225448
step02_gravity_refstate-crust.xmf,630,1.30731e-06,-7.39967e-08,0,3.3367e-06,-6.05992e+08,-6.06087e+08,-6.06082e+08,228898,-0.021764,0.239166,-0,0.240154,-8976.07,-22066.9,-0,23822.7,228898
step02_gravity_refstate-crust.xmf,631,1.68889e-06,-5.78631e-07,0,3.76167e-06,-6.66599e+08,-6.66755e+08,-6.66715e+08,258050,-0.0235167,0.245567,-0,0.24669,-7952.49,-24274.1,-0,25543.6,258050
step02_gravity_refstate-crust.xmf,632,2.68147e-05,-4.74199e-05,0,-7.80831e-06,-1.09776e+09,-1.10285e+09,-1.0996e+09,-535650,0.0135173,0.491554,0,0.49174,499.831,-40000,0,40003.1,535650
step02_gravity_refstate-crust.xmf,633,2.32198e-05,-3.64525e-05,0,-9.09116e-06,-1.07126e+09,-1.07535e+09,-1.07285e+09,-623653,0.016274,0.448553,0,0.448848,678.676,-39037.7,0,39043.6,623653
step02_gravity_refstate-crust.xmf,634,2.17745e-06,-1.22705e-06,0,3.72764e-06,-6.87335e+08,-6.87569e+08,-6.87484e+08,255716,-0.0225811,0.252836,-0,0.253842,-6830.9,-25030,-0,25945.4,255716
step02_gravity_refstate-crust.xmf,635,3.06456e-06,-2.54792e-06,0,4.57838e-06,-7.7272e+08,-7.73105e+08,-7.72931e+08,314077,-0.0250968,0.266275,-0,0.267455,-5629.24,-28140.1,-0,28697.6,314077
step02_gravity_refstate-crust.xmf,636,2.89438e-06,-2.26483e-06,0,4.06566e-06,-7.40568e+08,-7.40922e+08,-7.40767e+08,278904,-0.0229871,0.263204,-0,0.264206,-5667.82,-26969.3,-0,27558.5,278904
step02_gravity_refstate-crust.xmf,637,9.20593e-06,-1.21325e-05,0,6.22937e-06,-9.48366e+08,-9.4983e+08,-9.48998e+08,427334,-0.0213812,0.336193,-0,0.336872,-2053.76,-34544.7,-0,34605.7,427334
step02_gravity_refstate-crust.xmf,638,4.82566e-06,-5.10984e-06,0,4.73429e-06,-8.33965e+08,-8.34646e+08,-8.34296e+08,324772,-0.0227087,0.287938,-0,0.288832,-3802.19,-30372.9,-0,30610,324772
step02_gravity_refstate-crust.xmf,639,8.58651e-06,-1.09624e-05,0,5.08158e-06,-9.26696e+08,-9.28037e+08,-9.27285e+08,348597,-0.0185819,0.32788,-0,0.328406,-1966.7,-33755.1,-0,33812.3,348597
step02_gravity_refstate-crust.xmf,640,6.93679e-06,-8.28482e-06,0,4.78878e-06,-8.89762e+08,-8.90806e+08,-8.90238e+08,328510,-0.0197863,0.310827,-0,0.311456,-2522.44,-32407.9,-0,32505.9,328510
step02_gravity_refstate-crust.xmf,641,5.647e-06,-6.27095e-06,0,4.37556e-06,-8.49176e+08,-8.49993e+08,-8.49563e+08,300163,-0.0200265,0.296309,-0,0.296985,-3063.8,-30928.2,-0,31079.6,300163
step02_gravity_refstate-crust.xmf,642,1.52044e-05,-2.13588e-05,0,-6.83661e-07,-1.00307e+09,-1.00557e+09,-1.00411e+09,-46899.1,0.00175615,0.381662,0,0.381666,116.103,-36546,0,36546.2,46899.1
step02_gravity_refstate-crust.xmf,643,2.00679e-05,-3.0213e-05,0,-3.37701e-06,-1.04455e+09,-1.048e+09,-1.04593e+09,-231663,0.00702344,0.419343,0,0.419402,348.443,-38062.3,0,38063.9,231663
step02_gravity_refstate-crust.xmf,644,1.76997e-05,-2.59782e-05,0,-3.6368e-06,-1.0281e+09,-1.0311e+09,-1.02932e+09,-249484,0.00832183,0.402035,0,0.402121,465.538,-37460.5,0,37463.4,249484
step02_gravity_refstate-crust.xmf,645,1.56966e-05,-2.25039e-05,0,-3.67467e-06,-1.0115e+09,-1.01412e+09,-1.01257e+09,-252083,0.009212,0.386866,0,0.386976,578.529,-36853.2,0,36857.7,252083
step02_gravity_refstate-crust.xmf,646,7.19852e-07,5.0937e-07,0,2.37415e-06,-4.17105e+08,-4.17119e+08,-4.17154e+08,162866,-0.0169458,0.229583,-0,0.230207,-11513.7,-15188.8,-0,19059.5,162866
step02_gravity_refstate-crust.xmf,647,2.92072e-07,3.79994e-07,0,1.24446e-06,-1.61023e+08,-1.61017e+08,-1.61043e+08,85370.3,-0.0195068,0.215538,-0,0.216418,-16620.2,-5863.99,-0,17624.3,85370.3
step02_gravity_refstate-crust.xmf,648,3.04464e-07,7.32494e-07,0,1.96415e-06,-3.00191e+08,-3.00162e+08,-3.00212e+08,134740,-0.0169807,0.217765,-0,0.218426,-15228.5,-10931.1,-0,18745.6,134740
step02_gravity_refstate-crust.xmf,649,3.71791e-07,5.43197e-07,0,1.67149e-06,-2.40626e+08,-2.40615e+08,-2.40652e+08,114664,-0.0171926,0.219252,-0,0.219925,-15199.3,-8762.59,-0,17544.3,114664
step02_gravity_refstate-crust.xmf,650,1.67119e-06,-5.4314e-07,0,3.36497e-06,-6.30081e+08,-6.30233e+08,-6.30195e+08,230837,-0.0213661,0.245275,-0,0.246204,-7870.21,-22944.6,-0,24256.9,230837
step02_gravity_refstate-crust.xmf,651,2.47883e-05,-4.11264e-05,0,-1.20856e-05,-1.08586e+09,-1.09039e+09,-1.08756e+09,-829069,0.0210572,0.466639,0,0.467114,816.443,-39568.6,0,39577,829069
step02_gravity_refstate-crust.xmf,652,2.72871e-06,-1.98765e-06,0,3.6029e-06,-7.07288e+08,-7.07611e+08,-7.07475e+08,247159,-0.0209896,0.260488,-0,0.261332,-5693.34,-25757.5,-0,26379.2,247159
step02_gravity_refstate-crust.xmf,653,3.7623e-06,-3.51495e-06,0,4.41415e-06,-7.8957e+08,-7.9007e+08,-7.89829e+08,302811,-0.0231516,0.274703,-0,0.275677,-4693.24,-28754.9,-0,29135.4,302811
step02_gravity_refstate-crust.xmf,654,4.52469e-06,-4.57073e-06,0,4.09799e-06,-8.05975e+08,-8.06599e+08,-8.06285e+08,281122,-0.0205508,0.283159,-0,0.283904,-3779.42,-29353.5,-0,29595.9,281122
step02_gravity_refstate-crust.xmf,655,7.9865e-06,-9.79278e-06,0,4.10654e-06,-9.04351e+08,-9.0557e+08,-9.04899e+08,281709,-0.0160865,0.320108,-0,0.320512,-1874.11,-32940.9,-0,32994.2,281709
step02_gravity_refstate-crust.xmf,656,6.47972e-06,-7.46754e-06,0,3.95531e-06,-8.65096e+08,-8.66052e+08,-8.6554e+08,271334,-0.0172385,0.304477,-0,0.304965,-2414.03,-31509.3,-0,31601.7,271334
step02_gravity_refstate-crust.xmf,657,1.07446e-05,-1.44076e-05,0,5.1074e-06,-9.60967e+08,-9.62692e+08,-9.61704e+08,350368,-0.0163926,0.347728,-0,0.348114,-1430.91,-35006.1,-0,35035.3,350368
step02_gravity_refstate-crust.xmf,658,1.23168e-05,-1.65532e-05,0,3.37541e-06,-9.73407e+08,-9.75387e+08,-9.74252e+08,231553,-0.0103545,0.358773,-0,0.358923,-825.204,-35462.1,-0,35471.7,231553
step02_gravity_refstate-crust.xmf,659,1.37635e-05,-1.88414e-05,0,7.00508e-07,-9.87126e+08,-9.89363e+08,-9.8807e+08,48054.8,-0.0022321,0.369909,-0,0.369916,-162.213,-35963.8,-0,35964.2,48054.8
step02_gravity_refstate-crust.xmf,660,1.39507e-05,-1.9377e-05,0,-3.38513e-06,-9.93458e+08,-9.95744e+08,-9.94415e+08,-232220,0.00922579,0.372802,0,0.372916,650.837,-36194.3,0,36200.1,232220
step02_gravity_refstate-crust.xmf,661,2.03256e-05,-3.08391e-05,0,-8.60711e-06,-1.05491e+09,-1.05842e+09,-1.0563e+09,-590448,0.0169757,0.426692,0,0.427029,797.181,-38439.4,0,38447.7,590448
step02_gravity_refstate-crust.xmf,662,9.94311e-07,2.97829e-07,0,2.97171e-06,-5.40481e+08,-5.40529e+08,-5.4055e+08,203860,-0.0199875,0.233939,-0,0.234791,-10078.8,-19681.3,-0,22111.8,203860
step02_gravity_refstate-crust.xmf,663,1.00232e-06,2.51298e-07,0,2.66065e-06,-4.95284e+08,-4.95335e+08,-4.95353e+08,182521,-0.0180874,0.234908,-0,0.235603,-9963,-18035.7,-0,20604.6,182521
step02_gravity_refstate-crust.xmf,664,9.79789e-07,2.39485e-07,0,2.3853e-06,-4.4826e+08,-4.48311e+08,-4.48327e+08,163632,-0.0165028,0.235382,-0,0.23596,-9948.87,-16323.7,-0,19116.6,163632
step02_gravity_refstate-crust.xmf,665,4.59199e-07,3.51213e-07,0,1.36497e-06,-1.83807e+08,-1.83815e+08,-1.83839e+08,93636.8,-0.0181919,0.22071,-0,0.221458,-15048.3,-6694.1,-0,16470,93636.8
step02_gravity_refstate-crust.xmf,666,5.55273e-07,1.35498e-07,0,9.82833e-07,-1.19903e+08,-1.19932e+08,-1.19941e+08,67422.3,-0.0205937,0.221405,-0,0.222361,-15011,-4367.64,-0,15633.5,67422.3
step02_gravity_refstate-crust.xmf,667,4.8601e-07,-8.00782e-09,0,5.44052e-07,-5.90837e+07,-5.91176e+07,-5.91171e+07,37321.9,-0.0250828,0.217753,-0,0.219193,-16169.8,-2152.96,-0,16312.5,37321.9
step02_gravity_refstate-crust.xmf,668,3.55482e-07,-1.34055e-07,0,1.15563e-08,33803.9,221.635,9417.77,792.763,-0.0312415,0.213929,-0,0.216198,-17321.5,0,-0,17321.5,792.763
step02_gravity_refstate-crust.xmf,669,5.16824e-07,5.96769e-07,0,2.04989e-06,-3.29813e+08,-3.29808e+08,-3.29849e+08,140622,-0.0163886,0.224495,-0,0.225092,-13279.3,-12010.2,-0,17904.9,140622
step02_gravity_refstate-crust.xmf,670,7.72323e-07,3.87799e-07,0,2.06257e-06,-3.61187e+08,-3.61213e+08,-3.6124e+08,141492,-0.0155011,0.231661,-0,0.232179,-11206.8,-13153.1,-0,17279.9,141492
step02_gravity_refstate-crust.xmf,671,9.64877e-07,2.22242e-07,0,2.13543e-06,-4.01747e+08,-4.01798e+08,-4.01813e+08,146491,-0.015203,0.235961,-0,0.23645,-9897.71,-14630.3,-0,17663.8,146491
step02_gravity_refstate-crust.xmf,672,1.32046e-06,-1.04366e-07,0,2.9724e-06,-5.64642e+08,-5.6474e+08,-5.64733e+08,203906,-0.0195712,0.23991,-0,0.240707,-8800.4,-20561.5,-0,22365.7,203906
step02_gravity_refstate-crust.xmf,673,1.65797e-06,-5.30203e-07,0,2.98085e-06,-5.92062e+08,-5.92212e+08,-5.92176e+08,204486,-0.0191819,0.245436,-0,0.246185,-7688.27,-21560.5,-0,22890.3,204486
step02_gravity_refstate-crust.xmf,674,2.09093e-06,-1.10003e-06,0,3.32366e-06,-6.5235e+08,-6.52569e+08,-6.52494e+08,228003,-0.0205065,0.25163,-0,0.252464,-6781.07,-23756.2,-0,24705.1,228003
step02_gravity_refstate-crust.xmf,675,2.00137e-06,-9.70478e-07,0,2.95869e-06,-6.16892e+08,-6.17096e+08,-6.1703e+08,202966,-0.0185809,0.250625,-0,0.251313,-6713.93,-22465.2,-0,23447,202966
step02_gravity_refstate-crust.xmf,676,2.51629e-05,-4.40778e-05,0,-1.56782e-05,-1.0978e+09,-1.10255e+09,-1.09952e+09,-1.07552e+06,0.0264767,0.480219,0,0.480949,999.317,-40000,0,40012.5,1.07552e+06
step02_gravity_refstate-crust.xmf,677,2.16847e-05,-3.50956e-05,0,-1.50547e-05,-1.07658e+09,-1.08047e+09,-1.07807e+09,-1.03276e+06,0.0268407,0.446619,0,0.447425,1117.49,-39227.3,0,39243.2,1.03276e+06
step02_gravity_refstate-crust.xmf,678,1.92869e-05,-3.01755e-05,0,-1.41771e-05,-1.06476e+09,-1.06815e+09,-1.06608e+09,-972550,0.0271245,0.429734,0,0.430589,1233.2,-38794.9,0,38814.5,972550
step02_gravity_refstate-crust.xmf,679,2.57421e-06,-1.72397e-06,0,3.17365e-06,-6.72799e+08,-6.73094e+08,-6.72976e+08,217712,-0.0190454,0.258216,-0,0.258918,-5683.42,-24501.7,-0,25152.2,217712
step02_gravity_refstate-crust.xmf,680,3.5457e-06,-3.13174e-06,0,3.85774e-06,-7.58855e+08,-7.59313e+08,-7.59098e+08,264641,-0.0210128,0.271073,-0,0.271886,-4679.66,-27636.4,-0,28029.8,264641
step02_gravity_refstate-crust.xmf,681,3.31244e-06,-2.77909e-06,0,3.36939e-06,-7.26224e+08,-7.26642e+08,-7.26452e+08,231140,-0.0189184,0.267784,-0,0.268452,-4641.16,-26448,-0,26852.2,231140
step02_gravity_refstate-crust.xmf,682,9.86754e-06,-1.28517e-05,0,3.97178e-06,-9.39735e+08,-9.41294e+08,-9.40412e+08,272464,-0.0136758,0.337999,-0,0.338276,-1323.82,-34232,-0,34257.6,272464
step02_gravity_refstate-crust.xmf,683,5.28689e-06,-5.63285e-06,0,3.66303e-06,-8.2189e+08,-8.2264e+08,-8.22253e+08,251284,-0.0175885,0.291055,-0,0.291585,-2956.78,-29934.4,-0,30080.1,251284
step02_gravity_refstate-crust.xmf,684,9.02936e-06,-1.14197e-05,0,3.10755e-06,-9.17963e+08,-9.19365e+08,-9.18582e+08,213178,-0.0114322,0.328975,-0,0.329173,-1224.68,-33438.2,-0,33460.6,213178
step02_gravity_refstate-crust.xmf,685,7.3602e-06,-8.73258e-06,0,3.33445e-06,-8.80604e+08,-8.81708e+08,-8.81109e+08,228743,-0.0138446,0.312633,-0,0.31294,-1779.04,-32075.5,-0,32124.8,228743
step02_gravity_refstate-crust.xmf,686,6.01967e-06,-6.67277e-06,0,3.13906e-06,-8.37377e+08,-8.38248e+08,-8.3779e+08,215339,-0.0144376,0.298312,-0,0.298661,-2234.8,-30499.6,-0,30581.4,215339
step02_gravity_refstate-crust.xmf,687,1.78358e-05,-2.68224e-05,0,-7.9476e-06,-1.03885e+09,-1.04192e+09,-1.04008e+09,-545205,0.0174254,0.408184,0,0.408556,923.544,-37851.1,0,37862.4,545205
step02_gravity_refstate-crust.xmf,688,1.57011e-05,-2.30242e-05,0,-7.31228e-06,-1.02224e+09,-1.0249e+09,-1.02332e+09,-501623,0.0176667,0.39168,0,0.392078,1056.32,-37243.6,0,37258.6,501623
step02_gravity_refstate-crust.xmf,689,1.39424e-05,-1.99435e-05,0,-6.57756e-06,-1.00494e+09,-1.00727e+09,-1.0059e+09,-451221,0.0174097,0.377057,0,0.377458,1169.5,-36611.4,0,36630.1,451221
step02_gravity_refstate-crust.xmf,690,5.58597e-07,4.62472e-07,0,1.77136e-06,-2.71389e+08,-2.71395e+08,-2.71427e+08,121515,-0.0161431,0.225381,-0,0.225958,-13344.9,-9883.16,-0,16606.2,121515
step02_gravity_refstate-crust.xmf,691,6.30573e-07,3.07686e-07,0,1.47594e-06,-2.13078e+08,-2.131e+08,-2.13121e+08,101250,-0.0166029,0.226403,-0,0.227011,-13286.3,-7760.34,-0,15386.6,101250
step02_gravity_refstate-crust.xmf,692,1.01302e-06,1.41958e-07,0,1.90677e-06,-3.67393e+08,-3.67452e+08,-3.67462e+08,130804,-0.0140204,0.237823,-0,0.238236,-9425.29,-13379.6,-0,16366.1,130804
step02_gravity_refstate-crust.xmf,693,1.92287e-06,-8.67888e-07,0,2.63065e-06,-5.82377e+08,-5.82568e+08,-5.82509e+08,180463,-0.0167794,0.250036,-0,0.250598,-6585.3,-21208.5,-0,22207.3,180463
step02_gravity_refstate-crust.xmf,694,2.19444e-05,-3.60996e-05,0,-1.93038e-05,-1.08699e+09,-1.09097e+09,-1.0885e+09,-1.32424e+06,0.0325547,0.454648,0,0.455812,1302.08,-39605.9,0,39627.3,1.32424e+06
step02_gravity_refstate-crust.xmf,695,1.69246e-05,-2.78889e-05,0,-2.0343e-05,-1.0762e+09,-1.07928e+09,-1.07736e+09,-1.39553e+06,0.037072,0.430083,0,0.431677,1649.85,-39205.6,0,39240.3,1.39553e+06
step02_gravity_refstate-crust.xmf,696,3.09329e-06,-2.43898e-06,0,2.92995e-06,-6.92769e+08,-6.93148e+08,-6.92981e+08,200995,-0.0169598,0.264912,-0,0.265454,-4581.69,-25229.7,-0,25642.3,200995
step02_gravity_refstate-crust.xmf,697,4.2117e-06,-4.04573e-06,0,3.55622e-06,-7.76646e+08,-7.77212e+08,-7.76935e+08,243957,-0.0185957,0.278647,-0,0.279267,-3764.14,-28285.3,-0,28534.7,243957
step02_gravity_refstate-crust.xmf,698,4.91369e-06,-5.01231e-06,0,3.07994e-06,-7.93777e+08,-7.94458e+08,-7.94114e+08,211284,-0.015468,0.286107,-0,0.286525,-2859.2,-28910.4,-0,29051.4,211284
step02_gravity_refstate-crust.xmf,699,8.25034e-06,-1.00184e-05,0,2.38112e-06,-8.9505e+08,-8.96303e+08,-8.95616e+08,163345,-0.00945937,0.320491,-0,0.320631,-1121.55,-32603,-0,32622.3,163345
step02_gravity_refstate-crust.xmf,700,6.78421e-06,-7.80084e-06,0,2.7136e-06,-8.56431e+08,-8.57431e+08,-8.56896e+08,186153,-0.0118577,0.305834,-0,0.306064,-1676.43,-31194.6,-0,31239.6,186153
step02_gravity_refstate-crust.xmf,701,1.11083e-05,-1.47259e-05,0,2.40587e-06,-9.52627e+08,-9.54399e+08,-9.53389e+08,165043,-0.00781691,0.347538,-0,0.347626,-695.519,-34703.5,-0,34710.4,165043
step02_gravity_refstate-crust.xmf,702,1.21658e-05,-1.6174e-05,0,2.53863e-07,-9.65216e+08,-9.6716e+08,-9.66051e+08,17415,-0.000974054,0.355957,-0,0.355959,-80.276,-35163.8,-0,35163.9,17415
step02_gravity_refstate-crust.xmf,703,1.27057e-05,-1.71478e-05,0,-2.2854e-06,-9.75706e+08,-9.77754e+08,-9.76578e+08,-156779,0.00659819,0.36154,0,0.3616,514.884,-35546.4,0,35550.1,156779
step02_gravity_refstate-crust.xmf,704,1.24742e-05,-1.72458e-05,0,-5.85595e-06,-9.86963e+08,-9.89002e+08,-9.87818e+08,-401718,0.0168152,0.364051,0,0.36444,1263.07,-35955.1,0,35977.3,401718
step02_gravity_refstate-crust.xmf,705,1.68759e-05,-2.58059e-05,0,-1.26503e-05,-1.04959e+09,-1.05251e+09,-1.05074e+09,-867810,0.0268241,0.411195,0,0.412069,1370.19,-38239.6,0,38264.1,867810
step02_gravity_refstate-crust.xmf,706,1.30967e-06,-1.10794e-07,0,2.63629e-06,-5.21901e+08,-5.21998e+08,-5.2199e+08,180850,-0.0175181,0.240659,-0,0.241296,-8594.54,-19005.4,-0,20858.4,180850
step02_gravity_refstate-crust.xmf,707,1.26374e-06,-8.13693e-08,0,2.33766e-06,-4.76496e+08,-4.76589e+08,-4.76583e+08,160364,-0.0157664,0.24091,-0,0.241426,-8491.83,-17352.3,-0,19318.7,160364
step02_gravity_refstate-crust.xmf,708,1.21467e-06,-4.90302e-08,0,2.08354e-06,-4.32133e+08,-4.3222e+08,-4.32216e+08,142931,-0.0143616,0.241083,-0,0.241511,-8416.55,-15737.1,-0,17846.4,142931
step02_gravity_refstate-crust.xmf,709,7.35882e-07,1.34444e-07,0,1.15602e-06,-1.55688e+08,-1.55729e+08,-1.55739e+08,79302.8,-0.0179019,0.22733,-0,0.228034,-13145.9,-5671.17,-0,14317,79302.8
step02_gravity_refstate-crust.xmf,710,8.88302e-07,-1.7094e-07,0,5.1365e-07,-5.78549e+07,-5.79276e+07,-5.79158e+07,35236.4,-0.0234798,0.225546,-0,0.226765,-13701.5,-2109.59,-0,13862.9,35236.4
step02_gravity_refstate-crust.xmf,711,8.66811e-07,-3.27487e-07,0,1.26486e-08,82401.7,472.926,22938.5,867.693,-0.0297027,0.221784,-0,0.223764,-14769.1,0,-0,14769.1,867.693
step02_gravity_refstate-crust.xmf,712,7.64179e-07,3.2601e-07,0,1.80017e-06,-3.0071e+08,-3.0074e+08,-3.00762e+08,123491,-0.0149572,0.231635,-0,0.232118,-11437.7,-10951.2,-0,15835.1,123491
step02_gravity_refstate-crust.xmf,713,1.15958e-06,-5.19924e-09,0,1.90738e-06,-3.93819e+08,-3.93899e+08,-3.93899e+08,130846,-0.0135272,0.24082,-0,0.241199,-8486.92,-14342.1,-0,16665,130846
step02_gravity_refstate-crust.xmf,714,9.77474e-07,1.54674e-07,0,1.74369e-06,-3.2601e+08,-3.26067e+08,-3.26077e+08,119617,-0.0136046,0.237407,-0,0.237797,-9622.19,-11872.9,-0,15282.4,119617
step02_gravity_refstate-crust.xmf,715,1.69081e-06,-5.65161e-07,0,2.53704e-06,-5.50286e+08,-5.50441e+08,-5.50402e+08,174041,-0.0165081,0.246857,-0,0.247409,-7166.58,-20039.7,-0,21282.6,174041
step02_gravity_refstate-crust.xmf,716,2.40905e-06,-1.50573e-06,0,2.8163e-06,-6.37892e+08,-6.38161e+08,-6.38058e+08,193198,-0.0172295,0.256337,-0,0.256915,-5647.59,-23230.5,-0,23907.2,193198
step02_gravity_refstate-crust.xmf,717,2.23895e-06,-1.27582e-06,0,2.51127e-06,-6.02204e+08,-6.02445e+08,-6.02357e+08,172273,-0.0156726,0.254528,-0,0.25501,-5651.93,-21930.9,-0,22647.5,172273
step02_gravity_refstate-crust.xmf,718,2.19457e-05,-3.72889e-05,0,-2.37768e-05,-1.09787e+09,-1.10193e+09,-1.09937e+09,-1.63109e+06,0.0382565,0.461444,0,0.463027,1499.28,-40000,0,40028.1,1.63109e+06
step02_gravity_refstate-crust.xmf,719,1.47746e-05,-2.36947e-05,0,-1.71551e-05,-1.06041e+09,-1.06305e+09,-1.06143e+09,-1.17684e+06,0.0357494,0.410798,0,0.412351,1792.79,-38628.5,0,38670.1,1.17684e+06
step02_gravity_refstate-crust.xmf,720,2.87585e-06,-2.09386e-06,0,2.54779e-06,-6.58311e+08,-6.58652e+08,-6.58509e+08,174779,-0.0152192,0.262281,-0,0.262723,-4533.26,-23974.9,-0,24399.7,174779
step02_gravity_refstate-crust.xmf,721,3.92764e-06,-3.58384e-06,0,3.0249e-06,-7.45336e+08,-7.45851e+08,-7.45605e+08,207508,-0.0164411,0.274797,-0,0.275288,-3665.08,-27145,-0,27391.3,207508
step02_gravity_refstate-crust.xmf,722,3.62973e-06,-3.16196e-06,0,2.58368e-06,-7.12532e+08,-7.12998e+08,-7.12781e+08,177241,-0.0144656,0.271232,-0,0.271617,-3559.35,-25950.2,-0,26193.2,177241
step02_gravity_refstate-crust.xmf,723,1.00425e-05,-1.29477e-05,0,1.65422e-06,-9.31376e+08,-9.32953e+08,-9.32065e+08,113479,-0.00578182,0.337297,-0,0.337346,-572.243,-33928.2,-0,33933.1,113479
step02_gravity_refstate-crust.xmf,724,5.6026e-06,-5.96923e-06,0,2.47154e-06,-8.10631e+08,-8.11425e+08,-8.11015e+08,169548,-0.0119393,0.293038,-0,0.293282,-2028.02,-29525.3,-0,29594.8,169548
step02_gravity_refstate-crust.xmf,725,9.07099e-06,-1.13609e-05,0,1.14443e-06,-9.09272e+08,-9.10673e+08,-9.09894e+08,78507.6,-0.00427769,0.327806,-0,0.327834,-470.218,-33122.1,-0,33125.4,78507.6
step02_gravity_refstate-crust.xmf,726,7.54236e-06,-8.88302e-06,0,1.84824e-06,-8.72063e+08,-8.7319e+08,-8.72581e+08,126789,-0.00776318,0.312919,-0,0.313015,-1014.04,-31765.1,-0,31781.3,126789
step02_gravity_refstate-crust.xmf,727,6.33835e-06,-7.10884e-06,0,1.65608e-06,-8.30008e+08,-8.30931e+08,-8.30443e+08,113607,-0.00758741,0.300341,-0,0.300437,-1176.88,-30231.9,-0,30254.8,113607
step02_gravity_refstate-crust.xmf,728,1.49155e-05,-2.25596e-05,0,-1.1224e-05,-1.03352e+09,-1.03609e+09,-1.03454e+09,-769966,0.0263239,0.394302,0,0.39518,1515.82,-37651.8,0,37682.3,769966
step02_gravity_refstate-crust.xmf,729,1.32476e-05,-1.94906e-05,0,-9.92075e-06,-1.01647e+09,-1.01872e+09,-1.01738e+09,-680563,0.0255982,0.378995,0,0.379858,1659.9,-37029.2,0,37066.4,680563
step02_gravity_refstate-crust.xmf,730,1.18989e-05,-1.70295e-05,0,-8.76438e-06,-9.9904e+08,-1.00102e+09,-9.99856e+08,-601236,0.0246352,0.365666,0,0.366495,1786.42,-36392.8,0,36436.6,601236
step02_gravity_refstate-crust.xmf,731,8.84889e-07,-4.88468e-08,0,8.30996e-07,-1.04992e+08,-1.05056e+08,-1.05053e+08,57006.3,-0.0197735,0.228387,-0,0.229241,-12834.7,-3825.85,-0,13392.8,57006.3
step02_gravity_refstate-crust.xmf,732,8.04013e-07,2.29993e-07,0,1.53277e-06,-2.43482e+08,-2.43522e+08,-2.43538e+08,105148,-0.014969,0.232109,-0,0.232591,-11471.9,-8867.83,-0,14499.7,105148
step02_gravity_refstate-crust.xmf,733,8.92092e-07,9.65868e-08,0,1.24049e-06,-1.8553e+08,-1.85585e+08,-1.85592e+08,85097.9,-0.0156539,0.232761,-0,0.233287,-11375.3,-6758.18,-0,13231.4,85097.9
step02_gravity_refstate-crust.xmf,734,1.19141e-06,-4.81216e-08,0,1.63937e-06,-3.542e+08,-3.54285e+08,-3.54282e+08,112460,-0.0121312,0.242528,-0,0.242832,-7912.87,-12899.7,-0,15133.3,112460
step02_gravity_refstate-crust.xmf,735,2.04171e-06,-1.02155e-06,0,2.26311e-06,-5.6316e+08,-5.6337e+08,-5.633e+08,155249,-0.0143857,0.252512,-0,0.252922,-5760.9,-20509.1,-0,21302.8,155249
step02_gravity_refstate-crust.xmf,736,1.73029e-05,-2.92736e-05,0,-2.471e-05,-1.08889e+09,-1.09208e+09,-1.09007e+09,-1.69511e+06,0.0413193,0.440177,0,0.442112,1730.92,-39666.7,0,39704.5,1.69511e+06
step02_gravity_refstate-crust.xmf,737,1.16784e-05,-2.01004e-05,0,-2.08141e-05,-1.07076e+09,-1.07294e+09,-1.07156e+09,-1.42785e+06,0.0434887,0.40634,0,0.40866,2194.49,-38998.1,0,39059.8,1.42785e+06
step02_gravity_refstate-crust.xmf,738,3.34521e-06,-2.74319e-06,0,2.19979e-06,-6.7861e+08,-6.79028e+08,-6.78839e+08,150906,-0.0127061,0.267991,-0,0.268292,-3454.76,-24714.8,-0,24955,150906
step02_gravity_refstate-crust.xmf,739,4.53236e-06,-4.40999e-06,0,2.5801e-06,-7.63725e+08,-7.64339e+08,-7.64036e+08,176995,-0.0135245,0.281382,-0,0.281706,-2759.1,-27815.7,-0,27952.2,176995
step02_gravity_refstate-crust.xmf,740,5.13124e-06,-5.23737e-06,0,1.98654e-06,-7.81653e+08,-7.82365e+08,-7.82005e+08,136276,-0.010056,0.287598,-0,0.287773,-1887.76,-28469.5,-0,28532,136276
step02_gravity_refstate-crust.xmf,741,8.2059e-06,-9.8672e-06,0,6.98123e-07,-8.86181e+08,-8.87421e+08,-8.86744e+08,47891.3,-0.00287817,0.319082,-0,0.319095,-350.865,-32280.2,-0,32282.1,47891.3
step02_gravity_refstate-crust.xmf,742,7.00629e-06,-8.09768e-06,0,1.39771e-06,-8.5208e+08,-8.53117e+08,-8.52561e+08,95882.7,-0.00610102,0.307129,-0,0.30719,-862.85,-31036.7,-0,31048.6,95882.7
step02_gravity_refstate-crust.xmf,743,1.08611e-05,-1.42532e-05,0,-1.78467e-07,-9.44286e+08,-9.46009e+08,-9.45031e+08,-12242.8,0.000585705,0.344397,0,0.344398,54.1122,-34399.6,0,34399.6,12242.8
step02_gravity_refstate-crust.xmf,744,1.13554e-05,-1.49701e-05,0,-2.46866e-06,-9.56887e+08,-9.58693e+08,-9.57666e+08,-169350,0.00775728,0.34992,0,0.350006,674.544,-34859.2,0,34865.7,169350
step02_gravity_refstate-crust.xmf,745,1.13544e-05,-1.52327e-05,0,-4.88827e-06,-9.68134e+08,-9.69958e+08,-9.68913e+08,-335335,0.015097,0.352916,0,0.353239,1258.88,-35268.2,0,35290.7,335335
step02_gravity_refstate-crust.xmf,746,1.07444e-05,-1.48278e-05,0,-7.78363e-06,-9.81312e+08,-9.83066e+08,-9.82049e+08,-533957,0.0236265,0.353913,0,0.354701,1903.97,-35746.2,0,35796.8,533957
step02_gravity_refstate-crust.xmf,747,1.31186e-05,-2.04756e-05,0,-1.5035e-05,-1.04496e+09,-1.04726e+09,-1.04586e+09,-1.0314e+06,0.0347895,0.393855,0,0.395388,1963.14,-38064,0,38114.6,1.0314e+06
step02_gravity_refstate-crust.xmf,748,1.57544e-06,-4.50825e-07,0,2.21589e-06,-5.01992e+08,-5.02131e+08,-5.021e+08,152010,-0.0146072,0.246307,-0,0.24674,-7076.85,-18281.2,-0,19603.2,152010
step02_gravity_refstate-crust.xmf,749,1.3764e-06,-2.37371e-07,0,1.70356e-06,-4.03929e+08,-4.0404e+08,-4.04023e+08,116864,-0.0118178,0.245466,-0,0.24575,-6968.04,-14710.6,-0,16277.5,116864
step02_gravity_refstate-crust.xmf,750,1.47786e-06,-3.47236e-07,0,1.9461e-06,-4.56046e+08,-4.56171e+08,-4.56148e+08,133502,-0.013083,0.24596,-0,0.246307,-6984.44,-16608.3,-0,18017.1,133502
step02_gravity_refstate-crust.xmf,751,1.03289e-06,-7.04592e-08,0,9.20989e-07,-1.28455e+08,-1.28531e+08,-1.28526e+08,63179.9,-0.0171585,0.233304,-0,0.233934,-11203.5,-4680.61,-0,12142,63179.9
step02_gravity_refstate-crust.xmf,752,1.25552e-06,-3.02788e-07,0,5.07203e-07,-6.30558e+07,-6.31627e+07,-6.3142e+07,34794.1,-0.0203341,0.233127,-0,0.234012,-11111.6,-2300.22,-0,11347.2,34794.1
step02_gravity_refstate-crust.xmf,753,1.35297e-06,-5.0991e-07,0,1.53313e-08,128671,877.203,35857,1051.73,-0.0269289,0.229053,-0,0.23063,-12254.7,0,-0,12254.7,1051.73
step02_gravity_refstate-crust.xmf,754,9.83367e-07,1.11495e-07,0,1.51714e-06,-2.73002e+08,-2.73062e+08,-2.73069e+08,104076,-0.0132856,0.237566,-0,0.237938,-9655.54,-9943.05,-0,13859.8,104076
step02_gravity_refstate-crust.xmf,755,1.16026e-06,-2.79141e-08,0,1.42614e-06,-2.99388e+08,-2.9947e+08,-2.99468e+08,97832.9,-0.0115775,0.24234,-0,0.242616,-7953.45,-10904.2,-0,13496.6,97832.9
step02_gravity_refstate-crust.xmf,756,1.91048e-06,-8.40058e-07,0,1.99658e-06,-5.25023e+08,-5.25212e+08,-5.25154e+08,136965,-0.0129482,0.251462,-0,0.251795,-5689.79,-19120.4,-0,19949,136965
step02_gravity_refstate-crust.xmf,757,2.64623e-06,-1.80163e-06,0,2.24445e-06,-6.22693e+08,-6.22998e+08,-6.22874e+08,153969,-0.0136667,0.259909,-0,0.260268,-4494.2,-22677.7,-0,23118.7,153969
step02_gravity_refstate-crust.xmf,758,2.42617e-06,-1.50819e-06,0,1.98344e-06,-5.85725e+08,-5.85995e+08,-5.85892e+08,136064,-0.0123289,0.257739,-0,0.258034,-4483.62,-21331.4,-0,21797.5,136064
step02_gravity_refstate-crust.xmf,759,1.11916e-05,-2.05082e-05,0,-2.43716e-05,-1.08522e+09,-1.08739e+09,-1.08599e+09,-1.67189e+06,0.0470067,0.416606,0,0.419249,2203.37,-39522.1,0,39583.4,1.67189e+06
step02_gravity_refstate-crust.xmf,760,1.0615e-05,-1.76863e-05,0,-1.83491e-05,-1.05697e+09,-1.05892e+09,-1.0577e+09,-1.25875e+06,0.0422764,0.391093,0,0.393371,2370.32,-38495.7,0,38568.7,1.25875e+06
step02_gravity_refstate-crust.xmf,761,3.07565e-06,-2.33244e-06,0,1.87168e-06,-6.43791e+08,-6.44162e+08,-6.44002e+08,128397,-0.0111801,0.265078,-0,0.265314,-3360.49,-23446.7,-0,23686.3,128397
step02_gravity_refstate-crust.xmf,762,4.16627e-06,-3.85216e-06,0,2.1296e-06,-7.31884e+08,-7.32434e+08,-7.32169e+08,146090,-0.0116189,0.277084,-0,0.277327,-2621.33,-26655.8,-0,26784.4,146090
step02_gravity_refstate-crust.xmf,763,3.80951e-06,-3.36704e-06,0,1.75782e-06,-6.98755e+08,-6.99248e+08,-6.99017e+08,120586,-0.00986083,0.273212,-0,0.27339,-2462.44,-25449.1,-0,25567.9,120586
step02_gravity_refstate-crust.xmf,764,9.73802e-06,-1.24263e-05,0,-4.80852e-07,-9.22834e+08,-9.24355e+08,-9.23502e+08,-32986.4,0.0017167,0.334008,0,0.334012,176.591,-33616.9,0,33617.3,32986.4
step02_gravity_refstate-crust.xmf,765,5.6972e-06,-6.03269e-06,0,1.23185e-06,-7.99265e+08,-8.00069e+08,-7.99655e+08,84505,-0.00604682,0.293305,-0,0.293368,-1050.37,-29111.7,-0,29130.7,84505
step02_gravity_refstate-crust.xmf,766,8.75188e-06,-1.08412e-05,0,-6.73089e-07,-9.00588e+08,-9.01932e+08,-9.01188e+08,-46173.9,0.00258188,0.324557,0,0.324568,295.031,-32805.4,0,32806.7,46173.9
step02_gravity_refstate-crust.xmf,767,7.46831e-06,-8.71741e-06,0,3.57321e-07,-8.63708e+08,-8.64819e+08,-8.6422e+08,24512.2,-0.0016005,0.311579,-0,0.311583,-214.589,-31460.9,-0,31461.6,24512.2
step02_gravity_refstate-crust.xmf,768,6.79181e-06,-7.75423e-06,0,2.32816e-07,-8.40364e+08,-8.41362e+08,-8.4083e+08,15971.2,-0.0010495,0.304631,-0,0.304633,-154.662,-30609.8,-0,30610.2,15971.2
step02_gravity_refstate-crust.xmf,769,1.17848e-05,-1.80367e-05,0,-1.32058e-05,-1.02835e+09,-1.03039e+09,-1.02916e+09,-905917,0.0336002,0.378369,0,0.379858,2133.83,-37457.7,0,37518.5,905917
step02_gravity_refstate-crust.xmf,770,1.06798e-05,-1.58079e-05,0,-1.15641e-05,-1.0109e+09,-1.01272e+09,-1.01163e+09,-793296,0.032139,0.364736,0,0.366149,2285.56,-36821.6,0,36892.5,793296
step02_gravity_refstate-crust.xmf,771,9.7364e-06,-1.39511e-05,0,-1.022e-05,-9.93291e+08,-9.94916e+08,-9.93959e+08,-701092,0.0307353,0.352768,0,0.354105,2431.14,-36179.5,0,36261.1,701092
step02_gravity_refstate-crust.xmf,772,1.04045e-06,3.15866e-08,0,1.26094e-06,-2.16491e+08,-2.1656e+08,-2.16562e+08,86500.6,-0.0134373,0.237953,-0,0.238332,-9575.94,-7885.83,-0,12405,86500.6
step02_gravity_refstate-crust.xmf,773,1.15371e-06,-8.96767e-08,0,9.85544e-07,-1.59315e+08,-1.59401e+08,-1.59394e+08,67608.3,-0.0142735,0.238249,-0,0.238676,-9448,-5804.56,-0,11088.6,67608.3
step02_gravity_refstate-crust.xmf,774,1.38117e-06,-2.4814e-07,0,1.41192e-06,-3.63053e+08,-3.63165e+08,-3.63148e+08,96857.4,-0.0102126,0.246805,-0,0.247017,-6320.56,-13222.5,-0,14655.5,96857.4
step02_gravity_refstate-crust.xmf,775,1.32051e-06,-1.77971e-07,0,1.28453e-06,-3.2124e+08,-3.21342e+08,-3.2133e+08,88119.1,-0.00990006,0.24616,-0,0.246359,-6456.73,-11700.1,-0,13363.5,88119.1
step02_gravity_refstate-crust.xmf,776,2.23218e-06,-1.25639e-06,0,1.72333e-06,-5.46701e+08,-5.4694e+08,-5.46854e+08,118220,-0.0109122,0.256069,-0,0.256302,-4387.76,-19910.3,-0,20388,118220
step02_gravity_refstate-crust.xmf,777,8.71088e-06,-1.62324e-05,0,-2.24666e-05,-1.07764e+09,-1.07935e+09,-1.07824e+09,-1.54121e+06,0.0485076,0.398268,0,0.401212,2533.93,-39242.6,0,39324.4,1.54121e+06
step02_gravity_refstate-crust.xmf,778,8.34549e-06,-1.49991e-05,0,-2.04346e-05,-1.06748e+09,-1.06908e+09,-1.06805e+09,-1.40181e+06,0.0473194,0.388057,0,0.390931,2654.62,-38873,0,38963.6,1.40181e+06
step02_gravity_refstate-crust.xmf,779,3.47847e-06,-2.89644e-06,0,1.44158e-06,-6.64667e+08,-6.65105e+08,-6.64906e+08,98892.4,-0.008343,0.269733,-0,0.269862,-2306.82,-24207.5,-0,24317.1,98892.4
step02_gravity_refstate-crust.xmf,780,4.68367e-06,-4.56318e-06,0,1.57511e-06,-7.51204e+08,-7.51838e+08,-7.51525e+08,108053,-0.00832673,0.282587,-0,0.28271,-1730.01,-27360.2,-0,27414.9,108053
step02_gravity_refstate-crust.xmf,781,6.14163e-06,-6.76304e-06,0,2.60618e-07,-8.14681e+08,-8.15566e+08,-8.15102e+08,17878.4,-0.00120821,0.297886,-0,0.297889,-197.087,-29673.7,-0,29674.3,17878.4
step02_gravity_refstate-crust.xmf,782,5.17134e-06,-5.2452e-06,0,8.92602e-07,-7.70344e+08,-7.71059e+08,-7.70699e+08,61232.5,-0.00459763,0.287629,-0,0.287666,-884.097,-28057.9,-0,28071.9,61232.5
step02_gravity_refstate-crust.xmf,783,7.91239e-06,-9.42326e-06,0,-8.39795e-07,-8.78487e+08,-8.79676e+08,-8.7903e+08,-57609.9,0.0033836,0.316279,0,0.316298,426.689,-31999.6,0,32002.5,57609.9
step02_gravity_refstate-crust.xmf,784,1.01452e-05,-1.31871e-05,0,-2.44069e-06,-9.36345e+08,-9.37945e+08,-9.37041e+08,-167432,0.00839137,0.338893,0,0.338997,814.018,-34109.2,0,34118.9,167432
step02_gravity_refstate-crust.xmf,785,1.01301e-05,-1.32529e-05,0,-4.61593e-06,-9.4882e+08,-9.50424e+08,-9.49514e+08,-316653,0.0153995,0.341617,0,0.341964,1430.66,-34563.2,0,34592.8,316653
step02_gravity_refstate-crust.xmf,786,9.68176e-06,-1.29557e-05,0,-6.91388e-06,-9.61775e+08,-9.63328e+08,-9.62439e+08,-474292,0.0226635,0.342488,0,0.343237,2036.97,-35033.5,0,35092.6,474292
step02_gravity_refstate-crust.xmf,787,8.82828e-06,-1.21554e-05,0,-9.07915e-06,-9.74723e+08,-9.76163e+08,-9.75329e+08,-622830,0.0294641,0.341547,0,0.342815,2590.84,-35502.7,0,35597.1,622830
step02_gravity_refstate-crust.xmf,788,9.52043e-06,-1.53582e-05,0,-1.60902e-05,-1.04093e+09,-1.04263e+09,-1.04158e+09,-1.10378e+06,0.0410724,0.375001,0,0.377243,2595.87,-37910.7,0,37999.5,1.10378e+06
step02_gravity_refstate-crust.xmf,789,1.77348e-06,-6.95495e-07,0,1.74091e-06,-4.82146e+08,-4.82315e+08,-4.82268e+08,119427,-0.01144,0.250711,-0,0.250972,-5540.28,-17559.1,-0,18412.4,119427
step02_gravity_refstate-crust.xmf,790,1.64677e-06,-5.48005e-07,0,1.51055e-06,-4.36697e+08,-4.36848e+08,-4.3681e+08,103624,-0.0101584,0.250032,-0,0.250239,-5412.39,-15904.2,-0,16799.9,103624
step02_gravity_refstate-crust.xmf,791,1.33791e-06,-2.56575e-07,0,6.86105e-07,-1.0307e+08,-1.03179e+08,-1.03162e+08,47066.8,-0.0158492,0.2384,-0,0.238926,-9253.58,-3757.38,-0,9987.32,47066.8
step02_gravity_refstate-crust.xmf,792,1.79306e-06,-6.80552e-07,0,1.23462e-08,170321,631.306,47317.2,846.946,-0.0230424,0.235447,-0,0.236572,-9771.03,0,-0,9771.03,846.946
step02_gravity_refstate-crust.xmf,793,1.18479e-06,-6.3301e-08,0,1.20434e-06,-2.45981e+08,-2.46067e+08,-2.46063e+08,82617.7,-0.0112954,0.242613,-0,0.242876,-7814.66,-8959.89,-0,11889,82617.7
step02_gravity_refstate-crust.xmf,794,1.54724e-06,-4.32944e-07,0,1.29842e-06,-3.9077e+08,-3.90906e+08,-3.90876e+08,89071.3,-0.00903935,0.249644,-0,0.249808,-5231.65,-14232,-0,15163.1,89071.3
step02_gravity_refstate-crust.xmf,795,1.47894e-06,-3.50392e-07,0,1.09844e-06,-3.44759e+08,-3.44885e+08,-3.44861e+08,75352.9,-0.00806653,0.249518,-0,0.249648,-4978.54,-12556.7,-0,13507.7,75352.9
step02_gravity_refstate-crust.xmf,796,1.31792e-06,-1.66999e-07,0,1.08863e-06,-2.73387e+08,-2.73488e+08,-2.73477e+08,74680,-0.00931983,0.246361,-0,0.246537,-6230.11,-9957.98,-0,11746.3,74680
step02_gravity_refstate-crust.xmf,797,2.06461e-06,-1.0271e-06,0,1.46148e-06,-5.05862e+08,-5.06074e+08,-5.06004e+08,100257,-0.00947673,0.25483,-0,0.255007,-4206.35,-18423.2,-0,18897.3,100257
step02_gravity_refstate-crust.xmf,798,2.80426e-06,-1.99342e-06,0,1.62085e-06,-6.0757e+08,-6.07899e+08,-6.07762e+08,111190,-0.00985828,0.26245,-0,0.262635,-3280.92,-22127.5,-0,22369.4,111190
step02_gravity_refstate-crust.xmf,799,2.55509e-06,-1.66441e-06,0,1.39697e-06,-5.6977e+08,-5.7006e+08,-5.69945e+08,95832,-0.00867379,0.260147,-0,0.260292,-3199.6,-20750.8,-0,20996,95832
step02_gravity_refstate-crust.xmf,800,5.82001e-06,-1.24979e-05,0,-2.38468e-05,-1.08693e+09,-1.08819e+09,-1.08733e+09,-1.63589e+06,0.0523527,0.392328,0,0.395806,2798.04,-39575.1,0,39673.9,1.63589e+06
step02_gravity_refstate-crust.xmf,801,6.59557e-06,-1.1975e-05,0,-1.88179e-05,-1.05696e+09,-1.05823e+09,-1.05741e+09,-1.29091e+06,0.0479645,0.370125,0,0.37322,3036.26,-38487.7,0,38607.3,1.29091e+06
step02_gravity_refstate-crust.xmf,802,5.39271e-06,-1.10021e-05,0,-2.1146e-05,-1.07415e+09,-1.07527e+09,-1.07452e+09,-1.45061e+06,0.0513945,0.376718,0,0.380207,3054.29,-39110.1,0,39229.2,1.45061e+06
step02_gravity_refstate-crust.xmf,803,3.1662e-06,-2.43306e-06,0,1.18158e-06,-6.29211e+08,-6.29595e+08,-6.29428e+08,81056.5,-0.00709626,0.266568,-0,0.266663,-2175.99,-22916.1,-0,23019.2,81056.5
step02_gravity_refstate-crust.xmf,804,4.26296e-06,-3.94385e-06,0,1.21645e-06,-7.18997e+08,-7.1956e+08,-7.1929e+08,83448.8,-0.00670889,0.277988,-0,0.278069,-1546.09,-26186.9,-0,26232.5,83448.8
step02_gravity_refstate-crust.xmf,805,3.86595e-06,-3.42115e-06,0,9.0707e-07,-6.85494e+08,-6.85994e+08,-6.8576e+08,62225,-0.00511097,0.2739,-0,0.273947,-1306.76,-24966.5,-0,25000.6,62225
step02_gravity_refstate-crust.xmf,806,9.07799e-06,-1.14539e-05,0,-2.33481e-06,-9.14399e+08,-9.15807e+08,-9.15022e+08,-160168,0.00863512,0.328702,0,0.328816,933.806,-33308.6,0,33321.7,160168
step02_gravity_refstate-crust.xmf,807,5.57615e-06,-5.83239e-06,0,4.50757e-08,-7.88062e+08,-7.88845e+08,-7.88445e+08,3092.19,-0.000296195,0.291843,-0,0.291843,-53.2349,-28703.7,-0,28703.8,3092.19
step02_gravity_refstate-crust.xmf,808,8.17622e-06,-9.99651e-06,0,-2.22697e-06,-8.92367e+08,-8.93613e+08,-8.92927e+08,-152770,0.00879833,0.31975,0,0.319871,1054.18,-32505.1,0,32522.2,152770
step02_gravity_refstate-crust.xmf,809,7.13817e-06,-8.27635e-06,0,-1.1423e-06,-8.5503e+08,-8.56088e+08,-8.5552e+08,-78361.5,0.00484815,0.308362,0,0.3084,676.36,-31144.3,0,31151.6,78361.5
step02_gravity_refstate-crust.xmf,810,6.43984e-06,-7.2272e-06,0,-9.50472e-07,-8.29496e+08,-8.30434e+08,-8.29938e+08,-65202.3,0.00431166,0.30122,0,0.301251,665.473,-30213.5,0,30220.8,65202.3
step02_gravity_refstate-crust.xmf,811,8.86078e-06,-1.37774e-05,0,-1.40993e-05,-1.02333e+09,-1.02488e+09,-1.02394e+09,-967212,0.0391588,0.361408,0,0.363523,2769.9,-37269.8,0,37372.6,967212
step02_gravity_refstate-crust.xmf,812,8.2965e-06,-1.23567e-05,0,-1.23675e-05,-1.00536e+09,-1.00677e+09,-1.00593e+09,-848412,0.0371348,0.349771,0,0.351737,2917.25,-36615.4,0,36731.5,848412
step02_gravity_refstate-crust.xmf,813,7.71584e-06,-1.10468e-05,0,-1.09464e-05,-9.87069e+08,-9.88356e+08,-9.87598e+08,-750923,0.0353425,0.33909,0,0.340927,3074.63,-35949.3,0,36080.6,750923
step02_gravity_refstate-crust.xmf,814,1.67981e-06,-5.06343e-07,0,3.35206e-07,-4.89876e+07,-4.91376e+07,-4.91028e+07,22995.1,-0.017285,0.239526,-0,0.240149,-8459.14,-1789.46,-0,8646.34,22995.1
step02_gravity_refstate-crust.xmf,815,1.26357e-06,-1.33824e-07,0,9.70257e-07,-1.89735e+08,-1.89831e+08,-1.89822e+08,66559.6,-0.011556,0.242763,-0,0.243038,-7672.02,-6912.42,-0,10326.7,66559.6
step02_gravity_refstate-crust.xmf,816,1.41254e-06,-2.5525e-07,0,7.23483e-07,-1.33369e+08,-1.33483e+08,-1.33466e+08,49631,-0.0124576,0.242708,-0,0.243027,-7523.53,-4860.74,-0,8957.14,49631
step02_gravity_refstate-crust.xmf,817,1.43822e-06,-2.83292e-07,0,9.36816e-07,-2.99538e+08,-2.99656e+08,-2.99637e+08,64265.6,-0.00747644,0.249303,-0,0.249415,-4813.49,-10910.4,-0,11925,64265.6
step02_gravity_refstate-crust.xmf,818,2.33965e-06,-1.3856e-06,0,1.15006e-06,-5.30121e+08,-5.30377e+08,-5.30282e+08,78894.1,-0.00727752,0.258416,-0,0.258518,-2970.83,-19306.9,-0,19534.1,78894.1
step02_gravity_refstate-crust.xmf,819,3.49761e-06,-2.90781e-06,0,6.83789e-07,-6.51173e+08,-6.51612e+08,-6.51413e+08,46907.9,-0.00397998,0.270199,-0,0.270228,-1129.31,-23716.2,-0,23743.1,46907.9
step02_gravity_refstate-crust.xmf,820,4.69309e-06,-4.55029e-06,0,6.00844e-07,-7.40632e+08,-7.41266e+08,-7.40954e+08,41217.9,-0.00320554,0.282554,-0,0.282572,-681.681,-26975.4,-0,26984,41217.9
step02_gravity_refstate-crust.xmf,821,5.85688e-06,-6.33962e-06,0,-9.44841e-07,-8.04695e+08,-8.05531e+08,-8.05097e+08,-64816.1,0.00450571,0.294999,0,0.295034,764.786,-29309.6,0,29319.6,64816.1
step02_gravity_refstate-crust.xmf,822,5.05095e-06,-5.06398e-06,0,-1.11799e-07,-7.60265e+08,-7.60959e+08,-7.60612e+08,-7669.41,0.000530418,0.286316,0,0.286317,105.323,-27690.8,0,27691,7669.41
step02_gravity_refstate-crust.xmf,823,7.53686e-06,-8.94643e-06,0,-2.04947e-06,-8.73681e+08,-8.74812e+08,-8.74198e+08,-140594,0.00854151,0.313153,0,0.31327,1110.36,-31823.9,0,31843.2,140594
step02_gravity_refstate-crust.xmf,824,9.08409e-06,-1.16737e-05,0,-4.24414e-06,-9.27986e+08,-9.2941e+08,-9.28609e+08,-291148,0.0152605,0.331184,0,0.331535,1578.65,-33802.9,0,33839.8,291148
step02_gravity_refstate-crust.xmf,825,7.95667e-06,-1.05732e-05,0,-8.16473e-06,-9.54886e+08,-9.56157e+08,-9.55432e+08,-560101,0.028469,0.330631,0,0.331854,2790.02,-34779.4,0,34891.1,560101
step02_gravity_refstate-crust.xmf,826,8.69241e-06,-1.12851e-05,0,-6.24185e-06,-9.41465e+08,-9.42835e+08,-9.42061e+08,-428191,0.0220162,0.331802,0,0.332531,2204.19,-34292.7,0,34363.4,428191
step02_gravity_refstate-crust.xmf,827,7.10167e-06,-9.70908e-06,0,-9.78142e-06,-9.68578e+08,-9.69731e+08,-9.69065e+08,-671006,0.0338541,0.329162,0,0.330899,3253.32,-35275.7,0,35425.4,671006
step02_gravity_refstate-crust.xmf,828,6.3702e-06,-1.08169e-05,0,-1.61683e-05,-1.03723e+09,-1.03841e+09,-1.03767e+09,-1.10914e+06,0.0456033,0.35529,0,0.358205,3261.86,-37770.6,0,37911.2,1.10914e+06
step02_gravity_refstate-crust.xmf,829,1.89896e-06,-8.45415e-07,0,1.24158e-06,-4.62635e+08,-4.62823e+08,-4.62765e+08,85172.1,-0.00816497,0.253814,-0,0.253945,-3996.3,-16849.1,-0,17316.5,85172.1
step02_gravity_refstate-crust.xmf,830,1.75483e-06,-6.72018e-07,0,1.04224e-06,-4.17312e+08,-4.17479e+08,-4.17432e+08,71497.8,-0.00704917,0.25297,-0,0.253068,-3785.11,-15198.7,-0,15663,71497.8
step02_gravity_refstate-crust.xmf,831,1.62661e-06,-4.14e-07,0,4.82299e-07,-8.54122e+07,-8.55522e+07,-8.55238e+07,33085.7,-0.0135394,0.242748,-0,0.243125,-7227.21,-3115.46,-0,7870.11,33085.7
step02_gravity_refstate-crust.xmf,832,2.16044e-06,-8.20202e-07,0,1.14547e-08,205209,737.158,57003,785.795,-0.0181914,0.240718,-0,0.241404,-7310.9,0,-0,7310.9,785.795
step02_gravity_refstate-crust.xmf,833,1.36148e-06,-1.97058e-07,0,8.83501e-07,-2.19837e+08,-2.19943e+08,-2.1993e+08,60608.2,-0.00902569,0.246563,-0,0.246728,-5955.51,-8008.57,-0,9980.24,60608.2
step02_gravity_refstate-crust.xmf,834,1.63334e-06,-5.2311e-07,0,8.77986e-07,-3.70003e+08,-3.70151e+08,-3.70115e+08,60229.8,-0.00620228,0.252233,-0,0.252309,-3614.81,-13476.1,-0,13952.5,60229.8
step02_gravity_refstate-crust.xmf,835,1.5537e-06,-4.18172e-07,0,7.36204e-07,-3.24112e+08,-3.24247e+08,-3.24219e+08,50503.6,-0.00555345,0.251719,-0,0.25178,-3432.37,-11805.3,-0,12294.1,50503.6
step02_gravity_refstate-crust.xmf,836,1.44804e-06,-2.67186e-07,0,7.514e-07,-2.51815e+08,-2.51932e+08,-2.51914e+08,51546,-0.00680791,0.24944,-0,0.249533,-4433.2,-9173.01,-0,10188.1,51546
step02_gravity_refstate-crust.xmf,837,2.1489e-06,-1.12603e-06,0,9.04573e-07,-4.88503e+08,-4.88727e+08,-4.8865e+08,62053.7,-0.00589378,0.257021,-0,0.257089,-2659.51,-17791.4,-0,17989.1,62053.7
step02_gravity_refstate-crust.xmf,838,2.86592e-06,-2.06263e-06,0,9.82681e-07,-5.9215e+08,-5.92488e+08,-5.92347e+08,67411.9,-0.00599024,0.263773,-0,0.263841,-2039.73,-21566.2,-0,21662.5,67411.9
step02_gravity_refstate-crust.xmf,839,2.60163e-06,-1.71595e-06,0,7.81396e-07,-5.53851e+08,-5.54147e+08,-5.54029e+08,53603.8,-0.0048611,0.26144,-0,0.261485,-1836.1,-20171.4,-0,20254.8,53603.8
step02_gravity_refstate-crust.xmf,840,2.84971e-06,-7.64562e-06,0,-2.19788e-05,-1.08529e+09,-1.08601e+09,-1.08549e+09,-1.50774e+06,0.0542864,0.370393,0,0.37435,3314.91,-39510.9,0,39649.7,1.50774e+06
step02_gravity_refstate-crust.xmf,841,3.45873e-06,-7.84466e-06,0,-1.96595e-05,-1.06833e+09,-1.06911e+09,-1.06857e+09,-1.34864e+06,0.0523703,0.358502,0,0.362307,3504.9,-38895.6,0,39053.2,1.34864e+06
step02_gravity_refstate-crust.xmf,842,3.15367e-06,-2.40592e-06,0,5.01418e-07,-6.14659e+08,-6.1504e+08,-6.14875e+08,34397.3,-0.00305873,0.266832,-0,0.26685,-966.369,-22386.3,-0,22407.1,34397.3
step02_gravity_refstate-crust.xmf,843,4.25777e-06,-3.96662e-06,0,1.56257e-07,-7.09283e+08,-7.09848e+08,-7.09576e+08,10719.2,-0.000906195,0.277982,-0,0.277984,-213.293,-25833.3,-0,25834.1,10719.2
step02_gravity_refstate-crust.xmf,844,3.78427e-06,-3.30269e-06,0,6.86226e-08,-6.72358e+08,-6.72844e+08,-6.72617e+08,4707.51,-0.000388285,0.273173,-0,0.273173,-102.687,-24488.1,-0,24488.3,4707.51
step02_gravity_refstate-crust.xmf,845,8.1715e-06,-1.0162e-05,0,-3.8259e-06,-9.05658e+08,-9.06916e+08,-9.06219e+08,-262456,0.014735,0.321666,0,0.322004,1695.45,-32988.7,0,33032.3,262456
step02_gravity_refstate-crust.xmf,846,5.29347e-06,-5.44e-06,0,-1.00961e-06,-7.78042e+08,-7.78778e+08,-7.78405e+08,-69259.2,0.00500044,0.289055,0,0.289099,936.443,-28338.4,0,28353.9,69259.2
step02_gravity_refstate-crust.xmf,847,7.39953e-06,-8.88053e-06,0,-3.38761e-06,-8.82398e+08,-8.83515e+08,-8.82906e+08,-232390,0.0139108,0.31323,0,0.313538,1774.16,-32140.8,0,32189.7,232390
step02_gravity_refstate-crust.xmf,848,6.8959e-06,-8.00487e-06,0,-2.70515e-06,-8.60135e+08,-8.61157e+08,-8.60608e+08,-185573,0.01165,0.307129,0,0.30735,1620.43,-31329.6,0,31371.5,185573
step02_gravity_refstate-crust.xmf,849,6.53391e-06,-7.37123e-06,0,-2.06721e-06,-8.41532e+08,-8.42486e+08,-8.4198e+08,-141810,0.009181,0.302841,0,0.30298,1366.29,-30651.8,0,30682.3,141810
step02_gravity_refstate-crust.xmf,850,5.99628e-06,-6.60749e-06,0,-2.06436e-06,-8.20999e+08,-8.21864e+08,-8.21411e+08,-141615,0.00961093,0.297046,0,0.297202,1553.83,-29903.3,0,29943.7,141615
step02_gravity_refstate-crust.xmf,851,6.3698e-06,-1.00648e-05,0,-1.41805e-05,-1.01794e+09,-1.01906e+09,-1.01837e+09,-972783,0.0430149,0.34417,0,0.346847,3412.34,-37069.2,0,37225.9,972783
step02_gravity_refstate-crust.xmf,852,6.23556e-06,-9.31723e-06,0,-1.25304e-05,-9.99244e+08,-1.00031e+09,-9.99672e+08,-859585,0.040666,0.334554,0,0.337017,3550.99,-36389.3,0,36562.1,859585
step02_gravity_refstate-crust.xmf,853,5.97597e-06,-8.51015e-06,0,-1.12056e-05,-9.81221e+08,-9.82214e+08,-9.81631e+08,-768704,0.0387147,0.325768,0,0.32806,3704.26,-35733.3,0,35924.8,768704
step02_gravity_refstate-crust.xmf,854,3.31854e-06,-6.76111e-06,0,-1.75699e-05,-1.05325e+09,-1.05394e+09,-1.05347e+09,-1.20529e+06,0.0510288,0.3448,0,0.348556,3799.95,-38347.4,0,38535.2,1.20529e+06
step02_gravity_refstate-crust.xmf,855,1.95576e-06,-6.22775e-07,0,2.39145e-07,-4.60296e+07,-4.62065e+07,-4.61638e+07,16405.4,-0.0131169,0.244109,-0,0.244461,-6088.99,-1682.7,-0,6317.22,16405.4
step02_gravity_refstate-crust.xmf,856,1.47378e-06,-2.72351e-07,0,6.77144e-07,-1.62601e+08,-1.62721e+08,-1.62702e+08,46452.1,-0.00931552,0.24645,-0,0.246626,-5758.5,-5925.21,-0,8262.47,46452.1
step02_gravity_refstate-crust.xmf,857,1.67645e-06,-4.14126e-07,0,4.62758e-07,-1.03705e+08,-1.03849e+08,-1.0382e+08,31745.2,-0.0103898,0.245867,-0,0.246086,-5678.84,-3781.63,-0,6822.75,31745.2
step02_gravity_refstate-crust.xmf,858,1.51169e-06,-3.47246e-07,0,6.36273e-07,-2.81917e+08,-2.82044e+08,-2.82021e+08,43648.3,-0.00524892,0.251245,-0,0.2513,-3349.97,-10269,-0,10801.6,43648.3
step02_gravity_refstate-crust.xmf,859,2.37217e-06,-1.41903e-06,0,5.76514e-07,-5.15244e+08,-5.15504e+08,-5.15407e+08,39548.8,-0.00363964,0.259586,-0,0.259611,-1518.25,-18765.4,-0,18826.7,39548.8
step02_gravity_refstate-crust.xmf,860,3.39691e-06,-2.7674e-06,0,-4.60543e-08,-6.37013e+08,-6.37436e+08,-6.37246e+08,-3159.33,0.000267916,0.269315,0,0.269316,79.0089,-23200.6,0,23200.7,3159.33
step02_gravity_refstate-crust.xmf,861,4.64968e-06,-4.5147e-06,0,-2.13244e-07,-7.35974e+08,-7.36602e+08,-7.36293e+08,-14628.6,0.00114393,0.282055,0,0.282057,247.015,-26805.7,0,26806.8,14628.6
step02_gravity_refstate-crust.xmf,862,5.40846e-06,-5.72093e-06,0,-2.00314e-06,-7.95232e+08,-7.95995e+08,-7.95603e+08,-137415,0.00979715,0.29072,0,0.290885,1747.84,-28964.2,0,29016.9,137415
step02_gravity_refstate-crust.xmf,863,4.7855e-06,-4.70281e-06,0,-9.66428e-07,-7.49703e+08,-7.50354e+08,-7.50031e+08,-66296.9,0.00501689,0.283667,0,0.283712,1037.73,-27305.8,0,27325.5,66296.9
step02_gravity_refstate-crust.xmf,864,7.85021e-06,-9.94013e-06,0,-5.58964e-06,-9.19544e+08,-9.20764e+08,-9.20082e+08,-383449,0.0211298,0.321976,0,0.322668,2355.47,-33493.3,0,33576,383449
step02_gravity_refstate-crust.xmf,865,6.12746e-06,-8.07277e-06,0,-8.9627e-06,-9.48241e+08,-9.49215e+08,-9.48662e+08,-614841,0.0335368,0.316906,0,0.318676,3633.77,-34534,0,34724.6,614841
step02_gravity_refstate-crust.xmf,866,7.17208e-06,-9.19567e-06,0,-7.32647e-06,-9.33811e+08,-9.34934e+08,-9.34303e+08,-502596,0.0274339,0.32057,0,0.321742,2993.13,-34011.1,0,34142.5,502596
step02_gravity_refstate-crust.xmf,867,5.69562e-06,-7.76613e-06,0,-1.02151e-05,-9.65463e+08,-9.66387e+08,-9.65854e+08,-700758,0.0372426,0.318501,0,0.320671,3854.62,-35159.7,0,35370.3,700758
step02_gravity_refstate-crust.xmf,868,4.01089e-06,-7.16263e-06,0,-1.53975e-05,-1.03125e+09,-1.03201e+09,-1.03152e+09,-1.05627e+06,0.0480259,0.335302,0,0.338724,3935.08,-37548.7,0,37754.3,1.05627e+06
step02_gravity_refstate-crust.xmf,869,1.96103e-06,-9.17547e-07,0,7.19039e-07,-4.44243e+08,-4.44441e+08,-4.44378e+08,49326,-0.0047523,0.255763,-0,0.255807,-2367.85,-16179.6,-0,16352,49326
step02_gravity_refstate-crust.xmf,870,1.79757e-06,-7.16371e-07,0,5.78594e-07,-3.98006e+08,-3.98178e+08,-3.98129e+08,39691.5,-0.00395908,0.25463,-0,0.254661,-2163.46,-14496,-0,14656.5,39691.5
step02_gravity_refstate-crust.xmf,871,2.43668e-06,-9.21245e-07,0,1.57486e-08,231611,1257.02,64454.4,1080.35,-0.0125717,0.244651,-0,0.244973,-4867.07,0,-0,4867.07,1080.35
step02_gravity_refstate-crust.xmf,872,1.51207e-06,-2.97101e-07,0,5.69433e-07,-1.95878e+08,-1.96003e+08,-1.95982e+08,39063.1,-0.00640951,0.249423,-0,0.249506,-4041.9,-7136.81,-0,8201.89,39063.1
step02_gravity_refstate-crust.xmf,873,1.66545e-06,-5.47693e-07,0,4.68426e-07,-3.48167e+08,-3.48319e+08,-3.48281e+08,32134,-0.00338849,0.253649,-0,0.253671,-2005.98,-12681.3,-0,12838.9,32134
step02_gravity_refstate-crust.xmf,874,1.58436e-06,-4.31073e-07,0,3.79215e-07,-2.97769e+08,-2.97907e+08,-2.97877e+08,26014.1,-0.00300926,0.252872,-0,0.252889,-1877.83,-10846.3,-0,11007.7,26014.1
step02_gravity_refstate-crust.xmf,875,1.54298e-06,-3.48693e-07,0,3.91186e-07,-2.38009e+08,-2.38139e+08,-2.38115e+08,26835.4,-0.00368323,0.251705,-0,0.251732,-2345.04,-8670.66,-0,8982.18,26835.4
step02_gravity_refstate-crust.xmf,876,2.16596e-06,-1.16507e-06,0,2.92105e-07,-4.73094e+08,-4.73322e+08,-4.73242e+08,20038.4,-0.00192904,0.258048,-0,0.258055,-890.015,-17230.4,-0,17253.4,20038.4
step02_gravity_refstate-crust.xmf,877,2.84061e-06,-2.02316e-06,0,3.52031e-07,-5.77088e+08,-5.77422e+08,-5.77283e+08,24149.3,-0.0021589,0.263952,-0,0.263961,-758.651,-21017.8,-0,21031.5,24149.3
step02_gravity_refstate-crust.xmf,878,2.57215e-06,-1.67593e-06,0,1.98963e-07,-5.3967e+08,-5.39961e+08,-5.39846e+08,13648.9,-0.0012438,0.261577,-0,0.26158,-483.674,-19655,-0,19661,13648.9
step02_gravity_refstate-crust.xmf,879,7.04401e-07,-3.96677e-06,0,-2.01235e-05,-1.08418e+09,-1.0845e+09,-1.08423e+09,-1.38047e+06,0.0550754,0.349835,0,0.354144,3836.93,-39467.4,0,39653.4,1.38047e+06
step02_gravity_refstate-crust.xmf,880,1.31319e-06,-4.3813e-06,0,-1.87146e-05,-1.07099e+09,-1.07138e+09,-1.07108e+09,-1.28382e+06,0.0538723,0.342644,0,0.346853,3979.52,-38988.9,0,39191.5,1.28382e+06
step02_gravity_refstate-crust.xmf,881,3.05773e-06,-2.27337e-06,0,-1.35245e-07,-6.00772e+08,-6.01138e+08,-6.00982e+08,-9277.81,0.000743244,0.265988,0,0.26599,243.814,-21880.6,0,21881.9,9277.81
step02_gravity_refstate-crust.xmf,882,4.35048e-06,-4.10924e-06,0,-7.99905e-07,-7.1999e+08,-7.2057e+08,-7.20288e+08,-54873.5,0.00432405,0.27899,0,0.279024,986.998,-26223.2,0,26241.8,54873.5
step02_gravity_refstate-crust.xmf,883,3.57797e-06,-3.02157e-06,0,-6.77302e-07,-6.58605e+08,-6.59057e+08,-6.5885e+08,-46462.9,0.0039226,0.271036,0,0.271064,1087.77,-23987,0,24011.6,46462.9
step02_gravity_refstate-crust.xmf,884,3.97317e-06,-3.57416e-06,0,-6.904e-07,-6.91581e+08,-6.92099e+08,-6.91853e+08,-47361.4,0.00385842,0.275079,0,0.275107,964.593,-25188.2,0,25206.7,47361.4
step02_gravity_refstate-crust.xmf,885,7.11795e-06,-8.67613e-06,0,-4.90829e-06,-8.95606e+08,-8.96689e+08,-8.96094e+08,-336708,0.0198227,0.313091,0,0.313717,2459.91,-32620.8,0,32713.4,336708
step02_gravity_refstate-crust.xmf,886,4.8783e-06,-4.87644e-06,0,-1.87053e-06,-7.67243e+08,-7.67913e+08,-7.67578e+08,-128319,0.00955014,0.284948,0,0.285107,1884.46,-27944.4,0,28007.9,128319
step02_gravity_refstate-crust.xmf,887,6.55517e-06,-7.6891e-06,0,-4.19041e-06,-8.70698e+08,-8.71675e+08,-8.71148e+08,-287462,0.0179129,0.305739,0,0.306264,2458.52,-31713.2,0,31808.4,287462
step02_gravity_refstate-crust.xmf,888,6.05173e-06,-6.82723e-06,0,-3.36581e-06,-8.42018e+08,-8.42902e+08,-8.42433e+08,-230895,0.0151827,0.299048,0,0.299433,2315.38,-30668.4,0,30755.7,230895
step02_gravity_refstate-crust.xmf,889,5.37872e-06,-5.77812e-06,0,-3.09831e-06,-8.13281e+08,-8.14046e+08,-8.1365e+08,-212544,0.0148744,0.291421,0,0.291801,2540.64,-29621.1,0,29729.9,212544
step02_gravity_refstate-crust.xmf,890,4.33971e-06,-6.96453e-06,0,-1.37598e-05,-1.01204e+09,-1.01281e+09,-1.01233e+09,-943923,0.0455095,0.327032,0,0.330184,4069.83,-36851,0,37075,943923
step02_gravity_refstate-crust.xmf,891,4.50203e-06,-6.70407e-06,0,-1.22985e-05,-9.92761e+08,-9.9353e+08,-9.9307e+08,-843680,0.0430769,0.319462,0,0.322353,4197.1,-36150.3,0,36393.1,843680
step02_gravity_refstate-crust.xmf,892,4.52884e-06,-6.32882e-06,0,-1.10727e-05,-9.74255e+08,-9.75e+08,-9.74566e+08,-759586,0.0409223,0.312579,0,0.315247,4326.24,-35477.3,0,35740.1,759586
step02_gravity_refstate-crust.xmf,893,1.61698e-06,-3.82368e-06,0,-1.59044e-05,-1.04486e+09,-1.04524e+09,-1.04497e+09,-1.09104e+06,0.0514773,0.323457,0,0.327527,4466.15,-38039.9,0,38301.2,1.09104e+06
step02_gravity_refstate-crust.xmf,894,2.03824e-06,-6.24761e-07,0,2.1688e-07,-6.1763e+07,-6.19457e+07,-6.19029e+07,14877.9,-0.00778729,0.247779,-0,0.247901,-3693.14,-2255.82,-0,4327.59,14877.9
step02_gravity_refstate-crust.xmf,895,1.67471e-06,-3.92446e-07,0,4.01355e-07,-1.33856e+08,-1.33998e+08,-1.33971e+08,27532.9,-0.00669459,0.248922,-0,0.249012,-3835.6,-4879.33,-0,6206.42,27532.9
step02_gravity_refstate-crust.xmf,896,2.36597e-06,-1.41119e-06,0,8.81583e-08,-5.06959e+08,-5.07218e+08,-5.07121e+08,6047.66,-0.000559834,0.259814,-0,0.259814,-236.514,-18463.7,-0,18465.2,6047.66
step02_gravity_refstate-crust.xmf,897,5.78969e-07,-2.77632e-06,0,-1.71607e-05,-1.06337e+09,-1.0636e+09,-1.06341e+09,-1.17723e+06,0.0534726,0.327374,0,0.331712,4411.91,-38711.1,0,38961.7,1.17723e+06
step02_gravity_refstate-crust.xmf,898,3.21089e-06,-2.51838e-06,0,-7.27951e-07,-6.24518e+08,-6.24911e+08,-6.24738e+08,-49937.5,0.00435683,0.267362,0,0.267398,1340.83,-22745.3,0,22784.8,49937.5
step02_gravity_refstate-crust.xmf,899,4.84183e-06,-4.94856e-06,0,-2.85301e-06,-7.85512e+08,-7.86184e+08,-7.85845e+08,-195717,0.0143822,0.285227,0,0.28559,2723.15,-28609.3,0,28738.6,195717
step02_gravity_refstate-crust.xmf,900,4.41786e-06,-4.20369e-06,0,-1.70235e-06,-7.38067e+08,-7.38659e+08,-7.3837e+08,-116781,0.00905967,0.279876,0,0.280023,1975.32,-26881.4,0,26953.9,116781
step02_gravity_refstate-crust.xmf,901,6.5568e-06,-8.1277e-06,0,-6.51383e-06,-9.10845e+08,-9.11853e+08,-9.11295e+08,-446848,0.0259922,0.311638,0,0.31272,3151.84,-33174.2,0,33323.6,446848
step02_gravity_refstate-crust.xmf,902,4.68746e-06,-6.18264e-06,0,-9.93156e-06,-9.55026e+08,-9.55771e+08,-9.55347e+08,-681305,0.0383673,0.307683,0,0.310066,4355.48,-34778.1,0,35049.7,681305
step02_gravity_refstate-crust.xmf,903,5.66292e-06,-7.08958e-06,0,-7.9608e-06,-9.2537e+08,-9.26245e+08,-9.25759e+08,-546111,0.0317527,0.308058,0,0.30969,3822.52,-33701,0,33917.1,546111
step02_gravity_refstate-crust.xmf,904,2.25816e-06,-4.32694e-06,0,-1.44041e-05,-1.02533e+09,-1.02578e+09,-1.02549e+09,-988118,0.049229,0.316872,0,0.320674,4602.79,-37330.6,0,37613.3,988118
step02_gravity_refstate-crust.xmf,905,1.93631e-06,-8.84608e-07,0,2.14502e-07,-4.23183e+08,-4.23376e+08,-4.23316e+08,14714.8,-0.00143697,0.256286,-0,0.25629,-740.998,-15412.9,-0,15430.7,14714.8
step02_gravity_refstate-crust.xmf,906,1.7754e-06,-6.8246e-07,0,1.33468e-07,-3.76462e+08,-3.7663e+08,-3.76583e+08,9155.93,-0.000933294,0.255043,-0,0.255045,-525.37,-13711.6,-0,13721.6,9155.93
step02_gravity_refstate-crust.xmf,907,2.61725e-06,-9.93628e-07,0,7.93861e-09,248599,893.074,69056,544.589,-0.00643239,0.24708,-0,0.247164,-2432.35,0,-0,2432.35,544.589
step02_gravity_refstate-crust.xmf,908,1.63701e-06,-3.72421e-07,0,2.71174e-07,-1.7102e+08,-1.71157e+08,-1.71132e+08,18602.6,-0.00346276,0.251051,-0,0.251075,-2086.53,-6232.19,-0,6572.2,18602.6
step02_gravity_refstate-crust.xmf,909,1.64958e-06,-5.16517e-07,0,8.36335e-08,-3.24204e+08,-3.24353e+08,-3.24317e+08,5737.26,-0.000629296,0.25396,-0,0.253961,-381.043,-11808.8,-0,11815,5737.26
step02_gravity_refstate-crust.xmf,910,1.58197e-06,-4.03206e-07,0,6.6296e-08,-2.65323e+08,-2.65459e+08,-2.65432e+08,4547.9,-0.000565741,0.253011,-0,0.253012,-357.164,-9665.13,-0,9671.72,4547.9
step02_gravity_refstate-crust.xmf,911,2.22211e-06,-1.23775e-06,0,-3.06788e-07,-4.84134e+08,-4.84371e+08,-4.84286e+08,-21045.6,0.00197003,0.258527,0,0.258535,885.383,-17632.5,0,17654.7,21045.6
step02_gravity_refstate-crust.xmf,912,2.45295e-06,-1.52787e-06,0,-3.32928e-07,-5.23319e+08,-5.23592e+08,-5.23487e+08,-22838.9,0.00209917,0.260482,0,0.260491,854.149,-19059.5,0,19078.6,22838.9
step02_gravity_refstate-crust.xmf,913,2.73108e-06,-1.88587e-06,0,-2.78027e-07,-5.62221e+08,-5.62538e+08,-5.62409e+08,-19072.7,0.00172028,0.262967,0,0.262973,630.013,-20476.4,0,20486.1,19072.7
step02_gravity_refstate-crust.xmf,914,-9.68213e-07,-9.40022e-07,0,-1.81022e-05,-1.08212e+09,-1.08212e+09,-1.08206e+09,-1.24181e+06,0.05486,0.327875,0,0.332433,4437.34,-39390.4,0,39639.6,1.24181e+06
step02_gravity_refstate-crust.xmf,915,2.84393e-06,-2.02398e-06,0,-9.14939e-07,-5.869e+08,-5.87234e+08,-5.87095e+08,-62764.8,0.00553724,0.263571,0,0.263629,1910.6,-21375,0,21460.3,62764.8
step02_gravity_refstate-crust.xmf,916,4.0327e-06,-3.68272e-06,0,-1.51725e-06,-7.09052e+08,-7.09581e+08,-7.09329e+08,-104084,0.00837367,0.275653,0,0.27578,2006.85,-25824.4,0,25902.2,104084
step02_gravity_refstate-crust.xmf,917,3.31133e-06,-2.67007e-06,0,-1.30727e-06,-6.46524e+08,-6.46934e+08,-6.46751e+08,-89678.7,0.0076786,0.26805,0,0.26816,2239.49,-23546.6,0,23652.9,89678.7
step02_gravity_refstate-crust.xmf,918,3.65921e-06,-3.15357e-06,0,-1.39358e-06,-6.78442e+08,-6.7891e+08,-6.78693e+08,-95599.4,0.0079457,0.271682,0,0.271798,2099.11,-24709.3,0,24798.3,95599.4
step02_gravity_refstate-crust.xmf,919,6.03751e-06,-7.16686e-06,0,-5.70002e-06,-8.86021e+08,-8.86927e+08,-8.86435e+08,-391021,0.024163,0.303857,0,0.304817,3249.58,-32269.8,0,32433,391021
step02_gravity_refstate-crust.xmf,920,4.37107e-06,-4.20265e-06,0,-2.62137e-06,-7.56919e+08,-7.57507e+08,-7.57219e+08,-179826,0.0137817,0.279808,0,0.280147,2886.3,-27567.6,0,27718.3,179826
step02_gravity_refstate-crust.xmf,921,5.56368e-06,-6.31425e-06,0,-4.96076e-06,-8.5958e+08,-8.60395e+08,-8.59962e+08,-340308,0.0222569,0.296858,0,0.297692,3318.02,-31306.6,0,31481.9,340308
step02_gravity_refstate-crust.xmf,922,5.12958e-06,-5.5606e-06,0,-4.30164e-06,-8.31868e+08,-8.32601e+08,-8.3222e+08,-295093,0.0203471,0.290627,0,0.291338,3358.23,-30297.1,0,30482.7,295093
step02_gravity_refstate-crust.xmf,923,4.65999e-06,-4.79404e-06,0,-3.84193e-06,-8.03607e+08,-8.04255e+08,-8.03926e+08,-263557,0.019121,0.284451,0,0.285093,3501.78,-29267.5,0,29476.3,263557
step02_gravity_refstate-crust.xmf,924,-4.27438e-07,-8.64417e-07,0,-1.56103e-05,-1.05706e+09,-1.05709e+09,-1.05703e+09,-1.07087e+06,0.0529699,0.309971,0,0.314465,4969.94,-38480.3,0,38799.9,1.07087e+06
step02_gravity_refstate-crust.xmf,925,4.76403e-06,-5.99987e-06,0,-8.91034e-06,-9.35774e+08,-9.36512e+08,-9.36101e+08,-611250,0.0358818,0.303257,0,0.305372,4364.66,-34077.8,0,34356.1,611250
step02_gravity_refstate-crust.xmf,926,2.72942e-06,-4.43305e-06,0,-1.30688e-05,-1.0058e+09,-1.00629e+09,-1.00599e+09,-896521,0.0469288,0.310535,0,0.314061,4738.2,-36621.3,0,36926.5,896521
step02_gravity_refstate-crust.xmf,927,3.03828e-06,-4.44306e-06,0,-1.18191e-05,-9.86019e+08,-9.86532e+08,-9.86228e+08,-810792,0.0446403,0.304451,0,0.307706,4873.82,-35902.4,0,36231.7,810792
step02_gravity_refstate-crust.xmf,928,3.29778e-06,-4.41924e-06,0,-1.06507e-05,-9.65209e+08,-9.65738e+08,-9.65435e+08,-730641,0.0422218,0.299066,0,0.302032,4980.62,-35145.9,0,35497.1,730641
step02_gravity_refstate-crust.xmf,929,2.89834e-07,-1.49883e-06,0,-1.44928e-05,-1.03876e+09,-1.03888e+09,-1.03878e+09,-994203,0.0514332,0.304713,0,0.309024,5128.67,-37816,0,38162.2,994203
step02_gravity_refstate-crust.xmf,930,1.84972e-06,-4.89537e-07,0,1.73857e-07,-1.093e+08,-1.0946e+08,-1.09427e+08,11926.6,-0.00346811,0.250249,-0,0.250273,-1854.77,-3985.9,-0,4396.31,11926.6
step02_gravity_refstate-crust.xmf,931,2.2145e-06,-7.14438e-07,0,6.97125e-08,-5.12079e+07,-5.14088e+07,-5.13598e+07,4782.28,-0.00269359,0.249288,-0,0.249302,-1216.17,-1872.13,-0,2232.47,4782.28
step02_gravity_refstate-crust.xmf,932,1.60404e-06,-3.69741e-07,0,4.62821e-08,-2.05821e+08,-2.05956e+08,-2.05931e+08,3174.95,-0.000480487,0.252209,-0,0.252209,-299.173,-7499.03,-0,7504.99,3174.95
step02_gravity_refstate-crust.xmf,933,2.02671e-06,-9.97327e-07,0,-1.80517e-07,-4.43606e+08,-4.43813e+08,-4.43745e+08,-12383.4,0.0011851,0.257022,0,0.257025,584.181,-16156.6,0,16167.1,12383.4
step02_gravity_refstate-crust.xmf,934,-1.11649e-06,-1.72617e-07,0,-1.6412e-05,-1.07126e+09,-1.07119e+09,-1.07118e+09,-1.12587e+06,0.0539047,0.313351,0,0.317954,4868.4,-38995.4,0,39298.2,1.12587e+06
step02_gravity_refstate-crust.xmf,935,3.01168e-06,-2.25555e-06,0,-1.3074e-06,-6.17425e+08,-6.17786e+08,-6.17632e+08,-89687.8,0.00788004,0.26492,0,0.265037,2514.17,-22486.7,0,22626.8,89687.8
step02_gravity_refstate-crust.xmf,936,4.22733e-06,-4.10989e-06,0,-3.46221e-06,-7.74657e+08,-7.75229e+08,-7.74947e+08,-237508,0.0180418,0.27891,0,0.279493,3660.61,-28212.9,0,28449.4,237508
step02_gravity_refstate-crust.xmf,937,3.98203e-06,-3.62335e-06,0,-2.36357e-06,-7.27523e+08,-7.28044e+08,-7.27796e+08,-162141,0.012899,0.275268,0,0.27557,2978.27,-26496.7,0,26663.5,162141
step02_gravity_refstate-crust.xmf,938,5.27496e-06,-6.32578e-06,0,-7.10541e-06,-9.02204e+08,-9.03e+08,-9.02566e+08,-487431,0.0300124,0.300415,0,0.30191,3991.17,-32857.2,0,33098.7,487431
step02_gravity_refstate-crust.xmf,939,3.66665e-06,-4.57913e-06,0,-9.50346e-06,-9.4245e+08,-9.43016e+08,-9.42702e+08,-651937,0.0392584,0.295552,0,0.298148,4965.97,-34318.6,0,34676,651937
step02_gravity_refstate-crust.xmf,940,4.20063e-06,-5.0263e-06,0,-8.3982e-06,-9.19716e+08,-9.20349e+08,-9.20005e+08,-576117,0.035592,0.294794,0,0.296935,4741.73,-33492.4,0,33826.4,576117
step02_gravity_refstate-crust.xmf,941,9.34971e-07,-2.09268e-06,0,-1.33326e-05,-1.01924e+09,-1.01944e+09,-1.0193e+09,-914619,0.0495648,0.299646,0,0.303718,5278.83,-37106.8,0,37480.4,914619
step02_gravity_refstate-crust.xmf,942,1.85738e-06,-7.87775e-07,0,-2.55595e-07,-4.03262e+08,-4.03443e+08,-4.03389e+08,-17533.8,0.0017298,0.255619,0,0.255624,928.753,-14687.4,0,14716.8,17533.8
step02_gravity_refstate-crust.xmf,943,1.70303e-06,-5.92612e-07,0,-2.73551e-07,-3.53818e+08,-3.53976e+08,-3.53935e+08,-18765.6,0.0019605,0.254312,0,0.25432,1145.87,-12887.1,0,12937.9,18765.6
step02_gravity_refstate-crust.xmf,944,2.67137e-06,-1.0135e-06,0,7.53625e-09,253769,986.814,70512.7,516.987,5.17985e-07,0.247903,0,0.247903,7.08969e-08,0,0,7.08969e-08,516.987
step02_gravity_refstate-crust.xmf,945,1.73813e-06,-4.25092e-07,0,1.40761e-08,-1.44848e+08,-1.44997e+08,-1.44968e+08,965.619,-0.000192494,0.251368,-0,0.251368,-110.265,-5279.73,-0,5280.88,965.619
step02_gravity_refstate-crust.xmf,946,1.59786e-06,-4.46715e-07,0,-2.64681e-07,-2.98858e+08,-2.98998e+08,-2.98968e+08,-18157.1,0.00209041,0.253231,0,0.25324,1300.02,-10886,0,10963.4,18157.1
step02_gravity_refstate-crust.xmf,947,1.56556e-06,-3.68221e-07,0,-2.45543e-07,-2.40999e+08,-2.41131e+08,-2.41106e+08,-16844.2,0.00228739,0.252328,0,0.252339,1449.57,-8779.56,0,8898.42,16844.2
step02_gravity_refstate-crust.xmf,948,2.06629e-06,-1.04955e-06,0,-7.27109e-07,-4.66278e+08,-4.66492e+08,-4.6642e+08,-49879.7,0.00473249,0.256685,0,0.256728,2240.54,-16982.1,0,17129.2,49879.7
step02_gravity_refstate-crust.xmf,949,2.27109e-06,-1.30296e-06,0,-8.19927e-07,-5.06265e+08,-5.06511e+08,-5.06421e+08,-56247,0.00523614,0.258354,0,0.258407,2250.13,-18438.3,0,18575.1,56247
step02_gravity_refstate-crust.xmf,950,2.53e-06,-1.63034e-06,0,-8.33579e-07,-5.45958e+08,-5.46243e+08,-5.46131e+08,-57183.5,0.00521086,0.260743,0,0.260795,2014.08,-19883.8,0,19985.6,57183.5
step02_gravity_refstate-crust.xmf,951,-2.46907e-06,1.98266e-06,0,-1.60764e-05,-1.08457e+09,-1.08426e+09,-1.0844e+09,-1.10284e+06,0.0537357,0.304899,0,0.309598,5119.55,-39477.9,0,39808.5,1.10284e+06
step02_gravity_refstate-crust.xmf,952,2.65923e-06,-1.81012e-06,0,-1.69497e-06,-5.95655e+08,-5.95962e+08,-5.95838e+08,-116275,0.0104295,0.260789,0,0.260997,3614.04,-21693.4,0,21992.4,116275
step02_gravity_refstate-crust.xmf,953,2.9637e-06,-2.21911e-06,0,-1.86591e-06,-6.33534e+08,-6.3389e+08,-6.33738e+08,-128002,0.0111657,0.263931,0,0.264167,3465.9,-23073,0,23331.9,128002
step02_gravity_refstate-crust.xmf,954,3.62632e-06,-3.14403e-06,0,-2.16586e-06,-6.97946e+08,-6.98411e+08,-6.98195e+08,-148578,0.0122262,0.2712,0,0.271475,3106.63,-25419.2,0,25608.4,148578
step02_gravity_refstate-crust.xmf,955,3.28604e-06,-2.66385e-06,0,-2.0017e-06,-6.66619e+08,-6.67027e+08,-6.66844e+08,-137316,0.0116491,0.267419,0,0.267672,3267.02,-24278.1,0,24496.9,137316
step02_gravity_refstate-crust.xmf,956,4.94189e-06,-5.63342e-06,0,-6.25085e-06,-8.76646e+08,-8.77371e+08,-8.76985e+08,-428808,0.0279058,0.29378,0,0.295102,4097.41,-31926.4,0,32188.3,428808
step02_gravity_refstate-crust.xmf,957,3.82317e-06,-3.4732e-06,0,-3.17305e-06,-7.45723e+08,-7.46224e+08,-7.45986e+08,-217671,0.017212,0.273925,0,0.274465,3859.11,-27158.9,0,27431.7,217671
step02_gravity_refstate-crust.xmf,958,4.6213e-06,-5.00379e-06,0,-5.49226e-06,-8.49641e+08,-8.50301e+08,-8.49958e+08,-376769,0.0258232,0.287772,0,0.288928,4186.55,-30943,0,31224.9,376769
step02_gravity_refstate-crust.xmf,959,4.29309e-06,-4.40456e-06,0,-4.85806e-06,-8.22008e+08,-8.22605e+08,-8.22303e+08,-333263,0.0239777,0.282253,0,0.283269,4288.69,-29936.6,0,30242.2,333263
step02_gravity_refstate-crust.xmf,960,3.9462e-06,-3.81265e-06,0,-4.32044e-06,-7.92661e+08,-7.93193e+08,-7.92931e+08,-296382,0.0223421,0.276929,0,0.277829,4424.95,-28867.7,0,29204.8,296382
step02_gravity_refstate-crust.xmf,961,-1.98845e-06,1.58172e-06,0,-1.49986e-05,-1.06914e+09,-1.06889e+09,-1.069e+09,-1.02891e+06,0.0530014,0.297092,0,0.301783,5403.24,-38917.5,0,39290.8,1.02891e+06
step02_gravity_refstate-crust.xmf,962,-1.37917e-06,9.99931e-07,0,-1.40711e-05,-1.05195e+09,-1.05179e+09,-1.05186e+09,-965275,0.0520728,0.291577,0,0.296191,5625.71,-38293.3,0,38704.3,965275
step02_gravity_refstate-crust.xmf,963,1.463e-06,-2.36878e-06,0,-1.22454e-05,-9.99295e+08,-9.99558e+08,-9.99395e+08,-840036,0.0475319,0.294796,0,0.298603,5421.56,-36382.6,0,36784.3,840036
step02_gravity_refstate-crust.xmf,964,1.89965e-06,-2.61568e-06,0,-1.11667e-05,-9.782e+08,-9.78509e+08,-9.7833e+08,-766036,0.0453196,0.290189,0,0.293707,5552.99,-35616,0,36046.3,766036
step02_gravity_refstate-crust.xmf,965,2.33812e-06,-2.89173e-06,0,-1.0135e-05,-9.55675e+08,-9.56033e+08,-9.55835e+08,-695259,0.0428273,0.286702,0,0.289883,5619.25,-34797.3,0,35248.1,695259
step02_gravity_refstate-crust.xmf,966,-7.16398e-07,3.66781e-07,0,-1.31531e-05,-1.03288e+09,-1.0328e+09,-1.03283e+09,-902301,0.0508096,0.287044,0,0.291506,5818.34,-37600.7,0,38048.2,902301
step02_gravity_refstate-crust.xmf,967,1.9518e-06,-5.4412e-07,0,-3.21347e-09,-9.4011e+07,-9.41822e+07,-9.41449e+07,-220.444,2.01485e-06,0.250481,0,0.250481,1.27546,-3429.62,0,3429.62,220.444
step02_gravity_refstate-crust.xmf,968,2.21041e-06,-7.068e-07,0,-4.11593e-08,-5.18627e+07,-5.20628e+07,-5.20143e+07,-2823.53,0.00247481,0.249339,0,0.249352,1119.03,-1895.96,0,2201.57,2823.53
step02_gravity_refstate-crust.xmf,969,1.6299e-06,-3.6966e-07,0,-2.22711e-07,-1.78828e+08,-1.78965e+08,-1.7894e+08,-15278,0.00277408,0.2514,0,0.251415,1684.96,-6516.43,0,6730.74,15278
step02_gravity_refstate-crust.xmf,970,1.8876e-06,-8.30513e-07,0,-6.556e-07,-4.24819e+08,-4.25005e+08,-4.24948e+08,-44974.2,0.00438447,0.255257,0,0.255295,2275.04,-15472.3,0,15638.7,44974.2
step02_gravity_refstate-crust.xmf,971,2.52372e-06,-1.60317e-06,0,-1.34361e-06,-5.63395e+08,-5.63679e+08,-5.63569e+08,-92171.4,0.00832598,0.259938,0,0.260072,3119.74,-20518.7,0,20754.5,92171.4
step02_gravity_refstate-crust.xmf,972,3.62457e-06,-3.28322e-06,0,-3.8669e-06,-7.62888e+08,-7.63362e+08,-7.63137e+08,-265269,0.0208537,0.27224,0,0.273037,4562.75,-27783.3,0,28155.5,265269
step02_gravity_refstate-crust.xmf,973,3.50026e-06,-2.9868e-06,0,-2.92157e-06,-7.1787e+08,-7.18315e+08,-7.1811e+08,-200420,0.0163498,0.26991,0,0.270405,4017.32,-26144.3,0,26451.2,200420
step02_gravity_refstate-crust.xmf,974,4.08135e-06,-4.62589e-06,0,-7.38711e-06,-8.93564e+08,-8.94161e+08,-8.93844e+08,-506756,0.0330662,0.288849,0,0.290736,4848.79,-32540.4,0,32899.7,506756
step02_gravity_refstate-crust.xmf,975,2.76749e-06,-3.1848e-06,0,-9.09664e-06,-9.30762e+08,-9.3117e+08,-9.30952e+08,-624029,0.0399304,0.283971,0,0.286765,5615.89,-33891.6,0,34353.7,624029
step02_gravity_refstate-crust.xmf,976,-7.35257e-08,-3.01267e-07,0,-1.22388e-05,-1.01279e+09,-1.01281e+09,-1.01279e+09,-839581,0.0492487,0.283294,0,0.287543,5978.76,-36870.9,0,37352.5,839581
step02_gravity_refstate-crust.xmf,977,1.72686e-06,-6.34251e-07,0,-6.78655e-07,-3.8342e+08,-3.83582e+08,-3.83539e+08,-46555.7,0.004707,0.253768,0,0.253812,2652.71,-13964.8,0,14214.5,46555.7
step02_gravity_refstate-crust.xmf,978,1.59494e-06,-4.67756e-07,0,-6.30268e-07,-3.31712e+08,-3.31854e+08,-3.31822e+08,-43236.4,0.00468479,0.252539,0,0.252582,2853.12,-12082,0,12414.3,43236.4
step02_gravity_refstate-crust.xmf,979,2.60904e-06,-9.90188e-07,0,4.79513e-09,247833,926.127,68853,328.946,0.00642984,0.24708,0,0.247164,2432.35,0,0,2432.35,328.946
step02_gravity_refstate-crust.xmf,980,1.84273e-06,-4.70811e-07,0,-2.08106e-07,-1.12829e+08,-1.12988e+08,-1.12955e+08,-14276.1,0.00383227,0.250183,0,0.250213,2068.55,-4114.38,0,4605.11,14276.1
step02_gravity_refstate-crust.xmf,981,1.52085e-06,-3.58553e-07,0,-5.71545e-07,-2.7633e+08,-2.76458e+08,-2.76434e+08,-39208,0.00478168,0.251519,0,0.251565,3049.87,-10065.7,0,10517.6,39208
step02_gravity_refstate-crust.xmf,982,1.51936e-06,-3.1612e-07,0,-5.08049e-07,-2.19059e+08,-2.19185e+08,-2.19163e+08,-34852.2,0.00516767,0.250579,0,0.250632,3291.17,-7980.71,0,8632.7,34852.2
step02_gravity_refstate-crust.xmf,983,1.86293e-06,-8.07148e-07,0,-1.14438e-06,-4.48823e+08,-4.49007e+08,-4.48951e+08,-78504.5,0.00757467,0.253758,0,0.253871,3810.51,-16346.2,0,16784.4,78504.5
step02_gravity_refstate-crust.xmf,984,2.05523e-06,-1.04076e-06,0,-1.23188e-06,-4.90026e+08,-4.90238e+08,-4.90167e+08,-84507.3,0.00797329,0.255437,0,0.255561,3637.99,-17846.6,0,18213.6,84507.3
step02_gravity_refstate-crust.xmf,985,2.28215e-06,-1.32211e-06,0,-1.31678e-06,-5.29927e+08,-5.30174e+08,-5.30084e+08,-90331.1,0.00835207,0.257516,0,0.257652,3438.19,-19299.7,0,19603.6,90331.1
step02_gravity_refstate-crust.xmf,986,-3.25757e-06,3.78718e-06,0,-1.42427e-05,-1.08351e+09,-1.08303e+09,-1.08329e+09,-977049,0.0518671,0.284574,0,0.289262,5779.66,-39439,0,39860.3,977049
step02_gravity_refstate-crust.xmf,987,2.25047e-06,-1.28267e-06,0,-1.8794e-06,-5.58532e+08,-5.58774e+08,-5.58686e+08,-128927,0.0118063,0.255935,0,0.256207,4631.85,-20341,0,20861.7,128927
step02_gravity_refstate-crust.xmf,988,2.57672e-06,-1.72011e-06,0,-2.30706e-06,-6.20156e+08,-6.2045e+08,-6.20332e+08,-158264,0.0141014,0.259038,0,0.259421,4698.06,-22585.1,0,23068.6,158264
step02_gravity_refstate-crust.xmf,989,2.8542e-06,-2.10048e-06,0,-2.5127e-06,-6.54845e+08,-6.55185e+08,-6.55041e+08,-172371,0.0149672,0.262157,0,0.262583,4497.36,-23848.6,0,24268.9,172371
step02_gravity_refstate-crust.xmf,990,3.16906e-06,-2.54485e-06,0,-2.72857e-06,-6.88176e+08,-6.88568e+08,-6.88393e+08,-187180,0.0157683,0.265841,0,0.266308,4271.21,-25062.6,0,25424,187180
step02_gravity_refstate-crust.xmf,991,3.91065e-06,-4.17954e-06,0,-6.5561e-06,-8.67373e+08,-8.67928e+08,-8.67642e+08,-449749,0.0308413,0.283324,0,0.284997,4970.39,-31586.9,0,31975.6,449749
step02_gravity_refstate-crust.xmf,992,3.34215e-06,-2.82947e-06,0,-3.48145e-06,-7.33755e+08,-7.34178e+08,-7.33984e+08,-238827,0.0194829,0.268343,0,0.269049,4680.65,-26722.2,0,27129.1,238827
step02_gravity_refstate-crust.xmf,993,3.71242e-06,-3.7329e-06,0,-5.82117e-06,-8.39851e+08,-8.40362e+08,-8.40106e+08,-399333,0.0287096,0.278204,0,0.279682,5091.07,-30584.9,0,31005.7,399333
step02_gravity_refstate-crust.xmf,994,3.5066e-06,-3.31169e-06,0,-5.17031e-06,-8.11042e+08,-8.11509e+08,-8.11282e+08,-354683,0.0266415,0.273595,0,0.274889,5199.85,-29535.8,0,29990.1,354683
step02_gravity_refstate-crust.xmf,995,3.26508e-06,-2.87232e-06,0,-4.61195e-06,-7.80775e+08,-7.81196e+08,-7.80999e+08,-316380,0.024798,0.269087,0,0.270227,5347.4,-28433.6,0,28932.1,316380
step02_gravity_refstate-crust.xmf,996,-2.73464e-06,3.22537e-06,0,-1.33559e-05,-1.06612e+09,-1.06571e+09,-1.06594e+09,-916217,0.0513655,0.278005,0,0.28271,6088.73,-38807.2,0,39282,916217
step02_gravity_refstate-crust.xmf,997,3.07478e-06,-3.38608e-06,0,-8.26788e-06,-9.09467e+08,-9.0991e+08,-9.09677e+08,-567176,0.0373593,0.28225,0,0.284712,5556.91,-33117.2,0,33580.2,567176
step02_gravity_refstate-crust.xmf,998,-2.12024e-06,2.55676e-06,0,-1.26006e-05,-1.04719e+09,-1.04687e+09,-1.04705e+09,-864402,0.0506777,0.273537,0,0.278192,6336.52,-38119.5,0,38642.5,864402
step02_gravity_refstate-crust.xmf,999,4.96931e-07,-7.17898e-07,0,-1.13492e-05,-9.91856e+08,-9.9194e+08,-9.91891e+08,-778553,0.047439,0.279838,0,0.28383,6122.8,-36110.4,0,36625.8,778553
step02_gravity_refstate-crust.xmf,1000,9.95581e-07,-1.12134e-06,0,-1.04656e-05,-9.70055e+08,-9.70201e+08,-9.70124e+08,-717941,0.0454302,0.276737,0,0.280441,6244.6,-35318.1,0,35865.9,717941
step02_gravity_refstate-crust.xmf,1001,1.41208e-06,-1.42852e-06,0,-9.58998e-06,-9.4699e+08,-9.47185e+08,-9.47087e+08,-657873,0.0432391,0.273768,0,0.277162,6352.79,-34479.6,0,35060,657873
step02_gravity_refstate-crust.xmf,1002,-1.46022e-06,1.84273e-06,0,-1.18897e-05,-1.02687e+09,-1.02665e+09,-1.02677e+09,-815637,0.049703,0.270436,0,0.274966,6533.8,-37381.3,0,37948,815637
step02_gravity_refstate-crust.xmf,1003,2.09748e-06,-6.57163e-07,0,-1.71605e-07,-5.48745e+07,-5.50635e+07,-5.50184e+07,-11772.1,0.00775565,0.247721,0,0.247842,3596.08,-2005.23,0,4117.38,11772.1
step02_gravity_refstate-crust.xmf,1004,1.60789e-06,-3.49077e-07,0,-4.36634e-07,-1.59593e+08,-1.59727e+08,-1.59703e+08,-29953.1,0.00613871,0.249443,0,0.249519,3680.65,-5816.11,0,6882.9,29953.1
step02_gravity_refstate-crust.xmf,1005,1.69679e-06,-6.08346e-07,0,-1.07828e-06,-4.06342e+08,-4.065e+08,-4.06458e+08,-73970,0.00736331,0.25225,0,0.252357,4055.96,-14799.2,0,15344.9,73970
step02_gravity_refstate-crust.xmf,1006,2.34324e-06,-1.40346e-06,0,-2.20454e-06,-5.91103e+08,-5.9136e+08,-5.91264e+08,-151232,0.0137635,0.256331,0,0.2567,5007.61,-21527,0,22101.8,151232
step02_gravity_refstate-crust.xmf,1007,3.07614e-06,-2.52906e-06,0,-4.08962e-06,-7.49372e+08,-7.49757e+08,-7.49584e+08,-280548,0.0227925,0.265612,0,0.266588,5407.68,-27290.2,0,27820.8,280548
step02_gravity_refstate-crust.xmf,1008,2.95443e-06,-2.30568e-06,0,-3.51613e-06,-7.14026e+08,-7.14387e+08,-7.14229e+08,-241206,0.0201468,0.263403,0,0.264172,5257.42,-26003.2,0,26529.4,241206
step02_gravity_refstate-crust.xmf,1009,3.0299e-06,-3.10829e-06,0,-7.41786e-06,-8.8432e+08,-8.84741e+08,-8.84528e+08,-508865,0.0351857,0.27715,0,0.279374,5724.28,-32202,0,32706.8,508865
step02_gravity_refstate-crust.xmf,1010,1.8035e-06,-1.74559e-06,0,-8.84022e-06,-9.25218e+08,-9.25461e+08,-9.25342e+08,-606439,0.0410343,0.272257,0,0.275332,6367.53,-33688.1,0,34284.6,606439
step02_gravity_refstate-crust.xmf,1011,-8.32067e-07,1.12532e-06,0,-1.11791e-05,-1.00609e+09,-1.00596e+09,-1.00603e+09,-766887,0.048438,0.267956,0,0.272299,6698.84,-36626.1,0,37233.6,766887
step02_gravity_refstate-crust.xmf,1012,1.55951e-06,-4.45228e-07,0,-1.01919e-06,-3.61779e+08,-3.61917e+08,-3.61886e+08,-69916.3,0.00729101,0.250906,0,0.251012,4349.92,-13176.6,0,13876,69916.3
step02_gravity_refstate-crust.xmf,1013,1.46177e-06,-3.24758e-07,0,-9.29759e-07,-3.10951e+08,-3.11074e+08,-3.11051e+08,-63781.4,0.0072163,0.249812,0,0.249916,4588.47,-11325.9,0,12220.1,63781.4
step02_gravity_refstate-crust.xmf,1014,2.4319e-06,-9.24171e-07,0,3.77811e-09,230955,728.743,64126.8,259.178,0.0125777,0.244651,0,0.244974,4867.07,0,0,4867.07,259.178
step02_gravity_refstate-crust.xmf,1015,1.41963e-06,-2.58696e-07,0,-8.25691e-07,-2.56396e+08,-2.56511e+08,-2.56493e+08,-56642.4,0.00735924,0.248879,0,0.248988,4816.86,-9339.69,0,10508.7,56642.4
step02_gravity_refstate-crust.xmf,1016,1.73265e-06,-4.27903e-07,0,-4.10473e-07,-1.08301e+08,-1.0845e+08,-1.0842e+08,-28158.5,0.00853672,0.247484,0,0.247631,4659.33,-3949.17,0,6107.81,28158.5
step02_gravity_refstate-crust.xmf,1017,1.44834e-06,-2.56703e-07,0,-7.08476e-07,-1.99934e+08,-2.00051e+08,-2.00034e+08,-48601.5,0.00790497,0.247962,0,0.248088,5069.11,-7284.27,0,8874.48,48601.5
step02_gravity_refstate-crust.xmf,1018,1.6231e-06,-5.27883e-07,0,-1.50478e-06,-4.31565e+08,-4.31713e+08,-4.31677e+08,-103228,0.0101583,0.249775,0,0.249982,5477.38,-15717.3,0,16644.4,103228
step02_gravity_refstate-crust.xmf,1019,1.79811e-06,-7.3377e-07,0,-1.60305e-06,-4.73755e+08,-4.73929e+08,-4.73879e+08,-109969,0.0105423,0.251518,0,0.251739,5154.54,-17253.7,0,18007.2,109969
step02_gravity_refstate-crust.xmf,1020,1.99733e-06,-9.74749e-07,0,-1.73736e-06,-5.16003e+08,-5.16207e+08,-5.1614e+08,-119183,0.0111888,0.253403,0,0.25365,4924.01,-18792.2,0,19426.6,119183
step02_gravity_refstate-crust.xmf,1021,-3.78372e-06,5.17758e-06,0,-1.2543e-05,-1.08255e+09,-1.08194e+09,-1.08229e+09,-860451,0.049475,0.26513,0,0.269706,6473,-39404.1,0,39932.2,860451
step02_gravity_refstate-crust.xmf,1022,2.01987e-06,-9.9697e-07,0,-2.43634e-06,-5.74972e+08,-5.75179e+08,-5.75111e+08,-167133,0.0154532,0.251832,0,0.252306,6065.94,-20939.1,0,21800,167133
step02_gravity_refstate-crust.xmf,1023,2.18207e-06,-1.20973e-06,0,-2.6602e-06,-6.0821e+08,-6.08443e+08,-6.0836e+08,-182490,0.0166092,0.253562,0,0.254106,5960.82,-22149.4,0,22937.5,182490
step02_gravity_refstate-crust.xmf,1024,2.39409e-06,-1.49991e-06,0,-2.89334e-06,-6.4207e+08,-6.42337e+08,-6.42235e+08,-198483,0.0176748,0.256107,0,0.256716,5751.25,-23382.6,0,24079.5,198483
step02_gravity_refstate-crust.xmf,1025,2.64488e-06,-1.85648e-06,0,-3.17816e-06,-6.77548e+08,-6.77857e+08,-6.7773e+08,-218022,0.018889,0.259287,0,0.259974,5527.6,-24674.6,0,25286.2,218022
step02_gravity_refstate-crust.xmf,1026,2.96785e-06,-2.83407e-06,0,-6.64674e-06,-8.57515e+08,-8.57913e+08,-8.57719e+08,-455966,0.032974,0.272576,0,0.274563,5873.13,-31226.3,0,31773.8,455966
step02_gravity_refstate-crust.xmf,1027,2.86303e-06,-2.53448e-06,0,-5.95483e-06,-8.29198e+08,-8.29568e+08,-8.29394e+08,-408501,0.0308426,0.268227,0,0.269994,6031.73,-30195.4,0,30792,408501
step02_gravity_refstate-crust.xmf,1028,2.61094e-06,-1.96876e-06,0,-4.781e-06,-7.68532e+08,-7.68846e+08,-7.68711e+08,-327977,0.0267306,0.260887,0,0.262253,6316.25,-27986.7,0,28690.6,327977
step02_gravity_refstate-crust.xmf,1029,2.74355e-06,-2.2465e-06,0,-5.33694e-06,-7.99649e+08,-7.99991e+08,-7.99837e+08,-366114,0.028765,0.264355,0,0.265916,6178.61,-29119.6,0,29767.9,366114
step02_gravity_refstate-crust.xmf,1030,-3.24978e-06,4.51846e-06,0,-1.18038e-05,-1.06295e+09,-1.06242e+09,-1.06273e+09,-809740,0.0492244,0.259419,0,0.264048,6826.99,-38691.5,0,39289.2,809740
step02_gravity_refstate-crust.xmf,1031,2.01473e-06,-1.81952e-06,0,-8.03621e-06,-9.00728e+08,-9.00991e+08,-9.00867e+08,-551284,0.0387645,0.269108,0,0.271886,6477.1,-32797.2,0,33430.7,551284
step02_gravity_refstate-crust.xmf,1032,-2.6657e-06,3.81146e-06,0,-1.12358e-05,-1.04277e+09,-1.04233e+09,-1.04259e+09,-770777,0.0488637,0.256365,0,0.260981,7083.63,-37958.3,0,38613.6,770777
step02_gravity_refstate-crust.xmf,1033,-2.5022e-07,6.11606e-07,0,-1.04739e-05,-9.84317e+08,-9.84258e+08,-9.843e+08,-718508,0.0468916,0.265881,0,0.269984,6837.35,-35835,0,36481.4,718508
step02_gravity_refstate-crust.xmf,1034,5.99339e-07,-1.29448e-07,0,-9.07178e-06,-9.40724e+08,-9.40774e+08,-9.40765e+08,-622324,0.043403,0.261422,0,0.265,7110.56,-34250.2,0,34980.5,622324
step02_gravity_refstate-crust.xmf,1035,2.02938e-07,2.05667e-07,0,-9.77052e-06,-9.63034e+08,-9.63034e+08,-9.63048e+08,-670258,0.0452282,0.263567,0,0.26742,6980.7,-35061.4,0,35749.5,670258
step02_gravity_refstate-crust.xmf,1036,-2.00906e-06,3.02364e-06,0,-1.07067e-05,-1.02086e+09,-1.02051e+09,-1.02072e+09,-734482,0.0482133,0.254706,0,0.259229,7282.39,-37161.8,0,37868.6,734482
step02_gravity_refstate-crust.xmf,1037,1.83205e-06,-5.43326e-07,0,-3.17276e-07,-5.89426e+07,-5.91055e+07,-5.90683e+07,-21765.1,0.0131052,0.243902,0,0.244254,6370.33,-2152.43,0,6724.14,21765.1
step02_gravity_refstate-crust.xmf,1038,1.53636e-06,-3.09488e-07,0,-5.95664e-07,-1.51223e+08,-1.51349e+08,-1.51328e+08,-40862.5,0.008856,0.247036,0,0.247195,5339.96,-5511.15,0,7673.85,40862.5
step02_gravity_refstate-crust.xmf,1039,1.48272e-06,-3.67576e-07,0,-1.40011e-06,-3.87646e+08,-3.87773e+08,-3.87748e+08,-96047.3,0.00980411,0.248386,0,0.248579,5770.17,-14118.1,0,15251.7,96047.3
step02_gravity_refstate-crust.xmf,1040,1.85742e-06,-7.9843e-07,0,-2.23118e-06,-5.39475e+08,-5.39657e+08,-5.39602e+08,-153059,0.0143777,0.250229,0,0.250641,6192.85,-19646.4,0,20599.3,153059
step02_gravity_refstate-crust.xmf,1041,2.4801e-06,-1.72036e-06,0,-4.27263e-06,-7.35567e+08,-7.35855e+08,-7.35737e+08,-293102,0.0246719,0.257957,0,0.259135,6419.81,-26786.4,0,27545,293102
step02_gravity_refstate-crust.xmf,1042,2.10104e-06,-1.74679e-06,0,-7.27926e-06,-8.74873e+08,-8.75137e+08,-8.75017e+08,-499357,0.0365826,0.265381,0,0.267891,6638.99,-31856.4,0,32540.9,499357
step02_gravity_refstate-crust.xmf,1043,9.38082e-07,-3.98367e-07,0,-8.38438e-06,-9.17232e+08,-9.17323e+08,-9.17296e+08,-575169,0.0414366,0.259426,0,0.262714,7226.5,-33395.9,0,34168.8,575169
step02_gravity_refstate-crust.xmf,1044,-1.42265e-06,2.29559e-06,0,-1.01776e-05,-9.99716e+08,-9.99461e+08,-9.99619e+08,-698180,0.0472678,0.253425,0,0.257796,7447.03,-36393.5,0,37147.6,698180
step02_gravity_refstate-crust.xmf,1045,2.1567e-06,-8.24613e-07,0,-2.8575e-09,204606,88.0378,56656.5,-196.025,0.018186,0.240718,0,0.241404,7310.9,0,0,7310.9,196.025
step02_gravity_refstate-crust.xmf,1046,1.37537e-06,-2.48325e-07,0,-1.29389e-06,-3.41579e+08,-3.41691e+08,-3.41673e+08,-88760.6,0.00959419,0.247195,0,0.247382,6072.63,-12440.7,0,13843.7,88760.6
step02_gravity_refstate-crust.xmf,1047,1.31003e-06,-1.75184e-07,0,-1.1628e-06,-2.90237e+08,-2.90338e+08,-2.90326e+08,-79768,0.00951951,0.246242,0,0.246425,6333.74,-10571.4,0,12323.6,79768
step02_gravity_refstate-crust.xmf,1048,1.3016e-06,-1.57399e-07,0,-1.00915e-06,-2.34991e+08,-2.35091e+08,-2.3508e+08,-69227.4,0.0097673,0.24544,0,0.245634,6561.85,-8560.09,0,10785.8,69227.4
step02_gravity_refstate-crust.xmf,1049,1.51918e-06,-3.2004e-07,0,-6.17825e-07,-1.23274e+08,-1.234e+08,-1.23378e+08,-42382.8,0.0115178,0.244282,0,0.244554,6705.61,-4493.56,0,8072,42382.8
step02_gravity_refstate-crust.xmf,1050,1.36102e-06,-2.00273e-07,0,-8.38015e-07,-1.80067e+08,-1.80174e+08,-1.8016e+08,-57487.8,0.0104634,0.244727,0,0.244951,6742.19,-6560.72,0,9407.45,57487.8
step02_gravity_refstate-crust.xmf,1051,1.36682e-06,-2.36409e-07,0,-1.7836e-06,-4.14648e+08,-4.14758e+08,-4.14742e+08,-122355,0.012311,0.244999,0,0.245309,7160.96,-15100.8,0,16712.7,122355
step02_gravity_refstate-crust.xmf,1052,1.50501e-06,-3.86796e-07,0,-1.94231e-06,-4.59848e+08,-4.59978e+08,-4.59951e+08,-133242,0.0130151,0.246367,0,0.24671,6869.79,-16746.7,0,18101,133242
step02_gravity_refstate-crust.xmf,1053,1.67463e-06,-5.83491e-07,0,-2.08607e-06,-5.01656e+08,-5.01811e+08,-5.01771e+08,-143105,0.0136731,0.248235,0,0.248611,6508.42,-18269.1,0,19393.8,143105
step02_gravity_refstate-crust.xmf,1054,-4.07679e-06,6.17248e-06,0,-1.10052e-05,-1.08077e+09,-1.08007e+09,-1.08049e+09,-754954,0.0467413,0.246726,0,0.251114,7203.53,-39339.7,0,39993.8,754954
step02_gravity_refstate-crust.xmf,1055,1.65099e-06,-5.31997e-07,0,-2.65955e-06,-5.58969e+08,-5.59119e+08,-5.59083e+08,-182445,0.0172362,0.246109,0,0.246712,7392.33,-20355.7,0,21656.4,182445
step02_gravity_refstate-crust.xmf,1056,1.78765e-06,-7.03983e-07,0,-2.88738e-06,-5.93547e+08,-5.93718e+08,-5.9367e+08,-198074,0.0184282,0.247664,0,0.248349,7210.18,-21614.8,0,22785.7,198074
step02_gravity_refstate-crust.xmf,1057,1.93952e-06,-9.06714e-07,0,-3.15235e-06,-6.28657e+08,-6.28852e+08,-6.2879e+08,-216251,0.0197583,0.249572,0,0.250353,7019.54,-22893.3,0,23945.3,216251
step02_gravity_refstate-crust.xmf,1058,2.11451e-06,-1.15358e-06,0,-3.47266e-06,-6.65269e+08,-6.65493e+08,-6.65414e+08,-238225,0.0212703,0.252002,0,0.252898,6810.13,-24226.6,0,25165.5,238225
step02_gravity_refstate-crust.xmf,1059,2.30926e-06,-1.4439e-06,0,-3.83382e-06,-7.00907e+08,-7.01165e+08,-7.01066e+08,-263000,0.0228323,0.254981,0,0.256001,6578.22,-25524.3,0,26358.4,263000
step02_gravity_refstate-crust.xmf,1060,2.10648e-06,-1.59244e-06,0,-6.58268e-06,-8.47356e+08,-8.4761e+08,-8.475e+08,-451572,0.0344623,0.261497,0,0.263758,6834.79,-30854.9,0,31602.8,451572
step02_gravity_refstate-crust.xmf,1061,2.07707e-06,-1.4155e-06,0,-5.95791e-06,-8.18761e+08,-8.19001e+08,-8.18904e+08,-408713,0.0324105,0.257921,0,0.25995,7033.66,-29814,0,30632.5,408713
step02_gravity_refstate-crust.xmf,1062,1.96767e-06,-1.07649e-06,0,-4.86149e-06,-7.56619e+08,-7.56828e+08,-7.56754e+08,-333498,0.0283124,0.252033,0,0.253618,7391.3,-27551.8,0,28526,333498
step02_gravity_refstate-crust.xmf,1063,2.03679e-06,-1.2524e-06,0,-5.38305e-06,-7.88536e+08,-7.88762e+08,-7.88676e+08,-369278,0.0303347,0.25487,0,0.256669,7208.41,-28713.7,0,29604.7,369278
step02_gravity_refstate-crust.xmf,1064,-3.66967e-06,5.70812e-06,0,-1.02786e-05,-1.06191e+09,-1.06126e+09,-1.06165e+09,-705109,0.046417,0.240285,0,0.244727,7652.04,-38653.8,0,39403.9,705109
step02_gravity_refstate-crust.xmf,1065,1.18129e-06,-5.51981e-07,0,-7.69092e-06,-8.92026e+08,-8.92145e+08,-8.92107e+08,-527597,0.0393708,0.256946,0,0.259945,7375.03,-32479,0,33305.8,527597
step02_gravity_refstate-crust.xmf,1066,-2.97675e-06,4.70735e-06,0,-9.97553e-06,-1.03682e+09,-1.03629e+09,-1.03662e+09,-684321,0.046731,0.240293,0,0.244795,7870.02,-37741.7,0,38553.5,684321
step02_gravity_refstate-crust.xmf,1067,-1.09945e-07,1.05141e-06,0,-8.45393e-06,-9.33648e+08,-9.33568e+08,-9.3364e+08,-579940,0.0430505,0.248497,0,0.252199,7959.62,-33991.6,0,34911.1,579940
step02_gravity_refstate-crust.xmf,1068,-9.36604e-07,1.84946e-06,0,-9.61266e-06,-9.78563e+08,-9.78372e+08,-9.78499e+08,-659429,0.0460495,0.251661,0,0.255839,7627.7,-35624.6,0,36432.1,659429
step02_gravity_refstate-crust.xmf,1069,-5.00567e-07,1.41678e-06,0,-9.04676e-06,-9.5691e+08,-9.56779e+08,-9.56876e+08,-620608,0.0446571,0.250103,0,0.254058,7792.53,-34837.4,0,35698.3,620608
step02_gravity_refstate-crust.xmf,1070,-2.39566e-06,3.94863e-06,0,-9.60566e-06,-1.01461e+09,-1.01418e+09,-1.01445e+09,-658948,0.0464108,0.239837,0,0.244286,8066.29,-36934.4,0,37804.9,658948
step02_gravity_refstate-crust.xmf,1071,1.70401e-06,-5.37951e-07,0,-2.92163e-07,-4.09131e+07,-4.10669e+07,-4.103e+07,-20042.4,0.0178944,0.239189,0,0.239858,8540.96,-1495.54,0,8670.91,20042.4
step02_gravity_refstate-crust.xmf,1072,1.25552e-06,-1.22975e-07,0,-1.64375e-06,-3.68901e+08,-3.68996e+08,-3.68987e+08,-112761,0.0118642,0.243738,0,0.244026,7503.03,-13435.1,0,15388.2,112761
step02_gravity_refstate-crust.xmf,1073,1.7759e-06,-6.78628e-07,0,-4.31048e-09,168496,115.439,46669.3,-295.699,0.0230434,0.235446,0,0.236571,9771.03,0,0,9771.03,295.699
step02_gravity_refstate-crust.xmf,1074,1.52916e-06,-3.79464e-07,0,-2.47917e-06,-5.27458e+08,-5.27589e+08,-5.27563e+08,-170071,0.0163082,0.244785,0,0.245327,7591.02,-19208.2,0,20653.8,170071
step02_gravity_refstate-crust.xmf,1075,1.87527e-06,-8.94674e-07,0,-4.39679e-06,-7.23284e+08,-7.23474e+08,-7.23413e+08,-301619,0.0263769,0.249435,0,0.250826,7583.85,-26338.1,0,27408.2,301619
step02_gravity_refstate-crust.xmf,1076,1.32905e-06,-6.02588e-07,0,-7.03865e-06,-8.65578e+08,-8.6571e+08,-8.65669e+08,-482851,0.0372971,0.254239,0,0.25696,7548.94,-31516.7,0,32408.1,482851
step02_gravity_refstate-crust.xmf,1077,2.47054e-07,7.12163e-07,0,-7.88015e-06,-9.09319e+08,-9.09287e+08,-9.09336e+08,-540578,0.0412985,0.24729,0,0.250715,8096.31,-33106.8,0,34082.4,540578
step02_gravity_refstate-crust.xmf,1078,-1.88467e-06,3.27472e-06,0,-9.22787e-06,-9.9389e+08,-9.93536e+08,-9.93761e+08,-633032,0.0457779,0.239421,0,0.243758,8234.87,-36181,0,37106.3,633032
step02_gravity_refstate-crust.xmf,1079,1.43407e-06,-3.12257e-07,0,-6.08531e-07,-9.49943e+07,-9.51141e+07,-9.50927e+07,-41745.2,0.0152194,0.239973,0,0.240455,8565.32,-3463.68,0,9239.14,41745.2
step02_gravity_refstate-crust.xmf,1080,1.17886e-06,-5.25613e-08,0,-1.49713e-06,-3.20835e+08,-3.20919e+08,-3.20915e+08,-102703,0.011612,0.242705,0,0.242982,7828.58,-11685,0,14065.1,102703
step02_gravity_refstate-crust.xmf,1081,1.14588e-06,-3.05141e-08,0,-1.32757e-06,-2.68756e+08,-2.68837e+08,-2.68835e+08,-91071,0.0116258,0.241908,0,0.242187,8106.22,-9788.92,0,12709.6,91071
step02_gravity_refstate-crust.xmf,1082,1.16889e-06,-6.28867e-08,0,-1.12958e-06,-2.13442e+08,-2.13526e+08,-2.13522e+08,-77488.9,0.0120754,0.241289,0,0.241591,8318.93,-7775.19,0,11386.8,77488.9
step02_gravity_refstate-crust.xmf,1083,1.26016e-06,-1.55628e-07,0,-8.95013e-07,-1.55308e+08,-1.55405e+08,-1.55394e+08,-61397.9,0.0132139,0.240648,0,0.24101,8493.23,-5659,0,10205.8,61397.9
step02_gravity_refstate-crust.xmf,1084,1.28327e-06,-3.21913e-07,0,-4.91253e-07,-6.19141e+07,-6.20242e+07,-6.20021e+07,-33699.9,0.0200009,0.233971,0,0.234825,10795.4,-2258.74,0,11029.1,33699.9
step02_gravity_refstate-crust.xmf,1085,1.10053e-06,5.58072e-08,0,-1.98412e-06,-3.96839e+08,-3.9691e+08,-3.96914e+08,-136111,0.0140723,0.239421,0,0.239834,8911.92,-14451.8,0,16978.8,136111
step02_gravity_refstate-crust.xmf,1086,1.19757e-06,-2.94483e-08,0,-2.17003e-06,-4.43018e+08,-4.43102e+08,-4.431e+08,-148864,0.0148709,0.240483,0,0.240942,8592.19,-16133.3,0,18278.7,148864
step02_gravity_refstate-crust.xmf,1087,1.31969e-06,-1.41781e-07,0,-2.42255e-06,-4.94489e+08,-4.94589e+08,-4.9458e+08,-166187,0.0161691,0.241581,0,0.242122,8334.5,-18007.5,0,19842.7,166187
step02_gravity_refstate-crust.xmf,1088,-4.30768e-06,7.00099e-06,0,-9.83996e-06,-1.08344e+09,-1.08266e+09,-1.08314e+09,-675021,0.0439715,0.23196,0,0.236091,7802.38,-39437.1,0,40201.5,675021
step02_gravity_refstate-crust.xmf,1089,1.29638e-06,-8.65338e-08,0,-2.79098e-06,-5.41018e+08,-5.41113e+08,-5.41107e+08,-191461,0.0185103,0.239981,0,0.240694,8767.23,-19701.4,0,21564.1,191461
step02_gravity_refstate-crust.xmf,1090,1.40069e-06,-2.10453e-07,0,-3.03302e-06,-5.77989e+08,-5.78099e+08,-5.78085e+08,-208065,0.0198082,0.241276,0,0.242088,8528.32,-21047.6,0,22709.8,208065
step02_gravity_refstate-crust.xmf,1091,1.50833e-06,-3.45226e-07,0,-3.31226e-06,-6.15172e+08,-6.153e+08,-6.15276e+08,-227221,0.0212948,0.242727,0,0.243659,8310.73,-22401.5,0,23893.4,227221
step02_gravity_refstate-crust.xmf,1092,1.62682e-06,-5.06916e-07,0,-3.63187e-06,-6.52373e+08,-6.52519e+08,-6.52485e+08,-249147,0.0229085,0.244583,0,0.245653,8073.66,-23756.1,0,25090.6,249147
step02_gravity_refstate-crust.xmf,1093,1.75275e-06,-6.93873e-07,0,-3.99272e-06,-6.88682e+08,-6.88849e+08,-6.88802e+08,-273900,0.0246099,0.246853,0,0.248077,7824.92,-25078.2,0,26270.6,273900
step02_gravity_refstate-crust.xmf,1094,1.31077e-06,-4.27634e-07,0,-6.41418e-06,-8.37876e+08,-8.37995e+08,-8.37966e+08,-440012,0.0354501,0.249899,0,0.252401,7892.12,-30508.3,0,31512.6,440012
step02_gravity_refstate-crust.xmf,1095,1.36313e-06,-3.82596e-07,0,-5.84542e-06,-8.08424e+08,-8.08543e+08,-8.08517e+08,-400996,0.0334115,0.247325,0,0.249572,8104.48,-29436.4,0,30531.7,400996
step02_gravity_refstate-crust.xmf,1096,1.39152e-06,-2.68122e-07,0,-4.83681e-06,-7.44515e+08,-7.44629e+08,-7.44611e+08,-331805,0.0293197,0.243123,0,0.244884,8502.06,-27110,0,28412,331805
step02_gravity_refstate-crust.xmf,1097,1.392e-06,-3.33184e-07,0,-5.32026e-06,-7.7736e+08,-7.77479e+08,-7.77456e+08,-364970,0.0313596,0.245114,0,0.247112,8303.02,-28305.7,0,29498.4,364970
step02_gravity_refstate-crust.xmf,1098,-3.65731e-06,6.12076e-06,0,-9.04183e-06,-1.05236e+09,-1.05169e+09,-1.05211e+09,-620270,0.0440256,0.225018,0,0.229284,8472.68,-38307,0,39232.8,620270
step02_gravity_refstate-crust.xmf,1099,4.97349e-07,4.87847e-07,0,-7.29518e-06,-8.83037e+08,-8.83038e+08,-8.83072e+08,-500449,0.0393902,0.245476,0,0.248616,8278.06,-32150.6,0,33199.2,500449
step02_gravity_refstate-crust.xmf,1100,-3.13218e-06,5.31708e-06,0,-8.86855e-06,-1.02968e+09,-1.0291e+09,-1.02947e+09,-608383,0.0445087,0.225949,0,0.230292,8666.12,-37482.1,0,38470.9,608383
step02_gravity_refstate-crust.xmf,1101,-6.51559e-07,2.00404e-06,0,-7.80989e-06,-9.25766e+08,-9.25584e+08,-9.25722e+08,-535758,0.0422224,0.23626,0,0.240003,8831.64,-33703.9,0,34841.8,535758
step02_gravity_refstate-crust.xmf,1102,-1.08906e-06,2.48563e-06,0,-8.27307e-06,-9.50658e+08,-9.50413e+08,-9.50583e+08,-567533,0.0436007,0.236351,0,0.240339,8690.04,-34609.1,0,35683.4,567533
step02_gravity_refstate-crust.xmf,1103,-1.49437e-06,2.90194e-06,0,-8.75886e-06,-9.73497e+08,-9.73195e+08,-9.73394e+08,-600858,0.0447923,0.237591,0,0.241776,8473.73,-35439.6,0,36438.5,600858
step02_gravity_refstate-crust.xmf,1104,-2.63383e-06,4.62319e-06,0,-8.6215e-06,-1.0077e+09,-1.00721e+09,-1.00752e+09,-591435,0.0444468,0.226389,0,0.230711,8858.52,-36683,0,37737.5,591435
step02_gravity_refstate-crust.xmf,1105,1.02399e-06,1.11793e-07,0,-1.81165e-06,-3.49683e+08,-3.49746e+08,-3.49754e+08,-124279,0.0135691,0.238409,0,0.238794,9270.78,-12734.9,0,15752,124279
step02_gravity_refstate-crust.xmf,1106,1.33953e-06,-5.11258e-07,0,-9.23979e-09,127120,155.969,35228.3,-633.85,0.0269292,0.229052,0,0.23063,12254.7,0,0,12254.7,633.85
step02_gravity_refstate-crust.xmf,1107,-4.15479e-06,7.02478e-06,0,-9.02466e-06,-1.07462e+09,-1.07385e+09,-1.07434e+09,-619092,0.042629,0.222343,0,0.226392,8344.98,-39116.7,0,39997,619092
step02_gravity_refstate-crust.xmf,1108,1.35341e-06,-1.75486e-07,0,-4.41374e-06,-7.11203e+08,-7.11308e+08,-7.11296e+08,-302783,0.0274291,0.241185,0,0.24274,8727.44,-25897.3,0,27328.3,302783
step02_gravity_refstate-crust.xmf,1109,4.50431e-07,7.22302e-07,0,-6.68278e-06,-8.58354e+08,-8.58335e+08,-8.58385e+08,-458439,0.0378205,0.239856,0,0.242819,8795.89,-31252.2,0,32466.4,458439
step02_gravity_refstate-crust.xmf,1110,-2.93421e-07,1.60064e-06,0,-7.41041e-06,-9.03242e+08,-9.03112e+08,-9.03222e+08,-508354,0.0408655,0.236607,0,0.24011,8912.57,-32884.7,0,34071.1,508354
step02_gravity_refstate-crust.xmf,1111,-2.20943e-06,4.03968e-06,0,-8.40738e-06,-9.88705e+08,-9.88277e+08,-9.88554e+08,-576746,0.0441513,0.22708,0,0.231332,8992.04,-35992.1,0,37098.4,576746
step02_gravity_refstate-crust.xmf,1112,1.10388e-06,-1.03084e-07,0,-8.96566e-07,-1.29952e+08,-1.30035e+08,-1.30028e+08,-61504.4,0.0163293,0.235345,0,0.235911,10483.8,-4735.35,0,11503.7,61504.4
step02_gravity_refstate-crust.xmf,1113,9.76015e-07,1.30863e-07,0,-1.63285e-06,-3.00017e+08,-3.00075e+08,-3.00084e+08,-112014,0.0133824,0.2375,0,0.237876,9636.59,-10926.6,0,14568.9,112014
step02_gravity_refstate-crust.xmf,1114,9.70016e-07,1.02185e-07,0,-1.4278e-06,-2.46707e+08,-2.46766e+08,-2.46773e+08,-97947.3,0.0135956,0.236816,0,0.237206,9944.53,-8985.69,0,13402.8,97947.3
step02_gravity_refstate-crust.xmf,1115,1.01208e-06,2.4331e-08,0,-1.18652e-06,-1.8979e+08,-1.89858e+08,-1.89859e+08,-81394.9,0.0144725,0.236155,0,0.236598,10223.1,-6913.62,0,12341.4,81394.9
step02_gravity_refstate-crust.xmf,1116,9.38796e-07,-1.98287e-07,0,-4.94405e-07,-5.57201e+07,-5.57981e+07,-5.57845e+07,-33916.2,0.0233816,0.226389,0,0.227593,13420.1,-2032.04,0,13573.1,33916.2
step02_gravity_refstate-crust.xmf,1117,8.47503e-07,3.18301e-07,0,-2.1017e-06,-3.7875e+08,-3.78786e+08,-3.78808e+08,-144176,0.0153805,0.233458,0,0.233964,10651.2,-13792.7,0,17426.6,144176
step02_gravity_refstate-crust.xmf,1118,9.07331e-07,2.94079e-07,0,-2.29944e-06,-4.24575e+08,-4.24617e+08,-4.24637e+08,-157741,0.0161704,0.234189,0,0.234747,10315.7,-15461.2,0,18586.6,157741
step02_gravity_refstate-crust.xmf,1119,9.68352e-07,2.63487e-07,0,-2.52729e-06,-4.70646e+08,-4.70694e+08,-4.70712e+08,-173372,0.0173335,0.234682,0,0.235322,10071.6,-17138.7,0,19878.9,173372
step02_gravity_refstate-crust.xmf,1120,1.01608e-06,2.46905e-07,0,-2.80772e-06,-5.18457e+08,-5.1851e+08,-5.18527e+08,-192609,0.0189533,0.234765,0,0.235528,9947.71,-18879.4,0,21339.9,192609
step02_gravity_refstate-crust.xmf,1121,1.04646e-06,2.38389e-07,0,-3.1008e-06,-5.61934e+08,-5.6199e+08,-5.62006e+08,-212715,0.0207105,0.234747,0,0.235659,9869.16,-20462.4,0,22718,212715
step02_gravity_refstate-crust.xmf,1122,1.10747e-06,1.75237e-07,0,-3.38524e-06,-6.01024e+08,-6.01088e+08,-6.011e+08,-232227,0.0223161,0.235624,0,0.236678,9641.33,-21885.6,0,23915.2,232227
step02_gravity_refstate-crust.xmf,1123,1.18098e-06,8.36083e-08,0,-3.69729e-06,-6.39253e+08,-6.39328e+08,-6.39334e+08,-253634,0.0239886,0.236997,0,0.238208,9363.57,-23277.6,0,25090.3,253634
step02_gravity_refstate-crust.xmf,1124,1.27418e-06,-4.83317e-08,0,-4.03516e-06,-6.75996e+08,-6.76086e+08,-6.76083e+08,-276812,0.0256594,0.239036,0,0.240409,9026.37,-24615.4,0,26218.2,276812
step02_gravity_refstate-crust.xmf,1125,6.26297e-07,6.016e-07,0,-6.14386e-06,-8.28744e+08,-8.28746e+08,-8.28787e+08,-421469,0.0358207,0.238336,0,0.241013,9001.07,-30174.7,0,31488.6,421469
step02_gravity_refstate-crust.xmf,1126,7.60975e-07,5.06623e-07,0,-5.63585e-06,-7.97776e+08,-7.97793e+08,-7.97828e+08,-386619,0.0337888,0.236977,0,0.239374,9201.37,-29047.7,0,30470.2,386619
step02_gravity_refstate-crust.xmf,1127,9.00307e-07,4.2987e-07,0,-4.72671e-06,-7.31845e+08,-7.31877e+08,-7.31907e+08,-324253,0.029762,0.234482,0,0.236363,9623.24,-26647.9,0,28332.2,324253
step02_gravity_refstate-crust.xmf,1128,8.50813e-07,4.51426e-07,0,-5.158e-06,-7.65116e+08,-7.65144e+08,-7.65175e+08,-353838,0.0317391,0.235675,0,0.237803,9410.31,-27859,0,29405.4,353838
step02_gravity_refstate-crust.xmf,1129,-4.04773e-06,7.18897e-06,0,-8.08292e-06,-1.06673e+09,-1.06596e+09,-1.06645e+09,-554488,0.0405829,0.210373,0,0.214252,9045.29,-38830,0,39869.6,554488
step02_gravity_refstate-crust.xmf,1130,-3.64818e-06,6.48538e-06,0,-7.98465e-06,-1.04499e+09,-1.04429e+09,-1.04474e+09,-547747,0.0415561,0.211203,0,0.215253,9290.3,-38039,0,39157.1,547747
step02_gravity_refstate-crust.xmf,1131,-4.13195e-07,1.93853e-06,0,-6.83408e-06,-8.83857e+08,-8.83696e+08,-8.83829e+08,-468818,0.0394889,0.229422,0,0.232796,9580.58,-32179,0,33574.9,468818
step02_gravity_refstate-crust.xmf,1132,-3.20069e-06,5.76871e-06,0,-7.87004e-06,-1.02203e+09,-1.02141e+09,-1.02181e+09,-539885,0.0421675,0.212559,0,0.216701,9502.94,-37203.9,0,38398.4,539885
step02_gravity_refstate-crust.xmf,1133,-1.00816e-06,2.70092e-06,0,-7.1573e-06,-9.15175e+08,-9.14921e+08,-9.15106e+08,-490991,0.0409747,0.225204,0,0.228902,9710.11,-33318,0,34704.1,490991
step02_gravity_refstate-crust.xmf,1134,-1.47543e-06,3.27441e-06,0,-7.51798e-06,-9.42631e+08,-9.42305e+08,-9.42529e+08,-515733,0.0421329,0.223812,0,0.227743,9597.35,-34316.5,0,35633.3,515733
step02_gravity_refstate-crust.xmf,1135,-2.03692e-06,3.99563e-06,0,-7.83887e-06,-9.71372e+08,-9.70958e+08,-9.71232e+08,-537746,0.042986,0.222015,0,0.226138,9466.07,-35361.7,0,36606.8,537746
step02_gravity_refstate-crust.xmf,1136,-2.70618e-06,5.02706e-06,0,-7.73389e-06,-9.97316e+08,-9.96786e+08,-9.97131e+08,-530545,0.0424367,0.214598,0,0.218753,9670.82,-36305.1,0,37571.1,530545
step02_gravity_refstate-crust.xmf,1137,8.98166e-07,-4.15605e-08,0,-8.73948e-07,-1.12086e+08,-1.1215e+08,-1.12147e+08,-59952.8,0.0191635,0.229285,0,0.230084,12544.9,-4084.17,0,13193,59952.8
step02_gravity_refstate-crust.xmf,1138,7.96938e-07,3.23668e-07,0,-1.91151e-06,-3.30987e+08,-3.31019e+08,-3.31042e+08,-131130,0.0149472,0.232549,0,0.233029,11067.4,-12053.6,0,16363.9,131130
step02_gravity_refstate-crust.xmf,1139,8.50919e-07,-3.26744e-07,0,-9.97286e-09,80667.3,-120.401,22294.2,-684.138,0.0297032,0.221783,0,0.223763,14769.1,0,0,14769.1,684.138
step02_gravity_refstate-crust.xmf,1140,-4.33874e-06,7.79928e-06,0,-8.07532e-06,-1.08429e+09,-1.08346e+09,-1.084e+09,-553967,0.0392137,0.208884,0,0.212533,8876.65,-39469.3,0,40455.2,553967
step02_gravity_refstate-crust.xmf,1141,8.93539e-07,4.61886e-07,0,-4.34579e-06,-6.98308e+08,-6.98337e+08,-6.98369e+08,-298121,0.0279459,0.232968,0,0.234638,9902.67,-25426.9,0,27287.2,298121
step02_gravity_refstate-crust.xmf,1142,-1.4114e-07,1.67035e-06,0,-6.26685e-06,-8.50436e+08,-8.50311e+08,-8.50426e+08,-429906,0.0374655,0.227944,0,0.231002,9896.65,-30963,0,32506.1,429906
step02_gravity_refstate-crust.xmf,1143,6.42558e-07,5.53334e-08,0,-8.69416e-07,-1.04571e+08,-1.04611e+08,-1.04615e+08,-59641.9,0.0211593,0.222757,0,0.22376,14615,-3809.7,0,15103.4,59641.9
step02_gravity_refstate-crust.xmf,1144,8.23513e-07,1.0881e-07,0,-1.19107e-06,-1.68166e+08,-1.68215e+08,-1.68222e+08,-81707.5,0.0167708,0.230323,0,0.230933,12185.5,-6125.74,0,13638.6,81707.5
step02_gravity_refstate-crust.xmf,1145,7.70345e-07,2.94136e-07,0,-1.70524e-06,-2.79709e+08,-2.79742e+08,-2.79762e+08,-116979,0.0149153,0.23168,0,0.232159,11495.8,-10186.7,0,15359.7,116979
step02_gravity_refstate-crust.xmf,1146,7.76175e-07,2.21602e-07,0,-1.46697e-06,-2.24283e+08,-2.24321e+08,-2.24337e+08,-100634,0.0154875,0.230826,0,0.231345,11918.8,-8168.74,0,14449.5,100634
step02_gravity_refstate-crust.xmf,1147,6.10611e-07,5.46481e-07,0,-2.15082e-06,-3.60759e+08,-3.60763e+08,-3.60801e+08,-147546,0.0163216,0.227192,0,0.227778,12401.9,-13137.1,0,18066.3,147546
step02_gravity_refstate-crust.xmf,1148,5.3948e-07,-4.05945e-08,0,-5.18934e-07,-5.56159e+07,-5.56557e+07,-5.56529e+07,-35598.9,0.025187,0.218819,0,0.220264,15838.5,-2026.87,0,15967.7,35598.9
step02_gravity_refstate-crust.xmf,1149,6.50877e-07,5.65494e-07,0,-2.35578e-06,-4.07331e+08,-4.07337e+08,-4.07376e+08,-161607,0.017018,0.227908,0,0.228542,11977.6,-14832.8,0,19065,161607
step02_gravity_refstate-crust.xmf,1150,6.83278e-07,5.85427e-07,0,-2.57736e-06,-4.53047e+08,-4.53054e+08,-4.53094e+08,-176807,0.0180916,0.228171,0,0.228887,11682,-16497.3,0,20214.6,176807
step02_gravity_refstate-crust.xmf,1151,7.09507e-07,6.07945e-07,0,-2.82863e-06,-4.99487e+08,-4.99494e+08,-4.99536e+08,-194044,0.0195117,0.228209,0,0.229042,11445.6,-18188.1,0,21489.8,194044
step02_gravity_refstate-crust.xmf,1152,7.33784e-07,6.23789e-07,0,-3.09734e-06,-5.43961e+08,-5.43968e+08,-5.44011e+08,-212477,0.021116,0.228319,0,0.229293,11214.9,-19807.4,0,22761.9,212477
step02_gravity_refstate-crust.xmf,1153,7.44561e-07,6.4433e-07,0,-3.38526e-06,-5.86148e+08,-5.86154e+08,-5.86199e+08,-232229,0.0228606,0.228385,0,0.229527,11015.5,-21343.3,0,24018.3,232229
step02_gravity_refstate-crust.xmf,1154,7.6488e-07,6.36498e-07,0,-3.6983e-06,-6.26997e+08,-6.27006e+08,-6.27049e+08,-253703,0.0246718,0.228986,0,0.230311,10742.2,-22830.5,0,25231.5,253703
step02_gravity_refstate-crust.xmf,1155,8.164e-07,5.68038e-07,0,-4.01851e-06,-6.6431e+08,-6.64328e+08,-6.64367e+08,-275670,0.0263586,0.23064,0,0.232141,10343,-24189.1,0,26307.6,275670
step02_gravity_refstate-crust.xmf,1156,9.95897e-08,1.41947e-06,0,-5.80451e-06,-8.1887e+08,-8.1878e+08,-8.18877e+08,-398189,0.0355581,0.227655,0,0.230415,10092.5,-29814.4,0,31476.3,398189
step02_gravity_refstate-crust.xmf,1157,4.98135e-07,1.00847e-06,0,-4.55427e-06,-7.18011e+08,-7.17976e+08,-7.18045e+08,-312423,0.029696,0.226372,0,0.228312,10737.8,-26143.5,0,28262.7,312423
step02_gravity_refstate-crust.xmf,1158,2.71074e-07,1.24718e-06,0,-5.35859e-06,-7.86339e+08,-7.86272e+08,-7.86357e+08,-367599,0.0336122,0.227092,0,0.229566,10316.6,-28630.5,0,30432.5,367599
step02_gravity_refstate-crust.xmf,1159,4.01296e-07,1.11429e-06,0,-4.93982e-06,-7.52593e+08,-7.52544e+08,-7.52621e+08,-338872,0.0316447,0.226636,0,0.228834,10536,-27402.3,0,29358,338872
step02_gravity_refstate-crust.xmf,1160,-4.23634e-06,8.02226e-06,0,-7.16204e-06,-1.08147e+09,-1.08063e+09,-1.08118e+09,-491316,0.03659,0.196402,0,0.199782,9577.03,-39367.4,0,40515.6,491316
step02_gravity_refstate-crust.xmf,1161,-3.95067e-06,7.42385e-06,0,-7.08696e-06,-1.06102e+09,-1.06024e+09,-1.06075e+09,-486165,0.0378554,0.196791,0,0.200399,9878.98,-38623,0,39866.4,486165
step02_gravity_refstate-crust.xmf,1162,-3.60025e-06,6.77102e-06,0,-7.02675e-06,-1.0382e+09,-1.03749e+09,-1.03796e+09,-482035,0.038941,0.198033,0,0.201825,10155,-37792.7,0,39133.3,482035
step02_gravity_refstate-crust.xmf,1163,-8.79821e-07,2.76134e-06,0,-6.19704e-06,-8.72937e+08,-8.72687e+08,-8.72877e+08,-425117,0.0381633,0.216296,0,0.219637,10786.4,-31780.9,0,33561.4,425117
step02_gravity_refstate-crust.xmf,1164,-3.19069e-06,6.06536e-06,0,-7.00293e-06,-1.01356e+09,-1.01293e+09,-1.01334e+09,-480401,0.0398628,0.200629,0,0.204551,10351.8,-36896.2,0,38320.9,480401
step02_gravity_refstate-crust.xmf,1165,-1.27617e-06,3.26134e-06,0,-6.53228e-06,-9.03882e+08,-9.03571e+08,-9.03794e+08,-448115,0.0394808,0.214624,0,0.218225,10642.9,-32906.6,0,34584.9,448115
step02_gravity_refstate-crust.xmf,1166,-1.72319e-06,3.84529e-06,0,-6.80551e-06,-9.33008e+08,-9.32626e+08,-9.3289e+08,-466858,0.040414,0.212405,0,0.216215,10524.3,-33966.1,0,35559.2,466858
step02_gravity_refstate-crust.xmf,1167,-2.18758e-06,4.4845e-06,0,-7.00778e-06,-9.60237e+08,-9.59779e+08,-9.60087e+08,-480734,0.0409208,0.209867,0,0.213819,10410.8,-34956.5,0,36473.8,480734
step02_gravity_refstate-crust.xmf,1168,-2.7171e-06,5.30322e-06,0,-6.98632e-06,-9.87008e+08,-9.86457e+08,-9.86821e+08,-479261,0.0405159,0.204433,0,0.208409,10460.8,-35930.2,0,37422,479261
step02_gravity_refstate-crust.xmf,1169,6.66403e-07,1.50089e-07,0,-1.13098e-06,-1.47425e+08,-1.47461e+08,-1.47471e+08,-77584.9,0.0186727,0.225158,0,0.225931,13827.7,-5370.09,0,14833.9,77584.9
step02_gravity_refstate-crust.xmf,1170,5.68887e-07,5.18888e-07,0,-1.95378e-06,-3.13662e+08,-3.13665e+08,-3.13701e+08,-134030,0.016062,0.226039,0,0.226609,12954.2,-11422.3,0,17270.8,134030
step02_gravity_refstate-crust.xmf,1171,3.37931e-07,-1.34278e-07,0,-1.50198e-08,31843.8,-549.664,8661.78,-1030.36,0.0312402,0.213926,0,0.216195,17321.5,0,0,17321.5,1030.36
step02_gravity_refstate-crust.xmf,1172,3.84712e-07,1.7174e-07,0,-8.82868e-07,-1.0505e+08,-1.05064e+08,-1.05076e+08,-60564.7,0.0220707,0.216706,0,0.217827,16444.3,-3826.26,0,16883.6,60564.7
step02_gravity_refstate-crust.xmf,1173,5.34996e-07,9.70617e-07,0,-4.25168e-06,-6.8848e+08,-6.8845e+08,-6.88516e+08,-291665,0.0281313,0.22583,0,0.227575,10958.3,-25068.5,0,27358.9,291665
step02_gravity_refstate-crust.xmf,1174,-5.61587e-07,2.37726e-06,0,-5.80697e-06,-8.40496e+08,-8.40295e+08,-8.40458e+08,-398358,0.0365407,0.217059,0,0.220113,10994.1,-30600.5,0,32515.6,398358
step02_gravity_refstate-crust.xmf,1175,4.3711e-07,2.72768e-07,0,-1.18271e-06,-1.50765e+08,-1.50776e+08,-1.50795e+08,-81133.9,0.0195224,0.219188,0,0.220056,15600.3,-5490.94,0,16538.4,81133.9
step02_gravity_refstate-crust.xmf,1176,5.39973e-07,3.33804e-07,0,-1.44965e-06,-2.01539e+08,-2.01553e+08,-2.01576e+08,-99446,0.0173434,0.223443,0,0.224115,14192.9,-7339.92,0,15978.6,99446
step02_gravity_refstate-crust.xmf,1177,5.54635e-07,4.38737e-07,0,-1.72188e-06,-2.5979e+08,-2.59798e+08,-2.59828e+08,-118121,0.0162465,0.225123,0,0.225709,13471.2,-9460.83,0,16461.5,118121
step02_gravity_refstate-crust.xmf,1178,4.02378e-07,7.28391e-07,0,-2.14034e-06,-3.43103e+08,-3.43081e+08,-3.43131e+08,-146827,0.0169135,0.221062,0,0.221708,14084.7,-12493.8,0,18827.4,146827
step02_gravity_refstate-crust.xmf,1179,4.13565e-07,7.99603e-07,0,-2.35352e-06,-3.8982e+08,-3.89794e+08,-3.89848e+08,-161452,0.0175314,0.221346,0,0.222039,13690.6,-14194.7,0,19721.1,161452
step02_gravity_refstate-crust.xmf,1180,1.20825e-07,1.75583e-07,0,-6.42972e-07,-7.17867e+07,-7.1783e+07,-7.1795e+07,-44107.9,0.0247759,0.210391,0,0.211845,18398.2,-2614.23,0,18583,44107.9
step02_gravity_refstate-crust.xmf,1181,4.25929e-07,8.62185e-07,0,-2.57062e-06,-4.35658e+08,-4.35628e+08,-4.35688e+08,-176344,0.0184909,0.221485,0,0.222255,13330.5,-15863.6,0,20720.9,176344
step02_gravity_refstate-crust.xmf,1182,4.28932e-07,9.31529e-07,0,-2.80967e-06,-4.82567e+08,-4.82532e+08,-4.82596e+08,-192743,0.019808,0.221305,0,0.22219,13030.5,-17571.5,0,21875.8,192743
step02_gravity_refstate-crust.xmf,1183,4.30866e-07,9.92862e-07,0,-3.06154e-06,-5.27784e+08,-5.27745e+08,-5.27813e+08,-210022,0.0213286,0.221208,0,0.222234,12723.7,-19217.8,0,23048.1,210022
step02_gravity_refstate-crust.xmf,1184,4.21517e-07,1.05741e-06,0,-3.32927e-06,-5.71084e+08,-5.7104e+08,-5.71112e+08,-228388,0.0230032,0.22106,0,0.222254,12443.4,-20794.2,0,24233,228388
step02_gravity_refstate-crust.xmf,1185,3.94481e-07,1.13374e-06,0,-3.62567e-06,-6.14009e+08,-6.13959e+08,-6.14037e+08,-248721,0.0248523,0.220881,0,0.222275,12174.4,-22357,0,25456.8,248721
step02_gravity_refstate-crust.xmf,1186,3.59982e-07,1.21406e-06,0,-3.99351e-06,-6.60496e+08,-6.60437e+08,-6.60521e+08,-273955,0.0270159,0.221151,0,0.222795,11814.6,-24049.4,0,26794.7,273955
step02_gravity_refstate-crust.xmf,1187,-3.17491e-07,2.08882e-06,0,-5.42145e-06,-8.07983e+08,-8.07818e+08,-8.07961e+08,-371912,0.0348169,0.217423,0,0.220193,11222.7,-29417.4,0,31485.4,371912
step02_gravity_refstate-crust.xmf,1188,1.56347e-07,1.50632e-06,0,-4.32613e-06,-7.01877e+08,-7.01785e+08,-7.01888e+08,-296773,0.0291939,0.218307,0,0.22025,11933.9,-25555.5,0,28204.6,296773
step02_gravity_refstate-crust.xmf,1189,2.74741e-08,1.67445e-06,0,-4.67495e-06,-7.38819e+08,-7.38706e+08,-7.38821e+08,-320701,0.0311149,0.217819,0,0.22003,11717.5,-26900.2,0,29341.4,320701
step02_gravity_refstate-crust.xmf,1190,-1.31762e-07,1.87067e-06,0,-5.04156e-06,-7.74448e+08,-7.74311e+08,-7.74439e+08,-345851,0.0330109,0.217494,0,0.219985,11480.5,-28196.9,0,30444.5,345851
step02_gravity_refstate-crust.xmf,1191,-1.16502e-06,3.30854e-06,0,-5.6469e-06,-8.6205e+08,-8.61743e+08,-8.6197e+08,-387378,0.0366387,0.205644,0,0.208882,11881.6,-31384.2,0,33558,387378
step02_gravity_refstate-crust.xmf,1192,-4.07708e-06,8.18792e-06,0,-6.19395e-06,-1.07861e+09,-1.07777e+09,-1.07833e+09,-424905,0.0334159,0.182474,0,0.185508,10435.7,-39264.2,0,40627.3,424905
step02_gravity_refstate-crust.xmf,1193,-3.82212e-06,7.59844e-06,0,-6.16894e-06,-1.0561e+09,-1.05532e+09,-1.05584e+09,-423189,0.0349333,0.183596,0,0.18689,10770.5,-38444.7,0,39924.9,423189
step02_gravity_refstate-crust.xmf,1194,-3.51038e-06,6.96425e-06,0,-6.17525e-06,-1.03153e+09,-1.03081e+09,-1.03128e+09,-423622,0.0362902,0.185799,0,0.189309,11054.2,-37550.3,0,39143.6,423622
step02_gravity_refstate-crust.xmf,1195,-1.51825e-06,3.77855e-06,0,-5.9241e-06,-8.9402e+08,-8.93657e+08,-8.93916e+08,-406393,0.0377751,0.203827,0,0.207298,11672.4,-32547.4,0,34577.1,406393
step02_gravity_refstate-crust.xmf,1196,-3.14809e-06,6.29542e-06,0,-6.20231e-06,-1.00536e+09,-1.00471e+09,-1.00514e+09,-425479,0.0374215,0.189097,0,0.192764,11261.9,-36598.2,0,38291.7,425479
step02_gravity_refstate-crust.xmf,1197,-1.89911e-06,4.30475e-06,0,-6.13008e-06,-9.23114e+08,-9.22688e+08,-9.22983e+08,-420524,0.0384885,0.201435,0,0.205079,11513.9,-33605.9,0,35523.6,420524
step02_gravity_refstate-crust.xmf,1198,-2.30881e-06,4.89668e-06,0,-6.27742e-06,-9.51405e+08,-9.50911e+08,-9.51247e+08,-430631,0.0388087,0.198589,0,0.202345,11365.4,-34635.1,0,36452.2,430631
step02_gravity_refstate-crust.xmf,1199,-2.74422e-06,5.60172e-06,0,-6.24301e-06,-9.78402e+08,-9.77829e+08,-9.78214e+08,-428271,0.0382842,0.19347,0,0.197221,11365.8,-35617.3,0,37386.8,428271
step02_gravity_refstate-crust.xmf,1200,1.6565e-07,3.85917e-07,0,-1.14118e-06,-1.43606e+08,-1.43591e+08,-1.43618e+08,-78284.8,0.0204686,0.211816,0,0.212803,17757.9,-5229.39,0,18511.9,78284.8
step02_gravity_refstate-crust.xmf,1201,4.04755e-07,6.37744e-07,0,-1.92145e-06,-2.95605e+08,-2.95589e+08,-2.95633e+08,-131812,0.0166792,0.220959,0,0.221588,14418,-10764.4,0,17993.1,131812
step02_gravity_refstate-crust.xmf,1202,-1.74691e-07,6.22965e-08,0,-1.52525e-08,-16764.2,-506.818,-4780.36,-1046.32,0.0314762,0.205796,0,0.208189,19919.3,0,0,19919.3,1046.32
step02_gravity_refstate-crust.xmf,1203,-8.77722e-07,2.93425e-06,0,-5.34332e-06,-8.29954e+08,-8.29692e+08,-8.29894e+08,-366552,0.0352707,0.206864,0,0.209849,12120.6,-30216.3,0,32556.6,366552
step02_gravity_refstate-crust.xmf,1204,2.3736e-07,5.12553e-07,0,-1.4693e-06,-1.98801e+08,-1.98782e+08,-1.98818e+08,-100794,0.0183898,0.214554,0,0.21534,16723.4,-7239.31,0,18223,100794
step02_gravity_refstate-crust.xmf,1205,2.92183e-07,6.42213e-07,0,-1.77406e-06,-2.59506e+08,-2.59482e+08,-2.59526e+08,-121701,0.017191,0.217031,0,0.217711,15692.2,-9449.74,0,18317.8,121701
step02_gravity_refstate-crust.xmf,1206,2.23368e-07,8.46023e-07,0,-2.0565e-06,-3.19224e+08,-3.19181e+08,-3.19239e+08,-141076,0.0172029,0.215252,0,0.215938,15734.6,-11623.9,0,19562.5,141076
step02_gravity_refstate-crust.xmf,1207,1.98794e-07,9.88907e-07,0,-2.29611e-06,-3.71348e+08,-3.71294e+08,-3.71362e+08,-157513,0.0177278,0.214669,0,0.2154,15447.6,-13521.6,0,20529.5,157513
step02_gravity_refstate-crust.xmf,1208,1.91574e-07,1.09837e-06,0,-2.51713e-06,-4.18919e+08,-4.18856e+08,-4.18932e+08,-172675,0.0185901,0.214556,0,0.21536,15049.1,-15253.6,0,21427.8,172675
step02_gravity_refstate-crust.xmf,1209,-3.32182e-07,3.36718e-07,0,-5.66732e-07,-6.59558e+07,-6.591e+07,-6.5933e+07,-38877.8,0.0249102,0.200866,0,0.202405,21324.3,-2400.37,0,21458.9,38877.8
step02_gravity_refstate-crust.xmf,1210,-1.44216e-07,4.92237e-07,0,-1.03863e-06,-1.323e+08,-1.32257e+08,-1.3229e+08,-71250.3,0.0210218,0.203639,0,0.204721,20181.5,-4816.7,0,20748.4,71250.3
step02_gravity_refstate-crust.xmf,1211,1.77807e-07,1.20938e-06,0,-2.74513e-06,-4.66411e+08,-4.66341e+08,-4.66424e+08,-188316,0.0197902,0.214214,0,0.215126,14682.6,-16982.8,0,22449.8,188316
step02_gravity_refstate-crust.xmf,1212,1.63846e-07,1.31057e-06,0,-2.98205e-06,-5.1238e+08,-5.12302e+08,-5.12392e+08,-204569,0.021218,0.213992,0,0.215041,14291.2,-18656.4,0,23501.1,204569
step02_gravity_refstate-crust.xmf,1213,1.34916e-07,1.41865e-06,0,-3.22698e-06,-5.56163e+08,-5.56075e+08,-5.56173e+08,-221371,0.0227995,0.213558,0,0.214771,13955.1,-20250.4,0,24593.2,221371
step02_gravity_refstate-crust.xmf,1214,8.68724e-08,1.54085e-06,0,-3.48872e-06,-5.98912e+08,-5.98812e+08,-5.98918e+08,-239326,0.0245204,0.212971,0,0.214378,13648.2,-21806.7,0,25725.6,239326
step02_gravity_refstate-crust.xmf,1215,5.33893e-09,1.70025e-06,0,-3.78e-06,-6.42554e+08,-6.42438e+08,-6.42555e+08,-259308,0.0264263,0.21206,0,0.213701,13375.2,-23395.5,0,26948.9,259308
step02_gravity_refstate-crust.xmf,1216,-6.52669e-07,2.64403e-06,0,-5.02709e-06,-7.97441e+08,-7.97215e+08,-7.97397e+08,-344858,0.0337474,0.207544,0,0.21027,12401.2,-29033.1,0,31570.7,344858
step02_gravity_refstate-crust.xmf,1217,-1.25599e-07,1.91455e-06,0,-4.08269e-06,-6.85244e+08,-6.85104e+08,-6.85236e+08,-280072,0.0283902,0.210586,0,0.212491,13175.6,-24949.5,0,28214.7,280072
step02_gravity_refstate-crust.xmf,1218,-2.9439e-07,2.16443e-06,0,-4.38915e-06,-7.25721e+08,-7.25552e+08,-7.25701e+08,-301096,0.0302946,0.208985,0,0.211169,12983.5,-26422.8,0,29440.3,301096
step02_gravity_refstate-crust.xmf,1219,-4.66049e-07,2.40055e-06,0,-4.70352e-06,-7.62823e+08,-7.62626e+08,-7.62791e+08,-322661,0.0320727,0.208048,0,0.210505,12712.5,-27773.1,0,30544.3,322661
step02_gravity_refstate-crust.xmf,1220,-1.36743e-06,3.72881e-06,0,-5.14198e-06,-8.5162e+08,-8.51271e+08,-8.51527e+08,-352740,0.0349637,0.195935,0,0.19903,12981.2,-31004.3,0,33612.2,352740
step02_gravity_refstate-crust.xmf,1221,-1.67115e-06,4.15971e-06,0,-5.35116e-06,-8.82984e+08,-8.82584e+08,-8.82869e+08,-367089,0.0358795,0.193849,0,0.197141,12743.1,-32145.6,0,34579.3,367089
step02_gravity_refstate-crust.xmf,1222,-3.87577e-06,8.27693e-06,0,-5.29506e-06,-1.07617e+09,-1.07534e+09,-1.0759e+09,-363241,0.0300475,0.168806,0,0.17146,11369.5,-39176.1,0,40792.6,363241
step02_gravity_refstate-crust.xmf,1223,-3.65584e-06,7.69069e-06,0,-5.34022e-06,-1.05117e+09,-1.05039e+09,-1.05092e+09,-366339,0.0319531,0.171099,0,0.174057,11717.3,-38266.1,0,40019.9,366339
step02_gravity_refstate-crust.xmf,1224,-3.38606e-06,7.0773e-06,0,-5.41193e-06,-1.02468e+09,-1.02396e+09,-1.02445e+09,-371258,0.03362,0.174371,0,0.177583,11998.8,-37301.7,0,39184,371258
step02_gravity_refstate-crust.xmf,1225,-2.00624e-06,4.6501e-06,0,-5.50645e-06,-9.12937e+08,-9.1248e+08,-9.12799e+08,-377742,0.0364299,0.191172,0,0.194612,12547.7,-33235.5,0,35525.2,377742
step02_gravity_refstate-crust.xmf,1226,-3.06686e-06,6.4411e-06,0,-5.48346e-06,-9.96822e+08,-9.9617e+08,-9.96612e+08,-376165,0.034958,0.178371,0,0.181764,12216.4,-36287.9,0,38289,376165
step02_gravity_refstate-crust.xmf,1227,-2.35825e-06,5.19418e-06,0,-5.58723e-06,-9.41287e+08,-9.40769e+08,-9.41125e+08,-383284,0.0365178,0.187779,0,0.191296,12402.3,-34267,0,36442.3,383284
step02_gravity_refstate-crust.xmf,1228,-2.72149e-06,5.80384e-06,0,-5.56679e-06,-9.69104e+08,-9.68519e+08,-9.68917e+08,-381882,0.0360025,0.183255,0,0.186759,12317.6,-35279.2,0,37367.7,381882
step02_gravity_refstate-crust.xmf,1229,-5.94154e-08,7.03102e-07,0,-1.46523e-06,-2.03701e+08,-2.03648e+08,-2.03696e+08,-100515,0.0184928,0.205515,0,0.206345,19199.6,-7416.77,0,20582.4,100515
step02_gravity_refstate-crust.xmf,1230,-6.67699e-07,2.49738e-07,0,-1.49653e-08,-63580.9,-644.721,-17776.7,-1026.62,0.0303818,0.197709,0,0.200029,22569.7,0,0,22569.7,1026.62
step02_gravity_refstate-crust.xmf,1231,-1.10995e-06,3.36626e-06,0,-4.91007e-06,-8.20126e+08,-8.19819e+08,-8.20049e+08,-336831,0.0338207,0.197534,0,0.200408,13242.8,-29858.2,0,32663.2,336831
step02_gravity_refstate-crust.xmf,1232,7.28352e-08,7.62324e-07,0,-1.70242e-06,-2.46041e+08,-2.45993e+08,-2.46046e+08,-116786,0.0176898,0.209888,0,0.210632,17697.9,-8958.83,0,19836.2,116786
step02_gravity_refstate-crust.xmf,1233,4.34435e-08,9.4027e-07,0,-1.94103e-06,-2.96471e+08,-2.9641e+08,-2.96474e+08,-133154,0.0173707,0.209022,0,0.209742,17515.6,-10795,0,20574.9,133154
step02_gravity_refstate-crust.xmf,1234,2.66035e-09,1.13483e-06,0,-2.1904e-06,-3.51781e+08,-3.51704e+08,-3.51781e+08,-150261,0.0176514,0.207906,0,0.208654,17271.7,-12808.7,0,21502.9,150261
step02_gravity_refstate-crust.xmf,1235,-2.87469e-08,1.30821e-06,0,-2.42739e-06,-4.04761e+08,-4.04669e+08,-4.04759e+08,-166519,0.0184366,0.207148,0,0.207967,16891.4,-14737.6,0,22416.9,166519
step02_gravity_refstate-crust.xmf,1236,-4.76357e-08,1.4402e-06,0,-2.63722e-06,-4.50192e+08,-4.5009e+08,-4.50189e+08,-180913,0.0194548,0.20691,0,0.207823,16432.9,-16391.7,0,23210.5,180913
step02_gravity_refstate-crust.xmf,1237,-7.14191e-07,4.85423e-07,0,-5.11816e-07,-6.5553e+07,-6.54708e+07,-6.55041e+07,-35110.6,0.0235536,0.192627,0,0.194062,23980.1,-2384.39,0,24098.3,35110.6
step02_gravity_refstate-crust.xmf,1238,-3.213e-07,8.08381e-07,0,-1.33276e-06,-1.93211e+08,-1.93133e+08,-1.93189e+08,-91427.7,0.0183207,0.197203,0,0.198052,21635.6,-7033.98,0,22750.3,91427.7
step02_gravity_refstate-crust.xmf,1239,-4.59315e-07,6.28574e-07,0,-9.58962e-07,-1.31188e+08,-1.31113e+08,-1.31156e+08,-65784.8,0.0203103,0.195208,0,0.196262,22721.3,-4775.13,0,23217.6,65784.8
step02_gravity_refstate-crust.xmf,1240,-1.12162e-06,4.22254e-07,0,-1.40811e-08,-106688,-778.702,-29745.3,-965.962,0.0279759,0.189996,0,0.192045,25280.2,0,0,25280.2,965.962
step02_gravity_refstate-crust.xmf,1241,-6.27187e-08,1.57098e-06,0,-2.86412e-06,-4.97549e+08,-4.97437e+08,-4.97545e+08,-196478,0.0208073,0.206906,0,0.207949,15883.7,-18115.9,0,24093.1,196478
step02_gravity_refstate-crust.xmf,1242,-1.01843e-07,1.70972e-06,0,-3.08768e-06,-5.41264e+08,-5.4114e+08,-5.41257e+08,-211815,0.0222698,0.206346,0,0.207544,15478.3,-19707.5,0,25059.2,211815
step02_gravity_refstate-crust.xmf,1243,-1.67328e-07,1.87328e-06,0,-3.32047e-06,-5.84502e+08,-5.84362e+08,-5.84491e+08,-227784,0.0238777,0.205324,0,0.206708,15147.1,-21281.6,0,26121.7,227784
step02_gravity_refstate-crust.xmf,1244,-2.59525e-07,2.06391e-06,0,-3.56438e-06,-6.27252e+08,-6.27092e+08,-6.27234e+08,-244516,0.0255876,0.204008,0,0.205606,14848.9,-22837.9,0,27240.8,244516
step02_gravity_refstate-crust.xmf,1245,-3.88189e-07,2.29563e-06,0,-3.82022e-06,-6.70031e+08,-6.69846e+08,-6.70004e+08,-262067,0.0273702,0.202311,0,0.204155,14581.6,-24395.1,0,28420.9,262067
step02_gravity_refstate-crust.xmf,1246,-9.29818e-07,3.11634e-06,0,-4.63186e-06,-7.88373e+08,-7.88095e+08,-7.88309e+08,-317746,0.032413,0.197726,0,0.200365,13650.9,-28702.6,0,31783.4,317746
step02_gravity_refstate-crust.xmf,1247,-5.5255e-07,2.56543e-06,0,-4.08061e-06,-7.11721e+08,-7.11507e+08,-7.11683e+08,-279930,0.0291306,0.200382,0,0.202488,14326.7,-25912.7,0,29609.5,279930
step02_gravity_refstate-crust.xmf,1248,-7.46164e-07,2.86017e-06,0,-4.35121e-06,-7.52302e+08,-7.52054e+08,-7.5225e+08,-298493,0.0308438,0.198564,0,0.200945,14033.7,-27389.7,0,30775.6,298493
step02_gravity_refstate-crust.xmf,1249,-1.49399e-06,4.02847e-06,0,-4.68009e-06,-8.40545e+08,-8.40166e+08,-8.40443e+08,-321054,0.0331857,0.187274,0,0.190192,14079.6,-30601.1,0,33684.7,321054
step02_gravity_refstate-crust.xmf,1250,-1.7738e-06,4.45922e-06,0,-4.82162e-06,-8.72536e+08,-8.72109e+08,-8.72415e+08,-330763,0.0338725,0.184424,0,0.187509,13856.5,-31765.3,0,34656,330763
step02_gravity_refstate-crust.xmf,1251,-2.07267e-06,4.92577e-06,0,-4.93255e-06,-9.03618e+08,-9.03138e+08,-9.03475e+08,-338373,0.0342688,0.181397,0,0.184606,13627.1,-32896.3,0,35607.1,338373
step02_gravity_refstate-crust.xmf,1252,-3.64096e-06,8.27614e-06,0,-4.49976e-06,-1.07325e+09,-1.07243e+09,-1.073e+09,-308684,0.0267617,0.156127,0,0.158404,12354.6,-39070.9,0,40977.6,308684
step02_gravity_refstate-crust.xmf,1253,-3.46046e-06,7.70526e-06,0,-4.60226e-06,-1.04575e+09,-1.04498e+09,-1.04551e+09,-315715,0.0290048,0.159439,0,0.162056,12721.8,-38069.5,0,40138.9,315715
step02_gravity_refstate-crust.xmf,1254,-3.21811e-06,7.08502e-06,0,-4.73965e-06,-1.01602e+09,-1.01531e+09,-1.0158e+09,-325140,0.0310695,0.164032,0,0.166949,12999.8,-36987.2,0,39205.2,325140
step02_gravity_refstate-crust.xmf,1255,-2.36139e-06,5.39335e-06,0,-4.99803e-06,-9.319e+08,-9.31368e+08,-9.31738e+08,-342865,0.0343048,0.178282,0,0.181552,13417.9,-33925.5,0,36482.6,342865
step02_gravity_refstate-crust.xmf,1256,-2.94604e-06,6.49588e-06,0,-4.84152e-06,-9.86928e+08,-9.8628e+08,-9.86726e+08,-332128,0.0325339,0.168556,0,0.171667,13226.2,-35928.2,0,38285.4,332128
step02_gravity_refstate-crust.xmf,1257,-2.65475e-06,5.90954e-06,0,-4.97498e-06,-9.58825e+08,-9.58237e+08,-9.58642e+08,-341284,0.0337871,0.174156,0,0.177403,13290,-34905.4,0,37349.8,341284
step02_gravity_refstate-crust.xmf,1258,-1.33809e-07,9.91864e-07,0,-1.78532e-06,-2.71724e+08,-2.71647e+08,-2.71715e+08,-122473,0.0173912,0.202832,0,0.203576,19358.6,-9893.38,0,21740.2,122473
step02_gravity_refstate-crust.xmf,1259,-2.74094e-07,9.82201e-07,0,-1.59955e-06,-2.43913e+08,-2.43826e+08,-2.43894e+08,-109729,0.0173907,0.197899,0,0.198662,20967.1,-8880.29,0,22770.1,109729
step02_gravity_refstate-crust.xmf,1260,-1.05614e-06,6.17937e-07,0,-4.4399e-07,-6.54335e+07,-6.53187e+07,-6.53611e+07,-30457.7,0.0211887,0.185055,0,0.186264,26663.7,-2378.86,0,26769.6,30457.7
step02_gravity_refstate-crust.xmf,1261,-1.52085e-06,5.74263e-07,0,-1.25075e-08,-144590,-865.586,-40260,-858.016,0.0243212,0.18299,0,0.184599,28058.3,0,0,28058.3,858.016
step02_gravity_refstate-crust.xmf,1262,-1.2655e-06,3.67008e-06,0,-4.54998e-06,-8.12033e+08,-8.11694e+08,-8.11946e+08,-312129,0.0324307,0.189874,0,0.192623,14237.6,-29563.4,0,32813.2,312129
step02_gravity_refstate-crust.xmf,1263,-2.12689e-07,1.71924e-06,0,-2.73006e-06,-4.81485e+08,-4.81352e+08,-4.8147e+08,-187282,0.0201664,0.201513,0,0.20252,17206.3,-17530.7,0,24563.9,187282
step02_gravity_refstate-crust.xmf,1264,-1.81618e-07,1.24146e-06,0,-2.03873e-06,-3.31082e+08,-3.30985e+08,-3.3107e+08,-139857,0.0173237,0.200971,0,0.201716,19216.5,-12054.6,0,22684.5,139857
step02_gravity_refstate-crust.xmf,1265,-2.26457e-07,1.47489e-06,0,-2.2847e-06,-3.89036e+08,-3.88919e+08,-3.89021e+08,-156730,0.0179302,0.199674,0,0.200477,18832.3,-14164.6,0,23564.6,156730
step02_gravity_refstate-crust.xmf,1266,-2.75217e-07,1.70917e-06,0,-2.53451e-06,-4.47286e+08,-4.4715e+08,-4.47267e+08,-173867,0.0190816,0.198548,0,0.199463,18314.6,-16285.4,0,24507.9,173867
step02_gravity_refstate-crust.xmf,1267,-4.50068e-07,1.13505e-06,0,-1.55042e-06,-2.54022e+08,-2.53913e+08,-2.53991e+08,-106359,0.016609,0.191274,0,0.191994,22726,-9247.85,0,24535.6,106359
step02_gravity_refstate-crust.xmf,1268,-7.52093e-07,7.5344e-07,0,-8.50764e-07,-1.30579e+08,-1.30475e+08,-1.30527e+08,-58362.4,0.0187656,0.187178,0,0.188117,25321.2,-4751.97,0,25763.3,58362.4
step02_gravity_refstate-crust.xmf,1269,-5.60076e-07,9.40464e-07,0,-1.22919e-06,-1.95253e+08,-1.9515e+08,-1.95214e+08,-84322.6,0.0172206,0.189248,0,0.19003,23998.5,-7107.56,0,25028.9,84322.6
step02_gravity_refstate-crust.xmf,1270,-1.35355e-06,7.33293e-07,0,-3.63239e-07,-6.53053e+07,-6.51621e+07,-6.52124e+07,-24918.2,0.0179339,0.178447,0,0.179346,29379.7,-2373.16,0,29475.4,24918.2
step02_gravity_refstate-crust.xmf,1271,-1.84886e-06,6.96659e-07,0,-1.48862e-08,-175837,-1214.54,-49005.4,-1021.19,0.0195183,0.177017,0,0.178089,30911.6,0,0,30911.6,1021.19
step02_gravity_refstate-crust.xmf,1272,-2.83657e-07,1.91708e-06,0,-2.91549e-06,-5.24052e+08,-5.23901e+08,-5.24032e+08,-200002,0.021423,0.199805,0,0.20095,16979.4,-19080.5,0,25541.4,200002
step02_gravity_refstate-crust.xmf,1273,-3.68193e-07,2.12795e-06,0,-3.1255e-06,-5.69299e+08,-5.69128e+08,-5.69274e+08,-214409,0.0229371,0.198129,0,0.199452,16662.2,-20727.7,0,26594.5,214409
step02_gravity_refstate-crust.xmf,1274,-4.65743e-07,2.34408e-06,0,-3.33531e-06,-6.12183e+08,-6.11991e+08,-6.12151e+08,-228802,0.0244953,0.196474,0,0.197995,16333.5,-22288.9,0,27632.9,228802
step02_gravity_refstate-crust.xmf,1275,-5.95841e-07,2.59955e-06,0,-3.55021e-06,-6.55503e+08,-6.55284e+08,-6.55462e+08,-243544,0.026119,0.194381,0,0.196128,16033.1,-23865.8,0,28751.3,243544
step02_gravity_refstate-crust.xmf,1276,-7.54156e-07,2.88516e-06,0,-3.76669e-06,-6.97906e+08,-6.97656e+08,-6.97854e+08,-258395,0.0277218,0.192111,0,0.194101,15730.2,-25409.4,0,29884.3,258395
step02_gravity_refstate-crust.xmf,1277,-1.19931e-06,3.62257e-06,0,-4.21791e-06,-7.8524e+08,-7.84909e+08,-7.85157e+08,-289349,0.0308267,0.186762,0,0.189289,15054.5,-28588.2,0,32309.8,289349
step02_gravity_refstate-crust.xmf,1278,-9.50876e-07,3.21851e-06,0,-3.98119e-06,-7.40126e+08,-7.3984e+08,-7.40061e+08,-273110,0.0292602,0.1895,0,0.191746,15433.2,-26946.2,0,31052.8,273110
step02_gravity_refstate-crust.xmf,1279,-1.53869e-06,4.19004e-06,0,-4.26419e-06,-8.25875e+08,-8.25482e+08,-8.25769e+08,-292524,0.0313655,0.180176,0,0.182886,15160.2,-30067.1,0,33672.8,292524
step02_gravity_refstate-crust.xmf,1280,-1.81555e-06,4.65592e-06,0,-4.33967e-06,-8.60919e+08,-8.60475e+08,-8.60795e+08,-297701,0.0318072,0.17595,0,0.178802,14997.2,-31342.5,0,34745.8,297701
step02_gravity_refstate-crust.xmf,1281,-2.09581e-06,5.13257e-06,0,-4.39632e-06,-8.94396e+08,-8.939e+08,-8.94252e+08,-301588,0.0319902,0.172039,0,0.174988,14771.9,-32560.8,0,35755,301588
step02_gravity_refstate-crust.xmf,1282,-2.36593e-06,5.59729e-06,0,-4.43902e-06,-9.25519e+08,-9.24973e+08,-9.25357e+08,-304517,0.0319291,0.168622,0,0.171618,14493.9,-33693.5,0,36678.7,304517
step02_gravity_refstate-crust.xmf,1283,-3.35252e-06,8.16635e-06,0,-3.72992e-06,-1.0689e+09,-1.06811e+09,-1.06867e+09,-255872,0.0232341,0.143023,0,0.144897,13540.8,-38913.4,0,41202,255872
step02_gravity_refstate-crust.xmf,1284,-3.22873e-06,7.58045e-06,0,-4.01054e-06,-1.03646e+09,-1.03572e+09,-1.03624e+09,-275123,0.0266306,0.150004,0,0.15235,13745.7,-37732.2,0,40158,275123
step02_gravity_refstate-crust.xmf,1285,-3.02213e-06,7.01174e-06,0,-4.14964e-06,-1.00502e+09,-1.00433e+09,-1.00481e+09,-284665,0.0286869,0.154836,0,0.157471,14067.1,-36587.3,0,39198.4,284665
step02_gravity_refstate-crust.xmf,1286,-2.57384e-06,5.92581e-06,0,-4.53118e-06,-9.49204e+08,-9.48621e+08,-9.49028e+08,-310839,0.0319439,0.167126,0,0.170151,14146.3,-34555.5,0,37339,310839
step02_gravity_refstate-crust.xmf,1287,-2.792e-06,6.4466e-06,0,-4.31088e-06,-9.74273e+08,-9.73639e+08,-9.74081e+08,-295726,0.0304048,0.160506,0,0.163361,14242.2,-35468.1,0,38220.7,295726
step02_gravity_refstate-crust.xmf,1288,-3.56534e-07,1.28378e-06,0,-1.82635e-06,-3.04054e+08,-3.03941e+08,-3.04029e+08,-125288,0.0167367,0.194082,0,0.194802,21332,-11069.9,0,24033.2,125288
step02_gravity_refstate-crust.xmf,1289,-4.14222e-07,2.02878e-06,0,-2.72349e-06,-5.02813e+08,-5.02645e+08,-5.02784e+08,-186832,0.0203291,0.194187,0,0.195248,18443.7,-18306.9,0,25986.7,186832
step02_gravity_refstate-crust.xmf,1290,-1.0051e-06,8.63505e-07,0,-7.25417e-07,-1.31453e+08,-1.31325e+08,-1.31384e+08,-49763.6,0.0163827,0.179834,0,0.180579,27985.5,-4782.95,0,28391.3,49763.6
step02_gravity_refstate-crust.xmf,1291,-1.53203e-06,8.57673e-07,0,-3.11151e-07,-7.77905e+07,-7.76265e+07,-7.76854e+07,-21344.9,0.0130525,0.172301,0,0.172795,32351.6,-2827.17,0,32474.9,21344.9
step02_gravity_refstate-crust.xmf,1292,-3.94281e-07,1.57439e-06,0,-2.09283e-06,-3.69743e+08,-3.69608e+08,-3.69716e+08,-143568,0.0170942,0.192535,0,0.193292,20845.9,-13461.7,0,24814.7,143568
step02_gravity_refstate-crust.xmf,1293,-4.51214e-07,1.84321e-06,0,-2.31237e-06,-4.26834e+08,-4.26677e+08,-4.26803e+08,-158628,0.0179438,0.19075,0,0.191592,20414.6,-15540.4,0,25656.5,158628
step02_gravity_refstate-crust.xmf,1294,-5.35211e-07,2.12408e-06,0,-2.50029e-06,-4.80489e+08,-4.80306e+08,-4.80452e+08,-171520,0.0190322,0.188166,0,0.189126,20118.6,-17493.8,0,26660.7,171520
step02_gravity_refstate-crust.xmf,1295,-5.34065e-07,1.41232e-06,0,-1.67485e-06,-3.01994e+08,-3.01861e+08,-3.01957e+08,-114895,0.0158221,0.186696,0,0.187366,23401.9,-10994.4,0,25855.9,114895
step02_gravity_refstate-crust.xmf,1296,-6.52582e-07,1.31232e-06,0,-1.41695e-06,-2.63736e+08,-2.63601e+08,-2.63691e+08,-97202.8,0.0151271,0.182692,0,0.183317,25169.9,-9600.96,0,26938.9,97202.8
step02_gravity_refstate-crust.xmf,1297,-7.94881e-07,1.05554e-06,0,-1.0687e-06,-1.94639e+08,-1.94512e+08,-1.94584e+08,-73312.8,0.0154939,0.181408,0,0.182069,26582.9,-7084.44,0,27510.7,73312.8
step02_gravity_refstate-crust.xmf,1298,-1.20677e-06,9.4062e-07,0,-5.74834e-07,-1.28393e+08,-1.28245e+08,-1.2831e+08,-39433.6,0.013878,0.174415,0,0.174967,30358,-4670.84,0,30715.2,39433.6
step02_gravity_refstate-crust.xmf,1299,-2.10303e-06,7.96463e-07,0,-9.89654e-09,-199839,-933.595,-55571,-678.903,0.0137342,0.172393,0,0.172939,33847.7,0,0,33847.7,678.903
step02_gravity_refstate-crust.xmf,1300,-5.20612e-07,2.30501e-06,0,-2.90887e-06,-5.51901e+08,-5.51707e+08,-5.51866e+08,-199548,0.0217308,0.191506,0,0.192735,18202.6,-20094,0,27112.7,199548
step02_gravity_refstate-crust.xmf,1301,-9.06286e-07,3.13149e-06,0,-3.44996e-06,-6.84084e+08,-6.83807e+08,-6.84022e+08,-236667,0.0260931,0.18415,0,0.18599,17206.7,-24906,0,30271.7,236667
step02_gravity_refstate-crust.xmf,1302,-6.29865e-07,2.56196e-06,0,-3.09215e-06,-5.97197e+08,-5.96978e+08,-5.97154e+08,-212121,0.023179,0.189181,0,0.190596,17882.9,-21743,0,28152.3,212121
step02_gravity_refstate-crust.xmf,1303,-7.55962e-07,2.83311e-06,0,-3.27328e-06,-6.41074e+08,-6.40828e+08,-6.41023e+08,-224547,0.0246509,0.186781,0,0.188401,17544.2,-23340.3,0,29198.8,224547
step02_gravity_refstate-crust.xmf,1304,-1.08413e-06,3.46315e-06,0,-3.61816e-06,-7.26304e+08,-7.25992e+08,-7.2623e+08,-248205,0.0274434,0.181243,0,0.183309,16873.2,-26442.8,0,31367.6,248205
step02_gravity_refstate-crust.xmf,1305,-1.29272e-06,3.83719e-06,0,-3.77567e-06,-7.68226e+08,-7.67875e+08,-7.68138e+08,-259011,0.0286538,0.178033,0,0.180324,16533.8,-27968.8,0,32490.3,259011
step02_gravity_refstate-crust.xmf,1306,-1.54411e-06,4.28342e-06,0,-3.86958e-06,-8.09149e+08,-8.0875e+08,-8.09043e+08,-265453,0.0294283,0.173547,0,0.176025,16325,-29458.3,0,33679.3,265453
step02_gravity_refstate-crust.xmf,1307,-1.81271e-06,4.76967e-06,0,-3.90462e-06,-8.48101e+08,-8.4765e+08,-8.47977e+08,-267857,0.0297275,0.168377,0,0.170981,16168.6,-30876,0,34853.3,267857
step02_gravity_refstate-crust.xmf,1308,-2.06498e-06,5.24133e-06,0,-3.91212e-06,-8.83555e+08,-8.83054e+08,-8.83413e+08,-268371,0.0296991,0.16363,0,0.166303,15962.7,-32166.5,0,35909.5,268371
step02_gravity_refstate-crust.xmf,1309,-2.58927e-06,6.27116e-06,0,-3.88378e-06,-9.54923e+08,-9.54315e+08,-9.54745e+08,-266427,0.0287418,0.154824,0,0.157469,15278.2,-34764.2,0,37973.3,266427
step02_gravity_refstate-crust.xmf,1310,-2.32388e-06,5.74787e-06,0,-3.88387e-06,-9.19107e+08,-9.18553e+08,-9.18947e+08,-266433,0.0292752,0.158666,0,0.161344,15716,-33460.5,0,36967.5,266433
step02_gravity_refstate-crust.xmf,1311,-3.08136e-06,7.83224e-06,0,-3.30609e-06,-1.0511e+09,-1.05035e+09,-1.05089e+09,-226798,0.0221171,0.136586,0,0.138365,14624.9,-38266,0,40965.6,226798
step02_gravity_refstate-crust.xmf,1312,-2.96853e-06,7.39214e-06,0,-3.44609e-06,-1.02393e+09,-1.02322e+09,-1.02372e+09,-236402,0.0242397,0.140837,0,0.142908,14952.9,-37276.5,0,40163.7,236402
step02_gravity_refstate-crust.xmf,1313,-2.80972e-06,6.88859e-06,0,-3.61271e-06,-9.92482e+08,-9.91816e+08,-9.92289e+08,-247832,0.026323,0.146262,0,0.148612,15235.7,-36131.6,0,39212.5,247832
step02_gravity_refstate-crust.xmf,1314,-6.40955e-07,2.41519e-06,0,-2.67832e-06,-5.32736e+08,-5.32526e+08,-5.32692e+08,-183733,0.0203093,0.18519,0,0.1863,19828.4,-19395.9,0,27737.5,183733
step02_gravity_refstate-crust.xmf,1315,-5.43815e-07,1.64611e-06,0,-1.89053e-06,-3.54071e+08,-3.53921e+08,-3.54034e+08,-129690,0.0160666,0.18578,0,0.186474,22850.9,-12890.7,0,26236.1,129690
step02_gravity_refstate-crust.xmf,1316,-1.00694e-06,1.21871e-06,0,-8.84551e-07,-2.07256e+08,-2.07103e+08,-2.07187e+08,-60680.2,0.0123742,0.172733,0,0.173176,29723.5,-7543.17,0,30665.7,60680.2
step02_gravity_refstate-crust.xmf,1317,-1.24314e-06,1.09288e-06,0,-5.53699e-07,-1.60168e+08,-1.60008e+08,-1.60083e+08,-37983.8,0.0105106,0.169392,0,0.169718,32349.8,-5827.74,0,32870.5,37983.8
step02_gravity_refstate-crust.xmf,1318,-1.76148e-06,8.96111e-07,0,-1.70367e-07,-6.59802e+07,-6.57979e+07,-6.58593e+07,-11687.1,0.00842488,0.168592,0,0.168803,35386.6,-2396.34,0,35467.6,11687.1
step02_gravity_refstate-crust.xmf,1319,-2.25649e-06,8.55509e-07,0,-4.57768e-09,-214382,-898.694,-59586.6,-314.029,0.00714018,0.16942,0,0.169571,36874.5,0,0,36874.5,314.029
step02_gravity_refstate-crust.xmf,1320,-3.0912e-06,8.24455e-06,0,-3.02891e-06,-1.0781e+09,-1.07732e+09,-1.07789e+09,-207783,0.0187755,0.129845,0,0.131195,14511.7,-39249.6,0,41846.4,207783
step02_gravity_refstate-crust.xmf,1321,-5.86273e-07,1.9197e-06,0,-2.08845e-06,-4.08834e+08,-4.08662e+08,-4.08793e+08,-143268,0.0166921,0.183982,0,0.184738,22388.8,-14884.6,0,26885.1,143268
step02_gravity_refstate-crust.xmf,1322,-6.57463e-07,2.21437e-06,0,-2.26781e-06,-4.63561e+08,-4.63364e+08,-4.63516e+08,-155572,0.017622,0.18147,0,0.182324,21990.4,-16877.2,0,27720.3,155572
step02_gravity_refstate-crust.xmf,1323,-7.41761e-07,2.5071e-06,0,-2.43149e-06,-5.15205e+08,-5.14982e+08,-5.15154e+08,-166800,0.0187593,0.178857,0,0.179838,21563.5,-18757.4,0,28580.2,166800
step02_gravity_refstate-crust.xmf,1324,-6.72008e-07,1.66555e-06,0,-1.64962e-06,-3.34088e+08,-3.33928e+08,-3.34042e+08,-113164,0.0147888,0.179668,0,0.180275,24930.8,-12162.7,0,27739.4,113164
step02_gravity_refstate-crust.xmf,1325,-8.24806e-07,1.35079e-06,0,-1.18166e-06,-2.51034e+08,-2.50885e+08,-2.50978e+08,-81062.1,0.0135497,0.176215,0,0.176735,27550.6,-9137.91,0,29026.5,81062.1
step02_gravity_refstate-crust.xmf,1326,-1.45081e-06,1.02087e-06,0,-3.43038e-07,-1.2522e+08,-1.2505e+08,-1.2512e+08,-23532.4,0.00861397,0.167699,0,0.16792,34366.2,-4554.46,0,34666.7,23532.4
step02_gravity_refstate-crust.xmf,1327,-1.86576e-06,9.22287e-07,0,-6.77465e-08,-6.08369e+07,-6.06456e+07,-6.07089e+07,-4647.41,0.00415952,0.16694,0,0.166992,37791.1,-2208.71,0,37855.6,4647.41
step02_gravity_refstate-crust.xmf,1328,-2.27219e-06,8.58387e-07,0,8.0232e-09,-216004,-1246.4,-60131.7,550.391,3.08058e-19,0.168371,0,0.168371,40000,0,0,40000,550.391
step02_gravity_refstate-crust.xmf,1329,-7.52528e-07,2.71267e-06,0,-2.83728e-06,-5.81002e+08,-5.80764e+08,-5.8095e+08,-194637,0.0216467,0.182328,0,0.183608,19493.9,-21153.1,0,28765.7,194637
step02_gravity_refstate-crust.xmf,1330,-1.17383e-06,3.63964e-06,0,-3.27305e-06,-7.13149e+08,-7.12819e+08,-7.13068e+08,-224532,0.0255144,0.173509,0,0.175375,18356.4,-25963.8,0,31797.4,224532
step02_gravity_refstate-crust.xmf,1331,-1.01145e-06,3.30508e-06,0,-3.14516e-06,-6.70486e+08,-6.7019e+08,-6.70416e+08,-215758,0.0243415,0.176831,0,0.178498,18703.2,-24410.7,0,30752.2,215758
step02_gravity_refstate-crust.xmf,1332,-8.78537e-07,3.01139e-06,0,-2.99202e-06,-6.27202e+08,-6.26935e+08,-6.27141e+08,-205252,0.0230045,0.179428,0,0.180897,19129.1,-22835,0,29788.6,205252
step02_gravity_refstate-crust.xmf,1333,-1.35281e-06,3.99285e-06,0,-3.39088e-06,-7.54344e+08,-7.53978e+08,-7.54252e+08,-232614,0.0265526,0.17017,0,0.172229,17981.3,-27463.4,0,32826.3,232614
step02_gravity_refstate-crust.xmf,1334,-1.55207e-06,4.37707e-06,0,-3.48106e-06,-7.9421e+08,-7.93804e+08,-7.94104e+08,-238800,0.0273328,0.166452,0,0.168681,17633.3,-28914.5,0,33867.1,238800
step02_gravity_refstate-crust.xmf,1335,-1.77356e-06,4.81219e-06,0,-3.5067e-06,-8.33237e+08,-8.32785e+08,-8.33115e+08,-240560,0.0276243,0.161605,0,0.163949,17399.7,-30335.1,0,34970.9,240560
step02_gravity_refstate-crust.xmf,1336,-1.99842e-06,5.27308e-06,0,-3.4818e-06,-8.71057e+08,-8.70558e+08,-8.7092e+08,-238851,0.02746,0.156231,0,0.158626,17192,-31711.8,0,36072.2,238851
step02_gravity_refstate-crust.xmf,1337,-2.21461e-06,5.74336e-06,0,-3.42177e-06,-9.07506e+08,-9.06961e+08,-9.07355e+08,-234733,0.0268954,0.150798,0,0.153177,16953.1,-33038.6,0,37134.3,234733
step02_gravity_refstate-crust.xmf,1338,-2.42032e-06,6.23234e-06,0,-3.32474e-06,-9.43684e+08,-9.4309e+08,-9.43518e+08,-228077,0.0258701,0.145187,0,0.147474,16673.9,-34355.6,0,38188,228077
step02_gravity_refstate-crust.xmf,1339,-2.84215e-06,8.05948e-06,0,-2.59137e-06,-1.0731e+09,-1.07236e+09,-1.07291e+09,-177768,0.0165677,0.121824,0,0.122946,15499.3,-39068.4,0,42030.6,177768
step02_gravity_refstate-crust.xmf,1340,-2.80533e-06,7.6562e-06,0,-2.76833e-06,-1.04453e+09,-1.04382e+09,-1.04434e+09,-189907,0.0193339,0.126868,0,0.128332,15845.5,-38027.8,0,41197.1,189907
step02_gravity_refstate-crust.xmf,1341,-2.72115e-06,7.22103e-06,0,-2.94444e-06,-1.01391e+09,-1.01323e+09,-1.01372e+09,-201988,0.0217564,0.132167,0,0.133946,16185,-36912.5,0,40304.9,201988
step02_gravity_refstate-crust.xmf,1342,-2.59654e-06,6.74018e-06,0,-3.15162e-06,-9.79849e+08,-9.79209e+08,-9.79671e+08,-216201,0.0240881,0.13868,0,0.140757,16432.8,-35672.3,0,39275.3,216201
step02_gravity_refstate-crust.xmf,1343,-8.47341e-07,2.80669e-06,0,-2.58213e-06,-5.65047e+08,-5.64796e+08,-5.64989e+08,-177134,0.0199745,0.17582,0,0.176951,21169.7,-20572,0,29518.9,177134
step02_gravity_refstate-crust.xmf,1344,-7.0594e-07,1.96358e-06,0,-1.84856e-06,-3.92221e+08,-3.92038e+08,-3.92173e+08,-126811,0.0152369,0.177505,0,0.178158,24444.7,-14279.4,0,28309.8,126811
step02_gravity_refstate-crust.xmf,1345,-7.90168e-07,1.6407e-06,0,-1.39298e-06,-3.11501e+08,-3.11334e+08,-3.11446e+08,-95558.2,0.0133248,0.174359,0,0.174868,27049.8,-11339.8,0,29330.6,95558.2
step02_gravity_refstate-crust.xmf,1346,-9.06043e-07,1.59002e-06,0,-1.13335e-06,-2.88434e+08,-2.88262e+08,-2.88372e+08,-77747.6,0.0116765,0.169857,0,0.170258,29198.4,-10499.5,0,31028.8,77747.6
step02_gravity_refstate-crust.xmf,1347,-1.11195e-06,1.39762e-06,0,-6.91064e-07,-2.32338e+08,-2.32166e+08,-2.32261e+08,-47407,0.00886909,0.165613,0,0.165851,32639.9,-8456.15,0,33717.5,47407
step02_gravity_refstate-crust.xmf,1348,-1.26583e-06,1.2584e-06,0,-4.42569e-07,-1.91717e+08,-1.91543e+08,-1.9163e+08,-30360.3,0.00697671,0.164511,0,0.164659,34706.7,-6976.46,0,35401,30360.3
step02_gravity_refstate-crust.xmf,1349,-1.5138e-06,1.06812e-06,0,-1.8572e-07,-1.31237e+08,-1.3106e+08,-1.31133e+08,-12740.4,0.00446302,0.164796,0,0.164856,37094.8,-4773.34,0,37400.6,12740.4
step02_gravity_refstate-crust.xmf,1350,-1.73405e-06,9.68665e-07,0,4.42459e-09,-8.752e+07,-8.73346e+07,-8.74011e+07,303.527,3.2019e-19,0.165462,0,0.165462,40000,-3180.74,0,40126.3,303.527
step02_gravity_refstate-crust.xmf,1351,-9.1156e-07,2.86991e-06,0,-2.32396e-06,-5.50019e+08,-5.49759e+08,-5.49956e+08,-159423,0.0182485,0.169881,0,0.170858,22853.5,-20024.7,0,30385.4,159423
step02_gravity_refstate-crust.xmf,1352,-7.66422e-07,2.28945e-06,0,-2.02175e-06,-4.50436e+08,-4.50226e+08,-4.50383e+08,-138692,0.0160393,0.174696,0,0.175431,23980.7,-16399,0,29051.7,138692
step02_gravity_refstate-crust.xmf,1353,-8.30487e-07,2.56647e-06,0,-2.17581e-06,-4.99625e+08,-4.99392e+08,-4.99568e+08,-149260,0.0170439,0.17244,0,0.17328,23441.4,-18190,0,29671.1,149260
step02_gravity_refstate-crust.xmf,1354,-8.08391e-07,1.98289e-06,0,-1.58438e-06,-3.75811e+08,-3.7562e+08,-3.75756e+08,-108688,0.0135495,0.171492,0,0.172026,26600.5,-13681.6,0,29912.7,108688
step02_gravity_refstate-crust.xmf,1355,-1.00762e-06,1.56734e-06,0,-9.08168e-07,-2.73132e+08,-2.72955e+08,-2.73063e+08,-62300.4,0.00994772,0.166227,0,0.166525,31163.7,-9942,0,32711.1,62300.4
step02_gravity_refstate-crust.xmf,1356,-9.65397e-07,3.1316e-06,0,-2.70514e-06,-6.12809e+08,-6.12528e+08,-6.12743e+08,-185573,0.0211721,0.172422,0,0.173718,20803.1,-22310.9,0,30504.8,185573
step02_gravity_refstate-crust.xmf,1357,-1.37944e-06,4.09182e-06,0,-3.04043e-06,-7.41467e+08,-7.41092e+08,-7.41372e+08,-208573,0.0244409,0.162973,0,0.164796,19447.5,-26994.6,0,33270.3,208573
step02_gravity_refstate-crust.xmf,1358,-1.22452e-06,3.75067e-06,0,-2.95244e-06,-7.00123e+08,-6.99782e+08,-7.00039e+08,-202537,0.0235353,0.166524,0,0.168179,19853.2,-25489.5,0,32308.9,202537
step02_gravity_refstate-crust.xmf,1359,-1.09097e-06,3.44154e-06,0,-2.82592e-06,-6.57256e+08,-6.56945e+08,-6.57181e+08,-193858,0.0223459,0.169293,0,0.170762,20375.7,-23929,0,31428.7,193858
step02_gravity_refstate-crust.xmf,1360,-1.54634e-06,4.44911e-06,0,-3.10571e-06,-7.80957e+08,-7.80546e+08,-7.80851e+08,-213052,0.0251161,0.159225,0,0.161194,19057.8,-28432.2,0,34228.5,213052
step02_gravity_refstate-crust.xmf,1361,-1.72673e-06,4.83926e-06,0,-3.12495e-06,-8.19691e+08,-8.19241e+08,-8.19573e+08,-214371,0.0254062,0.154722,0,0.156794,18742,-29842.2,0,35239.5,214371
step02_gravity_refstate-crust.xmf,1362,-1.91109e-06,5.25612e-06,0,-3.0928e-06,-8.57663e+08,-8.57171e+08,-8.57532e+08,-212166,0.0252372,0.149496,0,0.151611,18484.1,-31224.5,0,36285.4,212166
step02_gravity_refstate-crust.xmf,1363,-2.08985e-06,5.68911e-06,0,-3.01982e-06,-8.94912e+08,-8.94379e+08,-8.94769e+08,-207159,0.0246349,0.143907,0,0.146001,18224.3,-32580.5,0,37331.2,207159
step02_gravity_refstate-crust.xmf,1364,-2.2538e-06,6.13917e-06,0,-2.89722e-06,-9.32051e+08,-9.31475e+08,-9.31896e+08,-198749,0.0234922,0.137788,0,0.139777,17966.9,-33932.6,0,38395.8,198749
step02_gravity_refstate-crust.xmf,1365,-2.38968e-06,6.59121e-06,0,-2.73122e-06,-9.68657e+08,-9.68041e+08,-9.68493e+08,-187362,0.0217836,0.131332,0,0.133127,17696.2,-35265.5,0,39456.4,187362
step02_gravity_refstate-crust.xmf,1366,-2.55161e-06,7.85626e-06,0,-2.12156e-06,-1.07007e+09,-1.06936e+09,-1.0699e+09,-145539,0.0137987,0.112596,0,0.113439,16681.4,-38958.8,0,42380,145539
step02_gravity_refstate-crust.xmf,1367,-2.5273e-06,7.45721e-06,0,-2.29244e-06,-1.03839e+09,-1.03771e+09,-1.03822e+09,-157261,0.0166328,0.11786,0,0.119028,17131,-37805,0,41505.3,157261
step02_gravity_refstate-crust.xmf,1368,-2.47897e-06,7.03176e-06,0,-2.51275e-06,-1.00408e+09,-1.00342e+09,-1.00391e+09,-172375,0.0193966,0.124359,0,0.125863,17459.6,-36555.3,0,40510.8,172375
step02_gravity_refstate-crust.xmf,1369,-1.0271e-06,3.19813e-06,0,-2.43066e-06,-5.99366e+08,-5.99076e+08,-5.99296e+08,-166743,0.0192696,0.165948,0,0.167064,22507.8,-21821.3,0,31349.2,166743
step02_gravity_refstate-crust.xmf,1370,-8.58863e-07,2.32546e-06,0,-1.75217e-06,-4.36621e+08,-4.36403e+08,-4.36562e+08,-120199,0.0141926,0.168293,0,0.16889,26115.8,-15895.8,0,30573.1,120199
step02_gravity_refstate-crust.xmf,1371,-8.96115e-07,1.94947e-06,0,-1.30665e-06,-3.55697e+08,-3.55502e+08,-3.55635e+08,-89636.1,0.0116814,0.166567,0,0.166976,28797,-12948.9,0,31574.4,89636.1
step02_gravity_refstate-crust.xmf,1372,-9.75975e-07,1.86646e-06,0,-1.03746e-06,-3.31327e+08,-3.31132e+08,-3.3126e+08,-71170,0.00978508,0.163135,0,0.163428,30909,-12061.2,0,33178.9,71170
step02_gravity_refstate-crust.xmf,1373,-1.05139e-06,1.74868e-06,0,-7.76889e-07,-3.02181e+08,-3.01989e+08,-3.02109e+08,-53294.6,0.00791112,0.161132,0,0.161326,32919.9,-10999.7,0,34709,53294.6
step02_gravity_refstate-crust.xmf,1374,-1.1457e-06,1.57613e-06,0,-5.05159e-07,-2.6232e+08,-2.62133e+08,-2.62242e+08,-34653.9,0.00584499,0.160441,0,0.160547,35055.6,-9547.83,0,36332.6,34653.9
step02_gravity_refstate-crust.xmf,1375,-1.26952e-06,1.38184e-06,0,-2.34968e-07,-2.15506e+08,-2.15324e+08,-2.15419e+08,-16118.8,0.00331999,0.160828,0,0.160863,37412.8,-7842.72,0,38225.9,16118.8
step02_gravity_refstate-crust.xmf,1376,-1.39684e-06,1.216e-06,0,1.63963e-09,-1.71888e+08,-1.71708e+08,-1.71792e+08,112.478,2.36024e-19,0.162102,0,0.162102,40000,-6253.97,0,40485.9,112.478
step02_gravity_refstate-crust.xmf,1377,-1.52469e-06,4.4904e-06,0,-2.77034e-06,-7.69942e+08,-7.6953e+08,-7.69838e+08,-190045,0.022962,0.152542,0,0.15426,20481.1,-28031.3,0,34716.4,190045
step02_gravity_refstate-crust.xmf,1378,-1.04723e-06,3.2075e-06,0,-2.17068e-06,-5.83207e+08,-5.82915e+08,-5.83135e+08,-148909,0.0174208,0.160974,0,0.161914,24112.1,-21233,0,32128.4,148909
step02_gravity_refstate-crust.xmf,1379,-9.49933e-07,2.87794e-06,0,-2.10771e-06,-5.35535e+08,-5.35273e+08,-5.3547e+08,-144589,0.0167169,0.165488,0,0.16633,24301.8,-19497.3,0,31156.4,144589
step02_gravity_refstate-crust.xmf,1380,-9.33273e-07,2.72279e-06,0,-1.91095e-06,-5.01749e+08,-5.01499e+08,-5.01685e+08,-131091,0.0152463,0.164434,0,0.165139,25503.2,-18267.1,0,31370.4,131091
step02_gravity_refstate-crust.xmf,1381,-9.23529e-07,2.30871e-06,0,-1.45787e-06,-4.18689e+08,-4.18467e+08,-4.18626e+08,-100010,0.0121449,0.162989,0,0.163441,28326.6,-15242.6,0,32167.2,100010
step02_gravity_refstate-crust.xmf,1382,-1.1424e-06,3.53899e-06,0,-2.51363e-06,-6.46168e+08,-6.45847e+08,-6.4609e+08,-172435,0.0202562,0.162015,0,0.163277,22118.5,-23525.3,0,32290.4,172435
step02_gravity_refstate-crust.xmf,1383,-1.38897e-06,4.1602e-06,0,-2.7205e-06,-7.31162e+08,-7.30782e+08,-7.31067e+08,-186626,0.0223454,0.156153,0,0.157744,20930.3,-26619.5,0,33862.6,186626
step02_gravity_refstate-crust.xmf,1384,-1.27109e-06,3.87843e-06,0,-2.59549e-06,-6.91792e+08,-6.91439e+08,-6.91705e+08,-178051,0.0212131,0.158146,0,0.159563,21652.6,-25186.2,0,33214.2,178051
step02_gravity_refstate-crust.xmf,1385,-1.67035e-06,4.84486e-06,0,-2.77451e-06,-8.0783e+08,-8.07383e+08,-8.07716e+08,-190332,0.0231877,0.148135,0,0.149939,20133.3,-29410.6,0,35641.8,190332
step02_gravity_refstate-crust.xmf,1386,-1.81722e-06,5.21685e-06,0,-2.74128e-06,-8.45103e+08,-8.4462e+08,-8.44978e+08,-188052,0.0230434,0.143213,0,0.145055,19821.1,-30767.5,0,36599.4,188052
step02_gravity_refstate-crust.xmf,1387,-1.95795e-06,5.60433e-06,0,-2.66431e-06,-8.81972e+08,-8.81453e+08,-8.81837e+08,-182771,0.0224557,0.137725,0,0.139543,19540.7,-32109.8,0,37588.3,182771
step02_gravity_refstate-crust.xmf,1388,-2.08619e-06,6.01629e-06,0,-2.53379e-06,-9.19876e+08,-9.1932e+08,-9.19733e+08,-173818,0.0212993,0.131412,0,0.133127,19279.1,-33489.9,0,38642.7,173818
step02_gravity_refstate-crust.xmf,1389,-2.18894e-06,6.42417e-06,0,-2.37253e-06,-9.5697e+08,-9.56379e+08,-9.5682e+08,-162756,0.0196684,0.124959,0,0.126498,18986.8,-34840.5,0,39678.2,162756
step02_gravity_refstate-crust.xmf,1390,-2.25471e-06,6.80484e-06,0,-2.19013e-06,-9.91917e+08,-9.91296e+08,-9.91763e+08,-150243,0.0176034,0.118595,0,0.119894,18683.9,-36113.2,0,40660.1,150243
step02_gravity_refstate-crust.xmf,1391,-2.24101e-06,7.62006e-06,0,-1.68538e-06,-1.06754e+09,-1.06687e+09,-1.06739e+09,-115617,0.0109795,0.103478,0,0.104059,17996.8,-38867.7,0,42832.1,115617
step02_gravity_refstate-crust.xmf,1392,-2.22541e-06,7.19792e-06,0,-1.86216e-06,-1.03003e+09,-1.02938e+09,-1.02988e+09,-127744,0.0140454,0.109368,0,0.110266,18613,-37501.4,0,41866.4,127744
step02_gravity_refstate-crust.xmf,1393,-1.16378e-06,3.55876e-06,0,-2.23e-06,-6.3315e+08,-6.32826e+08,-6.3307e+08,-152978,0.0181649,0.155979,0,0.157033,23836.4,-23051.2,0,33159.2,152978
step02_gravity_refstate-crust.xmf,1394,-1.05265e-06,3.15778e-06,0,-1.93097e-06,-5.63687e+08,-5.63398e+08,-5.63615e+08,-132465,0.015609,0.157205,0,0.157978,25674.7,-20522.2,0,32868.7,132465
step02_gravity_refstate-crust.xmf,1395,-9.83601e-07,2.68215e-06,0,-1.58976e-06,-4.80985e+08,-4.80734e+08,-4.80918e+08,-109057,0.0128573,0.158738,0,0.159258,27848.5,-17510.9,0,32896.3,109057
step02_gravity_refstate-crust.xmf,1396,-9.7765e-07,2.2387e-06,0,-1.16231e-06,-3.96737e+08,-3.96517e+08,-3.9667e+08,-79734.2,0.00999684,0.159053,0,0.159367,30554.3,-14443.1,0,33796,79734.2
step02_gravity_refstate-crust.xmf,1397,-1.03121e-06,2.1326e-06,0,-8.68259e-07,-3.7178e+08,-3.71563e+08,-3.71709e+08,-59562.5,0.00774722,0.15639,0,0.156581,32820.9,-13534.2,0,35501.9,59562.5
step02_gravity_refstate-crust.xmf,1398,-1.08338e-06,1.96906e-06,0,-5.68672e-07,-3.37732e+08,-3.37523e+08,-3.37658e+08,-39010.9,0.00539718,0.155486,0,0.155579,35129.5,-12294.1,0,37218.6,39010.9
step02_gravity_refstate-crust.xmf,1399,-1.1459e-06,1.76238e-06,0,-2.7117e-07,-2.95539e+08,-2.95339e+08,-2.9546e+08,-18602.3,0.00285201,0.156175,0,0.156201,37529.4,-10757.5,0,39040.7,18602.3
step02_gravity_refstate-crust.xmf,1400,-1.2113e-06,1.56139e-06,0,1.48633e-09,-2.53544e+08,-2.53354e+08,-2.53461e+08,101.963,2.00753e-19,0.157972,0,0.157972,40000,-9228.03,0,41050.7,101.963
step02_gravity_refstate-crust.xmf,1401,-1.50591e-06,4.51418e-06,0,-2.50038e-06,-7.62958e+08,-7.62545e+08,-7.62855e+08,-171526,0.0210753,0.146771,0,0.148276,21756.1,-27777.2,0,35283.1,171526
step02_gravity_refstate-crust.xmf,1402,-1.60685e-06,4.82878e-06,0,-2.46369e-06,-7.97443e+08,-7.97001e+08,-7.97333e+08,-169009,0.0210712,0.142181,0,0.143733,21515.6,-29032.7,0,36136.1,169009
step02_gravity_refstate-crust.xmf,1403,-1.15174e-06,3.53615e-06,0,-1.9599e-06,-6.17483e+08,-6.17161e+08,-6.17404e+08,-134449,0.0161519,0.151323,0,0.152182,25498.5,-22480.9,0,33993.6,134449
step02_gravity_refstate-crust.xmf,1404,-1.01001e-06,2.62663e-06,0,-1.28401e-06,-4.61719e+08,-4.6147e+08,-4.6165e+08,-88083.4,0.010596,0.15453,0,0.154893,30047.2,-16809.3,0,34429.4,88083.4
step02_gravity_refstate-crust.xmf,1405,-1.27303e-06,3.92603e-06,0,-2.26984e-06,-6.81529e+08,-6.81172e+08,-6.81441e+08,-155711,0.0188974,0.151141,0,0.152318,23437,-24812.7,0,34131.6,155711
step02_gravity_refstate-crust.xmf,1406,-1.40726e-06,4.32796e-06,0,-2.31179e-06,-7.33457e+08,-7.33064e+08,-7.33361e+08,-158589,0.0196322,0.145995,0,0.147309,22866.6,-26703.3,0,35156,158589
step02_gravity_refstate-crust.xmf,1407,-1.72124e-06,5.16462e-06,0,-2.42692e-06,-8.34276e+08,-8.33804e+08,-8.34158e+08,-166487,0.0209223,0.137378,0,0.138962,21169.6,-30373.7,0,37023.1,166487
step02_gravity_refstate-crust.xmf,1408,-1.82948e-06,5.51075e-06,0,-2.34955e-06,-8.70313e+08,-8.6981e+08,-8.70188e+08,-161179,0.0203528,0.132033,0,0.133592,20877.2,-31685.8,0,37945.3,161179
step02_gravity_refstate-crust.xmf,1409,-1.92074e-06,5.87556e-06,0,-2.2161e-06,-9.07506e+08,-9.06971e+08,-9.07374e+08,-152024,0.0192232,0.125749,0,0.127209,20632.4,-33040,0,38953,152024
step02_gravity_refstate-crust.xmf,1410,-1.99274e-06,6.24793e-06,0,-2.05434e-06,-9.45258e+08,-9.44693e+08,-9.45121e+08,-140928,0.0176377,0.119165,0,0.120463,20337.2,-34414.7,0,39974.6,140928
step02_gravity_refstate-crust.xmf,1411,-2.04358e-06,6.59732e-06,0,-1.89565e-06,-9.8044e+08,-9.79847e+08,-9.803e+08,-130042,0.0158188,0.113177,0,0.114277,19965.1,-35695.9,0,40899.9,130042
step02_gravity_refstate-crust.xmf,1412,-2.0782e-06,6.87679e-06,0,-1.77789e-06,-1.00771e+09,-1.00709e+09,-1.00756e+09,-121963,0.0142213,0.108853,0,0.109778,19579.6,-36688.8,0,41586.4,121963
step02_gravity_refstate-crust.xmf,1413,-1.93379e-06,7.37296e-06,0,-1.31229e-06,-1.06587e+09,-1.06524e+09,-1.06574e+09,-90023.2,0.00834857,0.0951297,0,0.0954953,19356.1,-38807.8,0,43367.1,90023.2
step02_gravity_refstate-crust.xmf,1414,-1.25448e-06,3.89355e-06,0,-1.9807e-06,-6.67946e+08,-6.67593e+08,-6.6786e+08,-135876,0.0166316,0.145586,0,0.146533,25219.3,-24318.2,0,35034.1,135876
step02_gravity_refstate-crust.xmf,1415,-1.05544e-06,3.08822e-06,0,-1.66319e-06,-5.43023e+08,-5.42738e+08,-5.4295e+08,-114095,0.0135405,0.153279,0,0.153876,27510.4,-19769.8,0,33877.2,114095
step02_gravity_refstate-crust.xmf,1416,-1.13794e-06,3.48059e-06,0,-1.6955e-06,-6.01025e+08,-6.00708e+08,-6.00947e+08,-116312,0.0140638,0.147151,0,0.147821,27266.4,-21881.7,0,34960.9,116312
step02_gravity_refstate-crust.xmf,1417,-1.06772e-06,3.01545e-06,0,-1.37378e-06,-5.24343e+08,-5.24063e+08,-5.2427e+08,-94241.2,0.0112396,0.149231,0,0.149653,29609.7,-19089.6,0,35229.9,94241.2
step02_gravity_refstate-crust.xmf,1418,-1.03752e-06,2.53576e-06,0,-9.6906e-07,-4.40161e+08,-4.39916e+08,-4.4009e+08,-66477.5,0.00815404,0.151366,0,0.151585,32397.6,-16024.2,0,36143.9,66477.5
step02_gravity_refstate-crust.xmf,1419,-1.07103e-06,2.43779e-06,0,-6.1778e-07,-4.19041e+08,-4.188e+08,-4.18968e+08,-42379.7,0.0052965,0.148991,0,0.149085,35110.1,-15255,0,38281,42379.7
step02_gravity_refstate-crust.xmf,1420,-1.09621e-06,2.17439e-06,0,-2.94725e-07,-3.71427e+08,-3.71202e+08,-3.71351e+08,-20218.1,0.002666,0.150705,0,0.150728,37578.6,-13521.1,0,39937.1,20218.1
step02_gravity_refstate-crust.xmf,1421,-1.12303e-06,1.96504e-06,0,9.00188e-10,-3.32709e+08,-3.32497e+08,-3.32632e+08,61.7529,1.86166e-19,0.152889,0,0.152889,40000,-12111.1,0,41793.3,61.7529
step02_gravity_refstate-crust.xmf,1422,-1.53208e-06,4.746e-06,0,-2.19067e-06,-7.83215e+08,-7.82784e+08,-7.8311e+08,-150280,0.0190068,0.137278,0,0.138587,22974,-28514.9,0,36618.3,150280
step02_gravity_refstate-crust.xmf,1423,-1.90064e-06,7.03406e-06,0,-1.39886e-06,-1.03538e+09,-1.03477e+09,-1.03525e+09,-95961.9,0.0103952,0.0987278,0,0.0992736,20103.7,-37697.2,0,42722.8,95961.9
step02_gravity_refstate-crust.xmf,1424,-1.62756e-06,5.12164e-06,0,-2.12518e-06,-8.26432e+08,-8.25969e+08,-8.26321e+08,-145787,0.0187603,0.131447,0,0.132779,22579.7,-30088.4,0,37618.5,145787
step02_gravity_refstate-crust.xmf,1425,-1.21309e-06,3.84276e-06,0,-1.7075e-06,-6.53452e+08,-6.53105e+08,-6.53369e+08,-117135,0.0145011,0.141229,0,0.141972,26954.1,-23790.6,0,35951.6,117135
step02_gravity_refstate-crust.xmf,1426,-1.06632e-06,2.92935e-06,0,-1.07231e-06,-5.04729e+08,-5.04455e+08,-5.04656e+08,-73560.1,0.00887857,0.14618,0,0.146449,31785.7,-18375.4,0,36714.9,73560.1
step02_gravity_refstate-crust.xmf,1427,-1.34275e-06,4.26742e-06,0,-1.97595e-06,-7.17313e+08,-7.16928e+08,-7.17221e+08,-135550,0.0170353,0.139889,0,0.140922,24815.5,-26115.7,0,36025.5,135550
step02_gravity_refstate-crust.xmf,1428,-1.43514e-06,4.65018e-06,0,-1.92845e-06,-7.67106e+08,-7.66689e+08,-7.67008e+08,-132292,0.017021,0.13324,0,0.134323,24477,-27928.7,0,37136.7,132292
step02_gravity_refstate-crust.xmf,1429,-1.71691e-06,5.4013e-06,0,-2.1138e-06,-8.59577e+08,-8.59089e+08,-8.59459e+08,-145007,0.0186367,0.12774,0,0.129093,22059.4,-31295.2,0,38288.5,145007
step02_gravity_refstate-crust.xmf,1430,-1.75889e-06,5.71664e-06,0,-1.93612e-06,-8.94689e+08,-8.94176e+08,-8.94569e+08,-132818,0.0172377,0.120694,0,0.121919,22048.4,-32573.8,0,39334.3,132818
step02_gravity_refstate-crust.xmf,1431,-1.79862e-06,6.06439e-06,0,-1.76464e-06,-9.3411e+08,-9.33571e+08,-9.33987e+08,-121054,0.0156179,0.113667,0,0.114735,21775.1,-34009.3,0,40383,121054
step02_gravity_refstate-crust.xmf,1432,-1.84607e-06,6.72207e-06,0,-1.46143e-06,-1.00647e+09,-1.00588e+09,-1.00634e+09,-100254,0.0118761,0.101883,0,0.102572,20832.2,-36644.5,0,42152.1,100254
step02_gravity_refstate-crust.xmf,1433,-1.82239e-06,6.40647e-06,0,-1.59072e-06,-9.72641e+08,-9.72076e+08,-9.72515e+08,-109123,0.0136917,0.106986,0,0.107859,21384.7,-35412.5,0,41368.5,109123
step02_gravity_refstate-crust.xmf,1434,-1.63417e-06,7.12706e-06,0,-9.92415e-07,-1.06567e+09,-1.06507e+09,-1.06556e+09,-68079.7,0.00589501,0.0874294,0,0.0876279,20743.3,-38801.2,0,43997.9,68079.7
step02_gravity_refstate-crust.xmf,1435,-1.2917e-06,4.18917e-06,0,-1.7066e-06,-7.0367e+08,-7.03294e+08,-7.03582e+08,-117073,0.0147966,0.135194,0,0.136001,26583.7,-25619.1,0,36919.3,117073
step02_gravity_refstate-crust.xmf,1436,-1.17743e-06,3.77367e-06,0,-1.44024e-06,-6.39519e+08,-6.39179e+08,-6.39438e+08,-98800.3,0.0123006,0.13725,0,0.1378,28810.4,-23283.4,0,37042.6,98800.3
step02_gravity_refstate-crust.xmf,1437,-1.12184e-06,3.41e-06,0,-1.42135e-06,-5.84569e+08,-5.84258e+08,-5.84492e+08,-97504.7,0.0118507,0.143332,0,0.143821,29191.7,-21282.6,0,36126.2,97504.7
step02_gravity_refstate-crust.xmf,1438,-1.11134e-06,3.31614e-06,0,-1.14454e-06,-5.66806e+08,-5.66502e+08,-5.6673e+08,-78515.5,0.00953791,0.140293,0,0.140617,31251.4,-20635.8,0,37449.7,78515.5
step02_gravity_refstate-crust.xmf,1439,-1.07276e-06,2.83523e-06,0,-7.68221e-07,-4.86033e+08,-4.85765e+08,-4.85959e+08,-52700,0.00641048,0.143993,0,0.144135,34075.4,-17694.6,0,38395.7,52700
step02_gravity_refstate-crust.xmf,1440,-1.08554e-06,2.6086e-06,0,-2.8627e-07,-4.45685e+08,-4.45432e+08,-4.45611e+08,-19638.1,0.00243059,0.144128,0,0.144149,37763.4,-16225.3,0,41101.5,19638.1
step02_gravity_refstate-crust.xmf,1441,-1.09149e-06,2.3992e-06,0,2.72469e-10,-4.09598e+08,-4.09359e+08,-4.09523e+08,18.6914,1.6894e-19,0.146779,0,0.146779,40000,-14911.1,0,42688.9,18.6914
step02_gravity_refstate-crust.xmf,1442,-1.52813e-06,5.03228e-06,0,-1.8519e-06,-8.16898e+08,-8.16448e+08,-8.16794e+08,-127041,0.0165782,0.126008,0,0.127094,24122.5,-29741.6,0,38294.4,127041
step02_gravity_refstate-crust.xmf,1443,-1.62091e-06,6.82794e-06,0,-1.08181e-06,-1.03627e+09,-1.03569e+09,-1.03615e+09,-74212,0.00784263,0.0910603,0,0.0913974,21500,-37730.3,0,43426.1,74212
step02_gravity_refstate-crust.xmf,1444,-1.60154e-06,5.45991e-06,0,-1.747e-06,-8.68718e+08,-8.68233e+08,-8.68608e+08,-119844,0.0159072,0.118908,0,0.119968,23500.9,-31628.5,0,39403.8,119844
step02_gravity_refstate-crust.xmf,1445,-1.2249e-06,4.11643e-06,0,-1.43512e-06,-6.90959e+08,-6.90592e+08,-6.90875e+08,-98449,0.0125884,0.131071,0,0.131675,28409.3,-25156.5,0,37946.5,98449
step02_gravity_refstate-crust.xmf,1446,-1.09292e-06,3.22184e-06,0,-8.5267e-07,-5.49222e+08,-5.48926e+08,-5.49147e+08,-58493.2,0.00715338,0.138094,0,0.138279,33415.3,-19995.5,0,38941,58493.2
step02_gravity_refstate-crust.xmf,1447,-1.08266e-06,2.81006e-06,0,-5.07803e-07,-4.80113e+08,-4.79846e+08,-4.80039e+08,-34835.3,0.00425584,0.14207,0,0.142134,36075.2,-17479,0,40086.5,34835.3
step02_gravity_refstate-crust.xmf,1448,-1.34547e-06,4.54484e-06,0,-1.65891e-06,-7.52466e+08,-7.52062e+08,-7.52374e+08,-113801,0.0148093,0.128783,0,0.129632,26215.3,-27395.9,0,37918,113801
step02_gravity_refstate-crust.xmf,1449,-1.39701e-06,4.90422e-06,0,-1.58239e-06,-8.02352e+08,-8.0192e+08,-8.02256e+08,-108552,0.0144528,0.121688,0,0.122543,25822.6,-29212.4,0,38989.4,108552
step02_gravity_refstate-crust.xmf,1450,-1.61342e-06,5.84428e-06,0,-1.52793e-06,-9.18706e+08,-9.18194e+08,-9.18595e+08,-104816,0.0139056,0.109545,0,0.110424,23302.3,-33448.9,0,40765.5,104816
step02_gravity_refstate-crust.xmf,1451,-1.5998e-06,6.17704e-06,0,-1.33113e-06,-9.62231e+08,-9.61697e+08,-9.62121e+08,-91315.6,0.0117886,0.101678,0,0.10236,22942.6,-35034.1,0,41877.8,91315.6
step02_gravity_refstate-crust.xmf,1452,-1.55973e-06,6.51021e-06,0,-1.11706e-06,-1.0064e+09,-1.00584e+09,-1.00629e+09,-76630.6,0.00911025,0.0937099,0,0.0941517,22460,-36642.6,0,42978.3,76630.6
step02_gravity_refstate-crust.xmf,1453,-1.34796e-06,6.89203e-06,0,-7.25566e-07,-1.0674e+09,-1.06684e+09,-1.06731e+09,-49773.9,0.00365481,0.0803944,0,0.0804774,22113.9,-38865.1,0,44716,49773.9
step02_gravity_refstate-crust.xmf,1454,-1.27214e-06,4.43773e-06,0,-1.41664e-06,-7.39765e+08,-7.39373e+08,-7.39678e+08,-97181.4,0.0126883,0.124847,0,0.125491,27968.4,-26933.6,0,38828.5,97181.4
step02_gravity_refstate-crust.xmf,1455,-1.17077e-06,4.04076e-06,0,-1.1722e-06,-6.8016e+08,-6.79802e+08,-6.8008e+08,-80413.1,0.0103433,0.127301,0,0.127721,30341,-24763.4,0,39163.8,80413.1
step02_gravity_refstate-crust.xmf,1456,-1.14264e-06,3.69139e-06,0,-1.17226e-06,-6.25321e+08,-6.24989e+08,-6.25243e+08,-80417.1,0.0100442,0.133936,0,0.134312,30778.4,-22766.5,0,38283.4,80417.1
step02_gravity_refstate-crust.xmf,1457,-1.11906e-06,3.59059e-06,0,-9.05006e-07,-6.09392e+08,-6.09069e+08,-6.09315e+08,-62083.4,0.0077214,0.131612,0,0.131838,32865.2,-22186.6,0,39653.1,62083.4
step02_gravity_refstate-crust.xmf,1458,-1.08718e-06,3.14249e-06,0,-5.60857e-07,-5.35116e+08,-5.34826e+08,-5.35042e+08,-38474.8,0.00471985,0.136567,0,0.136648,35648.8,-19481.9,0,40624.9,38474.8
step02_gravity_refstate-crust.xmf,1459,-1.08733e-06,3.02503e-06,0,-2.81527e-07,-5.15156e+08,-5.14874e+08,-5.15082e+08,-19312.8,0.00235896,0.136968,0,0.136988,37825.5,-18755.1,0,42219.9,19312.8
step02_gravity_refstate-crust.xmf,1460,-1.08603e-06,2.84239e-06,0,-6.22009e-11,-4.84427e+08,-4.84158e+08,-4.84353e+08,-4.26698,1.63683e-19,0.139638,0,0.139638,40000,-17636.1,0,43715.3,4.26698
step02_gravity_refstate-crust.xmf,1461,-1.44242e-06,5.25816e-06,0,-1.479e-06,-8.52461e+08,-8.52001e+08,-8.52362e+08,-101460,0.0136433,0.114093,0,0.114905,25389.5,-31037,0,40098.9,101460
step02_gravity_refstate-crust.xmf,1462,-1.39402e-06,6.66896e-06,0,-8.47578e-07,-1.03971e+09,-1.03915e+09,-1.03961e+09,-58143.8,0.00578076,0.0848995,0,0.0850961,22641.7,-37856.3,0,44110.6,58143.8
step02_gravity_refstate-crust.xmf,1463,-1.18699e-06,4.34992e-06,0,-1.1646e-06,-7.29401e+08,-7.29021e+08,-7.2932e+08,-79891.8,0.01055,0.121148,0,0.121606,29813.4,-26556.5,0,39926,79891.8
step02_gravity_refstate-crust.xmf,1464,-1.09106e-06,3.48319e-06,0,-6.2779e-07,-5.91948e+08,-5.91634e+08,-5.91873e+08,-43066.4,0.00536937,0.130469,0,0.130579,35023.3,-21551.4,0,41122.9,43066.4
step02_gravity_refstate-crust.xmf,1465,-1.28809e-06,4.7629e-06,0,-1.34726e-06,-7.87725e+08,-7.8731e+08,-7.87637e+08,-92422.1,0.0124216,0.118093,0,0.118745,27571.7,-28680.1,0,39783.7,92422.1
step02_gravity_refstate-crust.xmf,1466,-1.29332e-06,5.09061e-06,0,-1.24704e-06,-8.37638e+08,-8.372e+08,-8.37549e+08,-85546.8,0.0117283,0.110544,0,0.111164,27147.9,-30497.7,0,40830.3,85546.8
step02_gravity_refstate-crust.xmf,1467,-1.43602e-06,5.61522e-06,0,-1.31602e-06,-9.01762e+08,-9.01279e+08,-9.01664e+08,-90279.1,0.0122623,0.106063,0,0.106769,24950.2,-32832.4,0,41236.9,90279.1
step02_gravity_refstate-crust.xmf,1468,-1.39909e-06,5.9342e-06,0,-1.12416e-06,-9.48841e+08,-9.48338e+08,-9.48745e+08,-77117.5,0.0102327,0.0976797,0,0.0982142,24569.8,-34547,0,42393.1,77117.5
step02_gravity_refstate-crust.xmf,1469,-1.32957e-06,6.21458e-06,0,-9.24154e-07,-9.91946e+08,-9.91428e+08,-9.91854e+08,-63397,0.00781215,0.0897226,0,0.0900621,24172.9,-36117,0,43459.9,63397
step02_gravity_refstate-crust.xmf,1470,-1.23161e-06,6.44663e-06,0,-7.29142e-07,-1.02987e+09,-1.02934e+09,-1.02978e+09,-50019.2,0.00515523,0.0823929,0,0.082554,23814.8,-37498.4,0,44421.5,50019.2
step02_gravity_refstate-crust.xmf,1471,-1.1031e-06,6.64993e-06,0,-5.35128e-07,-1.06567e+09,-1.06514e+09,-1.0656e+09,-36709.8,0.00216795,0.07518,0,0.0752113,23474.5,-38802.8,0,45350.9,36709.8
step02_gravity_refstate-crust.xmf,1472,-1.20337e-06,4.63122e-06,0,-1.14153e-06,-7.74728e+08,-7.74328e+08,-7.74645e+08,-78309,0.0105302,0.115147,0,0.115627,29292.4,-28207,0,40665.5,78309
step02_gravity_refstate-crust.xmf,1473,-1.11018e-06,4.29454e-06,0,-8.83326e-07,-7.26877e+08,-7.26507e+08,-7.26801e+08,-60596.2,0.00809369,0.116473,0,0.116754,31976.5,-26464.9,0,41507.6,60596.2
step02_gravity_refstate-crust.xmf,1474,-1.12173e-06,3.94761e-06,0,-9.15791e-07,-6.6776e+08,-6.67413e+08,-6.67683e+08,-62823.3,0.00809222,0.124558,0,0.124821,32366.3,-24312.1,0,40480.3,62823.3
step02_gravity_refstate-crust.xmf,1475,-1.09321e-06,3.83598e-06,0,-6.71887e-07,-6.51645e+08,-6.51307e+08,-6.5157e+08,-46091.4,0.00588913,0.12333,0,0.12347,34425.1,-23725.3,0,41808.8,46091.4
step02_gravity_refstate-crust.xmf,1476,-1.08089e-06,3.45968e-06,0,-3.15823e-07,-5.88225e+08,-5.87913e+08,-5.88151e+08,-21665.5,0.00271057,0.128554,0,0.128583,37478.4,-21415.9,0,43165.6,21665.5
step02_gravity_refstate-crust.xmf,1477,-1.08047e-06,3.2764e-06,0,-7.53769e-10,-5.57407e+08,-5.57108e+08,-5.57332e+08,-51.7086,1.87858e-19,0.131507,0,0.131507,40000,-20293.6,0,44853.5,51.7086
step02_gravity_refstate-crust.xmf,1478,-1.28172e-06,5.40295e-06,0,-1.11914e-06,-8.87281e+08,-8.86823e+08,-8.87194e+08,-76773.2,0.0105338,0.102543,0,0.103083,26706,-32305.5,0,41914.9,76773.2
step02_gravity_refstate-crust.xmf,1479,-1.12658e-06,4.52516e-06,0,-9.56471e-07,-7.6392e+08,-7.63532e+08,-7.63842e+08,-65613.9,0.00884815,0.112892,0,0.113239,30892.8,-27813.7,0,41568.8,65613.9
step02_gravity_refstate-crust.xmf,1480,-1.07431e-06,3.71299e-06,0,-4.58336e-07,-6.32001e+08,-6.31672e+08,-6.31927e+08,-31441.9,0.00398968,0.123849,0,0.123913,36235.3,-23010,0,42923.8,31441.9
step02_gravity_refstate-crust.xmf,1481,-1.17753e-06,4.92283e-06,0,-1.05174e-06,-8.22602e+08,-8.22183e+08,-8.22521e+08,-72149.4,0.00996231,0.107868,0,0.108327,28915.9,-29950.5,0,41631.2,72149.4
step02_gravity_refstate-crust.xmf,1482,-1.13382e-06,5.21256e-06,0,-9.36951e-07,-8.72364e+08,-8.71929e+08,-8.72287e+08,-64274.8,0.00898179,0.0999399,0,0.100343,28473.1,-31762.8,0,42656.7,64274.8
step02_gravity_refstate-crust.xmf,1483,-1.21867e-06,5.70043e-06,0,-9.48722e-07,-9.34945e+08,-9.3447e+08,-9.34861e+08,-65082.3,0.00883247,0.0944314,0,0.0948435,26256.1,-34041.5,0,42990.8,65082.3
step02_gravity_refstate-crust.xmf,1484,-1.12552e-06,5.96292e-06,0,-7.58018e-07,-9.80904e+08,-9.80418e+08,-9.80827e+08,-52000,0.00654797,0.0860603,0,0.0863091,25846.5,-35715.5,0,44086.7,52000
step02_gravity_refstate-crust.xmf,1485,-1.00475e-06,6.19133e-06,0,-5.65202e-07,-1.02328e+09,-1.02279e+09,-1.02322e+09,-38772.8,0.0039122,0.0781065,0,0.0782045,25421.6,-37259.2,0,45105.5,38772.8
step02_gravity_refstate-crust.xmf,1486,-8.65597e-07,6.39165e-06,0,-3.8099e-07,-1.06216e+09,-1.06167e+09,-1.0621e+09,-26135.9,0.00102406,0.0706689,0,0.0706763,24977.3,-38675.5,0,46039.8,26135.9
step02_gravity_refstate-crust.xmf,1487,-1.09641e-06,4.76262e-06,0,-8.89972e-07,-8.06111e+08,-8.0571e+08,-8.06036e+08,-61052.1,0.00840737,0.106387,0,0.106719,30622.2,-29350.2,0,42416.5,61052.1
step02_gravity_refstate-crust.xmf,1488,-1.04114e-06,4.57691e-06,0,-7.43952e-07,-7.81242e+08,-7.80857e+08,-7.81171e+08,-51035.1,0.00699952,0.106925,0,0.107154,32363,-28444.8,0,43086.8,51035.1
step02_gravity_refstate-crust.xmf,1489,-1.06074e-06,4.16334e-06,0,-6.55166e-07,-7.09423e+08,-7.09064e+08,-7.0935e+08,-44944.4,0.00597901,0.115443,0,0.115598,34066.1,-25829.4,0,42751.1,44944.4
step02_gravity_refstate-crust.xmf,1490,-1.04062e-06,4.04041e-06,0,-4.42378e-07,-6.90904e+08,-6.90555e+08,-6.90832e+08,-30347.1,0.00398132,0.115693,0,0.115761,36072.9,-25155.1,0,43977.7,30347.1
step02_gravity_refstate-crust.xmf,1491,-1.04823e-06,3.84202e-06,0,-2.41827e-07,-6.55967e+08,-6.55632e+08,-6.55895e+08,-16589.3,0.00215144,0.119283,0,0.119303,37929.5,-23882.8,0,44822.3,16589.3
step02_gravity_refstate-crust.xmf,1492,-1.05577e-06,3.68693e-06,0,-8.40202e-10,-6.28738e+08,-6.28412e+08,-6.28665e+08,-57.6379,1.49054e-19,0.122462,0,0.122462,40000,-22891.3,0,46087,57.6379
step02_gravity_refstate-crust.xmf,1493,-1.06696e-06,5.48232e-06,0,-7.97546e-07,-9.21895e+08,-9.21446e+08,-9.21822e+08,-54711.7,0.00748907,0.0916121,0,0.0919177,28011.5,-33566.7,0,43719.2,54711.7
step02_gravity_refstate-crust.xmf,1494,-1.008e-06,4.41462e-06,0,-6.04268e-07,-7.57399e+08,-7.57027e+08,-7.5733e+08,-41452.8,0.00566337,0.108095,0,0.108243,33968.9,-27576.6,0,43753.4,41452.8
step02_gravity_refstate-crust.xmf,1495,-1.02508e-06,5.02675e-06,0,-7.85113e-07,-8.55887e+08,-8.55471e+08,-8.55816e+08,-53858.7,0.00757296,0.0983522,0,0.0986433,30265.6,-31163,0,43441.2,53858.7
step02_gravity_refstate-crust.xmf,1496,-9.26993e-07,5.28401e-06,0,-6.58377e-07,-9.07581e+08,-9.07155e+08,-9.07517e+08,-45164.6,0.00630845,0.0897228,0,0.0899443,29810.1,-33045.8,0,44504.7,45164.6
step02_gravity_refstate-crust.xmf,1497,-9.50721e-07,5.7313e-06,0,-6.25282e-07,-9.69601e+08,-9.69142e+08,-9.69535e+08,-42894.3,0.00550535,0.0832439,0,0.0834258,27530.4,-35304.3,0,44769.6,42894.3
step02_gravity_refstate-crust.xmf,1498,-7.96357e-07,5.94153e-06,0,-4.3309e-07,-1.01602e+09,-1.01556e+09,-1.01597e+09,-29710,0.00290852,0.0744867,0,0.0745435,27136.6,-36995.3,0,45880.8,29710
step02_gravity_refstate-crust.xmf,1499,-6.25672e-07,6.13061e-06,0,-2.47944e-07,-1.05949e+09,-1.05902e+09,-1.05944e+09,-17009,4.29254e-06,0.066267,0,0.066267,26652.4,-38578.6,0,46889.9,17009
step02_gravity_refstate-crust.xmf,1500,-9.61136e-07,4.83972e-06,0,-6.54086e-07,-8.34315e+08,-8.33917e+08,-8.34249e+08,-44870.3,0.00628364,0.0982926,0,0.0984933,32116.5,-30377.7,0,44207.2,44870.3
step02_gravity_refstate-crust.xmf,1501,-9.04671e-07,4.65275e-06,0,-4.96828e-07,-8.08792e+08,-8.08411e+08,-8.0873e+08,-34082.4,0.00481157,0.0992842,0,0.0994007,34193.2,-29448.4,0,45126.3,34082.4
step02_gravity_refstate-crust.xmf,1502,-9.58761e-07,4.38764e-06,0,-4.14132e-07,-7.58106e+08,-7.57739e+08,-7.5804e+08,-28409.5,0.00391204,0.105716,0,0.105788,35747.5,-27602.5,0,45164,28409.5
step02_gravity_refstate-crust.xmf,1503,-9.65434e-07,4.22103e-06,0,-2.09872e-07,-7.29536e+08,-7.2918e+08,-7.29469e+08,-14397.2,0.00195922,0.10847,0,0.108488,37948.7,-26562.1,0,46321.2,14397.2
step02_gravity_refstate-crust.xmf,1504,-9.94345e-07,4.06033e-06,0,-1.94753e-09,-6.98603e+08,-6.98256e+08,-6.98534e+08,-133.6,1.36254e-19,0.112605,0,0.112605,40000,-25435.6,0,47402.2,133.6
step02_gravity_refstate-crust.xmf,1505,-8.07251e-07,5.51179e-06,0,-5.17738e-07,-9.57321e+08,-9.56888e+08,-9.57266e+08,-35516.8,0.00459821,0.0811199,0,0.0812501,29312.8,-34857.5,0,45544.3,35516.8
step02_gravity_refstate-crust.xmf,1506,-8.28171e-07,5.10176e-06,0,-5.39629e-07,-8.9212e+08,-8.91713e+08,-8.92063e+08,-37018.5,0.00521669,0.0886991,0,0.0888524,31657.2,-32483.1,0,45357.8,37018.5
step02_gravity_refstate-crust.xmf,1507,-6.88076e-07,5.30946e-06,0,-4.24176e-07,-9.42082e+08,-9.41671e+08,-9.42035e+08,-29098.5,0.00388381,0.0801627,0,0.0802567,31166.2,-34302.9,0,46346.7,29098.5
step02_gravity_refstate-crust.xmf,1508,-6.29584e-07,5.70838e-06,0,-3.42428e-07,-1.00639e+09,-1.00596e+09,-1.00635e+09,-23490.5,0.0022916,0.0721266,0,0.072163,28869.1,-36645,0,46650.6,23490.5
step02_gravity_refstate-crust.xmf,1509,-4.08344e-07,5.8757e-06,0,-1.51355e-07,-1.05562e+09,-1.05518e+09,-1.05559e+09,-10382.9,-0.000644584,0.0626415,-0,0.0626448,28470.5,-38438.2,0,47833.7,10382.9
step02_gravity_refstate-crust.xmf,1510,-7.79639e-07,4.92897e-06,0,-4.34309e-07,-8.71967e+08,-8.71575e+08,-8.71913e+08,-29793.6,0.00421344,0.0891554,0,0.0892549,33568.4,-31749.3,0,46204.5,29793.6
step02_gravity_refstate-crust.xmf,1511,-8.15628e-07,4.63373e-06,0,-3.03756e-07,-8.18231e+08,-8.17858e+08,-8.18176e+08,-20837.7,0.00293244,0.0953573,0,0.0954024,36243.8,-29792.4,0,46916.9,20837.7
step02_gravity_refstate-crust.xmf,1512,-8.40335e-07,4.51904e-06,0,-1.7422e-07,-7.95424e+08,-7.95056e+08,-7.95366e+08,-11951.5,0.00168852,0.0979802,0,0.0979948,37956.7,-28961.8,0,47744.1,11951.5
step02_gravity_refstate-crust.xmf,1513,-8.84344e-07,4.38685e-06,0,-2.22197e-09,-7.67205e+08,-7.66844e+08,-7.67145e+08,-152.427,1.17444e-19,0.10205,0,0.10205,40000,-27934.1,0,48788.5,152.427
step02_gravity_refstate-crust.xmf,1514,-5.22142e-07,5.49426e-06,0,-2.91833e-07,-9.91191e+08,-9.90778e+08,-9.91155e+08,-20019.7,0.00209004,0.0715136,0,0.0715441,30633.9,-36091.7,0,47339.7,20019.7
step02_gravity_refstate-crust.xmf,1515,-7.02371e-07,4.82652e-06,0,-2.96297e-07,-8.64288e+08,-8.63909e+08,-8.6424e+08,-20326,0.0029024,0.0880859,0,0.0881337,35537.7,-31469.9,0,47468.8,20326
step02_gravity_refstate-crust.xmf,1516,-6.07151e-07,5.13913e-06,0,-3.38627e-07,-9.27112e+08,-9.26718e+08,-9.27071e+08,-23229.8,0.00316666,0.0797891,0,0.079852,33062.3,-33758,0,47251.6,23229.8
step02_gravity_refstate-crust.xmf,1517,-4.38355e-07,5.30987e-06,0,-2.42653e-07,-9.75833e+08,-9.75438e+08,-9.75803e+08,-16646,0.00187793,0.0714421,0,0.0714667,32445.7,-35532.6,0,48117.4,16646
step02_gravity_refstate-crust.xmf,1518,-2.37541e-07,5.62705e-06,0,-9.75298e-08,-1.04585e+09,-1.04545e+09,-1.04583e+09,-6690.54,-0.00068858,0.0606952,-0,0.0606991,30494.2,-38082.9,0,48787.4,6690.54
step02_gravity_refstate-crust.xmf,1519,-5.54954e-07,5.01451e-06,0,-2.5554e-07,-9.15893e+08,-9.15511e+08,-9.15855e+08,-17530.1,0.00239215,0.0795099,0,0.0795459,34893.4,-33349.5,0,48267.4,17530.1
step02_gravity_refstate-crust.xmf,1520,-6.44375e-07,4.78064e-06,0,-1.39242e-07,-8.64545e+08,-8.64173e+08,-8.64501e+08,-9552.03,0.00139346,0.0863605,0,0.0863717,37783.7,-31479.4,0,49178.9,9552.03
step02_gravity_refstate-crust.xmf,1521,-7.15798e-07,4.65823e-06,0,-3.36213e-09,-8.34751e+08,-8.34382e+08,-8.34702e+08,-230.642,9.77102e-20,0.090921,0,0.090921,40000,-30394.3,0,50237.5,230.642
step02_gravity_refstate-crust.xmf,1522,-2.84095e-07,5.44499e-06,0,-1.49414e-07,-1.01596e+09,-1.01556e+09,-1.01594e+09,-10249.8,0.00045445,0.0644936,0,0.0644952,31850,-36994.2,0,48815.9,10249.8
step02_gravity_refstate-crust.xmf,1523,-5.21842e-07,4.93047e-06,0,-1.78649e-07,-9.06606e+08,-9.06232e+08,-9.0657e+08,-12255.3,0.00169174,0.0797168,0,0.0797347,36506.7,-33011.4,0,49218.9,12255.3
step02_gravity_refstate-crust.xmf,1524,-3.60094e-07,5.16855e-06,0,-1.82226e-07,-9.66105e+08,-9.65726e+08,-9.66081e+08,-12500.7,0.00144423,0.0708222,0,0.0708369,34325.6,-35178.6,0,49150.6,12500.7
step02_gravity_refstate-crust.xmf,1525,-1.75886e-07,5.30635e-06,0,-1.05278e-07,-1.01195e+09,-1.01157e+09,-1.01193e+09,-7222.06,0.000226394,0.0629798,0,0.0629802,33542.6,-36848.4,0,49828.9,7222.06
step02_gravity_refstate-crust.xmf,1526,-7.07271e-09,5.44204e-06,0,-2.01008e-08,-1.05399e+09,-1.05362e+09,-1.05399e+09,-1378.92,-0.0013493,0.0559597,-0,0.055976,32559.4,-38380,0,50330.3,1378.92
step02_gravity_refstate-crust.xmf,1527,-3.3017e-07,5.0606e-06,0,-1.2807e-07,-9.54863e+08,-9.54494e+08,-9.54841e+08,-8785.63,0.00105054,0.0711443,0,0.071152,36224.1,-34769.3,0,50210.4,8785.63
step02_gravity_refstate-crust.xmf,1528,-3.71563e-07,4.96608e-06,0,-7.45186e-08,-9.3344e+08,-9.33074e+08,-9.33415e+08,-5111.98,0.000682009,0.0739922,0,0.0739954,38094.7,-33989,0,51053.5,5111.98
step02_gravity_refstate-crust.xmf,1529,-4.87325e-07,4.87121e-06,0,-2.74181e-09,-9.01443e+08,-9.01076e+08,-9.0141e+08,-188.088,4.98898e-20,0.0793466,0,0.0793466,40000,-32823.5,0,51743.4,188.088
step02_gravity_refstate-crust.xmf,1530,-9.40599e-08,5.18238e-06,0,-6.79342e-08,-1.00629e+09,-1.00592e+09,-1.00628e+09,-4660.29,0.000127976,0.0620894,0,0.0620895,35527.5,-36642.5,0,51037.9,4660.29
step02_gravity_refstate-crust.xmf,1531,1.23481e-07,5.29515e-06,0,3.40983e-09,-1.05351e+09,-1.05315e+09,-1.05352e+09,233.915,-0.00121468,0.0539114,-0,0.0539251,34547.6,-38362.8,0,51625.9,233.915
step02_gravity_refstate-crust.xmf,1532,-4.95533e-08,5.09574e-06,0,-2.98244e-08,-9.99809e+08,-9.99456e+08,-9.99806e+08,-2045.95,7.58327e-05,0.0618988,0,0.0618988,37908.3,-36406.7,0,52559.4,2045.95
step02_gravity_refstate-crust.xmf,1533,-1.93724e-07,5.0199e-06,0,-4.1882e-09,-9.67486e+08,-9.67129e+08,-9.67473e+08,-287.31,8.87168e-21,0.0674464,0,0.0674464,40000,-35229.3,0,53302,287.31
step02_gravity_refstate-crust.xmf,1534,2.05644e-07,5.18945e-06,0,8.63924e-09,-1.05143e+09,-1.05109e+09,-1.05144e+09,592.652,-0.000821911,0.0528375,-0,0.0528439,36600.2,-38287.2,0,52966.8,592.652
step02_gravity_refstate-crust.xmf,1535,1.54605e-07,5.11146e-06,0,-1.01185e-09,-1.03308e+09,-1.03274e+09,-1.03309e+09,-69.4131,-3.10696e-20,0.0553411,-0,0.0553411,40000,-37619,0,54910.7,69.4131
step02_gravity_refstate-crust.xmf,1536,2.68459e-07,5.14019e-06,0,6.27467e-09,-1.05516e+09,-1.05482e+09,-1.05517e+09,430.443,-0.000443006,0.051421,-0,0.0514229,38420.4,-38423.1,0,54336.5,430.443
